 "x_c",  "y_c",  "u_c",  "v_c",  "exx",  "eyy",  "exy",  "e1",  "e2",  "gamma",  "e_vonmises",  "sigma",  "x",  "y",  "u",  "v"
-700,715,0,0,0,0,0,0,0,0,0,-1,524,309,0,0
-693,715,0,0,0,0,0,0,0,0,0,-1,531,309,0,0
-686,715,0,0,0,0,0,0,0,0,0,-1,538,309,0,0
-679,715,0,0,0,0,0,0,0,0,0,-1,545,309,0,0
-672,715,0,0,0,0,0,0,0,0,0,-1,552,309,0,0
-665,715,0,0,0,0,0,0,0,0,0,-1,559,309,0,0
-658,715,0,0,0,0,0,0,0,0,0,-1,566,309,0,0
-651,715,0,0,0,0,0,0,0,0,0,-1,573,309,0,0
-644,715,0,0,0,0,0,0,0,0,0,-1,580,309,0,0
-637,715,0,0,0,0,0,0,0,0,0,-1,587,309,0,0
-630,715,0,0,0,0,0,0,0,0,0,-1,594,309,0,0
-623,715,0,0,0,0,0,0,0,0,0,-1,601,309,0,0
-616,715,0,0,0,0,0,0,0,0,0,-1,608,309,0,0
-609,715,0,0,0,0,0,0,0,0,0,-1,615,309,0,0
-602,715,0,0,0,0,0,0,0,0,0,-1,622,309,0,0
-595,715,0,0,0,0,0,0,0,0,0,-1,629,309,0,0
-588,715,0,0,0,0,0,0,0,0,0,-1,636,309,0,0
-581,715,0,0,0,0,0,0,0,0,0,-1,643,309,0,0
-574,715,0,0,0,0,0,0,0,0,0,-1,650,309,0,0
-567,715,0,0,0,0,0,0,0,0,0,-1,657,309,0,0
-560,715,0,0,0,0,0,0,0,0,0,-1,664,309,0,0
-553,715,0,0,0,0,0,0,0,0,0,-1,671,309,0,0
-546,715,0,0,0,0,0,0,0,0,0,-1,678,309,0,0
-539,715,0,0,0,0,0,0,0,0,0,-1,685,309,0,0
-532,715,0,0,0,0,0,0,0,0,0,-1,692,309,0,0
-525,715,0,0,0,0,0,0,0,0,0,-1,699,309,0,0
-518,715,0,0,0,0,0,0,0,0,0,-1,706,309,0,0
-511,715,0,0,0,0,0,0,0,0,0,-1,713,309,0,0
-504,715,0,0,0,0,0,0,0,0,0,-1,720,309,0,0
-497,715,0,0,0,0,0,0,0,0,0,-1,727,309,0,0
-490,715,0,0,0,0,0,0,0,0,0,-1,734,309,0,0
-483,715,0,0,0,0,0,0,0,0,0,-1,741,309,0,0
-476,715,0,0,0,0,0,0,0,0,0,-1,748,309,0,0
-469,715,0,0,0,0,0,0,0,0,0,-1,755,309,0,0
-462,715,0,0,0,0,0,0,0,0,0,-1,762,309,0,0
-455,715,0,0,0,0,0,0,0,0,0,-1,769,309,0,0
-448,715,0,0,0,0,0,0,0,0,0,-1,776,309,0,0
-441,715,0,0,0,0,0,0,0,0,0,-1,783,309,0,0
-434,715,0,0,0,0,0,0,0,0,0,-1,790,309,0,0
-427,715,0,0,0,0,0,0,0,0,0,-1,797,309,0,0
-420,715,0,0,0,0,0,0,0,0,0,-1,804,309,0,0
-413,715,0,0,0,0,0,0,0,0,0,-1,811,309,0,0
-406,715,0,0,0,0,0,0,0,0,0,-1,818,309,0,0
-399,715,0,0,0,0,0,0,0,0,0,-1,825,309,0,0
-392,715,0,0,0,0,0,0,0,0,0,-1,832,309,0,0
-385,715,0,0,0,0,0,0,0,0,0,-1,839,309,0,0
-378,715,0,0,0,0,0,0,0,0,0,-1,846,309,0,0
-371,715,0,0,0,0,0,0,0,0,0,-1,853,309,0,0
-364,715,0,0,0,0,0,0,0,0,0,-1,860,309,0,0
-357,715,0,0,0,0,0,0,0,0,0,-1,867,309,0,0
-350,715,0,0,0,0,0,0,0,0,0,-1,874,309,0,0
-343,715,0,0,0,0,0,0,0,0,0,-1,881,309,0,0
-336,715,0,0,0,0,0,0,0,0,0,-1,888,309,0,0
-329,715,0,0,0,0,0,0,0,0,0,-1,895,309,0,0
-322,715,0,0,0,0,0,0,0,0,0,-1,902,309,0,0
-315,715,0,0,0,0,0,0,0,0,0,-1,909,309,0,0
-308,715,0,0,0,0,0,0,0,0,0,-1,916,309,0,0
-301,715,0,0,0,0,0,0,0,0,0,-1,923,309,0,0
-294,715,0,0,0,0,0,0,0,0,0,-1,930,309,0,0
-287,715,0,0,0,0,0,0,0,0,0,-1,937,309,0,0
-280,715,0,0,0,0,0,0,0,0,0,-1,944,309,0,0
-273,715,0,0,0,0,0,0,0,0,0,-1,951,309,0,0
-266,715,0,0,0,0,0,0,0,0,0,-1,958,309,0,0
-259,715,0,0,0,0,0,0,0,0,0,-1,965,309,0,0
-252,715,0,0,0,0,0,0,0,0,0,-1,972,309,0,0
-245,715,0,0,0,0,0,0,0,0,0,-1,979,309,0,0
-238,715,0,0,0,0,0,0,0,0,0,-1,986,309,0,0
-231,715,0,0,0,0,0,0,0,0,0,-1,993,309,0,0
-224,715,0,0,0,0,0,0,0,0,0,-1,1000,309,0,0
-217,715,0,0,0,0,0,0,0,0,0,-1,1007,309,0,0
-210,715,0,0,0,0,0,0,0,0,0,-1,1014,309,0,0
-203,715,0,0,0,0,0,0,0,0,0,-1,1021,309,0,0
-196,715,0,0,0,0,0,0,0,0,0,-1,1028,309,0,0
-189,715,0,0,0,0,0,0,0,0,0,-1,1035,309,0,0
-182,715,0,0,0,0,0,0,0,0,0,-1,1042,309,0,0
-175,715,0,0,0,0,0,0,0,0,0,-1,1049,309,0,0
-168,715,0,0,0,0,0,0,0,0,0,-1,1056,309,0,0
-161,715,0,0,0,0,0,0,0,0,0,-1,1063,309,0,0
-154,715,0,0,0,0,0,0,0,0,0,-1,1070,309,0,0
-147,715,0,0,0,0,0,0,0,0,0,-1,1077,309,0,0
-140,715,0,0,0,0,0,0,0,0,0,-1,1084,309,0,0
-133,715,0,0,0,0,0,0,0,0,0,-1,1091,309,0,0
-126,715,0,0,0,0,0,0,0,0,0,-1,1098,309,0,0
-119,715,0,0,0,0,0,0,0,0,0,-1,1105,309,0,0
-112,715,0,0,0,0,0,0,0,0,0,-1,1112,309,0,0
-105,715,0,0,0,0,0,0,0,0,0,-1,1119,309,0,0
-98,715,0,0,0,0,0,0,0,0,0,-1,1126,309,0,0
-91,715,0,0,0,0,0,0,0,0,0,-1,1133,309,0,0
-84,715,0,0,0,0,0,0,0,0,0,-1,1140,309,0,0
-77,715,0,0,0,0,0,0,0,0,0,-1,1147,309,0,0
-70,715,0,0,0,0,0,0,0,0,0,-1,1154,309,0,0
-63,715,0,0,0,0,0,0,0,0,0,-1,1161,309,0,0
-56,715,0,0,0,0,0,0,0,0,0,-1,1168,309,0,0
-49,715,0,0,0,0,0,0,0,0,0,-1,1175,309,0,0
-42,715,0,0,0,0,0,0,0,0,0,-1,1182,309,0,0
-35,715,0,0,0,0,0,0,0,0,0,-1,1189,309,0,0
-28,715,0,0,0,0,0,0,0,0,0,-1,1196,309,0,0
-21,715,0,0,0,0,0,0,0,0,0,-1,1203,309,0,0
-14,715,0,0,0,0,0,0,0,0,0,-1,1210,309,0,0
-7,715,0,0,0,0,0,0,0,0,0,-1,1217,309,0,0
0,715,0,0,0,0,0,0,0,0,0,-1,1224,309,0,0
7,715,0,0,0,0,0,0,0,0,0,-1,1231,309,0,0
14,715,0,0,0,0,0,0,0,0,0,-1,1238,309,0,0
21,715,0,0,0,0,0,0,0,0,0,-1,1245,309,0,0
28,715,0,0,0,0,0,0,0,0,0,-1,1252,309,0,0
35,715,0,0,0,0,0,0,0,0,0,-1,1259,309,0,0
42,715,0,0,0,0,0,0,0,0,0,-1,1266,309,0,0
49,715,0,0,0,0,0,0,0,0,0,-1,1273,309,0,0
56,715,0,0,0,0,0,0,0,0,0,-1,1280,309,0,0
63,715,7.4668,-68.6508,0,0,0,0,0,0,0,-1,1287,309,7.46676,68.6507
70,715,7.95911,-68.3301,0,0,0,0,0,0,0,-1,1294,309,7.9591,68.3301
77,715,0,0,0,0,0,0,0,0,0,-1,1301,309,0,0
84,715,0,0,0,0,0,0,0,0,0,-1,1308,309,0,0
91,715,0,0,0,0,0,0,0,0,0,-1,1315,309,0,0
98,715,0,0,0,0,0,0,0,0,0,-1,1322,309,0,0
105,715,0,0,0,0,0,0,0,0,0,-1,1329,309,0,0
112,715,0,0,0,0,0,0,0,0,0,-1,1336,309,0,0
119,715,0,0,0,0,0,0,0,0,0,-1,1343,309,0,0
126,715,0,0,0,0,0,0,0,0,0,-1,1350,309,0,0
133,715,0,0,0,0,0,0,0,0,0,-1,1357,309,0,0
140,715,0,0,0,0,0,0,0,0,0,-1,1364,309,0,0
147,715,0,0,0,0,0,0,0,0,0,-1,1371,309,0,0
154,715,0,0,0,0,0,0,0,0,0,-1,1378,309,0,0
161,715,0,0,0,0,0,0,0,0,0,-1,1385,309,0,0
168,715,0,0,0,0,0,0,0,0,0,-1,1392,309,0,0
175,715,0,0,0,0,0,0,0,0,0,-1,1399,309,0,0
182,715,0,0,0,0,0,0,0,0,0,-1,1406,309,0,0
189,715,0,0,0,0,0,0,0,0,0,-1,1413,309,0,0
196,715,0,0,0,0,0,0,0,0,0,-1,1420,309,0,0
203,715,0,0,0,0,0,0,0,0,0,-1,1427,309,0,0
210,715,0,0,0,0,0,0,0,0,0,-1,1434,309,0,0
217,715,0,0,0,0,0,0,0,0,0,-1,1441,309,0,0
224,715,0,0,0,0,0,0,0,0,0,-1,1448,309,0,0
231,715,0,0,0,0,0,0,0,0,0,-1,1455,309,0,0
238,715,0,0,0,0,0,0,0,0,0,-1,1462,309,0,0
245,715,0,0,0,0,0,0,0,0,0,-1,1469,309,0,0
252,715,0,0,0,0,0,0,0,0,0,-1,1476,309,0,0
259,715,0,0,0,0,0,0,0,0,0,-1,1483,309,0,0
266,715,0,0,0,0,0,0,0,0,0,-1,1490,309,0,0
273,715,0,0,0,0,0,0,0,0,0,-1,1497,309,0,0
280,715,0,0,0,0,0,0,0,0,0,-1,1504,309,0,0
287,715,0,0,0,0,0,0,0,0,0,-1,1511,309,0,0
294,715,0,0,0,0,0,0,0,0,0,-1,1518,309,0,0
301,715,0,0,0,0,0,0,0,0,0,-1,1525,309,0,0
308,715,0,0,0,0,0,0,0,0,0,-1,1532,309,0,0
315,715,0,0,0,0,0,0,0,0,0,-1,1539,309,0,0
322,715,0,0,0,0,0,0,0,0,0,-1,1546,309,0,0
329,715,0,0,0,0,0,0,0,0,0,-1,1553,309,0,0
336,715,0,0,0,0,0,0,0,0,0,-1,1560,309,0,0
343,715,0,0,0,0,0,0,0,0,0,-1,1567,309,0,0
350,715,0,0,0,0,0,0,0,0,0,-1,1574,309,0,0
357,715,0,0,0,0,0,0,0,0,0,-1,1581,309,0,0
364,715,0,0,0,0,0,0,0,0,0,-1,1588,309,0,0
371,715,0,0,0,0,0,0,0,0,0,-1,1595,309,0,0
378,715,0,0,0,0,0,0,0,0,0,-1,1602,309,0,0
385,715,0,0,0,0,0,0,0,0,0,-1,1609,309,0,0
392,715,0,0,0,0,0,0,0,0,0,-1,1616,309,0,0
399,715,0,0,0,0,0,0,0,0,0,-1,1623,309,0,0
406,715,0,0,0,0,0,0,0,0,0,-1,1630,309,0,0
413,715,0,0,0,0,0,0,0,0,0,-1,1637,309,0,0
420,715,0,0,0,0,0,0,0,0,0,-1,1644,309,0,0
427,715,0,0,0,0,0,0,0,0,0,-1,1651,309,0,0
434,715,0,0,0,0,0,0,0,0,0,-1,1658,309,0,0
441,715,0,0,0,0,0,0,0,0,0,-1,1665,309,0,0
448,715,0,0,0,0,0,0,0,0,0,-1,1672,309,0,0
455,715,0,0,0,0,0,0,0,0,0,-1,1679,309,0,0
462,715,0,0,0,0,0,0,0,0,0,-1,1686,309,0,0
469,715,0,0,0,0,0,0,0,0,0,-1,1693,309,0,0
476,715,0,0,0,0,0,0,0,0,0,-1,1700,309,0,0
483,715,0,0,0,0,0,0,0,0,0,-1,1707,309,0,0
490,715,0,0,0,0,0,0,0,0,0,-1,1714,309,0,0
497,715,0,0,0,0,0,0,0,0,0,-1,1721,309,0,0
504,715,0,0,0,0,0,0,0,0,0,-1,1728,309,0,0
511,715,0,0,0,0,0,0,0,0,0,-1,1735,309,0,0
518,715,0,0,0,0,0,0,0,0,0,-1,1742,309,0,0
525,715,0,0,0,0,0,0,0,0,0,-1,1749,309,0,0
532,715,0,0,0,0,0,0,0,0,0,-1,1756,309,0,0
539,715,0,0,0,0,0,0,0,0,0,-1,1763,309,0,0
546,715,0,0,0,0,0,0,0,0,0,-1,1770,309,0,0
553,715,0,0,0,0,0,0,0,0,0,-1,1777,309,0,0
560,715,0,0,0,0,0,0,0,0,0,-1,1784,309,0,0
567,715,0,0,0,0,0,0,0,0,0,-1,1791,309,0,0
574,715,0,0,0,0,0,0,0,0,0,-1,1798,309,0,0
581,715,0,0,0,0,0,0,0,0,0,-1,1805,309,0,0
588,715,0,0,0,0,0,0,0,0,0,-1,1812,309,0,0
595,715,0,0,0,0,0,0,0,0,0,-1,1819,309,0,0
602,715,0,0,0,0,0,0,0,0,0,-1,1826,309,0,0
609,715,0,0,0,0,0,0,0,0,0,-1,1833,309,0,0
616,715,0,0,0,0,0,0,0,0,0,-1,1840,309,0,0
623,715,0,0,0,0,0,0,0,0,0,-1,1847,309,0,0
630,715,0,0,0,0,0,0,0,0,0,-1,1854,309,0,0
637,715,0,0,0,0,0,0,0,0,0,-1,1861,309,0,0
644,715,0,0,0,0,0,0,0,0,0,-1,1868,309,0,0
651,715,0,0,0,0,0,0,0,0,0,-1,1875,309,0,0
658,715,0,0,0,0,0,0,0,0,0,-1,1882,309,0,0
665,715,0,0,0,0,0,0,0,0,0,-1,1889,309,0,0
672,715,0,0,0,0,0,0,0,0,0,-1,1896,309,0,0
679,715,0,0,0,0,0,0,0,0,0,-1,1903,309,0,0
686,715,0,0,0,0,0,0,0,0,0,-1,1910,309,0,0
693,715,0,0,0,0,0,0,0,0,0,-1,1917,309,0,0
700,715,0,0,0,0,0,0,0,0,0,-1,1924,309,0,0
707,715,0,0,0,0,0,0,0,0,0,-1,1931,309,0,0
714,715,0,0,0,0,0,0,0,0,0,-1,1938,309,0,0
721,715,0,0,0,0,0,0,0,0,0,-1,1945,309,0,0
728,715,0,0,0,0,0,0,0,0,0,-1,1952,309,0,0
735,715,0,0,0,0,0,0,0,0,0,-1,1959,309,0,0
742,715,0,0,0,0,0,0,0,0,0,-1,1966,309,0,0
749,715,0,0,0,0,0,0,0,0,0,-1,1973,309,0,0
756,715,0,0,0,0,0,0,0,0,0,-1,1980,309,0,0
763,715,0,0,0,0,0,0,0,0,0,-1,1987,309,0,0
770,715,0,0,0,0,0,0,0,0,0,-1,1994,309,0,0
777,715,0,0,0,0,0,0,0,0,0,-1,2001,309,0,0
784,715,0,0,0,0,0,0,0,0,0,-1,2008,309,0,0
791,715,0,0,0,0,0,0,0,0,0,-1,2015,309,0,0
798,715,0,0,0,0,0,0,0,0,0,-1,2022,309,0,0
805,715,0,0,0,0,0,0,0,0,0,-1,2029,309,0,0
812,715,0,0,0,0,0,0,0,0,0,-1,2036,309,0,0
-700,708,0,0,0,0,0,0,0,0,0,-1,524,316,0,0
-693,708,0,0,0,0,0,0,0,0,0,-1,531,316,0,0
-686,708,0,0,0,0,0,0,0,0,0,-1,538,316,0,0
-679,708,0,0,0,0,0,0,0,0,0,-1,545,316,0,0
-672,708,0,0,0,0,0,0,0,0,0,-1,552,316,0,0
-665,708,0,0,0,0,0,0,0,0,0,-1,559,316,0,0
-658,708,0,0,0,0,0,0,0,0,0,-1,566,316,0,0
-651,708,0,0,0,0,0,0,0,0,0,-1,573,316,0,0
-644,708,0,0,0,0,0,0,0,0,0,-1,580,316,0,0
-637,708,0,0,0,0,0,0,0,0,0,-1,587,316,0,0
-630,708,0,0,0,0,0,0,0,0,0,-1,594,316,0,0
-623,708,0,0,0,0,0,0,0,0,0,-1,601,316,0,0
-616,708,0,0,0,0,0,0,0,0,0,-1,608,316,0,0
-609,708,0,0,0,0,0,0,0,0,0,-1,615,316,0,0
-602,708,0,0,0,0,0,0,0,0,0,-1,622,316,0,0
-595,708,0,0,0,0,0,0,0,0,0,-1,629,316,0,0
-588,708,0,0,0,0,0,0,0,0,0,-1,636,316,0,0
-581,708,0,0,0,0,0,0,0,0,0,-1,643,316,0,0
-574,708,0,0,0,0,0,0,0,0,0,-1,650,316,0,0
-567,708,0,0,0,0,0,0,0,0,0,-1,657,316,0,0
-560,708,0,0,0,0,0,0,0,0,0,-1,664,316,0,0
-553,708,0,0,0,0,0,0,0,0,0,-1,671,316,0,0
-546,708,0,0,0,0,0,0,0,0,0,-1,678,316,0,0
-539,708,0,0,0,0,0,0,0,0,0,-1,685,316,0,0
-532,708,0,0,0,0,0,0,0,0,0,-1,692,316,0,0
-525,708,0,0,0,0,0,0,0,0,0,-1,699,316,0,0
-518,708,0,0,0,0,0,0,0,0,0,-1,706,316,0,0
-511,708,0,0,0,0,0,0,0,0,0,-1,713,316,0,0
-504,708,0,0,0,0,0,0,0,0,0,-1,720,316,0,0
-497,708,0,0,0,0,0,0,0,0,0,-1,727,316,0,0
-490,708,0,0,0,0,0,0,0,0,0,-1,734,316,0,0
-483,708,0,0,0,0,0,0,0,0,0,-1,741,316,0,0
-476,708,0,0,0,0,0,0,0,0,0,-1,748,316,0,0
-469,708,0,0,0,0,0,0,0,0,0,-1,755,316,0,0
-462,708,0,0,0,0,0,0,0,0,0,-1,762,316,0,0
-455,708,0,0,0,0,0,0,0,0,0,-1,769,316,0,0
-448,708,0,0,0,0,0,0,0,0,0,-1,776,316,0,0
-441,708,0,0,0,0,0,0,0,0,0,-1,783,316,0,0
-434,708,0,0,0,0,0,0,0,0,0,-1,790,316,0,0
-427,708,0,0,0,0,0,0,0,0,0,-1,797,316,0,0
-420,708,0,0,0,0,0,0,0,0,0,-1,804,316,0,0
-413,708,0,0,0,0,0,0,0,0,0,-1,811,316,0,0
-406,708,0,0,0,0,0,0,0,0,0,-1,818,316,0,0
-399,708,0,0,0,0,0,0,0,0,0,-1,825,316,0,0
-392,708,0,0,0,0,0,0,0,0,0,-1,832,316,0,0
-385,708,0,0,0,0,0,0,0,0,0,-1,839,316,0,0
-378,708,0,0,0,0,0,0,0,0,0,-1,846,316,0,0
-371,708,0,0,0,0,0,0,0,0,0,-1,853,316,0,0
-364,708,0,0,0,0,0,0,0,0,0,-1,860,316,0,0
-357,708,0,0,0,0,0,0,0,0,0,-1,867,316,0,0
-350,708,0,0,0,0,0,0,0,0,0,-1,874,316,0,0
-343,708,0,0,0,0,0,0,0,0,0,-1,881,316,0,0
-336,708,0,0,0,0,0,0,0,0,0,-1,888,316,0,0
-329,708,0,0,0,0,0,0,0,0,0,-1,895,316,0,0
-322,708,0,0,0,0,0,0,0,0,0,-1,902,316,0,0
-315,708,0,0,0,0,0,0,0,0,0,-1,909,316,0,0
-308,708,0,0,0,0,0,0,0,0,0,-1,916,316,0,0
-301,708,0,0,0,0,0,0,0,0,0,-1,923,316,0,0
-294,708,0,0,0,0,0,0,0,0,0,-1,930,316,0,0
-287,708,0,0,0,0,0,0,0,0,0,-1,937,316,0,0
-280,708,0,0,0,0,0,0,0,0,0,-1,944,316,0,0
-273,708,0,0,0,0,0,0,0,0,0,-1,951,316,0,0
-266,708,0,0,0,0,0,0,0,0,0,-1,958,316,0,0
-259,708,0,0,0,0,0,0,0,0,0,-1,965,316,0,0
-252,708,0,0,0,0,0,0,0,0,0,-1,972,316,0,0
-245,708,0,0,0,0,0,0,0,0,0,-1,979,316,0,0
-238,708,0,0,0,0,0,0,0,0,0,-1,986,316,0,0
-231,708,0,0,0,0,0,0,0,0,0,-1,993,316,0,0
-224,708,0,0,0,0,0,0,0,0,0,-1,1000,316,0,0
-217,708,0,0,0,0,0,0,0,0,0,-1,1007,316,0,0
-210,708,0,0,0,0,0,0,0,0,0,-1,1014,316,0,0
-203,708,0,0,0,0,0,0,0,0,0,-1,1021,316,0,0
-196,708,0,0,0,0,0,0,0,0,0,-1,1028,316,0,0
-189,708,0,0,0,0,0,0,0,0,0,-1,1035,316,0,0
-182,708,0,0,0,0,0,0,0,0,0,-1,1042,316,0,0
-175,708,0,0,0,0,0,0,0,0,0,-1,1049,316,0,0
-168,708,0,0,0,0,0,0,0,0,0,-1,1056,316,0,0
-161,708,0,0,0,0,0,0,0,0,0,-1,1063,316,0,0
-154,708,0,0,0,0,0,0,0,0,0,-1,1070,316,0,0
-147,708,0,0,0,0,0,0,0,0,0,-1,1077,316,0,0
-140,708,0,0,0,0,0,0,0,0,0,-1,1084,316,0,0
-133,708,0,0,0,0,0,0,0,0,0,-1,1091,316,0,0
-126,708,0,0,0,0,0,0,0,0,0,-1,1098,316,0,0
-119,708,0,0,0,0,0,0,0,0,0,-1,1105,316,0,0
-112,708,0,0,0,0,0,0,0,0,0,-1,1112,316,0,0
-105,708,0,0,0,0,0,0,0,0,0,-1,1119,316,0,0
-98,708,0,0,0,0,0,0,0,0,0,-1,1126,316,0,0
-91,708,0,0,0,0,0,0,0,0,0,-1,1133,316,0,0
-84,708,0,0,0,0,0,0,0,0,0,-1,1140,316,0,0
-77,708,0,0,0,0,0,0,0,0,0,-1,1147,316,0,0
-70,708,0,0,0,0,0,0,0,0,0,-1,1154,316,0,0
-63,708,0,0,0,0,0,0,0,0,0,-1,1161,316,0,0
-56,708,0,0,0,0,0,0,0,0,0,-1,1168,316,0,0
-49,708,0,0,0,0,0,0,0,0,0,-1,1175,316,0,0
-42,708,0,0,0,0,0,0,0,0,0,-1,1182,316,0,0
-35,708,-2.71204,-6.31558,0,0,0,0,0,0,0,-1,1189,316,-2.712,6.3156
-28,708,-2.92371,-5.53253,0,0,0,0,0,0,0,-1,1196,316,-2.92375,5.53254
-21,708,-0.417969,-24.5911,0,0,0,0,0,0,0,-1,1203,316,-0.418022,24.5911
-14,708,7.63074,-60.4131,0,0,0,0,0,0,0,-1,1210,316,7.63069,60.4131
-7,708,10.8486,-65.2796,0,0,0,0,0,0,0,-1,1217,316,10.8487,65.2796
0,708,12.3481,-63.3593,0,0,0,0,0,0,0,-1,1224,316,12.3481,63.3593
7,708,10.9524,-68.0367,0,0,0,0,0,0,0,-1,1231,316,10.9524,68.0367
14,708,8.87012,-68.0363,0,0,0,0,0,0,0,-1,1238,316,8.87017,68.0363
21,708,7.48425,-62.1471,0,0,0,0,0,0,0,-1,1245,316,7.48424,62.1471
28,708,7.42395,-63.0061,0.0362765,0.130525,-0.125149,0.217128,-0.0503261,-0.965462,0.16412,0.0474949,1252,316,7.42389,63.0061
35,708,7.24023,-63.9429,0.0338282,0.121124,-0.120372,0.205517,-0.050565,-0.95933,0.156612,0.0474904,1259,316,7.24019,63.9429
42,708,6.87549,-64.8772,0.0346934,0.113803,-0.111587,0.192639,-0.0441423,-0.955726,0.145391,0.0447522,1266,316,6.87548,64.8772
49,708,6.37817,-65.2113,0,0,0,0,0,0,0,-1,1273,316,6.37823,65.2113
56,708,5.979,-65.6836,0.0431854,0.103367,-0.0885092,0.166761,-0.0202081,-0.949257,0.118486,0.0429577,1280,316,5.97895,65.6835
63,708,7.27319,-68.7059,0.0502712,0.102681,-0.0712541,0.152396,0.000556253,-0.961606,0.101413,0.0423166,1287,316,7.27323,68.7059
70,708,7.56274,-68.7654,0.0550906,0.102659,-0.0526822,0.136677,0.0210724,-0.997433,0.0849693,0.0448562,1294,316,7.56276,68.7653
77,708,7.77002,-68.9344,0.0570072,0.101447,-0.034199,0.12001,0.0384436,-1.07349,0.0707633,0.04649,1301,316,7.77006,68.9344
84,708,7.99805,-69.2494,0,0,0,0,0,0,0,-1,1308,316,7.99799,69.2494
91,708,8.44275,-69.2335,0.0578745,0.094885,0.00452602,0.0954305,0.0573291,1.45086,0.0554683,0.0467493,1315,316,8.44269,69.2335
98,708,8.67725,-69.4915,0,0,0,0,0,0,0,-1,1322,316,8.6773,69.4915
105,708,8.62927,-69.6002,0.0488123,0.0857271,0.0460462,0.116877,0.0176619,0.976016,0.0727492,0.0435354,1329,316,8.62924,69.6002
112,708,8.71362,-69.5968,0.0385938,0.0752379,0.0694924,0.128783,-0.0149513,0.914293,0.0912483,0.0445514,1336,316,8.71357,69.5968
119,708,8.74683,-69.6003,0.0303839,0.0628318,0.0890338,0.137108,-0.0438921,0.875521,0.109022,0.0469714,1343,316,8.74683,69.6003
126,708,8.94739,-69.4505,0.0220786,0.0420077,0.107354,0.139859,-0.0757725,0.831675,0.126314,0.0455338,1350,316,8.94744,69.4505
133,708,9.15515,-69.5638,0,0,0,0,0,0,0,-1,1357,316,9.15521,69.5639
140,708,10.3612,-68.1302,0,0,0,0,0,0,0,-1,1364,316,10.3612,68.1302
147,708,10.6436,-66.2709,0,0,0,0,0,0,0,-1,1371,316,10.6436,66.2709
154,708,0,0,0,0,0,0,0,0,0,-1,1378,316,0,0
161,708,0,0,0,0,0,0,0,0,0,-1,1385,316,0,0
168,708,0,0,0,0,0,0,0,0,0,-1,1392,316,0,0
175,708,0,0,0,0,0,0,0,0,0,-1,1399,316,0,0
182,708,0,0,0,0,0,0,0,0,0,-1,1406,316,0,0
189,708,0,0,0,0,0,0,0,0,0,-1,1413,316,0,0
196,708,0,0,0,0,0,0,0,0,0,-1,1420,316,0,0
203,708,0,0,0,0,0,0,0,0,0,-1,1427,316,0,0
210,708,0,0,0,0,0,0,0,0,0,-1,1434,316,0,0
217,708,0,0,0,0,0,0,0,0,0,-1,1441,316,0,0
224,708,0,0,0,0,0,0,0,0,0,-1,1448,316,0,0
231,708,0,0,0,0,0,0,0,0,0,-1,1455,316,0,0
238,708,0,0,0,0,0,0,0,0,0,-1,1462,316,0,0
245,708,0,0,0,0,0,0,0,0,0,-1,1469,316,0,0
252,708,0,0,0,0,0,0,0,0,0,-1,1476,316,0,0
259,708,0,0,0,0,0,0,0,0,0,-1,1483,316,0,0
266,708,0,0,0,0,0,0,0,0,0,-1,1490,316,0,0
273,708,0,0,0,0,0,0,0,0,0,-1,1497,316,0,0
280,708,0,0,0,0,0,0,0,0,0,-1,1504,316,0,0
287,708,0,0,0,0,0,0,0,0,0,-1,1511,316,0,0
294,708,0,0,0,0,0,0,0,0,0,-1,1518,316,0,0
301,708,0,0,0,0,0,0,0,0,0,-1,1525,316,0,0
308,708,0,0,0,0,0,0,0,0,0,-1,1532,316,0,0
315,708,0,0,0,0,0,0,0,0,0,-1,1539,316,0,0
322,708,0,0,0,0,0,0,0,0,0,-1,1546,316,0,0
329,708,0,0,0,0,0,0,0,0,0,-1,1553,316,0,0
336,708,0,0,0,0,0,0,0,0,0,-1,1560,316,0,0
343,708,0,0,0,0,0,0,0,0,0,-1,1567,316,0,0
350,708,0,0,0,0,0,0,0,0,0,-1,1574,316,0,0
357,708,0,0,0,0,0,0,0,0,0,-1,1581,316,0,0
364,708,0,0,0,0,0,0,0,0,0,-1,1588,316,0,0
371,708,0,0,0,0,0,0,0,0,0,-1,1595,316,0,0
378,708,0,0,0,0,0,0,0,0,0,-1,1602,316,0,0
385,708,0,0,0,0,0,0,0,0,0,-1,1609,316,0,0
392,708,0,0,0,0,0,0,0,0,0,-1,1616,316,0,0
399,708,0,0,0,0,0,0,0,0,0,-1,1623,316,0,0
406,708,0,0,0,0,0,0,0,0,0,-1,1630,316,0,0
413,708,0,0,0,0,0,0,0,0,0,-1,1637,316,0,0
420,708,0,0,0,0,0,0,0,0,0,-1,1644,316,0,0
427,708,0,0,0,0,0,0,0,0,0,-1,1651,316,0,0
434,708,0,0,0,0,0,0,0,0,0,-1,1658,316,0,0
441,708,0,0,0,0,0,0,0,0,0,-1,1665,316,0,0
448,708,0,0,0,0,0,0,0,0,0,-1,1672,316,0,0
455,708,0,0,0,0,0,0,0,0,0,-1,1679,316,0,0
462,708,0,0,0,0,0,0,0,0,0,-1,1686,316,0,0
469,708,0,0,0,0,0,0,0,0,0,-1,1693,316,0,0
476,708,0,0,0,0,0,0,0,0,0,-1,1700,316,0,0
483,708,0,0,0,0,0,0,0,0,0,-1,1707,316,0,0
490,708,0,0,0,0,0,0,0,0,0,-1,1714,316,0,0
497,708,0,0,0,0,0,0,0,0,0,-1,1721,316,0,0
504,708,0,0,0,0,0,0,0,0,0,-1,1728,316,0,0
511,708,0,0,0,0,0,0,0,0,0,-1,1735,316,0,0
518,708,0,0,0,0,0,0,0,0,0,-1,1742,316,0,0
525,708,0,0,0,0,0,0,0,0,0,-1,1749,316,0,0
532,708,0,0,0,0,0,0,0,0,0,-1,1756,316,0,0
539,708,0,0,0,0,0,0,0,0,0,-1,1763,316,0,0
546,708,0,0,0,0,0,0,0,0,0,-1,1770,316,0,0
553,708,0,0,0,0,0,0,0,0,0,-1,1777,316,0,0
560,708,0,0,0,0,0,0,0,0,0,-1,1784,316,0,0
567,708,0,0,0,0,0,0,0,0,0,-1,1791,316,0,0
574,708,0,0,0,0,0,0,0,0,0,-1,1798,316,0,0
581,708,0,0,0,0,0,0,0,0,0,-1,1805,316,0,0
588,708,0,0,0,0,0,0,0,0,0,-1,1812,316,0,0
595,708,0,0,0,0,0,0,0,0,0,-1,1819,316,0,0
602,708,0,0,0,0,0,0,0,0,0,-1,1826,316,0,0
609,708,0,0,0,0,0,0,0,0,0,-1,1833,316,0,0
616,708,0,0,0,0,0,0,0,0,0,-1,1840,316,0,0
623,708,0,0,0,0,0,0,0,0,0,-1,1847,316,0,0
630,708,0,0,0,0,0,0,0,0,0,-1,1854,316,0,0
637,708,0,0,0,0,0,0,0,0,0,-1,1861,316,0,0
644,708,0,0,0,0,0,0,0,0,0,-1,1868,316,0,0
651,708,0,0,0,0,0,0,0,0,0,-1,1875,316,0,0
658,708,0,0,0,0,0,0,0,0,0,-1,1882,316,0,0
665,708,0,0,0,0,0,0,0,0,0,-1,1889,316,0,0
672,708,0,0,0,0,0,0,0,0,0,-1,1896,316,0,0
679,708,0,0,0,0,0,0,0,0,0,-1,1903,316,0,0
686,708,0,0,0,0,0,0,0,0,0,-1,1910,316,0,0
693,708,0,0,0,0,0,0,0,0,0,-1,1917,316,0,0
700,708,0,0,0,0,0,0,0,0,0,-1,1924,316,0,0
707,708,0,0,0,0,0,0,0,0,0,-1,1931,316,0,0
714,708,0,0,0,0,0,0,0,0,0,-1,1938,316,0,0
721,708,0,0,0,0,0,0,0,0,0,-1,1945,316,0,0
728,708,0,0,0,0,0,0,0,0,0,-1,1952,316,0,0
735,708,0,0,0,0,0,0,0,0,0,-1,1959,316,0,0
742,708,0,0,0,0,0,0,0,0,0,-1,1966,316,0,0
749,708,0,0,0,0,0,0,0,0,0,-1,1973,316,0,0
756,708,0,0,0,0,0,0,0,0,0,-1,1980,316,0,0
763,708,0,0,0,0,0,0,0,0,0,-1,1987,316,0,0
770,708,0,0,0,0,0,0,0,0,0,-1,1994,316,0,0
777,708,0,0,0,0,0,0,0,0,0,-1,2001,316,0,0
784,708,0,0,0,0,0,0,0,0,0,-1,2008,316,0,0
791,708,0,0,0,0,0,0,0,0,0,-1,2015,316,0,0
798,708,0,0,0,0,0,0,0,0,0,-1,2022,316,0,0
805,708,0,0,0,0,0,0,0,0,0,-1,2029,316,0,0
812,708,0,0,0,0,0,0,0,0,0,-1,2036,316,0,0
-700,701,0,0,0,0,0,0,0,0,0,-1,524,323,0,0
-693,701,0,0,0,0,0,0,0,0,0,-1,531,323,0,0
-686,701,0,0,0,0,0,0,0,0,0,-1,538,323,0,0
-679,701,0,0,0,0,0,0,0,0,0,-1,545,323,0,0
-672,701,0,0,0,0,0,0,0,0,0,-1,552,323,0,0
-665,701,0,0,0,0,0,0,0,0,0,-1,559,323,0,0
-658,701,0,0,0,0,0,0,0,0,0,-1,566,323,0,0
-651,701,0,0,0,0,0,0,0,0,0,-1,573,323,0,0
-644,701,0,0,0,0,0,0,0,0,0,-1,580,323,0,0
-637,701,0,0,0,0,0,0,0,0,0,-1,587,323,0,0
-630,701,0,0,0,0,0,0,0,0,0,-1,594,323,0,0
-623,701,0,0,0,0,0,0,0,0,0,-1,601,323,0,0
-616,701,0,0,0,0,0,0,0,0,0,-1,608,323,0,0
-609,701,0,0,0,0,0,0,0,0,0,-1,615,323,0,0
-602,701,0,0,0,0,0,0,0,0,0,-1,622,323,0,0
-595,701,0,0,0,0,0,0,0,0,0,-1,629,323,0,0
-588,701,0,0,0,0,0,0,0,0,0,-1,636,323,0,0
-581,701,0,0,0,0,0,0,0,0,0,-1,643,323,0,0
-574,701,0,0,0,0,0,0,0,0,0,-1,650,323,0,0
-567,701,0,0,0,0,0,0,0,0,0,-1,657,323,0,0
-560,701,0,0,0,0,0,0,0,0,0,-1,664,323,0,0
-553,701,0,0,0,0,0,0,0,0,0,-1,671,323,0,0
-546,701,0,0,0,0,0,0,0,0,0,-1,678,323,0,0
-539,701,0,0,0,0,0,0,0,0,0,-1,685,323,0,0
-532,701,0,0,0,0,0,0,0,0,0,-1,692,323,0,0
-525,701,0,0,0,0,0,0,0,0,0,-1,699,323,0,0
-518,701,0,0,0,0,0,0,0,0,0,-1,706,323,0,0
-511,701,0,0,0,0,0,0,0,0,0,-1,713,323,0,0
-504,701,0,0,0,0,0,0,0,0,0,-1,720,323,0,0
-497,701,0,0,0,0,0,0,0,0,0,-1,727,323,0,0
-490,701,0,0,0,0,0,0,0,0,0,-1,734,323,0,0
-483,701,0,0,0,0,0,0,0,0,0,-1,741,323,0,0
-476,701,0,0,0,0,0,0,0,0,0,-1,748,323,0,0
-469,701,0,0,0,0,0,0,0,0,0,-1,755,323,0,0
-462,701,0,0,0,0,0,0,0,0,0,-1,762,323,0,0
-455,701,0,0,0,0,0,0,0,0,0,-1,769,323,0,0
-448,701,0,0,0,0,0,0,0,0,0,-1,776,323,0,0
-441,701,0,0,0,0,0,0,0,0,0,-1,783,323,0,0
-434,701,0,0,0,0,0,0,0,0,0,-1,790,323,0,0
-427,701,0,0,0,0,0,0,0,0,0,-1,797,323,0,0
-420,701,0,0,0,0,0,0,0,0,0,-1,804,323,0,0
-413,701,0,0,0,0,0,0,0,0,0,-1,811,323,0,0
-406,701,0,0,0,0,0,0,0,0,0,-1,818,323,0,0
-399,701,0,0,0,0,0,0,0,0,0,-1,825,323,0,0
-392,701,0,0,0,0,0,0,0,0,0,-1,832,323,0,0
-385,701,0,0,0,0,0,0,0,0,0,-1,839,323,0,0
-378,701,0,0,0,0,0,0,0,0,0,-1,846,323,0,0
-371,701,0,0,0,0,0,0,0,0,0,-1,853,323,0,0
-364,701,0,0,0,0,0,0,0,0,0,-1,860,323,0,0
-357,701,0,0,0,0,0,0,0,0,0,-1,867,323,0,0
-350,701,0,0,0,0,0,0,0,0,0,-1,874,323,0,0
-343,701,0,0,0,0,0,0,0,0,0,-1,881,323,0,0
-336,701,0,0,0,0,0,0,0,0,0,-1,888,323,0,0
-329,701,0,0,0,0,0,0,0,0,0,-1,895,323,0,0
-322,701,0,0,0,0,0,0,0,0,0,-1,902,323,0,0
-315,701,0,0,0,0,0,0,0,0,0,-1,909,323,0,0
-308,701,0,0,0,0,0,0,0,0,0,-1,916,323,0,0
-301,701,0,0,0,0,0,0,0,0,0,-1,923,323,0,0
-294,701,0,0,0,0,0,0,0,0,0,-1,930,323,0,0
-287,701,0,0,0,0,0,0,0,0,0,-1,937,323,0,0
-280,701,0,0,0,0,0,0,0,0,0,-1,944,323,0,0
-273,701,0,0,0,0,0,0,0,0,0,-1,951,323,0,0
-266,701,0,0,0,0,0,0,0,0,0,-1,958,323,0,0
-259,701,0,0,0,0,0,0,0,0,0,-1,965,323,0,0
-252,701,0,0,0,0,0,0,0,0,0,-1,972,323,0,0
-245,701,0,0,0,0,0,0,0,0,0,-1,979,323,0,0
-238,701,0,0,0,0,0,0,0,0,0,-1,986,323,0,0
-231,701,0,0,0,0,0,0,0,0,0,-1,993,323,0,0
-224,701,0,0,0,0,0,0,0,0,0,-1,1000,323,0,0
-217,701,0,0,0,0,0,0,0,0,0,-1,1007,323,0,0
-210,701,0,0,0,0,0,0,0,0,0,-1,1014,323,0,0
-203,701,0,0,0,0,0,0,0,0,0,-1,1021,323,0,0
-196,701,0,0,0,0,0,0,0,0,0,-1,1028,323,0,0
-189,701,0,0,0,0,0,0,0,0,0,-1,1035,323,0,0
-182,701,0,0,0,0,0,0,0,0,0,-1,1042,323,0,0
-175,701,0,0,0,0,0,0,0,0,0,-1,1049,323,0,0
-168,701,0,0,0,0,0,0,0,0,0,-1,1056,323,0,0
-161,701,0,0,0,0,0,0,0,0,0,-1,1063,323,0,0
-154,701,0,0,0,0,0,0,0,0,0,-1,1070,323,0,0
-147,701,0,0,0,0,0,0,0,0,0,-1,1077,323,0,0
-140,701,0,0,0,0,0,0,0,0,0,-1,1084,323,0,0
-133,701,0,0,0,0,0,0,0,0,0,-1,1091,323,0,0
-126,701,0,0,0,0,0,0,0,0,0,-1,1098,323,0,0
-119,701,0,0,0,0,0,0,0,0,0,-1,1105,323,0,0
-112,701,0,0,0,0,0,0,0,0,0,-1,1112,323,0,0
-105,701,0,0,0,0,0,0,0,0,0,-1,1119,323,0,0
-98,701,0,0,0,0,0,0,0,0,0,-1,1126,323,0,0
-91,701,0,0,0,0,0,0,0,0,0,-1,1133,323,0,0
-84,701,0,0,0,0,0,0,0,0,0,-1,1140,323,0,0
-77,701,0,0,0,0,0,0,0,0,0,-1,1147,323,0,0
-70,701,-12.7566,-30.413,0,0,0,0,0,0,0,-1,1154,323,-12.7566,30.413
-63,701,-18.3169,-21.2322,0,0,0,0,0,0,0,-1,1161,323,-18.3169,21.2322
-56,701,-0.420166,-0.101776,0,0,0,0,0,0,0,-1,1168,323,-0.420119,0.101777
-49,701,-1.09021,-0.155762,0,0,0,0,0,0,0,-1,1175,323,-1.09024,0.155768
-42,701,-0.210327,-0.299133,0,0,0,0,0,0,0,-1,1182,323,-0.210379,0.29914
-35,701,-2.9635,-7.98676,0,0,0,0,0,0,0,-1,1189,323,-2.9635,7.98676
-28,701,-6.64417,-5.4917,0,0,0,0,0,0,0,-1,1196,323,-6.64411,5.4917
-21,701,6.90942,-60.6949,0,0,0,0,0,0,0,-1,1203,323,6.90938,60.6949
-14,701,9.69946,-64.4044,0,0,0,0,0,0,0,-1,1210,323,9.69946,64.4044
-7,701,10.6652,-66.0095,0,0,0,0,0,0,0,-1,1217,323,10.6651,66.0095
0,701,11.6309,-67.6146,0,0,0,0,0,0,0,-1,1224,323,11.6308,67.6146
7,701,11.7852,-68.2682,0,0,0,0,0,0,0,-1,1231,323,11.7851,68.2682
14,701,13.4808,-69.6502,0,0,0,0,0,0,0,-1,1238,323,13.4808,69.6502
21,701,8.93091,-63.436,0,0,0,0,0,0,0,-1,1245,323,8.93088,63.436
28,701,7.79749,-63.8244,0.0276867,0.116292,-0.102049,0.18324,-0.0392619,-0.990186,0.137134,0.0469207,1252,323,7.79746,63.8244
35,701,7.52576,-64.7874,0.0252023,0.109113,-0.0973477,0.173161,-0.0388464,-0.988862,0.130334,0.0457244,1259,323,7.52572,64.7875
42,701,7.22339,-65.6034,0.0251138,0.102739,-0.0896064,0.161577,-0.0337248,-0.989772,0.120543,0.0463212,1266,323,7.22338,65.6034
49,701,6.88196,-66.0253,0,0,0,0,0,0,0,-1,1273,323,6.882,66.0253
56,701,6.5531,-66.5622,0.0315132,0.0944523,-0.0696645,0.139425,-0.0134599,-0.997544,0.0977463,0.0437572,1280,323,6.55313,66.5622
63,701,7.375,-68.8023,0.0386267,0.0946986,-0.0542925,0.127767,0.00555872,-1.02373,0.0833866,0.0428761,1287,323,7.37496,68.8023
70,701,7.56201,-69.3134,0.0442954,0.0952402,-0.0376106,0.115192,0.0243431,-1.08305,0.0701039,0.0465963,1294,323,7.562,69.3134
77,701,7.0946,-69.6231,0.0474303,0.095138,-0.0208866,0.10299,0.0395783,-1.21121,0.0599896,0.0490436,1301,323,7.09454,69.6231
84,701,7.31409,-69.853,0.0488359,0.092211,-0.00346466,0.092486,0.0485609,-1.49159,0.0534192,0.0462542,1308,323,7.31413,69.853
91,701,7.62085,-70.062,0.0481777,0.0889486,0.0152139,0.0939999,0.0431264,1.25023,0.0543323,0.0467146,1315,323,7.62082,70.0621
98,701,7.90112,-70.3078,0,0,0,0,0,0,0,-1,1322,323,7.9011,70.3078
105,701,8.1947,-69.7839,0.0405363,0.0795778,0.0520889,0.115684,0.00443051,0.964678,0.0756888,0.0445938,1329,323,8.19472,69.7839
112,701,8.27209,-69.999,0.0323254,0.0704721,0.0716574,0.125551,-0.0227536,0.915469,0.0922257,0.0441222,1336,323,8.27206,69.999
119,701,8.59521,-70.0969,0.024977,0.0598337,0.0886017,0.132705,-0.0478942,0.88251,0.108033,0.0457882,1343,323,8.59517,70.0969
126,701,8.93298,-69.5973,0.0173033,0.0435734,0.104119,0.135382,-0.0745058,0.848144,0.122866,0.048099,1350,323,8.93297,69.5973
133,701,9.04468,-68.9323,0.00716843,0.0221486,0.11931,0.134203,-0.104886,0.816746,0.138384,0.0498475,1357,323,9.04472,68.9323
140,701,9.11145,-67.8707,-0.00445089,0.00197193,0.135472,0.134271,-0.13675,0.797249,0.156476,0.0478262,1364,323,9.11144,67.8707
147,701,9.15845,-66.3617,-0.0170877,-0.0177963,0.151909,0.134467,-0.169351,0.784232,0.175795,0.0476877,1371,323,9.15846,66.3616
154,701,9.1189,-64.9315,0,0,0,0,0,0,0,-1,1378,323,9.11892,64.9314
161,701,-4.83057,-59.3711,0,0,0,0,0,0,0,-1,1385,323,-4.83061,59.3711
168,701,30.7272,1.76184,0,0,0,0,0,0,0,-1,1392,323,30.7272,-1.76184
175,701,31.5035,2.25711,0,0,0,0,0,0,0,-1,1399,323,31.5036,-2.25712
182,701,8.80652,5.42807,0,0,0,0,0,0,0,-1,1406,323,8.8065,-5.42808
189,701,8.58081,4.24493,0,0,0,0,0,0,0,-1,1413,323,8.58082,-4.24494
196,701,0,0,0,0,0,0,0,0,0,-1,1420,323,0,0
203,701,0,0,0,0,0,0,0,0,0,-1,1427,323,0,0
210,701,0,0,0,0,0,0,0,0,0,-1,1434,323,0,0
217,701,0,0,0,0,0,0,0,0,0,-1,1441,323,0,0
224,701,0,0,0,0,0,0,0,0,0,-1,1448,323,0,0
231,701,0,0,0,0,0,0,0,0,0,-1,1455,323,0,0
238,701,0,0,0,0,0,0,0,0,0,-1,1462,323,0,0
245,701,0,0,0,0,0,0,0,0,0,-1,1469,323,0,0
252,701,0,0,0,0,0,0,0,0,0,-1,1476,323,0,0
259,701,0,0,0,0,0,0,0,0,0,-1,1483,323,0,0
266,701,0,0,0,0,0,0,0,0,0,-1,1490,323,0,0
273,701,0,0,0,0,0,0,0,0,0,-1,1497,323,0,0
280,701,0,0,0,0,0,0,0,0,0,-1,1504,323,0,0
287,701,0,0,0,0,0,0,0,0,0,-1,1511,323,0,0
294,701,0,0,0,0,0,0,0,0,0,-1,1518,323,0,0
301,701,0,0,0,0,0,0,0,0,0,-1,1525,323,0,0
308,701,0,0,0,0,0,0,0,0,0,-1,1532,323,0,0
315,701,0,0,0,0,0,0,0,0,0,-1,1539,323,0,0
322,701,0,0,0,0,0,0,0,0,0,-1,1546,323,0,0
329,701,0,0,0,0,0,0,0,0,0,-1,1553,323,0,0
336,701,0,0,0,0,0,0,0,0,0,-1,1560,323,0,0
343,701,0,0,0,0,0,0,0,0,0,-1,1567,323,0,0
350,701,0,0,0,0,0,0,0,0,0,-1,1574,323,0,0
357,701,0,0,0,0,0,0,0,0,0,-1,1581,323,0,0
364,701,0,0,0,0,0,0,0,0,0,-1,1588,323,0,0
371,701,0,0,0,0,0,0,0,0,0,-1,1595,323,0,0
378,701,0,0,0,0,0,0,0,0,0,-1,1602,323,0,0
385,701,0,0,0,0,0,0,0,0,0,-1,1609,323,0,0
392,701,0,0,0,0,0,0,0,0,0,-1,1616,323,0,0
399,701,0,0,0,0,0,0,0,0,0,-1,1623,323,0,0
406,701,0,0,0,0,0,0,0,0,0,-1,1630,323,0,0
413,701,0,0,0,0,0,0,0,0,0,-1,1637,323,0,0
420,701,0,0,0,0,0,0,0,0,0,-1,1644,323,0,0
427,701,0,0,0,0,0,0,0,0,0,-1,1651,323,0,0
434,701,0,0,0,0,0,0,0,0,0,-1,1658,323,0,0
441,701,0,0,0,0,0,0,0,0,0,-1,1665,323,0,0
448,701,0,0,0,0,0,0,0,0,0,-1,1672,323,0,0
455,701,0,0,0,0,0,0,0,0,0,-1,1679,323,0,0
462,701,0,0,0,0,0,0,0,0,0,-1,1686,323,0,0
469,701,0,0,0,0,0,0,0,0,0,-1,1693,323,0,0
476,701,0,0,0,0,0,0,0,0,0,-1,1700,323,0,0
483,701,0,0,0,0,0,0,0,0,0,-1,1707,323,0,0
490,701,0,0,0,0,0,0,0,0,0,-1,1714,323,0,0
497,701,0,0,0,0,0,0,0,0,0,-1,1721,323,0,0
504,701,0,0,0,0,0,0,0,0,0,-1,1728,323,0,0
511,701,0,0,0,0,0,0,0,0,0,-1,1735,323,0,0
518,701,0,0,0,0,0,0,0,0,0,-1,1742,323,0,0
525,701,0,0,0,0,0,0,0,0,0,-1,1749,323,0,0
532,701,0,0,0,0,0,0,0,0,0,-1,1756,323,0,0
539,701,0,0,0,0,0,0,0,0,0,-1,1763,323,0,0
546,701,0,0,0,0,0,0,0,0,0,-1,1770,323,0,0
553,701,0,0,0,0,0,0,0,0,0,-1,1777,323,0,0
560,701,0,0,0,0,0,0,0,0,0,-1,1784,323,0,0
567,701,0,0,0,0,0,0,0,0,0,-1,1791,323,0,0
574,701,0,0,0,0,0,0,0,0,0,-1,1798,323,0,0
581,701,0,0,0,0,0,0,0,0,0,-1,1805,323,0,0
588,701,0,0,0,0,0,0,0,0,0,-1,1812,323,0,0
595,701,0,0,0,0,0,0,0,0,0,-1,1819,323,0,0
602,701,0,0,0,0,0,0,0,0,0,-1,1826,323,0,0
609,701,0,0,0,0,0,0,0,0,0,-1,1833,323,0,0
616,701,0,0,0,0,0,0,0,0,0,-1,1840,323,0,0
623,701,0,0,0,0,0,0,0,0,0,-1,1847,323,0,0
630,701,0,0,0,0,0,0,0,0,0,-1,1854,323,0,0
637,701,0,0,0,0,0,0,0,0,0,-1,1861,323,0,0
644,701,0,0,0,0,0,0,0,0,0,-1,1868,323,0,0
651,701,0,0,0,0,0,0,0,0,0,-1,1875,323,0,0
658,701,0,0,0,0,0,0,0,0,0,-1,1882,323,0,0
665,701,0,0,0,0,0,0,0,0,0,-1,1889,323,0,0
672,701,0,0,0,0,0,0,0,0,0,-1,1896,323,0,0
679,701,0,0,0,0,0,0,0,0,0,-1,1903,323,0,0
686,701,0,0,0,0,0,0,0,0,0,-1,1910,323,0,0
693,701,0,0,0,0,0,0,0,0,0,-1,1917,323,0,0
700,701,0,0,0,0,0,0,0,0,0,-1,1924,323,0,0
707,701,0,0,0,0,0,0,0,0,0,-1,1931,323,0,0
714,701,0,0,0,0,0,0,0,0,0,-1,1938,323,0,0
721,701,0,0,0,0,0,0,0,0,0,-1,1945,323,0,0
728,701,0,0,0,0,0,0,0,0,0,-1,1952,323,0,0
735,701,0,0,0,0,0,0,0,0,0,-1,1959,323,0,0
742,701,0,0,0,0,0,0,0,0,0,-1,1966,323,0,0
749,701,0,0,0,0,0,0,0,0,0,-1,1973,323,0,0
756,701,0,0,0,0,0,0,0,0,0,-1,1980,323,0,0
763,701,0,0,0,0,0,0,0,0,0,-1,1987,323,0,0
770,701,0,0,0,0,0,0,0,0,0,-1,1994,323,0,0
777,701,0,0,0,0,0,0,0,0,0,-1,2001,323,0,0
784,701,0,0,0,0,0,0,0,0,0,-1,2008,323,0,0
791,701,0,0,0,0,0,0,0,0,0,-1,2015,323,0,0
798,701,0,0,0,0,0,0,0,0,0,-1,2022,323,0,0
805,701,0,0,0,0,0,0,0,0,0,-1,2029,323,0,0
812,701,0,0,0,0,0,0,0,0,0,-1,2036,323,0,0
-700,694,0,0,0,0,0,0,0,0,0,-1,524,330,0,0
-693,694,0,0,0,0,0,0,0,0,0,-1,531,330,0,0
-686,694,0,0,0,0,0,0,0,0,0,-1,538,330,0,0
-679,694,0,0,0,0,0,0,0,0,0,-1,545,330,0,0
-672,694,0,0,0,0,0,0,0,0,0,-1,552,330,0,0
-665,694,0,0,0,0,0,0,0,0,0,-1,559,330,0,0
-658,694,0,0,0,0,0,0,0,0,0,-1,566,330,0,0
-651,694,0,0,0,0,0,0,0,0,0,-1,573,330,0,0
-644,694,0,0,0,0,0,0,0,0,0,-1,580,330,0,0
-637,694,0,0,0,0,0,0,0,0,0,-1,587,330,0,0
-630,694,0,0,0,0,0,0,0,0,0,-1,594,330,0,0
-623,694,0,0,0,0,0,0,0,0,0,-1,601,330,0,0
-616,694,0,0,0,0,0,0,0,0,0,-1,608,330,0,0
-609,694,0,0,0,0,0,0,0,0,0,-1,615,330,0,0
-602,694,0,0,0,0,0,0,0,0,0,-1,622,330,0,0
-595,694,0,0,0,0,0,0,0,0,0,-1,629,330,0,0
-588,694,0,0,0,0,0,0,0,0,0,-1,636,330,0,0
-581,694,0,0,0,0,0,0,0,0,0,-1,643,330,0,0
-574,694,0,0,0,0,0,0,0,0,0,-1,650,330,0,0
-567,694,0,0,0,0,0,0,0,0,0,-1,657,330,0,0
-560,694,0,0,0,0,0,0,0,0,0,-1,664,330,0,0
-553,694,0,0,0,0,0,0,0,0,0,-1,671,330,0,0
-546,694,0,0,0,0,0,0,0,0,0,-1,678,330,0,0
-539,694,0,0,0,0,0,0,0,0,0,-1,685,330,0,0
-532,694,0,0,0,0,0,0,0,0,0,-1,692,330,0,0
-525,694,0,0,0,0,0,0,0,0,0,-1,699,330,0,0
-518,694,0,0,0,0,0,0,0,0,0,-1,706,330,0,0
-511,694,0,0,0,0,0,0,0,0,0,-1,713,330,0,0
-504,694,0,0,0,0,0,0,0,0,0,-1,720,330,0,0
-497,694,0,0,0,0,0,0,0,0,0,-1,727,330,0,0
-490,694,0,0,0,0,0,0,0,0,0,-1,734,330,0,0
-483,694,0,0,0,0,0,0,0,0,0,-1,741,330,0,0
-476,694,0,0,0,0,0,0,0,0,0,-1,748,330,0,0
-469,694,0,0,0,0,0,0,0,0,0,-1,755,330,0,0
-462,694,0,0,0,0,0,0,0,0,0,-1,762,330,0,0
-455,694,0,0,0,0,0,0,0,0,0,-1,769,330,0,0
-448,694,0,0,0,0,0,0,0,0,0,-1,776,330,0,0
-441,694,0,0,0,0,0,0,0,0,0,-1,783,330,0,0
-434,694,0,0,0,0,0,0,0,0,0,-1,790,330,0,0
-427,694,0,0,0,0,0,0,0,0,0,-1,797,330,0,0
-420,694,0,0,0,0,0,0,0,0,0,-1,804,330,0,0
-413,694,0,0,0,0,0,0,0,0,0,-1,811,330,0,0
-406,694,0,0,0,0,0,0,0,0,0,-1,818,330,0,0
-399,694,0,0,0,0,0,0,0,0,0,-1,825,330,0,0
-392,694,0,0,0,0,0,0,0,0,0,-1,832,330,0,0
-385,694,0,0,0,0,0,0,0,0,0,-1,839,330,0,0
-378,694,0,0,0,0,0,0,0,0,0,-1,846,330,0,0
-371,694,0,0,0,0,0,0,0,0,0,-1,853,330,0,0
-364,694,0,0,0,0,0,0,0,0,0,-1,860,330,0,0
-357,694,0,0,0,0,0,0,0,0,0,-1,867,330,0,0
-350,694,0,0,0,0,0,0,0,0,0,-1,874,330,0,0
-343,694,0,0,0,0,0,0,0,0,0,-1,881,330,0,0
-336,694,0,0,0,0,0,0,0,0,0,-1,888,330,0,0
-329,694,0,0,0,0,0,0,0,0,0,-1,895,330,0,0
-322,694,0,0,0,0,0,0,0,0,0,-1,902,330,0,0
-315,694,0,0,0,0,0,0,0,0,0,-1,909,330,0,0
-308,694,0,0,0,0,0,0,0,0,0,-1,916,330,0,0
-301,694,0,0,0,0,0,0,0,0,0,-1,923,330,0,0
-294,694,0,0,0,0,0,0,0,0,0,-1,930,330,0,0
-287,694,0,0,0,0,0,0,0,0,0,-1,937,330,0,0
-280,694,0,0,0,0,0,0,0,0,0,-1,944,330,0,0
-273,694,0,0,0,0,0,0,0,0,0,-1,951,330,0,0
-266,694,0,0,0,0,0,0,0,0,0,-1,958,330,0,0
-259,694,0,0,0,0,0,0,0,0,0,-1,965,330,0,0
-252,694,0,0,0,0,0,0,0,0,0,-1,972,330,0,0
-245,694,0,0,0,0,0,0,0,0,0,-1,979,330,0,0
-238,694,0,0,0,0,0,0,0,0,0,-1,986,330,0,0
-231,694,0,0,0,0,0,0,0,0,0,-1,993,330,0,0
-224,694,0,0,0,0,0,0,0,0,0,-1,1000,330,0,0
-217,694,0,0,0,0,0,0,0,0,0,-1,1007,330,0,0
-210,694,0,0,0,0,0,0,0,0,0,-1,1014,330,0,0
-203,694,0,0,0,0,0,0,0,0,0,-1,1021,330,0,0
-196,694,0,0,0,0,0,0,0,0,0,-1,1028,330,0,0
-189,694,0,0,0,0,0,0,0,0,0,-1,1035,330,0,0
-182,694,0,0,0,0,0,0,0,0,0,-1,1042,330,0,0
-175,694,0,0,0,0,0,0,0,0,0,-1,1049,330,0,0
-168,694,0,0,0,0,0,0,0,0,0,-1,1056,330,0,0
-161,694,0,0,0,0,0,0,0,0,0,-1,1063,330,0,0
-154,694,0,0,0,0,0,0,0,0,0,-1,1070,330,0,0
-147,694,0,0,0,0,0,0,0,0,0,-1,1077,330,0,0
-140,694,0,0,0,0,0,0,0,0,0,-1,1084,330,0,0
-133,694,0,0,0,0,0,0,0,0,0,-1,1091,330,0,0
-126,694,0,0,0,0,0,0,0,0,0,-1,1098,330,0,0
-119,694,0,0,0,0,0,0,0,0,0,-1,1105,330,0,0
-112,694,0,0,0,0,0,0,0,0,0,-1,1112,330,0,0
-105,694,2.5188,-19.3963,0,0,0,0,0,0,0,-1,1119,330,2.51882,19.3963
-98,694,1.34875,-10.1051,0,0,0,0,0,0,0,-1,1126,330,1.34874,10.1051
-91,694,6.62366,-46.8039,0,0,0,0,0,0,0,-1,1133,330,6.62363,46.8039
-84,694,0.0577393,-40.8823,0,0,0,0,0,0,0,-1,1140,330,0.0577026,40.8823
-77,694,-5.51379,-31.2714,0,0,0,0,0,0,0,-1,1147,330,-5.51383,31.2714
-70,694,-11.9945,-25.5143,0,0,0,0,0,0,0,-1,1154,330,-11.9945,25.5143
-63,694,-18.4752,-19.7572,0,0,0,0,0,0,0,-1,1161,330,-18.4752,19.7572
-56,694,-6.50623,-0.649139,0,0,0,0,0,0,0,-1,1168,330,-6.5062,0.649126
-49,694,-1.11426,0.0341797,0,0,0,0,0,0,0,-1,1175,330,-1.11424,-0.0341846
-42,694,-0.346313,-0.709595,0,0,0,0,0,0,0,-1,1182,330,-0.346298,0.709581
-35,694,-0.459106,-1.24713,0,0,0,0,0,0,0,-1,1189,330,-0.459142,1.24714
-28,694,-6.48413,-3.95972,0,0,0,0,0,0,0,-1,1196,330,-6.48414,3.9597
-21,694,10.1261,-64.907,0,0,0,0,0,0,0,-1,1203,330,10.1261,64.907
-14,694,9.89331,-64.6823,0,0,0,0,0,0,0,-1,1210,330,9.89337,64.6823
-7,694,10.5635,-66.4366,0.0771342,0.115866,-0.0924373,0.190944,0.00205582,-0.888655,0.126616,0.0443847,1217,330,10.5635,66.4366
0,694,11.4591,-67.6455,0.0574933,0.116064,-0.0888415,0.180322,-0.00676516,-0.944607,0.122532,0.0449142,1224,330,11.4591,67.6455
7,694,12.3977,-68.6179,0,0,0,0,0,0,0,-1,1231,330,12.3977,68.6179
14,694,10.0518,-64.1663,0,0,0,0,0,0,0,-1,1238,330,10.0518,64.1663
21,694,9.2915,-64.6298,0,0,0,0,0,0,0,-1,1245,330,9.29149,64.6298
28,694,8.42566,-65.0361,0.0198882,0.101408,-0.081375,0.151661,-0.0303643,-1.01758,0.112602,0.048101,1252,330,8.4256,65.0361
35,694,7.79468,-65.6335,0.017773,0.0961488,-0.0770567,0.14341,-0.0294881,-1.02063,0.106802,0.0467306,1259,330,7.79472,65.6335
42,694,7.52161,-66.3804,0.0172978,0.0908538,-0.0704058,0.133509,-0.0253572,-1.02609,0.0985517,0.0465123,1266,330,7.52156,66.3804
49,694,8.09753,-67.9179,0,0,0,0,0,0,0,-1,1273,330,8.09757,67.9179
56,694,8.02185,-67.8836,0,0,0,0,0,0,0,-1,1280,330,8.02183,67.8836
63,694,7.74121,-68.6458,0.0287064,0.0852838,-0.0406889,0.106551,0.00743869,-1.08916,0.0686892,0.0458393,1287,330,7.74125,68.6458
70,694,7.91931,-69.2831,0.0344632,0.0860241,-0.0264738,0.0971963,0.023291,-1.17146,0.0585977,0.0484741,1294,330,7.91928,69.2831
77,694,8.12756,-69.8294,0,0,0,0,0,0,0,-1,1301,330,8.12754,69.8294
84,694,6.50635,-70.737,0.0394827,0.0838792,0.00320082,0.0841088,0.0392531,1.49919,0.0485961,0.0463132,1308,330,6.5064,70.737
91,694,6.81799,-71.0877,0.0387884,0.0806818,0.0196089,0.0884278,0.0310424,1.19458,0.0518035,0.0464707,1315,330,6.81795,71.0877
98,694,7.15259,-71.1361,0.0367467,0.0765337,0.0365206,0.0982275,0.0150529,1.03479,0.0610887,0.0476444,1322,330,7.15258,71.1361
105,694,7.74512,-71.362,0.032445,0.0717518,0.0510794,0.106828,-0.00263149,0.969049,0.072112,0.0458609,1329,330,7.7451,71.362
112,694,8.14087,-71.4491,0.0258533,0.0640975,0.0670586,0.114707,-0.0247563,0.924289,0.0859206,0.0441816,1336,330,8.14091,71.4491
119,694,8.44043,-70.5806,0.0195577,0.055311,0.0812197,0.120598,-0.0457294,0.893722,0.0992191,0.0423299,1343,330,8.44044,70.5806
126,694,8.53528,-69.2064,0.0129574,0.0428068,0.0939157,0.122976,-0.0672121,0.864197,0.111368,0.04559,1350,330,8.53523,69.2064
133,694,8.53479,-68.6748,0.00453108,0.0270256,0.105746,0.122121,-0.0905643,0.83838,0.123244,0.0460907,1357,330,8.53474,68.6748
140,694,7.81824,-67.5382,-0.00472477,0.0115096,0.117301,0.120974,-0.114189,0.819943,0.13579,0.0459306,1364,330,7.81827,67.5382
147,694,7.50317,-66.4251,-0.014002,-0.00245604,0.128376,0.120276,-0.136734,0.807868,0.148487,0.0488144,1371,330,7.50314,66.4251
154,694,7.39429,-65.2665,0,0,0,0,0,0,0,-1,1378,330,7.39426,65.2665
161,694,0.0187988,-38.6779,0,0,0,0,0,0,0,-1,1385,330,0.0187579,38.6779
168,694,30.451,0.196686,0,0,0,0,0,0,0,-1,1392,330,30.4511,-0.196674
175,694,31.0701,0.869873,0,0,0,0,0,0,0,-1,1399,330,31.07,-0.869874
182,694,8.29028,5.75238,0,0,0,0,0,0,0,-1,1406,330,8.29034,-5.75237
189,694,7.9801,4.46118,0,0,0,0,0,0,0,-1,1413,330,7.9801,-4.46118
196,694,7.39331,3.32632,0,0,0,0,0,0,0,-1,1420,330,7.39329,-3.32633
203,694,7.04492,2.20529,0,0,0,0,0,0,0,-1,1427,330,7.04496,-2.20529
210,694,6.44714,0.646912,0,0,0,0,0,0,0,-1,1434,330,6.44717,-0.646903
217,694,7.12061,-0.644958,0,0,0,0,0,0,0,-1,1441,330,7.12059,0.644961
224,694,6.74011,-1.70544,0,0,0,0,0,0,0,-1,1448,330,6.74013,1.70546
231,694,0,0,0,0,0,0,0,0,0,-1,1455,330,0,0
238,694,0,0,0,0,0,0,0,0,0,-1,1462,330,0,0
245,694,0,0,0,0,0,0,0,0,0,-1,1469,330,0,0
252,694,0,0,0,0,0,0,0,0,0,-1,1476,330,0,0
259,694,0,0,0,0,0,0,0,0,0,-1,1483,330,0,0
266,694,0,0,0,0,0,0,0,0,0,-1,1490,330,0,0
273,694,0,0,0,0,0,0,0,0,0,-1,1497,330,0,0
280,694,0,0,0,0,0,0,0,0,0,-1,1504,330,0,0
287,694,0,0,0,0,0,0,0,0,0,-1,1511,330,0,0
294,694,0,0,0,0,0,0,0,0,0,-1,1518,330,0,0
301,694,0,0,0,0,0,0,0,0,0,-1,1525,330,0,0
308,694,0,0,0,0,0,0,0,0,0,-1,1532,330,0,0
315,694,0,0,0,0,0,0,0,0,0,-1,1539,330,0,0
322,694,0,0,0,0,0,0,0,0,0,-1,1546,330,0,0
329,694,0,0,0,0,0,0,0,0,0,-1,1553,330,0,0
336,694,0,0,0,0,0,0,0,0,0,-1,1560,330,0,0
343,694,0,0,0,0,0,0,0,0,0,-1,1567,330,0,0
350,694,0,0,0,0,0,0,0,0,0,-1,1574,330,0,0
357,694,0,0,0,0,0,0,0,0,0,-1,1581,330,0,0
364,694,0,0,0,0,0,0,0,0,0,-1,1588,330,0,0
371,694,0,0,0,0,0,0,0,0,0,-1,1595,330,0,0
378,694,0,0,0,0,0,0,0,0,0,-1,1602,330,0,0
385,694,0,0,0,0,0,0,0,0,0,-1,1609,330,0,0
392,694,0,0,0,0,0,0,0,0,0,-1,1616,330,0,0
399,694,0,0,0,0,0,0,0,0,0,-1,1623,330,0,0
406,694,0,0,0,0,0,0,0,0,0,-1,1630,330,0,0
413,694,0,0,0,0,0,0,0,0,0,-1,1637,330,0,0
420,694,0,0,0,0,0,0,0,0,0,-1,1644,330,0,0
427,694,0,0,0,0,0,0,0,0,0,-1,1651,330,0,0
434,694,0,0,0,0,0,0,0,0,0,-1,1658,330,0,0
441,694,0,0,0,0,0,0,0,0,0,-1,1665,330,0,0
448,694,0,0,0,0,0,0,0,0,0,-1,1672,330,0,0
455,694,0,0,0,0,0,0,0,0,0,-1,1679,330,0,0
462,694,0,0,0,0,0,0,0,0,0,-1,1686,330,0,0
469,694,0,0,0,0,0,0,0,0,0,-1,1693,330,0,0
476,694,0,0,0,0,0,0,0,0,0,-1,1700,330,0,0
483,694,0,0,0,0,0,0,0,0,0,-1,1707,330,0,0
490,694,0,0,0,0,0,0,0,0,0,-1,1714,330,0,0
497,694,0,0,0,0,0,0,0,0,0,-1,1721,330,0,0
504,694,0,0,0,0,0,0,0,0,0,-1,1728,330,0,0
511,694,0,0,0,0,0,0,0,0,0,-1,1735,330,0,0
518,694,0,0,0,0,0,0,0,0,0,-1,1742,330,0,0
525,694,0,0,0,0,0,0,0,0,0,-1,1749,330,0,0
532,694,0,0,0,0,0,0,0,0,0,-1,1756,330,0,0
539,694,0,0,0,0,0,0,0,0,0,-1,1763,330,0,0
546,694,0,0,0,0,0,0,0,0,0,-1,1770,330,0,0
553,694,0,0,0,0,0,0,0,0,0,-1,1777,330,0,0
560,694,0,0,0,0,0,0,0,0,0,-1,1784,330,0,0
567,694,0,0,0,0,0,0,0,0,0,-1,1791,330,0,0
574,694,0,0,0,0,0,0,0,0,0,-1,1798,330,0,0
581,694,0,0,0,0,0,0,0,0,0,-1,1805,330,0,0
588,694,0,0,0,0,0,0,0,0,0,-1,1812,330,0,0
595,694,0,0,0,0,0,0,0,0,0,-1,1819,330,0,0
602,694,0,0,0,0,0,0,0,0,0,-1,1826,330,0,0
609,694,0,0,0,0,0,0,0,0,0,-1,1833,330,0,0
616,694,0,0,0,0,0,0,0,0,0,-1,1840,330,0,0
623,694,0,0,0,0,0,0,0,0,0,-1,1847,330,0,0
630,694,0,0,0,0,0,0,0,0,0,-1,1854,330,0,0
637,694,0,0,0,0,0,0,0,0,0,-1,1861,330,0,0
644,694,0,0,0,0,0,0,0,0,0,-1,1868,330,0,0
651,694,0,0,0,0,0,0,0,0,0,-1,1875,330,0,0
658,694,0,0,0,0,0,0,0,0,0,-1,1882,330,0,0
665,694,0,0,0,0,0,0,0,0,0,-1,1889,330,0,0
672,694,0,0,0,0,0,0,0,0,0,-1,1896,330,0,0
679,694,0,0,0,0,0,0,0,0,0,-1,1903,330,0,0
686,694,0,0,0,0,0,0,0,0,0,-1,1910,330,0,0
693,694,0,0,0,0,0,0,0,0,0,-1,1917,330,0,0
700,694,0,0,0,0,0,0,0,0,0,-1,1924,330,0,0
707,694,0,0,0,0,0,0,0,0,0,-1,1931,330,0,0
714,694,0,0,0,0,0,0,0,0,0,-1,1938,330,0,0
721,694,0,0,0,0,0,0,0,0,0,-1,1945,330,0,0
728,694,0,0,0,0,0,0,0,0,0,-1,1952,330,0,0
735,694,0,0,0,0,0,0,0,0,0,-1,1959,330,0,0
742,694,0,0,0,0,0,0,0,0,0,-1,1966,330,0,0
749,694,0,0,0,0,0,0,0,0,0,-1,1973,330,0,0
756,694,0,0,0,0,0,0,0,0,0,-1,1980,330,0,0
763,694,0,0,0,0,0,0,0,0,0,-1,1987,330,0,0
770,694,0,0,0,0,0,0,0,0,0,-1,1994,330,0,0
777,694,0,0,0,0,0,0,0,0,0,-1,2001,330,0,0
784,694,0,0,0,0,0,0,0,0,0,-1,2008,330,0,0
791,694,0,0,0,0,0,0,0,0,0,-1,2015,330,0,0
798,694,0,0,0,0,0,0,0,0,0,-1,2022,330,0,0
805,694,0,0,0,0,0,0,0,0,0,-1,2029,330,0,0
812,694,0,0,0,0,0,0,0,0,0,-1,2036,330,0,0
-700,687,0,0,0,0,0,0,0,0,0,-1,524,337,0,0
-693,687,0,0,0,0,0,0,0,0,0,-1,531,337,0,0
-686,687,0,0,0,0,0,0,0,0,0,-1,538,337,0,0
-679,687,0,0,0,0,0,0,0,0,0,-1,545,337,0,0
-672,687,0,0,0,0,0,0,0,0,0,-1,552,337,0,0
-665,687,0,0,0,0,0,0,0,0,0,-1,559,337,0,0
-658,687,0,0,0,0,0,0,0,0,0,-1,566,337,0,0
-651,687,0,0,0,0,0,0,0,0,0,-1,573,337,0,0
-644,687,0,0,0,0,0,0,0,0,0,-1,580,337,0,0
-637,687,0,0,0,0,0,0,0,0,0,-1,587,337,0,0
-630,687,0,0,0,0,0,0,0,0,0,-1,594,337,0,0
-623,687,0,0,0,0,0,0,0,0,0,-1,601,337,0,0
-616,687,0,0,0,0,0,0,0,0,0,-1,608,337,0,0
-609,687,0,0,0,0,0,0,0,0,0,-1,615,337,0,0
-602,687,0,0,0,0,0,0,0,0,0,-1,622,337,0,0
-595,687,0,0,0,0,0,0,0,0,0,-1,629,337,0,0
-588,687,0,0,0,0,0,0,0,0,0,-1,636,337,0,0
-581,687,0,0,0,0,0,0,0,0,0,-1,643,337,0,0
-574,687,0,0,0,0,0,0,0,0,0,-1,650,337,0,0
-567,687,0,0,0,0,0,0,0,0,0,-1,657,337,0,0
-560,687,0,0,0,0,0,0,0,0,0,-1,664,337,0,0
-553,687,0,0,0,0,0,0,0,0,0,-1,671,337,0,0
-546,687,0,0,0,0,0,0,0,0,0,-1,678,337,0,0
-539,687,0,0,0,0,0,0,0,0,0,-1,685,337,0,0
-532,687,0,0,0,0,0,0,0,0,0,-1,692,337,0,0
-525,687,0,0,0,0,0,0,0,0,0,-1,699,337,0,0
-518,687,0,0,0,0,0,0,0,0,0,-1,706,337,0,0
-511,687,0,0,0,0,0,0,0,0,0,-1,713,337,0,0
-504,687,0,0,0,0,0,0,0,0,0,-1,720,337,0,0
-497,687,0,0,0,0,0,0,0,0,0,-1,727,337,0,0
-490,687,0,0,0,0,0,0,0,0,0,-1,734,337,0,0
-483,687,0,0,0,0,0,0,0,0,0,-1,741,337,0,0
-476,687,0,0,0,0,0,0,0,0,0,-1,748,337,0,0
-469,687,0,0,0,0,0,0,0,0,0,-1,755,337,0,0
-462,687,0,0,0,0,0,0,0,0,0,-1,762,337,0,0
-455,687,0,0,0,0,0,0,0,0,0,-1,769,337,0,0
-448,687,0,0,0,0,0,0,0,0,0,-1,776,337,0,0
-441,687,0,0,0,0,0,0,0,0,0,-1,783,337,0,0
-434,687,0,0,0,0,0,0,0,0,0,-1,790,337,0,0
-427,687,0,0,0,0,0,0,0,0,0,-1,797,337,0,0
-420,687,0,0,0,0,0,0,0,0,0,-1,804,337,0,0
-413,687,0,0,0,0,0,0,0,0,0,-1,811,337,0,0
-406,687,0,0,0,0,0,0,0,0,0,-1,818,337,0,0
-399,687,0,0,0,0,0,0,0,0,0,-1,825,337,0,0
-392,687,0,0,0,0,0,0,0,0,0,-1,832,337,0,0
-385,687,0,0,0,0,0,0,0,0,0,-1,839,337,0,0
-378,687,0,0,0,0,0,0,0,0,0,-1,846,337,0,0
-371,687,0,0,0,0,0,0,0,0,0,-1,853,337,0,0
-364,687,0,0,0,0,0,0,0,0,0,-1,860,337,0,0
-357,687,0,0,0,0,0,0,0,0,0,-1,867,337,0,0
-350,687,0,0,0,0,0,0,0,0,0,-1,874,337,0,0
-343,687,0,0,0,0,0,0,0,0,0,-1,881,337,0,0
-336,687,0,0,0,0,0,0,0,0,0,-1,888,337,0,0
-329,687,0,0,0,0,0,0,0,0,0,-1,895,337,0,0
-322,687,0,0,0,0,0,0,0,0,0,-1,902,337,0,0
-315,687,0,0,0,0,0,0,0,0,0,-1,909,337,0,0
-308,687,0,0,0,0,0,0,0,0,0,-1,916,337,0,0
-301,687,0,0,0,0,0,0,0,0,0,-1,923,337,0,0
-294,687,0,0,0,0,0,0,0,0,0,-1,930,337,0,0
-287,687,0,0,0,0,0,0,0,0,0,-1,937,337,0,0
-280,687,0,0,0,0,0,0,0,0,0,-1,944,337,0,0
-273,687,0,0,0,0,0,0,0,0,0,-1,951,337,0,0
-266,687,0,0,0,0,0,0,0,0,0,-1,958,337,0,0
-259,687,0,0,0,0,0,0,0,0,0,-1,965,337,0,0
-252,687,0,0,0,0,0,0,0,0,0,-1,972,337,0,0
-245,687,0,0,0,0,0,0,0,0,0,-1,979,337,0,0
-238,687,0,0,0,0,0,0,0,0,0,-1,986,337,0,0
-231,687,0,0,0,0,0,0,0,0,0,-1,993,337,0,0
-224,687,0,0,0,0,0,0,0,0,0,-1,1000,337,0,0
-217,687,0,0,0,0,0,0,0,0,0,-1,1007,337,0,0
-210,687,0,0,0,0,0,0,0,0,0,-1,1014,337,0,0
-203,687,0,0,0,0,0,0,0,0,0,-1,1021,337,0,0
-196,687,0,0,0,0,0,0,0,0,0,-1,1028,337,0,0
-189,687,0,0,0,0,0,0,0,0,0,-1,1035,337,0,0
-182,687,0,0,0,0,0,0,0,0,0,-1,1042,337,0,0
-175,687,0,0,0,0,0,0,0,0,0,-1,1049,337,0,0
-168,687,0,0,0,0,0,0,0,0,0,-1,1056,337,0,0
-161,687,0,0,0,0,0,0,0,0,0,-1,1063,337,0,0
-154,687,0,0,0,0,0,0,0,0,0,-1,1070,337,0,0
-147,687,0,0,0,0,0,0,0,0,0,-1,1077,337,0,0
-140,687,0,0,0,0,0,0,0,0,0,-1,1084,337,0,0
-133,687,7.93958,-37.548,0,0,0,0,0,0,0,-1,1091,337,7.93957,37.548
-126,687,0.688477,-38.7298,0,0,0,0,0,0,0,-1,1098,337,0.688509,38.7298
-119,687,7.70825,-33.9236,0,0,0,0,0,0,0,-1,1105,337,7.70826,33.9236
-112,687,7.99866,-32.2983,0,0,0,0,0,0,0,-1,1112,337,7.99866,32.2983
-105,687,1.3208,-29.8313,0,0,0,0,0,0,0,-1,1119,337,1.3208,29.8313
-98,687,13.7111,-47.5645,0,0,0,0,0,0,0,-1,1126,337,13.711,47.5645
-91,687,7.22083,-41.1667,0,0,0,0,0,0,0,-1,1133,337,7.22079,41.1666
-84,687,0.745117,-35.0345,0,0,0,0,0,0,0,-1,1140,337,0.745155,35.0345
-77,687,-5.74353,-28.9553,0,0,0,0,0,0,0,-1,1147,337,-5.74357,28.9553
-70,687,-11.6842,-19.8473,0,0,0,0,0,0,0,-1,1154,337,-11.6842,19.8473
-63,687,-17.6757,-14.8966,0,0,0,0,0,0,0,-1,1161,337,-17.6756,14.8966
-56,687,-18.104,7.81931,0,0,0,0,0,0,0,-1,1168,337,-18.104,-7.81931
-49,687,-15.6449,-9.94391,0,0,0,0,0,0,0,-1,1175,337,-15.6449,9.94392
-42,687,-4.2019,-0.405609,0,0,0,0,0,0,0,-1,1182,337,-4.20192,0.405614
-35,687,-4.42273,-0.688171,0,0,0,0,0,0,0,-1,1189,337,-4.42276,0.688178
-28,687,-1.14038,-1.39072,0,0,0,0,0,0,0,-1,1196,337,-1.14035,1.3907
-21,687,9.21216,-64.12,0,0,0,0,0,0,0,-1,1203,337,9.21222,64.12
-14,687,9.99792,-65.4914,0.0705648,0.0991676,-0.0745482,0.160774,0.00895864,-0.880167,0.104325,0.0442928,1210,337,9.9979,65.4914
-7,687,10.6826,-66.9281,0.0552239,0.0989375,-0.0721188,0.152439,0.00172255,-0.932532,0.101057,0.0411818,1217,337,10.6826,66.9281
0,687,11.5374,-68.1901,0.0413696,0.0991485,-0.0695887,0.145606,-0.00508801,-0.982145,0.0988104,0.0460423,1224,337,11.5374,68.1901
7,687,10.2706,-67.0333,0,0,0,0,0,0,0,-1,1231,337,10.2706,67.0333
14,687,9.89661,-66.9557,0,0,0,0,0,0,0,-1,1238,337,9.8966,66.9557
21,687,9.43933,-65.4899,0,0,0,0,0,0,0,-1,1245,337,9.43932,65.4899
28,687,8.74329,-65.9453,0.0132112,0.0868328,-0.0632557,0.123209,-0.0231649,-1.04891,0.0908507,0.0493986,1252,337,8.74332,65.9453
35,687,8.22156,-66.4452,0.0116132,0.0831571,-0.0595062,0.116816,-0.0220455,-1.05603,0.0861709,0.0469304,1259,337,8.22162,66.4452
42,687,7.81738,-67.1777,0.0110564,0.0789023,-0.0539628,0.108719,-0.0187604,-1.066,0.0794744,0.0460128,1266,337,7.81734,67.1777
49,687,8.22351,-68.3117,0.0118745,0.0762653,-0.0480595,0.101917,-0.013777,-1.08052,0.0729717,0.049762,1273,337,8.2235,68.3117
56,687,8.1217,-68.2846,0.0147405,0.0742517,-0.0404067,0.0946767,-0.00568452,-1.10277,0.0650954,0.0467002,1280,337,8.12165,68.2846
63,687,8.01147,-68.4317,0.020477,0.0752202,-0.0298477,0.0883467,0.00735053,-1.15647,0.0566069,0.045023,1287,337,8.01143,68.4317
70,687,8.15588,-69.1444,0.0258589,0.0759538,-0.0182397,0.0818912,0.0199215,-1.25609,0.0493137,0.0412545,1294,337,8.15591,69.1444
77,687,8.31201,-69.5885,0.0295563,0.0765937,-0.00652306,0.0774815,0.0286685,-1.43552,0.0452352,0.0439135,1301,337,8.31201,69.5885
84,687,5.95862,-71.714,0,0,0,0,0,0,0,-1,1308,337,5.95862,71.714
91,687,5.88745,-72.1091,0.0302509,0.0713701,0.0204113,0.0797815,0.0218395,1.17991,0.047608,0.0460572,1315,337,5.88746,72.1091
98,687,6.40662,-72.4744,0.028456,0.0673849,0.0347576,0.0877571,0.00808386,1.04064,0.0560049,0.0472192,1322,337,6.40657,72.4744
105,687,6.625,-72.9613,0,0,0,0,0,0,0,-1,1329,337,6.625,72.9613
112,687,6.88623,-73.2332,0.0198708,0.0570532,0.0595416,0.100839,-0.0239146,0.936722,0.0764543,0.0468135,1336,337,6.88625,73.2332
119,687,8.13281,-70.7158,0.014644,0.0499887,0.0711576,0.105636,-0.0410029,0.907113,0.08736,0.0442218,1343,337,8.13278,70.7158
126,687,8.14954,-68.8473,0,0,0,0,0,0,0,-1,1350,337,8.14948,68.8472
133,687,6.98352,-67.7414,0.00232899,0.0289858,0.0905151,0.107149,-0.0758338,0.858498,0.106159,0.0451827,1357,337,6.98354,67.7413
140,687,6.18481,-66.825,-0.00498279,0.016975,0.0987813,0.105386,-0.0933934,0.840743,0.114835,0.0469008,1364,337,6.18479,66.825
147,687,5.6842,-66.1339,-0.0119897,0.00682796,0.106481,0.104315,-0.109477,0.829464,0.123444,0.0490889,1371,337,5.68421,66.1339
154,687,5.73682,-64.9643,0,0,0,0,0,0,0,-1,1378,337,5.7368,64.9643
161,687,29.3895,-1.90628,0,0,0,0,0,0,0,-1,1385,337,29.3895,1.90628
168,687,29.8564,-1.19434,0,0,0,0,0,0,0,-1,1392,337,29.8564,1.19434
175,687,30.3419,-0.453583,0,0,0,0,0,0,0,-1,1399,337,30.3419,0.45357
182,687,6.67249,0.289917,0,0,0,0,0,0,0,-1,1406,337,6.67247,-0.289916
189,687,7.76062,4.53635,0,0,0,0,0,0,0,-1,1413,337,7.76064,-4.53636
196,687,6.99048,3.2966,0,0,0,0,0,0,0,-1,1420,337,6.99046,-3.2966
203,687,6.36499,2.1445,0,0,0,0,0,0,0,-1,1427,337,6.36499,-2.14451
210,687,6.68066,0.674652,0,0,0,0,0,0,0,-1,1434,337,6.68062,-0.674655
217,687,5.99683,-0.630493,0,0,0,0,0,0,0,-1,1441,337,5.99684,0.630497
224,687,5.52917,0.524902,0,0,0,0,0,0,0,-1,1448,337,5.5292,-0.524915
231,687,5.85583,-1.73651,0,0,0,0,0,0,0,-1,1455,337,5.85577,1.73651
238,687,5.96582,-2.96774,0,0,0,0,0,0,0,-1,1462,337,5.96577,2.96773
245,687,1.28259,2.32211,0,0,0,0,0,0,0,-1,1469,337,1.28258,-2.32211
252,687,1.97278,3.88422,0,0,0,0,0,0,0,-1,1476,337,1.97281,-3.88421
259,687,0,0,0,0,0,0,0,0,0,-1,1483,337,0,0
266,687,0,0,0,0,0,0,0,0,0,-1,1490,337,0,0
273,687,0,0,0,0,0,0,0,0,0,-1,1497,337,0,0
280,687,0,0,0,0,0,0,0,0,0,-1,1504,337,0,0
287,687,0,0,0,0,0,0,0,0,0,-1,1511,337,0,0
294,687,0,0,0,0,0,0,0,0,0,-1,1518,337,0,0
301,687,0,0,0,0,0,0,0,0,0,-1,1525,337,0,0
308,687,0,0,0,0,0,0,0,0,0,-1,1532,337,0,0
315,687,0,0,0,0,0,0,0,0,0,-1,1539,337,0,0
322,687,0,0,0,0,0,0,0,0,0,-1,1546,337,0,0
329,687,0,0,0,0,0,0,0,0,0,-1,1553,337,0,0
336,687,0,0,0,0,0,0,0,0,0,-1,1560,337,0,0
343,687,0,0,0,0,0,0,0,0,0,-1,1567,337,0,0
350,687,0,0,0,0,0,0,0,0,0,-1,1574,337,0,0
357,687,0,0,0,0,0,0,0,0,0,-1,1581,337,0,0
364,687,0,0,0,0,0,0,0,0,0,-1,1588,337,0,0
371,687,0,0,0,0,0,0,0,0,0,-1,1595,337,0,0
378,687,0,0,0,0,0,0,0,0,0,-1,1602,337,0,0
385,687,0,0,0,0,0,0,0,0,0,-1,1609,337,0,0
392,687,0,0,0,0,0,0,0,0,0,-1,1616,337,0,0
399,687,0,0,0,0,0,0,0,0,0,-1,1623,337,0,0
406,687,0,0,0,0,0,0,0,0,0,-1,1630,337,0,0
413,687,0,0,0,0,0,0,0,0,0,-1,1637,337,0,0
420,687,0,0,0,0,0,0,0,0,0,-1,1644,337,0,0
427,687,0,0,0,0,0,0,0,0,0,-1,1651,337,0,0
434,687,0,0,0,0,0,0,0,0,0,-1,1658,337,0,0
441,687,0,0,0,0,0,0,0,0,0,-1,1665,337,0,0
448,687,0,0,0,0,0,0,0,0,0,-1,1672,337,0,0
455,687,0,0,0,0,0,0,0,0,0,-1,1679,337,0,0
462,687,0,0,0,0,0,0,0,0,0,-1,1686,337,0,0
469,687,0,0,0,0,0,0,0,0,0,-1,1693,337,0,0
476,687,0,0,0,0,0,0,0,0,0,-1,1700,337,0,0
483,687,0,0,0,0,0,0,0,0,0,-1,1707,337,0,0
490,687,0,0,0,0,0,0,0,0,0,-1,1714,337,0,0
497,687,0,0,0,0,0,0,0,0,0,-1,1721,337,0,0
504,687,0,0,0,0,0,0,0,0,0,-1,1728,337,0,0
511,687,0,0,0,0,0,0,0,0,0,-1,1735,337,0,0
518,687,0,0,0,0,0,0,0,0,0,-1,1742,337,0,0
525,687,0,0,0,0,0,0,0,0,0,-1,1749,337,0,0
532,687,0,0,0,0,0,0,0,0,0,-1,1756,337,0,0
539,687,0,0,0,0,0,0,0,0,0,-1,1763,337,0,0
546,687,0,0,0,0,0,0,0,0,0,-1,1770,337,0,0
553,687,0,0,0,0,0,0,0,0,0,-1,1777,337,0,0
560,687,0,0,0,0,0,0,0,0,0,-1,1784,337,0,0
567,687,0,0,0,0,0,0,0,0,0,-1,1791,337,0,0
574,687,0,0,0,0,0,0,0,0,0,-1,1798,337,0,0
581,687,0,0,0,0,0,0,0,0,0,-1,1805,337,0,0
588,687,0,0,0,0,0,0,0,0,0,-1,1812,337,0,0
595,687,0,0,0,0,0,0,0,0,0,-1,1819,337,0,0
602,687,0,0,0,0,0,0,0,0,0,-1,1826,337,0,0
609,687,0,0,0,0,0,0,0,0,0,-1,1833,337,0,0
616,687,0,0,0,0,0,0,0,0,0,-1,1840,337,0,0
623,687,0,0,0,0,0,0,0,0,0,-1,1847,337,0,0
630,687,0,0,0,0,0,0,0,0,0,-1,1854,337,0,0
637,687,0,0,0,0,0,0,0,0,0,-1,1861,337,0,0
644,687,0,0,0,0,0,0,0,0,0,-1,1868,337,0,0
651,687,0,0,0,0,0,0,0,0,0,-1,1875,337,0,0
658,687,0,0,0,0,0,0,0,0,0,-1,1882,337,0,0
665,687,0,0,0,0,0,0,0,0,0,-1,1889,337,0,0
672,687,0,0,0,0,0,0,0,0,0,-1,1896,337,0,0
679,687,0,0,0,0,0,0,0,0,0,-1,1903,337,0,0
686,687,0,0,0,0,0,0,0,0,0,-1,1910,337,0,0
693,687,0,0,0,0,0,0,0,0,0,-1,1917,337,0,0
700,687,0,0,0,0,0,0,0,0,0,-1,1924,337,0,0
707,687,0,0,0,0,0,0,0,0,0,-1,1931,337,0,0
714,687,0,0,0,0,0,0,0,0,0,-1,1938,337,0,0
721,687,0,0,0,0,0,0,0,0,0,-1,1945,337,0,0
728,687,0,0,0,0,0,0,0,0,0,-1,1952,337,0,0
735,687,0,0,0,0,0,0,0,0,0,-1,1959,337,0,0
742,687,0,0,0,0,0,0,0,0,0,-1,1966,337,0,0
749,687,0,0,0,0,0,0,0,0,0,-1,1973,337,0,0
756,687,0,0,0,0,0,0,0,0,0,-1,1980,337,0,0
763,687,0,0,0,0,0,0,0,0,0,-1,1987,337,0,0
770,687,0,0,0,0,0,0,0,0,0,-1,1994,337,0,0
777,687,0,0,0,0,0,0,0,0,0,-1,2001,337,0,0
784,687,0,0,0,0,0,0,0,0,0,-1,2008,337,0,0
791,687,0,0,0,0,0,0,0,0,0,-1,2015,337,0,0
798,687,0,0,0,0,0,0,0,0,0,-1,2022,337,0,0
805,687,0,0,0,0,0,0,0,0,0,-1,2029,337,0,0
812,687,0,0,0,0,0,0,0,0,0,-1,2036,337,0,0
-700,680,0,0,0,0,0,0,0,0,0,-1,524,344,0,0
-693,680,0,0,0,0,0,0,0,0,0,-1,531,344,0,0
-686,680,0,0,0,0,0,0,0,0,0,-1,538,344,0,0
-679,680,0,0,0,0,0,0,0,0,0,-1,545,344,0,0
-672,680,0,0,0,0,0,0,0,0,0,-1,552,344,0,0
-665,680,0,0,0,0,0,0,0,0,0,-1,559,344,0,0
-658,680,0,0,0,0,0,0,0,0,0,-1,566,344,0,0
-651,680,0,0,0,0,0,0,0,0,0,-1,573,344,0,0
-644,680,0,0,0,0,0,0,0,0,0,-1,580,344,0,0
-637,680,0,0,0,0,0,0,0,0,0,-1,587,344,0,0
-630,680,0,0,0,0,0,0,0,0,0,-1,594,344,0,0
-623,680,0,0,0,0,0,0,0,0,0,-1,601,344,0,0
-616,680,0,0,0,0,0,0,0,0,0,-1,608,344,0,0
-609,680,0,0,0,0,0,0,0,0,0,-1,615,344,0,0
-602,680,0,0,0,0,0,0,0,0,0,-1,622,344,0,0
-595,680,0,0,0,0,0,0,0,0,0,-1,629,344,0,0
-588,680,0,0,0,0,0,0,0,0,0,-1,636,344,0,0
-581,680,0,0,0,0,0,0,0,0,0,-1,643,344,0,0
-574,680,0,0,0,0,0,0,0,0,0,-1,650,344,0,0
-567,680,0,0,0,0,0,0,0,0,0,-1,657,344,0,0
-560,680,0,0,0,0,0,0,0,0,0,-1,664,344,0,0
-553,680,0,0,0,0,0,0,0,0,0,-1,671,344,0,0
-546,680,0,0,0,0,0,0,0,0,0,-1,678,344,0,0
-539,680,0,0,0,0,0,0,0,0,0,-1,685,344,0,0
-532,680,0,0,0,0,0,0,0,0,0,-1,692,344,0,0
-525,680,0,0,0,0,0,0,0,0,0,-1,699,344,0,0
-518,680,0,0,0,0,0,0,0,0,0,-1,706,344,0,0
-511,680,0,0,0,0,0,0,0,0,0,-1,713,344,0,0
-504,680,0,0,0,0,0,0,0,0,0,-1,720,344,0,0
-497,680,0,0,0,0,0,0,0,0,0,-1,727,344,0,0
-490,680,0,0,0,0,0,0,0,0,0,-1,734,344,0,0
-483,680,0,0,0,0,0,0,0,0,0,-1,741,344,0,0
-476,680,0,0,0,0,0,0,0,0,0,-1,748,344,0,0
-469,680,0,0,0,0,0,0,0,0,0,-1,755,344,0,0
-462,680,0,0,0,0,0,0,0,0,0,-1,762,344,0,0
-455,680,0,0,0,0,0,0,0,0,0,-1,769,344,0,0
-448,680,0,0,0,0,0,0,0,0,0,-1,776,344,0,0
-441,680,0,0,0,0,0,0,0,0,0,-1,783,344,0,0
-434,680,0,0,0,0,0,0,0,0,0,-1,790,344,0,0
-427,680,0,0,0,0,0,0,0,0,0,-1,797,344,0,0
-420,680,0,0,0,0,0,0,0,0,0,-1,804,344,0,0
-413,680,0,0,0,0,0,0,0,0,0,-1,811,344,0,0
-406,680,0,0,0,0,0,0,0,0,0,-1,818,344,0,0
-399,680,0,0,0,0,0,0,0,0,0,-1,825,344,0,0
-392,680,0,0,0,0,0,0,0,0,0,-1,832,344,0,0
-385,680,0,0,0,0,0,0,0,0,0,-1,839,344,0,0
-378,680,0,0,0,0,0,0,0,0,0,-1,846,344,0,0
-371,680,0,0,0,0,0,0,0,0,0,-1,853,344,0,0
-364,680,0,0,0,0,0,0,0,0,0,-1,860,344,0,0
-357,680,0,0,0,0,0,0,0,0,0,-1,867,344,0,0
-350,680,0,0,0,0,0,0,0,0,0,-1,874,344,0,0
-343,680,0,0,0,0,0,0,0,0,0,-1,881,344,0,0
-336,680,0,0,0,0,0,0,0,0,0,-1,888,344,0,0
-329,680,0,0,0,0,0,0,0,0,0,-1,895,344,0,0
-322,680,0,0,0,0,0,0,0,0,0,-1,902,344,0,0
-315,680,0,0,0,0,0,0,0,0,0,-1,909,344,0,0
-308,680,0,0,0,0,0,0,0,0,0,-1,916,344,0,0
-301,680,0,0,0,0,0,0,0,0,0,-1,923,344,0,0
-294,680,0,0,0,0,0,0,0,0,0,-1,930,344,0,0
-287,680,0,0,0,0,0,0,0,0,0,-1,937,344,0,0
-280,680,0,0,0,0,0,0,0,0,0,-1,944,344,0,0
-273,680,0,0,0,0,0,0,0,0,0,-1,951,344,0,0
-266,680,0,0,0,0,0,0,0,0,0,-1,958,344,0,0
-259,680,0,0,0,0,0,0,0,0,0,-1,965,344,0,0
-252,680,0,0,0,0,0,0,0,0,0,-1,972,344,0,0
-245,680,0,0,0,0,0,0,0,0,0,-1,979,344,0,0
-238,680,0,0,0,0,0,0,0,0,0,-1,986,344,0,0
-231,680,0,0,0,0,0,0,0,0,0,-1,993,344,0,0
-224,680,0,0,0,0,0,0,0,0,0,-1,1000,344,0,0
-217,680,0,0,0,0,0,0,0,0,0,-1,1007,344,0,0
-210,680,0,0,0,0,0,0,0,0,0,-1,1014,344,0,0
-203,680,0,0,0,0,0,0,0,0,0,-1,1021,344,0,0
-196,680,0,0,0,0,0,0,0,0,0,-1,1028,344,0,0
-189,680,0,0,0,0,0,0,0,0,0,-1,1035,344,0,0
-182,680,0,0,0,0,0,0,0,0,0,-1,1042,344,0,0
-175,680,0,0,0,0,0,0,0,0,0,-1,1049,344,0,0
-168,680,0,0,0,0,0,0,0,0,0,-1,1056,344,0,0
-161,680,0,0,0,0,0,0,0,0,0,-1,1063,344,0,0
-154,680,2.25244,-29.1442,0,0,0,0,0,0,0,-1,1070,344,2.25241,29.1442
-147,680,9.29614,-33.0369,0,0,0,0,0,0,0,-1,1077,344,9.29612,33.0369
-140,680,6.98022,-36.6899,0,0,0,0,0,0,0,-1,1084,344,6.98023,36.6899
-133,680,1.85693,-39.7233,0,0,0,0,0,0,0,-1,1091,344,1.85699,39.7233
-126,680,2.30017,-38.3751,0,0,0,0,0,0,0,-1,1098,344,2.30011,38.3751
-119,680,2.74329,-37.0269,0,0,0,0,0,0,0,-1,1105,344,2.74323,37.0269
-112,680,7.7467,-32.4407,0,0,0,0,0,0,0,-1,1112,344,7.74668,32.4407
-105,680,20.6371,-48.461,0,0,0,0,0,0,0,-1,1119,344,20.6371,48.461
-98,680,14.2684,-41.9997,0,0,0,0,0,0,0,-1,1126,344,14.2685,41.9997
-91,680,7.89648,-35.5147,0,0,0,0,0,0,0,-1,1133,344,7.8965,35.5147
-84,680,1.47168,-29.471,0,0,0,0,0,0,0,-1,1140,344,1.47163,29.471
-77,680,-4.95337,-23.3355,0,0,0,0,0,0,0,-1,1147,344,-4.9534,23.3356
-70,680,-11.5099,-17.4337,0,0,0,0,0,0,0,-1,1154,344,-11.5098,17.4338
-63,680,-17.2391,-1.43134,0,0,0,0,0,0,0,-1,1161,344,-17.2392,1.43133
-56,680,-6.96912,-8.83356,0,0,0,0,0,0,0,-1,1168,344,-6.96907,8.83354
-49,680,-6.7677,-2.24063,0,0,0,0,0,0,0,-1,1175,344,-6.76772,2.24063
-42,680,-1.02368,0.618805,0,0,0,0,0,0,0,-1,1182,344,-1.0237,-0.618797
-35,680,-0.947876,-0.942719,0,0,0,0,0,0,0,-1,1189,344,-0.947842,0.942731
-28,680,-1.46118,-1.10574,0,0,0,0,0,0,0,-1,1196,344,-1.4612,1.10575
-21,680,9.64307,-65.8181,0,0,0,0,0,0,0,-1,1203,344,9.6431,65.8181
-14,680,9.91821,-66.6072,0.0479842,0.0814714,-0.055597,0.122791,0.00666426,-0.931659,0.0797324,0.0420555,1210,344,9.91821,66.6072
-7,680,10.3451,-67.5396,0.0375345,0.0820702,-0.0544468,0.118627,0.000977963,-0.979511,0.0787606,0.0413724,1217,344,10.3452,67.5396
0,680,9.93579,-67.4817,0,0,0,0,0,0,0,-1,1224,344,9.93582,67.4817
7,680,9.84204,-67.7095,0,0,0,0,0,0,0,-1,1231,344,9.84207,67.7095
14,680,9.51563,-67.6386,0,0,0,0,0,0,0,-1,1238,344,9.51562,67.6386
21,680,9.30957,-68.0164,0,0,0,0,0,0,0,-1,1245,344,9.3096,68.0164
28,680,9.35889,-68.219,0,0,0,0,0,0,0,-1,1252,344,9.3589,68.2189
35,680,8.64929,-68.0082,0,0,0,0,0,0,0,-1,1259,344,8.64932,68.0082
42,680,8.44092,-68.1711,0.00627189,0.0672107,-0.0401763,0.0871647,-0.0136821,-1.10982,0.0631664,0.0473264,1266,344,8.44094,68.1711
49,680,8.36401,-68.7045,0.00683803,0.065348,-0.0354325,0.0820421,-0.00985607,-1.13049,0.0582587,0.0444889,1273,344,8.36401,68.7045
56,680,8.3269,-68.6239,0.00907752,0.0639562,-0.0295444,0.076838,-0.00380422,-1.15963,0.0525393,0.042,1280,344,8.32694,68.6239
63,680,8.2699,-68.4727,0.0138664,0.0649671,-0.0213134,0.0726896,0.00614398,-1.22318,0.0465471,0.0417593,1287,344,8.26986,68.4727
70,680,8.18726,-68.1933,0.0185928,0.0656009,-0.0121986,0.068578,0.0156158,-1.33143,0.0415044,0.040536,1294,344,8.1872,68.1933
77,680,8.43738,-67.4309,0.0220254,0.0662751,-0.00296661,0.0664731,0.0218274,-1.50415,0.0391247,0.0420276,1301,344,8.43737,67.4309
84,680,9.18359,-67.1642,0.0232629,0.0643589,0.00766926,0.0657435,0.0218784,1.39218,0.0386581,0.0467384,1308,344,9.18363,67.1642
91,680,5.00159,-73.0491,0,0,0,0,0,0,0,-1,1315,344,5.00157,73.0491
98,680,5.54968,-73.4259,0,0,0,0,0,0,0,-1,1322,344,5.54971,73.4259
105,680,3.9126,-66.0326,0,0,0,0,0,0,0,-1,1329,344,3.91261,66.0326
112,680,5.61182,-74.959,0,0,0,0,0,0,0,-1,1336,344,5.61183,74.959
119,680,7.80164,-70.8712,0,0,0,0,0,0,0,-1,1343,344,7.80165,70.8711
126,680,6.37744,-67.7019,0,0,0,0,0,0,0,-1,1350,344,6.37741,67.7019
133,680,5.59229,-66.9002,0.000460376,0.028823,0.0752436,0.09121,-0.0619266,0.878542,0.0889507,0.0437021,1357,344,5.59228,66.9002
140,680,4.38538,-66.3004,-0.00531439,0.0194753,0.0811072,0.0891293,-0.0749684,0.861222,0.0948594,0.0486317,1364,344,4.38535,66.3003
147,680,3.97961,-65.6597,-0.0107149,0.0120376,0.0864714,0.0878779,-0.0865552,0.850803,0.10071,0.0463958,1371,344,3.97962,65.6597
154,680,4.19409,-64.4077,0,0,0,0,0,0,0,-1,1378,344,4.1941,64.4077
161,680,5.30676,-60.3476,0,0,0,0,0,0,0,-1,1385,344,5.30681,60.3476
168,680,29.4142,-2.51651,0,0,0,0,0,0,0,-1,1392,344,29.4142,2.51652
175,680,6.66541,0.942078,0,0,0,0,0,0,0,-1,1399,344,6.66538,-0.942088
182,680,6.52917,0.532379,0,0,0,0,0,0,0,-1,1406,344,6.52922,-0.532385
189,680,7.55884,4.77695,0,0,0,0,0,0,0,-1,1413,344,7.55886,-4.77694
196,680,6.55627,3.35254,0,0,0,0,0,0,0,-1,1420,344,6.55622,-3.35255
203,680,5.7334,1.90753,0,0,0,0,0,0,0,-1,1427,344,5.73341,-1.90754
210,680,5.27515,0.493622,0,0,0,0,0,0,0,-1,1434,344,5.27514,-0.493632
217,680,6.56384,-0.374176,0,0,0,0,0,0,0,-1,1441,344,6.56379,0.374176
224,680,3.9491,-0.640228,0,0,0,0,0,0,0,-1,1448,344,3.94908,0.64024
231,680,4.24866,-1.96881,0,0,0,0,0,0,0,-1,1455,344,4.2486,1.96882
238,680,4.29333,-3.23984,0,0,0,0,0,0,0,-1,1462,344,4.29332,3.23984
245,680,2.44397,0.985382,0,0,0,0,0,0,0,-1,1469,344,2.44402,-0.985394
252,680,3.07349,2.18951,0,0,0,0,0,0,0,-1,1476,344,3.0735,-2.18952
259,680,2.82971,1.30682,0,0,0,0,0,0,0,-1,1483,344,2.82972,-1.30684
266,680,2.67554,1.44067,0,0,0,0,0,0,0,-1,1490,344,2.67551,-1.44066
273,680,2.46411,1.54666,0,0,0,0,0,0,0,-1,1497,344,2.46407,-1.54666
280,680,0,0,0,0,0,0,0,0,0,-1,1504,344,0,0
287,680,0,0,0,0,0,0,0,0,0,-1,1511,344,0,0
294,680,0,0,0,0,0,0,0,0,0,-1,1518,344,0,0
301,680,0,0,0,0,0,0,0,0,0,-1,1525,344,0,0
308,680,0,0,0,0,0,0,0,0,0,-1,1532,344,0,0
315,680,0,0,0,0,0,0,0,0,0,-1,1539,344,0,0
322,680,0,0,0,0,0,0,0,0,0,-1,1546,344,0,0
329,680,0,0,0,0,0,0,0,0,0,-1,1553,344,0,0
336,680,0,0,0,0,0,0,0,0,0,-1,1560,344,0,0
343,680,0,0,0,0,0,0,0,0,0,-1,1567,344,0,0
350,680,0,0,0,0,0,0,0,0,0,-1,1574,344,0,0
357,680,0,0,0,0,0,0,0,0,0,-1,1581,344,0,0
364,680,0,0,0,0,0,0,0,0,0,-1,1588,344,0,0
371,680,0,0,0,0,0,0,0,0,0,-1,1595,344,0,0
378,680,0,0,0,0,0,0,0,0,0,-1,1602,344,0,0
385,680,0,0,0,0,0,0,0,0,0,-1,1609,344,0,0
392,680,0,0,0,0,0,0,0,0,0,-1,1616,344,0,0
399,680,0,0,0,0,0,0,0,0,0,-1,1623,344,0,0
406,680,0,0,0,0,0,0,0,0,0,-1,1630,344,0,0
413,680,0,0,0,0,0,0,0,0,0,-1,1637,344,0,0
420,680,0,0,0,0,0,0,0,0,0,-1,1644,344,0,0
427,680,0,0,0,0,0,0,0,0,0,-1,1651,344,0,0
434,680,0,0,0,0,0,0,0,0,0,-1,1658,344,0,0
441,680,0,0,0,0,0,0,0,0,0,-1,1665,344,0,0
448,680,0,0,0,0,0,0,0,0,0,-1,1672,344,0,0
455,680,0,0,0,0,0,0,0,0,0,-1,1679,344,0,0
462,680,0,0,0,0,0,0,0,0,0,-1,1686,344,0,0
469,680,0,0,0,0,0,0,0,0,0,-1,1693,344,0,0
476,680,0,0,0,0,0,0,0,0,0,-1,1700,344,0,0
483,680,0,0,0,0,0,0,0,0,0,-1,1707,344,0,0
490,680,0,0,0,0,0,0,0,0,0,-1,1714,344,0,0
497,680,0,0,0,0,0,0,0,0,0,-1,1721,344,0,0
504,680,0,0,0,0,0,0,0,0,0,-1,1728,344,0,0
511,680,0,0,0,0,0,0,0,0,0,-1,1735,344,0,0
518,680,0,0,0,0,0,0,0,0,0,-1,1742,344,0,0
525,680,0,0,0,0,0,0,0,0,0,-1,1749,344,0,0
532,680,0,0,0,0,0,0,0,0,0,-1,1756,344,0,0
539,680,0,0,0,0,0,0,0,0,0,-1,1763,344,0,0
546,680,0,0,0,0,0,0,0,0,0,-1,1770,344,0,0
553,680,0,0,0,0,0,0,0,0,0,-1,1777,344,0,0
560,680,0,0,0,0,0,0,0,0,0,-1,1784,344,0,0
567,680,0,0,0,0,0,0,0,0,0,-1,1791,344,0,0
574,680,0,0,0,0,0,0,0,0,0,-1,1798,344,0,0
581,680,0,0,0,0,0,0,0,0,0,-1,1805,344,0,0
588,680,0,0,0,0,0,0,0,0,0,-1,1812,344,0,0
595,680,0,0,0,0,0,0,0,0,0,-1,1819,344,0,0
602,680,0,0,0,0,0,0,0,0,0,-1,1826,344,0,0
609,680,0,0,0,0,0,0,0,0,0,-1,1833,344,0,0
616,680,0,0,0,0,0,0,0,0,0,-1,1840,344,0,0
623,680,0,0,0,0,0,0,0,0,0,-1,1847,344,0,0
630,680,0,0,0,0,0,0,0,0,0,-1,1854,344,0,0
637,680,0,0,0,0,0,0,0,0,0,-1,1861,344,0,0
644,680,0,0,0,0,0,0,0,0,0,-1,1868,344,0,0
651,680,0,0,0,0,0,0,0,0,0,-1,1875,344,0,0
658,680,0,0,0,0,0,0,0,0,0,-1,1882,344,0,0
665,680,0,0,0,0,0,0,0,0,0,-1,1889,344,0,0
672,680,0,0,0,0,0,0,0,0,0,-1,1896,344,0,0
679,680,0,0,0,0,0,0,0,0,0,-1,1903,344,0,0
686,680,0,0,0,0,0,0,0,0,0,-1,1910,344,0,0
693,680,0,0,0,0,0,0,0,0,0,-1,1917,344,0,0
700,680,0,0,0,0,0,0,0,0,0,-1,1924,344,0,0
707,680,0,0,0,0,0,0,0,0,0,-1,1931,344,0,0
714,680,0,0,0,0,0,0,0,0,0,-1,1938,344,0,0
721,680,0,0,0,0,0,0,0,0,0,-1,1945,344,0,0
728,680,0,0,0,0,0,0,0,0,0,-1,1952,344,0,0
735,680,0,0,0,0,0,0,0,0,0,-1,1959,344,0,0
742,680,0,0,0,0,0,0,0,0,0,-1,1966,344,0,0
749,680,0,0,0,0,0,0,0,0,0,-1,1973,344,0,0
756,680,0,0,0,0,0,0,0,0,0,-1,1980,344,0,0
763,680,0,0,0,0,0,0,0,0,0,-1,1987,344,0,0
770,680,0,0,0,0,0,0,0,0,0,-1,1994,344,0,0
777,680,0,0,0,0,0,0,0,0,0,-1,2001,344,0,0
784,680,0,0,0,0,0,0,0,0,0,-1,2008,344,0,0
791,680,0,0,0,0,0,0,0,0,0,-1,2015,344,0,0
798,680,0,0,0,0,0,0,0,0,0,-1,2022,344,0,0
805,680,0,0,0,0,0,0,0,0,0,-1,2029,344,0,0
812,680,0,0,0,0,0,0,0,0,0,-1,2036,344,0,0
-700,673,0,0,0,0,0,0,0,0,0,-1,524,351,0,0
-693,673,0,0,0,0,0,0,0,0,0,-1,531,351,0,0
-686,673,0,0,0,0,0,0,0,0,0,-1,538,351,0,0
-679,673,0,0,0,0,0,0,0,0,0,-1,545,351,0,0
-672,673,0,0,0,0,0,0,0,0,0,-1,552,351,0,0
-665,673,0,0,0,0,0,0,0,0,0,-1,559,351,0,0
-658,673,0,0,0,0,0,0,0,0,0,-1,566,351,0,0
-651,673,0,0,0,0,0,0,0,0,0,-1,573,351,0,0
-644,673,0,0,0,0,0,0,0,0,0,-1,580,351,0,0
-637,673,0,0,0,0,0,0,0,0,0,-1,587,351,0,0
-630,673,0,0,0,0,0,0,0,0,0,-1,594,351,0,0
-623,673,0,0,0,0,0,0,0,0,0,-1,601,351,0,0
-616,673,0,0,0,0,0,0,0,0,0,-1,608,351,0,0
-609,673,0,0,0,0,0,0,0,0,0,-1,615,351,0,0
-602,673,0,0,0,0,0,0,0,0,0,-1,622,351,0,0
-595,673,0,0,0,0,0,0,0,0,0,-1,629,351,0,0
-588,673,0,0,0,0,0,0,0,0,0,-1,636,351,0,0
-581,673,0,0,0,0,0,0,0,0,0,-1,643,351,0,0
-574,673,0,0,0,0,0,0,0,0,0,-1,650,351,0,0
-567,673,0,0,0,0,0,0,0,0,0,-1,657,351,0,0
-560,673,0,0,0,0,0,0,0,0,0,-1,664,351,0,0
-553,673,0,0,0,0,0,0,0,0,0,-1,671,351,0,0
-546,673,0,0,0,0,0,0,0,0,0,-1,678,351,0,0
-539,673,0,0,0,0,0,0,0,0,0,-1,685,351,0,0
-532,673,0,0,0,0,0,0,0,0,0,-1,692,351,0,0
-525,673,0,0,0,0,0,0,0,0,0,-1,699,351,0,0
-518,673,0,0,0,0,0,0,0,0,0,-1,706,351,0,0
-511,673,0,0,0,0,0,0,0,0,0,-1,713,351,0,0
-504,673,0,0,0,0,0,0,0,0,0,-1,720,351,0,0
-497,673,0,0,0,0,0,0,0,0,0,-1,727,351,0,0
-490,673,0,0,0,0,0,0,0,0,0,-1,734,351,0,0
-483,673,0,0,0,0,0,0,0,0,0,-1,741,351,0,0
-476,673,0,0,0,0,0,0,0,0,0,-1,748,351,0,0
-469,673,0,0,0,0,0,0,0,0,0,-1,755,351,0,0
-462,673,0,0,0,0,0,0,0,0,0,-1,762,351,0,0
-455,673,0,0,0,0,0,0,0,0,0,-1,769,351,0,0
-448,673,0,0,0,0,0,0,0,0,0,-1,776,351,0,0
-441,673,0,0,0,0,0,0,0,0,0,-1,783,351,0,0
-434,673,0,0,0,0,0,0,0,0,0,-1,790,351,0,0
-427,673,0,0,0,0,0,0,0,0,0,-1,797,351,0,0
-420,673,0,0,0,0,0,0,0,0,0,-1,804,351,0,0
-413,673,0,0,0,0,0,0,0,0,0,-1,811,351,0,0
-406,673,0,0,0,0,0,0,0,0,0,-1,818,351,0,0
-399,673,0,0,0,0,0,0,0,0,0,-1,825,351,0,0
-392,673,0,0,0,0,0,0,0,0,0,-1,832,351,0,0
-385,673,0,0,0,0,0,0,0,0,0,-1,839,351,0,0
-378,673,0,0,0,0,0,0,0,0,0,-1,846,351,0,0
-371,673,0,0,0,0,0,0,0,0,0,-1,853,351,0,0
-364,673,0,0,0,0,0,0,0,0,0,-1,860,351,0,0
-357,673,0,0,0,0,0,0,0,0,0,-1,867,351,0,0
-350,673,0,0,0,0,0,0,0,0,0,-1,874,351,0,0
-343,673,0,0,0,0,0,0,0,0,0,-1,881,351,0,0
-336,673,0,0,0,0,0,0,0,0,0,-1,888,351,0,0
-329,673,0,0,0,0,0,0,0,0,0,-1,895,351,0,0
-322,673,0,0,0,0,0,0,0,0,0,-1,902,351,0,0
-315,673,0,0,0,0,0,0,0,0,0,-1,909,351,0,0
-308,673,0,0,0,0,0,0,0,0,0,-1,916,351,0,0
-301,673,0,0,0,0,0,0,0,0,0,-1,923,351,0,0
-294,673,0,0,0,0,0,0,0,0,0,-1,930,351,0,0
-287,673,0,0,0,0,0,0,0,0,0,-1,937,351,0,0
-280,673,0,0,0,0,0,0,0,0,0,-1,944,351,0,0
-273,673,0,0,0,0,0,0,0,0,0,-1,951,351,0,0
-266,673,0,0,0,0,0,0,0,0,0,-1,958,351,0,0
-259,673,0,0,0,0,0,0,0,0,0,-1,965,351,0,0
-252,673,0,0,0,0,0,0,0,0,0,-1,972,351,0,0
-245,673,0,0,0,0,0,0,0,0,0,-1,979,351,0,0
-238,673,0,0,0,0,0,0,0,0,0,-1,986,351,0,0
-231,673,0,0,0,0,0,0,0,0,0,-1,993,351,0,0
-224,673,0,0,0,0,0,0,0,0,0,-1,1000,351,0,0
-217,673,0,0,0,0,0,0,0,0,0,-1,1007,351,0,0
-210,673,0,0,0,0,0,0,0,0,0,-1,1014,351,0,0
-203,673,0,0,0,0,0,0,0,0,0,-1,1021,351,0,0
-196,673,0,0,0,0,0,0,0,0,0,-1,1028,351,0,0
-189,673,0,0,0,0,0,0,0,0,0,-1,1035,351,0,0
-182,673,0,0,0,0,0,0,0,0,0,-1,1042,351,0,0
-175,673,7.10449,-31.8279,0,0,0,0,0,0,0,-1,1049,351,7.10448,31.8279
-168,673,7.33081,-32.7122,0,0,0,0,0,0,0,-1,1056,351,7.33085,32.7122
-161,673,7.8938,-33.5352,0,0,0,0,0,0,0,-1,1063,351,7.89385,33.5352
-154,673,8.80566,-35.3518,0,0,0,0,0,0,0,-1,1070,351,8.80563,35.3518
-147,673,2.89221,-37.7351,0,0,0,0,0,0,0,-1,1077,351,2.89224,37.7351
-140,673,3.35046,-37.7151,0,0,0,0,0,0,0,-1,1084,351,3.35046,37.715
-133,673,3.35339,-39.0288,0,0,0,0,0,0,0,-1,1091,351,3.35342,39.0288
-126,673,3.7533,-38.0453,0,0,0,0,0,0,0,-1,1098,351,3.7533,38.0453
-119,673,4.1532,-37.0618,0,0,0,0,0,0,0,-1,1105,351,4.15318,37.0618
-112,673,7.27234,-32.5801,0,0,0,0,0,0,0,-1,1112,351,7.27231,32.5801
-105,673,21.1144,-43.3143,0,0,0,0,0,0,0,-1,1119,351,21.1143,43.3143
-98,673,14.8014,-36.7519,0,0,0,0,0,0,0,-1,1126,351,14.8014,36.7519
-91,673,8.54944,-29.9639,0,0,0,0,0,0,0,-1,1133,351,8.54949,29.9639
-84,673,2.17102,-24.3204,0,0,0,0,0,0,0,-1,1140,351,2.17107,24.3204
-77,673,-4.25378,-18.8346,0,0,0,0,0,0,0,-1,1147,351,-4.25381,18.8346
-70,673,-10.7933,-13.6681,0,0,0,0,0,0,0,-1,1154,351,-10.7934,13.6681
-63,673,-17.3896,-8.24469,0,0,0,0,0,0,0,-1,1161,351,-17.3896,8.2447
-56,673,-18.0282,2.79053,0,0,0,0,0,0,0,-1,1168,351,-18.0283,-2.79052
-49,673,-0.926758,-0.115448,0,0,0,0,0,0,0,-1,1175,351,-0.926732,0.115444
-42,673,-1.15015,0.289917,0,0,0,0,0,0,0,-1,1182,351,-1.15017,-0.289932
-35,673,-0.919556,-1.00711,0,0,0,0,0,0,0,-1,1189,351,-0.919514,1.00711
-28,673,5.28918,-39.2331,0,0,0,0,0,0,0,-1,1196,351,5.28924,39.2331
-21,673,9.88647,-66.955,0,0,0,0,0,0,0,-1,1203,351,9.88651,66.955
-14,673,9.52625,-67.2856,0,0,0,0,0,0,0,-1,1210,351,9.5263,67.2856
-7,673,9.55847,-67.6786,0,0,0,0,0,0,0,-1,1217,351,9.5585,67.6786
0,673,9.32813,-68.0833,0,0,0,0,0,0,0,-1,1224,351,9.32817,68.0833
7,673,9.09729,-68.1463,0,0,0,0,0,0,0,-1,1231,351,9.09727,68.1463
14,673,9.1687,-68.1115,0.00946619,0.0649757,-0.0381345,0.0843863,-0.0099444,-1.09997,0.0598483,0.0470649,1238,351,9.16866,68.1115
21,673,9.00916,-68.4998,0.00599253,0.0628204,-0.0368203,0.0809154,-0.0121025,-1.11402,0.0583973,0.0344474,1245,351,9.00914,68.4998
28,673,9.03967,-68.6811,0.0037751,0.0598698,-0.0348523,0.0765588,-0.0129138,-1.12421,0.0558437,0.0344991,1252,351,9.03961,68.6811
35,673,8.76514,-68.6285,0,0,0,0,0,0,0,-1,1259,351,8.76509,68.6285
42,673,8.61621,-68.761,0.00285804,0.0560645,-0.0289489,0.0687776,-0.00985501,-1.157,0.0494651,0.0460829,1266,351,8.61618,68.761
49,673,8.44275,-68.9921,0.00327826,0.054829,-0.0252748,0.0651533,-0.007046,-1.183,0.0459646,0.0275637,1273,351,8.4428,68.9921
56,673,8.39526,-69,0.0049855,0.0539315,-0.0209121,0.0616492,-0.00273223,-1.21725,0.0420398,0.0200011,1280,351,8.39529,69
63,673,8.40723,-68.7537,0.00881355,0.0548672,-0.0147473,0.0591849,0.00449593,-1.28598,0.0380466,0.0249536,1287,351,8.40721,68.7536
70,673,8.32214,-68.713,0.0127324,0.0553577,-0.00786434,0.0567624,0.0113278,-1.39405,0.0346878,0.0386169,1294,351,8.3222,68.713
77,673,8.2981,-68.4504,0.0156891,0.0559571,-0.000865434,0.0559757,0.0156705,-1.54932,0.0333445,0.041983,1301,351,8.29804,68.4504
84,673,8.39539,-68.9856,0.0168003,0.0543734,0.00750913,0.0558186,0.0153552,1.38067,0.0332959,0.0485097,1308,351,8.39537,68.9856
91,673,8.28308,-69.4028,0.0164485,0.0521808,0.0166251,0.0587194,0.00990988,1.19608,0.0362968,0.0498343,1315,351,8.28305,69.4028
98,673,7.67419,-69.0621,0,0,0,0,0,0,0,-1,1322,351,7.6742,69.0621
105,673,7.27283,-68.7933,0,0,0,0,0,0,0,-1,1329,351,7.27288,68.7933
112,673,4.9967,-65.7799,0,0,0,0,0,0,0,-1,1336,351,4.99666,65.7799
119,673,4.49585,-64.6132,0,0,0,0,0,0,0,-1,1343,351,4.49582,64.6132
126,673,5.18677,-66.9424,0,0,0,0,0,0,0,-1,1350,351,5.18679,66.9424
133,673,4.23035,-66.1476,0,0,0,0,0,0,0,-1,1357,351,4.23034,66.1477
140,673,2.60852,-66.0658,0,0,0,0,0,0,0,-1,1364,351,2.60851,66.0658
147,673,2.34998,-65.3785,0,0,0,0,0,0,0,-1,1371,351,2.34992,65.3785
154,673,6.44482,-65.9568,0,0,0,0,0,0,0,-1,1378,351,6.44488,65.9568
161,673,6.2915,-65.3208,0,0,0,0,0,0,0,-1,1385,351,6.29145,65.3208
168,673,6.87061,1.83954,0,0,0,0,0,0,0,-1,1392,351,6.87063,-1.83953
175,673,6.6228,1.1459,0,0,0,0,0,0,0,-1,1399,351,6.62276,-1.14591
182,673,6.37244,0.796112,0,0,0,0,0,0,0,-1,1406,351,6.3724,-0.796102
189,673,6.12097,0.265472,0,0,0,0,0,0,0,-1,1413,351,6.121,-0.265482
196,673,6.02173,3.12717,0,0,0,0,0,0,0,-1,1420,351,6.02176,-3.12717
203,673,5.04456,1.6351,0,0,0,0,0,0,0,-1,1427,351,5.04455,-1.63509
210,673,4.79224,0.447479,0,0,0,0,0,0,0,-1,1434,351,4.79229,-0.447469
217,673,2.01648,0.972687,0,0,0,0,0,0,0,-1,1441,351,2.01644,-0.972691
224,673,2.3689,-1.80539,0,0,0,0,0,0,0,-1,1448,351,2.36896,1.80539
231,673,2.65857,-2.18497,0,0,0,0,0,0,0,-1,1455,351,2.65852,2.18496
238,673,3.77844,-2.06088,0,0,0,0,0,0,0,-1,1462,351,3.77839,2.06088
245,673,3.5376,-0.190399,0,0,0,0,0,0,0,-1,1469,351,3.53759,0.1904
252,673,3.80518,0.55603,0,0,0,0,0,0,0,-1,1476,351,3.80519,-0.556022
259,673,3.88562,1.29617,0,0,0,0,0,0,0,-1,1483,351,3.88562,-1.29618
266,673,4.22424,2.04834,0,0,0,0,0,0,0,-1,1490,351,4.22429,-2.04834
273,673,6.07886,0.385895,0,0,0,0,0,0,0,-1,1497,351,6.0789,-0.385906
280,673,6.97534,-0.0820007,0,0,0,0,0,0,0,-1,1504,351,6.97536,0.0820122
287,673,7.66968,-0.348541,0,0,0,0,0,0,0,-1,1511,351,7.66969,0.348534
294,673,8.20996,0.28537,0,0,0,0,0,0,0,-1,1518,351,8.20993,-0.28536
301,673,0,0,0,0,0,0,0,0,0,-1,1525,351,0,0
308,673,0,0,0,0,0,0,0,0,0,-1,1532,351,0,0
315,673,0,0,0,0,0,0,0,0,0,-1,1539,351,0,0
322,673,0,0,0,0,0,0,0,0,0,-1,1546,351,0,0
329,673,0,0,0,0,0,0,0,0,0,-1,1553,351,0,0
336,673,0,0,0,0,0,0,0,0,0,-1,1560,351,0,0
343,673,0,0,0,0,0,0,0,0,0,-1,1567,351,0,0
350,673,0,0,0,0,0,0,0,0,0,-1,1574,351,0,0
357,673,0,0,0,0,0,0,0,0,0,-1,1581,351,0,0
364,673,0,0,0,0,0,0,0,0,0,-1,1588,351,0,0
371,673,0,0,0,0,0,0,0,0,0,-1,1595,351,0,0
378,673,0,0,0,0,0,0,0,0,0,-1,1602,351,0,0
385,673,0,0,0,0,0,0,0,0,0,-1,1609,351,0,0
392,673,0,0,0,0,0,0,0,0,0,-1,1616,351,0,0
399,673,0,0,0,0,0,0,0,0,0,-1,1623,351,0,0
406,673,0,0,0,0,0,0,0,0,0,-1,1630,351,0,0
413,673,0,0,0,0,0,0,0,0,0,-1,1637,351,0,0
420,673,0,0,0,0,0,0,0,0,0,-1,1644,351,0,0
427,673,0,0,0,0,0,0,0,0,0,-1,1651,351,0,0
434,673,0,0,0,0,0,0,0,0,0,-1,1658,351,0,0
441,673,0,0,0,0,0,0,0,0,0,-1,1665,351,0,0
448,673,0,0,0,0,0,0,0,0,0,-1,1672,351,0,0
455,673,0,0,0,0,0,0,0,0,0,-1,1679,351,0,0
462,673,0,0,0,0,0,0,0,0,0,-1,1686,351,0,0
469,673,0,0,0,0,0,0,0,0,0,-1,1693,351,0,0
476,673,0,0,0,0,0,0,0,0,0,-1,1700,351,0,0
483,673,0,0,0,0,0,0,0,0,0,-1,1707,351,0,0
490,673,0,0,0,0,0,0,0,0,0,-1,1714,351,0,0
497,673,0,0,0,0,0,0,0,0,0,-1,1721,351,0,0
504,673,0,0,0,0,0,0,0,0,0,-1,1728,351,0,0
511,673,0,0,0,0,0,0,0,0,0,-1,1735,351,0,0
518,673,0,0,0,0,0,0,0,0,0,-1,1742,351,0,0
525,673,0,0,0,0,0,0,0,0,0,-1,1749,351,0,0
532,673,0,0,0,0,0,0,0,0,0,-1,1756,351,0,0
539,673,0,0,0,0,0,0,0,0,0,-1,1763,351,0,0
546,673,0,0,0,0,0,0,0,0,0,-1,1770,351,0,0
553,673,0,0,0,0,0,0,0,0,0,-1,1777,351,0,0
560,673,0,0,0,0,0,0,0,0,0,-1,1784,351,0,0
567,673,0,0,0,0,0,0,0,0,0,-1,1791,351,0,0
574,673,0,0,0,0,0,0,0,0,0,-1,1798,351,0,0
581,673,0,0,0,0,0,0,0,0,0,-1,1805,351,0,0
588,673,0,0,0,0,0,0,0,0,0,-1,1812,351,0,0
595,673,0,0,0,0,0,0,0,0,0,-1,1819,351,0,0
602,673,0,0,0,0,0,0,0,0,0,-1,1826,351,0,0
609,673,0,0,0,0,0,0,0,0,0,-1,1833,351,0,0
616,673,0,0,0,0,0,0,0,0,0,-1,1840,351,0,0
623,673,0,0,0,0,0,0,0,0,0,-1,1847,351,0,0
630,673,0,0,0,0,0,0,0,0,0,-1,1854,351,0,0
637,673,0,0,0,0,0,0,0,0,0,-1,1861,351,0,0
644,673,0,0,0,0,0,0,0,0,0,-1,1868,351,0,0
651,673,0,0,0,0,0,0,0,0,0,-1,1875,351,0,0
658,673,0,0,0,0,0,0,0,0,0,-1,1882,351,0,0
665,673,0,0,0,0,0,0,0,0,0,-1,1889,351,0,0
672,673,0,0,0,0,0,0,0,0,0,-1,1896,351,0,0
679,673,0,0,0,0,0,0,0,0,0,-1,1903,351,0,0
686,673,0,0,0,0,0,0,0,0,0,-1,1910,351,0,0
693,673,0,0,0,0,0,0,0,0,0,-1,1917,351,0,0
700,673,0,0,0,0,0,0,0,0,0,-1,1924,351,0,0
707,673,0,0,0,0,0,0,0,0,0,-1,1931,351,0,0
714,673,0,0,0,0,0,0,0,0,0,-1,1938,351,0,0
721,673,0,0,0,0,0,0,0,0,0,-1,1945,351,0,0
728,673,0,0,0,0,0,0,0,0,0,-1,1952,351,0,0
735,673,0,0,0,0,0,0,0,0,0,-1,1959,351,0,0
742,673,0,0,0,0,0,0,0,0,0,-1,1966,351,0,0
749,673,0,0,0,0,0,0,0,0,0,-1,1973,351,0,0
756,673,0,0,0,0,0,0,0,0,0,-1,1980,351,0,0
763,673,0,0,0,0,0,0,0,0,0,-1,1987,351,0,0
770,673,0,0,0,0,0,0,0,0,0,-1,1994,351,0,0
777,673,0,0,0,0,0,0,0,0,0,-1,2001,351,0,0
784,673,0,0,0,0,0,0,0,0,0,-1,2008,351,0,0
791,673,0,0,0,0,0,0,0,0,0,-1,2015,351,0,0
798,673,0,0,0,0,0,0,0,0,0,-1,2022,351,0,0
805,673,0,0,0,0,0,0,0,0,0,-1,2029,351,0,0
812,673,0,0,0,0,0,0,0,0,0,-1,2036,351,0,0
-700,666,0,0,0,0,0,0,0,0,0,-1,524,358,0,0
-693,666,0,0,0,0,0,0,0,0,0,-1,531,358,0,0
-686,666,0,0,0,0,0,0,0,0,0,-1,538,358,0,0
-679,666,0,0,0,0,0,0,0,0,0,-1,545,358,0,0
-672,666,0,0,0,0,0,0,0,0,0,-1,552,358,0,0
-665,666,0,0,0,0,0,0,0,0,0,-1,559,358,0,0
-658,666,0,0,0,0,0,0,0,0,0,-1,566,358,0,0
-651,666,0,0,0,0,0,0,0,0,0,-1,573,358,0,0
-644,666,0,0,0,0,0,0,0,0,0,-1,580,358,0,0
-637,666,0,0,0,0,0,0,0,0,0,-1,587,358,0,0
-630,666,0,0,0,0,0,0,0,0,0,-1,594,358,0,0
-623,666,0,0,0,0,0,0,0,0,0,-1,601,358,0,0
-616,666,0,0,0,0,0,0,0,0,0,-1,608,358,0,0
-609,666,0,0,0,0,0,0,0,0,0,-1,615,358,0,0
-602,666,0,0,0,0,0,0,0,0,0,-1,622,358,0,0
-595,666,0,0,0,0,0,0,0,0,0,-1,629,358,0,0
-588,666,0,0,0,0,0,0,0,0,0,-1,636,358,0,0
-581,666,0,0,0,0,0,0,0,0,0,-1,643,358,0,0
-574,666,0,0,0,0,0,0,0,0,0,-1,650,358,0,0
-567,666,0,0,0,0,0,0,0,0,0,-1,657,358,0,0
-560,666,0,0,0,0,0,0,0,0,0,-1,664,358,0,0
-553,666,0,0,0,0,0,0,0,0,0,-1,671,358,0,0
-546,666,0,0,0,0,0,0,0,0,0,-1,678,358,0,0
-539,666,0,0,0,0,0,0,0,0,0,-1,685,358,0,0
-532,666,0,0,0,0,0,0,0,0,0,-1,692,358,0,0
-525,666,0,0,0,0,0,0,0,0,0,-1,699,358,0,0
-518,666,0,0,0,0,0,0,0,0,0,-1,706,358,0,0
-511,666,0,0,0,0,0,0,0,0,0,-1,713,358,0,0
-504,666,0,0,0,0,0,0,0,0,0,-1,720,358,0,0
-497,666,0,0,0,0,0,0,0,0,0,-1,727,358,0,0
-490,666,0,0,0,0,0,0,0,0,0,-1,734,358,0,0
-483,666,0,0,0,0,0,0,0,0,0,-1,741,358,0,0
-476,666,0,0,0,0,0,0,0,0,0,-1,748,358,0,0
-469,666,0,0,0,0,0,0,0,0,0,-1,755,358,0,0
-462,666,0,0,0,0,0,0,0,0,0,-1,762,358,0,0
-455,666,0,0,0,0,0,0,0,0,0,-1,769,358,0,0
-448,666,0,0,0,0,0,0,0,0,0,-1,776,358,0,0
-441,666,0,0,0,0,0,0,0,0,0,-1,783,358,0,0
-434,666,0,0,0,0,0,0,0,0,0,-1,790,358,0,0
-427,666,0,0,0,0,0,0,0,0,0,-1,797,358,0,0
-420,666,0,0,0,0,0,0,0,0,0,-1,804,358,0,0
-413,666,0,0,0,0,0,0,0,0,0,-1,811,358,0,0
-406,666,0,0,0,0,0,0,0,0,0,-1,818,358,0,0
-399,666,0,0,0,0,0,0,0,0,0,-1,825,358,0,0
-392,666,0,0,0,0,0,0,0,0,0,-1,832,358,0,0
-385,666,0,0,0,0,0,0,0,0,0,-1,839,358,0,0
-378,666,0,0,0,0,0,0,0,0,0,-1,846,358,0,0
-371,666,0,0,0,0,0,0,0,0,0,-1,853,358,0,0
-364,666,0,0,0,0,0,0,0,0,0,-1,860,358,0,0
-357,666,0,0,0,0,0,0,0,0,0,-1,867,358,0,0
-350,666,0,0,0,0,0,0,0,0,0,-1,874,358,0,0
-343,666,0,0,0,0,0,0,0,0,0,-1,881,358,0,0
-336,666,0,0,0,0,0,0,0,0,0,-1,888,358,0,0
-329,666,0,0,0,0,0,0,0,0,0,-1,895,358,0,0
-322,666,0,0,0,0,0,0,0,0,0,-1,902,358,0,0
-315,666,0,0,0,0,0,0,0,0,0,-1,909,358,0,0
-308,666,0,0,0,0,0,0,0,0,0,-1,916,358,0,0
-301,666,0,0,0,0,0,0,0,0,0,-1,923,358,0,0
-294,666,0,0,0,0,0,0,0,0,0,-1,930,358,0,0
-287,666,0,0,0,0,0,0,0,0,0,-1,937,358,0,0
-280,666,0,0,0,0,0,0,0,0,0,-1,944,358,0,0
-273,666,0,0,0,0,0,0,0,0,0,-1,951,358,0,0
-266,666,0,0,0,0,0,0,0,0,0,-1,958,358,0,0
-259,666,0,0,0,0,0,0,0,0,0,-1,965,358,0,0
-252,666,0,0,0,0,0,0,0,0,0,-1,972,358,0,0
-245,666,0,0,0,0,0,0,0,0,0,-1,979,358,0,0
-238,666,0,0,0,0,0,0,0,0,0,-1,986,358,0,0
-231,666,0,0,0,0,0,0,0,0,0,-1,993,358,0,0
-224,666,0,0,0,0,0,0,0,0,0,-1,1000,358,0,0
-217,666,0,0,0,0,0,0,0,0,0,-1,1007,358,0,0
-210,666,0,0,0,0,0,0,0,0,0,-1,1014,358,0,0
-203,666,0,0,0,0,0,0,0,0,0,-1,1021,358,0,0
-196,666,4.03418,-28.8724,0,0,0,0,0,0,0,-1,1028,358,4.03422,28.8724
-189,666,5.00366,-29.597,0,0,0,0,0,0,0,-1,1035,358,5.00363,29.597
-182,666,6.83252,-30.9843,0,0,0,0,0,0,0,-1,1042,358,6.83247,30.9844
-175,666,7.01611,-31.8763,0,0,0,0,0,0,0,-1,1049,358,7.01617,31.8762
-168,666,7.21545,-32.7414,0,0,0,0,0,0,0,-1,1056,358,7.2154,32.7414
-161,666,7.69116,-33.6269,0,0,0,0,0,0,0,-1,1063,358,7.69121,33.6269
-154,666,3.79041,-37.9204,0,0,0,0,0,0,0,-1,1070,358,3.79034,37.9204
-147,666,4.17908,-37.7466,0,0,0,0,0,0,0,-1,1077,358,4.17912,37.7466
-140,666,4.54309,-37.735,0,0,0,0,0,0,0,-1,1084,358,4.54304,37.735
-133,666,4.65723,-39.0643,0,0,0,0,0,0,0,-1,1091,358,4.65727,39.0643
-126,666,5.02368,-38.0699,0,0,0,0,0,0,0,-1,1098,358,5.02363,38.0698
-119,666,5.39001,-37.0754,0,0,0,0,0,0,0,-1,1105,358,5.38999,37.0754
-112,666,6.77014,-32.8165,0,0,0,0,0,0,0,-1,1112,358,6.77013,32.8165
-105,666,6.30908,-29.0855,0,0,0,0,0,0,0,-1,1119,358,6.30905,29.0855
-98,666,15.4427,-31.5168,0,0,0,0,0,0,0,-1,1126,358,15.4428,31.5168
-91,666,9.5127,-25.1347,0,0,0,0,0,0,0,-1,1133,358,9.51269,25.1347
-84,666,2.91589,-19.4071,0,0,0,0,0,0,0,-1,1140,358,2.91592,19.4071
-77,666,-3.48083,-14.0782,0,0,0,0,0,0,0,-1,1147,358,-3.48081,14.0782
-70,666,-9.99438,-8.90146,0,0,0,0,0,0,0,-1,1154,358,-9.99433,8.90146
-63,666,-11.7778,-0.975189,0,0,0,0,0,0,0,-1,1161,358,-11.7778,0.97519
-56,666,0.424683,-2.04132,0,0,0,0,0,0,0,-1,1168,358,0.424665,2.04132
-49,666,0.754395,-2.23169,0,0,0,0,0,0,0,-1,1175,358,0.754383,2.23169
-42,666,1.34473,-3.53897,0,0,0,0,0,0,0,-1,1182,358,1.34476,3.53896
-35,666,9.52979,-67.2104,0,0,0,0,0,0,0,-1,1189,358,9.52979,67.2104
-28,666,9.70459,-67.0493,0,0,0,0,0,0,0,-1,1196,358,9.70454,67.0493
-21,666,9.54382,-67.4386,0.0210353,0.0482598,-0.027208,0.0650707,0.00422436,-1.01734,0.0420432,0.0443371,1203,358,9.54387,67.4386
-14,666,9.28833,-67.7538,0.0177895,0.04971,-0.0274318,0.0654867,0.00201284,-1.04887,0.0430025,0.0416174,1210,358,9.2883,67.7539
-7,666,9.18994,-68.0758,0.0138038,0.0511683,-0.0276054,0.0658189,-0.000846881,-1.08288,0.0441643,0.0264352,1217,358,9.18991,68.0758
0,666,9.1582,-68.4034,0.00999275,0.0517785,-0.0270327,0.0650511,-0.00327982,-1.11439,0.044501,0.0171101,1224,358,9.15816,68.4034
7,666,9.01563,-68.5446,0.00735935,0.0523816,-0.02724,0.0652084,-0.0054674,-1.13071,0.0454046,0.0231317,1231,358,9.01557,68.5446
14,666,8.9043,-68.6554,0.0047833,0.0513647,-0.0268513,0.0636191,-0.00747104,-1.14265,0.0451098,0.0212945,1238,358,8.90426,68.6554
21,666,8.8252,-68.9524,0.00251605,0.0499978,-0.0259486,0.0614273,-0.00891348,-1.1559,0.0442232,0.0171361,1245,358,8.82517,68.9524
28,666,8.74597,-69.1581,0.00115127,0.0479517,-0.0245374,0.058458,-0.00935507,-1.16624,0.0424355,0.0234893,1252,358,8.74597,69.1581
35,666,8.73242,-69.1683,0.000942124,0.0473069,-0.0227142,0.05658,-0.00833093,-1.1832,0.0407816,0.0222222,1259,358,8.73241,69.1683
42,666,8.58191,-69.29,0.000754019,0.0456073,-0.0201212,0.0533106,-0.00694931,-1.20516,0.0380688,0.0199112,1266,358,8.58189,69.29
49,666,8.4436,-69.3758,0.00108439,0.0448481,-0.0173796,0.0509102,-0.00497772,-1.23519,0.0357152,0.0188948,1273,358,8.4436,69.3758
56,666,8.38293,-69.4186,0.00234854,0.0443182,-0.0142657,0.048708,-0.00204129,-1.27227,0.0331734,0.0190164,1280,358,8.38296,69.4186
63,666,8.31628,-69.5421,0.00527741,0.0451147,-0.00982748,0.0474071,0.00298498,-1.34163,0.0306582,0.0212718,1287,358,8.31625,69.5421
70,666,8.21765,-69.5208,0.00834653,0.0454569,-0.0048287,0.0460749,0.00772853,-1.4435,0.028492,0.0204626,1294,358,8.21768,69.5207
77,666,8.15979,-69.3141,0.0107118,0.0459281,0.000271483,0.0459301,0.0107097,1.56309,0.0277479,0.0223824,1301,358,8.15985,69.3141
84,666,8.15906,-69.3218,0.011641,0.0446597,0.00660146,0.0459306,0.0103701,1.3806,0.0278157,0.0304136,1308,358,8.15905,69.3218
91,666,8.01587,-69.3786,0.0114,0.0429094,0.0135916,0.047962,0.00634739,1.21489,0.0300829,0.026775,1315,358,8.0159,69.3786
98,666,7.75952,-69.2487,0.010502,0.040387,0.0211064,0.0513048,-0.000415878,1.09342,0.0343427,0.0241977,1322,358,7.75957,69.2487
105,666,7.55603,-69.0343,0.00909393,0.0383712,0.0269138,0.0543698,-0.00690468,1.03448,0.0387536,0.0304914,1329,358,7.55597,69.0343
112,666,7.47864,-68.8379,0,0,0,0,0,0,0,-1,1336,358,7.4786,68.8379
119,666,7.46814,-68.5713,0,0,0,0,0,0,0,-1,1343,358,7.46809,68.5713
126,666,7.37854,-68.3223,0,0,0,0,0,0,0,-1,1350,358,7.37849,68.3223
133,666,7.24597,-67.9365,0,0,0,0,0,0,0,-1,1357,358,7.24598,67.9365
140,666,7.08691,-67.7761,-0.00563196,0.018863,0.0498412,0.0579394,-0.0447084,0.905876,0.0594276,0.04454,1364,358,7.08696,67.7761
147,666,6.86694,-67.4344,-0.0088521,0.0151323,0.0521461,0.0566474,-0.0503672,0.89842,0.0618204,0.0333576,1371,358,6.86695,67.4344
154,666,6.79175,-66.824,-0.0114396,0.0125412,0.053201,0.0550863,-0.0539847,0.896236,0.0629732,0.029726,1378,358,6.79171,66.824
161,666,6.76514,-66.3754,-0.0132711,0.0111283,0.0540077,0.0542971,-0.0564399,0.896478,0.063938,0.038725,1385,358,6.76515,66.3754
168,666,6.68799,-65.9271,0,0,0,0,0,0,0,-1,1392,358,6.688,65.9271
175,666,6.77905,-66.0899,0,0,0,0,0,0,0,-1,1399,358,6.77905,66.0899
182,666,2.60876,-5.17068,0,0,0,0,0,0,0,-1,1406,358,2.6088,5.17068
189,666,2.46973,-5.49979,0,0,0,0,0,0,0,-1,1413,358,2.46975,5.49979
196,666,2.32458,-5.23651,0,0,0,0,0,0,0,-1,1420,358,2.32461,5.23653
203,666,2.28064,-3.88004,0,0,0,0,0,0,0,-1,1427,358,2.28059,3.88003
210,666,3.02576,-5.83548,0,0,0,0,0,0,0,-1,1434,358,3.02581,5.83547
217,666,2.30444,-5.36011,0,0,0,0,0,0,0,-1,1441,358,2.30447,5.3601
224,666,1.82324,-6.03101,0,0,0,0,0,0,0,-1,1448,358,1.82322,6.031
231,666,2.29797,-10.1093,0,0,0,0,0,0,0,-1,1455,358,2.29801,10.1093
238,666,2.52429,-6.10568,0,0,0,0,0,0,0,-1,1462,358,2.52423,6.10567
245,666,4.53345,-1.38205,0,0,0,0,0,0,0,-1,1469,358,4.53349,1.38204
252,666,4.77405,-0.246979,0,0,0,0,0,0,0,-1,1476,358,4.77405,0.246993
259,666,4.83655,1.14087,0,0,0,0,0,0,0,-1,1483,358,4.83652,-1.14087
266,666,6.14148,0.749512,0,0,0,0,0,0,0,-1,1490,358,6.14144,-0.749519
273,666,3.17737,-33.7881,0,0,0,0,0,0,0,-1,1497,358,3.17735,33.7881
280,666,3.37268,-35.2123,0,0,0,0,0,0,0,-1,1504,358,3.37266,35.2123
287,666,-7.06934,-20.3464,0,0,0,0,0,0,0,-1,1511,358,-7.06933,20.3464
294,666,-2.11157,-23.2753,0,0,0,0,0,0,0,-1,1518,358,-2.11162,23.2753
301,666,-3.16162,-22.2271,0,0,0,0,0,0,0,-1,1525,358,-3.16161,22.2271
308,666,-4.24951,-20.9112,0,0,0,0,0,0,0,-1,1532,358,-4.24948,20.9112
315,666,-5.64954,-19.5784,0,0,0,0,0,0,0,-1,1539,358,-5.64959,19.5784
322,666,0,0,0,0,0,0,0,0,0,-1,1546,358,0,0
329,666,0,0,0,0,0,0,0,0,0,-1,1553,358,0,0
336,666,0,0,0,0,0,0,0,0,0,-1,1560,358,0,0
343,666,0,0,0,0,0,0,0,0,0,-1,1567,358,0,0
350,666,0,0,0,0,0,0,0,0,0,-1,1574,358,0,0
357,666,0,0,0,0,0,0,0,0,0,-1,1581,358,0,0
364,666,0,0,0,0,0,0,0,0,0,-1,1588,358,0,0
371,666,0,0,0,0,0,0,0,0,0,-1,1595,358,0,0
378,666,0,0,0,0,0,0,0,0,0,-1,1602,358,0,0
385,666,0,0,0,0,0,0,0,0,0,-1,1609,358,0,0
392,666,0,0,0,0,0,0,0,0,0,-1,1616,358,0,0
399,666,0,0,0,0,0,0,0,0,0,-1,1623,358,0,0
406,666,0,0,0,0,0,0,0,0,0,-1,1630,358,0,0
413,666,0,0,0,0,0,0,0,0,0,-1,1637,358,0,0
420,666,0,0,0,0,0,0,0,0,0,-1,1644,358,0,0
427,666,0,0,0,0,0,0,0,0,0,-1,1651,358,0,0
434,666,0,0,0,0,0,0,0,0,0,-1,1658,358,0,0
441,666,0,0,0,0,0,0,0,0,0,-1,1665,358,0,0
448,666,0,0,0,0,0,0,0,0,0,-1,1672,358,0,0
455,666,0,0,0,0,0,0,0,0,0,-1,1679,358,0,0
462,666,0,0,0,0,0,0,0,0,0,-1,1686,358,0,0
469,666,0,0,0,0,0,0,0,0,0,-1,1693,358,0,0
476,666,0,0,0,0,0,0,0,0,0,-1,1700,358,0,0
483,666,0,0,0,0,0,0,0,0,0,-1,1707,358,0,0
490,666,0,0,0,0,0,0,0,0,0,-1,1714,358,0,0
497,666,0,0,0,0,0,0,0,0,0,-1,1721,358,0,0
504,666,0,0,0,0,0,0,0,0,0,-1,1728,358,0,0
511,666,0,0,0,0,0,0,0,0,0,-1,1735,358,0,0
518,666,0,0,0,0,0,0,0,0,0,-1,1742,358,0,0
525,666,0,0,0,0,0,0,0,0,0,-1,1749,358,0,0
532,666,0,0,0,0,0,0,0,0,0,-1,1756,358,0,0
539,666,0,0,0,0,0,0,0,0,0,-1,1763,358,0,0
546,666,0,0,0,0,0,0,0,0,0,-1,1770,358,0,0
553,666,0,0,0,0,0,0,0,0,0,-1,1777,358,0,0
560,666,0,0,0,0,0,0,0,0,0,-1,1784,358,0,0
567,666,0,0,0,0,0,0,0,0,0,-1,1791,358,0,0
574,666,0,0,0,0,0,0,0,0,0,-1,1798,358,0,0
581,666,0,0,0,0,0,0,0,0,0,-1,1805,358,0,0
588,666,0,0,0,0,0,0,0,0,0,-1,1812,358,0,0
595,666,0,0,0,0,0,0,0,0,0,-1,1819,358,0,0
602,666,0,0,0,0,0,0,0,0,0,-1,1826,358,0,0
609,666,0,0,0,0,0,0,0,0,0,-1,1833,358,0,0
616,666,0,0,0,0,0,0,0,0,0,-1,1840,358,0,0
623,666,0,0,0,0,0,0,0,0,0,-1,1847,358,0,0
630,666,0,0,0,0,0,0,0,0,0,-1,1854,358,0,0
637,666,0,0,0,0,0,0,0,0,0,-1,1861,358,0,0
644,666,0,0,0,0,0,0,0,0,0,-1,1868,358,0,0
651,666,0,0,0,0,0,0,0,0,0,-1,1875,358,0,0
658,666,0,0,0,0,0,0,0,0,0,-1,1882,358,0,0
665,666,0,0,0,0,0,0,0,0,0,-1,1889,358,0,0
672,666,0,0,0,0,0,0,0,0,0,-1,1896,358,0,0
679,666,0,0,0,0,0,0,0,0,0,-1,1903,358,0,0
686,666,0,0,0,0,0,0,0,0,0,-1,1910,358,0,0
693,666,0,0,0,0,0,0,0,0,0,-1,1917,358,0,0
700,666,0,0,0,0,0,0,0,0,0,-1,1924,358,0,0
707,666,0,0,0,0,0,0,0,0,0,-1,1931,358,0,0
714,666,0,0,0,0,0,0,0,0,0,-1,1938,358,0,0
721,666,0,0,0,0,0,0,0,0,0,-1,1945,358,0,0
728,666,0,0,0,0,0,0,0,0,0,-1,1952,358,0,0
735,666,0,0,0,0,0,0,0,0,0,-1,1959,358,0,0
742,666,0,0,0,0,0,0,0,0,0,-1,1966,358,0,0
749,666,0,0,0,0,0,0,0,0,0,-1,1973,358,0,0
756,666,0,0,0,0,0,0,0,0,0,-1,1980,358,0,0
763,666,0,0,0,0,0,0,0,0,0,-1,1987,358,0,0
770,666,0,0,0,0,0,0,0,0,0,-1,1994,358,0,0
777,666,0,0,0,0,0,0,0,0,0,-1,2001,358,0,0
784,666,0,0,0,0,0,0,0,0,0,-1,2008,358,0,0
791,666,0,0,0,0,0,0,0,0,0,-1,2015,358,0,0
798,666,0,0,0,0,0,0,0,0,0,-1,2022,358,0,0
805,666,0,0,0,0,0,0,0,0,0,-1,2029,358,0,0
812,666,0,0,0,0,0,0,0,0,0,-1,2036,358,0,0
-700,659,0,0,0,0,0,0,0,0,0,-1,524,365,0,0
-693,659,0,0,0,0,0,0,0,0,0,-1,531,365,0,0
-686,659,0,0,0,0,0,0,0,0,0,-1,538,365,0,0
-679,659,0,0,0,0,0,0,0,0,0,-1,545,365,0,0
-672,659,0,0,0,0,0,0,0,0,0,-1,552,365,0,0
-665,659,0,0,0,0,0,0,0,0,0,-1,559,365,0,0
-658,659,0,0,0,0,0,0,0,0,0,-1,566,365,0,0
-651,659,0,0,0,0,0,0,0,0,0,-1,573,365,0,0
-644,659,0,0,0,0,0,0,0,0,0,-1,580,365,0,0
-637,659,0,0,0,0,0,0,0,0,0,-1,587,365,0,0
-630,659,0,0,0,0,0,0,0,0,0,-1,594,365,0,0
-623,659,0,0,0,0,0,0,0,0,0,-1,601,365,0,0
-616,659,0,0,0,0,0,0,0,0,0,-1,608,365,0,0
-609,659,0,0,0,0,0,0,0,0,0,-1,615,365,0,0
-602,659,0,0,0,0,0,0,0,0,0,-1,622,365,0,0
-595,659,0,0,0,0,0,0,0,0,0,-1,629,365,0,0
-588,659,0,0,0,0,0,0,0,0,0,-1,636,365,0,0
-581,659,0,0,0,0,0,0,0,0,0,-1,643,365,0,0
-574,659,0,0,0,0,0,0,0,0,0,-1,650,365,0,0
-567,659,0,0,0,0,0,0,0,0,0,-1,657,365,0,0
-560,659,0,0,0,0,0,0,0,0,0,-1,664,365,0,0
-553,659,0,0,0,0,0,0,0,0,0,-1,671,365,0,0
-546,659,0,0,0,0,0,0,0,0,0,-1,678,365,0,0
-539,659,0,0,0,0,0,0,0,0,0,-1,685,365,0,0
-532,659,0,0,0,0,0,0,0,0,0,-1,692,365,0,0
-525,659,0,0,0,0,0,0,0,0,0,-1,699,365,0,0
-518,659,0,0,0,0,0,0,0,0,0,-1,706,365,0,0
-511,659,0,0,0,0,0,0,0,0,0,-1,713,365,0,0
-504,659,0,0,0,0,0,0,0,0,0,-1,720,365,0,0
-497,659,0,0,0,0,0,0,0,0,0,-1,727,365,0,0
-490,659,0,0,0,0,0,0,0,0,0,-1,734,365,0,0
-483,659,0,0,0,0,0,0,0,0,0,-1,741,365,0,0
-476,659,0,0,0,0,0,0,0,0,0,-1,748,365,0,0
-469,659,0,0,0,0,0,0,0,0,0,-1,755,365,0,0
-462,659,0,0,0,0,0,0,0,0,0,-1,762,365,0,0
-455,659,0,0,0,0,0,0,0,0,0,-1,769,365,0,0
-448,659,0,0,0,0,0,0,0,0,0,-1,776,365,0,0
-441,659,0,0,0,0,0,0,0,0,0,-1,783,365,0,0
-434,659,0,0,0,0,0,0,0,0,0,-1,790,365,0,0
-427,659,0,0,0,0,0,0,0,0,0,-1,797,365,0,0
-420,659,0,0,0,0,0,0,0,0,0,-1,804,365,0,0
-413,659,0,0,0,0,0,0,0,0,0,-1,811,365,0,0
-406,659,0,0,0,0,0,0,0,0,0,-1,818,365,0,0
-399,659,0,0,0,0,0,0,0,0,0,-1,825,365,0,0
-392,659,0,0,0,0,0,0,0,0,0,-1,832,365,0,0
-385,659,0,0,0,0,0,0,0,0,0,-1,839,365,0,0
-378,659,0,0,0,0,0,0,0,0,0,-1,846,365,0,0
-371,659,0,0,0,0,0,0,0,0,0,-1,853,365,0,0
-364,659,0,0,0,0,0,0,0,0,0,-1,860,365,0,0
-357,659,0,0,0,0,0,0,0,0,0,-1,867,365,0,0
-350,659,0,0,0,0,0,0,0,0,0,-1,874,365,0,0
-343,659,0,0,0,0,0,0,0,0,0,-1,881,365,0,0
-336,659,0,0,0,0,0,0,0,0,0,-1,888,365,0,0
-329,659,0,0,0,0,0,0,0,0,0,-1,895,365,0,0
-322,659,0,0,0,0,0,0,0,0,0,-1,902,365,0,0
-315,659,0,0,0,0,0,0,0,0,0,-1,909,365,0,0
-308,659,0,0,0,0,0,0,0,0,0,-1,916,365,0,0
-301,659,0,0,0,0,0,0,0,0,0,-1,923,365,0,0
-294,659,0,0,0,0,0,0,0,0,0,-1,930,365,0,0
-287,659,0,0,0,0,0,0,0,0,0,-1,937,365,0,0
-280,659,0,0,0,0,0,0,0,0,0,-1,944,365,0,0
-273,659,0,0,0,0,0,0,0,0,0,-1,951,365,0,0
-266,659,0,0,0,0,0,0,0,0,0,-1,958,365,0,0
-259,659,0,0,0,0,0,0,0,0,0,-1,965,365,0,0
-252,659,0,0,0,0,0,0,0,0,0,-1,972,365,0,0
-245,659,0,0,0,0,0,0,0,0,0,-1,979,365,0,0
-238,659,0,0,0,0,0,0,0,0,0,-1,986,365,0,0
-231,659,0,0,0,0,0,0,0,0,0,-1,993,365,0,0
-224,659,0,0,0,0,0,0,0,0,0,-1,1000,365,0,0
-217,659,10.1305,-25.2622,0,0,0,0,0,0,0,-1,1007,365,10.1305,25.2622
-210,659,9.65643,-25.515,0,0,0,0,0,0,0,-1,1014,365,9.65642,25.515
-203,659,8.58911,-25.7432,0,0,0,0,0,0,0,-1,1021,365,8.58916,25.7432
-196,659,2.68323,-27.8121,0,0,0,0,0,0,0,-1,1028,365,2.6832,27.8121
-189,659,6.88049,-28.9412,0,0,0,0,0,0,0,-1,1035,365,6.88045,28.9412
-182,659,6.94189,-30.6316,0,0,0,0,0,0,0,-1,1042,365,6.94189,30.6316
-175,659,6.948,-32.0092,0,0,0,0,0,0,0,-1,1049,365,6.94798,32.0093
-168,659,7.1416,-32.7405,0,0,0,0,0,0,0,-1,1056,365,7.14157,32.7405
-161,659,7.57361,-33.7099,0,0,0,0,0,0,0,-1,1063,365,7.57355,33.7099
-154,659,7.71448,-34.8995,0,0,0,0,0,0,0,-1,1070,365,7.7145,34.8995
-147,659,5.46606,-37.758,0,0,0,0,0,0,0,-1,1077,365,5.46601,37.758
-140,659,5.7356,-37.755,0,0,0,0,0,0,0,-1,1084,365,5.73562,37.755
-133,659,5.91455,-37.9017,0,0,0,0,0,0,0,-1,1091,365,5.9146,37.9017
-126,659,6.31226,-37.9904,0,0,0,0,0,0,0,-1,1098,365,6.3122,37.9904
-119,659,6.26941,-35.0837,0,0,0,0,0,0,0,-1,1105,365,6.26943,35.0837
-112,659,6.24353,-35.0562,0,0,0,0,0,0,0,-1,1112,365,6.24349,35.0562
-105,659,5.38696,-30.5854,0,0,0,0,0,0,0,-1,1119,365,5.387,30.5854
-98,659,4.68042,-26.2438,0,0,0,0,0,0,0,-1,1126,365,4.68041,26.2438
-91,659,4.20776,-20.8654,0,0,0,0,0,0,0,-1,1133,365,4.20777,20.8654
-84,659,2.8584,-17.8303,0,0,0,0,0,0,0,-1,1140,365,2.85836,17.8303
-77,659,2.80139,-15.3457,0,0,0,0,0,0,0,-1,1147,365,2.80139,15.3457
-70,659,2.9353,-12.7028,0,0,0,0,0,0,0,-1,1154,365,2.93533,12.7028
-63,659,2.11267,-9.7796,0,0,0,0,0,0,0,-1,1161,365,2.11266,9.7796
-56,659,2.11182,-9.91541,0,0,0,0,0,0,0,-1,1168,365,2.11178,9.91541
-49,659,9.53125,-66.3133,0,0,0,0,0,0,0,-1,1175,365,9.53126,66.3133
-42,659,9.49585,-66.6937,0,0,0,0,0,0,0,-1,1182,365,9.4958,66.6937
-35,659,9.38232,-67.1241,0.0103348,0.0321875,-0.0167914,0.0412945,0.0012278,-1.07384,0.0271296,0.0423468,1189,365,9.38236,67.1241
-28,659,9.33728,-67.4011,0.0114895,0.0335538,-0.0171368,0.0429025,0.00214079,-1.07139,0.0279154,0.0175578,1196,365,9.33727,67.4011
-21,659,9.23865,-67.7823,0.0107728,0.0356294,-0.0177952,0.0449067,0.0014955,-1.09023,0.029452,0.0159629,1203,365,9.23868,67.7823
-14,659,9.11523,-68.1234,0.00930169,0.0369955,-0.0181154,0.04595,0.000347149,-1.11172,0.0305183,0.0136291,1210,365,9.11518,68.1234
-7,659,9.02686,-68.3858,0.00720546,0.0384328,-0.0184563,0.0469939,-0.0013557,-1.13648,0.0317908,0.0129492,1217,365,9.02684,68.3858
0,659,8.96643,-68.6316,0.00508627,0.039039,-0.0181864,0.0469412,-0.0028159,-1.1609,0.0322737,0.0103079,1224,365,8.96638,68.6316
7,659,8.91333,-68.8281,0.00356652,0.0396541,-0.0183523,0.0473472,-0.00412657,-1.17386,0.0330264,0.0101815,1231,365,8.91338,68.8281
14,659,8.82373,-68.9695,0.00200532,0.039136,-0.018135,0.0465235,-0.00538218,-1.18396,0.0329565,0.0129663,1238,365,8.82376,68.9695
21,659,8.74939,-69.148,0.000623969,0.038321,-0.0175364,0.0452172,-0.00627228,-1.19612,0.0324383,0.0133383,1245,365,8.74938,69.148
28,659,8.65161,-69.327,-0.000127532,0.03696,-0.0165562,0.0432754,-0.00644292,-1.20638,0.0312203,0.0127169,1252,365,8.65156,69.327
35,659,8.59729,-69.4541,-9.68569e-05,0.0367441,-0.0152378,0.0422298,-0.00558254,-1.22524,0.0301866,0.0140982,1259,365,8.59727,69.4541
42,659,8.53833,-69.5634,-0.000172812,0.0356016,-0.0133643,0.0400428,-0.004614,-1.24996,0.0283586,0.0157921,1266,365,8.53827,69.5633
49,659,8.42493,-69.6427,8.45729e-05,0.0351904,-0.0113938,0.0385641,-0.00328913,-1.28292,0.026873,0.0168415,1273,365,8.42492,69.6427
56,659,8.31335,-69.6841,0.000978962,0.0349446,-0.0092631,0.0373066,-0.00138302,-1.32113,0.0253446,0.0204627,1280,365,8.31337,69.6841
63,659,8.26917,-69.743,0.00309628,0.0356072,-0.00622383,0.0367579,0.00194554,-1.38797,0.0238832,0.018911,1287,365,8.26916,69.743
70,659,8.1665,-69.741,0.00534532,0.035859,-0.00277786,0.0361099,0.0050945,-1.48075,0.0225676,0.0191381,1294,365,8.16645,69.741
77,659,8.04138,-69.7108,0.00710205,0.0362488,0.00075103,0.0362681,0.00708271,1.54505,0.0221978,0.0200953,1301,365,8.04136,69.7109
84,659,8.02246,-69.6307,0.00782184,0.0352956,0.00528042,0.0362755,0.00684191,1.3873,0.0222564,0.0138445,1308,365,8.02245,69.6307
91,659,7.95093,-69.5575,0.00765664,0.0339605,0.0103722,0.0375583,0.00405876,1.23691,0.0238016,0.0114666,1315,365,7.95094,69.5575
98,659,7.8479,-69.4029,0.00699389,0.0320001,0.0159945,0.0397985,-0.000804501,1.11714,0.0268045,0.00902054,1322,365,7.84796,69.4029
105,659,7.77185,-69.2195,0.00598209,0.0305119,0.0203241,0.0419851,-0.00549108,1.05688,0.0299885,0.0110839,1329,365,7.77189,69.2195
112,659,7.70825,-69.0251,0.00424068,0.0284524,0.0247721,0.0439184,-0.0112253,1.01268,0.0336507,0.0158936,1336,365,7.70828,69.0252
119,659,7.63013,-68.8013,0.00228026,0.0261094,0.0289019,0.0454562,-0.0170666,0.980906,0.0373174,0.0180454,1343,365,7.63008,68.8013
126,659,7.55115,-68.524,0.000120955,0.0234237,0.0322859,0.0460963,-0.0225516,0.958566,0.0404034,0.0184113,1350,365,7.5512,68.5239
133,659,7.44409,-68.2531,-0.0025019,0.0205941,0.0349298,0.0458353,-0.0277431,0.945045,0.0429065,0.0189524,1357,365,7.44409,68.2532
140,659,7.33069,-68.0437,-0.0052051,0.0166425,0.0366629,0.0439744,-0.032537,0.930187,0.0443381,0.0135748,1364,365,7.33065,68.0437
147,659,7.24219,-67.7521,-0.00760436,0.0142949,0.0379864,0.0428783,-0.0361877,0.92572,0.0457032,0.0112139,1371,365,7.24222,67.7521
154,659,7.13684,-67.3715,-0.00954184,0.0127039,0.0382947,0.0414584,-0.0382963,0.926737,0.0460585,0.0136965,1378,365,7.13687,67.3714
161,659,7.05908,-66.9684,-0.0109316,0.0120967,0.0382775,0.0405543,-0.0393892,0.931497,0.046157,0.0148664,1385,365,7.05903,66.9683
168,659,7.00439,-66.5344,-0.0129321,0.0107587,0.0368061,0.0375786,-0.039752,0.941081,0.0446527,0.0203558,1392,365,7.00436,66.5344
175,659,6.95032,-66.1249,-0.0149265,0.0115254,0.035312,0.0360071,-0.0394081,0.964584,0.0435557,0.0437074,1399,365,6.95033,66.1249
182,659,6.78149,-65.6917,0,0,0,0,0,0,0,-1,1406,365,6.7815,65.6917
189,659,6.79834,-65.0674,0,0,0,0,0,0,0,-1,1413,365,6.79834,65.0674
196,659,2.41248,-13.4371,0,0,0,0,0,0,0,-1,1420,365,2.41243,13.4371
203,659,2.38623,-12.2163,0,0,0,0,0,0,0,-1,1427,365,2.38617,12.2163
210,659,2.20789,-13.9792,0,0,0,0,0,0,0,-1,1434,365,2.20794,13.9792
217,659,2.24121,-13.487,0,0,0,0,0,0,0,-1,1441,365,2.24116,13.487
224,659,2.3479,-15.2926,0,0,0,0,0,0,0,-1,1448,365,2.34793,15.2926
231,659,2.47974,-17.8629,0,0,0,0,0,0,0,-1,1455,365,2.47976,17.8628
238,659,3.57886,-21.1258,0,0,0,0,0,0,0,-1,1462,365,3.57889,21.1258
245,659,3.29883,-25.0283,0,0,0,0,0,0,0,-1,1469,365,3.29889,25.0283
252,659,2.81909,-24.1604,0,0,0,0,0,0,0,-1,1476,365,2.81905,24.1604
259,659,2.33069,-3.36703,0,0,0,0,0,0,0,-1,1483,365,2.33073,3.36702
266,659,3.40918,-35.2544,0,0,0,0,0,0,0,-1,1490,365,3.40913,35.2544
273,659,4.45557,-42.3683,0,0,0,0,0,0,0,-1,1497,365,4.45554,42.3683
280,659,4.87903,-41.4995,0,0,0,0,0,0,0,-1,1504,365,4.87898,41.4995
287,659,1.09851,-23.7787,0,0,0,0,0,0,0,-1,1511,365,1.09847,23.7787
294,659,0.115601,-24.0352,0,0,0,0,0,0,0,-1,1518,365,0.115612,24.0352
301,659,-1.21362,-22.6162,0,0,0,0,0,0,0,-1,1525,365,-1.21358,22.6162
308,659,-2.32605,-21.2737,0,0,0,0,0,0,0,-1,1532,365,-2.32606,21.2737
315,659,-3.69629,-19.8803,0,0,0,0,0,0,0,-1,1539,365,-3.69631,19.8803
322,659,-4.9646,-18.5258,0,0,0,0,0,0,0,-1,1546,365,-4.96464,18.5257
329,659,-7.67749,-23.0449,0,0,0,0,0,0,0,-1,1553,365,-7.67745,23.0449
336,659,-7.71436,-22.4188,0,0,0,0,0,0,0,-1,1560,365,-7.71432,22.4188
343,659,0,0,0,0,0,0,0,0,0,-1,1567,365,0,0
350,659,0,0,0,0,0,0,0,0,0,-1,1574,365,0,0
357,659,0,0,0,0,0,0,0,0,0,-1,1581,365,0,0
364,659,0,0,0,0,0,0,0,0,0,-1,1588,365,0,0
371,659,0,0,0,0,0,0,0,0,0,-1,1595,365,0,0
378,659,0,0,0,0,0,0,0,0,0,-1,1602,365,0,0
385,659,0,0,0,0,0,0,0,0,0,-1,1609,365,0,0
392,659,0,0,0,0,0,0,0,0,0,-1,1616,365,0,0
399,659,0,0,0,0,0,0,0,0,0,-1,1623,365,0,0
406,659,0,0,0,0,0,0,0,0,0,-1,1630,365,0,0
413,659,0,0,0,0,0,0,0,0,0,-1,1637,365,0,0
420,659,0,0,0,0,0,0,0,0,0,-1,1644,365,0,0
427,659,0,0,0,0,0,0,0,0,0,-1,1651,365,0,0
434,659,0,0,0,0,0,0,0,0,0,-1,1658,365,0,0
441,659,0,0,0,0,0,0,0,0,0,-1,1665,365,0,0
448,659,0,0,0,0,0,0,0,0,0,-1,1672,365,0,0
455,659,0,0,0,0,0,0,0,0,0,-1,1679,365,0,0
462,659,0,0,0,0,0,0,0,0,0,-1,1686,365,0,0
469,659,0,0,0,0,0,0,0,0,0,-1,1693,365,0,0
476,659,0,0,0,0,0,0,0,0,0,-1,1700,365,0,0
483,659,0,0,0,0,0,0,0,0,0,-1,1707,365,0,0
490,659,0,0,0,0,0,0,0,0,0,-1,1714,365,0,0
497,659,0,0,0,0,0,0,0,0,0,-1,1721,365,0,0
504,659,0,0,0,0,0,0,0,0,0,-1,1728,365,0,0
511,659,0,0,0,0,0,0,0,0,0,-1,1735,365,0,0
518,659,0,0,0,0,0,0,0,0,0,-1,1742,365,0,0
525,659,0,0,0,0,0,0,0,0,0,-1,1749,365,0,0
532,659,0,0,0,0,0,0,0,0,0,-1,1756,365,0,0
539,659,0,0,0,0,0,0,0,0,0,-1,1763,365,0,0
546,659,0,0,0,0,0,0,0,0,0,-1,1770,365,0,0
553,659,0,0,0,0,0,0,0,0,0,-1,1777,365,0,0
560,659,0,0,0,0,0,0,0,0,0,-1,1784,365,0,0
567,659,0,0,0,0,0,0,0,0,0,-1,1791,365,0,0
574,659,0,0,0,0,0,0,0,0,0,-1,1798,365,0,0
581,659,0,0,0,0,0,0,0,0,0,-1,1805,365,0,0
588,659,0,0,0,0,0,0,0,0,0,-1,1812,365,0,0
595,659,0,0,0,0,0,0,0,0,0,-1,1819,365,0,0
602,659,0,0,0,0,0,0,0,0,0,-1,1826,365,0,0
609,659,0,0,0,0,0,0,0,0,0,-1,1833,365,0,0
616,659,0,0,0,0,0,0,0,0,0,-1,1840,365,0,0
623,659,0,0,0,0,0,0,0,0,0,-1,1847,365,0,0
630,659,0,0,0,0,0,0,0,0,0,-1,1854,365,0,0
637,659,0,0,0,0,0,0,0,0,0,-1,1861,365,0,0
644,659,0,0,0,0,0,0,0,0,0,-1,1868,365,0,0
651,659,0,0,0,0,0,0,0,0,0,-1,1875,365,0,0
658,659,0,0,0,0,0,0,0,0,0,-1,1882,365,0,0
665,659,0,0,0,0,0,0,0,0,0,-1,1889,365,0,0
672,659,0,0,0,0,0,0,0,0,0,-1,1896,365,0,0
679,659,0,0,0,0,0,0,0,0,0,-1,1903,365,0,0
686,659,0,0,0,0,0,0,0,0,0,-1,1910,365,0,0
693,659,0,0,0,0,0,0,0,0,0,-1,1917,365,0,0
700,659,0,0,0,0,0,0,0,0,0,-1,1924,365,0,0
707,659,0,0,0,0,0,0,0,0,0,-1,1931,365,0,0
714,659,0,0,0,0,0,0,0,0,0,-1,1938,365,0,0
721,659,0,0,0,0,0,0,0,0,0,-1,1945,365,0,0
728,659,0,0,0,0,0,0,0,0,0,-1,1952,365,0,0
735,659,0,0,0,0,0,0,0,0,0,-1,1959,365,0,0
742,659,0,0,0,0,0,0,0,0,0,-1,1966,365,0,0
749,659,0,0,0,0,0,0,0,0,0,-1,1973,365,0,0
756,659,0,0,0,0,0,0,0,0,0,-1,1980,365,0,0
763,659,0,0,0,0,0,0,0,0,0,-1,1987,365,0,0
770,659,0,0,0,0,0,0,0,0,0,-1,1994,365,0,0
777,659,0,0,0,0,0,0,0,0,0,-1,2001,365,0,0
784,659,0,0,0,0,0,0,0,0,0,-1,2008,365,0,0
791,659,0,0,0,0,0,0,0,0,0,-1,2015,365,0,0
798,659,0,0,0,0,0,0,0,0,0,-1,2022,365,0,0
805,659,0,0,0,0,0,0,0,0,0,-1,2029,365,0,0
812,659,0,0,0,0,0,0,0,0,0,-1,2036,365,0,0
-700,652,0,0,0,0,0,0,0,0,0,-1,524,372,0,0
-693,652,0,0,0,0,0,0,0,0,0,-1,531,372,0,0
-686,652,0,0,0,0,0,0,0,0,0,-1,538,372,0,0
-679,652,0,0,0,0,0,0,0,0,0,-1,545,372,0,0
-672,652,0,0,0,0,0,0,0,0,0,-1,552,372,0,0
-665,652,0,0,0,0,0,0,0,0,0,-1,559,372,0,0
-658,652,0,0,0,0,0,0,0,0,0,-1,566,372,0,0
-651,652,0,0,0,0,0,0,0,0,0,-1,573,372,0,0
-644,652,0,0,0,0,0,0,0,0,0,-1,580,372,0,0
-637,652,0,0,0,0,0,0,0,0,0,-1,587,372,0,0
-630,652,0,0,0,0,0,0,0,0,0,-1,594,372,0,0
-623,652,0,0,0,0,0,0,0,0,0,-1,601,372,0,0
-616,652,0,0,0,0,0,0,0,0,0,-1,608,372,0,0
-609,652,0,0,0,0,0,0,0,0,0,-1,615,372,0,0
-602,652,0,0,0,0,0,0,0,0,0,-1,622,372,0,0
-595,652,0,0,0,0,0,0,0,0,0,-1,629,372,0,0
-588,652,0,0,0,0,0,0,0,0,0,-1,636,372,0,0
-581,652,0,0,0,0,0,0,0,0,0,-1,643,372,0,0
-574,652,0,0,0,0,0,0,0,0,0,-1,650,372,0,0
-567,652,0,0,0,0,0,0,0,0,0,-1,657,372,0,0
-560,652,0,0,0,0,0,0,0,0,0,-1,664,372,0,0
-553,652,0,0,0,0,0,0,0,0,0,-1,671,372,0,0
-546,652,0,0,0,0,0,0,0,0,0,-1,678,372,0,0
-539,652,0,0,0,0,0,0,0,0,0,-1,685,372,0,0
-532,652,0,0,0,0,0,0,0,0,0,-1,692,372,0,0
-525,652,0,0,0,0,0,0,0,0,0,-1,699,372,0,0
-518,652,0,0,0,0,0,0,0,0,0,-1,706,372,0,0
-511,652,0,0,0,0,0,0,0,0,0,-1,713,372,0,0
-504,652,0,0,0,0,0,0,0,0,0,-1,720,372,0,0
-497,652,0,0,0,0,0,0,0,0,0,-1,727,372,0,0
-490,652,0,0,0,0,0,0,0,0,0,-1,734,372,0,0
-483,652,0,0,0,0,0,0,0,0,0,-1,741,372,0,0
-476,652,0,0,0,0,0,0,0,0,0,-1,748,372,0,0
-469,652,0,0,0,0,0,0,0,0,0,-1,755,372,0,0
-462,652,0,0,0,0,0,0,0,0,0,-1,762,372,0,0
-455,652,0,0,0,0,0,0,0,0,0,-1,769,372,0,0
-448,652,0,0,0,0,0,0,0,0,0,-1,776,372,0,0
-441,652,0,0,0,0,0,0,0,0,0,-1,783,372,0,0
-434,652,0,0,0,0,0,0,0,0,0,-1,790,372,0,0
-427,652,0,0,0,0,0,0,0,0,0,-1,797,372,0,0
-420,652,0,0,0,0,0,0,0,0,0,-1,804,372,0,0
-413,652,0,0,0,0,0,0,0,0,0,-1,811,372,0,0
-406,652,0,0,0,0,0,0,0,0,0,-1,818,372,0,0
-399,652,0,0,0,0,0,0,0,0,0,-1,825,372,0,0
-392,652,0,0,0,0,0,0,0,0,0,-1,832,372,0,0
-385,652,0,0,0,0,0,0,0,0,0,-1,839,372,0,0
-378,652,0,0,0,0,0,0,0,0,0,-1,846,372,0,0
-371,652,0,0,0,0,0,0,0,0,0,-1,853,372,0,0
-364,652,0,0,0,0,0,0,0,0,0,-1,860,372,0,0
-357,652,0,0,0,0,0,0,0,0,0,-1,867,372,0,0
-350,652,0,0,0,0,0,0,0,0,0,-1,874,372,0,0
-343,652,0,0,0,0,0,0,0,0,0,-1,881,372,0,0
-336,652,0,0,0,0,0,0,0,0,0,-1,888,372,0,0
-329,652,0,0,0,0,0,0,0,0,0,-1,895,372,0,0
-322,652,0,0,0,0,0,0,0,0,0,-1,902,372,0,0
-315,652,0,0,0,0,0,0,0,0,0,-1,909,372,0,0
-308,652,0,0,0,0,0,0,0,0,0,-1,916,372,0,0
-301,652,0,0,0,0,0,0,0,0,0,-1,923,372,0,0
-294,652,0,0,0,0,0,0,0,0,0,-1,930,372,0,0
-287,652,0,0,0,0,0,0,0,0,0,-1,937,372,0,0
-280,652,0,0,0,0,0,0,0,0,0,-1,944,372,0,0
-273,652,0,0,0,0,0,0,0,0,0,-1,951,372,0,0
-266,652,0,0,0,0,0,0,0,0,0,-1,958,372,0,0
-259,652,0,0,0,0,0,0,0,0,0,-1,965,372,0,0
-252,652,0,0,0,0,0,0,0,0,0,-1,972,372,0,0
-245,652,0,0,0,0,0,0,0,0,0,-1,979,372,0,0
-238,652,0,0,0,0,0,0,0,0,0,-1,986,372,0,0
-231,652,8.79358,-27.1656,0,0,0,0,0,0,0,-1,993,372,8.79357,27.1656
-224,652,8.84552,-27.675,0,0,0,0,0,0,0,-1,1000,372,8.84555,27.675
-217,652,9.03113,-27.7474,0,0,0,0,0,0,0,-1,1007,372,9.0311,27.7474
-210,652,9.72803,-30.4624,0,0,0,0,0,0,0,-1,1014,372,9.72805,30.4624
-203,652,7.2677,-26.0732,0,0,0,0,0,0,0,-1,1021,372,7.26775,26.0732
-196,652,5.90686,-26.957,0,0,0,0,0,0,0,-1,1028,372,5.9068,26.957
-189,652,6.21326,-28.3035,0,0,0,0,0,0,0,-1,1035,372,6.21331,28.3035
-182,652,6.45068,-29.9377,0,0,0,0,0,0,0,-1,1042,372,6.45074,29.9377
-175,652,6.72559,-31.6948,0,0,0,0,0,0,0,-1,1049,372,6.72563,31.6948
-168,652,7.08533,-32.8669,0,0,0,0,0,0,0,-1,1056,372,7.08532,32.8669
-161,652,7.85291,-37.3545,0,0,0,0,0,0,0,-1,1063,372,7.85294,37.3545
-154,652,7.54639,-37.9586,0,0,0,0,0,0,0,-1,1070,372,7.54642,37.9586
-147,652,7.85571,-42.3712,0,0,0,0,0,0,0,-1,1077,372,7.8557,42.3712
-140,652,5.6842,-33.9781,0,0,0,0,0,0,0,-1,1084,372,5.68421,33.9781
-133,652,6.3009,-35.2887,0,0,0,0,0,0,0,-1,1091,372,6.30093,35.2887
-126,652,5.86841,-37.0981,0,0,0,0,0,0,0,-1,1098,372,5.86845,37.0981
-119,652,8.18018,-49.52,0,0,0,0,0,0,0,-1,1105,372,8.18015,49.52
-112,652,7.81982,-48.4793,0,0,0,0,0,0,0,-1,1112,372,7.81981,48.4793
-105,652,6.63855,-39.9965,0,0,0,0,0,0,0,-1,1119,372,6.63852,39.9965
-98,652,5.84302,-35.2455,0,0,0,0,0,0,0,-1,1126,372,5.84307,35.2455
-91,652,5.66296,-32.9003,0,0,0,0,0,0,0,-1,1133,372,5.66297,32.9003
-84,652,5.46057,-34.9186,0,0,0,0,0,0,0,-1,1140,372,5.46057,34.9186
-77,652,9.56519,-64.2776,0,0,0,0,0,0,0,-1,1147,372,9.56517,64.2776
-70,652,9.47327,-64.8933,0,0,0,0,0,0,0,-1,1154,372,9.47323,64.8933
-63,652,9.42603,-65.3963,0,0,0,0,0,0,0,-1,1161,372,9.42599,65.3963
-56,652,9.2854,-65.91,0,0,0,0,0,0,0,-1,1168,372,9.28545,65.91
-49,652,9.22864,-66.3686,0.000742587,0.019764,-0.00951217,0.0237045,-0.00319791,-1.17806,0.0169697,0.0385168,1175,372,9.22869,66.3686
-42,652,9.12793,-66.7099,0.00251156,0.0211257,-0.0101236,0.0255703,-0.00193305,-1.1571,0.0177264,0.0137787,1182,372,9.12796,66.7099
-35,652,9.07874,-67.0949,0.00380317,0.0225395,-0.0105223,0.0272596,-0.000916977,-1.14912,0.0184863,0.0110535,1189,372,9.07872,67.0949
-28,652,9.0188,-67.4647,0.00484881,0.023675,-0.010724,0.0285311,-7.29132e-06,-1.14559,0.0190232,0.00909948,1196,372,9.01875,67.4647
-21,652,8.92847,-67.8428,0.00497977,0.0251854,-0.0110644,0.0300655,9.96701e-05,-1.1554,0.0200106,0.00940516,1203,372,8.92844,67.8428
-14,652,8.86047,-68.1494,0.00458409,0.0261889,-0.011245,0.0309795,-0.000206543,-1.16806,0.0207222,0.0113144,1210,372,8.8605,68.1494
-7,652,8.79407,-68.4524,0.0037125,0.0273152,-0.0114799,0.0319778,-0.000950027,-1.185,0.0216421,0.0140646,1217,372,8.7941,68.4524
0,652,8.73633,-68.6951,0.00266461,0.0277409,-0.0113101,0.0320884,-0.00168282,-1.20382,0.0219747,0.0134458,1224,372,8.73634,68.6951
7,652,8.70227,-68.8492,0.00162258,0.0281546,-0.0111861,0.0322412,-0.00246409,-1.22053,0.0223608,0.0137801,1231,372,8.70233,68.8492
14,652,8.64917,-69.0544,0.000516201,0.0278786,-0.0109212,0.031703,-0.00330825,-1.23396,0.02232,0.0130904,1238,372,8.64912,69.0544
21,652,8.58386,-69.2692,-0.000444959,0.0273298,-0.0104423,0.0308177,-0.00393289,-1.24843,0.0219737,0.0121585,1245,372,8.58386,69.2692
28,652,8.54504,-69.4529,-0.000976892,0.026359,-0.00972895,0.029468,-0.00408587,-1.26149,0.0211393,0.0112504,1252,372,8.54509,69.4529
35,652,8.47534,-69.5742,-0.000964553,0.0263392,-0.00873817,0.0288963,-0.00352161,-1.28611,0.0205389,0.0119551,1259,372,8.47534,69.5742
42,652,8.42188,-69.6578,-0.00112675,0.0255609,-0.00741183,0.0274812,-0.00304703,-1.31729,0.0194163,0.0129391,1266,372,8.4219,69.6578
49,652,8.40137,-69.7247,-0.0010527,0.0253933,-0.00602664,0.0267019,-0.00236132,-1.35698,0.0186383,0.0154421,1273,372,8.40134,69.7247
56,652,8.33667,-69.7603,-0.000522979,0.0254067,-0.00467457,0.0262237,-0.00133996,-1.39777,0.0179458,0.0175283,1280,372,8.33667,69.7603
63,652,8.24768,-69.8055,0.000951739,0.0260602,-0.00278962,0.0263664,0.000645539,-1.46147,0.0173664,0.021807,1287,372,8.2477,69.8055
70,652,8.1637,-69.7777,0.00255997,0.026367,-0.000655629,0.0263851,0.00254192,-1.54328,0.0168069,0.0189748,1294,372,8.16364,69.7778
77,652,8.0697,-69.7554,0.00383491,0.0268669,0.0015411,0.0269696,0.00373225,1.50428,0.0168738,0.0169884,1301,372,8.06974,69.7554
84,652,8.06726,-69.7295,0.00443133,0.0262835,0.00446525,0.0271607,0.00355412,1.37681,0.0170464,0.0135931,1308,372,8.0673,69.7295
91,652,8.00867,-69.6816,0.00440844,0.0253531,0.00786664,0.0279786,0.00178292,1.24867,0.0180874,0.0165135,1315,372,8.00864,69.6816
98,652,7.98218,-69.5307,0.00401185,0.0239427,0.0118025,0.0294243,-0.00146971,1.136,0.020124,0.0137985,1322,372,7.98214,69.5307
105,652,7.92603,-69.3436,0.00343454,0.0229482,0.0149077,0.0310081,-0.00462537,1.07516,0.0223738,0.011825,1329,372,7.92598,69.3436
112,652,7.84814,-69.1382,0.00243029,0.0215488,0.0179625,0.0323373,-0.00835824,1.02993,0.024818,0.00984599,1336,372,7.84809,69.1382
119,652,7.80579,-68.9181,0.00110349,0.0198535,0.0209176,0.0334009,-0.0124439,0.996071,0.0273749,0.0109779,1343,372,7.80581,68.9181
126,652,7.74048,-68.6509,-0.000515143,0.0180161,0.0233328,0.0338557,-0.0163547,0.974404,0.0295701,0.0142435,1350,372,7.74053,68.6509
133,652,7.66357,-68.3867,-0.00250388,0.0161653,0.0251712,0.033677,-0.0200156,0.962959,0.0313321,0.0148004,1357,372,7.66352,68.3867
140,652,7.59387,-68.1136,-0.00454481,0.0133881,0.0262522,0.0321629,-0.0233196,0.949962,0.0321681,0.010537,1364,372,7.59383,68.1136
147,652,7.53931,-67.8084,-0.00625601,0.0121323,0.0268844,0.0313512,-0.025475,0.950158,0.032867,0.0094404,1371,372,7.53932,67.8084
154,652,7.4834,-67.4639,-0.00764226,0.0113432,0.0267415,0.0302269,-0.0265259,0.955951,0.0327895,0.0099871,1378,372,7.48336,67.4639
161,652,7.40979,-67.0772,-0.00857355,0.0113916,0.0262166,0.0294619,-0.0266438,0.967309,0.0324063,0.0117989,1385,372,7.40983,67.0772
168,652,7.33423,-66.6544,-0.00998046,0.0109678,0.024535,0.0271709,-0.0261835,0.98714,0.0308059,0.0134123,1392,372,7.33418,66.6544
175,652,7.2644,-66.2148,-0.0112166,0.0120618,0.0228541,0.0260699,-0.0252246,1.02092,0.0296162,0.0139714,1399,372,7.26437,66.2148
182,652,7.18518,-65.8068,-0.0113265,0.0137027,0.0213333,0.0259212,-0.023545,1.05066,0.0285703,0.0205018,1406,372,7.18512,65.8068
189,652,7.15625,-65.3309,-0.00993316,0.0163884,0.018354,0.0258124,-0.0193572,1.09644,0.0261673,0.032718,1413,372,7.15623,65.3309
196,652,7.07825,-64.791,0,0,0,0,0,0,0,-1,1420,372,7.0783,64.791
203,652,6.97937,-64.3347,0,0,0,0,0,0,0,-1,1427,372,6.97939,64.3348
210,652,6.98926,-63.6765,0,0,0,0,0,0,0,-1,1434,372,6.9892,63.6765
217,652,6.58093,-61.7512,0,0,0,0,0,0,0,-1,1441,372,6.58095,61.7512
224,652,3.63794,-31.2791,0,0,0,0,0,0,0,-1,1448,372,3.63799,31.2791
231,652,3.83936,-30.4812,0,0,0,0,0,0,0,-1,1455,372,3.8393,30.4812
238,652,4.42358,-36.4103,0,0,0,0,0,0,0,-1,1462,372,4.4236,36.4103
245,652,4.53296,-41.8512,0,0,0,0,0,0,0,-1,1469,372,4.5329,41.8512
252,652,5.00793,-47.7065,0,0,0,0,0,0,0,-1,1476,372,5.00791,47.7064
259,652,3.44922,-31.2655,0,0,0,0,0,0,0,-1,1483,372,3.44921,31.2655
266,652,5.5387,-50.3915,0,0,0,0,0,0,0,-1,1490,372,5.53875,50.3915
273,652,5.76855,-57.8665,0,0,0,0,0,0,0,-1,1497,372,5.76858,57.8665
280,652,4.05066,-24.6993,0,0,0,0,0,0,0,-1,1504,372,4.05066,24.6993
287,652,3.0979,-23.6951,0,0,0,0,0,0,0,-1,1511,372,3.09796,23.6951
294,652,2.06946,-24.1711,0,0,0,0,0,0,0,-1,1518,372,2.0694,24.1711
301,652,0.770264,-23.0697,0,0,0,0,0,0,0,-1,1525,372,0.770217,23.0697
308,652,-0.706299,-22.1083,0,0,0,0,0,0,0,-1,1532,372,-0.706291,22.1083
315,652,-1.65198,-21.8662,0,0,0,0,0,0,0,-1,1539,372,-1.65204,21.8662
322,652,-2.66101,-21.728,0,0,0,0,0,0,0,-1,1546,372,-2.66097,21.728
329,652,-7.12329,-21.7065,0,0,0,0,0,0,0,-1,1553,372,-7.12334,21.7065
336,652,-3.56519,-22.3688,0,0,0,0,0,0,0,-1,1560,372,-3.56517,22.3688
343,652,-3.58069,-21.9185,0,0,0,0,0,0,0,-1,1567,372,-3.58069,21.9185
350,652,5.28394,-25.6715,0,0,0,0,0,0,0,-1,1574,372,5.28393,25.6715
357,652,0,0,0,0,0,0,0,0,0,-1,1581,372,0,0
364,652,0,0,0,0,0,0,0,0,0,-1,1588,372,0,0
371,652,0,0,0,0,0,0,0,0,0,-1,1595,372,0,0
378,652,0,0,0,0,0,0,0,0,0,-1,1602,372,0,0
385,652,0,0,0,0,0,0,0,0,0,-1,1609,372,0,0
392,652,0,0,0,0,0,0,0,0,0,-1,1616,372,0,0
399,652,0,0,0,0,0,0,0,0,0,-1,1623,372,0,0
406,652,0,0,0,0,0,0,0,0,0,-1,1630,372,0,0
413,652,0,0,0,0,0,0,0,0,0,-1,1637,372,0,0
420,652,0,0,0,0,0,0,0,0,0,-1,1644,372,0,0
427,652,0,0,0,0,0,0,0,0,0,-1,1651,372,0,0
434,652,0,0,0,0,0,0,0,0,0,-1,1658,372,0,0
441,652,0,0,0,0,0,0,0,0,0,-1,1665,372,0,0
448,652,0,0,0,0,0,0,0,0,0,-1,1672,372,0,0
455,652,0,0,0,0,0,0,0,0,0,-1,1679,372,0,0
462,652,0,0,0,0,0,0,0,0,0,-1,1686,372,0,0
469,652,0,0,0,0,0,0,0,0,0,-1,1693,372,0,0
476,652,0,0,0,0,0,0,0,0,0,-1,1700,372,0,0
483,652,0,0,0,0,0,0,0,0,0,-1,1707,372,0,0
490,652,0,0,0,0,0,0,0,0,0,-1,1714,372,0,0
497,652,0,0,0,0,0,0,0,0,0,-1,1721,372,0,0
504,652,0,0,0,0,0,0,0,0,0,-1,1728,372,0,0
511,652,0,0,0,0,0,0,0,0,0,-1,1735,372,0,0
518,652,0,0,0,0,0,0,0,0,0,-1,1742,372,0,0
525,652,0,0,0,0,0,0,0,0,0,-1,1749,372,0,0
532,652,0,0,0,0,0,0,0,0,0,-1,1756,372,0,0
539,652,0,0,0,0,0,0,0,0,0,-1,1763,372,0,0
546,652,0,0,0,0,0,0,0,0,0,-1,1770,372,0,0
553,652,0,0,0,0,0,0,0,0,0,-1,1777,372,0,0
560,652,0,0,0,0,0,0,0,0,0,-1,1784,372,0,0
567,652,0,0,0,0,0,0,0,0,0,-1,1791,372,0,0
574,652,0,0,0,0,0,0,0,0,0,-1,1798,372,0,0
581,652,0,0,0,0,0,0,0,0,0,-1,1805,372,0,0
588,652,0,0,0,0,0,0,0,0,0,-1,1812,372,0,0
595,652,0,0,0,0,0,0,0,0,0,-1,1819,372,0,0
602,652,0,0,0,0,0,0,0,0,0,-1,1826,372,0,0
609,652,0,0,0,0,0,0,0,0,0,-1,1833,372,0,0
616,652,0,0,0,0,0,0,0,0,0,-1,1840,372,0,0
623,652,0,0,0,0,0,0,0,0,0,-1,1847,372,0,0
630,652,0,0,0,0,0,0,0,0,0,-1,1854,372,0,0
637,652,0,0,0,0,0,0,0,0,0,-1,1861,372,0,0
644,652,0,0,0,0,0,0,0,0,0,-1,1868,372,0,0
651,652,0,0,0,0,0,0,0,0,0,-1,1875,372,0,0
658,652,0,0,0,0,0,0,0,0,0,-1,1882,372,0,0
665,652,0,0,0,0,0,0,0,0,0,-1,1889,372,0,0
672,652,0,0,0,0,0,0,0,0,0,-1,1896,372,0,0
679,652,0,0,0,0,0,0,0,0,0,-1,1903,372,0,0
686,652,0,0,0,0,0,0,0,0,0,-1,1910,372,0,0
693,652,0,0,0,0,0,0,0,0,0,-1,1917,372,0,0
700,652,0,0,0,0,0,0,0,0,0,-1,1924,372,0,0
707,652,0,0,0,0,0,0,0,0,0,-1,1931,372,0,0
714,652,0,0,0,0,0,0,0,0,0,-1,1938,372,0,0
721,652,0,0,0,0,0,0,0,0,0,-1,1945,372,0,0
728,652,0,0,0,0,0,0,0,0,0,-1,1952,372,0,0
735,652,0,0,0,0,0,0,0,0,0,-1,1959,372,0,0
742,652,0,0,0,0,0,0,0,0,0,-1,1966,372,0,0
749,652,0,0,0,0,0,0,0,0,0,-1,1973,372,0,0
756,652,0,0,0,0,0,0,0,0,0,-1,1980,372,0,0
763,652,0,0,0,0,0,0,0,0,0,-1,1987,372,0,0
770,652,0,0,0,0,0,0,0,0,0,-1,1994,372,0,0
777,652,0,0,0,0,0,0,0,0,0,-1,2001,372,0,0
784,652,0,0,0,0,0,0,0,0,0,-1,2008,372,0,0
791,652,0,0,0,0,0,0,0,0,0,-1,2015,372,0,0
798,652,0,0,0,0,0,0,0,0,0,-1,2022,372,0,0
805,652,0,0,0,0,0,0,0,0,0,-1,2029,372,0,0
812,652,0,0,0,0,0,0,0,0,0,-1,2036,372,0,0
-700,645,0,0,0,0,0,0,0,0,0,-1,524,379,0,0
-693,645,0,0,0,0,0,0,0,0,0,-1,531,379,0,0
-686,645,0,0,0,0,0,0,0,0,0,-1,538,379,0,0
-679,645,0,0,0,0,0,0,0,0,0,-1,545,379,0,0
-672,645,0,0,0,0,0,0,0,0,0,-1,552,379,0,0
-665,645,0,0,0,0,0,0,0,0,0,-1,559,379,0,0
-658,645,0,0,0,0,0,0,0,0,0,-1,566,379,0,0
-651,645,0,0,0,0,0,0,0,0,0,-1,573,379,0,0
-644,645,0,0,0,0,0,0,0,0,0,-1,580,379,0,0
-637,645,0,0,0,0,0,0,0,0,0,-1,587,379,0,0
-630,645,0,0,0,0,0,0,0,0,0,-1,594,379,0,0
-623,645,0,0,0,0,0,0,0,0,0,-1,601,379,0,0
-616,645,0,0,0,0,0,0,0,0,0,-1,608,379,0,0
-609,645,0,0,0,0,0,0,0,0,0,-1,615,379,0,0
-602,645,0,0,0,0,0,0,0,0,0,-1,622,379,0,0
-595,645,0,0,0,0,0,0,0,0,0,-1,629,379,0,0
-588,645,0,0,0,0,0,0,0,0,0,-1,636,379,0,0
-581,645,0,0,0,0,0,0,0,0,0,-1,643,379,0,0
-574,645,0,0,0,0,0,0,0,0,0,-1,650,379,0,0
-567,645,0,0,0,0,0,0,0,0,0,-1,657,379,0,0
-560,645,0,0,0,0,0,0,0,0,0,-1,664,379,0,0
-553,645,0,0,0,0,0,0,0,0,0,-1,671,379,0,0
-546,645,0,0,0,0,0,0,0,0,0,-1,678,379,0,0
-539,645,0,0,0,0,0,0,0,0,0,-1,685,379,0,0
-532,645,0,0,0,0,0,0,0,0,0,-1,692,379,0,0
-525,645,0,0,0,0,0,0,0,0,0,-1,699,379,0,0
-518,645,0,0,0,0,0,0,0,0,0,-1,706,379,0,0
-511,645,0,0,0,0,0,0,0,0,0,-1,713,379,0,0
-504,645,0,0,0,0,0,0,0,0,0,-1,720,379,0,0
-497,645,0,0,0,0,0,0,0,0,0,-1,727,379,0,0
-490,645,0,0,0,0,0,0,0,0,0,-1,734,379,0,0
-483,645,0,0,0,0,0,0,0,0,0,-1,741,379,0,0
-476,645,0,0,0,0,0,0,0,0,0,-1,748,379,0,0
-469,645,0,0,0,0,0,0,0,0,0,-1,755,379,0,0
-462,645,0,0,0,0,0,0,0,0,0,-1,762,379,0,0
-455,645,0,0,0,0,0,0,0,0,0,-1,769,379,0,0
-448,645,0,0,0,0,0,0,0,0,0,-1,776,379,0,0
-441,645,0,0,0,0,0,0,0,0,0,-1,783,379,0,0
-434,645,0,0,0,0,0,0,0,0,0,-1,790,379,0,0
-427,645,0,0,0,0,0,0,0,0,0,-1,797,379,0,0
-420,645,0,0,0,0,0,0,0,0,0,-1,804,379,0,0
-413,645,0,0,0,0,0,0,0,0,0,-1,811,379,0,0
-406,645,0,0,0,0,0,0,0,0,0,-1,818,379,0,0
-399,645,0,0,0,0,0,0,0,0,0,-1,825,379,0,0
-392,645,0,0,0,0,0,0,0,0,0,-1,832,379,0,0
-385,645,0,0,0,0,0,0,0,0,0,-1,839,379,0,0
-378,645,0,0,0,0,0,0,0,0,0,-1,846,379,0,0
-371,645,0,0,0,0,0,0,0,0,0,-1,853,379,0,0
-364,645,0,0,0,0,0,0,0,0,0,-1,860,379,0,0
-357,645,0,0,0,0,0,0,0,0,0,-1,867,379,0,0
-350,645,0,0,0,0,0,0,0,0,0,-1,874,379,0,0
-343,645,0,0,0,0,0,0,0,0,0,-1,881,379,0,0
-336,645,0,0,0,0,0,0,0,0,0,-1,888,379,0,0
-329,645,0,0,0,0,0,0,0,0,0,-1,895,379,0,0
-322,645,0,0,0,0,0,0,0,0,0,-1,902,379,0,0
-315,645,0,0,0,0,0,0,0,0,0,-1,909,379,0,0
-308,645,0,0,0,0,0,0,0,0,0,-1,916,379,0,0
-301,645,0,0,0,0,0,0,0,0,0,-1,923,379,0,0
-294,645,0,0,0,0,0,0,0,0,0,-1,930,379,0,0
-287,645,0,0,0,0,0,0,0,0,0,-1,937,379,0,0
-280,645,0,0,0,0,0,0,0,0,0,-1,944,379,0,0
-273,645,0,0,0,0,0,0,0,0,0,-1,951,379,0,0
-266,645,0,0,0,0,0,0,0,0,0,-1,958,379,0,0
-259,645,0,0,0,0,0,0,0,0,0,-1,965,379,0,0
-252,645,2.95691,-26.9133,0,0,0,0,0,0,0,-1,972,379,2.9569,26.9133
-245,645,2.73169,-27.0215,0,0,0,0,0,0,0,-1,979,379,2.73172,27.0215
-238,645,2.6665,-26.9464,0,0,0,0,0,0,0,-1,986,379,2.66649,26.9464
-231,645,7.26807,-29.1054,0,0,0,0,0,0,0,-1,993,379,7.26806,29.1054
-224,645,7.69073,-29.5737,0,0,0,0,0,0,0,-1,1000,379,7.69071,29.5737
-217,645,8.65485,-33.4136,0,0,0,0,0,0,0,-1,1007,379,8.65487,33.4136
-210,645,9.21594,-32.5157,0,0,0,0,0,0,0,-1,1014,379,9.21591,32.5156
-203,645,9.77698,-31.6176,0,0,0,0,0,0,0,-1,1021,379,9.77696,31.6177
-196,645,10.2664,-29.7741,0,0,0,0,0,0,0,-1,1028,379,10.2664,29.7741
-189,645,5.88062,-28.2191,0,0,0,0,0,0,0,-1,1035,379,5.88062,28.2191
-182,645,6.34167,-29.2525,0,0,0,0,0,0,0,-1,1042,379,6.3417,29.2525
-175,645,6.36462,-35.5586,0,0,0,0,0,0,0,-1,1049,379,6.3646,35.5586
-168,645,7.19116,-39.5785,0,0,0,0,0,0,0,-1,1056,379,7.19115,39.5785
-161,645,7.22083,-37.6093,0,0,0,0,0,0,0,-1,1063,379,7.22085,37.6094
-154,645,7.42102,-41.6806,0,0,0,0,0,0,0,-1,1070,379,7.42105,41.6806
-147,645,8.89526,-50.6488,0,0,0,0,0,0,0,-1,1077,379,8.89521,50.6488
-140,645,9.72229,-58.4775,0,0,0,0,0,0,0,-1,1084,379,9.72225,58.4775
-133,645,9.61304,-59.037,0,0,0,0,0,0,0,-1,1091,379,9.61299,59.0371
-126,645,9.7793,-60.0209,0,0,0,0,0,0,0,-1,1098,379,9.77934,60.0209
-119,645,9.60168,-60.6019,0,0,0,0,0,0,0,-1,1105,379,9.60167,60.6019
-112,645,9.44287,-61.4367,0,0,0,0,0,0,0,-1,1112,379,9.4429,61.4367
-105,645,9.36572,-62.2734,0,0,0,0,0,0,0,-1,1119,379,9.36575,62.2734
-98,645,9.26721,-62.8846,0,0,0,0,0,0,0,-1,1126,379,9.26716,62.8846
-91,645,9.15417,-63.4666,0,0,0,0,0,0,0,-1,1133,379,9.15421,63.4665
-84,645,9.10071,-64.0034,0,0,0,0,0,0,0,-1,1140,379,9.10075,64.0034
-77,645,9.14124,-64.5153,-0.0084711,0.00599537,-0.00278003,0.00651121,-0.00898695,-1.38733,0.00898584,0.0449893,1147,379,9.14128,64.5153
-70,645,9.00867,-65.004,-0.00847565,0.00661057,-0.00248157,0.00700829,-0.00887336,-1.41188,0.00919033,0.0169919,1154,379,9.00862,65.004
-63,645,8.95105,-65.4543,-0.00635086,0.00978265,-0.00368179,0.0105831,-0.00715136,-1.35671,0.0103027,0.0131526,1161,379,8.95103,65.4543
-56,645,8.89185,-65.8885,-0.00348174,0.0118695,-0.00503429,0.0133731,-0.00498541,-1.28055,0.0109619,0.0148321,1168,379,8.8918,65.8885
-49,645,8.83997,-66.3336,-0.00119128,0.0131516,-0.00584676,0.015233,-0.00327263,-1.2288,0.0114038,0.0118007,1175,379,8.84,66.3336
-42,645,8.76624,-66.744,4.90987e-05,0.0139669,-0.00608897,0.0162547,-0.00223872,-1.21138,0.0116546,0.0107993,1182,379,8.76619,66.744
-35,645,8.71094,-67.1597,0.00101793,0.0148703,-0.00623426,0.0172628,-0.00137458,-1.20436,0.011993,0.0118076,1189,379,8.7109,67.1597
-28,645,8.65332,-67.5649,0.00185066,0.0155434,-0.0062957,0.017998,-0.000603971,-1.19904,0.012205,0.0103293,1196,379,8.65327,67.5649
-21,645,8.59851,-67.8882,0.00226903,0.0163181,-0.0063795,0.0187827,-0.000195479,-1.20214,0.0125874,0.0116121,1203,379,8.59852,67.8882
-14,645,8.56372,-68.2129,0.00234552,0.016817,-0.00638414,0.0192308,-6.82548e-05,-1.20932,0.0128433,0.0104201,1210,379,8.56372,68.2129
-7,645,8.54297,-68.5259,0.00213502,0.0173587,-0.00647164,0.019738,-0.000244248,-1.21849,0.0132408,0.0139156,1217,379,8.54297,68.5259
0,645,8.50623,-68.7383,0.00173632,0.0174222,-0.00634877,0.0196697,-0.000511266,-1.23055,0.0132869,0.0261343,1224,379,8.50619,68.7383
7,645,8.45337,-68.9419,0.00112664,0.0174912,-0.00613036,0.019533,-0.00091512,-1.24929,0.0133375,0.0173896,1231,379,8.45338,68.9419
14,645,8.41565,-69.1147,0.000425004,0.0172347,-0.00586341,0.0190778,-0.00141813,-1.26623,0.0132166,0.0182784,1238,379,8.41565,69.1148
21,645,8.39404,-69.331,-0.000175983,0.0168354,-0.00547896,0.0184473,-0.00178789,-1.28467,0.0129354,0.0124046,1245,379,8.39398,69.331
28,645,8.38513,-69.5129,-0.000491033,0.0161527,-0.00499517,0.0175368,-0.0018751,-1.3005,0.0123637,0.0103557,1252,379,8.38519,69.5129
35,645,8.33826,-69.6511,-0.000492951,0.0161425,-0.00438435,0.0172273,-0.00157773,-1.32825,0.0120453,0.0100603,1259,379,8.33831,69.6511
42,645,8.31519,-69.7436,-0.000681409,0.0156336,-0.00354426,0.0163703,-0.0014181,-1.36586,0.0114156,0.0104525,1266,379,8.31514,69.7436
49,645,8.33728,-69.7973,-0.000683707,0.0156159,-0.00267498,0.0160437,-0.00111148,-1.41222,0.0110849,0.0142197,1273,379,8.33726,69.7973
56,645,8.31384,-69.8308,-0.000371159,0.0157254,-0.0019022,0.0159471,-0.000592896,-1.45475,0.0108344,0.0139344,1280,379,8.3138,69.8308
63,645,8.26062,-69.8733,0.000593619,0.0162407,-0.000836572,0.0162853,0.000549019,-1.51753,0.0106786,0.0135343,1287,379,8.26067,69.8733
70,645,8.19141,-69.8465,0.00164343,0.0165351,0.000372481,0.0165444,0.00163412,1.5458,0.0105273,0.0175566,1294,379,8.19141,69.8465
77,645,8.18103,-69.8234,0.00246484,0.0170662,0.00160722,0.017241,0.00229002,1.46245,0.0108118,0.0200157,1301,379,8.18101,69.8234
84,645,8.18201,-69.7627,0.00283734,0.0168504,0.00324687,0.0175661,0.00212159,1.35382,0.0110715,0.0146642,1308,379,8.182,69.7627
91,645,8.12,-69.7216,0.00274512,0.016342,0.00516002,0.0180785,0.00100866,1.24618,0.0117306,0.0167438,1315,379,8.11994,69.7217
98,645,8.09961,-69.5713,0.00236455,0.0155421,0.00745119,0.0188998,-0.000993147,1.14742,0.0129436,0.0145562,1322,379,8.09958,69.5713
105,645,8.07349,-69.3861,0.00194899,0.0150537,0.00931891,0.0198932,-0.00289056,1.09181,0.0143232,0.0114319,1329,379,8.07345,69.3861
112,645,8.01855,-69.192,0.00133505,0.0143344,0.0110217,0.0206302,-0.00496069,1.05181,0.0156709,0.00957063,1336,379,8.01854,69.192
119,645,7.99536,-68.9704,0.000371515,0.0133424,0.0127415,0.021154,-0.00744014,1.02081,0.01713,0.0091044,1343,379,7.99534,68.9704
126,645,7.94873,-68.719,-0.000877113,0.0123503,0.0141165,0.0213256,-0.00985242,1.00447,0.0184024,0.0123686,1350,379,7.94877,68.719
133,645,7.91455,-68.4444,-0.00238262,0.0114577,0.0151402,0.0211843,-0.0121092,0.999758,0.0194586,0.0136574,1357,379,7.91459,68.4444
140,645,7.88647,-68.1699,-0.00382596,0.00989041,0.015649,0.020118,-0.0140536,0.991919,0.0198323,0.0127483,1364,379,7.88643,68.1699
147,645,7.84192,-67.8606,-0.00496232,0.00947009,0.0158605,0.0196789,-0.0151711,0.998891,0.0201767,0.0139344,1371,379,7.84188,67.8606
154,645,7.81506,-67.5132,-0.00588152,0.00923155,0.0155989,0.0190079,-0.0156578,1.01095,0.0200454,0.0128854,1378,379,7.81511,67.5132
161,645,7.77051,-67.1202,-0.00642837,0.0096743,0.015099,0.0187344,-0.0154885,1.03034,0.0197882,0.0156317,1385,379,7.77054,67.1202
168,645,7.71143,-66.7105,-0.00732768,0.00976202,0.0138393,0.0174818,-0.0150475,1.06197,0.0187983,0.0184808,1392,379,7.7114,66.7105
175,645,7.69763,-66.3029,-0.008053,0.0107339,0.0127185,0.0171518,-0.0144709,1.10347,0.0182792,0.0150015,1399,379,7.69763,66.3028
182,645,7.62036,-65.869,-0.00804153,0.0118504,0.0119064,0.0174185,-0.0136096,1.13336,0.017959,0.0109146,1406,379,7.62031,65.869
189,645,7.55493,-65.3521,-0.00708839,0.0134726,0.0103167,0.0177565,-0.0113723,1.17722,0.0169516,0.0120908,1413,379,7.55495,65.3521
196,645,7.46509,-64.8942,-0.00617079,0.0146021,0.00820628,0.0174528,-0.00902146,1.23646,0.0155412,0.0123595,1420,379,7.4651,64.8942
203,645,7.38672,-64.3734,-0.00580917,0.0152071,0.00561436,0.0166129,-0.00721497,1.32545,0.0141092,0.0130327,1427,379,7.38669,64.3734
210,645,7.38782,-63.7274,-0.00591984,0.0144786,0.00574725,0.0159864,-0.00742767,1.31422,0.0138159,0.0236001,1434,379,7.38786,63.7274
217,645,7.38977,-63.1062,0,0,0,0,0,0,0,-1,1441,379,7.38979,63.1062
224,645,7.19324,-62.7202,0,0,0,0,0,0,0,-1,1448,379,7.19326,62.7203
231,645,7.07788,-62.0596,0,0,0,0,0,0,0,-1,1455,379,7.07789,62.0596
238,645,6.95972,-61.4239,0,0,0,0,0,0,0,-1,1462,379,6.95978,61.4239
245,645,6.93994,-60.6866,0,0,0,0,0,0,0,-1,1469,379,6.93991,60.6865
252,645,6.27942,-52.6305,0,0,0,0,0,0,0,-1,1476,379,6.27947,52.6305
259,645,6.5321,-54.0518,0,0,0,0,0,0,0,-1,1483,379,6.53211,54.0518
266,645,6.43701,-58.4825,0,0,0,0,0,0,0,-1,1490,379,6.43707,58.4825
273,645,6.52649,-58.0688,0,0,0,0,0,0,0,-1,1497,379,6.52654,58.0688
280,645,6.68518,-57.3433,0,0,0,0,0,0,0,-1,1504,379,6.68521,57.3433
287,645,6.7146,-56.2595,0,0,0,0,0,0,0,-1,1511,379,6.71464,56.2595
294,645,3.76428,-22.9539,0,0,0,0,0,0,0,-1,1518,379,3.7643,22.9539
301,645,2.74219,-23.503,0,0,0,0,0,0,0,-1,1525,379,2.74222,23.503
308,645,1.82227,-23.9479,0,0,0,0,0,0,0,-1,1532,379,1.82227,23.9479
315,645,0.990356,-24.8735,0,0,0,0,0,0,0,-1,1539,379,0.990376,24.8735
322,645,-0.256714,-24.7577,0,0,0,0,0,0,0,-1,1546,379,-0.256653,24.7577
329,645,-4.45581,-22.707,0,0,0,0,0,0,0,-1,1553,379,-4.45579,22.707
336,645,-5.83154,-22.8404,0,0,0,0,0,0,0,-1,1560,379,-5.83149,22.8404
343,645,4.03186,-38.0623,0,0,0,0,0,0,0,-1,1567,379,4.03187,38.0623
350,645,4.76404,-22.1987,0,0,0,0,0,0,0,-1,1574,379,4.76399,22.1987
357,645,4.61316,-21.967,0,0,0,0,0,0,0,-1,1581,379,4.61316,21.967
364,645,-0.0794678,-3.22021,0,0,0,0,0,0,0,-1,1588,379,-0.0794987,3.22021
371,645,0,0,0,0,0,0,0,0,0,-1,1595,379,0,0
378,645,0,0,0,0,0,0,0,0,0,-1,1602,379,0,0
385,645,0,0,0,0,0,0,0,0,0,-1,1609,379,0,0
392,645,0,0,0,0,0,0,0,0,0,-1,1616,379,0,0
399,645,0,0,0,0,0,0,0,0,0,-1,1623,379,0,0
406,645,0,0,0,0,0,0,0,0,0,-1,1630,379,0,0
413,645,0,0,0,0,0,0,0,0,0,-1,1637,379,0,0
420,645,0,0,0,0,0,0,0,0,0,-1,1644,379,0,0
427,645,0,0,0,0,0,0,0,0,0,-1,1651,379,0,0
434,645,0,0,0,0,0,0,0,0,0,-1,1658,379,0,0
441,645,0,0,0,0,0,0,0,0,0,-1,1665,379,0,0
448,645,0,0,0,0,0,0,0,0,0,-1,1672,379,0,0
455,645,0,0,0,0,0,0,0,0,0,-1,1679,379,0,0
462,645,0,0,0,0,0,0,0,0,0,-1,1686,379,0,0
469,645,0,0,0,0,0,0,0,0,0,-1,1693,379,0,0
476,645,0,0,0,0,0,0,0,0,0,-1,1700,379,0,0
483,645,0,0,0,0,0,0,0,0,0,-1,1707,379,0,0
490,645,0,0,0,0,0,0,0,0,0,-1,1714,379,0,0
497,645,0,0,0,0,0,0,0,0,0,-1,1721,379,0,0
504,645,0,0,0,0,0,0,0,0,0,-1,1728,379,0,0
511,645,0,0,0,0,0,0,0,0,0,-1,1735,379,0,0
518,645,0,0,0,0,0,0,0,0,0,-1,1742,379,0,0
525,645,0,0,0,0,0,0,0,0,0,-1,1749,379,0,0
532,645,0,0,0,0,0,0,0,0,0,-1,1756,379,0,0
539,645,0,0,0,0,0,0,0,0,0,-1,1763,379,0,0
546,645,0,0,0,0,0,0,0,0,0,-1,1770,379,0,0
553,645,0,0,0,0,0,0,0,0,0,-1,1777,379,0,0
560,645,0,0,0,0,0,0,0,0,0,-1,1784,379,0,0
567,645,0,0,0,0,0,0,0,0,0,-1,1791,379,0,0
574,645,0,0,0,0,0,0,0,0,0,-1,1798,379,0,0
581,645,0,0,0,0,0,0,0,0,0,-1,1805,379,0,0
588,645,0,0,0,0,0,0,0,0,0,-1,1812,379,0,0
595,645,0,0,0,0,0,0,0,0,0,-1,1819,379,0,0
602,645,0,0,0,0,0,0,0,0,0,-1,1826,379,0,0
609,645,0,0,0,0,0,0,0,0,0,-1,1833,379,0,0
616,645,0,0,0,0,0,0,0,0,0,-1,1840,379,0,0
623,645,0,0,0,0,0,0,0,0,0,-1,1847,379,0,0
630,645,0,0,0,0,0,0,0,0,0,-1,1854,379,0,0
637,645,0,0,0,0,0,0,0,0,0,-1,1861,379,0,0
644,645,0,0,0,0,0,0,0,0,0,-1,1868,379,0,0
651,645,0,0,0,0,0,0,0,0,0,-1,1875,379,0,0
658,645,0,0,0,0,0,0,0,0,0,-1,1882,379,0,0
665,645,0,0,0,0,0,0,0,0,0,-1,1889,379,0,0
672,645,0,0,0,0,0,0,0,0,0,-1,1896,379,0,0
679,645,0,0,0,0,0,0,0,0,0,-1,1903,379,0,0
686,645,0,0,0,0,0,0,0,0,0,-1,1910,379,0,0
693,645,0,0,0,0,0,0,0,0,0,-1,1917,379,0,0
700,645,0,0,0,0,0,0,0,0,0,-1,1924,379,0,0
707,645,0,0,0,0,0,0,0,0,0,-1,1931,379,0,0
714,645,0,0,0,0,0,0,0,0,0,-1,1938,379,0,0
721,645,0,0,0,0,0,0,0,0,0,-1,1945,379,0,0
728,645,0,0,0,0,0,0,0,0,0,-1,1952,379,0,0
735,645,0,0,0,0,0,0,0,0,0,-1,1959,379,0,0
742,645,0,0,0,0,0,0,0,0,0,-1,1966,379,0,0
749,645,0,0,0,0,0,0,0,0,0,-1,1973,379,0,0
756,645,0,0,0,0,0,0,0,0,0,-1,1980,379,0,0
763,645,0,0,0,0,0,0,0,0,0,-1,1987,379,0,0
770,645,0,0,0,0,0,0,0,0,0,-1,1994,379,0,0
777,645,0,0,0,0,0,0,0,0,0,-1,2001,379,0,0
784,645,0,0,0,0,0,0,0,0,0,-1,2008,379,0,0
791,645,0,0,0,0,0,0,0,0,0,-1,2015,379,0,0
798,645,0,0,0,0,0,0,0,0,0,-1,2022,379,0,0
805,645,0,0,0,0,0,0,0,0,0,-1,2029,379,0,0
812,645,0,0,0,0,0,0,0,0,0,-1,2036,379,0,0
-700,638,0,0,0,0,0,0,0,0,0,-1,524,386,0,0
-693,638,0,0,0,0,0,0,0,0,0,-1,531,386,0,0
-686,638,0,0,0,0,0,0,0,0,0,-1,538,386,0,0
-679,638,0,0,0,0,0,0,0,0,0,-1,545,386,0,0
-672,638,0,0,0,0,0,0,0,0,0,-1,552,386,0,0
-665,638,0,0,0,0,0,0,0,0,0,-1,559,386,0,0
-658,638,0,0,0,0,0,0,0,0,0,-1,566,386,0,0
-651,638,0,0,0,0,0,0,0,0,0,-1,573,386,0,0
-644,638,0,0,0,0,0,0,0,0,0,-1,580,386,0,0
-637,638,0,0,0,0,0,0,0,0,0,-1,587,386,0,0
-630,638,0,0,0,0,0,0,0,0,0,-1,594,386,0,0
-623,638,0,0,0,0,0,0,0,0,0,-1,601,386,0,0
-616,638,0,0,0,0,0,0,0,0,0,-1,608,386,0,0
-609,638,0,0,0,0,0,0,0,0,0,-1,615,386,0,0
-602,638,0,0,0,0,0,0,0,0,0,-1,622,386,0,0
-595,638,0,0,0,0,0,0,0,0,0,-1,629,386,0,0
-588,638,0,0,0,0,0,0,0,0,0,-1,636,386,0,0
-581,638,0,0,0,0,0,0,0,0,0,-1,643,386,0,0
-574,638,0,0,0,0,0,0,0,0,0,-1,650,386,0,0
-567,638,0,0,0,0,0,0,0,0,0,-1,657,386,0,0
-560,638,0,0,0,0,0,0,0,0,0,-1,664,386,0,0
-553,638,0,0,0,0,0,0,0,0,0,-1,671,386,0,0
-546,638,0,0,0,0,0,0,0,0,0,-1,678,386,0,0
-539,638,0,0,0,0,0,0,0,0,0,-1,685,386,0,0
-532,638,0,0,0,0,0,0,0,0,0,-1,692,386,0,0
-525,638,0,0,0,0,0,0,0,0,0,-1,699,386,0,0
-518,638,0,0,0,0,0,0,0,0,0,-1,706,386,0,0
-511,638,0,0,0,0,0,0,0,0,0,-1,713,386,0,0
-504,638,0,0,0,0,0,0,0,0,0,-1,720,386,0,0
-497,638,0,0,0,0,0,0,0,0,0,-1,727,386,0,0
-490,638,0,0,0,0,0,0,0,0,0,-1,734,386,0,0
-483,638,0,0,0,0,0,0,0,0,0,-1,741,386,0,0
-476,638,0,0,0,0,0,0,0,0,0,-1,748,386,0,0
-469,638,0,0,0,0,0,0,0,0,0,-1,755,386,0,0
-462,638,0,0,0,0,0,0,0,0,0,-1,762,386,0,0
-455,638,0,0,0,0,0,0,0,0,0,-1,769,386,0,0
-448,638,0,0,0,0,0,0,0,0,0,-1,776,386,0,0
-441,638,0,0,0,0,0,0,0,0,0,-1,783,386,0,0
-434,638,0,0,0,0,0,0,0,0,0,-1,790,386,0,0
-427,638,0,0,0,0,0,0,0,0,0,-1,797,386,0,0
-420,638,0,0,0,0,0,0,0,0,0,-1,804,386,0,0
-413,638,0,0,0,0,0,0,0,0,0,-1,811,386,0,0
-406,638,0,0,0,0,0,0,0,0,0,-1,818,386,0,0
-399,638,0,0,0,0,0,0,0,0,0,-1,825,386,0,0
-392,638,0,0,0,0,0,0,0,0,0,-1,832,386,0,0
-385,638,0,0,0,0,0,0,0,0,0,-1,839,386,0,0
-378,638,0,0,0,0,0,0,0,0,0,-1,846,386,0,0
-371,638,0,0,0,0,0,0,0,0,0,-1,853,386,0,0
-364,638,0,0,0,0,0,0,0,0,0,-1,860,386,0,0
-357,638,0,0,0,0,0,0,0,0,0,-1,867,386,0,0
-350,638,0,0,0,0,0,0,0,0,0,-1,874,386,0,0
-343,638,0,0,0,0,0,0,0,0,0,-1,881,386,0,0
-336,638,0,0,0,0,0,0,0,0,0,-1,888,386,0,0
-329,638,0,0,0,0,0,0,0,0,0,-1,895,386,0,0
-322,638,0,0,0,0,0,0,0,0,0,-1,902,386,0,0
-315,638,0,0,0,0,0,0,0,0,0,-1,909,386,0,0
-308,638,0,0,0,0,0,0,0,0,0,-1,916,386,0,0
-301,638,0,0,0,0,0,0,0,0,0,-1,923,386,0,0
-294,638,0,0,0,0,0,0,0,0,0,-1,930,386,0,0
-287,638,0,0,0,0,0,0,0,0,0,-1,937,386,0,0
-280,638,0,0,0,0,0,0,0,0,0,-1,944,386,0,0
-273,638,0,0,0,0,0,0,0,0,0,-1,951,386,0,0
-266,638,10.1613,-36.3326,0,0,0,0,0,0,0,-1,958,386,10.1612,36.3326
-259,638,9.95282,-34.6103,0,0,0,0,0,0,0,-1,965,386,9.9528,34.6103
-252,638,9.95746,-33.6964,0,0,0,0,0,0,0,-1,972,386,9.95744,33.6965
-245,638,9.84143,-32.9009,0,0,0,0,0,0,0,-1,979,386,9.84145,32.9009
-238,638,2.93518,-26.3649,0,0,0,0,0,0,0,-1,986,386,2.93516,26.3649
-231,638,2.36829,-26.0088,0,0,0,0,0,0,0,-1,993,386,2.3683,26.0088
-224,638,6.3465,-30.9124,0,0,0,0,0,0,0,-1,1000,386,6.34648,30.9124
-217,638,7.41205,-32.7263,0,0,0,0,0,0,0,-1,1007,386,7.41204,32.7262
-210,638,8.7038,-34.5688,0,0,0,0,0,0,0,-1,1014,386,8.70378,34.5689
-203,638,4.32593,-27.5803,0,0,0,0,0,0,0,-1,1021,386,4.32594,27.5803
-196,638,6.0614,-28.4651,0,0,0,0,0,0,0,-1,1028,386,6.06143,28.4651
-189,638,11.4561,-30.1556,0,0,0,0,0,0,0,-1,1035,386,11.456,30.1556
-182,638,6.45471,-33.4271,0,0,0,0,0,0,0,-1,1042,386,6.45473,33.427
-175,638,8.39648,-48.7238,0,0,0,0,0,0,0,-1,1049,386,8.39643,48.7238
-168,638,9.41089,-56.0435,0,0,0,0,0,0,0,-1,1056,386,9.41088,56.0435
-161,638,9.52112,-57.2306,0,0,0,0,0,0,0,-1,1063,386,9.52112,57.2306
-154,638,9.33521,-57.8078,0,0,0,0,0,0,0,-1,1070,386,9.33526,57.8078
-147,638,9.3208,-58.4441,0,0,0,0,0,0,0,-1,1077,386,9.32078,58.4441
-140,638,9.25806,-58.7615,0,0,0,0,0,0,0,-1,1084,386,9.2581,58.7615
-133,638,9.06482,-59.522,0,0,0,0,0,0,0,-1,1091,386,9.06488,59.522
-126,638,9.03101,-60.3105,-0.0063922,0.0084861,-0.0056907,0.0104131,-0.00831921,-1.24429,0.0108376,0.0388374,1098,386,9.03103,60.3105
-119,638,8.93433,-60.9779,-0.00648118,0.00727543,-0.00502336,0.00891447,-0.00812022,-1.2554,0.00983855,0.039587,1105,386,8.93432,60.9779
-112,638,8.93787,-61.6471,-0.00635333,0.00659649,-0.0045849,0.00805542,-0.00781226,-1.26272,0.00916157,0.02743,1112,386,8.93783,61.6471
-105,638,8.85388,-62.3001,-0.00617435,0.00605788,-0.00411897,0.00731556,-0.00743202,-1.27445,0.00851461,0.0197064,1119,386,8.85384,62.3001
-98,638,8.771,-62.8869,-0.00613187,0.00550671,-0.00355861,0.00650855,-0.00713372,-1.29637,0.00787912,0.0180934,1126,386,8.77095,62.8869
-91,638,8.67798,-63.4486,-0.00605194,0.00506979,-0.00310368,0.00587728,-0.00685944,-1.31626,0.00736083,0.0132251,1133,386,8.67792,63.4486
-84,638,8.62744,-63.9945,-0.00577617,0.0046675,-0.00270664,0.00532728,-0.00643596,-1.33169,0.00680156,0.0147477,1140,386,8.62744,63.9945
-77,638,8.56641,-64.5219,-0.00546839,0.00459245,-0.00236617,0.00512115,-0.00599709,-1.35096,0.00642576,0.0141082,1147,386,8.56642,64.5219
-70,638,8.51294,-65.0151,-0.00532045,0.0048251,-0.00206865,0.00523067,-0.00572603,-1.37719,0.00632801,0.0157017,1154,386,8.5129,65.0151
-63,638,8.48401,-65.5098,-0.00411174,0.00632733,-0.00249883,0.00689465,-0.00467906,-1.34755,0.00672277,0.0144564,1161,386,8.48396,65.5098
-56,638,8.46729,-65.9594,-0.00283403,0.00723676,-0.00285377,0.00798921,-0.00358648,-1.31299,0.00684247,0.0160168,1168,386,8.46727,65.9594
-49,638,8.42957,-66.3822,-0.00176276,0.0077268,-0.00297121,0.00858033,-0.00261629,-1.29106,0.00676315,0.0128384,1175,386,8.42955,66.3822
-42,638,8.38989,-66.7665,-0.000964547,0.00802415,-0.00290088,0.00887903,-0.00181943,-1.28421,0.00660983,0.0116653,1182,386,8.38992,66.7665
-35,638,8.34351,-67.1774,-0.000277391,0.00842406,-0.00282362,0.00926002,-0.00111335,-1.28296,0.00657595,0.0119415,1189,386,8.34351,67.1774
-28,638,8.29895,-67.5769,0.000345054,0.0085873,-0.0027578,0.00942492,-0.000492564,-1.27592,0.00645374,0.012062,1196,386,8.29899,67.5769
-21,638,8.26135,-67.8952,0.000866387,0.00870588,-0.0027219,0.00955826,1.40085e-05,-1.26731,0.00636751,0.012868,1203,386,8.26137,67.8952
-14,638,8.24902,-68.2408,0.00119843,0.00871431,-0.00267155,0.00956715,0.000345594,-1.26179,0.00626608,0.0121047,1210,386,8.24899,68.2409
-7,638,8.2843,-68.5758,0.00139427,0.00856843,-0.00272856,0.00948825,0.000474443,-1.24565,0.00617343,0.0183836,1217,386,8.28429,68.5758
0,638,8.27917,-68.8192,0.00141305,0.00814231,-0.0027564,0.00912722,0.000428146,-1.22762,0.00594724,0.0357586,1224,386,8.27915,68.8191
7,638,8.22388,-69.0173,0.00118984,0.00780995,-0.00278243,0.00882405,0.000175736,-1.22129,0.00582501,0.0263943,1231,386,8.22383,69.0173
14,638,8.20837,-69.1883,0.000896914,0.00735807,-0.00273959,0.00836329,-0.000108307,-1.21912,0.00561198,0.0140581,1238,386,8.2084,69.1883
21,638,8.22522,-69.3867,0.000690687,0.00687405,-0.00260374,0.00782439,-0.000259654,-1.22083,0.00530493,0.0129718,1245,386,8.2252,69.3867
28,638,8.22632,-69.5358,0.000701691,0.00625054,-0.00242199,0.00715898,-0.000206746,-1.21196,0.00484304,0.0101381,1252,386,8.22634,69.5358
35,638,8.21204,-69.6623,0.000886506,0.0060704,-0.00221344,0.0068869,7.00096e-05,-1.2174,0.00456811,0.0113898,1259,386,8.21204,69.6623
42,638,8.23401,-69.7718,0.000945222,0.00571108,-0.00181499,0.00632357,0.000332733,-1.24533,0.0041093,0.0111211,1266,386,8.23399,69.7718
49,638,8.26855,-69.8264,0.00121751,0.00575912,-0.001444,0.00617935,0.000797279,-1.2876,0.0038812,0.0097984,1273,386,8.26856,69.8264
56,638,8.25415,-69.866,0.00164419,0.00590078,-0.00109221,0.00616468,0.0013803,-1.33373,0.00373568,0.0125114,1280,386,8.25413,69.866
63,638,8.23096,-69.9054,0.00241781,0.0062796,-0.000590079,0.00636775,0.00232965,-1.4225,0.00372027,0.0154841,1287,386,8.23097,69.9054
70,638,8.21436,-69.8876,0.00320087,0.00660089,-2.24936e-05,0.00660104,0.00320072,-1.56418,0.00381169,0.0204314,1294,386,8.21441,69.8876
77,638,8.23877,-69.8317,0.00378442,0.0071962,0.000559985,0.00728576,0.00369486,1.4122,0.00420658,0.019916,1301,386,8.23882,69.8317
84,638,8.28076,-69.77,0.00400528,0.00728012,0.00129102,0.00772785,0.00355755,1.23697,0.00446635,0.0145572,1308,386,8.2808,69.77
91,638,8.28052,-69.6837,0.00381971,0.00710732,0.00211062,0.00813873,0.0027883,1.11625,0.00477588,0.0160234,1315,386,8.28046,69.6838
98,638,8.26245,-69.55,0.00338649,0.00684475,0.00313751,0.00869806,0.00153318,1.03725,0.00536123,0.0131068,1322,386,8.26246,69.55
105,638,8.23242,-69.4177,0.00298982,0.00676661,0.00401208,0.00931249,0.000443942,1.00536,0.00606577,0.0105745,1329,386,8.23238,69.4177
112,638,8.21704,-69.2297,0.00254163,0.00654728,0.00478051,0.00972756,-0.000638649,0.983768,0.00670807,0.0106395,1336,386,8.21699,69.2297
119,638,8.22009,-68.9969,0.0017641,0.00616512,0.00551844,0.00990561,-0.00197639,0.975115,0.00735163,0.0119151,1343,386,8.22013,68.9969
126,638,8.20984,-68.754,0.000808796,0.00593051,0.00606363,0.00995188,-0.00321257,0.985202,0.00792553,0.0153374,1350,386,8.20983,68.754
133,638,8.18323,-68.5163,-0.00029134,0.00586406,0.00653937,0.0100138,-0.00444106,1.00534,0.00854974,0.0161584,1357,386,8.18328,68.5163
140,638,8.16321,-68.2234,-0.00122922,0.00544223,0.00680387,0.00968409,-0.00547108,1.01331,0.00886182,0.0171605,1364,386,8.16326,68.2234
147,638,8.14734,-67.8959,-0.00191356,0.00570471,0.0069485,0.00981967,-0.00602851,1.03613,0.0092368,0.0192531,1371,386,8.14739,67.8959
154,638,8.14124,-67.5606,-0.0024275,0.0060511,0.0068871,0.00989906,-0.00627546,1.06128,0.00941616,0.0173816,1378,386,8.14118,67.5606
161,638,8.12671,-67.1704,-0.00271449,0.00682476,0.00677015,0.0103367,-0.00622643,1.09227,0.00966038,0.0204723,1385,386,8.12671,67.1704
168,638,8.10498,-66.7543,-0.00329927,0.00736539,0.00631325,0.0102969,-0.00623076,1.13608,0.00963803,0.0256254,1392,386,8.10493,66.7543
175,638,8.10437,-66.3518,-0.00382907,0.00817032,0.00598898,0.0106479,-0.00630666,1.17854,0.0098951,0.0194332,1399,386,8.10442,66.3518
182,638,8.02637,-65.8984,-0.0040257,0.0089332,0.0058809,0.0112041,-0.00629658,1.20229,0.0102356,0.0127563,1406,386,8.02635,65.8984
189,638,7.9917,-65.3849,-0.00376265,0.00993185,0.00542536,0.0118207,-0.0056515,1.23577,0.010295,0.0120814,1413,386,7.99176,65.3848
196,638,7.92688,-64.8948,-0.00352563,0.0106321,0.00484308,0.0121302,-0.00502382,1.27079,0.0101832,0.0154479,1420,386,7.92693,64.8948
203,638,7.87231,-64.4199,-0.00360529,0.0111005,0.00413304,0.0121824,-0.00468727,1.31475,0.0100551,0.0224487,1427,386,7.87235,64.4199
210,638,7.84387,-63.9287,-0.00386898,0.0108962,0.0043431,0.0120789,-0.00505175,1.30491,0.010164,0.0181766,1434,386,7.84383,63.9287
217,638,7.80115,-63.3501,-0.00390425,0.0106321,0.0043496,0.0118342,-0.00510634,1.30116,0.0100345,0.0132382,1441,386,7.80109,63.3501
224,638,7.74231,-62.7364,-0.00385104,0.0110566,0.00438816,0.0122523,-0.00504681,1.30476,0.0102724,0.0119717,1448,386,7.7423,62.7364
231,638,7.63464,-62.1205,-0.00368239,0.0114659,0.00470233,0.0128069,-0.00502338,1.29299,0.0106162,0.0134644,1455,386,7.63467,62.1205
238,638,7.55066,-61.5231,-0.00339847,0.0128032,0.00554122,0.0145171,-0.00511235,1.27083,0.0117586,0.0173232,1462,386,7.55065,61.5231
245,638,7.51843,-60.8249,-0.00323029,0.0140468,0.006145,0.0160094,-0.00519295,1.26165,0.0127611,0.0363644,1469,386,7.51843,60.8249
252,638,7.37781,-60.2419,0,0,0,0,0,0,0,-1,1476,386,7.37776,60.2419
259,638,7.28796,-59.5091,0,0,0,0,0,0,0,-1,1483,386,7.28799,59.5091
266,638,7.22998,-58.8676,-0.000884762,0.0197521,0.0100325,0.0238253,-0.00495802,1.18512,0.0177683,0.0360774,1490,386,7.23003,58.8676
273,638,7.19666,-58.1908,4.70237e-05,0.0220734,0.011735,0.0271537,-0.00503327,1.16224,0.0199925,0.0163133,1497,386,7.19665,58.1908
280,638,7.24243,-57.4334,0.00116157,0.024667,0.013598,0.0308874,-0.00505881,1.14177,0.0224685,0.024514,1504,386,7.24249,57.4334
287,638,7.24866,-56.4243,0.00237593,0.027715,0.0157055,0.0352242,-0.00513322,1.1248,0.0253676,0.0467208,1511,386,7.24867,56.4243
294,638,7.14441,-55.5637,0,0,0,0,0,0,0,-1,1518,386,7.1444,55.5637
301,638,6.77051,-54.9463,0,0,0,0,0,0,0,-1,1525,386,6.7705,54.9463
308,638,7.19995,-53.5489,0,0,0,0,0,0,0,-1,1532,386,7.19994,53.5489
315,638,3.3927,-28.2032,0,0,0,0,0,0,0,-1,1539,386,3.39269,28.2032
322,638,6.1698,-44.6835,0,0,0,0,0,0,0,-1,1546,386,6.16984,44.6835
329,638,6.06885,-44.2856,0,0,0,0,0,0,0,-1,1553,386,6.06881,44.2855
336,638,5.15234,-38.1966,0,0,0,0,0,0,0,-1,1560,386,5.15238,38.1966
343,638,4.8208,-37.2159,0,0,0,0,0,0,0,-1,1567,386,4.82078,37.2159
350,638,4.35254,-37.1565,0,0,0,0,0,0,0,-1,1574,386,4.35259,37.1565
357,638,0.387329,-3.01077,0,0,0,0,0,0,0,-1,1581,386,0.387332,3.01077
364,638,3.78149,-6.45215,0,0,0,0,0,0,0,-1,1588,386,3.78155,6.45216
371,638,4.18604,-6.71164,0,0,0,0,0,0,0,-1,1595,386,4.18598,6.71164
378,638,4.59045,-6.97113,0,0,0,0,0,0,0,-1,1602,386,4.5904,6.97112
385,638,0,0,0,0,0,0,0,0,0,-1,1609,386,0,0
392,638,0,0,0,0,0,0,0,0,0,-1,1616,386,0,0
399,638,0,0,0,0,0,0,0,0,0,-1,1623,386,0,0
406,638,0,0,0,0,0,0,0,0,0,-1,1630,386,0,0
413,638,0,0,0,0,0,0,0,0,0,-1,1637,386,0,0
420,638,0,0,0,0,0,0,0,0,0,-1,1644,386,0,0
427,638,0,0,0,0,0,0,0,0,0,-1,1651,386,0,0
434,638,0,0,0,0,0,0,0,0,0,-1,1658,386,0,0
441,638,0,0,0,0,0,0,0,0,0,-1,1665,386,0,0
448,638,0,0,0,0,0,0,0,0,0,-1,1672,386,0,0
455,638,0,0,0,0,0,0,0,0,0,-1,1679,386,0,0
462,638,0,0,0,0,0,0,0,0,0,-1,1686,386,0,0
469,638,0,0,0,0,0,0,0,0,0,-1,1693,386,0,0
476,638,0,0,0,0,0,0,0,0,0,-1,1700,386,0,0
483,638,0,0,0,0,0,0,0,0,0,-1,1707,386,0,0
490,638,0,0,0,0,0,0,0,0,0,-1,1714,386,0,0
497,638,0,0,0,0,0,0,0,0,0,-1,1721,386,0,0
504,638,0,0,0,0,0,0,0,0,0,-1,1728,386,0,0
511,638,0,0,0,0,0,0,0,0,0,-1,1735,386,0,0
518,638,0,0,0,0,0,0,0,0,0,-1,1742,386,0,0
525,638,0,0,0,0,0,0,0,0,0,-1,1749,386,0,0
532,638,0,0,0,0,0,0,0,0,0,-1,1756,386,0,0
539,638,0,0,0,0,0,0,0,0,0,-1,1763,386,0,0
546,638,0,0,0,0,0,0,0,0,0,-1,1770,386,0,0
553,638,0,0,0,0,0,0,0,0,0,-1,1777,386,0,0
560,638,0,0,0,0,0,0,0,0,0,-1,1784,386,0,0
567,638,0,0,0,0,0,0,0,0,0,-1,1791,386,0,0
574,638,0,0,0,0,0,0,0,0,0,-1,1798,386,0,0
581,638,0,0,0,0,0,0,0,0,0,-1,1805,386,0,0
588,638,0,0,0,0,0,0,0,0,0,-1,1812,386,0,0
595,638,0,0,0,0,0,0,0,0,0,-1,1819,386,0,0
602,638,0,0,0,0,0,0,0,0,0,-1,1826,386,0,0
609,638,0,0,0,0,0,0,0,0,0,-1,1833,386,0,0
616,638,0,0,0,0,0,0,0,0,0,-1,1840,386,0,0
623,638,0,0,0,0,0,0,0,0,0,-1,1847,386,0,0
630,638,0,0,0,0,0,0,0,0,0,-1,1854,386,0,0
637,638,0,0,0,0,0,0,0,0,0,-1,1861,386,0,0
644,638,0,0,0,0,0,0,0,0,0,-1,1868,386,0,0
651,638,0,0,0,0,0,0,0,0,0,-1,1875,386,0,0
658,638,0,0,0,0,0,0,0,0,0,-1,1882,386,0,0
665,638,0,0,0,0,0,0,0,0,0,-1,1889,386,0,0
672,638,0,0,0,0,0,0,0,0,0,-1,1896,386,0,0
679,638,0,0,0,0,0,0,0,0,0,-1,1903,386,0,0
686,638,0,0,0,0,0,0,0,0,0,-1,1910,386,0,0
693,638,0,0,0,0,0,0,0,0,0,-1,1917,386,0,0
700,638,0,0,0,0,0,0,0,0,0,-1,1924,386,0,0
707,638,0,0,0,0,0,0,0,0,0,-1,1931,386,0,0
714,638,0,0,0,0,0,0,0,0,0,-1,1938,386,0,0
721,638,0,0,0,0,0,0,0,0,0,-1,1945,386,0,0
728,638,0,0,0,0,0,0,0,0,0,-1,1952,386,0,0
735,638,0,0,0,0,0,0,0,0,0,-1,1959,386,0,0
742,638,0,0,0,0,0,0,0,0,0,-1,1966,386,0,0
749,638,0,0,0,0,0,0,0,0,0,-1,1973,386,0,0
756,638,0,0,0,0,0,0,0,0,0,-1,1980,386,0,0
763,638,0,0,0,0,0,0,0,0,0,-1,1987,386,0,0
770,638,0,0,0,0,0,0,0,0,0,-1,1994,386,0,0
777,638,0,0,0,0,0,0,0,0,0,-1,2001,386,0,0
784,638,0,0,0,0,0,0,0,0,0,-1,2008,386,0,0
791,638,0,0,0,0,0,0,0,0,0,-1,2015,386,0,0
798,638,0,0,0,0,0,0,0,0,0,-1,2022,386,0,0
805,638,0,0,0,0,0,0,0,0,0,-1,2029,386,0,0
812,638,0,0,0,0,0,0,0,0,0,-1,2036,386,0,0
-700,631,0,0,0,0,0,0,0,0,0,-1,524,393,0,0
-693,631,0,0,0,0,0,0,0,0,0,-1,531,393,0,0
-686,631,0,0,0,0,0,0,0,0,0,-1,538,393,0,0
-679,631,0,0,0,0,0,0,0,0,0,-1,545,393,0,0
-672,631,0,0,0,0,0,0,0,0,0,-1,552,393,0,0
-665,631,0,0,0,0,0,0,0,0,0,-1,559,393,0,0
-658,631,0,0,0,0,0,0,0,0,0,-1,566,393,0,0
-651,631,0,0,0,0,0,0,0,0,0,-1,573,393,0,0
-644,631,0,0,0,0,0,0,0,0,0,-1,580,393,0,0
-637,631,0,0,0,0,0,0,0,0,0,-1,587,393,0,0
-630,631,0,0,0,0,0,0,0,0,0,-1,594,393,0,0
-623,631,0,0,0,0,0,0,0,0,0,-1,601,393,0,0
-616,631,0,0,0,0,0,0,0,0,0,-1,608,393,0,0
-609,631,0,0,0,0,0,0,0,0,0,-1,615,393,0,0
-602,631,0,0,0,0,0,0,0,0,0,-1,622,393,0,0
-595,631,0,0,0,0,0,0,0,0,0,-1,629,393,0,0
-588,631,0,0,0,0,0,0,0,0,0,-1,636,393,0,0
-581,631,0,0,0,0,0,0,0,0,0,-1,643,393,0,0
-574,631,0,0,0,0,0,0,0,0,0,-1,650,393,0,0
-567,631,0,0,0,0,0,0,0,0,0,-1,657,393,0,0
-560,631,0,0,0,0,0,0,0,0,0,-1,664,393,0,0
-553,631,0,0,0,0,0,0,0,0,0,-1,671,393,0,0
-546,631,0,0,0,0,0,0,0,0,0,-1,678,393,0,0
-539,631,0,0,0,0,0,0,0,0,0,-1,685,393,0,0
-532,631,0,0,0,0,0,0,0,0,0,-1,692,393,0,0
-525,631,0,0,0,0,0,0,0,0,0,-1,699,393,0,0
-518,631,0,0,0,0,0,0,0,0,0,-1,706,393,0,0
-511,631,0,0,0,0,0,0,0,0,0,-1,713,393,0,0
-504,631,0,0,0,0,0,0,0,0,0,-1,720,393,0,0
-497,631,0,0,0,0,0,0,0,0,0,-1,727,393,0,0
-490,631,0,0,0,0,0,0,0,0,0,-1,734,393,0,0
-483,631,0,0,0,0,0,0,0,0,0,-1,741,393,0,0
-476,631,0,0,0,0,0,0,0,0,0,-1,748,393,0,0
-469,631,0,0,0,0,0,0,0,0,0,-1,755,393,0,0
-462,631,0,0,0,0,0,0,0,0,0,-1,762,393,0,0
-455,631,0,0,0,0,0,0,0,0,0,-1,769,393,0,0
-448,631,0,0,0,0,0,0,0,0,0,-1,776,393,0,0
-441,631,0,0,0,0,0,0,0,0,0,-1,783,393,0,0
-434,631,0,0,0,0,0,0,0,0,0,-1,790,393,0,0
-427,631,0,0,0,0,0,0,0,0,0,-1,797,393,0,0
-420,631,0,0,0,0,0,0,0,0,0,-1,804,393,0,0
-413,631,0,0,0,0,0,0,0,0,0,-1,811,393,0,0
-406,631,0,0,0,0,0,0,0,0,0,-1,818,393,0,0
-399,631,0,0,0,0,0,0,0,0,0,-1,825,393,0,0
-392,631,0,0,0,0,0,0,0,0,0,-1,832,393,0,0
-385,631,0,0,0,0,0,0,0,0,0,-1,839,393,0,0
-378,631,0,0,0,0,0,0,0,0,0,-1,846,393,0,0
-371,631,0,0,0,0,0,0,0,0,0,-1,853,393,0,0
-364,631,0,0,0,0,0,0,0,0,0,-1,860,393,0,0
-357,631,0,0,0,0,0,0,0,0,0,-1,867,393,0,0
-350,631,0,0,0,0,0,0,0,0,0,-1,874,393,0,0
-343,631,0,0,0,0,0,0,0,0,0,-1,881,393,0,0
-336,631,0,0,0,0,0,0,0,0,0,-1,888,393,0,0
-329,631,0,0,0,0,0,0,0,0,0,-1,895,393,0,0
-322,631,0,0,0,0,0,0,0,0,0,-1,902,393,0,0
-315,631,0,0,0,0,0,0,0,0,0,-1,909,393,0,0
-308,631,0,0,0,0,0,0,0,0,0,-1,916,393,0,0
-301,631,0,0,0,0,0,0,0,0,0,-1,923,393,0,0
-294,631,0,0,0,0,0,0,0,0,0,-1,930,393,0,0
-287,631,0,0,0,0,0,0,0,0,0,-1,937,393,0,0
-280,631,7.71283,-34.969,0,0,0,0,0,0,0,-1,944,393,7.71282,34.969
-273,631,8.04437,-34.934,0,0,0,0,0,0,0,-1,951,393,8.04436,34.9339
-266,631,8.40277,-34.7584,0,0,0,0,0,0,0,-1,958,393,8.40275,34.7584
-259,631,8.56659,-34.037,0,0,0,0,0,0,0,-1,965,393,8.56662,34.037
-252,631,8.44446,-33.2643,0,0,0,0,0,0,0,-1,972,393,8.44445,33.2644
-245,631,8.34705,-32.527,0,0,0,0,0,0,0,-1,979,393,8.34704,32.527
-238,631,8.41888,-31.8855,0,0,0,0,0,0,0,-1,986,393,8.41887,31.8855
-231,631,2.14966,-25.2306,0,0,0,0,0,0,0,-1,993,393,2.14968,25.2306
-224,631,6.83575,-19.7909,0,0,0,0,0,0,0,-1,1000,393,6.83575,19.7909
-217,631,5.05188,-18.3867,0,0,0,0,0,0,0,-1,1007,393,5.0519,18.3866
-210,631,3.37842,-26.3769,0,0,0,0,0,0,0,-1,1014,393,3.37839,26.3769
-203,631,8.59509,-47.1953,0,0,0,0,0,0,0,-1,1021,393,8.5951,47.1954
-196,631,8.51001,-47.9163,0,0,0,0,0,0,0,-1,1028,393,8.50997,47.9163
-189,631,6.57983,-42.4494,0,0,0,0,0,0,0,-1,1035,393,6.57983,42.4494
-182,631,8.0531,-47.8031,0,0,0,0,0,0,0,-1,1042,393,8.05311,47.8031
-175,631,8.85547,-55.0128,0,0,0,0,0,0,0,-1,1049,393,8.85542,55.0128
-168,631,8.97217,-56.213,0,0,0,0,0,0,0,-1,1056,393,8.97216,56.213
-161,631,8.82568,-56.9991,-0.00506067,0.0115846,-0.00764292,0.0145615,-0.00803762,-1.19937,0.0132276,0.024581,1063,393,8.82568,56.9991
-154,631,8.71069,-57.776,-0.00501023,0.0103991,-0.00694171,0.013065,-0.00767617,-1.20412,0.0121089,0.0214167,1070,393,8.71065,57.776
-147,631,8.66248,-58.4452,-0.00498661,0.00924373,-0.00623473,0.0115889,-0.00733175,-1.21103,0.0110156,0.0174718,1077,393,8.6625,58.4452
-140,631,8.61902,-59.1396,-0.0047837,0.00816182,-0.00567757,0.010299,-0.0069209,-1.21077,0.0100055,0.0119627,1084,393,8.61905,59.1396
-133,631,8.52002,-59.8118,-0.00452209,0.00736573,-0.00516921,0.00929905,-0.00645542,-1.2129,0.0091451,0.009233,1091,393,8.52005,59.8118
-126,631,8.46826,-60.432,-0.00442655,0.00660401,-0.00459292,0.008266,-0.00608854,-1.2236,0.00831932,0.0142361,1098,393,8.4683,60.432
-119,631,8.40857,-61.046,-0.00433047,0.00561307,-0.00401544,0.00703209,-0.00574949,-1.2311,0.00739183,0.017696,1105,393,8.40856,61.046
-112,631,8.33813,-61.6906,-0.00405339,0.00503732,-0.00363486,0.00631198,-0.00532805,-1.23352,0.00672837,0.0156002,1112,393,8.33808,61.6906
-105,631,8.33508,-62.3051,-0.00375749,0.00456418,-0.00325764,0.00568774,-0.00488104,-1.23867,0.00610781,0.0190603,1119,393,8.33505,62.3051
-98,631,8.26758,-62.8859,-0.00356178,0.0041106,-0.00283064,0.00504189,-0.00449307,-1.25295,0.00550805,0.0165625,1126,393,8.26757,62.8859
-91,631,8.19495,-63.4531,-0.003331,0.00374227,-0.00246512,0.00451662,-0.00410535,-1.26643,0.00497979,0.0175892,1133,393,8.19491,63.4531
-84,631,8.15662,-64.0096,-0.0029684,0.00338377,-0.00213501,0.00403467,-0.00361929,-1.27488,0.00442119,0.017235,1140,393,8.15666,64.0097
-77,631,8.08179,-64.527,-0.00257677,0.00319516,-0.00183655,0.00372996,-0.00311158,-1.28743,0.00395534,0.014008,1147,393,8.08176,64.527
-70,631,8.06177,-65.0167,-0.00224645,0.00311603,-0.00153895,0.00352629,-0.00265671,-1.31027,0.00358151,0.017123,1154,393,8.06179,65.0167
-63,631,8.06104,-65.5238,-0.00166197,0.00334276,-0.00136205,0.00368943,-0.00200865,-1.32157,0.00333716,0.0163041,1161,393,8.06104,65.5238
-56,631,8.01123,-66.019,-0.00103629,0.00328924,-0.00125641,0.0036277,-0.00137475,-1.30766,0.0029842,0.0157654,1168,393,8.01124,66.019
-49,631,7.99829,-66.4135,-0.000484585,0.00299301,-0.00109416,0.00330862,-0.000800196,-1.28997,0.00251527,0.0112903,1175,393,7.99831,66.4135
-42,631,7.99951,-66.7946,0.000167772,0.00259917,-0.000927299,0.00291246,-0.000145518,-1.24498,0.00199192,0.00972836,1182,393,7.9995,66.7946
-35,631,7.98279,-67.1741,0.000795125,0.00228036,-0.000826352,0.00264875,0.000426735,-1.15144,0.00164217,0.0110262,1189,393,7.98279,67.1741
-28,631,7.98193,-67.5551,0.00138088,0.00168745,-0.000798422,0.00234717,0.000721161,-0.880238,0.0013883,0.0137186,1196,393,7.98199,67.555
-21,631,7.94836,-67.8989,0.00197746,0.00107097,-0.000819266,0.0024605,0.000587931,-0.532737,0.00148371,0.0119244,1203,393,7.94837,67.8989
-14,631,7.93091,-68.2167,0.00244927,0.000487599,-0.000855701,0.00277007,0.000166796,-0.358684,0.0017937,0.0145894,1210,393,7.93096,68.2167
-7,631,8.0249,-68.5558,0.00283333,-0.000386227,-0.000939857,0.00308762,-0.000640508,-0.264227,0.00230181,0.0235793,1217,393,8.02485,68.5558
0,631,8.02087,-68.8112,0.00301491,-0.00131846,-0.00107084,0.00326509,-0.00156864,-0.229509,0.00284747,0.0274191,1224,393,8.02087,68.8112
7,631,8.00818,-69.0159,0.00286873,-0.00202313,-0.00125611,0.00317242,-0.00232681,-0.237214,0.00318747,0.0211599,1231,393,8.00822,69.0159
14,631,8.05066,-69.2286,0.00272431,-0.00270819,-0.00133664,0.00303537,-0.00301925,-0.228651,0.00349564,0.0118439,1238,393,8.05063,69.2286
21,631,8.06152,-69.3826,0.00276227,-0.00336712,-0.001323,0.00303564,-0.00364049,-0.203762,0.00385973,0.0154047,1245,393,8.06153,69.3826
28,631,8.04504,-69.4928,0.00300484,-0.00395388,-0.00125713,0.00322499,-0.00417402,-0.173358,0.00428352,0.0175919,1252,393,8.045,69.4928
35,631,8.10046,-69.6354,0.00332825,-0.00423633,-0.00122604,0.003522,-0.00443008,-0.156733,0.00460111,0.0159223,1259,393,8.10043,69.6354
42,631,8.16846,-69.7582,0.0037496,-0.00431109,-0.00104133,0.00388195,-0.00444344,-0.126422,0.00481031,0.0136277,1266,393,8.16846,69.7582
49,631,8.19971,-69.8314,0.00446302,-0.0040961,-0.000954551,0.00456819,-0.00420126,-0.109728,0.00506452,0.0119783,1273,393,8.19975,69.8314
56,631,8.22961,-69.9155,0.00520996,-0.00374862,-0.000840639,0.00528816,-0.00382682,-0.0927572,0.00528503,0.0142337,1280,393,8.22962,69.9155
63,631,8.22742,-69.9695,0.005985,-0.00328198,-0.000820861,0.00605715,-0.00335413,-0.0876696,0.0055078,0.0170968,1287,393,8.22746,69.9695
70,631,8.23108,-69.9141,0.00675475,-0.00270542,-0.000757053,0.00681495,-0.00276562,-0.0793523,0.00569366,0.0177861,1294,393,8.23106,69.9141
77,631,8.27954,-69.8441,0.00739989,-0.00187844,-0.00064276,0.00744421,-0.00192276,-0.0688371,0.00571263,0.0171704,1301,393,8.27948,69.8441
84,631,8.32776,-69.7829,0.00770228,-0.00138651,-0.000579186,0.00773904,-0.00142327,-0.0633836,0.00569339,0.0143069,1308,393,8.32777,69.7829
91,631,8.35474,-69.6854,0.0075746,-0.00116251,-0.000545702,0.00760855,-0.00119646,-0.0621362,0.00551462,0.0176611,1315,393,8.3547,69.6854
98,631,8.39417,-69.5642,0.00715374,-0.000835053,-0.000414836,0.00717522,-0.000856536,-0.0517417,0.00509306,0.0136783,1322,393,8.39413,69.5642
105,631,8.38513,-69.4225,0.00673804,-0.000483476,-0.000258724,0.0067473,-0.000492733,-0.0357657,0.00467111,0.0113178,1329,393,8.38516,69.4225
112,631,8.41028,-69.2591,0.00633496,-0.000317017,-0.000110853,0.00633681,-0.000318864,-0.0166585,0.00433474,0.012823,1336,393,8.41031,69.2591
119,631,8.41968,-69.0513,0.00542274,-0.000284468,7.36648e-06,0.00542275,-0.000284477,0.00129073,0.00371363,0.0128217,1343,393,8.41969,69.0513
126,631,8.42529,-68.7921,0.00435935,-1.79374e-05,7.74419e-05,0.00436072,-1.93068e-05,0.0176844,0.00291361,0.0167316,1350,393,8.42524,68.7921
133,631,8.44385,-68.5384,0.00326982,0.000339829,0.000229401,0.00328767,0.000321977,0.0776635,0.00209273,0.0188339,1357,393,8.44387,68.5384
140,631,8.45068,-68.249,0.00242832,0.000627332,0.000528714,0.00257206,0.00048359,0.265455,0.0015784,0.0212241,1364,393,8.45071,68.249
147,631,8.42163,-67.8843,0.00173135,0.0011643,0.000802432,0.00229887,0.000596775,0.615578,0.00137744,0.0240869,1371,393,8.42158,67.8843
154,631,8.4574,-67.5019,0.00121349,0.00176124,0.00105896,0.00258116,0.000393565,0.911939,0.00160574,0.0233715,1378,393,8.45741,67.5018
161,631,8.52173,-67.1575,0.000952306,0.00260673,0.00133291,0.00334825,0.000210781,1.06311,0.00216533,0.025852,1385,393,8.52177,67.1575
168,631,8.51611,-66.8026,0.000569758,0.00349294,0.00162045,0.00421357,-0.000150874,1.15235,0.00286066,0.0298574,1392,393,8.51608,66.8026
175,631,8.48767,-66.4113,0.000135555,0.00431539,0.00188857,0.00504229,-0.00059134,1.20338,0.00357498,0.0218219,1399,393,8.48766,66.4114
182,631,8.46216,-65.9328,-0.000367166,0.0051108,0.00213733,0.00584604,-0.0011024,1.23948,0.00431206,0.0115374,1406,393,8.46217,65.9328
189,631,8.44653,-65.4219,-0.000703927,0.00595428,0.00235896,0.00670533,-0.00145498,1.26256,0.00502591,0.0114464,1413,393,8.44652,65.422
196,631,8.38721,-64.9206,-0.000944194,0.00668689,0.00256116,0.00746677,-0.00172407,1.27521,0.00564106,0.0126645,1420,393,8.38715,64.9206
203,631,8.38306,-64.4257,-0.00133626,0.00724716,0.00266763,0.00800867,-0.00209777,1.29273,0.00615864,0.014716,1427,393,8.38301,64.4257
210,631,8.35632,-63.9214,-0.00177231,0.00747673,0.0029597,0.00834275,-0.00263833,1.28614,0.00661894,0.0160542,1434,393,8.35635,63.9214
217,631,8.328,-63.3973,-0.00200814,0.00763768,0.00312475,0.00856147,-0.00293193,1.28335,0.00689594,0.0167351,1441,393,8.32798,63.3973
224,631,8.29211,-62.8081,-0.00211636,0.00811548,0.00328773,0.00908082,-0.0030817,1.2852,0.00730122,0.0137124,1448,393,8.29215,62.8081
231,631,8.20764,-62.1982,-0.00212619,0.00855658,0.0036169,0.00966596,-0.00323557,1.27319,0.00775098,0.0114579,1455,393,8.20765,62.1981
238,631,8.14868,-61.5655,-0.00204714,0.00961218,0.0042929,0.0110223,-0.00345723,1.25343,0.00873179,0.0175891,1462,393,8.14865,61.5655
245,631,8.10974,-60.9424,-0.00203577,0.010597,0.00480887,0.0122192,-0.00365802,1.24544,0.00960067,0.0197095,1469,393,8.10968,60.9424
252,631,8.01514,-60.3008,-0.00170805,0.0118174,0.00557421,0.0138186,-0.00370925,1.22612,0.010666,0.01994,1476,393,8.01517,60.3007
259,631,7.96704,-59.6351,-0.00110009,0.0137482,0.00687056,0.0164395,-0.00379141,1.19745,0.0124179,0.014334,1483,393,7.96709,59.6351
266,631,7.92151,-58.9745,-0.000746736,0.0152266,0.00796624,0.0185203,-0.00404049,1.17874,0.013891,0.0120362,1490,393,7.92156,58.9745
273,631,7.87634,-58.2664,-0.000206326,0.0170505,0.00928731,0.021099,-0.0042548,1.15972,0.0156779,0.0150202,1497,393,7.87635,58.2664
280,631,7.83643,-57.4801,0.000476914,0.019072,0.0107214,0.0239658,-0.00441681,1.1426,0.0176348,0.015213,1504,393,7.83642,57.4801
287,631,7.7384,-56.7476,0.00123769,0.0214086,0.0123222,0.0272465,-0.00460021,1.12835,0.019876,0.0176976,1511,393,7.73844,56.7476
294,631,7.63257,-55.9156,0.00186203,0.0236858,0.0138715,0.0304229,-0.00487513,1.11867,0.0220871,0.0225539,1518,393,7.63256,55.9156
301,631,7.51685,-55.0529,0.00250801,0.0258036,0.0153685,0.0334395,-0.00512791,1.10967,0.0241842,0.0351208,1525,393,7.51688,55.0529
308,631,7.7605,-53.9427,0.00327809,0.0284225,0.0168146,0.0368453,-0.00514476,1.10641,0.0264458,0.0474825,1532,393,7.76046,53.9427
315,631,7.59399,-53.5648,0,0,0,0,0,0,0,-1,1539,393,7.59398,53.5648
322,631,7.56873,-53.0746,0,0,0,0,0,0,0,-1,1546,393,7.56874,53.0746
329,631,5.70972,-38.2651,0,0,0,0,0,0,0,-1,1553,393,5.70967,38.2651
336,631,5.38281,-39.6306,0,0,0,0,0,0,0,-1,1560,393,5.38277,39.6306
343,631,6.21558,-38.7278,0,0,0,0,0,0,0,-1,1567,393,6.21558,38.7278
350,631,5.18359,-35.9677,0,0,0,0,0,0,0,-1,1574,393,5.18355,35.9677
357,631,2.6449,-9.60303,0,0,0,0,0,0,0,-1,1581,393,2.64491,9.60304
364,631,3.39136,-5.7594,0,0,0,0,0,0,0,-1,1588,393,3.39137,5.75939
371,631,3.72839,-6.0574,0,0,0,0,0,0,0,-1,1595,393,3.72845,6.05742
378,631,4.06555,-6.35544,0,0,0,0,0,0,0,-1,1602,393,4.06553,6.35544
385,631,3.90442,-3.58298,0,0,0,0,0,0,0,-1,1609,393,3.90437,3.58299
392,631,0.352295,-2.21301,0,0,0,0,0,0,0,-1,1616,393,0.352345,2.213
399,631,0,0,0,0,0,0,0,0,0,-1,1623,393,0,0
406,631,0,0,0,0,0,0,0,0,0,-1,1630,393,0,0
413,631,0,0,0,0,0,0,0,0,0,-1,1637,393,0,0
420,631,0,0,0,0,0,0,0,0,0,-1,1644,393,0,0
427,631,0,0,0,0,0,0,0,0,0,-1,1651,393,0,0
434,631,0,0,0,0,0,0,0,0,0,-1,1658,393,0,0
441,631,0,0,0,0,0,0,0,0,0,-1,1665,393,0,0
448,631,0,0,0,0,0,0,0,0,0,-1,1672,393,0,0
455,631,0,0,0,0,0,0,0,0,0,-1,1679,393,0,0
462,631,0,0,0,0,0,0,0,0,0,-1,1686,393,0,0
469,631,0,0,0,0,0,0,0,0,0,-1,1693,393,0,0
476,631,0,0,0,0,0,0,0,0,0,-1,1700,393,0,0
483,631,0,0,0,0,0,0,0,0,0,-1,1707,393,0,0
490,631,0,0,0,0,0,0,0,0,0,-1,1714,393,0,0
497,631,0,0,0,0,0,0,0,0,0,-1,1721,393,0,0
504,631,0,0,0,0,0,0,0,0,0,-1,1728,393,0,0
511,631,0,0,0,0,0,0,0,0,0,-1,1735,393,0,0
518,631,0,0,0,0,0,0,0,0,0,-1,1742,393,0,0
525,631,0,0,0,0,0,0,0,0,0,-1,1749,393,0,0
532,631,0,0,0,0,0,0,0,0,0,-1,1756,393,0,0
539,631,0,0,0,0,0,0,0,0,0,-1,1763,393,0,0
546,631,0,0,0,0,0,0,0,0,0,-1,1770,393,0,0
553,631,0,0,0,0,0,0,0,0,0,-1,1777,393,0,0
560,631,0,0,0,0,0,0,0,0,0,-1,1784,393,0,0
567,631,0,0,0,0,0,0,0,0,0,-1,1791,393,0,0
574,631,0,0,0,0,0,0,0,0,0,-1,1798,393,0,0
581,631,0,0,0,0,0,0,0,0,0,-1,1805,393,0,0
588,631,0,0,0,0,0,0,0,0,0,-1,1812,393,0,0
595,631,0,0,0,0,0,0,0,0,0,-1,1819,393,0,0
602,631,0,0,0,0,0,0,0,0,0,-1,1826,393,0,0
609,631,0,0,0,0,0,0,0,0,0,-1,1833,393,0,0
616,631,0,0,0,0,0,0,0,0,0,-1,1840,393,0,0
623,631,0,0,0,0,0,0,0,0,0,-1,1847,393,0,0
630,631,0,0,0,0,0,0,0,0,0,-1,1854,393,0,0
637,631,0,0,0,0,0,0,0,0,0,-1,1861,393,0,0
644,631,0,0,0,0,0,0,0,0,0,-1,1868,393,0,0
651,631,0,0,0,0,0,0,0,0,0,-1,1875,393,0,0
658,631,0,0,0,0,0,0,0,0,0,-1,1882,393,0,0
665,631,0,0,0,0,0,0,0,0,0,-1,1889,393,0,0
672,631,0,0,0,0,0,0,0,0,0,-1,1896,393,0,0
679,631,0,0,0,0,0,0,0,0,0,-1,1903,393,0,0
686,631,0,0,0,0,0,0,0,0,0,-1,1910,393,0,0
693,631,0,0,0,0,0,0,0,0,0,-1,1917,393,0,0
700,631,0,0,0,0,0,0,0,0,0,-1,1924,393,0,0
707,631,0,0,0,0,0,0,0,0,0,-1,1931,393,0,0
714,631,0,0,0,0,0,0,0,0,0,-1,1938,393,0,0
721,631,0,0,0,0,0,0,0,0,0,-1,1945,393,0,0
728,631,0,0,0,0,0,0,0,0,0,-1,1952,393,0,0
735,631,0,0,0,0,0,0,0,0,0,-1,1959,393,0,0
742,631,0,0,0,0,0,0,0,0,0,-1,1966,393,0,0
749,631,0,0,0,0,0,0,0,0,0,-1,1973,393,0,0
756,631,0,0,0,0,0,0,0,0,0,-1,1980,393,0,0
763,631,0,0,0,0,0,0,0,0,0,-1,1987,393,0,0
770,631,0,0,0,0,0,0,0,0,0,-1,1994,393,0,0
777,631,0,0,0,0,0,0,0,0,0,-1,2001,393,0,0
784,631,0,0,0,0,0,0,0,0,0,-1,2008,393,0,0
791,631,0,0,0,0,0,0,0,0,0,-1,2015,393,0,0
798,631,0,0,0,0,0,0,0,0,0,-1,2022,393,0,0
805,631,0,0,0,0,0,0,0,0,0,-1,2029,393,0,0
812,631,0,0,0,0,0,0,0,0,0,-1,2036,393,0,0
-700,624,0,0,0,0,0,0,0,0,0,-1,524,400,0,0
-693,624,0,0,0,0,0,0,0,0,0,-1,531,400,0,0
-686,624,0,0,0,0,0,0,0,0,0,-1,538,400,0,0
-679,624,0,0,0,0,0,0,0,0,0,-1,545,400,0,0
-672,624,0,0,0,0,0,0,0,0,0,-1,552,400,0,0
-665,624,0,0,0,0,0,0,0,0,0,-1,559,400,0,0
-658,624,0,0,0,0,0,0,0,0,0,-1,566,400,0,0
-651,624,0,0,0,0,0,0,0,0,0,-1,573,400,0,0
-644,624,0,0,0,0,0,0,0,0,0,-1,580,400,0,0
-637,624,0,0,0,0,0,0,0,0,0,-1,587,400,0,0
-630,624,0,0,0,0,0,0,0,0,0,-1,594,400,0,0
-623,624,0,0,0,0,0,0,0,0,0,-1,601,400,0,0
-616,624,0,0,0,0,0,0,0,0,0,-1,608,400,0,0
-609,624,0,0,0,0,0,0,0,0,0,-1,615,400,0,0
-602,624,0,0,0,0,0,0,0,0,0,-1,622,400,0,0
-595,624,0,0,0,0,0,0,0,0,0,-1,629,400,0,0
-588,624,0,0,0,0,0,0,0,0,0,-1,636,400,0,0
-581,624,0,0,0,0,0,0,0,0,0,-1,643,400,0,0
-574,624,0,0,0,0,0,0,0,0,0,-1,650,400,0,0
-567,624,0,0,0,0,0,0,0,0,0,-1,657,400,0,0
-560,624,0,0,0,0,0,0,0,0,0,-1,664,400,0,0
-553,624,0,0,0,0,0,0,0,0,0,-1,671,400,0,0
-546,624,0,0,0,0,0,0,0,0,0,-1,678,400,0,0
-539,624,0,0,0,0,0,0,0,0,0,-1,685,400,0,0
-532,624,0,0,0,0,0,0,0,0,0,-1,692,400,0,0
-525,624,0,0,0,0,0,0,0,0,0,-1,699,400,0,0
-518,624,0,0,0,0,0,0,0,0,0,-1,706,400,0,0
-511,624,0,0,0,0,0,0,0,0,0,-1,713,400,0,0
-504,624,0,0,0,0,0,0,0,0,0,-1,720,400,0,0
-497,624,0,0,0,0,0,0,0,0,0,-1,727,400,0,0
-490,624,0,0,0,0,0,0,0,0,0,-1,734,400,0,0
-483,624,0,0,0,0,0,0,0,0,0,-1,741,400,0,0
-476,624,0,0,0,0,0,0,0,0,0,-1,748,400,0,0
-469,624,0,0,0,0,0,0,0,0,0,-1,755,400,0,0
-462,624,0,0,0,0,0,0,0,0,0,-1,762,400,0,0
-455,624,0,0,0,0,0,0,0,0,0,-1,769,400,0,0
-448,624,0,0,0,0,0,0,0,0,0,-1,776,400,0,0
-441,624,0,0,0,0,0,0,0,0,0,-1,783,400,0,0
-434,624,0,0,0,0,0,0,0,0,0,-1,790,400,0,0
-427,624,0,0,0,0,0,0,0,0,0,-1,797,400,0,0
-420,624,0,0,0,0,0,0,0,0,0,-1,804,400,0,0
-413,624,0,0,0,0,0,0,0,0,0,-1,811,400,0,0
-406,624,0,0,0,0,0,0,0,0,0,-1,818,400,0,0
-399,624,0,0,0,0,0,0,0,0,0,-1,825,400,0,0
-392,624,0,0,0,0,0,0,0,0,0,-1,832,400,0,0
-385,624,0,0,0,0,0,0,0,0,0,-1,839,400,0,0
-378,624,0,0,0,0,0,0,0,0,0,-1,846,400,0,0
-371,624,0,0,0,0,0,0,0,0,0,-1,853,400,0,0
-364,624,0,0,0,0,0,0,0,0,0,-1,860,400,0,0
-357,624,0,0,0,0,0,0,0,0,0,-1,867,400,0,0
-350,624,0,0,0,0,0,0,0,0,0,-1,874,400,0,0
-343,624,0,0,0,0,0,0,0,0,0,-1,881,400,0,0
-336,624,0,0,0,0,0,0,0,0,0,-1,888,400,0,0
-329,624,0,0,0,0,0,0,0,0,0,-1,895,400,0,0
-322,624,0,0,0,0,0,0,0,0,0,-1,902,400,0,0
-315,624,0,0,0,0,0,0,0,0,0,-1,909,400,0,0
-308,624,0,0,0,0,0,0,0,0,0,-1,916,400,0,0
-301,624,0,0,0,0,0,0,0,0,0,-1,923,400,0,0
-294,624,5.08527,-28.5311,0,0,0,0,0,0,0,-1,930,400,5.08525,28.5311
-287,624,6.70825,-33.8,0,0,0,0,0,0,0,-1,937,400,6.70827,33.8
-280,624,6.92474,-33.8738,0,0,0,0,0,0,0,-1,944,400,6.92477,33.8739
-273,624,8.617,-37.3463,0,0,0,0,0,0,0,-1,951,400,8.61697,37.3463
-266,624,7.71747,-37.0599,0,0,0,0,0,0,0,-1,958,400,7.7175,37.0599
-259,624,7.33569,-33.1199,0,0,0,0,0,0,0,-1,965,400,7.33567,33.1199
-252,624,7.5528,-32.8158,0,0,0,0,0,0,0,-1,972,400,7.5528,32.8158
-245,624,6.8396,-32.02,0,0,0,0,0,0,0,-1,979,400,6.83963,32.02
-238,624,6.99402,-31.5278,0,0,0,0,0,0,0,-1,986,400,6.99404,31.5278
-231,624,3.86121,-29.6032,0,0,0,0,0,0,0,-1,993,400,3.86122,29.6032
-224,624,4.59351,-27.4048,0,0,0,0,0,0,0,-1,1000,400,4.59353,27.4048
-217,624,5.90167,-32.048,0,0,0,0,0,0,0,-1,1007,400,5.90167,32.048
-210,624,8.70972,-51.5523,0,0,0,0,0,0,0,-1,1014,400,8.7097,51.5524
-203,624,8.51697,-52.3274,0,0,0,0,0,0,0,-1,1021,400,8.51694,52.3274
-196,624,8.59033,-53.0091,0,0,0,0,0,0,0,-1,1028,400,8.59031,53.0091
-189,624,8.46326,-53.9555,0,0,0,0,0,0,0,-1,1035,400,8.46326,53.9555
-182,624,8.38074,-54.7846,0,0,0,0,0,0,0,-1,1042,400,8.38078,54.7846
-175,624,8.24268,-55.3398,-0.00373261,0.0116911,-0.00753746,0.0147629,-0.00680435,-1.18382,0.0127313,0.0343548,1049,400,8.24263,55.3398
-168,624,8.2627,-56.2587,-0.00381827,0.010163,-0.00675703,0.0128948,-0.0065501,-1.18659,0.011424,0.0239057,1056,400,8.26266,56.2587
-161,624,8.13928,-57.0414,-0.00370646,0.00899954,-0.00605276,0.0114213,-0.00612822,-1.1902,0.0102847,0.0126455,1063,400,8.13927,57.0414
-154,624,8.08154,-57.7662,-0.00356603,0.00796948,-0.00544431,0.0101331,-0.0057297,-1.19252,0.00927529,0.010384,1070,400,8.08156,57.7662
-147,624,8.02905,-58.4646,-0.00343224,0.00697807,-0.00483918,0.00888005,-0.00533422,-1.19631,0.00829129,0.0111327,1077,400,8.02899,58.4646
-140,624,7.97278,-59.1464,-0.0031444,0.00601147,-0.0043438,0.00774433,-0.00487725,-1.19122,0.00734948,0.0102044,1084,400,7.97277,59.1464
-133,624,7.89709,-59.8041,-0.00280194,0.00529689,-0.00388671,0.00686034,-0.00436539,-1.18835,0.00653432,0.01166,1091,400,7.8971,59.8041
-126,624,7.8446,-60.4245,-0.00257121,0.00465473,-0.00340995,0.00600979,-0.00392627,-1.19255,0.00577848,0.013859,1098,400,7.8446,60.4245
-119,624,7.77234,-61.0659,-0.00231862,0.00386522,-0.00292419,0.00502898,-0.00348238,-1.19203,0.00494101,0.0161782,1105,400,7.77237,61.066
-112,624,7.75391,-61.6798,-0.00191136,0.00339688,-0.00259954,0.00445786,-0.00297234,-1.18329,0.00431832,0.0183934,1112,400,7.75385,61.6798
-105,624,7.77686,-62.2962,-0.00149913,0.00301377,-0.00230726,0.00398454,-0.00246991,-1.17253,0.00376053,0.0130767,1119,400,7.7768,62.2962
-98,624,7.71387,-62.8639,-0.00115038,0.00266168,-0.00199631,0.00351576,-0.00200446,-1.16653,0.00322667,0.0138297,1126,400,7.71391,62.8639
-91,624,7.68213,-63.4312,-0.000754272,0.00238211,-0.00171727,0.00313948,-0.00151165,-1.15542,0.0027396,0.0209981,1133,400,7.68217,63.4312
-84,624,7.67981,-63.9985,-0.000265533,0.00206625,-0.00145349,0.00276367,-0.000962954,-1.12342,0.00223373,0.0197272,1140,400,7.67981,63.9985
-77,624,7.65747,-64.5051,0.000249301,0.00180164,-0.00120703,0.00246051,-0.000409574,-1.07113,0.00179253,0.0155478,1147,400,7.6575,64.5051
-70,624,7.63367,-64.9724,0.000777261,0.00146627,-0.000904011,0.00208919,0.000154335,-0.967444,0.00134431,0.0180841,1154,400,7.63372,64.9724
-63,624,7.64526,-65.4922,0.00128957,0.00044746,-0.000932784,0.00189193,-0.000154898,-0.573391,0.00131596,0.0200675,1161,400,7.64532,65.4922
-56,624,7.60278,-65.9825,0.00163806,-0.000644232,-0.00097932,0.00200067,-0.00100684,-0.354614,0.00176771,0.0157414,1168,400,7.60275,65.9825
-49,624,7.59827,-66.4305,0.00204314,-0.00182028,-0.00110665,0.00233768,-0.00211481,-0.260122,0.00257172,0.0112475,1175,400,7.59828,66.4305
-42,624,7.60706,-66.802,0.00268318,-0.00300107,-0.0011299,0.00289954,-0.00321743,-0.189199,0.00353323,0.0105746,1182,400,7.60712,66.802
-35,624,7.62952,-67.1683,0.00315762,-0.00410553,-0.00131265,0.00338757,-0.00433548,-0.173421,0.00447008,0.0156244,1189,400,7.62948,67.1683
-28,624,7.62891,-67.5653,0.00354545,-0.00551333,-0.00160856,0.0038226,-0.00579049,-0.170623,0.00558875,0.0196368,1196,400,7.62887,67.5653
-21,624,7.65735,-67.8848,0.00398694,-0.00686147,-0.00195018,0.00432687,-0.00720139,-0.172571,0.00672446,0.0138663,1203,400,7.65739,67.8848
-14,624,7.65771,-68.2066,0.0043177,-0.00799132,-0.00224151,0.00471318,-0.0083868,-0.174637,0.00766176,0.0157007,1210,400,7.65774,68.2066
-7,624,7.72644,-68.495,0.004617,-0.00945301,-0.00242766,0.00502409,-0.0098601,-0.166144,0.00874328,0.0223156,1217,400,7.72648,68.495
0,624,7.79773,-68.7466,0.00470682,-0.0108013,-0.0026043,0.00513248,-0.011227,-0.162013,0.00966114,0.0232628,1224,400,7.79773,68.7467
7,624,7.77808,-68.9861,0.00442025,-0.0118185,-0.00273987,0.00487007,-0.0122684,-0.162725,0.0101976,0.0167521,1231,400,7.77804,68.986
14,624,7.87402,-69.2128,0.00424139,-0.0127407,-0.0027632,0.00467969,-0.013179,-0.157308,0.0106929,0.0137458,1238,400,7.87402,69.2128
21,624,7.896,-69.3681,0.00436506,-0.0136165,-0.0026358,0.00474346,-0.0139949,-0.142588,0.0112496,0.0158605,1245,400,7.89599,69.3681
28,624,7.90076,-69.5156,0.0047112,-0.0143601,-0.0023973,0.00500792,-0.0146568,-0.12315,0.0118002,0.0153362,1252,400,7.90079,69.5155
35,624,7.94287,-69.6331,0.0051144,-0.0148861,-0.00224771,0.00536389,-0.0151356,-0.110546,0.0122754,0.0177581,1259,400,7.94288,69.6331
42,624,8.04395,-69.7508,0.00589939,-0.0148278,-0.00185505,0.00606411,-0.0149925,-0.0885604,0.012516,0.0185531,1266,400,8.044,69.7508
49,624,8.15881,-69.8036,0.00707636,-0.0145661,-0.0017031,0.00720956,-0.0146993,-0.0780524,0.0128931,0.0191927,1273,400,8.15877,69.8036
56,624,8.21497,-69.9039,0.00818847,-0.0141677,-0.00153683,0.00829362,-0.0142728,-0.0683148,0.0131803,0.0210458,1280,400,8.215,69.9039
63,624,8.26636,-69.9269,0.0093659,-0.0136042,-0.00158328,0.00947451,-0.0137128,-0.0684965,0.0134615,0.0174653,1287,400,8.26635,69.9269
70,624,8.26843,-69.9337,0.0106676,-0.0127894,-0.00160827,0.0107773,-0.0128991,-0.0681378,0.0136879,0.0153666,1294,400,8.26838,69.9337
77,624,8.33215,-69.8777,0.0119051,-0.0116046,-0.00158379,0.0120113,-0.0117109,-0.0669643,0.0136964,0.0158525,1301,400,8.33215,69.8776
84,624,8.40283,-69.7935,0.012842,-0.0106035,-0.00171982,0.0129675,-0.010729,-0.0728345,0.0137015,0.0140421,1308,400,8.40284,69.7935
91,624,8.46045,-69.6805,0.0132961,-0.00988884,-0.0019983,0.0134671,-0.0100598,-0.0853506,0.0136307,0.0142983,1315,400,8.46048,69.6805
98,624,8.51245,-69.5669,0.0133078,-0.00886676,-0.00225527,0.0135349,-0.00909381,-0.100336,0.0131483,0.0135645,1322,400,8.51246,69.5669
105,624,8.55896,-69.4349,0.0132234,-0.00794517,-0.00238533,0.0134888,-0.00821063,-0.110831,0.0126511,0.0150402,1329,400,8.55895,69.4349
112,624,8.60681,-69.2886,0.0130511,-0.00734319,-0.00250409,0.0133541,-0.00764615,-0.120401,0.0122729,0.0157844,1336,400,8.60683,69.2886
119,624,8.63708,-69.1371,0.0118028,-0.00695583,-0.00259064,0.012154,-0.00730703,-0.134744,0.0113514,0.0159331,1343,400,8.63711,69.1371
126,624,8.64136,-68.8173,0.0102242,-0.00627882,-0.00269367,0.0106528,-0.00670736,-0.157769,0.0101088,0.0192552,1350,400,8.64138,68.8173
133,624,8.70947,-68.5013,0.00863646,-0.00551791,-0.0026958,0.00913251,-0.00601396,-0.181972,0.00880639,0.0198732,1357,400,8.7095,68.5013
140,624,8.74634,-68.2426,0.00738204,-0.00482328,-0.00237173,0.00782671,-0.00526796,-0.185337,0.00760817,0.019731,1364,400,8.74638,68.2426
147,624,8.74573,-67.888,0.00610048,-0.00433374,-0.00209974,0.00650717,-0.00474043,-0.191317,0.00652046,0.024218,1371,400,8.74577,67.888
154,624,8.82764,-67.5148,0.00507618,-0.00372256,-0.00175401,0.00541295,-0.00405933,-0.189691,0.00548741,0.0273456,1378,400,8.82765,67.5148
161,624,8.88538,-67.1729,0.00462994,-0.0027302,-0.00143112,0.00489841,-0.00299867,-0.185443,0.00460315,0.0250735,1385,400,8.88539,67.1729
168,624,8.93408,-66.8155,0.00405924,-0.00159082,-0.00100402,0.00423235,-0.00176394,-0.17074,0.00355839,0.0239775,1392,400,8.9341,66.8155
175,624,8.94385,-66.4096,0.00343412,-0.00050982,-0.000584152,0.00351882,-0.000594521,-0.143996,0.00256711,0.0185074,1399,400,8.94385,66.4096
182,624,8.922,-65.9414,0.00272576,0.000539567,-0.000217113,0.00274711,0.000518214,-0.0980353,0.00168544,0.0115506,1406,400,8.92202,65.9414
189,624,8.90076,-65.4388,0.0020162,0.0016458,0.000253454,0.0021449,0.00151709,0.46988,0.00127334,0.0112307,1413,400,8.90076,65.4387
196,624,8.85559,-64.9304,0.00150969,0.00272436,0.000776948,0.00310318,0.00113087,1.11714,0.00181344,0.0117737,1420,400,8.85558,64.9304
203,624,8.88074,-64.4209,0.000977005,0.00357017,0.00120497,0.00404363,0.000503537,1.1964,0.00254457,0.0142443,1427,400,8.88073,64.4209
210,624,8.90723,-63.9087,0.000357259,0.00416461,0.0015886,0.00474038,-0.000218509,1.22309,0.00323555,0.0181449,1434,400,8.90723,63.9087
217,624,8.85474,-63.3511,-9.50665e-05,0.00470061,0.00192052,0.00537491,-0.000769368,1.23314,0.00386534,0.0216386,1441,400,8.85473,63.3511
224,624,8.81519,-62.7866,-0.000360775,0.00530306,0.00221305,0.00606521,-0.00112293,1.23913,0.0044651,0.0166094,1448,400,8.81516,62.7866
231,624,8.79382,-62.2144,-0.000525688,0.00584195,0.00257575,0.00675339,-0.00143713,1.23069,0.00504994,0.0111485,1455,400,8.79377,62.2144
238,624,8.74792,-61.6156,-0.000604621,0.00672628,0.00312798,0.00787951,-0.00175786,1.21757,0.00592651,0.0163047,1462,400,8.74792,61.6156
245,624,8.73401,-61.023,-0.000703261,0.00757808,0.00357098,0.00890523,-0.00203041,1.21497,0.00671671,0.017772,1469,400,8.73399,61.023
252,624,8.6637,-60.3456,-0.000620772,0.00861873,0.00419398,0.0102385,-0.00224054,1.20223,0.00768221,0.0137117,1476,400,8.66373,60.3456
259,624,8.59973,-59.6664,-0.000354305,0.0101739,0.005215,0.0123197,-0.00250013,1.18044,0.00916095,0.00965011,1483,400,8.59971,59.6664
266,624,8.57471,-58.9801,-0.000238155,0.0114185,0.00609433,0.0140229,-0.00284252,1.16694,0.0104261,0.0132859,1490,400,8.57469,58.9801
273,624,8.54089,-58.2746,2.37166e-05,0.0129053,0.00712726,0.0160709,-0.00314182,1.15282,0.0119003,0.0157618,1497,400,8.54091,58.2746
280,624,8.46411,-57.5649,0.000401236,0.0145455,0.00825089,0.0183404,-0.00339366,1.13971,0.0135011,0.0141412,1504,400,8.46407,57.5649
287,624,8.3866,-56.8789,0.000849283,0.0164062,0.00949368,0.020901,-0.00364559,1.12861,0.0152947,0.0118446,1511,400,8.38657,56.8789
294,624,8.32715,-56.1283,0.00116998,0.0181639,0.0106707,0.0233074,-0.00397353,1.12163,0.0170181,0.0111617,1518,400,8.3272,56.1283
301,624,8.26099,-55.3033,0.00149831,0.0197878,0.011804,0.025575,-0.00428883,1.11496,0.0186448,0.0126587,1525,400,8.261,55.3032
308,624,8.22852,-54.4641,0.00194036,0.0218475,0.0128906,0.0281802,-0.00439231,1.11416,0.020409,0.0198333,1532,400,8.22854,54.4641
315,624,8.19043,-53.6673,0.0024473,0.0239426,0.0138743,0.0307451,-0.00435521,1.11494,0.0220921,0.0270768,1539,400,8.19037,53.6673
322,624,8.14758,-52.9396,0.00287247,0.0260112,0.0148976,0.0333042,-0.00442054,1.11555,0.0238135,0.0490993,1546,400,8.14753,52.9396
329,624,7.92285,-52.2782,0,0,0,0,0,0,0,-1,1553,400,7.9228,52.2782
336,624,7.88318,-50.9279,0,0,0,0,0,0,0,-1,1560,400,7.88322,50.9279
343,624,6.53369,-39.5615,0,0,0,0,0,0,0,-1,1567,400,6.53364,39.5615
350,624,1.99194,-7.29742,0,0,0,0,0,0,0,-1,1574,400,1.99198,7.29741
357,624,2.64075,-3.13092,0,0,0,0,0,0,0,-1,1581,400,2.64076,3.13091
364,624,3.16565,-4.9458,0,0,0,0,0,0,0,-1,1588,400,3.16564,4.94579
371,624,3.37561,-5.23529,0,0,0,0,0,0,0,-1,1595,400,3.37563,5.23529
378,624,1.50439,-5.22165,0,0,0,0,0,0,0,-1,1602,400,1.50438,5.22164
385,624,1.2301,-10.5866,0,0,0,0,0,0,0,-1,1609,400,1.2301,10.5866
392,624,4.26819,-5.14236,0,0,0,0,0,0,0,-1,1616,400,4.26818,5.14236
399,624,2.22168,-9.19293,0,0,0,0,0,0,0,-1,1623,400,2.22173,9.19294
406,624,2.68213,-9.91171,0,0,0,0,0,0,0,-1,1630,400,2.68213,9.91171
413,624,0,0,0,0,0,0,0,0,0,-1,1637,400,0,0
420,624,0,0,0,0,0,0,0,0,0,-1,1644,400,0,0
427,624,0,0,0,0,0,0,0,0,0,-1,1651,400,0,0
434,624,0,0,0,0,0,0,0,0,0,-1,1658,400,0,0
441,624,0,0,0,0,0,0,0,0,0,-1,1665,400,0,0
448,624,0,0,0,0,0,0,0,0,0,-1,1672,400,0,0
455,624,0,0,0,0,0,0,0,0,0,-1,1679,400,0,0
462,624,0,0,0,0,0,0,0,0,0,-1,1686,400,0,0
469,624,0,0,0,0,0,0,0,0,0,-1,1693,400,0,0
476,624,0,0,0,0,0,0,0,0,0,-1,1700,400,0,0
483,624,0,0,0,0,0,0,0,0,0,-1,1707,400,0,0
490,624,0,0,0,0,0,0,0,0,0,-1,1714,400,0,0
497,624,0,0,0,0,0,0,0,0,0,-1,1721,400,0,0
504,624,0,0,0,0,0,0,0,0,0,-1,1728,400,0,0
511,624,0,0,0,0,0,0,0,0,0,-1,1735,400,0,0
518,624,0,0,0,0,0,0,0,0,0,-1,1742,400,0,0
525,624,0,0,0,0,0,0,0,0,0,-1,1749,400,0,0
532,624,0,0,0,0,0,0,0,0,0,-1,1756,400,0,0
539,624,0,0,0,0,0,0,0,0,0,-1,1763,400,0,0
546,624,0,0,0,0,0,0,0,0,0,-1,1770,400,0,0
553,624,0,0,0,0,0,0,0,0,0,-1,1777,400,0,0
560,624,0,0,0,0,0,0,0,0,0,-1,1784,400,0,0
567,624,0,0,0,0,0,0,0,0,0,-1,1791,400,0,0
574,624,0,0,0,0,0,0,0,0,0,-1,1798,400,0,0
581,624,0,0,0,0,0,0,0,0,0,-1,1805,400,0,0
588,624,0,0,0,0,0,0,0,0,0,-1,1812,400,0,0
595,624,0,0,0,0,0,0,0,0,0,-1,1819,400,0,0
602,624,0,0,0,0,0,0,0,0,0,-1,1826,400,0,0
609,624,0,0,0,0,0,0,0,0,0,-1,1833,400,0,0
616,624,0,0,0,0,0,0,0,0,0,-1,1840,400,0,0
623,624,0,0,0,0,0,0,0,0,0,-1,1847,400,0,0
630,624,0,0,0,0,0,0,0,0,0,-1,1854,400,0,0
637,624,0,0,0,0,0,0,0,0,0,-1,1861,400,0,0
644,624,0,0,0,0,0,0,0,0,0,-1,1868,400,0,0
651,624,0,0,0,0,0,0,0,0,0,-1,1875,400,0,0
658,624,0,0,0,0,0,0,0,0,0,-1,1882,400,0,0
665,624,0,0,0,0,0,0,0,0,0,-1,1889,400,0,0
672,624,0,0,0,0,0,0,0,0,0,-1,1896,400,0,0
679,624,0,0,0,0,0,0,0,0,0,-1,1903,400,0,0
686,624,0,0,0,0,0,0,0,0,0,-1,1910,400,0,0
693,624,0,0,0,0,0,0,0,0,0,-1,1917,400,0,0
700,624,0,0,0,0,0,0,0,0,0,-1,1924,400,0,0
707,624,0,0,0,0,0,0,0,0,0,-1,1931,400,0,0
714,624,0,0,0,0,0,0,0,0,0,-1,1938,400,0,0
721,624,0,0,0,0,0,0,0,0,0,-1,1945,400,0,0
728,624,0,0,0,0,0,0,0,0,0,-1,1952,400,0,0
735,624,0,0,0,0,0,0,0,0,0,-1,1959,400,0,0
742,624,0,0,0,0,0,0,0,0,0,-1,1966,400,0,0
749,624,0,0,0,0,0,0,0,0,0,-1,1973,400,0,0
756,624,0,0,0,0,0,0,0,0,0,-1,1980,400,0,0
763,624,0,0,0,0,0,0,0,0,0,-1,1987,400,0,0
770,624,0,0,0,0,0,0,0,0,0,-1,1994,400,0,0
777,624,0,0,0,0,0,0,0,0,0,-1,2001,400,0,0
784,624,0,0,0,0,0,0,0,0,0,-1,2008,400,0,0
791,624,0,0,0,0,0,0,0,0,0,-1,2015,400,0,0
798,624,0,0,0,0,0,0,0,0,0,-1,2022,400,0,0
805,624,0,0,0,0,0,0,0,0,0,-1,2029,400,0,0
812,624,0,0,0,0,0,0,0,0,0,-1,2036,400,0,0
-700,617,0,0,0,0,0,0,0,0,0,-1,524,407,0,0
-693,617,0,0,0,0,0,0,0,0,0,-1,531,407,0,0
-686,617,0,0,0,0,0,0,0,0,0,-1,538,407,0,0
-679,617,0,0,0,0,0,0,0,0,0,-1,545,407,0,0
-672,617,0,0,0,0,0,0,0,0,0,-1,552,407,0,0
-665,617,0,0,0,0,0,0,0,0,0,-1,559,407,0,0
-658,617,0,0,0,0,0,0,0,0,0,-1,566,407,0,0
-651,617,0,0,0,0,0,0,0,0,0,-1,573,407,0,0
-644,617,0,0,0,0,0,0,0,0,0,-1,580,407,0,0
-637,617,0,0,0,0,0,0,0,0,0,-1,587,407,0,0
-630,617,0,0,0,0,0,0,0,0,0,-1,594,407,0,0
-623,617,0,0,0,0,0,0,0,0,0,-1,601,407,0,0
-616,617,0,0,0,0,0,0,0,0,0,-1,608,407,0,0
-609,617,0,0,0,0,0,0,0,0,0,-1,615,407,0,0
-602,617,0,0,0,0,0,0,0,0,0,-1,622,407,0,0
-595,617,0,0,0,0,0,0,0,0,0,-1,629,407,0,0
-588,617,0,0,0,0,0,0,0,0,0,-1,636,407,0,0
-581,617,0,0,0,0,0,0,0,0,0,-1,643,407,0,0
-574,617,0,0,0,0,0,0,0,0,0,-1,650,407,0,0
-567,617,0,0,0,0,0,0,0,0,0,-1,657,407,0,0
-560,617,0,0,0,0,0,0,0,0,0,-1,664,407,0,0
-553,617,0,0,0,0,0,0,0,0,0,-1,671,407,0,0
-546,617,0,0,0,0,0,0,0,0,0,-1,678,407,0,0
-539,617,0,0,0,0,0,0,0,0,0,-1,685,407,0,0
-532,617,0,0,0,0,0,0,0,0,0,-1,692,407,0,0
-525,617,0,0,0,0,0,0,0,0,0,-1,699,407,0,0
-518,617,0,0,0,0,0,0,0,0,0,-1,706,407,0,0
-511,617,0,0,0,0,0,0,0,0,0,-1,713,407,0,0
-504,617,0,0,0,0,0,0,0,0,0,-1,720,407,0,0
-497,617,0,0,0,0,0,0,0,0,0,-1,727,407,0,0
-490,617,0,0,0,0,0,0,0,0,0,-1,734,407,0,0
-483,617,0,0,0,0,0,0,0,0,0,-1,741,407,0,0
-476,617,0,0,0,0,0,0,0,0,0,-1,748,407,0,0
-469,617,0,0,0,0,0,0,0,0,0,-1,755,407,0,0
-462,617,0,0,0,0,0,0,0,0,0,-1,762,407,0,0
-455,617,0,0,0,0,0,0,0,0,0,-1,769,407,0,0
-448,617,0,0,0,0,0,0,0,0,0,-1,776,407,0,0
-441,617,0,0,0,0,0,0,0,0,0,-1,783,407,0,0
-434,617,0,0,0,0,0,0,0,0,0,-1,790,407,0,0
-427,617,0,0,0,0,0,0,0,0,0,-1,797,407,0,0
-420,617,0,0,0,0,0,0,0,0,0,-1,804,407,0,0
-413,617,0,0,0,0,0,0,0,0,0,-1,811,407,0,0
-406,617,0,0,0,0,0,0,0,0,0,-1,818,407,0,0
-399,617,0,0,0,0,0,0,0,0,0,-1,825,407,0,0
-392,617,0,0,0,0,0,0,0,0,0,-1,832,407,0,0
-385,617,0,0,0,0,0,0,0,0,0,-1,839,407,0,0
-378,617,0,0,0,0,0,0,0,0,0,-1,846,407,0,0
-371,617,0,0,0,0,0,0,0,0,0,-1,853,407,0,0
-364,617,0,0,0,0,0,0,0,0,0,-1,860,407,0,0
-357,617,0,0,0,0,0,0,0,0,0,-1,867,407,0,0
-350,617,0,0,0,0,0,0,0,0,0,-1,874,407,0,0
-343,617,0,0,0,0,0,0,0,0,0,-1,881,407,0,0
-336,617,0,0,0,0,0,0,0,0,0,-1,888,407,0,0
-329,617,0,0,0,0,0,0,0,0,0,-1,895,407,0,0
-322,617,0,0,0,0,0,0,0,0,0,-1,902,407,0,0
-315,617,0,0,0,0,0,0,0,0,0,-1,909,407,0,0
-308,617,0,0,0,0,0,0,0,0,0,-1,916,407,0,0
-301,617,6.81897,-24.525,0,0,0,0,0,0,0,-1,923,407,6.81899,24.525
-294,617,6.19263,-26.917,0,0,0,0,0,0,0,-1,930,407,6.19261,26.917
-287,617,7.00409,-31.9773,0,0,0,0,0,0,0,-1,937,407,7.00406,31.9773
-280,617,9.1106,-36.5021,0,0,0,0,0,0,0,-1,944,407,9.11059,36.5021
-273,617,8.35004,-36.2751,0,0,0,0,0,0,0,-1,951,407,8.35003,36.2751
-266,617,7.61749,-36.1671,0,0,0,0,0,0,0,-1,958,407,7.61746,36.1671
-259,617,6.83643,-36.3605,0,0,0,0,0,0,0,-1,965,407,6.83643,36.3605
-252,617,6.02264,-36.5001,0,0,0,0,0,0,0,-1,972,407,6.02265,36.5001
-245,617,6.72626,-34.4465,0,0,0,0,0,0,0,-1,979,407,6.72627,34.4465
-238,617,5.6474,-34.6842,0,0,0,0,0,0,0,-1,986,407,5.64741,34.6842
-231,617,7.9314,-48.4413,0,0,0,0,0,0,0,-1,993,407,7.93138,48.4413
-224,617,7.94147,-49.5539,0,0,0,0,0,0,0,-1,1000,407,7.94148,49.5539
-217,617,7.97937,-50.5854,0,0,0,0,0,0,0,-1,1007,407,7.97935,50.5854
-210,617,7.95673,-51.6003,-0.00145481,0.0207841,-0.0108763,0.025219,-0.00588968,-1.18362,0.0190813,0.0358731,1014,407,7.9567,51.6003
-203,617,7.86353,-52.4209,-0.00191751,0.0177257,-0.00959984,0.0216381,-0.00582983,-1.18381,0.0167111,0.0279378,1021,407,7.86356,52.4209
-196,617,7.84753,-53.1498,-0.00226321,0.0150021,-0.00842028,0.0184286,-0.00568974,-1.18432,0.0145578,0.0205844,1028,407,7.84753,53.1498
-189,617,7.72327,-54.0241,-0.00248044,0.0125756,-0.00744371,0.0156343,-0.0055392,-1.18091,0.0126792,0.0181132,1035,407,7.72324,54.0241
-182,617,7.64697,-54.8075,-0.00257261,0.0106871,-0.00658914,0.0134046,-0.00529004,-1.17964,0.0111271,0.0194533,1042,407,7.64699,54.8075
-175,617,7.62695,-55.5538,-0.00269308,0.00883329,-0.00564868,0.0111399,-0.00499971,-1.18311,0.00954035,0.0174635,1049,407,7.62692,55.5538
-168,617,7.54114,-56.3083,-0.00267102,0.00746136,-0.00498656,0.00950376,-0.00471342,-1.18206,0.00836217,0.0128557,1056,407,7.54114,56.3083
-161,617,7.45764,-57.0643,-0.00247675,0.00639702,-0.00439626,0.00820618,-0.00428591,-1.1804,0.00732973,0.011382,1063,407,7.45767,57.0643
-154,617,7.40967,-57.7754,-0.00223882,0.00546542,-0.0038711,0.00707446,-0.00384786,-1.17687,0.00639706,0.0120741,1070,407,7.40965,57.7754
-147,617,7.36206,-58.4666,-0.0019847,0.00460494,-0.00336761,0.00602145,-0.00340121,-1.17264,0.00550985,0.0167613,1077,407,7.36208,58.4666
-140,617,7.31775,-59.1637,-0.00160425,0.00376169,-0.00294695,0.00506405,-0.00290661,-1.15467,0.00465771,0.0132337,1084,407,7.31772,59.1637
-133,617,7.27625,-59.8158,-0.00117727,0.0031455,-0.00256327,0.00433702,-0.00236879,-1.13567,0.00392679,0.0150658,1091,407,7.27621,59.8158
-126,617,7.22998,-60.4242,-0.000822445,0.00263225,-0.00219271,0.00369626,-0.00188646,-1.11902,0.00327915,0.0144447,1098,407,7.22992,60.4242
-119,617,7.17383,-61.074,-0.000423158,0.00206322,-0.00181041,0.00301619,-0.00137613,-1.08627,0.00259416,0.0154374,1105,407,7.17388,61.074
-112,617,7.15576,-61.6753,0.000109548,0.00174041,-0.00154929,0.00267576,-0.0008258,-1.02764,0.00211359,0.0179997,1112,407,7.1557,61.6753
-105,617,7.1698,-62.2705,0.000636788,0.00149033,-0.00133926,0.00246918,-0.000342057,-0.939643,0.00177118,0.0179781,1119,407,7.16984,62.2705
-98,617,7.13269,-62.8475,0.00112423,0.00123532,-0.00112015,0.00230131,5.82479e-05,-0.810171,0.00151516,0.014125,1126,407,7.13263,62.8475
-91,617,7.11877,-63.412,0.00169088,0.00103904,-0.000908006,0.00232969,0.000400234,-0.613089,0.0014384,0.0200311,1133,407,7.11882,63.412
-84,617,7.15881,-63.982,0.00234776,0.000736456,-0.000686379,0.0026005,0.000483718,-0.352813,0.00159704,0.0198911,1140,407,7.15877,63.982
-77,617,7.15564,-64.4827,0.00301074,0.00043071,-0.000495688,0.00310269,0.000338753,-0.183428,0.0019653,0.0160524,1147,407,7.15562,64.4827
-70,617,7.15161,-64.9895,0.00375175,-0.000130019,-0.000170296,0.0037592,-0.000137476,-0.0437588,0.0025532,0.0187602,1154,407,7.15156,64.9895
-63,617,7.20703,-65.499,0.00427178,-0.00270998,-0.000856019,0.0043752,-0.0028134,-0.120235,0.00418286,0.0229155,1161,407,7.20699,65.499
-56,617,7.19409,-65.9585,0.00426217,-0.00504619,-0.001475,0.00449031,-0.00527433,-0.153453,0.00564367,0.0167766,1168,407,7.19415,65.9585
-49,617,7.20142,-66.4128,0.00445574,-0.00727914,-0.00217876,0.0048472,-0.0076706,-0.177775,0.00728817,0.0124104,1175,407,7.2014,66.4128
-42,617,7.23169,-66.8127,0.00507056,-0.0092659,-0.00253708,0.00550629,-0.00970163,-0.170087,0.00889097,0.0123316,1182,407,7.23174,66.8127
-35,617,7.28418,-67.1777,0.00531492,-0.0111313,-0.0031209,0.00588724,-0.0117036,-0.181368,0.0103395,0.0174311,1189,407,7.28421,67.1777
-28,617,7.26953,-67.5452,0.00546664,-0.0132392,-0.00383771,0.00622337,-0.013996,-0.194686,0.0119577,0.0195952,1196,407,7.26958,67.5452
-21,617,7.35657,-67.8497,0.00569828,-0.0154341,-0.0044702,0.00660498,-0.0163408,-0.200116,0.0136394,0.0137782,1203,407,7.35652,67.8497
-14,617,7.41553,-68.17,0.00581653,-0.0170916,-0.00494217,0.00683727,-0.0181124,-0.203672,0.0148869,0.016261,1210,407,7.41553,68.17
-7,617,7.41492,-68.4166,0.00600898,-0.0190593,-0.0051495,0.00702556,-0.0200759,-0.194908,0.0162405,0.0206556,1217,407,7.41488,68.4166
0,617,7.49805,-68.6648,0.00592603,-0.0207042,-0.0051999,0.00690536,-0.0216835,-0.186156,0.0172252,0.0186645,1224,407,7.49808,68.6648
7,617,7.604,-68.9888,0.0054511,-0.0219645,-0.00510408,0.00637051,-0.0228839,-0.178222,0.0177644,0.0144548,1231,407,7.60394,68.9888
14,617,7.68127,-69.2195,0.00525039,-0.0231081,-0.00478086,0.00603469,-0.0238924,-0.162601,0.018275,0.0169393,1238,407,7.68127,69.2195
21,617,7.76416,-69.3673,0.00554064,-0.0241014,-0.00415335,0.0061116,-0.0246724,-0.136613,0.0188192,0.0152447,1245,407,7.76419,69.3673
28,617,7.82654,-69.5636,0.00607477,-0.0249864,-0.00344684,0.00645267,-0.0253643,-0.109199,0.0194211,0.013344,1252,407,7.82659,69.5636
35,617,7.81348,-69.7073,0.00638781,-0.0254926,-0.00301806,0.00667101,-0.0257758,-0.0935608,0.019786,0.0152834,1259,407,7.81342,69.7073
42,617,7.9751,-69.7436,0.0072748,-0.0253036,-0.00234145,0.00744222,-0.025471,-0.0713823,0.0199301,0.021491,1266,407,7.97504,69.7436
49,617,8.08459,-69.8105,0.00879252,-0.0248966,-0.0019518,0.00890522,-0.0250093,-0.0576785,0.0203031,0.0212993,1273,407,8.08462,69.8105
56,617,8.15112,-69.8835,0.0101566,-0.0243117,-0.00164394,0.0102348,-0.0243899,-0.0475504,0.0205399,0.0164879,1280,407,8.15112,69.8835
63,617,8.21704,-69.9148,0.0116108,-0.0235995,-0.00171551,0.0116942,-0.0236829,-0.0485686,0.0208122,0.013201,1287,407,8.21701,69.9148
70,617,8.29138,-69.9308,0.0132695,-0.02251,-0.00183023,0.0133629,-0.0226034,-0.0509757,0.0209923,0.0191772,1294,407,8.2914,69.9308
77,617,8.4281,-69.8658,0.0148587,-0.021038,-0.00198555,0.0149682,-0.0211475,-0.055089,0.0209529,0.017305,1301,407,8.42805,69.8658
84,617,8.51367,-69.7715,0.0161589,-0.0196518,-0.00239106,0.0163179,-0.0198107,-0.0663768,0.0208913,0.0131928,1308,407,8.51367,69.7716
91,617,8.57556,-69.6805,0.0169696,-0.0187649,-0.00296084,0.0172133,-0.0190086,-0.0821104,0.0209213,0.0114227,1315,407,8.57559,69.6805
98,617,8.67163,-69.5652,0.0172402,-0.017497,-0.00350195,0.0175897,-0.0178465,-0.0994792,0.0204593,0.0122534,1322,407,8.6716,69.5652
105,617,8.75818,-69.4052,0.0175486,-0.0164546,-0.00390567,0.0179914,-0.0168975,-0.112903,0.0201464,0.014529,1329,407,8.75817,69.4052
112,617,8.84265,-69.2737,0.0177892,-0.0157044,-0.00422723,0.0183145,-0.0162297,-0.123627,0.0199562,0.0175259,1336,407,8.84259,69.2737
119,617,8.88928,-69.0983,0.0164582,-0.0151285,-0.00448572,0.0170829,-0.0157532,-0.138369,0.0189631,0.0204561,1343,407,8.88927,69.0983
126,617,8.90271,-68.8016,0.0145961,-0.0142135,-0.00480175,0.0153753,-0.0149927,-0.16088,0.0175334,0.0236207,1350,407,8.90269,68.8016
133,617,8.97485,-68.492,0.0127724,-0.0130327,-0.00472268,0.0136096,-0.0138698,-0.17544,0.0158655,0.0202825,1357,407,8.97482,68.492
140,617,9.06836,-68.236,0.0118762,-0.012098,-0.00397867,0.0125193,-0.012741,-0.160236,0.0145842,0.0170632,1364,407,9.06839,68.236
147,617,9.10168,-67.8857,0.0102916,-0.0112195,-0.00351528,0.0108514,-0.0117793,-0.157945,0.0130696,0.0215087,1371,407,9.10173,67.8857
154,617,9.16333,-67.5561,0.00857881,-0.0104323,-0.0031957,0.00910162,-0.0109551,-0.162161,0.0115962,0.0246836,1378,407,9.16327,67.5561
161,617,9.25806,-67.2378,0.00792679,-0.00907971,-0.00300087,0.00844077,-0.0095937,-0.169632,0.0104193,0.0246834,1385,407,9.2581,67.2378
168,617,9.35388,-66.8563,0.00713909,-0.00734703,-0.0026863,0.00762119,-0.00782913,-0.177576,0.00892051,0.0217388,1392,407,9.35392,66.8563
175,617,9.36975,-66.4205,0.00632122,-0.0058074,-0.00238261,0.00677248,-0.00625866,-0.187181,0.00752548,0.0177831,1399,407,9.36969,66.4205
182,617,9.38269,-65.9447,0.00546381,-0.00438582,-0.00198089,0.00584727,-0.00476927,-0.191212,0.00613999,0.0125832,1406,407,9.38268,65.9447
189,617,9.35571,-65.4593,0.00454933,-0.00280196,-0.00143788,0.00482056,-0.0030732,-0.186445,0.00459453,0.0122789,1413,407,9.35566,65.4593
196,617,9.32361,-64.9629,0.00391103,-0.00122883,-0.000797959,0.00403207,-0.00134986,-0.15053,0.00323333,0.0156355,1420,407,9.32359,64.9629
203,617,9.34827,-64.4609,0.0033124,9.96606e-06,-0.000267304,0.00333389,-1.153e-05,-0.0802454,0.00222645,0.0162428,1427,407,9.34826,64.4609
210,617,9.41992,-63.911,0.00249754,0.000926202,0.000219773,0.0025277,0.000896043,0.136378,0.00147982,0.0162777,1434,407,9.41995,63.911
217,617,9.4137,-63.341,0.00181321,0.00181207,0.000723967,0.00253661,0.00108867,0.785006,0.0014694,0.0218172,1441,407,9.41374,63.341
224,617,9.40613,-62.8055,0.00138501,0.00259625,0.00114412,0.00328516,0.000696107,1.02882,0.00199889,0.0202278,1448,407,9.40616,62.8055
231,617,9.38708,-62.2294,0.00105362,0.00326065,0.0015562,0.00406488,0.000249387,1.09381,0.00263073,0.0136458,1455,407,9.38706,62.2294
238,617,9.35071,-61.6215,0.000830461,0.00399265,0.00200818,0.00496746,-0.000144348,1.11888,0.00336079,0.0147041,1462,407,9.35075,61.6215
245,617,9.34509,-61.0117,0.000636259,0.00473706,0.00237028,0.00582073,-0.000447407,1.14198,0.00403789,0.0126213,1469,407,9.34511,61.0117
252,617,9.3075,-60.3309,0.0005043,0.00562363,0.00286209,0.00690368,-0.000775753,1.15024,0.00488163,0.0143095,1476,407,9.30753,60.3309
259,617,9.24011,-59.6603,0.000474654,0.00684065,0.00363073,0.00848608,-0.00117078,1.14529,0.0060853,0.0122092,1483,407,9.24016,59.6604
266,617,9.21851,-58.9656,0.000401653,0.00788894,0.00432332,0.0098642,-0.00157361,1.14223,0.00715856,0.0145407,1490,407,9.21846,58.9656
273,617,9.21106,-58.2373,0.000454826,0.00914155,0.00513412,0.0115231,-0.00192669,1.13648,0.00839827,0.0151351,1497,407,9.211,58.2373
280,617,9.12512,-57.5555,0.000606857,0.0105332,0.00603149,0.0133811,-0.00224098,1.12967,0.0097539,0.0131255,1504,407,9.12511,57.5555
287,617,9.06287,-56.8556,0.00083259,0.0120871,0.0070212,0.0154578,-0.00253811,1.12322,0.0112471,0.0118751,1511,407,9.06286,56.8556
294,617,9.021,-56.1224,0.000951659,0.013551,0.00794899,0.0173939,-0.00289127,1.12048,0.0126702,0.00931095,1518,407,9.02103,56.1224
301,617,8.96997,-55.3625,0.00107028,0.0149212,0.00884435,0.0192289,-0.00323744,1.11755,0.0140236,0.00784714,1525,407,8.96995,55.3625
308,617,8.89294,-54.5864,0.00129441,0.0166672,0.00970687,0.0213624,-0.0034008,1.12027,0.0155001,0.00831929,1532,407,8.89289,54.5864
315,617,8.81445,-53.8174,0.00157591,0.0184109,0.0104905,0.0234435,-0.00345672,1.1235,0.0168995,0.00985787,1539,407,8.81447,53.8174
322,617,8.73071,-52.9776,0.00174128,0.0200584,0.0112607,0.0254147,-0.00361505,1.1268,0.0182678,0.0173874,1546,407,8.73076,52.9776
329,617,8.70068,-52.1591,0.00194538,0.021625,0.0119091,0.0272334,-0.00366304,1.13067,0.0194917,0.0227551,1553,407,8.70067,52.1591
336,617,8.72583,-51.2253,0.00223555,0.0235408,0.0125823,0.0293744,-0.00359796,1.13667,0.0208858,0.0435868,1560,407,8.72584,51.2253
343,617,8.73779,-50.4411,0,0,0,0,0,0,0,-1,1567,407,8.73784,50.4411
350,617,8.41333,-49.6692,0,0,0,0,0,0,0,-1,1574,407,8.41327,49.6692
357,617,8.38538,-48.1824,0,0,0,0,0,0,0,-1,1581,407,8.38544,48.1824
364,617,8.38721,-47.5906,0,0,0,0,0,0,0,-1,1588,407,8.38721,47.5906
371,617,2.60266,-6.20667,0,0,0,0,0,0,0,-1,1595,407,2.60261,6.20668
378,617,1.56921,-10.3601,0,0,0,0,0,0,0,-1,1602,407,1.56918,10.3601
385,617,1.74146,-10.3561,0,0,0,0,0,0,0,-1,1609,407,1.7414,10.3561
392,617,1.96936,-5.10449,0,0,0,0,0,0,0,-1,1616,407,1.96931,5.10451
399,617,2.48889,-5.81256,0,0,0,0,0,0,0,-1,1623,407,2.48888,5.81255
406,617,3.01465,-6.51642,0,0,0,0,0,0,0,-1,1630,407,3.01461,6.51643
413,617,3.6427,-7.2074,0,0,0,0,0,0,0,-1,1637,407,3.64274,7.20739
420,617,3.42737,-4.47391,0,0,0,0,0,0,0,-1,1644,407,3.42737,4.47391
427,617,0,0,0,0,0,0,0,0,0,-1,1651,407,0,0
434,617,0,0,0,0,0,0,0,0,0,-1,1658,407,0,0
441,617,0,0,0,0,0,0,0,0,0,-1,1665,407,0,0
448,617,0,0,0,0,0,0,0,0,0,-1,1672,407,0,0
455,617,0,0,0,0,0,0,0,0,0,-1,1679,407,0,0
462,617,0,0,0,0,0,0,0,0,0,-1,1686,407,0,0
469,617,0,0,0,0,0,0,0,0,0,-1,1693,407,0,0
476,617,0,0,0,0,0,0,0,0,0,-1,1700,407,0,0
483,617,0,0,0,0,0,0,0,0,0,-1,1707,407,0,0
490,617,0,0,0,0,0,0,0,0,0,-1,1714,407,0,0
497,617,0,0,0,0,0,0,0,0,0,-1,1721,407,0,0
504,617,0,0,0,0,0,0,0,0,0,-1,1728,407,0,0
511,617,0,0,0,0,0,0,0,0,0,-1,1735,407,0,0
518,617,0,0,0,0,0,0,0,0,0,-1,1742,407,0,0
525,617,0,0,0,0,0,0,0,0,0,-1,1749,407,0,0
532,617,0,0,0,0,0,0,0,0,0,-1,1756,407,0,0
539,617,0,0,0,0,0,0,0,0,0,-1,1763,407,0,0
546,617,0,0,0,0,0,0,0,0,0,-1,1770,407,0,0
553,617,0,0,0,0,0,0,0,0,0,-1,1777,407,0,0
560,617,0,0,0,0,0,0,0,0,0,-1,1784,407,0,0
567,617,0,0,0,0,0,0,0,0,0,-1,1791,407,0,0
574,617,0,0,0,0,0,0,0,0,0,-1,1798,407,0,0
581,617,0,0,0,0,0,0,0,0,0,-1,1805,407,0,0
588,617,0,0,0,0,0,0,0,0,0,-1,1812,407,0,0
595,617,0,0,0,0,0,0,0,0,0,-1,1819,407,0,0
602,617,0,0,0,0,0,0,0,0,0,-1,1826,407,0,0
609,617,0,0,0,0,0,0,0,0,0,-1,1833,407,0,0
616,617,0,0,0,0,0,0,0,0,0,-1,1840,407,0,0
623,617,0,0,0,0,0,0,0,0,0,-1,1847,407,0,0
630,617,0,0,0,0,0,0,0,0,0,-1,1854,407,0,0
637,617,0,0,0,0,0,0,0,0,0,-1,1861,407,0,0
644,617,0,0,0,0,0,0,0,0,0,-1,1868,407,0,0
651,617,0,0,0,0,0,0,0,0,0,-1,1875,407,0,0
658,617,0,0,0,0,0,0,0,0,0,-1,1882,407,0,0
665,617,0,0,0,0,0,0,0,0,0,-1,1889,407,0,0
672,617,0,0,0,0,0,0,0,0,0,-1,1896,407,0,0
679,617,0,0,0,0,0,0,0,0,0,-1,1903,407,0,0
686,617,0,0,0,0,0,0,0,0,0,-1,1910,407,0,0
693,617,0,0,0,0,0,0,0,0,0,-1,1917,407,0,0
700,617,0,0,0,0,0,0,0,0,0,-1,1924,407,0,0
707,617,0,0,0,0,0,0,0,0,0,-1,1931,407,0,0
714,617,0,0,0,0,0,0,0,0,0,-1,1938,407,0,0
721,617,0,0,0,0,0,0,0,0,0,-1,1945,407,0,0
728,617,0,0,0,0,0,0,0,0,0,-1,1952,407,0,0
735,617,0,0,0,0,0,0,0,0,0,-1,1959,407,0,0
742,617,0,0,0,0,0,0,0,0,0,-1,1966,407,0,0
749,617,0,0,0,0,0,0,0,0,0,-1,1973,407,0,0
756,617,0,0,0,0,0,0,0,0,0,-1,1980,407,0,0
763,617,0,0,0,0,0,0,0,0,0,-1,1987,407,0,0
770,617,0,0,0,0,0,0,0,0,0,-1,1994,407,0,0
777,617,0,0,0,0,0,0,0,0,0,-1,2001,407,0,0
784,617,0,0,0,0,0,0,0,0,0,-1,2008,407,0,0
791,617,0,0,0,0,0,0,0,0,0,-1,2015,407,0,0
798,617,0,0,0,0,0,0,0,0,0,-1,2022,407,0,0
805,617,0,0,0,0,0,0,0,0,0,-1,2029,407,0,0
812,617,0,0,0,0,0,0,0,0,0,-1,2036,407,0,0
-700,610,0,0,0,0,0,0,0,0,0,-1,524,414,0,0
-693,610,0,0,0,0,0,0,0,0,0,-1,531,414,0,0
-686,610,0,0,0,0,0,0,0,0,0,-1,538,414,0,0
-679,610,0,0,0,0,0,0,0,0,0,-1,545,414,0,0
-672,610,0,0,0,0,0,0,0,0,0,-1,552,414,0,0
-665,610,0,0,0,0,0,0,0,0,0,-1,559,414,0,0
-658,610,0,0,0,0,0,0,0,0,0,-1,566,414,0,0
-651,610,0,0,0,0,0,0,0,0,0,-1,573,414,0,0
-644,610,0,0,0,0,0,0,0,0,0,-1,580,414,0,0
-637,610,0,0,0,0,0,0,0,0,0,-1,587,414,0,0
-630,610,0,0,0,0,0,0,0,0,0,-1,594,414,0,0
-623,610,0,0,0,0,0,0,0,0,0,-1,601,414,0,0
-616,610,0,0,0,0,0,0,0,0,0,-1,608,414,0,0
-609,610,0,0,0,0,0,0,0,0,0,-1,615,414,0,0
-602,610,0,0,0,0,0,0,0,0,0,-1,622,414,0,0
-595,610,0,0,0,0,0,0,0,0,0,-1,629,414,0,0
-588,610,0,0,0,0,0,0,0,0,0,-1,636,414,0,0
-581,610,0,0,0,0,0,0,0,0,0,-1,643,414,0,0
-574,610,0,0,0,0,0,0,0,0,0,-1,650,414,0,0
-567,610,0,0,0,0,0,0,0,0,0,-1,657,414,0,0
-560,610,0,0,0,0,0,0,0,0,0,-1,664,414,0,0
-553,610,0,0,0,0,0,0,0,0,0,-1,671,414,0,0
-546,610,0,0,0,0,0,0,0,0,0,-1,678,414,0,0
-539,610,0,0,0,0,0,0,0,0,0,-1,685,414,0,0
-532,610,0,0,0,0,0,0,0,0,0,-1,692,414,0,0
-525,610,0,0,0,0,0,0,0,0,0,-1,699,414,0,0
-518,610,0,0,0,0,0,0,0,0,0,-1,706,414,0,0
-511,610,0,0,0,0,0,0,0,0,0,-1,713,414,0,0
-504,610,0,0,0,0,0,0,0,0,0,-1,720,414,0,0
-497,610,0,0,0,0,0,0,0,0,0,-1,727,414,0,0
-490,610,0,0,0,0,0,0,0,0,0,-1,734,414,0,0
-483,610,0,0,0,0,0,0,0,0,0,-1,741,414,0,0
-476,610,0,0,0,0,0,0,0,0,0,-1,748,414,0,0
-469,610,0,0,0,0,0,0,0,0,0,-1,755,414,0,0
-462,610,0,0,0,0,0,0,0,0,0,-1,762,414,0,0
-455,610,0,0,0,0,0,0,0,0,0,-1,769,414,0,0
-448,610,0,0,0,0,0,0,0,0,0,-1,776,414,0,0
-441,610,0,0,0,0,0,0,0,0,0,-1,783,414,0,0
-434,610,0,0,0,0,0,0,0,0,0,-1,790,414,0,0
-427,610,0,0,0,0,0,0,0,0,0,-1,797,414,0,0
-420,610,0,0,0,0,0,0,0,0,0,-1,804,414,0,0
-413,610,0,0,0,0,0,0,0,0,0,-1,811,414,0,0
-406,610,0,0,0,0,0,0,0,0,0,-1,818,414,0,0
-399,610,0,0,0,0,0,0,0,0,0,-1,825,414,0,0
-392,610,0,0,0,0,0,0,0,0,0,-1,832,414,0,0
-385,610,0,0,0,0,0,0,0,0,0,-1,839,414,0,0
-378,610,0,0,0,0,0,0,0,0,0,-1,846,414,0,0
-371,610,0,0,0,0,0,0,0,0,0,-1,853,414,0,0
-364,610,0,0,0,0,0,0,0,0,0,-1,860,414,0,0
-357,610,0,0,0,0,0,0,0,0,0,-1,867,414,0,0
-350,610,0,0,0,0,0,0,0,0,0,-1,874,414,0,0
-343,610,0,0,0,0,0,0,0,0,0,-1,881,414,0,0
-336,610,0,0,0,0,0,0,0,0,0,-1,888,414,0,0
-329,610,0,0,0,0,0,0,0,0,0,-1,895,414,0,0
-322,610,0,0,0,0,0,0,0,0,0,-1,902,414,0,0
-315,610,7.68475,-21.5402,0,0,0,0,0,0,0,-1,909,414,7.68475,21.5402
-308,610,3.97211,-23.4133,0,0,0,0,0,0,0,-1,916,414,3.9721,23.4133
-301,610,7.38513,-22.4166,0,0,0,0,0,0,0,-1,923,414,7.38516,22.4166
-294,610,6.77832,-24.1945,0,0,0,0,0,0,0,-1,930,414,6.77829,24.1946
-287,610,3.39276,-28.5804,0,0,0,0,0,0,0,-1,937,414,3.39276,28.5803
-280,610,8.8728,-35.4336,0,0,0,0,0,0,0,-1,944,414,8.87283,35.4336
-273,610,8.14722,-35.5264,0,0,0,0,0,0,0,-1,951,414,8.14723,35.5264
-266,610,7.38361,-35.6366,0,0,0,0,0,0,0,-1,958,414,7.38359,35.6366
-259,610,6.47375,-35.762,0,0,0,0,0,0,0,-1,965,414,6.47373,35.762
-252,610,5.65308,-35.8931,0,0,0,0,0,0,0,-1,972,414,5.65305,35.8931
-245,610,7.65027,-47.2002,0,0,0,0,0,0,0,-1,979,414,7.65028,47.2002
-238,610,7.31696,-47.8627,0,0,0,0,0,0,0,-1,986,414,7.31697,47.8627
-231,610,7.26245,-48.7719,-0.000296511,0.0240716,-0.012181,0.0291162,-0.00534113,-1.17816,0.0214144,0.0460727,993,414,7.26246,48.7718
-224,610,7.2641,-49.7877,-0.000523921,0.0214111,-0.010891,0.0259,-0.00501283,-1.17985,0.0191575,0.0301368,1000,414,7.26408,49.7877
-217,610,7.24176,-50.7257,-0.000783908,0.0187654,-0.009649,0.0227256,-0.00474414,-1.18133,0.0169545,0.0211837,1007,414,7.24175,50.7257
-210,610,7.19989,-51.6417,-0.00108104,0.0162928,-0.00853959,0.0197873,-0.00457554,-1.18237,0.014952,0.0148038,1014,414,7.19987,51.6417
-203,610,7.17273,-52.4752,-0.00130728,0.0138772,-0.00749048,0.0169503,-0.00438037,-1.18147,0.0130085,0.0164609,1021,414,7.17278,52.4752
-196,610,7.0885,-53.2669,-0.001466,0.0116488,-0.00651578,0.0143356,-0.00415278,-1.17969,0.0112009,0.0155097,1028,414,7.0885,53.2669
-189,610,7.0144,-54.0447,-0.00152146,0.00960318,-0.00571352,0.0120148,-0.00393308,-1.17139,0.00959351,0.0129801,1035,414,7.01442,54.0447
-182,610,6.96582,-54.7975,-0.00146567,0.00792118,-0.00498558,0.010075,-0.00361945,-1.16301,0.00819406,0.0143753,1042,414,6.96582,54.7975
-175,610,6.91846,-55.5484,-0.00144664,0.00625527,-0.00418143,0.00808887,-0.00328024,-1.15754,0.00675683,0.0154905,1049,414,6.9185,55.5484
-168,610,6.83496,-56.2899,-0.00133892,0.00500519,-0.00360103,0.00663202,-0.00296576,-1.14647,0.00567444,0.0133729,1056,414,6.83501,56.2898
-161,610,6.7782,-57.061,-0.00108875,0.00401685,-0.00307992,0.00546438,-0.00253629,-1.13144,0.00472118,0.0116895,1063,414,6.77825,57.061
-154,610,6.75549,-57.7585,-0.000786061,0.0031603,-0.0025986,0.00444996,-0.00207572,-1.11012,0.00384983,0.0159091,1070,414,6.75549,57.7586
-147,610,6.71448,-58.4314,-0.000447946,0.00240334,-0.00214907,0.00355664,-0.00160125,-1.07826,0.0030484,0.0185492,1077,414,6.71453,58.4314
-140,610,6.66699,-59.1279,-1.08896e-05,0.00166937,-0.00176087,0.00278026,-0.00112178,-1.00798,0.00231968,0.0142961,1084,414,6.66695,59.1279
-133,610,6.6416,-59.7787,0.000462873,0.001136,-0.00140953,0.00224858,-0.000649716,-0.902592,0.00175616,0.0150857,1091,414,6.64162,59.7787
-126,610,6.61902,-60.3896,0.000903402,0.000730548,-0.00109323,0.00191362,-0.000279667,-0.745952,0.00137846,0.0132001,1098,414,6.619,60.3896
-119,610,6.58972,-61.0205,0.00142418,0.000361569,-0.000776926,0.0018341,-4.83471e-05,-0.485493,0.00123916,0.0118048,1105,414,6.58975,61.0205
-112,610,6.59326,-61.6404,0.00206012,0.000168202,-0.000549547,0.00220816,2.01589e-05,-0.263144,0.00146543,0.0214202,1112,414,6.59328,61.6404
-105,610,6.57056,-62.2451,0.0026862,4.4174e-05,-0.000391069,0.00274287,-1.24959e-05,-0.143909,0.00183276,0.0214725,1119,414,6.57053,62.2451
-98,610,6.58813,-62.8195,0.0032897,-0.000148425,-0.000223604,0.00330418,-0.000162906,-0.0646734,0.00225905,0.0145837,1126,414,6.58811,62.8195
-91,610,6.58484,-63.3919,0.00402196,-0.000286371,-5.06708e-05,0.00402256,-0.000286966,-0.011759,0.0027823,0.016096,1133,414,6.58484,63.3919
-84,610,6.61206,-63.9319,0.00486691,-0.000607104,0.000154867,0.00487129,-0.000611482,0.0282611,0.00346936,0.0166834,1140,414,6.61203,63.9319
-77,610,6.599,-64.5048,0.00569619,-0.000913077,0.000287696,0.00570869,-0.000925577,0.0434197,0.00414888,0.0135486,1147,414,6.59894,64.5048
-70,610,6.62988,-65.0288,0.00665045,-0.00162558,0.000655473,0.00670204,-0.00167718,0.0785487,0.0051195,0.01643,1154,414,6.62987,65.0288
-63,610,6.69385,-65.4901,0.00703633,-0.00647379,-0.00120026,0.00714214,-0.0065796,-0.0879238,0.00792446,0.0169473,1161,414,6.69384,65.4901
-56,610,6.76099,-65.9221,0.00644073,-0.0103428,-0.002722,0.00687115,-0.0107733,-0.156829,0.0102697,0.0151979,1168,414,6.76099,65.9221
-49,610,6.76819,-66.3507,0.00635569,-0.0138003,-0.00419811,0.00719512,-0.0146397,-0.197351,0.0128483,0.0145875,1175,414,6.76823,66.3507
-42,610,6.7887,-66.7627,0.00677143,-0.0168157,-0.00487894,0.00774079,-0.017785,-0.196129,0.0151129,0.0163797,1182,414,6.78874,66.7627
-35,610,6.85803,-67.16,0.00656699,-0.0196403,-0.00584121,0.00780996,-0.0208832,-0.209666,0.0171296,0.0174435,1189,414,6.85802,67.16
-28,610,6.92993,-67.52,0.00648205,-0.0224102,-0.00688596,0.00803927,-0.0239674,-0.222403,0.0192267,0.0151706,1196,414,6.92998,67.52
-21,610,7.02148,-67.815,0.00689935,-0.0256489,-0.00800151,0.00876003,-0.0275096,-0.228481,0.0218531,0.0119627,1203,414,7.02143,67.815
-14,610,7.08484,-68.1063,0.00713012,-0.0281142,-0.0086441,0.00913603,-0.0301201,-0.228019,0.0237194,0.0137626,1210,414,7.08488,68.1063
-7,610,7.17578,-68.3659,0.00730852,-0.0305145,-0.00887101,0.00928576,-0.0324918,-0.219303,0.0253303,0.0170795,1217,414,7.17579,68.3659
0,610,7.24622,-68.6549,0.00721664,-0.0322161,-0.00868394,0.00904432,-0.0340438,-0.207439,0.0262355,0.0142055,1224,414,7.24621,68.6549
7,610,7.34216,-68.9581,0.00680985,-0.033591,-0.00828097,0.00844132,-0.0352224,-0.194523,0.0267432,0.0175336,1231,414,7.34217,68.9581
14,610,7.55298,-69.0853,0.00673664,-0.034816,-0.00756061,0.00806956,-0.036149,-0.174504,0.0271913,0.0252122,1238,414,7.55299,69.0853
21,610,7.65125,-69.222,0.00723459,-0.0357197,-0.00637985,0.00816214,-0.0366473,-0.144375,0.0275581,0.0240571,1245,414,7.65129,69.222
28,610,7.62817,-69.4344,0.008003,-0.0363867,-0.00502942,0.0085657,-0.0369494,-0.11142,0.0279295,0.0207493,1252,414,7.62815,69.4344
35,610,7.8158,-69.5921,0.00833828,-0.0364369,-0.00401333,0.00869516,-0.0367938,-0.0886907,0.0278832,0.0234946,1259,414,7.81576,69.5921
42,610,7.86328,-69.6102,0.00920731,-0.0357931,-0.00285933,0.00938826,-0.0359741,-0.0632012,0.0276487,0.0211409,1266,414,7.86334,69.6102
49,610,7.96655,-69.8264,0,0,0,0,0,0,0,-1,1273,414,7.9665,69.8264
56,610,8.01038,-69.7737,0.0124872,-0.0336926,-0.00121774,0.0125193,-0.0337246,-0.0263451,0.0276188,0.0221484,1280,414,8.01043,69.7737
63,610,8.10767,-69.8445,0.0140563,-0.032503,-0.00102224,0.0140788,-0.0325255,-0.0219415,0.0276006,0.0306033,1287,414,8.1077,69.8445
70,610,8.27893,-69.8341,0.0157801,-0.0309091,-0.000976755,0.0158005,-0.0309295,-0.0209082,0.0274469,0.0440034,1294,414,8.27889,69.8341
77,610,8.48499,-69.8688,0,0,0,0,0,0,0,-1,1301,414,8.485,69.8688
84,610,8.58948,-69.6357,0.0182428,-0.0275378,-0.00140336,0.0182857,-0.0275808,-0.0306157,0.0266617,0.0468935,1308,414,8.58947,69.6356
91,610,8.66821,-69.7163,0.0188524,-0.0265723,-0.00211478,0.0189507,-0.0266705,-0.0464219,0.0264648,0.0326679,1315,414,8.66818,69.7163
98,610,8.87964,-69.5757,0.0189909,-0.025572,-0.00284793,0.0191721,-0.0257533,-0.0635635,0.0260303,0.0270311,1322,414,8.87963,69.5757
105,610,8.99048,-69.3726,0.0192018,-0.0251176,-0.003618,0.0194952,-0.025411,-0.0809208,0.0260015,0.0223466,1329,414,8.99046,69.3726
112,610,9.04211,-69.1834,0.0193257,-0.0247176,-0.00423846,0.0197299,-0.0251218,-0.0950713,0.0259574,0.0144096,1336,414,9.04207,69.1834
119,610,9.11401,-69.0102,0.0178682,-0.0244172,-0.00483473,0.018414,-0.0249629,-0.112403,0.0251386,0.0196826,1343,414,9.11399,69.0102
126,610,9.18201,-68.7685,0.0158431,-0.0237094,-0.00553119,0.016602,-0.0244683,-0.13636,0.0238565,0.0287732,1350,414,9.18197,68.7685
133,610,9.28357,-68.4779,0.0139649,-0.0224994,-0.00568743,0.0148314,-0.0233659,-0.15119,0.022236,0.0219769,1357,414,9.28363,68.4779
140,610,9.42126,-68.2188,0.0137663,-0.0215294,-0.00473575,0.0143907,-0.0221537,-0.131085,0.021257,0.0203681,1364,414,9.42128,68.2188
147,610,9.41235,-67.8625,0.0127433,-0.0197833,-0.00380857,0.0131833,-0.0202233,-0.115018,0.0194295,0.0219544,1371,414,9.41229,67.8624
154,610,9.46936,-67.4988,0.010587,-0.0185033,-0.00363431,0.0110341,-0.0189504,-0.122425,0.0175116,0.0256923,1378,414,9.46931,67.4988
161,610,9.68591,-67.1595,0.0101013,-0.0164023,-0.00377433,0.0106283,-0.0169293,-0.138735,0.0160484,0.0305583,1385,414,9.68591,67.1595
168,610,9.81201,-66.7751,0.00947879,-0.0135397,-0.00381804,0.0100956,-0.0141565,-0.160157,0.0140672,0.0288381,1392,414,9.81206,66.7751
175,610,9.80774,-66.3628,0.00884286,-0.0112415,-0.00392121,0.00958127,-0.0119799,-0.186134,0.012474,0.0222439,1399,414,9.80772,66.3628
182,610,9.82861,-65.9156,0.00819714,-0.00892175,-0.00380751,0.00900579,-0.0097304,-0.209274,0.01082,0.01666,1406,414,9.82856,65.9156
189,610,9.82727,-65.4329,0.00706518,-0.00689294,-0.00317193,0.00775218,-0.00757994,-0.213292,0.00885219,0.0153773,1413,414,9.82732,65.4329
196,610,9.85156,-64.963,0.00631621,-0.00487948,-0.00239243,0.00680602,-0.00536929,-0.201944,0.00704571,0.0150482,1420,414,9.85155,64.963
203,610,9.87207,-64.4581,0.00566228,-0.00333736,-0.00174292,0.00598803,-0.00366312,-0.184769,0.00562573,0.0160911,1427,414,9.87206,64.4581
210,610,9.896,-63.9356,0.004633,-0.00220931,-0.00115065,0.00482132,-0.00239763,-0.162225,0.00424544,0.0122711,1434,414,9.89597,63.9356
217,610,9.95544,-63.3293,0.00369857,-0.00101951,-0.000472673,0.00374546,-0.0010664,-0.098874,0.00291813,0.0178387,1441,414,9.95543,63.3294
224,610,9.96301,-62.7783,0.00310581,1.56009e-06,7.14727e-05,0.00310746,-8.45175e-08,0.0230079,0.00207167,0.0204074,1448,414,9.96299,62.7783
231,610,9.96985,-62.2156,0.00260862,0.000814454,0.00054914,0.00276335,0.000659724,0.274648,0.00166644,0.0155621,1455,414,9.9699,62.2156
238,610,9.93494,-61.5793,0.00230517,0.00133928,0.000920363,0.0028616,0.000782846,0.543778,0.00170769,0.0118881,1462,414,9.93489,61.5793
245,610,9.95471,-60.9377,0.00202751,0.00191459,0.00118564,0.00315804,0.000784064,0.761607,0.00189875,0.0135944,1469,414,9.95477,60.9376
252,610,9.92969,-60.3039,0.00169853,0.00258121,0.00156327,0.00376424,0.000515498,0.922977,0.00235653,0.0157518,1476,414,9.92974,60.3039
259,610,9.89392,-59.6388,0.00142203,0.00344161,0.00209848,0.00476062,0.000103022,1.00964,0.00313997,0.013281,1483,414,9.89397,59.6388
266,610,9.87195,-58.9364,0.00119352,0.00428645,0.00262849,0.00578966,-0.000309692,1.0513,0.00396703,0.0125413,1490,414,9.87189,58.9364
273,610,9.85461,-58.2406,0.00107896,0.0053358,0.00326746,0.00710693,-0.000692168,1.07408,0.00498472,0.0106784,1497,414,9.85464,58.2406
280,610,9.80212,-57.5355,0.00105209,0.00654139,0.00400609,0.00865285,-0.00105938,1.08573,0.00615218,0.0102932,1504,414,9.80218,57.5355
287,610,9.73792,-56.8047,0.00110391,0.00788218,0.0048231,0.0103878,-0.00140174,1.09166,0.00743664,0.012741,1511,414,9.73788,56.8048
294,610,9.71606,-56.0743,0.00107038,0.00919357,0.00559823,0.0120484,-0.00178444,1.09922,0.00868837,0.0106102,1518,414,9.71601,56.0743
301,610,9.68335,-55.36,0.00102945,0.0104629,0.00635706,0.013662,-0.00216961,1.10457,0.00991067,0.0103031,1525,414,9.68339,55.36
308,610,9.61365,-54.5714,0.00108796,0.0120573,0.00710002,0.0155444,-0.0023991,1.11427,0.0112482,0.0123844,1532,414,9.61364,54.5714
315,610,9.54749,-53.7948,0.00120292,0.0136405,0.00778494,0.0173855,-0.00254216,1.12241,0.0125241,0.013421,1539,414,9.54743,53.7948
322,610,9.4679,-53.0013,0.00119491,0.0151027,0.00843134,0.0190779,-0.00278024,1.13023,0.0137394,0.0131205,1546,414,9.46787,53.0013
329,610,9.40186,-52.2135,0.00123511,0.0164472,0.00899369,0.0206199,-0.00293757,1.1364,0.0148231,0.0121957,1553,414,9.40184,52.2135
336,610,9.37122,-51.4426,0.00136597,0.0180339,0.00960007,0.0224128,-0.0030129,1.14286,0.0160408,0.0133402,1560,414,9.37126,51.4426
343,610,9.28076,-50.6286,0.0015154,0.0192581,0.0103105,0.0239885,-0.00321496,1.14065,0.0171646,0.0199578,1567,414,9.28072,50.6286
350,610,9.17322,-49.7106,0.00178172,0.0215881,0.0111663,0.0266101,-0.00324023,1.14816,0.0189129,0.0307854,1574,414,9.17321,49.7106
357,610,9.13391,-48.5334,0.00183627,0.0236221,0.0121322,0.0290339,-0.00357557,1.15121,0.0206512,0.0380431,1581,414,9.13395,48.5335
364,610,9.21729,-47.7133,0.00172669,0.0255845,0.012795,0.0311487,-0.00383756,1.16059,0.0221561,0.0407724,1588,414,9.21727,47.7132
371,610,9.44812,-46.6316,0,0,0,0,0,0,0,-1,1595,414,9.44813,46.6316
378,610,9.11145,-46.2609,0,0,0,0,0,0,0,-1,1602,414,9.11139,46.2608
385,610,2.57104,-10.3878,0,0,0,0,0,0,0,-1,1609,414,2.57109,10.3878
392,610,1.99744,-1.83582,0,0,0,0,0,0,0,-1,1616,414,1.99741,1.8358
399,610,2.77136,-2.60333,0,0,0,0,0,0,0,-1,1623,414,2.77133,2.60332
406,610,3.54529,-3.37085,0,0,0,0,0,0,0,-1,1630,414,3.54525,3.37084
413,610,3.01929,-3.20306,0,0,0,0,0,0,0,-1,1637,414,3.01929,3.20306
420,610,4.78149,-3.64041,0,0,0,0,0,0,0,-1,1644,414,4.78152,3.64042
427,610,8.85168,-23.3853,0,0,0,0,0,0,0,-1,1651,414,8.85174,23.3853
434,610,8.73706,-22.6227,0,0,0,0,0,0,0,-1,1658,414,8.73703,22.6227
441,610,0,0,0,0,0,0,0,0,0,-1,1665,414,0,0
448,610,0,0,0,0,0,0,0,0,0,-1,1672,414,0,0
455,610,0,0,0,0,0,0,0,0,0,-1,1679,414,0,0
462,610,0,0,0,0,0,0,0,0,0,-1,1686,414,0,0
469,610,0,0,0,0,0,0,0,0,0,-1,1693,414,0,0
476,610,0,0,0,0,0,0,0,0,0,-1,1700,414,0,0
483,610,0,0,0,0,0,0,0,0,0,-1,1707,414,0,0
490,610,0,0,0,0,0,0,0,0,0,-1,1714,414,0,0
497,610,0,0,0,0,0,0,0,0,0,-1,1721,414,0,0
504,610,0,0,0,0,0,0,0,0,0,-1,1728,414,0,0
511,610,0,0,0,0,0,0,0,0,0,-1,1735,414,0,0
518,610,0,0,0,0,0,0,0,0,0,-1,1742,414,0,0
525,610,0,0,0,0,0,0,0,0,0,-1,1749,414,0,0
532,610,0,0,0,0,0,0,0,0,0,-1,1756,414,0,0
539,610,0,0,0,0,0,0,0,0,0,-1,1763,414,0,0
546,610,0,0,0,0,0,0,0,0,0,-1,1770,414,0,0
553,610,0,0,0,0,0,0,0,0,0,-1,1777,414,0,0
560,610,0,0,0,0,0,0,0,0,0,-1,1784,414,0,0
567,610,0,0,0,0,0,0,0,0,0,-1,1791,414,0,0
574,610,0,0,0,0,0,0,0,0,0,-1,1798,414,0,0
581,610,0,0,0,0,0,0,0,0,0,-1,1805,414,0,0
588,610,0,0,0,0,0,0,0,0,0,-1,1812,414,0,0
595,610,0,0,0,0,0,0,0,0,0,-1,1819,414,0,0
602,610,0,0,0,0,0,0,0,0,0,-1,1826,414,0,0
609,610,0,0,0,0,0,0,0,0,0,-1,1833,414,0,0
616,610,0,0,0,0,0,0,0,0,0,-1,1840,414,0,0
623,610,0,0,0,0,0,0,0,0,0,-1,1847,414,0,0
630,610,0,0,0,0,0,0,0,0,0,-1,1854,414,0,0
637,610,0,0,0,0,0,0,0,0,0,-1,1861,414,0,0
644,610,0,0,0,0,0,0,0,0,0,-1,1868,414,0,0
651,610,0,0,0,0,0,0,0,0,0,-1,1875,414,0,0
658,610,0,0,0,0,0,0,0,0,0,-1,1882,414,0,0
665,610,0,0,0,0,0,0,0,0,0,-1,1889,414,0,0
672,610,0,0,0,0,0,0,0,0,0,-1,1896,414,0,0
679,610,0,0,0,0,0,0,0,0,0,-1,1903,414,0,0
686,610,0,0,0,0,0,0,0,0,0,-1,1910,414,0,0
693,610,0,0,0,0,0,0,0,0,0,-1,1917,414,0,0
700,610,0,0,0,0,0,0,0,0,0,-1,1924,414,0,0
707,610,0,0,0,0,0,0,0,0,0,-1,1931,414,0,0
714,610,0,0,0,0,0,0,0,0,0,-1,1938,414,0,0
721,610,0,0,0,0,0,0,0,0,0,-1,1945,414,0,0
728,610,0,0,0,0,0,0,0,0,0,-1,1952,414,0,0
735,610,0,0,0,0,0,0,0,0,0,-1,1959,414,0,0
742,610,0,0,0,0,0,0,0,0,0,-1,1966,414,0,0
749,610,0,0,0,0,0,0,0,0,0,-1,1973,414,0,0
756,610,0,0,0,0,0,0,0,0,0,-1,1980,414,0,0
763,610,0,0,0,0,0,0,0,0,0,-1,1987,414,0,0
770,610,0,0,0,0,0,0,0,0,0,-1,1994,414,0,0
777,610,0,0,0,0,0,0,0,0,0,-1,2001,414,0,0
784,610,0,0,0,0,0,0,0,0,0,-1,2008,414,0,0
791,610,0,0,0,0,0,0,0,0,0,-1,2015,414,0,0
798,610,0,0,0,0,0,0,0,0,0,-1,2022,414,0,0
805,610,0,0,0,0,0,0,0,0,0,-1,2029,414,0,0
812,610,0,0,0,0,0,0,0,0,0,-1,2036,414,0,0
-700,603,0,0,0,0,0,0,0,0,0,-1,524,421,0,0
-693,603,0,0,0,0,0,0,0,0,0,-1,531,421,0,0
-686,603,0,0,0,0,0,0,0,0,0,-1,538,421,0,0
-679,603,0,0,0,0,0,0,0,0,0,-1,545,421,0,0
-672,603,0,0,0,0,0,0,0,0,0,-1,552,421,0,0
-665,603,0,0,0,0,0,0,0,0,0,-1,559,421,0,0
-658,603,0,0,0,0,0,0,0,0,0,-1,566,421,0,0
-651,603,0,0,0,0,0,0,0,0,0,-1,573,421,0,0
-644,603,0,0,0,0,0,0,0,0,0,-1,580,421,0,0
-637,603,0,0,0,0,0,0,0,0,0,-1,587,421,0,0
-630,603,0,0,0,0,0,0,0,0,0,-1,594,421,0,0
-623,603,0,0,0,0,0,0,0,0,0,-1,601,421,0,0
-616,603,0,0,0,0,0,0,0,0,0,-1,608,421,0,0
-609,603,0,0,0,0,0,0,0,0,0,-1,615,421,0,0
-602,603,0,0,0,0,0,0,0,0,0,-1,622,421,0,0
-595,603,0,0,0,0,0,0,0,0,0,-1,629,421,0,0
-588,603,0,0,0,0,0,0,0,0,0,-1,636,421,0,0
-581,603,0,0,0,0,0,0,0,0,0,-1,643,421,0,0
-574,603,0,0,0,0,0,0,0,0,0,-1,650,421,0,0
-567,603,0,0,0,0,0,0,0,0,0,-1,657,421,0,0
-560,603,0,0,0,0,0,0,0,0,0,-1,664,421,0,0
-553,603,0,0,0,0,0,0,0,0,0,-1,671,421,0,0
-546,603,0,0,0,0,0,0,0,0,0,-1,678,421,0,0
-539,603,0,0,0,0,0,0,0,0,0,-1,685,421,0,0
-532,603,0,0,0,0,0,0,0,0,0,-1,692,421,0,0
-525,603,0,0,0,0,0,0,0,0,0,-1,699,421,0,0
-518,603,0,0,0,0,0,0,0,0,0,-1,706,421,0,0
-511,603,0,0,0,0,0,0,0,0,0,-1,713,421,0,0
-504,603,0,0,0,0,0,0,0,0,0,-1,720,421,0,0
-497,603,0,0,0,0,0,0,0,0,0,-1,727,421,0,0
-490,603,0,0,0,0,0,0,0,0,0,-1,734,421,0,0
-483,603,0,0,0,0,0,0,0,0,0,-1,741,421,0,0
-476,603,0,0,0,0,0,0,0,0,0,-1,748,421,0,0
-469,603,0,0,0,0,0,0,0,0,0,-1,755,421,0,0
-462,603,0,0,0,0,0,0,0,0,0,-1,762,421,0,0
-455,603,0,0,0,0,0,0,0,0,0,-1,769,421,0,0
-448,603,0,0,0,0,0,0,0,0,0,-1,776,421,0,0
-441,603,0,0,0,0,0,0,0,0,0,-1,783,421,0,0
-434,603,0,0,0,0,0,0,0,0,0,-1,790,421,0,0
-427,603,0,0,0,0,0,0,0,0,0,-1,797,421,0,0
-420,603,0,0,0,0,0,0,0,0,0,-1,804,421,0,0
-413,603,0,0,0,0,0,0,0,0,0,-1,811,421,0,0
-406,603,0,0,0,0,0,0,0,0,0,-1,818,421,0,0
-399,603,0,0,0,0,0,0,0,0,0,-1,825,421,0,0
-392,603,0,0,0,0,0,0,0,0,0,-1,832,421,0,0
-385,603,0,0,0,0,0,0,0,0,0,-1,839,421,0,0
-378,603,0,0,0,0,0,0,0,0,0,-1,846,421,0,0
-371,603,0,0,0,0,0,0,0,0,0,-1,853,421,0,0
-364,603,0,0,0,0,0,0,0,0,0,-1,860,421,0,0
-357,603,0,0,0,0,0,0,0,0,0,-1,867,421,0,0
-350,603,0,0,0,0,0,0,0,0,0,-1,874,421,0,0
-343,603,0,0,0,0,0,0,0,0,0,-1,881,421,0,0
-336,603,0,0,0,0,0,0,0,0,0,-1,888,421,0,0
-329,603,4.09686,-17.9702,0,0,0,0,0,0,0,-1,895,421,4.09687,17.9702
-322,603,8.83179,-28.7376,0,0,0,0,0,0,0,-1,902,421,8.83179,28.7376
-315,603,5.99744,-20.4501,0,0,0,0,0,0,0,-1,909,421,5.99745,20.4501
-308,603,5.92249,-20.778,0,0,0,0,0,0,0,-1,916,421,5.92248,20.778
-301,603,2.72424,-20.9059,0,0,0,0,0,0,0,-1,923,421,2.72424,20.9059
-294,603,2.41553,-20.6767,0,0,0,0,0,0,0,-1,930,421,2.41554,20.6767
-287,603,1.91766,-21.2242,0,0,0,0,0,0,0,-1,937,421,1.91767,21.2242
-280,603,2.36121,-27.3314,0,0,0,0,0,0,0,-1,944,421,2.36119,27.3314
-273,603,7.96613,-34.8225,0,0,0,0,0,0,0,-1,951,421,7.96613,34.8225
-266,603,7.18787,-34.9736,0,0,0,0,0,0,0,-1,958,421,7.18788,34.9736
-259,603,5.44666,-36.8901,0,0,0,0,0,0,0,-1,965,421,5.44664,36.8901
-252,603,6.80225,-46.5225,0,0,0,0,0,0,0,-1,972,421,6.80222,46.5225
-245,603,6.79669,-47.3027,0.000403427,0.0236214,-0.0123662,0.0289739,-0.00494908,-1.16231,0.0211594,0.0386351,979,421,6.79667,47.3027
-238,603,6.7298,-48.212,-9.60297e-06,0.0211547,-0.0110145,0.0258467,-0.00470164,-1.16809,0.0189933,0.0208787,986,421,6.72979,48.212
-231,603,6.60217,-49.1295,-0.000371469,0.0187404,-0.00965248,0.022767,-0.00439811,-1.17558,0.0168366,0.0137445,993,421,6.60215,49.1295
-224,603,6.52997,-50.0094,-0.000445769,0.0165971,-0.00856451,0.0201573,-0.00400596,-1.17684,0.0149535,0.0146907,1000,421,6.53,50.0094
-217,603,6.49902,-50.8134,-0.00053561,0.014424,-0.00752311,0.0175529,-0.00366451,-1.17665,0.0130955,0.0142329,1007,421,6.499,50.8135
-210,603,6.45898,-51.6357,-0.000628735,0.012329,-0.00658203,0.0150859,-0.0033856,-1.17415,0.0113553,0.0121972,1014,421,6.45901,51.6357
-203,603,6.42737,-52.4929,-0.000651098,0.0102863,-0.00567853,0.0127013,-0.00306607,-1.16869,0.00965327,0.0180514,1021,421,6.42736,52.4929
-196,603,6.38501,-53.3289,-0.000632981,0.00836268,-0.00483851,0.010471,-0.00274134,-1.15986,0.00805156,0.0200319,1028,421,6.38501,53.329
-189,603,6.33179,-54.0363,-0.000533195,0.00657207,-0.00414881,0.00848148,-0.0024426,-1.13947,0.00662046,0.0168358,1035,421,6.33173,54.0364
-182,603,6.25708,-54.7728,-0.000332684,0.00501867,-0.00349855,0.00674744,-0.00206145,-1.11185,0.00532027,0.0122037,1042,421,6.25712,54.7728
-175,603,6.19678,-55.5188,-0.000172126,0.00351781,-0.00279914,0.00502532,-0.00167964,-1.07678,0.00402855,0.0131521,1049,421,6.19675,55.5188
-168,603,6.13171,-56.2499,3.34977e-05,0.00239213,-0.00228192,0.00378146,-0.00135583,-1.0239,0.00307425,0.0155799,1056,421,6.1317,56.2499
-161,603,6.0813,-57.0021,0.000349855,0.00150164,-0.00181657,0.00283142,-0.000979925,-0.938898,0.00228539,0.0147298,1063,421,6.08126,57.0021
-154,603,6.05701,-57.7158,0.000720418,0.000752742,-0.00137629,0.00211296,-0.000639805,-0.791269,0.00166344,0.0143207,1070,421,6.05704,57.7158
-147,603,6.02393,-58.3878,0.00113932,0.000142864,-0.000979008,0.00173959,-0.000457401,-0.550022,0.0013385,0.0159494,1077,421,6.02388,58.3878
-140,603,6.02441,-59.0611,0.00161766,-0.000432833,-0.000627614,0.0017945,-0.000609681,-0.274656,0.00144315,0.0143691,1084,421,6.02445,59.0611
-133,603,5.9884,-59.7305,0.00210798,-0.0008575,-0.000306829,0.0021394,-0.000888914,-0.102027,0.0017974,0.0135905,1091,421,5.98846,59.7305
-126,603,5.98401,-60.3494,0.00259738,-0.00112437,-3.70622e-05,0.00259775,-0.00112474,-0.00995695,0.00220456,0.0116128,1098,421,5.98398,60.3494
-119,603,5.99133,-60.9861,0.00322132,-0.00129953,0.000224584,0.00323245,-0.00131066,0.0495149,0.00270006,0.0122605,1105,421,5.99129,60.9861
-112,603,5.97571,-61.6115,0.00394357,-0.00136211,0.000425092,0.00397742,-0.00139595,0.0794448,0.00321944,0.0177714,1112,421,5.97567,61.6115
-105,603,5.98462,-62.2002,0.00465376,-0.00135403,0.000545009,0.0047028,-0.00140308,0.0897408,0.00369283,0.0176258,1119,421,5.9846,62.2001
-98,603,6.00122,-62.7607,0.00534708,-0.00150714,0.000690551,0.00541596,-0.00157602,0.0994172,0.00423489,0.0149096,1126,421,6.00121,62.7607
-91,603,6.01379,-63.3329,0.0062333,-0.00161462,0.000851651,0.00632466,-0.00170598,0.106862,0.00488542,0.0112539,1133,421,6.01381,63.3329
-84,603,6.04346,-63.912,0.0072878,-0.00200688,0.00107967,0.00741157,-0.00213064,0.114135,0.00578359,0.0128032,1140,421,6.04343,63.912
-77,603,6.10962,-64.4961,0.00830229,-0.00224583,0.00115133,0.0084265,-0.00237003,0.107464,0.00655215,0.0183551,1147,421,6.1096,64.4961
-70,603,6.05676,-64.9783,0,0,0,0,0,0,0,-1,1154,421,6.05676,64.9783
-63,603,6.13757,-65.3495,0,0,0,0,0,0,0,-1,1161,421,6.13757,65.3495
-56,603,6.26074,-65.8365,0,0,0,0,0,0,0,-1,1168,421,6.26069,65.8365
-49,603,6.32544,-66.288,0,0,0,0,0,0,0,-1,1175,421,6.32547,66.288
-42,603,6.35547,-66.6743,0,0,0,0,0,0,0,-1,1182,421,6.35544,66.6743
-35,603,6.40149,-67.0093,0.00697271,-0.0304465,-0.00973982,0.00935608,-0.0328299,-0.239987,0.0255821,0.0442675,1189,421,6.40152,67.0093
-28,603,6.48022,-67.3482,0.00667987,-0.0336215,-0.010996,0.00948484,-0.0364265,-0.249764,0.0279869,0.0323397,1196,421,6.48021,67.3482
-21,603,6.54199,-67.7036,0.00708986,-0.0375158,-0.0122295,0.0102228,-0.0406487,-0.250783,0.0310724,0.0274041,1203,421,6.54199,67.7036
-14,603,6.68896,-67.9742,0.00754244,-0.0409398,-0.0127837,0.0107067,-0.0441041,-0.242647,0.0335461,0.0247356,1210,421,6.68902,67.9742
-7,603,6.81213,-68.2592,0.0081254,-0.0433936,-0.0133225,0.0113666,-0.0466348,-0.238652,0.0354907,0.0299518,1217,421,6.81212,68.2592
0,603,6.94116,-68.6019,0.00824889,-0.0450926,-0.0129706,0.0112356,-0.0480793,-0.226323,0.0363811,0.0388238,1224,421,6.94121,68.6019
7,603,7.01099,-68.9122,0,0,0,0,0,0,0,-1,1231,421,7.01094,68.9122
14,603,7.53943,-68.191,0,0,0,0,0,0,0,-1,1238,421,7.53937,68.1911
21,603,7.48279,-68.5548,0.00894127,-0.0483963,-0.00952276,0.0104815,-0.0499365,-0.160349,0.0372792,0.045532,1245,421,7.48283,68.5548
28,603,7.55408,-68.8279,0.00999837,-0.0486786,-0.00757029,0.0109593,-0.0496395,-0.126262,0.0372869,0.0464861,1252,421,7.55411,68.8279
35,603,7.88757,-69.3618,0,0,0,0,0,0,0,-1,1259,421,7.88756,69.3618
42,603,7.78662,-68.893,0.0114407,-0.0467125,-0.00411214,0.01173,-0.0470018,-0.0702463,0.0358893,0.0480431,1266,421,7.7866,68.893
49,603,7.78687,-69.0647,0.0134639,-0.0450377,-0.00256289,0.013576,-0.0451498,-0.0436973,0.0355012,0.0244866,1273,421,7.78687,69.0647
56,603,7.83984,-69.3635,0,0,0,0,0,0,0,-1,1280,421,7.83978,69.3635
63,603,7.95447,-69.7017,0,0,0,0,0,0,0,-1,1287,421,7.95442,69.7017
70,603,8.2002,-69.6408,0,0,0,0,0,0,0,-1,1294,421,8.20017,69.6408
77,603,9.49036,-68.8863,0,0,0,0,0,0,0,-1,1301,421,9.49038,68.8863
84,603,8.63721,-69.5796,0,0,0,0,0,0,0,-1,1308,421,8.63726,69.5796
91,603,8.73169,-69.8231,0,0,0,0,0,0,0,-1,1315,421,8.73168,69.8231
98,603,9.08997,-69.7307,0,0,0,0,0,0,0,-1,1322,421,9.08997,69.7306
105,603,9.23987,-69.4472,0,0,0,0,0,0,0,-1,1329,421,9.23986,69.4472
112,603,9.42957,-68.8381,0.0213801,-0.0326589,-0.00320744,0.0215698,-0.0328486,-0.0590777,0.0316426,0.0446818,1336,421,9.42959,68.8381
119,603,9.59863,-68.6953,0.0199047,-0.0329411,-0.00435721,0.0202615,-0.033298,-0.0817161,0.0312264,0.0460167,1343,421,9.59867,68.6953
126,603,9.67285,-68.4225,0,0,0,0,0,0,0,-1,1350,421,9.67279,68.4225
133,603,9.76599,-68.0914,0.0156114,-0.0321192,-0.00643523,0.0164638,-0.0329716,-0.131692,0.0290671,0.0464314,1357,421,9.766,68.0914
140,603,9.97327,-67.6882,0.0162099,-0.0319327,-0.00554607,0.0168406,-0.0325633,-0.113225,0.0290009,0.0446942,1364,421,9.97321,67.6882
147,603,9.82202,-67.4878,0.0156986,-0.0290875,-0.00394155,0.0160428,-0.0294317,-0.087116,0.0266314,0.0359586,1371,421,9.82208,67.4878
154,603,9.80481,-67.377,0.0126731,-0.0273727,-0.00385713,0.0130412,-0.0277408,-0.0951524,0.0240499,0.0410244,1378,421,9.80484,67.377
161,603,10.114,-67.0044,0.0122605,-0.0243976,-0.00439404,0.0127798,-0.0249169,-0.117645,0.0221371,0.0382988,1385,421,10.1141,67.0044
168,603,10.2974,-66.6123,0.0117078,-0.0201509,-0.00490998,0.0124474,-0.0208904,-0.149497,0.0194523,0.0398105,1392,421,10.2973,66.6123
175,603,10.4297,-66.218,0.011227,-0.016922,-0.00562743,0.0123103,-0.0180053,-0.190181,0.0176053,0.0432761,1399,421,10.4297,66.218
182,603,10.4977,-65.8028,0.010887,-0.013453,-0.00583551,0.0122138,-0.0147797,-0.223556,0.0156082,0.0497946,1406,421,10.4976,65.8027
189,603,10.4097,-65.3033,0.00953292,-0.0109112,-0.00503742,0.0107067,-0.0120851,-0.228935,0.0131669,0.0419915,1413,421,10.4097,65.3033
196,603,10.371,-64.7844,0.0086821,-0.00841143,-0.00405235,0.00959413,-0.00932346,-0.221372,0.0109224,0.0299765,1420,421,10.371,64.7844
203,603,10.4113,-64.3607,0.00798938,-0.00656985,-0.00323926,0.00867755,-0.00725802,-0.209335,0.00921256,0.0178552,1427,421,10.4113,64.3607
210,603,10.4302,-63.9521,0.00674148,-0.00526802,-0.00252396,0.00725036,-0.0057769,-0.198953,0.00753732,0.0146482,1434,421,10.4302,63.9521
217,603,10.4507,-63.3527,0.00554799,-0.00377643,-0.00166974,0.00583798,-0.00406641,-0.171956,0.00574871,0.014444,1441,421,10.4507,63.3527
224,603,10.5229,-62.7476,0.00478431,-0.00247205,-0.00101554,0.00492376,-0.0026115,-0.136459,0.00441823,0.0173056,1448,421,10.5229,62.7476
231,603,10.5486,-62.1783,0.00411606,-0.00150067,-0.000458837,0.0041533,-0.00153791,-0.0809757,0.0033995,0.0150671,1455,421,10.5486,62.1783
238,603,10.5598,-61.5531,0.00377148,-0.00120697,-0.000145455,0.00377572,-0.00121122,-0.0291837,0.00300343,0.0116079,1462,421,10.5598,61.5531
245,603,10.5634,-60.9217,0.00343392,-0.000825084,1.88929e-05,0.00343401,-0.000825168,0.00443586,0.00260827,0.0130952,1469,421,10.5634,60.9217
252,603,10.5851,-60.2758,0.00293472,-0.000404422,0.000296822,0.0029609,-0.000430602,0.0879725,0.00213201,0.011715,1476,421,10.5851,60.2758
259,603,10.5597,-59.6124,0.00245877,9.52949e-05,0.000619492,0.0026113,-5.7237e-05,0.241418,0.00176026,0.0108723,1483,421,10.5598,59.6124
266,603,10.525,-58.9147,0.00210894,0.000724562,0.00100171,0.00263435,0.00019915,0.483066,0.00169376,0.0123208,1490,421,10.525,58.9147
273,603,10.5228,-58.2161,0.00185103,0.00153179,0.00147754,0.00317755,0.000205273,0.73159,0.00205337,0.0115746,1497,421,10.5228,58.2161
280,603,10.5084,-57.5261,0.00167779,0.00254483,0.00207691,0.00423298,-1.0367e-05,0.888287,0.00282545,0.0129379,1504,421,10.5085,57.5261
287,603,10.4645,-56.7838,0.0015925,0.0036895,0.00275006,0.00558416,-0.000302158,0.967524,0.00382747,0.0121384,1511,421,10.4645,56.7838
294,603,10.4078,-56.0446,0.00145009,0.00488474,0.0034133,0.00698839,-0.000653563,1.01847,0.00489136,0.0101779,1518,421,10.4078,56.0446
301,603,10.3779,-55.3227,0.00130163,0.00609196,0.00407857,0.00842665,-0.00103306,1.0509,0.00599188,0.0123729,1525,421,10.378,55.3227
308,603,10.3278,-54.5509,0.00124929,0.00758349,0.00474924,0.0101248,-0.00129201,1.07947,0.00721917,0.0184705,1532,421,10.3278,54.5509
315,603,10.2618,-53.7906,0.00125577,0.00908273,0.00538897,0.0118293,-0.00149081,1.09945,0.00842721,0.0168481,1539,421,10.2619,53.7906
322,603,10.226,-52.9983,0.0011514,0.0104738,0.0059924,0.0134044,-0.00177921,1.11594,0.00958457,0.0151913,1546,421,10.2259,52.9983
329,603,10.1632,-52.2144,0.00110069,0.0117527,0.00655204,0.0148704,-0.00201697,1.12667,0.0106498,0.0113805,1553,421,10.1632,52.2143
336,603,10.1229,-51.4322,0.00113794,0.0132097,0.00716779,0.0165445,-0.00219683,1.13534,0.0118301,0.0102935,1560,421,10.1229,51.4322
343,603,10.0588,-50.6244,0.00115296,0.0144169,0.00789379,0.0180949,-0.00252501,1.13477,0.012987,0.0116364,1567,421,10.0589,50.6244
350,603,10.0054,-49.7892,0.00126131,0.0164723,0.00870066,0.0204229,-0.00268937,1.14457,0.0145946,0.0132082,1574,421,10.0054,49.7892
357,603,9.9325,-48.9337,0.00124724,0.0182095,0.00958086,0.0225238,-0.00306704,1.14769,0.0161356,0.0148094,1581,421,9.93248,48.9337
364,603,9.91699,-47.997,0.0011481,0.0199004,0.0103041,0.0244558,-0.00340729,1.15454,0.0175502,0.0172835,1588,421,9.91698,47.997
371,603,9.85388,-47.1033,0.0012959,0.0224396,0.0114792,0.0274734,-0.00373792,1.15753,0.0196803,0.0236697,1595,421,9.85388,47.1033
378,603,9.79114,-46.3291,0.00130031,0.0251421,0.0126882,0.0306309,-0.00418849,1.16251,0.0219504,0.0389046,1602,421,9.7911,46.3291
385,603,9.8269,-45.4127,0,0,0,0,0,0,0,-1,1609,421,9.8269,45.4127
392,603,9.80798,-44.7341,0,0,0,0,0,0,0,-1,1616,421,9.80796,44.7341
399,603,9.1814,-42.6928,0,0,0,0,0,0,0,-1,1623,421,9.18138,42.6928
406,603,9.24316,-41.9761,0,0,0,0,0,0,0,-1,1630,421,9.24321,41.9761
413,603,2.38928,-2.41275,0,0,0,0,0,0,0,-1,1637,421,2.38926,2.41274
420,603,8.22217,-23.7068,0,0,0,0,0,0,0,-1,1644,421,8.22215,23.7068
427,603,8.20386,-23.1278,0,0,0,0,0,0,0,-1,1651,421,8.2039,23.1278
434,603,8.01489,-22.5655,0,0,0,0,0,0,0,-1,1658,421,8.01493,22.5655
441,603,8.00122,-22.3072,0,0,0,0,0,0,0,-1,1665,421,8.00116,22.3071
448,603,1.14355,-4.59842,0,0,0,0,0,0,0,-1,1672,421,1.14355,4.59841
455,603,0,0,0,0,0,0,0,0,0,-1,1679,421,0,0
462,603,0,0,0,0,0,0,0,0,0,-1,1686,421,0,0
469,603,0,0,0,0,0,0,0,0,0,-1,1693,421,0,0
476,603,0,0,0,0,0,0,0,0,0,-1,1700,421,0,0
483,603,0,0,0,0,0,0,0,0,0,-1,1707,421,0,0
490,603,0,0,0,0,0,0,0,0,0,-1,1714,421,0,0
497,603,0,0,0,0,0,0,0,0,0,-1,1721,421,0,0
504,603,0,0,0,0,0,0,0,0,0,-1,1728,421,0,0
511,603,0,0,0,0,0,0,0,0,0,-1,1735,421,0,0
518,603,0,0,0,0,0,0,0,0,0,-1,1742,421,0,0
525,603,0,0,0,0,0,0,0,0,0,-1,1749,421,0,0
532,603,0,0,0,0,0,0,0,0,0,-1,1756,421,0,0
539,603,0,0,0,0,0,0,0,0,0,-1,1763,421,0,0
546,603,0,0,0,0,0,0,0,0,0,-1,1770,421,0,0
553,603,0,0,0,0,0,0,0,0,0,-1,1777,421,0,0
560,603,0,0,0,0,0,0,0,0,0,-1,1784,421,0,0
567,603,0,0,0,0,0,0,0,0,0,-1,1791,421,0,0
574,603,0,0,0,0,0,0,0,0,0,-1,1798,421,0,0
581,603,0,0,0,0,0,0,0,0,0,-1,1805,421,0,0
588,603,0,0,0,0,0,0,0,0,0,-1,1812,421,0,0
595,603,0,0,0,0,0,0,0,0,0,-1,1819,421,0,0
602,603,0,0,0,0,0,0,0,0,0,-1,1826,421,0,0
609,603,0,0,0,0,0,0,0,0,0,-1,1833,421,0,0
616,603,0,0,0,0,0,0,0,0,0,-1,1840,421,0,0
623,603,0,0,0,0,0,0,0,0,0,-1,1847,421,0,0
630,603,0,0,0,0,0,0,0,0,0,-1,1854,421,0,0
637,603,0,0,0,0,0,0,0,0,0,-1,1861,421,0,0
644,603,0,0,0,0,0,0,0,0,0,-1,1868,421,0,0
651,603,0,0,0,0,0,0,0,0,0,-1,1875,421,0,0
658,603,0,0,0,0,0,0,0,0,0,-1,1882,421,0,0
665,603,0,0,0,0,0,0,0,0,0,-1,1889,421,0,0
672,603,0,0,0,0,0,0,0,0,0,-1,1896,421,0,0
679,603,0,0,0,0,0,0,0,0,0,-1,1903,421,0,0
686,603,0,0,0,0,0,0,0,0,0,-1,1910,421,0,0
693,603,0,0,0,0,0,0,0,0,0,-1,1917,421,0,0
700,603,0,0,0,0,0,0,0,0,0,-1,1924,421,0,0
707,603,0,0,0,0,0,0,0,0,0,-1,1931,421,0,0
714,603,0,0,0,0,0,0,0,0,0,-1,1938,421,0,0
721,603,0,0,0,0,0,0,0,0,0,-1,1945,421,0,0
728,603,0,0,0,0,0,0,0,0,0,-1,1952,421,0,0
735,603,0,0,0,0,0,0,0,0,0,-1,1959,421,0,0
742,603,0,0,0,0,0,0,0,0,0,-1,1966,421,0,0
749,603,0,0,0,0,0,0,0,0,0,-1,1973,421,0,0
756,603,0,0,0,0,0,0,0,0,0,-1,1980,421,0,0
763,603,0,0,0,0,0,0,0,0,0,-1,1987,421,0,0
770,603,0,0,0,0,0,0,0,0,0,-1,1994,421,0,0
777,603,0,0,0,0,0,0,0,0,0,-1,2001,421,0,0
784,603,0,0,0,0,0,0,0,0,0,-1,2008,421,0,0
791,603,0,0,0,0,0,0,0,0,0,-1,2015,421,0,0
798,603,0,0,0,0,0,0,0,0,0,-1,2022,421,0,0
805,603,0,0,0,0,0,0,0,0,0,-1,2029,421,0,0
812,603,0,0,0,0,0,0,0,0,0,-1,2036,421,0,0
-700,596,0,0,0,0,0,0,0,0,0,-1,524,428,0,0
-693,596,0,0,0,0,0,0,0,0,0,-1,531,428,0,0
-686,596,0,0,0,0,0,0,0,0,0,-1,538,428,0,0
-679,596,0,0,0,0,0,0,0,0,0,-1,545,428,0,0
-672,596,0,0,0,0,0,0,0,0,0,-1,552,428,0,0
-665,596,0,0,0,0,0,0,0,0,0,-1,559,428,0,0
-658,596,0,0,0,0,0,0,0,0,0,-1,566,428,0,0
-651,596,0,0,0,0,0,0,0,0,0,-1,573,428,0,0
-644,596,0,0,0,0,0,0,0,0,0,-1,580,428,0,0
-637,596,0,0,0,0,0,0,0,0,0,-1,587,428,0,0
-630,596,0,0,0,0,0,0,0,0,0,-1,594,428,0,0
-623,596,0,0,0,0,0,0,0,0,0,-1,601,428,0,0
-616,596,0,0,0,0,0,0,0,0,0,-1,608,428,0,0
-609,596,0,0,0,0,0,0,0,0,0,-1,615,428,0,0
-602,596,0,0,0,0,0,0,0,0,0,-1,622,428,0,0
-595,596,0,0,0,0,0,0,0,0,0,-1,629,428,0,0
-588,596,0,0,0,0,0,0,0,0,0,-1,636,428,0,0
-581,596,0,0,0,0,0,0,0,0,0,-1,643,428,0,0
-574,596,0,0,0,0,0,0,0,0,0,-1,650,428,0,0
-567,596,0,0,0,0,0,0,0,0,0,-1,657,428,0,0
-560,596,0,0,0,0,0,0,0,0,0,-1,664,428,0,0
-553,596,0,0,0,0,0,0,0,0,0,-1,671,428,0,0
-546,596,0,0,0,0,0,0,0,0,0,-1,678,428,0,0
-539,596,0,0,0,0,0,0,0,0,0,-1,685,428,0,0
-532,596,0,0,0,0,0,0,0,0,0,-1,692,428,0,0
-525,596,0,0,0,0,0,0,0,0,0,-1,699,428,0,0
-518,596,0,0,0,0,0,0,0,0,0,-1,706,428,0,0
-511,596,0,0,0,0,0,0,0,0,0,-1,713,428,0,0
-504,596,0,0,0,0,0,0,0,0,0,-1,720,428,0,0
-497,596,0,0,0,0,0,0,0,0,0,-1,727,428,0,0
-490,596,0,0,0,0,0,0,0,0,0,-1,734,428,0,0
-483,596,0,0,0,0,0,0,0,0,0,-1,741,428,0,0
-476,596,0,0,0,0,0,0,0,0,0,-1,748,428,0,0
-469,596,0,0,0,0,0,0,0,0,0,-1,755,428,0,0
-462,596,0,0,0,0,0,0,0,0,0,-1,762,428,0,0
-455,596,0,0,0,0,0,0,0,0,0,-1,769,428,0,0
-448,596,0,0,0,0,0,0,0,0,0,-1,776,428,0,0
-441,596,0,0,0,0,0,0,0,0,0,-1,783,428,0,0
-434,596,0,0,0,0,0,0,0,0,0,-1,790,428,0,0
-427,596,0,0,0,0,0,0,0,0,0,-1,797,428,0,0
-420,596,0,0,0,0,0,0,0,0,0,-1,804,428,0,0
-413,596,0,0,0,0,0,0,0,0,0,-1,811,428,0,0
-406,596,0,0,0,0,0,0,0,0,0,-1,818,428,0,0
-399,596,0,0,0,0,0,0,0,0,0,-1,825,428,0,0
-392,596,0,0,0,0,0,0,0,0,0,-1,832,428,0,0
-385,596,0,0,0,0,0,0,0,0,0,-1,839,428,0,0
-378,596,0,0,0,0,0,0,0,0,0,-1,846,428,0,0
-371,596,0,0,0,0,0,0,0,0,0,-1,853,428,0,0
-364,596,0,0,0,0,0,0,0,0,0,-1,860,428,0,0
-357,596,0,0,0,0,0,0,0,0,0,-1,867,428,0,0
-350,596,0,0,0,0,0,0,0,0,0,-1,874,428,0,0
-343,596,0,0,0,0,0,0,0,0,0,-1,881,428,0,0
-336,596,6.81445,-30.5258,0,0,0,0,0,0,0,-1,888,428,6.81446,30.5258
-329,596,6.84772,-28.9253,0,0,0,0,0,0,0,-1,895,428,6.84773,28.9253
-322,596,6.97449,-27.9047,0,0,0,0,0,0,0,-1,902,428,6.97451,27.9047
-315,596,7.10132,-26.8841,0,0,0,0,0,0,0,-1,909,428,7.10129,26.8841
-308,596,0.254761,-20.841,0,0,0,0,0,0,0,-1,916,428,0.254731,20.841
-301,596,3.43213,-26.756,0,0,0,0,0,0,0,-1,923,428,3.43214,26.756
-294,596,4.1767,-27.6454,0,0,0,0,0,0,0,-1,930,428,4.17667,27.6454
-287,596,4.36041,-27.6119,0,0,0,0,0,0,0,-1,937,428,4.3604,27.6119
-280,596,5.96619,-42.5634,0,0,0,0,0,0,0,-1,944,428,5.96616,42.5634
-273,596,6.09882,-43.8895,0,0,0,0,0,0,0,-1,951,428,6.09879,43.8895
-266,596,6.04382,-44.6888,0,0,0,0,0,0,0,-1,958,428,6.04383,44.6888
-259,596,6.06213,-45.511,0,0,0,0,0,0,0,-1,965,428,6.06215,45.5109
-252,596,5.98645,-46.5373,0.000324991,0.0198458,-0.0109287,0.0247381,-0.00456735,-1.14989,0.0182065,0.0228539,972,428,5.98644,46.5373
-245,596,5.98004,-47.4929,0.000354696,0.0180491,-0.0098479,0.0224402,-0.00403646,-1.15136,0.0164713,0.0148013,979,428,5.98004,47.4929
-238,596,5.93848,-48.3348,0.000187304,0.0160552,-0.00870713,0.019901,-0.00365846,-1.15488,0.01464,0.0124534,986,428,5.93847,48.3348
-231,596,5.82117,-49.2137,2.52175e-05,0.0140354,-0.00752492,0.0173112,-0.00325053,-1.16022,0.012763,0.0134122,993,428,5.82117,49.2137
-224,596,5.76495,-50.0565,4.98503e-05,0.0121541,-0.00653961,0.0150124,-0.00280839,-1.15875,0.0110638,0.0139023,1000,428,5.76496,50.0565
-217,596,5.7121,-50.8551,6.44077e-05,0.0102168,-0.00559509,0.0126952,-0.00241406,-1.1538,0.00937238,0.0148304,1007,428,5.71212,50.8551
-210,596,5.69019,-51.6687,8.40022e-05,0.00830189,-0.00473067,0.0104589,-0.00207304,-1.14299,0.00775654,0.0131232,1014,428,5.69017,51.6687
-203,596,5.66492,-52.4492,0.00017839,0.00646677,-0.00390421,0.00833544,-0.00169028,-1.12439,0.0061977,0.0168697,1021,428,5.66488,52.4492
-196,596,5.62561,-53.2445,0.000303315,0.00474763,-0.00314859,0.00637925,-0.0013283,-1.09269,0.00475782,0.0170015,1028,428,5.62555,53.2445
-189,596,5.54883,-53.9981,0.000496989,0.00316843,-0.00253859,0.00470126,-0.00103584,-1.02758,0.00353048,0.013457,1035,428,5.54883,53.9981
-182,596,5.50378,-54.7307,0.000792058,0.00173936,-0.00195116,0.00327353,-0.000742114,-0.904472,0.00246722,0.0123526,1042,428,5.50374,54.7307
-175,596,5.46545,-55.4759,0.00106076,0.00043884,-0.00136073,0.00214561,-0.000646009,-0.673065,0.00168747,0.0157326,1049,428,5.46545,55.4759
-168,596,5.43701,-56.2362,0.00135329,-0.000509154,-0.00092562,0.00173506,-0.000890923,-0.391191,0.001542,0.01817,1056,428,5.43702,56.2362
-161,596,5.39124,-56.9647,0.00173673,-0.0012376,-0.000539912,0.0018317,-0.00133258,-0.174126,0.00183446,0.0157167,1063,428,5.39126,56.9647
-154,596,5.34961,-57.6634,0.00218282,-0.00180023,-0.00017372,0.00219038,-0.0018078,-0.0435048,0.00231187,0.013097,1070,428,5.34963,57.6634
-147,596,5.37585,-58.3176,0.00270766,-0.00218739,0.000146042,0.00271201,-0.00219174,0.0297994,0.00283649,0.0138343,1077,428,5.37589,58.3176
-140,596,5.38184,-58.999,0.0032659,-0.00251357,0.000432186,0.00329804,-0.00254571,0.0742293,0.0033832,0.0166749,1084,428,5.38181,58.999
-133,596,5.37,-59.7065,0.00375162,-0.002818,0.000730495,0.00383187,-0.00289824,0.109412,0.00389807,0.0164254,1091,428,5.36996,59.7065
-126,596,5.36169,-60.3354,0.00426829,-0.0029409,0.000969814,0.00439648,-0.00306909,0.131413,0.0043329,0.0124327,1098,428,5.36164,60.3355
-119,596,5.36987,-60.985,0.00497791,-0.00292868,0.00118957,0.005153,-0.00310377,0.146144,0.00481574,0.0158029,1105,428,5.36985,60.985
-112,596,5.33862,-61.5995,0.00576918,-0.00285958,0.00136885,0.00598113,-0.00307152,0.153615,0.00531578,0.0170897,1112,428,5.33861,61.5995
-105,596,5.36548,-62.1824,0.00654616,-0.00271467,0.00146267,0.00677169,-0.0029402,0.152982,0.00575077,0.0246426,1119,428,5.3655,62.1824
-98,596,5.44324,-62.7903,0.00729332,-0.00286049,0.00162155,0.00754599,-0.00311316,0.154578,0.00632897,0.0347454,1126,428,5.44319,62.7902
-91,596,5.3866,-63.3183,0,0,0,0,0,0,0,-1,1133,428,5.38663,63.3183
-84,596,5.47412,-63.8882,0,0,0,0,0,0,0,-1,1140,428,5.47407,63.8882
-77,596,5.6698,-64.5206,0,0,0,0,0,0,0,-1,1147,428,5.66978,64.5206
-70,596,3.50696,-32.137,0,0,0,0,0,0,0,-1,1154,428,3.50696,32.137
-63,596,1.95569,-12.2758,0,0,0,0,0,0,0,-1,1161,428,1.95563,12.2759
-56,596,1.60107,-10.5827,0,0,0,0,0,0,0,-1,1168,428,1.60108,10.5827
-49,596,1.59473,-10.0393,0,0,0,0,0,0,0,-1,1175,428,1.59472,10.0393
-42,596,1.99585,-6.6246,0,0,0,0,0,0,0,-1,1182,428,1.99586,6.62459
-35,596,5.83215,-66.6573,0,0,0,0,0,0,0,-1,1189,428,5.83213,66.6573
-28,596,6.03418,-67.1459,0,0,0,0,0,0,0,-1,1196,428,6.03415,67.1459
-21,596,6.01648,-67.5384,0,0,0,0,0,0,0,-1,1203,428,6.01649,67.5384
-14,596,6.26599,-67.8134,0,0,0,0,0,0,0,-1,1210,428,6.26596,67.8134
-7,596,6.40735,-68.0884,0,0,0,0,0,0,0,-1,1217,428,6.4074,68.0884
0,596,6.62305,-68.5135,0,0,0,0,0,0,0,-1,1224,428,6.62307,68.5135
7,596,1.87036,-62.6725,0,0,0,0,0,0,0,-1,1231,428,1.87031,62.6725
14,596,2.79126,-62.859,0,0,0,0,0,0,0,-1,1238,428,2.79121,62.859
21,596,7.36145,-67.5316,0,0,0,0,0,0,0,-1,1245,428,7.36149,67.5316
28,596,7.43469,-68.0117,0,0,0,0,0,0,0,-1,1252,428,7.43463,68.0117
35,596,7.68567,-67.8914,0,0,0,0,0,0,0,-1,1259,428,7.68568,67.8913
42,596,7.67896,-68.1862,0.0132142,-0.0574624,-0.00516115,0.0135891,-0.0578373,-0.0725122,0.0437964,0.0475085,1266,428,7.67901,68.1862
49,596,7.73157,-68.449,0.0155656,-0.055098,-0.00288744,0.0156833,-0.0552158,-0.0407711,0.0430024,0.0440156,1273,428,7.73157,68.449
56,596,7.11499,-68.5429,0.017514,-0.0522106,-0.000772502,0.0175225,-0.0522191,-0.0110775,0.0418935,0.0436985,1280,428,7.11505,68.5429
63,596,6.55579,-68.2984,0,0,0,0,0,0,0,-1,1287,428,6.55576,68.2984
70,596,6.07166,-68.0855,0,0,0,0,0,0,0,-1,1294,428,6.07164,68.0855
77,596,9.20837,-68.4495,0.0226413,-0.0441631,0.00143361,0.0226721,-0.0441939,0.0214466,0.039266,0.0450537,1301,428,9.20832,68.4495
84,596,9.54272,-68.6311,0.0234125,-0.0418954,0.0012337,0.0234358,-0.0419187,0.0188816,0.0382321,0.0474795,1308,428,9.54268,68.6311
91,596,10.0889,-68.8681,0,0,0,0,0,0,0,-1,1315,428,10.0889,68.8681
98,596,11.1359,-68.8956,0,0,0,0,0,0,0,-1,1322,428,11.1359,68.8956
105,596,0.545044,-70.104,0,0,0,0,0,0,0,-1,1329,428,0.545072,70.104
112,596,9.81226,-68.4733,0,0,0,0,0,0,0,-1,1336,428,9.8122,68.4733
119,596,10.1428,-68.2514,0,0,0,0,0,0,0,-1,1343,428,10.1428,68.2514
126,596,9.79309,-68.0193,0,0,0,0,0,0,0,-1,1350,428,9.79304,68.0192
133,596,10.3535,-67.5979,0,0,0,0,0,0,0,-1,1357,428,10.3536,67.5979
140,596,10.6234,-66.854,0,0,0,0,0,0,0,-1,1364,428,10.6234,66.854
147,596,10.2201,-66.647,0,0,0,0,0,0,0,-1,1371,428,10.2201,66.647
154,596,10.035,-67.1418,0,0,0,0,0,0,0,-1,1378,428,10.0351,67.1418
161,596,10.5255,-66.6738,0,0,0,0,0,0,0,-1,1385,428,10.5255,66.6738
168,596,10.7915,-66.1104,0,0,0,0,0,0,0,-1,1392,428,10.7915,66.1105
175,596,10.9486,-65.7453,0,0,0,0,0,0,0,-1,1399,428,10.9486,65.7453
182,596,11.1597,-65.6227,0,0,0,0,0,0,0,-1,1406,428,11.1597,65.6227
189,596,11.0189,-65.1443,0,0,0,0,0,0,0,-1,1413,428,11.0189,65.1443
196,596,10.9513,-64.4417,0,0,0,0,0,0,0,-1,1420,428,10.9513,64.4417
203,596,10.9009,-64.2449,0,0,0,0,0,0,0,-1,1427,428,10.9009,64.2449
210,596,10.957,-63.9695,0,0,0,0,0,0,0,-1,1434,428,10.957,63.9695
217,596,10.986,-63.3684,0,0,0,0,0,0,0,-1,1441,428,10.986,63.3684
224,596,11.1121,-62.7418,0,0,0,0,0,0,0,-1,1448,428,11.1121,62.7418
231,596,11.2158,-62.175,0.00555305,-0.00370511,-0.0014815,0.00578434,-0.00393641,-0.15487,0.00564598,0.0285371,1455,428,11.2158,62.175
238,596,11.1884,-61.5094,0.00523129,-0.00372673,-0.00120658,0.00539096,-0.00388641,-0.13157,0.00537972,0.0177279,1462,428,11.1884,61.5094
245,596,11.1941,-60.8828,0.00485216,-0.00359506,-0.00115494,0.00500722,-0.00375012,-0.133462,0.00507339,0.0143954,1469,428,11.1941,60.8828
252,596,11.2202,-60.2237,0.00420307,-0.00346068,-0.000959252,0.00432131,-0.00357892,-0.122647,0.00456791,0.0102603,1476,428,11.2203,60.2237
259,596,11.2229,-59.5577,0.00357528,-0.00331447,-0.000826438,0.00367303,-0.00341222,-0.117727,0.00409159,0.00890757,1483,428,11.2229,59.5577
266,596,11.1932,-58.8826,0.00313127,-0.00289663,-0.000575549,0.00318573,-0.00295109,-0.0943451,0.00354396,0.0111163,1490,428,11.1933,58.8826
273,596,11.1974,-58.202,0.00275362,-0.00231833,-0.000239413,0.0027649,-0.0023296,-0.0470639,0.00294489,0.0133561,1497,428,11.1974,58.202
280,596,11.1979,-57.515,0.00245813,-0.00147187,0.000247182,0.00247361,-0.00148736,0.0625677,0.00231038,0.0140491,1504,428,11.1979,57.515
287,596,11.1698,-56.7916,0.00225508,-0.000484927,0.00080226,0.0024727,-0.000702541,0.264878,0.00192584,0.0129637,1511,428,11.1698,56.7916
294,596,11.1234,-56.0454,0.00201861,0.00064325,0.00137863,0.00287155,-0.000209698,0.55405,0.00198796,0.0100134,1518,428,11.1234,56.0454
301,596,11.1066,-55.3011,0.00177167,0.001854,0.00197452,0.00378778,-0.000162113,0.79582,0.00258092,0.0112303,1525,428,11.1066,55.301
308,596,11.0829,-54.5515,0.00161203,0.00329292,0.002591,0.00517637,-0.000271421,0.942229,0.00354485,0.0177834,1532,428,11.0829,54.5515
315,596,11.0071,-53.7967,0.00151071,0.00476416,0.00320175,0.00672873,-0.000453861,1.02044,0.00464451,0.0177193,1539,428,11.0071,53.7967
322,596,10.9806,-52.982,0.00131572,0.00614675,0.0037848,0.00822116,-0.000758683,1.06942,0.00575038,0.0137479,1546,428,10.9805,52.982
329,596,10.928,-52.1926,0.00117664,0.00743928,0.00435854,0.00967471,-0.0010588,1.09689,0.00683015,0.00989361,1553,428,10.928,52.1926
336,596,10.8691,-51.4209,0.0011261,0.00886221,0.00498549,0.0113042,-0.00131592,1.11532,0.0080109,0.00882802,1560,428,10.8691,51.4209
343,596,10.8398,-50.6104,0.00102738,0.010129,0.00571421,0.0128831,-0.00172674,1.12167,0.00921839,0.0114206,1567,428,10.8398,50.6104
350,596,10.8044,-49.756,0.00102494,0.0120245,0.00649424,0.0150349,-0.00198544,1.13673,0.0107464,0.0118078,1574,428,10.8045,49.756
357,596,10.7319,-48.9242,0.000966851,0.0136051,0.00731465,0.0169522,-0.00238023,1.14165,0.0121727,0.0099932,1581,428,10.7319,48.9242
364,596,10.6545,-48.0696,0.000859981,0.0151213,0.00805985,0.018752,-0.00277075,1.14755,0.0135199,0.0101959,1588,428,10.6545,48.0696
371,596,10.5868,-47.2122,0.000871645,0.0171275,0.00906009,0.0211712,-0.00317204,1.15101,0.0152816,0.0110212,1595,428,10.5867,47.2122
378,596,10.5233,-46.3454,0.000762867,0.0191954,0.0100243,0.0235963,-0.00363802,1.15711,0.0170732,0.0160723,1602,428,10.5233,46.3454
385,596,10.5631,-45.3062,0.000515469,0.0210816,0.0107688,0.0256885,-0.00409135,1.16656,0.0186397,0.0361908,1609,428,10.5631,45.3062
392,596,10.5072,-44.3849,0.00049519,0.0228155,0.0115368,0.0277067,-0.00439601,1.1698,0.0200974,0.0456975,1616,428,10.5072,44.3849
399,596,10.2385,-42.9959,0.00104229,0.0248202,0.0127215,0.0303434,-0.00448091,1.16119,0.0218761,0.0462722,1623,428,10.2385,42.9959
406,596,10.3147,-42.278,0,0,0,0,0,0,0,-1,1630,428,10.3147,42.278
413,596,10.3976,-41.5688,0,0,0,0,0,0,0,-1,1637,428,10.3976,41.5688
420,596,2.6344,-3.06308,0,0,0,0,0,0,0,-1,1644,428,2.63439,3.06308
427,596,7.61975,-22.7222,0,0,0,0,0,0,0,-1,1651,428,7.61974,22.7222
434,596,5.09753,-22.5213,0,0,0,0,0,0,0,-1,1658,428,5.09755,22.5213
441,596,7.19043,-22.087,0,0,0,0,0,0,0,-1,1665,428,7.19046,22.087
448,596,1.0769,0.0083313,0,0,0,0,0,0,0,-1,1672,428,1.07684,-0.00832231
455,596,2.00769,-1.43329,0,0,0,0,0,0,0,-1,1679,428,2.00765,1.4333
462,596,0,0,0,0,0,0,0,0,0,-1,1686,428,0,0
469,596,0,0,0,0,0,0,0,0,0,-1,1693,428,0,0
476,596,0,0,0,0,0,0,0,0,0,-1,1700,428,0,0
483,596,0,0,0,0,0,0,0,0,0,-1,1707,428,0,0
490,596,0,0,0,0,0,0,0,0,0,-1,1714,428,0,0
497,596,0,0,0,0,0,0,0,0,0,-1,1721,428,0,0
504,596,0,0,0,0,0,0,0,0,0,-1,1728,428,0,0
511,596,0,0,0,0,0,0,0,0,0,-1,1735,428,0,0
518,596,0,0,0,0,0,0,0,0,0,-1,1742,428,0,0
525,596,0,0,0,0,0,0,0,0,0,-1,1749,428,0,0
532,596,0,0,0,0,0,0,0,0,0,-1,1756,428,0,0
539,596,0,0,0,0,0,0,0,0,0,-1,1763,428,0,0
546,596,0,0,0,0,0,0,0,0,0,-1,1770,428,0,0
553,596,0,0,0,0,0,0,0,0,0,-1,1777,428,0,0
560,596,0,0,0,0,0,0,0,0,0,-1,1784,428,0,0
567,596,0,0,0,0,0,0,0,0,0,-1,1791,428,0,0
574,596,0,0,0,0,0,0,0,0,0,-1,1798,428,0,0
581,596,0,0,0,0,0,0,0,0,0,-1,1805,428,0,0
588,596,0,0,0,0,0,0,0,0,0,-1,1812,428,0,0
595,596,0,0,0,0,0,0,0,0,0,-1,1819,428,0,0
602,596,0,0,0,0,0,0,0,0,0,-1,1826,428,0,0
609,596,0,0,0,0,0,0,0,0,0,-1,1833,428,0,0
616,596,0,0,0,0,0,0,0,0,0,-1,1840,428,0,0
623,596,0,0,0,0,0,0,0,0,0,-1,1847,428,0,0
630,596,0,0,0,0,0,0,0,0,0,-1,1854,428,0,0
637,596,0,0,0,0,0,0,0,0,0,-1,1861,428,0,0
644,596,0,0,0,0,0,0,0,0,0,-1,1868,428,0,0
651,596,0,0,0,0,0,0,0,0,0,-1,1875,428,0,0
658,596,0,0,0,0,0,0,0,0,0,-1,1882,428,0,0
665,596,0,0,0,0,0,0,0,0,0,-1,1889,428,0,0
672,596,0,0,0,0,0,0,0,0,0,-1,1896,428,0,0
679,596,0,0,0,0,0,0,0,0,0,-1,1903,428,0,0
686,596,0,0,0,0,0,0,0,0,0,-1,1910,428,0,0
693,596,0,0,0,0,0,0,0,0,0,-1,1917,428,0,0
700,596,0,0,0,0,0,0,0,0,0,-1,1924,428,0,0
707,596,0,0,0,0,0,0,0,0,0,-1,1931,428,0,0
714,596,0,0,0,0,0,0,0,0,0,-1,1938,428,0,0
721,596,0,0,0,0,0,0,0,0,0,-1,1945,428,0,0
728,596,0,0,0,0,0,0,0,0,0,-1,1952,428,0,0
735,596,0,0,0,0,0,0,0,0,0,-1,1959,428,0,0
742,596,0,0,0,0,0,0,0,0,0,-1,1966,428,0,0
749,596,0,0,0,0,0,0,0,0,0,-1,1973,428,0,0
756,596,0,0,0,0,0,0,0,0,0,-1,1980,428,0,0
763,596,0,0,0,0,0,0,0,0,0,-1,1987,428,0,0
770,596,0,0,0,0,0,0,0,0,0,-1,1994,428,0,0
777,596,0,0,0,0,0,0,0,0,0,-1,2001,428,0,0
784,596,0,0,0,0,0,0,0,0,0,-1,2008,428,0,0
791,596,0,0,0,0,0,0,0,0,0,-1,2015,428,0,0
798,596,0,0,0,0,0,0,0,0,0,-1,2022,428,0,0
805,596,0,0,0,0,0,0,0,0,0,-1,2029,428,0,0
812,596,0,0,0,0,0,0,0,0,0,-1,2036,428,0,0
-700,589,0,0,0,0,0,0,0,0,0,-1,524,435,0,0
-693,589,0,0,0,0,0,0,0,0,0,-1,531,435,0,0
-686,589,0,0,0,0,0,0,0,0,0,-1,538,435,0,0
-679,589,0,0,0,0,0,0,0,0,0,-1,545,435,0,0
-672,589,0,0,0,0,0,0,0,0,0,-1,552,435,0,0
-665,589,0,0,0,0,0,0,0,0,0,-1,559,435,0,0
-658,589,0,0,0,0,0,0,0,0,0,-1,566,435,0,0
-651,589,0,0,0,0,0,0,0,0,0,-1,573,435,0,0
-644,589,0,0,0,0,0,0,0,0,0,-1,580,435,0,0
-637,589,0,0,0,0,0,0,0,0,0,-1,587,435,0,0
-630,589,0,0,0,0,0,0,0,0,0,-1,594,435,0,0
-623,589,0,0,0,0,0,0,0,0,0,-1,601,435,0,0
-616,589,0,0,0,0,0,0,0,0,0,-1,608,435,0,0
-609,589,0,0,0,0,0,0,0,0,0,-1,615,435,0,0
-602,589,0,0,0,0,0,0,0,0,0,-1,622,435,0,0
-595,589,0,0,0,0,0,0,0,0,0,-1,629,435,0,0
-588,589,0,0,0,0,0,0,0,0,0,-1,636,435,0,0
-581,589,0,0,0,0,0,0,0,0,0,-1,643,435,0,0
-574,589,0,0,0,0,0,0,0,0,0,-1,650,435,0,0
-567,589,0,0,0,0,0,0,0,0,0,-1,657,435,0,0
-560,589,0,0,0,0,0,0,0,0,0,-1,664,435,0,0
-553,589,0,0,0,0,0,0,0,0,0,-1,671,435,0,0
-546,589,0,0,0,0,0,0,0,0,0,-1,678,435,0,0
-539,589,0,0,0,0,0,0,0,0,0,-1,685,435,0,0
-532,589,0,0,0,0,0,0,0,0,0,-1,692,435,0,0
-525,589,0,0,0,0,0,0,0,0,0,-1,699,435,0,0
-518,589,0,0,0,0,0,0,0,0,0,-1,706,435,0,0
-511,589,0,0,0,0,0,0,0,0,0,-1,713,435,0,0
-504,589,0,0,0,0,0,0,0,0,0,-1,720,435,0,0
-497,589,0,0,0,0,0,0,0,0,0,-1,727,435,0,0
-490,589,0,0,0,0,0,0,0,0,0,-1,734,435,0,0
-483,589,0,0,0,0,0,0,0,0,0,-1,741,435,0,0
-476,589,0,0,0,0,0,0,0,0,0,-1,748,435,0,0
-469,589,0,0,0,0,0,0,0,0,0,-1,755,435,0,0
-462,589,0,0,0,0,0,0,0,0,0,-1,762,435,0,0
-455,589,0,0,0,0,0,0,0,0,0,-1,769,435,0,0
-448,589,0,0,0,0,0,0,0,0,0,-1,776,435,0,0
-441,589,0,0,0,0,0,0,0,0,0,-1,783,435,0,0
-434,589,0,0,0,0,0,0,0,0,0,-1,790,435,0,0
-427,589,0,0,0,0,0,0,0,0,0,-1,797,435,0,0
-420,589,0,0,0,0,0,0,0,0,0,-1,804,435,0,0
-413,589,0,0,0,0,0,0,0,0,0,-1,811,435,0,0
-406,589,0,0,0,0,0,0,0,0,0,-1,818,435,0,0
-399,589,0,0,0,0,0,0,0,0,0,-1,825,435,0,0
-392,589,0,0,0,0,0,0,0,0,0,-1,832,435,0,0
-385,589,0,0,0,0,0,0,0,0,0,-1,839,435,0,0
-378,589,0,0,0,0,0,0,0,0,0,-1,846,435,0,0
-371,589,0,0,0,0,0,0,0,0,0,-1,853,435,0,0
-364,589,0,0,0,0,0,0,0,0,0,-1,860,435,0,0
-357,589,0,0,0,0,0,0,0,0,0,-1,867,435,0,0
-350,589,-0.799927,-20.664,0,0,0,0,0,0,0,-1,874,435,-0.799952,20.664
-343,589,5.15289,-30.4847,0,0,0,0,0,0,0,-1,881,435,5.15291,30.4847
-336,589,5.07684,-29.2368,0,0,0,0,0,0,0,-1,888,435,5.07687,29.2368
-329,589,4.9624,-28.1366,0,0,0,0,0,0,0,-1,895,435,4.96242,28.1366
-322,589,5.10156,-27.065,0,0,0,0,0,0,0,-1,902,435,5.10155,27.065
-315,589,4.22705,-27.9655,0,0,0,0,0,0,0,-1,909,435,4.22705,27.9655
-308,589,4.46698,-29.037,0,0,0,0,0,0,0,-1,916,435,4.46696,29.037
-301,589,4.94867,-33.7458,0,0,0,0,0,0,0,-1,923,435,4.94869,33.7458
-294,589,4.1037,-31.2976,0,0,0,0,0,0,0,-1,930,435,4.10371,31.2976
-287,589,5.54028,-41.8733,0,0,0,0,0,0,0,-1,937,435,5.54029,41.8733
-280,589,5.53088,-42.8913,0,0,0,0,0,0,0,-1,944,435,5.53087,42.8913
-273,589,5.37732,-43.8192,0.000168168,0.0216409,-0.0116055,0.0267146,-0.00490549,-1.15866,0.0196501,0.0310799,951,435,5.37729,43.8192
-266,589,5.34863,-44.7719,0.000127239,0.0192368,-0.0104936,0.0238739,-0.00450983,-1.1547,0.0176127,0.0284823,958,435,5.34864,44.7719
-259,589,5.28149,-45.719,0.000117864,0.0168665,-0.00945452,0.0211222,-0.00413783,-1.14784,0.0156442,0.0227247,965,435,5.28149,45.719
-252,589,5.24182,-46.6836,0.000208561,0.0149793,-0.00843734,0.018807,-0.00361911,-1.1449,0.0139023,0.0117675,972,435,5.24183,46.6836
-245,589,5.21057,-47.5457,0.000325323,0.0133132,-0.00751332,0.0167501,-0.00311156,-1.14177,0.0123354,0.011269,979,435,5.21055,47.5457
-238,589,5.12842,-48.3497,0.000313618,0.0114875,-0.00650323,0.0144741,-0.002673,-1.14028,0.0106528,0.0145391,986,435,5.12844,48.3497
-231,589,5.0473,-49.1892,0.000293891,0.00959082,-0.00543495,0.0120941,-0.00220935,-1.13918,0.00889113,0.0146282,993,435,5.04729,49.1892
-224,589,5.00928,-49.9982,0.000396258,0.00776906,-0.00451154,0.00990877,-0.00174345,-1.12794,0.00725714,0.0148516,1000,435,5.00927,49.9982
-217,589,4.94208,-50.8204,0.000500925,0.00589572,-0.00362434,0.00771627,-0.00131962,-1.1053,0.00563579,0.0156346,1007,435,4.94205,50.8204
-210,589,4.89648,-51.6404,0.000628416,0.00403399,-0.00280948,0.00561642,-0.000954012,-1.05784,0.00409946,0.0153842,1014,435,4.89648,51.6404
-203,589,4.85376,-52.4193,0.000851523,0.00231326,-0.00204808,0.00375697,-0.000592186,-0.956783,0.00272359,0.0119981,1021,435,4.85373,52.4193
-196,589,4.8009,-53.1924,0.00111049,0.000755997,-0.0013756,0.00232021,-0.000453726,-0.721326,0.00171814,0.0143273,1028,435,4.8009,53.1924
-189,589,4.76782,-54.0016,0.00142939,-0.000613995,-0.000851731,0.00173785,-0.000922454,-0.347462,0.00155979,0.017791,1035,435,4.76784,54.0016
-182,589,4.75598,-54.6934,0.00185001,-0.00189073,-0.000337968,0.0018803,-0.00192101,-0.0893836,0.00219473,0.0134689,1042,435,4.756,54.6934
-175,589,4.74011,-55.4263,0.00225923,-0.00293375,0.000124521,0.00226221,-0.00293673,0.0239603,0.00301002,0.0177077,1049,435,4.74015,55.4263
-168,589,4.73804,-56.2047,0.00267563,-0.00362875,0.000451743,0.00270783,-0.00366096,0.0711709,0.00369072,0.0146732,1056,435,4.73805,56.2047
-161,589,4.7002,-56.9182,0.00314863,-0.00414472,0.000733236,0.00322161,-0.00421771,0.099212,0.00430791,0.0129882,1063,435,4.70019,56.9183
-154,589,4.65942,-57.6075,0.00369123,-0.00444616,0.000986854,0.0038092,-0.00456413,0.118976,0.00484089,0.0135235,1070,435,4.65941,57.6075
-147,589,4.69226,-58.2855,0.00433269,-0.00455712,0.00119787,0.00449127,-0.0047157,0.13162,0.00531617,0.0140304,1077,435,4.69222,58.2855
-140,589,4.71802,-58.956,0.00495668,-0.00460307,0.00141336,0.00516126,-0.00480765,0.143749,0.00575676,0.0160243,1084,435,4.718,58.956
-133,589,4.72302,-59.649,0.00541172,-0.00476753,0.00169498,0.00568654,-0.00504234,0.160737,0.00619804,0.0157306,1091,435,4.72303,59.649
-126,589,4.73083,-60.2926,0.00592753,-0.00472269,0.00191571,0.00626163,-0.0050568,0.172667,0.00654703,0.0130914,1098,435,4.73088,60.2926
-119,589,4.65417,-60.9495,0.00670353,-0.00453038,0.00211006,0.00708678,-0.00491363,0.179674,0.00696621,0.0345737,1105,435,4.65416,60.9495
-112,589,4.72656,-61.5561,0,0,0,0,0,0,0,-1,1112,435,4.72657,61.5561
-105,589,4.77222,-62.1797,0,0,0,0,0,0,0,-1,1119,435,4.77221,62.1797
-98,589,4.80908,-63.067,0,0,0,0,0,0,0,-1,1126,435,4.80913,63.067
-91,589,3.39563,-37.8231,0,0,0,0,0,0,0,-1,1133,435,3.39565,37.8231
-84,589,2.76538,-22.6013,0,0,0,0,0,0,0,-1,1140,435,2.76539,22.6014
-77,589,2.18152,-14.8023,0,0,0,0,0,0,0,-1,1147,435,2.18155,14.8023
-70,589,1.48267,-9.90961,0,0,0,0,0,0,0,-1,1154,435,1.48264,9.9096
-63,589,0.880127,-5.50586,0,0,0,0,0,0,0,-1,1161,435,0.880186,5.50587
-56,589,-2.78052,-7.28082,0,0,0,0,0,0,0,-1,1168,435,-2.78053,7.28082
-49,589,-0.525757,-2.76703,0,0,0,0,0,0,0,-1,1175,435,-0.525771,2.76702
-42,589,-2.7738,-2.87921,0,0,0,0,0,0,0,-1,1182,435,-2.77383,2.87922
-35,589,-2.55225,-3.27551,0,0,0,0,0,0,0,-1,1189,435,-2.55223,3.27552
-28,589,-0.0632324,-3.42938,0,0,0,0,0,0,0,-1,1196,435,-0.063241,3.42938
-21,589,5.4502,-63.9485,0,0,0,0,0,0,0,-1,1203,435,5.45024,63.9484
-14,589,5.7384,-64.2581,0,0,0,0,0,0,0,-1,1210,435,5.73846,64.2581
-7,589,6.2439,-63.8353,0,0,0,0,0,0,0,-1,1217,435,6.24388,63.8353
0,589,5.89575,-63.9941,0,0,0,0,0,0,0,-1,1224,435,5.89573,63.9941
7,589,7.40759,-63.4933,0,0,0,0,0,0,0,-1,1231,435,7.4076,63.4934
14,589,11.3923,-63.5725,0,0,0,0,0,0,0,-1,1238,435,11.3923,63.5725
21,589,6.02014,-65.3136,0,0,0,0,0,0,0,-1,1245,435,6.02009,65.3136
28,589,7.6366,-66.5063,0,0,0,0,0,0,0,-1,1252,435,7.6366,66.5063
35,589,7.58032,-67.0016,0.0136157,-0.0711984,-0.00967764,0.0147059,-0.0722886,-0.112183,0.053769,0.0459387,1259,435,7.58035,67.0016
42,589,7.57092,-67.5065,0.0147852,-0.0684631,-0.00631427,0.0152614,-0.0689393,-0.0752747,0.0518016,0.0474519,1266,435,7.57088,67.5065
49,589,7.63293,-67.8565,0.0173756,-0.0651798,-0.00310043,0.0174919,-0.0652961,-0.0374854,0.0503839,0.0464973,1273,435,7.63288,67.8565
56,589,7.12927,-68.1381,0.0194419,-0.0611927,-8.96988e-05,0.019442,-0.0611928,-0.00111241,0.0485901,0.0409756,1280,435,7.12928,68.1381
63,589,6.28101,-68.041,0,0,0,0,0,0,0,-1,1287,435,6.28104,68.041
70,589,8.17139,-67.683,0.0232226,-0.0540706,0.00280189,0.023324,-0.0541721,0.0361869,0.0459088,0.0429222,1294,435,8.17135,67.6831
77,589,8.92419,-67.8628,0.0241874,-0.0513076,0.00324321,0.0243265,-0.0514467,0.0428539,0.0446719,0.039407,1301,435,8.92421,67.8628
84,589,9.63733,-68.0248,0.0245316,-0.0488742,0.00302532,0.0246561,-0.0489987,0.0411207,0.0432918,0.0399544,1308,435,9.63734,68.0248
91,589,10.3175,-68.195,0.0240071,-0.0475379,0.00209071,0.0240682,-0.047599,0.0291891,0.0421139,0.042302,1315,435,10.3175,68.195
98,589,11.0571,-68.4358,0.0226041,-0.0481378,0.00155573,0.0226383,-0.048172,0.0219775,0.0417589,0.045094,1322,435,11.0571,68.4358
105,589,11.8245,-68.6438,0,0,0,0,0,0,0,-1,1329,435,11.8245,68.6438
112,589,13.3334,-70.3446,0,0,0,0,0,0,0,-1,1336,435,13.3334,70.3446
119,589,14.1143,-71.5423,0,0,0,0,0,0,0,-1,1343,435,14.1142,71.5423
126,589,-2.75085,-73.4282,0,0,0,0,0,0,0,-1,1350,435,-2.75084,73.4281
133,589,-4.98535,-78.3274,0,0,0,0,0,0,0,-1,1357,435,-4.9853,78.3274
140,589,-6.44958,-80.1381,0,0,0,0,0,0,0,-1,1364,435,-6.44963,80.1381
147,589,-7.98096,-81.8212,0,0,0,0,0,0,0,-1,1371,435,-7.98102,81.8212
154,589,-9.36316,-83.563,0,0,0,0,0,0,0,-1,1378,435,-9.36311,83.5631
161,589,-5.66907,-75.1069,0,0,0,0,0,0,0,-1,1385,435,-5.66909,75.1069
168,589,20.0441,-47.9614,0,0,0,0,0,0,0,-1,1392,435,20.044,47.9613
175,589,8.66992,-7.65527,0,0,0,0,0,0,0,-1,1399,435,8.66994,7.65528
182,589,3.8136,-2.45389,0,0,0,0,0,0,0,-1,1406,435,3.81363,2.4539
189,589,3.69983,-3.68149,0,0,0,0,0,0,0,-1,1413,435,3.69987,3.68147
196,589,3.31055,-5.31677,0,0,0,0,0,0,0,-1,1420,435,3.31059,5.31678
203,589,2.72559,-8.84338,0,0,0,0,0,0,0,-1,1427,435,2.72558,8.84338
210,589,3.62378,-14.4032,0,0,0,0,0,0,0,-1,1434,435,3.62378,14.4032
217,589,4.65601,-22.3745,0,0,0,0,0,0,0,-1,1441,435,4.65607,22.3745
224,589,6.79028,-33.9412,0,0,0,0,0,0,0,-1,1448,435,6.79028,33.9412
231,589,11.8821,-62.2177,0,0,0,0,0,0,0,-1,1455,435,11.882,62.2177
238,589,11.8135,-61.488,0,0,0,0,0,0,0,-1,1462,435,11.8134,61.488
245,589,11.8298,-60.8227,0,0,0,0,0,0,0,-1,1469,435,11.8299,60.8227
252,589,11.8845,-60.1306,0.00549335,-0.0067011,-0.00221994,0.0058849,-0.00709266,-0.174586,0.00750341,0.037417,1476,435,11.8846,60.1306
259,589,11.8876,-59.5269,0.00475965,-0.00690731,-0.00225851,0.0051816,-0.00732926,-0.184696,0.00725854,0.0132024,1483,435,11.8876,59.5269
266,589,11.8866,-58.8485,0.00424684,-0.00669622,-0.00212342,0.00464443,-0.00709381,-0.185097,0.00682608,0.00991455,1490,435,11.8866,58.8485
273,589,11.8969,-58.1991,0.00376393,-0.00635671,-0.00191596,0.0041145,-0.00670728,-0.180972,0.00630745,0.0122359,1497,435,11.8968,58.1991
280,589,11.8845,-57.4951,0.00336283,-0.00566069,-0.0015261,0.00361394,-0.0059118,-0.163084,0.00555277,0.0141195,1504,435,11.8845,57.4951
287,589,11.8728,-56.7815,0.00305432,-0.00479135,-0.00107031,0.00319771,-0.00493474,-0.133179,0.00473084,0.0129407,1511,435,11.8728,56.7815
294,589,11.8739,-56.0187,0.00273231,-0.00367564,-0.00055952,0.0027808,-0.00372413,-0.0864447,0.00376876,0.0105904,1518,435,11.8739,56.0187
301,589,11.8616,-55.2529,0.00239485,-0.00240508,-1.37395e-05,0.00239489,-0.00240512,-0.0028624,0.00277129,0.0110775,1525,435,11.8615,55.2529
308,589,11.8361,-54.5012,0.00211118,-0.000962996,0.00055751,0.00220916,-0.00106098,0.173974,0.00192642,0.0116276,1532,435,11.8361,54.5012
315,589,11.7911,-53.7331,0.00188986,0.00055497,0.00114905,0.00255125,-0.000106419,0.522283,0.00173739,0.0114338,1539,435,11.7912,53.7331
322,589,11.7654,-52.9561,0.00160591,0.00201438,0.00173828,0.00356038,5.99086e-05,0.843876,0.00235387,0.011602,1546,435,11.7654,52.9562
329,589,11.7178,-52.174,0.00138031,0.0034143,0.00235322,0.00496089,-0.00016627,0.989362,0.00336405,0.0101528,1553,435,11.7177,52.174
336,589,11.6671,-51.3992,0.00124726,0.00490332,0.00300715,0.00659447,-0.00044389,1.0585,0.0045515,0.00956427,1560,435,11.6672,51.3992
343,589,11.6359,-50.5998,0.00104824,0.0063211,0.00374887,0.00826777,-0.000898424,1.09185,0.00583442,0.0109647,1567,435,11.6358,50.5998
350,589,11.5848,-49.7503,0.000970222,0.0081538,0.00453392,0.0103462,-0.00122222,1.12038,0.00733891,0.0161835,1574,435,11.5848,49.7503
357,589,11.5333,-48.9044,0.000894687,0.00968909,0.00532825,0.0122003,-0.00161648,1.13038,0.00872241,0.0140673,1581,435,11.5334,48.9044
364,589,11.4843,-48.0763,0.000787525,0.0111117,0.0061004,0.013941,-0.00204175,1.13654,0.010044,0.0116926,1588,435,11.4842,48.0762
371,589,11.4231,-47.2161,0.000740389,0.0127859,0.00699948,0.0159971,-0.00247082,1.14067,0.0115766,0.0111641,1595,435,11.4231,47.2161
378,589,11.3528,-46.3573,0.000600197,0.0144886,0.00782342,0.0180052,-0.00291637,1.14836,0.0130844,0.0119663,1602,435,11.3528,46.3573
385,589,11.2908,-45.4713,0.000358692,0.0159568,0.00840961,0.0196272,-0.00331163,1.15927,0.0143169,0.0214853,1609,435,11.2908,45.4713
392,589,11.2073,-44.43,0.000333643,0.0172365,0.00900935,0.021138,-0.00356787,1.16213,0.0154195,0.0301817,1616,435,11.2072,44.43
399,589,11.1932,-43.3536,0.000785904,0.0186824,0.00995201,0.0231175,-0.00364919,1.15157,0.016761,0.0385102,1623,435,11.1933,43.3536
406,589,11.0576,-42.6638,0,0,0,0,0,0,0,-1,1630,435,11.0576,42.6637
413,589,5.61377,-19.0606,0,0,0,0,0,0,0,-1,1637,435,5.61372,19.0606
420,589,2.79724,-5.79956,0,0,0,0,0,0,0,-1,1644,435,2.7973,5.79955
427,589,10.371,-40.1487,0,0,0,0,0,0,0,-1,1651,435,10.371,40.1487
434,589,9.14709,-34.4435,0,0,0,0,0,0,0,-1,1658,435,9.1471,34.4435
441,589,7.85901,-29.8665,0,0,0,0,0,0,0,-1,1665,435,7.85898,29.8666
448,589,0.453735,-3.2868,0,0,0,0,0,0,0,-1,1672,435,0.453701,3.28681
455,589,0.664307,-3.46848,0,0,0,0,0,0,0,-1,1679,435,0.66425,3.46846
462,589,3.46716,-4.41891,0,0,0,0,0,0,0,-1,1686,435,3.4672,4.41891
469,589,0.0238037,-3.81497,0,0,0,0,0,0,0,-1,1693,435,0.0237965,3.81498
476,589,0,0,0,0,0,0,0,0,0,-1,1700,435,0,0
483,589,0,0,0,0,0,0,0,0,0,-1,1707,435,0,0
490,589,0,0,0,0,0,0,0,0,0,-1,1714,435,0,0
497,589,0,0,0,0,0,0,0,0,0,-1,1721,435,0,0
504,589,0,0,0,0,0,0,0,0,0,-1,1728,435,0,0
511,589,0,0,0,0,0,0,0,0,0,-1,1735,435,0,0
518,589,0,0,0,0,0,0,0,0,0,-1,1742,435,0,0
525,589,0,0,0,0,0,0,0,0,0,-1,1749,435,0,0
532,589,0,0,0,0,0,0,0,0,0,-1,1756,435,0,0
539,589,0,0,0,0,0,0,0,0,0,-1,1763,435,0,0
546,589,0,0,0,0,0,0,0,0,0,-1,1770,435,0,0
553,589,0,0,0,0,0,0,0,0,0,-1,1777,435,0,0
560,589,0,0,0,0,0,0,0,0,0,-1,1784,435,0,0
567,589,0,0,0,0,0,0,0,0,0,-1,1791,435,0,0
574,589,0,0,0,0,0,0,0,0,0,-1,1798,435,0,0
581,589,0,0,0,0,0,0,0,0,0,-1,1805,435,0,0
588,589,0,0,0,0,0,0,0,0,0,-1,1812,435,0,0
595,589,0,0,0,0,0,0,0,0,0,-1,1819,435,0,0
602,589,0,0,0,0,0,0,0,0,0,-1,1826,435,0,0
609,589,0,0,0,0,0,0,0,0,0,-1,1833,435,0,0
616,589,0,0,0,0,0,0,0,0,0,-1,1840,435,0,0
623,589,0,0,0,0,0,0,0,0,0,-1,1847,435,0,0
630,589,0,0,0,0,0,0,0,0,0,-1,1854,435,0,0
637,589,0,0,0,0,0,0,0,0,0,-1,1861,435,0,0
644,589,0,0,0,0,0,0,0,0,0,-1,1868,435,0,0
651,589,0,0,0,0,0,0,0,0,0,-1,1875,435,0,0
658,589,0,0,0,0,0,0,0,0,0,-1,1882,435,0,0
665,589,0,0,0,0,0,0,0,0,0,-1,1889,435,0,0
672,589,0,0,0,0,0,0,0,0,0,-1,1896,435,0,0
679,589,0,0,0,0,0,0,0,0,0,-1,1903,435,0,0
686,589,0,0,0,0,0,0,0,0,0,-1,1910,435,0,0
693,589,0,0,0,0,0,0,0,0,0,-1,1917,435,0,0
700,589,0,0,0,0,0,0,0,0,0,-1,1924,435,0,0
707,589,0,0,0,0,0,0,0,0,0,-1,1931,435,0,0
714,589,0,0,0,0,0,0,0,0,0,-1,1938,435,0,0
721,589,0,0,0,0,0,0,0,0,0,-1,1945,435,0,0
728,589,0,0,0,0,0,0,0,0,0,-1,1952,435,0,0
735,589,0,0,0,0,0,0,0,0,0,-1,1959,435,0,0
742,589,0,0,0,0,0,0,0,0,0,-1,1966,435,0,0
749,589,0,0,0,0,0,0,0,0,0,-1,1973,435,0,0
756,589,0,0,0,0,0,0,0,0,0,-1,1980,435,0,0
763,589,0,0,0,0,0,0,0,0,0,-1,1987,435,0,0
770,589,0,0,0,0,0,0,0,0,0,-1,1994,435,0,0
777,589,0,0,0,0,0,0,0,0,0,-1,2001,435,0,0
784,589,0,0,0,0,0,0,0,0,0,-1,2008,435,0,0
791,589,0,0,0,0,0,0,0,0,0,-1,2015,435,0,0
798,589,0,0,0,0,0,0,0,0,0,-1,2022,435,0,0
805,589,0,0,0,0,0,0,0,0,0,-1,2029,435,0,0
812,589,0,0,0,0,0,0,0,0,0,-1,2036,435,0,0
-700,582,0,0,0,0,0,0,0,0,0,-1,524,442,0,0
-693,582,0,0,0,0,0,0,0,0,0,-1,531,442,0,0
-686,582,0,0,0,0,0,0,0,0,0,-1,538,442,0,0
-679,582,0,0,0,0,0,0,0,0,0,-1,545,442,0,0
-672,582,0,0,0,0,0,0,0,0,0,-1,552,442,0,0
-665,582,0,0,0,0,0,0,0,0,0,-1,559,442,0,0
-658,582,0,0,0,0,0,0,0,0,0,-1,566,442,0,0
-651,582,0,0,0,0,0,0,0,0,0,-1,573,442,0,0
-644,582,0,0,0,0,0,0,0,0,0,-1,580,442,0,0
-637,582,0,0,0,0,0,0,0,0,0,-1,587,442,0,0
-630,582,0,0,0,0,0,0,0,0,0,-1,594,442,0,0
-623,582,0,0,0,0,0,0,0,0,0,-1,601,442,0,0
-616,582,0,0,0,0,0,0,0,0,0,-1,608,442,0,0
-609,582,0,0,0,0,0,0,0,0,0,-1,615,442,0,0
-602,582,0,0,0,0,0,0,0,0,0,-1,622,442,0,0
-595,582,0,0,0,0,0,0,0,0,0,-1,629,442,0,0
-588,582,0,0,0,0,0,0,0,0,0,-1,636,442,0,0
-581,582,0,0,0,0,0,0,0,0,0,-1,643,442,0,0
-574,582,0,0,0,0,0,0,0,0,0,-1,650,442,0,0
-567,582,0,0,0,0,0,0,0,0,0,-1,657,442,0,0
-560,582,0,0,0,0,0,0,0,0,0,-1,664,442,0,0
-553,582,0,0,0,0,0,0,0,0,0,-1,671,442,0,0
-546,582,0,0,0,0,0,0,0,0,0,-1,678,442,0,0
-539,582,0,0,0,0,0,0,0,0,0,-1,685,442,0,0
-532,582,0,0,0,0,0,0,0,0,0,-1,692,442,0,0
-525,582,0,0,0,0,0,0,0,0,0,-1,699,442,0,0
-518,582,0,0,0,0,0,0,0,0,0,-1,706,442,0,0
-511,582,0,0,0,0,0,0,0,0,0,-1,713,442,0,0
-504,582,0,0,0,0,0,0,0,0,0,-1,720,442,0,0
-497,582,0,0,0,0,0,0,0,0,0,-1,727,442,0,0
-490,582,0,0,0,0,0,0,0,0,0,-1,734,442,0,0
-483,582,0,0,0,0,0,0,0,0,0,-1,741,442,0,0
-476,582,0,0,0,0,0,0,0,0,0,-1,748,442,0,0
-469,582,0,0,0,0,0,0,0,0,0,-1,755,442,0,0
-462,582,0,0,0,0,0,0,0,0,0,-1,762,442,0,0
-455,582,0,0,0,0,0,0,0,0,0,-1,769,442,0,0
-448,582,0,0,0,0,0,0,0,0,0,-1,776,442,0,0
-441,582,0,0,0,0,0,0,0,0,0,-1,783,442,0,0
-434,582,0,0,0,0,0,0,0,0,0,-1,790,442,0,0
-427,582,0,0,0,0,0,0,0,0,0,-1,797,442,0,0
-420,582,0,0,0,0,0,0,0,0,0,-1,804,442,0,0
-413,582,0,0,0,0,0,0,0,0,0,-1,811,442,0,0
-406,582,0,0,0,0,0,0,0,0,0,-1,818,442,0,0
-399,582,0,0,0,0,0,0,0,0,0,-1,825,442,0,0
-392,582,0,0,0,0,0,0,0,0,0,-1,832,442,0,0
-385,582,0,0,0,0,0,0,0,0,0,-1,839,442,0,0
-378,582,0,0,0,0,0,0,0,0,0,-1,846,442,0,0
-371,582,0,0,0,0,0,0,0,0,0,-1,853,442,0,0
-364,582,0,0,0,0,0,0,0,0,0,-1,860,442,0,0
-357,582,-1.4903,-21.5295,0,0,0,0,0,0,0,-1,867,442,-1.49031,21.5295
-350,582,-0.880859,-19.7966,0,0,0,0,0,0,0,-1,874,442,-0.880885,19.7966
-343,582,0.939941,-19.1705,0,0,0,0,0,0,0,-1,881,442,0.939935,19.1705
-336,582,3.33929,-27.9479,0,0,0,0,0,0,0,-1,888,442,3.33928,27.9479
-329,582,3.63544,-26.4736,0,0,0,0,0,0,0,-1,895,442,3.63546,26.4736
-322,582,3.67145,-27.1796,0,0,0,0,0,0,0,-1,902,442,3.67143,27.1796
-315,582,3.90686,-27.6446,0,0,0,0,0,0,0,-1,909,442,3.90689,27.6446
-308,582,4.07587,-33.1895,0,0,0,0,0,0,0,-1,916,442,4.07588,33.1895
-301,582,4.99335,-39.9635,0,0,0,0,0,0,0,-1,923,442,4.99333,39.9635
-294,582,4.81848,-40.9673,0,0,0,0,0,0,0,-1,930,442,4.81846,40.9673
-287,582,4.66949,-41.9422,-0.000883092,0.0207555,-0.0106886,0.0251449,-0.00527244,-1.18114,0.0187692,0.039939,937,442,4.66948,41.9422
-280,582,4.66986,-42.9356,-0.000487597,0.0189989,-0.00986902,0.0231239,-0.0046126,-1.17489,0.0171614,0.0194139,944,442,4.66985,42.9356
-273,582,4.63782,-43.956,-0.000243587,0.017117,-0.00902607,0.0209594,-0.00408596,-1.16834,0.0155153,0.0136512,951,442,4.6378,43.956
-266,582,4.56689,-44.8646,-0.000125603,0.0149956,-0.00810162,0.0185164,-0.00364647,-1.16083,0.0137222,0.0118412,958,442,4.56688,44.8646
-259,582,4.49878,-45.7525,2.08593e-05,0.0127475,-0.00721715,0.016006,-0.00323762,-1.1467,0.0118976,0.00927918,965,442,4.4988,45.7525
-252,582,4.43549,-46.6459,0.000192631,0.0108332,-0.00630035,0.0137591,-0.00273328,-1.13603,0.0102066,0.00803441,972,442,4.43551,46.6459
-245,582,4.39331,-47.4845,0.000364641,0.00903379,-0.00542449,0.0116428,-0.00224439,-1.12249,0.0086081,0.0115779,979,442,4.39329,47.4845
-238,582,4.31464,-48.3061,0.000474191,0.00711225,-0.0044588,0.00935171,-0.00176528,-1.10534,0.0068986,0.0162721,986,442,4.31464,48.3061
-231,582,4.26105,-49.1272,0.000576535,0.005105,-0.00343242,0.00695273,-0.0012712,-1.07697,0.00511185,0.0127913,993,442,4.26107,49.1272
-224,582,4.21069,-49.9567,0.000749532,0.00316371,-0.00251921,0.0047501,-0.000836854,-1.00881,0.00347939,0.00997518,1000,442,4.21069,49.9567
-217,582,4.15497,-50.7526,0.000933121,0.0012079,-0.00164323,0.00271947,-0.000578455,-0.827106,0.00203341,0.0117397,1007,442,4.15494,50.7526
-210,582,4.11621,-51.5677,0.00115321,-0.000704164,-0.000843142,0.00147886,-0.00102981,-0.368577,0.00145609,0.0131812,1014,442,4.11622,51.5677
-203,582,4.09399,-52.3703,0.00149388,-0.00237866,-0.000125271,0.00149792,-0.00238271,-0.0323036,0.00225981,0.0115016,1021,442,4.09397,52.3703
-196,582,4.04126,-53.1928,0.00188583,-0.00380095,0.000474092,0.00192509,-0.00384021,0.0826074,0.00338926,0.0173987,1028,442,4.04127,53.1928
-189,582,4.01111,-53.9648,0.00232893,-0.00495382,0.000907942,0.00244042,-0.0050653,0.122179,0.00442088,0.0255058,1035,442,4.01113,53.9648
-182,582,4.01514,-54.6836,0.00287496,-0.00599217,0.00134115,0.00307337,-0.00619058,0.146874,0.00544854,0.0173053,1042,442,4.01508,54.6836
-175,582,3.98071,-55.398,0.00344029,-0.00667003,0.00165905,0.00370557,-0.00693531,0.158557,0.00623713,0.0151285,1049,442,3.98077,55.398
-168,582,3.97559,-56.1646,0.0039926,-0.00700666,0.00183898,0.00429192,-0.00730598,0.161347,0.006771,0.0117762,1056,442,3.97557,56.1646
-161,582,3.96326,-56.8693,0.00457131,-0.0072717,0.00199314,0.00489775,-0.00759814,0.162341,0.00727044,0.0126587,1063,442,3.96321,56.8693
-154,582,3.95532,-57.5588,0.00522415,-0.00725956,0.00210685,0.00557013,-0.00760553,0.162764,0.00763717,0.0133905,1070,442,3.9553,57.5588
-147,582,3.96985,-58.2677,0.00599894,-0.00702625,0.00218167,0.00635465,-0.00738196,0.161621,0.00793822,0.0131813,1077,442,3.9699,58.2677
-140,582,3.95679,-58.9234,0.00670823,-0.00669415,0.00228617,0.00708747,-0.0070734,0.164389,0.00817578,0.0145273,1084,442,3.95673,58.9234
-133,582,4.03223,-59.5551,0.00710021,-0.00666802,0.00253419,0.00755185,-0.00711965,0.176363,0.00847182,0.0192064,1091,442,4.03222,59.5551
-126,582,4.03027,-60.1664,0.00756617,-0.00638397,0.00271899,0.00807739,-0.00689519,0.185848,0.0086534,0.0278605,1098,442,4.03026,60.1664
-119,582,4.11389,-61.0595,0,0,0,0,0,0,0,-1,1105,442,4.11387,61.0595
-112,582,3.47888,-53.7394,0,0,0,0,0,0,0,-1,1112,442,3.47883,53.7394
-105,582,2.87219,-43.073,0,0,0,0,0,0,0,-1,1119,442,2.87217,43.073
-98,582,2.61938,-32.8673,0,0,0,0,0,0,0,-1,1126,442,2.61944,32.8673
-91,582,2.16492,-24.1119,0,0,0,0,0,0,0,-1,1133,442,2.16496,24.1119
-84,582,2.10278,-16.7533,0,0,0,0,0,0,0,-1,1140,442,2.10279,16.7533
-77,582,2.30212,-11.4907,0,0,0,0,0,0,0,-1,1147,442,2.30207,11.4907
-70,582,1.49255,-6.36548,0,0,0,0,0,0,0,-1,1154,442,1.49251,6.36549
-63,582,-4.62915,-4.0347,0,0,0,0,0,0,0,-1,1161,442,-4.6292,4.03471
-56,582,-5.81714,-5.24149,0,0,0,0,0,0,0,-1,1168,442,-5.81718,5.24149
-49,582,-3.88672,-10.1064,0,0,0,0,0,0,0,-1,1175,442,-3.88678,10.1064
-42,582,-0.948975,1.13968,0,0,0,0,0,0,0,-1,1182,442,-0.949003,-1.13969
-35,582,-2.58435,-3.86911,0,0,0,0,0,0,0,-1,1189,442,-2.58437,3.86912
-28,582,-0.825317,-3.45941,0,0,0,0,0,0,0,-1,1196,442,-0.825377,3.45942
-21,582,6.12622,-62.0762,0,0,0,0,0,0,0,-1,1203,442,6.12625,62.0762
-14,582,6.42871,-62.5448,0.00371607,-0.0848951,-0.0314704,0.0137554,-0.0949344,-0.308804,0.0683378,0.0454015,1210,442,6.42866,62.5448
-7,582,6.73364,-62.8887,0.00605935,-0.0860468,-0.0318159,0.0159807,-0.0959682,-0.302281,0.0699172,0.0471713,1217,442,6.73361,62.8887
0,582,6.30872,-63.2832,0.00771512,-0.087083,-0.0305294,0.0166961,-0.096064,-0.286106,0.0702723,0.0494016,1224,442,6.30873,63.2832
7,582,7.10144,-63.0356,0.009019,-0.0881886,-0.0284944,0.0167558,-0.0959254,-0.265127,0.0702052,0.0448624,1231,442,7.10146,63.0356
14,582,6.52893,-63.7465,0,0,0,0,0,0,0,-1,1238,442,6.52891,63.7465
21,582,6.34021,-64.6101,0,0,0,0,0,0,0,-1,1245,442,6.34027,64.6101
28,582,7.21289,-65.7475,0,0,0,0,0,0,0,-1,1252,442,7.21284,65.7475
35,582,7.25305,-66.1979,0.0150557,-0.0833367,-0.0119728,0.0164916,-0.0847727,-0.119364,0.062739,0.0463194,1259,442,7.25308,66.1979
42,582,7.19897,-66.77,0.0161926,-0.0795592,-0.00755702,0.0167854,-0.080152,-0.0782772,0.05982,0.0489746,1266,442,7.19903,66.77
49,582,7.79956,-67.1388,0.0188715,-0.0750802,-0.00315495,0.0189773,-0.0751861,-0.0335302,0.0575033,0.0465005,1273,442,7.79951,67.1387
56,582,7.90918,-67.8847,0.0208618,-0.0696846,0.000998014,0.0208728,-0.0696956,0.0110203,0.0547637,0.0468402,1280,442,7.90918,67.8847
63,582,8.08411,-68.6233,0,0,0,0,0,0,0,-1,1287,442,8.08405,68.6233
70,582,7.8064,-66.8876,0.0240885,-0.0607345,0.00516541,0.0244019,-0.0610479,0.0605979,0.0508242,0.042738,1294,442,7.8064,66.8876
77,582,8.58899,-67.0784,0.0244461,-0.0577224,0.00580151,0.0248537,-0.05813,0.0701413,0.0491779,0.0423878,1301,442,8.58902,67.0784
84,582,9.37427,-67.2222,0,0,0,0,0,0,0,-1,1308,442,9.37426,67.2222
91,582,10.2458,-67.8268,0.0228277,-0.0541199,0.00440297,0.0230789,-0.054371,0.0569726,0.0459162,0.0429888,1315,442,10.2459,67.8268
98,582,11.3242,-68.3435,0.0205369,-0.0557698,0.00373679,0.0207195,-0.0559524,0.0488149,0.0457979,0.0425666,1322,442,11.3242,68.3435
105,582,12.3127,-69.0064,0,0,0,0,0,0,0,-1,1329,442,12.3128,69.0064
112,582,12.9231,-69.8846,0,0,0,0,0,0,0,-1,1336,442,12.9231,69.8846
119,582,13.4487,-70.7812,0,0,0,0,0,0,0,-1,1343,442,13.4487,70.7812
126,582,-3.91846,-76.6036,0,0,0,0,0,0,0,-1,1350,442,-3.91842,76.6036
133,582,-5.53748,-78.7218,0,0,0,0,0,0,0,-1,1357,442,-5.5375,78.7218
140,582,-7.0072,-80.4088,0,0,0,0,0,0,0,-1,1364,442,-7.00716,80.4088
147,582,-8.46484,-82.1745,0,0,0,0,0,0,0,-1,1371,442,-8.46479,82.1745
154,582,-9.73962,-84.244,0,0,0,0,0,0,0,-1,1378,442,-9.73963,84.244
161,582,-10.9921,-86.2264,0,0,0,0,0,0,0,-1,1385,442,-10.9921,86.2264
168,582,0.081665,-40.4535,0,0,0,0,0,0,0,-1,1392,442,0.0816215,40.4535
175,582,6.50549,-2.00424,0,0,0,0,0,0,0,-1,1399,442,6.50546,2.00425
182,582,5.18958,-2.18652,0,0,0,0,0,0,0,-1,1406,442,5.1896,2.18652
189,582,6.19751,-0.880951,0,0,0,0,0,0,0,-1,1413,442,6.19754,0.88096
196,582,4.87354,-2.22327,0,0,0,0,0,0,0,-1,1420,442,4.87348,2.22325
203,582,3.11401,-4.48257,0,0,0,0,0,0,0,-1,1427,442,3.11404,4.48259
210,582,2.93115,-11.0731,0,0,0,0,0,0,0,-1,1434,442,2.93113,11.0731
217,582,4.94092,-16.5476,0,0,0,0,0,0,0,-1,1441,442,4.94087,16.5476
224,582,5.21008,-20.9908,0,0,0,0,0,0,0,-1,1448,442,5.21006,20.9908
231,582,5.70032,-25.622,0,0,0,0,0,0,0,-1,1455,442,5.70026,25.6221
238,582,6.44189,-30.7028,0,0,0,0,0,0,0,-1,1462,442,6.44195,30.7028
245,582,10.0378,-45.1569,0,0,0,0,0,0,0,-1,1469,442,10.0379,45.1568
252,582,12.6139,-60.2879,0,0,0,0,0,0,0,-1,1476,442,12.6139,60.2879
259,582,12.5609,-59.5241,0,0,0,0,0,0,0,-1,1483,442,12.5609,59.5241
266,582,12.5771,-58.8733,0.00566493,-0.0107689,-0.00352779,0.00639022,-0.0114941,-0.202768,0.0104648,0.0201032,1490,442,12.5771,58.8733
273,582,12.6204,-58.1432,0.00501089,-0.0107058,-0.00348097,0.00574736,-0.0114423,-0.208494,0.0101044,0.0118287,1497,442,12.6203,58.1433
280,582,12.6199,-57.4724,0.00445418,-0.0101543,-0.00321131,0.00512895,-0.010829,-0.207108,0.00940721,0.0122446,1504,442,12.6199,57.4724
287,582,12.626,-56.7566,0.00400152,-0.00936318,-0.00287089,0.00459213,-0.00995378,-0.20289,0.00858615,0.0118594,1511,442,12.626,56.7566
294,582,12.6298,-55.9917,0.003569,-0.0082069,-0.00243193,0.00405147,-0.00868937,-0.195847,0.00751663,0.0093561,1518,442,12.6297,55.9917
301,582,12.619,-55.2096,0.00312806,-0.00680399,-0.00193285,0.00349095,-0.00716688,-0.185587,0.00627411,0.0101654,1525,442,12.619,55.2096
308,582,12.5916,-54.4546,0.00271504,-0.00528373,-0.00139931,0.00295277,-0.00552146,-0.168284,0.00496696,0.0138389,1532,442,12.5916,54.4546
315,582,12.5687,-53.7126,0.00237117,-0.00364022,-0.00081497,0.0024797,-0.00374874,-0.132388,0.00362079,0.0146738,1539,442,12.5687,53.7126
322,582,12.5417,-52.9065,0.00199841,-0.00202611,-0.000205036,0.00200883,-0.00203653,-0.0507716,0.00233561,0.0112901,1546,442,12.5418,52.9065
329,582,12.4999,-52.133,0.00170889,-0.000430491,0.000479134,0.00181129,-0.000532896,0.210561,0.00141892,0.0108065,1553,442,12.4999,52.133
336,582,12.4669,-51.3477,0.00150882,0.00120342,0.00117393,0.00253994,0.000172297,0.720725,0.00163889,0.0112305,1560,442,12.4669,51.3477
343,582,12.4307,-50.5164,0.00121286,0.00285469,0.00194146,0.00414166,-7.41098e-05,0.985415,0.00278614,0.0136698,1567,442,12.4307,50.5164
350,582,12.3845,-49.713,0.0010659,0.00468183,0.00273986,0.00615648,-0.000408751,1.07704,0.00424713,0.0172048,1574,442,12.3845,49.7129
357,582,12.3563,-48.8763,0.000960698,0.00622596,0.00351069,0.00798146,-0.0007948,1.10711,0.00560472,0.0146313,1581,442,12.3563,48.8763
364,582,12.3042,-48.0348,0.000818504,0.00758768,0.00429205,0.00966909,-0.00126291,1.11926,0.00690563,0.0109247,1588,442,12.3042,48.0348
371,582,12.2507,-47.1942,0.000710295,0.00904061,0.00511328,0.0114705,-0.00171956,1.12718,0.0082799,0.0142087,1595,442,12.2507,47.1942
378,582,12.1713,-46.3437,0.000527255,0.01053,0.00583937,0.013217,-0.00215981,1.13952,0.00961252,0.0152672,1602,442,12.1712,46.3436
385,582,12.0959,-45.4759,0.000261738,0.0117444,0.00632639,0.0145462,-0.00254013,1.15387,0.0106457,0.0122273,1609,442,12.096,45.4759
392,582,12.0256,-44.5918,0.000192177,0.012746,0.00681551,0.0157347,-0.00279648,1.15754,0.0115355,0.0114825,1616,442,12.0257,44.5918
399,582,11.9618,-43.7423,0.000531939,0.0138496,0.00759246,0.0172896,-0.00290802,1.14539,0.012608,0.019384,1623,442,11.9618,43.7423
406,582,11.908,-42.762,0.000507858,0.0148239,0.00815228,0.0185147,-0.00318294,1.14567,0.0135295,0.0332469,1630,442,11.908,42.762
413,582,11.7687,-41.9562,0,0,0,0,0,0,0,-1,1637,442,11.7687,41.9562
420,582,11.6733,-40.9355,0,0,0,0,0,0,0,-1,1644,442,11.6733,40.9355
427,582,11.4558,-40.0039,0,0,0,0,0,0,0,-1,1651,442,11.4558,40.0039
434,582,11.239,-39.2189,0,0,0,0,0,0,0,-1,1658,442,11.239,39.2189
441,582,10.8484,-36.2891,0,0,0,0,0,0,0,-1,1665,442,10.8484,36.2891
448,582,11.2651,-32.8669,0,0,0,0,0,0,0,-1,1672,442,11.2651,32.8668
455,582,6.4585,-19.4734,0,0,0,0,0,0,0,-1,1679,442,6.45854,19.4734
462,582,5.35022,-19.2616,0,0,0,0,0,0,0,-1,1686,442,5.35025,19.2616
469,582,6.28601,-21.5695,0,0,0,0,0,0,0,-1,1693,442,6.28597,21.5695
476,582,1.93579,-8.53891,0,0,0,0,0,0,0,-1,1700,442,1.93579,8.53892
483,582,0,0,0,0,0,0,0,0,0,-1,1707,442,0,0
490,582,0,0,0,0,0,0,0,0,0,-1,1714,442,0,0
497,582,0,0,0,0,0,0,0,0,0,-1,1721,442,0,0
504,582,0,0,0,0,0,0,0,0,0,-1,1728,442,0,0
511,582,0,0,0,0,0,0,0,0,0,-1,1735,442,0,0
518,582,0,0,0,0,0,0,0,0,0,-1,1742,442,0,0
525,582,0,0,0,0,0,0,0,0,0,-1,1749,442,0,0
532,582,0,0,0,0,0,0,0,0,0,-1,1756,442,0,0
539,582,0,0,0,0,0,0,0,0,0,-1,1763,442,0,0
546,582,0,0,0,0,0,0,0,0,0,-1,1770,442,0,0
553,582,0,0,0,0,0,0,0,0,0,-1,1777,442,0,0
560,582,0,0,0,0,0,0,0,0,0,-1,1784,442,0,0
567,582,0,0,0,0,0,0,0,0,0,-1,1791,442,0,0
574,582,0,0,0,0,0,0,0,0,0,-1,1798,442,0,0
581,582,0,0,0,0,0,0,0,0,0,-1,1805,442,0,0
588,582,0,0,0,0,0,0,0,0,0,-1,1812,442,0,0
595,582,0,0,0,0,0,0,0,0,0,-1,1819,442,0,0
602,582,0,0,0,0,0,0,0,0,0,-1,1826,442,0,0
609,582,0,0,0,0,0,0,0,0,0,-1,1833,442,0,0
616,582,0,0,0,0,0,0,0,0,0,-1,1840,442,0,0
623,582,0,0,0,0,0,0,0,0,0,-1,1847,442,0,0
630,582,0,0,0,0,0,0,0,0,0,-1,1854,442,0,0
637,582,0,0,0,0,0,0,0,0,0,-1,1861,442,0,0
644,582,0,0,0,0,0,0,0,0,0,-1,1868,442,0,0
651,582,0,0,0,0,0,0,0,0,0,-1,1875,442,0,0
658,582,0,0,0,0,0,0,0,0,0,-1,1882,442,0,0
665,582,0,0,0,0,0,0,0,0,0,-1,1889,442,0,0
672,582,0,0,0,0,0,0,0,0,0,-1,1896,442,0,0
679,582,0,0,0,0,0,0,0,0,0,-1,1903,442,0,0
686,582,0,0,0,0,0,0,0,0,0,-1,1910,442,0,0
693,582,0,0,0,0,0,0,0,0,0,-1,1917,442,0,0
700,582,0,0,0,0,0,0,0,0,0,-1,1924,442,0,0
707,582,0,0,0,0,0,0,0,0,0,-1,1931,442,0,0
714,582,0,0,0,0,0,0,0,0,0,-1,1938,442,0,0
721,582,0,0,0,0,0,0,0,0,0,-1,1945,442,0,0
728,582,0,0,0,0,0,0,0,0,0,-1,1952,442,0,0
735,582,0,0,0,0,0,0,0,0,0,-1,1959,442,0,0
742,582,0,0,0,0,0,0,0,0,0,-1,1966,442,0,0
749,582,0,0,0,0,0,0,0,0,0,-1,1973,442,0,0
756,582,0,0,0,0,0,0,0,0,0,-1,1980,442,0,0
763,582,0,0,0,0,0,0,0,0,0,-1,1987,442,0,0
770,582,0,0,0,0,0,0,0,0,0,-1,1994,442,0,0
777,582,0,0,0,0,0,0,0,0,0,-1,2001,442,0,0
784,582,0,0,0,0,0,0,0,0,0,-1,2008,442,0,0
791,582,0,0,0,0,0,0,0,0,0,-1,2015,442,0,0
798,582,0,0,0,0,0,0,0,0,0,-1,2022,442,0,0
805,582,0,0,0,0,0,0,0,0,0,-1,2029,442,0,0
812,582,0,0,0,0,0,0,0,0,0,-1,2036,442,0,0
-700,575,0,0,0,0,0,0,0,0,0,-1,524,449,0,0
-693,575,0,0,0,0,0,0,0,0,0,-1,531,449,0,0
-686,575,0,0,0,0,0,0,0,0,0,-1,538,449,0,0
-679,575,0,0,0,0,0,0,0,0,0,-1,545,449,0,0
-672,575,0,0,0,0,0,0,0,0,0,-1,552,449,0,0
-665,575,0,0,0,0,0,0,0,0,0,-1,559,449,0,0
-658,575,0,0,0,0,0,0,0,0,0,-1,566,449,0,0
-651,575,0,0,0,0,0,0,0,0,0,-1,573,449,0,0
-644,575,0,0,0,0,0,0,0,0,0,-1,580,449,0,0
-637,575,0,0,0,0,0,0,0,0,0,-1,587,449,0,0
-630,575,0,0,0,0,0,0,0,0,0,-1,594,449,0,0
-623,575,0,0,0,0,0,0,0,0,0,-1,601,449,0,0
-616,575,0,0,0,0,0,0,0,0,0,-1,608,449,0,0
-609,575,0,0,0,0,0,0,0,0,0,-1,615,449,0,0
-602,575,0,0,0,0,0,0,0,0,0,-1,622,449,0,0
-595,575,0,0,0,0,0,0,0,0,0,-1,629,449,0,0
-588,575,0,0,0,0,0,0,0,0,0,-1,636,449,0,0
-581,575,0,0,0,0,0,0,0,0,0,-1,643,449,0,0
-574,575,0,0,0,0,0,0,0,0,0,-1,650,449,0,0
-567,575,0,0,0,0,0,0,0,0,0,-1,657,449,0,0
-560,575,0,0,0,0,0,0,0,0,0,-1,664,449,0,0
-553,575,0,0,0,0,0,0,0,0,0,-1,671,449,0,0
-546,575,0,0,0,0,0,0,0,0,0,-1,678,449,0,0
-539,575,0,0,0,0,0,0,0,0,0,-1,685,449,0,0
-532,575,0,0,0,0,0,0,0,0,0,-1,692,449,0,0
-525,575,0,0,0,0,0,0,0,0,0,-1,699,449,0,0
-518,575,0,0,0,0,0,0,0,0,0,-1,706,449,0,0
-511,575,0,0,0,0,0,0,0,0,0,-1,713,449,0,0
-504,575,0,0,0,0,0,0,0,0,0,-1,720,449,0,0
-497,575,0,0,0,0,0,0,0,0,0,-1,727,449,0,0
-490,575,0,0,0,0,0,0,0,0,0,-1,734,449,0,0
-483,575,0,0,0,0,0,0,0,0,0,-1,741,449,0,0
-476,575,0,0,0,0,0,0,0,0,0,-1,748,449,0,0
-469,575,0,0,0,0,0,0,0,0,0,-1,755,449,0,0
-462,575,0,0,0,0,0,0,0,0,0,-1,762,449,0,0
-455,575,0,0,0,0,0,0,0,0,0,-1,769,449,0,0
-448,575,0,0,0,0,0,0,0,0,0,-1,776,449,0,0
-441,575,0,0,0,0,0,0,0,0,0,-1,783,449,0,0
-434,575,0,0,0,0,0,0,0,0,0,-1,790,449,0,0
-427,575,0,0,0,0,0,0,0,0,0,-1,797,449,0,0
-420,575,0,0,0,0,0,0,0,0,0,-1,804,449,0,0
-413,575,0,0,0,0,0,0,0,0,0,-1,811,449,0,0
-406,575,0,0,0,0,0,0,0,0,0,-1,818,449,0,0
-399,575,0,0,0,0,0,0,0,0,0,-1,825,449,0,0
-392,575,0,0,0,0,0,0,0,0,0,-1,832,449,0,0
-385,575,0,0,0,0,0,0,0,0,0,-1,839,449,0,0
-378,575,0,0,0,0,0,0,0,0,0,-1,846,449,0,0
-371,575,0.56897,-3.52304,0,0,0,0,0,0,0,-1,853,449,0.568955,3.52306
-364,575,1.49805,-4.67191,0,0,0,0,0,0,0,-1,860,449,1.49803,4.6719
-357,575,3.15521,-8.29892,0,0,0,0,0,0,0,-1,867,449,3.15521,8.29891
-350,575,-0.825928,-18.5347,0,0,0,0,0,0,0,-1,874,449,-0.825948,18.5347
-343,575,0.465393,-16.3569,0,0,0,0,0,0,0,-1,881,449,0.465397,16.3569
-336,575,3.1994,-17.5725,0,0,0,0,0,0,0,-1,888,449,3.19941,17.5725
-329,575,2.81946,-29.1576,0,0,0,0,0,0,0,-1,895,449,2.81945,29.1576
-322,575,4.28943,-27.9487,0,0,0,0,0,0,0,-1,902,449,4.28944,27.9487
-315,575,6.13507,-35.9424,0,0,0,0,0,0,0,-1,909,449,6.13508,35.9424
-308,575,4.07349,-39.2742,0,0,0,0,0,0,0,-1,916,449,4.0735,39.2742
-301,575,4.12793,-40.1734,-0.00205291,0.0210189,-0.0103537,0.0249838,-0.00601789,-1.20507,0.0189825,0.0449676,923,449,4.12794,40.1734
-294,575,4.00372,-41.0912,-0.00140968,0.018147,-0.00926765,0.0218411,-0.00510373,-1.1915,0.0165268,0.0250345,930,449,4.00373,41.0912
-287,575,3.92303,-42.0998,-0.001119,0.0162605,-0.00821526,0.0195291,-0.00438761,-1.19213,0.0147018,0.0167203,937,449,3.92301,42.0998
-280,575,3.87927,-43.0614,-0.000691834,0.0149307,-0.00750816,0.017954,-0.00371517,-1.18799,0.0133808,0.0132121,944,449,3.87929,43.0614
-273,575,3.81262,-43.9673,-0.00036965,0.0131364,-0.00679013,0.0159598,-0.00319312,-1.17673,0.0118486,0.012131,951,449,3.81264,43.9673
-266,575,3.74683,-44.8356,-0.000142907,0.0110768,-0.00598624,0.0136709,-0.00273705,-1.16187,0.0101501,0.0139934,958,449,3.74684,44.8356
-259,575,3.66718,-45.7033,0.000108041,0.00873951,-0.00519199,0.0111752,-0.00232769,-1.13215,0.00833511,0.0139414,965,449,3.66718,45.7033
-252,575,3.5791,-46.5817,0.000331719,0.00659916,-0.00433183,0.00881193,-0.00188105,-1.09853,0.00659172,0.012222,972,449,3.5791,46.5817
-245,575,3.50604,-47.4296,0.000527861,0.00449216,-0.00346841,0.00650486,-0.00148483,-1.04499,0.00490698,0.0155992,979,449,3.50604,47.4296
-238,575,3.46802,-48.25,0.000722305,0.0023123,-0.00252102,0.0041607,-0.00112609,-0.938137,0.00321558,0.0153245,986,449,3.46802,48.25
-231,575,3.43945,-49.0725,0.000920303,6.10548e-05,-0.00151212,0.00206265,-0.00108129,-0.646985,0.00184439,0.0126372,993,449,3.43947,49.0726
-224,575,3.37976,-49.9158,0.00114201,-0.00209259,-0.000587046,0.00124526,-0.00219584,-0.174095,0.00201183,0.011972,1000,449,3.37976,49.9158
-217,575,3.3493,-50.728,0.00137844,-0.0042012,0.000308936,0.00139549,-0.00421825,0.0551438,0.00337491,0.0104993,1007,449,3.34928,50.728
-210,575,3.36359,-51.5335,0.00166779,-0.00619726,0.00112599,0.00182582,-0.00635528,0.139434,0.0049588,0.00983055,1014,449,3.36358,51.5335
-203,575,3.34595,-52.3221,0.00210382,-0.00783474,0.00183077,0.00243034,-0.00816126,0.176494,0.0064065,0.0136687,1021,449,3.34589,52.3222
-196,575,3.30127,-53.1279,0.0026169,-0.00908618,0.00237303,0.00307977,-0.00954905,0.192636,0.00760346,0.0179383,1028,449,3.30131,53.1279
-189,575,3.26172,-53.8959,0.00317584,-0.00997423,0.00272899,0.00371968,-0.0105181,0.196708,0.00852682,0.0191331,1035,449,3.26169,53.8959
-182,575,3.22766,-54.61,0.00384135,-0.0106283,0.00309626,0.00447606,-0.011263,0.20219,0.00936433,0.0162237,1042,449,3.22769,54.61
-175,575,3.23389,-55.345,0.00455745,-0.0107991,0.00328005,0.0052287,-0.0114703,0.201861,0.00986312,0.0128883,1049,449,3.23393,55.345
-168,575,3.21826,-56.0919,0.00525774,-0.0107927,0.00329949,0.00590955,-0.0114445,0.195036,0.0101878,0.0105399,1056,449,3.21823,56.0919
-161,575,3.20813,-56.8109,0.00596047,-0.0107936,0.00329729,0.00658603,-0.0114192,0.187493,0.0105194,0.0145453,1063,449,3.20819,56.8109
-154,575,3.22205,-57.5159,0.00674695,-0.0104179,0.00321916,0.00733082,-0.0110018,0.179424,0.0106548,0.0166062,1070,449,3.222,57.5159
-147,575,3.26318,-58.1531,0.00770056,-0.00976304,0.00309913,0.00823423,-0.0102967,0.170528,0.0107209,0.0149876,1077,449,3.26323,58.1531
-140,575,3.224,-58.7113,0.00854561,-0.00891736,0.00303441,0.00905786,-0.0094296,0.167234,0.0106745,0.0236703,1084,449,3.22402,58.7113
-133,575,3.27332,-59.2445,0.00882564,-0.00866186,0.00325348,0.00941132,-0.00924755,0.178109,0.0107728,0.0435471,1091,449,3.27336,59.2445
-126,575,3.44446,-59.7885,0,0,0,0,0,0,0,-1,1098,449,3.44448,59.7886
-119,575,3.00208,-52.3971,0,0,0,0,0,0,0,-1,1105,449,3.00204,52.3971
-112,575,2.70337,-43.3701,0,0,0,0,0,0,0,-1,1112,449,2.70333,43.3701
-105,575,2.18347,-36.5414,0,0,0,0,0,0,0,-1,1119,449,2.18351,36.5414
-98,575,1.521,-25.6961,0,0,0,0,0,0,0,-1,1126,449,1.52105,25.6961
-91,575,1.60803,-16.4247,0,0,0,0,0,0,0,-1,1133,449,1.60802,16.4247
-84,575,1.16553,-11.9056,0,0,0,0,0,0,0,-1,1140,449,1.16558,11.9056
-77,575,0.205078,-11.2584,0,0,0,0,0,0,0,-1,1147,449,0.205117,11.2584
-70,575,-4.2467,-1.78738,0,0,0,0,0,0,0,-1,1154,449,-4.24674,1.78739
-63,575,-4.52209,-3.48798,0,0,0,0,0,0,0,-1,1161,449,-4.5221,3.48796
-56,575,-5.5968,-5.4928,0,0,0,0,0,0,0,-1,1168,449,-5.59683,5.49281
-49,575,-5.96863,-7.17612,0,0,0,0,0,0,0,-1,1175,449,-5.96868,7.1761
-42,575,-0.830322,0.773499,0,0,0,0,0,0,0,-1,1182,449,-0.83038,-0.77351
-35,575,-0.62085,0.205139,0,0,0,0,0,0,0,-1,1189,449,-0.620855,-0.205126
-28,575,0.49292,-3.87988,0,0,0,0,0,0,0,-1,1196,449,0.492941,3.87989
-21,575,7.09595,-60.7854,0,0,0,0,0,0,0,-1,1203,449,7.096,60.7854
-14,575,7.24719,-61.0684,-0.000108877,-0.101228,-0.039168,0.0132878,-0.114625,-0.329557,0.0812091,0.0462138,1210,449,7.24716,61.0684
-7,575,6.77148,-62.1393,0.00341527,-0.101931,-0.0393464,0.0164886,-0.115004,-0.320787,0.0827153,0.0442877,1217,449,6.77151,62.1393
0,575,6.63855,-62.628,0.00623337,-0.103134,-0.0379796,0.0181286,-0.115029,-0.303524,0.0833885,0.0451234,1224,449,6.63855,62.628
7,575,6.78735,-62.5999,0.00858272,-0.104284,-0.0355749,0.0188599,-0.114562,-0.281231,0.0833751,0.0442321,1231,449,6.78737,62.5999
14,575,6.88574,-63.1984,0.0104342,-0.104661,-0.0321073,0.018785,-0.113012,-0.254453,0.0823207,0.0452085,1238,449,6.88574,63.1984
21,575,6.62964,-63.9335,0.0126572,-0.103543,-0.0270919,0.0186632,-0.109549,-0.218161,0.0799831,0.0450425,1245,449,6.62969,63.9335
28,575,6.67297,-64.9148,0.0153947,-0.100942,-0.0209131,0.0190399,-0.104587,-0.172569,0.0768612,0.042899,1252,449,6.67292,64.9148
35,575,6.8645,-65.6236,0.016538,-0.0956911,-0.014544,0.0183921,-0.0975452,-0.126802,0.0719488,0.0421295,1259,449,6.86447,65.6236
42,575,6.83887,-66.0869,0.0174978,-0.0905827,-0.00888089,0.0182226,-0.0913076,-0.0814413,0.0677676,0.0456711,1266,449,6.83886,66.0868
49,575,6.90564,-66.4085,0.0200266,-0.084541,-0.00298656,0.0201119,-0.0846263,-0.02853,0.0641806,0.0488407,1273,449,6.90561,66.4085
56,575,6.96826,-66.6305,0.0216579,-0.0773659,0.00259971,0.0217261,-0.0774341,0.0262293,0.0601864,0.0490815,1280,449,6.9683,66.6305
63,575,6.9397,-66.7288,0,0,0,0,0,0,0,-1,1287,449,6.93969,66.7289
70,575,7.70483,-65.8973,0,0,0,0,0,0,0,-1,1294,449,7.70485,65.8973
77,575,8.31091,-65.572,0,0,0,0,0,0,0,-1,1301,449,8.31096,65.572
84,575,8.88538,-64.9769,0,0,0,0,0,0,0,-1,1308,449,8.88538,64.9769
91,575,9.51501,-64.7187,0,0,0,0,0,0,0,-1,1315,449,9.51496,64.7187
98,575,11.0243,-67.7637,0,0,0,0,0,0,0,-1,1322,449,11.0243,67.7637
105,575,12.0397,-68.2171,0,0,0,0,0,0,0,-1,1329,449,12.0397,68.2171
112,575,5.88135,-68.4282,0,0,0,0,0,0,0,-1,1336,449,5.88134,68.4282
119,575,6.32056,-68.0396,0,0,0,0,0,0,0,-1,1343,449,6.32057,68.0396
126,575,-4.19019,-76.8642,0,0,0,0,0,0,0,-1,1350,449,-4.19013,76.8642
133,575,-5.05127,-78.8333,0,0,0,0,0,0,0,-1,1357,449,-5.05124,78.8333
140,575,-7.36304,-80.5805,0,0,0,0,0,0,0,-1,1364,449,-7.36309,80.5805
147,575,-8.83972,-82.2612,0,0,0,0,0,0,0,-1,1371,449,-8.83978,82.2611
154,575,-10.343,-84.0163,0,0,0,0,0,0,0,-1,1378,449,-10.3431,84.0163
161,575,1.82922,-78.3181,0,0,0,0,0,0,0,-1,1385,449,1.82924,78.3181
168,575,-4.97888,-77.9566,0,0,0,0,0,0,0,-1,1392,449,-4.97891,77.9566
175,575,4.32617,1.93634,0,0,0,0,0,0,0,-1,1399,449,4.32612,-1.93634
182,575,6.3147,-2.88345,0,0,0,0,0,0,0,-1,1406,449,6.31466,2.88346
189,575,6.10449,-1.30817,0,0,0,0,0,0,0,-1,1413,449,6.10455,1.30817
196,575,5.79895,0.818359,0,0,0,0,0,0,0,-1,1420,449,5.79895,-0.81837
203,575,3.29724,-1.46378,0,0,0,0,0,0,0,-1,1427,449,3.29722,1.46377
210,575,2.32739,-7.74503,0,0,0,0,0,0,0,-1,1434,449,2.32741,7.74502
217,575,3.33618,-11.5521,0,0,0,0,0,0,0,-1,1441,449,3.3362,11.5521
224,575,5.51709,-16.3903,0,0,0,0,0,0,0,-1,1448,449,5.51713,16.3903
231,575,5.48572,-20.4595,0,0,0,0,0,0,0,-1,1455,449,5.48571,20.4595
238,575,5.33484,-22.3575,0,0,0,0,0,0,0,-1,1462,449,5.33478,22.3575
245,575,5.59741,-23.513,0,0,0,0,0,0,0,-1,1469,449,5.5974,23.513
252,575,10.5602,-44.9309,0,0,0,0,0,0,0,-1,1476,449,10.5602,44.9309
259,575,12.6493,-57.551,0,0,0,0,0,0,0,-1,1483,449,12.6493,57.551
266,575,13.2965,-58.9619,0,0,0,0,0,0,0,-1,1490,449,13.2965,58.9619
273,575,13.4276,-58.0559,0.00657231,-0.0152099,-0.00487321,0.00761286,-0.0162504,-0.210365,0.0140751,0.0222511,1497,449,13.4277,58.0559
280,575,13.4125,-57.3365,0.00587246,-0.0148387,-0.00473051,0.00690177,-0.015868,-0.21425,0.0134816,0.0164523,1504,449,13.4124,57.3365
287,575,13.3701,-56.6783,0.00525735,-0.0141253,-0.00451851,0.00625895,-0.0151269,-0.218139,0.0126961,0.0146093,1511,449,13.3701,56.6783
294,575,13.3789,-55.9586,0.00467783,-0.012904,-0.00416269,0.00561359,-0.0138397,-0.221121,0.0115613,0.0124339,1518,449,13.3789,55.9587
301,575,13.3846,-55.2004,0.00408896,-0.0113183,-0.00372015,0.00494018,-0.0121695,-0.224941,0.010168,0.0107763,1525,449,13.3846,55.2004
308,575,13.3739,-54.4286,0.00348668,-0.00967531,-0.00324229,0.00424203,-0.0104307,-0.228885,0.00871883,0.0114104,1532,449,13.3739,54.4286
315,575,13.3491,-53.6845,0.0029702,-0.00784732,-0.00267718,0.0035965,-0.00847362,-0.229809,0.0071558,0.0120915,1539,449,13.3491,53.6845
322,575,13.327,-52.8802,0.00247594,-0.00601943,-0.00204469,0.00294244,-0.00648593,-0.224315,0.00557015,0.011126,1546,449,13.327,52.8801
329,575,13.2958,-52.1016,0.0020929,-0.00417725,-0.00129657,0.00235043,-0.00443478,-0.196074,0.00397858,0.0115739,1553,449,13.2957,52.1016
336,575,13.2577,-51.3096,0.00180543,-0.00234687,-0.000576761,0.00188406,-0.00242549,-0.135485,0.00249466,0.0132262,1560,449,13.2577,51.3096
343,575,13.2417,-50.4329,0.00140153,-0.000430744,0.000197405,0.00142256,-0.00045177,0.106115,0.00112949,0.0147585,1567,449,13.2416,50.4329
350,575,13.2018,-49.6402,0.00120997,0.00146139,0.00103907,0.00238233,0.000289037,0.845599,0.00150118,0.0138794,1574,449,13.2018,49.6402
357,575,13.1593,-48.8252,0.00110869,0.00309261,0.00181737,0.00417112,3.01872e-05,1.03521,0.00277074,0.0117167,1581,449,13.1593,48.8252
364,575,13.1241,-47.9772,0.000971573,0.00447432,0.00264157,0.00589236,-0.000446467,1.07813,0.0040852,0.0104606,1588,449,13.1242,47.9772
371,575,13.0817,-47.1478,0.000847208,0.00579634,0.0034242,0.00754654,-0.000902994,1.09829,0.00535745,0.0187592,1595,449,13.0817,47.1478
378,575,13.0015,-46.3002,0.000672078,0.00719376,0.00410878,0.00917841,-0.00131257,1.12082,0.00660011,0.018472,1602,449,13.0015,46.3002
385,575,12.923,-45.4355,0.000423743,0.00827774,0.00456511,0.0103725,-0.00167101,1.1406,0.00753403,0.0121891,1609,449,12.923,45.4354
392,575,12.8691,-44.5768,0.000340046,0.00912737,0.00500696,0.0113951,-0.00192767,1.14552,0.00831411,0.0103568,1616,449,12.8692,44.5768
399,575,12.7933,-43.7464,0.000596374,0.0100286,0.00568058,0.0126956,-0.00207065,1.13185,0.00923169,0.010713,1623,449,12.7934,43.7464
406,575,12.7484,-42.8301,0.000530939,0.0108071,0.00618339,0.0137086,-0.00237051,1.13206,0.0100231,0.0121458,1630,449,12.7484,42.8301
413,575,12.6874,-41.9129,9.47405e-05,0.0110164,0.00632362,0.0139108,-0.00279959,1.14156,0.0103342,0.0145343,1637,449,12.6874,41.9129
420,575,12.5909,-40.9644,-0.000448474,0.0109745,0.0063628,0.0138132,-0.0032872,1.15115,0.0104779,0.0151181,1644,449,12.591,40.9643
427,575,12.4713,-39.9916,-0.000930044,0.0107203,0.0064692,0.0136005,-0.00381022,1.15193,0.0105686,0.0204549,1651,449,12.4713,39.9916
434,575,12.3306,-39.1993,-0.00132025,0.0105648,0.00661241,0.0135126,-0.00426803,1.15144,0.0107182,0.0350117,1658,449,12.3305,39.1993
441,575,12.4044,-38.4443,0,0,0,0,0,0,0,-1,1665,449,12.4044,38.4443
448,575,12.9486,-37.0478,0,0,0,0,0,0,0,-1,1672,449,12.9486,37.0478
455,575,11.7931,-31.6917,0,0,0,0,0,0,0,-1,1679,449,11.793,31.6917
462,575,7.12781,-21.7179,0,0,0,0,0,0,0,-1,1686,449,7.12778,21.7178
469,575,11.5612,-34.5009,0,0,0,0,0,0,0,-1,1693,449,11.5611,34.5009
476,575,10.3063,-31.0265,0,0,0,0,0,0,0,-1,1700,449,10.3063,31.0265
483,575,8.44177,-29.4231,0,0,0,0,0,0,0,-1,1707,449,8.44173,29.4231
490,575,7.42871,-25.5027,0,0,0,0,0,0,0,-1,1714,449,7.42869,25.5027
497,575,0,0,0,0,0,0,0,0,0,-1,1721,449,0,0
504,575,0,0,0,0,0,0,0,0,0,-1,1728,449,0,0
511,575,0,0,0,0,0,0,0,0,0,-1,1735,449,0,0
518,575,0,0,0,0,0,0,0,0,0,-1,1742,449,0,0
525,575,0,0,0,0,0,0,0,0,0,-1,1749,449,0,0
532,575,0,0,0,0,0,0,0,0,0,-1,1756,449,0,0
539,575,0,0,0,0,0,0,0,0,0,-1,1763,449,0,0
546,575,0,0,0,0,0,0,0,0,0,-1,1770,449,0,0
553,575,0,0,0,0,0,0,0,0,0,-1,1777,449,0,0
560,575,0,0,0,0,0,0,0,0,0,-1,1784,449,0,0
567,575,0,0,0,0,0,0,0,0,0,-1,1791,449,0,0
574,575,0,0,0,0,0,0,0,0,0,-1,1798,449,0,0
581,575,0,0,0,0,0,0,0,0,0,-1,1805,449,0,0
588,575,0,0,0,0,0,0,0,0,0,-1,1812,449,0,0
595,575,0,0,0,0,0,0,0,0,0,-1,1819,449,0,0
602,575,0,0,0,0,0,0,0,0,0,-1,1826,449,0,0
609,575,0,0,0,0,0,0,0,0,0,-1,1833,449,0,0
616,575,0,0,0,0,0,0,0,0,0,-1,1840,449,0,0
623,575,0,0,0,0,0,0,0,0,0,-1,1847,449,0,0
630,575,0,0,0,0,0,0,0,0,0,-1,1854,449,0,0
637,575,0,0,0,0,0,0,0,0,0,-1,1861,449,0,0
644,575,0,0,0,0,0,0,0,0,0,-1,1868,449,0,0
651,575,0,0,0,0,0,0,0,0,0,-1,1875,449,0,0
658,575,0,0,0,0,0,0,0,0,0,-1,1882,449,0,0
665,575,0,0,0,0,0,0,0,0,0,-1,1889,449,0,0
672,575,0,0,0,0,0,0,0,0,0,-1,1896,449,0,0
679,575,0,0,0,0,0,0,0,0,0,-1,1903,449,0,0
686,575,0,0,0,0,0,0,0,0,0,-1,1910,449,0,0
693,575,0,0,0,0,0,0,0,0,0,-1,1917,449,0,0
700,575,0,0,0,0,0,0,0,0,0,-1,1924,449,0,0
707,575,0,0,0,0,0,0,0,0,0,-1,1931,449,0,0
714,575,0,0,0,0,0,0,0,0,0,-1,1938,449,0,0
721,575,0,0,0,0,0,0,0,0,0,-1,1945,449,0,0
728,575,0,0,0,0,0,0,0,0,0,-1,1952,449,0,0
735,575,0,0,0,0,0,0,0,0,0,-1,1959,449,0,0
742,575,0,0,0,0,0,0,0,0,0,-1,1966,449,0,0
749,575,0,0,0,0,0,0,0,0,0,-1,1973,449,0,0
756,575,0,0,0,0,0,0,0,0,0,-1,1980,449,0,0
763,575,0,0,0,0,0,0,0,0,0,-1,1987,449,0,0
770,575,0,0,0,0,0,0,0,0,0,-1,1994,449,0,0
777,575,0,0,0,0,0,0,0,0,0,-1,2001,449,0,0
784,575,0,0,0,0,0,0,0,0,0,-1,2008,449,0,0
791,575,0,0,0,0,0,0,0,0,0,-1,2015,449,0,0
798,575,0,0,0,0,0,0,0,0,0,-1,2022,449,0,0
805,575,0,0,0,0,0,0,0,0,0,-1,2029,449,0,0
812,575,0,0,0,0,0,0,0,0,0,-1,2036,449,0,0
-700,568,0,0,0,0,0,0,0,0,0,-1,524,456,0,0
-693,568,0,0,0,0,0,0,0,0,0,-1,531,456,0,0
-686,568,0,0,0,0,0,0,0,0,0,-1,538,456,0,0
-679,568,0,0,0,0,0,0,0,0,0,-1,545,456,0,0
-672,568,0,0,0,0,0,0,0,0,0,-1,552,456,0,0
-665,568,0,0,0,0,0,0,0,0,0,-1,559,456,0,0
-658,568,0,0,0,0,0,0,0,0,0,-1,566,456,0,0
-651,568,0,0,0,0,0,0,0,0,0,-1,573,456,0,0
-644,568,0,0,0,0,0,0,0,0,0,-1,580,456,0,0
-637,568,0,0,0,0,0,0,0,0,0,-1,587,456,0,0
-630,568,0,0,0,0,0,0,0,0,0,-1,594,456,0,0
-623,568,0,0,0,0,0,0,0,0,0,-1,601,456,0,0
-616,568,0,0,0,0,0,0,0,0,0,-1,608,456,0,0
-609,568,0,0,0,0,0,0,0,0,0,-1,615,456,0,0
-602,568,0,0,0,0,0,0,0,0,0,-1,622,456,0,0
-595,568,0,0,0,0,0,0,0,0,0,-1,629,456,0,0
-588,568,0,0,0,0,0,0,0,0,0,-1,636,456,0,0
-581,568,0,0,0,0,0,0,0,0,0,-1,643,456,0,0
-574,568,0,0,0,0,0,0,0,0,0,-1,650,456,0,0
-567,568,0,0,0,0,0,0,0,0,0,-1,657,456,0,0
-560,568,0,0,0,0,0,0,0,0,0,-1,664,456,0,0
-553,568,0,0,0,0,0,0,0,0,0,-1,671,456,0,0
-546,568,0,0,0,0,0,0,0,0,0,-1,678,456,0,0
-539,568,0,0,0,0,0,0,0,0,0,-1,685,456,0,0
-532,568,0,0,0,0,0,0,0,0,0,-1,692,456,0,0
-525,568,0,0,0,0,0,0,0,0,0,-1,699,456,0,0
-518,568,0,0,0,0,0,0,0,0,0,-1,706,456,0,0
-511,568,0,0,0,0,0,0,0,0,0,-1,713,456,0,0
-504,568,0,0,0,0,0,0,0,0,0,-1,720,456,0,0
-497,568,0,0,0,0,0,0,0,0,0,-1,727,456,0,0
-490,568,0,0,0,0,0,0,0,0,0,-1,734,456,0,0
-483,568,0,0,0,0,0,0,0,0,0,-1,741,456,0,0
-476,568,0,0,0,0,0,0,0,0,0,-1,748,456,0,0
-469,568,0,0,0,0,0,0,0,0,0,-1,755,456,0,0
-462,568,0,0,0,0,0,0,0,0,0,-1,762,456,0,0
-455,568,0,0,0,0,0,0,0,0,0,-1,769,456,0,0
-448,568,0,0,0,0,0,0,0,0,0,-1,776,456,0,0
-441,568,0,0,0,0,0,0,0,0,0,-1,783,456,0,0
-434,568,0,0,0,0,0,0,0,0,0,-1,790,456,0,0
-427,568,0,0,0,0,0,0,0,0,0,-1,797,456,0,0
-420,568,0,0,0,0,0,0,0,0,0,-1,804,456,0,0
-413,568,0,0,0,0,0,0,0,0,0,-1,811,456,0,0
-406,568,0,0,0,0,0,0,0,0,0,-1,818,456,0,0
-399,568,0,0,0,0,0,0,0,0,0,-1,825,456,0,0
-392,568,0,0,0,0,0,0,0,0,0,-1,832,456,0,0
-385,568,0,0,0,0,0,0,0,0,0,-1,839,456,0,0
-378,568,0.321777,-7.29929,0,0,0,0,0,0,0,-1,846,456,0.321806,7.29927
-371,568,1.09595,-7.46707,0,0,0,0,0,0,0,-1,853,456,1.09597,7.46707
-364,568,2.70746,-23.4782,0,0,0,0,0,0,0,-1,860,456,2.70746,23.4782
-357,568,2.14166,-7.67645,0,0,0,0,0,0,0,-1,867,456,2.14167,7.67646
-350,568,2.7467,-11.2507,0,0,0,0,0,0,0,-1,874,456,2.7467,11.2507
-343,568,2.16516,-11.3762,0,0,0,0,0,0,0,-1,881,456,2.16514,11.3762
-336,568,1.14984,-29.3232,0,0,0,0,0,0,0,-1,888,456,1.14984,29.3231
-329,568,2.80359,-32.459,0,0,0,0,0,0,0,-1,895,456,2.80357,32.4591
-322,568,4.67688,-35.653,0,0,0,0,0,0,0,-1,902,456,4.67686,35.653
-315,568,3.90942,-37.4314,0,0,0,0,0,0,0,-1,909,456,3.90944,37.4314
-308,568,3.19781,-39.4596,0,0,0,0,0,0,0,-1,916,456,3.19782,39.4596
-301,568,3.25665,-40.3569,-0.00182732,0.0163649,-0.00810504,0.0194521,-0.00491443,-1.20687,0.0148792,0.0256927,923,456,3.25666,40.3569
-294,568,3.16809,-41.2024,-0.0012659,0.0139506,-0.00713331,0.0167716,-0.00408692,-1.1942,0.0127634,0.0140841,930,456,3.16812,41.2024
-287,568,3.09241,-42.1349,-0.000969662,0.0122719,-0.00620871,0.0147276,-0.00342538,-1.19415,0.0111372,0.0114098,937,456,3.0924,42.1349
-280,568,3.04193,-43.0766,-0.000563408,0.0109034,-0.0055633,0.0131589,-0.00281888,-1.18563,0.00984765,0.0116866,944,456,3.04194,43.0766
-273,568,2.97437,-43.9677,-0.000230415,0.00907061,-0.00489981,0.0111755,-0.0023353,-1.16505,0.00833849,0.0134123,951,456,2.9744,43.9677
-266,568,2.89355,-44.8109,4.42974e-05,0.00697954,-0.00415711,0.00892542,-0.00190158,-1.13301,0.00667505,0.0130528,958,456,2.89354,44.8109
-259,568,2.83435,-45.6645,0.000341967,0.00451153,-0.00338963,0.00640619,-0.00155269,-1.0611,0.00487154,0.0136908,965,456,2.83432,45.6645
-252,568,2.76434,-46.5219,0.000576853,0.0021325,-0.00253214,0.00400358,-0.00129423,-0.934414,0.00318924,0.0137054,972,456,2.76437,46.5219
-245,568,2.69806,-47.3432,0.000758332,-0.000292808,-0.00163098,0.00194633,-0.00148081,-0.629531,0.00198474,0.0159526,979,456,2.69808,47.3432
-238,568,2.65137,-48.1842,0.00100227,-0.00273831,-0.000656615,0.00111418,-0.00285022,-0.168817,0.00236087,0.0139852,986,456,2.65136,48.1842
-231,568,2.60498,-49.0065,0.00127198,-0.00525019,0.000376654,0.00129365,-0.00527187,0.057495,0.00401587,0.0119192,993,456,2.60497,49.0065
-224,568,2.54901,-49.8388,0.0015199,-0.00765381,0.00136282,0.00171807,-0.00785199,0.144404,0.00589145,0.013704,1000,456,2.54902,49.8388
-217,568,2.54712,-50.6602,0.00178656,-0.00994181,0.00232191,0.00222951,-0.0103848,0.188504,0.00777365,0.0118398,1007,456,2.54714,50.6602
-210,568,2.547,-51.4691,0.00211899,-0.0120676,0.00319449,0.00280512,-0.0127538,0.211573,0.00957551,0.0120962,1014,456,2.54702,51.4691
-203,568,2.52649,-52.2821,0.00262852,-0.0137353,0.00391638,0.00351754,-0.0146244,0.223216,0.0111093,0.0110389,1021,456,2.52651,52.2821
-196,568,2.51123,-53.0463,0.00325098,-0.0148861,0.00442457,0.00427279,-0.0159079,0.226961,0.0122799,0.0158977,1028,456,2.51129,53.0463
-189,568,2.4657,-53.7858,0.00392034,-0.0155738,0.00471078,0.00499902,-0.0166525,0.2251,0.0130901,0.0159174,1035,456,2.4657,53.7858
-182,568,2.46606,-54.5462,0.00470763,-0.015883,0.00501071,0.00586224,-0.0170376,0.226475,0.013736,0.0153149,1042,456,2.46603,54.5462
-175,568,2.48889,-55.2743,0.00559764,-0.0155412,0.00504526,0.00674007,-0.0166837,0.222679,0.013924,0.0157953,1049,456,2.48888,55.2743
-168,568,2.50415,-55.9037,0.00649038,-0.0151164,0.00485219,0.00753,-0.0161561,0.211067,0.0139742,0.0217771,1056,456,2.50411,55.9037
-161,568,2.46765,-56.5985,0.00737716,-0.0147912,0.004625,0.00830337,-0.0157174,0.197649,0.0140869,0.0320897,1063,456,2.46768,56.5985
-154,568,2.573,-57.506,0.00837617,-0.0139135,0.00424608,0.00915763,-0.0146949,0.182007,0.0138944,0.0371129,1070,456,2.57295,57.506
-147,568,2.74231,-58.1999,0.00962334,-0.0126433,0.00380229,0.0102547,-0.0132747,0.164552,0.0136219,0.042731,1077,456,2.74225,58.1999
-140,568,2.75208,-58.7698,0.010727,-0.0109864,0.00343826,0.0112585,-0.0115179,0.153351,0.0131502,0.049627,1084,456,2.75207,58.7698
-133,568,2.50806,-58.6139,0,0,0,0,0,0,0,-1,1091,456,2.50803,58.6139
-126,568,2.47339,-55.9059,0,0,0,0,0,0,0,-1,1098,456,2.47343,55.9059
-119,568,1.89978,-50.8443,0,0,0,0,0,0,0,-1,1105,456,1.89978,50.8443
-112,568,1.98242,-35.0942,0,0,0,0,0,0,0,-1,1112,456,1.98247,35.0942
-105,568,2.02454,-25.038,0,0,0,0,0,0,0,-1,1119,456,2.02459,25.038
-98,568,1.58618,-14.7874,0,0,0,0,0,0,0,-1,1126,456,1.58617,14.7874
-91,568,1.11621,-11.1853,0,0,0,0,0,0,0,-1,1133,456,1.11626,11.1853
-84,568,0.461792,-9.7959,0,0,0,0,0,0,0,-1,1140,456,0.461793,9.7959
-77,568,-1.13806,-8.57822,0,0,0,0,0,0,0,-1,1147,456,-1.13807,8.57821
-70,568,-4.09766,-1.42911,0,0,0,0,0,0,0,-1,1154,456,-4.09767,1.4291
-63,568,-5.92273,-3.70752,0,0,0,0,0,0,0,-1,1161,456,-5.92272,3.70751
-56,568,-5.24158,-6.01385,0,0,0,0,0,0,0,-1,1168,456,-5.24161,6.01386
-49,568,-5.24365,-8.33557,0,0,0,0,0,0,0,-1,1175,456,-5.24371,8.33557
-42,568,-0.664795,0.521973,0,0,0,0,0,0,0,-1,1182,456,-0.664829,-0.521984
-35,568,-0.153076,-1.67731,0,0,0,0,0,0,0,-1,1189,456,-0.153068,1.67731
-28,568,1.25439,-4.48798,0,0,0,0,0,0,0,-1,1196,456,1.2544,4.48797
-21,568,6.30847,-57.2932,0,0,0,0,0,0,0,-1,1203,456,6.3085,57.2931
-14,568,7.2843,-61.1046,0,0,0,0,0,0,0,-1,1210,456,7.28429,61.1046
-7,568,7.18005,-61.5367,-0.000672699,-0.118073,-0.0471855,0.015941,-0.134687,-0.338538,0.0955493,0.044293,1217,456,7.18002,61.5367
0,568,7.07837,-61.9655,0.00398742,-0.120104,-0.0461036,0.0192411,-0.135358,-0.319521,0.0972888,0.0486981,1224,456,7.07842,61.9655
7,568,7.11072,-62.3721,0.00787199,-0.121563,-0.0435051,0.0211355,-0.134827,-0.295922,0.0976949,0.0476831,1231,456,7.11071,62.3721
14,568,6.94312,-62.687,0.0106376,-0.121692,-0.0394966,0.0215296,-0.132584,-0.269084,0.096371,0.0445594,1238,456,6.94309,62.687
21,568,6.9187,-63.2401,0.013497,-0.119685,-0.0334263,0.0214156,-0.127604,-0.232609,0.0930329,0.0451131,1245,456,6.91874,63.24
28,568,6.71179,-64.0263,0.0168821,-0.115538,-0.0257053,0.0216969,-0.120353,-0.185163,0.0883598,0.0460254,1252,456,6.7118,64.0263
35,568,6.49097,-65.0455,0.0182818,-0.107983,-0.0174465,0.0206481,-0.110349,-0.134809,0.0813273,0.0443596,1259,456,6.49101,65.0456
42,568,6.45447,-65.465,0.018825,-0.101152,-0.0103252,0.0197071,-0.102034,-0.0852249,0.0754545,0.0473085,1266,456,6.45444,65.465
49,568,6.8092,-65.8685,0.0208253,-0.0930294,-0.00256114,0.0208828,-0.093087,-0.0224796,0.0700641,0.045964,1273,456,6.80926,65.8685
56,568,6.02466,-66.1472,0.0216921,-0.0835974,0.0048055,0.021911,-0.0838163,0.0455147,0.0644352,0.0468526,1280,456,6.02467,66.1472
63,568,6.66895,-66.0168,0.0219349,-0.0764261,0.00956706,0.0228568,-0.077348,0.096065,0.0606376,0.048559,1287,456,6.6689,66.0168
70,568,7.35571,-65.4876,0.0216101,-0.0698851,0.0128353,0.0233766,-0.0716516,0.136768,0.0571757,0.0454727,1294,456,7.35567,65.4876
77,568,7.91541,-65.101,0,0,0,0,0,0,0,-1,1301,456,7.91539,65.101
84,568,7.86804,-64.8802,0.0170118,-0.064225,0.0139818,0.0193508,-0.0665641,0.165759,0.0520398,0.0483126,1308,456,7.86808,64.8803
91,568,4.58289,-67.7774,0.0135205,-0.0643361,0.0121199,0.0153636,-0.0661792,0.150913,0.0500332,0.0440074,1315,456,4.58287,67.7774
98,568,4.62329,-67.6256,0,0,0,0,0,0,0,-1,1322,456,4.6233,67.6256
105,568,4.69653,-67.4765,0,0,0,0,0,0,0,-1,1329,456,4.69657,67.4765
112,568,5.90271,-67.4972,-0.000765402,-0.0826173,0.00707472,-0.000158414,-0.0832243,0.0855874,0.0554301,0.0477042,1336,456,5.90268,67.4972
119,568,6.27112,-67.2137,-0.00418404,-0.0880377,0.00795957,-0.00343518,-0.0887866,0.0938058,0.0580799,0.0433977,1343,456,6.27116,67.2138
126,568,6.66418,-66.9609,0,0,0,0,0,0,0,-1,1350,456,6.66416,66.9609
133,568,-5.22388,-78.7783,0,0,0,0,0,0,0,-1,1357,456,-5.22387,78.7783
140,568,-7.67883,-80.9045,0,0,0,0,0,0,0,-1,1364,456,-7.67886,80.9045
147,568,-4.97192,-80.6765,0,0,0,0,0,0,0,-1,1371,456,-4.97189,80.6765
154,568,-5.60693,-82.6252,0,0,0,0,0,0,0,-1,1378,456,-5.60699,82.6252
161,568,-6.58704,-84.6441,0,0,0,0,0,0,0,-1,1385,456,-6.587,84.6441
168,568,-11.53,-55.4321,0,0,0,0,0,0,0,-1,1392,456,-11.53,55.4321
175,568,10.5151,0.747498,0,0,0,0,0,0,0,-1,1399,456,10.5152,-0.747501
182,568,6.35095,-3.63361,0,0,0,0,0,0,0,-1,1406,456,6.35093,3.63359
189,568,6.17493,-1.70911,0,0,0,0,0,0,0,-1,1413,456,6.17497,1.70911
196,568,6.04724,0.200836,0,0,0,0,0,0,0,-1,1420,456,6.04724,-0.200835
203,568,5.9281,2.08649,0,0,0,0,0,0,0,-1,1427,456,5.92812,-2.08648
210,568,1.46216,-2.50446,0,0,0,0,0,0,0,-1,1434,456,1.46219,2.50446
217,568,2.62366,-7.86703,0,0,0,0,0,0,0,-1,1441,456,2.62365,7.86704
224,568,3.43494,-12.1555,0,0,0,0,0,0,0,-1,1448,456,3.43492,12.1555
231,568,4.38245,-9.3205,0,0,0,0,0,0,0,-1,1455,456,4.38244,9.32048
238,568,5.88879,-20.7448,0,0,0,0,0,0,0,-1,1462,456,5.88876,20.7449
245,568,3.34387,-10.6774,0,0,0,0,0,0,0,-1,1469,456,3.34389,10.6774
252,568,3.56946,-9.28928,0,0,0,0,0,0,0,-1,1476,456,3.56948,9.28928
259,568,3.38843,-8.73068,0,0,0,0,0,0,0,-1,1483,456,3.38842,8.73068
266,568,13.911,-58.7564,0,0,0,0,0,0,0,-1,1490,456,13.911,58.7564
273,568,14.1366,-58.0549,0,0,0,0,0,0,0,-1,1497,456,14.1365,58.0549
280,568,14.162,-57.1929,0.00718494,-0.0206822,-0.00652083,0.00863531,-0.0221325,-0.218859,0.0183247,0.0390983,1504,456,14.162,57.1929
287,568,14.0902,-56.3897,0.0064431,-0.0198181,-0.00637801,0.00791015,-0.0212852,-0.226086,0.0174356,0.028556,1511,456,14.0902,56.3897
294,568,14.1655,-55.7644,0.00575323,-0.0182984,-0.00603665,0.00718332,-0.0197285,-0.232613,0.0160904,0.0249873,1518,456,14.1655,55.7644
301,568,14.1533,-55.0913,0.00505562,-0.0162747,-0.00557666,0.00642561,-0.0176446,-0.240894,0.0143913,0.0211536,1525,456,14.1533,55.0913
308,568,14.1268,-54.3621,0.0042724,-0.0143045,-0.00510143,0.00558111,-0.0156132,-0.251124,0.0126852,0.0142079,1532,456,14.1269,54.3621
315,568,14.1349,-53.6389,0.00359549,-0.0121092,-0.00450714,0.00479707,-0.0133108,-0.260536,0.0108329,0.00875012,1539,456,14.1348,53.6389
322,568,14.1078,-52.8429,0.00300217,-0.00992291,-0.00380672,0.00403999,-0.0109607,-0.266162,0.00896265,0.0106257,1546,456,14.1078,52.8429
329,568,14.0864,-52.0342,0.00255761,-0.00772829,-0.00295772,0.00334746,-0.00851813,-0.260956,0.00706409,0.0117306,1553,456,14.0864,52.0342
336,568,14.0674,-51.2263,0.00220392,-0.00563542,-0.00220229,0.00278024,-0.00621173,-0.25595,0.00531603,0.0123773,1560,456,14.0674,51.2263
343,568,14.0729,-50.3875,0.0017033,-0.00341565,-0.00141756,0.00206964,-0.00378199,-0.252897,0.00342632,0.0142615,1567,456,14.0729,50.3875
350,568,14.0396,-49.6057,0.00148076,-0.00143401,-0.000530176,0.0015742,-0.00152745,-0.174451,0.00179081,0.0125232,1574,456,14.0395,49.6057
357,568,13.985,-48.7831,0.00138884,0.000329142,0.000265712,0.00145173,0.000266249,0.232418,0.00089241,0.0097814,1581,456,13.985,48.783
364,568,13.9796,-47.9391,0.00123265,0.0017493,0.00111925,0.00263965,0.000342303,0.898813,0.00165749,0.0114761,1588,456,13.9796,47.9391
371,568,13.9153,-47.0762,0.00111554,0.00302656,0.0018977,0.00419573,-5.36276e-05,1.01862,0.0028152,0.0205702,1595,456,13.9153,47.0762
378,568,13.8229,-46.2217,0.000968441,0.00441993,0.00258457,0.00580195,-0.00041358,1.07976,0.00401294,0.0192551,1602,456,13.8229,46.2217
385,568,13.7755,-45.3859,0.000743308,0.00545412,0.00306024,0.00696045,-0.000763027,1.11339,0.00491443,0.0102339,1609,456,13.7756,45.3859
392,568,13.6989,-44.5493,0.000638009,0.00622516,0.0034976,0.00790789,-0.00104471,1.12238,0.00565244,0.0116199,1616,456,13.6988,44.5493
399,568,13.6063,-43.7319,0.000799144,0.00699935,0.00410469,0.00904308,-0.00124459,1.10883,0.00648353,0.0183698,1623,456,13.6064,43.7319
406,568,13.6093,-42.7999,0.000689161,0.00765283,0.00458945,0.00993174,-0.00158975,1.10991,0.00720974,0.0162055,1630,456,13.6092,42.7999
413,568,13.5656,-41.8671,0.000272432,0.0079034,0.00478666,0.0102092,-0.00203336,1.12189,0.00757544,0.0131308,1637,456,13.5656,41.8671
420,568,13.4955,-40.9577,-0.000248407,0.00789625,0.00488621,0.0101846,-0.00253681,1.1328,0.00777457,0.0127591,1644,456,13.4955,40.9577
427,568,13.4058,-40.0325,-0.000740953,0.0076902,0.00503327,0.0100401,-0.0030908,1.13401,0.0079271,0.0163819,1651,456,13.4058,40.0325
434,568,13.3503,-39.1071,-0.00114695,0.00754933,0.00522341,0.00999753,-0.00359515,1.1325,0.00813275,0.0243247,1658,456,13.3503,39.1071
441,568,13.3427,-38.2701,-0.00192284,0.00706031,0.00522189,0.00945658,-0.00431911,1.14057,0.00813567,0.0328585,1665,456,13.3426,38.2701
448,568,13.5773,-37.1191,-0.00295493,0.00645819,0.0050234,0.0086354,-0.00513214,1.16182,0.00803401,0.0462402,1672,456,13.5772,37.1191
455,568,13.6534,-36.132,0,0,0,0,0,0,0,-1,1679,456,13.6535,36.132
462,568,12.8209,-35.3305,0,0,0,0,0,0,0,-1,1686,456,12.821,35.3305
469,568,12.6125,-34.5442,0,0,0,0,0,0,0,-1,1693,456,12.6125,34.5442
476,568,12.5841,-33.7087,0,0,0,0,0,0,0,-1,1700,456,12.5842,33.7087
483,568,10.9017,-29.747,0,0,0,0,0,0,0,-1,1707,456,10.9018,29.747
490,568,9.21021,-25.4427,0,0,0,0,0,0,0,-1,1714,456,9.21025,25.4427
497,568,9.19275,-22.8114,0,0,0,0,0,0,0,-1,1721,456,9.19273,22.8114
504,568,0,0,0,0,0,0,0,0,0,-1,1728,456,0,0
511,568,0,0,0,0,0,0,0,0,0,-1,1735,456,0,0
518,568,0,0,0,0,0,0,0,0,0,-1,1742,456,0,0
525,568,0,0,0,0,0,0,0,0,0,-1,1749,456,0,0
532,568,0,0,0,0,0,0,0,0,0,-1,1756,456,0,0
539,568,0,0,0,0,0,0,0,0,0,-1,1763,456,0,0
546,568,0,0,0,0,0,0,0,0,0,-1,1770,456,0,0
553,568,0,0,0,0,0,0,0,0,0,-1,1777,456,0,0
560,568,0,0,0,0,0,0,0,0,0,-1,1784,456,0,0
567,568,0,0,0,0,0,0,0,0,0,-1,1791,456,0,0
574,568,0,0,0,0,0,0,0,0,0,-1,1798,456,0,0
581,568,0,0,0,0,0,0,0,0,0,-1,1805,456,0,0
588,568,0,0,0,0,0,0,0,0,0,-1,1812,456,0,0
595,568,0,0,0,0,0,0,0,0,0,-1,1819,456,0,0
602,568,0,0,0,0,0,0,0,0,0,-1,1826,456,0,0
609,568,0,0,0,0,0,0,0,0,0,-1,1833,456,0,0
616,568,0,0,0,0,0,0,0,0,0,-1,1840,456,0,0
623,568,0,0,0,0,0,0,0,0,0,-1,1847,456,0,0
630,568,0,0,0,0,0,0,0,0,0,-1,1854,456,0,0
637,568,0,0,0,0,0,0,0,0,0,-1,1861,456,0,0
644,568,0,0,0,0,0,0,0,0,0,-1,1868,456,0,0
651,568,0,0,0,0,0,0,0,0,0,-1,1875,456,0,0
658,568,0,0,0,0,0,0,0,0,0,-1,1882,456,0,0
665,568,0,0,0,0,0,0,0,0,0,-1,1889,456,0,0
672,568,0,0,0,0,0,0,0,0,0,-1,1896,456,0,0
679,568,0,0,0,0,0,0,0,0,0,-1,1903,456,0,0
686,568,0,0,0,0,0,0,0,0,0,-1,1910,456,0,0
693,568,0,0,0,0,0,0,0,0,0,-1,1917,456,0,0
700,568,0,0,0,0,0,0,0,0,0,-1,1924,456,0,0
707,568,0,0,0,0,0,0,0,0,0,-1,1931,456,0,0
714,568,0,0,0,0,0,0,0,0,0,-1,1938,456,0,0
721,568,0,0,0,0,0,0,0,0,0,-1,1945,456,0,0
728,568,0,0,0,0,0,0,0,0,0,-1,1952,456,0,0
735,568,0,0,0,0,0,0,0,0,0,-1,1959,456,0,0
742,568,0,0,0,0,0,0,0,0,0,-1,1966,456,0,0
749,568,0,0,0,0,0,0,0,0,0,-1,1973,456,0,0
756,568,0,0,0,0,0,0,0,0,0,-1,1980,456,0,0
763,568,0,0,0,0,0,0,0,0,0,-1,1987,456,0,0
770,568,0,0,0,0,0,0,0,0,0,-1,1994,456,0,0
777,568,0,0,0,0,0,0,0,0,0,-1,2001,456,0,0
784,568,0,0,0,0,0,0,0,0,0,-1,2008,456,0,0
791,568,0,0,0,0,0,0,0,0,0,-1,2015,456,0,0
798,568,0,0,0,0,0,0,0,0,0,-1,2022,456,0,0
805,568,0,0,0,0,0,0,0,0,0,-1,2029,456,0,0
812,568,0,0,0,0,0,0,0,0,0,-1,2036,456,0,0
-700,561,0,0,0,0,0,0,0,0,0,-1,524,463,0,0
-693,561,0,0,0,0,0,0,0,0,0,-1,531,463,0,0
-686,561,0,0,0,0,0,0,0,0,0,-1,538,463,0,0
-679,561,0,0,0,0,0,0,0,0,0,-1,545,463,0,0
-672,561,0,0,0,0,0,0,0,0,0,-1,552,463,0,0
-665,561,0,0,0,0,0,0,0,0,0,-1,559,463,0,0
-658,561,0,0,0,0,0,0,0,0,0,-1,566,463,0,0
-651,561,0,0,0,0,0,0,0,0,0,-1,573,463,0,0
-644,561,0,0,0,0,0,0,0,0,0,-1,580,463,0,0
-637,561,0,0,0,0,0,0,0,0,0,-1,587,463,0,0
-630,561,0,0,0,0,0,0,0,0,0,-1,594,463,0,0
-623,561,0,0,0,0,0,0,0,0,0,-1,601,463,0,0
-616,561,0,0,0,0,0,0,0,0,0,-1,608,463,0,0
-609,561,0,0,0,0,0,0,0,0,0,-1,615,463,0,0
-602,561,0,0,0,0,0,0,0,0,0,-1,622,463,0,0
-595,561,0,0,0,0,0,0,0,0,0,-1,629,463,0,0
-588,561,0,0,0,0,0,0,0,0,0,-1,636,463,0,0
-581,561,0,0,0,0,0,0,0,0,0,-1,643,463,0,0
-574,561,0,0,0,0,0,0,0,0,0,-1,650,463,0,0
-567,561,0,0,0,0,0,0,0,0,0,-1,657,463,0,0
-560,561,0,0,0,0,0,0,0,0,0,-1,664,463,0,0
-553,561,0,0,0,0,0,0,0,0,0,-1,671,463,0,0
-546,561,0,0,0,0,0,0,0,0,0,-1,678,463,0,0
-539,561,0,0,0,0,0,0,0,0,0,-1,685,463,0,0
-532,561,0,0,0,0,0,0,0,0,0,-1,692,463,0,0
-525,561,0,0,0,0,0,0,0,0,0,-1,699,463,0,0
-518,561,0,0,0,0,0,0,0,0,0,-1,706,463,0,0
-511,561,0,0,0,0,0,0,0,0,0,-1,713,463,0,0
-504,561,0,0,0,0,0,0,0,0,0,-1,720,463,0,0
-497,561,0,0,0,0,0,0,0,0,0,-1,727,463,0,0
-490,561,0,0,0,0,0,0,0,0,0,-1,734,463,0,0
-483,561,0,0,0,0,0,0,0,0,0,-1,741,463,0,0
-476,561,0,0,0,0,0,0,0,0,0,-1,748,463,0,0
-469,561,0,0,0,0,0,0,0,0,0,-1,755,463,0,0
-462,561,0,0,0,0,0,0,0,0,0,-1,762,463,0,0
-455,561,0,0,0,0,0,0,0,0,0,-1,769,463,0,0
-448,561,0,0,0,0,0,0,0,0,0,-1,776,463,0,0
-441,561,0,0,0,0,0,0,0,0,0,-1,783,463,0,0
-434,561,0,0,0,0,0,0,0,0,0,-1,790,463,0,0
-427,561,0,0,0,0,0,0,0,0,0,-1,797,463,0,0
-420,561,0,0,0,0,0,0,0,0,0,-1,804,463,0,0
-413,561,0,0,0,0,0,0,0,0,0,-1,811,463,0,0
-406,561,0,0,0,0,0,0,0,0,0,-1,818,463,0,0
-399,561,0,0,0,0,0,0,0,0,0,-1,825,463,0,0
-392,561,4.92407,-2.54578,0,0,0,0,0,0,0,-1,832,463,4.92408,2.54576
-385,561,5.55634,-1.02338,0,0,0,0,0,0,0,-1,839,463,5.55634,1.02338
-378,561,0.160522,-4.51785,0,0,0,0,0,0,0,-1,846,463,0.160542,4.51785
-371,561,2.62524,-27.795,0,0,0,0,0,0,0,-1,853,463,2.62525,27.7949
-364,561,6.26416,-29.4995,0,0,0,0,0,0,0,-1,860,463,6.26418,29.4995
-357,561,2.16742,-23.5582,0,0,0,0,0,0,0,-1,867,463,2.1674,23.5582
-350,561,1.33124,-11.9406,0,0,0,0,0,0,0,-1,874,463,1.33127,11.9406
-343,561,1.13214,-14.1837,0,0,0,0,0,0,0,-1,881,463,1.13217,14.1837
-336,561,2.72339,-35.6413,0,0,0,0,0,0,0,-1,888,463,2.7234,35.6413
-329,561,2.50989,-36.7186,0,0,0,0,0,0,0,-1,895,463,2.50988,36.7186
-322,561,2.3512,-37.5399,0,0,0,0,0,0,0,-1,902,463,2.35121,37.5399
-315,561,2.65198,-38.0554,-0.00256453,0.0177233,-0.00829988,0.0206862,-0.00552736,-1.22792,0.0159556,0.0425446,909,463,2.652,38.0554
-308,561,2.4942,-39.1648,-0.00208932,0.0151312,-0.0071436,0.0177088,-0.00466689,-1.22451,0.0136305,0.0315246,916,463,2.4942,39.1648
-301,561,2.39777,-40.302,-0.00140733,0.0125029,-0.00625631,0.0149027,-0.00380716,-1.20452,0.0114178,0.0175097,923,463,2.39778,40.302
-294,561,2.32373,-41.2135,-0.000955921,0.0104399,-0.00533637,0.0125486,-0.00306462,-1.19447,0.00955255,0.011848,930,463,2.32372,41.2135
-287,561,2.23547,-42.1169,-0.000691323,0.00881728,-0.00447859,0.0105945,-0.00246857,-1.19302,0.00801363,0.0100442,937,463,2.23547,42.1169
-280,561,2.16553,-43.0174,-0.000337336,0.00727549,-0.00385339,0.00888548,-0.00194733,-1.17503,0.00666822,0.0130882,944,463,2.1655,43.0174
-273,561,2.08246,-43.8702,-1.61961e-05,0.00528019,-0.00320129,0.00678666,-0.00152266,-1.13096,0.00510821,0.0161191,951,463,2.08243,43.8702
-266,561,2.03339,-44.729,0.000292222,0.00303818,-0.00248782,0.00450674,-0.00117633,-1.03754,0.00346384,0.0105802,958,463,2.03338,44.729
-259,561,1.99774,-45.614,0.000628039,0.000320791,-0.00171429,0.00219557,-0.00124674,-0.740711,0.00201243,0.0110479,965,463,1.99775,45.6139
-252,561,1.96259,-46.4695,0.000869359,-0.00242443,-0.000832808,0.00106795,-0.00262302,-0.234092,0.00219313,0.014896,972,463,1.9626,46.4695
-245,561,1.90198,-47.2957,0.00102592,-0.00531429,0.000132902,0.00102871,-0.00531707,0.0209494,0.00393272,0.0163016,979,463,1.90199,47.2957
-238,561,1.84729,-48.139,0.00131235,-0.00816647,0.0011614,0.00145258,-0.0083067,0.120158,0.00608011,0.0128174,986,463,1.84729,48.139
-231,561,1.78064,-48.9756,0.00165245,-0.0110641,0.00224288,0.00203644,-0.0114481,0.169561,0.00839363,0.0118332,993,463,1.78067,48.9756
-224,561,1.7348,-49.797,0.00191171,-0.0138114,0.00331544,0.00258222,-0.0144819,0.199548,0.0106205,0.0125663,1000,463,1.73479,49.797
-217,561,1.74677,-50.6054,0.00218416,-0.0163849,0.00437768,0.00316445,-0.0173652,0.220296,0.012763,0.0128169,1007,463,1.74679,50.6054
-210,561,1.73682,-51.4162,0.00252645,-0.0187455,0.00535363,0.00379784,-0.0200169,0.233162,0.0147742,0.0132578,1014,463,1.73684,51.4162
-203,561,1.70911,-52.2047,0.00307017,-0.020563,0.00614785,0.00457378,-0.0220667,0.239867,0.016449,0.0140594,1021,463,1.70911,52.2046
-196,561,1.6217,-52.9186,0.00376543,-0.0217225,0.00667521,0.00540781,-0.0233649,0.241251,0.0176574,0.0166047,1028,463,1.62168,52.9186
-189,561,1.68396,-53.6473,0.0045084,-0.0223116,0.00693809,0.00619692,-0.0240001,0.238728,0.0184166,0.0231123,1035,463,1.68398,53.6473
-182,561,1.80151,-54.3491,0.00537914,-0.0222557,0.00721933,0.00715146,-0.0240281,0.240735,0.01886,0.0261145,1042,463,1.80149,54.3491
-175,561,1.76331,-55.0679,0.0064269,-0.0212949,0.00713698,0.00815641,-0.0230244,0.237748,0.018672,0.0432567,1049,463,1.76331,55.0679
-168,561,1.67749,-55.7746,0,0,0,0,0,0,0,-1,1056,463,1.67745,55.7746
-161,561,1.74768,-56.3839,0,0,0,0,0,0,0,-1,1063,463,1.7477,56.3839
-154,561,2.01917,-57.6065,0,0,0,0,0,0,0,-1,1070,463,2.0192,57.6065
-147,561,2.22913,-58.3074,0,0,0,0,0,0,0,-1,1077,463,2.22918,58.3074
-140,561,2.37573,-58.7657,0,0,0,0,0,0,0,-1,1084,463,2.37572,58.7658
-133,561,1.37939,-55.0099,0,0,0,0,0,0,0,-1,1091,463,1.37945,55.01
-126,561,1.77014,-49.4318,0,0,0,0,0,0,0,-1,1098,463,1.7702,49.4318
-119,561,-0.336304,-35.422,0,0,0,0,0,0,0,-1,1105,463,-0.336245,35.422
-112,561,1.24365,-29.1982,0,0,0,0,0,0,0,-1,1112,463,1.2437,29.1981
-105,561,0.530518,-13.5379,0,0,0,0,0,0,0,-1,1119,463,0.530477,13.5379
-98,561,1.5387,-7.54352,0,0,0,0,0,0,0,-1,1126,463,1.53871,7.54351
-91,561,1.29553,-6.57968,0,0,0,0,0,0,0,-1,1133,463,1.29549,6.5797
-84,561,1.23364,-5.84555,0,0,0,0,0,0,0,-1,1140,463,1.23363,5.84556
-77,561,-2.36023,1.00204,0,0,0,0,0,0,0,-1,1147,463,-2.3602,-1.00205
-70,561,-3.90015,-1.41541,0,0,0,0,0,0,0,-1,1154,463,-3.90009,1.4154
-63,561,-6.95691,-4.02756,0,0,0,0,0,0,0,-1,1161,463,-6.95696,4.02756
-56,561,-5.37988,-6.66855,0,0,0,0,0,0,0,-1,1168,463,-5.37988,6.66854
-49,561,-5.7439,-9.11029,0,0,0,0,0,0,0,-1,1175,463,-5.74387,9.1103
-42,561,-1.72644,-5.63065,0,0,0,0,0,0,0,-1,1182,463,-1.72648,5.63064
-35,561,-1.65674,-4.87994,0,0,0,0,0,0,0,-1,1189,463,-1.6567,4.87993
-28,561,-1.91418,-3.86896,0,0,0,0,0,0,0,-1,1196,463,-1.91414,3.86895
-21,561,7.66956,-59.9508,0,0,0,0,0,0,0,-1,1203,463,7.66955,59.9508
-14,561,7.64771,-60.4426,0,0,0,0,0,0,0,-1,1210,463,7.6477,60.4426
-7,561,7.60046,-60.9397,0,0,0,0,0,0,0,-1,1217,463,7.60046,60.9397
0,561,7.52539,-61.2525,0,0,0,0,0,0,0,-1,1224,463,7.52541,61.2525
7,561,7.43286,-61.5667,0.00727067,-0.140094,-0.0522456,0.0239138,-0.156737,-0.308392,0.113307,0.0454028,1231,463,7.43288,61.5667
14,561,7.17566,-61.6056,0.0113443,-0.139931,-0.0478938,0.0252324,-0.153819,-0.282237,0.111909,0.0413727,1238,463,7.17564,61.6056
21,561,7.20544,-62.5118,0,0,0,0,0,0,0,-1,1245,463,7.20549,62.5118
28,561,5.92188,-60.6511,0.0191545,-0.130221,-0.0313012,0.0254484,-0.136515,-0.198429,0.100572,0.0444191,1252,463,5.92187,60.6511
35,561,6.11487,-64.3847,0.0207919,-0.119481,-0.0207861,0.0238072,-0.122496,-0.14406,0.0906479,0.046049,1259,463,6.11491,64.3847
42,561,6.15149,-64.5427,0.0205142,-0.110389,-0.0119737,0.0216004,-0.111475,-0.0904696,0.0824651,0.0483928,1266,463,6.15153,64.5427
49,561,4.95032,-66.0769,0.0213617,-0.0994644,-0.00184479,0.0213899,-0.0994925,-0.0152634,0.0744891,0.0470278,1273,463,4.95029,66.0769
56,561,5.28833,-65.7394,0.0208558,-0.0871808,0.0077282,0.0214058,-0.0877308,0.071051,0.0667761,0.0432865,1280,463,5.28827,65.7394
63,561,5.63037,-65.3878,0.0195544,-0.0781336,0.0141907,0.0215741,-0.0801533,0.141374,0.0618932,0.0472092,1287,463,5.63039,65.3877
70,561,6.02185,-65.2799,0.0173679,-0.0701958,0.0188264,0.021244,-0.0740719,0.203051,0.0577794,0.0489354,1294,463,6.0219,65.2799
77,561,6.23389,-65.1146,0.0132037,-0.0666768,0.0210126,0.0183938,-0.0718669,0.242155,0.0550761,0.0476488,1301,463,6.23394,65.1145
84,561,6.8396,-64.7542,0.00872859,-0.0644796,0.0212587,0.014454,-0.0702051,0.263081,0.0522916,0.0458667,1308,463,6.83964,64.7542
91,561,5.22327,-66.5181,0.00354079,-0.0653973,0.0190881,0.00847315,-0.0703296,0.252868,0.0499509,0.0450227,1315,463,5.22323,66.5181
98,561,5.27515,-66.6297,0,0,0,0,0,0,0,-1,1322,463,5.2752,66.6297
105,561,5.69409,-66.7568,0,0,0,0,0,0,0,-1,1329,463,5.69414,66.7568
112,561,5.87671,-66.5642,-0.0157758,-0.0932623,0.0123447,-0.0138566,-0.0951814,0.15423,0.0593768,0.0492934,1336,463,5.87676,66.5642
119,561,5.89136,-66.6287,-0.0189352,-0.100985,0.0147669,-0.0163585,-0.103562,0.172754,0.0642862,0.0418876,1343,463,5.8914,66.6287
126,561,5.59741,-66.8789,-0.0196948,-0.109452,0.019323,-0.0157117,-0.113435,0.203287,0.070968,0.0423878,1350,463,5.59735,66.8789
133,561,5.28186,-67.124,0,0,0,0,0,0,0,-1,1357,463,5.28189,67.124
140,561,2.38232,-67.8763,0,0,0,0,0,0,0,-1,1364,463,2.38233,67.8763
147,561,-5.55774,-80.7796,0,0,0,0,0,0,0,-1,1371,463,-5.55779,80.7796
154,561,-5.91577,-82.682,0,0,0,0,0,0,0,-1,1378,463,-5.91577,82.682
161,561,-5.58093,-84.7906,0,0,0,0,0,0,0,-1,1385,463,-5.58095,84.7907
168,561,-10.8822,-56.4584,0,0,0,0,0,0,0,-1,1392,463,-10.8822,56.4584
175,561,10.4185,0.276398,0,0,0,0,0,0,0,-1,1399,463,10.4185,-0.276394
182,561,6.45703,-4.02127,0,0,0,0,0,0,0,-1,1406,463,6.45704,4.02127
189,561,6.50854,-2.08685,0,0,0,0,0,0,0,-1,1413,463,6.50851,2.08686
196,561,6.44775,-0.27182,0,0,0,0,0,0,0,-1,1420,463,6.44773,0.271814
203,561,6.18591,1.1301,0,0,0,0,0,0,0,-1,1427,463,6.18592,-1.13009
210,561,5.68713,2.68427,0,0,0,0,0,0,0,-1,1434,463,5.6871,-2.68425
217,561,3.61743,-7.33582,0,0,0,0,0,0,0,-1,1441,463,3.61738,7.33581
224,561,4.27466,-8.59171,0,0,0,0,0,0,0,-1,1448,463,4.27466,8.59171
231,561,4.93188,-9.8476,0,0,0,0,0,0,0,-1,1455,463,4.93193,9.84761
238,561,2.18018,-5.18359,0,0,0,0,0,0,0,-1,1462,463,2.18023,5.18359
245,561,3.07568,-3.50238,0,0,0,0,0,0,0,-1,1469,463,3.0757,3.50238
252,561,3.47412,-3.71109,0,0,0,0,0,0,0,-1,1476,463,3.47413,3.71109
259,561,3.42212,-3.2334,0,0,0,0,0,0,0,-1,1483,463,3.42214,3.2334
266,561,4.44373,-5.90027,0,0,0,0,0,0,0,-1,1490,463,4.44372,5.90026
273,561,15.3215,-58.1346,0,0,0,0,0,0,0,-1,1497,463,15.3216,58.1346
280,561,14.9214,-57.0046,0,0,0,0,0,0,0,-1,1504,463,14.9214,57.0046
287,561,14.8188,-56.0049,0.00766729,-0.0275977,-0.00847974,0.00960035,-0.0295308,-0.224132,0.0235489,0.0495022,1511,463,14.8189,56.0049
294,561,15.0145,-55.3538,0.0068512,-0.0253537,-0.00810771,0.00877717,-0.0272797,-0.233225,0.0217118,0.0410729,1518,463,15.0145,55.3537
301,561,14.7596,-54.6874,0.00603887,-0.0224246,-0.00756572,0.0079249,-0.0243106,-0.244307,0.0193961,0.0367694,1525,463,14.7597,54.6874
308,561,14.9136,-54.1777,0.00502857,-0.0197487,-0.00705238,0.00689526,-0.0216153,-0.258756,0.0171764,0.0300353,1532,463,14.9136,54.1777
315,561,14.9666,-53.5734,0.00416833,-0.0168528,-0.00638364,0.00595503,-0.0186395,-0.272905,0.0148158,0.0181749,1539,463,14.9665,53.5734
322,561,14.9106,-52.8328,0.00348124,-0.0140402,-0.00556749,0.00510066,-0.0156596,-0.28306,0.012492,0.0183778,1546,463,14.9106,52.8328
329,561,14.8917,-52.0009,0.00300948,-0.0112906,-0.00457035,0.00434537,-0.0126265,-0.284374,0.0101801,0.012965,1553,463,14.8917,52.0009
336,561,14.8964,-51.1794,0.00261073,-0.00880971,-0.00376521,0.00374034,-0.00993933,-0.291471,0.00816379,0.0115681,1560,463,14.8963,51.1794
343,561,14.8773,-50.3856,0.00202532,-0.00620164,-0.00295894,0.00297899,-0.00715531,-0.31179,0.00601437,0.0117429,1567,463,14.8773,50.3856
350,561,14.8352,-49.5525,0.00179475,-0.00407892,-0.00201172,0.00241769,-0.00470186,-0.300292,0.0041804,0.0112279,1574,463,14.8352,49.5525
357,561,14.8015,-48.6965,0.00172393,-0.00215473,-0.00118718,0.00205845,-0.00248925,-0.274656,0.00262954,0.0107078,1581,463,14.8015,48.6965
364,561,14.7863,-47.9058,0.00155882,-0.000679199,-0.000296235,0.00159737,-0.000717746,-0.129396,0.00136841,0.00980468,1588,463,14.7863,47.9058
371,561,14.7297,-47.055,0.00146152,0.000623173,0.000504338,0.00169814,0.000386555,0.438677,0.00102777,0.0165495,1595,463,14.7297,47.055
378,561,14.6686,-46.206,0.00135269,0.00210699,0.00123326,0.00301948,0.000440206,0.93379,0.00188348,0.0123085,1602,463,14.6686,46.206
385,561,14.6171,-45.3271,0.00115563,0.0031714,0.00177071,0.00420098,0.000126055,1.04413,0.00275959,0.0113755,1609,463,14.6171,45.3271
392,561,14.5374,-44.4541,0.0010299,0.00395414,0.00223833,0.00516557,-0.000181533,1.07472,0.00350579,0.0157112,1616,463,14.5373,44.4541
399,561,14.5101,-43.6035,0.00109157,0.00468864,0.00279865,0.00621684,-0.000436633,1.07099,0.00429751,0.0212179,1623,463,14.5101,43.6035
406,561,14.493,-42.7408,0.000948488,0.00530385,0.00328129,0.00706433,-0.000811999,1.07836,0.00500224,0.0193561,1630,463,14.493,42.7408
413,561,14.4534,-41.8383,0.000572775,0.00565275,0.00355054,0.00747829,-0.00125277,1.09588,0.00545132,0.0179833,1637,463,14.4534,41.8383
420,561,14.3728,-40.9312,8.84727e-05,0.00573082,0.00371506,0.00757448,-0.00175519,1.11014,0.00572512,0.0148242,1644,463,14.3728,40.9312
427,561,14.3151,-40.0016,-0.000388002,0.00561355,0.00389967,0.00753335,-0.0023078,1.11333,0.00594279,0.0112288,1651,463,14.3151,40.0016
434,561,14.257,-39.0588,-0.000780175,0.00552787,0.00412541,0.00756681,-0.00281911,1.11177,0.00620164,0.0133972,1658,463,14.257,39.0588
441,561,14.2177,-38.1512,-0.00145274,0.00526224,0.00425888,0.00732792,-0.00351842,1.1192,0.00638959,0.0165593,1665,463,14.2176,38.1512
448,561,14.1842,-37.1971,-0.00233412,0.00486696,0.00425192,0.00683802,-0.00430518,1.13672,0.00648869,0.0229692,1672,463,14.1842,37.1971
455,561,14.2472,-36.1688,-0.00353347,0.00390089,0.00430311,0.00587003,-0.0055026,1.14163,0.00656713,0.0439379,1679,463,14.2472,36.1688
462,561,13.8207,-35.4003,-0.00483471,0.0035949,0.00437797,0.00545721,-0.00669701,1.1686,0.0070294,0.0418307,1686,463,13.8207,35.4003
469,561,13.639,-34.5747,-0.00628865,0.00315292,0.00432373,0.00483373,-0.00796946,1.20003,0.00746546,0.0258939,1693,463,13.639,34.5747
476,561,13.4749,-33.6454,-0.00788221,0.00245301,0.00408975,0.00387556,-0.00930476,1.23605,0.0078219,0.0446178,1700,463,13.4749,33.6454
483,561,13.2823,-32.6829,0,0,0,0,0,0,0,-1,1707,463,13.2823,32.6829
490,561,10.2549,-20.4551,0,0,0,0,0,0,0,-1,1714,463,10.2548,20.4551
497,561,11.7618,-20.3894,0,0,0,0,0,0,0,-1,1721,463,11.7618,20.3894
504,561,12.9351,-20.1285,0,0,0,0,0,0,0,-1,1728,463,12.935,20.1285
511,561,0,0,0,0,0,0,0,0,0,-1,1735,463,0,0
518,561,0,0,0,0,0,0,0,0,0,-1,1742,463,0,0
525,561,0,0,0,0,0,0,0,0,0,-1,1749,463,0,0
532,561,0,0,0,0,0,0,0,0,0,-1,1756,463,0,0
539,561,0,0,0,0,0,0,0,0,0,-1,1763,463,0,0
546,561,0,0,0,0,0,0,0,0,0,-1,1770,463,0,0
553,561,0,0,0,0,0,0,0,0,0,-1,1777,463,0,0
560,561,0,0,0,0,0,0,0,0,0,-1,1784,463,0,0
567,561,0,0,0,0,0,0,0,0,0,-1,1791,463,0,0
574,561,0,0,0,0,0,0,0,0,0,-1,1798,463,0,0
581,561,0,0,0,0,0,0,0,0,0,-1,1805,463,0,0
588,561,0,0,0,0,0,0,0,0,0,-1,1812,463,0,0
595,561,0,0,0,0,0,0,0,0,0,-1,1819,463,0,0
602,561,0,0,0,0,0,0,0,0,0,-1,1826,463,0,0
609,561,0,0,0,0,0,0,0,0,0,-1,1833,463,0,0
616,561,0,0,0,0,0,0,0,0,0,-1,1840,463,0,0
623,561,0,0,0,0,0,0,0,0,0,-1,1847,463,0,0
630,561,0,0,0,0,0,0,0,0,0,-1,1854,463,0,0
637,561,0,0,0,0,0,0,0,0,0,-1,1861,463,0,0
644,561,0,0,0,0,0,0,0,0,0,-1,1868,463,0,0
651,561,0,0,0,0,0,0,0,0,0,-1,1875,463,0,0
658,561,0,0,0,0,0,0,0,0,0,-1,1882,463,0,0
665,561,0,0,0,0,0,0,0,0,0,-1,1889,463,0,0
672,561,0,0,0,0,0,0,0,0,0,-1,1896,463,0,0
679,561,0,0,0,0,0,0,0,0,0,-1,1903,463,0,0
686,561,0,0,0,0,0,0,0,0,0,-1,1910,463,0,0
693,561,0,0,0,0,0,0,0,0,0,-1,1917,463,0,0
700,561,0,0,0,0,0,0,0,0,0,-1,1924,463,0,0
707,561,0,0,0,0,0,0,0,0,0,-1,1931,463,0,0
714,561,0,0,0,0,0,0,0,0,0,-1,1938,463,0,0
721,561,0,0,0,0,0,0,0,0,0,-1,1945,463,0,0
728,561,0,0,0,0,0,0,0,0,0,-1,1952,463,0,0
735,561,0,0,0,0,0,0,0,0,0,-1,1959,463,0,0
742,561,0,0,0,0,0,0,0,0,0,-1,1966,463,0,0
749,561,0,0,0,0,0,0,0,0,0,-1,1973,463,0,0
756,561,0,0,0,0,0,0,0,0,0,-1,1980,463,0,0
763,561,0,0,0,0,0,0,0,0,0,-1,1987,463,0,0
770,561,0,0,0,0,0,0,0,0,0,-1,1994,463,0,0
777,561,0,0,0,0,0,0,0,0,0,-1,2001,463,0,0
784,561,0,0,0,0,0,0,0,0,0,-1,2008,463,0,0
791,561,0,0,0,0,0,0,0,0,0,-1,2015,463,0,0
798,561,0,0,0,0,0,0,0,0,0,-1,2022,463,0,0
805,561,0,0,0,0,0,0,0,0,0,-1,2029,463,0,0
812,561,0,0,0,0,0,0,0,0,0,-1,2036,463,0,0
-700,554,0,0,0,0,0,0,0,0,0,-1,524,470,0,0
-693,554,0,0,0,0,0,0,0,0,0,-1,531,470,0,0
-686,554,0,0,0,0,0,0,0,0,0,-1,538,470,0,0
-679,554,0,0,0,0,0,0,0,0,0,-1,545,470,0,0
-672,554,0,0,0,0,0,0,0,0,0,-1,552,470,0,0
-665,554,0,0,0,0,0,0,0,0,0,-1,559,470,0,0
-658,554,0,0,0,0,0,0,0,0,0,-1,566,470,0,0
-651,554,0,0,0,0,0,0,0,0,0,-1,573,470,0,0
-644,554,0,0,0,0,0,0,0,0,0,-1,580,470,0,0
-637,554,0,0,0,0,0,0,0,0,0,-1,587,470,0,0
-630,554,0,0,0,0,0,0,0,0,0,-1,594,470,0,0
-623,554,0,0,0,0,0,0,0,0,0,-1,601,470,0,0
-616,554,0,0,0,0,0,0,0,0,0,-1,608,470,0,0
-609,554,0,0,0,0,0,0,0,0,0,-1,615,470,0,0
-602,554,0,0,0,0,0,0,0,0,0,-1,622,470,0,0
-595,554,0,0,0,0,0,0,0,0,0,-1,629,470,0,0
-588,554,0,0,0,0,0,0,0,0,0,-1,636,470,0,0
-581,554,0,0,0,0,0,0,0,0,0,-1,643,470,0,0
-574,554,0,0,0,0,0,0,0,0,0,-1,650,470,0,0
-567,554,0,0,0,0,0,0,0,0,0,-1,657,470,0,0
-560,554,0,0,0,0,0,0,0,0,0,-1,664,470,0,0
-553,554,0,0,0,0,0,0,0,0,0,-1,671,470,0,0
-546,554,0,0,0,0,0,0,0,0,0,-1,678,470,0,0
-539,554,0,0,0,0,0,0,0,0,0,-1,685,470,0,0
-532,554,0,0,0,0,0,0,0,0,0,-1,692,470,0,0
-525,554,0,0,0,0,0,0,0,0,0,-1,699,470,0,0
-518,554,0,0,0,0,0,0,0,0,0,-1,706,470,0,0
-511,554,0,0,0,0,0,0,0,0,0,-1,713,470,0,0
-504,554,0,0,0,0,0,0,0,0,0,-1,720,470,0,0
-497,554,0,0,0,0,0,0,0,0,0,-1,727,470,0,0
-490,554,0,0,0,0,0,0,0,0,0,-1,734,470,0,0
-483,554,0,0,0,0,0,0,0,0,0,-1,741,470,0,0
-476,554,0,0,0,0,0,0,0,0,0,-1,748,470,0,0
-469,554,0,0,0,0,0,0,0,0,0,-1,755,470,0,0
-462,554,0,0,0,0,0,0,0,0,0,-1,762,470,0,0
-455,554,0,0,0,0,0,0,0,0,0,-1,769,470,0,0
-448,554,0,0,0,0,0,0,0,0,0,-1,776,470,0,0
-441,554,0,0,0,0,0,0,0,0,0,-1,783,470,0,0
-434,554,0,0,0,0,0,0,0,0,0,-1,790,470,0,0
-427,554,0,0,0,0,0,0,0,0,0,-1,797,470,0,0
-420,554,0,0,0,0,0,0,0,0,0,-1,804,470,0,0
-413,554,0,0,0,0,0,0,0,0,0,-1,811,470,0,0
-406,554,0,0,0,0,0,0,0,0,0,-1,818,470,0,0
-399,554,-1.32275,-3.95142,0,0,0,0,0,0,0,-1,825,470,-1.32275,3.95141
-392,554,-1.35632,-3.7406,0,0,0,0,0,0,0,-1,832,470,-1.35632,3.7406
-385,554,1.54614,-28.7236,0,0,0,0,0,0,0,-1,839,470,1.54616,28.7236
-378,554,1.92175,-29.1808,0,0,0,0,0,0,0,-1,846,470,1.92174,29.1808
-371,554,4.08411,-29.4813,0,0,0,0,0,0,0,-1,853,470,4.0841,29.4813
-364,554,4.03827,-29.6859,0,0,0,0,0,0,0,-1,860,470,4.03828,29.6859
-357,554,2.73724,-31.7419,0,0,0,0,0,0,0,-1,867,470,2.73721,31.7419
-350,554,1.17157,-18.1341,0,0,0,0,0,0,0,-1,874,470,1.17156,18.1341
-343,554,2.00128,-34.8519,0,0,0,0,0,0,0,-1,881,470,2.00127,34.8519
-336,554,1.86639,-35.6317,-0.00260218,0.0231837,-0.0117293,0.0277208,-0.00713925,-1.20171,0.0212636,0.0449995,888,470,1.8664,35.6317
-329,554,1.71143,-36.5909,-0.00235802,0.0195656,-0.00973745,0.0232659,-0.00605839,-1.20764,0.0178756,0.0249537,895,470,1.71142,36.5909
-322,554,1.60938,-37.5191,-0.00221895,0.0163928,-0.00796959,0.019339,-0.00516516,-1.2167,0.0149155,0.0191795,902,470,1.60935,37.5191
-315,554,1.59308,-38.4178,-0.0020202,0.0137031,-0.00649012,0.0160359,-0.00435302,-1.22573,0.012399,0.0174134,909,470,1.59307,38.4178
-308,554,1.53741,-39.3364,-0.0016369,0.0115125,-0.00541495,0.0134553,-0.00357974,-1.22631,0.0103715,0.0152977,916,470,1.53739,39.3364
-301,554,1.48639,-40.2693,-0.00105928,0.0092313,-0.00458934,0.0109807,-0.00280863,-1.20662,0.00841437,0.0147856,923,470,1.4864,40.2693
-294,554,1.42371,-41.1668,-0.000651215,0.00745444,-0.00373578,0.00891355,-0.00211032,-1.19844,0.00675657,0.0127148,930,470,1.4237,41.1668
-287,554,1.33594,-42.0704,-0.000369664,0.00577507,-0.00294864,0.0069611,-0.00155569,-1.18837,0.00523689,0.012494,937,470,1.33592,42.0704
-280,554,1.2677,-42.9665,-4.34495e-05,0.00390122,-0.00233009,0.00498165,-0.00112389,-1.13662,0.00375226,0.0118424,944,470,1.26773,42.9665
-273,554,1.19617,-43.8486,0.000275938,0.0016044,-0.0016632,0.0027311,-0.000850762,-0.97538,0.00216089,0.0160429,951,470,1.19615,43.8486
-266,554,1.15198,-44.7191,0.00062002,-0.000918637,-0.00095349,0.00107585,-0.00137447,-0.445945,0.00141819,0.0134908,958,470,1.15201,44.7191
-259,554,1.1217,-45.5213,0.000982678,-0.00401194,-0.000140258,0.000986613,-0.00401588,-0.0280523,0.00305962,0.0134221,965,470,1.1217,45.5213
-252,554,1.07709,-46.3738,0.00121964,-0.00726362,0.000794015,0.00129331,-0.0073373,0.0925271,0.00537476,0.0146917,972,470,1.0771,46.3738
-245,554,1.02618,-47.2289,0.00133393,-0.0107851,0.00185395,0.0016112,-0.0110624,0.148456,0.00796649,0.0152867,979,470,1.02619,47.2289
-238,554,1.00653,-48.0941,0.00163991,-0.0142011,0.00295617,0.0021736,-0.0147348,0.178609,0.0106221,0.0116069,986,470,1.00653,48.0941
-231,554,0.965759,-48.9421,0.00203145,-0.0176491,0.00410965,0.00285514,-0.0184728,0.197808,0.0133689,0.0111987,993,470,0.965732,48.9422
-224,554,0.93335,-49.7432,0.0022894,-0.0209047,0.00529768,0.00344213,-0.0220575,0.214252,0.0159764,0.0116179,1000,470,0.933353,49.7433
-217,554,0.927795,-50.536,0.00254986,-0.0239128,0.00650026,0.00406036,-0.0254233,0.228323,0.0184518,0.0115802,1007,470,0.927774,50.536
-210,554,0.928894,-51.3165,0.00288483,-0.0266461,0.00762202,0.00473605,-0.0284973,0.238264,0.0207578,0.0155209,1014,470,0.92887,51.3165
-203,554,0.888123,-52.0258,0.00344216,-0.0287519,0.00853645,0.0055656,-0.0308753,0.243801,0.0226677,0.0237412,1021,470,0.888105,52.0258
-196,554,0.837402,-52.7261,0.00419968,-0.0300251,0.00912092,0.00647866,-0.0323041,0.24485,0.023989,0.0317286,1028,470,0.837349,52.7261
-189,554,0.909058,-53.4401,0.00500375,-0.0306109,0.00938923,0.00732746,-0.0329346,0.242611,0.024763,0.0378184,1035,470,0.909018,53.4401
-182,554,1.07532,-54.025,0.00593218,-0.0301357,0.00969658,0.00837375,-0.0325773,0.246669,0.0249817,0.0449147,1042,470,1.07537,54.025
-175,554,1.06494,-54.811,0,0,0,0,0,0,0,-1,1049,470,1.0649,54.811
-168,554,1.8866,-48.7592,0,0,0,0,0,0,0,-1,1056,470,1.88665,48.7591
-161,554,1.09583,-42.015,0,0,0,0,0,0,0,-1,1063,470,1.09577,42.015
-154,554,1.03186,-42.7216,0,0,0,0,0,0,0,-1,1070,470,1.03187,42.7216
-147,554,1.4552,-41.5187,0,0,0,0,0,0,0,-1,1077,470,1.45525,41.5187
-140,554,0.428101,-38.9893,0,0,0,0,0,0,0,-1,1084,470,0.428152,38.9893
-133,554,2.67163,-32.8187,0,0,0,0,0,0,0,-1,1091,470,2.67161,32.8187
-126,554,0.851929,-33.5393,0,0,0,0,0,0,0,-1,1098,470,0.851942,33.5393
-119,554,-1.03479,-32.1628,0,0,0,0,0,0,0,-1,1105,470,-1.03476,32.1628
-112,554,1.03162,-24.5784,0,0,0,0,0,0,0,-1,1112,470,1.03156,24.5784
-105,554,0.608765,-21.0475,0,0,0,0,0,0,0,-1,1119,470,0.608728,21.0475
-98,554,1.51929,-7.3624,0,0,0,0,0,0,0,-1,1126,470,1.51928,7.36241
-91,554,1.41089,-6.5864,0,0,0,0,0,0,0,-1,1133,470,1.41093,6.58638
-84,554,1.62305,-5.87186,0,0,0,0,0,0,0,-1,1140,470,1.62299,5.87186
-77,554,-2.56958,1.33258,0,0,0,0,0,0,0,-1,1147,470,-2.56959,-1.33257
-70,554,-3.68164,-1.18332,0,0,0,0,0,0,0,-1,1154,470,-3.68158,1.18331
-63,554,-4.86853,-3.88708,0,0,0,0,0,0,0,-1,1161,470,-4.86853,3.88708
-56,554,-5.69958,-6.45422,0,0,0,0,0,0,0,-1,1168,470,-5.69955,6.45422
-49,554,-6.23645,-8.8569,0,0,0,0,0,0,0,-1,1175,470,-6.23643,8.85689
-42,554,-6.62524,-11.5382,0,0,0,0,0,0,0,-1,1182,470,-6.62522,11.5382
-35,554,-2.40173,-4.59482,0,0,0,0,0,0,0,-1,1189,470,-2.40169,4.59481
-28,554,-0.760132,-1.65555,0,0,0,0,0,0,0,-1,1196,470,-0.760095,1.65556
-21,554,6.35388,-60.5687,0,0,0,0,0,0,0,-1,1203,470,6.35392,60.5687
-14,554,7.99243,-59.7639,0,0,0,0,0,0,0,-1,1210,470,7.99238,59.7639
-7,554,8.00696,-60.3027,0,0,0,0,0,0,0,-1,1217,470,8.00699,60.3027
0,554,8.1239,-59.8695,0,0,0,0,0,0,0,-1,1224,470,8.12387,59.8695
7,554,7.41406,-60.5318,0.00835815,-0.161614,-0.0607751,0.0278529,-0.181108,-0.310401,0.131014,0.048926,1231,470,7.41405,60.5318
14,554,7.52783,-60.4324,0.0142671,-0.160867,-0.0565737,0.0309525,-0.177553,-0.286801,0.129921,0.0459686,1238,470,7.52789,60.4324
21,554,7.37573,-59.9154,0,0,0,0,0,0,0,-1,1245,470,7.37578,59.9154
28,554,6.98596,-59.4011,0.0236248,-0.145432,-0.0371015,0.0314088,-0.153216,-0.206802,0.114064,0.0419937,1252,470,6.98595,59.4011
35,554,6.65674,-58.7261,0.0252012,-0.13021,-0.0241429,0.0288654,-0.133874,-0.15062,0.100266,0.041177,1259,470,6.65677,58.7261
42,554,6.12036,-63.832,0.0233491,-0.118186,-0.0136532,0.0246541,-0.119491,-0.0952942,0.0890239,0.047616,1266,470,6.12037,63.832
49,554,4.36853,-65.689,0,0,0,0,0,0,0,-1,1273,470,4.3685,65.689
56,554,4.73901,-65.178,0.0193618,-0.0876456,0.0113881,0.0205604,-0.0888441,0.104858,0.0671406,0.0430454,1280,470,4.73902,65.178
63,554,4.6803,-64.9025,0.0157015,-0.0761786,0.0199607,0.0198505,-0.0803277,0.204943,0.0612504,0.0409237,1287,470,4.68031,64.9025
70,554,4.57373,-64.9632,0.0106602,-0.0661812,0.0265964,0.0189677,-0.0744886,0.30275,0.0570427,0.0451115,1294,470,4.57368,64.9632
77,554,5.05151,-65.0561,0.00321173,-0.061645,0.0304552,0.0152707,-0.0737039,0.377016,0.0549382,0.0465934,1301,470,5.05155,65.0561
84,554,5.34692,-65.1457,-0.00433086,-0.0586139,0.0322997,0.0107169,-0.0736617,0.43598,0.0530422,0.0456836,1308,470,5.34688,65.1457
91,554,5.40186,-65.2938,-0.012508,-0.0589725,0.0306948,0.00275536,-0.0742358,0.461454,0.0504341,0.0419292,1315,470,5.40189,65.2938
98,554,5.47717,-65.4189,0,0,0,0,0,0,0,-1,1322,470,5.47715,65.4189
105,554,5.56519,-65.471,0,0,0,0,0,0,0,-1,1329,470,5.56513,65.471
112,554,5.71753,-65.4612,0,0,0,0,0,0,0,-1,1336,470,5.71758,65.4613
119,554,5.84497,-65.4854,0,0,0,0,0,0,0,-1,1343,470,5.84493,65.4854
126,554,4.66077,-65.5624,0,0,0,0,0,0,0,-1,1350,470,4.66072,65.5624
133,554,4.36267,-65.7002,0,0,0,0,0,0,0,-1,1357,470,4.36265,65.7002
140,554,3.41248,-66.7667,0,0,0,0,0,0,0,-1,1364,470,3.41252,66.7667
147,554,3.63062,-67.2021,0,0,0,0,0,0,0,-1,1371,470,3.63066,67.2021
154,554,-5.78955,-83.1592,0,0,0,0,0,0,0,-1,1378,470,-5.7895,83.1592
161,554,-5.23901,-84.4846,0,0,0,0,0,0,0,-1,1385,470,-5.23901,84.4846
168,554,-4.64307,-85.7873,0,0,0,0,0,0,0,-1,1392,470,-4.64312,85.7873
175,554,10.663,0.286957,0,0,0,0,0,0,0,-1,1399,470,10.663,-0.286966
182,554,6.71106,-4.50217,0,0,0,0,0,0,0,-1,1406,470,6.71107,4.50215
189,554,6.90479,-2.50348,0,0,0,0,0,0,0,-1,1413,470,6.90477,2.50348
196,554,6.96216,-0.740906,0,0,0,0,0,0,0,-1,1420,470,6.96214,0.740912
203,554,6.43518,0.414154,0,0,0,0,0,0,0,-1,1427,470,6.43523,-0.414141
210,554,6.21167,1.96707,0,0,0,0,0,0,0,-1,1434,470,6.21165,-1.96706
217,554,5.64551,3.4989,0,0,0,0,0,0,0,-1,1441,470,5.64555,-3.49891
224,554,4.85144,-8.85172,0,0,0,0,0,0,0,-1,1448,470,4.85146,8.85173
231,554,3.25073,-5.29642,0,0,0,0,0,0,0,-1,1455,470,3.25078,5.29642
238,554,4.28625,-3.25253,0,0,0,0,0,0,0,-1,1462,470,4.28622,3.25252
245,554,4.0752,-2.90033,0,0,0,0,0,0,0,-1,1469,470,4.07515,2.90032
252,554,3.52112,-0.934998,0,0,0,0,0,0,0,-1,1476,470,3.52113,0.934996
259,554,3.96448,-2.16425,0,0,0,0,0,0,0,-1,1483,470,3.96446,2.16424
266,554,3.0592,-2.71716,0,0,0,0,0,0,0,-1,1490,470,3.05923,2.71718
273,554,2.58521,-3.06876,0,0,0,0,0,0,0,-1,1497,470,2.58524,3.06874
280,554,15.7932,-56.9097,0,0,0,0,0,0,0,-1,1504,470,15.7932,56.9097
287,554,15.5852,-55.5956,0,0,0,0,0,0,0,-1,1511,470,15.5852,55.5956
294,554,15.9456,-54.8018,0,0,0,0,0,0,0,-1,1518,470,15.9455,54.8018
301,554,15.2261,-54.0792,0,0,0,0,0,0,0,-1,1525,470,15.2261,54.0792
308,554,15.7362,-54.0336,0,0,0,0,0,0,0,-1,1532,470,15.7361,54.0336
315,554,15.8118,-53.496,0,0,0,0,0,0,0,-1,1539,470,15.8118,53.496
322,554,15.7904,-52.3119,0.0038086,-0.0184921,-0.00752354,0.00610942,-0.0207929,-0.296784,0.016285,0.0467914,1546,470,15.7905,52.3119
329,554,15.728,-51.756,0.00340979,-0.0148424,-0.00625111,0.00534543,-0.016778,-0.300284,0.0133294,0.0316166,1553,470,15.7281,51.756
336,554,15.7024,-51.1181,0.0030357,-0.0117508,-0.00532772,0.00475534,-0.0134704,-0.312216,0.0109163,0.0196689,1560,470,15.7024,51.1181
343,554,15.66,-50.3488,0.00240963,-0.00860751,-0.004446,0.00397999,-0.0101779,-0.339529,0.00843109,0.0141667,1567,470,15.66,50.3488
350,554,15.6519,-49.4926,0.00221644,-0.00629601,-0.00338801,0.00340026,-0.00747982,-0.336152,0.00642712,0.0111877,1574,470,15.6518,49.4926
357,554,15.6476,-48.6571,0.00219623,-0.00419327,-0.00249772,0.00305673,-0.00505376,-0.331778,0.00472967,0.0120758,1581,470,15.6476,48.6571
364,554,15.6122,-47.857,0.00202958,-0.00266849,-0.0015512,0.00249554,-0.00313445,-0.29181,0.00325744,0.00969733,1588,470,15.6122,47.857
371,554,15.5649,-47.0183,0.00194566,-0.00135856,-0.00071853,0.00209515,-0.00150804,-0.20512,0.00208949,0.00959772,1595,470,15.5649,47.0183
378,554,15.5129,-46.1436,0.00185328,0.000256276,8.79933e-05,0.00185811,0.000251442,0.0548776,0.00116402,0.0109981,1602,470,15.5129,46.1436
385,554,15.474,-45.2658,0.00165845,0.00137738,0.000725465,0.00225687,0.000778965,0.689725,0.00132367,0.0104244,1609,470,15.474,45.2658
392,554,15.4377,-44.3852,0.00147962,0.002201,0.00123794,0.00312973,0.000550902,0.927156,0.00192925,0.0142559,1616,470,15.4378,44.3852
399,554,15.3831,-43.5021,0.00141921,0.00294247,0.00176249,0.00410086,0.000260827,0.989346,0.00265124,0.0184324,1623,470,15.3831,43.5021
406,554,15.3458,-42.6502,0.00123588,0.00356931,0.00224864,0.00493589,-0.000130701,1.02471,0.00333502,0.0169694,1630,470,15.3458,42.6502
413,554,15.318,-41.7586,0.000905412,0.00406715,0.00259107,0.00552153,-0.000548975,1.05931,0.00387699,0.0160505,1637,470,15.318,41.7586
420,554,15.2708,-40.8717,0.000457202,0.00426203,0.00280377,0.00574788,-0.00102865,1.08348,0.00421683,0.0179323,1644,470,15.2708,40.8717
427,554,15.2185,-39.9609,-9.78914e-06,0.00423356,0.0029989,0.00578543,-0.00156166,1.09326,0.00446939,0.0131516,1651,470,15.2185,39.9609
434,554,15.1342,-39.0717,-0.000396355,0.00419979,0.003224,0.00586092,-0.00205749,1.09503,0.00474423,0.0111312,1658,470,15.1341,39.0717
441,554,15.069,-38.1584,-0.000972507,0.00407706,0.00342158,0.00580454,-0.00269999,1.10325,0.00501796,0.0121881,1665,470,15.0689,38.1584
448,554,14.9963,-37.1996,-0.00169767,0.00379718,0.00350343,0.00550199,-0.00340247,1.11792,0.00518841,0.0162582,1672,470,14.9963,37.1996
455,554,14.9222,-36.279,-0.00261926,0.00321948,0.00361034,0.00494309,-0.00434288,1.12538,0.00536499,0.0185768,1679,470,14.9223,36.279
462,554,14.8035,-35.3877,-0.00352551,0.00302398,0.00371843,0.0047041,-0.00520563,1.14642,0.00572383,0.0207184,1686,470,14.8035,35.3877
469,554,14.5912,-34.4961,-0.00446695,0.00273763,0.00374353,0.00433058,-0.0060599,1.16848,0.00602658,0.0252304,1693,470,14.5912,34.4961
476,554,14.3843,-33.5294,-0.00540588,0.00232841,0.00367543,0.0037964,-0.00687386,1.1908,0.0062453,0.0449954,1700,470,14.3842,33.5294
483,554,14.1914,-32.5379,0,0,0,0,0,0,0,-1,1707,470,14.1914,32.5379
490,554,12.5504,-17.9805,0,0,0,0,0,0,0,-1,1714,470,12.5505,17.9805
497,554,14.3204,-17.9055,0,0,0,0,0,0,0,-1,1721,470,14.3204,17.9055
504,554,2.13257,-3.81628,0,0,0,0,0,0,0,-1,1728,470,2.1326,3.8163
511,554,1.31396,-4.02713,0,0,0,0,0,0,0,-1,1735,470,1.31398,4.02712
518,554,5.04236,-5.9472,0,0,0,0,0,0,0,-1,1742,470,5.04231,5.94721
525,554,0,0,0,0,0,0,0,0,0,-1,1749,470,0,0
532,554,0,0,0,0,0,0,0,0,0,-1,1756,470,0,0
539,554,0,0,0,0,0,0,0,0,0,-1,1763,470,0,0
546,554,0,0,0,0,0,0,0,0,0,-1,1770,470,0,0
553,554,0,0,0,0,0,0,0,0,0,-1,1777,470,0,0
560,554,0,0,0,0,0,0,0,0,0,-1,1784,470,0,0
567,554,0,0,0,0,0,0,0,0,0,-1,1791,470,0,0
574,554,0,0,0,0,0,0,0,0,0,-1,1798,470,0,0
581,554,0,0,0,0,0,0,0,0,0,-1,1805,470,0,0
588,554,0,0,0,0,0,0,0,0,0,-1,1812,470,0,0
595,554,0,0,0,0,0,0,0,0,0,-1,1819,470,0,0
602,554,0,0,0,0,0,0,0,0,0,-1,1826,470,0,0
609,554,0,0,0,0,0,0,0,0,0,-1,1833,470,0,0
616,554,0,0,0,0,0,0,0,0,0,-1,1840,470,0,0
623,554,0,0,0,0,0,0,0,0,0,-1,1847,470,0,0
630,554,0,0,0,0,0,0,0,0,0,-1,1854,470,0,0
637,554,0,0,0,0,0,0,0,0,0,-1,1861,470,0,0
644,554,0,0,0,0,0,0,0,0,0,-1,1868,470,0,0
651,554,0,0,0,0,0,0,0,0,0,-1,1875,470,0,0
658,554,0,0,0,0,0,0,0,0,0,-1,1882,470,0,0
665,554,0,0,0,0,0,0,0,0,0,-1,1889,470,0,0
672,554,0,0,0,0,0,0,0,0,0,-1,1896,470,0,0
679,554,0,0,0,0,0,0,0,0,0,-1,1903,470,0,0
686,554,0,0,0,0,0,0,0,0,0,-1,1910,470,0,0
693,554,0,0,0,0,0,0,0,0,0,-1,1917,470,0,0
700,554,0,0,0,0,0,0,0,0,0,-1,1924,470,0,0
707,554,0,0,0,0,0,0,0,0,0,-1,1931,470,0,0
714,554,0,0,0,0,0,0,0,0,0,-1,1938,470,0,0
721,554,0,0,0,0,0,0,0,0,0,-1,1945,470,0,0
728,554,0,0,0,0,0,0,0,0,0,-1,1952,470,0,0
735,554,0,0,0,0,0,0,0,0,0,-1,1959,470,0,0
742,554,0,0,0,0,0,0,0,0,0,-1,1966,470,0,0
749,554,0,0,0,0,0,0,0,0,0,-1,1973,470,0,0
756,554,0,0,0,0,0,0,0,0,0,-1,1980,470,0,0
763,554,0,0,0,0,0,0,0,0,0,-1,1987,470,0,0
770,554,0,0,0,0,0,0,0,0,0,-1,1994,470,0,0
777,554,0,0,0,0,0,0,0,0,0,-1,2001,470,0,0
784,554,0,0,0,0,0,0,0,0,0,-1,2008,470,0,0
791,554,0,0,0,0,0,0,0,0,0,-1,2015,470,0,0
798,554,0,0,0,0,0,0,0,0,0,-1,2022,470,0,0
805,554,0,0,0,0,0,0,0,0,0,-1,2029,470,0,0
812,554,0,0,0,0,0,0,0,0,0,-1,2036,470,0,0
-700,547,0,0,0,0,0,0,0,0,0,-1,524,477,0,0
-693,547,0,0,0,0,0,0,0,0,0,-1,531,477,0,0
-686,547,0,0,0,0,0,0,0,0,0,-1,538,477,0,0
-679,547,0,0,0,0,0,0,0,0,0,-1,545,477,0,0
-672,547,0,0,0,0,0,0,0,0,0,-1,552,477,0,0
-665,547,0,0,0,0,0,0,0,0,0,-1,559,477,0,0
-658,547,0,0,0,0,0,0,0,0,0,-1,566,477,0,0
-651,547,0,0,0,0,0,0,0,0,0,-1,573,477,0,0
-644,547,0,0,0,0,0,0,0,0,0,-1,580,477,0,0
-637,547,0,0,0,0,0,0,0,0,0,-1,587,477,0,0
-630,547,0,0,0,0,0,0,0,0,0,-1,594,477,0,0
-623,547,0,0,0,0,0,0,0,0,0,-1,601,477,0,0
-616,547,0,0,0,0,0,0,0,0,0,-1,608,477,0,0
-609,547,0,0,0,0,0,0,0,0,0,-1,615,477,0,0
-602,547,0,0,0,0,0,0,0,0,0,-1,622,477,0,0
-595,547,0,0,0,0,0,0,0,0,0,-1,629,477,0,0
-588,547,0,0,0,0,0,0,0,0,0,-1,636,477,0,0
-581,547,0,0,0,0,0,0,0,0,0,-1,643,477,0,0
-574,547,0,0,0,0,0,0,0,0,0,-1,650,477,0,0
-567,547,0,0,0,0,0,0,0,0,0,-1,657,477,0,0
-560,547,0,0,0,0,0,0,0,0,0,-1,664,477,0,0
-553,547,0,0,0,0,0,0,0,0,0,-1,671,477,0,0
-546,547,0,0,0,0,0,0,0,0,0,-1,678,477,0,0
-539,547,0,0,0,0,0,0,0,0,0,-1,685,477,0,0
-532,547,0,0,0,0,0,0,0,0,0,-1,692,477,0,0
-525,547,0,0,0,0,0,0,0,0,0,-1,699,477,0,0
-518,547,0,0,0,0,0,0,0,0,0,-1,706,477,0,0
-511,547,0,0,0,0,0,0,0,0,0,-1,713,477,0,0
-504,547,0,0,0,0,0,0,0,0,0,-1,720,477,0,0
-497,547,0,0,0,0,0,0,0,0,0,-1,727,477,0,0
-490,547,0,0,0,0,0,0,0,0,0,-1,734,477,0,0
-483,547,0,0,0,0,0,0,0,0,0,-1,741,477,0,0
-476,547,0,0,0,0,0,0,0,0,0,-1,748,477,0,0
-469,547,0,0,0,0,0,0,0,0,0,-1,755,477,0,0
-462,547,0,0,0,0,0,0,0,0,0,-1,762,477,0,0
-455,547,0,0,0,0,0,0,0,0,0,-1,769,477,0,0
-448,547,0,0,0,0,0,0,0,0,0,-1,776,477,0,0
-441,547,0,0,0,0,0,0,0,0,0,-1,783,477,0,0
-434,547,0,0,0,0,0,0,0,0,0,-1,790,477,0,0
-427,547,0,0,0,0,0,0,0,0,0,-1,797,477,0,0
-420,547,0,0,0,0,0,0,0,0,0,-1,804,477,0,0
-413,547,0,0,0,0,0,0,0,0,0,-1,811,477,0,0
-406,547,0.144592,-11.0292,0,0,0,0,0,0,0,-1,818,477,0.144583,11.0292
-399,547,0.775513,-10.0294,0,0,0,0,0,0,0,-1,825,477,0.775482,10.0295
-392,547,0.219055,-28.7913,0,0,0,0,0,0,0,-1,832,477,0.219056,28.7913
-385,547,0.564331,-29.2501,0,0,0,0,0,0,0,-1,839,477,0.564342,29.2501
-378,547,0.934631,-29.7303,0,0,0,0,0,0,0,-1,846,477,0.934644,29.7303
-371,547,1.94659,-29.0629,0,0,0,0,0,0,0,-1,853,477,1.94661,29.0629
-364,547,1.98602,-30.7521,0,0,0,0,0,0,0,-1,860,477,1.98602,30.7521
-357,547,1.70416,-31.7934,0,0,0,0,0,0,0,-1,867,477,1.70417,31.7934
-350,547,1.12439,-33.1711,0,0,0,0,0,0,0,-1,874,477,1.12438,33.1711
-343,547,1.00934,-34.3447,-0.00133728,0.0225992,-0.0120519,0.0276159,-0.00635393,-1.17636,0.0208538,0.0461965,881,477,1.00931,34.3447
-336,547,0.960571,-35.5638,-0.00143767,0.0187982,-0.00989657,0.0228335,-0.00547299,-1.18363,0.0173371,0.0191281,888,477,0.960563,35.5638
-329,547,0.837036,-36.5125,-0.00144328,0.0156129,-0.00805402,0.0188149,-0.0046453,-1.19239,0.0143447,0.0112317,895,477,0.837052,36.5125
-322,547,0.772217,-37.463,-0.00150191,0.0127349,-0.00635331,0.0151578,-0.0039248,-1.20646,0.0116362,0.0114172,902,477,0.772231,37.463
-315,547,0.712463,-38.4371,-0.00143312,0.0103418,-0.00494649,0.012144,-0.00323526,-1.22142,0.0093626,0.0103923,909,477,0.712442,38.4371
-308,547,0.665344,-39.321,-0.0011354,0.00844647,-0.00393354,0.0098544,-0.00254332,-1.22708,0.00756132,0.0121198,916,477,0.665373,39.321
-301,547,0.59259,-40.2032,-0.000664121,0.0064596,-0.00314968,0.00765246,-0.00185698,-1.20877,0.00582023,0.0120363,923,477,0.592616,40.2032
-294,547,0.513672,-41.1029,-0.000303774,0.00490626,-0.00234166,0.00580403,-0.00120154,-1.20469,0.00432585,0.0104186,930,477,0.513643,41.1029
-287,547,0.446777,-41.9961,-5.55652e-06,0.00305421,-0.00160125,0.00373895,-0.000690292,-1.1667,0.00275174,0.0124241,937,477,0.446802,41.9961
-280,547,0.388184,-42.893,0.000305043,0.000739354,-0.000986992,0.0015328,-0.000488401,-0.893682,0.00121776,0.0135919,944,477,0.388171,42.893
-273,547,0.345825,-43.7917,0.000635064,-0.00195751,-0.000294906,0.000668186,-0.00199063,-0.111847,0.00159711,0.013814,951,477,0.345841,43.7917
-266,547,0.294006,-44.6353,0.00102523,-0.0048733,0.000419026,0.00105485,-0.00490291,0.0705669,0.00367109,0.0140694,958,477,0.294023,44.6353
-259,547,0.249207,-45.4623,0.00142021,-0.00846122,0.00128739,0.00158518,-0.00862619,0.127449,0.00634554,0.0123806,965,477,0.249218,45.4623
-252,547,0.225952,-46.3206,0.00165664,-0.0123788,0.00229112,0.00202117,-0.0127434,0.157783,0.00924326,0.0117989,972,477,0.225975,46.3206
-245,547,0.187561,-47.1792,0.00172268,-0.0167296,0.00345854,0.00234962,-0.0173565,0.179325,0.0124285,0.0128233,979,477,0.187588,47.1792
-238,547,0.167419,-48.0358,0.00202665,-0.020966,0.00466485,0.00293702,-0.0218764,0.192735,0.0156554,0.00941864,986,477,0.167425,48.0358
-231,547,0.13623,-48.8776,0.00244558,-0.0252489,0.0059335,0.00366329,-0.0264666,0.202415,0.0189837,0.00942419,993,477,0.136255,48.8777
-224,547,0.086792,-49.6505,0.00265649,-0.0293156,0.00731424,0.00425032,-0.0309094,0.214553,0.0221593,0.0116015,1000,477,0.0867658,49.6504
-217,547,0.0772705,-50.3903,0.00284144,-0.0330357,0.00875647,0.00486454,-0.0350588,0.227056,0.0251513,0.0161184,1007,477,0.0772867,50.3902
-210,547,0.11084,-51.0419,0.00309597,-0.0364045,0.0101447,0.00554906,-0.0388576,0.237254,0.0279391,0.0267215,1014,477,0.110865,51.0419
-203,547,0.120605,-51.4858,0.00358485,-0.0390518,0.0113142,0.0064012,-0.0418681,0.243963,0.0302723,0.0403194,1021,477,0.120608,51.4858
-196,547,-0.17395,-52.0864,0.0043345,-0.0406325,0.0120759,0.00737227,-0.0436703,0.246443,0.0318566,0.0499225,1028,477,-0.174002,52.0864
-189,547,0.0799561,-53.0601,0,0,0,0,0,0,0,-1,1035,477,0.0800043,53.0601
-182,547,0.329956,-53.575,0,0,0,0,0,0,0,-1,1042,477,0.329902,53.5749
-175,547,1.37634,-47.526,0,0,0,0,0,0,0,-1,1049,477,1.3763,47.526
-168,547,0.761719,-32.9387,0,0,0,0,0,0,0,-1,1056,477,0.761738,32.9387
-161,547,0.0430908,-34.6016,0,0,0,0,0,0,0,-1,1063,477,0.0431231,34.6016
-154,547,-0.284424,-31.1176,0,0,0,0,0,0,0,-1,1070,477,-0.284395,31.1176
-147,547,3.69434,-26.413,0,0,0,0,0,0,0,-1,1077,477,3.69437,26.413
-140,547,1.55676,-22.5229,0,0,0,0,0,0,0,-1,1084,477,1.5568,22.5229
-133,547,2.31665,-17.9421,0,0,0,0,0,0,0,-1,1091,477,2.31667,17.9421
-126,547,-1.15271,-30.6984,0,0,0,0,0,0,0,-1,1098,477,-1.15267,30.6984
-119,547,0.967651,-24.9351,0,0,0,0,0,0,0,-1,1105,477,0.967657,24.9351
-112,547,1.15674,-22.2276,0,0,0,0,0,0,0,-1,1112,477,1.15677,22.2276
-105,547,0.966797,-20.5777,0,0,0,0,0,0,0,-1,1119,477,0.966804,20.5777
-98,547,0.70166,-18.9755,0,0,0,0,0,0,0,-1,1126,477,0.701713,18.9755
-91,547,1.37805,-7.12024,0,0,0,0,0,0,0,-1,1133,477,1.37804,7.12025
-84,547,1.94202,-6.66241,0,0,0,0,0,0,0,-1,1140,477,1.94201,6.66241
-77,547,-2.28357,1.8588,0,0,0,0,0,0,0,-1,1147,477,-2.28356,-1.85879
-70,547,-3.70178,-0.874908,0,0,0,0,0,0,0,-1,1154,477,-3.70182,0.874918
-63,547,-5.12012,-3.60861,0,0,0,0,0,0,0,-1,1161,477,-5.12009,3.60862
-56,547,-6.01917,-6.2399,0,0,0,0,0,0,0,-1,1168,477,-6.01921,6.23991
-49,547,-6.729,-8.60349,0,0,0,0,0,0,0,-1,1175,477,-6.72899,8.60348
-42,547,-2.41736,-5.53012,0,0,0,0,0,0,0,-1,1182,477,-2.41734,5.53011
-35,547,-2.96838,-4.45734,0,0,0,0,0,0,0,-1,1189,477,-2.96839,4.45734
-28,547,-0.869141,-1.29901,0,0,0,0,0,0,0,-1,1196,477,-0.869135,1.29901
-21,547,6.88403,-58.9171,0,0,0,0,0,0,0,-1,1203,477,6.88409,58.9171
-14,547,6.85352,-59.0939,0,0,0,0,0,0,0,-1,1210,477,6.85348,59.0939
-7,547,6.10217,-53.0975,0,0,0,0,0,0,0,-1,1217,477,6.10212,53.0975
0,547,6.46191,-59.4719,0,0,0,0,0,0,0,-1,1224,477,6.4619,59.4719
7,547,7.52051,-59.3428,0,0,0,0,0,0,0,-1,1231,477,7.52047,59.3428
14,547,0,0,0,0,0,0,0,0,0,-1,1238,477,0,0
21,547,0,0,0,0,0,0,0,0,0,-1,1245,477,0,0
28,547,0,0,0,0,0,0,0,0,0,-1,1252,477,0,0
35,547,0,0,0,0,0,0,0,0,0,-1,1259,477,0,0
42,547,0,0,0,0,0,0,0,0,0,-1,1266,477,0,0
49,547,0,0,0,0,0,0,0,0,0,-1,1273,477,0,0
56,547,0,0,0,0,0,0,0,0,0,-1,1280,477,0,0
63,547,0,0,0,0,0,0,0,0,0,-1,1287,477,0,0
70,547,0,0,0,0,0,0,0,0,0,-1,1294,477,0,0
77,547,0,0,0,0,0,0,0,0,0,-1,1301,477,0,0
84,547,0,0,0,0,0,0,0,0,0,-1,1308,477,0,0
91,547,0,0,0,0,0,0,0,0,0,-1,1315,477,0,0
98,547,0,0,0,0,0,0,0,0,0,-1,1322,477,0,0
105,547,5.43616,-64.1852,0,0,0,0,0,0,0,-1,1329,477,5.43612,64.1852
112,547,5.57739,-64.1888,0,0,0,0,0,0,0,-1,1336,477,5.57745,64.1889
119,547,5.37891,-64.3066,0,0,0,0,0,0,0,-1,1343,477,5.37891,64.3066
126,547,4.84277,-64.5085,0,0,0,0,0,0,0,-1,1350,477,4.84283,64.5085
133,547,4.42908,-64.8339,0,0,0,0,0,0,0,-1,1357,477,4.42907,64.8339
140,547,4.30713,-65.322,0,0,0,0,0,0,0,-1,1364,477,4.3071,65.322
147,547,4.38892,-65.7489,0,0,0,0,0,0,0,-1,1371,477,4.38897,65.7489
154,547,-5.54907,-82.8379,0,0,0,0,0,0,0,-1,1378,477,-5.54906,82.8379
161,547,-5.20825,-84.0917,0,0,0,0,0,0,0,-1,1385,477,-5.20821,84.0918
168,547,-4.8114,-85.34,0,0,0,0,0,0,0,-1,1392,477,-4.81144,85.3399
175,547,3.35034,-0.26532,0,0,0,0,0,0,0,-1,1399,477,3.3503,0.265306
182,547,4.26038,3.72672,0,0,0,0,0,0,0,-1,1406,477,4.26039,-3.7267
189,547,3.40454,1.28671,0,0,0,0,0,0,0,-1,1413,477,3.40457,-1.28673
196,547,3.53931,1.87793,0,0,0,0,0,0,0,-1,1420,477,3.53928,-1.87794
203,547,6.49414,-0.425842,0,0,0,0,0,0,0,-1,1427,477,6.4941,0.425844
210,547,4.82092,0.53595,0,0,0,0,0,0,0,-1,1434,477,4.82096,-0.535942
217,547,4.68579,0.480072,0,0,0,0,0,0,0,-1,1441,477,4.68577,-0.480069
224,547,4.55615,0.739807,0,0,0,0,0,0,0,-1,1448,477,4.55613,-0.73981
231,547,5.90869,-3.57721,0,0,0,0,0,0,0,-1,1455,477,5.90871,3.57722
238,547,5.50049,-3.15356,0,0,0,0,0,0,0,-1,1462,477,5.50045,3.15356
245,547,5.13708,-2.65213,0,0,0,0,0,0,0,-1,1469,477,5.13708,2.65212
252,547,3.73511,-0.645233,0,0,0,0,0,0,0,-1,1476,477,3.73515,0.645237
259,547,5.86816,-3.20816,0,0,0,0,0,0,0,-1,1483,477,5.86815,3.20816
266,547,5.40222,-2.45731,0,0,0,0,0,0,0,-1,1490,477,5.40221,2.45732
273,547,3.05737,0.495789,0,0,0,0,0,0,0,-1,1497,477,3.05742,-0.49578
280,547,2.0885,1.47797,0,0,0,0,0,0,0,-1,1504,477,2.08848,-1.47795
287,547,16.7034,-52.6257,0,0,0,0,0,0,0,-1,1511,477,16.7033,52.6258
294,547,16.8954,-51.6904,0,0,0,0,0,0,0,-1,1518,477,16.8954,51.6904
301,547,16.5122,-48.5859,0,0,0,0,0,0,0,-1,1525,477,16.5122,48.5859
308,547,14.5352,-46.2472,0,0,0,0,0,0,0,-1,1532,477,14.5351,46.2472
315,547,16.3188,-48.3778,0,0,0,0,0,0,0,-1,1539,477,16.3188,48.3778
322,547,16.6384,-51.8619,0,0,0,0,0,0,0,-1,1546,477,16.6384,51.8619
329,547,16.4907,-51.5759,0,0,0,0,0,0,0,-1,1553,477,16.4908,51.5759
336,547,16.5521,-51.2076,0,0,0,0,0,0,0,-1,1560,477,16.5521,51.2077
343,547,16.5065,-50.3635,0,0,0,0,0,0,0,-1,1567,477,16.5065,50.3634
350,547,16.5233,-49.5077,0.0025836,-0.00835636,-0.00480266,0.00439279,-0.0101655,-0.360264,0.00862271,0.031166,1574,477,16.5233,49.5077
357,547,16.4878,-48.6675,0.00269287,-0.0059293,-0.00375468,0.0040987,-0.00733512,-0.358262,0.00668889,0.01697,1581,477,16.4878,48.6675
364,547,16.4471,-47.8162,0.00258269,-0.00424754,-0.00269273,0.00351658,-0.00518143,-0.333837,0.00505237,0.0111746,1588,477,16.4471,47.8162
371,547,16.437,-46.9529,0.0025517,-0.00283875,-0.00178303,0.0030881,-0.00337515,-0.292226,0.00373278,0.00995163,1595,477,16.437,46.9529
378,547,16.3967,-46.0939,0.00249813,-0.00104607,-0.00086769,0.00269915,-0.0012471,-0.227662,0.00232921,0.010762,1602,477,16.3968,46.094
385,547,16.3296,-45.2245,0.00234423,0.000167821,-7.71037e-05,0.00234696,0.000165093,-0.0353679,0.00151262,0.0112794,1609,477,16.3296,45.2246
392,547,16.2935,-44.3576,0.00212691,0.00102218,0.000495991,0.00231692,0.000832177,0.365839,0.00135524,0.0124327,1616,477,16.2935,44.3576
399,547,16.2321,-43.4995,0.00193978,0.00177672,0.000989389,0.00285099,0.000865507,0.74429,0.00168783,0.0139779,1623,477,16.232,43.4995
406,547,16.2089,-42.6288,0.00170703,0.0024034,0.00147052,0.00356639,0.000544037,0.901646,0.0022186,0.0140167,1630,477,16.2089,42.6288
413,547,16.1919,-41.74,0.00140381,0.00300216,0.00187953,0.00424536,0.000160597,0.986418,0.00277826,0.0139795,1637,477,16.1919,41.74
420,547,16.1659,-40.848,0.00095882,0.00328556,0.00214234,0.00456002,-0.000315645,1.03414,0.00315051,0.0167624,1644,477,16.1659,40.848
427,547,16.1255,-39.9352,0.000478672,0.00335154,0.00234711,0.00466688,-0.000836666,1.06,0.00342438,0.0173595,1651,477,16.1254,39.9353
434,547,16.014,-39.0581,6.00546e-05,0.00337323,0.00256296,0.00476837,-0.00133509,1.0723,0.00370501,0.011251,1658,477,16.0141,39.0581
441,547,15.9078,-38.1822,-0.000464381,0.00335672,0.0027943,0.00483119,-0.00193885,1.08526,0.00402583,0.0106839,1665,477,15.9079,38.1822
448,547,15.8455,-37.2228,-0.00108478,0.00316206,0.00291934,0.00464855,-0.00257127,1.09983,0.00422548,0.011185,1672,477,15.8455,37.2228
455,547,15.7996,-36.2754,-0.00182044,0.00282695,0.00305299,0.00433996,-0.00333345,1.11069,0.00444293,0.0121896,1679,477,15.7996,36.2754
462,547,15.7185,-35.348,-0.00246078,0.00272374,0.00318307,0.00423657,-0.00397361,1.12713,0.00474096,0.0119994,1686,477,15.7184,35.348
469,547,15.566,-34.4125,-0.00304305,0.00257916,0.00328737,0.00409346,-0.00455735,1.13913,0.00499694,0.0208415,1693,477,15.566,34.4125
476,547,15.2727,-33.3727,0,0,0,0,0,0,0,-1,1700,477,15.2727,33.3726
483,547,15.5088,-32.4132,0,0,0,0,0,0,0,-1,1707,477,15.5087,32.4132
490,547,3.65271,-3.71707,0,0,0,0,0,0,0,-1,1714,477,3.65277,3.71708
497,547,2.55481,-3.81421,0,0,0,0,0,0,0,-1,1721,477,2.55476,3.8142
504,547,4.01953,-2.22714,0,0,0,0,0,0,0,-1,1728,477,4.0195,2.22713
511,547,5.2146,-6.9552,0,0,0,0,0,0,0,-1,1735,477,5.21464,6.95521
518,547,5.24243,-6.56122,0,0,0,0,0,0,0,-1,1742,477,5.24241,6.56121
525,547,5.89368,-5.49866,0,0,0,0,0,0,0,-1,1749,477,5.89372,5.49866
532,547,0,0,0,0,0,0,0,0,0,-1,1756,477,0,0
539,547,0,0,0,0,0,0,0,0,0,-1,1763,477,0,0
546,547,0,0,0,0,0,0,0,0,0,-1,1770,477,0,0
553,547,0,0,0,0,0,0,0,0,0,-1,1777,477,0,0
560,547,0,0,0,0,0,0,0,0,0,-1,1784,477,0,0
567,547,0,0,0,0,0,0,0,0,0,-1,1791,477,0,0
574,547,0,0,0,0,0,0,0,0,0,-1,1798,477,0,0
581,547,0,0,0,0,0,0,0,0,0,-1,1805,477,0,0
588,547,0,0,0,0,0,0,0,0,0,-1,1812,477,0,0
595,547,0,0,0,0,0,0,0,0,0,-1,1819,477,0,0
602,547,0,0,0,0,0,0,0,0,0,-1,1826,477,0,0
609,547,0,0,0,0,0,0,0,0,0,-1,1833,477,0,0
616,547,0,0,0,0,0,0,0,0,0,-1,1840,477,0,0
623,547,0,0,0,0,0,0,0,0,0,-1,1847,477,0,0
630,547,0,0,0,0,0,0,0,0,0,-1,1854,477,0,0
637,547,0,0,0,0,0,0,0,0,0,-1,1861,477,0,0
644,547,0,0,0,0,0,0,0,0,0,-1,1868,477,0,0
651,547,0,0,0,0,0,0,0,0,0,-1,1875,477,0,0
658,547,0,0,0,0,0,0,0,0,0,-1,1882,477,0,0
665,547,0,0,0,0,0,0,0,0,0,-1,1889,477,0,0
672,547,0,0,0,0,0,0,0,0,0,-1,1896,477,0,0
679,547,0,0,0,0,0,0,0,0,0,-1,1903,477,0,0
686,547,0,0,0,0,0,0,0,0,0,-1,1910,477,0,0
693,547,0,0,0,0,0,0,0,0,0,-1,1917,477,0,0
700,547,0,0,0,0,0,0,0,0,0,-1,1924,477,0,0
707,547,0,0,0,0,0,0,0,0,0,-1,1931,477,0,0
714,547,0,0,0,0,0,0,0,0,0,-1,1938,477,0,0
721,547,0,0,0,0,0,0,0,0,0,-1,1945,477,0,0
728,547,0,0,0,0,0,0,0,0,0,-1,1952,477,0,0
735,547,0,0,0,0,0,0,0,0,0,-1,1959,477,0,0
742,547,0,0,0,0,0,0,0,0,0,-1,1966,477,0,0
749,547,0,0,0,0,0,0,0,0,0,-1,1973,477,0,0
756,547,0,0,0,0,0,0,0,0,0,-1,1980,477,0,0
763,547,0,0,0,0,0,0,0,0,0,-1,1987,477,0,0
770,547,0,0,0,0,0,0,0,0,0,-1,1994,477,0,0
777,547,0,0,0,0,0,0,0,0,0,-1,2001,477,0,0
784,547,0,0,0,0,0,0,0,0,0,-1,2008,477,0,0
791,547,0,0,0,0,0,0,0,0,0,-1,2015,477,0,0
798,547,0,0,0,0,0,0,0,0,0,-1,2022,477,0,0
805,547,0,0,0,0,0,0,0,0,0,-1,2029,477,0,0
812,547,0,0,0,0,0,0,0,0,0,-1,2036,477,0,0
-700,540,0,0,0,0,0,0,0,0,0,-1,524,484,0,0
-693,540,0,0,0,0,0,0,0,0,0,-1,531,484,0,0
-686,540,0,0,0,0,0,0,0,0,0,-1,538,484,0,0
-679,540,0,0,0,0,0,0,0,0,0,-1,545,484,0,0
-672,540,0,0,0,0,0,0,0,0,0,-1,552,484,0,0
-665,540,0,0,0,0,0,0,0,0,0,-1,559,484,0,0
-658,540,0,0,0,0,0,0,0,0,0,-1,566,484,0,0
-651,540,0,0,0,0,0,0,0,0,0,-1,573,484,0,0
-644,540,0,0,0,0,0,0,0,0,0,-1,580,484,0,0
-637,540,0,0,0,0,0,0,0,0,0,-1,587,484,0,0
-630,540,0,0,0,0,0,0,0,0,0,-1,594,484,0,0
-623,540,0,0,0,0,0,0,0,0,0,-1,601,484,0,0
-616,540,0,0,0,0,0,0,0,0,0,-1,608,484,0,0
-609,540,0,0,0,0,0,0,0,0,0,-1,615,484,0,0
-602,540,0,0,0,0,0,0,0,0,0,-1,622,484,0,0
-595,540,0,0,0,0,0,0,0,0,0,-1,629,484,0,0
-588,540,0,0,0,0,0,0,0,0,0,-1,636,484,0,0
-581,540,0,0,0,0,0,0,0,0,0,-1,643,484,0,0
-574,540,0,0,0,0,0,0,0,0,0,-1,650,484,0,0
-567,540,0,0,0,0,0,0,0,0,0,-1,657,484,0,0
-560,540,0,0,0,0,0,0,0,0,0,-1,664,484,0,0
-553,540,0,0,0,0,0,0,0,0,0,-1,671,484,0,0
-546,540,0,0,0,0,0,0,0,0,0,-1,678,484,0,0
-539,540,0,0,0,0,0,0,0,0,0,-1,685,484,0,0
-532,540,0,0,0,0,0,0,0,0,0,-1,692,484,0,0
-525,540,0,0,0,0,0,0,0,0,0,-1,699,484,0,0
-518,540,0,0,0,0,0,0,0,0,0,-1,706,484,0,0
-511,540,0,0,0,0,0,0,0,0,0,-1,713,484,0,0
-504,540,0,0,0,0,0,0,0,0,0,-1,720,484,0,0
-497,540,0,0,0,0,0,0,0,0,0,-1,727,484,0,0
-490,540,0,0,0,0,0,0,0,0,0,-1,734,484,0,0
-483,540,0,0,0,0,0,0,0,0,0,-1,741,484,0,0
-476,540,0,0,0,0,0,0,0,0,0,-1,748,484,0,0
-469,540,0,0,0,0,0,0,0,0,0,-1,755,484,0,0
-462,540,0,0,0,0,0,0,0,0,0,-1,762,484,0,0
-455,540,0,0,0,0,0,0,0,0,0,-1,769,484,0,0
-448,540,0,0,0,0,0,0,0,0,0,-1,776,484,0,0
-441,540,0,0,0,0,0,0,0,0,0,-1,783,484,0,0
-434,540,0,0,0,0,0,0,0,0,0,-1,790,484,0,0
-427,540,0,0,0,0,0,0,0,0,0,-1,797,484,0,0
-420,540,0.227051,-10.0402,0,0,0,0,0,0,0,-1,804,484,0.227063,10.0402
-413,540,-0.0393677,-10.3862,0,0,0,0,0,0,0,-1,811,484,-0.0393683,10.3862
-406,540,-0.518372,-11.5288,0,0,0,0,0,0,0,-1,818,484,-0.518402,11.5288
-399,540,0.0863037,-11.3801,0,0,0,0,0,0,0,-1,825,484,0.0863201,11.3801
-392,540,-0.517395,-10.6735,0,0,0,0,0,0,0,-1,832,484,-0.517377,10.6735
-385,540,-0.41748,-29.7767,0,0,0,0,0,0,0,-1,839,484,-0.417475,29.7767
-378,540,-0.0524292,-30.2798,0,0,0,0,0,0,0,-1,846,484,-0.0524504,30.2798
-371,540,0.825806,-28.765,0,0,0,0,0,0,0,-1,853,484,0.8258,28.765
-364,540,0.759155,-30.9341,0,0,0,0,0,0,0,-1,860,484,0.75917,30.9341
-357,540,0.488037,-32.1058,0.00174359,0.0274408,-0.0157135,0.03489,-0.00570565,-1.12811,0.0253766,0.0491025,867,484,0.488042,32.1058
-350,540,0.167847,-33.2552,0.00051001,0.0225458,-0.0126961,0.0283381,-0.00528234,-1.14277,0.0208768,0.0357911,874,484,0.167847,33.2553
-343,540,0.090332,-34.4861,-0.00021867,0.0184161,-0.0102143,0.0229243,-0.00472685,-1.15515,0.0170779,0.0186731,881,484,0.0903271,34.4861
-336,540,-0.00897217,-35.623,-0.000525403,0.0150531,-0.00823361,0.0185981,-0.00407038,-1.16423,0.0139548,0.0132849,888,484,-0.00897186,35.623
-329,540,-0.0928955,-36.5278,-0.000696809,0.0122176,-0.00652806,0.0149425,-0.00342171,-1.17537,0.0112766,0.0101594,895,484,-0.0928814,36.5278
-322,540,-0.155029,-37.4508,-0.000888363,0.00958455,-0.00490183,0.0115208,-0.00282466,-1.19459,0.00877499,0.0140831,902,484,-0.155011,37.4508
-315,540,-0.210327,-38.3721,-0.000907391,0.00743396,-0.00356703,0.00875129,-0.00222472,-1.21703,0.00670004,0.0129797,909,484,-0.210329,38.3721
-308,540,-0.226135,-39.2706,-0.000674421,0.00577241,-0.00260808,0.00669538,-0.00159739,-1.23066,0.00508046,0.0125062,916,484,-0.226163,39.2707
-301,540,-0.317627,-40.1266,-0.000304692,0.00405179,-0.00185027,0.00473157,-0.000984466,-1.21871,0.00352861,0.0133754,923,484,-0.317629,40.1266
-294,540,-0.369263,-41.0292,1.14378e-05,0.0027156,-0.00108014,0.00309408,-0.000367037,-1.23377,0.00219532,0.0122844,930,484,-0.369287,41.0292
-287,540,-0.403259,-41.9363,0.000331689,0.000627301,-0.000379271,0.000886549,7.24407e-05,-0.9712,0.000568427,0.00880731,937,484,-0.403242,41.9364
-280,540,-0.467957,-42.8265,0.000631887,-0.00223203,0.000235524,0.000651127,-0.00225127,0.0815085,0.00175854,0.00997737,944,484,-0.467941,42.8266
-273,540,-0.494995,-43.6939,0.000983005,-0.00543243,0.000964283,0.00112481,-0.00557424,0.14601,0.00414232,0.0127948,951,484,-0.494967,43.6939
-266,540,-0.52771,-44.5635,0.00143413,-0.00888088,0.00169359,0.00170508,-0.00915183,0.15864,0.00674184,0.0140699,958,484,-0.527736,44.5635
-259,540,-0.588013,-45.4301,0.00187996,-0.0131265,0.00263041,0.00232767,-0.0135742,0.168592,0.00991682,0.0124264,965,484,-0.58802,45.4301
-252,540,-0.62616,-46.2634,0.002133,-0.0179277,0.00371677,0.00279948,-0.0185942,0.177433,0.0134269,0.0126852,972,484,-0.626173,46.2634
-245,540,-0.66217,-47.1119,0.00216194,-0.0234421,0.00501351,0.00310863,-0.0243888,0.18663,0.0173883,0.0133536,979,484,-0.662194,47.1119
-238,540,-0.707581,-47.9346,0.00246592,-0.028902,0.0063601,0.00370643,-0.0301425,0.192626,0.0214375,0.011435,986,484,-0.707594,47.9346
-231,540,-0.72052,-48.7477,0.00291654,-0.0344758,0.00779271,0.00447557,-0.0360348,0.197456,0.0256456,0.0149933,993,484,-0.720529,48.7477
-224,540,-0.78064,-49.5081,0.003055,-0.0398328,0.00946105,0.00504937,-0.0418271,0.207756,0.0297113,0.0212894,1000,484,-0.78064,49.5081
-217,540,-1.03851,-49.8274,0,0,0,0,0,0,0,-1,1007,484,-1.03852,49.8274
-210,540,-0.726868,-50.6368,0.00322232,-0.0491179,0.0130825,0.00631014,-0.0522057,0.231785,0.0370865,0.0437874,1014,484,-0.726854,50.6368
-203,540,-0.734253,-51.1915,0.00355362,-0.0527003,0.014701,0.00716379,-0.0563104,0.240808,0.0401419,0.0463031,1021,484,-0.734228,51.1915
-196,540,-1.23413,-51.5522,0,0,0,0,0,0,0,-1,1028,484,-1.23416,51.5522
-189,540,-1.2511,-49.0358,0,0,0,0,0,0,0,-1,1035,484,-1.25113,49.0358
-182,540,-0.826782,-43.3494,0,0,0,0,0,0,0,-1,1042,484,-0.826777,43.3494
-175,540,1.73413,-10.728,0,0,0,0,0,0,0,-1,1049,484,1.73414,10.728
-168,540,1.18164,-7.65347,0,0,0,0,0,0,0,-1,1056,484,1.18163,7.65347
-161,540,-0.405884,-9.86481,0,0,0,0,0,0,0,-1,1063,484,-0.405886,9.8648
-154,540,1.96863,-22.0727,0,0,0,0,0,0,0,-1,1070,484,1.96859,22.0727
-147,540,1.32764,-21.9952,0,0,0,0,0,0,0,-1,1077,484,1.32762,21.9952
-140,540,1.40735,-15.6289,0,0,0,0,0,0,0,-1,1084,484,1.4073,15.6289
-133,540,2.28345,-17.6413,0,0,0,0,0,0,0,-1,1091,484,2.2835,17.6413
-126,540,1.25293,-23.9108,0,0,0,0,0,0,0,-1,1098,484,1.25288,23.9108
-119,540,1.55969,-23.0125,0,0,0,0,0,0,0,-1,1105,484,1.55968,23.0125
-112,540,1.4801,-21.6515,0,0,0,0,0,0,0,-1,1112,484,1.4801,21.6515
-105,540,1.30078,-19.8938,0,0,0,0,0,0,0,-1,1119,484,1.30077,19.8938
-98,540,1.08105,-18.1304,0,0,0,0,0,0,0,-1,1126,484,1.08101,18.1304
-91,540,1.56519,-7.48666,0,0,0,0,0,0,0,-1,1133,484,1.56514,7.48667
-84,540,-0.945923,4.43073,0,0,0,0,0,0,0,-1,1140,484,-0.945891,-4.43074
-77,540,-2.28894,2.14368,0,0,0,0,0,0,0,-1,1147,484,-2.28894,-2.14368
-70,540,-3.75244,-0.452576,0,0,0,0,0,0,0,-1,1154,484,-3.75244,0.452576
-63,540,-5.26257,-3.04767,0,0,0,0,0,0,0,-1,1161,484,-5.26262,3.04766
-56,540,-5.19055,-6.12595,0,0,0,0,0,0,0,-1,1168,484,-5.19057,6.12595
-49,540,-5.63867,-8.52298,0,0,0,0,0,0,0,-1,1175,484,-5.63871,8.52298
-42,540,0,0,0,0,0,0,0,0,0,-1,1182,484,0,0
-35,540,0,0,0,0,0,0,0,0,0,-1,1189,484,0,0
-28,540,0,0,0,0,0,0,0,0,0,-1,1196,484,0,0
-21,540,0,0,0,0,0,0,0,0,0,-1,1203,484,0,0
-14,540,0,0,0,0,0,0,0,0,0,-1,1210,484,0,0
-7,540,0,0,0,0,0,0,0,0,0,-1,1217,484,0,0
0,540,0,0,0,0,0,0,0,0,0,-1,1224,484,0,0
7,540,0,0,0,0,0,0,0,0,0,-1,1231,484,0,0
14,540,0,0,0,0,0,0,0,0,0,-1,1238,484,0,0
21,540,0,0,0,0,0,0,0,0,0,-1,1245,484,0,0
28,540,0,0,0,0,0,0,0,0,0,-1,1252,484,0,0
35,540,0,0,0,0,0,0,0,0,0,-1,1259,484,0,0
42,540,0,0,0,0,0,0,0,0,0,-1,1266,484,0,0
49,540,0,0,0,0,0,0,0,0,0,-1,1273,484,0,0
56,540,0,0,0,0,0,0,0,0,0,-1,1280,484,0,0
63,540,0,0,0,0,0,0,0,0,0,-1,1287,484,0,0
70,540,0,0,0,0,0,0,0,0,0,-1,1294,484,0,0
77,540,0,0,0,0,0,0,0,0,0,-1,1301,484,0,0
84,540,0,0,0,0,0,0,0,0,0,-1,1308,484,0,0
91,540,0,0,0,0,0,0,0,0,0,-1,1315,484,0,0
98,540,0,0,0,0,0,0,0,0,0,-1,1322,484,0,0
105,540,0,0,0,0,0,0,0,0,0,-1,1329,484,0,0
112,540,0,0,0,0,0,0,0,0,0,-1,1336,484,0,0
119,540,0,0,0,0,0,0,0,0,0,-1,1343,484,0,0
126,540,0,0,0,0,0,0,0,0,0,-1,1350,484,0,0
133,540,0,0,0,0,0,0,0,0,0,-1,1357,484,0,0
140,540,0,0,0,0,0,0,0,0,0,-1,1364,484,0,0
147,540,0,0,0,0,0,0,0,0,0,-1,1371,484,0,0
154,540,0,0,0,0,0,0,0,0,0,-1,1378,484,0,0
161,540,0,0,0,0,0,0,0,0,0,-1,1385,484,0,0
168,540,3.05078,-0.0010376,0,0,0,0,0,0,0,-1,1392,484,3.05084,0.00102554
175,540,3.37708,0.617035,0,0,0,0,0,0,0,-1,1399,484,3.37707,-0.617046
182,540,3.32678,1.23267,0,0,0,0,0,0,0,-1,1406,484,3.32678,-1.23266
189,540,3.5813,2.15619,0,0,0,0,0,0,0,-1,1413,484,3.58129,-2.1562
196,540,1.84448,-0.801483,0,0,0,0,0,0,0,-1,1420,484,1.84446,0.80148
203,540,4.14648,0.702087,0,0,0,0,0,0,0,-1,1427,484,4.14645,-0.702089
210,540,4.50671,-0.56076,0,0,0,0,0,0,0,-1,1434,484,4.50667,0.560771
217,540,5.00452,-0.278717,0,0,0,0,0,0,0,-1,1441,484,5.00452,0.278709
224,540,6.44458,-2.83527,0,0,0,0,0,0,0,-1,1448,484,6.44457,2.83525
231,540,6.9231,-3.10504,0,0,0,0,0,0,0,-1,1455,484,6.92307,3.10505
238,540,6.4823,-2.58365,0,0,0,0,0,0,0,-1,1462,484,6.48225,2.58363
245,540,6.02087,-1.97916,0,0,0,0,0,0,0,-1,1469,484,6.02088,1.97915
252,540,6.50647,-3.56006,0,0,0,0,0,0,0,-1,1476,484,6.50649,3.56006
259,540,6.01941,-2.798,0,0,0,0,0,0,0,-1,1483,484,6.01941,2.79801
266,540,5.5332,-2.02853,0,0,0,0,0,0,0,-1,1490,484,5.53323,2.02855
273,540,5.06787,-1.28137,0,0,0,0,0,0,0,-1,1497,484,5.06786,1.28136
280,540,1.62903,-2.14609,0,0,0,0,0,0,0,-1,1504,484,1.62906,2.1461
287,540,1.97156,-2.45053,0,0,0,0,0,0,0,-1,1511,484,1.97159,2.45053
294,540,2.44165,-2.6185,0,0,0,0,0,0,0,-1,1518,484,2.44167,2.6185
301,540,4.36169,-2.54272,0,0,0,0,0,0,0,-1,1525,484,4.36165,2.54272
308,540,4.2019,-4.30469,0,0,0,0,0,0,0,-1,1532,484,4.20193,4.3047
315,540,4.45923,-5.32101,0,0,0,0,0,0,0,-1,1539,484,4.45923,5.32103
322,540,4.71655,-6.33737,0,0,0,0,0,0,0,-1,1546,484,4.71653,6.33736
329,540,15.0289,-44.3801,0,0,0,0,0,0,0,-1,1553,484,15.0289,44.3801
336,540,17.1764,-48.0145,0,0,0,0,0,0,0,-1,1560,484,17.1764,48.0145
343,540,17.5421,-50.0817,0,0,0,0,0,0,0,-1,1567,484,17.5421,50.0817
350,540,17.3217,-49.5695,0,0,0,0,0,0,0,-1,1574,484,17.3216,49.5694
357,540,17.4266,-48.4086,0.00330676,-0.00734244,-0.00469435,0.00508063,-0.00911631,-0.361288,0.00830626,0.0364969,1581,484,17.4266,48.4086
364,540,17.2715,-47.709,0.00329068,-0.00531409,-0.00345657,0.00450721,-0.00653062,-0.338408,0.00640829,0.021469,1588,484,17.2714,47.709
371,540,17.2661,-46.8882,0.00332013,-0.00367111,-0.00245481,0.00409598,-0.00444696,-0.306118,0.00493365,0.0166896,1595,484,17.2662,46.8882
378,540,17.2625,-46.0256,0.00328809,-0.00161124,-0.00142812,0.00367398,-0.00199713,-0.263908,0.00332159,0.0137287,1602,484,17.2625,46.0256
385,540,17.214,-45.1771,0.00314265,-0.000323931,-0.000518887,0.00321865,-0.000399933,-0.145437,0.00229075,0.0149224,1609,484,17.214,45.1771
392,540,17.1494,-44.3216,0.00281805,0.000428654,1.09545e-06,0.00281805,0.000428653,0.000458463,0.00175337,0.0134569,1616,484,17.1494,44.3216
399,540,17.1052,-43.4988,0.00246053,0.00110683,0.00037493,0.00255744,0.00100993,0.252929,0.00148737,0.0177787,1623,484,17.1053,43.4988
406,540,17.1021,-42.615,0.00217101,0.00163231,0.000788582,0.00273497,0.00106835,0.620828,0.00159158,0.0192364,1630,484,17.1021,42.615
413,540,17.0538,-41.7134,0.00189743,0.0022295,0.00121614,0.00329089,0.000836043,0.853243,0.00197513,0.0159269,1637,484,17.0538,41.7134
420,540,17.0267,-40.767,0.00146217,0.00252497,0.00149987,0.0035848,0.000402344,0.955647,0.00226768,0.015109,1644,484,17.0268,40.767
427,540,16.9646,-39.8894,0.000983125,0.00263493,0.00171398,0.00371162,-9.35608e-05,1.00991,0.00250618,0.0160421,1651,484,16.9646,39.8894
434,540,16.8811,-39.0029,0.000552602,0.00269446,0.00193867,0.00383833,-0.000591266,1.03774,0.00277704,0.0181423,1658,484,16.8811,39.0029
441,540,16.8483,-38.0759,9.71055e-05,0.00276391,0.0022204,0.00402051,-0.0011595,1.0558,0.00313905,0.019409,1665,484,16.8483,38.0759
448,540,16.7708,-37.1629,-0.000412356,0.00264563,0.00241632,0.00397608,-0.00174281,1.06748,0.00338468,0.0121244,1672,484,16.7708,37.1629
455,540,16.7185,-36.2062,-0.000976386,0.00251612,0.00260316,0.00390449,-0.00236476,1.08083,0.00365576,0.0115343,1679,484,16.7185,36.2062
462,540,16.6232,-35.2953,-0.00140524,0.00250494,0.00278771,0.0039548,-0.0028551,1.09121,0.00394875,0.0112522,1686,484,16.6231,35.2953
469,540,16.5212,-34.3516,-0.00173207,0.0024982,0.00299045,0.00404593,-0.0032798,1.0932,0.00423722,0.0156144,1693,484,16.5212,34.3516
476,540,16.4331,-33.4232,-0.00195667,0.00251033,0.00319377,0.0041741,-0.00362044,1.09054,0.00450396,0.0245876,1700,484,16.4331,33.4231
483,540,16.5023,-32.429,-0.00208624,0.00265758,0.00347824,0.00449567,-0.00392434,1.08464,0.00486502,0.038547,1707,484,16.5024,32.429
490,540,16.7087,-31.3479,0,0,0,0,0,0,0,-1,1714,484,16.7088,31.3479
497,540,10.3452,-16.9359,0,0,0,0,0,0,0,-1,1721,484,10.3453,16.9359
504,540,12.519,-18.0764,0,0,0,0,0,0,0,-1,1728,484,12.519,18.0765
511,540,5.82471,-6.83521,0,0,0,0,0,0,0,-1,1735,484,5.82465,6.83522
518,540,9.98181,-12.4608,0,0,0,0,0,0,0,-1,1742,484,9.98187,12.4608
525,540,12.4843,-16.3481,0,0,0,0,0,0,0,-1,1749,484,12.4842,16.3481
532,540,2.84265,-1.07925,0,0,0,0,0,0,0,-1,1756,484,2.84269,1.07927
539,540,0,0,0,0,0,0,0,0,0,-1,1763,484,0,0
546,540,0,0,0,0,0,0,0,0,0,-1,1770,484,0,0
553,540,0,0,0,0,0,0,0,0,0,-1,1777,484,0,0
560,540,0,0,0,0,0,0,0,0,0,-1,1784,484,0,0
567,540,0,0,0,0,0,0,0,0,0,-1,1791,484,0,0
574,540,0,0,0,0,0,0,0,0,0,-1,1798,484,0,0
581,540,0,0,0,0,0,0,0,0,0,-1,1805,484,0,0
588,540,0,0,0,0,0,0,0,0,0,-1,1812,484,0,0
595,540,0,0,0,0,0,0,0,0,0,-1,1819,484,0,0
602,540,0,0,0,0,0,0,0,0,0,-1,1826,484,0,0
609,540,0,0,0,0,0,0,0,0,0,-1,1833,484,0,0
616,540,0,0,0,0,0,0,0,0,0,-1,1840,484,0,0
623,540,0,0,0,0,0,0,0,0,0,-1,1847,484,0,0
630,540,0,0,0,0,0,0,0,0,0,-1,1854,484,0,0
637,540,0,0,0,0,0,0,0,0,0,-1,1861,484,0,0
644,540,0,0,0,0,0,0,0,0,0,-1,1868,484,0,0
651,540,0,0,0,0,0,0,0,0,0,-1,1875,484,0,0
658,540,0,0,0,0,0,0,0,0,0,-1,1882,484,0,0
665,540,0,0,0,0,0,0,0,0,0,-1,1889,484,0,0
672,540,0,0,0,0,0,0,0,0,0,-1,1896,484,0,0
679,540,0,0,0,0,0,0,0,0,0,-1,1903,484,0,0
686,540,0,0,0,0,0,0,0,0,0,-1,1910,484,0,0
693,540,0,0,0,0,0,0,0,0,0,-1,1917,484,0,0
700,540,0,0,0,0,0,0,0,0,0,-1,1924,484,0,0
707,540,0,0,0,0,0,0,0,0,0,-1,1931,484,0,0
714,540,0,0,0,0,0,0,0,0,0,-1,1938,484,0,0
721,540,0,0,0,0,0,0,0,0,0,-1,1945,484,0,0
728,540,0,0,0,0,0,0,0,0,0,-1,1952,484,0,0
735,540,0,0,0,0,0,0,0,0,0,-1,1959,484,0,0
742,540,0,0,0,0,0,0,0,0,0,-1,1966,484,0,0
749,540,0,0,0,0,0,0,0,0,0,-1,1973,484,0,0
756,540,0,0,0,0,0,0,0,0,0,-1,1980,484,0,0
763,540,0,0,0,0,0,0,0,0,0,-1,1987,484,0,0
770,540,0,0,0,0,0,0,0,0,0,-1,1994,484,0,0
777,540,0,0,0,0,0,0,0,0,0,-1,2001,484,0,0
784,540,0,0,0,0,0,0,0,0,0,-1,2008,484,0,0
791,540,0,0,0,0,0,0,0,0,0,-1,2015,484,0,0
798,540,0,0,0,0,0,0,0,0,0,-1,2022,484,0,0
805,540,0,0,0,0,0,0,0,0,0,-1,2029,484,0,0
812,540,0,0,0,0,0,0,0,0,0,-1,2036,484,0,0
-700,533,0,0,0,0,0,0,0,0,0,-1,524,491,0,0
-693,533,0,0,0,0,0,0,0,0,0,-1,531,491,0,0
-686,533,0,0,0,0,0,0,0,0,0,-1,538,491,0,0
-679,533,0,0,0,0,0,0,0,0,0,-1,545,491,0,0
-672,533,0,0,0,0,0,0,0,0,0,-1,552,491,0,0
-665,533,0,0,0,0,0,0,0,0,0,-1,559,491,0,0
-658,533,0,0,0,0,0,0,0,0,0,-1,566,491,0,0
-651,533,0,0,0,0,0,0,0,0,0,-1,573,491,0,0
-644,533,0,0,0,0,0,0,0,0,0,-1,580,491,0,0
-637,533,0,0,0,0,0,0,0,0,0,-1,587,491,0,0
-630,533,0,0,0,0,0,0,0,0,0,-1,594,491,0,0
-623,533,0,0,0,0,0,0,0,0,0,-1,601,491,0,0
-616,533,0,0,0,0,0,0,0,0,0,-1,608,491,0,0
-609,533,0,0,0,0,0,0,0,0,0,-1,615,491,0,0
-602,533,0,0,0,0,0,0,0,0,0,-1,622,491,0,0
-595,533,0,0,0,0,0,0,0,0,0,-1,629,491,0,0
-588,533,0,0,0,0,0,0,0,0,0,-1,636,491,0,0
-581,533,0,0,0,0,0,0,0,0,0,-1,643,491,0,0
-574,533,0,0,0,0,0,0,0,0,0,-1,650,491,0,0
-567,533,0,0,0,0,0,0,0,0,0,-1,657,491,0,0
-560,533,0,0,0,0,0,0,0,0,0,-1,664,491,0,0
-553,533,0,0,0,0,0,0,0,0,0,-1,671,491,0,0
-546,533,0,0,0,0,0,0,0,0,0,-1,678,491,0,0
-539,533,0,0,0,0,0,0,0,0,0,-1,685,491,0,0
-532,533,0,0,0,0,0,0,0,0,0,-1,692,491,0,0
-525,533,0,0,0,0,0,0,0,0,0,-1,699,491,0,0
-518,533,0,0,0,0,0,0,0,0,0,-1,706,491,0,0
-511,533,0,0,0,0,0,0,0,0,0,-1,713,491,0,0
-504,533,0,0,0,0,0,0,0,0,0,-1,720,491,0,0
-497,533,0,0,0,0,0,0,0,0,0,-1,727,491,0,0
-490,533,0,0,0,0,0,0,0,0,0,-1,734,491,0,0
-483,533,0,0,0,0,0,0,0,0,0,-1,741,491,0,0
-476,533,0,0,0,0,0,0,0,0,0,-1,748,491,0,0
-469,533,0,0,0,0,0,0,0,0,0,-1,755,491,0,0
-462,533,0,0,0,0,0,0,0,0,0,-1,762,491,0,0
-455,533,0,0,0,0,0,0,0,0,0,-1,769,491,0,0
-448,533,0,0,0,0,0,0,0,0,0,-1,776,491,0,0
-441,533,0,0,0,0,0,0,0,0,0,-1,783,491,0,0
-434,533,0,0,0,0,0,0,0,0,0,-1,790,491,0,0
-427,533,0.559814,-4.40222,0,0,0,0,0,0,0,-1,797,491,0.559816,4.40222
-420,533,-1.11127,-10.9054,0,0,0,0,0,0,0,-1,804,491,-1.11124,10.9054
-413,533,-0.704773,-11.0942,0,0,0,0,0,0,0,-1,811,491,-0.704742,11.0942
-406,533,-0.670898,-12.0899,0,0,0,0,0,0,0,-1,818,491,-0.670908,12.0899
-399,533,-0.455017,-12.4423,0,0,0,0,0,0,0,-1,825,491,-0.455032,12.4423
-392,533,-1.89661,-10.3905,0,0,0,0,0,0,0,-1,832,491,-1.89661,10.3905
-385,533,0.797729,-17.0485,0,0,0,0,0,0,0,-1,839,491,0.797746,17.0485
-378,533,-1.89435,-19.6771,0,0,0,0,0,0,0,-1,846,491,-1.89433,19.6771
-371,533,-0.848572,-30.0316,0,0,0,0,0,0,0,-1,853,491,-0.84855,30.0316
-364,533,-0.602844,-31.4421,0,0,0,0,0,0,0,-1,860,491,-0.60283,31.4421
-357,533,-0.640991,-32.5092,0.00225173,0.0221189,-0.013139,0.0286568,-0.00428612,-1.10908,0.0206818,0.0250462,867,491,-0.640986,32.5092
-350,533,-0.741882,-33.5533,0.00116809,0.0181105,-0.0105791,0.0231921,-0.00391353,-1.123,0.0169175,0.0138173,874,491,-0.741876,33.5533
-343,533,-0.808105,-34.5898,0.000483806,0.0145872,-0.00841624,0.0185155,-0.00344445,-1.1341,0.0136376,0.0131273,881,491,-0.808122,34.5899
-336,533,-0.906921,-35.564,9.41315e-05,0.0116446,-0.00661849,0.0146533,-0.00291458,-1.14413,0.0108714,0.0169914,888,491,-0.906924,35.564
-329,533,-0.975525,-36.472,-0.000153694,0.00914714,-0.00505818,0.0113678,-0.00237434,-1.15711,0.00848149,0.0149745,895,491,-0.975539,36.472
-322,533,-1.03943,-37.3974,-0.000407392,0.00676396,-0.00352836,0.00820884,-0.00185226,-1.18213,0.00618316,0.0120951,902,491,-1.03941,37.3974
-315,533,-1.10144,-38.3001,-0.000462508,0.00485022,-0.00228214,0.00569592,-0.00130821,-1.21591,0.0043002,0.0125207,909,491,-1.10144,38.3001
-308,533,-1.15387,-39.2064,-0.000266168,0.00339842,-0.00138032,0.00386015,-0.000727904,-1.24798,0.00284726,0.0117278,916,491,-1.15388,39.2063
-301,533,-1.23462,-40.0925,2.52059e-05,0.00195873,-0.000656367,0.00216049,-0.000176555,-1.27257,0.00150264,0.0138416,923,491,-1.23465,40.0924
-294,533,-1.25781,-40.9761,0.000311489,0.00084722,6.65816e-05,0.000855371,0.000303338,1.44898,0.000500758,0.0129732,930,491,-1.25781,40.9762
-287,533,-1.28235,-41.8762,0.000664299,-0.00152556,0.000722499,0.000881192,-0.00174245,0.291638,0.00154172,0.00907585,937,491,-1.28234,41.8762
-280,533,-1.32324,-42.7774,0.000965258,-0.00504936,0.00133701,0.00124907,-0.00533318,0.209171,0.00403675,0.00894009,944,491,-1.32327,42.7774
-273,533,-1.36584,-43.6348,0.00134905,-0.00888412,0.00209943,0.00176302,-0.00929809,0.194685,0.00686231,0.0131437,951,491,-1.36582,43.6348
-266,533,-1.40991,-44.5013,0.00187526,-0.0130659,0.00284442,0.00239844,-0.0135891,0.181901,0.00995562,0.0124972,958,491,-1.4099,44.5013
-259,533,-1.44489,-45.3766,0.00238762,-0.0182348,0.00386163,0.00308701,-0.0189342,0.17917,0.0137676,0.0127047,965,491,-1.44486,45.3766
-252,533,-1.47467,-46.2206,0.00266965,-0.0243105,0.00505496,0.00358564,-0.0252265,0.179261,0.0181315,0.0179869,972,491,-1.47465,46.2206
-245,533,-1.55182,-47.0472,0.00265904,-0.031562,0.00651739,0.00385825,-0.0327612,0.181967,0.0232339,0.0262497,979,491,-1.55182,47.0472
-238,533,-1.50446,-47.6995,0.00295711,-0.0389127,0.00805488,0.00445324,-0.0404088,0.183649,0.0285397,0.0287553,986,491,-1.50445,47.6995
-231,533,-1.48596,-48.2435,0.00344166,-0.0465239,0.00971069,0.00526255,-0.0483448,0.185361,0.0341196,0.0379355,993,491,-1.48598,48.2435
-224,533,-1.55145,-48.7626,0.00345761,-0.0539119,0.0117899,0.00578602,-0.0562403,0.194983,0.0395635,0.0441152,1000,491,-1.55146,48.7626
-217,533,-1.38525,-49.1368,0,0,0,0,0,0,0,-1,1007,491,-1.38525,49.1368
-210,533,-1.44958,-49.4236,0,0,0,0,0,0,0,-1,1014,491,-1.44957,49.4236
-203,533,-1.53125,-50.9715,0,0,0,0,0,0,0,-1,1021,491,-1.53126,50.9715
-196,533,-2.22546,-48.6072,0,0,0,0,0,0,0,-1,1028,491,-2.22546,48.6072
-189,533,-1.75317,-43.4744,0,0,0,0,0,0,0,-1,1035,491,-1.75312,43.4744
-182,533,1.26123,-11.4969,0,0,0,0,0,0,0,-1,1042,491,1.26128,11.4969
-175,533,0.937744,-7.36966,0,0,0,0,0,0,0,-1,1049,491,0.937769,7.36965
-168,533,2.64807,-2.7543,0,0,0,0,0,0,0,-1,1056,491,2.64812,2.7543
-161,533,1.91833,-1.76553,0,0,0,0,0,0,0,-1,1063,491,1.91836,1.76554
-154,533,0.376709,-11.0633,0,0,0,0,0,0,0,-1,1070,491,0.376715,11.0632
-147,533,0.383789,-12.1586,0,0,0,0,0,0,0,-1,1077,491,0.383829,12.1586
-140,533,1.14001,-15.4608,0,0,0,0,0,0,0,-1,1084,491,1.14005,15.4608
-133,533,0.189941,-16.0795,0,0,0,0,0,0,0,-1,1091,491,0.18994,16.0795
-126,533,2.89612,-2.59003,0,0,0,0,0,0,0,-1,1098,491,2.89608,2.59003
-119,533,1.78284,-22.5394,0,0,0,0,0,0,0,-1,1105,491,1.78279,22.5394
-112,533,1.83862,-21.2401,0,0,0,0,0,0,0,-1,1112,491,1.83859,21.24
-105,533,1.67554,-19.4018,0,0,0,0,0,0,0,-1,1119,491,1.6755,19.4018
-98,533,-1.39392,-5.16367,0,0,0,0,0,0,0,-1,1126,491,-1.39394,5.16367
-91,533,0.367432,4.49753,0,0,0,0,0,0,0,-1,1133,491,0.367468,-4.49754
-84,533,-0.88623,3.03604,0,0,0,0,0,0,0,-1,1140,491,-0.886288,-3.03605
-77,533,0,0,0,0,0,0,0,0,0,-1,1147,491,0,0
-70,533,0,0,0,0,0,0,0,0,0,-1,1154,491,0,0
-63,533,0,0,0,0,0,0,0,0,0,-1,1161,491,0,0
-56,533,0,0,0,0,0,0,0,0,0,-1,1168,491,0,0
-49,533,0,0,0,0,0,0,0,0,0,-1,1175,491,0,0
-42,533,0,0,0,0,0,0,0,0,0,-1,1182,491,0,0
-35,533,0,0,0,0,0,0,0,0,0,-1,1189,491,0,0
-28,533,0,0,0,0,0,0,0,0,0,-1,1196,491,0,0
-21,533,0,0,0,0,0,0,0,0,0,-1,1203,491,0,0
-14,533,0,0,0,0,0,0,0,0,0,-1,1210,491,0,0
-7,533,0,0,0,0,0,0,0,0,0,-1,1217,491,0,0
0,533,0,0,0,0,0,0,0,0,0,-1,1224,491,0,0
7,533,0,0,0,0,0,0,0,0,0,-1,1231,491,0,0
14,533,0,0,0,0,0,0,0,0,0,-1,1238,491,0,0
21,533,0,0,0,0,0,0,0,0,0,-1,1245,491,0,0
28,533,0,0,0,0,0,0,0,0,0,-1,1252,491,0,0
35,533,0,0,0,0,0,0,0,0,0,-1,1259,491,0,0
42,533,0,0,0,0,0,0,0,0,0,-1,1266,491,0,0
49,533,0,0,0,0,0,0,0,0,0,-1,1273,491,0,0
56,533,0,0,0,0,0,0,0,0,0,-1,1280,491,0,0
63,533,0,0,0,0,0,0,0,0,0,-1,1287,491,0,0
70,533,0,0,0,0,0,0,0,0,0,-1,1294,491,0,0
77,533,0,0,0,0,0,0,0,0,0,-1,1301,491,0,0
84,533,0,0,0,0,0,0,0,0,0,-1,1308,491,0,0
91,533,0,0,0,0,0,0,0,0,0,-1,1315,491,0,0
98,533,0,0,0,0,0,0,0,0,0,-1,1322,491,0,0
105,533,0,0,0,0,0,0,0,0,0,-1,1329,491,0,0
112,533,0,0,0,0,0,0,0,0,0,-1,1336,491,0,0
119,533,0,0,0,0,0,0,0,0,0,-1,1343,491,0,0
126,533,0,0,0,0,0,0,0,0,0,-1,1350,491,0,0
133,533,0,0,0,0,0,0,0,0,0,-1,1357,491,0,0
140,533,0,0,0,0,0,0,0,0,0,-1,1364,491,0,0
147,533,0,0,0,0,0,0,0,0,0,-1,1371,491,0,0
154,533,0,0,0,0,0,0,0,0,0,-1,1378,491,0,0
161,533,0,0,0,0,0,0,0,0,0,-1,1385,491,0,0
168,533,0,0,0,0,0,0,0,0,0,-1,1392,491,0,0
175,533,0,0,0,0,0,0,0,0,0,-1,1399,491,0,0
182,533,0,0,0,0,0,0,0,0,0,-1,1406,491,0,0
189,533,0,0,0,0,0,0,0,0,0,-1,1413,491,0,0
196,533,0,0,0,0,0,0,0,0,0,-1,1420,491,0,0
203,533,3.7887,1.16193,0,0,0,0,0,0,0,-1,1427,491,3.78872,-1.16193
210,533,5.09558,-0.216034,0,0,0,0,0,0,0,-1,1434,491,5.09559,0.216028
217,533,6.91614,-2.46814,0,0,0,0,0,0,0,-1,1441,491,6.91618,2.46814
224,533,7.23621,-2.1857,0,0,0,0,0,0,0,-1,1448,491,7.23621,2.1857
231,533,7.23474,-1.92282,0,0,0,0,0,0,0,-1,1455,491,7.2347,1.92282
238,533,7.23535,-1.67258,0,0,0,0,0,0,0,-1,1462,491,7.23539,1.67258
245,533,6.86682,-1.2301,0,0,0,0,0,0,0,-1,1469,491,6.86686,1.23011
252,533,6.63354,-3.07825,0,0,0,0,0,0,0,-1,1476,491,6.6335,3.07824
259,533,6.16431,-2.35037,0,0,0,0,0,0,0,-1,1483,491,6.1643,2.35037
266,533,5.68884,-1.6214,0,0,0,0,0,0,0,-1,1490,491,5.68885,1.6214
273,533,5.21399,-0.864227,0,0,0,0,0,0,0,-1,1497,491,5.21403,0.864227
280,533,1.41089,-1.97946,0,0,0,0,0,0,0,-1,1504,491,1.41087,1.97946
287,533,1.6814,-2.44443,0,0,0,0,0,0,0,-1,1511,491,1.6814,2.44444
294,533,2.2384,-2.57626,0,0,0,0,0,0,0,-1,1518,491,2.23839,2.57625
301,533,3.39941,-4.0817,0,0,0,0,0,0,0,-1,1525,491,3.3994,4.08171
308,533,4.13733,-4.14752,0,0,0,0,0,0,0,-1,1532,491,4.13727,4.14752
315,533,4.80762,-5.29349,0,0,0,0,0,0,0,-1,1539,491,4.80762,5.29347
322,533,5.47803,-6.43942,0,0,0,0,0,0,0,-1,1546,491,5.47798,6.43943
329,533,3.88477,-3.86301,0,0,0,0,0,0,0,-1,1553,491,3.88475,3.86299
336,533,14.5214,-40.908,0,0,0,0,0,0,0,-1,1560,491,14.5214,40.908
343,533,16.3387,-44.9998,0,0,0,0,0,0,0,-1,1567,491,16.3387,44.9998
350,533,17.6749,-47.6289,0,0,0,0,0,0,0,-1,1574,491,17.6749,47.6289
357,533,18.3369,-48.1343,0,0,0,0,0,0,0,-1,1581,491,18.3369,48.1343
364,533,18.3104,-47.5567,0,0,0,0,0,0,0,-1,1588,491,18.3104,47.5567
371,533,18.0887,-46.8394,0,0,0,0,0,0,0,-1,1595,491,18.0887,46.8394
378,533,17.9935,-45.9741,0.00429161,-0.00137492,-0.00165296,0.00473854,-0.00182185,-0.264067,0.00391043,0.0492793,1602,491,17.9935,45.9741
385,533,18.1094,-45.1021,0.00413836,-2.47238e-05,-0.000578349,0.00421721,-0.000103576,-0.135505,0.00284663,0.0411809,1609,491,18.1094,45.1021
392,533,18.0421,-44.2946,0.00367045,0.000561667,-0.000132498,0.00367609,0.00055603,-0.0425178,0.00228801,0.0167905,1616,491,18.0421,44.2946
399,533,18.0325,-43.4438,0.00310727,0.00109757,9.17028e-05,0.00311144,0.0010934,0.0455042,0.00182264,0.013468,1623,491,18.0324,43.4439
406,533,17.9963,-42.5442,0.00274087,0.00145612,0.000407116,0.00285902,0.00133797,0.282439,0.00165178,0.0165555,1630,491,17.9963,42.5442
413,533,17.931,-41.611,0.00248193,0.00198119,0.000820307,0.00308923,0.0013739,0.637279,0.00178719,0.0157047,1637,491,17.931,41.6109
420,533,17.8751,-40.7062,0.00203774,0.00221129,0.00108922,0.00321719,0.00103184,0.825147,0.00189683,0.0150592,1644,491,17.8751,40.7062
427,533,17.8252,-39.8063,0.00153515,0.00228576,0.00127619,0.00324069,0.000580222,0.928408,0.00199538,0.0152719,1651,491,17.8252,39.8062
434,533,17.7629,-38.9349,0.00106061,0.00231324,0.00146208,0.0032775,9.63417e-05,0.98776,0.00215361,0.0137093,1658,491,17.763,38.9349
441,533,17.7528,-38.012,0.000641967,0.00237351,0.00173864,0.00345001,-0.000434534,1.01641,0.00245769,0.0157826,1665,491,17.7528,38.012
448,533,17.71,-37.0985,0.000220238,0.00226691,0.00194543,0.00344173,-0.000954585,1.02752,0.00267018,0.0175049,1672,491,17.71,37.0985
455,533,17.6257,-36.1494,-0.000226587,0.00221849,0.00214782,0.00346734,-0.00147543,1.04413,0.00292993,0.0174972,1679,491,17.6257,36.1494
462,533,17.5388,-35.2234,-0.000531036,0.0022472,0.00234686,0.00358524,-0.00186907,1.05262,0.00320059,0.0157873,1686,491,17.5388,35.2234
469,533,17.4808,-34.3218,-0.000713528,0.00231778,0.00259283,0.00380545,-0.00220121,1.04989,0.00350893,0.0102357,1693,491,17.4809,34.3219
476,533,17.4421,-33.3505,-0.000793721,0.00243868,0.00286093,0.00410836,-0.00246341,1.04251,0.00383363,0.0131103,1700,491,17.4421,33.3505
483,533,17.4318,-32.3611,-0.000777147,0.00268285,0.00322892,0.00461603,-0.00271032,1.03133,0.0042773,0.0233039,1707,491,17.4318,32.3611
490,533,17.4838,-31.2369,0,0,0,0,0,0,0,-1,1714,491,17.4837,31.2369
497,533,16.6541,-29.2406,0,0,0,0,0,0,0,-1,1721,491,16.654,29.2406
504,533,14.6896,-22.6455,0,0,0,0,0,0,0,-1,1728,491,14.6895,22.6455
511,533,13.6221,-19.2798,0,0,0,0,0,0,0,-1,1735,491,13.6221,19.2798
518,533,14.1954,-19.4995,0,0,0,0,0,0,0,-1,1742,491,14.1955,19.4995
525,533,13.7935,-19.6901,0,0,0,0,0,0,0,-1,1749,491,13.7934,19.6901
532,533,15.4377,-17.9016,0,0,0,0,0,0,0,-1,1756,491,15.4377,17.9015
539,533,12.8733,-18.2556,0,0,0,0,0,0,0,-1,1763,491,12.8733,18.2556
546,533,3.59607,1.65799,0,0,0,0,0,0,0,-1,1770,491,3.59605,-1.658
553,533,0,0,0,0,0,0,0,0,0,-1,1777,491,0,0
560,533,0,0,0,0,0,0,0,0,0,-1,1784,491,0,0
567,533,0,0,0,0,0,0,0,0,0,-1,1791,491,0,0
574,533,0,0,0,0,0,0,0,0,0,-1,1798,491,0,0
581,533,0,0,0,0,0,0,0,0,0,-1,1805,491,0,0
588,533,0,0,0,0,0,0,0,0,0,-1,1812,491,0,0
595,533,0,0,0,0,0,0,0,0,0,-1,1819,491,0,0
602,533,0,0,0,0,0,0,0,0,0,-1,1826,491,0,0
609,533,0,0,0,0,0,0,0,0,0,-1,1833,491,0,0
616,533,0,0,0,0,0,0,0,0,0,-1,1840,491,0,0
623,533,0,0,0,0,0,0,0,0,0,-1,1847,491,0,0
630,533,0,0,0,0,0,0,0,0,0,-1,1854,491,0,0
637,533,0,0,0,0,0,0,0,0,0,-1,1861,491,0,0
644,533,0,0,0,0,0,0,0,0,0,-1,1868,491,0,0
651,533,0,0,0,0,0,0,0,0,0,-1,1875,491,0,0
658,533,0,0,0,0,0,0,0,0,0,-1,1882,491,0,0
665,533,0,0,0,0,0,0,0,0,0,-1,1889,491,0,0
672,533,0,0,0,0,0,0,0,0,0,-1,1896,491,0,0
679,533,0,0,0,0,0,0,0,0,0,-1,1903,491,0,0
686,533,0,0,0,0,0,0,0,0,0,-1,1910,491,0,0
693,533,0,0,0,0,0,0,0,0,0,-1,1917,491,0,0
700,533,0,0,0,0,0,0,0,0,0,-1,1924,491,0,0
707,533,0,0,0,0,0,0,0,0,0,-1,1931,491,0,0
714,533,0,0,0,0,0,0,0,0,0,-1,1938,491,0,0
721,533,0,0,0,0,0,0,0,0,0,-1,1945,491,0,0
728,533,0,0,0,0,0,0,0,0,0,-1,1952,491,0,0
735,533,0,0,0,0,0,0,0,0,0,-1,1959,491,0,0
742,533,0,0,0,0,0,0,0,0,0,-1,1966,491,0,0
749,533,0,0,0,0,0,0,0,0,0,-1,1973,491,0,0
756,533,0,0,0,0,0,0,0,0,0,-1,1980,491,0,0
763,533,0,0,0,0,0,0,0,0,0,-1,1987,491,0,0
770,533,0,0,0,0,0,0,0,0,0,-1,1994,491,0,0
777,533,0,0,0,0,0,0,0,0,0,-1,2001,491,0,0
784,533,0,0,0,0,0,0,0,0,0,-1,2008,491,0,0
791,533,0,0,0,0,0,0,0,0,0,-1,2015,491,0,0
798,533,0,0,0,0,0,0,0,0,0,-1,2022,491,0,0
805,533,0,0,0,0,0,0,0,0,0,-1,2029,491,0,0
812,533,0,0,0,0,0,0,0,0,0,-1,2036,491,0,0
-700,526,0,0,0,0,0,0,0,0,0,-1,524,498,0,0
-693,526,0,0,0,0,0,0,0,0,0,-1,531,498,0,0
-686,526,0,0,0,0,0,0,0,0,0,-1,538,498,0,0
-679,526,0,0,0,0,0,0,0,0,0,-1,545,498,0,0
-672,526,0,0,0,0,0,0,0,0,0,-1,552,498,0,0
-665,526,0,0,0,0,0,0,0,0,0,-1,559,498,0,0
-658,526,0,0,0,0,0,0,0,0,0,-1,566,498,0,0
-651,526,0,0,0,0,0,0,0,0,0,-1,573,498,0,0
-644,526,0,0,0,0,0,0,0,0,0,-1,580,498,0,0
-637,526,0,0,0,0,0,0,0,0,0,-1,587,498,0,0
-630,526,0,0,0,0,0,0,0,0,0,-1,594,498,0,0
-623,526,0,0,0,0,0,0,0,0,0,-1,601,498,0,0
-616,526,0,0,0,0,0,0,0,0,0,-1,608,498,0,0
-609,526,0,0,0,0,0,0,0,0,0,-1,615,498,0,0
-602,526,0,0,0,0,0,0,0,0,0,-1,622,498,0,0
-595,526,0,0,0,0,0,0,0,0,0,-1,629,498,0,0
-588,526,0,0,0,0,0,0,0,0,0,-1,636,498,0,0
-581,526,0,0,0,0,0,0,0,0,0,-1,643,498,0,0
-574,526,0,0,0,0,0,0,0,0,0,-1,650,498,0,0
-567,526,0,0,0,0,0,0,0,0,0,-1,657,498,0,0
-560,526,0,0,0,0,0,0,0,0,0,-1,664,498,0,0
-553,526,0,0,0,0,0,0,0,0,0,-1,671,498,0,0
-546,526,0,0,0,0,0,0,0,0,0,-1,678,498,0,0
-539,526,0,0,0,0,0,0,0,0,0,-1,685,498,0,0
-532,526,0,0,0,0,0,0,0,0,0,-1,692,498,0,0
-525,526,0,0,0,0,0,0,0,0,0,-1,699,498,0,0
-518,526,0,0,0,0,0,0,0,0,0,-1,706,498,0,0
-511,526,0,0,0,0,0,0,0,0,0,-1,713,498,0,0
-504,526,0,0,0,0,0,0,0,0,0,-1,720,498,0,0
-497,526,0,0,0,0,0,0,0,0,0,-1,727,498,0,0
-490,526,0,0,0,0,0,0,0,0,0,-1,734,498,0,0
-483,526,0,0,0,0,0,0,0,0,0,-1,741,498,0,0
-476,526,0,0,0,0,0,0,0,0,0,-1,748,498,0,0
-469,526,0,0,0,0,0,0,0,0,0,-1,755,498,0,0
-462,526,0,0,0,0,0,0,0,0,0,-1,762,498,0,0
-455,526,0,0,0,0,0,0,0,0,0,-1,769,498,0,0
-448,526,0,0,0,0,0,0,0,0,0,-1,776,498,0,0
-441,526,0,0,0,0,0,0,0,0,0,-1,783,498,0,0
-434,526,-0.153564,-5.96649,0,0,0,0,0,0,0,-1,790,498,-0.153589,5.9665
-427,526,1.23206,-4.59808,0,0,0,0,0,0,0,-1,797,498,1.23208,4.59809
-420,526,-1.76373,-11.6241,0,0,0,0,0,0,0,-1,804,498,-1.76373,11.6241
-413,526,-1.38965,-11.7916,0,0,0,0,0,0,0,-1,811,498,-1.38963,11.7916
-406,526,-1.35187,-12.5182,0,0,0,0,0,0,0,-1,818,498,-1.35185,12.5181
-399,526,-1.32715,-13.2116,0,0,0,0,0,0,0,-1,825,498,-1.32713,13.2116
-392,526,0.197571,-15.303,0,0,0,0,0,0,0,-1,832,498,0.197598,15.303
-385,526,-2.69397,-19.6176,0,0,0,0,0,0,0,-1,839,498,-2.69399,19.6176
-378,526,-1.72058,-28.8983,0,0,0,0,0,0,0,-1,846,498,-1.7206,28.8983
-371,526,-1.68719,-30.1772,0.00457262,0.024411,-0.0155937,0.032973,-0.00398932,-1.06867,0.0234253,0.0492629,853,498,-1.68716,30.1773
-364,526,-1.61127,-31.5278,0.00335495,0.0207079,-0.0129743,0.0276395,-0.00357668,-1.08012,0.0197269,0.0228337,860,498,-1.61128,31.5278
-357,526,-1.61194,-32.5778,0.00232233,0.01724,-0.0106374,0.022773,-0.00321071,-1.09116,0.0163576,0.0136659,867,498,-1.61196,32.5778
-350,526,-1.65161,-33.5514,0.00147935,0.0140114,-0.00851571,0.018318,-0.00282725,-1.10258,0.0132553,0.0131792,874,498,-1.65159,33.5514
-343,526,-1.75427,-34.5075,0.000923165,0.0110591,-0.00667382,0.0143711,-0.00238885,-1.11014,0.0104683,0.0176925,881,498,-1.75426,34.5075
-336,526,-1.81061,-35.4406,0.000533304,0.00852216,-0.00507118,0.0109831,-0.00192768,-1.11899,0.00804204,0.0174449,888,498,-1.81058,35.4406
-329,526,-1.85333,-36.3882,0.000266819,0.00635211,-0.00366209,0.00807062,-0.00145169,-1.13203,0.0059239,0.0182034,895,498,-1.85335,36.3883
-322,526,-1.90826,-37.3041,1.62847e-05,0.00425178,-0.00226526,0.00523504,-0.000966974,-1.16128,0.00385301,0.0116182,902,498,-1.90824,37.3041
-315,526,-1.9856,-38.2354,-3.08538e-05,0.0025909,-0.00113423,0.00301348,-0.000453432,-1.21416,0.00217594,0.00922113,909,498,-1.9856,38.2354
-308,526,-2.05017,-39.172,0.000150393,0.00133966,-0.000303715,0.00141273,7.73203e-05,-1.33469,0.000917136,0.00855405,916,498,-2.05018,39.172
-301,526,-2.12408,-40.0515,0.000373436,0.000200266,0.0003779,0.000674543,-0.000100841,0.672781,0.000486803,0.0105484,923,498,-2.12409,40.0515
-294,526,-2.14386,-40.9224,0.000626901,-0.000676484,0.00104158,0.00120387,-0.00125345,0.505856,0.00141883,0.0103372,930,498,-2.14387,40.9224
-287,526,-2.18323,-41.8071,0.00100442,-0.00337048,0.00164613,0.00155462,-0.00392068,0.322561,0.00325806,0.00976766,937,498,-2.18321,41.8071
-280,526,-2.25195,-42.688,0.00130211,-0.00770779,0.00227168,0.00184246,-0.00824815,0.233526,0.00620478,0.0134665,944,498,-2.25194,42.688
-273,526,-2.27063,-43.5828,0.00173829,-0.0123653,0.00306436,0.00237533,-0.0130023,0.204967,0.00955886,0.0120236,951,498,-2.2706,43.5828
-266,526,-2.30695,-44.4597,0.00236131,-0.0175847,0.00383997,0.00307504,-0.0182985,0.18377,0.0133426,0.0181283,958,498,-2.30697,44.4597
-259,526,-2.28668,-45.3254,0.00295924,-0.0240784,0.00498037,0.00384745,-0.0249666,0.176487,0.018064,0.0477731,965,498,-2.2867,45.3254
-252,526,-2.18726,-46.288,0,0,0,0,0,0,0,-1,972,498,-2.18728,46.288
-245,526,-2.383,-46.2908,0,0,0,0,0,0,0,-1,979,498,-2.38301,46.2908
-238,526,-2.02319,-46.5986,0.00351394,-0.0520349,0.00984498,0.00520717,-0.0537281,0.170322,0.0376746,0.04685,986,498,-2.02319,46.5986
-231,526,-1.9939,-47.1022,0.00402711,-0.0626193,0.0117947,0.00605291,-0.0646451,0.170094,0.0452495,0.0449662,993,498,-1.99389,47.1021
-224,526,-2.1759,-48.033,0,0,0,0,0,0,0,-1,1000,498,-2.17588,48.033
-217,526,-1.73199,-48.4462,0,0,0,0,0,0,0,-1,1007,498,-1.73199,48.4462
-210,526,-1.77289,-44.7313,0,0,0,0,0,0,0,-1,1014,498,-1.77289,44.7313
-203,526,-0.659302,-18.8818,0,0,0,0,0,0,0,-1,1021,498,-0.659273,18.8818
-196,526,-0.328247,-12.179,0,0,0,0,0,0,0,-1,1028,498,-0.328238,12.179
-189,526,0.401245,-5.96826,0,0,0,0,0,0,0,-1,1035,498,0.401197,5.96826
-182,526,1.7323,-2.99405,0,0,0,0,0,0,0,-1,1042,498,1.73226,2.99404
-175,526,2.27637,-2.07983,0,0,0,0,0,0,0,-1,1049,498,2.27639,2.07984
-168,526,2.12036,-1.66049,0,0,0,0,0,0,0,-1,1056,498,2.12035,1.66048
-161,526,2.09082,-1.20572,0,0,0,0,0,0,0,-1,1063,498,2.09086,1.2057
-154,526,-1.3446,-5.37799,0,0,0,0,0,0,0,-1,1070,498,-1.34457,5.37799
-147,526,-0.472656,-6.64996,0,0,0,0,0,0,0,-1,1077,498,-0.472659,6.64997
-140,526,0.422852,-8.03339,0,0,0,0,0,0,0,-1,1084,498,0.422844,8.0334
-133,526,1.09583,-9.2215,0,0,0,0,0,0,0,-1,1091,498,1.09581,9.2215
-126,526,3.42529,-2.36053,0,0,0,0,0,0,0,-1,1098,498,3.42523,2.36052
-119,526,2.7771,-0.764099,0,0,0,0,0,0,0,-1,1105,498,2.7771,0.764107
-112,526,2.57715,-1.1893,0,0,0,0,0,0,0,-1,1112,498,2.57718,1.1893
-105,526,0,0,0,0,0,0,0,0,0,-1,1119,498,0,0
-98,526,0,0,0,0,0,0,0,0,0,-1,1126,498,0,0
-91,526,0,0,0,0,0,0,0,0,0,-1,1133,498,0,0
-84,526,0,0,0,0,0,0,0,0,0,-1,1140,498,0,0
-77,526,0,0,0,0,0,0,0,0,0,-1,1147,498,0,0
-70,526,0,0,0,0,0,0,0,0,0,-1,1154,498,0,0
-63,526,0,0,0,0,0,0,0,0,0,-1,1161,498,0,0
-56,526,0,0,0,0,0,0,0,0,0,-1,1168,498,0,0
-49,526,0,0,0,0,0,0,0,0,0,-1,1175,498,0,0
-42,526,0,0,0,0,0,0,0,0,0,-1,1182,498,0,0
-35,526,0,0,0,0,0,0,0,0,0,-1,1189,498,0,0
-28,526,0,0,0,0,0,0,0,0,0,-1,1196,498,0,0
-21,526,0,0,0,0,0,0,0,0,0,-1,1203,498,0,0
-14,526,0,0,0,0,0,0,0,0,0,-1,1210,498,0,0
-7,526,0,0,0,0,0,0,0,0,0,-1,1217,498,0,0
0,526,0,0,0,0,0,0,0,0,0,-1,1224,498,0,0
7,526,0,0,0,0,0,0,0,0,0,-1,1231,498,0,0
14,526,0,0,0,0,0,0,0,0,0,-1,1238,498,0,0
21,526,0,0,0,0,0,0,0,0,0,-1,1245,498,0,0
28,526,0,0,0,0,0,0,0,0,0,-1,1252,498,0,0
35,526,0,0,0,0,0,0,0,0,0,-1,1259,498,0,0
42,526,0,0,0,0,0,0,0,0,0,-1,1266,498,0,0
49,526,0,0,0,0,0,0,0,0,0,-1,1273,498,0,0
56,526,0,0,0,0,0,0,0,0,0,-1,1280,498,0,0
63,526,0,0,0,0,0,0,0,0,0,-1,1287,498,0,0
70,526,0,0,0,0,0,0,0,0,0,-1,1294,498,0,0
77,526,0,0,0,0,0,0,0,0,0,-1,1301,498,0,0
84,526,0,0,0,0,0,0,0,0,0,-1,1308,498,0,0
91,526,0,0,0,0,0,0,0,0,0,-1,1315,498,0,0
98,526,0,0,0,0,0,0,0,0,0,-1,1322,498,0,0
105,526,0,0,0,0,0,0,0,0,0,-1,1329,498,0,0
112,526,0,0,0,0,0,0,0,0,0,-1,1336,498,0,0
119,526,0,0,0,0,0,0,0,0,0,-1,1343,498,0,0
126,526,0,0,0,0,0,0,0,0,0,-1,1350,498,0,0
133,526,0,0,0,0,0,0,0,0,0,-1,1357,498,0,0
140,526,0,0,0,0,0,0,0,0,0,-1,1364,498,0,0
147,526,0,0,0,0,0,0,0,0,0,-1,1371,498,0,0
154,526,0,0,0,0,0,0,0,0,0,-1,1378,498,0,0
161,526,0,0,0,0,0,0,0,0,0,-1,1385,498,0,0
168,526,0,0,0,0,0,0,0,0,0,-1,1392,498,0,0
175,526,0,0,0,0,0,0,0,0,0,-1,1399,498,0,0
182,526,0,0,0,0,0,0,0,0,0,-1,1406,498,0,0
189,526,0,0,0,0,0,0,0,0,0,-1,1413,498,0,0
196,526,0,0,0,0,0,0,0,0,0,-1,1420,498,0,0
203,526,0,0,0,0,0,0,0,0,0,-1,1427,498,0,0
210,526,0,0,0,0,0,0,0,0,0,-1,1434,498,0,0
217,526,0,0,0,0,0,0,0,0,0,-1,1441,498,0,0
224,526,0,0,0,0,0,0,0,0,0,-1,1448,498,0,0
231,526,7.93237,-1.30618,0,0,0,0,0,0,0,-1,1455,498,7.93238,1.30618
238,526,7.97717,-1.08197,0,0,0,0,0,0,0,-1,1462,498,7.97723,1.08196
245,526,7.2793,-0.792938,0,0,0,0,0,0,0,-1,1469,498,7.27931,0.792926
252,526,6.73523,-2.23608,0,0,0,0,0,0,0,-1,1476,498,6.73525,2.23608
259,526,6.22949,-1.84967,0,0,0,0,0,0,0,-1,1483,498,6.22953,1.84968
266,526,5.72375,-1.46329,0,0,0,0,0,0,0,-1,1490,498,5.72381,1.46328
273,526,4.33984,0.49173,0,0,0,0,0,0,0,-1,1497,498,4.33979,-0.491727
280,526,1.4585,-1.59897,0,0,0,0,0,0,0,-1,1504,498,1.45846,1.59895
287,526,1.46411,-2.40134,0,0,0,0,0,0,0,-1,1511,498,1.46406,2.40133
294,526,5.57471,-4.59085,0,0,0,0,0,0,0,-1,1518,498,5.57466,4.59084
301,526,4.42786,-3.99677,0,0,0,0,0,0,0,-1,1525,498,4.42788,3.99676
308,526,5.79529,-4.19366,0,0,0,0,0,0,0,-1,1532,498,5.79528,4.19368
315,526,5.09851,-5.20068,0,0,0,0,0,0,0,-1,1539,498,5.09851,5.20068
322,526,5.50708,-4.72348,0,0,0,0,0,0,0,-1,1546,498,5.50713,4.72347
329,526,3.88672,-4.345,0,0,0,0,0,0,0,-1,1553,498,3.88674,4.34501
336,526,4.97876,-2.23828,0,0,0,0,0,0,0,-1,1560,498,4.97877,2.23828
343,526,3.31665,-2.69696,0,0,0,0,0,0,0,-1,1567,498,3.31667,2.69696
350,526,6.06287,-6.12015,0,0,0,0,0,0,0,-1,1574,498,6.06286,6.12014
357,526,18.325,-47.38,0,0,0,0,0,0,0,-1,1581,498,18.325,47.38
364,526,19.3511,-47.663,0,0,0,0,0,0,0,-1,1588,498,19.3511,47.6629
371,526,12.4481,-29.0131,0,0,0,0,0,0,0,-1,1595,498,12.4481,29.0131
378,526,18.5414,-46.6567,0,0,0,0,0,0,0,-1,1602,498,18.5413,46.6567
385,526,18.8586,-45.2877,0,0,0,0,0,0,0,-1,1609,498,18.8586,45.2877
392,526,18.8733,-44.3661,0,0,0,0,0,0,0,-1,1616,498,18.8733,44.3661
399,526,18.8584,-43.384,0.00380729,0.00156245,-8.79626e-06,0.00380733,0.00156241,-0.00391835,0.0022099,0.0325507,1623,498,18.8584,43.3839
406,526,18.859,-42.4402,0.00338471,0.00170595,0.000206211,0.00340967,0.00168099,0.12045,0.00196864,0.0138614,1630,498,18.859,42.4403
413,526,18.8217,-41.5461,0.00314866,0.00210564,0.00059417,0.00341772,0.00183657,0.425216,0.00197506,0.0136015,1637,498,18.8216,41.5461
420,526,18.7676,-40.6671,0.00268881,0.00221443,0.000831766,0.00331654,0.00158669,0.646502,0.0019154,0.0143455,1644,498,18.7676,40.6671
427,526,18.7274,-39.7653,0.00214676,0.00220037,0.0009703,0.00314424,0.0012029,0.799207,0.00183194,0.0144427,1651,498,18.7274,39.7652
434,526,18.6691,-38.8748,0.00160396,0.00214882,0.00109007,0.00299999,0.000752793,0.907849,0.00180225,0.0118565,1658,498,18.669,38.8748
441,526,18.6034,-37.9491,0.00119289,0.00213854,0.00132509,0.00307263,0.000258793,0.956769,0.00196784,0.0112658,1665,498,18.6033,37.9491
448,526,18.5741,-37.0496,0.000820582,0.00200651,0.00151376,0.0030393,-0.000212211,0.97207,0.00210051,0.0116201,1672,498,18.5741,37.0496
455,526,18.5175,-36.137,0.000440147,0.00197321,0.00170647,0.00307741,-0.000664048,0.996489,0.00230506,0.0154204,1679,498,18.5175,36.137
462,526,18.462,-35.2042,0.000202689,0.00202346,0.00190827,0.00322738,-0.00100123,1.00797,0.00255167,0.0117916,1686,498,18.462,35.2042
469,526,18.423,-34.2861,9.27206e-05,0.00213757,0.00218113,0.00352402,-0.00129373,1.00457,0.00287916,0.0085905,1693,498,18.423,34.2861
476,526,18.3676,-33.3304,6.56209e-05,0.00231004,0.00248744,0.0039167,-0.00154104,0.997303,0.00324901,0.0101272,1700,498,18.3675,33.3304
483,526,18.3153,-32.3192,0.00013362,0.00256752,0.00289506,0.00449101,-0.00178986,0.984363,0.00373637,0.0144374,1707,498,18.3153,32.3192
490,526,18.3217,-31.2417,0.000369449,0.00287441,0.00350841,0.0053472,-0.00210334,0.956844,0.0044354,0.0378698,1714,498,18.3217,31.2417
497,526,18.3666,-30.2541,0,0,0,0,0,0,0,-1,1721,498,18.3666,30.2541
504,526,17.8074,-28.809,0,0,0,0,0,0,0,-1,1728,498,17.8073,28.809
511,526,16.8915,-24.8813,0,0,0,0,0,0,0,-1,1735,498,16.8914,24.8813
518,526,14.7889,-20.4046,0,0,0,0,0,0,0,-1,1742,498,14.7889,20.4046
525,526,14.7009,-19.7487,0,0,0,0,0,0,0,-1,1749,498,14.7009,19.7486
532,526,15.7457,-17.9624,0,0,0,0,0,0,0,-1,1756,498,15.7458,17.9624
539,526,16.1064,-16.42,0,0,0,0,0,0,0,-1,1763,498,16.1065,16.42
546,526,12.4675,-17.1617,0,0,0,0,0,0,0,-1,1770,498,12.4675,17.1617
553,526,3.40796,1.37137,0,0,0,0,0,0,0,-1,1777,498,3.40792,-1.37138
560,526,0,0,0,0,0,0,0,0,0,-1,1784,498,0,0
567,526,0,0,0,0,0,0,0,0,0,-1,1791,498,0,0
574,526,0,0,0,0,0,0,0,0,0,-1,1798,498,0,0
581,526,0,0,0,0,0,0,0,0,0,-1,1805,498,0,0
588,526,0,0,0,0,0,0,0,0,0,-1,1812,498,0,0
595,526,0,0,0,0,0,0,0,0,0,-1,1819,498,0,0
602,526,0,0,0,0,0,0,0,0,0,-1,1826,498,0,0
609,526,0,0,0,0,0,0,0,0,0,-1,1833,498,0,0
616,526,0,0,0,0,0,0,0,0,0,-1,1840,498,0,0
623,526,0,0,0,0,0,0,0,0,0,-1,1847,498,0,0
630,526,0,0,0,0,0,0,0,0,0,-1,1854,498,0,0
637,526,0,0,0,0,0,0,0,0,0,-1,1861,498,0,0
644,526,0,0,0,0,0,0,0,0,0,-1,1868,498,0,0
651,526,0,0,0,0,0,0,0,0,0,-1,1875,498,0,0
658,526,0,0,0,0,0,0,0,0,0,-1,1882,498,0,0
665,526,0,0,0,0,0,0,0,0,0,-1,1889,498,0,0
672,526,0,0,0,0,0,0,0,0,0,-1,1896,498,0,0
679,526,0,0,0,0,0,0,0,0,0,-1,1903,498,0,0
686,526,0,0,0,0,0,0,0,0,0,-1,1910,498,0,0
693,526,0,0,0,0,0,0,0,0,0,-1,1917,498,0,0
700,526,0,0,0,0,0,0,0,0,0,-1,1924,498,0,0
707,526,0,0,0,0,0,0,0,0,0,-1,1931,498,0,0
714,526,0,0,0,0,0,0,0,0,0,-1,1938,498,0,0
721,526,0,0,0,0,0,0,0,0,0,-1,1945,498,0,0
728,526,0,0,0,0,0,0,0,0,0,-1,1952,498,0,0
735,526,0,0,0,0,0,0,0,0,0,-1,1959,498,0,0
742,526,0,0,0,0,0,0,0,0,0,-1,1966,498,0,0
749,526,0,0,0,0,0,0,0,0,0,-1,1973,498,0,0
756,526,0,0,0,0,0,0,0,0,0,-1,1980,498,0,0
763,526,0,0,0,0,0,0,0,0,0,-1,1987,498,0,0
770,526,0,0,0,0,0,0,0,0,0,-1,1994,498,0,0
777,526,0,0,0,0,0,0,0,0,0,-1,2001,498,0,0
784,526,0,0,0,0,0,0,0,0,0,-1,2008,498,0,0
791,526,0,0,0,0,0,0,0,0,0,-1,2015,498,0,0
798,526,0,0,0,0,0,0,0,0,0,-1,2022,498,0,0
805,526,0,0,0,0,0,0,0,0,0,-1,2029,498,0,0
812,526,0,0,0,0,0,0,0,0,0,-1,2036,498,0,0
-700,519,0,0,0,0,0,0,0,0,0,-1,524,505,0,0
-693,519,0,0,0,0,0,0,0,0,0,-1,531,505,0,0
-686,519,0,0,0,0,0,0,0,0,0,-1,538,505,0,0
-679,519,0,0,0,0,0,0,0,0,0,-1,545,505,0,0
-672,519,0,0,0,0,0,0,0,0,0,-1,552,505,0,0
-665,519,0,0,0,0,0,0,0,0,0,-1,559,505,0,0
-658,519,0,0,0,0,0,0,0,0,0,-1,566,505,0,0
-651,519,0,0,0,0,0,0,0,0,0,-1,573,505,0,0
-644,519,0,0,0,0,0,0,0,0,0,-1,580,505,0,0
-637,519,0,0,0,0,0,0,0,0,0,-1,587,505,0,0
-630,519,0,0,0,0,0,0,0,0,0,-1,594,505,0,0
-623,519,0,0,0,0,0,0,0,0,0,-1,601,505,0,0
-616,519,0,0,0,0,0,0,0,0,0,-1,608,505,0,0
-609,519,0,0,0,0,0,0,0,0,0,-1,615,505,0,0
-602,519,0,0,0,0,0,0,0,0,0,-1,622,505,0,0
-595,519,0,0,0,0,0,0,0,0,0,-1,629,505,0,0
-588,519,0,0,0,0,0,0,0,0,0,-1,636,505,0,0
-581,519,0,0,0,0,0,0,0,0,0,-1,643,505,0,0
-574,519,0,0,0,0,0,0,0,0,0,-1,650,505,0,0
-567,519,0,0,0,0,0,0,0,0,0,-1,657,505,0,0
-560,519,0,0,0,0,0,0,0,0,0,-1,664,505,0,0
-553,519,0,0,0,0,0,0,0,0,0,-1,671,505,0,0
-546,519,0,0,0,0,0,0,0,0,0,-1,678,505,0,0
-539,519,0,0,0,0,0,0,0,0,0,-1,685,505,0,0
-532,519,0,0,0,0,0,0,0,0,0,-1,692,505,0,0
-525,519,0,0,0,0,0,0,0,0,0,-1,699,505,0,0
-518,519,0,0,0,0,0,0,0,0,0,-1,706,505,0,0
-511,519,0,0,0,0,0,0,0,0,0,-1,713,505,0,0
-504,519,0,0,0,0,0,0,0,0,0,-1,720,505,0,0
-497,519,0,0,0,0,0,0,0,0,0,-1,727,505,0,0
-490,519,0,0,0,0,0,0,0,0,0,-1,734,505,0,0
-483,519,0,0,0,0,0,0,0,0,0,-1,741,505,0,0
-476,519,0,0,0,0,0,0,0,0,0,-1,748,505,0,0
-469,519,0,0,0,0,0,0,0,0,0,-1,755,505,0,0
-462,519,0,0,0,0,0,0,0,0,0,-1,762,505,0,0
-455,519,0,0,0,0,0,0,0,0,0,-1,769,505,0,0
-448,519,0,0,0,0,0,0,0,0,0,-1,776,505,0,0
-441,519,1.34839,-5.29346,0,0,0,0,0,0,0,-1,783,505,1.3484,5.29347
-434,519,0.949585,-5.77313,0,0,0,0,0,0,0,-1,790,505,0.949598,5.77315
-427,519,-0.0523682,-9.31567,0,0,0,0,0,0,0,-1,797,505,-0.0523854,9.31568
-420,519,-2.38867,-12.1938,0,0,0,0,0,0,0,-1,804,505,-2.38867,12.1938
-413,519,-2.2298,-12.4998,0,0,0,0,0,0,0,-1,811,505,-2.22979,12.4998
-406,519,-1.44373,-12.3475,0,0,0,0,0,0,0,-1,818,505,-1.44376,12.3475
-399,519,-1.60516,-15.0849,0,0,0,0,0,0,0,-1,825,505,-1.60518,15.0849
-392,519,-1.94183,-24.8959,0,0,0,0,0,0,0,-1,832,505,-1.94183,24.8958
-385,519,-2.30457,-28.597,0,0,0,0,0,0,0,-1,839,505,-2.30455,28.597
-378,519,-2.70935,-29.1397,0.00483037,0.0222113,-0.0144053,0.0303445,-0.00330284,-1.05681,0.0214157,0.0422891,846,505,-2.70935,29.1397
-371,519,-2.46667,-30.4463,0.00396128,0.0188628,-0.0124243,0.0258992,-0.00307509,-1.05549,0.0183771,0.0209769,853,505,-2.46667,30.4463
-364,519,-2.47968,-31.5444,0.00307851,0.0158211,-0.010344,0.0215986,-0.00269891,-1.06143,0.0153778,0.0123843,860,505,-2.47966,31.5444
-357,519,-2.52069,-32.5691,0.00230797,0.0130198,-0.00842323,0.0176457,-0.00231792,-1.06858,0.0126077,0.0111809,867,505,-2.52072,32.5691
-350,519,-2.57489,-33.5092,0.00167335,0.0103761,-0.00665149,0.0139731,-0.00192366,-1.07506,0.0100184,0.0132352,874,505,-2.57486,33.5092
-343,519,-2.68237,-34.4095,0.00123325,0.00787548,-0.00506854,0.0106141,-0.00150533,-1.07542,0.00762749,0.0172522,881,505,-2.68236,34.4095
-336,519,-2.76611,-35.3447,0.000873656,0.00568085,-0.00363863,0.00763809,-0.00108359,-1.07729,0.00548903,0.0176659,888,505,-2.76609,35.3447
-329,519,-2.77814,-36.315,0.000616293,0.00379744,-0.00236913,0.0050604,-0.000646673,-1.08103,0.00360853,0.0157304,895,505,-2.77813,36.315
-322,519,-2.81995,-37.2415,0.000397004,0.00198583,-0.00111895,0.00256369,-0.000180857,-1.09409,0.00177249,0.012368,902,505,-2.81996,37.2415
-315,519,-2.88904,-38.1705,0.000375559,0.000587467,-0.000114165,0.000637269,0.000325757,-1.15945,0.000367958,0.00925064,909,505,-2.88906,38.1705
-308,519,-2.95313,-39.1187,0.000542713,-0.000458305,0.000643029,0.000857063,-0.000772655,0.454695,0.000941339,0.0079953,916,505,-2.9531,39.1187
-301,519,-3.02478,-40.0037,0.000677023,-0.00126075,0.00129146,0.00132263,-0.00190636,0.463575,0.00187439,0.0126992,923,505,-3.0248,40.0037
-294,519,-3.04565,-40.8526,0.000849834,-0.00186835,0.00190924,0.00183432,-0.00285283,0.476082,0.00272734,0.0157211,930,505,-3.04567,40.8526
-287,519,-3.10822,-41.7562,0.00120389,-0.00488719,0.00246225,0.00207473,-0.00575803,0.339944,0.00468595,0.0115813,937,505,-3.10823,41.7562
-280,519,-3.18158,-42.6586,0.00145211,-0.0102027,0.00310996,0.00223004,-0.0109806,0.245114,0.00816588,0.0265146,944,505,-3.18156,42.6586
-273,519,-3.20197,-43.6981,0,0,0,0,0,0,0,-1,951,505,-3.20195,43.6981
-266,519,-3.22308,-44.5401,0,0,0,0,0,0,0,-1,958,505,-3.2231,44.5401
-259,519,-3.05994,-45.5776,0,0,0,0,0,0,0,-1,965,505,-3.05994,45.5777
-252,519,-1.84009,-26.8372,0,0,0,0,0,0,0,-1,972,505,-1.8401,26.8372
-245,519,-1.23254,-23.2696,0,0,0,0,0,0,0,-1,979,505,-1.23256,23.2696
-238,519,-2.53619,-45.4996,0,0,0,0,0,0,0,-1,986,505,-2.53617,45.4996
-231,519,-2.49878,-46.1176,0,0,0,0,0,0,0,-1,993,505,-2.4988,46.1176
-224,519,-3.33752,-42.7635,0,0,0,0,0,0,0,-1,1000,505,-3.33753,42.7635
-217,519,-2.87396,-38.149,0,0,0,0,0,0,0,-1,1007,505,-2.87394,38.149
-210,519,-0.883362,-34.799,0,0,0,0,0,0,0,-1,1014,505,-0.883379,34.799
-203,519,-0.513611,-5.39017,0,0,0,0,0,0,0,-1,1021,505,-0.513585,5.39017
-196,519,-0.374023,-5.41635,0,0,0,0,0,0,0,-1,1028,505,-0.374047,5.41635
-189,519,-0.234497,-5.44254,0,0,0,0,0,0,0,-1,1035,505,-0.234508,5.44253
-182,519,2.76697,-1.19659,0,0,0,0,0,0,0,-1,1042,505,2.76696,1.19661
-175,519,2.31323,-0.960938,0,0,0,0,0,0,0,-1,1049,505,2.31319,0.960941
-168,519,2.01074,-0.721405,0,0,0,0,0,0,0,-1,1056,505,2.01072,0.721407
-161,519,2.32056,-0.522339,0,0,0,0,0,0,0,-1,1063,505,2.32057,0.522328
-154,519,2.55566,0.116669,0,0,0,0,0,0,0,-1,1070,505,2.55563,-0.116661
-147,519,-0.55127,-6.14001,0,0,0,0,0,0,0,-1,1077,505,-0.551252,6.14001
-140,519,0.240601,-7.53503,0,0,0,0,0,0,0,-1,1084,505,0.240653,7.53501
-133,519,2.70911,-4.4516,0,0,0,0,0,0,0,-1,1091,505,2.70915,4.45161
-126,519,0,0,0,0,0,0,0,0,0,-1,1098,505,0,0
-119,519,0,0,0,0,0,0,0,0,0,-1,1105,505,0,0
-112,519,0,0,0,0,0,0,0,0,0,-1,1112,505,0,0
-105,519,0,0,0,0,0,0,0,0,0,-1,1119,505,0,0
-98,519,0,0,0,0,0,0,0,0,0,-1,1126,505,0,0
-91,519,0,0,0,0,0,0,0,0,0,-1,1133,505,0,0
-84,519,0,0,0,0,0,0,0,0,0,-1,1140,505,0,0
-77,519,0,0,0,0,0,0,0,0,0,-1,1147,505,0,0
-70,519,0,0,0,0,0,0,0,0,0,-1,1154,505,0,0
-63,519,0,0,0,0,0,0,0,0,0,-1,1161,505,0,0
-56,519,0,0,0,0,0,0,0,0,0,-1,1168,505,0,0
-49,519,0,0,0,0,0,0,0,0,0,-1,1175,505,0,0
-42,519,0,0,0,0,0,0,0,0,0,-1,1182,505,0,0
-35,519,0,0,0,0,0,0,0,0,0,-1,1189,505,0,0
-28,519,0,0,0,0,0,0,0,0,0,-1,1196,505,0,0
-21,519,0,0,0,0,0,0,0,0,0,-1,1203,505,0,0
-14,519,0,0,0,0,0,0,0,0,0,-1,1210,505,0,0
-7,519,0,0,0,0,0,0,0,0,0,-1,1217,505,0,0
0,519,0,0,0,0,0,0,0,0,0,-1,1224,505,0,0
7,519,0,0,0,0,0,0,0,0,0,-1,1231,505,0,0
14,519,0,0,0,0,0,0,0,0,0,-1,1238,505,0,0
21,519,0,0,0,0,0,0,0,0,0,-1,1245,505,0,0
28,519,0,0,0,0,0,0,0,0,0,-1,1252,505,0,0
35,519,0,0,0,0,0,0,0,0,0,-1,1259,505,0,0
42,519,0,0,0,0,0,0,0,0,0,-1,1266,505,0,0
49,519,0,0,0,0,0,0,0,0,0,-1,1273,505,0,0
56,519,0,0,0,0,0,0,0,0,0,-1,1280,505,0,0
63,519,0,0,0,0,0,0,0,0,0,-1,1287,505,0,0
70,519,0,0,0,0,0,0,0,0,0,-1,1294,505,0,0
77,519,0,0,0,0,0,0,0,0,0,-1,1301,505,0,0
84,519,0,0,0,0,0,0,0,0,0,-1,1308,505,0,0
91,519,0,0,0,0,0,0,0,0,0,-1,1315,505,0,0
98,519,0,0,0,0,0,0,0,0,0,-1,1322,505,0,0
105,519,0,0,0,0,0,0,0,0,0,-1,1329,505,0,0
112,519,0,0,0,0,0,0,0,0,0,-1,1336,505,0,0
119,519,0,0,0,0,0,0,0,0,0,-1,1343,505,0,0
126,519,0,0,0,0,0,0,0,0,0,-1,1350,505,0,0
133,519,0,0,0,0,0,0,0,0,0,-1,1357,505,0,0
140,519,0,0,0,0,0,0,0,0,0,-1,1364,505,0,0
147,519,0,0,0,0,0,0,0,0,0,-1,1371,505,0,0
154,519,0,0,0,0,0,0,0,0,0,-1,1378,505,0,0
161,519,0,0,0,0,0,0,0,0,0,-1,1385,505,0,0
168,519,0,0,0,0,0,0,0,0,0,-1,1392,505,0,0
175,519,0,0,0,0,0,0,0,0,0,-1,1399,505,0,0
182,519,0,0,0,0,0,0,0,0,0,-1,1406,505,0,0
189,519,0,0,0,0,0,0,0,0,0,-1,1413,505,0,0
196,519,0,0,0,0,0,0,0,0,0,-1,1420,505,0,0
203,519,0,0,0,0,0,0,0,0,0,-1,1427,505,0,0
210,519,0,0,0,0,0,0,0,0,0,-1,1434,505,0,0
217,519,0,0,0,0,0,0,0,0,0,-1,1441,505,0,0
224,519,0,0,0,0,0,0,0,0,0,-1,1448,505,0,0
231,519,0,0,0,0,0,0,0,0,0,-1,1455,505,0,0
238,519,0,0,0,0,0,0,0,0,0,-1,1462,505,0,0
245,519,0,0,0,0,0,0,0,0,0,-1,1469,505,0,0
252,519,5.26208,0.0938416,0,0,0,0,0,0,0,-1,1476,505,5.26207,-0.0938493
259,519,6.14246,-1.36441,0,0,0,0,0,0,0,-1,1483,505,6.14241,1.36441
266,519,5.31909,-0.400787,0,0,0,0,0,0,0,-1,1490,505,5.31912,0.400773
273,519,4.02393,0.325531,0,0,0,0,0,0,0,-1,1497,505,4.0239,-0.325522
280,519,4.68848,0.53006,0,0,0,0,0,0,0,-1,1504,505,4.68842,-0.530073
287,519,7.9519,-3.80801,0,0,0,0,0,0,0,-1,1511,505,7.95193,3.808
294,519,6.92273,-3.38889,0,0,0,0,0,0,0,-1,1518,505,6.92268,3.38888
301,519,5.35669,-2.92661,0,0,0,0,0,0,0,-1,1525,505,5.35675,2.9266
308,519,7.37549,-5.64529,0,0,0,0,0,0,0,-1,1532,505,7.3755,5.64529
315,519,6.30029,-4.53754,0,0,0,0,0,0,0,-1,1539,505,6.30024,4.53753
322,519,5.84302,-5.45117,0,0,0,0,0,0,0,-1,1546,505,5.84303,5.45116
329,519,4.92407,0.62384,0,0,0,0,0,0,0,-1,1553,505,4.92403,-0.623832
336,519,3.10095,-0.329285,0,0,0,0,0,0,0,-1,1560,505,3.1009,0.329283
343,519,2.49146,-2.31119,0,0,0,0,0,0,0,-1,1567,505,2.49145,2.31119
350,519,3.47729,-2.22516,0,0,0,0,0,0,0,-1,1574,505,3.47726,2.22515
357,519,13.271,-29.6344,0,0,0,0,0,0,0,-1,1581,505,13.271,29.6344
364,519,12.8292,-28.3627,0,0,0,0,0,0,0,-1,1588,505,12.8292,28.3627
371,519,12.3875,-27.0911,0,0,0,0,0,0,0,-1,1595,505,12.3874,27.091
378,519,6.36597,-10.0967,0,0,0,0,0,0,0,-1,1602,505,6.36597,10.0967
385,519,6.24756,-9.72186,0,0,0,0,0,0,0,-1,1609,505,6.24752,9.72183
392,519,16.8391,-37.6736,0,0,0,0,0,0,0,-1,1616,505,16.8391,37.6737
399,519,19.5648,-43.4302,0,0,0,0,0,0,0,-1,1623,505,19.5648,43.4302
406,519,19.7323,-42.4866,0.00393655,0.00221713,-6.0691e-06,0.00393657,0.0022171,-0.00352968,0.00227882,0.0480478,1630,505,19.7324,42.4866
413,519,19.7861,-41.5491,0.00376724,0.00247674,0.000377786,0.0038697,0.00237428,0.26484,0.0022533,0.0178475,1637,505,19.7861,41.5492
420,519,19.6997,-40.6008,0.00331821,0.00243137,0.000604426,0.00362443,0.00212516,0.468931,0.00210294,0.0161065,1644,505,19.6997,40.6008
427,519,19.6676,-39.727,0.00274854,0.00228326,0.000711412,0.00326438,0.00176741,0.627373,0.00188685,0.0146701,1651,505,19.6676,39.727
434,519,19.5955,-38.8214,0.00213194,0.00211552,0.000770756,0.00289453,0.00135293,0.780072,0.00167234,0.0123496,1658,505,19.5954,38.8214
441,519,19.4968,-37.8862,0.00171607,0.00199916,0.000960945,0.00282893,0.000886304,0.85852,0.00167081,0.0118796,1665,505,19.4968,37.8862
448,519,19.4614,-36.9834,0.00137128,0.00181953,0.00113255,0.00274991,0.000440892,0.883084,0.00170542,0.0105952,1672,505,19.4615,36.9834
455,519,19.4186,-36.0975,0.00102344,0.00176611,0.00130232,0.002749,4.05457e-05,0.924279,0.0018193,0.0123013,1679,505,19.4185,36.0975
462,519,19.3673,-35.167,0.000802007,0.00180932,0.00149044,0.0028789,-0.000267574,0.948337,0.00201439,0.0116573,1686,505,19.3673,35.167
469,519,19.3455,-34.2139,0.000718262,0.00193905,0.00177237,0.00320319,-0.000545871,0.951235,0.00233875,0.0116532,1693,505,19.3455,34.2139
476,519,19.3026,-33.254,0.000703167,0.00213206,0.00209744,0.0036334,-0.000798171,0.949549,0.00272753,0.0135026,1700,505,19.3026,33.254
483,519,19.2428,-32.3035,0.000775446,0.00237593,0.00250582,0.00420619,-0.00105481,0.939957,0.00321395,0.0140046,1707,505,19.2429,32.3035
490,519,19.1588,-31.3234,0.000976513,0.00267265,0.00306583,0.00500555,-0.00135638,0.920334,0.00386923,0.0126071,1714,505,19.1588,31.3233
497,519,19.0974,-30.5134,0.00120051,0.0026744,0.00347681,0.00549151,-0.0016166,0.889832,0.00430233,0.0425769,1721,505,19.0974,30.5134
504,519,19.0415,-29.3304,0,0,0,0,0,0,0,-1,1728,505,19.0415,29.3304
511,519,19.2321,-28.0908,0,0,0,0,0,0,0,-1,1735,505,19.232,28.0908
518,519,19.2592,-27.0587,0,0,0,0,0,0,0,-1,1742,505,19.2592,27.0587
525,519,15.9647,-20.5714,0,0,0,0,0,0,0,-1,1749,505,15.9648,20.5714
532,519,15.825,-19.0025,0,0,0,0,0,0,0,-1,1756,505,15.8249,19.0025
539,519,16.5902,-16.8075,0,0,0,0,0,0,0,-1,1763,505,16.5903,16.8075
546,519,12.4001,-16.5616,0,0,0,0,0,0,0,-1,1770,505,12.4002,16.5616
553,519,4.14136,0.0667419,0,0,0,0,0,0,0,-1,1777,505,4.14141,-0.0667503
560,519,3.77856,0.279724,0,0,0,0,0,0,0,-1,1784,505,3.77861,-0.279731
567,519,0,0,0,0,0,0,0,0,0,-1,1791,505,0,0
574,519,0,0,0,0,0,0,0,0,0,-1,1798,505,0,0
581,519,0,0,0,0,0,0,0,0,0,-1,1805,505,0,0
588,519,0,0,0,0,0,0,0,0,0,-1,1812,505,0,0
595,519,0,0,0,0,0,0,0,0,0,-1,1819,505,0,0
602,519,0,0,0,0,0,0,0,0,0,-1,1826,505,0,0
609,519,0,0,0,0,0,0,0,0,0,-1,1833,505,0,0
616,519,0,0,0,0,0,0,0,0,0,-1,1840,505,0,0
623,519,0,0,0,0,0,0,0,0,0,-1,1847,505,0,0
630,519,0,0,0,0,0,0,0,0,0,-1,1854,505,0,0
637,519,0,0,0,0,0,0,0,0,0,-1,1861,505,0,0
644,519,0,0,0,0,0,0,0,0,0,-1,1868,505,0,0
651,519,0,0,0,0,0,0,0,0,0,-1,1875,505,0,0
658,519,0,0,0,0,0,0,0,0,0,-1,1882,505,0,0
665,519,0,0,0,0,0,0,0,0,0,-1,1889,505,0,0
672,519,0,0,0,0,0,0,0,0,0,-1,1896,505,0,0
679,519,0,0,0,0,0,0,0,0,0,-1,1903,505,0,0
686,519,0,0,0,0,0,0,0,0,0,-1,1910,505,0,0
693,519,0,0,0,0,0,0,0,0,0,-1,1917,505,0,0
700,519,0,0,0,0,0,0,0,0,0,-1,1924,505,0,0
707,519,0,0,0,0,0,0,0,0,0,-1,1931,505,0,0
714,519,0,0,0,0,0,0,0,0,0,-1,1938,505,0,0
721,519,0,0,0,0,0,0,0,0,0,-1,1945,505,0,0
728,519,0,0,0,0,0,0,0,0,0,-1,1952,505,0,0
735,519,0,0,0,0,0,0,0,0,0,-1,1959,505,0,0
742,519,0,0,0,0,0,0,0,0,0,-1,1966,505,0,0
749,519,0,0,0,0,0,0,0,0,0,-1,1973,505,0,0
756,519,0,0,0,0,0,0,0,0,0,-1,1980,505,0,0
763,519,0,0,0,0,0,0,0,0,0,-1,1987,505,0,0
770,519,0,0,0,0,0,0,0,0,0,-1,1994,505,0,0
777,519,0,0,0,0,0,0,0,0,0,-1,2001,505,0,0
784,519,0,0,0,0,0,0,0,0,0,-1,2008,505,0,0
791,519,0,0,0,0,0,0,0,0,0,-1,2015,505,0,0
798,519,0,0,0,0,0,0,0,0,0,-1,2022,505,0,0
805,519,0,0,0,0,0,0,0,0,0,-1,2029,505,0,0
812,519,0,0,0,0,0,0,0,0,0,-1,2036,505,0,0
-700,512,0,0,0,0,0,0,0,0,0,-1,524,512,0,0
-693,512,0,0,0,0,0,0,0,0,0,-1,531,512,0,0
-686,512,0,0,0,0,0,0,0,0,0,-1,538,512,0,0
-679,512,0,0,0,0,0,0,0,0,0,-1,545,512,0,0
-672,512,0,0,0,0,0,0,0,0,0,-1,552,512,0,0
-665,512,0,0,0,0,0,0,0,0,0,-1,559,512,0,0
-658,512,0,0,0,0,0,0,0,0,0,-1,566,512,0,0
-651,512,0,0,0,0,0,0,0,0,0,-1,573,512,0,0
-644,512,0,0,0,0,0,0,0,0,0,-1,580,512,0,0
-637,512,0,0,0,0,0,0,0,0,0,-1,587,512,0,0
-630,512,0,0,0,0,0,0,0,0,0,-1,594,512,0,0
-623,512,0,0,0,0,0,0,0,0,0,-1,601,512,0,0
-616,512,0,0,0,0,0,0,0,0,0,-1,608,512,0,0
-609,512,0,0,0,0,0,0,0,0,0,-1,615,512,0,0
-602,512,0,0,0,0,0,0,0,0,0,-1,622,512,0,0
-595,512,0,0,0,0,0,0,0,0,0,-1,629,512,0,0
-588,512,0,0,0,0,0,0,0,0,0,-1,636,512,0,0
-581,512,0,0,0,0,0,0,0,0,0,-1,643,512,0,0
-574,512,0,0,0,0,0,0,0,0,0,-1,650,512,0,0
-567,512,0,0,0,0,0,0,0,0,0,-1,657,512,0,0
-560,512,0,0,0,0,0,0,0,0,0,-1,664,512,0,0
-553,512,0,0,0,0,0,0,0,0,0,-1,671,512,0,0
-546,512,0,0,0,0,0,0,0,0,0,-1,678,512,0,0
-539,512,0,0,0,0,0,0,0,0,0,-1,685,512,0,0
-532,512,0,0,0,0,0,0,0,0,0,-1,692,512,0,0
-525,512,0,0,0,0,0,0,0,0,0,-1,699,512,0,0
-518,512,0,0,0,0,0,0,0,0,0,-1,706,512,0,0
-511,512,0,0,0,0,0,0,0,0,0,-1,713,512,0,0
-504,512,0,0,0,0,0,0,0,0,0,-1,720,512,0,0
-497,512,0,0,0,0,0,0,0,0,0,-1,727,512,0,0
-490,512,0,0,0,0,0,0,0,0,0,-1,734,512,0,0
-483,512,0,0,0,0,0,0,0,0,0,-1,741,512,0,0
-476,512,0,0,0,0,0,0,0,0,0,-1,748,512,0,0
-469,512,0,0,0,0,0,0,0,0,0,-1,755,512,0,0
-462,512,0,0,0,0,0,0,0,0,0,-1,762,512,0,0
-455,512,0,0,0,0,0,0,0,0,0,-1,769,512,0,0
-448,512,1.96283,-4.15674,0,0,0,0,0,0,0,-1,776,512,1.96285,4.15677
-441,512,1.78198,-4.88824,0,0,0,0,0,0,0,-1,783,512,1.78201,4.88826
-434,512,0.0726929,-9.85822,0,0,0,0,0,0,0,-1,790,512,0.0727008,9.85819
-427,512,-0.384583,-9.94824,0,0,0,0,0,0,0,-1,797,512,-0.384552,9.94823
-420,512,-2.93219,-12.4855,0,0,0,0,0,0,0,-1,804,512,-2.93219,12.4855
-413,512,-2.22711,-11.4485,0,0,0,0,0,0,0,-1,811,512,-2.22712,11.4485
-406,512,-2.38037,-13.5743,0,0,0,0,0,0,0,-1,818,512,-2.38034,13.5743
-399,512,-3.13367,-23.934,0,0,0,0,0,0,0,-1,825,512,-3.13368,23.934
-392,512,-3.1651,-27.6219,0,0,0,0,0,0,0,-1,832,512,-3.1651,27.6219
-385,512,-3.23438,-28.5894,0.00431483,0.0194175,-0.0126691,0.026615,-0.00288273,-1.05415,0.0187782,0.0258912,839,512,-3.23439,28.5894
-378,512,-3.29169,-29.5244,0.00375477,0.0167356,-0.011116,0.0231172,-0.00262691,-1.04964,0.0163576,0.0201833,846,512,-3.29169,29.5243
-371,512,-3.34198,-30.53,0.00323834,0.0140873,-0.00961012,0.0196982,-0.00237256,-1.04233,0.0139902,0.014015,853,512,-3.342,30.53
-364,512,-3.39612,-31.5854,0.00267578,0.0115885,-0.0079725,0.0162656,-0.00200132,-1.04025,0.0115687,0.00985074,860,512,-3.39613,31.5854
-357,512,-3.46558,-32.5303,0.00217198,0.00932487,-0.00641281,0.0130911,-0.00159427,-1.03977,0.00930447,0.0104806,867,512,-3.46557,32.5303
-350,512,-3.52289,-33.464,0.00175312,0.0071781,-0.00495629,0.0101156,-0.00118438,-1.03578,0.0071712,0.0116461,874,512,-3.52287,33.464
-343,512,-3.61633,-34.3894,0.00144423,0.00507694,-0.00361782,0.00730876,-0.000787596,-1.01804,0.00515513,0.0147656,881,512,-3.61636,34.3894
-336,512,-3.68909,-35.339,0.00114012,0.00318833,-0.00235741,0.00473448,-0.000406028,-0.99031,0.0033,0.0165682,888,512,-3.6891,35.339
-329,512,-3.68872,-36.2731,0.000910916,0.00156167,-0.00122114,0.00250004,-2.74471e-05,-0.915601,0.00167592,0.0182171,895,512,-3.68875,36.2731
-322,512,-3.75134,-37.1829,0.000746026,3.89047e-05,-0.000129098,0.000768858,1.60728e-05,-0.175048,0.000507299,0.0145586,902,512,-3.75136,37.1828
-315,512,-3.82349,-38.131,0.00076423,-0.00111057,0.000745844,0.00102475,-0.00137109,0.336042,0.00138804,0.0110725,909,512,-3.82348,38.131
-308,512,-3.896,-39.0556,0.000917346,-0.00199554,0.00144595,0.00151322,-0.00259141,0.390892,0.00239691,0.0107553,916,512,-3.896,39.0556
-301,512,-3.93982,-39.9404,0.000942257,-0.0025034,0.00210721,0.00194128,-0.00350242,0.442711,0.00318571,0.0155871,923,512,-3.93979,39.9404
-294,512,-3.95239,-40.7932,0.000970693,-0.00291896,0.00275716,0.00239992,-0.0043482,0.478236,0.00394978,0.0170941,930,512,-3.95239,40.7932
-287,512,-4.12402,-41.5774,0.00125264,-0.00635084,0.00331436,0.00249453,-0.00759273,0.358507,0.00606676,0.04233,937,512,-4.124,41.5774
-280,512,-4.06964,-42.649,0,0,0,0,0,0,0,-1,944,512,-4.06963,42.649
-273,512,-2.90118,-34.7153,0,0,0,0,0,0,0,-1,951,512,-2.90121,34.7153
-266,512,-2.33594,-25.9839,0,0,0,0,0,0,0,-1,958,512,-2.33592,25.9839
-259,512,-0.525452,-14.0815,0,0,0,0,0,0,0,-1,965,512,-0.525475,14.0815
-252,512,1.45941,-3.43475,0,0,0,0,0,0,0,-1,972,512,1.45938,3.43475
-245,512,-1.6731,-22.8959,0,0,0,0,0,0,0,-1,979,512,-1.67312,22.8959
-238,512,0.227051,-8.92969,0,0,0,0,0,0,0,-1,986,512,0.227073,8.92968
-231,512,-1.90576,-38.0918,0,0,0,0,0,0,0,-1,993,512,-1.90575,38.0918
-224,512,-1.29974,-33.6304,0,0,0,0,0,0,0,-1,1000,512,-1.29974,33.6304
-217,512,-0.963196,-34.1697,0,0,0,0,0,0,0,-1,1007,512,-0.963226,34.1697
-210,512,-3.76642,-1.94702,0,0,0,0,0,0,0,-1,1014,512,-3.76641,1.94702
-203,512,-2.48328,-5.19061,0,0,0,0,0,0,0,-1,1021,512,-2.48328,5.19059
-196,512,-1.14929,-4.63202,0,0,0,0,0,0,0,-1,1028,512,-1.14934,4.632
-189,512,0.197998,4.55505,0,0,0,0,0,0,0,-1,1035,512,0.197996,-4.55506
-182,512,2.73938,0.0778503,0,0,0,0,0,0,0,-1,1042,512,2.73944,-0.077852
-175,512,2.29565,0.209808,0,0,0,0,0,0,0,-1,1049,512,2.29565,-0.209813
-168,512,2.09399,-0.302856,0,0,0,0,0,0,0,-1,1056,512,2.09403,0.302826
-161,512,2.76636,0.0921021,0,0,0,0,0,0,0,-1,1063,512,2.76633,-0.0921104
-154,512,3.41382,0.466187,0,0,0,0,0,0,0,-1,1070,512,3.41382,-0.466178
-147,512,0,0,0,0,0,0,0,0,0,-1,1077,512,0,0
-140,512,0,0,0,0,0,0,0,0,0,-1,1084,512,0,0
-133,512,0,0,0,0,0,0,0,0,0,-1,1091,512,0,0
-126,512,0,0,0,0,0,0,0,0,0,-1,1098,512,0,0
-119,512,0,0,0,0,0,0,0,0,0,-1,1105,512,0,0
-112,512,0,0,0,0,0,0,0,0,0,-1,1112,512,0,0
-105,512,0,0,0,0,0,0,0,0,0,-1,1119,512,0,0
-98,512,0,0,0,0,0,0,0,0,0,-1,1126,512,0,0
-91,512,0,0,0,0,0,0,0,0,0,-1,1133,512,0,0
-84,512,0,0,0,0,0,0,0,0,0,-1,1140,512,0,0
-77,512,0,0,0,0,0,0,0,0,0,-1,1147,512,0,0
-70,512,0,0,0,0,0,0,0,0,0,-1,1154,512,0,0
-63,512,0,0,0,0,0,0,0,0,0,-1,1161,512,0,0
-56,512,0,0,0,0,0,0,0,0,0,-1,1168,512,0,0
-49,512,0,0,0,0,0,0,0,0,0,-1,1175,512,0,0
-42,512,0,0,0,0,0,0,0,0,0,-1,1182,512,0,0
-35,512,0,0,0,0,0,0,0,0,0,-1,1189,512,0,0
-28,512,0,0,0,0,0,0,0,0,0,-1,1196,512,0,0
-21,512,0,0,0,0,0,0,0,0,0,-1,1203,512,0,0
-14,512,0,0,0,0,0,0,0,0,0,-1,1210,512,0,0
-7,512,0,0,0,0,0,0,0,0,0,-1,1217,512,0,0
0,512,0,0,0,0,0,0,0,0,0,-1,1224,512,0,0
7,512,0,0,0,0,0,0,0,0,0,-1,1231,512,0,0
14,512,0,0,0,0,0,0,0,0,0,-1,1238,512,0,0
21,512,0,0,0,0,0,0,0,0,0,-1,1245,512,0,0
28,512,0,0,0,0,0,0,0,0,0,-1,1252,512,0,0
35,512,0,0,0,0,0,0,0,0,0,-1,1259,512,0,0
42,512,0,0,0,0,0,0,0,0,0,-1,1266,512,0,0
49,512,0,0,0,0,0,0,0,0,0,-1,1273,512,0,0
56,512,0,0,0,0,0,0,0,0,0,-1,1280,512,0,0
63,512,0,0,0,0,0,0,0,0,0,-1,1287,512,0,0
70,512,0,0,0,0,0,0,0,0,0,-1,1294,512,0,0
77,512,0,0,0,0,0,0,0,0,0,-1,1301,512,0,0
84,512,0,0,0,0,0,0,0,0,0,-1,1308,512,0,0
91,512,0,0,0,0,0,0,0,0,0,-1,1315,512,0,0
98,512,0,0,0,0,0,0,0,0,0,-1,1322,512,0,0
105,512,0,0,0,0,0,0,0,0,0,-1,1329,512,0,0
112,512,0,0,0,0,0,0,0,0,0,-1,1336,512,0,0
119,512,0,0,0,0,0,0,0,0,0,-1,1343,512,0,0
126,512,0,0,0,0,0,0,0,0,0,-1,1350,512,0,0
133,512,0,0,0,0,0,0,0,0,0,-1,1357,512,0,0
140,512,0,0,0,0,0,0,0,0,0,-1,1364,512,0,0
147,512,0,0,0,0,0,0,0,0,0,-1,1371,512,0,0
154,512,0,0,0,0,0,0,0,0,0,-1,1378,512,0,0
161,512,0,0,0,0,0,0,0,0,0,-1,1385,512,0,0
168,512,0,0,0,0,0,0,0,0,0,-1,1392,512,0,0
175,512,0,0,0,0,0,0,0,0,0,-1,1399,512,0,0
182,512,0,0,0,0,0,0,0,0,0,-1,1406,512,0,0
189,512,0,0,0,0,0,0,0,0,0,-1,1413,512,0,0
196,512,0,0,0,0,0,0,0,0,0,-1,1420,512,0,0
203,512,0,0,0,0,0,0,0,0,0,-1,1427,512,0,0
210,512,0,0,0,0,0,0,0,0,0,-1,1434,512,0,0
217,512,0,0,0,0,0,0,0,0,0,-1,1441,512,0,0
224,512,0,0,0,0,0,0,0,0,0,-1,1448,512,0,0
231,512,0,0,0,0,0,0,0,0,0,-1,1455,512,0,0
238,512,0,0,0,0,0,0,0,0,0,-1,1462,512,0,0
245,512,0,0,0,0,0,0,0,0,0,-1,1469,512,0,0
252,512,0,0,0,0,0,0,0,0,0,-1,1476,512,0,0
259,512,0,0,0,0,0,0,0,0,0,-1,1483,512,0,0
266,512,0,0,0,0,0,0,0,0,0,-1,1490,512,0,0
273,512,4.00745,0.618622,0,0,0,0,0,0,0,-1,1497,512,4.00747,-0.618611
280,512,4.49609,0.649841,0,0,0,0,0,0,0,-1,1504,512,4.49612,-0.649834
287,512,4.77234,0.458069,0,0,0,0,0,0,0,-1,1511,512,4.77233,-0.458083
294,512,8.54956,-2.36273,0,0,0,0,0,0,0,-1,1518,512,8.54952,2.36274
301,512,6.302,-1.69092,0,0,0,0,0,0,0,-1,1525,512,6.30196,1.69093
308,512,8.2439,-6.22754,0,0,0,0,0,0,0,-1,1532,512,8.24394,6.22757
315,512,7.53687,-6.04211,0,0,0,0,0,0,0,-1,1539,512,7.53691,6.04211
322,512,6.82983,-5.85663,0,0,0,0,0,0,0,-1,1546,512,6.82988,5.85666
329,512,4.38147,-0.329651,0,0,0,0,0,0,0,-1,1553,512,4.38144,0.329662
336,512,4.41467,-0.741455,0,0,0,0,0,0,0,-1,1560,512,4.41467,0.741442
343,512,4.44727,-1.21667,0,0,0,0,0,0,0,-1,1567,512,4.44732,1.21666
350,512,4.55469,-1.65082,0,0,0,0,0,0,0,-1,1574,512,4.5547,1.65083
357,512,5.79993,-2.67456,0,0,0,0,0,0,0,-1,1581,512,5.79991,2.67454
364,512,13.118,-28.5485,0,0,0,0,0,0,0,-1,1588,512,13.1181,28.5485
371,512,5.28467,-7.69269,0,0,0,0,0,0,0,-1,1595,512,5.28464,7.69269
378,512,6.29407,-9.88055,0,0,0,0,0,0,0,-1,1602,512,6.29412,9.88057
385,512,6.45569,-9.32233,0,0,0,0,0,0,0,-1,1609,512,6.45565,9.3223
392,512,6.35522,-8.98425,0,0,0,0,0,0,0,-1,1616,512,6.35526,8.98422
399,512,16.9089,-33.7311,0,0,0,0,0,0,0,-1,1623,512,16.9089,33.7311
406,512,20.7356,-42.6558,0,0,0,0,0,0,0,-1,1630,512,20.7355,42.6558
413,512,20.7543,-41.5942,0,0,0,0,0,0,0,-1,1637,512,20.7542,41.5942
420,512,20.6672,-40.6323,0.00446234,0.00272736,0.000622663,0.00466267,0.00252702,0.311278,0.00269515,0.0324635,1644,512,20.6672,40.6324
427,512,20.6174,-39.6853,0.00367097,0.00243095,0.000623975,0.0039306,0.00217132,0.394292,0.00227348,0.0163233,1651,512,20.6174,39.6853
434,512,20.5303,-38.783,0.00281592,0.00213144,0.000545439,0.0031176,0.00182976,0.505216,0.00180899,0.0114412,1658,512,20.5303,38.783
441,512,20.4304,-37.8447,0.00224512,0.00190628,0.0006311,0.00272914,0.00142226,0.654266,0.00157614,0.0130376,1665,512,20.4304,37.8447
448,512,20.3805,-36.9421,0.0018084,0.00168401,0.000747308,0.0024961,0.000996313,0.743882,0.00145086,0.0103204,1672,512,20.3805,36.9421
455,512,20.3213,-36.0201,0.00140535,0.0015982,0.000859137,0.00236631,0.000637245,0.841283,0.00141383,0.0100743,1679,512,20.3213,36.0201
462,512,20.2893,-35.0823,0.0011279,0.00161047,0.00101097,0.00240855,0.000329822,0.902541,0.00150783,0.0101296,1686,512,20.2893,35.0823
469,512,20.2393,-34.142,0.00101537,0.00173544,0.00128172,0.00270674,4.4078e-05,0.922319,0.00178998,0.0120057,1693,512,20.2393,34.142
476,512,20.1754,-33.1982,0.000982356,0.00191851,0.00160712,0.00312433,-0.000223464,0.927104,0.00216123,0.0152293,1700,512,20.1755,33.1982
483,512,20.141,-32.2418,0.00104636,0.00212003,0.00199998,0.00365397,-0.000487585,0.916517,0.00261371,0.0134815,1707,512,20.141,32.2418
490,512,20.0829,-31.2903,0.00120398,0.00238991,0.00249246,0.00435897,-0.000765071,0.902179,0.00319171,0.0108618,1714,512,20.0829,31.2903
497,512,20.02,-30.34,0.00141743,0.00244008,0.00290176,0.00487522,-0.00101771,0.872609,0.00363716,0.0126598,1721,512,20.0201,30.34
504,512,19.9329,-29.3539,0.00175146,0.00255944,0.0033705,0.00555007,-0.00123917,0.845044,0.00417486,0.0196398,1728,512,19.9328,29.3539
511,512,19.8536,-28.3136,0.00222368,0.00256666,0.00387286,0.00627183,-0.00148148,0.807524,0.00475265,0.0311697,1735,512,19.8537,28.3136
518,512,20.0422,-27.3259,0,0,0,0,0,0,0,-1,1742,512,20.0423,27.3259
525,512,20.4342,-26.3193,0,0,0,0,0,0,0,-1,1749,512,20.4341,26.3193
532,512,16.6807,-19.0635,0,0,0,0,0,0,0,-1,1756,512,16.6807,19.0635
539,512,12.6367,-16.4022,0,0,0,0,0,0,0,-1,1763,512,12.6367,16.4021
546,512,2.77551,-0.66449,0,0,0,0,0,0,0,-1,1770,512,2.77548,0.664503
553,512,3.927,-0.448853,0,0,0,0,0,0,0,-1,1777,512,3.92704,0.448843
560,512,3.55762,-0.201233,0,0,0,0,0,0,0,-1,1784,512,3.55768,0.201259
567,512,3.09045,0.191193,0,0,0,0,0,0,0,-1,1791,512,3.09045,-0.191203
574,512,0,0,0,0,0,0,0,0,0,-1,1798,512,0,0
581,512,0,0,0,0,0,0,0,0,0,-1,1805,512,0,0
588,512,0,0,0,0,0,0,0,0,0,-1,1812,512,0,0
595,512,0,0,0,0,0,0,0,0,0,-1,1819,512,0,0
602,512,0,0,0,0,0,0,0,0,0,-1,1826,512,0,0
609,512,0,0,0,0,0,0,0,0,0,-1,1833,512,0,0
616,512,0,0,0,0,0,0,0,0,0,-1,1840,512,0,0
623,512,0,0,0,0,0,0,0,0,0,-1,1847,512,0,0
630,512,0,0,0,0,0,0,0,0,0,-1,1854,512,0,0
637,512,0,0,0,0,0,0,0,0,0,-1,1861,512,0,0
644,512,0,0,0,0,0,0,0,0,0,-1,1868,512,0,0
651,512,0,0,0,0,0,0,0,0,0,-1,1875,512,0,0
658,512,0,0,0,0,0,0,0,0,0,-1,1882,512,0,0
665,512,0,0,0,0,0,0,0,0,0,-1,1889,512,0,0
672,512,0,0,0,0,0,0,0,0,0,-1,1896,512,0,0
679,512,0,0,0,0,0,0,0,0,0,-1,1903,512,0,0
686,512,0,0,0,0,0,0,0,0,0,-1,1910,512,0,0
693,512,0,0,0,0,0,0,0,0,0,-1,1917,512,0,0
700,512,0,0,0,0,0,0,0,0,0,-1,1924,512,0,0
707,512,0,0,0,0,0,0,0,0,0,-1,1931,512,0,0
714,512,0,0,0,0,0,0,0,0,0,-1,1938,512,0,0
721,512,0,0,0,0,0,0,0,0,0,-1,1945,512,0,0
728,512,0,0,0,0,0,0,0,0,0,-1,1952,512,0,0
735,512,0,0,0,0,0,0,0,0,0,-1,1959,512,0,0
742,512,0,0,0,0,0,0,0,0,0,-1,1966,512,0,0
749,512,0,0,0,0,0,0,0,0,0,-1,1973,512,0,0
756,512,0,0,0,0,0,0,0,0,0,-1,1980,512,0,0
763,512,0,0,0,0,0,0,0,0,0,-1,1987,512,0,0
770,512,0,0,0,0,0,0,0,0,0,-1,1994,512,0,0
777,512,0,0,0,0,0,0,0,0,0,-1,2001,512,0,0
784,512,0,0,0,0,0,0,0,0,0,-1,2008,512,0,0
791,512,0,0,0,0,0,0,0,0,0,-1,2015,512,0,0
798,512,0,0,0,0,0,0,0,0,0,-1,2022,512,0,0
805,512,0,0,0,0,0,0,0,0,0,-1,2029,512,0,0
812,512,0,0,0,0,0,0,0,0,0,-1,2036,512,0,0
-700,505,0,0,0,0,0,0,0,0,0,-1,524,519,0,0
-693,505,0,0,0,0,0,0,0,0,0,-1,531,519,0,0
-686,505,0,0,0,0,0,0,0,0,0,-1,538,519,0,0
-679,505,0,0,0,0,0,0,0,0,0,-1,545,519,0,0
-672,505,0,0,0,0,0,0,0,0,0,-1,552,519,0,0
-665,505,0,0,0,0,0,0,0,0,0,-1,559,519,0,0
-658,505,0,0,0,0,0,0,0,0,0,-1,566,519,0,0
-651,505,0,0,0,0,0,0,0,0,0,-1,573,519,0,0
-644,505,0,0,0,0,0,0,0,0,0,-1,580,519,0,0
-637,505,0,0,0,0,0,0,0,0,0,-1,587,519,0,0
-630,505,0,0,0,0,0,0,0,0,0,-1,594,519,0,0
-623,505,0,0,0,0,0,0,0,0,0,-1,601,519,0,0
-616,505,0,0,0,0,0,0,0,0,0,-1,608,519,0,0
-609,505,0,0,0,0,0,0,0,0,0,-1,615,519,0,0
-602,505,0,0,0,0,0,0,0,0,0,-1,622,519,0,0
-595,505,0,0,0,0,0,0,0,0,0,-1,629,519,0,0
-588,505,0,0,0,0,0,0,0,0,0,-1,636,519,0,0
-581,505,0,0,0,0,0,0,0,0,0,-1,643,519,0,0
-574,505,0,0,0,0,0,0,0,0,0,-1,650,519,0,0
-567,505,0,0,0,0,0,0,0,0,0,-1,657,519,0,0
-560,505,0,0,0,0,0,0,0,0,0,-1,664,519,0,0
-553,505,0,0,0,0,0,0,0,0,0,-1,671,519,0,0
-546,505,0,0,0,0,0,0,0,0,0,-1,678,519,0,0
-539,505,0,0,0,0,0,0,0,0,0,-1,685,519,0,0
-532,505,0,0,0,0,0,0,0,0,0,-1,692,519,0,0
-525,505,0,0,0,0,0,0,0,0,0,-1,699,519,0,0
-518,505,0,0,0,0,0,0,0,0,0,-1,706,519,0,0
-511,505,0,0,0,0,0,0,0,0,0,-1,713,519,0,0
-504,505,0,0,0,0,0,0,0,0,0,-1,720,519,0,0
-497,505,0,0,0,0,0,0,0,0,0,-1,727,519,0,0
-490,505,0,0,0,0,0,0,0,0,0,-1,734,519,0,0
-483,505,0,0,0,0,0,0,0,0,0,-1,741,519,0,0
-476,505,0,0,0,0,0,0,0,0,0,-1,748,519,0,0
-469,505,0,0,0,0,0,0,0,0,0,-1,755,519,0,0
-462,505,0,0,0,0,0,0,0,0,0,-1,762,519,0,0
-455,505,2.72137,-3.26379,0,0,0,0,0,0,0,-1,769,519,2.72135,3.26377
-448,505,2.51111,-3.94989,0,0,0,0,0,0,0,-1,776,519,2.51112,3.94986
-441,505,2.80212,-6.8902,0,0,0,0,0,0,0,-1,783,519,2.80209,6.89019
-434,505,-0.155212,-10.6374,0,0,0,0,0,0,0,-1,790,519,-0.155194,10.6374
-427,505,-0.474426,-10.4702,0,0,0,0,0,0,0,-1,797,519,-0.474433,10.4702
-420,505,-0.922546,-10.1928,0,0,0,0,0,0,0,-1,804,519,-0.92257,10.1928
-413,505,-3.33948,-13.6183,0,0,0,0,0,0,0,-1,811,519,-3.33949,13.6184
-406,505,-3.2439,-18.3408,0,0,0,0,0,0,0,-1,818,519,-3.24389,18.3408
-399,505,-3.96356,-26.206,0,0,0,0,0,0,0,-1,825,519,-3.96359,26.206
-392,505,-4.065,-27.5254,0.00349472,0.016962,-0.0109726,0.0231024,-0.00264565,-1.06061,0.016355,0.0292274,832,519,-4.065,27.5254
-385,505,-4.1568,-28.5374,0.0031689,0.0145475,-0.0096921,0.0200967,-0.00238035,-1.0508,0.0142577,0.0125906,839,519,-4.15677,28.5374
-378,505,-4.23865,-29.5467,0.00291543,0.0123518,-0.00845906,0.0173195,-0.00205231,-1.03979,0.0122877,0.0125564,846,519,-4.23865,29.5467
-371,505,-4.28796,-30.5582,0.00264281,0.0101633,-0.00726122,0.0145802,-0.00177402,-1.02431,0.0103622,0.0144424,853,519,-4.28795,30.5581
-364,505,-4.35944,-31.5355,0.002326,0.00799491,-0.00592622,0.0117296,-0.00140874,-1.00846,0.00832915,0.0154543,860,519,-4.35941,31.5355
-357,505,-4.41461,-32.4985,0.00203859,0.00608704,-0.00462579,0.00911212,-0.000986487,-0.991644,0.00642885,0.0124031,867,519,-4.41462,32.4984
-350,505,-4.46613,-33.4264,0.00180009,0.0042959,-0.00340194,0.00667159,-0.000575597,-0.961189,0.00465148,0.0116631,874,519,-4.46614,33.4264
-343,505,-4.53882,-34.3641,0.00160339,0.00251076,-0.00225701,0.00435923,-0.000245077,-0.884582,0.00299119,0.0118778,881,519,-4.5388,34.3641
-336,505,-4.60107,-35.2984,0.00135267,0.000875424,-0.00113756,0.00227637,-4.82759e-05,-0.682014,0.00153392,0.0154907,888,519,-4.60105,35.2984
-329,505,-4.62378,-36.1938,0.0011556,-0.000515736,-0.000120653,0.00116427,-0.000524401,-0.0716938,0.000998012,0.0205783,895,519,-4.6238,36.1938
-322,505,-4.68628,-37.1227,0.0010534,-0.00171074,0.000795454,0.00126596,-0.00192331,0.261125,0.00185432,0.0236397,902,519,-4.68627,37.1227
-315,505,-4.76019,-38.0812,0.00110552,-0.00254972,0.00151077,0.00164911,-0.00309331,0.345386,0.00278004,0.0165553,909,519,-4.76022,38.0812
-308,505,-4.82245,-38.9773,0.00121859,-0.00319795,0.00211835,0.00207036,-0.00404972,0.38231,0.0035945,0.0122182,916,519,-4.82245,38.9773
-301,505,-4.8255,-39.9065,0.00109513,-0.00329112,0.00276441,0.00243071,-0.0046267,0.450064,0.00413983,0.0215591,923,519,-4.82551,39.9065
-294,505,-4.85321,-40.7302,0,0,0,0,0,0,0,-1,930,519,-4.85321,40.7302
-287,505,-5.00012,-41.7242,0,0,0,0,0,0,0,-1,937,519,-5.00011,41.7242
-280,505,-2.79846,-27.7252,0,0,0,0,0,0,0,-1,944,519,-2.79845,27.7252
-273,505,-0.0680542,-9.44867,0,0,0,0,0,0,0,-1,951,519,-0.0680462,9.44866
-266,505,-0.036377,-9.07922,0,0,0,0,0,0,0,-1,958,519,-0.0364055,9.0792
-259,505,0.10321,-6.69824,0,0,0,0,0,0,0,-1,965,519,0.103235,6.69826
-252,505,6.82312,-15.6972,0,0,0,0,0,0,0,-1,972,519,6.82314,15.6972
-245,505,4.26727,-12.9861,0,0,0,0,0,0,0,-1,979,519,4.2673,12.9861
-238,505,1.67432,-11.2307,0,0,0,0,0,0,0,-1,986,519,1.67429,11.2307
-231,505,-0.958435,-8.3075,0,0,0,0,0,0,0,-1,993,519,-0.958421,8.30751
-224,505,-1.46399,-33.4399,0,0,0,0,0,0,0,-1,1000,519,-1.46397,33.4399
-217,505,-6.34302,-1.65533,0,0,0,0,0,0,0,-1,1007,519,-6.34299,1.65535
-210,505,-3.06128,-0.396301,0,0,0,0,0,0,0,-1,1014,519,-3.06129,0.396294
-203,505,-4.26465,2.03607,0,0,0,0,0,0,0,-1,1021,519,-4.26462,-2.03606
-196,505,-5.47595,4.27295,0,0,0,0,0,0,0,-1,1028,519,-5.47597,-4.27292
-189,505,1.51526,5.56207,0,0,0,0,0,0,0,-1,1035,519,1.51523,-5.56209
-182,505,2.97815,7.5097,0,0,0,0,0,0,0,-1,1042,519,2.97812,-7.5097
-175,505,-2.38416,-2.17548,0,0,0,0,0,0,0,-1,1049,519,-2.38411,2.1755
-168,505,0,0,0,0,0,0,0,0,0,-1,1056,519,0,0
-161,505,0,0,0,0,0,0,0,0,0,-1,1063,519,0,0
-154,505,0,0,0,0,0,0,0,0,0,-1,1070,519,0,0
-147,505,0,0,0,0,0,0,0,0,0,-1,1077,519,0,0
-140,505,0,0,0,0,0,0,0,0,0,-1,1084,519,0,0
-133,505,0,0,0,0,0,0,0,0,0,-1,1091,519,0,0
-126,505,0,0,0,0,0,0,0,0,0,-1,1098,519,0,0
-119,505,0,0,0,0,0,0,0,0,0,-1,1105,519,0,0
-112,505,0,0,0,0,0,0,0,0,0,-1,1112,519,0,0
-105,505,0,0,0,0,0,0,0,0,0,-1,1119,519,0,0
-98,505,0,0,0,0,0,0,0,0,0,-1,1126,519,0,0
-91,505,0,0,0,0,0,0,0,0,0,-1,1133,519,0,0
-84,505,0,0,0,0,0,0,0,0,0,-1,1140,519,0,0
-77,505,0,0,0,0,0,0,0,0,0,-1,1147,519,0,0
-70,505,0,0,0,0,0,0,0,0,0,-1,1154,519,0,0
-63,505,0,0,0,0,0,0,0,0,0,-1,1161,519,0,0
-56,505,0,0,0,0,0,0,0,0,0,-1,1168,519,0,0
-49,505,0,0,0,0,0,0,0,0,0,-1,1175,519,0,0
-42,505,0,0,0,0,0,0,0,0,0,-1,1182,519,0,0
-35,505,0,0,0,0,0,0,0,0,0,-1,1189,519,0,0
-28,505,0,0,0,0,0,0,0,0,0,-1,1196,519,0,0
-21,505,0,0,0,0,0,0,0,0,0,-1,1203,519,0,0
-14,505,0,0,0,0,0,0,0,0,0,-1,1210,519,0,0
-7,505,0,0,0,0,0,0,0,0,0,-1,1217,519,0,0
0,505,0,0,0,0,0,0,0,0,0,-1,1224,519,0,0
7,505,0,0,0,0,0,0,0,0,0,-1,1231,519,0,0
14,505,0,0,0,0,0,0,0,0,0,-1,1238,519,0,0
21,505,0,0,0,0,0,0,0,0,0,-1,1245,519,0,0
28,505,0,0,0,0,0,0,0,0,0,-1,1252,519,0,0
35,505,0,0,0,0,0,0,0,0,0,-1,1259,519,0,0
42,505,0,0,0,0,0,0,0,0,0,-1,1266,519,0,0
49,505,0,0,0,0,0,0,0,0,0,-1,1273,519,0,0
56,505,0,0,0,0,0,0,0,0,0,-1,1280,519,0,0
63,505,0,0,0,0,0,0,0,0,0,-1,1287,519,0,0
70,505,0,0,0,0,0,0,0,0,0,-1,1294,519,0,0
77,505,0,0,0,0,0,0,0,0,0,-1,1301,519,0,0
84,505,0,0,0,0,0,0,0,0,0,-1,1308,519,0,0
91,505,0,0,0,0,0,0,0,0,0,-1,1315,519,0,0
98,505,0,0,0,0,0,0,0,0,0,-1,1322,519,0,0
105,505,0,0,0,0,0,0,0,0,0,-1,1329,519,0,0
112,505,0,0,0,0,0,0,0,0,0,-1,1336,519,0,0
119,505,0,0,0,0,0,0,0,0,0,-1,1343,519,0,0
126,505,0,0,0,0,0,0,0,0,0,-1,1350,519,0,0
133,505,0,0,0,0,0,0,0,0,0,-1,1357,519,0,0
140,505,0,0,0,0,0,0,0,0,0,-1,1364,519,0,0
147,505,0,0,0,0,0,0,0,0,0,-1,1371,519,0,0
154,505,0,0,0,0,0,0,0,0,0,-1,1378,519,0,0
161,505,0,0,0,0,0,0,0,0,0,-1,1385,519,0,0
168,505,0,0,0,0,0,0,0,0,0,-1,1392,519,0,0
175,505,0,0,0,0,0,0,0,0,0,-1,1399,519,0,0
182,505,0,0,0,0,0,0,0,0,0,-1,1406,519,0,0
189,505,0,0,0,0,0,0,0,0,0,-1,1413,519,0,0
196,505,0,0,0,0,0,0,0,0,0,-1,1420,519,0,0
203,505,0,0,0,0,0,0,0,0,0,-1,1427,519,0,0
210,505,0,0,0,0,0,0,0,0,0,-1,1434,519,0,0
217,505,0,0,0,0,0,0,0,0,0,-1,1441,519,0,0
224,505,0,0,0,0,0,0,0,0,0,-1,1448,519,0,0
231,505,0,0,0,0,0,0,0,0,0,-1,1455,519,0,0
238,505,0,0,0,0,0,0,0,0,0,-1,1462,519,0,0
245,505,0,0,0,0,0,0,0,0,0,-1,1469,519,0,0
252,505,0,0,0,0,0,0,0,0,0,-1,1476,519,0,0
259,505,0,0,0,0,0,0,0,0,0,-1,1483,519,0,0
266,505,0,0,0,0,0,0,0,0,0,-1,1490,519,0,0
273,505,0,0,0,0,0,0,0,0,0,-1,1497,519,0,0
280,505,0,0,0,0,0,0,0,0,0,-1,1504,519,0,0
287,505,4.39478,0.499512,0,0,0,0,0,0,0,-1,1511,519,4.39476,-0.499506
294,505,4.88867,0.0822754,0,0,0,0,0,0,0,-1,1518,519,4.88871,-0.0822748
301,505,4.82153,-0.0704346,0,0,0,0,0,0,0,-1,1525,519,4.82156,0.0704312
308,505,4.67761,-0.29187,0,0,0,0,0,0,0,-1,1532,519,4.67762,0.291845
315,505,8.44055,-6.54352,0,0,0,0,0,0,0,-1,1539,519,8.44059,6.54349
322,505,4.78955,-0.594116,0,0,0,0,0,0,0,-1,1546,519,4.78957,0.594096
329,505,5.16321,0.434631,0,0,0,0,0,0,0,-1,1553,519,5.16316,-0.434614
336,505,4.94495,-0.920471,0,0,0,0,0,0,0,-1,1560,519,4.945,0.920495
343,505,5.01855,-1.4823,0,0,0,0,0,0,0,-1,1567,519,5.01851,1.48227
350,505,5.33154,-1.77838,0,0,0,0,0,0,0,-1,1574,519,5.33152,1.77838
357,505,5.56567,-1.9425,0,0,0,0,0,0,0,-1,1581,519,5.56562,1.94248
364,505,5.85205,-2.6579,0,0,0,0,0,0,0,-1,1588,519,5.85211,2.65788
371,505,5.88477,-7.00922,0,0,0,0,0,0,0,-1,1595,519,5.88473,7.00924
378,505,5.44104,-7.10162,0,0,0,0,0,0,0,-1,1602,519,5.44099,7.10162
385,505,6.64661,-8.65015,0,0,0,0,0,0,0,-1,1609,519,6.64662,8.65014
392,505,6.34558,-8.3429,0,0,0,0,0,0,0,-1,1616,519,6.34554,8.34288
399,505,7.45898,-9.70386,0,0,0,0,0,0,0,-1,1623,519,7.45899,9.70388
406,505,7.08679,-9.4928,0,0,0,0,0,0,0,-1,1630,519,7.08678,9.49278
413,505,8.4032,-14.0308,0,0,0,0,0,0,0,-1,1637,519,8.4032,14.0308
420,505,21.5474,-40.8405,0,0,0,0,0,0,0,-1,1644,519,21.5473,40.8404
427,505,21.5221,-39.8041,0.00425895,0.00268477,0.000623217,0.00447581,0.00246792,0.33486,0.00258866,0.0376056,1651,519,21.5221,39.8042
434,505,21.4371,-38.7664,0.0032164,0.00221028,0.000361545,0.00333284,0.00209384,0.311581,0.0019452,0.0144537,1658,519,21.4371,38.7664
441,505,21.3921,-37.7783,0.00257795,0.00182285,0.000317335,0.0026936,0.0017072,0.349482,0.0015736,0.0111596,1665,519,21.3921,37.7783
448,505,21.3136,-36.8706,0.00215121,0.00154863,0.00037875,0.00233389,0.00136595,0.449409,0.00135399,0.0119411,1672,519,21.3136,36.8706
455,505,21.2672,-35.9447,0.0017924,0.00140456,0.000436041,0.0020757,0.00112126,0.576165,0.00119969,0.0123179,1679,519,21.2672,35.9447
462,505,21.2141,-35.0118,0.00153322,0.00136819,0.000559589,0.00201634,0.000885062,0.712198,0.00116702,0.0114325,1686,519,21.2141,35.0118
469,505,21.1567,-34.0816,0.00144967,0.00148041,0.000827283,0.00229246,0.000637614,0.794689,0.0013663,0.0119065,1693,519,21.1568,34.0816
476,505,21.0902,-33.1575,0.00144111,0.00165133,0.00116414,0.0027151,0.000377344,0.830421,0.00169832,0.012542,1700,519,21.0902,33.1575
483,505,21.0558,-32.209,0.0015162,0.00182046,0.00155762,0.00323336,0.000103293,0.834078,0.00212198,0.0129979,1707,519,21.0558,32.209
490,505,21.0055,-31.2482,0.00161933,0.00209355,0.00201351,0.00388387,-0.000170988,0.844007,0.00264808,0.0119484,1714,519,21.0055,31.2482
497,505,20.9421,-30.3052,0.00176353,0.00223035,0.00245076,0.00445879,-0.000464912,0.832875,0.00313899,0.0119052,1721,519,20.9421,30.3053
504,505,20.8621,-29.3249,0.00201421,0.00236101,0.00294619,0.0051389,-0.000763676,0.814792,0.00370681,0.0134784,1728,519,20.862,29.3249
511,505,20.785,-28.3455,0.00227099,0.00247972,0.00345207,0.005829,-0.00107829,0.800509,0.00429084,0.0154498,1735,519,20.7851,28.3455
518,505,20.7189,-27.3906,0,0,0,0,0,0,0,-1,1742,519,20.7189,27.3906
525,505,20.7158,-26.4478,0,0,0,0,0,0,0,-1,1749,519,20.7158,26.4477
532,505,20.189,-24.8809,0,0,0,0,0,0,0,-1,1756,519,20.189,24.8808
539,505,13.9879,-13.9018,0,0,0,0,0,0,0,-1,1763,519,13.988,13.9018
546,505,7.94946,-6.64539,0,0,0,0,0,0,0,-1,1770,519,7.94947,6.64539
553,505,2.82837,0.162659,0,0,0,0,0,0,0,-1,1777,519,2.82841,-0.162672
560,505,3.66223,-0.479797,0,0,0,0,0,0,0,-1,1784,519,3.66219,0.47982
567,505,4.65271,-0.950256,0,0,0,0,0,0,0,-1,1791,519,4.65274,0.95028
574,505,5.54443,-1.19977,0,0,0,0,0,0,0,-1,1798,519,5.54443,1.19974
581,505,0,0,0,0,0,0,0,0,0,-1,1805,519,0,0
588,505,0,0,0,0,0,0,0,0,0,-1,1812,519,0,0
595,505,0,0,0,0,0,0,0,0,0,-1,1819,519,0,0
602,505,0,0,0,0,0,0,0,0,0,-1,1826,519,0,0
609,505,0,0,0,0,0,0,0,0,0,-1,1833,519,0,0
616,505,0,0,0,0,0,0,0,0,0,-1,1840,519,0,0
623,505,0,0,0,0,0,0,0,0,0,-1,1847,519,0,0
630,505,0,0,0,0,0,0,0,0,0,-1,1854,519,0,0
637,505,0,0,0,0,0,0,0,0,0,-1,1861,519,0,0
644,505,0,0,0,0,0,0,0,0,0,-1,1868,519,0,0
651,505,0,0,0,0,0,0,0,0,0,-1,1875,519,0,0
658,505,0,0,0,0,0,0,0,0,0,-1,1882,519,0,0
665,505,0,0,0,0,0,0,0,0,0,-1,1889,519,0,0
672,505,0,0,0,0,0,0,0,0,0,-1,1896,519,0,0
679,505,0,0,0,0,0,0,0,0,0,-1,1903,519,0,0
686,505,0,0,0,0,0,0,0,0,0,-1,1910,519,0,0
693,505,0,0,0,0,0,0,0,0,0,-1,1917,519,0,0
700,505,0,0,0,0,0,0,0,0,0,-1,1924,519,0,0
707,505,0,0,0,0,0,0,0,0,0,-1,1931,519,0,0
714,505,0,0,0,0,0,0,0,0,0,-1,1938,519,0,0
721,505,0,0,0,0,0,0,0,0,0,-1,1945,519,0,0
728,505,0,0,0,0,0,0,0,0,0,-1,1952,519,0,0
735,505,0,0,0,0,0,0,0,0,0,-1,1959,519,0,0
742,505,0,0,0,0,0,0,0,0,0,-1,1966,519,0,0
749,505,0,0,0,0,0,0,0,0,0,-1,1973,519,0,0
756,505,0,0,0,0,0,0,0,0,0,-1,1980,519,0,0
763,505,0,0,0,0,0,0,0,0,0,-1,1987,519,0,0
770,505,0,0,0,0,0,0,0,0,0,-1,1994,519,0,0
777,505,0,0,0,0,0,0,0,0,0,-1,2001,519,0,0
784,505,0,0,0,0,0,0,0,0,0,-1,2008,519,0,0
791,505,0,0,0,0,0,0,0,0,0,-1,2015,519,0,0
798,505,0,0,0,0,0,0,0,0,0,-1,2022,519,0,0
805,505,0,0,0,0,0,0,0,0,0,-1,2029,519,0,0
812,505,0,0,0,0,0,0,0,0,0,-1,2036,519,0,0
-700,498,0,0,0,0,0,0,0,0,0,-1,524,526,0,0
-693,498,0,0,0,0,0,0,0,0,0,-1,531,526,0,0
-686,498,0,0,0,0,0,0,0,0,0,-1,538,526,0,0
-679,498,0,0,0,0,0,0,0,0,0,-1,545,526,0,0
-672,498,0,0,0,0,0,0,0,0,0,-1,552,526,0,0
-665,498,0,0,0,0,0,0,0,0,0,-1,559,526,0,0
-658,498,0,0,0,0,0,0,0,0,0,-1,566,526,0,0
-651,498,0,0,0,0,0,0,0,0,0,-1,573,526,0,0
-644,498,0,0,0,0,0,0,0,0,0,-1,580,526,0,0
-637,498,0,0,0,0,0,0,0,0,0,-1,587,526,0,0
-630,498,0,0,0,0,0,0,0,0,0,-1,594,526,0,0
-623,498,0,0,0,0,0,0,0,0,0,-1,601,526,0,0
-616,498,0,0,0,0,0,0,0,0,0,-1,608,526,0,0
-609,498,0,0,0,0,0,0,0,0,0,-1,615,526,0,0
-602,498,0,0,0,0,0,0,0,0,0,-1,622,526,0,0
-595,498,0,0,0,0,0,0,0,0,0,-1,629,526,0,0
-588,498,0,0,0,0,0,0,0,0,0,-1,636,526,0,0
-581,498,0,0,0,0,0,0,0,0,0,-1,643,526,0,0
-574,498,0,0,0,0,0,0,0,0,0,-1,650,526,0,0
-567,498,0,0,0,0,0,0,0,0,0,-1,657,526,0,0
-560,498,0,0,0,0,0,0,0,0,0,-1,664,526,0,0
-553,498,0,0,0,0,0,0,0,0,0,-1,671,526,0,0
-546,498,0,0,0,0,0,0,0,0,0,-1,678,526,0,0
-539,498,0,0,0,0,0,0,0,0,0,-1,685,526,0,0
-532,498,0,0,0,0,0,0,0,0,0,-1,692,526,0,0
-525,498,0,0,0,0,0,0,0,0,0,-1,699,526,0,0
-518,498,0,0,0,0,0,0,0,0,0,-1,706,526,0,0
-511,498,0,0,0,0,0,0,0,0,0,-1,713,526,0,0
-504,498,0,0,0,0,0,0,0,0,0,-1,720,526,0,0
-497,498,0,0,0,0,0,0,0,0,0,-1,727,526,0,0
-490,498,0,0,0,0,0,0,0,0,0,-1,734,526,0,0
-483,498,0,0,0,0,0,0,0,0,0,-1,741,526,0,0
-476,498,0,0,0,0,0,0,0,0,0,-1,748,526,0,0
-469,498,0,0,0,0,0,0,0,0,0,-1,755,526,0,0
-462,498,6.81024,1.15515,0,0,0,0,0,0,0,-1,762,526,6.81026,-1.15514
-455,498,3.25757,-3.0592,0,0,0,0,0,0,0,-1,769,526,3.25754,3.05921
-448,498,3.05939,-3.74298,0,0,0,0,0,0,0,-1,776,526,3.05939,3.74296
-441,498,2.77191,-6.08209,0,0,0,0,0,0,0,-1,783,526,2.77189,6.08207
-434,498,2.10681,-6.95929,0,0,0,0,0,0,0,-1,790,526,2.10682,6.9593
-427,498,-0.368042,-10.7726,0,0,0,0,0,0,0,-1,797,526,-0.36807,10.7726
-420,498,-1.05035,-10.5142,0,0,0,0,0,0,0,-1,804,526,-1.05034,10.5142
-413,498,-4.52112,-18.8354,0,0,0,0,0,0,0,-1,811,526,-4.52111,18.8354
-406,498,-4.86884,-25.3203,0,0,0,0,0,0,0,-1,818,526,-4.86883,25.3203
-399,498,-4.89673,-26.4485,0.00244597,0.0145947,-0.00903381,0.0194065,-0.00236578,-1.08138,0.013794,0.0341245,825,526,-4.89673,26.4485
-392,498,-5.01923,-27.5049,0.00236858,0.0125875,-0.00816991,0.0171141,-0.00215803,-1.06484,0.0121926,0.0188416,832,526,-5.01921,27.5049
-385,498,-5.08948,-28.5046,0.00234167,0.0106513,-0.00722149,0.0148279,-0.00183493,-1.04644,0.0105502,0.0109361,839,526,-5.08947,28.5046
-378,498,-5.14807,-29.5115,0.00231228,0.00883225,-0.00624214,0.0126144,-0.00146987,-1.02604,0.00893994,0.0113625,846,526,-5.14808,29.5115
-371,498,-5.20856,-30.4869,0.00221878,0.00700302,-0.00528593,0.0104129,-0.00119111,-0.997882,0.00737112,0.0162052,853,526,-5.20853,30.4869
-364,498,-5.3009,-31.4572,0.00207839,0.00512371,-0.00419486,0.00806371,-0.000861611,-0.959495,0.00568482,0.0166027,860,526,-5.30091,31.4572
-357,498,-5.34967,-32.4202,0.0019568,0.00349712,-0.00311623,0.00593696,-0.000483034,-0.906543,0.00412841,0.0120612,867,526,-5.34967,32.4201
-350,498,-5.39441,-33.3556,0.00186234,0.00196307,-0.00209467,0.00400798,-0.000182565,-0.797419,0.00273487,0.0120366,874,526,-5.39441,33.3556
-343,498,-5.46198,-34.3467,0.00174885,0.000413561,-0.00111527,0.00238104,-0.000218633,-0.515689,0.00166503,0.0156427,881,526,-5.46195,34.3468
-336,498,-5.49109,-35.3137,0.00153339,-0.00105901,-0.000110504,0.0015381,-0.00106371,-0.0425232,0.00151045,0.0201421,888,526,-5.49109,35.3136
-329,498,-5.52368,-36.1688,0.00135944,-0.00232642,0.000820791,0.00153395,-0.00250093,0.2095,0.00235174,0.0259349,895,526,-5.52369,36.1688
-322,498,-5.61761,-37.0597,0.00132504,-0.00329551,0.00158842,0.00181841,-0.00378888,0.301158,0.00330333,0.027774,902,526,-5.61764,37.0597
-315,498,-5.68982,-37.9879,0.0014204,-0.00394011,0.00218189,0.00219621,-0.00471592,0.341628,0.00407815,0.0203893,909,526,-5.6898,37.9879
-308,498,-5.73755,-38.8952,0.00150852,-0.00448131,0.00275438,0.00258253,-0.00555531,0.371792,0.00480174,0.0243517,916,526,-5.73758,38.8952
-301,498,-5.73608,-39.8793,0,0,0,0,0,0,0,-1,923,526,-5.73611,39.8793
-294,498,-5.49982,-39.5652,0,0,0,0,0,0,0,-1,930,526,-5.49979,39.5653
-287,498,-0.91394,-13.4327,0,0,0,0,0,0,0,-1,937,526,-0.913935,13.4327
-280,498,-0.341614,-8.66608,0,0,0,0,0,0,0,-1,944,526,-0.341589,8.66606
-273,498,-0.988892,-8.62921,0,0,0,0,0,0,0,-1,951,526,-0.988906,8.62922
-266,498,0.362488,-6.33545,0,0,0,0,0,0,0,-1,958,526,0.362478,6.33547
-259,498,10.9454,-17.3615,0,0,0,0,0,0,0,-1,965,526,10.9454,17.3614
-252,498,8.56586,-14.6886,0,0,0,0,0,0,0,-1,972,526,8.56584,14.6886
-245,498,5.97382,-11.928,0,0,0,0,0,0,0,-1,979,526,5.97381,11.928
-238,498,2.24841,-13.8145,0,0,0,0,0,0,0,-1,986,526,2.24838,13.8145
-231,498,0.665894,-10.4898,0,0,0,0,0,0,0,-1,993,526,0.665863,10.4898
-224,498,-2.11243,-4.76312,0,0,0,0,0,0,0,-1,1000,526,-2.11245,4.76314
-217,498,-3.82239,-1.42841,0,0,0,0,0,0,0,-1,1007,526,-3.82241,1.42843
-210,498,-1.80591,-0.358215,0,0,0,0,0,0,0,-1,1014,526,-1.8059,0.3582
-203,498,-3.17316,1.06641,0,0,0,0,0,0,0,-1,1021,526,-3.17313,-1.0664
-196,498,-0.103271,5.40527,0,0,0,0,0,0,0,-1,1028,526,-0.103285,-5.40528
-189,498,3.00256,6.47137,0,0,0,0,0,0,0,-1,1035,526,3.00256,-6.47139
-182,498,0,0,0,0,0,0,0,0,0,-1,1042,526,0,0
-175,498,0,0,0,0,0,0,0,0,0,-1,1049,526,0,0
-168,498,0,0,0,0,0,0,0,0,0,-1,1056,526,0,0
-161,498,0,0,0,0,0,0,0,0,0,-1,1063,526,0,0
-154,498,0,0,0,0,0,0,0,0,0,-1,1070,526,0,0
-147,498,0,0,0,0,0,0,0,0,0,-1,1077,526,0,0
-140,498,0,0,0,0,0,0,0,0,0,-1,1084,526,0,0
-133,498,0,0,0,0,0,0,0,0,0,-1,1091,526,0,0
-126,498,0,0,0,0,0,0,0,0,0,-1,1098,526,0,0
-119,498,0,0,0,0,0,0,0,0,0,-1,1105,526,0,0
-112,498,0,0,0,0,0,0,0,0,0,-1,1112,526,0,0
-105,498,0,0,0,0,0,0,0,0,0,-1,1119,526,0,0
-98,498,0,0,0,0,0,0,0,0,0,-1,1126,526,0,0
-91,498,0,0,0,0,0,0,0,0,0,-1,1133,526,0,0
-84,498,0,0,0,0,0,0,0,0,0,-1,1140,526,0,0
-77,498,0,0,0,0,0,0,0,0,0,-1,1147,526,0,0
-70,498,0,0,0,0,0,0,0,0,0,-1,1154,526,0,0
-63,498,0,0,0,0,0,0,0,0,0,-1,1161,526,0,0
-56,498,0,0,0,0,0,0,0,0,0,-1,1168,526,0,0
-49,498,0,0,0,0,0,0,0,0,0,-1,1175,526,0,0
-42,498,0,0,0,0,0,0,0,0,0,-1,1182,526,0,0
-35,498,0,0,0,0,0,0,0,0,0,-1,1189,526,0,0
-28,498,0,0,0,0,0,0,0,0,0,-1,1196,526,0,0
-21,498,0,0,0,0,0,0,0,0,0,-1,1203,526,0,0
-14,498,0,0,0,0,0,0,0,0,0,-1,1210,526,0,0
-7,498,0,0,0,0,0,0,0,0,0,-1,1217,526,0,0
0,498,0,0,0,0,0,0,0,0,0,-1,1224,526,0,0
7,498,0,0,0,0,0,0,0,0,0,-1,1231,526,0,0
14,498,0,0,0,0,0,0,0,0,0,-1,1238,526,0,0
21,498,0,0,0,0,0,0,0,0,0,-1,1245,526,0,0
28,498,0,0,0,0,0,0,0,0,0,-1,1252,526,0,0
35,498,0,0,0,0,0,0,0,0,0,-1,1259,526,0,0
42,498,0,0,0,0,0,0,0,0,0,-1,1266,526,0,0
49,498,0,0,0,0,0,0,0,0,0,-1,1273,526,0,0
56,498,0,0,0,0,0,0,0,0,0,-1,1280,526,0,0
63,498,0,0,0,0,0,0,0,0,0,-1,1287,526,0,0
70,498,0,0,0,0,0,0,0,0,0,-1,1294,526,0,0
77,498,0,0,0,0,0,0,0,0,0,-1,1301,526,0,0
84,498,0,0,0,0,0,0,0,0,0,-1,1308,526,0,0
91,498,0,0,0,0,0,0,0,0,0,-1,1315,526,0,0
98,498,0,0,0,0,0,0,0,0,0,-1,1322,526,0,0
105,498,0,0,0,0,0,0,0,0,0,-1,1329,526,0,0
112,498,0,0,0,0,0,0,0,0,0,-1,1336,526,0,0
119,498,0,0,0,0,0,0,0,0,0,-1,1343,526,0,0
126,498,0,0,0,0,0,0,0,0,0,-1,1350,526,0,0
133,498,0,0,0,0,0,0,0,0,0,-1,1357,526,0,0
140,498,0,0,0,0,0,0,0,0,0,-1,1364,526,0,0
147,498,0,0,0,0,0,0,0,0,0,-1,1371,526,0,0
154,498,0,0,0,0,0,0,0,0,0,-1,1378,526,0,0
161,498,0,0,0,0,0,0,0,0,0,-1,1385,526,0,0
168,498,0,0,0,0,0,0,0,0,0,-1,1392,526,0,0
175,498,0,0,0,0,0,0,0,0,0,-1,1399,526,0,0
182,498,0,0,0,0,0,0,0,0,0,-1,1406,526,0,0
189,498,0,0,0,0,0,0,0,0,0,-1,1413,526,0,0
196,498,0,0,0,0,0,0,0,0,0,-1,1420,526,0,0
203,498,0,0,0,0,0,0,0,0,0,-1,1427,526,0,0
210,498,0,0,0,0,0,0,0,0,0,-1,1434,526,0,0
217,498,0,0,0,0,0,0,0,0,0,-1,1441,526,0,0
224,498,0,0,0,0,0,0,0,0,0,-1,1448,526,0,0
231,498,0,0,0,0,0,0,0,0,0,-1,1455,526,0,0
238,498,0,0,0,0,0,0,0,0,0,-1,1462,526,0,0
245,498,0,0,0,0,0,0,0,0,0,-1,1469,526,0,0
252,498,0,0,0,0,0,0,0,0,0,-1,1476,526,0,0
259,498,0,0,0,0,0,0,0,0,0,-1,1483,526,0,0
266,498,0,0,0,0,0,0,0,0,0,-1,1490,526,0,0
273,498,0,0,0,0,0,0,0,0,0,-1,1497,526,0,0
280,498,0,0,0,0,0,0,0,0,0,-1,1504,526,0,0
287,498,0,0,0,0,0,0,0,0,0,-1,1511,526,0,0
294,498,0,0,0,0,0,0,0,0,0,-1,1518,526,0,0
301,498,0,0,0,0,0,0,0,0,0,-1,1525,526,0,0
308,498,4.77942,-0.293884,0,0,0,0,0,0,0,-1,1532,526,4.77939,0.293899
315,498,4.56091,-0.564148,0,0,0,0,0,0,0,-1,1539,526,4.56097,0.564142
322,498,4.52344,-0.447266,0,0,0,0,0,0,0,-1,1546,526,4.52341,0.447295
329,498,4.63232,-0.156982,0,0,0,0,0,0,0,-1,1553,526,4.63238,0.156991
336,498,5.22644,0.0925903,0,0,0,0,0,0,0,-1,1560,526,5.22648,-0.0926188
343,498,6.22607,-1.67615,0,0,0,0,0,0,0,-1,1567,526,6.22605,1.67617
350,498,6.19373,-1.59906,0,0,0,0,0,0,0,-1,1574,526,6.19367,1.59906
357,498,6.21472,-1.58929,0,0,0,0,0,0,0,-1,1581,526,6.21476,1.58927
364,498,5.73547,-1.2019,0,0,0,0,0,0,0,-1,1588,526,5.73547,1.20192
371,498,3.27087,-4.55334,0,0,0,0,0,0,0,-1,1595,526,3.27089,4.55332
378,498,8.42944,-4.70624,0,0,0,0,0,0,0,-1,1602,526,8.42942,4.70624
385,498,4.7793,-5.15314,0,0,0,0,0,0,0,-1,1609,526,4.77935,5.15311
392,498,9.12439,-8.57953,0,0,0,0,0,0,0,-1,1616,526,9.12443,8.57955
399,498,7.98938,-9.46021,0,0,0,0,0,0,0,-1,1623,526,7.98936,9.4602
406,498,7.58081,-9.26819,0,0,0,0,0,0,0,-1,1630,526,7.58085,9.26817
413,498,7.17236,-9.07611,0,0,0,0,0,0,0,-1,1637,526,7.17234,9.07614
420,498,11.4314,-16.1147,0,0,0,0,0,0,0,-1,1644,526,11.4313,16.1147
427,498,22.2207,-39.8693,0,0,0,0,0,0,0,-1,1651,526,22.2207,39.8693
434,498,22.2051,-38.7732,0.0033841,0.00227895,0.000185921,0.00341454,0.00224851,0.162282,0.00200413,0.046862,1658,526,22.205,38.7732
441,498,22.2971,-37.7665,0.0026484,0.00171149,-4.80469e-06,0.00264843,0.00171147,-0.00512804,0.00155071,0.0157528,1665,526,22.2971,37.7665
448,498,22.2661,-36.8046,0.00221231,0.00140918,4.55905e-06,0.00221234,0.00140916,0.00567635,0.00129317,0.0115749,1672,526,22.2661,36.8046
455,498,22.2061,-35.8854,0.00188548,0.00121473,-1.33261e-06,0.00188549,0.00121472,-0.00198672,0.00110358,0.0152496,1679,526,22.2061,35.8855
462,498,22.158,-34.975,0.00163485,0.00112922,9.04333e-05,0.00165054,0.00111353,0.17176,0.000972123,0.0176275,1686,526,22.1579,34.975
469,498,22.1017,-34.0496,0.00156169,0.00121787,0.000339466,0.00177029,0.00100927,0.551018,0.00102542,0.014968,1693,526,22.1016,34.0496
476,498,22.0468,-33.1085,0.00156113,0.00136678,0.000672039,0.00214299,0.000784929,0.713596,0.00125192,0.0109642,1700,526,22.0467,33.1085
483,498,21.9838,-32.1689,0.00163129,0.00150056,0.00104766,0.00261562,0.000516226,0.754243,0.00159968,0.00903058,1707,526,21.9838,32.1689
490,498,21.9263,-31.2249,0.00167269,0.00176442,0.00145321,0.00317249,0.00026462,0.801175,0.00203254,0.0109037,1714,526,21.9263,31.2249
497,498,21.8606,-30.2552,0.00176182,0.0019831,0.0019091,0.00378476,-3.98461e-05,0.814342,0.00253656,0.0127039,1721,526,21.8606,30.2552
504,498,21.812,-29.2708,0.00193913,0.0020873,0.00238654,0.0044009,-0.00037447,0.800914,0.00306639,0.0150318,1728,526,21.812,29.2708
511,498,21.7516,-28.291,0.00206697,0.00222286,0.00285661,0.00500259,-0.000712759,0.799038,0.00359627,0.0162129,1735,526,21.7516,28.291
518,498,21.7827,-27.3039,0.00208657,0.00242616,0.00320404,0.0054649,-0.000952175,0.81187,0.00399863,0.0270504,1742,526,21.7827,27.3039
525,498,21.5723,-26.2752,0,0,0,0,0,0,0,-1,1749,526,21.5722,26.2752
532,498,21.1948,-25.0056,0,0,0,0,0,0,0,-1,1756,526,21.1949,25.0056
539,498,20.0029,-23.3469,0,0,0,0,0,0,0,-1,1763,526,20.003,23.3469
546,498,10.2014,-8.47589,0,0,0,0,0,0,0,-1,1770,526,10.2014,8.47589
553,498,5.93958,-1.71448,0,0,0,0,0,0,0,-1,1777,526,5.93956,1.71447
560,498,3.69385,-0.615112,0,0,0,0,0,0,0,-1,1784,526,3.69381,0.615118
567,498,5.12695,-0.581604,0,0,0,0,0,0,0,-1,1791,526,5.12699,0.58159
574,498,3.88,0.0286255,0,0,0,0,0,0,0,-1,1798,526,3.87999,-0.0286535
581,498,10.8722,2.58551,0,0,0,0,0,0,0,-1,1805,526,10.8723,-2.58551
588,498,0,0,0,0,0,0,0,0,0,-1,1812,526,0,0
595,498,0,0,0,0,0,0,0,0,0,-1,1819,526,0,0
602,498,0,0,0,0,0,0,0,0,0,-1,1826,526,0,0
609,498,0,0,0,0,0,0,0,0,0,-1,1833,526,0,0
616,498,0,0,0,0,0,0,0,0,0,-1,1840,526,0,0
623,498,0,0,0,0,0,0,0,0,0,-1,1847,526,0,0
630,498,0,0,0,0,0,0,0,0,0,-1,1854,526,0,0
637,498,0,0,0,0,0,0,0,0,0,-1,1861,526,0,0
644,498,0,0,0,0,0,0,0,0,0,-1,1868,526,0,0
651,498,0,0,0,0,0,0,0,0,0,-1,1875,526,0,0
658,498,0,0,0,0,0,0,0,0,0,-1,1882,526,0,0
665,498,0,0,0,0,0,0,0,0,0,-1,1889,526,0,0
672,498,0,0,0,0,0,0,0,0,0,-1,1896,526,0,0
679,498,0,0,0,0,0,0,0,0,0,-1,1903,526,0,0
686,498,0,0,0,0,0,0,0,0,0,-1,1910,526,0,0
693,498,0,0,0,0,0,0,0,0,0,-1,1917,526,0,0
700,498,0,0,0,0,0,0,0,0,0,-1,1924,526,0,0
707,498,0,0,0,0,0,0,0,0,0,-1,1931,526,0,0
714,498,0,0,0,0,0,0,0,0,0,-1,1938,526,0,0
721,498,0,0,0,0,0,0,0,0,0,-1,1945,526,0,0
728,498,0,0,0,0,0,0,0,0,0,-1,1952,526,0,0
735,498,0,0,0,0,0,0,0,0,0,-1,1959,526,0,0
742,498,0,0,0,0,0,0,0,0,0,-1,1966,526,0,0
749,498,0,0,0,0,0,0,0,0,0,-1,1973,526,0,0
756,498,0,0,0,0,0,0,0,0,0,-1,1980,526,0,0
763,498,0,0,0,0,0,0,0,0,0,-1,1987,526,0,0
770,498,0,0,0,0,0,0,0,0,0,-1,1994,526,0,0
777,498,0,0,0,0,0,0,0,0,0,-1,2001,526,0,0
784,498,0,0,0,0,0,0,0,0,0,-1,2008,526,0,0
791,498,0,0,0,0,0,0,0,0,0,-1,2015,526,0,0
798,498,0,0,0,0,0,0,0,0,0,-1,2022,526,0,0
805,498,0,0,0,0,0,0,0,0,0,-1,2029,526,0,0
812,498,0,0,0,0,0,0,0,0,0,-1,2036,526,0,0
-700,491,0,0,0,0,0,0,0,0,0,-1,524,533,0,0
-693,491,0,0,0,0,0,0,0,0,0,-1,531,533,0,0
-686,491,0,0,0,0,0,0,0,0,0,-1,538,533,0,0
-679,491,0,0,0,0,0,0,0,0,0,-1,545,533,0,0
-672,491,0,0,0,0,0,0,0,0,0,-1,552,533,0,0
-665,491,0,0,0,0,0,0,0,0,0,-1,559,533,0,0
-658,491,0,0,0,0,0,0,0,0,0,-1,566,533,0,0
-651,491,0,0,0,0,0,0,0,0,0,-1,573,533,0,0
-644,491,0,0,0,0,0,0,0,0,0,-1,580,533,0,0
-637,491,0,0,0,0,0,0,0,0,0,-1,587,533,0,0
-630,491,0,0,0,0,0,0,0,0,0,-1,594,533,0,0
-623,491,0,0,0,0,0,0,0,0,0,-1,601,533,0,0
-616,491,0,0,0,0,0,0,0,0,0,-1,608,533,0,0
-609,491,0,0,0,0,0,0,0,0,0,-1,615,533,0,0
-602,491,0,0,0,0,0,0,0,0,0,-1,622,533,0,0
-595,491,0,0,0,0,0,0,0,0,0,-1,629,533,0,0
-588,491,0,0,0,0,0,0,0,0,0,-1,636,533,0,0
-581,491,0,0,0,0,0,0,0,0,0,-1,643,533,0,0
-574,491,0,0,0,0,0,0,0,0,0,-1,650,533,0,0
-567,491,0,0,0,0,0,0,0,0,0,-1,657,533,0,0
-560,491,0,0,0,0,0,0,0,0,0,-1,664,533,0,0
-553,491,0,0,0,0,0,0,0,0,0,-1,671,533,0,0
-546,491,0,0,0,0,0,0,0,0,0,-1,678,533,0,0
-539,491,0,0,0,0,0,0,0,0,0,-1,685,533,0,0
-532,491,0,0,0,0,0,0,0,0,0,-1,692,533,0,0
-525,491,0,0,0,0,0,0,0,0,0,-1,699,533,0,0
-518,491,0,0,0,0,0,0,0,0,0,-1,706,533,0,0
-511,491,0,0,0,0,0,0,0,0,0,-1,713,533,0,0
-504,491,0,0,0,0,0,0,0,0,0,-1,720,533,0,0
-497,491,0,0,0,0,0,0,0,0,0,-1,727,533,0,0
-490,491,0,0,0,0,0,0,0,0,0,-1,734,533,0,0
-483,491,0,0,0,0,0,0,0,0,0,-1,741,533,0,0
-476,491,0,0,0,0,0,0,0,0,0,-1,748,533,0,0
-469,491,-5.85913,4.55011,0,0,0,0,0,0,0,-1,755,533,-5.8591,-4.55009
-462,491,-9.93713,4.90381,0,0,0,0,0,0,0,-1,762,533,-9.93716,-4.9038
-455,491,1.9494,-0.27887,0,0,0,0,0,0,0,-1,769,533,1.94941,0.27885
-448,491,2.68909,-1.8999,0,0,0,0,0,0,0,-1,776,533,2.6891,1.89988
-441,491,3.46069,-3.51855,0,0,0,0,0,0,0,-1,783,533,3.46071,3.51854
-434,491,2.67145,-7.44061,0,0,0,0,0,0,0,-1,790,533,2.67146,7.44061
-427,491,2.27136,-8.34546,0,0,0,0,0,0,0,-1,797,533,2.27136,8.34546
-420,491,-6.41321,-22.5922,0,0,0,0,0,0,0,-1,804,533,-6.41323,22.5922
-413,491,-5.84406,-24.5405,0,0,0,0,0,0,0,-1,811,533,-5.84406,24.5405
-406,491,-5.81854,-25.546,0.00168599,0.0129119,-0.00731958,0.0165229,-0.00192503,-1.11249,0.0117098,0.0306863,818,533,-5.81857,25.5459
-399,491,-5.85077,-26.582,0.00159206,0.0109047,-0.00662801,0.0143485,-0.00185173,-1.09161,0.0102389,0.0156005,825,533,-5.85077,26.582
-392,491,-5.98151,-27.546,0.00163014,0.00915025,-0.00592964,0.0124115,-0.0016311,-1.06796,0.00886817,0.0127105,832,533,-5.98149,27.5459
-385,491,-6.0329,-28.4905,0.00175446,0.00752155,-0.00518538,0.0105712,-0.00129521,-1.03915,0.0075165,0.0105775,839,533,-6.03291,28.4905
-378,491,-6.06049,-29.4578,0.00185462,0.00595072,-0.00437748,0.00873556,-0.000930225,-1.0042,0.00615725,0.0147604,846,533,-6.06051,29.4578
-371,491,-6.13019,-30.4269,0.00188658,0.00437163,-0.00359292,0.0069308,-0.000672599,-0.951874,0.00486027,0.0151934,853,533,-6.1302,30.4269
-364,491,-6.22467,-31.3902,0.00188316,0.00273292,-0.00268841,0.00502981,-0.000413738,-0.863771,0.00349928,0.014197,860,533,-6.22468,31.3902
-357,491,-6.2641,-32.3218,0.00190196,0.00132718,-0.00179772,0.00343512,-0.000205983,-0.706137,0.00236174,0.0128783,867,533,-6.26407,32.3218
-350,491,-6.32245,-33.2387,0.00194465,-8.98393e-06,-0.000960484,0.00233776,-0.000402094,-0.388484,0.00170839,0.0158308,874,533,-6.32245,33.2387
-343,491,-6.37219,-34.2568,0.00192358,-0.00135201,-0.000144285,0.00192993,-0.00135836,-0.0439351,0.00190803,0.0270407,881,533,-6.37217,34.2568
-336,491,-6.41016,-35.239,0.00176967,-0.0026889,0.000730953,0.00188645,-0.00280568,0.15842,0.00272628,0.0272977,888,533,-6.41014,35.239
-329,491,-6.4657,-36.0915,0.00165583,-0.00387378,0.00155548,0.00206335,-0.0042813,0.256233,0.00373695,0.0266564,895,533,-6.46567,36.0915
-322,491,-6.55933,-36.9738,0.0017406,-0.00464668,0.00212681,0.00238397,-0.00529005,0.293753,0.00453526,0.024013,902,533,-6.55931,36.9738
-315,491,-6.62915,-37.8436,0.0019282,-0.00512851,0.00252678,0.00273964,-0.00593996,0.310736,0.00512346,0.0228766,909,533,-6.62918,37.8435
-308,491,-6.64423,-38.943,0,0,0,0,0,0,0,-1,916,533,-6.64424,38.943
-301,491,-6.54926,-39.0012,0,0,0,0,0,0,0,-1,923,533,-6.54927,39.0012
-294,491,-0.777283,-8.60913,0,0,0,0,0,0,0,-1,930,533,-0.777288,8.6091
-287,491,-0.26123,-8.69055,0,0,0,0,0,0,0,-1,937,533,-0.261204,8.69053
-280,491,0.2948,-5.99219,0,0,0,0,0,0,0,-1,944,533,0.294811,5.99221
-273,491,0.369995,-5.33691,0,0,0,0,0,0,0,-1,951,533,0.369985,5.33693
-266,491,1.1167,-5.0321,0,0,0,0,0,0,0,-1,958,533,1.11668,5.0321
-259,491,12.0862,-16.9615,0,0,0,0,0,0,0,-1,965,533,12.0862,16.9615
-252,491,9.72443,-13.8417,0,0,0,0,0,0,0,-1,972,533,9.72444,13.8418
-245,491,5.27258,-14.3619,0,0,0,0,0,0,0,-1,979,533,5.27255,14.3619
-238,491,3.65381,-11.1472,0,0,0,0,0,0,0,-1,986,533,3.6538,11.1472
-231,491,2.17719,-7.86835,0,0,0,0,0,0,0,-1,993,533,2.17719,7.86832
-224,491,0.554626,-4.61725,0,0,0,0,0,0,0,-1,1000,533,0.554608,4.61727
-217,491,-2.92743,-1.0766,0,0,0,0,0,0,0,-1,1007,533,-2.92743,1.07659
-210,491,-0.92395,0.374512,0,0,0,0,0,0,0,-1,1014,533,-0.923959,-0.374531
-203,491,0.417419,4.77161,0,0,0,0,0,0,0,-1,1021,533,0.417446,-4.77162
-196,491,0,0,0,0,0,0,0,0,0,-1,1028,533,0,0
-189,491,0,0,0,0,0,0,0,0,0,-1,1035,533,0,0
-182,491,0,0,0,0,0,0,0,0,0,-1,1042,533,0,0
-175,491,0,0,0,0,0,0,0,0,0,-1,1049,533,0,0
-168,491,0,0,0,0,0,0,0,0,0,-1,1056,533,0,0
-161,491,0,0,0,0,0,0,0,0,0,-1,1063,533,0,0
-154,491,0,0,0,0,0,0,0,0,0,-1,1070,533,0,0
-147,491,0,0,0,0,0,0,0,0,0,-1,1077,533,0,0
-140,491,0,0,0,0,0,0,0,0,0,-1,1084,533,0,0
-133,491,0,0,0,0,0,0,0,0,0,-1,1091,533,0,0
-126,491,0,0,0,0,0,0,0,0,0,-1,1098,533,0,0
-119,491,0,0,0,0,0,0,0,0,0,-1,1105,533,0,0
-112,491,0,0,0,0,0,0,0,0,0,-1,1112,533,0,0
-105,491,0,0,0,0,0,0,0,0,0,-1,1119,533,0,0
-98,491,0,0,0,0,0,0,0,0,0,-1,1126,533,0,0
-91,491,0,0,0,0,0,0,0,0,0,-1,1133,533,0,0
-84,491,0,0,0,0,0,0,0,0,0,-1,1140,533,0,0
-77,491,0,0,0,0,0,0,0,0,0,-1,1147,533,0,0
-70,491,0,0,0,0,0,0,0,0,0,-1,1154,533,0,0
-63,491,0,0,0,0,0,0,0,0,0,-1,1161,533,0,0
-56,491,0,0,0,0,0,0,0,0,0,-1,1168,533,0,0
-49,491,0,0,0,0,0,0,0,0,0,-1,1175,533,0,0
-42,491,0,0,0,0,0,0,0,0,0,-1,1182,533,0,0
-35,491,0,0,0,0,0,0,0,0,0,-1,1189,533,0,0
-28,491,0,0,0,0,0,0,0,0,0,-1,1196,533,0,0
-21,491,0,0,0,0,0,0,0,0,0,-1,1203,533,0,0
-14,491,0,0,0,0,0,0,0,0,0,-1,1210,533,0,0
-7,491,0,0,0,0,0,0,0,0,0,-1,1217,533,0,0
0,491,0,0,0,0,0,0,0,0,0,-1,1224,533,0,0
7,491,0,0,0,0,0,0,0,0,0,-1,1231,533,0,0
14,491,0,0,0,0,0,0,0,0,0,-1,1238,533,0,0
21,491,0,0,0,0,0,0,0,0,0,-1,1245,533,0,0
28,491,0,0,0,0,0,0,0,0,0,-1,1252,533,0,0
35,491,0,0,0,0,0,0,0,0,0,-1,1259,533,0,0
42,491,0,0,0,0,0,0,0,0,0,-1,1266,533,0,0
49,491,0,0,0,0,0,0,0,0,0,-1,1273,533,0,0
56,491,0,0,0,0,0,0,0,0,0,-1,1280,533,0,0
63,491,0,0,0,0,0,0,0,0,0,-1,1287,533,0,0
70,491,0,0,0,0,0,0,0,0,0,-1,1294,533,0,0
77,491,0,0,0,0,0,0,0,0,0,-1,1301,533,0,0
84,491,0,0,0,0,0,0,0,0,0,-1,1308,533,0,0
91,491,0,0,0,0,0,0,0,0,0,-1,1315,533,0,0
98,491,0,0,0,0,0,0,0,0,0,-1,1322,533,0,0
105,491,0,0,0,0,0,0,0,0,0,-1,1329,533,0,0
112,491,0,0,0,0,0,0,0,0,0,-1,1336,533,0,0
119,491,0,0,0,0,0,0,0,0,0,-1,1343,533,0,0
126,491,0,0,0,0,0,0,0,0,0,-1,1350,533,0,0
133,491,0,0,0,0,0,0,0,0,0,-1,1357,533,0,0
140,491,0,0,0,0,0,0,0,0,0,-1,1364,533,0,0
147,491,0,0,0,0,0,0,0,0,0,-1,1371,533,0,0
154,491,0,0,0,0,0,0,0,0,0,-1,1378,533,0,0
161,491,0,0,0,0,0,0,0,0,0,-1,1385,533,0,0
168,491,0,0,0,0,0,0,0,0,0,-1,1392,533,0,0
175,491,0,0,0,0,0,0,0,0,0,-1,1399,533,0,0
182,491,0,0,0,0,0,0,0,0,0,-1,1406,533,0,0
189,491,0,0,0,0,0,0,0,0,0,-1,1413,533,0,0
196,491,0,0,0,0,0,0,0,0,0,-1,1420,533,0,0
203,491,0,0,0,0,0,0,0,0,0,-1,1427,533,0,0
210,491,0,0,0,0,0,0,0,0,0,-1,1434,533,0,0
217,491,0,0,0,0,0,0,0,0,0,-1,1441,533,0,0
224,491,0,0,0,0,0,0,0,0,0,-1,1448,533,0,0
231,491,0,0,0,0,0,0,0,0,0,-1,1455,533,0,0
238,491,0,0,0,0,0,0,0,0,0,-1,1462,533,0,0
245,491,0,0,0,0,0,0,0,0,0,-1,1469,533,0,0
252,491,0,0,0,0,0,0,0,0,0,-1,1476,533,0,0
259,491,0,0,0,0,0,0,0,0,0,-1,1483,533,0,0
266,491,0,0,0,0,0,0,0,0,0,-1,1490,533,0,0
273,491,0,0,0,0,0,0,0,0,0,-1,1497,533,0,0
280,491,0,0,0,0,0,0,0,0,0,-1,1504,533,0,0
287,491,0,0,0,0,0,0,0,0,0,-1,1511,533,0,0
294,491,0,0,0,0,0,0,0,0,0,-1,1518,533,0,0
301,491,0,0,0,0,0,0,0,0,0,-1,1525,533,0,0
308,491,0,0,0,0,0,0,0,0,0,-1,1532,533,0,0
315,491,0,0,0,0,0,0,0,0,0,-1,1539,533,0,0
322,491,4.26331,-0.734314,0,0,0,0,0,0,0,-1,1546,533,4.26326,0.734324
329,491,4.25354,-0.783752,0,0,0,0,0,0,0,-1,1553,533,4.25359,0.783734
336,491,4.81604,-0.722107,0,0,0,0,0,0,0,-1,1560,533,4.81605,0.722115
343,491,6.14478,-1.44281,0,0,0,0,0,0,0,-1,1567,533,6.14474,1.44281
350,491,6.36353,-1.30792,0,0,0,0,0,0,0,-1,1574,533,6.36352,1.3079
357,491,6.69482,-1.06018,0,0,0,0,0,0,0,-1,1581,533,6.69489,1.06018
364,491,8.01086,-1.69604,0,0,0,0,0,0,0,-1,1588,533,8.01087,1.69607
371,491,8.2135,-0.539307,0,0,0,0,0,0,0,-1,1595,533,8.21348,0.53929
378,491,13.3589,2.17267,0,0,0,0,0,0,0,-1,1602,533,13.3589,-2.17264
385,491,8.08228,-4.95471,0,0,0,0,0,0,0,-1,1609,533,8.08227,4.95474
392,491,2.88721,-4.30988,0,0,0,0,0,0,0,-1,1616,533,2.88716,4.30986
399,491,8.95862,-8.55518,0,0,0,0,0,0,0,-1,1623,533,8.95864,8.55516
406,491,8.16541,-9.00806,0,0,0,0,0,0,0,-1,1630,533,8.16535,9.00807
413,491,5.31848,-3.7124,0,0,0,0,0,0,0,-1,1637,533,5.31849,3.7124
420,491,4.86389,-3.95892,0,0,0,0,0,0,0,-1,1644,533,4.86387,3.95893
427,491,11.5096,-15.2742,0,0,0,0,0,0,0,-1,1651,533,11.5096,15.2742
434,491,23.0629,-38.7957,0,0,0,0,0,0,0,-1,1658,533,23.0629,38.7957
441,491,23.2327,-37.4653,0.0026525,0.00140112,-0.000442289,0.00279304,0.00126058,-0.307665,0.00161511,0.0457913,1665,533,23.2327,37.4653
448,491,23.1573,-36.7897,0.00217576,0.00117152,-0.000454592,0.00235097,0.000996304,-0.367879,0.00136258,0.0263301,1672,533,23.1573,36.7897
455,491,23.1212,-35.8207,0.00186309,0.000977391,-0.000503666,0.0020909,0.000749573,-0.424783,0.00122319,0.0165313,1679,533,23.1212,35.8207
462,491,23.1228,-34.9169,0.00159177,0.000867379,-0.000421144,0.00178505,0.000674104,-0.430254,0.00104083,0.0169248,1686,533,23.1228,34.9169
469,491,23.0509,-34.0143,0.00147077,0.000928691,-0.000178128,0.00152407,0.000875398,-0.290709,0.00088316,0.0158941,1693,533,23.0509,34.0144
476,491,22.9866,-33.0693,0.00143779,0.00104844,0.000159649,0.00149488,0.00099135,0.343431,0.000878255,0.0112655,1700,533,22.9865,33.0693
483,491,22.9225,-32.1158,0.00147575,0.00114723,0.000521325,0.00185808,0.000764896,0.632779,0.00107833,0.0132441,1707,533,22.9225,32.1158
490,491,22.8741,-31.1793,0.00144471,0.00138762,0.000882181,0.00229881,0.000533522,0.769224,0.00138928,0.0115471,1714,533,22.8742,31.1792
497,491,22.812,-30.2137,0.00148841,0.00167453,0.00136409,0.00294873,0.000214211,0.819456,0.00189845,0.0124034,1721,533,22.812,30.2138
504,491,22.7719,-29.2092,0.00161553,0.00173843,0.00182523,0.00350325,-0.000149277,0.802225,0.00238681,0.0141672,1728,533,22.7719,29.2092
511,491,22.6887,-28.2291,0.00167271,0.00186538,0.00226615,0.00403725,-0.000499148,0.806641,0.00287237,0.0135397,1735,533,22.6887,28.2291
518,491,22.6155,-27.3074,0.0016018,0.00205512,0.00259261,0.00443096,-0.000774036,0.829001,0.00324292,0.0108298,1742,533,22.6155,27.3074
525,491,22.5826,-26.3329,0.00156381,0.00222059,0.00292178,0.00483237,-0.00104797,0.84136,0.0036218,0.0117704,1749,533,22.5826,26.3329
532,491,22.5198,-25.3895,0.00149598,0.00248622,0.00324168,0.00527038,-0.00128817,0.86118,0.0040125,0.031723,1756,533,22.5198,25.3895
539,491,22.498,-24.3079,0,0,0,0,0,0,0,-1,1763,533,22.498,24.3079
546,491,20.9723,-22.4818,0,0,0,0,0,0,0,-1,1770,533,20.9723,22.4818
553,491,10.5021,-7.77869,0,0,0,0,0,0,0,-1,1777,533,10.502,7.77871
560,491,6.28455,-1.43585,0,0,0,0,0,0,0,-1,1784,533,6.28458,1.43586
567,491,5.67651,-1.3562,0,0,0,0,0,0,0,-1,1791,533,5.67649,1.3562
574,491,8.0719,1.58325,0,0,0,0,0,0,0,-1,1798,533,8.07195,-1.58326
581,491,9.44812,1.60931,0,0,0,0,0,0,0,-1,1805,533,9.44808,-1.60933
588,491,11.0497,1.54962,0,0,0,0,0,0,0,-1,1812,533,11.0496,-1.54963
595,491,0,0,0,0,0,0,0,0,0,-1,1819,533,0,0
602,491,0,0,0,0,0,0,0,0,0,-1,1826,533,0,0
609,491,0,0,0,0,0,0,0,0,0,-1,1833,533,0,0
616,491,0,0,0,0,0,0,0,0,0,-1,1840,533,0,0
623,491,0,0,0,0,0,0,0,0,0,-1,1847,533,0,0
630,491,0,0,0,0,0,0,0,0,0,-1,1854,533,0,0
637,491,0,0,0,0,0,0,0,0,0,-1,1861,533,0,0
644,491,0,0,0,0,0,0,0,0,0,-1,1868,533,0,0
651,491,0,0,0,0,0,0,0,0,0,-1,1875,533,0,0
658,491,0,0,0,0,0,0,0,0,0,-1,1882,533,0,0
665,491,0,0,0,0,0,0,0,0,0,-1,1889,533,0,0
672,491,0,0,0,0,0,0,0,0,0,-1,1896,533,0,0
679,491,0,0,0,0,0,0,0,0,0,-1,1903,533,0,0
686,491,0,0,0,0,0,0,0,0,0,-1,1910,533,0,0
693,491,0,0,0,0,0,0,0,0,0,-1,1917,533,0,0
700,491,0,0,0,0,0,0,0,0,0,-1,1924,533,0,0
707,491,0,0,0,0,0,0,0,0,0,-1,1931,533,0,0
714,491,0,0,0,0,0,0,0,0,0,-1,1938,533,0,0
721,491,0,0,0,0,0,0,0,0,0,-1,1945,533,0,0
728,491,0,0,0,0,0,0,0,0,0,-1,1952,533,0,0
735,491,0,0,0,0,0,0,0,0,0,-1,1959,533,0,0
742,491,0,0,0,0,0,0,0,0,0,-1,1966,533,0,0
749,491,0,0,0,0,0,0,0,0,0,-1,1973,533,0,0
756,491,0,0,0,0,0,0,0,0,0,-1,1980,533,0,0
763,491,0,0,0,0,0,0,0,0,0,-1,1987,533,0,0
770,491,0,0,0,0,0,0,0,0,0,-1,1994,533,0,0
777,491,0,0,0,0,0,0,0,0,0,-1,2001,533,0,0
784,491,0,0,0,0,0,0,0,0,0,-1,2008,533,0,0
791,491,0,0,0,0,0,0,0,0,0,-1,2015,533,0,0
798,491,0,0,0,0,0,0,0,0,0,-1,2022,533,0,0
805,491,0,0,0,0,0,0,0,0,0,-1,2029,533,0,0
812,491,0,0,0,0,0,0,0,0,0,-1,2036,533,0,0
-700,484,0,0,0,0,0,0,0,0,0,-1,524,540,0,0
-693,484,0,0,0,0,0,0,0,0,0,-1,531,540,0,0
-686,484,0,0,0,0,0,0,0,0,0,-1,538,540,0,0
-679,484,0,0,0,0,0,0,0,0,0,-1,545,540,0,0
-672,484,0,0,0,0,0,0,0,0,0,-1,552,540,0,0
-665,484,0,0,0,0,0,0,0,0,0,-1,559,540,0,0
-658,484,0,0,0,0,0,0,0,0,0,-1,566,540,0,0
-651,484,0,0,0,0,0,0,0,0,0,-1,573,540,0,0
-644,484,0,0,0,0,0,0,0,0,0,-1,580,540,0,0
-637,484,0,0,0,0,0,0,0,0,0,-1,587,540,0,0
-630,484,0,0,0,0,0,0,0,0,0,-1,594,540,0,0
-623,484,0,0,0,0,0,0,0,0,0,-1,601,540,0,0
-616,484,0,0,0,0,0,0,0,0,0,-1,608,540,0,0
-609,484,0,0,0,0,0,0,0,0,0,-1,615,540,0,0
-602,484,0,0,0,0,0,0,0,0,0,-1,622,540,0,0
-595,484,0,0,0,0,0,0,0,0,0,-1,629,540,0,0
-588,484,0,0,0,0,0,0,0,0,0,-1,636,540,0,0
-581,484,0,0,0,0,0,0,0,0,0,-1,643,540,0,0
-574,484,0,0,0,0,0,0,0,0,0,-1,650,540,0,0
-567,484,0,0,0,0,0,0,0,0,0,-1,657,540,0,0
-560,484,0,0,0,0,0,0,0,0,0,-1,664,540,0,0
-553,484,0,0,0,0,0,0,0,0,0,-1,671,540,0,0
-546,484,0,0,0,0,0,0,0,0,0,-1,678,540,0,0
-539,484,0,0,0,0,0,0,0,0,0,-1,685,540,0,0
-532,484,0,0,0,0,0,0,0,0,0,-1,692,540,0,0
-525,484,0,0,0,0,0,0,0,0,0,-1,699,540,0,0
-518,484,0,0,0,0,0,0,0,0,0,-1,706,540,0,0
-511,484,0,0,0,0,0,0,0,0,0,-1,713,540,0,0
-504,484,0,0,0,0,0,0,0,0,0,-1,720,540,0,0
-497,484,0,0,0,0,0,0,0,0,0,-1,727,540,0,0
-490,484,0,0,0,0,0,0,0,0,0,-1,734,540,0,0
-483,484,0,0,0,0,0,0,0,0,0,-1,741,540,0,0
-476,484,-8.46552,1.44702,0,0,0,0,0,0,0,-1,748,540,-8.46554,-1.44702
-469,484,-7.82343,1.70355,0,0,0,0,0,0,0,-1,755,540,-7.82345,-1.70355
-462,484,-8.36987,3.08612,0,0,0,0,0,0,0,-1,762,540,-8.36988,-3.0861
-455,484,-6.77197,2.07092,0,0,0,0,0,0,0,-1,769,540,-6.77197,-2.07094
-448,484,3.54895,-1.40106,0,0,0,0,0,0,0,-1,776,540,3.54897,1.40106
-441,484,4.28906,-3.05884,0,0,0,0,0,0,0,-1,783,540,4.28905,3.05883
-434,484,-2.17548,-5.07245,0,0,0,0,0,0,0,-1,790,540,-2.17546,5.07243
-427,484,-6.53058,-21.909,0,0,0,0,0,0,0,-1,797,540,-6.53057,21.909
-420,484,-6.52124,-23.225,0,0,0,0,0,0,0,-1,804,540,-6.52123,23.225
-413,484,-6.58136,-24.37,0.00117007,0.0114814,-0.00574011,0.0140413,-0.00138982,-1.1513,0.00985684,0.0378797,811,540,-6.58138,24.37
-406,484,-6.70276,-25.4777,0.00118068,0.00964965,-0.0053248,0.0122184,-0.0013881,-1.12131,0.00864554,0.0209205,818,540,-6.70275,25.4777
-399,484,-6.85437,-26.5079,0.00117427,0.0078798,-0.00473475,0.0103287,-0.00127459,-1.09348,0.00734758,0.0170065,825,540,-6.85435,26.5079
-392,484,-6.93768,-27.4674,0.00129604,0.00631234,-0.00415565,0.00865808,-0.0010497,-1.05691,0.00615188,0.0198068,832,540,-6.93766,27.4674
-385,484,-6.99316,-28.4329,0.00152566,0.0048968,-0.00355955,0.0071497,-0.00072724,-1.00652,0.00502645,0.0143771,839,540,-6.99318,28.4329
-378,484,-7.03668,-29.3998,0.00170936,0.00351322,-0.00287749,0.00562682,-0.000404241,-0.937271,0.00389296,0.016397,846,540,-7.03669,29.3998
-371,484,-7.10547,-30.3499,0.00182531,0.00215442,-0.0022212,0.00421714,-0.000237423,-0.822373,0.00289382,0.0172844,853,540,-7.10546,30.3499
-364,484,-7.16785,-31.287,0.00190494,0.000776186,-0.00147597,0.00292075,-0.000239625,-0.602786,0.00203176,0.0120542,860,540,-7.16786,31.287
-357,484,-7.22003,-32.2197,0.00199624,-0.000378975,-0.000761616,0.00221947,-0.000602208,-0.285118,0.00171598,0.0137126,867,540,-7.22005,32.2197
-350,484,-7.29932,-33.1436,0.0020991,-0.0014655,-0.00010846,0.00210239,-0.00146879,-0.0303896,0.00207261,0.0158391,874,540,-7.29931,33.1435
-343,484,-7.3222,-34.1345,0.00208924,-0.00250571,0.000537998,0.00215139,-0.00256786,0.115012,0.00272819,0.0233303,881,540,-7.32219,34.1344
-336,484,-7.36194,-35.0795,0.0019181,-0.00360188,0.00127238,0.00219727,-0.00388105,0.215985,0.00355392,0.0249966,888,540,-7.36191,35.0796
-329,484,-7.41162,-35.9536,0.00179824,-0.00460551,0.00196972,0.0023556,-0.00516287,0.275752,0.0044405,0.0367748,895,540,-7.41164,35.9536
-322,484,-7.42664,-36.9454,0,0,0,0,0,0,0,-1,902,540,-7.42666,36.9454
-315,484,-7.33673,-37.8541,0,0,0,0,0,0,0,-1,909,540,-7.33675,37.8541
-308,484,-1.32623,-8.9317,0,0,0,0,0,0,0,-1,916,540,-1.32626,8.93173
-301,484,-1.33453,-6.52667,0,0,0,0,0,0,0,-1,923,540,-1.33454,6.5267
-294,484,-1.61224,-8.17059,0,0,0,0,0,0,0,-1,930,540,-1.61227,8.17058
-287,484,-0.715759,-5.62103,0,0,0,0,0,0,0,-1,937,540,-0.715772,5.62105
-280,484,2.66742,-1.6795,0,0,0,0,0,0,0,-1,944,540,2.6674,1.67949
-273,484,2.53125,-2.22296,0,0,0,0,0,0,0,-1,951,540,2.53128,2.22295
-266,484,2.6778,-2.72058,0,0,0,0,0,0,0,-1,958,540,2.6778,2.72061
-259,484,2.41718,-2.59894,0,0,0,0,0,0,0,-1,965,540,2.41717,2.59892
-252,484,10.6069,-11.696,0,0,0,0,0,0,0,-1,972,540,10.6069,11.696
-245,484,6.34106,-11.6107,0,0,0,0,0,0,0,-1,979,540,6.34104,11.6107
-238,484,4.89319,-8.54059,0,0,0,0,0,0,0,-1,986,540,4.89321,8.5406
-231,484,3.47675,-5.22064,0,0,0,0,0,0,0,-1,993,540,3.47676,5.22067
-224,484,1.71344,-2.03473,0,0,0,0,0,0,0,-1,1000,540,1.71342,2.03472
-217,484,-0.745056,1.17358,0,0,0,0,0,0,0,-1,1007,540,-0.745043,-1.17359
-210,484,0,0,0,0,0,0,0,0,0,-1,1014,540,0,0
-203,484,0,0,0,0,0,0,0,0,0,-1,1021,540,0,0
-196,484,0,0,0,0,0,0,0,0,0,-1,1028,540,0,0
-189,484,0,0,0,0,0,0,0,0,0,-1,1035,540,0,0
-182,484,0,0,0,0,0,0,0,0,0,-1,1042,540,0,0
-175,484,0,0,0,0,0,0,0,0,0,-1,1049,540,0,0
-168,484,0,0,0,0,0,0,0,0,0,-1,1056,540,0,0
-161,484,0,0,0,0,0,0,0,0,0,-1,1063,540,0,0
-154,484,0,0,0,0,0,0,0,0,0,-1,1070,540,0,0
-147,484,0,0,0,0,0,0,0,0,0,-1,1077,540,0,0
-140,484,0,0,0,0,0,0,0,0,0,-1,1084,540,0,0
-133,484,0,0,0,0,0,0,0,0,0,-1,1091,540,0,0
-126,484,0,0,0,0,0,0,0,0,0,-1,1098,540,0,0
-119,484,0,0,0,0,0,0,0,0,0,-1,1105,540,0,0
-112,484,0,0,0,0,0,0,0,0,0,-1,1112,540,0,0
-105,484,0,0,0,0,0,0,0,0,0,-1,1119,540,0,0
-98,484,0,0,0,0,0,0,0,0,0,-1,1126,540,0,0
-91,484,0,0,0,0,0,0,0,0,0,-1,1133,540,0,0
-84,484,0,0,0,0,0,0,0,0,0,-1,1140,540,0,0
-77,484,0,0,0,0,0,0,0,0,0,-1,1147,540,0,0
-70,484,0,0,0,0,0,0,0,0,0,-1,1154,540,0,0
-63,484,0,0,0,0,0,0,0,0,0,-1,1161,540,0,0
-56,484,0,0,0,0,0,0,0,0,0,-1,1168,540,0,0
-49,484,0,0,0,0,0,0,0,0,0,-1,1175,540,0,0
-42,484,0,0,0,0,0,0,0,0,0,-1,1182,540,0,0
-35,484,0,0,0,0,0,0,0,0,0,-1,1189,540,0,0
-28,484,0,0,0,0,0,0,0,0,0,-1,1196,540,0,0
-21,484,0,0,0,0,0,0,0,0,0,-1,1203,540,0,0
-14,484,0,0,0,0,0,0,0,0,0,-1,1210,540,0,0
-7,484,0,0,0,0,0,0,0,0,0,-1,1217,540,0,0
0,484,0,0,0,0,0,0,0,0,0,-1,1224,540,0,0
7,484,0,0,0,0,0,0,0,0,0,-1,1231,540,0,0
14,484,0,0,0,0,0,0,0,0,0,-1,1238,540,0,0
21,484,0,0,0,0,0,0,0,0,0,-1,1245,540,0,0
28,484,0,0,0,0,0,0,0,0,0,-1,1252,540,0,0
35,484,0,0,0,0,0,0,0,0,0,-1,1259,540,0,0
42,484,0,0,0,0,0,0,0,0,0,-1,1266,540,0,0
49,484,0,0,0,0,0,0,0,0,0,-1,1273,540,0,0
56,484,0,0,0,0,0,0,0,0,0,-1,1280,540,0,0
63,484,0,0,0,0,0,0,0,0,0,-1,1287,540,0,0
70,484,0,0,0,0,0,0,0,0,0,-1,1294,540,0,0
77,484,0,0,0,0,0,0,0,0,0,-1,1301,540,0,0
84,484,0,0,0,0,0,0,0,0,0,-1,1308,540,0,0
91,484,0,0,0,0,0,0,0,0,0,-1,1315,540,0,0
98,484,0,0,0,0,0,0,0,0,0,-1,1322,540,0,0
105,484,0,0,0,0,0,0,0,0,0,-1,1329,540,0,0
112,484,0,0,0,0,0,0,0,0,0,-1,1336,540,0,0
119,484,0,0,0,0,0,0,0,0,0,-1,1343,540,0,0
126,484,0,0,0,0,0,0,0,0,0,-1,1350,540,0,0
133,484,0,0,0,0,0,0,0,0,0,-1,1357,540,0,0
140,484,0,0,0,0,0,0,0,0,0,-1,1364,540,0,0
147,484,0,0,0,0,0,0,0,0,0,-1,1371,540,0,0
154,484,0,0,0,0,0,0,0,0,0,-1,1378,540,0,0
161,484,0,0,0,0,0,0,0,0,0,-1,1385,540,0,0
168,484,0,0,0,0,0,0,0,0,0,-1,1392,540,0,0
175,484,0,0,0,0,0,0,0,0,0,-1,1399,540,0,0
182,484,0,0,0,0,0,0,0,0,0,-1,1406,540,0,0
189,484,0,0,0,0,0,0,0,0,0,-1,1413,540,0,0
196,484,0,0,0,0,0,0,0,0,0,-1,1420,540,0,0
203,484,0,0,0,0,0,0,0,0,0,-1,1427,540,0,0
210,484,0,0,0,0,0,0,0,0,0,-1,1434,540,0,0
217,484,0,0,0,0,0,0,0,0,0,-1,1441,540,0,0
224,484,0,0,0,0,0,0,0,0,0,-1,1448,540,0,0
231,484,0,0,0,0,0,0,0,0,0,-1,1455,540,0,0
238,484,0,0,0,0,0,0,0,0,0,-1,1462,540,0,0
245,484,0,0,0,0,0,0,0,0,0,-1,1469,540,0,0
252,484,0,0,0,0,0,0,0,0,0,-1,1476,540,0,0
259,484,0,0,0,0,0,0,0,0,0,-1,1483,540,0,0
266,484,0,0,0,0,0,0,0,0,0,-1,1490,540,0,0
273,484,0,0,0,0,0,0,0,0,0,-1,1497,540,0,0
280,484,0,0,0,0,0,0,0,0,0,-1,1504,540,0,0
287,484,0,0,0,0,0,0,0,0,0,-1,1511,540,0,0
294,484,0,0,0,0,0,0,0,0,0,-1,1518,540,0,0
301,484,0,0,0,0,0,0,0,0,0,-1,1525,540,0,0
308,484,0,0,0,0,0,0,0,0,0,-1,1532,540,0,0
315,484,0,0,0,0,0,0,0,0,0,-1,1539,540,0,0
322,484,0,0,0,0,0,0,0,0,0,-1,1546,540,0,0
329,484,0,0,0,0,0,0,0,0,0,-1,1553,540,0,0
336,484,4.38708,-1.64136,0,0,0,0,0,0,0,-1,1560,540,4.38704,1.64138
343,484,7.57996,-1.05457,0,0,0,0,0,0,0,-1,1567,540,7.57995,1.05454
350,484,8.10425,-1.18878,0,0,0,0,0,0,0,-1,1574,540,8.1043,1.18877
357,484,7.74902,-3.80286,0,0,0,0,0,0,0,-1,1581,540,7.74901,3.80287
364,484,6.31262,-3.87213,0,0,0,0,0,0,0,-1,1588,540,6.31263,3.87215
371,484,7.21008,0.973511,0,0,0,0,0,0,0,-1,1595,540,7.21014,-0.973541
378,484,11.0563,1.5014,0,0,0,0,0,0,0,-1,1602,540,11.0563,-1.5014
385,484,14.3469,2.5545,0,0,0,0,0,0,0,-1,1609,540,14.3469,-2.55453
392,484,7.39453,-4.95026,0,0,0,0,0,0,0,-1,1616,540,7.39448,4.95023
399,484,7.14417,-2.5639,0,0,0,0,0,0,0,-1,1623,540,7.14417,2.56391
406,484,7.88953,-2.47321,0,0,0,0,0,0,0,-1,1630,540,7.88954,2.47323
413,484,4.4895,-1.08673,0,0,0,0,0,0,0,-1,1637,540,4.48952,1.08674
420,484,4.50012,-2.11255,0,0,0,0,0,0,0,-1,1644,540,4.50012,2.11256
427,484,5.28601,-3.54053,0,0,0,0,0,0,0,-1,1651,540,5.28599,3.54051
434,484,11.1488,-13.5359,0,0,0,0,0,0,0,-1,1658,540,11.1489,13.5359
441,484,24.0583,-37.0822,0,0,0,0,0,0,0,-1,1665,540,24.0584,37.0822
448,484,24.0225,-36.8802,0,0,0,0,0,0,0,-1,1672,540,24.0225,36.8802
455,484,24.0564,-35.813,0,0,0,0,0,0,0,-1,1679,540,24.0564,35.813
462,484,24.0486,-34.8626,0.00165416,0.000479277,-0.00104579,0.0022662,-0.000132766,-0.529499,0.00155695,0.0320062,1686,540,24.0485,34.8626
469,484,24.011,-33.944,0.00144364,0.000550076,-0.000770224,0.00188728,0.00010643,-0.522582,0.00122425,0.019679,1693,540,24.011,33.944
476,484,23.9274,-32.9509,0.00136428,0.000676999,-0.000387456,0.00153853,0.000502748,-0.42263,0.000905865,0.0190853,1700,540,23.9273,32.9509
483,484,23.8688,-32.0173,0.0013578,0.000783856,-6.19848e-06,0.00135787,0.000783789,-0.0107981,0.000787074,0.0164723,1707,540,23.8687,32.0173
490,484,23.825,-31.1284,0.00125296,0.00102389,0.000344029,0.00150102,0.000775827,0.624708,0.000866776,0.0149446,1714,540,23.8249,31.1284
497,484,23.7761,-30.1583,0.00125038,0.00138772,0.000874437,0.00219618,0.00044192,0.824585,0.0013413,0.014537,1721,540,23.7761,30.1582
504,484,23.7242,-29.1733,0.00131334,0.00142085,0.00132605,0.00269424,3.9961e-05,0.805656,0.00178299,0.0164877,1728,540,23.7242,29.1733
511,484,23.6631,-28.2034,0.00130073,0.00153246,0.00174665,0.00316709,-0.000333899,0.818518,0.00223104,0.0208175,1735,540,23.663,28.2034
518,484,23.5881,-27.2646,0.00116226,0.00170046,0.00206393,0.00351276,-0.000650042,0.850224,0.0025859,0.0183996,1742,540,23.5881,27.2647
525,484,23.502,-26.3037,0.00106966,0.00186339,0.00237123,0.00387073,-0.00093768,0.868313,0.00294327,0.0149501,1749,540,23.5019,26.3037
532,484,23.4532,-25.301,0.000982098,0.00214148,0.00266862,0.00429265,-0.00116907,0.892349,0.00332077,0.0167695,1756,540,23.4532,25.301
539,484,23.3623,-24.2785,0.00080068,0.00251542,0.00283049,0.00461554,-0.00129944,0.932459,0.00358945,0.0455456,1763,540,23.3623,24.2785
546,484,23.2762,-23.132,0,0,0,0,0,0,0,-1,1770,540,23.2763,23.132
553,484,12.4246,-8.96423,0,0,0,0,0,0,0,-1,1777,540,12.4246,8.96422
560,484,10.0549,-5.47931,0,0,0,0,0,0,0,-1,1784,540,10.055,5.47928
567,484,7.78223,-1.38312,0,0,0,0,0,0,0,-1,1791,540,7.78224,1.38311
574,484,5.74463,1.50922,0,0,0,0,0,0,0,-1,1798,540,5.74463,-1.50924
581,484,10.34,2.9491,0,0,0,0,0,0,0,-1,1805,540,10.34,-2.94912
588,484,10.6669,2.88568,0,0,0,0,0,0,0,-1,1812,540,10.6669,-2.88567
595,484,10.7233,1.04767,0,0,0,0,0,0,0,-1,1819,540,10.7233,-1.04766
602,484,0,0,0,0,0,0,0,0,0,-1,1826,540,0,0
609,484,0,0,0,0,0,0,0,0,0,-1,1833,540,0,0
616,484,0,0,0,0,0,0,0,0,0,-1,1840,540,0,0
623,484,0,0,0,0,0,0,0,0,0,-1,1847,540,0,0
630,484,0,0,0,0,0,0,0,0,0,-1,1854,540,0,0
637,484,0,0,0,0,0,0,0,0,0,-1,1861,540,0,0
644,484,0,0,0,0,0,0,0,0,0,-1,1868,540,0,0
651,484,0,0,0,0,0,0,0,0,0,-1,1875,540,0,0
658,484,0,0,0,0,0,0,0,0,0,-1,1882,540,0,0
665,484,0,0,0,0,0,0,0,0,0,-1,1889,540,0,0
672,484,0,0,0,0,0,0,0,0,0,-1,1896,540,0,0
679,484,0,0,0,0,0,0,0,0,0,-1,1903,540,0,0
686,484,0,0,0,0,0,0,0,0,0,-1,1910,540,0,0
693,484,0,0,0,0,0,0,0,0,0,-1,1917,540,0,0
700,484,0,0,0,0,0,0,0,0,0,-1,1924,540,0,0
707,484,0,0,0,0,0,0,0,0,0,-1,1931,540,0,0
714,484,0,0,0,0,0,0,0,0,0,-1,1938,540,0,0
721,484,0,0,0,0,0,0,0,0,0,-1,1945,540,0,0
728,484,0,0,0,0,0,0,0,0,0,-1,1952,540,0,0
735,484,0,0,0,0,0,0,0,0,0,-1,1959,540,0,0
742,484,0,0,0,0,0,0,0,0,0,-1,1966,540,0,0
749,484,0,0,0,0,0,0,0,0,0,-1,1973,540,0,0
756,484,0,0,0,0,0,0,0,0,0,-1,1980,540,0,0
763,484,0,0,0,0,0,0,0,0,0,-1,1987,540,0,0
770,484,0,0,0,0,0,0,0,0,0,-1,1994,540,0,0
777,484,0,0,0,0,0,0,0,0,0,-1,2001,540,0,0
784,484,0,0,0,0,0,0,0,0,0,-1,2008,540,0,0
791,484,0,0,0,0,0,0,0,0,0,-1,2015,540,0,0
798,484,0,0,0,0,0,0,0,0,0,-1,2022,540,0,0
805,484,0,0,0,0,0,0,0,0,0,-1,2029,540,0,0
812,484,0,0,0,0,0,0,0,0,0,-1,2036,540,0,0
-700,477,0,0,0,0,0,0,0,0,0,-1,524,547,0,0
-693,477,0,0,0,0,0,0,0,0,0,-1,531,547,0,0
-686,477,0,0,0,0,0,0,0,0,0,-1,538,547,0,0
-679,477,0,0,0,0,0,0,0,0,0,-1,545,547,0,0
-672,477,0,0,0,0,0,0,0,0,0,-1,552,547,0,0
-665,477,0,0,0,0,0,0,0,0,0,-1,559,547,0,0
-658,477,0,0,0,0,0,0,0,0,0,-1,566,547,0,0
-651,477,0,0,0,0,0,0,0,0,0,-1,573,547,0,0
-644,477,0,0,0,0,0,0,0,0,0,-1,580,547,0,0
-637,477,0,0,0,0,0,0,0,0,0,-1,587,547,0,0
-630,477,0,0,0,0,0,0,0,0,0,-1,594,547,0,0
-623,477,0,0,0,0,0,0,0,0,0,-1,601,547,0,0
-616,477,0,0,0,0,0,0,0,0,0,-1,608,547,0,0
-609,477,0,0,0,0,0,0,0,0,0,-1,615,547,0,0
-602,477,0,0,0,0,0,0,0,0,0,-1,622,547,0,0
-595,477,0,0,0,0,0,0,0,0,0,-1,629,547,0,0
-588,477,0,0,0,0,0,0,0,0,0,-1,636,547,0,0
-581,477,0,0,0,0,0,0,0,0,0,-1,643,547,0,0
-574,477,0,0,0,0,0,0,0,0,0,-1,650,547,0,0
-567,477,0,0,0,0,0,0,0,0,0,-1,657,547,0,0
-560,477,0,0,0,0,0,0,0,0,0,-1,664,547,0,0
-553,477,0,0,0,0,0,0,0,0,0,-1,671,547,0,0
-546,477,0,0,0,0,0,0,0,0,0,-1,678,547,0,0
-539,477,0,0,0,0,0,0,0,0,0,-1,685,547,0,0
-532,477,0,0,0,0,0,0,0,0,0,-1,692,547,0,0
-525,477,0,0,0,0,0,0,0,0,0,-1,699,547,0,0
-518,477,0,0,0,0,0,0,0,0,0,-1,706,547,0,0
-511,477,0,0,0,0,0,0,0,0,0,-1,713,547,0,0
-504,477,0,0,0,0,0,0,0,0,0,-1,720,547,0,0
-497,477,0,0,0,0,0,0,0,0,0,-1,727,547,0,0
-490,477,0,0,0,0,0,0,0,0,0,-1,734,547,0,0
-483,477,-7.73151,-0.224182,0,0,0,0,0,0,0,-1,741,547,-7.73152,0.224176
-476,477,-6.25806,-0.310547,0,0,0,0,0,0,0,-1,748,547,-6.25804,0.310549
-469,477,-7.26617,0.525085,0,0,0,0,0,0,0,-1,755,547,-7.2662,-0.525111
-462,477,-6.65143,1.06042,0,0,0,0,0,0,0,-1,762,547,-6.65143,-1.06043
-455,477,-5.31757,0.429016,0,0,0,0,0,0,0,-1,769,547,-5.31756,-0.42902
-448,477,-4.0697,0.273376,0,0,0,0,0,0,0,-1,776,547,-4.06971,-0.273363
-441,477,-2.47504,-4.76971,0,0,0,0,0,0,0,-1,783,547,-2.47505,4.76973
-434,477,-7.26532,-21.5938,0,0,0,0,0,0,0,-1,790,547,-7.2653,21.5938
-427,477,-7.48676,-22.2048,0.000511875,0.0122019,-0.0040088,0.0134445,-0.000730753,-1.27021,0.00921627,0.0484493,797,547,-7.48674,22.2049
-420,477,-7.55591,-23.0164,0.000603421,0.0104816,-0.00419769,0.0120244,-0.000939407,-1.21858,0.00834703,0.0392234,804,547,-7.55593,23.0164
-413,477,-7.57391,-24.3302,0.000718631,0.00879869,-0.00414105,0.010544,-0.00102668,-1.17192,0.00739535,0.022719,811,547,-7.57393,24.3302
-406,477,-7.72675,-25.4274,0.000801139,0.0071586,-0.00378568,0.00892312,-0.000963378,-1.13463,0.00629449,0.0119241,818,547,-7.72673,25.4274
-399,477,-7.80737,-26.4114,0.000877288,0.00565305,-0.00329894,0.00733764,-0.0008073,-1.09867,0.00518187,0.0200769,825,547,-7.80739,26.4114
-392,477,-7.88837,-27.3942,0.00107607,0.00428929,-0.0028369,0.00594292,-0.000577564,-1.04304,0.00416783,0.0191963,832,547,-7.88838,27.3942
-385,477,-7.93921,-28.3445,0.00138806,0.0030756,-0.00236984,0.0047474,-0.000283739,-0.956423,0.00326363,0.0162622,839,547,-7.93923,28.3446
-378,477,-8.00031,-29.3256,0.00164593,0.00186176,-0.00179623,0.00355331,-4.56208e-05,-0.815401,0.00238423,0.0148848,846,547,-8.00029,29.3255
-371,477,-8.07135,-30.2603,0.001855,0.000700292,-0.00123864,0.00264423,-8.89396e-05,-0.567309,0.0017932,0.0142448,853,547,-8.07134,30.2603
-364,477,-8.12677,-31.1933,0.00204046,-0.000441199,-0.000623122,0.00218814,-0.000588871,-0.232696,0.00168961,0.0133228,860,547,-8.12674,31.1933
-357,477,-8.19104,-32.1476,0.00223223,-0.00141795,-4.92121e-05,0.00223289,-0.00141861,-0.0134788,0.0021256,0.0118955,867,547,-8.19104,32.1476
-350,477,-8.25464,-33.0837,0.00242497,-0.00236429,0.000464974,0.0024697,-0.00240902,0.0958936,0.0028168,0.0109563,874,547,-8.25465,33.0837
-343,477,-8.216,-34.0789,0.00245616,-0.00321683,0.00100252,0.00262811,-0.00338879,0.169866,0.0034831,0.0204348,881,547,-8.21601,34.0789
-336,477,-8.19153,-35.0479,0.00229605,-0.00422817,0.0016757,0.00270127,-0.00463339,0.237268,0.00428336,0.0410906,888,547,-8.19153,35.0478
-329,477,-8.2323,-35.9854,0,0,0,0,0,0,0,-1,895,547,-8.23228,35.9854
-322,477,-5.91638,-27.4468,0,0,0,0,0,0,0,-1,902,547,-5.91639,27.4468
-315,477,-1.67358,-9.15253,0,0,0,0,0,0,0,-1,909,547,-1.67356,9.15253
-308,477,-1.30127,-6.55188,0,0,0,0,0,0,0,-1,916,547,-1.30128,6.55185
-301,477,-1.21185,-6.28351,0,0,0,0,0,0,0,-1,923,547,-1.21184,6.28352
-294,477,-0.352905,3.27142,0,0,0,0,0,0,0,-1,930,547,-0.35292,-3.27144
-287,477,3.54364,2.15399,0,0,0,0,0,0,0,-1,937,547,3.54362,-2.15396
-280,477,1.97308,-0.954163,0,0,0,0,0,0,0,-1,944,547,1.9731,0.954178
-273,477,2.11621,-3.76709,0,0,0,0,0,0,0,-1,951,547,2.11619,3.76706
-266,477,2.04669,-3.42389,0,0,0,0,0,0,0,-1,958,547,2.04671,3.42391
-259,477,-1.33478,-3.41205,0,0,0,0,0,0,0,-1,965,547,-1.3348,3.41206
-252,477,0.597168,-5.32922,0,0,0,0,0,0,0,-1,972,547,0.597144,5.32924
-245,477,8.2309,-8.48492,0,0,0,0,0,0,0,-1,979,547,8.23091,8.48494
-238,477,6.60938,-5.64063,0,0,0,0,0,0,0,-1,986,547,6.60938,5.64063
-231,477,4.71716,-2.52484,0,0,0,0,0,0,0,-1,993,547,4.71716,2.52483
-224,477,0,0,0,0,0,0,0,0,0,-1,1000,547,0,0
-217,477,0,0,0,0,0,0,0,0,0,-1,1007,547,0,0
-210,477,0,0,0,0,0,0,0,0,0,-1,1014,547,0,0
-203,477,0,0,0,0,0,0,0,0,0,-1,1021,547,0,0
-196,477,0,0,0,0,0,0,0,0,0,-1,1028,547,0,0
-189,477,0,0,0,0,0,0,0,0,0,-1,1035,547,0,0
-182,477,0,0,0,0,0,0,0,0,0,-1,1042,547,0,0
-175,477,0,0,0,0,0,0,0,0,0,-1,1049,547,0,0
-168,477,0,0,0,0,0,0,0,0,0,-1,1056,547,0,0
-161,477,0,0,0,0,0,0,0,0,0,-1,1063,547,0,0
-154,477,0,0,0,0,0,0,0,0,0,-1,1070,547,0,0
-147,477,0,0,0,0,0,0,0,0,0,-1,1077,547,0,0
-140,477,0,0,0,0,0,0,0,0,0,-1,1084,547,0,0
-133,477,0,0,0,0,0,0,0,0,0,-1,1091,547,0,0
-126,477,0,0,0,0,0,0,0,0,0,-1,1098,547,0,0
-119,477,0,0,0,0,0,0,0,0,0,-1,1105,547,0,0
-112,477,0,0,0,0,0,0,0,0,0,-1,1112,547,0,0
-105,477,0,0,0,0,0,0,0,0,0,-1,1119,547,0,0
-98,477,0,0,0,0,0,0,0,0,0,-1,1126,547,0,0
-91,477,0,0,0,0,0,0,0,0,0,-1,1133,547,0,0
-84,477,0,0,0,0,0,0,0,0,0,-1,1140,547,0,0
-77,477,0,0,0,0,0,0,0,0,0,-1,1147,547,0,0
-70,477,0,0,0,0,0,0,0,0,0,-1,1154,547,0,0
-63,477,0,0,0,0,0,0,0,0,0,-1,1161,547,0,0
-56,477,0,0,0,0,0,0,0,0,0,-1,1168,547,0,0
-49,477,0,0,0,0,0,0,0,0,0,-1,1175,547,0,0
-42,477,0,0,0,0,0,0,0,0,0,-1,1182,547,0,0
-35,477,0,0,0,0,0,0,0,0,0,-1,1189,547,0,0
-28,477,0,0,0,0,0,0,0,0,0,-1,1196,547,0,0
-21,477,0,0,0,0,0,0,0,0,0,-1,1203,547,0,0
-14,477,0,0,0,0,0,0,0,0,0,-1,1210,547,0,0
-7,477,0,0,0,0,0,0,0,0,0,-1,1217,547,0,0
0,477,0,0,0,0,0,0,0,0,0,-1,1224,547,0,0
7,477,0,0,0,0,0,0,0,0,0,-1,1231,547,0,0
14,477,0,0,0,0,0,0,0,0,0,-1,1238,547,0,0
21,477,0,0,0,0,0,0,0,0,0,-1,1245,547,0,0
28,477,0,0,0,0,0,0,0,0,0,-1,1252,547,0,0
35,477,0,0,0,0,0,0,0,0,0,-1,1259,547,0,0
42,477,0,0,0,0,0,0,0,0,0,-1,1266,547,0,0
49,477,0,0,0,0,0,0,0,0,0,-1,1273,547,0,0
56,477,0,0,0,0,0,0,0,0,0,-1,1280,547,0,0
63,477,0,0,0,0,0,0,0,0,0,-1,1287,547,0,0
70,477,0,0,0,0,0,0,0,0,0,-1,1294,547,0,0
77,477,0,0,0,0,0,0,0,0,0,-1,1301,547,0,0
84,477,0,0,0,0,0,0,0,0,0,-1,1308,547,0,0
91,477,0,0,0,0,0,0,0,0,0,-1,1315,547,0,0
98,477,0,0,0,0,0,0,0,0,0,-1,1322,547,0,0
105,477,0,0,0,0,0,0,0,0,0,-1,1329,547,0,0
112,477,0,0,0,0,0,0,0,0,0,-1,1336,547,0,0
119,477,0,0,0,0,0,0,0,0,0,-1,1343,547,0,0
126,477,0,0,0,0,0,0,0,0,0,-1,1350,547,0,0
133,477,0,0,0,0,0,0,0,0,0,-1,1357,547,0,0
140,477,0,0,0,0,0,0,0,0,0,-1,1364,547,0,0
147,477,0,0,0,0,0,0,0,0,0,-1,1371,547,0,0
154,477,0,0,0,0,0,0,0,0,0,-1,1378,547,0,0
161,477,0,0,0,0,0,0,0,0,0,-1,1385,547,0,0
168,477,0,0,0,0,0,0,0,0,0,-1,1392,547,0,0
175,477,0,0,0,0,0,0,0,0,0,-1,1399,547,0,0
182,477,0,0,0,0,0,0,0,0,0,-1,1406,547,0,0
189,477,0,0,0,0,0,0,0,0,0,-1,1413,547,0,0
196,477,0,0,0,0,0,0,0,0,0,-1,1420,547,0,0
203,477,0,0,0,0,0,0,0,0,0,-1,1427,547,0,0
210,477,0,0,0,0,0,0,0,0,0,-1,1434,547,0,0
217,477,0,0,0,0,0,0,0,0,0,-1,1441,547,0,0
224,477,0,0,0,0,0,0,0,0,0,-1,1448,547,0,0
231,477,0,0,0,0,0,0,0,0,0,-1,1455,547,0,0
238,477,0,0,0,0,0,0,0,0,0,-1,1462,547,0,0
245,477,0,0,0,0,0,0,0,0,0,-1,1469,547,0,0
252,477,0,0,0,0,0,0,0,0,0,-1,1476,547,0,0
259,477,0,0,0,0,0,0,0,0,0,-1,1483,547,0,0
266,477,0,0,0,0,0,0,0,0,0,-1,1490,547,0,0
273,477,0,0,0,0,0,0,0,0,0,-1,1497,547,0,0
280,477,0,0,0,0,0,0,0,0,0,-1,1504,547,0,0
287,477,0,0,0,0,0,0,0,0,0,-1,1511,547,0,0
294,477,0,0,0,0,0,0,0,0,0,-1,1518,547,0,0
301,477,0,0,0,0,0,0,0,0,0,-1,1525,547,0,0
308,477,0,0,0,0,0,0,0,0,0,-1,1532,547,0,0
315,477,0,0,0,0,0,0,0,0,0,-1,1539,547,0,0
322,477,0,0,0,0,0,0,0,0,0,-1,1546,547,0,0
329,477,0,0,0,0,0,0,0,0,0,-1,1553,547,0,0
336,477,0,0,0,0,0,0,0,0,0,-1,1560,547,0,0
343,477,0,0,0,0,0,0,0,0,0,-1,1567,547,0,0
350,477,1.7699,-3.32275,0,0,0,0,0,0,0,-1,1574,547,1.7699,3.32272
357,477,3.073,-4.83313,0,0,0,0,0,0,0,-1,1581,547,3.07303,4.83316
364,477,4.30127,-4.22864,0,0,0,0,0,0,0,-1,1588,547,4.30125,4.22865
371,477,4.57703,0.283264,0,0,0,0,0,0,0,-1,1595,547,4.57706,-0.283262
378,477,8.57947,1.05969,0,0,0,0,0,0,0,-1,1602,547,8.5795,-1.05972
385,477,12.3726,2.02356,0,0,0,0,0,0,0,-1,1609,547,12.3725,-2.02355
392,477,16.4678,2.76843,0,0,0,0,0,0,0,-1,1616,547,16.4678,-2.76845
399,477,8.00037,-2.29523,0,0,0,0,0,0,0,-1,1623,547,8.00031,2.2952
406,477,4.82495,2.7475,0,0,0,0,0,0,0,-1,1630,547,4.825,-2.74752
413,477,4.88171,-0.336426,0,0,0,0,0,0,0,-1,1637,547,4.88169,0.336398
420,477,3.34875,0.102722,0,0,0,0,0,0,0,-1,1644,547,3.34871,-0.1027
427,477,1.66772,-0.373108,0,0,0,0,0,0,0,-1,1651,547,1.66768,0.373104
434,477,3.76978,-2.30798,0,0,0,0,0,0,0,-1,1658,547,3.76974,2.30801
441,477,4.05444,-2.80402,0,0,0,0,0,0,0,-1,1665,547,4.05444,2.804
448,477,10.4247,-11.7421,0,0,0,0,0,0,0,-1,1672,547,10.4247,11.7421
455,477,13.3054,-16.8109,0,0,0,0,0,0,0,-1,1679,547,13.3054,16.8109
462,477,24.9205,-34.9911,0,0,0,0,0,0,0,-1,1686,547,24.9206,34.9911
469,477,24.9393,-33.8694,0,0,0,0,0,0,0,-1,1693,547,24.9394,33.8694
476,477,24.884,-32.9241,0.0013185,0.000277376,-0.000900409,0.00183799,-0.000242121,-0.523304,0.0013135,0.0312079,1700,547,24.8841,32.9241
483,477,24.8424,-31.9684,0.001313,0.000407849,-0.00048895,0.00152668,0.000194169,-0.412006,0.000959636,0.01721,1707,547,24.8424,31.9684
490,477,24.7755,-31.0673,0.00118245,0.000652118,-0.000138899,0.00121663,0.000617941,-0.241258,0.000702451,0.0156318,1714,547,24.7755,31.0673
497,477,24.7277,-30.0844,0.00116912,0.00109364,0.00044543,0.0015784,0.000684353,0.74314,0.000913969,0.0143052,1721,547,24.7277,30.0844
504,477,24.6738,-29.1345,0.00118535,0.00110263,0.000883089,0.00202805,0.000259935,0.761997,0.00127426,0.0181517,1728,547,24.6739,29.1345
511,477,24.6455,-28.2092,0.00113427,0.00119321,0.00128062,0.00244469,-0.000117218,0.796903,0.00167024,0.0249485,1735,547,24.6456,28.2092
518,477,24.5746,-27.2492,0.000972625,0.00133981,0.00158909,0.00275587,-0.000443439,0.84291,0.0020015,0.0237508,1742,547,24.5746,27.2492
525,477,24.4503,-26.2291,0.000855222,0.0015123,0.00187385,0.0030862,-0.000718672,0.872181,0.0023342,0.0199801,1749,547,24.4503,26.2291
532,477,24.321,-25.2407,0.000750154,0.0018139,0.00215205,0.00349883,-0.000934777,0.906544,0.00269866,0.020691,1756,547,24.3211,25.2407
539,477,24.3199,-24.1901,0.000585652,0.00223287,0.00234621,0.00389583,-0.00107731,0.954198,0.00302105,0.0193579,1763,547,24.32,24.1901
546,477,24.2085,-23.2998,0.000404807,0.00293621,0.00255836,0.00452484,-0.00118383,1.01511,0.00347897,0.0458195,1770,547,24.2085,23.2998
553,477,24.1746,-21.9532,0,0,0,0,0,0,0,-1,1777,547,24.1746,21.9532
560,477,19.4597,-16.1135,0,0,0,0,0,0,0,-1,1784,547,19.4597,16.1135
567,477,13.9529,-8.70972,0,0,0,0,0,0,0,-1,1791,547,13.9529,8.7097
574,477,6.82593,-0.916992,0,0,0,0,0,0,0,-1,1798,547,6.82598,0.916977
581,477,9.29321,-0.557007,0,0,0,0,0,0,0,-1,1805,547,9.29324,0.55703
588,477,9.75195,0.422729,0,0,0,0,0,0,0,-1,1812,547,9.75198,-0.42273
595,477,9.89172,1.21326,0,0,0,0,0,0,0,-1,1819,547,9.89174,-1.21328
602,477,6.5271,-0.964417,0,0,0,0,0,0,0,-1,1826,547,6.52706,0.964427
609,477,0,0,0,0,0,0,0,0,0,-1,1833,547,0,0
616,477,0,0,0,0,0,0,0,0,0,-1,1840,547,0,0
623,477,0,0,0,0,0,0,0,0,0,-1,1847,547,0,0
630,477,0,0,0,0,0,0,0,0,0,-1,1854,547,0,0
637,477,0,0,0,0,0,0,0,0,0,-1,1861,547,0,0
644,477,0,0,0,0,0,0,0,0,0,-1,1868,547,0,0
651,477,0,0,0,0,0,0,0,0,0,-1,1875,547,0,0
658,477,0,0,0,0,0,0,0,0,0,-1,1882,547,0,0
665,477,0,0,0,0,0,0,0,0,0,-1,1889,547,0,0
672,477,0,0,0,0,0,0,0,0,0,-1,1896,547,0,0
679,477,0,0,0,0,0,0,0,0,0,-1,1903,547,0,0
686,477,0,0,0,0,0,0,0,0,0,-1,1910,547,0,0
693,477,0,0,0,0,0,0,0,0,0,-1,1917,547,0,0
700,477,0,0,0,0,0,0,0,0,0,-1,1924,547,0,0
707,477,0,0,0,0,0,0,0,0,0,-1,1931,547,0,0
714,477,0,0,0,0,0,0,0,0,0,-1,1938,547,0,0
721,477,0,0,0,0,0,0,0,0,0,-1,1945,547,0,0
728,477,0,0,0,0,0,0,0,0,0,-1,1952,547,0,0
735,477,0,0,0,0,0,0,0,0,0,-1,1959,547,0,0
742,477,0,0,0,0,0,0,0,0,0,-1,1966,547,0,0
749,477,0,0,0,0,0,0,0,0,0,-1,1973,547,0,0
756,477,0,0,0,0,0,0,0,0,0,-1,1980,547,0,0
763,477,0,0,0,0,0,0,0,0,0,-1,1987,547,0,0
770,477,0,0,0,0,0,0,0,0,0,-1,1994,547,0,0
777,477,0,0,0,0,0,0,0,0,0,-1,2001,547,0,0
784,477,0,0,0,0,0,0,0,0,0,-1,2008,547,0,0
791,477,0,0,0,0,0,0,0,0,0,-1,2015,547,0,0
798,477,0,0,0,0,0,0,0,0,0,-1,2022,547,0,0
805,477,0,0,0,0,0,0,0,0,0,-1,2029,547,0,0
812,477,0,0,0,0,0,0,0,0,0,-1,2036,547,0,0
-700,470,0,0,0,0,0,0,0,0,0,-1,524,554,0,0
-693,470,0,0,0,0,0,0,0,0,0,-1,531,554,0,0
-686,470,0,0,0,0,0,0,0,0,0,-1,538,554,0,0
-679,470,0,0,0,0,0,0,0,0,0,-1,545,554,0,0
-672,470,0,0,0,0,0,0,0,0,0,-1,552,554,0,0
-665,470,0,0,0,0,0,0,0,0,0,-1,559,554,0,0
-658,470,0,0,0,0,0,0,0,0,0,-1,566,554,0,0
-651,470,0,0,0,0,0,0,0,0,0,-1,573,554,0,0
-644,470,0,0,0,0,0,0,0,0,0,-1,580,554,0,0
-637,470,0,0,0,0,0,0,0,0,0,-1,587,554,0,0
-630,470,0,0,0,0,0,0,0,0,0,-1,594,554,0,0
-623,470,0,0,0,0,0,0,0,0,0,-1,601,554,0,0
-616,470,0,0,0,0,0,0,0,0,0,-1,608,554,0,0
-609,470,0,0,0,0,0,0,0,0,0,-1,615,554,0,0
-602,470,0,0,0,0,0,0,0,0,0,-1,622,554,0,0
-595,470,0,0,0,0,0,0,0,0,0,-1,629,554,0,0
-588,470,0,0,0,0,0,0,0,0,0,-1,636,554,0,0
-581,470,0,0,0,0,0,0,0,0,0,-1,643,554,0,0
-574,470,0,0,0,0,0,0,0,0,0,-1,650,554,0,0
-567,470,0,0,0,0,0,0,0,0,0,-1,657,554,0,0
-560,470,0,0,0,0,0,0,0,0,0,-1,664,554,0,0
-553,470,0,0,0,0,0,0,0,0,0,-1,671,554,0,0
-546,470,0,0,0,0,0,0,0,0,0,-1,678,554,0,0
-539,470,0,0,0,0,0,0,0,0,0,-1,685,554,0,0
-532,470,0,0,0,0,0,0,0,0,0,-1,692,554,0,0
-525,470,0,0,0,0,0,0,0,0,0,-1,699,554,0,0
-518,470,0,0,0,0,0,0,0,0,0,-1,706,554,0,0
-511,470,0,0,0,0,0,0,0,0,0,-1,713,554,0,0
-504,470,0,0,0,0,0,0,0,0,0,-1,720,554,0,0
-497,470,0,0,0,0,0,0,0,0,0,-1,727,554,0,0
-490,470,-9.13263,-1.03125,0,0,0,0,0,0,0,-1,734,554,-9.1326,1.03127
-483,470,-7.68677,-1.03955,0,0,0,0,0,0,0,-1,741,554,-7.68678,1.03958
-476,470,-6.17969,-1.03394,0,0,0,0,0,0,0,-1,748,554,-6.17971,1.03395
-469,470,-6.23016,-0.651855,0,0,0,0,0,0,0,-1,755,554,-6.23014,0.651829
-462,470,-4.87915,-1.03705,0,0,0,0,0,0,0,-1,762,554,-4.87914,1.03702
-455,470,-4.14777,-1.37079,0,0,0,0,0,0,0,-1,769,554,-4.14779,1.37078
-448,470,-2.9314,-5.74518,0,0,0,0,0,0,0,-1,776,554,-2.93137,5.74518
-441,470,-8.03943,-19.0135,0,0,0,0,0,0,0,-1,783,554,-8.03942,19.0135
-434,470,-8.49866,-21.2566,0,0,0,0,0,0,0,-1,790,554,-8.49869,21.2566
-427,470,-8.54041,-22.2713,0.000207441,0.00932178,-0.00282771,0.0101278,-0.000598571,-1.29312,0.00695997,0.0283451,797,554,-8.54038,22.2713
-420,470,-8.53748,-23.3182,0.000402345,0.00794938,-0.00298008,0.00898422,-0.000632494,-1.23657,0.00621105,0.0185303,804,554,-8.53746,23.3182
-413,470,-8.60632,-24.3696,0.000518543,0.00658085,-0.00288839,0.00773666,-0.000637271,-1.19015,0.00538279,0.0146964,811,554,-8.60632,24.3696
-406,470,-8.67474,-25.365,0.000575513,0.00517531,-0.00253734,0.00629998,-0.000549149,-1.15357,0.00439449,0.0131088,818,554,-8.67473,25.365
-399,470,-8.73999,-26.3483,0.000681156,0.00393311,-0.00211853,0.00497771,-0.000363442,-1.1127,0.00344601,0.0164918,825,554,-8.73998,26.3482
-392,470,-8.80731,-27.3112,0.000923391,0.00277993,-0.00173704,0.00382118,-0.000117853,-1.03079,0.00258763,0.015893,832,554,-8.8073,27.3112
-385,470,-8.89465,-28.2609,0.00129591,0.00176346,-0.00137524,0.00292465,0.000134722,-0.869587,0.00190645,0.0122293,839,554,-8.89463,28.2608
-378,470,-8.94928,-29.2457,0.00164056,0.000726085,-0.000919458,0.00221019,0.000156449,-0.55466,0.00142418,0.0169411,846,554,-8.9493,29.2457
-371,470,-9.00897,-30.2007,0.00199025,-0.000226713,-0.000489258,0.00209342,-0.000329885,-0.20783,0.00151757,0.0148271,853,554,-9.00896,30.2007
-364,470,-9.06708,-31.1161,0.00236058,-0.00110726,-6.09396e-05,0.00236165,-0.00110833,-0.0175655,0.00204649,0.0151167,860,554,-9.06709,31.1161
-357,470,-9.14703,-32.0637,0.00275787,-0.00192637,0.000296309,0.00277653,-0.00194504,0.0629223,0.00274005,0.0151012,867,554,-9.14702,32.0637
-350,470,-9.17474,-33.0568,0.00317534,-0.00281593,0.00058995,0.00323288,-0.00287347,0.0972241,0.00352754,0.0132211,874,554,-9.17472,33.0568
-343,470,-9.1626,-34.127,0,0,0,0,0,0,0,-1,881,554,-9.16258,34.1269
-336,470,-8.93878,-35.0421,0,0,0,0,0,0,0,-1,888,554,-8.93881,35.0421
-329,470,-2.78516,-12.3594,0,0,0,0,0,0,0,-1,895,554,-2.78517,12.3594
-322,470,-2.30829,-11.4527,0,0,0,0,0,0,0,-1,902,554,-2.30827,11.4527
-315,470,-1.04797,-8.29529,0,0,0,0,0,0,0,-1,909,554,-1.04797,8.29526
-308,470,-1.39368,-6.68152,0,0,0,0,0,0,0,-1,916,554,-1.39369,6.68149
-301,470,-0.0340576,3.34888,0,0,0,0,0,0,0,-1,923,554,-0.0340496,-3.3489
-294,470,-1.18378,3.22266,0,0,0,0,0,0,0,-1,930,554,-1.18376,-3.22268
-287,470,-2.15454,3.2204,0,0,0,0,0,0,0,-1,937,554,-2.15452,-3.22037
-280,470,-3.00537,3.099,0,0,0,0,0,0,0,-1,944,554,-3.00536,-3.09898
-273,470,-12.3932,3.65009,0,0,0,0,0,0,0,-1,951,554,-12.3932,-3.65011
-266,470,-11.5706,1.16028,0,0,0,0,0,0,0,-1,958,554,-11.5706,-1.16031
-259,470,-7.50415,-2.77167,0,0,0,0,0,0,0,-1,965,554,-7.50413,2.7717
-252,470,-0.371155,-5.87823,0,0,0,0,0,0,0,-1,972,554,-0.37114,5.87821
-245,470,1.33221,-6.81122,0,0,0,0,0,0,0,-1,979,554,1.33223,6.8112
-238,470,0,0,0,0,0,0,0,0,0,-1,986,554,0,0
-231,470,0,0,0,0,0,0,0,0,0,-1,993,554,0,0
-224,470,0,0,0,0,0,0,0,0,0,-1,1000,554,0,0
-217,470,0,0,0,0,0,0,0,0,0,-1,1007,554,0,0
-210,470,0,0,0,0,0,0,0,0,0,-1,1014,554,0,0
-203,470,0,0,0,0,0,0,0,0,0,-1,1021,554,0,0
-196,470,0,0,0,0,0,0,0,0,0,-1,1028,554,0,0
-189,470,0,0,0,0,0,0,0,0,0,-1,1035,554,0,0
-182,470,0,0,0,0,0,0,0,0,0,-1,1042,554,0,0
-175,470,0,0,0,0,0,0,0,0,0,-1,1049,554,0,0
-168,470,0,0,0,0,0,0,0,0,0,-1,1056,554,0,0
-161,470,0,0,0,0,0,0,0,0,0,-1,1063,554,0,0
-154,470,0,0,0,0,0,0,0,0,0,-1,1070,554,0,0
-147,470,0,0,0,0,0,0,0,0,0,-1,1077,554,0,0
-140,470,0,0,0,0,0,0,0,0,0,-1,1084,554,0,0
-133,470,0,0,0,0,0,0,0,0,0,-1,1091,554,0,0
-126,470,0,0,0,0,0,0,0,0,0,-1,1098,554,0,0
-119,470,0,0,0,0,0,0,0,0,0,-1,1105,554,0,0
-112,470,0,0,0,0,0,0,0,0,0,-1,1112,554,0,0
-105,470,0,0,0,0,0,0,0,0,0,-1,1119,554,0,0
-98,470,0,0,0,0,0,0,0,0,0,-1,1126,554,0,0
-91,470,0,0,0,0,0,0,0,0,0,-1,1133,554,0,0
-84,470,0,0,0,0,0,0,0,0,0,-1,1140,554,0,0
-77,470,0,0,0,0,0,0,0,0,0,-1,1147,554,0,0
-70,470,0,0,0,0,0,0,0,0,0,-1,1154,554,0,0
-63,470,0,0,0,0,0,0,0,0,0,-1,1161,554,0,0
-56,470,0,0,0,0,0,0,0,0,0,-1,1168,554,0,0
-49,470,0,0,0,0,0,0,0,0,0,-1,1175,554,0,0
-42,470,0,0,0,0,0,0,0,0,0,-1,1182,554,0,0
-35,470,0,0,0,0,0,0,0,0,0,-1,1189,554,0,0
-28,470,0,0,0,0,0,0,0,0,0,-1,1196,554,0,0
-21,470,0,0,0,0,0,0,0,0,0,-1,1203,554,0,0
-14,470,0,0,0,0,0,0,0,0,0,-1,1210,554,0,0
-7,470,0,0,0,0,0,0,0,0,0,-1,1217,554,0,0
0,470,0,0,0,0,0,0,0,0,0,-1,1224,554,0,0
7,470,0,0,0,0,0,0,0,0,0,-1,1231,554,0,0
14,470,0,0,0,0,0,0,0,0,0,-1,1238,554,0,0
21,470,0,0,0,0,0,0,0,0,0,-1,1245,554,0,0
28,470,0,0,0,0,0,0,0,0,0,-1,1252,554,0,0
35,470,0,0,0,0,0,0,0,0,0,-1,1259,554,0,0
42,470,0,0,0,0,0,0,0,0,0,-1,1266,554,0,0
49,470,0,0,0,0,0,0,0,0,0,-1,1273,554,0,0
56,470,0,0,0,0,0,0,0,0,0,-1,1280,554,0,0
63,470,0,0,0,0,0,0,0,0,0,-1,1287,554,0,0
70,470,0,0,0,0,0,0,0,0,0,-1,1294,554,0,0
77,470,0,0,0,0,0,0,0,0,0,-1,1301,554,0,0
84,470,0,0,0,0,0,0,0,0,0,-1,1308,554,0,0
91,470,0,0,0,0,0,0,0,0,0,-1,1315,554,0,0
98,470,0,0,0,0,0,0,0,0,0,-1,1322,554,0,0
105,470,0,0,0,0,0,0,0,0,0,-1,1329,554,0,0
112,470,0,0,0,0,0,0,0,0,0,-1,1336,554,0,0
119,470,0,0,0,0,0,0,0,0,0,-1,1343,554,0,0
126,470,0,0,0,0,0,0,0,0,0,-1,1350,554,0,0
133,470,0,0,0,0,0,0,0,0,0,-1,1357,554,0,0
140,470,0,0,0,0,0,0,0,0,0,-1,1364,554,0,0
147,470,0,0,0,0,0,0,0,0,0,-1,1371,554,0,0
154,470,0,0,0,0,0,0,0,0,0,-1,1378,554,0,0
161,470,0,0,0,0,0,0,0,0,0,-1,1385,554,0,0
168,470,0,0,0,0,0,0,0,0,0,-1,1392,554,0,0
175,470,0,0,0,0,0,0,0,0,0,-1,1399,554,0,0
182,470,0,0,0,0,0,0,0,0,0,-1,1406,554,0,0
189,470,0,0,0,0,0,0,0,0,0,-1,1413,554,0,0
196,470,0,0,0,0,0,0,0,0,0,-1,1420,554,0,0
203,470,0,0,0,0,0,0,0,0,0,-1,1427,554,0,0
210,470,0,0,0,0,0,0,0,0,0,-1,1434,554,0,0
217,470,0,0,0,0,0,0,0,0,0,-1,1441,554,0,0
224,470,0,0,0,0,0,0,0,0,0,-1,1448,554,0,0
231,470,0,0,0,0,0,0,0,0,0,-1,1455,554,0,0
238,470,0,0,0,0,0,0,0,0,0,-1,1462,554,0,0
245,470,0,0,0,0,0,0,0,0,0,-1,1469,554,0,0
252,470,0,0,0,0,0,0,0,0,0,-1,1476,554,0,0
259,470,0,0,0,0,0,0,0,0,0,-1,1483,554,0,0
266,470,0,0,0,0,0,0,0,0,0,-1,1490,554,0,0
273,470,0,0,0,0,0,0,0,0,0,-1,1497,554,0,0
280,470,0,0,0,0,0,0,0,0,0,-1,1504,554,0,0
287,470,0,0,0,0,0,0,0,0,0,-1,1511,554,0,0
294,470,0,0,0,0,0,0,0,0,0,-1,1518,554,0,0
301,470,0,0,0,0,0,0,0,0,0,-1,1525,554,0,0
308,470,0,0,0,0,0,0,0,0,0,-1,1532,554,0,0
315,470,0,0,0,0,0,0,0,0,0,-1,1539,554,0,0
322,470,0,0,0,0,0,0,0,0,0,-1,1546,554,0,0
329,470,0,0,0,0,0,0,0,0,0,-1,1553,554,0,0
336,470,0,0,0,0,0,0,0,0,0,-1,1560,554,0,0
343,470,0,0,0,0,0,0,0,0,0,-1,1567,554,0,0
350,470,0,0,0,0,0,0,0,0,0,-1,1574,554,0,0
357,470,0,0,0,0,0,0,0,0,0,-1,1581,554,0,0
364,470,1.33423,0.293335,0,0,0,0,0,0,0,-1,1588,554,1.33422,-0.293348
371,470,2.22498,-0.0305176,0,0,0,0,0,0,0,-1,1595,554,2.22494,0.0305046
378,470,6.27051,0.710083,0,0,0,0,0,0,0,-1,1602,554,6.27054,-0.710093
385,470,10.3657,1.47296,0,0,0,0,0,0,0,-1,1609,554,10.3657,-1.47299
392,470,15.3881,3.01935,0,0,0,0,0,0,0,-1,1616,554,15.388,-3.01937
399,470,18.4479,2.93793,0,0,0,0,0,0,0,-1,1623,554,18.4479,-2.93792
406,470,15.1896,1.36676,0,0,0,0,0,0,0,-1,1630,554,15.1896,-1.36679
413,470,6.55383,1.99207,0,0,0,0,0,0,0,-1,1637,554,6.5538,-1.99208
420,470,4.47095,0.845703,0,0,0,0,0,0,0,-1,1644,554,4.47098,-0.845718
427,470,3.51038,1.19684,0,0,0,0,0,0,0,-1,1651,554,3.51039,-1.19684
434,470,3.31775,-1.37427,0,0,0,0,0,0,0,-1,1658,554,3.31781,1.37426
441,470,2.55457,-2.05902,0,0,0,0,0,0,0,-1,1665,554,2.55461,2.05904
448,470,3.27258,-2.64032,0,0,0,0,0,0,0,-1,1672,554,3.27257,2.64029
455,470,10.3658,-9.82233,0,0,0,0,0,0,0,-1,1679,554,10.3659,9.82233
462,470,11.0651,-11.9958,0,0,0,0,0,0,0,-1,1686,554,11.0651,11.9958
469,470,15.4242,-19.0521,0,0,0,0,0,0,0,-1,1693,554,15.4242,19.0521
476,470,25.848,-32.9785,0,0,0,0,0,0,0,-1,1700,554,25.848,32.9785
483,470,25.8159,-31.9252,0.00141549,0.000171156,-0.00074836,0.00176654,-0.000179884,-0.438607,0.001242,0.0224796,1707,554,25.816,31.9252
490,470,25.7273,-30.9885,0.00125696,0.000389443,-0.000456781,0.00145312,0.000193286,-0.405622,0.000911177,0.0141411,1714,554,25.7273,30.9886
497,470,25.6777,-30.0092,0.00122406,0.000875833,0.00013589,0.00127081,0.000829081,0.331357,0.000744979,0.0139438,1721,554,25.6777,30.0092
504,470,25.6315,-29.0921,0.00117288,0.000843653,0.000517635,0.00155145,0.000465088,0.631448,0.000919357,0.0205162,1728,554,25.6315,29.0921
511,470,25.6068,-28.173,0.0010887,0.000886044,0.000866568,0.00185984,0.000114897,0.727199,0.00120342,0.0300373,1735,554,25.6068,28.1731
518,470,25.5476,-27.1805,0.000928047,0.000989139,0.00116428,0.00212328,-0.000206089,0.798513,0.00148897,0.0294911,1742,554,25.5476,27.1805
525,470,25.4761,-26.1642,0.000798251,0.00115809,0.00143259,0.00242201,-0.000465672,0.847866,0.0017902,0.0171924,1749,554,25.4761,26.1642
532,470,25.3467,-25.0991,0.00068515,0.00147243,0.00170158,0.00282531,-0.000667733,0.899067,0.00214111,0.0149341,1756,554,25.3466,25.0991
539,470,25.2625,-24.119,0.000550389,0.00192605,0.00192192,0.00327951,-0.000803073,0.957241,0.00249745,0.0190799,1763,554,25.2624,24.119
546,470,25.2024,-23.1668,0.000437934,0.00266461,0.00216082,0.00398205,-0.000879504,1.02328,0.00299128,0.0157744,1770,554,25.2023,23.1668
553,470,25.2228,-22.175,0.000381171,0.00368757,0.00246271,0.00500052,-0.000931776,1.081,0.00368376,0.0266936,1777,554,25.2228,22.175
560,470,25.2477,-20.9421,0,0,0,0,0,0,0,-1,1784,554,25.2476,20.9421
567,470,25.0739,-19.8408,0,0,0,0,0,0,0,-1,1791,554,25.0739,19.8408
574,470,14.2793,-8.07147,0,0,0,0,0,0,0,-1,1798,554,14.2793,8.07147
581,470,8.24646,-4.06317,0,0,0,0,0,0,0,-1,1805,554,8.24648,4.06318
588,470,11.1803,1.74927,0,0,0,0,0,0,0,-1,1812,554,11.1803,-1.74926
595,470,4.72192,3.44116,0,0,0,0,0,0,0,-1,1819,554,4.72191,-3.44116
602,470,14.4307,2.76141,0,0,0,0,0,0,0,-1,1826,554,14.4306,-2.76139
609,470,20.9181,4.41058,0,0,0,0,0,0,0,-1,1833,554,20.9181,-4.4106
616,470,0,0,0,0,0,0,0,0,0,-1,1840,554,0,0
623,470,0,0,0,0,0,0,0,0,0,-1,1847,554,0,0
630,470,0,0,0,0,0,0,0,0,0,-1,1854,554,0,0
637,470,0,0,0,0,0,0,0,0,0,-1,1861,554,0,0
644,470,0,0,0,0,0,0,0,0,0,-1,1868,554,0,0
651,470,0,0,0,0,0,0,0,0,0,-1,1875,554,0,0
658,470,0,0,0,0,0,0,0,0,0,-1,1882,554,0,0
665,470,0,0,0,0,0,0,0,0,0,-1,1889,554,0,0
672,470,0,0,0,0,0,0,0,0,0,-1,1896,554,0,0
679,470,0,0,0,0,0,0,0,0,0,-1,1903,554,0,0
686,470,0,0,0,0,0,0,0,0,0,-1,1910,554,0,0
693,470,0,0,0,0,0,0,0,0,0,-1,1917,554,0,0
700,470,0,0,0,0,0,0,0,0,0,-1,1924,554,0,0
707,470,0,0,0,0,0,0,0,0,0,-1,1931,554,0,0
714,470,0,0,0,0,0,0,0,0,0,-1,1938,554,0,0
721,470,0,0,0,0,0,0,0,0,0,-1,1945,554,0,0
728,470,0,0,0,0,0,0,0,0,0,-1,1952,554,0,0
735,470,0,0,0,0,0,0,0,0,0,-1,1959,554,0,0
742,470,0,0,0,0,0,0,0,0,0,-1,1966,554,0,0
749,470,0,0,0,0,0,0,0,0,0,-1,1973,554,0,0
756,470,0,0,0,0,0,0,0,0,0,-1,1980,554,0,0
763,470,0,0,0,0,0,0,0,0,0,-1,1987,554,0,0
770,470,0,0,0,0,0,0,0,0,0,-1,1994,554,0,0
777,470,0,0,0,0,0,0,0,0,0,-1,2001,554,0,0
784,470,0,0,0,0,0,0,0,0,0,-1,2008,554,0,0
791,470,0,0,0,0,0,0,0,0,0,-1,2015,554,0,0
798,470,0,0,0,0,0,0,0,0,0,-1,2022,554,0,0
805,470,0,0,0,0,0,0,0,0,0,-1,2029,554,0,0
812,470,0,0,0,0,0,0,0,0,0,-1,2036,554,0,0
-700,463,0,0,0,0,0,0,0,0,0,-1,524,561,0,0
-693,463,0,0,0,0,0,0,0,0,0,-1,531,561,0,0
-686,463,0,0,0,0,0,0,0,0,0,-1,538,561,0,0
-679,463,0,0,0,0,0,0,0,0,0,-1,545,561,0,0
-672,463,0,0,0,0,0,0,0,0,0,-1,552,561,0,0
-665,463,0,0,0,0,0,0,0,0,0,-1,559,561,0,0
-658,463,0,0,0,0,0,0,0,0,0,-1,566,561,0,0
-651,463,0,0,0,0,0,0,0,0,0,-1,573,561,0,0
-644,463,0,0,0,0,0,0,0,0,0,-1,580,561,0,0
-637,463,0,0,0,0,0,0,0,0,0,-1,587,561,0,0
-630,463,0,0,0,0,0,0,0,0,0,-1,594,561,0,0
-623,463,0,0,0,0,0,0,0,0,0,-1,601,561,0,0
-616,463,0,0,0,0,0,0,0,0,0,-1,608,561,0,0
-609,463,0,0,0,0,0,0,0,0,0,-1,615,561,0,0
-602,463,0,0,0,0,0,0,0,0,0,-1,622,561,0,0
-595,463,0,0,0,0,0,0,0,0,0,-1,629,561,0,0
-588,463,0,0,0,0,0,0,0,0,0,-1,636,561,0,0
-581,463,0,0,0,0,0,0,0,0,0,-1,643,561,0,0
-574,463,0,0,0,0,0,0,0,0,0,-1,650,561,0,0
-567,463,0,0,0,0,0,0,0,0,0,-1,657,561,0,0
-560,463,0,0,0,0,0,0,0,0,0,-1,664,561,0,0
-553,463,0,0,0,0,0,0,0,0,0,-1,671,561,0,0
-546,463,0,0,0,0,0,0,0,0,0,-1,678,561,0,0
-539,463,0,0,0,0,0,0,0,0,0,-1,685,561,0,0
-532,463,0,0,0,0,0,0,0,0,0,-1,692,561,0,0
-525,463,0,0,0,0,0,0,0,0,0,-1,699,561,0,0
-518,463,0,0,0,0,0,0,0,0,0,-1,706,561,0,0
-511,463,0,0,0,0,0,0,0,0,0,-1,713,561,0,0
-504,463,0,0,0,0,0,0,0,0,0,-1,720,561,0,0
-497,463,-9.81451,-1.67126,0,0,0,0,0,0,0,-1,727,561,-9.81452,1.67127
-490,463,-8.57043,-1.58942,0,0,0,0,0,0,0,-1,734,561,-8.57045,1.58944
-483,463,-7.29224,-1.7226,0,0,0,0,0,0,0,-1,741,561,-7.29226,1.72261
-476,463,-5.77704,-1.7312,0,0,0,0,0,0,0,-1,748,561,-5.77703,1.73121
-469,463,-5.14545,-2.138,0,0,0,0,0,0,0,-1,755,561,-5.14546,2.13799
-462,463,-3.13672,-3.07977,0,0,0,0,0,0,0,-1,762,561,-3.13672,3.07974
-455,463,-2.91406,-5.61798,0,0,0,0,0,0,0,-1,769,561,-2.91406,5.61801
-448,463,-4.00177,-8.54681,0,0,0,0,0,0,0,-1,776,561,-4.00175,8.54683
-441,463,-9.57538,-19.9046,0,0,0,0,0,0,0,-1,783,561,-9.57538,19.9046
-434,463,-9.43005,-21.277,-0.000473294,0.00782142,-0.00145575,0.00806949,-0.000721365,-1.40201,0.00563552,0.0430856,790,561,-9.43005,21.277
-427,463,-9.4743,-22.3165,-9.8407e-05,0.00679333,-0.00176057,0.00721704,-0.000522113,-1.33462,0.0049945,0.0126711,797,561,-9.47428,22.3166
-420,463,-9.51874,-23.3248,0.000191672,0.0057868,-0.00194936,0.00639898,-0.000420511,-1.26651,0.00441284,0.0101141,804,561,-9.51877,23.3247
-413,463,-9.58649,-24.332,0.000375132,0.00471989,-0.00190042,0.00543383,-0.000338809,-1.21143,0.00374061,0.010804,811,561,-9.58649,24.3321
-406,463,-9.65985,-25.3068,0.000477193,0.00358314,-0.00161864,0.00427332,-0.000212983,-1.16775,0.00292246,0.0112768,818,561,-9.65988,25.3068
-399,463,-9.71533,-26.2676,0.000661766,0.00261796,-0.0013126,0.00327681,2.91725e-06,-1.1056,0.00218357,0.0120935,825,561,-9.71535,26.2676
-392,463,-9.79999,-27.2294,0.000991271,0.00169969,-0.001044,0.00244793,0.00024303,-0.948945,0.00155728,0.012324,832,561,-9.79999,27.2294
-385,463,-9.88037,-28.2162,0.00147104,0.000905269,-0.000812754,0.00204873,0.000327579,-0.617926,0.00127078,0.0126369,839,561,-9.88037,28.2162
-378,463,-9.93463,-29.1802,0.00196502,9.4195e-05,-0.000511745,0.00209586,-3.6638e-05,-0.250299,0.00140961,0.0133065,846,561,-9.93462,29.1802
-371,463,-9.97791,-30.1467,0.00253431,-0.000577654,-0.000247929,0.00255394,-0.000597283,-0.0790053,0.00193273,0.0132495,853,561,-9.97788,30.1467
-364,463,-10.0146,-31.0525,0.00317891,-0.00108156,-5.86213e-05,0.00317972,-0.00108237,-0.0137559,0.0025581,0.0154561,860,561,-10.0146,31.0525
-357,463,-10.0975,-31.9722,0.00386766,-0.00163376,3.1382e-05,0.00386784,-0.00163394,0.00570409,0.00326257,0.0218238,867,561,-10.0975,31.9722
-350,463,-10.0779,-33.0309,0.00459014,-0.00242314,8.82863e-05,0.00459125,-0.00242425,0.0125858,0.00411431,0.0456284,874,561,-10.0779,33.0309
-343,463,-9.76764,-34.111,0,0,0,0,0,0,0,-1,881,561,-9.76764,34.111
-336,463,-2.94928,-12.2127,0,0,0,0,0,0,0,-1,888,561,-2.94925,12.2127
-329,463,-2.64307,-12.7037,0,0,0,0,0,0,0,-1,895,561,-2.64307,12.7038
-322,463,-1.82898,-9.11957,0,0,0,0,0,0,0,-1,902,561,-1.829,9.11957
-315,463,-0.944763,-5.96234,0,0,0,0,0,0,0,-1,909,561,-0.94479,5.96237
-308,463,-1.1535,-3.17889,0,0,0,0,0,0,0,-1,916,561,-1.15352,3.17889
-301,463,-1.50366,-3.15338,0,0,0,0,0,0,0,-1,923,561,-1.50364,3.15341
-294,463,-2.35889,-3.93463,0,0,0,0,0,0,0,-1,930,561,-2.35886,3.93465
-287,463,-2.80322,2.73999,0,0,0,0,0,0,0,-1,937,561,-2.80322,-2.74
-280,463,-12.864,5.25146,0,0,0,0,0,0,0,-1,944,561,-12.864,-5.25149
-273,463,-12.4598,3.39178,0,0,0,0,0,0,0,-1,951,561,-12.4598,-3.3918
-266,463,-8.78101,-3.7356,0,0,0,0,0,0,0,-1,958,561,-8.78098,3.73562
-259,463,-6.23285,-5.68842,0,0,0,0,0,0,0,-1,965,561,-6.23288,5.68843
-252,463,0,0,0,0,0,0,0,0,0,-1,972,561,0,0
-245,463,0,0,0,0,0,0,0,0,0,-1,979,561,0,0
-238,463,0,0,0,0,0,0,0,0,0,-1,986,561,0,0
-231,463,0,0,0,0,0,0,0,0,0,-1,993,561,0,0
-224,463,0,0,0,0,0,0,0,0,0,-1,1000,561,0,0
-217,463,0,0,0,0,0,0,0,0,0,-1,1007,561,0,0
-210,463,0,0,0,0,0,0,0,0,0,-1,1014,561,0,0
-203,463,0,0,0,0,0,0,0,0,0,-1,1021,561,0,0
-196,463,0,0,0,0,0,0,0,0,0,-1,1028,561,0,0
-189,463,0,0,0,0,0,0,0,0,0,-1,1035,561,0,0
-182,463,0,0,0,0,0,0,0,0,0,-1,1042,561,0,0
-175,463,0,0,0,0,0,0,0,0,0,-1,1049,561,0,0
-168,463,0,0,0,0,0,0,0,0,0,-1,1056,561,0,0
-161,463,0,0,0,0,0,0,0,0,0,-1,1063,561,0,0
-154,463,0,0,0,0,0,0,0,0,0,-1,1070,561,0,0
-147,463,0,0,0,0,0,0,0,0,0,-1,1077,561,0,0
-140,463,0,0,0,0,0,0,0,0,0,-1,1084,561,0,0
-133,463,0,0,0,0,0,0,0,0,0,-1,1091,561,0,0
-126,463,0,0,0,0,0,0,0,0,0,-1,1098,561,0,0
-119,463,0,0,0,0,0,0,0,0,0,-1,1105,561,0,0
-112,463,0,0,0,0,0,0,0,0,0,-1,1112,561,0,0
-105,463,0,0,0,0,0,0,0,0,0,-1,1119,561,0,0
-98,463,0,0,0,0,0,0,0,0,0,-1,1126,561,0,0
-91,463,0,0,0,0,0,0,0,0,0,-1,1133,561,0,0
-84,463,0,0,0,0,0,0,0,0,0,-1,1140,561,0,0
-77,463,0,0,0,0,0,0,0,0,0,-1,1147,561,0,0
-70,463,0,0,0,0,0,0,0,0,0,-1,1154,561,0,0
-63,463,0,0,0,0,0,0,0,0,0,-1,1161,561,0,0
-56,463,0,0,0,0,0,0,0,0,0,-1,1168,561,0,0
-49,463,0,0,0,0,0,0,0,0,0,-1,1175,561,0,0
-42,463,0,0,0,0,0,0,0,0,0,-1,1182,561,0,0
-35,463,0,0,0,0,0,0,0,0,0,-1,1189,561,0,0
-28,463,0,0,0,0,0,0,0,0,0,-1,1196,561,0,0
-21,463,0,0,0,0,0,0,0,0,0,-1,1203,561,0,0
-14,463,0,0,0,0,0,0,0,0,0,-1,1210,561,0,0
-7,463,0,0,0,0,0,0,0,0,0,-1,1217,561,0,0
0,463,0,0,0,0,0,0,0,0,0,-1,1224,561,0,0
7,463,0,0,0,0,0,0,0,0,0,-1,1231,561,0,0
14,463,0,0,0,0,0,0,0,0,0,-1,1238,561,0,0
21,463,0,0,0,0,0,0,0,0,0,-1,1245,561,0,0
28,463,0,0,0,0,0,0,0,0,0,-1,1252,561,0,0
35,463,0,0,0,0,0,0,0,0,0,-1,1259,561,0,0
42,463,0,0,0,0,0,0,0,0,0,-1,1266,561,0,0
49,463,0,0,0,0,0,0,0,0,0,-1,1273,561,0,0
56,463,0,0,0,0,0,0,0,0,0,-1,1280,561,0,0
63,463,0,0,0,0,0,0,0,0,0,-1,1287,561,0,0
70,463,0,0,0,0,0,0,0,0,0,-1,1294,561,0,0
77,463,0,0,0,0,0,0,0,0,0,-1,1301,561,0,0
84,463,0,0,0,0,0,0,0,0,0,-1,1308,561,0,0
91,463,0,0,0,0,0,0,0,0,0,-1,1315,561,0,0
98,463,0,0,0,0,0,0,0,0,0,-1,1322,561,0,0
105,463,0,0,0,0,0,0,0,0,0,-1,1329,561,0,0
112,463,0,0,0,0,0,0,0,0,0,-1,1336,561,0,0
119,463,0,0,0,0,0,0,0,0,0,-1,1343,561,0,0
126,463,0,0,0,0,0,0,0,0,0,-1,1350,561,0,0
133,463,0,0,0,0,0,0,0,0,0,-1,1357,561,0,0
140,463,0,0,0,0,0,0,0,0,0,-1,1364,561,0,0
147,463,0,0,0,0,0,0,0,0,0,-1,1371,561,0,0
154,463,0,0,0,0,0,0,0,0,0,-1,1378,561,0,0
161,463,0,0,0,0,0,0,0,0,0,-1,1385,561,0,0
168,463,0,0,0,0,0,0,0,0,0,-1,1392,561,0,0
175,463,0,0,0,0,0,0,0,0,0,-1,1399,561,0,0
182,463,0,0,0,0,0,0,0,0,0,-1,1406,561,0,0
189,463,0,0,0,0,0,0,0,0,0,-1,1413,561,0,0
196,463,0,0,0,0,0,0,0,0,0,-1,1420,561,0,0
203,463,0,0,0,0,0,0,0,0,0,-1,1427,561,0,0
210,463,0,0,0,0,0,0,0,0,0,-1,1434,561,0,0
217,463,0,0,0,0,0,0,0,0,0,-1,1441,561,0,0
224,463,0,0,0,0,0,0,0,0,0,-1,1448,561,0,0
231,463,0,0,0,0,0,0,0,0,0,-1,1455,561,0,0
238,463,0,0,0,0,0,0,0,0,0,-1,1462,561,0,0
245,463,0,0,0,0,0,0,0,0,0,-1,1469,561,0,0
252,463,0,0,0,0,0,0,0,0,0,-1,1476,561,0,0
259,463,0,0,0,0,0,0,0,0,0,-1,1483,561,0,0
266,463,0,0,0,0,0,0,0,0,0,-1,1490,561,0,0
273,463,0,0,0,0,0,0,0,0,0,-1,1497,561,0,0
280,463,0,0,0,0,0,0,0,0,0,-1,1504,561,0,0
287,463,0,0,0,0,0,0,0,0,0,-1,1511,561,0,0
294,463,0,0,0,0,0,0,0,0,0,-1,1518,561,0,0
301,463,0,0,0,0,0,0,0,0,0,-1,1525,561,0,0
308,463,0,0,0,0,0,0,0,0,0,-1,1532,561,0,0
315,463,0,0,0,0,0,0,0,0,0,-1,1539,561,0,0
322,463,0,0,0,0,0,0,0,0,0,-1,1546,561,0,0
329,463,0,0,0,0,0,0,0,0,0,-1,1553,561,0,0
336,463,0,0,0,0,0,0,0,0,0,-1,1560,561,0,0
343,463,0,0,0,0,0,0,0,0,0,-1,1567,561,0,0
350,463,0,0,0,0,0,0,0,0,0,-1,1574,561,0,0
357,463,0,0,0,0,0,0,0,0,0,-1,1581,561,0,0
364,463,0,0,0,0,0,0,0,0,0,-1,1588,561,0,0
371,463,1.75842,0.152588,0,0,0,0,0,0,0,-1,1595,561,1.75844,-0.152558
378,463,4.58813,-0.0444336,0,0,0,0,0,0,0,-1,1602,561,4.58809,0.0444505
385,463,8.88574,1.65057,0,0,0,0,0,0,0,-1,1609,561,8.88575,-1.65055
392,463,14.0912,2.50513,0,0,0,0,0,0,0,-1,1616,561,14.0912,-2.5051
399,463,21.4769,2.7002,0,0,0,0,0,0,0,-1,1623,561,21.477,-2.70017
406,463,26.2987,4.32318,0,0,0,0,0,0,0,-1,1630,561,26.2987,-4.3232
413,463,26.5011,2.65222,0,0,0,0,0,0,0,-1,1637,561,26.5011,-2.65224
420,463,8.849,2.26611,0,0,0,0,0,0,0,-1,1644,561,8.84899,-2.26613
427,463,5.12207,1.69183,0,0,0,0,0,0,0,-1,1651,561,5.12206,-1.69184
434,463,4.59814,1.81995,0,0,0,0,0,0,0,-1,1658,561,4.59812,-1.81994
441,463,1.76392,-5.99225,0,0,0,0,0,0,0,-1,1665,561,1.7639,5.99225
448,463,2.49939,-4.30536,0,0,0,0,0,0,0,-1,1672,561,2.49941,4.30536
455,463,4.40295,-3.02557,0,0,0,0,0,0,0,-1,1679,561,4.40299,3.02558
462,463,5.38293,-4.06445,0,0,0,0,0,0,0,-1,1686,561,5.38289,4.06444
469,463,5.94373,-4.50647,0,0,0,0,0,0,0,-1,1693,561,5.94368,4.50646
476,463,15.2559,-17.3189,0,0,0,0,0,0,0,-1,1700,561,15.2558,17.3189
483,463,26.7699,-31.9816,0,0,0,0,0,0,0,-1,1707,561,26.7699,31.9817
490,463,26.7389,-31.0079,0.00134057,1.86914e-05,-0.000806837,0.00172262,-0.000363358,-0.442236,0.00128675,0.0351459,1714,561,26.7389,31.0079
497,463,26.6273,-29.9476,0.00136915,0.000652223,-0.000132578,0.00139288,0.000628491,-0.177125,0.000805455,0.016288,1721,561,26.6273,29.9476
504,463,26.5842,-29.0153,0.00128803,0.000654689,0.000238114,0.00136757,0.000575154,0.322366,0.00079288,0.0169621,1728,561,26.5842,29.0153
511,463,26.5597,-28.0696,0.00120576,0.000669708,0.000567981,0.00156578,0.000309689,0.564944,0.000957465,0.0250739,1735,561,26.5597,28.0696
518,463,26.5211,-27.0599,0.00107264,0.000737143,0.000879298,0.00180005,9.73616e-06,0.691142,0.0011968,0.0256756,1742,561,26.5212,27.0599
525,463,26.4302,-26.1014,0.000929644,0.000906206,0.0011333,0.00205129,-0.000215438,0.780228,0.0014447,0.0192736,1749,561,26.4302,26.1014
532,463,26.3984,-25.0826,0.000798316,0.00121699,0.00137881,0.00240226,-0.000386956,0.860734,0.00174485,0.0178346,1756,561,26.3984,25.0826
539,463,26.2616,-24.0647,0.000663553,0.00166743,0.00159669,0.00283922,-0.000508238,0.937688,0.002083,0.020391,1763,561,26.2616,24.0647
546,463,26.1824,-23.1564,0.000554833,0.00236218,0.00181495,0.00348599,-0.000568977,1.01638,0.00253503,0.0160587,1770,561,26.1824,23.1564
553,463,26.1534,-22.1356,0.000475584,0.00327588,0.00205859,0.00436536,-0.000613889,1.08404,0.00313497,0.0112819,1777,561,26.1535,22.1356
560,463,26.1235,-21.0015,0.000512476,0.00440327,0.00235026,0.00550882,-0.000593074,1.13111,0.00388536,0.0245582,1784,561,26.1235,21.0015
567,463,25.913,-20.0223,0.000616359,0.00583852,0.00276868,0.00703314,-0.000578257,1.16345,0.00489291,0.0404559,1791,561,25.9129,20.0223
574,463,26.0205,-19.0059,0,0,0,0,0,0,0,-1,1798,561,26.0205,19.0059
581,463,9.4939,-3.88245,0,0,0,0,0,0,0,-1,1805,561,9.49392,3.88245
588,463,1.97424,2.16016,0,0,0,0,0,0,0,-1,1812,561,1.97422,-2.16013
595,463,9.98657,2.99854,0,0,0,0,0,0,0,-1,1819,561,9.98662,-2.99856
602,463,17.2202,4.91302,0,0,0,0,0,0,0,-1,1826,561,17.2202,-4.91305
609,463,17.96,4.03131,0,0,0,0,0,0,0,-1,1833,561,17.96,-4.03132
616,463,20.8352,3.15131,0,0,0,0,0,0,0,-1,1840,561,20.8352,-3.1513
623,463,0,0,0,0,0,0,0,0,0,-1,1847,561,0,0
630,463,0,0,0,0,0,0,0,0,0,-1,1854,561,0,0
637,463,0,0,0,0,0,0,0,0,0,-1,1861,561,0,0
644,463,0,0,0,0,0,0,0,0,0,-1,1868,561,0,0
651,463,0,0,0,0,0,0,0,0,0,-1,1875,561,0,0
658,463,0,0,0,0,0,0,0,0,0,-1,1882,561,0,0
665,463,0,0,0,0,0,0,0,0,0,-1,1889,561,0,0
672,463,0,0,0,0,0,0,0,0,0,-1,1896,561,0,0
679,463,0,0,0,0,0,0,0,0,0,-1,1903,561,0,0
686,463,0,0,0,0,0,0,0,0,0,-1,1910,561,0,0
693,463,0,0,0,0,0,0,0,0,0,-1,1917,561,0,0
700,463,0,0,0,0,0,0,0,0,0,-1,1924,561,0,0
707,463,0,0,0,0,0,0,0,0,0,-1,1931,561,0,0
714,463,0,0,0,0,0,0,0,0,0,-1,1938,561,0,0
721,463,0,0,0,0,0,0,0,0,0,-1,1945,561,0,0
728,463,0,0,0,0,0,0,0,0,0,-1,1952,561,0,0
735,463,0,0,0,0,0,0,0,0,0,-1,1959,561,0,0
742,463,0,0,0,0,0,0,0,0,0,-1,1966,561,0,0
749,463,0,0,0,0,0,0,0,0,0,-1,1973,561,0,0
756,463,0,0,0,0,0,0,0,0,0,-1,1980,561,0,0
763,463,0,0,0,0,0,0,0,0,0,-1,1987,561,0,0
770,463,0,0,0,0,0,0,0,0,0,-1,1994,561,0,0
777,463,0,0,0,0,0,0,0,0,0,-1,2001,561,0,0
784,463,0,0,0,0,0,0,0,0,0,-1,2008,561,0,0
791,463,0,0,0,0,0,0,0,0,0,-1,2015,561,0,0
798,463,0,0,0,0,0,0,0,0,0,-1,2022,561,0,0
805,463,0,0,0,0,0,0,0,0,0,-1,2029,561,0,0
812,463,0,0,0,0,0,0,0,0,0,-1,2036,561,0,0
-700,456,0,0,0,0,0,0,0,0,0,-1,524,568,0,0
-693,456,0,0,0,0,0,0,0,0,0,-1,531,568,0,0
-686,456,0,0,0,0,0,0,0,0,0,-1,538,568,0,0
-679,456,0,0,0,0,0,0,0,0,0,-1,545,568,0,0
-672,456,0,0,0,0,0,0,0,0,0,-1,552,568,0,0
-665,456,0,0,0,0,0,0,0,0,0,-1,559,568,0,0
-658,456,0,0,0,0,0,0,0,0,0,-1,566,568,0,0
-651,456,0,0,0,0,0,0,0,0,0,-1,573,568,0,0
-644,456,0,0,0,0,0,0,0,0,0,-1,580,568,0,0
-637,456,0,0,0,0,0,0,0,0,0,-1,587,568,0,0
-630,456,0,0,0,0,0,0,0,0,0,-1,594,568,0,0
-623,456,0,0,0,0,0,0,0,0,0,-1,601,568,0,0
-616,456,0,0,0,0,0,0,0,0,0,-1,608,568,0,0
-609,456,0,0,0,0,0,0,0,0,0,-1,615,568,0,0
-602,456,0,0,0,0,0,0,0,0,0,-1,622,568,0,0
-595,456,0,0,0,0,0,0,0,0,0,-1,629,568,0,0
-588,456,0,0,0,0,0,0,0,0,0,-1,636,568,0,0
-581,456,0,0,0,0,0,0,0,0,0,-1,643,568,0,0
-574,456,0,0,0,0,0,0,0,0,0,-1,650,568,0,0
-567,456,0,0,0,0,0,0,0,0,0,-1,657,568,0,0
-560,456,0,0,0,0,0,0,0,0,0,-1,664,568,0,0
-553,456,0,0,0,0,0,0,0,0,0,-1,671,568,0,0
-546,456,0,0,0,0,0,0,0,0,0,-1,678,568,0,0
-539,456,0,0,0,0,0,0,0,0,0,-1,685,568,0,0
-532,456,0,0,0,0,0,0,0,0,0,-1,692,568,0,0
-525,456,0,0,0,0,0,0,0,0,0,-1,699,568,0,0
-518,456,0,0,0,0,0,0,0,0,0,-1,706,568,0,0
-511,456,0,0,0,0,0,0,0,0,0,-1,713,568,0,0
-504,456,-10.3994,-2.34839,0,0,0,0,0,0,0,-1,720,568,-10.3994,2.3484
-497,456,-9.21375,-2.38068,0,0,0,0,0,0,0,-1,727,568,-9.21372,2.38069
-490,456,-8.09058,-2.31824,0,0,0,0,0,0,0,-1,734,568,-8.09057,2.31821
-483,456,-6.66119,-2.24329,0,0,0,0,0,0,0,-1,741,568,-6.66121,2.24331
-476,456,-5.1499,-2.21185,0,0,0,0,0,0,0,-1,748,568,-5.14992,2.21184
-469,456,-2.81238,-3.51501,0,0,0,0,0,0,0,-1,755,568,-2.81237,3.51501
-462,456,-4.2431,-5.27478,0,0,0,0,0,0,0,-1,762,568,-4.24312,5.27476
-455,456,-5.98364,-8.72119,0,0,0,0,0,0,0,-1,769,568,-5.98364,8.72122
-448,456,-10.2927,-18.8931,0,0,0,0,0,0,0,-1,776,568,-10.2927,18.893
-441,456,-10.4797,-20.1116,0,0,0,0,0,0,0,-1,783,568,-10.4797,20.1115
-434,456,-10.3856,-21.2539,-0.000623381,0.00578456,-0.000936258,0.00591856,-0.000757375,-1.42865,0.00422087,0.0258135,790,568,-10.3857,21.2539
-427,456,-10.4343,-22.2595,-0.000117201,0.00498386,-0.00121568,0.00525877,-0.000392107,-1.3484,0.00364359,0.0102442,797,568,-10.4343,22.2595
-420,456,-10.5091,-23.2556,0.000298918,0.00423223,-0.00141416,0.00468789,-0.000156738,-1.25909,0.00317879,0.00977827,804,568,-10.5091,23.2555
-413,456,-10.5789,-24.246,0.000567909,0.00339293,-0.00138826,0.00396094,-9.82545e-08,-1.18243,0.00264066,0.0096988,811,568,-10.5789,24.246
-406,456,-10.6652,-25.2122,0.000730126,0.00247594,-0.00115907,0.00305403,0.000152031,-1.10814,0.00198728,0.0103555,818,568,-10.6652,25.2122
-399,456,-10.7252,-26.171,0.000981388,0.0017412,-0.000936439,0.00237186,0.000350726,-0.9781,0.00147827,0.0123834,825,568,-10.7252,26.1709
-392,456,-10.7784,-27.1496,0.00136547,0.00102337,-0.000742595,0.00195646,0.000432382,-0.672201,0.00118673,0.0123249,832,568,-10.7784,27.1496
-385,456,-10.8417,-28.124,0.0018942,0.000411046,-0.000584292,0.00209673,0.000208519,-0.33366,0.00133376,0.0112446,839,568,-10.8417,28.124
-378,456,-10.9144,-29.0977,0.00246268,-0.000195766,-0.000374752,0.0025145,-0.000247583,-0.1374,0.00176466,0.011767,846,568,-10.9145,29.0977
-371,456,-10.9639,-30.0547,0.00315616,-0.000592524,-0.000196516,0.00316643,-0.000602798,-0.0522319,0.00233794,0.0125876,853,568,-10.9638,30.0547
-364,456,-10.9874,-30.9608,0.00396142,-0.000690284,-0.0001585,0.00396682,-0.000695678,-0.0340208,0.00290434,0.022453,860,568,-10.9873,30.9608
-357,456,-11.0201,-31.9496,0,0,0,0,0,0,0,-1,867,568,-11.0201,31.9496
-350,456,-10.9097,-33.2366,0,0,0,0,0,0,0,-1,874,568,-10.9096,33.2367
-343,456,-3.39081,-12.0217,0,0,0,0,0,0,0,-1,881,568,-3.39078,12.0217
-336,456,-3.04517,-12.4623,0,0,0,0,0,0,0,-1,888,568,-3.04519,12.4624
-329,456,-1.06183,-10.7184,0,0,0,0,0,0,0,-1,895,568,-1.06184,10.7184
-322,456,-0.662537,-7.66632,0,0,0,0,0,0,0,-1,902,568,-0.662564,7.66633
-315,456,-0.675476,-3.38397,0,0,0,0,0,0,0,-1,909,568,-0.675473,3.38399
-308,456,-1.1618,-3.15314,0,0,0,0,0,0,0,-1,916,568,-1.16178,3.15314
-301,456,-1.83551,-3.26447,0,0,0,0,0,0,0,-1,923,568,-1.8355,3.26449
-294,456,-2.93414,-3.35449,0,0,0,0,0,0,0,-1,930,568,-2.93413,3.35451
-287,456,-3.7569,-3.53101,0,0,0,0,0,0,0,-1,937,568,-3.75692,3.53101
-280,456,-13.072,4.52856,0,0,0,0,0,0,0,-1,944,568,-13.072,-4.52855
-273,456,-8.26538,-6.66748,0,0,0,0,0,0,0,-1,951,568,-8.26536,6.66745
-266,456,-5.71527,-9.36884,0,0,0,0,0,0,0,-1,958,568,-5.71529,9.36885
-259,456,0,0,0,0,0,0,0,0,0,-1,965,568,0,0
-252,456,0,0,0,0,0,0,0,0,0,-1,972,568,0,0
-245,456,0,0,0,0,0,0,0,0,0,-1,979,568,0,0
-238,456,0,0,0,0,0,0,0,0,0,-1,986,568,0,0
-231,456,0,0,0,0,0,0,0,0,0,-1,993,568,0,0
-224,456,0,0,0,0,0,0,0,0,0,-1,1000,568,0,0
-217,456,0,0,0,0,0,0,0,0,0,-1,1007,568,0,0
-210,456,0,0,0,0,0,0,0,0,0,-1,1014,568,0,0
-203,456,0,0,0,0,0,0,0,0,0,-1,1021,568,0,0
-196,456,0,0,0,0,0,0,0,0,0,-1,1028,568,0,0
-189,456,0,0,0,0,0,0,0,0,0,-1,1035,568,0,0
-182,456,0,0,0,0,0,0,0,0,0,-1,1042,568,0,0
-175,456,0,0,0,0,0,0,0,0,0,-1,1049,568,0,0
-168,456,0,0,0,0,0,0,0,0,0,-1,1056,568,0,0
-161,456,0,0,0,0,0,0,0,0,0,-1,1063,568,0,0
-154,456,0,0,0,0,0,0,0,0,0,-1,1070,568,0,0
-147,456,0,0,0,0,0,0,0,0,0,-1,1077,568,0,0
-140,456,0,0,0,0,0,0,0,0,0,-1,1084,568,0,0
-133,456,0,0,0,0,0,0,0,0,0,-1,1091,568,0,0
-126,456,0,0,0,0,0,0,0,0,0,-1,1098,568,0,0
-119,456,0,0,0,0,0,0,0,0,0,-1,1105,568,0,0
-112,456,0,0,0,0,0,0,0,0,0,-1,1112,568,0,0
-105,456,0,0,0,0,0,0,0,0,0,-1,1119,568,0,0
-98,456,0,0,0,0,0,0,0,0,0,-1,1126,568,0,0
-91,456,0,0,0,0,0,0,0,0,0,-1,1133,568,0,0
-84,456,0,0,0,0,0,0,0,0,0,-1,1140,568,0,0
-77,456,0,0,0,0,0,0,0,0,0,-1,1147,568,0,0
-70,456,0,0,0,0,0,0,0,0,0,-1,1154,568,0,0
-63,456,0,0,0,0,0,0,0,0,0,-1,1161,568,0,0
-56,456,0,0,0,0,0,0,0,0,0,-1,1168,568,0,0
-49,456,0,0,0,0,0,0,0,0,0,-1,1175,568,0,0
-42,456,0,0,0,0,0,0,0,0,0,-1,1182,568,0,0
-35,456,0,0,0,0,0,0,0,0,0,-1,1189,568,0,0
-28,456,0,0,0,0,0,0,0,0,0,-1,1196,568,0,0
-21,456,0,0,0,0,0,0,0,0,0,-1,1203,568,0,0
-14,456,0,0,0,0,0,0,0,0,0,-1,1210,568,0,0
-7,456,0,0,0,0,0,0,0,0,0,-1,1217,568,0,0
0,456,0,0,0,0,0,0,0,0,0,-1,1224,568,0,0
7,456,0,0,0,0,0,0,0,0,0,-1,1231,568,0,0
14,456,0,0,0,0,0,0,0,0,0,-1,1238,568,0,0
21,456,0,0,0,0,0,0,0,0,0,-1,1245,568,0,0
28,456,0,0,0,0,0,0,0,0,0,-1,1252,568,0,0
35,456,0,0,0,0,0,0,0,0,0,-1,1259,568,0,0
42,456,0,0,0,0,0,0,0,0,0,-1,1266,568,0,0
49,456,0,0,0,0,0,0,0,0,0,-1,1273,568,0,0
56,456,0,0,0,0,0,0,0,0,0,-1,1280,568,0,0
63,456,0,0,0,0,0,0,0,0,0,-1,1287,568,0,0
70,456,0,0,0,0,0,0,0,0,0,-1,1294,568,0,0
77,456,0,0,0,0,0,0,0,0,0,-1,1301,568,0,0
84,456,0,0,0,0,0,0,0,0,0,-1,1308,568,0,0
91,456,0,0,0,0,0,0,0,0,0,-1,1315,568,0,0
98,456,0,0,0,0,0,0,0,0,0,-1,1322,568,0,0
105,456,0,0,0,0,0,0,0,0,0,-1,1329,568,0,0
112,456,0,0,0,0,0,0,0,0,0,-1,1336,568,0,0
119,456,0,0,0,0,0,0,0,0,0,-1,1343,568,0,0
126,456,0,0,0,0,0,0,0,0,0,-1,1350,568,0,0
133,456,0,0,0,0,0,0,0,0,0,-1,1357,568,0,0
140,456,0,0,0,0,0,0,0,0,0,-1,1364,568,0,0
147,456,0,0,0,0,0,0,0,0,0,-1,1371,568,0,0
154,456,0,0,0,0,0,0,0,0,0,-1,1378,568,0,0
161,456,0,0,0,0,0,0,0,0,0,-1,1385,568,0,0
168,456,0,0,0,0,0,0,0,0,0,-1,1392,568,0,0
175,456,0,0,0,0,0,0,0,0,0,-1,1399,568,0,0
182,456,0,0,0,0,0,0,0,0,0,-1,1406,568,0,0
189,456,0,0,0,0,0,0,0,0,0,-1,1413,568,0,0
196,456,0,0,0,0,0,0,0,0,0,-1,1420,568,0,0
203,456,0,0,0,0,0,0,0,0,0,-1,1427,568,0,0
210,456,0,0,0,0,0,0,0,0,0,-1,1434,568,0,0
217,456,0,0,0,0,0,0,0,0,0,-1,1441,568,0,0
224,456,0,0,0,0,0,0,0,0,0,-1,1448,568,0,0
231,456,0,0,0,0,0,0,0,0,0,-1,1455,568,0,0
238,456,0,0,0,0,0,0,0,0,0,-1,1462,568,0,0
245,456,0,0,0,0,0,0,0,0,0,-1,1469,568,0,0
252,456,0,0,0,0,0,0,0,0,0,-1,1476,568,0,0
259,456,0,0,0,0,0,0,0,0,0,-1,1483,568,0,0
266,456,0,0,0,0,0,0,0,0,0,-1,1490,568,0,0
273,456,0,0,0,0,0,0,0,0,0,-1,1497,568,0,0
280,456,0,0,0,0,0,0,0,0,0,-1,1504,568,0,0
287,456,0,0,0,0,0,0,0,0,0,-1,1511,568,0,0
294,456,0,0,0,0,0,0,0,0,0,-1,1518,568,0,0
301,456,0,0,0,0,0,0,0,0,0,-1,1525,568,0,0
308,456,0,0,0,0,0,0,0,0,0,-1,1532,568,0,0
315,456,0,0,0,0,0,0,0,0,0,-1,1539,568,0,0
322,456,0,0,0,0,0,0,0,0,0,-1,1546,568,0,0
329,456,0,0,0,0,0,0,0,0,0,-1,1553,568,0,0
336,456,0,0,0,0,0,0,0,0,0,-1,1560,568,0,0
343,456,0,0,0,0,0,0,0,0,0,-1,1567,568,0,0
350,456,0,0,0,0,0,0,0,0,0,-1,1574,568,0,0
357,456,0,0,0,0,0,0,0,0,0,-1,1581,568,0,0
364,456,0,0,0,0,0,0,0,0,0,-1,1588,568,0,0
371,456,0,0,0,0,0,0,0,0,0,-1,1595,568,0,0
378,456,0,0,0,0,0,0,0,0,0,-1,1602,568,0,0
385,456,5.66284,0.660645,0,0,0,0,0,0,0,-1,1609,568,5.66285,-0.660615
392,456,17.5027,4.32971,0,0,0,0,0,0,0,-1,1616,568,17.5026,-4.32971
399,456,24.1917,5.99652,0,0,0,0,0,0,0,-1,1623,568,24.1916,-5.99651
406,456,24.446,4.53003,0,0,0,0,0,0,0,-1,1630,568,24.446,-4.53005
413,456,24.9418,2.90521,0,0,0,0,0,0,0,-1,1637,568,24.9418,-2.90524
420,456,25.3048,1.04712,0,0,0,0,0,0,0,-1,1644,568,25.3048,-1.04713
427,456,6.21375,2.02905,0,0,0,0,0,0,0,-1,1651,568,6.21372,-2.02904
434,456,3.0719,-4.86285,0,0,0,0,0,0,0,-1,1658,568,3.07184,4.86287
441,456,2.90344,-4.70459,0,0,0,0,0,0,0,-1,1665,568,2.90346,4.7046
448,456,3.06995,-4.93689,0,0,0,0,0,0,0,-1,1672,568,3.06991,4.93687
455,456,3.46582,-3.43701,0,0,0,0,0,0,0,-1,1679,568,3.46585,3.43698
462,456,4.68445,-4.45831,0,0,0,0,0,0,0,-1,1686,568,4.68439,4.45833
469,456,4.93201,-2.289,0,0,0,0,0,0,0,-1,1693,568,4.93197,2.28903
476,456,4.8363,-2.79364,0,0,0,0,0,0,0,-1,1700,568,4.83636,2.79363
483,456,12.8522,-13.692,0,0,0,0,0,0,0,-1,1707,568,12.8522,13.6919
490,456,27.5842,-31.2811,0,0,0,0,0,0,0,-1,1714,568,27.5842,31.281
497,456,27.5339,-29.8374,0,0,0,0,0,0,0,-1,1721,568,27.5339,29.8374
504,456,27.5179,-28.9058,0.00162418,0.000636739,0.000112016,0.00163673,0.000624191,0.111551,0.000953793,0.0170615,1728,568,27.518,28.9058
511,456,27.501,-27.9573,0.00148577,0.000547998,0.000369953,0.00161414,0.000419624,0.334,0.000967059,0.0144141,1735,568,27.501,27.9573
518,456,27.4749,-26.9984,0.00133821,0.000523796,0.000660043,0.00170655,0.000155454,0.509007,0.00108958,0.0168222,1742,568,27.4749,26.9984
525,456,27.3932,-26.0183,0.00113951,0.000654925,0.000873051,0.00180327,-8.83127e-06,0.650043,0.00120513,0.0166825,1749,568,27.3932,26.0183
532,456,27.3579,-25.0076,0.000958692,0.000926374,0.00107549,0.00201814,-0.000133077,0.777886,0.00139191,0.0176034,1756,568,27.3579,25.0075
539,456,27.2416,-23.9772,0.000814562,0.00133587,0.00127305,0.00237468,-0.000224247,0.886377,0.00166292,0.024697,1763,568,27.2416,23.9772
546,456,27.0977,-23.0074,0.000715091,0.00194935,0.00146026,0.00291753,-0.000253093,0.985322,0.00203464,0.0281463,1770,568,27.0977,23.0074
553,456,27.0316,-21.9921,0.000625048,0.00276512,0.00167017,0.00367863,-0.000288464,1.07029,0.00255401,0.0152572,1777,568,27.0317,21.9921
560,456,27.0376,-21.0552,0.000642997,0.00376679,0.00196573,0.00471559,-0.000305807,1.12111,0.00325046,0.0109072,1784,568,27.0376,21.0552
567,456,26.9875,-20.0639,0.00083952,0.00506798,0.00244678,0.00618743,-0.000279933,1.14171,0.00422136,0.0232001,1791,568,26.9876,20.0639
574,456,26.9456,-19.0273,0,0,0,0,0,0,0,-1,1798,568,26.9456,19.0273
581,456,16.2228,-9.08563,0,0,0,0,0,0,0,-1,1805,568,16.2228,9.08562
588,456,5.23901,-0.0901489,0,0,0,0,0,0,0,-1,1812,568,5.23906,0.0901656
595,456,6.90063,3.14886,0,0,0,0,0,0,0,-1,1819,568,6.90066,-3.14887
602,456,16.894,4.10938,0,0,0,0,0,0,0,-1,1826,568,16.8941,-4.1094
609,456,14.9966,3.5708,0,0,0,0,0,0,0,-1,1833,568,14.9966,-3.57083
616,456,17.7407,2.6579,0,0,0,0,0,0,0,-1,1840,568,17.7408,-2.6579
623,456,20.6838,1.7121,0,0,0,0,0,0,0,-1,1847,568,20.6838,-1.71208
630,456,0,0,0,0,0,0,0,0,0,-1,1854,568,0,0
637,456,0,0,0,0,0,0,0,0,0,-1,1861,568,0,0
644,456,0,0,0,0,0,0,0,0,0,-1,1868,568,0,0
651,456,0,0,0,0,0,0,0,0,0,-1,1875,568,0,0
658,456,0,0,0,0,0,0,0,0,0,-1,1882,568,0,0
665,456,0,0,0,0,0,0,0,0,0,-1,1889,568,0,0
672,456,0,0,0,0,0,0,0,0,0,-1,1896,568,0,0
679,456,0,0,0,0,0,0,0,0,0,-1,1903,568,0,0
686,456,0,0,0,0,0,0,0,0,0,-1,1910,568,0,0
693,456,0,0,0,0,0,0,0,0,0,-1,1917,568,0,0
700,456,0,0,0,0,0,0,0,0,0,-1,1924,568,0,0
707,456,0,0,0,0,0,0,0,0,0,-1,1931,568,0,0
714,456,0,0,0,0,0,0,0,0,0,-1,1938,568,0,0
721,456,0,0,0,0,0,0,0,0,0,-1,1945,568,0,0
728,456,0,0,0,0,0,0,0,0,0,-1,1952,568,0,0
735,456,0,0,0,0,0,0,0,0,0,-1,1959,568,0,0
742,456,0,0,0,0,0,0,0,0,0,-1,1966,568,0,0
749,456,0,0,0,0,0,0,0,0,0,-1,1973,568,0,0
756,456,0,0,0,0,0,0,0,0,0,-1,1980,568,0,0
763,456,0,0,0,0,0,0,0,0,0,-1,1987,568,0,0
770,456,0,0,0,0,0,0,0,0,0,-1,1994,568,0,0
777,456,0,0,0,0,0,0,0,0,0,-1,2001,568,0,0
784,456,0,0,0,0,0,0,0,0,0,-1,2008,568,0,0
791,456,0,0,0,0,0,0,0,0,0,-1,2015,568,0,0
798,456,0,0,0,0,0,0,0,0,0,-1,2022,568,0,0
805,456,0,0,0,0,0,0,0,0,0,-1,2029,568,0,0
812,456,0,0,0,0,0,0,0,0,0,-1,2036,568,0,0
-700,449,0,0,0,0,0,0,0,0,0,-1,524,575,0,0
-693,449,0,0,0,0,0,0,0,0,0,-1,531,575,0,0
-686,449,0,0,0,0,0,0,0,0,0,-1,538,575,0,0
-679,449,0,0,0,0,0,0,0,0,0,-1,545,575,0,0
-672,449,0,0,0,0,0,0,0,0,0,-1,552,575,0,0
-665,449,0,0,0,0,0,0,0,0,0,-1,559,575,0,0
-658,449,0,0,0,0,0,0,0,0,0,-1,566,575,0,0
-651,449,0,0,0,0,0,0,0,0,0,-1,573,575,0,0
-644,449,0,0,0,0,0,0,0,0,0,-1,580,575,0,0
-637,449,0,0,0,0,0,0,0,0,0,-1,587,575,0,0
-630,449,0,0,0,0,0,0,0,0,0,-1,594,575,0,0
-623,449,0,0,0,0,0,0,0,0,0,-1,601,575,0,0
-616,449,0,0,0,0,0,0,0,0,0,-1,608,575,0,0
-609,449,0,0,0,0,0,0,0,0,0,-1,615,575,0,0
-602,449,0,0,0,0,0,0,0,0,0,-1,622,575,0,0
-595,449,0,0,0,0,0,0,0,0,0,-1,629,575,0,0
-588,449,0,0,0,0,0,0,0,0,0,-1,636,575,0,0
-581,449,0,0,0,0,0,0,0,0,0,-1,643,575,0,0
-574,449,0,0,0,0,0,0,0,0,0,-1,650,575,0,0
-567,449,0,0,0,0,0,0,0,0,0,-1,657,575,0,0
-560,449,0,0,0,0,0,0,0,0,0,-1,664,575,0,0
-553,449,0,0,0,0,0,0,0,0,0,-1,671,575,0,0
-546,449,0,0,0,0,0,0,0,0,0,-1,678,575,0,0
-539,449,0,0,0,0,0,0,0,0,0,-1,685,575,0,0
-532,449,0,0,0,0,0,0,0,0,0,-1,692,575,0,0
-525,449,0,0,0,0,0,0,0,0,0,-1,699,575,0,0
-518,449,0,0,0,0,0,0,0,0,0,-1,706,575,0,0
-511,449,-0.941345,-4.4519,0,0,0,0,0,0,0,-1,713,575,-0.941356,4.45191
-504,449,-14.1078,0.318237,0,0,0,0,0,0,0,-1,720,575,-14.1078,-0.318231
-497,449,-8.61292,-3.09009,0,0,0,0,0,0,0,-1,727,575,-8.61291,3.09011
-490,449,-7.50995,-2.96252,0,0,0,0,0,0,0,-1,734,575,-7.50995,2.96251
-483,449,-5.77789,-2.50061,0,0,0,0,0,0,0,-1,741,575,-5.77792,2.50059
-476,449,-4.1723,-2.07739,0,0,0,0,0,0,0,-1,748,575,-4.17228,2.0774
-469,449,-5.0976,-5.78448,0,0,0,0,0,0,0,-1,755,575,-5.09758,5.78451
-462,449,-6.54181,-9.54535,0,0,0,0,0,0,0,-1,762,575,-6.54178,9.54536
-455,449,-8.67291,-13.2226,0,0,0,0,0,0,0,-1,769,575,-8.67289,13.2226
-448,449,-11.1857,-19.038,0,0,0,0,0,0,0,-1,776,575,-11.1857,19.038
-441,449,-11.235,-20.2985,-0.00153324,0.00481185,-9.55275e-05,0.00481329,-0.00153467,-1.55575,0.00382447,0.0278101,783,575,-11.235,20.2985
-434,449,-11.3819,-21.2011,-0.000640471,0.00418006,-0.000556277,0.00424342,-0.000703831,-1.45738,0.00309039,0.0161227,790,575,-11.3819,21.2011
-427,449,-11.4144,-22.1683,-2.38596e-05,0.00360093,-0.000842657,0.00378724,-0.000210176,-1.35319,0.00259772,0.0146459,797,575,-11.4144,22.1683
-420,449,-11.4787,-23.1522,0.000507605,0.00306883,-0.00107728,0.00346168,0.00011475,-1.22111,0.00227051,0.0134611,804,575,-11.4787,23.1522
-413,449,-11.5442,-24.1542,0.000862468,0.00244113,-0.00109356,0.00300047,0.000303128,-1.098,0.00190732,0.0110966,811,575,-11.5442,24.1543
-406,449,-11.64,-25.148,0.00109372,0.00174205,-0.000935396,0.00240786,0.000427909,-0.952199,0.00148332,0.0111964,818,575,-11.6399,25.148
-399,449,-11.7222,-26.1167,0.00141596,0.00122082,-0.000808049,0.00213231,0.000504473,-0.725314,0.00128678,0.0102978,825,575,-11.7222,26.1167
-392,449,-11.764,-27.0859,0.0018524,0.000694717,-0.000699284,0.00218134,0.000365784,-0.439677,0.00134893,0.0111105,832,575,-11.764,27.0859
-385,449,-11.8182,-28.0449,0.00242059,0.000234338,-0.000615138,0.00258178,7.31434e-05,-0.256284,0.00169733,0.0118237,839,575,-11.8182,28.0449
-378,449,-11.8961,-29.0005,0.00306649,-0.000188585,-0.000504572,0.00314291,-0.000265005,-0.150313,0.00218896,0.0104596,846,575,-11.8961,29.0005
-371,449,-11.9333,-29.9866,0.00388352,-0.000328384,-0.000411957,0.00392343,-0.000368298,-0.0965882,0.00274663,0.017372,853,575,-11.9333,29.9866
-364,449,-11.9547,-30.99,0,0,0,0,0,0,0,-1,860,575,-11.9546,30.99
-357,449,-5.88049,-15.8704,0,0,0,0,0,0,0,-1,867,575,-5.88051,15.8704
-350,449,-2.8764,-9.90204,0,0,0,0,0,0,0,-1,874,575,-2.87638,9.90203
-343,449,-2.98492,-9.2254,0,0,0,0,0,0,0,-1,881,575,-2.98491,9.22541
-336,449,-1.29523,-9.54626,0,0,0,0,0,0,0,-1,888,575,-1.29525,9.54626
-329,449,-0.733398,-7.78937,0,0,0,0,0,0,0,-1,895,575,-0.733398,7.78937
-322,449,-0.628845,-3.16669,0,0,0,0,0,0,0,-1,902,575,-0.628861,3.16667
-315,449,-0.540344,-3.21918,0,0,0,0,0,0,0,-1,909,575,-0.540336,3.21917
-308,449,-1.04413,-2.99341,0,0,0,0,0,0,0,-1,916,575,-1.04415,2.99338
-301,449,-1.58691,-2.80725,0,0,0,0,0,0,0,-1,923,575,-1.58692,2.80728
-294,449,-3.71118,-2.76086,0,0,0,0,0,0,0,-1,930,575,-3.71119,2.76087
-287,449,-4.4082,-2.69525,0,0,0,0,0,0,0,-1,937,575,-4.40822,2.69526
-280,449,0.723999,-14.2697,0,0,0,0,0,0,0,-1,944,575,0.723977,14.2696
-273,449,0,0,0,0,0,0,0,0,0,-1,951,575,0,0
-266,449,0,0,0,0,0,0,0,0,0,-1,958,575,0,0
-259,449,0,0,0,0,0,0,0,0,0,-1,965,575,0,0
-252,449,0,0,0,0,0,0,0,0,0,-1,972,575,0,0
-245,449,0,0,0,0,0,0,0,0,0,-1,979,575,0,0
-238,449,0,0,0,0,0,0,0,0,0,-1,986,575,0,0
-231,449,0,0,0,0,0,0,0,0,0,-1,993,575,0,0
-224,449,0,0,0,0,0,0,0,0,0,-1,1000,575,0,0
-217,449,0,0,0,0,0,0,0,0,0,-1,1007,575,0,0
-210,449,0,0,0,0,0,0,0,0,0,-1,1014,575,0,0
-203,449,0,0,0,0,0,0,0,0,0,-1,1021,575,0,0
-196,449,0,0,0,0,0,0,0,0,0,-1,1028,575,0,0
-189,449,0,0,0,0,0,0,0,0,0,-1,1035,575,0,0
-182,449,0,0,0,0,0,0,0,0,0,-1,1042,575,0,0
-175,449,0,0,0,0,0,0,0,0,0,-1,1049,575,0,0
-168,449,0,0,0,0,0,0,0,0,0,-1,1056,575,0,0
-161,449,0,0,0,0,0,0,0,0,0,-1,1063,575,0,0
-154,449,0,0,0,0,0,0,0,0,0,-1,1070,575,0,0
-147,449,0,0,0,0,0,0,0,0,0,-1,1077,575,0,0
-140,449,0,0,0,0,0,0,0,0,0,-1,1084,575,0,0
-133,449,0,0,0,0,0,0,0,0,0,-1,1091,575,0,0
-126,449,0,0,0,0,0,0,0,0,0,-1,1098,575,0,0
-119,449,0,0,0,0,0,0,0,0,0,-1,1105,575,0,0
-112,449,0,0,0,0,0,0,0,0,0,-1,1112,575,0,0
-105,449,0,0,0,0,0,0,0,0,0,-1,1119,575,0,0
-98,449,0,0,0,0,0,0,0,0,0,-1,1126,575,0,0
-91,449,0,0,0,0,0,0,0,0,0,-1,1133,575,0,0
-84,449,0,0,0,0,0,0,0,0,0,-1,1140,575,0,0
-77,449,0,0,0,0,0,0,0,0,0,-1,1147,575,0,0
-70,449,0,0,0,0,0,0,0,0,0,-1,1154,575,0,0
-63,449,0,0,0,0,0,0,0,0,0,-1,1161,575,0,0
-56,449,0,0,0,0,0,0,0,0,0,-1,1168,575,0,0
-49,449,0,0,0,0,0,0,0,0,0,-1,1175,575,0,0
-42,449,0,0,0,0,0,0,0,0,0,-1,1182,575,0,0
-35,449,0,0,0,0,0,0,0,0,0,-1,1189,575,0,0
-28,449,0,0,0,0,0,0,0,0,0,-1,1196,575,0,0
-21,449,0,0,0,0,0,0,0,0,0,-1,1203,575,0,0
-14,449,0,0,0,0,0,0,0,0,0,-1,1210,575,0,0
-7,449,0,0,0,0,0,0,0,0,0,-1,1217,575,0,0
0,449,0,0,0,0,0,0,0,0,0,-1,1224,575,0,0
7,449,0,0,0,0,0,0,0,0,0,-1,1231,575,0,0
14,449,0,0,0,0,0,0,0,0,0,-1,1238,575,0,0
21,449,0,0,0,0,0,0,0,0,0,-1,1245,575,0,0
28,449,0,0,0,0,0,0,0,0,0,-1,1252,575,0,0
35,449,0,0,0,0,0,0,0,0,0,-1,1259,575,0,0
42,449,0,0,0,0,0,0,0,0,0,-1,1266,575,0,0
49,449,0,0,0,0,0,0,0,0,0,-1,1273,575,0,0
56,449,0,0,0,0,0,0,0,0,0,-1,1280,575,0,0
63,449,0,0,0,0,0,0,0,0,0,-1,1287,575,0,0
70,449,0,0,0,0,0,0,0,0,0,-1,1294,575,0,0
77,449,0,0,0,0,0,0,0,0,0,-1,1301,575,0,0
84,449,0,0,0,0,0,0,0,0,0,-1,1308,575,0,0
91,449,0,0,0,0,0,0,0,0,0,-1,1315,575,0,0
98,449,0,0,0,0,0,0,0,0,0,-1,1322,575,0,0
105,449,0,0,0,0,0,0,0,0,0,-1,1329,575,0,0
112,449,0,0,0,0,0,0,0,0,0,-1,1336,575,0,0
119,449,0,0,0,0,0,0,0,0,0,-1,1343,575,0,0
126,449,0,0,0,0,0,0,0,0,0,-1,1350,575,0,0
133,449,0,0,0,0,0,0,0,0,0,-1,1357,575,0,0
140,449,0,0,0,0,0,0,0,0,0,-1,1364,575,0,0
147,449,0,0,0,0,0,0,0,0,0,-1,1371,575,0,0
154,449,0,0,0,0,0,0,0,0,0,-1,1378,575,0,0
161,449,0,0,0,0,0,0,0,0,0,-1,1385,575,0,0
168,449,0,0,0,0,0,0,0,0,0,-1,1392,575,0,0
175,449,0,0,0,0,0,0,0,0,0,-1,1399,575,0,0
182,449,0,0,0,0,0,0,0,0,0,-1,1406,575,0,0
189,449,0,0,0,0,0,0,0,0,0,-1,1413,575,0,0
196,449,0,0,0,0,0,0,0,0,0,-1,1420,575,0,0
203,449,0,0,0,0,0,0,0,0,0,-1,1427,575,0,0
210,449,0,0,0,0,0,0,0,0,0,-1,1434,575,0,0
217,449,0,0,0,0,0,0,0,0,0,-1,1441,575,0,0
224,449,0,0,0,0,0,0,0,0,0,-1,1448,575,0,0
231,449,0,0,0,0,0,0,0,0,0,-1,1455,575,0,0
238,449,0,0,0,0,0,0,0,0,0,-1,1462,575,0,0
245,449,0,0,0,0,0,0,0,0,0,-1,1469,575,0,0
252,449,0,0,0,0,0,0,0,0,0,-1,1476,575,0,0
259,449,0,0,0,0,0,0,0,0,0,-1,1483,575,0,0
266,449,0,0,0,0,0,0,0,0,0,-1,1490,575,0,0
273,449,0,0,0,0,0,0,0,0,0,-1,1497,575,0,0
280,449,0,0,0,0,0,0,0,0,0,-1,1504,575,0,0
287,449,0,0,0,0,0,0,0,0,0,-1,1511,575,0,0
294,449,0,0,0,0,0,0,0,0,0,-1,1518,575,0,0
301,449,0,0,0,0,0,0,0,0,0,-1,1525,575,0,0
308,449,0,0,0,0,0,0,0,0,0,-1,1532,575,0,0
315,449,0,0,0,0,0,0,0,0,0,-1,1539,575,0,0
322,449,0,0,0,0,0,0,0,0,0,-1,1546,575,0,0
329,449,0,0,0,0,0,0,0,0,0,-1,1553,575,0,0
336,449,0,0,0,0,0,0,0,0,0,-1,1560,575,0,0
343,449,0,0,0,0,0,0,0,0,0,-1,1567,575,0,0
350,449,0,0,0,0,0,0,0,0,0,-1,1574,575,0,0
357,449,0,0,0,0,0,0,0,0,0,-1,1581,575,0,0
364,449,0,0,0,0,0,0,0,0,0,-1,1588,575,0,0
371,449,0,0,0,0,0,0,0,0,0,-1,1595,575,0,0
378,449,0,0,0,0,0,0,0,0,0,-1,1602,575,0,0
385,449,0,0,0,0,0,0,0,0,0,-1,1609,575,0,0
392,449,7.95471,3.66217,0,0,0,0,0,0,0,-1,1616,575,7.95471,-3.66218
399,449,19.9791,5.565,0,0,0,0,0,0,0,-1,1623,575,19.9791,-5.56499
406,449,24.9847,4.55969,0,0,0,0,0,0,0,-1,1630,575,24.9848,-4.55968
413,449,30.4159,3.15027,0,0,0,0,0,0,0,-1,1637,575,30.4159,-3.15028
420,449,23.9675,1.29718,0,0,0,0,0,0,0,-1,1644,575,23.9675,-1.29721
427,449,24.4276,-0.596558,0,0,0,0,0,0,0,-1,1651,575,24.4277,0.596569
434,449,25.61,-2.96594,0,0,0,0,0,0,0,-1,1658,575,25.61,2.96595
441,449,3.89856,-6.06458,0,0,0,0,0,0,0,-1,1665,575,3.89855,6.06459
448,449,4.03198,-5.18207,0,0,0,0,0,0,0,-1,1672,575,4.03197,5.18207
455,449,4.21948,-4.09467,0,0,0,0,0,0,0,-1,1679,575,4.21952,4.09465
462,449,4.23181,-2.96924,0,0,0,0,0,0,0,-1,1686,575,4.23185,2.96926
469,449,4.51672,-2.95135,0,0,0,0,0,0,0,-1,1693,575,4.51672,2.95135
476,449,4.71838,-1.86688,0,0,0,0,0,0,0,-1,1700,575,4.71842,1.86689
483,449,4.87878,-1.73126,0,0,0,0,0,0,0,-1,1707,575,4.87875,1.73128
490,449,5.73279,-2.74573,0,0,0,0,0,0,0,-1,1714,575,5.73282,2.74575
497,449,17.2095,-16.4381,0,0,0,0,0,0,0,-1,1721,575,17.2094,16.4381
504,449,28.4585,-28.9457,0,0,0,0,0,0,0,-1,1728,575,28.4584,28.9457
511,449,28.4644,-27.9081,0.00194576,0.000514264,0.000315271,0.00201212,0.000447906,0.207453,0.00121984,0.0174402,1735,575,28.4643,27.9082
518,449,28.4447,-26.9244,0.00182954,0.000374423,0.000592107,0.00204003,0.000163935,0.341557,0.0013088,0.013836,1742,575,28.4447,26.9244
525,449,28.3462,-25.9388,0.00158401,0.000457413,0.000757497,0.0019647,7.67278e-05,0.465691,0.00128499,0.0136498,1749,575,28.3462,25.9388
532,449,28.259,-24.9615,0.00134302,0.000675212,0.000901103,0.00197009,4.81377e-05,0.607966,0.00129765,0.0123222,1756,575,28.259,24.9615
539,449,28.157,-23.9618,0.00116692,0.00103181,0.00105882,0.00216033,3.83963e-05,0.75354,0.0014276,0.0185755,1763,575,28.157,23.9618
546,449,28.0787,-22.8965,0.00103352,0.00155112,0.00119288,0.00251295,7.16916e-05,0.892219,0.00165192,0.0328719,1770,575,28.0788,22.8965
553,449,28.0125,-21.9638,0.000874918,0.0022632,0.00134386,0.00308161,5.6511e-05,1.02379,0.00203583,0.0218132,1777,575,28.0124,21.9638
560,449,28.0182,-21.0179,0.000786158,0.00312199,0.00158434,0.00392236,-1.42131e-05,1.10302,0.00261966,0.0148596,1784,575,28.0181,21.0179
567,449,27.9452,-20.0225,0.000864626,0.00424866,0.00201028,0.00518422,-7.09309e-05,1.13522,0.00348003,0.0108007,1791,575,27.9451,20.0225
574,449,27.8905,-18.9802,0.000887804,0.00549654,0.00250696,0.00659731,-0.000212963,1.15706,0.00447088,0.0293635,1798,575,27.8905,18.9802
581,449,27.854,-17.8425,0,0,0,0,0,0,0,-1,1805,575,27.854,17.8425
588,449,12.3274,-4.5672,0,0,0,0,0,0,0,-1,1812,575,12.3274,4.5672
595,449,15.9352,-5.65479,0,0,0,0,0,0,0,-1,1819,575,15.9352,5.65478
602,449,9.46167,4.17444,0,0,0,0,0,0,0,-1,1826,575,9.46164,-4.17442
609,449,12.2028,3.18652,0,0,0,0,0,0,0,-1,1833,575,12.2027,-3.18655
616,449,14.9438,2.19867,0,0,0,0,0,0,0,-1,1840,575,14.9438,-2.19867
623,449,9.83789,-0.0820313,0,0,0,0,0,0,0,-1,1847,575,9.83794,0.0820443
630,449,8.90686,4.99329,0,0,0,0,0,0,0,-1,1854,575,8.90685,-4.99327
637,449,0,0,0,0,0,0,0,0,0,-1,1861,575,0,0
644,449,0,0,0,0,0,0,0,0,0,-1,1868,575,0,0
651,449,0,0,0,0,0,0,0,0,0,-1,1875,575,0,0
658,449,0,0,0,0,0,0,0,0,0,-1,1882,575,0,0
665,449,0,0,0,0,0,0,0,0,0,-1,1889,575,0,0
672,449,0,0,0,0,0,0,0,0,0,-1,1896,575,0,0
679,449,0,0,0,0,0,0,0,0,0,-1,1903,575,0,0
686,449,0,0,0,0,0,0,0,0,0,-1,1910,575,0,0
693,449,0,0,0,0,0,0,0,0,0,-1,1917,575,0,0
700,449,0,0,0,0,0,0,0,0,0,-1,1924,575,0,0
707,449,0,0,0,0,0,0,0,0,0,-1,1931,575,0,0
714,449,0,0,0,0,0,0,0,0,0,-1,1938,575,0,0
721,449,0,0,0,0,0,0,0,0,0,-1,1945,575,0,0
728,449,0,0,0,0,0,0,0,0,0,-1,1952,575,0,0
735,449,0,0,0,0,0,0,0,0,0,-1,1959,575,0,0
742,449,0,0,0,0,0,0,0,0,0,-1,1966,575,0,0
749,449,0,0,0,0,0,0,0,0,0,-1,1973,575,0,0
756,449,0,0,0,0,0,0,0,0,0,-1,1980,575,0,0
763,449,0,0,0,0,0,0,0,0,0,-1,1987,575,0,0
770,449,0,0,0,0,0,0,0,0,0,-1,1994,575,0,0
777,449,0,0,0,0,0,0,0,0,0,-1,2001,575,0,0
784,449,0,0,0,0,0,0,0,0,0,-1,2008,575,0,0
791,449,0,0,0,0,0,0,0,0,0,-1,2015,575,0,0
798,449,0,0,0,0,0,0,0,0,0,-1,2022,575,0,0
805,449,0,0,0,0,0,0,0,0,0,-1,2029,575,0,0
812,449,0,0,0,0,0,0,0,0,0,-1,2036,575,0,0
-700,442,0,0,0,0,0,0,0,0,0,-1,524,582,0,0
-693,442,0,0,0,0,0,0,0,0,0,-1,531,582,0,0
-686,442,0,0,0,0,0,0,0,0,0,-1,538,582,0,0
-679,442,0,0,0,0,0,0,0,0,0,-1,545,582,0,0
-672,442,0,0,0,0,0,0,0,0,0,-1,552,582,0,0
-665,442,0,0,0,0,0,0,0,0,0,-1,559,582,0,0
-658,442,0,0,0,0,0,0,0,0,0,-1,566,582,0,0
-651,442,0,0,0,0,0,0,0,0,0,-1,573,582,0,0
-644,442,0,0,0,0,0,0,0,0,0,-1,580,582,0,0
-637,442,0,0,0,0,0,0,0,0,0,-1,587,582,0,0
-630,442,0,0,0,0,0,0,0,0,0,-1,594,582,0,0
-623,442,0,0,0,0,0,0,0,0,0,-1,601,582,0,0
-616,442,0,0,0,0,0,0,0,0,0,-1,608,582,0,0
-609,442,0,0,0,0,0,0,0,0,0,-1,615,582,0,0
-602,442,0,0,0,0,0,0,0,0,0,-1,622,582,0,0
-595,442,0,0,0,0,0,0,0,0,0,-1,629,582,0,0
-588,442,0,0,0,0,0,0,0,0,0,-1,636,582,0,0
-581,442,0,0,0,0,0,0,0,0,0,-1,643,582,0,0
-574,442,0,0,0,0,0,0,0,0,0,-1,650,582,0,0
-567,442,0,0,0,0,0,0,0,0,0,-1,657,582,0,0
-560,442,0,0,0,0,0,0,0,0,0,-1,664,582,0,0
-553,442,0,0,0,0,0,0,0,0,0,-1,671,582,0,0
-546,442,0,0,0,0,0,0,0,0,0,-1,678,582,0,0
-539,442,0,0,0,0,0,0,0,0,0,-1,685,582,0,0
-532,442,0,0,0,0,0,0,0,0,0,-1,692,582,0,0
-525,442,0,0,0,0,0,0,0,0,0,-1,699,582,0,0
-518,442,-0.493774,-5.72943,0,0,0,0,0,0,0,-1,706,582,-0.493791,5.72946
-511,442,-1.33008,-6.18512,0,0,0,0,0,0,0,-1,713,582,-1.33006,6.18511
-504,442,-3.20807,-6.34082,0,0,0,0,0,0,0,-1,720,582,-3.2081,6.34083
-497,442,-13.6886,-0.250122,0,0,0,0,0,0,0,-1,727,582,-13.6886,0.250143
-490,442,-9.09039,-3.64862,0,0,0,0,0,0,0,-1,734,582,-9.09037,3.64861
-483,442,-7.36499,-1.01892,0,0,0,0,0,0,0,-1,741,582,-7.365,1.01895
-476,442,-4.84784,-4.44141,0,0,0,0,0,0,0,-1,748,582,-4.84787,4.44138
-469,442,-12.3083,-15.2977,0,0,0,0,0,0,0,-1,755,582,-12.3083,15.2976
-462,442,-10.2018,-14.6873,0,0,0,0,0,0,0,-1,762,582,-10.2019,14.6873
-455,442,-12.1823,-17.9946,0,0,0,0,0,0,0,-1,769,582,-12.1823,17.9946
-448,442,-12.1734,-19.1252,-0.0025573,0.00394362,0.000660138,0.00400998,-0.00262366,1.47061,0.00385771,0.0255052,776,582,-12.1734,19.1253
-441,442,-12.2618,-20.147,-0.00136107,0.00341779,7.85604e-05,0.00341909,-0.00136236,1.55436,0.00284443,0.014643,783,582,-12.2619,20.147
-434,442,-12.3472,-21.1385,-0.000450502,0.00292467,-0.000340094,0.0029586,-0.00048443,-1.47136,0.00215213,0.0141764,790,582,-12.3472,21.1385
-427,442,-12.4162,-22.1113,0.000233495,0.00252814,-0.000640935,0.00269503,6.66083e-05,-1.31607,0.0017749,0.0142659,797,582,-12.4162,22.1113
-420,442,-12.4702,-23.1022,0.000839049,0.00218715,-0.000910345,0.00264583,0.000380371,-1.10407,0.00165176,0.0145333,804,582,-12.4701,23.1023
-413,442,-12.5139,-24.1036,0.00125071,0.00176306,-0.000974158,0.00251417,0.000499609,-0.913972,0.00153689,0.01192,811,582,-12.5138,24.1036
-406,442,-12.598,-25.1006,0.00153889,0.00130482,-0.000906606,0.00233598,0.000507727,-0.721209,0.00141869,0.0105117,818,582,-12.5979,25.1006
-399,442,-12.689,-26.0643,0.00192568,0.00101604,-0.000900026,0.00247928,0.00046244,-0.551443,0.0015223,0.00887691,825,582,-12.689,26.0643
-392,442,-12.7474,-27.0133,0.00240821,0.000729727,-0.000905663,0.00280369,0.000334241,-0.411723,0.00176828,0.0113251,832,582,-12.7475,27.0133
-385,442,-12.814,-27.9693,0.00300344,0.000467126,-0.000929313,0.00330749,0.000163073,-0.316203,0.0021527,0.0138421,839,582,-12.814,27.9693
-378,442,-12.8581,-28.9788,0.00372671,0.000299402,-0.000970661,0.00398252,4.35906e-05,-0.257684,0.0026406,0.0195923,846,582,-12.8581,28.9788
-371,442,-12.8524,-30.0446,0,0,0,0,0,0,0,-1,853,582,-12.8524,30.0446
-364,442,-6.89764,-17.5333,0,0,0,0,0,0,0,-1,860,582,-6.89765,17.5333
-357,442,-4.9115,-11.2649,0,0,0,0,0,0,0,-1,867,582,-4.91147,11.2649
-350,442,-1.75372,-6.27618,0,0,0,0,0,0,0,-1,874,582,-1.75371,6.27618
-343,442,-1.4599,-4.63605,0,0,0,0,0,0,0,-1,881,582,-1.4599,4.63607
-336,442,-1.4054,-2.64313,0,0,0,0,0,0,0,-1,888,582,-1.40539,2.64315
-329,442,-0.952576,-2.76923,0,0,0,0,0,0,0,-1,895,582,-0.952571,2.7692
-322,442,-0.972534,-2.63208,0,0,0,0,0,0,0,-1,902,582,-0.972512,2.6321
-315,442,-0.445557,-2.89764,0,0,0,0,0,0,0,-1,909,582,-0.445582,2.89765
-308,442,-0.654175,-3.07831,0,0,0,0,0,0,0,-1,916,582,-0.654145,3.07832
-301,442,-1.37427,-2.41455,0,0,0,0,0,0,0,-1,923,582,-1.37425,2.41453
-294,442,-2.99963,-2.07855,0,0,0,0,0,0,0,-1,930,582,-2.99964,2.07857
-287,442,3.91034,-10.1913,0,0,0,0,0,0,0,-1,937,582,3.91034,10.1913
-280,442,0,0,0,0,0,0,0,0,0,-1,944,582,0,0
-273,442,0,0,0,0,0,0,0,0,0,-1,951,582,0,0
-266,442,0,0,0,0,0,0,0,0,0,-1,958,582,0,0
-259,442,0,0,0,0,0,0,0,0,0,-1,965,582,0,0
-252,442,0,0,0,0,0,0,0,0,0,-1,972,582,0,0
-245,442,0,0,0,0,0,0,0,0,0,-1,979,582,0,0
-238,442,0,0,0,0,0,0,0,0,0,-1,986,582,0,0
-231,442,0,0,0,0,0,0,0,0,0,-1,993,582,0,0
-224,442,0,0,0,0,0,0,0,0,0,-1,1000,582,0,0
-217,442,0,0,0,0,0,0,0,0,0,-1,1007,582,0,0
-210,442,0,0,0,0,0,0,0,0,0,-1,1014,582,0,0
-203,442,0,0,0,0,0,0,0,0,0,-1,1021,582,0,0
-196,442,0,0,0,0,0,0,0,0,0,-1,1028,582,0,0
-189,442,0,0,0,0,0,0,0,0,0,-1,1035,582,0,0
-182,442,0,0,0,0,0,0,0,0,0,-1,1042,582,0,0
-175,442,0,0,0,0,0,0,0,0,0,-1,1049,582,0,0
-168,442,0,0,0,0,0,0,0,0,0,-1,1056,582,0,0
-161,442,0,0,0,0,0,0,0,0,0,-1,1063,582,0,0
-154,442,0,0,0,0,0,0,0,0,0,-1,1070,582,0,0
-147,442,0,0,0,0,0,0,0,0,0,-1,1077,582,0,0
-140,442,0,0,0,0,0,0,0,0,0,-1,1084,582,0,0
-133,442,0,0,0,0,0,0,0,0,0,-1,1091,582,0,0
-126,442,0,0,0,0,0,0,0,0,0,-1,1098,582,0,0
-119,442,0,0,0,0,0,0,0,0,0,-1,1105,582,0,0
-112,442,0,0,0,0,0,0,0,0,0,-1,1112,582,0,0
-105,442,0,0,0,0,0,0,0,0,0,-1,1119,582,0,0
-98,442,0,0,0,0,0,0,0,0,0,-1,1126,582,0,0
-91,442,0,0,0,0,0,0,0,0,0,-1,1133,582,0,0
-84,442,0,0,0,0,0,0,0,0,0,-1,1140,582,0,0
-77,442,0,0,0,0,0,0,0,0,0,-1,1147,582,0,0
-70,442,0,0,0,0,0,0,0,0,0,-1,1154,582,0,0
-63,442,0,0,0,0,0,0,0,0,0,-1,1161,582,0,0
-56,442,0,0,0,0,0,0,0,0,0,-1,1168,582,0,0
-49,442,0,0,0,0,0,0,0,0,0,-1,1175,582,0,0
-42,442,0,0,0,0,0,0,0,0,0,-1,1182,582,0,0
-35,442,0,0,0,0,0,0,0,0,0,-1,1189,582,0,0
-28,442,0,0,0,0,0,0,0,0,0,-1,1196,582,0,0
-21,442,0,0,0,0,0,0,0,0,0,-1,1203,582,0,0
-14,442,0,0,0,0,0,0,0,0,0,-1,1210,582,0,0
-7,442,0,0,0,0,0,0,0,0,0,-1,1217,582,0,0
0,442,0,0,0,0,0,0,0,0,0,-1,1224,582,0,0
7,442,0,0,0,0,0,0,0,0,0,-1,1231,582,0,0
14,442,0,0,0,0,0,0,0,0,0,-1,1238,582,0,0
21,442,0,0,0,0,0,0,0,0,0,-1,1245,582,0,0
28,442,0,0,0,0,0,0,0,0,0,-1,1252,582,0,0
35,442,0,0,0,0,0,0,0,0,0,-1,1259,582,0,0
42,442,0,0,0,0,0,0,0,0,0,-1,1266,582,0,0
49,442,0,0,0,0,0,0,0,0,0,-1,1273,582,0,0
56,442,0,0,0,0,0,0,0,0,0,-1,1280,582,0,0
63,442,0,0,0,0,0,0,0,0,0,-1,1287,582,0,0
70,442,0,0,0,0,0,0,0,0,0,-1,1294,582,0,0
77,442,0,0,0,0,0,0,0,0,0,-1,1301,582,0,0
84,442,0,0,0,0,0,0,0,0,0,-1,1308,582,0,0
91,442,0,0,0,0,0,0,0,0,0,-1,1315,582,0,0
98,442,0,0,0,0,0,0,0,0,0,-1,1322,582,0,0
105,442,0,0,0,0,0,0,0,0,0,-1,1329,582,0,0
112,442,0,0,0,0,0,0,0,0,0,-1,1336,582,0,0
119,442,0,0,0,0,0,0,0,0,0,-1,1343,582,0,0
126,442,0,0,0,0,0,0,0,0,0,-1,1350,582,0,0
133,442,0,0,0,0,0,0,0,0,0,-1,1357,582,0,0
140,442,0,0,0,0,0,0,0,0,0,-1,1364,582,0,0
147,442,0,0,0,0,0,0,0,0,0,-1,1371,582,0,0
154,442,0,0,0,0,0,0,0,0,0,-1,1378,582,0,0
161,442,0,0,0,0,0,0,0,0,0,-1,1385,582,0,0
168,442,0,0,0,0,0,0,0,0,0,-1,1392,582,0,0
175,442,0,0,0,0,0,0,0,0,0,-1,1399,582,0,0
182,442,0,0,0,0,0,0,0,0,0,-1,1406,582,0,0
189,442,0,0,0,0,0,0,0,0,0,-1,1413,582,0,0
196,442,0,0,0,0,0,0,0,0,0,-1,1420,582,0,0
203,442,0,0,0,0,0,0,0,0,0,-1,1427,582,0,0
210,442,0,0,0,0,0,0,0,0,0,-1,1434,582,0,0
217,442,0,0,0,0,0,0,0,0,0,-1,1441,582,0,0
224,442,0,0,0,0,0,0,0,0,0,-1,1448,582,0,0
231,442,0,0,0,0,0,0,0,0,0,-1,1455,582,0,0
238,442,0,0,0,0,0,0,0,0,0,-1,1462,582,0,0
245,442,0,0,0,0,0,0,0,0,0,-1,1469,582,0,0
252,442,0,0,0,0,0,0,0,0,0,-1,1476,582,0,0
259,442,0,0,0,0,0,0,0,0,0,-1,1483,582,0,0
266,442,0,0,0,0,0,0,0,0,0,-1,1490,582,0,0
273,442,0,0,0,0,0,0,0,0,0,-1,1497,582,0,0
280,442,0,0,0,0,0,0,0,0,0,-1,1504,582,0,0
287,442,0,0,0,0,0,0,0,0,0,-1,1511,582,0,0
294,442,0,0,0,0,0,0,0,0,0,-1,1518,582,0,0
301,442,0,0,0,0,0,0,0,0,0,-1,1525,582,0,0
308,442,0,0,0,0,0,0,0,0,0,-1,1532,582,0,0
315,442,0,0,0,0,0,0,0,0,0,-1,1539,582,0,0
322,442,0,0,0,0,0,0,0,0,0,-1,1546,582,0,0
329,442,0,0,0,0,0,0,0,0,0,-1,1553,582,0,0
336,442,0,0,0,0,0,0,0,0,0,-1,1560,582,0,0
343,442,0,0,0,0,0,0,0,0,0,-1,1567,582,0,0
350,442,0,0,0,0,0,0,0,0,0,-1,1574,582,0,0
357,442,0,0,0,0,0,0,0,0,0,-1,1581,582,0,0
364,442,0,0,0,0,0,0,0,0,0,-1,1588,582,0,0
371,442,0,0,0,0,0,0,0,0,0,-1,1595,582,0,0
378,442,0,0,0,0,0,0,0,0,0,-1,1602,582,0,0
385,442,0,0,0,0,0,0,0,0,0,-1,1609,582,0,0
392,442,0,0,0,0,0,0,0,0,0,-1,1616,582,0,0
399,442,0,0,0,0,0,0,0,0,0,-1,1623,582,0,0
406,442,17.6321,4.08295,0,0,0,0,0,0,0,-1,1630,582,17.6321,-4.08293
413,442,25.4768,2.74445,0,0,0,0,0,0,0,-1,1637,582,25.4768,-2.74444
420,442,22.7478,1.55011,0,0,0,0,0,0,0,-1,1644,582,22.7478,-1.55009
427,442,23.2969,-0.456787,0,0,0,0,0,0,0,-1,1651,582,23.2968,0.456769
434,442,23.9512,-2.49365,0,0,0,0,0,0,0,-1,1658,582,23.9512,2.49366
441,442,24.8251,-4.43958,0,0,0,0,0,0,0,-1,1665,582,24.8251,4.43956
448,442,4.7749,-5.88562,0,0,0,0,0,0,0,-1,1672,582,4.7749,5.8856
455,442,4.87024,-4.60687,0,0,0,0,0,0,0,-1,1679,582,4.87019,4.60686
462,442,5.02307,-3.72821,0,0,0,0,0,0,0,-1,1686,582,5.02311,3.7282
469,442,5.12976,-2.98834,0,0,0,0,0,0,0,-1,1693,582,5.12971,2.98834
476,442,5.4624,1.76947,0,0,0,0,0,0,0,-1,1700,582,5.46234,-1.76944
483,442,5.98486,1.87042,0,0,0,0,0,0,0,-1,1707,582,5.98492,-1.87045
490,442,5.04407,-2.35834,0,0,0,0,0,0,0,-1,1714,582,5.04411,2.35837
497,442,6.20984,-3.07831,0,0,0,0,0,0,0,-1,1721,582,6.2098,3.07833
504,442,20.9276,-19.7709,0,0,0,0,0,0,0,-1,1728,582,20.9276,19.771
511,442,29.4133,-27.8762,0,0,0,0,0,0,0,-1,1735,582,29.4133,27.8762
518,442,29.4131,-26.835,0.00253688,0.00030464,0.000688457,0.00273213,0.000109388,0.276352,0.00178607,0.0181365,1742,582,29.4131,26.835
525,442,29.3064,-25.86,0.00216684,0.000330697,0.000784784,0.00245655,4.09844e-05,0.353643,0.00162421,0.0108729,1749,582,29.3064,25.86
532,442,29.2441,-24.8918,0.00181495,0.000482081,0.000849811,0.00222848,6.85555e-05,0.452878,0.00146333,0.0123646,1756,582,29.2441,24.8918
539,442,29.1927,-23.898,0.00158183,0.000782486,0.000952421,0.00221504,0.000149278,0.586738,0.00142953,0.0163304,1763,582,29.1928,23.898
546,442,29.1511,-22.8624,0.00139906,0.00120603,0.00102549,0.00233256,0.000272527,0.738478,0.00147263,0.0217886,1770,582,29.1511,22.8624
553,442,29.0382,-21.8999,0.00117839,0.00180849,0.00111535,0.00265243,0.000334445,0.923045,0.00166802,0.0210672,1777,582,29.0383,21.8999
560,442,29.0134,-20.9506,0.00100217,0.00252418,0.00128694,0.00325828,0.000268073,1.05241,0.00208857,0.0157473,1784,582,29.0135,20.9506
567,442,28.9302,-19.975,0.000994199,0.00346171,0.00163635,0.00427729,0.000178618,1.10842,0.00279389,0.0111662,1791,582,28.9302,19.975
574,442,28.859,-18.9928,0.00100334,0.00452908,0.00207194,0.00548662,4.57973e-05,1.13789,0.00364258,0.0136295,1798,582,28.859,18.9928
581,442,28.876,-17.8754,0.00109225,0.00580387,0.00267435,0.00701204,-0.000115927,1.14648,0.00471381,0.0335073,1805,582,28.876,17.8754
588,442,28.9684,-16.7143,0,0,0,0,0,0,0,-1,1812,582,28.9684,16.7143
595,442,16.27,-6.47083,0,0,0,0,0,0,0,-1,1819,582,16.27,6.47082
602,442,16.2213,-4.49225,0,0,0,0,0,0,0,-1,1826,582,16.2213,4.49223
609,442,12.761,2.97223,0,0,0,0,0,0,0,-1,1833,582,12.761,-2.97221
616,442,9.78345,-0.103394,0,0,0,0,0,0,0,-1,1840,582,9.78341,0.103424
623,442,9.23828,0.326721,0,0,0,0,0,0,0,-1,1847,582,9.23829,-0.326727
630,442,7.74304,2.3924,0,0,0,0,0,0,0,-1,1854,582,7.7431,-2.39238
637,442,5.87805,1.84027,0,0,0,0,0,0,0,-1,1861,582,5.87807,-1.84025
644,442,0,0,0,0,0,0,0,0,0,-1,1868,582,0,0
651,442,0,0,0,0,0,0,0,0,0,-1,1875,582,0,0
658,442,0,0,0,0,0,0,0,0,0,-1,1882,582,0,0
665,442,0,0,0,0,0,0,0,0,0,-1,1889,582,0,0
672,442,0,0,0,0,0,0,0,0,0,-1,1896,582,0,0
679,442,0,0,0,0,0,0,0,0,0,-1,1903,582,0,0
686,442,0,0,0,0,0,0,0,0,0,-1,1910,582,0,0
693,442,0,0,0,0,0,0,0,0,0,-1,1917,582,0,0
700,442,0,0,0,0,0,0,0,0,0,-1,1924,582,0,0
707,442,0,0,0,0,0,0,0,0,0,-1,1931,582,0,0
714,442,0,0,0,0,0,0,0,0,0,-1,1938,582,0,0
721,442,0,0,0,0,0,0,0,0,0,-1,1945,582,0,0
728,442,0,0,0,0,0,0,0,0,0,-1,1952,582,0,0
735,442,0,0,0,0,0,0,0,0,0,-1,1959,582,0,0
742,442,0,0,0,0,0,0,0,0,0,-1,1966,582,0,0
749,442,0,0,0,0,0,0,0,0,0,-1,1973,582,0,0
756,442,0,0,0,0,0,0,0,0,0,-1,1980,582,0,0
763,442,0,0,0,0,0,0,0,0,0,-1,1987,582,0,0
770,442,0,0,0,0,0,0,0,0,0,-1,1994,582,0,0
777,442,0,0,0,0,0,0,0,0,0,-1,2001,582,0,0
784,442,0,0,0,0,0,0,0,0,0,-1,2008,582,0,0
791,442,0,0,0,0,0,0,0,0,0,-1,2015,582,0,0
798,442,0,0,0,0,0,0,0,0,0,-1,2022,582,0,0
805,442,0,0,0,0,0,0,0,0,0,-1,2029,582,0,0
812,442,0,0,0,0,0,0,0,0,0,-1,2036,582,0,0
-700,435,0,0,0,0,0,0,0,0,0,-1,524,589,0,0
-693,435,0,0,0,0,0,0,0,0,0,-1,531,589,0,0
-686,435,0,0,0,0,0,0,0,0,0,-1,538,589,0,0
-679,435,0,0,0,0,0,0,0,0,0,-1,545,589,0,0
-672,435,0,0,0,0,0,0,0,0,0,-1,552,589,0,0
-665,435,0,0,0,0,0,0,0,0,0,-1,559,589,0,0
-658,435,0,0,0,0,0,0,0,0,0,-1,566,589,0,0
-651,435,0,0,0,0,0,0,0,0,0,-1,573,589,0,0
-644,435,0,0,0,0,0,0,0,0,0,-1,580,589,0,0
-637,435,0,0,0,0,0,0,0,0,0,-1,587,589,0,0
-630,435,0,0,0,0,0,0,0,0,0,-1,594,589,0,0
-623,435,0,0,0,0,0,0,0,0,0,-1,601,589,0,0
-616,435,0,0,0,0,0,0,0,0,0,-1,608,589,0,0
-609,435,0,0,0,0,0,0,0,0,0,-1,615,589,0,0
-602,435,0,0,0,0,0,0,0,0,0,-1,622,589,0,0
-595,435,0,0,0,0,0,0,0,0,0,-1,629,589,0,0
-588,435,0,0,0,0,0,0,0,0,0,-1,636,589,0,0
-581,435,0,0,0,0,0,0,0,0,0,-1,643,589,0,0
-574,435,0,0,0,0,0,0,0,0,0,-1,650,589,0,0
-567,435,0,0,0,0,0,0,0,0,0,-1,657,589,0,0
-560,435,0,0,0,0,0,0,0,0,0,-1,664,589,0,0
-553,435,0,0,0,0,0,0,0,0,0,-1,671,589,0,0
-546,435,0,0,0,0,0,0,0,0,0,-1,678,589,0,0
-539,435,0,0,0,0,0,0,0,0,0,-1,685,589,0,0
-532,435,0,0,0,0,0,0,0,0,0,-1,692,589,0,0
-525,435,-10.0776,10.0547,0,0,0,0,0,0,0,-1,699,589,-10.0776,-10.0547
-518,435,-1.83093,-5.82367,0,0,0,0,0,0,0,-1,706,589,-1.83093,5.8237
-511,435,-2.45154,-5.33118,0,0,0,0,0,0,0,-1,713,589,-2.45151,5.33115
-504,435,-3.07208,-4.83862,0,0,0,0,0,0,0,-1,720,589,-3.0721,4.8386
-497,435,-6.31012,-5.84698,0,0,0,0,0,0,0,-1,727,589,-6.31012,5.84697
-490,435,-5.81903,-0.458679,0,0,0,0,0,0,0,-1,734,589,-5.81902,0.458684
-483,435,-6.96503,-3.01624,0,0,0,0,0,0,0,-1,741,589,-6.96505,3.01623
-476,435,-13.4409,-14.4582,0,0,0,0,0,0,0,-1,748,589,-13.4409,14.4582
-469,435,-13.0672,-15.6491,0,0,0,0,0,0,0,-1,755,589,-13.0672,15.6491
-462,435,-13.0865,-16.7306,0,0,0,0,0,0,0,-1,762,589,-13.0865,16.7306
-455,435,-13.1776,-18.0139,-0.00369587,0.00330266,0.00141437,0.00357769,-0.0039709,1.37874,0.00436015,0.0307962,769,589,-13.1775,18.0139
-448,435,-13.1907,-19.0844,-0.00221644,0.00288714,0.00065368,0.00296954,-0.00229883,1.44541,0.0030499,0.0143796,776,589,-13.1908,19.0843
-441,435,-13.2578,-20.0847,-0.00103834,0.00248256,9.86709e-05,0.00248532,-0.00104111,1.5428,0.00209212,0.0119318,783,589,-13.2578,20.0846
-434,435,-13.3361,-21.0685,-0.00012355,0.00210754,-0.000309652,0.00214972,-0.000165729,-1.43542,0.00149146,0.0129799,790,589,-13.3361,21.0685
-427,435,-13.4131,-22.0727,0.000609843,0.00186043,-0.00064593,0.00213415,0.000336127,-1.16998,0.00132501,0.0106915,797,589,-13.4131,22.0727
-420,435,-13.467,-23.0541,0.00126658,0.00167508,-0.000956936,0.00244932,0.000492339,-0.89054,0.00149602,0.0111908,804,589,-13.4671,23.0541
-413,435,-13.5171,-24.0431,0.00172519,0.00143102,-0.00108049,0.00266856,0.000487646,-0.717751,0.00164083,0.0119872,811,589,-13.5171,24.0431
-406,435,-13.5812,-25.0216,0.00208224,0.00120697,-0.00112745,0.00285401,0.000435197,-0.600266,0.00177548,0.0121011,818,589,-13.5812,25.0216
-399,435,-13.6622,-25.9889,0.00255985,0.00112365,-0.00126749,0.00329853,0.00038497,-0.527668,0.00208259,0.0100391,825,589,-13.6622,25.9889
-392,435,-13.7368,-26.9633,0.0031253,0.00106373,-0.00140663,0.00383839,0.000350634,-0.469196,0.00245043,0.0118292,832,589,-13.7368,26.9633
-385,435,-13.7838,-27.9492,0.00377739,0.000979699,-0.00154156,0.00446018,0.000296914,-0.416948,0.00287959,0.0247275,839,589,-13.7838,27.9491
-378,435,-13.752,-28.9476,0,0,0,0,0,0,0,-1,846,589,-13.752,28.9476
-371,435,-10.247,-21.7153,0,0,0,0,0,0,0,-1,853,589,-10.247,21.7153
-364,435,-5.62848,-11.5937,0,0,0,0,0,0,0,-1,860,589,-5.62847,11.5937
-357,435,-5.57343,-10.9666,0,0,0,0,0,0,0,-1,867,589,-5.57342,10.9666
-350,435,-0.86676,-3.69836,0,0,0,0,0,0,0,-1,874,589,-0.866784,3.69834
-343,435,-1.60706,-2.36835,0,0,0,0,0,0,0,-1,881,589,-1.60706,2.36838
-336,435,-2.07263,-1.94012,0,0,0,0,0,0,0,-1,888,589,-2.07265,1.94014
-329,435,-2.55963,-1.5517,0,0,0,0,0,0,0,-1,895,589,-2.5596,1.55168
-322,435,-3.08545,-1.55255,0,0,0,0,0,0,0,-1,902,589,-3.08544,1.55254
-315,435,-0.404297,-2.63763,0,0,0,0,0,0,0,-1,909,589,-0.404276,2.63761
-308,435,-1.70056,-1.90369,0,0,0,0,0,0,0,-1,916,589,-1.70056,1.90367
-301,435,-1.19391,-2.41632,0,0,0,0,0,0,0,-1,923,589,-1.1939,2.41635
-294,435,3.78278,-10.3275,0,0,0,0,0,0,0,-1,930,589,3.78281,10.3275
-287,435,0,0,0,0,0,0,0,0,0,-1,937,589,0,0
-280,435,0,0,0,0,0,0,0,0,0,-1,944,589,0,0
-273,435,0,0,0,0,0,0,0,0,0,-1,951,589,0,0
-266,435,0,0,0,0,0,0,0,0,0,-1,958,589,0,0
-259,435,0,0,0,0,0,0,0,0,0,-1,965,589,0,0
-252,435,0,0,0,0,0,0,0,0,0,-1,972,589,0,0
-245,435,0,0,0,0,0,0,0,0,0,-1,979,589,0,0
-238,435,0,0,0,0,0,0,0,0,0,-1,986,589,0,0
-231,435,0,0,0,0,0,0,0,0,0,-1,993,589,0,0
-224,435,0,0,0,0,0,0,0,0,0,-1,1000,589,0,0
-217,435,0,0,0,0,0,0,0,0,0,-1,1007,589,0,0
-210,435,0,0,0,0,0,0,0,0,0,-1,1014,589,0,0
-203,435,0,0,0,0,0,0,0,0,0,-1,1021,589,0,0
-196,435,0,0,0,0,0,0,0,0,0,-1,1028,589,0,0
-189,435,0,0,0,0,0,0,0,0,0,-1,1035,589,0,0
-182,435,0,0,0,0,0,0,0,0,0,-1,1042,589,0,0
-175,435,0,0,0,0,0,0,0,0,0,-1,1049,589,0,0
-168,435,0,0,0,0,0,0,0,0,0,-1,1056,589,0,0
-161,435,0,0,0,0,0,0,0,0,0,-1,1063,589,0,0
-154,435,0,0,0,0,0,0,0,0,0,-1,1070,589,0,0
-147,435,0,0,0,0,0,0,0,0,0,-1,1077,589,0,0
-140,435,0,0,0,0,0,0,0,0,0,-1,1084,589,0,0
-133,435,0,0,0,0,0,0,0,0,0,-1,1091,589,0,0
-126,435,0,0,0,0,0,0,0,0,0,-1,1098,589,0,0
-119,435,0,0,0,0,0,0,0,0,0,-1,1105,589,0,0
-112,435,0,0,0,0,0,0,0,0,0,-1,1112,589,0,0
-105,435,0,0,0,0,0,0,0,0,0,-1,1119,589,0,0
-98,435,0,0,0,0,0,0,0,0,0,-1,1126,589,0,0
-91,435,0,0,0,0,0,0,0,0,0,-1,1133,589,0,0
-84,435,0,0,0,0,0,0,0,0,0,-1,1140,589,0,0
-77,435,0,0,0,0,0,0,0,0,0,-1,1147,589,0,0
-70,435,0,0,0,0,0,0,0,0,0,-1,1154,589,0,0
-63,435,0,0,0,0,0,0,0,0,0,-1,1161,589,0,0
-56,435,0,0,0,0,0,0,0,0,0,-1,1168,589,0,0
-49,435,0,0,0,0,0,0,0,0,0,-1,1175,589,0,0
-42,435,0,0,0,0,0,0,0,0,0,-1,1182,589,0,0
-35,435,0,0,0,0,0,0,0,0,0,-1,1189,589,0,0
-28,435,0,0,0,0,0,0,0,0,0,-1,1196,589,0,0
-21,435,0,0,0,0,0,0,0,0,0,-1,1203,589,0,0
-14,435,0,0,0,0,0,0,0,0,0,-1,1210,589,0,0
-7,435,0,0,0,0,0,0,0,0,0,-1,1217,589,0,0
0,435,0,0,0,0,0,0,0,0,0,-1,1224,589,0,0
7,435,0,0,0,0,0,0,0,0,0,-1,1231,589,0,0
14,435,0,0,0,0,0,0,0,0,0,-1,1238,589,0,0
21,435,0,0,0,0,0,0,0,0,0,-1,1245,589,0,0
28,435,0,0,0,0,0,0,0,0,0,-1,1252,589,0,0
35,435,0,0,0,0,0,0,0,0,0,-1,1259,589,0,0
42,435,0,0,0,0,0,0,0,0,0,-1,1266,589,0,0
49,435,0,0,0,0,0,0,0,0,0,-1,1273,589,0,0
56,435,0,0,0,0,0,0,0,0,0,-1,1280,589,0,0
63,435,0,0,0,0,0,0,0,0,0,-1,1287,589,0,0
70,435,0,0,0,0,0,0,0,0,0,-1,1294,589,0,0
77,435,0,0,0,0,0,0,0,0,0,-1,1301,589,0,0
84,435,0,0,0,0,0,0,0,0,0,-1,1308,589,0,0
91,435,0,0,0,0,0,0,0,0,0,-1,1315,589,0,0
98,435,0,0,0,0,0,0,0,0,0,-1,1322,589,0,0
105,435,0,0,0,0,0,0,0,0,0,-1,1329,589,0,0
112,435,0,0,0,0,0,0,0,0,0,-1,1336,589,0,0
119,435,0,0,0,0,0,0,0,0,0,-1,1343,589,0,0
126,435,0,0,0,0,0,0,0,0,0,-1,1350,589,0,0
133,435,0,0,0,0,0,0,0,0,0,-1,1357,589,0,0
140,435,0,0,0,0,0,0,0,0,0,-1,1364,589,0,0
147,435,0,0,0,0,0,0,0,0,0,-1,1371,589,0,0
154,435,0,0,0,0,0,0,0,0,0,-1,1378,589,0,0
161,435,0,0,0,0,0,0,0,0,0,-1,1385,589,0,0
168,435,0,0,0,0,0,0,0,0,0,-1,1392,589,0,0
175,435,0,0,0,0,0,0,0,0,0,-1,1399,589,0,0
182,435,0,0,0,0,0,0,0,0,0,-1,1406,589,0,0
189,435,0,0,0,0,0,0,0,0,0,-1,1413,589,0,0
196,435,0,0,0,0,0,0,0,0,0,-1,1420,589,0,0
203,435,0,0,0,0,0,0,0,0,0,-1,1427,589,0,0
210,435,0,0,0,0,0,0,0,0,0,-1,1434,589,0,0
217,435,0,0,0,0,0,0,0,0,0,-1,1441,589,0,0
224,435,0,0,0,0,0,0,0,0,0,-1,1448,589,0,0
231,435,0,0,0,0,0,0,0,0,0,-1,1455,589,0,0
238,435,0,0,0,0,0,0,0,0,0,-1,1462,589,0,0
245,435,0,0,0,0,0,0,0,0,0,-1,1469,589,0,0
252,435,0,0,0,0,0,0,0,0,0,-1,1476,589,0,0
259,435,0,0,0,0,0,0,0,0,0,-1,1483,589,0,0
266,435,0,0,0,0,0,0,0,0,0,-1,1490,589,0,0
273,435,0,0,0,0,0,0,0,0,0,-1,1497,589,0,0
280,435,0,0,0,0,0,0,0,0,0,-1,1504,589,0,0
287,435,0,0,0,0,0,0,0,0,0,-1,1511,589,0,0
294,435,0,0,0,0,0,0,0,0,0,-1,1518,589,0,0
301,435,0,0,0,0,0,0,0,0,0,-1,1525,589,0,0
308,435,0,0,0,0,0,0,0,0,0,-1,1532,589,0,0
315,435,0,0,0,0,0,0,0,0,0,-1,1539,589,0,0
322,435,0,0,0,0,0,0,0,0,0,-1,1546,589,0,0
329,435,0,0,0,0,0,0,0,0,0,-1,1553,589,0,0
336,435,0,0,0,0,0,0,0,0,0,-1,1560,589,0,0
343,435,0,0,0,0,0,0,0,0,0,-1,1567,589,0,0
350,435,0,0,0,0,0,0,0,0,0,-1,1574,589,0,0
357,435,0,0,0,0,0,0,0,0,0,-1,1581,589,0,0
364,435,0,0,0,0,0,0,0,0,0,-1,1588,589,0,0
371,435,0,0,0,0,0,0,0,0,0,-1,1595,589,0,0
378,435,0,0,0,0,0,0,0,0,0,-1,1602,589,0,0
385,435,0,0,0,0,0,0,0,0,0,-1,1609,589,0,0
392,435,0,0,0,0,0,0,0,0,0,-1,1616,589,0,0
399,435,0,0,0,0,0,0,0,0,0,-1,1623,589,0,0
406,435,0,0,0,0,0,0,0,0,0,-1,1630,589,0,0
413,435,20.4565,3.49835,0,0,0,0,0,0,0,-1,1637,589,20.4565,-3.49836
420,435,21.4015,1.49609,0,0,0,0,0,0,0,-1,1644,589,21.4015,-1.49609
427,435,22.0464,-0.373962,0,0,0,0,0,0,0,-1,1651,589,22.0464,0.373972
434,435,22.1863,-1.54407,0,0,0,0,0,0,0,-1,1658,589,22.1862,1.54405
441,435,22.3992,-2.38287,0,0,0,0,0,0,0,-1,1665,589,22.3992,2.38289
448,435,7.4585,-0.00292969,0,0,0,0,0,0,0,-1,1672,589,7.45848,0.00294131
455,435,5.49915,-5.047,0,0,0,0,0,0,0,-1,1679,589,5.49914,5.04703
462,435,5.60669,-4.71466,0,0,0,0,0,0,0,-1,1686,589,5.60675,4.71469
469,435,5.87708,1.22351,0,0,0,0,0,0,0,-1,1693,589,5.87703,-1.22351
476,435,6.14136,1.37714,0,0,0,0,0,0,0,-1,1700,589,6.14138,-1.37712
483,435,6.49243,1.36169,0,0,0,0,0,0,0,-1,1707,589,6.49242,-1.36171
490,435,4.38391,-1.36218,0,0,0,0,0,0,0,-1,1714,589,4.38389,1.3622
497,435,7.23499,-3.64551,0,0,0,0,0,0,0,-1,1721,589,7.23495,3.64551
504,435,7.31189,-3.75909,0,0,0,0,0,0,0,-1,1728,589,7.31184,3.75911
511,435,28.9622,-27.0995,0,0,0,0,0,0,0,-1,1735,589,28.9621,27.0995
518,435,30.317,-26.7814,0,0,0,0,0,0,0,-1,1742,589,30.317,26.7814
525,435,30.2761,-25.8019,0.00284549,0.000216839,0.000895846,0.00312176,-5.943e-05,0.299135,0.00210126,0.0143935,1749,589,30.2761,25.8019
532,435,30.2502,-24.8245,0.00238294,0.000290816,0.000876447,0.00270157,-2.78221e-05,0.3487,0.00181039,0.0157408,1756,589,30.2503,24.8245
539,435,30.2081,-23.8335,0.00208842,0.000541459,0.000926045,0.00252151,0.00010836,0.437464,0.00164608,0.0170261,1763,589,30.2082,23.8335
546,435,30.1384,-22.8462,0.0018402,0.000878939,0.000942403,0.00241746,0.000301679,0.549589,0.00152108,0.0168113,1770,589,30.1384,22.8462
553,435,30.0516,-21.8782,0.00155827,0.0013866,0.000979955,0.00245615,0.000488732,0.741715,0.00150128,0.0114132,1777,589,30.0517,21.8782
560,435,29.9935,-20.9136,0.00130598,0.00198375,0.00109586,0.00279193,0.000497802,0.935355,0.00171954,0.00944166,1784,589,29.9936,20.9136
567,435,29.9313,-19.9172,0.00121261,0.00277525,0.00138478,0.00358392,0.000403937,1.04225,0.00226667,0.00877743,1791,589,29.9313,19.9171
574,435,29.8441,-18.9216,0.00120127,0.00369914,0.00176351,0.00461118,0.000289233,1.09351,0.00298238,0.0102662,1798,589,29.8441,18.9216
581,435,29.7739,-17.9304,0.00133578,0.00478838,0.00231893,0.00595301,0.000171139,1.10536,0.00391288,0.0178353,1805,589,29.774,17.9304
588,435,29.8042,-16.8945,0,0,0,0,0,0,0,-1,1812,589,29.8042,16.8945
595,435,29.5729,-15.623,0,0,0,0,0,0,0,-1,1819,589,29.5728,15.623
602,435,16.8671,-6.39026,0,0,0,0,0,0,0,-1,1826,589,16.867,6.39024
609,435,15.2611,-3.42242,0,0,0,0,0,0,0,-1,1833,589,15.2611,3.42242
616,435,5.05151,-2.75269,0,0,0,0,0,0,0,-1,1840,589,5.05157,2.7527
623,435,11.7588,3.9704,0,0,0,0,0,0,0,-1,1847,589,11.7587,-3.97043
630,435,4.72742,-0.87561,0,0,0,0,0,0,0,-1,1854,589,4.7274,0.875636
637,435,5.05286,1.48792,0,0,0,0,0,0,0,-1,1861,589,5.05291,-1.48792
644,435,0,0,0,0,0,0,0,0,0,-1,1868,589,0,0
651,435,0,0,0,0,0,0,0,0,0,-1,1875,589,0,0
658,435,0,0,0,0,0,0,0,0,0,-1,1882,589,0,0
665,435,0,0,0,0,0,0,0,0,0,-1,1889,589,0,0
672,435,0,0,0,0,0,0,0,0,0,-1,1896,589,0,0
679,435,0,0,0,0,0,0,0,0,0,-1,1903,589,0,0
686,435,0,0,0,0,0,0,0,0,0,-1,1910,589,0,0
693,435,0,0,0,0,0,0,0,0,0,-1,1917,589,0,0
700,435,0,0,0,0,0,0,0,0,0,-1,1924,589,0,0
707,435,0,0,0,0,0,0,0,0,0,-1,1931,589,0,0
714,435,0,0,0,0,0,0,0,0,0,-1,1938,589,0,0
721,435,0,0,0,0,0,0,0,0,0,-1,1945,589,0,0
728,435,0,0,0,0,0,0,0,0,0,-1,1952,589,0,0
735,435,0,0,0,0,0,0,0,0,0,-1,1959,589,0,0
742,435,0,0,0,0,0,0,0,0,0,-1,1966,589,0,0
749,435,0,0,0,0,0,0,0,0,0,-1,1973,589,0,0
756,435,0,0,0,0,0,0,0,0,0,-1,1980,589,0,0
763,435,0,0,0,0,0,0,0,0,0,-1,1987,589,0,0
770,435,0,0,0,0,0,0,0,0,0,-1,1994,589,0,0
777,435,0,0,0,0,0,0,0,0,0,-1,2001,589,0,0
784,435,0,0,0,0,0,0,0,0,0,-1,2008,589,0,0
791,435,0,0,0,0,0,0,0,0,0,-1,2015,589,0,0
798,435,0,0,0,0,0,0,0,0,0,-1,2022,589,0,0
805,435,0,0,0,0,0,0,0,0,0,-1,2029,589,0,0
812,435,0,0,0,0,0,0,0,0,0,-1,2036,589,0,0
-700,428,0,0,0,0,0,0,0,0,0,-1,524,596,0,0
-693,428,0,0,0,0,0,0,0,0,0,-1,531,596,0,0
-686,428,0,0,0,0,0,0,0,0,0,-1,538,596,0,0
-679,428,0,0,0,0,0,0,0,0,0,-1,545,596,0,0
-672,428,0,0,0,0,0,0,0,0,0,-1,552,596,0,0
-665,428,0,0,0,0,0,0,0,0,0,-1,559,596,0,0
-658,428,0,0,0,0,0,0,0,0,0,-1,566,596,0,0
-651,428,0,0,0,0,0,0,0,0,0,-1,573,596,0,0
-644,428,0,0,0,0,0,0,0,0,0,-1,580,596,0,0
-637,428,0,0,0,0,0,0,0,0,0,-1,587,596,0,0
-630,428,0,0,0,0,0,0,0,0,0,-1,594,596,0,0
-623,428,0,0,0,0,0,0,0,0,0,-1,601,596,0,0
-616,428,0,0,0,0,0,0,0,0,0,-1,608,596,0,0
-609,428,0,0,0,0,0,0,0,0,0,-1,615,596,0,0
-602,428,0,0,0,0,0,0,0,0,0,-1,622,596,0,0
-595,428,0,0,0,0,0,0,0,0,0,-1,629,596,0,0
-588,428,0,0,0,0,0,0,0,0,0,-1,636,596,0,0
-581,428,0,0,0,0,0,0,0,0,0,-1,643,596,0,0
-574,428,0,0,0,0,0,0,0,0,0,-1,650,596,0,0
-567,428,0,0,0,0,0,0,0,0,0,-1,657,596,0,0
-560,428,0,0,0,0,0,0,0,0,0,-1,664,596,0,0
-553,428,0,0,0,0,0,0,0,0,0,-1,671,596,0,0
-546,428,0,0,0,0,0,0,0,0,0,-1,678,596,0,0
-539,428,0,0,0,0,0,0,0,0,0,-1,685,596,0,0
-532,428,0,0,0,0,0,0,0,0,0,-1,692,596,0,0
-525,428,-9.59918,7.58618,0,0,0,0,0,0,0,-1,699,596,-9.59918,-7.5862
-518,428,-2.92285,-4.81854,0,0,0,0,0,0,0,-1,706,596,-2.92285,4.81856
-511,428,-3.68811,-4.79474,0,0,0,0,0,0,0,-1,713,596,-3.68811,4.79474
-504,428,-4.45337,-4.77094,0,0,0,0,0,0,0,-1,720,596,-4.45337,4.77092
-497,428,-2.98108,-3.77502,0,0,0,0,0,0,0,-1,727,596,-2.98106,3.77505
-490,428,-6.39044,-2.80481,0,0,0,0,0,0,0,-1,734,596,-6.39047,2.80483
-483,428,-10.8474,-9.11322,0,0,0,0,0,0,0,-1,741,596,-10.8473,9.11321
-476,428,-13.8227,-14.8878,0,0,0,0,0,0,0,-1,748,596,-13.8227,14.8878
-469,428,-13.78,-15.9009,-0.0066805,0.0036353,0.00300394,0.00444628,-0.00749148,1.30711,0.00696662,0.0396343,755,596,-13.78,15.9009
-462,428,-13.9897,-16.7972,-0.00466575,0.00315815,0.00192515,0.0036062,-0.0051138,1.34213,0.00505951,0.0411098,762,596,-13.9898,16.7972
-455,428,-14.1226,-17.9205,-0.00300332,0.00249041,0.00118294,0.0027343,-0.00324721,1.36747,0.00345765,0.0188732,769,596,-14.1226,17.9205
-448,428,-14.2043,-18.9814,-0.00162743,0.00212859,0.000516558,0.00219833,-0.00169718,1.43659,0.00225527,0.0123086,776,596,-14.2044,18.9814
-441,428,-14.2712,-19.9886,-0.000485044,0.00181269,-9.00632e-06,0.00181273,-0.000485079,-1.56688,0.00139851,0.0141964,783,596,-14.2712,19.9886
-434,428,-14.3253,-21.0106,0.000424578,0.00153997,-0.000417149,0.00167872,0.000285827,-1.24969,0.00103709,0.0107574,790,596,-14.3253,21.0106
-427,428,-14.3721,-22.0142,0.00119218,0.00142196,-0.000801278,0.00211654,0.000497596,-0.856603,0.00127787,0.0114901,797,596,-14.3721,22.0142
-420,428,-14.4296,-22.9771,0.00186774,0.00137152,-0.00116028,0.00280613,0.000433121,-0.680066,0.0017444,0.0128297,804,596,-14.4296,22.9771
-413,428,-14.5024,-23.9551,0.00234381,0.00130358,-0.00136436,0.00328383,0.00036356,-0.603293,0.00207866,0.0157488,811,596,-14.5024,23.9551
-406,428,-14.5754,-24.9285,0.00274957,0.00132593,-0.00156969,0.0037613,0.000314204,-0.572527,0.00240963,0.0176798,818,596,-14.5754,24.9286
-399,428,-14.6134,-25.9221,0.00329389,0.00143494,-0.00191727,0.0044951,0.000233723,-0.559695,0.00292195,0.016907,825,596,-14.6134,25.922
-392,428,-14.6072,-26.9645,0.00390591,0.00158232,-0.00225411,0.00528002,0.000208217,-0.547447,0.0034527,0.0396558,832,596,-14.6072,26.9645
-385,428,-14.6899,-28.1081,0,0,0,0,0,0,0,-1,839,596,-14.6899,28.1081
-378,428,-10.8172,-20.952,0,0,0,0,0,0,0,-1,846,596,-10.8172,20.952
-371,428,-5.96155,-11.0703,0,0,0,0,0,0,0,-1,853,596,-5.96154,11.0702
-364,428,-6.33643,-10.7223,0,0,0,0,0,0,0,-1,860,596,-6.33645,10.7223
-357,428,-3.20996,-4.70966,0,0,0,0,0,0,0,-1,867,596,-3.20997,4.70965
-350,428,-1.62793,-3.94055,0,0,0,0,0,0,0,-1,874,596,-1.62794,3.94055
-343,428,-0.0567017,-4.80994,0,0,0,0,0,0,0,-1,881,596,-0.0567096,4.80996
-336,428,-3.29175,-1.39569,0,0,0,0,0,0,0,-1,888,596,-3.29172,1.39568
-329,428,-3.71564,-0.791321,0,0,0,0,0,0,0,-1,895,596,-3.71564,0.791299
-322,428,-5.52863,-3.59827,0,0,0,0,0,0,0,-1,902,596,-5.52865,3.59829
-315,428,-4.57172,-1.22052,0,0,0,0,0,0,0,-1,909,596,-4.57171,1.22052
-308,428,-5.60742,-3.40961,0,0,0,0,0,0,0,-1,916,596,-5.60744,3.40959
-301,428,0,0,0,0,0,0,0,0,0,-1,923,596,0,0
-294,428,0,0,0,0,0,0,0,0,0,-1,930,596,0,0
-287,428,0,0,0,0,0,0,0,0,0,-1,937,596,0,0
-280,428,0,0,0,0,0,0,0,0,0,-1,944,596,0,0
-273,428,0,0,0,0,0,0,0,0,0,-1,951,596,0,0
-266,428,0,0,0,0,0,0,0,0,0,-1,958,596,0,0
-259,428,0,0,0,0,0,0,0,0,0,-1,965,596,0,0
-252,428,0,0,0,0,0,0,0,0,0,-1,972,596,0,0
-245,428,0,0,0,0,0,0,0,0,0,-1,979,596,0,0
-238,428,0,0,0,0,0,0,0,0,0,-1,986,596,0,0
-231,428,0,0,0,0,0,0,0,0,0,-1,993,596,0,0
-224,428,0,0,0,0,0,0,0,0,0,-1,1000,596,0,0
-217,428,0,0,0,0,0,0,0,0,0,-1,1007,596,0,0
-210,428,0,0,0,0,0,0,0,0,0,-1,1014,596,0,0
-203,428,0,0,0,0,0,0,0,0,0,-1,1021,596,0,0
-196,428,0,0,0,0,0,0,0,0,0,-1,1028,596,0,0
-189,428,0,0,0,0,0,0,0,0,0,-1,1035,596,0,0
-182,428,0,0,0,0,0,0,0,0,0,-1,1042,596,0,0
-175,428,0,0,0,0,0,0,0,0,0,-1,1049,596,0,0
-168,428,0,0,0,0,0,0,0,0,0,-1,1056,596,0,0
-161,428,0,0,0,0,0,0,0,0,0,-1,1063,596,0,0
-154,428,0,0,0,0,0,0,0,0,0,-1,1070,596,0,0
-147,428,0,0,0,0,0,0,0,0,0,-1,1077,596,0,0
-140,428,0,0,0,0,0,0,0,0,0,-1,1084,596,0,0
-133,428,0,0,0,0,0,0,0,0,0,-1,1091,596,0,0
-126,428,0,0,0,0,0,0,0,0,0,-1,1098,596,0,0
-119,428,0,0,0,0,0,0,0,0,0,-1,1105,596,0,0
-112,428,0,0,0,0,0,0,0,0,0,-1,1112,596,0,0
-105,428,0,0,0,0,0,0,0,0,0,-1,1119,596,0,0
-98,428,0,0,0,0,0,0,0,0,0,-1,1126,596,0,0
-91,428,0,0,0,0,0,0,0,0,0,-1,1133,596,0,0
-84,428,0,0,0,0,0,0,0,0,0,-1,1140,596,0,0
-77,428,0,0,0,0,0,0,0,0,0,-1,1147,596,0,0
-70,428,0,0,0,0,0,0,0,0,0,-1,1154,596,0,0
-63,428,0,0,0,0,0,0,0,0,0,-1,1161,596,0,0
-56,428,0,0,0,0,0,0,0,0,0,-1,1168,596,0,0
-49,428,0,0,0,0,0,0,0,0,0,-1,1175,596,0,0
-42,428,0,0,0,0,0,0,0,0,0,-1,1182,596,0,0
-35,428,0,0,0,0,0,0,0,0,0,-1,1189,596,0,0
-28,428,0,0,0,0,0,0,0,0,0,-1,1196,596,0,0
-21,428,0,0,0,0,0,0,0,0,0,-1,1203,596,0,0
-14,428,0,0,0,0,0,0,0,0,0,-1,1210,596,0,0
-7,428,0,0,0,0,0,0,0,0,0,-1,1217,596,0,0
0,428,0,0,0,0,0,0,0,0,0,-1,1224,596,0,0
7,428,0,0,0,0,0,0,0,0,0,-1,1231,596,0,0
14,428,0,0,0,0,0,0,0,0,0,-1,1238,596,0,0
21,428,0,0,0,0,0,0,0,0,0,-1,1245,596,0,0
28,428,0,0,0,0,0,0,0,0,0,-1,1252,596,0,0
35,428,0,0,0,0,0,0,0,0,0,-1,1259,596,0,0
42,428,0,0,0,0,0,0,0,0,0,-1,1266,596,0,0
49,428,0,0,0,0,0,0,0,0,0,-1,1273,596,0,0
56,428,0,0,0,0,0,0,0,0,0,-1,1280,596,0,0
63,428,0,0,0,0,0,0,0,0,0,-1,1287,596,0,0
70,428,0,0,0,0,0,0,0,0,0,-1,1294,596,0,0
77,428,0,0,0,0,0,0,0,0,0,-1,1301,596,0,0
84,428,0,0,0,0,0,0,0,0,0,-1,1308,596,0,0
91,428,0,0,0,0,0,0,0,0,0,-1,1315,596,0,0
98,428,0,0,0,0,0,0,0,0,0,-1,1322,596,0,0
105,428,0,0,0,0,0,0,0,0,0,-1,1329,596,0,0
112,428,0,0,0,0,0,0,0,0,0,-1,1336,596,0,0
119,428,0,0,0,0,0,0,0,0,0,-1,1343,596,0,0
126,428,0,0,0,0,0,0,0,0,0,-1,1350,596,0,0
133,428,0,0,0,0,0,0,0,0,0,-1,1357,596,0,0
140,428,0,0,0,0,0,0,0,0,0,-1,1364,596,0,0
147,428,0,0,0,0,0,0,0,0,0,-1,1371,596,0,0
154,428,0,0,0,0,0,0,0,0,0,-1,1378,596,0,0
161,428,0,0,0,0,0,0,0,0,0,-1,1385,596,0,0
168,428,0,0,0,0,0,0,0,0,0,-1,1392,596,0,0
175,428,0,0,0,0,0,0,0,0,0,-1,1399,596,0,0
182,428,0,0,0,0,0,0,0,0,0,-1,1406,596,0,0
189,428,0,0,0,0,0,0,0,0,0,-1,1413,596,0,0
196,428,0,0,0,0,0,0,0,0,0,-1,1420,596,0,0
203,428,0,0,0,0,0,0,0,0,0,-1,1427,596,0,0
210,428,0,0,0,0,0,0,0,0,0,-1,1434,596,0,0
217,428,0,0,0,0,0,0,0,0,0,-1,1441,596,0,0
224,428,0,0,0,0,0,0,0,0,0,-1,1448,596,0,0
231,428,0,0,0,0,0,0,0,0,0,-1,1455,596,0,0
238,428,0,0,0,0,0,0,0,0,0,-1,1462,596,0,0
245,428,0,0,0,0,0,0,0,0,0,-1,1469,596,0,0
252,428,0,0,0,0,0,0,0,0,0,-1,1476,596,0,0
259,428,0,0,0,0,0,0,0,0,0,-1,1483,596,0,0
266,428,0,0,0,0,0,0,0,0,0,-1,1490,596,0,0
273,428,0,0,0,0,0,0,0,0,0,-1,1497,596,0,0
280,428,0,0,0,0,0,0,0,0,0,-1,1504,596,0,0
287,428,0,0,0,0,0,0,0,0,0,-1,1511,596,0,0
294,428,0,0,0,0,0,0,0,0,0,-1,1518,596,0,0
301,428,0,0,0,0,0,0,0,0,0,-1,1525,596,0,0
308,428,0,0,0,0,0,0,0,0,0,-1,1532,596,0,0
315,428,0,0,0,0,0,0,0,0,0,-1,1539,596,0,0
322,428,0,0,0,0,0,0,0,0,0,-1,1546,596,0,0
329,428,0,0,0,0,0,0,0,0,0,-1,1553,596,0,0
336,428,0,0,0,0,0,0,0,0,0,-1,1560,596,0,0
343,428,0,0,0,0,0,0,0,0,0,-1,1567,596,0,0
350,428,0,0,0,0,0,0,0,0,0,-1,1574,596,0,0
357,428,0,0,0,0,0,0,0,0,0,-1,1581,596,0,0
364,428,0,0,0,0,0,0,0,0,0,-1,1588,596,0,0
371,428,0,0,0,0,0,0,0,0,0,-1,1595,596,0,0
378,428,0,0,0,0,0,0,0,0,0,-1,1602,596,0,0
385,428,0,0,0,0,0,0,0,0,0,-1,1609,596,0,0
392,428,0,0,0,0,0,0,0,0,0,-1,1616,596,0,0
399,428,0,0,0,0,0,0,0,0,0,-1,1623,596,0,0
406,428,0,0,0,0,0,0,0,0,0,-1,1630,596,0,0
413,428,0,0,0,0,0,0,0,0,0,-1,1637,596,0,0
420,428,19.8469,1.3399,0,0,0,0,0,0,0,-1,1644,596,19.8469,-1.33992
427,428,20.7299,-0.225281,0,0,0,0,0,0,0,-1,1651,596,20.7299,0.225262
434,428,19.8915,-0.583069,0,0,0,0,0,0,0,-1,1658,596,19.8915,0.583075
441,428,8.17993,0.607483,0,0,0,0,0,0,0,-1,1665,596,8.17997,-0.607513
448,428,7.84338,-0.385986,0,0,0,0,0,0,0,-1,1672,596,7.84336,0.385978
455,428,6.64038,2.1123,0,0,0,0,0,0,0,-1,1679,596,6.64037,-2.11229
462,428,4.84106,4.12341,0,0,0,0,0,0,0,-1,1686,596,4.84107,-4.12339
469,428,7.83789,3.10083,0,0,0,0,0,0,0,-1,1693,596,7.83785,-3.10086
476,428,7.61255,1.73956,0,0,0,0,0,0,0,-1,1700,596,7.61252,-1.73958
483,428,7.22766,1.05121,0,0,0,0,0,0,0,-1,1707,596,7.2277,-1.05121
490,428,5.4071,-3.2793,0,0,0,0,0,0,0,-1,1714,596,5.40707,3.27929
497,428,7.84106,-3.65491,0,0,0,0,0,0,0,-1,1721,596,7.84107,3.65491
504,428,6.92139,-2.83356,0,0,0,0,0,0,0,-1,1728,596,6.92137,2.83353
511,428,7.88501,-3.78723,0,0,0,0,0,0,0,-1,1735,596,7.88502,3.78722
518,428,29.993,-26.0385,0,0,0,0,0,0,0,-1,1742,596,29.993,26.0384
525,428,31.2122,-25.7615,0,0,0,0,0,0,0,-1,1749,596,31.2121,25.7614
532,428,31.1908,-24.7695,0.00305614,9.70591e-05,0.00106581,0.00340006,-0.000246859,0.312133,0.00235331,0.024042,1756,596,31.1908,24.7695
539,428,31.1674,-23.7585,0.0026867,0.000312396,0.00101807,0.00306345,-6.43568e-05,0.354437,0.00206409,0.0231006,1763,596,31.1674,23.7586
546,428,31.1018,-22.7906,0.00235359,0.000572982,0.000944581,0.00276131,0.000165259,0.407485,0.00178833,0.0171421,1770,596,31.1018,22.7906
553,428,31.0219,-21.822,0.00200242,0.000998345,0.000907664,0.00253763,0.000463127,0.532785,0.00156046,0.0115372,1777,596,31.0219,21.822
560,428,30.9807,-20.8289,0.00165852,0.00148831,0.000950659,0.00252787,0.000618951,0.740755,0.00152149,0.011586,1784,596,30.9807,20.8289
567,428,30.9408,-19.8541,0.00146222,0.00214559,0.00116846,0.0030213,0.000586514,0.927643,0.00184995,0.0110965,1791,596,30.9408,19.8541
574,428,30.8705,-18.8691,0.00138886,0.00293408,0.00149123,0.00384096,0.000481983,1.02441,0.00241606,0.013623,1798,596,30.8705,18.8691
581,428,30.7776,-17.8739,0.00147683,0.00385735,0.00200782,0.0050012,0.00033299,1.05296,0.00322886,0.0122657,1805,596,30.7775,17.8739
588,428,30.7072,-16.8593,0.00174322,0.00506015,0.00275742,0.00661942,0.000183947,1.05614,0.00435293,0.0190867,1812,596,30.7071,16.8593
595,428,30.6287,-15.7891,0.00226938,0.00655928,0.00378697,0.00876657,6.20959e-05,1.04307,0.00582379,0.0319846,1819,596,30.6287,15.7891
602,428,30.6868,-14.6714,0,0,0,0,0,0,0,-1,1826,596,30.6868,14.6714
609,428,17.2073,-4.82446,0,0,0,0,0,0,0,-1,1833,596,17.2073,4.82447
616,428,15.7817,-3.09558,0,0,0,0,0,0,0,-1,1840,596,15.7817,3.09556
623,428,9.53577,1.12518,0,0,0,0,0,0,0,-1,1847,596,9.5358,-1.1252
630,428,7.07996,6.88562,0,0,0,0,0,0,0,-1,1854,596,7.0799,-6.88565
637,428,3.95435,1.90857,0,0,0,0,0,0,0,-1,1861,596,3.95439,-1.90858
644,428,5.75476,0.888977,0,0,0,0,0,0,0,-1,1868,596,5.75472,-0.888955
651,428,0,0,0,0,0,0,0,0,0,-1,1875,596,0,0
658,428,0,0,0,0,0,0,0,0,0,-1,1882,596,0,0
665,428,0,0,0,0,0,0,0,0,0,-1,1889,596,0,0
672,428,0,0,0,0,0,0,0,0,0,-1,1896,596,0,0
679,428,0,0,0,0,0,0,0,0,0,-1,1903,596,0,0
686,428,0,0,0,0,0,0,0,0,0,-1,1910,596,0,0
693,428,0,0,0,0,0,0,0,0,0,-1,1917,596,0,0
700,428,0,0,0,0,0,0,0,0,0,-1,1924,596,0,0
707,428,0,0,0,0,0,0,0,0,0,-1,1931,596,0,0
714,428,0,0,0,0,0,0,0,0,0,-1,1938,596,0,0
721,428,0,0,0,0,0,0,0,0,0,-1,1945,596,0,0
728,428,0,0,0,0,0,0,0,0,0,-1,1952,596,0,0
735,428,0,0,0,0,0,0,0,0,0,-1,1959,596,0,0
742,428,0,0,0,0,0,0,0,0,0,-1,1966,596,0,0
749,428,0,0,0,0,0,0,0,0,0,-1,1973,596,0,0
756,428,0,0,0,0,0,0,0,0,0,-1,1980,596,0,0
763,428,0,0,0,0,0,0,0,0,0,-1,1987,596,0,0
770,428,0,0,0,0,0,0,0,0,0,-1,1994,596,0,0
777,428,0,0,0,0,0,0,0,0,0,-1,2001,596,0,0
784,428,0,0,0,0,0,0,0,0,0,-1,2008,596,0,0
791,428,0,0,0,0,0,0,0,0,0,-1,2015,596,0,0
798,428,0,0,0,0,0,0,0,0,0,-1,2022,596,0,0
805,428,0,0,0,0,0,0,0,0,0,-1,2029,596,0,0
812,428,0,0,0,0,0,0,0,0,0,-1,2036,596,0,0
-700,421,0,0,0,0,0,0,0,0,0,-1,524,603,0,0
-693,421,0,0,0,0,0,0,0,0,0,-1,531,603,0,0
-686,421,0,0,0,0,0,0,0,0,0,-1,538,603,0,0
-679,421,0,0,0,0,0,0,0,0,0,-1,545,603,0,0
-672,421,0,0,0,0,0,0,0,0,0,-1,552,603,0,0
-665,421,0,0,0,0,0,0,0,0,0,-1,559,603,0,0
-658,421,0,0,0,0,0,0,0,0,0,-1,566,603,0,0
-651,421,0,0,0,0,0,0,0,0,0,-1,573,603,0,0
-644,421,0,0,0,0,0,0,0,0,0,-1,580,603,0,0
-637,421,0,0,0,0,0,0,0,0,0,-1,587,603,0,0
-630,421,0,0,0,0,0,0,0,0,0,-1,594,603,0,0
-623,421,0,0,0,0,0,0,0,0,0,-1,601,603,0,0
-616,421,0,0,0,0,0,0,0,0,0,-1,608,603,0,0
-609,421,0,0,0,0,0,0,0,0,0,-1,615,603,0,0
-602,421,0,0,0,0,0,0,0,0,0,-1,622,603,0,0
-595,421,0,0,0,0,0,0,0,0,0,-1,629,603,0,0
-588,421,0,0,0,0,0,0,0,0,0,-1,636,603,0,0
-581,421,0,0,0,0,0,0,0,0,0,-1,643,603,0,0
-574,421,0,0,0,0,0,0,0,0,0,-1,650,603,0,0
-567,421,0,0,0,0,0,0,0,0,0,-1,657,603,0,0
-560,421,0,0,0,0,0,0,0,0,0,-1,664,603,0,0
-553,421,0,0,0,0,0,0,0,0,0,-1,671,603,0,0
-546,421,0,0,0,0,0,0,0,0,0,-1,678,603,0,0
-539,421,0,0,0,0,0,0,0,0,0,-1,685,603,0,0
-532,421,-8.97382,6.95636,0,0,0,0,0,0,0,-1,692,603,-8.97384,-6.95634
-525,421,-2.11481,-8.04272,0,0,0,0,0,0,0,-1,699,603,-2.11483,8.0427
-518,421,-3.05908,-5.07233,0,0,0,0,0,0,0,-1,706,603,-3.0591,5.07235
-511,421,-4.63525,-4.08447,0,0,0,0,0,0,0,-1,713,603,-4.63524,4.08449
-504,421,-5.17029,-4.94458,0,0,0,0,0,0,0,-1,720,603,-5.17029,4.9446
-497,421,-6.63141,-2.32501,0,0,0,0,0,0,0,-1,727,603,-6.6314,2.32498
-490,421,-6.7616,-4.14783,0,0,0,0,0,0,0,-1,734,603,-6.76159,4.1478
-483,421,-14.4437,-14.1559,0,0,0,0,0,0,0,-1,741,603,-14.4437,14.1559
-476,421,-14.6794,-15.0022,-0.00694671,0.00322215,0.00327116,0.00418354,-0.0079081,1.28495,0.00709065,0.0461914,748,603,-14.6794,15.0022
-469,421,-14.9644,-15.7729,-0.00527775,0.00272892,0.00225183,0.00331878,-0.00586761,1.31461,0.00537138,0.0385183,755,603,-14.9644,15.7729
-462,421,-15.0286,-16.9016,-0.0036469,0.00221657,0.00144321,0.00255254,-0.00398288,1.34207,0.00380323,0.0239918,762,603,-15.0286,16.9015
-455,421,-15.0696,-17.9241,-0.00222417,0.00167447,0.000816632,0.00183862,-0.00238831,1.37244,0.00244729,0.0223363,769,603,-15.0696,17.9241
-448,421,-15.1871,-18.9063,-0.00096764,0.0013501,0.000243135,0.00137533,-0.000992871,1.46739,0.00137321,0.0198262,776,603,-15.1871,18.9063
-441,421,-15.2584,-19.9204,0.000134689,0.00112312,-0.000247876,0.00118179,7.60101e-05,-1.33835,0.000763788,0.0147156,783,603,-15.2584,19.9204
-434,421,-15.3241,-20.9521,0.00105156,0.000985275,-0.000656596,0.00167585,0.000360987,-0.76018,0.00101846,0.0109952,790,603,-15.3241,20.9521
-427,421,-15.3651,-21.9391,0.00186862,0.00105426,-0.00108658,0.0026218,0.00030107,-0.606129,0.00165666,0.0107636,797,603,-15.3651,21.9391
-420,421,-15.4111,-22.8934,0.00257575,0.00122402,-0.00148439,0.0035309,0.000268873,-0.571766,0.00226962,0.0128721,804,603,-15.4111,22.8934
-413,421,-15.4816,-23.878,0.00309813,0.00147295,-0.00177862,0.00424099,0.000330085,-0.571125,0.00272398,0.0159536,811,603,-15.4815,23.878
-406,421,-15.5909,-24.8954,0.00360822,0.00194608,-0.00218706,0.00511679,0.000437511,-0.603828,0.00327511,0.023643,818,603,-15.591,24.8954
-399,421,-15.7037,-25.9642,0,0,0,0,0,0,0,-1,825,603,-15.7037,25.9642
-392,421,-15.3391,-27.0458,0,0,0,0,0,0,0,-1,832,603,-15.3391,27.0458
-385,421,-11.5825,-18.8583,0,0,0,0,0,0,0,-1,839,603,-11.5825,18.8583
-378,421,-4.94733,-8.87909,0,0,0,0,0,0,0,-1,846,603,-4.94731,8.87906
-371,421,-5.65082,-7.01849,0,0,0,0,0,0,0,-1,853,603,-5.65082,7.0185
-364,421,-5.94189,-7.09875,0,0,0,0,0,0,0,-1,860,603,-5.94192,7.09878
-357,421,-7.62531,-8.26337,0,0,0,0,0,0,0,-1,867,603,-7.62532,8.26337
-350,421,-5.38019,-3.75024,0,0,0,0,0,0,0,-1,874,603,-5.38017,3.75026
-343,421,-6.22797,-2.57123,0,0,0,0,0,0,0,-1,881,603,-6.22798,2.57121
-336,421,-6.22882,-2.59369,0,0,0,0,0,0,0,-1,888,603,-6.22883,2.5937
-329,421,-4.50134,-1.49469,0,0,0,0,0,0,0,-1,895,603,-4.50137,1.49468
-322,421,-7.55817,1.13263,0,0,0,0,0,0,0,-1,902,603,-7.55818,-1.13263
-315,421,-4.16144,-1.96649,0,0,0,0,0,0,0,-1,909,603,-4.16146,1.9665
-308,421,0,0,0,0,0,0,0,0,0,-1,916,603,0,0
-301,421,0,0,0,0,0,0,0,0,0,-1,923,603,0,0
-294,421,0,0,0,0,0,0,0,0,0,-1,930,603,0,0
-287,421,0,0,0,0,0,0,0,0,0,-1,937,603,0,0
-280,421,0,0,0,0,0,0,0,0,0,-1,944,603,0,0
-273,421,0,0,0,0,0,0,0,0,0,-1,951,603,0,0
-266,421,0,0,0,0,0,0,0,0,0,-1,958,603,0,0
-259,421,0,0,0,0,0,0,0,0,0,-1,965,603,0,0
-252,421,0,0,0,0,0,0,0,0,0,-1,972,603,0,0
-245,421,0,0,0,0,0,0,0,0,0,-1,979,603,0,0
-238,421,0,0,0,0,0,0,0,0,0,-1,986,603,0,0
-231,421,0,0,0,0,0,0,0,0,0,-1,993,603,0,0
-224,421,0,0,0,0,0,0,0,0,0,-1,1000,603,0,0
-217,421,0,0,0,0,0,0,0,0,0,-1,1007,603,0,0
-210,421,0,0,0,0,0,0,0,0,0,-1,1014,603,0,0
-203,421,0,0,0,0,0,0,0,0,0,-1,1021,603,0,0
-196,421,0,0,0,0,0,0,0,0,0,-1,1028,603,0,0
-189,421,0,0,0,0,0,0,0,0,0,-1,1035,603,0,0
-182,421,0,0,0,0,0,0,0,0,0,-1,1042,603,0,0
-175,421,0,0,0,0,0,0,0,0,0,-1,1049,603,0,0
-168,421,0,0,0,0,0,0,0,0,0,-1,1056,603,0,0
-161,421,0,0,0,0,0,0,0,0,0,-1,1063,603,0,0
-154,421,0,0,0,0,0,0,0,0,0,-1,1070,603,0,0
-147,421,0,0,0,0,0,0,0,0,0,-1,1077,603,0,0
-140,421,0,0,0,0,0,0,0,0,0,-1,1084,603,0,0
-133,421,0,0,0,0,0,0,0,0,0,-1,1091,603,0,0
-126,421,0,0,0,0,0,0,0,0,0,-1,1098,603,0,0
-119,421,0,0,0,0,0,0,0,0,0,-1,1105,603,0,0
-112,421,0,0,0,0,0,0,0,0,0,-1,1112,603,0,0
-105,421,0,0,0,0,0,0,0,0,0,-1,1119,603,0,0
-98,421,0,0,0,0,0,0,0,0,0,-1,1126,603,0,0
-91,421,0,0,0,0,0,0,0,0,0,-1,1133,603,0,0
-84,421,0,0,0,0,0,0,0,0,0,-1,1140,603,0,0
-77,421,0,0,0,0,0,0,0,0,0,-1,1147,603,0,0
-70,421,0,0,0,0,0,0,0,0,0,-1,1154,603,0,0
-63,421,0,0,0,0,0,0,0,0,0,-1,1161,603,0,0
-56,421,0,0,0,0,0,0,0,0,0,-1,1168,603,0,0
-49,421,0,0,0,0,0,0,0,0,0,-1,1175,603,0,0
-42,421,0,0,0,0,0,0,0,0,0,-1,1182,603,0,0
-35,421,0,0,0,0,0,0,0,0,0,-1,1189,603,0,0
-28,421,0,0,0,0,0,0,0,0,0,-1,1196,603,0,0
-21,421,0,0,0,0,0,0,0,0,0,-1,1203,603,0,0
-14,421,0,0,0,0,0,0,0,0,0,-1,1210,603,0,0
-7,421,0,0,0,0,0,0,0,0,0,-1,1217,603,0,0
0,421,0,0,0,0,0,0,0,0,0,-1,1224,603,0,0
7,421,0,0,0,0,0,0,0,0,0,-1,1231,603,0,0
14,421,0,0,0,0,0,0,0,0,0,-1,1238,603,0,0
21,421,0,0,0,0,0,0,0,0,0,-1,1245,603,0,0
28,421,0,0,0,0,0,0,0,0,0,-1,1252,603,0,0
35,421,0,0,0,0,0,0,0,0,0,-1,1259,603,0,0
42,421,0,0,0,0,0,0,0,0,0,-1,1266,603,0,0
49,421,0,0,0,0,0,0,0,0,0,-1,1273,603,0,0
56,421,0,0,0,0,0,0,0,0,0,-1,1280,603,0,0
63,421,0,0,0,0,0,0,0,0,0,-1,1287,603,0,0
70,421,0,0,0,0,0,0,0,0,0,-1,1294,603,0,0
77,421,0,0,0,0,0,0,0,0,0,-1,1301,603,0,0
84,421,0,0,0,0,0,0,0,0,0,-1,1308,603,0,0
91,421,0,0,0,0,0,0,0,0,0,-1,1315,603,0,0
98,421,0,0,0,0,0,0,0,0,0,-1,1322,603,0,0
105,421,0,0,0,0,0,0,0,0,0,-1,1329,603,0,0
112,421,0,0,0,0,0,0,0,0,0,-1,1336,603,0,0
119,421,0,0,0,0,0,0,0,0,0,-1,1343,603,0,0
126,421,0,0,0,0,0,0,0,0,0,-1,1350,603,0,0
133,421,0,0,0,0,0,0,0,0,0,-1,1357,603,0,0
140,421,0,0,0,0,0,0,0,0,0,-1,1364,603,0,0
147,421,0,0,0,0,0,0,0,0,0,-1,1371,603,0,0
154,421,0,0,0,0,0,0,0,0,0,-1,1378,603,0,0
161,421,0,0,0,0,0,0,0,0,0,-1,1385,603,0,0
168,421,0,0,0,0,0,0,0,0,0,-1,1392,603,0,0
175,421,0,0,0,0,0,0,0,0,0,-1,1399,603,0,0
182,421,0,0,0,0,0,0,0,0,0,-1,1406,603,0,0
189,421,0,0,0,0,0,0,0,0,0,-1,1413,603,0,0
196,421,0,0,0,0,0,0,0,0,0,-1,1420,603,0,0
203,421,0,0,0,0,0,0,0,0,0,-1,1427,603,0,0
210,421,0,0,0,0,0,0,0,0,0,-1,1434,603,0,0
217,421,0,0,0,0,0,0,0,0,0,-1,1441,603,0,0
224,421,0,0,0,0,0,0,0,0,0,-1,1448,603,0,0
231,421,0,0,0,0,0,0,0,0,0,-1,1455,603,0,0
238,421,0,0,0,0,0,0,0,0,0,-1,1462,603,0,0
245,421,0,0,0,0,0,0,0,0,0,-1,1469,603,0,0
252,421,0,0,0,0,0,0,0,0,0,-1,1476,603,0,0
259,421,0,0,0,0,0,0,0,0,0,-1,1483,603,0,0
266,421,0,0,0,0,0,0,0,0,0,-1,1490,603,0,0
273,421,0,0,0,0,0,0,0,0,0,-1,1497,603,0,0
280,421,0,0,0,0,0,0,0,0,0,-1,1504,603,0,0
287,421,0,0,0,0,0,0,0,0,0,-1,1511,603,0,0
294,421,0,0,0,0,0,0,0,0,0,-1,1518,603,0,0
301,421,0,0,0,0,0,0,0,0,0,-1,1525,603,0,0
308,421,0,0,0,0,0,0,0,0,0,-1,1532,603,0,0
315,421,0,0,0,0,0,0,0,0,0,-1,1539,603,0,0
322,421,0,0,0,0,0,0,0,0,0,-1,1546,603,0,0
329,421,0,0,0,0,0,0,0,0,0,-1,1553,603,0,0
336,421,0,0,0,0,0,0,0,0,0,-1,1560,603,0,0
343,421,0,0,0,0,0,0,0,0,0,-1,1567,603,0,0
350,421,0,0,0,0,0,0,0,0,0,-1,1574,603,0,0
357,421,0,0,0,0,0,0,0,0,0,-1,1581,603,0,0
364,421,0,0,0,0,0,0,0,0,0,-1,1588,603,0,0
371,421,0,0,0,0,0,0,0,0,0,-1,1595,603,0,0
378,421,0,0,0,0,0,0,0,0,0,-1,1602,603,0,0
385,421,0,0,0,0,0,0,0,0,0,-1,1609,603,0,0
392,421,0,0,0,0,0,0,0,0,0,-1,1616,603,0,0
399,421,0,0,0,0,0,0,0,0,0,-1,1623,603,0,0
406,421,0,0,0,0,0,0,0,0,0,-1,1630,603,0,0
413,421,0,0,0,0,0,0,0,0,0,-1,1637,603,0,0
420,421,0,0,0,0,0,0,0,0,0,-1,1644,603,0,0
427,421,0,0,0,0,0,0,0,0,0,-1,1651,603,0,0
434,421,3.68176,-0.0327759,0,0,0,0,0,0,0,-1,1658,603,3.6818,0.0328037
441,421,8.06689,0.527832,0,0,0,0,0,0,0,-1,1665,603,8.06693,-0.527851
448,421,6.93921,0.802246,0,0,0,0,0,0,0,-1,1672,603,6.93923,-0.802251
455,421,7.29456,2.14825,0,0,0,0,0,0,0,-1,1679,603,7.29461,-2.14827
462,421,7.86902,3.53174,0,0,0,0,0,0,0,-1,1686,603,7.869,-3.53173
469,421,8.06604,2.81213,0,0,0,0,0,0,0,-1,1693,603,8.06606,-2.81212
476,421,8.26306,2.09253,0,0,0,0,0,0,0,-1,1700,603,8.26312,-2.09251
483,421,8.05322,0.798096,0,0,0,0,0,0,0,-1,1707,603,8.05323,-0.7981
490,421,7.51233,0.213074,0,0,0,0,0,0,0,-1,1714,603,7.51235,-0.213043
497,421,7.49634,-2.86688,0,0,0,0,0,0,0,-1,1721,603,7.4963,2.86688
504,421,6.90491,-2.18671,0,0,0,0,0,0,0,-1,1728,603,6.90491,2.18669
511,421,6.31348,-1.50653,0,0,0,0,0,0,0,-1,1735,603,6.31353,1.5065
518,421,6.27588,-2.49878,0,0,0,0,0,0,0,-1,1742,603,6.2759,2.4988
525,421,30.6759,-25.1779,0,0,0,0,0,0,0,-1,1749,603,30.6759,25.1779
532,421,32.0969,-24.7416,0,0,0,0,0,0,0,-1,1756,603,32.097,24.7417
539,421,32.1356,-23.7018,0.00329918,0.000101212,0.00111851,0.00365155,-0.000251166,0.3052,0.00252226,0.0265973,1763,603,32.1356,23.7018
546,421,32.0856,-22.7334,0.00286332,0.000321419,0.000965764,0.00318862,-3.8814e-06,0.324896,0.00212704,0.0142343,1770,603,32.0855,22.7334
553,421,32.022,-21.7265,0.00244646,0.000692352,0.000870986,0.00280547,0.000333349,0.390963,0.00176969,0.0131346,1777,603,32.0219,21.7265
560,421,31.9612,-20.7296,0.00200948,0.0010871,0.000850909,0.00251614,0.000580438,0.537061,0.00152132,0.0145174,1784,603,31.9612,20.7296
567,421,31.9252,-19.7617,0.00170763,0.00160413,0.000999952,0.00265717,0.000654593,0.759546,0.00159857,0.0169669,1791,603,31.9252,19.7617
574,421,31.8843,-18.7736,0.00157304,0.0022625,0.00128515,0.00324835,0.000587189,0.916434,0.0019988,0.0216268,1798,603,31.8843,18.7736
581,421,31.8075,-17.7689,0.00161939,0.00303105,0.00176584,0.0042269,0.000423541,0.975527,0.0026879,0.0234619,1805,603,31.8075,17.7689
588,421,31.7252,-16.8351,0.00185946,0.00406269,0.00245535,0.00565223,0.000269924,0.996267,0.00368148,0.0155135,1812,603,31.7252,16.8351
595,421,31.6968,-15.8055,0.00236425,0.00534061,0.00340775,0.00757096,0.000133895,0.991269,0.00500327,0.0208897,1819,603,31.6968,15.8056
602,421,31.65,-14.7266,0,0,0,0,0,0,0,-1,1826,603,31.6501,14.7265
609,421,22.8762,-8.37524,0,0,0,0,0,0,0,-1,1833,603,22.8762,8.37525
616,421,17.7633,-4.72491,0,0,0,0,0,0,0,-1,1840,603,17.7633,4.7249
623,421,6.19885,0.376648,0,0,0,0,0,0,0,-1,1847,603,6.19881,-0.376624
630,421,6.54993,0.778748,0,0,0,0,0,0,0,-1,1854,603,6.54991,-0.778744
637,421,3.74512,1.65405,0,0,0,0,0,0,0,-1,1861,603,3.74517,-1.65407
644,421,3.58081,0.354675,0,0,0,0,0,0,0,-1,1868,603,3.58082,-0.354704
651,421,3.28687,3.66351,0,0,0,0,0,0,0,-1,1875,603,3.28688,-3.66353
658,421,0,0,0,0,0,0,0,0,0,-1,1882,603,0,0
665,421,0,0,0,0,0,0,0,0,0,-1,1889,603,0,0
672,421,0,0,0,0,0,0,0,0,0,-1,1896,603,0,0
679,421,0,0,0,0,0,0,0,0,0,-1,1903,603,0,0
686,421,0,0,0,0,0,0,0,0,0,-1,1910,603,0,0
693,421,0,0,0,0,0,0,0,0,0,-1,1917,603,0,0
700,421,0,0,0,0,0,0,0,0,0,-1,1924,603,0,0
707,421,0,0,0,0,0,0,0,0,0,-1,1931,603,0,0
714,421,0,0,0,0,0,0,0,0,0,-1,1938,603,0,0
721,421,0,0,0,0,0,0,0,0,0,-1,1945,603,0,0
728,421,0,0,0,0,0,0,0,0,0,-1,1952,603,0,0
735,421,0,0,0,0,0,0,0,0,0,-1,1959,603,0,0
742,421,0,0,0,0,0,0,0,0,0,-1,1966,603,0,0
749,421,0,0,0,0,0,0,0,0,0,-1,1973,603,0,0
756,421,0,0,0,0,0,0,0,0,0,-1,1980,603,0,0
763,421,0,0,0,0,0,0,0,0,0,-1,1987,603,0,0
770,421,0,0,0,0,0,0,0,0,0,-1,1994,603,0,0
777,421,0,0,0,0,0,0,0,0,0,-1,2001,603,0,0
784,421,0,0,0,0,0,0,0,0,0,-1,2008,603,0,0
791,421,0,0,0,0,0,0,0,0,0,-1,2015,603,0,0
798,421,0,0,0,0,0,0,0,0,0,-1,2022,603,0,0
805,421,0,0,0,0,0,0,0,0,0,-1,2029,603,0,0
812,421,0,0,0,0,0,0,0,0,0,-1,2036,603,0,0
-700,414,0,0,0,0,0,0,0,0,0,-1,524,610,0,0
-693,414,0,0,0,0,0,0,0,0,0,-1,531,610,0,0
-686,414,0,0,0,0,0,0,0,0,0,-1,538,610,0,0
-679,414,0,0,0,0,0,0,0,0,0,-1,545,610,0,0
-672,414,0,0,0,0,0,0,0,0,0,-1,552,610,0,0
-665,414,0,0,0,0,0,0,0,0,0,-1,559,610,0,0
-658,414,0,0,0,0,0,0,0,0,0,-1,566,610,0,0
-651,414,0,0,0,0,0,0,0,0,0,-1,573,610,0,0
-644,414,0,0,0,0,0,0,0,0,0,-1,580,610,0,0
-637,414,0,0,0,0,0,0,0,0,0,-1,587,610,0,0
-630,414,0,0,0,0,0,0,0,0,0,-1,594,610,0,0
-623,414,0,0,0,0,0,0,0,0,0,-1,601,610,0,0
-616,414,0,0,0,0,0,0,0,0,0,-1,608,610,0,0
-609,414,0,0,0,0,0,0,0,0,0,-1,615,610,0,0
-602,414,0,0,0,0,0,0,0,0,0,-1,622,610,0,0
-595,414,0,0,0,0,0,0,0,0,0,-1,629,610,0,0
-588,414,0,0,0,0,0,0,0,0,0,-1,636,610,0,0
-581,414,0,0,0,0,0,0,0,0,0,-1,643,610,0,0
-574,414,0,0,0,0,0,0,0,0,0,-1,650,610,0,0
-567,414,0,0,0,0,0,0,0,0,0,-1,657,610,0,0
-560,414,0,0,0,0,0,0,0,0,0,-1,664,610,0,0
-553,414,0,0,0,0,0,0,0,0,0,-1,671,610,0,0
-546,414,0,0,0,0,0,0,0,0,0,-1,678,610,0,0
-539,414,-7.50146,5.65619,0,0,0,0,0,0,0,-1,685,610,-7.50149,-5.65617
-532,414,-8.15204,4.01605,0,0,0,0,0,0,0,-1,692,610,-8.15206,-4.01606
-525,414,-3.47137,-3.27924,0,0,0,0,0,0,0,-1,699,610,-3.47136,3.27922
-518,414,-4.12909,-4.36908,0,0,0,0,0,0,0,-1,706,610,-4.12909,4.36909
-511,414,-3.92542,-4.97021,0,0,0,0,0,0,0,-1,713,610,-3.92542,4.97023
-504,414,-9.35394,-5.49896,0,0,0,0,0,0,0,-1,720,610,-9.35394,5.49898
-497,414,-9.67627,-6.54761,0,0,0,0,0,0,0,-1,727,610,-9.6763,6.5476
-490,414,-15.2787,-11.9947,0,0,0,0,0,0,0,-1,734,610,-15.2787,11.9947
-483,414,-15.6691,-13.9025,0,0,0,0,0,0,0,-1,741,610,-15.669,13.9024
-476,414,-15.8971,-14.8645,-0.00518281,0.00256838,0.0022798,0.0031892,-0.00580363,1.30493,0.00526464,0.0263006,748,610,-15.8971,14.8645
-469,414,-16.0105,-15.8162,-0.00392136,0.00206929,0.00158616,0.00246335,-0.00431542,1.32729,0.00396211,0.0156989,755,610,-16.0105,15.8162
-462,414,-16.0558,-16.8348,-0.00260651,0.00158228,0.000985751,0.00180266,-0.00282689,1.35084,0.00269459,0.0242166,762,610,-16.0558,16.8348
-455,414,-16.1336,-17.8769,-0.00139949,0.00117512,0.000458043,0.00125418,-0.00147855,1.39987,0.00157952,0.0279531,769,610,-16.1336,17.8769
-448,414,-16.1847,-18.8622,-0.000247834,0.000904075,-4.42834e-05,0.000905774,-0.000249534,-1.53243,0.000701971,0.0265957,776,610,-16.1847,18.8622
-441,414,-16.2432,-19.872,0.000830289,0.000761539,-0.000523936,0.00132098,0.000270852,-0.752641,0.000805688,0.0178591,783,610,-16.2431,19.872
-434,414,-16.3361,-20.8877,0.00178224,0.000745479,-0.000966827,0.00236089,0.000166832,-0.539317,0.00152137,0.0106111,790,610,-16.3361,20.8877
-427,414,-16.3857,-21.868,0.00267679,0.000968522,-0.00147496,0.00352707,0.000118238,-0.522947,0.00231298,0.0117427,797,610,-16.3858,21.868
-420,414,-16.4217,-22.8315,0.00344568,0.0013178,-0.00193181,0.00458715,0.000176324,-0.533689,0.00300105,0.0114289,804,610,-16.4217,22.8315
-413,414,-16.4842,-23.8349,0.00407939,0.00186563,-0.00235551,0.00557513,0.000369896,-0.565754,0.00359979,0.0124409,811,610,-16.4842,23.8349
-406,414,-16.5021,-25.0256,0.00478177,0.00281605,-0.00303316,0.00698733,0.000610482,-0.628717,0.00446865,0.0485997,818,610,-16.5021,25.0256
-399,414,-16.3712,-26.1976,0,0,0,0,0,0,0,-1,825,610,-16.3712,26.1976
-392,414,-9.43781,-14.5624,0,0,0,0,0,0,0,-1,832,610,-9.43779,14.5624
-385,414,-8.14691,-13.0653,0,0,0,0,0,0,0,-1,839,610,-8.14692,13.0653
-378,414,-8.04907,-11.3331,0,0,0,0,0,0,0,-1,846,610,-8.04905,11.3331
-371,414,-5.20886,-8.05151,0,0,0,0,0,0,0,-1,853,610,-5.20887,8.05153
-364,414,-6.76282,-6.58759,0,0,0,0,0,0,0,-1,860,610,-6.7628,6.58756
-357,414,-9.08685,-8.86188,0,0,0,0,0,0,0,-1,867,610,-9.08688,8.86187
-350,414,-6.4502,-2.41821,0,0,0,0,0,0,0,-1,874,610,-6.45021,2.41822
-343,414,-6.80249,-2.32117,0,0,0,0,0,0,0,-1,881,610,-6.80252,2.32116
-336,414,-7.11017,-2.52026,0,0,0,0,0,0,0,-1,888,610,-7.11016,2.52026
-329,414,-7.59747,-2.70313,0,0,0,0,0,0,0,-1,895,610,-7.59747,2.70315
-322,414,-4.42236,-1.29163,0,0,0,0,0,0,0,-1,902,610,-4.42238,1.2916
-315,414,0,0,0,0,0,0,0,0,0,-1,909,610,0,0
-308,414,0,0,0,0,0,0,0,0,0,-1,916,610,0,0
-301,414,0,0,0,0,0,0,0,0,0,-1,923,610,0,0
-294,414,0,0,0,0,0,0,0,0,0,-1,930,610,0,0
-287,414,0,0,0,0,0,0,0,0,0,-1,937,610,0,0
-280,414,0,0,0,0,0,0,0,0,0,-1,944,610,0,0
-273,414,0,0,0,0,0,0,0,0,0,-1,951,610,0,0
-266,414,0,0,0,0,0,0,0,0,0,-1,958,610,0,0
-259,414,0,0,0,0,0,0,0,0,0,-1,965,610,0,0
-252,414,0,0,0,0,0,0,0,0,0,-1,972,610,0,0
-245,414,0,0,0,0,0,0,0,0,0,-1,979,610,0,0
-238,414,0,0,0,0,0,0,0,0,0,-1,986,610,0,0
-231,414,0,0,0,0,0,0,0,0,0,-1,993,610,0,0
-224,414,0,0,0,0,0,0,0,0,0,-1,1000,610,0,0
-217,414,0,0,0,0,0,0,0,0,0,-1,1007,610,0,0
-210,414,0,0,0,0,0,0,0,0,0,-1,1014,610,0,0
-203,414,0,0,0,0,0,0,0,0,0,-1,1021,610,0,0
-196,414,0,0,0,0,0,0,0,0,0,-1,1028,610,0,0
-189,414,0,0,0,0,0,0,0,0,0,-1,1035,610,0,0
-182,414,0,0,0,0,0,0,0,0,0,-1,1042,610,0,0
-175,414,0,0,0,0,0,0,0,0,0,-1,1049,610,0,0
-168,414,0,0,0,0,0,0,0,0,0,-1,1056,610,0,0
-161,414,0,0,0,0,0,0,0,0,0,-1,1063,610,0,0
-154,414,0,0,0,0,0,0,0,0,0,-1,1070,610,0,0
-147,414,0,0,0,0,0,0,0,0,0,-1,1077,610,0,0
-140,414,0,0,0,0,0,0,0,0,0,-1,1084,610,0,0
-133,414,0,0,0,0,0,0,0,0,0,-1,1091,610,0,0
-126,414,0,0,0,0,0,0,0,0,0,-1,1098,610,0,0
-119,414,0,0,0,0,0,0,0,0,0,-1,1105,610,0,0
-112,414,0,0,0,0,0,0,0,0,0,-1,1112,610,0,0
-105,414,0,0,0,0,0,0,0,0,0,-1,1119,610,0,0
-98,414,0,0,0,0,0,0,0,0,0,-1,1126,610,0,0
-91,414,0,0,0,0,0,0,0,0,0,-1,1133,610,0,0
-84,414,0,0,0,0,0,0,0,0,0,-1,1140,610,0,0
-77,414,0,0,0,0,0,0,0,0,0,-1,1147,610,0,0
-70,414,0,0,0,0,0,0,0,0,0,-1,1154,610,0,0
-63,414,0,0,0,0,0,0,0,0,0,-1,1161,610,0,0
-56,414,0,0,0,0,0,0,0,0,0,-1,1168,610,0,0
-49,414,0,0,0,0,0,0,0,0,0,-1,1175,610,0,0
-42,414,0,0,0,0,0,0,0,0,0,-1,1182,610,0,0
-35,414,0,0,0,0,0,0,0,0,0,-1,1189,610,0,0
-28,414,0,0,0,0,0,0,0,0,0,-1,1196,610,0,0
-21,414,0,0,0,0,0,0,0,0,0,-1,1203,610,0,0
-14,414,0,0,0,0,0,0,0,0,0,-1,1210,610,0,0
-7,414,0,0,0,0,0,0,0,0,0,-1,1217,610,0,0
0,414,0,0,0,0,0,0,0,0,0,-1,1224,610,0,0
7,414,0,0,0,0,0,0,0,0,0,-1,1231,610,0,0
14,414,0,0,0,0,0,0,0,0,0,-1,1238,610,0,0
21,414,0,0,0,0,0,0,0,0,0,-1,1245,610,0,0
28,414,0,0,0,0,0,0,0,0,0,-1,1252,610,0,0
35,414,0,0,0,0,0,0,0,0,0,-1,1259,610,0,0
42,414,0,0,0,0,0,0,0,0,0,-1,1266,610,0,0
49,414,0,0,0,0,0,0,0,0,0,-1,1273,610,0,0
56,414,0,0,0,0,0,0,0,0,0,-1,1280,610,0,0
63,414,0,0,0,0,0,0,0,0,0,-1,1287,610,0,0
70,414,0,0,0,0,0,0,0,0,0,-1,1294,610,0,0
77,414,0,0,0,0,0,0,0,0,0,-1,1301,610,0,0
84,414,0,0,0,0,0,0,0,0,0,-1,1308,610,0,0
91,414,0,0,0,0,0,0,0,0,0,-1,1315,610,0,0
98,414,0,0,0,0,0,0,0,0,0,-1,1322,610,0,0
105,414,0,0,0,0,0,0,0,0,0,-1,1329,610,0,0
112,414,0,0,0,0,0,0,0,0,0,-1,1336,610,0,0
119,414,0,0,0,0,0,0,0,0,0,-1,1343,610,0,0
126,414,0,0,0,0,0,0,0,0,0,-1,1350,610,0,0
133,414,0,0,0,0,0,0,0,0,0,-1,1357,610,0,0
140,414,0,0,0,0,0,0,0,0,0,-1,1364,610,0,0
147,414,0,0,0,0,0,0,0,0,0,-1,1371,610,0,0
154,414,0,0,0,0,0,0,0,0,0,-1,1378,610,0,0
161,414,0,0,0,0,0,0,0,0,0,-1,1385,610,0,0
168,414,0,0,0,0,0,0,0,0,0,-1,1392,610,0,0
175,414,0,0,0,0,0,0,0,0,0,-1,1399,610,0,0
182,414,0,0,0,0,0,0,0,0,0,-1,1406,610,0,0
189,414,0,0,0,0,0,0,0,0,0,-1,1413,610,0,0
196,414,0,0,0,0,0,0,0,0,0,-1,1420,610,0,0
203,414,0,0,0,0,0,0,0,0,0,-1,1427,610,0,0
210,414,0,0,0,0,0,0,0,0,0,-1,1434,610,0,0
217,414,0,0,0,0,0,0,0,0,0,-1,1441,610,0,0
224,414,0,0,0,0,0,0,0,0,0,-1,1448,610,0,0
231,414,0,0,0,0,0,0,0,0,0,-1,1455,610,0,0
238,414,0,0,0,0,0,0,0,0,0,-1,1462,610,0,0
245,414,0,0,0,0,0,0,0,0,0,-1,1469,610,0,0
252,414,0,0,0,0,0,0,0,0,0,-1,1476,610,0,0
259,414,0,0,0,0,0,0,0,0,0,-1,1483,610,0,0
266,414,0,0,0,0,0,0,0,0,0,-1,1490,610,0,0
273,414,0,0,0,0,0,0,0,0,0,-1,1497,610,0,0
280,414,0,0,0,0,0,0,0,0,0,-1,1504,610,0,0
287,414,0,0,0,0,0,0,0,0,0,-1,1511,610,0,0
294,414,0,0,0,0,0,0,0,0,0,-1,1518,610,0,0
301,414,0,0,0,0,0,0,0,0,0,-1,1525,610,0,0
308,414,0,0,0,0,0,0,0,0,0,-1,1532,610,0,0
315,414,0,0,0,0,0,0,0,0,0,-1,1539,610,0,0
322,414,0,0,0,0,0,0,0,0,0,-1,1546,610,0,0
329,414,0,0,0,0,0,0,0,0,0,-1,1553,610,0,0
336,414,0,0,0,0,0,0,0,0,0,-1,1560,610,0,0
343,414,0,0,0,0,0,0,0,0,0,-1,1567,610,0,0
350,414,0,0,0,0,0,0,0,0,0,-1,1574,610,0,0
357,414,0,0,0,0,0,0,0,0,0,-1,1581,610,0,0
364,414,0,0,0,0,0,0,0,0,0,-1,1588,610,0,0
371,414,0,0,0,0,0,0,0,0,0,-1,1595,610,0,0
378,414,0,0,0,0,0,0,0,0,0,-1,1602,610,0,0
385,414,0,0,0,0,0,0,0,0,0,-1,1609,610,0,0
392,414,0,0,0,0,0,0,0,0,0,-1,1616,610,0,0
399,414,0,0,0,0,0,0,0,0,0,-1,1623,610,0,0
406,414,0,0,0,0,0,0,0,0,0,-1,1630,610,0,0
413,414,0,0,0,0,0,0,0,0,0,-1,1637,610,0,0
420,414,0,0,0,0,0,0,0,0,0,-1,1644,610,0,0
427,414,0,0,0,0,0,0,0,0,0,-1,1651,610,0,0
434,414,0,0,0,0,0,0,0,0,0,-1,1658,610,0,0
441,414,7.84375,0.584412,0,0,0,0,0,0,0,-1,1665,610,7.84379,-0.584394
448,414,7.40808,1.25446,0,0,0,0,0,0,0,-1,1672,610,7.40807,-1.25446
455,414,6.3512,1.73846,0,0,0,0,0,0,0,-1,1679,610,6.3512,-1.73847
462,414,8.18103,3.22113,0,0,0,0,0,0,0,-1,1686,610,8.18108,-3.22112
469,414,8.38513,2.49579,0,0,0,0,0,0,0,-1,1693,610,8.38516,-2.49576
476,414,8.64099,1.71161,0,0,0,0,0,0,0,-1,1700,610,8.64097,-1.71164
483,414,8.62744,0.687622,0,0,0,0,0,0,0,-1,1707,610,8.62749,-0.687615
490,414,8.38831,-0.0302734,0,0,0,0,0,0,0,-1,1714,610,8.38835,0.0302913
497,414,4.71094,-0.110046,0,0,0,0,0,0,0,-1,1721,610,4.71089,0.110024
504,414,7.19568,-1.43835,0,0,0,0,0,0,0,-1,1728,610,7.19563,1.43836
511,414,5.94153,-1.28772,0,0,0,0,0,0,0,-1,1735,610,5.94151,1.28769
518,414,4.53381,-0.0996704,0,0,0,0,0,0,0,-1,1742,610,4.53378,0.0996819
525,414,6.18811,-1.64056,0,0,0,0,0,0,0,-1,1749,610,6.18814,1.64055
532,414,32.4541,-24.196,0,0,0,0,0,0,0,-1,1756,610,32.4541,24.196
539,414,33.1248,-23.658,0,0,0,0,0,0,0,-1,1763,610,33.1248,23.658
546,414,33.0497,-22.6643,0.00356697,0.000293571,0.00118085,0.00394849,-8.7944e-05,0.312499,0.00266212,0.0183082,1770,610,33.0497,22.6643
553,414,33.0176,-21.6697,0.00301075,0.000559048,0.00100316,0.00336889,0.000200907,0.34291,0.00218204,0.0144441,1777,610,33.0175,21.6697
560,414,32.9763,-20.6789,0.00242318,0.000811195,0.000885019,0.00281422,0.000420158,0.416048,0.00175296,0.0168557,1784,610,32.9763,20.6789
567,414,32.9141,-19.6602,0.00195872,0.00114252,0.000916877,0.00255422,0.000547024,0.576013,0.00155293,0.0255326,1791,610,32.914,19.6602
574,414,32.8409,-18.683,0.00171433,0.0016543,0.00111916,0.00280388,0.000564757,0.771992,0.00171233,0.0247846,1798,610,32.841,18.683
581,414,32.7886,-17.7089,0.00167156,0.00228139,0.00151214,0.00351906,0.000433899,0.884886,0.00221561,0.0220756,1805,610,32.7885,17.7089
588,414,32.7395,-16.7866,0.00182877,0.00316241,0.00208869,0.00468814,0.000303033,0.93991,0.00302947,0.0201727,1812,610,32.7395,16.7866
595,414,32.6536,-15.6868,0.00224921,0.00427463,0.00289896,0.00633268,0.000191161,0.953439,0.00415953,0.0221068,1819,610,32.6536,15.6868
602,414,32.5552,-14.7072,0.00300358,0.00575938,0.00399687,0.00860919,0.000153769,0.951391,0.0056889,0.0298535,1826,610,32.5552,14.7072
609,414,32.4877,-13.6761,0,0,0,0,0,0,0,-1,1833,610,32.4877,13.6761
616,414,32.8204,-12.2842,0,0,0,0,0,0,0,-1,1840,610,32.8204,12.2842
623,414,9.6969,0.0378418,0,0,0,0,0,0,0,-1,1847,610,9.69685,-0.0378644
630,414,5.47144,0.499329,0,0,0,0,0,0,0,-1,1854,610,5.47142,-0.499303
637,414,8.36707,4.16278,0,0,0,0,0,0,0,-1,1861,610,8.36709,-4.16278
644,414,5.87073,1.51422,0,0,0,0,0,0,0,-1,1868,610,5.87076,-1.51424
651,414,3.6377,0.820557,0,0,0,0,0,0,0,-1,1875,610,3.6377,-0.820543
658,414,2.29761,3.87323,0,0,0,0,0,0,0,-1,1882,610,2.29758,-3.87325
665,414,0,0,0,0,0,0,0,0,0,-1,1889,610,0,0
672,414,0,0,0,0,0,0,0,0,0,-1,1896,610,0,0
679,414,0,0,0,0,0,0,0,0,0,-1,1903,610,0,0
686,414,0,0,0,0,0,0,0,0,0,-1,1910,610,0,0
693,414,0,0,0,0,0,0,0,0,0,-1,1917,610,0,0
700,414,0,0,0,0,0,0,0,0,0,-1,1924,610,0,0
707,414,0,0,0,0,0,0,0,0,0,-1,1931,610,0,0
714,414,0,0,0,0,0,0,0,0,0,-1,1938,610,0,0
721,414,0,0,0,0,0,0,0,0,0,-1,1945,610,0,0
728,414,0,0,0,0,0,0,0,0,0,-1,1952,610,0,0
735,414,0,0,0,0,0,0,0,0,0,-1,1959,610,0,0
742,414,0,0,0,0,0,0,0,0,0,-1,1966,610,0,0
749,414,0,0,0,0,0,0,0,0,0,-1,1973,610,0,0
756,414,0,0,0,0,0,0,0,0,0,-1,1980,610,0,0
763,414,0,0,0,0,0,0,0,0,0,-1,1987,610,0,0
770,414,0,0,0,0,0,0,0,0,0,-1,1994,610,0,0
777,414,0,0,0,0,0,0,0,0,0,-1,2001,610,0,0
784,414,0,0,0,0,0,0,0,0,0,-1,2008,610,0,0
791,414,0,0,0,0,0,0,0,0,0,-1,2015,610,0,0
798,414,0,0,0,0,0,0,0,0,0,-1,2022,610,0,0
805,414,0,0,0,0,0,0,0,0,0,-1,2029,610,0,0
812,414,0,0,0,0,0,0,0,0,0,-1,2036,610,0,0
-700,407,0,0,0,0,0,0,0,0,0,-1,524,617,0,0
-693,407,0,0,0,0,0,0,0,0,0,-1,531,617,0,0
-686,407,0,0,0,0,0,0,0,0,0,-1,538,617,0,0
-679,407,0,0,0,0,0,0,0,0,0,-1,545,617,0,0
-672,407,0,0,0,0,0,0,0,0,0,-1,552,617,0,0
-665,407,0,0,0,0,0,0,0,0,0,-1,559,617,0,0
-658,407,0,0,0,0,0,0,0,0,0,-1,566,617,0,0
-651,407,0,0,0,0,0,0,0,0,0,-1,573,617,0,0
-644,407,0,0,0,0,0,0,0,0,0,-1,580,617,0,0
-637,407,0,0,0,0,0,0,0,0,0,-1,587,617,0,0
-630,407,0,0,0,0,0,0,0,0,0,-1,594,617,0,0
-623,407,0,0,0,0,0,0,0,0,0,-1,601,617,0,0
-616,407,0,0,0,0,0,0,0,0,0,-1,608,617,0,0
-609,407,0,0,0,0,0,0,0,0,0,-1,615,617,0,0
-602,407,0,0,0,0,0,0,0,0,0,-1,622,617,0,0
-595,407,0,0,0,0,0,0,0,0,0,-1,629,617,0,0
-588,407,0,0,0,0,0,0,0,0,0,-1,636,617,0,0
-581,407,0,0,0,0,0,0,0,0,0,-1,643,617,0,0
-574,407,0,0,0,0,0,0,0,0,0,-1,650,617,0,0
-567,407,0,0,0,0,0,0,0,0,0,-1,657,617,0,0
-560,407,0,0,0,0,0,0,0,0,0,-1,664,617,0,0
-553,407,0,0,0,0,0,0,0,0,0,-1,671,617,0,0
-546,407,-8.54517,-0.658142,0,0,0,0,0,0,0,-1,678,617,-8.54515,0.658112
-539,407,-6.09442,-1.01154,0,0,0,0,0,0,0,-1,685,617,-6.09441,1.01155
-532,407,-7.75665,1.62152,0,0,0,0,0,0,0,-1,692,617,-7.75667,-1.62154
-525,407,-3.78247,-2.67639,0,0,0,0,0,0,0,-1,699,617,-3.78246,2.67638
-518,407,-5.013,-5.87323,0,0,0,0,0,0,0,-1,706,617,-5.013,5.87324
-511,407,-9.42743,-4.94189,0,0,0,0,0,0,0,-1,713,617,-9.42745,4.94191
-504,407,-10.8291,-8.05927,0,0,0,0,0,0,0,-1,720,617,-10.8291,8.05927
-497,407,-9.84467,-6.81641,0,0,0,0,0,0,0,-1,727,617,-9.84468,6.8164
-490,407,-17.05,-12.7258,0,0,0,0,0,0,0,-1,734,617,-17.05,12.7258
-483,407,-16.7623,-13.6913,0,0,0,0,0,0,0,-1,741,617,-16.7623,13.6913
-476,407,-16.8754,-14.7286,-0.00362746,0.00196287,0.00152751,0.00235301,-0.0040176,1.32073,0.0037197,0.0167871,748,617,-16.8754,14.7286
-469,407,-16.978,-15.7367,-0.00266552,0.00152193,0.00103753,0.0017649,-0.00290849,1.34076,0.00272498,0.0136596,755,617,-16.978,15.7367
-462,407,-17.0907,-16.7543,-0.00159962,0.00109263,0.000573369,0.00120965,-0.00171664,1.36946,0.00169793,0.0209278,762,617,-17.0907,16.7543
-455,407,-17.1599,-17.8087,-0.000559709,0.000814992,0.000100414,0.000822288,-0.000567005,1.49827,0.00080661,0.0235896,769,617,-17.1598,17.8087
-448,407,-17.1577,-18.8083,0.000508326,0.000612414,-0.000367284,0.000931323,0.000189417,-0.85578,0.000568363,0.0210023,776,617,-17.1577,18.8084
-441,407,-17.2437,-19.7653,0.00157507,0.000553057,-0.000859577,0.00206407,6.40639e-05,-0.51722,0.00135519,0.0151326,783,617,-17.2437,19.7653
-434,407,-17.3455,-20.7564,0.00258602,0.000656988,-0.0013678,0.00329518,-5.21682e-05,-0.478309,0.00221438,0.0115741,790,617,-17.3455,20.7564
-427,407,-17.3865,-21.7648,0.00357766,0.00100111,-0.00198056,0.00465206,-7.32937e-05,-0.497049,0.00312609,0.0128473,797,617,-17.3865,21.7648
-420,407,-17.413,-22.7487,0.00442305,0.00147754,-0.00251916,0.00586837,3.22112e-05,-0.520881,0.00390156,0.0122906,804,617,-17.413,22.7487
-413,407,-17.4561,-23.7473,0.00521008,0.00228588,-0.00311433,0.00718845,0.000307518,-0.565933,0.00469315,0.0208418,811,617,-17.456,23.7473
-406,407,-17.5037,-24.7665,0,0,0,0,0,0,0,-1,818,617,-17.5037,24.7665
-399,407,-16.5686,-23.1791,0,0,0,0,0,0,0,-1,825,617,-16.5686,23.1791
-392,407,-8.33612,-12.195,0,0,0,0,0,0,0,-1,832,617,-8.33611,12.195
-385,407,-7.65765,-10.7744,0,0,0,0,0,0,0,-1,839,617,-7.65767,10.7744
-378,407,-6.08655,-7.42291,0,0,0,0,0,0,0,-1,846,617,-6.08652,7.42292
-371,407,-7.4007,-5.79449,0,0,0,0,0,0,0,-1,853,617,-7.40072,5.79447
-364,407,-10.0638,-6.6228,0,0,0,0,0,0,0,-1,860,617,-10.0639,6.62279
-357,407,-6.64447,-1.83337,0,0,0,0,0,0,0,-1,867,617,-6.64446,1.8334
-350,407,-7.03351,-1.77551,0,0,0,0,0,0,0,-1,874,617,-7.03349,1.77551
-343,407,-7.40967,-1.95026,0,0,0,0,0,0,0,-1,881,617,-7.40969,1.95026
-336,407,-8.10229,-2.40662,0,0,0,0,0,0,0,-1,888,617,-8.10229,2.40664
-329,407,-8.81232,-2.76331,0,0,0,0,0,0,0,-1,895,617,-8.81235,2.76331
-322,407,0,0,0,0,0,0,0,0,0,-1,902,617,0,0
-315,407,0,0,0,0,0,0,0,0,0,-1,909,617,0,0
-308,407,0,0,0,0,0,0,0,0,0,-1,916,617,0,0
-301,407,0,0,0,0,0,0,0,0,0,-1,923,617,0,0
-294,407,0,0,0,0,0,0,0,0,0,-1,930,617,0,0
-287,407,0,0,0,0,0,0,0,0,0,-1,937,617,0,0
-280,407,0,0,0,0,0,0,0,0,0,-1,944,617,0,0
-273,407,0,0,0,0,0,0,0,0,0,-1,951,617,0,0
-266,407,0,0,0,0,0,0,0,0,0,-1,958,617,0,0
-259,407,0,0,0,0,0,0,0,0,0,-1,965,617,0,0
-252,407,0,0,0,0,0,0,0,0,0,-1,972,617,0,0
-245,407,0,0,0,0,0,0,0,0,0,-1,979,617,0,0
-238,407,0,0,0,0,0,0,0,0,0,-1,986,617,0,0
-231,407,0,0,0,0,0,0,0,0,0,-1,993,617,0,0
-224,407,0,0,0,0,0,0,0,0,0,-1,1000,617,0,0
-217,407,0,0,0,0,0,0,0,0,0,-1,1007,617,0,0
-210,407,0,0,0,0,0,0,0,0,0,-1,1014,617,0,0
-203,407,0,0,0,0,0,0,0,0,0,-1,1021,617,0,0
-196,407,0,0,0,0,0,0,0,0,0,-1,1028,617,0,0
-189,407,0,0,0,0,0,0,0,0,0,-1,1035,617,0,0
-182,407,0,0,0,0,0,0,0,0,0,-1,1042,617,0,0
-175,407,0,0,0,0,0,0,0,0,0,-1,1049,617,0,0
-168,407,0,0,0,0,0,0,0,0,0,-1,1056,617,0,0
-161,407,0,0,0,0,0,0,0,0,0,-1,1063,617,0,0
-154,407,0,0,0,0,0,0,0,0,0,-1,1070,617,0,0
-147,407,0,0,0,0,0,0,0,0,0,-1,1077,617,0,0
-140,407,0,0,0,0,0,0,0,0,0,-1,1084,617,0,0
-133,407,0,0,0,0,0,0,0,0,0,-1,1091,617,0,0
-126,407,0,0,0,0,0,0,0,0,0,-1,1098,617,0,0
-119,407,0,0,0,0,0,0,0,0,0,-1,1105,617,0,0
-112,407,0,0,0,0,0,0,0,0,0,-1,1112,617,0,0
-105,407,0,0,0,0,0,0,0,0,0,-1,1119,617,0,0
-98,407,0,0,0,0,0,0,0,0,0,-1,1126,617,0,0
-91,407,0,0,0,0,0,0,0,0,0,-1,1133,617,0,0
-84,407,0,0,0,0,0,0,0,0,0,-1,1140,617,0,0
-77,407,0,0,0,0,0,0,0,0,0,-1,1147,617,0,0
-70,407,0,0,0,0,0,0,0,0,0,-1,1154,617,0,0
-63,407,0,0,0,0,0,0,0,0,0,-1,1161,617,0,0
-56,407,0,0,0,0,0,0,0,0,0,-1,1168,617,0,0
-49,407,0,0,0,0,0,0,0,0,0,-1,1175,617,0,0
-42,407,0,0,0,0,0,0,0,0,0,-1,1182,617,0,0
-35,407,0,0,0,0,0,0,0,0,0,-1,1189,617,0,0
-28,407,0,0,0,0,0,0,0,0,0,-1,1196,617,0,0
-21,407,0,0,0,0,0,0,0,0,0,-1,1203,617,0,0
-14,407,0,0,0,0,0,0,0,0,0,-1,1210,617,0,0
-7,407,0,0,0,0,0,0,0,0,0,-1,1217,617,0,0
0,407,0,0,0,0,0,0,0,0,0,-1,1224,617,0,0
7,407,0,0,0,0,0,0,0,0,0,-1,1231,617,0,0
14,407,0,0,0,0,0,0,0,0,0,-1,1238,617,0,0
21,407,0,0,0,0,0,0,0,0,0,-1,1245,617,0,0
28,407,0,0,0,0,0,0,0,0,0,-1,1252,617,0,0
35,407,0,0,0,0,0,0,0,0,0,-1,1259,617,0,0
42,407,0,0,0,0,0,0,0,0,0,-1,1266,617,0,0
49,407,0,0,0,0,0,0,0,0,0,-1,1273,617,0,0
56,407,0,0,0,0,0,0,0,0,0,-1,1280,617,0,0
63,407,0,0,0,0,0,0,0,0,0,-1,1287,617,0,0
70,407,0,0,0,0,0,0,0,0,0,-1,1294,617,0,0
77,407,0,0,0,0,0,0,0,0,0,-1,1301,617,0,0
84,407,0,0,0,0,0,0,0,0,0,-1,1308,617,0,0
91,407,0,0,0,0,0,0,0,0,0,-1,1315,617,0,0
98,407,0,0,0,0,0,0,0,0,0,-1,1322,617,0,0
105,407,0,0,0,0,0,0,0,0,0,-1,1329,617,0,0
112,407,0,0,0,0,0,0,0,0,0,-1,1336,617,0,0
119,407,0,0,0,0,0,0,0,0,0,-1,1343,617,0,0
126,407,0,0,0,0,0,0,0,0,0,-1,1350,617,0,0
133,407,0,0,0,0,0,0,0,0,0,-1,1357,617,0,0
140,407,0,0,0,0,0,0,0,0,0,-1,1364,617,0,0
147,407,0,0,0,0,0,0,0,0,0,-1,1371,617,0,0
154,407,0,0,0,0,0,0,0,0,0,-1,1378,617,0,0
161,407,0,0,0,0,0,0,0,0,0,-1,1385,617,0,0
168,407,0,0,0,0,0,0,0,0,0,-1,1392,617,0,0
175,407,0,0,0,0,0,0,0,0,0,-1,1399,617,0,0
182,407,0,0,0,0,0,0,0,0,0,-1,1406,617,0,0
189,407,0,0,0,0,0,0,0,0,0,-1,1413,617,0,0
196,407,0,0,0,0,0,0,0,0,0,-1,1420,617,0,0
203,407,0,0,0,0,0,0,0,0,0,-1,1427,617,0,0
210,407,0,0,0,0,0,0,0,0,0,-1,1434,617,0,0
217,407,0,0,0,0,0,0,0,0,0,-1,1441,617,0,0
224,407,0,0,0,0,0,0,0,0,0,-1,1448,617,0,0
231,407,0,0,0,0,0,0,0,0,0,-1,1455,617,0,0
238,407,0,0,0,0,0,0,0,0,0,-1,1462,617,0,0
245,407,0,0,0,0,0,0,0,0,0,-1,1469,617,0,0
252,407,0,0,0,0,0,0,0,0,0,-1,1476,617,0,0
259,407,0,0,0,0,0,0,0,0,0,-1,1483,617,0,0
266,407,0,0,0,0,0,0,0,0,0,-1,1490,617,0,0
273,407,0,0,0,0,0,0,0,0,0,-1,1497,617,0,0
280,407,0,0,0,0,0,0,0,0,0,-1,1504,617,0,0
287,407,0,0,0,0,0,0,0,0,0,-1,1511,617,0,0
294,407,0,0,0,0,0,0,0,0,0,-1,1518,617,0,0
301,407,0,0,0,0,0,0,0,0,0,-1,1525,617,0,0
308,407,0,0,0,0,0,0,0,0,0,-1,1532,617,0,0
315,407,0,0,0,0,0,0,0,0,0,-1,1539,617,0,0
322,407,0,0,0,0,0,0,0,0,0,-1,1546,617,0,0
329,407,0,0,0,0,0,0,0,0,0,-1,1553,617,0,0
336,407,0,0,0,0,0,0,0,0,0,-1,1560,617,0,0
343,407,0,0,0,0,0,0,0,0,0,-1,1567,617,0,0
350,407,0,0,0,0,0,0,0,0,0,-1,1574,617,0,0
357,407,0,0,0,0,0,0,0,0,0,-1,1581,617,0,0
364,407,0,0,0,0,0,0,0,0,0,-1,1588,617,0,0
371,407,0,0,0,0,0,0,0,0,0,-1,1595,617,0,0
378,407,0,0,0,0,0,0,0,0,0,-1,1602,617,0,0
385,407,0,0,0,0,0,0,0,0,0,-1,1609,617,0,0
392,407,0,0,0,0,0,0,0,0,0,-1,1616,617,0,0
399,407,0,0,0,0,0,0,0,0,0,-1,1623,617,0,0
406,407,0,0,0,0,0,0,0,0,0,-1,1630,617,0,0
413,407,0,0,0,0,0,0,0,0,0,-1,1637,617,0,0
420,407,0,0,0,0,0,0,0,0,0,-1,1644,617,0,0
427,407,0,0,0,0,0,0,0,0,0,-1,1651,617,0,0
434,407,0,0,0,0,0,0,0,0,0,-1,1658,617,0,0
441,407,0,0,0,0,0,0,0,0,0,-1,1665,617,0,0
448,407,7.02893,2.13843,0,0,0,0,0,0,0,-1,1672,617,7.02899,-2.13844
455,407,7.55237,2.29242,0,0,0,0,0,0,0,-1,1679,617,7.55236,-2.29244
462,407,8.2926,2.46173,0,0,0,0,0,0,0,-1,1686,617,8.29261,-2.46174
469,407,8.71509,2.22681,0,0,0,0,0,0,0,-1,1693,617,8.71511,-2.22681
476,407,8.89917,1.47766,0,0,0,0,0,0,0,-1,1700,617,8.89914,-1.47768
483,407,9.02612,0.682983,0,0,0,0,0,0,0,-1,1707,617,9.02608,-0.683004
490,407,9.12659,0.000671387,0,0,0,0,0,0,0,-1,1714,617,9.12653,-0.000675931
497,407,7.76819,0.855835,0,0,0,0,0,0,0,-1,1721,617,7.7682,-0.855865
504,407,4.69336,0.160706,0,0,0,0,0,0,0,-1,1728,617,4.69337,-0.1607
511,407,4.07104,-0.00140381,0,0,0,0,0,0,0,-1,1735,617,4.07109,0.00141425
518,407,6.09534,1.9411,0,0,0,0,0,0,0,-1,1742,617,6.09532,-1.94113
525,407,5.72534,-1.35986,0,0,0,0,0,0,0,-1,1749,617,5.72529,1.35988
532,407,18.5767,-10.6388,0,0,0,0,0,0,0,-1,1756,617,18.5766,10.6388
539,407,33.9598,-23.733,0,0,0,0,0,0,0,-1,1763,617,33.9598,23.733
546,407,34.0449,-22.6189,0.00411746,0.000593987,0.00156589,0.00471278,-1.33249e-06,0.363305,0.0031423,0.0302218,1770,617,34.0449,22.6189
553,407,33.9924,-21.6037,0.00348218,0.000674196,0.00124861,0.00395708,0.0001993,0.363444,0.00257419,0.0181717,1777,617,33.9924,21.6037
560,407,33.9951,-20.574,0.0028034,0.000718172,0.000976375,0.0031892,0.000332378,0.3763,0.00202446,0.019863,1784,617,33.9951,20.574
567,407,33.8854,-19.639,0.00221551,0.000811158,0.000842327,0.00260995,0.000416719,0.437945,0.00161904,0.0335424,1791,617,33.8853,19.639
574,407,33.8206,-18.6623,0.00189758,0.00116319,0.000941921,0.00254135,0.000519419,0.599541,0.00155037,0.0283796,1798,617,33.8206,18.6623
581,407,33.7249,-17.6281,0.00179527,0.00165927,0.00124033,0.00296946,0.00048508,0.758014,0.00183939,0.0191688,1805,617,33.7248,17.6281
588,407,33.6414,-16.6617,0.00190141,0.00240771,0.00171633,0.00388946,0.000419656,0.858617,0.00246503,0.014673,1812,617,33.6413,16.6617
595,407,33.6616,-15.6627,0.00226421,0.00336924,0.00240492,0.0052843,0.000349155,0.898311,0.00341244,0.0292823,1819,617,33.6616,15.6627
602,407,33.5869,-14.5939,0.0029401,0.00463308,0.00333785,0.0072301,0.00034308,0.909581,0.00470988,0.0231489,1826,617,33.587,14.5939
609,407,33.4304,-13.5756,0.00407204,0.00625823,0.0046064,0.00989945,0.000430819,0.901893,0.00646082,0.0221503,1833,617,33.4304,13.5756
616,407,33.4825,-12.3809,0.00569508,0.00836443,0.00620061,0.0133724,0.000687129,0.891406,0.00869493,0.0421277,1840,617,33.4825,12.3808
623,407,33.7926,-11.0259,0,0,0,0,0,0,0,-1,1847,617,33.7926,11.0259
630,407,7.06177,0.814575,0,0,0,0,0,0,0,-1,1854,617,7.06178,-0.814579
637,407,11.1063,0.391846,0,0,0,0,0,0,0,-1,1861,617,11.1063,-0.391862
644,407,5.09766,2.27747,0,0,0,0,0,0,0,-1,1868,617,5.09764,-2.27746
651,407,7.37524,0.0513916,0,0,0,0,0,0,0,-1,1875,617,7.3752,-0.0513923
658,407,3.76685,0.594177,0,0,0,0,0,0,0,-1,1882,617,3.76683,-0.594184
665,407,5.76123,0.375061,0,0,0,0,0,0,0,-1,1889,617,5.76118,-0.37509
672,407,0,0,0,0,0,0,0,0,0,-1,1896,617,0,0
679,407,0,0,0,0,0,0,0,0,0,-1,1903,617,0,0
686,407,0,0,0,0,0,0,0,0,0,-1,1910,617,0,0
693,407,0,0,0,0,0,0,0,0,0,-1,1917,617,0,0
700,407,0,0,0,0,0,0,0,0,0,-1,1924,617,0,0
707,407,0,0,0,0,0,0,0,0,0,-1,1931,617,0,0
714,407,0,0,0,0,0,0,0,0,0,-1,1938,617,0,0
721,407,0,0,0,0,0,0,0,0,0,-1,1945,617,0,0
728,407,0,0,0,0,0,0,0,0,0,-1,1952,617,0,0
735,407,0,0,0,0,0,0,0,0,0,-1,1959,617,0,0
742,407,0,0,0,0,0,0,0,0,0,-1,1966,617,0,0
749,407,0,0,0,0,0,0,0,0,0,-1,1973,617,0,0
756,407,0,0,0,0,0,0,0,0,0,-1,1980,617,0,0
763,407,0,0,0,0,0,0,0,0,0,-1,1987,617,0,0
770,407,0,0,0,0,0,0,0,0,0,-1,1994,617,0,0
777,407,0,0,0,0,0,0,0,0,0,-1,2001,617,0,0
784,407,0,0,0,0,0,0,0,0,0,-1,2008,617,0,0
791,407,0,0,0,0,0,0,0,0,0,-1,2015,617,0,0
798,407,0,0,0,0,0,0,0,0,0,-1,2022,617,0,0
805,407,0,0,0,0,0,0,0,0,0,-1,2029,617,0,0
812,407,0,0,0,0,0,0,0,0,0,-1,2036,617,0,0
-700,400,0,0,0,0,0,0,0,0,0,-1,524,624,0,0
-693,400,0,0,0,0,0,0,0,0,0,-1,531,624,0,0
-686,400,0,0,0,0,0,0,0,0,0,-1,538,624,0,0
-679,400,0,0,0,0,0,0,0,0,0,-1,545,624,0,0
-672,400,0,0,0,0,0,0,0,0,0,-1,552,624,0,0
-665,400,0,0,0,0,0,0,0,0,0,-1,559,624,0,0
-658,400,0,0,0,0,0,0,0,0,0,-1,566,624,0,0
-651,400,0,0,0,0,0,0,0,0,0,-1,573,624,0,0
-644,400,0,0,0,0,0,0,0,0,0,-1,580,624,0,0
-637,400,0,0,0,0,0,0,0,0,0,-1,587,624,0,0
-630,400,0,0,0,0,0,0,0,0,0,-1,594,624,0,0
-623,400,0,0,0,0,0,0,0,0,0,-1,601,624,0,0
-616,400,0,0,0,0,0,0,0,0,0,-1,608,624,0,0
-609,400,0,0,0,0,0,0,0,0,0,-1,615,624,0,0
-602,400,0,0,0,0,0,0,0,0,0,-1,622,624,0,0
-595,400,0,0,0,0,0,0,0,0,0,-1,629,624,0,0
-588,400,0,0,0,0,0,0,0,0,0,-1,636,624,0,0
-581,400,0,0,0,0,0,0,0,0,0,-1,643,624,0,0
-574,400,0,0,0,0,0,0,0,0,0,-1,650,624,0,0
-567,400,0,0,0,0,0,0,0,0,0,-1,657,624,0,0
-560,400,0,0,0,0,0,0,0,0,0,-1,664,624,0,0
-553,400,0,0,0,0,0,0,0,0,0,-1,671,624,0,0
-546,400,-8.41174,-1.4599,0,0,0,0,0,0,0,-1,678,624,-8.41173,1.45989
-539,400,-5.69104,-1.7337,0,0,0,0,0,0,0,-1,685,624,-5.69103,1.7337
-532,400,-3.03632,-2.03912,0,0,0,0,0,0,0,-1,692,624,-3.03632,2.03909
-525,400,-6.20813,-7.04071,0,0,0,0,0,0,0,-1,699,624,-6.20814,7.04071
-518,400,-5.26544,-1.58661,0,0,0,0,0,0,0,-1,706,624,-5.26544,1.58658
-511,400,-10.6307,-6.7121,0,0,0,0,0,0,0,-1,713,624,-10.6307,6.71209
-504,400,-10.2663,-6.55109,0,0,0,0,0,0,0,-1,720,624,-10.2663,6.55106
-497,400,-17.946,-11.2973,0,0,0,0,0,0,0,-1,727,624,-17.946,11.2973
-490,400,-17.727,-12.4879,-0.00333603,0.00209052,0.00160505,0.00252971,-0.00377523,1.3037,0.00366376,0.0443014,734,624,-17.727,12.4879
-483,400,-17.8096,-13.6376,-0.00291595,0.00171728,0.00127662,0.00204575,-0.00324442,1.31896,0.0030803,0.0191942,741,624,-17.8096,13.6376
-476,400,-17.8917,-14.6344,-0.00234618,0.0013989,0.000917111,0.00161142,-0.00255871,1.34308,0.00242824,0.0147906,748,624,-17.8917,14.6344
-469,400,-17.9567,-15.6668,-0.00156976,0.00104499,0.000541318,0.00115263,-0.0016774,1.37452,0.00164325,0.0153767,755,624,-17.9567,15.6668
-462,400,-18.0304,-16.6947,-0.000674731,0.000690222,0.000157083,0.000708067,-0.000692575,1.45768,0.000808677,0.0198958,762,624,-18.0304,16.6947
-455,400,-18.097,-17.7031,0.000263044,0.000528678,-0.000293636,0.000718138,7.35839e-05,-0.997789,0.000456213,0.0215974,769,624,-18.097,17.7031
-448,400,-18.1479,-18.7231,0.00128533,0.00039026,-0.000749713,0.00171092,-3.53361e-05,-0.516315,0.00115258,0.0165302,776,624,-18.148,18.7232
-441,400,-18.2347,-19.6578,0.00235891,0.000401204,-0.00126528,0.00297977,-0.000219656,-0.456173,0.00206363,0.0147058,783,624,-18.2347,19.6578
-434,400,-18.3329,-20.6342,0.00345068,0.000623528,-0.00185271,0.00436749,-0.000293288,-0.45952,0.00301418,0.0125451,790,624,-18.3329,20.6342
-427,400,-18.3923,-21.6364,0.00455657,0.00106324,-0.00256898,0.00591643,-0.000296618,-0.486841,0.00404678,0.0119018,797,624,-18.3923,21.6363
-420,400,-18.3465,-22.685,0.00548924,0.00162165,-0.00318772,0.00728386,-0.00017297,-0.512755,0.00491458,0.025626,804,624,-18.3465,22.685
-413,400,-18.3958,-23.6495,0,0,0,0,0,0,0,-1,811,624,-18.3958,23.6495
-406,400,-18.8867,-24.1799,0,0,0,0,0,0,0,-1,818,624,-18.8867,24.1799
-399,400,-11.0176,-13.2944,0,0,0,0,0,0,0,-1,825,624,-11.0176,13.2944
-392,400,-4.92285,-6.63354,0,0,0,0,0,0,0,-1,832,624,-4.92285,6.63354
-385,400,-3.68738,-5.04205,0,0,0,0,0,0,0,-1,839,624,-3.68736,5.04207
-378,400,-6.84064,-1.28662,0,0,0,0,0,0,0,-1,846,624,-6.84062,1.28662
-371,400,-6.98865,-1.2572,0,0,0,0,0,0,0,-1,853,624,-6.98865,1.25721
-364,400,-6.97247,-1.24133,0,0,0,0,0,0,0,-1,860,624,-6.97249,1.24135
-357,400,-7.18329,-1.23218,0,0,0,0,0,0,0,-1,867,624,-7.18327,1.2322
-350,400,-7.40186,-1.19409,0,0,0,0,0,0,0,-1,874,624,-7.40187,1.19407
-343,400,-8.09357,-1.51147,0,0,0,0,0,0,0,-1,881,624,-8.09355,1.51148
-336,400,0,0,0,0,0,0,0,0,0,-1,888,624,0,0
-329,400,0,0,0,0,0,0,0,0,0,-1,895,624,0,0
-322,400,0,0,0,0,0,0,0,0,0,-1,902,624,0,0
-315,400,0,0,0,0,0,0,0,0,0,-1,909,624,0,0
-308,400,0,0,0,0,0,0,0,0,0,-1,916,624,0,0
-301,400,0,0,0,0,0,0,0,0,0,-1,923,624,0,0
-294,400,0,0,0,0,0,0,0,0,0,-1,930,624,0,0
-287,400,0,0,0,0,0,0,0,0,0,-1,937,624,0,0
-280,400,0,0,0,0,0,0,0,0,0,-1,944,624,0,0
-273,400,0,0,0,0,0,0,0,0,0,-1,951,624,0,0
-266,400,0,0,0,0,0,0,0,0,0,-1,958,624,0,0
-259,400,0,0,0,0,0,0,0,0,0,-1,965,624,0,0
-252,400,0,0,0,0,0,0,0,0,0,-1,972,624,0,0
-245,400,0,0,0,0,0,0,0,0,0,-1,979,624,0,0
-238,400,0,0,0,0,0,0,0,0,0,-1,986,624,0,0
-231,400,0,0,0,0,0,0,0,0,0,-1,993,624,0,0
-224,400,0,0,0,0,0,0,0,0,0,-1,1000,624,0,0
-217,400,0,0,0,0,0,0,0,0,0,-1,1007,624,0,0
-210,400,0,0,0,0,0,0,0,0,0,-1,1014,624,0,0
-203,400,0,0,0,0,0,0,0,0,0,-1,1021,624,0,0
-196,400,0,0,0,0,0,0,0,0,0,-1,1028,624,0,0
-189,400,0,0,0,0,0,0,0,0,0,-1,1035,624,0,0
-182,400,0,0,0,0,0,0,0,0,0,-1,1042,624,0,0
-175,400,0,0,0,0,0,0,0,0,0,-1,1049,624,0,0
-168,400,0,0,0,0,0,0,0,0,0,-1,1056,624,0,0
-161,400,0,0,0,0,0,0,0,0,0,-1,1063,624,0,0
-154,400,0,0,0,0,0,0,0,0,0,-1,1070,624,0,0
-147,400,0,0,0,0,0,0,0,0,0,-1,1077,624,0,0
-140,400,0,0,0,0,0,0,0,0,0,-1,1084,624,0,0
-133,400,0,0,0,0,0,0,0,0,0,-1,1091,624,0,0
-126,400,0,0,0,0,0,0,0,0,0,-1,1098,624,0,0
-119,400,0,0,0,0,0,0,0,0,0,-1,1105,624,0,0
-112,400,0,0,0,0,0,0,0,0,0,-1,1112,624,0,0
-105,400,0,0,0,0,0,0,0,0,0,-1,1119,624,0,0
-98,400,0,0,0,0,0,0,0,0,0,-1,1126,624,0,0
-91,400,0,0,0,0,0,0,0,0,0,-1,1133,624,0,0
-84,400,0,0,0,0,0,0,0,0,0,-1,1140,624,0,0
-77,400,0,0,0,0,0,0,0,0,0,-1,1147,624,0,0
-70,400,0,0,0,0,0,0,0,0,0,-1,1154,624,0,0
-63,400,0,0,0,0,0,0,0,0,0,-1,1161,624,0,0
-56,400,0,0,0,0,0,0,0,0,0,-1,1168,624,0,0
-49,400,0,0,0,0,0,0,0,0,0,-1,1175,624,0,0
-42,400,0,0,0,0,0,0,0,0,0,-1,1182,624,0,0
-35,400,0,0,0,0,0,0,0,0,0,-1,1189,624,0,0
-28,400,0,0,0,0,0,0,0,0,0,-1,1196,624,0,0
-21,400,0,0,0,0,0,0,0,0,0,-1,1203,624,0,0
-14,400,0,0,0,0,0,0,0,0,0,-1,1210,624,0,0
-7,400,0,0,0,0,0,0,0,0,0,-1,1217,624,0,0
0,400,0,0,0,0,0,0,0,0,0,-1,1224,624,0,0
7,400,0,0,0,0,0,0,0,0,0,-1,1231,624,0,0
14,400,0,0,0,0,0,0,0,0,0,-1,1238,624,0,0
21,400,0,0,0,0,0,0,0,0,0,-1,1245,624,0,0
28,400,0,0,0,0,0,0,0,0,0,-1,1252,624,0,0
35,400,0,0,0,0,0,0,0,0,0,-1,1259,624,0,0
42,400,0,0,0,0,0,0,0,0,0,-1,1266,624,0,0
49,400,0,0,0,0,0,0,0,0,0,-1,1273,624,0,0
56,400,0,0,0,0,0,0,0,0,0,-1,1280,624,0,0
63,400,0,0,0,0,0,0,0,0,0,-1,1287,624,0,0
70,400,0,0,0,0,0,0,0,0,0,-1,1294,624,0,0
77,400,0,0,0,0,0,0,0,0,0,-1,1301,624,0,0
84,400,0,0,0,0,0,0,0,0,0,-1,1308,624,0,0
91,400,0,0,0,0,0,0,0,0,0,-1,1315,624,0,0
98,400,0,0,0,0,0,0,0,0,0,-1,1322,624,0,0
105,400,0,0,0,0,0,0,0,0,0,-1,1329,624,0,0
112,400,0,0,0,0,0,0,0,0,0,-1,1336,624,0,0
119,400,0,0,0,0,0,0,0,0,0,-1,1343,624,0,0
126,400,0,0,0,0,0,0,0,0,0,-1,1350,624,0,0
133,400,0,0,0,0,0,0,0,0,0,-1,1357,624,0,0
140,400,0,0,0,0,0,0,0,0,0,-1,1364,624,0,0
147,400,0,0,0,0,0,0,0,0,0,-1,1371,624,0,0
154,400,0,0,0,0,0,0,0,0,0,-1,1378,624,0,0
161,400,0,0,0,0,0,0,0,0,0,-1,1385,624,0,0
168,400,0,0,0,0,0,0,0,0,0,-1,1392,624,0,0
175,400,0,0,0,0,0,0,0,0,0,-1,1399,624,0,0
182,400,0,0,0,0,0,0,0,0,0,-1,1406,624,0,0
189,400,0,0,0,0,0,0,0,0,0,-1,1413,624,0,0
196,400,0,0,0,0,0,0,0,0,0,-1,1420,624,0,0
203,400,0,0,0,0,0,0,0,0,0,-1,1427,624,0,0
210,400,0,0,0,0,0,0,0,0,0,-1,1434,624,0,0
217,400,0,0,0,0,0,0,0,0,0,-1,1441,624,0,0
224,400,0,0,0,0,0,0,0,0,0,-1,1448,624,0,0
231,400,0,0,0,0,0,0,0,0,0,-1,1455,624,0,0
238,400,0,0,0,0,0,0,0,0,0,-1,1462,624,0,0
245,400,0,0,0,0,0,0,0,0,0,-1,1469,624,0,0
252,400,0,0,0,0,0,0,0,0,0,-1,1476,624,0,0
259,400,0,0,0,0,0,0,0,0,0,-1,1483,624,0,0
266,400,0,0,0,0,0,0,0,0,0,-1,1490,624,0,0
273,400,0,0,0,0,0,0,0,0,0,-1,1497,624,0,0
280,400,0,0,0,0,0,0,0,0,0,-1,1504,624,0,0
287,400,0,0,0,0,0,0,0,0,0,-1,1511,624,0,0
294,400,0,0,0,0,0,0,0,0,0,-1,1518,624,0,0
301,400,0,0,0,0,0,0,0,0,0,-1,1525,624,0,0
308,400,0,0,0,0,0,0,0,0,0,-1,1532,624,0,0
315,400,0,0,0,0,0,0,0,0,0,-1,1539,624,0,0
322,400,0,0,0,0,0,0,0,0,0,-1,1546,624,0,0
329,400,0,0,0,0,0,0,0,0,0,-1,1553,624,0,0
336,400,0,0,0,0,0,0,0,0,0,-1,1560,624,0,0
343,400,0,0,0,0,0,0,0,0,0,-1,1567,624,0,0
350,400,0,0,0,0,0,0,0,0,0,-1,1574,624,0,0
357,400,0,0,0,0,0,0,0,0,0,-1,1581,624,0,0
364,400,0,0,0,0,0,0,0,0,0,-1,1588,624,0,0
371,400,0,0,0,0,0,0,0,0,0,-1,1595,624,0,0
378,400,0,0,0,0,0,0,0,0,0,-1,1602,624,0,0
385,400,0,0,0,0,0,0,0,0,0,-1,1609,624,0,0
392,400,0,0,0,0,0,0,0,0,0,-1,1616,624,0,0
399,400,0,0,0,0,0,0,0,0,0,-1,1623,624,0,0
406,400,0,0,0,0,0,0,0,0,0,-1,1630,624,0,0
413,400,0,0,0,0,0,0,0,0,0,-1,1637,624,0,0
420,400,0,0,0,0,0,0,0,0,0,-1,1644,624,0,0
427,400,0,0,0,0,0,0,0,0,0,-1,1651,624,0,0
434,400,0,0,0,0,0,0,0,0,0,-1,1658,624,0,0
441,400,0,0,0,0,0,0,0,0,0,-1,1665,624,0,0
448,400,0,0,0,0,0,0,0,0,0,-1,1672,624,0,0
455,400,8.91309,2.75885,0,0,0,0,0,0,0,-1,1679,624,8.91312,-2.75885
462,400,8.90356,2.37878,0,0,0,0,0,0,0,-1,1686,624,8.90353,-2.37878
469,400,9.14429,1.76849,0,0,0,0,0,0,0,-1,1693,624,9.14432,-1.76847
476,400,9.23254,1.25995,0,0,0,0,0,0,0,-1,1700,624,9.23252,-1.25994
483,400,9.59766,0.562439,0,0,0,0,0,0,0,-1,1707,624,9.59771,-0.56242
490,400,9.92578,-0.213745,0,0,0,0,0,0,0,-1,1714,624,9.92579,0.21376
497,400,9.19141,0.175232,0,0,0,0,0,0,0,-1,1721,624,9.19138,-0.175209
504,400,9.23438,0.00823975,0,0,0,0,0,0,0,-1,1728,624,9.23436,-0.00823766
511,400,6.16687,3.3501,0,0,0,0,0,0,0,-1,1735,624,6.16682,-3.35007
518,400,6.55237,1.74994,0,0,0,0,0,0,0,-1,1742,624,6.55236,-1.74993
525,400,6.99731,1.08783,0,0,0,0,0,0,0,-1,1749,624,6.99736,-1.08785
532,400,6.96582,-1.74982,0,0,0,0,0,0,0,-1,1756,624,6.96585,1.74983
539,400,21.2305,-10.5841,0,0,0,0,0,0,0,-1,1763,624,21.2304,10.5841
546,400,35.0669,-22.5804,0,0,0,0,0,0,0,-1,1770,624,35.0669,22.5804
553,400,34.903,-21.5788,0.00421989,0.000954514,0.00151261,0.00481289,0.000361523,0.373619,0.00309513,0.0455611,1777,624,34.903,21.5788
560,400,34.9578,-20.5089,0.00336456,0.000819303,0.00108995,0.00376751,0.000416353,0.354114,0.00238503,0.0174806,1784,624,34.9578,20.5089
567,400,34.9164,-19.5432,0.00255577,0.000690355,0.000780385,0.00283918,0.000406945,0.348357,0.00177278,0.0199189,1791,624,34.9164,19.5432
574,400,34.8304,-18.5578,0.00208366,0.000898531,0.000782516,0.00247266,0.000509534,0.461334,0.00150758,0.0223794,1798,624,34.8305,18.5578
581,400,34.6947,-17.5581,0.00184519,0.00127905,0.000990579,0.00259235,0.00053189,0.646226,0.00158105,0.0232063,1805,624,34.6947,17.5581
588,400,34.5939,-16.5194,0.0018377,0.0018887,0.00137523,0.00323867,0.000487736,0.794668,0.00201629,0.0209134,1812,624,34.5938,16.5194
595,400,34.6088,-15.5376,0.00208557,0.00268706,0.00195219,0.00436153,0.000411092,0.861825,0.0027808,0.0198483,1819,624,34.6088,15.5376
602,400,34.572,-14.549,0.00261342,0.00371335,0.00273435,0.00595249,0.000374274,0.88464,0.00384964,0.0180308,1826,624,34.5721,14.549
609,400,34.3926,-13.5262,0.00347309,0.00499705,0.00376093,0.00807241,0.000397725,0.885348,0.00525405,0.0163593,1833,624,34.3925,13.5263
616,400,34.3331,-12.5074,0.00472406,0.00664429,0.00504242,0.0108172,0.000551164,0.879476,0.00703494,0.0198821,1840,624,34.3332,12.5074
623,400,34.3414,-11.4535,0,0,0,0,0,0,0,-1,1847,624,34.3414,11.4535
630,400,11.9432,0.09021,0,0,0,0,0,0,0,-1,1854,624,11.9432,-0.0902007
637,400,6.92896,1.01917,0,0,0,0,0,0,0,-1,1861,624,6.92899,-1.01918
644,400,8.65381,1.4599,0,0,0,0,0,0,0,-1,1868,624,8.65379,-1.45991
651,400,7.90601,0.424072,0,0,0,0,0,0,0,-1,1875,624,7.90598,-0.424097
658,400,8.69031,1.0484,0,0,0,0,0,0,0,-1,1882,624,8.6903,-1.0484
665,400,5.98438,0.522522,0,0,0,0,0,0,0,-1,1889,624,5.98442,-0.522552
672,400,0,0,0,0,0,0,0,0,0,-1,1896,624,0,0
679,400,0,0,0,0,0,0,0,0,0,-1,1903,624,0,0
686,400,0,0,0,0,0,0,0,0,0,-1,1910,624,0,0
693,400,0,0,0,0,0,0,0,0,0,-1,1917,624,0,0
700,400,0,0,0,0,0,0,0,0,0,-1,1924,624,0,0
707,400,0,0,0,0,0,0,0,0,0,-1,1931,624,0,0
714,400,0,0,0,0,0,0,0,0,0,-1,1938,624,0,0
721,400,0,0,0,0,0,0,0,0,0,-1,1945,624,0,0
728,400,0,0,0,0,0,0,0,0,0,-1,1952,624,0,0
735,400,0,0,0,0,0,0,0,0,0,-1,1959,624,0,0
742,400,0,0,0,0,0,0,0,0,0,-1,1966,624,0,0
749,400,0,0,0,0,0,0,0,0,0,-1,1973,624,0,0
756,400,0,0,0,0,0,0,0,0,0,-1,1980,624,0,0
763,400,0,0,0,0,0,0,0,0,0,-1,1987,624,0,0
770,400,0,0,0,0,0,0,0,0,0,-1,1994,624,0,0
777,400,0,0,0,0,0,0,0,0,0,-1,2001,624,0,0
784,400,0,0,0,0,0,0,0,0,0,-1,2008,624,0,0
791,400,0,0,0,0,0,0,0,0,0,-1,2015,624,0,0
798,400,0,0,0,0,0,0,0,0,0,-1,2022,624,0,0
805,400,0,0,0,0,0,0,0,0,0,-1,2029,624,0,0
812,400,0,0,0,0,0,0,0,0,0,-1,2036,624,0,0
-700,393,0,0,0,0,0,0,0,0,0,-1,524,631,0,0
-693,393,0,0,0,0,0,0,0,0,0,-1,531,631,0,0
-686,393,0,0,0,0,0,0,0,0,0,-1,538,631,0,0
-679,393,0,0,0,0,0,0,0,0,0,-1,545,631,0,0
-672,393,0,0,0,0,0,0,0,0,0,-1,552,631,0,0
-665,393,0,0,0,0,0,0,0,0,0,-1,559,631,0,0
-658,393,0,0,0,0,0,0,0,0,0,-1,566,631,0,0
-651,393,0,0,0,0,0,0,0,0,0,-1,573,631,0,0
-644,393,0,0,0,0,0,0,0,0,0,-1,580,631,0,0
-637,393,0,0,0,0,0,0,0,0,0,-1,587,631,0,0
-630,393,0,0,0,0,0,0,0,0,0,-1,594,631,0,0
-623,393,0,0,0,0,0,0,0,0,0,-1,601,631,0,0
-616,393,0,0,0,0,0,0,0,0,0,-1,608,631,0,0
-609,393,0,0,0,0,0,0,0,0,0,-1,615,631,0,0
-602,393,0,0,0,0,0,0,0,0,0,-1,622,631,0,0
-595,393,0,0,0,0,0,0,0,0,0,-1,629,631,0,0
-588,393,0,0,0,0,0,0,0,0,0,-1,636,631,0,0
-581,393,0,0,0,0,0,0,0,0,0,-1,643,631,0,0
-574,393,0,0,0,0,0,0,0,0,0,-1,650,631,0,0
-567,393,0,0,0,0,0,0,0,0,0,-1,657,631,0,0
-560,393,0,0,0,0,0,0,0,0,0,-1,664,631,0,0
-553,393,-2.35107,3.92633,0,0,0,0,0,0,0,-1,671,631,-2.35108,-3.92634
-546,393,-1.78778,2.4856,0,0,0,0,0,0,0,-1,678,631,-1.78778,-2.48557
-539,393,-5.2113,-2.20245,0,0,0,0,0,0,0,-1,685,631,-5.21128,2.20247
-532,393,-2.83643,-2.01624,0,0,0,0,0,0,0,-1,692,631,-2.83642,2.01626
-525,393,-5.9505,-0.952698,0,0,0,0,0,0,0,-1,699,631,-5.95053,0.95268
-518,393,-5.80219,-1.57739,0,0,0,0,0,0,0,-1,706,631,-5.80219,1.57738
-511,393,-6.15527,-2.09906,0,0,0,0,0,0,0,-1,713,631,-6.15526,2.09903
-504,393,-13.6063,-6.95947,0,0,0,0,0,0,0,-1,720,631,-13.6063,6.95946
-497,393,-18.8242,-11.3876,0,0,0,0,0,0,0,-1,727,631,-18.8241,11.3876
-490,393,-18.7712,-12.5068,-0.00202282,0.00137324,0.000916717,0.0016049,-0.00225447,1.32328,0.0022387,0.0290242,734,631,-18.7712,12.5068
-483,393,-18.8275,-13.5539,-0.00173998,0.00116477,0.000680843,0.00131643,-0.00189164,1.35162,0.00186208,0.0223854,741,631,-18.8274,13.5539
-476,393,-18.9194,-14.5477,-0.00128201,0.000957194,0.000403509,0.00102769,-0.0013525,1.39784,0.00137846,0.0177337,748,631,-18.9194,14.5476
-469,393,-18.9622,-15.5818,-0.000618888,0.000700718,9.39629e-05,0.000707375,-0.000625545,1.50007,0.000770045,0.013537,755,631,-18.9622,15.5818
-462,393,-19.0321,-16.6489,0.000160617,0.000421009,-0.000238349,0.000562403,1.92226e-05,-1.03537,0.000368695,0.0159595,762,631,-19.0321,16.6489
-455,393,-19.1045,-17.6728,0.00103,0.000343036,-0.000668772,0.00143834,-6.53046e-05,-0.548164,0.000981385,0.0153043,769,631,-19.1045,17.6728
-448,393,-19.1826,-18.6603,0.00201964,0.000243387,-0.00110808,0.00255159,-0.000288562,-0.447571,0.00180495,0.0150903,776,631,-19.1826,18.6604
-441,393,-19.2579,-19.6027,0.00309829,0.000295656,-0.00163724,0.00385203,-0.000458079,-0.431443,0.00273354,0.0140581,783,631,-19.2579,19.6027
-434,393,-19.3305,-20.56,0.00427206,0.000621314,-0.00230271,0.00538514,-0.00049176,-0.450259,0.00376473,0.01359,790,631,-19.3305,20.56
-427,393,-19.3164,-21.6013,0.00548833,0.00111831,-0.00311117,0.00710512,-0.000498474,-0.47926,0.00491134,0.0272641,797,631,-19.3164,21.6013
-420,393,-19.1664,-22.714,0,0,0,0,0,0,0,-1,804,631,-19.1664,22.714
-413,393,-15.0913,-18.3777,0,0,0,0,0,0,0,-1,811,631,-15.0913,18.3777
-406,393,-11.826,-12.7987,0,0,0,0,0,0,0,-1,818,631,-11.8261,12.7987
-399,393,-5.07343,-5.92365,0,0,0,0,0,0,0,-1,825,631,-5.07344,5.92364
-392,393,-2.08063,-3.02386,0,0,0,0,0,0,0,-1,832,631,-2.08063,3.02384
-385,393,-3.16931,-0.624756,0,0,0,0,0,0,0,-1,839,631,-3.16928,0.624764
-378,393,-7.33081,-0.872314,0,0,0,0,0,0,0,-1,846,631,-7.33081,0.872325
-371,393,-7.47858,-0.811096,0,0,0,0,0,0,0,-1,853,631,-7.47859,0.811075
-364,393,-7.64917,-0.662415,0,0,0,0,0,0,0,-1,860,631,-7.64917,0.662406
-357,393,-8.09686,-0.726013,0,0,0,0,0,0,0,-1,867,631,-8.09689,0.726029
-350,393,-8.38788,-0.511841,0,0,0,0,0,0,0,-1,874,631,-8.38785,0.511811
-343,393,0,0,0,0,0,0,0,0,0,-1,881,631,0,0
-336,393,0,0,0,0,0,0,0,0,0,-1,888,631,0,0
-329,393,0,0,0,0,0,0,0,0,0,-1,895,631,0,0
-322,393,0,0,0,0,0,0,0,0,0,-1,902,631,0,0
-315,393,0,0,0,0,0,0,0,0,0,-1,909,631,0,0
-308,393,0,0,0,0,0,0,0,0,0,-1,916,631,0,0
-301,393,0,0,0,0,0,0,0,0,0,-1,923,631,0,0
-294,393,0,0,0,0,0,0,0,0,0,-1,930,631,0,0
-287,393,0,0,0,0,0,0,0,0,0,-1,937,631,0,0
-280,393,0,0,0,0,0,0,0,0,0,-1,944,631,0,0
-273,393,0,0,0,0,0,0,0,0,0,-1,951,631,0,0
-266,393,0,0,0,0,0,0,0,0,0,-1,958,631,0,0
-259,393,0,0,0,0,0,0,0,0,0,-1,965,631,0,0
-252,393,0,0,0,0,0,0,0,0,0,-1,972,631,0,0
-245,393,0,0,0,0,0,0,0,0,0,-1,979,631,0,0
-238,393,0,0,0,0,0,0,0,0,0,-1,986,631,0,0
-231,393,0,0,0,0,0,0,0,0,0,-1,993,631,0,0
-224,393,0,0,0,0,0,0,0,0,0,-1,1000,631,0,0
-217,393,0,0,0,0,0,0,0,0,0,-1,1007,631,0,0
-210,393,0,0,0,0,0,0,0,0,0,-1,1014,631,0,0
-203,393,0,0,0,0,0,0,0,0,0,-1,1021,631,0,0
-196,393,0,0,0,0,0,0,0,0,0,-1,1028,631,0,0
-189,393,0,0,0,0,0,0,0,0,0,-1,1035,631,0,0
-182,393,0,0,0,0,0,0,0,0,0,-1,1042,631,0,0
-175,393,0,0,0,0,0,0,0,0,0,-1,1049,631,0,0
-168,393,0,0,0,0,0,0,0,0,0,-1,1056,631,0,0
-161,393,0,0,0,0,0,0,0,0,0,-1,1063,631,0,0
-154,393,0,0,0,0,0,0,0,0,0,-1,1070,631,0,0
-147,393,0,0,0,0,0,0,0,0,0,-1,1077,631,0,0
-140,393,0,0,0,0,0,0,0,0,0,-1,1084,631,0,0
-133,393,0,0,0,0,0,0,0,0,0,-1,1091,631,0,0
-126,393,0,0,0,0,0,0,0,0,0,-1,1098,631,0,0
-119,393,0,0,0,0,0,0,0,0,0,-1,1105,631,0,0
-112,393,0,0,0,0,0,0,0,0,0,-1,1112,631,0,0
-105,393,0,0,0,0,0,0,0,0,0,-1,1119,631,0,0
-98,393,0,0,0,0,0,0,0,0,0,-1,1126,631,0,0
-91,393,0,0,0,0,0,0,0,0,0,-1,1133,631,0,0
-84,393,0,0,0,0,0,0,0,0,0,-1,1140,631,0,0
-77,393,0,0,0,0,0,0,0,0,0,-1,1147,631,0,0
-70,393,0,0,0,0,0,0,0,0,0,-1,1154,631,0,0
-63,393,0,0,0,0,0,0,0,0,0,-1,1161,631,0,0
-56,393,0,0,0,0,0,0,0,0,0,-1,1168,631,0,0
-49,393,0,0,0,0,0,0,0,0,0,-1,1175,631,0,0
-42,393,0,0,0,0,0,0,0,0,0,-1,1182,631,0,0
-35,393,0,0,0,0,0,0,0,0,0,-1,1189,631,0,0
-28,393,0,0,0,0,0,0,0,0,0,-1,1196,631,0,0
-21,393,0,0,0,0,0,0,0,0,0,-1,1203,631,0,0
-14,393,0,0,0,0,0,0,0,0,0,-1,1210,631,0,0
-7,393,0,0,0,0,0,0,0,0,0,-1,1217,631,0,0
0,393,0,0,0,0,0,0,0,0,0,-1,1224,631,0,0
7,393,0,0,0,0,0,0,0,0,0,-1,1231,631,0,0
14,393,0,0,0,0,0,0,0,0,0,-1,1238,631,0,0
21,393,0,0,0,0,0,0,0,0,0,-1,1245,631,0,0
28,393,0,0,0,0,0,0,0,0,0,-1,1252,631,0,0
35,393,0,0,0,0,0,0,0,0,0,-1,1259,631,0,0
42,393,0,0,0,0,0,0,0,0,0,-1,1266,631,0,0
49,393,0,0,0,0,0,0,0,0,0,-1,1273,631,0,0
56,393,0,0,0,0,0,0,0,0,0,-1,1280,631,0,0
63,393,0,0,0,0,0,0,0,0,0,-1,1287,631,0,0
70,393,0,0,0,0,0,0,0,0,0,-1,1294,631,0,0
77,393,0,0,0,0,0,0,0,0,0,-1,1301,631,0,0
84,393,0,0,0,0,0,0,0,0,0,-1,1308,631,0,0
91,393,0,0,0,0,0,0,0,0,0,-1,1315,631,0,0
98,393,0,0,0,0,0,0,0,0,0,-1,1322,631,0,0
105,393,0,0,0,0,0,0,0,0,0,-1,1329,631,0,0
112,393,0,0,0,0,0,0,0,0,0,-1,1336,631,0,0
119,393,0,0,0,0,0,0,0,0,0,-1,1343,631,0,0
126,393,0,0,0,0,0,0,0,0,0,-1,1350,631,0,0
133,393,0,0,0,0,0,0,0,0,0,-1,1357,631,0,0
140,393,0,0,0,0,0,0,0,0,0,-1,1364,631,0,0
147,393,0,0,0,0,0,0,0,0,0,-1,1371,631,0,0
154,393,0,0,0,0,0,0,0,0,0,-1,1378,631,0,0
161,393,0,0,0,0,0,0,0,0,0,-1,1385,631,0,0
168,393,0,0,0,0,0,0,0,0,0,-1,1392,631,0,0
175,393,0,0,0,0,0,0,0,0,0,-1,1399,631,0,0
182,393,0,0,0,0,0,0,0,0,0,-1,1406,631,0,0
189,393,0,0,0,0,0,0,0,0,0,-1,1413,631,0,0
196,393,0,0,0,0,0,0,0,0,0,-1,1420,631,0,0
203,393,0,0,0,0,0,0,0,0,0,-1,1427,631,0,0
210,393,0,0,0,0,0,0,0,0,0,-1,1434,631,0,0
217,393,0,0,0,0,0,0,0,0,0,-1,1441,631,0,0
224,393,0,0,0,0,0,0,0,0,0,-1,1448,631,0,0
231,393,0,0,0,0,0,0,0,0,0,-1,1455,631,0,0
238,393,0,0,0,0,0,0,0,0,0,-1,1462,631,0,0
245,393,0,0,0,0,0,0,0,0,0,-1,1469,631,0,0
252,393,0,0,0,0,0,0,0,0,0,-1,1476,631,0,0
259,393,0,0,0,0,0,0,0,0,0,-1,1483,631,0,0
266,393,0,0,0,0,0,0,0,0,0,-1,1490,631,0,0
273,393,0,0,0,0,0,0,0,0,0,-1,1497,631,0,0
280,393,0,0,0,0,0,0,0,0,0,-1,1504,631,0,0
287,393,0,0,0,0,0,0,0,0,0,-1,1511,631,0,0
294,393,0,0,0,0,0,0,0,0,0,-1,1518,631,0,0
301,393,0,0,0,0,0,0,0,0,0,-1,1525,631,0,0
308,393,0,0,0,0,0,0,0,0,0,-1,1532,631,0,0
315,393,0,0,0,0,0,0,0,0,0,-1,1539,631,0,0
322,393,0,0,0,0,0,0,0,0,0,-1,1546,631,0,0
329,393,0,0,0,0,0,0,0,0,0,-1,1553,631,0,0
336,393,0,0,0,0,0,0,0,0,0,-1,1560,631,0,0
343,393,0,0,0,0,0,0,0,0,0,-1,1567,631,0,0
350,393,0,0,0,0,0,0,0,0,0,-1,1574,631,0,0
357,393,0,0,0,0,0,0,0,0,0,-1,1581,631,0,0
364,393,0,0,0,0,0,0,0,0,0,-1,1588,631,0,0
371,393,0,0,0,0,0,0,0,0,0,-1,1595,631,0,0
378,393,0,0,0,0,0,0,0,0,0,-1,1602,631,0,0
385,393,0,0,0,0,0,0,0,0,0,-1,1609,631,0,0
392,393,0,0,0,0,0,0,0,0,0,-1,1616,631,0,0
399,393,0,0,0,0,0,0,0,0,0,-1,1623,631,0,0
406,393,0,0,0,0,0,0,0,0,0,-1,1630,631,0,0
413,393,0,0,0,0,0,0,0,0,0,-1,1637,631,0,0
420,393,0,0,0,0,0,0,0,0,0,-1,1644,631,0,0
427,393,0,0,0,0,0,0,0,0,0,-1,1651,631,0,0
434,393,0,0,0,0,0,0,0,0,0,-1,1658,631,0,0
441,393,0,0,0,0,0,0,0,0,0,-1,1665,631,0,0
448,393,0,0,0,0,0,0,0,0,0,-1,1672,631,0,0
455,393,0,0,0,0,0,0,0,0,0,-1,1679,631,0,0
462,393,8.51099,1.89502,0,0,0,0,0,0,0,-1,1686,631,8.51103,-1.89504
469,393,9.39465,1.51703,0,0,0,0,0,0,0,-1,1693,631,9.39465,-1.51703
476,393,9.95569,1.185,0,0,0,0,0,0,0,-1,1700,631,9.95575,-1.18497
483,393,10.5267,0.887329,0,0,0,0,0,0,0,-1,1707,631,10.5267,-0.887321
490,393,10.9303,0.761414,0,0,0,0,0,0,0,-1,1714,631,10.9303,-0.761386
497,393,8.32153,1.88104,0,0,0,0,0,0,0,-1,1721,631,8.32148,-1.88103
504,393,9.46985,1.78711,0,0,0,0,0,0,0,-1,1728,631,9.46986,-1.78713
511,393,9.66565,-0.375977,0,0,0,0,0,0,0,-1,1735,631,9.66571,0.375949
518,393,7.01599,1.62482,0,0,0,0,0,0,0,-1,1742,631,7.01597,-1.62483
525,393,7.88245,-1.13422,0,0,0,0,0,0,0,-1,1749,631,7.88246,1.13423
532,393,7.06335,-1.18103,0,0,0,0,0,0,0,-1,1756,631,7.06332,1.18101
539,393,9.91626,-2.46301,0,0,0,0,0,0,0,-1,1763,631,9.91625,2.46302
546,393,16.4094,-8.04651,0,0,0,0,0,0,0,-1,1770,631,16.4094,8.04649
553,393,35.8134,-21.6888,0,0,0,0,0,0,0,-1,1777,631,35.8134,21.6888
560,393,35.8733,-20.5358,0.00386849,0.00099413,0.00122376,0.00431892,0.000543697,0.352683,0.00271625,0.0437526,1784,631,35.8733,20.5358
567,393,35.8835,-19.462,0.00277907,0.000602092,0.000708602,0.0029894,0.000391764,0.288538,0.00187603,0.0169536,1791,631,35.8835,19.462
574,393,35.8466,-18.4872,0.00212922,0.000645975,0.000605445,0.00234497,0.000430222,0.342324,0.00144147,0.0167375,1798,631,35.8465,18.4872
581,393,35.7124,-17.4608,0.00175344,0.00092122,0.000720242,0.00216914,0.000505528,0.523453,0.0013105,0.01961,1805,631,35.7124,17.4608
588,393,35.6487,-16.4138,0.00166897,0.00140709,0.00101938,0.00256579,0.000510282,0.721523,0.00156835,0.0235334,1812,631,35.6487,16.4138
595,393,35.61,-15.484,0.0018633,0.00207911,0.00149519,0.00347028,0.000472122,0.82142,0.00217331,0.0202911,1819,631,35.61,15.484
602,393,35.5354,-14.5178,0.00232451,0.0029386,0.0021477,0.00480109,0.00046202,0.856399,0.00305837,0.0213656,1826,631,35.5354,14.5178
609,393,35.4226,-13.499,0.00301972,0.00400566,0.00297342,0.0065267,0.000498679,0.867547,0.0041948,0.0188337,1833,631,35.4227,13.499
616,393,35.3512,-12.4765,0.00395869,0.00535206,0.00394064,0.00865713,0.000653627,0.872892,0.00556635,0.0163514,1840,631,35.3512,12.4765
623,393,35.3414,-11.3472,0.00506888,0.0067927,0.00499094,0.0109956,0.000865968,0.870902,0.00705948,0.0367586,1847,631,35.3414,11.3472
630,393,35.3774,-10.103,0,0,0,0,0,0,0,-1,1854,631,35.3774,10.103
637,393,11.4626,0.608887,0,0,0,0,0,0,0,-1,1861,631,11.4627,-0.608904
644,393,8.97583,1.30585,0,0,0,0,0,0,0,-1,1868,631,8.97586,-1.30584
651,393,11.348,0.53302,0,0,0,0,0,0,0,-1,1875,631,11.348,-0.53305
658,393,9.21338,1.50836,0,0,0,0,0,0,0,-1,1882,631,9.21338,-1.50834
665,393,6.1001,2.32129,0,0,0,0,0,0,0,-1,1889,631,6.10012,-2.3213
672,393,7.14575,2.43225,0,0,0,0,0,0,0,-1,1896,631,7.14572,-2.43222
679,393,0,0,0,0,0,0,0,0,0,-1,1903,631,0,0
686,393,0,0,0,0,0,0,0,0,0,-1,1910,631,0,0
693,393,0,0,0,0,0,0,0,0,0,-1,1917,631,0,0
700,393,0,0,0,0,0,0,0,0,0,-1,1924,631,0,0
707,393,0,0,0,0,0,0,0,0,0,-1,1931,631,0,0
714,393,0,0,0,0,0,0,0,0,0,-1,1938,631,0,0
721,393,0,0,0,0,0,0,0,0,0,-1,1945,631,0,0
728,393,0,0,0,0,0,0,0,0,0,-1,1952,631,0,0
735,393,0,0,0,0,0,0,0,0,0,-1,1959,631,0,0
742,393,0,0,0,0,0,0,0,0,0,-1,1966,631,0,0
749,393,0,0,0,0,0,0,0,0,0,-1,1973,631,0,0
756,393,0,0,0,0,0,0,0,0,0,-1,1980,631,0,0
763,393,0,0,0,0,0,0,0,0,0,-1,1987,631,0,0
770,393,0,0,0,0,0,0,0,0,0,-1,1994,631,0,0
777,393,0,0,0,0,0,0,0,0,0,-1,2001,631,0,0
784,393,0,0,0,0,0,0,0,0,0,-1,2008,631,0,0
791,393,0,0,0,0,0,0,0,0,0,-1,2015,631,0,0
798,393,0,0,0,0,0,0,0,0,0,-1,2022,631,0,0
805,393,0,0,0,0,0,0,0,0,0,-1,2029,631,0,0
812,393,0,0,0,0,0,0,0,0,0,-1,2036,631,0,0
-700,386,0,0,0,0,0,0,0,0,0,-1,524,638,0,0
-693,386,0,0,0,0,0,0,0,0,0,-1,531,638,0,0
-686,386,0,0,0,0,0,0,0,0,0,-1,538,638,0,0
-679,386,0,0,0,0,0,0,0,0,0,-1,545,638,0,0
-672,386,0,0,0,0,0,0,0,0,0,-1,552,638,0,0
-665,386,0,0,0,0,0,0,0,0,0,-1,559,638,0,0
-658,386,0,0,0,0,0,0,0,0,0,-1,566,638,0,0
-651,386,0,0,0,0,0,0,0,0,0,-1,573,638,0,0
-644,386,0,0,0,0,0,0,0,0,0,-1,580,638,0,0
-637,386,0,0,0,0,0,0,0,0,0,-1,587,638,0,0
-630,386,0,0,0,0,0,0,0,0,0,-1,594,638,0,0
-623,386,0,0,0,0,0,0,0,0,0,-1,601,638,0,0
-616,386,0,0,0,0,0,0,0,0,0,-1,608,638,0,0
-609,386,0,0,0,0,0,0,0,0,0,-1,615,638,0,0
-602,386,0,0,0,0,0,0,0,0,0,-1,622,638,0,0
-595,386,0,0,0,0,0,0,0,0,0,-1,629,638,0,0
-588,386,0,0,0,0,0,0,0,0,0,-1,636,638,0,0
-581,386,0,0,0,0,0,0,0,0,0,-1,643,638,0,0
-574,386,0,0,0,0,0,0,0,0,0,-1,650,638,0,0
-567,386,0,0,0,0,0,0,0,0,0,-1,657,638,0,0
-560,386,-3.97229,-5.13898,0,0,0,0,0,0,0,-1,664,638,-3.97232,5.13897
-553,386,-4.94244,-5.54309,0,0,0,0,0,0,0,-1,671,638,-4.94242,5.5431
-546,386,-1.78668,1.72827,0,0,0,0,0,0,0,-1,678,638,-1.78668,-1.72829
-539,386,-0.879456,-2.90009,0,0,0,0,0,0,0,-1,685,638,-0.879442,2.90008
-532,386,-5.4884,1.73328,0,0,0,0,0,0,0,-1,692,638,-5.4884,-1.73325
-525,386,-6.64148,-1.50604,0,0,0,0,0,0,0,-1,699,638,-6.64149,1.50603
-518,386,-11.1217,-4.10382,0,0,0,0,0,0,0,-1,706,638,-11.1217,4.1038
-511,386,-13.0612,-5.05151,0,0,0,0,0,0,0,-1,713,638,-13.0612,5.05149
-504,386,-19.754,-10.3098,0,0,0,0,0,0,0,-1,720,638,-19.754,10.3097
-497,386,-19.7354,-11.4498,0,0,0,0,0,0,0,-1,727,638,-19.7354,11.4499
-490,386,-19.7431,-12.5405,-0.00095706,0.0008746,0.000441735,0.000975566,-0.00105803,1.34609,0.00117442,0.0147999,734,638,-19.7431,12.5406
-483,386,-19.822,-13.5464,-0.000795962,0.000764289,0.000264015,0.000807753,-0.000839427,1.40763,0.000951058,0.0180859,741,638,-19.822,13.5464
-476,386,-19.912,-14.5308,-0.000436773,0.000624672,3.57079e-05,0.000625872,-0.000437973,1.53721,0.000617396,0.0159243,748,638,-19.912,14.5308
-469,386,-19.9743,-15.528,0.000117865,0.000430664,-0.000233288,0.000555128,-6.59889e-06,-1.08069,0.000372304,0.0118449,755,638,-19.9743,15.528
-462,386,-20.0332,-16.5708,0.000805355,0.000213355,-0.000543991,0.00112866,-0.000109952,-0.536237,0.000791642,0.0114425,762,638,-20.0332,16.5708
-455,386,-20.1017,-17.603,0.00163503,0.000193768,-0.000974469,0.00212638,-0.000297583,-0.467021,0.00152648,0.0129249,769,638,-20.1017,17.6031
-448,386,-20.1823,-18.5718,0.00262184,0.000132152,-0.00142415,0.00326851,-0.00051452,-0.426239,0.00236921,0.0141176,776,638,-20.1823,18.5718
-441,386,-20.2693,-19.5358,0.00374533,0.000244029,-0.00200746,0.00465826,-0.000668904,-0.426814,0.0033508,0.0152677,783,638,-20.2693,19.5358
-434,386,-20.2707,-20.5893,0.0050636,0.000723533,-0.00280974,0.00644373,-0.000656603,-0.45658,0.00453058,0.0340194,790,638,-20.2707,20.5893
-427,386,-20.1976,-21.6293,0,0,0,0,0,0,0,-1,797,638,-20.1976,21.6293
-420,386,-14.5338,-16.0451,0,0,0,0,0,0,0,-1,804,638,-14.5338,16.0451
-413,386,-5.45691,-5.35785,0,0,0,0,0,0,0,-1,811,638,-5.45691,5.35783
-406,386,-4.51135,-4.10999,0,0,0,0,0,0,0,-1,818,638,-4.51135,4.10996
-399,386,-3.57117,-3.42126,0,0,0,0,0,0,0,-1,825,638,-3.57116,3.42129
-392,386,-4.00977,0.403625,0,0,0,0,0,0,0,-1,832,638,-4.0098,-0.403616
-385,386,-3.2406,-0.118469,0,0,0,0,0,0,0,-1,839,638,-3.24058,0.118485
-378,386,-2.55243,-1.22748,0,0,0,0,0,0,0,-1,846,638,-2.55243,1.22748
-371,386,-7.95807,-0.330261,0,0,0,0,0,0,0,-1,853,638,-7.95806,0.330284
-364,386,-8.90637,-0.665955,0,0,0,0,0,0,0,-1,860,638,-8.90635,0.665951
-357,386,-9.10364,-0.388733,0,0,0,0,0,0,0,-1,867,638,-9.10364,0.388744
-350,386,0,0,0,0,0,0,0,0,0,-1,874,638,0,0
-343,386,0,0,0,0,0,0,0,0,0,-1,881,638,0,0
-336,386,0,0,0,0,0,0,0,0,0,-1,888,638,0,0
-329,386,0,0,0,0,0,0,0,0,0,-1,895,638,0,0
-322,386,0,0,0,0,0,0,0,0,0,-1,902,638,0,0
-315,386,0,0,0,0,0,0,0,0,0,-1,909,638,0,0
-308,386,0,0,0,0,0,0,0,0,0,-1,916,638,0,0
-301,386,0,0,0,0,0,0,0,0,0,-1,923,638,0,0
-294,386,0,0,0,0,0,0,0,0,0,-1,930,638,0,0
-287,386,0,0,0,0,0,0,0,0,0,-1,937,638,0,0
-280,386,0,0,0,0,0,0,0,0,0,-1,944,638,0,0
-273,386,0,0,0,0,0,0,0,0,0,-1,951,638,0,0
-266,386,0,0,0,0,0,0,0,0,0,-1,958,638,0,0
-259,386,0,0,0,0,0,0,0,0,0,-1,965,638,0,0
-252,386,0,0,0,0,0,0,0,0,0,-1,972,638,0,0
-245,386,0,0,0,0,0,0,0,0,0,-1,979,638,0,0
-238,386,0,0,0,0,0,0,0,0,0,-1,986,638,0,0
-231,386,0,0,0,0,0,0,0,0,0,-1,993,638,0,0
-224,386,0,0,0,0,0,0,0,0,0,-1,1000,638,0,0
-217,386,0,0,0,0,0,0,0,0,0,-1,1007,638,0,0
-210,386,0,0,0,0,0,0,0,0,0,-1,1014,638,0,0
-203,386,0,0,0,0,0,0,0,0,0,-1,1021,638,0,0
-196,386,0,0,0,0,0,0,0,0,0,-1,1028,638,0,0
-189,386,0,0,0,0,0,0,0,0,0,-1,1035,638,0,0
-182,386,0,0,0,0,0,0,0,0,0,-1,1042,638,0,0
-175,386,0,0,0,0,0,0,0,0,0,-1,1049,638,0,0
-168,386,0,0,0,0,0,0,0,0,0,-1,1056,638,0,0
-161,386,0,0,0,0,0,0,0,0,0,-1,1063,638,0,0
-154,386,0,0,0,0,0,0,0,0,0,-1,1070,638,0,0
-147,386,0,0,0,0,0,0,0,0,0,-1,1077,638,0,0
-140,386,0,0,0,0,0,0,0,0,0,-1,1084,638,0,0
-133,386,0,0,0,0,0,0,0,0,0,-1,1091,638,0,0
-126,386,0,0,0,0,0,0,0,0,0,-1,1098,638,0,0
-119,386,0,0,0,0,0,0,0,0,0,-1,1105,638,0,0
-112,386,0,0,0,0,0,0,0,0,0,-1,1112,638,0,0
-105,386,0,0,0,0,0,0,0,0,0,-1,1119,638,0,0
-98,386,0,0,0,0,0,0,0,0,0,-1,1126,638,0,0
-91,386,0,0,0,0,0,0,0,0,0,-1,1133,638,0,0
-84,386,0,0,0,0,0,0,0,0,0,-1,1140,638,0,0
-77,386,0,0,0,0,0,0,0,0,0,-1,1147,638,0,0
-70,386,0,0,0,0,0,0,0,0,0,-1,1154,638,0,0
-63,386,0,0,0,0,0,0,0,0,0,-1,1161,638,0,0
-56,386,0,0,0,0,0,0,0,0,0,-1,1168,638,0,0
-49,386,0,0,0,0,0,0,0,0,0,-1,1175,638,0,0
-42,386,0,0,0,0,0,0,0,0,0,-1,1182,638,0,0
-35,386,0,0,0,0,0,0,0,0,0,-1,1189,638,0,0
-28,386,0,0,0,0,0,0,0,0,0,-1,1196,638,0,0
-21,386,0,0,0,0,0,0,0,0,0,-1,1203,638,0,0
-14,386,0,0,0,0,0,0,0,0,0,-1,1210,638,0,0
-7,386,0,0,0,0,0,0,0,0,0,-1,1217,638,0,0
0,386,0,0,0,0,0,0,0,0,0,-1,1224,638,0,0
7,386,0,0,0,0,0,0,0,0,0,-1,1231,638,0,0
14,386,0,0,0,0,0,0,0,0,0,-1,1238,638,0,0
21,386,0,0,0,0,0,0,0,0,0,-1,1245,638,0,0
28,386,0,0,0,0,0,0,0,0,0,-1,1252,638,0,0
35,386,0,0,0,0,0,0,0,0,0,-1,1259,638,0,0
42,386,0,0,0,0,0,0,0,0,0,-1,1266,638,0,0
49,386,0,0,0,0,0,0,0,0,0,-1,1273,638,0,0
56,386,0,0,0,0,0,0,0,0,0,-1,1280,638,0,0
63,386,0,0,0,0,0,0,0,0,0,-1,1287,638,0,0
70,386,0,0,0,0,0,0,0,0,0,-1,1294,638,0,0
77,386,0,0,0,0,0,0,0,0,0,-1,1301,638,0,0
84,386,0,0,0,0,0,0,0,0,0,-1,1308,638,0,0
91,386,0,0,0,0,0,0,0,0,0,-1,1315,638,0,0
98,386,0,0,0,0,0,0,0,0,0,-1,1322,638,0,0
105,386,0,0,0,0,0,0,0,0,0,-1,1329,638,0,0
112,386,0,0,0,0,0,0,0,0,0,-1,1336,638,0,0
119,386,0,0,0,0,0,0,0,0,0,-1,1343,638,0,0
126,386,0,0,0,0,0,0,0,0,0,-1,1350,638,0,0
133,386,0,0,0,0,0,0,0,0,0,-1,1357,638,0,0
140,386,0,0,0,0,0,0,0,0,0,-1,1364,638,0,0
147,386,0,0,0,0,0,0,0,0,0,-1,1371,638,0,0
154,386,0,0,0,0,0,0,0,0,0,-1,1378,638,0,0
161,386,0,0,0,0,0,0,0,0,0,-1,1385,638,0,0
168,386,0,0,0,0,0,0,0,0,0,-1,1392,638,0,0
175,386,0,0,0,0,0,0,0,0,0,-1,1399,638,0,0
182,386,0,0,0,0,0,0,0,0,0,-1,1406,638,0,0
189,386,0,0,0,0,0,0,0,0,0,-1,1413,638,0,0
196,386,0,0,0,0,0,0,0,0,0,-1,1420,638,0,0
203,386,0,0,0,0,0,0,0,0,0,-1,1427,638,0,0
210,386,0,0,0,0,0,0,0,0,0,-1,1434,638,0,0
217,386,0,0,0,0,0,0,0,0,0,-1,1441,638,0,0
224,386,0,0,0,0,0,0,0,0,0,-1,1448,638,0,0
231,386,0,0,0,0,0,0,0,0,0,-1,1455,638,0,0
238,386,0,0,0,0,0,0,0,0,0,-1,1462,638,0,0
245,386,0,0,0,0,0,0,0,0,0,-1,1469,638,0,0
252,386,0,0,0,0,0,0,0,0,0,-1,1476,638,0,0
259,386,0,0,0,0,0,0,0,0,0,-1,1483,638,0,0
266,386,0,0,0,0,0,0,0,0,0,-1,1490,638,0,0
273,386,0,0,0,0,0,0,0,0,0,-1,1497,638,0,0
280,386,0,0,0,0,0,0,0,0,0,-1,1504,638,0,0
287,386,0,0,0,0,0,0,0,0,0,-1,1511,638,0,0
294,386,0,0,0,0,0,0,0,0,0,-1,1518,638,0,0
301,386,0,0,0,0,0,0,0,0,0,-1,1525,638,0,0
308,386,0,0,0,0,0,0,0,0,0,-1,1532,638,0,0
315,386,0,0,0,0,0,0,0,0,0,-1,1539,638,0,0
322,386,0,0,0,0,0,0,0,0,0,-1,1546,638,0,0
329,386,0,0,0,0,0,0,0,0,0,-1,1553,638,0,0
336,386,0,0,0,0,0,0,0,0,0,-1,1560,638,0,0
343,386,0,0,0,0,0,0,0,0,0,-1,1567,638,0,0
350,386,0,0,0,0,0,0,0,0,0,-1,1574,638,0,0
357,386,0,0,0,0,0,0,0,0,0,-1,1581,638,0,0
364,386,0,0,0,0,0,0,0,0,0,-1,1588,638,0,0
371,386,0,0,0,0,0,0,0,0,0,-1,1595,638,0,0
378,386,0,0,0,0,0,0,0,0,0,-1,1602,638,0,0
385,386,0,0,0,0,0,0,0,0,0,-1,1609,638,0,0
392,386,0,0,0,0,0,0,0,0,0,-1,1616,638,0,0
399,386,0,0,0,0,0,0,0,0,0,-1,1623,638,0,0
406,386,0,0,0,0,0,0,0,0,0,-1,1630,638,0,0
413,386,0,0,0,0,0,0,0,0,0,-1,1637,638,0,0
420,386,0,0,0,0,0,0,0,0,0,-1,1644,638,0,0
427,386,0,0,0,0,0,0,0,0,0,-1,1651,638,0,0
434,386,0,0,0,0,0,0,0,0,0,-1,1658,638,0,0
441,386,0,0,0,0,0,0,0,0,0,-1,1665,638,0,0
448,386,0,0,0,0,0,0,0,0,0,-1,1672,638,0,0
455,386,0,0,0,0,0,0,0,0,0,-1,1679,638,0,0
462,386,0,0,0,0,0,0,0,0,0,-1,1686,638,0,0
469,386,9.84692,1.55804,0,0,0,0,0,0,0,-1,1693,638,9.84691,-1.55807
476,386,10.6145,0.986511,0,0,0,0,0,0,0,-1,1700,638,10.6145,-0.986529
483,386,11.4113,0.732971,0,0,0,0,0,0,0,-1,1707,638,11.4112,-0.732958
490,386,7.79785,1.79572,0,0,0,0,0,0,0,-1,1714,638,7.79788,-1.7957
497,386,8.96362,1.77081,0,0,0,0,0,0,0,-1,1721,638,8.96357,-1.77081
504,386,10.0555,1.69427,0,0,0,0,0,0,0,-1,1728,638,10.0555,-1.69426
511,386,11.2172,1.534,0,0,0,0,0,0,0,-1,1735,638,11.2172,-1.53398
518,386,7.41553,1.75238,0,0,0,0,0,0,0,-1,1742,638,7.41547,-1.75238
525,386,8.82422,-1.1449,0,0,0,0,0,0,0,-1,1749,638,8.82426,1.14492
532,386,10.6432,0.617371,0,0,0,0,0,0,0,-1,1756,638,10.6432,-0.617359
539,386,9.62061,-0.393616,0,0,0,0,0,0,0,-1,1763,638,9.62059,0.393634
546,386,10.7963,-2.854,0,0,0,0,0,0,0,-1,1770,638,10.7962,2.854
553,386,16.9939,-7.27942,0,0,0,0,0,0,0,-1,1777,638,16.9939,7.27944
560,386,36.7277,-20.6673,0,0,0,0,0,0,0,-1,1784,638,36.7276,20.6673
567,386,36.7813,-19.439,0,0,0,0,0,0,0,-1,1791,638,36.7813,19.439
574,386,36.7905,-18.4104,0.00219725,0.000471588,0.00051932,0.00234148,0.000327359,0.2709,0.00146411,0.0159848,1798,638,36.7905,18.4104
581,386,36.7042,-17.434,0.00164762,0.000634322,0.000511888,0.00186119,0.000420746,0.395272,0.00112704,0.0170184,1805,638,36.7043,17.434
588,386,36.6705,-16.4158,0.00147035,0.000983238,0.000706533,0.00197413,0.000479461,0.619417,0.00118894,0.015879,1812,638,36.6705,16.4159
595,386,36.5856,-15.4319,0.00159195,0.00153034,0.00106746,0.00262905,0.000493242,0.770974,0.00161361,0.0174456,1819,638,36.5856,15.4319
602,386,36.5006,-14.4789,0.0019637,0.00223791,0.00158103,0.00368776,0.000513842,0.828649,0.00230639,0.0184354,1826,638,36.5006,14.4789
609,386,36.4738,-13.4753,0.00250848,0.00311471,0.00221479,0.00504703,0.000576155,0.853406,0.00319002,0.0171785,1833,638,36.4738,13.4753
616,386,36.405,-12.4329,0.00322711,0.00420105,0.00291714,0.00667159,0.000756571,0.868102,0.00421821,0.0130938,1840,638,36.4051,12.4329
623,386,36.3132,-11.427,0.0040966,0.00538524,0.00370388,0.00850042,0.000981415,0.871515,0.00536979,0.0111256,1847,638,36.3132,11.427
630,386,36.402,-10.3738,0.00491697,0.00658042,0.00442525,0.0102514,0.00124596,0.87829,0.00645915,0.0376768,1854,638,36.4019,10.3738
637,386,36.5715,-9.30188,0,0,0,0,0,0,0,-1,1861,638,36.5715,9.30186
644,386,11.6521,0.723328,0,0,0,0,0,0,0,-1,1868,638,11.6521,-0.723355
651,386,9.3866,1.31097,0,0,0,0,0,0,0,-1,1875,638,9.3866,-1.31095
658,386,12.0731,-0.00415039,0,0,0,0,0,0,0,-1,1882,638,12.0731,0.00412803
665,386,6.33167,1.78601,0,0,0,0,0,0,0,-1,1889,638,6.33171,-1.78601
672,386,7.23352,2.14435,0,0,0,0,0,0,0,-1,1896,638,7.23353,-2.14433
679,386,8.07764,2.57104,0,0,0,0,0,0,0,-1,1903,638,8.07758,-2.57103
686,386,0,0,0,0,0,0,0,0,0,-1,1910,638,0,0
693,386,0,0,0,0,0,0,0,0,0,-1,1917,638,0,0
700,386,0,0,0,0,0,0,0,0,0,-1,1924,638,0,0
707,386,0,0,0,0,0,0,0,0,0,-1,1931,638,0,0
714,386,0,0,0,0,0,0,0,0,0,-1,1938,638,0,0
721,386,0,0,0,0,0,0,0,0,0,-1,1945,638,0,0
728,386,0,0,0,0,0,0,0,0,0,-1,1952,638,0,0
735,386,0,0,0,0,0,0,0,0,0,-1,1959,638,0,0
742,386,0,0,0,0,0,0,0,0,0,-1,1966,638,0,0
749,386,0,0,0,0,0,0,0,0,0,-1,1973,638,0,0
756,386,0,0,0,0,0,0,0,0,0,-1,1980,638,0,0
763,386,0,0,0,0,0,0,0,0,0,-1,1987,638,0,0
770,386,0,0,0,0,0,0,0,0,0,-1,1994,638,0,0
777,386,0,0,0,0,0,0,0,0,0,-1,2001,638,0,0
784,386,0,0,0,0,0,0,0,0,0,-1,2008,638,0,0
791,386,0,0,0,0,0,0,0,0,0,-1,2015,638,0,0
798,386,0,0,0,0,0,0,0,0,0,-1,2022,638,0,0
805,386,0,0,0,0,0,0,0,0,0,-1,2029,638,0,0
812,386,0,0,0,0,0,0,0,0,0,-1,2036,638,0,0
-700,379,0,0,0,0,0,0,0,0,0,-1,524,645,0,0
-693,379,0,0,0,0,0,0,0,0,0,-1,531,645,0,0
-686,379,0,0,0,0,0,0,0,0,0,-1,538,645,0,0
-679,379,0,0,0,0,0,0,0,0,0,-1,545,645,0,0
-672,379,0,0,0,0,0,0,0,0,0,-1,552,645,0,0
-665,379,0,0,0,0,0,0,0,0,0,-1,559,645,0,0
-658,379,0,0,0,0,0,0,0,0,0,-1,566,645,0,0
-651,379,0,0,0,0,0,0,0,0,0,-1,573,645,0,0
-644,379,0,0,0,0,0,0,0,0,0,-1,580,645,0,0
-637,379,0,0,0,0,0,0,0,0,0,-1,587,645,0,0
-630,379,0,0,0,0,0,0,0,0,0,-1,594,645,0,0
-623,379,0,0,0,0,0,0,0,0,0,-1,601,645,0,0
-616,379,0,0,0,0,0,0,0,0,0,-1,608,645,0,0
-609,379,0,0,0,0,0,0,0,0,0,-1,615,645,0,0
-602,379,0,0,0,0,0,0,0,0,0,-1,622,645,0,0
-595,379,0,0,0,0,0,0,0,0,0,-1,629,645,0,0
-588,379,0,0,0,0,0,0,0,0,0,-1,636,645,0,0
-581,379,0,0,0,0,0,0,0,0,0,-1,643,645,0,0
-574,379,0,0,0,0,0,0,0,0,0,-1,650,645,0,0
-567,379,-8.78058,0.59668,0,0,0,0,0,0,0,-1,657,645,-8.7806,-0.596692
-560,379,-9.53485,-0.211304,0,0,0,0,0,0,0,-1,664,645,-9.53487,0.211282
-553,379,-5.17108,-4.53119,0,0,0,0,0,0,0,-1,671,645,-5.17106,4.53117
-546,379,-6.23053,-4.92102,0,0,0,0,0,0,0,-1,678,645,-6.23054,4.92105
-539,379,-0.71698,-2.19427,0,0,0,0,0,0,0,-1,685,645,-0.716959,2.19427
-532,379,-7.69611,0.217224,0,0,0,0,0,0,0,-1,692,645,-7.69614,-0.217204
-525,379,-7.09833,-1.13043,0,0,0,0,0,0,0,-1,699,645,-7.0983,1.13041
-518,379,-13.126,-5.33893,0,0,0,0,0,0,0,-1,706,645,-13.126,5.33895
-511,379,-20.5217,-9.50543,0,0,0,0,0,0,0,-1,713,645,-20.5216,9.50546
-504,379,-20.5875,-10.4749,0.000185663,0.000321818,0.000243841,0.000506906,5.74597e-07,0.921526,0.000337746,0.0392261,720,645,-20.5875,10.4749
-497,379,-20.7062,-11.4308,-8.43958e-05,0.000553092,0.000169968,0.000595577,-0.000126881,1.32585,0.000445411,0.0161433,727,645,-20.7062,11.4308
-490,379,-20.7627,-12.4755,-0.000169551,0.000557507,0.000104989,0.000572364,-0.000184408,1.43022,0.000455659,0.0112143,734,645,-20.7627,12.4756
-483,379,-20.8252,-13.4922,-9.50938e-05,0.000494261,-2.13702e-05,0.000495035,-9.58677e-05,-1.5346,0.000366186,0.0131656,741,645,-20.8252,13.4923
-476,379,-20.8745,-14.4609,0.00018178,0.000389902,-0.000207563,0.000518029,5.36532e-05,-1.01776,0.00032893,0.0128385,748,645,-20.8745,14.4609
-469,379,-20.9629,-15.4563,0.000668504,0.000241612,-0.000464407,0.000966168,-5.60512e-05,-0.56999,0.000663585,0.0121126,755,645,-20.9629,15.4563
-462,379,-21.0542,-16.4702,0.00130843,7.63366e-05,-0.000785961,0.001691,-0.000306241,-0.453003,0.00124206,0.00940414,762,645,-21.0542,16.4702
-455,379,-21.1302,-17.4797,0.00214175,8.6483e-05,-0.00124554,0.00272886,-0.000500631,-0.440484,0.00200704,0.00957989,769,645,-21.1302,17.4797
-448,379,-21.1709,-18.4685,0.00317612,5.10935e-05,-0.00174298,0.00395442,-0.000727212,-0.41997,0.00290914,0.0127366,776,645,-21.1709,18.4685
-441,379,-21.203,-19.5086,0.00440825,0.000216277,-0.00242145,0.00551485,-0.000890325,-0.42866,0.00400645,0.0245453,783,645,-21.203,19.5086
-434,379,-21.1219,-20.6518,0,0,0,0,0,0,0,-1,790,645,-21.1219,20.6518
-427,379,-4.16113,-4.13452,0,0,0,0,0,0,0,-1,797,645,-4.16116,4.1345
-420,379,-4.63953,-3.46869,0,0,0,0,0,0,0,-1,804,645,-4.63953,3.46872
-413,379,-4.62543,-3.7912,0,0,0,0,0,0,0,-1,811,645,-4.62541,3.79123
-406,379,-4.64063,-4.38489,0,0,0,0,0,0,0,-1,818,645,-4.64065,4.3849
-399,379,-2.93536,-1.40118,0,0,0,0,0,0,0,-1,825,645,-2.93534,1.40119
-392,379,-4.16711,-0.466003,0,0,0,0,0,0,0,-1,832,645,-4.16714,0.465992
-385,379,-3.51862,0.441101,0,0,0,0,0,0,0,-1,839,645,-3.51859,-0.441072
-378,379,-5.3504,0.212219,0,0,0,0,0,0,0,-1,846,645,-5.35038,-0.212241
-371,379,-4.32092,-0.186707,0,0,0,0,0,0,0,-1,853,645,-4.3209,0.186707
-364,379,-3.40887,-0.549805,0,0,0,0,0,0,0,-1,860,645,-3.4089,0.549802
-357,379,0,0,0,0,0,0,0,0,0,-1,867,645,0,0
-350,379,0,0,0,0,0,0,0,0,0,-1,874,645,0,0
-343,379,0,0,0,0,0,0,0,0,0,-1,881,645,0,0
-336,379,0,0,0,0,0,0,0,0,0,-1,888,645,0,0
-329,379,0,0,0,0,0,0,0,0,0,-1,895,645,0,0
-322,379,0,0,0,0,0,0,0,0,0,-1,902,645,0,0
-315,379,0,0,0,0,0,0,0,0,0,-1,909,645,0,0
-308,379,0,0,0,0,0,0,0,0,0,-1,916,645,0,0
-301,379,0,0,0,0,0,0,0,0,0,-1,923,645,0,0
-294,379,0,0,0,0,0,0,0,0,0,-1,930,645,0,0
-287,379,0,0,0,0,0,0,0,0,0,-1,937,645,0,0
-280,379,0,0,0,0,0,0,0,0,0,-1,944,645,0,0
-273,379,0,0,0,0,0,0,0,0,0,-1,951,645,0,0
-266,379,0,0,0,0,0,0,0,0,0,-1,958,645,0,0
-259,379,0,0,0,0,0,0,0,0,0,-1,965,645,0,0
-252,379,0,0,0,0,0,0,0,0,0,-1,972,645,0,0
-245,379,0,0,0,0,0,0,0,0,0,-1,979,645,0,0
-238,379,0,0,0,0,0,0,0,0,0,-1,986,645,0,0
-231,379,0,0,0,0,0,0,0,0,0,-1,993,645,0,0
-224,379,0,0,0,0,0,0,0,0,0,-1,1000,645,0,0
-217,379,0,0,0,0,0,0,0,0,0,-1,1007,645,0,0
-210,379,0,0,0,0,0,0,0,0,0,-1,1014,645,0,0
-203,379,0,0,0,0,0,0,0,0,0,-1,1021,645,0,0
-196,379,0,0,0,0,0,0,0,0,0,-1,1028,645,0,0
-189,379,0,0,0,0,0,0,0,0,0,-1,1035,645,0,0
-182,379,0,0,0,0,0,0,0,0,0,-1,1042,645,0,0
-175,379,0,0,0,0,0,0,0,0,0,-1,1049,645,0,0
-168,379,0,0,0,0,0,0,0,0,0,-1,1056,645,0,0
-161,379,0,0,0,0,0,0,0,0,0,-1,1063,645,0,0
-154,379,0,0,0,0,0,0,0,0,0,-1,1070,645,0,0
-147,379,0,0,0,0,0,0,0,0,0,-1,1077,645,0,0
-140,379,0,0,0,0,0,0,0,0,0,-1,1084,645,0,0
-133,379,0,0,0,0,0,0,0,0,0,-1,1091,645,0,0
-126,379,0,0,0,0,0,0,0,0,0,-1,1098,645,0,0
-119,379,0,0,0,0,0,0,0,0,0,-1,1105,645,0,0
-112,379,0,0,0,0,0,0,0,0,0,-1,1112,645,0,0
-105,379,0,0,0,0,0,0,0,0,0,-1,1119,645,0,0
-98,379,0,0,0,0,0,0,0,0,0,-1,1126,645,0,0
-91,379,0,0,0,0,0,0,0,0,0,-1,1133,645,0,0
-84,379,0,0,0,0,0,0,0,0,0,-1,1140,645,0,0
-77,379,0,0,0,0,0,0,0,0,0,-1,1147,645,0,0
-70,379,0,0,0,0,0,0,0,0,0,-1,1154,645,0,0
-63,379,0,0,0,0,0,0,0,0,0,-1,1161,645,0,0
-56,379,0,0,0,0,0,0,0,0,0,-1,1168,645,0,0
-49,379,0,0,0,0,0,0,0,0,0,-1,1175,645,0,0
-42,379,0,0,0,0,0,0,0,0,0,-1,1182,645,0,0
-35,379,0,0,0,0,0,0,0,0,0,-1,1189,645,0,0
-28,379,0,0,0,0,0,0,0,0,0,-1,1196,645,0,0
-21,379,0,0,0,0,0,0,0,0,0,-1,1203,645,0,0
-14,379,0,0,0,0,0,0,0,0,0,-1,1210,645,0,0
-7,379,0,0,0,0,0,0,0,0,0,-1,1217,645,0,0
0,379,0,0,0,0,0,0,0,0,0,-1,1224,645,0,0
7,379,0,0,0,0,0,0,0,0,0,-1,1231,645,0,0
14,379,0,0,0,0,0,0,0,0,0,-1,1238,645,0,0
21,379,0,0,0,0,0,0,0,0,0,-1,1245,645,0,0
28,379,0,0,0,0,0,0,0,0,0,-1,1252,645,0,0
35,379,0,0,0,0,0,0,0,0,0,-1,1259,645,0,0
42,379,0,0,0,0,0,0,0,0,0,-1,1266,645,0,0
49,379,0,0,0,0,0,0,0,0,0,-1,1273,645,0,0
56,379,0,0,0,0,0,0,0,0,0,-1,1280,645,0,0
63,379,0,0,0,0,0,0,0,0,0,-1,1287,645,0,0
70,379,0,0,0,0,0,0,0,0,0,-1,1294,645,0,0
77,379,0,0,0,0,0,0,0,0,0,-1,1301,645,0,0
84,379,0,0,0,0,0,0,0,0,0,-1,1308,645,0,0
91,379,0,0,0,0,0,0,0,0,0,-1,1315,645,0,0
98,379,0,0,0,0,0,0,0,0,0,-1,1322,645,0,0
105,379,0,0,0,0,0,0,0,0,0,-1,1329,645,0,0
112,379,0,0,0,0,0,0,0,0,0,-1,1336,645,0,0
119,379,0,0,0,0,0,0,0,0,0,-1,1343,645,0,0
126,379,0,0,0,0,0,0,0,0,0,-1,1350,645,0,0
133,379,0,0,0,0,0,0,0,0,0,-1,1357,645,0,0
140,379,0,0,0,0,0,0,0,0,0,-1,1364,645,0,0
147,379,0,0,0,0,0,0,0,0,0,-1,1371,645,0,0
154,379,0,0,0,0,0,0,0,0,0,-1,1378,645,0,0
161,379,0,0,0,0,0,0,0,0,0,-1,1385,645,0,0
168,379,0,0,0,0,0,0,0,0,0,-1,1392,645,0,0
175,379,0,0,0,0,0,0,0,0,0,-1,1399,645,0,0
182,379,0,0,0,0,0,0,0,0,0,-1,1406,645,0,0
189,379,0,0,0,0,0,0,0,0,0,-1,1413,645,0,0
196,379,0,0,0,0,0,0,0,0,0,-1,1420,645,0,0
203,379,0,0,0,0,0,0,0,0,0,-1,1427,645,0,0
210,379,0,0,0,0,0,0,0,0,0,-1,1434,645,0,0
217,379,0,0,0,0,0,0,0,0,0,-1,1441,645,0,0
224,379,0,0,0,0,0,0,0,0,0,-1,1448,645,0,0
231,379,0,0,0,0,0,0,0,0,0,-1,1455,645,0,0
238,379,0,0,0,0,0,0,0,0,0,-1,1462,645,0,0
245,379,0,0,0,0,0,0,0,0,0,-1,1469,645,0,0
252,379,0,0,0,0,0,0,0,0,0,-1,1476,645,0,0
259,379,0,0,0,0,0,0,0,0,0,-1,1483,645,0,0
266,379,0,0,0,0,0,0,0,0,0,-1,1490,645,0,0
273,379,0,0,0,0,0,0,0,0,0,-1,1497,645,0,0
280,379,0,0,0,0,0,0,0,0,0,-1,1504,645,0,0
287,379,0,0,0,0,0,0,0,0,0,-1,1511,645,0,0
294,379,0,0,0,0,0,0,0,0,0,-1,1518,645,0,0
301,379,0,0,0,0,0,0,0,0,0,-1,1525,645,0,0
308,379,0,0,0,0,0,0,0,0,0,-1,1532,645,0,0
315,379,0,0,0,0,0,0,0,0,0,-1,1539,645,0,0
322,379,0,0,0,0,0,0,0,0,0,-1,1546,645,0,0
329,379,0,0,0,0,0,0,0,0,0,-1,1553,645,0,0
336,379,0,0,0,0,0,0,0,0,0,-1,1560,645,0,0
343,379,0,0,0,0,0,0,0,0,0,-1,1567,645,0,0
350,379,0,0,0,0,0,0,0,0,0,-1,1574,645,0,0
357,379,0,0,0,0,0,0,0,0,0,-1,1581,645,0,0
364,379,0,0,0,0,0,0,0,0,0,-1,1588,645,0,0
371,379,0,0,0,0,0,0,0,0,0,-1,1595,645,0,0
378,379,0,0,0,0,0,0,0,0,0,-1,1602,645,0,0
385,379,0,0,0,0,0,0,0,0,0,-1,1609,645,0,0
392,379,0,0,0,0,0,0,0,0,0,-1,1616,645,0,0
399,379,0,0,0,0,0,0,0,0,0,-1,1623,645,0,0
406,379,0,0,0,0,0,0,0,0,0,-1,1630,645,0,0
413,379,0,0,0,0,0,0,0,0,0,-1,1637,645,0,0
420,379,0,0,0,0,0,0,0,0,0,-1,1644,645,0,0
427,379,0,0,0,0,0,0,0,0,0,-1,1651,645,0,0
434,379,0,0,0,0,0,0,0,0,0,-1,1658,645,0,0
441,379,0,0,0,0,0,0,0,0,0,-1,1665,645,0,0
448,379,0,0,0,0,0,0,0,0,0,-1,1672,645,0,0
455,379,0,0,0,0,0,0,0,0,0,-1,1679,645,0,0
462,379,0,0,0,0,0,0,0,0,0,-1,1686,645,0,0
469,379,0,0,0,0,0,0,0,0,0,-1,1693,645,0,0
476,379,11.1787,0.830383,0,0,0,0,0,0,0,-1,1700,645,11.1787,-0.830365
483,379,7.4231,1.54321,0,0,0,0,0,0,0,-1,1707,645,7.42314,-1.54324
490,379,8.52881,1.56677,0,0,0,0,0,0,0,-1,1714,645,8.52878,-1.56677
497,379,9.63599,1.49573,0,0,0,0,0,0,0,-1,1721,645,9.63604,-1.4957
504,379,10.0833,1.35229,0,0,0,0,0,0,0,-1,1728,645,10.0832,-1.35227
511,379,8.14343,1.59912,0,0,0,0,0,0,0,-1,1735,645,8.14347,-1.59912
518,379,12.7955,-0.324097,0,0,0,0,0,0,0,-1,1742,645,12.7955,0.324101
525,379,6.03711,1.10352,0,0,0,0,0,0,0,-1,1749,645,6.03711,-1.10351
532,379,8.70947,0.887817,0,0,0,0,0,0,0,-1,1756,645,8.70953,-0.887808
539,379,9.87097,0.111389,0,0,0,0,0,0,0,-1,1763,645,9.87095,-0.111395
546,379,8.42383,-0.730652,0,0,0,0,0,0,0,-1,1770,645,8.42378,0.730638
553,379,19.2905,-7.67834,0,0,0,0,0,0,0,-1,1777,645,19.2905,7.67837
560,379,22.5734,-10.4749,0,0,0,0,0,0,0,-1,1784,645,22.5734,10.4749
567,379,37.8331,-19.3948,0,0,0,0,0,0,0,-1,1791,645,37.8331,19.3948
574,379,37.7754,-18.3276,0.00222235,0.000319127,0.000396183,0.00230153,0.00023995,0.197252,0.00146095,0.0190758,1798,645,37.7753,18.3275
581,379,37.7166,-17.3531,0.00156374,0.000406864,0.000319165,0.00164595,0.000324654,0.2521,0.00100669,0.0177661,1805,645,37.7166,17.3531
588,379,37.6608,-16.3252,0.00133596,0.000632448,0.000456583,0.00156057,0.000407836,0.45718,0.000934585,0.0192272,1812,645,37.6607,16.3252
595,379,37.5884,-15.3406,0.00140382,0.00107301,0.000738382,0.0019951,0.000481737,0.675212,0.00120211,0.0155834,1819,645,37.5884,15.3406
602,379,37.5372,-14.3826,0.00169232,0.00164901,0.00114067,0.00281154,0.000529789,0.775908,0.00172509,0.0183482,1826,645,37.5373,14.3826
609,379,37.462,-13.4416,0.00209443,0.00235553,0.00162072,0.00385095,0.000599006,0.825587,0.00239276,0.0211791,1833,645,37.462,13.4416
616,379,37.3673,-12.4308,0.00261314,0.00321399,0.00212251,0.00505723,0.000769904,0.855702,0.00314641,0.0160519,1840,645,37.3673,12.4308
623,379,37.3209,-11.3579,0.00328591,0.00414726,0.00271289,0.00646345,0.000969725,0.864117,0.00402485,0.0131242,1847,645,37.321,11.3579
630,379,37.2711,-10.3652,0.00387459,0.00508139,0.00322232,0.00775632,0.00119966,0.877955,0.00482101,0.0148262,1854,645,37.2712,10.3652
637,379,37.231,-9.24554,0.00433235,0.00614259,0.00369411,0.00904085,0.00143409,0.90554,0.00561063,0.045531,1861,645,37.2309,9.24555
644,379,37.3873,-8.00372,0,0,0,0,0,0,0,-1,1868,645,37.3874,8.00373
651,379,12.9515,0.220825,0,0,0,0,0,0,0,-1,1875,645,12.9515,-0.220814
658,379,13.7498,0.37439,0,0,0,0,0,0,0,-1,1882,645,13.7498,-0.374371
665,379,11.9719,0.353333,0,0,0,0,0,0,0,-1,1889,645,11.9719,-0.353321
672,379,7.57605,2.15326,0,0,0,0,0,0,0,-1,1896,645,7.57599,-2.15326
679,379,8.55078,2.50409,0,0,0,0,0,0,0,-1,1903,645,8.55073,-2.50406
686,379,0,0,0,0,0,0,0,0,0,-1,1910,645,0,0
693,379,0,0,0,0,0,0,0,0,0,-1,1917,645,0,0
700,379,0,0,0,0,0,0,0,0,0,-1,1924,645,0,0
707,379,0,0,0,0,0,0,0,0,0,-1,1931,645,0,0
714,379,0,0,0,0,0,0,0,0,0,-1,1938,645,0,0
721,379,0,0,0,0,0,0,0,0,0,-1,1945,645,0,0
728,379,0,0,0,0,0,0,0,0,0,-1,1952,645,0,0
735,379,0,0,0,0,0,0,0,0,0,-1,1959,645,0,0
742,379,0,0,0,0,0,0,0,0,0,-1,1966,645,0,0
749,379,0,0,0,0,0,0,0,0,0,-1,1973,645,0,0
756,379,0,0,0,0,0,0,0,0,0,-1,1980,645,0,0
763,379,0,0,0,0,0,0,0,0,0,-1,1987,645,0,0
770,379,0,0,0,0,0,0,0,0,0,-1,1994,645,0,0
777,379,0,0,0,0,0,0,0,0,0,-1,2001,645,0,0
784,379,0,0,0,0,0,0,0,0,0,-1,2008,645,0,0
791,379,0,0,0,0,0,0,0,0,0,-1,2015,645,0,0
798,379,0,0,0,0,0,0,0,0,0,-1,2022,645,0,0
805,379,0,0,0,0,0,0,0,0,0,-1,2029,645,0,0
812,379,0,0,0,0,0,0,0,0,0,-1,2036,645,0,0
-700,372,0,0,0,0,0,0,0,0,0,-1,524,652,0,0
-693,372,0,0,0,0,0,0,0,0,0,-1,531,652,0,0
-686,372,0,0,0,0,0,0,0,0,0,-1,538,652,0,0
-679,372,0,0,0,0,0,0,0,0,0,-1,545,652,0,0
-672,372,0,0,0,0,0,0,0,0,0,-1,552,652,0,0
-665,372,0,0,0,0,0,0,0,0,0,-1,559,652,0,0
-658,372,0,0,0,0,0,0,0,0,0,-1,566,652,0,0
-651,372,0,0,0,0,0,0,0,0,0,-1,573,652,0,0
-644,372,0,0,0,0,0,0,0,0,0,-1,580,652,0,0
-637,372,0,0,0,0,0,0,0,0,0,-1,587,652,0,0
-630,372,0,0,0,0,0,0,0,0,0,-1,594,652,0,0
-623,372,0,0,0,0,0,0,0,0,0,-1,601,652,0,0
-616,372,0,0,0,0,0,0,0,0,0,-1,608,652,0,0
-609,372,0,0,0,0,0,0,0,0,0,-1,615,652,0,0
-602,372,0,0,0,0,0,0,0,0,0,-1,622,652,0,0
-595,372,0,0,0,0,0,0,0,0,0,-1,629,652,0,0
-588,372,0,0,0,0,0,0,0,0,0,-1,636,652,0,0
-581,372,0,0,0,0,0,0,0,0,0,-1,643,652,0,0
-574,372,0,0,0,0,0,0,0,0,0,-1,650,652,0,0
-567,372,-7.93744,0.73407,0,0,0,0,0,0,0,-1,657,652,-7.93741,-0.734076
-560,372,-8.78552,-0.158203,0,0,0,0,0,0,0,-1,664,652,-8.78552,0.158216
-553,372,-7.95551,1.61694,0,0,0,0,0,0,0,-1,671,652,-7.95552,-1.61697
-546,372,-4.2403,-3.75372,0,0,0,0,0,0,0,-1,678,652,-4.24028,3.75369
-539,372,-7.92285,-0.0650024,0,0,0,0,0,0,0,-1,685,652,-7.92287,0.0649772
-532,372,-8.59589,-0.419556,0,0,0,0,0,0,0,-1,692,652,-8.59591,0.419539
-525,372,-8.03674,-1.36804,0,0,0,0,0,0,0,-1,699,652,-8.03676,1.36806
-518,372,-21.5797,-8.25787,0,0,0,0,0,0,0,-1,706,652,-21.5797,8.25789
-511,372,-21.5718,-9.3952,0.00129098,-6.47155e-05,-0.000455537,0.00142983,-0.000203563,-0.295855,0.00102781,0.0414741,713,652,-21.5718,9.39521
-504,372,-21.6421,-10.3369,0.000878122,0.000195414,-0.00029979,0.000991077,8.24586e-05,-0.36033,0.000635019,0.0196524,720,652,-21.6421,10.3369
-497,372,-21.6824,-11.3738,0.000619843,0.000289487,-0.000223948,0.000732939,0.000176391,-0.467649,0.000441729,0.0122576,727,652,-21.6824,11.3738
-490,372,-21.77,-12.3864,0.000501334,0.000269857,-0.000199698,0.000616409,0.000154782,-0.522768,0.00037029,0.0132238,734,652,-21.77,12.3864
-483,372,-21.8371,-13.3911,0.000533534,0.000223945,-0.000262013,0.000683062,7.44172e-05,-0.518589,0.000432707,0.012755,741,652,-21.8371,13.3911
-476,372,-21.8869,-14.3559,0.000735084,0.000168228,-0.000400714,0.000942475,-3.91627e-05,-0.477591,0.000641769,0.0135194,748,652,-21.8869,14.3559
-469,372,-21.9894,-15.3318,0.00112547,9.68789e-05,-0.000634786,0.00142815,-0.000205804,-0.444938,0.00102759,0.0118636,755,652,-21.9894,15.3319
-462,372,-22.0582,-16.3531,0.00167109,3.07831e-05,-0.000954309,0.00210925,-0.000407379,-0.43043,0.00155979,0.0108112,762,652,-22.0582,16.3531
-455,372,-22.1359,-17.3559,0.00244108,0.000105682,-0.00142926,0.00311901,-0.000572238,-0.442889,0.002294,0.0108802,769,652,-22.1358,17.3559
-448,372,-22.174,-18.3781,0.00341626,0.000157051,-0.00196646,0.00434059,-0.000767281,-0.4394,0.00318049,0.0170454,776,652,-22.174,18.3781
-441,372,-22.1465,-19.5266,0,0,0,0,0,0,0,-1,783,652,-22.1466,19.5266
-434,372,-9.86865,-9.68494,0,0,0,0,0,0,0,-1,790,652,-9.86863,9.68492
-427,372,-4.54248,-3.56268,0,0,0,0,0,0,0,-1,797,652,-4.54247,3.56266
-420,372,-4.66168,-2.93597,0,0,0,0,0,0,0,-1,804,652,-4.66166,2.93599
-413,372,-4.74762,-3.29541,0,0,0,0,0,0,0,-1,811,652,-4.74763,3.29542
-406,372,-0.885437,-0.583923,0,0,0,0,0,0,0,-1,818,652,-0.885437,0.5839
-399,372,-3.97357,-0.825012,0,0,0,0,0,0,0,-1,825,652,-3.97359,0.825037
-392,372,-7.64337,0.173035,0,0,0,0,0,0,0,-1,832,652,-7.64337,-0.173019
-385,372,-6.48871,-0.0271606,0,0,0,0,0,0,0,-1,839,652,-6.48874,0.0271353
-378,372,-5.33044,-0.242432,0,0,0,0,0,0,0,-1,846,652,-5.33042,0.242457
-371,372,-4.40802,-0.495667,0,0,0,0,0,0,0,-1,853,652,-4.40802,0.495661
-364,372,0,0,0,0,0,0,0,0,0,-1,860,652,0,0
-357,372,0,0,0,0,0,0,0,0,0,-1,867,652,0,0
-350,372,0,0,0,0,0,0,0,0,0,-1,874,652,0,0
-343,372,0,0,0,0,0,0,0,0,0,-1,881,652,0,0
-336,372,0,0,0,0,0,0,0,0,0,-1,888,652,0,0
-329,372,0,0,0,0,0,0,0,0,0,-1,895,652,0,0
-322,372,0,0,0,0,0,0,0,0,0,-1,902,652,0,0
-315,372,0,0,0,0,0,0,0,0,0,-1,909,652,0,0
-308,372,0,0,0,0,0,0,0,0,0,-1,916,652,0,0
-301,372,0,0,0,0,0,0,0,0,0,-1,923,652,0,0
-294,372,0,0,0,0,0,0,0,0,0,-1,930,652,0,0
-287,372,0,0,0,0,0,0,0,0,0,-1,937,652,0,0
-280,372,0,0,0,0,0,0,0,0,0,-1,944,652,0,0
-273,372,0,0,0,0,0,0,0,0,0,-1,951,652,0,0
-266,372,0,0,0,0,0,0,0,0,0,-1,958,652,0,0
-259,372,0,0,0,0,0,0,0,0,0,-1,965,652,0,0
-252,372,0,0,0,0,0,0,0,0,0,-1,972,652,0,0
-245,372,0,0,0,0,0,0,0,0,0,-1,979,652,0,0
-238,372,0,0,0,0,0,0,0,0,0,-1,986,652,0,0
-231,372,0,0,0,0,0,0,0,0,0,-1,993,652,0,0
-224,372,0,0,0,0,0,0,0,0,0,-1,1000,652,0,0
-217,372,0,0,0,0,0,0,0,0,0,-1,1007,652,0,0
-210,372,0,0,0,0,0,0,0,0,0,-1,1014,652,0,0
-203,372,0,0,0,0,0,0,0,0,0,-1,1021,652,0,0
-196,372,0,0,0,0,0,0,0,0,0,-1,1028,652,0,0
-189,372,0,0,0,0,0,0,0,0,0,-1,1035,652,0,0
-182,372,0,0,0,0,0,0,0,0,0,-1,1042,652,0,0
-175,372,0,0,0,0,0,0,0,0,0,-1,1049,652,0,0
-168,372,0,0,0,0,0,0,0,0,0,-1,1056,652,0,0
-161,372,0,0,0,0,0,0,0,0,0,-1,1063,652,0,0
-154,372,0,0,0,0,0,0,0,0,0,-1,1070,652,0,0
-147,372,0,0,0,0,0,0,0,0,0,-1,1077,652,0,0
-140,372,0,0,0,0,0,0,0,0,0,-1,1084,652,0,0
-133,372,0,0,0,0,0,0,0,0,0,-1,1091,652,0,0
-126,372,0,0,0,0,0,0,0,0,0,-1,1098,652,0,0
-119,372,0,0,0,0,0,0,0,0,0,-1,1105,652,0,0
-112,372,0,0,0,0,0,0,0,0,0,-1,1112,652,0,0
-105,372,0,0,0,0,0,0,0,0,0,-1,1119,652,0,0
-98,372,0,0,0,0,0,0,0,0,0,-1,1126,652,0,0
-91,372,0,0,0,0,0,0,0,0,0,-1,1133,652,0,0
-84,372,0,0,0,0,0,0,0,0,0,-1,1140,652,0,0
-77,372,0,0,0,0,0,0,0,0,0,-1,1147,652,0,0
-70,372,0,0,0,0,0,0,0,0,0,-1,1154,652,0,0
-63,372,0,0,0,0,0,0,0,0,0,-1,1161,652,0,0
-56,372,0,0,0,0,0,0,0,0,0,-1,1168,652,0,0
-49,372,0,0,0,0,0,0,0,0,0,-1,1175,652,0,0
-42,372,0,0,0,0,0,0,0,0,0,-1,1182,652,0,0
-35,372,0,0,0,0,0,0,0,0,0,-1,1189,652,0,0
-28,372,0,0,0,0,0,0,0,0,0,-1,1196,652,0,0
-21,372,0,0,0,0,0,0,0,0,0,-1,1203,652,0,0
-14,372,0,0,0,0,0,0,0,0,0,-1,1210,652,0,0
-7,372,0,0,0,0,0,0,0,0,0,-1,1217,652,0,0
0,372,0,0,0,0,0,0,0,0,0,-1,1224,652,0,0
7,372,0,0,0,0,0,0,0,0,0,-1,1231,652,0,0
14,372,0,0,0,0,0,0,0,0,0,-1,1238,652,0,0
21,372,0,0,0,0,0,0,0,0,0,-1,1245,652,0,0
28,372,0,0,0,0,0,0,0,0,0,-1,1252,652,0,0
35,372,0,0,0,0,0,0,0,0,0,-1,1259,652,0,0
42,372,0,0,0,0,0,0,0,0,0,-1,1266,652,0,0
49,372,0,0,0,0,0,0,0,0,0,-1,1273,652,0,0
56,372,0,0,0,0,0,0,0,0,0,-1,1280,652,0,0
63,372,0,0,0,0,0,0,0,0,0,-1,1287,652,0,0
70,372,0,0,0,0,0,0,0,0,0,-1,1294,652,0,0
77,372,0,0,0,0,0,0,0,0,0,-1,1301,652,0,0
84,372,0,0,0,0,0,0,0,0,0,-1,1308,652,0,0
91,372,0,0,0,0,0,0,0,0,0,-1,1315,652,0,0
98,372,0,0,0,0,0,0,0,0,0,-1,1322,652,0,0
105,372,0,0,0,0,0,0,0,0,0,-1,1329,652,0,0
112,372,0,0,0,0,0,0,0,0,0,-1,1336,652,0,0
119,372,0,0,0,0,0,0,0,0,0,-1,1343,652,0,0
126,372,0,0,0,0,0,0,0,0,0,-1,1350,652,0,0
133,372,0,0,0,0,0,0,0,0,0,-1,1357,652,0,0
140,372,0,0,0,0,0,0,0,0,0,-1,1364,652,0,0
147,372,0,0,0,0,0,0,0,0,0,-1,1371,652,0,0
154,372,0,0,0,0,0,0,0,0,0,-1,1378,652,0,0
161,372,0,0,0,0,0,0,0,0,0,-1,1385,652,0,0
168,372,0,0,0,0,0,0,0,0,0,-1,1392,652,0,0
175,372,0,0,0,0,0,0,0,0,0,-1,1399,652,0,0
182,372,0,0,0,0,0,0,0,0,0,-1,1406,652,0,0
189,372,0,0,0,0,0,0,0,0,0,-1,1413,652,0,0
196,372,0,0,0,0,0,0,0,0,0,-1,1420,652,0,0
203,372,0,0,0,0,0,0,0,0,0,-1,1427,652,0,0
210,372,0,0,0,0,0,0,0,0,0,-1,1434,652,0,0
217,372,0,0,0,0,0,0,0,0,0,-1,1441,652,0,0
224,372,0,0,0,0,0,0,0,0,0,-1,1448,652,0,0
231,372,0,0,0,0,0,0,0,0,0,-1,1455,652,0,0
238,372,0,0,0,0,0,0,0,0,0,-1,1462,652,0,0
245,372,0,0,0,0,0,0,0,0,0,-1,1469,652,0,0
252,372,0,0,0,0,0,0,0,0,0,-1,1476,652,0,0
259,372,0,0,0,0,0,0,0,0,0,-1,1483,652,0,0
266,372,0,0,0,0,0,0,0,0,0,-1,1490,652,0,0
273,372,0,0,0,0,0,0,0,0,0,-1,1497,652,0,0
280,372,0,0,0,0,0,0,0,0,0,-1,1504,652,0,0
287,372,0,0,0,0,0,0,0,0,0,-1,1511,652,0,0
294,372,0,0,0,0,0,0,0,0,0,-1,1518,652,0,0
301,372,0,0,0,0,0,0,0,0,0,-1,1525,652,0,0
308,372,0,0,0,0,0,0,0,0,0,-1,1532,652,0,0
315,372,0,0,0,0,0,0,0,0,0,-1,1539,652,0,0
322,372,0,0,0,0,0,0,0,0,0,-1,1546,652,0,0
329,372,0,0,0,0,0,0,0,0,0,-1,1553,652,0,0
336,372,0,0,0,0,0,0,0,0,0,-1,1560,652,0,0
343,372,0,0,0,0,0,0,0,0,0,-1,1567,652,0,0
350,372,0,0,0,0,0,0,0,0,0,-1,1574,652,0,0
357,372,0,0,0,0,0,0,0,0,0,-1,1581,652,0,0
364,372,0,0,0,0,0,0,0,0,0,-1,1588,652,0,0
371,372,0,0,0,0,0,0,0,0,0,-1,1595,652,0,0
378,372,0,0,0,0,0,0,0,0,0,-1,1602,652,0,0
385,372,0,0,0,0,0,0,0,0,0,-1,1609,652,0,0
392,372,0,0,0,0,0,0,0,0,0,-1,1616,652,0,0
399,372,0,0,0,0,0,0,0,0,0,-1,1623,652,0,0
406,372,0,0,0,0,0,0,0,0,0,-1,1630,652,0,0
413,372,0,0,0,0,0,0,0,0,0,-1,1637,652,0,0
420,372,0,0,0,0,0,0,0,0,0,-1,1644,652,0,0
427,372,0,0,0,0,0,0,0,0,0,-1,1651,652,0,0
434,372,0,0,0,0,0,0,0,0,0,-1,1658,652,0,0
441,372,0,0,0,0,0,0,0,0,0,-1,1665,652,0,0
448,372,0,0,0,0,0,0,0,0,0,-1,1672,652,0,0
455,372,0,0,0,0,0,0,0,0,0,-1,1679,652,0,0
462,372,0,0,0,0,0,0,0,0,0,-1,1686,652,0,0
469,372,0,0,0,0,0,0,0,0,0,-1,1693,652,0,0
476,372,0,0,0,0,0,0,0,0,0,-1,1700,652,0,0
483,372,8.74182,1.53125,0,0,0,0,0,0,0,-1,1707,652,8.74186,-1.53126
490,372,9.78455,1.67096,0,0,0,0,0,0,0,-1,1714,652,9.7846,-1.67093
497,372,9.97644,1.46069,0,0,0,0,0,0,0,-1,1721,652,9.97647,-1.46071
504,372,10.1216,1.28375,0,0,0,0,0,0,0,-1,1728,652,10.1216,-1.28376
511,372,11.7367,-0.0272217,0,0,0,0,0,0,0,-1,1735,652,11.7367,0.0272326
518,372,12.0657,-0.0995483,0,0,0,0,0,0,0,-1,1742,652,12.0657,0.0995285
525,372,12.3947,-0.171814,0,0,0,0,0,0,0,-1,1749,652,12.3946,0.171824
532,372,9.36597,1.72034,0,0,0,0,0,0,0,-1,1756,652,9.36597,-1.72036
539,372,7.82886,-0.0865479,0,0,0,0,0,0,0,-1,1763,652,7.82882,0.0865771
546,372,10.953,-0.187195,0,0,0,0,0,0,0,-1,1770,652,10.953,0.187181
553,372,14.1201,-4.83234,0,0,0,0,0,0,0,-1,1777,652,14.1201,4.83235
560,372,20.1057,-8.06934,0,0,0,0,0,0,0,-1,1784,652,20.1058,8.06936
567,372,38.9037,-19.4625,0,0,0,0,0,0,0,-1,1791,652,38.9037,19.4625
574,372,38.8093,-18.1829,0.00241549,0.000216609,0.000329544,0.00246382,0.000168283,0.145608,0.00158942,0.0449309,1798,652,38.8093,18.1829
581,372,38.7344,-17.2808,0.00164742,0.000219648,0.00021922,0.00168033,0.000186747,0.148969,0.00106345,0.0238822,1805,652,38.7343,17.2808
588,372,38.6555,-16.2905,0.00138782,0.000308006,0.000329615,0.00148048,0.000215342,0.274054,0.000923613,0.0171728,1812,652,38.6555,16.2905
595,372,38.5789,-15.3012,0.00140323,0.000643542,0.000544988,0.00168769,0.000359087,0.481051,0.00102658,0.0145891,1819,652,38.5789,15.3012
602,372,38.5797,-14.3386,0.00159414,0.00109917,0.000843115,0.00222535,0.00046797,0.642639,0.00135479,0.0197021,1826,652,38.5797,14.3386
609,372,38.4204,-13.3719,0.00184347,0.00165666,0.00118733,0.00294106,0.00055907,0.746146,0.00180347,0.0222258,1833,652,38.4204,13.3719
616,372,38.3425,-12.3387,0.0021489,0.002323,0.0015211,0.00375954,0.000712357,0.81398,0.00230588,0.0200258,1840,652,38.3425,12.3387
623,372,38.3126,-11.2656,0.00258401,0.00306113,0.00194101,0.00477818,0.00086696,0.846544,0.0029394,0.0137348,1847,652,38.3127,11.2656
630,372,38.2784,-10.2635,0.00290589,0.00380791,0.00228494,0.00568592,0.00102787,0.882837,0.00349869,0.017793,1854,652,38.2785,10.2635
637,372,38.2668,-9.30115,0.00308963,0.00461323,0.00257661,0.00653829,0.00116457,0.929133,0.0040272,0.0280329,1861,652,38.2668,9.30115
644,372,38.3793,-8.29645,0,0,0,0,0,0,0,-1,1868,652,38.3792,8.29646
651,372,21.3998,-0.888,0,0,0,0,0,0,0,-1,1875,652,21.3998,0.887992
658,372,14.157,0.280273,0,0,0,0,0,0,0,-1,1882,652,14.157,-0.280264
665,372,15.2286,0.463867,0,0,0,0,0,0,0,-1,1889,652,15.2287,-0.463854
672,372,9.34106,1.48444,0,0,0,0,0,0,0,-1,1896,652,9.34109,-1.48444
679,372,10.7308,2.32391,0,0,0,0,0,0,0,-1,1903,652,10.7309,-2.3239
686,372,11.6295,2.52997,0,0,0,0,0,0,0,-1,1910,652,11.6296,-2.52996
693,372,0,0,0,0,0,0,0,0,0,-1,1917,652,0,0
700,372,0,0,0,0,0,0,0,0,0,-1,1924,652,0,0
707,372,0,0,0,0,0,0,0,0,0,-1,1931,652,0,0
714,372,0,0,0,0,0,0,0,0,0,-1,1938,652,0,0
721,372,0,0,0,0,0,0,0,0,0,-1,1945,652,0,0
728,372,0,0,0,0,0,0,0,0,0,-1,1952,652,0,0
735,372,0,0,0,0,0,0,0,0,0,-1,1959,652,0,0
742,372,0,0,0,0,0,0,0,0,0,-1,1966,652,0,0
749,372,0,0,0,0,0,0,0,0,0,-1,1973,652,0,0
756,372,0,0,0,0,0,0,0,0,0,-1,1980,652,0,0
763,372,0,0,0,0,0,0,0,0,0,-1,1987,652,0,0
770,372,0,0,0,0,0,0,0,0,0,-1,1994,652,0,0
777,372,0,0,0,0,0,0,0,0,0,-1,2001,652,0,0
784,372,0,0,0,0,0,0,0,0,0,-1,2008,652,0,0
791,372,0,0,0,0,0,0,0,0,0,-1,2015,652,0,0
798,372,0,0,0,0,0,0,0,0,0,-1,2022,652,0,0
805,372,0,0,0,0,0,0,0,0,0,-1,2029,652,0,0
812,372,0,0,0,0,0,0,0,0,0,-1,2036,652,0,0
-700,365,0,0,0,0,0,0,0,0,0,-1,524,659,0,0
-693,365,0,0,0,0,0,0,0,0,0,-1,531,659,0,0
-686,365,0,0,0,0,0,0,0,0,0,-1,538,659,0,0
-679,365,0,0,0,0,0,0,0,0,0,-1,545,659,0,0
-672,365,0,0,0,0,0,0,0,0,0,-1,552,659,0,0
-665,365,0,0,0,0,0,0,0,0,0,-1,559,659,0,0
-658,365,0,0,0,0,0,0,0,0,0,-1,566,659,0,0
-651,365,0,0,0,0,0,0,0,0,0,-1,573,659,0,0
-644,365,0,0,0,0,0,0,0,0,0,-1,580,659,0,0
-637,365,0,0,0,0,0,0,0,0,0,-1,587,659,0,0
-630,365,0,0,0,0,0,0,0,0,0,-1,594,659,0,0
-623,365,0,0,0,0,0,0,0,0,0,-1,601,659,0,0
-616,365,0,0,0,0,0,0,0,0,0,-1,608,659,0,0
-609,365,0,0,0,0,0,0,0,0,0,-1,615,659,0,0
-602,365,0,0,0,0,0,0,0,0,0,-1,622,659,0,0
-595,365,0,0,0,0,0,0,0,0,0,-1,629,659,0,0
-588,365,0,0,0,0,0,0,0,0,0,-1,636,659,0,0
-581,365,0,0,0,0,0,0,0,0,0,-1,643,659,0,0
-574,365,-7.69281,1.59015,0,0,0,0,0,0,0,-1,650,659,-7.69282,-1.59018
-567,365,-8.2583,1.72638,0,0,0,0,0,0,0,-1,657,659,-8.25827,-1.72637
-560,365,-7.17767,0.275757,0,0,0,0,0,0,0,-1,664,659,-7.17768,-0.27577
-553,365,-10.0349,-0.169617,0,0,0,0,0,0,0,-1,671,659,-10.0349,0.169593
-546,365,-10.6303,-1.51642,0,0,0,0,0,0,0,-1,678,659,-10.6303,1.5164
-539,365,-8.38599,1.52936,0,0,0,0,0,0,0,-1,685,659,-8.38598,-1.52935
-532,365,-8.52863,0.166504,0,0,0,0,0,0,0,-1,692,659,-8.52863,-0.166501
-525,365,-9.28229,-2.62726,0,0,0,0,0,0,0,-1,699,659,-9.28227,2.62724
-518,365,-22.5687,-8.12402,0,0,0,0,0,0,0,-1,706,659,-22.5687,8.124
-511,365,-22.5862,-9.24829,0.00188554,9.73801e-05,-0.000928351,0.00228034,-0.000297421,-0.4021,0.00162845,0.0370136,713,659,-22.5862,9.24827
-504,365,-22.6153,-10.2696,0.00146695,0.000157014,-0.000694559,0.00176665,-0.000142689,-0.407364,0.0012281,0.0121002,720,659,-22.6153,10.2696
-497,365,-22.6921,-11.307,0.00117579,0.000153587,-0.000542907,0.00141032,-8.09468e-05,-0.407782,0.000968327,0.0135095,727,659,-22.6921,11.307
-490,365,-22.7816,-12.3292,0.000997214,0.000120004,-0.00046354,0.00119677,-7.95476e-05,-0.406515,0.000825638,0.0148967,734,659,-22.7816,12.3292
-483,365,-22.8519,-13.3182,0.000957386,9.7887e-05,-0.000476413,0.00116924,-0.000113966,-0.418424,0.000820126,0.0125605,741,659,-22.8519,13.3182
-476,365,-22.8445,-14.311,0.00105928,9.43685e-05,-0.000566854,0.00132119,-0.000167546,-0.432829,0.000941626,0.0189674,748,659,-22.8445,14.311
-469,365,-22.9519,-15.3068,0.00133453,0.000103739,-0.000760444,0.00169739,-0.000259122,-0.445218,0.00122712,0.0199529,755,659,-22.9519,15.3068
-462,365,-23.0761,-16.2844,0.00177862,0.000147761,-0.00104876,0.00229166,-0.000365279,-0.454958,0.00166296,0.016252,762,659,-23.0761,16.2844
-455,365,-23.1223,-17.2617,0.00249265,0.000263303,-0.00148038,0.00323109,-0.000475138,-0.462701,0.00232865,0.0195779,769,659,-23.1223,17.2617
-448,365,-23.1689,-18.3836,0,0,0,0,0,0,0,-1,776,659,-23.1689,18.3836
-441,365,-16.9571,-15.1896,0,0,0,0,0,0,0,-1,783,659,-16.9571,15.1896
-434,365,-5.45056,-3.98041,0,0,0,0,0,0,0,-1,790,659,-5.45055,3.98042
-427,365,-5.05377,-4.74689,0,0,0,0,0,0,0,-1,797,659,-5.05376,4.7469
-420,365,-4.58813,-3.16376,0,0,0,0,0,0,0,-1,804,659,-4.58816,3.16374
-413,365,0.141357,0.672729,0,0,0,0,0,0,0,-1,811,659,0.141365,-0.672714
-406,365,-1.75067,-0.934448,0,0,0,0,0,0,0,-1,818,659,-1.7507,0.934424
-399,365,-4.10242,-1.25439,0,0,0,0,0,0,0,-1,825,659,-4.10244,1.25438
-392,365,-7.46545,-0.779724,0,0,0,0,0,0,0,-1,832,659,-7.46543,0.779744
-385,365,-6.27875,-0.887573,0,0,0,0,0,0,0,-1,839,659,-6.27874,0.887545
-378,365,-5.34503,-0.263306,0,0,0,0,0,0,0,-1,846,659,-5.34504,0.263275
-371,365,0,0,0,0,0,0,0,0,0,-1,853,659,0,0
-364,365,0,0,0,0,0,0,0,0,0,-1,860,659,0,0
-357,365,0,0,0,0,0,0,0,0,0,-1,867,659,0,0
-350,365,0,0,0,0,0,0,0,0,0,-1,874,659,0,0
-343,365,0,0,0,0,0,0,0,0,0,-1,881,659,0,0
-336,365,0,0,0,0,0,0,0,0,0,-1,888,659,0,0
-329,365,0,0,0,0,0,0,0,0,0,-1,895,659,0,0
-322,365,0,0,0,0,0,0,0,0,0,-1,902,659,0,0
-315,365,0,0,0,0,0,0,0,0,0,-1,909,659,0,0
-308,365,0,0,0,0,0,0,0,0,0,-1,916,659,0,0
-301,365,0,0,0,0,0,0,0,0,0,-1,923,659,0,0
-294,365,0,0,0,0,0,0,0,0,0,-1,930,659,0,0
-287,365,0,0,0,0,0,0,0,0,0,-1,937,659,0,0
-280,365,0,0,0,0,0,0,0,0,0,-1,944,659,0,0
-273,365,0,0,0,0,0,0,0,0,0,-1,951,659,0,0
-266,365,0,0,0,0,0,0,0,0,0,-1,958,659,0,0
-259,365,0,0,0,0,0,0,0,0,0,-1,965,659,0,0
-252,365,0,0,0,0,0,0,0,0,0,-1,972,659,0,0
-245,365,0,0,0,0,0,0,0,0,0,-1,979,659,0,0
-238,365,0,0,0,0,0,0,0,0,0,-1,986,659,0,0
-231,365,0,0,0,0,0,0,0,0,0,-1,993,659,0,0
-224,365,0,0,0,0,0,0,0,0,0,-1,1000,659,0,0
-217,365,0,0,0,0,0,0,0,0,0,-1,1007,659,0,0
-210,365,0,0,0,0,0,0,0,0,0,-1,1014,659,0,0
-203,365,0,0,0,0,0,0,0,0,0,-1,1021,659,0,0
-196,365,0,0,0,0,0,0,0,0,0,-1,1028,659,0,0
-189,365,0,0,0,0,0,0,0,0,0,-1,1035,659,0,0
-182,365,0,0,0,0,0,0,0,0,0,-1,1042,659,0,0
-175,365,0,0,0,0,0,0,0,0,0,-1,1049,659,0,0
-168,365,0,0,0,0,0,0,0,0,0,-1,1056,659,0,0
-161,365,0,0,0,0,0,0,0,0,0,-1,1063,659,0,0
-154,365,0,0,0,0,0,0,0,0,0,-1,1070,659,0,0
-147,365,0,0,0,0,0,0,0,0,0,-1,1077,659,0,0
-140,365,0,0,0,0,0,0,0,0,0,-1,1084,659,0,0
-133,365,0,0,0,0,0,0,0,0,0,-1,1091,659,0,0
-126,365,0,0,0,0,0,0,0,0,0,-1,1098,659,0,0
-119,365,0,0,0,0,0,0,0,0,0,-1,1105,659,0,0
-112,365,0,0,0,0,0,0,0,0,0,-1,1112,659,0,0
-105,365,0,0,0,0,0,0,0,0,0,-1,1119,659,0,0
-98,365,0,0,0,0,0,0,0,0,0,-1,1126,659,0,0
-91,365,0,0,0,0,0,0,0,0,0,-1,1133,659,0,0
-84,365,0,0,0,0,0,0,0,0,0,-1,1140,659,0,0
-77,365,0,0,0,0,0,0,0,0,0,-1,1147,659,0,0
-70,365,0,0,0,0,0,0,0,0,0,-1,1154,659,0,0
-63,365,0,0,0,0,0,0,0,0,0,-1,1161,659,0,0
-56,365,0,0,0,0,0,0,0,0,0,-1,1168,659,0,0
-49,365,0,0,0,0,0,0,0,0,0,-1,1175,659,0,0
-42,365,0,0,0,0,0,0,0,0,0,-1,1182,659,0,0
-35,365,0,0,0,0,0,0,0,0,0,-1,1189,659,0,0
-28,365,0,0,0,0,0,0,0,0,0,-1,1196,659,0,0
-21,365,0,0,0,0,0,0,0,0,0,-1,1203,659,0,0
-14,365,0,0,0,0,0,0,0,0,0,-1,1210,659,0,0
-7,365,0,0,0,0,0,0,0,0,0,-1,1217,659,0,0
0,365,0,0,0,0,0,0,0,0,0,-1,1224,659,0,0
7,365,0,0,0,0,0,0,0,0,0,-1,1231,659,0,0
14,365,0,0,0,0,0,0,0,0,0,-1,1238,659,0,0
21,365,0,0,0,0,0,0,0,0,0,-1,1245,659,0,0
28,365,0,0,0,0,0,0,0,0,0,-1,1252,659,0,0
35,365,0,0,0,0,0,0,0,0,0,-1,1259,659,0,0
42,365,0,0,0,0,0,0,0,0,0,-1,1266,659,0,0
49,365,0,0,0,0,0,0,0,0,0,-1,1273,659,0,0
56,365,0,0,0,0,0,0,0,0,0,-1,1280,659,0,0
63,365,0,0,0,0,0,0,0,0,0,-1,1287,659,0,0
70,365,0,0,0,0,0,0,0,0,0,-1,1294,659,0,0
77,365,0,0,0,0,0,0,0,0,0,-1,1301,659,0,0
84,365,0,0,0,0,0,0,0,0,0,-1,1308,659,0,0
91,365,0,0,0,0,0,0,0,0,0,-1,1315,659,0,0
98,365,0,0,0,0,0,0,0,0,0,-1,1322,659,0,0
105,365,0,0,0,0,0,0,0,0,0,-1,1329,659,0,0
112,365,0,0,0,0,0,0,0,0,0,-1,1336,659,0,0
119,365,0,0,0,0,0,0,0,0,0,-1,1343,659,0,0
126,365,0,0,0,0,0,0,0,0,0,-1,1350,659,0,0
133,365,0,0,0,0,0,0,0,0,0,-1,1357,659,0,0
140,365,0,0,0,0,0,0,0,0,0,-1,1364,659,0,0
147,365,0,0,0,0,0,0,0,0,0,-1,1371,659,0,0
154,365,0,0,0,0,0,0,0,0,0,-1,1378,659,0,0
161,365,0,0,0,0,0,0,0,0,0,-1,1385,659,0,0
168,365,0,0,0,0,0,0,0,0,0,-1,1392,659,0,0
175,365,0,0,0,0,0,0,0,0,0,-1,1399,659,0,0
182,365,0,0,0,0,0,0,0,0,0,-1,1406,659,0,0
189,365,0,0,0,0,0,0,0,0,0,-1,1413,659,0,0
196,365,0,0,0,0,0,0,0,0,0,-1,1420,659,0,0
203,365,0,0,0,0,0,0,0,0,0,-1,1427,659,0,0
210,365,0,0,0,0,0,0,0,0,0,-1,1434,659,0,0
217,365,0,0,0,0,0,0,0,0,0,-1,1441,659,0,0
224,365,0,0,0,0,0,0,0,0,0,-1,1448,659,0,0
231,365,0,0,0,0,0,0,0,0,0,-1,1455,659,0,0
238,365,0,0,0,0,0,0,0,0,0,-1,1462,659,0,0
245,365,0,0,0,0,0,0,0,0,0,-1,1469,659,0,0
252,365,0,0,0,0,0,0,0,0,0,-1,1476,659,0,0
259,365,0,0,0,0,0,0,0,0,0,-1,1483,659,0,0
266,365,0,0,0,0,0,0,0,0,0,-1,1490,659,0,0
273,365,0,0,0,0,0,0,0,0,0,-1,1497,659,0,0
280,365,0,0,0,0,0,0,0,0,0,-1,1504,659,0,0
287,365,0,0,0,0,0,0,0,0,0,-1,1511,659,0,0
294,365,0,0,0,0,0,0,0,0,0,-1,1518,659,0,0
301,365,0,0,0,0,0,0,0,0,0,-1,1525,659,0,0
308,365,0,0,0,0,0,0,0,0,0,-1,1532,659,0,0
315,365,0,0,0,0,0,0,0,0,0,-1,1539,659,0,0
322,365,0,0,0,0,0,0,0,0,0,-1,1546,659,0,0
329,365,0,0,0,0,0,0,0,0,0,-1,1553,659,0,0
336,365,0,0,0,0,0,0,0,0,0,-1,1560,659,0,0
343,365,0,0,0,0,0,0,0,0,0,-1,1567,659,0,0
350,365,0,0,0,0,0,0,0,0,0,-1,1574,659,0,0
357,365,0,0,0,0,0,0,0,0,0,-1,1581,659,0,0
364,365,0,0,0,0,0,0,0,0,0,-1,1588,659,0,0
371,365,0,0,0,0,0,0,0,0,0,-1,1595,659,0,0
378,365,0,0,0,0,0,0,0,0,0,-1,1602,659,0,0
385,365,0,0,0,0,0,0,0,0,0,-1,1609,659,0,0
392,365,0,0,0,0,0,0,0,0,0,-1,1616,659,0,0
399,365,0,0,0,0,0,0,0,0,0,-1,1623,659,0,0
406,365,0,0,0,0,0,0,0,0,0,-1,1630,659,0,0
413,365,0,0,0,0,0,0,0,0,0,-1,1637,659,0,0
420,365,0,0,0,0,0,0,0,0,0,-1,1644,659,0,0
427,365,0,0,0,0,0,0,0,0,0,-1,1651,659,0,0
434,365,0,0,0,0,0,0,0,0,0,-1,1658,659,0,0
441,365,0,0,0,0,0,0,0,0,0,-1,1665,659,0,0
448,365,0,0,0,0,0,0,0,0,0,-1,1672,659,0,0
455,365,0,0,0,0,0,0,0,0,0,-1,1679,659,0,0
462,365,0,0,0,0,0,0,0,0,0,-1,1686,659,0,0
469,365,0,0,0,0,0,0,0,0,0,-1,1693,659,0,0
476,365,0,0,0,0,0,0,0,0,0,-1,1700,659,0,0
483,365,0,0,0,0,0,0,0,0,0,-1,1707,659,0,0
490,365,8.39551,0.471252,0,0,0,0,0,0,0,-1,1714,659,8.39551,-0.471241
497,365,9.89233,1.35394,0,0,0,0,0,0,0,-1,1721,659,9.89237,-1.35396
504,365,10.1414,1.18005,0,0,0,0,0,0,0,-1,1728,659,10.1413,-1.18004
511,365,10.5151,0.993896,0,0,0,0,0,0,0,-1,1735,659,10.5152,-0.993894
518,365,11.2029,0.398132,0,0,0,0,0,0,0,-1,1742,659,11.2029,-0.398136
525,365,15.5748,3.85303,0,0,0,0,0,0,0,-1,1749,659,15.5748,-3.85303
532,365,11.2446,1.00629,0,0,0,0,0,0,0,-1,1756,659,11.2446,-1.00631
539,365,12.6301,1.03204,0,0,0,0,0,0,0,-1,1763,659,12.6302,-1.03204
546,365,11.647,0.84198,0,0,0,0,0,0,0,-1,1770,659,11.6469,-0.841955
553,365,12.028,-0.558899,0,0,0,0,0,0,0,-1,1777,659,12.028,0.558873
560,365,14.5372,-4.55548,0,0,0,0,0,0,0,-1,1784,659,14.5373,4.55547
567,365,20.5676,-7.53888,0,0,0,0,0,0,0,-1,1791,659,20.5676,7.53887
574,365,40.0825,-18.0778,0,0,0,0,0,0,0,-1,1798,659,40.0825,18.0778
581,365,39.7418,-17.1923,0,0,0,0,0,0,0,-1,1805,659,39.7418,17.1923
588,365,39.6245,-16.325,0.00136764,4.60891e-05,0.000248735,0.00141291,8.24162e-07,0.180011,0.000941663,0.0222974,1812,659,39.6246,16.325
595,365,39.5923,-15.2466,0.0013457,0.000315137,0.000414972,0.00149202,0.000168816,0.338993,0.000943454,0.0137945,1819,659,39.5922,15.2466
602,365,39.5181,-14.2159,0.00147095,0.000675409,0.000631078,0.00181916,0.000327204,0.504195,0.00111975,0.018448,1826,659,39.5181,14.216
609,365,39.3795,-13.2184,0.00162902,0.00110755,0.000877619,0.00228382,0.000452755,0.641005,0.00139631,0.0219118,1833,659,39.3796,13.2185
616,365,39.3507,-12.1964,0.00180308,0.00161118,0.00109691,0.00280823,0.00060603,0.741772,0.0017064,0.0222918,1840,659,39.3507,12.1963
623,365,39.3236,-11.1845,0.00209005,0.0021793,0.00138526,0.00352066,0.000748701,0.8015,0.00214161,0.0119994,1847,659,39.3236,11.1845
630,365,39.2615,-10.201,0.00226096,0.00276482,0.00161638,0.00414878,0.000876999,0.862706,0.00252481,0.0157139,1854,659,39.2615,10.2011
637,365,39.203,-9.24176,0.00230152,0.00336564,0.00177936,0.00469078,0.000976374,0.930676,0.00285788,0.0223088,1861,659,39.203,9.24175
644,365,39.1344,-8.23743,0.00222865,0.00412178,0.00193798,0.005332,0.00101843,1.01257,0.00326852,0.0271127,1868,659,39.1344,8.23741
651,365,39.2701,-7.0415,0,0,0,0,0,0,0,-1,1875,659,39.2702,7.04151
658,365,24.745,-2.13275,0,0,0,0,0,0,0,-1,1882,659,24.745,2.13277
665,365,14.0961,0.769043,0,0,0,0,0,0,0,-1,1889,659,14.0961,-0.769063
672,365,10.0579,2.15088,0,0,0,0,0,0,0,-1,1896,659,10.0579,-2.15088
679,365,10.9718,2.19208,0,0,0,0,0,0,0,-1,1903,659,10.9718,-2.19211
686,365,12.2134,2.17108,0,0,0,0,0,0,0,-1,1910,659,12.2134,-2.17109
693,365,13.7141,1.98279,0,0,0,0,0,0,0,-1,1917,659,13.7141,-1.98278
700,365,0,0,0,0,0,0,0,0,0,-1,1924,659,0,0
707,365,0,0,0,0,0,0,0,0,0,-1,1931,659,0,0
714,365,0,0,0,0,0,0,0,0,0,-1,1938,659,0,0
721,365,0,0,0,0,0,0,0,0,0,-1,1945,659,0,0
728,365,0,0,0,0,0,0,0,0,0,-1,1952,659,0,0
735,365,0,0,0,0,0,0,0,0,0,-1,1959,659,0,0
742,365,0,0,0,0,0,0,0,0,0,-1,1966,659,0,0
749,365,0,0,0,0,0,0,0,0,0,-1,1973,659,0,0
756,365,0,0,0,0,0,0,0,0,0,-1,1980,659,0,0
763,365,0,0,0,0,0,0,0,0,0,-1,1987,659,0,0
770,365,0,0,0,0,0,0,0,0,0,-1,1994,659,0,0
777,365,0,0,0,0,0,0,0,0,0,-1,2001,659,0,0
784,365,0,0,0,0,0,0,0,0,0,-1,2008,659,0,0
791,365,0,0,0,0,0,0,0,0,0,-1,2015,659,0,0
798,365,0,0,0,0,0,0,0,0,0,-1,2022,659,0,0
805,365,0,0,0,0,0,0,0,0,0,-1,2029,659,0,0
812,365,0,0,0,0,0,0,0,0,0,-1,2036,659,0,0
-700,358,0,0,0,0,0,0,0,0,0,-1,524,666,0,0
-693,358,0,0,0,0,0,0,0,0,0,-1,531,666,0,0
-686,358,0,0,0,0,0,0,0,0,0,-1,538,666,0,0
-679,358,0,0,0,0,0,0,0,0,0,-1,545,666,0,0
-672,358,0,0,0,0,0,0,0,0,0,-1,552,666,0,0
-665,358,0,0,0,0,0,0,0,0,0,-1,559,666,0,0
-658,358,0,0,0,0,0,0,0,0,0,-1,566,666,0,0
-651,358,0,0,0,0,0,0,0,0,0,-1,573,666,0,0
-644,358,0,0,0,0,0,0,0,0,0,-1,580,666,0,0
-637,358,0,0,0,0,0,0,0,0,0,-1,587,666,0,0
-630,358,0,0,0,0,0,0,0,0,0,-1,594,666,0,0
-623,358,0,0,0,0,0,0,0,0,0,-1,601,666,0,0
-616,358,0,0,0,0,0,0,0,0,0,-1,608,666,0,0
-609,358,0,0,0,0,0,0,0,0,0,-1,615,666,0,0
-602,358,0,0,0,0,0,0,0,0,0,-1,622,666,0,0
-595,358,0,0,0,0,0,0,0,0,0,-1,629,666,0,0
-588,358,0,0,0,0,0,0,0,0,0,-1,636,666,0,0
-581,358,-8.31616,1.61993,0,0,0,0,0,0,0,-1,643,666,-8.31614,-1.61993
-574,358,-8.22406,1.75385,0,0,0,0,0,0,0,-1,650,666,-8.22408,-1.75383
-567,358,-8.14215,1.91577,0,0,0,0,0,0,0,-1,657,666,-8.14214,-1.91579
-560,358,-10.6086,2.18872,0,0,0,0,0,0,0,-1,664,666,-10.6086,-2.18873
-553,358,-13.4767,1.09552,0,0,0,0,0,0,0,-1,671,666,-13.4767,-1.09551
-546,358,-13.3743,-0.185059,0,0,0,0,0,0,0,-1,678,666,-13.3743,0.185037
-539,358,-9.43884,-2.04785,0,0,0,0,0,0,0,-1,685,666,-9.43884,2.04785
-532,358,-12.4141,-2.36572,0,0,0,0,0,0,0,-1,692,666,-12.4141,2.3657
-525,358,-12.731,-3.88031,0,0,0,0,0,0,0,-1,699,666,-12.731,3.88029
-518,358,-23.5242,-8.1673,0,0,0,0,0,0,0,-1,706,666,-23.5242,8.1673
-511,358,-23.577,-9.16028,0.00229035,0.000322008,-0.00116405,0.00283052,-0.000218156,-0.434468,0.00196377,0.017414,713,666,-23.5769,9.1603
-504,358,-23.6413,-10.1637,0.00177184,0.000237017,-0.000836996,0.00213998,-0.000131125,-0.414371,0.00147231,0.0120487,720,666,-23.6413,10.1637
-497,358,-23.7001,-11.2202,0.00141262,0.00015797,-0.000618409,0.00166618,-9.55948e-05,-0.38912,0.00114399,0.0118905,727,666,-23.7001,11.2202
-490,358,-23.7636,-12.2463,0.001171,0.000109131,-0.000498733,0.00136851,-8.83761e-05,-0.377068,0.000943177,0.0116566,734,666,-23.7636,12.2463
-483,358,-23.8491,-13.2336,0.00110466,0.000114536,-0.000507132,0.00131831,-9.91112e-05,-0.398721,0.000913702,0.01063,741,666,-23.849,13.2336
-476,358,-23.8392,-14.2028,0.00118761,0.000157946,-0.000612313,0.00147277,-0.000127208,-0.435833,0.00102688,0.0151973,748,666,-23.8392,14.2028
-469,358,-23.9601,-15.2101,0.00144776,0.00023525,-0.000836043,0.00187423,-0.000191216,-0.471695,0.00131786,0.0197564,755,666,-23.9601,15.2101
-462,358,-24.0973,-16.2364,0.00188854,0.000381171,-0.00116293,0.00252066,-0.000250943,-0.497881,0.00177003,0.0198996,762,666,-24.0973,16.2364
-455,358,-24.0855,-17.2788,0,0,0,0,0,0,0,-1,769,666,-24.0855,17.2788
-448,358,-17.7847,-14.434,0,0,0,0,0,0,0,-1,776,666,-17.7847,14.434
-441,358,-5.56293,-3.98041,0,0,0,0,0,0,0,-1,783,666,-5.56291,3.98043
-434,358,-5.21558,-4.43127,0,0,0,0,0,0,0,-1,790,666,-5.21559,4.43125
-427,358,-3.56189,-3.15729,0,0,0,0,0,0,0,-1,797,666,-3.56192,3.15729
-420,358,0.200195,1.08234,0,0,0,0,0,0,0,-1,804,666,0.200174,-1.08231
-413,358,0.0325317,0.161072,0,0,0,0,0,0,0,-1,811,666,0.0325501,-0.161098
-406,358,-3.85846,0.753113,0,0,0,0,0,0,0,-1,818,666,-3.85846,-0.753129
-399,358,-1.31213,0.190735,0,0,0,0,0,0,0,-1,825,666,-1.31215,-0.190763
-392,358,-3.73914,-0.832214,0,0,0,0,0,0,0,-1,832,666,-3.73915,0.832202
-385,358,-5.95178,-1.69141,0,0,0,0,0,0,0,-1,839,666,-5.9518,1.69143
-378,358,0,0,0,0,0,0,0,0,0,-1,846,666,0,0
-371,358,0,0,0,0,0,0,0,0,0,-1,853,666,0,0
-364,358,0,0,0,0,0,0,0,0,0,-1,860,666,0,0
-357,358,0,0,0,0,0,0,0,0,0,-1,867,666,0,0
-350,358,0,0,0,0,0,0,0,0,0,-1,874,666,0,0
-343,358,0,0,0,0,0,0,0,0,0,-1,881,666,0,0
-336,358,0,0,0,0,0,0,0,0,0,-1,888,666,0,0
-329,358,0,0,0,0,0,0,0,0,0,-1,895,666,0,0
-322,358,0,0,0,0,0,0,0,0,0,-1,902,666,0,0
-315,358,0,0,0,0,0,0,0,0,0,-1,909,666,0,0
-308,358,0,0,0,0,0,0,0,0,0,-1,916,666,0,0
-301,358,0,0,0,0,0,0,0,0,0,-1,923,666,0,0
-294,358,0,0,0,0,0,0,0,0,0,-1,930,666,0,0
-287,358,0,0,0,0,0,0,0,0,0,-1,937,666,0,0
-280,358,0,0,0,0,0,0,0,0,0,-1,944,666,0,0
-273,358,0,0,0,0,0,0,0,0,0,-1,951,666,0,0
-266,358,0,0,0,0,0,0,0,0,0,-1,958,666,0,0
-259,358,0,0,0,0,0,0,0,0,0,-1,965,666,0,0
-252,358,0,0,0,0,0,0,0,0,0,-1,972,666,0,0
-245,358,0,0,0,0,0,0,0,0,0,-1,979,666,0,0
-238,358,0,0,0,0,0,0,0,0,0,-1,986,666,0,0
-231,358,0,0,0,0,0,0,0,0,0,-1,993,666,0,0
-224,358,0,0,0,0,0,0,0,0,0,-1,1000,666,0,0
-217,358,0,0,0,0,0,0,0,0,0,-1,1007,666,0,0
-210,358,0,0,0,0,0,0,0,0,0,-1,1014,666,0,0
-203,358,0,0,0,0,0,0,0,0,0,-1,1021,666,0,0
-196,358,0,0,0,0,0,0,0,0,0,-1,1028,666,0,0
-189,358,0,0,0,0,0,0,0,0,0,-1,1035,666,0,0
-182,358,0,0,0,0,0,0,0,0,0,-1,1042,666,0,0
-175,358,0,0,0,0,0,0,0,0,0,-1,1049,666,0,0
-168,358,0,0,0,0,0,0,0,0,0,-1,1056,666,0,0
-161,358,0,0,0,0,0,0,0,0,0,-1,1063,666,0,0
-154,358,0,0,0,0,0,0,0,0,0,-1,1070,666,0,0
-147,358,0,0,0,0,0,0,0,0,0,-1,1077,666,0,0
-140,358,0,0,0,0,0,0,0,0,0,-1,1084,666,0,0
-133,358,0,0,0,0,0,0,0,0,0,-1,1091,666,0,0
-126,358,0,0,0,0,0,0,0,0,0,-1,1098,666,0,0
-119,358,0,0,0,0,0,0,0,0,0,-1,1105,666,0,0
-112,358,0,0,0,0,0,0,0,0,0,-1,1112,666,0,0
-105,358,0,0,0,0,0,0,0,0,0,-1,1119,666,0,0
-98,358,0,0,0,0,0,0,0,0,0,-1,1126,666,0,0
-91,358,0,0,0,0,0,0,0,0,0,-1,1133,666,0,0
-84,358,0,0,0,0,0,0,0,0,0,-1,1140,666,0,0
-77,358,0,0,0,0,0,0,0,0,0,-1,1147,666,0,0
-70,358,0,0,0,0,0,0,0,0,0,-1,1154,666,0,0
-63,358,0,0,0,0,0,0,0,0,0,-1,1161,666,0,0
-56,358,0,0,0,0,0,0,0,0,0,-1,1168,666,0,0
-49,358,0,0,0,0,0,0,0,0,0,-1,1175,666,0,0
-42,358,0,0,0,0,0,0,0,0,0,-1,1182,666,0,0
-35,358,0,0,0,0,0,0,0,0,0,-1,1189,666,0,0
-28,358,0,0,0,0,0,0,0,0,0,-1,1196,666,0,0
-21,358,0,0,0,0,0,0,0,0,0,-1,1203,666,0,0
-14,358,0,0,0,0,0,0,0,0,0,-1,1210,666,0,0
-7,358,0,0,0,0,0,0,0,0,0,-1,1217,666,0,0
0,358,0,0,0,0,0,0,0,0,0,-1,1224,666,0,0
7,358,0,0,0,0,0,0,0,0,0,-1,1231,666,0,0
14,358,0,0,0,0,0,0,0,0,0,-1,1238,666,0,0
21,358,0,0,0,0,0,0,0,0,0,-1,1245,666,0,0
28,358,0,0,0,0,0,0,0,0,0,-1,1252,666,0,0
35,358,0,0,0,0,0,0,0,0,0,-1,1259,666,0,0
42,358,0,0,0,0,0,0,0,0,0,-1,1266,666,0,0
49,358,0,0,0,0,0,0,0,0,0,-1,1273,666,0,0
56,358,0,0,0,0,0,0,0,0,0,-1,1280,666,0,0
63,358,0,0,0,0,0,0,0,0,0,-1,1287,666,0,0
70,358,0,0,0,0,0,0,0,0,0,-1,1294,666,0,0
77,358,0,0,0,0,0,0,0,0,0,-1,1301,666,0,0
84,358,0,0,0,0,0,0,0,0,0,-1,1308,666,0,0
91,358,0,0,0,0,0,0,0,0,0,-1,1315,666,0,0
98,358,0,0,0,0,0,0,0,0,0,-1,1322,666,0,0
105,358,0,0,0,0,0,0,0,0,0,-1,1329,666,0,0
112,358,0,0,0,0,0,0,0,0,0,-1,1336,666,0,0
119,358,0,0,0,0,0,0,0,0,0,-1,1343,666,0,0
126,358,0,0,0,0,0,0,0,0,0,-1,1350,666,0,0
133,358,0,0,0,0,0,0,0,0,0,-1,1357,666,0,0
140,358,0,0,0,0,0,0,0,0,0,-1,1364,666,0,0
147,358,0,0,0,0,0,0,0,0,0,-1,1371,666,0,0
154,358,0,0,0,0,0,0,0,0,0,-1,1378,666,0,0
161,358,0,0,0,0,0,0,0,0,0,-1,1385,666,0,0
168,358,0,0,0,0,0,0,0,0,0,-1,1392,666,0,0
175,358,0,0,0,0,0,0,0,0,0,-1,1399,666,0,0
182,358,0,0,0,0,0,0,0,0,0,-1,1406,666,0,0
189,358,0,0,0,0,0,0,0,0,0,-1,1413,666,0,0
196,358,0,0,0,0,0,0,0,0,0,-1,1420,666,0,0
203,358,0,0,0,0,0,0,0,0,0,-1,1427,666,0,0
210,358,0,0,0,0,0,0,0,0,0,-1,1434,666,0,0
217,358,0,0,0,0,0,0,0,0,0,-1,1441,666,0,0
224,358,0,0,0,0,0,0,0,0,0,-1,1448,666,0,0
231,358,0,0,0,0,0,0,0,0,0,-1,1455,666,0,0
238,358,0,0,0,0,0,0,0,0,0,-1,1462,666,0,0
245,358,0,0,0,0,0,0,0,0,0,-1,1469,666,0,0
252,358,0,0,0,0,0,0,0,0,0,-1,1476,666,0,0
259,358,0,0,0,0,0,0,0,0,0,-1,1483,666,0,0
266,358,0,0,0,0,0,0,0,0,0,-1,1490,666,0,0
273,358,0,0,0,0,0,0,0,0,0,-1,1497,666,0,0
280,358,0,0,0,0,0,0,0,0,0,-1,1504,666,0,0
287,358,0,0,0,0,0,0,0,0,0,-1,1511,666,0,0
294,358,0,0,0,0,0,0,0,0,0,-1,1518,666,0,0
301,358,0,0,0,0,0,0,0,0,0,-1,1525,666,0,0
308,358,0,0,0,0,0,0,0,0,0,-1,1532,666,0,0
315,358,0,0,0,0,0,0,0,0,0,-1,1539,666,0,0
322,358,0,0,0,0,0,0,0,0,0,-1,1546,666,0,0
329,358,0,0,0,0,0,0,0,0,0,-1,1553,666,0,0
336,358,0,0,0,0,0,0,0,0,0,-1,1560,666,0,0
343,358,0,0,0,0,0,0,0,0,0,-1,1567,666,0,0
350,358,0,0,0,0,0,0,0,0,0,-1,1574,666,0,0
357,358,0,0,0,0,0,0,0,0,0,-1,1581,666,0,0
364,358,0,0,0,0,0,0,0,0,0,-1,1588,666,0,0
371,358,0,0,0,0,0,0,0,0,0,-1,1595,666,0,0
378,358,0,0,0,0,0,0,0,0,0,-1,1602,666,0,0
385,358,0,0,0,0,0,0,0,0,0,-1,1609,666,0,0
392,358,0,0,0,0,0,0,0,0,0,-1,1616,666,0,0
399,358,0,0,0,0,0,0,0,0,0,-1,1623,666,0,0
406,358,0,0,0,0,0,0,0,0,0,-1,1630,666,0,0
413,358,0,0,0,0,0,0,0,0,0,-1,1637,666,0,0
420,358,0,0,0,0,0,0,0,0,0,-1,1644,666,0,0
427,358,0,0,0,0,0,0,0,0,0,-1,1651,666,0,0
434,358,0,0,0,0,0,0,0,0,0,-1,1658,666,0,0
441,358,0,0,0,0,0,0,0,0,0,-1,1665,666,0,0
448,358,0,0,0,0,0,0,0,0,0,-1,1672,666,0,0
455,358,0,0,0,0,0,0,0,0,0,-1,1679,666,0,0
462,358,0,0,0,0,0,0,0,0,0,-1,1686,666,0,0
469,358,0,0,0,0,0,0,0,0,0,-1,1693,666,0,0
476,358,0,0,0,0,0,0,0,0,0,-1,1700,666,0,0
483,358,0,0,0,0,0,0,0,0,0,-1,1707,666,0,0
490,358,0,0,0,0,0,0,0,0,0,-1,1714,666,0,0
497,358,8.57239,1.1322,0,0,0,0,0,0,0,-1,1721,666,8.57234,-1.13219
504,358,10.5972,0.832947,0,0,0,0,0,0,0,-1,1728,666,10.5972,-0.832968
511,358,10.6873,0.868469,0,0,0,0,0,0,0,-1,1735,666,10.6872,-0.868484
518,358,16.5884,2.34894,0,0,0,0,0,0,0,-1,1742,666,16.5884,-2.34894
525,358,15.7626,3.65344,0,0,0,0,0,0,0,-1,1749,666,15.7626,-3.65342
532,358,14.9368,4.95789,0,0,0,0,0,0,0,-1,1756,666,14.9367,-4.9579
539,358,15.1597,3.42694,0,0,0,0,0,0,0,-1,1763,666,15.1597,-3.42692
546,358,12.3792,1.53558,0,0,0,0,0,0,0,-1,1770,666,12.3792,-1.5356
553,358,11.6584,1.26172,0,0,0,0,0,0,0,-1,1777,666,11.6585,-1.26175
560,358,10.8234,1.43042,0,0,0,0,0,0,0,-1,1784,666,10.8233,-1.43041
567,358,10.1333,-0.955139,0,0,0,0,0,0,0,-1,1791,666,10.1333,0.955132
574,358,14.7886,-2.69293,0,0,0,0,0,0,0,-1,1798,666,14.7885,2.6929
581,358,20.1738,-6.76135,0,0,0,0,0,0,0,-1,1805,666,20.1738,6.76137
588,358,40.6188,-16.2111,0,0,0,0,0,0,0,-1,1812,666,40.6188,16.2111
595,358,40.5728,-15.1733,0.00132799,5.28907e-05,0.000389801,0.00143771,-5.68312e-05,0.274382,0.000977967,0.0158145,1819,666,40.5728,15.1733
602,358,40.4703,-14.1114,0.0014291,0.000360374,0.000520892,0.00164098,0.000148499,0.386316,0.001048,0.0139337,1826,666,40.4704,14.1114
609,358,40.366,-13.0946,0.00154716,0.000704566,0.000683502,0.00192877,0.000322952,0.50921,0.00119286,0.0199168,1833,666,40.3659,13.0946
616,358,40.3264,-12.1172,0.00163634,0.00108454,0.000824173,0.00222957,0.000491313,0.623882,0.00135268,0.0185548,1840,666,40.3264,12.1172
623,358,40.3268,-11.1301,0.00180372,0.00151833,0.00101516,0.00268616,0.000635889,0.715574,0.00162093,0.0149591,1847,666,40.3268,11.1301
630,358,40.2747,-10.1449,0.00188451,0.00199022,0.00118297,0.00312151,0.000753214,0.807724,0.0018809,0.0178524,1854,666,40.2746,10.1449
637,358,40.1576,-9.20264,0.00185669,0.00244398,0.00127826,0.00346189,0.000838783,0.898301,0.00208534,0.0264833,1861,666,40.1576,9.20267
644,358,40.1083,-8.23206,0.00174728,0.00298966,0.00135738,0.00386124,0.000875707,0.999993,0.00233759,0.0227976,1868,666,40.1082,8.23207
651,358,40.1478,-7.17725,0,0,0,0,0,0,0,-1,1875,666,40.1478,7.17722
658,358,39.9111,-5.85144,0,0,0,0,0,0,0,-1,1882,666,39.9111,5.85146
665,358,28.0272,-2.07764,0,0,0,0,0,0,0,-1,1889,666,28.0272,2.07764
672,358,12.4299,1.47272,0,0,0,0,0,0,0,-1,1896,666,12.4299,-1.4727
679,358,12.1294,2.19702,0,0,0,0,0,0,0,-1,1903,666,12.1294,-2.19703
686,358,11.9557,2.2002,0,0,0,0,0,0,0,-1,1910,666,11.9557,-2.20021
693,358,13.188,2.52203,0,0,0,0,0,0,0,-1,1917,666,13.188,-2.52202
700,358,0,0,0,0,0,0,0,0,0,-1,1924,666,0,0
707,358,0,0,0,0,0,0,0,0,0,-1,1931,666,0,0
714,358,0,0,0,0,0,0,0,0,0,-1,1938,666,0,0
721,358,0,0,0,0,0,0,0,0,0,-1,1945,666,0,0
728,358,0,0,0,0,0,0,0,0,0,-1,1952,666,0,0
735,358,0,0,0,0,0,0,0,0,0,-1,1959,666,0,0
742,358,0,0,0,0,0,0,0,0,0,-1,1966,666,0,0
749,358,0,0,0,0,0,0,0,0,0,-1,1973,666,0,0
756,358,0,0,0,0,0,0,0,0,0,-1,1980,666,0,0
763,358,0,0,0,0,0,0,0,0,0,-1,1987,666,0,0
770,358,0,0,0,0,0,0,0,0,0,-1,1994,666,0,0
777,358,0,0,0,0,0,0,0,0,0,-1,2001,666,0,0
784,358,0,0,0,0,0,0,0,0,0,-1,2008,666,0,0
791,358,0,0,0,0,0,0,0,0,0,-1,2015,666,0,0
798,358,0,0,0,0,0,0,0,0,0,-1,2022,666,0,0
805,358,0,0,0,0,0,0,0,0,0,-1,2029,666,0,0
812,358,0,0,0,0,0,0,0,0,0,-1,2036,666,0,0
-700,351,0,0,0,0,0,0,0,0,0,-1,524,673,0,0
-693,351,0,0,0,0,0,0,0,0,0,-1,531,673,0,0
-686,351,0,0,0,0,0,0,0,0,0,-1,538,673,0,0
-679,351,0,0,0,0,0,0,0,0,0,-1,545,673,0,0
-672,351,0,0,0,0,0,0,0,0,0,-1,552,673,0,0
-665,351,0,0,0,0,0,0,0,0,0,-1,559,673,0,0
-658,351,0,0,0,0,0,0,0,0,0,-1,566,673,0,0
-651,351,0,0,0,0,0,0,0,0,0,-1,573,673,0,0
-644,351,0,0,0,0,0,0,0,0,0,-1,580,673,0,0
-637,351,0,0,0,0,0,0,0,0,0,-1,587,673,0,0
-630,351,0,0,0,0,0,0,0,0,0,-1,594,673,0,0
-623,351,0,0,0,0,0,0,0,0,0,-1,601,673,0,0
-616,351,0,0,0,0,0,0,0,0,0,-1,608,673,0,0
-609,351,0,0,0,0,0,0,0,0,0,-1,615,673,0,0
-602,351,0,0,0,0,0,0,0,0,0,-1,622,673,0,0
-595,351,0,0,0,0,0,0,0,0,0,-1,629,673,0,0
-588,351,0,0,0,0,0,0,0,0,0,-1,636,673,0,0
-581,351,-9.0647,1.71906,0,0,0,0,0,0,0,-1,643,673,-9.06472,-1.71908
-574,351,-8.23584,2.64764,0,0,0,0,0,0,0,-1,650,673,-8.23584,-2.64764
-567,351,-10.8027,4.56836,0,0,0,0,0,0,0,-1,657,673,-10.8027,-4.56839
-560,351,-14.2001,2.17084,0,0,0,0,0,0,0,-1,664,673,-14.2002,-2.17086
-553,351,-13.4979,0.779541,0,0,0,0,0,0,0,-1,671,673,-13.4978,-0.779519
-546,351,-14.0065,0.73645,0,0,0,0,0,0,0,-1,678,673,-14.0065,-0.736473
-539,351,-12.8123,-1.46393,0,0,0,0,0,0,0,-1,685,673,-12.8123,1.46395
-532,351,-16.0198,-4.03937,0,0,0,0,0,0,0,-1,692,673,-16.0198,4.03936
-525,351,-24.5588,-7.01453,0,0,0,0,0,0,0,-1,699,673,-24.5588,7.01454
-518,351,-24.5301,-8.02802,0.0032627,0.00101043,-0.0019677,0.00440372,-0.000130595,-0.525492,0.0029803,0.0228375,706,673,-24.5301,8.028
-511,351,-24.5687,-9.08484,0.0025142,0.000575257,-0.00126079,0.00313515,-4.5702e-05,-0.457642,0.0021055,0.012161,713,673,-24.5687,9.08485
-504,351,-24.6497,-10.0897,0.00192401,0.00034273,-0.000846874,0.00229195,-2.52101e-05,-0.409864,0.00153644,0.0117932,720,673,-24.6497,10.0897
-497,351,-24.7161,-11.1242,0.00150015,0.000168918,-0.000561222,0.00170518,-3.61064e-05,-0.350255,0.00114901,0.011229,727,673,-24.7161,11.1242
-490,351,-24.7777,-12.1445,0.00122031,9.73566e-05,-0.000423933,0.00136238,-4.47115e-05,-0.323357,0.000923515,0.0113152,734,673,-24.7777,12.1445
-483,351,-24.8499,-13.1331,0.00112746,0.000124666,-0.000446846,0.00129768,-4.55555e-05,-0.363967,0.000880697,0.0138048,741,673,-24.8498,13.1331
-476,351,-24.9199,-14.1091,0.00118566,0.000215074,-0.000603015,0.00147441,-7.36718e-05,-0.446575,0.00100839,0.0127346,748,673,-24.92,14.1091
-469,351,-24.9695,-15.0941,0.00143021,0.000367018,-0.000905214,0.00194838,-0.00015115,-0.519898,0.00135212,0.0142705,755,673,-24.9696,15.0941
-462,351,-25.0314,-16.2006,0.00188007,0.000640431,-0.001361,0.00275574,-0.000235239,-0.571724,0.00192038,0.0416421,762,673,-25.0314,16.2006
-455,351,-24.9988,-17.3263,0,0,0,0,0,0,0,-1,769,673,-24.9988,17.3263
-448,351,-6.61456,-4.38654,0,0,0,0,0,0,0,-1,776,673,-6.61456,4.38654
-441,351,-4.31567,-2.3009,0,0,0,0,0,0,0,-1,783,673,-4.31565,2.30089
-434,351,-3.81708,-2.28003,0,0,0,0,0,0,0,-1,790,673,-3.81706,2.28006
-427,351,-2.05157,-2.7785,0,0,0,0,0,0,0,-1,797,673,-2.05157,2.77848
-420,351,-1.06989,-2.43665,0,0,0,0,0,0,0,-1,804,673,-1.06991,2.43663
-413,351,-0.392334,-2.06671,0,0,0,0,0,0,0,-1,811,673,-0.392363,2.06672
-406,351,-1.86316,-2.58105,0,0,0,0,0,0,0,-1,818,673,-1.86313,2.58106
-399,351,1.00952,-1.53455,0,0,0,0,0,0,0,-1,825,673,1.00954,1.53457
-392,351,-1.02197,0.877136,0,0,0,0,0,0,0,-1,832,673,-1.02195,-0.877143
-385,351,-1.47205,1.04437,0,0,0,0,0,0,0,-1,839,673,-1.47207,-1.04435
-378,351,0,0,0,0,0,0,0,0,0,-1,846,673,0,0
-371,351,0,0,0,0,0,0,0,0,0,-1,853,673,0,0
-364,351,0,0,0,0,0,0,0,0,0,-1,860,673,0,0
-357,351,0,0,0,0,0,0,0,0,0,-1,867,673,0,0
-350,351,0,0,0,0,0,0,0,0,0,-1,874,673,0,0
-343,351,0,0,0,0,0,0,0,0,0,-1,881,673,0,0
-336,351,0,0,0,0,0,0,0,0,0,-1,888,673,0,0
-329,351,0,0,0,0,0,0,0,0,0,-1,895,673,0,0
-322,351,0,0,0,0,0,0,0,0,0,-1,902,673,0,0
-315,351,0,0,0,0,0,0,0,0,0,-1,909,673,0,0
-308,351,0,0,0,0,0,0,0,0,0,-1,916,673,0,0
-301,351,0,0,0,0,0,0,0,0,0,-1,923,673,0,0
-294,351,0,0,0,0,0,0,0,0,0,-1,930,673,0,0
-287,351,0,0,0,0,0,0,0,0,0,-1,937,673,0,0
-280,351,0,0,0,0,0,0,0,0,0,-1,944,673,0,0
-273,351,0,0,0,0,0,0,0,0,0,-1,951,673,0,0
-266,351,0,0,0,0,0,0,0,0,0,-1,958,673,0,0
-259,351,0,0,0,0,0,0,0,0,0,-1,965,673,0,0
-252,351,0,0,0,0,0,0,0,0,0,-1,972,673,0,0
-245,351,0,0,0,0,0,0,0,0,0,-1,979,673,0,0
-238,351,0,0,0,0,0,0,0,0,0,-1,986,673,0,0
-231,351,0,0,0,0,0,0,0,0,0,-1,993,673,0,0
-224,351,0,0,0,0,0,0,0,0,0,-1,1000,673,0,0
-217,351,0,0,0,0,0,0,0,0,0,-1,1007,673,0,0
-210,351,0,0,0,0,0,0,0,0,0,-1,1014,673,0,0
-203,351,0,0,0,0,0,0,0,0,0,-1,1021,673,0,0
-196,351,0,0,0,0,0,0,0,0,0,-1,1028,673,0,0
-189,351,0,0,0,0,0,0,0,0,0,-1,1035,673,0,0
-182,351,0,0,0,0,0,0,0,0,0,-1,1042,673,0,0
-175,351,0,0,0,0,0,0,0,0,0,-1,1049,673,0,0
-168,351,0,0,0,0,0,0,0,0,0,-1,1056,673,0,0
-161,351,0,0,0,0,0,0,0,0,0,-1,1063,673,0,0
-154,351,0,0,0,0,0,0,0,0,0,-1,1070,673,0,0
-147,351,0,0,0,0,0,0,0,0,0,-1,1077,673,0,0
-140,351,0,0,0,0,0,0,0,0,0,-1,1084,673,0,0
-133,351,0,0,0,0,0,0,0,0,0,-1,1091,673,0,0
-126,351,0,0,0,0,0,0,0,0,0,-1,1098,673,0,0
-119,351,0,0,0,0,0,0,0,0,0,-1,1105,673,0,0
-112,351,0,0,0,0,0,0,0,0,0,-1,1112,673,0,0
-105,351,0,0,0,0,0,0,0,0,0,-1,1119,673,0,0
-98,351,0,0,0,0,0,0,0,0,0,-1,1126,673,0,0
-91,351,0,0,0,0,0,0,0,0,0,-1,1133,673,0,0
-84,351,0,0,0,0,0,0,0,0,0,-1,1140,673,0,0
-77,351,0,0,0,0,0,0,0,0,0,-1,1147,673,0,0
-70,351,0,0,0,0,0,0,0,0,0,-1,1154,673,0,0
-63,351,0,0,0,0,0,0,0,0,0,-1,1161,673,0,0
-56,351,0,0,0,0,0,0,0,0,0,-1,1168,673,0,0
-49,351,0,0,0,0,0,0,0,0,0,-1,1175,673,0,0
-42,351,0,0,0,0,0,0,0,0,0,-1,1182,673,0,0
-35,351,0,0,0,0,0,0,0,0,0,-1,1189,673,0,0
-28,351,0,0,0,0,0,0,0,0,0,-1,1196,673,0,0
-21,351,0,0,0,0,0,0,0,0,0,-1,1203,673,0,0
-14,351,0,0,0,0,0,0,0,0,0,-1,1210,673,0,0
-7,351,0,0,0,0,0,0,0,0,0,-1,1217,673,0,0
0,351,0,0,0,0,0,0,0,0,0,-1,1224,673,0,0
7,351,0,0,0,0,0,0,0,0,0,-1,1231,673,0,0
14,351,0,0,0,0,0,0,0,0,0,-1,1238,673,0,0
21,351,0,0,0,0,0,0,0,0,0,-1,1245,673,0,0
28,351,0,0,0,0,0,0,0,0,0,-1,1252,673,0,0
35,351,0,0,0,0,0,0,0,0,0,-1,1259,673,0,0
42,351,0,0,0,0,0,0,0,0,0,-1,1266,673,0,0
49,351,0,0,0,0,0,0,0,0,0,-1,1273,673,0,0
56,351,0,0,0,0,0,0,0,0,0,-1,1280,673,0,0
63,351,0,0,0,0,0,0,0,0,0,-1,1287,673,0,0
70,351,0,0,0,0,0,0,0,0,0,-1,1294,673,0,0
77,351,0,0,0,0,0,0,0,0,0,-1,1301,673,0,0
84,351,0,0,0,0,0,0,0,0,0,-1,1308,673,0,0
91,351,0,0,0,0,0,0,0,0,0,-1,1315,673,0,0
98,351,0,0,0,0,0,0,0,0,0,-1,1322,673,0,0
105,351,0,0,0,0,0,0,0,0,0,-1,1329,673,0,0
112,351,0,0,0,0,0,0,0,0,0,-1,1336,673,0,0
119,351,0,0,0,0,0,0,0,0,0,-1,1343,673,0,0
126,351,0,0,0,0,0,0,0,0,0,-1,1350,673,0,0
133,351,0,0,0,0,0,0,0,0,0,-1,1357,673,0,0
140,351,0,0,0,0,0,0,0,0,0,-1,1364,673,0,0
147,351,0,0,0,0,0,0,0,0,0,-1,1371,673,0,0
154,351,0,0,0,0,0,0,0,0,0,-1,1378,673,0,0
161,351,0,0,0,0,0,0,0,0,0,-1,1385,673,0,0
168,351,0,0,0,0,0,0,0,0,0,-1,1392,673,0,0
175,351,0,0,0,0,0,0,0,0,0,-1,1399,673,0,0
182,351,0,0,0,0,0,0,0,0,0,-1,1406,673,0,0
189,351,0,0,0,0,0,0,0,0,0,-1,1413,673,0,0
196,351,0,0,0,0,0,0,0,0,0,-1,1420,673,0,0
203,351,0,0,0,0,0,0,0,0,0,-1,1427,673,0,0
210,351,0,0,0,0,0,0,0,0,0,-1,1434,673,0,0
217,351,0,0,0,0,0,0,0,0,0,-1,1441,673,0,0
224,351,0,0,0,0,0,0,0,0,0,-1,1448,673,0,0
231,351,0,0,0,0,0,0,0,0,0,-1,1455,673,0,0
238,351,0,0,0,0,0,0,0,0,0,-1,1462,673,0,0
245,351,0,0,0,0,0,0,0,0,0,-1,1469,673,0,0
252,351,0,0,0,0,0,0,0,0,0,-1,1476,673,0,0
259,351,0,0,0,0,0,0,0,0,0,-1,1483,673,0,0
266,351,0,0,0,0,0,0,0,0,0,-1,1490,673,0,0
273,351,0,0,0,0,0,0,0,0,0,-1,1497,673,0,0
280,351,0,0,0,0,0,0,0,0,0,-1,1504,673,0,0
287,351,0,0,0,0,0,0,0,0,0,-1,1511,673,0,0
294,351,0,0,0,0,0,0,0,0,0,-1,1518,673,0,0
301,351,0,0,0,0,0,0,0,0,0,-1,1525,673,0,0
308,351,0,0,0,0,0,0,0,0,0,-1,1532,673,0,0
315,351,0,0,0,0,0,0,0,0,0,-1,1539,673,0,0
322,351,0,0,0,0,0,0,0,0,0,-1,1546,673,0,0
329,351,0,0,0,0,0,0,0,0,0,-1,1553,673,0,0
336,351,0,0,0,0,0,0,0,0,0,-1,1560,673,0,0
343,351,0,0,0,0,0,0,0,0,0,-1,1567,673,0,0
350,351,0,0,0,0,0,0,0,0,0,-1,1574,673,0,0
357,351,0,0,0,0,0,0,0,0,0,-1,1581,673,0,0
364,351,0,0,0,0,0,0,0,0,0,-1,1588,673,0,0
371,351,0,0,0,0,0,0,0,0,0,-1,1595,673,0,0
378,351,0,0,0,0,0,0,0,0,0,-1,1602,673,0,0
385,351,0,0,0,0,0,0,0,0,0,-1,1609,673,0,0
392,351,0,0,0,0,0,0,0,0,0,-1,1616,673,0,0
399,351,0,0,0,0,0,0,0,0,0,-1,1623,673,0,0
406,351,0,0,0,0,0,0,0,0,0,-1,1630,673,0,0
413,351,0,0,0,0,0,0,0,0,0,-1,1637,673,0,0
420,351,0,0,0,0,0,0,0,0,0,-1,1644,673,0,0
427,351,0,0,0,0,0,0,0,0,0,-1,1651,673,0,0
434,351,0,0,0,0,0,0,0,0,0,-1,1658,673,0,0
441,351,0,0,0,0,0,0,0,0,0,-1,1665,673,0,0
448,351,0,0,0,0,0,0,0,0,0,-1,1672,673,0,0
455,351,0,0,0,0,0,0,0,0,0,-1,1679,673,0,0
462,351,0,0,0,0,0,0,0,0,0,-1,1686,673,0,0
469,351,0,0,0,0,0,0,0,0,0,-1,1693,673,0,0
476,351,0,0,0,0,0,0,0,0,0,-1,1700,673,0,0
483,351,0,0,0,0,0,0,0,0,0,-1,1707,673,0,0
490,351,0,0,0,0,0,0,0,0,0,-1,1714,673,0,0
497,351,0,0,0,0,0,0,0,0,0,-1,1721,673,0,0
504,351,10.8842,1.61615,0,0,0,0,0,0,0,-1,1728,673,10.8842,-1.61618
511,351,15.4548,0.0236816,0,0,0,0,0,0,0,-1,1735,673,15.4549,-0.0236664
518,351,16.7448,2.49268,0,0,0,0,0,0,0,-1,1742,673,16.7448,-2.49269
525,351,16.0701,3.43225,0,0,0,0,0,0,0,-1,1749,673,16.07,-3.43227
532,351,32.3822,3.03021,0,0,0,0,0,0,0,-1,1756,673,32.3822,-3.03019
539,351,15.3387,3.54486,0,0,0,0,0,0,0,-1,1763,673,15.3387,-3.54485
546,351,13.9387,4.59357,0,0,0,0,0,0,0,-1,1770,673,13.9388,-4.59359
553,351,12.0682,2.02832,0,0,0,0,0,0,0,-1,1777,673,12.0683,-2.02831
560,351,12.0173,0.55304,0,0,0,0,0,0,0,-1,1784,673,12.0174,-0.553028
567,351,10.7827,0.130188,0,0,0,0,0,0,0,-1,1791,673,10.7827,-0.130183
574,351,13.405,-1.09204,0,0,0,0,0,0,0,-1,1798,673,13.405,1.09207
581,351,15.2351,-3.06049,0,0,0,0,0,0,0,-1,1805,673,15.2351,3.06046
588,351,41.4519,-16.2215,0,0,0,0,0,0,0,-1,1812,673,41.4519,16.2215
595,351,41.5208,-15.1602,0.00150053,-6.32319e-05,0.000629166,0.00172224,-0.000284938,0.338794,0.00125398,0.0391472,1819,673,41.5208,15.1602
602,351,41.5291,-14.0886,0.00150091,0.000151539,0.000574418,0.00171231,-5.98666e-05,0.352649,0.00116201,0.0179069,1826,673,41.5291,14.0885
609,351,41.4664,-13.1003,0.00154311,0.000373418,0.000587739,0.00178741,0.000129118,0.393933,0.00115098,0.0183623,1833,673,41.4665,13.1004
616,351,41.3771,-12.1031,0.00152654,0.000614375,0.000622399,0.00184207,0.00029884,0.469204,0.00114155,0.0149331,1840,673,41.3771,12.1031
623,351,41.3831,-11.1122,0.00155944,0.000925108,0.000694744,0.00200599,0.000478556,0.571267,0.00120978,0.016048,1847,673,41.383,11.1122
630,351,41.3228,-10.1062,0.00156017,0.00129753,0.000793055,0.0022327,0.000624994,0.703349,0.00133002,0.0262798,1854,673,41.3227,10.1062
637,351,41.1781,-9.11224,0.00150214,0.00166821,0.000850752,0.00243997,0.000730381,0.834046,0.00144604,0.0306095,1861,673,41.178,9.11225
644,351,41.0913,-8.12543,0.00140757,0.00209437,0.000899438,0.00271373,0.000788206,0.967754,0.00161199,0.0232047,1868,673,41.0913,8.12543
651,351,41.0731,-7.06799,0.00135203,0.00262215,0.00098531,0.00315933,0.000814851,1.07166,0.00189396,0.0194423,1875,673,41.0732,7.06802
658,351,40.9548,-5.98346,0.00118635,0.00314606,0.000987692,0.00355748,0.000774923,1.17611,0.00216018,0.0461044,1882,673,40.9549,5.98346
665,351,40.5682,-4.87097,0,0,0,0,0,0,0,-1,1889,673,40.5683,4.87099
672,351,34.9646,-3.1748,0,0,0,0,0,0,0,-1,1896,673,34.9646,3.17482
679,351,14.1252,1.85681,0,0,0,0,0,0,0,-1,1903,673,14.1253,-1.85682
686,351,13.0294,2.1189,0,0,0,0,0,0,0,-1,1910,673,13.0294,-2.11892
693,351,13.5187,2.34595,0,0,0,0,0,0,0,-1,1917,673,13.5187,-2.34596
700,351,14.5629,-2.40173,0,0,0,0,0,0,0,-1,1924,673,14.5629,2.40172
707,351,0,0,0,0,0,0,0,0,0,-1,1931,673,0,0
714,351,0,0,0,0,0,0,0,0,0,-1,1938,673,0,0
721,351,0,0,0,0,0,0,0,0,0,-1,1945,673,0,0
728,351,0,0,0,0,0,0,0,0,0,-1,1952,673,0,0
735,351,0,0,0,0,0,0,0,0,0,-1,1959,673,0,0
742,351,0,0,0,0,0,0,0,0,0,-1,1966,673,0,0
749,351,0,0,0,0,0,0,0,0,0,-1,1973,673,0,0
756,351,0,0,0,0,0,0,0,0,0,-1,1980,673,0,0
763,351,0,0,0,0,0,0,0,0,0,-1,1987,673,0,0
770,351,0,0,0,0,0,0,0,0,0,-1,1994,673,0,0
777,351,0,0,0,0,0,0,0,0,0,-1,2001,673,0,0
784,351,0,0,0,0,0,0,0,0,0,-1,2008,673,0,0
791,351,0,0,0,0,0,0,0,0,0,-1,2015,673,0,0
798,351,0,0,0,0,0,0,0,0,0,-1,2022,673,0,0
805,351,0,0,0,0,0,0,0,0,0,-1,2029,673,0,0
812,351,0,0,0,0,0,0,0,0,0,-1,2036,673,0,0
-700,344,0,0,0,0,0,0,0,0,0,-1,524,680,0,0
-693,344,0,0,0,0,0,0,0,0,0,-1,531,680,0,0
-686,344,0,0,0,0,0,0,0,0,0,-1,538,680,0,0
-679,344,0,0,0,0,0,0,0,0,0,-1,545,680,0,0
-672,344,0,0,0,0,0,0,0,0,0,-1,552,680,0,0
-665,344,0,0,0,0,0,0,0,0,0,-1,559,680,0,0
-658,344,0,0,0,0,0,0,0,0,0,-1,566,680,0,0
-651,344,0,0,0,0,0,0,0,0,0,-1,573,680,0,0
-644,344,0,0,0,0,0,0,0,0,0,-1,580,680,0,0
-637,344,0,0,0,0,0,0,0,0,0,-1,587,680,0,0
-630,344,0,0,0,0,0,0,0,0,0,-1,594,680,0,0
-623,344,0,0,0,0,0,0,0,0,0,-1,601,680,0,0
-616,344,0,0,0,0,0,0,0,0,0,-1,608,680,0,0
-609,344,0,0,0,0,0,0,0,0,0,-1,615,680,0,0
-602,344,0,0,0,0,0,0,0,0,0,-1,622,680,0,0
-595,344,0,0,0,0,0,0,0,0,0,-1,629,680,0,0
-588,344,-9.27826,1.47302,0,0,0,0,0,0,0,-1,636,680,-9.27829,-1.473
-581,344,-10.0098,1.71753,0,0,0,0,0,0,0,-1,643,680,-10.0098,-1.7175
-574,344,-10.2208,3.04871,0,0,0,0,0,0,0,-1,650,680,-10.2208,-3.04869
-567,344,-14.3779,2.29016,0,0,0,0,0,0,0,-1,657,680,-14.3779,-2.29014
-560,344,-14.1238,1.8374,0,0,0,0,0,0,0,-1,664,680,-14.1238,-1.83743
-553,344,-14.7884,2.00116,0,0,0,0,0,0,0,-1,671,680,-14.7884,-2.00115
-546,344,-17.4192,0.157654,0,0,0,0,0,0,0,-1,678,680,-17.4192,-0.157635
-539,344,-17.2671,-2.75714,0,0,0,0,0,0,0,-1,685,680,-17.2671,2.75712
-532,344,-18.4417,-4.38605,0,0,0,0,0,0,0,-1,692,680,-18.4417,4.38603
-525,344,-25.5039,-6.97858,0,0,0,0,0,0,0,-1,699,680,-25.5039,6.97855
-518,344,-25.5279,-7.98468,0.0032823,0.00130085,-0.00194847,0.00447745,0.000105697,-0.550201,0.00295036,0.01994,706,680,-25.5279,7.98467
-511,344,-25.5778,-9.02032,0.00249809,0.000686373,-0.00122377,0.00311479,6.96721e-05,-0.466791,0.0020537,0.0171071,713,680,-25.5777,9.02032
-504,344,-25.6511,-10.0412,0.00187875,0.000267248,-0.000742535,0.00216871,-2.27166e-05,-0.372296,0.00145344,0.0185154,720,680,-25.6511,10.0412
-497,344,-25.7349,-11.0648,0.00142255,-1.2837e-05,-0.000406099,0.00152948,-0.000119765,-0.257461,0.00106183,0.016905,727,680,-25.7349,11.0648
-490,344,-25.7996,-12.0909,0.0011196,-0.000132658,-0.000259066,0.00117108,-0.000184136,-0.196155,0.000848785,0.0158699,734,680,-25.7996,12.0909
-483,344,-25.8435,-13.0706,0.00100303,-9.75744e-05,-0.000300887,0.00107992,-0.000174461,-0.250178,0.000784593,0.0158984,741,680,-25.8435,13.0705
-476,344,-25.907,-14.0525,0.00104849,3.96617e-05,-0.000527194,0.00127371,-0.000185559,-0.403739,0.00091727,0.0156964,748,680,-25.907,14.0525
-469,344,-25.9404,-15.1028,0.00127437,0.000303579,-0.000929703,0.00183777,-0.000259813,-0.544813,0.00132033,0.0236593,755,680,-25.9404,15.1028
-462,344,-25.9758,-16.1611,0,0,0,0,0,0,0,-1,762,680,-25.9758,16.1611
-455,344,-12.1653,-7.99176,0,0,0,0,0,0,0,-1,769,680,-12.1653,7.99174
-448,344,-5.67657,-2.72864,0,0,0,0,0,0,0,-1,776,680,-5.6766,2.72863
-441,344,-5.09229,-2.34167,0,0,0,0,0,0,0,-1,783,680,-5.09229,2.34168
-434,344,-4.28778,-2.08807,0,0,0,0,0,0,0,-1,790,680,-4.28778,2.08809
-427,344,-3.06506,-1.45404,0,0,0,0,0,0,0,-1,797,680,-3.06505,1.45402
-420,344,-1.96582,-1.57574,0,0,0,0,0,0,0,-1,804,680,-1.96579,1.57574
-413,344,-0.817993,-1.4751,0,0,0,0,0,0,0,-1,811,680,-0.818017,1.47511
-406,344,-0.00714111,-1.25189,0,0,0,0,0,0,0,-1,818,680,-0.00714956,1.25191
-399,344,0.240051,-1.75769,0,0,0,0,0,0,0,-1,825,680,0.240079,1.75767
-392,344,1.11353,-2.05615,0,0,0,0,0,0,0,-1,832,680,1.11351,2.05616
-385,344,0,0,0,0,0,0,0,0,0,-1,839,680,0,0
-378,344,0,0,0,0,0,0,0,0,0,-1,846,680,0,0
-371,344,0,0,0,0,0,0,0,0,0,-1,853,680,0,0
-364,344,0,0,0,0,0,0,0,0,0,-1,860,680,0,0
-357,344,0,0,0,0,0,0,0,0,0,-1,867,680,0,0
-350,344,0,0,0,0,0,0,0,0,0,-1,874,680,0,0
-343,344,0,0,0,0,0,0,0,0,0,-1,881,680,0,0
-336,344,0,0,0,0,0,0,0,0,0,-1,888,680,0,0
-329,344,0,0,0,0,0,0,0,0,0,-1,895,680,0,0
-322,344,0,0,0,0,0,0,0,0,0,-1,902,680,0,0
-315,344,0,0,0,0,0,0,0,0,0,-1,909,680,0,0
-308,344,0,0,0,0,0,0,0,0,0,-1,916,680,0,0
-301,344,0,0,0,0,0,0,0,0,0,-1,923,680,0,0
-294,344,0,0,0,0,0,0,0,0,0,-1,930,680,0,0
-287,344,0,0,0,0,0,0,0,0,0,-1,937,680,0,0
-280,344,0,0,0,0,0,0,0,0,0,-1,944,680,0,0
-273,344,0,0,0,0,0,0,0,0,0,-1,951,680,0,0
-266,344,0,0,0,0,0,0,0,0,0,-1,958,680,0,0
-259,344,0,0,0,0,0,0,0,0,0,-1,965,680,0,0
-252,344,0,0,0,0,0,0,0,0,0,-1,972,680,0,0
-245,344,0,0,0,0,0,0,0,0,0,-1,979,680,0,0
-238,344,0,0,0,0,0,0,0,0,0,-1,986,680,0,0
-231,344,0,0,0,0,0,0,0,0,0,-1,993,680,0,0
-224,344,0,0,0,0,0,0,0,0,0,-1,1000,680,0,0
-217,344,0,0,0,0,0,0,0,0,0,-1,1007,680,0,0
-210,344,0,0,0,0,0,0,0,0,0,-1,1014,680,0,0
-203,344,0,0,0,0,0,0,0,0,0,-1,1021,680,0,0
-196,344,0,0,0,0,0,0,0,0,0,-1,1028,680,0,0
-189,344,0,0,0,0,0,0,0,0,0,-1,1035,680,0,0
-182,344,0,0,0,0,0,0,0,0,0,-1,1042,680,0,0
-175,344,0,0,0,0,0,0,0,0,0,-1,1049,680,0,0
-168,344,0,0,0,0,0,0,0,0,0,-1,1056,680,0,0
-161,344,0,0,0,0,0,0,0,0,0,-1,1063,680,0,0
-154,344,0,0,0,0,0,0,0,0,0,-1,1070,680,0,0
-147,344,0,0,0,0,0,0,0,0,0,-1,1077,680,0,0
-140,344,0,0,0,0,0,0,0,0,0,-1,1084,680,0,0
-133,344,0,0,0,0,0,0,0,0,0,-1,1091,680,0,0
-126,344,0,0,0,0,0,0,0,0,0,-1,1098,680,0,0
-119,344,0,0,0,0,0,0,0,0,0,-1,1105,680,0,0
-112,344,0,0,0,0,0,0,0,0,0,-1,1112,680,0,0
-105,344,0,0,0,0,0,0,0,0,0,-1,1119,680,0,0
-98,344,0,0,0,0,0,0,0,0,0,-1,1126,680,0,0
-91,344,0,0,0,0,0,0,0,0,0,-1,1133,680,0,0
-84,344,0,0,0,0,0,0,0,0,0,-1,1140,680,0,0
-77,344,0,0,0,0,0,0,0,0,0,-1,1147,680,0,0
-70,344,0,0,0,0,0,0,0,0,0,-1,1154,680,0,0
-63,344,0,0,0,0,0,0,0,0,0,-1,1161,680,0,0
-56,344,0,0,0,0,0,0,0,0,0,-1,1168,680,0,0
-49,344,0,0,0,0,0,0,0,0,0,-1,1175,680,0,0
-42,344,0,0,0,0,0,0,0,0,0,-1,1182,680,0,0
-35,344,0,0,0,0,0,0,0,0,0,-1,1189,680,0,0
-28,344,0,0,0,0,0,0,0,0,0,-1,1196,680,0,0
-21,344,0,0,0,0,0,0,0,0,0,-1,1203,680,0,0
-14,344,0,0,0,0,0,0,0,0,0,-1,1210,680,0,0
-7,344,0,0,0,0,0,0,0,0,0,-1,1217,680,0,0
0,344,0,0,0,0,0,0,0,0,0,-1,1224,680,0,0
7,344,0,0,0,0,0,0,0,0,0,-1,1231,680,0,0
14,344,0,0,0,0,0,0,0,0,0,-1,1238,680,0,0
21,344,0,0,0,0,0,0,0,0,0,-1,1245,680,0,0
28,344,0,0,0,0,0,0,0,0,0,-1,1252,680,0,0
35,344,0,0,0,0,0,0,0,0,0,-1,1259,680,0,0
42,344,0,0,0,0,0,0,0,0,0,-1,1266,680,0,0
49,344,0,0,0,0,0,0,0,0,0,-1,1273,680,0,0
56,344,0,0,0,0,0,0,0,0,0,-1,1280,680,0,0
63,344,0,0,0,0,0,0,0,0,0,-1,1287,680,0,0
70,344,0,0,0,0,0,0,0,0,0,-1,1294,680,0,0
77,344,0,0,0,0,0,0,0,0,0,-1,1301,680,0,0
84,344,0,0,0,0,0,0,0,0,0,-1,1308,680,0,0
91,344,0,0,0,0,0,0,0,0,0,-1,1315,680,0,0
98,344,0,0,0,0,0,0,0,0,0,-1,1322,680,0,0
105,344,0,0,0,0,0,0,0,0,0,-1,1329,680,0,0
112,344,0,0,0,0,0,0,0,0,0,-1,1336,680,0,0
119,344,0,0,0,0,0,0,0,0,0,-1,1343,680,0,0
126,344,0,0,0,0,0,0,0,0,0,-1,1350,680,0,0
133,344,0,0,0,0,0,0,0,0,0,-1,1357,680,0,0
140,344,0,0,0,0,0,0,0,0,0,-1,1364,680,0,0
147,344,0,0,0,0,0,0,0,0,0,-1,1371,680,0,0
154,344,0,0,0,0,0,0,0,0,0,-1,1378,680,0,0
161,344,0,0,0,0,0,0,0,0,0,-1,1385,680,0,0
168,344,0,0,0,0,0,0,0,0,0,-1,1392,680,0,0
175,344,0,0,0,0,0,0,0,0,0,-1,1399,680,0,0
182,344,0,0,0,0,0,0,0,0,0,-1,1406,680,0,0
189,344,0,0,0,0,0,0,0,0,0,-1,1413,680,0,0
196,344,0,0,0,0,0,0,0,0,0,-1,1420,680,0,0
203,344,0,0,0,0,0,0,0,0,0,-1,1427,680,0,0
210,344,0,0,0,0,0,0,0,0,0,-1,1434,680,0,0
217,344,0,0,0,0,0,0,0,0,0,-1,1441,680,0,0
224,344,0,0,0,0,0,0,0,0,0,-1,1448,680,0,0
231,344,0,0,0,0,0,0,0,0,0,-1,1455,680,0,0
238,344,0,0,0,0,0,0,0,0,0,-1,1462,680,0,0
245,344,0,0,0,0,0,0,0,0,0,-1,1469,680,0,0
252,344,0,0,0,0,0,0,0,0,0,-1,1476,680,0,0
259,344,0,0,0,0,0,0,0,0,0,-1,1483,680,0,0
266,344,0,0,0,0,0,0,0,0,0,-1,1490,680,0,0
273,344,0,0,0,0,0,0,0,0,0,-1,1497,680,0,0
280,344,0,0,0,0,0,0,0,0,0,-1,1504,680,0,0
287,344,0,0,0,0,0,0,0,0,0,-1,1511,680,0,0
294,344,0,0,0,0,0,0,0,0,0,-1,1518,680,0,0
301,344,0,0,0,0,0,0,0,0,0,-1,1525,680,0,0
308,344,0,0,0,0,0,0,0,0,0,-1,1532,680,0,0
315,344,0,0,0,0,0,0,0,0,0,-1,1539,680,0,0
322,344,0,0,0,0,0,0,0,0,0,-1,1546,680,0,0
329,344,0,0,0,0,0,0,0,0,0,-1,1553,680,0,0
336,344,0,0,0,0,0,0,0,0,0,-1,1560,680,0,0
343,344,0,0,0,0,0,0,0,0,0,-1,1567,680,0,0
350,344,0,0,0,0,0,0,0,0,0,-1,1574,680,0,0
357,344,0,0,0,0,0,0,0,0,0,-1,1581,680,0,0
364,344,0,0,0,0,0,0,0,0,0,-1,1588,680,0,0
371,344,0,0,0,0,0,0,0,0,0,-1,1595,680,0,0
378,344,0,0,0,0,0,0,0,0,0,-1,1602,680,0,0
385,344,0,0,0,0,0,0,0,0,0,-1,1609,680,0,0
392,344,0,0,0,0,0,0,0,0,0,-1,1616,680,0,0
399,344,0,0,0,0,0,0,0,0,0,-1,1623,680,0,0
406,344,0,0,0,0,0,0,0,0,0,-1,1630,680,0,0
413,344,0,0,0,0,0,0,0,0,0,-1,1637,680,0,0
420,344,0,0,0,0,0,0,0,0,0,-1,1644,680,0,0
427,344,0,0,0,0,0,0,0,0,0,-1,1651,680,0,0
434,344,0,0,0,0,0,0,0,0,0,-1,1658,680,0,0
441,344,0,0,0,0,0,0,0,0,0,-1,1665,680,0,0
448,344,0,0,0,0,0,0,0,0,0,-1,1672,680,0,0
455,344,0,0,0,0,0,0,0,0,0,-1,1679,680,0,0
462,344,0,0,0,0,0,0,0,0,0,-1,1686,680,0,0
469,344,0,0,0,0,0,0,0,0,0,-1,1693,680,0,0
476,344,0,0,0,0,0,0,0,0,0,-1,1700,680,0,0
483,344,0,0,0,0,0,0,0,0,0,-1,1707,680,0,0
490,344,0,0,0,0,0,0,0,0,0,-1,1714,680,0,0
497,344,0,0,0,0,0,0,0,0,0,-1,1721,680,0,0
504,344,0,0,0,0,0,0,0,0,0,-1,1728,680,0,0
511,344,15.4819,0.452637,0,0,0,0,0,0,0,-1,1735,680,15.4819,-0.452656
518,344,17.1357,2.31207,0,0,0,0,0,0,0,-1,1742,680,17.1358,-2.31207
525,344,31.5201,2.6217,0,0,0,0,0,0,0,-1,1749,680,31.5201,-2.62168
532,344,31.9766,2.61047,0,0,0,0,0,0,0,-1,1756,680,31.9765,-2.6105
539,344,32.4379,2.65314,0,0,0,0,0,0,0,-1,1763,680,32.4378,-2.65316
546,344,14.6722,4.30243,0,0,0,0,0,0,0,-1,1770,680,14.6722,-4.30241
553,344,14.8136,4.35681,0,0,0,0,0,0,0,-1,1777,680,14.8136,-4.35679
560,344,11.9363,2.14185,0,0,0,0,0,0,0,-1,1784,680,11.9362,-2.14182
567,344,11.397,0.925842,0,0,0,0,0,0,0,-1,1791,680,11.397,-0.92583
574,344,10.0004,0.504639,0,0,0,0,0,0,0,-1,1798,680,10.0004,-0.504645
581,344,13.6709,-0.969604,0,0,0,0,0,0,0,-1,1805,680,13.6709,0.969629
588,344,16.1447,-3.15948,0,0,0,0,0,0,0,-1,1812,680,16.1447,3.15946
595,344,42.4259,-15.1213,0,0,0,0,0,0,0,-1,1819,680,42.4259,15.1213
602,344,42.6316,-13.9943,0.00164269,-4.45101e-05,0.00068051,0.00188295,-0.000284771,0.339399,0.0013602,0.0329894,1826,680,42.6316,13.9943
609,344,42.4855,-13.036,0.0017085,7.17242e-05,0.000623736,0.00191909,-0.000138871,0.325617,0.00132811,0.0173165,1833,680,42.4855,13.036
616,344,42.3722,-12.0364,0.00163584,0.000207302,0.000623724,0.00186984,-2.66969e-05,0.358915,0.00125555,0.0222964,1840,680,42.3721,12.0365
623,344,42.3762,-11.0342,0.00155139,0.000432887,0.000617464,0.00182522,0.000159057,0.417414,0.00116741,0.0200252,1847,680,42.3762,11.0342
630,344,42.3258,-10.0291,0.00148711,0.000739888,0.000667181,0.00187817,0.000348831,0.53016,0.00115355,0.0267036,1854,680,42.3258,10.0291
637,344,42.2152,-9.0119,0.00140826,0.00107176,0.000698024,0.00195803,0.000521998,0.667135,0.00117081,0.0254318,1861,680,42.2152,9.01188
644,344,42.1378,-8.01257,0.0013324,0.00144532,0.000724163,0.00211522,0.000662497,0.824304,0.00124931,0.0174386,1868,680,42.1378,8.01256
651,344,42.0702,-7.0083,0.00133291,0.00193617,0.000791617,0.00248168,0.000787403,0.967423,0.00146434,0.0125716,1875,680,42.0702,7.00832
658,344,41.9924,-5.8775,0.00134161,0.00248371,0.000843236,0.00293107,0.000894261,1.08303,0.00173458,0.0282544,1882,680,41.9924,5.87748
665,344,41.7397,-4.93982,0.00169606,0.00311523,0.000974887,0.00361143,0.00119986,1.09999,0.00212382,0.0468667,1889,680,41.7398,4.93979
672,344,41.7136,-4.05743,0,0,0,0,0,0,0,-1,1896,680,41.7136,4.05746
679,344,36.7468,-2.59857,0,0,0,0,0,0,0,-1,1903,680,36.7468,2.59857
686,344,15.024,1.82709,0,0,0,0,0,0,0,-1,1910,680,15.024,-1.82706
693,344,12.4362,-1.42346,0,0,0,0,0,0,0,-1,1917,680,12.4361,1.42348
700,344,17.5396,2.61206,0,0,0,0,0,0,0,-1,1924,680,17.5396,-2.61204
707,344,18.5829,3.29352,0,0,0,0,0,0,0,-1,1931,680,18.5828,-3.2935
714,344,0,0,0,0,0,0,0,0,0,-1,1938,680,0,0
721,344,0,0,0,0,0,0,0,0,0,-1,1945,680,0,0
728,344,0,0,0,0,0,0,0,0,0,-1,1952,680,0,0
735,344,0,0,0,0,0,0,0,0,0,-1,1959,680,0,0
742,344,0,0,0,0,0,0,0,0,0,-1,1966,680,0,0
749,344,0,0,0,0,0,0,0,0,0,-1,1973,680,0,0
756,344,0,0,0,0,0,0,0,0,0,-1,1980,680,0,0
763,344,0,0,0,0,0,0,0,0,0,-1,1987,680,0,0
770,344,0,0,0,0,0,0,0,0,0,-1,1994,680,0,0
777,344,0,0,0,0,0,0,0,0,0,-1,2001,680,0,0
784,344,0,0,0,0,0,0,0,0,0,-1,2008,680,0,0
791,344,0,0,0,0,0,0,0,0,0,-1,2015,680,0,0
798,344,0,0,0,0,0,0,0,0,0,-1,2022,680,0,0
805,344,0,0,0,0,0,0,0,0,0,-1,2029,680,0,0
812,344,0,0,0,0,0,0,0,0,0,-1,2036,680,0,0
-700,337,0,0,0,0,0,0,0,0,0,-1,524,687,0,0
-693,337,0,0,0,0,0,0,0,0,0,-1,531,687,0,0
-686,337,0,0,0,0,0,0,0,0,0,-1,538,687,0,0
-679,337,0,0,0,0,0,0,0,0,0,-1,545,687,0,0
-672,337,0,0,0,0,0,0,0,0,0,-1,552,687,0,0
-665,337,0,0,0,0,0,0,0,0,0,-1,559,687,0,0
-658,337,0,0,0,0,0,0,0,0,0,-1,566,687,0,0
-651,337,0,0,0,0,0,0,0,0,0,-1,573,687,0,0
-644,337,0,0,0,0,0,0,0,0,0,-1,580,687,0,0
-637,337,0,0,0,0,0,0,0,0,0,-1,587,687,0,0
-630,337,0,0,0,0,0,0,0,0,0,-1,594,687,0,0
-623,337,0,0,0,0,0,0,0,0,0,-1,601,687,0,0
-616,337,0,0,0,0,0,0,0,0,0,-1,608,687,0,0
-609,337,0,0,0,0,0,0,0,0,0,-1,615,687,0,0
-602,337,0,0,0,0,0,0,0,0,0,-1,622,687,0,0
-595,337,0,0,0,0,0,0,0,0,0,-1,629,687,0,0
-588,337,-10.8413,1.27863,0,0,0,0,0,0,0,-1,636,687,-10.8413,-1.27861
-581,337,-11.2157,1.31567,0,0,0,0,0,0,0,-1,643,687,-11.2157,-1.3157
-574,337,-6.03339,2.0321,0,0,0,0,0,0,0,-1,650,687,-6.03337,-2.03213
-567,337,-13.8102,1.56787,0,0,0,0,0,0,0,-1,657,687,-13.8102,-1.56789
-560,337,-15.5435,2.34247,0,0,0,0,0,0,0,-1,664,687,-15.5435,-2.34247
-553,337,-18.0128,1.12927,0,0,0,0,0,0,0,-1,671,687,-18.0128,-1.12926
-546,337,-18.0244,-2.03845,0,0,0,0,0,0,0,-1,678,687,-18.0244,2.03846
-539,337,-19.2426,-3.53815,0,0,0,0,0,0,0,-1,685,687,-19.2426,3.53813
-532,337,-26.5238,-5.87787,0,0,0,0,0,0,0,-1,692,687,-26.5238,5.87789
-525,337,-26.5514,-6.91565,0.00379921,0.00232778,-0.0028158,0.00597382,0.000153166,-0.657614,0.00393248,0.0232899,699,687,-26.5514,6.91563
-518,337,-26.5412,-7.94189,0.00296204,0.00132519,-0.00185258,0.00416893,0.000118305,-0.577402,0.0027407,0.0236212,706,687,-26.5412,7.94192
-511,337,-26.6009,-8.96796,0.00229707,0.000574159,-0.00109275,0.00282709,4.41412e-05,-0.451603,0.00187019,0.0239589,713,687,-26.6009,8.96797
-504,337,-26.6642,-9.99219,0.00171115,-4.0631e-06,-0.000502992,0.00184778,-0.000140684,-0.265219,0.00128132,0.0244178,720,687,-26.6642,9.9922
-497,337,-26.7496,-11.0085,0.0012632,-0.000407612,-6.84361e-05,0.001266,-0.00041041,-0.0408684,0.00100902,0.0186227,727,687,-26.7496,11.0085
-490,337,-26.8019,-12.0289,0.000983034,-0.000618164,0.000151004,0.00099715,-0.00063228,0.0932117,0.000948581,0.0169108,734,687,-26.8019,12.0289
-483,337,-26.8452,-13.02,0.000864527,-0.000629334,0.00015925,0.000881315,-0.000646122,0.10503,0.000885344,0.0164871,741,687,-26.8452,13.0199
-476,337,-26.9076,-14.059,0.000916274,-0.000507444,-8.67268e-05,0.000921537,-0.000512708,-0.060617,0.000839201,0.0190576,748,687,-26.9076,14.059
-469,337,-26.9262,-15.1617,0,0,0,0,0,0,0,-1,755,687,-26.9262,15.1617
-462,337,-14.186,-8.89264,0,0,0,0,0,0,0,-1,762,687,-14.186,8.89266
-455,337,-6.00574,-3.12933,0,0,0,0,0,0,0,-1,769,687,-6.00576,3.12934
-448,337,-5.30627,-2.07202,0,0,0,0,0,0,0,-1,776,687,-5.30628,2.07205
-441,337,-4.24762,-1.49597,0,0,0,0,0,0,0,-1,783,687,-4.24762,1.49598
-434,337,-6.86908,1.37531,0,0,0,0,0,0,0,-1,790,687,-6.86908,-1.3753
-427,337,-9.92004,2.487,0,0,0,0,0,0,0,-1,797,687,-9.92002,-2.48701
-420,337,-2.95996,-1.76697,0,0,0,0,0,0,0,-1,804,687,-2.95998,1.76696
-413,337,-1.29169,-1.99487,0,0,0,0,0,0,0,-1,811,687,-1.29171,1.9949
-406,337,-1.02356,-1.89563,0,0,0,0,0,0,0,-1,818,687,-1.02357,1.89564
-399,337,-0.472839,-2.21338,0,0,0,0,0,0,0,-1,825,687,-0.472837,2.2134
-392,337,0,0,0,0,0,0,0,0,0,-1,832,687,0,0
-385,337,0,0,0,0,0,0,0,0,0,-1,839,687,0,0
-378,337,0,0,0,0,0,0,0,0,0,-1,846,687,0,0
-371,337,0,0,0,0,0,0,0,0,0,-1,853,687,0,0
-364,337,0,0,0,0,0,0,0,0,0,-1,860,687,0,0
-357,337,0,0,0,0,0,0,0,0,0,-1,867,687,0,0
-350,337,0,0,0,0,0,0,0,0,0,-1,874,687,0,0
-343,337,0,0,0,0,0,0,0,0,0,-1,881,687,0,0
-336,337,0,0,0,0,0,0,0,0,0,-1,888,687,0,0
-329,337,0,0,0,0,0,0,0,0,0,-1,895,687,0,0
-322,337,0,0,0,0,0,0,0,0,0,-1,902,687,0,0
-315,337,0,0,0,0,0,0,0,0,0,-1,909,687,0,0
-308,337,0,0,0,0,0,0,0,0,0,-1,916,687,0,0
-301,337,0,0,0,0,0,0,0,0,0,-1,923,687,0,0
-294,337,0,0,0,0,0,0,0,0,0,-1,930,687,0,0
-287,337,0,0,0,0,0,0,0,0,0,-1,937,687,0,0
-280,337,0,0,0,0,0,0,0,0,0,-1,944,687,0,0
-273,337,0,0,0,0,0,0,0,0,0,-1,951,687,0,0
-266,337,0,0,0,0,0,0,0,0,0,-1,958,687,0,0
-259,337,0,0,0,0,0,0,0,0,0,-1,965,687,0,0
-252,337,0,0,0,0,0,0,0,0,0,-1,972,687,0,0
-245,337,0,0,0,0,0,0,0,0,0,-1,979,687,0,0
-238,337,0,0,0,0,0,0,0,0,0,-1,986,687,0,0
-231,337,0,0,0,0,0,0,0,0,0,-1,993,687,0,0
-224,337,0,0,0,0,0,0,0,0,0,-1,1000,687,0,0
-217,337,0,0,0,0,0,0,0,0,0,-1,1007,687,0,0
-210,337,0,0,0,0,0,0,0,0,0,-1,1014,687,0,0
-203,337,0,0,0,0,0,0,0,0,0,-1,1021,687,0,0
-196,337,0,0,0,0,0,0,0,0,0,-1,1028,687,0,0
-189,337,0,0,0,0,0,0,0,0,0,-1,1035,687,0,0
-182,337,0,0,0,0,0,0,0,0,0,-1,1042,687,0,0
-175,337,0,0,0,0,0,0,0,0,0,-1,1049,687,0,0
-168,337,0,0,0,0,0,0,0,0,0,-1,1056,687,0,0
-161,337,0,0,0,0,0,0,0,0,0,-1,1063,687,0,0
-154,337,0,0,0,0,0,0,0,0,0,-1,1070,687,0,0
-147,337,0,0,0,0,0,0,0,0,0,-1,1077,687,0,0
-140,337,0,0,0,0,0,0,0,0,0,-1,1084,687,0,0
-133,337,0,0,0,0,0,0,0,0,0,-1,1091,687,0,0
-126,337,0,0,0,0,0,0,0,0,0,-1,1098,687,0,0
-119,337,0,0,0,0,0,0,0,0,0,-1,1105,687,0,0
-112,337,0,0,0,0,0,0,0,0,0,-1,1112,687,0,0
-105,337,0,0,0,0,0,0,0,0,0,-1,1119,687,0,0
-98,337,0,0,0,0,0,0,0,0,0,-1,1126,687,0,0
-91,337,0,0,0,0,0,0,0,0,0,-1,1133,687,0,0
-84,337,0,0,0,0,0,0,0,0,0,-1,1140,687,0,0
-77,337,0,0,0,0,0,0,0,0,0,-1,1147,687,0,0
-70,337,0,0,0,0,0,0,0,0,0,-1,1154,687,0,0
-63,337,0,0,0,0,0,0,0,0,0,-1,1161,687,0,0
-56,337,0,0,0,0,0,0,0,0,0,-1,1168,687,0,0
-49,337,0,0,0,0,0,0,0,0,0,-1,1175,687,0,0
-42,337,0,0,0,0,0,0,0,0,0,-1,1182,687,0,0
-35,337,0,0,0,0,0,0,0,0,0,-1,1189,687,0,0
-28,337,0,0,0,0,0,0,0,0,0,-1,1196,687,0,0
-21,337,0,0,0,0,0,0,0,0,0,-1,1203,687,0,0
-14,337,0,0,0,0,0,0,0,0,0,-1,1210,687,0,0
-7,337,0,0,0,0,0,0,0,0,0,-1,1217,687,0,0
0,337,0,0,0,0,0,0,0,0,0,-1,1224,687,0,0
7,337,0,0,0,0,0,0,0,0,0,-1,1231,687,0,0
14,337,0,0,0,0,0,0,0,0,0,-1,1238,687,0,0
21,337,0,0,0,0,0,0,0,0,0,-1,1245,687,0,0
28,337,0,0,0,0,0,0,0,0,0,-1,1252,687,0,0
35,337,0,0,0,0,0,0,0,0,0,-1,1259,687,0,0
42,337,0,0,0,0,0,0,0,0,0,-1,1266,687,0,0
49,337,0,0,0,0,0,0,0,0,0,-1,1273,687,0,0
56,337,0,0,0,0,0,0,0,0,0,-1,1280,687,0,0
63,337,0,0,0,0,0,0,0,0,0,-1,1287,687,0,0
70,337,0,0,0,0,0,0,0,0,0,-1,1294,687,0,0
77,337,0,0,0,0,0,0,0,0,0,-1,1301,687,0,0
84,337,0,0,0,0,0,0,0,0,0,-1,1308,687,0,0
91,337,0,0,0,0,0,0,0,0,0,-1,1315,687,0,0
98,337,0,0,0,0,0,0,0,0,0,-1,1322,687,0,0
105,337,0,0,0,0,0,0,0,0,0,-1,1329,687,0,0
112,337,0,0,0,0,0,0,0,0,0,-1,1336,687,0,0
119,337,0,0,0,0,0,0,0,0,0,-1,1343,687,0,0
126,337,0,0,0,0,0,0,0,0,0,-1,1350,687,0,0
133,337,0,0,0,0,0,0,0,0,0,-1,1357,687,0,0
140,337,0,0,0,0,0,0,0,0,0,-1,1364,687,0,0
147,337,0,0,0,0,0,0,0,0,0,-1,1371,687,0,0
154,337,0,0,0,0,0,0,0,0,0,-1,1378,687,0,0
161,337,0,0,0,0,0,0,0,0,0,-1,1385,687,0,0
168,337,0,0,0,0,0,0,0,0,0,-1,1392,687,0,0
175,337,0,0,0,0,0,0,0,0,0,-1,1399,687,0,0
182,337,0,0,0,0,0,0,0,0,0,-1,1406,687,0,0
189,337,0,0,0,0,0,0,0,0,0,-1,1413,687,0,0
196,337,0,0,0,0,0,0,0,0,0,-1,1420,687,0,0
203,337,0,0,0,0,0,0,0,0,0,-1,1427,687,0,0
210,337,0,0,0,0,0,0,0,0,0,-1,1434,687,0,0
217,337,0,0,0,0,0,0,0,0,0,-1,1441,687,0,0
224,337,0,0,0,0,0,0,0,0,0,-1,1448,687,0,0
231,337,0,0,0,0,0,0,0,0,0,-1,1455,687,0,0
238,337,0,0,0,0,0,0,0,0,0,-1,1462,687,0,0
245,337,0,0,0,0,0,0,0,0,0,-1,1469,687,0,0
252,337,0,0,0,0,0,0,0,0,0,-1,1476,687,0,0
259,337,0,0,0,0,0,0,0,0,0,-1,1483,687,0,0
266,337,0,0,0,0,0,0,0,0,0,-1,1490,687,0,0
273,337,0,0,0,0,0,0,0,0,0,-1,1497,687,0,0
280,337,0,0,0,0,0,0,0,0,0,-1,1504,687,0,0
287,337,0,0,0,0,0,0,0,0,0,-1,1511,687,0,0
294,337,0,0,0,0,0,0,0,0,0,-1,1518,687,0,0
301,337,0,0,0,0,0,0,0,0,0,-1,1525,687,0,0
308,337,0,0,0,0,0,0,0,0,0,-1,1532,687,0,0
315,337,0,0,0,0,0,0,0,0,0,-1,1539,687,0,0
322,337,0,0,0,0,0,0,0,0,0,-1,1546,687,0,0
329,337,0,0,0,0,0,0,0,0,0,-1,1553,687,0,0
336,337,0,0,0,0,0,0,0,0,0,-1,1560,687,0,0
343,337,0,0,0,0,0,0,0,0,0,-1,1567,687,0,0
350,337,0,0,0,0,0,0,0,0,0,-1,1574,687,0,0
357,337,0,0,0,0,0,0,0,0,0,-1,1581,687,0,0
364,337,0,0,0,0,0,0,0,0,0,-1,1588,687,0,0
371,337,0,0,0,0,0,0,0,0,0,-1,1595,687,0,0
378,337,0,0,0,0,0,0,0,0,0,-1,1602,687,0,0
385,337,0,0,0,0,0,0,0,0,0,-1,1609,687,0,0
392,337,0,0,0,0,0,0,0,0,0,-1,1616,687,0,0
399,337,0,0,0,0,0,0,0,0,0,-1,1623,687,0,0
406,337,0,0,0,0,0,0,0,0,0,-1,1630,687,0,0
413,337,0,0,0,0,0,0,0,0,0,-1,1637,687,0,0
420,337,0,0,0,0,0,0,0,0,0,-1,1644,687,0,0
427,337,0,0,0,0,0,0,0,0,0,-1,1651,687,0,0
434,337,0,0,0,0,0,0,0,0,0,-1,1658,687,0,0
441,337,0,0,0,0,0,0,0,0,0,-1,1665,687,0,0
448,337,0,0,0,0,0,0,0,0,0,-1,1672,687,0,0
455,337,0,0,0,0,0,0,0,0,0,-1,1679,687,0,0
462,337,0,0,0,0,0,0,0,0,0,-1,1686,687,0,0
469,337,0,0,0,0,0,0,0,0,0,-1,1693,687,0,0
476,337,0,0,0,0,0,0,0,0,0,-1,1700,687,0,0
483,337,0,0,0,0,0,0,0,0,0,-1,1707,687,0,0
490,337,0,0,0,0,0,0,0,0,0,-1,1714,687,0,0
497,337,0,0,0,0,0,0,0,0,0,-1,1721,687,0,0
504,337,0,0,0,0,0,0,0,0,0,-1,1728,687,0,0
511,337,0,0,0,0,0,0,0,0,0,-1,1735,687,0,0
518,337,18.0369,1.64581,0,0,0,0,0,0,0,-1,1742,687,18.0368,-1.64581
525,337,31.0717,2.13745,0,0,0,0,0,0,0,-1,1749,687,31.0717,-2.13747
532,337,31.5126,2.13904,0,0,0,0,0,0,0,-1,1756,687,31.5125,-2.13905
539,337,31.9684,2.15594,0,0,0,0,0,0,0,-1,1763,687,31.9684,-2.15596
546,337,32.3584,1.43719,0,0,0,0,0,0,0,-1,1770,687,32.3585,-1.43722
553,337,32.1809,1.36395,0,0,0,0,0,0,0,-1,1777,687,32.181,-1.36396
560,337,18.4053,3.62793,0,0,0,0,0,0,0,-1,1784,687,18.4052,-3.6279
567,337,11.9288,1.38776,0,0,0,0,0,0,0,-1,1791,687,11.9288,-1.38777
574,337,10.704,1.19476,0,0,0,0,0,0,0,-1,1798,687,10.704,-1.19478
581,337,8.50427,0.561768,0,0,0,0,0,0,0,-1,1805,687,8.5043,-0.561754
588,337,8.5885,-0.0536499,0,0,0,0,0,0,0,-1,1812,687,8.58844,0.0536788
595,337,43.3701,-15.1289,0,0,0,0,0,0,0,-1,1819,687,43.3702,15.1289
602,337,43.5483,-13.9143,0.00204183,-0.000296008,0.000810367,0.00229526,-0.000549435,0.303095,0.00174243,0.0449034,1826,687,43.5484,13.9143
609,337,43.4752,-12.9312,0.00205105,-0.000289754,0.000672438,0.00223047,-0.000469172,0.260743,0.00166554,0.0231465,1833,687,43.4752,12.9312
616,337,43.3846,-11.9348,0.00188599,-0.000229411,0.000666183,0.0020783,-0.000421722,0.281036,0.00154541,0.018851,1840,687,43.3846,11.9348
623,337,43.3246,-10.9648,0.00164875,-5.61397e-05,0.000589983,0.001833,-0.000240393,0.302705,0.00130951,0.0166626,1847,687,43.3246,10.9648
630,337,43.2708,-9.94934,0.00149502,0.000216355,0.000594011,0.00172838,-1.70065e-05,0.374334,0.00115797,0.0207082,1854,687,43.2707,9.94935
637,337,43.2214,-8.93579,0.0013733,0.00054628,0.000608259,0.0016953,0.000224284,0.48687,0.00106335,0.0184948,1861,687,43.2214,8.93578
644,337,43.1428,-7.91125,0.00130599,0.000945415,0.000645157,0.00179557,0.000455827,0.649151,0.00107773,0.0125154,1868,687,43.1429,7.91123
651,337,43.0527,-6.90601,0.00134076,0.00146212,0.000728911,0.00213288,0.000670011,0.826927,0.00125946,0.0117177,1875,687,43.0528,6.90602
658,337,43.0031,-5.90057,0.00147683,0.00208547,0.000859706,0.00269313,0.000869169,0.955508,0.00158712,0.0138504,1882,687,43.003,5.90055
665,337,42.9564,-4.90076,0.00196207,0.00283508,0.00110884,0.00359024,0.00120691,0.972912,0.00210959,0.0179932,1889,687,42.9564,4.90075
672,337,42.9329,-3.8916,0,0,0,0,0,0,0,-1,1896,687,42.9329,3.89159
679,337,41.4054,-2.90735,0,0,0,0,0,0,0,-1,1903,687,41.4054,2.90735
686,337,18.5614,1.68597,0,0,0,0,0,0,0,-1,1910,687,18.5614,-1.68598
693,337,16.5415,2.21411,0,0,0,0,0,0,0,-1,1917,687,16.5415,-2.2141
700,337,17.2661,2.44379,0,0,0,0,0,0,0,-1,1924,687,17.2661,-2.44378
707,337,17.3544,5.61853,0,0,0,0,0,0,0,-1,1931,687,17.3543,-5.61851
714,337,0,0,0,0,0,0,0,0,0,-1,1938,687,0,0
721,337,0,0,0,0,0,0,0,0,0,-1,1945,687,0,0
728,337,0,0,0,0,0,0,0,0,0,-1,1952,687,0,0
735,337,0,0,0,0,0,0,0,0,0,-1,1959,687,0,0
742,337,0,0,0,0,0,0,0,0,0,-1,1966,687,0,0
749,337,0,0,0,0,0,0,0,0,0,-1,1973,687,0,0
756,337,0,0,0,0,0,0,0,0,0,-1,1980,687,0,0
763,337,0,0,0,0,0,0,0,0,0,-1,1987,687,0,0
770,337,0,0,0,0,0,0,0,0,0,-1,1994,687,0,0
777,337,0,0,0,0,0,0,0,0,0,-1,2001,687,0,0
784,337,0,0,0,0,0,0,0,0,0,-1,2008,687,0,0
791,337,0,0,0,0,0,0,0,0,0,-1,2015,687,0,0
798,337,0,0,0,0,0,0,0,0,0,-1,2022,687,0,0
805,337,0,0,0,0,0,0,0,0,0,-1,2029,687,0,0
812,337,0,0,0,0,0,0,0,0,0,-1,2036,687,0,0
-700,330,0,0,0,0,0,0,0,0,0,-1,524,694,0,0
-693,330,0,0,0,0,0,0,0,0,0,-1,531,694,0,0
-686,330,0,0,0,0,0,0,0,0,0,-1,538,694,0,0
-679,330,0,0,0,0,0,0,0,0,0,-1,545,694,0,0
-672,330,0,0,0,0,0,0,0,0,0,-1,552,694,0,0
-665,330,0,0,0,0,0,0,0,0,0,-1,559,694,0,0
-658,330,0,0,0,0,0,0,0,0,0,-1,566,694,0,0
-651,330,0,0,0,0,0,0,0,0,0,-1,573,694,0,0
-644,330,0,0,0,0,0,0,0,0,0,-1,580,694,0,0
-637,330,0,0,0,0,0,0,0,0,0,-1,587,694,0,0
-630,330,0,0,0,0,0,0,0,0,0,-1,594,694,0,0
-623,330,0,0,0,0,0,0,0,0,0,-1,601,694,0,0
-616,330,0,0,0,0,0,0,0,0,0,-1,608,694,0,0
-609,330,0,0,0,0,0,0,0,0,0,-1,615,694,0,0
-602,330,0,0,0,0,0,0,0,0,0,-1,622,694,0,0
-595,330,-4.67883,1.65515,0,0,0,0,0,0,0,-1,629,694,-4.67881,-1.65515
-588,330,-8.5047,2.67346,0,0,0,0,0,0,0,-1,636,694,-8.50469,-2.67348
-581,330,-12.4227,0.947083,0,0,0,0,0,0,0,-1,643,694,-12.4227,-0.947109
-574,330,-9.02118,1.87952,0,0,0,0,0,0,0,-1,650,694,-9.02115,-1.87953
-567,330,-8.35577,0.909973,0,0,0,0,0,0,0,-1,657,694,-8.35575,-0.909945
-560,330,-13.1036,-0.584656,0,0,0,0,0,0,0,-1,664,694,-13.1035,0.584658
-553,330,-17.5484,-1.21545,0,0,0,0,0,0,0,-1,671,694,-17.5484,1.21547
-546,330,-27.1198,-3.49817,0,0,0,0,0,0,0,-1,678,694,-27.1198,3.49818
-539,330,-27.5724,-4.73352,0,0,0,0,0,0,0,-1,685,694,-27.5724,4.73351
-532,330,-27.5269,-5.82434,0.00431857,0.00319203,-0.00338226,0.00718415,0.000326459,-0.702887,0.0046844,0.0303222,692,694,-27.5269,5.82434
-525,330,-27.5074,-6.9071,0.00346365,0.00201559,-0.00240574,0.00525195,0.000227295,-0.63923,0.00342805,0.0110213,699,694,-27.5074,6.90711
-518,330,-27.5706,-7.9104,0.00266472,0.00106761,-0.00151255,0.00357657,0.000155759,-0.54252,0.00233419,0.014601,706,694,-27.5706,7.91042
-511,330,-27.6274,-8.92554,0.00201011,0.000309681,-0.000779026,0.00231305,6.74929e-06,-0.370865,0.00153979,0.0200192,713,694,-27.6275,8.92553
-504,330,-27.6727,-9.94623,0.00140251,-0.000307521,-0.00014659,0.00141499,-0.000319996,-0.0848983,0.00106612,0.0190113,720,694,-27.6727,9.94626
-497,330,-27.7643,-10.92,0.000928678,-0.00075196,0.000336224,0.000993446,-0.000816728,0.190303,0.00104676,0.0152338,727,694,-27.7644,10.92
-490,330,-27.8082,-11.9358,0.000638653,-0.0010025,0.000605535,0.000837889,-0.00120174,0.317868,0.00118381,0.0164184,734,694,-27.8082,11.9358
-483,330,-27.856,-12.9693,0.000467774,-0.00104006,0.000681655,0.000730244,-0.00130253,0.367552,0.00118903,0.0160216,741,694,-27.856,12.9693
-476,330,-27.9543,-14.0155,0,0,0,0,0,0,0,-1,748,694,-27.9543,14.0155
-469,330,-16.1478,-9.23303,0,0,0,0,0,0,0,-1,755,694,-16.1478,9.23301
-462,330,-7.26733,-3.84833,0,0,0,0,0,0,0,-1,762,694,-7.26731,3.84832
-455,330,-5.04254,-1.79303,0,0,0,0,0,0,0,-1,769,694,-5.04252,1.79305
-448,330,-4.89886,-1.66156,0,0,0,0,0,0,0,-1,776,694,-4.89886,1.66157
-441,330,-5.30676,-2.34045,0,0,0,0,0,0,0,-1,783,694,-5.30679,2.34048
-434,330,-7.20428,1.00024,0,0,0,0,0,0,0,-1,790,694,-7.20431,-1.00027
-427,330,-16.0428,2.89258,0,0,0,0,0,0,0,-1,797,694,-16.0428,-2.89259
-420,330,-29.0331,0.271606,0,0,0,0,0,0,0,-1,804,694,-29.0331,-0.27158
-413,330,-29.0896,0.56366,0,0,0,0,0,0,0,-1,811,694,-29.0896,-0.563671
-406,330,-1.65375,-1.74371,0,0,0,0,0,0,0,-1,818,694,-1.65375,1.74371
-399,330,0,0,0,0,0,0,0,0,0,-1,825,694,0,0
-392,330,0,0,0,0,0,0,0,0,0,-1,832,694,0,0
-385,330,0,0,0,0,0,0,0,0,0,-1,839,694,0,0
-378,330,0,0,0,0,0,0,0,0,0,-1,846,694,0,0
-371,330,0,0,0,0,0,0,0,0,0,-1,853,694,0,0
-364,330,0,0,0,0,0,0,0,0,0,-1,860,694,0,0
-357,330,0,0,0,0,0,0,0,0,0,-1,867,694,0,0
-350,330,0,0,0,0,0,0,0,0,0,-1,874,694,0,0
-343,330,0,0,0,0,0,0,0,0,0,-1,881,694,0,0
-336,330,0,0,0,0,0,0,0,0,0,-1,888,694,0,0
-329,330,0,0,0,0,0,0,0,0,0,-1,895,694,0,0
-322,330,0,0,0,0,0,0,0,0,0,-1,902,694,0,0
-315,330,0,0,0,0,0,0,0,0,0,-1,909,694,0,0
-308,330,0,0,0,0,0,0,0,0,0,-1,916,694,0,0
-301,330,0,0,0,0,0,0,0,0,0,-1,923,694,0,0
-294,330,0,0,0,0,0,0,0,0,0,-1,930,694,0,0
-287,330,0,0,0,0,0,0,0,0,0,-1,937,694,0,0
-280,330,0,0,0,0,0,0,0,0,0,-1,944,694,0,0
-273,330,0,0,0,0,0,0,0,0,0,-1,951,694,0,0
-266,330,0,0,0,0,0,0,0,0,0,-1,958,694,0,0
-259,330,0,0,0,0,0,0,0,0,0,-1,965,694,0,0
-252,330,0,0,0,0,0,0,0,0,0,-1,972,694,0,0
-245,330,0,0,0,0,0,0,0,0,0,-1,979,694,0,0
-238,330,0,0,0,0,0,0,0,0,0,-1,986,694,0,0
-231,330,0,0,0,0,0,0,0,0,0,-1,993,694,0,0
-224,330,0,0,0,0,0,0,0,0,0,-1,1000,694,0,0
-217,330,0,0,0,0,0,0,0,0,0,-1,1007,694,0,0
-210,330,0,0,0,0,0,0,0,0,0,-1,1014,694,0,0
-203,330,0,0,0,0,0,0,0,0,0,-1,1021,694,0,0
-196,330,0,0,0,0,0,0,0,0,0,-1,1028,694,0,0
-189,330,0,0,0,0,0,0,0,0,0,-1,1035,694,0,0
-182,330,0,0,0,0,0,0,0,0,0,-1,1042,694,0,0
-175,330,0,0,0,0,0,0,0,0,0,-1,1049,694,0,0
-168,330,0,0,0,0,0,0,0,0,0,-1,1056,694,0,0
-161,330,0,0,0,0,0,0,0,0,0,-1,1063,694,0,0
-154,330,0,0,0,0,0,0,0,0,0,-1,1070,694,0,0
-147,330,0,0,0,0,0,0,0,0,0,-1,1077,694,0,0
-140,330,0,0,0,0,0,0,0,0,0,-1,1084,694,0,0
-133,330,0,0,0,0,0,0,0,0,0,-1,1091,694,0,0
-126,330,0,0,0,0,0,0,0,0,0,-1,1098,694,0,0
-119,330,0,0,0,0,0,0,0,0,0,-1,1105,694,0,0
-112,330,0,0,0,0,0,0,0,0,0,-1,1112,694,0,0
-105,330,0,0,0,0,0,0,0,0,0,-1,1119,694,0,0
-98,330,0,0,0,0,0,0,0,0,0,-1,1126,694,0,0
-91,330,0,0,0,0,0,0,0,0,0,-1,1133,694,0,0
-84,330,0,0,0,0,0,0,0,0,0,-1,1140,694,0,0
-77,330,0,0,0,0,0,0,0,0,0,-1,1147,694,0,0
-70,330,0,0,0,0,0,0,0,0,0,-1,1154,694,0,0
-63,330,0,0,0,0,0,0,0,0,0,-1,1161,694,0,0
-56,330,0,0,0,0,0,0,0,0,0,-1,1168,694,0,0
-49,330,0,0,0,0,0,0,0,0,0,-1,1175,694,0,0
-42,330,0,0,0,0,0,0,0,0,0,-1,1182,694,0,0
-35,330,0,0,0,0,0,0,0,0,0,-1,1189,694,0,0
-28,330,0,0,0,0,0,0,0,0,0,-1,1196,694,0,0
-21,330,0,0,0,0,0,0,0,0,0,-1,1203,694,0,0
-14,330,0,0,0,0,0,0,0,0,0,-1,1210,694,0,0
-7,330,0,0,0,0,0,0,0,0,0,-1,1217,694,0,0
0,330,0,0,0,0,0,0,0,0,0,-1,1224,694,0,0
7,330,0,0,0,0,0,0,0,0,0,-1,1231,694,0,0
14,330,0,0,0,0,0,0,0,0,0,-1,1238,694,0,0
21,330,0,0,0,0,0,0,0,0,0,-1,1245,694,0,0
28,330,0,0,0,0,0,0,0,0,0,-1,1252,694,0,0
35,330,0,0,0,0,0,0,0,0,0,-1,1259,694,0,0
42,330,0,0,0,0,0,0,0,0,0,-1,1266,694,0,0
49,330,0,0,0,0,0,0,0,0,0,-1,1273,694,0,0
56,330,0,0,0,0,0,0,0,0,0,-1,1280,694,0,0
63,330,0,0,0,0,0,0,0,0,0,-1,1287,694,0,0
70,330,0,0,0,0,0,0,0,0,0,-1,1294,694,0,0
77,330,0,0,0,0,0,0,0,0,0,-1,1301,694,0,0
84,330,0,0,0,0,0,0,0,0,0,-1,1308,694,0,0
91,330,0,0,0,0,0,0,0,0,0,-1,1315,694,0,0
98,330,0,0,0,0,0,0,0,0,0,-1,1322,694,0,0
105,330,0,0,0,0,0,0,0,0,0,-1,1329,694,0,0
112,330,0,0,0,0,0,0,0,0,0,-1,1336,694,0,0
119,330,0,0,0,0,0,0,0,0,0,-1,1343,694,0,0
126,330,0,0,0,0,0,0,0,0,0,-1,1350,694,0,0
133,330,0,0,0,0,0,0,0,0,0,-1,1357,694,0,0
140,330,0,0,0,0,0,0,0,0,0,-1,1364,694,0,0
147,330,0,0,0,0,0,0,0,0,0,-1,1371,694,0,0
154,330,0,0,0,0,0,0,0,0,0,-1,1378,694,0,0
161,330,0,0,0,0,0,0,0,0,0,-1,1385,694,0,0
168,330,0,0,0,0,0,0,0,0,0,-1,1392,694,0,0
175,330,0,0,0,0,0,0,0,0,0,-1,1399,694,0,0
182,330,0,0,0,0,0,0,0,0,0,-1,1406,694,0,0
189,330,0,0,0,0,0,0,0,0,0,-1,1413,694,0,0
196,330,0,0,0,0,0,0,0,0,0,-1,1420,694,0,0
203,330,0,0,0,0,0,0,0,0,0,-1,1427,694,0,0
210,330,0,0,0,0,0,0,0,0,0,-1,1434,694,0,0
217,330,0,0,0,0,0,0,0,0,0,-1,1441,694,0,0
224,330,0,0,0,0,0,0,0,0,0,-1,1448,694,0,0
231,330,0,0,0,0,0,0,0,0,0,-1,1455,694,0,0
238,330,0,0,0,0,0,0,0,0,0,-1,1462,694,0,0
245,330,0,0,0,0,0,0,0,0,0,-1,1469,694,0,0
252,330,0,0,0,0,0,0,0,0,0,-1,1476,694,0,0
259,330,0,0,0,0,0,0,0,0,0,-1,1483,694,0,0
266,330,0,0,0,0,0,0,0,0,0,-1,1490,694,0,0
273,330,0,0,0,0,0,0,0,0,0,-1,1497,694,0,0
280,330,0,0,0,0,0,0,0,0,0,-1,1504,694,0,0
287,330,0,0,0,0,0,0,0,0,0,-1,1511,694,0,0
294,330,0,0,0,0,0,0,0,0,0,-1,1518,694,0,0
301,330,0,0,0,0,0,0,0,0,0,-1,1525,694,0,0
308,330,0,0,0,0,0,0,0,0,0,-1,1532,694,0,0
315,330,0,0,0,0,0,0,0,0,0,-1,1539,694,0,0
322,330,0,0,0,0,0,0,0,0,0,-1,1546,694,0,0
329,330,0,0,0,0,0,0,0,0,0,-1,1553,694,0,0
336,330,0,0,0,0,0,0,0,0,0,-1,1560,694,0,0
343,330,0,0,0,0,0,0,0,0,0,-1,1567,694,0,0
350,330,0,0,0,0,0,0,0,0,0,-1,1574,694,0,0
357,330,0,0,0,0,0,0,0,0,0,-1,1581,694,0,0
364,330,0,0,0,0,0,0,0,0,0,-1,1588,694,0,0
371,330,0,0,0,0,0,0,0,0,0,-1,1595,694,0,0
378,330,0,0,0,0,0,0,0,0,0,-1,1602,694,0,0
385,330,0,0,0,0,0,0,0,0,0,-1,1609,694,0,0
392,330,0,0,0,0,0,0,0,0,0,-1,1616,694,0,0
399,330,0,0,0,0,0,0,0,0,0,-1,1623,694,0,0
406,330,0,0,0,0,0,0,0,0,0,-1,1630,694,0,0
413,330,0,0,0,0,0,0,0,0,0,-1,1637,694,0,0
420,330,0,0,0,0,0,0,0,0,0,-1,1644,694,0,0
427,330,0,0,0,0,0,0,0,0,0,-1,1651,694,0,0
434,330,0,0,0,0,0,0,0,0,0,-1,1658,694,0,0
441,330,0,0,0,0,0,0,0,0,0,-1,1665,694,0,0
448,330,0,0,0,0,0,0,0,0,0,-1,1672,694,0,0
455,330,0,0,0,0,0,0,0,0,0,-1,1679,694,0,0
462,330,0,0,0,0,0,0,0,0,0,-1,1686,694,0,0
469,330,0,0,0,0,0,0,0,0,0,-1,1693,694,0,0
476,330,0,0,0,0,0,0,0,0,0,-1,1700,694,0,0
483,330,0,0,0,0,0,0,0,0,0,-1,1707,694,0,0
490,330,0,0,0,0,0,0,0,0,0,-1,1714,694,0,0
497,330,0,0,0,0,0,0,0,0,0,-1,1721,694,0,0
504,330,0,0,0,0,0,0,0,0,0,-1,1728,694,0,0
511,330,0,0,0,0,0,0,0,0,0,-1,1735,694,0,0
518,330,0,0,0,0,0,0,0,0,0,-1,1742,694,0,0
525,330,30.6694,0.69519,0,0,0,0,0,0,0,-1,1749,694,30.6694,-0.695206
532,330,30.9469,1.32501,0,0,0,0,0,0,0,-1,1756,694,30.9469,-1.32501
539,330,31.5155,1.62506,0,0,0,0,0,0,0,-1,1763,694,31.5155,-1.62507
546,330,31.4187,1.85651,0,0,0,0,0,0,0,-1,1770,694,31.4187,-1.85651
553,330,31.8452,1.81476,0,0,0,0,0,0,0,-1,1777,694,31.8452,-1.81475
560,330,32.2401,2.43225,0,0,0,0,0,0,0,-1,1784,694,32.2401,-2.43227
567,330,18.0321,3.98578,0,0,0,0,0,0,0,-1,1791,694,18.0321,-3.98576
574,330,12.0454,2.1662,0,0,0,0,0,0,0,-1,1798,694,12.0455,-2.16618
581,330,11.4215,4.50836,0,0,0,0,0,0,0,-1,1805,694,11.4215,-4.50837
588,330,6.45667,-0.0630493,0,0,0,0,0,0,0,-1,1812,694,6.45661,0.0630695
595,330,8.23193,-0.258484,0,0,0,0,0,0,0,-1,1819,694,8.23188,0.258459
602,330,44.2886,-14.0816,0,0,0,0,0,0,0,-1,1826,694,44.2886,14.0816
609,330,44.4176,-12.8828,0.00266873,-0.000488138,0.000837207,0.00287701,-0.000696424,0.243837,0.00218742,0.0273222,1833,694,44.4175,12.8828
616,330,44.4098,-11.8842,0.0023113,-0.000504592,0.000796497,0.00252098,-0.000714274,0.257415,0.00196256,0.0126251,1840,694,44.4098,11.8841
623,330,44.3394,-10.8942,0.00186368,-0.000360854,0.000644277,0.0020368,-0.000533978,0.26251,0.0015665,0.0146349,1847,694,44.3394,10.8941
630,330,44.2775,-9.86688,0.00159417,-0.000123617,0.000597042,0.0017813,-0.000310743,0.303725,0.00130352,0.0146193,1854,694,44.2775,9.86689
637,330,44.2129,-8.85901,0.00140421,0.0001947,0.000583573,0.00163986,-4.09531e-05,0.383788,0.00110714,0.0143274,1861,694,44.2129,8.85904
644,330,44.1189,-7.85651,0.00130659,0.000597836,0.000616477,0.00166328,0.000241137,0.524542,0.00103786,0.00983592,1868,694,44.1188,7.85649
651,330,44.0571,-6.83026,0.00132751,0.00111047,0.000702394,0.00192972,0.000508263,0.708756,0.00115496,0.0137198,1875,694,44.0571,6.83024
658,330,43.9927,-5.84027,0.00150257,0.00174537,0.000865245,0.00249769,0.000750247,0.855096,0.00147985,0.0144187,1882,694,43.9927,5.84026
665,330,43.9165,-4.8584,0.00198402,0.00251179,0.0011582,0.00343579,0.00106002,0.897408,0.00203156,0.012724,1889,694,43.9165,4.85842
672,330,43.9863,-3.82172,0.002793,0.00353657,0.00147104,0.00468208,0.00164749,0.909173,0.00274246,0.0412512,1896,694,43.9863,3.82174
679,330,44.1837,-2.70654,0,0,0,0,0,0,0,-1,1903,694,44.1837,2.70654
686,330,30.6691,0.582825,0,0,0,0,0,0,0,-1,1910,694,30.6691,-0.582798
693,330,17.3999,2.5976,0,0,0,0,0,0,0,-1,1917,694,17.4,-2.59759
700,330,17.1072,4.13,0,0,0,0,0,0,0,-1,1924,694,17.1071,-4.13002
707,330,16.663,4.88672,0,0,0,0,0,0,0,-1,1931,694,16.6629,-4.88673
714,330,16.5454,5.80896,0,0,0,0,0,0,0,-1,1938,694,16.5454,-5.80899
721,330,0,0,0,0,0,0,0,0,0,-1,1945,694,0,0
728,330,0,0,0,0,0,0,0,0,0,-1,1952,694,0,0
735,330,0,0,0,0,0,0,0,0,0,-1,1959,694,0,0
742,330,0,0,0,0,0,0,0,0,0,-1,1966,694,0,0
749,330,0,0,0,0,0,0,0,0,0,-1,1973,694,0,0
756,330,0,0,0,0,0,0,0,0,0,-1,1980,694,0,0
763,330,0,0,0,0,0,0,0,0,0,-1,1987,694,0,0
770,330,0,0,0,0,0,0,0,0,0,-1,1994,694,0,0
777,330,0,0,0,0,0,0,0,0,0,-1,2001,694,0,0
784,330,0,0,0,0,0,0,0,0,0,-1,2008,694,0,0
791,330,0,0,0,0,0,0,0,0,0,-1,2015,694,0,0
798,330,0,0,0,0,0,0,0,0,0,-1,2022,694,0,0
805,330,0,0,0,0,0,0,0,0,0,-1,2029,694,0,0
812,330,0,0,0,0,0,0,0,0,0,-1,2036,694,0,0
-700,323,0,0,0,0,0,0,0,0,0,-1,524,701,0,0
-693,323,0,0,0,0,0,0,0,0,0,-1,531,701,0,0
-686,323,0,0,0,0,0,0,0,0,0,-1,538,701,0,0
-679,323,0,0,0,0,0,0,0,0,0,-1,545,701,0,0
-672,323,0,0,0,0,0,0,0,0,0,-1,552,701,0,0
-665,323,0,0,0,0,0,0,0,0,0,-1,559,701,0,0
-658,323,0,0,0,0,0,0,0,0,0,-1,566,701,0,0
-651,323,0,0,0,0,0,0,0,0,0,-1,573,701,0,0
-644,323,0,0,0,0,0,0,0,0,0,-1,580,701,0,0
-637,323,0,0,0,0,0,0,0,0,0,-1,587,701,0,0
-630,323,0,0,0,0,0,0,0,0,0,-1,594,701,0,0
-623,323,0,0,0,0,0,0,0,0,0,-1,601,701,0,0
-616,323,0,0,0,0,0,0,0,0,0,-1,608,701,0,0
-609,323,0,0,0,0,0,0,0,0,0,-1,615,701,0,0
-602,323,-4.15833,2.12256,0,0,0,0,0,0,0,-1,622,701,-4.1583,-2.12257
-595,323,-4.052,1.79156,0,0,0,0,0,0,0,-1,629,701,-4.05198,-1.79158
-588,323,-4.07019,1.94543,0,0,0,0,0,0,0,-1,636,701,-4.07019,-1.94542
-581,323,-6.63727,0.562805,0,0,0,0,0,0,0,-1,643,701,-6.63728,-0.56279
-574,323,-6.15887,0.426697,0,0,0,0,0,0,0,-1,650,701,-6.15887,-0.426727
-567,323,-10.0015,0.0371094,0,0,0,0,0,0,0,-1,657,701,-10.0015,-0.037126
-560,323,-16.3503,-1.16956,0,0,0,0,0,0,0,-1,664,701,-16.3503,1.16957
-553,323,-28.3921,-2.95691,0,0,0,0,0,0,0,-1,671,701,-28.3921,2.95693
-546,323,-28.3315,-3.80133,0,0,0,0,0,0,0,-1,678,701,-28.3315,3.80132
-539,323,-28.3239,-4.70044,0.00458336,0.00370037,-0.00359611,0.00776497,0.000518758,-0.724319,0.00501269,0.0334029,685,701,-28.3238,4.70047
-532,323,-28.4382,-5.78479,0.00381731,0.00262825,-0.00276925,0.00605514,0.000390427,-0.679658,0.00391311,0.0127054,692,701,-28.4381,5.78478
-525,323,-28.505,-6.82703,0.00304635,0.00163487,-0.00193224,0.0043977,0.000283516,-0.610303,0.00284201,0.00806612,699,701,-28.505,6.82704
-518,323,-28.5685,-7.82434,0.00228064,0.000786131,-0.00113992,0.0028964,0.000170373,-0.49527,0.00187672,0.00974328,706,701,-28.5685,7.82434
-511,323,-28.6525,-8.84125,0.00161743,6.7014e-05,-0.000455076,0.00174113,-5.66895e-05,-0.265417,0.0011801,0.0134066,713,701,-28.6525,8.84126
-504,323,-28.7329,-9.83252,0.000965372,-0.000559241,0.000188823,0.00098841,-0.000582278,0.121406,0.000916886,0.0151543,720,701,-28.7329,9.83254
-497,323,-28.7722,-10.8235,0.000430623,-0.0010379,0.000709255,0.000717234,-0.00132451,0.384038,0.00119606,0.0133539,727,701,-28.7722,10.8235
-490,323,-28.8552,-11.8353,9.30558e-05,-0.00135576,0.00104586,0.000640882,-0.00190359,0.482511,0.00152816,0.0148733,734,701,-28.8552,11.8353
-483,323,-28.9068,-12.8381,-0.000150667,-0.0014246,0.00121702,0.000585997,-0.00216127,0.544309,0.00167079,0.0345909,741,701,-28.9068,12.8382
-476,323,-28.9183,-13.8583,0,0,0,0,0,0,0,-1,748,701,-28.9184,13.8584
-469,323,-8.33301,-3.64001,0,0,0,0,0,0,0,-1,755,701,-8.33298,3.64
-462,323,-5.29431,-1.45697,0,0,0,0,0,0,0,-1,762,701,-5.29431,1.45699
-455,323,-5.0658,-1.36639,0,0,0,0,0,0,0,-1,769,701,-5.06578,1.3664
-448,323,-4.91608,-1.59601,0,0,0,0,0,0,0,-1,776,701,-4.91606,1.59604
-441,323,-14.4006,0.535217,0,0,0,0,0,0,0,-1,783,701,-14.4006,-0.535203
-434,323,-15.3158,2.479,0,0,0,0,0,0,0,-1,790,701,-15.3158,-2.47898
-427,323,-28.3923,1.16797,0,0,0,0,0,0,0,-1,797,701,-28.3923,-1.16796
-420,323,-28.7292,1.09302,0,0,0,0,0,0,0,-1,804,701,-28.7292,-1.09304
-413,323,-28.7955,1.22418,0,0,0,0,0,0,0,-1,811,701,-28.7956,-1.22419
-406,323,0,0,0,0,0,0,0,0,0,-1,818,701,0,0
-399,323,0,0,0,0,0,0,0,0,0,-1,825,701,0,0
-392,323,0,0,0,0,0,0,0,0,0,-1,832,701,0,0
-385,323,0,0,0,0,0,0,0,0,0,-1,839,701,0,0
-378,323,0,0,0,0,0,0,0,0,0,-1,846,701,0,0
-371,323,0,0,0,0,0,0,0,0,0,-1,853,701,0,0
-364,323,0,0,0,0,0,0,0,0,0,-1,860,701,0,0
-357,323,0,0,0,0,0,0,0,0,0,-1,867,701,0,0
-350,323,0,0,0,0,0,0,0,0,0,-1,874,701,0,0
-343,323,0,0,0,0,0,0,0,0,0,-1,881,701,0,0
-336,323,0,0,0,0,0,0,0,0,0,-1,888,701,0,0
-329,323,0,0,0,0,0,0,0,0,0,-1,895,701,0,0
-322,323,0,0,0,0,0,0,0,0,0,-1,902,701,0,0
-315,323,0,0,0,0,0,0,0,0,0,-1,909,701,0,0
-308,323,0,0,0,0,0,0,0,0,0,-1,916,701,0,0
-301,323,0,0,0,0,0,0,0,0,0,-1,923,701,0,0
-294,323,0,0,0,0,0,0,0,0,0,-1,930,701,0,0
-287,323,0,0,0,0,0,0,0,0,0,-1,937,701,0,0
-280,323,0,0,0,0,0,0,0,0,0,-1,944,701,0,0
-273,323,0,0,0,0,0,0,0,0,0,-1,951,701,0,0
-266,323,0,0,0,0,0,0,0,0,0,-1,958,701,0,0
-259,323,0,0,0,0,0,0,0,0,0,-1,965,701,0,0
-252,323,0,0,0,0,0,0,0,0,0,-1,972,701,0,0
-245,323,0,0,0,0,0,0,0,0,0,-1,979,701,0,0
-238,323,0,0,0,0,0,0,0,0,0,-1,986,701,0,0
-231,323,0,0,0,0,0,0,0,0,0,-1,993,701,0,0
-224,323,0,0,0,0,0,0,0,0,0,-1,1000,701,0,0
-217,323,0,0,0,0,0,0,0,0,0,-1,1007,701,0,0
-210,323,0,0,0,0,0,0,0,0,0,-1,1014,701,0,0
-203,323,0,0,0,0,0,0,0,0,0,-1,1021,701,0,0
-196,323,0,0,0,0,0,0,0,0,0,-1,1028,701,0,0
-189,323,0,0,0,0,0,0,0,0,0,-1,1035,701,0,0
-182,323,0,0,0,0,0,0,0,0,0,-1,1042,701,0,0
-175,323,0,0,0,0,0,0,0,0,0,-1,1049,701,0,0
-168,323,0,0,0,0,0,0,0,0,0,-1,1056,701,0,0
-161,323,0,0,0,0,0,0,0,0,0,-1,1063,701,0,0
-154,323,0,0,0,0,0,0,0,0,0,-1,1070,701,0,0
-147,323,0,0,0,0,0,0,0,0,0,-1,1077,701,0,0
-140,323,0,0,0,0,0,0,0,0,0,-1,1084,701,0,0
-133,323,0,0,0,0,0,0,0,0,0,-1,1091,701,0,0
-126,323,0,0,0,0,0,0,0,0,0,-1,1098,701,0,0
-119,323,0,0,0,0,0,0,0,0,0,-1,1105,701,0,0
-112,323,0,0,0,0,0,0,0,0,0,-1,1112,701,0,0
-105,323,0,0,0,0,0,0,0,0,0,-1,1119,701,0,0
-98,323,0,0,0,0,0,0,0,0,0,-1,1126,701,0,0
-91,323,0,0,0,0,0,0,0,0,0,-1,1133,701,0,0
-84,323,0,0,0,0,0,0,0,0,0,-1,1140,701,0,0
-77,323,0,0,0,0,0,0,0,0,0,-1,1147,701,0,0
-70,323,0,0,0,0,0,0,0,0,0,-1,1154,701,0,0
-63,323,0,0,0,0,0,0,0,0,0,-1,1161,701,0,0
-56,323,0,0,0,0,0,0,0,0,0,-1,1168,701,0,0
-49,323,0,0,0,0,0,0,0,0,0,-1,1175,701,0,0
-42,323,0,0,0,0,0,0,0,0,0,-1,1182,701,0,0
-35,323,0,0,0,0,0,0,0,0,0,-1,1189,701,0,0
-28,323,0,0,0,0,0,0,0,0,0,-1,1196,701,0,0
-21,323,0,0,0,0,0,0,0,0,0,-1,1203,701,0,0
-14,323,0,0,0,0,0,0,0,0,0,-1,1210,701,0,0
-7,323,0,0,0,0,0,0,0,0,0,-1,1217,701,0,0
0,323,0,0,0,0,0,0,0,0,0,-1,1224,701,0,0
7,323,0,0,0,0,0,0,0,0,0,-1,1231,701,0,0
14,323,0,0,0,0,0,0,0,0,0,-1,1238,701,0,0
21,323,0,0,0,0,0,0,0,0,0,-1,1245,701,0,0
28,323,0,0,0,0,0,0,0,0,0,-1,1252,701,0,0
35,323,0,0,0,0,0,0,0,0,0,-1,1259,701,0,0
42,323,0,0,0,0,0,0,0,0,0,-1,1266,701,0,0
49,323,0,0,0,0,0,0,0,0,0,-1,1273,701,0,0
56,323,0,0,0,0,0,0,0,0,0,-1,1280,701,0,0
63,323,0,0,0,0,0,0,0,0,0,-1,1287,701,0,0
70,323,0,0,0,0,0,0,0,0,0,-1,1294,701,0,0
77,323,0,0,0,0,0,0,0,0,0,-1,1301,701,0,0
84,323,0,0,0,0,0,0,0,0,0,-1,1308,701,0,0
91,323,0,0,0,0,0,0,0,0,0,-1,1315,701,0,0
98,323,0,0,0,0,0,0,0,0,0,-1,1322,701,0,0
105,323,0,0,0,0,0,0,0,0,0,-1,1329,701,0,0
112,323,0,0,0,0,0,0,0,0,0,-1,1336,701,0,0
119,323,0,0,0,0,0,0,0,0,0,-1,1343,701,0,0
126,323,0,0,0,0,0,0,0,0,0,-1,1350,701,0,0
133,323,0,0,0,0,0,0,0,0,0,-1,1357,701,0,0
140,323,0,0,0,0,0,0,0,0,0,-1,1364,701,0,0
147,323,0,0,0,0,0,0,0,0,0,-1,1371,701,0,0
154,323,0,0,0,0,0,0,0,0,0,-1,1378,701,0,0
161,323,0,0,0,0,0,0,0,0,0,-1,1385,701,0,0
168,323,0,0,0,0,0,0,0,0,0,-1,1392,701,0,0
175,323,0,0,0,0,0,0,0,0,0,-1,1399,701,0,0
182,323,0,0,0,0,0,0,0,0,0,-1,1406,701,0,0
189,323,0,0,0,0,0,0,0,0,0,-1,1413,701,0,0
196,323,0,0,0,0,0,0,0,0,0,-1,1420,701,0,0
203,323,0,0,0,0,0,0,0,0,0,-1,1427,701,0,0
210,323,0,0,0,0,0,0,0,0,0,-1,1434,701,0,0
217,323,0,0,0,0,0,0,0,0,0,-1,1441,701,0,0
224,323,0,0,0,0,0,0,0,0,0,-1,1448,701,0,0
231,323,0,0,0,0,0,0,0,0,0,-1,1455,701,0,0
238,323,0,0,0,0,0,0,0,0,0,-1,1462,701,0,0
245,323,0,0,0,0,0,0,0,0,0,-1,1469,701,0,0
252,323,0,0,0,0,0,0,0,0,0,-1,1476,701,0,0
259,323,0,0,0,0,0,0,0,0,0,-1,1483,701,0,0
266,323,0,0,0,0,0,0,0,0,0,-1,1490,701,0,0
273,323,0,0,0,0,0,0,0,0,0,-1,1497,701,0,0
280,323,0,0,0,0,0,0,0,0,0,-1,1504,701,0,0
287,323,0,0,0,0,0,0,0,0,0,-1,1511,701,0,0
294,323,0,0,0,0,0,0,0,0,0,-1,1518,701,0,0
301,323,0,0,0,0,0,0,0,0,0,-1,1525,701,0,0
308,323,0,0,0,0,0,0,0,0,0,-1,1532,701,0,0
315,323,0,0,0,0,0,0,0,0,0,-1,1539,701,0,0
322,323,0,0,0,0,0,0,0,0,0,-1,1546,701,0,0
329,323,0,0,0,0,0,0,0,0,0,-1,1553,701,0,0
336,323,0,0,0,0,0,0,0,0,0,-1,1560,701,0,0
343,323,0,0,0,0,0,0,0,0,0,-1,1567,701,0,0
350,323,0,0,0,0,0,0,0,0,0,-1,1574,701,0,0
357,323,0,0,0,0,0,0,0,0,0,-1,1581,701,0,0
364,323,0,0,0,0,0,0,0,0,0,-1,1588,701,0,0
371,323,0,0,0,0,0,0,0,0,0,-1,1595,701,0,0
378,323,0,0,0,0,0,0,0,0,0,-1,1602,701,0,0
385,323,0,0,0,0,0,0,0,0,0,-1,1609,701,0,0
392,323,0,0,0,0,0,0,0,0,0,-1,1616,701,0,0
399,323,0,0,0,0,0,0,0,0,0,-1,1623,701,0,0
406,323,0,0,0,0,0,0,0,0,0,-1,1630,701,0,0
413,323,0,0,0,0,0,0,0,0,0,-1,1637,701,0,0
420,323,0,0,0,0,0,0,0,0,0,-1,1644,701,0,0
427,323,0,0,0,0,0,0,0,0,0,-1,1651,701,0,0
434,323,0,0,0,0,0,0,0,0,0,-1,1658,701,0,0
441,323,0,0,0,0,0,0,0,0,0,-1,1665,701,0,0
448,323,0,0,0,0,0,0,0,0,0,-1,1672,701,0,0
455,323,0,0,0,0,0,0,0,0,0,-1,1679,701,0,0
462,323,0,0,0,0,0,0,0,0,0,-1,1686,701,0,0
469,323,0,0,0,0,0,0,0,0,0,-1,1693,701,0,0
476,323,0,0,0,0,0,0,0,0,0,-1,1700,701,0,0
483,323,0,0,0,0,0,0,0,0,0,-1,1707,701,0,0
490,323,0,0,0,0,0,0,0,0,0,-1,1714,701,0,0
497,323,0,0,0,0,0,0,0,0,0,-1,1721,701,0,0
504,323,0,0,0,0,0,0,0,0,0,-1,1728,701,0,0
511,323,0,0,0,0,0,0,0,0,0,-1,1735,701,0,0
518,323,0,0,0,0,0,0,0,0,0,-1,1742,701,0,0
525,323,0,0,0,0,0,0,0,0,0,-1,1749,701,0,0
532,323,33.6193,1.69446,0,0,0,0,0,0,0,-1,1756,701,33.6193,-1.69444
539,323,32.2698,2.44037,0,0,0,0,0,0,0,-1,1763,701,32.2697,-2.44036
546,323,31.1644,3.9444,0,0,0,0,0,0,0,-1,1770,701,31.1644,-3.94438
553,323,30.2488,5.8775,0,0,0,0,0,0,0,-1,1777,701,30.2487,-5.87752
560,323,40.6711,1.25153,0,0,0,0,0,0,0,-1,1784,701,40.6711,-1.25154
567,323,42.1637,2.01208,0,0,0,0,0,0,0,-1,1791,701,42.1637,-2.01207
574,323,12.514,5.89685,0,0,0,0,0,0,0,-1,1798,701,12.5141,-5.89683
581,323,11.821,5.3476,0,0,0,0,0,0,0,-1,1805,701,11.821,-5.34762
588,323,11.7933,7.00818,0,0,0,0,0,0,0,-1,1812,701,11.7933,-7.00819
595,323,6.67847,0.06604,0,0,0,0,0,0,0,-1,1819,701,6.67841,-0.0660418
602,323,45.063,-13.866,0,0,0,0,0,0,0,-1,1826,701,45.063,13.866
609,323,45.2953,-12.7975,0.00339067,-0.000452153,0.00116064,0.00371401,-0.000775493,0.271699,0.00277092,0.0406424,1833,701,45.2953,12.7975
616,323,45.3879,-11.777,0.00287144,-0.000554538,0.00107102,0.0031787,-0.0008618,0.279384,0.0024573,0.0143731,1840,701,45.388,11.777
623,323,45.3301,-10.787,0.00223015,-0.000448832,0.000827752,0.00246528,-0.000683955,0.27676,0.00191271,0.0131964,1847,701,45.3301,10.787
630,323,45.2769,-9.77936,0.00187139,-0.000270012,0.000710374,0.00208562,-0.000484235,0.292892,0.00157681,0.014044,1854,701,45.2769,9.77934
637,323,45.218,-8.77448,0.00162094,7.82692e-06,0.000651434,0.00185116,-0.00022239,0.339701,0.00131452,0.0122666,1861,701,45.218,8.77445
644,323,45.131,-7.79633,0.00148498,0.00038101,0.000656159,0.00179045,7.55377e-05,0.435706,0.00116927,0.00984052,1868,701,45.1309,7.79631
651,323,45.0927,-6.776,0.00147416,0.000856185,0.00071427,0.00194341,0.000386934,0.581256,0.00118783,0.0143057,1875,701,45.0927,6.77601
658,323,44.9652,-5.7525,0.00163539,0.00145464,0.00085971,0.00240946,0.000680571,0.73303,0.00143432,0.0244948,1882,701,44.9653,5.75248
665,323,44.8783,-4.77112,0.00204515,0.00217838,0.00112825,0.00324199,0.000981547,0.814884,0.00191969,0.0192732,1889,701,44.8783,4.77114
672,323,44.8998,-3.7204,0.0027274,0.00312285,0.0014619,0.00440034,0.00144991,0.852616,0.0025893,0.0237826,1896,701,44.8997,3.72041
679,323,44.9624,-2.53625,0,0,0,0,0,0,0,-1,1903,701,44.9624,2.53626
686,323,30.4916,0.378235,0,0,0,0,0,0,0,-1,1910,701,30.4916,-0.37825
693,323,23.8806,1.08844,0,0,0,0,0,0,0,-1,1917,701,23.8806,-1.08845
700,323,10.7705,0.828613,0,0,0,0,0,0,0,-1,1924,701,10.7705,-0.828591
707,323,16.9005,4.79193,0,0,0,0,0,0,0,-1,1931,701,16.9005,-4.7919
714,323,16.2346,6.25958,0,0,0,0,0,0,0,-1,1938,701,16.2346,-6.25956
721,323,0,0,0,0,0,0,0,0,0,-1,1945,701,0,0
728,323,0,0,0,0,0,0,0,0,0,-1,1952,701,0,0
735,323,0,0,0,0,0,0,0,0,0,-1,1959,701,0,0
742,323,0,0,0,0,0,0,0,0,0,-1,1966,701,0,0
749,323,0,0,0,0,0,0,0,0,0,-1,1973,701,0,0
756,323,0,0,0,0,0,0,0,0,0,-1,1980,701,0,0
763,323,0,0,0,0,0,0,0,0,0,-1,1987,701,0,0
770,323,0,0,0,0,0,0,0,0,0,-1,1994,701,0,0
777,323,0,0,0,0,0,0,0,0,0,-1,2001,701,0,0
784,323,0,0,0,0,0,0,0,0,0,-1,2008,701,0,0
791,323,0,0,0,0,0,0,0,0,0,-1,2015,701,0,0
798,323,0,0,0,0,0,0,0,0,0,-1,2022,701,0,0
805,323,0,0,0,0,0,0,0,0,0,-1,2029,701,0,0
812,323,0,0,0,0,0,0,0,0,0,-1,2036,701,0,0
-700,316,0,0,0,0,0,0,0,0,0,-1,524,708,0,0
-693,316,0,0,0,0,0,0,0,0,0,-1,531,708,0,0
-686,316,0,0,0,0,0,0,0,0,0,-1,538,708,0,0
-679,316,0,0,0,0,0,0,0,0,0,-1,545,708,0,0
-672,316,0,0,0,0,0,0,0,0,0,-1,552,708,0,0
-665,316,0,0,0,0,0,0,0,0,0,-1,559,708,0,0
-658,316,0,0,0,0,0,0,0,0,0,-1,566,708,0,0
-651,316,0,0,0,0,0,0,0,0,0,-1,573,708,0,0
-644,316,0,0,0,0,0,0,0,0,0,-1,580,708,0,0
-637,316,0,0,0,0,0,0,0,0,0,-1,587,708,0,0
-630,316,0,0,0,0,0,0,0,0,0,-1,594,708,0,0
-623,316,0,0,0,0,0,0,0,0,0,-1,601,708,0,0
-616,316,0,0,0,0,0,0,0,0,0,-1,608,708,0,0
-609,316,0,0,0,0,0,0,0,0,0,-1,615,708,0,0
-602,316,-0.451782,-0.0494995,0,0,0,0,0,0,0,-1,622,708,-0.451768,0.0495022
-595,316,-3.3761,2.17188,0,0,0,0,0,0,0,-1,629,708,-3.37609,-2.17189
-588,316,-5.00177,2.60675,0,0,0,0,0,0,0,-1,636,708,-5.00175,-2.60676
-581,316,-3.94653,0.393433,0,0,0,0,0,0,0,-1,643,708,-3.94655,-0.39342
-574,316,-9.67395,1.06067,0,0,0,0,0,0,0,-1,650,708,-9.67396,-1.06065
-567,316,-10.1962,0.448425,0,0,0,0,0,0,0,-1,657,708,-10.1962,-0.448411
-560,316,-18.9941,-1.75067,0,0,0,0,0,0,0,-1,664,708,-18.9941,1.75068
-553,316,-25.6896,-2.78827,0,0,0,0,0,0,0,-1,671,708,-25.6896,2.78827
-546,316,-29.5433,-4.10449,0,0,0,0,0,0,0,-1,678,708,-29.5433,4.10447
-539,316,-29.3489,-4.70868,0.00358573,0.00334373,-0.00285272,0.00632001,0.000609447,-0.764203,0.0040256,0.0136157,685,708,-29.3489,4.70868
-532,316,-29.4219,-5.70831,0.00304211,0.00226136,-0.00217557,0.00486206,0.000441415,-0.696624,0.00310471,0.0107292,692,708,-29.4219,5.70834
-525,316,-29.4807,-6.69812,0.00242722,0.00123597,-0.00145513,0.00340391,0.000259284,-0.591138,0.00218797,0.0100714,699,708,-29.4806,6.69812
-518,316,-29.528,-7.71729,0.00178026,0.000400442,-0.000741784,0.00210338,7.73271e-05,-0.410808,0.0013772,0.0102007,706,708,-29.528,7.7173
-511,316,-29.6401,-8.75092,0.00117461,-0.000344575,-7.48161e-05,0.00117828,-0.00034825,-0.0490893,0.000923751,0.0112655,713,708,-29.6401,8.75093
-504,316,-29.7331,-9.77332,0.000534777,-0.00103505,0.000604418,0.000740525,-0.0012408,0.328103,0.00115601,0.0155586,720,708,-29.7331,9.7733
-497,316,-29.7715,-10.741,-3.84126e-06,-0.00160672,0.00118847,0.000628163,-0.00223873,0.488748,0.00174008,0.0142015,727,708,-29.7715,10.741
-490,316,-29.8647,-11.7419,-0.000314013,-0.00204236,0.00160349,0.000643346,-0.00299972,0.538245,0.0022452,0.0194899,734,708,-29.8647,11.742
-483,316,-29.8307,-12.7558,0,0,0,0,0,0,0,-1,741,708,-29.8307,12.7558
-476,316,-8.90894,-3.31207,0,0,0,0,0,0,0,-1,748,708,-8.90896,3.31206
-469,316,-6.24194,-1.42725,0,0,0,0,0,0,0,-1,755,708,-6.24192,1.42725
-462,316,-5.74237,-1.40039,0,0,0,0,0,0,0,-1,762,708,-5.74238,1.40039
-455,316,-5.44745,-1.21899,0,0,0,0,0,0,0,-1,769,708,-5.44746,1.21898
-448,316,-14.8945,0.655396,0,0,0,0,0,0,0,-1,776,708,-14.8946,-0.655396
-441,316,-14.9626,0.576111,0,0,0,0,0,0,0,-1,783,708,-14.9626,-0.576115
-434,316,-27.7723,1.15576,0,0,0,0,0,0,0,-1,790,708,-27.7723,-1.15579
-427,316,-28.0504,1.31427,0,0,0,0,0,0,0,-1,797,708,-28.0504,-1.31427
-420,316,-28.198,1.62891,0,0,0,0,0,0,0,-1,804,708,-28.198,-1.62889
-413,316,0,0,0,0,0,0,0,0,0,-1,811,708,0,0
-406,316,0,0,0,0,0,0,0,0,0,-1,818,708,0,0
-399,316,0,0,0,0,0,0,0,0,0,-1,825,708,0,0
-392,316,0,0,0,0,0,0,0,0,0,-1,832,708,0,0
-385,316,0,0,0,0,0,0,0,0,0,-1,839,708,0,0
-378,316,0,0,0,0,0,0,0,0,0,-1,846,708,0,0
-371,316,0,0,0,0,0,0,0,0,0,-1,853,708,0,0
-364,316,0,0,0,0,0,0,0,0,0,-1,860,708,0,0
-357,316,0,0,0,0,0,0,0,0,0,-1,867,708,0,0
-350,316,0,0,0,0,0,0,0,0,0,-1,874,708,0,0
-343,316,0,0,0,0,0,0,0,0,0,-1,881,708,0,0
-336,316,0,0,0,0,0,0,0,0,0,-1,888,708,0,0
-329,316,0,0,0,0,0,0,0,0,0,-1,895,708,0,0
-322,316,0,0,0,0,0,0,0,0,0,-1,902,708,0,0
-315,316,0,0,0,0,0,0,0,0,0,-1,909,708,0,0
-308,316,0,0,0,0,0,0,0,0,0,-1,916,708,0,0
-301,316,0,0,0,0,0,0,0,0,0,-1,923,708,0,0
-294,316,0,0,0,0,0,0,0,0,0,-1,930,708,0,0
-287,316,0,0,0,0,0,0,0,0,0,-1,937,708,0,0
-280,316,0,0,0,0,0,0,0,0,0,-1,944,708,0,0
-273,316,0,0,0,0,0,0,0,0,0,-1,951,708,0,0
-266,316,0,0,0,0,0,0,0,0,0,-1,958,708,0,0
-259,316,0,0,0,0,0,0,0,0,0,-1,965,708,0,0
-252,316,0,0,0,0,0,0,0,0,0,-1,972,708,0,0
-245,316,0,0,0,0,0,0,0,0,0,-1,979,708,0,0
-238,316,0,0,0,0,0,0,0,0,0,-1,986,708,0,0
-231,316,0,0,0,0,0,0,0,0,0,-1,993,708,0,0
-224,316,0,0,0,0,0,0,0,0,0,-1,1000,708,0,0
-217,316,0,0,0,0,0,0,0,0,0,-1,1007,708,0,0
-210,316,0,0,0,0,0,0,0,0,0,-1,1014,708,0,0
-203,316,0,0,0,0,0,0,0,0,0,-1,1021,708,0,0
-196,316,0,0,0,0,0,0,0,0,0,-1,1028,708,0,0
-189,316,0,0,0,0,0,0,0,0,0,-1,1035,708,0,0
-182,316,0,0,0,0,0,0,0,0,0,-1,1042,708,0,0
-175,316,0,0,0,0,0,0,0,0,0,-1,1049,708,0,0
-168,316,0,0,0,0,0,0,0,0,0,-1,1056,708,0,0
-161,316,0,0,0,0,0,0,0,0,0,-1,1063,708,0,0
-154,316,0,0,0,0,0,0,0,0,0,-1,1070,708,0,0
-147,316,0,0,0,0,0,0,0,0,0,-1,1077,708,0,0
-140,316,0,0,0,0,0,0,0,0,0,-1,1084,708,0,0
-133,316,0,0,0,0,0,0,0,0,0,-1,1091,708,0,0
-126,316,0,0,0,0,0,0,0,0,0,-1,1098,708,0,0
-119,316,0,0,0,0,0,0,0,0,0,-1,1105,708,0,0
-112,316,0,0,0,0,0,0,0,0,0,-1,1112,708,0,0
-105,316,0,0,0,0,0,0,0,0,0,-1,1119,708,0,0
-98,316,0,0,0,0,0,0,0,0,0,-1,1126,708,0,0
-91,316,0,0,0,0,0,0,0,0,0,-1,1133,708,0,0
-84,316,0,0,0,0,0,0,0,0,0,-1,1140,708,0,0
-77,316,0,0,0,0,0,0,0,0,0,-1,1147,708,0,0
-70,316,0,0,0,0,0,0,0,0,0,-1,1154,708,0,0
-63,316,0,0,0,0,0,0,0,0,0,-1,1161,708,0,0
-56,316,0,0,0,0,0,0,0,0,0,-1,1168,708,0,0
-49,316,0,0,0,0,0,0,0,0,0,-1,1175,708,0,0
-42,316,0,0,0,0,0,0,0,0,0,-1,1182,708,0,0
-35,316,0,0,0,0,0,0,0,0,0,-1,1189,708,0,0
-28,316,0,0,0,0,0,0,0,0,0,-1,1196,708,0,0
-21,316,0,0,0,0,0,0,0,0,0,-1,1203,708,0,0
-14,316,0,0,0,0,0,0,0,0,0,-1,1210,708,0,0
-7,316,0,0,0,0,0,0,0,0,0,-1,1217,708,0,0
0,316,0,0,0,0,0,0,0,0,0,-1,1224,708,0,0
7,316,0,0,0,0,0,0,0,0,0,-1,1231,708,0,0
14,316,0,0,0,0,0,0,0,0,0,-1,1238,708,0,0
21,316,0,0,0,0,0,0,0,0,0,-1,1245,708,0,0
28,316,0,0,0,0,0,0,0,0,0,-1,1252,708,0,0
35,316,0,0,0,0,0,0,0,0,0,-1,1259,708,0,0
42,316,0,0,0,0,0,0,0,0,0,-1,1266,708,0,0
49,316,0,0,0,0,0,0,0,0,0,-1,1273,708,0,0
56,316,0,0,0,0,0,0,0,0,0,-1,1280,708,0,0
63,316,0,0,0,0,0,0,0,0,0,-1,1287,708,0,0
70,316,0,0,0,0,0,0,0,0,0,-1,1294,708,0,0
77,316,0,0,0,0,0,0,0,0,0,-1,1301,708,0,0
84,316,0,0,0,0,0,0,0,0,0,-1,1308,708,0,0
91,316,0,0,0,0,0,0,0,0,0,-1,1315,708,0,0
98,316,0,0,0,0,0,0,0,0,0,-1,1322,708,0,0
105,316,0,0,0,0,0,0,0,0,0,-1,1329,708,0,0
112,316,0,0,0,0,0,0,0,0,0,-1,1336,708,0,0
119,316,0,0,0,0,0,0,0,0,0,-1,1343,708,0,0
126,316,0,0,0,0,0,0,0,0,0,-1,1350,708,0,0
133,316,0,0,0,0,0,0,0,0,0,-1,1357,708,0,0
140,316,0,0,0,0,0,0,0,0,0,-1,1364,708,0,0
147,316,0,0,0,0,0,0,0,0,0,-1,1371,708,0,0
154,316,0,0,0,0,0,0,0,0,0,-1,1378,708,0,0
161,316,0,0,0,0,0,0,0,0,0,-1,1385,708,0,0
168,316,0,0,0,0,0,0,0,0,0,-1,1392,708,0,0
175,316,0,0,0,0,0,0,0,0,0,-1,1399,708,0,0
182,316,0,0,0,0,0,0,0,0,0,-1,1406,708,0,0
189,316,0,0,0,0,0,0,0,0,0,-1,1413,708,0,0
196,316,0,0,0,0,0,0,0,0,0,-1,1420,708,0,0
203,316,0,0,0,0,0,0,0,0,0,-1,1427,708,0,0
210,316,0,0,0,0,0,0,0,0,0,-1,1434,708,0,0
217,316,0,0,0,0,0,0,0,0,0,-1,1441,708,0,0
224,316,0,0,0,0,0,0,0,0,0,-1,1448,708,0,0
231,316,0,0,0,0,0,0,0,0,0,-1,1455,708,0,0
238,316,0,0,0,0,0,0,0,0,0,-1,1462,708,0,0
245,316,0,0,0,0,0,0,0,0,0,-1,1469,708,0,0
252,316,0,0,0,0,0,0,0,0,0,-1,1476,708,0,0
259,316,0,0,0,0,0,0,0,0,0,-1,1483,708,0,0
266,316,0,0,0,0,0,0,0,0,0,-1,1490,708,0,0
273,316,0,0,0,0,0,0,0,0,0,-1,1497,708,0,0
280,316,0,0,0,0,0,0,0,0,0,-1,1504,708,0,0
287,316,0,0,0,0,0,0,0,0,0,-1,1511,708,0,0
294,316,0,0,0,0,0,0,0,0,0,-1,1518,708,0,0
301,316,0,0,0,0,0,0,0,0,0,-1,1525,708,0,0
308,316,0,0,0,0,0,0,0,0,0,-1,1532,708,0,0
315,316,0,0,0,0,0,0,0,0,0,-1,1539,708,0,0
322,316,0,0,0,0,0,0,0,0,0,-1,1546,708,0,0
329,316,0,0,0,0,0,0,0,0,0,-1,1553,708,0,0
336,316,0,0,0,0,0,0,0,0,0,-1,1560,708,0,0
343,316,0,0,0,0,0,0,0,0,0,-1,1567,708,0,0
350,316,0,0,0,0,0,0,0,0,0,-1,1574,708,0,0
357,316,0,0,0,0,0,0,0,0,0,-1,1581,708,0,0
364,316,0,0,0,0,0,0,0,0,0,-1,1588,708,0,0
371,316,0,0,0,0,0,0,0,0,0,-1,1595,708,0,0
378,316,0,0,0,0,0,0,0,0,0,-1,1602,708,0,0
385,316,0,0,0,0,0,0,0,0,0,-1,1609,708,0,0
392,316,0,0,0,0,0,0,0,0,0,-1,1616,708,0,0
399,316,0,0,0,0,0,0,0,0,0,-1,1623,708,0,0
406,316,0,0,0,0,0,0,0,0,0,-1,1630,708,0,0
413,316,0,0,0,0,0,0,0,0,0,-1,1637,708,0,0
420,316,0,0,0,0,0,0,0,0,0,-1,1644,708,0,0
427,316,0,0,0,0,0,0,0,0,0,-1,1651,708,0,0
434,316,0,0,0,0,0,0,0,0,0,-1,1658,708,0,0
441,316,0,0,0,0,0,0,0,0,0,-1,1665,708,0,0
448,316,0,0,0,0,0,0,0,0,0,-1,1672,708,0,0
455,316,0,0,0,0,0,0,0,0,0,-1,1679,708,0,0
462,316,0,0,0,0,0,0,0,0,0,-1,1686,708,0,0
469,316,0,0,0,0,0,0,0,0,0,-1,1693,708,0,0
476,316,0,0,0,0,0,0,0,0,0,-1,1700,708,0,0
483,316,0,0,0,0,0,0,0,0,0,-1,1707,708,0,0
490,316,0,0,0,0,0,0,0,0,0,-1,1714,708,0,0
497,316,0,0,0,0,0,0,0,0,0,-1,1721,708,0,0
504,316,0,0,0,0,0,0,0,0,0,-1,1728,708,0,0
511,316,0,0,0,0,0,0,0,0,0,-1,1735,708,0,0
518,316,0,0,0,0,0,0,0,0,0,-1,1742,708,0,0
525,316,0,0,0,0,0,0,0,0,0,-1,1749,708,0,0
532,316,33.8604,0.531128,0,0,0,0,0,0,0,-1,1756,708,33.8604,-0.531151
539,316,44.4543,2.73468,0,0,0,0,0,0,0,-1,1763,708,44.4543,-2.7347
546,316,44.713,3.35498,0,0,0,0,0,0,0,-1,1770,708,44.7131,-3.35501
553,316,39.9031,6.57275,0,0,0,0,0,0,0,-1,1777,708,39.9031,-6.57274
560,316,39.1196,1.10046,0,0,0,0,0,0,0,-1,1784,708,39.1197,-1.10048
567,316,47.3683,6.04919,0,0,0,0,0,0,0,-1,1791,708,47.3683,-6.04918
574,316,45.9872,6.7655,0,0,0,0,0,0,0,-1,1798,708,45.9871,-6.76552
581,316,24.6815,7.77496,0,0,0,0,0,0,0,-1,1805,708,24.6815,-7.77499
588,316,19.7659,2.90198,0,0,0,0,0,0,0,-1,1812,708,19.7659,-2.902
595,316,12.5363,1.50702,0,0,0,0,0,0,0,-1,1819,708,12.5363,-1.50701
602,316,7.79919,0.0422363,0,0,0,0,0,0,0,-1,1826,708,7.79923,-0.0422066
609,316,46.1954,-12.6993,0,0,0,0,0,0,0,-1,1833,708,46.1954,12.6993
616,316,46.3696,-11.6861,0.00349868,-0.000613352,0.0013126,0.00388195,-0.000996623,0.284095,0.00297632,0.01671,1840,708,46.3697,11.6861
623,316,46.3115,-10.6942,0.00262694,-0.000489311,0.0009942,0.00291711,-0.00077948,0.283973,0.00225003,0.0112042,1847,708,46.3116,10.6941
630,316,46.2472,-9.73767,0.00216845,-0.00033535,0.000816964,0.00241143,-0.000578336,0.289093,0.0018311,0.0123771,1854,708,46.2472,9.7377
637,316,46.1954,-8.69836,0.00185277,-7.04426e-05,0.000733109,0.00210035,-0.000318025,0.325689,0.00151739,0.0123992,1861,708,46.1954,8.69839
644,316,46.1531,-7.69519,0.00167418,0.000298845,0.000730927,0.00199007,-1.70524e-05,0.407942,0.00133244,0.0130838,1868,708,46.1531,7.6952
651,316,46.0774,-6.70764,0.00162937,0.000756612,0.000786453,0.0020924,0.000293583,0.532111,0.0013081,0.0195007,1875,708,46.0774,6.70765
658,316,45.9807,-5.64972,0.00175879,0.00132992,0.000932141,0.00250085,0.000587869,0.672341,0.00150992,0.041199,1882,708,45.9808,5.64972
665,316,45.8271,-4.64063,0.00207832,0.00202128,0.00119296,0.00324309,0.000856502,0.773447,0.00194062,0.0274507,1889,708,45.8272,4.6406
672,316,45.8585,-3.70209,0.00262925,0.00290372,0.00155434,0.00432688,0.00120609,0.829429,0.00257836,0.0140842,1896,708,45.8586,3.7021
679,316,45.8872,-2.6861,0,0,0,0,0,0,0,-1,1903,708,45.8873,2.68607
686,316,34.0828,0.223206,0,0,0,0,0,0,0,-1,1910,708,34.0828,-0.223183
693,316,26.4315,1.80652,0,0,0,0,0,0,0,-1,1917,708,26.4315,-1.80651
700,316,12.8749,2.89136,0,0,0,0,0,0,0,-1,1924,708,12.8748,-2.89137
707,316,15.7089,5.41486,0,0,0,0,0,0,0,-1,1931,708,15.7088,-5.41487
714,316,16.1727,5.52045,0,0,0,0,0,0,0,-1,1938,708,16.1728,-5.52042
721,316,16.7094,6.53351,0,0,0,0,0,0,0,-1,1945,708,16.7094,-6.5335
728,316,0,0,0,0,0,0,0,0,0,-1,1952,708,0,0
735,316,0,0,0,0,0,0,0,0,0,-1,1959,708,0,0
742,316,0,0,0,0,0,0,0,0,0,-1,1966,708,0,0
749,316,0,0,0,0,0,0,0,0,0,-1,1973,708,0,0
756,316,0,0,0,0,0,0,0,0,0,-1,1980,708,0,0
763,316,0,0,0,0,0,0,0,0,0,-1,1987,708,0,0
770,316,0,0,0,0,0,0,0,0,0,-1,1994,708,0,0
777,316,0,0,0,0,0,0,0,0,0,-1,2001,708,0,0
784,316,0,0,0,0,0,0,0,0,0,-1,2008,708,0,0
791,316,0,0,0,0,0,0,0,0,0,-1,2015,708,0,0
798,316,0,0,0,0,0,0,0,0,0,-1,2022,708,0,0
805,316,0,0,0,0,0,0,0,0,0,-1,2029,708,0,0
812,316,0,0,0,0,0,0,0,0,0,-1,2036,708,0,0
-700,309,0,0,0,0,0,0,0,0,0,-1,524,715,0,0
-693,309,0,0,0,0,0,0,0,0,0,-1,531,715,0,0
-686,309,0,0,0,0,0,0,0,0,0,-1,538,715,0,0
-679,309,0,0,0,0,0,0,0,0,0,-1,545,715,0,0
-672,309,0,0,0,0,0,0,0,0,0,-1,552,715,0,0
-665,309,0,0,0,0,0,0,0,0,0,-1,559,715,0,0
-658,309,0,0,0,0,0,0,0,0,0,-1,566,715,0,0
-651,309,0,0,0,0,0,0,0,0,0,-1,573,715,0,0
-644,309,0,0,0,0,0,0,0,0,0,-1,580,715,0,0
-637,309,0,0,0,0,0,0,0,0,0,-1,587,715,0,0
-630,309,0,0,0,0,0,0,0,0,0,-1,594,715,0,0
-623,309,0,0,0,0,0,0,0,0,0,-1,601,715,0,0
-616,309,0,0,0,0,0,0,0,0,0,-1,608,715,0,0
-609,309,-5.95392,-3.93689,0,0,0,0,0,0,0,-1,615,715,-5.95392,3.93686
-602,309,-4.99786,-3.31287,0,0,0,0,0,0,0,-1,622,715,-4.99786,3.31284
-595,309,-6.80847,2.4046,0,0,0,0,0,0,0,-1,629,715,-6.80845,-2.40458
-588,309,-6.08795,2.19324,0,0,0,0,0,0,0,-1,636,715,-6.08793,-2.19325
-581,309,-5.97552,1.3277,0,0,0,0,0,0,0,-1,643,715,-5.97552,-1.32769
-574,309,-8.73602,0.208435,0,0,0,0,0,0,0,-1,650,715,-8.73604,-0.208437
-567,309,-10.3909,0.85968,0,0,0,0,0,0,0,-1,657,715,-10.3909,-0.859696
-560,309,-18.6088,-1.73389,0,0,0,0,0,0,0,-1,664,715,-18.6088,1.73389
-553,309,-30.5851,-2.53363,0,0,0,0,0,0,0,-1,671,715,-30.5852,2.53361
-546,309,-30.4562,-3.57166,0.00324963,0.00406306,-0.00249552,0.0061848,0.0011279,-0.866177,0.00380339,0.0428355,678,715,-30.4562,3.57165
-539,309,-30.3659,-4.63208,0.0028894,0.00283861,-0.0020349,0.00489906,0.000828949,-0.779158,0.00302779,0.0158309,685,715,-30.3659,4.63208
-532,309,-30.4039,-5.63611,0.00236614,0.0017673,-0.00148787,0.00358442,0.000549021,-0.686105,0.00222925,0.01221,692,715,-30.4038,5.63613
-525,309,-30.4738,-6.66254,0.00174422,0.000743729,-0.000882818,0.00225867,0.000229276,-0.527631,0.00143547,0.01563,699,715,-30.4737,6.66256
-518,309,-30.5249,-7.67413,0.00109012,-7.39669e-05,-0.000239882,0.00113762,-0.000121461,-0.195463,0.00080197,0.0164374,706,715,-30.5249,7.67414
-511,309,-30.6144,-8.6543,0.000443233,-0.000837038,0.00041146,0.000564066,-0.000957871,0.285638,0.000888441,0.0132729,713,715,-30.6144,8.65431
-504,309,-30.7261,-9.67871,-0.000246778,-0.0015699,0.00111177,0.000385374,-0.00220206,0.517011,0.00161193,0.0107194,720,715,-30.7261,9.67869
-497,309,-30.7798,-10.6573,-0.000806022,-0.00222137,0.00173263,0.000357879,-0.00338527,0.591518,0.00238511,0.0146863,727,715,-30.7798,10.6573
-490,309,-30.8408,-11.6543,0,0,0,0,0,0,0,-1,734,715,-30.8407,11.6543
-483,309,-17.7261,-7.75836,0,0,0,0,0,0,0,-1,741,715,-17.7261,7.75839
-476,309,-5.29486,-1.2262,0,0,0,0,0,0,0,-1,748,715,-5.29484,1.22622
-469,309,-4.22717,-0.592896,0,0,0,0,0,0,0,-1,755,715,-4.2272,0.592905
-462,309,-10.428,2.46948,0,0,0,0,0,0,0,-1,762,715,-10.428,-2.46947
-455,309,-15.8216,0.00915527,0,0,0,0,0,0,0,-1,769,715,-15.8216,-0.00913359
-448,309,-37.3543,-1.02441,0,0,0,0,0,0,0,-1,776,715,-37.3543,1.02444
-441,309,-19.8181,1.4425,0,0,0,0,0,0,0,-1,783,715,-19.8181,-1.44249
-434,309,-46.7953,1.72064,0,0,0,0,0,0,0,-1,790,715,-46.7953,-1.72067
-427,309,-27.8553,1.40332,0,0,0,0,0,0,0,-1,797,715,-27.8553,-1.40334
-420,309,-27.3148,1.90747,0,0,0,0,0,0,0,-1,804,715,-27.3148,-1.90745
-413,309,0,0,0,0,0,0,0,0,0,-1,811,715,0,0
-406,309,0,0,0,0,0,0,0,0,0,-1,818,715,0,0
-399,309,0,0,0,0,0,0,0,0,0,-1,825,715,0,0
-392,309,0,0,0,0,0,0,0,0,0,-1,832,715,0,0
-385,309,0,0,0,0,0,0,0,0,0,-1,839,715,0,0
-378,309,0,0,0,0,0,0,0,0,0,-1,846,715,0,0
-371,309,0,0,0,0,0,0,0,0,0,-1,853,715,0,0
-364,309,0,0,0,0,0,0,0,0,0,-1,860,715,0,0
-357,309,0,0,0,0,0,0,0,0,0,-1,867,715,0,0
-350,309,0,0,0,0,0,0,0,0,0,-1,874,715,0,0
-343,309,0,0,0,0,0,0,0,0,0,-1,881,715,0,0
-336,309,0,0,0,0,0,0,0,0,0,-1,888,715,0,0
-329,309,0,0,0,0,0,0,0,0,0,-1,895,715,0,0
-322,309,0,0,0,0,0,0,0,0,0,-1,902,715,0,0
-315,309,0,0,0,0,0,0,0,0,0,-1,909,715,0,0
-308,309,0,0,0,0,0,0,0,0,0,-1,916,715,0,0
-301,309,0,0,0,0,0,0,0,0,0,-1,923,715,0,0
-294,309,0,0,0,0,0,0,0,0,0,-1,930,715,0,0
-287,309,0,0,0,0,0,0,0,0,0,-1,937,715,0,0
-280,309,0,0,0,0,0,0,0,0,0,-1,944,715,0,0
-273,309,0,0,0,0,0,0,0,0,0,-1,951,715,0,0
-266,309,0,0,0,0,0,0,0,0,0,-1,958,715,0,0
-259,309,0,0,0,0,0,0,0,0,0,-1,965,715,0,0
-252,309,0,0,0,0,0,0,0,0,0,-1,972,715,0,0
-245,309,0,0,0,0,0,0,0,0,0,-1,979,715,0,0
-238,309,0,0,0,0,0,0,0,0,0,-1,986,715,0,0
-231,309,0,0,0,0,0,0,0,0,0,-1,993,715,0,0
-224,309,0,0,0,0,0,0,0,0,0,-1,1000,715,0,0
-217,309,0,0,0,0,0,0,0,0,0,-1,1007,715,0,0
-210,309,0,0,0,0,0,0,0,0,0,-1,1014,715,0,0
-203,309,0,0,0,0,0,0,0,0,0,-1,1021,715,0,0
-196,309,0,0,0,0,0,0,0,0,0,-1,1028,715,0,0
-189,309,0,0,0,0,0,0,0,0,0,-1,1035,715,0,0
-182,309,0,0,0,0,0,0,0,0,0,-1,1042,715,0,0
-175,309,0,0,0,0,0,0,0,0,0,-1,1049,715,0,0
-168,309,0,0,0,0,0,0,0,0,0,-1,1056,715,0,0
-161,309,0,0,0,0,0,0,0,0,0,-1,1063,715,0,0
-154,309,0,0,0,0,0,0,0,0,0,-1,1070,715,0,0
-147,309,0,0,0,0,0,0,0,0,0,-1,1077,715,0,0
-140,309,0,0,0,0,0,0,0,0,0,-1,1084,715,0,0
-133,309,0,0,0,0,0,0,0,0,0,-1,1091,715,0,0
-126,309,0,0,0,0,0,0,0,0,0,-1,1098,715,0,0
-119,309,0,0,0,0,0,0,0,0,0,-1,1105,715,0,0
-112,309,0,0,0,0,0,0,0,0,0,-1,1112,715,0,0
-105,309,0,0,0,0,0,0,0,0,0,-1,1119,715,0,0
-98,309,0,0,0,0,0,0,0,0,0,-1,1126,715,0,0
-91,309,0,0,0,0,0,0,0,0,0,-1,1133,715,0,0
-84,309,0,0,0,0,0,0,0,0,0,-1,1140,715,0,0
-77,309,0,0,0,0,0,0,0,0,0,-1,1147,715,0,0
-70,309,0,0,0,0,0,0,0,0,0,-1,1154,715,0,0
-63,309,0,0,0,0,0,0,0,0,0,-1,1161,715,0,0
-56,309,0,0,0,0,0,0,0,0,0,-1,1168,715,0,0
-49,309,0,0,0,0,0,0,0,0,0,-1,1175,715,0,0
-42,309,0,0,0,0,0,0,0,0,0,-1,1182,715,0,0
-35,309,0,0,0,0,0,0,0,0,0,-1,1189,715,0,0
-28,309,0,0,0,0,0,0,0,0,0,-1,1196,715,0,0
-21,309,0,0,0,0,0,0,0,0,0,-1,1203,715,0,0
-14,309,0,0,0,0,0,0,0,0,0,-1,1210,715,0,0
-7,309,0,0,0,0,0,0,0,0,0,-1,1217,715,0,0
0,309,0,0,0,0,0,0,0,0,0,-1,1224,715,0,0
7,309,0,0,0,0,0,0,0,0,0,-1,1231,715,0,0
14,309,0,0,0,0,0,0,0,0,0,-1,1238,715,0,0
21,309,0,0,0,0,0,0,0,0,0,-1,1245,715,0,0
28,309,0,0,0,0,0,0,0,0,0,-1,1252,715,0,0
35,309,0,0,0,0,0,0,0,0,0,-1,1259,715,0,0
42,309,0,0,0,0,0,0,0,0,0,-1,1266,715,0,0
49,309,0,0,0,0,0,0,0,0,0,-1,1273,715,0,0
56,309,0,0,0,0,0,0,0,0,0,-1,1280,715,0,0
63,309,0,0,0,0,0,0,0,0,0,-1,1287,715,0,0
70,309,0,0,0,0,0,0,0,0,0,-1,1294,715,0,0
77,309,0,0,0,0,0,0,0,0,0,-1,1301,715,0,0
84,309,0,0,0,0,0,0,0,0,0,-1,1308,715,0,0
91,309,0,0,0,0,0,0,0,0,0,-1,1315,715,0,0
98,309,0,0,0,0,0,0,0,0,0,-1,1322,715,0,0
105,309,0,0,0,0,0,0,0,0,0,-1,1329,715,0,0
112,309,0,0,0,0,0,0,0,0,0,-1,1336,715,0,0
119,309,0,0,0,0,0,0,0,0,0,-1,1343,715,0,0
126,309,0,0,0,0,0,0,0,0,0,-1,1350,715,0,0
133,309,0,0,0,0,0,0,0,0,0,-1,1357,715,0,0
140,309,0,0,0,0,0,0,0,0,0,-1,1364,715,0,0
147,309,0,0,0,0,0,0,0,0,0,-1,1371,715,0,0
154,309,0,0,0,0,0,0,0,0,0,-1,1378,715,0,0
161,309,0,0,0,0,0,0,0,0,0,-1,1385,715,0,0
168,309,0,0,0,0,0,0,0,0,0,-1,1392,715,0,0
175,309,0,0,0,0,0,0,0,0,0,-1,1399,715,0,0
182,309,0,0,0,0,0,0,0,0,0,-1,1406,715,0,0
189,309,0,0,0,0,0,0,0,0,0,-1,1413,715,0,0
196,309,0,0,0,0,0,0,0,0,0,-1,1420,715,0,0
203,309,0,0,0,0,0,0,0,0,0,-1,1427,715,0,0
210,309,0,0,0,0,0,0,0,0,0,-1,1434,715,0,0
217,309,0,0,0,0,0,0,0,0,0,-1,1441,715,0,0
224,309,0,0,0,0,0,0,0,0,0,-1,1448,715,0,0
231,309,0,0,0,0,0,0,0,0,0,-1,1455,715,0,0
238,309,0,0,0,0,0,0,0,0,0,-1,1462,715,0,0
245,309,0,0,0,0,0,0,0,0,0,-1,1469,715,0,0
252,309,0,0,0,0,0,0,0,0,0,-1,1476,715,0,0
259,309,0,0,0,0,0,0,0,0,0,-1,1483,715,0,0
266,309,0,0,0,0,0,0,0,0,0,-1,1490,715,0,0
273,309,0,0,0,0,0,0,0,0,0,-1,1497,715,0,0
280,309,0,0,0,0,0,0,0,0,0,-1,1504,715,0,0
287,309,0,0,0,0,0,0,0,0,0,-1,1511,715,0,0
294,309,0,0,0,0,0,0,0,0,0,-1,1518,715,0,0
301,309,0,0,0,0,0,0,0,0,0,-1,1525,715,0,0
308,309,0,0,0,0,0,0,0,0,0,-1,1532,715,0,0
315,309,0,0,0,0,0,0,0,0,0,-1,1539,715,0,0
322,309,0,0,0,0,0,0,0,0,0,-1,1546,715,0,0
329,309,0,0,0,0,0,0,0,0,0,-1,1553,715,0,0
336,309,0,0,0,0,0,0,0,0,0,-1,1560,715,0,0
343,309,0,0,0,0,0,0,0,0,0,-1,1567,715,0,0
350,309,0,0,0,0,0,0,0,0,0,-1,1574,715,0,0
357,309,0,0,0,0,0,0,0,0,0,-1,1581,715,0,0
364,309,0,0,0,0,0,0,0,0,0,-1,1588,715,0,0
371,309,0,0,0,0,0,0,0,0,0,-1,1595,715,0,0
378,309,0,0,0,0,0,0,0,0,0,-1,1602,715,0,0
385,309,0,0,0,0,0,0,0,0,0,-1,1609,715,0,0
392,309,0,0,0,0,0,0,0,0,0,-1,1616,715,0,0
399,309,0,0,0,0,0,0,0,0,0,-1,1623,715,0,0
406,309,0,0,0,0,0,0,0,0,0,-1,1630,715,0,0
413,309,0,0,0,0,0,0,0,0,0,-1,1637,715,0,0
420,309,0,0,0,0,0,0,0,0,0,-1,1644,715,0,0
427,309,0,0,0,0,0,0,0,0,0,-1,1651,715,0,0
434,309,0,0,0,0,0,0,0,0,0,-1,1658,715,0,0
441,309,0,0,0,0,0,0,0,0,0,-1,1665,715,0,0
448,309,0,0,0,0,0,0,0,0,0,-1,1672,715,0,0
455,309,0,0,0,0,0,0,0,0,0,-1,1679,715,0,0
462,309,0,0,0,0,0,0,0,0,0,-1,1686,715,0,0
469,309,0,0,0,0,0,0,0,0,0,-1,1693,715,0,0
476,309,0,0,0,0,0,0,0,0,0,-1,1700,715,0,0
483,309,0,0,0,0,0,0,0,0,0,-1,1707,715,0,0
490,309,0,0,0,0,0,0,0,0,0,-1,1714,715,0,0
497,309,0,0,0,0,0,0,0,0,0,-1,1721,715,0,0
504,309,0,0,0,0,0,0,0,0,0,-1,1728,715,0,0
511,309,0,0,0,0,0,0,0,0,0,-1,1735,715,0,0
518,309,0,0,0,0,0,0,0,0,0,-1,1742,715,0,0
525,309,0,0,0,0,0,0,0,0,0,-1,1749,715,0,0
532,309,0,0,0,0,0,0,0,0,0,-1,1756,715,0,0
539,309,44.2073,2.66235,0,0,0,0,0,0,0,-1,1763,715,44.2073,-2.66238
546,309,44.4976,3.25531,0,0,0,0,0,0,0,-1,1770,715,44.4976,-3.25533
553,309,47.9611,4.06433,0,0,0,0,0,0,0,-1,1777,715,47.9611,-4.06434
560,309,47.9784,4.64801,0,0,0,0,0,0,0,-1,1784,715,47.9784,-4.64799
567,309,47.0073,5.43121,0,0,0,0,0,0,0,-1,1791,715,47.0073,-5.43121
574,309,45.8746,6.53271,0,0,0,0,0,0,0,-1,1798,715,45.8747,-6.53269
581,309,45.0629,7.73468,0,0,0,0,0,0,0,-1,1805,715,45.0629,-7.73471
588,309,26.2064,7.76422,0,0,0,0,0,0,0,-1,1812,715,26.2064,-7.7642
595,309,19.585,3.71558,0,0,0,0,0,0,0,-1,1819,715,19.5849,-3.71555
602,309,11.0811,3.47772,0,0,0,0,0,0,0,-1,1826,715,11.0811,-3.47772
609,309,47.4531,-12.6688,0,0,0,0,0,0,0,-1,1833,715,47.4531,12.6688
616,309,47.3989,-11.6392,0.00378646,-0.000654951,0.00126412,0.00412105,-0.00098954,0.258748,0.0031298,0.0362645,1840,715,47.3989,11.6392
623,309,47.337,-10.6313,0.00271829,-0.000507408,0.000942938,0.00297371,-0.000762824,0.264525,0.00227969,0.0115685,1847,715,47.3371,10.6313
630,309,47.2313,-9.66687,0.0021889,-0.000378726,0.000753302,0.00239359,-0.000583416,0.265317,0.00182161,0.0105493,1854,715,47.2313,9.66685
637,309,47.1549,-8.65283,0.00182615,-0.000148504,0.000665706,0.00202962,-0.000351966,0.296617,0.00148437,0.0134244,1861,715,47.1549,8.65282
644,309,47.0656,-7.62512,0.00162988,0.000204054,0.000671351,0.00189623,-6.22963e-05,0.377691,0.00128542,0.0148765,1868,715,47.0656,7.62512
651,309,47.0078,-6.62775,0.00158831,0.0006373,0.000743488,0.00199534,0.000230263,0.500899,0.0012605,0.0159414,1875,715,47.0078,6.62775
658,309,46.9508,-5.60974,0.00173297,0.00118,0.00090756,0.00240522,0.000507741,0.63754,0.00146389,0.0235197,1882,715,46.9508,5.60973
665,309,46.9185,-4.60956,0.00203413,0.00182932,0.00116514,0.00310136,0.00076209,0.741566,0.00186615,0.0180207,1889,715,46.9184,4.60955
672,309,46.8527,-3.64038,0.0025645,0.00264773,0.00154879,0.00415547,0.00105676,0.798831,0.00249384,0.0165738,1896,715,46.8526,3.64037
679,309,46.8318,-2.56506,0.00325369,0.00365348,0.00205793,0.0055212,0.00138597,0.833814,0.00331679,0.0327246,1903,715,46.8318,2.56505
686,309,46.7662,-1.46118,0,0,0,0,0,0,0,-1,1910,715,46.7663,1.46116
693,309,32.7026,1.51727,0,0,0,0,0,0,0,-1,1917,715,32.7026,-1.51727
700,309,23.0179,3.08337,0,0,0,0,0,0,0,-1,1924,715,23.018,-3.08336
707,309,15.6318,4.58655,0,0,0,0,0,0,0,-1,1931,715,15.6318,-4.58657
714,309,16.7573,6.68286,0,0,0,0,0,0,0,-1,1938,715,16.7574,-6.68284
721,309,16.8337,5.4458,0,0,0,0,0,0,0,-1,1945,715,16.8338,-5.44582
728,309,0,0,0,0,0,0,0,0,0,-1,1952,715,0,0
735,309,0,0,0,0,0,0,0,0,0,-1,1959,715,0,0
742,309,0,0,0,0,0,0,0,0,0,-1,1966,715,0,0
749,309,0,0,0,0,0,0,0,0,0,-1,1973,715,0,0
756,309,0,0,0,0,0,0,0,0,0,-1,1980,715,0,0
763,309,0,0,0,0,0,0,0,0,0,-1,1987,715,0,0
770,309,0,0,0,0,0,0,0,0,0,-1,1994,715,0,0
777,309,0,0,0,0,0,0,0,0,0,-1,2001,715,0,0
784,309,0,0,0,0,0,0,0,0,0,-1,2008,715,0,0
791,309,0,0,0,0,0,0,0,0,0,-1,2015,715,0,0
798,309,0,0,0,0,0,0,0,0,0,-1,2022,715,0,0
805,309,0,0,0,0,0,0,0,0,0,-1,2029,715,0,0
812,309,0,0,0,0,0,0,0,0,0,-1,2036,715,0,0
-700,302,0,0,0,0,0,0,0,0,0,-1,524,722,0,0
-693,302,0,0,0,0,0,0,0,0,0,-1,531,722,0,0
-686,302,0,0,0,0,0,0,0,0,0,-1,538,722,0,0
-679,302,0,0,0,0,0,0,0,0,0,-1,545,722,0,0
-672,302,0,0,0,0,0,0,0,0,0,-1,552,722,0,0
-665,302,0,0,0,0,0,0,0,0,0,-1,559,722,0,0
-658,302,0,0,0,0,0,0,0,0,0,-1,566,722,0,0
-651,302,0,0,0,0,0,0,0,0,0,-1,573,722,0,0
-644,302,0,0,0,0,0,0,0,0,0,-1,580,722,0,0
-637,302,0,0,0,0,0,0,0,0,0,-1,587,722,0,0
-630,302,0,0,0,0,0,0,0,0,0,-1,594,722,0,0
-623,302,0,0,0,0,0,0,0,0,0,-1,601,722,0,0
-616,302,0,0,0,0,0,0,0,0,0,-1,608,722,0,0
-609,302,-7.79266,-3.71649,0,0,0,0,0,0,0,-1,615,722,-7.79267,3.7165
-602,302,0.92865,-1.99158,0,0,0,0,0,0,0,-1,622,722,0.928637,1.99157
-595,302,-7.89941,2.13641,0,0,0,0,0,0,0,-1,629,722,-7.89939,-2.13639
-588,302,-7.10895,1.79163,0,0,0,0,0,0,0,-1,636,722,-7.10896,-1.79163
-581,302,-9.17566,1.09448,0,0,0,0,0,0,0,-1,643,722,-9.17569,-1.09445
-574,302,-11.5183,-0.344543,0,0,0,0,0,0,0,-1,650,722,-11.5183,0.344557
-567,302,-12.1534,-0.672241,0,0,0,0,0,0,0,-1,657,722,-12.1535,0.672246
-560,302,-31.4183,-1.50238,0,0,0,0,0,0,0,-1,664,722,-31.4184,1.50239
-553,302,-31.3503,-2.50818,0.00329907,0.0033655,-0.00210374,0.00543628,0.00122829,-0.793292,0.00329205,0.0468626,671,722,-31.3503,2.50819
-546,302,-31.3372,-3.54907,0.00284251,0.00279644,-0.00181958,0.00463921,0.000999745,-0.779069,0.00281927,0.0206246,678,722,-31.3372,3.54907
-539,302,-31.3981,-4.52679,0.00226074,0.00217355,-0.00132311,0.00354098,0.000893315,-0.768931,0.00212638,0.0168094,685,722,-31.3981,4.5268
-532,302,-31.4551,-5.53809,0.00164129,0.00122838,-0.000872351,0.00233128,0.000538384,-0.669205,0.00140943,0.0152712,692,722,-31.4551,5.53809
-525,302,-31.4758,-6.63062,0.00098069,0.000289645,-0.00039586,0.00116061,0.000109723,-0.426596,0.000739883,0.0206485,699,722,-31.4758,6.63061
-518,302,-31.5272,-7.61237,0.00024113,-0.000453818,0.000120803,0.00026153,-0.000474218,0.167294,0.00043066,0.0226996,706,722,-31.5272,7.61236
-511,302,-31.6321,-8.58057,-0.000618686,-0.00122509,0.000622358,-0.000229601,-0.00161418,0.558727,0.00100833,0.0117065,713,722,-31.6321,8.58055
-504,302,-31.7037,-9.58929,-0.00162852,-0.00200159,0.00113905,-0.000660832,-0.00296928,0.704236,0.00180014,0.00962213,720,722,-31.7037,9.58927
-497,302,-31.809,-10.5739,-0.00268407,-0.00279199,0.00148628,-0.00125077,-0.00422529,0.767254,0.00250623,0.0158803,727,722,-31.809,10.5739
-490,302,-31.9178,-11.5635,0,0,0,0,0,0,0,-1,734,722,-31.9179,11.5635
-483,302,-9.53412,-3.1673,0,0,0,0,0,0,0,-1,741,722,-9.53411,3.1673
-476,302,-4.29749,-0.203491,0,0,0,0,0,0,0,-1,748,722,-4.29751,0.203464
-469,302,-12.369,1.42859,0,0,0,0,0,0,0,-1,755,722,-12.3689,-1.42857
-462,302,-17.4766,0.310791,0,0,0,0,0,0,0,-1,762,722,-17.4766,-0.310788
-455,302,-36.7368,-2.97418,0,0,0,0,0,0,0,-1,769,722,-36.7368,2.97416
-448,302,-42.1174,-1.44232,0,0,0,0,0,0,0,-1,776,722,-42.1174,1.44229
-441,302,-46.7637,0.580078,0,0,0,0,0,0,0,-1,783,722,-46.7636,-0.58007
-434,302,-46.574,1.30511,0,0,0,0,0,0,0,-1,790,722,-46.574,-1.30509
-427,302,-46.7514,1.51532,0,0,0,0,0,0,0,-1,797,722,-46.7514,-1.51532
-420,302,0,0,0,0,0,0,0,0,0,-1,804,722,0,0
-413,302,0,0,0,0,0,0,0,0,0,-1,811,722,0,0
-406,302,0,0,0,0,0,0,0,0,0,-1,818,722,0,0
-399,302,0,0,0,0,0,0,0,0,0,-1,825,722,0,0
-392,302,0,0,0,0,0,0,0,0,0,-1,832,722,0,0
-385,302,0,0,0,0,0,0,0,0,0,-1,839,722,0,0
-378,302,0,0,0,0,0,0,0,0,0,-1,846,722,0,0
-371,302,0,0,0,0,0,0,0,0,0,-1,853,722,0,0
-364,302,0,0,0,0,0,0,0,0,0,-1,860,722,0,0
-357,302,0,0,0,0,0,0,0,0,0,-1,867,722,0,0
-350,302,0,0,0,0,0,0,0,0,0,-1,874,722,0,0
-343,302,0,0,0,0,0,0,0,0,0,-1,881,722,0,0
-336,302,0,0,0,0,0,0,0,0,0,-1,888,722,0,0
-329,302,0,0,0,0,0,0,0,0,0,-1,895,722,0,0
-322,302,0,0,0,0,0,0,0,0,0,-1,902,722,0,0
-315,302,0,0,0,0,0,0,0,0,0,-1,909,722,0,0
-308,302,0,0,0,0,0,0,0,0,0,-1,916,722,0,0
-301,302,0,0,0,0,0,0,0,0,0,-1,923,722,0,0
-294,302,0,0,0,0,0,0,0,0,0,-1,930,722,0,0
-287,302,0,0,0,0,0,0,0,0,0,-1,937,722,0,0
-280,302,0,0,0,0,0,0,0,0,0,-1,944,722,0,0
-273,302,0,0,0,0,0,0,0,0,0,-1,951,722,0,0
-266,302,0,0,0,0,0,0,0,0,0,-1,958,722,0,0
-259,302,0,0,0,0,0,0,0,0,0,-1,965,722,0,0
-252,302,0,0,0,0,0,0,0,0,0,-1,972,722,0,0
-245,302,0,0,0,0,0,0,0,0,0,-1,979,722,0,0
-238,302,0,0,0,0,0,0,0,0,0,-1,986,722,0,0
-231,302,0,0,0,0,0,0,0,0,0,-1,993,722,0,0
-224,302,0,0,0,0,0,0,0,0,0,-1,1000,722,0,0
-217,302,0,0,0,0,0,0,0,0,0,-1,1007,722,0,0
-210,302,0,0,0,0,0,0,0,0,0,-1,1014,722,0,0
-203,302,0,0,0,0,0,0,0,0,0,-1,1021,722,0,0
-196,302,0,0,0,0,0,0,0,0,0,-1,1028,722,0,0
-189,302,0,0,0,0,0,0,0,0,0,-1,1035,722,0,0
-182,302,0,0,0,0,0,0,0,0,0,-1,1042,722,0,0
-175,302,0,0,0,0,0,0,0,0,0,-1,1049,722,0,0
-168,302,0,0,0,0,0,0,0,0,0,-1,1056,722,0,0
-161,302,0,0,0,0,0,0,0,0,0,-1,1063,722,0,0
-154,302,0,0,0,0,0,0,0,0,0,-1,1070,722,0,0
-147,302,0,0,0,0,0,0,0,0,0,-1,1077,722,0,0
-140,302,0,0,0,0,0,0,0,0,0,-1,1084,722,0,0
-133,302,0,0,0,0,0,0,0,0,0,-1,1091,722,0,0
-126,302,0,0,0,0,0,0,0,0,0,-1,1098,722,0,0
-119,302,0,0,0,0,0,0,0,0,0,-1,1105,722,0,0
-112,302,0,0,0,0,0,0,0,0,0,-1,1112,722,0,0
-105,302,0,0,0,0,0,0,0,0,0,-1,1119,722,0,0
-98,302,0,0,0,0,0,0,0,0,0,-1,1126,722,0,0
-91,302,0,0,0,0,0,0,0,0,0,-1,1133,722,0,0
-84,302,0,0,0,0,0,0,0,0,0,-1,1140,722,0,0
-77,302,0,0,0,0,0,0,0,0,0,-1,1147,722,0,0
-70,302,0,0,0,0,0,0,0,0,0,-1,1154,722,0,0
-63,302,0,0,0,0,0,0,0,0,0,-1,1161,722,0,0
-56,302,0,0,0,0,0,0,0,0,0,-1,1168,722,0,0
-49,302,0,0,0,0,0,0,0,0,0,-1,1175,722,0,0
-42,302,0,0,0,0,0,0,0,0,0,-1,1182,722,0,0
-35,302,0,0,0,0,0,0,0,0,0,-1,1189,722,0,0
-28,302,0,0,0,0,0,0,0,0,0,-1,1196,722,0,0
-21,302,0,0,0,0,0,0,0,0,0,-1,1203,722,0,0
-14,302,0,0,0,0,0,0,0,0,0,-1,1210,722,0,0
-7,302,0,0,0,0,0,0,0,0,0,-1,1217,722,0,0
0,302,0,0,0,0,0,0,0,0,0,-1,1224,722,0,0
7,302,0,0,0,0,0,0,0,0,0,-1,1231,722,0,0
14,302,0,0,0,0,0,0,0,0,0,-1,1238,722,0,0
21,302,0,0,0,0,0,0,0,0,0,-1,1245,722,0,0
28,302,0,0,0,0,0,0,0,0,0,-1,1252,722,0,0
35,302,0,0,0,0,0,0,0,0,0,-1,1259,722,0,0
42,302,0,0,0,0,0,0,0,0,0,-1,1266,722,0,0
49,302,0,0,0,0,0,0,0,0,0,-1,1273,722,0,0
56,302,0,0,0,0,0,0,0,0,0,-1,1280,722,0,0
63,302,0,0,0,0,0,0,0,0,0,-1,1287,722,0,0
70,302,0,0,0,0,0,0,0,0,0,-1,1294,722,0,0
77,302,0,0,0,0,0,0,0,0,0,-1,1301,722,0,0
84,302,0,0,0,0,0,0,0,0,0,-1,1308,722,0,0
91,302,0,0,0,0,0,0,0,0,0,-1,1315,722,0,0
98,302,0,0,0,0,0,0,0,0,0,-1,1322,722,0,0
105,302,0,0,0,0,0,0,0,0,0,-1,1329,722,0,0
112,302,0,0,0,0,0,0,0,0,0,-1,1336,722,0,0
119,302,0,0,0,0,0,0,0,0,0,-1,1343,722,0,0
126,302,0,0,0,0,0,0,0,0,0,-1,1350,722,0,0
133,302,0,0,0,0,0,0,0,0,0,-1,1357,722,0,0
140,302,0,0,0,0,0,0,0,0,0,-1,1364,722,0,0
147,302,0,0,0,0,0,0,0,0,0,-1,1371,722,0,0
154,302,0,0,0,0,0,0,0,0,0,-1,1378,722,0,0
161,302,0,0,0,0,0,0,0,0,0,-1,1385,722,0,0
168,302,0,0,0,0,0,0,0,0,0,-1,1392,722,0,0
175,302,0,0,0,0,0,0,0,0,0,-1,1399,722,0,0
182,302,0,0,0,0,0,0,0,0,0,-1,1406,722,0,0
189,302,0,0,0,0,0,0,0,0,0,-1,1413,722,0,0
196,302,0,0,0,0,0,0,0,0,0,-1,1420,722,0,0
203,302,0,0,0,0,0,0,0,0,0,-1,1427,722,0,0
210,302,0,0,0,0,0,0,0,0,0,-1,1434,722,0,0
217,302,0,0,0,0,0,0,0,0,0,-1,1441,722,0,0
224,302,0,0,0,0,0,0,0,0,0,-1,1448,722,0,0
231,302,0,0,0,0,0,0,0,0,0,-1,1455,722,0,0
238,302,0,0,0,0,0,0,0,0,0,-1,1462,722,0,0
245,302,0,0,0,0,0,0,0,0,0,-1,1469,722,0,0
252,302,0,0,0,0,0,0,0,0,0,-1,1476,722,0,0
259,302,0,0,0,0,0,0,0,0,0,-1,1483,722,0,0
266,302,0,0,0,0,0,0,0,0,0,-1,1490,722,0,0
273,302,0,0,0,0,0,0,0,0,0,-1,1497,722,0,0
280,302,0,0,0,0,0,0,0,0,0,-1,1504,722,0,0
287,302,0,0,0,0,0,0,0,0,0,-1,1511,722,0,0
294,302,0,0,0,0,0,0,0,0,0,-1,1518,722,0,0
301,302,0,0,0,0,0,0,0,0,0,-1,1525,722,0,0
308,302,0,0,0,0,0,0,0,0,0,-1,1532,722,0,0
315,302,0,0,0,0,0,0,0,0,0,-1,1539,722,0,0
322,302,0,0,0,0,0,0,0,0,0,-1,1546,722,0,0
329,302,0,0,0,0,0,0,0,0,0,-1,1553,722,0,0
336,302,0,0,0,0,0,0,0,0,0,-1,1560,722,0,0
343,302,0,0,0,0,0,0,0,0,0,-1,1567,722,0,0
350,302,0,0,0,0,0,0,0,0,0,-1,1574,722,0,0
357,302,0,0,0,0,0,0,0,0,0,-1,1581,722,0,0
364,302,0,0,0,0,0,0,0,0,0,-1,1588,722,0,0
371,302,0,0,0,0,0,0,0,0,0,-1,1595,722,0,0
378,302,0,0,0,0,0,0,0,0,0,-1,1602,722,0,0
385,302,0,0,0,0,0,0,0,0,0,-1,1609,722,0,0
392,302,0,0,0,0,0,0,0,0,0,-1,1616,722,0,0
399,302,0,0,0,0,0,0,0,0,0,-1,1623,722,0,0
406,302,0,0,0,0,0,0,0,0,0,-1,1630,722,0,0
413,302,0,0,0,0,0,0,0,0,0,-1,1637,722,0,0
420,302,0,0,0,0,0,0,0,0,0,-1,1644,722,0,0
427,302,0,0,0,0,0,0,0,0,0,-1,1651,722,0,0
434,302,0,0,0,0,0,0,0,0,0,-1,1658,722,0,0
441,302,0,0,0,0,0,0,0,0,0,-1,1665,722,0,0
448,302,0,0,0,0,0,0,0,0,0,-1,1672,722,0,0
455,302,0,0,0,0,0,0,0,0,0,-1,1679,722,0,0
462,302,0,0,0,0,0,0,0,0,0,-1,1686,722,0,0
469,302,0,0,0,0,0,0,0,0,0,-1,1693,722,0,0
476,302,0,0,0,0,0,0,0,0,0,-1,1700,722,0,0
483,302,0,0,0,0,0,0,0,0,0,-1,1707,722,0,0
490,302,0,0,0,0,0,0,0,0,0,-1,1714,722,0,0
497,302,0,0,0,0,0,0,0,0,0,-1,1721,722,0,0
504,302,0,0,0,0,0,0,0,0,0,-1,1728,722,0,0
511,302,0,0,0,0,0,0,0,0,0,-1,1735,722,0,0
518,302,0,0,0,0,0,0,0,0,0,-1,1742,722,0,0
525,302,0,0,0,0,0,0,0,0,0,-1,1749,722,0,0
532,302,0,0,0,0,0,0,0,0,0,-1,1756,722,0,0
539,302,0,0,0,0,0,0,0,0,0,-1,1763,722,0,0
546,302,48.9873,1.50562,0,0,0,0,0,0,0,-1,1770,722,48.9873,-1.50562
553,302,56.7844,3.46533,0,0,0,0,0,0,0,-1,1777,722,56.7844,-3.4653
560,302,56.7115,3.84808,0,0,0,0,0,0,0,-1,1784,722,56.7116,-3.84806
567,302,55.9475,4.24542,0,0,0,0,0,0,0,-1,1791,722,55.9475,-4.24542
574,302,45.9537,6.00867,0,0,0,0,0,0,0,-1,1798,722,45.9537,-6.00864
581,302,45.137,7.38043,0,0,0,0,0,0,0,-1,1805,722,45.1369,-7.38044
588,302,26.9731,7.19983,0,0,0,0,0,0,0,-1,1812,722,26.9732,-7.19981
595,302,27.3826,8.13104,0,0,0,0,0,0,0,-1,1819,722,27.3825,-8.13102
602,302,14.7349,5.21246,0,0,0,0,0,0,0,-1,1826,722,14.7349,-5.21247
609,302,31.1039,-6.34253,0,0,0,0,0,0,0,-1,1833,722,31.1039,6.34254
616,302,48.4359,-11.5912,0,0,0,0,0,0,0,-1,1840,722,48.4359,11.5912
623,302,48.339,-10.572,0.00288626,-0.000577691,0.000933879,0.00312199,-0.000813422,0.247256,0.00239888,0.0184842,1847,722,48.3389,10.572
630,302,48.2354,-9.57898,0.00224453,-0.000480547,0.000716846,0.00242159,-0.000657612,0.242159,0.0018725,0.0116049,1854,722,48.2354,9.57899
637,302,48.1277,-8.57678,0.00179185,-0.000280535,0.000605272,0.00195567,-0.000444363,0.264335,0.0014744,0.0155035,1861,722,48.1277,8.57677
644,302,48.0579,-7.5589,0.00153225,5.26233e-05,0.000583304,0.00173455,-0.000149671,0.333828,0.00120935,0.0165087,1868,722,48.0579,7.55889
651,302,48.0071,-6.54791,0.00145138,0.000483814,0.000646834,0.00177533,0.000159858,0.464313,0.00113403,0.0158484,1875,722,48.007,6.54793
658,302,47.9749,-5.58844,0.00157062,0.00101403,0.000798819,0.00213824,0.000446421,0.617782,0.00130244,0.0173079,1882,722,47.9749,5.58842
665,302,47.9271,-4.59692,0.00182311,0.00162854,0.0010261,0.00275653,0.000695116,0.738135,0.00165537,0.0163728,1889,722,47.9272,4.59692
672,302,47.8394,-3.58649,0.00228024,0.00235222,0.00137944,0.00369614,0.000936318,0.798439,0.00221885,0.0131276,1896,722,47.8394,3.58651
679,302,47.7653,-2.57922,0.00290857,0.00323119,0.00184139,0.00491831,0.00122144,0.829088,0.00295705,0.0109216,1903,722,47.7653,2.57921
686,302,47.7357,-1.50208,0.00376654,0.0040835,0.00246479,0.0063949,0.00145514,0.817504,0.0038705,0.0271877,1910,722,47.7357,1.50206
693,302,47.6484,-0.446167,0,0,0,0,0,0,0,-1,1917,722,47.6484,0.446185
700,302,25.4069,1.97308,0,0,0,0,0,0,0,-1,1924,722,25.4068,-1.97311
707,302,16.7321,4.76685,0,0,0,0,0,0,0,-1,1931,722,16.7321,-4.76687
714,302,17.2,5.77594,0,0,0,0,0,0,0,-1,1938,722,17.2,-5.77595
721,302,17.7914,6.60394,0,0,0,0,0,0,0,-1,1945,722,17.7914,-6.60395
728,302,17.2798,4.81702,0,0,0,0,0,0,0,-1,1952,722,17.2798,-4.81703
735,302,0,0,0,0,0,0,0,0,0,-1,1959,722,0,0
742,302,0,0,0,0,0,0,0,0,0,-1,1966,722,0,0
749,302,0,0,0,0,0,0,0,0,0,-1,1973,722,0,0
756,302,0,0,0,0,0,0,0,0,0,-1,1980,722,0,0
763,302,0,0,0,0,0,0,0,0,0,-1,1987,722,0,0
770,302,0,0,0,0,0,0,0,0,0,-1,1994,722,0,0
777,302,0,0,0,0,0,0,0,0,0,-1,2001,722,0,0
784,302,0,0,0,0,0,0,0,0,0,-1,2008,722,0,0
791,302,0,0,0,0,0,0,0,0,0,-1,2015,722,0,0
798,302,0,0,0,0,0,0,0,0,0,-1,2022,722,0,0
805,302,0,0,0,0,0,0,0,0,0,-1,2029,722,0,0
812,302,0,0,0,0,0,0,0,0,0,-1,2036,722,0,0
-700,295,0,0,0,0,0,0,0,0,0,-1,524,729,0,0
-693,295,0,0,0,0,0,0,0,0,0,-1,531,729,0,0
-686,295,0,0,0,0,0,0,0,0,0,-1,538,729,0,0
-679,295,0,0,0,0,0,0,0,0,0,-1,545,729,0,0
-672,295,0,0,0,0,0,0,0,0,0,-1,552,729,0,0
-665,295,0,0,0,0,0,0,0,0,0,-1,559,729,0,0
-658,295,0,0,0,0,0,0,0,0,0,-1,566,729,0,0
-651,295,0,0,0,0,0,0,0,0,0,-1,573,729,0,0
-644,295,0,0,0,0,0,0,0,0,0,-1,580,729,0,0
-637,295,0,0,0,0,0,0,0,0,0,-1,587,729,0,0
-630,295,0,0,0,0,0,0,0,0,0,-1,594,729,0,0
-623,295,0,0,0,0,0,0,0,0,0,-1,601,729,0,0
-616,295,-13.4911,1.31738,0,0,0,0,0,0,0,-1,608,729,-13.4911,-1.3174
-609,295,-10.2864,0.832031,0,0,0,0,0,0,0,-1,615,729,-10.2863,-0.832034
-602,295,-8.19006,3.01587,0,0,0,0,0,0,0,-1,622,729,-8.19005,-3.01588
-595,295,-0.615479,-1.95447,0,0,0,0,0,0,0,-1,629,729,-0.615481,1.95445
-588,295,-7.98999,1.56903,0,0,0,0,0,0,0,-1,636,729,-7.98997,-1.56905
-581,295,-12.0404,0.150574,0,0,0,0,0,0,0,-1,643,729,-12.0404,-0.150604
-574,295,-12.1605,-0.0739746,0,0,0,0,0,0,0,-1,650,729,-12.1605,0.0739856
-567,295,-31.8664,-0.288574,0,0,0,0,0,0,0,-1,657,729,-31.8664,0.288557
-560,295,-32.1751,-1.49475,0.0029396,0.00280573,-0.00301324,0.00588665,-0.000141324,-0.774293,0.00397238,0.0436502,664,729,-32.1751,1.49476
-553,295,-32.2277,-2.53619,0.00258072,0.00226312,-0.00215747,0.00458523,0.000258614,-0.748662,0.00297436,0.0234894,671,729,-32.2277,2.53617
-546,295,-32.3525,-3.4986,0.00208892,0.00189582,-0.00155106,0.00354643,0.000438306,-0.754314,0.00223257,0.022382,678,729,-32.3525,3.49861
-539,295,-32.4221,-4.45862,0.00148339,0.00157652,-0.000801015,0.00233232,0.000727586,-0.814431,0.00137794,0.0213346,685,729,-32.422,4.45863
-532,295,-32.4756,-5.46295,0.000866238,0.000750144,-0.000331501,0.00114474,0.000471646,-0.698725,0.000664316,0.0174513,692,729,-32.4757,5.46292
-525,295,-32.5202,-6.52661,0.000206145,-0.000106204,7.34657e-05,0.000222562,-0.000122621,0.219848,0.000202056,0.0163237,699,729,-32.5202,6.52662
-518,295,-32.5483,-7.52814,-0.000666012,-0.000773004,0.000481053,-0.000235489,-0.00120353,0.730023,0.000736513,0.0118035,706,729,-32.5483,7.52811
-511,295,-32.6246,-8.50073,-0.00180978,-0.00157295,0.000813016,-0.000869766,-0.00251296,0.857714,0.00147358,0.00974644,713,729,-32.6246,8.50071
-504,295,-32.7123,-9.48236,-0.00318964,-0.00238991,0.00112994,-0.00159117,-0.00398838,0.955463,0.00231832,0.0112185,720,729,-32.7123,9.48238
-497,295,-32.8157,-10.408,-0.00479861,-0.00329935,0.00120324,-0.00263133,-0.00546663,1.06398,0.00315689,0.0274392,727,729,-32.8158,10.408
-490,295,-32.9258,-11.3088,0,0,0,0,0,0,0,-1,734,729,-32.9258,11.3088
-483,295,-6.84503,-0.454651,0,0,0,0,0,0,0,-1,741,729,-6.84505,0.454639
-476,295,-13.1738,-0.836243,0,0,0,0,0,0,0,-1,748,729,-13.1738,0.836223
-469,295,-26.5608,-0.466187,0,0,0,0,0,0,0,-1,755,729,-26.5608,0.466162
-462,295,-29.7701,-0.792664,0,0,0,0,0,0,0,-1,762,729,-29.7701,0.792642
-455,295,-45.11,-2.79272,0,0,0,0,0,0,0,-1,769,729,-45.11,2.79272
-448,295,-48.0288,1.41229,0,0,0,0,0,0,0,-1,776,729,-48.0288,-1.41227
-441,295,-47.1089,1.03058,0,0,0,0,0,0,0,-1,783,729,-47.109,-1.0306
-434,295,-46.2319,1.10614,0,0,0,0,0,0,0,-1,790,729,-46.2319,-1.10612
-427,295,0,0,0,0,0,0,0,0,0,-1,797,729,0,0
-420,295,0,0,0,0,0,0,0,0,0,-1,804,729,0,0
-413,295,0,0,0,0,0,0,0,0,0,-1,811,729,0,0
-406,295,0,0,0,0,0,0,0,0,0,-1,818,729,0,0
-399,295,0,0,0,0,0,0,0,0,0,-1,825,729,0,0
-392,295,0,0,0,0,0,0,0,0,0,-1,832,729,0,0
-385,295,0,0,0,0,0,0,0,0,0,-1,839,729,0,0
-378,295,0,0,0,0,0,0,0,0,0,-1,846,729,0,0
-371,295,0,0,0,0,0,0,0,0,0,-1,853,729,0,0
-364,295,0,0,0,0,0,0,0,0,0,-1,860,729,0,0
-357,295,0,0,0,0,0,0,0,0,0,-1,867,729,0,0
-350,295,0,0,0,0,0,0,0,0,0,-1,874,729,0,0
-343,295,0,0,0,0,0,0,0,0,0,-1,881,729,0,0
-336,295,0,0,0,0,0,0,0,0,0,-1,888,729,0,0
-329,295,0,0,0,0,0,0,0,0,0,-1,895,729,0,0
-322,295,0,0,0,0,0,0,0,0,0,-1,902,729,0,0
-315,295,0,0,0,0,0,0,0,0,0,-1,909,729,0,0
-308,295,0,0,0,0,0,0,0,0,0,-1,916,729,0,0
-301,295,0,0,0,0,0,0,0,0,0,-1,923,729,0,0
-294,295,0,0,0,0,0,0,0,0,0,-1,930,729,0,0
-287,295,0,0,0,0,0,0,0,0,0,-1,937,729,0,0
-280,295,0,0,0,0,0,0,0,0,0,-1,944,729,0,0
-273,295,0,0,0,0,0,0,0,0,0,-1,951,729,0,0
-266,295,0,0,0,0,0,0,0,0,0,-1,958,729,0,0
-259,295,0,0,0,0,0,0,0,0,0,-1,965,729,0,0
-252,295,0,0,0,0,0,0,0,0,0,-1,972,729,0,0
-245,295,0,0,0,0,0,0,0,0,0,-1,979,729,0,0
-238,295,0,0,0,0,0,0,0,0,0,-1,986,729,0,0
-231,295,0,0,0,0,0,0,0,0,0,-1,993,729,0,0
-224,295,0,0,0,0,0,0,0,0,0,-1,1000,729,0,0
-217,295,0,0,0,0,0,0,0,0,0,-1,1007,729,0,0
-210,295,0,0,0,0,0,0,0,0,0,-1,1014,729,0,0
-203,295,0,0,0,0,0,0,0,0,0,-1,1021,729,0,0
-196,295,0,0,0,0,0,0,0,0,0,-1,1028,729,0,0
-189,295,0,0,0,0,0,0,0,0,0,-1,1035,729,0,0
-182,295,0,0,0,0,0,0,0,0,0,-1,1042,729,0,0
-175,295,0,0,0,0,0,0,0,0,0,-1,1049,729,0,0
-168,295,0,0,0,0,0,0,0,0,0,-1,1056,729,0,0
-161,295,0,0,0,0,0,0,0,0,0,-1,1063,729,0,0
-154,295,0,0,0,0,0,0,0,0,0,-1,1070,729,0,0
-147,295,0,0,0,0,0,0,0,0,0,-1,1077,729,0,0
-140,295,0,0,0,0,0,0,0,0,0,-1,1084,729,0,0
-133,295,0,0,0,0,0,0,0,0,0,-1,1091,729,0,0
-126,295,0,0,0,0,0,0,0,0,0,-1,1098,729,0,0
-119,295,0,0,0,0,0,0,0,0,0,-1,1105,729,0,0
-112,295,0,0,0,0,0,0,0,0,0,-1,1112,729,0,0
-105,295,0,0,0,0,0,0,0,0,0,-1,1119,729,0,0
-98,295,0,0,0,0,0,0,0,0,0,-1,1126,729,0,0
-91,295,0,0,0,0,0,0,0,0,0,-1,1133,729,0,0
-84,295,0,0,0,0,0,0,0,0,0,-1,1140,729,0,0
-77,295,0,0,0,0,0,0,0,0,0,-1,1147,729,0,0
-70,295,0,0,0,0,0,0,0,0,0,-1,1154,729,0,0
-63,295,0,0,0,0,0,0,0,0,0,-1,1161,729,0,0
-56,295,0,0,0,0,0,0,0,0,0,-1,1168,729,0,0
-49,295,0,0,0,0,0,0,0,0,0,-1,1175,729,0,0
-42,295,0,0,0,0,0,0,0,0,0,-1,1182,729,0,0
-35,295,0,0,0,0,0,0,0,0,0,-1,1189,729,0,0
-28,295,0,0,0,0,0,0,0,0,0,-1,1196,729,0,0
-21,295,0,0,0,0,0,0,0,0,0,-1,1203,729,0,0
-14,295,0,0,0,0,0,0,0,0,0,-1,1210,729,0,0
-7,295,0,0,0,0,0,0,0,0,0,-1,1217,729,0,0
0,295,0,0,0,0,0,0,0,0,0,-1,1224,729,0,0
7,295,0,0,0,0,0,0,0,0,0,-1,1231,729,0,0
14,295,0,0,0,0,0,0,0,0,0,-1,1238,729,0,0
21,295,0,0,0,0,0,0,0,0,0,-1,1245,729,0,0
28,295,0,0,0,0,0,0,0,0,0,-1,1252,729,0,0
35,295,0,0,0,0,0,0,0,0,0,-1,1259,729,0,0
42,295,0,0,0,0,0,0,0,0,0,-1,1266,729,0,0
49,295,0,0,0,0,0,0,0,0,0,-1,1273,729,0,0
56,295,0,0,0,0,0,0,0,0,0,-1,1280,729,0,0
63,295,0,0,0,0,0,0,0,0,0,-1,1287,729,0,0
70,295,0,0,0,0,0,0,0,0,0,-1,1294,729,0,0
77,295,0,0,0,0,0,0,0,0,0,-1,1301,729,0,0
84,295,0,0,0,0,0,0,0,0,0,-1,1308,729,0,0
91,295,0,0,0,0,0,0,0,0,0,-1,1315,729,0,0
98,295,0,0,0,0,0,0,0,0,0,-1,1322,729,0,0
105,295,0,0,0,0,0,0,0,0,0,-1,1329,729,0,0
112,295,0,0,0,0,0,0,0,0,0,-1,1336,729,0,0
119,295,0,0,0,0,0,0,0,0,0,-1,1343,729,0,0
126,295,0,0,0,0,0,0,0,0,0,-1,1350,729,0,0
133,295,0,0,0,0,0,0,0,0,0,-1,1357,729,0,0
140,295,0,0,0,0,0,0,0,0,0,-1,1364,729,0,0
147,295,0,0,0,0,0,0,0,0,0,-1,1371,729,0,0
154,295,0,0,0,0,0,0,0,0,0,-1,1378,729,0,0
161,295,0,0,0,0,0,0,0,0,0,-1,1385,729,0,0
168,295,0,0,0,0,0,0,0,0,0,-1,1392,729,0,0
175,295,0,0,0,0,0,0,0,0,0,-1,1399,729,0,0
182,295,0,0,0,0,0,0,0,0,0,-1,1406,729,0,0
189,295,0,0,0,0,0,0,0,0,0,-1,1413,729,0,0
196,295,0,0,0,0,0,0,0,0,0,-1,1420,729,0,0
203,295,0,0,0,0,0,0,0,0,0,-1,1427,729,0,0
210,295,0,0,0,0,0,0,0,0,0,-1,1434,729,0,0
217,295,0,0,0,0,0,0,0,0,0,-1,1441,729,0,0
224,295,0,0,0,0,0,0,0,0,0,-1,1448,729,0,0
231,295,0,0,0,0,0,0,0,0,0,-1,1455,729,0,0
238,295,0,0,0,0,0,0,0,0,0,-1,1462,729,0,0
245,295,0,0,0,0,0,0,0,0,0,-1,1469,729,0,0
252,295,0,0,0,0,0,0,0,0,0,-1,1476,729,0,0
259,295,0,0,0,0,0,0,0,0,0,-1,1483,729,0,0
266,295,0,0,0,0,0,0,0,0,0,-1,1490,729,0,0
273,295,0,0,0,0,0,0,0,0,0,-1,1497,729,0,0
280,295,0,0,0,0,0,0,0,0,0,-1,1504,729,0,0
287,295,0,0,0,0,0,0,0,0,0,-1,1511,729,0,0
294,295,0,0,0,0,0,0,0,0,0,-1,1518,729,0,0
301,295,0,0,0,0,0,0,0,0,0,-1,1525,729,0,0
308,295,0,0,0,0,0,0,0,0,0,-1,1532,729,0,0
315,295,0,0,0,0,0,0,0,0,0,-1,1539,729,0,0
322,295,0,0,0,0,0,0,0,0,0,-1,1546,729,0,0
329,295,0,0,0,0,0,0,0,0,0,-1,1553,729,0,0
336,295,0,0,0,0,0,0,0,0,0,-1,1560,729,0,0
343,295,0,0,0,0,0,0,0,0,0,-1,1567,729,0,0
350,295,0,0,0,0,0,0,0,0,0,-1,1574,729,0,0
357,295,0,0,0,0,0,0,0,0,0,-1,1581,729,0,0
364,295,0,0,0,0,0,0,0,0,0,-1,1588,729,0,0
371,295,0,0,0,0,0,0,0,0,0,-1,1595,729,0,0
378,295,0,0,0,0,0,0,0,0,0,-1,1602,729,0,0
385,295,0,0,0,0,0,0,0,0,0,-1,1609,729,0,0
392,295,0,0,0,0,0,0,0,0,0,-1,1616,729,0,0
399,295,0,0,0,0,0,0,0,0,0,-1,1623,729,0,0
406,295,0,0,0,0,0,0,0,0,0,-1,1630,729,0,0
413,295,0,0,0,0,0,0,0,0,0,-1,1637,729,0,0
420,295,0,0,0,0,0,0,0,0,0,-1,1644,729,0,0
427,295,0,0,0,0,0,0,0,0,0,-1,1651,729,0,0
434,295,0,0,0,0,0,0,0,0,0,-1,1658,729,0,0
441,295,0,0,0,0,0,0,0,0,0,-1,1665,729,0,0
448,295,0,0,0,0,0,0,0,0,0,-1,1672,729,0,0
455,295,0,0,0,0,0,0,0,0,0,-1,1679,729,0,0
462,295,0,0,0,0,0,0,0,0,0,-1,1686,729,0,0
469,295,0,0,0,0,0,0,0,0,0,-1,1693,729,0,0
476,295,0,0,0,0,0,0,0,0,0,-1,1700,729,0,0
483,295,0,0,0,0,0,0,0,0,0,-1,1707,729,0,0
490,295,0,0,0,0,0,0,0,0,0,-1,1714,729,0,0
497,295,0,0,0,0,0,0,0,0,0,-1,1721,729,0,0
504,295,0,0,0,0,0,0,0,0,0,-1,1728,729,0,0
511,295,0,0,0,0,0,0,0,0,0,-1,1735,729,0,0
518,295,0,0,0,0,0,0,0,0,0,-1,1742,729,0,0
525,295,0,0,0,0,0,0,0,0,0,-1,1749,729,0,0
532,295,0,0,0,0,0,0,0,0,0,-1,1756,729,0,0
539,295,0,0,0,0,0,0,0,0,0,-1,1763,729,0,0
546,295,57.4674,2.36884,0,0,0,0,0,0,0,-1,1770,729,57.4674,-2.36883
553,295,57.1969,2.73846,0,0,0,0,0,0,0,-1,1777,729,57.197,-2.73843
560,295,57.0291,3.27454,0,0,0,0,0,0,0,-1,1784,729,57.029,-3.27454
567,295,56.6243,3.88239,0,0,0,0,0,0,0,-1,1791,729,56.6242,-3.8824
574,295,56.5275,4.755,0,0,0,0,0,0,0,-1,1798,729,56.5274,-4.75501
581,295,37.8191,2.19592,0,0,0,0,0,0,0,-1,1805,729,37.8191,-2.19594
588,295,39.0542,2.45679,0,0,0,0,0,0,0,-1,1812,729,39.0542,-2.45676
595,295,27.2102,6.99121,0,0,0,0,0,0,0,-1,1819,729,27.2103,-6.99121
602,295,26.9065,7.82141,0,0,0,0,0,0,0,-1,1826,729,26.9064,-7.8214
609,295,11.7737,2.19989,0,0,0,0,0,0,0,-1,1833,729,11.7736,-2.19988
616,295,45.2537,-10.4867,0,0,0,0,0,0,0,-1,1840,729,45.2537,10.4867
623,295,49.2908,-10.5328,0,0,0,0,0,0,0,-1,1847,729,49.2907,10.5329
630,295,49.2185,-9.49615,0.00342173,-0.000865509,0.000713154,0.00353725,-0.000981025,0.160584,0.00274426,0.0144635,1854,729,49.2185,9.49616
637,295,49.1418,-8.48981,0.00234535,-0.000534596,0.00059612,0.00246387,-0.00065311,0.196249,0.00189811,0.0147551,1861,729,49.1418,8.48979
644,295,49.0918,-7.4848,0.0016509,-0.000112108,0.00050554,0.00178557,-0.000246783,0.260353,0.00128059,0.0135663,1868,729,49.0917,7.48483
651,295,49.0374,-6.47552,0.00133068,0.00036727,0.000502942,0.00154538,0.000152561,0.403483,0.000983355,0.0139925,1875,729,49.0374,6.47554
658,295,48.9651,-5.4939,0.00140188,0.00086118,0.000619342,0.00180731,0.000455755,0.579606,0.00108533,0.0143974,1882,729,48.9651,5.49392
665,295,48.8864,-4.51624,0.00157747,0.00142023,0.000804166,0.00230685,0.000690852,0.736669,0.0013671,0.0129593,1889,729,48.8863,4.51627
672,295,48.823,-3.52856,0.00195821,0.00204381,0.00111214,0.00311398,0.000888049,0.804631,0.00185234,0.0148475,1896,729,48.8231,3.52859
679,295,48.7524,-2.52789,0.00257287,0.00282678,0.00155909,0.00426408,0.00113558,0.826023,0.00254992,0.0115286,1903,729,48.7524,2.52789
686,295,48.7335,-1.53137,0.00336277,0.00359041,0.00211337,0.00559303,0.00136016,0.8123,0.00336812,0.0127471,1910,729,48.7336,1.53135
693,295,48.7341,-0.536072,0,0,0,0,0,0,0,-1,1917,729,48.7342,0.536075
700,295,31.3757,2.06982,0,0,0,0,0,0,0,-1,1924,729,31.3758,-2.0698
707,295,22.2661,3.05206,0,0,0,0,0,0,0,-1,1931,729,22.2662,-3.05207
714,295,17.4906,4.63068,0,0,0,0,0,0,0,-1,1938,729,17.4906,-4.63066
721,295,18.3792,5.32281,0,0,0,0,0,0,0,-1,1945,729,18.3791,-5.32283
728,295,17.379,3.74866,0,0,0,0,0,0,0,-1,1952,729,17.379,-3.74863
735,295,0,0,0,0,0,0,0,0,0,-1,1959,729,0,0
742,295,0,0,0,0,0,0,0,0,0,-1,1966,729,0,0
749,295,0,0,0,0,0,0,0,0,0,-1,1973,729,0,0
756,295,0,0,0,0,0,0,0,0,0,-1,1980,729,0,0
763,295,0,0,0,0,0,0,0,0,0,-1,1987,729,0,0
770,295,0,0,0,0,0,0,0,0,0,-1,1994,729,0,0
777,295,0,0,0,0,0,0,0,0,0,-1,2001,729,0,0
784,295,0,0,0,0,0,0,0,0,0,-1,2008,729,0,0
791,295,0,0,0,0,0,0,0,0,0,-1,2015,729,0,0
798,295,0,0,0,0,0,0,0,0,0,-1,2022,729,0,0
805,295,0,0,0,0,0,0,0,0,0,-1,2029,729,0,0
812,295,0,0,0,0,0,0,0,0,0,-1,2036,729,0,0
-700,288,0,0,0,0,0,0,0,0,0,-1,524,736,0,0
-693,288,0,0,0,0,0,0,0,0,0,-1,531,736,0,0
-686,288,0,0,0,0,0,0,0,0,0,-1,538,736,0,0
-679,288,0,0,0,0,0,0,0,0,0,-1,545,736,0,0
-672,288,0,0,0,0,0,0,0,0,0,-1,552,736,0,0
-665,288,0,0,0,0,0,0,0,0,0,-1,559,736,0,0
-658,288,0,0,0,0,0,0,0,0,0,-1,566,736,0,0
-651,288,0,0,0,0,0,0,0,0,0,-1,573,736,0,0
-644,288,0,0,0,0,0,0,0,0,0,-1,580,736,0,0
-637,288,0,0,0,0,0,0,0,0,0,-1,587,736,0,0
-630,288,0,0,0,0,0,0,0,0,0,-1,594,736,0,0
-623,288,0,0,0,0,0,0,0,0,0,-1,601,736,0,0
-616,288,-11.7584,2.4425,0,0,0,0,0,0,0,-1,608,736,-11.7584,-2.44251
-609,288,-10.3007,2.32178,0,0,0,0,0,0,0,-1,615,736,-10.3007,-2.32178
-602,288,-10.1458,-1.85559,0,0,0,0,0,0,0,-1,622,736,-10.1458,1.85556
-595,288,-7.63208,1.81769,0,0,0,0,0,0,0,-1,629,736,-7.63205,-1.81766
-588,288,-8.19269,1.50598,0,0,0,0,0,0,0,-1,636,736,-8.19268,-1.50601
-581,288,-13.1915,0.659241,0,0,0,0,0,0,0,-1,643,736,-13.1915,-0.659228
-574,288,-32.8716,0.494141,0,0,0,0,0,0,0,-1,650,736,-32.8716,-0.494156
-567,288,-32.9314,-0.445496,0.00311951,0.00181205,-0.00517541,0.00768232,-0.00275076,-0.722573,0.00624382,0.0357697,657,736,-32.9314,0.445512
-560,288,-33.2039,-1.51996,0.00241043,0.00194518,-0.00324879,0.00543492,-0.0010793,-0.749657,0.0040315,0.017816,664,736,-33.2038,1.51997
-553,288,-33.2078,-2.44727,0.00189493,0.00162621,-0.00206002,0.00382497,-0.000303828,-0.752833,0.00265705,0.0190307,671,736,-33.2078,2.44725
-546,288,-33.3002,-3.4314,0.00132306,0.00128593,-0.00122554,0.00253017,7.88127e-05,-0.777825,0.00166114,0.0217951,678,736,-33.3002,3.43141
-539,288,-33.3747,-4.42523,0.000660777,0.00106206,-0.000303749,0.00122545,0.000497384,-1.07728,0.000711681,0.0195445,685,736,-33.3747,4.42522
-532,288,-33.3924,-5.4176,-2.50998e-06,0.000323292,0.000199882,0.000418246,-9.74646e-05,1.1273,0.000316364,0.0167251,692,736,-33.3924,5.41759
-525,288,-33.485,-6.43219,-0.000670498,-0.00041915,0.000589893,5.83077e-05,-0.00114796,0.890352,0.000785462,0.0144385,699,736,-33.485,6.43221
-518,288,-33.5878,-7.43964,-0.00165671,-0.000931433,0.000943214,-0.000283546,-0.00230459,0.968922,0.00145114,0.0117439,706,736,-33.5878,7.43963
-511,288,-33.673,-8.40717,-0.00293645,-0.0016756,0.00113982,-0.00100348,-0.00360858,1.038,0.00215073,0.009214,713,736,-33.673,8.40718
-504,288,-33.7526,-9.38928,-0.00437841,-0.00237518,0.00136637,-0.00168263,-0.00507096,1.10168,0.00298242,0.0116901,720,736,-33.7525,9.38928
-497,288,-33.7369,-10.1298,-0.00600759,-0.00317744,0.00139074,-0.00260844,-0.0065766,1.18243,0.00382396,0.0395076,727,736,-33.7369,10.1298
-490,288,-33.5345,-10.7795,0,0,0,0,0,0,0,-1,734,736,-33.5345,10.7795
-483,288,-17.3287,0.564758,0,0,0,0,0,0,0,-1,741,736,-17.3287,-0.56477
-476,288,-26.136,0.452148,0,0,0,0,0,0,0,-1,748,736,-26.136,-0.452177
-469,288,-27.7904,0.649841,0,0,0,0,0,0,0,-1,755,736,-27.7904,-0.649854
-462,288,-44.999,-2.65112,0,0,0,0,0,0,0,-1,762,736,-44.999,2.65111
-455,288,-49.1631,1.86432,0,0,0,0,0,0,0,-1,769,736,-49.1632,-1.8643
-448,288,-55.5283,0.0455933,0,0,0,0,0,0,0,-1,776,736,-55.5284,-0.0456
-441,288,-55.0096,0.39325,0,0,0,0,0,0,0,-1,783,736,-55.0096,-0.393269
-434,288,-46.7119,1.66388,0,0,0,0,0,0,0,-1,790,736,-46.7119,-1.66385
-427,288,0,0,0,0,0,0,0,0,0,-1,797,736,0,0
-420,288,0,0,0,0,0,0,0,0,0,-1,804,736,0,0
-413,288,0,0,0,0,0,0,0,0,0,-1,811,736,0,0
-406,288,0,0,0,0,0,0,0,0,0,-1,818,736,0,0
-399,288,0,0,0,0,0,0,0,0,0,-1,825,736,0,0
-392,288,0,0,0,0,0,0,0,0,0,-1,832,736,0,0
-385,288,0,0,0,0,0,0,0,0,0,-1,839,736,0,0
-378,288,0,0,0,0,0,0,0,0,0,-1,846,736,0,0
-371,288,0,0,0,0,0,0,0,0,0,-1,853,736,0,0
-364,288,0,0,0,0,0,0,0,0,0,-1,860,736,0,0
-357,288,0,0,0,0,0,0,0,0,0,-1,867,736,0,0
-350,288,0,0,0,0,0,0,0,0,0,-1,874,736,0,0
-343,288,0,0,0,0,0,0,0,0,0,-1,881,736,0,0
-336,288,0,0,0,0,0,0,0,0,0,-1,888,736,0,0
-329,288,0,0,0,0,0,0,0,0,0,-1,895,736,0,0
-322,288,0,0,0,0,0,0,0,0,0,-1,902,736,0,0
-315,288,0,0,0,0,0,0,0,0,0,-1,909,736,0,0
-308,288,0,0,0,0,0,0,0,0,0,-1,916,736,0,0
-301,288,0,0,0,0,0,0,0,0,0,-1,923,736,0,0
-294,288,0,0,0,0,0,0,0,0,0,-1,930,736,0,0
-287,288,0,0,0,0,0,0,0,0,0,-1,937,736,0,0
-280,288,0,0,0,0,0,0,0,0,0,-1,944,736,0,0
-273,288,0,0,0,0,0,0,0,0,0,-1,951,736,0,0
-266,288,0,0,0,0,0,0,0,0,0,-1,958,736,0,0
-259,288,0,0,0,0,0,0,0,0,0,-1,965,736,0,0
-252,288,0,0,0,0,0,0,0,0,0,-1,972,736,0,0
-245,288,0,0,0,0,0,0,0,0,0,-1,979,736,0,0
-238,288,0,0,0,0,0,0,0,0,0,-1,986,736,0,0
-231,288,0,0,0,0,0,0,0,0,0,-1,993,736,0,0
-224,288,0,0,0,0,0,0,0,0,0,-1,1000,736,0,0
-217,288,0,0,0,0,0,0,0,0,0,-1,1007,736,0,0
-210,288,0,0,0,0,0,0,0,0,0,-1,1014,736,0,0
-203,288,0,0,0,0,0,0,0,0,0,-1,1021,736,0,0
-196,288,0,0,0,0,0,0,0,0,0,-1,1028,736,0,0
-189,288,0,0,0,0,0,0,0,0,0,-1,1035,736,0,0
-182,288,0,0,0,0,0,0,0,0,0,-1,1042,736,0,0
-175,288,0,0,0,0,0,0,0,0,0,-1,1049,736,0,0
-168,288,0,0,0,0,0,0,0,0,0,-1,1056,736,0,0
-161,288,0,0,0,0,0,0,0,0,0,-1,1063,736,0,0
-154,288,0,0,0,0,0,0,0,0,0,-1,1070,736,0,0
-147,288,0,0,0,0,0,0,0,0,0,-1,1077,736,0,0
-140,288,0,0,0,0,0,0,0,0,0,-1,1084,736,0,0
-133,288,0,0,0,0,0,0,0,0,0,-1,1091,736,0,0
-126,288,0,0,0,0,0,0,0,0,0,-1,1098,736,0,0
-119,288,0,0,0,0,0,0,0,0,0,-1,1105,736,0,0
-112,288,0,0,0,0,0,0,0,0,0,-1,1112,736,0,0
-105,288,0,0,0,0,0,0,0,0,0,-1,1119,736,0,0
-98,288,0,0,0,0,0,0,0,0,0,-1,1126,736,0,0
-91,288,0,0,0,0,0,0,0,0,0,-1,1133,736,0,0
-84,288,0,0,0,0,0,0,0,0,0,-1,1140,736,0,0
-77,288,0,0,0,0,0,0,0,0,0,-1,1147,736,0,0
-70,288,0,0,0,0,0,0,0,0,0,-1,1154,736,0,0
-63,288,0,0,0,0,0,0,0,0,0,-1,1161,736,0,0
-56,288,0,0,0,0,0,0,0,0,0,-1,1168,736,0,0
-49,288,0,0,0,0,0,0,0,0,0,-1,1175,736,0,0
-42,288,0,0,0,0,0,0,0,0,0,-1,1182,736,0,0
-35,288,0,0,0,0,0,0,0,0,0,-1,1189,736,0,0
-28,288,0,0,0,0,0,0,0,0,0,-1,1196,736,0,0
-21,288,0,0,0,0,0,0,0,0,0,-1,1203,736,0,0
-14,288,0,0,0,0,0,0,0,0,0,-1,1210,736,0,0
-7,288,0,0,0,0,0,0,0,0,0,-1,1217,736,0,0
0,288,0,0,0,0,0,0,0,0,0,-1,1224,736,0,0
7,288,0,0,0,0,0,0,0,0,0,-1,1231,736,0,0
14,288,0,0,0,0,0,0,0,0,0,-1,1238,736,0,0
21,288,0,0,0,0,0,0,0,0,0,-1,1245,736,0,0
28,288,0,0,0,0,0,0,0,0,0,-1,1252,736,0,0
35,288,0,0,0,0,0,0,0,0,0,-1,1259,736,0,0
42,288,0,0,0,0,0,0,0,0,0,-1,1266,736,0,0
49,288,0,0,0,0,0,0,0,0,0,-1,1273,736,0,0
56,288,0,0,0,0,0,0,0,0,0,-1,1280,736,0,0
63,288,0,0,0,0,0,0,0,0,0,-1,1287,736,0,0
70,288,0,0,0,0,0,0,0,0,0,-1,1294,736,0,0
77,288,0,0,0,0,0,0,0,0,0,-1,1301,736,0,0
84,288,0,0,0,0,0,0,0,0,0,-1,1308,736,0,0
91,288,0,0,0,0,0,0,0,0,0,-1,1315,736,0,0
98,288,0,0,0,0,0,0,0,0,0,-1,1322,736,0,0
105,288,0,0,0,0,0,0,0,0,0,-1,1329,736,0,0
112,288,0,0,0,0,0,0,0,0,0,-1,1336,736,0,0
119,288,0,0,0,0,0,0,0,0,0,-1,1343,736,0,0
126,288,0,0,0,0,0,0,0,0,0,-1,1350,736,0,0
133,288,0,0,0,0,0,0,0,0,0,-1,1357,736,0,0
140,288,0,0,0,0,0,0,0,0,0,-1,1364,736,0,0
147,288,0,0,0,0,0,0,0,0,0,-1,1371,736,0,0
154,288,0,0,0,0,0,0,0,0,0,-1,1378,736,0,0
161,288,0,0,0,0,0,0,0,0,0,-1,1385,736,0,0
168,288,0,0,0,0,0,0,0,0,0,-1,1392,736,0,0
175,288,0,0,0,0,0,0,0,0,0,-1,1399,736,0,0
182,288,0,0,0,0,0,0,0,0,0,-1,1406,736,0,0
189,288,0,0,0,0,0,0,0,0,0,-1,1413,736,0,0
196,288,0,0,0,0,0,0,0,0,0,-1,1420,736,0,0
203,288,0,0,0,0,0,0,0,0,0,-1,1427,736,0,0
210,288,0,0,0,0,0,0,0,0,0,-1,1434,736,0,0
217,288,0,0,0,0,0,0,0,0,0,-1,1441,736,0,0
224,288,0,0,0,0,0,0,0,0,0,-1,1448,736,0,0
231,288,0,0,0,0,0,0,0,0,0,-1,1455,736,0,0
238,288,0,0,0,0,0,0,0,0,0,-1,1462,736,0,0
245,288,0,0,0,0,0,0,0,0,0,-1,1469,736,0,0
252,288,0,0,0,0,0,0,0,0,0,-1,1476,736,0,0
259,288,0,0,0,0,0,0,0,0,0,-1,1483,736,0,0
266,288,0,0,0,0,0,0,0,0,0,-1,1490,736,0,0
273,288,0,0,0,0,0,0,0,0,0,-1,1497,736,0,0
280,288,0,0,0,0,0,0,0,0,0,-1,1504,736,0,0
287,288,0,0,0,0,0,0,0,0,0,-1,1511,736,0,0
294,288,0,0,0,0,0,0,0,0,0,-1,1518,736,0,0
301,288,0,0,0,0,0,0,0,0,0,-1,1525,736,0,0
308,288,0,0,0,0,0,0,0,0,0,-1,1532,736,0,0
315,288,0,0,0,0,0,0,0,0,0,-1,1539,736,0,0
322,288,0,0,0,0,0,0,0,0,0,-1,1546,736,0,0
329,288,0,0,0,0,0,0,0,0,0,-1,1553,736,0,0
336,288,0,0,0,0,0,0,0,0,0,-1,1560,736,0,0
343,288,0,0,0,0,0,0,0,0,0,-1,1567,736,0,0
350,288,0,0,0,0,0,0,0,0,0,-1,1574,736,0,0
357,288,0,0,0,0,0,0,0,0,0,-1,1581,736,0,0
364,288,0,0,0,0,0,0,0,0,0,-1,1588,736,0,0
371,288,0,0,0,0,0,0,0,0,0,-1,1595,736,0,0
378,288,0,0,0,0,0,0,0,0,0,-1,1602,736,0,0
385,288,0,0,0,0,0,0,0,0,0,-1,1609,736,0,0
392,288,0,0,0,0,0,0,0,0,0,-1,1616,736,0,0
399,288,0,0,0,0,0,0,0,0,0,-1,1623,736,0,0
406,288,0,0,0,0,0,0,0,0,0,-1,1630,736,0,0
413,288,0,0,0,0,0,0,0,0,0,-1,1637,736,0,0
420,288,0,0,0,0,0,0,0,0,0,-1,1644,736,0,0
427,288,0,0,0,0,0,0,0,0,0,-1,1651,736,0,0
434,288,0,0,0,0,0,0,0,0,0,-1,1658,736,0,0
441,288,0,0,0,0,0,0,0,0,0,-1,1665,736,0,0
448,288,0,0,0,0,0,0,0,0,0,-1,1672,736,0,0
455,288,0,0,0,0,0,0,0,0,0,-1,1679,736,0,0
462,288,0,0,0,0,0,0,0,0,0,-1,1686,736,0,0
469,288,0,0,0,0,0,0,0,0,0,-1,1693,736,0,0
476,288,0,0,0,0,0,0,0,0,0,-1,1700,736,0,0
483,288,0,0,0,0,0,0,0,0,0,-1,1707,736,0,0
490,288,0,0,0,0,0,0,0,0,0,-1,1714,736,0,0
497,288,0,0,0,0,0,0,0,0,0,-1,1721,736,0,0
504,288,0,0,0,0,0,0,0,0,0,-1,1728,736,0,0
511,288,0,0,0,0,0,0,0,0,0,-1,1735,736,0,0
518,288,0,0,0,0,0,0,0,0,0,-1,1742,736,0,0
525,288,0,0,0,0,0,0,0,0,0,-1,1749,736,0,0
532,288,0,0,0,0,0,0,0,0,0,-1,1756,736,0,0
539,288,0,0,0,0,0,0,0,0,0,-1,1763,736,0,0
546,288,0,0,0,0,0,0,0,0,0,-1,1770,736,0,0
553,288,57.4934,2.28064,0,0,0,0,0,0,0,-1,1777,736,57.4934,-2.28064
560,288,57.3807,3.02881,0,0,0,0,0,0,0,-1,1784,736,57.3808,-3.0288
567,288,57.2081,3.74274,0,0,0,0,0,0,0,-1,1791,736,57.2081,-3.74273
574,288,56.9817,4.36981,0,0,0,0,0,0,0,-1,1798,736,56.9816,-4.36984
581,288,53.4904,5.33215,0,0,0,0,0,0,0,-1,1805,736,53.4904,-5.33218
588,288,54.9313,3.29852,0,0,0,0,0,0,0,-1,1812,736,54.9313,-3.29849
595,288,47.035,3.35156,0,0,0,0,0,0,0,-1,1819,736,47.035,-3.35157
602,288,26.7634,7.61279,0,0,0,0,0,0,0,-1,1826,736,26.7635,-7.61279
609,288,17.5223,4.86414,0,0,0,0,0,0,0,-1,1833,736,17.5223,-4.86412
616,288,13.4886,0.801331,0,0,0,0,0,0,0,-1,1840,736,13.4886,-0.80132
623,288,50.2006,-10.2589,0,0,0,0,0,0,0,-1,1847,736,50.2006,10.2588
630,288,50.1478,-9.32904,0.00465102,-0.000800519,0.000835533,0.00477621,-0.000925703,0.148719,0.00353336,0.0396443,1854,736,50.1479,9.32907
637,288,50.1421,-8.40924,0.003163,-0.000530886,0.000671368,0.00328124,-0.000649123,0.174326,0.00243291,0.0122366,1861,736,50.1421,8.40922
644,288,50.1021,-7.42084,0.00197194,-0.000157169,0.000493133,0.00208061,-0.000265839,0.2169,0.00148365,0.0102643,1868,736,50.102,7.42082
651,288,50.0442,-6.41217,0.00128028,0.000283624,0.00038848,0.00141381,0.000150092,0.331078,0.00089671,0.0118519,1875,736,50.0442,6.41214
658,288,49.9696,-5.37769,0.00124406,0.000646636,0.000462266,0.00149573,0.000394966,0.498554,0.000895031,0.0170999,1882,736,49.9697,5.37766
665,288,49.8905,-4.41772,0.00138658,0.00111969,0.00062622,0.00189341,0.000612852,0.680418,0.00111559,0.0177887,1889,736,49.8905,4.41773
672,288,49.8262,-3.46277,0.00170997,0.00164187,0.000889642,0.00256622,0.000785631,0.766271,0.00151827,0.0180594,1896,736,49.8262,3.46274
679,288,49.7665,-2.46088,0.00224722,0.00234871,0.00128249,0.00358146,0.00101447,0.805172,0.00213153,0.0149924,1903,736,49.7664,2.46088
686,288,49.688,-1.49811,0.0028909,0.00306592,0.00172636,0.00470698,0.00124984,0.810722,0.00281542,0.0120991,1910,736,49.6879,1.49813
693,288,49.6691,-0.402283,0.00389354,0.00405653,0.0023527,0.00632914,0.00162093,0.802711,0.00379628,0.0288962,1917,736,49.6691,0.402293
700,288,49.6433,0.765564,0,0,0,0,0,0,0,-1,1924,736,49.6433,-0.765582
707,288,30.9496,3.07977,0,0,0,0,0,0,0,-1,1931,736,30.9496,-3.07975
714,288,23.0149,3.82544,0,0,0,0,0,0,0,-1,1938,736,23.0149,-3.82541
721,288,18.0732,3.69385,0,0,0,0,0,0,0,-1,1945,736,18.0732,-3.69387
728,288,19.3208,3.91455,0,0,0,0,0,0,0,-1,1952,736,19.3209,-3.91455
735,288,18.7712,3.51312,0,0,0,0,0,0,0,-1,1959,736,18.7713,-3.51309
742,288,0,0,0,0,0,0,0,0,0,-1,1966,736,0,0
749,288,0,0,0,0,0,0,0,0,0,-1,1973,736,0,0
756,288,0,0,0,0,0,0,0,0,0,-1,1980,736,0,0
763,288,0,0,0,0,0,0,0,0,0,-1,1987,736,0,0
770,288,0,0,0,0,0,0,0,0,0,-1,1994,736,0,0
777,288,0,0,0,0,0,0,0,0,0,-1,2001,736,0,0
784,288,0,0,0,0,0,0,0,0,0,-1,2008,736,0,0
791,288,0,0,0,0,0,0,0,0,0,-1,2015,736,0,0
798,288,0,0,0,0,0,0,0,0,0,-1,2022,736,0,0
805,288,0,0,0,0,0,0,0,0,0,-1,2029,736,0,0
812,288,0,0,0,0,0,0,0,0,0,-1,2036,736,0,0
-700,281,0,0,0,0,0,0,0,0,0,-1,524,743,0,0
-693,281,0,0,0,0,0,0,0,0,0,-1,531,743,0,0
-686,281,0,0,0,0,0,0,0,0,0,-1,538,743,0,0
-679,281,0,0,0,0,0,0,0,0,0,-1,545,743,0,0
-672,281,0,0,0,0,0,0,0,0,0,-1,552,743,0,0
-665,281,0,0,0,0,0,0,0,0,0,-1,559,743,0,0
-658,281,0,0,0,0,0,0,0,0,0,-1,566,743,0,0
-651,281,0,0,0,0,0,0,0,0,0,-1,573,743,0,0
-644,281,0,0,0,0,0,0,0,0,0,-1,580,743,0,0
-637,281,0,0,0,0,0,0,0,0,0,-1,587,743,0,0
-630,281,0,0,0,0,0,0,0,0,0,-1,594,743,0,0
-623,281,-19.1697,5.67017,0,0,0,0,0,0,0,-1,601,743,-19.1697,-5.67019
-616,281,-11.5906,2.6853,0,0,0,0,0,0,0,-1,608,743,-11.5906,-2.68529
-609,281,-16.1972,4.14838,0,0,0,0,0,0,0,-1,615,743,-16.1972,-4.14837
-602,281,-21.9772,6.77417,0,0,0,0,0,0,0,-1,622,743,-21.9771,-6.77415
-595,281,-10.4797,-1.07404,0,0,0,0,0,0,0,-1,629,743,-10.4798,1.07402
-588,281,-13.277,1.49817,0,0,0,0,0,0,0,-1,636,743,-13.2771,-1.49817
-581,281,-33.9955,1.55267,0,0,0,0,0,0,0,-1,643,743,-33.9955,-1.55269
-574,281,-33.8871,0.548035,0,0,0,0,0,0,0,-1,650,743,-33.8871,-0.548033
-567,281,-34.111,-0.390381,0.00268379,0.000999285,-0.00532614,0.00723386,-0.00355078,-0.70698,0.00634639,0.0221508,657,743,-34.1109,0.390369
-560,281,-34.2151,-1.39703,0.00185719,0.00124864,-0.00319592,0.00476328,-0.00165745,-0.737938,0.00384886,0.00931511,664,743,-34.2151,1.39706
-553,281,-34.2396,-2.37878,0.00122785,0.00107966,-0.00181979,0.00297505,-0.000667538,-0.765051,0.0022393,0.0151703,671,743,-34.2396,2.3788
-546,281,-34.3007,-3.33301,0.000595127,0.000756099,-0.000852048,0.00153145,-0.000180228,-0.832489,0.00108604,0.0169019,678,743,-34.3007,3.33302
-539,281,-34.3685,-4.34833,-0.000120589,0.000593216,0.000151776,0.000624148,-0.000151521,1.36975,0.000474735,0.0150714,685,743,-34.3685,4.34831
-532,281,-34.4348,-5.31293,-0.000794423,-6.42162e-05,0.000634876,0.000303052,-0.00116169,1.04634,0.000892791,0.0153699,692,743,-34.4348,5.31291
-525,281,-34.5309,-6.3407,-0.00138243,-0.00063249,0.000971485,3.38779e-05,-0.0020488,0.969577,0.0013773,0.0173563,699,743,-34.5309,6.3407
-518,281,-34.6124,-7.37714,-0.00242263,-0.000916138,0.0012211,-0.00023465,-0.00310412,1.06176,0.0019958,0.0136625,706,743,-34.6124,7.37712
-511,281,-34.689,-8.36902,-0.00372769,-0.00158481,0.00124462,-0.00101397,-0.00429852,1.14078,0.0025946,0.0140386,713,743,-34.689,8.36901
-504,281,-34.8044,-9.33875,-0.00505514,-0.00214038,0.00135499,-0.0016078,-0.00558773,1.19629,0.00332156,0.0185709,720,743,-34.8044,9.33875
-497,281,-34.6358,-10.0889,0,0,0,0,0,0,0,-1,727,743,-34.6358,10.0889
-490,281,-27.6985,-9.63165,0,0,0,0,0,0,0,-1,734,743,-27.6986,9.63165
-483,281,-22.1078,-2.34973,0,0,0,0,0,0,0,-1,741,743,-22.1078,2.3497
-476,281,-28.0016,2.17786,0,0,0,0,0,0,0,-1,748,743,-28.0016,-2.17786
-469,281,-34.6448,0.171692,0,0,0,0,0,0,0,-1,755,743,-34.6448,-0.171685
-462,281,-46.6214,0.0193481,0,0,0,0,0,0,0,-1,762,743,-46.6214,-0.0193665
-455,281,-56.0239,-0.1521,0,0,0,0,0,0,0,-1,769,743,-56.024,0.152123
-448,281,-55.8145,0.304321,0,0,0,0,0,0,0,-1,776,743,-55.8145,-0.304294
-441,281,-55.4486,0.766052,0,0,0,0,0,0,0,-1,783,743,-55.4486,-0.766078
-434,281,0,0,0,0,0,0,0,0,0,-1,790,743,0,0
-427,281,0,0,0,0,0,0,0,0,0,-1,797,743,0,0
-420,281,0,0,0,0,0,0,0,0,0,-1,804,743,0,0
-413,281,0,0,0,0,0,0,0,0,0,-1,811,743,0,0
-406,281,0,0,0,0,0,0,0,0,0,-1,818,743,0,0
-399,281,0,0,0,0,0,0,0,0,0,-1,825,743,0,0
-392,281,0,0,0,0,0,0,0,0,0,-1,832,743,0,0
-385,281,0,0,0,0,0,0,0,0,0,-1,839,743,0,0
-378,281,0,0,0,0,0,0,0,0,0,-1,846,743,0,0
-371,281,0,0,0,0,0,0,0,0,0,-1,853,743,0,0
-364,281,0,0,0,0,0,0,0,0,0,-1,860,743,0,0
-357,281,0,0,0,0,0,0,0,0,0,-1,867,743,0,0
-350,281,0,0,0,0,0,0,0,0,0,-1,874,743,0,0
-343,281,0,0,0,0,0,0,0,0,0,-1,881,743,0,0
-336,281,0,0,0,0,0,0,0,0,0,-1,888,743,0,0
-329,281,0,0,0,0,0,0,0,0,0,-1,895,743,0,0
-322,281,0,0,0,0,0,0,0,0,0,-1,902,743,0,0
-315,281,0,0,0,0,0,0,0,0,0,-1,909,743,0,0
-308,281,0,0,0,0,0,0,0,0,0,-1,916,743,0,0
-301,281,0,0,0,0,0,0,0,0,0,-1,923,743,0,0
-294,281,0,0,0,0,0,0,0,0,0,-1,930,743,0,0
-287,281,0,0,0,0,0,0,0,0,0,-1,937,743,0,0
-280,281,0,0,0,0,0,0,0,0,0,-1,944,743,0,0
-273,281,0,0,0,0,0,0,0,0,0,-1,951,743,0,0
-266,281,0,0,0,0,0,0,0,0,0,-1,958,743,0,0
-259,281,0,0,0,0,0,0,0,0,0,-1,965,743,0,0
-252,281,0,0,0,0,0,0,0,0,0,-1,972,743,0,0
-245,281,0,0,0,0,0,0,0,0,0,-1,979,743,0,0
-238,281,0,0,0,0,0,0,0,0,0,-1,986,743,0,0
-231,281,0,0,0,0,0,0,0,0,0,-1,993,743,0,0
-224,281,0,0,0,0,0,0,0,0,0,-1,1000,743,0,0
-217,281,0,0,0,0,0,0,0,0,0,-1,1007,743,0,0
-210,281,0,0,0,0,0,0,0,0,0,-1,1014,743,0,0
-203,281,0,0,0,0,0,0,0,0,0,-1,1021,743,0,0
-196,281,0,0,0,0,0,0,0,0,0,-1,1028,743,0,0
-189,281,0,0,0,0,0,0,0,0,0,-1,1035,743,0,0
-182,281,0,0,0,0,0,0,0,0,0,-1,1042,743,0,0
-175,281,0,0,0,0,0,0,0,0,0,-1,1049,743,0,0
-168,281,0,0,0,0,0,0,0,0,0,-1,1056,743,0,0
-161,281,0,0,0,0,0,0,0,0,0,-1,1063,743,0,0
-154,281,0,0,0,0,0,0,0,0,0,-1,1070,743,0,0
-147,281,0,0,0,0,0,0,0,0,0,-1,1077,743,0,0
-140,281,0,0,0,0,0,0,0,0,0,-1,1084,743,0,0
-133,281,0,0,0,0,0,0,0,0,0,-1,1091,743,0,0
-126,281,0,0,0,0,0,0,0,0,0,-1,1098,743,0,0
-119,281,0,0,0,0,0,0,0,0,0,-1,1105,743,0,0
-112,281,0,0,0,0,0,0,0,0,0,-1,1112,743,0,0
-105,281,0,0,0,0,0,0,0,0,0,-1,1119,743,0,0
-98,281,0,0,0,0,0,0,0,0,0,-1,1126,743,0,0
-91,281,0,0,0,0,0,0,0,0,0,-1,1133,743,0,0
-84,281,0,0,0,0,0,0,0,0,0,-1,1140,743,0,0
-77,281,0,0,0,0,0,0,0,0,0,-1,1147,743,0,0
-70,281,0,0,0,0,0,0,0,0,0,-1,1154,743,0,0
-63,281,0,0,0,0,0,0,0,0,0,-1,1161,743,0,0
-56,281,0,0,0,0,0,0,0,0,0,-1,1168,743,0,0
-49,281,0,0,0,0,0,0,0,0,0,-1,1175,743,0,0
-42,281,0,0,0,0,0,0,0,0,0,-1,1182,743,0,0
-35,281,0,0,0,0,0,0,0,0,0,-1,1189,743,0,0
-28,281,0,0,0,0,0,0,0,0,0,-1,1196,743,0,0
-21,281,0,0,0,0,0,0,0,0,0,-1,1203,743,0,0
-14,281,0,0,0,0,0,0,0,0,0,-1,1210,743,0,0
-7,281,0,0,0,0,0,0,0,0,0,-1,1217,743,0,0
0,281,0,0,0,0,0,0,0,0,0,-1,1224,743,0,0
7,281,0,0,0,0,0,0,0,0,0,-1,1231,743,0,0
14,281,0,0,0,0,0,0,0,0,0,-1,1238,743,0,0
21,281,0,0,0,0,0,0,0,0,0,-1,1245,743,0,0
28,281,0,0,0,0,0,0,0,0,0,-1,1252,743,0,0
35,281,0,0,0,0,0,0,0,0,0,-1,1259,743,0,0
42,281,0,0,0,0,0,0,0,0,0,-1,1266,743,0,0
49,281,0,0,0,0,0,0,0,0,0,-1,1273,743,0,0
56,281,0,0,0,0,0,0,0,0,0,-1,1280,743,0,0
63,281,0,0,0,0,0,0,0,0,0,-1,1287,743,0,0
70,281,0,0,0,0,0,0,0,0,0,-1,1294,743,0,0
77,281,0,0,0,0,0,0,0,0,0,-1,1301,743,0,0
84,281,0,0,0,0,0,0,0,0,0,-1,1308,743,0,0
91,281,0,0,0,0,0,0,0,0,0,-1,1315,743,0,0
98,281,0,0,0,0,0,0,0,0,0,-1,1322,743,0,0
105,281,0,0,0,0,0,0,0,0,0,-1,1329,743,0,0
112,281,0,0,0,0,0,0,0,0,0,-1,1336,743,0,0
119,281,0,0,0,0,0,0,0,0,0,-1,1343,743,0,0
126,281,0,0,0,0,0,0,0,0,0,-1,1350,743,0,0
133,281,0,0,0,0,0,0,0,0,0,-1,1357,743,0,0
140,281,0,0,0,0,0,0,0,0,0,-1,1364,743,0,0
147,281,0,0,0,0,0,0,0,0,0,-1,1371,743,0,0
154,281,0,0,0,0,0,0,0,0,0,-1,1378,743,0,0
161,281,0,0,0,0,0,0,0,0,0,-1,1385,743,0,0
168,281,0,0,0,0,0,0,0,0,0,-1,1392,743,0,0
175,281,0,0,0,0,0,0,0,0,0,-1,1399,743,0,0
182,281,0,0,0,0,0,0,0,0,0,-1,1406,743,0,0
189,281,0,0,0,0,0,0,0,0,0,-1,1413,743,0,0
196,281,0,0,0,0,0,0,0,0,0,-1,1420,743,0,0
203,281,0,0,0,0,0,0,0,0,0,-1,1427,743,0,0
210,281,0,0,0,0,0,0,0,0,0,-1,1434,743,0,0
217,281,0,0,0,0,0,0,0,0,0,-1,1441,743,0,0
224,281,0,0,0,0,0,0,0,0,0,-1,1448,743,0,0
231,281,0,0,0,0,0,0,0,0,0,-1,1455,743,0,0
238,281,0,0,0,0,0,0,0,0,0,-1,1462,743,0,0
245,281,0,0,0,0,0,0,0,0,0,-1,1469,743,0,0
252,281,0,0,0,0,0,0,0,0,0,-1,1476,743,0,0
259,281,0,0,0,0,0,0,0,0,0,-1,1483,743,0,0
266,281,0,0,0,0,0,0,0,0,0,-1,1490,743,0,0
273,281,0,0,0,0,0,0,0,0,0,-1,1497,743,0,0
280,281,0,0,0,0,0,0,0,0,0,-1,1504,743,0,0
287,281,0,0,0,0,0,0,0,0,0,-1,1511,743,0,0
294,281,0,0,0,0,0,0,0,0,0,-1,1518,743,0,0
301,281,0,0,0,0,0,0,0,0,0,-1,1525,743,0,0
308,281,0,0,0,0,0,0,0,0,0,-1,1532,743,0,0
315,281,0,0,0,0,0,0,0,0,0,-1,1539,743,0,0
322,281,0,0,0,0,0,0,0,0,0,-1,1546,743,0,0
329,281,0,0,0,0,0,0,0,0,0,-1,1553,743,0,0
336,281,0,0,0,0,0,0,0,0,0,-1,1560,743,0,0
343,281,0,0,0,0,0,0,0,0,0,-1,1567,743,0,0
350,281,0,0,0,0,0,0,0,0,0,-1,1574,743,0,0
357,281,0,0,0,0,0,0,0,0,0,-1,1581,743,0,0
364,281,0,0,0,0,0,0,0,0,0,-1,1588,743,0,0
371,281,0,0,0,0,0,0,0,0,0,-1,1595,743,0,0
378,281,0,0,0,0,0,0,0,0,0,-1,1602,743,0,0
385,281,0,0,0,0,0,0,0,0,0,-1,1609,743,0,0
392,281,0,0,0,0,0,0,0,0,0,-1,1616,743,0,0
399,281,0,0,0,0,0,0,0,0,0,-1,1623,743,0,0
406,281,0,0,0,0,0,0,0,0,0,-1,1630,743,0,0
413,281,0,0,0,0,0,0,0,0,0,-1,1637,743,0,0
420,281,0,0,0,0,0,0,0,0,0,-1,1644,743,0,0
427,281,0,0,0,0,0,0,0,0,0,-1,1651,743,0,0
434,281,0,0,0,0,0,0,0,0,0,-1,1658,743,0,0
441,281,0,0,0,0,0,0,0,0,0,-1,1665,743,0,0
448,281,0,0,0,0,0,0,0,0,0,-1,1672,743,0,0
455,281,0,0,0,0,0,0,0,0,0,-1,1679,743,0,0
462,281,0,0,0,0,0,0,0,0,0,-1,1686,743,0,0
469,281,0,0,0,0,0,0,0,0,0,-1,1693,743,0,0
476,281,0,0,0,0,0,0,0,0,0,-1,1700,743,0,0
483,281,0,0,0,0,0,0,0,0,0,-1,1707,743,0,0
490,281,0,0,0,0,0,0,0,0,0,-1,1714,743,0,0
497,281,0,0,0,0,0,0,0,0,0,-1,1721,743,0,0
504,281,0,0,0,0,0,0,0,0,0,-1,1728,743,0,0
511,281,0,0,0,0,0,0,0,0,0,-1,1735,743,0,0
518,281,0,0,0,0,0,0,0,0,0,-1,1742,743,0,0
525,281,0,0,0,0,0,0,0,0,0,-1,1749,743,0,0
532,281,0,0,0,0,0,0,0,0,0,-1,1756,743,0,0
539,281,0,0,0,0,0,0,0,0,0,-1,1763,743,0,0
546,281,0,0,0,0,0,0,0,0,0,-1,1770,743,0,0
553,281,0,0,0,0,0,0,0,0,0,-1,1777,743,0,0
560,281,57.8354,3.06482,0,0,0,0,0,0,0,-1,1784,743,57.8354,-3.06479
567,281,57.6156,3.64508,0,0,0,0,0,0,0,-1,1791,743,57.6156,-3.64511
574,281,57.3431,4.17767,0,0,0,0,0,0,0,-1,1798,743,57.3431,-4.17769
581,281,57.0648,4.53906,0,0,0,0,0,0,0,-1,1805,743,57.0648,-4.53908
588,281,53.5422,6.00092,0,0,0,0,0,0,0,-1,1812,743,53.5422,-6.00092
595,281,54.8569,3.32269,0,0,0,0,0,0,0,-1,1819,743,54.857,-3.32269
602,281,45.9985,3.98254,0,0,0,0,0,0,0,-1,1826,743,45.9985,-3.98254
609,281,32.7925,1.28723,0,0,0,0,0,0,0,-1,1833,743,32.7925,-1.28722
616,281,21.3191,-0.253906,0,0,0,0,0,0,0,-1,1840,743,21.3191,0.253931
623,281,31.8741,-4.74182,0,0,0,0,0,0,0,-1,1847,743,31.8741,4.74184
630,281,51.037,-9.11084,0,0,0,0,0,0,0,-1,1854,743,51.037,9.11081
637,281,51.0579,-8.32306,0.00366088,-0.000294029,0.000632529,0.00375958,-0.000392729,0.154793,0.00264702,0.0267636,1861,743,51.0579,8.32308
644,281,51.0793,-7.3446,0.0021351,-5.48704e-05,0.000456297,0.00222637,-0.000146139,0.197416,0.00153528,0.0117229,1868,743,51.0794,7.34461
651,281,51.0513,-6.3324,0.00103791,0.000288277,0.000245528,0.00111117,0.000215017,0.289964,0.000680524,0.012275,1875,743,51.0513,6.33237
658,281,50.9962,-5.33069,0.000852415,0.000474898,0.000226888,0.000958797,0.000368516,0.438439,0.000558475,0.021186,1882,743,50.9962,5.33069
665,281,50.8986,-4.37762,0.00092838,0.000823078,0.000344869,0.00122459,0.000526864,0.709649,0.00070931,0.0225671,1889,743,50.8985,4.37762
672,281,50.8243,-3.38629,0.00117245,0.00124819,0.000551627,0.00176325,0.000657396,0.819668,0.00102893,0.01529,1896,743,50.8243,3.38629
679,281,50.7659,-2.42029,0.00162054,0.00186858,0.000865755,0.00261915,0.000869967,0.85654,0.00154031,0.0233206,1903,743,50.7658,2.42031
686,281,50.6365,-1.46368,0.00214735,0.00251728,0.00120024,0.00354672,0.00111791,0.86185,0.00209381,0.0184766,1910,743,50.6365,1.46371
693,281,50.5884,-0.465393,0.00292002,0.00334189,0.00163614,0.00478064,0.00148128,0.849505,0.00282585,0.0139931,1917,743,50.5884,0.465384
700,281,50.5184,0.60083,0.0039399,0.0043518,0.00224589,0.00640116,0.00189053,0.831121,0.00379751,0.0488435,1924,743,50.5184,-0.600838
707,281,50.6205,1.65491,0,0,0,0,0,0,0,-1,1931,743,50.6205,-1.65493
714,281,25.0125,2.5105,0,0,0,0,0,0,0,-1,1938,743,25.0124,-2.51053
721,281,16.9656,3.22174,0,0,0,0,0,0,0,-1,1945,743,16.9656,-3.22172
728,281,19.0251,3.63934,0,0,0,0,0,0,0,-1,1952,743,19.0252,-3.63932
735,281,19.0869,2.50311,0,0,0,0,0,0,0,-1,1959,743,19.0869,-2.5031
742,281,0,0,0,0,0,0,0,0,0,-1,1966,743,0,0
749,281,0,0,0,0,0,0,0,0,0,-1,1973,743,0,0
756,281,0,0,0,0,0,0,0,0,0,-1,1980,743,0,0
763,281,0,0,0,0,0,0,0,0,0,-1,1987,743,0,0
770,281,0,0,0,0,0,0,0,0,0,-1,1994,743,0,0
777,281,0,0,0,0,0,0,0,0,0,-1,2001,743,0,0
784,281,0,0,0,0,0,0,0,0,0,-1,2008,743,0,0
791,281,0,0,0,0,0,0,0,0,0,-1,2015,743,0,0
798,281,0,0,0,0,0,0,0,0,0,-1,2022,743,0,0
805,281,0,0,0,0,0,0,0,0,0,-1,2029,743,0,0
812,281,0,0,0,0,0,0,0,0,0,-1,2036,743,0,0
-700,274,0,0,0,0,0,0,0,0,0,-1,524,750,0,0
-693,274,0,0,0,0,0,0,0,0,0,-1,531,750,0,0
-686,274,0,0,0,0,0,0,0,0,0,-1,538,750,0,0
-679,274,0,0,0,0,0,0,0,0,0,-1,545,750,0,0
-672,274,0,0,0,0,0,0,0,0,0,-1,552,750,0,0
-665,274,0,0,0,0,0,0,0,0,0,-1,559,750,0,0
-658,274,0,0,0,0,0,0,0,0,0,-1,566,750,0,0
-651,274,0,0,0,0,0,0,0,0,0,-1,573,750,0,0
-644,274,0,0,0,0,0,0,0,0,0,-1,580,750,0,0
-637,274,0,0,0,0,0,0,0,0,0,-1,587,750,0,0
-630,274,0,0,0,0,0,0,0,0,0,-1,594,750,0,0
-623,274,-19.6909,5.12701,0,0,0,0,0,0,0,-1,601,750,-19.6908,-5.12703
-616,274,-17.9133,3.9024,0,0,0,0,0,0,0,-1,608,750,-17.9133,-3.90239
-609,274,-26.0861,5.57306,0,0,0,0,0,0,0,-1,615,750,-26.0861,-5.57307
-602,274,-25.7372,3.73846,0,0,0,0,0,0,0,-1,622,750,-25.7372,-3.73849
-595,274,-25.258,2.53473,0,0,0,0,0,0,0,-1,629,750,-25.258,-2.53474
-588,274,-24.9805,2.2334,0,0,0,0,0,0,0,-1,636,750,-24.9805,-2.23341
-581,274,-34.7743,2.19598,0,0,0,0,0,0,0,-1,643,750,-34.7743,-2.19596
-574,274,-35.0275,0.724121,0,0,0,0,0,0,0,-1,650,750,-35.0274,-0.724098
-567,274,-35.098,-0.343201,0.00225384,6.44436e-05,-0.00531851,0.00658914,-0.00427086,-0.683901,0.00631746,0.030588,657,750,-35.098,0.34321
-560,274,-35.1725,-1.33044,0.00135902,0.000560767,-0.00302399,0.00401011,-0.00209032,-0.719784,0.00357975,0.0154537,664,750,-35.1725,1.33047
-553,274,-35.2513,-2.31116,0.000642008,0.000636406,-0.00149852,0.00213773,-0.000859312,-0.784464,0.00178204,0.0104629,671,750,-35.2513,2.31116
-546,274,-35.324,-3.28723,-4.56197e-05,0.00043047,-0.000423505,0.000678246,-0.000293395,-1.04143,0.000575458,0.0122134,678,750,-35.324,3.28723
-539,274,-35.3904,-4.28766,-0.000808412,0.000361436,0.000608928,0.000620864,-0.00106784,1.16805,0.000986292,0.0126967,685,750,-35.3904,4.28765
-532,274,-35.4626,-5.25616,-0.00148636,-0.000195635,0.00101697,0.00036346,-0.00204546,1.06813,0.00149955,0.0136699,692,750,-35.4626,5.25616
-525,274,-35.5414,-6.24738,-0.00199635,-0.000595146,0.00125126,0.000138295,-0.0027298,1.04061,0.00186767,0.0143443,699,750,-35.5414,6.24737
-518,274,-35.6141,-7.29999,-0.00312573,-0.000727137,0.00134673,-0.000123101,-0.00372976,1.14917,0.00244651,0.0148925,706,750,-35.6141,7.29998
-511,274,-35.6741,-8.33405,-0.00445416,-0.00141837,0.00116631,-0.00102204,-0.0048505,1.24322,0.00295255,0.0246518,713,750,-35.6741,8.33404
-504,274,-35.8285,-9.39569,-0.00568869,-0.00194137,0.00111641,-0.00163398,-0.00599608,1.30212,0.00357928,0.0448869,720,750,-35.8285,9.39567
-497,274,-36.0699,-10.4821,0,0,0,0,0,0,0,-1,727,750,-36.0699,10.4821
-490,274,-13.6545,-3.58826,0,0,0,0,0,0,0,-1,734,750,-13.6546,3.58825
-483,274,-27.8608,1.30981,0,0,0,0,0,0,0,-1,741,750,-27.8608,-1.30979
-476,274,-33.7561,-0.508606,0,0,0,0,0,0,0,-1,748,750,-33.7561,0.508636
-469,274,-41.1387,0.907715,0,0,0,0,0,0,0,-1,755,750,-41.1387,-0.907744
-462,274,-56.4362,0.240723,0,0,0,0,0,0,0,-1,762,750,-56.4362,-0.240732
-455,274,-63.8356,0.142822,0,0,0,0,0,0,0,-1,769,750,-63.8357,-0.142803
-448,274,-56.1052,0.421143,0,0,0,0,0,0,0,-1,776,750,-56.1052,-0.421134
-441,274,0,0,0,0,0,0,0,0,0,-1,783,750,0,0
-434,274,0,0,0,0,0,0,0,0,0,-1,790,750,0,0
-427,274,0,0,0,0,0,0,0,0,0,-1,797,750,0,0
-420,274,0,0,0,0,0,0,0,0,0,-1,804,750,0,0
-413,274,0,0,0,0,0,0,0,0,0,-1,811,750,0,0
-406,274,0,0,0,0,0,0,0,0,0,-1,818,750,0,0
-399,274,0,0,0,0,0,0,0,0,0,-1,825,750,0,0
-392,274,0,0,0,0,0,0,0,0,0,-1,832,750,0,0
-385,274,0,0,0,0,0,0,0,0,0,-1,839,750,0,0
-378,274,0,0,0,0,0,0,0,0,0,-1,846,750,0,0
-371,274,0,0,0,0,0,0,0,0,0,-1,853,750,0,0
-364,274,0,0,0,0,0,0,0,0,0,-1,860,750,0,0
-357,274,0,0,0,0,0,0,0,0,0,-1,867,750,0,0
-350,274,0,0,0,0,0,0,0,0,0,-1,874,750,0,0
-343,274,0,0,0,0,0,0,0,0,0,-1,881,750,0,0
-336,274,0,0,0,0,0,0,0,0,0,-1,888,750,0,0
-329,274,0,0,0,0,0,0,0,0,0,-1,895,750,0,0
-322,274,0,0,0,0,0,0,0,0,0,-1,902,750,0,0
-315,274,0,0,0,0,0,0,0,0,0,-1,909,750,0,0
-308,274,0,0,0,0,0,0,0,0,0,-1,916,750,0,0
-301,274,0,0,0,0,0,0,0,0,0,-1,923,750,0,0
-294,274,0,0,0,0,0,0,0,0,0,-1,930,750,0,0
-287,274,0,0,0,0,0,0,0,0,0,-1,937,750,0,0
-280,274,0,0,0,0,0,0,0,0,0,-1,944,750,0,0
-273,274,0,0,0,0,0,0,0,0,0,-1,951,750,0,0
-266,274,0,0,0,0,0,0,0,0,0,-1,958,750,0,0
-259,274,0,0,0,0,0,0,0,0,0,-1,965,750,0,0
-252,274,0,0,0,0,0,0,0,0,0,-1,972,750,0,0
-245,274,0,0,0,0,0,0,0,0,0,-1,979,750,0,0
-238,274,0,0,0,0,0,0,0,0,0,-1,986,750,0,0
-231,274,0,0,0,0,0,0,0,0,0,-1,993,750,0,0
-224,274,0,0,0,0,0,0,0,0,0,-1,1000,750,0,0
-217,274,0,0,0,0,0,0,0,0,0,-1,1007,750,0,0
-210,274,0,0,0,0,0,0,0,0,0,-1,1014,750,0,0
-203,274,0,0,0,0,0,0,0,0,0,-1,1021,750,0,0
-196,274,0,0,0,0,0,0,0,0,0,-1,1028,750,0,0
-189,274,0,0,0,0,0,0,0,0,0,-1,1035,750,0,0
-182,274,0,0,0,0,0,0,0,0,0,-1,1042,750,0,0
-175,274,0,0,0,0,0,0,0,0,0,-1,1049,750,0,0
-168,274,0,0,0,0,0,0,0,0,0,-1,1056,750,0,0
-161,274,0,0,0,0,0,0,0,0,0,-1,1063,750,0,0
-154,274,0,0,0,0,0,0,0,0,0,-1,1070,750,0,0
-147,274,0,0,0,0,0,0,0,0,0,-1,1077,750,0,0
-140,274,0,0,0,0,0,0,0,0,0,-1,1084,750,0,0
-133,274,0,0,0,0,0,0,0,0,0,-1,1091,750,0,0
-126,274,0,0,0,0,0,0,0,0,0,-1,1098,750,0,0
-119,274,0,0,0,0,0,0,0,0,0,-1,1105,750,0,0
-112,274,0,0,0,0,0,0,0,0,0,-1,1112,750,0,0
-105,274,0,0,0,0,0,0,0,0,0,-1,1119,750,0,0
-98,274,0,0,0,0,0,0,0,0,0,-1,1126,750,0,0
-91,274,0,0,0,0,0,0,0,0,0,-1,1133,750,0,0
-84,274,0,0,0,0,0,0,0,0,0,-1,1140,750,0,0
-77,274,0,0,0,0,0,0,0,0,0,-1,1147,750,0,0
-70,274,0,0,0,0,0,0,0,0,0,-1,1154,750,0,0
-63,274,0,0,0,0,0,0,0,0,0,-1,1161,750,0,0
-56,274,0,0,0,0,0,0,0,0,0,-1,1168,750,0,0
-49,274,0,0,0,0,0,0,0,0,0,-1,1175,750,0,0
-42,274,0,0,0,0,0,0,0,0,0,-1,1182,750,0,0
-35,274,0,0,0,0,0,0,0,0,0,-1,1189,750,0,0
-28,274,0,0,0,0,0,0,0,0,0,-1,1196,750,0,0
-21,274,0,0,0,0,0,0,0,0,0,-1,1203,750,0,0
-14,274,0,0,0,0,0,0,0,0,0,-1,1210,750,0,0
-7,274,0,0,0,0,0,0,0,0,0,-1,1217,750,0,0
0,274,0,0,0,0,0,0,0,0,0,-1,1224,750,0,0
7,274,0,0,0,0,0,0,0,0,0,-1,1231,750,0,0
14,274,0,0,0,0,0,0,0,0,0,-1,1238,750,0,0
21,274,0,0,0,0,0,0,0,0,0,-1,1245,750,0,0
28,274,0,0,0,0,0,0,0,0,0,-1,1252,750,0,0
35,274,0,0,0,0,0,0,0,0,0,-1,1259,750,0,0
42,274,0,0,0,0,0,0,0,0,0,-1,1266,750,0,0
49,274,0,0,0,0,0,0,0,0,0,-1,1273,750,0,0
56,274,0,0,0,0,0,0,0,0,0,-1,1280,750,0,0
63,274,0,0,0,0,0,0,0,0,0,-1,1287,750,0,0
70,274,0,0,0,0,0,0,0,0,0,-1,1294,750,0,0
77,274,0,0,0,0,0,0,0,0,0,-1,1301,750,0,0
84,274,0,0,0,0,0,0,0,0,0,-1,1308,750,0,0
91,274,0,0,0,0,0,0,0,0,0,-1,1315,750,0,0
98,274,0,0,0,0,0,0,0,0,0,-1,1322,750,0,0
105,274,0,0,0,0,0,0,0,0,0,-1,1329,750,0,0
112,274,0,0,0,0,0,0,0,0,0,-1,1336,750,0,0
119,274,0,0,0,0,0,0,0,0,0,-1,1343,750,0,0
126,274,0,0,0,0,0,0,0,0,0,-1,1350,750,0,0
133,274,0,0,0,0,0,0,0,0,0,-1,1357,750,0,0
140,274,0,0,0,0,0,0,0,0,0,-1,1364,750,0,0
147,274,0,0,0,0,0,0,0,0,0,-1,1371,750,0,0
154,274,0,0,0,0,0,0,0,0,0,-1,1378,750,0,0
161,274,0,0,0,0,0,0,0,0,0,-1,1385,750,0,0
168,274,0,0,0,0,0,0,0,0,0,-1,1392,750,0,0
175,274,0,0,0,0,0,0,0,0,0,-1,1399,750,0,0
182,274,0,0,0,0,0,0,0,0,0,-1,1406,750,0,0
189,274,0,0,0,0,0,0,0,0,0,-1,1413,750,0,0
196,274,0,0,0,0,0,0,0,0,0,-1,1420,750,0,0
203,274,0,0,0,0,0,0,0,0,0,-1,1427,750,0,0
210,274,0,0,0,0,0,0,0,0,0,-1,1434,750,0,0
217,274,0,0,0,0,0,0,0,0,0,-1,1441,750,0,0
224,274,0,0,0,0,0,0,0,0,0,-1,1448,750,0,0
231,274,0,0,0,0,0,0,0,0,0,-1,1455,750,0,0
238,274,0,0,0,0,0,0,0,0,0,-1,1462,750,0,0
245,274,0,0,0,0,0,0,0,0,0,-1,1469,750,0,0
252,274,0,0,0,0,0,0,0,0,0,-1,1476,750,0,0
259,274,0,0,0,0,0,0,0,0,0,-1,1483,750,0,0
266,274,0,0,0,0,0,0,0,0,0,-1,1490,750,0,0
273,274,0,0,0,0,0,0,0,0,0,-1,1497,750,0,0
280,274,0,0,0,0,0,0,0,0,0,-1,1504,750,0,0
287,274,0,0,0,0,0,0,0,0,0,-1,1511,750,0,0
294,274,0,0,0,0,0,0,0,0,0,-1,1518,750,0,0
301,274,0,0,0,0,0,0,0,0,0,-1,1525,750,0,0
308,274,0,0,0,0,0,0,0,0,0,-1,1532,750,0,0
315,274,0,0,0,0,0,0,0,0,0,-1,1539,750,0,0
322,274,0,0,0,0,0,0,0,0,0,-1,1546,750,0,0
329,274,0,0,0,0,0,0,0,0,0,-1,1553,750,0,0
336,274,0,0,0,0,0,0,0,0,0,-1,1560,750,0,0
343,274,0,0,0,0,0,0,0,0,0,-1,1567,750,0,0
350,274,0,0,0,0,0,0,0,0,0,-1,1574,750,0,0
357,274,0,0,0,0,0,0,0,0,0,-1,1581,750,0,0
364,274,0,0,0,0,0,0,0,0,0,-1,1588,750,0,0
371,274,0,0,0,0,0,0,0,0,0,-1,1595,750,0,0
378,274,0,0,0,0,0,0,0,0,0,-1,1602,750,0,0
385,274,0,0,0,0,0,0,0,0,0,-1,1609,750,0,0
392,274,0,0,0,0,0,0,0,0,0,-1,1616,750,0,0
399,274,0,0,0,0,0,0,0,0,0,-1,1623,750,0,0
406,274,0,0,0,0,0,0,0,0,0,-1,1630,750,0,0
413,274,0,0,0,0,0,0,0,0,0,-1,1637,750,0,0
420,274,0,0,0,0,0,0,0,0,0,-1,1644,750,0,0
427,274,0,0,0,0,0,0,0,0,0,-1,1651,750,0,0
434,274,0,0,0,0,0,0,0,0,0,-1,1658,750,0,0
441,274,0,0,0,0,0,0,0,0,0,-1,1665,750,0,0
448,274,0,0,0,0,0,0,0,0,0,-1,1672,750,0,0
455,274,0,0,0,0,0,0,0,0,0,-1,1679,750,0,0
462,274,0,0,0,0,0,0,0,0,0,-1,1686,750,0,0
469,274,0,0,0,0,0,0,0,0,0,-1,1693,750,0,0
476,274,0,0,0,0,0,0,0,0,0,-1,1700,750,0,0
483,274,0,0,0,0,0,0,0,0,0,-1,1707,750,0,0
490,274,0,0,0,0,0,0,0,0,0,-1,1714,750,0,0
497,274,0,0,0,0,0,0,0,0,0,-1,1721,750,0,0
504,274,0,0,0,0,0,0,0,0,0,-1,1728,750,0,0
511,274,0,0,0,0,0,0,0,0,0,-1,1735,750,0,0
518,274,0,0,0,0,0,0,0,0,0,-1,1742,750,0,0
525,274,0,0,0,0,0,0,0,0,0,-1,1749,750,0,0
532,274,0,0,0,0,0,0,0,0,0,-1,1756,750,0,0
539,274,0,0,0,0,0,0,0,0,0,-1,1763,750,0,0
546,274,0,0,0,0,0,0,0,0,0,-1,1770,750,0,0
553,274,0,0,0,0,0,0,0,0,0,-1,1777,750,0,0
560,274,57.9182,3.24518,0,0,0,0,0,0,0,-1,1784,750,57.9182,-3.24516
567,274,57.8315,3.4137,0,0,0,0,0,0,0,-1,1791,750,57.8315,-3.41368
574,274,58.2571,3.11115,0,0,0,0,0,0,0,-1,1798,750,58.2571,-3.11114
581,274,54.4941,4.68127,0,0,0,0,0,0,0,-1,1805,750,54.4941,-4.68125
588,274,53.9908,5.6676,0,0,0,0,0,0,0,-1,1812,750,53.9908,-5.66763
595,274,66.2316,2.66986,0,0,0,0,0,0,0,-1,1819,750,66.2315,-2.66988
602,274,55.6321,2.56519,0,0,0,0,0,0,0,-1,1826,750,55.6321,-2.56521
609,274,44.6676,3.10461,0,0,0,0,0,0,0,-1,1833,750,44.6676,-3.1046
616,274,32.7869,1.78436,0,0,0,0,0,0,0,-1,1840,750,32.7868,-1.78437
623,274,24.8231,-1.80353,0,0,0,0,0,0,0,-1,1847,750,24.8232,1.80351
630,274,52.2107,-9.27771,0,0,0,0,0,0,0,-1,1854,750,52.2107,9.27771
637,274,52.0068,-8.36237,0.00376048,-0.000173726,0.000530553,0.00383077,-0.000244019,0.131722,0.00263895,0.0350085,1861,750,52.0068,8.36234
644,274,52.0216,-7.28729,0.00222737,1.11896e-06,0.000466352,0.00232112,-9.26243e-05,0.19837,0.00157919,0.0172279,1868,750,52.0216,7.28731
651,274,51.9995,-6.25531,0.000838628,0.00028867,0.000183257,0.000894098,0.0002332,0.293923,0.000535533,0.0146752,1875,750,51.9995,6.25528
658,274,51.942,-5.28369,0.000504598,0.000328983,4.08081e-05,0.000513617,0.000319963,0.217524,0.000299511,0.0171885,1882,750,51.942,5.28368
665,274,51.866,-4.32239,0.000540986,0.000560304,7.83469e-05,0.000629585,0.000471705,0.846731,0.000378244,0.0170779,1889,750,51.866,4.3224
672,274,51.7949,-3.34015,0.000703722,0.000915201,0.000194096,0.00103049,0.000588432,1.03481,0.000596951,0.0147514,1896,750,51.7949,3.34015
679,274,51.722,-2.32898,0.00101957,0.00144329,0.000407962,0.00169112,0.000771736,1.02489,0.000977608,0.01681,1903,750,51.7221,2.32899
686,274,51.649,-1.34204,0.00139445,0.00201445,0.000626678,0.00240361,0.00100529,1.01509,0.00139389,0.0189758,1910,750,51.649,1.34202
693,274,51.5715,-0.368896,0.0019155,0.00266707,0.000885174,0.00325292,0.00132965,0.986135,0.00188847,0.013926,1917,750,51.5715,0.368894
700,274,51.5231,0.643127,0.00260538,0.00345182,0.00124478,0.00434335,0.00171384,0.949266,0.00252614,0.0210426,1924,750,51.523,-0.643121
707,274,51.4883,1.66425,0,0,0,0,0,0,0,-1,1931,750,51.4883,-1.66424
714,274,49.125,2.56622,0,0,0,0,0,0,0,-1,1938,750,49.1251,-2.5662
721,274,25.6215,3.91144,0,0,0,0,0,0,0,-1,1945,750,25.6214,-3.91141
728,274,19.2209,3.95154,0,0,0,0,0,0,0,-1,1952,750,19.221,-3.95151
735,274,20.6608,4.10931,0,0,0,0,0,0,0,-1,1959,750,20.6607,-4.10932
742,274,11.7815,-0.740234,0,0,0,0,0,0,0,-1,1966,750,11.7815,0.740253
749,274,0,0,0,0,0,0,0,0,0,-1,1973,750,0,0
756,274,0,0,0,0,0,0,0,0,0,-1,1980,750,0,0
763,274,0,0,0,0,0,0,0,0,0,-1,1987,750,0,0
770,274,0,0,0,0,0,0,0,0,0,-1,1994,750,0,0
777,274,0,0,0,0,0,0,0,0,0,-1,2001,750,0,0
784,274,0,0,0,0,0,0,0,0,0,-1,2008,750,0,0
791,274,0,0,0,0,0,0,0,0,0,-1,2015,750,0,0
798,274,0,0,0,0,0,0,0,0,0,-1,2022,750,0,0
805,274,0,0,0,0,0,0,0,0,0,-1,2029,750,0,0
812,274,0,0,0,0,0,0,0,0,0,-1,2036,750,0,0
-700,267,0,0,0,0,0,0,0,0,0,-1,524,757,0,0
-693,267,0,0,0,0,0,0,0,0,0,-1,531,757,0,0
-686,267,0,0,0,0,0,0,0,0,0,-1,538,757,0,0
-679,267,0,0,0,0,0,0,0,0,0,-1,545,757,0,0
-672,267,0,0,0,0,0,0,0,0,0,-1,552,757,0,0
-665,267,0,0,0,0,0,0,0,0,0,-1,559,757,0,0
-658,267,0,0,0,0,0,0,0,0,0,-1,566,757,0,0
-651,267,0,0,0,0,0,0,0,0,0,-1,573,757,0,0
-644,267,0,0,0,0,0,0,0,0,0,-1,580,757,0,0
-637,267,0,0,0,0,0,0,0,0,0,-1,587,757,0,0
-630,267,-21.3979,5.17529,0,0,0,0,0,0,0,-1,594,757,-21.3979,-5.17529
-623,267,-20.043,4.43115,0,0,0,0,0,0,0,-1,601,757,-20.043,-4.43116
-616,267,-27.1628,5.9325,0,0,0,0,0,0,0,-1,608,757,-27.1629,-5.93249
-609,267,-26.9868,4.99658,0,0,0,0,0,0,0,-1,615,757,-26.9868,-4.99656
-602,267,-26.6637,3.74072,0,0,0,0,0,0,0,-1,622,757,-26.6637,-3.74075
-595,267,-32.7299,2.1203,0,0,0,0,0,0,0,-1,629,757,-32.7299,-2.12028
-588,267,-35.7354,3.18311,0,0,0,0,0,0,0,-1,636,757,-35.7354,-3.1831
-581,267,-35.8011,1.93823,0.00389586,-0.00493472,-0.0132456,0.0134427,-0.0144815,-0.62452,0.0161258,0.0476224,643,757,-35.8011,-1.93824
-574,267,-35.8781,0.751404,0.00279896,-0.00214916,-0.00849081,0.00916881,-0.00851902,-0.643633,0.0102144,0.0284728,650,757,-35.8781,-0.751402
-567,267,-36.0647,-0.185913,0.00189914,-0.000692239,-0.00505229,0.00581924,-0.00461234,-0.659875,0.0060361,0.0317758,657,757,-36.0647,0.185899
-560,267,-36.1698,-1.18683,0.000975385,6.99227e-05,-0.00273577,0.00329563,-0.00225032,-0.703398,0.00322086,0.0237763,664,757,-36.1698,1.18685
-553,267,-36.2358,-2.21222,0.000159203,0.000416983,-0.00114137,0.00143672,-0.000860534,-0.841623,0.00134015,0.0190966,671,757,-36.2359,2.21222
-546,267,-36.3257,-3.21826,-0.000615334,0.000406824,-9.63612e-06,0.000406915,-0.000615425,-1.56137,0.000594326,0.0125795,678,757,-36.3257,3.21823
-539,267,-36.3616,-4.22998,-0.00147144,0.000407457,0.000995578,0.000836855,-0.00190084,1.1636,0.00161991,0.0123912,685,757,-36.3616,4.23
-532,267,-36.3931,-5.22058,-0.0021523,-4.96939e-05,0.0013162,0.000583526,-0.00278552,1.12238,0.002079,0.0137204,692,757,-36.3931,5.22061
-525,267,-36.5095,-6.1864,-0.00250357,-0.000336903,0.00149184,0.000423452,-0.00326393,1.09944,0.00232996,0.0131592,699,757,-36.5094,6.18638
-518,267,-36.6182,-7.21979,-0.00364105,-0.000418266,0.00151419,0.000181529,-0.00424084,1.19364,0.00288964,0.0183092,706,757,-36.6182,7.21982
-511,267,-36.6111,-8.26154,-0.00488807,-0.00119612,0.00121223,-0.000833675,-0.00525051,1.28026,0.0032582,0.0406384,713,757,-36.6111,8.26152
-504,267,-36.7983,-9.34583,0,0,0,0,0,0,0,-1,720,757,-36.7983,9.34583
-497,267,-31.5913,-8.72119,0,0,0,0,0,0,0,-1,727,757,-31.5913,8.72117
-490,267,-23.4949,-0.494995,0,0,0,0,0,0,0,-1,734,757,-23.4949,0.494981
-483,267,-33.2785,-0.448425,0,0,0,0,0,0,0,-1,741,757,-33.2785,0.448407
-476,267,-40.2954,0.52002,0,0,0,0,0,0,0,-1,748,757,-40.2954,-0.520037
-469,267,-52.9857,0.187744,0,0,0,0,0,0,0,-1,755,757,-52.9857,-0.187726
-462,267,-63.904,0.201599,0,0,0,0,0,0,0,-1,762,757,-63.904,-0.201591
-455,267,-63.6348,0.206177,0,0,0,0,0,0,0,-1,769,757,-63.6348,-0.206181
-448,267,-63.1012,0.806885,0,0,0,0,0,0,0,-1,776,757,-63.1012,-0.806906
-441,267,0,0,0,0,0,0,0,0,0,-1,783,757,0,0
-434,267,0,0,0,0,0,0,0,0,0,-1,790,757,0,0
-427,267,0,0,0,0,0,0,0,0,0,-1,797,757,0,0
-420,267,0,0,0,0,0,0,0,0,0,-1,804,757,0,0
-413,267,0,0,0,0,0,0,0,0,0,-1,811,757,0,0
-406,267,0,0,0,0,0,0,0,0,0,-1,818,757,0,0
-399,267,0,0,0,0,0,0,0,0,0,-1,825,757,0,0
-392,267,0,0,0,0,0,0,0,0,0,-1,832,757,0,0
-385,267,0,0,0,0,0,0,0,0,0,-1,839,757,0,0
-378,267,0,0,0,0,0,0,0,0,0,-1,846,757,0,0
-371,267,0,0,0,0,0,0,0,0,0,-1,853,757,0,0
-364,267,0,0,0,0,0,0,0,0,0,-1,860,757,0,0
-357,267,0,0,0,0,0,0,0,0,0,-1,867,757,0,0
-350,267,0,0,0,0,0,0,0,0,0,-1,874,757,0,0
-343,267,0,0,0,0,0,0,0,0,0,-1,881,757,0,0
-336,267,0,0,0,0,0,0,0,0,0,-1,888,757,0,0
-329,267,0,0,0,0,0,0,0,0,0,-1,895,757,0,0
-322,267,0,0,0,0,0,0,0,0,0,-1,902,757,0,0
-315,267,0,0,0,0,0,0,0,0,0,-1,909,757,0,0
-308,267,0,0,0,0,0,0,0,0,0,-1,916,757,0,0
-301,267,0,0,0,0,0,0,0,0,0,-1,923,757,0,0
-294,267,0,0,0,0,0,0,0,0,0,-1,930,757,0,0
-287,267,0,0,0,0,0,0,0,0,0,-1,937,757,0,0
-280,267,0,0,0,0,0,0,0,0,0,-1,944,757,0,0
-273,267,0,0,0,0,0,0,0,0,0,-1,951,757,0,0
-266,267,0,0,0,0,0,0,0,0,0,-1,958,757,0,0
-259,267,0,0,0,0,0,0,0,0,0,-1,965,757,0,0
-252,267,0,0,0,0,0,0,0,0,0,-1,972,757,0,0
-245,267,0,0,0,0,0,0,0,0,0,-1,979,757,0,0
-238,267,0,0,0,0,0,0,0,0,0,-1,986,757,0,0
-231,267,0,0,0,0,0,0,0,0,0,-1,993,757,0,0
-224,267,0,0,0,0,0,0,0,0,0,-1,1000,757,0,0
-217,267,0,0,0,0,0,0,0,0,0,-1,1007,757,0,0
-210,267,0,0,0,0,0,0,0,0,0,-1,1014,757,0,0
-203,267,0,0,0,0,0,0,0,0,0,-1,1021,757,0,0
-196,267,0,0,0,0,0,0,0,0,0,-1,1028,757,0,0
-189,267,0,0,0,0,0,0,0,0,0,-1,1035,757,0,0
-182,267,0,0,0,0,0,0,0,0,0,-1,1042,757,0,0
-175,267,0,0,0,0,0,0,0,0,0,-1,1049,757,0,0
-168,267,0,0,0,0,0,0,0,0,0,-1,1056,757,0,0
-161,267,0,0,0,0,0,0,0,0,0,-1,1063,757,0,0
-154,267,0,0,0,0,0,0,0,0,0,-1,1070,757,0,0
-147,267,0,0,0,0,0,0,0,0,0,-1,1077,757,0,0
-140,267,0,0,0,0,0,0,0,0,0,-1,1084,757,0,0
-133,267,0,0,0,0,0,0,0,0,0,-1,1091,757,0,0
-126,267,0,0,0,0,0,0,0,0,0,-1,1098,757,0,0
-119,267,0,0,0,0,0,0,0,0,0,-1,1105,757,0,0
-112,267,0,0,0,0,0,0,0,0,0,-1,1112,757,0,0
-105,267,0,0,0,0,0,0,0,0,0,-1,1119,757,0,0
-98,267,0,0,0,0,0,0,0,0,0,-1,1126,757,0,0
-91,267,0,0,0,0,0,0,0,0,0,-1,1133,757,0,0
-84,267,0,0,0,0,0,0,0,0,0,-1,1140,757,0,0
-77,267,0,0,0,0,0,0,0,0,0,-1,1147,757,0,0
-70,267,0,0,0,0,0,0,0,0,0,-1,1154,757,0,0
-63,267,0,0,0,0,0,0,0,0,0,-1,1161,757,0,0
-56,267,0,0,0,0,0,0,0,0,0,-1,1168,757,0,0
-49,267,0,0,0,0,0,0,0,0,0,-1,1175,757,0,0
-42,267,0,0,0,0,0,0,0,0,0,-1,1182,757,0,0
-35,267,0,0,0,0,0,0,0,0,0,-1,1189,757,0,0
-28,267,0,0,0,0,0,0,0,0,0,-1,1196,757,0,0
-21,267,0,0,0,0,0,0,0,0,0,-1,1203,757,0,0
-14,267,0,0,0,0,0,0,0,0,0,-1,1210,757,0,0
-7,267,0,0,0,0,0,0,0,0,0,-1,1217,757,0,0
0,267,0,0,0,0,0,0,0,0,0,-1,1224,757,0,0
7,267,0,0,0,0,0,0,0,0,0,-1,1231,757,0,0
14,267,0,0,0,0,0,0,0,0,0,-1,1238,757,0,0
21,267,0,0,0,0,0,0,0,0,0,-1,1245,757,0,0
28,267,0,0,0,0,0,0,0,0,0,-1,1252,757,0,0
35,267,0,0,0,0,0,0,0,0,0,-1,1259,757,0,0
42,267,0,0,0,0,0,0,0,0,0,-1,1266,757,0,0
49,267,0,0,0,0,0,0,0,0,0,-1,1273,757,0,0
56,267,0,0,0,0,0,0,0,0,0,-1,1280,757,0,0
63,267,0,0,0,0,0,0,0,0,0,-1,1287,757,0,0
70,267,0,0,0,0,0,0,0,0,0,-1,1294,757,0,0
77,267,0,0,0,0,0,0,0,0,0,-1,1301,757,0,0
84,267,0,0,0,0,0,0,0,0,0,-1,1308,757,0,0
91,267,0,0,0,0,0,0,0,0,0,-1,1315,757,0,0
98,267,0,0,0,0,0,0,0,0,0,-1,1322,757,0,0
105,267,0,0,0,0,0,0,0,0,0,-1,1329,757,0,0
112,267,0,0,0,0,0,0,0,0,0,-1,1336,757,0,0
119,267,0,0,0,0,0,0,0,0,0,-1,1343,757,0,0
126,267,0,0,0,0,0,0,0,0,0,-1,1350,757,0,0
133,267,0,0,0,0,0,0,0,0,0,-1,1357,757,0,0
140,267,0,0,0,0,0,0,0,0,0,-1,1364,757,0,0
147,267,0,0,0,0,0,0,0,0,0,-1,1371,757,0,0
154,267,0,0,0,0,0,0,0,0,0,-1,1378,757,0,0
161,267,0,0,0,0,0,0,0,0,0,-1,1385,757,0,0
168,267,0,0,0,0,0,0,0,0,0,-1,1392,757,0,0
175,267,0,0,0,0,0,0,0,0,0,-1,1399,757,0,0
182,267,0,0,0,0,0,0,0,0,0,-1,1406,757,0,0
189,267,0,0,0,0,0,0,0,0,0,-1,1413,757,0,0
196,267,0,0,0,0,0,0,0,0,0,-1,1420,757,0,0
203,267,0,0,0,0,0,0,0,0,0,-1,1427,757,0,0
210,267,0,0,0,0,0,0,0,0,0,-1,1434,757,0,0
217,267,0,0,0,0,0,0,0,0,0,-1,1441,757,0,0
224,267,0,0,0,0,0,0,0,0,0,-1,1448,757,0,0
231,267,0,0,0,0,0,0,0,0,0,-1,1455,757,0,0
238,267,0,0,0,0,0,0,0,0,0,-1,1462,757,0,0
245,267,0,0,0,0,0,0,0,0,0,-1,1469,757,0,0
252,267,0,0,0,0,0,0,0,0,0,-1,1476,757,0,0
259,267,0,0,0,0,0,0,0,0,0,-1,1483,757,0,0
266,267,0,0,0,0,0,0,0,0,0,-1,1490,757,0,0
273,267,0,0,0,0,0,0,0,0,0,-1,1497,757,0,0
280,267,0,0,0,0,0,0,0,0,0,-1,1504,757,0,0
287,267,0,0,0,0,0,0,0,0,0,-1,1511,757,0,0
294,267,0,0,0,0,0,0,0,0,0,-1,1518,757,0,0
301,267,0,0,0,0,0,0,0,0,0,-1,1525,757,0,0
308,267,0,0,0,0,0,0,0,0,0,-1,1532,757,0,0
315,267,0,0,0,0,0,0,0,0,0,-1,1539,757,0,0
322,267,0,0,0,0,0,0,0,0,0,-1,1546,757,0,0
329,267,0,0,0,0,0,0,0,0,0,-1,1553,757,0,0
336,267,0,0,0,0,0,0,0,0,0,-1,1560,757,0,0
343,267,0,0,0,0,0,0,0,0,0,-1,1567,757,0,0
350,267,0,0,0,0,0,0,0,0,0,-1,1574,757,0,0
357,267,0,0,0,0,0,0,0,0,0,-1,1581,757,0,0
364,267,0,0,0,0,0,0,0,0,0,-1,1588,757,0,0
371,267,0,0,0,0,0,0,0,0,0,-1,1595,757,0,0
378,267,0,0,0,0,0,0,0,0,0,-1,1602,757,0,0
385,267,0,0,0,0,0,0,0,0,0,-1,1609,757,0,0
392,267,0,0,0,0,0,0,0,0,0,-1,1616,757,0,0
399,267,0,0,0,0,0,0,0,0,0,-1,1623,757,0,0
406,267,0,0,0,0,0,0,0,0,0,-1,1630,757,0,0
413,267,0,0,0,0,0,0,0,0,0,-1,1637,757,0,0
420,267,0,0,0,0,0,0,0,0,0,-1,1644,757,0,0
427,267,0,0,0,0,0,0,0,0,0,-1,1651,757,0,0
434,267,0,0,0,0,0,0,0,0,0,-1,1658,757,0,0
441,267,0,0,0,0,0,0,0,0,0,-1,1665,757,0,0
448,267,0,0,0,0,0,0,0,0,0,-1,1672,757,0,0
455,267,0,0,0,0,0,0,0,0,0,-1,1679,757,0,0
462,267,0,0,0,0,0,0,0,0,0,-1,1686,757,0,0
469,267,0,0,0,0,0,0,0,0,0,-1,1693,757,0,0
476,267,0,0,0,0,0,0,0,0,0,-1,1700,757,0,0
483,267,0,0,0,0,0,0,0,0,0,-1,1707,757,0,0
490,267,0,0,0,0,0,0,0,0,0,-1,1714,757,0,0
497,267,0,0,0,0,0,0,0,0,0,-1,1721,757,0,0
504,267,0,0,0,0,0,0,0,0,0,-1,1728,757,0,0
511,267,0,0,0,0,0,0,0,0,0,-1,1735,757,0,0
518,267,0,0,0,0,0,0,0,0,0,-1,1742,757,0,0
525,267,0,0,0,0,0,0,0,0,0,-1,1749,757,0,0
532,267,0,0,0,0,0,0,0,0,0,-1,1756,757,0,0
539,267,0,0,0,0,0,0,0,0,0,-1,1763,757,0,0
546,267,0,0,0,0,0,0,0,0,0,-1,1770,757,0,0
553,267,0,0,0,0,0,0,0,0,0,-1,1777,757,0,0
560,267,0,0,0,0,0,0,0,0,0,-1,1784,757,0,0
567,267,58.0104,3.24304,0,0,0,0,0,0,0,-1,1791,757,58.0104,-3.24306
574,267,64.5414,2.91858,0,0,0,0,0,0,0,-1,1798,757,64.5414,-2.91855
581,267,58.374,2.95636,0,0,0,0,0,0,0,-1,1805,757,58.3741,-2.95639
588,267,65.9681,2.6438,0,0,0,0,0,0,0,-1,1812,757,65.9682,-2.64382
595,267,66.191,2.60791,0,0,0,0,0,0,0,-1,1819,757,66.191,-2.60792
602,267,66.4139,2.57202,0,0,0,0,0,0,0,-1,1826,757,66.4139,-2.57203
609,267,54.5498,3.24054,0,0,0,0,0,0,0,-1,1833,757,54.5498,-3.24052
616,267,44.2543,3.28918,0,0,0,0,0,0,0,-1,1840,757,44.2542,-3.28918
623,267,24.1475,-1.1391,0,0,0,0,0,0,0,-1,1847,757,24.1475,1.13913
630,267,40.7198,-5.42108,0,0,0,0,0,0,0,-1,1854,757,40.7198,5.4211
637,267,52.8785,-8.14142,0,0,0,0,0,0,0,-1,1861,757,52.8785,8.14143
644,267,52.9875,-7.30127,0.00200937,0.00012376,0.000397838,0.00208987,4.32587e-05,0.199652,0.00137905,0.0281304,1868,757,52.9876,7.30127
651,267,52.9319,-6.1665,0.000514887,0.000358653,0.000142638,0.000599399,0.000274142,0.534877,0.000346482,0.020037,1875,757,52.9319,6.16648
658,267,52.9043,-5.23462,0.000104164,0.000249234,-0.00010615,0.000305265,4.81333e-05,-1.08512,0.000189514,0.0162704,1882,757,52.9043,5.23461
665,267,52.8329,-4.26318,0.000204907,0.000337695,-0.000153167,0.000438239,0.000104363,-0.989913,0.00026433,0.0159008,1889,757,52.8329,4.26317
672,267,52.7932,-3.27991,0.000378994,0.000607759,-0.000114622,0.000655307,0.000331446,-1.17757,0.00037835,0.0142283,1896,757,52.7932,3.2799
679,267,52.7375,-2.27374,0.00062174,0.00103243,1.56237e-05,0.00103303,0.000621146,1.53283,0.000600484,0.0134778,1903,757,52.7376,2.27373
686,267,52.6659,-1.26978,0.000907996,0.00152016,0.000144172,0.00155242,0.000875741,1.3507,0.00089874,0.0183845,1910,757,52.6659,1.26977
693,267,52.5448,-0.328796,0.00127218,0.00202078,0.000273313,0.00210994,0.00118301,1.25544,0.00122116,0.018275,1917,757,52.5448,0.328778
700,267,52.4857,0.669922,0.00176332,0.00261625,0.000455633,0.00281386,0.00156571,1.16157,0.00162803,0.0161382,1924,757,52.4857,-0.669928
707,267,52.4636,1.64594,0.00213313,0.003246,0.000449804,0.00340507,0.00197406,1.23088,0.00197423,0.027117,1931,757,52.4636,-1.64596
714,267,52.4552,2.72443,0,0,0,0,0,0,0,-1,1938,757,52.4552,-2.72444
721,267,47.0829,3.73804,0,0,0,0,0,0,0,-1,1945,757,47.0828,-3.73803
728,267,26.7886,3.90027,0,0,0,0,0,0,0,-1,1952,757,26.7886,-3.90028
735,267,24.6713,2.82483,0,0,0,0,0,0,0,-1,1959,757,24.6713,-2.82483
742,267,18.1177,3.56561,0,0,0,0,0,0,0,-1,1966,757,18.1176,-3.56564
749,267,0,0,0,0,0,0,0,0,0,-1,1973,757,0,0
756,267,0,0,0,0,0,0,0,0,0,-1,1980,757,0,0
763,267,0,0,0,0,0,0,0,0,0,-1,1987,757,0,0
770,267,0,0,0,0,0,0,0,0,0,-1,1994,757,0,0
777,267,0,0,0,0,0,0,0,0,0,-1,2001,757,0,0
784,267,0,0,0,0,0,0,0,0,0,-1,2008,757,0,0
791,267,0,0,0,0,0,0,0,0,0,-1,2015,757,0,0
798,267,0,0,0,0,0,0,0,0,0,-1,2022,757,0,0
805,267,0,0,0,0,0,0,0,0,0,-1,2029,757,0,0
812,267,0,0,0,0,0,0,0,0,0,-1,2036,757,0,0
-700,260,0,0,0,0,0,0,0,0,0,-1,524,764,0,0
-693,260,0,0,0,0,0,0,0,0,0,-1,531,764,0,0
-686,260,0,0,0,0,0,0,0,0,0,-1,538,764,0,0
-679,260,0,0,0,0,0,0,0,0,0,-1,545,764,0,0
-672,260,0,0,0,0,0,0,0,0,0,-1,552,764,0,0
-665,260,0,0,0,0,0,0,0,0,0,-1,559,764,0,0
-658,260,0,0,0,0,0,0,0,0,0,-1,566,764,0,0
-651,260,0,0,0,0,0,0,0,0,0,-1,573,764,0,0
-644,260,0,0,0,0,0,0,0,0,0,-1,580,764,0,0
-637,260,0,0,0,0,0,0,0,0,0,-1,587,764,0,0
-630,260,-21.8905,4.49341,0,0,0,0,0,0,0,-1,594,764,-21.8905,-4.49342
-623,260,-20.3127,3.53546,0,0,0,0,0,0,0,-1,601,764,-20.3127,-3.53544
-616,260,-23.4346,3.65009,0,0,0,0,0,0,0,-1,608,764,-23.4345,-3.65008
-609,260,-27.8874,4.42004,0,0,0,0,0,0,0,-1,615,764,-27.8874,-4.42005
-602,260,-32.8671,3.61243,0,0,0,0,0,0,0,-1,622,764,-32.867,-3.61241
-595,260,-37.5931,3.72101,0,0,0,0,0,0,0,-1,629,764,-37.5932,-3.72104
-588,260,-37.3857,2.74713,0,0,0,0,0,0,0,-1,636,764,-37.3857,-2.74714
-581,260,-36.9988,1.71191,0.00313242,-0.00484046,-0.0124388,0.0122079,-0.013916,-0.630327,0.0150934,0.032826,643,764,-36.9988,-1.7119
-574,260,-37.0181,0.79187,0.00220325,-0.00231705,-0.00801982,0.00827531,-0.00838912,-0.64805,0.00962129,0.0222849,650,764,-37.0181,-0.791899
-567,260,-37.0764,-0.106079,0.00135792,-0.000887131,-0.00470595,0.00507337,-0.00460258,-0.668319,0.00558862,0.0192653,657,764,-37.0763,0.1061
-560,260,-37.1765,-1.1123,0.000497722,-8.90199e-05,-0.00236062,0.00258313,-0.00217443,-0.723577,0.00275015,0.0218656,664,764,-37.1765,1.11228
-553,260,-37.2602,-2.13153,-0.000317454,0.000342055,-0.000679561,0.000767643,-0.000743042,-1.01129,0.000872233,0.0194374,671,764,-37.2602,2.13155
-546,260,-37.309,-3.16571,-0.00111996,0.000411749,0.000560584,0.000594993,-0.0013032,1.25486,0.00112106,0.0131265,678,764,-37.309,3.16573
-539,260,-37.3323,-4.14166,-0.00198648,0.000382201,0.00152437,0.00112824,-0.00273252,1.11566,0.00229226,0.0144672,685,764,-37.3324,4.14164
-532,260,-37.3618,-5.07727,-0.00255551,6.60136e-05,0.0017779,0.000964102,-0.0034536,1.10304,0.00268216,0.0193103,692,764,-37.3618,5.07729
-525,260,-37.4849,-6.02887,-0.00270289,-6.29547e-05,0.00193063,0.000955802,-0.00372165,1.08525,0.00285357,0.0220263,699,764,-37.4848,6.02884
-518,260,-37.7687,-7.06311,-0.00381865,-2.02645e-05,0.0019016,0.000768108,-0.00460702,1.17778,0.0033568,0.0323073,706,764,-37.7687,7.06308
-511,260,-37.5778,-8.1261,0,0,0,0,0,0,0,-1,713,764,-37.5778,8.12612
-504,260,-34.7117,-8.67163,0,0,0,0,0,0,0,-1,720,764,-34.7117,8.6716
-497,260,-16.6542,-3.67334,0,0,0,0,0,0,0,-1,727,764,-16.6542,3.67331
-490,260,-29.4557,0.921387,0,0,0,0,0,0,0,-1,734,764,-29.4557,-0.921369
-483,260,-40.8972,1.04193,0,0,0,0,0,0,0,-1,741,764,-40.8972,-1.04193
-476,260,-53.8282,0.00378418,0,0,0,0,0,0,0,-1,748,764,-53.8283,-0.00378825
-469,260,-63.319,0.776917,0,0,0,0,0,0,0,-1,755,764,-63.3189,-0.776896
-462,260,-63.8895,0.271729,0,0,0,0,0,0,0,-1,762,764,-63.8895,-0.27174
-455,260,-63.7832,0.474731,0,0,0,0,0,0,0,-1,769,764,-63.7832,-0.474708
-448,260,0,0,0,0,0,0,0,0,0,-1,776,764,0,0
-441,260,0,0,0,0,0,0,0,0,0,-1,783,764,0,0
-434,260,0,0,0,0,0,0,0,0,0,-1,790,764,0,0
-427,260,0,0,0,0,0,0,0,0,0,-1,797,764,0,0
-420,260,0,0,0,0,0,0,0,0,0,-1,804,764,0,0
-413,260,0,0,0,0,0,0,0,0,0,-1,811,764,0,0
-406,260,0,0,0,0,0,0,0,0,0,-1,818,764,0,0
-399,260,0,0,0,0,0,0,0,0,0,-1,825,764,0,0
-392,260,0,0,0,0,0,0,0,0,0,-1,832,764,0,0
-385,260,0,0,0,0,0,0,0,0,0,-1,839,764,0,0
-378,260,0,0,0,0,0,0,0,0,0,-1,846,764,0,0
-371,260,0,0,0,0,0,0,0,0,0,-1,853,764,0,0
-364,260,0,0,0,0,0,0,0,0,0,-1,860,764,0,0
-357,260,0,0,0,0,0,0,0,0,0,-1,867,764,0,0
-350,260,0,0,0,0,0,0,0,0,0,-1,874,764,0,0
-343,260,0,0,0,0,0,0,0,0,0,-1,881,764,0,0
-336,260,0,0,0,0,0,0,0,0,0,-1,888,764,0,0
-329,260,0,0,0,0,0,0,0,0,0,-1,895,764,0,0
-322,260,0,0,0,0,0,0,0,0,0,-1,902,764,0,0
-315,260,0,0,0,0,0,0,0,0,0,-1,909,764,0,0
-308,260,0,0,0,0,0,0,0,0,0,-1,916,764,0,0
-301,260,0,0,0,0,0,0,0,0,0,-1,923,764,0,0
-294,260,0,0,0,0,0,0,0,0,0,-1,930,764,0,0
-287,260,0,0,0,0,0,0,0,0,0,-1,937,764,0,0
-280,260,0,0,0,0,0,0,0,0,0,-1,944,764,0,0
-273,260,0,0,0,0,0,0,0,0,0,-1,951,764,0,0
-266,260,0,0,0,0,0,0,0,0,0,-1,958,764,0,0
-259,260,0,0,0,0,0,0,0,0,0,-1,965,764,0,0
-252,260,0,0,0,0,0,0,0,0,0,-1,972,764,0,0
-245,260,0,0,0,0,0,0,0,0,0,-1,979,764,0,0
-238,260,0,0,0,0,0,0,0,0,0,-1,986,764,0,0
-231,260,0,0,0,0,0,0,0,0,0,-1,993,764,0,0
-224,260,0,0,0,0,0,0,0,0,0,-1,1000,764,0,0
-217,260,0,0,0,0,0,0,0,0,0,-1,1007,764,0,0
-210,260,0,0,0,0,0,0,0,0,0,-1,1014,764,0,0
-203,260,0,0,0,0,0,0,0,0,0,-1,1021,764,0,0
-196,260,0,0,0,0,0,0,0,0,0,-1,1028,764,0,0
-189,260,0,0,0,0,0,0,0,0,0,-1,1035,764,0,0
-182,260,0,0,0,0,0,0,0,0,0,-1,1042,764,0,0
-175,260,0,0,0,0,0,0,0,0,0,-1,1049,764,0,0
-168,260,0,0,0,0,0,0,0,0,0,-1,1056,764,0,0
-161,260,0,0,0,0,0,0,0,0,0,-1,1063,764,0,0
-154,260,0,0,0,0,0,0,0,0,0,-1,1070,764,0,0
-147,260,0,0,0,0,0,0,0,0,0,-1,1077,764,0,0
-140,260,0,0,0,0,0,0,0,0,0,-1,1084,764,0,0
-133,260,0,0,0,0,0,0,0,0,0,-1,1091,764,0,0
-126,260,0,0,0,0,0,0,0,0,0,-1,1098,764,0,0
-119,260,0,0,0,0,0,0,0,0,0,-1,1105,764,0,0
-112,260,0,0,0,0,0,0,0,0,0,-1,1112,764,0,0
-105,260,0,0,0,0,0,0,0,0,0,-1,1119,764,0,0
-98,260,0,0,0,0,0,0,0,0,0,-1,1126,764,0,0
-91,260,0,0,0,0,0,0,0,0,0,-1,1133,764,0,0
-84,260,0,0,0,0,0,0,0,0,0,-1,1140,764,0,0
-77,260,0,0,0,0,0,0,0,0,0,-1,1147,764,0,0
-70,260,0,0,0,0,0,0,0,0,0,-1,1154,764,0,0
-63,260,0,0,0,0,0,0,0,0,0,-1,1161,764,0,0
-56,260,0,0,0,0,0,0,0,0,0,-1,1168,764,0,0
-49,260,0,0,0,0,0,0,0,0,0,-1,1175,764,0,0
-42,260,0,0,0,0,0,0,0,0,0,-1,1182,764,0,0
-35,260,0,0,0,0,0,0,0,0,0,-1,1189,764,0,0
-28,260,0,0,0,0,0,0,0,0,0,-1,1196,764,0,0
-21,260,0,0,0,0,0,0,0,0,0,-1,1203,764,0,0
-14,260,0,0,0,0,0,0,0,0,0,-1,1210,764,0,0
-7,260,0,0,0,0,0,0,0,0,0,-1,1217,764,0,0
0,260,0,0,0,0,0,0,0,0,0,-1,1224,764,0,0
7,260,0,0,0,0,0,0,0,0,0,-1,1231,764,0,0
14,260,0,0,0,0,0,0,0,0,0,-1,1238,764,0,0
21,260,0,0,0,0,0,0,0,0,0,-1,1245,764,0,0
28,260,0,0,0,0,0,0,0,0,0,-1,1252,764,0,0
35,260,0,0,0,0,0,0,0,0,0,-1,1259,764,0,0
42,260,0,0,0,0,0,0,0,0,0,-1,1266,764,0,0
49,260,0,0,0,0,0,0,0,0,0,-1,1273,764,0,0
56,260,0,0,0,0,0,0,0,0,0,-1,1280,764,0,0
63,260,0,0,0,0,0,0,0,0,0,-1,1287,764,0,0
70,260,0,0,0,0,0,0,0,0,0,-1,1294,764,0,0
77,260,0,0,0,0,0,0,0,0,0,-1,1301,764,0,0
84,260,0,0,0,0,0,0,0,0,0,-1,1308,764,0,0
91,260,0,0,0,0,0,0,0,0,0,-1,1315,764,0,0
98,260,0,0,0,0,0,0,0,0,0,-1,1322,764,0,0
105,260,0,0,0,0,0,0,0,0,0,-1,1329,764,0,0
112,260,0,0,0,0,0,0,0,0,0,-1,1336,764,0,0
119,260,0,0,0,0,0,0,0,0,0,-1,1343,764,0,0
126,260,0,0,0,0,0,0,0,0,0,-1,1350,764,0,0
133,260,0,0,0,0,0,0,0,0,0,-1,1357,764,0,0
140,260,0,0,0,0,0,0,0,0,0,-1,1364,764,0,0
147,260,0,0,0,0,0,0,0,0,0,-1,1371,764,0,0
154,260,0,0,0,0,0,0,0,0,0,-1,1378,764,0,0
161,260,0,0,0,0,0,0,0,0,0,-1,1385,764,0,0
168,260,0,0,0,0,0,0,0,0,0,-1,1392,764,0,0
175,260,0,0,0,0,0,0,0,0,0,-1,1399,764,0,0
182,260,0,0,0,0,0,0,0,0,0,-1,1406,764,0,0
189,260,0,0,0,0,0,0,0,0,0,-1,1413,764,0,0
196,260,0,0,0,0,0,0,0,0,0,-1,1420,764,0,0
203,260,0,0,0,0,0,0,0,0,0,-1,1427,764,0,0
210,260,0,0,0,0,0,0,0,0,0,-1,1434,764,0,0
217,260,0,0,0,0,0,0,0,0,0,-1,1441,764,0,0
224,260,0,0,0,0,0,0,0,0,0,-1,1448,764,0,0
231,260,0,0,0,0,0,0,0,0,0,-1,1455,764,0,0
238,260,0,0,0,0,0,0,0,0,0,-1,1462,764,0,0
245,260,0,0,0,0,0,0,0,0,0,-1,1469,764,0,0
252,260,0,0,0,0,0,0,0,0,0,-1,1476,764,0,0
259,260,0,0,0,0,0,0,0,0,0,-1,1483,764,0,0
266,260,0,0,0,0,0,0,0,0,0,-1,1490,764,0,0
273,260,0,0,0,0,0,0,0,0,0,-1,1497,764,0,0
280,260,0,0,0,0,0,0,0,0,0,-1,1504,764,0,0
287,260,0,0,0,0,0,0,0,0,0,-1,1511,764,0,0
294,260,0,0,0,0,0,0,0,0,0,-1,1518,764,0,0
301,260,0,0,0,0,0,0,0,0,0,-1,1525,764,0,0
308,260,0,0,0,0,0,0,0,0,0,-1,1532,764,0,0
315,260,0,0,0,0,0,0,0,0,0,-1,1539,764,0,0
322,260,0,0,0,0,0,0,0,0,0,-1,1546,764,0,0
329,260,0,0,0,0,0,0,0,0,0,-1,1553,764,0,0
336,260,0,0,0,0,0,0,0,0,0,-1,1560,764,0,0
343,260,0,0,0,0,0,0,0,0,0,-1,1567,764,0,0
350,260,0,0,0,0,0,0,0,0,0,-1,1574,764,0,0
357,260,0,0,0,0,0,0,0,0,0,-1,1581,764,0,0
364,260,0,0,0,0,0,0,0,0,0,-1,1588,764,0,0
371,260,0,0,0,0,0,0,0,0,0,-1,1595,764,0,0
378,260,0,0,0,0,0,0,0,0,0,-1,1602,764,0,0
385,260,0,0,0,0,0,0,0,0,0,-1,1609,764,0,0
392,260,0,0,0,0,0,0,0,0,0,-1,1616,764,0,0
399,260,0,0,0,0,0,0,0,0,0,-1,1623,764,0,0
406,260,0,0,0,0,0,0,0,0,0,-1,1630,764,0,0
413,260,0,0,0,0,0,0,0,0,0,-1,1637,764,0,0
420,260,0,0,0,0,0,0,0,0,0,-1,1644,764,0,0
427,260,0,0,0,0,0,0,0,0,0,-1,1651,764,0,0
434,260,0,0,0,0,0,0,0,0,0,-1,1658,764,0,0
441,260,0,0,0,0,0,0,0,0,0,-1,1665,764,0,0
448,260,0,0,0,0,0,0,0,0,0,-1,1672,764,0,0
455,260,0,0,0,0,0,0,0,0,0,-1,1679,764,0,0
462,260,0,0,0,0,0,0,0,0,0,-1,1686,764,0,0
469,260,0,0,0,0,0,0,0,0,0,-1,1693,764,0,0
476,260,0,0,0,0,0,0,0,0,0,-1,1700,764,0,0
483,260,0,0,0,0,0,0,0,0,0,-1,1707,764,0,0
490,260,0,0,0,0,0,0,0,0,0,-1,1714,764,0,0
497,260,0,0,0,0,0,0,0,0,0,-1,1721,764,0,0
504,260,0,0,0,0,0,0,0,0,0,-1,1728,764,0,0
511,260,0,0,0,0,0,0,0,0,0,-1,1735,764,0,0
518,260,0,0,0,0,0,0,0,0,0,-1,1742,764,0,0
525,260,0,0,0,0,0,0,0,0,0,-1,1749,764,0,0
532,260,0,0,0,0,0,0,0,0,0,-1,1756,764,0,0
539,260,0,0,0,0,0,0,0,0,0,-1,1763,764,0,0
546,260,0,0,0,0,0,0,0,0,0,-1,1770,764,0,0
553,260,0,0,0,0,0,0,0,0,0,-1,1777,764,0,0
560,260,0,0,0,0,0,0,0,0,0,-1,1784,764,0,0
567,260,0,0,0,0,0,0,0,0,0,-1,1791,764,0,0
574,260,80.212,2.31683,0,0,0,0,0,0,0,-1,1798,764,80.2121,-2.31681
581,260,80.2369,2.38373,0,0,0,0,0,0,0,-1,1805,764,80.237,-2.38372
588,260,78.047,2.81091,0,0,0,0,0,0,0,-1,1812,764,78.047,-2.81091
595,260,66.1678,2.56989,0,0,0,0,0,0,0,-1,1819,764,66.1678,-2.56989
602,260,65.9274,2.69824,0,0,0,0,0,0,0,-1,1826,764,65.9274,-2.69825
609,260,65.4674,3.08105,0,0,0,0,0,0,0,-1,1833,764,65.4673,-3.08107
616,260,46.0709,2.74542,0,0,0,0,0,0,0,-1,1840,764,46.0709,-2.74545
623,260,32.2268,3.25836,0,0,0,0,0,0,0,-1,1847,764,32.2268,-3.25833
630,260,24.3739,-0.536316,0,0,0,0,0,0,0,-1,1854,764,24.3739,0.536343
637,260,42.7155,-5.35486,0,0,0,0,0,0,0,-1,1861,764,42.7154,5.35488
644,260,54.0347,-7.43213,0,0,0,0,0,0,0,-1,1868,764,54.0346,7.43216
651,260,54.2308,-6.10809,0.000262758,0.000636738,0.000205962,0.00072793,0.000171565,1.15398,0.000439408,0.0316921,1875,764,54.2308,6.1081
658,260,53.953,-5.09814,-0.000188875,0.000467245,-0.000113832,0.000486433,-0.000208063,-1.4038,0.000411564,0.0209653,1882,764,53.953,5.09816
665,260,53.8026,-4.1748,-7.07177e-05,0.000341067,-0.000256739,0.000464274,-0.000193925,-1.12336,0.00039055,0.0170989,1889,764,53.8027,4.17481
672,260,53.7737,-3.18292,0.000160886,0.000421127,-0.000292214,0.000610882,-2.88695e-05,-0.994864,0.000417211,0.0144437,1896,764,53.7736,3.18291
679,260,53.7076,-2.19019,0.000376206,0.000699994,-0.000242794,0.00082992,0.000246281,-1.07944,0.000492173,0.0128409,1903,764,53.7076,2.19016
686,260,53.5958,-1.20038,0.000624676,0.00109245,-0.000169502,0.00114741,0.000569714,-1.25723,0.000662464,0.023128,1910,764,53.5958,1.2004
693,260,53.4526,-0.278992,0.000898581,0.00147554,-0.000121894,0.00150024,0.000873886,-1.37091,0.000870085,0.0234506,1917,764,53.4526,0.278985
700,260,53.3834,0.682312,0.00127412,0.00193561,-5.54343e-05,0.00194022,0.0012695,-1.48777,0.00113783,0.0171948,1924,764,53.3834,-0.682312
707,260,53.4193,1.67596,0.00159018,0.00243925,-0.000100496,0.00245098,0.00157845,-1.45458,0.00143451,0.0188838,1931,764,53.4194,-1.67599
714,260,53.3503,2.59174,0.0016977,0.00273549,-0.000246392,0.00279102,0.00164217,-1.34914,0.00161976,0.0405508,1938,764,53.3503,-2.59176
721,260,53.2407,3.52734,0,0,0,0,0,0,0,-1,1945,764,53.2407,-3.52737
728,260,33.4344,5.75409,0,0,0,0,0,0,0,-1,1952,764,33.4345,-5.75408
735,260,26.9788,4.85681,0,0,0,0,0,0,0,-1,1959,764,26.9787,-4.85678
742,260,32.1443,1.73688,0,0,0,0,0,0,0,-1,1966,764,32.1442,-1.73688
749,260,33.6013,2.94733,0,0,0,0,0,0,0,-1,1973,764,33.6013,-2.9473
756,260,0,0,0,0,0,0,0,0,0,-1,1980,764,0,0
763,260,0,0,0,0,0,0,0,0,0,-1,1987,764,0,0
770,260,0,0,0,0,0,0,0,0,0,-1,1994,764,0,0
777,260,0,0,0,0,0,0,0,0,0,-1,2001,764,0,0
784,260,0,0,0,0,0,0,0,0,0,-1,2008,764,0,0
791,260,0,0,0,0,0,0,0,0,0,-1,2015,764,0,0
798,260,0,0,0,0,0,0,0,0,0,-1,2022,764,0,0
805,260,0,0,0,0,0,0,0,0,0,-1,2029,764,0,0
812,260,0,0,0,0,0,0,0,0,0,-1,2036,764,0,0
-700,253,0,0,0,0,0,0,0,0,0,-1,524,771,0,0
-693,253,0,0,0,0,0,0,0,0,0,-1,531,771,0,0
-686,253,0,0,0,0,0,0,0,0,0,-1,538,771,0,0
-679,253,0,0,0,0,0,0,0,0,0,-1,545,771,0,0
-672,253,0,0,0,0,0,0,0,0,0,-1,552,771,0,0
-665,253,0,0,0,0,0,0,0,0,0,-1,559,771,0,0
-658,253,0,0,0,0,0,0,0,0,0,-1,566,771,0,0
-651,253,0,0,0,0,0,0,0,0,0,-1,573,771,0,0
-644,253,0,0,0,0,0,0,0,0,0,-1,580,771,0,0
-637,253,-24.7979,-0.491394,0,0,0,0,0,0,0,-1,587,771,-24.7978,0.491371
-630,253,-25.156,0.540405,0,0,0,0,0,0,0,-1,594,771,-25.156,-0.540421
-623,253,-20.808,2.84314,0,0,0,0,0,0,0,-1,601,771,-20.8081,-2.84312
-616,253,-25.0877,2.96875,0,0,0,0,0,0,0,-1,608,771,-25.0877,-2.96876
-609,253,-24.28,2.08228,0,0,0,0,0,0,0,-1,615,771,-24.2801,-2.08227
-602,253,-38.6512,4.85315,0,0,0,0,0,0,0,-1,622,771,-38.6512,-4.85313
-595,253,-38.423,3.81622,0.00368714,-0.0128515,-0.0225065,0.0193954,-0.0285598,-0.609344,0.027855,0.0462429,629,771,-38.4229,-3.81625
-588,253,-38.1962,2.77722,0.00303466,-0.00773377,-0.015993,0.0145254,-0.0192245,-0.623027,0.0195484,0.0412966,636,771,-38.1963,-2.77722
-581,253,-37.9827,1.75702,0.00221524,-0.00432563,-0.0111999,0.0106125,-0.0127229,-0.643345,0.013491,0.0295473,643,771,-37.9827,-1.75704
-574,253,-38.012,0.8172,0.00155863,-0.00211771,-0.00719717,0.00714866,-0.00770774,-0.66037,0.00857937,0.0240397,650,771,-38.012,-0.817199
-567,253,-38.107,-0.15564,0.000865243,-0.000784398,-0.00411569,0.00423795,-0.0041571,-0.686504,0.00484696,0.0195121,657,771,-38.107,0.155636
-560,253,-38.1421,-1.06445,0.000137562,-1.5672e-06,-0.00184322,0.00191253,-0.00177653,-0.766537,0.00213036,0.0158589,664,771,-38.1421,1.06447
-553,253,-38.2382,-2.04932,-0.000615574,0.00046562,-0.000162244,0.000489441,-0.000639396,-1.42501,0.000653648,0.0135445,671,771,-38.2382,2.0493
-546,253,-38.3167,-3.05408,-0.00139436,0.000598309,0.00107922,0.00107078,-0.00186683,1.15814,0.00171666,0.0118073,678,771,-38.3167,3.05407
-539,253,-38.3943,-4.05463,-0.00220022,0.000450865,0.00183487,0.0013889,-0.00313826,1.09821,0.00267801,0.0135988,685,771,-38.3943,4.05463
-532,253,-38.4258,-5.01062,-0.00257537,0.000146953,0.00190531,0.00112737,-0.00355578,1.09556,0.00282239,0.0208647,692,771,-38.4258,5.01062
-525,253,-38.5125,-5.91309,-0.00257816,2.30798e-05,0.00201019,0.00111672,-0.0036718,1.07253,0.00289287,0.0329749,699,771,-38.5125,5.91311
-518,253,-38.7833,-7.08746,-0.00368689,7.23801e-05,0.00195765,0.000906675,-0.00452119,1.16793,0.00335741,0.0479172,706,771,-38.7833,7.08746
-511,253,-39.3205,-8.22058,0,0,0,0,0,0,0,-1,713,771,-39.3205,8.2206
-504,253,-19.317,-4.1723,0,0,0,0,0,0,0,-1,720,771,-19.317,4.1723
-497,253,-21.7737,-1.76837,0,0,0,0,0,0,0,-1,727,771,-21.7738,1.7684
-490,253,-29.7674,0.438354,0,0,0,0,0,0,0,-1,734,771,-29.7674,-0.438339
-483,253,-45.4489,1.59302,0,0,0,0,0,0,0,-1,741,771,-45.4489,-1.59303
-476,253,-63.1969,0.868042,0,0,0,0,0,0,0,-1,748,771,-63.1969,-0.86806
-469,253,-63.4905,0.682983,-0.0210464,-0.00768048,-0.000698242,-0.0076441,-0.0210828,-1.51874,0.0123245,0.0465044,755,771,-63.4906,-0.682991
-462,253,-63.9009,0.406067,-0.0290424,-0.0101407,-0.00254844,-0.00980311,-0.02938,-1.4391,0.0172726,0.0425449,762,771,-63.9009,-0.406085
-455,253,-63.889,0.513977,0,0,0,0,0,0,0,-1,769,771,-63.889,-0.513955
-448,253,0,0,0,0,0,0,0,0,0,-1,776,771,0,0
-441,253,0,0,0,0,0,0,0,0,0,-1,783,771,0,0
-434,253,0,0,0,0,0,0,0,0,0,-1,790,771,0,0
-427,253,0,0,0,0,0,0,0,0,0,-1,797,771,0,0
-420,253,0,0,0,0,0,0,0,0,0,-1,804,771,0,0
-413,253,0,0,0,0,0,0,0,0,0,-1,811,771,0,0
-406,253,0,0,0,0,0,0,0,0,0,-1,818,771,0,0
-399,253,0,0,0,0,0,0,0,0,0,-1,825,771,0,0
-392,253,0,0,0,0,0,0,0,0,0,-1,832,771,0,0
-385,253,0,0,0,0,0,0,0,0,0,-1,839,771,0,0
-378,253,0,0,0,0,0,0,0,0,0,-1,846,771,0,0
-371,253,0,0,0,0,0,0,0,0,0,-1,853,771,0,0
-364,253,0,0,0,0,0,0,0,0,0,-1,860,771,0,0
-357,253,0,0,0,0,0,0,0,0,0,-1,867,771,0,0
-350,253,0,0,0,0,0,0,0,0,0,-1,874,771,0,0
-343,253,0,0,0,0,0,0,0,0,0,-1,881,771,0,0
-336,253,0,0,0,0,0,0,0,0,0,-1,888,771,0,0
-329,253,0,0,0,0,0,0,0,0,0,-1,895,771,0,0
-322,253,0,0,0,0,0,0,0,0,0,-1,902,771,0,0
-315,253,0,0,0,0,0,0,0,0,0,-1,909,771,0,0
-308,253,0,0,0,0,0,0,0,0,0,-1,916,771,0,0
-301,253,0,0,0,0,0,0,0,0,0,-1,923,771,0,0
-294,253,0,0,0,0,0,0,0,0,0,-1,930,771,0,0
-287,253,0,0,0,0,0,0,0,0,0,-1,937,771,0,0
-280,253,0,0,0,0,0,0,0,0,0,-1,944,771,0,0
-273,253,0,0,0,0,0,0,0,0,0,-1,951,771,0,0
-266,253,0,0,0,0,0,0,0,0,0,-1,958,771,0,0
-259,253,0,0,0,0,0,0,0,0,0,-1,965,771,0,0
-252,253,0,0,0,0,0,0,0,0,0,-1,972,771,0,0
-245,253,0,0,0,0,0,0,0,0,0,-1,979,771,0,0
-238,253,0,0,0,0,0,0,0,0,0,-1,986,771,0,0
-231,253,0,0,0,0,0,0,0,0,0,-1,993,771,0,0
-224,253,0,0,0,0,0,0,0,0,0,-1,1000,771,0,0
-217,253,0,0,0,0,0,0,0,0,0,-1,1007,771,0,0
-210,253,0,0,0,0,0,0,0,0,0,-1,1014,771,0,0
-203,253,0,0,0,0,0,0,0,0,0,-1,1021,771,0,0
-196,253,0,0,0,0,0,0,0,0,0,-1,1028,771,0,0
-189,253,0,0,0,0,0,0,0,0,0,-1,1035,771,0,0
-182,253,0,0,0,0,0,0,0,0,0,-1,1042,771,0,0
-175,253,0,0,0,0,0,0,0,0,0,-1,1049,771,0,0
-168,253,0,0,0,0,0,0,0,0,0,-1,1056,771,0,0
-161,253,0,0,0,0,0,0,0,0,0,-1,1063,771,0,0
-154,253,0,0,0,0,0,0,0,0,0,-1,1070,771,0,0
-147,253,0,0,0,0,0,0,0,0,0,-1,1077,771,0,0
-140,253,0,0,0,0,0,0,0,0,0,-1,1084,771,0,0
-133,253,0,0,0,0,0,0,0,0,0,-1,1091,771,0,0
-126,253,0,0,0,0,0,0,0,0,0,-1,1098,771,0,0
-119,253,0,0,0,0,0,0,0,0,0,-1,1105,771,0,0
-112,253,0,0,0,0,0,0,0,0,0,-1,1112,771,0,0
-105,253,0,0,0,0,0,0,0,0,0,-1,1119,771,0,0
-98,253,0,0,0,0,0,0,0,0,0,-1,1126,771,0,0
-91,253,0,0,0,0,0,0,0,0,0,-1,1133,771,0,0
-84,253,0,0,0,0,0,0,0,0,0,-1,1140,771,0,0
-77,253,0,0,0,0,0,0,0,0,0,-1,1147,771,0,0
-70,253,0,0,0,0,0,0,0,0,0,-1,1154,771,0,0
-63,253,0,0,0,0,0,0,0,0,0,-1,1161,771,0,0
-56,253,0,0,0,0,0,0,0,0,0,-1,1168,771,0,0
-49,253,0,0,0,0,0,0,0,0,0,-1,1175,771,0,0
-42,253,0,0,0,0,0,0,0,0,0,-1,1182,771,0,0
-35,253,0,0,0,0,0,0,0,0,0,-1,1189,771,0,0
-28,253,0,0,0,0,0,0,0,0,0,-1,1196,771,0,0
-21,253,0,0,0,0,0,0,0,0,0,-1,1203,771,0,0
-14,253,0,0,0,0,0,0,0,0,0,-1,1210,771,0,0
-7,253,0,0,0,0,0,0,0,0,0,-1,1217,771,0,0
0,253,0,0,0,0,0,0,0,0,0,-1,1224,771,0,0
7,253,0,0,0,0,0,0,0,0,0,-1,1231,771,0,0
14,253,0,0,0,0,0,0,0,0,0,-1,1238,771,0,0
21,253,0,0,0,0,0,0,0,0,0,-1,1245,771,0,0
28,253,0,0,0,0,0,0,0,0,0,-1,1252,771,0,0
35,253,0,0,0,0,0,0,0,0,0,-1,1259,771,0,0
42,253,0,0,0,0,0,0,0,0,0,-1,1266,771,0,0
49,253,0,0,0,0,0,0,0,0,0,-1,1273,771,0,0
56,253,0,0,0,0,0,0,0,0,0,-1,1280,771,0,0
63,253,0,0,0,0,0,0,0,0,0,-1,1287,771,0,0
70,253,0,0,0,0,0,0,0,0,0,-1,1294,771,0,0
77,253,0,0,0,0,0,0,0,0,0,-1,1301,771,0,0
84,253,0,0,0,0,0,0,0,0,0,-1,1308,771,0,0
91,253,0,0,0,0,0,0,0,0,0,-1,1315,771,0,0
98,253,0,0,0,0,0,0,0,0,0,-1,1322,771,0,0
105,253,0,0,0,0,0,0,0,0,0,-1,1329,771,0,0
112,253,0,0,0,0,0,0,0,0,0,-1,1336,771,0,0
119,253,0,0,0,0,0,0,0,0,0,-1,1343,771,0,0
126,253,0,0,0,0,0,0,0,0,0,-1,1350,771,0,0
133,253,0,0,0,0,0,0,0,0,0,-1,1357,771,0,0
140,253,0,0,0,0,0,0,0,0,0,-1,1364,771,0,0
147,253,0,0,0,0,0,0,0,0,0,-1,1371,771,0,0
154,253,0,0,0,0,0,0,0,0,0,-1,1378,771,0,0
161,253,0,0,0,0,0,0,0,0,0,-1,1385,771,0,0
168,253,0,0,0,0,0,0,0,0,0,-1,1392,771,0,0
175,253,0,0,0,0,0,0,0,0,0,-1,1399,771,0,0
182,253,0,0,0,0,0,0,0,0,0,-1,1406,771,0,0
189,253,0,0,0,0,0,0,0,0,0,-1,1413,771,0,0
196,253,0,0,0,0,0,0,0,0,0,-1,1420,771,0,0
203,253,0,0,0,0,0,0,0,0,0,-1,1427,771,0,0
210,253,0,0,0,0,0,0,0,0,0,-1,1434,771,0,0
217,253,0,0,0,0,0,0,0,0,0,-1,1441,771,0,0
224,253,0,0,0,0,0,0,0,0,0,-1,1448,771,0,0
231,253,0,0,0,0,0,0,0,0,0,-1,1455,771,0,0
238,253,0,0,0,0,0,0,0,0,0,-1,1462,771,0,0
245,253,0,0,0,0,0,0,0,0,0,-1,1469,771,0,0
252,253,0,0,0,0,0,0,0,0,0,-1,1476,771,0,0
259,253,0,0,0,0,0,0,0,0,0,-1,1483,771,0,0
266,253,0,0,0,0,0,0,0,0,0,-1,1490,771,0,0
273,253,0,0,0,0,0,0,0,0,0,-1,1497,771,0,0
280,253,0,0,0,0,0,0,0,0,0,-1,1504,771,0,0
287,253,0,0,0,0,0,0,0,0,0,-1,1511,771,0,0
294,253,0,0,0,0,0,0,0,0,0,-1,1518,771,0,0
301,253,0,0,0,0,0,0,0,0,0,-1,1525,771,0,0
308,253,0,0,0,0,0,0,0,0,0,-1,1532,771,0,0
315,253,0,0,0,0,0,0,0,0,0,-1,1539,771,0,0
322,253,0,0,0,0,0,0,0,0,0,-1,1546,771,0,0
329,253,0,0,0,0,0,0,0,0,0,-1,1553,771,0,0
336,253,0,0,0,0,0,0,0,0,0,-1,1560,771,0,0
343,253,0,0,0,0,0,0,0,0,0,-1,1567,771,0,0
350,253,0,0,0,0,0,0,0,0,0,-1,1574,771,0,0
357,253,0,0,0,0,0,0,0,0,0,-1,1581,771,0,0
364,253,0,0,0,0,0,0,0,0,0,-1,1588,771,0,0
371,253,0,0,0,0,0,0,0,0,0,-1,1595,771,0,0
378,253,0,0,0,0,0,0,0,0,0,-1,1602,771,0,0
385,253,0,0,0,0,0,0,0,0,0,-1,1609,771,0,0
392,253,0,0,0,0,0,0,0,0,0,-1,1616,771,0,0
399,253,0,0,0,0,0,0,0,0,0,-1,1623,771,0,0
406,253,0,0,0,0,0,0,0,0,0,-1,1630,771,0,0
413,253,0,0,0,0,0,0,0,0,0,-1,1637,771,0,0
420,253,0,0,0,0,0,0,0,0,0,-1,1644,771,0,0
427,253,0,0,0,0,0,0,0,0,0,-1,1651,771,0,0
434,253,0,0,0,0,0,0,0,0,0,-1,1658,771,0,0
441,253,0,0,0,0,0,0,0,0,0,-1,1665,771,0,0
448,253,0,0,0,0,0,0,0,0,0,-1,1672,771,0,0
455,253,0,0,0,0,0,0,0,0,0,-1,1679,771,0,0
462,253,0,0,0,0,0,0,0,0,0,-1,1686,771,0,0
469,253,0,0,0,0,0,0,0,0,0,-1,1693,771,0,0
476,253,0,0,0,0,0,0,0,0,0,-1,1700,771,0,0
483,253,0,0,0,0,0,0,0,0,0,-1,1707,771,0,0
490,253,0,0,0,0,0,0,0,0,0,-1,1714,771,0,0
497,253,0,0,0,0,0,0,0,0,0,-1,1721,771,0,0
504,253,0,0,0,0,0,0,0,0,0,-1,1728,771,0,0
511,253,0,0,0,0,0,0,0,0,0,-1,1735,771,0,0
518,253,0,0,0,0,0,0,0,0,0,-1,1742,771,0,0
525,253,0,0,0,0,0,0,0,0,0,-1,1749,771,0,0
532,253,0,0,0,0,0,0,0,0,0,-1,1756,771,0,0
539,253,0,0,0,0,0,0,0,0,0,-1,1763,771,0,0
546,253,0,0,0,0,0,0,0,0,0,-1,1770,771,0,0
553,253,0,0,0,0,0,0,0,0,0,-1,1777,771,0,0
560,253,0,0,0,0,0,0,0,0,0,-1,1784,771,0,0
567,253,0,0,0,0,0,0,0,0,0,-1,1791,771,0,0
574,253,80.0957,2.34869,0,0,0,0,0,0,0,-1,1798,771,80.0957,-2.34868
581,253,80.1464,2.39648,0,0,0,0,0,0,0,-1,1805,771,80.1464,-2.3965
588,253,80.2579,2.34979,0,0,0,0,0,0,0,-1,1812,771,80.2579,-2.34977
595,253,80.9916,1.99744,0,0,0,0,0,0,0,-1,1819,771,80.9916,-1.99746
602,253,66.4502,2.6098,0,0,0,0,0,0,0,-1,1826,771,66.4502,-2.60979
609,253,65.2542,3.18195,0,0,0,0,0,0,0,-1,1833,771,65.2541,-3.18193
616,253,58.416,2.69031,0,0,0,0,0,0,0,-1,1840,771,58.4161,-2.69031
623,253,48.8328,3.01001,0,0,0,0,0,0,0,-1,1847,771,48.8328,-3.01002
630,253,33.561,2.96838,0,0,0,0,0,0,0,-1,1854,771,33.561,-2.96836
637,253,22.3192,-0.604004,0,0,0,0,0,0,0,-1,1861,771,22.3192,0.603986
644,253,48.2843,-5.22784,0,0,0,0,0,0,0,-1,1868,771,48.2843,5.22783
651,253,55.2603,-5.70227,0,0,0,0,0,0,0,-1,1875,771,55.2603,5.70226
658,253,54.9725,-4.93207,-0.000654348,0.000803476,-0.000110997,0.000811879,-0.000662751,-1.49524,0.000852828,0.0318083,1882,771,54.9725,4.93205
665,253,54.7783,-4.07269,-0.000515627,0.000557353,-0.000317621,0.000644325,-0.000602599,-1.30353,0.000720046,0.0223889,1889,771,54.7783,4.0727
672,253,54.7192,-3.14526,-0.000152704,0.000395727,-0.00044725,0.000646132,-0.000403109,-1.0604,0.000611172,0.0177413,1896,771,54.7193,3.14525
679,253,54.6912,-2.1261,0.000118991,0.000451087,-0.000490527,0.000802908,-0.00023283,-0.948599,0.000627451,0.0139318,1903,771,54.6911,2.12612
686,253,54.5608,-1.12384,0.000367971,0.000715948,-0.00047694,0.00104964,3.42748e-05,-0.960298,0.000688622,0.0255369,1910,771,54.5608,1.12385
693,253,54.4421,-0.195862,0.000606035,0.000981283,-0.000471656,0.00130126,0.000286054,-0.974702,0.000789622,0.025613,1917,771,54.4422,0.195876
700,253,54.4058,0.745422,0.000926785,0.00133074,-0.000467789,0.00163829,0.000619231,-0.989193,0.000955212,0.0186009,1924,771,54.4057,-0.745418
707,253,54.3973,1.73926,0.00124901,0.00172993,-0.000517146,0.00205979,0.000919154,-1.00302,0.00119151,0.0170914,1931,771,54.3974,-1.73925
714,253,54.3492,2.66608,0.00143796,0.00200507,-0.000657055,0.00243714,0.00100588,-0.989102,0.00141421,0.0276011,1938,771,54.3492,-2.66605
721,253,54.2349,3.57385,0.00191699,0.00247705,-0.00068486,0.00293692,0.00145712,-0.979471,0.00169565,0.0453101,1945,771,54.2349,-3.57384
728,253,54.4602,4.69012,0,0,0,0,0,0,0,-1,1952,771,54.4602,-4.69015
735,253,34.5735,6.15118,0,0,0,0,0,0,0,-1,1959,771,34.5734,-6.1512
742,253,31.0571,5.7337,0,0,0,0,0,0,0,-1,1966,771,31.0571,-5.73373
749,253,33.7754,3.21533,0,0,0,0,0,0,0,-1,1973,771,33.7754,-3.21533
756,253,0,0,0,0,0,0,0,0,0,-1,1980,771,0,0
763,253,0,0,0,0,0,0,0,0,0,-1,1987,771,0,0
770,253,0,0,0,0,0,0,0,0,0,-1,1994,771,0,0
777,253,0,0,0,0,0,0,0,0,0,-1,2001,771,0,0
784,253,0,0,0,0,0,0,0,0,0,-1,2008,771,0,0
791,253,0,0,0,0,0,0,0,0,0,-1,2015,771,0,0
798,253,0,0,0,0,0,0,0,0,0,-1,2022,771,0,0
805,253,0,0,0,0,0,0,0,0,0,-1,2029,771,0,0
812,253,0,0,0,0,0,0,0,0,0,-1,2036,771,0,0
-700,246,0,0,0,0,0,0,0,0,0,-1,524,778,0,0
-693,246,0,0,0,0,0,0,0,0,0,-1,531,778,0,0
-686,246,0,0,0,0,0,0,0,0,0,-1,538,778,0,0
-679,246,0,0,0,0,0,0,0,0,0,-1,545,778,0,0
-672,246,0,0,0,0,0,0,0,0,0,-1,552,778,0,0
-665,246,0,0,0,0,0,0,0,0,0,-1,559,778,0,0
-658,246,0,0,0,0,0,0,0,0,0,-1,566,778,0,0
-651,246,0,0,0,0,0,0,0,0,0,-1,573,778,0,0
-644,246,0,0,0,0,0,0,0,0,0,-1,580,778,0,0
-637,246,-24.1234,0.130432,0,0,0,0,0,0,0,-1,587,778,-24.1234,-0.130438
-630,246,-24.0781,1.38916,0,0,0,0,0,0,0,-1,594,778,-24.0781,-1.38913
-623,246,-23.9183,2.49573,0,0,0,0,0,0,0,-1,601,778,-23.9183,-2.49575
-616,246,-26.8182,2.0705,0,0,0,0,0,0,0,-1,608,778,-26.8182,-2.07052
-609,246,-26.0615,1.16388,0,0,0,0,0,0,0,-1,615,778,-26.0615,-1.16388
-602,246,-38.2154,6.85938,0,0,0,0,0,0,0,-1,622,778,-38.2154,-6.85939
-595,246,-38.5695,5.01892,0.00200132,-0.0105575,-0.0192097,0.0159319,-0.0244881,-0.627429,0.0235101,0.0405794,629,778,-38.5695,-5.01895
-588,246,-38.899,2.92261,0.00194608,-0.00639676,-0.0138563,0.0122453,-0.016696,-0.639189,0.016775,0.0329528,636,778,-38.899,-2.92261
-581,246,-39.0015,1.89172,0.0015507,-0.00356295,-0.00970616,0.00903115,-0.0110434,-0.656612,0.0116094,0.020829,643,778,-39.0015,-1.89175
-574,246,-38.9544,0.832764,0.00113434,-0.00166852,-0.00613469,0.00602564,-0.00655982,-0.673103,0.0072684,0.020325,650,778,-38.9544,-0.832779
-567,246,-39.0316,-0.129333,0.000581734,-0.000450634,-0.00330759,0.00341318,-0.00328208,-0.707992,0.00386575,0.0266789,657,778,-39.0316,0.129334
-560,246,-39.1728,-1.03369,-3.04582e-05,0.000302072,-0.0011266,0.00127461,-0.001003,-0.85866,0.00131809,0.0210625,664,778,-39.1728,1.03366
-553,246,-39.2288,-1.93958,-0.000757575,0.00073199,0.000491118,0.000879339,-0.000904924,1.27932,0.00103018,0.0138707,671,778,-39.2288,1.93959
-546,246,-39.2951,-2.93207,-0.00155694,0.000798494,0.00160718,0.00161328,-0.00237173,1.10159,0.00231459,0.0110787,678,778,-39.2951,2.93204
-539,246,-39.365,-3.9809,-0.00227319,0.00030646,0.00201907,0.00141252,-0.00337925,1.06964,0.00284315,0.0131101,685,778,-39.365,3.98089
-532,246,-39.454,-4.9425,-0.00238938,-0.000313594,0.00184399,0.000764528,-0.0034675,1.04173,0.00260419,0.0321434,692,778,-39.4541,4.9425
-525,246,-39.6274,-5.87952,0,0,0,0,0,0,0,-1,699,778,-39.6274,5.87952
-518,246,-39.8259,-7.43536,0,0,0,0,0,0,0,-1,706,778,-39.8259,7.43537
-511,246,-28.5886,-5.38635,0,0,0,0,0,0,0,-1,713,778,-28.5886,5.38633
-504,246,-20.0047,-2.88214,0,0,0,0,0,0,0,-1,720,778,-20.0047,2.88216
-497,246,-29.4669,1.82684,0,0,0,0,0,0,0,-1,727,778,-29.4669,-1.82687
-490,246,-40.4299,1.04309,0,0,0,0,0,0,0,-1,734,778,-40.4299,-1.04308
-483,246,-55.5514,-0.0795898,0,0,0,0,0,0,0,-1,741,778,-55.5514,0.0795595
-476,246,-63.6229,0.665344,0,0,0,0,0,0,0,-1,748,778,-63.6229,-0.665331
-469,246,-63.5798,0.73645,-0.0183878,-0.00516443,7.74289e-05,-0.00516398,-0.0183883,1.56494,0.0109512,0.0413296,755,778,-63.5797,-0.736467
-462,246,-63.8235,0.587891,-0.0247059,-0.00655272,-0.000916452,-0.00650657,-0.024752,-1.52048,0.0148166,0.0421153,762,778,-63.8235,-0.587921
-455,246,0,0,0,0,0,0,0,0,0,-1,769,778,0,0
-448,246,0,0,0,0,0,0,0,0,0,-1,776,778,0,0
-441,246,0,0,0,0,0,0,0,0,0,-1,783,778,0,0
-434,246,0,0,0,0,0,0,0,0,0,-1,790,778,0,0
-427,246,0,0,0,0,0,0,0,0,0,-1,797,778,0,0
-420,246,0,0,0,0,0,0,0,0,0,-1,804,778,0,0
-413,246,0,0,0,0,0,0,0,0,0,-1,811,778,0,0
-406,246,0,0,0,0,0,0,0,0,0,-1,818,778,0,0
-399,246,0,0,0,0,0,0,0,0,0,-1,825,778,0,0
-392,246,0,0,0,0,0,0,0,0,0,-1,832,778,0,0
-385,246,0,0,0,0,0,0,0,0,0,-1,839,778,0,0
-378,246,0,0,0,0,0,0,0,0,0,-1,846,778,0,0
-371,246,0,0,0,0,0,0,0,0,0,-1,853,778,0,0
-364,246,0,0,0,0,0,0,0,0,0,-1,860,778,0,0
-357,246,0,0,0,0,0,0,0,0,0,-1,867,778,0,0
-350,246,0,0,0,0,0,0,0,0,0,-1,874,778,0,0
-343,246,0,0,0,0,0,0,0,0,0,-1,881,778,0,0
-336,246,0,0,0,0,0,0,0,0,0,-1,888,778,0,0
-329,246,0,0,0,0,0,0,0,0,0,-1,895,778,0,0
-322,246,0,0,0,0,0,0,0,0,0,-1,902,778,0,0
-315,246,0,0,0,0,0,0,0,0,0,-1,909,778,0,0
-308,246,0,0,0,0,0,0,0,0,0,-1,916,778,0,0
-301,246,0,0,0,0,0,0,0,0,0,-1,923,778,0,0
-294,246,0,0,0,0,0,0,0,0,0,-1,930,778,0,0
-287,246,0,0,0,0,0,0,0,0,0,-1,937,778,0,0
-280,246,0,0,0,0,0,0,0,0,0,-1,944,778,0,0
-273,246,0,0,0,0,0,0,0,0,0,-1,951,778,0,0
-266,246,0,0,0,0,0,0,0,0,0,-1,958,778,0,0
-259,246,0,0,0,0,0,0,0,0,0,-1,965,778,0,0
-252,246,0,0,0,0,0,0,0,0,0,-1,972,778,0,0
-245,246,0,0,0,0,0,0,0,0,0,-1,979,778,0,0
-238,246,0,0,0,0,0,0,0,0,0,-1,986,778,0,0
-231,246,0,0,0,0,0,0,0,0,0,-1,993,778,0,0
-224,246,0,0,0,0,0,0,0,0,0,-1,1000,778,0,0
-217,246,0,0,0,0,0,0,0,0,0,-1,1007,778,0,0
-210,246,0,0,0,0,0,0,0,0,0,-1,1014,778,0,0
-203,246,0,0,0,0,0,0,0,0,0,-1,1021,778,0,0
-196,246,0,0,0,0,0,0,0,0,0,-1,1028,778,0,0
-189,246,0,0,0,0,0,0,0,0,0,-1,1035,778,0,0
-182,246,0,0,0,0,0,0,0,0,0,-1,1042,778,0,0
-175,246,0,0,0,0,0,0,0,0,0,-1,1049,778,0,0
-168,246,0,0,0,0,0,0,0,0,0,-1,1056,778,0,0
-161,246,0,0,0,0,0,0,0,0,0,-1,1063,778,0,0
-154,246,0,0,0,0,0,0,0,0,0,-1,1070,778,0,0
-147,246,0,0,0,0,0,0,0,0,0,-1,1077,778,0,0
-140,246,0,0,0,0,0,0,0,0,0,-1,1084,778,0,0
-133,246,0,0,0,0,0,0,0,0,0,-1,1091,778,0,0
-126,246,0,0,0,0,0,0,0,0,0,-1,1098,778,0,0
-119,246,0,0,0,0,0,0,0,0,0,-1,1105,778,0,0
-112,246,0,0,0,0,0,0,0,0,0,-1,1112,778,0,0
-105,246,0,0,0,0,0,0,0,0,0,-1,1119,778,0,0
-98,246,0,0,0,0,0,0,0,0,0,-1,1126,778,0,0
-91,246,0,0,0,0,0,0,0,0,0,-1,1133,778,0,0
-84,246,0,0,0,0,0,0,0,0,0,-1,1140,778,0,0
-77,246,0,0,0,0,0,0,0,0,0,-1,1147,778,0,0
-70,246,0,0,0,0,0,0,0,0,0,-1,1154,778,0,0
-63,246,0,0,0,0,0,0,0,0,0,-1,1161,778,0,0
-56,246,0,0,0,0,0,0,0,0,0,-1,1168,778,0,0
-49,246,0,0,0,0,0,0,0,0,0,-1,1175,778,0,0
-42,246,0,0,0,0,0,0,0,0,0,-1,1182,778,0,0
-35,246,0,0,0,0,0,0,0,0,0,-1,1189,778,0,0
-28,246,0,0,0,0,0,0,0,0,0,-1,1196,778,0,0
-21,246,0,0,0,0,0,0,0,0,0,-1,1203,778,0,0
-14,246,0,0,0,0,0,0,0,0,0,-1,1210,778,0,0
-7,246,0,0,0,0,0,0,0,0,0,-1,1217,778,0,0
0,246,0,0,0,0,0,0,0,0,0,-1,1224,778,0,0
7,246,0,0,0,0,0,0,0,0,0,-1,1231,778,0,0
14,246,0,0,0,0,0,0,0,0,0,-1,1238,778,0,0
21,246,0,0,0,0,0,0,0,0,0,-1,1245,778,0,0
28,246,0,0,0,0,0,0,0,0,0,-1,1252,778,0,0
35,246,0,0,0,0,0,0,0,0,0,-1,1259,778,0,0
42,246,0,0,0,0,0,0,0,0,0,-1,1266,778,0,0
49,246,0,0,0,0,0,0,0,0,0,-1,1273,778,0,0
56,246,0,0,0,0,0,0,0,0,0,-1,1280,778,0,0
63,246,0,0,0,0,0,0,0,0,0,-1,1287,778,0,0
70,246,0,0,0,0,0,0,0,0,0,-1,1294,778,0,0
77,246,0,0,0,0,0,0,0,0,0,-1,1301,778,0,0
84,246,0,0,0,0,0,0,0,0,0,-1,1308,778,0,0
91,246,0,0,0,0,0,0,0,0,0,-1,1315,778,0,0
98,246,0,0,0,0,0,0,0,0,0,-1,1322,778,0,0
105,246,0,0,0,0,0,0,0,0,0,-1,1329,778,0,0
112,246,0,0,0,0,0,0,0,0,0,-1,1336,778,0,0
119,246,0,0,0,0,0,0,0,0,0,-1,1343,778,0,0
126,246,0,0,0,0,0,0,0,0,0,-1,1350,778,0,0
133,246,0,0,0,0,0,0,0,0,0,-1,1357,778,0,0
140,246,0,0,0,0,0,0,0,0,0,-1,1364,778,0,0
147,246,0,0,0,0,0,0,0,0,0,-1,1371,778,0,0
154,246,0,0,0,0,0,0,0,0,0,-1,1378,778,0,0
161,246,0,0,0,0,0,0,0,0,0,-1,1385,778,0,0
168,246,0,0,0,0,0,0,0,0,0,-1,1392,778,0,0
175,246,0,0,0,0,0,0,0,0,0,-1,1399,778,0,0
182,246,0,0,0,0,0,0,0,0,0,-1,1406,778,0,0
189,246,0,0,0,0,0,0,0,0,0,-1,1413,778,0,0
196,246,0,0,0,0,0,0,0,0,0,-1,1420,778,0,0
203,246,0,0,0,0,0,0,0,0,0,-1,1427,778,0,0
210,246,0,0,0,0,0,0,0,0,0,-1,1434,778,0,0
217,246,0,0,0,0,0,0,0,0,0,-1,1441,778,0,0
224,246,0,0,0,0,0,0,0,0,0,-1,1448,778,0,0
231,246,0,0,0,0,0,0,0,0,0,-1,1455,778,0,0
238,246,0,0,0,0,0,0,0,0,0,-1,1462,778,0,0
245,246,0,0,0,0,0,0,0,0,0,-1,1469,778,0,0
252,246,0,0,0,0,0,0,0,0,0,-1,1476,778,0,0
259,246,0,0,0,0,0,0,0,0,0,-1,1483,778,0,0
266,246,0,0,0,0,0,0,0,0,0,-1,1490,778,0,0
273,246,0,0,0,0,0,0,0,0,0,-1,1497,778,0,0
280,246,0,0,0,0,0,0,0,0,0,-1,1504,778,0,0
287,246,0,0,0,0,0,0,0,0,0,-1,1511,778,0,0
294,246,0,0,0,0,0,0,0,0,0,-1,1518,778,0,0
301,246,0,0,0,0,0,0,0,0,0,-1,1525,778,0,0
308,246,0,0,0,0,0,0,0,0,0,-1,1532,778,0,0
315,246,0,0,0,0,0,0,0,0,0,-1,1539,778,0,0
322,246,0,0,0,0,0,0,0,0,0,-1,1546,778,0,0
329,246,0,0,0,0,0,0,0,0,0,-1,1553,778,0,0
336,246,0,0,0,0,0,0,0,0,0,-1,1560,778,0,0
343,246,0,0,0,0,0,0,0,0,0,-1,1567,778,0,0
350,246,0,0,0,0,0,0,0,0,0,-1,1574,778,0,0
357,246,0,0,0,0,0,0,0,0,0,-1,1581,778,0,0
364,246,0,0,0,0,0,0,0,0,0,-1,1588,778,0,0
371,246,0,0,0,0,0,0,0,0,0,-1,1595,778,0,0
378,246,0,0,0,0,0,0,0,0,0,-1,1602,778,0,0
385,246,0,0,0,0,0,0,0,0,0,-1,1609,778,0,0
392,246,0,0,0,0,0,0,0,0,0,-1,1616,778,0,0
399,246,0,0,0,0,0,0,0,0,0,-1,1623,778,0,0
406,246,0,0,0,0,0,0,0,0,0,-1,1630,778,0,0
413,246,0,0,0,0,0,0,0,0,0,-1,1637,778,0,0
420,246,0,0,0,0,0,0,0,0,0,-1,1644,778,0,0
427,246,0,0,0,0,0,0,0,0,0,-1,1651,778,0,0
434,246,0,0,0,0,0,0,0,0,0,-1,1658,778,0,0
441,246,0,0,0,0,0,0,0,0,0,-1,1665,778,0,0
448,246,0,0,0,0,0,0,0,0,0,-1,1672,778,0,0
455,246,0,0,0,0,0,0,0,0,0,-1,1679,778,0,0
462,246,0,0,0,0,0,0,0,0,0,-1,1686,778,0,0
469,246,0,0,0,0,0,0,0,0,0,-1,1693,778,0,0
476,246,0,0,0,0,0,0,0,0,0,-1,1700,778,0,0
483,246,0,0,0,0,0,0,0,0,0,-1,1707,778,0,0
490,246,0,0,0,0,0,0,0,0,0,-1,1714,778,0,0
497,246,0,0,0,0,0,0,0,0,0,-1,1721,778,0,0
504,246,0,0,0,0,0,0,0,0,0,-1,1728,778,0,0
511,246,0,0,0,0,0,0,0,0,0,-1,1735,778,0,0
518,246,0,0,0,0,0,0,0,0,0,-1,1742,778,0,0
525,246,0,0,0,0,0,0,0,0,0,-1,1749,778,0,0
532,246,0,0,0,0,0,0,0,0,0,-1,1756,778,0,0
539,246,0,0,0,0,0,0,0,0,0,-1,1763,778,0,0
546,246,0,0,0,0,0,0,0,0,0,-1,1770,778,0,0
553,246,0,0,0,0,0,0,0,0,0,-1,1777,778,0,0
560,246,0,0,0,0,0,0,0,0,0,-1,1784,778,0,0
567,246,0,0,0,0,0,0,0,0,0,-1,1791,778,0,0
574,246,0,0,0,0,0,0,0,0,0,-1,1798,778,0,0
581,246,80.076,2.48175,0.0207739,-0.00350633,-0.0039327,0.021395,-0.00412743,-0.156638,0.0158196,0.0402337,1805,778,80.076,-2.48177
588,246,80.1777,2.41309,0.0191714,-0.00335462,-0.002264,0.0193966,-0.00357991,-0.0991846,0.0142748,0.0442939,1812,778,80.1777,-2.41307
595,246,80.5775,2.17499,0.0165537,-0.00262159,-0.00123114,0.0166324,-0.00270031,-0.0638553,0.0120893,0.0469494,1819,778,80.5775,-2.17498
602,246,80.6807,2.25507,0,0,0,0,0,0,0,-1,1826,778,80.6807,-2.25504
609,246,65.04,3.03278,0,0,0,0,0,0,0,-1,1833,778,65.04,-3.03277
616,246,60.4568,3.98492,0,0,0,0,0,0,0,-1,1840,778,60.4568,-3.98491
623,246,55.8947,3.95953,0,0,0,0,0,0,0,-1,1847,778,55.8947,-3.95952
630,246,49.5938,1.99902,0,0,0,0,0,0,0,-1,1854,778,49.5937,-1.999
637,246,29.5785,0.837585,0,0,0,0,0,0,0,-1,1861,778,29.5785,-0.837606
644,246,28.1232,-1.43188,0,0,0,0,0,0,0,-1,1868,778,28.1232,1.43188
651,246,48.5865,-4.32922,0,0,0,0,0,0,0,-1,1875,778,48.5865,4.32921
658,246,55.9193,-4.82184,0,0,0,0,0,0,0,-1,1882,778,55.9194,4.82182
665,246,55.755,-4.04431,-0.000851676,0.000745054,-0.000308721,0.000802666,-0.000909287,-1.38631,0.000989035,0.0315084,1889,778,55.755,4.04429
672,246,55.7283,-3.08148,-0.000457758,0.000460714,-0.000449096,0.000643806,-0.00064085,-1.18368,0.000741697,0.0224887,1896,778,55.7283,3.08149
679,246,55.6761,-2.06934,-0.000128365,0.000317139,-0.000577057,0.000712944,-0.00052417,-0.969594,0.000717015,0.0227941,1903,778,55.6761,2.06932
686,246,55.5693,-1.05072,0.00013778,0.000459934,-0.000654336,0.000972727,-0.000375013,-0.906083,0.000803221,0.0230459,1910,778,55.5693,1.05074
693,246,55.5243,-0.116699,0.000384949,0.000637944,-0.000699466,0.00122226,-0.000199366,-0.874856,0.000888779,0.019008,1917,778,55.5243,0.116712
700,246,55.4825,0.807312,0.000747976,0.000901872,-0.000707498,0.00153659,0.000113253,-0.839565,0.00098881,0.0162831,1924,778,55.4825,-0.807301
707,246,55.3982,1.8114,0.00115793,0.00122974,-0.00071265,0.00190739,0.000480281,-0.810565,0.00114557,0.0149113,1931,778,55.3982,-1.81137
714,246,55.2977,2.81213,0.00153423,0.00149975,-0.000743571,0.00226076,0.000773217,-0.773808,0.00132679,0.0153667,1938,778,55.2978,-2.81212
721,246,55.1847,3.70844,0.00219129,0.0018779,-0.000621742,0.00267578,0.00139341,-0.661957,0.00154531,0.0206327,1945,778,55.1847,-3.70842
728,246,55.3202,4.75659,0.0032061,0.00209703,-0.000316851,0.00329024,0.00201289,-0.259555,0.00191538,0.0402196,1952,778,55.3202,-4.75657
735,246,55.5476,5.84406,0,0,0,0,0,0,0,-1,1959,778,55.5477,-5.84406
742,246,31.7356,6.70013,0,0,0,0,0,0,0,-1,1966,778,31.7356,-6.70011
749,246,32.3883,7.69324,0,0,0,0,0,0,0,-1,1973,778,32.3883,-7.69322
756,246,33.6919,3.45264,0,0,0,0,0,0,0,-1,1980,778,33.6919,-3.45262
763,246,0,0,0,0,0,0,0,0,0,-1,1987,778,0,0
770,246,0,0,0,0,0,0,0,0,0,-1,1994,778,0,0
777,246,0,0,0,0,0,0,0,0,0,-1,2001,778,0,0
784,246,0,0,0,0,0,0,0,0,0,-1,2008,778,0,0
791,246,0,0,0,0,0,0,0,0,0,-1,2015,778,0,0
798,246,0,0,0,0,0,0,0,0,0,-1,2022,778,0,0
805,246,0,0,0,0,0,0,0,0,0,-1,2029,778,0,0
812,246,0,0,0,0,0,0,0,0,0,-1,2036,778,0,0
-700,239,0,0,0,0,0,0,0,0,0,-1,524,785,0,0
-693,239,0,0,0,0,0,0,0,0,0,-1,531,785,0,0
-686,239,0,0,0,0,0,0,0,0,0,-1,538,785,0,0
-679,239,0,0,0,0,0,0,0,0,0,-1,545,785,0,0
-672,239,0,0,0,0,0,0,0,0,0,-1,552,785,0,0
-665,239,0,0,0,0,0,0,0,0,0,-1,559,785,0,0
-658,239,0,0,0,0,0,0,0,0,0,-1,566,785,0,0
-651,239,0,0,0,0,0,0,0,0,0,-1,573,785,0,0
-644,239,0,0,0,0,0,0,0,0,0,-1,580,785,0,0
-637,239,-23.2709,0.465088,0,0,0,0,0,0,0,-1,587,785,-23.271,-0.465116
-630,239,-23.4006,0.956299,0,0,0,0,0,0,0,-1,594,785,-23.4005,-0.956285
-623,239,-30.6328,2.52185,0,0,0,0,0,0,0,-1,601,785,-30.6328,-2.52183
-616,239,-29.1425,1.42139,0,0,0,0,0,0,0,-1,608,785,-29.1425,-1.42139
-609,239,-27.8569,0.322937,0,0,0,0,0,0,0,-1,615,785,-27.857,-0.322963
-602,239,-39.1626,6.22015,0,0,0,0,0,0,0,-1,622,785,-39.1626,-6.22013
-595,239,-39.4653,4.6496,0.000333582,-0.0084815,-0.015487,0.012028,-0.0201759,-0.646765,0.0187903,0.0415255,629,785,-39.4653,-4.64962
-588,239,-39.7843,3.10406,0.000922009,-0.00508734,-0.0113788,0.00968617,-0.0138515,-0.656315,0.0136602,0.0212747,636,785,-39.7843,-3.10407
-581,239,-39.9645,1.96899,0.00101973,-0.00271395,-0.00797611,0.00734456,-0.00903878,-0.67044,0.00947577,0.0118224,643,785,-39.9645,-1.96902
-574,239,-39.9873,0.926331,0.000935303,-0.00106191,-0.0049304,0.00496721,-0.00509382,-0.685479,0.00580889,0.0129784,650,785,-39.9873,-0.926356
-567,239,-40.0399,-0.0515137,0.000603917,7.42918e-05,-0.00243106,0.00278455,-0.00210634,-0.731148,0.00283279,0.0194699,657,785,-40.0399,0.0515329
-560,239,-40.1564,-0.9776,0.000156881,0.000819474,-0.000396913,0.00100519,-2.88312e-05,-1.13316,0.000679938,0.0198674,664,785,-40.1564,0.977626
-553,239,-40.2249,-1.90649,-0.000528043,0.00120368,0.00107449,0.00171777,-0.00104213,1.12454,0.00160926,0.015081,671,785,-40.2249,1.9065
-546,239,-40.2611,-2.88635,-0.00137125,0.00112577,0.001963,0.00220366,-0.00244914,1.06864,0.00268754,0.0182483,678,785,-40.2611,2.88634
-539,239,-40.4579,-3.91425,-0.00203399,0.000261576,0.00201982,0.00143696,-0.00320937,1.04377,0.00274685,0.0410044,685,785,-40.4579,3.91427
-532,239,-40.8502,-4.87622,-0.00204541,-0.000551858,0.00171868,0.000575276,-0.00317254,0.990345,0.00233058,0.0405252,692,785,-40.8502,4.87624
-525,239,-40.6288,-5.58417,0,0,0,0,0,0,0,-1,699,785,-40.6288,5.58416
-518,239,-40.5128,-6.22827,0,0,0,0,0,0,0,-1,706,785,-40.5128,6.22828
-511,239,-20.9849,-2.09235,0,0,0,0,0,0,0,-1,713,785,-20.9848,2.09234
-504,239,-25.5015,2.00421,0,0,0,0,0,0,0,-1,720,785,-25.5015,-2.00422
-497,239,-40.2453,1.4447,0,0,0,0,0,0,0,-1,727,785,-40.2453,-1.4447
-490,239,-55.7633,-0.30426,0,0,0,0,0,0,0,-1,734,785,-55.7633,0.304271
-483,239,-64.0719,0.404175,0,0,0,0,0,0,0,-1,741,785,-64.0719,-0.404166
-476,239,-63.7786,0.585266,-0.0115337,-0.00350435,0.000541932,-0.00346794,-0.0115701,1.50371,0.00685626,0.0416304,748,785,-63.7786,-0.585287
-469,239,-63.7253,0.687012,-0.0151138,-0.00440783,0.000533933,-0.00438127,-0.0151403,1.52109,0.00899609,0.0412398,755,785,-63.7253,-0.68702
-462,239,-63.8544,0.670532,-0.0199794,-0.00579168,0.000101488,-0.00579095,-0.0199802,1.56364,0.0118704,0.046085,762,785,-63.8544,-0.670536
-455,239,0,0,0,0,0,0,0,0,0,-1,769,785,0,0
-448,239,0,0,0,0,0,0,0,0,0,-1,776,785,0,0
-441,239,0,0,0,0,0,0,0,0,0,-1,783,785,0,0
-434,239,0,0,0,0,0,0,0,0,0,-1,790,785,0,0
-427,239,0,0,0,0,0,0,0,0,0,-1,797,785,0,0
-420,239,0,0,0,0,0,0,0,0,0,-1,804,785,0,0
-413,239,0,0,0,0,0,0,0,0,0,-1,811,785,0,0
-406,239,0,0,0,0,0,0,0,0,0,-1,818,785,0,0
-399,239,0,0,0,0,0,0,0,0,0,-1,825,785,0,0
-392,239,0,0,0,0,0,0,0,0,0,-1,832,785,0,0
-385,239,0,0,0,0,0,0,0,0,0,-1,839,785,0,0
-378,239,0,0,0,0,0,0,0,0,0,-1,846,785,0,0
-371,239,0,0,0,0,0,0,0,0,0,-1,853,785,0,0
-364,239,0,0,0,0,0,0,0,0,0,-1,860,785,0,0
-357,239,0,0,0,0,0,0,0,0,0,-1,867,785,0,0
-350,239,0,0,0,0,0,0,0,0,0,-1,874,785,0,0
-343,239,0,0,0,0,0,0,0,0,0,-1,881,785,0,0
-336,239,0,0,0,0,0,0,0,0,0,-1,888,785,0,0
-329,239,0,0,0,0,0,0,0,0,0,-1,895,785,0,0
-322,239,0,0,0,0,0,0,0,0,0,-1,902,785,0,0
-315,239,0,0,0,0,0,0,0,0,0,-1,909,785,0,0
-308,239,0,0,0,0,0,0,0,0,0,-1,916,785,0,0
-301,239,0,0,0,0,0,0,0,0,0,-1,923,785,0,0
-294,239,0,0,0,0,0,0,0,0,0,-1,930,785,0,0
-287,239,0,0,0,0,0,0,0,0,0,-1,937,785,0,0
-280,239,0,0,0,0,0,0,0,0,0,-1,944,785,0,0
-273,239,0,0,0,0,0,0,0,0,0,-1,951,785,0,0
-266,239,0,0,0,0,0,0,0,0,0,-1,958,785,0,0
-259,239,0,0,0,0,0,0,0,0,0,-1,965,785,0,0
-252,239,0,0,0,0,0,0,0,0,0,-1,972,785,0,0
-245,239,0,0,0,0,0,0,0,0,0,-1,979,785,0,0
-238,239,0,0,0,0,0,0,0,0,0,-1,986,785,0,0
-231,239,0,0,0,0,0,0,0,0,0,-1,993,785,0,0
-224,239,0,0,0,0,0,0,0,0,0,-1,1000,785,0,0
-217,239,0,0,0,0,0,0,0,0,0,-1,1007,785,0,0
-210,239,0,0,0,0,0,0,0,0,0,-1,1014,785,0,0
-203,239,0,0,0,0,0,0,0,0,0,-1,1021,785,0,0
-196,239,0,0,0,0,0,0,0,0,0,-1,1028,785,0,0
-189,239,0,0,0,0,0,0,0,0,0,-1,1035,785,0,0
-182,239,0,0,0,0,0,0,0,0,0,-1,1042,785,0,0
-175,239,0,0,0,0,0,0,0,0,0,-1,1049,785,0,0
-168,239,0,0,0,0,0,0,0,0,0,-1,1056,785,0,0
-161,239,0,0,0,0,0,0,0,0,0,-1,1063,785,0,0
-154,239,0,0,0,0,0,0,0,0,0,-1,1070,785,0,0
-147,239,0,0,0,0,0,0,0,0,0,-1,1077,785,0,0
-140,239,0,0,0,0,0,0,0,0,0,-1,1084,785,0,0
-133,239,0,0,0,0,0,0,0,0,0,-1,1091,785,0,0
-126,239,0,0,0,0,0,0,0,0,0,-1,1098,785,0,0
-119,239,0,0,0,0,0,0,0,0,0,-1,1105,785,0,0
-112,239,0,0,0,0,0,0,0,0,0,-1,1112,785,0,0
-105,239,0,0,0,0,0,0,0,0,0,-1,1119,785,0,0
-98,239,0,0,0,0,0,0,0,0,0,-1,1126,785,0,0
-91,239,0,0,0,0,0,0,0,0,0,-1,1133,785,0,0
-84,239,0,0,0,0,0,0,0,0,0,-1,1140,785,0,0
-77,239,0,0,0,0,0,0,0,0,0,-1,1147,785,0,0
-70,239,0,0,0,0,0,0,0,0,0,-1,1154,785,0,0
-63,239,0,0,0,0,0,0,0,0,0,-1,1161,785,0,0
-56,239,0,0,0,0,0,0,0,0,0,-1,1168,785,0,0
-49,239,0,0,0,0,0,0,0,0,0,-1,1175,785,0,0
-42,239,0,0,0,0,0,0,0,0,0,-1,1182,785,0,0
-35,239,0,0,0,0,0,0,0,0,0,-1,1189,785,0,0
-28,239,0,0,0,0,0,0,0,0,0,-1,1196,785,0,0
-21,239,0,0,0,0,0,0,0,0,0,-1,1203,785,0,0
-14,239,0,0,0,0,0,0,0,0,0,-1,1210,785,0,0
-7,239,0,0,0,0,0,0,0,0,0,-1,1217,785,0,0
0,239,0,0,0,0,0,0,0,0,0,-1,1224,785,0,0
7,239,0,0,0,0,0,0,0,0,0,-1,1231,785,0,0
14,239,0,0,0,0,0,0,0,0,0,-1,1238,785,0,0
21,239,0,0,0,0,0,0,0,0,0,-1,1245,785,0,0
28,239,0,0,0,0,0,0,0,0,0,-1,1252,785,0,0
35,239,0,0,0,0,0,0,0,0,0,-1,1259,785,0,0
42,239,0,0,0,0,0,0,0,0,0,-1,1266,785,0,0
49,239,0,0,0,0,0,0,0,0,0,-1,1273,785,0,0
56,239,0,0,0,0,0,0,0,0,0,-1,1280,785,0,0
63,239,0,0,0,0,0,0,0,0,0,-1,1287,785,0,0
70,239,0,0,0,0,0,0,0,0,0,-1,1294,785,0,0
77,239,0,0,0,0,0,0,0,0,0,-1,1301,785,0,0
84,239,0,0,0,0,0,0,0,0,0,-1,1308,785,0,0
91,239,0,0,0,0,0,0,0,0,0,-1,1315,785,0,0
98,239,0,0,0,0,0,0,0,0,0,-1,1322,785,0,0
105,239,0,0,0,0,0,0,0,0,0,-1,1329,785,0,0
112,239,0,0,0,0,0,0,0,0,0,-1,1336,785,0,0
119,239,0,0,0,0,0,0,0,0,0,-1,1343,785,0,0
126,239,0,0,0,0,0,0,0,0,0,-1,1350,785,0,0
133,239,0,0,0,0,0,0,0,0,0,-1,1357,785,0,0
140,239,0,0,0,0,0,0,0,0,0,-1,1364,785,0,0
147,239,0,0,0,0,0,0,0,0,0,-1,1371,785,0,0
154,239,0,0,0,0,0,0,0,0,0,-1,1378,785,0,0
161,239,0,0,0,0,0,0,0,0,0,-1,1385,785,0,0
168,239,0,0,0,0,0,0,0,0,0,-1,1392,785,0,0
175,239,0,0,0,0,0,0,0,0,0,-1,1399,785,0,0
182,239,0,0,0,0,0,0,0,0,0,-1,1406,785,0,0
189,239,0,0,0,0,0,0,0,0,0,-1,1413,785,0,0
196,239,0,0,0,0,0,0,0,0,0,-1,1420,785,0,0
203,239,0,0,0,0,0,0,0,0,0,-1,1427,785,0,0
210,239,0,0,0,0,0,0,0,0,0,-1,1434,785,0,0
217,239,0,0,0,0,0,0,0,0,0,-1,1441,785,0,0
224,239,0,0,0,0,0,0,0,0,0,-1,1448,785,0,0
231,239,0,0,0,0,0,0,0,0,0,-1,1455,785,0,0
238,239,0,0,0,0,0,0,0,0,0,-1,1462,785,0,0
245,239,0,0,0,0,0,0,0,0,0,-1,1469,785,0,0
252,239,0,0,0,0,0,0,0,0,0,-1,1476,785,0,0
259,239,0,0,0,0,0,0,0,0,0,-1,1483,785,0,0
266,239,0,0,0,0,0,0,0,0,0,-1,1490,785,0,0
273,239,0,0,0,0,0,0,0,0,0,-1,1497,785,0,0
280,239,0,0,0,0,0,0,0,0,0,-1,1504,785,0,0
287,239,0,0,0,0,0,0,0,0,0,-1,1511,785,0,0
294,239,0,0,0,0,0,0,0,0,0,-1,1518,785,0,0
301,239,0,0,0,0,0,0,0,0,0,-1,1525,785,0,0
308,239,0,0,0,0,0,0,0,0,0,-1,1532,785,0,0
315,239,0,0,0,0,0,0,0,0,0,-1,1539,785,0,0
322,239,0,0,0,0,0,0,0,0,0,-1,1546,785,0,0
329,239,0,0,0,0,0,0,0,0,0,-1,1553,785,0,0
336,239,0,0,0,0,0,0,0,0,0,-1,1560,785,0,0
343,239,0,0,0,0,0,0,0,0,0,-1,1567,785,0,0
350,239,0,0,0,0,0,0,0,0,0,-1,1574,785,0,0
357,239,0,0,0,0,0,0,0,0,0,-1,1581,785,0,0
364,239,0,0,0,0,0,0,0,0,0,-1,1588,785,0,0
371,239,0,0,0,0,0,0,0,0,0,-1,1595,785,0,0
378,239,0,0,0,0,0,0,0,0,0,-1,1602,785,0,0
385,239,0,0,0,0,0,0,0,0,0,-1,1609,785,0,0
392,239,0,0,0,0,0,0,0,0,0,-1,1616,785,0,0
399,239,0,0,0,0,0,0,0,0,0,-1,1623,785,0,0
406,239,0,0,0,0,0,0,0,0,0,-1,1630,785,0,0
413,239,0,0,0,0,0,0,0,0,0,-1,1637,785,0,0
420,239,0,0,0,0,0,0,0,0,0,-1,1644,785,0,0
427,239,0,0,0,0,0,0,0,0,0,-1,1651,785,0,0
434,239,0,0,0,0,0,0,0,0,0,-1,1658,785,0,0
441,239,0,0,0,0,0,0,0,0,0,-1,1665,785,0,0
448,239,0,0,0,0,0,0,0,0,0,-1,1672,785,0,0
455,239,0,0,0,0,0,0,0,0,0,-1,1679,785,0,0
462,239,0,0,0,0,0,0,0,0,0,-1,1686,785,0,0
469,239,0,0,0,0,0,0,0,0,0,-1,1693,785,0,0
476,239,0,0,0,0,0,0,0,0,0,-1,1700,785,0,0
483,239,0,0,0,0,0,0,0,0,0,-1,1707,785,0,0
490,239,0,0,0,0,0,0,0,0,0,-1,1714,785,0,0
497,239,0,0,0,0,0,0,0,0,0,-1,1721,785,0,0
504,239,0,0,0,0,0,0,0,0,0,-1,1728,785,0,0
511,239,0,0,0,0,0,0,0,0,0,-1,1735,785,0,0
518,239,0,0,0,0,0,0,0,0,0,-1,1742,785,0,0
525,239,0,0,0,0,0,0,0,0,0,-1,1749,785,0,0
532,239,0,0,0,0,0,0,0,0,0,-1,1756,785,0,0
539,239,0,0,0,0,0,0,0,0,0,-1,1763,785,0,0
546,239,0,0,0,0,0,0,0,0,0,-1,1770,785,0,0
553,239,0,0,0,0,0,0,0,0,0,-1,1777,785,0,0
560,239,0,0,0,0,0,0,0,0,0,-1,1784,785,0,0
567,239,0,0,0,0,0,0,0,0,0,-1,1791,785,0,0
574,239,0,0,0,0,0,0,0,0,0,-1,1798,785,0,0
581,239,80.1135,2.46667,0.0161534,-0.00223619,-0.00578211,0.0178203,-0.00390312,-0.28068,0.0133725,0.0339225,1805,785,80.1135,-2.46669
588,239,80.0869,2.49054,0.0155663,-0.00239152,-0.00308125,0.0160803,-0.0029055,-0.165286,0.0118085,0.0341112,1812,785,80.087,-2.49053
595,239,80.2571,2.34155,0.013688,-0.00175356,-0.00151878,0.013836,-0.00190152,-0.0971166,0.00991877,0.0337745,1819,785,80.2571,-2.34157
602,239,80.4266,2.2478,0.0111426,-0.000989937,-0.000810495,0.0111965,-0.00104384,-0.0664103,0.00783547,0.0452866,1826,785,80.4267,-2.24781
609,239,80.1416,2.57904,0,0,0,0,0,0,0,-1,1833,785,80.1416,-2.57904
616,239,55.8469,3.72443,0,0,0,0,0,0,0,-1,1840,785,55.8469,-3.72445
623,239,65.0618,2.66516,0,0,0,0,0,0,0,-1,1847,785,65.0617,-2.66519
630,239,54.5767,3.64667,0,0,0,0,0,0,0,-1,1854,785,54.5766,-3.64667
637,239,39.5542,2.54114,0,0,0,0,0,0,0,-1,1861,785,39.5543,-2.54114
644,239,18.3466,0.735413,0,0,0,0,0,0,0,-1,1868,785,18.3465,-0.735414
651,239,34.2471,-2.15778,0,0,0,0,0,0,0,-1,1875,785,34.2471,2.1578
658,239,56.5092,-5.20074,0,0,0,0,0,0,0,-1,1882,785,56.5092,5.20074
665,239,56.7061,-4.02881,-0.00116783,0.00083417,-3.87022e-05,0.000834918,-0.00116858,-1.55147,0.00116206,0.0440284,1889,785,56.7061,4.02882
672,239,56.7272,-2.95844,-0.000790793,0.000531519,-0.000218049,0.000566548,-0.000825821,-1.41151,0.000808517,0.0250689,1896,785,56.7271,2.95842
679,239,56.6353,-1.94293,-0.000360789,0.000287998,-0.000477828,0.000541143,-0.000613934,-1.08361,0.000667325,0.024641,1903,785,56.6353,1.94295
686,239,56.5249,-0.9104,-5.24507e-05,0.000325978,-0.000697686,0.000859653,-0.000586125,-0.917814,0.000839685,0.0254356,1910,785,56.5249,0.91038
693,239,56.4977,-0.0506592,0.000189565,0.000477583,-0.000794639,0.00114116,-0.000474009,-0.875038,0.000958666,0.0173289,1917,785,56.4976,0.0506694
700,239,56.4624,0.903503,0.000544816,0.000692341,-0.0008053,0.00142725,-0.000190093,-0.831069,0.00102078,0.0126406,1924,785,56.4624,-0.903477
707,239,56.391,1.89197,0.000975835,0.000983732,-0.000761741,0.00174153,0.000218033,-0.78799,0.0010956,0.0119954,1931,785,56.391,-1.89195
714,239,56.3114,2.84259,0.0014192,0.00126383,-0.000694381,0.00204023,0.000642802,-0.729691,0.00120448,0.0107267,1938,785,56.3114,-2.84262
721,239,56.2106,3.78638,0.00208544,0.00160076,-0.000450643,0.00235477,0.00133143,-0.538698,0.0013634,0.0224348,1945,785,56.2106,-3.78638
728,239,56.1064,4.6958,0.00306677,0.00182475,3.02014e-05,0.00306751,0.00182402,0.0242972,0.00178157,0.0424543,1952,785,56.1064,-4.69578
735,239,56.2365,5.6944,0,0,0,0,0,0,0,-1,1959,785,56.2364,-5.69438
742,239,32.4141,7.6665,0,0,0,0,0,0,0,-1,1966,785,32.4141,-7.6665
749,239,32.1489,3.4411,0,0,0,0,0,0,0,-1,1973,785,32.149,-3.44109
756,239,32.9064,3.6687,0,0,0,0,0,0,0,-1,1980,785,32.9063,-3.66873
763,239,0,0,0,0,0,0,0,0,0,-1,1987,785,0,0
770,239,0,0,0,0,0,0,0,0,0,-1,1994,785,0,0
777,239,0,0,0,0,0,0,0,0,0,-1,2001,785,0,0
784,239,0,0,0,0,0,0,0,0,0,-1,2008,785,0,0
791,239,0,0,0,0,0,0,0,0,0,-1,2015,785,0,0
798,239,0,0,0,0,0,0,0,0,0,-1,2022,785,0,0
805,239,0,0,0,0,0,0,0,0,0,-1,2029,785,0,0
812,239,0,0,0,0,0,0,0,0,0,-1,2036,785,0,0
-700,232,0,0,0,0,0,0,0,0,0,-1,524,792,0,0
-693,232,0,0,0,0,0,0,0,0,0,-1,531,792,0,0
-686,232,0,0,0,0,0,0,0,0,0,-1,538,792,0,0
-679,232,0,0,0,0,0,0,0,0,0,-1,545,792,0,0
-672,232,0,0,0,0,0,0,0,0,0,-1,552,792,0,0
-665,232,0,0,0,0,0,0,0,0,0,-1,559,792,0,0
-658,232,0,0,0,0,0,0,0,0,0,-1,566,792,0,0
-651,232,0,0,0,0,0,0,0,0,0,-1,573,792,0,0
-644,232,-41.2348,4.28168,0,0,0,0,0,0,0,-1,580,792,-41.2348,-4.28166
-637,232,-42.1427,3.51453,0,0,0,0,0,0,0,-1,587,792,-42.1427,-3.51452
-630,232,-32.2345,1.80212,0,0,0,0,0,0,0,-1,594,792,-32.2345,-1.80211
-623,232,-31.5665,1.05115,0,0,0,0,0,0,0,-1,601,792,-31.5664,-1.05112
-616,232,-30.6812,0.432861,0,0,0,0,0,0,0,-1,608,792,-30.6812,-0.432881
-609,232,-29.7142,-0.478943,0,0,0,0,0,0,0,-1,615,792,-29.7142,0.478965
-602,232,-40.6453,5.86676,0,0,0,0,0,0,0,-1,622,792,-40.6453,-5.86679
-595,232,-40.6993,4.49854,-0.00153247,-0.00579564,-0.0123995,0.00891734,-0.0162455,-0.700276,0.0147317,0.0386467,629,792,-40.6993,-4.49857
-588,232,-40.8206,3.11414,-0.000151093,-0.00337017,-0.00916544,0.00754506,-0.0110663,-0.69848,0.0108092,0.0142926,636,792,-40.8206,-3.11412
-581,232,-40.8978,2.0257,0.000521915,-0.00157891,-0.00632342,0.00588157,-0.00693857,-0.703092,0.00741009,0.00864984,643,792,-40.8978,-2.0257
-574,232,-40.9651,1.04419,0.000824681,-0.000256573,-0.00370998,0.00403322,-0.00346511,-0.713046,0.0043333,0.00847449,650,792,-40.9652,-1.04418
-567,232,-41.044,0.0713501,0.000799516,0.000684841,-0.00147291,0.0022162,-0.000731846,-0.765944,0.00177251,0.0115801,657,792,-41.044,-0.0713738
-560,232,-41.1494,-0.898315,0.000511283,0.00138787,0.000442514,0.00157241,0.000326744,1.1757,0.000958112,0.0167472,664,792,-41.1494,0.898342
-553,232,-41.2577,-1.86798,-0.000163844,0.00165985,0.00175609,0.00272673,-0.00123072,1.02486,0.00233861,0.0166211,671,792,-41.2577,1.86799
-546,232,-41.2321,-2.79645,-0.00105099,0.00139451,0.00238257,0.00284978,-0.00250625,1.02248,0.00309442,0.0420501,678,792,-41.2321,2.79646
-539,232,-41.5373,-3.83356,0,0,0,0,0,0,0,-1,685,792,-41.5373,3.83355
-532,232,-42.0667,-4.5351,0,0,0,0,0,0,0,-1,692,792,-42.0667,4.53507
-525,232,-41.7694,-5.81165,0,0,0,0,0,0,0,-1,699,792,-41.7694,5.81167
-518,232,-20.8098,-3.08154,0,0,0,0,0,0,0,-1,706,792,-20.8098,3.08155
-511,232,-21.6708,-0.962708,0,0,0,0,0,0,0,-1,713,792,-21.6708,0.962731
-504,232,-34.2155,0.346985,0,0,0,0,0,0,0,-1,720,792,-34.2155,-0.346955
-497,232,-52.7195,0.518677,0,0,0,0,0,0,0,-1,727,792,-52.7195,-0.518678
-490,232,-63.7567,0.412659,0,0,0,0,0,0,0,-1,734,792,-63.7567,-0.41263
-483,232,-63.9612,0.437317,-0.0071706,-0.00333955,0.00048394,-0.00327936,-0.00723079,1.44707,0.0041807,0.0419775,741,792,-63.9612,-0.437345
-476,232,-63.8677,0.492004,-0.00919673,-0.00378177,0.000523736,-0.00373158,-0.00924692,1.47526,0.00537172,0.0346033,748,792,-63.8676,-0.492029
-469,232,-63.9257,0.576294,-0.0116023,-0.00500065,0.00088922,-0.00488298,-0.01172,1.43922,0.00679782,0.0329968,755,792,-63.9257,-0.576307
-462,232,0,0,0,0,0,0,0,0,0,-1,762,792,0,0
-455,232,0,0,0,0,0,0,0,0,0,-1,769,792,0,0
-448,232,0,0,0,0,0,0,0,0,0,-1,776,792,0,0
-441,232,0,0,0,0,0,0,0,0,0,-1,783,792,0,0
-434,232,0,0,0,0,0,0,0,0,0,-1,790,792,0,0
-427,232,0,0,0,0,0,0,0,0,0,-1,797,792,0,0
-420,232,0,0,0,0,0,0,0,0,0,-1,804,792,0,0
-413,232,0,0,0,0,0,0,0,0,0,-1,811,792,0,0
-406,232,0,0,0,0,0,0,0,0,0,-1,818,792,0,0
-399,232,0,0,0,0,0,0,0,0,0,-1,825,792,0,0
-392,232,0,0,0,0,0,0,0,0,0,-1,832,792,0,0
-385,232,0,0,0,0,0,0,0,0,0,-1,839,792,0,0
-378,232,0,0,0,0,0,0,0,0,0,-1,846,792,0,0
-371,232,0,0,0,0,0,0,0,0,0,-1,853,792,0,0
-364,232,0,0,0,0,0,0,0,0,0,-1,860,792,0,0
-357,232,0,0,0,0,0,0,0,0,0,-1,867,792,0,0
-350,232,0,0,0,0,0,0,0,0,0,-1,874,792,0,0
-343,232,0,0,0,0,0,0,0,0,0,-1,881,792,0,0
-336,232,0,0,0,0,0,0,0,0,0,-1,888,792,0,0
-329,232,0,0,0,0,0,0,0,0,0,-1,895,792,0,0
-322,232,0,0,0,0,0,0,0,0,0,-1,902,792,0,0
-315,232,0,0,0,0,0,0,0,0,0,-1,909,792,0,0
-308,232,0,0,0,0,0,0,0,0,0,-1,916,792,0,0
-301,232,0,0,0,0,0,0,0,0,0,-1,923,792,0,0
-294,232,0,0,0,0,0,0,0,0,0,-1,930,792,0,0
-287,232,0,0,0,0,0,0,0,0,0,-1,937,792,0,0
-280,232,0,0,0,0,0,0,0,0,0,-1,944,792,0,0
-273,232,0,0,0,0,0,0,0,0,0,-1,951,792,0,0
-266,232,0,0,0,0,0,0,0,0,0,-1,958,792,0,0
-259,232,0,0,0,0,0,0,0,0,0,-1,965,792,0,0
-252,232,0,0,0,0,0,0,0,0,0,-1,972,792,0,0
-245,232,0,0,0,0,0,0,0,0,0,-1,979,792,0,0
-238,232,0,0,0,0,0,0,0,0,0,-1,986,792,0,0
-231,232,0,0,0,0,0,0,0,0,0,-1,993,792,0,0
-224,232,0,0,0,0,0,0,0,0,0,-1,1000,792,0,0
-217,232,0,0,0,0,0,0,0,0,0,-1,1007,792,0,0
-210,232,0,0,0,0,0,0,0,0,0,-1,1014,792,0,0
-203,232,0,0,0,0,0,0,0,0,0,-1,1021,792,0,0
-196,232,0,0,0,0,0,0,0,0,0,-1,1028,792,0,0
-189,232,0,0,0,0,0,0,0,0,0,-1,1035,792,0,0
-182,232,0,0,0,0,0,0,0,0,0,-1,1042,792,0,0
-175,232,0,0,0,0,0,0,0,0,0,-1,1049,792,0,0
-168,232,0,0,0,0,0,0,0,0,0,-1,1056,792,0,0
-161,232,0,0,0,0,0,0,0,0,0,-1,1063,792,0,0
-154,232,0,0,0,0,0,0,0,0,0,-1,1070,792,0,0
-147,232,0,0,0,0,0,0,0,0,0,-1,1077,792,0,0
-140,232,0,0,0,0,0,0,0,0,0,-1,1084,792,0,0
-133,232,0,0,0,0,0,0,0,0,0,-1,1091,792,0,0
-126,232,0,0,0,0,0,0,0,0,0,-1,1098,792,0,0
-119,232,0,0,0,0,0,0,0,0,0,-1,1105,792,0,0
-112,232,0,0,0,0,0,0,0,0,0,-1,1112,792,0,0
-105,232,0,0,0,0,0,0,0,0,0,-1,1119,792,0,0
-98,232,0,0,0,0,0,0,0,0,0,-1,1126,792,0,0
-91,232,0,0,0,0,0,0,0,0,0,-1,1133,792,0,0
-84,232,0,0,0,0,0,0,0,0,0,-1,1140,792,0,0
-77,232,0,0,0,0,0,0,0,0,0,-1,1147,792,0,0
-70,232,0,0,0,0,0,0,0,0,0,-1,1154,792,0,0
-63,232,0,0,0,0,0,0,0,0,0,-1,1161,792,0,0
-56,232,0,0,0,0,0,0,0,0,0,-1,1168,792,0,0
-49,232,0,0,0,0,0,0,0,0,0,-1,1175,792,0,0
-42,232,0,0,0,0,0,0,0,0,0,-1,1182,792,0,0
-35,232,0,0,0,0,0,0,0,0,0,-1,1189,792,0,0
-28,232,0,0,0,0,0,0,0,0,0,-1,1196,792,0,0
-21,232,0,0,0,0,0,0,0,0,0,-1,1203,792,0,0
-14,232,0,0,0,0,0,0,0,0,0,-1,1210,792,0,0
-7,232,0,0,0,0,0,0,0,0,0,-1,1217,792,0,0
0,232,0,0,0,0,0,0,0,0,0,-1,1224,792,0,0
7,232,0,0,0,0,0,0,0,0,0,-1,1231,792,0,0
14,232,0,0,0,0,0,0,0,0,0,-1,1238,792,0,0
21,232,0,0,0,0,0,0,0,0,0,-1,1245,792,0,0
28,232,0,0,0,0,0,0,0,0,0,-1,1252,792,0,0
35,232,0,0,0,0,0,0,0,0,0,-1,1259,792,0,0
42,232,0,0,0,0,0,0,0,0,0,-1,1266,792,0,0
49,232,0,0,0,0,0,0,0,0,0,-1,1273,792,0,0
56,232,0,0,0,0,0,0,0,0,0,-1,1280,792,0,0
63,232,0,0,0,0,0,0,0,0,0,-1,1287,792,0,0
70,232,0,0,0,0,0,0,0,0,0,-1,1294,792,0,0
77,232,0,0,0,0,0,0,0,0,0,-1,1301,792,0,0
84,232,0,0,0,0,0,0,0,0,0,-1,1308,792,0,0
91,232,0,0,0,0,0,0,0,0,0,-1,1315,792,0,0
98,232,0,0,0,0,0,0,0,0,0,-1,1322,792,0,0
105,232,0,0,0,0,0,0,0,0,0,-1,1329,792,0,0
112,232,0,0,0,0,0,0,0,0,0,-1,1336,792,0,0
119,232,0,0,0,0,0,0,0,0,0,-1,1343,792,0,0
126,232,0,0,0,0,0,0,0,0,0,-1,1350,792,0,0
133,232,0,0,0,0,0,0,0,0,0,-1,1357,792,0,0
140,232,0,0,0,0,0,0,0,0,0,-1,1364,792,0,0
147,232,0,0,0,0,0,0,0,0,0,-1,1371,792,0,0
154,232,0,0,0,0,0,0,0,0,0,-1,1378,792,0,0
161,232,0,0,0,0,0,0,0,0,0,-1,1385,792,0,0
168,232,0,0,0,0,0,0,0,0,0,-1,1392,792,0,0
175,232,0,0,0,0,0,0,0,0,0,-1,1399,792,0,0
182,232,0,0,0,0,0,0,0,0,0,-1,1406,792,0,0
189,232,0,0,0,0,0,0,0,0,0,-1,1413,792,0,0
196,232,0,0,0,0,0,0,0,0,0,-1,1420,792,0,0
203,232,0,0,0,0,0,0,0,0,0,-1,1427,792,0,0
210,232,0,0,0,0,0,0,0,0,0,-1,1434,792,0,0
217,232,0,0,0,0,0,0,0,0,0,-1,1441,792,0,0
224,232,0,0,0,0,0,0,0,0,0,-1,1448,792,0,0
231,232,0,0,0,0,0,0,0,0,0,-1,1455,792,0,0
238,232,0,0,0,0,0,0,0,0,0,-1,1462,792,0,0
245,232,0,0,0,0,0,0,0,0,0,-1,1469,792,0,0
252,232,0,0,0,0,0,0,0,0,0,-1,1476,792,0,0
259,232,0,0,0,0,0,0,0,0,0,-1,1483,792,0,0
266,232,0,0,0,0,0,0,0,0,0,-1,1490,792,0,0
273,232,0,0,0,0,0,0,0,0,0,-1,1497,792,0,0
280,232,0,0,0,0,0,0,0,0,0,-1,1504,792,0,0
287,232,0,0,0,0,0,0,0,0,0,-1,1511,792,0,0
294,232,0,0,0,0,0,0,0,0,0,-1,1518,792,0,0
301,232,0,0,0,0,0,0,0,0,0,-1,1525,792,0,0
308,232,0,0,0,0,0,0,0,0,0,-1,1532,792,0,0
315,232,0,0,0,0,0,0,0,0,0,-1,1539,792,0,0
322,232,0,0,0,0,0,0,0,0,0,-1,1546,792,0,0
329,232,0,0,0,0,0,0,0,0,0,-1,1553,792,0,0
336,232,0,0,0,0,0,0,0,0,0,-1,1560,792,0,0
343,232,0,0,0,0,0,0,0,0,0,-1,1567,792,0,0
350,232,0,0,0,0,0,0,0,0,0,-1,1574,792,0,0
357,232,0,0,0,0,0,0,0,0,0,-1,1581,792,0,0
364,232,0,0,0,0,0,0,0,0,0,-1,1588,792,0,0
371,232,0,0,0,0,0,0,0,0,0,-1,1595,792,0,0
378,232,0,0,0,0,0,0,0,0,0,-1,1602,792,0,0
385,232,0,0,0,0,0,0,0,0,0,-1,1609,792,0,0
392,232,0,0,0,0,0,0,0,0,0,-1,1616,792,0,0
399,232,0,0,0,0,0,0,0,0,0,-1,1623,792,0,0
406,232,0,0,0,0,0,0,0,0,0,-1,1630,792,0,0
413,232,0,0,0,0,0,0,0,0,0,-1,1637,792,0,0
420,232,0,0,0,0,0,0,0,0,0,-1,1644,792,0,0
427,232,0,0,0,0,0,0,0,0,0,-1,1651,792,0,0
434,232,0,0,0,0,0,0,0,0,0,-1,1658,792,0,0
441,232,0,0,0,0,0,0,0,0,0,-1,1665,792,0,0
448,232,0,0,0,0,0,0,0,0,0,-1,1672,792,0,0
455,232,0,0,0,0,0,0,0,0,0,-1,1679,792,0,0
462,232,0,0,0,0,0,0,0,0,0,-1,1686,792,0,0
469,232,0,0,0,0,0,0,0,0,0,-1,1693,792,0,0
476,232,0,0,0,0,0,0,0,0,0,-1,1700,792,0,0
483,232,0,0,0,0,0,0,0,0,0,-1,1707,792,0,0
490,232,0,0,0,0,0,0,0,0,0,-1,1714,792,0,0
497,232,0,0,0,0,0,0,0,0,0,-1,1721,792,0,0
504,232,0,0,0,0,0,0,0,0,0,-1,1728,792,0,0
511,232,0,0,0,0,0,0,0,0,0,-1,1735,792,0,0
518,232,0,0,0,0,0,0,0,0,0,-1,1742,792,0,0
525,232,0,0,0,0,0,0,0,0,0,-1,1749,792,0,0
532,232,0,0,0,0,0,0,0,0,0,-1,1756,792,0,0
539,232,0,0,0,0,0,0,0,0,0,-1,1763,792,0,0
546,232,0,0,0,0,0,0,0,0,0,-1,1770,792,0,0
553,232,0,0,0,0,0,0,0,0,0,-1,1777,792,0,0
560,232,0,0,0,0,0,0,0,0,0,-1,1784,792,0,0
567,232,0,0,0,0,0,0,0,0,0,-1,1791,792,0,0
574,232,0,0,0,0,0,0,0,0,0,-1,1798,792,0,0
581,232,0,0,0,0,0,0,0,0,0,-1,1805,792,0,0
588,232,80.134,2.45313,0.0128565,-0.00206512,-0.00457158,0.0141457,-0.00335434,-0.27487,0.0107249,0.0350767,1812,792,80.134,-2.45312
595,232,80.194,2.37616,0.011224,-0.00133968,-0.00214412,0.0115798,-0.00169552,-0.164461,0.00834267,0.035228,1819,792,80.194,-2.37614
602,232,80.2178,2.18628,0.00899712,-0.000454274,-0.000900458,0.00908214,-0.000539298,-0.0941439,0.0062423,0.0373332,1826,792,80.2178,-2.1863
609,232,80.1954,2.31726,0.00639598,-7.78399e-06,-0.000485374,0.00643256,-4.43638e-05,-0.0752224,0.00430324,0.0463202,1833,792,80.1954,-2.31726
616,232,80.238,2.32263,0,0,0,0,0,0,0,-1,1840,792,80.238,-2.32262
623,232,74.9668,2.53278,0,0,0,0,0,0,0,-1,1847,792,74.9667,-2.5328
630,232,64.9034,2.97992,0,0,0,0,0,0,0,-1,1854,792,64.9035,-2.9799
637,232,47.0471,4.04309,0,0,0,0,0,0,0,-1,1861,792,47.0471,-4.04309
644,232,30.7756,4.24139,0,0,0,0,0,0,0,-1,1868,792,30.7757,-4.24141
651,232,31.6797,-0.564087,0,0,0,0,0,0,0,-1,1875,792,31.6797,0.564059
658,232,46.7423,-3.10736,0,0,0,0,0,0,0,-1,1882,792,46.7423,3.10735
665,232,57.4945,-3.95782,0,0,0,0,0,0,0,-1,1889,792,57.4945,3.95783
672,232,57.6451,-2.82697,0,0,0,0,0,0,0,-1,1896,792,57.6452,2.82695
679,232,57.5942,-1.84949,-0.000458081,0.000288516,-0.000416196,0.000474298,-0.000643864,-1.15096,0.00064804,0.0228583,1903,792,57.5943,1.84949
686,232,57.5167,-0.858643,-0.000116776,0.000178867,-0.000774843,0.000819862,-0.000757772,-0.879653,0.000911082,0.0208719,1910,792,57.5167,0.858633
693,232,57.4651,0.0120239,0.000108998,0.000309274,-0.000911526,0.00112615,-0.000707874,-0.840107,0.00106801,0.0126226,1917,792,57.4651,-0.011998
700,232,57.4213,0.968384,0.000461101,0.000504492,-0.000920058,0.00140311,-0.000437518,-0.797186,0.00111036,0.0143294,1924,792,57.4213,-0.96837
707,232,57.3722,1.93701,0.000919325,0.00078785,-0.000813356,0.0016696,3.7579e-05,-0.745074,0.00110075,0.014006,1931,792,57.3722,-1.93699
714,232,57.3053,2.87897,0.00144375,0.00110414,-0.00062945,0.0019259,0.000621995,-0.653649,0.00113491,0.0144518,1938,792,57.3054,-2.87896
721,232,57.234,3.85394,0.00216673,0.00145374,-0.000248496,0.00224479,0.00137568,-0.304373,0.00130698,0.0204175,1945,792,57.234,-3.85392
728,232,57.1183,4.65485,0.0032014,0.00174253,0.000405617,0.00330659,0.00163734,0.253747,0.00190909,0.0474664,1952,792,57.1183,-4.65487
735,232,57.2435,5.68762,0,0,0,0,0,0,0,-1,1959,792,57.2435,-5.68765
742,232,25.6461,6.00684,0,0,0,0,0,0,0,-1,1966,792,25.6461,-6.00684
749,232,31.2874,3.74713,0,0,0,0,0,0,0,-1,1973,792,31.2874,-3.74713
756,232,34.9586,15.3984,0,0,0,0,0,0,0,-1,1980,792,34.9586,-15.3984
763,232,35.741,16.6099,0,0,0,0,0,0,0,-1,1987,792,35.741,-16.6099
770,232,0,0,0,0,0,0,0,0,0,-1,1994,792,0,0
777,232,0,0,0,0,0,0,0,0,0,-1,2001,792,0,0
784,232,0,0,0,0,0,0,0,0,0,-1,2008,792,0,0
791,232,0,0,0,0,0,0,0,0,0,-1,2015,792,0,0
798,232,0,0,0,0,0,0,0,0,0,-1,2022,792,0,0
805,232,0,0,0,0,0,0,0,0,0,-1,2029,792,0,0
812,232,0,0,0,0,0,0,0,0,0,-1,2036,792,0,0
-700,225,0,0,0,0,0,0,0,0,0,-1,524,799,0,0
-693,225,0,0,0,0,0,0,0,0,0,-1,531,799,0,0
-686,225,0,0,0,0,0,0,0,0,0,-1,538,799,0,0
-679,225,0,0,0,0,0,0,0,0,0,-1,545,799,0,0
-672,225,0,0,0,0,0,0,0,0,0,-1,552,799,0,0
-665,225,0,0,0,0,0,0,0,0,0,-1,559,799,0,0
-658,225,0,0,0,0,0,0,0,0,0,-1,566,799,0,0
-651,225,0,0,0,0,0,0,0,0,0,-1,573,799,0,0
-644,225,-40.8898,4.14661,0,0,0,0,0,0,0,-1,580,799,-40.8898,-4.14661
-637,225,-41.61,3.36749,0,0,0,0,0,0,0,-1,587,799,-41.61,-3.36751
-630,225,-30.244,4.82196,0,0,0,0,0,0,0,-1,594,799,-30.244,-4.82193
-623,225,-32.8276,-0.00836182,0,0,0,0,0,0,0,-1,601,799,-32.8276,0.00837668
-616,225,-32.0569,-0.549255,0,0,0,0,0,0,0,-1,608,799,-32.0569,0.549265
-609,225,-40.5062,5.94061,0,0,0,0,0,0,0,-1,615,799,-40.5063,-5.94062
-602,225,-41.5992,4.55518,0,0,0,0,0,0,0,-1,622,799,-41.5993,-4.5552
-595,225,-41.8279,4.30139,0,0,0,0,0,0,0,-1,629,799,-41.8279,-4.30138
-588,225,-41.8471,3.05164,-0.00126181,-0.00160538,-0.0066524,0.00522103,-0.00808822,-0.77249,0.0077433,0.0129258,636,799,-41.8471,-3.05166
-581,225,-41.8929,2.09052,7.10704e-05,-0.000368952,-0.00442721,0.00428373,-0.00458161,-0.760571,0.00511937,0.0110655,643,799,-41.8929,-2.09054
-574,225,-41.9549,1.12262,0.000931887,0.000611637,-0.00231549,0.00309278,-0.00154926,-0.750876,0.00272902,0.00857669,650,799,-41.9549,-1.1226
-567,225,-42.0269,0.140564,0.00134303,0.00135323,-0.000360912,0.00170908,0.000987184,-0.792461,0.000990692,0.0123556,657,799,-42.0269,-0.140581
-560,225,-42.1115,-0.810059,0.00135863,0.00183725,0.00138448,0.00300294,0.000192931,0.870979,0.00194085,0.0148864,664,799,-42.1115,0.810065
-553,225,-42.2087,-1.78052,0.000695377,0.00174684,0.00243456,0.00371178,-0.00126957,0.891738,0.00298898,0.0142372,671,799,-42.2087,1.78053
-546,225,-42.1639,-2.63214,-0.000221229,0.001114,0.002743,0.00326946,-0.00237669,0.904771,0.00327336,0.0443192,678,799,-42.1639,2.63216
-539,225,-42.0318,-3.25952,0,0,0,0,0,0,0,-1,685,799,-42.0318,3.25955
-532,225,-43.303,-4.36078,0,0,0,0,0,0,0,-1,692,799,-43.303,4.36081
-525,225,-29.1705,-3.88239,0,0,0,0,0,0,0,-1,699,799,-29.1705,3.88237
-518,225,-21.963,0.171326,0,0,0,0,0,0,0,-1,706,799,-21.9629,-0.171319
-511,225,-33.0002,0.660217,0,0,0,0,0,0,0,-1,713,799,-33.0002,-0.660239
-504,225,-50.4542,0.524109,0,0,0,0,0,0,0,-1,720,799,-50.4542,-0.524105
-497,225,-63.782,0.379578,0,0,0,0,0,0,0,-1,727,799,-63.782,-0.379598
-490,225,-63.7892,0.441406,-0.0043002,-0.0039049,0.000925762,-0.00315592,-0.00504918,0.890569,0.00294537,0.041279,734,799,-63.7892,-0.441419
-483,225,-63.8632,0.473328,-0.00511412,-0.0040991,0.000598404,-0.00382198,-0.00539124,1.13709,0.00320193,0.0355184,741,799,-63.8632,-0.473321
-476,225,-63.8527,0.501892,-0.00618842,-0.00458131,0.000775158,-0.00426837,-0.00650137,1.18709,0.00381439,0.0325405,748,799,-63.8527,-0.501923
-469,225,-63.9193,0.547913,-0.00722703,-0.00597603,0.00135093,-0.00511282,-0.00809024,1.00221,0.00472483,0.0358824,755,799,-63.9193,-0.547913
-462,225,0,0,0,0,0,0,0,0,0,-1,762,799,0,0
-455,225,0,0,0,0,0,0,0,0,0,-1,769,799,0,0
-448,225,0,0,0,0,0,0,0,0,0,-1,776,799,0,0
-441,225,0,0,0,0,0,0,0,0,0,-1,783,799,0,0
-434,225,0,0,0,0,0,0,0,0,0,-1,790,799,0,0
-427,225,0,0,0,0,0,0,0,0,0,-1,797,799,0,0
-420,225,0,0,0,0,0,0,0,0,0,-1,804,799,0,0
-413,225,0,0,0,0,0,0,0,0,0,-1,811,799,0,0
-406,225,0,0,0,0,0,0,0,0,0,-1,818,799,0,0
-399,225,0,0,0,0,0,0,0,0,0,-1,825,799,0,0
-392,225,0,0,0,0,0,0,0,0,0,-1,832,799,0,0
-385,225,0,0,0,0,0,0,0,0,0,-1,839,799,0,0
-378,225,0,0,0,0,0,0,0,0,0,-1,846,799,0,0
-371,225,0,0,0,0,0,0,0,0,0,-1,853,799,0,0
-364,225,0,0,0,0,0,0,0,0,0,-1,860,799,0,0
-357,225,0,0,0,0,0,0,0,0,0,-1,867,799,0,0
-350,225,0,0,0,0,0,0,0,0,0,-1,874,799,0,0
-343,225,0,0,0,0,0,0,0,0,0,-1,881,799,0,0
-336,225,0,0,0,0,0,0,0,0,0,-1,888,799,0,0
-329,225,0,0,0,0,0,0,0,0,0,-1,895,799,0,0
-322,225,0,0,0,0,0,0,0,0,0,-1,902,799,0,0
-315,225,0,0,0,0,0,0,0,0,0,-1,909,799,0,0
-308,225,0,0,0,0,0,0,0,0,0,-1,916,799,0,0
-301,225,0,0,0,0,0,0,0,0,0,-1,923,799,0,0
-294,225,0,0,0,0,0,0,0,0,0,-1,930,799,0,0
-287,225,0,0,0,0,0,0,0,0,0,-1,937,799,0,0
-280,225,0,0,0,0,0,0,0,0,0,-1,944,799,0,0
-273,225,0,0,0,0,0,0,0,0,0,-1,951,799,0,0
-266,225,0,0,0,0,0,0,0,0,0,-1,958,799,0,0
-259,225,0,0,0,0,0,0,0,0,0,-1,965,799,0,0
-252,225,0,0,0,0,0,0,0,0,0,-1,972,799,0,0
-245,225,0,0,0,0,0,0,0,0,0,-1,979,799,0,0
-238,225,0,0,0,0,0,0,0,0,0,-1,986,799,0,0
-231,225,0,0,0,0,0,0,0,0,0,-1,993,799,0,0
-224,225,0,0,0,0,0,0,0,0,0,-1,1000,799,0,0
-217,225,0,0,0,0,0,0,0,0,0,-1,1007,799,0,0
-210,225,0,0,0,0,0,0,0,0,0,-1,1014,799,0,0
-203,225,0,0,0,0,0,0,0,0,0,-1,1021,799,0,0
-196,225,0,0,0,0,0,0,0,0,0,-1,1028,799,0,0
-189,225,0,0,0,0,0,0,0,0,0,-1,1035,799,0,0
-182,225,0,0,0,0,0,0,0,0,0,-1,1042,799,0,0
-175,225,0,0,0,0,0,0,0,0,0,-1,1049,799,0,0
-168,225,0,0,0,0,0,0,0,0,0,-1,1056,799,0,0
-161,225,0,0,0,0,0,0,0,0,0,-1,1063,799,0,0
-154,225,0,0,0,0,0,0,0,0,0,-1,1070,799,0,0
-147,225,0,0,0,0,0,0,0,0,0,-1,1077,799,0,0
-140,225,0,0,0,0,0,0,0,0,0,-1,1084,799,0,0
-133,225,0,0,0,0,0,0,0,0,0,-1,1091,799,0,0
-126,225,0,0,0,0,0,0,0,0,0,-1,1098,799,0,0
-119,225,0,0,0,0,0,0,0,0,0,-1,1105,799,0,0
-112,225,0,0,0,0,0,0,0,0,0,-1,1112,799,0,0
-105,225,0,0,0,0,0,0,0,0,0,-1,1119,799,0,0
-98,225,0,0,0,0,0,0,0,0,0,-1,1126,799,0,0
-91,225,0,0,0,0,0,0,0,0,0,-1,1133,799,0,0
-84,225,0,0,0,0,0,0,0,0,0,-1,1140,799,0,0
-77,225,0,0,0,0,0,0,0,0,0,-1,1147,799,0,0
-70,225,0,0,0,0,0,0,0,0,0,-1,1154,799,0,0
-63,225,0,0,0,0,0,0,0,0,0,-1,1161,799,0,0
-56,225,0,0,0,0,0,0,0,0,0,-1,1168,799,0,0
-49,225,0,0,0,0,0,0,0,0,0,-1,1175,799,0,0
-42,225,0,0,0,0,0,0,0,0,0,-1,1182,799,0,0
-35,225,0,0,0,0,0,0,0,0,0,-1,1189,799,0,0
-28,225,0,0,0,0,0,0,0,0,0,-1,1196,799,0,0
-21,225,0,0,0,0,0,0,0,0,0,-1,1203,799,0,0
-14,225,0,0,0,0,0,0,0,0,0,-1,1210,799,0,0
-7,225,0,0,0,0,0,0,0,0,0,-1,1217,799,0,0
0,225,0,0,0,0,0,0,0,0,0,-1,1224,799,0,0
7,225,0,0,0,0,0,0,0,0,0,-1,1231,799,0,0
14,225,0,0,0,0,0,0,0,0,0,-1,1238,799,0,0
21,225,0,0,0,0,0,0,0,0,0,-1,1245,799,0,0
28,225,0,0,0,0,0,0,0,0,0,-1,1252,799,0,0
35,225,0,0,0,0,0,0,0,0,0,-1,1259,799,0,0
42,225,0,0,0,0,0,0,0,0,0,-1,1266,799,0,0
49,225,0,0,0,0,0,0,0,0,0,-1,1273,799,0,0
56,225,0,0,0,0,0,0,0,0,0,-1,1280,799,0,0
63,225,0,0,0,0,0,0,0,0,0,-1,1287,799,0,0
70,225,0,0,0,0,0,0,0,0,0,-1,1294,799,0,0
77,225,0,0,0,0,0,0,0,0,0,-1,1301,799,0,0
84,225,0,0,0,0,0,0,0,0,0,-1,1308,799,0,0
91,225,0,0,0,0,0,0,0,0,0,-1,1315,799,0,0
98,225,0,0,0,0,0,0,0,0,0,-1,1322,799,0,0
105,225,0,0,0,0,0,0,0,0,0,-1,1329,799,0,0
112,225,0,0,0,0,0,0,0,0,0,-1,1336,799,0,0
119,225,0,0,0,0,0,0,0,0,0,-1,1343,799,0,0
126,225,0,0,0,0,0,0,0,0,0,-1,1350,799,0,0
133,225,0,0,0,0,0,0,0,0,0,-1,1357,799,0,0
140,225,0,0,0,0,0,0,0,0,0,-1,1364,799,0,0
147,225,0,0,0,0,0,0,0,0,0,-1,1371,799,0,0
154,225,0,0,0,0,0,0,0,0,0,-1,1378,799,0,0
161,225,0,0,0,0,0,0,0,0,0,-1,1385,799,0,0
168,225,0,0,0,0,0,0,0,0,0,-1,1392,799,0,0
175,225,0,0,0,0,0,0,0,0,0,-1,1399,799,0,0
182,225,0,0,0,0,0,0,0,0,0,-1,1406,799,0,0
189,225,0,0,0,0,0,0,0,0,0,-1,1413,799,0,0
196,225,0,0,0,0,0,0,0,0,0,-1,1420,799,0,0
203,225,0,0,0,0,0,0,0,0,0,-1,1427,799,0,0
210,225,0,0,0,0,0,0,0,0,0,-1,1434,799,0,0
217,225,0,0,0,0,0,0,0,0,0,-1,1441,799,0,0
224,225,0,0,0,0,0,0,0,0,0,-1,1448,799,0,0
231,225,0,0,0,0,0,0,0,0,0,-1,1455,799,0,0
238,225,0,0,0,0,0,0,0,0,0,-1,1462,799,0,0
245,225,0,0,0,0,0,0,0,0,0,-1,1469,799,0,0
252,225,0,0,0,0,0,0,0,0,0,-1,1476,799,0,0
259,225,0,0,0,0,0,0,0,0,0,-1,1483,799,0,0
266,225,0,0,0,0,0,0,0,0,0,-1,1490,799,0,0
273,225,0,0,0,0,0,0,0,0,0,-1,1497,799,0,0
280,225,0,0,0,0,0,0,0,0,0,-1,1504,799,0,0
287,225,0,0,0,0,0,0,0,0,0,-1,1511,799,0,0
294,225,0,0,0,0,0,0,0,0,0,-1,1518,799,0,0
301,225,0,0,0,0,0,0,0,0,0,-1,1525,799,0,0
308,225,0,0,0,0,0,0,0,0,0,-1,1532,799,0,0
315,225,0,0,0,0,0,0,0,0,0,-1,1539,799,0,0
322,225,0,0,0,0,0,0,0,0,0,-1,1546,799,0,0
329,225,0,0,0,0,0,0,0,0,0,-1,1553,799,0,0
336,225,0,0,0,0,0,0,0,0,0,-1,1560,799,0,0
343,225,0,0,0,0,0,0,0,0,0,-1,1567,799,0,0
350,225,0,0,0,0,0,0,0,0,0,-1,1574,799,0,0
357,225,0,0,0,0,0,0,0,0,0,-1,1581,799,0,0
364,225,0,0,0,0,0,0,0,0,0,-1,1588,799,0,0
371,225,0,0,0,0,0,0,0,0,0,-1,1595,799,0,0
378,225,0,0,0,0,0,0,0,0,0,-1,1602,799,0,0
385,225,0,0,0,0,0,0,0,0,0,-1,1609,799,0,0
392,225,0,0,0,0,0,0,0,0,0,-1,1616,799,0,0
399,225,0,0,0,0,0,0,0,0,0,-1,1623,799,0,0
406,225,0,0,0,0,0,0,0,0,0,-1,1630,799,0,0
413,225,0,0,0,0,0,0,0,0,0,-1,1637,799,0,0
420,225,0,0,0,0,0,0,0,0,0,-1,1644,799,0,0
427,225,0,0,0,0,0,0,0,0,0,-1,1651,799,0,0
434,225,0,0,0,0,0,0,0,0,0,-1,1658,799,0,0
441,225,0,0,0,0,0,0,0,0,0,-1,1665,799,0,0
448,225,0,0,0,0,0,0,0,0,0,-1,1672,799,0,0
455,225,0,0,0,0,0,0,0,0,0,-1,1679,799,0,0
462,225,0,0,0,0,0,0,0,0,0,-1,1686,799,0,0
469,225,0,0,0,0,0,0,0,0,0,-1,1693,799,0,0
476,225,0,0,0,0,0,0,0,0,0,-1,1700,799,0,0
483,225,0,0,0,0,0,0,0,0,0,-1,1707,799,0,0
490,225,0,0,0,0,0,0,0,0,0,-1,1714,799,0,0
497,225,0,0,0,0,0,0,0,0,0,-1,1721,799,0,0
504,225,0,0,0,0,0,0,0,0,0,-1,1728,799,0,0
511,225,0,0,0,0,0,0,0,0,0,-1,1735,799,0,0
518,225,0,0,0,0,0,0,0,0,0,-1,1742,799,0,0
525,225,0,0,0,0,0,0,0,0,0,-1,1749,799,0,0
532,225,0,0,0,0,0,0,0,0,0,-1,1756,799,0,0
539,225,0,0,0,0,0,0,0,0,0,-1,1763,799,0,0
546,225,0,0,0,0,0,0,0,0,0,-1,1770,799,0,0
553,225,0,0,0,0,0,0,0,0,0,-1,1777,799,0,0
560,225,0,0,0,0,0,0,0,0,0,-1,1784,799,0,0
567,225,0,0,0,0,0,0,0,0,0,-1,1791,799,0,0
574,225,0,0,0,0,0,0,0,0,0,-1,1798,799,0,0
581,225,0,0,0,0,0,0,0,0,0,-1,1805,799,0,0
588,225,80.1903,2.43073,0.0118719,-0.00209774,-0.00654104,0.0144564,-0.0046823,-0.3763,0.0115201,0.0369406,1812,799,80.1903,-2.43074
595,225,80.1824,2.30884,0.00974995,-0.00138417,-0.00354142,0.0107809,-0.00241512,-0.283284,0.00811303,0.0346351,1819,799,80.1824,-2.30885
602,225,80.2378,2.2597,0.00739433,-0.000429441,-0.00145511,0.00765619,-0.000691306,-0.178057,0.00534947,0.0323761,1826,799,80.2378,-2.25973
609,225,80.2714,2.25049,0.00483747,9.68404e-05,-0.000583282,0.00490818,2.61287e-05,-0.120642,0.00326344,0.0324416,1833,799,80.2714,-2.25047
616,225,80.2031,2.33069,0.00311595,0.000504311,-0.000243449,0.00313845,0.000481811,-0.0921588,0.00195162,0.0395594,1840,799,80.2032,-2.33068
623,225,80.1428,2.39618,0,0,0,0,0,0,0,-1,1847,799,80.1428,-2.39616
630,225,75.2485,2.28778,0,0,0,0,0,0,0,-1,1854,799,75.2485,-2.28778
637,225,55.6359,2.8064,0,0,0,0,0,0,0,-1,1861,799,55.6359,-2.80637
644,225,42.0298,2.46411,0,0,0,0,0,0,0,-1,1868,799,42.0298,-2.4641
651,225,27.9657,0.579529,0,0,0,0,0,0,0,-1,1875,799,27.9657,-0.579541
658,225,47.9047,-1.92926,0,0,0,0,0,0,0,-1,1882,799,47.9047,1.92927
665,225,47.541,-2.27985,0,0,0,0,0,0,0,-1,1889,799,47.5411,2.27983
672,225,58.5657,-3.16022,0,0,0,0,0,0,0,-1,1896,799,58.5656,3.16022
679,225,58.4606,-1.80389,-0.000734561,6.14362e-05,-0.000479954,0.000286943,-0.000960067,-1.13156,0.000754115,0.0480574,1903,799,58.4605,1.8039
686,225,58.4683,-0.856873,-0.000349872,-9.80104e-05,-0.000940902,0.000725351,-0.00117323,-0.851923,0.00110627,0.0145348,1910,799,58.4682,0.856872
693,225,58.4268,0.0767822,-5.3889e-05,7.84035e-05,-0.00110485,0.00111908,-0.00109457,-0.815297,0.00127808,0.0117892,1917,799,58.4268,-0.0768089
700,225,58.3787,1.03412,0.000372388,0.000328454,-0.00108876,0.0014394,-0.000738561,-0.775311,0.00127896,0.013173,1924,799,58.3786,-1.03414
707,225,58.299,1.99091,0.000917047,0.00065933,-0.000885712,0.00168323,-0.000106848,-0.713162,0.00115941,0.0129174,1931,799,58.299,-1.99092
714,225,58.2389,2.94995,0.00159683,0.00105528,-0.000544396,0.00193408,0.000718041,-0.554621,0.00112891,0.0142058,1938,799,58.2389,-2.94995
721,225,58.2318,3.93048,0.00249208,0.00147636,1.56494e-05,0.00249232,0.00147612,0.0154024,0.00144709,0.0168765,1945,799,58.2318,-3.93045
728,225,58.082,4.70819,0.00373549,0.00188476,0.000879062,0.00408647,0.00153378,0.379871,0.00238364,0.0365042,1952,799,58.082,-4.70817
735,225,58.1963,5.76843,0,0,0,0,0,0,0,-1,1959,799,58.1963,-5.76842
742,225,55.3708,6.5321,0,0,0,0,0,0,0,-1,1966,799,55.3709,-6.53213
749,225,29.9529,4.45538,0,0,0,0,0,0,0,-1,1973,799,29.9529,-4.45537
756,225,42.6417,11.3672,0,0,0,0,0,0,0,-1,1980,799,42.6417,-11.3672
763,225,40.6626,12.6185,0,0,0,0,0,0,0,-1,1987,799,40.6625,-12.6184
770,225,0,0,0,0,0,0,0,0,0,-1,1994,799,0,0
777,225,0,0,0,0,0,0,0,0,0,-1,2001,799,0,0
784,225,0,0,0,0,0,0,0,0,0,-1,2008,799,0,0
791,225,0,0,0,0,0,0,0,0,0,-1,2015,799,0,0
798,225,0,0,0,0,0,0,0,0,0,-1,2022,799,0,0
805,225,0,0,0,0,0,0,0,0,0,-1,2029,799,0,0
812,225,0,0,0,0,0,0,0,0,0,-1,2036,799,0,0
-700,218,0,0,0,0,0,0,0,0,0,-1,524,806,0,0
-693,218,0,0,0,0,0,0,0,0,0,-1,531,806,0,0
-686,218,0,0,0,0,0,0,0,0,0,-1,538,806,0,0
-679,218,0,0,0,0,0,0,0,0,0,-1,545,806,0,0
-672,218,0,0,0,0,0,0,0,0,0,-1,552,806,0,0
-665,218,0,0,0,0,0,0,0,0,0,-1,559,806,0,0
-658,218,0,0,0,0,0,0,0,0,0,-1,566,806,0,0
-651,218,-40.3778,5.1792,0,0,0,0,0,0,0,-1,573,806,-40.3778,-5.1792
-644,218,-40.7704,4.19714,0,0,0,0,0,0,0,-1,580,806,-40.7704,-4.19714
-637,218,-41.541,3.36328,0,0,0,0,0,0,0,-1,587,806,-41.541,-3.36326
-630,218,-42.1423,2.85565,0,0,0,0,0,0,0,-1,594,806,-42.1423,-2.85567
-623,218,-42.7292,2.59015,0,0,0,0,0,0,0,-1,601,806,-42.7292,-2.59015
-616,218,-20.0258,1.87585,0,0,0,0,0,0,0,-1,608,806,-20.0258,-1.87585
-609,218,-42.3409,5.71613,0,0,0,0,0,0,0,-1,615,806,-42.341,-5.71611
-602,218,-42.5856,4.82245,-0.00771149,-0.0013439,-0.00697464,0.00313925,-0.0121946,-0.999514,0.00935346,0.0451365,622,806,-42.5856,-4.82246
-595,218,-42.8415,4.04706,-0.00425741,-0.000865429,-0.00581542,0.00349626,-0.0086191,-0.927282,0.00720023,0.01924,629,806,-42.8415,-4.04708
-588,218,-42.8585,3.10858,-0.0016951,-7.2353e-05,-0.00429923,0.0034914,-0.00525885,-0.878664,0.00508619,0.0123648,636,806,-42.8585,-3.1086
-581,218,-42.9026,2.16473,6.53631e-05,0.000725479,-0.00261075,0.00302696,-0.00223611,-0.848276,0.00305005,0.012079,643,806,-42.9026,-2.16476
-574,218,-42.9683,1.20502,0.0013425,0.00141251,-0.00093835,0.00231651,0.000438502,-0.804043,0.00142091,0.0109893,650,806,-42.9683,-1.205
-567,218,-42.9905,0.206909,0.00213509,0.00198653,0.00080856,0.00287278,0.00124885,0.739592,0.0016633,0.0185508,657,806,-42.9904,-0.206902
-560,218,-43.0708,-0.730591,0.00243304,0.00213685,0.00242631,0.00471577,-0.00014588,0.754918,0.00319358,0.01904,664,806,-43.0708,0.73058
-553,218,-43.0146,-1.93121,0.00172259,0.00160631,0.00325204,0.00491701,-0.00158811,0.776461,0.00391622,0.0223858,671,806,-43.0146,1.93124
-546,218,-43.2343,-2.9668,0.00070101,0.000712441,0.00334794,0.00405467,-0.00264121,0.786252,0.00389447,0.0330294,678,806,-43.2343,2.96679
-539,218,-43.405,-3.71313,0.000274796,-0.000389733,0.00289263,0.00285418,-0.00296912,0.728216,0.0033623,0.0360032,685,806,-43.405,3.71314
-532,218,-43.3884,-4.38477,0,0,0,0,0,0,0,-1,692,806,-43.3885,4.38475
-525,218,-29.3521,-3.64417,0,0,0,0,0,0,0,-1,699,806,-29.3521,3.64414
-518,218,-23.61,2.54181,0,0,0,0,0,0,0,-1,706,806,-23.61,-2.54183
-511,218,-41.0953,1.06879,0,0,0,0,0,0,0,-1,713,806,-41.0953,-1.06876
-504,218,-59.1388,0.682068,0,0,0,0,0,0,0,-1,720,806,-59.1388,-0.682072
-497,218,-63.4926,0.725159,0,0,0,0,0,0,0,-1,727,806,-63.4926,-0.725188
-490,218,-63.7662,0.490234,-0.00304174,-0.00485433,0.0012676,-0.00238977,-0.00550629,0.475048,0.00318828,0.0364536,734,806,-63.7662,-0.490229
-483,218,-63.7844,0.543213,-0.00319044,-0.00507397,0.00070367,-0.00295659,-0.00530782,0.320848,0.00307111,0.0335985,741,806,-63.7844,-0.543226
-476,218,-63.7289,0.642456,-0.00299175,-0.00565438,0.000849054,-0.00274405,-0.00590208,0.283859,0.00341036,0.0357262,748,806,-63.7289,-0.642468
-469,218,0,0,0,0,0,0,0,0,0,-1,755,806,0,0
-462,218,0,0,0,0,0,0,0,0,0,-1,762,806,0,0
-455,218,0,0,0,0,0,0,0,0,0,-1,769,806,0,0
-448,218,0,0,0,0,0,0,0,0,0,-1,776,806,0,0
-441,218,0,0,0,0,0,0,0,0,0,-1,783,806,0,0
-434,218,0,0,0,0,0,0,0,0,0,-1,790,806,0,0
-427,218,0,0,0,0,0,0,0,0,0,-1,797,806,0,0
-420,218,0,0,0,0,0,0,0,0,0,-1,804,806,0,0
-413,218,0,0,0,0,0,0,0,0,0,-1,811,806,0,0
-406,218,0,0,0,0,0,0,0,0,0,-1,818,806,0,0
-399,218,0,0,0,0,0,0,0,0,0,-1,825,806,0,0
-392,218,0,0,0,0,0,0,0,0,0,-1,832,806,0,0
-385,218,0,0,0,0,0,0,0,0,0,-1,839,806,0,0
-378,218,0,0,0,0,0,0,0,0,0,-1,846,806,0,0
-371,218,0,0,0,0,0,0,0,0,0,-1,853,806,0,0
-364,218,0,0,0,0,0,0,0,0,0,-1,860,806,0,0
-357,218,0,0,0,0,0,0,0,0,0,-1,867,806,0,0
-350,218,0,0,0,0,0,0,0,0,0,-1,874,806,0,0
-343,218,0,0,0,0,0,0,0,0,0,-1,881,806,0,0
-336,218,0,0,0,0,0,0,0,0,0,-1,888,806,0,0
-329,218,0,0,0,0,0,0,0,0,0,-1,895,806,0,0
-322,218,0,0,0,0,0,0,0,0,0,-1,902,806,0,0
-315,218,0,0,0,0,0,0,0,0,0,-1,909,806,0,0
-308,218,0,0,0,0,0,0,0,0,0,-1,916,806,0,0
-301,218,0,0,0,0,0,0,0,0,0,-1,923,806,0,0
-294,218,0,0,0,0,0,0,0,0,0,-1,930,806,0,0
-287,218,0,0,0,0,0,0,0,0,0,-1,937,806,0,0
-280,218,0,0,0,0,0,0,0,0,0,-1,944,806,0,0
-273,218,0,0,0,0,0,0,0,0,0,-1,951,806,0,0
-266,218,0,0,0,0,0,0,0,0,0,-1,958,806,0,0
-259,218,0,0,0,0,0,0,0,0,0,-1,965,806,0,0
-252,218,0,0,0,0,0,0,0,0,0,-1,972,806,0,0
-245,218,0,0,0,0,0,0,0,0,0,-1,979,806,0,0
-238,218,0,0,0,0,0,0,0,0,0,-1,986,806,0,0
-231,218,0,0,0,0,0,0,0,0,0,-1,993,806,0,0
-224,218,0,0,0,0,0,0,0,0,0,-1,1000,806,0,0
-217,218,0,0,0,0,0,0,0,0,0,-1,1007,806,0,0
-210,218,0,0,0,0,0,0,0,0,0,-1,1014,806,0,0
-203,218,0,0,0,0,0,0,0,0,0,-1,1021,806,0,0
-196,218,0,0,0,0,0,0,0,0,0,-1,1028,806,0,0
-189,218,0,0,0,0,0,0,0,0,0,-1,1035,806,0,0
-182,218,0,0,0,0,0,0,0,0,0,-1,1042,806,0,0
-175,218,0,0,0,0,0,0,0,0,0,-1,1049,806,0,0
-168,218,0,0,0,0,0,0,0,0,0,-1,1056,806,0,0
-161,218,0,0,0,0,0,0,0,0,0,-1,1063,806,0,0
-154,218,0,0,0,0,0,0,0,0,0,-1,1070,806,0,0
-147,218,0,0,0,0,0,0,0,0,0,-1,1077,806,0,0
-140,218,0,0,0,0,0,0,0,0,0,-1,1084,806,0,0
-133,218,0,0,0,0,0,0,0,0,0,-1,1091,806,0,0
-126,218,0,0,0,0,0,0,0,0,0,-1,1098,806,0,0
-119,218,0,0,0,0,0,0,0,0,0,-1,1105,806,0,0
-112,218,0,0,0,0,0,0,0,0,0,-1,1112,806,0,0
-105,218,0,0,0,0,0,0,0,0,0,-1,1119,806,0,0
-98,218,0,0,0,0,0,0,0,0,0,-1,1126,806,0,0
-91,218,0,0,0,0,0,0,0,0,0,-1,1133,806,0,0
-84,218,0,0,0,0,0,0,0,0,0,-1,1140,806,0,0
-77,218,0,0,0,0,0,0,0,0,0,-1,1147,806,0,0
-70,218,0,0,0,0,0,0,0,0,0,-1,1154,806,0,0
-63,218,0,0,0,0,0,0,0,0,0,-1,1161,806,0,0
-56,218,0,0,0,0,0,0,0,0,0,-1,1168,806,0,0
-49,218,0,0,0,0,0,0,0,0,0,-1,1175,806,0,0
-42,218,0,0,0,0,0,0,0,0,0,-1,1182,806,0,0
-35,218,0,0,0,0,0,0,0,0,0,-1,1189,806,0,0
-28,218,0,0,0,0,0,0,0,0,0,-1,1196,806,0,0
-21,218,0,0,0,0,0,0,0,0,0,-1,1203,806,0,0
-14,218,0,0,0,0,0,0,0,0,0,-1,1210,806,0,0
-7,218,0,0,0,0,0,0,0,0,0,-1,1217,806,0,0
0,218,0,0,0,0,0,0,0,0,0,-1,1224,806,0,0
7,218,0,0,0,0,0,0,0,0,0,-1,1231,806,0,0
14,218,0,0,0,0,0,0,0,0,0,-1,1238,806,0,0
21,218,0,0,0,0,0,0,0,0,0,-1,1245,806,0,0
28,218,0,0,0,0,0,0,0,0,0,-1,1252,806,0,0
35,218,0,0,0,0,0,0,0,0,0,-1,1259,806,0,0
42,218,0,0,0,0,0,0,0,0,0,-1,1266,806,0,0
49,218,0,0,0,0,0,0,0,0,0,-1,1273,806,0,0
56,218,0,0,0,0,0,0,0,0,0,-1,1280,806,0,0
63,218,0,0,0,0,0,0,0,0,0,-1,1287,806,0,0
70,218,0,0,0,0,0,0,0,0,0,-1,1294,806,0,0
77,218,0,0,0,0,0,0,0,0,0,-1,1301,806,0,0
84,218,0,0,0,0,0,0,0,0,0,-1,1308,806,0,0
91,218,0,0,0,0,0,0,0,0,0,-1,1315,806,0,0
98,218,0,0,0,0,0,0,0,0,0,-1,1322,806,0,0
105,218,0,0,0,0,0,0,0,0,0,-1,1329,806,0,0
112,218,0,0,0,0,0,0,0,0,0,-1,1336,806,0,0
119,218,0,0,0,0,0,0,0,0,0,-1,1343,806,0,0
126,218,0,0,0,0,0,0,0,0,0,-1,1350,806,0,0
133,218,0,0,0,0,0,0,0,0,0,-1,1357,806,0,0
140,218,0,0,0,0,0,0,0,0,0,-1,1364,806,0,0
147,218,0,0,0,0,0,0,0,0,0,-1,1371,806,0,0
154,218,0,0,0,0,0,0,0,0,0,-1,1378,806,0,0
161,218,0,0,0,0,0,0,0,0,0,-1,1385,806,0,0
168,218,0,0,0,0,0,0,0,0,0,-1,1392,806,0,0
175,218,0,0,0,0,0,0,0,0,0,-1,1399,806,0,0
182,218,0,0,0,0,0,0,0,0,0,-1,1406,806,0,0
189,218,0,0,0,0,0,0,0,0,0,-1,1413,806,0,0
196,218,0,0,0,0,0,0,0,0,0,-1,1420,806,0,0
203,218,0,0,0,0,0,0,0,0,0,-1,1427,806,0,0
210,218,0,0,0,0,0,0,0,0,0,-1,1434,806,0,0
217,218,0,0,0,0,0,0,0,0,0,-1,1441,806,0,0
224,218,0,0,0,0,0,0,0,0,0,-1,1448,806,0,0
231,218,0,0,0,0,0,0,0,0,0,-1,1455,806,0,0
238,218,0,0,0,0,0,0,0,0,0,-1,1462,806,0,0
245,218,0,0,0,0,0,0,0,0,0,-1,1469,806,0,0
252,218,0,0,0,0,0,0,0,0,0,-1,1476,806,0,0
259,218,0,0,0,0,0,0,0,0,0,-1,1483,806,0,0
266,218,0,0,0,0,0,0,0,0,0,-1,1490,806,0,0
273,218,0,0,0,0,0,0,0,0,0,-1,1497,806,0,0
280,218,0,0,0,0,0,0,0,0,0,-1,1504,806,0,0
287,218,0,0,0,0,0,0,0,0,0,-1,1511,806,0,0
294,218,0,0,0,0,0,0,0,0,0,-1,1518,806,0,0
301,218,0,0,0,0,0,0,0,0,0,-1,1525,806,0,0
308,218,0,0,0,0,0,0,0,0,0,-1,1532,806,0,0
315,218,0,0,0,0,0,0,0,0,0,-1,1539,806,0,0
322,218,0,0,0,0,0,0,0,0,0,-1,1546,806,0,0
329,218,0,0,0,0,0,0,0,0,0,-1,1553,806,0,0
336,218,0,0,0,0,0,0,0,0,0,-1,1560,806,0,0
343,218,0,0,0,0,0,0,0,0,0,-1,1567,806,0,0
350,218,0,0,0,0,0,0,0,0,0,-1,1574,806,0,0
357,218,0,0,0,0,0,0,0,0,0,-1,1581,806,0,0
364,218,0,0,0,0,0,0,0,0,0,-1,1588,806,0,0
371,218,0,0,0,0,0,0,0,0,0,-1,1595,806,0,0
378,218,0,0,0,0,0,0,0,0,0,-1,1602,806,0,0
385,218,0,0,0,0,0,0,0,0,0,-1,1609,806,0,0
392,218,0,0,0,0,0,0,0,0,0,-1,1616,806,0,0
399,218,0,0,0,0,0,0,0,0,0,-1,1623,806,0,0
406,218,0,0,0,0,0,0,0,0,0,-1,1630,806,0,0
413,218,0,0,0,0,0,0,0,0,0,-1,1637,806,0,0
420,218,0,0,0,0,0,0,0,0,0,-1,1644,806,0,0
427,218,0,0,0,0,0,0,0,0,0,-1,1651,806,0,0
434,218,0,0,0,0,0,0,0,0,0,-1,1658,806,0,0
441,218,0,0,0,0,0,0,0,0,0,-1,1665,806,0,0
448,218,0,0,0,0,0,0,0,0,0,-1,1672,806,0,0
455,218,0,0,0,0,0,0,0,0,0,-1,1679,806,0,0
462,218,0,0,0,0,0,0,0,0,0,-1,1686,806,0,0
469,218,0,0,0,0,0,0,0,0,0,-1,1693,806,0,0
476,218,0,0,0,0,0,0,0,0,0,-1,1700,806,0,0
483,218,0,0,0,0,0,0,0,0,0,-1,1707,806,0,0
490,218,0,0,0,0,0,0,0,0,0,-1,1714,806,0,0
497,218,0,0,0,0,0,0,0,0,0,-1,1721,806,0,0
504,218,0,0,0,0,0,0,0,0,0,-1,1728,806,0,0
511,218,0,0,0,0,0,0,0,0,0,-1,1735,806,0,0
518,218,0,0,0,0,0,0,0,0,0,-1,1742,806,0,0
525,218,0,0,0,0,0,0,0,0,0,-1,1749,806,0,0
532,218,0,0,0,0,0,0,0,0,0,-1,1756,806,0,0
539,218,0,0,0,0,0,0,0,0,0,-1,1763,806,0,0
546,218,0,0,0,0,0,0,0,0,0,-1,1770,806,0,0
553,218,0,0,0,0,0,0,0,0,0,-1,1777,806,0,0
560,218,0,0,0,0,0,0,0,0,0,-1,1784,806,0,0
567,218,0,0,0,0,0,0,0,0,0,-1,1791,806,0,0
574,218,0,0,0,0,0,0,0,0,0,-1,1798,806,0,0
581,218,0,0,0,0,0,0,0,0,0,-1,1805,806,0,0
588,218,0,0,0,0,0,0,0,0,0,-1,1812,806,0,0
595,218,80.1957,2.29901,0.00976157,-0.0020272,-0.00520018,0.0117276,-0.0039932,-0.361454,0.00943544,0.0359765,1819,806,80.1957,-2.29903
602,218,80.2335,2.23523,0.00687607,-0.000928593,-0.00242909,0.00757033,-0.00162285,-0.27839,0.00566585,0.0333268,1826,806,80.2335,-2.2352
609,218,80.2933,2.30426,0.00392056,-9.40907e-05,-0.000892062,0.00410985,-0.000283383,-0.209095,0.00283908,0.0306048,1833,806,80.2933,-2.30425
616,218,80.2007,2.35767,0.00197738,0.000383227,-0.000234716,0.00201122,0.000349387,-0.143188,0.00124086,0.031983,1840,806,80.2007,-2.35766
623,218,80.1683,2.37292,0.000771916,0.000433327,6.20172e-05,0.000782918,0.000422325,0.175573,0.000452486,0.0376112,1847,806,80.1684,-2.3729
630,218,80.1606,2.36639,0,0,0,0,0,0,0,-1,1854,806,80.1606,-2.36642
637,218,75.0532,2.44513,0,0,0,0,0,0,0,-1,1861,806,75.0532,-2.44515
644,218,52.4042,2.47949,0,0,0,0,0,0,0,-1,1868,806,52.4041,-2.47949
651,218,41.7338,1.99164,0,0,0,0,0,0,0,-1,1875,806,41.7338,-1.99162
658,218,28.41,0.514954,0,0,0,0,0,0,0,-1,1882,806,28.41,-0.514983
665,218,52.1176,-2.84406,0,0,0,0,0,0,0,-1,1889,806,52.1176,2.84404
672,218,52.8506,-2.1853,0,0,0,0,0,0,0,-1,1896,806,52.8506,2.18533
679,218,59.4392,-2.086,0,0,0,0,0,0,0,-1,1903,806,59.4392,2.08599
686,218,59.4419,-0.825012,-0.000489684,-0.000254316,-0.00103496,0.000669625,-0.00141363,-0.84201,0.00122807,0.0302382,1910,806,59.4419,0.825006
693,218,59.4226,0.148804,-7.54046e-05,-0.000100956,-0.00125219,0.00116408,-0.00134044,-0.780297,0.00144718,0.0123887,1917,806,59.4226,-0.148806
700,218,59.3478,1.09991,0.000384765,0.000138843,-0.00122826,0.0014962,-0.000972593,-0.735509,0.00143601,0.00995309,1924,806,59.3478,-1.09994
707,218,59.2472,2.05701,0.000923588,0.000496751,-0.000939072,0.00167319,-0.000252848,-0.673663,0.00120859,0.00817443,1931,806,59.2472,-2.05701
714,218,59.1813,3.00836,0.0016184,0.000964507,-0.000461728,0.00185722,0.000725691,-0.477329,0.00108076,0.011283,1938,806,59.1812,-3.00834
721,218,59.1797,3.94757,0.00250442,0.00145463,0.000228142,0.00255186,0.00140719,0.205004,0.00147591,0.0149071,1945,806,59.1796,-3.94759
728,218,59.1097,4.95264,0.00371369,0.00196439,0.0012152,0.00433628,0.0013418,0.473468,0.00256345,0.0299222,1952,806,59.1097,-4.95266
735,218,59.2203,6.05743,0,0,0,0,0,0,0,-1,1959,806,59.2203,-6.05743
742,218,47.8733,6.84155,0,0,0,0,0,0,0,-1,1966,806,47.8733,-6.84158
749,218,42.0249,6.64703,0,0,0,0,0,0,0,-1,1973,806,42.0249,-6.64703
756,218,58.4941,6.8728,0,0,0,0,0,0,0,-1,1980,806,58.4942,-6.87278
763,218,45.4928,8.73566,0,0,0,0,0,0,0,-1,1987,806,45.4928,-8.73564
770,218,0,0,0,0,0,0,0,0,0,-1,1994,806,0,0
777,218,0,0,0,0,0,0,0,0,0,-1,2001,806,0,0
784,218,0,0,0,0,0,0,0,0,0,-1,2008,806,0,0
791,218,0,0,0,0,0,0,0,0,0,-1,2015,806,0,0
798,218,0,0,0,0,0,0,0,0,0,-1,2022,806,0,0
805,218,0,0,0,0,0,0,0,0,0,-1,2029,806,0,0
812,218,0,0,0,0,0,0,0,0,0,-1,2036,806,0,0
-700,211,0,0,0,0,0,0,0,0,0,-1,524,813,0,0
-693,211,0,0,0,0,0,0,0,0,0,-1,531,813,0,0
-686,211,0,0,0,0,0,0,0,0,0,-1,538,813,0,0
-679,211,0,0,0,0,0,0,0,0,0,-1,545,813,0,0
-672,211,0,0,0,0,0,0,0,0,0,-1,552,813,0,0
-665,211,0,0,0,0,0,0,0,0,0,-1,559,813,0,0
-658,211,0,0,0,0,0,0,0,0,0,-1,566,813,0,0
-651,211,-40.2495,5.20386,0,0,0,0,0,0,0,-1,573,813,-40.2494,-5.20384
-644,211,-40.6288,4.32092,0,0,0,0,0,0,0,-1,580,813,-40.6288,-4.3209
-637,211,-41.3664,3.51849,0,0,0,0,0,0,0,-1,587,813,-41.3664,-3.51847
-630,211,-41.9262,2.94977,0,0,0,0,0,0,0,-1,594,813,-41.9262,-2.94975
-623,211,-42.5012,2.62903,0,0,0,0,0,0,0,-1,601,813,-42.5011,-2.629
-616,211,-43.4827,6.90802,0,0,0,0,0,0,0,-1,608,813,-43.4827,-6.90804
-609,211,-43.4605,5.9726,-0.0127708,0.00155261,-0.00488742,0.00306137,-0.0142796,-1.27138,0.0106873,0.0480058,615,813,-43.4605,-5.97262
-602,211,-43.5917,5.0813,-0.00825784,0.000560634,-0.00417667,0.00222478,-0.00992198,-1.19164,0.00746754,0.0248049,622,813,-43.5917,-5.08133
-595,211,-43.7568,4.14929,-0.00448334,0.00047593,-0.0035256,0.00230657,-0.00631397,-1.09187,0.00515322,0.0120019,629,813,-43.7569,-4.14932
-588,211,-43.8272,3.18195,-0.00160477,0.000854892,-0.00246509,0.00237991,-0.00312978,-1.01678,0.00319082,0.0123099,636,813,-43.8272,-3.18197
-581,211,-43.8894,2.23657,0.000538722,0.00142018,-0.00113436,0.00219642,-0.000237521,-0.970686,0.00154954,0.0131146,643,813,-43.8894,-2.23655
-574,211,-43.9509,1.27216,0.00215933,0.00194272,0.000232964,0.00230794,0.00179412,0.567808,0.00139916,0.0145265,650,813,-43.9508,-1.27219
-567,211,-44.0231,0.299316,0.00320017,0.00248131,0.00176315,0.00464015,0.00104133,0.684847,0.00281136,0.0218947,657,813,-44.0231,-0.299332
-560,211,-44.0851,-0.743408,0.00360862,0.00240299,0.00319581,0.00625797,-0.000246362,0.69218,0.00425648,0.0404598,664,813,-44.0851,0.743424
-553,211,-44.1762,-1.98907,0,0,0,0,0,0,0,-1,671,813,-44.1762,1.9891
-546,211,-44.3288,-2.86987,0.00145587,0.000579777,0.00342151,0.00446726,-0.00243162,0.721731,0.00404046,0.0481279,678,813,-44.3288,2.8699
-539,211,-44.3381,-3.62396,0.00106972,-0.000426129,0.00300508,0.00341856,-0.00277496,0.663433,0.00358226,0.0304031,685,813,-44.3381,3.62396
-532,211,-44.2901,-4.30365,0,0,0,0,0,0,0,-1,692,813,-44.2901,4.30366
-525,211,-14.3009,2.3233,0,0,0,0,0,0,0,-1,699,813,-14.3009,-2.3233
-518,211,-34.952,1.93011,0,0,0,0,0,0,0,-1,706,813,-34.952,-1.9301
-511,211,-53.0876,0.677734,0,0,0,0,0,0,0,-1,713,813,-53.0876,-0.677737
-504,211,-63.5411,0.7052,0,0,0,0,0,0,0,-1,720,813,-63.5411,-0.705186
-497,211,-63.6819,0.591431,-0.00180136,-0.00494674,0.00210749,-0.000744437,-0.00600366,0.464853,0.00377882,0.0461792,727,813,-63.6819,-0.591412
-490,211,-63.788,0.502441,-0.00182564,-0.00544696,0.00117054,-0.00148023,-0.00579237,0.286945,0.0034749,0.0350593,734,813,-63.788,-0.502429
-483,211,-63.7491,0.530334,-0.00110241,-0.00587975,0.000285283,-0.00108543,-0.00589673,0.0594343,0.00362394,0.0316442,741,813,-63.7491,-0.530326
-476,211,-63.7054,0.68042,0.000922789,-0.00688792,0.000315645,0.000935524,-0.00690066,0.0403242,0.00494189,0.0359384,748,813,-63.7054,-0.680417
-469,211,0,0,0,0,0,0,0,0,0,-1,755,813,0,0
-462,211,0,0,0,0,0,0,0,0,0,-1,762,813,0,0
-455,211,0,0,0,0,0,0,0,0,0,-1,769,813,0,0
-448,211,0,0,0,0,0,0,0,0,0,-1,776,813,0,0
-441,211,0,0,0,0,0,0,0,0,0,-1,783,813,0,0
-434,211,0,0,0,0,0,0,0,0,0,-1,790,813,0,0
-427,211,0,0,0,0,0,0,0,0,0,-1,797,813,0,0
-420,211,0,0,0,0,0,0,0,0,0,-1,804,813,0,0
-413,211,0,0,0,0,0,0,0,0,0,-1,811,813,0,0
-406,211,0,0,0,0,0,0,0,0,0,-1,818,813,0,0
-399,211,0,0,0,0,0,0,0,0,0,-1,825,813,0,0
-392,211,0,0,0,0,0,0,0,0,0,-1,832,813,0,0
-385,211,0,0,0,0,0,0,0,0,0,-1,839,813,0,0
-378,211,0,0,0,0,0,0,0,0,0,-1,846,813,0,0
-371,211,0,0,0,0,0,0,0,0,0,-1,853,813,0,0
-364,211,0,0,0,0,0,0,0,0,0,-1,860,813,0,0
-357,211,0,0,0,0,0,0,0,0,0,-1,867,813,0,0
-350,211,0,0,0,0,0,0,0,0,0,-1,874,813,0,0
-343,211,0,0,0,0,0,0,0,0,0,-1,881,813,0,0
-336,211,0,0,0,0,0,0,0,0,0,-1,888,813,0,0
-329,211,0,0,0,0,0,0,0,0,0,-1,895,813,0,0
-322,211,0,0,0,0,0,0,0,0,0,-1,902,813,0,0
-315,211,0,0,0,0,0,0,0,0,0,-1,909,813,0,0
-308,211,0,0,0,0,0,0,0,0,0,-1,916,813,0,0
-301,211,0,0,0,0,0,0,0,0,0,-1,923,813,0,0
-294,211,0,0,0,0,0,0,0,0,0,-1,930,813,0,0
-287,211,0,0,0,0,0,0,0,0,0,-1,937,813,0,0
-280,211,0,0,0,0,0,0,0,0,0,-1,944,813,0,0
-273,211,0,0,0,0,0,0,0,0,0,-1,951,813,0,0
-266,211,0,0,0,0,0,0,0,0,0,-1,958,813,0,0
-259,211,0,0,0,0,0,0,0,0,0,-1,965,813,0,0
-252,211,0,0,0,0,0,0,0,0,0,-1,972,813,0,0
-245,211,0,0,0,0,0,0,0,0,0,-1,979,813,0,0
-238,211,0,0,0,0,0,0,0,0,0,-1,986,813,0,0
-231,211,0,0,0,0,0,0,0,0,0,-1,993,813,0,0
-224,211,0,0,0,0,0,0,0,0,0,-1,1000,813,0,0
-217,211,0,0,0,0,0,0,0,0,0,-1,1007,813,0,0
-210,211,0,0,0,0,0,0,0,0,0,-1,1014,813,0,0
-203,211,0,0,0,0,0,0,0,0,0,-1,1021,813,0,0
-196,211,0,0,0,0,0,0,0,0,0,-1,1028,813,0,0
-189,211,0,0,0,0,0,0,0,0,0,-1,1035,813,0,0
-182,211,0,0,0,0,0,0,0,0,0,-1,1042,813,0,0
-175,211,0,0,0,0,0,0,0,0,0,-1,1049,813,0,0
-168,211,0,0,0,0,0,0,0,0,0,-1,1056,813,0,0
-161,211,0,0,0,0,0,0,0,0,0,-1,1063,813,0,0
-154,211,0,0,0,0,0,0,0,0,0,-1,1070,813,0,0
-147,211,0,0,0,0,0,0,0,0,0,-1,1077,813,0,0
-140,211,0,0,0,0,0,0,0,0,0,-1,1084,813,0,0
-133,211,0,0,0,0,0,0,0,0,0,-1,1091,813,0,0
-126,211,0,0,0,0,0,0,0,0,0,-1,1098,813,0,0
-119,211,0,0,0,0,0,0,0,0,0,-1,1105,813,0,0
-112,211,0,0,0,0,0,0,0,0,0,-1,1112,813,0,0
-105,211,0,0,0,0,0,0,0,0,0,-1,1119,813,0,0
-98,211,0,0,0,0,0,0,0,0,0,-1,1126,813,0,0
-91,211,0,0,0,0,0,0,0,0,0,-1,1133,813,0,0
-84,211,0,0,0,0,0,0,0,0,0,-1,1140,813,0,0
-77,211,0,0,0,0,0,0,0,0,0,-1,1147,813,0,0
-70,211,0,0,0,0,0,0,0,0,0,-1,1154,813,0,0
-63,211,0,0,0,0,0,0,0,0,0,-1,1161,813,0,0
-56,211,0,0,0,0,0,0,0,0,0,-1,1168,813,0,0
-49,211,0,0,0,0,0,0,0,0,0,-1,1175,813,0,0
-42,211,0,0,0,0,0,0,0,0,0,-1,1182,813,0,0
-35,211,0,0,0,0,0,0,0,0,0,-1,1189,813,0,0
-28,211,0,0,0,0,0,0,0,0,0,-1,1196,813,0,0
-21,211,0,0,0,0,0,0,0,0,0,-1,1203,813,0,0
-14,211,0,0,0,0,0,0,0,0,0,-1,1210,813,0,0
-7,211,0,0,0,0,0,0,0,0,0,-1,1217,813,0,0
0,211,0,0,0,0,0,0,0,0,0,-1,1224,813,0,0
7,211,0,0,0,0,0,0,0,0,0,-1,1231,813,0,0
14,211,0,0,0,0,0,0,0,0,0,-1,1238,813,0,0
21,211,0,0,0,0,0,0,0,0,0,-1,1245,813,0,0
28,211,0,0,0,0,0,0,0,0,0,-1,1252,813,0,0
35,211,0,0,0,0,0,0,0,0,0,-1,1259,813,0,0
42,211,0,0,0,0,0,0,0,0,0,-1,1266,813,0,0
49,211,0,0,0,0,0,0,0,0,0,-1,1273,813,0,0
56,211,0,0,0,0,0,0,0,0,0,-1,1280,813,0,0
63,211,0,0,0,0,0,0,0,0,0,-1,1287,813,0,0
70,211,0,0,0,0,0,0,0,0,0,-1,1294,813,0,0
77,211,0,0,0,0,0,0,0,0,0,-1,1301,813,0,0
84,211,0,0,0,0,0,0,0,0,0,-1,1308,813,0,0
91,211,0,0,0,0,0,0,0,0,0,-1,1315,813,0,0
98,211,0,0,0,0,0,0,0,0,0,-1,1322,813,0,0
105,211,0,0,0,0,0,0,0,0,0,-1,1329,813,0,0
112,211,0,0,0,0,0,0,0,0,0,-1,1336,813,0,0
119,211,0,0,0,0,0,0,0,0,0,-1,1343,813,0,0
126,211,0,0,0,0,0,0,0,0,0,-1,1350,813,0,0
133,211,0,0,0,0,0,0,0,0,0,-1,1357,813,0,0
140,211,0,0,0,0,0,0,0,0,0,-1,1364,813,0,0
147,211,0,0,0,0,0,0,0,0,0,-1,1371,813,0,0
154,211,0,0,0,0,0,0,0,0,0,-1,1378,813,0,0
161,211,0,0,0,0,0,0,0,0,0,-1,1385,813,0,0
168,211,0,0,0,0,0,0,0,0,0,-1,1392,813,0,0
175,211,0,0,0,0,0,0,0,0,0,-1,1399,813,0,0
182,211,0,0,0,0,0,0,0,0,0,-1,1406,813,0,0
189,211,0,0,0,0,0,0,0,0,0,-1,1413,813,0,0
196,211,0,0,0,0,0,0,0,0,0,-1,1420,813,0,0
203,211,0,0,0,0,0,0,0,0,0,-1,1427,813,0,0
210,211,0,0,0,0,0,0,0,0,0,-1,1434,813,0,0
217,211,0,0,0,0,0,0,0,0,0,-1,1441,813,0,0
224,211,0,0,0,0,0,0,0,0,0,-1,1448,813,0,0
231,211,0,0,0,0,0,0,0,0,0,-1,1455,813,0,0
238,211,0,0,0,0,0,0,0,0,0,-1,1462,813,0,0
245,211,0,0,0,0,0,0,0,0,0,-1,1469,813,0,0
252,211,0,0,0,0,0,0,0,0,0,-1,1476,813,0,0
259,211,0,0,0,0,0,0,0,0,0,-1,1483,813,0,0
266,211,0,0,0,0,0,0,0,0,0,-1,1490,813,0,0
273,211,0,0,0,0,0,0,0,0,0,-1,1497,813,0,0
280,211,0,0,0,0,0,0,0,0,0,-1,1504,813,0,0
287,211,0,0,0,0,0,0,0,0,0,-1,1511,813,0,0
294,211,0,0,0,0,0,0,0,0,0,-1,1518,813,0,0
301,211,0,0,0,0,0,0,0,0,0,-1,1525,813,0,0
308,211,0,0,0,0,0,0,0,0,0,-1,1532,813,0,0
315,211,0,0,0,0,0,0,0,0,0,-1,1539,813,0,0
322,211,0,0,0,0,0,0,0,0,0,-1,1546,813,0,0
329,211,0,0,0,0,0,0,0,0,0,-1,1553,813,0,0
336,211,0,0,0,0,0,0,0,0,0,-1,1560,813,0,0
343,211,0,0,0,0,0,0,0,0,0,-1,1567,813,0,0
350,211,0,0,0,0,0,0,0,0,0,-1,1574,813,0,0
357,211,0,0,0,0,0,0,0,0,0,-1,1581,813,0,0
364,211,0,0,0,0,0,0,0,0,0,-1,1588,813,0,0
371,211,0,0,0,0,0,0,0,0,0,-1,1595,813,0,0
378,211,0,0,0,0,0,0,0,0,0,-1,1602,813,0,0
385,211,0,0,0,0,0,0,0,0,0,-1,1609,813,0,0
392,211,0,0,0,0,0,0,0,0,0,-1,1616,813,0,0
399,211,0,0,0,0,0,0,0,0,0,-1,1623,813,0,0
406,211,0,0,0,0,0,0,0,0,0,-1,1630,813,0,0
413,211,0,0,0,0,0,0,0,0,0,-1,1637,813,0,0
420,211,0,0,0,0,0,0,0,0,0,-1,1644,813,0,0
427,211,0,0,0,0,0,0,0,0,0,-1,1651,813,0,0
434,211,0,0,0,0,0,0,0,0,0,-1,1658,813,0,0
441,211,0,0,0,0,0,0,0,0,0,-1,1665,813,0,0
448,211,0,0,0,0,0,0,0,0,0,-1,1672,813,0,0
455,211,0,0,0,0,0,0,0,0,0,-1,1679,813,0,0
462,211,0,0,0,0,0,0,0,0,0,-1,1686,813,0,0
469,211,0,0,0,0,0,0,0,0,0,-1,1693,813,0,0
476,211,0,0,0,0,0,0,0,0,0,-1,1700,813,0,0
483,211,0,0,0,0,0,0,0,0,0,-1,1707,813,0,0
490,211,0,0,0,0,0,0,0,0,0,-1,1714,813,0,0
497,211,0,0,0,0,0,0,0,0,0,-1,1721,813,0,0
504,211,0,0,0,0,0,0,0,0,0,-1,1728,813,0,0
511,211,0,0,0,0,0,0,0,0,0,-1,1735,813,0,0
518,211,0,0,0,0,0,0,0,0,0,-1,1742,813,0,0
525,211,0,0,0,0,0,0,0,0,0,-1,1749,813,0,0
532,211,0,0,0,0,0,0,0,0,0,-1,1756,813,0,0
539,211,0,0,0,0,0,0,0,0,0,-1,1763,813,0,0
546,211,0,0,0,0,0,0,0,0,0,-1,1770,813,0,0
553,211,0,0,0,0,0,0,0,0,0,-1,1777,813,0,0
560,211,0,0,0,0,0,0,0,0,0,-1,1784,813,0,0
567,211,0,0,0,0,0,0,0,0,0,-1,1791,813,0,0
574,211,0,0,0,0,0,0,0,0,0,-1,1798,813,0,0
581,211,0,0,0,0,0,0,0,0,0,-1,1805,813,0,0
588,211,0,0,0,0,0,0,0,0,0,-1,1812,813,0,0
595,211,80.285,2.23047,0.0109284,-0.00294657,-0.00674513,0.0136669,-0.00568511,-0.385671,0.0114853,0.0371681,1819,813,80.285,-2.2305
602,211,80.1982,2.25067,0.0076388,-0.00175383,-0.00370312,0.00892316,-0.00303819,-0.33385,0.0071791,0.0380831,1826,813,80.1982,-2.25068
609,211,80.2938,2.28558,0.00420085,-0.000464923,-0.00146649,0.00462349,-0.000887565,-0.280597,0.00341683,0.038864,1833,813,80.2939,-2.2856
616,211,80.3199,2.32922,0.00159415,0.000401337,-0.000222776,0.0016344,0.000361088,-0.17874,0.000991405,0.0323643,1840,813,80.3199,-2.32924
623,211,80.2205,2.3894,8.82756e-05,0.000735828,0.000366015,0.000900722,-7.66177e-05,1.14752,0.000627581,0.0322615,1847,813,80.2205,-2.38943
630,211,80.2097,2.3927,-0.000150173,0.000931491,0.000488142,0.00111921,-0.000337889,1.20368,0.000880646,0.0379314,1854,813,80.2097,-2.39269
637,211,80.3075,2.34888,0,0,0,0,0,0,0,-1,1861,813,80.3075,-2.3489
644,211,66.401,2.3595,0,0,0,0,0,0,0,-1,1868,813,66.401,-2.35952
651,211,48.5043,2.95557,0,0,0,0,0,0,0,-1,1875,813,48.5043,-2.95558
658,211,27.7909,1.52234,0,0,0,0,0,0,0,-1,1882,813,27.7909,-1.52234
665,211,42.2053,-0.745605,0,0,0,0,0,0,0,-1,1889,813,42.2054,0.745605
672,211,53.189,-1.99603,0,0,0,0,0,0,0,-1,1896,813,53.189,1.99603
679,211,60.3256,-1.62427,0,0,0,0,0,0,0,-1,1903,813,60.3256,1.62424
686,211,60.4293,-0.796631,-0.000798261,-7.40791e-06,-0.00115761,0.000820454,-0.00162612,-0.949978,0.00143783,0.0355174,1910,813,60.4293,0.796618
693,211,60.3621,0.156677,-0.000411365,-0.000108036,-0.0014715,0.00121959,-0.00173899,-0.836751,0.00171689,0.0155519,1917,813,60.3621,-0.156706
700,211,60.2507,1.12573,2.74713e-05,-4.84627e-05,-0.00147199,0.00146198,-0.00148298,-0.772505,0.00170029,0.0136359,1924,813,60.2507,-1.12571
707,211,60.2395,2.13135,0.000575933,0.000227993,-0.00113711,0.0015523,-0.000748375,-0.70949,0.00135506,0.0211097,1931,813,60.2395,-2.13132
714,211,60.2416,3.09888,0.00135028,0.000732857,-0.000540468,0.00166399,0.000419147,-0.525914,0.000999353,0.0239402,1938,813,60.2416,-3.09886
721,211,60.1475,3.98694,0.00230915,0.00129432,0.00026149,0.00237257,0.0012309,0.23792,0.00137013,0.0193022,1945,813,60.1475,-3.98694
728,211,60.0933,4.94672,0.00356393,0.00189689,0.0013388,0.00430747,0.00115335,0.506967,0.00257479,0.020472,1952,813,60.0932,-4.94672
735,211,60.1641,5.95093,0.00529814,0.0027006,0.00283325,0.00711611,0.000882626,0.570488,0.00447895,0.0394619,1959,813,60.1641,-5.95093
742,211,60.4061,6.93195,0,0,0,0,0,0,0,-1,1966,813,60.4062,-6.93193
749,211,58.2174,7.58356,0,0,0,0,0,0,0,-1,1973,813,58.2174,-7.58358
756,211,58.7476,7.14038,0,0,0,0,0,0,0,-1,1980,813,58.7476,-7.14036
763,211,58.3169,7.26605,0,0,0,0,0,0,0,-1,1987,813,58.3169,-7.26605
770,211,46.2148,12.9099,0,0,0,0,0,0,0,-1,1994,813,46.2148,-12.9099
777,211,0,0,0,0,0,0,0,0,0,-1,2001,813,0,0
784,211,0,0,0,0,0,0,0,0,0,-1,2008,813,0,0
791,211,0,0,0,0,0,0,0,0,0,-1,2015,813,0,0
798,211,0,0,0,0,0,0,0,0,0,-1,2022,813,0,0
805,211,0,0,0,0,0,0,0,0,0,-1,2029,813,0,0
812,211,0,0,0,0,0,0,0,0,0,-1,2036,813,0,0
-700,204,0,0,0,0,0,0,0,0,0,-1,524,820,0,0
-693,204,0,0,0,0,0,0,0,0,0,-1,531,820,0,0
-686,204,0,0,0,0,0,0,0,0,0,-1,538,820,0,0
-679,204,0,0,0,0,0,0,0,0,0,-1,545,820,0,0
-672,204,0,0,0,0,0,0,0,0,0,-1,552,820,0,0
-665,204,0,0,0,0,0,0,0,0,0,-1,559,820,0,0
-658,204,0,0,0,0,0,0,0,0,0,-1,566,820,0,0
-651,204,-40.064,5.25806,0,0,0,0,0,0,0,-1,573,820,-40.064,-5.25806
-644,204,-40.4117,4.54321,0,0,0,0,0,0,0,-1,580,820,-40.4117,-4.54323
-637,204,-40.8671,3.93817,0,0,0,0,0,0,0,-1,587,820,-40.8671,-3.93819
-630,204,-41.7101,3.04382,0,0,0,0,0,0,0,-1,594,820,-41.7101,-3.04383
-623,204,-41.8597,2.11951,0,0,0,0,0,0,0,-1,601,820,-41.8597,-2.11951
-616,204,-44.6341,7.17444,0,0,0,0,0,0,0,-1,608,820,-44.6341,-7.17442
-609,204,-44.5419,6.14667,-0.0132292,0.00353104,-0.00239604,0.00386685,-0.013565,-1.43155,0.0105707,0.0395379,615,820,-44.5419,-6.14666
-602,204,-44.6202,5.15344,-0.00846654,0.00214816,-0.00211981,0.00255584,-0.00887422,-1.3808,0.00692709,0.0201571,622,820,-44.6202,-5.15343
-595,204,-44.7256,4.20508,-0.00441751,0.00165466,-0.0017542,0.002125,-0.00488786,-1.30883,0.00415229,0.0162841,629,820,-44.7257,-4.20508
-588,204,-44.7932,3.21844,-0.00123481,0.00170319,-0.000980363,0.00200028,-0.0015319,-1.27655,0.00204527,0.0146917,636,820,-44.7931,-3.21844
-581,204,-44.8606,2.2572,0.00130304,0.00207318,0.000101647,0.00208637,0.00128985,1.44175,0.00121574,0.0143379,643,820,-44.8606,-2.2572
-574,204,-44.9034,1.30151,0.00321434,0.00238323,0.00118029,0.00405009,0.00154748,0.616135,0.00235989,0.0156531,650,820,-44.9034,-1.3015
-567,204,-44.9628,0.373718,0.00444004,0.00283287,0.00233012,0.00610125,0.00117166,0.61935,0.00373865,0.0161988,657,820,-44.9628,-0.373728
-560,204,-44.7679,-0.675476,0.00489221,0.00213484,0.00314589,0.00694826,7.87887e-05,0.578878,0.00460614,0.0388273,664,820,-44.7679,0.675478
-553,204,-45.1754,-1.72046,0,0,0,0,0,0,0,-1,671,820,-45.1754,1.72046
-546,204,-45.4907,-2.44733,0,0,0,0,0,0,0,-1,678,820,-45.4907,2.44734
-539,204,-45.2849,-3.39819,0,0,0,0,0,0,0,-1,685,820,-45.2849,3.39816
-532,204,-30.0565,-3.29065,0,0,0,0,0,0,0,-1,692,820,-30.0565,3.29063
-525,204,-25.7137,1.52496,0,0,0,0,0,0,0,-1,699,820,-25.7137,-1.52496
-518,204,-43.4591,0.383972,0,0,0,0,0,0,0,-1,706,820,-43.4591,-0.383942
-511,204,-61.3691,1.49664,0,0,0,0,0,0,0,-1,713,820,-61.3691,-1.49666
-504,204,-63.6722,0.584778,0,0,0,0,0,0,0,-1,720,820,-63.6722,-0.584765
-497,204,-63.8395,0.478943,-0.00052789,-0.00579434,0.0016337,-6.22689e-05,-0.00625996,0.277648,0.00415271,0.0398849,727,820,-63.8395,-0.47895
-490,204,-63.8433,0.399719,-0.000122669,-0.00635982,0.000486645,-8.49278e-05,-0.00639756,0.0773994,0.00423702,0.0345172,734,820,-63.8433,-0.399724
-483,204,-63.777,0.338196,0.00120362,-0.00694449,-0.0007358,0.00126953,-0.0070104,-0.08934,0.00514921,0.0382511,741,820,-63.777,-0.338169
-476,204,0,0,0,0,0,0,0,0,0,-1,748,820,0,0
-469,204,0,0,0,0,0,0,0,0,0,-1,755,820,0,0
-462,204,0,0,0,0,0,0,0,0,0,-1,762,820,0,0
-455,204,0,0,0,0,0,0,0,0,0,-1,769,820,0,0
-448,204,0,0,0,0,0,0,0,0,0,-1,776,820,0,0
-441,204,0,0,0,0,0,0,0,0,0,-1,783,820,0,0
-434,204,0,0,0,0,0,0,0,0,0,-1,790,820,0,0
-427,204,0,0,0,0,0,0,0,0,0,-1,797,820,0,0
-420,204,0,0,0,0,0,0,0,0,0,-1,804,820,0,0
-413,204,0,0,0,0,0,0,0,0,0,-1,811,820,0,0
-406,204,0,0,0,0,0,0,0,0,0,-1,818,820,0,0
-399,204,0,0,0,0,0,0,0,0,0,-1,825,820,0,0
-392,204,0,0,0,0,0,0,0,0,0,-1,832,820,0,0
-385,204,0,0,0,0,0,0,0,0,0,-1,839,820,0,0
-378,204,0,0,0,0,0,0,0,0,0,-1,846,820,0,0
-371,204,0,0,0,0,0,0,0,0,0,-1,853,820,0,0
-364,204,0,0,0,0,0,0,0,0,0,-1,860,820,0,0
-357,204,0,0,0,0,0,0,0,0,0,-1,867,820,0,0
-350,204,0,0,0,0,0,0,0,0,0,-1,874,820,0,0
-343,204,0,0,0,0,0,0,0,0,0,-1,881,820,0,0
-336,204,0,0,0,0,0,0,0,0,0,-1,888,820,0,0
-329,204,0,0,0,0,0,0,0,0,0,-1,895,820,0,0
-322,204,0,0,0,0,0,0,0,0,0,-1,902,820,0,0
-315,204,0,0,0,0,0,0,0,0,0,-1,909,820,0,0
-308,204,0,0,0,0,0,0,0,0,0,-1,916,820,0,0
-301,204,0,0,0,0,0,0,0,0,0,-1,923,820,0,0
-294,204,0,0,0,0,0,0,0,0,0,-1,930,820,0,0
-287,204,0,0,0,0,0,0,0,0,0,-1,937,820,0,0
-280,204,0,0,0,0,0,0,0,0,0,-1,944,820,0,0
-273,204,0,0,0,0,0,0,0,0,0,-1,951,820,0,0
-266,204,0,0,0,0,0,0,0,0,0,-1,958,820,0,0
-259,204,0,0,0,0,0,0,0,0,0,-1,965,820,0,0
-252,204,0,0,0,0,0,0,0,0,0,-1,972,820,0,0
-245,204,0,0,0,0,0,0,0,0,0,-1,979,820,0,0
-238,204,0,0,0,0,0,0,0,0,0,-1,986,820,0,0
-231,204,0,0,0,0,0,0,0,0,0,-1,993,820,0,0
-224,204,0,0,0,0,0,0,0,0,0,-1,1000,820,0,0
-217,204,0,0,0,0,0,0,0,0,0,-1,1007,820,0,0
-210,204,0,0,0,0,0,0,0,0,0,-1,1014,820,0,0
-203,204,0,0,0,0,0,0,0,0,0,-1,1021,820,0,0
-196,204,0,0,0,0,0,0,0,0,0,-1,1028,820,0,0
-189,204,0,0,0,0,0,0,0,0,0,-1,1035,820,0,0
-182,204,0,0,0,0,0,0,0,0,0,-1,1042,820,0,0
-175,204,0,0,0,0,0,0,0,0,0,-1,1049,820,0,0
-168,204,0,0,0,0,0,0,0,0,0,-1,1056,820,0,0
-161,204,0,0,0,0,0,0,0,0,0,-1,1063,820,0,0
-154,204,0,0,0,0,0,0,0,0,0,-1,1070,820,0,0
-147,204,0,0,0,0,0,0,0,0,0,-1,1077,820,0,0
-140,204,0,0,0,0,0,0,0,0,0,-1,1084,820,0,0
-133,204,0,0,0,0,0,0,0,0,0,-1,1091,820,0,0
-126,204,0,0,0,0,0,0,0,0,0,-1,1098,820,0,0
-119,204,0,0,0,0,0,0,0,0,0,-1,1105,820,0,0
-112,204,0,0,0,0,0,0,0,0,0,-1,1112,820,0,0
-105,204,0,0,0,0,0,0,0,0,0,-1,1119,820,0,0
-98,204,0,0,0,0,0,0,0,0,0,-1,1126,820,0,0
-91,204,0,0,0,0,0,0,0,0,0,-1,1133,820,0,0
-84,204,0,0,0,0,0,0,0,0,0,-1,1140,820,0,0
-77,204,0,0,0,0,0,0,0,0,0,-1,1147,820,0,0
-70,204,0,0,0,0,0,0,0,0,0,-1,1154,820,0,0
-63,204,0,0,0,0,0,0,0,0,0,-1,1161,820,0,0
-56,204,0,0,0,0,0,0,0,0,0,-1,1168,820,0,0
-49,204,0,0,0,0,0,0,0,0,0,-1,1175,820,0,0
-42,204,0,0,0,0,0,0,0,0,0,-1,1182,820,0,0
-35,204,0,0,0,0,0,0,0,0,0,-1,1189,820,0,0
-28,204,0,0,0,0,0,0,0,0,0,-1,1196,820,0,0
-21,204,0,0,0,0,0,0,0,0,0,-1,1203,820,0,0
-14,204,0,0,0,0,0,0,0,0,0,-1,1210,820,0,0
-7,204,0,0,0,0,0,0,0,0,0,-1,1217,820,0,0
0,204,0,0,0,0,0,0,0,0,0,-1,1224,820,0,0
7,204,0,0,0,0,0,0,0,0,0,-1,1231,820,0,0
14,204,0,0,0,0,0,0,0,0,0,-1,1238,820,0,0
21,204,0,0,0,0,0,0,0,0,0,-1,1245,820,0,0
28,204,0,0,0,0,0,0,0,0,0,-1,1252,820,0,0
35,204,0,0,0,0,0,0,0,0,0,-1,1259,820,0,0
42,204,0,0,0,0,0,0,0,0,0,-1,1266,820,0,0
49,204,0,0,0,0,0,0,0,0,0,-1,1273,820,0,0
56,204,0,0,0,0,0,0,0,0,0,-1,1280,820,0,0
63,204,0,0,0,0,0,0,0,0,0,-1,1287,820,0,0
70,204,0,0,0,0,0,0,0,0,0,-1,1294,820,0,0
77,204,0,0,0,0,0,0,0,0,0,-1,1301,820,0,0
84,204,0,0,0,0,0,0,0,0,0,-1,1308,820,0,0
91,204,0,0,0,0,0,0,0,0,0,-1,1315,820,0,0
98,204,0,0,0,0,0,0,0,0,0,-1,1322,820,0,0
105,204,0,0,0,0,0,0,0,0,0,-1,1329,820,0,0
112,204,0,0,0,0,0,0,0,0,0,-1,1336,820,0,0
119,204,0,0,0,0,0,0,0,0,0,-1,1343,820,0,0
126,204,0,0,0,0,0,0,0,0,0,-1,1350,820,0,0
133,204,0,0,0,0,0,0,0,0,0,-1,1357,820,0,0
140,204,0,0,0,0,0,0,0,0,0,-1,1364,820,0,0
147,204,0,0,0,0,0,0,0,0,0,-1,1371,820,0,0
154,204,0,0,0,0,0,0,0,0,0,-1,1378,820,0,0
161,204,0,0,0,0,0,0,0,0,0,-1,1385,820,0,0
168,204,0,0,0,0,0,0,0,0,0,-1,1392,820,0,0
175,204,0,0,0,0,0,0,0,0,0,-1,1399,820,0,0
182,204,0,0,0,0,0,0,0,0,0,-1,1406,820,0,0
189,204,0,0,0,0,0,0,0,0,0,-1,1413,820,0,0
196,204,0,0,0,0,0,0,0,0,0,-1,1420,820,0,0
203,204,0,0,0,0,0,0,0,0,0,-1,1427,820,0,0
210,204,0,0,0,0,0,0,0,0,0,-1,1434,820,0,0
217,204,0,0,0,0,0,0,0,0,0,-1,1441,820,0,0
224,204,0,0,0,0,0,0,0,0,0,-1,1448,820,0,0
231,204,0,0,0,0,0,0,0,0,0,-1,1455,820,0,0
238,204,0,0,0,0,0,0,0,0,0,-1,1462,820,0,0
245,204,0,0,0,0,0,0,0,0,0,-1,1469,820,0,0
252,204,0,0,0,0,0,0,0,0,0,-1,1476,820,0,0
259,204,0,0,0,0,0,0,0,0,0,-1,1483,820,0,0
266,204,0,0,0,0,0,0,0,0,0,-1,1490,820,0,0
273,204,0,0,0,0,0,0,0,0,0,-1,1497,820,0,0
280,204,0,0,0,0,0,0,0,0,0,-1,1504,820,0,0
287,204,0,0,0,0,0,0,0,0,0,-1,1511,820,0,0
294,204,0,0,0,0,0,0,0,0,0,-1,1518,820,0,0
301,204,0,0,0,0,0,0,0,0,0,-1,1525,820,0,0
308,204,0,0,0,0,0,0,0,0,0,-1,1532,820,0,0
315,204,0,0,0,0,0,0,0,0,0,-1,1539,820,0,0
322,204,0,0,0,0,0,0,0,0,0,-1,1546,820,0,0
329,204,0,0,0,0,0,0,0,0,0,-1,1553,820,0,0
336,204,0,0,0,0,0,0,0,0,0,-1,1560,820,0,0
343,204,0,0,0,0,0,0,0,0,0,-1,1567,820,0,0
350,204,0,0,0,0,0,0,0,0,0,-1,1574,820,0,0
357,204,0,0,0,0,0,0,0,0,0,-1,1581,820,0,0
364,204,0,0,0,0,0,0,0,0,0,-1,1588,820,0,0
371,204,0,0,0,0,0,0,0,0,0,-1,1595,820,0,0
378,204,0,0,0,0,0,0,0,0,0,-1,1602,820,0,0
385,204,0,0,0,0,0,0,0,0,0,-1,1609,820,0,0
392,204,0,0,0,0,0,0,0,0,0,-1,1616,820,0,0
399,204,0,0,0,0,0,0,0,0,0,-1,1623,820,0,0
406,204,0,0,0,0,0,0,0,0,0,-1,1630,820,0,0
413,204,0,0,0,0,0,0,0,0,0,-1,1637,820,0,0
420,204,0,0,0,0,0,0,0,0,0,-1,1644,820,0,0
427,204,0,0,0,0,0,0,0,0,0,-1,1651,820,0,0
434,204,0,0,0,0,0,0,0,0,0,-1,1658,820,0,0
441,204,0,0,0,0,0,0,0,0,0,-1,1665,820,0,0
448,204,0,0,0,0,0,0,0,0,0,-1,1672,820,0,0
455,204,0,0,0,0,0,0,0,0,0,-1,1679,820,0,0
462,204,0,0,0,0,0,0,0,0,0,-1,1686,820,0,0
469,204,0,0,0,0,0,0,0,0,0,-1,1693,820,0,0
476,204,0,0,0,0,0,0,0,0,0,-1,1700,820,0,0
483,204,0,0,0,0,0,0,0,0,0,-1,1707,820,0,0
490,204,0,0,0,0,0,0,0,0,0,-1,1714,820,0,0
497,204,0,0,0,0,0,0,0,0,0,-1,1721,820,0,0
504,204,0,0,0,0,0,0,0,0,0,-1,1728,820,0,0
511,204,0,0,0,0,0,0,0,0,0,-1,1735,820,0,0
518,204,0,0,0,0,0,0,0,0,0,-1,1742,820,0,0
525,204,0,0,0,0,0,0,0,0,0,-1,1749,820,0,0
532,204,0,0,0,0,0,0,0,0,0,-1,1756,820,0,0
539,204,0,0,0,0,0,0,0,0,0,-1,1763,820,0,0
546,204,0,0,0,0,0,0,0,0,0,-1,1770,820,0,0
553,204,0,0,0,0,0,0,0,0,0,-1,1777,820,0,0
560,204,0,0,0,0,0,0,0,0,0,-1,1784,820,0,0
567,204,0,0,0,0,0,0,0,0,0,-1,1791,820,0,0
574,204,0,0,0,0,0,0,0,0,0,-1,1798,820,0,0
581,204,0,0,0,0,0,0,0,0,0,-1,1805,820,0,0
588,204,0,0,0,0,0,0,0,0,0,-1,1812,820,0,0
595,204,0,0,0,0,0,0,0,0,0,-1,1819,820,0,0
602,204,80.2238,2.4472,0.00879289,-0.00285084,-0.00526293,0.0108191,-0.00487706,-0.367509,0.00927612,0.0398203,1826,820,80.2238,-2.4472
609,204,80.2836,2.27728,0.0053059,-0.0012871,-0.00255907,0.00618262,-0.00216382,-0.330061,0.00500156,0.0438638,1833,820,80.2836,-2.27727
616,204,80.3639,2.13379,0.00220915,0.000100998,-0.000513058,0.00232739,-1.72326e-05,-0.22649,0.00155737,0.0404798,1840,820,80.3639,-2.13376
623,204,80.2427,2.31085,0.000257859,0.00094745,0.000717652,0.00139884,-0.000193529,1.00934,0.00100331,0.0305626,1847,820,80.2427,-2.31085
630,204,80.1392,2.35223,-5.93488e-05,0.00135743,0.000960218,0.00184228,-0.000544205,1.1032,0.00144418,0.0317876,1854,820,80.1392,-2.35221
637,204,80.1774,2.40997,0,0,0,0,0,0,0,-1,1861,820,80.1773,-2.40999
644,204,79.8079,2.27979,0,0,0,0,0,0,0,-1,1868,820,79.8078,-2.27978
651,204,53.7611,2.32251,0,0,0,0,0,0,0,-1,1875,820,53.7611,-2.32249
658,204,34.9631,1.64844,0,0,0,0,0,0,0,-1,1882,820,34.9631,-1.64842
665,204,21.8292,1.51099,0,0,0,0,0,0,0,-1,1889,820,21.8292,-1.51099
672,204,61.5448,-2.30658,0,0,0,0,0,0,0,-1,1896,820,61.5447,2.3066
679,204,61.5664,-1.50934,-0.000955929,0.00066444,-0.000379671,0.00074899,-0.00104048,-1.35168,0.00103771,0.0459989,1903,820,61.5664,1.50932
686,204,61.5676,-0.715759,-0.000752263,0.000206299,-0.00106055,0.000890836,-0.0014368,-0.997622,0.00135613,0.0298971,1910,820,61.5677,0.715774
693,204,61.1595,0.201843,-0.000472204,-7.07459e-05,-0.00148859,0.00123059,-0.00177354,-0.852416,0.00174385,0.03178,1917,820,61.1596,-0.201837
700,204,61.2136,1.19641,-0.000136985,-0.00017827,-0.00162199,0.0014645,-0.00177975,-0.779035,0.00187601,0.0184974,1924,820,61.2136,-1.1964
707,204,61.1775,2.16809,0.000316445,-5.60492e-06,-0.00135086,0.00151584,-0.001205,-0.726077,0.00157429,0.0170259,1931,820,61.1775,-2.16808
714,204,61.1558,3.15723,0.0010868,0.000522894,-0.000694192,0.00155412,5.5582e-05,-0.592495,0.00101806,0.0266576,1938,820,61.1558,-3.1572
721,204,61.0931,4.07904,0.00204536,0.00117106,0.000199026,0.00208854,0.00112788,0.213617,0.0012071,0.0244853,1945,820,61.0932,-4.07902
728,204,60.9982,4.99261,0.00326321,0.00186109,0.00135959,0.00409185,0.00103245,0.547358,0.00245715,0.0148615,1952,820,60.9982,-4.99259
735,204,60.8862,5.93823,0.00487398,0.00271168,0.00287529,0.00686467,0.000720997,0.605568,0.00435605,0.0189466,1959,820,60.8862,-5.93822
742,204,60.9535,6.74768,0.00690422,0.00342463,0.0049842,0.0104435,-0.000114695,0.617479,0.00700091,0.035961,1966,820,60.9535,-6.74766
749,204,61.0414,7.90808,0,0,0,0,0,0,0,-1,1973,820,61.0414,-7.90809
756,204,58.6871,8.49182,0,0,0,0,0,0,0,-1,1980,820,58.6872,-8.49182
763,204,58.373,9.49487,0,0,0,0,0,0,0,-1,1987,820,58.373,-9.49487
770,204,54.0085,7.94019,0,0,0,0,0,0,0,-1,1994,820,54.0084,-7.94017
777,204,0,0,0,0,0,0,0,0,0,-1,2001,820,0,0
784,204,0,0,0,0,0,0,0,0,0,-1,2008,820,0,0
791,204,0,0,0,0,0,0,0,0,0,-1,2015,820,0,0
798,204,0,0,0,0,0,0,0,0,0,-1,2022,820,0,0
805,204,0,0,0,0,0,0,0,0,0,-1,2029,820,0,0
812,204,0,0,0,0,0,0,0,0,0,-1,2036,820,0,0
-700,197,0,0,0,0,0,0,0,0,0,-1,524,827,0,0
-693,197,0,0,0,0,0,0,0,0,0,-1,531,827,0,0
-686,197,0,0,0,0,0,0,0,0,0,-1,538,827,0,0
-679,197,0,0,0,0,0,0,0,0,0,-1,545,827,0,0
-672,197,0,0,0,0,0,0,0,0,0,-1,552,827,0,0
-665,197,0,0,0,0,0,0,0,0,0,-1,559,827,0,0
-658,197,-39.9774,5.66638,0,0,0,0,0,0,0,-1,566,827,-39.9774,-5.66637
-651,197,-39.9665,5.23578,0,0,0,0,0,0,0,-1,573,827,-39.9665,-5.23575
-644,197,-38.9225,4.75665,0,0,0,0,0,0,0,-1,580,827,-38.9225,-4.75665
-637,197,-45.2572,7.41498,0,0,0,0,0,0,0,-1,587,827,-45.2572,-7.415
-630,197,-40.4908,2.45648,0,0,0,0,0,0,0,-1,594,827,-40.4908,-2.45649
-623,197,-45.8096,8.30988,0,0,0,0,0,0,0,-1,601,827,-45.8096,-8.3099
-616,197,-45.6744,7.22546,0,0,0,0,0,0,0,-1,608,827,-45.6744,-7.22549
-609,197,-45.566,6.07184,-0.0140521,0.00656075,-0.000189667,0.0065625,-0.0140538,-1.5616,0.012162,0.0360547,615,827,-45.566,-6.07183
-602,197,-45.5662,5.14758,-0.00896957,0.0046076,-0.000269763,0.00461295,-0.00897493,-1.55094,0.00797857,0.0225362,622,827,-45.5662,-5.14758
-595,197,-45.7062,4.26404,-0.00453489,0.00348446,-0.000150709,0.00348729,-0.00453772,-1.55201,0.00464645,0.0189115,629,827,-45.7062,-4.26405
-588,197,-45.7643,3.26752,-0.00090789,0.00293226,0.000339153,0.00296198,-0.000937613,1.48338,0.00235038,0.0214538,636,827,-45.7643,-3.26749
-581,197,-45.8453,2.29572,0.00208962,0.00277652,0.0010955,0.00358115,0.001285,0.9373,0.00209487,0.0127154,643,827,-45.8453,-2.29571
-574,197,-45.8837,1.34521,0.00417277,0.00264116,0.00183837,0.00539846,0.00141547,0.588044,0.00323217,0.0143201,650,827,-45.8837,-1.34521
-567,197,-45.8152,0.452393,0.00538741,0.0028338,0.00263468,0.00703836,0.00118284,0.559766,0.00435188,0.0225094,657,827,-45.8152,-0.452375
-560,197,-45.6453,-0.634033,0,0,0,0,0,0,0,-1,664,827,-45.6453,0.634061
-553,197,-33.1771,-1.4881,0,0,0,0,0,0,0,-1,671,827,-33.1771,1.4881
-546,197,-46.6067,-2.19568,0,0,0,0,0,0,0,-1,678,827,-46.6067,2.19569
-539,197,-32.8993,-2.61737,0,0,0,0,0,0,0,-1,685,827,-32.8993,2.61737
-532,197,-16.0519,0.0410156,0,0,0,0,0,0,0,-1,692,827,-16.0519,-0.0410415
-525,197,-35.3785,2.11829,0,0,0,0,0,0,0,-1,699,827,-35.3785,-2.11826
-518,197,-57.6698,0.308533,0,0,0,0,0,0,0,-1,706,827,-57.6698,-0.308561
-511,197,-63.5859,0.674377,0,0,0,0,0,0,0,-1,713,827,-63.5859,-0.674378
-504,197,-63.6891,0.717834,0.000645777,-0.00566816,0.00227115,0.00137784,-0.00640022,0.311817,0.00479258,0.0407862,720,827,-63.6891,-0.717816
-497,197,-63.8119,0.595154,0.000863776,-0.00660134,0.00142419,0.00112625,-0.00686381,0.182254,0.00499381,0.0408124,727,827,-63.8119,-0.595145
-490,197,-63.7607,0.642273,0.00182018,-0.0071163,-0.000211392,0.00182517,-0.0071213,-0.0236373,0.0054586,0.0381714,734,827,-63.7607,-0.642299
-483,197,-63.5664,0.700562,0.00378404,-0.00757684,-0.00239777,0.00426937,-0.00806217,-0.19971,0.007231,0.0403124,741,827,-63.5664,-0.700566
-476,197,0,0,0,0,0,0,0,0,0,-1,748,827,0,0
-469,197,0,0,0,0,0,0,0,0,0,-1,755,827,0,0
-462,197,0,0,0,0,0,0,0,0,0,-1,762,827,0,0
-455,197,0,0,0,0,0,0,0,0,0,-1,769,827,0,0
-448,197,0,0,0,0,0,0,0,0,0,-1,776,827,0,0
-441,197,0,0,0,0,0,0,0,0,0,-1,783,827,0,0
-434,197,0,0,0,0,0,0,0,0,0,-1,790,827,0,0
-427,197,0,0,0,0,0,0,0,0,0,-1,797,827,0,0
-420,197,0,0,0,0,0,0,0,0,0,-1,804,827,0,0
-413,197,0,0,0,0,0,0,0,0,0,-1,811,827,0,0
-406,197,0,0,0,0,0,0,0,0,0,-1,818,827,0,0
-399,197,0,0,0,0,0,0,0,0,0,-1,825,827,0,0
-392,197,0,0,0,0,0,0,0,0,0,-1,832,827,0,0
-385,197,0,0,0,0,0,0,0,0,0,-1,839,827,0,0
-378,197,0,0,0,0,0,0,0,0,0,-1,846,827,0,0
-371,197,0,0,0,0,0,0,0,0,0,-1,853,827,0,0
-364,197,0,0,0,0,0,0,0,0,0,-1,860,827,0,0
-357,197,0,0,0,0,0,0,0,0,0,-1,867,827,0,0
-350,197,0,0,0,0,0,0,0,0,0,-1,874,827,0,0
-343,197,0,0,0,0,0,0,0,0,0,-1,881,827,0,0
-336,197,0,0,0,0,0,0,0,0,0,-1,888,827,0,0
-329,197,0,0,0,0,0,0,0,0,0,-1,895,827,0,0
-322,197,0,0,0,0,0,0,0,0,0,-1,902,827,0,0
-315,197,0,0,0,0,0,0,0,0,0,-1,909,827,0,0
-308,197,0,0,0,0,0,0,0,0,0,-1,916,827,0,0
-301,197,0,0,0,0,0,0,0,0,0,-1,923,827,0,0
-294,197,0,0,0,0,0,0,0,0,0,-1,930,827,0,0
-287,197,0,0,0,0,0,0,0,0,0,-1,937,827,0,0
-280,197,0,0,0,0,0,0,0,0,0,-1,944,827,0,0
-273,197,0,0,0,0,0,0,0,0,0,-1,951,827,0,0
-266,197,0,0,0,0,0,0,0,0,0,-1,958,827,0,0
-259,197,0,0,0,0,0,0,0,0,0,-1,965,827,0,0
-252,197,0,0,0,0,0,0,0,0,0,-1,972,827,0,0
-245,197,0,0,0,0,0,0,0,0,0,-1,979,827,0,0
-238,197,0,0,0,0,0,0,0,0,0,-1,986,827,0,0
-231,197,0,0,0,0,0,0,0,0,0,-1,993,827,0,0
-224,197,0,0,0,0,0,0,0,0,0,-1,1000,827,0,0
-217,197,0,0,0,0,0,0,0,0,0,-1,1007,827,0,0
-210,197,0,0,0,0,0,0,0,0,0,-1,1014,827,0,0
-203,197,0,0,0,0,0,0,0,0,0,-1,1021,827,0,0
-196,197,0,0,0,0,0,0,0,0,0,-1,1028,827,0,0
-189,197,0,0,0,0,0,0,0,0,0,-1,1035,827,0,0
-182,197,0,0,0,0,0,0,0,0,0,-1,1042,827,0,0
-175,197,0,0,0,0,0,0,0,0,0,-1,1049,827,0,0
-168,197,0,0,0,0,0,0,0,0,0,-1,1056,827,0,0
-161,197,0,0,0,0,0,0,0,0,0,-1,1063,827,0,0
-154,197,0,0,0,0,0,0,0,0,0,-1,1070,827,0,0
-147,197,0,0,0,0,0,0,0,0,0,-1,1077,827,0,0
-140,197,0,0,0,0,0,0,0,0,0,-1,1084,827,0,0
-133,197,0,0,0,0,0,0,0,0,0,-1,1091,827,0,0
-126,197,0,0,0,0,0,0,0,0,0,-1,1098,827,0,0
-119,197,0,0,0,0,0,0,0,0,0,-1,1105,827,0,0
-112,197,0,0,0,0,0,0,0,0,0,-1,1112,827,0,0
-105,197,0,0,0,0,0,0,0,0,0,-1,1119,827,0,0
-98,197,0,0,0,0,0,0,0,0,0,-1,1126,827,0,0
-91,197,0,0,0,0,0,0,0,0,0,-1,1133,827,0,0
-84,197,0,0,0,0,0,0,0,0,0,-1,1140,827,0,0
-77,197,0,0,0,0,0,0,0,0,0,-1,1147,827,0,0
-70,197,0,0,0,0,0,0,0,0,0,-1,1154,827,0,0
-63,197,0,0,0,0,0,0,0,0,0,-1,1161,827,0,0
-56,197,0,0,0,0,0,0,0,0,0,-1,1168,827,0,0
-49,197,0,0,0,0,0,0,0,0,0,-1,1175,827,0,0
-42,197,0,0,0,0,0,0,0,0,0,-1,1182,827,0,0
-35,197,0,0,0,0,0,0,0,0,0,-1,1189,827,0,0
-28,197,0,0,0,0,0,0,0,0,0,-1,1196,827,0,0
-21,197,0,0,0,0,0,0,0,0,0,-1,1203,827,0,0
-14,197,0,0,0,0,0,0,0,0,0,-1,1210,827,0,0
-7,197,0,0,0,0,0,0,0,0,0,-1,1217,827,0,0
0,197,0,0,0,0,0,0,0,0,0,-1,1224,827,0,0
7,197,0,0,0,0,0,0,0,0,0,-1,1231,827,0,0
14,197,0,0,0,0,0,0,0,0,0,-1,1238,827,0,0
21,197,0,0,0,0,0,0,0,0,0,-1,1245,827,0,0
28,197,0,0,0,0,0,0,0,0,0,-1,1252,827,0,0
35,197,0,0,0,0,0,0,0,0,0,-1,1259,827,0,0
42,197,0,0,0,0,0,0,0,0,0,-1,1266,827,0,0
49,197,0,0,0,0,0,0,0,0,0,-1,1273,827,0,0
56,197,0,0,0,0,0,0,0,0,0,-1,1280,827,0,0
63,197,0,0,0,0,0,0,0,0,0,-1,1287,827,0,0
70,197,0,0,0,0,0,0,0,0,0,-1,1294,827,0,0
77,197,0,0,0,0,0,0,0,0,0,-1,1301,827,0,0
84,197,0,0,0,0,0,0,0,0,0,-1,1308,827,0,0
91,197,0,0,0,0,0,0,0,0,0,-1,1315,827,0,0
98,197,0,0,0,0,0,0,0,0,0,-1,1322,827,0,0
105,197,0,0,0,0,0,0,0,0,0,-1,1329,827,0,0
112,197,0,0,0,0,0,0,0,0,0,-1,1336,827,0,0
119,197,0,0,0,0,0,0,0,0,0,-1,1343,827,0,0
126,197,0,0,0,0,0,0,0,0,0,-1,1350,827,0,0
133,197,0,0,0,0,0,0,0,0,0,-1,1357,827,0,0
140,197,0,0,0,0,0,0,0,0,0,-1,1364,827,0,0
147,197,0,0,0,0,0,0,0,0,0,-1,1371,827,0,0
154,197,0,0,0,0,0,0,0,0,0,-1,1378,827,0,0
161,197,0,0,0,0,0,0,0,0,0,-1,1385,827,0,0
168,197,0,0,0,0,0,0,0,0,0,-1,1392,827,0,0
175,197,0,0,0,0,0,0,0,0,0,-1,1399,827,0,0
182,197,0,0,0,0,0,0,0,0,0,-1,1406,827,0,0
189,197,0,0,0,0,0,0,0,0,0,-1,1413,827,0,0
196,197,0,0,0,0,0,0,0,0,0,-1,1420,827,0,0
203,197,0,0,0,0,0,0,0,0,0,-1,1427,827,0,0
210,197,0,0,0,0,0,0,0,0,0,-1,1434,827,0,0
217,197,0,0,0,0,0,0,0,0,0,-1,1441,827,0,0
224,197,0,0,0,0,0,0,0,0,0,-1,1448,827,0,0
231,197,0,0,0,0,0,0,0,0,0,-1,1455,827,0,0
238,197,0,0,0,0,0,0,0,0,0,-1,1462,827,0,0
245,197,0,0,0,0,0,0,0,0,0,-1,1469,827,0,0
252,197,0,0,0,0,0,0,0,0,0,-1,1476,827,0,0
259,197,0,0,0,0,0,0,0,0,0,-1,1483,827,0,0
266,197,0,0,0,0,0,0,0,0,0,-1,1490,827,0,0
273,197,0,0,0,0,0,0,0,0,0,-1,1497,827,0,0
280,197,0,0,0,0,0,0,0,0,0,-1,1504,827,0,0
287,197,0,0,0,0,0,0,0,0,0,-1,1511,827,0,0
294,197,0,0,0,0,0,0,0,0,0,-1,1518,827,0,0
301,197,0,0,0,0,0,0,0,0,0,-1,1525,827,0,0
308,197,0,0,0,0,0,0,0,0,0,-1,1532,827,0,0
315,197,0,0,0,0,0,0,0,0,0,-1,1539,827,0,0
322,197,0,0,0,0,0,0,0,0,0,-1,1546,827,0,0
329,197,0,0,0,0,0,0,0,0,0,-1,1553,827,0,0
336,197,0,0,0,0,0,0,0,0,0,-1,1560,827,0,0
343,197,0,0,0,0,0,0,0,0,0,-1,1567,827,0,0
350,197,0,0,0,0,0,0,0,0,0,-1,1574,827,0,0
357,197,0,0,0,0,0,0,0,0,0,-1,1581,827,0,0
364,197,0,0,0,0,0,0,0,0,0,-1,1588,827,0,0
371,197,0,0,0,0,0,0,0,0,0,-1,1595,827,0,0
378,197,0,0,0,0,0,0,0,0,0,-1,1602,827,0,0
385,197,0,0,0,0,0,0,0,0,0,-1,1609,827,0,0
392,197,0,0,0,0,0,0,0,0,0,-1,1616,827,0,0
399,197,0,0,0,0,0,0,0,0,0,-1,1623,827,0,0
406,197,0,0,0,0,0,0,0,0,0,-1,1630,827,0,0
413,197,0,0,0,0,0,0,0,0,0,-1,1637,827,0,0
420,197,0,0,0,0,0,0,0,0,0,-1,1644,827,0,0
427,197,0,0,0,0,0,0,0,0,0,-1,1651,827,0,0
434,197,0,0,0,0,0,0,0,0,0,-1,1658,827,0,0
441,197,0,0,0,0,0,0,0,0,0,-1,1665,827,0,0
448,197,0,0,0,0,0,0,0,0,0,-1,1672,827,0,0
455,197,0,0,0,0,0,0,0,0,0,-1,1679,827,0,0
462,197,0,0,0,0,0,0,0,0,0,-1,1686,827,0,0
469,197,0,0,0,0,0,0,0,0,0,-1,1693,827,0,0
476,197,0,0,0,0,0,0,0,0,0,-1,1700,827,0,0
483,197,0,0,0,0,0,0,0,0,0,-1,1707,827,0,0
490,197,0,0,0,0,0,0,0,0,0,-1,1714,827,0,0
497,197,0,0,0,0,0,0,0,0,0,-1,1721,827,0,0
504,197,0,0,0,0,0,0,0,0,0,-1,1728,827,0,0
511,197,0,0,0,0,0,0,0,0,0,-1,1735,827,0,0
518,197,0,0,0,0,0,0,0,0,0,-1,1742,827,0,0
525,197,0,0,0,0,0,0,0,0,0,-1,1749,827,0,0
532,197,0,0,0,0,0,0,0,0,0,-1,1756,827,0,0
539,197,0,0,0,0,0,0,0,0,0,-1,1763,827,0,0
546,197,0,0,0,0,0,0,0,0,0,-1,1770,827,0,0
553,197,0,0,0,0,0,0,0,0,0,-1,1777,827,0,0
560,197,0,0,0,0,0,0,0,0,0,-1,1784,827,0,0
567,197,0,0,0,0,0,0,0,0,0,-1,1791,827,0,0
574,197,0,0,0,0,0,0,0,0,0,-1,1798,827,0,0
581,197,0,0,0,0,0,0,0,0,0,-1,1805,827,0,0
588,197,0,0,0,0,0,0,0,0,0,-1,1812,827,0,0
595,197,0,0,0,0,0,0,0,0,0,-1,1819,827,0,0
602,197,80.1384,2.61194,0.0101297,-0.00403492,-0.00666086,0.0127699,-0.00667506,-0.37737,0.0114089,0.0416314,1826,827,80.1384,-2.61194
609,197,80.1687,2.4212,0.00660686,-0.00246066,-0.00397192,0.00810063,-0.00395444,-0.35972,0.00709589,0.0423692,1833,827,80.1687,-2.4212
616,197,80.3219,2.14697,0.00315672,-0.000674314,-0.00147433,0.0036584,-0.001176,-0.327988,0.00291121,0.0404868,1840,827,80.3218,-2.14699
623,197,80.298,2.17059,0.000604068,0.000781378,0.000463093,0.00116423,0.00022122,0.879974,0.000713928,0.0367079,1847,827,80.298,-2.17057
630,197,80.3124,2.20062,0,0,0,0,0,0,0,-1,1854,827,80.3123,-2.20062
637,197,80.2126,2.24677,0,0,0,0,0,0,0,-1,1861,827,80.2126,-2.24678
644,197,80.2263,2.36432,0,0,0,0,0,0,0,-1,1868,827,80.2263,-2.3643
651,197,73.8147,2.2644,0,0,0,0,0,0,0,-1,1875,827,73.8147,-2.26442
658,197,40.4694,3.05927,0,0,0,0,0,0,0,-1,1882,827,40.4694,-3.05926
665,197,14.0618,1.80304,0,0,0,0,0,0,0,-1,1889,827,14.0617,-1.80303
672,197,62.6799,-2.76849,0,0,0,0,0,0,0,-1,1896,827,62.6799,2.76848
679,197,62.5488,-1.53998,-0.00112148,0.000773911,-0.000292104,0.000817907,-0.00116548,-1.4213,0.00115095,0.0395073,1903,827,62.5489,1.53996
686,197,62.4708,-0.523376,-0.00106385,0.000336765,-0.000888339,0.000767641,-0.00149473,-1.11919,0.00132847,0.0301309,1910,827,62.4709,0.523368
693,197,62.2379,0.475586,-0.000894649,-3.71928e-05,-0.00133579,0.000936982,-0.00186882,-0.940683,0.00164944,0.041099,1917,827,62.238,-0.475602
700,197,62.1687,1.24365,-0.000684643,-0.000295695,-0.00157457,0.00109637,-0.00207671,-0.846841,0.00186089,0.0367545,1924,827,62.1687,-1.24368
707,197,62.1233,2.25867,-0.000352823,-0.000246797,-0.00143272,0.00113389,-0.00173351,-0.803891,0.00166751,0.0107742,1931,827,62.1232,-2.25865
714,197,62.0685,3.18011,0.000419637,0.000369862,-0.000835365,0.00123049,-0.000440987,-0.770507,0.00100026,0.0138953,1938,827,62.0685,-3.18009
721,197,62.0082,4.13458,0.00144547,0.00121678,6.10113e-05,0.00146073,0.00120152,0.245069,0.000899949,0.0141928,1945,827,62.0082,-4.13459
728,197,61.9281,5.05328,0.00271451,0.00215448,0.00125025,0.00371572,0.00115327,0.675231,0.00219609,0.0116658,1952,827,61.9281,-5.05327
735,197,61.8412,5.99213,0.00430353,0.00327656,0.00273103,0.00656893,0.00101116,0.692474,0.00408417,0.01275,1959,827,61.8412,-5.99211
742,197,61.8156,6.94366,0.00624883,0.00444109,0.00471876,0.0101495,0.00054041,0.69077,0.00659359,0.0238017,1966,827,61.8155,-6.94365
749,197,61.9799,8.02496,0.00872309,0.00564281,0.00732496,0.0146681,-0.000302171,0.681778,0.00988098,0.0498091,1973,827,61.9798,-8.02498
756,197,62.0983,9.11658,0,0,0,0,0,0,0,-1,1980,827,62.0982,-9.11656
763,197,59.4764,9.61688,0,0,0,0,0,0,0,-1,1987,827,59.4765,-9.61686
770,197,59.1899,10.6091,0,0,0,0,0,0,0,-1,1994,827,59.1899,-10.6091
777,197,0,0,0,0,0,0,0,0,0,-1,2001,827,0,0
784,197,0,0,0,0,0,0,0,0,0,-1,2008,827,0,0
791,197,0,0,0,0,0,0,0,0,0,-1,2015,827,0,0
798,197,0,0,0,0,0,0,0,0,0,-1,2022,827,0,0
805,197,0,0,0,0,0,0,0,0,0,-1,2029,827,0,0
812,197,0,0,0,0,0,0,0,0,0,-1,2036,827,0,0
-700,190,0,0,0,0,0,0,0,0,0,-1,524,834,0,0
-693,190,0,0,0,0,0,0,0,0,0,-1,531,834,0,0
-686,190,0,0,0,0,0,0,0,0,0,-1,538,834,0,0
-679,190,0,0,0,0,0,0,0,0,0,-1,545,834,0,0
-672,190,0,0,0,0,0,0,0,0,0,-1,552,834,0,0
-665,190,0,0,0,0,0,0,0,0,0,-1,559,834,0,0
-658,190,-41.9736,5.50092,0,0,0,0,0,0,0,-1,566,834,-41.9736,-5.50089
-651,190,-40.1895,4.99677,0,0,0,0,0,0,0,-1,573,834,-40.1894,-4.99677
-644,190,-43.4772,11.1134,0,0,0,0,0,0,0,-1,580,834,-43.4771,-11.1134
-637,190,-43.1797,9.53918,0,0,0,0,0,0,0,-1,587,834,-43.1797,-9.53917
-630,190,-43.3638,9.78387,0,0,0,0,0,0,0,-1,594,834,-43.3638,-9.78386
-623,190,-46.0156,8.79089,0,0,0,0,0,0,0,-1,601,834,-46.0156,-8.79087
-616,190,-46.5893,6.92609,0,0,0,0,0,0,0,-1,608,834,-46.5893,-6.92609
-609,190,-46.5063,6.07544,-0.0131754,0.00754979,0.0017424,0.00769526,-0.0133209,1.4875,0.0122777,0.0287116,615,834,-46.5064,-6.07541
-602,190,-46.5836,5.22211,-0.00824337,0.0054315,0.00139563,0.00557248,-0.00838435,1.47012,0.00811231,0.0203842,622,834,-46.5836,-5.22212
-595,190,-46.6842,4.29449,-0.00389799,0.00409561,0.00128606,0.00429742,-0.0040998,1.41514,0.00484859,0.0198579,629,834,-46.6842,-4.2945
-588,190,-46.7325,3.3222,-0.000353377,0.00332427,0.00146548,0.00383681,-0.000865917,1.23435,0.00289008,0.020763,636,834,-46.7326,-3.32218
-581,190,-46.784,2.36829,0.00250618,0.00296278,0.00183757,0.00458617,0.000882781,0.847201,0.0028098,0.0155525,643,834,-46.784,-2.36829
-574,190,-46.8206,1.43341,0.00423046,0.00264303,0.00228675,0.00585732,0.00101617,0.618357,0.00361409,0.0147698,650,834,-46.8206,-1.43339
-567,190,-46.6915,0.324768,0.00520763,0.00271652,0.00282382,0.00704839,0.00087576,0.577689,0.00443592,0.0340423,657,834,-46.6915,-0.324798
-560,190,-46.4743,-0.824951,0,0,0,0,0,0,0,-1,664,834,-46.4743,0.824932
-553,190,-33.9625,-1.6355,0,0,0,0,0,0,0,-1,671,834,-33.9625,1.63552
-546,190,-33.7621,-2.04889,0,0,0,0,0,0,0,-1,678,834,-33.7621,2.04886
-539,190,-16.4624,-0.542542,0,0,0,0,0,0,0,-1,685,834,-16.4624,0.542527
-532,190,-21.6292,2.06122,0,0,0,0,0,0,0,-1,692,834,-21.6292,-2.06123
-525,190,-38.9377,1.03369,0,0,0,0,0,0,0,-1,699,834,-38.9377,-1.0337
-518,190,-63.546,0.630371,0,0,0,0,0,0,0,-1,706,834,-63.546,-0.630377
-511,190,-63.6034,0.793579,0,0,0,0,0,0,0,-1,713,834,-63.6034,-0.793593
-504,190,-63.6398,0.87793,0.00132538,-0.00652995,0.00206641,0.0018358,-0.00704037,0.242161,0.00541035,0.0428236,720,834,-63.6399,-0.877942
-497,190,-63.7036,0.834961,0.001898,-0.00746317,0.000815828,0.00196857,-0.00753374,0.0862833,0.00579131,0.0445814,727,834,-63.7036,-0.834937
-490,190,-63.6785,0.889648,0.00346492,-0.00789097,-0.00113282,0.00357682,-0.00800287,-0.098463,0.00684639,0.0406336,734,834,-63.6785,-0.889638
-483,190,0,0,0,0,0,0,0,0,0,-1,741,834,0,0
-476,190,0,0,0,0,0,0,0,0,0,-1,748,834,0,0
-469,190,0,0,0,0,0,0,0,0,0,-1,755,834,0,0
-462,190,0,0,0,0,0,0,0,0,0,-1,762,834,0,0
-455,190,0,0,0,0,0,0,0,0,0,-1,769,834,0,0
-448,190,0,0,0,0,0,0,0,0,0,-1,776,834,0,0
-441,190,0,0,0,0,0,0,0,0,0,-1,783,834,0,0
-434,190,0,0,0,0,0,0,0,0,0,-1,790,834,0,0
-427,190,0,0,0,0,0,0,0,0,0,-1,797,834,0,0
-420,190,0,0,0,0,0,0,0,0,0,-1,804,834,0,0
-413,190,0,0,0,0,0,0,0,0,0,-1,811,834,0,0
-406,190,0,0,0,0,0,0,0,0,0,-1,818,834,0,0
-399,190,0,0,0,0,0,0,0,0,0,-1,825,834,0,0
-392,190,0,0,0,0,0,0,0,0,0,-1,832,834,0,0
-385,190,0,0,0,0,0,0,0,0,0,-1,839,834,0,0
-378,190,0,0,0,0,0,0,0,0,0,-1,846,834,0,0
-371,190,0,0,0,0,0,0,0,0,0,-1,853,834,0,0
-364,190,0,0,0,0,0,0,0,0,0,-1,860,834,0,0
-357,190,0,0,0,0,0,0,0,0,0,-1,867,834,0,0
-350,190,0,0,0,0,0,0,0,0,0,-1,874,834,0,0
-343,190,0,0,0,0,0,0,0,0,0,-1,881,834,0,0
-336,190,0,0,0,0,0,0,0,0,0,-1,888,834,0,0
-329,190,0,0,0,0,0,0,0,0,0,-1,895,834,0,0
-322,190,0,0,0,0,0,0,0,0,0,-1,902,834,0,0
-315,190,0,0,0,0,0,0,0,0,0,-1,909,834,0,0
-308,190,0,0,0,0,0,0,0,0,0,-1,916,834,0,0
-301,190,0,0,0,0,0,0,0,0,0,-1,923,834,0,0
-294,190,0,0,0,0,0,0,0,0,0,-1,930,834,0,0
-287,190,0,0,0,0,0,0,0,0,0,-1,937,834,0,0
-280,190,0,0,0,0,0,0,0,0,0,-1,944,834,0,0
-273,190,0,0,0,0,0,0,0,0,0,-1,951,834,0,0
-266,190,0,0,0,0,0,0,0,0,0,-1,958,834,0,0
-259,190,0,0,0,0,0,0,0,0,0,-1,965,834,0,0
-252,190,0,0,0,0,0,0,0,0,0,-1,972,834,0,0
-245,190,0,0,0,0,0,0,0,0,0,-1,979,834,0,0
-238,190,0,0,0,0,0,0,0,0,0,-1,986,834,0,0
-231,190,0,0,0,0,0,0,0,0,0,-1,993,834,0,0
-224,190,0,0,0,0,0,0,0,0,0,-1,1000,834,0,0
-217,190,0,0,0,0,0,0,0,0,0,-1,1007,834,0,0
-210,190,0,0,0,0,0,0,0,0,0,-1,1014,834,0,0
-203,190,0,0,0,0,0,0,0,0,0,-1,1021,834,0,0
-196,190,0,0,0,0,0,0,0,0,0,-1,1028,834,0,0
-189,190,0,0,0,0,0,0,0,0,0,-1,1035,834,0,0
-182,190,0,0,0,0,0,0,0,0,0,-1,1042,834,0,0
-175,190,0,0,0,0,0,0,0,0,0,-1,1049,834,0,0
-168,190,0,0,0,0,0,0,0,0,0,-1,1056,834,0,0
-161,190,0,0,0,0,0,0,0,0,0,-1,1063,834,0,0
-154,190,0,0,0,0,0,0,0,0,0,-1,1070,834,0,0
-147,190,0,0,0,0,0,0,0,0,0,-1,1077,834,0,0
-140,190,0,0,0,0,0,0,0,0,0,-1,1084,834,0,0
-133,190,0,0,0,0,0,0,0,0,0,-1,1091,834,0,0
-126,190,0,0,0,0,0,0,0,0,0,-1,1098,834,0,0
-119,190,0,0,0,0,0,0,0,0,0,-1,1105,834,0,0
-112,190,0,0,0,0,0,0,0,0,0,-1,1112,834,0,0
-105,190,0,0,0,0,0,0,0,0,0,-1,1119,834,0,0
-98,190,0,0,0,0,0,0,0,0,0,-1,1126,834,0,0
-91,190,0,0,0,0,0,0,0,0,0,-1,1133,834,0,0
-84,190,0,0,0,0,0,0,0,0,0,-1,1140,834,0,0
-77,190,0,0,0,0,0,0,0,0,0,-1,1147,834,0,0
-70,190,0,0,0,0,0,0,0,0,0,-1,1154,834,0,0
-63,190,0,0,0,0,0,0,0,0,0,-1,1161,834,0,0
-56,190,0,0,0,0,0,0,0,0,0,-1,1168,834,0,0
-49,190,0,0,0,0,0,0,0,0,0,-1,1175,834,0,0
-42,190,0,0,0,0,0,0,0,0,0,-1,1182,834,0,0
-35,190,0,0,0,0,0,0,0,0,0,-1,1189,834,0,0
-28,190,0,0,0,0,0,0,0,0,0,-1,1196,834,0,0
-21,190,0,0,0,0,0,0,0,0,0,-1,1203,834,0,0
-14,190,0,0,0,0,0,0,0,0,0,-1,1210,834,0,0
-7,190,0,0,0,0,0,0,0,0,0,-1,1217,834,0,0
0,190,0,0,0,0,0,0,0,0,0,-1,1224,834,0,0
7,190,0,0,0,0,0,0,0,0,0,-1,1231,834,0,0
14,190,0,0,0,0,0,0,0,0,0,-1,1238,834,0,0
21,190,0,0,0,0,0,0,0,0,0,-1,1245,834,0,0
28,190,0,0,0,0,0,0,0,0,0,-1,1252,834,0,0
35,190,0,0,0,0,0,0,0,0,0,-1,1259,834,0,0
42,190,0,0,0,0,0,0,0,0,0,-1,1266,834,0,0
49,190,0,0,0,0,0,0,0,0,0,-1,1273,834,0,0
56,190,0,0,0,0,0,0,0,0,0,-1,1280,834,0,0
63,190,0,0,0,0,0,0,0,0,0,-1,1287,834,0,0
70,190,0,0,0,0,0,0,0,0,0,-1,1294,834,0,0
77,190,0,0,0,0,0,0,0,0,0,-1,1301,834,0,0
84,190,0,0,0,0,0,0,0,0,0,-1,1308,834,0,0
91,190,0,0,0,0,0,0,0,0,0,-1,1315,834,0,0
98,190,0,0,0,0,0,0,0,0,0,-1,1322,834,0,0
105,190,0,0,0,0,0,0,0,0,0,-1,1329,834,0,0
112,190,0,0,0,0,0,0,0,0,0,-1,1336,834,0,0
119,190,0,0,0,0,0,0,0,0,0,-1,1343,834,0,0
126,190,0,0,0,0,0,0,0,0,0,-1,1350,834,0,0
133,190,0,0,0,0,0,0,0,0,0,-1,1357,834,0,0
140,190,0,0,0,0,0,0,0,0,0,-1,1364,834,0,0
147,190,0,0,0,0,0,0,0,0,0,-1,1371,834,0,0
154,190,0,0,0,0,0,0,0,0,0,-1,1378,834,0,0
161,190,0,0,0,0,0,0,0,0,0,-1,1385,834,0,0
168,190,0,0,0,0,0,0,0,0,0,-1,1392,834,0,0
175,190,0,0,0,0,0,0,0,0,0,-1,1399,834,0,0
182,190,0,0,0,0,0,0,0,0,0,-1,1406,834,0,0
189,190,0,0,0,0,0,0,0,0,0,-1,1413,834,0,0
196,190,0,0,0,0,0,0,0,0,0,-1,1420,834,0,0
203,190,0,0,0,0,0,0,0,0,0,-1,1427,834,0,0
210,190,0,0,0,0,0,0,0,0,0,-1,1434,834,0,0
217,190,0,0,0,0,0,0,0,0,0,-1,1441,834,0,0
224,190,0,0,0,0,0,0,0,0,0,-1,1448,834,0,0
231,190,0,0,0,0,0,0,0,0,0,-1,1455,834,0,0
238,190,0,0,0,0,0,0,0,0,0,-1,1462,834,0,0
245,190,0,0,0,0,0,0,0,0,0,-1,1469,834,0,0
252,190,0,0,0,0,0,0,0,0,0,-1,1476,834,0,0
259,190,0,0,0,0,0,0,0,0,0,-1,1483,834,0,0
266,190,0,0,0,0,0,0,0,0,0,-1,1490,834,0,0
273,190,0,0,0,0,0,0,0,0,0,-1,1497,834,0,0
280,190,0,0,0,0,0,0,0,0,0,-1,1504,834,0,0
287,190,0,0,0,0,0,0,0,0,0,-1,1511,834,0,0
294,190,0,0,0,0,0,0,0,0,0,-1,1518,834,0,0
301,190,0,0,0,0,0,0,0,0,0,-1,1525,834,0,0
308,190,0,0,0,0,0,0,0,0,0,-1,1532,834,0,0
315,190,0,0,0,0,0,0,0,0,0,-1,1539,834,0,0
322,190,0,0,0,0,0,0,0,0,0,-1,1546,834,0,0
329,190,0,0,0,0,0,0,0,0,0,-1,1553,834,0,0
336,190,0,0,0,0,0,0,0,0,0,-1,1560,834,0,0
343,190,0,0,0,0,0,0,0,0,0,-1,1567,834,0,0
350,190,0,0,0,0,0,0,0,0,0,-1,1574,834,0,0
357,190,0,0,0,0,0,0,0,0,0,-1,1581,834,0,0
364,190,0,0,0,0,0,0,0,0,0,-1,1588,834,0,0
371,190,0,0,0,0,0,0,0,0,0,-1,1595,834,0,0
378,190,0,0,0,0,0,0,0,0,0,-1,1602,834,0,0
385,190,0,0,0,0,0,0,0,0,0,-1,1609,834,0,0
392,190,0,0,0,0,0,0,0,0,0,-1,1616,834,0,0
399,190,0,0,0,0,0,0,0,0,0,-1,1623,834,0,0
406,190,0,0,0,0,0,0,0,0,0,-1,1630,834,0,0
413,190,0,0,0,0,0,0,0,0,0,-1,1637,834,0,0
420,190,0,0,0,0,0,0,0,0,0,-1,1644,834,0,0
427,190,0,0,0,0,0,0,0,0,0,-1,1651,834,0,0
434,190,0,0,0,0,0,0,0,0,0,-1,1658,834,0,0
441,190,0,0,0,0,0,0,0,0,0,-1,1665,834,0,0
448,190,0,0,0,0,0,0,0,0,0,-1,1672,834,0,0
455,190,0,0,0,0,0,0,0,0,0,-1,1679,834,0,0
462,190,0,0,0,0,0,0,0,0,0,-1,1686,834,0,0
469,190,0,0,0,0,0,0,0,0,0,-1,1693,834,0,0
476,190,0,0,0,0,0,0,0,0,0,-1,1700,834,0,0
483,190,0,0,0,0,0,0,0,0,0,-1,1707,834,0,0
490,190,0,0,0,0,0,0,0,0,0,-1,1714,834,0,0
497,190,0,0,0,0,0,0,0,0,0,-1,1721,834,0,0
504,190,0,0,0,0,0,0,0,0,0,-1,1728,834,0,0
511,190,0,0,0,0,0,0,0,0,0,-1,1735,834,0,0
518,190,0,0,0,0,0,0,0,0,0,-1,1742,834,0,0
525,190,0,0,0,0,0,0,0,0,0,-1,1749,834,0,0
532,190,0,0,0,0,0,0,0,0,0,-1,1756,834,0,0
539,190,0,0,0,0,0,0,0,0,0,-1,1763,834,0,0
546,190,0,0,0,0,0,0,0,0,0,-1,1770,834,0,0
553,190,0,0,0,0,0,0,0,0,0,-1,1777,834,0,0
560,190,0,0,0,0,0,0,0,0,0,-1,1784,834,0,0
567,190,0,0,0,0,0,0,0,0,0,-1,1791,834,0,0
574,190,0,0,0,0,0,0,0,0,0,-1,1798,834,0,0
581,190,0,0,0,0,0,0,0,0,0,-1,1805,834,0,0
588,190,0,0,0,0,0,0,0,0,0,-1,1812,834,0,0
595,190,0,0,0,0,0,0,0,0,0,-1,1819,834,0,0
602,190,79.9811,2.51678,0.0112927,-0.00527833,-0.00795198,0.0144912,-0.00847688,-0.38243,0.0134113,0.0454591,1826,834,79.9811,-2.51681
609,190,80.1573,2.39453,0.00771353,-0.00363049,-0.00526133,0.00977801,-0.00569496,-0.373927,0.00903641,0.0419095,1833,834,80.1574,-2.39451
616,190,80.3074,2.19287,0.00419606,-0.00168468,-0.00274857,0.00528067,-0.00276928,-0.375848,0.00472243,0.0377285,1840,834,80.3074,-2.19289
623,190,80.2963,2.25787,0.00118903,0.000151392,-0.000475659,0.00137408,-3.36532e-05,-0.371013,0.000927472,0.0354363,1847,834,80.2963,-2.25786
630,190,80.2181,2.35095,-0.000341408,0.00150811,0.000764617,0.00178328,-0.000616573,1.22535,0.0014391,0.0407061,1854,834,80.2181,-2.35094
637,190,80.1749,2.36536,-0.000703055,0.00153635,0.000781882,0.00178232,-0.000949029,1.26601,0.00160122,0.0354635,1861,834,80.175,-2.36535
644,190,80.1582,2.40479,-0.000885695,0.00118626,0.000493282,0.0012977,-0.000997139,1.3486,0.00132871,0.0314824,1868,834,80.1582,-2.40476
651,190,80.0342,2.68408,0,0,0,0,0,0,0,-1,1875,834,80.0342,-2.68409
658,190,54.0599,3.0943,0,0,0,0,0,0,0,-1,1882,834,54.0599,-3.09428
665,190,25.9916,3.05157,0,0,0,0,0,0,0,-1,1889,834,25.9916,-3.05156
672,190,27.2662,1.70862,0,0,0,0,0,0,0,-1,1896,834,27.2662,-1.70861
679,190,63.4821,-1.28632,0,0,0,0,0,0,0,-1,1903,834,63.482,1.2863
686,190,63.3878,-0.447205,-0.00145067,0.000672585,-0.00098449,0.00105881,-0.00183689,-1.19694,0.00169183,0.0300056,1910,834,63.3878,0.44718
693,190,63.3737,0.523254,-0.0012704,0.000333046,-0.00137326,0.00112149,-0.00205884,-1.04961,0.00186255,0.0371861,1917,834,63.3737,-0.523231
700,190,63.1187,1.39307,-0.00107831,1.73271e-05,-0.00162832,0.00118751,-0.00224849,-0.947666,0.00201505,0.0272115,1924,834,63.1186,-1.39305
707,190,63.0586,2.34253,-0.000853901,-6.66936e-05,-0.00162405,0.00121076,-0.00213136,-0.904286,0.00195382,0.0148621,1931,834,63.0585,-2.34251
714,190,63.0148,3.24286,-0.000180807,0.000459359,-0.00119584,0.00137721,-0.00109866,-0.916165,0.00143246,0.0140224,1938,834,63.0148,-3.24286
721,190,62.9631,4.15314,0.000731718,0.00130018,-0.00042976,0.0015312,0.0005007,-1.07756,0.000901505,0.012602,1945,834,62.9631,-4.15317
728,190,62.9087,5.07263,0.0018247,0.00231022,0.000676069,0.00278579,0.00134913,0.957769,0.00160864,0.0140052,1952,834,62.9087,-5.07264
735,190,62.8481,5.98926,0.00313808,0.00354066,0.00201143,0.00536085,0.00131789,0.835268,0.00322563,0.013821,1959,834,62.8481,-5.98927
742,190,62.7217,6.96118,0.00466583,0.00490177,0.00371358,0.00849926,0.00106835,0.801276,0.00534576,0.0202208,1966,834,62.7217,-6.96121
749,190,62.6196,8.10211,0.00650238,0.00642966,0.00584342,0.0123096,0.00062248,0.782287,0.00800695,0.0434782,1973,834,62.6196,-8.10213
756,190,62.2827,9.64856,0,0,0,0,0,0,0,-1,1980,834,62.2827,-9.64854
763,190,60.58,9.73883,0,0,0,0,0,0,0,-1,1987,834,60.5799,-9.73885
770,190,54.7947,10.1494,0,0,0,0,0,0,0,-1,1994,834,54.7947,-10.1494
777,190,51.4365,10.3331,0,0,0,0,0,0,0,-1,2001,834,51.4366,-10.3331
784,190,0,0,0,0,0,0,0,0,0,-1,2008,834,0,0
791,190,0,0,0,0,0,0,0,0,0,-1,2015,834,0,0
798,190,0,0,0,0,0,0,0,0,0,-1,2022,834,0,0
805,190,0,0,0,0,0,0,0,0,0,-1,2029,834,0,0
812,190,0,0,0,0,0,0,0,0,0,-1,2036,834,0,0
-700,183,0,0,0,0,0,0,0,0,0,-1,524,841,0,0
-693,183,0,0,0,0,0,0,0,0,0,-1,531,841,0,0
-686,183,0,0,0,0,0,0,0,0,0,-1,538,841,0,0
-679,183,0,0,0,0,0,0,0,0,0,-1,545,841,0,0
-672,183,0,0,0,0,0,0,0,0,0,-1,552,841,0,0
-665,183,0,0,0,0,0,0,0,0,0,-1,559,841,0,0
-658,183,-56.7401,1.32843,0,0,0,0,0,0,0,-1,566,841,-56.7401,-1.32844
-651,183,-44.3059,12.2423,0,0,0,0,0,0,0,-1,573,841,-44.3059,-12.2423
-644,183,-46.8565,10.944,0,0,0,0,0,0,0,-1,580,841,-46.8565,-10.944
-637,183,-44.9379,10.8293,0,0,0,0,0,0,0,-1,587,841,-44.9379,-10.8293
-630,183,-46.272,9.47168,0,0,0,0,0,0,0,-1,594,841,-46.272,-9.47168
-623,183,-46.8029,8.52325,-0.0236768,0.0154864,0.00400957,0.0158927,-0.0240831,1.46981,0.0232409,0.0464273,601,841,-46.8029,-8.52324
-616,183,-47.5068,7.15277,-0.017839,0.0104167,0.00276339,0.0106844,-0.0181068,1.47422,0.0168057,0.0435083,608,841,-47.5068,-7.15276
-609,183,-47.5244,6.23358,-0.0123258,0.00747786,0.00231068,0.00774389,-0.0125919,1.45617,0.0118515,0.0214484,615,841,-47.5244,-6.23359
-602,183,-47.5796,5.29944,-0.00735696,0.005367,0.00199599,0.00567276,-0.00766272,1.41879,0.00772776,0.0125868,622,841,-47.5796,-5.29946
-595,183,-47.6206,4.33344,-0.00297265,0.00404046,0.00194237,0.00454249,-0.00347468,1.31787,0.00464238,0.0120806,629,841,-47.6206,-4.33346
-588,183,-47.6487,3.37567,0.000454374,0.00329225,0.00209069,0.00440004,-0.00065342,1.08354,0.00317367,0.016035,636,841,-47.6487,-3.37565
-581,183,-47.7411,2.42926,0.0030272,0.00295719,0.00231323,0.00530569,0.000678698,0.777833,0.003334,0.0177344,643,841,-47.7411,-2.42927
-574,183,-47.7829,1.48547,0.00431662,0.00256695,0.00261549,0.00619971,0.000683866,0.624006,0.00392509,0.0245594,650,841,-47.7829,-1.48547
-567,183,-47.6215,0.298035,0,0,0,0,0,0,0,-1,657,841,-47.6215,-0.298017
-560,183,-47.5833,-0.478516,0,0,0,0,0,0,0,-1,664,841,-47.5833,0.47849
-553,183,-47.6648,-1.64899,0,0,0,0,0,0,0,-1,671,841,-47.6648,1.64897
-546,183,-27.8053,-1.91199,0,0,0,0,0,0,0,-1,678,841,-27.8053,1.91201
-539,183,-16.8032,-0.417297,0,0,0,0,0,0,0,-1,685,841,-16.8032,0.41732
-532,183,-29.9686,0.953613,0,0,0,0,0,0,0,-1,692,841,-29.9686,-0.953627
-525,183,-55.6847,0.842468,0,0,0,0,0,0,0,-1,699,841,-55.6847,-0.842446
-518,183,-63.6862,0.550049,0,0,0,0,0,0,0,-1,706,841,-63.6861,-0.550079
-511,183,-63.7609,0.421936,0,0,0,0,0,0,0,-1,713,841,-63.7609,-0.421959
-504,183,-63.7225,0.712891,0.00187876,-0.0073748,0.00161885,0.00215379,-0.00764983,0.168287,0.00594923,0.0409301,720,841,-63.7225,-0.712885
-497,183,-63.6709,0.939636,0.00251929,-0.00839844,-1.8806e-05,0.00251932,-0.00839847,-0.00172251,0.006601,0.0436653,727,841,-63.6709,-0.939641
-490,183,-63.6666,0.958252,0.00422556,-0.00883885,-0.00202912,0.00453346,-0.00914675,-0.150592,0.00804658,0.0399414,734,841,-63.6666,-0.958266
-483,183,0,0,0,0,0,0,0,0,0,-1,741,841,0,0
-476,183,0,0,0,0,0,0,0,0,0,-1,748,841,0,0
-469,183,0,0,0,0,0,0,0,0,0,-1,755,841,0,0
-462,183,0,0,0,0,0,0,0,0,0,-1,762,841,0,0
-455,183,0,0,0,0,0,0,0,0,0,-1,769,841,0,0
-448,183,0,0,0,0,0,0,0,0,0,-1,776,841,0,0
-441,183,0,0,0,0,0,0,0,0,0,-1,783,841,0,0
-434,183,0,0,0,0,0,0,0,0,0,-1,790,841,0,0
-427,183,0,0,0,0,0,0,0,0,0,-1,797,841,0,0
-420,183,0,0,0,0,0,0,0,0,0,-1,804,841,0,0
-413,183,0,0,0,0,0,0,0,0,0,-1,811,841,0,0
-406,183,0,0,0,0,0,0,0,0,0,-1,818,841,0,0
-399,183,0,0,0,0,0,0,0,0,0,-1,825,841,0,0
-392,183,0,0,0,0,0,0,0,0,0,-1,832,841,0,0
-385,183,0,0,0,0,0,0,0,0,0,-1,839,841,0,0
-378,183,0,0,0,0,0,0,0,0,0,-1,846,841,0,0
-371,183,0,0,0,0,0,0,0,0,0,-1,853,841,0,0
-364,183,0,0,0,0,0,0,0,0,0,-1,860,841,0,0
-357,183,0,0,0,0,0,0,0,0,0,-1,867,841,0,0
-350,183,0,0,0,0,0,0,0,0,0,-1,874,841,0,0
-343,183,0,0,0,0,0,0,0,0,0,-1,881,841,0,0
-336,183,0,0,0,0,0,0,0,0,0,-1,888,841,0,0
-329,183,0,0,0,0,0,0,0,0,0,-1,895,841,0,0
-322,183,0,0,0,0,0,0,0,0,0,-1,902,841,0,0
-315,183,0,0,0,0,0,0,0,0,0,-1,909,841,0,0
-308,183,0,0,0,0,0,0,0,0,0,-1,916,841,0,0
-301,183,0,0,0,0,0,0,0,0,0,-1,923,841,0,0
-294,183,0,0,0,0,0,0,0,0,0,-1,930,841,0,0
-287,183,0,0,0,0,0,0,0,0,0,-1,937,841,0,0
-280,183,0,0,0,0,0,0,0,0,0,-1,944,841,0,0
-273,183,0,0,0,0,0,0,0,0,0,-1,951,841,0,0
-266,183,0,0,0,0,0,0,0,0,0,-1,958,841,0,0
-259,183,0,0,0,0,0,0,0,0,0,-1,965,841,0,0
-252,183,0,0,0,0,0,0,0,0,0,-1,972,841,0,0
-245,183,0,0,0,0,0,0,0,0,0,-1,979,841,0,0
-238,183,0,0,0,0,0,0,0,0,0,-1,986,841,0,0
-231,183,0,0,0,0,0,0,0,0,0,-1,993,841,0,0
-224,183,0,0,0,0,0,0,0,0,0,-1,1000,841,0,0
-217,183,0,0,0,0,0,0,0,0,0,-1,1007,841,0,0
-210,183,0,0,0,0,0,0,0,0,0,-1,1014,841,0,0
-203,183,0,0,0,0,0,0,0,0,0,-1,1021,841,0,0
-196,183,0,0,0,0,0,0,0,0,0,-1,1028,841,0,0
-189,183,0,0,0,0,0,0,0,0,0,-1,1035,841,0,0
-182,183,0,0,0,0,0,0,0,0,0,-1,1042,841,0,0
-175,183,0,0,0,0,0,0,0,0,0,-1,1049,841,0,0
-168,183,0,0,0,0,0,0,0,0,0,-1,1056,841,0,0
-161,183,0,0,0,0,0,0,0,0,0,-1,1063,841,0,0
-154,183,0,0,0,0,0,0,0,0,0,-1,1070,841,0,0
-147,183,0,0,0,0,0,0,0,0,0,-1,1077,841,0,0
-140,183,0,0,0,0,0,0,0,0,0,-1,1084,841,0,0
-133,183,0,0,0,0,0,0,0,0,0,-1,1091,841,0,0
-126,183,0,0,0,0,0,0,0,0,0,-1,1098,841,0,0
-119,183,0,0,0,0,0,0,0,0,0,-1,1105,841,0,0
-112,183,0,0,0,0,0,0,0,0,0,-1,1112,841,0,0
-105,183,0,0,0,0,0,0,0,0,0,-1,1119,841,0,0
-98,183,0,0,0,0,0,0,0,0,0,-1,1126,841,0,0
-91,183,0,0,0,0,0,0,0,0,0,-1,1133,841,0,0
-84,183,0,0,0,0,0,0,0,0,0,-1,1140,841,0,0
-77,183,0,0,0,0,0,0,0,0,0,-1,1147,841,0,0
-70,183,0,0,0,0,0,0,0,0,0,-1,1154,841,0,0
-63,183,0,0,0,0,0,0,0,0,0,-1,1161,841,0,0
-56,183,0,0,0,0,0,0,0,0,0,-1,1168,841,0,0
-49,183,0,0,0,0,0,0,0,0,0,-1,1175,841,0,0
-42,183,0,0,0,0,0,0,0,0,0,-1,1182,841,0,0
-35,183,0,0,0,0,0,0,0,0,0,-1,1189,841,0,0
-28,183,0,0,0,0,0,0,0,0,0,-1,1196,841,0,0
-21,183,0,0,0,0,0,0,0,0,0,-1,1203,841,0,0
-14,183,0,0,0,0,0,0,0,0,0,-1,1210,841,0,0
-7,183,0,0,0,0,0,0,0,0,0,-1,1217,841,0,0
0,183,0,0,0,0,0,0,0,0,0,-1,1224,841,0,0
7,183,0,0,0,0,0,0,0,0,0,-1,1231,841,0,0
14,183,0,0,0,0,0,0,0,0,0,-1,1238,841,0,0
21,183,0,0,0,0,0,0,0,0,0,-1,1245,841,0,0
28,183,0,0,0,0,0,0,0,0,0,-1,1252,841,0,0
35,183,0,0,0,0,0,0,0,0,0,-1,1259,841,0,0
42,183,0,0,0,0,0,0,0,0,0,-1,1266,841,0,0
49,183,0,0,0,0,0,0,0,0,0,-1,1273,841,0,0
56,183,0,0,0,0,0,0,0,0,0,-1,1280,841,0,0
63,183,0,0,0,0,0,0,0,0,0,-1,1287,841,0,0
70,183,0,0,0,0,0,0,0,0,0,-1,1294,841,0,0
77,183,0,0,0,0,0,0,0,0,0,-1,1301,841,0,0
84,183,0,0,0,0,0,0,0,0,0,-1,1308,841,0,0
91,183,0,0,0,0,0,0,0,0,0,-1,1315,841,0,0
98,183,0,0,0,0,0,0,0,0,0,-1,1322,841,0,0
105,183,0,0,0,0,0,0,0,0,0,-1,1329,841,0,0
112,183,0,0,0,0,0,0,0,0,0,-1,1336,841,0,0
119,183,0,0,0,0,0,0,0,0,0,-1,1343,841,0,0
126,183,0,0,0,0,0,0,0,0,0,-1,1350,841,0,0
133,183,0,0,0,0,0,0,0,0,0,-1,1357,841,0,0
140,183,0,0,0,0,0,0,0,0,0,-1,1364,841,0,0
147,183,0,0,0,0,0,0,0,0,0,-1,1371,841,0,0
154,183,0,0,0,0,0,0,0,0,0,-1,1378,841,0,0
161,183,0,0,0,0,0,0,0,0,0,-1,1385,841,0,0
168,183,0,0,0,0,0,0,0,0,0,-1,1392,841,0,0
175,183,0,0,0,0,0,0,0,0,0,-1,1399,841,0,0
182,183,0,0,0,0,0,0,0,0,0,-1,1406,841,0,0
189,183,0,0,0,0,0,0,0,0,0,-1,1413,841,0,0
196,183,0,0,0,0,0,0,0,0,0,-1,1420,841,0,0
203,183,0,0,0,0,0,0,0,0,0,-1,1427,841,0,0
210,183,0,0,0,0,0,0,0,0,0,-1,1434,841,0,0
217,183,0,0,0,0,0,0,0,0,0,-1,1441,841,0,0
224,183,0,0,0,0,0,0,0,0,0,-1,1448,841,0,0
231,183,0,0,0,0,0,0,0,0,0,-1,1455,841,0,0
238,183,0,0,0,0,0,0,0,0,0,-1,1462,841,0,0
245,183,0,0,0,0,0,0,0,0,0,-1,1469,841,0,0
252,183,0,0,0,0,0,0,0,0,0,-1,1476,841,0,0
259,183,0,0,0,0,0,0,0,0,0,-1,1483,841,0,0
266,183,0,0,0,0,0,0,0,0,0,-1,1490,841,0,0
273,183,0,0,0,0,0,0,0,0,0,-1,1497,841,0,0
280,183,0,0,0,0,0,0,0,0,0,-1,1504,841,0,0
287,183,0,0,0,0,0,0,0,0,0,-1,1511,841,0,0
294,183,0,0,0,0,0,0,0,0,0,-1,1518,841,0,0
301,183,0,0,0,0,0,0,0,0,0,-1,1525,841,0,0
308,183,0,0,0,0,0,0,0,0,0,-1,1532,841,0,0
315,183,0,0,0,0,0,0,0,0,0,-1,1539,841,0,0
322,183,0,0,0,0,0,0,0,0,0,-1,1546,841,0,0
329,183,0,0,0,0,0,0,0,0,0,-1,1553,841,0,0
336,183,0,0,0,0,0,0,0,0,0,-1,1560,841,0,0
343,183,0,0,0,0,0,0,0,0,0,-1,1567,841,0,0
350,183,0,0,0,0,0,0,0,0,0,-1,1574,841,0,0
357,183,0,0,0,0,0,0,0,0,0,-1,1581,841,0,0
364,183,0,0,0,0,0,0,0,0,0,-1,1588,841,0,0
371,183,0,0,0,0,0,0,0,0,0,-1,1595,841,0,0
378,183,0,0,0,0,0,0,0,0,0,-1,1602,841,0,0
385,183,0,0,0,0,0,0,0,0,0,-1,1609,841,0,0
392,183,0,0,0,0,0,0,0,0,0,-1,1616,841,0,0
399,183,0,0,0,0,0,0,0,0,0,-1,1623,841,0,0
406,183,0,0,0,0,0,0,0,0,0,-1,1630,841,0,0
413,183,0,0,0,0,0,0,0,0,0,-1,1637,841,0,0
420,183,0,0,0,0,0,0,0,0,0,-1,1644,841,0,0
427,183,0,0,0,0,0,0,0,0,0,-1,1651,841,0,0
434,183,0,0,0,0,0,0,0,0,0,-1,1658,841,0,0
441,183,0,0,0,0,0,0,0,0,0,-1,1665,841,0,0
448,183,0,0,0,0,0,0,0,0,0,-1,1672,841,0,0
455,183,0,0,0,0,0,0,0,0,0,-1,1679,841,0,0
462,183,0,0,0,0,0,0,0,0,0,-1,1686,841,0,0
469,183,0,0,0,0,0,0,0,0,0,-1,1693,841,0,0
476,183,0,0,0,0,0,0,0,0,0,-1,1700,841,0,0
483,183,0,0,0,0,0,0,0,0,0,-1,1707,841,0,0
490,183,0,0,0,0,0,0,0,0,0,-1,1714,841,0,0
497,183,0,0,0,0,0,0,0,0,0,-1,1721,841,0,0
504,183,0,0,0,0,0,0,0,0,0,-1,1728,841,0,0
511,183,0,0,0,0,0,0,0,0,0,-1,1735,841,0,0
518,183,0,0,0,0,0,0,0,0,0,-1,1742,841,0,0
525,183,0,0,0,0,0,0,0,0,0,-1,1749,841,0,0
532,183,0,0,0,0,0,0,0,0,0,-1,1756,841,0,0
539,183,0,0,0,0,0,0,0,0,0,-1,1763,841,0,0
546,183,0,0,0,0,0,0,0,0,0,-1,1770,841,0,0
553,183,0,0,0,0,0,0,0,0,0,-1,1777,841,0,0
560,183,0,0,0,0,0,0,0,0,0,-1,1784,841,0,0
567,183,0,0,0,0,0,0,0,0,0,-1,1791,841,0,0
574,183,0,0,0,0,0,0,0,0,0,-1,1798,841,0,0
581,183,0,0,0,0,0,0,0,0,0,-1,1805,841,0,0
588,183,0,0,0,0,0,0,0,0,0,-1,1812,841,0,0
595,183,0,0,0,0,0,0,0,0,0,-1,1819,841,0,0
602,183,0,0,0,0,0,0,0,0,0,-1,1826,841,0,0
609,183,80.1451,2.47064,0.00886007,-0.00524267,-0.00659917,0.0114664,-0.00784899,-0.376142,0.0112167,0.0414787,1833,841,80.1452,-2.47065
616,183,80.235,2.20361,0.00550046,-0.00311465,-0.00410641,0.00714417,-0.00475837,-0.380749,0.0069178,0.0377754,1840,841,80.235,-2.2036
623,183,80.2135,2.21277,0.00232338,-0.000981215,-0.00169441,0.00303775,-0.00169558,-0.39899,0.00276917,0.0400894,1847,841,80.2135,-2.21275
630,183,80.1366,2.33203,3.87954e-05,0.000971492,6.98097e-05,0.000976688,3.35992e-05,1.4965,0.00064022,0.0404233,1854,841,80.1366,-2.33203
637,183,80.1487,2.43402,-0.00084306,0.0015377,0.000542222,0.00165538,-0.000960735,1.35709,0.00152806,0.0347095,1861,841,80.1486,-2.43399
644,183,80.0981,2.38831,-0.0011695,0.00134701,0.000389413,0.0014059,-0.00122838,1.42073,0.00152205,0.0276482,1868,841,80.0982,-2.38828
651,183,80.142,2.45782,-0.00116297,0.0011055,9.90504e-05,0.00110982,-0.00116729,1.52724,0.00131483,0.0420496,1875,841,80.1419,-2.45781
658,183,80.1688,2.49561,0,0,0,0,0,0,0,-1,1882,841,80.1689,-2.49562
665,183,38.4337,2.66992,0,0,0,0,0,0,0,-1,1889,841,38.4337,-2.6699
672,183,29.168,1.54572,0,0,0,0,0,0,0,-1,1896,841,29.168,-1.54574
679,183,64.2874,-1.26117,0,0,0,0,0,0,0,-1,1903,841,64.2874,1.26118
686,183,64.2828,-0.345581,-0.00170625,0.000982248,-0.00108391,0.00136481,-0.00208881,-1.2315,0.0020085,0.0383314,1910,841,64.2828,0.345568
693,183,64.2299,0.510254,-0.00151994,0.000745042,-0.00141956,0.00142851,-0.0022034,-1.12209,0.00211273,0.0339444,1917,841,64.2299,-0.510226
700,183,64.2267,1.34052,0,0,0,0,0,0,0,-1,1924,841,64.2267,-1.34051
707,183,63.9818,2.39825,-0.00115429,0.000288435,-0.00180702,0.00151276,-0.00237861,-0.975306,0.00226514,0.0150002,1931,841,63.9819,-2.39825
714,183,63.98,3.29047,-0.000563398,0.00068676,-0.0015501,0.00173307,-0.00160971,-0.977051,0.00193039,0.0174641,1938,841,63.98,-3.29047
721,183,63.9194,4.21411,0.000229416,0.00144937,-0.000921584,0.00194456,-0.000265772,-1.07774,0.00139344,0.0161298,1945,841,63.9194,-4.2141
728,183,63.8544,5.117,0.00112708,0.00244091,0.000124326,0.00245257,0.00111542,1.47727,0.00141792,0.0151427,1952,841,63.8543,-5.11698
735,183,63.8021,6.01782,0.00217427,0.00370549,0.00137486,0.00451354,0.00136622,1.03945,0.00267267,0.0147694,1959,841,63.8022,-6.01783
742,183,63.7338,6.95685,0.00330157,0.00518688,0.00286856,0.00726371,0.00122475,0.944147,0.00449025,0.0144328,1966,841,63.7337,-6.95685
749,183,63.7311,8.1463,0.00451777,0.00691592,0.00462764,0.0104973,0.000936379,0.912166,0.0067079,0.0362006,1973,841,63.7311,-8.14631
756,183,63.7703,9.51947,0,0,0,0,0,0,0,-1,1980,841,63.7703,-9.51945
763,183,63.7366,10.6603,0,0,0,0,0,0,0,-1,1987,841,63.7366,-10.6603
770,183,51.5659,9.50665,0,0,0,0,0,0,0,-1,1994,841,51.5659,-9.50663
777,183,42.1948,7.22906,0,0,0,0,0,0,0,-1,2001,841,42.1948,-7.22905
784,183,0,0,0,0,0,0,0,0,0,-1,2008,841,0,0
791,183,0,0,0,0,0,0,0,0,0,-1,2015,841,0,0
798,183,0,0,0,0,0,0,0,0,0,-1,2022,841,0,0
805,183,0,0,0,0,0,0,0,0,0,-1,2029,841,0,0
812,183,0,0,0,0,0,0,0,0,0,-1,2036,841,0,0
-700,176,0,0,0,0,0,0,0,0,0,-1,524,848,0,0
-693,176,0,0,0,0,0,0,0,0,0,-1,531,848,0,0
-686,176,0,0,0,0,0,0,0,0,0,-1,538,848,0,0
-679,176,0,0,0,0,0,0,0,0,0,-1,545,848,0,0
-672,176,0,0,0,0,0,0,0,0,0,-1,552,848,0,0
-665,176,-59.6962,8.75854,0,0,0,0,0,0,0,-1,559,848,-59.6962,-8.75853
-658,176,-59.6349,7.95142,0,0,0,0,0,0,0,-1,566,848,-59.6349,-7.95144
-651,176,-48.0698,11.1422,0,0,0,0,0,0,0,-1,573,848,-48.0697,-11.1421
-644,176,-44.7598,11.0023,0,0,0,0,0,0,0,-1,580,848,-44.7598,-11.0023
-637,176,-47.3365,10.0181,0,0,0,0,0,0,0,-1,587,848,-47.3365,-10.0181
-630,176,-47.5135,9.13763,-0.0303358,0.0209855,0.00583813,0.0216412,-0.0309915,1.45894,0.030547,0.044711,594,848,-47.5135,-9.13762
-623,176,-47.9404,8.2146,-0.0228033,0.015154,0.00385081,0.0155408,-0.02319,1.4707,0.0225061,0.0419946,601,848,-47.9404,-8.2146
-616,176,-48.3726,7.224,-0.0170168,0.0103186,0.00281131,0.0106047,-0.0173029,1.46937,0.0162664,0.0307686,608,848,-48.3726,-7.22401
-609,176,-48.4606,6.27075,-0.011524,0.0073929,0.00247556,0.0077115,-0.0118426,1.4428,0.0113733,0.0139862,615,848,-48.4607,-6.27072
-602,176,-48.5214,5.32422,-0.00652573,0.00528121,0.00231269,0.00571805,-0.00696257,1.38411,0.0073329,0.0132146,622,848,-48.5214,-5.3242
-595,176,-48.5876,4.37103,-0.00215428,0.00396965,0.00241514,0.0048075,-0.00299212,1.23687,0.00454359,0.0129022,629,848,-48.5877,-4.37103
-588,176,-48.6071,3.44153,0.000960943,0.00324684,0.00261207,0.00495507,-0.000747289,0.99163,0.00357858,0.0156025,636,848,-48.6071,-3.44152
-581,176,-48.7084,2.54681,0.00303443,0.00292161,0.00280563,0.00578421,0.000171823,0.775347,0.00380016,0.016727,643,848,-48.7084,-2.5468
-574,176,-48.8725,1.64307,0.00382967,0.00249324,0.00301324,0.00624789,7.50131e-05,0.676284,0.00414048,0.0333356,650,848,-48.8725,-1.64306
-567,176,-48.5928,0.729309,0.00450181,0.00244276,0.00332587,0.00695386,-9.28598e-06,0.6353,0.004639,0.0490675,657,848,-48.5928,-0.72931
-560,176,-48.5491,-0.409058,0,0,0,0,0,0,0,-1,664,848,-48.5491,0.409065
-553,176,-48.4011,-1.58148,0,0,0,0,0,0,0,-1,671,848,-48.4011,1.58148
-546,176,-16.657,-0.403198,0,0,0,0,0,0,0,-1,678,848,-16.657,0.403182
-539,176,-22.7061,1.48657,0,0,0,0,0,0,0,-1,685,848,-22.7061,-1.48657
-532,176,-38.8326,1.29749,0,0,0,0,0,0,0,-1,692,848,-38.8326,-1.29747
-525,176,-63.7971,0.271484,0,0,0,0,0,0,0,-1,699,848,-63.7971,-0.271509
-518,176,-63.6744,0.65918,0.0034986,-0.0047185,0.00252953,0.00421485,-0.00543475,0.275933,0.00558602,0.0450464,706,848,-63.6744,-0.659203
-511,176,-63.5427,0.777588,0.00207937,-0.00655369,0.00217957,0.00259843,-0.00707276,0.233794,0.00577942,0.041142,713,848,-63.5427,-0.777559
-504,176,-63.7069,0.709351,0.00203498,-0.00775852,0.00134997,0.00221766,-0.0079412,0.134502,0.00616771,0.0420823,720,848,-63.7069,-0.709339
-497,176,-63.8126,0.842346,0.0027651,-0.00860531,-0.000493218,0.00278645,-0.00862666,-0.043269,0.00687092,0.043994,727,848,-63.8126,-0.842357
-490,176,-63.6309,0.774963,0.00427675,-0.00865547,-0.0023344,0.00468524,-0.00906395,-0.173229,0.00807117,0.0403528,734,848,-63.6309,-0.774933
-483,176,0,0,0,0,0,0,0,0,0,-1,741,848,0,0
-476,176,0,0,0,0,0,0,0,0,0,-1,748,848,0,0
-469,176,0,0,0,0,0,0,0,0,0,-1,755,848,0,0
-462,176,0,0,0,0,0,0,0,0,0,-1,762,848,0,0
-455,176,0,0,0,0,0,0,0,0,0,-1,769,848,0,0
-448,176,0,0,0,0,0,0,0,0,0,-1,776,848,0,0
-441,176,0,0,0,0,0,0,0,0,0,-1,783,848,0,0
-434,176,0,0,0,0,0,0,0,0,0,-1,790,848,0,0
-427,176,0,0,0,0,0,0,0,0,0,-1,797,848,0,0
-420,176,0,0,0,0,0,0,0,0,0,-1,804,848,0,0
-413,176,0,0,0,0,0,0,0,0,0,-1,811,848,0,0
-406,176,0,0,0,0,0,0,0,0,0,-1,818,848,0,0
-399,176,0,0,0,0,0,0,0,0,0,-1,825,848,0,0
-392,176,0,0,0,0,0,0,0,0,0,-1,832,848,0,0
-385,176,0,0,0,0,0,0,0,0,0,-1,839,848,0,0
-378,176,0,0,0,0,0,0,0,0,0,-1,846,848,0,0
-371,176,0,0,0,0,0,0,0,0,0,-1,853,848,0,0
-364,176,0,0,0,0,0,0,0,0,0,-1,860,848,0,0
-357,176,0,0,0,0,0,0,0,0,0,-1,867,848,0,0
-350,176,0,0,0,0,0,0,0,0,0,-1,874,848,0,0
-343,176,0,0,0,0,0,0,0,0,0,-1,881,848,0,0
-336,176,0,0,0,0,0,0,0,0,0,-1,888,848,0,0
-329,176,0,0,0,0,0,0,0,0,0,-1,895,848,0,0
-322,176,0,0,0,0,0,0,0,0,0,-1,902,848,0,0
-315,176,0,0,0,0,0,0,0,0,0,-1,909,848,0,0
-308,176,0,0,0,0,0,0,0,0,0,-1,916,848,0,0
-301,176,0,0,0,0,0,0,0,0,0,-1,923,848,0,0
-294,176,0,0,0,0,0,0,0,0,0,-1,930,848,0,0
-287,176,0,0,0,0,0,0,0,0,0,-1,937,848,0,0
-280,176,0,0,0,0,0,0,0,0,0,-1,944,848,0,0
-273,176,0,0,0,0,0,0,0,0,0,-1,951,848,0,0
-266,176,0,0,0,0,0,0,0,0,0,-1,958,848,0,0
-259,176,0,0,0,0,0,0,0,0,0,-1,965,848,0,0
-252,176,0,0,0,0,0,0,0,0,0,-1,972,848,0,0
-245,176,0,0,0,0,0,0,0,0,0,-1,979,848,0,0
-238,176,0,0,0,0,0,0,0,0,0,-1,986,848,0,0
-231,176,0,0,0,0,0,0,0,0,0,-1,993,848,0,0
-224,176,0,0,0,0,0,0,0,0,0,-1,1000,848,0,0
-217,176,0,0,0,0,0,0,0,0,0,-1,1007,848,0,0
-210,176,0,0,0,0,0,0,0,0,0,-1,1014,848,0,0
-203,176,0,0,0,0,0,0,0,0,0,-1,1021,848,0,0
-196,176,0,0,0,0,0,0,0,0,0,-1,1028,848,0,0
-189,176,0,0,0,0,0,0,0,0,0,-1,1035,848,0,0
-182,176,0,0,0,0,0,0,0,0,0,-1,1042,848,0,0
-175,176,0,0,0,0,0,0,0,0,0,-1,1049,848,0,0
-168,176,0,0,0,0,0,0,0,0,0,-1,1056,848,0,0
-161,176,0,0,0,0,0,0,0,0,0,-1,1063,848,0,0
-154,176,0,0,0,0,0,0,0,0,0,-1,1070,848,0,0
-147,176,0,0,0,0,0,0,0,0,0,-1,1077,848,0,0
-140,176,0,0,0,0,0,0,0,0,0,-1,1084,848,0,0
-133,176,0,0,0,0,0,0,0,0,0,-1,1091,848,0,0
-126,176,0,0,0,0,0,0,0,0,0,-1,1098,848,0,0
-119,176,0,0,0,0,0,0,0,0,0,-1,1105,848,0,0
-112,176,0,0,0,0,0,0,0,0,0,-1,1112,848,0,0
-105,176,0,0,0,0,0,0,0,0,0,-1,1119,848,0,0
-98,176,0,0,0,0,0,0,0,0,0,-1,1126,848,0,0
-91,176,0,0,0,0,0,0,0,0,0,-1,1133,848,0,0
-84,176,0,0,0,0,0,0,0,0,0,-1,1140,848,0,0
-77,176,0,0,0,0,0,0,0,0,0,-1,1147,848,0,0
-70,176,0,0,0,0,0,0,0,0,0,-1,1154,848,0,0
-63,176,0,0,0,0,0,0,0,0,0,-1,1161,848,0,0
-56,176,0,0,0,0,0,0,0,0,0,-1,1168,848,0,0
-49,176,0,0,0,0,0,0,0,0,0,-1,1175,848,0,0
-42,176,0,0,0,0,0,0,0,0,0,-1,1182,848,0,0
-35,176,0,0,0,0,0,0,0,0,0,-1,1189,848,0,0
-28,176,0,0,0,0,0,0,0,0,0,-1,1196,848,0,0
-21,176,0,0,0,0,0,0,0,0,0,-1,1203,848,0,0
-14,176,0,0,0,0,0,0,0,0,0,-1,1210,848,0,0
-7,176,0,0,0,0,0,0,0,0,0,-1,1217,848,0,0
0,176,0,0,0,0,0,0,0,0,0,-1,1224,848,0,0
7,176,0,0,0,0,0,0,0,0,0,-1,1231,848,0,0
14,176,0,0,0,0,0,0,0,0,0,-1,1238,848,0,0
21,176,0,0,0,0,0,0,0,0,0,-1,1245,848,0,0
28,176,0,0,0,0,0,0,0,0,0,-1,1252,848,0,0
35,176,0,0,0,0,0,0,0,0,0,-1,1259,848,0,0
42,176,0,0,0,0,0,0,0,0,0,-1,1266,848,0,0
49,176,0,0,0,0,0,0,0,0,0,-1,1273,848,0,0
56,176,0,0,0,0,0,0,0,0,0,-1,1280,848,0,0
63,176,0,0,0,0,0,0,0,0,0,-1,1287,848,0,0
70,176,0,0,0,0,0,0,0,0,0,-1,1294,848,0,0
77,176,0,0,0,0,0,0,0,0,0,-1,1301,848,0,0
84,176,0,0,0,0,0,0,0,0,0,-1,1308,848,0,0
91,176,0,0,0,0,0,0,0,0,0,-1,1315,848,0,0
98,176,0,0,0,0,0,0,0,0,0,-1,1322,848,0,0
105,176,0,0,0,0,0,0,0,0,0,-1,1329,848,0,0
112,176,0,0,0,0,0,0,0,0,0,-1,1336,848,0,0
119,176,0,0,0,0,0,0,0,0,0,-1,1343,848,0,0
126,176,0,0,0,0,0,0,0,0,0,-1,1350,848,0,0
133,176,0,0,0,0,0,0,0,0,0,-1,1357,848,0,0
140,176,0,0,0,0,0,0,0,0,0,-1,1364,848,0,0
147,176,0,0,0,0,0,0,0,0,0,-1,1371,848,0,0
154,176,0,0,0,0,0,0,0,0,0,-1,1378,848,0,0
161,176,0,0,0,0,0,0,0,0,0,-1,1385,848,0,0
168,176,0,0,0,0,0,0,0,0,0,-1,1392,848,0,0
175,176,0,0,0,0,0,0,0,0,0,-1,1399,848,0,0
182,176,0,0,0,0,0,0,0,0,0,-1,1406,848,0,0
189,176,0,0,0,0,0,0,0,0,0,-1,1413,848,0,0
196,176,0,0,0,0,0,0,0,0,0,-1,1420,848,0,0
203,176,0,0,0,0,0,0,0,0,0,-1,1427,848,0,0
210,176,0,0,0,0,0,0,0,0,0,-1,1434,848,0,0
217,176,0,0,0,0,0,0,0,0,0,-1,1441,848,0,0
224,176,0,0,0,0,0,0,0,0,0,-1,1448,848,0,0
231,176,0,0,0,0,0,0,0,0,0,-1,1455,848,0,0
238,176,0,0,0,0,0,0,0,0,0,-1,1462,848,0,0
245,176,0,0,0,0,0,0,0,0,0,-1,1469,848,0,0
252,176,0,0,0,0,0,0,0,0,0,-1,1476,848,0,0
259,176,0,0,0,0,0,0,0,0,0,-1,1483,848,0,0
266,176,0,0,0,0,0,0,0,0,0,-1,1490,848,0,0
273,176,0,0,0,0,0,0,0,0,0,-1,1497,848,0,0
280,176,0,0,0,0,0,0,0,0,0,-1,1504,848,0,0
287,176,0,0,0,0,0,0,0,0,0,-1,1511,848,0,0
294,176,0,0,0,0,0,0,0,0,0,-1,1518,848,0,0
301,176,0,0,0,0,0,0,0,0,0,-1,1525,848,0,0
308,176,0,0,0,0,0,0,0,0,0,-1,1532,848,0,0
315,176,0,0,0,0,0,0,0,0,0,-1,1539,848,0,0
322,176,0,0,0,0,0,0,0,0,0,-1,1546,848,0,0
329,176,0,0,0,0,0,0,0,0,0,-1,1553,848,0,0
336,176,0,0,0,0,0,0,0,0,0,-1,1560,848,0,0
343,176,0,0,0,0,0,0,0,0,0,-1,1567,848,0,0
350,176,0,0,0,0,0,0,0,0,0,-1,1574,848,0,0
357,176,0,0,0,0,0,0,0,0,0,-1,1581,848,0,0
364,176,0,0,0,0,0,0,0,0,0,-1,1588,848,0,0
371,176,0,0,0,0,0,0,0,0,0,-1,1595,848,0,0
378,176,0,0,0,0,0,0,0,0,0,-1,1602,848,0,0
385,176,0,0,0,0,0,0,0,0,0,-1,1609,848,0,0
392,176,0,0,0,0,0,0,0,0,0,-1,1616,848,0,0
399,176,0,0,0,0,0,0,0,0,0,-1,1623,848,0,0
406,176,0,0,0,0,0,0,0,0,0,-1,1630,848,0,0
413,176,0,0,0,0,0,0,0,0,0,-1,1637,848,0,0
420,176,0,0,0,0,0,0,0,0,0,-1,1644,848,0,0
427,176,0,0,0,0,0,0,0,0,0,-1,1651,848,0,0
434,176,0,0,0,0,0,0,0,0,0,-1,1658,848,0,0
441,176,0,0,0,0,0,0,0,0,0,-1,1665,848,0,0
448,176,0,0,0,0,0,0,0,0,0,-1,1672,848,0,0
455,176,0,0,0,0,0,0,0,0,0,-1,1679,848,0,0
462,176,0,0,0,0,0,0,0,0,0,-1,1686,848,0,0
469,176,0,0,0,0,0,0,0,0,0,-1,1693,848,0,0
476,176,0,0,0,0,0,0,0,0,0,-1,1700,848,0,0
483,176,0,0,0,0,0,0,0,0,0,-1,1707,848,0,0
490,176,0,0,0,0,0,0,0,0,0,-1,1714,848,0,0
497,176,0,0,0,0,0,0,0,0,0,-1,1721,848,0,0
504,176,0,0,0,0,0,0,0,0,0,-1,1728,848,0,0
511,176,0,0,0,0,0,0,0,0,0,-1,1735,848,0,0
518,176,0,0,0,0,0,0,0,0,0,-1,1742,848,0,0
525,176,0,0,0,0,0,0,0,0,0,-1,1749,848,0,0
532,176,0,0,0,0,0,0,0,0,0,-1,1756,848,0,0
539,176,0,0,0,0,0,0,0,0,0,-1,1763,848,0,0
546,176,0,0,0,0,0,0,0,0,0,-1,1770,848,0,0
553,176,0,0,0,0,0,0,0,0,0,-1,1777,848,0,0
560,176,0,0,0,0,0,0,0,0,0,-1,1784,848,0,0
567,176,0,0,0,0,0,0,0,0,0,-1,1791,848,0,0
574,176,0,0,0,0,0,0,0,0,0,-1,1798,848,0,0
581,176,0,0,0,0,0,0,0,0,0,-1,1805,848,0,0
588,176,0,0,0,0,0,0,0,0,0,-1,1812,848,0,0
595,176,0,0,0,0,0,0,0,0,0,-1,1819,848,0,0
602,176,0,0,0,0,0,0,0,0,0,-1,1826,848,0,0
609,176,80.1022,2.46912,0.00988924,-0.00671924,-0.00771174,0.0129178,-0.00974775,-0.37421,0.0131285,0.038599,1833,848,80.1022,-2.46912
616,176,80.1832,2.19623,0.00667575,-0.00442178,-0.00527482,0.00878287,-0.0065289,-0.380047,0.00887212,0.0390026,1840,848,80.1832,-2.19625
623,176,80.2424,2.14355,0.00360506,-0.00221583,-0.00287458,0.00478532,-0.00339609,-0.389599,0.00474619,0.0442768,1847,848,80.2424,-2.14353
630,176,80.295,2.21991,0.00102556,-2.97284e-05,-0.000821676,0.00147442,-0.000478587,-0.499977,0.00117542,0.0394741,1854,848,80.295,-2.21989
637,176,80.2883,2.35669,-0.000390516,0.00112877,0.00016122,0.00114569,-0.000407435,1.46623,0.000929852,0.0294068,1861,848,80.2883,-2.35666
644,176,80.155,2.43909,-0.00100336,0.00128105,0.000286901,0.00131653,-0.00103884,1.44775,0.00136302,0.0298175,1868,848,80.155,-2.43906
651,176,80.1345,2.44672,-0.00115996,0.00117476,6.45773e-05,0.00117655,-0.00116175,1.54316,0.00135003,0.034436,1875,848,80.1346,-2.4467
658,176,80.1749,2.3385,0,0,0,0,0,0,0,-1,1882,848,80.175,-2.33853
665,176,54.3333,2.34277,0,0,0,0,0,0,0,-1,1889,848,54.3333,-2.34279
672,176,16.9304,2.80719,0,0,0,0,0,0,0,-1,1896,848,16.9305,-2.80719
679,176,50.9341,0.315979,0,0,0,0,0,0,0,-1,1903,848,50.9341,-0.315984
686,176,65.1283,-0.257263,0,0,0,0,0,0,0,-1,1910,848,65.1283,0.257256
693,176,65.1876,0.675354,-0.00164604,0.000812421,-0.00134921,0.0014084,-0.00224202,-1.15485,0.00212581,0.0356974,1917,848,65.1877,-0.675352
700,176,65.1257,1.71692,-0.00150841,0.000592377,-0.00158349,0.00144219,-0.00235822,-1.07825,0.00221531,0.0432658,1924,848,65.1257,-1.71691
707,176,65.0812,2.54877,-0.00142712,0.000382305,-0.00184405,0.00153162,-0.00257643,-1.01345,0.00239722,0.0359112,1931,848,65.0812,-2.54878
714,176,64.8811,3.33667,-0.000989566,0.000732725,-0.00180575,0.00187215,-0.002129,-1.00789,0.00231165,0.015986,1938,848,64.8811,-3.33668
721,176,64.8687,4.24744,-0.000394445,0.0014806,-0.00139857,0.00222681,-0.00114066,-1.08067,0.00197763,0.0140335,1945,848,64.8686,-4.24742
728,176,64.7894,5.17133,0.000241651,0.00251978,-0.000485829,0.00261906,0.00014237,-1.36922,0.00170057,0.0177662,1952,848,64.7894,-5.1713
735,176,64.7186,6.08008,0.00100972,0.00391816,0.000639981,0.00405276,0.000875128,1.36351,0.00246252,0.016569,1959,848,64.7186,-6.08006
742,176,64.6517,6.974,0.00177245,0.00564724,0.00190869,0.00642951,0.000990178,1.18183,0.00399737,0.0243661,1966,848,64.6517,-6.97398
749,176,64.864,8.06073,0.00246037,0.00772766,0.00329573,0.00931278,0.000875261,1.1225,0.0059383,0.0363536,1973,848,64.864,-8.06073
756,176,65.2579,9.39038,0,0,0,0,0,0,0,-1,1980,848,65.2579,-9.39036
763,176,44.4343,7.70581,0,0,0,0,0,0,0,-1,1987,848,44.4343,-7.70578
770,176,36.4186,4.25641,0,0,0,0,0,0,0,-1,1994,848,36.4186,-4.25639
777,176,43.8328,7.50177,0,0,0,0,0,0,0,-1,2001,848,43.8328,-7.50178
784,176,0,0,0,0,0,0,0,0,0,-1,2008,848,0,0
791,176,0,0,0,0,0,0,0,0,0,-1,2015,848,0,0
798,176,0,0,0,0,0,0,0,0,0,-1,2022,848,0,0
805,176,0,0,0,0,0,0,0,0,0,-1,2029,848,0,0
812,176,0,0,0,0,0,0,0,0,0,-1,2036,848,0,0
-700,169,0,0,0,0,0,0,0,0,0,-1,524,855,0,0
-693,169,0,0,0,0,0,0,0,0,0,-1,531,855,0,0
-686,169,0,0,0,0,0,0,0,0,0,-1,538,855,0,0
-679,169,0,0,0,0,0,0,0,0,0,-1,545,855,0,0
-672,169,0,0,0,0,0,0,0,0,0,-1,552,855,0,0
-665,169,-50.4697,8.3269,0,0,0,0,0,0,0,-1,559,855,-50.4697,-8.32688
-658,169,-58.8608,8.22839,0,0,0,0,0,0,0,-1,566,855,-58.8608,-8.2284
-651,169,-45.2885,12.1717,0,0,0,0,0,0,0,-1,573,855,-45.2885,-12.1717
-644,169,-46.2915,11.3461,0,0,0,0,0,0,0,-1,580,855,-46.2915,-11.3461
-637,169,-48.8594,10.1781,0,0,0,0,0,0,0,-1,587,855,-48.8594,-10.1781
-630,169,-49.0673,9.09235,-0.0290375,0.0199726,0.00554921,0.0205931,-0.0296579,1.45945,0.0291693,0.0488078,594,855,-49.0673,-9.09234
-623,169,-49.2625,8.12592,-0.0218098,0.0146274,0.00374015,0.0150074,-0.0221897,1.46956,0.0216088,0.0401504,601,855,-49.2624,-8.12592
-616,169,-49.3132,7.19061,-0.0160737,0.0101319,0.00283416,0.0104349,-0.0163768,1.46429,0.0156059,0.0241898,608,855,-49.3132,-7.19062
-609,169,-49.3936,6.31915,-0.0106047,0.0072829,0.00260949,0.00765581,-0.0109776,1.42885,0.0108148,0.0156759,615,855,-49.3936,-6.31916
-602,169,-49.4731,5.3891,-0.00558249,0.00517674,0.00261778,0.00577985,-0.0061856,1.34436,0.00690958,0.0148892,622,855,-49.4731,-5.38911
-595,169,-49.5345,4.43549,-0.0013312,0.0038263,0.00286384,0.00510132,-0.00260622,1.15193,0.004527,0.013361,629,855,-49.5346,-4.43546
-588,169,-49.5589,3.52972,0.00128785,0.00305392,0.00304376,0.00534015,-0.000998382,0.926579,0.00393534,0.0121851,636,855,-49.5589,-3.5297
-581,169,-49.6437,2.65765,0.00273119,0.00267033,0.00312184,0.00582274,-0.000421226,0.780525,0.00402958,0.0299695,643,855,-49.6438,-2.65767
-574,169,-50.0284,1.68024,0.00304835,0.00222743,0.00315573,0.0058202,-0.00054442,0.720728,0.00407375,0.0454637,650,855,-50.0285,-1.68026
-567,169,-49.8751,0.698181,0.00360529,0.00215104,0.00334861,0.00630482,-0.000548482,0.678487,0.00439746,0.0392696,657,855,-49.8751,-0.698189
-560,169,-49.8862,-0.116882,0,0,0,0,0,0,0,-1,664,855,-49.8862,0.116888
-553,169,-32.1944,-0.787964,0,0,0,0,0,0,0,-1,671,855,-32.1944,0.787959
-546,169,-19.0852,-1.05609,0,0,0,0,0,0,0,-1,678,855,-19.0852,1.05612
-539,169,-33.2307,1.10706,0,0,0,0,0,0,0,-1,685,855,-33.2307,-1.10708
-532,169,-63.9528,-0.102661,0,0,0,0,0,0,0,-1,692,855,-63.9528,0.102655
-525,169,-63.8584,0.293274,0.00392628,-0.00369803,0.0029112,0.00491074,-0.0046825,0.326094,0.00553918,0.0494842,699,855,-63.8584,-0.293277
-518,169,-63.7621,0.69519,0.00319874,-0.00497395,0.00255429,0.00393138,-0.00570659,0.279328,0.00559586,0.0406497,706,855,-63.7621,-0.695206
-511,169,-63.5872,1.02307,0.00190584,-0.00677734,0.00207347,0.00237556,-0.00724706,0.222777,0.00578807,0.0403521,713,855,-63.5871,-1.02309
-504,169,-63.7038,0.823242,0.00198325,-0.00767806,0.00102572,0.00209094,-0.00778575,0.104614,0.00600998,0.0413183,720,855,-63.7038,-0.823218
-497,169,-63.8108,0.874207,0.00254381,-0.00803753,-0.000697401,0.00258958,-0.0080833,-0.0655307,0.00642834,0.0443883,727,855,-63.8108,-0.87419
-490,169,0,0,0,0,0,0,0,0,0,-1,734,855,0,0
-483,169,0,0,0,0,0,0,0,0,0,-1,741,855,0,0
-476,169,0,0,0,0,0,0,0,0,0,-1,748,855,0,0
-469,169,0,0,0,0,0,0,0,0,0,-1,755,855,0,0
-462,169,0,0,0,0,0,0,0,0,0,-1,762,855,0,0
-455,169,0,0,0,0,0,0,0,0,0,-1,769,855,0,0
-448,169,0,0,0,0,0,0,0,0,0,-1,776,855,0,0
-441,169,0,0,0,0,0,0,0,0,0,-1,783,855,0,0
-434,169,0,0,0,0,0,0,0,0,0,-1,790,855,0,0
-427,169,0,0,0,0,0,0,0,0,0,-1,797,855,0,0
-420,169,0,0,0,0,0,0,0,0,0,-1,804,855,0,0
-413,169,0,0,0,0,0,0,0,0,0,-1,811,855,0,0
-406,169,0,0,0,0,0,0,0,0,0,-1,818,855,0,0
-399,169,0,0,0,0,0,0,0,0,0,-1,825,855,0,0
-392,169,0,0,0,0,0,0,0,0,0,-1,832,855,0,0
-385,169,0,0,0,0,0,0,0,0,0,-1,839,855,0,0
-378,169,0,0,0,0,0,0,0,0,0,-1,846,855,0,0
-371,169,0,0,0,0,0,0,0,0,0,-1,853,855,0,0
-364,169,0,0,0,0,0,0,0,0,0,-1,860,855,0,0
-357,169,0,0,0,0,0,0,0,0,0,-1,867,855,0,0
-350,169,0,0,0,0,0,0,0,0,0,-1,874,855,0,0
-343,169,0,0,0,0,0,0,0,0,0,-1,881,855,0,0
-336,169,0,0,0,0,0,0,0,0,0,-1,888,855,0,0
-329,169,0,0,0,0,0,0,0,0,0,-1,895,855,0,0
-322,169,0,0,0,0,0,0,0,0,0,-1,902,855,0,0
-315,169,0,0,0,0,0,0,0,0,0,-1,909,855,0,0
-308,169,0,0,0,0,0,0,0,0,0,-1,916,855,0,0
-301,169,0,0,0,0,0,0,0,0,0,-1,923,855,0,0
-294,169,0,0,0,0,0,0,0,0,0,-1,930,855,0,0
-287,169,0,0,0,0,0,0,0,0,0,-1,937,855,0,0
-280,169,0,0,0,0,0,0,0,0,0,-1,944,855,0,0
-273,169,0,0,0,0,0,0,0,0,0,-1,951,855,0,0
-266,169,0,0,0,0,0,0,0,0,0,-1,958,855,0,0
-259,169,0,0,0,0,0,0,0,0,0,-1,965,855,0,0
-252,169,0,0,0,0,0,0,0,0,0,-1,972,855,0,0
-245,169,0,0,0,0,0,0,0,0,0,-1,979,855,0,0
-238,169,0,0,0,0,0,0,0,0,0,-1,986,855,0,0
-231,169,0,0,0,0,0,0,0,0,0,-1,993,855,0,0
-224,169,0,0,0,0,0,0,0,0,0,-1,1000,855,0,0
-217,169,0,0,0,0,0,0,0,0,0,-1,1007,855,0,0
-210,169,0,0,0,0,0,0,0,0,0,-1,1014,855,0,0
-203,169,0,0,0,0,0,0,0,0,0,-1,1021,855,0,0
-196,169,0,0,0,0,0,0,0,0,0,-1,1028,855,0,0
-189,169,0,0,0,0,0,0,0,0,0,-1,1035,855,0,0
-182,169,0,0,0,0,0,0,0,0,0,-1,1042,855,0,0
-175,169,0,0,0,0,0,0,0,0,0,-1,1049,855,0,0
-168,169,0,0,0,0,0,0,0,0,0,-1,1056,855,0,0
-161,169,0,0,0,0,0,0,0,0,0,-1,1063,855,0,0
-154,169,0,0,0,0,0,0,0,0,0,-1,1070,855,0,0
-147,169,0,0,0,0,0,0,0,0,0,-1,1077,855,0,0
-140,169,0,0,0,0,0,0,0,0,0,-1,1084,855,0,0
-133,169,0,0,0,0,0,0,0,0,0,-1,1091,855,0,0
-126,169,0,0,0,0,0,0,0,0,0,-1,1098,855,0,0
-119,169,0,0,0,0,0,0,0,0,0,-1,1105,855,0,0
-112,169,0,0,0,0,0,0,0,0,0,-1,1112,855,0,0
-105,169,0,0,0,0,0,0,0,0,0,-1,1119,855,0,0
-98,169,0,0,0,0,0,0,0,0,0,-1,1126,855,0,0
-91,169,0,0,0,0,0,0,0,0,0,-1,1133,855,0,0
-84,169,0,0,0,0,0,0,0,0,0,-1,1140,855,0,0
-77,169,0,0,0,0,0,0,0,0,0,-1,1147,855,0,0
-70,169,0,0,0,0,0,0,0,0,0,-1,1154,855,0,0
-63,169,0,0,0,0,0,0,0,0,0,-1,1161,855,0,0
-56,169,0,0,0,0,0,0,0,0,0,-1,1168,855,0,0
-49,169,0,0,0,0,0,0,0,0,0,-1,1175,855,0,0
-42,169,0,0,0,0,0,0,0,0,0,-1,1182,855,0,0
-35,169,0,0,0,0,0,0,0,0,0,-1,1189,855,0,0
-28,169,0,0,0,0,0,0,0,0,0,-1,1196,855,0,0
-21,169,0,0,0,0,0,0,0,0,0,-1,1203,855,0,0
-14,169,0,0,0,0,0,0,0,0,0,-1,1210,855,0,0
-7,169,0,0,0,0,0,0,0,0,0,-1,1217,855,0,0
0,169,0,0,0,0,0,0,0,0,0,-1,1224,855,0,0
7,169,0,0,0,0,0,0,0,0,0,-1,1231,855,0,0
14,169,0,0,0,0,0,0,0,0,0,-1,1238,855,0,0
21,169,0,0,0,0,0,0,0,0,0,-1,1245,855,0,0
28,169,0,0,0,0,0,0,0,0,0,-1,1252,855,0,0
35,169,0,0,0,0,0,0,0,0,0,-1,1259,855,0,0
42,169,0,0,0,0,0,0,0,0,0,-1,1266,855,0,0
49,169,0,0,0,0,0,0,0,0,0,-1,1273,855,0,0
56,169,0,0,0,0,0,0,0,0,0,-1,1280,855,0,0
63,169,0,0,0,0,0,0,0,0,0,-1,1287,855,0,0
70,169,0,0,0,0,0,0,0,0,0,-1,1294,855,0,0
77,169,0,0,0,0,0,0,0,0,0,-1,1301,855,0,0
84,169,0,0,0,0,0,0,0,0,0,-1,1308,855,0,0
91,169,0,0,0,0,0,0,0,0,0,-1,1315,855,0,0
98,169,0,0,0,0,0,0,0,0,0,-1,1322,855,0,0
105,169,0,0,0,0,0,0,0,0,0,-1,1329,855,0,0
112,169,0,0,0,0,0,0,0,0,0,-1,1336,855,0,0
119,169,0,0,0,0,0,0,0,0,0,-1,1343,855,0,0
126,169,0,0,0,0,0,0,0,0,0,-1,1350,855,0,0
133,169,0,0,0,0,0,0,0,0,0,-1,1357,855,0,0
140,169,0,0,0,0,0,0,0,0,0,-1,1364,855,0,0
147,169,0,0,0,0,0,0,0,0,0,-1,1371,855,0,0
154,169,0,0,0,0,0,0,0,0,0,-1,1378,855,0,0
161,169,0,0,0,0,0,0,0,0,0,-1,1385,855,0,0
168,169,0,0,0,0,0,0,0,0,0,-1,1392,855,0,0
175,169,0,0,0,0,0,0,0,0,0,-1,1399,855,0,0
182,169,0,0,0,0,0,0,0,0,0,-1,1406,855,0,0
189,169,0,0,0,0,0,0,0,0,0,-1,1413,855,0,0
196,169,0,0,0,0,0,0,0,0,0,-1,1420,855,0,0
203,169,0,0,0,0,0,0,0,0,0,-1,1427,855,0,0
210,169,0,0,0,0,0,0,0,0,0,-1,1434,855,0,0
217,169,0,0,0,0,0,0,0,0,0,-1,1441,855,0,0
224,169,0,0,0,0,0,0,0,0,0,-1,1448,855,0,0
231,169,0,0,0,0,0,0,0,0,0,-1,1455,855,0,0
238,169,0,0,0,0,0,0,0,0,0,-1,1462,855,0,0
245,169,0,0,0,0,0,0,0,0,0,-1,1469,855,0,0
252,169,0,0,0,0,0,0,0,0,0,-1,1476,855,0,0
259,169,0,0,0,0,0,0,0,0,0,-1,1483,855,0,0
266,169,0,0,0,0,0,0,0,0,0,-1,1490,855,0,0
273,169,0,0,0,0,0,0,0,0,0,-1,1497,855,0,0
280,169,0,0,0,0,0,0,0,0,0,-1,1504,855,0,0
287,169,0,0,0,0,0,0,0,0,0,-1,1511,855,0,0
294,169,0,0,0,0,0,0,0,0,0,-1,1518,855,0,0
301,169,0,0,0,0,0,0,0,0,0,-1,1525,855,0,0
308,169,0,0,0,0,0,0,0,0,0,-1,1532,855,0,0
315,169,0,0,0,0,0,0,0,0,0,-1,1539,855,0,0
322,169,0,0,0,0,0,0,0,0,0,-1,1546,855,0,0
329,169,0,0,0,0,0,0,0,0,0,-1,1553,855,0,0
336,169,0,0,0,0,0,0,0,0,0,-1,1560,855,0,0
343,169,0,0,0,0,0,0,0,0,0,-1,1567,855,0,0
350,169,0,0,0,0,0,0,0,0,0,-1,1574,855,0,0
357,169,0,0,0,0,0,0,0,0,0,-1,1581,855,0,0
364,169,0,0,0,0,0,0,0,0,0,-1,1588,855,0,0
371,169,0,0,0,0,0,0,0,0,0,-1,1595,855,0,0
378,169,0,0,0,0,0,0,0,0,0,-1,1602,855,0,0
385,169,0,0,0,0,0,0,0,0,0,-1,1609,855,0,0
392,169,0,0,0,0,0,0,0,0,0,-1,1616,855,0,0
399,169,0,0,0,0,0,0,0,0,0,-1,1623,855,0,0
406,169,0,0,0,0,0,0,0,0,0,-1,1630,855,0,0
413,169,0,0,0,0,0,0,0,0,0,-1,1637,855,0,0
420,169,0,0,0,0,0,0,0,0,0,-1,1644,855,0,0
427,169,0,0,0,0,0,0,0,0,0,-1,1651,855,0,0
434,169,0,0,0,0,0,0,0,0,0,-1,1658,855,0,0
441,169,0,0,0,0,0,0,0,0,0,-1,1665,855,0,0
448,169,0,0,0,0,0,0,0,0,0,-1,1672,855,0,0
455,169,0,0,0,0,0,0,0,0,0,-1,1679,855,0,0
462,169,0,0,0,0,0,0,0,0,0,-1,1686,855,0,0
469,169,0,0,0,0,0,0,0,0,0,-1,1693,855,0,0
476,169,0,0,0,0,0,0,0,0,0,-1,1700,855,0,0
483,169,0,0,0,0,0,0,0,0,0,-1,1707,855,0,0
490,169,0,0,0,0,0,0,0,0,0,-1,1714,855,0,0
497,169,0,0,0,0,0,0,0,0,0,-1,1721,855,0,0
504,169,0,0,0,0,0,0,0,0,0,-1,1728,855,0,0
511,169,0,0,0,0,0,0,0,0,0,-1,1735,855,0,0
518,169,0,0,0,0,0,0,0,0,0,-1,1742,855,0,0
525,169,0,0,0,0,0,0,0,0,0,-1,1749,855,0,0
532,169,0,0,0,0,0,0,0,0,0,-1,1756,855,0,0
539,169,0,0,0,0,0,0,0,0,0,-1,1763,855,0,0
546,169,0,0,0,0,0,0,0,0,0,-1,1770,855,0,0
553,169,0,0,0,0,0,0,0,0,0,-1,1777,855,0,0
560,169,0,0,0,0,0,0,0,0,0,-1,1784,855,0,0
567,169,0,0,0,0,0,0,0,0,0,-1,1791,855,0,0
574,169,0,0,0,0,0,0,0,0,0,-1,1798,855,0,0
581,169,0,0,0,0,0,0,0,0,0,-1,1805,855,0,0
588,169,0,0,0,0,0,0,0,0,0,-1,1812,855,0,0
595,169,0,0,0,0,0,0,0,0,0,-1,1819,855,0,0
602,169,0,0,0,0,0,0,0,0,0,-1,1826,855,0,0
609,169,0,0,0,0,0,0,0,0,0,-1,1833,855,0,0
616,169,80.1997,2.38965,0.00742482,-0.00572994,-0.00633375,0.00997861,-0.00828374,-0.383265,0.0105589,0.0432083,1840,855,80.1997,-2.38963
623,169,80.1525,2.44421,0.00449968,-0.00344606,-0.00397439,0.00614637,-0.00509275,-0.392795,0.0064984,0.0479372,1847,855,80.1524,-2.4442
630,169,80.3982,2.32526,0.00189825,-0.00115662,-0.00180194,0.00273302,-0.0019914,-0.433831,0.00273883,0.0410087,1854,855,80.3982,-2.32526
637,169,80.3298,2.39941,0.000116784,0.000475318,-0.000431106,0.000762944,-0.000170843,-0.982437,0.000574114,0.0341914,1861,855,80.3299,-2.39944
644,169,80.155,2.51685,-0.00082362,0.00100851,2.26459e-05,0.00100879,-0.0008239,1.55844,0.0010599,0.0355745,1868,855,80.155,-2.51684
651,169,80.1124,2.54871,-0.00119625,0.00106858,-5.04358e-05,0.0010697,-0.00119737,-1.54854,0.00130959,0.0370836,1875,855,80.1125,-2.54868
658,169,80.0948,2.50208,0,0,0,0,0,0,0,-1,1882,855,80.0948,-2.50208
665,169,74.1068,1.9809,0,0,0,0,0,0,0,-1,1889,855,74.1069,-1.98093
672,169,31.2465,2.96387,0,0,0,0,0,0,0,-1,1896,855,31.2464,-2.9639
679,169,38.4297,1.08197,0,0,0,0,0,0,0,-1,1903,855,38.4296,-1.08194
686,169,66.0677,-0.176208,0,0,0,0,0,0,0,-1,1910,855,66.0678,0.176224
693,169,66.2544,0.827271,-0.00186843,0.000684299,-0.0013454,0.00126245,-0.00244658,-1.16493,0.00217748,0.0427518,1917,855,66.2543,-0.827264
700,169,66.28,1.83539,-0.00177853,0.00055938,-0.00153701,0.00132145,-0.0025406,-1.1105,0.00226648,0.0361583,1924,855,66.28,-1.83538
707,169,66.5089,2.97314,0,0,0,0,0,0,0,-1,1931,855,66.5089,-2.97315
714,169,65.7573,3.33295,-0.00147833,0.00076153,-0.00199676,0.00193099,-0.00264779,-1.04098,0.00265433,0.0241105,1938,855,65.7573,-3.33294
721,169,65.7875,4.30121,-0.00108011,0.00149946,-0.00183734,0.00245453,-0.00203517,-1.09143,0.0025959,0.0197505,1945,855,65.7874,-4.3012
728,169,65.7246,5.23999,-0.000727221,0.00256911,-0.00114551,0.00292809,-0.00108621,-1.26711,0.0023976,0.0161248,1952,855,65.7246,-5.23997
735,169,65.64,6.14532,-0.000252448,0.00405908,-0.000229879,0.0040713,-0.000264669,-1.51768,0.00280659,0.0202101,1959,855,65.64,-6.14532
742,169,65.6082,7.03168,0.000180588,0.00597736,0.000789355,0.00608292,7.50222e-05,1.43785,0.00403051,0.018982,1966,855,65.6082,-7.03168
749,169,65.4968,7.83679,0.000410554,0.00828726,0.00181099,0.00868369,1.41296e-05,1.3553,0.00578442,0.0312223,1973,855,65.4968,-7.83676
756,169,65.5913,8.63379,0,0,0,0,0,0,0,-1,1980,855,65.5913,-8.63378
763,169,61.2976,7.40009,0,0,0,0,0,0,0,-1,1987,855,61.2975,-7.40007
770,169,37.2059,3.97021,0,0,0,0,0,0,0,-1,1994,855,37.2059,-3.97022
777,169,41.7505,8.7085,0,0,0,0,0,0,0,-1,2001,855,41.7505,-8.70852
784,169,40.7385,9.24359,0,0,0,0,0,0,0,-1,2008,855,40.7384,-9.24361
791,169,0,0,0,0,0,0,0,0,0,-1,2015,855,0,0
798,169,0,0,0,0,0,0,0,0,0,-1,2022,855,0,0
805,169,0,0,0,0,0,0,0,0,0,-1,2029,855,0,0
812,169,0,0,0,0,0,0,0,0,0,-1,2036,855,0,0
-700,162,0,0,0,0,0,0,0,0,0,-1,524,862,0,0
-693,162,0,0,0,0,0,0,0,0,0,-1,531,862,0,0
-686,162,0,0,0,0,0,0,0,0,0,-1,538,862,0,0
-679,162,0,0,0,0,0,0,0,0,0,-1,545,862,0,0
-672,162,0,0,0,0,0,0,0,0,0,-1,552,862,0,0
-665,162,-50.6751,7.18884,0,0,0,0,0,0,0,-1,559,862,-50.6751,-7.18885
-658,162,-50.7888,6.02673,0,0,0,0,0,0,0,-1,566,862,-50.7888,-6.02673
-651,162,-49.8585,10.1666,0,0,0,0,0,0,0,-1,573,862,-49.8584,-10.1666
-644,162,-47.9432,11.9185,0,0,0,0,0,0,0,-1,580,862,-47.9432,-11.9185
-637,162,-49.0474,10.8403,0,0,0,0,0,0,0,-1,587,862,-49.0474,-10.8403
-630,162,-50.2345,9.01379,0,0,0,0,0,0,0,-1,594,862,-50.2345,-9.01379
-623,162,-50.2076,8.12482,-0.0204773,0.013945,0.00356769,0.0143109,-0.0208432,1.4686,0.0204127,0.0345224,601,862,-50.2076,-8.12481
-616,162,-50.2261,7.23309,-0.0148911,0.00989757,0.00287405,0.0102264,-0.0152199,1.45687,0.0147854,0.0214334,608,862,-50.2261,-7.2331
-609,162,-50.3519,6.33215,-0.00954293,0.00719408,0.00283667,0.00766178,-0.0100106,1.40739,0.0102332,0.0148583,615,862,-50.3519,-6.33212
-602,162,-50.4426,5.43335,-0.00464555,0.00510211,0.00309741,0.00600306,-0.00554651,1.28773,0.00666988,0.0130394,622,862,-50.4426,-5.43334
-595,162,-50.4702,4.52405,-0.000738932,0.00369,0.00349029,0.00560905,-0.00265798,1.06809,0.00487329,0.0123968,629,862,-50.4702,-4.52407
-588,162,-50.4492,3.61652,0.00134925,0.00285149,0.00356486,0.0057435,-0.00154276,0.88923,0.00443365,0.0196613,636,862,-50.4491,-3.6165
-581,162,-50.518,2.51373,0,0,0,0,0,0,0,-1,643,862,-50.518,-2.51371
-574,162,-51.335,1.34467,0,0,0,0,0,0,0,-1,650,862,-51.335,-1.34467
-567,162,-51.3127,0.603699,0,0,0,0,0,0,0,-1,657,862,-51.3127,-0.603681
-560,162,-36.5075,-0.831665,0,0,0,0,0,0,0,-1,664,862,-36.5075,0.831657
-553,162,-35.9823,-1.60956,0,0,0,0,0,0,0,-1,671,862,-35.9823,1.60954
-546,162,-22.8181,-1.51154,0,0,0,0,0,0,0,-1,678,862,-22.8181,1.51155
-539,162,-53.0229,0.9328,0,0,0,0,0,0,0,-1,685,862,-53.0229,-0.932798
-532,162,-63.8033,0.223511,0,0,0,0,0,0,0,-1,692,862,-63.8033,-0.223529
-525,162,-63.8376,0.302612,0.0037437,-0.00423142,0.00291056,0.00469294,-0.00518067,0.31526,0.00570285,0.0401244,699,862,-63.8377,-0.302602
-518,162,-63.8218,0.512756,0.00286994,-0.00556145,0.00247496,0.00354275,-0.00623426,0.265434,0.00571562,0.0406294,706,862,-63.8218,-0.512782
-511,162,-63.9518,-0.0996704,0,0,0,0,0,0,0,-1,713,862,-63.9519,0.0996931
-504,162,-63.7339,0.974915,0.000755502,-0.00763407,0.000831864,0.00083719,-0.00771576,0.0978845,0.0054444,0.0426183,720,862,-63.7339,-0.974908
-497,162,-63.774,0.805298,0.00055095,-0.00791482,-0.000403406,0.000570129,-0.007934,-0.0475079,0.00548925,0.0424497,727,862,-63.7741,-0.805285
-490,162,0,0,0,0,0,0,0,0,0,-1,734,862,0,0
-483,162,0,0,0,0,0,0,0,0,0,-1,741,862,0,0
-476,162,0,0,0,0,0,0,0,0,0,-1,748,862,0,0
-469,162,0,0,0,0,0,0,0,0,0,-1,755,862,0,0
-462,162,0,0,0,0,0,0,0,0,0,-1,762,862,0,0
-455,162,0,0,0,0,0,0,0,0,0,-1,769,862,0,0
-448,162,0,0,0,0,0,0,0,0,0,-1,776,862,0,0
-441,162,0,0,0,0,0,0,0,0,0,-1,783,862,0,0
-434,162,0,0,0,0,0,0,0,0,0,-1,790,862,0,0
-427,162,0,0,0,0,0,0,0,0,0,-1,797,862,0,0
-420,162,0,0,0,0,0,0,0,0,0,-1,804,862,0,0
-413,162,0,0,0,0,0,0,0,0,0,-1,811,862,0,0
-406,162,0,0,0,0,0,0,0,0,0,-1,818,862,0,0
-399,162,0,0,0,0,0,0,0,0,0,-1,825,862,0,0
-392,162,0,0,0,0,0,0,0,0,0,-1,832,862,0,0
-385,162,0,0,0,0,0,0,0,0,0,-1,839,862,0,0
-378,162,0,0,0,0,0,0,0,0,0,-1,846,862,0,0
-371,162,0,0,0,0,0,0,0,0,0,-1,853,862,0,0
-364,162,0,0,0,0,0,0,0,0,0,-1,860,862,0,0
-357,162,0,0,0,0,0,0,0,0,0,-1,867,862,0,0
-350,162,0,0,0,0,0,0,0,0,0,-1,874,862,0,0
-343,162,0,0,0,0,0,0,0,0,0,-1,881,862,0,0
-336,162,0,0,0,0,0,0,0,0,0,-1,888,862,0,0
-329,162,0,0,0,0,0,0,0,0,0,-1,895,862,0,0
-322,162,0,0,0,0,0,0,0,0,0,-1,902,862,0,0
-315,162,0,0,0,0,0,0,0,0,0,-1,909,862,0,0
-308,162,0,0,0,0,0,0,0,0,0,-1,916,862,0,0
-301,162,0,0,0,0,0,0,0,0,0,-1,923,862,0,0
-294,162,0,0,0,0,0,0,0,0,0,-1,930,862,0,0
-287,162,0,0,0,0,0,0,0,0,0,-1,937,862,0,0
-280,162,0,0,0,0,0,0,0,0,0,-1,944,862,0,0
-273,162,0,0,0,0,0,0,0,0,0,-1,951,862,0,0
-266,162,0,0,0,0,0,0,0,0,0,-1,958,862,0,0
-259,162,0,0,0,0,0,0,0,0,0,-1,965,862,0,0
-252,162,0,0,0,0,0,0,0,0,0,-1,972,862,0,0
-245,162,0,0,0,0,0,0,0,0,0,-1,979,862,0,0
-238,162,0,0,0,0,0,0,0,0,0,-1,986,862,0,0
-231,162,0,0,0,0,0,0,0,0,0,-1,993,862,0,0
-224,162,0,0,0,0,0,0,0,0,0,-1,1000,862,0,0
-217,162,0,0,0,0,0,0,0,0,0,-1,1007,862,0,0
-210,162,0,0,0,0,0,0,0,0,0,-1,1014,862,0,0
-203,162,0,0,0,0,0,0,0,0,0,-1,1021,862,0,0
-196,162,0,0,0,0,0,0,0,0,0,-1,1028,862,0,0
-189,162,0,0,0,0,0,0,0,0,0,-1,1035,862,0,0
-182,162,0,0,0,0,0,0,0,0,0,-1,1042,862,0,0
-175,162,0,0,0,0,0,0,0,0,0,-1,1049,862,0,0
-168,162,0,0,0,0,0,0,0,0,0,-1,1056,862,0,0
-161,162,0,0,0,0,0,0,0,0,0,-1,1063,862,0,0
-154,162,0,0,0,0,0,0,0,0,0,-1,1070,862,0,0
-147,162,0,0,0,0,0,0,0,0,0,-1,1077,862,0,0
-140,162,0,0,0,0,0,0,0,0,0,-1,1084,862,0,0
-133,162,0,0,0,0,0,0,0,0,0,-1,1091,862,0,0
-126,162,0,0,0,0,0,0,0,0,0,-1,1098,862,0,0
-119,162,0,0,0,0,0,0,0,0,0,-1,1105,862,0,0
-112,162,0,0,0,0,0,0,0,0,0,-1,1112,862,0,0
-105,162,0,0,0,0,0,0,0,0,0,-1,1119,862,0,0
-98,162,0,0,0,0,0,0,0,0,0,-1,1126,862,0,0
-91,162,0,0,0,0,0,0,0,0,0,-1,1133,862,0,0
-84,162,0,0,0,0,0,0,0,0,0,-1,1140,862,0,0
-77,162,0,0,0,0,0,0,0,0,0,-1,1147,862,0,0
-70,162,0,0,0,0,0,0,0,0,0,-1,1154,862,0,0
-63,162,0,0,0,0,0,0,0,0,0,-1,1161,862,0,0
-56,162,0,0,0,0,0,0,0,0,0,-1,1168,862,0,0
-49,162,0,0,0,0,0,0,0,0,0,-1,1175,862,0,0
-42,162,0,0,0,0,0,0,0,0,0,-1,1182,862,0,0
-35,162,0,0,0,0,0,0,0,0,0,-1,1189,862,0,0
-28,162,0,0,0,0,0,0,0,0,0,-1,1196,862,0,0
-21,162,0,0,0,0,0,0,0,0,0,-1,1203,862,0,0
-14,162,0,0,0,0,0,0,0,0,0,-1,1210,862,0,0
-7,162,0,0,0,0,0,0,0,0,0,-1,1217,862,0,0
0,162,0,0,0,0,0,0,0,0,0,-1,1224,862,0,0
7,162,0,0,0,0,0,0,0,0,0,-1,1231,862,0,0
14,162,0,0,0,0,0,0,0,0,0,-1,1238,862,0,0
21,162,0,0,0,0,0,0,0,0,0,-1,1245,862,0,0
28,162,0,0,0,0,0,0,0,0,0,-1,1252,862,0,0
35,162,0,0,0,0,0,0,0,0,0,-1,1259,862,0,0
42,162,0,0,0,0,0,0,0,0,0,-1,1266,862,0,0
49,162,0,0,0,0,0,0,0,0,0,-1,1273,862,0,0
56,162,0,0,0,0,0,0,0,0,0,-1,1280,862,0,0
63,162,0,0,0,0,0,0,0,0,0,-1,1287,862,0,0
70,162,0,0,0,0,0,0,0,0,0,-1,1294,862,0,0
77,162,0,0,0,0,0,0,0,0,0,-1,1301,862,0,0
84,162,0,0,0,0,0,0,0,0,0,-1,1308,862,0,0
91,162,0,0,0,0,0,0,0,0,0,-1,1315,862,0,0
98,162,0,0,0,0,0,0,0,0,0,-1,1322,862,0,0
105,162,0,0,0,0,0,0,0,0,0,-1,1329,862,0,0
112,162,0,0,0,0,0,0,0,0,0,-1,1336,862,0,0
119,162,0,0,0,0,0,0,0,0,0,-1,1343,862,0,0
126,162,0,0,0,0,0,0,0,0,0,-1,1350,862,0,0
133,162,0,0,0,0,0,0,0,0,0,-1,1357,862,0,0
140,162,0,0,0,0,0,0,0,0,0,-1,1364,862,0,0
147,162,0,0,0,0,0,0,0,0,0,-1,1371,862,0,0
154,162,0,0,0,0,0,0,0,0,0,-1,1378,862,0,0
161,162,0,0,0,0,0,0,0,0,0,-1,1385,862,0,0
168,162,0,0,0,0,0,0,0,0,0,-1,1392,862,0,0
175,162,0,0,0,0,0,0,0,0,0,-1,1399,862,0,0
182,162,0,0,0,0,0,0,0,0,0,-1,1406,862,0,0
189,162,0,0,0,0,0,0,0,0,0,-1,1413,862,0,0
196,162,0,0,0,0,0,0,0,0,0,-1,1420,862,0,0
203,162,0,0,0,0,0,0,0,0,0,-1,1427,862,0,0
210,162,0,0,0,0,0,0,0,0,0,-1,1434,862,0,0
217,162,0,0,0,0,0,0,0,0,0,-1,1441,862,0,0
224,162,0,0,0,0,0,0,0,0,0,-1,1448,862,0,0
231,162,0,0,0,0,0,0,0,0,0,-1,1455,862,0,0
238,162,0,0,0,0,0,0,0,0,0,-1,1462,862,0,0
245,162,0,0,0,0,0,0,0,0,0,-1,1469,862,0,0
252,162,0,0,0,0,0,0,0,0,0,-1,1476,862,0,0
259,162,0,0,0,0,0,0,0,0,0,-1,1483,862,0,0
266,162,0,0,0,0,0,0,0,0,0,-1,1490,862,0,0
273,162,0,0,0,0,0,0,0,0,0,-1,1497,862,0,0
280,162,0,0,0,0,0,0,0,0,0,-1,1504,862,0,0
287,162,0,0,0,0,0,0,0,0,0,-1,1511,862,0,0
294,162,0,0,0,0,0,0,0,0,0,-1,1518,862,0,0
301,162,0,0,0,0,0,0,0,0,0,-1,1525,862,0,0
308,162,0,0,0,0,0,0,0,0,0,-1,1532,862,0,0
315,162,0,0,0,0,0,0,0,0,0,-1,1539,862,0,0
322,162,0,0,0,0,0,0,0,0,0,-1,1546,862,0,0
329,162,0,0,0,0,0,0,0,0,0,-1,1553,862,0,0
336,162,0,0,0,0,0,0,0,0,0,-1,1560,862,0,0
343,162,0,0,0,0,0,0,0,0,0,-1,1567,862,0,0
350,162,0,0,0,0,0,0,0,0,0,-1,1574,862,0,0
357,162,0,0,0,0,0,0,0,0,0,-1,1581,862,0,0
364,162,0,0,0,0,0,0,0,0,0,-1,1588,862,0,0
371,162,0,0,0,0,0,0,0,0,0,-1,1595,862,0,0
378,162,0,0,0,0,0,0,0,0,0,-1,1602,862,0,0
385,162,0,0,0,0,0,0,0,0,0,-1,1609,862,0,0
392,162,0,0,0,0,0,0,0,0,0,-1,1616,862,0,0
399,162,0,0,0,0,0,0,0,0,0,-1,1623,862,0,0
406,162,0,0,0,0,0,0,0,0,0,-1,1630,862,0,0
413,162,0,0,0,0,0,0,0,0,0,-1,1637,862,0,0
420,162,0,0,0,0,0,0,0,0,0,-1,1644,862,0,0
427,162,0,0,0,0,0,0,0,0,0,-1,1651,862,0,0
434,162,0,0,0,0,0,0,0,0,0,-1,1658,862,0,0
441,162,0,0,0,0,0,0,0,0,0,-1,1665,862,0,0
448,162,0,0,0,0,0,0,0,0,0,-1,1672,862,0,0
455,162,0,0,0,0,0,0,0,0,0,-1,1679,862,0,0
462,162,0,0,0,0,0,0,0,0,0,-1,1686,862,0,0
469,162,0,0,0,0,0,0,0,0,0,-1,1693,862,0,0
476,162,0,0,0,0,0,0,0,0,0,-1,1700,862,0,0
483,162,0,0,0,0,0,0,0,0,0,-1,1707,862,0,0
490,162,0,0,0,0,0,0,0,0,0,-1,1714,862,0,0
497,162,0,0,0,0,0,0,0,0,0,-1,1721,862,0,0
504,162,0,0,0,0,0,0,0,0,0,-1,1728,862,0,0
511,162,0,0,0,0,0,0,0,0,0,-1,1735,862,0,0
518,162,0,0,0,0,0,0,0,0,0,-1,1742,862,0,0
525,162,0,0,0,0,0,0,0,0,0,-1,1749,862,0,0
532,162,0,0,0,0,0,0,0,0,0,-1,1756,862,0,0
539,162,0,0,0,0,0,0,0,0,0,-1,1763,862,0,0
546,162,0,0,0,0,0,0,0,0,0,-1,1770,862,0,0
553,162,0,0,0,0,0,0,0,0,0,-1,1777,862,0,0
560,162,0,0,0,0,0,0,0,0,0,-1,1784,862,0,0
567,162,0,0,0,0,0,0,0,0,0,-1,1791,862,0,0
574,162,0,0,0,0,0,0,0,0,0,-1,1798,862,0,0
581,162,0,0,0,0,0,0,0,0,0,-1,1805,862,0,0
588,162,0,0,0,0,0,0,0,0,0,-1,1812,862,0,0
595,162,0,0,0,0,0,0,0,0,0,-1,1819,862,0,0
602,162,0,0,0,0,0,0,0,0,0,-1,1826,862,0,0
609,162,0,0,0,0,0,0,0,0,0,-1,1833,862,0,0
616,162,80.0834,2.63501,0,0,0,0,0,0,0,-1,1840,862,80.0834,-2.63502
623,162,80.0641,2.43219,0.00524736,-0.00490059,-0.00502117,0.00731182,-0.00696506,-0.390083,0.00824357,0.0477467,1847,862,80.064,-2.43217
630,162,80.2167,2.31866,0.00269367,-0.00245987,-0.00281594,0.00393387,-0.00370008,-0.41486,0.00440815,0.0431679,1854,862,80.2167,-2.31866
637,162,80.1244,2.31555,0.000756151,-0.000429085,-0.00121604,0.00151629,-0.00118922,-0.558666,0.00156582,0.0402593,1861,862,80.1244,-2.31558
644,162,80.1667,2.32172,-0.000457895,0.000547991,-0.000428196,0.000705581,-0.000615485,-1.21815,0.000763309,0.0379055,1868,862,80.1668,-2.32172
651,162,80.178,2.34387,-0.00105632,0.000876275,-0.000282208,0.000916641,-0.00109669,-1.42872,0.00116395,0.0345102,1875,862,80.178,-2.34387
658,162,80.175,2.32813,-0.00158432,0.000669197,-0.000676741,0.000856806,-0.00177193,-1.30036,0.00154805,0.0337407,1882,862,80.175,-2.3281
665,162,80.2283,2.26624,0,0,0,0,0,0,0,-1,1889,862,80.2283,-2.26622
672,162,56.9712,3.04034,0,0,0,0,0,0,0,-1,1896,862,56.9711,-3.04034
679,162,26.5077,2.54785,0,0,0,0,0,0,0,-1,1903,862,26.5077,-2.54787
686,162,66.7439,-0.354553,0,0,0,0,0,0,0,-1,1910,862,66.7439,0.354567
693,162,67.2783,0.97998,0,0,0,0,0,0,0,-1,1917,862,67.2783,-0.980001
700,162,67.8127,2.31458,0,0,0,0,0,0,0,-1,1924,862,67.8127,-2.31457
707,162,67.0082,2.68506,-0.00186701,0.000568724,-0.00193625,0.00163827,-0.00293655,-1.06613,0.00267649,0.0342218,1931,862,67.0081,-2.68508
714,162,66.731,3.3736,-0.00165877,0.000908566,-0.00217357,0.00214922,-0.00289942,-1.05213,0.00292554,0.039332,1938,862,66.731,-3.37361
721,162,66.5197,4.44269,-0.00143432,0.00156373,-0.00221961,0.00274309,-0.00261367,-1.0824,0.00309303,0.0344068,1945,862,66.5196,-4.44268
728,162,66.5305,5.35614,-0.00144894,0.00259095,-0.00176649,0.00325441,-0.0021124,-1.21152,0.00312183,0.0271652,1952,862,66.5305,-5.35613
735,162,66.5649,6.20648,-0.00141574,0.0041045,-0.00108395,0.00430971,-0.00162096,-1.38369,0.00353943,0.0115056,1959,862,66.565,-6.20647
742,162,66.5012,7.04645,-0.0014432,0.00615354,-0.000305535,0.00616581,-0.00145547,-1.53066,0.00467189,0.0134487,1966,862,66.5013,-7.04646
749,162,66.3591,7.90686,-0.00175731,0.00861141,0.000420676,0.00862845,-0.00177435,1.53031,0.00642593,0.0217848,1973,862,66.3591,-7.90685
756,162,66.1664,8.75403,-0.00235939,0.0116123,0.000890662,0.0116689,-0.00241594,1.50739,0.00869713,0.0483361,1980,862,66.1664,-8.75404
763,162,66.0576,9.64197,0,0,0,0,0,0,0,-1,1987,862,66.0577,-9.64194
770,162,54.8257,9.36987,0,0,0,0,0,0,0,-1,1994,862,54.8256,-9.36988
777,162,66.324,10.5801,0,0,0,0,0,0,0,-1,2001,862,66.3239,-10.5802
784,162,55.6492,10.6049,0,0,0,0,0,0,0,-1,2008,862,55.6491,-10.6049
791,162,0,0,0,0,0,0,0,0,0,-1,2015,862,0,0
798,162,0,0,0,0,0,0,0,0,0,-1,2022,862,0,0
805,162,0,0,0,0,0,0,0,0,0,-1,2029,862,0,0
812,162,0,0,0,0,0,0,0,0,0,-1,2036,862,0,0
-700,155,0,0,0,0,0,0,0,0,0,-1,524,869,0,0
-693,155,0,0,0,0,0,0,0,0,0,-1,531,869,0,0
-686,155,0,0,0,0,0,0,0,0,0,-1,538,869,0,0
-679,155,0,0,0,0,0,0,0,0,0,-1,545,869,0,0
-672,155,0,0,0,0,0,0,0,0,0,-1,552,869,0,0
-665,155,-50.9639,6.01917,0,0,0,0,0,0,0,-1,559,869,-50.9639,-6.01917
-658,155,-51.2028,4.90723,0,0,0,0,0,0,0,-1,566,869,-51.2028,-4.90722
-651,155,-51.22,3.81226,0,0,0,0,0,0,0,-1,573,869,-51.2201,-3.81228
-644,155,-50.7668,9.11438,0,0,0,0,0,0,0,-1,580,869,-50.7669,-9.11438
-637,155,-50.7089,11.1429,0,0,0,0,0,0,0,-1,587,869,-50.7089,-11.1429
-630,155,-50.9383,9.10645,0,0,0,0,0,0,0,-1,594,869,-50.9383,-9.10645
-623,155,-51.0269,8.2218,-0.0203292,0.0132663,0.00377697,0.0136857,-0.0207485,1.46021,0.0200195,0.0312182,601,869,-51.0269,-8.22179
-616,155,-51.1591,7.31055,-0.0145385,0.00957242,0.00319384,0.00998832,-0.0149544,1.44131,0.0144955,0.0176402,608,869,-51.1591,-7.31052
-609,155,-51.2937,6.3526,-0.0090946,0.00694,0.0032609,0.00757779,-0.00973239,1.37765,0.0100198,0.0152022,615,869,-51.2937,-6.35257
-602,155,-51.3779,5.4682,-0.00422075,0.00481519,0.00364881,0.00610462,-0.00551018,1.23111,0.00670873,0.0142529,622,869,-51.3779,-5.46819
-595,155,-51.4318,4.58105,-0.000662088,0.00343121,0.00395471,0.00583748,-0.00306836,1.02418,0.00522399,0.0134281,629,869,-51.4317,-4.58106
-588,155,-51.3863,3.74866,0.000957694,0.00263139,0.00378636,0.00567228,-0.0020832,0.894158,0.0046347,0.027646,636,869,-51.3863,-3.74865
-581,155,-51.1157,2.96698,0,0,0,0,0,0,0,-1,643,869,-51.1157,-2.96697
-574,155,-50.6295,2.30585,0,0,0,0,0,0,0,-1,650,869,-50.6295,-2.30585
-567,155,-38.0134,0.582214,0,0,0,0,0,0,0,-1,657,869,-38.0134,-0.582192
-560,155,-37.1416,-0.708008,0,0,0,0,0,0,0,-1,664,869,-37.1416,0.70801
-553,155,-36.7729,-1.71521,0,0,0,0,0,0,0,-1,671,869,-36.7729,1.71523
-546,155,-22.7988,0.873657,0,0,0,0,0,0,0,-1,678,869,-22.7988,-0.873645
-539,155,-63.7537,0.285706,0,0,0,0,0,0,0,-1,685,869,-63.7536,-0.285726
-532,155,-63.6924,0.470703,0,0,0,0,0,0,0,-1,692,869,-63.6924,-0.470675
-525,155,-63.674,0.49054,0.00307001,-0.00438306,0.00254669,0.00385709,-0.00517014,0.299746,0.00523022,0.0376138,699,869,-63.674,-0.490531
-518,155,-63.6328,0.292847,0.00191567,-0.00591649,0.00212085,0.00245309,-0.00645391,0.248175,0.00531257,0.0407261,706,869,-63.6328,-0.292869
-511,155,-63.5862,-0.0308228,0.000238243,-0.00735549,0.00175561,0.000624483,-0.00774173,0.216553,0.00538141,0.0439768,713,869,-63.5863,0.0308118
-504,155,-63.3578,0.109253,0,0,0,0,0,0,0,-1,720,869,-63.3578,-0.109274
-497,155,0,0,0,0,0,0,0,0,0,-1,727,869,0,0
-490,155,0,0,0,0,0,0,0,0,0,-1,734,869,0,0
-483,155,0,0,0,0,0,0,0,0,0,-1,741,869,0,0
-476,155,0,0,0,0,0,0,0,0,0,-1,748,869,0,0
-469,155,0,0,0,0,0,0,0,0,0,-1,755,869,0,0
-462,155,0,0,0,0,0,0,0,0,0,-1,762,869,0,0
-455,155,0,0,0,0,0,0,0,0,0,-1,769,869,0,0
-448,155,0,0,0,0,0,0,0,0,0,-1,776,869,0,0
-441,155,0,0,0,0,0,0,0,0,0,-1,783,869,0,0
-434,155,0,0,0,0,0,0,0,0,0,-1,790,869,0,0
-427,155,0,0,0,0,0,0,0,0,0,-1,797,869,0,0
-420,155,0,0,0,0,0,0,0,0,0,-1,804,869,0,0
-413,155,0,0,0,0,0,0,0,0,0,-1,811,869,0,0
-406,155,0,0,0,0,0,0,0,0,0,-1,818,869,0,0
-399,155,0,0,0,0,0,0,0,0,0,-1,825,869,0,0
-392,155,0,0,0,0,0,0,0,0,0,-1,832,869,0,0
-385,155,0,0,0,0,0,0,0,0,0,-1,839,869,0,0
-378,155,0,0,0,0,0,0,0,0,0,-1,846,869,0,0
-371,155,0,0,0,0,0,0,0,0,0,-1,853,869,0,0
-364,155,0,0,0,0,0,0,0,0,0,-1,860,869,0,0
-357,155,0,0,0,0,0,0,0,0,0,-1,867,869,0,0
-350,155,0,0,0,0,0,0,0,0,0,-1,874,869,0,0
-343,155,0,0,0,0,0,0,0,0,0,-1,881,869,0,0
-336,155,0,0,0,0,0,0,0,0,0,-1,888,869,0,0
-329,155,0,0,0,0,0,0,0,0,0,-1,895,869,0,0
-322,155,0,0,0,0,0,0,0,0,0,-1,902,869,0,0
-315,155,0,0,0,0,0,0,0,0,0,-1,909,869,0,0
-308,155,0,0,0,0,0,0,0,0,0,-1,916,869,0,0
-301,155,0,0,0,0,0,0,0,0,0,-1,923,869,0,0
-294,155,0,0,0,0,0,0,0,0,0,-1,930,869,0,0
-287,155,0,0,0,0,0,0,0,0,0,-1,937,869,0,0
-280,155,0,0,0,0,0,0,0,0,0,-1,944,869,0,0
-273,155,0,0,0,0,0,0,0,0,0,-1,951,869,0,0
-266,155,0,0,0,0,0,0,0,0,0,-1,958,869,0,0
-259,155,0,0,0,0,0,0,0,0,0,-1,965,869,0,0
-252,155,0,0,0,0,0,0,0,0,0,-1,972,869,0,0
-245,155,0,0,0,0,0,0,0,0,0,-1,979,869,0,0
-238,155,0,0,0,0,0,0,0,0,0,-1,986,869,0,0
-231,155,0,0,0,0,0,0,0,0,0,-1,993,869,0,0
-224,155,0,0,0,0,0,0,0,0,0,-1,1000,869,0,0
-217,155,0,0,0,0,0,0,0,0,0,-1,1007,869,0,0
-210,155,0,0,0,0,0,0,0,0,0,-1,1014,869,0,0
-203,155,0,0,0,0,0,0,0,0,0,-1,1021,869,0,0
-196,155,0,0,0,0,0,0,0,0,0,-1,1028,869,0,0
-189,155,0,0,0,0,0,0,0,0,0,-1,1035,869,0,0
-182,155,0,0,0,0,0,0,0,0,0,-1,1042,869,0,0
-175,155,0,0,0,0,0,0,0,0,0,-1,1049,869,0,0
-168,155,0,0,0,0,0,0,0,0,0,-1,1056,869,0,0
-161,155,0,0,0,0,0,0,0,0,0,-1,1063,869,0,0
-154,155,0,0,0,0,0,0,0,0,0,-1,1070,869,0,0
-147,155,0,0,0,0,0,0,0,0,0,-1,1077,869,0,0
-140,155,0,0,0,0,0,0,0,0,0,-1,1084,869,0,0
-133,155,0,0,0,0,0,0,0,0,0,-1,1091,869,0,0
-126,155,0,0,0,0,0,0,0,0,0,-1,1098,869,0,0
-119,155,0,0,0,0,0,0,0,0,0,-1,1105,869,0,0
-112,155,0,0,0,0,0,0,0,0,0,-1,1112,869,0,0
-105,155,0,0,0,0,0,0,0,0,0,-1,1119,869,0,0
-98,155,0,0,0,0,0,0,0,0,0,-1,1126,869,0,0
-91,155,0,0,0,0,0,0,0,0,0,-1,1133,869,0,0
-84,155,0,0,0,0,0,0,0,0,0,-1,1140,869,0,0
-77,155,0,0,0,0,0,0,0,0,0,-1,1147,869,0,0
-70,155,0,0,0,0,0,0,0,0,0,-1,1154,869,0,0
-63,155,0,0,0,0,0,0,0,0,0,-1,1161,869,0,0
-56,155,0,0,0,0,0,0,0,0,0,-1,1168,869,0,0
-49,155,0,0,0,0,0,0,0,0,0,-1,1175,869,0,0
-42,155,0,0,0,0,0,0,0,0,0,-1,1182,869,0,0
-35,155,0,0,0,0,0,0,0,0,0,-1,1189,869,0,0
-28,155,0,0,0,0,0,0,0,0,0,-1,1196,869,0,0
-21,155,0,0,0,0,0,0,0,0,0,-1,1203,869,0,0
-14,155,0,0,0,0,0,0,0,0,0,-1,1210,869,0,0
-7,155,0,0,0,0,0,0,0,0,0,-1,1217,869,0,0
0,155,0,0,0,0,0,0,0,0,0,-1,1224,869,0,0
7,155,0,0,0,0,0,0,0,0,0,-1,1231,869,0,0
14,155,0,0,0,0,0,0,0,0,0,-1,1238,869,0,0
21,155,0,0,0,0,0,0,0,0,0,-1,1245,869,0,0
28,155,0,0,0,0,0,0,0,0,0,-1,1252,869,0,0
35,155,0,0,0,0,0,0,0,0,0,-1,1259,869,0,0
42,155,0,0,0,0,0,0,0,0,0,-1,1266,869,0,0
49,155,0,0,0,0,0,0,0,0,0,-1,1273,869,0,0
56,155,0,0,0,0,0,0,0,0,0,-1,1280,869,0,0
63,155,0,0,0,0,0,0,0,0,0,-1,1287,869,0,0
70,155,0,0,0,0,0,0,0,0,0,-1,1294,869,0,0
77,155,0,0,0,0,0,0,0,0,0,-1,1301,869,0,0
84,155,0,0,0,0,0,0,0,0,0,-1,1308,869,0,0
91,155,0,0,0,0,0,0,0,0,0,-1,1315,869,0,0
98,155,0,0,0,0,0,0,0,0,0,-1,1322,869,0,0
105,155,0,0,0,0,0,0,0,0,0,-1,1329,869,0,0
112,155,0,0,0,0,0,0,0,0,0,-1,1336,869,0,0
119,155,0,0,0,0,0,0,0,0,0,-1,1343,869,0,0
126,155,0,0,0,0,0,0,0,0,0,-1,1350,869,0,0
133,155,0,0,0,0,0,0,0,0,0,-1,1357,869,0,0
140,155,0,0,0,0,0,0,0,0,0,-1,1364,869,0,0
147,155,0,0,0,0,0,0,0,0,0,-1,1371,869,0,0
154,155,0,0,0,0,0,0,0,0,0,-1,1378,869,0,0
161,155,0,0,0,0,0,0,0,0,0,-1,1385,869,0,0
168,155,0,0,0,0,0,0,0,0,0,-1,1392,869,0,0
175,155,0,0,0,0,0,0,0,0,0,-1,1399,869,0,0
182,155,0,0,0,0,0,0,0,0,0,-1,1406,869,0,0
189,155,0,0,0,0,0,0,0,0,0,-1,1413,869,0,0
196,155,0,0,0,0,0,0,0,0,0,-1,1420,869,0,0
203,155,0,0,0,0,0,0,0,0,0,-1,1427,869,0,0
210,155,0,0,0,0,0,0,0,0,0,-1,1434,869,0,0
217,155,0,0,0,0,0,0,0,0,0,-1,1441,869,0,0
224,155,0,0,0,0,0,0,0,0,0,-1,1448,869,0,0
231,155,0,0,0,0,0,0,0,0,0,-1,1455,869,0,0
238,155,0,0,0,0,0,0,0,0,0,-1,1462,869,0,0
245,155,0,0,0,0,0,0,0,0,0,-1,1469,869,0,0
252,155,0,0,0,0,0,0,0,0,0,-1,1476,869,0,0
259,155,0,0,0,0,0,0,0,0,0,-1,1483,869,0,0
266,155,0,0,0,0,0,0,0,0,0,-1,1490,869,0,0
273,155,0,0,0,0,0,0,0,0,0,-1,1497,869,0,0
280,155,0,0,0,0,0,0,0,0,0,-1,1504,869,0,0
287,155,0,0,0,0,0,0,0,0,0,-1,1511,869,0,0
294,155,0,0,0,0,0,0,0,0,0,-1,1518,869,0,0
301,155,0,0,0,0,0,0,0,0,0,-1,1525,869,0,0
308,155,0,0,0,0,0,0,0,0,0,-1,1532,869,0,0
315,155,0,0,0,0,0,0,0,0,0,-1,1539,869,0,0
322,155,0,0,0,0,0,0,0,0,0,-1,1546,869,0,0
329,155,0,0,0,0,0,0,0,0,0,-1,1553,869,0,0
336,155,0,0,0,0,0,0,0,0,0,-1,1560,869,0,0
343,155,0,0,0,0,0,0,0,0,0,-1,1567,869,0,0
350,155,0,0,0,0,0,0,0,0,0,-1,1574,869,0,0
357,155,0,0,0,0,0,0,0,0,0,-1,1581,869,0,0
364,155,0,0,0,0,0,0,0,0,0,-1,1588,869,0,0
371,155,0,0,0,0,0,0,0,0,0,-1,1595,869,0,0
378,155,0,0,0,0,0,0,0,0,0,-1,1602,869,0,0
385,155,0,0,0,0,0,0,0,0,0,-1,1609,869,0,0
392,155,0,0,0,0,0,0,0,0,0,-1,1616,869,0,0
399,155,0,0,0,0,0,0,0,0,0,-1,1623,869,0,0
406,155,0,0,0,0,0,0,0,0,0,-1,1630,869,0,0
413,155,0,0,0,0,0,0,0,0,0,-1,1637,869,0,0
420,155,0,0,0,0,0,0,0,0,0,-1,1644,869,0,0
427,155,0,0,0,0,0,0,0,0,0,-1,1651,869,0,0
434,155,0,0,0,0,0,0,0,0,0,-1,1658,869,0,0
441,155,0,0,0,0,0,0,0,0,0,-1,1665,869,0,0
448,155,0,0,0,0,0,0,0,0,0,-1,1672,869,0,0
455,155,0,0,0,0,0,0,0,0,0,-1,1679,869,0,0
462,155,0,0,0,0,0,0,0,0,0,-1,1686,869,0,0
469,155,0,0,0,0,0,0,0,0,0,-1,1693,869,0,0
476,155,0,0,0,0,0,0,0,0,0,-1,1700,869,0,0
483,155,0,0,0,0,0,0,0,0,0,-1,1707,869,0,0
490,155,0,0,0,0,0,0,0,0,0,-1,1714,869,0,0
497,155,0,0,0,0,0,0,0,0,0,-1,1721,869,0,0
504,155,0,0,0,0,0,0,0,0,0,-1,1728,869,0,0
511,155,0,0,0,0,0,0,0,0,0,-1,1735,869,0,0
518,155,0,0,0,0,0,0,0,0,0,-1,1742,869,0,0
525,155,0,0,0,0,0,0,0,0,0,-1,1749,869,0,0
532,155,0,0,0,0,0,0,0,0,0,-1,1756,869,0,0
539,155,0,0,0,0,0,0,0,0,0,-1,1763,869,0,0
546,155,0,0,0,0,0,0,0,0,0,-1,1770,869,0,0
553,155,0,0,0,0,0,0,0,0,0,-1,1777,869,0,0
560,155,0,0,0,0,0,0,0,0,0,-1,1784,869,0,0
567,155,0,0,0,0,0,0,0,0,0,-1,1791,869,0,0
574,155,0,0,0,0,0,0,0,0,0,-1,1798,869,0,0
581,155,0,0,0,0,0,0,0,0,0,-1,1805,869,0,0
588,155,0,0,0,0,0,0,0,0,0,-1,1812,869,0,0
595,155,0,0,0,0,0,0,0,0,0,-1,1819,869,0,0
602,155,0,0,0,0,0,0,0,0,0,-1,1826,869,0,0
609,155,0,0,0,0,0,0,0,0,0,-1,1833,869,0,0
616,155,80.2255,2.64587,0,0,0,0,0,0,0,-1,1840,869,80.2255,-2.64585
623,155,80.1,2.46558,0.00614939,-0.00614628,-0.00595661,0.00856176,-0.00855865,-0.384801,0.00988447,0.0449375,1847,869,80.1,-2.46555
630,155,80.0725,2.33221,0.00353867,-0.00367666,-0.00377868,0.00515534,-0.00529333,-0.404274,0.00603272,0.0437745,1854,869,80.0725,-2.3322
637,155,80.0813,2.17255,0.00146975,-0.00145926,-0.00207509,0.00254508,-0.00253459,-0.478109,0.00293275,0.0404864,1861,869,80.0813,-2.17256
644,155,80.1896,2.18634,-3.05101e-07,-0.00010812,-0.000999036,0.000946277,-0.0010547,-0.758445,0.00115583,0.0374981,1868,869,80.1896,-2.18636
651,155,80.2144,2.17999,-0.000867582,0.000543488,-0.000573247,0.000747014,-0.00107111,-1.22964,0.00105524,0.0334237,1875,869,80.2143,-2.18002
658,155,80.2012,2.20441,-0.00158282,0.000516715,-0.00078858,0.00077991,-0.00184602,-1.24866,0.00155717,0.0272169,1882,869,80.2012,-2.20443
665,155,80.1345,2.3006,-0.00198496,0.000680034,-0.000898064,0.000954418,-0.00225934,-1.27428,0.00190577,0.0393814,1889,869,80.1346,-2.30059
672,155,80.0836,2.4375,0,0,0,0,0,0,0,-1,1896,869,80.0836,-2.43751
679,155,35.1565,2.78528,0,0,0,0,0,0,0,-1,1903,869,35.1565,-2.7853
686,155,43.6101,1.63361,0,0,0,0,0,0,0,-1,1910,869,43.6101,-1.63362
693,155,68.4926,1.17371,0,0,0,0,0,0,0,-1,1917,869,68.4926,-1.17371
700,155,67.6224,2.00983,0,0,0,0,0,0,0,-1,1924,869,67.6224,-2.0098
707,155,68.0122,2.84985,0,0,0,0,0,0,0,-1,1931,869,68.0122,-2.84983
714,155,67.7579,3.38483,0,0,0,0,0,0,0,-1,1938,869,67.7579,-3.38485
721,155,67.1968,4.58191,0,0,0,0,0,0,0,-1,1945,869,67.1968,-4.58193
728,155,67.4843,5.38855,-0.00206214,0.00268177,-0.00229767,0.00361215,-0.00299252,-1.18605,0.0038188,0.0224577,1952,869,67.4843,-5.38854
735,155,67.4445,6.23407,-0.00240635,0.00418904,-0.00187234,0.0046835,-0.00290081,-1.3126,0.00441894,0.0170975,1959,869,67.4444,-6.23405
742,155,67.4163,7.09332,-0.00285706,0.00634739,-0.00134172,0.00653899,-0.00304865,-1.42896,0.00565637,0.0186181,1966,869,67.4163,-7.09331
749,155,67.2927,7.93689,-0.00360645,0.00894552,-0.000855575,0.00900357,-0.0036645,-1.50305,0.00752733,0.0183396,1973,869,67.2927,-7.93686
756,155,67.1327,8.86975,-0.00465481,0.0120756,-0.000602726,0.0120973,-0.0046765,-1.53483,0.00999526,0.0317392,1980,869,67.1326,-8.86976
763,155,66.9985,9.85217,0,0,0,0,0,0,0,-1,1987,869,66.9985,-9.85216
770,155,66.4995,11.4908,0,0,0,0,0,0,0,-1,1994,869,66.4996,-11.4908
777,155,67.8357,10.6007,0,0,0,0,0,0,0,-1,2001,869,67.8357,-10.6007
784,155,69.9526,8.4718,0,0,0,0,0,0,0,-1,2008,869,69.9525,-8.47183
791,155,0,0,0,0,0,0,0,0,0,-1,2015,869,0,0
798,155,0,0,0,0,0,0,0,0,0,-1,2022,869,0,0
805,155,0,0,0,0,0,0,0,0,0,-1,2029,869,0,0
812,155,0,0,0,0,0,0,0,0,0,-1,2036,869,0,0
-700,148,0,0,0,0,0,0,0,0,0,-1,524,876,0,0
-693,148,0,0,0,0,0,0,0,0,0,-1,531,876,0,0
-686,148,0,0,0,0,0,0,0,0,0,-1,538,876,0,0
-679,148,0,0,0,0,0,0,0,0,0,-1,545,876,0,0
-672,148,-48.1407,-0.726746,0,0,0,0,0,0,0,-1,552,876,-48.1407,0.726755
-665,148,-48.2041,-3.97095,0,0,0,0,0,0,0,-1,559,876,-48.2041,3.97096
-658,148,-51.7661,3.82794,0,0,0,0,0,0,0,-1,566,876,-51.7661,-3.82797
-651,148,-52.0392,2.79663,0,0,0,0,0,0,0,-1,573,876,-52.0392,-2.79661
-644,148,-52.2687,1.81482,0,0,0,0,0,0,0,-1,580,876,-52.2687,-1.81482
-637,148,-52.5708,0.881165,0,0,0,0,0,0,0,-1,587,876,-52.5708,-0.88117
-630,148,-51.5519,9.54352,0,0,0,0,0,0,0,-1,594,876,-51.5519,-9.54353
-623,148,-51.8239,8.39209,-0.0191993,0.0133021,0.00457454,0.0139337,-0.0198309,1.4336,0.0195929,0.0319493,601,876,-51.8239,-8.39208
-616,148,-52.0652,7.32721,-0.0141761,0.0090668,0.0038357,0.00968343,-0.0147927,1.4114,0.0142336,0.0157727,608,876,-52.0652,-7.32724
-609,148,-52.2332,6.39917,-0.00863863,0.00648805,0.00383607,0.00740525,-0.00955582,1.3361,0.00981868,0.0143295,615,876,-52.2331,-6.39916
-602,148,-52.3296,5.50085,-0.00386768,0.00438903,0.00413488,0.00610367,-0.00558232,1.1777,0.00674914,0.0168553,622,876,-52.3296,-5.50087
-595,148,-52.3506,4.61902,-0.000779594,0.00311279,0.00422008,0.00581383,-0.00348063,1.00145,0.00542223,0.0146792,629,876,-52.3507,-4.61901
-588,148,-52.3795,3.65234,0.000359078,0.00239737,0.00387787,0.00538778,-0.00263133,0.913898,0.00472012,0.0361785,636,876,-52.3795,-3.65234
-581,148,-52.315,2.72375,0,0,0,0,0,0,0,-1,643,876,-52.315,-2.72375
-574,148,-51.1478,2.54205,0,0,0,0,0,0,0,-1,650,876,-51.1478,-2.54208
-567,148,-35.6293,0.615784,0,0,0,0,0,0,0,-1,657,876,-35.6293,-0.615792
-560,148,-37.7973,-0.588135,0,0,0,0,0,0,0,-1,664,876,-37.7973,0.588143
-553,148,-18.3896,-0.00280762,0,0,0,0,0,0,0,-1,671,876,-18.3897,0.00278524
-546,148,-63.7041,0.369202,0,0,0,0,0,0,0,-1,678,876,-63.7041,-0.369189
-539,148,-63.6765,0.323486,0.00135278,-0.002112,0.00299528,0.00308057,-0.00383979,0.523215,0.00400348,0.0460284,685,876,-63.6765,-0.32349
-532,148,-63.6842,0.36377,0.00179796,-0.00313785,0.00260442,0.00291803,-0.00425792,0.406153,0.00416704,0.0351128,692,876,-63.6842,-0.363774
-525,148,-63.6003,0.533447,0.00148394,-0.00437844,0.00246883,0.00238511,-0.00527961,0.349992,0.00452919,0.0361099,699,876,-63.6003,-0.533459
-518,148,-63.5682,0.387573,7.31842e-05,-0.00596605,0.00210496,0.000734458,-0.00662732,0.304387,0.00468228,0.0409468,706,876,-63.5683,-0.387581
-511,148,-63.4919,0.323486,-0.0014899,-0.00714541,0.00193957,-0.000888646,-0.00774667,0.300601,0.00489519,0.0409195,713,876,-63.4919,-0.323496
-504,148,-63.4365,0.311707,-0.00272133,-0.00790051,0.00171629,-0.00220421,-0.00841763,0.292649,0.00504032,0.0436041,720,876,-63.4365,-0.311731
-497,148,0,0,0,0,0,0,0,0,0,-1,727,876,0,0
-490,148,0,0,0,0,0,0,0,0,0,-1,734,876,0,0
-483,148,0,0,0,0,0,0,0,0,0,-1,741,876,0,0
-476,148,0,0,0,0,0,0,0,0,0,-1,748,876,0,0
-469,148,0,0,0,0,0,0,0,0,0,-1,755,876,0,0
-462,148,0,0,0,0,0,0,0,0,0,-1,762,876,0,0
-455,148,0,0,0,0,0,0,0,0,0,-1,769,876,0,0
-448,148,0,0,0,0,0,0,0,0,0,-1,776,876,0,0
-441,148,0,0,0,0,0,0,0,0,0,-1,783,876,0,0
-434,148,0,0,0,0,0,0,0,0,0,-1,790,876,0,0
-427,148,0,0,0,0,0,0,0,0,0,-1,797,876,0,0
-420,148,0,0,0,0,0,0,0,0,0,-1,804,876,0,0
-413,148,0,0,0,0,0,0,0,0,0,-1,811,876,0,0
-406,148,0,0,0,0,0,0,0,0,0,-1,818,876,0,0
-399,148,0,0,0,0,0,0,0,0,0,-1,825,876,0,0
-392,148,0,0,0,0,0,0,0,0,0,-1,832,876,0,0
-385,148,0,0,0,0,0,0,0,0,0,-1,839,876,0,0
-378,148,0,0,0,0,0,0,0,0,0,-1,846,876,0,0
-371,148,0,0,0,0,0,0,0,0,0,-1,853,876,0,0
-364,148,0,0,0,0,0,0,0,0,0,-1,860,876,0,0
-357,148,0,0,0,0,0,0,0,0,0,-1,867,876,0,0
-350,148,0,0,0,0,0,0,0,0,0,-1,874,876,0,0
-343,148,0,0,0,0,0,0,0,0,0,-1,881,876,0,0
-336,148,0,0,0,0,0,0,0,0,0,-1,888,876,0,0
-329,148,0,0,0,0,0,0,0,0,0,-1,895,876,0,0
-322,148,0,0,0,0,0,0,0,0,0,-1,902,876,0,0
-315,148,0,0,0,0,0,0,0,0,0,-1,909,876,0,0
-308,148,0,0,0,0,0,0,0,0,0,-1,916,876,0,0
-301,148,0,0,0,0,0,0,0,0,0,-1,923,876,0,0
-294,148,0,0,0,0,0,0,0,0,0,-1,930,876,0,0
-287,148,0,0,0,0,0,0,0,0,0,-1,937,876,0,0
-280,148,0,0,0,0,0,0,0,0,0,-1,944,876,0,0
-273,148,0,0,0,0,0,0,0,0,0,-1,951,876,0,0
-266,148,0,0,0,0,0,0,0,0,0,-1,958,876,0,0
-259,148,0,0,0,0,0,0,0,0,0,-1,965,876,0,0
-252,148,0,0,0,0,0,0,0,0,0,-1,972,876,0,0
-245,148,0,0,0,0,0,0,0,0,0,-1,979,876,0,0
-238,148,0,0,0,0,0,0,0,0,0,-1,986,876,0,0
-231,148,0,0,0,0,0,0,0,0,0,-1,993,876,0,0
-224,148,0,0,0,0,0,0,0,0,0,-1,1000,876,0,0
-217,148,0,0,0,0,0,0,0,0,0,-1,1007,876,0,0
-210,148,0,0,0,0,0,0,0,0,0,-1,1014,876,0,0
-203,148,0,0,0,0,0,0,0,0,0,-1,1021,876,0,0
-196,148,0,0,0,0,0,0,0,0,0,-1,1028,876,0,0
-189,148,0,0,0,0,0,0,0,0,0,-1,1035,876,0,0
-182,148,0,0,0,0,0,0,0,0,0,-1,1042,876,0,0
-175,148,0,0,0,0,0,0,0,0,0,-1,1049,876,0,0
-168,148,0,0,0,0,0,0,0,0,0,-1,1056,876,0,0
-161,148,0,0,0,0,0,0,0,0,0,-1,1063,876,0,0
-154,148,0,0,0,0,0,0,0,0,0,-1,1070,876,0,0
-147,148,0,0,0,0,0,0,0,0,0,-1,1077,876,0,0
-140,148,0,0,0,0,0,0,0,0,0,-1,1084,876,0,0
-133,148,0,0,0,0,0,0,0,0,0,-1,1091,876,0,0
-126,148,0,0,0,0,0,0,0,0,0,-1,1098,876,0,0
-119,148,0,0,0,0,0,0,0,0,0,-1,1105,876,0,0
-112,148,0,0,0,0,0,0,0,0,0,-1,1112,876,0,0
-105,148,0,0,0,0,0,0,0,0,0,-1,1119,876,0,0
-98,148,0,0,0,0,0,0,0,0,0,-1,1126,876,0,0
-91,148,0,0,0,0,0,0,0,0,0,-1,1133,876,0,0
-84,148,0,0,0,0,0,0,0,0,0,-1,1140,876,0,0
-77,148,0,0,0,0,0,0,0,0,0,-1,1147,876,0,0
-70,148,0,0,0,0,0,0,0,0,0,-1,1154,876,0,0
-63,148,0,0,0,0,0,0,0,0,0,-1,1161,876,0,0
-56,148,0,0,0,0,0,0,0,0,0,-1,1168,876,0,0
-49,148,0,0,0,0,0,0,0,0,0,-1,1175,876,0,0
-42,148,0,0,0,0,0,0,0,0,0,-1,1182,876,0,0
-35,148,0,0,0,0,0,0,0,0,0,-1,1189,876,0,0
-28,148,0,0,0,0,0,0,0,0,0,-1,1196,876,0,0
-21,148,0,0,0,0,0,0,0,0,0,-1,1203,876,0,0
-14,148,0,0,0,0,0,0,0,0,0,-1,1210,876,0,0
-7,148,0,0,0,0,0,0,0,0,0,-1,1217,876,0,0
0,148,0,0,0,0,0,0,0,0,0,-1,1224,876,0,0
7,148,0,0,0,0,0,0,0,0,0,-1,1231,876,0,0
14,148,0,0,0,0,0,0,0,0,0,-1,1238,876,0,0
21,148,0,0,0,0,0,0,0,0,0,-1,1245,876,0,0
28,148,0,0,0,0,0,0,0,0,0,-1,1252,876,0,0
35,148,0,0,0,0,0,0,0,0,0,-1,1259,876,0,0
42,148,0,0,0,0,0,0,0,0,0,-1,1266,876,0,0
49,148,0,0,0,0,0,0,0,0,0,-1,1273,876,0,0
56,148,0,0,0,0,0,0,0,0,0,-1,1280,876,0,0
63,148,0,0,0,0,0,0,0,0,0,-1,1287,876,0,0
70,148,0,0,0,0,0,0,0,0,0,-1,1294,876,0,0
77,148,0,0,0,0,0,0,0,0,0,-1,1301,876,0,0
84,148,0,0,0,0,0,0,0,0,0,-1,1308,876,0,0
91,148,0,0,0,0,0,0,0,0,0,-1,1315,876,0,0
98,148,0,0,0,0,0,0,0,0,0,-1,1322,876,0,0
105,148,0,0,0,0,0,0,0,0,0,-1,1329,876,0,0
112,148,0,0,0,0,0,0,0,0,0,-1,1336,876,0,0
119,148,0,0,0,0,0,0,0,0,0,-1,1343,876,0,0
126,148,0,0,0,0,0,0,0,0,0,-1,1350,876,0,0
133,148,0,0,0,0,0,0,0,0,0,-1,1357,876,0,0
140,148,0,0,0,0,0,0,0,0,0,-1,1364,876,0,0
147,148,0,0,0,0,0,0,0,0,0,-1,1371,876,0,0
154,148,0,0,0,0,0,0,0,0,0,-1,1378,876,0,0
161,148,0,0,0,0,0,0,0,0,0,-1,1385,876,0,0
168,148,0,0,0,0,0,0,0,0,0,-1,1392,876,0,0
175,148,0,0,0,0,0,0,0,0,0,-1,1399,876,0,0
182,148,0,0,0,0,0,0,0,0,0,-1,1406,876,0,0
189,148,0,0,0,0,0,0,0,0,0,-1,1413,876,0,0
196,148,0,0,0,0,0,0,0,0,0,-1,1420,876,0,0
203,148,0,0,0,0,0,0,0,0,0,-1,1427,876,0,0
210,148,0,0,0,0,0,0,0,0,0,-1,1434,876,0,0
217,148,0,0,0,0,0,0,0,0,0,-1,1441,876,0,0
224,148,0,0,0,0,0,0,0,0,0,-1,1448,876,0,0
231,148,0,0,0,0,0,0,0,0,0,-1,1455,876,0,0
238,148,0,0,0,0,0,0,0,0,0,-1,1462,876,0,0
245,148,0,0,0,0,0,0,0,0,0,-1,1469,876,0,0
252,148,0,0,0,0,0,0,0,0,0,-1,1476,876,0,0
259,148,0,0,0,0,0,0,0,0,0,-1,1483,876,0,0
266,148,0,0,0,0,0,0,0,0,0,-1,1490,876,0,0
273,148,0,0,0,0,0,0,0,0,0,-1,1497,876,0,0
280,148,0,0,0,0,0,0,0,0,0,-1,1504,876,0,0
287,148,0,0,0,0,0,0,0,0,0,-1,1511,876,0,0
294,148,0,0,0,0,0,0,0,0,0,-1,1518,876,0,0
301,148,0,0,0,0,0,0,0,0,0,-1,1525,876,0,0
308,148,0,0,0,0,0,0,0,0,0,-1,1532,876,0,0
315,148,0,0,0,0,0,0,0,0,0,-1,1539,876,0,0
322,148,0,0,0,0,0,0,0,0,0,-1,1546,876,0,0
329,148,0,0,0,0,0,0,0,0,0,-1,1553,876,0,0
336,148,0,0,0,0,0,0,0,0,0,-1,1560,876,0,0
343,148,0,0,0,0,0,0,0,0,0,-1,1567,876,0,0
350,148,0,0,0,0,0,0,0,0,0,-1,1574,876,0,0
357,148,0,0,0,0,0,0,0,0,0,-1,1581,876,0,0
364,148,0,0,0,0,0,0,0,0,0,-1,1588,876,0,0
371,148,0,0,0,0,0,0,0,0,0,-1,1595,876,0,0
378,148,0,0,0,0,0,0,0,0,0,-1,1602,876,0,0
385,148,0,0,0,0,0,0,0,0,0,-1,1609,876,0,0
392,148,0,0,0,0,0,0,0,0,0,-1,1616,876,0,0
399,148,0,0,0,0,0,0,0,0,0,-1,1623,876,0,0
406,148,0,0,0,0,0,0,0,0,0,-1,1630,876,0,0
413,148,0,0,0,0,0,0,0,0,0,-1,1637,876,0,0
420,148,0,0,0,0,0,0,0,0,0,-1,1644,876,0,0
427,148,0,0,0,0,0,0,0,0,0,-1,1651,876,0,0
434,148,0,0,0,0,0,0,0,0,0,-1,1658,876,0,0
441,148,0,0,0,0,0,0,0,0,0,-1,1665,876,0,0
448,148,0,0,0,0,0,0,0,0,0,-1,1672,876,0,0
455,148,0,0,0,0,0,0,0,0,0,-1,1679,876,0,0
462,148,0,0,0,0,0,0,0,0,0,-1,1686,876,0,0
469,148,0,0,0,0,0,0,0,0,0,-1,1693,876,0,0
476,148,0,0,0,0,0,0,0,0,0,-1,1700,876,0,0
483,148,0,0,0,0,0,0,0,0,0,-1,1707,876,0,0
490,148,0,0,0,0,0,0,0,0,0,-1,1714,876,0,0
497,148,0,0,0,0,0,0,0,0,0,-1,1721,876,0,0
504,148,0,0,0,0,0,0,0,0,0,-1,1728,876,0,0
511,148,0,0,0,0,0,0,0,0,0,-1,1735,876,0,0
518,148,0,0,0,0,0,0,0,0,0,-1,1742,876,0,0
525,148,0,0,0,0,0,0,0,0,0,-1,1749,876,0,0
532,148,0,0,0,0,0,0,0,0,0,-1,1756,876,0,0
539,148,0,0,0,0,0,0,0,0,0,-1,1763,876,0,0
546,148,0,0,0,0,0,0,0,0,0,-1,1770,876,0,0
553,148,0,0,0,0,0,0,0,0,0,-1,1777,876,0,0
560,148,0,0,0,0,0,0,0,0,0,-1,1784,876,0,0
567,148,0,0,0,0,0,0,0,0,0,-1,1791,876,0,0
574,148,0,0,0,0,0,0,0,0,0,-1,1798,876,0,0
581,148,0,0,0,0,0,0,0,0,0,-1,1805,876,0,0
588,148,0,0,0,0,0,0,0,0,0,-1,1812,876,0,0
595,148,0,0,0,0,0,0,0,0,0,-1,1819,876,0,0
602,148,0,0,0,0,0,0,0,0,0,-1,1826,876,0,0
609,148,0,0,0,0,0,0,0,0,0,-1,1833,876,0,0
616,148,0,0,0,0,0,0,0,0,0,-1,1840,876,0,0
623,148,80.1379,2.505,0.00644781,-0.00643551,-0.00658735,0.00921962,-0.00920733,-0.39829,0.0106388,0.0433936,1847,876,80.138,-2.50499
630,148,80.1152,2.37744,0.0039915,-0.0042172,-0.00452308,0.00599485,-0.00622054,-0.416947,0.00705296,0.0427179,1854,876,80.1153,-2.37746
637,148,80.1783,2.25787,0.00196402,-0.0021434,-0.00280059,0.00338321,-0.00356259,-0.46903,0.0040106,0.0391788,1861,876,80.1784,-2.25789
644,148,80.1187,2.21515,0.000411141,-0.000653282,-0.00149529,0.00146611,-0.00170825,-0.614427,0.0018345,0.0371455,1868,876,80.1187,-2.21515
651,148,80.1082,2.07916,-0.000621382,0.000229729,-0.000759156,0.000674469,-0.00106612,-1.04086,0.00101338,0.0375808,1875,876,80.1082,-2.07918
658,148,80.1744,2.13367,-0.00146935,0.00043393,-0.000704285,0.000666197,-0.00170162,-1.25224,0.00140996,0.0324072,1882,876,80.1744,-2.13365
665,148,80.0651,2.39423,-0.00191703,0.000722362,-0.000760295,0.000925705,-0.00212037,-1.30946,0.00180317,0.0238542,1889,876,80.065,-2.39422
672,148,79.9449,2.68304,0,0,0,0,0,0,0,-1,1896,876,79.945,-2.68305
679,148,79.9515,2.47559,0,0,0,0,0,0,0,-1,1903,876,79.9515,-2.4756
686,148,21.6195,2.40845,0,0,0,0,0,0,0,-1,1910,876,21.6196,-2.40846
693,148,48.1387,1.97351,0,0,0,0,0,0,0,-1,1917,876,48.1387,-1.97351
700,148,68.9703,2.45734,0,0,0,0,0,0,0,-1,1924,876,68.9704,-2.45732
707,148,68.9498,3.10883,0,0,0,0,0,0,0,-1,1931,876,68.9498,-3.1088
714,148,68.8224,3.81879,-0.00195466,0.00138887,-0.00225554,0.00252465,-0.00309043,-1.10431,0.00324735,0.0447243,1938,876,68.8224,-3.81877
721,148,68.4054,4.62183,-0.00183212,0.00195935,-0.00261729,0.00329533,-0.00316811,-1.09883,0.00373191,0.0369749,1945,876,68.4054,-4.62183
728,148,68.3969,5.42572,-0.00213045,0.00280611,-0.00264094,0.00395266,-0.00327699,-1.16121,0.00418011,0.0244618,1952,876,68.3969,-5.42571
735,148,68.3795,6.30084,-0.00251595,0.00420354,-0.00246889,0.00501313,-0.00332554,-1.25393,0.00484708,0.0240869,1959,876,68.3795,-6.30087
742,148,68.2992,7.16925,-0.00285286,0.00605277,-0.00219061,0.00656245,-0.00336254,-1.3422,0.00582862,0.0240862,1966,876,68.2991,-7.16922
749,148,68.1783,7.98743,-0.00313945,0.00818283,-0.00192759,0.008502,-0.00345862,-1.40671,0.00710715,0.0225597,1973,876,68.1783,-7.98742
756,148,68.033,8.90881,-0.00328399,0.0103476,-0.00185088,0.0105945,-0.00353083,-1.43821,0.00848833,0.0272962,1980,876,68.0331,-8.90884
763,148,67.885,9.97577,-0.00351476,0.0122395,-0.00206424,0.0125055,-0.00378074,-1.44265,0.00984236,0.0484476,1987,876,67.8851,-9.97574
770,148,67.707,11.0206,0,0,0,0,0,0,0,-1,1994,876,67.7072,-11.0205
777,148,67.353,12.5724,0,0,0,0,0,0,0,-1,2001,876,67.353,-12.5724
784,148,71.5566,9.01587,0,0,0,0,0,0,0,-1,2008,876,71.5567,-9.01584
791,148,71.4524,10.6003,0,0,0,0,0,0,0,-1,2015,876,71.4523,-10.6003
798,148,0,0,0,0,0,0,0,0,0,-1,2022,876,0,0
805,148,0,0,0,0,0,0,0,0,0,-1,2029,876,0,0
812,148,0,0,0,0,0,0,0,0,0,-1,2036,876,0,0
-700,141,0,0,0,0,0,0,0,0,0,-1,524,883,0,0
-693,141,0,0,0,0,0,0,0,0,0,-1,531,883,0,0
-686,141,0,0,0,0,0,0,0,0,0,-1,538,883,0,0
-679,141,0,0,0,0,0,0,0,0,0,-1,545,883,0,0
-672,141,-48.7804,-0.600891,0,0,0,0,0,0,0,-1,552,883,-48.7804,0.600898
-665,141,-48.764,-3.67065,0,0,0,0,0,0,0,-1,559,883,-48.764,3.67066
-658,141,-52.3438,3.12531,0,0,0,0,0,0,0,-1,566,883,-52.3438,-3.1253
-651,141,-53.1779,1.50293,0,0,0,0,0,0,0,-1,573,883,-53.1778,-1.50292
-644,141,-52.4205,-0.191956,0,0,0,0,0,0,0,-1,580,883,-52.4205,0.191941
-637,141,-52.859,0.400024,0,0,0,0,0,0,0,-1,587,883,-52.859,-0.400006
-630,141,-52.3746,9.43896,0,0,0,0,0,0,0,-1,594,883,-52.3747,-9.43897
-623,141,-52.6825,8.29138,-0.0165566,0.0149386,0.00577991,0.0159658,-0.0175838,1.39491,0.0193774,0.0387115,601,883,-52.6825,-8.29138
-616,141,-52.9938,7.2879,-0.0130891,0.00932937,0.0047236,0.010284,-0.0140437,1.37139,0.0141014,0.0157559,608,883,-52.9938,-7.2879
-609,141,-53.1597,6.42383,-0.00805564,0.00618414,0.00443115,0.00745042,-0.00932192,1.29245,0.00970359,0.0148318,615,883,-53.1597,-6.42381
-602,141,-53.2192,5.54187,-0.00374636,0.00412784,0.00446496,0.00614361,-0.00576213,1.14673,0.00687496,0.0168573,622,883,-53.2192,-5.54187
-595,141,-53.1758,4.64398,-0.00128827,0.0029989,0.00426897,0.00563224,-0.00392161,1.01807,0.00554531,0.0211649,629,883,-53.1758,-4.644
-588,141,-53.6598,3.70123,-0.000502629,0.00236137,0.00379791,0.00498828,-0.00312954,0.965681,0.0047276,0.0410191,636,883,-53.6598,-3.70122
-581,141,-54.085,2.72882,0,0,0,0,0,0,0,-1,643,883,-54.085,-2.72881
-574,141,-42.7302,0.864685,0,0,0,0,0,0,0,-1,650,883,-42.7301,-0.864692
-567,141,-30.5335,0.480103,0,0,0,0,0,0,0,-1,657,883,-30.5335,-0.480081
-560,141,-30.5542,0.23175,0,0,0,0,0,0,0,-1,664,883,-30.5542,-0.231742
-553,141,-32.0876,1.39459,0,0,0,0,0,0,0,-1,671,883,-32.0876,-1.3946
-546,141,-63.5937,0.456116,0,0,0,0,0,0,0,-1,678,883,-63.5937,-0.456099
-539,141,-63.6036,0.352905,0.000124631,-0.00176576,0.00275815,0.00209504,-0.00373618,0.620323,0.00341081,0.0298788,685,883,-63.6036,-0.352928
-532,141,-63.7071,0.349731,0.000552382,-0.00273402,0.00231055,0.00174445,-0.00392608,0.476305,0.00335368,0.0291267,692,883,-63.7071,-0.349724
-525,141,-63.7156,0.403381,-0.000171671,-0.00391343,0.00229666,0.000919685,-0.00500479,0.443605,0.00368158,0.0367963,699,883,-63.7156,-0.403395
-518,141,-63.6689,0.451599,-0.00180486,-0.00524252,0.002302,-0.000650784,-0.0063966,0.464715,0.00406487,0.0407139,706,883,-63.6689,-0.451605
-511,141,-63.6312,0.477234,-0.00335729,-0.00601273,0.00266222,-0.00171007,-0.00765995,0.554084,0.0046428,0.0390287,713,883,-63.6312,-0.477258
-504,141,-63.5836,0.43335,-0.00481596,-0.00663129,0.00291263,-0.00267285,-0.0087744,0.634351,0.00519323,0.0421497,720,883,-63.5835,-0.433373
-497,141,0,0,0,0,0,0,0,0,0,-1,727,883,0,0
-490,141,0,0,0,0,0,0,0,0,0,-1,734,883,0,0
-483,141,0,0,0,0,0,0,0,0,0,-1,741,883,0,0
-476,141,0,0,0,0,0,0,0,0,0,-1,748,883,0,0
-469,141,0,0,0,0,0,0,0,0,0,-1,755,883,0,0
-462,141,0,0,0,0,0,0,0,0,0,-1,762,883,0,0
-455,141,0,0,0,0,0,0,0,0,0,-1,769,883,0,0
-448,141,0,0,0,0,0,0,0,0,0,-1,776,883,0,0
-441,141,0,0,0,0,0,0,0,0,0,-1,783,883,0,0
-434,141,0,0,0,0,0,0,0,0,0,-1,790,883,0,0
-427,141,0,0,0,0,0,0,0,0,0,-1,797,883,0,0
-420,141,0,0,0,0,0,0,0,0,0,-1,804,883,0,0
-413,141,0,0,0,0,0,0,0,0,0,-1,811,883,0,0
-406,141,0,0,0,0,0,0,0,0,0,-1,818,883,0,0
-399,141,0,0,0,0,0,0,0,0,0,-1,825,883,0,0
-392,141,0,0,0,0,0,0,0,0,0,-1,832,883,0,0
-385,141,0,0,0,0,0,0,0,0,0,-1,839,883,0,0
-378,141,0,0,0,0,0,0,0,0,0,-1,846,883,0,0
-371,141,0,0,0,0,0,0,0,0,0,-1,853,883,0,0
-364,141,0,0,0,0,0,0,0,0,0,-1,860,883,0,0
-357,141,0,0,0,0,0,0,0,0,0,-1,867,883,0,0
-350,141,0,0,0,0,0,0,0,0,0,-1,874,883,0,0
-343,141,0,0,0,0,0,0,0,0,0,-1,881,883,0,0
-336,141,0,0,0,0,0,0,0,0,0,-1,888,883,0,0
-329,141,0,0,0,0,0,0,0,0,0,-1,895,883,0,0
-322,141,0,0,0,0,0,0,0,0,0,-1,902,883,0,0
-315,141,0,0,0,0,0,0,0,0,0,-1,909,883,0,0
-308,141,0,0,0,0,0,0,0,0,0,-1,916,883,0,0
-301,141,0,0,0,0,0,0,0,0,0,-1,923,883,0,0
-294,141,0,0,0,0,0,0,0,0,0,-1,930,883,0,0
-287,141,0,0,0,0,0,0,0,0,0,-1,937,883,0,0
-280,141,0,0,0,0,0,0,0,0,0,-1,944,883,0,0
-273,141,0,0,0,0,0,0,0,0,0,-1,951,883,0,0
-266,141,0,0,0,0,0,0,0,0,0,-1,958,883,0,0
-259,141,0,0,0,0,0,0,0,0,0,-1,965,883,0,0
-252,141,0,0,0,0,0,0,0,0,0,-1,972,883,0,0
-245,141,0,0,0,0,0,0,0,0,0,-1,979,883,0,0
-238,141,0,0,0,0,0,0,0,0,0,-1,986,883,0,0
-231,141,0,0,0,0,0,0,0,0,0,-1,993,883,0,0
-224,141,0,0,0,0,0,0,0,0,0,-1,1000,883,0,0
-217,141,0,0,0,0,0,0,0,0,0,-1,1007,883,0,0
-210,141,0,0,0,0,0,0,0,0,0,-1,1014,883,0,0
-203,141,0,0,0,0,0,0,0,0,0,-1,1021,883,0,0
-196,141,0,0,0,0,0,0,0,0,0,-1,1028,883,0,0
-189,141,0,0,0,0,0,0,0,0,0,-1,1035,883,0,0
-182,141,0,0,0,0,0,0,0,0,0,-1,1042,883,0,0
-175,141,0,0,0,0,0,0,0,0,0,-1,1049,883,0,0
-168,141,0,0,0,0,0,0,0,0,0,-1,1056,883,0,0
-161,141,0,0,0,0,0,0,0,0,0,-1,1063,883,0,0
-154,141,0,0,0,0,0,0,0,0,0,-1,1070,883,0,0
-147,141,0,0,0,0,0,0,0,0,0,-1,1077,883,0,0
-140,141,0,0,0,0,0,0,0,0,0,-1,1084,883,0,0
-133,141,0,0,0,0,0,0,0,0,0,-1,1091,883,0,0
-126,141,0,0,0,0,0,0,0,0,0,-1,1098,883,0,0
-119,141,0,0,0,0,0,0,0,0,0,-1,1105,883,0,0
-112,141,0,0,0,0,0,0,0,0,0,-1,1112,883,0,0
-105,141,0,0,0,0,0,0,0,0,0,-1,1119,883,0,0
-98,141,0,0,0,0,0,0,0,0,0,-1,1126,883,0,0
-91,141,0,0,0,0,0,0,0,0,0,-1,1133,883,0,0
-84,141,0,0,0,0,0,0,0,0,0,-1,1140,883,0,0
-77,141,0,0,0,0,0,0,0,0,0,-1,1147,883,0,0
-70,141,0,0,0,0,0,0,0,0,0,-1,1154,883,0,0
-63,141,0,0,0,0,0,0,0,0,0,-1,1161,883,0,0
-56,141,0,0,0,0,0,0,0,0,0,-1,1168,883,0,0
-49,141,0,0,0,0,0,0,0,0,0,-1,1175,883,0,0
-42,141,0,0,0,0,0,0,0,0,0,-1,1182,883,0,0
-35,141,0,0,0,0,0,0,0,0,0,-1,1189,883,0,0
-28,141,0,0,0,0,0,0,0,0,0,-1,1196,883,0,0
-21,141,0,0,0,0,0,0,0,0,0,-1,1203,883,0,0
-14,141,0,0,0,0,0,0,0,0,0,-1,1210,883,0,0
-7,141,0,0,0,0,0,0,0,0,0,-1,1217,883,0,0
0,141,0,0,0,0,0,0,0,0,0,-1,1224,883,0,0
7,141,0,0,0,0,0,0,0,0,0,-1,1231,883,0,0
14,141,0,0,0,0,0,0,0,0,0,-1,1238,883,0,0
21,141,0,0,0,0,0,0,0,0,0,-1,1245,883,0,0
28,141,0,0,0,0,0,0,0,0,0,-1,1252,883,0,0
35,141,0,0,0,0,0,0,0,0,0,-1,1259,883,0,0
42,141,0,0,0,0,0,0,0,0,0,-1,1266,883,0,0
49,141,0,0,0,0,0,0,0,0,0,-1,1273,883,0,0
56,141,0,0,0,0,0,0,0,0,0,-1,1280,883,0,0
63,141,0,0,0,0,0,0,0,0,0,-1,1287,883,0,0
70,141,0,0,0,0,0,0,0,0,0,-1,1294,883,0,0
77,141,0,0,0,0,0,0,0,0,0,-1,1301,883,0,0
84,141,0,0,0,0,0,0,0,0,0,-1,1308,883,0,0
91,141,0,0,0,0,0,0,0,0,0,-1,1315,883,0,0
98,141,0,0,0,0,0,0,0,0,0,-1,1322,883,0,0
105,141,0,0,0,0,0,0,0,0,0,-1,1329,883,0,0
112,141,0,0,0,0,0,0,0,0,0,-1,1336,883,0,0
119,141,0,0,0,0,0,0,0,0,0,-1,1343,883,0,0
126,141,0,0,0,0,0,0,0,0,0,-1,1350,883,0,0
133,141,0,0,0,0,0,0,0,0,0,-1,1357,883,0,0
140,141,0,0,0,0,0,0,0,0,0,-1,1364,883,0,0
147,141,0,0,0,0,0,0,0,0,0,-1,1371,883,0,0
154,141,0,0,0,0,0,0,0,0,0,-1,1378,883,0,0
161,141,0,0,0,0,0,0,0,0,0,-1,1385,883,0,0
168,141,0,0,0,0,0,0,0,0,0,-1,1392,883,0,0
175,141,0,0,0,0,0,0,0,0,0,-1,1399,883,0,0
182,141,0,0,0,0,0,0,0,0,0,-1,1406,883,0,0
189,141,0,0,0,0,0,0,0,0,0,-1,1413,883,0,0
196,141,0,0,0,0,0,0,0,0,0,-1,1420,883,0,0
203,141,0,0,0,0,0,0,0,0,0,-1,1427,883,0,0
210,141,0,0,0,0,0,0,0,0,0,-1,1434,883,0,0
217,141,0,0,0,0,0,0,0,0,0,-1,1441,883,0,0
224,141,0,0,0,0,0,0,0,0,0,-1,1448,883,0,0
231,141,0,0,0,0,0,0,0,0,0,-1,1455,883,0,0
238,141,0,0,0,0,0,0,0,0,0,-1,1462,883,0,0
245,141,0,0,0,0,0,0,0,0,0,-1,1469,883,0,0
252,141,0,0,0,0,0,0,0,0,0,-1,1476,883,0,0
259,141,0,0,0,0,0,0,0,0,0,-1,1483,883,0,0
266,141,0,0,0,0,0,0,0,0,0,-1,1490,883,0,0
273,141,0,0,0,0,0,0,0,0,0,-1,1497,883,0,0
280,141,0,0,0,0,0,0,0,0,0,-1,1504,883,0,0
287,141,0,0,0,0,0,0,0,0,0,-1,1511,883,0,0
294,141,0,0,0,0,0,0,0,0,0,-1,1518,883,0,0
301,141,0,0,0,0,0,0,0,0,0,-1,1525,883,0,0
308,141,0,0,0,0,0,0,0,0,0,-1,1532,883,0,0
315,141,0,0,0,0,0,0,0,0,0,-1,1539,883,0,0
322,141,0,0,0,0,0,0,0,0,0,-1,1546,883,0,0
329,141,0,0,0,0,0,0,0,0,0,-1,1553,883,0,0
336,141,0,0,0,0,0,0,0,0,0,-1,1560,883,0,0
343,141,0,0,0,0,0,0,0,0,0,-1,1567,883,0,0
350,141,0,0,0,0,0,0,0,0,0,-1,1574,883,0,0
357,141,0,0,0,0,0,0,0,0,0,-1,1581,883,0,0
364,141,0,0,0,0,0,0,0,0,0,-1,1588,883,0,0
371,141,0,0,0,0,0,0,0,0,0,-1,1595,883,0,0
378,141,0,0,0,0,0,0,0,0,0,-1,1602,883,0,0
385,141,0,0,0,0,0,0,0,0,0,-1,1609,883,0,0
392,141,0,0,0,0,0,0,0,0,0,-1,1616,883,0,0
399,141,0,0,0,0,0,0,0,0,0,-1,1623,883,0,0
406,141,0,0,0,0,0,0,0,0,0,-1,1630,883,0,0
413,141,0,0,0,0,0,0,0,0,0,-1,1637,883,0,0
420,141,0,0,0,0,0,0,0,0,0,-1,1644,883,0,0
427,141,0,0,0,0,0,0,0,0,0,-1,1651,883,0,0
434,141,0,0,0,0,0,0,0,0,0,-1,1658,883,0,0
441,141,0,0,0,0,0,0,0,0,0,-1,1665,883,0,0
448,141,0,0,0,0,0,0,0,0,0,-1,1672,883,0,0
455,141,0,0,0,0,0,0,0,0,0,-1,1679,883,0,0
462,141,0,0,0,0,0,0,0,0,0,-1,1686,883,0,0
469,141,0,0,0,0,0,0,0,0,0,-1,1693,883,0,0
476,141,0,0,0,0,0,0,0,0,0,-1,1700,883,0,0
483,141,0,0,0,0,0,0,0,0,0,-1,1707,883,0,0
490,141,0,0,0,0,0,0,0,0,0,-1,1714,883,0,0
497,141,0,0,0,0,0,0,0,0,0,-1,1721,883,0,0
504,141,0,0,0,0,0,0,0,0,0,-1,1728,883,0,0
511,141,0,0,0,0,0,0,0,0,0,-1,1735,883,0,0
518,141,0,0,0,0,0,0,0,0,0,-1,1742,883,0,0
525,141,0,0,0,0,0,0,0,0,0,-1,1749,883,0,0
532,141,0,0,0,0,0,0,0,0,0,-1,1756,883,0,0
539,141,0,0,0,0,0,0,0,0,0,-1,1763,883,0,0
546,141,0,0,0,0,0,0,0,0,0,-1,1770,883,0,0
553,141,0,0,0,0,0,0,0,0,0,-1,1777,883,0,0
560,141,0,0,0,0,0,0,0,0,0,-1,1784,883,0,0
567,141,0,0,0,0,0,0,0,0,0,-1,1791,883,0,0
574,141,0,0,0,0,0,0,0,0,0,-1,1798,883,0,0
581,141,0,0,0,0,0,0,0,0,0,-1,1805,883,0,0
588,141,0,0,0,0,0,0,0,0,0,-1,1812,883,0,0
595,141,0,0,0,0,0,0,0,0,0,-1,1819,883,0,0
602,141,0,0,0,0,0,0,0,0,0,-1,1826,883,0,0
609,141,0,0,0,0,0,0,0,0,0,-1,1833,883,0,0
616,141,0,0,0,0,0,0,0,0,0,-1,1840,883,0,0
623,141,80.1003,2.46716,0.00660931,-0.00591071,-0.00674394,0.00955084,-0.00885225,-0.411297,0.0106276,0.0455006,1847,883,80.1003,-2.46716
630,141,80.1471,2.3905,0.00418838,-0.00395837,-0.00477934,0.0063947,-0.00616469,-0.432488,0.00725157,0.0476579,1854,883,80.1471,-2.39049
637,141,80.2577,2.28058,0.00222371,-0.0022104,-0.00317016,0.00387515,-0.00386184,-0.480254,0.00446696,0.0464694,1861,883,80.2577,-2.28058
644,141,80.2434,2.13257,0.000665918,-0.000856692,-0.00185015,0.00190527,-0.00209604,-0.590215,0.00231103,0.0406904,1868,883,80.2434,-2.13254
651,141,80.2579,2.18311,-0.00042531,4.81999e-05,-0.000948271,0.000788824,-0.00116593,-0.907732,0.00113556,0.0381781,1875,883,80.2579,-2.18313
658,141,80.2579,2.16687,-0.00131005,0.000414216,-0.000648689,0.000631005,-0.00152684,-1.24827,0.00128112,0.0370619,1882,883,80.2579,-2.16689
665,141,80.0914,2.25555,-0.00175274,0.000832898,-0.000620028,0.000973891,-0.00189373,-1.3472,0.00168377,0.0280741,1889,883,80.0914,-2.25557
672,141,80.1124,2.34564,-0.00170747,0.000729444,-0.000823932,0.000981872,-0.00195989,-1.27351,0.00172943,0.0215953,1896,883,80.1124,-2.34562
679,141,80.0574,2.3313,-0.00159064,0.000679521,-0.00103447,0.00108019,-0.00199131,-1.20127,0.00179915,0.0350715,1903,883,80.0574,-2.33127
686,141,79.978,2.34912,0,0,0,0,0,0,0,-1,1910,883,79.978,-2.3491
693,141,51.7202,1.76593,0,0,0,0,0,0,0,-1,1917,883,51.7202,-1.76595
700,141,62.7651,1.95361,0,0,0,0,0,0,0,-1,1924,883,62.7651,-1.95364
707,141,69.6671,3.14459,0,0,0,0,0,0,0,-1,1931,883,69.6671,-3.14458
714,141,69.2953,3.88995,-0.00206532,0.00152077,-0.00227362,0.0026233,-0.00316786,-1.11928,0.00334845,0.0421738,1938,883,69.2953,-3.88998
721,141,69.3236,4.62988,-0.00200535,0.00203052,-0.00273667,0.0034128,-0.00338763,-1.10308,0.00392623,0.0236926,1945,883,69.3236,-4.62989
728,141,69.3962,5.45374,-0.00238355,0.00275909,-0.00292404,0.00408157,-0.00370604,-1.14605,0.00449792,0.0192987,1952,883,69.3963,-5.45371
735,141,69.3214,6.42072,-0.00283163,0.00403392,-0.00292567,0.00511152,-0.00390923,-1.21789,0.00522353,0.0238897,1959,883,69.3214,-6.42074
742,141,69.1855,7.23401,-0.00309622,0.00575731,-0.00281692,0.00657757,-0.00391648,-1.28744,0.00612333,0.0239088,1966,883,69.1855,-7.23401
749,141,69.141,8.00281,-0.00307483,0.00772296,-0.002615,0.00832293,-0.00367479,-1.34527,0.00709805,0.0168605,1973,883,69.141,-8.00282
756,141,69.0747,8.88562,-0.00265603,0.00950753,-0.00245441,0.00998412,-0.00313261,-1.37901,0.00790983,0.023749,1980,883,69.0747,-8.88563
763,141,68.9158,9.5011,-0.00192227,0.0107605,-0.00238494,0.0111942,-0.00235592,-1.39093,0.0083595,0.046127,1987,883,68.9158,-9.50108
770,141,68.7295,10.1058,0,0,0,0,0,0,0,-1,1994,883,68.7296,-10.1059
777,141,73.0037,8.44788,0,0,0,0,0,0,0,-1,2001,883,73.0038,-8.44787
784,141,73.3435,9.80182,0,0,0,0,0,0,0,-1,2008,883,73.3434,-9.80183
791,141,73.7993,11.1595,0,0,0,0,0,0,0,-1,2015,883,73.7994,-11.1595
798,141,0,0,0,0,0,0,0,0,0,-1,2022,883,0,0
805,141,0,0,0,0,0,0,0,0,0,-1,2029,883,0,0
812,141,0,0,0,0,0,0,0,0,0,-1,2036,883,0,0
-700,134,0,0,0,0,0,0,0,0,0,-1,524,890,0,0
-693,134,0,0,0,0,0,0,0,0,0,-1,531,890,0,0
-686,134,0,0,0,0,0,0,0,0,0,-1,538,890,0,0
-679,134,0,0,0,0,0,0,0,0,0,-1,545,890,0,0
-672,134,-49.3306,-0.500671,0,0,0,0,0,0,0,-1,552,890,-49.3306,0.500651
-665,134,-49.3356,-3.00098,0,0,0,0,0,0,0,-1,559,890,-49.3356,3.00096
-658,134,-49.3368,-5.46246,0,0,0,0,0,0,0,-1,566,890,-49.3368,5.46248
-651,134,-53.0905,0.530762,0,0,0,0,0,0,0,-1,573,890,-53.0905,-0.530792
-644,134,-51.8253,-1.26782,0,0,0,0,0,0,0,-1,580,890,-51.8253,1.26783
-637,134,-50.5067,-2.83545,0,0,0,0,0,0,0,-1,587,890,-50.5066,2.83545
-630,134,-53.366,8.83667,0,0,0,0,0,0,0,-1,594,890,-53.3659,-8.83667
-623,134,-53.5948,8.12634,-0.013013,0.0166747,0.00696704,0.0182284,-0.0145667,1.35138,0.0189736,0.0371451,601,890,-53.5949,-8.12631
-616,134,-53.9288,7.31158,-0.0111758,0.00977383,0.00570032,0.0112244,-0.0126264,1.32161,0.0137782,0.0154323,608,890,-53.9288,-7.31158
-609,134,-54.0844,6.45361,-0.00696213,0.00591029,0.0050651,0.00766432,-0.00871616,1.23742,0.00946377,0.0122034,615,890,-54.0844,-6.45359
-602,134,-54.1154,5.57947,-0.00332323,0.0037784,0.0047575,0.00616409,-0.00570892,1.10598,0.00685657,0.0130778,622,890,-54.1153,-5.57945
-595,134,-53.999,4.76135,-0.00150807,0.00269289,0.00432371,0.00539933,-0.00421451,1.01151,0.00556459,0.0314881,629,890,-53.9989,-4.76133
-588,134,-54.6556,3.94897,0,0,0,0,0,0,0,-1,636,890,-54.6556,-3.94897
-581,134,-53.1306,2.69196,0,0,0,0,0,0,0,-1,643,890,-53.1306,-2.69195
-574,134,-31.1517,0.757751,0,0,0,0,0,0,0,-1,650,890,-31.1517,-0.757758
-567,134,-30.9003,0.296326,0,0,0,0,0,0,0,-1,657,890,-30.9002,-0.296302
-560,134,-22.9123,0.106567,0,0,0,0,0,0,0,-1,664,890,-22.9123,-0.106594
-553,134,-63.6475,0.382324,0,0,0,0,0,0,0,-1,671,890,-63.6475,-0.382322
-546,134,-63.632,0.404236,-0.00052548,-0.00155177,0.00263903,0.00164983,-0.00372708,0.689374,0.00318064,0.0333761,678,890,-63.632,-0.404206
-539,134,-63.6055,0.41748,-0.00103501,-0.00180364,0.00234815,0.000960067,-0.00379871,0.704283,0.00290585,0.0199219,685,890,-63.6055,-0.4175
-532,134,-63.6664,0.437012,-0.0007922,-0.00266495,0.00184029,0.000336238,-0.00379339,0.550059,0.00264813,0.0233851,692,890,-63.6664,-0.436992
-525,134,-63.7282,0.451965,-0.00184411,-0.00358932,0.00193915,-0.000590276,-0.00484315,0.573973,0.0030511,0.0330137,699,890,-63.7282,-0.451989
-518,134,-63.7177,0.577576,-0.00348658,-0.00447898,0.00220643,-0.00172124,-0.00624432,0.674794,0.00372417,0.0393267,706,890,-63.7177,-0.57758
-511,134,-63.717,0.742676,-0.00489533,-0.00488259,0.00287434,-0.00201461,-0.00776331,0.786507,0.00465177,0.0426274,713,890,-63.717,-0.742698
-504,134,0,0,0,0,0,0,0,0,0,-1,720,890,0,0
-497,134,0,0,0,0,0,0,0,0,0,-1,727,890,0,0
-490,134,0,0,0,0,0,0,0,0,0,-1,734,890,0,0
-483,134,0,0,0,0,0,0,0,0,0,-1,741,890,0,0
-476,134,0,0,0,0,0,0,0,0,0,-1,748,890,0,0
-469,134,0,0,0,0,0,0,0,0,0,-1,755,890,0,0
-462,134,0,0,0,0,0,0,0,0,0,-1,762,890,0,0
-455,134,0,0,0,0,0,0,0,0,0,-1,769,890,0,0
-448,134,0,0,0,0,0,0,0,0,0,-1,776,890,0,0
-441,134,0,0,0,0,0,0,0,0,0,-1,783,890,0,0
-434,134,0,0,0,0,0,0,0,0,0,-1,790,890,0,0
-427,134,0,0,0,0,0,0,0,0,0,-1,797,890,0,0
-420,134,0,0,0,0,0,0,0,0,0,-1,804,890,0,0
-413,134,0,0,0,0,0,0,0,0,0,-1,811,890,0,0
-406,134,0,0,0,0,0,0,0,0,0,-1,818,890,0,0
-399,134,0,0,0,0,0,0,0,0,0,-1,825,890,0,0
-392,134,0,0,0,0,0,0,0,0,0,-1,832,890,0,0
-385,134,0,0,0,0,0,0,0,0,0,-1,839,890,0,0
-378,134,0,0,0,0,0,0,0,0,0,-1,846,890,0,0
-371,134,0,0,0,0,0,0,0,0,0,-1,853,890,0,0
-364,134,0,0,0,0,0,0,0,0,0,-1,860,890,0,0
-357,134,0,0,0,0,0,0,0,0,0,-1,867,890,0,0
-350,134,0,0,0,0,0,0,0,0,0,-1,874,890,0,0
-343,134,0,0,0,0,0,0,0,0,0,-1,881,890,0,0
-336,134,0,0,0,0,0,0,0,0,0,-1,888,890,0,0
-329,134,0,0,0,0,0,0,0,0,0,-1,895,890,0,0
-322,134,0,0,0,0,0,0,0,0,0,-1,902,890,0,0
-315,134,0,0,0,0,0,0,0,0,0,-1,909,890,0,0
-308,134,0,0,0,0,0,0,0,0,0,-1,916,890,0,0
-301,134,0,0,0,0,0,0,0,0,0,-1,923,890,0,0
-294,134,0,0,0,0,0,0,0,0,0,-1,930,890,0,0
-287,134,0,0,0,0,0,0,0,0,0,-1,937,890,0,0
-280,134,0,0,0,0,0,0,0,0,0,-1,944,890,0,0
-273,134,0,0,0,0,0,0,0,0,0,-1,951,890,0,0
-266,134,0,0,0,0,0,0,0,0,0,-1,958,890,0,0
-259,134,0,0,0,0,0,0,0,0,0,-1,965,890,0,0
-252,134,0,0,0,0,0,0,0,0,0,-1,972,890,0,0
-245,134,0,0,0,0,0,0,0,0,0,-1,979,890,0,0
-238,134,0,0,0,0,0,0,0,0,0,-1,986,890,0,0
-231,134,0,0,0,0,0,0,0,0,0,-1,993,890,0,0
-224,134,0,0,0,0,0,0,0,0,0,-1,1000,890,0,0
-217,134,0,0,0,0,0,0,0,0,0,-1,1007,890,0,0
-210,134,0,0,0,0,0,0,0,0,0,-1,1014,890,0,0
-203,134,0,0,0,0,0,0,0,0,0,-1,1021,890,0,0
-196,134,0,0,0,0,0,0,0,0,0,-1,1028,890,0,0
-189,134,0,0,0,0,0,0,0,0,0,-1,1035,890,0,0
-182,134,0,0,0,0,0,0,0,0,0,-1,1042,890,0,0
-175,134,0,0,0,0,0,0,0,0,0,-1,1049,890,0,0
-168,134,0,0,0,0,0,0,0,0,0,-1,1056,890,0,0
-161,134,0,0,0,0,0,0,0,0,0,-1,1063,890,0,0
-154,134,0,0,0,0,0,0,0,0,0,-1,1070,890,0,0
-147,134,0,0,0,0,0,0,0,0,0,-1,1077,890,0,0
-140,134,0,0,0,0,0,0,0,0,0,-1,1084,890,0,0
-133,134,0,0,0,0,0,0,0,0,0,-1,1091,890,0,0
-126,134,0,0,0,0,0,0,0,0,0,-1,1098,890,0,0
-119,134,0,0,0,0,0,0,0,0,0,-1,1105,890,0,0
-112,134,0,0,0,0,0,0,0,0,0,-1,1112,890,0,0
-105,134,0,0,0,0,0,0,0,0,0,-1,1119,890,0,0
-98,134,0,0,0,0,0,0,0,0,0,-1,1126,890,0,0
-91,134,0,0,0,0,0,0,0,0,0,-1,1133,890,0,0
-84,134,0,0,0,0,0,0,0,0,0,-1,1140,890,0,0
-77,134,0,0,0,0,0,0,0,0,0,-1,1147,890,0,0
-70,134,0,0,0,0,0,0,0,0,0,-1,1154,890,0,0
-63,134,0,0,0,0,0,0,0,0,0,-1,1161,890,0,0
-56,134,0,0,0,0,0,0,0,0,0,-1,1168,890,0,0
-49,134,0,0,0,0,0,0,0,0,0,-1,1175,890,0,0
-42,134,0,0,0,0,0,0,0,0,0,-1,1182,890,0,0
-35,134,0,0,0,0,0,0,0,0,0,-1,1189,890,0,0
-28,134,0,0,0,0,0,0,0,0,0,-1,1196,890,0,0
-21,134,0,0,0,0,0,0,0,0,0,-1,1203,890,0,0
-14,134,0,0,0,0,0,0,0,0,0,-1,1210,890,0,0
-7,134,0,0,0,0,0,0,0,0,0,-1,1217,890,0,0
0,134,0,0,0,0,0,0,0,0,0,-1,1224,890,0,0
7,134,0,0,0,0,0,0,0,0,0,-1,1231,890,0,0
14,134,0,0,0,0,0,0,0,0,0,-1,1238,890,0,0
21,134,0,0,0,0,0,0,0,0,0,-1,1245,890,0,0
28,134,0,0,0,0,0,0,0,0,0,-1,1252,890,0,0
35,134,0,0,0,0,0,0,0,0,0,-1,1259,890,0,0
42,134,0,0,0,0,0,0,0,0,0,-1,1266,890,0,0
49,134,0,0,0,0,0,0,0,0,0,-1,1273,890,0,0
56,134,0,0,0,0,0,0,0,0,0,-1,1280,890,0,0
63,134,0,0,0,0,0,0,0,0,0,-1,1287,890,0,0
70,134,0,0,0,0,0,0,0,0,0,-1,1294,890,0,0
77,134,0,0,0,0,0,0,0,0,0,-1,1301,890,0,0
84,134,0,0,0,0,0,0,0,0,0,-1,1308,890,0,0
91,134,0,0,0,0,0,0,0,0,0,-1,1315,890,0,0
98,134,0,0,0,0,0,0,0,0,0,-1,1322,890,0,0
105,134,0,0,0,0,0,0,0,0,0,-1,1329,890,0,0
112,134,0,0,0,0,0,0,0,0,0,-1,1336,890,0,0
119,134,0,0,0,0,0,0,0,0,0,-1,1343,890,0,0
126,134,0,0,0,0,0,0,0,0,0,-1,1350,890,0,0
133,134,0,0,0,0,0,0,0,0,0,-1,1357,890,0,0
140,134,0,0,0,0,0,0,0,0,0,-1,1364,890,0,0
147,134,0,0,0,0,0,0,0,0,0,-1,1371,890,0,0
154,134,0,0,0,0,0,0,0,0,0,-1,1378,890,0,0
161,134,0,0,0,0,0,0,0,0,0,-1,1385,890,0,0
168,134,0,0,0,0,0,0,0,0,0,-1,1392,890,0,0
175,134,0,0,0,0,0,0,0,0,0,-1,1399,890,0,0
182,134,0,0,0,0,0,0,0,0,0,-1,1406,890,0,0
189,134,0,0,0,0,0,0,0,0,0,-1,1413,890,0,0
196,134,0,0,0,0,0,0,0,0,0,-1,1420,890,0,0
203,134,0,0,0,0,0,0,0,0,0,-1,1427,890,0,0
210,134,0,0,0,0,0,0,0,0,0,-1,1434,890,0,0
217,134,0,0,0,0,0,0,0,0,0,-1,1441,890,0,0
224,134,0,0,0,0,0,0,0,0,0,-1,1448,890,0,0
231,134,0,0,0,0,0,0,0,0,0,-1,1455,890,0,0
238,134,0,0,0,0,0,0,0,0,0,-1,1462,890,0,0
245,134,0,0,0,0,0,0,0,0,0,-1,1469,890,0,0
252,134,0,0,0,0,0,0,0,0,0,-1,1476,890,0,0
259,134,0,0,0,0,0,0,0,0,0,-1,1483,890,0,0
266,134,0,0,0,0,0,0,0,0,0,-1,1490,890,0,0
273,134,0,0,0,0,0,0,0,0,0,-1,1497,890,0,0
280,134,0,0,0,0,0,0,0,0,0,-1,1504,890,0,0
287,134,0,0,0,0,0,0,0,0,0,-1,1511,890,0,0
294,134,0,0,0,0,0,0,0,0,0,-1,1518,890,0,0
301,134,0,0,0,0,0,0,0,0,0,-1,1525,890,0,0
308,134,0,0,0,0,0,0,0,0,0,-1,1532,890,0,0
315,134,0,0,0,0,0,0,0,0,0,-1,1539,890,0,0
322,134,0,0,0,0,0,0,0,0,0,-1,1546,890,0,0
329,134,0,0,0,0,0,0,0,0,0,-1,1553,890,0,0
336,134,0,0,0,0,0,0,0,0,0,-1,1560,890,0,0
343,134,0,0,0,0,0,0,0,0,0,-1,1567,890,0,0
350,134,0,0,0,0,0,0,0,0,0,-1,1574,890,0,0
357,134,0,0,0,0,0,0,0,0,0,-1,1581,890,0,0
364,134,0,0,0,0,0,0,0,0,0,-1,1588,890,0,0
371,134,0,0,0,0,0,0,0,0,0,-1,1595,890,0,0
378,134,0,0,0,0,0,0,0,0,0,-1,1602,890,0,0
385,134,0,0,0,0,0,0,0,0,0,-1,1609,890,0,0
392,134,0,0,0,0,0,0,0,0,0,-1,1616,890,0,0
399,134,0,0,0,0,0,0,0,0,0,-1,1623,890,0,0
406,134,0,0,0,0,0,0,0,0,0,-1,1630,890,0,0
413,134,0,0,0,0,0,0,0,0,0,-1,1637,890,0,0
420,134,0,0,0,0,0,0,0,0,0,-1,1644,890,0,0
427,134,0,0,0,0,0,0,0,0,0,-1,1651,890,0,0
434,134,0,0,0,0,0,0,0,0,0,-1,1658,890,0,0
441,134,0,0,0,0,0,0,0,0,0,-1,1665,890,0,0
448,134,0,0,0,0,0,0,0,0,0,-1,1672,890,0,0
455,134,0,0,0,0,0,0,0,0,0,-1,1679,890,0,0
462,134,0,0,0,0,0,0,0,0,0,-1,1686,890,0,0
469,134,0,0,0,0,0,0,0,0,0,-1,1693,890,0,0
476,134,0,0,0,0,0,0,0,0,0,-1,1700,890,0,0
483,134,0,0,0,0,0,0,0,0,0,-1,1707,890,0,0
490,134,0,0,0,0,0,0,0,0,0,-1,1714,890,0,0
497,134,0,0,0,0,0,0,0,0,0,-1,1721,890,0,0
504,134,0,0,0,0,0,0,0,0,0,-1,1728,890,0,0
511,134,0,0,0,0,0,0,0,0,0,-1,1735,890,0,0
518,134,0,0,0,0,0,0,0,0,0,-1,1742,890,0,0
525,134,0,0,0,0,0,0,0,0,0,-1,1749,890,0,0
532,134,0,0,0,0,0,0,0,0,0,-1,1756,890,0,0
539,134,0,0,0,0,0,0,0,0,0,-1,1763,890,0,0
546,134,0,0,0,0,0,0,0,0,0,-1,1770,890,0,0
553,134,0,0,0,0,0,0,0,0,0,-1,1777,890,0,0
560,134,0,0,0,0,0,0,0,0,0,-1,1784,890,0,0
567,134,0,0,0,0,0,0,0,0,0,-1,1791,890,0,0
574,134,0,0,0,0,0,0,0,0,0,-1,1798,890,0,0
581,134,0,0,0,0,0,0,0,0,0,-1,1805,890,0,0
588,134,0,0,0,0,0,0,0,0,0,-1,1812,890,0,0
595,134,0,0,0,0,0,0,0,0,0,-1,1819,890,0,0
602,134,0,0,0,0,0,0,0,0,0,-1,1826,890,0,0
609,134,0,0,0,0,0,0,0,0,0,-1,1833,890,0,0
616,134,0,0,0,0,0,0,0,0,0,-1,1840,890,0,0
623,134,80.145,2.59869,0.00655266,-0.00545731,-0.00692924,0.00971688,-0.00862152,-0.428367,0.010594,0.045132,1847,890,80.145,-2.59867
630,134,80.1019,2.47345,0.00419504,-0.00365126,-0.00493806,0.00657868,-0.00603489,-0.449718,0.00728471,0.0485092,1854,890,80.1019,-2.47346
637,134,80.2432,2.27722,0.00237979,-0.00218707,-0.00341488,0.00420434,-0.00401162,-0.490704,0.00474392,0.0490204,1861,890,80.2432,-2.27724
644,134,80.3519,2.16907,0.000885084,-0.00106941,-0.00215219,0.00227151,-0.00245584,-0.572281,0.00273002,0.0416971,1868,890,80.352,-2.16904
651,134,80.3392,2.26563,-0.000194872,-0.000288718,-0.00118289,0.000942026,-0.00142562,-0.765575,0.00137643,0.0403585,1875,890,80.3393,-2.26562
658,134,80.2351,2.27252,-0.00105513,0.000116813,-0.000677363,0.000426489,-0.00136481,-1.14199,0.00108047,0.0402706,1882,890,80.2351,-2.27251
665,134,80.0917,2.15045,-0.00149131,0.000615475,-0.00051623,0.000735168,-0.001611,-1.34296,0.00138567,0.0365384,1889,890,80.0917,-2.15048
672,134,80.116,2.22546,-0.00149963,0.00055098,-0.000663957,0.000747185,-0.00169584,-1.28346,0.00144549,0.0246376,1896,890,80.1159,-2.22545
679,134,80.1195,2.22223,-0.00143152,0.000459833,-0.000850193,0.000785821,-0.00175751,-1.20466,0.00150369,0.0210619,1903,890,80.1195,-2.22221
686,134,80.0873,2.26062,0,0,0,0,0,0,0,-1,1910,890,80.0873,-2.26062
693,134,34.5778,2.48096,0,0,0,0,0,0,0,-1,1917,890,34.5777,-2.48099
700,134,70.1498,1.73108,0,0,0,0,0,0,0,-1,1924,890,70.1498,-1.73106
707,134,70.0979,2.63971,0,0,0,0,0,0,0,-1,1931,890,70.0979,-2.63969
714,134,70.1731,3.66742,-0.00212307,0.00144345,-0.0022016,0.0024934,-0.00317301,-1.1258,0.00327934,0.0308646,1938,890,70.1731,-3.6674
721,134,70.2704,4.46332,-0.00211845,0.00195176,-0.00270969,0.00330547,-0.00347216,-1.10748,0.00391346,0.0273287,1945,890,70.2703,-4.4633
728,134,70.3123,5.41766,-0.00257695,0.0026472,-0.00300099,0.00401368,-0.00394342,-1.14351,0.00459409,0.0246534,1952,890,70.3123,-5.41767
735,134,70.2351,6.43188,-0.00304422,0.00381816,-0.00313581,0.00503523,-0.00426129,-1.20057,0.00537355,0.032927,1959,890,70.2352,-6.43191
742,134,70.0806,7.25879,-0.00313491,0.00541845,-0.00316703,0.00646344,-0.00417989,-1.25209,0.00619189,0.0209307,1966,890,70.0806,-7.25881
749,134,70.058,8.02173,-0.0027494,0.00726006,-0.00299221,0.00808633,-0.00357568,-1.30137,0.0068989,0.0148919,1973,890,70.058,-8.02176
756,134,70.0154,8.81494,-0.00177625,0.00884415,-0.00267536,0.00948003,-0.00241212,-1.33745,0.0072589,0.0199962,1980,890,70.0153,-8.81491
763,134,69.8948,9.61688,-0.000280799,0.00970325,-0.00230329,0.010209,-0.000786542,-1.35465,0.00708275,0.0417109,1987,890,69.8948,-9.61691
770,134,69.7568,10.4241,0,0,0,0,0,0,0,-1,1994,890,69.7567,-10.4241
777,134,74.8572,9.58441,0,0,0,0,0,0,0,-1,2001,890,74.8572,-9.58442
784,134,75.1489,10.8398,0,0,0,0,0,0,0,-1,2008,890,75.1489,-10.8398
791,134,75.4202,12.0895,0,0,0,0,0,0,0,-1,2015,890,75.4202,-12.0896
798,134,0,0,0,0,0,0,0,0,0,-1,2022,890,0,0
805,134,0,0,0,0,0,0,0,0,0,-1,2029,890,0,0
812,134,0,0,0,0,0,0,0,0,0,-1,2036,890,0,0
-700,127,0,0,0,0,0,0,0,0,0,-1,524,897,0,0
-693,127,0,0,0,0,0,0,0,0,0,-1,531,897,0,0
-686,127,0,0,0,0,0,0,0,0,0,-1,538,897,0,0
-679,127,-52.0821,4.30957,0,0,0,0,0,0,0,-1,545,897,-52.0821,-4.30955
-672,127,-50.373,4.8219,0,0,0,0,0,0,0,-1,552,897,-50.373,-4.8219
-665,127,-49.6271,-2.44153,0,0,0,0,0,0,0,-1,559,897,-49.6271,2.44154
-658,127,-48.965,-4.18744,0,0,0,0,0,0,0,-1,566,897,-48.965,4.18745
-651,127,-52.9149,-0.455505,0,0,0,0,0,0,0,-1,573,897,-52.9149,0.455524
-644,127,-51.6913,-2.33765,0,0,0,0,0,0,0,-1,580,897,-51.6914,2.33763
-637,127,-50.3104,-4.18658,0,0,0,0,0,0,0,-1,587,897,-50.3104,4.18656
-630,127,-54.6888,8.68213,0,0,0,0,0,0,0,-1,594,897,-54.6888,-8.68213
-623,127,-54.7756,8.06482,-0.00906902,0.0178938,0.00786299,0.0200193,-0.0111945,1.30679,0.0182598,0.0239877,601,897,-54.7756,-8.06485
-616,127,-54.874,7.32776,-0.00868836,0.00995788,0.00655104,0.0120293,-0.0107598,1.26454,0.0131641,0.0130901,608,897,-54.874,-7.32773
-609,127,-54.9916,6.47717,-0.00555915,0.0055373,0.00560625,0.00787659,-0.00789843,1.1755,0.00910772,0.0145791,615,897,-54.9916,-6.47717
-602,127,-55.0167,5.65021,-0.00279389,0.00345346,0.00495573,0.00618782,-0.00552825,1.0666,0.00676785,0.0167815,622,897,-55.0167,-5.6502
-595,127,-54.9287,4.87244,-0.00149358,0.0024284,0.0043657,0.00525331,-0.00431848,0.996485,0.00553505,0.0368263,629,897,-54.9287,-4.87243
-588,127,-54.8104,4.41595,0,0,0,0,0,0,0,-1,636,897,-54.8104,-4.41598
-581,127,-52.8495,2.43585,0,0,0,0,0,0,0,-1,643,897,-52.8495,-2.43585
-574,127,-25.2603,0.511169,0,0,0,0,0,0,0,-1,650,897,-25.2603,-0.51117
-567,127,-24.5417,-0.0447388,0,0,0,0,0,0,0,-1,657,897,-24.5417,0.0447226
-560,127,-18.9678,1.21667,0,0,0,0,0,0,0,-1,664,897,-18.9677,-1.2167
-553,127,-63.6957,0.338745,0,0,0,0,0,0,0,-1,671,897,-63.6957,-0.338753
-546,127,-63.6602,0.360046,-0.00107624,-0.00165458,0.00202425,0.000679392,-0.00341021,0.714452,0.00253052,0.0253825,678,897,-63.6601,-0.360041
-539,127,-63.6366,0.377808,-0.00176819,-0.00186724,0.00162472,-0.000192243,-0.0034432,0.770162,0.00223414,0.0234517,685,897,-63.6366,-0.37779
-532,127,-63.6229,0.410767,-0.00187777,-0.00255691,0.00110336,-0.00106291,-0.00337177,0.636118,0.0019905,0.0178374,692,897,-63.6229,-0.410741
-525,127,-63.6776,0.497559,-0.0033477,-0.00329123,0.00120497,-0.00211417,-0.00452476,0.797112,0.00261424,0.0310194,699,897,-63.6775,-0.497578
-518,127,-63.8682,0.594543,-0.00507305,-0.00393523,0.00146524,-0.00293233,-0.00607595,0.970575,0.00350866,0.0394445,706,897,-63.8682,-0.594537
-511,127,-63.8421,0.703674,-0.00648009,-0.0041924,0.00201868,-0.00301602,-0.00765647,1.04316,0.0044535,0.0432815,713,897,-63.8421,-0.703692
-504,127,0,0,0,0,0,0,0,0,0,-1,720,897,0,0
-497,127,0,0,0,0,0,0,0,0,0,-1,727,897,0,0
-490,127,0,0,0,0,0,0,0,0,0,-1,734,897,0,0
-483,127,0,0,0,0,0,0,0,0,0,-1,741,897,0,0
-476,127,0,0,0,0,0,0,0,0,0,-1,748,897,0,0
-469,127,0,0,0,0,0,0,0,0,0,-1,755,897,0,0
-462,127,0,0,0,0,0,0,0,0,0,-1,762,897,0,0
-455,127,0,0,0,0,0,0,0,0,0,-1,769,897,0,0
-448,127,0,0,0,0,0,0,0,0,0,-1,776,897,0,0
-441,127,0,0,0,0,0,0,0,0,0,-1,783,897,0,0
-434,127,0,0,0,0,0,0,0,0,0,-1,790,897,0,0
-427,127,0,0,0,0,0,0,0,0,0,-1,797,897,0,0
-420,127,0,0,0,0,0,0,0,0,0,-1,804,897,0,0
-413,127,0,0,0,0,0,0,0,0,0,-1,811,897,0,0
-406,127,0,0,0,0,0,0,0,0,0,-1,818,897,0,0
-399,127,0,0,0,0,0,0,0,0,0,-1,825,897,0,0
-392,127,0,0,0,0,0,0,0,0,0,-1,832,897,0,0
-385,127,0,0,0,0,0,0,0,0,0,-1,839,897,0,0
-378,127,0,0,0,0,0,0,0,0,0,-1,846,897,0,0
-371,127,0,0,0,0,0,0,0,0,0,-1,853,897,0,0
-364,127,0,0,0,0,0,0,0,0,0,-1,860,897,0,0
-357,127,0,0,0,0,0,0,0,0,0,-1,867,897,0,0
-350,127,0,0,0,0,0,0,0,0,0,-1,874,897,0,0
-343,127,0,0,0,0,0,0,0,0,0,-1,881,897,0,0
-336,127,0,0,0,0,0,0,0,0,0,-1,888,897,0,0
-329,127,0,0,0,0,0,0,0,0,0,-1,895,897,0,0
-322,127,0,0,0,0,0,0,0,0,0,-1,902,897,0,0
-315,127,0,0,0,0,0,0,0,0,0,-1,909,897,0,0
-308,127,0,0,0,0,0,0,0,0,0,-1,916,897,0,0
-301,127,0,0,0,0,0,0,0,0,0,-1,923,897,0,0
-294,127,0,0,0,0,0,0,0,0,0,-1,930,897,0,0
-287,127,0,0,0,0,0,0,0,0,0,-1,937,897,0,0
-280,127,0,0,0,0,0,0,0,0,0,-1,944,897,0,0
-273,127,0,0,0,0,0,0,0,0,0,-1,951,897,0,0
-266,127,0,0,0,0,0,0,0,0,0,-1,958,897,0,0
-259,127,0,0,0,0,0,0,0,0,0,-1,965,897,0,0
-252,127,0,0,0,0,0,0,0,0,0,-1,972,897,0,0
-245,127,0,0,0,0,0,0,0,0,0,-1,979,897,0,0
-238,127,0,0,0,0,0,0,0,0,0,-1,986,897,0,0
-231,127,0,0,0,0,0,0,0,0,0,-1,993,897,0,0
-224,127,0,0,0,0,0,0,0,0,0,-1,1000,897,0,0
-217,127,0,0,0,0,0,0,0,0,0,-1,1007,897,0,0
-210,127,0,0,0,0,0,0,0,0,0,-1,1014,897,0,0
-203,127,0,0,0,0,0,0,0,0,0,-1,1021,897,0,0
-196,127,0,0,0,0,0,0,0,0,0,-1,1028,897,0,0
-189,127,0,0,0,0,0,0,0,0,0,-1,1035,897,0,0
-182,127,0,0,0,0,0,0,0,0,0,-1,1042,897,0,0
-175,127,0,0,0,0,0,0,0,0,0,-1,1049,897,0,0
-168,127,0,0,0,0,0,0,0,0,0,-1,1056,897,0,0
-161,127,0,0,0,0,0,0,0,0,0,-1,1063,897,0,0
-154,127,0,0,0,0,0,0,0,0,0,-1,1070,897,0,0
-147,127,0,0,0,0,0,0,0,0,0,-1,1077,897,0,0
-140,127,0,0,0,0,0,0,0,0,0,-1,1084,897,0,0
-133,127,0,0,0,0,0,0,0,0,0,-1,1091,897,0,0
-126,127,0,0,0,0,0,0,0,0,0,-1,1098,897,0,0
-119,127,0,0,0,0,0,0,0,0,0,-1,1105,897,0,0
-112,127,0,0,0,0,0,0,0,0,0,-1,1112,897,0,0
-105,127,0,0,0,0,0,0,0,0,0,-1,1119,897,0,0
-98,127,0,0,0,0,0,0,0,0,0,-1,1126,897,0,0
-91,127,0,0,0,0,0,0,0,0,0,-1,1133,897,0,0
-84,127,0,0,0,0,0,0,0,0,0,-1,1140,897,0,0
-77,127,0,0,0,0,0,0,0,0,0,-1,1147,897,0,0
-70,127,0,0,0,0,0,0,0,0,0,-1,1154,897,0,0
-63,127,0,0,0,0,0,0,0,0,0,-1,1161,897,0,0
-56,127,0,0,0,0,0,0,0,0,0,-1,1168,897,0,0
-49,127,0,0,0,0,0,0,0,0,0,-1,1175,897,0,0
-42,127,0,0,0,0,0,0,0,0,0,-1,1182,897,0,0
-35,127,0,0,0,0,0,0,0,0,0,-1,1189,897,0,0
-28,127,0,0,0,0,0,0,0,0,0,-1,1196,897,0,0
-21,127,0,0,0,0,0,0,0,0,0,-1,1203,897,0,0
-14,127,0,0,0,0,0,0,0,0,0,-1,1210,897,0,0
-7,127,0,0,0,0,0,0,0,0,0,-1,1217,897,0,0
0,127,0,0,0,0,0,0,0,0,0,-1,1224,897,0,0
7,127,0,0,0,0,0,0,0,0,0,-1,1231,897,0,0
14,127,0,0,0,0,0,0,0,0,0,-1,1238,897,0,0
21,127,0,0,0,0,0,0,0,0,0,-1,1245,897,0,0
28,127,0,0,0,0,0,0,0,0,0,-1,1252,897,0,0
35,127,0,0,0,0,0,0,0,0,0,-1,1259,897,0,0
42,127,0,0,0,0,0,0,0,0,0,-1,1266,897,0,0
49,127,0,0,0,0,0,0,0,0,0,-1,1273,897,0,0
56,127,0,0,0,0,0,0,0,0,0,-1,1280,897,0,0
63,127,0,0,0,0,0,0,0,0,0,-1,1287,897,0,0
70,127,0,0,0,0,0,0,0,0,0,-1,1294,897,0,0
77,127,0,0,0,0,0,0,0,0,0,-1,1301,897,0,0
84,127,0,0,0,0,0,0,0,0,0,-1,1308,897,0,0
91,127,0,0,0,0,0,0,0,0,0,-1,1315,897,0,0
98,127,0,0,0,0,0,0,0,0,0,-1,1322,897,0,0
105,127,0,0,0,0,0,0,0,0,0,-1,1329,897,0,0
112,127,0,0,0,0,0,0,0,0,0,-1,1336,897,0,0
119,127,0,0,0,0,0,0,0,0,0,-1,1343,897,0,0
126,127,0,0,0,0,0,0,0,0,0,-1,1350,897,0,0
133,127,0,0,0,0,0,0,0,0,0,-1,1357,897,0,0
140,127,0,0,0,0,0,0,0,0,0,-1,1364,897,0,0
147,127,0,0,0,0,0,0,0,0,0,-1,1371,897,0,0
154,127,0,0,0,0,0,0,0,0,0,-1,1378,897,0,0
161,127,0,0,0,0,0,0,0,0,0,-1,1385,897,0,0
168,127,0,0,0,0,0,0,0,0,0,-1,1392,897,0,0
175,127,0,0,0,0,0,0,0,0,0,-1,1399,897,0,0
182,127,0,0,0,0,0,0,0,0,0,-1,1406,897,0,0
189,127,0,0,0,0,0,0,0,0,0,-1,1413,897,0,0
196,127,0,0,0,0,0,0,0,0,0,-1,1420,897,0,0
203,127,0,0,0,0,0,0,0,0,0,-1,1427,897,0,0
210,127,0,0,0,0,0,0,0,0,0,-1,1434,897,0,0
217,127,0,0,0,0,0,0,0,0,0,-1,1441,897,0,0
224,127,0,0,0,0,0,0,0,0,0,-1,1448,897,0,0
231,127,0,0,0,0,0,0,0,0,0,-1,1455,897,0,0
238,127,0,0,0,0,0,0,0,0,0,-1,1462,897,0,0
245,127,0,0,0,0,0,0,0,0,0,-1,1469,897,0,0
252,127,0,0,0,0,0,0,0,0,0,-1,1476,897,0,0
259,127,0,0,0,0,0,0,0,0,0,-1,1483,897,0,0
266,127,0,0,0,0,0,0,0,0,0,-1,1490,897,0,0
273,127,0,0,0,0,0,0,0,0,0,-1,1497,897,0,0
280,127,0,0,0,0,0,0,0,0,0,-1,1504,897,0,0
287,127,0,0,0,0,0,0,0,0,0,-1,1511,897,0,0
294,127,0,0,0,0,0,0,0,0,0,-1,1518,897,0,0
301,127,0,0,0,0,0,0,0,0,0,-1,1525,897,0,0
308,127,0,0,0,0,0,0,0,0,0,-1,1532,897,0,0
315,127,0,0,0,0,0,0,0,0,0,-1,1539,897,0,0
322,127,0,0,0,0,0,0,0,0,0,-1,1546,897,0,0
329,127,0,0,0,0,0,0,0,0,0,-1,1553,897,0,0
336,127,0,0,0,0,0,0,0,0,0,-1,1560,897,0,0
343,127,0,0,0,0,0,0,0,0,0,-1,1567,897,0,0
350,127,0,0,0,0,0,0,0,0,0,-1,1574,897,0,0
357,127,0,0,0,0,0,0,0,0,0,-1,1581,897,0,0
364,127,0,0,0,0,0,0,0,0,0,-1,1588,897,0,0
371,127,0,0,0,0,0,0,0,0,0,-1,1595,897,0,0
378,127,0,0,0,0,0,0,0,0,0,-1,1602,897,0,0
385,127,0,0,0,0,0,0,0,0,0,-1,1609,897,0,0
392,127,0,0,0,0,0,0,0,0,0,-1,1616,897,0,0
399,127,0,0,0,0,0,0,0,0,0,-1,1623,897,0,0
406,127,0,0,0,0,0,0,0,0,0,-1,1630,897,0,0
413,127,0,0,0,0,0,0,0,0,0,-1,1637,897,0,0
420,127,0,0,0,0,0,0,0,0,0,-1,1644,897,0,0
427,127,0,0,0,0,0,0,0,0,0,-1,1651,897,0,0
434,127,0,0,0,0,0,0,0,0,0,-1,1658,897,0,0
441,127,0,0,0,0,0,0,0,0,0,-1,1665,897,0,0
448,127,0,0,0,0,0,0,0,0,0,-1,1672,897,0,0
455,127,0,0,0,0,0,0,0,0,0,-1,1679,897,0,0
462,127,0,0,0,0,0,0,0,0,0,-1,1686,897,0,0
469,127,0,0,0,0,0,0,0,0,0,-1,1693,897,0,0
476,127,0,0,0,0,0,0,0,0,0,-1,1700,897,0,0
483,127,0,0,0,0,0,0,0,0,0,-1,1707,897,0,0
490,127,0,0,0,0,0,0,0,0,0,-1,1714,897,0,0
497,127,0,0,0,0,0,0,0,0,0,-1,1721,897,0,0
504,127,0,0,0,0,0,0,0,0,0,-1,1728,897,0,0
511,127,0,0,0,0,0,0,0,0,0,-1,1735,897,0,0
518,127,0,0,0,0,0,0,0,0,0,-1,1742,897,0,0
525,127,0,0,0,0,0,0,0,0,0,-1,1749,897,0,0
532,127,0,0,0,0,0,0,0,0,0,-1,1756,897,0,0
539,127,0,0,0,0,0,0,0,0,0,-1,1763,897,0,0
546,127,0,0,0,0,0,0,0,0,0,-1,1770,897,0,0
553,127,0,0,0,0,0,0,0,0,0,-1,1777,897,0,0
560,127,0,0,0,0,0,0,0,0,0,-1,1784,897,0,0
567,127,0,0,0,0,0,0,0,0,0,-1,1791,897,0,0
574,127,0,0,0,0,0,0,0,0,0,-1,1798,897,0,0
581,127,0,0,0,0,0,0,0,0,0,-1,1805,897,0,0
588,127,0,0,0,0,0,0,0,0,0,-1,1812,897,0,0
595,127,0,0,0,0,0,0,0,0,0,-1,1819,897,0,0
602,127,0,0,0,0,0,0,0,0,0,-1,1826,897,0,0
609,127,0,0,0,0,0,0,0,0,0,-1,1833,897,0,0
616,127,0,0,0,0,0,0,0,0,0,-1,1840,897,0,0
623,127,0,0,0,0,0,0,0,0,0,-1,1847,897,0,0
630,127,80.0829,2.50037,0.00497906,-0.00332787,-0.00411432,0.00667187,-0.00502068,-0.390332,0.0067731,0.0419228,1854,897,80.0829,-2.50038
637,127,80.0371,2.42175,0.00300196,-0.00219735,-0.0028447,0.00425594,-0.00345134,-0.415189,0.00445788,0.0423294,1861,897,80.0371,-2.42173
644,127,80.3018,2.22144,0.00138563,-0.00135054,-0.00185257,0.00232051,-0.00228542,-0.467355,0.00265926,0.0403916,1868,897,80.3018,-2.22143
651,127,80.2389,2.16632,0.000184352,-0.000730871,-0.00106779,0.000888455,-0.00143497,-0.582957,0.00135375,0.0422779,1875,897,80.2389,-2.16635
658,127,80.1373,2.24652,-0.000753845,-0.000327562,-0.000592172,8.8659e-05,-0.00117007,-0.958146,0.000811213,0.0434509,1882,897,80.1373,-2.2465
665,127,80.0895,2.17889,-0.00123331,0.000228424,-0.000401418,0.000331405,-0.00133629,-1.31967,0.00101945,0.0409201,1889,897,80.0895,-2.17889
672,127,80.041,2.13501,-0.00129995,0.000243734,-0.00051653,0.000400624,-0.00145684,-1.27591,0.00112872,0.0356864,1896,897,80.041,-2.13503
679,127,80.1335,2.18573,-0.00128232,0.000164805,-0.000672621,0.000429151,-0.00154666,-1.19633,0.00120002,0.0246088,1903,897,80.1335,-2.1857
686,127,80.1531,2.20691,0,0,0,0,0,0,0,-1,1910,897,80.1531,-2.20694
693,127,59.2523,2.33673,0,0,0,0,0,0,0,-1,1917,897,59.2524,-2.33674
700,127,58.717,1.80957,0,0,0,0,0,0,0,-1,1924,897,58.717,-1.80956
707,127,71.0873,2.6084,0,0,0,0,0,0,0,-1,1931,897,71.0872,-2.6084
714,127,71.3539,3.69781,-0.00230714,0.00142766,-0.00226282,0.00249412,-0.0033736,-1.13037,0.00340039,0.0297156,1938,897,71.3538,-3.69779
721,127,71.3445,4.70697,-0.00234127,0.0019746,-0.00279892,0.00335088,-0.00371754,-1.1138,0.00408278,0.0275242,1945,897,71.3445,-4.70695
728,127,71.1722,5.5354,-0.00285062,0.00265306,-0.00313017,0.00406902,-0.00426658,-1.14598,0.00481302,0.0252812,1952,897,71.1722,-5.53541
735,127,71.0771,6.42664,-0.00337594,0.00372624,-0.00331784,0.00503501,-0.00468471,-1.19507,0.0056129,0.0229925,1959,897,71.0771,-6.42664
742,127,70.9764,7.23572,-0.00337836,0.00512948,-0.00338787,0.00631371,-0.00456259,-1.23452,0.0063065,0.0214844,1966,897,70.9764,-7.23572
749,127,70.9154,8.03192,-0.00272993,0.00679769,-0.00315647,0.00774853,-0.00368077,-1.27821,0.00673658,0.0151858,1973,897,70.9154,-8.03194
756,127,70.8459,8.78479,-0.00133339,0.00817339,-0.0026157,0.00884555,-0.00200555,-1.31927,0.00666687,0.0174853,1980,897,70.8459,-8.78479
763,127,70.7268,9.57196,0.000726303,0.00867035,-0.00190292,0.00910265,0.000294004,-1.34741,0.00597285,0.0263654,1987,897,70.7269,-9.57198
770,127,70.6538,10.3685,0,0,0,0,0,0,0,-1,1994,897,70.6538,-10.3685
777,127,76.3003,10.8735,0,0,0,0,0,0,0,-1,2001,897,76.3003,-10.8735
784,127,76.6069,11.9427,0,0,0,0,0,0,0,-1,2008,897,76.6069,-11.9427
791,127,76.7629,12.9143,0,0,0,0,0,0,0,-1,2015,897,76.763,-12.9143
798,127,0,0,0,0,0,0,0,0,0,-1,2022,897,0,0
805,127,0,0,0,0,0,0,0,0,0,-1,2029,897,0,0
812,127,0,0,0,0,0,0,0,0,0,-1,2036,897,0,0
-700,120,0,0,0,0,0,0,0,0,0,-1,524,904,0,0
-693,120,0,0,0,0,0,0,0,0,0,-1,531,904,0,0
-686,120,0,0,0,0,0,0,0,0,0,-1,538,904,0,0
-679,120,-52.0888,4.76025,0,0,0,0,0,0,0,-1,545,904,-52.0888,-4.76024
-672,120,-51.1454,5.42755,0,0,0,0,0,0,0,-1,552,904,-51.1454,-5.42753
-665,120,-50.2376,-2.67987,0,0,0,0,0,0,0,-1,559,904,-50.2376,2.67988
-658,120,-54.6443,7.5307,0,0,0,0,0,0,0,-1,566,904,-54.6443,-7.53071
-651,120,-52.9452,-1.22644,0,0,0,0,0,0,0,-1,573,904,-52.9452,1.22647
-644,120,-51.6526,-3.15863,0,0,0,0,0,0,0,-1,580,904,-51.6526,3.15864
-637,120,-55.4257,9.30859,0,0,0,0,0,0,0,-1,587,904,-55.4257,-9.30858
-630,120,-55.5241,8.75787,-0.00242419,0.0304348,0.00850498,0.0325057,-0.00449504,1.33196,0.0233137,0.0460492,594,904,-55.5241,-8.7579
-623,120,-55.7012,8.07379,-0.00606521,0.0191589,0.00762419,0.0212843,-0.0081906,1.29893,0.0175681,0.0155864,601,904,-55.7012,-8.07377
-616,120,-55.7885,7.30029,-0.00666355,0.0102324,0.00658778,0.0124973,-0.00892852,1.23964,0.0124273,0.0111946,608,904,-55.7884,-7.30028
-609,120,-55.8588,6.4939,-0.004487,0.00511113,0.00566719,0.00773824,-0.00711411,1.13672,0.00857753,0.0143373,615,904,-55.8588,-6.49388
-602,120,-55.9086,5.69452,-0.00248778,0.00297237,0.00491226,0.00586223,-0.00537763,1.03903,0.00649134,0.0181478,622,904,-55.9086,-5.69454
-595,120,-55.7833,4.92346,-0.00156838,0.00201102,0.00426389,0.00484558,-0.00440294,0.984099,0.00534167,0.0375697,629,904,-55.7833,-4.92348
-588,120,-55.7083,4.32117,0,0,0,0,0,0,0,-1,636,904,-55.7083,-4.32117
-581,120,-56.0018,3.50702,0,0,0,0,0,0,0,-1,643,904,-56.0018,-3.50705
-574,120,-27.5438,0.505066,0,0,0,0,0,0,0,-1,650,904,-27.5438,-0.505085
-567,120,-25.2822,-0.410645,0,0,0,0,0,0,0,-1,657,904,-25.2821,0.410629
-560,120,-27.3358,1.10327,0,0,0,0,0,0,0,-1,664,904,-27.3358,-1.10324
-553,120,-63.6304,0.4328,0,0,0,0,0,0,0,-1,671,904,-63.6304,-0.432823
-546,120,-63.6224,0.416687,-0.00162578,-0.00166315,0.0014332,-0.00021114,-0.00307779,0.778881,0.00198523,0.0333454,678,904,-63.6224,-0.416713
-539,120,-63.6167,0.389648,-0.0024584,-0.00175248,0.000969305,-0.00107387,-0.00313701,0.960005,0.00184093,0.027705,685,904,-63.6167,-0.38965
-532,120,-63.5908,0.386963,-0.00276804,-0.00209713,0.000554067,-0.00178488,-0.00308029,1.0576,0.00178587,0.0293609,692,904,-63.5908,-0.386938
-525,120,-63.7499,0.395325,-0.00427722,-0.00251845,0.000802849,-0.00220709,-0.00458859,1.20083,0.00264986,0.0351937,699,904,-63.7499,-0.395345
-518,120,-64.0176,0.344543,-0.00592344,-0.00293669,0.00118021,-0.00252664,-0.0063335,1.2364,0.00368146,0.0380875,706,904,-64.0176,-0.344533
-511,120,-64.0565,0.341675,-0.00740064,-0.00326711,0.00177925,-0.00260674,-0.00806101,1.21541,0.00474983,0.0417676,713,904,-64.0565,-0.341693
-504,120,0,0,0,0,0,0,0,0,0,-1,720,904,0,0
-497,120,0,0,0,0,0,0,0,0,0,-1,727,904,0,0
-490,120,0,0,0,0,0,0,0,0,0,-1,734,904,0,0
-483,120,0,0,0,0,0,0,0,0,0,-1,741,904,0,0
-476,120,0,0,0,0,0,0,0,0,0,-1,748,904,0,0
-469,120,0,0,0,0,0,0,0,0,0,-1,755,904,0,0
-462,120,0,0,0,0,0,0,0,0,0,-1,762,904,0,0
-455,120,0,0,0,0,0,0,0,0,0,-1,769,904,0,0
-448,120,0,0,0,0,0,0,0,0,0,-1,776,904,0,0
-441,120,0,0,0,0,0,0,0,0,0,-1,783,904,0,0
-434,120,0,0,0,0,0,0,0,0,0,-1,790,904,0,0
-427,120,0,0,0,0,0,0,0,0,0,-1,797,904,0,0
-420,120,0,0,0,0,0,0,0,0,0,-1,804,904,0,0
-413,120,0,0,0,0,0,0,0,0,0,-1,811,904,0,0
-406,120,0,0,0,0,0,0,0,0,0,-1,818,904,0,0
-399,120,0,0,0,0,0,0,0,0,0,-1,825,904,0,0
-392,120,0,0,0,0,0,0,0,0,0,-1,832,904,0,0
-385,120,0,0,0,0,0,0,0,0,0,-1,839,904,0,0
-378,120,0,0,0,0,0,0,0,0,0,-1,846,904,0,0
-371,120,0,0,0,0,0,0,0,0,0,-1,853,904,0,0
-364,120,0,0,0,0,0,0,0,0,0,-1,860,904,0,0
-357,120,0,0,0,0,0,0,0,0,0,-1,867,904,0,0
-350,120,0,0,0,0,0,0,0,0,0,-1,874,904,0,0
-343,120,0,0,0,0,0,0,0,0,0,-1,881,904,0,0
-336,120,0,0,0,0,0,0,0,0,0,-1,888,904,0,0
-329,120,0,0,0,0,0,0,0,0,0,-1,895,904,0,0
-322,120,0,0,0,0,0,0,0,0,0,-1,902,904,0,0
-315,120,0,0,0,0,0,0,0,0,0,-1,909,904,0,0
-308,120,0,0,0,0,0,0,0,0,0,-1,916,904,0,0
-301,120,0,0,0,0,0,0,0,0,0,-1,923,904,0,0
-294,120,0,0,0,0,0,0,0,0,0,-1,930,904,0,0
-287,120,0,0,0,0,0,0,0,0,0,-1,937,904,0,0
-280,120,0,0,0,0,0,0,0,0,0,-1,944,904,0,0
-273,120,0,0,0,0,0,0,0,0,0,-1,951,904,0,0
-266,120,0,0,0,0,0,0,0,0,0,-1,958,904,0,0
-259,120,0,0,0,0,0,0,0,0,0,-1,965,904,0,0
-252,120,0,0,0,0,0,0,0,0,0,-1,972,904,0,0
-245,120,0,0,0,0,0,0,0,0,0,-1,979,904,0,0
-238,120,0,0,0,0,0,0,0,0,0,-1,986,904,0,0
-231,120,0,0,0,0,0,0,0,0,0,-1,993,904,0,0
-224,120,0,0,0,0,0,0,0,0,0,-1,1000,904,0,0
-217,120,0,0,0,0,0,0,0,0,0,-1,1007,904,0,0
-210,120,0,0,0,0,0,0,0,0,0,-1,1014,904,0,0
-203,120,0,0,0,0,0,0,0,0,0,-1,1021,904,0,0
-196,120,0,0,0,0,0,0,0,0,0,-1,1028,904,0,0
-189,120,0,0,0,0,0,0,0,0,0,-1,1035,904,0,0
-182,120,0,0,0,0,0,0,0,0,0,-1,1042,904,0,0
-175,120,0,0,0,0,0,0,0,0,0,-1,1049,904,0,0
-168,120,0,0,0,0,0,0,0,0,0,-1,1056,904,0,0
-161,120,0,0,0,0,0,0,0,0,0,-1,1063,904,0,0
-154,120,0,0,0,0,0,0,0,0,0,-1,1070,904,0,0
-147,120,0,0,0,0,0,0,0,0,0,-1,1077,904,0,0
-140,120,0,0,0,0,0,0,0,0,0,-1,1084,904,0,0
-133,120,0,0,0,0,0,0,0,0,0,-1,1091,904,0,0
-126,120,0,0,0,0,0,0,0,0,0,-1,1098,904,0,0
-119,120,0,0,0,0,0,0,0,0,0,-1,1105,904,0,0
-112,120,0,0,0,0,0,0,0,0,0,-1,1112,904,0,0
-105,120,0,0,0,0,0,0,0,0,0,-1,1119,904,0,0
-98,120,0,0,0,0,0,0,0,0,0,-1,1126,904,0,0
-91,120,0,0,0,0,0,0,0,0,0,-1,1133,904,0,0
-84,120,0,0,0,0,0,0,0,0,0,-1,1140,904,0,0
-77,120,0,0,0,0,0,0,0,0,0,-1,1147,904,0,0
-70,120,0,0,0,0,0,0,0,0,0,-1,1154,904,0,0
-63,120,0,0,0,0,0,0,0,0,0,-1,1161,904,0,0
-56,120,0,0,0,0,0,0,0,0,0,-1,1168,904,0,0
-49,120,0,0,0,0,0,0,0,0,0,-1,1175,904,0,0
-42,120,0,0,0,0,0,0,0,0,0,-1,1182,904,0,0
-35,120,0,0,0,0,0,0,0,0,0,-1,1189,904,0,0
-28,120,0,0,0,0,0,0,0,0,0,-1,1196,904,0,0
-21,120,0,0,0,0,0,0,0,0,0,-1,1203,904,0,0
-14,120,0,0,0,0,0,0,0,0,0,-1,1210,904,0,0
-7,120,0,0,0,0,0,0,0,0,0,-1,1217,904,0,0
0,120,0,0,0,0,0,0,0,0,0,-1,1224,904,0,0
7,120,0,0,0,0,0,0,0,0,0,-1,1231,904,0,0
14,120,0,0,0,0,0,0,0,0,0,-1,1238,904,0,0
21,120,0,0,0,0,0,0,0,0,0,-1,1245,904,0,0
28,120,0,0,0,0,0,0,0,0,0,-1,1252,904,0,0
35,120,0,0,0,0,0,0,0,0,0,-1,1259,904,0,0
42,120,0,0,0,0,0,0,0,0,0,-1,1266,904,0,0
49,120,0,0,0,0,0,0,0,0,0,-1,1273,904,0,0
56,120,0,0,0,0,0,0,0,0,0,-1,1280,904,0,0
63,120,0,0,0,0,0,0,0,0,0,-1,1287,904,0,0
70,120,0,0,0,0,0,0,0,0,0,-1,1294,904,0,0
77,120,0,0,0,0,0,0,0,0,0,-1,1301,904,0,0
84,120,0,0,0,0,0,0,0,0,0,-1,1308,904,0,0
91,120,0,0,0,0,0,0,0,0,0,-1,1315,904,0,0
98,120,0,0,0,0,0,0,0,0,0,-1,1322,904,0,0
105,120,0,0,0,0,0,0,0,0,0,-1,1329,904,0,0
112,120,0,0,0,0,0,0,0,0,0,-1,1336,904,0,0
119,120,0,0,0,0,0,0,0,0,0,-1,1343,904,0,0
126,120,0,0,0,0,0,0,0,0,0,-1,1350,904,0,0
133,120,0,0,0,0,0,0,0,0,0,-1,1357,904,0,0
140,120,0,0,0,0,0,0,0,0,0,-1,1364,904,0,0
147,120,0,0,0,0,0,0,0,0,0,-1,1371,904,0,0
154,120,0,0,0,0,0,0,0,0,0,-1,1378,904,0,0
161,120,0,0,0,0,0,0,0,0,0,-1,1385,904,0,0
168,120,0,0,0,0,0,0,0,0,0,-1,1392,904,0,0
175,120,0,0,0,0,0,0,0,0,0,-1,1399,904,0,0
182,120,0,0,0,0,0,0,0,0,0,-1,1406,904,0,0
189,120,0,0,0,0,0,0,0,0,0,-1,1413,904,0,0
196,120,0,0,0,0,0,0,0,0,0,-1,1420,904,0,0
203,120,0,0,0,0,0,0,0,0,0,-1,1427,904,0,0
210,120,0,0,0,0,0,0,0,0,0,-1,1434,904,0,0
217,120,0,0,0,0,0,0,0,0,0,-1,1441,904,0,0
224,120,0,0,0,0,0,0,0,0,0,-1,1448,904,0,0
231,120,0,0,0,0,0,0,0,0,0,-1,1455,904,0,0
238,120,0,0,0,0,0,0,0,0,0,-1,1462,904,0,0
245,120,0,0,0,0,0,0,0,0,0,-1,1469,904,0,0
252,120,0,0,0,0,0,0,0,0,0,-1,1476,904,0,0
259,120,0,0,0,0,0,0,0,0,0,-1,1483,904,0,0
266,120,0,0,0,0,0,0,0,0,0,-1,1490,904,0,0
273,120,0,0,0,0,0,0,0,0,0,-1,1497,904,0,0
280,120,0,0,0,0,0,0,0,0,0,-1,1504,904,0,0
287,120,0,0,0,0,0,0,0,0,0,-1,1511,904,0,0
294,120,0,0,0,0,0,0,0,0,0,-1,1518,904,0,0
301,120,0,0,0,0,0,0,0,0,0,-1,1525,904,0,0
308,120,0,0,0,0,0,0,0,0,0,-1,1532,904,0,0
315,120,0,0,0,0,0,0,0,0,0,-1,1539,904,0,0
322,120,0,0,0,0,0,0,0,0,0,-1,1546,904,0,0
329,120,0,0,0,0,0,0,0,0,0,-1,1553,904,0,0
336,120,0,0,0,0,0,0,0,0,0,-1,1560,904,0,0
343,120,0,0,0,0,0,0,0,0,0,-1,1567,904,0,0
350,120,0,0,0,0,0,0,0,0,0,-1,1574,904,0,0
357,120,0,0,0,0,0,0,0,0,0,-1,1581,904,0,0
364,120,0,0,0,0,0,0,0,0,0,-1,1588,904,0,0
371,120,0,0,0,0,0,0,0,0,0,-1,1595,904,0,0
378,120,0,0,0,0,0,0,0,0,0,-1,1602,904,0,0
385,120,0,0,0,0,0,0,0,0,0,-1,1609,904,0,0
392,120,0,0,0,0,0,0,0,0,0,-1,1616,904,0,0
399,120,0,0,0,0,0,0,0,0,0,-1,1623,904,0,0
406,120,0,0,0,0,0,0,0,0,0,-1,1630,904,0,0
413,120,0,0,0,0,0,0,0,0,0,-1,1637,904,0,0
420,120,0,0,0,0,0,0,0,0,0,-1,1644,904,0,0
427,120,0,0,0,0,0,0,0,0,0,-1,1651,904,0,0
434,120,0,0,0,0,0,0,0,0,0,-1,1658,904,0,0
441,120,0,0,0,0,0,0,0,0,0,-1,1665,904,0,0
448,120,0,0,0,0,0,0,0,0,0,-1,1672,904,0,0
455,120,0,0,0,0,0,0,0,0,0,-1,1679,904,0,0
462,120,0,0,0,0,0,0,0,0,0,-1,1686,904,0,0
469,120,0,0,0,0,0,0,0,0,0,-1,1693,904,0,0
476,120,0,0,0,0,0,0,0,0,0,-1,1700,904,0,0
483,120,0,0,0,0,0,0,0,0,0,-1,1707,904,0,0
490,120,0,0,0,0,0,0,0,0,0,-1,1714,904,0,0
497,120,0,0,0,0,0,0,0,0,0,-1,1721,904,0,0
504,120,0,0,0,0,0,0,0,0,0,-1,1728,904,0,0
511,120,0,0,0,0,0,0,0,0,0,-1,1735,904,0,0
518,120,0,0,0,0,0,0,0,0,0,-1,1742,904,0,0
525,120,0,0,0,0,0,0,0,0,0,-1,1749,904,0,0
532,120,0,0,0,0,0,0,0,0,0,-1,1756,904,0,0
539,120,0,0,0,0,0,0,0,0,0,-1,1763,904,0,0
546,120,0,0,0,0,0,0,0,0,0,-1,1770,904,0,0
553,120,0,0,0,0,0,0,0,0,0,-1,1777,904,0,0
560,120,0,0,0,0,0,0,0,0,0,-1,1784,904,0,0
567,120,0,0,0,0,0,0,0,0,0,-1,1791,904,0,0
574,120,0,0,0,0,0,0,0,0,0,-1,1798,904,0,0
581,120,0,0,0,0,0,0,0,0,0,-1,1805,904,0,0
588,120,0,0,0,0,0,0,0,0,0,-1,1812,904,0,0
595,120,0,0,0,0,0,0,0,0,0,-1,1819,904,0,0
602,120,0,0,0,0,0,0,0,0,0,-1,1826,904,0,0
609,120,0,0,0,0,0,0,0,0,0,-1,1833,904,0,0
616,120,0,0,0,0,0,0,0,0,0,-1,1840,904,0,0
623,120,0,0,0,0,0,0,0,0,0,-1,1847,904,0,0
630,120,80.1567,2.41144,0.00532285,-0.00265011,-0.00275281,0.00618095,-0.00350821,-0.302173,0.00566454,0.0389917,1854,904,80.1567,-2.41142
637,120,80.1147,2.32343,0.00325871,-0.00182827,-0.00176045,0.00380853,-0.00237809,-0.302716,0.00360353,0.0406179,1861,904,80.1148,-2.32343
644,120,80.1437,2.26324,0.00165776,-0.00126136,-0.00111151,0.0020328,-0.0016364,-0.325423,0.00212253,0.0401928,1868,904,80.1436,-2.26326
651,120,80.1401,2.27808,0.000466226,-0.000835315,-0.00062896,0.000720493,-0.00108958,-0.384178,0.00105226,0.0434261,1875,904,80.1401,-2.27806
658,120,80.1143,2.37933,-0.000423866,-0.000500313,-0.000332913,-0.000126989,-0.00079719,-0.728241,0.000494595,0.0432847,1882,904,80.1142,-2.37934
665,120,80.069,2.32361,-0.000871739,3.09817e-05,-0.000222789,8.29714e-05,-0.000923729,-1.34154,0.000645257,0.0370244,1889,904,80.0689,-2.32362
672,120,80.0945,2.22986,-0.00103254,5.96121e-05,-0.000314908,0.000143906,-0.00111683,-1.30925,0.000796866,0.0351467,1896,904,80.0945,-2.22983
679,120,80.1224,2.21906,-0.00109767,-3.98638e-05,-0.000422824,0.000108373,-0.0012459,-1.2336,0.000868983,0.0304825,1903,904,80.1225,-2.21904
686,120,80.1086,2.23187,-0.00136531,4.13945e-05,-0.000662164,0.000304047,-0.00162796,-1.19317,0.00119957,0.0315118,1910,904,80.1087,-2.23187
693,120,80.2341,2.19196,0,0,0,0,0,0,0,-1,1917,904,80.2341,-2.19198
700,120,42.2007,3.00946,0,0,0,0,0,0,0,-1,1924,904,42.2007,-3.00944
707,120,71.7679,3.24939,0,0,0,0,0,0,0,-1,1931,904,71.768,-3.2494
714,120,72.7281,3.80664,0,0,0,0,0,0,0,-1,1938,904,72.7281,-3.80667
721,120,72.1733,4.93079,-0.00266977,0.00194429,-0.00273965,0.00321889,-0.00394437,-1.13534,0.00414278,0.0264822,1945,904,72.1733,-4.93078
728,120,72.0105,5.7334,-0.0032187,0.00258914,-0.00305412,0.00389953,-0.00452909,-1.16549,0.00487079,0.0176885,1952,904,72.0105,-5.73339
735,120,71.9215,6.45557,-0.00382467,0.00368366,-0.00321473,0.00487199,-0.00501299,-1.21672,0.00570729,0.0146361,1959,904,71.9215,-6.45557
742,120,71.8312,7.26837,-0.00378692,0.00511072,-0.00329342,0.00619711,-0.00487331,-1.25217,0.00640673,0.015956,1966,904,71.8312,-7.26835
749,120,71.7896,8.04175,-0.00292929,0.00700596,-0.00301348,0.00784853,-0.00377186,-1.29816,0.00684527,0.0128244,1973,904,71.7895,-8.04178
756,120,71.6799,8.79633,-0.0012064,0.00878867,-0.00223449,0.00926546,-0.0016832,-1.36057,0.00680776,0.0162214,1980,904,71.6799,-8.79632
763,120,71.5266,9.54279,0.00125079,0.00981192,-0.00111751,0.00995539,0.00110732,-1.44311,0.00630034,0.0336316,1987,904,71.5265,-9.54279
770,120,71.3789,10.3098,0,0,0,0,0,0,0,-1,1994,904,71.3789,-10.3098
777,120,77.7629,11.9034,0,0,0,0,0,0,0,-1,2001,904,77.763,-11.9034
784,120,78.0063,12.8853,0,0,0,0,0,0,0,-1,2008,904,78.0063,-12.8852
791,120,78.2561,13.8319,0,0,0,0,0,0,0,-1,2015,904,78.2561,-13.8319
798,120,78.5127,14.8143,0,0,0,0,0,0,0,-1,2022,904,78.5128,-14.8143
805,120,0,0,0,0,0,0,0,0,0,-1,2029,904,0,0
812,120,0,0,0,0,0,0,0,0,0,-1,2036,904,0,0
-700,113,0,0,0,0,0,0,0,0,0,-1,524,911,0,0
-693,113,0,0,0,0,0,0,0,0,0,-1,531,911,0,0
-686,113,0,0,0,0,0,0,0,0,0,-1,538,911,0,0
-679,113,-55.9637,4.78546,0,0,0,0,0,0,0,-1,545,911,-55.9637,-4.78548
-672,113,-52.5881,5.49811,0,0,0,0,0,0,0,-1,552,911,-52.5881,-5.49808
-665,113,-56.8114,7.23682,0,0,0,0,0,0,0,-1,559,911,-56.8114,-7.23679
-658,113,-54.1535,7.58624,0,0,0,0,0,0,0,-1,566,911,-54.1535,-7.58627
-651,113,-53.3762,7.8313,0,0,0,0,0,0,0,-1,573,911,-53.3762,-7.8313
-644,113,-48.5211,7.83691,0,0,0,0,0,0,0,-1,580,911,-48.5211,-7.83694
-637,113,-56.2208,9.24713,0,0,0,0,0,0,0,-1,587,911,-56.2208,-9.2471
-630,113,-56.4834,8.81781,-0.000353427,0.0316767,0.00844404,0.0337664,-0.00244317,1.32819,0.0233679,0.0266357,594,911,-56.4834,-8.81781
-623,113,-56.6251,8.07275,-0.00425721,0.0200847,0.00763817,0.022283,-0.00645545,1.29057,0.0174107,0.0143042,601,911,-56.625,-8.07273
-616,113,-56.6786,7.28467,-0.00533422,0.0105358,0.00667178,0.0129679,-0.00776633,1.22123,0.0120958,0.0124178,608,911,-56.6787,-7.28466
-609,113,-56.7002,6.53943,-0.00377692,0.00487513,0.00572192,0.00772231,-0.00662409,1.10908,0.00829099,0.0123085,615,911,-56.7002,-6.5394
-602,113,-56.7427,5.70081,-0.00229972,0.00261982,0.00486388,0.00561054,-0.00529044,1.01951,0.00629459,0.0217762,622,911,-56.7427,-5.70079
-595,113,-56.7837,5.04266,-0.00160374,0.00169374,0.0041613,0.00452102,-0.00443102,0.974015,0.00516855,0.030775,629,911,-56.7837,-5.04265
-588,113,-56.7573,4.20557,-0.00119014,0.00119461,0.00353727,0.00373507,-0.00373059,0.947962,0.0043103,0.0394007,636,911,-56.7573,-4.20558
-581,113,-56.7857,3.41058,0,0,0,0,0,0,0,-1,643,911,-56.7857,-3.41061
-574,113,-56.7538,2.36169,0,0,0,0,0,0,0,-1,650,911,-56.7538,-2.3617
-567,113,-21.8396,0.437378,0,0,0,0,0,0,0,-1,657,911,-21.8396,-0.437351
-560,113,-63.584,0.408875,0,0,0,0,0,0,0,-1,664,911,-63.5841,-0.408857
-553,113,-63.5784,0.438354,-0.00124094,-0.00142098,0.00127664,-5.1145e-05,-0.00261077,0.7502,0.00172372,0.0453134,671,911,-63.5784,-0.43836
-546,113,-63.5889,0.487793,-0.00196998,-0.00156544,0.000772805,-0.000968871,-0.00256655,0.913393,0.00149655,0.0352443,678,911,-63.589,-0.487786
-539,113,-63.5703,0.427124,-0.00285931,-0.00143975,0.000266038,-0.00139153,-0.00290753,1.39149,0.00167917,0.0356606,685,911,-63.5702,-0.427115
-532,113,-63.5055,0.337097,-0.00320885,-0.00128719,3.44286e-05,-0.00128657,-0.00320946,1.55289,0.00186508,0.0395786,692,911,-63.5055,-0.337084
-525,113,-63.6952,0.323853,-0.00441092,-0.00112612,0.000420603,-0.00107312,-0.00446392,1.44545,0.00269055,0.0397213,699,911,-63.6952,-0.323867
-518,113,-63.8497,0.344604,-0.00566778,-0.00105452,0.000878702,-0.000892817,-0.00582948,1.38881,0.00362554,0.0399124,706,911,-63.8498,-0.344581
-511,113,-64.0192,0.505005,-0.00692652,-0.00106519,0.00148789,-0.000709128,-0.00728259,1.3359,0.00463679,0.0407576,713,911,-64.0192,-0.505005
-504,113,0,0,0,0,0,0,0,0,0,-1,720,911,0,0
-497,113,0,0,0,0,0,0,0,0,0,-1,727,911,0,0
-490,113,0,0,0,0,0,0,0,0,0,-1,734,911,0,0
-483,113,0,0,0,0,0,0,0,0,0,-1,741,911,0,0
-476,113,0,0,0,0,0,0,0,0,0,-1,748,911,0,0
-469,113,0,0,0,0,0,0,0,0,0,-1,755,911,0,0
-462,113,0,0,0,0,0,0,0,0,0,-1,762,911,0,0
-455,113,0,0,0,0,0,0,0,0,0,-1,769,911,0,0
-448,113,0,0,0,0,0,0,0,0,0,-1,776,911,0,0
-441,113,0,0,0,0,0,0,0,0,0,-1,783,911,0,0
-434,113,0,0,0,0,0,0,0,0,0,-1,790,911,0,0
-427,113,0,0,0,0,0,0,0,0,0,-1,797,911,0,0
-420,113,0,0,0,0,0,0,0,0,0,-1,804,911,0,0
-413,113,0,0,0,0,0,0,0,0,0,-1,811,911,0,0
-406,113,0,0,0,0,0,0,0,0,0,-1,818,911,0,0
-399,113,0,0,0,0,0,0,0,0,0,-1,825,911,0,0
-392,113,0,0,0,0,0,0,0,0,0,-1,832,911,0,0
-385,113,0,0,0,0,0,0,0,0,0,-1,839,911,0,0
-378,113,0,0,0,0,0,0,0,0,0,-1,846,911,0,0
-371,113,0,0,0,0,0,0,0,0,0,-1,853,911,0,0
-364,113,0,0,0,0,0,0,0,0,0,-1,860,911,0,0
-357,113,0,0,0,0,0,0,0,0,0,-1,867,911,0,0
-350,113,0,0,0,0,0,0,0,0,0,-1,874,911,0,0
-343,113,0,0,0,0,0,0,0,0,0,-1,881,911,0,0
-336,113,0,0,0,0,0,0,0,0,0,-1,888,911,0,0
-329,113,0,0,0,0,0,0,0,0,0,-1,895,911,0,0
-322,113,0,0,0,0,0,0,0,0,0,-1,902,911,0,0
-315,113,0,0,0,0,0,0,0,0,0,-1,909,911,0,0
-308,113,0,0,0,0,0,0,0,0,0,-1,916,911,0,0
-301,113,0,0,0,0,0,0,0,0,0,-1,923,911,0,0
-294,113,0,0,0,0,0,0,0,0,0,-1,930,911,0,0
-287,113,0,0,0,0,0,0,0,0,0,-1,937,911,0,0
-280,113,0,0,0,0,0,0,0,0,0,-1,944,911,0,0
-273,113,0,0,0,0,0,0,0,0,0,-1,951,911,0,0
-266,113,0,0,0,0,0,0,0,0,0,-1,958,911,0,0
-259,113,0,0,0,0,0,0,0,0,0,-1,965,911,0,0
-252,113,0,0,0,0,0,0,0,0,0,-1,972,911,0,0
-245,113,0,0,0,0,0,0,0,0,0,-1,979,911,0,0
-238,113,0,0,0,0,0,0,0,0,0,-1,986,911,0,0
-231,113,0,0,0,0,0,0,0,0,0,-1,993,911,0,0
-224,113,0,0,0,0,0,0,0,0,0,-1,1000,911,0,0
-217,113,0,0,0,0,0,0,0,0,0,-1,1007,911,0,0
-210,113,0,0,0,0,0,0,0,0,0,-1,1014,911,0,0
-203,113,0,0,0,0,0,0,0,0,0,-1,1021,911,0,0
-196,113,0,0,0,0,0,0,0,0,0,-1,1028,911,0,0
-189,113,0,0,0,0,0,0,0,0,0,-1,1035,911,0,0
-182,113,0,0,0,0,0,0,0,0,0,-1,1042,911,0,0
-175,113,0,0,0,0,0,0,0,0,0,-1,1049,911,0,0
-168,113,0,0,0,0,0,0,0,0,0,-1,1056,911,0,0
-161,113,0,0,0,0,0,0,0,0,0,-1,1063,911,0,0
-154,113,0,0,0,0,0,0,0,0,0,-1,1070,911,0,0
-147,113,0,0,0,0,0,0,0,0,0,-1,1077,911,0,0
-140,113,0,0,0,0,0,0,0,0,0,-1,1084,911,0,0
-133,113,0,0,0,0,0,0,0,0,0,-1,1091,911,0,0
-126,113,0,0,0,0,0,0,0,0,0,-1,1098,911,0,0
-119,113,0,0,0,0,0,0,0,0,0,-1,1105,911,0,0
-112,113,0,0,0,0,0,0,0,0,0,-1,1112,911,0,0
-105,113,0,0,0,0,0,0,0,0,0,-1,1119,911,0,0
-98,113,0,0,0,0,0,0,0,0,0,-1,1126,911,0,0
-91,113,0,0,0,0,0,0,0,0,0,-1,1133,911,0,0
-84,113,0,0,0,0,0,0,0,0,0,-1,1140,911,0,0
-77,113,0,0,0,0,0,0,0,0,0,-1,1147,911,0,0
-70,113,0,0,0,0,0,0,0,0,0,-1,1154,911,0,0
-63,113,0,0,0,0,0,0,0,0,0,-1,1161,911,0,0
-56,113,0,0,0,0,0,0,0,0,0,-1,1168,911,0,0
-49,113,0,0,0,0,0,0,0,0,0,-1,1175,911,0,0
-42,113,0,0,0,0,0,0,0,0,0,-1,1182,911,0,0
-35,113,0,0,0,0,0,0,0,0,0,-1,1189,911,0,0
-28,113,0,0,0,0,0,0,0,0,0,-1,1196,911,0,0
-21,113,0,0,0,0,0,0,0,0,0,-1,1203,911,0,0
-14,113,0,0,0,0,0,0,0,0,0,-1,1210,911,0,0
-7,113,0,0,0,0,0,0,0,0,0,-1,1217,911,0,0
0,113,0,0,0,0,0,0,0,0,0,-1,1224,911,0,0
7,113,0,0,0,0,0,0,0,0,0,-1,1231,911,0,0
14,113,0,0,0,0,0,0,0,0,0,-1,1238,911,0,0
21,113,0,0,0,0,0,0,0,0,0,-1,1245,911,0,0
28,113,0,0,0,0,0,0,0,0,0,-1,1252,911,0,0
35,113,0,0,0,0,0,0,0,0,0,-1,1259,911,0,0
42,113,0,0,0,0,0,0,0,0,0,-1,1266,911,0,0
49,113,0,0,0,0,0,0,0,0,0,-1,1273,911,0,0
56,113,0,0,0,0,0,0,0,0,0,-1,1280,911,0,0
63,113,0,0,0,0,0,0,0,0,0,-1,1287,911,0,0
70,113,0,0,0,0,0,0,0,0,0,-1,1294,911,0,0
77,113,0,0,0,0,0,0,0,0,0,-1,1301,911,0,0
84,113,0,0,0,0,0,0,0,0,0,-1,1308,911,0,0
91,113,0,0,0,0,0,0,0,0,0,-1,1315,911,0,0
98,113,0,0,0,0,0,0,0,0,0,-1,1322,911,0,0
105,113,0,0,0,0,0,0,0,0,0,-1,1329,911,0,0
112,113,0,0,0,0,0,0,0,0,0,-1,1336,911,0,0
119,113,0,0,0,0,0,0,0,0,0,-1,1343,911,0,0
126,113,0,0,0,0,0,0,0,0,0,-1,1350,911,0,0
133,113,0,0,0,0,0,0,0,0,0,-1,1357,911,0,0
140,113,0,0,0,0,0,0,0,0,0,-1,1364,911,0,0
147,113,0,0,0,0,0,0,0,0,0,-1,1371,911,0,0
154,113,0,0,0,0,0,0,0,0,0,-1,1378,911,0,0
161,113,0,0,0,0,0,0,0,0,0,-1,1385,911,0,0
168,113,0,0,0,0,0,0,0,0,0,-1,1392,911,0,0
175,113,0,0,0,0,0,0,0,0,0,-1,1399,911,0,0
182,113,0,0,0,0,0,0,0,0,0,-1,1406,911,0,0
189,113,0,0,0,0,0,0,0,0,0,-1,1413,911,0,0
196,113,0,0,0,0,0,0,0,0,0,-1,1420,911,0,0
203,113,0,0,0,0,0,0,0,0,0,-1,1427,911,0,0
210,113,0,0,0,0,0,0,0,0,0,-1,1434,911,0,0
217,113,0,0,0,0,0,0,0,0,0,-1,1441,911,0,0
224,113,0,0,0,0,0,0,0,0,0,-1,1448,911,0,0
231,113,0,0,0,0,0,0,0,0,0,-1,1455,911,0,0
238,113,0,0,0,0,0,0,0,0,0,-1,1462,911,0,0
245,113,0,0,0,0,0,0,0,0,0,-1,1469,911,0,0
252,113,0,0,0,0,0,0,0,0,0,-1,1476,911,0,0
259,113,0,0,0,0,0,0,0,0,0,-1,1483,911,0,0
266,113,0,0,0,0,0,0,0,0,0,-1,1490,911,0,0
273,113,0,0,0,0,0,0,0,0,0,-1,1497,911,0,0
280,113,0,0,0,0,0,0,0,0,0,-1,1504,911,0,0
287,113,0,0,0,0,0,0,0,0,0,-1,1511,911,0,0
294,113,0,0,0,0,0,0,0,0,0,-1,1518,911,0,0
301,113,0,0,0,0,0,0,0,0,0,-1,1525,911,0,0
308,113,0,0,0,0,0,0,0,0,0,-1,1532,911,0,0
315,113,0,0,0,0,0,0,0,0,0,-1,1539,911,0,0
322,113,0,0,0,0,0,0,0,0,0,-1,1546,911,0,0
329,113,0,0,0,0,0,0,0,0,0,-1,1553,911,0,0
336,113,0,0,0,0,0,0,0,0,0,-1,1560,911,0,0
343,113,0,0,0,0,0,0,0,0,0,-1,1567,911,0,0
350,113,0,0,0,0,0,0,0,0,0,-1,1574,911,0,0
357,113,0,0,0,0,0,0,0,0,0,-1,1581,911,0,0
364,113,0,0,0,0,0,0,0,0,0,-1,1588,911,0,0
371,113,0,0,0,0,0,0,0,0,0,-1,1595,911,0,0
378,113,0,0,0,0,0,0,0,0,0,-1,1602,911,0,0
385,113,0,0,0,0,0,0,0,0,0,-1,1609,911,0,0
392,113,0,0,0,0,0,0,0,0,0,-1,1616,911,0,0
399,113,0,0,0,0,0,0,0,0,0,-1,1623,911,0,0
406,113,0,0,0,0,0,0,0,0,0,-1,1630,911,0,0
413,113,0,0,0,0,0,0,0,0,0,-1,1637,911,0,0
420,113,0,0,0,0,0,0,0,0,0,-1,1644,911,0,0
427,113,0,0,0,0,0,0,0,0,0,-1,1651,911,0,0
434,113,0,0,0,0,0,0,0,0,0,-1,1658,911,0,0
441,113,0,0,0,0,0,0,0,0,0,-1,1665,911,0,0
448,113,0,0,0,0,0,0,0,0,0,-1,1672,911,0,0
455,113,0,0,0,0,0,0,0,0,0,-1,1679,911,0,0
462,113,0,0,0,0,0,0,0,0,0,-1,1686,911,0,0
469,113,0,0,0,0,0,0,0,0,0,-1,1693,911,0,0
476,113,0,0,0,0,0,0,0,0,0,-1,1700,911,0,0
483,113,0,0,0,0,0,0,0,0,0,-1,1707,911,0,0
490,113,0,0,0,0,0,0,0,0,0,-1,1714,911,0,0
497,113,0,0,0,0,0,0,0,0,0,-1,1721,911,0,0
504,113,0,0,0,0,0,0,0,0,0,-1,1728,911,0,0
511,113,0,0,0,0,0,0,0,0,0,-1,1735,911,0,0
518,113,0,0,0,0,0,0,0,0,0,-1,1742,911,0,0
525,113,0,0,0,0,0,0,0,0,0,-1,1749,911,0,0
532,113,0,0,0,0,0,0,0,0,0,-1,1756,911,0,0
539,113,0,0,0,0,0,0,0,0,0,-1,1763,911,0,0
546,113,0,0,0,0,0,0,0,0,0,-1,1770,911,0,0
553,113,0,0,0,0,0,0,0,0,0,-1,1777,911,0,0
560,113,0,0,0,0,0,0,0,0,0,-1,1784,911,0,0
567,113,0,0,0,0,0,0,0,0,0,-1,1791,911,0,0
574,113,0,0,0,0,0,0,0,0,0,-1,1798,911,0,0
581,113,0,0,0,0,0,0,0,0,0,-1,1805,911,0,0
588,113,0,0,0,0,0,0,0,0,0,-1,1812,911,0,0
595,113,0,0,0,0,0,0,0,0,0,-1,1819,911,0,0
602,113,0,0,0,0,0,0,0,0,0,-1,1826,911,0,0
609,113,0,0,0,0,0,0,0,0,0,-1,1833,911,0,0
616,113,0,0,0,0,0,0,0,0,0,-1,1840,911,0,0
623,113,0,0,0,0,0,0,0,0,0,-1,1847,911,0,0
630,113,80.0934,2.50739,0.00664475,-0.00168091,-0.00156034,0.00692757,-0.00196374,-0.17931,0.00539347,0.0405668,1854,911,80.0934,-2.50738
637,113,80.1671,2.4624,0.00428912,-0.00125149,-0.000686666,0.00437296,-0.00133532,-0.121485,0.00344771,0.0381632,1861,911,80.1671,-2.46241
644,113,80.1274,2.35437,0.00252436,-0.000988329,-0.000266587,0.00254448,-0.00100845,-0.0753175,0.00211422,0.0369329,1868,911,80.1274,-2.35435
651,113,80.1892,2.35413,0.00118227,-0.000780093,-2.36432e-05,0.00118256,-0.000780378,-0.012046,0.0011412,0.0420233,1875,911,80.1892,-2.35411
658,113,80.2692,2.39856,0.000163038,-0.000570611,6.52053e-05,0.000168788,-0.000576362,0.0879593,0.000451154,0.0444871,1882,911,80.2692,-2.39857
665,113,80.213,2.31287,-0.000429932,-0.000143004,1.75453e-05,-0.000141935,-0.000431001,1.50995,0.000253625,0.0399364,1889,911,80.213,-2.31289
672,113,80.1031,2.37201,-0.00083582,-0.000140582,-0.000123136,-0.000119417,-0.000856985,-1.40058,0.00053597,0.0380016,1896,911,80.1031,-2.37201
679,113,80.0941,2.32806,-0.00108417,-0.000277617,-0.00023667,-0.000213299,-0.00114848,-1.30544,0.00070539,0.0322403,1903,911,80.0941,-2.32807
686,113,80.1571,2.25079,-0.00141371,-0.000224161,-0.00051787,-3.02996e-05,-0.00160757,-1.2126,0.00106176,0.0249217,1910,911,80.157,-2.25076
693,113,80.1002,2.32562,0,0,0,0,0,0,0,-1,1917,911,80.1002,-2.32564
700,113,43.897,2.79669,0,0,0,0,0,0,0,-1,1924,911,43.897,-2.79671
707,113,72.9073,3.35889,0,0,0,0,0,0,0,-1,1931,911,72.9073,-3.35891
714,113,72.8683,4.14325,0,0,0,0,0,0,0,-1,1938,911,72.8683,-4.14323
721,113,72.8313,4.92163,-0.00312935,0.0019109,-0.00280202,0.00315937,-0.00437783,-1.15164,0.00437052,0.0280031,1945,911,72.8313,-4.92163
728,113,72.9182,5.77118,-0.0036704,0.00253236,-0.00307068,0.00379534,-0.00493338,-1.18058,0.00505378,0.0276784,1952,911,72.9182,-5.77116
735,113,72.7908,6.54199,-0.00430188,0.00367604,-0.00318952,0.00479441,-0.00542025,-1.23355,0.00590113,0.0233959,1959,911,72.7907,-6.54201
742,113,72.6696,7.26526,-0.00419882,0.00518488,-0.00329722,0.00622758,-0.00524152,-1.26451,0.00662984,0.0139854,1966,911,72.6695,-7.26527
749,113,72.639,8.03448,-0.00317522,0.00735698,-0.00306906,0.00818604,-0.00400428,-1.30696,0.00717479,0.0113053,1973,911,72.639,-8.03448
756,113,72.5298,8.8111,-0.00121718,0.00958893,-0.00224748,0.0100377,-0.00166598,-1.3737,0.00731069,0.0166753,1980,911,72.5297,-8.81108
763,113,72.3203,9.73358,0.00143367,0.0111642,-0.00102451,0.0112709,0.00132697,-1.46702,0.007113,0.0395152,1987,911,72.3202,-9.73361
770,113,72.1638,10.6761,0,0,0,0,0,0,0,-1,1994,911,72.1639,-10.6761
777,113,58.1719,9.65338,0,0,0,0,0,0,0,-1,2001,911,58.172,-9.6534
784,113,79.3757,13.6559,0,0,0,0,0,0,0,-1,2008,911,79.3756,-13.6559
791,113,74.5583,10.0654,0,0,0,0,0,0,0,-1,2015,911,74.5583,-10.0654
798,113,74.8208,11.6051,0,0,0,0,0,0,0,-1,2022,911,74.8207,-11.6051
805,113,0,0,0,0,0,0,0,0,0,-1,2029,911,0,0
812,113,0,0,0,0,0,0,0,0,0,-1,2036,911,0,0
-700,106,0,0,0,0,0,0,0,0,0,-1,524,918,0,0
-693,106,0,0,0,0,0,0,0,0,0,-1,531,918,0,0
-686,106,0,0,0,0,0,0,0,0,0,-1,538,918,0,0
-679,106,-60.4137,10.3801,0,0,0,0,0,0,0,-1,545,918,-60.4137,-10.3802
-672,106,-59.9378,11.2709,0,0,0,0,0,0,0,-1,552,918,-59.9378,-11.271
-665,106,-53.5263,9.70886,0,0,0,0,0,0,0,-1,559,918,-53.5263,-9.70888
-658,106,-53.7712,10.2163,0,0,0,0,0,0,0,-1,566,918,-53.7712,-10.2163
-651,106,-52.8008,8.01733,0,0,0,0,0,0,0,-1,573,918,-52.8008,-8.01734
-644,106,-56.1688,10.2045,0,0,0,0,0,0,0,-1,580,918,-56.1688,-10.2045
-637,106,-56.6975,9.49774,0.00603344,0.0455425,0.0094921,0.0477047,0.00387128,1.34683,0.0305945,0.0419348,587,918,-56.6975,-9.49774
-630,106,-57.2471,8.89264,0.00151164,0.0325475,0.00859515,0.0347688,-0.000709729,1.31789,0.0234194,0.0201478,594,918,-57.2471,-8.89265
-623,106,-57.4955,8.01904,-0.00250003,0.0207788,0.00780924,0.0231558,-0.00487704,1.27532,0.0172937,0.0208937,601,918,-57.4955,-8.01903
-616,106,-57.579,7.24695,-0.00392795,0.0109671,0.00689846,0.0136711,-0.006632,1.19722,0.0119546,0.0207203,608,918,-57.579,-7.24693
-609,106,-57.5684,6.56128,-0.00295131,0.00498973,0.00596888,0.00818807,-0.00614966,1.07889,0.00830573,0.0139816,615,918,-57.5683,-6.56128
-602,106,-57.5975,5.76086,-0.00188375,0.00266879,0.00507605,0.00595558,-0.00517054,0.996173,0.006429,0.0235248,622,918,-57.5975,-5.76084
-595,106,-57.7814,5.01147,-0.00138513,0.00168872,0.0043388,0.00475476,-0.00445117,0.955617,0.00531601,0.028306,629,918,-57.7813,-5.0115
-588,106,-57.8479,4.22443,-0.00102308,0.00115463,0.00368287,0.00390623,-0.00377469,0.92913,0.0044348,0.0353836,636,918,-57.8479,-4.22445
-581,106,-57.401,3.5379,0,0,0,0,0,0,0,-1,643,918,-57.401,-3.53793
-574,106,-57.6215,2.41992,0,0,0,0,0,0,0,-1,650,918,-57.6215,-2.41991
-567,106,-41.3706,0.420776,0,0,0,0,0,0,0,-1,657,918,-41.3706,-0.420794
-560,106,-63.5573,0.457581,0,0,0,0,0,0,0,-1,664,918,-63.5573,-0.457587
-553,106,-63.5848,0.53833,-0.00126279,-0.00122907,0.00100523,-0.000240563,-0.0022513,0.793785,0.00142745,0.0345991,671,918,-63.5848,-0.538303
-546,106,-63.534,0.464661,-0.00202893,-0.00116927,0.000487464,-0.000949196,-0.002249,1.14672,0.00130371,0.038613,678,918,-63.534,-0.464659
-539,106,-63.5271,0.394409,-0.00291005,-0.000803964,-1.27982e-05,-0.000803887,-0.00291013,-1.56472,0.00173534,0.0395512,685,918,-63.5271,-0.394416
-532,106,-63.4597,0.485779,-0.00342387,-0.00032562,-0.000197913,-0.000313029,-0.00343646,-1.50726,0.00219409,0.0394425,692,918,-63.4597,-0.485794
-525,106,-63.5616,0.592224,-0.00451588,0.000156885,7.08317e-05,0.000157959,-0.00451696,1.55564,0.00306531,0.0398998,699,918,-63.5616,-0.592214
-518,106,-63.6937,0.479248,-0.00571737,0.000576257,0.000438658,0.000606684,-0.0057478,1.50154,0.00404927,0.0399129,706,918,-63.6936,-0.479249
-511,106,0,0,0,0,0,0,0,0,0,-1,713,918,0,0
-504,106,0,0,0,0,0,0,0,0,0,-1,720,918,0,0
-497,106,0,0,0,0,0,0,0,0,0,-1,727,918,0,0
-490,106,0,0,0,0,0,0,0,0,0,-1,734,918,0,0
-483,106,0,0,0,0,0,0,0,0,0,-1,741,918,0,0
-476,106,0,0,0,0,0,0,0,0,0,-1,748,918,0,0
-469,106,0,0,0,0,0,0,0,0,0,-1,755,918,0,0
-462,106,0,0,0,0,0,0,0,0,0,-1,762,918,0,0
-455,106,0,0,0,0,0,0,0,0,0,-1,769,918,0,0
-448,106,0,0,0,0,0,0,0,0,0,-1,776,918,0,0
-441,106,0,0,0,0,0,0,0,0,0,-1,783,918,0,0
-434,106,0,0,0,0,0,0,0,0,0,-1,790,918,0,0
-427,106,0,0,0,0,0,0,0,0,0,-1,797,918,0,0
-420,106,0,0,0,0,0,0,0,0,0,-1,804,918,0,0
-413,106,0,0,0,0,0,0,0,0,0,-1,811,918,0,0
-406,106,0,0,0,0,0,0,0,0,0,-1,818,918,0,0
-399,106,0,0,0,0,0,0,0,0,0,-1,825,918,0,0
-392,106,0,0,0,0,0,0,0,0,0,-1,832,918,0,0
-385,106,0,0,0,0,0,0,0,0,0,-1,839,918,0,0
-378,106,0,0,0,0,0,0,0,0,0,-1,846,918,0,0
-371,106,0,0,0,0,0,0,0,0,0,-1,853,918,0,0
-364,106,0,0,0,0,0,0,0,0,0,-1,860,918,0,0
-357,106,0,0,0,0,0,0,0,0,0,-1,867,918,0,0
-350,106,0,0,0,0,0,0,0,0,0,-1,874,918,0,0
-343,106,0,0,0,0,0,0,0,0,0,-1,881,918,0,0
-336,106,0,0,0,0,0,0,0,0,0,-1,888,918,0,0
-329,106,0,0,0,0,0,0,0,0,0,-1,895,918,0,0
-322,106,0,0,0,0,0,0,0,0,0,-1,902,918,0,0
-315,106,0,0,0,0,0,0,0,0,0,-1,909,918,0,0
-308,106,0,0,0,0,0,0,0,0,0,-1,916,918,0,0
-301,106,0,0,0,0,0,0,0,0,0,-1,923,918,0,0
-294,106,0,0,0,0,0,0,0,0,0,-1,930,918,0,0
-287,106,0,0,0,0,0,0,0,0,0,-1,937,918,0,0
-280,106,0,0,0,0,0,0,0,0,0,-1,944,918,0,0
-273,106,0,0,0,0,0,0,0,0,0,-1,951,918,0,0
-266,106,0,0,0,0,0,0,0,0,0,-1,958,918,0,0
-259,106,0,0,0,0,0,0,0,0,0,-1,965,918,0,0
-252,106,0,0,0,0,0,0,0,0,0,-1,972,918,0,0
-245,106,0,0,0,0,0,0,0,0,0,-1,979,918,0,0
-238,106,0,0,0,0,0,0,0,0,0,-1,986,918,0,0
-231,106,0,0,0,0,0,0,0,0,0,-1,993,918,0,0
-224,106,0,0,0,0,0,0,0,0,0,-1,1000,918,0,0
-217,106,0,0,0,0,0,0,0,0,0,-1,1007,918,0,0
-210,106,0,0,0,0,0,0,0,0,0,-1,1014,918,0,0
-203,106,0,0,0,0,0,0,0,0,0,-1,1021,918,0,0
-196,106,0,0,0,0,0,0,0,0,0,-1,1028,918,0,0
-189,106,0,0,0,0,0,0,0,0,0,-1,1035,918,0,0
-182,106,0,0,0,0,0,0,0,0,0,-1,1042,918,0,0
-175,106,0,0,0,0,0,0,0,0,0,-1,1049,918,0,0
-168,106,0,0,0,0,0,0,0,0,0,-1,1056,918,0,0
-161,106,0,0,0,0,0,0,0,0,0,-1,1063,918,0,0
-154,106,0,0,0,0,0,0,0,0,0,-1,1070,918,0,0
-147,106,0,0,0,0,0,0,0,0,0,-1,1077,918,0,0
-140,106,0,0,0,0,0,0,0,0,0,-1,1084,918,0,0
-133,106,0,0,0,0,0,0,0,0,0,-1,1091,918,0,0
-126,106,0,0,0,0,0,0,0,0,0,-1,1098,918,0,0
-119,106,0,0,0,0,0,0,0,0,0,-1,1105,918,0,0
-112,106,0,0,0,0,0,0,0,0,0,-1,1112,918,0,0
-105,106,0,0,0,0,0,0,0,0,0,-1,1119,918,0,0
-98,106,0,0,0,0,0,0,0,0,0,-1,1126,918,0,0
-91,106,0,0,0,0,0,0,0,0,0,-1,1133,918,0,0
-84,106,0,0,0,0,0,0,0,0,0,-1,1140,918,0,0
-77,106,0,0,0,0,0,0,0,0,0,-1,1147,918,0,0
-70,106,0,0,0,0,0,0,0,0,0,-1,1154,918,0,0
-63,106,0,0,0,0,0,0,0,0,0,-1,1161,918,0,0
-56,106,0,0,0,0,0,0,0,0,0,-1,1168,918,0,0
-49,106,0,0,0,0,0,0,0,0,0,-1,1175,918,0,0
-42,106,0,0,0,0,0,0,0,0,0,-1,1182,918,0,0
-35,106,0,0,0,0,0,0,0,0,0,-1,1189,918,0,0
-28,106,0,0,0,0,0,0,0,0,0,-1,1196,918,0,0
-21,106,0,0,0,0,0,0,0,0,0,-1,1203,918,0,0
-14,106,0,0,0,0,0,0,0,0,0,-1,1210,918,0,0
-7,106,0,0,0,0,0,0,0,0,0,-1,1217,918,0,0
0,106,0,0,0,0,0,0,0,0,0,-1,1224,918,0,0
7,106,0,0,0,0,0,0,0,0,0,-1,1231,918,0,0
14,106,0,0,0,0,0,0,0,0,0,-1,1238,918,0,0
21,106,0,0,0,0,0,0,0,0,0,-1,1245,918,0,0
28,106,0,0,0,0,0,0,0,0,0,-1,1252,918,0,0
35,106,0,0,0,0,0,0,0,0,0,-1,1259,918,0,0
42,106,0,0,0,0,0,0,0,0,0,-1,1266,918,0,0
49,106,0,0,0,0,0,0,0,0,0,-1,1273,918,0,0
56,106,0,0,0,0,0,0,0,0,0,-1,1280,918,0,0
63,106,0,0,0,0,0,0,0,0,0,-1,1287,918,0,0
70,106,0,0,0,0,0,0,0,0,0,-1,1294,918,0,0
77,106,0,0,0,0,0,0,0,0,0,-1,1301,918,0,0
84,106,0,0,0,0,0,0,0,0,0,-1,1308,918,0,0
91,106,0,0,0,0,0,0,0,0,0,-1,1315,918,0,0
98,106,0,0,0,0,0,0,0,0,0,-1,1322,918,0,0
105,106,0,0,0,0,0,0,0,0,0,-1,1329,918,0,0
112,106,0,0,0,0,0,0,0,0,0,-1,1336,918,0,0
119,106,0,0,0,0,0,0,0,0,0,-1,1343,918,0,0
126,106,0,0,0,0,0,0,0,0,0,-1,1350,918,0,0
133,106,0,0,0,0,0,0,0,0,0,-1,1357,918,0,0
140,106,0,0,0,0,0,0,0,0,0,-1,1364,918,0,0
147,106,0,0,0,0,0,0,0,0,0,-1,1371,918,0,0
154,106,0,0,0,0,0,0,0,0,0,-1,1378,918,0,0
161,106,0,0,0,0,0,0,0,0,0,-1,1385,918,0,0
168,106,0,0,0,0,0,0,0,0,0,-1,1392,918,0,0
175,106,0,0,0,0,0,0,0,0,0,-1,1399,918,0,0
182,106,0,0,0,0,0,0,0,0,0,-1,1406,918,0,0
189,106,0,0,0,0,0,0,0,0,0,-1,1413,918,0,0
196,106,0,0,0,0,0,0,0,0,0,-1,1420,918,0,0
203,106,0,0,0,0,0,0,0,0,0,-1,1427,918,0,0
210,106,0,0,0,0,0,0,0,0,0,-1,1434,918,0,0
217,106,0,0,0,0,0,0,0,0,0,-1,1441,918,0,0
224,106,0,0,0,0,0,0,0,0,0,-1,1448,918,0,0
231,106,0,0,0,0,0,0,0,0,0,-1,1455,918,0,0
238,106,0,0,0,0,0,0,0,0,0,-1,1462,918,0,0
245,106,0,0,0,0,0,0,0,0,0,-1,1469,918,0,0
252,106,0,0,0,0,0,0,0,0,0,-1,1476,918,0,0
259,106,0,0,0,0,0,0,0,0,0,-1,1483,918,0,0
266,106,0,0,0,0,0,0,0,0,0,-1,1490,918,0,0
273,106,0,0,0,0,0,0,0,0,0,-1,1497,918,0,0
280,106,0,0,0,0,0,0,0,0,0,-1,1504,918,0,0
287,106,0,0,0,0,0,0,0,0,0,-1,1511,918,0,0
294,106,0,0,0,0,0,0,0,0,0,-1,1518,918,0,0
301,106,0,0,0,0,0,0,0,0,0,-1,1525,918,0,0
308,106,0,0,0,0,0,0,0,0,0,-1,1532,918,0,0
315,106,0,0,0,0,0,0,0,0,0,-1,1539,918,0,0
322,106,0,0,0,0,0,0,0,0,0,-1,1546,918,0,0
329,106,0,0,0,0,0,0,0,0,0,-1,1553,918,0,0
336,106,0,0,0,0,0,0,0,0,0,-1,1560,918,0,0
343,106,0,0,0,0,0,0,0,0,0,-1,1567,918,0,0
350,106,0,0,0,0,0,0,0,0,0,-1,1574,918,0,0
357,106,0,0,0,0,0,0,0,0,0,-1,1581,918,0,0
364,106,0,0,0,0,0,0,0,0,0,-1,1588,918,0,0
371,106,0,0,0,0,0,0,0,0,0,-1,1595,918,0,0
378,106,0,0,0,0,0,0,0,0,0,-1,1602,918,0,0
385,106,0,0,0,0,0,0,0,0,0,-1,1609,918,0,0
392,106,0,0,0,0,0,0,0,0,0,-1,1616,918,0,0
399,106,0,0,0,0,0,0,0,0,0,-1,1623,918,0,0
406,106,0,0,0,0,0,0,0,0,0,-1,1630,918,0,0
413,106,0,0,0,0,0,0,0,0,0,-1,1637,918,0,0
420,106,0,0,0,0,0,0,0,0,0,-1,1644,918,0,0
427,106,0,0,0,0,0,0,0,0,0,-1,1651,918,0,0
434,106,0,0,0,0,0,0,0,0,0,-1,1658,918,0,0
441,106,0,0,0,0,0,0,0,0,0,-1,1665,918,0,0
448,106,0,0,0,0,0,0,0,0,0,-1,1672,918,0,0
455,106,0,0,0,0,0,0,0,0,0,-1,1679,918,0,0
462,106,0,0,0,0,0,0,0,0,0,-1,1686,918,0,0
469,106,0,0,0,0,0,0,0,0,0,-1,1693,918,0,0
476,106,0,0,0,0,0,0,0,0,0,-1,1700,918,0,0
483,106,0,0,0,0,0,0,0,0,0,-1,1707,918,0,0
490,106,0,0,0,0,0,0,0,0,0,-1,1714,918,0,0
497,106,0,0,0,0,0,0,0,0,0,-1,1721,918,0,0
504,106,0,0,0,0,0,0,0,0,0,-1,1728,918,0,0
511,106,0,0,0,0,0,0,0,0,0,-1,1735,918,0,0
518,106,0,0,0,0,0,0,0,0,0,-1,1742,918,0,0
525,106,0,0,0,0,0,0,0,0,0,-1,1749,918,0,0
532,106,0,0,0,0,0,0,0,0,0,-1,1756,918,0,0
539,106,0,0,0,0,0,0,0,0,0,-1,1763,918,0,0
546,106,0,0,0,0,0,0,0,0,0,-1,1770,918,0,0
553,106,0,0,0,0,0,0,0,0,0,-1,1777,918,0,0
560,106,0,0,0,0,0,0,0,0,0,-1,1784,918,0,0
567,106,0,0,0,0,0,0,0,0,0,-1,1791,918,0,0
574,106,0,0,0,0,0,0,0,0,0,-1,1798,918,0,0
581,106,0,0,0,0,0,0,0,0,0,-1,1805,918,0,0
588,106,0,0,0,0,0,0,0,0,0,-1,1812,918,0,0
595,106,0,0,0,0,0,0,0,0,0,-1,1819,918,0,0
602,106,0,0,0,0,0,0,0,0,0,-1,1826,918,0,0
609,106,0,0,0,0,0,0,0,0,0,-1,1833,918,0,0
616,106,0,0,0,0,0,0,0,0,0,-1,1840,918,0,0
623,106,0,0,0,0,0,0,0,0,0,-1,1847,918,0,0
630,106,80.0653,2.61401,0.00760607,-0.00113386,3.94812e-05,0.00760625,-0.00113404,0.00451721,0.00548805,0.0418632,1854,918,80.0653,-2.61401
637,106,80.2054,2.64215,0.00498102,-0.000915286,0.000686359,0.00505986,-0.000994128,0.114368,0.00374881,0.0395162,1861,918,80.2055,-2.64215
644,106,80.2522,2.52399,0.00307715,-0.000791383,0.00081786,0.00324295,-0.000957184,0.200014,0.00254183,0.0370348,1868,918,80.2522,-2.52401
651,106,80.2296,2.30206,0.00167709,-0.000693869,0.000800872,0.00192226,-0.000939039,0.29707,0.00168417,0.0401288,1875,918,80.2296,-2.30206
658,106,80.2795,2.34308,0.00066538,-0.000548092,0.000669178,0.000961931,-0.000844643,0.417149,0.00104376,0.0447463,1882,918,80.2795,-2.34305
665,106,80.2892,2.21893,0.000118927,-0.000200214,0.000449542,0.000436379,-0.000517666,0.614854,0.000551484,0.0453431,1889,918,80.2892,-2.21894
672,106,80.1833,2.30096,-0.000348052,-0.000193098,0.000230948,-2.69771e-05,-0.000514173,0.947236,0.000334153,0.0418039,1896,918,80.1833,-2.30095
679,106,80.1233,2.31427,-0.000690908,-0.000368772,8.52971e-05,-0.00034758,-0.0007121,1.32728,0.00041117,0.0358254,1903,918,80.1232,-2.31427
686,106,80.1416,2.27899,-0.00104733,-0.00036159,-0.000255864,-0.000276644,-0.00113228,-1.25025,0.000681613,0.0287263,1910,918,80.1416,-2.279
693,106,80.0864,2.29321,-0.00158505,-0.000203114,-0.000692651,8.42842e-05,-0.00187245,-1.17749,0.00127732,0.0377692,1917,918,80.0864,-2.29322
700,106,80.1617,2.35931,0,0,0,0,0,0,0,-1,1924,918,80.1617,-2.35934
707,106,59.4137,3.22595,0,0,0,0,0,0,0,-1,1931,918,59.4136,-3.22598
714,106,73.4153,4.09039,0,0,0,0,0,0,0,-1,1938,918,73.4153,-4.09036
721,106,73.771,5.07141,-0.00311677,0.00201198,-0.00276112,0.00321587,-0.00432066,-1.15963,0.00436677,0.0351493,1945,918,73.771,-5.07142
728,106,73.7866,5.87909,-0.00368074,0.00261012,-0.00298378,0.00380021,-0.00487083,-1.19128,0.00501893,0.0327353,1952,918,73.7866,-5.87909
735,106,73.6895,6.60309,-0.00441218,0.00382041,-0.00309408,0.00485361,-0.00544537,-1.24851,0.00594939,0.0288373,1959,918,73.6895,-6.60312
742,106,73.5557,7.27673,-0.0044182,0.0053585,-0.00325238,0.0063416,-0.0054013,-1.27726,0.006787,0.0147901,1966,918,73.5557,-7.27672
749,106,73.4708,8.01001,-0.00350303,0.00773843,-0.00311302,0.00854292,-0.00430753,-1.3179,0.00755234,0.0123132,1973,918,73.4708,-8.01001
756,106,73.3647,8.74792,-0.00154789,0.0103755,-0.00228811,0.0107996,-0.0019719,-1.38756,0.00793906,0.0153302,1980,918,73.3647,-8.7479
763,106,73.2341,9.63116,0.00111475,0.0124689,-0.00100042,0.0125564,0.00102728,-1.48358,0.00805036,0.0336609,1987,918,73.234,-9.63116
770,106,73.1506,10.5312,0,0,0,0,0,0,0,-1,1994,918,73.1506,-10.5312
777,106,74.9976,10.1675,0,0,0,0,0,0,0,-1,2001,918,74.9975,-10.1675
784,106,75.3486,10.363,0,0,0,0,0,0,0,-1,2008,918,75.3486,-10.363
791,106,75.1431,10.694,0,0,0,0,0,0,0,-1,2015,918,75.143,-10.6939
798,106,74.9373,11.025,0,0,0,0,0,0,0,-1,2022,918,74.9373,-11.0249
805,106,0,0,0,0,0,0,0,0,0,-1,2029,918,0,0
812,106,0,0,0,0,0,0,0,0,0,-1,2036,918,0,0
-700,99,0,0,0,0,0,0,0,0,0,-1,524,925,0,0
-693,99,0,0,0,0,0,0,0,0,0,-1,531,925,0,0
-686,99,0,0,0,0,0,0,0,0,0,-1,538,925,0,0
-679,99,-60.0285,9.58405,0.0661284,0.142935,0.0173471,0.146671,0.0623923,1.35866,0.0849943,0.0436185,545,925,-60.0285,-9.58402
-672,99,-59.5222,10.1797,0.0528444,0.126668,0.0144618,0.1294,0.0501124,1.38409,0.0753396,0.0475778,552,925,-59.5222,-10.1797
-665,99,-58.8331,10.9661,0,0,0,0,0,0,0,-1,559,925,-58.8331,-10.9661
-658,99,-58.6227,11.3068,0,0,0,0,0,0,0,-1,566,925,-58.6227,-11.3068
-651,99,-58.2084,11.0227,0,0,0,0,0,0,0,-1,573,925,-58.2084,-11.0227
-644,99,-57.4628,10.0438,0,0,0,0,0,0,0,-1,580,925,-57.4628,-10.0437
-637,99,-57.7481,9.44824,0.00800037,0.046103,0.00929667,0.0482503,0.00585309,1.3438,0.0304042,0.0355932,587,925,-57.7481,-9.44827
-630,99,-58.0875,8.83807,0.00334494,0.0330518,0.00849294,0.0353085,0.0010883,1.31109,0.0231847,0.021078,594,925,-58.0875,-8.83806
-623,99,-58.3716,8.02795,-0.000773799,0.021223,0.00775579,0.0236826,-0.00323337,1.2637,0.0169692,0.0149425,601,925,-58.3716,-8.02794
-616,99,-58.4105,7.28467,-0.0025118,0.0113224,0.00693515,0.0142003,-0.00538973,1.17745,0.0116854,0.0170644,608,925,-58.4105,-7.28465
-609,99,-58.4105,6.61951,-0.00204622,0.00509135,0.00606058,0.00855584,-0.00551071,1.05149,0.00818451,0.0132825,615,925,-58.4105,-6.61953
-602,99,-58.4072,5.90979,-0.00130379,0.0026439,0.00516642,0.0062007,-0.00486058,0.967868,0.00640184,0.0192187,622,925,-58.4072,-5.90978
-595,99,-58.5334,5.17157,-0.000960084,0.00154541,0.00441148,0.00487856,-0.00429324,0.923743,0.00529894,0.0259992,629,925,-58.5334,-5.17159
-588,99,-58.5477,4.38928,-0.000660844,0.000944321,0.00372975,0.00395686,-0.00367339,0.891374,0.00440634,0.0304579,636,925,-58.5477,-4.38925
-581,99,-58.2636,3.67505,0,0,0,0,0,0,0,-1,643,925,-58.2636,-3.67506
-574,99,-58.6707,2.4903,0,0,0,0,0,0,0,-1,650,925,-58.6707,-2.49027
-567,99,-50.5977,0.659485,0,0,0,0,0,0,0,-1,657,925,-50.5977,-0.659461
-560,99,-63.5164,0.461548,0,0,0,0,0,0,0,-1,664,925,-63.5164,-0.461523
-553,99,-63.5986,0.654236,-0.00110694,-0.000966968,0.000854008,-0.000180083,-0.00189382,0.826282,0.00120701,0.0362374,671,925,-63.5986,-0.654231
-546,99,-63.5372,0.546143,-0.00183202,-0.00059614,0.000335717,-0.000510833,-0.00191733,1.32196,0.00114652,0.0403161,678,925,-63.5372,-0.546172
-539,99,-63.4874,0.487427,-0.00257324,0.000159555,-0.000169114,0.00016998,-0.00258367,-1.50923,0.00178181,0.0380166,685,925,-63.4874,-0.487456
-532,99,-63.5192,0.669556,-0.00299205,0.00114095,-0.000445205,0.00118837,-0.00303946,-1.4647,0.00251772,0.0389767,692,925,-63.5192,-0.669579
-525,99,-63.6524,0.623718,-0.00376025,0.00217917,-0.000462332,0.00221494,-0.00379603,-1.49357,0.00351022,0.0409741,699,925,-63.6524,-0.623718
-518,99,-63.7778,0.381104,-0.00468395,0.00316598,-0.00035528,0.00318202,-0.00469999,-1.52566,0.00457873,0.0403337,706,925,-63.7778,-0.381117
-511,99,0,0,0,0,0,0,0,0,0,-1,713,925,0,0
-504,99,0,0,0,0,0,0,0,0,0,-1,720,925,0,0
-497,99,0,0,0,0,0,0,0,0,0,-1,727,925,0,0
-490,99,0,0,0,0,0,0,0,0,0,-1,734,925,0,0
-483,99,0,0,0,0,0,0,0,0,0,-1,741,925,0,0
-476,99,0,0,0,0,0,0,0,0,0,-1,748,925,0,0
-469,99,0,0,0,0,0,0,0,0,0,-1,755,925,0,0
-462,99,0,0,0,0,0,0,0,0,0,-1,762,925,0,0
-455,99,0,0,0,0,0,0,0,0,0,-1,769,925,0,0
-448,99,0,0,0,0,0,0,0,0,0,-1,776,925,0,0
-441,99,0,0,0,0,0,0,0,0,0,-1,783,925,0,0
-434,99,0,0,0,0,0,0,0,0,0,-1,790,925,0,0
-427,99,0,0,0,0,0,0,0,0,0,-1,797,925,0,0
-420,99,0,0,0,0,0,0,0,0,0,-1,804,925,0,0
-413,99,0,0,0,0,0,0,0,0,0,-1,811,925,0,0
-406,99,0,0,0,0,0,0,0,0,0,-1,818,925,0,0
-399,99,0,0,0,0,0,0,0,0,0,-1,825,925,0,0
-392,99,0,0,0,0,0,0,0,0,0,-1,832,925,0,0
-385,99,0,0,0,0,0,0,0,0,0,-1,839,925,0,0
-378,99,0,0,0,0,0,0,0,0,0,-1,846,925,0,0
-371,99,0,0,0,0,0,0,0,0,0,-1,853,925,0,0
-364,99,0,0,0,0,0,0,0,0,0,-1,860,925,0,0
-357,99,0,0,0,0,0,0,0,0,0,-1,867,925,0,0
-350,99,0,0,0,0,0,0,0,0,0,-1,874,925,0,0
-343,99,0,0,0,0,0,0,0,0,0,-1,881,925,0,0
-336,99,0,0,0,0,0,0,0,0,0,-1,888,925,0,0
-329,99,0,0,0,0,0,0,0,0,0,-1,895,925,0,0
-322,99,0,0,0,0,0,0,0,0,0,-1,902,925,0,0
-315,99,0,0,0,0,0,0,0,0,0,-1,909,925,0,0
-308,99,0,0,0,0,0,0,0,0,0,-1,916,925,0,0
-301,99,0,0,0,0,0,0,0,0,0,-1,923,925,0,0
-294,99,0,0,0,0,0,0,0,0,0,-1,930,925,0,0
-287,99,0,0,0,0,0,0,0,0,0,-1,937,925,0,0
-280,99,0,0,0,0,0,0,0,0,0,-1,944,925,0,0
-273,99,0,0,0,0,0,0,0,0,0,-1,951,925,0,0
-266,99,0,0,0,0,0,0,0,0,0,-1,958,925,0,0
-259,99,0,0,0,0,0,0,0,0,0,-1,965,925,0,0
-252,99,0,0,0,0,0,0,0,0,0,-1,972,925,0,0
-245,99,0,0,0,0,0,0,0,0,0,-1,979,925,0,0
-238,99,0,0,0,0,0,0,0,0,0,-1,986,925,0,0
-231,99,0,0,0,0,0,0,0,0,0,-1,993,925,0,0
-224,99,0,0,0,0,0,0,0,0,0,-1,1000,925,0,0
-217,99,0,0,0,0,0,0,0,0,0,-1,1007,925,0,0
-210,99,0,0,0,0,0,0,0,0,0,-1,1014,925,0,0
-203,99,0,0,0,0,0,0,0,0,0,-1,1021,925,0,0
-196,99,0,0,0,0,0,0,0,0,0,-1,1028,925,0,0
-189,99,0,0,0,0,0,0,0,0,0,-1,1035,925,0,0
-182,99,0,0,0,0,0,0,0,0,0,-1,1042,925,0,0
-175,99,0,0,0,0,0,0,0,0,0,-1,1049,925,0,0
-168,99,0,0,0,0,0,0,0,0,0,-1,1056,925,0,0
-161,99,0,0,0,0,0,0,0,0,0,-1,1063,925,0,0
-154,99,0,0,0,0,0,0,0,0,0,-1,1070,925,0,0
-147,99,0,0,0,0,0,0,0,0,0,-1,1077,925,0,0
-140,99,0,0,0,0,0,0,0,0,0,-1,1084,925,0,0
-133,99,0,0,0,0,0,0,0,0,0,-1,1091,925,0,0
-126,99,0,0,0,0,0,0,0,0,0,-1,1098,925,0,0
-119,99,0,0,0,0,0,0,0,0,0,-1,1105,925,0,0
-112,99,0,0,0,0,0,0,0,0,0,-1,1112,925,0,0
-105,99,0,0,0,0,0,0,0,0,0,-1,1119,925,0,0
-98,99,0,0,0,0,0,0,0,0,0,-1,1126,925,0,0
-91,99,0,0,0,0,0,0,0,0,0,-1,1133,925,0,0
-84,99,0,0,0,0,0,0,0,0,0,-1,1140,925,0,0
-77,99,0,0,0,0,0,0,0,0,0,-1,1147,925,0,0
-70,99,0,0,0,0,0,0,0,0,0,-1,1154,925,0,0
-63,99,0,0,0,0,0,0,0,0,0,-1,1161,925,0,0
-56,99,0,0,0,0,0,0,0,0,0,-1,1168,925,0,0
-49,99,0,0,0,0,0,0,0,0,0,-1,1175,925,0,0
-42,99,0,0,0,0,0,0,0,0,0,-1,1182,925,0,0
-35,99,0,0,0,0,0,0,0,0,0,-1,1189,925,0,0
-28,99,0,0,0,0,0,0,0,0,0,-1,1196,925,0,0
-21,99,0,0,0,0,0,0,0,0,0,-1,1203,925,0,0
-14,99,0,0,0,0,0,0,0,0,0,-1,1210,925,0,0
-7,99,0,0,0,0,0,0,0,0,0,-1,1217,925,0,0
0,99,0,0,0,0,0,0,0,0,0,-1,1224,925,0,0
7,99,0,0,0,0,0,0,0,0,0,-1,1231,925,0,0
14,99,0,0,0,0,0,0,0,0,0,-1,1238,925,0,0
21,99,0,0,0,0,0,0,0,0,0,-1,1245,925,0,0
28,99,0,0,0,0,0,0,0,0,0,-1,1252,925,0,0
35,99,0,0,0,0,0,0,0,0,0,-1,1259,925,0,0
42,99,0,0,0,0,0,0,0,0,0,-1,1266,925,0,0
49,99,0,0,0,0,0,0,0,0,0,-1,1273,925,0,0
56,99,0,0,0,0,0,0,0,0,0,-1,1280,925,0,0
63,99,0,0,0,0,0,0,0,0,0,-1,1287,925,0,0
70,99,0,0,0,0,0,0,0,0,0,-1,1294,925,0,0
77,99,0,0,0,0,0,0,0,0,0,-1,1301,925,0,0
84,99,0,0,0,0,0,0,0,0,0,-1,1308,925,0,0
91,99,0,0,0,0,0,0,0,0,0,-1,1315,925,0,0
98,99,0,0,0,0,0,0,0,0,0,-1,1322,925,0,0
105,99,0,0,0,0,0,0,0,0,0,-1,1329,925,0,0
112,99,0,0,0,0,0,0,0,0,0,-1,1336,925,0,0
119,99,0,0,0,0,0,0,0,0,0,-1,1343,925,0,0
126,99,0,0,0,0,0,0,0,0,0,-1,1350,925,0,0
133,99,0,0,0,0,0,0,0,0,0,-1,1357,925,0,0
140,99,0,0,0,0,0,0,0,0,0,-1,1364,925,0,0
147,99,0,0,0,0,0,0,0,0,0,-1,1371,925,0,0
154,99,0,0,0,0,0,0,0,0,0,-1,1378,925,0,0
161,99,0,0,0,0,0,0,0,0,0,-1,1385,925,0,0
168,99,0,0,0,0,0,0,0,0,0,-1,1392,925,0,0
175,99,0,0,0,0,0,0,0,0,0,-1,1399,925,0,0
182,99,0,0,0,0,0,0,0,0,0,-1,1406,925,0,0
189,99,0,0,0,0,0,0,0,0,0,-1,1413,925,0,0
196,99,0,0,0,0,0,0,0,0,0,-1,1420,925,0,0
203,99,0,0,0,0,0,0,0,0,0,-1,1427,925,0,0
210,99,0,0,0,0,0,0,0,0,0,-1,1434,925,0,0
217,99,0,0,0,0,0,0,0,0,0,-1,1441,925,0,0
224,99,0,0,0,0,0,0,0,0,0,-1,1448,925,0,0
231,99,0,0,0,0,0,0,0,0,0,-1,1455,925,0,0
238,99,0,0,0,0,0,0,0,0,0,-1,1462,925,0,0
245,99,0,0,0,0,0,0,0,0,0,-1,1469,925,0,0
252,99,0,0,0,0,0,0,0,0,0,-1,1476,925,0,0
259,99,0,0,0,0,0,0,0,0,0,-1,1483,925,0,0
266,99,0,0,0,0,0,0,0,0,0,-1,1490,925,0,0
273,99,0,0,0,0,0,0,0,0,0,-1,1497,925,0,0
280,99,0,0,0,0,0,0,0,0,0,-1,1504,925,0,0
287,99,0,0,0,0,0,0,0,0,0,-1,1511,925,0,0
294,99,0,0,0,0,0,0,0,0,0,-1,1518,925,0,0
301,99,0,0,0,0,0,0,0,0,0,-1,1525,925,0,0
308,99,0,0,0,0,0,0,0,0,0,-1,1532,925,0,0
315,99,0,0,0,0,0,0,0,0,0,-1,1539,925,0,0
322,99,0,0,0,0,0,0,0,0,0,-1,1546,925,0,0
329,99,0,0,0,0,0,0,0,0,0,-1,1553,925,0,0
336,99,0,0,0,0,0,0,0,0,0,-1,1560,925,0,0
343,99,0,0,0,0,0,0,0,0,0,-1,1567,925,0,0
350,99,0,0,0,0,0,0,0,0,0,-1,1574,925,0,0
357,99,0,0,0,0,0,0,0,0,0,-1,1581,925,0,0
364,99,0,0,0,0,0,0,0,0,0,-1,1588,925,0,0
371,99,0,0,0,0,0,0,0,0,0,-1,1595,925,0,0
378,99,0,0,0,0,0,0,0,0,0,-1,1602,925,0,0
385,99,0,0,0,0,0,0,0,0,0,-1,1609,925,0,0
392,99,0,0,0,0,0,0,0,0,0,-1,1616,925,0,0
399,99,0,0,0,0,0,0,0,0,0,-1,1623,925,0,0
406,99,0,0,0,0,0,0,0,0,0,-1,1630,925,0,0
413,99,0,0,0,0,0,0,0,0,0,-1,1637,925,0,0
420,99,0,0,0,0,0,0,0,0,0,-1,1644,925,0,0
427,99,0,0,0,0,0,0,0,0,0,-1,1651,925,0,0
434,99,0,0,0,0,0,0,0,0,0,-1,1658,925,0,0
441,99,0,0,0,0,0,0,0,0,0,-1,1665,925,0,0
448,99,0,0,0,0,0,0,0,0,0,-1,1672,925,0,0
455,99,0,0,0,0,0,0,0,0,0,-1,1679,925,0,0
462,99,0,0,0,0,0,0,0,0,0,-1,1686,925,0,0
469,99,0,0,0,0,0,0,0,0,0,-1,1693,925,0,0
476,99,0,0,0,0,0,0,0,0,0,-1,1700,925,0,0
483,99,0,0,0,0,0,0,0,0,0,-1,1707,925,0,0
490,99,0,0,0,0,0,0,0,0,0,-1,1714,925,0,0
497,99,0,0,0,0,0,0,0,0,0,-1,1721,925,0,0
504,99,0,0,0,0,0,0,0,0,0,-1,1728,925,0,0
511,99,0,0,0,0,0,0,0,0,0,-1,1735,925,0,0
518,99,0,0,0,0,0,0,0,0,0,-1,1742,925,0,0
525,99,0,0,0,0,0,0,0,0,0,-1,1749,925,0,0
532,99,0,0,0,0,0,0,0,0,0,-1,1756,925,0,0
539,99,0,0,0,0,0,0,0,0,0,-1,1763,925,0,0
546,99,0,0,0,0,0,0,0,0,0,-1,1770,925,0,0
553,99,0,0,0,0,0,0,0,0,0,-1,1777,925,0,0
560,99,0,0,0,0,0,0,0,0,0,-1,1784,925,0,0
567,99,0,0,0,0,0,0,0,0,0,-1,1791,925,0,0
574,99,0,0,0,0,0,0,0,0,0,-1,1798,925,0,0
581,99,0,0,0,0,0,0,0,0,0,-1,1805,925,0,0
588,99,0,0,0,0,0,0,0,0,0,-1,1812,925,0,0
595,99,0,0,0,0,0,0,0,0,0,-1,1819,925,0,0
602,99,0,0,0,0,0,0,0,0,0,-1,1826,925,0,0
609,99,0,0,0,0,0,0,0,0,0,-1,1833,925,0,0
616,99,0,0,0,0,0,0,0,0,0,-1,1840,925,0,0
623,99,0,0,0,0,0,0,0,0,0,-1,1847,925,0,0
630,99,0,0,0,0,0,0,0,0,0,-1,1854,925,0,0
637,99,80.3054,2.44867,0.00581756,-0.000501945,0.00215471,0.00648231,-0.00116669,0.299245,0.00475835,0.042435,1861,925,80.3055,-2.44869
644,99,80.3466,2.47729,0.00370478,-0.000454139,0.00190919,0.00444829,-0.00119765,0.371369,0.00343506,0.0381358,1868,925,80.3466,-2.47728
651,99,80.1322,2.3316,0.00220604,-0.000410695,0.00159726,0.00296239,-0.00116705,0.442249,0.00245809,0.0386683,1875,925,80.1322,-2.33163
658,99,80.1008,2.32147,0.00115919,-0.000280241,0.00122672,0.00186174,-0.000982791,0.520108,0.00166822,0.0409025,1882,925,80.1009,-2.32148
665,99,80.1445,2.34589,0.000572966,1.05898e-05,0.00081085,0.00115,-0.000566444,0.618496,0.0010099,0.0414317,1889,925,80.1446,-2.34589
672,99,80.1523,2.35767,-1.50436e-06,3.67604e-07,0.000520552,0.000519984,-0.000521121,0.786297,0.000601082,0.0401837,1896,925,80.1524,-2.35768
679,99,80.1355,2.28986,-0.000470028,-0.000239168,0.000349082,1.30733e-05,-0.00072227,0.945073,0.00048593,0.0372502,1903,925,80.1355,-2.28984
686,99,80.0713,2.29279,-0.000876845,-0.000323822,-2.85571e-05,-0.000322352,-0.000878316,-1.51934,0.00051304,0.029787,1910,925,80.0712,-2.29279
693,99,80.1235,2.33478,-0.00147198,-0.000252044,-0.000512689,-6.5199e-05,-0.00165882,-1.22131,0.0010848,0.0337907,1917,925,80.1236,-2.33479
700,99,80.1023,2.37671,0,0,0,0,0,0,0,-1,1924,925,80.1023,-2.37669
707,99,47.9915,3.27429,0,0,0,0,0,0,0,-1,1931,925,47.9914,-3.27427
714,99,74.3445,4.07611,0,0,0,0,0,0,0,-1,1938,925,74.3444,-4.07608
721,99,74.558,5.04559,-0.00341615,0.00202003,-0.0026316,0.00308523,-0.00448136,-1.18618,0.00439329,0.037472,1945,925,74.5579,-5.04561
728,99,74.5167,5.82397,-0.00397618,0.00263877,-0.00281015,0.00367138,-0.00500879,-1.21865,0.00503129,0.0309975,1952,925,74.5167,-5.82399
735,99,74.4384,6.58386,-0.00478248,0.00397997,-0.00292677,0.00486762,-0.00567014,-1.27632,0.00608986,0.0254144,1959,925,74.4384,-6.58384
742,99,74.3582,7.29504,-0.0049055,0.00557412,-0.00315488,0.00645059,-0.00578197,-1.29982,0.00706599,0.0175051,1966,925,74.3581,-7.29505
749,99,74.2582,7.98419,-0.00420205,0.0081415,-0.00319534,0.00891961,-0.00498017,-1.33193,0.00813177,0.0154109,1973,925,74.2582,-7.98421
756,99,74.1633,8.65875,-0.00247192,0.0111944,-0.00252675,0.0116466,-0.00292413,-1.3937,0.0089007,0.015512,1980,925,74.1633,-8.65872
763,99,74.1377,9.36359,1.15207e-06,0.0139301,-0.00132473,0.014055,-0.000123718,-1.47681,0.00941148,0.0195987,1987,925,74.1378,-9.36359
770,99,74.4529,9.96204,0.00316183,0.0159901,0.000310762,0.0159976,0.00315431,1.54659,0.0097846,0.0350821,1994,925,74.4528,-9.96202
777,99,75.3057,9.95789,0.00713566,0.0164094,0.00311933,0.017361,0.00618408,1.27471,0.0101606,0.0435351,2001,925,75.3056,-9.95789
784,99,76.0181,10.2483,0,0,0,0,0,0,0,-1,2008,925,76.018,-10.2483
791,99,75.6309,11.4509,0.0224823,0.00661088,0.0115589,0.0285674,0.000525764,0.484579,0.0188721,0.0445058,2015,925,75.6308,-11.4509
798,99,75.6328,11.8039,0,0,0,0,0,0,0,-1,2022,925,75.6327,-11.8039
805,99,0,0,0,0,0,0,0,0,0,-1,2029,925,0,0
812,99,0,0,0,0,0,0,0,0,0,-1,2036,925,0,0
-700,92,0,0,0,0,0,0,0,0,0,-1,524,932,0,0
-693,92,0,0,0,0,0,0,0,0,0,-1,531,932,0,0
-686,92,-59.9913,8.61615,0,0,0,0,0,0,0,-1,538,932,-59.9913,-8.61614
-679,92,-59.6551,8.78845,0.0649303,0.143468,0.0111389,0.145017,0.063381,1.4326,0.0839467,0.0428266,545,932,-59.655,-8.78845
-672,92,-59.2169,9.25281,0.0531094,0.126775,0.011111,0.128414,0.05147,1.42431,0.0746245,0.0462426,552,932,-59.2169,-9.25281
-665,92,-58.6809,9.84479,0.0422493,0.109909,0.0107351,0.111572,0.0405869,1.41716,0.0652079,0.0478873,559,932,-58.6809,-9.8448
-658,92,-58.4986,10.1044,0,0,0,0,0,0,0,-1,566,932,-58.4986,-10.1044
-651,92,-58.3638,10.0627,0,0,0,0,0,0,0,-1,573,932,-58.3637,-10.0627
-644,92,-58.7994,9.7428,0,0,0,0,0,0,0,-1,580,932,-58.7995,-9.74277
-637,92,-58.8719,9.34991,0.0095496,0.0462058,0.00879965,0.0482088,0.00754661,1.34699,0.0299424,0.0324654,587,932,-58.8719,-9.34992
-630,92,-58.9488,8.73016,0.00485809,0.0331504,0.00817224,0.0353413,0.0026672,1.30887,0.022724,0.0164079,594,932,-58.9488,-8.73017
-623,92,-59.1232,8.0329,0.000731611,0.0213414,0.0075658,0.0238206,-0.00174755,1.25414,0.0164938,0.0111775,601,932,-59.1232,-8.03288
-616,92,-59.1819,7.34064,-0.00119371,0.0114815,0.00691345,0.0145227,-0.00423486,1.15638,0.0113596,0.0105144,608,932,-59.1819,-7.34064
-609,92,-59.2318,6.65387,-0.00111886,0.00510761,0.00616826,0.00890377,-0.00491501,1.01911,0.0080883,0.0100521,615,932,-59.2318,-6.65389
-602,92,-59.215,5.90735,-0.000618174,0.00254668,0.00531122,0.0065062,-0.00457769,0.930181,0.00643149,0.012492,622,932,-59.215,-5.90734
-595,92,-59.1055,5.08435,-0.000406416,0.00132504,0.00454826,0.00508924,-0.00417061,0.879445,0.00535494,0.0264542,629,932,-59.1055,-5.08438
-588,92,-59.0887,4.39038,-0.000195573,0.000628396,0.00385078,0.00408916,-0.00365634,0.838689,0.00447419,0.037096,636,932,-59.0888,-4.3904
-581,92,-59.9205,3.6485,0,0,0,0,0,0,0,-1,643,932,-59.9204,-3.64853
-574,92,-60.9437,2.73474,0,0,0,0,0,0,0,-1,650,932,-60.9436,-2.73475
-567,92,-63.4819,0.375549,0,0,0,0,0,0,0,-1,657,932,-63.4819,-0.375539
-560,92,-63.4236,0.324463,-0.000426032,-0.000988247,0.00118005,0.000505931,-0.00192021,0.668469,0.00147794,0.0396375,664,932,-63.4236,-0.324442
-553,92,-63.5748,0.454956,-0.000914438,-0.000778153,0.000587179,-0.000255175,-0.00143742,0.843165,0.000885559,0.0366515,671,932,-63.5748,-0.454985
-546,92,-63.5614,0.45282,-0.00156243,-0.000109004,-1.51061e-05,-0.000108848,-0.00156259,-1.5604,0.0010074,0.0378199,678,932,-63.5614,-0.452815
-539,92,-63.5247,0.41449,-0.00214616,0.000986784,-0.000637322,0.00111147,-0.00227085,-1.3776,0.00199066,0.0365577,685,932,-63.5247,-0.414479
-532,92,-63.595,0.422791,-0.00248465,0.00234512,-0.00108471,0.00257755,-0.00271708,-1.35971,0.00305721,0.0408979,692,932,-63.595,-0.422782
-525,92,-63.7371,0.53009,-0.00303887,0.00380075,-0.00137369,0.00406633,-0.00330445,-1.37982,0.00426309,0.0405383,699,932,-63.7371,-0.530081
-518,92,-63.7473,0.807922,-0.00380604,0.00526447,-0.00146672,0.00549575,-0.00403732,-1.4144,0.00552534,0.0410895,706,932,-63.7473,-0.807951
-511,92,0,0,0,0,0,0,0,0,0,-1,713,932,0,0
-504,92,0,0,0,0,0,0,0,0,0,-1,720,932,0,0
-497,92,0,0,0,0,0,0,0,0,0,-1,727,932,0,0
-490,92,0,0,0,0,0,0,0,0,0,-1,734,932,0,0
-483,92,0,0,0,0,0,0,0,0,0,-1,741,932,0,0
-476,92,0,0,0,0,0,0,0,0,0,-1,748,932,0,0
-469,92,0,0,0,0,0,0,0,0,0,-1,755,932,0,0
-462,92,0,0,0,0,0,0,0,0,0,-1,762,932,0,0
-455,92,0,0,0,0,0,0,0,0,0,-1,769,932,0,0
-448,92,0,0,0,0,0,0,0,0,0,-1,776,932,0,0
-441,92,0,0,0,0,0,0,0,0,0,-1,783,932,0,0
-434,92,0,0,0,0,0,0,0,0,0,-1,790,932,0,0
-427,92,0,0,0,0,0,0,0,0,0,-1,797,932,0,0
-420,92,0,0,0,0,0,0,0,0,0,-1,804,932,0,0
-413,92,0,0,0,0,0,0,0,0,0,-1,811,932,0,0
-406,92,0,0,0,0,0,0,0,0,0,-1,818,932,0,0
-399,92,0,0,0,0,0,0,0,0,0,-1,825,932,0,0
-392,92,0,0,0,0,0,0,0,0,0,-1,832,932,0,0
-385,92,0,0,0,0,0,0,0,0,0,-1,839,932,0,0
-378,92,0,0,0,0,0,0,0,0,0,-1,846,932,0,0
-371,92,0,0,0,0,0,0,0,0,0,-1,853,932,0,0
-364,92,0,0,0,0,0,0,0,0,0,-1,860,932,0,0
-357,92,0,0,0,0,0,0,0,0,0,-1,867,932,0,0
-350,92,0,0,0,0,0,0,0,0,0,-1,874,932,0,0
-343,92,0,0,0,0,0,0,0,0,0,-1,881,932,0,0
-336,92,0,0,0,0,0,0,0,0,0,-1,888,932,0,0
-329,92,0,0,0,0,0,0,0,0,0,-1,895,932,0,0
-322,92,0,0,0,0,0,0,0,0,0,-1,902,932,0,0
-315,92,0,0,0,0,0,0,0,0,0,-1,909,932,0,0
-308,92,0,0,0,0,0,0,0,0,0,-1,916,932,0,0
-301,92,0,0,0,0,0,0,0,0,0,-1,923,932,0,0
-294,92,0,0,0,0,0,0,0,0,0,-1,930,932,0,0
-287,92,0,0,0,0,0,0,0,0,0,-1,937,932,0,0
-280,92,0,0,0,0,0,0,0,0,0,-1,944,932,0,0
-273,92,0,0,0,0,0,0,0,0,0,-1,951,932,0,0
-266,92,0,0,0,0,0,0,0,0,0,-1,958,932,0,0
-259,92,0,0,0,0,0,0,0,0,0,-1,965,932,0,0
-252,92,0,0,0,0,0,0,0,0,0,-1,972,932,0,0
-245,92,0,0,0,0,0,0,0,0,0,-1,979,932,0,0
-238,92,0,0,0,0,0,0,0,0,0,-1,986,932,0,0
-231,92,0,0,0,0,0,0,0,0,0,-1,993,932,0,0
-224,92,0,0,0,0,0,0,0,0,0,-1,1000,932,0,0
-217,92,0,0,0,0,0,0,0,0,0,-1,1007,932,0,0
-210,92,0,0,0,0,0,0,0,0,0,-1,1014,932,0,0
-203,92,0,0,0,0,0,0,0,0,0,-1,1021,932,0,0
-196,92,0,0,0,0,0,0,0,0,0,-1,1028,932,0,0
-189,92,0,0,0,0,0,0,0,0,0,-1,1035,932,0,0
-182,92,0,0,0,0,0,0,0,0,0,-1,1042,932,0,0
-175,92,0,0,0,0,0,0,0,0,0,-1,1049,932,0,0
-168,92,0,0,0,0,0,0,0,0,0,-1,1056,932,0,0
-161,92,0,0,0,0,0,0,0,0,0,-1,1063,932,0,0
-154,92,0,0,0,0,0,0,0,0,0,-1,1070,932,0,0
-147,92,0,0,0,0,0,0,0,0,0,-1,1077,932,0,0
-140,92,0,0,0,0,0,0,0,0,0,-1,1084,932,0,0
-133,92,0,0,0,0,0,0,0,0,0,-1,1091,932,0,0
-126,92,0,0,0,0,0,0,0,0,0,-1,1098,932,0,0
-119,92,0,0,0,0,0,0,0,0,0,-1,1105,932,0,0
-112,92,0,0,0,0,0,0,0,0,0,-1,1112,932,0,0
-105,92,0,0,0,0,0,0,0,0,0,-1,1119,932,0,0
-98,92,0,0,0,0,0,0,0,0,0,-1,1126,932,0,0
-91,92,0,0,0,0,0,0,0,0,0,-1,1133,932,0,0
-84,92,0,0,0,0,0,0,0,0,0,-1,1140,932,0,0
-77,92,0,0,0,0,0,0,0,0,0,-1,1147,932,0,0
-70,92,0,0,0,0,0,0,0,0,0,-1,1154,932,0,0
-63,92,0,0,0,0,0,0,0,0,0,-1,1161,932,0,0
-56,92,0,0,0,0,0,0,0,0,0,-1,1168,932,0,0
-49,92,0,0,0,0,0,0,0,0,0,-1,1175,932,0,0
-42,92,0,0,0,0,0,0,0,0,0,-1,1182,932,0,0
-35,92,0,0,0,0,0,0,0,0,0,-1,1189,932,0,0
-28,92,0,0,0,0,0,0,0,0,0,-1,1196,932,0,0
-21,92,0,0,0,0,0,0,0,0,0,-1,1203,932,0,0
-14,92,0,0,0,0,0,0,0,0,0,-1,1210,932,0,0
-7,92,0,0,0,0,0,0,0,0,0,-1,1217,932,0,0
0,92,0,0,0,0,0,0,0,0,0,-1,1224,932,0,0
7,92,0,0,0,0,0,0,0,0,0,-1,1231,932,0,0
14,92,0,0,0,0,0,0,0,0,0,-1,1238,932,0,0
21,92,0,0,0,0,0,0,0,0,0,-1,1245,932,0,0
28,92,0,0,0,0,0,0,0,0,0,-1,1252,932,0,0
35,92,0,0,0,0,0,0,0,0,0,-1,1259,932,0,0
42,92,0,0,0,0,0,0,0,0,0,-1,1266,932,0,0
49,92,0,0,0,0,0,0,0,0,0,-1,1273,932,0,0
56,92,0,0,0,0,0,0,0,0,0,-1,1280,932,0,0
63,92,0,0,0,0,0,0,0,0,0,-1,1287,932,0,0
70,92,0,0,0,0,0,0,0,0,0,-1,1294,932,0,0
77,92,0,0,0,0,0,0,0,0,0,-1,1301,932,0,0
84,92,0,0,0,0,0,0,0,0,0,-1,1308,932,0,0
91,92,0,0,0,0,0,0,0,0,0,-1,1315,932,0,0
98,92,0,0,0,0,0,0,0,0,0,-1,1322,932,0,0
105,92,0,0,0,0,0,0,0,0,0,-1,1329,932,0,0
112,92,0,0,0,0,0,0,0,0,0,-1,1336,932,0,0
119,92,0,0,0,0,0,0,0,0,0,-1,1343,932,0,0
126,92,0,0,0,0,0,0,0,0,0,-1,1350,932,0,0
133,92,0,0,0,0,0,0,0,0,0,-1,1357,932,0,0
140,92,0,0,0,0,0,0,0,0,0,-1,1364,932,0,0
147,92,0,0,0,0,0,0,0,0,0,-1,1371,932,0,0
154,92,0,0,0,0,0,0,0,0,0,-1,1378,932,0,0
161,92,0,0,0,0,0,0,0,0,0,-1,1385,932,0,0
168,92,0,0,0,0,0,0,0,0,0,-1,1392,932,0,0
175,92,0,0,0,0,0,0,0,0,0,-1,1399,932,0,0
182,92,0,0,0,0,0,0,0,0,0,-1,1406,932,0,0
189,92,0,0,0,0,0,0,0,0,0,-1,1413,932,0,0
196,92,0,0,0,0,0,0,0,0,0,-1,1420,932,0,0
203,92,0,0,0,0,0,0,0,0,0,-1,1427,932,0,0
210,92,0,0,0,0,0,0,0,0,0,-1,1434,932,0,0
217,92,0,0,0,0,0,0,0,0,0,-1,1441,932,0,0
224,92,0,0,0,0,0,0,0,0,0,-1,1448,932,0,0
231,92,0,0,0,0,0,0,0,0,0,-1,1455,932,0,0
238,92,0,0,0,0,0,0,0,0,0,-1,1462,932,0,0
245,92,0,0,0,0,0,0,0,0,0,-1,1469,932,0,0
252,92,0,0,0,0,0,0,0,0,0,-1,1476,932,0,0
259,92,0,0,0,0,0,0,0,0,0,-1,1483,932,0,0
266,92,0,0,0,0,0,0,0,0,0,-1,1490,932,0,0
273,92,0,0,0,0,0,0,0,0,0,-1,1497,932,0,0
280,92,0,0,0,0,0,0,0,0,0,-1,1504,932,0,0
287,92,0,0,0,0,0,0,0,0,0,-1,1511,932,0,0
294,92,0,0,0,0,0,0,0,0,0,-1,1518,932,0,0
301,92,0,0,0,0,0,0,0,0,0,-1,1525,932,0,0
308,92,0,0,0,0,0,0,0,0,0,-1,1532,932,0,0
315,92,0,0,0,0,0,0,0,0,0,-1,1539,932,0,0
322,92,0,0,0,0,0,0,0,0,0,-1,1546,932,0,0
329,92,0,0,0,0,0,0,0,0,0,-1,1553,932,0,0
336,92,0,0,0,0,0,0,0,0,0,-1,1560,932,0,0
343,92,0,0,0,0,0,0,0,0,0,-1,1567,932,0,0
350,92,0,0,0,0,0,0,0,0,0,-1,1574,932,0,0
357,92,0,0,0,0,0,0,0,0,0,-1,1581,932,0,0
364,92,0,0,0,0,0,0,0,0,0,-1,1588,932,0,0
371,92,0,0,0,0,0,0,0,0,0,-1,1595,932,0,0
378,92,0,0,0,0,0,0,0,0,0,-1,1602,932,0,0
385,92,0,0,0,0,0,0,0,0,0,-1,1609,932,0,0
392,92,0,0,0,0,0,0,0,0,0,-1,1616,932,0,0
399,92,0,0,0,0,0,0,0,0,0,-1,1623,932,0,0
406,92,0,0,0,0,0,0,0,0,0,-1,1630,932,0,0
413,92,0,0,0,0,0,0,0,0,0,-1,1637,932,0,0
420,92,0,0,0,0,0,0,0,0,0,-1,1644,932,0,0
427,92,0,0,0,0,0,0,0,0,0,-1,1651,932,0,0
434,92,0,0,0,0,0,0,0,0,0,-1,1658,932,0,0
441,92,0,0,0,0,0,0,0,0,0,-1,1665,932,0,0
448,92,0,0,0,0,0,0,0,0,0,-1,1672,932,0,0
455,92,0,0,0,0,0,0,0,0,0,-1,1679,932,0,0
462,92,0,0,0,0,0,0,0,0,0,-1,1686,932,0,0
469,92,0,0,0,0,0,0,0,0,0,-1,1693,932,0,0
476,92,0,0,0,0,0,0,0,0,0,-1,1700,932,0,0
483,92,0,0,0,0,0,0,0,0,0,-1,1707,932,0,0
490,92,0,0,0,0,0,0,0,0,0,-1,1714,932,0,0
497,92,0,0,0,0,0,0,0,0,0,-1,1721,932,0,0
504,92,0,0,0,0,0,0,0,0,0,-1,1728,932,0,0
511,92,0,0,0,0,0,0,0,0,0,-1,1735,932,0,0
518,92,0,0,0,0,0,0,0,0,0,-1,1742,932,0,0
525,92,0,0,0,0,0,0,0,0,0,-1,1749,932,0,0
532,92,0,0,0,0,0,0,0,0,0,-1,1756,932,0,0
539,92,0,0,0,0,0,0,0,0,0,-1,1763,932,0,0
546,92,0,0,0,0,0,0,0,0,0,-1,1770,932,0,0
553,92,0,0,0,0,0,0,0,0,0,-1,1777,932,0,0
560,92,0,0,0,0,0,0,0,0,0,-1,1784,932,0,0
567,92,0,0,0,0,0,0,0,0,0,-1,1791,932,0,0
574,92,0,0,0,0,0,0,0,0,0,-1,1798,932,0,0
581,92,0,0,0,0,0,0,0,0,0,-1,1805,932,0,0
588,92,0,0,0,0,0,0,0,0,0,-1,1812,932,0,0
595,92,0,0,0,0,0,0,0,0,0,-1,1819,932,0,0
602,92,0,0,0,0,0,0,0,0,0,-1,1826,932,0,0
609,92,0,0,0,0,0,0,0,0,0,-1,1833,932,0,0
616,92,0,0,0,0,0,0,0,0,0,-1,1840,932,0,0
623,92,0,0,0,0,0,0,0,0,0,-1,1847,932,0,0
630,92,0,0,0,0,0,0,0,0,0,-1,1854,932,0,0
637,92,80.1954,2.21161,0.00681907,2.95891e-06,0.00359701,0.00836614,-0.00154411,0.406182,0.00615702,0.0462763,1861,932,80.1955,-2.2116
644,92,80.274,2.25702,0.00446882,-7.26375e-05,0.00294265,0.005915,-0.00151881,0.456788,0.00453519,0.0396581,1868,932,80.274,-2.25703
651,92,80.1265,2.26068,0.00283324,-0.0001302,0.00232423,0.00410788,-0.00140485,0.501626,0.00330785,0.0399151,1875,932,80.1265,-2.26068
658,92,80.0013,2.26428,0.00171622,-5.76887e-05,0.00172239,0.00276662,-0.00110808,0.547628,0.00230436,0.0405881,1882,932,80.0013,-2.26426
665,92,79.9418,2.3443,0.00108641,0.000154091,0.00109415,0.00180957,-0.000569066,0.58402,0.00143421,0.0400597,1889,932,79.9417,-2.34433
672,92,79.9681,2.367,0.000450434,0.000112314,0.000683978,0.000985936,-0.000423188,0.664241,0.000834903,0.0396432,1896,932,79.9682,-2.36698
679,92,80.0925,2.26147,-9.47834e-05,-0.00019211,0.000474799,0.000333839,-0.000620733,0.73433,0.000559358,0.0380428,1903,932,80.0925,-2.26146
686,92,80.0978,2.17328,-0.000513801,-0.000367019,7.44426e-05,-0.000335874,-0.000544947,1.17454,0.000317451,0.0308856,1910,932,80.0978,-2.17326
693,92,80.1512,2.33173,-0.00114332,-0.00037509,-0.000432614,-0.000180673,-0.00133774,-1.14844,0.000838117,0.026687,1917,932,80.1512,-2.33174
700,92,80.1202,2.41779,0,0,0,0,0,0,0,-1,1924,932,80.1202,-2.41776
707,92,32.9893,3.26874,0,0,0,0,0,0,0,-1,1931,932,32.9893,-3.26874
714,92,75.7368,4.40283,0,0,0,0,0,0,0,-1,1938,932,75.7368,-4.4028
721,92,75.4952,5.23566,-0.00342826,0.00188605,-0.00254947,0.00291132,-0.00445353,-1.18844,0.00428306,0.0370863,1945,932,75.4953,-5.23567
728,92,75.2355,5.94647,-0.0040026,0.00254745,-0.00267007,0.00349795,-0.00495311,-1.2288,0.00490327,0.0304192,1952,932,75.2355,-5.94646
735,92,75.1857,6.63336,-0.00490281,0.0040037,-0.00277483,0.00479746,-0.00569657,-1.29218,0.00606614,0.0240705,1959,932,75.1857,-6.63338
742,92,75.197,7.27985,-0.00519527,0.00566513,-0.00305085,0.00646347,-0.00599362,-1.31486,0.00719381,0.0244111,1966,932,75.197,-7.27982
749,92,75.0796,7.96582,-0.00479147,0.00839113,-0.00325335,0.00915031,-0.00555064,-1.34155,0.00857199,0.0215389,1973,932,75.0796,-7.96583
756,92,74.9329,8.6131,-0.00345146,0.0118305,-0.00278912,0.0123236,-0.00394459,-1.3958,0.00979892,0.0169064,1980,932,74.9328,-8.61308
763,92,74.9204,9.27277,-0.00131735,0.01523,-0.00174423,0.0154118,-0.00149921,-1.46691,0.010809,0.0190983,1987,932,74.9204,-9.27277
770,92,74.9583,9.90094,0.00137483,0.0180874,-0.000288732,0.0180924,0.00136984,-1.55353,0.0116319,0.0294166,1994,932,74.9584,-9.90091
777,92,75.3052,10.5381,0.00452175,0.0198506,0.0021845,0.0201558,0.00421652,1.43197,0.0122755,0.0469947,2001,932,75.3051,-10.5382
784,92,75.6917,11.3458,0,0,0,0,0,0,0,-1,2008,932,75.6917,-11.3458
791,92,76.0249,12.1171,0,0,0,0,0,0,0,-1,2015,932,76.025,-12.1171
798,92,76.1191,12.6068,0,0,0,0,0,0,0,-1,2022,932,76.119,-12.6067
805,92,0,0,0,0,0,0,0,0,0,-1,2029,932,0,0
812,92,0,0,0,0,0,0,0,0,0,-1,2036,932,0,0
-700,85,0,0,0,0,0,0,0,0,0,-1,524,939,0,0
-693,85,0,0,0,0,0,0,0,0,0,-1,531,939,0,0
-686,85,-59.6408,7.67725,0,0,0,0,0,0,0,-1,538,939,-59.6408,-7.67722
-679,85,-59.3122,7.95203,0.0616536,0.142879,0.00585643,0.143299,0.0612335,1.49919,0.0830244,0.0444982,545,939,-59.3122,-7.952
-672,85,-58.9819,8.30292,0.0515954,0.126378,0.00758233,0.127139,0.0508344,1.47076,0.073893,0.0429606,552,939,-58.9819,-8.30292
-665,85,-58.5912,8.72552,0.0414844,0.109457,0.00819586,0.110431,0.0405101,1.45248,0.0645068,0.0441147,559,939,-58.5912,-8.7255
-658,85,-58.3745,8.90198,0,0,0,0,0,0,0,-1,566,939,-58.3745,-8.90199
-651,85,-58.5191,9.10278,0,0,0,0,0,0,0,-1,573,939,-58.5191,-9.1028
-644,85,-59.6072,9.13635,0,0,0,0,0,0,0,-1,580,939,-59.6072,-9.13633
-637,85,-60.2039,9.13995,0.0102675,0.0459906,0.00798203,0.047693,0.00856512,1.36067,0.0293597,0.0397051,587,939,-60.2039,-9.13996
-630,85,-59.7659,8.60925,0.00573423,0.0329852,0.00757332,0.0349485,0.00377097,1.31715,0.0221492,0.0171248,594,939,-59.7658,-8.60924
-623,85,-59.8968,7.96307,0.00179724,0.0212803,0.00715016,0.0236227,-0.000545193,1.25421,0.0159333,0.0107579,601,939,-59.8968,-7.96307
-616,85,-59.9418,7.31757,-0.000106793,0.0116138,0.00669973,0.0146546,-0.00314759,1.14473,0.0109705,0.0112269,608,939,-59.9418,-7.31757
-609,85,-59.9865,6.63928,-0.000232412,0.00526407,0.00610271,0.0092088,-0.00417714,0.996963,0.00790828,0.0139549,615,939,-59.9865,-6.63927
-602,85,-60.0173,5.93823,0.000147098,0.00266445,0.00530554,0.00685857,-0.00404703,0.901864,0.00636572,0.0187046,622,939,-60.0173,-5.93823
-595,85,-59.9231,5.24933,0.000279951,0.00134742,0.00455991,0.00540473,-0.00377735,0.843658,0.00532896,0.0222215,629,939,-59.9231,-5.24935
-588,85,-59.8481,4.52197,0.000432872,0.000538782,0.00388808,0.00437427,-0.00340261,0.792208,0.00450165,0.0290255,636,939,-59.8481,-4.522
-581,85,-59.7938,3.70715,0,0,0,0,0,0,0,-1,643,939,-59.7938,-3.70715
-574,85,-57.1787,1.97198,0,0,0,0,0,0,0,-1,650,939,-57.1787,-1.97196
-567,85,-63.4801,0.419861,0,0,0,0,0,0,0,-1,657,939,-63.4801,-0.419889
-560,85,-63.4092,0.366455,1.75618e-05,-0.000837905,0.00101859,0.000694587,-0.00151493,0.586616,0.00130464,0.0361278,664,939,-63.4093,-0.36646
-553,85,-63.48,0.240723,-0.000476965,-0.000384388,0.000341697,-8.58585e-05,-0.000775494,0.852721,0.000490886,0.0403777,671,939,-63.48,-0.240753
-546,85,-63.5376,0.312073,-0.00103139,0.000508817,-0.000365702,0.000591238,-0.00111381,-1.34912,0.000999702,0.0389239,678,939,-63.5376,-0.312082
-539,85,-63.5541,0.421387,-0.00151143,0.00175049,-0.00112788,0.00210249,-0.00186343,-1.26828,0.00229111,0.0364589,685,939,-63.5541,-0.421416
-532,85,-63.5492,0.328918,-0.00179573,0.00313243,-0.00177692,0.0037063,-0.0023696,-1.25841,0.00353611,0.0402542,692,939,-63.5492,-0.328941
-525,85,-63.5333,0.336548,-0.00222527,0.00461805,-0.00232615,0.00533387,-0.00294109,-1.27227,0.00484367,0.039485,699,939,-63.5333,-0.336526
-518,85,-63.5651,0.535034,-0.00295033,0.00621795,-0.00261796,0.00691283,-0.00364521,-1.31135,0.00619223,0.039187,706,939,-63.5651,-0.535034
-511,85,0,0,0,0,0,0,0,0,0,-1,713,939,0,0
-504,85,0,0,0,0,0,0,0,0,0,-1,720,939,0,0
-497,85,0,0,0,0,0,0,0,0,0,-1,727,939,0,0
-490,85,0,0,0,0,0,0,0,0,0,-1,734,939,0,0
-483,85,0,0,0,0,0,0,0,0,0,-1,741,939,0,0
-476,85,0,0,0,0,0,0,0,0,0,-1,748,939,0,0
-469,85,0,0,0,0,0,0,0,0,0,-1,755,939,0,0
-462,85,0,0,0,0,0,0,0,0,0,-1,762,939,0,0
-455,85,0,0,0,0,0,0,0,0,0,-1,769,939,0,0
-448,85,0,0,0,0,0,0,0,0,0,-1,776,939,0,0
-441,85,0,0,0,0,0,0,0,0,0,-1,783,939,0,0
-434,85,0,0,0,0,0,0,0,0,0,-1,790,939,0,0
-427,85,0,0,0,0,0,0,0,0,0,-1,797,939,0,0
-420,85,0,0,0,0,0,0,0,0,0,-1,804,939,0,0
-413,85,0,0,0,0,0,0,0,0,0,-1,811,939,0,0
-406,85,0,0,0,0,0,0,0,0,0,-1,818,939,0,0
-399,85,0,0,0,0,0,0,0,0,0,-1,825,939,0,0
-392,85,0,0,0,0,0,0,0,0,0,-1,832,939,0,0
-385,85,0,0,0,0,0,0,0,0,0,-1,839,939,0,0
-378,85,0,0,0,0,0,0,0,0,0,-1,846,939,0,0
-371,85,0,0,0,0,0,0,0,0,0,-1,853,939,0,0
-364,85,0,0,0,0,0,0,0,0,0,-1,860,939,0,0
-357,85,0,0,0,0,0,0,0,0,0,-1,867,939,0,0
-350,85,0,0,0,0,0,0,0,0,0,-1,874,939,0,0
-343,85,0,0,0,0,0,0,0,0,0,-1,881,939,0,0
-336,85,0,0,0,0,0,0,0,0,0,-1,888,939,0,0
-329,85,0,0,0,0,0,0,0,0,0,-1,895,939,0,0
-322,85,0,0,0,0,0,0,0,0,0,-1,902,939,0,0
-315,85,0,0,0,0,0,0,0,0,0,-1,909,939,0,0
-308,85,0,0,0,0,0,0,0,0,0,-1,916,939,0,0
-301,85,0,0,0,0,0,0,0,0,0,-1,923,939,0,0
-294,85,0,0,0,0,0,0,0,0,0,-1,930,939,0,0
-287,85,0,0,0,0,0,0,0,0,0,-1,937,939,0,0
-280,85,0,0,0,0,0,0,0,0,0,-1,944,939,0,0
-273,85,0,0,0,0,0,0,0,0,0,-1,951,939,0,0
-266,85,0,0,0,0,0,0,0,0,0,-1,958,939,0,0
-259,85,0,0,0,0,0,0,0,0,0,-1,965,939,0,0
-252,85,0,0,0,0,0,0,0,0,0,-1,972,939,0,0
-245,85,0,0,0,0,0,0,0,0,0,-1,979,939,0,0
-238,85,0,0,0,0,0,0,0,0,0,-1,986,939,0,0
-231,85,0,0,0,0,0,0,0,0,0,-1,993,939,0,0
-224,85,0,0,0,0,0,0,0,0,0,-1,1000,939,0,0
-217,85,0,0,0,0,0,0,0,0,0,-1,1007,939,0,0
-210,85,0,0,0,0,0,0,0,0,0,-1,1014,939,0,0
-203,85,0,0,0,0,0,0,0,0,0,-1,1021,939,0,0
-196,85,0,0,0,0,0,0,0,0,0,-1,1028,939,0,0
-189,85,0,0,0,0,0,0,0,0,0,-1,1035,939,0,0
-182,85,0,0,0,0,0,0,0,0,0,-1,1042,939,0,0
-175,85,0,0,0,0,0,0,0,0,0,-1,1049,939,0,0
-168,85,0,0,0,0,0,0,0,0,0,-1,1056,939,0,0
-161,85,0,0,0,0,0,0,0,0,0,-1,1063,939,0,0
-154,85,0,0,0,0,0,0,0,0,0,-1,1070,939,0,0
-147,85,0,0,0,0,0,0,0,0,0,-1,1077,939,0,0
-140,85,0,0,0,0,0,0,0,0,0,-1,1084,939,0,0
-133,85,0,0,0,0,0,0,0,0,0,-1,1091,939,0,0
-126,85,0,0,0,0,0,0,0,0,0,-1,1098,939,0,0
-119,85,0,0,0,0,0,0,0,0,0,-1,1105,939,0,0
-112,85,0,0,0,0,0,0,0,0,0,-1,1112,939,0,0
-105,85,0,0,0,0,0,0,0,0,0,-1,1119,939,0,0
-98,85,0,0,0,0,0,0,0,0,0,-1,1126,939,0,0
-91,85,0,0,0,0,0,0,0,0,0,-1,1133,939,0,0
-84,85,0,0,0,0,0,0,0,0,0,-1,1140,939,0,0
-77,85,0,0,0,0,0,0,0,0,0,-1,1147,939,0,0
-70,85,0,0,0,0,0,0,0,0,0,-1,1154,939,0,0
-63,85,0,0,0,0,0,0,0,0,0,-1,1161,939,0,0
-56,85,0,0,0,0,0,0,0,0,0,-1,1168,939,0,0
-49,85,0,0,0,0,0,0,0,0,0,-1,1175,939,0,0
-42,85,0,0,0,0,0,0,0,0,0,-1,1182,939,0,0
-35,85,0,0,0,0,0,0,0,0,0,-1,1189,939,0,0
-28,85,0,0,0,0,0,0,0,0,0,-1,1196,939,0,0
-21,85,0,0,0,0,0,0,0,0,0,-1,1203,939,0,0
-14,85,0,0,0,0,0,0,0,0,0,-1,1210,939,0,0
-7,85,0,0,0,0,0,0,0,0,0,-1,1217,939,0,0
0,85,0,0,0,0,0,0,0,0,0,-1,1224,939,0,0
7,85,0,0,0,0,0,0,0,0,0,-1,1231,939,0,0
14,85,0,0,0,0,0,0,0,0,0,-1,1238,939,0,0
21,85,0,0,0,0,0,0,0,0,0,-1,1245,939,0,0
28,85,0,0,0,0,0,0,0,0,0,-1,1252,939,0,0
35,85,0,0,0,0,0,0,0,0,0,-1,1259,939,0,0
42,85,0,0,0,0,0,0,0,0,0,-1,1266,939,0,0
49,85,0,0,0,0,0,0,0,0,0,-1,1273,939,0,0
56,85,0,0,0,0,0,0,0,0,0,-1,1280,939,0,0
63,85,0,0,0,0,0,0,0,0,0,-1,1287,939,0,0
70,85,0,0,0,0,0,0,0,0,0,-1,1294,939,0,0
77,85,0,0,0,0,0,0,0,0,0,-1,1301,939,0,0
84,85,0,0,0,0,0,0,0,0,0,-1,1308,939,0,0
91,85,0,0,0,0,0,0,0,0,0,-1,1315,939,0,0
98,85,0,0,0,0,0,0,0,0,0,-1,1322,939,0,0
105,85,0,0,0,0,0,0,0,0,0,-1,1329,939,0,0
112,85,0,0,0,0,0,0,0,0,0,-1,1336,939,0,0
119,85,0,0,0,0,0,0,0,0,0,-1,1343,939,0,0
126,85,0,0,0,0,0,0,0,0,0,-1,1350,939,0,0
133,85,0,0,0,0,0,0,0,0,0,-1,1357,939,0,0
140,85,0,0,0,0,0,0,0,0,0,-1,1364,939,0,0
147,85,0,0,0,0,0,0,0,0,0,-1,1371,939,0,0
154,85,0,0,0,0,0,0,0,0,0,-1,1378,939,0,0
161,85,0,0,0,0,0,0,0,0,0,-1,1385,939,0,0
168,85,0,0,0,0,0,0,0,0,0,-1,1392,939,0,0
175,85,0,0,0,0,0,0,0,0,0,-1,1399,939,0,0
182,85,0,0,0,0,0,0,0,0,0,-1,1406,939,0,0
189,85,0,0,0,0,0,0,0,0,0,-1,1413,939,0,0
196,85,0,0,0,0,0,0,0,0,0,-1,1420,939,0,0
203,85,0,0,0,0,0,0,0,0,0,-1,1427,939,0,0
210,85,0,0,0,0,0,0,0,0,0,-1,1434,939,0,0
217,85,0,0,0,0,0,0,0,0,0,-1,1441,939,0,0
224,85,0,0,0,0,0,0,0,0,0,-1,1448,939,0,0
231,85,0,0,0,0,0,0,0,0,0,-1,1455,939,0,0
238,85,0,0,0,0,0,0,0,0,0,-1,1462,939,0,0
245,85,0,0,0,0,0,0,0,0,0,-1,1469,939,0,0
252,85,0,0,0,0,0,0,0,0,0,-1,1476,939,0,0
259,85,0,0,0,0,0,0,0,0,0,-1,1483,939,0,0
266,85,0,0,0,0,0,0,0,0,0,-1,1490,939,0,0
273,85,0,0,0,0,0,0,0,0,0,-1,1497,939,0,0
280,85,0,0,0,0,0,0,0,0,0,-1,1504,939,0,0
287,85,0,0,0,0,0,0,0,0,0,-1,1511,939,0,0
294,85,0,0,0,0,0,0,0,0,0,-1,1518,939,0,0
301,85,0,0,0,0,0,0,0,0,0,-1,1525,939,0,0
308,85,0,0,0,0,0,0,0,0,0,-1,1532,939,0,0
315,85,0,0,0,0,0,0,0,0,0,-1,1539,939,0,0
322,85,0,0,0,0,0,0,0,0,0,-1,1546,939,0,0
329,85,0,0,0,0,0,0,0,0,0,-1,1553,939,0,0
336,85,0,0,0,0,0,0,0,0,0,-1,1560,939,0,0
343,85,0,0,0,0,0,0,0,0,0,-1,1567,939,0,0
350,85,0,0,0,0,0,0,0,0,0,-1,1574,939,0,0
357,85,0,0,0,0,0,0,0,0,0,-1,1581,939,0,0
364,85,0,0,0,0,0,0,0,0,0,-1,1588,939,0,0
371,85,0,0,0,0,0,0,0,0,0,-1,1595,939,0,0
378,85,0,0,0,0,0,0,0,0,0,-1,1602,939,0,0
385,85,0,0,0,0,0,0,0,0,0,-1,1609,939,0,0
392,85,0,0,0,0,0,0,0,0,0,-1,1616,939,0,0
399,85,0,0,0,0,0,0,0,0,0,-1,1623,939,0,0
406,85,0,0,0,0,0,0,0,0,0,-1,1630,939,0,0
413,85,0,0,0,0,0,0,0,0,0,-1,1637,939,0,0
420,85,0,0,0,0,0,0,0,0,0,-1,1644,939,0,0
427,85,0,0,0,0,0,0,0,0,0,-1,1651,939,0,0
434,85,0,0,0,0,0,0,0,0,0,-1,1658,939,0,0
441,85,0,0,0,0,0,0,0,0,0,-1,1665,939,0,0
448,85,0,0,0,0,0,0,0,0,0,-1,1672,939,0,0
455,85,0,0,0,0,0,0,0,0,0,-1,1679,939,0,0
462,85,0,0,0,0,0,0,0,0,0,-1,1686,939,0,0
469,85,0,0,0,0,0,0,0,0,0,-1,1693,939,0,0
476,85,0,0,0,0,0,0,0,0,0,-1,1700,939,0,0
483,85,0,0,0,0,0,0,0,0,0,-1,1707,939,0,0
490,85,0,0,0,0,0,0,0,0,0,-1,1714,939,0,0
497,85,0,0,0,0,0,0,0,0,0,-1,1721,939,0,0
504,85,0,0,0,0,0,0,0,0,0,-1,1728,939,0,0
511,85,0,0,0,0,0,0,0,0,0,-1,1735,939,0,0
518,85,0,0,0,0,0,0,0,0,0,-1,1742,939,0,0
525,85,0,0,0,0,0,0,0,0,0,-1,1749,939,0,0
532,85,0,0,0,0,0,0,0,0,0,-1,1756,939,0,0
539,85,0,0,0,0,0,0,0,0,0,-1,1763,939,0,0
546,85,0,0,0,0,0,0,0,0,0,-1,1770,939,0,0
553,85,0,0,0,0,0,0,0,0,0,-1,1777,939,0,0
560,85,0,0,0,0,0,0,0,0,0,-1,1784,939,0,0
567,85,0,0,0,0,0,0,0,0,0,-1,1791,939,0,0
574,85,0,0,0,0,0,0,0,0,0,-1,1798,939,0,0
581,85,0,0,0,0,0,0,0,0,0,-1,1805,939,0,0
588,85,0,0,0,0,0,0,0,0,0,-1,1812,939,0,0
595,85,0,0,0,0,0,0,0,0,0,-1,1819,939,0,0
602,85,0,0,0,0,0,0,0,0,0,-1,1826,939,0,0
609,85,0,0,0,0,0,0,0,0,0,-1,1833,939,0,0
616,85,0,0,0,0,0,0,0,0,0,-1,1840,939,0,0
623,85,0,0,0,0,0,0,0,0,0,-1,1847,939,0,0
630,85,0,0,0,0,0,0,0,0,0,-1,1854,939,0,0
637,85,79.9814,1.88214,0,0,0,0,0,0,0,-1,1861,939,79.9815,-1.88217
644,85,80.1353,1.92303,0.00493443,-1.35176e-05,0.00406007,0.0072149,-0.00229398,0.511768,0.00572976,0.0428431,1868,939,80.1352,-1.92302
651,85,80.2208,1.97601,0.0032221,-0.00012709,0.00312621,0.00509398,-0.00199897,0.539514,0.00422307,0.0410948,1875,939,80.2208,-1.97601
658,85,80.0455,2.20923,0.00208219,-7.03989e-05,0.0023006,0.00354581,-0.00153402,0.566607,0.00300854,0.040697,1882,939,80.0455,-2.20923
665,85,79.799,2.42834,0.00140549,0.000102893,0.00148967,0.00238002,-0.000871636,0.579315,0.00194351,0.0423238,1889,939,79.799,-2.42837
672,85,79.8444,2.46191,0.000670561,4.35571e-05,0.000958333,0.00136537,-0.00065125,0.627318,0.00118838,0.0427376,1896,939,79.8444,-2.46194
679,85,80.1062,2.24329,3.38136e-05,-0.000318067,0.00071765,0.000596775,-0.000881029,0.665188,0.000858456,0.0417852,1903,939,80.1062,-2.2433
686,85,80.1191,2.13397,-0.000417317,-0.000583925,0.000315622,-0.00017419,-0.000827052,0.656373,0.000503451,0.0369895,1910,939,80.1191,-2.13399
693,85,80.0969,2.30048,-0.001094,-0.000672412,-0.000186921,-0.000601473,-0.00116494,-1.20808,0.000672699,0.0305966,1917,939,80.097,-2.30048
700,85,80.1395,2.39215,-0.00203122,-0.000507786,-0.000671233,-0.000254236,-0.00228477,-1.20963,0.0014459,0.0429872,1924,939,80.1396,-2.39215
707,85,80.2598,2.39105,0,0,0,0,0,0,0,-1,1931,939,80.2598,-2.39105
714,85,76.5873,4.54126,0,0,0,0,0,0,0,-1,1938,939,76.5873,-4.54123
721,85,76.243,5.34106,-0.00370913,0.00159771,-0.00224057,0.00241716,-0.00452858,-1.22018,0.00407141,0.0355185,1945,939,76.2431,-5.34108
728,85,75.9374,6.20349,-0.0043105,0.00236629,-0.00230172,0.00308287,-0.00502707,-1.26898,0.00472692,0.0413342,1952,939,75.9374,-6.20348
735,85,75.9435,6.7406,-0.0052583,0.00400716,-0.00238151,0.00458344,-0.00583458,-1.33338,0.00602928,0.0391036,1959,939,75.9435,-6.74061
742,85,75.9884,7.32605,-0.00565936,0.00580036,-0.00267617,0.00639451,-0.00625351,-1.35232,0.00730249,0.024416,1966,939,75.9884,-7.32605
749,85,75.8538,7.96094,-0.0055202,0.00877284,-0.00300262,0.009378,-0.00612536,-1.37192,0.00901629,0.0161527,1973,939,75.8537,-7.96094
756,85,75.6707,8.57001,-0.00461619,0.0127491,-0.00273622,0.01317,-0.00503713,-1.41815,0.0108558,0.0138172,1980,939,75.6707,-8.57003
763,85,75.5972,9.15399,-0.0029406,0.0170518,-0.00185624,0.0172226,-0.00311149,-1.47899,0.0126472,0.0142732,1987,939,75.5971,-9.154
770,85,75.4963,9.73181,-0.00082741,0.0210051,-0.000585437,0.0210208,-0.000843097,-1.54401,0.0143032,0.0212948,1994,939,75.4963,-9.73181
777,85,75.4768,10.5405,0.00143618,0.0243786,0.00152378,0.0244793,0.00133542,1.50477,0.0158931,0.0452602,2001,939,75.4767,-10.5405
784,85,76.1855,11.4767,0,0,0,0,0,0,0,-1,2008,939,76.1857,-11.4767
791,85,76.5981,12.6173,0,0,0,0,0,0,0,-1,2015,939,76.5982,-12.6173
798,85,75.4956,11.9659,0,0,0,0,0,0,0,-1,2022,939,75.4955,-11.966
805,85,67.4045,8.44751,0,0,0,0,0,0,0,-1,2029,939,67.4046,-8.4475
812,85,0,0,0,0,0,0,0,0,0,-1,2036,939,0,0
-700,78,0,0,0,0,0,0,0,0,0,-1,524,946,0,0
-693,78,0,0,0,0,0,0,0,0,0,-1,531,946,0,0
-686,78,-59.2881,6.86987,0,0,0,0,0,0,0,-1,538,946,-59.2881,-6.86987
-679,78,-58.922,7.24091,0.0564744,0.141839,0.00186557,0.14188,0.0564336,1.54896,0.0824832,0.0494239,545,946,-58.922,-7.24093
-672,78,-58.5675,7.63623,0.0480904,0.125792,0.00466848,0.126072,0.0478109,1.511,0.0734917,0.0442012,552,946,-58.5675,-7.63621
-665,78,-58.3835,7.82446,0.038886,0.108894,0.00597677,0.109401,0.0383794,1.48624,0.0640929,0.0426855,559,946,-58.3835,-7.82444
-658,78,-58.2188,7.96997,0,0,0,0,0,0,0,-1,566,946,-58.2188,-7.96998
-651,78,-57.2355,9.40192,0,0,0,0,0,0,0,-1,573,946,-57.2355,-9.40191
-644,78,-61.9938,9.93811,0,0,0,0,0,0,0,-1,580,946,-61.9938,-9.93809
-637,78,-61.1037,9.23096,0.00973165,0.0455948,0.0071409,0.0469644,0.00836209,1.38131,0.0289279,0.039082,587,946,-61.1037,-9.23093
-630,78,-60.5721,8.48608,0.00550366,0.0327262,0.0069199,0.0343842,0.00384562,1.33563,0.0217545,0.0223588,594,946,-60.5721,-8.48608
-623,78,-60.6208,7.87073,0.00188273,0.0212409,0.00666097,0.0233114,-0.000187793,1.26942,0.0156039,0.0141079,601,946,-60.6208,-7.8707
-616,78,-60.6613,7.24854,9.35323e-05,0.011903,0.00639062,0.0146992,-0.00270264,1.15835,0.0108135,0.0132938,608,946,-60.6613,-7.24856
-609,78,-60.6774,6.672,-0.000178823,0.00567584,0.00592588,0.009358,-0.00386098,1.01481,0.00784886,0.0133523,615,946,-60.6774,-6.67202
-602,78,-60.6998,6.0257,8.43624e-05,0.00301765,0.00519676,0.00695077,-0.00384875,0.922932,0.00632026,0.0183093,622,946,-60.6998,-6.02571
-595,78,-60.5994,5.34528,0.000159527,0.00155355,0.00448387,0.00539426,-0.00368118,0.862505,0.00527073,0.0184625,629,946,-60.5994,-5.34528
-588,78,-60.6073,4.70453,0.000282574,0.000589274,0.00385373,0.0042927,-0.00342085,0.805284,0.0044629,0.0153448,636,946,-60.6073,-4.70453
-581,78,-60.5706,3.94128,0,0,0,0,0,0,0,-1,643,946,-60.5705,-3.94129
-574,78,-63.4622,0.30603,0,0,0,0,0,0,0,-1,650,946,-63.4622,-0.306058
-567,78,-63.4509,0.421387,0.000263199,-0.000806758,0.00157169,0.00138847,-0.00193203,0.621357,0.00192563,0.0366288,657,946,-63.4509,-0.421407
-560,78,-63.4156,0.427979,-2.95767e-05,-0.000629416,0.000877934,0.000598253,-0.00125725,0.620803,0.00109356,0.0335805,664,946,-63.4156,-0.427989
-553,78,-63.4351,0.276611,-0.000386991,-9.30209e-06,0.000112014,2.14198e-05,-0.000417713,1.30311,0.000285883,0.0411943,671,946,-63.4351,-0.276636
-546,78,-63.5457,0.440308,-0.000709995,0.00101716,-0.000713054,0.0012735,-0.000966333,-1.22569,0.00129721,0.0396919,678,946,-63.5456,-0.440328
-539,78,-63.5162,0.625671,-0.000945415,0.0022735,-0.00161925,0.00294709,-0.00161901,-1.17658,0.00267315,0.0379497,685,946,-63.5162,-0.625665
-532,78,-63.34,0.451721,-0.00103266,0.00355979,-0.00245257,0.00462329,-0.00209615,-1.16164,0.00396988,0.0406723,692,946,-63.3399,-0.451723
-525,78,-63.1669,0.457764,-0.00124478,0.00494144,-0.00320323,0.0063012,-0.00260453,-1.16935,0.00528732,0.0417098,699,946,-63.1669,-0.457793
-518,78,-63.3337,0.284607,-0.00176921,0.00651979,-0.00363323,0.00788685,-0.00313627,-1.21092,0.00655825,0.0447727,706,946,-63.3337,-0.284625
-511,78,0,0,0,0,0,0,0,0,0,-1,713,946,0,0
-504,78,0,0,0,0,0,0,0,0,0,-1,720,946,0,0
-497,78,0,0,0,0,0,0,0,0,0,-1,727,946,0,0
-490,78,0,0,0,0,0,0,0,0,0,-1,734,946,0,0
-483,78,0,0,0,0,0,0,0,0,0,-1,741,946,0,0
-476,78,0,0,0,0,0,0,0,0,0,-1,748,946,0,0
-469,78,0,0,0,0,0,0,0,0,0,-1,755,946,0,0
-462,78,0,0,0,0,0,0,0,0,0,-1,762,946,0,0
-455,78,0,0,0,0,0,0,0,0,0,-1,769,946,0,0
-448,78,0,0,0,0,0,0,0,0,0,-1,776,946,0,0
-441,78,0,0,0,0,0,0,0,0,0,-1,783,946,0,0
-434,78,0,0,0,0,0,0,0,0,0,-1,790,946,0,0
-427,78,0,0,0,0,0,0,0,0,0,-1,797,946,0,0
-420,78,0,0,0,0,0,0,0,0,0,-1,804,946,0,0
-413,78,0,0,0,0,0,0,0,0,0,-1,811,946,0,0
-406,78,0,0,0,0,0,0,0,0,0,-1,818,946,0,0
-399,78,0,0,0,0,0,0,0,0,0,-1,825,946,0,0
-392,78,0,0,0,0,0,0,0,0,0,-1,832,946,0,0
-385,78,0,0,0,0,0,0,0,0,0,-1,839,946,0,0
-378,78,0,0,0,0,0,0,0,0,0,-1,846,946,0,0
-371,78,0,0,0,0,0,0,0,0,0,-1,853,946,0,0
-364,78,0,0,0,0,0,0,0,0,0,-1,860,946,0,0
-357,78,0,0,0,0,0,0,0,0,0,-1,867,946,0,0
-350,78,0,0,0,0,0,0,0,0,0,-1,874,946,0,0
-343,78,0,0,0,0,0,0,0,0,0,-1,881,946,0,0
-336,78,0,0,0,0,0,0,0,0,0,-1,888,946,0,0
-329,78,0,0,0,0,0,0,0,0,0,-1,895,946,0,0
-322,78,0,0,0,0,0,0,0,0,0,-1,902,946,0,0
-315,78,0,0,0,0,0,0,0,0,0,-1,909,946,0,0
-308,78,0,0,0,0,0,0,0,0,0,-1,916,946,0,0
-301,78,0,0,0,0,0,0,0,0,0,-1,923,946,0,0
-294,78,0,0,0,0,0,0,0,0,0,-1,930,946,0,0
-287,78,0,0,0,0,0,0,0,0,0,-1,937,946,0,0
-280,78,0,0,0,0,0,0,0,0,0,-1,944,946,0,0
-273,78,0,0,0,0,0,0,0,0,0,-1,951,946,0,0
-266,78,0,0,0,0,0,0,0,0,0,-1,958,946,0,0
-259,78,0,0,0,0,0,0,0,0,0,-1,965,946,0,0
-252,78,0,0,0,0,0,0,0,0,0,-1,972,946,0,0
-245,78,0,0,0,0,0,0,0,0,0,-1,979,946,0,0
-238,78,0,0,0,0,0,0,0,0,0,-1,986,946,0,0
-231,78,0,0,0,0,0,0,0,0,0,-1,993,946,0,0
-224,78,0,0,0,0,0,0,0,0,0,-1,1000,946,0,0
-217,78,0,0,0,0,0,0,0,0,0,-1,1007,946,0,0
-210,78,0,0,0,0,0,0,0,0,0,-1,1014,946,0,0
-203,78,0,0,0,0,0,0,0,0,0,-1,1021,946,0,0
-196,78,0,0,0,0,0,0,0,0,0,-1,1028,946,0,0
-189,78,0,0,0,0,0,0,0,0,0,-1,1035,946,0,0
-182,78,0,0,0,0,0,0,0,0,0,-1,1042,946,0,0
-175,78,0,0,0,0,0,0,0,0,0,-1,1049,946,0,0
-168,78,0,0,0,0,0,0,0,0,0,-1,1056,946,0,0
-161,78,0,0,0,0,0,0,0,0,0,-1,1063,946,0,0
-154,78,0,0,0,0,0,0,0,0,0,-1,1070,946,0,0
-147,78,0,0,0,0,0,0,0,0,0,-1,1077,946,0,0
-140,78,0,0,0,0,0,0,0,0,0,-1,1084,946,0,0
-133,78,0,0,0,0,0,0,0,0,0,-1,1091,946,0,0
-126,78,0,0,0,0,0,0,0,0,0,-1,1098,946,0,0
-119,78,0,0,0,0,0,0,0,0,0,-1,1105,946,0,0
-112,78,0,0,0,0,0,0,0,0,0,-1,1112,946,0,0
-105,78,0,0,0,0,0,0,0,0,0,-1,1119,946,0,0
-98,78,0,0,0,0,0,0,0,0,0,-1,1126,946,0,0
-91,78,0,0,0,0,0,0,0,0,0,-1,1133,946,0,0
-84,78,0,0,0,0,0,0,0,0,0,-1,1140,946,0,0
-77,78,0,0,0,0,0,0,0,0,0,-1,1147,946,0,0
-70,78,0,0,0,0,0,0,0,0,0,-1,1154,946,0,0
-63,78,0,0,0,0,0,0,0,0,0,-1,1161,946,0,0
-56,78,0,0,0,0,0,0,0,0,0,-1,1168,946,0,0
-49,78,0,0,0,0,0,0,0,0,0,-1,1175,946,0,0
-42,78,0,0,0,0,0,0,0,0,0,-1,1182,946,0,0
-35,78,0,0,0,0,0,0,0,0,0,-1,1189,946,0,0
-28,78,0,0,0,0,0,0,0,0,0,-1,1196,946,0,0
-21,78,0,0,0,0,0,0,0,0,0,-1,1203,946,0,0
-14,78,0,0,0,0,0,0,0,0,0,-1,1210,946,0,0
-7,78,0,0,0,0,0,0,0,0,0,-1,1217,946,0,0
0,78,0,0,0,0,0,0,0,0,0,-1,1224,946,0,0
7,78,0,0,0,0,0,0,0,0,0,-1,1231,946,0,0
14,78,0,0,0,0,0,0,0,0,0,-1,1238,946,0,0
21,78,0,0,0,0,0,0,0,0,0,-1,1245,946,0,0
28,78,0,0,0,0,0,0,0,0,0,-1,1252,946,0,0
35,78,0,0,0,0,0,0,0,0,0,-1,1259,946,0,0
42,78,0,0,0,0,0,0,0,0,0,-1,1266,946,0,0
49,78,0,0,0,0,0,0,0,0,0,-1,1273,946,0,0
56,78,0,0,0,0,0,0,0,0,0,-1,1280,946,0,0
63,78,0,0,0,0,0,0,0,0,0,-1,1287,946,0,0
70,78,0,0,0,0,0,0,0,0,0,-1,1294,946,0,0
77,78,0,0,0,0,0,0,0,0,0,-1,1301,946,0,0
84,78,0,0,0,0,0,0,0,0,0,-1,1308,946,0,0
91,78,0,0,0,0,0,0,0,0,0,-1,1315,946,0,0
98,78,0,0,0,0,0,0,0,0,0,-1,1322,946,0,0
105,78,0,0,0,0,0,0,0,0,0,-1,1329,946,0,0
112,78,0,0,0,0,0,0,0,0,0,-1,1336,946,0,0
119,78,0,0,0,0,0,0,0,0,0,-1,1343,946,0,0
126,78,0,0,0,0,0,0,0,0,0,-1,1350,946,0,0
133,78,0,0,0,0,0,0,0,0,0,-1,1357,946,0,0
140,78,0,0,0,0,0,0,0,0,0,-1,1364,946,0,0
147,78,0,0,0,0,0,0,0,0,0,-1,1371,946,0,0
154,78,0,0,0,0,0,0,0,0,0,-1,1378,946,0,0
161,78,0,0,0,0,0,0,0,0,0,-1,1385,946,0,0
168,78,0,0,0,0,0,0,0,0,0,-1,1392,946,0,0
175,78,0,0,0,0,0,0,0,0,0,-1,1399,946,0,0
182,78,0,0,0,0,0,0,0,0,0,-1,1406,946,0,0
189,78,0,0,0,0,0,0,0,0,0,-1,1413,946,0,0
196,78,0,0,0,0,0,0,0,0,0,-1,1420,946,0,0
203,78,0,0,0,0,0,0,0,0,0,-1,1427,946,0,0
210,78,0,0,0,0,0,0,0,0,0,-1,1434,946,0,0
217,78,0,0,0,0,0,0,0,0,0,-1,1441,946,0,0
224,78,0,0,0,0,0,0,0,0,0,-1,1448,946,0,0
231,78,0,0,0,0,0,0,0,0,0,-1,1455,946,0,0
238,78,0,0,0,0,0,0,0,0,0,-1,1462,946,0,0
245,78,0,0,0,0,0,0,0,0,0,-1,1469,946,0,0
252,78,0,0,0,0,0,0,0,0,0,-1,1476,946,0,0
259,78,0,0,0,0,0,0,0,0,0,-1,1483,946,0,0
266,78,0,0,0,0,0,0,0,0,0,-1,1490,946,0,0
273,78,0,0,0,0,0,0,0,0,0,-1,1497,946,0,0
280,78,0,0,0,0,0,0,0,0,0,-1,1504,946,0,0
287,78,0,0,0,0,0,0,0,0,0,-1,1511,946,0,0
294,78,0,0,0,0,0,0,0,0,0,-1,1518,946,0,0
301,78,0,0,0,0,0,0,0,0,0,-1,1525,946,0,0
308,78,0,0,0,0,0,0,0,0,0,-1,1532,946,0,0
315,78,0,0,0,0,0,0,0,0,0,-1,1539,946,0,0
322,78,0,0,0,0,0,0,0,0,0,-1,1546,946,0,0
329,78,0,0,0,0,0,0,0,0,0,-1,1553,946,0,0
336,78,0,0,0,0,0,0,0,0,0,-1,1560,946,0,0
343,78,0,0,0,0,0,0,0,0,0,-1,1567,946,0,0
350,78,0,0,0,0,0,0,0,0,0,-1,1574,946,0,0
357,78,0,0,0,0,0,0,0,0,0,-1,1581,946,0,0
364,78,0,0,0,0,0,0,0,0,0,-1,1588,946,0,0
371,78,0,0,0,0,0,0,0,0,0,-1,1595,946,0,0
378,78,0,0,0,0,0,0,0,0,0,-1,1602,946,0,0
385,78,0,0,0,0,0,0,0,0,0,-1,1609,946,0,0
392,78,0,0,0,0,0,0,0,0,0,-1,1616,946,0,0
399,78,0,0,0,0,0,0,0,0,0,-1,1623,946,0,0
406,78,0,0,0,0,0,0,0,0,0,-1,1630,946,0,0
413,78,0,0,0,0,0,0,0,0,0,-1,1637,946,0,0
420,78,0,0,0,0,0,0,0,0,0,-1,1644,946,0,0
427,78,0,0,0,0,0,0,0,0,0,-1,1651,946,0,0
434,78,0,0,0,0,0,0,0,0,0,-1,1658,946,0,0
441,78,0,0,0,0,0,0,0,0,0,-1,1665,946,0,0
448,78,0,0,0,0,0,0,0,0,0,-1,1672,946,0,0
455,78,0,0,0,0,0,0,0,0,0,-1,1679,946,0,0
462,78,0,0,0,0,0,0,0,0,0,-1,1686,946,0,0
469,78,0,0,0,0,0,0,0,0,0,-1,1693,946,0,0
476,78,0,0,0,0,0,0,0,0,0,-1,1700,946,0,0
483,78,0,0,0,0,0,0,0,0,0,-1,1707,946,0,0
490,78,0,0,0,0,0,0,0,0,0,-1,1714,946,0,0
497,78,0,0,0,0,0,0,0,0,0,-1,1721,946,0,0
504,78,0,0,0,0,0,0,0,0,0,-1,1728,946,0,0
511,78,0,0,0,0,0,0,0,0,0,-1,1735,946,0,0
518,78,0,0,0,0,0,0,0,0,0,-1,1742,946,0,0
525,78,0,0,0,0,0,0,0,0,0,-1,1749,946,0,0
532,78,0,0,0,0,0,0,0,0,0,-1,1756,946,0,0
539,78,0,0,0,0,0,0,0,0,0,-1,1763,946,0,0
546,78,0,0,0,0,0,0,0,0,0,-1,1770,946,0,0
553,78,0,0,0,0,0,0,0,0,0,-1,1777,946,0,0
560,78,0,0,0,0,0,0,0,0,0,-1,1784,946,0,0
567,78,0,0,0,0,0,0,0,0,0,-1,1791,946,0,0
574,78,0,0,0,0,0,0,0,0,0,-1,1798,946,0,0
581,78,0,0,0,0,0,0,0,0,0,-1,1805,946,0,0
588,78,0,0,0,0,0,0,0,0,0,-1,1812,946,0,0
595,78,0,0,0,0,0,0,0,0,0,-1,1819,946,0,0
602,78,0,0,0,0,0,0,0,0,0,-1,1826,946,0,0
609,78,0,0,0,0,0,0,0,0,0,-1,1833,946,0,0
616,78,0,0,0,0,0,0,0,0,0,-1,1840,946,0,0
623,78,0,0,0,0,0,0,0,0,0,-1,1847,946,0,0
630,78,0,0,0,0,0,0,0,0,0,-1,1854,946,0,0
637,78,79.8114,1.6485,0.00834935,0.000152633,0.00652082,0.0119528,-0.0034508,0.504841,0.0093339,0.04796,1861,946,79.8113,-1.64848
644,78,80.0157,1.771,0.0056028,3.29418e-05,0.00499587,0.00853754,-0.00290179,0.531127,0.00686648,0.0437658,1868,946,80.0158,-1.771
651,78,80.2864,2.11627,0.00371773,-3.4899e-05,0.00374056,0.00602619,-0.00234336,0.55293,0.00498566,0.0420928,1875,946,80.2864,-2.11627
658,78,80.0997,2.3559,0.00248051,7.70215e-05,0.0027085,0.0042419,-0.00168437,0.576599,0.00352614,0.0394291,1882,946,80.0997,-2.35592
665,78,79.9094,2.54944,0.00170982,0.000280119,0.0017481,0.00288359,-0.000893649,0.591308,0.00227943,0.0415665,1889,946,79.9094,-2.54946
672,78,79.8636,2.75342,0.000876618,0.000256014,0.00110903,0.00171794,-0.000585304,0.648988,0.00138233,0.0440804,1896,946,79.8636,-2.75341
679,78,80.04,2.46558,0.000149563,-0.000117915,0.000828959,0.000855502,-0.000823855,0.70542,0.000969634,0.0427233,1903,946,80.0401,-2.46557
686,78,80.0322,2.33325,-0.000336955,-0.000477257,0.000437524,3.60062e-05,-0.000850218,0.705907,0.000579187,0.0409094,1910,946,80.0323,-2.33326
693,78,80.0753,2.20142,-0.00104241,-0.000666577,-3.36533e-05,-0.000663587,-0.0010454,-1.48219,0.000610826,0.032216,1917,946,80.0753,-2.20142
700,78,80.0886,2.26117,-0.00204771,-0.000560033,-0.000484272,-0.000416282,-0.00219146,-1.28224,0.00134388,0.0251922,1924,946,80.0886,-2.2612
707,78,80.1547,2.34259,0,0,0,0,0,0,0,-1,1931,946,80.1547,-2.34257
714,78,77.0656,4.6427,0,0,0,0,0,0,0,-1,1938,946,77.0656,-4.64268
721,78,76.8402,5.38263,0,0,0,0,0,0,0,-1,1945,946,76.8402,-5.38266
728,78,76.6049,6.42896,0,0,0,0,0,0,0,-1,1952,946,76.6049,-6.42898
735,78,76.7446,6.82623,-0.0056488,0.00420357,-0.00210267,0.00463355,-0.00607878,-1.36908,0.0062035,0.0343665,1959,946,76.7446,-6.82626
742,78,76.7015,7.32703,-0.00620234,0.00612998,-0.00237529,0.00657166,-0.00664402,-1.38695,0.00763011,0.0235827,1966,946,76.7015,-7.32702
749,78,76.5188,7.92175,-0.00636521,0.009296,-0.00277153,0.00977201,-0.00684121,-1.40071,0.00964127,0.0165525,1973,946,76.5188,-7.92174
756,78,76.406,8.479,-0.00596716,0.0137198,-0.00263803,0.0140672,-0.00631452,-1.43987,0.0120478,0.0158473,1980,946,76.4059,-8.479
763,78,76.2874,8.9953,-0.00485784,0.0188795,-0.00185832,0.0190241,-0.00500244,-1.49314,0.014638,0.0170279,1987,946,76.2873,-8.99531
770,78,76.1467,9.52087,-0.00338566,0.0238995,-0.000662028,0.0239156,-0.00340171,-1.54655,0.0171902,0.0232712,1994,946,76.1468,-9.52087
777,78,75.9404,10.3723,-0.00194539,0.0287032,0.00129571,0.0287578,-0.00200007,1.52862,0.0198722,0.0434669,2001,946,75.9404,-10.3723
784,78,75.7695,11.2659,0,0,0,0,0,0,0,-1,2008,946,75.7695,-11.2659
791,78,75.637,12.0598,0,0,0,0,0,0,0,-1,2015,946,75.6369,-12.0598
798,78,67.9287,7.90448,0,0,0,0,0,0,0,-1,2022,946,67.9287,-7.90446
805,78,68.5852,7.34106,0,0,0,0,0,0,0,-1,2029,946,68.5853,-7.34105
812,78,0,0,0,0,0,0,0,0,0,-1,2036,946,0,0
-700,71,0,0,0,0,0,0,0,0,0,-1,524,953,0,0
-693,71,0,0,0,0,0,0,0,0,0,-1,531,953,0,0
-686,71,-58.9353,6.0625,0,0,0,0,0,0,0,-1,538,953,-58.9353,-6.06252
-679,71,-58.5976,6.44629,0,0,0,0,0,0,0,-1,545,953,-58.5976,-6.44629
-672,71,-58.2416,6.89581,0.0425244,0.124696,0.00284716,0.124795,0.0424258,1.5362,0.0732702,0.0435906,552,953,-58.2416,-6.89579
-665,71,-58.091,6.93811,0.0342922,0.107902,0.00452695,0.108179,0.0340149,1.5096,0.0638749,0.0426557,559,953,-58.091,-6.93811
-658,71,-57.7852,6.99481,0,0,0,0,0,0,0,-1,566,953,-57.7852,-6.99479
-651,71,-58.3897,9.255,0,0,0,0,0,0,0,-1,573,953,-58.3897,-9.25503
-644,71,-61.0788,9.52295,0,0,0,0,0,0,0,-1,580,953,-61.0788,-9.52294
-637,71,-61.3375,9.10773,0.00774852,0.0448411,0.00650177,0.0459477,0.00664187,1.4022,0.0286754,0.0312381,587,953,-61.3375,-9.10771
-630,71,-61.2438,8.38214,0.00402308,0.032195,0.00639705,0.0335795,0.00263853,1.35765,0.0215607,0.0192474,594,953,-61.2438,-8.38213
-623,71,-61.2874,7.79608,0.000911769,0.021024,0.00624426,0.022805,-0.000869184,1.29296,0.0155012,0.0156856,601,953,-61.2874,-7.79606
-616,71,-61.3145,7.16815,-0.000559413,0.0121081,0.00610288,0.0145699,-0.0030212,1.18738,0.0108613,0.0154074,608,953,-61.3145,-7.16817
-609,71,-61.3205,6.62183,-0.000771332,0.00608584,0.00574665,0.00934898,-0.00403447,1.05436,0.00792741,0.0162404,615,953,-61.3205,-6.6218
-602,71,-61.3027,6.09619,-0.000484387,0.00334695,0.00508042,0.00686087,-0.00399831,0.96569,0.00634174,0.0181053,622,953,-61.3027,-6.09617
-595,71,-61.2783,5.52631,-0.000356387,0.00174312,0.00439113,0.00520823,-0.00382149,0.902727,0.00523376,0.0234551,629,953,-61.2783,-5.52632
-588,71,-61.2634,4.9494,-0.000163823,0.000606994,0.00378248,0.00402365,-0.00358048,0.836169,0.00439274,0.0314859,636,953,-61.2634,-4.94938
-581,71,-61.0374,4.21118,0,0,0,0,0,0,0,-1,643,953,-61.0374,-4.21119
-574,71,-63.5281,0.248352,0,0,0,0,0,0,0,-1,650,953,-63.5281,-0.248347
-567,71,-63.4797,0.323303,7.59652e-05,-0.000862349,0.00147136,0.00115116,-0.00193754,0.631065,0.00180243,0.0219815,657,953,-63.4798,-0.323332
-560,71,-63.4789,0.391479,-7.78566e-05,-0.000598715,0.000678774,0.000388734,-0.00106531,0.602221,0.000869255,0.0292145,664,953,-63.479,-0.391468
-553,71,-63.4996,0.369751,-0.000230526,0.00012639,-0.000209685,0.000223278,-0.000327413,-1.13796,0.000319831,0.0399861,671,953,-63.4995,-0.369757
-546,71,-63.522,0.488708,-0.000279652,0.00121862,-0.00119753,0.00188203,-0.00094306,-1.0649,0.00166083,0.0381416,678,953,-63.522,-0.488715
-539,71,-63.4415,0.653748,-0.000247831,0.00242626,-0.00231229,0.00376025,-0.00158181,-1.04753,0.00316857,0.0378353,685,953,-63.4415,-0.653776
-532,71,-63.1899,0.554077,-4.49389e-05,0.00361104,-0.00338258,0.00562797,-0.00206187,-1.03312,0.00459611,0.04548,692,953,-63.1899,-0.554059
-525,71,-63.0007,0.583557,3.69102e-05,0.00486897,-0.00435792,0.00743577,-0.0025299,-1.03851,0.00598156,0.0468377,699,953,-63.0007,-0.583538
-518,71,0,0,0,0,0,0,0,0,0,-1,706,953,0,0
-511,71,0,0,0,0,0,0,0,0,0,-1,713,953,0,0
-504,71,0,0,0,0,0,0,0,0,0,-1,720,953,0,0
-497,71,0,0,0,0,0,0,0,0,0,-1,727,953,0,0
-490,71,0,0,0,0,0,0,0,0,0,-1,734,953,0,0
-483,71,0,0,0,0,0,0,0,0,0,-1,741,953,0,0
-476,71,0,0,0,0,0,0,0,0,0,-1,748,953,0,0
-469,71,0,0,0,0,0,0,0,0,0,-1,755,953,0,0
-462,71,0,0,0,0,0,0,0,0,0,-1,762,953,0,0
-455,71,0,0,0,0,0,0,0,0,0,-1,769,953,0,0
-448,71,0,0,0,0,0,0,0,0,0,-1,776,953,0,0
-441,71,0,0,0,0,0,0,0,0,0,-1,783,953,0,0
-434,71,0,0,0,0,0,0,0,0,0,-1,790,953,0,0
-427,71,0,0,0,0,0,0,0,0,0,-1,797,953,0,0
-420,71,0,0,0,0,0,0,0,0,0,-1,804,953,0,0
-413,71,0,0,0,0,0,0,0,0,0,-1,811,953,0,0
-406,71,0,0,0,0,0,0,0,0,0,-1,818,953,0,0
-399,71,0,0,0,0,0,0,0,0,0,-1,825,953,0,0
-392,71,0,0,0,0,0,0,0,0,0,-1,832,953,0,0
-385,71,0,0,0,0,0,0,0,0,0,-1,839,953,0,0
-378,71,0,0,0,0,0,0,0,0,0,-1,846,953,0,0
-371,71,0,0,0,0,0,0,0,0,0,-1,853,953,0,0
-364,71,0,0,0,0,0,0,0,0,0,-1,860,953,0,0
-357,71,0,0,0,0,0,0,0,0,0,-1,867,953,0,0
-350,71,0,0,0,0,0,0,0,0,0,-1,874,953,0,0
-343,71,0,0,0,0,0,0,0,0,0,-1,881,953,0,0
-336,71,0,0,0,0,0,0,0,0,0,-1,888,953,0,0
-329,71,0,0,0,0,0,0,0,0,0,-1,895,953,0,0
-322,71,0,0,0,0,0,0,0,0,0,-1,902,953,0,0
-315,71,0,0,0,0,0,0,0,0,0,-1,909,953,0,0
-308,71,0,0,0,0,0,0,0,0,0,-1,916,953,0,0
-301,71,0,0,0,0,0,0,0,0,0,-1,923,953,0,0
-294,71,0,0,0,0,0,0,0,0,0,-1,930,953,0,0
-287,71,0,0,0,0,0,0,0,0,0,-1,937,953,0,0
-280,71,0,0,0,0,0,0,0,0,0,-1,944,953,0,0
-273,71,0,0,0,0,0,0,0,0,0,-1,951,953,0,0
-266,71,0,0,0,0,0,0,0,0,0,-1,958,953,0,0
-259,71,0,0,0,0,0,0,0,0,0,-1,965,953,0,0
-252,71,0,0,0,0,0,0,0,0,0,-1,972,953,0,0
-245,71,0,0,0,0,0,0,0,0,0,-1,979,953,0,0
-238,71,0,0,0,0,0,0,0,0,0,-1,986,953,0,0
-231,71,0,0,0,0,0,0,0,0,0,-1,993,953,0,0
-224,71,0,0,0,0,0,0,0,0,0,-1,1000,953,0,0
-217,71,0,0,0,0,0,0,0,0,0,-1,1007,953,0,0
-210,71,0,0,0,0,0,0,0,0,0,-1,1014,953,0,0
-203,71,0,0,0,0,0,0,0,0,0,-1,1021,953,0,0
-196,71,0,0,0,0,0,0,0,0,0,-1,1028,953,0,0
-189,71,0,0,0,0,0,0,0,0,0,-1,1035,953,0,0
-182,71,0,0,0,0,0,0,0,0,0,-1,1042,953,0,0
-175,71,0,0,0,0,0,0,0,0,0,-1,1049,953,0,0
-168,71,0,0,0,0,0,0,0,0,0,-1,1056,953,0,0
-161,71,0,0,0,0,0,0,0,0,0,-1,1063,953,0,0
-154,71,0,0,0,0,0,0,0,0,0,-1,1070,953,0,0
-147,71,0,0,0,0,0,0,0,0,0,-1,1077,953,0,0
-140,71,0,0,0,0,0,0,0,0,0,-1,1084,953,0,0
-133,71,0,0,0,0,0,0,0,0,0,-1,1091,953,0,0
-126,71,0,0,0,0,0,0,0,0,0,-1,1098,953,0,0
-119,71,0,0,0,0,0,0,0,0,0,-1,1105,953,0,0
-112,71,0,0,0,0,0,0,0,0,0,-1,1112,953,0,0
-105,71,0,0,0,0,0,0,0,0,0,-1,1119,953,0,0
-98,71,0,0,0,0,0,0,0,0,0,-1,1126,953,0,0
-91,71,0,0,0,0,0,0,0,0,0,-1,1133,953,0,0
-84,71,0,0,0,0,0,0,0,0,0,-1,1140,953,0,0
-77,71,0,0,0,0,0,0,0,0,0,-1,1147,953,0,0
-70,71,0,0,0,0,0,0,0,0,0,-1,1154,953,0,0
-63,71,0,0,0,0,0,0,0,0,0,-1,1161,953,0,0
-56,71,0,0,0,0,0,0,0,0,0,-1,1168,953,0,0
-49,71,0,0,0,0,0,0,0,0,0,-1,1175,953,0,0
-42,71,0,0,0,0,0,0,0,0,0,-1,1182,953,0,0
-35,71,0,0,0,0,0,0,0,0,0,-1,1189,953,0,0
-28,71,0,0,0,0,0,0,0,0,0,-1,1196,953,0,0
-21,71,0,0,0,0,0,0,0,0,0,-1,1203,953,0,0
-14,71,0,0,0,0,0,0,0,0,0,-1,1210,953,0,0
-7,71,0,0,0,0,0,0,0,0,0,-1,1217,953,0,0
0,71,0,0,0,0,0,0,0,0,0,-1,1224,953,0,0
7,71,0,0,0,0,0,0,0,0,0,-1,1231,953,0,0
14,71,0,0,0,0,0,0,0,0,0,-1,1238,953,0,0
21,71,0,0,0,0,0,0,0,0,0,-1,1245,953,0,0
28,71,0,0,0,0,0,0,0,0,0,-1,1252,953,0,0
35,71,0,0,0,0,0,0,0,0,0,-1,1259,953,0,0
42,71,0,0,0,0,0,0,0,0,0,-1,1266,953,0,0
49,71,0,0,0,0,0,0,0,0,0,-1,1273,953,0,0
56,71,0,0,0,0,0,0,0,0,0,-1,1280,953,0,0
63,71,0,0,0,0,0,0,0,0,0,-1,1287,953,0,0
70,71,0,0,0,0,0,0,0,0,0,-1,1294,953,0,0
77,71,0,0,0,0,0,0,0,0,0,-1,1301,953,0,0
84,71,0,0,0,0,0,0,0,0,0,-1,1308,953,0,0
91,71,0,0,0,0,0,0,0,0,0,-1,1315,953,0,0
98,71,0,0,0,0,0,0,0,0,0,-1,1322,953,0,0
105,71,0,0,0,0,0,0,0,0,0,-1,1329,953,0,0
112,71,0,0,0,0,0,0,0,0,0,-1,1336,953,0,0
119,71,0,0,0,0,0,0,0,0,0,-1,1343,953,0,0
126,71,0,0,0,0,0,0,0,0,0,-1,1350,953,0,0
133,71,0,0,0,0,0,0,0,0,0,-1,1357,953,0,0
140,71,0,0,0,0,0,0,0,0,0,-1,1364,953,0,0
147,71,0,0,0,0,0,0,0,0,0,-1,1371,953,0,0
154,71,0,0,0,0,0,0,0,0,0,-1,1378,953,0,0
161,71,0,0,0,0,0,0,0,0,0,-1,1385,953,0,0
168,71,0,0,0,0,0,0,0,0,0,-1,1392,953,0,0
175,71,0,0,0,0,0,0,0,0,0,-1,1399,953,0,0
182,71,0,0,0,0,0,0,0,0,0,-1,1406,953,0,0
189,71,0,0,0,0,0,0,0,0,0,-1,1413,953,0,0
196,71,0,0,0,0,0,0,0,0,0,-1,1420,953,0,0
203,71,0,0,0,0,0,0,0,0,0,-1,1427,953,0,0
210,71,0,0,0,0,0,0,0,0,0,-1,1434,953,0,0
217,71,0,0,0,0,0,0,0,0,0,-1,1441,953,0,0
224,71,0,0,0,0,0,0,0,0,0,-1,1448,953,0,0
231,71,0,0,0,0,0,0,0,0,0,-1,1455,953,0,0
238,71,0,0,0,0,0,0,0,0,0,-1,1462,953,0,0
245,71,0,0,0,0,0,0,0,0,0,-1,1469,953,0,0
252,71,0,0,0,0,0,0,0,0,0,-1,1476,953,0,0
259,71,0,0,0,0,0,0,0,0,0,-1,1483,953,0,0
266,71,0,0,0,0,0,0,0,0,0,-1,1490,953,0,0
273,71,0,0,0,0,0,0,0,0,0,-1,1497,953,0,0
280,71,0,0,0,0,0,0,0,0,0,-1,1504,953,0,0
287,71,0,0,0,0,0,0,0,0,0,-1,1511,953,0,0
294,71,0,0,0,0,0,0,0,0,0,-1,1518,953,0,0
301,71,0,0,0,0,0,0,0,0,0,-1,1525,953,0,0
308,71,0,0,0,0,0,0,0,0,0,-1,1532,953,0,0
315,71,0,0,0,0,0,0,0,0,0,-1,1539,953,0,0
322,71,0,0,0,0,0,0,0,0,0,-1,1546,953,0,0
329,71,0,0,0,0,0,0,0,0,0,-1,1553,953,0,0
336,71,0,0,0,0,0,0,0,0,0,-1,1560,953,0,0
343,71,0,0,0,0,0,0,0,0,0,-1,1567,953,0,0
350,71,0,0,0,0,0,0,0,0,0,-1,1574,953,0,0
357,71,0,0,0,0,0,0,0,0,0,-1,1581,953,0,0
364,71,0,0,0,0,0,0,0,0,0,-1,1588,953,0,0
371,71,0,0,0,0,0,0,0,0,0,-1,1595,953,0,0
378,71,0,0,0,0,0,0,0,0,0,-1,1602,953,0,0
385,71,0,0,0,0,0,0,0,0,0,-1,1609,953,0,0
392,71,0,0,0,0,0,0,0,0,0,-1,1616,953,0,0
399,71,0,0,0,0,0,0,0,0,0,-1,1623,953,0,0
406,71,0,0,0,0,0,0,0,0,0,-1,1630,953,0,0
413,71,0,0,0,0,0,0,0,0,0,-1,1637,953,0,0
420,71,0,0,0,0,0,0,0,0,0,-1,1644,953,0,0
427,71,0,0,0,0,0,0,0,0,0,-1,1651,953,0,0
434,71,0,0,0,0,0,0,0,0,0,-1,1658,953,0,0
441,71,0,0,0,0,0,0,0,0,0,-1,1665,953,0,0
448,71,0,0,0,0,0,0,0,0,0,-1,1672,953,0,0
455,71,0,0,0,0,0,0,0,0,0,-1,1679,953,0,0
462,71,0,0,0,0,0,0,0,0,0,-1,1686,953,0,0
469,71,0,0,0,0,0,0,0,0,0,-1,1693,953,0,0
476,71,0,0,0,0,0,0,0,0,0,-1,1700,953,0,0
483,71,0,0,0,0,0,0,0,0,0,-1,1707,953,0,0
490,71,0,0,0,0,0,0,0,0,0,-1,1714,953,0,0
497,71,0,0,0,0,0,0,0,0,0,-1,1721,953,0,0
504,71,0,0,0,0,0,0,0,0,0,-1,1728,953,0,0
511,71,0,0,0,0,0,0,0,0,0,-1,1735,953,0,0
518,71,0,0,0,0,0,0,0,0,0,-1,1742,953,0,0
525,71,0,0,0,0,0,0,0,0,0,-1,1749,953,0,0
532,71,0,0,0,0,0,0,0,0,0,-1,1756,953,0,0
539,71,0,0,0,0,0,0,0,0,0,-1,1763,953,0,0
546,71,0,0,0,0,0,0,0,0,0,-1,1770,953,0,0
553,71,0,0,0,0,0,0,0,0,0,-1,1777,953,0,0
560,71,0,0,0,0,0,0,0,0,0,-1,1784,953,0,0
567,71,0,0,0,0,0,0,0,0,0,-1,1791,953,0,0
574,71,0,0,0,0,0,0,0,0,0,-1,1798,953,0,0
581,71,0,0,0,0,0,0,0,0,0,-1,1805,953,0,0
588,71,0,0,0,0,0,0,0,0,0,-1,1812,953,0,0
595,71,0,0,0,0,0,0,0,0,0,-1,1819,953,0,0
602,71,0,0,0,0,0,0,0,0,0,-1,1826,953,0,0
609,71,0,0,0,0,0,0,0,0,0,-1,1833,953,0,0
616,71,0,0,0,0,0,0,0,0,0,-1,1840,953,0,0
623,71,0,0,0,0,0,0,0,0,0,-1,1847,953,0,0
630,71,0,0,0,0,0,0,0,0,0,-1,1854,953,0,0
637,71,79.7151,1.74103,0.00910228,0.000234789,0.00742112,0.0133132,-0.00397618,0.516127,0.010456,0.0395177,1861,953,79.7151,-1.74102
644,71,79.7607,1.91199,0.00618477,0.000334333,0.00557415,0.00955463,-0.00303553,0.54376,0.00758679,0.0425594,1868,953,79.7607,-1.91196
651,71,79.9244,2.05011,0,0,0,0,0,0,0,-1,1875,953,79.9244,-2.05014
658,71,80.1909,2.34766,0.00281595,0.000554811,0.0029204,0.00481698,-0.00144622,0.600718,0.0037866,0.0376948,1882,953,80.1909,-2.34767
665,71,80.1173,2.55261,0.00195921,0.000770677,0.00187122,0.00332827,-0.000598378,0.631644,0.00244286,0.0402477,1889,953,80.1173,-2.5526
672,71,80.0101,2.76105,0.00107502,0.000775981,0.00114909,0.00208428,-0.000233276,0.720701,0.00147345,0.0436997,1896,953,80.0101,-2.76107
679,71,79.975,2.63086,0.000329435,0.00040765,0.000846529,0.00121597,-0.000478889,0.80848,0.0010089,0.0428729,1903,953,79.975,-2.63087
686,71,80.1334,2.10083,-0.000152591,-4.12785e-05,0.000485538,0.000391782,-0.000585652,0.842463,0.00056801,0.0390015,1910,953,80.1334,-2.10084
693,71,80.1372,2.07581,-0.000843025,-0.000341797,6.48356e-05,-0.000333546,-0.000851276,1.44422,0.000495304,0.0327732,1917,953,80.1372,-2.07581
700,71,80.0781,2.13885,-0.00184974,-0.000320519,-0.000332981,-0.000251159,-0.0019191,-1.36543,0.00120444,0.0276234,1924,953,80.0782,-2.13887
707,71,80.1248,2.31519,0,0,0,0,0,0,0,-1,1931,953,80.1247,-2.31521
714,71,77.9293,4.82135,0,0,0,0,0,0,0,-1,1938,953,77.9293,-4.82137
721,71,77.551,5.53815,-0.00400684,0.00171135,-0.00180455,0.00223321,-0.0045287,-1.28929,0.00397827,0.036916,1945,953,77.551,-5.53817
728,71,77.2867,6.34045,-0.00474223,0.00265771,-0.00181837,0.00308039,-0.00516491,-1.3424,0.00481087,0.0413809,1952,953,77.2867,-6.34044
735,71,77.3005,6.92188,-0.00583431,0.00453009,-0.00187346,0.00485834,-0.00616256,-1.39735,0.00637775,0.0283148,1959,953,77.3005,-6.92188
742,71,77.3011,7.41345,-0.0065912,0.00656631,-0.00215526,0.00691036,-0.00693525,-1.4125,0.00799377,0.027089,1966,953,77.3012,-7.41348
749,71,77.1938,7.91833,-0.00711281,0.00984341,-0.0026522,0.0102486,-0.00751797,-1.4192,0.0102978,0.0216666,1973,953,77.194,-7.91836
756,71,77.1021,8.39478,-0.00730913,0.0145563,-0.00272961,0.0148919,-0.00764474,-1.44846,0.0132339,0.0196929,1980,953,77.102,-8.39478
763,71,76.9924,8.92511,-0.00690678,0.0204031,-0.00220126,0.0205794,-0.00708307,-1.49088,0.0165924,0.0216978,1987,953,76.9925,-8.92511
770,71,76.7097,9.41437,-0.00617204,0.026354,-0.00126543,0.0264031,-0.00622119,-1.53197,0.020001,0.0256805,1994,953,76.7097,-9.41438
777,71,76.4468,10.1735,-0.0055654,0.0323622,0.000321015,0.0323649,-0.00556812,1.56233,0.0236521,0.0456172,2001,953,76.4469,-10.1734
784,71,76.3362,11.1207,-0.00394548,0.0381716,0.00294079,0.0383759,-0.00414982,1.50142,0.0270734,0.0494049,2008,953,76.3363,-11.1206
791,71,75.9294,11.9259,0,0,0,0,0,0,0,-1,2015,953,75.9295,-11.9259
798,71,74.6741,11.5202,0,0,0,0,0,0,0,-1,2022,953,74.6741,-11.5202
805,71,59.978,6.41992,0,0,0,0,0,0,0,-1,2029,953,59.9781,-6.41992
812,71,0,0,0,0,0,0,0,0,0,-1,2036,953,0,0
-700,64,0,0,0,0,0,0,0,0,0,-1,524,960,0,0
-693,64,0,0,0,0,0,0,0,0,0,-1,531,960,0,0
-686,64,-70.079,-3.37152,0,0,0,0,0,0,0,-1,538,960,-70.079,3.37152
-679,64,-69.6038,-2.3512,0,0,0,0,0,0,0,-1,545,960,-69.6038,2.35122
-672,64,-57.963,6.07275,0,0,0,0,0,0,0,-1,552,960,-57.963,-6.07276
-665,64,-57.8604,5.71631,0,0,0,0,0,0,0,-1,559,960,-57.8604,-5.71629
-658,64,-66.1065,2.58191,0,0,0,0,0,0,0,-1,566,960,-66.1065,-2.58189
-651,64,-61.7455,9.83765,0,0,0,0,0,0,0,-1,573,960,-61.7455,-9.83766
-644,64,-61.7584,9.26093,0.00972549,0.0580009,0.00569949,0.0586646,0.00906172,1.45486,0.0364664,0.0425788,580,960,-61.7584,-9.26091
-637,64,-61.7702,8.67902,0.00538865,0.0439327,0.005841,0.0447984,0.00452294,1.42366,0.0284779,0.0221559,587,960,-61.7702,-8.67903
-630,64,-61.8435,8.20898,0.00224198,0.0315533,0.00582514,0.0326685,0.00112676,1.38164,0.0214133,0.0158592,594,960,-61.8435,-8.20899
-623,64,-61.8979,7.73706,-0.0003157,0.0207308,0.005754,0.0222012,-0.00178609,1.32061,0.0154306,0.0155695,601,960,-61.898,-7.73703
-616,64,-61.9429,7.20148,-0.001457,0.0122574,0.00571749,0.0143283,-0.0035279,1.22329,0.0109198,0.0196932,608,960,-61.9429,-7.20148
-609,64,-61.9349,6.70813,-0.00157884,0.00648151,0.00546524,0.00924186,-0.00433919,1.1031,0.00800951,0.0199434,615,960,-61.9349,-6.70811
-602,64,-61.9465,6.18091,-0.0012472,0.00367616,0.00486491,0.00666675,-0.00423779,1.01962,0.00634759,0.0181874,622,960,-61.9465,-6.1809
-595,64,-61.9635,5.68817,-0.00103095,0.00195578,0.00419539,0.00491567,-0.00399084,0.956382,0.00515141,0.032344,629,960,-61.9635,-5.68814
-588,64,-61.7964,5.18201,0,0,0,0,0,0,0,-1,636,960,-61.7965,-5.18203
-581,64,-60.9595,4.38037,0,0,0,0,0,0,0,-1,643,960,-60.9595,-4.38034
-574,64,-63.4833,0.32135,0,0,0,0,0,0,0,-1,650,960,-63.4833,-0.32138
-567,64,-63.4499,0.358521,-0.000195105,-0.000992899,0.00131077,0.000776123,-0.00196413,0.637689,0.00163089,0.0269757,657,960,-63.4499,-0.358514
-560,64,-63.4624,0.365601,-0.000165797,-0.000679715,0.000449191,9.47391e-05,-0.00094025,0.525592,0.000660681,0.0340941,664,960,-63.4624,-0.36559
-553,64,-63.4558,0.294495,-9.27028e-05,6.96672e-05,-0.000532356,0.000526993,-0.000550029,-0.861066,0.000621866,0.0372664,671,960,-63.4558,-0.294481
-546,64,-63.4984,0.306335,0.00011135,0.00111197,-0.00164179,0.00232799,-0.00110467,-0.933295,0.00202336,0.0365955,678,960,-63.4984,-0.306318
-539,64,-63.5804,0.413086,0.000330597,0.00210422,-0.00289819,0.00424824,-0.00181343,-0.933868,0.00359258,0.0387366,685,960,-63.5804,-0.413073
-532,64,-63.4815,0.464233,0.000743444,0.00300933,-0.00408219,0.00611288,-0.00236011,-0.920758,0.00504929,0.0422601,692,960,-63.4815,-0.464229
-525,64,-63.1475,0.388306,0.00101307,0.00396239,-0.0051549,0.00784942,-0.00287395,-0.924712,0.00640943,0.0433829,699,960,-63.1475,-0.388335
-518,64,0,0,0,0,0,0,0,0,0,-1,706,960,0,0
-511,64,0,0,0,0,0,0,0,0,0,-1,713,960,0,0
-504,64,0,0,0,0,0,0,0,0,0,-1,720,960,0,0
-497,64,0,0,0,0,0,0,0,0,0,-1,727,960,0,0
-490,64,0,0,0,0,0,0,0,0,0,-1,734,960,0,0
-483,64,0,0,0,0,0,0,0,0,0,-1,741,960,0,0
-476,64,0,0,0,0,0,0,0,0,0,-1,748,960,0,0
-469,64,0,0,0,0,0,0,0,0,0,-1,755,960,0,0
-462,64,0,0,0,0,0,0,0,0,0,-1,762,960,0,0
-455,64,0,0,0,0,0,0,0,0,0,-1,769,960,0,0
-448,64,0,0,0,0,0,0,0,0,0,-1,776,960,0,0
-441,64,0,0,0,0,0,0,0,0,0,-1,783,960,0,0
-434,64,0,0,0,0,0,0,0,0,0,-1,790,960,0,0
-427,64,0,0,0,0,0,0,0,0,0,-1,797,960,0,0
-420,64,0,0,0,0,0,0,0,0,0,-1,804,960,0,0
-413,64,0,0,0,0,0,0,0,0,0,-1,811,960,0,0
-406,64,0,0,0,0,0,0,0,0,0,-1,818,960,0,0
-399,64,0,0,0,0,0,0,0,0,0,-1,825,960,0,0
-392,64,0,0,0,0,0,0,0,0,0,-1,832,960,0,0
-385,64,0,0,0,0,0,0,0,0,0,-1,839,960,0,0
-378,64,0,0,0,0,0,0,0,0,0,-1,846,960,0,0
-371,64,0,0,0,0,0,0,0,0,0,-1,853,960,0,0
-364,64,0,0,0,0,0,0,0,0,0,-1,860,960,0,0
-357,64,0,0,0,0,0,0,0,0,0,-1,867,960,0,0
-350,64,0,0,0,0,0,0,0,0,0,-1,874,960,0,0
-343,64,0,0,0,0,0,0,0,0,0,-1,881,960,0,0
-336,64,0,0,0,0,0,0,0,0,0,-1,888,960,0,0
-329,64,0,0,0,0,0,0,0,0,0,-1,895,960,0,0
-322,64,0,0,0,0,0,0,0,0,0,-1,902,960,0,0
-315,64,0,0,0,0,0,0,0,0,0,-1,909,960,0,0
-308,64,0,0,0,0,0,0,0,0,0,-1,916,960,0,0
-301,64,0,0,0,0,0,0,0,0,0,-1,923,960,0,0
-294,64,0,0,0,0,0,0,0,0,0,-1,930,960,0,0
-287,64,0,0,0,0,0,0,0,0,0,-1,937,960,0,0
-280,64,0,0,0,0,0,0,0,0,0,-1,944,960,0,0
-273,64,0,0,0,0,0,0,0,0,0,-1,951,960,0,0
-266,64,0,0,0,0,0,0,0,0,0,-1,958,960,0,0
-259,64,0,0,0,0,0,0,0,0,0,-1,965,960,0,0
-252,64,0,0,0,0,0,0,0,0,0,-1,972,960,0,0
-245,64,0,0,0,0,0,0,0,0,0,-1,979,960,0,0
-238,64,0,0,0,0,0,0,0,0,0,-1,986,960,0,0
-231,64,0,0,0,0,0,0,0,0,0,-1,993,960,0,0
-224,64,0,0,0,0,0,0,0,0,0,-1,1000,960,0,0
-217,64,0,0,0,0,0,0,0,0,0,-1,1007,960,0,0
-210,64,0,0,0,0,0,0,0,0,0,-1,1014,960,0,0
-203,64,0,0,0,0,0,0,0,0,0,-1,1021,960,0,0
-196,64,0,0,0,0,0,0,0,0,0,-1,1028,960,0,0
-189,64,0,0,0,0,0,0,0,0,0,-1,1035,960,0,0
-182,64,0,0,0,0,0,0,0,0,0,-1,1042,960,0,0
-175,64,0,0,0,0,0,0,0,0,0,-1,1049,960,0,0
-168,64,0,0,0,0,0,0,0,0,0,-1,1056,960,0,0
-161,64,0,0,0,0,0,0,0,0,0,-1,1063,960,0,0
-154,64,0,0,0,0,0,0,0,0,0,-1,1070,960,0,0
-147,64,0,0,0,0,0,0,0,0,0,-1,1077,960,0,0
-140,64,0,0,0,0,0,0,0,0,0,-1,1084,960,0,0
-133,64,0,0,0,0,0,0,0,0,0,-1,1091,960,0,0
-126,64,0,0,0,0,0,0,0,0,0,-1,1098,960,0,0
-119,64,0,0,0,0,0,0,0,0,0,-1,1105,960,0,0
-112,64,0,0,0,0,0,0,0,0,0,-1,1112,960,0,0
-105,64,0,0,0,0,0,0,0,0,0,-1,1119,960,0,0
-98,64,0,0,0,0,0,0,0,0,0,-1,1126,960,0,0
-91,64,0,0,0,0,0,0,0,0,0,-1,1133,960,0,0
-84,64,0,0,0,0,0,0,0,0,0,-1,1140,960,0,0
-77,64,0,0,0,0,0,0,0,0,0,-1,1147,960,0,0
-70,64,0,0,0,0,0,0,0,0,0,-1,1154,960,0,0
-63,64,0,0,0,0,0,0,0,0,0,-1,1161,960,0,0
-56,64,0,0,0,0,0,0,0,0,0,-1,1168,960,0,0
-49,64,0,0,0,0,0,0,0,0,0,-1,1175,960,0,0
-42,64,0,0,0,0,0,0,0,0,0,-1,1182,960,0,0
-35,64,0,0,0,0,0,0,0,0,0,-1,1189,960,0,0
-28,64,0,0,0,0,0,0,0,0,0,-1,1196,960,0,0
-21,64,0,0,0,0,0,0,0,0,0,-1,1203,960,0,0
-14,64,0,0,0,0,0,0,0,0,0,-1,1210,960,0,0
-7,64,0,0,0,0,0,0,0,0,0,-1,1217,960,0,0
0,64,0,0,0,0,0,0,0,0,0,-1,1224,960,0,0
7,64,0,0,0,0,0,0,0,0,0,-1,1231,960,0,0
14,64,0,0,0,0,0,0,0,0,0,-1,1238,960,0,0
21,64,0,0,0,0,0,0,0,0,0,-1,1245,960,0,0
28,64,0,0,0,0,0,0,0,0,0,-1,1252,960,0,0
35,64,0,0,0,0,0,0,0,0,0,-1,1259,960,0,0
42,64,0,0,0,0,0,0,0,0,0,-1,1266,960,0,0
49,64,0,0,0,0,0,0,0,0,0,-1,1273,960,0,0
56,64,0,0,0,0,0,0,0,0,0,-1,1280,960,0,0
63,64,0,0,0,0,0,0,0,0,0,-1,1287,960,0,0
70,64,0,0,0,0,0,0,0,0,0,-1,1294,960,0,0
77,64,0,0,0,0,0,0,0,0,0,-1,1301,960,0,0
84,64,0,0,0,0,0,0,0,0,0,-1,1308,960,0,0
91,64,0,0,0,0,0,0,0,0,0,-1,1315,960,0,0
98,64,0,0,0,0,0,0,0,0,0,-1,1322,960,0,0
105,64,0,0,0,0,0,0,0,0,0,-1,1329,960,0,0
112,64,0,0,0,0,0,0,0,0,0,-1,1336,960,0,0
119,64,0,0,0,0,0,0,0,0,0,-1,1343,960,0,0
126,64,0,0,0,0,0,0,0,0,0,-1,1350,960,0,0
133,64,0,0,0,0,0,0,0,0,0,-1,1357,960,0,0
140,64,0,0,0,0,0,0,0,0,0,-1,1364,960,0,0
147,64,0,0,0,0,0,0,0,0,0,-1,1371,960,0,0
154,64,0,0,0,0,0,0,0,0,0,-1,1378,960,0,0
161,64,0,0,0,0,0,0,0,0,0,-1,1385,960,0,0
168,64,0,0,0,0,0,0,0,0,0,-1,1392,960,0,0
175,64,0,0,0,0,0,0,0,0,0,-1,1399,960,0,0
182,64,0,0,0,0,0,0,0,0,0,-1,1406,960,0,0
189,64,0,0,0,0,0,0,0,0,0,-1,1413,960,0,0
196,64,0,0,0,0,0,0,0,0,0,-1,1420,960,0,0
203,64,0,0,0,0,0,0,0,0,0,-1,1427,960,0,0
210,64,0,0,0,0,0,0,0,0,0,-1,1434,960,0,0
217,64,0,0,0,0,0,0,0,0,0,-1,1441,960,0,0
224,64,0,0,0,0,0,0,0,0,0,-1,1448,960,0,0
231,64,0,0,0,0,0,0,0,0,0,-1,1455,960,0,0
238,64,0,0,0,0,0,0,0,0,0,-1,1462,960,0,0
245,64,0,0,0,0,0,0,0,0,0,-1,1469,960,0,0
252,64,0,0,0,0,0,0,0,0,0,-1,1476,960,0,0
259,64,0,0,0,0,0,0,0,0,0,-1,1483,960,0,0
266,64,0,0,0,0,0,0,0,0,0,-1,1490,960,0,0
273,64,0,0,0,0,0,0,0,0,0,-1,1497,960,0,0
280,64,0,0,0,0,0,0,0,0,0,-1,1504,960,0,0
287,64,0,0,0,0,0,0,0,0,0,-1,1511,960,0,0
294,64,0,0,0,0,0,0,0,0,0,-1,1518,960,0,0
301,64,0,0,0,0,0,0,0,0,0,-1,1525,960,0,0
308,64,0,0,0,0,0,0,0,0,0,-1,1532,960,0,0
315,64,0,0,0,0,0,0,0,0,0,-1,1539,960,0,0
322,64,0,0,0,0,0,0,0,0,0,-1,1546,960,0,0
329,64,0,0,0,0,0,0,0,0,0,-1,1553,960,0,0
336,64,0,0,0,0,0,0,0,0,0,-1,1560,960,0,0
343,64,0,0,0,0,0,0,0,0,0,-1,1567,960,0,0
350,64,0,0,0,0,0,0,0,0,0,-1,1574,960,0,0
357,64,0,0,0,0,0,0,0,0,0,-1,1581,960,0,0
364,64,0,0,0,0,0,0,0,0,0,-1,1588,960,0,0
371,64,0,0,0,0,0,0,0,0,0,-1,1595,960,0,0
378,64,0,0,0,0,0,0,0,0,0,-1,1602,960,0,0
385,64,0,0,0,0,0,0,0,0,0,-1,1609,960,0,0
392,64,0,0,0,0,0,0,0,0,0,-1,1616,960,0,0
399,64,0,0,0,0,0,0,0,0,0,-1,1623,960,0,0
406,64,0,0,0,0,0,0,0,0,0,-1,1630,960,0,0
413,64,0,0,0,0,0,0,0,0,0,-1,1637,960,0,0
420,64,0,0,0,0,0,0,0,0,0,-1,1644,960,0,0
427,64,0,0,0,0,0,0,0,0,0,-1,1651,960,0,0
434,64,0,0,0,0,0,0,0,0,0,-1,1658,960,0,0
441,64,0,0,0,0,0,0,0,0,0,-1,1665,960,0,0
448,64,0,0,0,0,0,0,0,0,0,-1,1672,960,0,0
455,64,0,0,0,0,0,0,0,0,0,-1,1679,960,0,0
462,64,0,0,0,0,0,0,0,0,0,-1,1686,960,0,0
469,64,0,0,0,0,0,0,0,0,0,-1,1693,960,0,0
476,64,0,0,0,0,0,0,0,0,0,-1,1700,960,0,0
483,64,0,0,0,0,0,0,0,0,0,-1,1707,960,0,0
490,64,0,0,0,0,0,0,0,0,0,-1,1714,960,0,0
497,64,0,0,0,0,0,0,0,0,0,-1,1721,960,0,0
504,64,0,0,0,0,0,0,0,0,0,-1,1728,960,0,0
511,64,0,0,0,0,0,0,0,0,0,-1,1735,960,0,0
518,64,0,0,0,0,0,0,0,0,0,-1,1742,960,0,0
525,64,0,0,0,0,0,0,0,0,0,-1,1749,960,0,0
532,64,0,0,0,0,0,0,0,0,0,-1,1756,960,0,0
539,64,0,0,0,0,0,0,0,0,0,-1,1763,960,0,0
546,64,0,0,0,0,0,0,0,0,0,-1,1770,960,0,0
553,64,0,0,0,0,0,0,0,0,0,-1,1777,960,0,0
560,64,0,0,0,0,0,0,0,0,0,-1,1784,960,0,0
567,64,0,0,0,0,0,0,0,0,0,-1,1791,960,0,0
574,64,0,0,0,0,0,0,0,0,0,-1,1798,960,0,0
581,64,0,0,0,0,0,0,0,0,0,-1,1805,960,0,0
588,64,0,0,0,0,0,0,0,0,0,-1,1812,960,0,0
595,64,0,0,0,0,0,0,0,0,0,-1,1819,960,0,0
602,64,0,0,0,0,0,0,0,0,0,-1,1826,960,0,0
609,64,0,0,0,0,0,0,0,0,0,-1,1833,960,0,0
616,64,0,0,0,0,0,0,0,0,0,-1,1840,960,0,0
623,64,0,0,0,0,0,0,0,0,0,-1,1847,960,0,0
630,64,0,0,0,0,0,0,0,0,0,-1,1854,960,0,0
637,64,0,0,0,0,0,0,0,0,0,-1,1861,960,0,0
644,64,79.7296,2.13458,0.00667503,0.000453485,0.00600464,0.0103269,-0.00319833,0.546402,0.0081623,0.0414571,1868,960,79.7296,-2.1346
651,64,80.1255,2.05103,0.00449939,0.000739793,0.00432941,0.00733949,-0.00210031,0.580583,0.00572304,0.0426672,1875,960,80.1255,-2.051
658,64,80.0836,2.36139,0.00308913,0.00103809,0.00306276,0.0052935,-0.00116628,0.623847,0.0039752,0.0372332,1882,960,80.0836,-2.36136
665,64,80.0002,2.55426,0.00217142,0.00134887,0.00197053,0.00377313,-0.000252842,0.682519,0.0026038,0.0400893,1889,960,80.0003,-2.55429
672,64,80.0248,2.71484,0.00127733,0.00144545,0.00119163,0.00255598,0.000166798,0.82061,0.0016512,0.0451685,1896,960,80.0248,-2.71482
679,64,80.1365,2.53058,0.000551106,0.00112754,0.000868345,0.00175425,-7.5605e-05,0.945635,0.0011955,0.0434106,1903,960,80.1365,-2.53056
686,64,80.1676,2.12506,0.000101973,0.000613947,0.000557852,0.000971743,-0.000255822,1.00051,0.000747833,0.037062,1910,960,80.1676,-2.12506
693,64,80.105,2.11725,-0.000545019,0.000186515,0.0002004,0.000237816,-0.00059632,1.32019,0.000496193,0.0328465,1917,960,80.105,-2.11725
700,64,80.0991,2.14325,-0.00150467,9.70756e-05,-0.000146364,0.00011034,-0.00151793,-1.48042,0.00105067,0.0292379,1924,960,80.0991,-2.14324
707,64,80.1373,2.33868,0,0,0,0,0,0,0,-1,1931,960,80.1373,-2.33867
714,64,78.7693,5.08545,0,0,0,0,0,0,0,-1,1938,960,78.7693,-5.08545
721,64,78.1268,5.698,-0.00383426,0.00200672,-0.0015393,0.00238755,-0.00421509,-1.32826,0.0038604,0.0370484,1945,960,78.1269,-5.69801
728,64,77.7646,6.36493,-0.0046775,0.00301565,-0.00157096,0.00332408,-0.00498593,-1.37693,0.00482966,0.0292289,1952,960,77.7646,-6.36495
735,64,77.719,6.98206,-0.00584213,0.00490384,-0.00164674,0.00515053,-0.00608882,-1.4221,0.00649657,0.0386679,1959,960,77.719,-6.98206
742,64,77.8762,7.39233,-0.00679153,0.00702703,-0.00193915,0.00729399,-0.00705849,-1.43399,0.00828678,0.0330491,1966,960,77.8762,-7.39231
749,64,77.8083,7.88293,-0.00765309,0.010365,-0.00251202,0.0107087,-0.00799675,-1.43483,0.0108373,0.0189905,1973,960,77.8084,-7.88291
756,64,77.7058,8.34814,-0.00842685,0.0152409,-0.00277628,0.0155622,-0.00874815,-1.45558,0.0142182,0.0176276,1980,960,77.7058,-8.34812
763,64,77.6606,8.84625,-0.00875426,0.0215759,-0.00250064,0.0217807,-0.00895905,-1.48908,0.018255,0.0194367,1987,960,77.6606,-8.84624
770,64,77.3689,9.24323,-0.00874638,0.0283055,-0.00181017,0.0283937,-0.0088346,-1.5221,0.0224608,0.0202164,1994,960,77.3688,-9.24323
777,64,77.0425,9.6358,-0.00889177,0.035226,-0.000549084,0.0352328,-0.0088986,-1.55835,0.026949,0.0365348,2001,960,77.0424,-9.63581
784,64,76.7908,9.91406,-0.0081863,0.0423169,0.0016681,0.042372,-0.00824134,1.53781,0.0313582,0.0443763,2008,960,76.7907,-9.91408
791,64,76.5925,10.3073,0,0,0,0,0,0,0,-1,2015,960,76.5925,-10.3073
798,64,76.1096,9.16791,0,0,0,0,0,0,0,-1,2022,960,76.1096,-9.16789
805,64,71.8018,7.16925,0,0,0,0,0,0,0,-1,2029,960,71.8016,-7.16926
812,64,0,0,0,0,0,0,0,0,0,-1,2036,960,0,0
-700,57,0,0,0,0,0,0,0,0,0,-1,524,967,0,0
-693,57,0,0,0,0,0,0,0,0,0,-1,531,967,0,0
-686,57,-70.0719,-3.4209,0,0,0,0,0,0,0,-1,538,967,-70.0719,3.42092
-679,57,-63.7827,4.06073,0,0,0,0,0,0,0,-1,545,967,-63.7827,-4.0607
-672,57,-61.7051,4.03632,0,0,0,0,0,0,0,-1,552,967,-61.7051,-4.03631
-665,57,-66.4033,0.171631,0,0,0,0,0,0,0,-1,559,967,-66.4033,-0.171637
-658,57,-65.6603,1.69305,0,0,0,0,0,0,0,-1,566,967,-65.6603,-1.69307
-651,57,-62.3745,9.38953,0,0,0,0,0,0,0,-1,573,967,-62.3745,-9.38952
-644,57,-62.3442,8.90796,0.00564281,0.0566194,0.00537344,0.0571797,0.00508256,1.46691,0.0365436,0.0430081,580,967,-62.3442,-8.90796
-637,57,-62.3411,8.44196,0.00215675,0.0427938,0.00551771,0.0435297,0.00142088,1.43821,0.028558,0.0243539,587,967,-62.341,-8.44197
-630,57,-62.4374,8.03595,-0.000246057,0.0307247,0.00550418,0.0316738,-0.00119518,1.40004,0.0215254,0.0155214,594,967,-62.4374,-8.03596
-623,57,-62.4863,7.6554,-0.00210275,0.0202701,0.00541881,0.0215135,-0.00334611,1.34525,0.015578,0.0147235,601,967,-62.4863,-7.65542
-616,57,-62.4944,7.23315,-0.00277055,0.0122439,0.00538702,0.0139767,-0.00450337,1.25958,0.011127,0.017102,608,967,-62.4944,-7.23314
-609,57,-62.5217,6.75092,-0.00266491,0.00675068,0.00515755,0.00902598,-0.00494022,1.15532,0.0081776,0.0170904,615,967,-62.5217,-6.7509
-602,57,-62.5221,6.22467,-0.00219081,0.00389918,0.0045633,0.00634014,-0.00463176,1.07961,0.00636018,0.0119358,622,967,-62.5221,-6.22465
-595,57,-62.533,5.74738,-0.00183529,0.00208424,0.00387829,0.0044698,-0.00422085,1.01934,0.00501824,0.0240432,629,967,-62.533,-5.74737
-588,57,-62.2574,5.37579,-0.00140965,0.000611353,0.00329338,0.00304577,-0.00384407,0.934253,0.00398674,0.041091,636,967,-62.2574,-5.37576
-581,57,-61.9479,4.88214,0,0,0,0,0,0,0,-1,643,967,-61.9479,-4.88213
-574,57,-63.4231,0.367065,-0.000746825,-0.00110052,0.00183396,0.000918791,-0.00276614,0.737332,0.00221482,0.0374117,650,967,-63.4231,-0.367086
-567,57,-63.431,0.422852,-0.000524003,-0.00114331,0.0010318,0.000243608,-0.00191092,0.63962,0.00136243,0.0330843,657,967,-63.431,-0.42285
-560,57,-63.3898,0.44104,-0.00031994,-0.000767883,0.000143745,-0.000277781,-0.000810043,0.285294,0.000475309,0.0393323,664,967,-63.3898,-0.441036
-553,57,-63.2819,0.368225,-5.82242e-05,2.37443e-05,-0.000877373,0.00086109,-0.000895569,-0.808737,0.00101427,0.0379859,671,967,-63.2819,-0.368209
-546,57,-63.487,0.22467,0.000334473,0.00106177,-0.0020352,0.00276556,-0.00136931,-0.873805,0.00243221,0.0392103,678,967,-63.487,-0.224695
-539,57,-63.7144,0.342163,0.000683946,0.00193242,-0.00333421,0.00470032,-0.00208396,-0.877938,0.00401282,0.0418938,685,967,-63.7143,-0.342177
-532,57,-63.9751,0.639465,0,0,0,0,0,0,0,-1,692,967,-63.9751,-0.639484
-525,57,-63.3177,0.218262,0,0,0,0,0,0,0,-1,699,967,-63.3177,-0.218234
-518,57,0,0,0,0,0,0,0,0,0,-1,706,967,0,0
-511,57,0,0,0,0,0,0,0,0,0,-1,713,967,0,0
-504,57,0,0,0,0,0,0,0,0,0,-1,720,967,0,0
-497,57,0,0,0,0,0,0,0,0,0,-1,727,967,0,0
-490,57,0,0,0,0,0,0,0,0,0,-1,734,967,0,0
-483,57,0,0,0,0,0,0,0,0,0,-1,741,967,0,0
-476,57,0,0,0,0,0,0,0,0,0,-1,748,967,0,0
-469,57,0,0,0,0,0,0,0,0,0,-1,755,967,0,0
-462,57,0,0,0,0,0,0,0,0,0,-1,762,967,0,0
-455,57,0,0,0,0,0,0,0,0,0,-1,769,967,0,0
-448,57,0,0,0,0,0,0,0,0,0,-1,776,967,0,0
-441,57,0,0,0,0,0,0,0,0,0,-1,783,967,0,0
-434,57,0,0,0,0,0,0,0,0,0,-1,790,967,0,0
-427,57,0,0,0,0,0,0,0,0,0,-1,797,967,0,0
-420,57,0,0,0,0,0,0,0,0,0,-1,804,967,0,0
-413,57,0,0,0,0,0,0,0,0,0,-1,811,967,0,0
-406,57,0,0,0,0,0,0,0,0,0,-1,818,967,0,0
-399,57,0,0,0,0,0,0,0,0,0,-1,825,967,0,0
-392,57,0,0,0,0,0,0,0,0,0,-1,832,967,0,0
-385,57,0,0,0,0,0,0,0,0,0,-1,839,967,0,0
-378,57,0,0,0,0,0,0,0,0,0,-1,846,967,0,0
-371,57,0,0,0,0,0,0,0,0,0,-1,853,967,0,0
-364,57,0,0,0,0,0,0,0,0,0,-1,860,967,0,0
-357,57,0,0,0,0,0,0,0,0,0,-1,867,967,0,0
-350,57,0,0,0,0,0,0,0,0,0,-1,874,967,0,0
-343,57,0,0,0,0,0,0,0,0,0,-1,881,967,0,0
-336,57,0,0,0,0,0,0,0,0,0,-1,888,967,0,0
-329,57,0,0,0,0,0,0,0,0,0,-1,895,967,0,0
-322,57,0,0,0,0,0,0,0,0,0,-1,902,967,0,0
-315,57,0,0,0,0,0,0,0,0,0,-1,909,967,0,0
-308,57,0,0,0,0,0,0,0,0,0,-1,916,967,0,0
-301,57,0,0,0,0,0,0,0,0,0,-1,923,967,0,0
-294,57,0,0,0,0,0,0,0,0,0,-1,930,967,0,0
-287,57,0,0,0,0,0,0,0,0,0,-1,937,967,0,0
-280,57,0,0,0,0,0,0,0,0,0,-1,944,967,0,0
-273,57,0,0,0,0,0,0,0,0,0,-1,951,967,0,0
-266,57,0,0,0,0,0,0,0,0,0,-1,958,967,0,0
-259,57,0,0,0,0,0,0,0,0,0,-1,965,967,0,0
-252,57,0,0,0,0,0,0,0,0,0,-1,972,967,0,0
-245,57,0,0,0,0,0,0,0,0,0,-1,979,967,0,0
-238,57,0,0,0,0,0,0,0,0,0,-1,986,967,0,0
-231,57,0,0,0,0,0,0,0,0,0,-1,993,967,0,0
-224,57,0,0,0,0,0,0,0,0,0,-1,1000,967,0,0
-217,57,0,0,0,0,0,0,0,0,0,-1,1007,967,0,0
-210,57,0,0,0,0,0,0,0,0,0,-1,1014,967,0,0
-203,57,0,0,0,0,0,0,0,0,0,-1,1021,967,0,0
-196,57,0,0,0,0,0,0,0,0,0,-1,1028,967,0,0
-189,57,0,0,0,0,0,0,0,0,0,-1,1035,967,0,0
-182,57,0,0,0,0,0,0,0,0,0,-1,1042,967,0,0
-175,57,0,0,0,0,0,0,0,0,0,-1,1049,967,0,0
-168,57,0,0,0,0,0,0,0,0,0,-1,1056,967,0,0
-161,57,0,0,0,0,0,0,0,0,0,-1,1063,967,0,0
-154,57,0,0,0,0,0,0,0,0,0,-1,1070,967,0,0
-147,57,0,0,0,0,0,0,0,0,0,-1,1077,967,0,0
-140,57,0,0,0,0,0,0,0,0,0,-1,1084,967,0,0
-133,57,0,0,0,0,0,0,0,0,0,-1,1091,967,0,0
-126,57,0,0,0,0,0,0,0,0,0,-1,1098,967,0,0
-119,57,0,0,0,0,0,0,0,0,0,-1,1105,967,0,0
-112,57,0,0,0,0,0,0,0,0,0,-1,1112,967,0,0
-105,57,0,0,0,0,0,0,0,0,0,-1,1119,967,0,0
-98,57,0,0,0,0,0,0,0,0,0,-1,1126,967,0,0
-91,57,0,0,0,0,0,0,0,0,0,-1,1133,967,0,0
-84,57,0,0,0,0,0,0,0,0,0,-1,1140,967,0,0
-77,57,0,0,0,0,0,0,0,0,0,-1,1147,967,0,0
-70,57,0,0,0,0,0,0,0,0,0,-1,1154,967,0,0
-63,57,0,0,0,0,0,0,0,0,0,-1,1161,967,0,0
-56,57,0,0,0,0,0,0,0,0,0,-1,1168,967,0,0
-49,57,0,0,0,0,0,0,0,0,0,-1,1175,967,0,0
-42,57,0,0,0,0,0,0,0,0,0,-1,1182,967,0,0
-35,57,0,0,0,0,0,0,0,0,0,-1,1189,967,0,0
-28,57,0,0,0,0,0,0,0,0,0,-1,1196,967,0,0
-21,57,0,0,0,0,0,0,0,0,0,-1,1203,967,0,0
-14,57,0,0,0,0,0,0,0,0,0,-1,1210,967,0,0
-7,57,0,0,0,0,0,0,0,0,0,-1,1217,967,0,0
0,57,0,0,0,0,0,0,0,0,0,-1,1224,967,0,0
7,57,0,0,0,0,0,0,0,0,0,-1,1231,967,0,0
14,57,0,0,0,0,0,0,0,0,0,-1,1238,967,0,0
21,57,0,0,0,0,0,0,0,0,0,-1,1245,967,0,0
28,57,0,0,0,0,0,0,0,0,0,-1,1252,967,0,0
35,57,0,0,0,0,0,0,0,0,0,-1,1259,967,0,0
42,57,0,0,0,0,0,0,0,0,0,-1,1266,967,0,0
49,57,0,0,0,0,0,0,0,0,0,-1,1273,967,0,0
56,57,0,0,0,0,0,0,0,0,0,-1,1280,967,0,0
63,57,0,0,0,0,0,0,0,0,0,-1,1287,967,0,0
70,57,0,0,0,0,0,0,0,0,0,-1,1294,967,0,0
77,57,0,0,0,0,0,0,0,0,0,-1,1301,967,0,0
84,57,0,0,0,0,0,0,0,0,0,-1,1308,967,0,0
91,57,0,0,0,0,0,0,0,0,0,-1,1315,967,0,0
98,57,0,0,0,0,0,0,0,0,0,-1,1322,967,0,0
105,57,0,0,0,0,0,0,0,0,0,-1,1329,967,0,0
112,57,0,0,0,0,0,0,0,0,0,-1,1336,967,0,0
119,57,0,0,0,0,0,0,0,0,0,-1,1343,967,0,0
126,57,0,0,0,0,0,0,0,0,0,-1,1350,967,0,0
133,57,0,0,0,0,0,0,0,0,0,-1,1357,967,0,0
140,57,0,0,0,0,0,0,0,0,0,-1,1364,967,0,0
147,57,0,0,0,0,0,0,0,0,0,-1,1371,967,0,0
154,57,0,0,0,0,0,0,0,0,0,-1,1378,967,0,0
161,57,0,0,0,0,0,0,0,0,0,-1,1385,967,0,0
168,57,0,0,0,0,0,0,0,0,0,-1,1392,967,0,0
175,57,0,0,0,0,0,0,0,0,0,-1,1399,967,0,0
182,57,0,0,0,0,0,0,0,0,0,-1,1406,967,0,0
189,57,0,0,0,0,0,0,0,0,0,-1,1413,967,0,0
196,57,0,0,0,0,0,0,0,0,0,-1,1420,967,0,0
203,57,0,0,0,0,0,0,0,0,0,-1,1427,967,0,0
210,57,0,0,0,0,0,0,0,0,0,-1,1434,967,0,0
217,57,0,0,0,0,0,0,0,0,0,-1,1441,967,0,0
224,57,0,0,0,0,0,0,0,0,0,-1,1448,967,0,0
231,57,0,0,0,0,0,0,0,0,0,-1,1455,967,0,0
238,57,0,0,0,0,0,0,0,0,0,-1,1462,967,0,0
245,57,0,0,0,0,0,0,0,0,0,-1,1469,967,0,0
252,57,0,0,0,0,0,0,0,0,0,-1,1476,967,0,0
259,57,0,0,0,0,0,0,0,0,0,-1,1483,967,0,0
266,57,0,0,0,0,0,0,0,0,0,-1,1490,967,0,0
273,57,0,0,0,0,0,0,0,0,0,-1,1497,967,0,0
280,57,0,0,0,0,0,0,0,0,0,-1,1504,967,0,0
287,57,0,0,0,0,0,0,0,0,0,-1,1511,967,0,0
294,57,0,0,0,0,0,0,0,0,0,-1,1518,967,0,0
301,57,0,0,0,0,0,0,0,0,0,-1,1525,967,0,0
308,57,0,0,0,0,0,0,0,0,0,-1,1532,967,0,0
315,57,0,0,0,0,0,0,0,0,0,-1,1539,967,0,0
322,57,0,0,0,0,0,0,0,0,0,-1,1546,967,0,0
329,57,0,0,0,0,0,0,0,0,0,-1,1553,967,0,0
336,57,0,0,0,0,0,0,0,0,0,-1,1560,967,0,0
343,57,0,0,0,0,0,0,0,0,0,-1,1567,967,0,0
350,57,0,0,0,0,0,0,0,0,0,-1,1574,967,0,0
357,57,0,0,0,0,0,0,0,0,0,-1,1581,967,0,0
364,57,0,0,0,0,0,0,0,0,0,-1,1588,967,0,0
371,57,0,0,0,0,0,0,0,0,0,-1,1595,967,0,0
378,57,0,0,0,0,0,0,0,0,0,-1,1602,967,0,0
385,57,0,0,0,0,0,0,0,0,0,-1,1609,967,0,0
392,57,0,0,0,0,0,0,0,0,0,-1,1616,967,0,0
399,57,0,0,0,0,0,0,0,0,0,-1,1623,967,0,0
406,57,0,0,0,0,0,0,0,0,0,-1,1630,967,0,0
413,57,0,0,0,0,0,0,0,0,0,-1,1637,967,0,0
420,57,0,0,0,0,0,0,0,0,0,-1,1644,967,0,0
427,57,0,0,0,0,0,0,0,0,0,-1,1651,967,0,0
434,57,0,0,0,0,0,0,0,0,0,-1,1658,967,0,0
441,57,0,0,0,0,0,0,0,0,0,-1,1665,967,0,0
448,57,0,0,0,0,0,0,0,0,0,-1,1672,967,0,0
455,57,0,0,0,0,0,0,0,0,0,-1,1679,967,0,0
462,57,0,0,0,0,0,0,0,0,0,-1,1686,967,0,0
469,57,0,0,0,0,0,0,0,0,0,-1,1693,967,0,0
476,57,0,0,0,0,0,0,0,0,0,-1,1700,967,0,0
483,57,0,0,0,0,0,0,0,0,0,-1,1707,967,0,0
490,57,0,0,0,0,0,0,0,0,0,-1,1714,967,0,0
497,57,0,0,0,0,0,0,0,0,0,-1,1721,967,0,0
504,57,0,0,0,0,0,0,0,0,0,-1,1728,967,0,0
511,57,0,0,0,0,0,0,0,0,0,-1,1735,967,0,0
518,57,0,0,0,0,0,0,0,0,0,-1,1742,967,0,0
525,57,0,0,0,0,0,0,0,0,0,-1,1749,967,0,0
532,57,0,0,0,0,0,0,0,0,0,-1,1756,967,0,0
539,57,0,0,0,0,0,0,0,0,0,-1,1763,967,0,0
546,57,0,0,0,0,0,0,0,0,0,-1,1770,967,0,0
553,57,0,0,0,0,0,0,0,0,0,-1,1777,967,0,0
560,57,0,0,0,0,0,0,0,0,0,-1,1784,967,0,0
567,57,0,0,0,0,0,0,0,0,0,-1,1791,967,0,0
574,57,0,0,0,0,0,0,0,0,0,-1,1798,967,0,0
581,57,0,0,0,0,0,0,0,0,0,-1,1805,967,0,0
588,57,0,0,0,0,0,0,0,0,0,-1,1812,967,0,0
595,57,0,0,0,0,0,0,0,0,0,-1,1819,967,0,0
602,57,0,0,0,0,0,0,0,0,0,-1,1826,967,0,0
609,57,0,0,0,0,0,0,0,0,0,-1,1833,967,0,0
616,57,0,0,0,0,0,0,0,0,0,-1,1840,967,0,0
623,57,0,0,0,0,0,0,0,0,0,-1,1847,967,0,0
630,57,0,0,0,0,0,0,0,0,0,-1,1854,967,0,0
637,57,0,0,0,0,0,0,0,0,0,-1,1861,967,0,0
644,57,79.9374,2.21924,0.00698478,9.01209e-05,0.00606544,0.0105141,-0.0034392,0.526985,0.00839403,0.043173,1868,967,79.9374,-2.21927
651,57,80.0582,2.22821,0.00473848,0.000650713,0.00426061,0.00742009,-0.00203089,0.561753,0.00574462,0.0375745,1875,967,80.0582,-2.22821
658,57,80.0109,2.31311,0.00328487,0.00111706,0.00294106,0.0053354,-0.000933468,0.60885,0.00390545,0.0343795,1882,967,80.0109,-2.31309
665,57,79.899,2.39307,0.0023239,0.00155932,0.00186422,0.00384462,3.85994e-05,0.684266,0.00255031,0.0408007,1889,967,79.8991,-2.39309
672,57,79.9954,2.37585,0.0014096,0.0017876,0.00108954,0.00270441,0.000492782,0.871278,0.0016632,0.0442122,1896,967,79.9954,-2.37587
679,57,80.1469,2.22852,0.000678467,0.00156734,0.000776521,0.00201762,0.000228192,1.04532,0.00127583,0.0420572,1903,967,80.1468,-2.22855
686,57,80.1123,2.10846,0.000241434,0.00104707,0.000535352,0.00131423,-2.57214e-05,1.10793,0.000884849,0.0391568,1910,967,80.1123,-2.10849
693,57,80.0284,2.10956,-0.000372269,0.000541535,0.000264747,0.000612696,-0.000443429,1.30821,0.000612359,0.0324144,1917,967,80.0284,-2.10955
700,57,80.068,2.19,-0.00127305,0.000379087,-1.61503e-05,0.000379245,-0.00127321,-1.56102,0.0009995,0.0236144,1924,967,80.068,-2.19002
707,57,80.0363,2.505,0,0,0,0,0,0,0,-1,1931,967,80.0363,-2.50499
714,57,76.8607,2.55151,0,0,0,0,0,0,0,-1,1938,967,76.8607,-2.55154
721,57,78.7972,5.75647,0,0,0,0,0,0,0,-1,1945,967,78.7973,-5.7565
728,57,78.3849,6.4668,-0.00477818,0.00340793,-0.00133696,0.00362075,-0.004991,-1.41294,0.00499293,0.0265606,1952,967,78.3848,-6.46679
735,57,78.3888,7.01013,-0.00599877,0.00530181,-0.00143768,0.00548185,-0.00617881,-1.44622,0.00673629,0.0353111,1959,967,78.3888,-7.01013
742,57,78.428,7.32733,-0.0071184,0.00749185,-0.00173964,0.00769613,-0.00732268,-1.4539,0.00867201,0.026006,1966,967,78.428,-7.32735
749,57,78.3313,7.83545,-0.00827504,0.0108455,-0.00236137,0.0111328,-0.00856235,-1.44972,0.0114032,0.0171622,1973,967,78.3313,-7.83545
756,57,78.2419,8.29535,-0.00952944,0.0157426,-0.00276911,0.0160425,-0.0098293,-1.46293,0.01508,0.0140198,1980,967,78.2419,-8.29536
763,57,78.1196,8.7348,-0.0104592,0.0223026,-0.00271182,0.0225255,-0.0106821,-1.48877,0.0195747,0.0140199,1987,967,78.1196,-8.73479
770,57,77.9373,9.08734,-0.0110332,0.0295465,-0.00222758,0.0296685,-0.0111551,-1.51612,0.024364,0.0139845,1994,967,77.9373,-9.08735
777,57,77.7515,9.39636,-0.0117466,0.0370389,-0.00119989,0.0370684,-0.0117761,-1.54622,0.0294336,0.0288522,2001,967,77.7514,-9.39636
784,57,77.5723,9.67926,-0.0116621,0.0448729,0.000767044,0.0448833,-0.0116725,1.55723,0.0344781,0.0456679,2008,967,77.5723,-9.67924
791,57,77.3823,10.008,0,0,0,0,0,0,0,-1,2015,967,77.3823,-10.008
798,57,77.2507,10.8243,0,0,0,0,0,0,0,-1,2022,967,77.2508,-10.8243
805,57,77.2561,10.3493,0,0,0,0,0,0,0,-1,2029,967,77.2562,-10.3493
812,57,0,0,0,0,0,0,0,0,0,-1,2036,967,0,0
-700,50,0,0,0,0,0,0,0,0,0,-1,524,974,0,0
-693,50,-67.7582,4.58246,0,0,0,0,0,0,0,-1,531,974,-67.7582,-4.58245
-686,50,-66.2647,4.7536,0,0,0,0,0,0,0,-1,538,974,-66.2647,-4.75357
-679,50,-64.4182,4.40973,0,0,0,0,0,0,0,-1,545,974,-64.4182,-4.40974
-672,50,-62.6164,4.36829,0,0,0,0,0,0,0,-1,552,974,-62.6164,-4.36826
-665,50,-60.8032,4.2865,0,0,0,0,0,0,0,-1,559,974,-60.8032,-4.28652
-658,50,-62.2433,8.87628,0,0,0,0,0,0,0,-1,566,974,-62.2433,-8.87625
-651,50,-62.4035,8.88031,0,0,0,0,0,0,0,-1,573,974,-62.4035,-8.88032
-644,50,-62.6475,8.57208,0.00126872,0.0548496,0.0051648,0.0553429,0.000775414,1.47557,0.0366395,0.037866,580,974,-62.6475,-8.57207
-637,50,-62.8309,8.22394,-0.0011381,0.0413868,0.00524718,0.0420247,-0.00177599,1.44982,0.0286268,0.0213653,587,974,-62.8309,-8.22392
-630,50,-62.9494,7.90741,-0.00267018,0.0297106,0.00521533,0.0305299,-0.00348945,1.41498,0.0216105,0.0124835,594,974,-62.9494,-7.90743
-623,50,-62.9924,7.59137,-0.00376579,0.0196755,0.00511503,0.0207431,-0.0048333,1.36505,0.0156899,0.014042,601,974,-62.9924,-7.5914
-616,50,-63.0068,7.21576,-0.00394127,0.0121231,0.00509968,0.0136053,-0.00542343,1.28795,0.0113197,0.0145822,608,974,-63.0068,-7.21577
-609,50,-63.0184,6.73761,-0.00358714,0.00696784,0.00490382,0.00889447,-0.00551377,1.19644,0.00839458,0.0124214,615,974,-63.0184,-6.73758
-602,50,-63.0222,6.28925,-0.00297477,0.00413708,0.00434434,0.00619524,-0.00503293,1.12836,0.00649415,0.0121203,622,974,-63.0222,-6.28926
-595,50,-63.0727,5.88037,-0.00250559,0.0022931,0.00365493,0.00426587,-0.00447836,1.07585,0.00504898,0.0188478,629,974,-63.0727,-5.88035
-588,50,-63.041,5.20972,-0.0019546,0.000733637,0.00304991,0.00272247,-0.00394343,0.992948,0.00387002,0.0375028,636,974,-63.041,-5.2097
-581,50,-62.9492,4.20605,0,0,0,0,0,0,0,-1,643,974,-62.9492,-4.20605
-574,50,-63.4448,0.306885,-0.00115389,-0.00101719,0.00157016,0.000486111,-0.00265719,0.807151,0.00195376,0.0312905,650,974,-63.4448,-0.306913
-567,50,-63.4197,0.624878,-0.00084709,-0.00104748,0.000740475,-0.000200062,-0.00169451,0.718151,0.00106924,0.0386297,657,974,-63.4197,-0.624893
-560,50,-63.2891,0.564392,-0.000539397,-0.000631849,-0.00020334,-0.000377094,-0.000794151,-0.673631,0.000458697,0.0431534,664,974,-63.2891,-0.564419
-553,50,-63.3676,0.370361,-0.000181149,0.000203496,-0.00131773,0.00134286,-0.00132051,-0.857862,0.00153772,0.0393774,671,974,-63.3676,-0.37034
-546,50,-63.4306,0.17627,0.000274365,0.00122881,-0.00259167,0.00338683,-0.00188366,-0.876447,0.0030839,0.0388384,678,974,-63.4306,-0.176279
-539,50,-63.4316,0.186951,0.000600352,0.00197685,-0.0039948,0.00534226,-0.00276506,-0.870704,0.00475894,0.0439388,685,974,-63.4316,-0.186979
-532,50,-63.5533,0.284485,0.00118974,0.00267432,-0.00519916,0.00718391,-0.00331985,-0.856305,0.00619962,0.045227,692,974,-63.5533,-0.284475
-525,50,-63.3965,0.0112305,0.00165864,0.00340844,-0.00626242,0.00885678,-0.00378969,-0.854802,0.00749426,0.0431456,699,974,-63.3965,-0.0112184
-518,50,0,0,0,0,0,0,0,0,0,-1,706,974,0,0
-511,50,0,0,0,0,0,0,0,0,0,-1,713,974,0,0
-504,50,0,0,0,0,0,0,0,0,0,-1,720,974,0,0
-497,50,0,0,0,0,0,0,0,0,0,-1,727,974,0,0
-490,50,0,0,0,0,0,0,0,0,0,-1,734,974,0,0
-483,50,0,0,0,0,0,0,0,0,0,-1,741,974,0,0
-476,50,0,0,0,0,0,0,0,0,0,-1,748,974,0,0
-469,50,0,0,0,0,0,0,0,0,0,-1,755,974,0,0
-462,50,0,0,0,0,0,0,0,0,0,-1,762,974,0,0
-455,50,0,0,0,0,0,0,0,0,0,-1,769,974,0,0
-448,50,0,0,0,0,0,0,0,0,0,-1,776,974,0,0
-441,50,0,0,0,0,0,0,0,0,0,-1,783,974,0,0
-434,50,0,0,0,0,0,0,0,0,0,-1,790,974,0,0
-427,50,0,0,0,0,0,0,0,0,0,-1,797,974,0,0
-420,50,0,0,0,0,0,0,0,0,0,-1,804,974,0,0
-413,50,0,0,0,0,0,0,0,0,0,-1,811,974,0,0
-406,50,0,0,0,0,0,0,0,0,0,-1,818,974,0,0
-399,50,0,0,0,0,0,0,0,0,0,-1,825,974,0,0
-392,50,0,0,0,0,0,0,0,0,0,-1,832,974,0,0
-385,50,0,0,0,0,0,0,0,0,0,-1,839,974,0,0
-378,50,0,0,0,0,0,0,0,0,0,-1,846,974,0,0
-371,50,0,0,0,0,0,0,0,0,0,-1,853,974,0,0
-364,50,0,0,0,0,0,0,0,0,0,-1,860,974,0,0
-357,50,0,0,0,0,0,0,0,0,0,-1,867,974,0,0
-350,50,0,0,0,0,0,0,0,0,0,-1,874,974,0,0
-343,50,0,0,0,0,0,0,0,0,0,-1,881,974,0,0
-336,50,0,0,0,0,0,0,0,0,0,-1,888,974,0,0
-329,50,0,0,0,0,0,0,0,0,0,-1,895,974,0,0
-322,50,0,0,0,0,0,0,0,0,0,-1,902,974,0,0
-315,50,0,0,0,0,0,0,0,0,0,-1,909,974,0,0
-308,50,0,0,0,0,0,0,0,0,0,-1,916,974,0,0
-301,50,0,0,0,0,0,0,0,0,0,-1,923,974,0,0
-294,50,0,0,0,0,0,0,0,0,0,-1,930,974,0,0
-287,50,0,0,0,0,0,0,0,0,0,-1,937,974,0,0
-280,50,0,0,0,0,0,0,0,0,0,-1,944,974,0,0
-273,50,0,0,0,0,0,0,0,0,0,-1,951,974,0,0
-266,50,0,0,0,0,0,0,0,0,0,-1,958,974,0,0
-259,50,0,0,0,0,0,0,0,0,0,-1,965,974,0,0
-252,50,0,0,0,0,0,0,0,0,0,-1,972,974,0,0
-245,50,0,0,0,0,0,0,0,0,0,-1,979,974,0,0
-238,50,0,0,0,0,0,0,0,0,0,-1,986,974,0,0
-231,50,0,0,0,0,0,0,0,0,0,-1,993,974,0,0
-224,50,0,0,0,0,0,0,0,0,0,-1,1000,974,0,0
-217,50,0,0,0,0,0,0,0,0,0,-1,1007,974,0,0
-210,50,0,0,0,0,0,0,0,0,0,-1,1014,974,0,0
-203,50,0,0,0,0,0,0,0,0,0,-1,1021,974,0,0
-196,50,0,0,0,0,0,0,0,0,0,-1,1028,974,0,0
-189,50,0,0,0,0,0,0,0,0,0,-1,1035,974,0,0
-182,50,0,0,0,0,0,0,0,0,0,-1,1042,974,0,0
-175,50,0,0,0,0,0,0,0,0,0,-1,1049,974,0,0
-168,50,0,0,0,0,0,0,0,0,0,-1,1056,974,0,0
-161,50,0,0,0,0,0,0,0,0,0,-1,1063,974,0,0
-154,50,0,0,0,0,0,0,0,0,0,-1,1070,974,0,0
-147,50,0,0,0,0,0,0,0,0,0,-1,1077,974,0,0
-140,50,0,0,0,0,0,0,0,0,0,-1,1084,974,0,0
-133,50,0,0,0,0,0,0,0,0,0,-1,1091,974,0,0
-126,50,0,0,0,0,0,0,0,0,0,-1,1098,974,0,0
-119,50,0,0,0,0,0,0,0,0,0,-1,1105,974,0,0
-112,50,0,0,0,0,0,0,0,0,0,-1,1112,974,0,0
-105,50,0,0,0,0,0,0,0,0,0,-1,1119,974,0,0
-98,50,0,0,0,0,0,0,0,0,0,-1,1126,974,0,0
-91,50,0,0,0,0,0,0,0,0,0,-1,1133,974,0,0
-84,50,0,0,0,0,0,0,0,0,0,-1,1140,974,0,0
-77,50,0,0,0,0,0,0,0,0,0,-1,1147,974,0,0
-70,50,0,0,0,0,0,0,0,0,0,-1,1154,974,0,0
-63,50,0,0,0,0,0,0,0,0,0,-1,1161,974,0,0
-56,50,0,0,0,0,0,0,0,0,0,-1,1168,974,0,0
-49,50,0,0,0,0,0,0,0,0,0,-1,1175,974,0,0
-42,50,0,0,0,0,0,0,0,0,0,-1,1182,974,0,0
-35,50,0,0,0,0,0,0,0,0,0,-1,1189,974,0,0
-28,50,0,0,0,0,0,0,0,0,0,-1,1196,974,0,0
-21,50,0,0,0,0,0,0,0,0,0,-1,1203,974,0,0
-14,50,0,0,0,0,0,0,0,0,0,-1,1210,974,0,0
-7,50,0,0,0,0,0,0,0,0,0,-1,1217,974,0,0
0,50,0,0,0,0,0,0,0,0,0,-1,1224,974,0,0
7,50,0,0,0,0,0,0,0,0,0,-1,1231,974,0,0
14,50,0,0,0,0,0,0,0,0,0,-1,1238,974,0,0
21,50,0,0,0,0,0,0,0,0,0,-1,1245,974,0,0
28,50,0,0,0,0,0,0,0,0,0,-1,1252,974,0,0
35,50,0,0,0,0,0,0,0,0,0,-1,1259,974,0,0
42,50,0,0,0,0,0,0,0,0,0,-1,1266,974,0,0
49,50,0,0,0,0,0,0,0,0,0,-1,1273,974,0,0
56,50,0,0,0,0,0,0,0,0,0,-1,1280,974,0,0
63,50,0,0,0,0,0,0,0,0,0,-1,1287,974,0,0
70,50,0,0,0,0,0,0,0,0,0,-1,1294,974,0,0
77,50,0,0,0,0,0,0,0,0,0,-1,1301,974,0,0
84,50,0,0,0,0,0,0,0,0,0,-1,1308,974,0,0
91,50,0,0,0,0,0,0,0,0,0,-1,1315,974,0,0
98,50,0,0,0,0,0,0,0,0,0,-1,1322,974,0,0
105,50,0,0,0,0,0,0,0,0,0,-1,1329,974,0,0
112,50,0,0,0,0,0,0,0,0,0,-1,1336,974,0,0
119,50,0,0,0,0,0,0,0,0,0,-1,1343,974,0,0
126,50,0,0,0,0,0,0,0,0,0,-1,1350,974,0,0
133,50,0,0,0,0,0,0,0,0,0,-1,1357,974,0,0
140,50,0,0,0,0,0,0,0,0,0,-1,1364,974,0,0
147,50,0,0,0,0,0,0,0,0,0,-1,1371,974,0,0
154,50,0,0,0,0,0,0,0,0,0,-1,1378,974,0,0
161,50,0,0,0,0,0,0,0,0,0,-1,1385,974,0,0
168,50,0,0,0,0,0,0,0,0,0,-1,1392,974,0,0
175,50,0,0,0,0,0,0,0,0,0,-1,1399,974,0,0
182,50,0,0,0,0,0,0,0,0,0,-1,1406,974,0,0
189,50,0,0,0,0,0,0,0,0,0,-1,1413,974,0,0
196,50,0,0,0,0,0,0,0,0,0,-1,1420,974,0,0
203,50,0,0,0,0,0,0,0,0,0,-1,1427,974,0,0
210,50,0,0,0,0,0,0,0,0,0,-1,1434,974,0,0
217,50,0,0,0,0,0,0,0,0,0,-1,1441,974,0,0
224,50,0,0,0,0,0,0,0,0,0,-1,1448,974,0,0
231,50,0,0,0,0,0,0,0,0,0,-1,1455,974,0,0
238,50,0,0,0,0,0,0,0,0,0,-1,1462,974,0,0
245,50,0,0,0,0,0,0,0,0,0,-1,1469,974,0,0
252,50,0,0,0,0,0,0,0,0,0,-1,1476,974,0,0
259,50,0,0,0,0,0,0,0,0,0,-1,1483,974,0,0
266,50,0,0,0,0,0,0,0,0,0,-1,1490,974,0,0
273,50,0,0,0,0,0,0,0,0,0,-1,1497,974,0,0
280,50,0,0,0,0,0,0,0,0,0,-1,1504,974,0,0
287,50,0,0,0,0,0,0,0,0,0,-1,1511,974,0,0
294,50,0,0,0,0,0,0,0,0,0,-1,1518,974,0,0
301,50,0,0,0,0,0,0,0,0,0,-1,1525,974,0,0
308,50,0,0,0,0,0,0,0,0,0,-1,1532,974,0,0
315,50,0,0,0,0,0,0,0,0,0,-1,1539,974,0,0
322,50,0,0,0,0,0,0,0,0,0,-1,1546,974,0,0
329,50,0,0,0,0,0,0,0,0,0,-1,1553,974,0,0
336,50,0,0,0,0,0,0,0,0,0,-1,1560,974,0,0
343,50,0,0,0,0,0,0,0,0,0,-1,1567,974,0,0
350,50,0,0,0,0,0,0,0,0,0,-1,1574,974,0,0
357,50,0,0,0,0,0,0,0,0,0,-1,1581,974,0,0
364,50,0,0,0,0,0,0,0,0,0,-1,1588,974,0,0
371,50,0,0,0,0,0,0,0,0,0,-1,1595,974,0,0
378,50,0,0,0,0,0,0,0,0,0,-1,1602,974,0,0
385,50,0,0,0,0,0,0,0,0,0,-1,1609,974,0,0
392,50,0,0,0,0,0,0,0,0,0,-1,1616,974,0,0
399,50,0,0,0,0,0,0,0,0,0,-1,1623,974,0,0
406,50,0,0,0,0,0,0,0,0,0,-1,1630,974,0,0
413,50,0,0,0,0,0,0,0,0,0,-1,1637,974,0,0
420,50,0,0,0,0,0,0,0,0,0,-1,1644,974,0,0
427,50,0,0,0,0,0,0,0,0,0,-1,1651,974,0,0
434,50,0,0,0,0,0,0,0,0,0,-1,1658,974,0,0
441,50,0,0,0,0,0,0,0,0,0,-1,1665,974,0,0
448,50,0,0,0,0,0,0,0,0,0,-1,1672,974,0,0
455,50,0,0,0,0,0,0,0,0,0,-1,1679,974,0,0
462,50,0,0,0,0,0,0,0,0,0,-1,1686,974,0,0
469,50,0,0,0,0,0,0,0,0,0,-1,1693,974,0,0
476,50,0,0,0,0,0,0,0,0,0,-1,1700,974,0,0
483,50,0,0,0,0,0,0,0,0,0,-1,1707,974,0,0
490,50,0,0,0,0,0,0,0,0,0,-1,1714,974,0,0
497,50,0,0,0,0,0,0,0,0,0,-1,1721,974,0,0
504,50,0,0,0,0,0,0,0,0,0,-1,1728,974,0,0
511,50,0,0,0,0,0,0,0,0,0,-1,1735,974,0,0
518,50,0,0,0,0,0,0,0,0,0,-1,1742,974,0,0
525,50,0,0,0,0,0,0,0,0,0,-1,1749,974,0,0
532,50,0,0,0,0,0,0,0,0,0,-1,1756,974,0,0
539,50,0,0,0,0,0,0,0,0,0,-1,1763,974,0,0
546,50,0,0,0,0,0,0,0,0,0,-1,1770,974,0,0
553,50,0,0,0,0,0,0,0,0,0,-1,1777,974,0,0
560,50,0,0,0,0,0,0,0,0,0,-1,1784,974,0,0
567,50,0,0,0,0,0,0,0,0,0,-1,1791,974,0,0
574,50,0,0,0,0,0,0,0,0,0,-1,1798,974,0,0
581,50,0,0,0,0,0,0,0,0,0,-1,1805,974,0,0
588,50,0,0,0,0,0,0,0,0,0,-1,1812,974,0,0
595,50,0,0,0,0,0,0,0,0,0,-1,1819,974,0,0
602,50,0,0,0,0,0,0,0,0,0,-1,1826,974,0,0
609,50,0,0,0,0,0,0,0,0,0,-1,1833,974,0,0
616,50,0,0,0,0,0,0,0,0,0,-1,1840,974,0,0
623,50,0,0,0,0,0,0,0,0,0,-1,1847,974,0,0
630,50,0,0,0,0,0,0,0,0,0,-1,1854,974,0,0
637,50,0,0,0,0,0,0,0,0,0,-1,1861,974,0,0
644,50,79.995,2.36963,0.00707793,-0.000264716,0.00561884,0.0101185,-0.00330532,0.496019,0.00807616,0.0389251,1868,974,79.995,-2.36963
651,50,80.0121,2.27643,0.00484806,0.000557976,0.00376866,0.00703938,-0.00163334,0.526674,0.00532158,0.0322742,1875,974,80.0121,-2.27643
658,50,80.0659,2.22839,0.00339754,0.00115854,0.0024753,0.00499473,-0.000438645,0.573029,0.00348525,0.0359353,1882,974,80.066,-2.22838
665,50,80.0419,2.1214,0.00242328,0.00167932,0.00149519,0.00359207,0.000510533,0.66348,0.00224398,0.0410306,1889,974,80.0418,-2.12139
672,50,79.9777,2.14514,0.00151961,0.00199022,0.000812876,0.00260116,0.00090867,0.926282,0.00152434,0.0434042,1896,974,79.9777,-2.14513
679,50,79.9481,2.28064,0.000808021,0.00184337,0.000568718,0.00209474,0.000556653,1.15462,0.00125287,0.0418415,1903,974,79.9481,-2.28061
686,50,80.0836,2.02856,0.000391691,0.00131497,0.000433209,0.0014864,0.000220257,1.19398,0.000926287,0.0426881,1910,974,80.0837,-2.02858
693,50,79.9745,2.05646,-0.000171336,0.000747233,0.000274903,0.000823218,-0.000247322,1.30112,0.000647201,0.0381448,1917,974,79.9745,-2.05648
700,50,79.9935,2.24744,-0.000987339,0.000507389,7.06544e-05,0.000510721,-0.000990671,1.52367,0.000881469,0.0191705,1924,974,79.9935,-2.24741
707,50,80.0502,2.32825,-0.00178604,0.000791061,-0.000256834,0.000816407,-0.00181139,-1.47243,0.00155299,0.030572,1931,974,80.0501,-2.32828
714,50,79.9996,2.4057,0,0,0,0,0,0,0,-1,1938,974,79.9996,-2.40569
721,50,78.8406,6.02631,0,0,0,0,0,0,0,-1,1945,974,78.8405,-6.02631
728,50,78.9359,6.50085,-0.00483036,0.00368032,-0.00108857,0.00381734,-0.00496739,-1.44557,0.00508634,0.0214329,1952,974,78.936,-6.50087
735,50,78.9569,6.9859,-0.00609153,0.00557361,-0.00121257,0.00569833,-0.00621624,-1.46831,0.00688104,0.0230103,1959,974,78.9569,-6.98592
742,50,78.9224,7.43317,-0.00737689,0.00781331,-0.00151681,0.00796328,-0.00752687,-1.47224,0.00894443,0.0173104,1966,974,78.9223,-7.43315
749,50,78.8403,7.7937,-0.00880562,0.0111526,-0.0021509,0.0113818,-0.00903479,-1.46465,0.0118135,0.0182888,1973,974,78.8402,-7.79373
756,50,78.7402,8.18994,-0.0104808,0.0159651,-0.00263893,0.0162258,-0.0107416,-1.4723,0.0156766,0.0162877,1980,974,78.7403,-8.18996
763,50,78.6055,8.58105,-0.0119586,0.0225468,-0.0027394,0.0227629,-0.0121747,-1.49206,0.0204777,0.0149733,1987,974,78.6055,-8.58107
770,50,78.4641,8.91956,-0.0130756,0.0301015,-0.00240655,0.0302352,-0.0132093,-1.51529,0.0257167,0.014912,1994,974,78.4642,-8.91956
777,50,78.3508,9.29901,-0.0142734,0.037946,-0.00152962,0.0379908,-0.0143181,-1.54154,0.0312144,0.0264041,2001,974,78.3509,-9.299
784,50,78.1992,9.49371,-0.014674,0.0462004,0.000286453,0.0462017,-0.0146754,1.56609,0.0366848,0.0415311,2008,974,78.1992,-9.4937
791,50,78.0781,9.73956,0,0,0,0,0,0,0,-1,2015,974,78.0782,-9.73955
798,50,77.7151,10.6046,0,0,0,0,0,0,0,-1,2022,974,77.7151,-10.6046
805,50,77.8372,10.4556,0,0,0,0,0,0,0,-1,2029,974,77.8371,-10.4556
812,50,0,0,0,0,0,0,0,0,0,-1,2036,974,0,0
-700,43,0,0,0,0,0,0,0,0,0,-1,524,981,0,0
-693,43,-67.7877,4.7514,0,0,0,0,0,0,0,-1,531,981,-67.7877,-4.75138
-686,43,-66.3817,4.80627,0,0,0,0,0,0,0,-1,538,981,-66.3817,-4.80626
-679,43,-65.0664,4.95782,0,0,0,0,0,0,0,-1,545,981,-65.0664,-4.95785
-672,43,-63.4396,4.6557,0,0,0,0,0,0,0,-1,552,981,-63.4396,-4.6557
-665,43,-61.9078,4.38477,0,0,0,0,0,0,0,-1,559,981,-61.9078,-4.38478
-658,43,-62.5038,8.5155,0,0,0,0,0,0,0,-1,566,981,-62.5038,-8.51547
-651,43,-62.7726,8.69098,0,0,0,0,0,0,0,-1,573,981,-62.7725,-8.69098
-644,43,-63.1042,8.34998,-0.00362185,0.0527298,0.00485654,0.0531452,-0.00403734,1.48545,0.0368497,0.0284318,580,981,-63.1042,-8.34995
-637,43,-63.3124,8.04102,-0.00479565,0.0396718,0.00487618,0.0402003,-0.00532408,1.46285,0.0287397,0.0196235,587,981,-63.3124,-8.04102
-630,43,-63.3795,7.78497,-0.00531544,0.0284262,0.00484111,0.029107,-0.00599629,1.43107,0.0216816,0.0149661,594,981,-63.3794,-7.785
-623,43,-63.4102,7.48785,-0.00554605,0.0188645,0.00473509,0.0197508,-0.00643237,1.38576,0.0157553,0.0133589,601,981,-63.4102,-7.48786
-616,43,-63.4324,7.12231,-0.00521181,0.0118456,0.00475345,0.0130808,-0.00644702,1.31656,0.0114892,0.0136132,608,981,-63.4324,-7.12233
-609,43,-63.4374,6.73358,-0.0046421,0.00702722,0.00461499,0.00863173,-0.00624662,1.23619,0.00862674,0.0153854,615,981,-63.4374,-6.73359
-602,43,-63.4114,6.3786,-0.00389495,0.00425437,0.00411361,0.00596976,-0.00561034,1.17572,0.00668685,0.0174167,622,981,-63.4114,-6.37863
-595,43,-63.6113,6.02545,-0.00331385,0.00241433,0.00344172,0.00402779,-0.00492731,1.13242,0.00517892,0.020986,629,981,-63.6113,-6.02548
-588,43,-63.9445,5.79163,0,0,0,0,0,0,0,-1,636,981,-63.9445,-5.7916
-581,43,-63.4725,0.325073,0,0,0,0,0,0,0,-1,643,981,-63.4725,-0.325087
-574,43,-63.4462,0.401672,-0.00171835,-0.00108591,0.00138447,1.79991e-05,-0.00282225,0.897674,0.00188753,0.0322948,650,981,-63.4462,-0.401648
-567,43,-63.4346,0.733032,-0.00134684,-0.0011686,0.000552558,-0.000698023,-0.00181742,0.865354,0.00105865,0.0402608,657,981,-63.4346,-0.733047
-560,43,-63.3714,0.879578,-0.000955948,-0.000810567,-0.000427477,-0.000449645,-0.00131687,-0.869615,0.000772932,0.0433107,664,981,-63.3714,-0.879595
-553,43,-63.4287,0.575623,-0.000536422,-7.46532e-05,-0.00161458,0.00132547,-0.00193654,-0.856417,0.0018943,0.0409312,671,981,-63.4287,-0.575626
-546,43,-63.4031,0.190613,-7.48777e-05,0.000741296,-0.0029819,0.0033429,-0.00267648,-0.853403,0.00348239,0.0400456,678,981,-63.4031,-0.190588
-539,43,-63.3223,0.0390625,0.000119952,0.00113149,-0.00444681,0.0051012,-0.00384976,-0.842023,0.00518465,0.0455103,685,981,-63.3223,-0.0390414
-532,43,-63.4828,-0.0215454,0.000544057,0.00150014,-0.0055961,0.00663858,-0.00459438,-0.828007,0.00652105,0.0469672,692,981,-63.4828,0.0215418
-525,43,-63.5333,-0.050354,0.000852486,0.00189908,-0.00656772,0.00796432,-0.00521275,-0.825153,0.00766287,0.0440274,699,981,-63.5333,0.0503589
-518,43,0,0,0,0,0,0,0,0,0,-1,706,981,0,0
-511,43,0,0,0,0,0,0,0,0,0,-1,713,981,0,0
-504,43,0,0,0,0,0,0,0,0,0,-1,720,981,0,0
-497,43,0,0,0,0,0,0,0,0,0,-1,727,981,0,0
-490,43,0,0,0,0,0,0,0,0,0,-1,734,981,0,0
-483,43,0,0,0,0,0,0,0,0,0,-1,741,981,0,0
-476,43,0,0,0,0,0,0,0,0,0,-1,748,981,0,0
-469,43,0,0,0,0,0,0,0,0,0,-1,755,981,0,0
-462,43,0,0,0,0,0,0,0,0,0,-1,762,981,0,0
-455,43,0,0,0,0,0,0,0,0,0,-1,769,981,0,0
-448,43,0,0,0,0,0,0,0,0,0,-1,776,981,0,0
-441,43,0,0,0,0,0,0,0,0,0,-1,783,981,0,0
-434,43,0,0,0,0,0,0,0,0,0,-1,790,981,0,0
-427,43,0,0,0,0,0,0,0,0,0,-1,797,981,0,0
-420,43,0,0,0,0,0,0,0,0,0,-1,804,981,0,0
-413,43,0,0,0,0,0,0,0,0,0,-1,811,981,0,0
-406,43,0,0,0,0,0,0,0,0,0,-1,818,981,0,0
-399,43,0,0,0,0,0,0,0,0,0,-1,825,981,0,0
-392,43,0,0,0,0,0,0,0,0,0,-1,832,981,0,0
-385,43,0,0,0,0,0,0,0,0,0,-1,839,981,0,0
-378,43,0,0,0,0,0,0,0,0,0,-1,846,981,0,0
-371,43,0,0,0,0,0,0,0,0,0,-1,853,981,0,0
-364,43,0,0,0,0,0,0,0,0,0,-1,860,981,0,0
-357,43,0,0,0,0,0,0,0,0,0,-1,867,981,0,0
-350,43,0,0,0,0,0,0,0,0,0,-1,874,981,0,0
-343,43,0,0,0,0,0,0,0,0,0,-1,881,981,0,0
-336,43,0,0,0,0,0,0,0,0,0,-1,888,981,0,0
-329,43,0,0,0,0,0,0,0,0,0,-1,895,981,0,0
-322,43,0,0,0,0,0,0,0,0,0,-1,902,981,0,0
-315,43,0,0,0,0,0,0,0,0,0,-1,909,981,0,0
-308,43,0,0,0,0,0,0,0,0,0,-1,916,981,0,0
-301,43,0,0,0,0,0,0,0,0,0,-1,923,981,0,0
-294,43,0,0,0,0,0,0,0,0,0,-1,930,981,0,0
-287,43,0,0,0,0,0,0,0,0,0,-1,937,981,0,0
-280,43,0,0,0,0,0,0,0,0,0,-1,944,981,0,0
-273,43,0,0,0,0,0,0,0,0,0,-1,951,981,0,0
-266,43,0,0,0,0,0,0,0,0,0,-1,958,981,0,0
-259,43,0,0,0,0,0,0,0,0,0,-1,965,981,0,0
-252,43,0,0,0,0,0,0,0,0,0,-1,972,981,0,0
-245,43,0,0,0,0,0,0,0,0,0,-1,979,981,0,0
-238,43,0,0,0,0,0,0,0,0,0,-1,986,981,0,0
-231,43,0,0,0,0,0,0,0,0,0,-1,993,981,0,0
-224,43,0,0,0,0,0,0,0,0,0,-1,1000,981,0,0
-217,43,0,0,0,0,0,0,0,0,0,-1,1007,981,0,0
-210,43,0,0,0,0,0,0,0,0,0,-1,1014,981,0,0
-203,43,0,0,0,0,0,0,0,0,0,-1,1021,981,0,0
-196,43,0,0,0,0,0,0,0,0,0,-1,1028,981,0,0
-189,43,0,0,0,0,0,0,0,0,0,-1,1035,981,0,0
-182,43,0,0,0,0,0,0,0,0,0,-1,1042,981,0,0
-175,43,0,0,0,0,0,0,0,0,0,-1,1049,981,0,0
-168,43,0,0,0,0,0,0,0,0,0,-1,1056,981,0,0
-161,43,0,0,0,0,0,0,0,0,0,-1,1063,981,0,0
-154,43,0,0,0,0,0,0,0,0,0,-1,1070,981,0,0
-147,43,0,0,0,0,0,0,0,0,0,-1,1077,981,0,0
-140,43,0,0,0,0,0,0,0,0,0,-1,1084,981,0,0
-133,43,0,0,0,0,0,0,0,0,0,-1,1091,981,0,0
-126,43,0,0,0,0,0,0,0,0,0,-1,1098,981,0,0
-119,43,0,0,0,0,0,0,0,0,0,-1,1105,981,0,0
-112,43,0,0,0,0,0,0,0,0,0,-1,1112,981,0,0
-105,43,0,0,0,0,0,0,0,0,0,-1,1119,981,0,0
-98,43,0,0,0,0,0,0,0,0,0,-1,1126,981,0,0
-91,43,0,0,0,0,0,0,0,0,0,-1,1133,981,0,0
-84,43,0,0,0,0,0,0,0,0,0,-1,1140,981,0,0
-77,43,0,0,0,0,0,0,0,0,0,-1,1147,981,0,0
-70,43,0,0,0,0,0,0,0,0,0,-1,1154,981,0,0
-63,43,0,0,0,0,0,0,0,0,0,-1,1161,981,0,0
-56,43,0,0,0,0,0,0,0,0,0,-1,1168,981,0,0
-49,43,0,0,0,0,0,0,0,0,0,-1,1175,981,0,0
-42,43,0,0,0,0,0,0,0,0,0,-1,1182,981,0,0
-35,43,0,0,0,0,0,0,0,0,0,-1,1189,981,0,0
-28,43,0,0,0,0,0,0,0,0,0,-1,1196,981,0,0
-21,43,0,0,0,0,0,0,0,0,0,-1,1203,981,0,0
-14,43,0,0,0,0,0,0,0,0,0,-1,1210,981,0,0
-7,43,0,0,0,0,0,0,0,0,0,-1,1217,981,0,0
0,43,0,0,0,0,0,0,0,0,0,-1,1224,981,0,0
7,43,0,0,0,0,0,0,0,0,0,-1,1231,981,0,0
14,43,0,0,0,0,0,0,0,0,0,-1,1238,981,0,0
21,43,0,0,0,0,0,0,0,0,0,-1,1245,981,0,0
28,43,0,0,0,0,0,0,0,0,0,-1,1252,981,0,0
35,43,0,0,0,0,0,0,0,0,0,-1,1259,981,0,0
42,43,0,0,0,0,0,0,0,0,0,-1,1266,981,0,0
49,43,0,0,0,0,0,0,0,0,0,-1,1273,981,0,0
56,43,0,0,0,0,0,0,0,0,0,-1,1280,981,0,0
63,43,0,0,0,0,0,0,0,0,0,-1,1287,981,0,0
70,43,0,0,0,0,0,0,0,0,0,-1,1294,981,0,0
77,43,0,0,0,0,0,0,0,0,0,-1,1301,981,0,0
84,43,0,0,0,0,0,0,0,0,0,-1,1308,981,0,0
91,43,0,0,0,0,0,0,0,0,0,-1,1315,981,0,0
98,43,0,0,0,0,0,0,0,0,0,-1,1322,981,0,0
105,43,0,0,0,0,0,0,0,0,0,-1,1329,981,0,0
112,43,0,0,0,0,0,0,0,0,0,-1,1336,981,0,0
119,43,0,0,0,0,0,0,0,0,0,-1,1343,981,0,0
126,43,0,0,0,0,0,0,0,0,0,-1,1350,981,0,0
133,43,0,0,0,0,0,0,0,0,0,-1,1357,981,0,0
140,43,0,0,0,0,0,0,0,0,0,-1,1364,981,0,0
147,43,0,0,0,0,0,0,0,0,0,-1,1371,981,0,0
154,43,0,0,0,0,0,0,0,0,0,-1,1378,981,0,0
161,43,0,0,0,0,0,0,0,0,0,-1,1385,981,0,0
168,43,0,0,0,0,0,0,0,0,0,-1,1392,981,0,0
175,43,0,0,0,0,0,0,0,0,0,-1,1399,981,0,0
182,43,0,0,0,0,0,0,0,0,0,-1,1406,981,0,0
189,43,0,0,0,0,0,0,0,0,0,-1,1413,981,0,0
196,43,0,0,0,0,0,0,0,0,0,-1,1420,981,0,0
203,43,0,0,0,0,0,0,0,0,0,-1,1427,981,0,0
210,43,0,0,0,0,0,0,0,0,0,-1,1434,981,0,0
217,43,0,0,0,0,0,0,0,0,0,-1,1441,981,0,0
224,43,0,0,0,0,0,0,0,0,0,-1,1448,981,0,0
231,43,0,0,0,0,0,0,0,0,0,-1,1455,981,0,0
238,43,0,0,0,0,0,0,0,0,0,-1,1462,981,0,0
245,43,0,0,0,0,0,0,0,0,0,-1,1469,981,0,0
252,43,0,0,0,0,0,0,0,0,0,-1,1476,981,0,0
259,43,0,0,0,0,0,0,0,0,0,-1,1483,981,0,0
266,43,0,0,0,0,0,0,0,0,0,-1,1490,981,0,0
273,43,0,0,0,0,0,0,0,0,0,-1,1497,981,0,0
280,43,0,0,0,0,0,0,0,0,0,-1,1504,981,0,0
287,43,0,0,0,0,0,0,0,0,0,-1,1511,981,0,0
294,43,0,0,0,0,0,0,0,0,0,-1,1518,981,0,0
301,43,0,0,0,0,0,0,0,0,0,-1,1525,981,0,0
308,43,0,0,0,0,0,0,0,0,0,-1,1532,981,0,0
315,43,0,0,0,0,0,0,0,0,0,-1,1539,981,0,0
322,43,0,0,0,0,0,0,0,0,0,-1,1546,981,0,0
329,43,0,0,0,0,0,0,0,0,0,-1,1553,981,0,0
336,43,0,0,0,0,0,0,0,0,0,-1,1560,981,0,0
343,43,0,0,0,0,0,0,0,0,0,-1,1567,981,0,0
350,43,0,0,0,0,0,0,0,0,0,-1,1574,981,0,0
357,43,0,0,0,0,0,0,0,0,0,-1,1581,981,0,0
364,43,0,0,0,0,0,0,0,0,0,-1,1588,981,0,0
371,43,0,0,0,0,0,0,0,0,0,-1,1595,981,0,0
378,43,0,0,0,0,0,0,0,0,0,-1,1602,981,0,0
385,43,0,0,0,0,0,0,0,0,0,-1,1609,981,0,0
392,43,0,0,0,0,0,0,0,0,0,-1,1616,981,0,0
399,43,0,0,0,0,0,0,0,0,0,-1,1623,981,0,0
406,43,0,0,0,0,0,0,0,0,0,-1,1630,981,0,0
413,43,0,0,0,0,0,0,0,0,0,-1,1637,981,0,0
420,43,0,0,0,0,0,0,0,0,0,-1,1644,981,0,0
427,43,0,0,0,0,0,0,0,0,0,-1,1651,981,0,0
434,43,0,0,0,0,0,0,0,0,0,-1,1658,981,0,0
441,43,0,0,0,0,0,0,0,0,0,-1,1665,981,0,0
448,43,0,0,0,0,0,0,0,0,0,-1,1672,981,0,0
455,43,0,0,0,0,0,0,0,0,0,-1,1679,981,0,0
462,43,0,0,0,0,0,0,0,0,0,-1,1686,981,0,0
469,43,0,0,0,0,0,0,0,0,0,-1,1693,981,0,0
476,43,0,0,0,0,0,0,0,0,0,-1,1700,981,0,0
483,43,0,0,0,0,0,0,0,0,0,-1,1707,981,0,0
490,43,0,0,0,0,0,0,0,0,0,-1,1714,981,0,0
497,43,0,0,0,0,0,0,0,0,0,-1,1721,981,0,0
504,43,0,0,0,0,0,0,0,0,0,-1,1728,981,0,0
511,43,0,0,0,0,0,0,0,0,0,-1,1735,981,0,0
518,43,0,0,0,0,0,0,0,0,0,-1,1742,981,0,0
525,43,0,0,0,0,0,0,0,0,0,-1,1749,981,0,0
532,43,0,0,0,0,0,0,0,0,0,-1,1756,981,0,0
539,43,0,0,0,0,0,0,0,0,0,-1,1763,981,0,0
546,43,0,0,0,0,0,0,0,0,0,-1,1770,981,0,0
553,43,0,0,0,0,0,0,0,0,0,-1,1777,981,0,0
560,43,0,0,0,0,0,0,0,0,0,-1,1784,981,0,0
567,43,0,0,0,0,0,0,0,0,0,-1,1791,981,0,0
574,43,0,0,0,0,0,0,0,0,0,-1,1798,981,0,0
581,43,0,0,0,0,0,0,0,0,0,-1,1805,981,0,0
588,43,0,0,0,0,0,0,0,0,0,-1,1812,981,0,0
595,43,0,0,0,0,0,0,0,0,0,-1,1819,981,0,0
602,43,0,0,0,0,0,0,0,0,0,-1,1826,981,0,0
609,43,0,0,0,0,0,0,0,0,0,-1,1833,981,0,0
616,43,0,0,0,0,0,0,0,0,0,-1,1840,981,0,0
623,43,0,0,0,0,0,0,0,0,0,-1,1847,981,0,0
630,43,0,0,0,0,0,0,0,0,0,-1,1854,981,0,0
637,43,0,0,0,0,0,0,0,0,0,-1,1861,981,0,0
644,43,79.9963,2.27893,0.00739292,-0.000291125,0.00451484,0.00947921,-0.00237742,0.432868,0.00724319,0.0371574,1868,981,79.9964,-2.27891
651,43,80.0272,2.29059,0.00508461,0.000775793,0.00287668,0.00652419,-0.000663786,0.463993,0.00458676,0.036052,1875,981,80.0272,-2.2906
658,43,80.1615,2.28857,0.00355666,0.00147779,0.00177989,0.0045784,0.000456045,0.521117,0.00291218,0.0377212,1882,981,80.1615,-2.28856
665,43,80.1377,2.22791,0.0025071,0.00200943,0.00100856,0.00329707,0.00121947,0.664453,0.00192493,0.0381956,1889,981,80.1377,-2.22788
672,43,80.0106,2.09991,0.00157087,0.00232552,0.000505014,0.0025786,0.00131779,1.10624,0.00148888,0.0395197,1896,981,80.0106,-2.09994
679,43,79.9309,2.10309,0.000856813,0.00220565,0.000376997,0.00230386,0.000758594,1.31593,0.00135574,0.0394638,1903,981,79.9309,-2.1031
686,43,80.1002,2.17523,0.000441163,0.00165656,0.000357942,0.00175414,0.000343582,1.30465,0.00107339,0.0392754,1910,981,80.1003,-2.17526
693,43,80.0201,2.18463,-7.23164e-05,0.00101575,0.000314732,0.00110023,-0.000156796,1.30856,0.000790947,0.0362202,1917,981,80.0201,-2.18463
700,43,80.0126,2.18958,-0.000787701,0.000686201,0.000189412,0.000710153,-0.000811653,1.44501,0.000879266,0.0298064,1924,981,80.0126,-2.18959
707,43,80.1161,2.19696,-0.00158518,0.000910488,-5.71333e-05,0.000911796,-0.00158648,-1.54792,0.00145981,0.0268426,1931,981,80.1161,-2.19696
714,43,80.0605,2.31024,0,0,0,0,0,0,0,-1,1938,981,80.0606,-2.31027
721,43,79.2928,6.11267,0,0,0,0,0,0,0,-1,1945,981,79.2928,-6.1127
728,43,79.3488,6.56488,-0.00516842,0.00408624,-0.000826138,0.00415941,-0.00524159,-1.48246,0.00543964,0.0190001,1952,981,79.3487,-6.56489
735,43,79.391,7.01813,-0.00648384,0.00599934,-0.000980523,0.00607589,-0.00656039,-1.49289,0.00729734,0.0151645,1959,981,79.391,-7.01811
742,43,79.3252,7.41302,-0.00796263,0.00832281,-0.00129561,0.00842524,-0.00806506,-1.4919,0.00952144,0.016416,1966,981,79.3252,-7.41305
749,43,79.2412,7.77087,-0.0096793,0.0116113,-0.00193084,0.011785,-0.00985299,-1.48108,0.0125093,0.0195462,1973,981,79.2411,-7.77087
756,43,79.2146,8.08368,-0.0117735,0.0163353,-0.00245662,0.0165483,-0.0119866,-1.48427,0.0165447,0.0243958,1980,981,79.2146,-8.08366
763,43,79.1309,8.37054,-0.013824,0.0229795,-0.00269036,0.0231751,-0.0140196,-1.49821,0.0216902,0.0277262,1987,981,79.1309,-8.37055
770,43,79.011,8.7688,-0.0155595,0.0310079,-0.00252787,0.0311448,-0.0156964,-1.51672,0.0275296,0.0236797,1994,981,79.011,-8.76881
777,43,79.0046,9.14233,-0.0171836,0.0393842,-0.00188926,0.0394472,-0.0172467,-1.53745,0.0335583,0.0273503,2001,981,79.0045,-9.14235
784,43,79.0718,9.55103,-0.0178738,0.0482006,-0.00044733,0.0482037,-0.0178768,-1.56403,0.0394681,0.0436599,2008,981,79.0718,-9.551
791,43,79.1482,9.96619,0,0,0,0,0,0,0,-1,2015,981,79.1482,-9.96621
798,43,78.2146,10.4451,0,0,0,0,0,0,0,-1,2022,981,78.2146,-10.4451
805,43,78.3926,10.5764,0,0,0,0,0,0,0,-1,2029,981,78.3927,-10.5764
812,43,78.5933,10.7721,0,0,0,0,0,0,0,-1,2036,981,78.5934,-10.7721
-700,36,0,0,0,0,0,0,0,0,0,-1,524,988,0,0
-693,36,-67.8531,4.55762,0,0,0,0,0,0,0,-1,531,988,-67.8531,-4.55759
-686,36,-66.4181,4.81964,0,0,0,0,0,0,0,-1,538,988,-66.4181,-4.81964
-679,36,-65.3602,5.41577,0,0,0,0,0,0,0,-1,545,988,-65.3602,-5.41574
-672,36,-64.2568,4.87732,0,0,0,0,0,0,0,-1,552,988,-64.2568,-4.87735
-665,36,-62.8613,4.28967,0,0,0,0,0,0,0,-1,559,988,-62.8613,-4.28969
-658,36,-63.0975,8.56079,0,0,0,0,0,0,0,-1,566,988,-63.0975,-8.56077
-651,36,-63.3356,8.28198,0,0,0,0,0,0,0,-1,573,988,-63.3356,-8.28197
-644,36,-63.5198,8.04755,-0.00770649,0.0485666,0.00321111,0.0487493,-0.00788913,1.51398,0.0354233,0.0316588,580,988,-63.5198,-8.04752
-637,36,-63.719,7.80377,-0.0080499,0.0367996,0.00362944,0.0370914,-0.00834171,1.49057,0.0279266,0.0223667,587,988,-63.719,-7.80374
-630,36,-63.7706,7.64496,-0.0077324,0.0264394,0.00387498,0.0268733,-0.00816631,1.45929,0.0211693,0.0166175,594,988,-63.7706,-7.64498
-623,36,-63.8294,7.39032,-0.00722149,0.0176682,0.00395159,0.0182805,-0.0078338,1.41707,0.015474,0.0144215,601,988,-63.8294,-7.39034
-616,36,-63.8506,7.1236,-0.00644579,0.0112897,0.00410279,0.0121928,-0.00734891,1.35413,0.0113974,0.0129376,608,988,-63.8506,-7.12359
-609,36,-63.7394,6.85736,-0.00558639,0.00688924,0.00406505,0.0080969,-0.00679405,1.28202,0.00860825,0.0199097,615,988,-63.7395,-6.85738
-602,36,-63.8082,6.48877,-0.00467727,0.00419815,0.00366387,0.0055152,-0.00599431,1.22571,0.00664694,0.0231168,622,988,-63.8082,-6.48879
-595,36,-64.1393,6.0976,-0.00396553,0.00231909,0.00304948,0.00355552,-0.00520197,1.18559,0.00508584,0.0288376,629,988,-64.1393,-6.09756
-588,36,-64.4795,5.84918,0,0,0,0,0,0,0,-1,636,988,-64.4795,-5.84919
-581,36,-63.3928,0.423645,0,0,0,0,0,0,0,-1,643,988,-63.3928,-0.423674
-574,36,-63.4005,0.4375,-0.00198714,-0.0014703,0.00110136,-0.000597449,-0.00286,0.900632,0.00174201,0.0301819,650,988,-63.4005,-0.437478
-567,36,-63.4391,0.527954,-0.00155536,-0.00166164,0.000284224,-0.00131935,-0.00189765,0.692985,0.00112311,0.036714,657,988,-63.4391,-0.52796
-560,36,-63.5497,0.743225,-0.0011019,-0.00143014,-0.000696341,-0.000550603,-0.00198144,-0.669665,0.00118101,0.0398451,664,988,-63.5497,-0.743211
-553,36,-63.5536,0.680786,-0.000660074,-0.000886672,-0.00190837,0.00113835,-0.0026851,-0.755748,0.00226688,0.0413754,671,988,-63.5537,-0.680791
-546,36,-63.4256,0.271667,-0.000260988,-0.000393711,-0.00330992,0.00298324,-0.00363794,-0.775375,0.00382896,0.0437863,678,988,-63.4256,-0.271648
-539,36,-63.3591,0.125854,-0.000318136,-0.000471267,-0.00477314,0.00437905,-0.00516846,-0.777378,0.00551854,0.0462845,685,988,-63.3591,-0.12583
-532,36,-63.4734,0.145203,-0.000117814,-0.000538576,-0.00584098,0.00551657,-0.00617296,-0.767397,0.0067525,0.0473868,692,988,-63.4734,-0.145212
-525,36,-63.6018,0.102051,-9.13136e-05,-0.0005814,-0.0067476,0.0064157,-0.00708841,-0.767248,0.00779982,0.046022,699,988,-63.6018,-0.102026
-518,36,0,0,0,0,0,0,0,0,0,-1,706,988,0,0
-511,36,0,0,0,0,0,0,0,0,0,-1,713,988,0,0
-504,36,0,0,0,0,0,0,0,0,0,-1,720,988,0,0
-497,36,0,0,0,0,0,0,0,0,0,-1,727,988,0,0
-490,36,0,0,0,0,0,0,0,0,0,-1,734,988,0,0
-483,36,0,0,0,0,0,0,0,0,0,-1,741,988,0,0
-476,36,0,0,0,0,0,0,0,0,0,-1,748,988,0,0
-469,36,0,0,0,0,0,0,0,0,0,-1,755,988,0,0
-462,36,0,0,0,0,0,0,0,0,0,-1,762,988,0,0
-455,36,0,0,0,0,0,0,0,0,0,-1,769,988,0,0
-448,36,0,0,0,0,0,0,0,0,0,-1,776,988,0,0
-441,36,0,0,0,0,0,0,0,0,0,-1,783,988,0,0
-434,36,0,0,0,0,0,0,0,0,0,-1,790,988,0,0
-427,36,0,0,0,0,0,0,0,0,0,-1,797,988,0,0
-420,36,0,0,0,0,0,0,0,0,0,-1,804,988,0,0
-413,36,0,0,0,0,0,0,0,0,0,-1,811,988,0,0
-406,36,0,0,0,0,0,0,0,0,0,-1,818,988,0,0
-399,36,0,0,0,0,0,0,0,0,0,-1,825,988,0,0
-392,36,0,0,0,0,0,0,0,0,0,-1,832,988,0,0
-385,36,0,0,0,0,0,0,0,0,0,-1,839,988,0,0
-378,36,0,0,0,0,0,0,0,0,0,-1,846,988,0,0
-371,36,0,0,0,0,0,0,0,0,0,-1,853,988,0,0
-364,36,0,0,0,0,0,0,0,0,0,-1,860,988,0,0
-357,36,0,0,0,0,0,0,0,0,0,-1,867,988,0,0
-350,36,0,0,0,0,0,0,0,0,0,-1,874,988,0,0
-343,36,0,0,0,0,0,0,0,0,0,-1,881,988,0,0
-336,36,0,0,0,0,0,0,0,0,0,-1,888,988,0,0
-329,36,0,0,0,0,0,0,0,0,0,-1,895,988,0,0
-322,36,0,0,0,0,0,0,0,0,0,-1,902,988,0,0
-315,36,0,0,0,0,0,0,0,0,0,-1,909,988,0,0
-308,36,0,0,0,0,0,0,0,0,0,-1,916,988,0,0
-301,36,0,0,0,0,0,0,0,0,0,-1,923,988,0,0
-294,36,0,0,0,0,0,0,0,0,0,-1,930,988,0,0
-287,36,0,0,0,0,0,0,0,0,0,-1,937,988,0,0
-280,36,0,0,0,0,0,0,0,0,0,-1,944,988,0,0
-273,36,0,0,0,0,0,0,0,0,0,-1,951,988,0,0
-266,36,0,0,0,0,0,0,0,0,0,-1,958,988,0,0
-259,36,0,0,0,0,0,0,0,0,0,-1,965,988,0,0
-252,36,0,0,0,0,0,0,0,0,0,-1,972,988,0,0
-245,36,0,0,0,0,0,0,0,0,0,-1,979,988,0,0
-238,36,0,0,0,0,0,0,0,0,0,-1,986,988,0,0
-231,36,0,0,0,0,0,0,0,0,0,-1,993,988,0,0
-224,36,0,0,0,0,0,0,0,0,0,-1,1000,988,0,0
-217,36,0,0,0,0,0,0,0,0,0,-1,1007,988,0,0
-210,36,0,0,0,0,0,0,0,0,0,-1,1014,988,0,0
-203,36,0,0,0,0,0,0,0,0,0,-1,1021,988,0,0
-196,36,0,0,0,0,0,0,0,0,0,-1,1028,988,0,0
-189,36,0,0,0,0,0,0,0,0,0,-1,1035,988,0,0
-182,36,0,0,0,0,0,0,0,0,0,-1,1042,988,0,0
-175,36,0,0,0,0,0,0,0,0,0,-1,1049,988,0,0
-168,36,0,0,0,0,0,0,0,0,0,-1,1056,988,0,0
-161,36,0,0,0,0,0,0,0,0,0,-1,1063,988,0,0
-154,36,0,0,0,0,0,0,0,0,0,-1,1070,988,0,0
-147,36,0,0,0,0,0,0,0,0,0,-1,1077,988,0,0
-140,36,0,0,0,0,0,0,0,0,0,-1,1084,988,0,0
-133,36,0,0,0,0,0,0,0,0,0,-1,1091,988,0,0
-126,36,0,0,0,0,0,0,0,0,0,-1,1098,988,0,0
-119,36,0,0,0,0,0,0,0,0,0,-1,1105,988,0,0
-112,36,0,0,0,0,0,0,0,0,0,-1,1112,988,0,0
-105,36,0,0,0,0,0,0,0,0,0,-1,1119,988,0,0
-98,36,0,0,0,0,0,0,0,0,0,-1,1126,988,0,0
-91,36,0,0,0,0,0,0,0,0,0,-1,1133,988,0,0
-84,36,0,0,0,0,0,0,0,0,0,-1,1140,988,0,0
-77,36,0,0,0,0,0,0,0,0,0,-1,1147,988,0,0
-70,36,0,0,0,0,0,0,0,0,0,-1,1154,988,0,0
-63,36,0,0,0,0,0,0,0,0,0,-1,1161,988,0,0
-56,36,0,0,0,0,0,0,0,0,0,-1,1168,988,0,0
-49,36,0,0,0,0,0,0,0,0,0,-1,1175,988,0,0
-42,36,0,0,0,0,0,0,0,0,0,-1,1182,988,0,0
-35,36,0,0,0,0,0,0,0,0,0,-1,1189,988,0,0
-28,36,0,0,0,0,0,0,0,0,0,-1,1196,988,0,0
-21,36,0,0,0,0,0,0,0,0,0,-1,1203,988,0,0
-14,36,0,0,0,0,0,0,0,0,0,-1,1210,988,0,0
-7,36,0,0,0,0,0,0,0,0,0,-1,1217,988,0,0
0,36,0,0,0,0,0,0,0,0,0,-1,1224,988,0,0
7,36,0,0,0,0,0,0,0,0,0,-1,1231,988,0,0
14,36,0,0,0,0,0,0,0,0,0,-1,1238,988,0,0
21,36,0,0,0,0,0,0,0,0,0,-1,1245,988,0,0
28,36,0,0,0,0,0,0,0,0,0,-1,1252,988,0,0
35,36,0,0,0,0,0,0,0,0,0,-1,1259,988,0,0
42,36,0,0,0,0,0,0,0,0,0,-1,1266,988,0,0
49,36,0,0,0,0,0,0,0,0,0,-1,1273,988,0,0
56,36,0,0,0,0,0,0,0,0,0,-1,1280,988,0,0
63,36,0,0,0,0,0,0,0,0,0,-1,1287,988,0,0
70,36,0,0,0,0,0,0,0,0,0,-1,1294,988,0,0
77,36,0,0,0,0,0,0,0,0,0,-1,1301,988,0,0
84,36,0,0,0,0,0,0,0,0,0,-1,1308,988,0,0
91,36,0,0,0,0,0,0,0,0,0,-1,1315,988,0,0
98,36,0,0,0,0,0,0,0,0,0,-1,1322,988,0,0
105,36,0,0,0,0,0,0,0,0,0,-1,1329,988,0,0
112,36,0,0,0,0,0,0,0,0,0,-1,1336,988,0,0
119,36,0,0,0,0,0,0,0,0,0,-1,1343,988,0,0
126,36,0,0,0,0,0,0,0,0,0,-1,1350,988,0,0
133,36,0,0,0,0,0,0,0,0,0,-1,1357,988,0,0
140,36,0,0,0,0,0,0,0,0,0,-1,1364,988,0,0
147,36,0,0,0,0,0,0,0,0,0,-1,1371,988,0,0
154,36,0,0,0,0,0,0,0,0,0,-1,1378,988,0,0
161,36,0,0,0,0,0,0,0,0,0,-1,1385,988,0,0
168,36,0,0,0,0,0,0,0,0,0,-1,1392,988,0,0
175,36,0,0,0,0,0,0,0,0,0,-1,1399,988,0,0
182,36,0,0,0,0,0,0,0,0,0,-1,1406,988,0,0
189,36,0,0,0,0,0,0,0,0,0,-1,1413,988,0,0
196,36,0,0,0,0,0,0,0,0,0,-1,1420,988,0,0
203,36,0,0,0,0,0,0,0,0,0,-1,1427,988,0,0
210,36,0,0,0,0,0,0,0,0,0,-1,1434,988,0,0
217,36,0,0,0,0,0,0,0,0,0,-1,1441,988,0,0
224,36,0,0,0,0,0,0,0,0,0,-1,1448,988,0,0
231,36,0,0,0,0,0,0,0,0,0,-1,1455,988,0,0
238,36,0,0,0,0,0,0,0,0,0,-1,1462,988,0,0
245,36,0,0,0,0,0,0,0,0,0,-1,1469,988,0,0
252,36,0,0,0,0,0,0,0,0,0,-1,1476,988,0,0
259,36,0,0,0,0,0,0,0,0,0,-1,1483,988,0,0
266,36,0,0,0,0,0,0,0,0,0,-1,1490,988,0,0
273,36,0,0,0,0,0,0,0,0,0,-1,1497,988,0,0
280,36,0,0,0,0,0,0,0,0,0,-1,1504,988,0,0
287,36,0,0,0,0,0,0,0,0,0,-1,1511,988,0,0
294,36,0,0,0,0,0,0,0,0,0,-1,1518,988,0,0
301,36,0,0,0,0,0,0,0,0,0,-1,1525,988,0,0
308,36,0,0,0,0,0,0,0,0,0,-1,1532,988,0,0
315,36,0,0,0,0,0,0,0,0,0,-1,1539,988,0,0
322,36,0,0,0,0,0,0,0,0,0,-1,1546,988,0,0
329,36,0,0,0,0,0,0,0,0,0,-1,1553,988,0,0
336,36,0,0,0,0,0,0,0,0,0,-1,1560,988,0,0
343,36,0,0,0,0,0,0,0,0,0,-1,1567,988,0,0
350,36,0,0,0,0,0,0,0,0,0,-1,1574,988,0,0
357,36,0,0,0,0,0,0,0,0,0,-1,1581,988,0,0
364,36,0,0,0,0,0,0,0,0,0,-1,1588,988,0,0
371,36,0,0,0,0,0,0,0,0,0,-1,1595,988,0,0
378,36,0,0,0,0,0,0,0,0,0,-1,1602,988,0,0
385,36,0,0,0,0,0,0,0,0,0,-1,1609,988,0,0
392,36,0,0,0,0,0,0,0,0,0,-1,1616,988,0,0
399,36,0,0,0,0,0,0,0,0,0,-1,1623,988,0,0
406,36,0,0,0,0,0,0,0,0,0,-1,1630,988,0,0
413,36,0,0,0,0,0,0,0,0,0,-1,1637,988,0,0
420,36,0,0,0,0,0,0,0,0,0,-1,1644,988,0,0
427,36,0,0,0,0,0,0,0,0,0,-1,1651,988,0,0
434,36,0,0,0,0,0,0,0,0,0,-1,1658,988,0,0
441,36,0,0,0,0,0,0,0,0,0,-1,1665,988,0,0
448,36,0,0,0,0,0,0,0,0,0,-1,1672,988,0,0
455,36,0,0,0,0,0,0,0,0,0,-1,1679,988,0,0
462,36,0,0,0,0,0,0,0,0,0,-1,1686,988,0,0
469,36,0,0,0,0,0,0,0,0,0,-1,1693,988,0,0
476,36,0,0,0,0,0,0,0,0,0,-1,1700,988,0,0
483,36,0,0,0,0,0,0,0,0,0,-1,1707,988,0,0
490,36,0,0,0,0,0,0,0,0,0,-1,1714,988,0,0
497,36,0,0,0,0,0,0,0,0,0,-1,1721,988,0,0
504,36,0,0,0,0,0,0,0,0,0,-1,1728,988,0,0
511,36,0,0,0,0,0,0,0,0,0,-1,1735,988,0,0
518,36,0,0,0,0,0,0,0,0,0,-1,1742,988,0,0
525,36,0,0,0,0,0,0,0,0,0,-1,1749,988,0,0
532,36,0,0,0,0,0,0,0,0,0,-1,1756,988,0,0
539,36,0,0,0,0,0,0,0,0,0,-1,1763,988,0,0
546,36,0,0,0,0,0,0,0,0,0,-1,1770,988,0,0
553,36,0,0,0,0,0,0,0,0,0,-1,1777,988,0,0
560,36,0,0,0,0,0,0,0,0,0,-1,1784,988,0,0
567,36,0,0,0,0,0,0,0,0,0,-1,1791,988,0,0
574,36,0,0,0,0,0,0,0,0,0,-1,1798,988,0,0
581,36,0,0,0,0,0,0,0,0,0,-1,1805,988,0,0
588,36,0,0,0,0,0,0,0,0,0,-1,1812,988,0,0
595,36,0,0,0,0,0,0,0,0,0,-1,1819,988,0,0
602,36,0,0,0,0,0,0,0,0,0,-1,1826,988,0,0
609,36,0,0,0,0,0,0,0,0,0,-1,1833,988,0,0
616,36,0,0,0,0,0,0,0,0,0,-1,1840,988,0,0
623,36,0,0,0,0,0,0,0,0,0,-1,1847,988,0,0
630,36,0,0,0,0,0,0,0,0,0,-1,1854,988,0,0
637,36,0,0,0,0,0,0,0,0,0,-1,1861,988,0,0
644,36,80.1534,2.01447,0.00692146,-0.000484495,0.00331124,0.00818601,-0.00174905,0.364804,0.00612419,0.04024,1868,988,80.1534,-2.01448
651,36,80.0615,2.19305,0.00469634,0.000759804,0.00198487,0.00552338,-6.72396e-05,0.394798,0.00370487,0.0400098,1875,988,80.0615,-2.19303
658,36,80.1737,2.33997,0.00324003,0.00155084,0.00113741,0.00381214,0.000978728,0.466037,0.00228612,0.0377343,1882,988,80.1738,-2.33996
665,36,80.2505,2.32776,0.00224464,0.00210466,0.000599981,0.0027787,0.0015706,0.727336,0.00160883,0.0364761,1889,988,80.2505,-2.32776
672,36,80.1702,2.33856,0.00139383,0.00244685,0.000296119,0.00252441,0.00131627,1.31463,0.00145791,0.037382,1896,988,80.1702,-2.33859
679,36,80.0903,2.30811,0.000775471,0.00240359,0.000305482,0.00245902,0.000720041,1.3913,0.00145978,0.0373933,1903,988,80.0903,-2.30808
686,36,79.9863,2.32446,0.000421571,0.0018978,0.000420642,0.00200925,0.000310126,1.31181,0.00124902,0.0349513,1910,988,79.9863,-2.32448
693,36,79.9727,2.31635,3.06095e-05,0.0012614,0.000511105,0.00144597,-0.000153958,1.22425,0.00101918,0.0371523,1917,988,79.9727,-2.31635
700,36,80.0217,2.29108,-0.00052637,0.000899314,0.000477194,0.00104429,-0.000671349,1.27584,0.000998297,0.0354074,1924,988,80.0217,-2.29107
707,36,80.1339,2.19781,-0.00125086,0.00110815,0.000317306,0.00115008,-0.0012928,1.4394,0.0014112,0.0273865,1931,988,80.1339,-2.19781
714,36,80.0472,2.50037,0,0,0,0,0,0,0,-1,1938,988,80.0473,-2.50038
721,36,79.4965,6.22772,0,0,0,0,0,0,0,-1,1945,988,79.4964,-6.22773
728,36,79.6019,6.67786,-0.00514553,0.00460729,-0.000472033,0.00463009,-0.00516832,-1.52255,0.00565996,0.0258988,1952,988,79.602,-6.67786
735,36,79.7024,7.12018,-0.00644304,0.00652021,-0.000656377,0.00655336,-0.00647619,-1.52033,0.00752266,0.0212748,1959,988,79.7024,-7.12019
742,36,79.6222,7.3988,-0.00798195,0.00882507,-0.000996819,0.00888399,-0.00804087,-1.51176,0.00977561,0.0174451,1966,988,79.6222,-7.39878
749,36,79.6001,7.72736,-0.00981182,0.011927,-0.00166936,0.0120545,-0.00993926,-1.4946,0.0127177,0.0188682,1973,988,79.6001,-7.72737
756,36,79.5779,8.03204,-0.0120309,0.01627,-0.00229903,0.0164555,-0.0122165,-1.49026,0.016614,0.0188074,1980,988,79.578,-8.03207
763,36,79.4407,8.25372,-0.0142784,0.0224291,-0.00276806,0.0226366,-0.014486,-1.49595,0.0216043,0.0221723,1987,988,79.4406,-8.25371
770,36,79.3547,8.55853,-0.0161956,0.0300743,-0.00294258,0.0302607,-0.016382,-1.50754,0.0273236,0.0182554,1994,988,79.3547,-8.55854
777,36,79.3647,8.91766,-0.0176984,0.0379076,-0.0027556,0.0380438,-0.0178347,-1.5214,0.0329573,0.025786,2001,988,79.3648,-8.91764
784,36,79.5313,9.18414,-0.0180145,0.0457183,-0.00201111,0.0457817,-0.0180779,-1.53928,0.0380083,0.0457409,2008,988,79.5312,-9.18417
791,36,79.5115,9.80072,0,0,0,0,0,0,0,-1,2015,988,79.5114,-9.80073
798,36,78.9795,10.0789,0,0,0,0,0,0,0,-1,2022,988,78.9796,-10.0789
805,36,78.8848,10.3695,0,0,0,0,0,0,0,-1,2029,988,78.8847,-10.3695
812,36,79.26,6.68024,0,0,0,0,0,0,0,-1,2036,988,79.2599,-6.68023
-700,29,0,0,0,0,0,0,0,0,0,-1,524,995,0,0
-693,29,-68.0629,4.46234,0,0,0,0,0,0,0,-1,531,995,-68.0629,-4.46234
-686,29,-66.4859,4.6441,0,0,0,0,0,0,0,-1,538,995,-66.4859,-4.64408
-679,29,-65.2738,5.66028,0,0,0,0,0,0,0,-1,545,995,-65.2738,-5.66025
-672,29,-63.5209,5.91699,0,0,0,0,0,0,0,-1,552,995,-63.5209,-5.91698
-665,29,-63.9073,4.63776,0,0,0,0,0,0,0,-1,559,995,-63.9073,-4.63777
-658,29,-62.3226,3.96387,0,0,0,0,0,0,0,-1,566,995,-62.3226,-3.96389
-651,29,-63.6562,7.81134,0,0,0,0,0,0,0,-1,573,995,-63.6562,-7.81134
-644,29,-63.7475,7.51984,-0.0116547,0.0456701,0.000840996,0.0456824,-0.0116671,1.55613,0.0349983,0.0490283,580,995,-63.7475,-7.51981
-637,29,-64.03,7.5932,-0.0110118,0.0348362,0.00190329,0.0349151,-0.0110907,1.52938,0.0277232,0.0282512,587,995,-64.0299,-7.59317
-630,29,-64.0717,7.48572,-0.00984576,0.0250016,0.00255803,0.0251884,-0.0100325,1.49791,0.020953,0.0152194,594,995,-64.0716,-7.48573
-623,29,-64.0828,7.315,-0.00867447,0.0168191,0.00290643,0.0171462,-0.00900162,1.45871,0.0153386,0.0146221,601,995,-64.0828,-7.31498
-616,29,-64.1466,7.10223,-0.00753462,0.0109062,0.00322104,0.0114526,-0.00808104,1.40275,0.0113336,0.017828,608,995,-64.1466,-7.10222
-609,29,-64.0783,6.93884,-0.00642136,0.00681495,0.00329892,0.00759157,-0.00719799,1.33959,0.00853977,0.030207,615,995,-64.0783,-6.93887
-602,29,-64.2547,6.63013,-0.00537123,0.00418281,0.00304651,0.00507158,-0.00626,1.28694,0.00655427,0.0283055,622,995,-64.2547,-6.63015
-595,29,-64.5801,6.25922,-0.00457113,0.00232521,0.00251679,0.00314601,-0.00539193,1.25554,0.00498591,0.0280594,629,995,-64.5801,-6.2592
-588,29,-64.907,5.91913,0,0,0,0,0,0,0,-1,636,995,-64.907,-5.91915
-581,29,-63.372,0.276978,0,0,0,0,0,0,0,-1,643,995,-63.372,-0.276998
-574,29,-63.3885,0.2771,-0.00228793,-0.00145564,0.000737947,-0.00102459,-0.00271898,1.04213,0.0015856,0.0340615,650,995,-63.3886,-0.277126
-567,29,-63.4204,0.311829,-0.00182893,-0.00167024,-1.33873e-05,-0.00166912,-0.00183005,-1.48723,0.00117008,0.0339595,657,995,-63.4204,-0.311836
-560,29,-63.5958,0.494507,-0.00134749,-0.00145884,-0.000936244,-0.000465264,-0.00234106,-0.7557,0.00143106,0.0355029,664,995,-63.5957,-0.494483
-553,29,-63.6335,0.54657,-0.000921717,-0.000992946,-0.00210151,0.00114448,-0.00305914,-0.776926,0.00250948,0.0382022,671,995,-63.6335,-0.546579
-546,29,-63.4398,0.364075,-0.000609402,-0.000691094,-0.00345322,0.00280321,-0.0041037,-0.779484,0.0040112,0.042687,678,995,-63.4398,-0.364088
-539,29,-63.4441,0.189148,-0.000897188,-0.00105606,-0.00482193,0.00384596,-0.00579921,-0.777162,0.00560657,0.0443051,685,995,-63.4441,-0.189119
-532,29,-63.4427,0.309998,-0.000983161,-0.0013818,-0.00575795,0.00457892,-0.00694388,-0.768097,0.00669924,0.0464406,692,995,-63.4427,-0.309984
-525,29,-63.5644,0.308044,-0.00125418,-0.00182643,-0.00648935,0.00495535,-0.00803596,-0.763367,0.00757051,0.0454176,699,995,-63.5644,-0.308058
-518,29,0,0,0,0,0,0,0,0,0,-1,706,995,0,0
-511,29,0,0,0,0,0,0,0,0,0,-1,713,995,0,0
-504,29,0,0,0,0,0,0,0,0,0,-1,720,995,0,0
-497,29,0,0,0,0,0,0,0,0,0,-1,727,995,0,0
-490,29,0,0,0,0,0,0,0,0,0,-1,734,995,0,0
-483,29,0,0,0,0,0,0,0,0,0,-1,741,995,0,0
-476,29,0,0,0,0,0,0,0,0,0,-1,748,995,0,0
-469,29,0,0,0,0,0,0,0,0,0,-1,755,995,0,0
-462,29,0,0,0,0,0,0,0,0,0,-1,762,995,0,0
-455,29,0,0,0,0,0,0,0,0,0,-1,769,995,0,0
-448,29,0,0,0,0,0,0,0,0,0,-1,776,995,0,0
-441,29,0,0,0,0,0,0,0,0,0,-1,783,995,0,0
-434,29,0,0,0,0,0,0,0,0,0,-1,790,995,0,0
-427,29,0,0,0,0,0,0,0,0,0,-1,797,995,0,0
-420,29,0,0,0,0,0,0,0,0,0,-1,804,995,0,0
-413,29,0,0,0,0,0,0,0,0,0,-1,811,995,0,0
-406,29,0,0,0,0,0,0,0,0,0,-1,818,995,0,0
-399,29,0,0,0,0,0,0,0,0,0,-1,825,995,0,0
-392,29,0,0,0,0,0,0,0,0,0,-1,832,995,0,0
-385,29,0,0,0,0,0,0,0,0,0,-1,839,995,0,0
-378,29,0,0,0,0,0,0,0,0,0,-1,846,995,0,0
-371,29,0,0,0,0,0,0,0,0,0,-1,853,995,0,0
-364,29,0,0,0,0,0,0,0,0,0,-1,860,995,0,0
-357,29,0,0,0,0,0,0,0,0,0,-1,867,995,0,0
-350,29,0,0,0,0,0,0,0,0,0,-1,874,995,0,0
-343,29,0,0,0,0,0,0,0,0,0,-1,881,995,0,0
-336,29,0,0,0,0,0,0,0,0,0,-1,888,995,0,0
-329,29,0,0,0,0,0,0,0,0,0,-1,895,995,0,0
-322,29,0,0,0,0,0,0,0,0,0,-1,902,995,0,0
-315,29,0,0,0,0,0,0,0,0,0,-1,909,995,0,0
-308,29,0,0,0,0,0,0,0,0,0,-1,916,995,0,0
-301,29,0,0,0,0,0,0,0,0,0,-1,923,995,0,0
-294,29,0,0,0,0,0,0,0,0,0,-1,930,995,0,0
-287,29,0,0,0,0,0,0,0,0,0,-1,937,995,0,0
-280,29,0,0,0,0,0,0,0,0,0,-1,944,995,0,0
-273,29,0,0,0,0,0,0,0,0,0,-1,951,995,0,0
-266,29,0,0,0,0,0,0,0,0,0,-1,958,995,0,0
-259,29,0,0,0,0,0,0,0,0,0,-1,965,995,0,0
-252,29,0,0,0,0,0,0,0,0,0,-1,972,995,0,0
-245,29,0,0,0,0,0,0,0,0,0,-1,979,995,0,0
-238,29,0,0,0,0,0,0,0,0,0,-1,986,995,0,0
-231,29,0,0,0,0,0,0,0,0,0,-1,993,995,0,0
-224,29,0,0,0,0,0,0,0,0,0,-1,1000,995,0,0
-217,29,0,0,0,0,0,0,0,0,0,-1,1007,995,0,0
-210,29,0,0,0,0,0,0,0,0,0,-1,1014,995,0,0
-203,29,0,0,0,0,0,0,0,0,0,-1,1021,995,0,0
-196,29,0,0,0,0,0,0,0,0,0,-1,1028,995,0,0
-189,29,0,0,0,0,0,0,0,0,0,-1,1035,995,0,0
-182,29,0,0,0,0,0,0,0,0,0,-1,1042,995,0,0
-175,29,0,0,0,0,0,0,0,0,0,-1,1049,995,0,0
-168,29,0,0,0,0,0,0,0,0,0,-1,1056,995,0,0
-161,29,0,0,0,0,0,0,0,0,0,-1,1063,995,0,0
-154,29,0,0,0,0,0,0,0,0,0,-1,1070,995,0,0
-147,29,0,0,0,0,0,0,0,0,0,-1,1077,995,0,0
-140,29,0,0,0,0,0,0,0,0,0,-1,1084,995,0,0
-133,29,0,0,0,0,0,0,0,0,0,-1,1091,995,0,0
-126,29,0,0,0,0,0,0,0,0,0,-1,1098,995,0,0
-119,29,0,0,0,0,0,0,0,0,0,-1,1105,995,0,0
-112,29,0,0,0,0,0,0,0,0,0,-1,1112,995,0,0
-105,29,0,0,0,0,0,0,0,0,0,-1,1119,995,0,0
-98,29,0,0,0,0,0,0,0,0,0,-1,1126,995,0,0
-91,29,0,0,0,0,0,0,0,0,0,-1,1133,995,0,0
-84,29,0,0,0,0,0,0,0,0,0,-1,1140,995,0,0
-77,29,0,0,0,0,0,0,0,0,0,-1,1147,995,0,0
-70,29,0,0,0,0,0,0,0,0,0,-1,1154,995,0,0
-63,29,0,0,0,0,0,0,0,0,0,-1,1161,995,0,0
-56,29,0,0,0,0,0,0,0,0,0,-1,1168,995,0,0
-49,29,0,0,0,0,0,0,0,0,0,-1,1175,995,0,0
-42,29,0,0,0,0,0,0,0,0,0,-1,1182,995,0,0
-35,29,0,0,0,0,0,0,0,0,0,-1,1189,995,0,0
-28,29,0,0,0,0,0,0,0,0,0,-1,1196,995,0,0
-21,29,0,0,0,0,0,0,0,0,0,-1,1203,995,0,0
-14,29,0,0,0,0,0,0,0,0,0,-1,1210,995,0,0
-7,29,0,0,0,0,0,0,0,0,0,-1,1217,995,0,0
0,29,0,0,0,0,0,0,0,0,0,-1,1224,995,0,0
7,29,0,0,0,0,0,0,0,0,0,-1,1231,995,0,0
14,29,0,0,0,0,0,0,0,0,0,-1,1238,995,0,0
21,29,0,0,0,0,0,0,0,0,0,-1,1245,995,0,0
28,29,0,0,0,0,0,0,0,0,0,-1,1252,995,0,0
35,29,0,0,0,0,0,0,0,0,0,-1,1259,995,0,0
42,29,0,0,0,0,0,0,0,0,0,-1,1266,995,0,0
49,29,0,0,0,0,0,0,0,0,0,-1,1273,995,0,0
56,29,0,0,0,0,0,0,0,0,0,-1,1280,995,0,0
63,29,0,0,0,0,0,0,0,0,0,-1,1287,995,0,0
70,29,0,0,0,0,0,0,0,0,0,-1,1294,995,0,0
77,29,0,0,0,0,0,0,0,0,0,-1,1301,995,0,0
84,29,0,0,0,0,0,0,0,0,0,-1,1308,995,0,0
91,29,0,0,0,0,0,0,0,0,0,-1,1315,995,0,0
98,29,0,0,0,0,0,0,0,0,0,-1,1322,995,0,0
105,29,0,0,0,0,0,0,0,0,0,-1,1329,995,0,0
112,29,0,0,0,0,0,0,0,0,0,-1,1336,995,0,0
119,29,0,0,0,0,0,0,0,0,0,-1,1343,995,0,0
126,29,0,0,0,0,0,0,0,0,0,-1,1350,995,0,0
133,29,0,0,0,0,0,0,0,0,0,-1,1357,995,0,0
140,29,0,0,0,0,0,0,0,0,0,-1,1364,995,0,0
147,29,0,0,0,0,0,0,0,0,0,-1,1371,995,0,0
154,29,0,0,0,0,0,0,0,0,0,-1,1378,995,0,0
161,29,0,0,0,0,0,0,0,0,0,-1,1385,995,0,0
168,29,0,0,0,0,0,0,0,0,0,-1,1392,995,0,0
175,29,0,0,0,0,0,0,0,0,0,-1,1399,995,0,0
182,29,0,0,0,0,0,0,0,0,0,-1,1406,995,0,0
189,29,0,0,0,0,0,0,0,0,0,-1,1413,995,0,0
196,29,0,0,0,0,0,0,0,0,0,-1,1420,995,0,0
203,29,0,0,0,0,0,0,0,0,0,-1,1427,995,0,0
210,29,0,0,0,0,0,0,0,0,0,-1,1434,995,0,0
217,29,0,0,0,0,0,0,0,0,0,-1,1441,995,0,0
224,29,0,0,0,0,0,0,0,0,0,-1,1448,995,0,0
231,29,0,0,0,0,0,0,0,0,0,-1,1455,995,0,0
238,29,0,0,0,0,0,0,0,0,0,-1,1462,995,0,0
245,29,0,0,0,0,0,0,0,0,0,-1,1469,995,0,0
252,29,0,0,0,0,0,0,0,0,0,-1,1476,995,0,0
259,29,0,0,0,0,0,0,0,0,0,-1,1483,995,0,0
266,29,0,0,0,0,0,0,0,0,0,-1,1490,995,0,0
273,29,0,0,0,0,0,0,0,0,0,-1,1497,995,0,0
280,29,0,0,0,0,0,0,0,0,0,-1,1504,995,0,0
287,29,0,0,0,0,0,0,0,0,0,-1,1511,995,0,0
294,29,0,0,0,0,0,0,0,0,0,-1,1518,995,0,0
301,29,0,0,0,0,0,0,0,0,0,-1,1525,995,0,0
308,29,0,0,0,0,0,0,0,0,0,-1,1532,995,0,0
315,29,0,0,0,0,0,0,0,0,0,-1,1539,995,0,0
322,29,0,0,0,0,0,0,0,0,0,-1,1546,995,0,0
329,29,0,0,0,0,0,0,0,0,0,-1,1553,995,0,0
336,29,0,0,0,0,0,0,0,0,0,-1,1560,995,0,0
343,29,0,0,0,0,0,0,0,0,0,-1,1567,995,0,0
350,29,0,0,0,0,0,0,0,0,0,-1,1574,995,0,0
357,29,0,0,0,0,0,0,0,0,0,-1,1581,995,0,0
364,29,0,0,0,0,0,0,0,0,0,-1,1588,995,0,0
371,29,0,0,0,0,0,0,0,0,0,-1,1595,995,0,0
378,29,0,0,0,0,0,0,0,0,0,-1,1602,995,0,0
385,29,0,0,0,0,0,0,0,0,0,-1,1609,995,0,0
392,29,0,0,0,0,0,0,0,0,0,-1,1616,995,0,0
399,29,0,0,0,0,0,0,0,0,0,-1,1623,995,0,0
406,29,0,0,0,0,0,0,0,0,0,-1,1630,995,0,0
413,29,0,0,0,0,0,0,0,0,0,-1,1637,995,0,0
420,29,0,0,0,0,0,0,0,0,0,-1,1644,995,0,0
427,29,0,0,0,0,0,0,0,0,0,-1,1651,995,0,0
434,29,0,0,0,0,0,0,0,0,0,-1,1658,995,0,0
441,29,0,0,0,0,0,0,0,0,0,-1,1665,995,0,0
448,29,0,0,0,0,0,0,0,0,0,-1,1672,995,0,0
455,29,0,0,0,0,0,0,0,0,0,-1,1679,995,0,0
462,29,0,0,0,0,0,0,0,0,0,-1,1686,995,0,0
469,29,0,0,0,0,0,0,0,0,0,-1,1693,995,0,0
476,29,0,0,0,0,0,0,0,0,0,-1,1700,995,0,0
483,29,0,0,0,0,0,0,0,0,0,-1,1707,995,0,0
490,29,0,0,0,0,0,0,0,0,0,-1,1714,995,0,0
497,29,0,0,0,0,0,0,0,0,0,-1,1721,995,0,0
504,29,0,0,0,0,0,0,0,0,0,-1,1728,995,0,0
511,29,0,0,0,0,0,0,0,0,0,-1,1735,995,0,0
518,29,0,0,0,0,0,0,0,0,0,-1,1742,995,0,0
525,29,0,0,0,0,0,0,0,0,0,-1,1749,995,0,0
532,29,0,0,0,0,0,0,0,0,0,-1,1756,995,0,0
539,29,0,0,0,0,0,0,0,0,0,-1,1763,995,0,0
546,29,0,0,0,0,0,0,0,0,0,-1,1770,995,0,0
553,29,0,0,0,0,0,0,0,0,0,-1,1777,995,0,0
560,29,0,0,0,0,0,0,0,0,0,-1,1784,995,0,0
567,29,0,0,0,0,0,0,0,0,0,-1,1791,995,0,0
574,29,0,0,0,0,0,0,0,0,0,-1,1798,995,0,0
581,29,0,0,0,0,0,0,0,0,0,-1,1805,995,0,0
588,29,0,0,0,0,0,0,0,0,0,-1,1812,995,0,0
595,29,0,0,0,0,0,0,0,0,0,-1,1819,995,0,0
602,29,0,0,0,0,0,0,0,0,0,-1,1826,995,0,0
609,29,0,0,0,0,0,0,0,0,0,-1,1833,995,0,0
616,29,0,0,0,0,0,0,0,0,0,-1,1840,995,0,0
623,29,0,0,0,0,0,0,0,0,0,-1,1847,995,0,0
630,29,0,0,0,0,0,0,0,0,0,-1,1854,995,0,0
637,29,0,0,0,0,0,0,0,0,0,-1,1861,995,0,0
644,29,80.0542,2.27069,0.00602536,-0.000662827,0.00216408,0.00666451,-0.00130197,0.287179,0.00493458,0.0414422,1868,995,80.0542,-2.27069
651,29,80.1123,2.2959,0.00401651,0.000713471,0.00112412,0.00436279,0.000367199,0.298814,0.00279418,0.0433093,1875,995,80.1123,-2.29591
658,29,80.1899,2.34698,0.0027154,0.00156807,0.000498985,0.00290205,0.00138142,0.357943,0.00167614,0.0416052,1882,995,80.19,-2.34699
665,29,80.2255,2.39526,0.00183521,0.00215967,0.000172831,0.00223448,0.0017604,1.16229,0.00135947,0.0390452,1889,995,80.2255,-2.39524
672,29,80.1152,2.43188,0.00110882,0.0025543,4.73941e-05,0.00255585,0.00110727,1.53806,0.00148,0.0366705,1896,995,80.1152,-2.4319
679,29,79.9868,2.36621,0.000606332,0.00260233,0.000178943,0.00261824,0.000590416,1.48209,0.00158576,0.0378893,1903,995,79.9868,-2.3662
686,29,80.0051,2.25476,0.00027896,0.00213238,0.000402971,0.0022162,0.000195137,1.36571,0.00141691,0.0359609,1910,995,80.0051,-2.25477
693,29,80.0154,2.22968,-4.10676e-05,0.00147096,0.000590496,0.00167424,-0.000244346,1.23925,0.00120589,0.0378798,1917,995,80.0154,-2.22968
700,29,80.062,2.19379,-0.000464152,0.00105101,0.000633698,0.00128111,-0.000694245,1.2225,0.00115713,0.0373954,1924,995,80.062,-2.19377
707,29,80.0918,2.21063,-0.00114085,0.00122904,0.000550131,0.00135052,-0.00126232,1.35347,0.00150881,0.0233706,1931,995,80.0917,-2.21061
714,29,80.0516,2.12329,0,0,0,0,0,0,0,-1,1938,995,80.0516,-2.12332
721,29,78.8949,6.53455,0,0,0,0,0,0,0,-1,1945,995,78.8949,-6.53457
728,29,79.7959,6.80243,0,0,0,0,0,0,0,-1,1952,995,79.7959,-6.80245
735,29,79.9645,7.20435,-0.00658836,0.006787,-0.000404797,0.00679924,-0.0066006,-1.54057,0.00773668,0.0183059,1959,995,79.9645,-7.20436
742,29,79.9204,7.44159,-0.00812451,0.00902976,-0.000730633,0.00906083,-0.00815557,-1.52831,0.00994447,0.0159317,1966,995,79.9205,-7.44156
749,29,79.8926,7.71997,-0.00996751,0.0119706,-0.00137995,0.0120571,-0.010054,-1.50822,0.0127833,0.0167577,1973,995,79.8925,-7.71994
756,29,79.8706,7.97406,-0.0121427,0.0159551,-0.00201894,0.0160994,-0.012287,-1.49943,0.0164381,0.0154209,1980,995,79.8706,-7.97409
763,29,79.7771,8.12799,-0.0143365,0.0215976,-0.00257836,0.0217817,-0.0145205,-1.49953,0.0210984,0.0129572,1987,995,79.7771,-8.12798
770,29,79.616,8.2832,-0.0161402,0.0287467,-0.00290891,0.0289344,-0.016328,-1.50635,0.026468,0.0190107,1994,995,79.616,-8.28323
777,29,79.4941,8.57159,-0.0173232,0.0360075,-0.00296307,0.0361716,-0.0174873,-1.51546,0.0315998,0.0326685,2001,995,79.494,-8.57161
784,29,79.4636,9.00122,-0.0172263,0.042919,-0.00260252,0.0430314,-0.0173387,-1.52763,0.0358915,0.0470764,2008,995,79.4637,-9.00121
791,29,79.436,9.58881,-0.0150432,0.048753,-0.00188532,0.0488087,-0.0150989,-1.54128,0.0385701,0.0458017,2015,995,79.4359,-9.58883
798,29,79.5188,10.0479,0,0,0,0,0,0,0,-1,2022,995,79.5188,-10.0478
805,29,79.7434,4.59613,0,0,0,0,0,0,0,-1,2029,995,79.7434,-4.59615
812,29,80.0244,4.56281,0,0,0,0,0,0,0,-1,2036,995,80.0243,-4.56278
-700,22,0,0,0,0,0,0,0,0,0,-1,524,1002,0,0
-693,22,-68.3736,4.33887,0,0,0,0,0,0,0,-1,531,1002,-68.3736,-4.3389
-686,22,-67.1733,4.88538,0,0,0,0,0,0,0,-1,538,1002,-67.1733,-4.88538
-679,22,-65.398,5.1709,0,0,0,0,0,0,0,-1,545,1002,-65.398,-5.17088
-672,22,-63.5476,5.46606,0,0,0,0,0,0,0,-1,552,1002,-63.5476,-5.46604
-665,22,-61.9103,5.64667,0,0,0,0,0,0,0,-1,559,1002,-61.9103,-5.64664
-658,22,-59.6215,4.85364,0,0,0,0,0,0,0,-1,566,1002,-59.6215,-4.85361
-651,22,-63.0563,6.96478,0,0,0,0,0,0,0,-1,573,1002,-63.0563,-6.96476
-644,22,-63.8499,7.19342,-0.0154575,0.043776,0.000337926,0.0437779,-0.0154594,1.56509,0.0354794,0.0475809,580,1002,-63.8499,-7.19345
-637,22,-64.3309,7.36212,-0.0135579,0.0335584,0.0013853,0.0335991,-0.0135986,1.54143,0.0280533,0.0337119,587,1002,-64.3309,-7.36211
-630,22,-64.3046,7.32019,-0.0114083,0.0239511,0.00196366,0.0240598,-0.011517,1.51549,0.0209615,0.0193751,594,1002,-64.3046,-7.32019
-623,22,-64.3364,7.16583,-0.00957539,0.0161624,0.00227965,0.0163628,-0.00977574,1.48313,0.01525,0.0137527,601,1002,-64.3363,-7.16584
-616,22,-64.3427,6.96497,-0.00810006,0.0105549,0.00257617,0.0109041,-0.00844928,1.43606,0.0112036,0.0228928,608,1002,-64.3427,-6.96496
-609,22,-64.4382,6.8739,-0.00677662,0.00668545,0.00264826,0.00718768,-0.00727885,1.38338,0.00835231,0.0382509,615,1002,-64.4382,-6.87388
-602,22,-64.6802,6.72894,-0.00561466,0.00410963,0.0024617,0.0046973,-0.00620232,1.33646,0.00631286,0.0326535,622,1002,-64.6802,-6.72895
-595,22,-64.9461,6.36407,-0.00477624,0.00232689,0.00198925,0.00284604,-0.00529539,1.31551,0.00477084,0.0383956,629,1002,-64.9461,-6.36405
-588,22,-65.0627,5.89911,0,0,0,0,0,0,0,-1,636,1002,-65.0627,-5.89908
-581,22,-63.4251,0.153137,0,0,0,0,0,0,0,-1,643,1002,-63.4251,-0.153112
-574,22,-63.4115,0.218323,-0.00241064,-0.00122942,0.000311689,-0.00115222,-0.00248784,1.328,0.00143766,0.0345325,650,1002,-63.4115,-0.21834
-567,22,-63.4036,0.283752,-0.00200157,-0.00138418,-0.000358023,-0.00122014,-0.0021656,-1.14117,0.00125366,0.0328147,657,1002,-63.4036,-0.283766
-560,22,-63.5073,0.443909,-0.0015954,-0.00110817,-0.00120306,-0.000124309,-0.00257926,-0.885296,0.0016796,0.0361652,664,1002,-63.5073,-0.4439
-553,22,-63.481,0.590088,-0.00129539,-0.000635856,-0.00228945,0.00134745,-0.0032787,-0.856925,0.00274739,0.0380017,671,1002,-63.481,-0.590098
-546,22,-63.3786,0.450073,-0.00116677,-0.000445124,-0.00354866,0.00276101,-0.0043729,-0.836063,0.00415367,0.0386517,678,1002,-63.3786,-0.450053
-539,22,-63.4444,0.202454,-0.00171624,-0.000992403,-0.00475592,0.00341535,-0.006124,-0.823374,0.00558106,0.0403134,685,1002,-63.4444,-0.20245
-532,22,-63.3316,0.107544,-0.00205858,-0.00149903,-0.00549923,0.00372754,-0.00728514,-0.810814,0.00646782,0.0436129,692,1002,-63.3316,-0.107537
-525,22,0,0,0,0,0,0,0,0,0,-1,699,1002,0,0
-518,22,0,0,0,0,0,0,0,0,0,-1,706,1002,0,0
-511,22,0,0,0,0,0,0,0,0,0,-1,713,1002,0,0
-504,22,0,0,0,0,0,0,0,0,0,-1,720,1002,0,0
-497,22,0,0,0,0,0,0,0,0,0,-1,727,1002,0,0
-490,22,0,0,0,0,0,0,0,0,0,-1,734,1002,0,0
-483,22,0,0,0,0,0,0,0,0,0,-1,741,1002,0,0
-476,22,0,0,0,0,0,0,0,0,0,-1,748,1002,0,0
-469,22,0,0,0,0,0,0,0,0,0,-1,755,1002,0,0
-462,22,0,0,0,0,0,0,0,0,0,-1,762,1002,0,0
-455,22,0,0,0,0,0,0,0,0,0,-1,769,1002,0,0
-448,22,0,0,0,0,0,0,0,0,0,-1,776,1002,0,0
-441,22,0,0,0,0,0,0,0,0,0,-1,783,1002,0,0
-434,22,0,0,0,0,0,0,0,0,0,-1,790,1002,0,0
-427,22,0,0,0,0,0,0,0,0,0,-1,797,1002,0,0
-420,22,0,0,0,0,0,0,0,0,0,-1,804,1002,0,0
-413,22,0,0,0,0,0,0,0,0,0,-1,811,1002,0,0
-406,22,0,0,0,0,0,0,0,0,0,-1,818,1002,0,0
-399,22,0,0,0,0,0,0,0,0,0,-1,825,1002,0,0
-392,22,0,0,0,0,0,0,0,0,0,-1,832,1002,0,0
-385,22,0,0,0,0,0,0,0,0,0,-1,839,1002,0,0
-378,22,0,0,0,0,0,0,0,0,0,-1,846,1002,0,0
-371,22,0,0,0,0,0,0,0,0,0,-1,853,1002,0,0
-364,22,0,0,0,0,0,0,0,0,0,-1,860,1002,0,0
-357,22,0,0,0,0,0,0,0,0,0,-1,867,1002,0,0
-350,22,0,0,0,0,0,0,0,0,0,-1,874,1002,0,0
-343,22,0,0,0,0,0,0,0,0,0,-1,881,1002,0,0
-336,22,0,0,0,0,0,0,0,0,0,-1,888,1002,0,0
-329,22,0,0,0,0,0,0,0,0,0,-1,895,1002,0,0
-322,22,0,0,0,0,0,0,0,0,0,-1,902,1002,0,0
-315,22,0,0,0,0,0,0,0,0,0,-1,909,1002,0,0
-308,22,0,0,0,0,0,0,0,0,0,-1,916,1002,0,0
-301,22,0,0,0,0,0,0,0,0,0,-1,923,1002,0,0
-294,22,0,0,0,0,0,0,0,0,0,-1,930,1002,0,0
-287,22,0,0,0,0,0,0,0,0,0,-1,937,1002,0,0
-280,22,0,0,0,0,0,0,0,0,0,-1,944,1002,0,0
-273,22,0,0,0,0,0,0,0,0,0,-1,951,1002,0,0
-266,22,0,0,0,0,0,0,0,0,0,-1,958,1002,0,0
-259,22,0,0,0,0,0,0,0,0,0,-1,965,1002,0,0
-252,22,0,0,0,0,0,0,0,0,0,-1,972,1002,0,0
-245,22,0,0,0,0,0,0,0,0,0,-1,979,1002,0,0
-238,22,0,0,0,0,0,0,0,0,0,-1,986,1002,0,0
-231,22,0,0,0,0,0,0,0,0,0,-1,993,1002,0,0
-224,22,0,0,0,0,0,0,0,0,0,-1,1000,1002,0,0
-217,22,0,0,0,0,0,0,0,0,0,-1,1007,1002,0,0
-210,22,0,0,0,0,0,0,0,0,0,-1,1014,1002,0,0
-203,22,0,0,0,0,0,0,0,0,0,-1,1021,1002,0,0
-196,22,0,0,0,0,0,0,0,0,0,-1,1028,1002,0,0
-189,22,0,0,0,0,0,0,0,0,0,-1,1035,1002,0,0
-182,22,0,0,0,0,0,0,0,0,0,-1,1042,1002,0,0
-175,22,0,0,0,0,0,0,0,0,0,-1,1049,1002,0,0
-168,22,0,0,0,0,0,0,0,0,0,-1,1056,1002,0,0
-161,22,0,0,0,0,0,0,0,0,0,-1,1063,1002,0,0
-154,22,0,0,0,0,0,0,0,0,0,-1,1070,1002,0,0
-147,22,0,0,0,0,0,0,0,0,0,-1,1077,1002,0,0
-140,22,0,0,0,0,0,0,0,0,0,-1,1084,1002,0,0
-133,22,0,0,0,0,0,0,0,0,0,-1,1091,1002,0,0
-126,22,0,0,0,0,0,0,0,0,0,-1,1098,1002,0,0
-119,22,0,0,0,0,0,0,0,0,0,-1,1105,1002,0,0
-112,22,0,0,0,0,0,0,0,0,0,-1,1112,1002,0,0
-105,22,0,0,0,0,0,0,0,0,0,-1,1119,1002,0,0
-98,22,0,0,0,0,0,0,0,0,0,-1,1126,1002,0,0
-91,22,0,0,0,0,0,0,0,0,0,-1,1133,1002,0,0
-84,22,0,0,0,0,0,0,0,0,0,-1,1140,1002,0,0
-77,22,0,0,0,0,0,0,0,0,0,-1,1147,1002,0,0
-70,22,0,0,0,0,0,0,0,0,0,-1,1154,1002,0,0
-63,22,0,0,0,0,0,0,0,0,0,-1,1161,1002,0,0
-56,22,0,0,0,0,0,0,0,0,0,-1,1168,1002,0,0
-49,22,0,0,0,0,0,0,0,0,0,-1,1175,1002,0,0
-42,22,0,0,0,0,0,0,0,0,0,-1,1182,1002,0,0
-35,22,0,0,0,0,0,0,0,0,0,-1,1189,1002,0,0
-28,22,0,0,0,0,0,0,0,0,0,-1,1196,1002,0,0
-21,22,0,0,0,0,0,0,0,0,0,-1,1203,1002,0,0
-14,22,0,0,0,0,0,0,0,0,0,-1,1210,1002,0,0
-7,22,0,0,0,0,0,0,0,0,0,-1,1217,1002,0,0
0,22,0,0,0,0,0,0,0,0,0,-1,1224,1002,0,0
7,22,0,0,0,0,0,0,0,0,0,-1,1231,1002,0,0
14,22,0,0,0,0,0,0,0,0,0,-1,1238,1002,0,0
21,22,0,0,0,0,0,0,0,0,0,-1,1245,1002,0,0
28,22,0,0,0,0,0,0,0,0,0,-1,1252,1002,0,0
35,22,0,0,0,0,0,0,0,0,0,-1,1259,1002,0,0
42,22,0,0,0,0,0,0,0,0,0,-1,1266,1002,0,0
49,22,0,0,0,0,0,0,0,0,0,-1,1273,1002,0,0
56,22,0,0,0,0,0,0,0,0,0,-1,1280,1002,0,0
63,22,0,0,0,0,0,0,0,0,0,-1,1287,1002,0,0
70,22,0,0,0,0,0,0,0,0,0,-1,1294,1002,0,0
77,22,0,0,0,0,0,0,0,0,0,-1,1301,1002,0,0
84,22,0,0,0,0,0,0,0,0,0,-1,1308,1002,0,0
91,22,0,0,0,0,0,0,0,0,0,-1,1315,1002,0,0
98,22,0,0,0,0,0,0,0,0,0,-1,1322,1002,0,0
105,22,0,0,0,0,0,0,0,0,0,-1,1329,1002,0,0
112,22,0,0,0,0,0,0,0,0,0,-1,1336,1002,0,0
119,22,0,0,0,0,0,0,0,0,0,-1,1343,1002,0,0
126,22,0,0,0,0,0,0,0,0,0,-1,1350,1002,0,0
133,22,0,0,0,0,0,0,0,0,0,-1,1357,1002,0,0
140,22,0,0,0,0,0,0,0,0,0,-1,1364,1002,0,0
147,22,0,0,0,0,0,0,0,0,0,-1,1371,1002,0,0
154,22,0,0,0,0,0,0,0,0,0,-1,1378,1002,0,0
161,22,0,0,0,0,0,0,0,0,0,-1,1385,1002,0,0
168,22,0,0,0,0,0,0,0,0,0,-1,1392,1002,0,0
175,22,0,0,0,0,0,0,0,0,0,-1,1399,1002,0,0
182,22,0,0,0,0,0,0,0,0,0,-1,1406,1002,0,0
189,22,0,0,0,0,0,0,0,0,0,-1,1413,1002,0,0
196,22,0,0,0,0,0,0,0,0,0,-1,1420,1002,0,0
203,22,0,0,0,0,0,0,0,0,0,-1,1427,1002,0,0
210,22,0,0,0,0,0,0,0,0,0,-1,1434,1002,0,0
217,22,0,0,0,0,0,0,0,0,0,-1,1441,1002,0,0
224,22,0,0,0,0,0,0,0,0,0,-1,1448,1002,0,0
231,22,0,0,0,0,0,0,0,0,0,-1,1455,1002,0,0
238,22,0,0,0,0,0,0,0,0,0,-1,1462,1002,0,0
245,22,0,0,0,0,0,0,0,0,0,-1,1469,1002,0,0
252,22,0,0,0,0,0,0,0,0,0,-1,1476,1002,0,0
259,22,0,0,0,0,0,0,0,0,0,-1,1483,1002,0,0
266,22,0,0,0,0,0,0,0,0,0,-1,1490,1002,0,0
273,22,0,0,0,0,0,0,0,0,0,-1,1497,1002,0,0
280,22,0,0,0,0,0,0,0,0,0,-1,1504,1002,0,0
287,22,0,0,0,0,0,0,0,0,0,-1,1511,1002,0,0
294,22,0,0,0,0,0,0,0,0,0,-1,1518,1002,0,0
301,22,0,0,0,0,0,0,0,0,0,-1,1525,1002,0,0
308,22,0,0,0,0,0,0,0,0,0,-1,1532,1002,0,0
315,22,0,0,0,0,0,0,0,0,0,-1,1539,1002,0,0
322,22,0,0,0,0,0,0,0,0,0,-1,1546,1002,0,0
329,22,0,0,0,0,0,0,0,0,0,-1,1553,1002,0,0
336,22,0,0,0,0,0,0,0,0,0,-1,1560,1002,0,0
343,22,0,0,0,0,0,0,0,0,0,-1,1567,1002,0,0
350,22,0,0,0,0,0,0,0,0,0,-1,1574,1002,0,0
357,22,0,0,0,0,0,0,0,0,0,-1,1581,1002,0,0
364,22,0,0,0,0,0,0,0,0,0,-1,1588,1002,0,0
371,22,0,0,0,0,0,0,0,0,0,-1,1595,1002,0,0
378,22,0,0,0,0,0,0,0,0,0,-1,1602,1002,0,0
385,22,0,0,0,0,0,0,0,0,0,-1,1609,1002,0,0
392,22,0,0,0,0,0,0,0,0,0,-1,1616,1002,0,0
399,22,0,0,0,0,0,0,0,0,0,-1,1623,1002,0,0
406,22,0,0,0,0,0,0,0,0,0,-1,1630,1002,0,0
413,22,0,0,0,0,0,0,0,0,0,-1,1637,1002,0,0
420,22,0,0,0,0,0,0,0,0,0,-1,1644,1002,0,0
427,22,0,0,0,0,0,0,0,0,0,-1,1651,1002,0,0
434,22,0,0,0,0,0,0,0,0,0,-1,1658,1002,0,0
441,22,0,0,0,0,0,0,0,0,0,-1,1665,1002,0,0
448,22,0,0,0,0,0,0,0,0,0,-1,1672,1002,0,0
455,22,0,0,0,0,0,0,0,0,0,-1,1679,1002,0,0
462,22,0,0,0,0,0,0,0,0,0,-1,1686,1002,0,0
469,22,0,0,0,0,0,0,0,0,0,-1,1693,1002,0,0
476,22,0,0,0,0,0,0,0,0,0,-1,1700,1002,0,0
483,22,0,0,0,0,0,0,0,0,0,-1,1707,1002,0,0
490,22,0,0,0,0,0,0,0,0,0,-1,1714,1002,0,0
497,22,0,0,0,0,0,0,0,0,0,-1,1721,1002,0,0
504,22,0,0,0,0,0,0,0,0,0,-1,1728,1002,0,0
511,22,0,0,0,0,0,0,0,0,0,-1,1735,1002,0,0
518,22,0,0,0,0,0,0,0,0,0,-1,1742,1002,0,0
525,22,0,0,0,0,0,0,0,0,0,-1,1749,1002,0,0
532,22,0,0,0,0,0,0,0,0,0,-1,1756,1002,0,0
539,22,0,0,0,0,0,0,0,0,0,-1,1763,1002,0,0
546,22,0,0,0,0,0,0,0,0,0,-1,1770,1002,0,0
553,22,0,0,0,0,0,0,0,0,0,-1,1777,1002,0,0
560,22,0,0,0,0,0,0,0,0,0,-1,1784,1002,0,0
567,22,0,0,0,0,0,0,0,0,0,-1,1791,1002,0,0
574,22,0,0,0,0,0,0,0,0,0,-1,1798,1002,0,0
581,22,0,0,0,0,0,0,0,0,0,-1,1805,1002,0,0
588,22,0,0,0,0,0,0,0,0,0,-1,1812,1002,0,0
595,22,0,0,0,0,0,0,0,0,0,-1,1819,1002,0,0
602,22,0,0,0,0,0,0,0,0,0,-1,1826,1002,0,0
609,22,0,0,0,0,0,0,0,0,0,-1,1833,1002,0,0
616,22,0,0,0,0,0,0,0,0,0,-1,1840,1002,0,0
623,22,0,0,0,0,0,0,0,0,0,-1,1847,1002,0,0
630,22,0,0,0,0,0,0,0,0,0,-1,1854,1002,0,0
637,22,0,0,0,0,0,0,0,0,0,-1,1861,1002,0,0
644,22,79.9828,2.18085,0.00475445,-0.000195644,0.000738915,0.0048624,-0.00030359,0.145061,0.00334739,0.0410313,1868,1002,79.9828,-2.18082
651,22,80.0151,2.16626,0.0030916,0.00113747,5.58009e-05,0.0030932,0.00113587,0.0285243,0.00180673,0.0441161,1875,1002,80.0152,-2.16628
658,22,80.0461,2.19525,0.00204501,0.00192629,-0.000282674,0.00227449,0.00169681,-0.681901,0.00136514,0.042304,1882,1002,80.0461,-2.19524
665,22,80.1067,2.2666,0.00134307,0.00244033,-0.000347503,0.00254113,0.00124228,-1.28849,0.00146724,0.0390707,1889,1002,80.1067,-2.26663
672,22,80.0883,2.25714,0.000766015,0.00277863,-0.000235884,0.0028059,0.000738739,-1.45567,0.00167942,0.0393277,1896,1002,80.0883,-2.25713
679,22,80.028,2.23315,0.000366758,0.00280674,7.25937e-05,0.0028089,0.0003646,1.54108,0.00176368,0.0398938,1903,1002,80.028,-2.23314
686,22,80.1053,2.25928,4.51619e-05,0.00231493,0.000444826,0.002399,-3.8901e-05,1.38402,0.00161245,0.0365451,1910,1002,80.1053,-2.25929
693,22,80.0895,2.2572,-0.00022884,0.00159267,0.000742451,0.00185695,-0.000493119,1.22883,0.00143095,0.037312,1917,1002,80.0895,-2.25718
700,22,80.1053,2.22516,-0.000556911,0.0010839,0.000861632,0.00145323,-0.000926243,1.16584,0.00138498,0.0362124,1924,1002,80.1054,-2.22518
707,22,80.0869,2.25391,-0.00121538,0.00120862,0.000850469,0.00147724,-0.001484,1.26486,0.00170968,0.0289736,1931,1002,80.0869,-2.25392
714,22,80.0028,2.3042,0,0,0,0,0,0,0,-1,1938,1002,80.0028,-2.30418
721,22,76.814,2.41211,0,0,0,0,0,0,0,-1,1945,1002,76.814,-2.41212
728,22,80.208,7.13043,0,0,0,0,0,0,0,-1,1952,1002,80.208,-7.13041
735,22,80.1876,7.31995,-0.00689139,0.00685453,-3.6276e-05,0.00685462,-0.00689149,-1.56816,0.00793633,0.0181782,1959,1002,80.1877,-7.31997
742,22,80.1722,7.49988,-0.00840342,0.00908304,-0.000343624,0.00908979,-0.00841017,-1.55116,0.0101061,0.0189982,1966,1002,80.1722,-7.49988
749,22,80.0977,7.70062,-0.0101947,0.0119769,-0.000977849,0.0120199,-0.0102378,-1.52681,0.0128642,0.0145099,1973,1002,80.0976,-7.70062
756,22,80.083,7.85681,-0.0122777,0.0157356,-0.00161738,0.0158286,-0.0123708,-1.51331,0.0163217,0.0197228,1980,1002,80.0831,-7.85678
763,22,79.9846,8.03186,-0.0143411,0.0210296,-0.00224216,0.0211711,-0.0144826,-1.50774,0.0207051,0.0206136,1987,1002,79.9845,-8.03187
770,22,79.7334,8.14795,-0.0159478,0.0278548,-0.00271554,0.0280225,-0.0161155,-1.50912,0.0257903,0.022305,1994,1002,79.7333,-8.14795
777,22,79.3408,8.16913,-0.0168104,0.0348504,-0.00299847,0.0350238,-0.0169838,-1.51301,0.0306228,0.045339,2001,1002,79.3409,-8.16912
784,22,79.0334,8.25848,0,0,0,0,0,0,0,-1,2008,1002,79.0336,-8.25848
791,22,79.4341,9.25391,0,0,0,0,0,0,0,-1,2015,1002,79.4342,-9.25388
798,22,79.5117,9.83527,0,0,0,0,0,0,0,-1,2022,1002,79.5117,-9.83526
805,22,80.0361,3.28198,0,0,0,0,0,0,0,-1,2029,1002,80.0361,-3.282
812,22,80.2668,2.9942,0,0,0,0,0,0,0,-1,2036,1002,80.2668,-2.99423
-700,15,0,0,0,0,0,0,0,0,0,-1,524,1009,0,0
-693,15,-68.4648,3.927,0,0,0,0,0,0,0,-1,531,1009,-68.4648,-3.92697
-686,15,-66.9523,4.16956,0,0,0,0,0,0,0,-1,538,1009,-66.9523,-4.16957
-679,15,-65.4722,4.66772,0,0,0,0,0,0,0,-1,545,1009,-65.4722,-4.66772
-672,15,-63.7578,4.94879,0,0,0,0,0,0,0,-1,552,1009,-63.7578,-4.9488
-665,15,-60.031,3.28375,0,0,0,0,0,0,0,-1,559,1009,-60.031,-3.28373
-658,15,-64.2608,5.32886,0,0,0,0,0,0,0,-1,566,1009,-64.2608,-5.32885
-651,15,-51.4943,3.62128,0,0,0,0,0,0,0,-1,573,1009,-51.4943,-3.62128
-644,15,-64.4994,7.40314,0,0,0,0,0,0,0,-1,580,1009,-64.4994,-7.40314
-637,15,-64.4092,7.30286,-0.014241,0.0317937,0.00111063,0.0318205,-0.0142678,1.54669,0.0272447,0.0374638,587,1009,-64.4092,-7.30284
-630,15,-64.444,7.19116,-0.0116316,0.0226443,0.00146468,0.0227068,-0.011694,1.52817,0.0201977,0.0205181,594,1009,-64.444,-7.19117
-623,15,-64.4916,7.06854,-0.00960612,0.0153417,0.00169449,0.0154563,-0.00972069,1.50329,0.0146611,0.0111659,601,1009,-64.4916,-7.06857
-616,15,-64.4833,6.96381,-0.0080081,0.0100797,0.00193642,0.0102847,-0.00821308,1.46533,0.010702,0.0181559,608,1009,-64.4833,-6.96383
-609,15,-64.6178,6.90051,-0.00661021,0.00642491,0.00198283,0.00671985,-0.00690515,1.42313,0.00786664,0.0259853,615,1009,-64.6178,-6.90053
-602,15,-64.7728,6.8161,-0.0054393,0.00391683,0.00185926,0.00427277,-0.00579524,1.38165,0.00583487,0.0250596,622,1009,-64.7728,-6.81608
-595,15,-65.2818,6.34668,0,0,0,0,0,0,0,-1,629,1009,-65.2818,-6.34669
-588,15,-63.3008,0.515076,0,0,0,0,0,0,0,-1,636,1009,-63.3008,-0.515085
-581,15,-63.3461,0.415466,-0.0028788,-0.000510717,0.000483763,-0.000415704,-0.00297382,1.37686,0.00185953,0.0393852,643,1009,-63.3461,-0.415451
-574,15,-63.3642,0.302856,-0.00242234,-0.00127299,-8.00664e-05,-0.00126744,-0.00242789,-1.50158,0.0014022,0.0328375,650,1009,-63.3642,-0.302854
-567,15,-63.4535,0.277649,-0.00211643,-0.00141329,-0.00067237,-0.00100612,-0.0025236,-1.02629,0.00146694,0.0336133,657,1009,-63.4535,-0.27766
-560,15,-63.4776,0.473938,-0.00184243,-0.00114188,-0.00143392,-1.60713e-05,-0.00296823,-0.905191,0.00197349,0.0405808,664,1009,-63.4776,-0.473964
-553,15,-63.324,0.665894,-0.00174068,-0.000732891,-0.00243745,0.00125221,-0.00372578,-0.887327,0.00298998,0.0432222,671,1009,-63.324,-0.66592
-546,15,-63.2698,0.493591,-0.00188457,-0.000713381,-0.00362716,0.00237516,-0.00497311,-0.865431,0.00433,0.0395148,678,1009,-63.2698,-0.493577
-539,15,-63.2682,0.191406,-0.00277982,-0.00145248,-0.00474831,0.00267832,-0.00691061,-0.854834,0.0057131,0.0410601,685,1009,-63.2682,-0.191401
-532,15,-63.3212,0.0877686,-0.00351021,-0.00213686,-0.00543099,0.00265069,-0.00829776,-0.848283,0.00659541,0.0431637,692,1009,-63.3212,-0.0877501
-525,15,0,0,0,0,0,0,0,0,0,-1,699,1009,0,0
-518,15,0,0,0,0,0,0,0,0,0,-1,706,1009,0,0
-511,15,0,0,0,0,0,0,0,0,0,-1,713,1009,0,0
-504,15,0,0,0,0,0,0,0,0,0,-1,720,1009,0,0
-497,15,0,0,0,0,0,0,0,0,0,-1,727,1009,0,0
-490,15,0,0,0,0,0,0,0,0,0,-1,734,1009,0,0
-483,15,0,0,0,0,0,0,0,0,0,-1,741,1009,0,0
-476,15,0,0,0,0,0,0,0,0,0,-1,748,1009,0,0
-469,15,0,0,0,0,0,0,0,0,0,-1,755,1009,0,0
-462,15,0,0,0,0,0,0,0,0,0,-1,762,1009,0,0
-455,15,0,0,0,0,0,0,0,0,0,-1,769,1009,0,0
-448,15,0,0,0,0,0,0,0,0,0,-1,776,1009,0,0
-441,15,0,0,0,0,0,0,0,0,0,-1,783,1009,0,0
-434,15,0,0,0,0,0,0,0,0,0,-1,790,1009,0,0
-427,15,0,0,0,0,0,0,0,0,0,-1,797,1009,0,0
-420,15,0,0,0,0,0,0,0,0,0,-1,804,1009,0,0
-413,15,0,0,0,0,0,0,0,0,0,-1,811,1009,0,0
-406,15,0,0,0,0,0,0,0,0,0,-1,818,1009,0,0
-399,15,0,0,0,0,0,0,0,0,0,-1,825,1009,0,0
-392,15,0,0,0,0,0,0,0,0,0,-1,832,1009,0,0
-385,15,0,0,0,0,0,0,0,0,0,-1,839,1009,0,0
-378,15,0,0,0,0,0,0,0,0,0,-1,846,1009,0,0
-371,15,0,0,0,0,0,0,0,0,0,-1,853,1009,0,0
-364,15,0,0,0,0,0,0,0,0,0,-1,860,1009,0,0
-357,15,0,0,0,0,0,0,0,0,0,-1,867,1009,0,0
-350,15,0,0,0,0,0,0,0,0,0,-1,874,1009,0,0
-343,15,0,0,0,0,0,0,0,0,0,-1,881,1009,0,0
-336,15,0,0,0,0,0,0,0,0,0,-1,888,1009,0,0
-329,15,0,0,0,0,0,0,0,0,0,-1,895,1009,0,0
-322,15,0,0,0,0,0,0,0,0,0,-1,902,1009,0,0
-315,15,0,0,0,0,0,0,0,0,0,-1,909,1009,0,0
-308,15,0,0,0,0,0,0,0,0,0,-1,916,1009,0,0
-301,15,0,0,0,0,0,0,0,0,0,-1,923,1009,0,0
-294,15,0,0,0,0,0,0,0,0,0,-1,930,1009,0,0
-287,15,0,0,0,0,0,0,0,0,0,-1,937,1009,0,0
-280,15,0,0,0,0,0,0,0,0,0,-1,944,1009,0,0
-273,15,0,0,0,0,0,0,0,0,0,-1,951,1009,0,0
-266,15,0,0,0,0,0,0,0,0,0,-1,958,1009,0,0
-259,15,0,0,0,0,0,0,0,0,0,-1,965,1009,0,0
-252,15,0,0,0,0,0,0,0,0,0,-1,972,1009,0,0
-245,15,0,0,0,0,0,0,0,0,0,-1,979,1009,0,0
-238,15,0,0,0,0,0,0,0,0,0,-1,986,1009,0,0
-231,15,0,0,0,0,0,0,0,0,0,-1,993,1009,0,0
-224,15,0,0,0,0,0,0,0,0,0,-1,1000,1009,0,0
-217,15,0,0,0,0,0,0,0,0,0,-1,1007,1009,0,0
-210,15,0,0,0,0,0,0,0,0,0,-1,1014,1009,0,0
-203,15,0,0,0,0,0,0,0,0,0,-1,1021,1009,0,0
-196,15,0,0,0,0,0,0,0,0,0,-1,1028,1009,0,0
-189,15,0,0,0,0,0,0,0,0,0,-1,1035,1009,0,0
-182,15,0,0,0,0,0,0,0,0,0,-1,1042,1009,0,0
-175,15,0,0,0,0,0,0,0,0,0,-1,1049,1009,0,0
-168,15,0,0,0,0,0,0,0,0,0,-1,1056,1009,0,0
-161,15,0,0,0,0,0,0,0,0,0,-1,1063,1009,0,0
-154,15,0,0,0,0,0,0,0,0,0,-1,1070,1009,0,0
-147,15,0,0,0,0,0,0,0,0,0,-1,1077,1009,0,0
-140,15,0,0,0,0,0,0,0,0,0,-1,1084,1009,0,0
-133,15,0,0,0,0,0,0,0,0,0,-1,1091,1009,0,0
-126,15,0,0,0,0,0,0,0,0,0,-1,1098,1009,0,0
-119,15,0,0,0,0,0,0,0,0,0,-1,1105,1009,0,0
-112,15,0,0,0,0,0,0,0,0,0,-1,1112,1009,0,0
-105,15,0,0,0,0,0,0,0,0,0,-1,1119,1009,0,0
-98,15,0,0,0,0,0,0,0,0,0,-1,1126,1009,0,0
-91,15,0,0,0,0,0,0,0,0,0,-1,1133,1009,0,0
-84,15,0,0,0,0,0,0,0,0,0,-1,1140,1009,0,0
-77,15,0,0,0,0,0,0,0,0,0,-1,1147,1009,0,0
-70,15,0,0,0,0,0,0,0,0,0,-1,1154,1009,0,0
-63,15,0,0,0,0,0,0,0,0,0,-1,1161,1009,0,0
-56,15,0,0,0,0,0,0,0,0,0,-1,1168,1009,0,0
-49,15,0,0,0,0,0,0,0,0,0,-1,1175,1009,0,0
-42,15,0,0,0,0,0,0,0,0,0,-1,1182,1009,0,0
-35,15,0,0,0,0,0,0,0,0,0,-1,1189,1009,0,0
-28,15,0,0,0,0,0,0,0,0,0,-1,1196,1009,0,0
-21,15,0,0,0,0,0,0,0,0,0,-1,1203,1009,0,0
-14,15,0,0,0,0,0,0,0,0,0,-1,1210,1009,0,0
-7,15,0,0,0,0,0,0,0,0,0,-1,1217,1009,0,0
0,15,0,0,0,0,0,0,0,0,0,-1,1224,1009,0,0
7,15,0,0,0,0,0,0,0,0,0,-1,1231,1009,0,0
14,15,0,0,0,0,0,0,0,0,0,-1,1238,1009,0,0
21,15,0,0,0,0,0,0,0,0,0,-1,1245,1009,0,0
28,15,0,0,0,0,0,0,0,0,0,-1,1252,1009,0,0
35,15,0,0,0,0,0,0,0,0,0,-1,1259,1009,0,0
42,15,0,0,0,0,0,0,0,0,0,-1,1266,1009,0,0
49,15,0,0,0,0,0,0,0,0,0,-1,1273,1009,0,0
56,15,0,0,0,0,0,0,0,0,0,-1,1280,1009,0,0
63,15,0,0,0,0,0,0,0,0,0,-1,1287,1009,0,0
70,15,0,0,0,0,0,0,0,0,0,-1,1294,1009,0,0
77,15,0,0,0,0,0,0,0,0,0,-1,1301,1009,0,0
84,15,0,0,0,0,0,0,0,0,0,-1,1308,1009,0,0
91,15,0,0,0,0,0,0,0,0,0,-1,1315,1009,0,0
98,15,0,0,0,0,0,0,0,0,0,-1,1322,1009,0,0
105,15,0,0,0,0,0,0,0,0,0,-1,1329,1009,0,0
112,15,0,0,0,0,0,0,0,0,0,-1,1336,1009,0,0
119,15,0,0,0,0,0,0,0,0,0,-1,1343,1009,0,0
126,15,0,0,0,0,0,0,0,0,0,-1,1350,1009,0,0
133,15,0,0,0,0,0,0,0,0,0,-1,1357,1009,0,0
140,15,0,0,0,0,0,0,0,0,0,-1,1364,1009,0,0
147,15,0,0,0,0,0,0,0,0,0,-1,1371,1009,0,0
154,15,0,0,0,0,0,0,0,0,0,-1,1378,1009,0,0
161,15,0,0,0,0,0,0,0,0,0,-1,1385,1009,0,0
168,15,0,0,0,0,0,0,0,0,0,-1,1392,1009,0,0
175,15,0,0,0,0,0,0,0,0,0,-1,1399,1009,0,0
182,15,0,0,0,0,0,0,0,0,0,-1,1406,1009,0,0
189,15,0,0,0,0,0,0,0,0,0,-1,1413,1009,0,0
196,15,0,0,0,0,0,0,0,0,0,-1,1420,1009,0,0
203,15,0,0,0,0,0,0,0,0,0,-1,1427,1009,0,0
210,15,0,0,0,0,0,0,0,0,0,-1,1434,1009,0,0
217,15,0,0,0,0,0,0,0,0,0,-1,1441,1009,0,0
224,15,0,0,0,0,0,0,0,0,0,-1,1448,1009,0,0
231,15,0,0,0,0,0,0,0,0,0,-1,1455,1009,0,0
238,15,0,0,0,0,0,0,0,0,0,-1,1462,1009,0,0
245,15,0,0,0,0,0,0,0,0,0,-1,1469,1009,0,0
252,15,0,0,0,0,0,0,0,0,0,-1,1476,1009,0,0
259,15,0,0,0,0,0,0,0,0,0,-1,1483,1009,0,0
266,15,0,0,0,0,0,0,0,0,0,-1,1490,1009,0,0
273,15,0,0,0,0,0,0,0,0,0,-1,1497,1009,0,0
280,15,0,0,0,0,0,0,0,0,0,-1,1504,1009,0,0
287,15,0,0,0,0,0,0,0,0,0,-1,1511,1009,0,0
294,15,0,0,0,0,0,0,0,0,0,-1,1518,1009,0,0
301,15,0,0,0,0,0,0,0,0,0,-1,1525,1009,0,0
308,15,0,0,0,0,0,0,0,0,0,-1,1532,1009,0,0
315,15,0,0,0,0,0,0,0,0,0,-1,1539,1009,0,0
322,15,0,0,0,0,0,0,0,0,0,-1,1546,1009,0,0
329,15,0,0,0,0,0,0,0,0,0,-1,1553,1009,0,0
336,15,0,0,0,0,0,0,0,0,0,-1,1560,1009,0,0
343,15,0,0,0,0,0,0,0,0,0,-1,1567,1009,0,0
350,15,0,0,0,0,0,0,0,0,0,-1,1574,1009,0,0
357,15,0,0,0,0,0,0,0,0,0,-1,1581,1009,0,0
364,15,0,0,0,0,0,0,0,0,0,-1,1588,1009,0,0
371,15,0,0,0,0,0,0,0,0,0,-1,1595,1009,0,0
378,15,0,0,0,0,0,0,0,0,0,-1,1602,1009,0,0
385,15,0,0,0,0,0,0,0,0,0,-1,1609,1009,0,0
392,15,0,0,0,0,0,0,0,0,0,-1,1616,1009,0,0
399,15,0,0,0,0,0,0,0,0,0,-1,1623,1009,0,0
406,15,0,0,0,0,0,0,0,0,0,-1,1630,1009,0,0
413,15,0,0,0,0,0,0,0,0,0,-1,1637,1009,0,0
420,15,0,0,0,0,0,0,0,0,0,-1,1644,1009,0,0
427,15,0,0,0,0,0,0,0,0,0,-1,1651,1009,0,0
434,15,0,0,0,0,0,0,0,0,0,-1,1658,1009,0,0
441,15,0,0,0,0,0,0,0,0,0,-1,1665,1009,0,0
448,15,0,0,0,0,0,0,0,0,0,-1,1672,1009,0,0
455,15,0,0,0,0,0,0,0,0,0,-1,1679,1009,0,0
462,15,0,0,0,0,0,0,0,0,0,-1,1686,1009,0,0
469,15,0,0,0,0,0,0,0,0,0,-1,1693,1009,0,0
476,15,0,0,0,0,0,0,0,0,0,-1,1700,1009,0,0
483,15,0,0,0,0,0,0,0,0,0,-1,1707,1009,0,0
490,15,0,0,0,0,0,0,0,0,0,-1,1714,1009,0,0
497,15,0,0,0,0,0,0,0,0,0,-1,1721,1009,0,0
504,15,0,0,0,0,0,0,0,0,0,-1,1728,1009,0,0
511,15,0,0,0,0,0,0,0,0,0,-1,1735,1009,0,0
518,15,0,0,0,0,0,0,0,0,0,-1,1742,1009,0,0
525,15,0,0,0,0,0,0,0,0,0,-1,1749,1009,0,0
532,15,0,0,0,0,0,0,0,0,0,-1,1756,1009,0,0
539,15,0,0,0,0,0,0,0,0,0,-1,1763,1009,0,0
546,15,0,0,0,0,0,0,0,0,0,-1,1770,1009,0,0
553,15,0,0,0,0,0,0,0,0,0,-1,1777,1009,0,0
560,15,0,0,0,0,0,0,0,0,0,-1,1784,1009,0,0
567,15,0,0,0,0,0,0,0,0,0,-1,1791,1009,0,0
574,15,0,0,0,0,0,0,0,0,0,-1,1798,1009,0,0
581,15,0,0,0,0,0,0,0,0,0,-1,1805,1009,0,0
588,15,0,0,0,0,0,0,0,0,0,-1,1812,1009,0,0
595,15,0,0,0,0,0,0,0,0,0,-1,1819,1009,0,0
602,15,0,0,0,0,0,0,0,0,0,-1,1826,1009,0,0
609,15,0,0,0,0,0,0,0,0,0,-1,1833,1009,0,0
616,15,0,0,0,0,0,0,0,0,0,-1,1840,1009,0,0
623,15,0,0,0,0,0,0,0,0,0,-1,1847,1009,0,0
630,15,0,0,0,0,0,0,0,0,0,-1,1854,1009,0,0
637,15,0,0,0,0,0,0,0,0,0,-1,1861,1009,0,0
644,15,79.9884,1.95038,0.00396472,0.00062972,-0.000760153,0.00412981,0.00046463,-0.213859,0.00261214,0.0420091,1868,1009,79.9884,-1.95036
651,15,79.9742,2.00128,0.00250317,0.00165271,-0.00106168,0.00322161,0.000934266,-0.594917,0.0019139,0.0403284,1875,1009,79.9743,-2.00129
658,15,79.9873,2.10822,0.00161658,0.00222738,-0.00108607,0.00305018,0.000793789,-0.922457,0.00182726,0.0375404,1882,1009,79.9873,-2.10821
665,15,80.038,2.17078,0.00101725,0.00256633,-0.000873074,0.00295891,0.000624671,-1.14823,0.00180087,0.0375524,1889,1009,80.0379,-2.1708
672,15,80.0632,2.17468,0.000531748,0.00278273,-0.000510433,0.00289306,0.000421411,-1.35791,0.00180471,0.0383052,1896,1009,80.0632,-2.1747
679,15,80.1099,2.21704,0.00020481,0.00276972,-1.53884e-05,0.00276981,0.000204718,-1.5648,0.00178223,0.0387734,1903,1009,80.1099,-2.21706
686,15,80.1559,2.26678,-0.000127458,0.00228384,0.000489674,0.00237948,-0.000223105,1.3779,0.00166568,0.0409756,1910,1009,80.1559,-2.26681
693,15,80.0405,2.16608,-0.000382427,0.00158296,0.000878504,0.00191839,-0.00071786,1.20606,0.00157377,0.0396507,1917,1009,80.0405,-2.16609
700,15,80.0624,2.17053,-0.000649603,0.00106452,0.00106202,0.00157217,-0.00115725,1.1249,0.00158189,0.0320667,1924,1009,80.0624,-2.17052
707,15,80.0696,2.23499,-0.00130821,0.00120253,0.00110357,0.00161863,-0.00172431,1.21023,0.00193037,0.0270326,1931,1009,80.0695,-2.23501
714,15,80.0461,2.32941,-0.00248025,0.00201744,0.000913418,0.00219587,-0.00265867,1.37789,0.00280701,0.0320925,1938,1009,80.0462,-2.32942
721,15,79.9457,2.41028,0,0,0,0,0,0,0,-1,1945,1009,79.9457,-2.41028
728,15,80.3876,7.25061,0,0,0,0,0,0,0,-1,1952,1009,80.3876,-7.25064
735,15,80.2695,7.44287,-0.00719969,0.00694474,0.000311419,0.0069516,-0.00720654,1.54879,0.00817465,0.0235259,1959,1009,80.2695,-7.44289
742,15,80.2894,7.70007,-0.00868894,0.00916486,1.47817e-05,0.00916487,-0.00868895,1.56997,0.0103091,0.0493879,1966,1009,80.2894,-7.70005
749,15,80.2939,7.76312,-0.0104632,0.0119682,-0.000582545,0.0119834,-0.0104783,-1.54485,0.012978,0.0307486,1973,1009,80.2939,-7.76315
756,15,80.2673,7.67303,-0.0125015,0.0154231,-0.00121528,0.0154759,-0.0125543,-1.52739,0.0162125,0.0209414,1980,1009,80.2673,-7.67305
763,15,80.1533,7.84253,-0.0145186,0.0202172,-0.00189113,0.0203199,-0.0146212,-1.51657,0.0202625,0.015437,1987,1009,80.1534,-7.84255
770,15,79.9575,7.85077,-0.0160488,0.0263644,-0.00252221,0.0265139,-0.0161983,-1.51161,0.0248985,0.0227422,1994,1009,79.9575,-7.8508
777,15,79.469,7.93085,-0.0167299,0.0326231,-0.00309417,0.0328164,-0.0169232,-1.50843,0.0292017,0.0485024,2001,1009,79.469,-7.93082
784,15,79.0259,8.04529,0,0,0,0,0,0,0,-1,2008,1009,79.0259,-8.04531
791,15,79.1882,8.68768,0,0,0,0,0,0,0,-1,2015,1009,79.1881,-8.68768
798,15,77.2703,7.10712,0,0,0,0,0,0,0,-1,2022,1009,77.2702,-7.10714
805,15,76.927,7.07764,0,0,0,0,0,0,0,-1,2029,1009,76.9269,-7.07764
812,15,75.9182,3.65948,0,0,0,0,0,0,0,-1,2036,1009,75.9181,-3.65946
-700,8,0,0,0,0,0,0,0,0,0,-1,524,1016,0,0
-693,8,-66.6544,2.54285,0,0,0,0,0,0,0,-1,531,1016,-66.6544,-2.54286
-686,8,-67.1274,3.7984,0,0,0,0,0,0,0,-1,538,1016,-67.1274,-3.79839
-679,8,-65.5879,4.27496,0,0,0,0,0,0,0,-1,545,1016,-65.5879,-4.27495
-672,8,-64.881,3.26599,0,0,0,0,0,0,0,-1,552,1016,-64.8811,-3.26598
-665,8,-63.8641,5.05444,0,0,0,0,0,0,0,-1,559,1016,-63.8641,-5.05442
-658,8,-63.5308,5.51825,0,0,0,0,0,0,0,-1,566,1016,-63.5308,-5.51823
-651,8,-62.4905,6.31323,0,0,0,0,0,0,0,-1,573,1016,-62.4905,-6.31323
-644,8,-64.2061,6.67896,0,0,0,0,0,0,0,-1,580,1016,-64.2061,-6.67895
-637,8,-64.2483,6.87909,-0.0138178,0.0308557,-6.47954e-05,0.0308558,-0.0138179,-1.56935,0.0264103,0.0474995,587,1016,-64.2483,-6.87909
-630,8,-64.5208,7.04181,-0.0111787,0.0218354,0.000425592,0.0218408,-0.0111842,1.55791,0.0193951,0.02892,594,1016,-64.5208,-7.04178
-623,8,-64.4956,7.05719,-0.00917228,0.014777,0.000785867,0.0148027,-0.00919804,1.53803,0.0139822,0.0180561,601,1016,-64.4956,-7.05717
-616,8,-64.5444,6.97968,-0.00758183,0.00964439,0.00112602,0.00971768,-0.00765512,1.5058,0.0100537,0.0206516,608,1016,-64.5444,-6.97965
-609,8,-64.67,6.87036,-0.00616664,0.00604727,0.00123551,0.00617099,-0.00629037,1.47099,0.00719468,0.0250308,615,1016,-64.6701,-6.87037
-602,8,-64.6187,6.90833,-0.0050099,0.00355292,0.00123921,0.00372865,-0.00518563,1.42993,0.00516953,0.0284988,622,1016,-64.6187,-6.90831
-595,8,-64.7095,6.79547,0,0,0,0,0,0,0,-1,629,1016,-64.7095,-6.79549
-588,8,-63.225,0.309448,0,0,0,0,0,0,0,-1,636,1016,-63.225,-0.309436
-581,8,-63.3314,0.482727,-0.00260422,-0.000824488,0.000182052,-0.000806057,-0.00262265,1.4699,0.0015512,0.030885,643,1016,-63.3314,-0.482744
-574,8,-63.3761,0.250183,-0.00222989,-0.0015833,-0.000279441,-0.00147927,-0.00233392,-1.21441,0.00136348,0.0354551,650,1016,-63.3761,-0.250211
-567,8,-63.3108,0.255554,-0.00202688,-0.00172896,-0.000761218,-0.00110226,-0.00265358,-0.882021,0.00153934,0.0382323,657,1016,-63.3108,-0.255548
-560,8,-63.2802,0.518005,-0.00188683,-0.00148352,-0.00140724,-0.000263565,-0.00310679,-0.856563,0.00198917,0.0399958,664,1016,-63.2802,-0.518017
-553,8,-63.2007,0.601868,-0.00197629,-0.00114354,-0.00229526,0.000772812,-0.00389264,-0.875126,0.00288738,0.0441103,671,1016,-63.2008,-0.601852
-546,8,-63.2951,0.524414,-0.00236021,-0.00126933,-0.00339231,0.00162111,-0.00525065,-0.865109,0.00414778,0.0425844,678,1016,-63.2951,-0.524437
-539,8,-63.4058,0.507996,-0.00352756,-0.00216513,-0.00443689,0.00164254,-0.00733523,-0.86157,0.00551974,0.0428119,685,1016,-63.4058,-0.508021
-532,8,-63.3555,0.476318,-0.00459236,-0.00306655,-0.00506674,0.0012944,-0.00895331,-0.860122,0.00644382,0.041542,692,1016,-63.3554,-0.476319
-525,8,0,0,0,0,0,0,0,0,0,-1,699,1016,0,0
-518,8,0,0,0,0,0,0,0,0,0,-1,706,1016,0,0
-511,8,0,0,0,0,0,0,0,0,0,-1,713,1016,0,0
-504,8,0,0,0,0,0,0,0,0,0,-1,720,1016,0,0
-497,8,0,0,0,0,0,0,0,0,0,-1,727,1016,0,0
-490,8,0,0,0,0,0,0,0,0,0,-1,734,1016,0,0
-483,8,0,0,0,0,0,0,0,0,0,-1,741,1016,0,0
-476,8,0,0,0,0,0,0,0,0,0,-1,748,1016,0,0
-469,8,0,0,0,0,0,0,0,0,0,-1,755,1016,0,0
-462,8,0,0,0,0,0,0,0,0,0,-1,762,1016,0,0
-455,8,0,0,0,0,0,0,0,0,0,-1,769,1016,0,0
-448,8,0,0,0,0,0,0,0,0,0,-1,776,1016,0,0
-441,8,0,0,0,0,0,0,0,0,0,-1,783,1016,0,0
-434,8,0,0,0,0,0,0,0,0,0,-1,790,1016,0,0
-427,8,0,0,0,0,0,0,0,0,0,-1,797,1016,0,0
-420,8,0,0,0,0,0,0,0,0,0,-1,804,1016,0,0
-413,8,0,0,0,0,0,0,0,0,0,-1,811,1016,0,0
-406,8,0,0,0,0,0,0,0,0,0,-1,818,1016,0,0
-399,8,0,0,0,0,0,0,0,0,0,-1,825,1016,0,0
-392,8,0,0,0,0,0,0,0,0,0,-1,832,1016,0,0
-385,8,0,0,0,0,0,0,0,0,0,-1,839,1016,0,0
-378,8,0,0,0,0,0,0,0,0,0,-1,846,1016,0,0
-371,8,0,0,0,0,0,0,0,0,0,-1,853,1016,0,0
-364,8,0,0,0,0,0,0,0,0,0,-1,860,1016,0,0
-357,8,0,0,0,0,0,0,0,0,0,-1,867,1016,0,0
-350,8,0,0,0,0,0,0,0,0,0,-1,874,1016,0,0
-343,8,0,0,0,0,0,0,0,0,0,-1,881,1016,0,0
-336,8,0,0,0,0,0,0,0,0,0,-1,888,1016,0,0
-329,8,0,0,0,0,0,0,0,0,0,-1,895,1016,0,0
-322,8,0,0,0,0,0,0,0,0,0,-1,902,1016,0,0
-315,8,0,0,0,0,0,0,0,0,0,-1,909,1016,0,0
-308,8,0,0,0,0,0,0,0,0,0,-1,916,1016,0,0
-301,8,0,0,0,0,0,0,0,0,0,-1,923,1016,0,0
-294,8,0,0,0,0,0,0,0,0,0,-1,930,1016,0,0
-287,8,0,0,0,0,0,0,0,0,0,-1,937,1016,0,0
-280,8,0,0,0,0,0,0,0,0,0,-1,944,1016,0,0
-273,8,0,0,0,0,0,0,0,0,0,-1,951,1016,0,0
-266,8,0,0,0,0,0,0,0,0,0,-1,958,1016,0,0
-259,8,0,0,0,0,0,0,0,0,0,-1,965,1016,0,0
-252,8,0,0,0,0,0,0,0,0,0,-1,972,1016,0,0
-245,8,0,0,0,0,0,0,0,0,0,-1,979,1016,0,0
-238,8,0,0,0,0,0,0,0,0,0,-1,986,1016,0,0
-231,8,0,0,0,0,0,0,0,0,0,-1,993,1016,0,0
-224,8,0,0,0,0,0,0,0,0,0,-1,1000,1016,0,0
-217,8,0,0,0,0,0,0,0,0,0,-1,1007,1016,0,0
-210,8,0,0,0,0,0,0,0,0,0,-1,1014,1016,0,0
-203,8,0,0,0,0,0,0,0,0,0,-1,1021,1016,0,0
-196,8,0,0,0,0,0,0,0,0,0,-1,1028,1016,0,0
-189,8,0,0,0,0,0,0,0,0,0,-1,1035,1016,0,0
-182,8,0,0,0,0,0,0,0,0,0,-1,1042,1016,0,0
-175,8,0,0,0,0,0,0,0,0,0,-1,1049,1016,0,0
-168,8,0,0,0,0,0,0,0,0,0,-1,1056,1016,0,0
-161,8,0,0,0,0,0,0,0,0,0,-1,1063,1016,0,0
-154,8,0,0,0,0,0,0,0,0,0,-1,1070,1016,0,0
-147,8,0,0,0,0,0,0,0,0,0,-1,1077,1016,0,0
-140,8,0,0,0,0,0,0,0,0,0,-1,1084,1016,0,0
-133,8,0,0,0,0,0,0,0,0,0,-1,1091,1016,0,0
-126,8,0,0,0,0,0,0,0,0,0,-1,1098,1016,0,0
-119,8,0,0,0,0,0,0,0,0,0,-1,1105,1016,0,0
-112,8,0,0,0,0,0,0,0,0,0,-1,1112,1016,0,0
-105,8,0,0,0,0,0,0,0,0,0,-1,1119,1016,0,0
-98,8,0,0,0,0,0,0,0,0,0,-1,1126,1016,0,0
-91,8,0,0,0,0,0,0,0,0,0,-1,1133,1016,0,0
-84,8,0,0,0,0,0,0,0,0,0,-1,1140,1016,0,0
-77,8,0,0,0,0,0,0,0,0,0,-1,1147,1016,0,0
-70,8,0,0,0,0,0,0,0,0,0,-1,1154,1016,0,0
-63,8,0,0,0,0,0,0,0,0,0,-1,1161,1016,0,0
-56,8,0,0,0,0,0,0,0,0,0,-1,1168,1016,0,0
-49,8,0,0,0,0,0,0,0,0,0,-1,1175,1016,0,0
-42,8,0,0,0,0,0,0,0,0,0,-1,1182,1016,0,0
-35,8,0,0,0,0,0,0,0,0,0,-1,1189,1016,0,0
-28,8,0,0,0,0,0,0,0,0,0,-1,1196,1016,0,0
-21,8,0,0,0,0,0,0,0,0,0,-1,1203,1016,0,0
-14,8,0,0,0,0,0,0,0,0,0,-1,1210,1016,0,0
-7,8,0,0,0,0,0,0,0,0,0,-1,1217,1016,0,0
0,8,0,0,0,0,0,0,0,0,0,-1,1224,1016,0,0
7,8,0,0,0,0,0,0,0,0,0,-1,1231,1016,0,0
14,8,0,0,0,0,0,0,0,0,0,-1,1238,1016,0,0
21,8,0,0,0,0,0,0,0,0,0,-1,1245,1016,0,0
28,8,0,0,0,0,0,0,0,0,0,-1,1252,1016,0,0
35,8,0,0,0,0,0,0,0,0,0,-1,1259,1016,0,0
42,8,0,0,0,0,0,0,0,0,0,-1,1266,1016,0,0
49,8,0,0,0,0,0,0,0,0,0,-1,1273,1016,0,0
56,8,0,0,0,0,0,0,0,0,0,-1,1280,1016,0,0
63,8,0,0,0,0,0,0,0,0,0,-1,1287,1016,0,0
70,8,0,0,0,0,0,0,0,0,0,-1,1294,1016,0,0
77,8,0,0,0,0,0,0,0,0,0,-1,1301,1016,0,0
84,8,0,0,0,0,0,0,0,0,0,-1,1308,1016,0,0
91,8,0,0,0,0,0,0,0,0,0,-1,1315,1016,0,0
98,8,0,0,0,0,0,0,0,0,0,-1,1322,1016,0,0
105,8,0,0,0,0,0,0,0,0,0,-1,1329,1016,0,0
112,8,0,0,0,0,0,0,0,0,0,-1,1336,1016,0,0
119,8,0,0,0,0,0,0,0,0,0,-1,1343,1016,0,0
126,8,0,0,0,0,0,0,0,0,0,-1,1350,1016,0,0
133,8,0,0,0,0,0,0,0,0,0,-1,1357,1016,0,0
140,8,0,0,0,0,0,0,0,0,0,-1,1364,1016,0,0
147,8,0,0,0,0,0,0,0,0,0,-1,1371,1016,0,0
154,8,0,0,0,0,0,0,0,0,0,-1,1378,1016,0,0
161,8,0,0,0,0,0,0,0,0,0,-1,1385,1016,0,0
168,8,0,0,0,0,0,0,0,0,0,-1,1392,1016,0,0
175,8,0,0,0,0,0,0,0,0,0,-1,1399,1016,0,0
182,8,0,0,0,0,0,0,0,0,0,-1,1406,1016,0,0
189,8,0,0,0,0,0,0,0,0,0,-1,1413,1016,0,0
196,8,0,0,0,0,0,0,0,0,0,-1,1420,1016,0,0
203,8,0,0,0,0,0,0,0,0,0,-1,1427,1016,0,0
210,8,0,0,0,0,0,0,0,0,0,-1,1434,1016,0,0
217,8,0,0,0,0,0,0,0,0,0,-1,1441,1016,0,0
224,8,0,0,0,0,0,0,0,0,0,-1,1448,1016,0,0
231,8,0,0,0,0,0,0,0,0,0,-1,1455,1016,0,0
238,8,0,0,0,0,0,0,0,0,0,-1,1462,1016,0,0
245,8,0,0,0,0,0,0,0,0,0,-1,1469,1016,0,0
252,8,0,0,0,0,0,0,0,0,0,-1,1476,1016,0,0
259,8,0,0,0,0,0,0,0,0,0,-1,1483,1016,0,0
266,8,0,0,0,0,0,0,0,0,0,-1,1490,1016,0,0
273,8,0,0,0,0,0,0,0,0,0,-1,1497,1016,0,0
280,8,0,0,0,0,0,0,0,0,0,-1,1504,1016,0,0
287,8,0,0,0,0,0,0,0,0,0,-1,1511,1016,0,0
294,8,0,0,0,0,0,0,0,0,0,-1,1518,1016,0,0
301,8,0,0,0,0,0,0,0,0,0,-1,1525,1016,0,0
308,8,0,0,0,0,0,0,0,0,0,-1,1532,1016,0,0
315,8,0,0,0,0,0,0,0,0,0,-1,1539,1016,0,0
322,8,0,0,0,0,0,0,0,0,0,-1,1546,1016,0,0
329,8,0,0,0,0,0,0,0,0,0,-1,1553,1016,0,0
336,8,0,0,0,0,0,0,0,0,0,-1,1560,1016,0,0
343,8,0,0,0,0,0,0,0,0,0,-1,1567,1016,0,0
350,8,0,0,0,0,0,0,0,0,0,-1,1574,1016,0,0
357,8,0,0,0,0,0,0,0,0,0,-1,1581,1016,0,0
364,8,0,0,0,0,0,0,0,0,0,-1,1588,1016,0,0
371,8,0,0,0,0,0,0,0,0,0,-1,1595,1016,0,0
378,8,0,0,0,0,0,0,0,0,0,-1,1602,1016,0,0
385,8,0,0,0,0,0,0,0,0,0,-1,1609,1016,0,0
392,8,0,0,0,0,0,0,0,0,0,-1,1616,1016,0,0
399,8,0,0,0,0,0,0,0,0,0,-1,1623,1016,0,0
406,8,0,0,0,0,0,0,0,0,0,-1,1630,1016,0,0
413,8,0,0,0,0,0,0,0,0,0,-1,1637,1016,0,0
420,8,0,0,0,0,0,0,0,0,0,-1,1644,1016,0,0
427,8,0,0,0,0,0,0,0,0,0,-1,1651,1016,0,0
434,8,0,0,0,0,0,0,0,0,0,-1,1658,1016,0,0
441,8,0,0,0,0,0,0,0,0,0,-1,1665,1016,0,0
448,8,0,0,0,0,0,0,0,0,0,-1,1672,1016,0,0
455,8,0,0,0,0,0,0,0,0,0,-1,1679,1016,0,0
462,8,0,0,0,0,0,0,0,0,0,-1,1686,1016,0,0
469,8,0,0,0,0,0,0,0,0,0,-1,1693,1016,0,0
476,8,0,0,0,0,0,0,0,0,0,-1,1700,1016,0,0
483,8,0,0,0,0,0,0,0,0,0,-1,1707,1016,0,0
490,8,0,0,0,0,0,0,0,0,0,-1,1714,1016,0,0
497,8,0,0,0,0,0,0,0,0,0,-1,1721,1016,0,0
504,8,0,0,0,0,0,0,0,0,0,-1,1728,1016,0,0
511,8,0,0,0,0,0,0,0,0,0,-1,1735,1016,0,0
518,8,0,0,0,0,0,0,0,0,0,-1,1742,1016,0,0
525,8,0,0,0,0,0,0,0,0,0,-1,1749,1016,0,0
532,8,0,0,0,0,0,0,0,0,0,-1,1756,1016,0,0
539,8,0,0,0,0,0,0,0,0,0,-1,1763,1016,0,0
546,8,0,0,0,0,0,0,0,0,0,-1,1770,1016,0,0
553,8,0,0,0,0,0,0,0,0,0,-1,1777,1016,0,0
560,8,0,0,0,0,0,0,0,0,0,-1,1784,1016,0,0
567,8,0,0,0,0,0,0,0,0,0,-1,1791,1016,0,0
574,8,0,0,0,0,0,0,0,0,0,-1,1798,1016,0,0
581,8,0,0,0,0,0,0,0,0,0,-1,1805,1016,0,0
588,8,0,0,0,0,0,0,0,0,0,-1,1812,1016,0,0
595,8,0,0,0,0,0,0,0,0,0,-1,1819,1016,0,0
602,8,0,0,0,0,0,0,0,0,0,-1,1826,1016,0,0
609,8,0,0,0,0,0,0,0,0,0,-1,1833,1016,0,0
616,8,0,0,0,0,0,0,0,0,0,-1,1840,1016,0,0
623,8,0,0,0,0,0,0,0,0,0,-1,1847,1016,0,0
630,8,0,0,0,0,0,0,0,0,0,-1,1854,1016,0,0
637,8,0,0,0,0,0,0,0,0,0,-1,1861,1016,0,0
644,8,79.9124,2.12598,0.00255356,0.00113327,-0.00180227,0.00378055,-9.37108e-05,-0.597724,0.00255217,0.0444564,1868,1016,79.9124,-2.12595
651,8,79.9698,2.08282,0.00145421,0.00178299,-0.00184396,0.00346987,-0.000232666,-0.829856,0.00239457,0.0395119,1875,1016,79.9699,-2.08283
658,8,80.0411,2.10724,0.000835373,0.00212706,-0.00164852,0.00325174,-0.000289306,-0.972094,0.00227041,0.0378157,1882,1016,80.0412,-2.10725
665,8,80.1046,2.17786,0.000418793,0.00230331,-0.00123468,0.00291421,-0.000192103,-1.11133,0.0020099,0.0404425,1889,1016,80.1046,-2.17786
672,8,80.0834,2.16998,8.12786e-05,0.00242043,-0.000683114,0.00260531,-0.000103602,-1.30648,0.00177242,0.0398916,1896,1016,80.0833,-2.17
679,8,80.1443,1.89392,-0.000115812,0.00239775,-2.87543e-05,0.00239807,-0.000116141,-1.55936,0.0016388,0.0387713,1903,1016,80.1443,-1.89392
686,8,80.1871,1.89941,-0.000417848,0.00195582,0.00059949,0.00209864,-0.000560662,1.33693,0.00161868,0.0418457,1910,1016,80.1871,-1.89944
693,8,80.0415,2.01147,-0.000642501,0.00132267,0.00108133,0.00180117,-0.001121,1.15419,0.00170228,0.0408073,1917,1016,80.0415,-2.01147
700,8,80.0978,2.11755,-0.000835819,0.000846302,0.00134348,0.00159027,-0.00157979,1.06507,0.00183024,0.0305108,1924,1016,80.0978,-2.11754
707,8,80.0844,2.16687,-0.00148785,0.00101313,0.00145619,0.00168207,-0.0021568,1.14017,0.00222201,0.0236449,1931,1016,80.0843,-2.16687
714,8,80.0598,2.16638,-0.00267135,0.00187951,0.00131487,0.0022321,-0.00302393,1.30881,0.00304603,0.0264403,1938,1016,80.0598,-2.16639
721,8,80.0474,2.24774,0,0,0,0,0,0,0,-1,1945,1016,80.0474,-2.24774
728,8,52.1681,5.36774,0,0,0,0,0,0,0,-1,1952,1016,52.168,-5.36773
735,8,80.3339,7.58441,0,0,0,0,0,0,0,-1,1959,1016,80.3338,-7.5844
742,8,80.2533,7.85632,0,0,0,0,0,0,0,-1,1966,1016,80.2533,-7.85634
749,8,80.5146,7.82489,0,0,0,0,0,0,0,-1,1973,1016,80.5146,-7.82488
756,8,80.4001,7.6933,0,0,0,0,0,0,0,-1,1980,1016,80.4001,-7.69332
763,8,80.2988,7.62152,-0.0144902,0.019362,-0.00141091,0.0194207,-0.0145489,-1.52921,0.0196794,0.0171647,1987,1016,80.2988,-7.6215
770,8,80.1511,7.56787,-0.015843,0.0248993,-0.00216558,0.0250141,-0.0159578,-1.51784,0.023847,0.0230176,1994,1016,80.1512,-7.56787
777,8,79.6951,7.61578,-0.0162555,0.0305331,-0.00294941,0.0307182,-0.0164407,-1.50809,0.02764,0.0376145,2001,1016,79.695,-7.6158
784,8,79.2092,7.6684,0,0,0,0,0,0,0,-1,2008,1016,79.2091,-7.66837
791,8,75.5461,6.04517,0,0,0,0,0,0,0,-1,2015,1016,75.5462,-6.04517
798,8,76.8606,6.46661,0,0,0,0,0,0,0,-1,2022,1016,76.8606,-6.46663
805,8,75.1563,5.92737,0,0,0,0,0,0,0,-1,2029,1016,75.1562,-5.92735
812,8,75.3179,5.32159,0,0,0,0,0,0,0,-1,2036,1016,75.3178,-5.3216
-700,1,0,0,0,0,0,0,0,0,0,-1,524,1023,0,0
-693,1,-66.0904,2.64465,0,0,0,0,0,0,0,-1,531,1023,-66.0904,-2.64464
-686,1,-66.371,3.59363,0,0,0,0,0,0,0,-1,538,1023,-66.371,-3.59364
-679,1,-65.6069,3.77783,0,0,0,0,0,0,0,-1,545,1023,-65.6069,-3.77786
-672,1,-64.6585,3.75214,0,0,0,0,0,0,0,-1,552,1023,-64.6585,-3.75211
-665,1,-63.8024,3.88324,0,0,0,0,0,0,0,-1,559,1023,-63.8024,-3.88326
-658,1,-64.6025,6.51764,0,0,0,0,0,0,0,-1,566,1023,-64.6025,-6.51763
-651,1,-63.4994,6.59363,0,0,0,0,0,0,0,-1,573,1023,-63.4994,-6.59364
-644,1,-64.0118,6.88617,0,0,0,0,0,0,0,-1,580,1023,-64.0118,-6.88616
-637,1,-64.2383,6.81067,-0.0130793,0.0301631,-0.000991215,0.0301858,-0.013102,-1.54789,0.0256328,0.0454881,587,1023,-64.2383,-6.81064
-630,1,-64.6059,6.8421,-0.0105254,0.0212034,-0.000430584,0.0212092,-0.0105312,-1.55723,0.0186678,0.0395119,594,1023,-64.6059,-6.84209
-623,1,-64.4554,6.96997,-0.00858991,0.0142442,-1.00146e-05,0.0142443,-0.00858991,-1.57036,0.0133174,0.0201011,601,1023,-64.4554,-6.96996
-616,1,-64.6337,6.83942,-0.00705538,0.0091703,0.000374688,0.00917895,-0.00706403,1.54772,0.00940435,0.0269734,608,1023,-64.6336,-6.83941
-609,1,-64.6793,6.88074,-0.00566023,0.00560575,0.000495336,0.00562749,-0.00568197,1.52694,0.00652954,0.0299573,615,1023,-64.6793,-6.88075
-602,1,-64.4384,7.05103,-0.00454439,0.00312178,0.000582161,0.00316574,-0.00458835,1.49543,0.00450187,0.0189564,622,1023,-64.4384,-7.05104
-595,1,-64.5465,7.04651,0,0,0,0,0,0,0,-1,629,1023,-64.5465,-7.04648
-588,1,-63.227,0.130981,0,0,0,0,0,0,0,-1,636,1023,-63.227,-0.130989
-581,1,-63.3378,0.384155,-0.00231707,-0.00113631,-0.000153448,-0.0011167,-0.00233669,-1.44365,0.00134953,0.0285282,643,1023,-63.3378,-0.384171
-574,1,-63.3809,0.627625,-0.00197361,-0.00182915,-0.000487308,-0.00140875,-0.00239401,-0.858973,0.00138937,0.0354611,650,1023,-63.3809,-0.627612
-567,1,-63.2546,0.654419,-0.00183062,-0.00191125,-0.000817178,-0.00105276,-0.0026891,-0.760751,0.00156469,0.040939,657,1023,-63.2546,-0.654396
-560,1,-63.0963,0.4505,-0.00176447,-0.00159837,-0.00127106,-0.000407657,-0.00295519,-0.818022,0.00184928,0.0402166,664,1023,-63.0963,-0.45052
-553,1,-63.0828,0.416443,-0.00193858,-0.00119509,-0.00192154,0.00039034,-0.00352401,-0.880948,0.00248967,0.0407284,671,1023,-63.0828,-0.416446
-546,1,-63.2391,0.485962,-0.00239025,-0.00127919,-0.00274339,0.000964358,-0.00463379,-0.885296,0.00345579,0.0438712,678,1023,-63.2392,-0.485978
-539,1,-63.5089,0.468506,-0.0036068,-0.00213298,-0.00351407,0.000720615,-0.0064604,-0.888752,0.00456613,0.0436548,685,1023,-63.5089,-0.468533
-532,1,-63.3922,0.210876,-0.00482548,-0.00307376,-0.00392913,7.59466e-05,-0.00797519,-0.895062,0.00534229,0.0405935,692,1023,-63.3922,-0.210874
-525,1,0,0,0,0,0,0,0,0,0,-1,699,1023,0,0
-518,1,0,0,0,0,0,0,0,0,0,-1,706,1023,0,0
-511,1,0,0,0,0,0,0,0,0,0,-1,713,1023,0,0
-504,1,0,0,0,0,0,0,0,0,0,-1,720,1023,0,0
-497,1,0,0,0,0,0,0,0,0,0,-1,727,1023,0,0
-490,1,0,0,0,0,0,0,0,0,0,-1,734,1023,0,0
-483,1,0,0,0,0,0,0,0,0,0,-1,741,1023,0,0
-476,1,0,0,0,0,0,0,0,0,0,-1,748,1023,0,0
-469,1,0,0,0,0,0,0,0,0,0,-1,755,1023,0,0
-462,1,0,0,0,0,0,0,0,0,0,-1,762,1023,0,0
-455,1,0,0,0,0,0,0,0,0,0,-1,769,1023,0,0
-448,1,0,0,0,0,0,0,0,0,0,-1,776,1023,0,0
-441,1,0,0,0,0,0,0,0,0,0,-1,783,1023,0,0
-434,1,0,0,0,0,0,0,0,0,0,-1,790,1023,0,0
-427,1,0,0,0,0,0,0,0,0,0,-1,797,1023,0,0
-420,1,0,0,0,0,0,0,0,0,0,-1,804,1023,0,0
-413,1,0,0,0,0,0,0,0,0,0,-1,811,1023,0,0
-406,1,0,0,0,0,0,0,0,0,0,-1,818,1023,0,0
-399,1,0,0,0,0,0,0,0,0,0,-1,825,1023,0,0
-392,1,0,0,0,0,0,0,0,0,0,-1,832,1023,0,0
-385,1,0,0,0,0,0,0,0,0,0,-1,839,1023,0,0
-378,1,0,0,0,0,0,0,0,0,0,-1,846,1023,0,0
-371,1,0,0,0,0,0,0,0,0,0,-1,853,1023,0,0
-364,1,0,0,0,0,0,0,0,0,0,-1,860,1023,0,0
-357,1,0,0,0,0,0,0,0,0,0,-1,867,1023,0,0
-350,1,0,0,0,0,0,0,0,0,0,-1,874,1023,0,0
-343,1,0,0,0,0,0,0,0,0,0,-1,881,1023,0,0
-336,1,0,0,0,0,0,0,0,0,0,-1,888,1023,0,0
-329,1,0,0,0,0,0,0,0,0,0,-1,895,1023,0,0
-322,1,0,0,0,0,0,0,0,0,0,-1,902,1023,0,0
-315,1,0,0,0,0,0,0,0,0,0,-1,909,1023,0,0
-308,1,0,0,0,0,0,0,0,0,0,-1,916,1023,0,0
-301,1,0,0,0,0,0,0,0,0,0,-1,923,1023,0,0
-294,1,0,0,0,0,0,0,0,0,0,-1,930,1023,0,0
-287,1,0,0,0,0,0,0,0,0,0,-1,937,1023,0,0
-280,1,0,0,0,0,0,0,0,0,0,-1,944,1023,0,0
-273,1,0,0,0,0,0,0,0,0,0,-1,951,1023,0,0
-266,1,0,0,0,0,0,0,0,0,0,-1,958,1023,0,0
-259,1,0,0,0,0,0,0,0,0,0,-1,965,1023,0,0
-252,1,0,0,0,0,0,0,0,0,0,-1,972,1023,0,0
-245,1,0,0,0,0,0,0,0,0,0,-1,979,1023,0,0
-238,1,0,0,0,0,0,0,0,0,0,-1,986,1023,0,0
-231,1,0,0,0,0,0,0,0,0,0,-1,993,1023,0,0
-224,1,0,0,0,0,0,0,0,0,0,-1,1000,1023,0,0
-217,1,0,0,0,0,0,0,0,0,0,-1,1007,1023,0,0
-210,1,0,0,0,0,0,0,0,0,0,-1,1014,1023,0,0
-203,1,0,0,0,0,0,0,0,0,0,-1,1021,1023,0,0
-196,1,0,0,0,0,0,0,0,0,0,-1,1028,1023,0,0
-189,1,0,0,0,0,0,0,0,0,0,-1,1035,1023,0,0
-182,1,0,0,0,0,0,0,0,0,0,-1,1042,1023,0,0
-175,1,0,0,0,0,0,0,0,0,0,-1,1049,1023,0,0
-168,1,0,0,0,0,0,0,0,0,0,-1,1056,1023,0,0
-161,1,0,0,0,0,0,0,0,0,0,-1,1063,1023,0,0
-154,1,0,0,0,0,0,0,0,0,0,-1,1070,1023,0,0
-147,1,0,0,0,0,0,0,0,0,0,-1,1077,1023,0,0
-140,1,0,0,0,0,0,0,0,0,0,-1,1084,1023,0,0
-133,1,0,0,0,0,0,0,0,0,0,-1,1091,1023,0,0
-126,1,0,0,0,0,0,0,0,0,0,-1,1098,1023,0,0
-119,1,0,0,0,0,0,0,0,0,0,-1,1105,1023,0,0
-112,1,0,0,0,0,0,0,0,0,0,-1,1112,1023,0,0
-105,1,0,0,0,0,0,0,0,0,0,-1,1119,1023,0,0
-98,1,0,0,0,0,0,0,0,0,0,-1,1126,1023,0,0
-91,1,0,0,0,0,0,0,0,0,0,-1,1133,1023,0,0
-84,1,0,0,0,0,0,0,0,0,0,-1,1140,1023,0,0
-77,1,0,0,0,0,0,0,0,0,0,-1,1147,1023,0,0
-70,1,0,0,0,0,0,0,0,0,0,-1,1154,1023,0,0
-63,1,0,0,0,0,0,0,0,0,0,-1,1161,1023,0,0
-56,1,0,0,0,0,0,0,0,0,0,-1,1168,1023,0,0
-49,1,0,0,0,0,0,0,0,0,0,-1,1175,1023,0,0
-42,1,0,0,0,0,0,0,0,0,0,-1,1182,1023,0,0
-35,1,0,0,0,0,0,0,0,0,0,-1,1189,1023,0,0
-28,1,0,0,0,0,0,0,0,0,0,-1,1196,1023,0,0
-21,1,0,0,0,0,0,0,0,0,0,-1,1203,1023,0,0
-14,1,0,0,0,0,0,0,0,0,0,-1,1210,1023,0,0
-7,1,0,0,0,0,0,0,0,0,0,-1,1217,1023,0,0
0,1,0,0,0,0,0,0,0,0,0,-1,1224,1023,0,0
7,1,0,0,0,0,0,0,0,0,0,-1,1231,1023,0,0
14,1,0,0,0,0,0,0,0,0,0,-1,1238,1023,0,0
21,1,0,0,0,0,0,0,0,0,0,-1,1245,1023,0,0
28,1,0,0,0,0,0,0,0,0,0,-1,1252,1023,0,0
35,1,0,0,0,0,0,0,0,0,0,-1,1259,1023,0,0
42,1,0,0,0,0,0,0,0,0,0,-1,1266,1023,0,0
49,1,0,0,0,0,0,0,0,0,0,-1,1273,1023,0,0
56,1,0,0,0,0,0,0,0,0,0,-1,1280,1023,0,0
63,1,0,0,0,0,0,0,0,0,0,-1,1287,1023,0,0
70,1,0,0,0,0,0,0,0,0,0,-1,1294,1023,0,0
77,1,0,0,0,0,0,0,0,0,0,-1,1301,1023,0,0
84,1,0,0,0,0,0,0,0,0,0,-1,1308,1023,0,0
91,1,0,0,0,0,0,0,0,0,0,-1,1315,1023,0,0
98,1,0,0,0,0,0,0,0,0,0,-1,1322,1023,0,0
105,1,0,0,0,0,0,0,0,0,0,-1,1329,1023,0,0
112,1,0,0,0,0,0,0,0,0,0,-1,1336,1023,0,0
119,1,0,0,0,0,0,0,0,0,0,-1,1343,1023,0,0
126,1,0,0,0,0,0,0,0,0,0,-1,1350,1023,0,0
133,1,0,0,0,0,0,0,0,0,0,-1,1357,1023,0,0
140,1,0,0,0,0,0,0,0,0,0,-1,1364,1023,0,0
147,1,0,0,0,0,0,0,0,0,0,-1,1371,1023,0,0
154,1,0,0,0,0,0,0,0,0,0,-1,1378,1023,0,0
161,1,0,0,0,0,0,0,0,0,0,-1,1385,1023,0,0
168,1,0,0,0,0,0,0,0,0,0,-1,1392,1023,0,0
175,1,0,0,0,0,0,0,0,0,0,-1,1399,1023,0,0
182,1,0,0,0,0,0,0,0,0,0,-1,1406,1023,0,0
189,1,0,0,0,0,0,0,0,0,0,-1,1413,1023,0,0
196,1,0,0,0,0,0,0,0,0,0,-1,1420,1023,0,0
203,1,0,0,0,0,0,0,0,0,0,-1,1427,1023,0,0
210,1,0,0,0,0,0,0,0,0,0,-1,1434,1023,0,0
217,1,0,0,0,0,0,0,0,0,0,-1,1441,1023,0,0
224,1,0,0,0,0,0,0,0,0,0,-1,1448,1023,0,0
231,1,0,0,0,0,0,0,0,0,0,-1,1455,1023,0,0
238,1,0,0,0,0,0,0,0,0,0,-1,1462,1023,0,0
245,1,0,0,0,0,0,0,0,0,0,-1,1469,1023,0,0
252,1,0,0,0,0,0,0,0,0,0,-1,1476,1023,0,0
259,1,0,0,0,0,0,0,0,0,0,-1,1483,1023,0,0
266,1,0,0,0,0,0,0,0,0,0,-1,1490,1023,0,0
273,1,0,0,0,0,0,0,0,0,0,-1,1497,1023,0,0
280,1,0,0,0,0,0,0,0,0,0,-1,1504,1023,0,0
287,1,0,0,0,0,0,0,0,0,0,-1,1511,1023,0,0
294,1,0,0,0,0,0,0,0,0,0,-1,1518,1023,0,0
301,1,0,0,0,0,0,0,0,0,0,-1,1525,1023,0,0
308,1,0,0,0,0,0,0,0,0,0,-1,1532,1023,0,0
315,1,0,0,0,0,0,0,0,0,0,-1,1539,1023,0,0
322,1,0,0,0,0,0,0,0,0,0,-1,1546,1023,0,0
329,1,0,0,0,0,0,0,0,0,0,-1,1553,1023,0,0
336,1,0,0,0,0,0,0,0,0,0,-1,1560,1023,0,0
343,1,0,0,0,0,0,0,0,0,0,-1,1567,1023,0,0
350,1,0,0,0,0,0,0,0,0,0,-1,1574,1023,0,0
357,1,0,0,0,0,0,0,0,0,0,-1,1581,1023,0,0
364,1,0,0,0,0,0,0,0,0,0,-1,1588,1023,0,0
371,1,0,0,0,0,0,0,0,0,0,-1,1595,1023,0,0
378,1,0,0,0,0,0,0,0,0,0,-1,1602,1023,0,0
385,1,0,0,0,0,0,0,0,0,0,-1,1609,1023,0,0
392,1,0,0,0,0,0,0,0,0,0,-1,1616,1023,0,0
399,1,0,0,0,0,0,0,0,0,0,-1,1623,1023,0,0
406,1,0,0,0,0,0,0,0,0,0,-1,1630,1023,0,0
413,1,0,0,0,0,0,0,0,0,0,-1,1637,1023,0,0
420,1,0,0,0,0,0,0,0,0,0,-1,1644,1023,0,0
427,1,0,0,0,0,0,0,0,0,0,-1,1651,1023,0,0
434,1,0,0,0,0,0,0,0,0,0,-1,1658,1023,0,0
441,1,0,0,0,0,0,0,0,0,0,-1,1665,1023,0,0
448,1,0,0,0,0,0,0,0,0,0,-1,1672,1023,0,0
455,1,0,0,0,0,0,0,0,0,0,-1,1679,1023,0,0
462,1,0,0,0,0,0,0,0,0,0,-1,1686,1023,0,0
469,1,0,0,0,0,0,0,0,0,0,-1,1693,1023,0,0
476,1,0,0,0,0,0,0,0,0,0,-1,1700,1023,0,0
483,1,0,0,0,0,0,0,0,0,0,-1,1707,1023,0,0
490,1,0,0,0,0,0,0,0,0,0,-1,1714,1023,0,0
497,1,0,0,0,0,0,0,0,0,0,-1,1721,1023,0,0
504,1,0,0,0,0,0,0,0,0,0,-1,1728,1023,0,0
511,1,0,0,0,0,0,0,0,0,0,-1,1735,1023,0,0
518,1,0,0,0,0,0,0,0,0,0,-1,1742,1023,0,0
525,1,0,0,0,0,0,0,0,0,0,-1,1749,1023,0,0
532,1,0,0,0,0,0,0,0,0,0,-1,1756,1023,0,0
539,1,0,0,0,0,0,0,0,0,0,-1,1763,1023,0,0
546,1,0,0,0,0,0,0,0,0,0,-1,1770,1023,0,0
553,1,0,0,0,0,0,0,0,0,0,-1,1777,1023,0,0
560,1,0,0,0,0,0,0,0,0,0,-1,1784,1023,0,0
567,1,0,0,0,0,0,0,0,0,0,-1,1791,1023,0,0
574,1,0,0,0,0,0,0,0,0,0,-1,1798,1023,0,0
581,1,0,0,0,0,0,0,0,0,0,-1,1805,1023,0,0
588,1,0,0,0,0,0,0,0,0,0,-1,1812,1023,0,0
595,1,0,0,0,0,0,0,0,0,0,-1,1819,1023,0,0
602,1,0,0,0,0,0,0,0,0,0,-1,1826,1023,0,0
609,1,0,0,0,0,0,0,0,0,0,-1,1833,1023,0,0
616,1,0,0,0,0,0,0,0,0,0,-1,1840,1023,0,0
623,1,0,0,0,0,0,0,0,0,0,-1,1847,1023,0,0
630,1,0,0,0,0,0,0,0,0,0,-1,1854,1023,0,0
637,1,0,0,0,0,0,0,0,0,0,-1,1861,1023,0,0
644,1,0,0,0,0,0,0,0,0,0,-1,1868,1023,0,0
651,1,80.0538,2.51379,0.000846326,0.0012544,-0.00222125,0.00328096,-0.00118024,-0.831198,0.00266916,0.0386121,1875,1023,80.0538,-2.51378
658,1,80.1235,2.24023,0.000351065,0.00146559,-0.00188739,0.00287627,-0.00105961,-0.928948,0.00235168,0.0376938,1882,1023,80.1235,-2.24025
665,1,80.2285,2.09418,2.18086e-05,0.00157294,-0.00136001,0.00236298,-0.000768233,-1.04453,0.00188434,0.0415832,1889,1023,80.2286,-2.09419
672,1,80.2521,2.04419,-0.000249718,0.0016722,-0.000708696,0.00190527,-0.000482782,-1.25307,0.001458,0.0424361,1896,1023,80.2521,-2.04417
679,1,80.2104,1.90601,-0.000415673,0.00169732,3.12429e-05,0.00169778,-0.000416135,1.55601,0.00129308,0.0402509,1903,1023,80.2104,-1.90598
686,1,80.2014,1.89941,-0.000773241,0.00133631,0.00073445,0.00156682,-0.00100375,1.26667,0.00149594,0.0395821,1910,1023,80.2014,-1.89939
693,1,80.1254,2.10425,-0.00104122,0.00080895,0.00127419,0.00145846,-0.00169072,1.09939,0.00181983,0.0378032,1917,1023,80.1253,-2.10424
700,1,80.0946,2.24445,-0.00123253,0.00040716,0.00160096,0.00138599,-0.00221135,1.02204,0.00209507,0.0307195,1924,1023,80.0946,-2.24445
707,1,80.0648,2.18011,-0.00189737,0.000610126,0.0017844,0.0015372,-0.00282444,1.09164,0.00255449,0.0245855,1931,1023,80.0648,-2.18011
714,1,80.0326,2.14575,-0.00307126,0.00150759,0.00169623,0.00206749,-0.00363116,1.25197,0.00333115,0.0247639,1938,1023,80.0325,-2.14574
721,1,80.0918,2.25989,0,0,0,0,0,0,0,-1,1945,1023,80.0918,-2.25987
728,1,52.4639,5.59277,0,0,0,0,0,0,0,-1,1952,1023,52.4639,-5.59276
735,1,53.3617,6.10699,0,0,0,0,0,0,0,-1,1959,1023,53.3617,-6.10698
742,1,52.4393,5.81525,0,0,0,0,0,0,0,-1,1966,1023,52.4393,-5.81527
749,1,80.1804,7.44165,0,0,0,0,0,0,0,-1,1973,1023,80.1805,-7.44165
756,1,80.3542,7.63696,0,0,0,0,0,0,0,-1,1980,1023,80.3542,-7.63698
763,1,80.2556,7.487,-0.0146274,0.0187231,-0.000828447,0.0187437,-0.0146479,-1.54598,0.0193269,0.0185137,1987,1023,80.2557,-7.48701
770,1,80.1846,7.39209,-0.0158589,0.0239341,-0.00166237,0.0240034,-0.0159283,-1.52912,0.0232112,0.0200057,1994,1023,80.1846,-7.39209
777,1,79.8066,7.29736,-0.0161568,0.0293223,-0.00259864,0.0294703,-0.0163048,-1.5139,0.0267902,0.0273339,2001,1023,79.8066,-7.29736
784,1,79.4048,7.18317,0,0,0,0,0,0,0,-1,2008,1023,79.4049,-7.18315
791,1,79.6729,6.88995,0,0,0,0,0,0,0,-1,2015,1023,79.6727,-6.88993
798,1,79.6165,6.38831,0,0,0,0,0,0,0,-1,2022,1023,79.6164,-6.38828
805,1,76.5056,5.87726,0,0,0,0,0,0,0,-1,2029,1023,76.5057,-5.87729
812,1,76.5642,5.17908,0,0,0,0,0,0,0,-1,2036,1023,76.5641,-5.17907
-700,-6,0,0,0,0,0,0,0,0,0,-1,524,1030,0,0
-693,-6,-65.5707,2.71045,0,0,0,0,0,0,0,-1,531,1030,-65.5707,-2.71041
-686,-6,-65.3068,3.06543,0,0,0,0,0,0,0,-1,538,1030,-65.3068,-3.06541
-679,-6,-65.0365,3.64294,0,0,0,0,0,0,0,-1,545,1030,-65.0365,-3.64299
-672,-6,-64.4811,4.25598,0,0,0,0,0,0,0,-1,552,1030,-64.4811,-4.25602
-665,-6,-64.6358,6.27728,0,0,0,0,0,0,0,-1,559,1030,-64.6358,-6.2773
-658,-6,-64.1791,6.33777,0,0,0,0,0,0,0,-1,566,1030,-64.1791,-6.33775
-651,-6,-64.1136,6.21936,0,0,0,0,0,0,0,-1,573,1030,-64.1137,-6.21937
-644,-6,-63.202,6.79126,0,0,0,0,0,0,0,-1,580,1030,-63.202,-6.79127
-637,-6,-64.5804,6.80017,0,0,0,0,0,0,0,-1,587,1030,-64.5805,-6.80019
-630,-6,-64.4917,6.73102,-0.00949046,0.0204807,-0.00131307,0.0205382,-0.00954787,-1.5271,0.0177523,0.0288558,594,1030,-64.4917,-6.731
-623,-6,-64.4019,6.8457,-0.00759996,0.0136132,-0.000757847,0.0136403,-0.007627,-1.53513,0.0124412,0.0223712,601,1030,-64.4019,-6.84569
-616,-6,-64.4995,6.8418,-0.00608183,0.0086272,-0.000302515,0.00863342,-0.00608805,-1.55024,0.00854169,0.026726,608,1030,-64.4995,-6.8418
-609,-6,-64.4875,6.98877,-0.00468226,0.00513608,-0.000165309,0.00513886,-0.00468504,-1.55397,0.00567385,0.0262553,615,1030,-64.4875,-6.98876
-602,-6,-64.3221,7.13513,-0.00360825,0.00268859,-1.53979e-05,0.00268863,-0.00360828,-1.56835,0.00364843,0.0154639,622,1030,-64.3221,-7.13511
-595,-6,-64.372,7.23395,0,0,0,0,0,0,0,-1,629,1030,-64.372,-7.23396
-588,-6,-63.3002,0.353394,0,0,0,0,0,0,0,-1,636,1030,-63.3002,-0.353405
-581,-6,-63.3194,0.331543,-0.00170735,-0.00136734,-0.000451653,-0.00105476,-0.00201994,-0.9654,0.00116659,0.0257529,643,1030,-63.3194,-0.331544
-574,-6,-63.3787,0.524048,-0.00146497,-0.00197181,-0.000684684,-0.00098831,-0.00244847,-0.608152,0.00142235,0.0312923,650,1030,-63.3787,-0.52407
-567,-6,-63.3531,0.623047,-0.00147242,-0.00198005,-0.000889786,-0.000800958,-0.00265152,-0.646462,0.00157032,0.0416871,657,1030,-63.3532,-0.623074
-560,-6,-63.0782,0.28418,0,0,0,0,0,0,0,-1,664,1030,-63.0782,-0.284121
-553,-6,-63.165,0.313232,-0.0020363,-0.00119817,-0.00158773,2.48641e-05,-0.00325934,-0.914427,0.00218123,0.0418079,671,1030,-63.1651,-0.313267
-546,-6,-63.1785,0.171021,-0.00273606,-0.00133601,-0.00212138,0.000197857,-0.00426993,-0.944766,0.00291481,0.0436163,678,1030,-63.1785,-0.171078
-539,-6,-63.3224,0.0985107,-0.00413704,-0.00227825,-0.00259626,-0.000450052,-0.00596524,-0.957279,0.00383562,0.0429026,685,1030,-63.3224,-0.0984501
-532,-6,-63.4791,0.211426,-0.00556195,-0.00336744,-0.00271763,-0.00153392,-0.00739547,-0.977267,0.00450688,0.0407037,692,1030,-63.4791,-0.211408
-525,-6,0,0,0,0,0,0,0,0,0,-1,699,1030,0,0
-518,-6,0,0,0,0,0,0,0,0,0,-1,706,1030,0,0
-511,-6,0,0,0,0,0,0,0,0,0,-1,713,1030,0,0
-504,-6,0,0,0,0,0,0,0,0,0,-1,720,1030,0,0
-497,-6,0,0,0,0,0,0,0,0,0,-1,727,1030,0,0
-490,-6,0,0,0,0,0,0,0,0,0,-1,734,1030,0,0
-483,-6,0,0,0,0,0,0,0,0,0,-1,741,1030,0,0
-476,-6,0,0,0,0,0,0,0,0,0,-1,748,1030,0,0
-469,-6,0,0,0,0,0,0,0,0,0,-1,755,1030,0,0
-462,-6,0,0,0,0,0,0,0,0,0,-1,762,1030,0,0
-455,-6,0,0,0,0,0,0,0,0,0,-1,769,1030,0,0
-448,-6,0,0,0,0,0,0,0,0,0,-1,776,1030,0,0
-441,-6,0,0,0,0,0,0,0,0,0,-1,783,1030,0,0
-434,-6,0,0,0,0,0,0,0,0,0,-1,790,1030,0,0
-427,-6,0,0,0,0,0,0,0,0,0,-1,797,1030,0,0
-420,-6,0,0,0,0,0,0,0,0,0,-1,804,1030,0,0
-413,-6,0,0,0,0,0,0,0,0,0,-1,811,1030,0,0
-406,-6,0,0,0,0,0,0,0,0,0,-1,818,1030,0,0
-399,-6,0,0,0,0,0,0,0,0,0,-1,825,1030,0,0
-392,-6,0,0,0,0,0,0,0,0,0,-1,832,1030,0,0
-385,-6,0,0,0,0,0,0,0,0,0,-1,839,1030,0,0
-378,-6,0,0,0,0,0,0,0,0,0,-1,846,1030,0,0
-371,-6,0,0,0,0,0,0,0,0,0,-1,853,1030,0,0
-364,-6,0,0,0,0,0,0,0,0,0,-1,860,1030,0,0
-357,-6,0,0,0,0,0,0,0,0,0,-1,867,1030,0,0
-350,-6,0,0,0,0,0,0,0,0,0,-1,874,1030,0,0
-343,-6,0,0,0,0,0,0,0,0,0,-1,881,1030,0,0
-336,-6,0,0,0,0,0,0,0,0,0,-1,888,1030,0,0
-329,-6,0,0,0,0,0,0,0,0,0,-1,895,1030,0,0
-322,-6,0,0,0,0,0,0,0,0,0,-1,902,1030,0,0
-315,-6,0,0,0,0,0,0,0,0,0,-1,909,1030,0,0
-308,-6,0,0,0,0,0,0,0,0,0,-1,916,1030,0,0
-301,-6,0,0,0,0,0,0,0,0,0,-1,923,1030,0,0
-294,-6,0,0,0,0,0,0,0,0,0,-1,930,1030,0,0
-287,-6,0,0,0,0,0,0,0,0,0,-1,937,1030,0,0
-280,-6,0,0,0,0,0,0,0,0,0,-1,944,1030,0,0
-273,-6,0,0,0,0,0,0,0,0,0,-1,951,1030,0,0
-266,-6,0,0,0,0,0,0,0,0,0,-1,958,1030,0,0
-259,-6,0,0,0,0,0,0,0,0,0,-1,965,1030,0,0
-252,-6,0,0,0,0,0,0,0,0,0,-1,972,1030,0,0
-245,-6,0,0,0,0,0,0,0,0,0,-1,979,1030,0,0
-238,-6,0,0,0,0,0,0,0,0,0,-1,986,1030,0,0
-231,-6,0,0,0,0,0,0,0,0,0,-1,993,1030,0,0
-224,-6,0,0,0,0,0,0,0,0,0,-1,1000,1030,0,0
-217,-6,0,0,0,0,0,0,0,0,0,-1,1007,1030,0,0
-210,-6,0,0,0,0,0,0,0,0,0,-1,1014,1030,0,0
-203,-6,0,0,0,0,0,0,0,0,0,-1,1021,1030,0,0
-196,-6,0,0,0,0,0,0,0,0,0,-1,1028,1030,0,0
-189,-6,0,0,0,0,0,0,0,0,0,-1,1035,1030,0,0
-182,-6,0,0,0,0,0,0,0,0,0,-1,1042,1030,0,0
-175,-6,0,0,0,0,0,0,0,0,0,-1,1049,1030,0,0
-168,-6,0,0,0,0,0,0,0,0,0,-1,1056,1030,0,0
-161,-6,0,0,0,0,0,0,0,0,0,-1,1063,1030,0,0
-154,-6,0,0,0,0,0,0,0,0,0,-1,1070,1030,0,0
-147,-6,0,0,0,0,0,0,0,0,0,-1,1077,1030,0,0
-140,-6,0,0,0,0,0,0,0,0,0,-1,1084,1030,0,0
-133,-6,0,0,0,0,0,0,0,0,0,-1,1091,1030,0,0
-126,-6,0,0,0,0,0,0,0,0,0,-1,1098,1030,0,0
-119,-6,0,0,0,0,0,0,0,0,0,-1,1105,1030,0,0
-112,-6,0,0,0,0,0,0,0,0,0,-1,1112,1030,0,0
-105,-6,0,0,0,0,0,0,0,0,0,-1,1119,1030,0,0
-98,-6,0,0,0,0,0,0,0,0,0,-1,1126,1030,0,0
-91,-6,0,0,0,0,0,0,0,0,0,-1,1133,1030,0,0
-84,-6,0,0,0,0,0,0,0,0,0,-1,1140,1030,0,0
-77,-6,0,0,0,0,0,0,0,0,0,-1,1147,1030,0,0
-70,-6,0,0,0,0,0,0,0,0,0,-1,1154,1030,0,0
-63,-6,0,0,0,0,0,0,0,0,0,-1,1161,1030,0,0
-56,-6,0,0,0,0,0,0,0,0,0,-1,1168,1030,0,0
-49,-6,0,0,0,0,0,0,0,0,0,-1,1175,1030,0,0
-42,-6,0,0,0,0,0,0,0,0,0,-1,1182,1030,0,0
-35,-6,0,0,0,0,0,0,0,0,0,-1,1189,1030,0,0
-28,-6,0,0,0,0,0,0,0,0,0,-1,1196,1030,0,0
-21,-6,0,0,0,0,0,0,0,0,0,-1,1203,1030,0,0
-14,-6,0,0,0,0,0,0,0,0,0,-1,1210,1030,0,0
-7,-6,0,0,0,0,0,0,0,0,0,-1,1217,1030,0,0
0,-6,0,0,0,0,0,0,0,0,0,-1,1224,1030,0,0
7,-6,0,0,0,0,0,0,0,0,0,-1,1231,1030,0,0
14,-6,0,0,0,0,0,0,0,0,0,-1,1238,1030,0,0
21,-6,0,0,0,0,0,0,0,0,0,-1,1245,1030,0,0
28,-6,0,0,0,0,0,0,0,0,0,-1,1252,1030,0,0
35,-6,0,0,0,0,0,0,0,0,0,-1,1259,1030,0,0
42,-6,0,0,0,0,0,0,0,0,0,-1,1266,1030,0,0
49,-6,0,0,0,0,0,0,0,0,0,-1,1273,1030,0,0
56,-6,0,0,0,0,0,0,0,0,0,-1,1280,1030,0,0
63,-6,0,0,0,0,0,0,0,0,0,-1,1287,1030,0,0
70,-6,0,0,0,0,0,0,0,0,0,-1,1294,1030,0,0
77,-6,0,0,0,0,0,0,0,0,0,-1,1301,1030,0,0
84,-6,0,0,0,0,0,0,0,0,0,-1,1308,1030,0,0
91,-6,0,0,0,0,0,0,0,0,0,-1,1315,1030,0,0
98,-6,0,0,0,0,0,0,0,0,0,-1,1322,1030,0,0
105,-6,0,0,0,0,0,0,0,0,0,-1,1329,1030,0,0
112,-6,0,0,0,0,0,0,0,0,0,-1,1336,1030,0,0
119,-6,0,0,0,0,0,0,0,0,0,-1,1343,1030,0,0
126,-6,0,0,0,0,0,0,0,0,0,-1,1350,1030,0,0
133,-6,0,0,0,0,0,0,0,0,0,-1,1357,1030,0,0
140,-6,0,0,0,0,0,0,0,0,0,-1,1364,1030,0,0
147,-6,0,0,0,0,0,0,0,0,0,-1,1371,1030,0,0
154,-6,0,0,0,0,0,0,0,0,0,-1,1378,1030,0,0
161,-6,0,0,0,0,0,0,0,0,0,-1,1385,1030,0,0
168,-6,0,0,0,0,0,0,0,0,0,-1,1392,1030,0,0
175,-6,0,0,0,0,0,0,0,0,0,-1,1399,1030,0,0
182,-6,0,0,0,0,0,0,0,0,0,-1,1406,1030,0,0
189,-6,0,0,0,0,0,0,0,0,0,-1,1413,1030,0,0
196,-6,0,0,0,0,0,0,0,0,0,-1,1420,1030,0,0
203,-6,0,0,0,0,0,0,0,0,0,-1,1427,1030,0,0
210,-6,0,0,0,0,0,0,0,0,0,-1,1434,1030,0,0
217,-6,0,0,0,0,0,0,0,0,0,-1,1441,1030,0,0
224,-6,0,0,0,0,0,0,0,0,0,-1,1448,1030,0,0
231,-6,0,0,0,0,0,0,0,0,0,-1,1455,1030,0,0
238,-6,0,0,0,0,0,0,0,0,0,-1,1462,1030,0,0
245,-6,0,0,0,0,0,0,0,0,0,-1,1469,1030,0,0
252,-6,0,0,0,0,0,0,0,0,0,-1,1476,1030,0,0
259,-6,0,0,0,0,0,0,0,0,0,-1,1483,1030,0,0
266,-6,0,0,0,0,0,0,0,0,0,-1,1490,1030,0,0
273,-6,0,0,0,0,0,0,0,0,0,-1,1497,1030,0,0
280,-6,0,0,0,0,0,0,0,0,0,-1,1504,1030,0,0
287,-6,0,0,0,0,0,0,0,0,0,-1,1511,1030,0,0
294,-6,0,0,0,0,0,0,0,0,0,-1,1518,1030,0,0
301,-6,0,0,0,0,0,0,0,0,0,-1,1525,1030,0,0
308,-6,0,0,0,0,0,0,0,0,0,-1,1532,1030,0,0
315,-6,0,0,0,0,0,0,0,0,0,-1,1539,1030,0,0
322,-6,0,0,0,0,0,0,0,0,0,-1,1546,1030,0,0
329,-6,0,0,0,0,0,0,0,0,0,-1,1553,1030,0,0
336,-6,0,0,0,0,0,0,0,0,0,-1,1560,1030,0,0
343,-6,0,0,0,0,0,0,0,0,0,-1,1567,1030,0,0
350,-6,0,0,0,0,0,0,0,0,0,-1,1574,1030,0,0
357,-6,0,0,0,0,0,0,0,0,0,-1,1581,1030,0,0
364,-6,0,0,0,0,0,0,0,0,0,-1,1588,1030,0,0
371,-6,0,0,0,0,0,0,0,0,0,-1,1595,1030,0,0
378,-6,0,0,0,0,0,0,0,0,0,-1,1602,1030,0,0
385,-6,0,0,0,0,0,0,0,0,0,-1,1609,1030,0,0
392,-6,0,0,0,0,0,0,0,0,0,-1,1616,1030,0,0
399,-6,0,0,0,0,0,0,0,0,0,-1,1623,1030,0,0
406,-6,0,0,0,0,0,0,0,0,0,-1,1630,1030,0,0
413,-6,0,0,0,0,0,0,0,0,0,-1,1637,1030,0,0
420,-6,0,0,0,0,0,0,0,0,0,-1,1644,1030,0,0
427,-6,0,0,0,0,0,0,0,0,0,-1,1651,1030,0,0
434,-6,0,0,0,0,0,0,0,0,0,-1,1658,1030,0,0
441,-6,0,0,0,0,0,0,0,0,0,-1,1665,1030,0,0
448,-6,0,0,0,0,0,0,0,0,0,-1,1672,1030,0,0
455,-6,0,0,0,0,0,0,0,0,0,-1,1679,1030,0,0
462,-6,0,0,0,0,0,0,0,0,0,-1,1686,1030,0,0
469,-6,0,0,0,0,0,0,0,0,0,-1,1693,1030,0,0
476,-6,0,0,0,0,0,0,0,0,0,-1,1700,1030,0,0
483,-6,0,0,0,0,0,0,0,0,0,-1,1707,1030,0,0
490,-6,0,0,0,0,0,0,0,0,0,-1,1714,1030,0,0
497,-6,0,0,0,0,0,0,0,0,0,-1,1721,1030,0,0
504,-6,0,0,0,0,0,0,0,0,0,-1,1728,1030,0,0
511,-6,0,0,0,0,0,0,0,0,0,-1,1735,1030,0,0
518,-6,0,0,0,0,0,0,0,0,0,-1,1742,1030,0,0
525,-6,0,0,0,0,0,0,0,0,0,-1,1749,1030,0,0
532,-6,0,0,0,0,0,0,0,0,0,-1,1756,1030,0,0
539,-6,0,0,0,0,0,0,0,0,0,-1,1763,1030,0,0
546,-6,0,0,0,0,0,0,0,0,0,-1,1770,1030,0,0
553,-6,0,0,0,0,0,0,0,0,0,-1,1777,1030,0,0
560,-6,0,0,0,0,0,0,0,0,0,-1,1784,1030,0,0
567,-6,0,0,0,0,0,0,0,0,0,-1,1791,1030,0,0
574,-6,0,0,0,0,0,0,0,0,0,-1,1798,1030,0,0
581,-6,0,0,0,0,0,0,0,0,0,-1,1805,1030,0,0
588,-6,0,0,0,0,0,0,0,0,0,-1,1812,1030,0,0
595,-6,0,0,0,0,0,0,0,0,0,-1,1819,1030,0,0
602,-6,0,0,0,0,0,0,0,0,0,-1,1826,1030,0,0
609,-6,0,0,0,0,0,0,0,0,0,-1,1833,1030,0,0
616,-6,0,0,0,0,0,0,0,0,0,-1,1840,1030,0,0
623,-6,0,0,0,0,0,0,0,0,0,-1,1847,1030,0,0
630,-6,0,0,0,0,0,0,0,0,0,-1,1854,1030,0,0
637,-6,0,0,0,0,0,0,0,0,0,-1,1861,1030,0,0
644,-6,0,0,0,0,0,0,0,0,0,-1,1868,1030,0,0
651,-6,80.094,2.43384,0.000426103,0.000870202,-0.00218232,0.00284174,-0.00154544,-0.836098,0.00256953,0.036789,1875,1030,80.0939,-2.43381
658,-6,80.1259,2.20361,2.99684e-05,0.00100333,-0.00183966,0.0024196,-0.0013863,-0.91471,0.00222417,0.0389338,1882,1030,80.1258,-2.20356
665,-6,80.1774,1.98083,-0.000235858,0.00105402,-0.00129982,0.00186011,-0.00104194,-1.01569,0.00169755,0.0428303,1889,1030,80.1773,-1.98089
672,-6,80.1965,1.94946,-0.000461009,0.00112652,-0.000634836,0.00134916,-0.00068365,-1.23349,0.00119442,0.0418423,1896,1030,80.1966,-1.94942
679,-6,80.1266,1.91028,-0.000608641,0.00116645,0.000114348,0.00117379,-0.000615977,1.50673,0.00104992,0.0408665,1903,1030,80.1266,-1.91025
686,-6,79.9424,1.95703,-0.0010128,0.000858845,0.000824166,0.00117002,-0.00132398,1.20978,0.00144083,0.0384472,1910,1030,79.9424,-1.95702
693,-6,80.1238,2.18286,-0.00131931,0.000416904,0.00136941,0.00117018,-0.00207259,1.06789,0.00189623,0.0367201,1917,1030,80.1238,-2.18281
700,-6,80.0582,2.16614,-0.0015251,8.97511e-05,0.00173612,0.00119702,-0.00263237,1.00306,0.00226207,0.0322725,1924,1030,80.0583,-2.16613
707,-6,80.0591,2.14612,-0.0022043,0.000311185,0.00197821,0.00139763,-0.00329075,1.06856,0.00277942,0.0275432,1931,1030,80.0591,-2.14615
714,-6,80.0291,2.09717,-0.00335544,0.00119604,0.00195181,0.00191839,-0.0040778,1.21633,0.00353594,0.0318985,1938,1030,80.0291,-2.09715
721,-6,80.0472,2.15735,0,0,0,0,0,0,0,-1,1945,1030,80.0472,-2.15736
728,-6,53.1713,6.25494,0,0,0,0,0,0,0,-1,1952,1030,53.1713,-6.25495
735,-6,78.4772,7.47345,0,0,0,0,0,0,0,-1,1959,1030,78.4772,-7.47343
742,-6,80.3956,7.94427,0,0,0,0,0,0,0,-1,1966,1030,80.3956,-7.94425
749,-6,80.3784,7.33154,0,0,0,0,0,0,0,-1,1973,1030,80.3783,-7.33156
756,-6,80.3938,7.43585,-0.012848,0.0141352,0.000408883,0.0141414,-0.0128541,1.55565,0.0155918,0.0419012,1980,1030,80.3938,-7.43584
763,-6,80.1685,7.29144,-0.0141416,0.0181704,-0.000256022,0.0181725,-0.0141436,-1.56287,0.0187059,0.0242234,1987,1030,80.1685,-7.29144
770,-6,80.0554,7.16461,-0.0146786,0.023116,-0.00112716,0.0231496,-0.0147122,-1.54101,0.0220397,0.020843,1994,1030,80.0554,-7.16459
777,-6,79.8835,7.09174,-0.0137738,0.0283617,-0.00215781,0.0284719,-0.013884,-1.51976,0.0249329,0.0202001,2001,1030,79.8836,-7.09173
784,-6,79.7166,6.96722,-0.0113872,0.0329062,-0.00332598,0.0331546,-0.0116355,-1.49626,0.026836,0.0446973,2008,1030,79.7166,-6.96724
791,-6,79.7041,6.80695,-0.00694827,0.0362711,-0.0047478,0.0367866,-0.00746369,-1.46266,0.0273538,0.0489311,2015,1030,79.704,-6.80697
798,-6,79.5869,6.47296,0.00144943,0.0381094,-0.00650712,0.0392302,0.000328682,-1.40024,0.0260446,0.0496461,2022,1030,79.5869,-6.47298
805,-6,78.7705,6.19958,0,0,0,0,0,0,0,-1,2029,1030,78.7706,-6.19956
812,-6,79.2561,6.67358,0,0,0,0,0,0,0,-1,2036,1030,79.2561,-6.67357
-700,-13,0,0,0,0,0,0,0,0,0,-1,524,1037,0,0
-693,-13,-64.8817,6.39392,0,0,0,0,0,0,0,-1,531,1037,-64.8817,-6.39393
-686,-13,-64.6069,5.96069,0,0,0,0,0,0,0,-1,538,1037,-64.6069,-5.96072
-679,-13,-64.3391,5.56079,0,0,0,0,0,0,0,-1,545,1037,-64.3391,-5.56074
-672,-13,-64.1743,5.15735,0,0,0,0,0,0,0,-1,552,1037,-64.1743,-5.15732
-665,-13,-64.2728,6.46338,0,0,0,0,0,0,0,-1,559,1037,-64.2728,-6.46338
-658,-13,-64.0719,6.26282,-0.0169626,0.0535231,-0.0119143,0.0554825,-0.018922,-1.4078,0.0446527,0.0499073,566,1037,-64.0719,-6.26283
-651,-13,-64.0063,6.10864,-0.0155143,0.0454441,-0.00713711,0.0462686,-0.0163388,-1.45579,0.0374979,0.0440179,573,1037,-64.0063,-6.1087
-644,-13,-63.8302,6.31177,0,0,0,0,0,0,0,-1,580,1037,-63.8302,-6.31182
-637,-13,-64.041,6.46411,-0.0107405,0.0285061,-0.0027828,0.0287024,-0.0109368,-1.50036,0.0236395,0.0335195,587,1037,-64.041,-6.46415
-630,-13,-64.237,6.54895,-0.00833485,0.0198415,-0.00199759,0.0199824,-0.00847576,-1.50037,0.0168721,0.020726,594,1037,-64.237,-6.54895
-623,-13,-64.2974,6.75647,-0.00643382,0.0131213,-0.00139728,0.0132206,-0.00653316,-1.49982,0.0116206,0.0172522,601,1037,-64.2974,-6.75642
-616,-13,-64.3091,6.94055,-0.00487808,0.00823194,-0.000928101,0.00829732,-0.00494346,-1.50047,0.00772588,0.0159646,608,1037,-64.3091,-6.94061
-609,-13,-64.2813,7.09644,-0.00343719,0.00479277,-0.000807651,0.00487128,-0.0035157,-1.47389,0.00486326,0.0200617,615,1037,-64.2813,-7.09643
-602,-13,-64.2061,7.21021,-0.00240083,0.00235337,-0.000616335,0.00243198,-0.00247943,-1.44395,0.00283565,0.0136345,622,1037,-64.206,-7.21025
-595,-13,-64.2004,7.29163,0,0,0,0,0,0,0,-1,629,1037,-64.2005,-7.29167
-588,-13,-63.2654,0.477417,0,0,0,0,0,0,0,-1,636,1037,-63.2654,-0.477476
-581,-13,-63.3416,0.308105,-0.000865336,-0.00154158,-0.000775271,-0.00035766,-0.00204925,-0.579768,0.00126393,0.0263053,643,1037,-63.3416,-0.30813
-574,-13,-63.3612,0.489014,-0.000732785,-0.00205706,-0.000913542,-0.000266655,-0.00252319,-0.471809,0.00160066,0.0339859,650,1037,-63.3612,-0.489016
-567,-13,-63.5103,0.683594,-0.000922866,-0.00200507,-0.00100065,-0.000326387,-0.00260155,-0.537541,0.00163645,0.0410166,657,1037,-63.5103,-0.683568
-560,-13,-63.3202,0.413208,-0.00131734,-0.00157746,-0.00112033,-0.00031955,-0.00257525,-0.727612,0.00162085,0.0434785,664,1037,-63.3202,-0.413204
-553,-13,-63.2061,0.299194,-0.00201213,-0.00110983,-0.00133034,-0.000156223,-0.00296573,-0.948874,0.00192719,0.0428761,671,1037,-63.206,-0.299213
-546,-13,-63.3805,0.389771,-0.00296912,-0.00116236,-0.00162237,-0.000208813,-0.00392267,-1.03943,0.00254836,0.0404473,678,1037,-63.3805,-0.389731
-539,-13,-63.4261,0.530762,-0.00448787,-0.00198173,-0.00188328,-0.000972733,-0.00549686,-1.07895,0.00338721,0.0413207,685,1037,-63.4262,-0.530769
-532,-13,-63.4044,0.736572,-0.00602464,-0.00290641,-0.00177567,-0.00210251,-0.00682854,-1.14567,0.00403829,0.039731,692,1037,-63.4044,-0.736608
-525,-13,0,0,0,0,0,0,0,0,0,-1,699,1037,0,0
-518,-13,0,0,0,0,0,0,0,0,0,-1,706,1037,0,0
-511,-13,0,0,0,0,0,0,0,0,0,-1,713,1037,0,0
-504,-13,0,0,0,0,0,0,0,0,0,-1,720,1037,0,0
-497,-13,0,0,0,0,0,0,0,0,0,-1,727,1037,0,0
-490,-13,0,0,0,0,0,0,0,0,0,-1,734,1037,0,0
-483,-13,0,0,0,0,0,0,0,0,0,-1,741,1037,0,0
-476,-13,0,0,0,0,0,0,0,0,0,-1,748,1037,0,0
-469,-13,0,0,0,0,0,0,0,0,0,-1,755,1037,0,0
-462,-13,0,0,0,0,0,0,0,0,0,-1,762,1037,0,0
-455,-13,0,0,0,0,0,0,0,0,0,-1,769,1037,0,0
-448,-13,0,0,0,0,0,0,0,0,0,-1,776,1037,0,0
-441,-13,0,0,0,0,0,0,0,0,0,-1,783,1037,0,0
-434,-13,0,0,0,0,0,0,0,0,0,-1,790,1037,0,0
-427,-13,0,0,0,0,0,0,0,0,0,-1,797,1037,0,0
-420,-13,0,0,0,0,0,0,0,0,0,-1,804,1037,0,0
-413,-13,0,0,0,0,0,0,0,0,0,-1,811,1037,0,0
-406,-13,0,0,0,0,0,0,0,0,0,-1,818,1037,0,0
-399,-13,0,0,0,0,0,0,0,0,0,-1,825,1037,0,0
-392,-13,0,0,0,0,0,0,0,0,0,-1,832,1037,0,0
-385,-13,0,0,0,0,0,0,0,0,0,-1,839,1037,0,0
-378,-13,0,0,0,0,0,0,0,0,0,-1,846,1037,0,0
-371,-13,0,0,0,0,0,0,0,0,0,-1,853,1037,0,0
-364,-13,0,0,0,0,0,0,0,0,0,-1,860,1037,0,0
-357,-13,0,0,0,0,0,0,0,0,0,-1,867,1037,0,0
-350,-13,0,0,0,0,0,0,0,0,0,-1,874,1037,0,0
-343,-13,0,0,0,0,0,0,0,0,0,-1,881,1037,0,0
-336,-13,0,0,0,0,0,0,0,0,0,-1,888,1037,0,0
-329,-13,0,0,0,0,0,0,0,0,0,-1,895,1037,0,0
-322,-13,0,0,0,0,0,0,0,0,0,-1,902,1037,0,0
-315,-13,0,0,0,0,0,0,0,0,0,-1,909,1037,0,0
-308,-13,0,0,0,0,0,0,0,0,0,-1,916,1037,0,0
-301,-13,0,0,0,0,0,0,0,0,0,-1,923,1037,0,0
-294,-13,0,0,0,0,0,0,0,0,0,-1,930,1037,0,0
-287,-13,0,0,0,0,0,0,0,0,0,-1,937,1037,0,0
-280,-13,0,0,0,0,0,0,0,0,0,-1,944,1037,0,0
-273,-13,0,0,0,0,0,0,0,0,0,-1,951,1037,0,0
-266,-13,0,0,0,0,0,0,0,0,0,-1,958,1037,0,0
-259,-13,0,0,0,0,0,0,0,0,0,-1,965,1037,0,0
-252,-13,0,0,0,0,0,0,0,0,0,-1,972,1037,0,0
-245,-13,0,0,0,0,0,0,0,0,0,-1,979,1037,0,0
-238,-13,0,0,0,0,0,0,0,0,0,-1,986,1037,0,0
-231,-13,0,0,0,0,0,0,0,0,0,-1,993,1037,0,0
-224,-13,0,0,0,0,0,0,0,0,0,-1,1000,1037,0,0
-217,-13,0,0,0,0,0,0,0,0,0,-1,1007,1037,0,0
-210,-13,0,0,0,0,0,0,0,0,0,-1,1014,1037,0,0
-203,-13,0,0,0,0,0,0,0,0,0,-1,1021,1037,0,0
-196,-13,0,0,0,0,0,0,0,0,0,-1,1028,1037,0,0
-189,-13,0,0,0,0,0,0,0,0,0,-1,1035,1037,0,0
-182,-13,0,0,0,0,0,0,0,0,0,-1,1042,1037,0,0
-175,-13,0,0,0,0,0,0,0,0,0,-1,1049,1037,0,0
-168,-13,0,0,0,0,0,0,0,0,0,-1,1056,1037,0,0
-161,-13,0,0,0,0,0,0,0,0,0,-1,1063,1037,0,0
-154,-13,0,0,0,0,0,0,0,0,0,-1,1070,1037,0,0
-147,-13,0,0,0,0,0,0,0,0,0,-1,1077,1037,0,0
-140,-13,0,0,0,0,0,0,0,0,0,-1,1084,1037,0,0
-133,-13,0,0,0,0,0,0,0,0,0,-1,1091,1037,0,0
-126,-13,0,0,0,0,0,0,0,0,0,-1,1098,1037,0,0
-119,-13,0,0,0,0,0,0,0,0,0,-1,1105,1037,0,0
-112,-13,0,0,0,0,0,0,0,0,0,-1,1112,1037,0,0
-105,-13,0,0,0,0,0,0,0,0,0,-1,1119,1037,0,0
-98,-13,0,0,0,0,0,0,0,0,0,-1,1126,1037,0,0
-91,-13,0,0,0,0,0,0,0,0,0,-1,1133,1037,0,0
-84,-13,0,0,0,0,0,0,0,0,0,-1,1140,1037,0,0
-77,-13,0,0,0,0,0,0,0,0,0,-1,1147,1037,0,0
-70,-13,0,0,0,0,0,0,0,0,0,-1,1154,1037,0,0
-63,-13,0,0,0,0,0,0,0,0,0,-1,1161,1037,0,0
-56,-13,0,0,0,0,0,0,0,0,0,-1,1168,1037,0,0
-49,-13,0,0,0,0,0,0,0,0,0,-1,1175,1037,0,0
-42,-13,0,0,0,0,0,0,0,0,0,-1,1182,1037,0,0
-35,-13,0,0,0,0,0,0,0,0,0,-1,1189,1037,0,0
-28,-13,0,0,0,0,0,0,0,0,0,-1,1196,1037,0,0
-21,-13,0,0,0,0,0,0,0,0,0,-1,1203,1037,0,0
-14,-13,0,0,0,0,0,0,0,0,0,-1,1210,1037,0,0
-7,-13,0,0,0,0,0,0,0,0,0,-1,1217,1037,0,0
0,-13,0,0,0,0,0,0,0,0,0,-1,1224,1037,0,0
7,-13,0,0,0,0,0,0,0,0,0,-1,1231,1037,0,0
14,-13,0,0,0,0,0,0,0,0,0,-1,1238,1037,0,0
21,-13,0,0,0,0,0,0,0,0,0,-1,1245,1037,0,0
28,-13,0,0,0,0,0,0,0,0,0,-1,1252,1037,0,0
35,-13,0,0,0,0,0,0,0,0,0,-1,1259,1037,0,0
42,-13,0,0,0,0,0,0,0,0,0,-1,1266,1037,0,0
49,-13,0,0,0,0,0,0,0,0,0,-1,1273,1037,0,0
56,-13,0,0,0,0,0,0,0,0,0,-1,1280,1037,0,0
63,-13,0,0,0,0,0,0,0,0,0,-1,1287,1037,0,0
70,-13,0,0,0,0,0,0,0,0,0,-1,1294,1037,0,0
77,-13,0,0,0,0,0,0,0,0,0,-1,1301,1037,0,0
84,-13,0,0,0,0,0,0,0,0,0,-1,1308,1037,0,0
91,-13,0,0,0,0,0,0,0,0,0,-1,1315,1037,0,0
98,-13,0,0,0,0,0,0,0,0,0,-1,1322,1037,0,0
105,-13,0,0,0,0,0,0,0,0,0,-1,1329,1037,0,0
112,-13,0,0,0,0,0,0,0,0,0,-1,1336,1037,0,0
119,-13,0,0,0,0,0,0,0,0,0,-1,1343,1037,0,0
126,-13,0,0,0,0,0,0,0,0,0,-1,1350,1037,0,0
133,-13,0,0,0,0,0,0,0,0,0,-1,1357,1037,0,0
140,-13,0,0,0,0,0,0,0,0,0,-1,1364,1037,0,0
147,-13,0,0,0,0,0,0,0,0,0,-1,1371,1037,0,0
154,-13,0,0,0,0,0,0,0,0,0,-1,1378,1037,0,0
161,-13,0,0,0,0,0,0,0,0,0,-1,1385,1037,0,0
168,-13,0,0,0,0,0,0,0,0,0,-1,1392,1037,0,0
175,-13,0,0,0,0,0,0,0,0,0,-1,1399,1037,0,0
182,-13,0,0,0,0,0,0,0,0,0,-1,1406,1037,0,0
189,-13,0,0,0,0,0,0,0,0,0,-1,1413,1037,0,0
196,-13,0,0,0,0,0,0,0,0,0,-1,1420,1037,0,0
203,-13,0,0,0,0,0,0,0,0,0,-1,1427,1037,0,0
210,-13,0,0,0,0,0,0,0,0,0,-1,1434,1037,0,0
217,-13,0,0,0,0,0,0,0,0,0,-1,1441,1037,0,0
224,-13,0,0,0,0,0,0,0,0,0,-1,1448,1037,0,0
231,-13,0,0,0,0,0,0,0,0,0,-1,1455,1037,0,0
238,-13,0,0,0,0,0,0,0,0,0,-1,1462,1037,0,0
245,-13,0,0,0,0,0,0,0,0,0,-1,1469,1037,0,0
252,-13,0,0,0,0,0,0,0,0,0,-1,1476,1037,0,0
259,-13,0,0,0,0,0,0,0,0,0,-1,1483,1037,0,0
266,-13,0,0,0,0,0,0,0,0,0,-1,1490,1037,0,0
273,-13,0,0,0,0,0,0,0,0,0,-1,1497,1037,0,0
280,-13,0,0,0,0,0,0,0,0,0,-1,1504,1037,0,0
287,-13,0,0,0,0,0,0,0,0,0,-1,1511,1037,0,0
294,-13,0,0,0,0,0,0,0,0,0,-1,1518,1037,0,0
301,-13,0,0,0,0,0,0,0,0,0,-1,1525,1037,0,0
308,-13,0,0,0,0,0,0,0,0,0,-1,1532,1037,0,0
315,-13,0,0,0,0,0,0,0,0,0,-1,1539,1037,0,0
322,-13,0,0,0,0,0,0,0,0,0,-1,1546,1037,0,0
329,-13,0,0,0,0,0,0,0,0,0,-1,1553,1037,0,0
336,-13,0,0,0,0,0,0,0,0,0,-1,1560,1037,0,0
343,-13,0,0,0,0,0,0,0,0,0,-1,1567,1037,0,0
350,-13,0,0,0,0,0,0,0,0,0,-1,1574,1037,0,0
357,-13,0,0,0,0,0,0,0,0,0,-1,1581,1037,0,0
364,-13,0,0,0,0,0,0,0,0,0,-1,1588,1037,0,0
371,-13,0,0,0,0,0,0,0,0,0,-1,1595,1037,0,0
378,-13,0,0,0,0,0,0,0,0,0,-1,1602,1037,0,0
385,-13,0,0,0,0,0,0,0,0,0,-1,1609,1037,0,0
392,-13,0,0,0,0,0,0,0,0,0,-1,1616,1037,0,0
399,-13,0,0,0,0,0,0,0,0,0,-1,1623,1037,0,0
406,-13,0,0,0,0,0,0,0,0,0,-1,1630,1037,0,0
413,-13,0,0,0,0,0,0,0,0,0,-1,1637,1037,0,0
420,-13,0,0,0,0,0,0,0,0,0,-1,1644,1037,0,0
427,-13,0,0,0,0,0,0,0,0,0,-1,1651,1037,0,0
434,-13,0,0,0,0,0,0,0,0,0,-1,1658,1037,0,0
441,-13,0,0,0,0,0,0,0,0,0,-1,1665,1037,0,0
448,-13,0,0,0,0,0,0,0,0,0,-1,1672,1037,0,0
455,-13,0,0,0,0,0,0,0,0,0,-1,1679,1037,0,0
462,-13,0,0,0,0,0,0,0,0,0,-1,1686,1037,0,0
469,-13,0,0,0,0,0,0,0,0,0,-1,1693,1037,0,0
476,-13,0,0,0,0,0,0,0,0,0,-1,1700,1037,0,0
483,-13,0,0,0,0,0,0,0,0,0,-1,1707,1037,0,0
490,-13,0,0,0,0,0,0,0,0,0,-1,1714,1037,0,0
497,-13,0,0,0,0,0,0,0,0,0,-1,1721,1037,0,0
504,-13,0,0,0,0,0,0,0,0,0,-1,1728,1037,0,0
511,-13,0,0,0,0,0,0,0,0,0,-1,1735,1037,0,0
518,-13,0,0,0,0,0,0,0,0,0,-1,1742,1037,0,0
525,-13,0,0,0,0,0,0,0,0,0,-1,1749,1037,0,0
532,-13,0,0,0,0,0,0,0,0,0,-1,1756,1037,0,0
539,-13,0,0,0,0,0,0,0,0,0,-1,1763,1037,0,0
546,-13,0,0,0,0,0,0,0,0,0,-1,1770,1037,0,0
553,-13,0,0,0,0,0,0,0,0,0,-1,1777,1037,0,0
560,-13,0,0,0,0,0,0,0,0,0,-1,1784,1037,0,0
567,-13,0,0,0,0,0,0,0,0,0,-1,1791,1037,0,0
574,-13,0,0,0,0,0,0,0,0,0,-1,1798,1037,0,0
581,-13,0,0,0,0,0,0,0,0,0,-1,1805,1037,0,0
588,-13,0,0,0,0,0,0,0,0,0,-1,1812,1037,0,0
595,-13,0,0,0,0,0,0,0,0,0,-1,1819,1037,0,0
602,-13,0,0,0,0,0,0,0,0,0,-1,1826,1037,0,0
609,-13,0,0,0,0,0,0,0,0,0,-1,1833,1037,0,0
616,-13,0,0,0,0,0,0,0,0,0,-1,1840,1037,0,0
623,-13,0,0,0,0,0,0,0,0,0,-1,1847,1037,0,0
630,-13,0,0,0,0,0,0,0,0,0,-1,1854,1037,0,0
637,-13,0,0,0,0,0,0,0,0,0,-1,1861,1037,0,0
644,-13,0,0,0,0,0,0,0,0,0,-1,1868,1037,0,0
651,-13,80.2683,1.93762,0.000151752,0.000812139,-0.00203748,0.00254601,-0.00158212,-0.86573,0.00240493,0.0372056,1875,1037,80.2684,-1.9376
658,-13,80.0457,1.84094,-0.000163945,0.00091663,-0.00169556,0.0021559,-0.00140321,-0.939637,0.00207012,0.0432685,1882,1037,80.0456,-1.84092
665,-13,79.9393,1.94434,-0.000389678,0.000935456,-0.00115285,0.00160258,-0.0010568,-1.04621,0.00154613,0.0430256,1889,1037,79.9393,-1.94436
672,-13,80.0352,2.02222,-0.000588272,0.000976255,-0.000486961,0.00111544,-0.000727457,-1.2924,0.00107183,0.0360982,1896,1037,80.0351,-2.02217
679,-13,79.9745,2.02527,-0.000733805,0.00100596,0.000253995,0.00104228,-0.000770128,1.42875,0.00105032,0.0356665,1903,1037,79.9745,-2.02522
686,-13,79.8857,2.01563,-0.00119651,0.000716049,0.000952126,0.00110922,-0.00158968,1.17919,0.00156642,0.0379147,1910,1037,79.8857,-2.01561
693,-13,79.892,2.09216,-0.00156752,0.00030515,0.00149107,0.0011295,-0.00239187,1.06576,0.00207615,0.0375067,1917,1037,79.892,-2.09212
700,-13,80.0623,2.08203,-0.00182645,2.34436e-05,0.00189304,0.00120542,-0.00300843,1.01264,0.00250601,0.0366342,1924,1037,80.0622,-2.08207
707,-13,80.1293,2.10999,-0.00253811,0.000229416,0.00219629,0.00144152,-0.00375021,1.06651,0.00309466,0.0333582,1931,1037,80.1292,-2.10993
714,-13,80.0553,2.34241,-0.00366587,0.0010521,0.00223313,0.00194145,-0.00455521,1.1918,0.00385071,0.0320524,1938,1037,80.0553,-2.34244
721,-13,79.8395,2.50867,0,0,0,0,0,0,0,-1,1945,1037,79.8395,-2.50869
728,-13,78.576,7.60706,0,0,0,0,0,0,0,-1,1952,1037,78.5761,-7.60708
735,-13,79.9395,7.82397,0,0,0,0,0,0,0,-1,1959,1037,79.9395,-7.82394
742,-13,80.0801,7.6665,-0.00984652,0.00825232,0.00185539,0.00844057,-0.0100348,1.46968,0.01068,0.034743,1966,1037,80.0801,-7.66647
749,-13,80.239,7.48547,-0.0114814,0.0107241,0.00140786,0.010813,-0.0115703,1.50773,0.0129255,0.0466501,1973,1037,80.2389,-7.48543
756,-13,80.1799,7.32263,-0.0130282,0.0136238,0.000837115,0.0136501,-0.0130545,1.53943,0.0154192,0.0238608,1980,1037,80.18,-7.32259
763,-13,80.114,7.19824,-0.0140864,0.0175251,0.000203098,0.0175264,-0.0140877,1.56437,0.0182884,0.0334015,1987,1037,80.1141,-7.1982
770,-13,79.9722,7.05444,-0.0143277,0.0222373,-0.000685781,0.0222501,-0.0143405,-1.55205,0.0212895,0.0274411,1994,1037,79.9722,-7.05448
777,-13,79.76,6.83447,-0.012865,0.0273618,-0.00175837,0.0274385,-0.0129417,-1.5272,0.0238091,0.0185995,2001,1037,79.7599,-6.83444
784,-13,79.6868,6.65417,-0.00983532,0.0318756,-0.0029406,0.0320819,-0.0100416,-1.50076,0.0254055,0.0381378,2008,1037,79.6868,-6.65424
791,-13,79.6702,6.53149,-0.00461457,0.0354195,-0.00430093,0.0358764,-0.00507141,-1.46497,0.0257749,0.0460909,2015,1037,79.6701,-6.53146
798,-13,79.5659,6.39172,0.00464192,0.0376773,-0.00583621,0.038678,0.00364118,-1.40098,0.0246614,0.0448018,2022,1037,79.566,-6.39168
805,-13,79.73,5.80334,0.0193857,0.0383954,-0.00712517,0.0407696,0.0170115,-1.24916,0.0236455,0.0409229,2029,1037,79.7299,-5.80333
812,-13,79.7185,4.97046,0,0,0,0,0,0,0,-1,2036,1037,79.7185,-4.97046
-700,-20,-65.5833,-2.37329,0,0,0,0,0,0,0,-1,524,1044,-65.5833,2.37333
-693,-20,-64.879,6.81726,0,0,0,0,0,0,0,-1,531,1044,-64.879,-6.8173
-686,-20,-64.6487,6.30908,0,0,0,0,0,0,0,-1,538,1044,-64.6487,-6.30904
-679,-20,-64.127,5.72705,0,0,0,0,0,0,0,-1,545,1044,-64.1271,-5.72701
-672,-20,-63.7275,7.07532,0,0,0,0,0,0,0,-1,552,1044,-63.7275,-7.07528
-665,-20,-63.6889,6.71155,0,0,0,0,0,0,0,-1,559,1044,-63.6889,-6.71151
-658,-20,-63.7002,6.34949,-0.0124718,0.0506777,-0.0111728,0.0525962,-0.0143902,-1.40074,0.0407175,0.0470897,566,1044,-63.7002,-6.34947
-651,-20,-63.8221,5.84448,-0.012192,0.0433126,-0.00699473,0.0441805,-0.0130599,-1.44735,0.0346376,0.0468146,573,1044,-63.8221,-5.84445
-644,-20,-63.7299,5.91443,-0.0105956,0.035087,-0.00457949,0.0355416,-0.0110502,-1.47186,0.0281113,0.0310329,580,1044,-63.7299,-5.91449
-637,-20,-63.8248,6.06653,-0.00883445,0.0273639,-0.00306822,0.0276222,-0.00909268,-1.48683,0.0220788,0.0244614,587,1044,-63.8248,-6.06655
-630,-20,-63.9736,6.41821,-0.00680117,0.0190886,-0.00244671,0.0193178,-0.00703037,-1.47739,0.0157538,0.0197676,594,1044,-63.9736,-6.41816
-623,-20,-64.0721,6.70972,-0.0050743,0.0125915,-0.00190053,0.0127937,-0.00527645,-1.46483,0.0107295,0.0168775,601,1044,-64.0721,-6.70969
-616,-20,-64.0725,6.91589,-0.00359584,0.00782939,-0.00146903,0.00801525,-0.0037817,-1.44495,0.00695563,0.0160391,608,1044,-64.0725,-6.91591
-609,-20,-64.099,7.1261,-0.00216466,0.00443345,-0.0013878,0.00471347,-0.00244468,-1.3717,0.00420138,0.0167686,615,1044,-64.099,-7.12612
-602,-20,-64.0375,7.29602,-0.0011671,0.0019887,-0.00117701,0.00237933,-0.00155774,-1.25035,0.0022895,0.0145382,622,1044,-64.0375,-7.29603
-595,-20,-63.8504,7.6123,0,0,0,0,0,0,0,-1,629,1044,-63.8504,-7.61225
-588,-20,-63.2827,0.36499,0,0,0,0,0,0,0,-1,636,1044,-63.2827,-0.364993
-581,-20,-63.3248,0.300171,1.9465e-05,-0.00173588,-0.00110742,0.000554834,-0.00227125,-0.45031,0.00172904,0.0333398,643,1044,-63.3248,-0.300185
-574,-20,-63.3022,0.459229,4.58366e-05,-0.00216669,-0.00116037,0.000542781,-0.00266364,-0.404632,0.00198162,0.0375106,650,1044,-63.3022,-0.459275
-567,-20,-63.3624,0.80127,-0.000316858,-0.00206019,-0.00115481,0.000258332,-0.00263538,-0.462112,0.00184905,0.0426634,657,1044,-63.3625,-0.801295
-560,-20,-63.2547,0.552612,-0.000953071,-0.00156031,-0.00115411,-6.33119e-05,-0.00245007,-0.656774,0.00161269,0.043363,664,1044,-63.2547,-0.552632
-553,-20,-63.1726,0.390015,-0.00193029,-0.000974812,-0.00120732,-0.000154149,-0.00275095,-0.973797,0.00178481,0.0421364,671,1044,-63.1726,-0.389973
-546,-20,-63.3024,0.462158,-0.00318123,-0.000810546,-0.00131058,-0.000228783,-0.003763,-1.15303,0.00243599,0.0407922,678,1044,-63.3024,-0.462125
-539,-20,-63.4532,0.547729,-0.00487928,-0.00133317,-0.00139571,-0.000849738,-0.00536271,-1.23736,0.00332825,0.0407453,685,1044,-63.4532,-0.54771
-532,-20,-63.4074,0.563354,-0.00658227,-0.00188169,-0.00107829,-0.00164614,-0.00681782,-1.35573,0.00410795,0.0388655,692,1044,-63.4074,-0.563358
-525,-20,0,0,0,0,0,0,0,0,0,-1,699,1044,0,0
-518,-20,0,0,0,0,0,0,0,0,0,-1,706,1044,0,0
-511,-20,0,0,0,0,0,0,0,0,0,-1,713,1044,0,0
-504,-20,0,0,0,0,0,0,0,0,0,-1,720,1044,0,0
-497,-20,0,0,0,0,0,0,0,0,0,-1,727,1044,0,0
-490,-20,0,0,0,0,0,0,0,0,0,-1,734,1044,0,0
-483,-20,0,0,0,0,0,0,0,0,0,-1,741,1044,0,0
-476,-20,0,0,0,0,0,0,0,0,0,-1,748,1044,0,0
-469,-20,0,0,0,0,0,0,0,0,0,-1,755,1044,0,0
-462,-20,0,0,0,0,0,0,0,0,0,-1,762,1044,0,0
-455,-20,0,0,0,0,0,0,0,0,0,-1,769,1044,0,0
-448,-20,0,0,0,0,0,0,0,0,0,-1,776,1044,0,0
-441,-20,0,0,0,0,0,0,0,0,0,-1,783,1044,0,0
-434,-20,0,0,0,0,0,0,0,0,0,-1,790,1044,0,0
-427,-20,0,0,0,0,0,0,0,0,0,-1,797,1044,0,0
-420,-20,0,0,0,0,0,0,0,0,0,-1,804,1044,0,0
-413,-20,0,0,0,0,0,0,0,0,0,-1,811,1044,0,0
-406,-20,0,0,0,0,0,0,0,0,0,-1,818,1044,0,0
-399,-20,0,0,0,0,0,0,0,0,0,-1,825,1044,0,0
-392,-20,0,0,0,0,0,0,0,0,0,-1,832,1044,0,0
-385,-20,0,0,0,0,0,0,0,0,0,-1,839,1044,0,0
-378,-20,0,0,0,0,0,0,0,0,0,-1,846,1044,0,0
-371,-20,0,0,0,0,0,0,0,0,0,-1,853,1044,0,0
-364,-20,0,0,0,0,0,0,0,0,0,-1,860,1044,0,0
-357,-20,0,0,0,0,0,0,0,0,0,-1,867,1044,0,0
-350,-20,0,0,0,0,0,0,0,0,0,-1,874,1044,0,0
-343,-20,0,0,0,0,0,0,0,0,0,-1,881,1044,0,0
-336,-20,0,0,0,0,0,0,0,0,0,-1,888,1044,0,0
-329,-20,0,0,0,0,0,0,0,0,0,-1,895,1044,0,0
-322,-20,0,0,0,0,0,0,0,0,0,-1,902,1044,0,0
-315,-20,0,0,0,0,0,0,0,0,0,-1,909,1044,0,0
-308,-20,0,0,0,0,0,0,0,0,0,-1,916,1044,0,0
-301,-20,0,0,0,0,0,0,0,0,0,-1,923,1044,0,0
-294,-20,0,0,0,0,0,0,0,0,0,-1,930,1044,0,0
-287,-20,0,0,0,0,0,0,0,0,0,-1,937,1044,0,0
-280,-20,0,0,0,0,0,0,0,0,0,-1,944,1044,0,0
-273,-20,0,0,0,0,0,0,0,0,0,-1,951,1044,0,0
-266,-20,0,0,0,0,0,0,0,0,0,-1,958,1044,0,0
-259,-20,0,0,0,0,0,0,0,0,0,-1,965,1044,0,0
-252,-20,0,0,0,0,0,0,0,0,0,-1,972,1044,0,0
-245,-20,0,0,0,0,0,0,0,0,0,-1,979,1044,0,0
-238,-20,0,0,0,0,0,0,0,0,0,-1,986,1044,0,0
-231,-20,0,0,0,0,0,0,0,0,0,-1,993,1044,0,0
-224,-20,0,0,0,0,0,0,0,0,0,-1,1000,1044,0,0
-217,-20,0,0,0,0,0,0,0,0,0,-1,1007,1044,0,0
-210,-20,0,0,0,0,0,0,0,0,0,-1,1014,1044,0,0
-203,-20,0,0,0,0,0,0,0,0,0,-1,1021,1044,0,0
-196,-20,0,0,0,0,0,0,0,0,0,-1,1028,1044,0,0
-189,-20,0,0,0,0,0,0,0,0,0,-1,1035,1044,0,0
-182,-20,0,0,0,0,0,0,0,0,0,-1,1042,1044,0,0
-175,-20,0,0,0,0,0,0,0,0,0,-1,1049,1044,0,0
-168,-20,0,0,0,0,0,0,0,0,0,-1,1056,1044,0,0
-161,-20,0,0,0,0,0,0,0,0,0,-1,1063,1044,0,0
-154,-20,0,0,0,0,0,0,0,0,0,-1,1070,1044,0,0
-147,-20,0,0,0,0,0,0,0,0,0,-1,1077,1044,0,0
-140,-20,0,0,0,0,0,0,0,0,0,-1,1084,1044,0,0
-133,-20,0,0,0,0,0,0,0,0,0,-1,1091,1044,0,0
-126,-20,0,0,0,0,0,0,0,0,0,-1,1098,1044,0,0
-119,-20,0,0,0,0,0,0,0,0,0,-1,1105,1044,0,0
-112,-20,0,0,0,0,0,0,0,0,0,-1,1112,1044,0,0
-105,-20,0,0,0,0,0,0,0,0,0,-1,1119,1044,0,0
-98,-20,0,0,0,0,0,0,0,0,0,-1,1126,1044,0,0
-91,-20,0,0,0,0,0,0,0,0,0,-1,1133,1044,0,0
-84,-20,0,0,0,0,0,0,0,0,0,-1,1140,1044,0,0
-77,-20,0,0,0,0,0,0,0,0,0,-1,1147,1044,0,0
-70,-20,0,0,0,0,0,0,0,0,0,-1,1154,1044,0,0
-63,-20,0,0,0,0,0,0,0,0,0,-1,1161,1044,0,0
-56,-20,0,0,0,0,0,0,0,0,0,-1,1168,1044,0,0
-49,-20,0,0,0,0,0,0,0,0,0,-1,1175,1044,0,0
-42,-20,0,0,0,0,0,0,0,0,0,-1,1182,1044,0,0
-35,-20,0,0,0,0,0,0,0,0,0,-1,1189,1044,0,0
-28,-20,0,0,0,0,0,0,0,0,0,-1,1196,1044,0,0
-21,-20,0,0,0,0,0,0,0,0,0,-1,1203,1044,0,0
-14,-20,0,0,0,0,0,0,0,0,0,-1,1210,1044,0,0
-7,-20,0,0,0,0,0,0,0,0,0,-1,1217,1044,0,0
0,-20,0,0,0,0,0,0,0,0,0,-1,1224,1044,0,0
7,-20,0,0,0,0,0,0,0,0,0,-1,1231,1044,0,0
14,-20,0,0,0,0,0,0,0,0,0,-1,1238,1044,0,0
21,-20,0,0,0,0,0,0,0,0,0,-1,1245,1044,0,0
28,-20,0,0,0,0,0,0,0,0,0,-1,1252,1044,0,0
35,-20,0,0,0,0,0,0,0,0,0,-1,1259,1044,0,0
42,-20,0,0,0,0,0,0,0,0,0,-1,1266,1044,0,0
49,-20,0,0,0,0,0,0,0,0,0,-1,1273,1044,0,0
56,-20,0,0,0,0,0,0,0,0,0,-1,1280,1044,0,0
63,-20,0,0,0,0,0,0,0,0,0,-1,1287,1044,0,0
70,-20,0,0,0,0,0,0,0,0,0,-1,1294,1044,0,0
77,-20,0,0,0,0,0,0,0,0,0,-1,1301,1044,0,0
84,-20,0,0,0,0,0,0,0,0,0,-1,1308,1044,0,0
91,-20,0,0,0,0,0,0,0,0,0,-1,1315,1044,0,0
98,-20,0,0,0,0,0,0,0,0,0,-1,1322,1044,0,0
105,-20,0,0,0,0,0,0,0,0,0,-1,1329,1044,0,0
112,-20,0,0,0,0,0,0,0,0,0,-1,1336,1044,0,0
119,-20,0,0,0,0,0,0,0,0,0,-1,1343,1044,0,0
126,-20,0,0,0,0,0,0,0,0,0,-1,1350,1044,0,0
133,-20,0,0,0,0,0,0,0,0,0,-1,1357,1044,0,0
140,-20,0,0,0,0,0,0,0,0,0,-1,1364,1044,0,0
147,-20,0,0,0,0,0,0,0,0,0,-1,1371,1044,0,0
154,-20,0,0,0,0,0,0,0,0,0,-1,1378,1044,0,0
161,-20,0,0,0,0,0,0,0,0,0,-1,1385,1044,0,0
168,-20,0,0,0,0,0,0,0,0,0,-1,1392,1044,0,0
175,-20,0,0,0,0,0,0,0,0,0,-1,1399,1044,0,0
182,-20,0,0,0,0,0,0,0,0,0,-1,1406,1044,0,0
189,-20,0,0,0,0,0,0,0,0,0,-1,1413,1044,0,0
196,-20,0,0,0,0,0,0,0,0,0,-1,1420,1044,0,0
203,-20,0,0,0,0,0,0,0,0,0,-1,1427,1044,0,0
210,-20,0,0,0,0,0,0,0,0,0,-1,1434,1044,0,0
217,-20,0,0,0,0,0,0,0,0,0,-1,1441,1044,0,0
224,-20,0,0,0,0,0,0,0,0,0,-1,1448,1044,0,0
231,-20,0,0,0,0,0,0,0,0,0,-1,1455,1044,0,0
238,-20,0,0,0,0,0,0,0,0,0,-1,1462,1044,0,0
245,-20,0,0,0,0,0,0,0,0,0,-1,1469,1044,0,0
252,-20,0,0,0,0,0,0,0,0,0,-1,1476,1044,0,0
259,-20,0,0,0,0,0,0,0,0,0,-1,1483,1044,0,0
266,-20,0,0,0,0,0,0,0,0,0,-1,1490,1044,0,0
273,-20,0,0,0,0,0,0,0,0,0,-1,1497,1044,0,0
280,-20,0,0,0,0,0,0,0,0,0,-1,1504,1044,0,0
287,-20,0,0,0,0,0,0,0,0,0,-1,1511,1044,0,0
294,-20,0,0,0,0,0,0,0,0,0,-1,1518,1044,0,0
301,-20,0,0,0,0,0,0,0,0,0,-1,1525,1044,0,0
308,-20,0,0,0,0,0,0,0,0,0,-1,1532,1044,0,0
315,-20,0,0,0,0,0,0,0,0,0,-1,1539,1044,0,0
322,-20,0,0,0,0,0,0,0,0,0,-1,1546,1044,0,0
329,-20,0,0,0,0,0,0,0,0,0,-1,1553,1044,0,0
336,-20,0,0,0,0,0,0,0,0,0,-1,1560,1044,0,0
343,-20,0,0,0,0,0,0,0,0,0,-1,1567,1044,0,0
350,-20,0,0,0,0,0,0,0,0,0,-1,1574,1044,0,0
357,-20,0,0,0,0,0,0,0,0,0,-1,1581,1044,0,0
364,-20,0,0,0,0,0,0,0,0,0,-1,1588,1044,0,0
371,-20,0,0,0,0,0,0,0,0,0,-1,1595,1044,0,0
378,-20,0,0,0,0,0,0,0,0,0,-1,1602,1044,0,0
385,-20,0,0,0,0,0,0,0,0,0,-1,1609,1044,0,0
392,-20,0,0,0,0,0,0,0,0,0,-1,1616,1044,0,0
399,-20,0,0,0,0,0,0,0,0,0,-1,1623,1044,0,0
406,-20,0,0,0,0,0,0,0,0,0,-1,1630,1044,0,0
413,-20,0,0,0,0,0,0,0,0,0,-1,1637,1044,0,0
420,-20,0,0,0,0,0,0,0,0,0,-1,1644,1044,0,0
427,-20,0,0,0,0,0,0,0,0,0,-1,1651,1044,0,0
434,-20,0,0,0,0,0,0,0,0,0,-1,1658,1044,0,0
441,-20,0,0,0,0,0,0,0,0,0,-1,1665,1044,0,0
448,-20,0,0,0,0,0,0,0,0,0,-1,1672,1044,0,0
455,-20,0,0,0,0,0,0,0,0,0,-1,1679,1044,0,0
462,-20,0,0,0,0,0,0,0,0,0,-1,1686,1044,0,0
469,-20,0,0,0,0,0,0,0,0,0,-1,1693,1044,0,0
476,-20,0,0,0,0,0,0,0,0,0,-1,1700,1044,0,0
483,-20,0,0,0,0,0,0,0,0,0,-1,1707,1044,0,0
490,-20,0,0,0,0,0,0,0,0,0,-1,1714,1044,0,0
497,-20,0,0,0,0,0,0,0,0,0,-1,1721,1044,0,0
504,-20,0,0,0,0,0,0,0,0,0,-1,1728,1044,0,0
511,-20,0,0,0,0,0,0,0,0,0,-1,1735,1044,0,0
518,-20,0,0,0,0,0,0,0,0,0,-1,1742,1044,0,0
525,-20,0,0,0,0,0,0,0,0,0,-1,1749,1044,0,0
532,-20,0,0,0,0,0,0,0,0,0,-1,1756,1044,0,0
539,-20,0,0,0,0,0,0,0,0,0,-1,1763,1044,0,0
546,-20,0,0,0,0,0,0,0,0,0,-1,1770,1044,0,0
553,-20,0,0,0,0,0,0,0,0,0,-1,1777,1044,0,0
560,-20,0,0,0,0,0,0,0,0,0,-1,1784,1044,0,0
567,-20,0,0,0,0,0,0,0,0,0,-1,1791,1044,0,0
574,-20,0,0,0,0,0,0,0,0,0,-1,1798,1044,0,0
581,-20,0,0,0,0,0,0,0,0,0,-1,1805,1044,0,0
588,-20,0,0,0,0,0,0,0,0,0,-1,1812,1044,0,0
595,-20,0,0,0,0,0,0,0,0,0,-1,1819,1044,0,0
602,-20,0,0,0,0,0,0,0,0,0,-1,1826,1044,0,0
609,-20,0,0,0,0,0,0,0,0,0,-1,1833,1044,0,0
616,-20,0,0,0,0,0,0,0,0,0,-1,1840,1044,0,0
623,-20,0,0,0,0,0,0,0,0,0,-1,1847,1044,0,0
630,-20,0,0,0,0,0,0,0,0,0,-1,1854,1044,0,0
637,-20,0,0,0,0,0,0,0,0,0,-1,1861,1044,0,0
644,-20,0,0,0,0,0,0,0,0,0,-1,1868,1044,0,0
651,-20,80.2393,2.05688,0.000237557,0.00132026,-0.00224652,0.00308974,-0.00153192,-0.90363,0.00271837,0.038544,1875,1044,80.2392,-2.05686
658,-20,80.0815,2.10303,-0.000106586,0.00118872,-0.00180448,0.00245825,-0.00137611,-0.957696,0.00224297,0.0427633,1882,1044,80.0816,-2.10307
665,-20,79.9878,2.13086,-0.000351955,0.00103138,-0.0011997,0.00172452,-0.00104509,-1.04689,0.00161499,0.0388112,1889,1044,79.9877,-2.13083
672,-20,80.0306,2.13525,-0.000559489,0.000936381,-0.000495839,0.00108581,-0.000708919,-1.27809,0.00104378,0.0250528,1896,1044,80.0306,-2.13528
679,-20,80.025,2.1488,-0.000724541,0.000866063,0.00025992,0.000907459,-0.000765938,1.41286,0.000967287,0.0270778,1903,1044,80.0251,-2.1488
686,-20,79.944,2.05042,-0.00125637,0.000516235,0.000961158,0.000937356,-0.00167749,1.15785,0.00152971,0.0354829,1910,1044,79.9439,-2.05041
693,-20,79.8917,1.93787,-0.00172162,8.6842e-05,0.00151555,0.000947416,-0.00258219,1.05437,0.00210942,0.0385136,1917,1044,79.8917,-1.93781
700,-20,79.9924,2.07507,-0.00207053,-0.000189599,0.00196431,0.00104778,-0.0033079,1.00866,0.00262518,0.035892,1924,1044,79.9924,-2.07503
707,-20,80.0663,2.15845,-0.00282317,-4.28064e-06,0.0023313,0.00131052,-0.00413797,1.05729,0.00328384,0.0323624,1931,1044,80.0663,-2.1585
714,-20,80.0614,2.33801,-0.00393376,0.000764913,0.00245047,0.00181031,-0.00497916,1.16756,0.00405972,0.0307803,1938,1044,80.0614,-2.33804
721,-20,79.8815,2.38989,0,0,0,0,0,0,0,-1,1945,1044,79.8814,-2.38992
728,-20,80.485,8.04321,0,0,0,0,0,0,0,-1,1952,1044,80.485,-8.04325
735,-20,80.1626,7.88257,-0.00875613,0.0055973,0.00243038,0.00599766,-0.00915649,1.40753,0.00881238,0.0369687,1959,1044,80.1627,-7.88259
742,-20,79.8295,7.5105,-0.0100573,0.00772981,0.00218597,0.00799452,-0.010322,1.45029,0.0106035,0.0406,1966,1044,79.8294,-7.51051
749,-20,80.0205,7.39648,-0.0116246,0.0101443,0.00178472,0.0102897,-0.01177,1.48954,0.0127457,0.040136,1973,1044,80.0205,-7.39654
756,-20,80.022,7.28625,-0.013,0.0129433,0.00121724,0.0130003,-0.013057,1.52401,0.0150442,0.0234642,1980,1044,80.0219,-7.2863
763,-20,79.8997,7.11646,-0.0137601,0.0166973,0.000619433,0.0167098,-0.0137727,1.55047,0.0176263,0.0342039,1987,1044,79.8996,-7.11641
770,-20,79.7673,7.01611,-0.013626,0.0212177,-0.000255993,0.0212196,-0.0136279,-1.56345,0.0202777,0.0285513,1994,1044,79.7672,-7.01607
777,-20,79.5588,6.67761,-0.011498,0.0262877,-0.00130739,0.0263329,-0.0115432,-1.53625,0.0224166,0.0190816,2001,1044,79.5587,-6.67761
784,-20,79.5234,6.47925,-0.00773988,0.0308473,-0.00242842,0.0309995,-0.0078921,-1.50819,0.0237385,0.0232971,2008,1044,79.5234,-6.47924
791,-20,79.6245,6.14636,-0.00168793,0.0346102,-0.00365579,0.0349747,-0.00205247,-1.47141,0.0240299,0.0366637,2015,1044,79.6244,-6.14633
798,-20,79.4792,6.07654,0.00846639,0.0372934,-0.00491452,0.0381082,0.00765158,-1.40649,0.023278,0.0443919,2022,1044,79.4792,-6.07656
805,-20,79.4475,5.81384,0.0242618,0.0387557,-0.00576484,0.040769,0.0222485,-1.2348,0.0235708,0.0442304,2029,1044,79.4476,-5.81379
812,-20,79.5476,5.4563,0,0,0,0,0,0,0,-1,2036,1044,79.5476,-5.45628
-700,-27,-66.2896,6.38855,0,0,0,0,0,0,0,-1,524,1051,-66.2896,-6.38858
-693,-27,-65.3824,6.43262,0,0,0,0,0,0,0,-1,531,1051,-65.3824,-6.43259
-686,-27,-64.6846,6.41687,0,0,0,0,0,0,0,-1,538,1051,-64.6846,-6.41682
-679,-27,-63.5513,5.55493,0,0,0,0,0,0,0,-1,545,1051,-63.5513,-5.55498
-672,-27,-63.3859,5.30542,0,0,0,0,0,0,0,-1,552,1051,-63.3859,-5.30539
-665,-27,-64.6835,6.14441,0,0,0,0,0,0,0,-1,559,1051,-64.6835,-6.14442
-658,-27,-63.3134,5.23022,-0.00806995,0.0477401,-0.00978712,0.0494067,-0.0097365,-1.40213,0.0366173,0.0457654,566,1051,-63.3134,-5.23026
-651,-27,-63.4416,5.45618,-0.00878311,0.0410665,-0.00632071,0.0418555,-0.00957206,-1.44662,0.0315816,0.0372515,573,1051,-63.4416,-5.45621
-644,-27,-63.525,5.69751,-0.0080456,0.0333856,-0.00432281,0.0338318,-0.00849182,-1.46794,0.0258543,0.018536,580,1051,-63.5251,-5.69753
-637,-27,-63.595,5.90735,-0.00682861,0.0261684,-0.0030616,0.0264501,-0.00711028,-1.47906,0.0204204,0.016711,587,1051,-63.5949,-5.90731
-630,-27,-63.7379,6.35754,-0.00522037,0.0182214,-0.00269279,0.0185267,-0.00552572,-1.45788,0.0145472,0.0213616,594,1051,-63.7379,-6.35758
-623,-27,-63.8172,6.69177,-0.0037138,0.0119197,-0.00226536,0.0122413,-0.00403545,-1.42976,0.0097874,0.0193967,601,1051,-63.8172,-6.6918
-616,-27,-63.7514,6.9408,-0.00234845,0.00730882,-0.00190924,0.00767258,-0.00271221,-1.38253,0.00621947,0.0159555,608,1051,-63.7514,-6.94077
-609,-27,-63.6937,7.16504,-0.00095311,0.00401101,-0.00187281,0.00463829,-0.0015804,-1.2476,0.00373225,0.0145449,615,1051,-63.6937,-7.16504
-602,-27,-63.688,7.41541,3.66498e-06,0.00161841,-0.0016589,0.00265598,-0.0010339,-1.01187,0.0021979,0.0133613,622,1051,-63.688,-7.41543
-595,-27,-63.6738,7.70654,0.000312864,-8.74663e-05,-0.00155845,0.00168395,-0.00145855,-0.721528,0.00181588,0.0288363,629,1051,-63.6738,-7.70654
-588,-27,-63.8233,8.00964,0,0,0,0,0,0,0,-1,636,1051,-63.8233,-8.00968
-581,-27,-63.2391,0.338257,0.000867286,-0.00185405,-0.00136527,0.00143415,-0.00242092,-0.393543,0.0022499,0.0241459,643,1051,-63.2391,-0.338294
-574,-27,-63.2598,0.415039,0.000801556,-0.00218509,-0.00133207,0.00130934,-0.00269287,-0.364194,0.00235625,0.0342007,650,1051,-63.2597,-0.415094
-567,-27,-63.1509,0.625244,0.000291643,-0.00202073,-0.00123734,0.000828909,-0.00255799,-0.409646,0.0020386,0.0439379,657,1051,-63.151,-0.62528
-560,-27,-63.188,0.484497,-0.000568568,-0.00147483,-0.00112263,0.000188934,-0.00223233,-0.593581,0.00155503,0.0458798,664,1051,-63.188,-0.484494
-553,-27,-63.1583,0.323975,-0.00181685,-0.000847505,-0.00102056,-0.000202375,-0.00246198,-1.00708,0.00157819,0.0421667,671,1051,-63.1583,-0.324033
-546,-27,-63.2163,0.281128,-0.00336949,-0.000611179,-0.000943728,-0.0003192,-0.00366147,-1.27075,0.00234184,0.0416537,678,1051,-63.2163,-0.281147
-539,-27,-63.3911,0.329102,-0.005327,-0.00107687,-0.00086174,-0.000908792,-0.00549507,-1.37817,0.00340117,0.0392849,685,1051,-63.3911,-0.329044
-532,-27,-63.4257,0.156738,-0.00726116,-0.00148815,-0.000342741,-0.00146787,-0.00728144,-1.5117,0.00444651,0.0386043,692,1051,-63.4257,-0.156689
-525,-27,0,0,0,0,0,0,0,0,0,-1,699,1051,0,0
-518,-27,0,0,0,0,0,0,0,0,0,-1,706,1051,0,0
-511,-27,0,0,0,0,0,0,0,0,0,-1,713,1051,0,0
-504,-27,0,0,0,0,0,0,0,0,0,-1,720,1051,0,0
-497,-27,0,0,0,0,0,0,0,0,0,-1,727,1051,0,0
-490,-27,0,0,0,0,0,0,0,0,0,-1,734,1051,0,0
-483,-27,0,0,0,0,0,0,0,0,0,-1,741,1051,0,0
-476,-27,0,0,0,0,0,0,0,0,0,-1,748,1051,0,0
-469,-27,0,0,0,0,0,0,0,0,0,-1,755,1051,0,0
-462,-27,0,0,0,0,0,0,0,0,0,-1,762,1051,0,0
-455,-27,0,0,0,0,0,0,0,0,0,-1,769,1051,0,0
-448,-27,0,0,0,0,0,0,0,0,0,-1,776,1051,0,0
-441,-27,0,0,0,0,0,0,0,0,0,-1,783,1051,0,0
-434,-27,0,0,0,0,0,0,0,0,0,-1,790,1051,0,0
-427,-27,0,0,0,0,0,0,0,0,0,-1,797,1051,0,0
-420,-27,0,0,0,0,0,0,0,0,0,-1,804,1051,0,0
-413,-27,0,0,0,0,0,0,0,0,0,-1,811,1051,0,0
-406,-27,0,0,0,0,0,0,0,0,0,-1,818,1051,0,0
-399,-27,0,0,0,0,0,0,0,0,0,-1,825,1051,0,0
-392,-27,0,0,0,0,0,0,0,0,0,-1,832,1051,0,0
-385,-27,0,0,0,0,0,0,0,0,0,-1,839,1051,0,0
-378,-27,0,0,0,0,0,0,0,0,0,-1,846,1051,0,0
-371,-27,0,0,0,0,0,0,0,0,0,-1,853,1051,0,0
-364,-27,0,0,0,0,0,0,0,0,0,-1,860,1051,0,0
-357,-27,0,0,0,0,0,0,0,0,0,-1,867,1051,0,0
-350,-27,0,0,0,0,0,0,0,0,0,-1,874,1051,0,0
-343,-27,0,0,0,0,0,0,0,0,0,-1,881,1051,0,0
-336,-27,0,0,0,0,0,0,0,0,0,-1,888,1051,0,0
-329,-27,0,0,0,0,0,0,0,0,0,-1,895,1051,0,0
-322,-27,0,0,0,0,0,0,0,0,0,-1,902,1051,0,0
-315,-27,0,0,0,0,0,0,0,0,0,-1,909,1051,0,0
-308,-27,0,0,0,0,0,0,0,0,0,-1,916,1051,0,0
-301,-27,0,0,0,0,0,0,0,0,0,-1,923,1051,0,0
-294,-27,0,0,0,0,0,0,0,0,0,-1,930,1051,0,0
-287,-27,0,0,0,0,0,0,0,0,0,-1,937,1051,0,0
-280,-27,0,0,0,0,0,0,0,0,0,-1,944,1051,0,0
-273,-27,0,0,0,0,0,0,0,0,0,-1,951,1051,0,0
-266,-27,0,0,0,0,0,0,0,0,0,-1,958,1051,0,0
-259,-27,0,0,0,0,0,0,0,0,0,-1,965,1051,0,0
-252,-27,0,0,0,0,0,0,0,0,0,-1,972,1051,0,0
-245,-27,0,0,0,0,0,0,0,0,0,-1,979,1051,0,0
-238,-27,0,0,0,0,0,0,0,0,0,-1,986,1051,0,0
-231,-27,0,0,0,0,0,0,0,0,0,-1,993,1051,0,0
-224,-27,0,0,0,0,0,0,0,0,0,-1,1000,1051,0,0
-217,-27,0,0,0,0,0,0,0,0,0,-1,1007,1051,0,0
-210,-27,0,0,0,0,0,0,0,0,0,-1,1014,1051,0,0
-203,-27,0,0,0,0,0,0,0,0,0,-1,1021,1051,0,0
-196,-27,0,0,0,0,0,0,0,0,0,-1,1028,1051,0,0
-189,-27,0,0,0,0,0,0,0,0,0,-1,1035,1051,0,0
-182,-27,0,0,0,0,0,0,0,0,0,-1,1042,1051,0,0
-175,-27,0,0,0,0,0,0,0,0,0,-1,1049,1051,0,0
-168,-27,0,0,0,0,0,0,0,0,0,-1,1056,1051,0,0
-161,-27,0,0,0,0,0,0,0,0,0,-1,1063,1051,0,0
-154,-27,0,0,0,0,0,0,0,0,0,-1,1070,1051,0,0
-147,-27,0,0,0,0,0,0,0,0,0,-1,1077,1051,0,0
-140,-27,0,0,0,0,0,0,0,0,0,-1,1084,1051,0,0
-133,-27,0,0,0,0,0,0,0,0,0,-1,1091,1051,0,0
-126,-27,0,0,0,0,0,0,0,0,0,-1,1098,1051,0,0
-119,-27,0,0,0,0,0,0,0,0,0,-1,1105,1051,0,0
-112,-27,0,0,0,0,0,0,0,0,0,-1,1112,1051,0,0
-105,-27,0,0,0,0,0,0,0,0,0,-1,1119,1051,0,0
-98,-27,0,0,0,0,0,0,0,0,0,-1,1126,1051,0,0
-91,-27,0,0,0,0,0,0,0,0,0,-1,1133,1051,0,0
-84,-27,0,0,0,0,0,0,0,0,0,-1,1140,1051,0,0
-77,-27,0,0,0,0,0,0,0,0,0,-1,1147,1051,0,0
-70,-27,0,0,0,0,0,0,0,0,0,-1,1154,1051,0,0
-63,-27,0,0,0,0,0,0,0,0,0,-1,1161,1051,0,0
-56,-27,0,0,0,0,0,0,0,0,0,-1,1168,1051,0,0
-49,-27,0,0,0,0,0,0,0,0,0,-1,1175,1051,0,0
-42,-27,0,0,0,0,0,0,0,0,0,-1,1182,1051,0,0
-35,-27,0,0,0,0,0,0,0,0,0,-1,1189,1051,0,0
-28,-27,0,0,0,0,0,0,0,0,0,-1,1196,1051,0,0
-21,-27,0,0,0,0,0,0,0,0,0,-1,1203,1051,0,0
-14,-27,0,0,0,0,0,0,0,0,0,-1,1210,1051,0,0
-7,-27,0,0,0,0,0,0,0,0,0,-1,1217,1051,0,0
0,-27,0,0,0,0,0,0,0,0,0,-1,1224,1051,0,0
7,-27,0,0,0,0,0,0,0,0,0,-1,1231,1051,0,0
14,-27,0,0,0,0,0,0,0,0,0,-1,1238,1051,0,0
21,-27,0,0,0,0,0,0,0,0,0,-1,1245,1051,0,0
28,-27,0,0,0,0,0,0,0,0,0,-1,1252,1051,0,0
35,-27,0,0,0,0,0,0,0,0,0,-1,1259,1051,0,0
42,-27,0,0,0,0,0,0,0,0,0,-1,1266,1051,0,0
49,-27,0,0,0,0,0,0,0,0,0,-1,1273,1051,0,0
56,-27,0,0,0,0,0,0,0,0,0,-1,1280,1051,0,0
63,-27,0,0,0,0,0,0,0,0,0,-1,1287,1051,0,0
70,-27,0,0,0,0,0,0,0,0,0,-1,1294,1051,0,0
77,-27,0,0,0,0,0,0,0,0,0,-1,1301,1051,0,0
84,-27,0,0,0,0,0,0,0,0,0,-1,1308,1051,0,0
91,-27,0,0,0,0,0,0,0,0,0,-1,1315,1051,0,0
98,-27,0,0,0,0,0,0,0,0,0,-1,1322,1051,0,0
105,-27,0,0,0,0,0,0,0,0,0,-1,1329,1051,0,0
112,-27,0,0,0,0,0,0,0,0,0,-1,1336,1051,0,0
119,-27,0,0,0,0,0,0,0,0,0,-1,1343,1051,0,0
126,-27,0,0,0,0,0,0,0,0,0,-1,1350,1051,0,0
133,-27,0,0,0,0,0,0,0,0,0,-1,1357,1051,0,0
140,-27,0,0,0,0,0,0,0,0,0,-1,1364,1051,0,0
147,-27,0,0,0,0,0,0,0,0,0,-1,1371,1051,0,0
154,-27,0,0,0,0,0,0,0,0,0,-1,1378,1051,0,0
161,-27,0,0,0,0,0,0,0,0,0,-1,1385,1051,0,0
168,-27,0,0,0,0,0,0,0,0,0,-1,1392,1051,0,0
175,-27,0,0,0,0,0,0,0,0,0,-1,1399,1051,0,0
182,-27,0,0,0,0,0,0,0,0,0,-1,1406,1051,0,0
189,-27,0,0,0,0,0,0,0,0,0,-1,1413,1051,0,0
196,-27,0,0,0,0,0,0,0,0,0,-1,1420,1051,0,0
203,-27,0,0,0,0,0,0,0,0,0,-1,1427,1051,0,0
210,-27,0,0,0,0,0,0,0,0,0,-1,1434,1051,0,0
217,-27,0,0,0,0,0,0,0,0,0,-1,1441,1051,0,0
224,-27,0,0,0,0,0,0,0,0,0,-1,1448,1051,0,0
231,-27,0,0,0,0,0,0,0,0,0,-1,1455,1051,0,0
238,-27,0,0,0,0,0,0,0,0,0,-1,1462,1051,0,0
245,-27,0,0,0,0,0,0,0,0,0,-1,1469,1051,0,0
252,-27,0,0,0,0,0,0,0,0,0,-1,1476,1051,0,0
259,-27,0,0,0,0,0,0,0,0,0,-1,1483,1051,0,0
266,-27,0,0,0,0,0,0,0,0,0,-1,1490,1051,0,0
273,-27,0,0,0,0,0,0,0,0,0,-1,1497,1051,0,0
280,-27,0,0,0,0,0,0,0,0,0,-1,1504,1051,0,0
287,-27,0,0,0,0,0,0,0,0,0,-1,1511,1051,0,0
294,-27,0,0,0,0,0,0,0,0,0,-1,1518,1051,0,0
301,-27,0,0,0,0,0,0,0,0,0,-1,1525,1051,0,0
308,-27,0,0,0,0,0,0,0,0,0,-1,1532,1051,0,0
315,-27,0,0,0,0,0,0,0,0,0,-1,1539,1051,0,0
322,-27,0,0,0,0,0,0,0,0,0,-1,1546,1051,0,0
329,-27,0,0,0,0,0,0,0,0,0,-1,1553,1051,0,0
336,-27,0,0,0,0,0,0,0,0,0,-1,1560,1051,0,0
343,-27,0,0,0,0,0,0,0,0,0,-1,1567,1051,0,0
350,-27,0,0,0,0,0,0,0,0,0,-1,1574,1051,0,0
357,-27,0,0,0,0,0,0,0,0,0,-1,1581,1051,0,0
364,-27,0,0,0,0,0,0,0,0,0,-1,1588,1051,0,0
371,-27,0,0,0,0,0,0,0,0,0,-1,1595,1051,0,0
378,-27,0,0,0,0,0,0,0,0,0,-1,1602,1051,0,0
385,-27,0,0,0,0,0,0,0,0,0,-1,1609,1051,0,0
392,-27,0,0,0,0,0,0,0,0,0,-1,1616,1051,0,0
399,-27,0,0,0,0,0,0,0,0,0,-1,1623,1051,0,0
406,-27,0,0,0,0,0,0,0,0,0,-1,1630,1051,0,0
413,-27,0,0,0,0,0,0,0,0,0,-1,1637,1051,0,0
420,-27,0,0,0,0,0,0,0,0,0,-1,1644,1051,0,0
427,-27,0,0,0,0,0,0,0,0,0,-1,1651,1051,0,0
434,-27,0,0,0,0,0,0,0,0,0,-1,1658,1051,0,0
441,-27,0,0,0,0,0,0,0,0,0,-1,1665,1051,0,0
448,-27,0,0,0,0,0,0,0,0,0,-1,1672,1051,0,0
455,-27,0,0,0,0,0,0,0,0,0,-1,1679,1051,0,0
462,-27,0,0,0,0,0,0,0,0,0,-1,1686,1051,0,0
469,-27,0,0,0,0,0,0,0,0,0,-1,1693,1051,0,0
476,-27,0,0,0,0,0,0,0,0,0,-1,1700,1051,0,0
483,-27,0,0,0,0,0,0,0,0,0,-1,1707,1051,0,0
490,-27,0,0,0,0,0,0,0,0,0,-1,1714,1051,0,0
497,-27,0,0,0,0,0,0,0,0,0,-1,1721,1051,0,0
504,-27,0,0,0,0,0,0,0,0,0,-1,1728,1051,0,0
511,-27,0,0,0,0,0,0,0,0,0,-1,1735,1051,0,0
518,-27,0,0,0,0,0,0,0,0,0,-1,1742,1051,0,0
525,-27,0,0,0,0,0,0,0,0,0,-1,1749,1051,0,0
532,-27,0,0,0,0,0,0,0,0,0,-1,1756,1051,0,0
539,-27,0,0,0,0,0,0,0,0,0,-1,1763,1051,0,0
546,-27,0,0,0,0,0,0,0,0,0,-1,1770,1051,0,0
553,-27,0,0,0,0,0,0,0,0,0,-1,1777,1051,0,0
560,-27,0,0,0,0,0,0,0,0,0,-1,1784,1051,0,0
567,-27,0,0,0,0,0,0,0,0,0,-1,1791,1051,0,0
574,-27,0,0,0,0,0,0,0,0,0,-1,1798,1051,0,0
581,-27,0,0,0,0,0,0,0,0,0,-1,1805,1051,0,0
588,-27,0,0,0,0,0,0,0,0,0,-1,1812,1051,0,0
595,-27,0,0,0,0,0,0,0,0,0,-1,1819,1051,0,0
602,-27,0,0,0,0,0,0,0,0,0,-1,1826,1051,0,0
609,-27,0,0,0,0,0,0,0,0,0,-1,1833,1051,0,0
616,-27,0,0,0,0,0,0,0,0,0,-1,1840,1051,0,0
623,-27,0,0,0,0,0,0,0,0,0,-1,1847,1051,0,0
630,-27,0,0,0,0,0,0,0,0,0,-1,1854,1051,0,0
637,-27,0,0,0,0,0,0,0,0,0,-1,1861,1051,0,0
644,-27,0,0,0,0,0,0,0,0,0,-1,1868,1051,0,0
651,-27,80.1221,2.20972,0.000240722,0.00176577,-0.00228695,0.00341396,-0.00140747,-0.946314,0.00286288,0.0385036,1875,1051,80.1221,-2.20976
658,-27,80.1356,2.28723,-0.000111063,0.00122383,-0.00174168,0.00242158,-0.00130881,-0.968377,0.00218545,0.0404031,1882,1051,80.1357,-2.28726
665,-27,80.1163,2.20984,-0.000369988,0.000802809,-0.00108771,0.00145212,-0.0010193,-1.03262,0.00143415,0.0380783,1889,1051,80.1163,-2.20986
672,-27,80.09,2.16675,-0.000583961,0.000543907,-0.000369177,0.000654001,-0.000694055,-1.28098,0.000778415,0.0301797,1896,1051,80.09,-2.16681
679,-27,80.0343,2.19031,-0.00075804,0.000362738,0.000375407,0.000476861,-0.000872162,1.27568,0.000789927,0.029534,1903,1051,80.0343,-2.19033
686,-27,80.0641,2.03223,-0.00131589,-3.38318e-05,0.00105751,0.000561762,-0.00191148,1.05787,0.00149713,0.0383002,1910,1051,80.0641,-2.03218
693,-27,80.0302,1.89099,-0.00184496,-0.000455229,0.00160514,0.000598991,-0.00289918,0.98967,0.00216031,0.0404819,1917,1051,80.0301,-1.89094
700,-27,80.0496,2.01929,-0.00224545,-0.000698923,0.00206515,0.000732981,-0.00367736,0.964536,0.00272891,0.0373426,1924,1051,80.0495,-2.01924
707,-27,80.0192,2.1582,-0.00300506,-0.000520417,0.00247155,0.00100347,-0.00452895,1.01828,0.00340346,0.0252635,1931,1051,80.0192,-2.1582
714,-27,80.066,2.26233,-0.0040708,0.000208678,0.00267445,0.00149402,-0.00535614,1.12279,0.00415919,0.0230634,1938,1051,80.066,-2.26234
721,-27,79.9916,2.47131,0,0,0,0,0,0,0,-1,1945,1051,79.9915,-2.47134
728,-27,80.4562,8.0907,0,0,0,0,0,0,0,-1,1952,1051,80.4562,-8.09065
735,-27,79.9808,8.00867,-0.00865781,0.00488854,0.00273808,0.00542105,-0.00919031,1.37871,0.00852893,0.0293442,1959,1051,79.9808,-8.00862
742,-27,79.735,7.78333,-0.0098742,0.00696121,0.00246189,0.00731383,-0.0102268,1.42853,0.0101735,0.0224141,1966,1051,79.735,-7.78327
749,-27,79.7742,7.43335,-0.0113294,0.00933189,0.00209369,0.00954191,-0.0115395,1.47082,0.0121895,0.0183462,1973,1051,79.7741,-7.43331
756,-27,79.7395,7.19739,-0.0124857,0.0120691,0.0014821,0.0121582,-0.0125749,1.51073,0.0142803,0.0184249,1980,1051,79.7395,-7.19742
763,-27,79.6101,6.96069,-0.0128649,0.0157158,0.00086831,0.0157421,-0.0128913,1.54045,0.0165588,0.0173976,1987,1051,79.6101,-6.96073
770,-27,79.4968,6.70007,-0.0123351,0.0201121,-6.84557e-05,0.0201123,-0.0123353,-1.56869,0.0189121,0.0179915,1994,1051,79.4968,-6.70008
777,-27,79.3362,6.55261,-0.00955109,0.0251437,-0.00116035,0.0251824,-0.00958985,-1.5374,0.0207377,0.0224693,2001,1051,79.3361,-6.5526
784,-27,79.2107,6.45496,-0.0050321,0.0297638,-0.00227277,0.0299117,-0.00517993,-1.50585,0.0218732,0.0315266,2008,1051,79.2108,-6.45493
791,-27,79.0757,5.90234,0.00198218,0.0337514,-0.00340166,0.0341116,0.00162203,-1.46532,0.0222201,0.0433135,2015,1051,79.0758,-5.90232
798,-27,79.0913,5.41052,0.0132615,0.0368858,-0.00442495,0.0376875,0.0124599,-1.39158,0.0221712,0.0472118,2022,1051,79.0914,-5.41058
805,-27,79.4897,5.28467,0,0,0,0,0,0,0,-1,2029,1051,79.4897,-5.28467
812,-27,79.665,4.9552,0,0,0,0,0,0,0,-1,2036,1051,79.665,-4.95516
-700,-34,-67.1276,6.1377,0,0,0,0,0,0,0,-1,524,1058,-67.1276,-6.13767
-693,-34,-66.0482,6.26587,0,0,0,0,0,0,0,-1,531,1058,-66.0482,-6.26585
-686,-34,-65.1125,6.56738,0,0,0,0,0,0,0,-1,538,1058,-65.1125,-6.56741
-679,-34,-63.078,5.28552,0,0,0,0,0,0,0,-1,545,1058,-63.078,-5.28552
-672,-34,-62.9353,5.05383,0,0,0,0,0,0,0,-1,552,1058,-62.9353,-5.05384
-665,-34,-63.047,4.5603,0,0,0,0,0,0,0,-1,559,1058,-63.047,-4.5603
-658,-34,-63.1428,4.89697,-0.00452718,0.0445009,-0.00825493,0.0458535,-0.00587977,-1.40839,0.0327056,0.0454003,566,1058,-63.1428,-4.89697
-651,-34,-63.2249,5.19104,-0.00601296,0.038604,-0.00540463,0.0392494,-0.00665831,-1.45195,0.0286448,0.0318365,573,1058,-63.2249,-5.19108
-644,-34,-63.3026,5.48718,-0.00597603,0.031551,-0.00382163,0.0319362,-0.00636126,-1.47033,0.0236976,0.0146321,580,1058,-63.3025,-5.48721
-637,-34,-63.3503,5.81323,-0.00518563,0.024899,-0.00280695,0.0251586,-0.00544528,-1.47856,0.0188515,0.0163713,587,1058,-63.3504,-5.81328
-630,-34,-63.4197,6.24023,-0.00389629,0.017292,-0.00271113,0.0176334,-0.00423768,-1.44553,0.0133935,0.0195421,594,1058,-63.4197,-6.24022
-623,-34,-63.4316,6.59375,-0.00255118,0.011207,-0.00244348,0.0116281,-0.00297226,-1.40015,0.00890965,0.016048,601,1058,-63.4316,-6.5938
-616,-34,-63.3436,6.98962,-0.00126795,0.00677164,-0.00218927,0.00732914,-0.00182545,-1.32144,0.00559475,0.0230336,608,1058,-63.3436,-6.98968
-609,-34,-63.2777,7.32397,8.02421e-05,0.00361676,-0.00220011,0.00467113,-0.00097413,-1.1239,0.00348448,0.0223727,615,1058,-63.2777,-7.32394
-602,-34,-63.3018,7.54382,0.000996171,0.00132094,-0.00200561,0.00317073,-0.000853622,-0.825792,0.00244847,0.0167804,622,1058,-63.3018,-7.54381
-595,-34,-63.4321,7.79504,0.00126443,-0.000313334,-0.00187585,0.00251053,-0.00155944,-0.586353,0.00237109,0.0204577,629,1058,-63.4321,-7.79502
-588,-34,-63.7651,8.06372,0,0,0,0,0,0,0,-1,636,1058,-63.7651,-8.06366
-581,-34,-63.2326,0.349487,0.00160046,-0.00189276,-0.0014935,0.00215193,-0.00244423,-0.353719,0.00265538,0.0253401,643,1058,-63.2326,-0.349472
-574,-34,-63.281,0.411377,0.00144284,-0.00213186,-0.00136392,0.0019038,-0.00259281,-0.325915,0.00260626,0.0328766,650,1058,-63.281,-0.411416
-567,-34,-63.2343,0.350586,0.000803627,-0.00191174,-0.00116295,0.00123361,-0.00234172,-0.354148,0.00209701,0.0413637,657,1058,-63.2342,-0.350558
-560,-34,-63.2616,0.231567,-0.00026713,-0.00134421,-0.000914834,0.000255907,-0.00186725,-0.519372,0.00133832,0.0433156,664,1058,-63.2616,-0.23161
-553,-34,-63.163,0.218872,-0.00177871,-0.000718291,-0.000635652,-0.000420747,-0.00207625,-1.133,0.00126742,0.0432102,671,1058,-63.163,-0.218925
-546,-34,-63.1718,0.254272,-0.00364291,-0.000490683,-0.000345658,-0.000453225,-0.00368037,-1.46285,0.00231733,0.0448916,678,1058,-63.1718,-0.254232
-539,-34,-63.2568,0.203857,-0.00593343,-0.00105074,-4.60658e-05,-0.00105031,-0.00593386,-1.56136,0.00365644,0.0417551,685,1058,-63.2569,-0.203816
-532,-34,-63.3098,0.383545,-0.00820448,-0.00150515,0.000706883,-0.00143137,-0.00827826,1.46681,0.005109,0.0394684,692,1058,-63.3098,-0.383541
-525,-34,0,0,0,0,0,0,0,0,0,-1,699,1058,0,0
-518,-34,0,0,0,0,0,0,0,0,0,-1,706,1058,0,0
-511,-34,0,0,0,0,0,0,0,0,0,-1,713,1058,0,0
-504,-34,0,0,0,0,0,0,0,0,0,-1,720,1058,0,0
-497,-34,0,0,0,0,0,0,0,0,0,-1,727,1058,0,0
-490,-34,0,0,0,0,0,0,0,0,0,-1,734,1058,0,0
-483,-34,0,0,0,0,0,0,0,0,0,-1,741,1058,0,0
-476,-34,0,0,0,0,0,0,0,0,0,-1,748,1058,0,0
-469,-34,0,0,0,0,0,0,0,0,0,-1,755,1058,0,0
-462,-34,0,0,0,0,0,0,0,0,0,-1,762,1058,0,0
-455,-34,0,0,0,0,0,0,0,0,0,-1,769,1058,0,0
-448,-34,0,0,0,0,0,0,0,0,0,-1,776,1058,0,0
-441,-34,0,0,0,0,0,0,0,0,0,-1,783,1058,0,0
-434,-34,0,0,0,0,0,0,0,0,0,-1,790,1058,0,0
-427,-34,0,0,0,0,0,0,0,0,0,-1,797,1058,0,0
-420,-34,0,0,0,0,0,0,0,0,0,-1,804,1058,0,0
-413,-34,0,0,0,0,0,0,0,0,0,-1,811,1058,0,0
-406,-34,0,0,0,0,0,0,0,0,0,-1,818,1058,0,0
-399,-34,0,0,0,0,0,0,0,0,0,-1,825,1058,0,0
-392,-34,0,0,0,0,0,0,0,0,0,-1,832,1058,0,0
-385,-34,0,0,0,0,0,0,0,0,0,-1,839,1058,0,0
-378,-34,0,0,0,0,0,0,0,0,0,-1,846,1058,0,0
-371,-34,0,0,0,0,0,0,0,0,0,-1,853,1058,0,0
-364,-34,0,0,0,0,0,0,0,0,0,-1,860,1058,0,0
-357,-34,0,0,0,0,0,0,0,0,0,-1,867,1058,0,0
-350,-34,0,0,0,0,0,0,0,0,0,-1,874,1058,0,0
-343,-34,0,0,0,0,0,0,0,0,0,-1,881,1058,0,0
-336,-34,0,0,0,0,0,0,0,0,0,-1,888,1058,0,0
-329,-34,0,0,0,0,0,0,0,0,0,-1,895,1058,0,0
-322,-34,0,0,0,0,0,0,0,0,0,-1,902,1058,0,0
-315,-34,0,0,0,0,0,0,0,0,0,-1,909,1058,0,0
-308,-34,0,0,0,0,0,0,0,0,0,-1,916,1058,0,0
-301,-34,0,0,0,0,0,0,0,0,0,-1,923,1058,0,0
-294,-34,0,0,0,0,0,0,0,0,0,-1,930,1058,0,0
-287,-34,0,0,0,0,0,0,0,0,0,-1,937,1058,0,0
-280,-34,0,0,0,0,0,0,0,0,0,-1,944,1058,0,0
-273,-34,0,0,0,0,0,0,0,0,0,-1,951,1058,0,0
-266,-34,0,0,0,0,0,0,0,0,0,-1,958,1058,0,0
-259,-34,0,0,0,0,0,0,0,0,0,-1,965,1058,0,0
-252,-34,0,0,0,0,0,0,0,0,0,-1,972,1058,0,0
-245,-34,0,0,0,0,0,0,0,0,0,-1,979,1058,0,0
-238,-34,0,0,0,0,0,0,0,0,0,-1,986,1058,0,0
-231,-34,0,0,0,0,0,0,0,0,0,-1,993,1058,0,0
-224,-34,0,0,0,0,0,0,0,0,0,-1,1000,1058,0,0
-217,-34,0,0,0,0,0,0,0,0,0,-1,1007,1058,0,0
-210,-34,0,0,0,0,0,0,0,0,0,-1,1014,1058,0,0
-203,-34,0,0,0,0,0,0,0,0,0,-1,1021,1058,0,0
-196,-34,0,0,0,0,0,0,0,0,0,-1,1028,1058,0,0
-189,-34,0,0,0,0,0,0,0,0,0,-1,1035,1058,0,0
-182,-34,0,0,0,0,0,0,0,0,0,-1,1042,1058,0,0
-175,-34,0,0,0,0,0,0,0,0,0,-1,1049,1058,0,0
-168,-34,0,0,0,0,0,0,0,0,0,-1,1056,1058,0,0
-161,-34,0,0,0,0,0,0,0,0,0,-1,1063,1058,0,0
-154,-34,0,0,0,0,0,0,0,0,0,-1,1070,1058,0,0
-147,-34,0,0,0,0,0,0,0,0,0,-1,1077,1058,0,0
-140,-34,0,0,0,0,0,0,0,0,0,-1,1084,1058,0,0
-133,-34,0,0,0,0,0,0,0,0,0,-1,1091,1058,0,0
-126,-34,0,0,0,0,0,0,0,0,0,-1,1098,1058,0,0
-119,-34,0,0,0,0,0,0,0,0,0,-1,1105,1058,0,0
-112,-34,0,0,0,0,0,0,0,0,0,-1,1112,1058,0,0
-105,-34,0,0,0,0,0,0,0,0,0,-1,1119,1058,0,0
-98,-34,0,0,0,0,0,0,0,0,0,-1,1126,1058,0,0
-91,-34,0,0,0,0,0,0,0,0,0,-1,1133,1058,0,0
-84,-34,0,0,0,0,0,0,0,0,0,-1,1140,1058,0,0
-77,-34,0,0,0,0,0,0,0,0,0,-1,1147,1058,0,0
-70,-34,0,0,0,0,0,0,0,0,0,-1,1154,1058,0,0
-63,-34,0,0,0,0,0,0,0,0,0,-1,1161,1058,0,0
-56,-34,0,0,0,0,0,0,0,0,0,-1,1168,1058,0,0
-49,-34,0,0,0,0,0,0,0,0,0,-1,1175,1058,0,0
-42,-34,0,0,0,0,0,0,0,0,0,-1,1182,1058,0,0
-35,-34,0,0,0,0,0,0,0,0,0,-1,1189,1058,0,0
-28,-34,0,0,0,0,0,0,0,0,0,-1,1196,1058,0,0
-21,-34,0,0,0,0,0,0,0,0,0,-1,1203,1058,0,0
-14,-34,0,0,0,0,0,0,0,0,0,-1,1210,1058,0,0
-7,-34,0,0,0,0,0,0,0,0,0,-1,1217,1058,0,0
0,-34,0,0,0,0,0,0,0,0,0,-1,1224,1058,0,0
7,-34,0,0,0,0,0,0,0,0,0,-1,1231,1058,0,0
14,-34,0,0,0,0,0,0,0,0,0,-1,1238,1058,0,0
21,-34,0,0,0,0,0,0,0,0,0,-1,1245,1058,0,0
28,-34,0,0,0,0,0,0,0,0,0,-1,1252,1058,0,0
35,-34,0,0,0,0,0,0,0,0,0,-1,1259,1058,0,0
42,-34,0,0,0,0,0,0,0,0,0,-1,1266,1058,0,0
49,-34,0,0,0,0,0,0,0,0,0,-1,1273,1058,0,0
56,-34,0,0,0,0,0,0,0,0,0,-1,1280,1058,0,0
63,-34,0,0,0,0,0,0,0,0,0,-1,1287,1058,0,0
70,-34,0,0,0,0,0,0,0,0,0,-1,1294,1058,0,0
77,-34,0,0,0,0,0,0,0,0,0,-1,1301,1058,0,0
84,-34,0,0,0,0,0,0,0,0,0,-1,1308,1058,0,0
91,-34,0,0,0,0,0,0,0,0,0,-1,1315,1058,0,0
98,-34,0,0,0,0,0,0,0,0,0,-1,1322,1058,0,0
105,-34,0,0,0,0,0,0,0,0,0,-1,1329,1058,0,0
112,-34,0,0,0,0,0,0,0,0,0,-1,1336,1058,0,0
119,-34,0,0,0,0,0,0,0,0,0,-1,1343,1058,0,0
126,-34,0,0,0,0,0,0,0,0,0,-1,1350,1058,0,0
133,-34,0,0,0,0,0,0,0,0,0,-1,1357,1058,0,0
140,-34,0,0,0,0,0,0,0,0,0,-1,1364,1058,0,0
147,-34,0,0,0,0,0,0,0,0,0,-1,1371,1058,0,0
154,-34,0,0,0,0,0,0,0,0,0,-1,1378,1058,0,0
161,-34,0,0,0,0,0,0,0,0,0,-1,1385,1058,0,0
168,-34,0,0,0,0,0,0,0,0,0,-1,1392,1058,0,0
175,-34,0,0,0,0,0,0,0,0,0,-1,1399,1058,0,0
182,-34,0,0,0,0,0,0,0,0,0,-1,1406,1058,0,0
189,-34,0,0,0,0,0,0,0,0,0,-1,1413,1058,0,0
196,-34,0,0,0,0,0,0,0,0,0,-1,1420,1058,0,0
203,-34,0,0,0,0,0,0,0,0,0,-1,1427,1058,0,0
210,-34,0,0,0,0,0,0,0,0,0,-1,1434,1058,0,0
217,-34,0,0,0,0,0,0,0,0,0,-1,1441,1058,0,0
224,-34,0,0,0,0,0,0,0,0,0,-1,1448,1058,0,0
231,-34,0,0,0,0,0,0,0,0,0,-1,1455,1058,0,0
238,-34,0,0,0,0,0,0,0,0,0,-1,1462,1058,0,0
245,-34,0,0,0,0,0,0,0,0,0,-1,1469,1058,0,0
252,-34,0,0,0,0,0,0,0,0,0,-1,1476,1058,0,0
259,-34,0,0,0,0,0,0,0,0,0,-1,1483,1058,0,0
266,-34,0,0,0,0,0,0,0,0,0,-1,1490,1058,0,0
273,-34,0,0,0,0,0,0,0,0,0,-1,1497,1058,0,0
280,-34,0,0,0,0,0,0,0,0,0,-1,1504,1058,0,0
287,-34,0,0,0,0,0,0,0,0,0,-1,1511,1058,0,0
294,-34,0,0,0,0,0,0,0,0,0,-1,1518,1058,0,0
301,-34,0,0,0,0,0,0,0,0,0,-1,1525,1058,0,0
308,-34,0,0,0,0,0,0,0,0,0,-1,1532,1058,0,0
315,-34,0,0,0,0,0,0,0,0,0,-1,1539,1058,0,0
322,-34,0,0,0,0,0,0,0,0,0,-1,1546,1058,0,0
329,-34,0,0,0,0,0,0,0,0,0,-1,1553,1058,0,0
336,-34,0,0,0,0,0,0,0,0,0,-1,1560,1058,0,0
343,-34,0,0,0,0,0,0,0,0,0,-1,1567,1058,0,0
350,-34,0,0,0,0,0,0,0,0,0,-1,1574,1058,0,0
357,-34,0,0,0,0,0,0,0,0,0,-1,1581,1058,0,0
364,-34,0,0,0,0,0,0,0,0,0,-1,1588,1058,0,0
371,-34,0,0,0,0,0,0,0,0,0,-1,1595,1058,0,0
378,-34,0,0,0,0,0,0,0,0,0,-1,1602,1058,0,0
385,-34,0,0,0,0,0,0,0,0,0,-1,1609,1058,0,0
392,-34,0,0,0,0,0,0,0,0,0,-1,1616,1058,0,0
399,-34,0,0,0,0,0,0,0,0,0,-1,1623,1058,0,0
406,-34,0,0,0,0,0,0,0,0,0,-1,1630,1058,0,0
413,-34,0,0,0,0,0,0,0,0,0,-1,1637,1058,0,0
420,-34,0,0,0,0,0,0,0,0,0,-1,1644,1058,0,0
427,-34,0,0,0,0,0,0,0,0,0,-1,1651,1058,0,0
434,-34,0,0,0,0,0,0,0,0,0,-1,1658,1058,0,0
441,-34,0,0,0,0,0,0,0,0,0,-1,1665,1058,0,0
448,-34,0,0,0,0,0,0,0,0,0,-1,1672,1058,0,0
455,-34,0,0,0,0,0,0,0,0,0,-1,1679,1058,0,0
462,-34,0,0,0,0,0,0,0,0,0,-1,1686,1058,0,0
469,-34,0,0,0,0,0,0,0,0,0,-1,1693,1058,0,0
476,-34,0,0,0,0,0,0,0,0,0,-1,1700,1058,0,0
483,-34,0,0,0,0,0,0,0,0,0,-1,1707,1058,0,0
490,-34,0,0,0,0,0,0,0,0,0,-1,1714,1058,0,0
497,-34,0,0,0,0,0,0,0,0,0,-1,1721,1058,0,0
504,-34,0,0,0,0,0,0,0,0,0,-1,1728,1058,0,0
511,-34,0,0,0,0,0,0,0,0,0,-1,1735,1058,0,0
518,-34,0,0,0,0,0,0,0,0,0,-1,1742,1058,0,0
525,-34,0,0,0,0,0,0,0,0,0,-1,1749,1058,0,0
532,-34,0,0,0,0,0,0,0,0,0,-1,1756,1058,0,0
539,-34,0,0,0,0,0,0,0,0,0,-1,1763,1058,0,0
546,-34,0,0,0,0,0,0,0,0,0,-1,1770,1058,0,0
553,-34,0,0,0,0,0,0,0,0,0,-1,1777,1058,0,0
560,-34,0,0,0,0,0,0,0,0,0,-1,1784,1058,0,0
567,-34,0,0,0,0,0,0,0,0,0,-1,1791,1058,0,0
574,-34,0,0,0,0,0,0,0,0,0,-1,1798,1058,0,0
581,-34,0,0,0,0,0,0,0,0,0,-1,1805,1058,0,0
588,-34,0,0,0,0,0,0,0,0,0,-1,1812,1058,0,0
595,-34,0,0,0,0,0,0,0,0,0,-1,1819,1058,0,0
602,-34,0,0,0,0,0,0,0,0,0,-1,1826,1058,0,0
609,-34,0,0,0,0,0,0,0,0,0,-1,1833,1058,0,0
616,-34,0,0,0,0,0,0,0,0,0,-1,1840,1058,0,0
623,-34,0,0,0,0,0,0,0,0,0,-1,1847,1058,0,0
630,-34,0,0,0,0,0,0,0,0,0,-1,1854,1058,0,0
637,-34,0,0,0,0,0,0,0,0,0,-1,1861,1058,0,0
644,-34,0,0,0,0,0,0,0,0,0,-1,1868,1058,0,0
651,-34,80.1232,2.28174,0.000760255,0.00119346,-0.00182776,0.00281741,-0.000863691,-0.844377,0.00222282,0.0396942,1875,1058,80.1231,-2.28174
658,-34,80.1559,2.1825,0.00022723,0.000550642,-0.00127763,0.00167676,-0.000898884,-0.848347,0.00150948,0.0442064,1882,1058,80.1558,-2.18254
665,-34,80.1346,2.05603,-0.000154562,9.32294e-05,-0.000685412,0.000665853,-0.000727186,-0.874813,0.000804531,0.042433,1889,1058,80.1346,-2.05601
672,-34,80.1151,2.0343,-0.000443125,-0.000151071,-5.70249e-05,-0.000140332,-0.000453864,-1.38465,0.000268323,0.0387891,1896,1058,80.1151,-2.03433
679,-34,80.2177,1.98706,-0.000670861,-0.000290602,0.000574672,0.000124576,-0.00108604,0.945154,0.000768923,0.0384818,1903,1058,80.2177,-1.98707
686,-34,80.233,2.23108,-0.00126974,-0.000628779,0.00115931,0.000253532,-0.00215205,0.920251,0.00152625,0.0417316,1910,1058,80.2331,-2.23113
693,-34,80.1646,1.96655,-0.0018323,-0.000971695,0.00165894,0.000311845,-0.00311584,0.912293,0.00218859,0.0434611,1917,1058,80.1645,-1.96656
700,-34,80.0892,2.00354,-0.00226221,-0.00111771,0.00209292,0.000479787,-0.0038597,0.918847,0.00274707,0.0405129,1924,1058,80.0892,-2.00353
707,-34,79.9858,2.14929,-0.00302077,-0.000925735,0.00250692,0.000743719,-0.00469022,0.983298,0.00340193,0.024995,1931,1058,79.9858,-2.14932
714,-34,79.9974,2.28076,-0.0040236,-0.000240253,0.00276082,0.00121479,-0.00547865,1.08576,0.00411754,0.0202733,1938,1058,79.9974,-2.28079
721,-34,79.9716,2.4458,0,0,0,0,0,0,0,-1,1945,1058,79.9715,-2.44586
728,-34,79.718,8.28516,0,0,0,0,0,0,0,-1,1952,1058,79.718,-8.28518
735,-34,79.5612,8.07434,-0.00820677,0.00426898,0.00302524,0.00496386,-0.00890166,1.34502,0.00811216,0.0229657,1959,1058,79.5611,-8.0744
742,-34,79.4607,7.75684,-0.00928379,0.00624152,0.00281612,0.00673655,-0.00977882,1.39679,0.00958893,0.020783,1966,1058,79.4607,-7.75679
749,-34,79.4299,7.46716,-0.0105899,0.00849728,0.00255502,0.00883338,-0.010926,1.44,0.0114294,0.0185816,1973,1058,79.4298,-7.46715
756,-34,79.3948,7.15088,-0.0114831,0.0111554,0.00200038,0.0113308,-0.0116585,1.48334,0.0132734,0.0135036,1980,1058,79.3948,-7.15093
763,-34,79.2917,6.8551,-0.0114389,0.0146619,0.00150271,0.0147481,-0.0115252,1.51348,0.0152069,0.0138472,1987,1058,79.2916,-6.85506
770,-34,79.1218,6.56299,-0.0105076,0.0188955,0.000647896,0.0189097,-0.0105218,1.54878,0.0172208,0.0195816,1994,1058,79.1218,-6.56298
777,-34,78.9028,6.36621,-0.00714927,0.0238003,-0.000318388,0.0238035,-0.00715255,-1.56051,0.0187145,0.0238848,2001,1058,78.9028,-6.36623
784,-34,78.6572,6.2251,-0.00195074,0.0283865,-0.00123136,0.0284364,-0.00200064,-1.5303,0.0196584,0.0430953,2008,1058,78.6573,-6.22516
791,-34,78.4109,6.06958,0,0,0,0,0,0,0,-1,2015,1058,78.4108,-6.06962
798,-34,78.6973,4.448,0,0,0,0,0,0,0,-1,2022,1058,78.6972,-4.44806
805,-34,78.5989,3.71521,0,0,0,0,0,0,0,-1,2029,1058,78.5989,-3.71517
812,-34,83.4087,4.64844,0,0,0,0,0,0,0,-1,2036,1058,83.4087,-4.64843
-700,-41,-67.4995,5.78784,0,0,0,0,0,0,0,-1,524,1065,-67.4995,-5.78783
-693,-41,-66.4765,6.16443,0,0,0,0,0,0,0,-1,531,1065,-66.4765,-6.16444
-686,-41,-65.3018,6.95544,0,0,0,0,0,0,0,-1,538,1065,-65.3018,-6.95545
-679,-41,-62.786,5.14465,0,0,0,0,0,0,0,-1,545,1065,-62.786,-5.14464
-672,-41,-63.132,1.04346,0,0,0,0,0,0,0,-1,552,1065,-63.1321,-1.04343
-665,-41,-62.628,2.26208,0,0,0,0,0,0,0,-1,559,1065,-62.628,-2.26205
-658,-41,-62.9144,4.65161,0,0,0,0,0,0,0,-1,566,1065,-62.9144,-4.6516
-651,-41,-62.7685,4.85315,-0.00568399,0.0321929,-0.00392237,0.0325948,-0.00608591,-1.46868,0.0240169,0.0339127,573,1065,-62.7685,-4.8532
-644,-41,-62.8954,5.36475,-0.00545761,0.0270288,-0.00279661,0.0272678,-0.00569661,-1.48555,0.020345,0.0161492,580,1065,-62.8954,-5.36475
-637,-41,-62.9915,5.7196,-0.00449036,0.0218498,-0.00203052,0.0220054,-0.00464597,-1.49431,0.0164392,0.0177949,587,1065,-62.9914,-5.71966
-630,-41,-63.0205,6.13135,-0.00322142,0.0154895,-0.00220909,0.0157468,-0.0034787,-1.45486,0.0118292,0.0174382,594,1065,-63.0205,-6.13131
-623,-41,-63.0029,6.54443,-0.00190283,0.0101412,-0.00217373,0.0105215,-0.00228314,-1.39759,0.00788634,0.0138192,601,1065,-63.0029,-6.54438
-616,-41,-63.0129,6.98914,-0.000627646,0.00608779,-0.00212044,0.00670129,-0.00124114,-1.28916,0.00493356,0.0176865,608,1065,-63.013,-6.98917
-609,-41,-62.9617,7.40186,0.000723546,0.00316934,-0.0022022,0.0044654,-0.000572517,-1.03885,0.00318497,0.0248541,615,1065,-62.9617,-7.4019
-602,-41,-62.9858,7.66553,0.00165708,0.00105771,-0.00207207,0.00345103,-0.000736238,-0.713582,0.00258134,0.0155275,622,1065,-62.9858,-7.66548
-595,-41,-63.108,7.89209,0.00193842,-0.000448837,-0.00197216,0.00305004,-0.00156046,-0.513266,0.00270779,0.0258515,629,1065,-63.108,-7.89212
-588,-41,-63.5002,7.96912,0,0,0,0,0,0,0,-1,636,1065,-63.5002,-7.96916
-581,-41,-63.2347,0.312012,0.00216932,-0.00178172,-0.00152656,0.00269041,-0.00230281,-0.328948,0.00288573,0.0348445,643,1065,-63.2348,-0.312054
-574,-41,-63.3582,0.491455,0.00195201,-0.00190523,-0.00134585,0.00237518,-0.00232839,-0.304634,0.00271565,0.0338592,650,1065,-63.3581,-0.491505
-567,-41,-63.3922,0.526001,0.00123826,-0.00159678,-0.0010953,0.00161213,-0.00197064,-0.328932,0.00207196,0.0400085,657,1065,-63.3922,-0.525944
-560,-41,-63.2961,0.389404,3.09771e-05,-0.000941298,-0.000787506,0.00047031,-0.00138063,-0.508872,0.00111089,0.0411694,664,1065,-63.2961,-0.389391
-553,-41,-63.1715,0.294189,-0.00165842,-0.000199493,-0.000429016,-8.26867e-05,-0.00177523,-1.30497,0.00115691,0.0425043,671,1065,-63.1715,-0.294178
-546,-41,-63.1826,0.356323,-0.00375458,0.000197772,-3.36014e-05,0.000198058,-0.00375486,-1.5623,0.00257181,0.0430805,678,1065,-63.1826,-0.356322
-539,-41,-63.2095,0.318726,-0.00633465,-0.000215702,0.000384991,-0.000191574,-0.00635878,1.50821,0.00417679,0.042094,685,1065,-63.2095,-0.318751
-532,-41,-63.2352,0.537231,-0.00887777,-0.000454138,0.00126163,-0.000269239,-0.00906267,1.42528,0.00595406,0.0399093,692,1065,-63.2353,-0.537252
-525,-41,0,0,0,0,0,0,0,0,0,-1,699,1065,0,0
-518,-41,0,0,0,0,0,0,0,0,0,-1,706,1065,0,0
-511,-41,0,0,0,0,0,0,0,0,0,-1,713,1065,0,0
-504,-41,0,0,0,0,0,0,0,0,0,-1,720,1065,0,0
-497,-41,0,0,0,0,0,0,0,0,0,-1,727,1065,0,0
-490,-41,0,0,0,0,0,0,0,0,0,-1,734,1065,0,0
-483,-41,0,0,0,0,0,0,0,0,0,-1,741,1065,0,0
-476,-41,0,0,0,0,0,0,0,0,0,-1,748,1065,0,0
-469,-41,0,0,0,0,0,0,0,0,0,-1,755,1065,0,0
-462,-41,0,0,0,0,0,0,0,0,0,-1,762,1065,0,0
-455,-41,0,0,0,0,0,0,0,0,0,-1,769,1065,0,0
-448,-41,0,0,0,0,0,0,0,0,0,-1,776,1065,0,0
-441,-41,0,0,0,0,0,0,0,0,0,-1,783,1065,0,0
-434,-41,0,0,0,0,0,0,0,0,0,-1,790,1065,0,0
-427,-41,0,0,0,0,0,0,0,0,0,-1,797,1065,0,0
-420,-41,0,0,0,0,0,0,0,0,0,-1,804,1065,0,0
-413,-41,0,0,0,0,0,0,0,0,0,-1,811,1065,0,0
-406,-41,0,0,0,0,0,0,0,0,0,-1,818,1065,0,0
-399,-41,0,0,0,0,0,0,0,0,0,-1,825,1065,0,0
-392,-41,0,0,0,0,0,0,0,0,0,-1,832,1065,0,0
-385,-41,0,0,0,0,0,0,0,0,0,-1,839,1065,0,0
-378,-41,0,0,0,0,0,0,0,0,0,-1,846,1065,0,0
-371,-41,0,0,0,0,0,0,0,0,0,-1,853,1065,0,0
-364,-41,0,0,0,0,0,0,0,0,0,-1,860,1065,0,0
-357,-41,0,0,0,0,0,0,0,0,0,-1,867,1065,0,0
-350,-41,0,0,0,0,0,0,0,0,0,-1,874,1065,0,0
-343,-41,0,0,0,0,0,0,0,0,0,-1,881,1065,0,0
-336,-41,0,0,0,0,0,0,0,0,0,-1,888,1065,0,0
-329,-41,0,0,0,0,0,0,0,0,0,-1,895,1065,0,0
-322,-41,0,0,0,0,0,0,0,0,0,-1,902,1065,0,0
-315,-41,0,0,0,0,0,0,0,0,0,-1,909,1065,0,0
-308,-41,0,0,0,0,0,0,0,0,0,-1,916,1065,0,0
-301,-41,0,0,0,0,0,0,0,0,0,-1,923,1065,0,0
-294,-41,0,0,0,0,0,0,0,0,0,-1,930,1065,0,0
-287,-41,0,0,0,0,0,0,0,0,0,-1,937,1065,0,0
-280,-41,0,0,0,0,0,0,0,0,0,-1,944,1065,0,0
-273,-41,0,0,0,0,0,0,0,0,0,-1,951,1065,0,0
-266,-41,0,0,0,0,0,0,0,0,0,-1,958,1065,0,0
-259,-41,0,0,0,0,0,0,0,0,0,-1,965,1065,0,0
-252,-41,0,0,0,0,0,0,0,0,0,-1,972,1065,0,0
-245,-41,0,0,0,0,0,0,0,0,0,-1,979,1065,0,0
-238,-41,0,0,0,0,0,0,0,0,0,-1,986,1065,0,0
-231,-41,0,0,0,0,0,0,0,0,0,-1,993,1065,0,0
-224,-41,0,0,0,0,0,0,0,0,0,-1,1000,1065,0,0
-217,-41,0,0,0,0,0,0,0,0,0,-1,1007,1065,0,0
-210,-41,0,0,0,0,0,0,0,0,0,-1,1014,1065,0,0
-203,-41,0,0,0,0,0,0,0,0,0,-1,1021,1065,0,0
-196,-41,0,0,0,0,0,0,0,0,0,-1,1028,1065,0,0
-189,-41,0,0,0,0,0,0,0,0,0,-1,1035,1065,0,0
-182,-41,0,0,0,0,0,0,0,0,0,-1,1042,1065,0,0
-175,-41,0,0,0,0,0,0,0,0,0,-1,1049,1065,0,0
-168,-41,0,0,0,0,0,0,0,0,0,-1,1056,1065,0,0
-161,-41,0,0,0,0,0,0,0,0,0,-1,1063,1065,0,0
-154,-41,0,0,0,0,0,0,0,0,0,-1,1070,1065,0,0
-147,-41,0,0,0,0,0,0,0,0,0,-1,1077,1065,0,0
-140,-41,0,0,0,0,0,0,0,0,0,-1,1084,1065,0,0
-133,-41,0,0,0,0,0,0,0,0,0,-1,1091,1065,0,0
-126,-41,0,0,0,0,0,0,0,0,0,-1,1098,1065,0,0
-119,-41,0,0,0,0,0,0,0,0,0,-1,1105,1065,0,0
-112,-41,0,0,0,0,0,0,0,0,0,-1,1112,1065,0,0
-105,-41,0,0,0,0,0,0,0,0,0,-1,1119,1065,0,0
-98,-41,0,0,0,0,0,0,0,0,0,-1,1126,1065,0,0
-91,-41,0,0,0,0,0,0,0,0,0,-1,1133,1065,0,0
-84,-41,0,0,0,0,0,0,0,0,0,-1,1140,1065,0,0
-77,-41,0,0,0,0,0,0,0,0,0,-1,1147,1065,0,0
-70,-41,0,0,0,0,0,0,0,0,0,-1,1154,1065,0,0
-63,-41,0,0,0,0,0,0,0,0,0,-1,1161,1065,0,0
-56,-41,0,0,0,0,0,0,0,0,0,-1,1168,1065,0,0
-49,-41,0,0,0,0,0,0,0,0,0,-1,1175,1065,0,0
-42,-41,0,0,0,0,0,0,0,0,0,-1,1182,1065,0,0
-35,-41,0,0,0,0,0,0,0,0,0,-1,1189,1065,0,0
-28,-41,0,0,0,0,0,0,0,0,0,-1,1196,1065,0,0
-21,-41,0,0,0,0,0,0,0,0,0,-1,1203,1065,0,0
-14,-41,0,0,0,0,0,0,0,0,0,-1,1210,1065,0,0
-7,-41,0,0,0,0,0,0,0,0,0,-1,1217,1065,0,0
0,-41,0,0,0,0,0,0,0,0,0,-1,1224,1065,0,0
7,-41,0,0,0,0,0,0,0,0,0,-1,1231,1065,0,0
14,-41,0,0,0,0,0,0,0,0,0,-1,1238,1065,0,0
21,-41,0,0,0,0,0,0,0,0,0,-1,1245,1065,0,0
28,-41,0,0,0,0,0,0,0,0,0,-1,1252,1065,0,0
35,-41,0,0,0,0,0,0,0,0,0,-1,1259,1065,0,0
42,-41,0,0,0,0,0,0,0,0,0,-1,1266,1065,0,0
49,-41,0,0,0,0,0,0,0,0,0,-1,1273,1065,0,0
56,-41,0,0,0,0,0,0,0,0,0,-1,1280,1065,0,0
63,-41,0,0,0,0,0,0,0,0,0,-1,1287,1065,0,0
70,-41,0,0,0,0,0,0,0,0,0,-1,1294,1065,0,0
77,-41,0,0,0,0,0,0,0,0,0,-1,1301,1065,0,0
84,-41,0,0,0,0,0,0,0,0,0,-1,1308,1065,0,0
91,-41,0,0,0,0,0,0,0,0,0,-1,1315,1065,0,0
98,-41,0,0,0,0,0,0,0,0,0,-1,1322,1065,0,0
105,-41,0,0,0,0,0,0,0,0,0,-1,1329,1065,0,0
112,-41,0,0,0,0,0,0,0,0,0,-1,1336,1065,0,0
119,-41,0,0,0,0,0,0,0,0,0,-1,1343,1065,0,0
126,-41,0,0,0,0,0,0,0,0,0,-1,1350,1065,0,0
133,-41,0,0,0,0,0,0,0,0,0,-1,1357,1065,0,0
140,-41,0,0,0,0,0,0,0,0,0,-1,1364,1065,0,0
147,-41,0,0,0,0,0,0,0,0,0,-1,1371,1065,0,0
154,-41,0,0,0,0,0,0,0,0,0,-1,1378,1065,0,0
161,-41,0,0,0,0,0,0,0,0,0,-1,1385,1065,0,0
168,-41,0,0,0,0,0,0,0,0,0,-1,1392,1065,0,0
175,-41,0,0,0,0,0,0,0,0,0,-1,1399,1065,0,0
182,-41,0,0,0,0,0,0,0,0,0,-1,1406,1065,0,0
189,-41,0,0,0,0,0,0,0,0,0,-1,1413,1065,0,0
196,-41,0,0,0,0,0,0,0,0,0,-1,1420,1065,0,0
203,-41,0,0,0,0,0,0,0,0,0,-1,1427,1065,0,0
210,-41,0,0,0,0,0,0,0,0,0,-1,1434,1065,0,0
217,-41,0,0,0,0,0,0,0,0,0,-1,1441,1065,0,0
224,-41,0,0,0,0,0,0,0,0,0,-1,1448,1065,0,0
231,-41,0,0,0,0,0,0,0,0,0,-1,1455,1065,0,0
238,-41,0,0,0,0,0,0,0,0,0,-1,1462,1065,0,0
245,-41,0,0,0,0,0,0,0,0,0,-1,1469,1065,0,0
252,-41,0,0,0,0,0,0,0,0,0,-1,1476,1065,0,0
259,-41,0,0,0,0,0,0,0,0,0,-1,1483,1065,0,0
266,-41,0,0,0,0,0,0,0,0,0,-1,1490,1065,0,0
273,-41,0,0,0,0,0,0,0,0,0,-1,1497,1065,0,0
280,-41,0,0,0,0,0,0,0,0,0,-1,1504,1065,0,0
287,-41,0,0,0,0,0,0,0,0,0,-1,1511,1065,0,0
294,-41,0,0,0,0,0,0,0,0,0,-1,1518,1065,0,0
301,-41,0,0,0,0,0,0,0,0,0,-1,1525,1065,0,0
308,-41,0,0,0,0,0,0,0,0,0,-1,1532,1065,0,0
315,-41,0,0,0,0,0,0,0,0,0,-1,1539,1065,0,0
322,-41,0,0,0,0,0,0,0,0,0,-1,1546,1065,0,0
329,-41,0,0,0,0,0,0,0,0,0,-1,1553,1065,0,0
336,-41,0,0,0,0,0,0,0,0,0,-1,1560,1065,0,0
343,-41,0,0,0,0,0,0,0,0,0,-1,1567,1065,0,0
350,-41,0,0,0,0,0,0,0,0,0,-1,1574,1065,0,0
357,-41,0,0,0,0,0,0,0,0,0,-1,1581,1065,0,0
364,-41,0,0,0,0,0,0,0,0,0,-1,1588,1065,0,0
371,-41,0,0,0,0,0,0,0,0,0,-1,1595,1065,0,0
378,-41,0,0,0,0,0,0,0,0,0,-1,1602,1065,0,0
385,-41,0,0,0,0,0,0,0,0,0,-1,1609,1065,0,0
392,-41,0,0,0,0,0,0,0,0,0,-1,1616,1065,0,0
399,-41,0,0,0,0,0,0,0,0,0,-1,1623,1065,0,0
406,-41,0,0,0,0,0,0,0,0,0,-1,1630,1065,0,0
413,-41,0,0,0,0,0,0,0,0,0,-1,1637,1065,0,0
420,-41,0,0,0,0,0,0,0,0,0,-1,1644,1065,0,0
427,-41,0,0,0,0,0,0,0,0,0,-1,1651,1065,0,0
434,-41,0,0,0,0,0,0,0,0,0,-1,1658,1065,0,0
441,-41,0,0,0,0,0,0,0,0,0,-1,1665,1065,0,0
448,-41,0,0,0,0,0,0,0,0,0,-1,1672,1065,0,0
455,-41,0,0,0,0,0,0,0,0,0,-1,1679,1065,0,0
462,-41,0,0,0,0,0,0,0,0,0,-1,1686,1065,0,0
469,-41,0,0,0,0,0,0,0,0,0,-1,1693,1065,0,0
476,-41,0,0,0,0,0,0,0,0,0,-1,1700,1065,0,0
483,-41,0,0,0,0,0,0,0,0,0,-1,1707,1065,0,0
490,-41,0,0,0,0,0,0,0,0,0,-1,1714,1065,0,0
497,-41,0,0,0,0,0,0,0,0,0,-1,1721,1065,0,0
504,-41,0,0,0,0,0,0,0,0,0,-1,1728,1065,0,0
511,-41,0,0,0,0,0,0,0,0,0,-1,1735,1065,0,0
518,-41,0,0,0,0,0,0,0,0,0,-1,1742,1065,0,0
525,-41,0,0,0,0,0,0,0,0,0,-1,1749,1065,0,0
532,-41,0,0,0,0,0,0,0,0,0,-1,1756,1065,0,0
539,-41,0,0,0,0,0,0,0,0,0,-1,1763,1065,0,0
546,-41,0,0,0,0,0,0,0,0,0,-1,1770,1065,0,0
553,-41,0,0,0,0,0,0,0,0,0,-1,1777,1065,0,0
560,-41,0,0,0,0,0,0,0,0,0,-1,1784,1065,0,0
567,-41,0,0,0,0,0,0,0,0,0,-1,1791,1065,0,0
574,-41,0,0,0,0,0,0,0,0,0,-1,1798,1065,0,0
581,-41,0,0,0,0,0,0,0,0,0,-1,1805,1065,0,0
588,-41,0,0,0,0,0,0,0,0,0,-1,1812,1065,0,0
595,-41,0,0,0,0,0,0,0,0,0,-1,1819,1065,0,0
602,-41,0,0,0,0,0,0,0,0,0,-1,1826,1065,0,0
609,-41,0,0,0,0,0,0,0,0,0,-1,1833,1065,0,0
616,-41,0,0,0,0,0,0,0,0,0,-1,1840,1065,0,0
623,-41,0,0,0,0,0,0,0,0,0,-1,1847,1065,0,0
630,-41,0,0,0,0,0,0,0,0,0,-1,1854,1065,0,0
637,-41,0,0,0,0,0,0,0,0,0,-1,1861,1065,0,0
644,-41,0,0,0,0,0,0,0,0,0,-1,1868,1065,0,0
651,-41,80.1305,2.16101,0.00144994,0.000814177,-0.00147422,0.00264016,-0.000376043,-0.67921,0.00189792,0.0371616,1875,1065,80.1306,-2.16095
658,-41,80.1801,1.97144,0.000730347,0.000131665,-0.000849567,0.00133177,-0.000469754,-0.616017,0.00107907,0.0438348,1882,1065,80.1801,-1.97138
665,-41,80.1415,2.01733,0.000208349,-0.000353695,-0.000305077,0.00034211,-0.000487456,-0.413209,0.000481395,0.0433662,1889,1065,80.1414,-2.01736
672,-41,80.1604,2.07947,-0.000178483,-0.000615985,0.000219542,-8.73132e-05,-0.000707155,0.393602,0.000445195,0.0400422,1896,1065,80.1604,-2.07945
679,-41,80.3124,2.05469,-0.000485568,-0.000765262,0.000710018,9.82441e-05,-0.00134907,0.688161,0.000933855,0.0392607,1903,1065,80.3124,-2.05464
686,-41,80.2065,2.23828,-0.00110695,-0.00107961,0.0011315,3.83024e-05,-0.00222487,0.791438,0.00149618,0.0421829,1910,1065,80.2065,-2.23826
693,-41,80.1572,2.37073,-0.00165047,-0.00137736,0.00152641,1.85897e-05,-0.00304642,0.830011,0.00203717,0.046063,1917,1065,80.1572,-2.37069
700,-41,80.0715,1.98181,-0.00205164,-0.00144419,0.00190007,0.00017627,-0.00367211,0.864653,0.00250889,0.0431663,1924,1065,80.0715,-1.98175
707,-41,80.0101,2.09814,-0.00277903,-0.00124168,0.00230296,0.000417507,-0.00443821,0.946473,0.00310734,0.0285904,1931,1065,80.0102,-2.09811
714,-41,80.0125,2.22949,-0.00370606,-0.000606082,0.00258126,0.000854803,-0.00516694,1.05578,0.00376207,0.0280096,1938,1065,80.0125,-2.2295
721,-41,80.0253,2.38135,0,0,0,0,0,0,0,-1,1945,1065,80.0253,-2.38141
728,-41,79.2988,8.3678,0,0,0,0,0,0,0,-1,1952,1065,79.2988,-8.36777
735,-41,79.1733,8.02893,-0.00749391,0.00366839,0.00304447,0.00444475,-0.00827028,1.32111,0.00745096,0.0245041,1959,1065,79.1734,-8.02897
742,-41,79.085,7.66406,-0.00843292,0.00557601,0.00293734,0.00616697,-0.00902388,1.37226,0.00882199,0.0217796,1966,1065,79.085,-7.66401
749,-41,79.0327,7.41492,-0.0095947,0.007692,0.00280819,0.00813674,-0.0100394,1.41373,0.0105132,0.0186427,1973,1065,79.0328,-7.41486
756,-41,79.0222,7.1322,-0.0102686,0.0102742,0.00235764,0.0105413,-0.0105357,1.45798,0.0121688,0.0156936,1980,1065,79.0223,-7.13215
763,-41,78.8875,6.76062,-0.00987931,0.0136554,0.00202636,0.0138286,-0.0100525,1.48553,0.0138451,0.0130631,1987,1065,78.8875,-6.76061
770,-41,78.7144,6.43909,-0.00858974,0.0177753,0.00130303,0.0178395,-0.00865399,1.52153,0.0155995,0.0143784,1994,1065,78.7144,-6.43911
777,-41,78.4802,6.11987,-0.00481141,0.0225512,0.000494888,0.0225601,-0.00482036,1.55272,0.0168779,0.0180149,2001,1065,78.4802,-6.11986
784,-41,78.2793,5.78247,0.000906857,0.0270932,-0.000211858,0.0270949,0.000905143,-1.56271,0.0177693,0.0308562,2008,1065,78.2792,-5.78252
791,-41,78.1077,5.1875,0.009492,0.0313002,-0.000724659,0.0313242,0.00946795,-1.53762,0.0185505,0.0474919,2015,1065,78.1077,-5.18752
798,-41,77.9941,4.2832,0.0228797,0.0350891,-0.000749341,0.0351349,0.0228339,-1.50973,0.0205867,0.0485976,2022,1065,77.9942,-4.28315
805,-41,77.9753,3.4491,0,0,0,0,0,0,0,-1,2029,1065,77.9755,-3.44915
812,-41,81.9993,4.70044,0,0,0,0,0,0,0,-1,2036,1065,81.9993,-4.70047
-700,-48,-67.3577,5.57666,0,0,0,0,0,0,0,-1,524,1072,-67.3577,-5.57668
-693,-48,-66.6678,6.07422,0,0,0,0,0,0,0,-1,531,1072,-66.6678,-6.07425
-686,-48,-69.6655,-4.78552,0,0,0,0,0,0,0,-1,538,1072,-69.6655,4.78552
-679,-48,-65.3322,7.38513,0,0,0,0,0,0,0,-1,545,1072,-65.3322,-7.38517
-672,-48,-65.1371,7.42358,0,0,0,0,0,0,0,-1,552,1072,-65.1371,-7.4236
-665,-48,-62.4854,1.82947,0,0,0,0,0,0,0,-1,559,1072,-62.4854,-1.82952
-658,-48,-62.1432,3.30176,0,0,0,0,0,0,0,-1,566,1072,-62.1432,-3.30171
-651,-48,-62.2421,4.38135,-0.00676721,0.0261403,-0.00277638,0.0263729,-0.00699981,-1.48721,0.0203211,0.0433349,573,1072,-62.2421,-4.3814
-644,-48,-62.3427,5.32959,-0.00599461,0.0225318,-0.00208685,0.0226837,-0.00614647,-1.49816,0.0175341,0.0242336,580,1072,-62.3427,-5.32955
-637,-48,-62.4583,5.58752,-0.00461573,0.0186209,-0.00156931,0.0187264,-0.00472124,-1.50367,0.0143198,0.0259904,587,1072,-62.4583,-5.58752
-630,-48,-62.5292,6.03857,-0.00311013,0.0135034,-0.00190618,0.0137193,-0.00332603,-1.45801,0.0104331,0.031742,594,1072,-62.5292,-6.03857
-623,-48,-62.5837,6.47815,-0.00162897,0.00896709,-0.00198891,0.00932811,-0.00198999,-1.39123,0.00697732,0.0148521,601,1072,-62.5838,-6.47819
-616,-48,-62.5844,6.90674,-0.000273205,0.00536043,-0.00205756,0.00603188,-0.000944659,-1.25536,0.00437031,0.0122992,608,1072,-62.5843,-6.90669
-609,-48,-62.5334,7.36499,0.00108301,0.00268847,-0.00215867,0.00418884,-0.000417357,-0.963408,0.00294156,0.0140126,615,1072,-62.5334,-7.36493
-602,-48,-62.5188,7.75464,0.0020882,0.00079968,-0.00207485,0.00361651,-0.000728633,-0.634863,0.00268702,0.0147787,622,1072,-62.5188,-7.75463
-595,-48,-62.5271,8.10474,0.00242123,-0.000542779,-0.0020064,0.00343361,-0.00155517,-0.467304,0.00294755,0.034576,629,1072,-62.5271,-8.10469
-588,-48,-62.7207,8.44299,0,0,0,0,0,0,0,-1,636,1072,-62.7207,-8.44301
-581,-48,-63.2333,0.335205,0,0,0,0,0,0,0,-1,643,1072,-63.2333,-0.33518
-574,-48,-63.3881,0.522461,0.00234785,-0.00167913,-0.00133146,0.00274826,-0.00207954,-0.292128,0.00279623,0.0379957,650,1072,-63.3881,-0.522455
-567,-48,-63.5771,0.751709,0.0016254,-0.00131413,-0.00108199,0.00198072,-0.00166945,-0.317295,0.00210998,0.0404099,657,1072,-63.5771,-0.751728
-560,-48,-63.3556,0.509766,0.000353991,-0.00060375,-0.000786182,0.000795663,-0.00104542,-0.511853,0.00106621,0.0410285,664,1072,-63.3556,-0.50976
-553,-48,-63.1901,0.354248,-0.00145573,0.000201009,-0.000425049,0.000303694,-0.00155841,-1.33375,0.00115357,0.0418102,671,1072,-63.1901,-0.354258
-546,-48,-63.2252,0.373413,-0.00376403,0.00070561,-6.26218e-06,0.000705619,-0.00376404,-1.5694,0.00277464,0.0402202,678,1072,-63.2251,-0.373438
-539,-48,-63.2876,0.479614,-0.0066574,0.000362524,0.000421963,0.000387797,-0.00668268,1.51097,0.00458985,0.0394242,685,1072,-63.2876,-0.47958
-532,-48,-63.4163,0.641724,-0.0095024,0.000253604,0.0013115,0.000426834,-0.00967563,1.43947,0.0065973,0.0387403,692,1072,-63.4163,-0.641733
-525,-48,0,0,0,0,0,0,0,0,0,-1,699,1072,0,0
-518,-48,0,0,0,0,0,0,0,0,0,-1,706,1072,0,0
-511,-48,0,0,0,0,0,0,0,0,0,-1,713,1072,0,0
-504,-48,0,0,0,0,0,0,0,0,0,-1,720,1072,0,0
-497,-48,0,0,0,0,0,0,0,0,0,-1,727,1072,0,0
-490,-48,0,0,0,0,0,0,0,0,0,-1,734,1072,0,0
-483,-48,0,0,0,0,0,0,0,0,0,-1,741,1072,0,0
-476,-48,0,0,0,0,0,0,0,0,0,-1,748,1072,0,0
-469,-48,0,0,0,0,0,0,0,0,0,-1,755,1072,0,0
-462,-48,0,0,0,0,0,0,0,0,0,-1,762,1072,0,0
-455,-48,0,0,0,0,0,0,0,0,0,-1,769,1072,0,0
-448,-48,0,0,0,0,0,0,0,0,0,-1,776,1072,0,0
-441,-48,0,0,0,0,0,0,0,0,0,-1,783,1072,0,0
-434,-48,0,0,0,0,0,0,0,0,0,-1,790,1072,0,0
-427,-48,0,0,0,0,0,0,0,0,0,-1,797,1072,0,0
-420,-48,0,0,0,0,0,0,0,0,0,-1,804,1072,0,0
-413,-48,0,0,0,0,0,0,0,0,0,-1,811,1072,0,0
-406,-48,0,0,0,0,0,0,0,0,0,-1,818,1072,0,0
-399,-48,0,0,0,0,0,0,0,0,0,-1,825,1072,0,0
-392,-48,0,0,0,0,0,0,0,0,0,-1,832,1072,0,0
-385,-48,0,0,0,0,0,0,0,0,0,-1,839,1072,0,0
-378,-48,0,0,0,0,0,0,0,0,0,-1,846,1072,0,0
-371,-48,0,0,0,0,0,0,0,0,0,-1,853,1072,0,0
-364,-48,0,0,0,0,0,0,0,0,0,-1,860,1072,0,0
-357,-48,0,0,0,0,0,0,0,0,0,-1,867,1072,0,0
-350,-48,0,0,0,0,0,0,0,0,0,-1,874,1072,0,0
-343,-48,0,0,0,0,0,0,0,0,0,-1,881,1072,0,0
-336,-48,0,0,0,0,0,0,0,0,0,-1,888,1072,0,0
-329,-48,0,0,0,0,0,0,0,0,0,-1,895,1072,0,0
-322,-48,0,0,0,0,0,0,0,0,0,-1,902,1072,0,0
-315,-48,0,0,0,0,0,0,0,0,0,-1,909,1072,0,0
-308,-48,0,0,0,0,0,0,0,0,0,-1,916,1072,0,0
-301,-48,0,0,0,0,0,0,0,0,0,-1,923,1072,0,0
-294,-48,0,0,0,0,0,0,0,0,0,-1,930,1072,0,0
-287,-48,0,0,0,0,0,0,0,0,0,-1,937,1072,0,0
-280,-48,0,0,0,0,0,0,0,0,0,-1,944,1072,0,0
-273,-48,0,0,0,0,0,0,0,0,0,-1,951,1072,0,0
-266,-48,0,0,0,0,0,0,0,0,0,-1,958,1072,0,0
-259,-48,0,0,0,0,0,0,0,0,0,-1,965,1072,0,0
-252,-48,0,0,0,0,0,0,0,0,0,-1,972,1072,0,0
-245,-48,0,0,0,0,0,0,0,0,0,-1,979,1072,0,0
-238,-48,0,0,0,0,0,0,0,0,0,-1,986,1072,0,0
-231,-48,0,0,0,0,0,0,0,0,0,-1,993,1072,0,0
-224,-48,0,0,0,0,0,0,0,0,0,-1,1000,1072,0,0
-217,-48,0,0,0,0,0,0,0,0,0,-1,1007,1072,0,0
-210,-48,0,0,0,0,0,0,0,0,0,-1,1014,1072,0,0
-203,-48,0,0,0,0,0,0,0,0,0,-1,1021,1072,0,0
-196,-48,0,0,0,0,0,0,0,0,0,-1,1028,1072,0,0
-189,-48,0,0,0,0,0,0,0,0,0,-1,1035,1072,0,0
-182,-48,0,0,0,0,0,0,0,0,0,-1,1042,1072,0,0
-175,-48,0,0,0,0,0,0,0,0,0,-1,1049,1072,0,0
-168,-48,0,0,0,0,0,0,0,0,0,-1,1056,1072,0,0
-161,-48,0,0,0,0,0,0,0,0,0,-1,1063,1072,0,0
-154,-48,0,0,0,0,0,0,0,0,0,-1,1070,1072,0,0
-147,-48,0,0,0,0,0,0,0,0,0,-1,1077,1072,0,0
-140,-48,0,0,0,0,0,0,0,0,0,-1,1084,1072,0,0
-133,-48,0,0,0,0,0,0,0,0,0,-1,1091,1072,0,0
-126,-48,0,0,0,0,0,0,0,0,0,-1,1098,1072,0,0
-119,-48,0,0,0,0,0,0,0,0,0,-1,1105,1072,0,0
-112,-48,0,0,0,0,0,0,0,0,0,-1,1112,1072,0,0
-105,-48,0,0,0,0,0,0,0,0,0,-1,1119,1072,0,0
-98,-48,0,0,0,0,0,0,0,0,0,-1,1126,1072,0,0
-91,-48,0,0,0,0,0,0,0,0,0,-1,1133,1072,0,0
-84,-48,0,0,0,0,0,0,0,0,0,-1,1140,1072,0,0
-77,-48,0,0,0,0,0,0,0,0,0,-1,1147,1072,0,0
-70,-48,0,0,0,0,0,0,0,0,0,-1,1154,1072,0,0
-63,-48,0,0,0,0,0,0,0,0,0,-1,1161,1072,0,0
-56,-48,0,0,0,0,0,0,0,0,0,-1,1168,1072,0,0
-49,-48,0,0,0,0,0,0,0,0,0,-1,1175,1072,0,0
-42,-48,0,0,0,0,0,0,0,0,0,-1,1182,1072,0,0
-35,-48,0,0,0,0,0,0,0,0,0,-1,1189,1072,0,0
-28,-48,0,0,0,0,0,0,0,0,0,-1,1196,1072,0,0
-21,-48,0,0,0,0,0,0,0,0,0,-1,1203,1072,0,0
-14,-48,0,0,0,0,0,0,0,0,0,-1,1210,1072,0,0
-7,-48,0,0,0,0,0,0,0,0,0,-1,1217,1072,0,0
0,-48,0,0,0,0,0,0,0,0,0,-1,1224,1072,0,0
7,-48,0,0,0,0,0,0,0,0,0,-1,1231,1072,0,0
14,-48,0,0,0,0,0,0,0,0,0,-1,1238,1072,0,0
21,-48,0,0,0,0,0,0,0,0,0,-1,1245,1072,0,0
28,-48,0,0,0,0,0,0,0,0,0,-1,1252,1072,0,0
35,-48,0,0,0,0,0,0,0,0,0,-1,1259,1072,0,0
42,-48,0,0,0,0,0,0,0,0,0,-1,1266,1072,0,0
49,-48,0,0,0,0,0,0,0,0,0,-1,1273,1072,0,0
56,-48,0,0,0,0,0,0,0,0,0,-1,1280,1072,0,0
63,-48,0,0,0,0,0,0,0,0,0,-1,1287,1072,0,0
70,-48,0,0,0,0,0,0,0,0,0,-1,1294,1072,0,0
77,-48,0,0,0,0,0,0,0,0,0,-1,1301,1072,0,0
84,-48,0,0,0,0,0,0,0,0,0,-1,1308,1072,0,0
91,-48,0,0,0,0,0,0,0,0,0,-1,1315,1072,0,0
98,-48,0,0,0,0,0,0,0,0,0,-1,1322,1072,0,0
105,-48,0,0,0,0,0,0,0,0,0,-1,1329,1072,0,0
112,-48,0,0,0,0,0,0,0,0,0,-1,1336,1072,0,0
119,-48,0,0,0,0,0,0,0,0,0,-1,1343,1072,0,0
126,-48,0,0,0,0,0,0,0,0,0,-1,1350,1072,0,0
133,-48,0,0,0,0,0,0,0,0,0,-1,1357,1072,0,0
140,-48,0,0,0,0,0,0,0,0,0,-1,1364,1072,0,0
147,-48,0,0,0,0,0,0,0,0,0,-1,1371,1072,0,0
154,-48,0,0,0,0,0,0,0,0,0,-1,1378,1072,0,0
161,-48,0,0,0,0,0,0,0,0,0,-1,1385,1072,0,0
168,-48,0,0,0,0,0,0,0,0,0,-1,1392,1072,0,0
175,-48,0,0,0,0,0,0,0,0,0,-1,1399,1072,0,0
182,-48,0,0,0,0,0,0,0,0,0,-1,1406,1072,0,0
189,-48,0,0,0,0,0,0,0,0,0,-1,1413,1072,0,0
196,-48,0,0,0,0,0,0,0,0,0,-1,1420,1072,0,0
203,-48,0,0,0,0,0,0,0,0,0,-1,1427,1072,0,0
210,-48,0,0,0,0,0,0,0,0,0,-1,1434,1072,0,0
217,-48,0,0,0,0,0,0,0,0,0,-1,1441,1072,0,0
224,-48,0,0,0,0,0,0,0,0,0,-1,1448,1072,0,0
231,-48,0,0,0,0,0,0,0,0,0,-1,1455,1072,0,0
238,-48,0,0,0,0,0,0,0,0,0,-1,1462,1072,0,0
245,-48,0,0,0,0,0,0,0,0,0,-1,1469,1072,0,0
252,-48,0,0,0,0,0,0,0,0,0,-1,1476,1072,0,0
259,-48,0,0,0,0,0,0,0,0,0,-1,1483,1072,0,0
266,-48,0,0,0,0,0,0,0,0,0,-1,1490,1072,0,0
273,-48,0,0,0,0,0,0,0,0,0,-1,1497,1072,0,0
280,-48,0,0,0,0,0,0,0,0,0,-1,1504,1072,0,0
287,-48,0,0,0,0,0,0,0,0,0,-1,1511,1072,0,0
294,-48,0,0,0,0,0,0,0,0,0,-1,1518,1072,0,0
301,-48,0,0,0,0,0,0,0,0,0,-1,1525,1072,0,0
308,-48,0,0,0,0,0,0,0,0,0,-1,1532,1072,0,0
315,-48,0,0,0,0,0,0,0,0,0,-1,1539,1072,0,0
322,-48,0,0,0,0,0,0,0,0,0,-1,1546,1072,0,0
329,-48,0,0,0,0,0,0,0,0,0,-1,1553,1072,0,0
336,-48,0,0,0,0,0,0,0,0,0,-1,1560,1072,0,0
343,-48,0,0,0,0,0,0,0,0,0,-1,1567,1072,0,0
350,-48,0,0,0,0,0,0,0,0,0,-1,1574,1072,0,0
357,-48,0,0,0,0,0,0,0,0,0,-1,1581,1072,0,0
364,-48,0,0,0,0,0,0,0,0,0,-1,1588,1072,0,0
371,-48,0,0,0,0,0,0,0,0,0,-1,1595,1072,0,0
378,-48,0,0,0,0,0,0,0,0,0,-1,1602,1072,0,0
385,-48,0,0,0,0,0,0,0,0,0,-1,1609,1072,0,0
392,-48,0,0,0,0,0,0,0,0,0,-1,1616,1072,0,0
399,-48,0,0,0,0,0,0,0,0,0,-1,1623,1072,0,0
406,-48,0,0,0,0,0,0,0,0,0,-1,1630,1072,0,0
413,-48,0,0,0,0,0,0,0,0,0,-1,1637,1072,0,0
420,-48,0,0,0,0,0,0,0,0,0,-1,1644,1072,0,0
427,-48,0,0,0,0,0,0,0,0,0,-1,1651,1072,0,0
434,-48,0,0,0,0,0,0,0,0,0,-1,1658,1072,0,0
441,-48,0,0,0,0,0,0,0,0,0,-1,1665,1072,0,0
448,-48,0,0,0,0,0,0,0,0,0,-1,1672,1072,0,0
455,-48,0,0,0,0,0,0,0,0,0,-1,1679,1072,0,0
462,-48,0,0,0,0,0,0,0,0,0,-1,1686,1072,0,0
469,-48,0,0,0,0,0,0,0,0,0,-1,1693,1072,0,0
476,-48,0,0,0,0,0,0,0,0,0,-1,1700,1072,0,0
483,-48,0,0,0,0,0,0,0,0,0,-1,1707,1072,0,0
490,-48,0,0,0,0,0,0,0,0,0,-1,1714,1072,0,0
497,-48,0,0,0,0,0,0,0,0,0,-1,1721,1072,0,0
504,-48,0,0,0,0,0,0,0,0,0,-1,1728,1072,0,0
511,-48,0,0,0,0,0,0,0,0,0,-1,1735,1072,0,0
518,-48,0,0,0,0,0,0,0,0,0,-1,1742,1072,0,0
525,-48,0,0,0,0,0,0,0,0,0,-1,1749,1072,0,0
532,-48,0,0,0,0,0,0,0,0,0,-1,1756,1072,0,0
539,-48,0,0,0,0,0,0,0,0,0,-1,1763,1072,0,0
546,-48,0,0,0,0,0,0,0,0,0,-1,1770,1072,0,0
553,-48,0,0,0,0,0,0,0,0,0,-1,1777,1072,0,0
560,-48,0,0,0,0,0,0,0,0,0,-1,1784,1072,0,0
567,-48,0,0,0,0,0,0,0,0,0,-1,1791,1072,0,0
574,-48,0,0,0,0,0,0,0,0,0,-1,1798,1072,0,0
581,-48,0,0,0,0,0,0,0,0,0,-1,1805,1072,0,0
588,-48,0,0,0,0,0,0,0,0,0,-1,1812,1072,0,0
595,-48,0,0,0,0,0,0,0,0,0,-1,1819,1072,0,0
602,-48,0,0,0,0,0,0,0,0,0,-1,1826,1072,0,0
609,-48,0,0,0,0,0,0,0,0,0,-1,1833,1072,0,0
616,-48,0,0,0,0,0,0,0,0,0,-1,1840,1072,0,0
623,-48,0,0,0,0,0,0,0,0,0,-1,1847,1072,0,0
630,-48,0,0,0,0,0,0,0,0,0,-1,1854,1072,0,0
637,-48,0,0,0,0,0,0,0,0,0,-1,1861,1072,0,0
644,-48,0,0,0,0,0,0,0,0,0,-1,1868,1072,0,0
651,-48,80.1156,2.13525,0.0018925,0.000745469,-0.00103484,0.00250213,0.000135845,-0.532364,0.0016247,0.0342428,1875,1072,80.1156,-2.13521
658,-48,80.179,2.10657,0.00108117,3.8002e-05,-0.000317147,0.00117002,-5.08504e-05,-0.273158,0.000797503,0.039252,1882,1072,80.1789,-2.1066
665,-48,80.0737,2.14539,0.000486707,-0.000462914,0.000185472,0.000521647,-0.000497853,0.186198,0.000588662,0.0434843,1889,1072,80.0737,-2.14533
672,-48,80.1094,2.17688,4.34338e-05,-0.000733216,0.000595328,0.000365891,-0.00105567,0.496407,0.000852339,0.0407624,1896,1072,80.1094,-2.17691
679,-48,80.1157,2.06958,-0.000317479,-0.000882914,0.000922202,0.000364368,-0.00156476,0.636662,0.00118348,0.0388715,1903,1072,80.1157,-2.06956
686,-48,79.9866,2.23657,-0.000944507,-0.00117039,0.00115782,0.000105863,-0.00222076,0.736777,0.00151703,0.040786,1910,1072,79.9866,-2.23659
693,-48,79.9891,2.32715,-0.0014599,-0.00145569,0.00142556,-3.22344e-05,-0.00288335,0.786136,0.00191158,0.042577,1917,1072,79.9891,-2.3272
700,-48,80.0342,2.21814,-0.00181998,-0.00149867,0.00169957,4.78157e-05,-0.00336647,0.832522,0.00226042,0.0380079,1924,1072,80.0342,-2.21809
707,-48,80.0789,2.14539,-0.00249892,-0.00130755,0.00204864,0.000230253,-0.00403672,0.926882,0.00277109,0.027656,1931,1072,80.0789,-2.14536
714,-48,80.0293,2.22021,-0.00333261,-0.000762065,0.00231804,0.000603179,-0.00469785,1.03853,0.0033511,0.0432371,1938,1072,80.0292,-2.22026
721,-48,80.0955,2.28528,0,0,0,0,0,0,0,-1,1945,1072,80.0955,-2.28528
728,-48,78.8645,8.62244,0,0,0,0,0,0,0,-1,1952,1072,78.8645,-8.62241
735,-48,78.7588,8.24109,-0.0066626,0.00309253,0.00283852,0.00385835,-0.00742843,1.30727,0.0066242,0.0255883,1959,1072,78.7588,-8.24113
742,-48,78.6104,7.81824,-0.00740907,0.00486613,0.00284359,0.00549286,-0.0080358,1.35386,0.00785663,0.0189971,1966,1072,78.6104,-7.81823
749,-48,78.571,7.42932,-0.0084496,0.00682941,0.00286969,0.00735061,-0.0089708,1.39113,0.00943864,0.0164545,1973,1072,78.571,-7.42936
756,-48,78.5444,7.06885,-0.00905952,0.0093023,0.00250573,0.0096381,-0.00939532,1.43758,0.0109892,0.0145593,1980,1072,78.5443,-7.0688
763,-48,78.4304,6.69568,-0.00849314,0.0125821,0.00233357,0.0128374,-0.00874843,1.46183,0.0125369,0.0143205,1987,1072,78.4304,-6.69568
770,-48,78.3245,6.30652,-0.00715552,0.0166143,0.00174156,0.0167413,-0.00728244,1.49805,0.0142239,0.0157308,1994,1072,78.3246,-6.30647
777,-48,78.1313,5.90015,-0.00362892,0.0212594,0.00107597,0.0213058,-0.00367535,1.52767,0.0155743,0.0143195,2001,1072,78.1314,-5.90019
784,-48,77.9839,5.50903,0.00170883,0.025724,0.000520069,0.0257353,0.00169757,1.54915,0.0166199,0.0270518,2008,1072,77.9838,-5.50901
791,-48,77.8264,5.16772,0.00973144,0.0299431,0.000167747,0.0299445,0.00973005,1.5625,0.0176382,0.0419782,2015,1072,77.8263,-5.16778
798,-48,77.6272,4.71826,0.0223218,0.0338231,0.000367371,0.0338348,0.02231,1.5389,0.0198626,0.0463022,2022,1072,77.6273,-4.71821
805,-48,77.4321,4.27063,0,0,0,0,0,0,0,-1,2029,1072,77.4321,-4.27063
812,-48,80.5269,4.6156,0,0,0,0,0,0,0,-1,2036,1072,80.527,-4.61561
-700,-55,-66.7924,5.02954,0,0,0,0,0,0,0,-1,524,1079,-66.7924,-5.0295
-693,-55,-67.3549,-4.41882,0,0,0,0,0,0,0,-1,531,1079,-67.355,4.41886
-686,-55,-67.691,-3.71802,0,0,0,0,0,0,0,-1,538,1079,-67.691,3.71807
-679,-55,-67.6107,-2.57495,0,0,0,0,0,0,0,-1,545,1079,-67.6107,2.5749
-672,-55,-64.985,7.27808,0,0,0,0,0,0,0,-1,552,1079,-64.985,-7.27803
-665,-55,-62.1671,1.34192,0,0,0,0,0,0,0,-1,559,1079,-62.1671,-1.3419
-658,-55,-61.5821,2.10559,0,0,0,0,0,0,0,-1,566,1079,-61.5821,-2.10563
-651,-55,-61.8409,4.75195,0,0,0,0,0,0,0,-1,573,1079,-61.8409,-4.75195
-644,-55,-61.9092,5.17395,-0.00607788,0.0189428,-0.000642159,0.0189593,-0.00609435,-1.54515,0.015087,0.0320819,580,1079,-61.9092,-5.17401
-637,-55,-62.0046,5.48401,-0.00446412,0.0159266,-0.000525039,0.0159401,-0.00447763,-1.54507,0.012392,0.0251979,587,1079,-62.0046,-5.48402
-630,-55,-62.0649,5.98645,-0.00291929,0.0117339,-0.00121821,0.0118345,-0.00301988,-1.48841,0.00906551,0.0281677,594,1079,-62.0649,-5.9865
-623,-55,-62.2094,6.52319,-0.00131564,0.00789553,-0.00160795,0.00816815,-0.00158826,-1.40285,0.00604481,0.0219183,601,1079,-62.2094,-6.52324
-616,-55,-62.2074,6.93164,-3.22663e-05,0.00475582,-0.00190829,0.00542332,-0.000699761,-1.23431,0.00386995,0.0196425,608,1079,-62.2074,-6.93162
-609,-55,-62.1326,7.42969,0.0012299,0.00229003,-0.00207165,0.00389835,-0.000378417,-0.910644,0.00273379,0.0199381,615,1079,-62.1326,-7.42971
-602,-55,-62.0436,7.86804,0.00220901,0.000569994,-0.00211176,0.00365469,-0.000875694,-0.600309,0.00277481,0.0168116,622,1079,-62.0436,-7.86799
-595,-55,-61.8763,8.30115,0.0025608,-0.000634543,-0.00208901,0.00359306,-0.0016668,-0.458946,0.00310392,0.0339917,629,1079,-61.8763,-8.3012
-588,-55,-61.8823,8.76758,0,0,0,0,0,0,0,-1,636,1079,-61.8823,-8.76761
-581,-55,-63.2601,0.390991,0,0,0,0,0,0,0,-1,643,1079,-63.2601,-0.390946
-574,-55,-63.3985,0.551147,0.0025491,-0.0017333,-0.00133112,0.00292914,-0.00211334,-0.278101,0.00292395,0.0382672,650,1079,-63.3985,-0.5511
-567,-55,-63.3334,0.587402,0.00190442,-0.00141024,-0.0010544,0.00221139,-0.00171722,-0.283307,0.00227416,0.0397284,657,1079,-63.3335,-0.587344
-560,-55,-63.1782,0.546509,0.000659406,-0.000769092,-0.000724504,0.000962534,-0.00107222,-0.396263,0.00117534,0.0439613,664,1079,-63.1782,-0.54655
-553,-55,-63.1744,0.394287,-0.00119016,-4.53479e-05,-0.000285292,2.18087e-05,-0.00125731,-1.33961,0.000845571,0.0427243,671,1079,-63.1744,-0.394252
-546,-55,-63.2191,0.334717,-0.00362231,0.000403532,0.000270475,0.000421622,-0.0036404,1.50401,0.00257899,0.0388028,678,1079,-63.2191,-0.334713
-539,-55,-63.3482,0.486816,-0.00667295,-3.03467e-05,0.000882612,8.49266e-05,-0.00678822,1.44093,0.00455405,0.0384794,685,1079,-63.3482,-0.486824
-532,-55,-63.3697,0.584717,-0.00966151,-0.000211121,0.00194487,0.000173476,-0.0100461,1.37557,0.00675597,0.0384717,692,1079,-63.3697,-0.584708
-525,-55,0,0,0,0,0,0,0,0,0,-1,699,1079,0,0
-518,-55,0,0,0,0,0,0,0,0,0,-1,706,1079,0,0
-511,-55,0,0,0,0,0,0,0,0,0,-1,713,1079,0,0
-504,-55,0,0,0,0,0,0,0,0,0,-1,720,1079,0,0
-497,-55,0,0,0,0,0,0,0,0,0,-1,727,1079,0,0
-490,-55,0,0,0,0,0,0,0,0,0,-1,734,1079,0,0
-483,-55,0,0,0,0,0,0,0,0,0,-1,741,1079,0,0
-476,-55,0,0,0,0,0,0,0,0,0,-1,748,1079,0,0
-469,-55,0,0,0,0,0,0,0,0,0,-1,755,1079,0,0
-462,-55,0,0,0,0,0,0,0,0,0,-1,762,1079,0,0
-455,-55,0,0,0,0,0,0,0,0,0,-1,769,1079,0,0
-448,-55,0,0,0,0,0,0,0,0,0,-1,776,1079,0,0
-441,-55,0,0,0,0,0,0,0,0,0,-1,783,1079,0,0
-434,-55,0,0,0,0,0,0,0,0,0,-1,790,1079,0,0
-427,-55,0,0,0,0,0,0,0,0,0,-1,797,1079,0,0
-420,-55,0,0,0,0,0,0,0,0,0,-1,804,1079,0,0
-413,-55,0,0,0,0,0,0,0,0,0,-1,811,1079,0,0
-406,-55,0,0,0,0,0,0,0,0,0,-1,818,1079,0,0
-399,-55,0,0,0,0,0,0,0,0,0,-1,825,1079,0,0
-392,-55,0,0,0,0,0,0,0,0,0,-1,832,1079,0,0
-385,-55,0,0,0,0,0,0,0,0,0,-1,839,1079,0,0
-378,-55,0,0,0,0,0,0,0,0,0,-1,846,1079,0,0
-371,-55,0,0,0,0,0,0,0,0,0,-1,853,1079,0,0
-364,-55,0,0,0,0,0,0,0,0,0,-1,860,1079,0,0
-357,-55,0,0,0,0,0,0,0,0,0,-1,867,1079,0,0
-350,-55,0,0,0,0,0,0,0,0,0,-1,874,1079,0,0
-343,-55,0,0,0,0,0,0,0,0,0,-1,881,1079,0,0
-336,-55,0,0,0,0,0,0,0,0,0,-1,888,1079,0,0
-329,-55,0,0,0,0,0,0,0,0,0,-1,895,1079,0,0
-322,-55,0,0,0,0,0,0,0,0,0,-1,902,1079,0,0
-315,-55,0,0,0,0,0,0,0,0,0,-1,909,1079,0,0
-308,-55,0,0,0,0,0,0,0,0,0,-1,916,1079,0,0
-301,-55,0,0,0,0,0,0,0,0,0,-1,923,1079,0,0
-294,-55,0,0,0,0,0,0,0,0,0,-1,930,1079,0,0
-287,-55,0,0,0,0,0,0,0,0,0,-1,937,1079,0,0
-280,-55,0,0,0,0,0,0,0,0,0,-1,944,1079,0,0
-273,-55,0,0,0,0,0,0,0,0,0,-1,951,1079,0,0
-266,-55,0,0,0,0,0,0,0,0,0,-1,958,1079,0,0
-259,-55,0,0,0,0,0,0,0,0,0,-1,965,1079,0,0
-252,-55,0,0,0,0,0,0,0,0,0,-1,972,1079,0,0
-245,-55,0,0,0,0,0,0,0,0,0,-1,979,1079,0,0
-238,-55,0,0,0,0,0,0,0,0,0,-1,986,1079,0,0
-231,-55,0,0,0,0,0,0,0,0,0,-1,993,1079,0,0
-224,-55,0,0,0,0,0,0,0,0,0,-1,1000,1079,0,0
-217,-55,0,0,0,0,0,0,0,0,0,-1,1007,1079,0,0
-210,-55,0,0,0,0,0,0,0,0,0,-1,1014,1079,0,0
-203,-55,0,0,0,0,0,0,0,0,0,-1,1021,1079,0,0
-196,-55,0,0,0,0,0,0,0,0,0,-1,1028,1079,0,0
-189,-55,0,0,0,0,0,0,0,0,0,-1,1035,1079,0,0
-182,-55,0,0,0,0,0,0,0,0,0,-1,1042,1079,0,0
-175,-55,0,0,0,0,0,0,0,0,0,-1,1049,1079,0,0
-168,-55,0,0,0,0,0,0,0,0,0,-1,1056,1079,0,0
-161,-55,0,0,0,0,0,0,0,0,0,-1,1063,1079,0,0
-154,-55,0,0,0,0,0,0,0,0,0,-1,1070,1079,0,0
-147,-55,0,0,0,0,0,0,0,0,0,-1,1077,1079,0,0
-140,-55,0,0,0,0,0,0,0,0,0,-1,1084,1079,0,0
-133,-55,0,0,0,0,0,0,0,0,0,-1,1091,1079,0,0
-126,-55,0,0,0,0,0,0,0,0,0,-1,1098,1079,0,0
-119,-55,0,0,0,0,0,0,0,0,0,-1,1105,1079,0,0
-112,-55,0,0,0,0,0,0,0,0,0,-1,1112,1079,0,0
-105,-55,0,0,0,0,0,0,0,0,0,-1,1119,1079,0,0
-98,-55,0,0,0,0,0,0,0,0,0,-1,1126,1079,0,0
-91,-55,0,0,0,0,0,0,0,0,0,-1,1133,1079,0,0
-84,-55,0,0,0,0,0,0,0,0,0,-1,1140,1079,0,0
-77,-55,0,0,0,0,0,0,0,0,0,-1,1147,1079,0,0
-70,-55,0,0,0,0,0,0,0,0,0,-1,1154,1079,0,0
-63,-55,0,0,0,0,0,0,0,0,0,-1,1161,1079,0,0
-56,-55,0,0,0,0,0,0,0,0,0,-1,1168,1079,0,0
-49,-55,0,0,0,0,0,0,0,0,0,-1,1175,1079,0,0
-42,-55,0,0,0,0,0,0,0,0,0,-1,1182,1079,0,0
-35,-55,0,0,0,0,0,0,0,0,0,-1,1189,1079,0,0
-28,-55,0,0,0,0,0,0,0,0,0,-1,1196,1079,0,0
-21,-55,0,0,0,0,0,0,0,0,0,-1,1203,1079,0,0
-14,-55,0,0,0,0,0,0,0,0,0,-1,1210,1079,0,0
-7,-55,0,0,0,0,0,0,0,0,0,-1,1217,1079,0,0
0,-55,0,0,0,0,0,0,0,0,0,-1,1224,1079,0,0
7,-55,0,0,0,0,0,0,0,0,0,-1,1231,1079,0,0
14,-55,0,0,0,0,0,0,0,0,0,-1,1238,1079,0,0
21,-55,0,0,0,0,0,0,0,0,0,-1,1245,1079,0,0
28,-55,0,0,0,0,0,0,0,0,0,-1,1252,1079,0,0
35,-55,0,0,0,0,0,0,0,0,0,-1,1259,1079,0,0
42,-55,0,0,0,0,0,0,0,0,0,-1,1266,1079,0,0
49,-55,0,0,0,0,0,0,0,0,0,-1,1273,1079,0,0
56,-55,0,0,0,0,0,0,0,0,0,-1,1280,1079,0,0
63,-55,0,0,0,0,0,0,0,0,0,-1,1287,1079,0,0
70,-55,0,0,0,0,0,0,0,0,0,-1,1294,1079,0,0
77,-55,0,0,0,0,0,0,0,0,0,-1,1301,1079,0,0
84,-55,0,0,0,0,0,0,0,0,0,-1,1308,1079,0,0
91,-55,0,0,0,0,0,0,0,0,0,-1,1315,1079,0,0
98,-55,0,0,0,0,0,0,0,0,0,-1,1322,1079,0,0
105,-55,0,0,0,0,0,0,0,0,0,-1,1329,1079,0,0
112,-55,0,0,0,0,0,0,0,0,0,-1,1336,1079,0,0
119,-55,0,0,0,0,0,0,0,0,0,-1,1343,1079,0,0
126,-55,0,0,0,0,0,0,0,0,0,-1,1350,1079,0,0
133,-55,0,0,0,0,0,0,0,0,0,-1,1357,1079,0,0
140,-55,0,0,0,0,0,0,0,0,0,-1,1364,1079,0,0
147,-55,0,0,0,0,0,0,0,0,0,-1,1371,1079,0,0
154,-55,0,0,0,0,0,0,0,0,0,-1,1378,1079,0,0
161,-55,0,0,0,0,0,0,0,0,0,-1,1385,1079,0,0
168,-55,0,0,0,0,0,0,0,0,0,-1,1392,1079,0,0
175,-55,0,0,0,0,0,0,0,0,0,-1,1399,1079,0,0
182,-55,0,0,0,0,0,0,0,0,0,-1,1406,1079,0,0
189,-55,0,0,0,0,0,0,0,0,0,-1,1413,1079,0,0
196,-55,0,0,0,0,0,0,0,0,0,-1,1420,1079,0,0
203,-55,0,0,0,0,0,0,0,0,0,-1,1427,1079,0,0
210,-55,0,0,0,0,0,0,0,0,0,-1,1434,1079,0,0
217,-55,0,0,0,0,0,0,0,0,0,-1,1441,1079,0,0
224,-55,0,0,0,0,0,0,0,0,0,-1,1448,1079,0,0
231,-55,0,0,0,0,0,0,0,0,0,-1,1455,1079,0,0
238,-55,0,0,0,0,0,0,0,0,0,-1,1462,1079,0,0
245,-55,0,0,0,0,0,0,0,0,0,-1,1469,1079,0,0
252,-55,0,0,0,0,0,0,0,0,0,-1,1476,1079,0,0
259,-55,0,0,0,0,0,0,0,0,0,-1,1483,1079,0,0
266,-55,0,0,0,0,0,0,0,0,0,-1,1490,1079,0,0
273,-55,0,0,0,0,0,0,0,0,0,-1,1497,1079,0,0
280,-55,0,0,0,0,0,0,0,0,0,-1,1504,1079,0,0
287,-55,0,0,0,0,0,0,0,0,0,-1,1511,1079,0,0
294,-55,0,0,0,0,0,0,0,0,0,-1,1518,1079,0,0
301,-55,0,0,0,0,0,0,0,0,0,-1,1525,1079,0,0
308,-55,0,0,0,0,0,0,0,0,0,-1,1532,1079,0,0
315,-55,0,0,0,0,0,0,0,0,0,-1,1539,1079,0,0
322,-55,0,0,0,0,0,0,0,0,0,-1,1546,1079,0,0
329,-55,0,0,0,0,0,0,0,0,0,-1,1553,1079,0,0
336,-55,0,0,0,0,0,0,0,0,0,-1,1560,1079,0,0
343,-55,0,0,0,0,0,0,0,0,0,-1,1567,1079,0,0
350,-55,0,0,0,0,0,0,0,0,0,-1,1574,1079,0,0
357,-55,0,0,0,0,0,0,0,0,0,-1,1581,1079,0,0
364,-55,0,0,0,0,0,0,0,0,0,-1,1588,1079,0,0
371,-55,0,0,0,0,0,0,0,0,0,-1,1595,1079,0,0
378,-55,0,0,0,0,0,0,0,0,0,-1,1602,1079,0,0
385,-55,0,0,0,0,0,0,0,0,0,-1,1609,1079,0,0
392,-55,0,0,0,0,0,0,0,0,0,-1,1616,1079,0,0
399,-55,0,0,0,0,0,0,0,0,0,-1,1623,1079,0,0
406,-55,0,0,0,0,0,0,0,0,0,-1,1630,1079,0,0
413,-55,0,0,0,0,0,0,0,0,0,-1,1637,1079,0,0
420,-55,0,0,0,0,0,0,0,0,0,-1,1644,1079,0,0
427,-55,0,0,0,0,0,0,0,0,0,-1,1651,1079,0,0
434,-55,0,0,0,0,0,0,0,0,0,-1,1658,1079,0,0
441,-55,0,0,0,0,0,0,0,0,0,-1,1665,1079,0,0
448,-55,0,0,0,0,0,0,0,0,0,-1,1672,1079,0,0
455,-55,0,0,0,0,0,0,0,0,0,-1,1679,1079,0,0
462,-55,0,0,0,0,0,0,0,0,0,-1,1686,1079,0,0
469,-55,0,0,0,0,0,0,0,0,0,-1,1693,1079,0,0
476,-55,0,0,0,0,0,0,0,0,0,-1,1700,1079,0,0
483,-55,0,0,0,0,0,0,0,0,0,-1,1707,1079,0,0
490,-55,0,0,0,0,0,0,0,0,0,-1,1714,1079,0,0
497,-55,0,0,0,0,0,0,0,0,0,-1,1721,1079,0,0
504,-55,0,0,0,0,0,0,0,0,0,-1,1728,1079,0,0
511,-55,0,0,0,0,0,0,0,0,0,-1,1735,1079,0,0
518,-55,0,0,0,0,0,0,0,0,0,-1,1742,1079,0,0
525,-55,0,0,0,0,0,0,0,0,0,-1,1749,1079,0,0
532,-55,0,0,0,0,0,0,0,0,0,-1,1756,1079,0,0
539,-55,0,0,0,0,0,0,0,0,0,-1,1763,1079,0,0
546,-55,0,0,0,0,0,0,0,0,0,-1,1770,1079,0,0
553,-55,0,0,0,0,0,0,0,0,0,-1,1777,1079,0,0
560,-55,0,0,0,0,0,0,0,0,0,-1,1784,1079,0,0
567,-55,0,0,0,0,0,0,0,0,0,-1,1791,1079,0,0
574,-55,0,0,0,0,0,0,0,0,0,-1,1798,1079,0,0
581,-55,0,0,0,0,0,0,0,0,0,-1,1805,1079,0,0
588,-55,0,0,0,0,0,0,0,0,0,-1,1812,1079,0,0
595,-55,0,0,0,0,0,0,0,0,0,-1,1819,1079,0,0
602,-55,0,0,0,0,0,0,0,0,0,-1,1826,1079,0,0
609,-55,0,0,0,0,0,0,0,0,0,-1,1833,1079,0,0
616,-55,0,0,0,0,0,0,0,0,0,-1,1840,1079,0,0
623,-55,0,0,0,0,0,0,0,0,0,-1,1847,1079,0,0
630,-55,0,0,0,0,0,0,0,0,0,-1,1854,1079,0,0
637,-55,0,0,0,0,0,0,0,0,0,-1,1861,1079,0,0
644,-55,0,0,0,0,0,0,0,0,0,-1,1868,1079,0,0
651,-55,80.0176,2.16382,0.00228793,0.000172357,-0.000267398,0.0023212,0.000139083,-0.123801,0.00150325,0.0366418,1875,1079,80.0176,-2.16384
658,-55,80.1058,2.26111,0.00143458,-0.000301627,0.000364407,0.00150797,-0.000375009,0.198717,0.00115086,0.0340022,1882,1079,80.1058,-2.26108
665,-55,79.9681,2.27979,0.000803437,-0.000633508,0.000730422,0.00110952,-0.000939593,0.396822,0.00118441,0.038927,1889,1079,79.9682,-2.27982
672,-55,80.0251,2.30908,0.00032369,-0.000779968,0.000964571,0.000883127,-0.0013394,0.525573,0.00129216,0.0402479,1896,1079,80.0251,-2.30909
679,-55,80.073,2.17871,-7.54428e-05,-0.000827048,0.00109141,0.000703054,-0.00160554,0.619592,0.0013664,0.0378407,1903,1079,80.073,-2.17865
686,-55,79.9485,2.21741,-0.000690409,-0.00103483,0.00113416,0.000284537,-0.00200977,0.710054,0.00144407,0.0378714,1910,1079,79.9485,-2.21744
693,-55,79.9976,2.19543,-0.00116914,-0.00128864,0.00128504,5.75426e-05,-0.00251532,0.762166,0.00169639,0.0387649,1917,1079,79.9976,-2.1954
700,-55,80.0491,2.21997,-0.0014858,-0.00129801,0.00146576,7.68581e-05,-0.00286067,0.817385,0.00193324,0.0351554,1924,1079,80.0491,-2.21997
707,-55,80.0846,2.22668,-0.00211583,-0.00110251,0.00176575,0.000227829,-0.00344617,0.925113,0.00237703,0.0247712,1931,1079,80.0846,-2.22664
714,-55,80.0503,2.16614,-0.00287514,-0.000627277,0.00201351,0.000554755,-0.00405717,1.03995,0.00290739,0.0442656,1938,1079,80.0503,-2.16613
721,-55,80.0752,2.05396,0,0,0,0,0,0,0,-1,1945,1079,80.0752,-2.054
728,-55,78.2881,8.82776,0,0,0,0,0,0,0,-1,1952,1079,78.2881,-8.8278
735,-55,78.2194,8.37964,-0.0058535,0.0028028,0.0025591,0.00350276,-0.00655346,1.30381,0.00589434,0.024468,1959,1079,78.2193,-8.37963
742,-55,78.2074,7.94824,-0.00647288,0.00435855,0.00270825,0.00499796,-0.00711229,1.33894,0.00702729,0.023414,1966,1079,78.2074,-7.94824
749,-55,78.1858,7.49536,-0.00744804,0.0061237,0.0029143,0.00672304,-0.00804737,1.36797,0.00853912,0.0155854,1973,1079,78.1858,-7.4953
756,-55,78.0681,7.05664,-0.00810188,0.00839938,0.00268083,0.00882399,-0.00852649,1.41371,0.0100178,0.01404,1980,1079,78.0681,-7.05661
763,-55,77.9646,6.64832,-0.00756548,0.0115062,0.00266763,0.0118723,-0.00793159,1.43441,0.011509,0.0171098,1987,1079,77.9646,-6.64833
770,-55,77.8359,6.20605,-0.00630399,0.0153504,0.00225864,0.0155835,-0.00653707,1.46797,0.0131225,0.0189369,1994,1079,77.8359,-6.20607
777,-55,77.7061,5.78381,-0.00309862,0.0197217,0.00180893,0.0198642,-0.00324112,1.49218,0.0144449,0.0156638,2001,1079,77.7059,-5.78386
784,-55,77.5842,5.36963,0.00179815,0.023928,0.00147928,0.0240265,0.0016997,1.50434,0.0154822,0.0314218,2008,1079,77.5843,-5.36966
791,-55,77.4192,4.97852,0.00918254,0.0279145,0.00136643,0.0280136,0.00908338,1.49836,0.0165034,0.0436607,2015,1079,77.4192,-4.97853
798,-55,77.2546,4.61462,0.0208524,0.031587,0.00182876,0.03189,0.0205494,1.4066,0.0186658,0.0471517,2022,1079,77.2545,-4.61468
805,-55,77.0708,4.22498,0.0385319,0.0351137,0.00325011,0.0404949,0.0331508,0.543339,0.0249121,0.0483986,2029,1079,77.0708,-4.22497
812,-55,79.4771,4.30603,0.0646521,0.0384391,0.00672944,0.0662788,0.0368125,0.237172,0.0383443,0.0460927,2036,1079,79.4771,-4.30598
-700,-62,-65.194,-4.64453,0,0,0,0,0,0,0,-1,524,1086,-65.194,4.64458
-693,-62,-65.5257,-3.6167,-0.0241652,-0.00419843,-0.0311311,0.0185109,-0.0468745,-0.940562,0.0389162,0.0480138,531,1086,-65.5257,3.61667
-686,-62,-65.7058,-2.62793,0,0,0,0,0,0,0,-1,538,1086,-65.7058,2.62799
-679,-62,-65.4929,-1.55457,0,0,0,0,0,0,0,-1,545,1086,-65.4929,1.55454
-672,-62,-62.0673,2.07764,0,0,0,0,0,0,0,-1,552,1086,-62.0673,-2.07766
-665,-62,-61.7704,3.07751,0,0,0,0,0,0,0,-1,559,1086,-61.7704,-3.07746
-658,-62,-61.0638,2.4115,0,0,0,0,0,0,0,-1,566,1086,-61.0638,-2.41149
-651,-62,-61.3017,4.15112,0,0,0,0,0,0,0,-1,573,1086,-61.3017,-4.15112
-644,-62,-61.462,4.9386,-0.00582796,0.014716,0.00122468,0.0147887,-0.00590071,1.51146,0.012307,0.040711,580,1086,-61.4621,-4.93859
-637,-62,-61.5379,5.49475,-0.00440107,0.0127219,0.000703942,0.0127507,-0.00442996,1.52978,0.0102998,0.0175196,587,1086,-61.5379,-5.49477
-630,-62,-61.6402,5.97815,-0.00315948,0.00974208,-0.000575404,0.00976769,-0.00318509,-1.52631,0.00779355,0.0177469,594,1086,-61.6402,-5.97819
-623,-62,-61.7268,6.53662,-0.00160619,0.00670727,-0.00137123,0.0069276,-0.00182652,-1.41148,0.00533255,0.0205659,601,1086,-61.7268,-6.53661
-616,-62,-61.7164,7.0675,-0.000349381,0.0041353,-0.00187158,0.00481373,-0.00102781,-1.22304,0.00360099,0.0217771,608,1086,-61.7164,-7.06748
-609,-62,-61.6649,7.52087,0.000918118,0.00194935,-0.00205446,0.00355192,-0.000684444,-0.908346,0.00262599,0.0216689,615,1086,-61.6649,-7.52091
-602,-62,-61.5172,7.95276,0.00195726,0.000464528,-0.0021596,0.00349583,-0.00107404,-0.619022,0.00275915,0.0178762,622,1086,-61.5172,-7.95276
-595,-62,-61.315,8.4043,0.00238803,-0.000561934,-0.00217584,0.00354171,-0.00171561,-0.487532,0.00309575,0.0408251,629,1086,-61.315,-8.40424
-588,-62,-61.1678,8.78711,0,0,0,0,0,0,0,-1,636,1086,-61.1678,-8.78708
-581,-62,-63.2601,0.442017,0,0,0,0,0,0,0,-1,643,1086,-63.2602,-0.441994
-574,-62,-63.3323,0.479248,0.00264338,-0.00158006,-0.00145534,0.00309631,-0.00203298,-0.301712,0.00298253,0.0329047,650,1086,-63.3323,-0.4793
-567,-62,-63.2352,0.532104,0.0021389,-0.00127853,-0.00119891,0.00251756,-0.00165718,-0.305914,0.00242729,0.0365617,657,1086,-63.2352,-0.532141
-560,-62,-63.0235,0.645874,0.000996185,-0.000677669,-0.000900602,0.0013887,-0.00107019,-0.411014,0.0014236,0.041628,664,1086,-63.0235,-0.645883
-553,-62,-63.0445,0.505371,-0.000849318,3.03967e-05,-0.000489819,0.000248868,-0.00106779,-1.15125,0.000807699,0.0386739,671,1086,-63.0445,-0.505409
-546,-62,-63.1829,0.353027,-0.00336899,0.000526269,6.33938e-05,0.000527301,-0.00337002,1.55453,0.0024415,0.0328877,678,1086,-63.1829,-0.353075
-539,-62,-63.3022,0.527344,-0.00651082,0.000157167,0.000704093,0.000230704,-0.00658436,1.46673,0.00446846,0.0386679,685,1086,-63.3022,-0.527356
-532,-62,-63.3304,0.556396,-0.00956892,2.11056e-05,0.0017779,0.000340101,-0.00988792,1.39326,0.00670819,0.0398284,692,1086,-63.3304,-0.55635
-525,-62,0,0,0,0,0,0,0,0,0,-1,699,1086,0,0
-518,-62,0,0,0,0,0,0,0,0,0,-1,706,1086,0,0
-511,-62,0,0,0,0,0,0,0,0,0,-1,713,1086,0,0
-504,-62,0,0,0,0,0,0,0,0,0,-1,720,1086,0,0
-497,-62,0,0,0,0,0,0,0,0,0,-1,727,1086,0,0
-490,-62,0,0,0,0,0,0,0,0,0,-1,734,1086,0,0
-483,-62,0,0,0,0,0,0,0,0,0,-1,741,1086,0,0
-476,-62,0,0,0,0,0,0,0,0,0,-1,748,1086,0,0
-469,-62,0,0,0,0,0,0,0,0,0,-1,755,1086,0,0
-462,-62,0,0,0,0,0,0,0,0,0,-1,762,1086,0,0
-455,-62,0,0,0,0,0,0,0,0,0,-1,769,1086,0,0
-448,-62,0,0,0,0,0,0,0,0,0,-1,776,1086,0,0
-441,-62,0,0,0,0,0,0,0,0,0,-1,783,1086,0,0
-434,-62,0,0,0,0,0,0,0,0,0,-1,790,1086,0,0
-427,-62,0,0,0,0,0,0,0,0,0,-1,797,1086,0,0
-420,-62,0,0,0,0,0,0,0,0,0,-1,804,1086,0,0
-413,-62,0,0,0,0,0,0,0,0,0,-1,811,1086,0,0
-406,-62,0,0,0,0,0,0,0,0,0,-1,818,1086,0,0
-399,-62,0,0,0,0,0,0,0,0,0,-1,825,1086,0,0
-392,-62,0,0,0,0,0,0,0,0,0,-1,832,1086,0,0
-385,-62,0,0,0,0,0,0,0,0,0,-1,839,1086,0,0
-378,-62,0,0,0,0,0,0,0,0,0,-1,846,1086,0,0
-371,-62,0,0,0,0,0,0,0,0,0,-1,853,1086,0,0
-364,-62,0,0,0,0,0,0,0,0,0,-1,860,1086,0,0
-357,-62,0,0,0,0,0,0,0,0,0,-1,867,1086,0,0
-350,-62,0,0,0,0,0,0,0,0,0,-1,874,1086,0,0
-343,-62,0,0,0,0,0,0,0,0,0,-1,881,1086,0,0
-336,-62,0,0,0,0,0,0,0,0,0,-1,888,1086,0,0
-329,-62,0,0,0,0,0,0,0,0,0,-1,895,1086,0,0
-322,-62,0,0,0,0,0,0,0,0,0,-1,902,1086,0,0
-315,-62,0,0,0,0,0,0,0,0,0,-1,909,1086,0,0
-308,-62,0,0,0,0,0,0,0,0,0,-1,916,1086,0,0
-301,-62,0,0,0,0,0,0,0,0,0,-1,923,1086,0,0
-294,-62,0,0,0,0,0,0,0,0,0,-1,930,1086,0,0
-287,-62,0,0,0,0,0,0,0,0,0,-1,937,1086,0,0
-280,-62,0,0,0,0,0,0,0,0,0,-1,944,1086,0,0
-273,-62,0,0,0,0,0,0,0,0,0,-1,951,1086,0,0
-266,-62,0,0,0,0,0,0,0,0,0,-1,958,1086,0,0
-259,-62,0,0,0,0,0,0,0,0,0,-1,965,1086,0,0
-252,-62,0,0,0,0,0,0,0,0,0,-1,972,1086,0,0
-245,-62,0,0,0,0,0,0,0,0,0,-1,979,1086,0,0
-238,-62,0,0,0,0,0,0,0,0,0,-1,986,1086,0,0
-231,-62,0,0,0,0,0,0,0,0,0,-1,993,1086,0,0
-224,-62,0,0,0,0,0,0,0,0,0,-1,1000,1086,0,0
-217,-62,0,0,0,0,0,0,0,0,0,-1,1007,1086,0,0
-210,-62,0,0,0,0,0,0,0,0,0,-1,1014,1086,0,0
-203,-62,0,0,0,0,0,0,0,0,0,-1,1021,1086,0,0
-196,-62,0,0,0,0,0,0,0,0,0,-1,1028,1086,0,0
-189,-62,0,0,0,0,0,0,0,0,0,-1,1035,1086,0,0
-182,-62,0,0,0,0,0,0,0,0,0,-1,1042,1086,0,0
-175,-62,0,0,0,0,0,0,0,0,0,-1,1049,1086,0,0
-168,-62,0,0,0,0,0,0,0,0,0,-1,1056,1086,0,0
-161,-62,0,0,0,0,0,0,0,0,0,-1,1063,1086,0,0
-154,-62,0,0,0,0,0,0,0,0,0,-1,1070,1086,0,0
-147,-62,0,0,0,0,0,0,0,0,0,-1,1077,1086,0,0
-140,-62,0,0,0,0,0,0,0,0,0,-1,1084,1086,0,0
-133,-62,0,0,0,0,0,0,0,0,0,-1,1091,1086,0,0
-126,-62,0,0,0,0,0,0,0,0,0,-1,1098,1086,0,0
-119,-62,0,0,0,0,0,0,0,0,0,-1,1105,1086,0,0
-112,-62,0,0,0,0,0,0,0,0,0,-1,1112,1086,0,0
-105,-62,0,0,0,0,0,0,0,0,0,-1,1119,1086,0,0
-98,-62,0,0,0,0,0,0,0,0,0,-1,1126,1086,0,0
-91,-62,0,0,0,0,0,0,0,0,0,-1,1133,1086,0,0
-84,-62,0,0,0,0,0,0,0,0,0,-1,1140,1086,0,0
-77,-62,0,0,0,0,0,0,0,0,0,-1,1147,1086,0,0
-70,-62,0,0,0,0,0,0,0,0,0,-1,1154,1086,0,0
-63,-62,0,0,0,0,0,0,0,0,0,-1,1161,1086,0,0
-56,-62,0,0,0,0,0,0,0,0,0,-1,1168,1086,0,0
-49,-62,0,0,0,0,0,0,0,0,0,-1,1175,1086,0,0
-42,-62,0,0,0,0,0,0,0,0,0,-1,1182,1086,0,0
-35,-62,0,0,0,0,0,0,0,0,0,-1,1189,1086,0,0
-28,-62,0,0,0,0,0,0,0,0,0,-1,1196,1086,0,0
-21,-62,0,0,0,0,0,0,0,0,0,-1,1203,1086,0,0
-14,-62,0,0,0,0,0,0,0,0,0,-1,1210,1086,0,0
-7,-62,0,0,0,0,0,0,0,0,0,-1,1217,1086,0,0
0,-62,0,0,0,0,0,0,0,0,0,-1,1224,1086,0,0
7,-62,0,0,0,0,0,0,0,0,0,-1,1231,1086,0,0
14,-62,0,0,0,0,0,0,0,0,0,-1,1238,1086,0,0
21,-62,0,0,0,0,0,0,0,0,0,-1,1245,1086,0,0
28,-62,0,0,0,0,0,0,0,0,0,-1,1252,1086,0,0
35,-62,0,0,0,0,0,0,0,0,0,-1,1259,1086,0,0
42,-62,0,0,0,0,0,0,0,0,0,-1,1266,1086,0,0
49,-62,0,0,0,0,0,0,0,0,0,-1,1273,1086,0,0
56,-62,0,0,0,0,0,0,0,0,0,-1,1280,1086,0,0
63,-62,0,0,0,0,0,0,0,0,0,-1,1287,1086,0,0
70,-62,0,0,0,0,0,0,0,0,0,-1,1294,1086,0,0
77,-62,0,0,0,0,0,0,0,0,0,-1,1301,1086,0,0
84,-62,0,0,0,0,0,0,0,0,0,-1,1308,1086,0,0
91,-62,0,0,0,0,0,0,0,0,0,-1,1315,1086,0,0
98,-62,0,0,0,0,0,0,0,0,0,-1,1322,1086,0,0
105,-62,0,0,0,0,0,0,0,0,0,-1,1329,1086,0,0
112,-62,0,0,0,0,0,0,0,0,0,-1,1336,1086,0,0
119,-62,0,0,0,0,0,0,0,0,0,-1,1343,1086,0,0
126,-62,0,0,0,0,0,0,0,0,0,-1,1350,1086,0,0
133,-62,0,0,0,0,0,0,0,0,0,-1,1357,1086,0,0
140,-62,0,0,0,0,0,0,0,0,0,-1,1364,1086,0,0
147,-62,0,0,0,0,0,0,0,0,0,-1,1371,1086,0,0
154,-62,0,0,0,0,0,0,0,0,0,-1,1378,1086,0,0
161,-62,0,0,0,0,0,0,0,0,0,-1,1385,1086,0,0
168,-62,0,0,0,0,0,0,0,0,0,-1,1392,1086,0,0
175,-62,0,0,0,0,0,0,0,0,0,-1,1399,1086,0,0
182,-62,0,0,0,0,0,0,0,0,0,-1,1406,1086,0,0
189,-62,0,0,0,0,0,0,0,0,0,-1,1413,1086,0,0
196,-62,0,0,0,0,0,0,0,0,0,-1,1420,1086,0,0
203,-62,0,0,0,0,0,0,0,0,0,-1,1427,1086,0,0
210,-62,0,0,0,0,0,0,0,0,0,-1,1434,1086,0,0
217,-62,0,0,0,0,0,0,0,0,0,-1,1441,1086,0,0
224,-62,0,0,0,0,0,0,0,0,0,-1,1448,1086,0,0
231,-62,0,0,0,0,0,0,0,0,0,-1,1455,1086,0,0
238,-62,0,0,0,0,0,0,0,0,0,-1,1462,1086,0,0
245,-62,0,0,0,0,0,0,0,0,0,-1,1469,1086,0,0
252,-62,0,0,0,0,0,0,0,0,0,-1,1476,1086,0,0
259,-62,0,0,0,0,0,0,0,0,0,-1,1483,1086,0,0
266,-62,0,0,0,0,0,0,0,0,0,-1,1490,1086,0,0
273,-62,0,0,0,0,0,0,0,0,0,-1,1497,1086,0,0
280,-62,0,0,0,0,0,0,0,0,0,-1,1504,1086,0,0
287,-62,0,0,0,0,0,0,0,0,0,-1,1511,1086,0,0
294,-62,0,0,0,0,0,0,0,0,0,-1,1518,1086,0,0
301,-62,0,0,0,0,0,0,0,0,0,-1,1525,1086,0,0
308,-62,0,0,0,0,0,0,0,0,0,-1,1532,1086,0,0
315,-62,0,0,0,0,0,0,0,0,0,-1,1539,1086,0,0
322,-62,0,0,0,0,0,0,0,0,0,-1,1546,1086,0,0
329,-62,0,0,0,0,0,0,0,0,0,-1,1553,1086,0,0
336,-62,0,0,0,0,0,0,0,0,0,-1,1560,1086,0,0
343,-62,0,0,0,0,0,0,0,0,0,-1,1567,1086,0,0
350,-62,0,0,0,0,0,0,0,0,0,-1,1574,1086,0,0
357,-62,0,0,0,0,0,0,0,0,0,-1,1581,1086,0,0
364,-62,0,0,0,0,0,0,0,0,0,-1,1588,1086,0,0
371,-62,0,0,0,0,0,0,0,0,0,-1,1595,1086,0,0
378,-62,0,0,0,0,0,0,0,0,0,-1,1602,1086,0,0
385,-62,0,0,0,0,0,0,0,0,0,-1,1609,1086,0,0
392,-62,0,0,0,0,0,0,0,0,0,-1,1616,1086,0,0
399,-62,0,0,0,0,0,0,0,0,0,-1,1623,1086,0,0
406,-62,0,0,0,0,0,0,0,0,0,-1,1630,1086,0,0
413,-62,0,0,0,0,0,0,0,0,0,-1,1637,1086,0,0
420,-62,0,0,0,0,0,0,0,0,0,-1,1644,1086,0,0
427,-62,0,0,0,0,0,0,0,0,0,-1,1651,1086,0,0
434,-62,0,0,0,0,0,0,0,0,0,-1,1658,1086,0,0
441,-62,0,0,0,0,0,0,0,0,0,-1,1665,1086,0,0
448,-62,0,0,0,0,0,0,0,0,0,-1,1672,1086,0,0
455,-62,0,0,0,0,0,0,0,0,0,-1,1679,1086,0,0
462,-62,0,0,0,0,0,0,0,0,0,-1,1686,1086,0,0
469,-62,0,0,0,0,0,0,0,0,0,-1,1693,1086,0,0
476,-62,0,0,0,0,0,0,0,0,0,-1,1700,1086,0,0
483,-62,0,0,0,0,0,0,0,0,0,-1,1707,1086,0,0
490,-62,0,0,0,0,0,0,0,0,0,-1,1714,1086,0,0
497,-62,0,0,0,0,0,0,0,0,0,-1,1721,1086,0,0
504,-62,0,0,0,0,0,0,0,0,0,-1,1728,1086,0,0
511,-62,0,0,0,0,0,0,0,0,0,-1,1735,1086,0,0
518,-62,0,0,0,0,0,0,0,0,0,-1,1742,1086,0,0
525,-62,0,0,0,0,0,0,0,0,0,-1,1749,1086,0,0
532,-62,0,0,0,0,0,0,0,0,0,-1,1756,1086,0,0
539,-62,0,0,0,0,0,0,0,0,0,-1,1763,1086,0,0
546,-62,0,0,0,0,0,0,0,0,0,-1,1770,1086,0,0
553,-62,0,0,0,0,0,0,0,0,0,-1,1777,1086,0,0
560,-62,0,0,0,0,0,0,0,0,0,-1,1784,1086,0,0
567,-62,0,0,0,0,0,0,0,0,0,-1,1791,1086,0,0
574,-62,0,0,0,0,0,0,0,0,0,-1,1798,1086,0,0
581,-62,0,0,0,0,0,0,0,0,0,-1,1805,1086,0,0
588,-62,0,0,0,0,0,0,0,0,0,-1,1812,1086,0,0
595,-62,0,0,0,0,0,0,0,0,0,-1,1819,1086,0,0
602,-62,0,0,0,0,0,0,0,0,0,-1,1826,1086,0,0
609,-62,0,0,0,0,0,0,0,0,0,-1,1833,1086,0,0
616,-62,0,0,0,0,0,0,0,0,0,-1,1840,1086,0,0
623,-62,0,0,0,0,0,0,0,0,0,-1,1847,1086,0,0
630,-62,0,0,0,0,0,0,0,0,0,-1,1854,1086,0,0
637,-62,0,0,0,0,0,0,0,0,0,-1,1861,1086,0,0
644,-62,0,0,0,0,0,0,0,0,0,-1,1868,1086,0,0
651,-62,79.9418,2.06042,0.00265657,-0.000900554,7.46442e-05,0.00265813,-0.00090212,0.0209721,0.00213723,0.0405243,1875,1086,79.9417,-2.06042
658,-62,80.0326,2.15637,0.00178257,-0.000966302,0.000652215,0.00192947,-0.0011132,0.221534,0.00177763,0.0396113,1882,1086,80.0326,-2.15638
665,-62,79.9257,2.09375,0.00112688,-0.00101163,0.000936032,0.0014787,-0.00136345,0.359531,0.00164137,0.0394456,1889,1086,79.9257,-2.09377
672,-62,80.0171,2.31616,0.000614371,-0.000943261,0.00106115,0.00115184,-0.00148073,0.468829,0.00152386,0.039526,1896,1086,80.0171,-2.31618
679,-62,80.0867,2.24023,0.000188518,-0.000837266,0.00106813,0.000860513,-0.00150926,0.561566,0.00138517,0.0383179,1903,1086,80.0867,-2.24023
686,-62,80.0015,2.19092,-0.000394412,-0.000939642,0.000993064,0.000362776,-0.00169683,0.651439,0.00126954,0.0371683,1910,1086,80.0014,-2.19086
693,-62,80.0229,2.12439,-0.000820237,-0.00115799,0.00108742,0.000111346,-0.00208957,0.708364,0.00143161,0.0361587,1917,1086,80.023,-2.12436
700,-62,80.0624,2.18982,-0.00107137,-0.00114511,0.00121796,0.000110273,-0.00232676,0.770267,0.00158921,0.0315674,1924,1086,80.0623,-2.1898
707,-62,80.0266,2.20386,-0.00162429,-0.000949623,0.00150206,0.000252516,-0.00282643,0.895856,0.00197385,0.0203229,1931,1086,80.0266,-2.20387
714,-62,80.0261,2.13293,-0.00230421,-0.00052258,0.00174971,0.000550032,-0.00337682,1.02086,0.00245518,0.0355034,1938,1086,80.0262,-2.13295
721,-62,80.0406,2.0564,0,0,0,0,0,0,0,-1,1945,1086,80.0406,-2.05636
728,-62,77.8156,8.98096,0,0,0,0,0,0,0,-1,1952,1086,77.8156,-8.98093
735,-62,77.7291,8.39771,-0.00502836,0.0024915,0.00229342,0.00313576,-0.00567261,1.29694,0.00515534,0.0327756,1959,1086,77.7291,-8.39766
742,-62,77.6638,8.01892,-0.00554334,0.00388176,0.00255445,0.00452956,-0.00619114,1.32244,0.00621433,0.0335759,1966,1086,77.6638,-8.01891
749,-62,77.6025,7.52222,-0.00646339,0.00548775,0.00289006,0.00614994,-0.00712559,1.34556,0.00767153,0.0255666,1973,1086,77.6027,-7.52216
756,-62,77.5046,7.0968,-0.00720725,0.00754438,0.00276075,0.00804412,-0.00770699,1.39172,0.0090946,0.0173104,1980,1086,77.5046,-7.09679
763,-62,77.447,6.59802,-0.00677041,0.0104525,0.00287248,0.0109189,-0.00723686,1.40982,0.0105539,0.0214942,1987,1086,77.4471,-6.59802
770,-62,77.3481,6.08313,-0.00566132,0.0140272,0.00263232,0.0143731,-0.00600718,1.44015,0.0120925,0.0200799,1994,1086,77.3482,-6.08319
777,-62,77.1555,5.59082,-0.00288249,0.0179997,0.00238305,0.0182682,-0.00315099,1.4586,0.0133536,0.0194934,2001,1086,77.1555,-5.59076
784,-62,77.1057,5.11438,0.00144264,0.0217953,0.0022627,0.0220438,0.00119412,1.4614,0.0143145,0.0288261,2008,1086,77.1057,-5.11436
791,-62,76.9788,4.73132,0.00802322,0.0253522,0.00236296,0.0256686,0.00770679,1.43767,0.0152089,0.0439115,2015,1086,76.9787,-4.73129
798,-62,78.0007,4.39624,0,0,0,0,0,0,0,-1,2022,1086,78.0008,-4.39621
805,-62,78.1304,4.02356,0.0343749,0.0314913,0.00464721,0.0377988,0.0280674,0.634978,0.0226629,0.0461393,2029,1086,78.1304,-4.02356
812,-62,78.4563,3.9635,0.0578664,0.0341531,0.00819981,0.0604256,0.0315939,0.302526,0.0348989,0.0458355,2036,1086,78.4562,-3.96351
-700,-69,-63.3404,-4.04761,0,0,0,0,0,0,0,-1,524,1093,-63.3404,4.04757
-693,-69,-63.5578,-2.92639,0,0,0,0,0,0,0,-1,531,1093,-63.5578,2.92636
-686,-69,-63.7752,-1.80518,0,0,0,0,0,0,0,-1,538,1093,-63.7752,1.80514
-679,-69,-60.9651,0.515137,0,0,0,0,0,0,0,-1,545,1093,-60.9651,-0.515081
-672,-69,-61.1746,1.7738,-0.00920243,0.00559743,0.00479902,0.00701734,-0.0106223,1.28313,0.0102549,0.0460533,552,1093,-61.1746,-1.77384
-665,-69,-60.8883,2.83252,-0.00734177,0.00822922,0.00595331,0.0102445,-0.00935709,1.24439,0.0113209,0.0463786,559,1093,-60.8883,-2.83247
-658,-69,-60.6426,3.87988,0,0,0,0,0,0,0,-1,566,1093,-60.6426,-3.87984
-651,-69,-58.6837,4.00354,0,0,0,0,0,0,0,-1,573,1093,-58.6837,-4.00359
-644,-69,-60.9654,4.86755,0,0,0,0,0,0,0,-1,580,1093,-60.9654,-4.86757
-637,-69,-60.9492,5.45288,-0.00406654,0.00942599,0.00187976,0.00968298,-0.00432353,1.43492,0.00828165,0.0206719,587,1093,-60.9492,-5.45286
-630,-69,-60.9877,5.95764,-0.00336715,0.00765509,3.67368e-05,0.00765521,-0.00336727,1.56746,0.00652237,0.0166135,594,1093,-60.9878,-5.95763
-623,-69,-60.9958,6.45862,-0.00200688,0.00547654,-0.00116912,0.00565494,-0.00218528,-1.41937,0.00467197,0.0218011,601,1093,-60.9958,-6.45863
-616,-69,-61.0302,6.95972,-0.000848602,0.00352461,-0.00187084,0.00421573,-0.00153972,-1.21693,0.00344056,0.0284841,608,1093,-61.0302,-6.95975
-609,-69,-61.0596,7.47729,0.000406121,0.00169382,-0.00204774,0.00319654,-0.0010966,-0.937715,0.00257559,0.0241985,615,1093,-61.0596,-7.47728
-602,-69,-61.0024,8.04346,0.00149483,0.000501086,-0.00219329,0.00324683,-0.00125091,-0.674008,0.00268064,0.0210713,622,1093,-61.0025,-8.04349
-595,-69,-60.8826,8.40845,0.00200572,-0.000274354,-0.00221843,0.0033599,-0.00162854,-0.548048,0.00293733,0.0477472,629,1093,-60.8827,-8.4084
-588,-69,-60.9152,8.58167,0,0,0,0,0,0,0,-1,636,1093,-60.9152,-8.58167
-581,-69,-63.22,0.43457,0,0,0,0,0,0,0,-1,643,1093,-63.22,-0.434626
-574,-69,-63.2492,0.470459,0.00250968,-0.00116166,-0.0014746,0.00302861,-0.00168059,-0.338376,0.00275573,0.0303689,650,1093,-63.2492,-0.470436
-567,-69,-63.106,0.636841,0.00217539,-0.000886417,-0.00121718,0.0026003,-0.00131132,-0.335864,0.00229888,0.0371766,657,1093,-63.106,-0.636783
-560,-69,-62.9578,0.672485,0.00118107,-0.000338062,-0.000936942,0.00162766,-0.000784647,-0.444786,0.00142081,0.0408196,664,1093,-62.9578,-0.672504
-553,-69,-63.0101,0.526245,-0.000656624,0.00030939,-0.000577612,0.000579332,-0.000926565,-1.13362,0.000877101,0.0389973,671,1093,-63.0101,-0.526294
-546,-69,-63.0956,0.414185,-0.00334267,0.000770685,-0.000104096,0.000773317,-0.00334531,-1.54551,0.00252772,0.0353769,678,1093,-63.0956,-0.414242
-539,-69,-63.2194,0.465698,-0.00670652,0.000316916,0.000450194,0.000345656,-0.00673526,1.50705,0.00460971,0.0388543,685,1093,-63.2194,-0.465708
-532,-69,-63.2612,0.471802,-0.00998785,4.21792e-05,0.00140273,0.000234662,-0.0101803,1.43443,0.00686644,0.0397166,692,1093,-63.2612,-0.47175
-525,-69,0,0,0,0,0,0,0,0,0,-1,699,1093,0,0
-518,-69,0,0,0,0,0,0,0,0,0,-1,706,1093,0,0
-511,-69,0,0,0,0,0,0,0,0,0,-1,713,1093,0,0
-504,-69,0,0,0,0,0,0,0,0,0,-1,720,1093,0,0
-497,-69,0,0,0,0,0,0,0,0,0,-1,727,1093,0,0
-490,-69,0,0,0,0,0,0,0,0,0,-1,734,1093,0,0
-483,-69,0,0,0,0,0,0,0,0,0,-1,741,1093,0,0
-476,-69,0,0,0,0,0,0,0,0,0,-1,748,1093,0,0
-469,-69,0,0,0,0,0,0,0,0,0,-1,755,1093,0,0
-462,-69,0,0,0,0,0,0,0,0,0,-1,762,1093,0,0
-455,-69,0,0,0,0,0,0,0,0,0,-1,769,1093,0,0
-448,-69,0,0,0,0,0,0,0,0,0,-1,776,1093,0,0
-441,-69,0,0,0,0,0,0,0,0,0,-1,783,1093,0,0
-434,-69,0,0,0,0,0,0,0,0,0,-1,790,1093,0,0
-427,-69,0,0,0,0,0,0,0,0,0,-1,797,1093,0,0
-420,-69,0,0,0,0,0,0,0,0,0,-1,804,1093,0,0
-413,-69,0,0,0,0,0,0,0,0,0,-1,811,1093,0,0
-406,-69,0,0,0,0,0,0,0,0,0,-1,818,1093,0,0
-399,-69,0,0,0,0,0,0,0,0,0,-1,825,1093,0,0
-392,-69,0,0,0,0,0,0,0,0,0,-1,832,1093,0,0
-385,-69,0,0,0,0,0,0,0,0,0,-1,839,1093,0,0
-378,-69,0,0,0,0,0,0,0,0,0,-1,846,1093,0,0
-371,-69,0,0,0,0,0,0,0,0,0,-1,853,1093,0,0
-364,-69,0,0,0,0,0,0,0,0,0,-1,860,1093,0,0
-357,-69,0,0,0,0,0,0,0,0,0,-1,867,1093,0,0
-350,-69,0,0,0,0,0,0,0,0,0,-1,874,1093,0,0
-343,-69,0,0,0,0,0,0,0,0,0,-1,881,1093,0,0
-336,-69,0,0,0,0,0,0,0,0,0,-1,888,1093,0,0
-329,-69,0,0,0,0,0,0,0,0,0,-1,895,1093,0,0
-322,-69,0,0,0,0,0,0,0,0,0,-1,902,1093,0,0
-315,-69,0,0,0,0,0,0,0,0,0,-1,909,1093,0,0
-308,-69,0,0,0,0,0,0,0,0,0,-1,916,1093,0,0
-301,-69,0,0,0,0,0,0,0,0,0,-1,923,1093,0,0
-294,-69,0,0,0,0,0,0,0,0,0,-1,930,1093,0,0
-287,-69,0,0,0,0,0,0,0,0,0,-1,937,1093,0,0
-280,-69,0,0,0,0,0,0,0,0,0,-1,944,1093,0,0
-273,-69,0,0,0,0,0,0,0,0,0,-1,951,1093,0,0
-266,-69,0,0,0,0,0,0,0,0,0,-1,958,1093,0,0
-259,-69,0,0,0,0,0,0,0,0,0,-1,965,1093,0,0
-252,-69,0,0,0,0,0,0,0,0,0,-1,972,1093,0,0
-245,-69,0,0,0,0,0,0,0,0,0,-1,979,1093,0,0
-238,-69,0,0,0,0,0,0,0,0,0,-1,986,1093,0,0
-231,-69,0,0,0,0,0,0,0,0,0,-1,993,1093,0,0
-224,-69,0,0,0,0,0,0,0,0,0,-1,1000,1093,0,0
-217,-69,0,0,0,0,0,0,0,0,0,-1,1007,1093,0,0
-210,-69,0,0,0,0,0,0,0,0,0,-1,1014,1093,0,0
-203,-69,0,0,0,0,0,0,0,0,0,-1,1021,1093,0,0
-196,-69,0,0,0,0,0,0,0,0,0,-1,1028,1093,0,0
-189,-69,0,0,0,0,0,0,0,0,0,-1,1035,1093,0,0
-182,-69,0,0,0,0,0,0,0,0,0,-1,1042,1093,0,0
-175,-69,0,0,0,0,0,0,0,0,0,-1,1049,1093,0,0
-168,-69,0,0,0,0,0,0,0,0,0,-1,1056,1093,0,0
-161,-69,0,0,0,0,0,0,0,0,0,-1,1063,1093,0,0
-154,-69,0,0,0,0,0,0,0,0,0,-1,1070,1093,0,0
-147,-69,0,0,0,0,0,0,0,0,0,-1,1077,1093,0,0
-140,-69,0,0,0,0,0,0,0,0,0,-1,1084,1093,0,0
-133,-69,0,0,0,0,0,0,0,0,0,-1,1091,1093,0,0
-126,-69,0,0,0,0,0,0,0,0,0,-1,1098,1093,0,0
-119,-69,0,0,0,0,0,0,0,0,0,-1,1105,1093,0,0
-112,-69,0,0,0,0,0,0,0,0,0,-1,1112,1093,0,0
-105,-69,0,0,0,0,0,0,0,0,0,-1,1119,1093,0,0
-98,-69,0,0,0,0,0,0,0,0,0,-1,1126,1093,0,0
-91,-69,0,0,0,0,0,0,0,0,0,-1,1133,1093,0,0
-84,-69,0,0,0,0,0,0,0,0,0,-1,1140,1093,0,0
-77,-69,0,0,0,0,0,0,0,0,0,-1,1147,1093,0,0
-70,-69,0,0,0,0,0,0,0,0,0,-1,1154,1093,0,0
-63,-69,0,0,0,0,0,0,0,0,0,-1,1161,1093,0,0
-56,-69,0,0,0,0,0,0,0,0,0,-1,1168,1093,0,0
-49,-69,0,0,0,0,0,0,0,0,0,-1,1175,1093,0,0
-42,-69,0,0,0,0,0,0,0,0,0,-1,1182,1093,0,0
-35,-69,0,0,0,0,0,0,0,0,0,-1,1189,1093,0,0
-28,-69,0,0,0,0,0,0,0,0,0,-1,1196,1093,0,0
-21,-69,0,0,0,0,0,0,0,0,0,-1,1203,1093,0,0
-14,-69,0,0,0,0,0,0,0,0,0,-1,1210,1093,0,0
-7,-69,0,0,0,0,0,0,0,0,0,-1,1217,1093,0,0
0,-69,0,0,0,0,0,0,0,0,0,-1,1224,1093,0,0
7,-69,0,0,0,0,0,0,0,0,0,-1,1231,1093,0,0
14,-69,0,0,0,0,0,0,0,0,0,-1,1238,1093,0,0
21,-69,0,0,0,0,0,0,0,0,0,-1,1245,1093,0,0
28,-69,0,0,0,0,0,0,0,0,0,-1,1252,1093,0,0
35,-69,0,0,0,0,0,0,0,0,0,-1,1259,1093,0,0
42,-69,0,0,0,0,0,0,0,0,0,-1,1266,1093,0,0
49,-69,0,0,0,0,0,0,0,0,0,-1,1273,1093,0,0
56,-69,0,0,0,0,0,0,0,0,0,-1,1280,1093,0,0
63,-69,0,0,0,0,0,0,0,0,0,-1,1287,1093,0,0
70,-69,0,0,0,0,0,0,0,0,0,-1,1294,1093,0,0
77,-69,0,0,0,0,0,0,0,0,0,-1,1301,1093,0,0
84,-69,0,0,0,0,0,0,0,0,0,-1,1308,1093,0,0
91,-69,0,0,0,0,0,0,0,0,0,-1,1315,1093,0,0
98,-69,0,0,0,0,0,0,0,0,0,-1,1322,1093,0,0
105,-69,0,0,0,0,0,0,0,0,0,-1,1329,1093,0,0
112,-69,0,0,0,0,0,0,0,0,0,-1,1336,1093,0,0
119,-69,0,0,0,0,0,0,0,0,0,-1,1343,1093,0,0
126,-69,0,0,0,0,0,0,0,0,0,-1,1350,1093,0,0
133,-69,0,0,0,0,0,0,0,0,0,-1,1357,1093,0,0
140,-69,0,0,0,0,0,0,0,0,0,-1,1364,1093,0,0
147,-69,0,0,0,0,0,0,0,0,0,-1,1371,1093,0,0
154,-69,0,0,0,0,0,0,0,0,0,-1,1378,1093,0,0
161,-69,0,0,0,0,0,0,0,0,0,-1,1385,1093,0,0
168,-69,0,0,0,0,0,0,0,0,0,-1,1392,1093,0,0
175,-69,0,0,0,0,0,0,0,0,0,-1,1399,1093,0,0
182,-69,0,0,0,0,0,0,0,0,0,-1,1406,1093,0,0
189,-69,0,0,0,0,0,0,0,0,0,-1,1413,1093,0,0
196,-69,0,0,0,0,0,0,0,0,0,-1,1420,1093,0,0
203,-69,0,0,0,0,0,0,0,0,0,-1,1427,1093,0,0
210,-69,0,0,0,0,0,0,0,0,0,-1,1434,1093,0,0
217,-69,0,0,0,0,0,0,0,0,0,-1,1441,1093,0,0
224,-69,0,0,0,0,0,0,0,0,0,-1,1448,1093,0,0
231,-69,0,0,0,0,0,0,0,0,0,-1,1455,1093,0,0
238,-69,0,0,0,0,0,0,0,0,0,-1,1462,1093,0,0
245,-69,0,0,0,0,0,0,0,0,0,-1,1469,1093,0,0
252,-69,0,0,0,0,0,0,0,0,0,-1,1476,1093,0,0
259,-69,0,0,0,0,0,0,0,0,0,-1,1483,1093,0,0
266,-69,0,0,0,0,0,0,0,0,0,-1,1490,1093,0,0
273,-69,0,0,0,0,0,0,0,0,0,-1,1497,1093,0,0
280,-69,0,0,0,0,0,0,0,0,0,-1,1504,1093,0,0
287,-69,0,0,0,0,0,0,0,0,0,-1,1511,1093,0,0
294,-69,0,0,0,0,0,0,0,0,0,-1,1518,1093,0,0
301,-69,0,0,0,0,0,0,0,0,0,-1,1525,1093,0,0
308,-69,0,0,0,0,0,0,0,0,0,-1,1532,1093,0,0
315,-69,0,0,0,0,0,0,0,0,0,-1,1539,1093,0,0
322,-69,0,0,0,0,0,0,0,0,0,-1,1546,1093,0,0
329,-69,0,0,0,0,0,0,0,0,0,-1,1553,1093,0,0
336,-69,0,0,0,0,0,0,0,0,0,-1,1560,1093,0,0
343,-69,0,0,0,0,0,0,0,0,0,-1,1567,1093,0,0
350,-69,0,0,0,0,0,0,0,0,0,-1,1574,1093,0,0
357,-69,0,0,0,0,0,0,0,0,0,-1,1581,1093,0,0
364,-69,0,0,0,0,0,0,0,0,0,-1,1588,1093,0,0
371,-69,0,0,0,0,0,0,0,0,0,-1,1595,1093,0,0
378,-69,0,0,0,0,0,0,0,0,0,-1,1602,1093,0,0
385,-69,0,0,0,0,0,0,0,0,0,-1,1609,1093,0,0
392,-69,0,0,0,0,0,0,0,0,0,-1,1616,1093,0,0
399,-69,0,0,0,0,0,0,0,0,0,-1,1623,1093,0,0
406,-69,0,0,0,0,0,0,0,0,0,-1,1630,1093,0,0
413,-69,0,0,0,0,0,0,0,0,0,-1,1637,1093,0,0
420,-69,0,0,0,0,0,0,0,0,0,-1,1644,1093,0,0
427,-69,0,0,0,0,0,0,0,0,0,-1,1651,1093,0,0
434,-69,0,0,0,0,0,0,0,0,0,-1,1658,1093,0,0
441,-69,0,0,0,0,0,0,0,0,0,-1,1665,1093,0,0
448,-69,0,0,0,0,0,0,0,0,0,-1,1672,1093,0,0
455,-69,0,0,0,0,0,0,0,0,0,-1,1679,1093,0,0
462,-69,0,0,0,0,0,0,0,0,0,-1,1686,1093,0,0
469,-69,0,0,0,0,0,0,0,0,0,-1,1693,1093,0,0
476,-69,0,0,0,0,0,0,0,0,0,-1,1700,1093,0,0
483,-69,0,0,0,0,0,0,0,0,0,-1,1707,1093,0,0
490,-69,0,0,0,0,0,0,0,0,0,-1,1714,1093,0,0
497,-69,0,0,0,0,0,0,0,0,0,-1,1721,1093,0,0
504,-69,0,0,0,0,0,0,0,0,0,-1,1728,1093,0,0
511,-69,0,0,0,0,0,0,0,0,0,-1,1735,1093,0,0
518,-69,0,0,0,0,0,0,0,0,0,-1,1742,1093,0,0
525,-69,0,0,0,0,0,0,0,0,0,-1,1749,1093,0,0
532,-69,0,0,0,0,0,0,0,0,0,-1,1756,1093,0,0
539,-69,0,0,0,0,0,0,0,0,0,-1,1763,1093,0,0
546,-69,0,0,0,0,0,0,0,0,0,-1,1770,1093,0,0
553,-69,0,0,0,0,0,0,0,0,0,-1,1777,1093,0,0
560,-69,0,0,0,0,0,0,0,0,0,-1,1784,1093,0,0
567,-69,0,0,0,0,0,0,0,0,0,-1,1791,1093,0,0
574,-69,0,0,0,0,0,0,0,0,0,-1,1798,1093,0,0
581,-69,0,0,0,0,0,0,0,0,0,-1,1805,1093,0,0
588,-69,0,0,0,0,0,0,0,0,0,-1,1812,1093,0,0
595,-69,0,0,0,0,0,0,0,0,0,-1,1819,1093,0,0
602,-69,0,0,0,0,0,0,0,0,0,-1,1826,1093,0,0
609,-69,0,0,0,0,0,0,0,0,0,-1,1833,1093,0,0
616,-69,0,0,0,0,0,0,0,0,0,-1,1840,1093,0,0
623,-69,0,0,0,0,0,0,0,0,0,-1,1847,1093,0,0
630,-69,0,0,0,0,0,0,0,0,0,-1,1854,1093,0,0
637,-69,0,0,0,0,0,0,0,0,0,-1,1861,1093,0,0
644,-69,0,0,0,0,0,0,0,0,0,-1,1868,1093,0,0
651,-69,79.9165,2.03003,0.00357416,-0.00150018,-1.80668e-05,0.00357422,-0.00150025,-0.00356037,0.00301021,0.039719,1875,1093,79.9166,-2.02999
658,-69,79.9539,1.99866,0.00247534,-0.00126749,0.00062716,0.00257764,-0.00136978,0.161682,0.00231433,0.0435533,1882,1093,79.9538,-1.9987
665,-69,80.0046,2.00354,0.00165048,-0.00109929,0.000923772,0.001932,-0.00138081,0.295805,0.00192145,0.042927,1889,1093,80.0047,-2.00359
672,-69,80.0607,2.13281,0.000998999,-0.000884026,0.00101506,0.00144197,-0.001327,0.411485,0.00159912,0.0395498,1896,1093,80.0607,-2.13283
679,-69,80.0446,2.23621,0.000470704,-0.000696209,0.00096641,0.00101613,-0.00124163,0.513817,0.00130568,0.037508,1903,1093,80.0446,-2.23626
686,-69,79.9971,2.18689,-0.000115206,-0.000749389,0.000809765,0.000437339,-0.00130193,0.598783,0.00104471,0.0373467,1910,1093,79.9971,-2.18689
693,-69,79.9871,2.05457,-0.000518222,-0.000987785,0.000863428,0.000141776,-0.00164778,0.652649,0.0011487,0.0358152,1917,1093,79.987,-2.05462
700,-69,79.9943,2.08911,-0.000729189,-0.00100797,0.000952652,9.42165e-05,-0.00183138,0.712754,0.0012535,0.0293245,1924,1093,79.9943,-2.08914
707,-69,79.9863,2.14014,-0.00123345,-0.00083185,0.00123536,0.000218922,-0.00228422,0.865966,0.00160079,0.0209246,1931,1093,79.9863,-2.1401
714,-69,80.0195,2.08337,-0.00186391,-0.000452115,0.00149245,0.000492959,-0.00280899,1.0063,0.00205677,0.0348613,1938,1093,80.0195,-2.08339
721,-69,80.0482,2.00854,0,0,0,0,0,0,0,-1,1945,1093,80.0482,-2.0086
728,-69,76.8533,9.19238,0,0,0,0,0,0,0,-1,1952,1093,76.8533,-9.1924
735,-69,77.1761,8.58826,-0.0043979,0.00215688,0.00199669,0.0027172,-0.00495823,1.29721,0.00449393,0.0476192,1959,1093,77.1761,-8.5883
742,-69,77.0377,8.1864,-0.00484841,0.0034022,0.0023385,0.00401891,-0.00546512,1.31295,0.00549679,0.0355322,1966,1093,77.0378,-8.18643
749,-69,77.0149,7.5769,0,0,0,0,0,0,0,-1,1973,1093,77.0148,-7.5769
756,-69,76.9063,7.09485,-0.00661393,0.00676336,0.00274262,0.00730382,-0.00715439,1.37623,0.0083476,0.0196968,1980,1093,76.9061,-7.09484
763,-69,76.8789,6.56604,-0.00636673,0.00950078,0.00296648,0.0100372,-0.00690318,1.39189,0.00983619,0.0217441,1987,1093,76.8789,-6.56603
770,-69,76.7559,6.06702,-0.00554066,0.0128384,0.00288167,0.0132796,-0.00598188,1.41886,0.0113836,0.0240761,1994,1093,76.7559,-6.06707
777,-69,76.5659,5.60315,-0.00335896,0.0164476,0.00279514,0.0168345,-0.00374586,1.43325,0.0126577,0.0292883,2001,1093,76.566,-5.60319
784,-69,76.5557,4.90393,0.000150981,0.0198622,0.00283971,0.0202631,-0.000249969,1.43053,0.0135928,0.0319609,2008,1093,76.5557,-4.90395
791,-69,76.8213,4.40613,0.00560403,0.0230059,0.00309546,0.0235401,0.00506981,1.3999,0.0143061,0.0422841,2015,1093,76.8212,-4.40615
798,-69,77.1655,3.95959,0.0143733,0.0256934,0.00392841,0.0269231,0.0131436,1.26743,0.0155455,0.0459064,2022,1093,77.1655,-3.95955
805,-69,77.2239,3.65186,0.0278702,0.0280959,0.00558312,0.0335673,0.0223988,0.795506,0.0197383,0.0453733,2029,1093,77.2238,-3.65187
812,-69,77.2932,3.49597,0,0,0,0,0,0,0,-1,2036,1093,77.2932,-3.49603
-700,-76,0,0,0,0,0,0,0,0,0,-1,524,1100,0,0
-693,-76,-61.5054,-2.04407,0,0,0,0,0,0,0,-1,531,1100,-61.5054,2.04402
-686,-76,-60.8199,-1.34583,0,0,0,0,0,0,0,-1,538,1100,-60.8199,1.34586
-679,-76,-60.5353,-0.0168457,0,0,0,0,0,0,0,-1,545,1100,-60.5353,0.0168111
-672,-76,-60.2406,1.54138,-0.00860336,-0.00202176,0.0094407,0.00468525,-0.0153104,0.953101,0.0120755,0.0461472,552,1100,-60.2406,-1.54134
-665,-76,-60.0229,2.61475,-0.00655659,0.00108712,0.00961779,0.00761458,-0.0130841,0.974518,0.0120886,0.0462756,559,1100,-60.0228,-2.6148
-658,-76,-59.5177,3.39111,0,0,0,0,0,0,0,-1,566,1100,-59.5177,-3.39117
-651,-76,-55.1196,3.9519,0,0,0,0,0,0,0,-1,573,1100,-55.1196,-3.95193
-644,-76,-60.2174,4.77576,0,0,0,0,0,0,0,-1,580,1100,-60.2174,-4.77581
-637,-76,-60.2933,5.3634,-0.00384564,0.0060266,0.00292487,0.00682809,-0.00464713,1.30334,0.00666499,0.0248176,587,1100,-60.2932,-5.36337
-630,-76,-60.3257,5.8833,-0.00358428,0.00552029,0.000629233,0.00556357,-0.00362756,1.50212,0.0053456,0.0166493,594,1100,-60.3257,-5.88331
-623,-76,-60.3676,6.4126,-0.00245683,0.00421881,-0.000951623,0.00435182,-0.00258984,-1.43193,0.00405057,0.0236984,601,1100,-60.3676,-6.41259
-616,-76,-60.4615,7.00989,-0.00146347,0.00289564,-0.00180651,0.00354697,-0.0021148,-1.22476,0.0033035,0.0253212,608,1100,-60.4615,-7.0099
-609,-76,-60.4838,7.54382,-0.000220551,0.00142006,-0.00191074,0.00267914,-0.00147963,-0.988157,0.00243413,0.0233532,615,1100,-60.4838,-7.54386
-602,-76,-60.3953,8.11072,0.000854782,0.000512975,-0.00203032,0.00272138,-0.00135362,-0.743409,0.00239647,0.0203926,622,1100,-60.3953,-8.11073
-595,-76,-60.409,8.56067,0.00137192,-7.91515e-05,-0.00198955,0.0027641,-0.00147132,-0.610554,0.002483,0.0420436,629,1100,-60.409,-8.56068
-588,-76,-60.5598,8.91638,0,0,0,0,0,0,0,-1,636,1100,-60.5598,-8.91633
-581,-76,-63.1733,0.292603,0,0,0,0,0,0,0,-1,643,1100,-63.1733,-0.29265
-574,-76,-63.1475,0.278442,0.00219196,-0.00105964,-0.00113208,0.00254728,-0.00141497,-0.304127,0.00231853,0.0364034,650,1100,-63.1475,-0.278503
-567,-76,-62.9335,0.461914,0.00209276,-0.000887889,-0.000849948,0.00231809,-0.00111322,-0.259151,0.00202137,0.0425161,657,1100,-62.9336,-0.461864
-560,-76,-62.8114,0.515991,0.00134623,-0.000474658,-0.000573545,0.00151182,-0.000640254,-0.28108,0.00127602,0.0414033,664,1100,-62.8114,-0.516047
-553,-76,-62.8885,0.43103,-0.000369369,2.90475e-05,-0.000268111,0.000163856,-0.000504178,-1.1049,0.000402027,0.0418074,671,1100,-62.8885,-0.431003
-546,-76,-63.0209,0.378174,-0.00304354,0.000351281,0.000100759,0.000354269,-0.00304653,1.54115,0.00215882,0.0401258,678,1100,-63.0209,-0.378142
-539,-76,-63.1495,0.396729,-0.00634849,-0.000266597,0.000503179,-0.000225248,-0.00638984,1.48881,0.00418683,0.0394782,685,1100,-63.1495,-0.396709
-532,-76,-63.1238,0.538086,-0.009552,-0.000761246,0.00123687,-0.000590533,-0.00972271,1.43364,0.00629421,0.0407361,692,1100,-63.1239,-0.538036
-525,-76,0,0,0,0,0,0,0,0,0,-1,699,1100,0,0
-518,-76,0,0,0,0,0,0,0,0,0,-1,706,1100,0,0
-511,-76,0,0,0,0,0,0,0,0,0,-1,713,1100,0,0
-504,-76,0,0,0,0,0,0,0,0,0,-1,720,1100,0,0
-497,-76,0,0,0,0,0,0,0,0,0,-1,727,1100,0,0
-490,-76,0,0,0,0,0,0,0,0,0,-1,734,1100,0,0
-483,-76,0,0,0,0,0,0,0,0,0,-1,741,1100,0,0
-476,-76,0,0,0,0,0,0,0,0,0,-1,748,1100,0,0
-469,-76,0,0,0,0,0,0,0,0,0,-1,755,1100,0,0
-462,-76,0,0,0,0,0,0,0,0,0,-1,762,1100,0,0
-455,-76,0,0,0,0,0,0,0,0,0,-1,769,1100,0,0
-448,-76,0,0,0,0,0,0,0,0,0,-1,776,1100,0,0
-441,-76,0,0,0,0,0,0,0,0,0,-1,783,1100,0,0
-434,-76,0,0,0,0,0,0,0,0,0,-1,790,1100,0,0
-427,-76,0,0,0,0,0,0,0,0,0,-1,797,1100,0,0
-420,-76,0,0,0,0,0,0,0,0,0,-1,804,1100,0,0
-413,-76,0,0,0,0,0,0,0,0,0,-1,811,1100,0,0
-406,-76,0,0,0,0,0,0,0,0,0,-1,818,1100,0,0
-399,-76,0,0,0,0,0,0,0,0,0,-1,825,1100,0,0
-392,-76,0,0,0,0,0,0,0,0,0,-1,832,1100,0,0
-385,-76,0,0,0,0,0,0,0,0,0,-1,839,1100,0,0
-378,-76,0,0,0,0,0,0,0,0,0,-1,846,1100,0,0
-371,-76,0,0,0,0,0,0,0,0,0,-1,853,1100,0,0
-364,-76,0,0,0,0,0,0,0,0,0,-1,860,1100,0,0
-357,-76,0,0,0,0,0,0,0,0,0,-1,867,1100,0,0
-350,-76,0,0,0,0,0,0,0,0,0,-1,874,1100,0,0
-343,-76,0,0,0,0,0,0,0,0,0,-1,881,1100,0,0
-336,-76,0,0,0,0,0,0,0,0,0,-1,888,1100,0,0
-329,-76,0,0,0,0,0,0,0,0,0,-1,895,1100,0,0
-322,-76,0,0,0,0,0,0,0,0,0,-1,902,1100,0,0
-315,-76,0,0,0,0,0,0,0,0,0,-1,909,1100,0,0
-308,-76,0,0,0,0,0,0,0,0,0,-1,916,1100,0,0
-301,-76,0,0,0,0,0,0,0,0,0,-1,923,1100,0,0
-294,-76,0,0,0,0,0,0,0,0,0,-1,930,1100,0,0
-287,-76,0,0,0,0,0,0,0,0,0,-1,937,1100,0,0
-280,-76,0,0,0,0,0,0,0,0,0,-1,944,1100,0,0
-273,-76,0,0,0,0,0,0,0,0,0,-1,951,1100,0,0
-266,-76,0,0,0,0,0,0,0,0,0,-1,958,1100,0,0
-259,-76,0,0,0,0,0,0,0,0,0,-1,965,1100,0,0
-252,-76,0,0,0,0,0,0,0,0,0,-1,972,1100,0,0
-245,-76,0,0,0,0,0,0,0,0,0,-1,979,1100,0,0
-238,-76,0,0,0,0,0,0,0,0,0,-1,986,1100,0,0
-231,-76,0,0,0,0,0,0,0,0,0,-1,993,1100,0,0
-224,-76,0,0,0,0,0,0,0,0,0,-1,1000,1100,0,0
-217,-76,0,0,0,0,0,0,0,0,0,-1,1007,1100,0,0
-210,-76,0,0,0,0,0,0,0,0,0,-1,1014,1100,0,0
-203,-76,0,0,0,0,0,0,0,0,0,-1,1021,1100,0,0
-196,-76,0,0,0,0,0,0,0,0,0,-1,1028,1100,0,0
-189,-76,0,0,0,0,0,0,0,0,0,-1,1035,1100,0,0
-182,-76,0,0,0,0,0,0,0,0,0,-1,1042,1100,0,0
-175,-76,0,0,0,0,0,0,0,0,0,-1,1049,1100,0,0
-168,-76,0,0,0,0,0,0,0,0,0,-1,1056,1100,0,0
-161,-76,0,0,0,0,0,0,0,0,0,-1,1063,1100,0,0
-154,-76,0,0,0,0,0,0,0,0,0,-1,1070,1100,0,0
-147,-76,0,0,0,0,0,0,0,0,0,-1,1077,1100,0,0
-140,-76,0,0,0,0,0,0,0,0,0,-1,1084,1100,0,0
-133,-76,0,0,0,0,0,0,0,0,0,-1,1091,1100,0,0
-126,-76,0,0,0,0,0,0,0,0,0,-1,1098,1100,0,0
-119,-76,0,0,0,0,0,0,0,0,0,-1,1105,1100,0,0
-112,-76,0,0,0,0,0,0,0,0,0,-1,1112,1100,0,0
-105,-76,0,0,0,0,0,0,0,0,0,-1,1119,1100,0,0
-98,-76,0,0,0,0,0,0,0,0,0,-1,1126,1100,0,0
-91,-76,0,0,0,0,0,0,0,0,0,-1,1133,1100,0,0
-84,-76,0,0,0,0,0,0,0,0,0,-1,1140,1100,0,0
-77,-76,0,0,0,0,0,0,0,0,0,-1,1147,1100,0,0
-70,-76,0,0,0,0,0,0,0,0,0,-1,1154,1100,0,0
-63,-76,0,0,0,0,0,0,0,0,0,-1,1161,1100,0,0
-56,-76,0,0,0,0,0,0,0,0,0,-1,1168,1100,0,0
-49,-76,0,0,0,0,0,0,0,0,0,-1,1175,1100,0,0
-42,-76,0,0,0,0,0,0,0,0,0,-1,1182,1100,0,0
-35,-76,0,0,0,0,0,0,0,0,0,-1,1189,1100,0,0
-28,-76,0,0,0,0,0,0,0,0,0,-1,1196,1100,0,0
-21,-76,0,0,0,0,0,0,0,0,0,-1,1203,1100,0,0
-14,-76,0,0,0,0,0,0,0,0,0,-1,1210,1100,0,0
-7,-76,0,0,0,0,0,0,0,0,0,-1,1217,1100,0,0
0,-76,0,0,0,0,0,0,0,0,0,-1,1224,1100,0,0
7,-76,0,0,0,0,0,0,0,0,0,-1,1231,1100,0,0
14,-76,0,0,0,0,0,0,0,0,0,-1,1238,1100,0,0
21,-76,0,0,0,0,0,0,0,0,0,-1,1245,1100,0,0
28,-76,0,0,0,0,0,0,0,0,0,-1,1252,1100,0,0
35,-76,0,0,0,0,0,0,0,0,0,-1,1259,1100,0,0
42,-76,0,0,0,0,0,0,0,0,0,-1,1266,1100,0,0
49,-76,0,0,0,0,0,0,0,0,0,-1,1273,1100,0,0
56,-76,0,0,0,0,0,0,0,0,0,-1,1280,1100,0,0
63,-76,0,0,0,0,0,0,0,0,0,-1,1287,1100,0,0
70,-76,0,0,0,0,0,0,0,0,0,-1,1294,1100,0,0
77,-76,0,0,0,0,0,0,0,0,0,-1,1301,1100,0,0
84,-76,0,0,0,0,0,0,0,0,0,-1,1308,1100,0,0
91,-76,0,0,0,0,0,0,0,0,0,-1,1315,1100,0,0
98,-76,0,0,0,0,0,0,0,0,0,-1,1322,1100,0,0
105,-76,0,0,0,0,0,0,0,0,0,-1,1329,1100,0,0
112,-76,0,0,0,0,0,0,0,0,0,-1,1336,1100,0,0
119,-76,0,0,0,0,0,0,0,0,0,-1,1343,1100,0,0
126,-76,0,0,0,0,0,0,0,0,0,-1,1350,1100,0,0
133,-76,0,0,0,0,0,0,0,0,0,-1,1357,1100,0,0
140,-76,0,0,0,0,0,0,0,0,0,-1,1364,1100,0,0
147,-76,0,0,0,0,0,0,0,0,0,-1,1371,1100,0,0
154,-76,0,0,0,0,0,0,0,0,0,-1,1378,1100,0,0
161,-76,0,0,0,0,0,0,0,0,0,-1,1385,1100,0,0
168,-76,0,0,0,0,0,0,0,0,0,-1,1392,1100,0,0
175,-76,0,0,0,0,0,0,0,0,0,-1,1399,1100,0,0
182,-76,0,0,0,0,0,0,0,0,0,-1,1406,1100,0,0
189,-76,0,0,0,0,0,0,0,0,0,-1,1413,1100,0,0
196,-76,0,0,0,0,0,0,0,0,0,-1,1420,1100,0,0
203,-76,0,0,0,0,0,0,0,0,0,-1,1427,1100,0,0
210,-76,0,0,0,0,0,0,0,0,0,-1,1434,1100,0,0
217,-76,0,0,0,0,0,0,0,0,0,-1,1441,1100,0,0
224,-76,0,0,0,0,0,0,0,0,0,-1,1448,1100,0,0
231,-76,0,0,0,0,0,0,0,0,0,-1,1455,1100,0,0
238,-76,0,0,0,0,0,0,0,0,0,-1,1462,1100,0,0
245,-76,0,0,0,0,0,0,0,0,0,-1,1469,1100,0,0
252,-76,0,0,0,0,0,0,0,0,0,-1,1476,1100,0,0
259,-76,0,0,0,0,0,0,0,0,0,-1,1483,1100,0,0
266,-76,0,0,0,0,0,0,0,0,0,-1,1490,1100,0,0
273,-76,0,0,0,0,0,0,0,0,0,-1,1497,1100,0,0
280,-76,0,0,0,0,0,0,0,0,0,-1,1504,1100,0,0
287,-76,0,0,0,0,0,0,0,0,0,-1,1511,1100,0,0
294,-76,0,0,0,0,0,0,0,0,0,-1,1518,1100,0,0
301,-76,0,0,0,0,0,0,0,0,0,-1,1525,1100,0,0
308,-76,0,0,0,0,0,0,0,0,0,-1,1532,1100,0,0
315,-76,0,0,0,0,0,0,0,0,0,-1,1539,1100,0,0
322,-76,0,0,0,0,0,0,0,0,0,-1,1546,1100,0,0
329,-76,0,0,0,0,0,0,0,0,0,-1,1553,1100,0,0
336,-76,0,0,0,0,0,0,0,0,0,-1,1560,1100,0,0
343,-76,0,0,0,0,0,0,0,0,0,-1,1567,1100,0,0
350,-76,0,0,0,0,0,0,0,0,0,-1,1574,1100,0,0
357,-76,0,0,0,0,0,0,0,0,0,-1,1581,1100,0,0
364,-76,0,0,0,0,0,0,0,0,0,-1,1588,1100,0,0
371,-76,0,0,0,0,0,0,0,0,0,-1,1595,1100,0,0
378,-76,0,0,0,0,0,0,0,0,0,-1,1602,1100,0,0
385,-76,0,0,0,0,0,0,0,0,0,-1,1609,1100,0,0
392,-76,0,0,0,0,0,0,0,0,0,-1,1616,1100,0,0
399,-76,0,0,0,0,0,0,0,0,0,-1,1623,1100,0,0
406,-76,0,0,0,0,0,0,0,0,0,-1,1630,1100,0,0
413,-76,0,0,0,0,0,0,0,0,0,-1,1637,1100,0,0
420,-76,0,0,0,0,0,0,0,0,0,-1,1644,1100,0,0
427,-76,0,0,0,0,0,0,0,0,0,-1,1651,1100,0,0
434,-76,0,0,0,0,0,0,0,0,0,-1,1658,1100,0,0
441,-76,0,0,0,0,0,0,0,0,0,-1,1665,1100,0,0
448,-76,0,0,0,0,0,0,0,0,0,-1,1672,1100,0,0
455,-76,0,0,0,0,0,0,0,0,0,-1,1679,1100,0,0
462,-76,0,0,0,0,0,0,0,0,0,-1,1686,1100,0,0
469,-76,0,0,0,0,0,0,0,0,0,-1,1693,1100,0,0
476,-76,0,0,0,0,0,0,0,0,0,-1,1700,1100,0,0
483,-76,0,0,0,0,0,0,0,0,0,-1,1707,1100,0,0
490,-76,0,0,0,0,0,0,0,0,0,-1,1714,1100,0,0
497,-76,0,0,0,0,0,0,0,0,0,-1,1721,1100,0,0
504,-76,0,0,0,0,0,0,0,0,0,-1,1728,1100,0,0
511,-76,0,0,0,0,0,0,0,0,0,-1,1735,1100,0,0
518,-76,0,0,0,0,0,0,0,0,0,-1,1742,1100,0,0
525,-76,0,0,0,0,0,0,0,0,0,-1,1749,1100,0,0
532,-76,0,0,0,0,0,0,0,0,0,-1,1756,1100,0,0
539,-76,0,0,0,0,0,0,0,0,0,-1,1763,1100,0,0
546,-76,0,0,0,0,0,0,0,0,0,-1,1770,1100,0,0
553,-76,0,0,0,0,0,0,0,0,0,-1,1777,1100,0,0
560,-76,0,0,0,0,0,0,0,0,0,-1,1784,1100,0,0
567,-76,0,0,0,0,0,0,0,0,0,-1,1791,1100,0,0
574,-76,0,0,0,0,0,0,0,0,0,-1,1798,1100,0,0
581,-76,0,0,0,0,0,0,0,0,0,-1,1805,1100,0,0
588,-76,0,0,0,0,0,0,0,0,0,-1,1812,1100,0,0
595,-76,0,0,0,0,0,0,0,0,0,-1,1819,1100,0,0
602,-76,0,0,0,0,0,0,0,0,0,-1,1826,1100,0,0
609,-76,0,0,0,0,0,0,0,0,0,-1,1833,1100,0,0
616,-76,0,0,0,0,0,0,0,0,0,-1,1840,1100,0,0
623,-76,0,0,0,0,0,0,0,0,0,-1,1847,1100,0,0
630,-76,0,0,0,0,0,0,0,0,0,-1,1854,1100,0,0
637,-76,0,0,0,0,0,0,0,0,0,-1,1861,1100,0,0
644,-76,0,0,0,0,0,0,0,0,0,-1,1868,1100,0,0
651,-76,80.0996,2.0166,0.00365889,-0.00158975,-0.000209297,0.00366723,-0.00159808,-0.0397922,0.00311719,0.0389788,1875,1100,80.0996,-2.01666
658,-76,80.1753,1.87036,0.00256322,-0.00125387,0.000562767,0.00264446,-0.00133511,0.143371,0.00233869,0.0407156,1882,1100,80.1753,-1.87036
665,-76,80.0784,1.83081,0.00174253,-0.00101196,0.000915684,0.00201915,-0.00128858,0.293378,0.00192519,0.0393821,1889,1100,80.0784,-1.83081
672,-76,80.0315,2.09961,0.00109489,-0.000766804,0.00101046,0.0015379,-0.00120982,0.413192,0.00159016,0.0371758,1896,1100,80.0315,-2.09966
679,-76,79.9984,2.2135,0.000597298,-0.000597286,0.000945573,0.00111843,-0.00111842,0.503707,0.00129144,0.0354853,1903,1100,79.9985,-2.21345
686,-76,80.0726,2.23267,0.000127692,-0.000645377,0.000740086,0.000576104,-0.00109379,0.544741,0.000979434,0.0355317,1910,1100,80.0727,-2.23269
693,-76,80.0406,2.19897,-0.000168184,-0.000880707,0.000773461,0.00032712,-0.00137601,0.569578,0.00104361,0.0371138,1917,1100,80.0407,-2.19895
700,-76,79.9764,2.15356,-0.00029526,-0.000905199,0.000833577,0.000287384,-0.00148784,0.610033,0.00110027,0.0319811,1924,1100,79.9765,-2.15356
707,-76,79.9623,2.15906,-0.000712908,-0.000728508,0.00111776,0.000397079,-0.0018385,0.781909,0.00137724,0.0227441,1931,1100,79.9622,-2.15906
714,-76,80.041,2.1532,0,0,0,0,0,0,0,-1,1938,1100,80.041,-2.15319
721,-76,45.1713,3.04919,0,0,0,0,0,0,0,-1,1945,1100,45.1713,-3.04915
728,-76,60.937,8.08447,0,0,0,0,0,0,0,-1,1952,1100,60.937,-8.08446
735,-76,76.3444,8.88477,0,0,0,0,0,0,0,-1,1959,1100,76.3444,-8.88476
742,-76,76.394,8.26074,-0.00401442,0.00308901,0.00220976,0.00372033,-0.00464573,1.29252,0.00483999,0.0371108,1966,1100,76.394,-8.26075
749,-76,76.2549,7.67358,-0.00488878,0.00447067,0.00268551,0.00518648,-0.00560459,1.31031,0.00623178,0.0347899,1973,1100,76.2549,-7.67362
756,-76,76.3147,7.12463,-0.00590957,0.00616138,0.00273361,0.00675158,-0.00649977,1.35815,0.00765113,0.0191984,1980,1100,76.3146,-7.12463
763,-76,76.2529,6.52441,-0.00593797,0.00868602,0.00301336,0.00928261,-0.00653455,1.37534,0.00917787,0.0194097,1987,1100,76.253,-6.52442
770,-76,76.1145,6.02966,-0.00556996,0.0116706,0.00300521,0.0121794,-0.00607878,1.40307,0.0107357,0.0202174,1994,1100,76.1144,-6.0297
777,-76,75.9534,5.6012,-0.00422561,0.014729,0.00298887,0.0151891,-0.00468574,1.41805,0.011997,0.0234265,2001,1100,75.9533,-5.60122
784,-76,75.9646,4.88538,-0.0018445,0.017524,0.00308219,0.0180027,-0.00232315,1.41673,0.0128464,0.0325418,2008,1100,75.9646,-4.88537
791,-76,76.188,4.13977,0.00205757,0.0199406,0.00334363,0.0205453,0.00145286,1.39187,0.0132392,0.0408399,2015,1100,76.188,-4.13972
798,-76,76.2678,3.51062,0.00854988,0.0217323,0.00410125,0.0229041,0.00737808,1.29249,0.0134997,0.0446551,2022,1100,76.2679,-3.51066
805,-76,76.3586,3.29456,0,0,0,0,0,0,0,-1,2029,1100,76.3587,-3.29453
812,-76,76.6379,2.44153,0,0,0,0,0,0,0,-1,2036,1100,76.6379,-2.44151
-700,-83,0,0,0,0,0,0,0,0,0,-1,524,1107,0,0
-693,-83,-59.4395,-1.00769,0,0,0,0,0,0,0,-1,531,1107,-59.4395,1.00765
-686,-83,-59.1412,-0.352539,0,0,0,0,0,0,0,-1,538,1107,-59.1412,0.352599
-679,-83,-59.0043,0.420532,0,0,0,0,0,0,0,-1,545,1107,-59.0043,-0.420555
-672,-83,-58.795,1.41016,0,0,0,0,0,0,0,-1,552,1107,-58.795,-1.41022
-665,-83,-59.2296,2.4104,-0.00565995,-0.00542181,0.0123947,0.00685435,-0.0179361,0.790201,0.0147818,0.0412355,559,1107,-59.2296,-2.41045
-658,-83,-59.1657,3.1449,-0.00479958,-0.00205605,0.0105235,0.0071847,-0.0140403,0.850209,0.0124655,0.0477873,566,1107,-59.1657,-3.14488
-651,-83,-59.2631,3.71228,0,0,0,0,0,0,0,-1,573,1107,-59.2631,-3.71226
-644,-83,-59.3729,4.79211,-0.00435283,0.00234472,0.00558221,0.00550558,-0.00751369,1.05557,0.00754642,0.0341688,580,1107,-59.3729,-4.79205
-637,-83,-59.6274,5.28333,-0.00384485,0.00313162,0.00348833,0.00457656,-0.00528979,1.17809,0.0057013,0.0165985,587,1107,-59.6274,-5.28337
-630,-83,-59.6838,5.86157,-0.00404509,0.00371309,0.000849844,0.0038051,-0.0041371,1.46296,0.00458676,0.0179108,594,1107,-59.6838,-5.86155
-623,-83,-59.746,6.41296,-0.00325039,0.00319453,-0.0010003,0.00334621,-0.00340208,-1.4203,0.00389617,0.0221243,601,1107,-59.746,-6.41299
-616,-83,-59.8824,7.02417,-0.00246044,0.00242251,-0.0019102,0.00308098,-0.00311891,-1.23884,0.00357953,0.0189287,608,1107,-59.8824,-7.02422
-609,-83,-59.8472,7.5531,-0.00121195,0.00124021,-0.00187574,0.00225504,-0.00222677,-1.07487,0.00258759,0.0241773,615,1107,-59.8472,-7.55308
-602,-83,-59.813,8.18933,-0.000144402,0.000524124,-0.00189391,0.00211305,-0.00173332,-0.872745,0.00222431,0.0206936,622,1107,-59.813,-8.18934
-595,-83,-59.7645,8.75598,0.000386946,5.22785e-05,-0.00176928,0.00199679,-0.00155757,-0.73825,0.00205732,0.0305619,629,1107,-59.7645,-8.75603
-588,-83,-59.868,9.0415,0,0,0,0,0,0,0,-1,636,1107,-59.868,-9.04149
-581,-83,-63.1721,0.216187,0,0,0,0,0,0,0,-1,643,1107,-63.1721,-0.216131
-574,-83,-63.1065,0.250854,0.00163359,-0.00105124,-0.000867069,0.00188926,-0.00130691,-0.286745,0.0018555,0.038713,650,1107,-63.1065,-0.250813
-567,-83,-63.0425,0.307983,0.00187779,-0.000989732,-0.000571696,0.00198757,-0.00109951,-0.189709,0.00180674,0.0442259,657,1107,-63.0425,-0.307984
-560,-83,-62.9722,0.373413,0.00153239,-0.000697154,-0.000305518,0.0015735,-0.000738261,-0.133748,0.00136343,0.0412862,664,1107,-62.9721,-0.373413
-553,-83,-62.9844,0.403076,4.94563e-05,-0.000295123,-8.05749e-05,6.73666e-05,-0.000313033,-0.218726,0.000234394,0.0408792,671,1107,-62.9844,-0.403063
-546,-83,-63.043,0.502441,-0.00254343,2.50956e-05,0.000146719,3.34494e-05,-0.00255179,1.51392,0.00171245,0.0390349,678,1107,-63.0429,-0.502387
-539,-83,-62.996,0.343384,-0.00570684,-0.000460536,0.000361036,-0.000435807,-0.00573157,1.50241,0.00368438,0.0411428,685,1107,-62.9959,-0.343333
-532,-83,-63.0953,0.557617,-0.00877675,-0.000857082,0.000851617,-0.00076654,-0.0088673,1.46488,0.0056733,0.044269,692,1107,-63.0953,-0.557667
-525,-83,0,0,0,0,0,0,0,0,0,-1,699,1107,0,0
-518,-83,0,0,0,0,0,0,0,0,0,-1,706,1107,0,0
-511,-83,0,0,0,0,0,0,0,0,0,-1,713,1107,0,0
-504,-83,0,0,0,0,0,0,0,0,0,-1,720,1107,0,0
-497,-83,0,0,0,0,0,0,0,0,0,-1,727,1107,0,0
-490,-83,0,0,0,0,0,0,0,0,0,-1,734,1107,0,0
-483,-83,0,0,0,0,0,0,0,0,0,-1,741,1107,0,0
-476,-83,0,0,0,0,0,0,0,0,0,-1,748,1107,0,0
-469,-83,0,0,0,0,0,0,0,0,0,-1,755,1107,0,0
-462,-83,0,0,0,0,0,0,0,0,0,-1,762,1107,0,0
-455,-83,0,0,0,0,0,0,0,0,0,-1,769,1107,0,0
-448,-83,0,0,0,0,0,0,0,0,0,-1,776,1107,0,0
-441,-83,0,0,0,0,0,0,0,0,0,-1,783,1107,0,0
-434,-83,0,0,0,0,0,0,0,0,0,-1,790,1107,0,0
-427,-83,0,0,0,0,0,0,0,0,0,-1,797,1107,0,0
-420,-83,0,0,0,0,0,0,0,0,0,-1,804,1107,0,0
-413,-83,0,0,0,0,0,0,0,0,0,-1,811,1107,0,0
-406,-83,0,0,0,0,0,0,0,0,0,-1,818,1107,0,0
-399,-83,0,0,0,0,0,0,0,0,0,-1,825,1107,0,0
-392,-83,0,0,0,0,0,0,0,0,0,-1,832,1107,0,0
-385,-83,0,0,0,0,0,0,0,0,0,-1,839,1107,0,0
-378,-83,0,0,0,0,0,0,0,0,0,-1,846,1107,0,0
-371,-83,0,0,0,0,0,0,0,0,0,-1,853,1107,0,0
-364,-83,0,0,0,0,0,0,0,0,0,-1,860,1107,0,0
-357,-83,0,0,0,0,0,0,0,0,0,-1,867,1107,0,0
-350,-83,0,0,0,0,0,0,0,0,0,-1,874,1107,0,0
-343,-83,0,0,0,0,0,0,0,0,0,-1,881,1107,0,0
-336,-83,0,0,0,0,0,0,0,0,0,-1,888,1107,0,0
-329,-83,0,0,0,0,0,0,0,0,0,-1,895,1107,0,0
-322,-83,0,0,0,0,0,0,0,0,0,-1,902,1107,0,0
-315,-83,0,0,0,0,0,0,0,0,0,-1,909,1107,0,0
-308,-83,0,0,0,0,0,0,0,0,0,-1,916,1107,0,0
-301,-83,0,0,0,0,0,0,0,0,0,-1,923,1107,0,0
-294,-83,0,0,0,0,0,0,0,0,0,-1,930,1107,0,0
-287,-83,0,0,0,0,0,0,0,0,0,-1,937,1107,0,0
-280,-83,0,0,0,0,0,0,0,0,0,-1,944,1107,0,0
-273,-83,0,0,0,0,0,0,0,0,0,-1,951,1107,0,0
-266,-83,0,0,0,0,0,0,0,0,0,-1,958,1107,0,0
-259,-83,0,0,0,0,0,0,0,0,0,-1,965,1107,0,0
-252,-83,0,0,0,0,0,0,0,0,0,-1,972,1107,0,0
-245,-83,0,0,0,0,0,0,0,0,0,-1,979,1107,0,0
-238,-83,0,0,0,0,0,0,0,0,0,-1,986,1107,0,0
-231,-83,0,0,0,0,0,0,0,0,0,-1,993,1107,0,0
-224,-83,0,0,0,0,0,0,0,0,0,-1,1000,1107,0,0
-217,-83,0,0,0,0,0,0,0,0,0,-1,1007,1107,0,0
-210,-83,0,0,0,0,0,0,0,0,0,-1,1014,1107,0,0
-203,-83,0,0,0,0,0,0,0,0,0,-1,1021,1107,0,0
-196,-83,0,0,0,0,0,0,0,0,0,-1,1028,1107,0,0
-189,-83,0,0,0,0,0,0,0,0,0,-1,1035,1107,0,0
-182,-83,0,0,0,0,0,0,0,0,0,-1,1042,1107,0,0
-175,-83,0,0,0,0,0,0,0,0,0,-1,1049,1107,0,0
-168,-83,0,0,0,0,0,0,0,0,0,-1,1056,1107,0,0
-161,-83,0,0,0,0,0,0,0,0,0,-1,1063,1107,0,0
-154,-83,0,0,0,0,0,0,0,0,0,-1,1070,1107,0,0
-147,-83,0,0,0,0,0,0,0,0,0,-1,1077,1107,0,0
-140,-83,0,0,0,0,0,0,0,0,0,-1,1084,1107,0,0
-133,-83,0,0,0,0,0,0,0,0,0,-1,1091,1107,0,0
-126,-83,0,0,0,0,0,0,0,0,0,-1,1098,1107,0,0
-119,-83,0,0,0,0,0,0,0,0,0,-1,1105,1107,0,0
-112,-83,0,0,0,0,0,0,0,0,0,-1,1112,1107,0,0
-105,-83,0,0,0,0,0,0,0,0,0,-1,1119,1107,0,0
-98,-83,0,0,0,0,0,0,0,0,0,-1,1126,1107,0,0
-91,-83,0,0,0,0,0,0,0,0,0,-1,1133,1107,0,0
-84,-83,0,0,0,0,0,0,0,0,0,-1,1140,1107,0,0
-77,-83,0,0,0,0,0,0,0,0,0,-1,1147,1107,0,0
-70,-83,0,0,0,0,0,0,0,0,0,-1,1154,1107,0,0
-63,-83,0,0,0,0,0,0,0,0,0,-1,1161,1107,0,0
-56,-83,0,0,0,0,0,0,0,0,0,-1,1168,1107,0,0
-49,-83,0,0,0,0,0,0,0,0,0,-1,1175,1107,0,0
-42,-83,0,0,0,0,0,0,0,0,0,-1,1182,1107,0,0
-35,-83,0,0,0,0,0,0,0,0,0,-1,1189,1107,0,0
-28,-83,0,0,0,0,0,0,0,0,0,-1,1196,1107,0,0
-21,-83,0,0,0,0,0,0,0,0,0,-1,1203,1107,0,0
-14,-83,0,0,0,0,0,0,0,0,0,-1,1210,1107,0,0
-7,-83,0,0,0,0,0,0,0,0,0,-1,1217,1107,0,0
0,-83,0,0,0,0,0,0,0,0,0,-1,1224,1107,0,0
7,-83,0,0,0,0,0,0,0,0,0,-1,1231,1107,0,0
14,-83,0,0,0,0,0,0,0,0,0,-1,1238,1107,0,0
21,-83,0,0,0,0,0,0,0,0,0,-1,1245,1107,0,0
28,-83,0,0,0,0,0,0,0,0,0,-1,1252,1107,0,0
35,-83,0,0,0,0,0,0,0,0,0,-1,1259,1107,0,0
42,-83,0,0,0,0,0,0,0,0,0,-1,1266,1107,0,0
49,-83,0,0,0,0,0,0,0,0,0,-1,1273,1107,0,0
56,-83,0,0,0,0,0,0,0,0,0,-1,1280,1107,0,0
63,-83,0,0,0,0,0,0,0,0,0,-1,1287,1107,0,0
70,-83,0,0,0,0,0,0,0,0,0,-1,1294,1107,0,0
77,-83,0,0,0,0,0,0,0,0,0,-1,1301,1107,0,0
84,-83,0,0,0,0,0,0,0,0,0,-1,1308,1107,0,0
91,-83,0,0,0,0,0,0,0,0,0,-1,1315,1107,0,0
98,-83,0,0,0,0,0,0,0,0,0,-1,1322,1107,0,0
105,-83,0,0,0,0,0,0,0,0,0,-1,1329,1107,0,0
112,-83,0,0,0,0,0,0,0,0,0,-1,1336,1107,0,0
119,-83,0,0,0,0,0,0,0,0,0,-1,1343,1107,0,0
126,-83,0,0,0,0,0,0,0,0,0,-1,1350,1107,0,0
133,-83,0,0,0,0,0,0,0,0,0,-1,1357,1107,0,0
140,-83,0,0,0,0,0,0,0,0,0,-1,1364,1107,0,0
147,-83,0,0,0,0,0,0,0,0,0,-1,1371,1107,0,0
154,-83,0,0,0,0,0,0,0,0,0,-1,1378,1107,0,0
161,-83,0,0,0,0,0,0,0,0,0,-1,1385,1107,0,0
168,-83,0,0,0,0,0,0,0,0,0,-1,1392,1107,0,0
175,-83,0,0,0,0,0,0,0,0,0,-1,1399,1107,0,0
182,-83,0,0,0,0,0,0,0,0,0,-1,1406,1107,0,0
189,-83,0,0,0,0,0,0,0,0,0,-1,1413,1107,0,0
196,-83,0,0,0,0,0,0,0,0,0,-1,1420,1107,0,0
203,-83,0,0,0,0,0,0,0,0,0,-1,1427,1107,0,0
210,-83,0,0,0,0,0,0,0,0,0,-1,1434,1107,0,0
217,-83,0,0,0,0,0,0,0,0,0,-1,1441,1107,0,0
224,-83,0,0,0,0,0,0,0,0,0,-1,1448,1107,0,0
231,-83,0,0,0,0,0,0,0,0,0,-1,1455,1107,0,0
238,-83,0,0,0,0,0,0,0,0,0,-1,1462,1107,0,0
245,-83,0,0,0,0,0,0,0,0,0,-1,1469,1107,0,0
252,-83,0,0,0,0,0,0,0,0,0,-1,1476,1107,0,0
259,-83,0,0,0,0,0,0,0,0,0,-1,1483,1107,0,0
266,-83,0,0,0,0,0,0,0,0,0,-1,1490,1107,0,0
273,-83,0,0,0,0,0,0,0,0,0,-1,1497,1107,0,0
280,-83,0,0,0,0,0,0,0,0,0,-1,1504,1107,0,0
287,-83,0,0,0,0,0,0,0,0,0,-1,1511,1107,0,0
294,-83,0,0,0,0,0,0,0,0,0,-1,1518,1107,0,0
301,-83,0,0,0,0,0,0,0,0,0,-1,1525,1107,0,0
308,-83,0,0,0,0,0,0,0,0,0,-1,1532,1107,0,0
315,-83,0,0,0,0,0,0,0,0,0,-1,1539,1107,0,0
322,-83,0,0,0,0,0,0,0,0,0,-1,1546,1107,0,0
329,-83,0,0,0,0,0,0,0,0,0,-1,1553,1107,0,0
336,-83,0,0,0,0,0,0,0,0,0,-1,1560,1107,0,0
343,-83,0,0,0,0,0,0,0,0,0,-1,1567,1107,0,0
350,-83,0,0,0,0,0,0,0,0,0,-1,1574,1107,0,0
357,-83,0,0,0,0,0,0,0,0,0,-1,1581,1107,0,0
364,-83,0,0,0,0,0,0,0,0,0,-1,1588,1107,0,0
371,-83,0,0,0,0,0,0,0,0,0,-1,1595,1107,0,0
378,-83,0,0,0,0,0,0,0,0,0,-1,1602,1107,0,0
385,-83,0,0,0,0,0,0,0,0,0,-1,1609,1107,0,0
392,-83,0,0,0,0,0,0,0,0,0,-1,1616,1107,0,0
399,-83,0,0,0,0,0,0,0,0,0,-1,1623,1107,0,0
406,-83,0,0,0,0,0,0,0,0,0,-1,1630,1107,0,0
413,-83,0,0,0,0,0,0,0,0,0,-1,1637,1107,0,0
420,-83,0,0,0,0,0,0,0,0,0,-1,1644,1107,0,0
427,-83,0,0,0,0,0,0,0,0,0,-1,1651,1107,0,0
434,-83,0,0,0,0,0,0,0,0,0,-1,1658,1107,0,0
441,-83,0,0,0,0,0,0,0,0,0,-1,1665,1107,0,0
448,-83,0,0,0,0,0,0,0,0,0,-1,1672,1107,0,0
455,-83,0,0,0,0,0,0,0,0,0,-1,1679,1107,0,0
462,-83,0,0,0,0,0,0,0,0,0,-1,1686,1107,0,0
469,-83,0,0,0,0,0,0,0,0,0,-1,1693,1107,0,0
476,-83,0,0,0,0,0,0,0,0,0,-1,1700,1107,0,0
483,-83,0,0,0,0,0,0,0,0,0,-1,1707,1107,0,0
490,-83,0,0,0,0,0,0,0,0,0,-1,1714,1107,0,0
497,-83,0,0,0,0,0,0,0,0,0,-1,1721,1107,0,0
504,-83,0,0,0,0,0,0,0,0,0,-1,1728,1107,0,0
511,-83,0,0,0,0,0,0,0,0,0,-1,1735,1107,0,0
518,-83,0,0,0,0,0,0,0,0,0,-1,1742,1107,0,0
525,-83,0,0,0,0,0,0,0,0,0,-1,1749,1107,0,0
532,-83,0,0,0,0,0,0,0,0,0,-1,1756,1107,0,0
539,-83,0,0,0,0,0,0,0,0,0,-1,1763,1107,0,0
546,-83,0,0,0,0,0,0,0,0,0,-1,1770,1107,0,0
553,-83,0,0,0,0,0,0,0,0,0,-1,1777,1107,0,0
560,-83,0,0,0,0,0,0,0,0,0,-1,1784,1107,0,0
567,-83,0,0,0,0,0,0,0,0,0,-1,1791,1107,0,0
574,-83,0,0,0,0,0,0,0,0,0,-1,1798,1107,0,0
581,-83,0,0,0,0,0,0,0,0,0,-1,1805,1107,0,0
588,-83,0,0,0,0,0,0,0,0,0,-1,1812,1107,0,0
595,-83,0,0,0,0,0,0,0,0,0,-1,1819,1107,0,0
602,-83,0,0,0,0,0,0,0,0,0,-1,1826,1107,0,0
609,-83,0,0,0,0,0,0,0,0,0,-1,1833,1107,0,0
616,-83,0,0,0,0,0,0,0,0,0,-1,1840,1107,0,0
623,-83,0,0,0,0,0,0,0,0,0,-1,1847,1107,0,0
630,-83,0,0,0,0,0,0,0,0,0,-1,1854,1107,0,0
637,-83,0,0,0,0,0,0,0,0,0,-1,1861,1107,0,0
644,-83,79.8784,2.04883,0.00453984,-0.00215189,-0.00236762,0.0052928,-0.00290486,-0.307913,0.00479939,0.0366967,1868,1107,79.8784,-2.04887
651,-83,80.0103,1.9137,0.00310233,-0.00163959,-0.000748128,0.00321756,-0.00175482,-0.152825,0.00291192,0.0413459,1875,1107,80.0103,-1.9137
658,-83,80.105,1.7854,0.00219963,-0.00135552,0.000197046,0.00221052,-0.00136641,0.0552002,0.00208422,0.0419415,1882,1107,80.1049,-1.78542
665,-83,79.9127,2.17688,0.00152023,-0.00112439,0.000668154,0.00167945,-0.00128361,0.233937,0.0017158,0.0394517,1889,1107,79.9127,-2.1769
672,-83,79.9041,2.36914,0.000981547,-0.000883447,0.000837981,0.00130275,-0.00120465,0.366032,0.00144802,0.038415,1896,1107,79.9041,-2.36914
679,-83,79.9675,2.26196,0.000592205,-0.000747063,0.000837469,0.000994842,-0.0011497,0.448152,0.00123923,0.0372222,1903,1107,79.9675,-2.262
686,-83,80.0219,2.19421,0.000262489,-0.000776925,0.000635893,0.000564034,-0.00107847,0.442801,0.00096368,0.0344922,1910,1107,80.0218,-2.19416
693,-83,79.9976,2.1864,7.39989e-05,-0.000963067,0.000672656,0.000404785,-0.00129385,0.457034,0.00102451,0.0357348,1917,1107,79.9976,-2.18636
700,-83,79.9912,2.21118,3.63679e-05,-0.000951646,0.000729875,0.000423701,-0.00133898,0.487893,0.00106243,0.0321864,1924,1107,79.9912,-2.2112
707,-83,79.9758,2.14795,-0.000286905,-0.000752748,0.00102865,0.000534866,-0.00157452,0.674059,0.0012662,0.0219361,1931,1107,79.9758,-2.14791
714,-83,80.0187,2.06482,0,0,0,0,0,0,0,-1,1938,1107,80.0187,-2.06481
721,-83,49.1162,7.36719,0,0,0,0,0,0,0,-1,1945,1107,49.1162,-7.36721
728,-83,66.6315,8.32141,0,0,0,0,0,0,0,-1,1952,1107,66.6314,-8.32147
735,-83,75.551,8.85498,0,0,0,0,0,0,0,-1,1959,1107,75.5511,-8.85501
742,-83,75.6742,8.25513,-0.00326482,0.00282772,0.00204469,0.00345031,-0.00388741,1.27523,0.00423894,0.0324029,1966,1107,75.6741,-8.25507
749,-83,75.7793,7.69604,-0.004116,0.00409085,0.00253999,0.00481336,-0.00483851,1.29366,0.00557251,0.0214209,1973,1107,75.7792,-7.696
756,-83,75.7402,7.10571,-0.00528651,0.00560884,0.00264721,0.00621797,-0.00589564,1.34463,0.00699462,0.018784,1980,1107,75.7402,-7.10577
763,-83,75.6599,6.49963,-0.00564977,0.00786977,0.00296953,0.00849326,-0.00627326,1.36384,0.00855751,0.0144803,1987,1107,75.66,-6.49962
770,-83,75.5469,5.97559,-0.00587052,0.0103788,0.00303758,0.0109281,-0.00641978,1.39191,0.0101279,0.0169122,1994,1107,75.547,-5.97553
777,-83,75.3767,5.4281,-0.00552705,0.0127512,0.00309457,0.0132609,-0.00603676,1.40755,0.0113988,0.0174102,2001,1107,75.3768,-5.42815
784,-83,75.3225,4.83899,-0.00452189,0.0147384,0.00323212,0.0152663,-0.00504981,1.40889,0.0122139,0.0258882,2008,1107,75.3224,-4.83895
791,-83,75.6604,4.4812,-0.00256043,0.0161499,0.00347204,0.0167734,-0.00318395,1.39311,0.0123808,0.0400762,2015,1107,75.6604,-4.48122
798,-83,74.8303,2.86597,0.00105416,0.0166446,0.00410937,0.0176615,3.73283e-05,1.32823,0.0117619,0.0455187,2022,1107,74.8303,-2.86597
805,-83,75.145,2.3186,0,0,0,0,0,0,0,-1,2029,1107,75.1451,-2.31859
812,-83,75.3083,1.5437,0,0,0,0,0,0,0,-1,2036,1107,75.3083,-1.54371
-700,-90,0,0,0,0,0,0,0,0,0,-1,524,1114,0,0
-693,-90,-57.4347,0.0645752,-0.0186368,-0.0279601,0.00987597,-0.0123776,-0.0342194,0.564892,0.0200069,0.0446594,531,1114,-57.4347,-0.0646316
-686,-90,-57.9778,0.47522,-0.0107578,-0.0251148,0.0162958,-0.000129439,-0.0357431,0.577929,0.0237857,0.0453724,538,1114,-57.9779,-0.475257
-679,-90,-58.2666,1.08142,-0.006694,-0.0206048,0.0180741,0.00571687,-0.0330156,0.60172,0.0241427,0.045455,545,1114,-58.2666,-1.08143
-672,-90,-58.2747,1.70435,-0.00427249,-0.0157169,0.0173711,0.00829464,-0.028284,0.626291,0.0221449,0.0457063,552,1114,-58.2748,-1.70429
-665,-90,-58.3499,2.44958,-0.00321668,-0.0110181,0.0153771,0.00874674,-0.0229815,0.661184,0.0189228,0.0465813,559,1114,-58.35,-2.44954
-658,-90,-58.5229,3.10486,-0.00311492,-0.00679611,0.0126471,0.00782479,-0.0177358,0.713138,0.0151227,0.0468353,566,1114,-58.5229,-3.10481
-651,-90,-58.7062,3.77405,-0.00343085,-0.00325221,0.00961243,0.00627132,-0.0129544,0.790044,0.0113213,0.0403656,573,1114,-58.7062,-3.77409
-644,-90,-58.8727,4.51782,-0.00381828,-0.000657167,0.00655017,0.00450044,-0.00897589,0.903785,0.00792229,0.0221915,580,1114,-58.8727,-4.51778
-637,-90,-58.9791,5.23267,-0.00396956,0.000964037,0.00396366,0.00316583,-0.00617135,1.06374,0.00548312,0.0168857,587,1114,-58.9791,-5.23263
-630,-90,-59.0535,5.84949,-0.00477602,0.00247537,0.000938059,0.00259475,-0.00489541,1.44421,0.00439192,0.0127973,594,1114,-59.0535,-5.84947
-623,-90,-59.0921,6.47339,-0.00427015,0.00251747,-0.00116662,0.00271238,-0.00446507,-1.40525,0.00418488,0.0141656,601,1114,-59.0921,-6.47339
-616,-90,-59.1732,7.09692,-0.00363666,0.00211502,-0.00206176,0.00277773,-0.00429937,-1.2598,0.00411732,0.0164029,608,1114,-59.1732,-7.09694
-609,-90,-59.1389,7.69055,-0.00233959,0.00118997,-0.00186762,0.00199472,-0.00314433,-1.16394,0.00299168,0.0260481,615,1114,-59.1389,-7.69058
-602,-90,-59.2339,8.31409,-0.00129199,0.000578947,-0.00176527,0.0016413,-0.00235434,-1.02905,0.0023191,0.0255708,622,1114,-59.2339,-8.31405
-595,-90,-59.1662,8.94922,-0.000777157,0.000157338,-0.0015571,0.00131579,-0.00193561,-0.931161,0.00188853,0.0260213,629,1114,-59.1662,-8.94924
-588,-90,-59.3374,9.16479,0,0,0,0,0,0,0,-1,636,1114,-59.3374,-9.1648
-581,-90,-63.2045,0.335205,0,0,0,0,0,0,0,-1,643,1114,-63.2045,-0.335155
-574,-90,-63.1365,0.302612,0.000919654,-0.00112912,-0.000684255,0.00112717,-0.00133663,-0.294451,0.00142418,0.03748,650,1114,-63.1365,-0.302646
-567,-90,-63.1362,0.247314,0.00154271,-0.00117545,-0.000391823,0.00159807,-0.0012308,-0.140344,0.00163783,0.0350721,657,1114,-63.1362,-0.247355
-560,-90,-63.1357,0.337036,0.00168193,-0.000966338,-0.000145604,0.00168991,-0.000974319,-0.0547608,0.00155658,0.037082,664,1114,-63.1357,-0.337054
-553,-90,-63.09,0.505371,0.000491998,-0.000584803,-4.63628e-05,0.000493991,-0.000586796,-0.0429501,0.000624759,0.0361125,671,1114,-63.09,-0.505342
-546,-90,-63.0172,0.438354,-0.00199372,-0.000120619,-6.39018e-05,-0.000118442,-0.00199589,-1.53673,0.00129292,0.0378731,678,1114,-63.0172,-0.438297
-539,-90,-63.0021,0.30603,-0.00495658,-0.000296152,-0.000159992,-0.000290666,-0.00496207,-1.53652,0.00321554,0.0413492,685,1114,-63.0021,-0.306063
-532,-90,-63.1581,0.364258,-0.00783366,-0.000408367,-4.31372e-05,-0.000408116,-0.00783391,-1.56499,0.00509202,0.0427044,692,1114,-63.1581,-0.364255
-525,-90,0,0,0,0,0,0,0,0,0,-1,699,1114,0,0
-518,-90,0,0,0,0,0,0,0,0,0,-1,706,1114,0,0
-511,-90,0,0,0,0,0,0,0,0,0,-1,713,1114,0,0
-504,-90,0,0,0,0,0,0,0,0,0,-1,720,1114,0,0
-497,-90,0,0,0,0,0,0,0,0,0,-1,727,1114,0,0
-490,-90,0,0,0,0,0,0,0,0,0,-1,734,1114,0,0
-483,-90,0,0,0,0,0,0,0,0,0,-1,741,1114,0,0
-476,-90,0,0,0,0,0,0,0,0,0,-1,748,1114,0,0
-469,-90,0,0,0,0,0,0,0,0,0,-1,755,1114,0,0
-462,-90,0,0,0,0,0,0,0,0,0,-1,762,1114,0,0
-455,-90,0,0,0,0,0,0,0,0,0,-1,769,1114,0,0
-448,-90,0,0,0,0,0,0,0,0,0,-1,776,1114,0,0
-441,-90,0,0,0,0,0,0,0,0,0,-1,783,1114,0,0
-434,-90,0,0,0,0,0,0,0,0,0,-1,790,1114,0,0
-427,-90,0,0,0,0,0,0,0,0,0,-1,797,1114,0,0
-420,-90,0,0,0,0,0,0,0,0,0,-1,804,1114,0,0
-413,-90,0,0,0,0,0,0,0,0,0,-1,811,1114,0,0
-406,-90,0,0,0,0,0,0,0,0,0,-1,818,1114,0,0
-399,-90,0,0,0,0,0,0,0,0,0,-1,825,1114,0,0
-392,-90,0,0,0,0,0,0,0,0,0,-1,832,1114,0,0
-385,-90,0,0,0,0,0,0,0,0,0,-1,839,1114,0,0
-378,-90,0,0,0,0,0,0,0,0,0,-1,846,1114,0,0
-371,-90,0,0,0,0,0,0,0,0,0,-1,853,1114,0,0
-364,-90,0,0,0,0,0,0,0,0,0,-1,860,1114,0,0
-357,-90,0,0,0,0,0,0,0,0,0,-1,867,1114,0,0
-350,-90,0,0,0,0,0,0,0,0,0,-1,874,1114,0,0
-343,-90,0,0,0,0,0,0,0,0,0,-1,881,1114,0,0
-336,-90,0,0,0,0,0,0,0,0,0,-1,888,1114,0,0
-329,-90,0,0,0,0,0,0,0,0,0,-1,895,1114,0,0
-322,-90,0,0,0,0,0,0,0,0,0,-1,902,1114,0,0
-315,-90,0,0,0,0,0,0,0,0,0,-1,909,1114,0,0
-308,-90,0,0,0,0,0,0,0,0,0,-1,916,1114,0,0
-301,-90,0,0,0,0,0,0,0,0,0,-1,923,1114,0,0
-294,-90,0,0,0,0,0,0,0,0,0,-1,930,1114,0,0
-287,-90,0,0,0,0,0,0,0,0,0,-1,937,1114,0,0
-280,-90,0,0,0,0,0,0,0,0,0,-1,944,1114,0,0
-273,-90,0,0,0,0,0,0,0,0,0,-1,951,1114,0,0
-266,-90,0,0,0,0,0,0,0,0,0,-1,958,1114,0,0
-259,-90,0,0,0,0,0,0,0,0,0,-1,965,1114,0,0
-252,-90,0,0,0,0,0,0,0,0,0,-1,972,1114,0,0
-245,-90,0,0,0,0,0,0,0,0,0,-1,979,1114,0,0
-238,-90,0,0,0,0,0,0,0,0,0,-1,986,1114,0,0
-231,-90,0,0,0,0,0,0,0,0,0,-1,993,1114,0,0
-224,-90,0,0,0,0,0,0,0,0,0,-1,1000,1114,0,0
-217,-90,0,0,0,0,0,0,0,0,0,-1,1007,1114,0,0
-210,-90,0,0,0,0,0,0,0,0,0,-1,1014,1114,0,0
-203,-90,0,0,0,0,0,0,0,0,0,-1,1021,1114,0,0
-196,-90,0,0,0,0,0,0,0,0,0,-1,1028,1114,0,0
-189,-90,0,0,0,0,0,0,0,0,0,-1,1035,1114,0,0
-182,-90,0,0,0,0,0,0,0,0,0,-1,1042,1114,0,0
-175,-90,0,0,0,0,0,0,0,0,0,-1,1049,1114,0,0
-168,-90,0,0,0,0,0,0,0,0,0,-1,1056,1114,0,0
-161,-90,0,0,0,0,0,0,0,0,0,-1,1063,1114,0,0
-154,-90,0,0,0,0,0,0,0,0,0,-1,1070,1114,0,0
-147,-90,0,0,0,0,0,0,0,0,0,-1,1077,1114,0,0
-140,-90,0,0,0,0,0,0,0,0,0,-1,1084,1114,0,0
-133,-90,0,0,0,0,0,0,0,0,0,-1,1091,1114,0,0
-126,-90,0,0,0,0,0,0,0,0,0,-1,1098,1114,0,0
-119,-90,0,0,0,0,0,0,0,0,0,-1,1105,1114,0,0
-112,-90,0,0,0,0,0,0,0,0,0,-1,1112,1114,0,0
-105,-90,0,0,0,0,0,0,0,0,0,-1,1119,1114,0,0
-98,-90,0,0,0,0,0,0,0,0,0,-1,1126,1114,0,0
-91,-90,0,0,0,0,0,0,0,0,0,-1,1133,1114,0,0
-84,-90,0,0,0,0,0,0,0,0,0,-1,1140,1114,0,0
-77,-90,0,0,0,0,0,0,0,0,0,-1,1147,1114,0,0
-70,-90,0,0,0,0,0,0,0,0,0,-1,1154,1114,0,0
-63,-90,0,0,0,0,0,0,0,0,0,-1,1161,1114,0,0
-56,-90,0,0,0,0,0,0,0,0,0,-1,1168,1114,0,0
-49,-90,0,0,0,0,0,0,0,0,0,-1,1175,1114,0,0
-42,-90,0,0,0,0,0,0,0,0,0,-1,1182,1114,0,0
-35,-90,0,0,0,0,0,0,0,0,0,-1,1189,1114,0,0
-28,-90,0,0,0,0,0,0,0,0,0,-1,1196,1114,0,0
-21,-90,0,0,0,0,0,0,0,0,0,-1,1203,1114,0,0
-14,-90,0,0,0,0,0,0,0,0,0,-1,1210,1114,0,0
-7,-90,0,0,0,0,0,0,0,0,0,-1,1217,1114,0,0
0,-90,0,0,0,0,0,0,0,0,0,-1,1224,1114,0,0
7,-90,0,0,0,0,0,0,0,0,0,-1,1231,1114,0,0
14,-90,0,0,0,0,0,0,0,0,0,-1,1238,1114,0,0
21,-90,0,0,0,0,0,0,0,0,0,-1,1245,1114,0,0
28,-90,0,0,0,0,0,0,0,0,0,-1,1252,1114,0,0
35,-90,0,0,0,0,0,0,0,0,0,-1,1259,1114,0,0
42,-90,0,0,0,0,0,0,0,0,0,-1,1266,1114,0,0
49,-90,0,0,0,0,0,0,0,0,0,-1,1273,1114,0,0
56,-90,0,0,0,0,0,0,0,0,0,-1,1280,1114,0,0
63,-90,0,0,0,0,0,0,0,0,0,-1,1287,1114,0,0
70,-90,0,0,0,0,0,0,0,0,0,-1,1294,1114,0,0
77,-90,0,0,0,0,0,0,0,0,0,-1,1301,1114,0,0
84,-90,0,0,0,0,0,0,0,0,0,-1,1308,1114,0,0
91,-90,0,0,0,0,0,0,0,0,0,-1,1315,1114,0,0
98,-90,0,0,0,0,0,0,0,0,0,-1,1322,1114,0,0
105,-90,0,0,0,0,0,0,0,0,0,-1,1329,1114,0,0
112,-90,0,0,0,0,0,0,0,0,0,-1,1336,1114,0,0
119,-90,0,0,0,0,0,0,0,0,0,-1,1343,1114,0,0
126,-90,0,0,0,0,0,0,0,0,0,-1,1350,1114,0,0
133,-90,0,0,0,0,0,0,0,0,0,-1,1357,1114,0,0
140,-90,0,0,0,0,0,0,0,0,0,-1,1364,1114,0,0
147,-90,0,0,0,0,0,0,0,0,0,-1,1371,1114,0,0
154,-90,0,0,0,0,0,0,0,0,0,-1,1378,1114,0,0
161,-90,0,0,0,0,0,0,0,0,0,-1,1385,1114,0,0
168,-90,0,0,0,0,0,0,0,0,0,-1,1392,1114,0,0
175,-90,0,0,0,0,0,0,0,0,0,-1,1399,1114,0,0
182,-90,0,0,0,0,0,0,0,0,0,-1,1406,1114,0,0
189,-90,0,0,0,0,0,0,0,0,0,-1,1413,1114,0,0
196,-90,0,0,0,0,0,0,0,0,0,-1,1420,1114,0,0
203,-90,0,0,0,0,0,0,0,0,0,-1,1427,1114,0,0
210,-90,0,0,0,0,0,0,0,0,0,-1,1434,1114,0,0
217,-90,0,0,0,0,0,0,0,0,0,-1,1441,1114,0,0
224,-90,0,0,0,0,0,0,0,0,0,-1,1448,1114,0,0
231,-90,0,0,0,0,0,0,0,0,0,-1,1455,1114,0,0
238,-90,0,0,0,0,0,0,0,0,0,-1,1462,1114,0,0
245,-90,0,0,0,0,0,0,0,0,0,-1,1469,1114,0,0
252,-90,0,0,0,0,0,0,0,0,0,-1,1476,1114,0,0
259,-90,0,0,0,0,0,0,0,0,0,-1,1483,1114,0,0
266,-90,0,0,0,0,0,0,0,0,0,-1,1490,1114,0,0
273,-90,0,0,0,0,0,0,0,0,0,-1,1497,1114,0,0
280,-90,0,0,0,0,0,0,0,0,0,-1,1504,1114,0,0
287,-90,0,0,0,0,0,0,0,0,0,-1,1511,1114,0,0
294,-90,0,0,0,0,0,0,0,0,0,-1,1518,1114,0,0
301,-90,0,0,0,0,0,0,0,0,0,-1,1525,1114,0,0
308,-90,0,0,0,0,0,0,0,0,0,-1,1532,1114,0,0
315,-90,0,0,0,0,0,0,0,0,0,-1,1539,1114,0,0
322,-90,0,0,0,0,0,0,0,0,0,-1,1546,1114,0,0
329,-90,0,0,0,0,0,0,0,0,0,-1,1553,1114,0,0
336,-90,0,0,0,0,0,0,0,0,0,-1,1560,1114,0,0
343,-90,0,0,0,0,0,0,0,0,0,-1,1567,1114,0,0
350,-90,0,0,0,0,0,0,0,0,0,-1,1574,1114,0,0
357,-90,0,0,0,0,0,0,0,0,0,-1,1581,1114,0,0
364,-90,0,0,0,0,0,0,0,0,0,-1,1588,1114,0,0
371,-90,0,0,0,0,0,0,0,0,0,-1,1595,1114,0,0
378,-90,0,0,0,0,0,0,0,0,0,-1,1602,1114,0,0
385,-90,0,0,0,0,0,0,0,0,0,-1,1609,1114,0,0
392,-90,0,0,0,0,0,0,0,0,0,-1,1616,1114,0,0
399,-90,0,0,0,0,0,0,0,0,0,-1,1623,1114,0,0
406,-90,0,0,0,0,0,0,0,0,0,-1,1630,1114,0,0
413,-90,0,0,0,0,0,0,0,0,0,-1,1637,1114,0,0
420,-90,0,0,0,0,0,0,0,0,0,-1,1644,1114,0,0
427,-90,0,0,0,0,0,0,0,0,0,-1,1651,1114,0,0
434,-90,0,0,0,0,0,0,0,0,0,-1,1658,1114,0,0
441,-90,0,0,0,0,0,0,0,0,0,-1,1665,1114,0,0
448,-90,0,0,0,0,0,0,0,0,0,-1,1672,1114,0,0
455,-90,0,0,0,0,0,0,0,0,0,-1,1679,1114,0,0
462,-90,0,0,0,0,0,0,0,0,0,-1,1686,1114,0,0
469,-90,0,0,0,0,0,0,0,0,0,-1,1693,1114,0,0
476,-90,0,0,0,0,0,0,0,0,0,-1,1700,1114,0,0
483,-90,0,0,0,0,0,0,0,0,0,-1,1707,1114,0,0
490,-90,0,0,0,0,0,0,0,0,0,-1,1714,1114,0,0
497,-90,0,0,0,0,0,0,0,0,0,-1,1721,1114,0,0
504,-90,0,0,0,0,0,0,0,0,0,-1,1728,1114,0,0
511,-90,0,0,0,0,0,0,0,0,0,-1,1735,1114,0,0
518,-90,0,0,0,0,0,0,0,0,0,-1,1742,1114,0,0
525,-90,0,0,0,0,0,0,0,0,0,-1,1749,1114,0,0
532,-90,0,0,0,0,0,0,0,0,0,-1,1756,1114,0,0
539,-90,0,0,0,0,0,0,0,0,0,-1,1763,1114,0,0
546,-90,0,0,0,0,0,0,0,0,0,-1,1770,1114,0,0
553,-90,0,0,0,0,0,0,0,0,0,-1,1777,1114,0,0
560,-90,0,0,0,0,0,0,0,0,0,-1,1784,1114,0,0
567,-90,0,0,0,0,0,0,0,0,0,-1,1791,1114,0,0
574,-90,0,0,0,0,0,0,0,0,0,-1,1798,1114,0,0
581,-90,0,0,0,0,0,0,0,0,0,-1,1805,1114,0,0
588,-90,0,0,0,0,0,0,0,0,0,-1,1812,1114,0,0
595,-90,0,0,0,0,0,0,0,0,0,-1,1819,1114,0,0
602,-90,0,0,0,0,0,0,0,0,0,-1,1826,1114,0,0
609,-90,0,0,0,0,0,0,0,0,0,-1,1833,1114,0,0
616,-90,0,0,0,0,0,0,0,0,0,-1,1840,1114,0,0
623,-90,0,0,0,0,0,0,0,0,0,-1,1847,1114,0,0
630,-90,0,0,0,0,0,0,0,0,0,-1,1854,1114,0,0
637,-90,0,0,0,0,0,0,0,0,0,-1,1861,1114,0,0
644,-90,79.856,2.14087,0.00342629,-0.00236735,-0.0026752,0.0044726,-0.00341366,-0.372823,0.00456679,0.0374366,1868,1114,79.8559,-2.14087
651,-90,79.9115,2.0022,0.00220984,-0.00187099,-0.00105095,0.0024646,-0.00212574,-0.237814,0.00265264,0.040764,1875,1114,79.9115,-2.00219
658,-90,79.9025,1.85669,0.00153373,-0.00155279,-7.04032e-05,0.00153534,-0.0015544,-0.0227941,0.00178387,0.0422784,1882,1114,79.9024,-1.8567
665,-90,79.9019,2.18848,0.00104811,-0.00125748,0.000431341,0.00112617,-0.00133554,0.179021,0.00142298,0.0439465,1889,1114,79.9019,-2.18848
672,-90,80.0083,2.46375,0.000690752,-0.000948331,0.000620464,0.000899133,-0.00115671,0.324011,0.00119004,0.0444255,1896,1114,80.0082,-2.4638
679,-90,80.0581,2.40552,0.000488189,-0.000793334,0.000653425,0.000762599,-0.00106774,0.397591,0.00106163,0.0393875,1903,1114,80.0581,-2.40556
686,-90,80.0178,2.29626,0.000351508,-0.000798408,0.000452528,0.000508232,-0.000955132,0.333401,0.000857906,0.0329455,1910,1114,80.0178,-2.29624
693,-90,79.9635,2.19861,0.000288208,-0.000958135,0.000476188,0.000449318,-0.00111925,0.326244,0.000932737,0.0342082,1917,1114,79.9635,-2.19862
700,-90,79.9581,2.18079,0.000338375,-0.000950875,0.000535688,0.000531905,-0.0011444,0.346682,0.000989118,0.0313714,1924,1114,79.9581,-2.18081
707,-90,79.9761,2.0625,0.000108488,-0.000750402,0.000847409,0.000629056,-0.00127097,0.550872,0.00111765,0.0204123,1931,1114,79.9761,-2.06245
714,-90,80.0115,1.90173,0,0,0,0,0,0,0,-1,1938,1114,80.0115,-1.90169
721,-90,63.521,8.76965,0,0,0,0,0,0,0,-1,1945,1114,63.521,-8.7697
728,-90,74.8467,9.51257,0,0,0,0,0,0,0,-1,1952,1114,74.8467,-9.51258
735,-90,74.7437,8.95337,-0.00225364,0.00157697,0.00136663,0.00201455,-0.00269122,1.26092,0.00272622,0.0424363,1959,1114,74.7436,-8.95337
742,-90,74.9077,8.25171,-0.00256366,0.0024781,0.00180297,0.0030565,-0.00314206,1.26036,0.00357886,0.0394358,1966,1114,74.9077,-8.25168
749,-90,75.2859,7.49536,-0.00342741,0.0036141,0.00230752,0.0043029,-0.00411621,1.28071,0.00486118,0.0241092,1973,1114,75.2859,-7.49535
756,-90,75.1907,6.98706,-0.00477372,0.00499895,0.00246705,0.00558643,-0.0053612,1.33702,0.00632106,0.019603,1980,1114,75.1907,-6.9871
763,-90,75.0754,6.43201,-0.00555291,0.00704115,0.00281472,0.0076416,-0.00615336,1.36062,0.00797996,0.0142435,1987,1114,75.0755,-6.43204
770,-90,74.9766,5.84241,-0.00646259,0.0091409,0.00294608,0.00967862,-0.00700031,1.39026,0.00967088,0.0178512,1994,1114,74.9765,-5.84244
777,-90,74.8352,5.31116,-0.0071889,0.0109277,0.00305684,0.0114296,-0.00769078,1.40806,0.0111093,0.0177206,2001,1114,74.8353,-5.3112
784,-90,74.6997,4.8031,-0.00765816,0.0121906,0.00321293,0.0126978,-0.00816528,1.41425,0.0121397,0.0308845,2008,1114,74.6998,-4.80307
791,-90,74.7043,4.2655,-0.00780233,0.0126442,0.00338904,0.0131913,-0.00834943,1.41075,0.0125408,0.0435801,2015,1114,74.7043,-4.26548
798,-90,74.791,3.78918,-0.00727937,0.0118106,0.00384606,0.0125563,-0.0080251,1.37928,0.0119783,0.0470056,2022,1114,74.7909,-3.78921
805,-90,73.8276,1.8457,0,0,0,0,0,0,0,-1,2029,1114,73.8277,-1.84576
812,-90,73.9492,0.734863,0,0,0,0,0,0,0,-1,2036,1114,73.9493,-0.734923
-700,-97,0,0,0,0,0,0,0,0,0,-1,524,1121,0,0
-693,-97,-56.6454,-0.236206,-0.00667713,-0.0365437,0.0213928,0.00447895,-0.0476998,0.480689,0.0333931,0.0461358,531,1121,-56.6454,0.236185
-686,-97,-57.0524,0.771362,-0.00136771,-0.0334213,0.0244792,0.0118645,-0.0466535,0.495558,0.0357201,0.047539,538,1121,-57.0524,-0.771329
-679,-97,-57.5258,1.74329,0.000617925,-0.0280412,0.0237049,0.0139878,-0.041411,0.513538,0.0332651,0.0488574,545,1121,-57.5258,-1.7433
-672,-97,-58.2971,1.94531,0.00131797,-0.0222066,0.0211709,0.0137746,-0.0346633,0.531836,0.0288194,0.0443173,552,1121,-58.2971,-1.94525
-665,-97,-57.7546,2.55652,0,0,0,0,0,0,0,-1,559,1121,-57.7546,-2.55649
-658,-97,-57.7172,3.80835,-0.000116433,-0.0114616,0.01426,0.00955786,-0.0211359,0.596096,0.0181364,0.0445797,566,1121,-57.7171,-3.80829
-651,-97,-58.1522,3.86841,-0.00137248,-0.00700809,0.0105867,0.00676501,-0.0151456,0.655331,0.0129549,0.0404321,573,1121,-58.1522,-3.86846
-644,-97,-58.2545,4.50854,-0.00257272,-0.00351407,0.00705759,0.00402988,-0.0101167,0.752102,0.00841575,0.0172041,580,1121,-58.2545,-4.5086
-637,-97,-58.3203,5.20496,-0.00361976,-0.0010047,0.00404121,0.00193524,-0.0065597,0.941858,0.0051411,0.0168447,587,1121,-58.3203,-5.20499
-630,-97,-58.3784,5.83093,-0.00517974,0.00138087,0.000688179,0.00145228,-0.00525115,1.4674,0.00407212,0.0114271,594,1121,-58.3784,-5.83089
-623,-97,-58.4297,6.38306,-0.00513789,0.00194632,-0.00160137,0.00229149,-0.00548306,-1.3585,0.00461299,0.0160477,601,1121,-58.4297,-6.38302
-616,-97,-58.5525,7.09448,-0.00479263,0.00189711,-0.00237596,0.00265508,-0.00555061,-1.26198,0.00483487,0.0224048,608,1121,-58.5525,-7.0945
-609,-97,-58.6338,7.78284,-0.00353419,0.00130826,-0.00196898,0.00200781,-0.00423374,-1.22942,0.00367915,0.0310462,615,1121,-58.6338,-7.78278
-602,-97,-58.7084,8.35291,-0.00253068,0.000817491,-0.00171406,0.00153935,-0.00325254,-1.1722,0.00282493,0.0335204,622,1121,-58.7083,-8.35291
-595,-97,-58.7274,8.94971,-0.00206586,0.000433666,-0.00144484,0.00109426,-0.00272645,-1.14196,0.00227199,0.031138,629,1121,-58.7274,-8.9497
-588,-97,-59.1338,9.27563,0,0,0,0,0,0,0,-1,636,1121,-59.1338,-9.27561
-581,-97,-51.2355,3.23926,0,0,0,0,0,0,0,-1,643,1121,-51.2355,-3.23926
-574,-97,-63.1219,0.341064,0,0,0,0,0,0,0,-1,650,1121,-63.1219,-0.341007
-567,-97,-63.0983,0.287109,0.000990002,-0.00118667,-0.000347681,0.00104419,-0.00124086,-0.154607,0.0013209,0.0327523,657,1121,-63.0984,-0.287115
-560,-97,-63.1298,0.285034,0.00170553,-0.00107179,-8.23797e-05,0.00170797,-0.00107423,-0.0296269,0.00162013,0.0379207,664,1121,-63.1298,-0.285004
-553,-97,-62.9225,0.389282,0.000884887,-0.000717904,-9.5747e-05,0.000890587,-0.000723603,-0.0594558,0.000933614,0.041021,671,1121,-62.9226,-0.389258
-546,-97,-62.9241,0.260864,-0.00146586,-0.000183962,-0.000373801,-8.29249e-05,-0.00156689,-1.30681,0.00101808,0.0414914,678,1121,-62.9241,-0.260807
-539,-97,-62.9933,0.114136,-0.00420529,-0.000227678,-0.000763796,-8.60542e-05,-0.00434692,-1.38746,0.00286969,0.0420622,685,1121,-62.9933,-0.114149
-532,-97,-63.0853,0.133301,-0.00686311,-0.000272688,-0.000994874,-0.000125779,-0.00701002,-1.42419,0.00463199,0.0418037,692,1121,-63.0852,-0.133292
-525,-97,0,0,0,0,0,0,0,0,0,-1,699,1121,0,0
-518,-97,0,0,0,0,0,0,0,0,0,-1,706,1121,0,0
-511,-97,0,0,0,0,0,0,0,0,0,-1,713,1121,0,0
-504,-97,0,0,0,0,0,0,0,0,0,-1,720,1121,0,0
-497,-97,0,0,0,0,0,0,0,0,0,-1,727,1121,0,0
-490,-97,0,0,0,0,0,0,0,0,0,-1,734,1121,0,0
-483,-97,0,0,0,0,0,0,0,0,0,-1,741,1121,0,0
-476,-97,0,0,0,0,0,0,0,0,0,-1,748,1121,0,0
-469,-97,0,0,0,0,0,0,0,0,0,-1,755,1121,0,0
-462,-97,0,0,0,0,0,0,0,0,0,-1,762,1121,0,0
-455,-97,0,0,0,0,0,0,0,0,0,-1,769,1121,0,0
-448,-97,0,0,0,0,0,0,0,0,0,-1,776,1121,0,0
-441,-97,0,0,0,0,0,0,0,0,0,-1,783,1121,0,0
-434,-97,0,0,0,0,0,0,0,0,0,-1,790,1121,0,0
-427,-97,0,0,0,0,0,0,0,0,0,-1,797,1121,0,0
-420,-97,0,0,0,0,0,0,0,0,0,-1,804,1121,0,0
-413,-97,0,0,0,0,0,0,0,0,0,-1,811,1121,0,0
-406,-97,0,0,0,0,0,0,0,0,0,-1,818,1121,0,0
-399,-97,0,0,0,0,0,0,0,0,0,-1,825,1121,0,0
-392,-97,0,0,0,0,0,0,0,0,0,-1,832,1121,0,0
-385,-97,0,0,0,0,0,0,0,0,0,-1,839,1121,0,0
-378,-97,0,0,0,0,0,0,0,0,0,-1,846,1121,0,0
-371,-97,0,0,0,0,0,0,0,0,0,-1,853,1121,0,0
-364,-97,0,0,0,0,0,0,0,0,0,-1,860,1121,0,0
-357,-97,0,0,0,0,0,0,0,0,0,-1,867,1121,0,0
-350,-97,0,0,0,0,0,0,0,0,0,-1,874,1121,0,0
-343,-97,0,0,0,0,0,0,0,0,0,-1,881,1121,0,0
-336,-97,0,0,0,0,0,0,0,0,0,-1,888,1121,0,0
-329,-97,0,0,0,0,0,0,0,0,0,-1,895,1121,0,0
-322,-97,0,0,0,0,0,0,0,0,0,-1,902,1121,0,0
-315,-97,0,0,0,0,0,0,0,0,0,-1,909,1121,0,0
-308,-97,0,0,0,0,0,0,0,0,0,-1,916,1121,0,0
-301,-97,0,0,0,0,0,0,0,0,0,-1,923,1121,0,0
-294,-97,0,0,0,0,0,0,0,0,0,-1,930,1121,0,0
-287,-97,0,0,0,0,0,0,0,0,0,-1,937,1121,0,0
-280,-97,0,0,0,0,0,0,0,0,0,-1,944,1121,0,0
-273,-97,0,0,0,0,0,0,0,0,0,-1,951,1121,0,0
-266,-97,0,0,0,0,0,0,0,0,0,-1,958,1121,0,0
-259,-97,0,0,0,0,0,0,0,0,0,-1,965,1121,0,0
-252,-97,0,0,0,0,0,0,0,0,0,-1,972,1121,0,0
-245,-97,0,0,0,0,0,0,0,0,0,-1,979,1121,0,0
-238,-97,0,0,0,0,0,0,0,0,0,-1,986,1121,0,0
-231,-97,0,0,0,0,0,0,0,0,0,-1,993,1121,0,0
-224,-97,0,0,0,0,0,0,0,0,0,-1,1000,1121,0,0
-217,-97,0,0,0,0,0,0,0,0,0,-1,1007,1121,0,0
-210,-97,0,0,0,0,0,0,0,0,0,-1,1014,1121,0,0
-203,-97,0,0,0,0,0,0,0,0,0,-1,1021,1121,0,0
-196,-97,0,0,0,0,0,0,0,0,0,-1,1028,1121,0,0
-189,-97,0,0,0,0,0,0,0,0,0,-1,1035,1121,0,0
-182,-97,0,0,0,0,0,0,0,0,0,-1,1042,1121,0,0
-175,-97,0,0,0,0,0,0,0,0,0,-1,1049,1121,0,0
-168,-97,0,0,0,0,0,0,0,0,0,-1,1056,1121,0,0
-161,-97,0,0,0,0,0,0,0,0,0,-1,1063,1121,0,0
-154,-97,0,0,0,0,0,0,0,0,0,-1,1070,1121,0,0
-147,-97,0,0,0,0,0,0,0,0,0,-1,1077,1121,0,0
-140,-97,0,0,0,0,0,0,0,0,0,-1,1084,1121,0,0
-133,-97,0,0,0,0,0,0,0,0,0,-1,1091,1121,0,0
-126,-97,0,0,0,0,0,0,0,0,0,-1,1098,1121,0,0
-119,-97,0,0,0,0,0,0,0,0,0,-1,1105,1121,0,0
-112,-97,0,0,0,0,0,0,0,0,0,-1,1112,1121,0,0
-105,-97,0,0,0,0,0,0,0,0,0,-1,1119,1121,0,0
-98,-97,0,0,0,0,0,0,0,0,0,-1,1126,1121,0,0
-91,-97,0,0,0,0,0,0,0,0,0,-1,1133,1121,0,0
-84,-97,0,0,0,0,0,0,0,0,0,-1,1140,1121,0,0
-77,-97,0,0,0,0,0,0,0,0,0,-1,1147,1121,0,0
-70,-97,0,0,0,0,0,0,0,0,0,-1,1154,1121,0,0
-63,-97,0,0,0,0,0,0,0,0,0,-1,1161,1121,0,0
-56,-97,0,0,0,0,0,0,0,0,0,-1,1168,1121,0,0
-49,-97,0,0,0,0,0,0,0,0,0,-1,1175,1121,0,0
-42,-97,0,0,0,0,0,0,0,0,0,-1,1182,1121,0,0
-35,-97,0,0,0,0,0,0,0,0,0,-1,1189,1121,0,0
-28,-97,0,0,0,0,0,0,0,0,0,-1,1196,1121,0,0
-21,-97,0,0,0,0,0,0,0,0,0,-1,1203,1121,0,0
-14,-97,0,0,0,0,0,0,0,0,0,-1,1210,1121,0,0
-7,-97,0,0,0,0,0,0,0,0,0,-1,1217,1121,0,0
0,-97,0,0,0,0,0,0,0,0,0,-1,1224,1121,0,0
7,-97,0,0,0,0,0,0,0,0,0,-1,1231,1121,0,0
14,-97,0,0,0,0,0,0,0,0,0,-1,1238,1121,0,0
21,-97,0,0,0,0,0,0,0,0,0,-1,1245,1121,0,0
28,-97,0,0,0,0,0,0,0,0,0,-1,1252,1121,0,0
35,-97,0,0,0,0,0,0,0,0,0,-1,1259,1121,0,0
42,-97,0,0,0,0,0,0,0,0,0,-1,1266,1121,0,0
49,-97,0,0,0,0,0,0,0,0,0,-1,1273,1121,0,0
56,-97,0,0,0,0,0,0,0,0,0,-1,1280,1121,0,0
63,-97,0,0,0,0,0,0,0,0,0,-1,1287,1121,0,0
70,-97,0,0,0,0,0,0,0,0,0,-1,1294,1121,0,0
77,-97,0,0,0,0,0,0,0,0,0,-1,1301,1121,0,0
84,-97,0,0,0,0,0,0,0,0,0,-1,1308,1121,0,0
91,-97,0,0,0,0,0,0,0,0,0,-1,1315,1121,0,0
98,-97,0,0,0,0,0,0,0,0,0,-1,1322,1121,0,0
105,-97,0,0,0,0,0,0,0,0,0,-1,1329,1121,0,0
112,-97,0,0,0,0,0,0,0,0,0,-1,1336,1121,0,0
119,-97,0,0,0,0,0,0,0,0,0,-1,1343,1121,0,0
126,-97,0,0,0,0,0,0,0,0,0,-1,1350,1121,0,0
133,-97,0,0,0,0,0,0,0,0,0,-1,1357,1121,0,0
140,-97,0,0,0,0,0,0,0,0,0,-1,1364,1121,0,0
147,-97,0,0,0,0,0,0,0,0,0,-1,1371,1121,0,0
154,-97,0,0,0,0,0,0,0,0,0,-1,1378,1121,0,0
161,-97,0,0,0,0,0,0,0,0,0,-1,1385,1121,0,0
168,-97,0,0,0,0,0,0,0,0,0,-1,1392,1121,0,0
175,-97,0,0,0,0,0,0,0,0,0,-1,1399,1121,0,0
182,-97,0,0,0,0,0,0,0,0,0,-1,1406,1121,0,0
189,-97,0,0,0,0,0,0,0,0,0,-1,1413,1121,0,0
196,-97,0,0,0,0,0,0,0,0,0,-1,1420,1121,0,0
203,-97,0,0,0,0,0,0,0,0,0,-1,1427,1121,0,0
210,-97,0,0,0,0,0,0,0,0,0,-1,1434,1121,0,0
217,-97,0,0,0,0,0,0,0,0,0,-1,1441,1121,0,0
224,-97,0,0,0,0,0,0,0,0,0,-1,1448,1121,0,0
231,-97,0,0,0,0,0,0,0,0,0,-1,1455,1121,0,0
238,-97,0,0,0,0,0,0,0,0,0,-1,1462,1121,0,0
245,-97,0,0,0,0,0,0,0,0,0,-1,1469,1121,0,0
252,-97,0,0,0,0,0,0,0,0,0,-1,1476,1121,0,0
259,-97,0,0,0,0,0,0,0,0,0,-1,1483,1121,0,0
266,-97,0,0,0,0,0,0,0,0,0,-1,1490,1121,0,0
273,-97,0,0,0,0,0,0,0,0,0,-1,1497,1121,0,0
280,-97,0,0,0,0,0,0,0,0,0,-1,1504,1121,0,0
287,-97,0,0,0,0,0,0,0,0,0,-1,1511,1121,0,0
294,-97,0,0,0,0,0,0,0,0,0,-1,1518,1121,0,0
301,-97,0,0,0,0,0,0,0,0,0,-1,1525,1121,0,0
308,-97,0,0,0,0,0,0,0,0,0,-1,1532,1121,0,0
315,-97,0,0,0,0,0,0,0,0,0,-1,1539,1121,0,0
322,-97,0,0,0,0,0,0,0,0,0,-1,1546,1121,0,0
329,-97,0,0,0,0,0,0,0,0,0,-1,1553,1121,0,0
336,-97,0,0,0,0,0,0,0,0,0,-1,1560,1121,0,0
343,-97,0,0,0,0,0,0,0,0,0,-1,1567,1121,0,0
350,-97,0,0,0,0,0,0,0,0,0,-1,1574,1121,0,0
357,-97,0,0,0,0,0,0,0,0,0,-1,1581,1121,0,0
364,-97,0,0,0,0,0,0,0,0,0,-1,1588,1121,0,0
371,-97,0,0,0,0,0,0,0,0,0,-1,1595,1121,0,0
378,-97,0,0,0,0,0,0,0,0,0,-1,1602,1121,0,0
385,-97,0,0,0,0,0,0,0,0,0,-1,1609,1121,0,0
392,-97,0,0,0,0,0,0,0,0,0,-1,1616,1121,0,0
399,-97,0,0,0,0,0,0,0,0,0,-1,1623,1121,0,0
406,-97,0,0,0,0,0,0,0,0,0,-1,1630,1121,0,0
413,-97,0,0,0,0,0,0,0,0,0,-1,1637,1121,0,0
420,-97,0,0,0,0,0,0,0,0,0,-1,1644,1121,0,0
427,-97,0,0,0,0,0,0,0,0,0,-1,1651,1121,0,0
434,-97,0,0,0,0,0,0,0,0,0,-1,1658,1121,0,0
441,-97,0,0,0,0,0,0,0,0,0,-1,1665,1121,0,0
448,-97,0,0,0,0,0,0,0,0,0,-1,1672,1121,0,0
455,-97,0,0,0,0,0,0,0,0,0,-1,1679,1121,0,0
462,-97,0,0,0,0,0,0,0,0,0,-1,1686,1121,0,0
469,-97,0,0,0,0,0,0,0,0,0,-1,1693,1121,0,0
476,-97,0,0,0,0,0,0,0,0,0,-1,1700,1121,0,0
483,-97,0,0,0,0,0,0,0,0,0,-1,1707,1121,0,0
490,-97,0,0,0,0,0,0,0,0,0,-1,1714,1121,0,0
497,-97,0,0,0,0,0,0,0,0,0,-1,1721,1121,0,0
504,-97,0,0,0,0,0,0,0,0,0,-1,1728,1121,0,0
511,-97,0,0,0,0,0,0,0,0,0,-1,1735,1121,0,0
518,-97,0,0,0,0,0,0,0,0,0,-1,1742,1121,0,0
525,-97,0,0,0,0,0,0,0,0,0,-1,1749,1121,0,0
532,-97,0,0,0,0,0,0,0,0,0,-1,1756,1121,0,0
539,-97,0,0,0,0,0,0,0,0,0,-1,1763,1121,0,0
546,-97,0,0,0,0,0,0,0,0,0,-1,1770,1121,0,0
553,-97,0,0,0,0,0,0,0,0,0,-1,1777,1121,0,0
560,-97,0,0,0,0,0,0,0,0,0,-1,1784,1121,0,0
567,-97,0,0,0,0,0,0,0,0,0,-1,1791,1121,0,0
574,-97,0,0,0,0,0,0,0,0,0,-1,1798,1121,0,0
581,-97,0,0,0,0,0,0,0,0,0,-1,1805,1121,0,0
588,-97,0,0,0,0,0,0,0,0,0,-1,1812,1121,0,0
595,-97,0,0,0,0,0,0,0,0,0,-1,1819,1121,0,0
602,-97,0,0,0,0,0,0,0,0,0,-1,1826,1121,0,0
609,-97,0,0,0,0,0,0,0,0,0,-1,1833,1121,0,0
616,-97,0,0,0,0,0,0,0,0,0,-1,1840,1121,0,0
623,-97,0,0,0,0,0,0,0,0,0,-1,1847,1121,0,0
630,-97,0,0,0,0,0,0,0,0,0,-1,1854,1121,0,0
637,-97,0,0,0,0,0,0,0,0,0,-1,1861,1121,0,0
644,-97,79.9602,2.3623,0.00259718,-0.00287658,-0.00205868,0.00328502,-0.00356442,-0.322454,0.00395562,0.0389072,1868,1121,79.9602,-2.36235
651,-97,79.9934,2.2251,0.00149239,-0.002174,-0.000831124,0.001672,-0.0023536,-0.212828,0.00233526,0.0377244,1875,1121,79.9935,-2.22512
658,-97,79.9413,2.02686,0.00095632,-0.0016817,-7.08826e-05,0.000958223,-0.0016836,-0.0268438,0.0015443,0.0387087,1882,1121,79.9413,-2.02683
665,-97,79.9648,2.0437,0.000610141,-0.00124506,0.000310102,0.000660602,-0.00129552,0.161313,0.00114903,0.042712,1889,1121,79.9649,-2.04368
672,-97,80,2.26013,0.000403552,-0.000828613,0.000429758,0.000538635,-0.000963696,0.304545,0.000878868,0.0433523,1896,1121,80,-2.26014
679,-97,80.0262,2.34424,0.000365207,-0.000653668,0.00045282,0.000537366,-0.000825827,0.363314,0.000792891,0.0402639,1903,1121,80.0263,-2.34423
686,-97,80.0089,2.36877,0.000389224,-0.000652101,0.000266338,0.000453391,-0.000716268,0.236417,0.000680964,0.0348408,1910,1121,80.0089,-2.36872
693,-97,79.9617,2.19446,0.000369166,-0.000800253,0.000306402,0.000444583,-0.00087567,0.241341,0.000775675,0.0331195,1917,1121,79.9616,-2.19441
700,-97,79.9393,2.12927,0.000443954,-0.000839433,0.000392724,0.000554591,-0.000950071,0.274602,0.000878663,0.0265338,1924,1121,79.9393,-2.12926
707,-97,79.9761,2.10242,0.00028328,-0.000665849,0.000727716,0.000677498,-0.00106007,0.496463,0.00101126,0.0254577,1931,1121,79.9761,-2.10242
714,-97,80.0245,1.98767,0,0,0,0,0,0,0,-1,1938,1121,80.0246,-1.98772
721,-97,74.6165,9.74744,0,0,0,0,0,0,0,-1,1945,1121,74.6165,-9.74739
728,-97,74.5605,9.44861,-0.00134545,0.000671355,0.00103539,0.00110826,-0.00178235,1.1715,0.00168395,0.0459385,1952,1121,74.5606,-9.44864
735,-97,74.4822,8.82532,-0.00185268,0.00130063,0.00124013,0.0017299,-0.00228195,1.23755,0.00232355,0.0326221,1959,1121,74.4821,-8.82537
742,-97,74.413,8.23889,-0.00216083,0.00206177,0.00172338,0.00267584,-0.0027749,1.22851,0.00314716,0.0281864,1966,1121,74.413,-8.23884
749,-97,74.5287,7.57996,-0.00305072,0.00308441,0.00224143,0.00381605,-0.00378236,1.25528,0.00438696,0.0268203,1973,1121,74.5287,-7.57993
756,-97,74.521,6.97791,-0.00455954,0.00435717,0.00243762,0.00498005,-0.00518241,1.32062,0.00586769,0.0183092,1980,1121,74.5211,-6.97795
763,-97,74.3928,6.42932,-0.00575248,0.00620544,0.0028025,0.00682966,-0.0063767,1.35164,0.00762619,0.0142999,1987,1121,74.3927,-6.42933
770,-97,74.3015,5.86682,-0.00730178,0.00794656,0.0029768,0.00850709,-0.00786231,1.38468,0.00945332,0.0141877,1994,1121,74.3015,-5.86679
777,-97,74.2268,5.26953,-0.00895016,0.00923825,0.00310783,0.00975463,-0.00946653,1.40615,0.0110978,0.0201474,2001,1121,74.2269,-5.26951
784,-97,74.0696,4.5658,-0.0106869,0.00986967,0.00324347,0.0103693,-0.0111865,1.41796,0.0124482,0.0414109,2008,1121,74.0697,-4.56585
791,-97,74.3904,3.62073,-0.0126546,0.00947715,0.00328775,0.00995523,-0.0131327,1.4264,0.0133719,0.0427877,2015,1121,74.3904,-3.62076
798,-97,74.9189,3.68762,-0.0148743,0.00739323,0.00346209,0.00791909,-0.0154002,1.42006,0.0136924,0.0411659,2022,1121,74.9189,-3.68764
805,-97,72.4255,2.61121,-0.0169684,0.00349718,0.00354304,0.00409321,-0.0175644,1.40413,0.0132859,0.047278,2029,1121,72.4255,-2.61125
812,-97,72.1426,1.68274,0,0,0,0,0,0,0,-1,2036,1121,72.1425,-1.6827
-700,-104,0,0,0,0,0,0,0,0,0,-1,524,1128,0,0
-693,-104,-58.7533,-1.5448,0,0,0,0,0,0,0,-1,531,1128,-58.7533,1.5448
-686,-104,-58.2902,0.285889,0,0,0,0,0,0,0,-1,538,1128,-58.2902,-0.285927
-679,-104,-56.7634,2.39478,0.0108157,-0.0359519,0.027616,0.0236182,-0.0487543,0.434097,0.0426161,0.0487033,545,1128,-56.7634,-2.39483
-672,-104,-58.3492,2.5387,0.00926476,-0.0291295,0.0235584,0.0204573,-0.040322,0.443526,0.0357102,0.045933,552,1128,-58.3491,-2.53865
-665,-104,-58.0828,3.91772,0,0,0,0,0,0,0,-1,559,1128,-58.0828,-3.91777
-658,-104,-58.1737,3.20276,0.00433666,-0.016352,0.0149168,0.0121449,-0.0241602,0.482234,0.02134,0.0499915,566,1128,-58.1737,-3.20278
-651,-104,-57.7491,3.86157,0.00175269,-0.0108634,0.0107546,0.00791271,-0.0170234,0.520165,0.0147137,0.049376,573,1128,-57.7491,-3.86152
-644,-104,-57.553,4.49377,-0.000591556,-0.00634965,0.00689507,0.0040014,-0.0109426,0.587626,0.00893278,0.0194853,580,1128,-57.553,-4.49381
-637,-104,-57.6219,5.1875,-0.0027487,-0.00287165,0.00359027,0.000780623,-0.00640097,0.776837,0.0045499,0.0149509,587,1128,-57.6219,-5.18747
-630,-104,-57.6461,5.74121,-0.00521463,0.000383404,9.33059e-05,0.000384959,-0.00521618,1.55413,0.00361262,0.0205384,594,1128,-57.6461,-5.74117
-623,-104,-57.7875,6.41504,-0.00584737,0.00151582,-0.00224345,0.00214551,-0.00647706,-1.29716,0.0051834,0.0229685,601,1128,-57.7875,-6.41502
-616,-104,-58.1493,7.17688,-0.00587763,0.00168446,-0.002763,0.00258641,-0.00677959,-1.25526,0.00558518,0.0322408,608,1128,-58.1493,-7.17687
-609,-104,-58.3008,7.7583,-0.004709,0.00142461,-0.00208982,0.00206896,-0.00535334,-1.27172,0.00442291,0.042485,615,1128,-58.3008,-7.75827
-602,-104,-58.244,8.34167,0,0,0,0,0,0,0,-1,622,1128,-58.244,-8.34164
-595,-104,-57.9191,9.18555,0,0,0,0,0,0,0,-1,629,1128,-57.919,-9.1856
-588,-104,-58.1415,9.95251,0,0,0,0,0,0,0,-1,636,1128,-58.1415,-9.95256
-581,-104,-23.9373,2.85864,0,0,0,0,0,0,0,-1,643,1128,-23.9373,-2.85861
-574,-104,-63.1204,0.447876,0,0,0,0,0,0,0,-1,650,1128,-63.1204,-0.447932
-567,-104,-63.1216,0.497437,0.000306901,-0.000919537,-0.000205208,0.000340325,-0.000952962,-0.161463,0.000774101,0.0341772,657,1128,-63.1217,-0.497455
-560,-104,-63.2217,0.434814,0.00165371,-0.000905778,0.000181441,0.00166651,-0.000918576,0.0704202,0.00151318,0.039661,664,1128,-63.2218,-0.434858
-553,-104,-63.0229,0.322266,0.00129282,-0.000681137,0.000113136,0.00129928,-0.0006876,0.0570651,0.00116511,0.0468271,671,1128,-63.023,-0.322241
-546,-104,-63.0887,0.336548,-0.000802014,-0.000245415,-0.000427224,-1.38407e-05,-0.00103359,-1.07408,0.000684492,0.0434474,678,1128,-63.0887,-0.336487
-539,-104,-63.2063,0.234131,-0.00317605,-0.000347842,-0.0011204,4.22115e-05,-0.00356611,-1.23578,0.0023916,0.039044,685,1128,-63.2063,-0.234084
-532,-104,-63.0867,0.126953,-0.00545549,-0.000533108,-0.00170236,-1.72481e-06,-0.00598687,-1.26824,0.00399067,0.0425346,692,1128,-63.0867,-0.127012
-525,-104,-63.1244,0.302246,-0.00758554,-0.000628362,-0.00207293,-5.75529e-05,-0.00815635,-1.30209,0.00541849,0.0405481,699,1128,-63.1244,-0.302256
-518,-104,0,0,0,0,0,0,0,0,0,-1,706,1128,0,0
-511,-104,0,0,0,0,0,0,0,0,0,-1,713,1128,0,0
-504,-104,0,0,0,0,0,0,0,0,0,-1,720,1128,0,0
-497,-104,0,0,0,0,0,0,0,0,0,-1,727,1128,0,0
-490,-104,0,0,0,0,0,0,0,0,0,-1,734,1128,0,0
-483,-104,0,0,0,0,0,0,0,0,0,-1,741,1128,0,0
-476,-104,0,0,0,0,0,0,0,0,0,-1,748,1128,0,0
-469,-104,0,0,0,0,0,0,0,0,0,-1,755,1128,0,0
-462,-104,0,0,0,0,0,0,0,0,0,-1,762,1128,0,0
-455,-104,0,0,0,0,0,0,0,0,0,-1,769,1128,0,0
-448,-104,0,0,0,0,0,0,0,0,0,-1,776,1128,0,0
-441,-104,0,0,0,0,0,0,0,0,0,-1,783,1128,0,0
-434,-104,0,0,0,0,0,0,0,0,0,-1,790,1128,0,0
-427,-104,0,0,0,0,0,0,0,0,0,-1,797,1128,0,0
-420,-104,0,0,0,0,0,0,0,0,0,-1,804,1128,0,0
-413,-104,0,0,0,0,0,0,0,0,0,-1,811,1128,0,0
-406,-104,0,0,0,0,0,0,0,0,0,-1,818,1128,0,0
-399,-104,0,0,0,0,0,0,0,0,0,-1,825,1128,0,0
-392,-104,0,0,0,0,0,0,0,0,0,-1,832,1128,0,0
-385,-104,0,0,0,0,0,0,0,0,0,-1,839,1128,0,0
-378,-104,0,0,0,0,0,0,0,0,0,-1,846,1128,0,0
-371,-104,0,0,0,0,0,0,0,0,0,-1,853,1128,0,0
-364,-104,0,0,0,0,0,0,0,0,0,-1,860,1128,0,0
-357,-104,0,0,0,0,0,0,0,0,0,-1,867,1128,0,0
-350,-104,0,0,0,0,0,0,0,0,0,-1,874,1128,0,0
-343,-104,0,0,0,0,0,0,0,0,0,-1,881,1128,0,0
-336,-104,0,0,0,0,0,0,0,0,0,-1,888,1128,0,0
-329,-104,0,0,0,0,0,0,0,0,0,-1,895,1128,0,0
-322,-104,0,0,0,0,0,0,0,0,0,-1,902,1128,0,0
-315,-104,0,0,0,0,0,0,0,0,0,-1,909,1128,0,0
-308,-104,0,0,0,0,0,0,0,0,0,-1,916,1128,0,0
-301,-104,0,0,0,0,0,0,0,0,0,-1,923,1128,0,0
-294,-104,0,0,0,0,0,0,0,0,0,-1,930,1128,0,0
-287,-104,0,0,0,0,0,0,0,0,0,-1,937,1128,0,0
-280,-104,0,0,0,0,0,0,0,0,0,-1,944,1128,0,0
-273,-104,0,0,0,0,0,0,0,0,0,-1,951,1128,0,0
-266,-104,0,0,0,0,0,0,0,0,0,-1,958,1128,0,0
-259,-104,0,0,0,0,0,0,0,0,0,-1,965,1128,0,0
-252,-104,0,0,0,0,0,0,0,0,0,-1,972,1128,0,0
-245,-104,0,0,0,0,0,0,0,0,0,-1,979,1128,0,0
-238,-104,0,0,0,0,0,0,0,0,0,-1,986,1128,0,0
-231,-104,0,0,0,0,0,0,0,0,0,-1,993,1128,0,0
-224,-104,0,0,0,0,0,0,0,0,0,-1,1000,1128,0,0
-217,-104,0,0,0,0,0,0,0,0,0,-1,1007,1128,0,0
-210,-104,0,0,0,0,0,0,0,0,0,-1,1014,1128,0,0
-203,-104,0,0,0,0,0,0,0,0,0,-1,1021,1128,0,0
-196,-104,0,0,0,0,0,0,0,0,0,-1,1028,1128,0,0
-189,-104,0,0,0,0,0,0,0,0,0,-1,1035,1128,0,0
-182,-104,0,0,0,0,0,0,0,0,0,-1,1042,1128,0,0
-175,-104,0,0,0,0,0,0,0,0,0,-1,1049,1128,0,0
-168,-104,0,0,0,0,0,0,0,0,0,-1,1056,1128,0,0
-161,-104,0,0,0,0,0,0,0,0,0,-1,1063,1128,0,0
-154,-104,0,0,0,0,0,0,0,0,0,-1,1070,1128,0,0
-147,-104,0,0,0,0,0,0,0,0,0,-1,1077,1128,0,0
-140,-104,0,0,0,0,0,0,0,0,0,-1,1084,1128,0,0
-133,-104,0,0,0,0,0,0,0,0,0,-1,1091,1128,0,0
-126,-104,0,0,0,0,0,0,0,0,0,-1,1098,1128,0,0
-119,-104,0,0,0,0,0,0,0,0,0,-1,1105,1128,0,0
-112,-104,0,0,0,0,0,0,0,0,0,-1,1112,1128,0,0
-105,-104,0,0,0,0,0,0,0,0,0,-1,1119,1128,0,0
-98,-104,0,0,0,0,0,0,0,0,0,-1,1126,1128,0,0
-91,-104,0,0,0,0,0,0,0,0,0,-1,1133,1128,0,0
-84,-104,0,0,0,0,0,0,0,0,0,-1,1140,1128,0,0
-77,-104,0,0,0,0,0,0,0,0,0,-1,1147,1128,0,0
-70,-104,0,0,0,0,0,0,0,0,0,-1,1154,1128,0,0
-63,-104,0,0,0,0,0,0,0,0,0,-1,1161,1128,0,0
-56,-104,0,0,0,0,0,0,0,0,0,-1,1168,1128,0,0
-49,-104,0,0,0,0,0,0,0,0,0,-1,1175,1128,0,0
-42,-104,0,0,0,0,0,0,0,0,0,-1,1182,1128,0,0
-35,-104,0,0,0,0,0,0,0,0,0,-1,1189,1128,0,0
-28,-104,0,0,0,0,0,0,0,0,0,-1,1196,1128,0,0
-21,-104,0,0,0,0,0,0,0,0,0,-1,1203,1128,0,0
-14,-104,0,0,0,0,0,0,0,0,0,-1,1210,1128,0,0
-7,-104,0,0,0,0,0,0,0,0,0,-1,1217,1128,0,0
0,-104,0,0,0,0,0,0,0,0,0,-1,1224,1128,0,0
7,-104,0,0,0,0,0,0,0,0,0,-1,1231,1128,0,0
14,-104,0,0,0,0,0,0,0,0,0,-1,1238,1128,0,0
21,-104,0,0,0,0,0,0,0,0,0,-1,1245,1128,0,0
28,-104,0,0,0,0,0,0,0,0,0,-1,1252,1128,0,0
35,-104,0,0,0,0,0,0,0,0,0,-1,1259,1128,0,0
42,-104,0,0,0,0,0,0,0,0,0,-1,1266,1128,0,0
49,-104,0,0,0,0,0,0,0,0,0,-1,1273,1128,0,0
56,-104,0,0,0,0,0,0,0,0,0,-1,1280,1128,0,0
63,-104,0,0,0,0,0,0,0,0,0,-1,1287,1128,0,0
70,-104,0,0,0,0,0,0,0,0,0,-1,1294,1128,0,0
77,-104,0,0,0,0,0,0,0,0,0,-1,1301,1128,0,0
84,-104,0,0,0,0,0,0,0,0,0,-1,1308,1128,0,0
91,-104,0,0,0,0,0,0,0,0,0,-1,1315,1128,0,0
98,-104,0,0,0,0,0,0,0,0,0,-1,1322,1128,0,0
105,-104,0,0,0,0,0,0,0,0,0,-1,1329,1128,0,0
112,-104,0,0,0,0,0,0,0,0,0,-1,1336,1128,0,0
119,-104,0,0,0,0,0,0,0,0,0,-1,1343,1128,0,0
126,-104,0,0,0,0,0,0,0,0,0,-1,1350,1128,0,0
133,-104,0,0,0,0,0,0,0,0,0,-1,1357,1128,0,0
140,-104,0,0,0,0,0,0,0,0,0,-1,1364,1128,0,0
147,-104,0,0,0,0,0,0,0,0,0,-1,1371,1128,0,0
154,-104,0,0,0,0,0,0,0,0,0,-1,1378,1128,0,0
161,-104,0,0,0,0,0,0,0,0,0,-1,1385,1128,0,0
168,-104,0,0,0,0,0,0,0,0,0,-1,1392,1128,0,0
175,-104,0,0,0,0,0,0,0,0,0,-1,1399,1128,0,0
182,-104,0,0,0,0,0,0,0,0,0,-1,1406,1128,0,0
189,-104,0,0,0,0,0,0,0,0,0,-1,1413,1128,0,0
196,-104,0,0,0,0,0,0,0,0,0,-1,1420,1128,0,0
203,-104,0,0,0,0,0,0,0,0,0,-1,1427,1128,0,0
210,-104,0,0,0,0,0,0,0,0,0,-1,1434,1128,0,0
217,-104,0,0,0,0,0,0,0,0,0,-1,1441,1128,0,0
224,-104,0,0,0,0,0,0,0,0,0,-1,1448,1128,0,0
231,-104,0,0,0,0,0,0,0,0,0,-1,1455,1128,0,0
238,-104,0,0,0,0,0,0,0,0,0,-1,1462,1128,0,0
245,-104,0,0,0,0,0,0,0,0,0,-1,1469,1128,0,0
252,-104,0,0,0,0,0,0,0,0,0,-1,1476,1128,0,0
259,-104,0,0,0,0,0,0,0,0,0,-1,1483,1128,0,0
266,-104,0,0,0,0,0,0,0,0,0,-1,1490,1128,0,0
273,-104,0,0,0,0,0,0,0,0,0,-1,1497,1128,0,0
280,-104,0,0,0,0,0,0,0,0,0,-1,1504,1128,0,0
287,-104,0,0,0,0,0,0,0,0,0,-1,1511,1128,0,0
294,-104,0,0,0,0,0,0,0,0,0,-1,1518,1128,0,0
301,-104,0,0,0,0,0,0,0,0,0,-1,1525,1128,0,0
308,-104,0,0,0,0,0,0,0,0,0,-1,1532,1128,0,0
315,-104,0,0,0,0,0,0,0,0,0,-1,1539,1128,0,0
322,-104,0,0,0,0,0,0,0,0,0,-1,1546,1128,0,0
329,-104,0,0,0,0,0,0,0,0,0,-1,1553,1128,0,0
336,-104,0,0,0,0,0,0,0,0,0,-1,1560,1128,0,0
343,-104,0,0,0,0,0,0,0,0,0,-1,1567,1128,0,0
350,-104,0,0,0,0,0,0,0,0,0,-1,1574,1128,0,0
357,-104,0,0,0,0,0,0,0,0,0,-1,1581,1128,0,0
364,-104,0,0,0,0,0,0,0,0,0,-1,1588,1128,0,0
371,-104,0,0,0,0,0,0,0,0,0,-1,1595,1128,0,0
378,-104,0,0,0,0,0,0,0,0,0,-1,1602,1128,0,0
385,-104,0,0,0,0,0,0,0,0,0,-1,1609,1128,0,0
392,-104,0,0,0,0,0,0,0,0,0,-1,1616,1128,0,0
399,-104,0,0,0,0,0,0,0,0,0,-1,1623,1128,0,0
406,-104,0,0,0,0,0,0,0,0,0,-1,1630,1128,0,0
413,-104,0,0,0,0,0,0,0,0,0,-1,1637,1128,0,0
420,-104,0,0,0,0,0,0,0,0,0,-1,1644,1128,0,0
427,-104,0,0,0,0,0,0,0,0,0,-1,1651,1128,0,0
434,-104,0,0,0,0,0,0,0,0,0,-1,1658,1128,0,0
441,-104,0,0,0,0,0,0,0,0,0,-1,1665,1128,0,0
448,-104,0,0,0,0,0,0,0,0,0,-1,1672,1128,0,0
455,-104,0,0,0,0,0,0,0,0,0,-1,1679,1128,0,0
462,-104,0,0,0,0,0,0,0,0,0,-1,1686,1128,0,0
469,-104,0,0,0,0,0,0,0,0,0,-1,1693,1128,0,0
476,-104,0,0,0,0,0,0,0,0,0,-1,1700,1128,0,0
483,-104,0,0,0,0,0,0,0,0,0,-1,1707,1128,0,0
490,-104,0,0,0,0,0,0,0,0,0,-1,1714,1128,0,0
497,-104,0,0,0,0,0,0,0,0,0,-1,1721,1128,0,0
504,-104,0,0,0,0,0,0,0,0,0,-1,1728,1128,0,0
511,-104,0,0,0,0,0,0,0,0,0,-1,1735,1128,0,0
518,-104,0,0,0,0,0,0,0,0,0,-1,1742,1128,0,0
525,-104,0,0,0,0,0,0,0,0,0,-1,1749,1128,0,0
532,-104,0,0,0,0,0,0,0,0,0,-1,1756,1128,0,0
539,-104,0,0,0,0,0,0,0,0,0,-1,1763,1128,0,0
546,-104,0,0,0,0,0,0,0,0,0,-1,1770,1128,0,0
553,-104,0,0,0,0,0,0,0,0,0,-1,1777,1128,0,0
560,-104,0,0,0,0,0,0,0,0,0,-1,1784,1128,0,0
567,-104,0,0,0,0,0,0,0,0,0,-1,1791,1128,0,0
574,-104,0,0,0,0,0,0,0,0,0,-1,1798,1128,0,0
581,-104,0,0,0,0,0,0,0,0,0,-1,1805,1128,0,0
588,-104,0,0,0,0,0,0,0,0,0,-1,1812,1128,0,0
595,-104,0,0,0,0,0,0,0,0,0,-1,1819,1128,0,0
602,-104,0,0,0,0,0,0,0,0,0,-1,1826,1128,0,0
609,-104,0,0,0,0,0,0,0,0,0,-1,1833,1128,0,0
616,-104,0,0,0,0,0,0,0,0,0,-1,1840,1128,0,0
623,-104,0,0,0,0,0,0,0,0,0,-1,1847,1128,0,0
630,-104,0,0,0,0,0,0,0,0,0,-1,1854,1128,0,0
637,-104,0,0,0,0,0,0,0,0,0,-1,1861,1128,0,0
644,-104,79.9463,2.41028,0.00186892,-0.00307087,-0.00160874,0.00234664,-0.00354858,-0.288657,0.00342711,0.037835,1868,1128,79.9462,-2.41026
651,-104,79.9291,2.41687,0.000908478,-0.00225087,-0.000713925,0.00106231,-0.00240471,-0.212235,0.00205109,0.03854,1875,1128,79.9291,-2.41688
658,-104,79.8978,2.13281,0.000492034,-0.00167372,-0.000141962,0.0005013,-0.00168298,-0.0651767,0.00132118,0.0404744,1882,1128,79.8979,-2.13278
665,-104,79.8623,2.08264,0.000258906,-0.00117963,0.000148491,0.000274074,-0.00119479,0.101794,0.000901877,0.0440521,1889,1128,79.8623,-2.08269
672,-104,79.901,2.25598,0.000175365,-0.000735108,0.000227135,0.000228882,-0.000788625,0.231399,0.000616376,0.0431288,1896,1128,79.901,-2.25599
679,-104,79.9792,2.30933,0.000264904,-0.000605331,0.000267,0.000340293,-0.000680719,0.27519,0.000600304,0.0404349,1903,1128,79.9793,-2.30928
686,-104,79.9846,2.26477,0.000418237,-0.000633058,0.000126031,0.000433135,-0.000647956,0.117661,0.000628262,0.0390021,1910,1128,79.9846,-2.2648
693,-104,79.9888,2.15503,0.000427309,-0.000764046,0.000215624,0.000465134,-0.000801871,0.173654,0.000740067,0.0354563,1917,1128,79.9888,-2.15499
700,-104,79.9783,2.1095,0.000511094,-0.000825969,0.000343695,0.000594268,-0.000909142,0.237433,0.000874317,0.0242736,1924,1128,79.9783,-2.10954
707,-104,79.9893,2.21777,0,0,0,0,0,0,0,-1,1931,1128,79.9893,-2.21774
714,-104,45.5221,2.32166,0,0,0,0,0,0,0,-1,1938,1128,45.5221,-2.3216
721,-104,73.8613,10.292,0,0,0,0,0,0,0,-1,1945,1128,73.8613,-10.292
728,-104,73.9095,9.50879,0,0,0,0,0,0,0,-1,1952,1128,73.9095,-9.50882
735,-104,74.1863,8.61963,0,0,0,0,0,0,0,-1,1959,1128,74.1863,-8.61959
742,-104,73.8987,8.2771,-0.00178913,0.00166962,0.00177377,0.00241754,-0.00253705,1.17176,0.00286081,0.0269487,1966,1128,73.8987,-8.27708
749,-104,73.8132,7.6604,-0.0026928,0.00261617,0.00228901,0.0034668,-0.00354344,1.215,0.00404745,0.0241621,1973,1128,73.8132,-7.66044
756,-104,73.791,7.02161,-0.00435748,0.0038028,0.00248998,0.00450258,-0.00505725,1.29683,0.00552246,0.0183304,1980,1128,73.791,-7.02161
763,-104,73.6831,6.42749,-0.00599332,0.00541415,0.00280136,0.00606496,-0.00664412,1.34253,0.00734013,0.0192877,1987,1128,73.6831,-6.42748
770,-104,73.5852,5.84448,-0.0081552,0.00674751,0.00294005,0.00730656,-0.00871425,1.38289,0.00926151,0.0179973,1994,1128,73.5852,-5.84446
777,-104,73.4802,5.16064,-0.0106305,0.00749996,0.00302025,0.00798985,-0.0111204,1.41,0.0110826,0.0280895,2001,1128,73.4801,-5.16066
784,-104,73.3503,4.48962,-0.013517,0.00741725,0.0030722,0.00785879,-0.0139585,1.42805,0.0127593,0.0457301,2008,1128,73.3503,-4.48958
791,-104,73.1982,3.91296,-0.0171257,0.00608258,0.00291706,0.00644361,-0.0174868,1.44766,0.0142982,0.047395,2015,1128,73.1982,-3.91298
798,-104,72.7529,3.55676,-0.021835,0.00260086,0.00276901,0.00291071,-0.0221448,1.45936,0.015823,0.0499019,2022,1128,72.7529,-3.5567
805,-104,72.395,3.03723,-0.0274693,-0.00328733,0.00230434,-0.0030697,-0.0276869,1.47663,0.0175246,0.0482789,2029,1128,72.3951,-3.03729
812,-104,72.0347,2.20032,0,0,0,0,0,0,0,-1,2036,1128,72.0346,-2.2003
-700,-111,0,0,0,0,0,0,0,0,0,-1,524,1135,0,0
-693,-111,-59.6761,-0.865112,0,0,0,0,0,0,0,-1,531,1135,-59.6761,0.865069
-686,-111,-58.9701,0.800293,0.025938,-0.0506085,0.0340821,0.0389135,-0.063584,0.363769,0.0597456,0.0483571,538,1135,-58.9701,-0.800343
-679,-111,-58.5483,2.12427,0.0228604,-0.0438176,0.0294397,0.0339982,-0.0549554,0.361683,0.0518303,0.0473046,545,1135,-58.5483,-2.12422
-672,-111,-58.3402,3.33179,0.0190341,-0.0361565,0.0244142,0.0282838,-0.0454062,0.362155,0.0429261,0.0460165,552,1135,-58.3402,-3.3318
-665,-111,-58.1647,4.56116,0,0,0,0,0,0,0,-1,559,1135,-58.1647,-4.56112
-658,-111,-57.807,3.12939,0,0,0,0,0,0,0,-1,566,1135,-57.807,-3.12937
-651,-111,-56.5991,3.47571,0,0,0,0,0,0,0,-1,573,1135,-56.5991,-3.47571
-644,-111,-56.7397,4.35486,0.00214174,-0.00918564,0.00632279,0.00496658,-0.0120105,0.420165,0.010079,0.0302689,580,1135,-56.7397,-4.35491
-637,-111,-56.8963,5.16943,-0.00142939,-0.00463624,0.00285958,0.000245618,-0.00631126,0.52988,0.00429172,0.0147656,587,1135,-56.8963,-5.16947
-630,-111,-56.9552,5.7323,-0.00501852,-0.000464874,-0.000711631,-0.000356253,-0.00512714,-1.41933,0.00330575,0.0309241,594,1135,-56.9552,-5.7323
-623,-111,-56.9963,6.47937,-0.00663408,0.00130123,-0.00299471,0.00230454,-0.0076374,-1.24752,0.00600894,0.0269899,601,1135,-56.9964,-6.47934
-616,-111,-57.3937,7.14111,-0.00707611,0.00147078,-0.00323969,0.00255997,-0.00816531,-1.24646,0.00646799,0.033759,608,1135,-57.3937,-7.14111
-609,-111,-57.6006,7.75366,-0.00592428,0.00144533,-0.00233742,0.00212417,-0.00660311,-1.28815,0.00525523,0.040507,615,1135,-57.6006,-7.75371
-602,-111,-57.5277,8.3186,0,0,0,0,0,0,0,-1,622,1135,-57.5277,-8.31865
-595,-111,-57.1664,9.25317,0,0,0,0,0,0,0,-1,629,1135,-57.1664,-9.25322
-588,-111,-56.8052,10.1877,0,0,0,0,0,0,0,-1,636,1135,-56.8052,-10.1878
-581,-111,-21.0555,3.14551,0,0,0,0,0,0,0,-1,643,1135,-21.0555,-3.14548
-574,-111,-63.0684,0.287109,0,0,0,0,0,0,0,-1,650,1135,-63.0684,-0.287169
-567,-111,-63.1177,0.526245,-0.00077126,-0.000614684,-0.000185332,-0.000491783,-0.000894161,-0.98524,0.000517103,0.0381503,657,1135,-63.1177,-0.526207
-560,-111,-63.1757,0.651245,0.00118818,-0.000691609,0.000419822,0.00127768,-0.000781109,0.210041,0.00120011,0.0382358,664,1135,-63.1757,-0.651197
-553,-111,-63.1016,0.449341,0.00148885,-0.000605996,0.000456871,0.00158415,-0.000701301,0.205654,0.00135192,0.0431872,671,1135,-63.1016,-0.449329
-546,-111,-63.1098,0.454834,-0.000203145,-0.000179142,-0.000301449,0.000110545,-0.000492832,-0.805294,0.000370935,0.0404525,678,1135,-63.1098,-0.454882
-539,-111,-63.1635,0.35083,-0.00205453,-0.000115821,-0.00124966,0.000496371,-0.00266672,-1.11527,0.00196429,0.0378638,685,1135,-63.1635,-0.350772
-532,-111,-63.1102,0.249146,-0.00378243,-0.000104893,-0.0021252,0.000866596,-0.00475392,-1.14203,0.00349415,0.039196,692,1135,-63.1102,-0.249085
-525,-111,-63.2303,0.341309,-0.00534768,5.77173e-05,-0.0027943,0.00124252,-0.00653248,-1.16977,0.00482282,0.0386462,699,1135,-63.2304,-0.341321
-518,-111,0,0,0,0,0,0,0,0,0,-1,706,1135,0,0
-511,-111,0,0,0,0,0,0,0,0,0,-1,713,1135,0,0
-504,-111,0,0,0,0,0,0,0,0,0,-1,720,1135,0,0
-497,-111,0,0,0,0,0,0,0,0,0,-1,727,1135,0,0
-490,-111,0,0,0,0,0,0,0,0,0,-1,734,1135,0,0
-483,-111,0,0,0,0,0,0,0,0,0,-1,741,1135,0,0
-476,-111,0,0,0,0,0,0,0,0,0,-1,748,1135,0,0
-469,-111,0,0,0,0,0,0,0,0,0,-1,755,1135,0,0
-462,-111,0,0,0,0,0,0,0,0,0,-1,762,1135,0,0
-455,-111,0,0,0,0,0,0,0,0,0,-1,769,1135,0,0
-448,-111,0,0,0,0,0,0,0,0,0,-1,776,1135,0,0
-441,-111,0,0,0,0,0,0,0,0,0,-1,783,1135,0,0
-434,-111,0,0,0,0,0,0,0,0,0,-1,790,1135,0,0
-427,-111,0,0,0,0,0,0,0,0,0,-1,797,1135,0,0
-420,-111,0,0,0,0,0,0,0,0,0,-1,804,1135,0,0
-413,-111,0,0,0,0,0,0,0,0,0,-1,811,1135,0,0
-406,-111,0,0,0,0,0,0,0,0,0,-1,818,1135,0,0
-399,-111,0,0,0,0,0,0,0,0,0,-1,825,1135,0,0
-392,-111,0,0,0,0,0,0,0,0,0,-1,832,1135,0,0
-385,-111,0,0,0,0,0,0,0,0,0,-1,839,1135,0,0
-378,-111,0,0,0,0,0,0,0,0,0,-1,846,1135,0,0
-371,-111,0,0,0,0,0,0,0,0,0,-1,853,1135,0,0
-364,-111,0,0,0,0,0,0,0,0,0,-1,860,1135,0,0
-357,-111,0,0,0,0,0,0,0,0,0,-1,867,1135,0,0
-350,-111,0,0,0,0,0,0,0,0,0,-1,874,1135,0,0
-343,-111,0,0,0,0,0,0,0,0,0,-1,881,1135,0,0
-336,-111,0,0,0,0,0,0,0,0,0,-1,888,1135,0,0
-329,-111,0,0,0,0,0,0,0,0,0,-1,895,1135,0,0
-322,-111,0,0,0,0,0,0,0,0,0,-1,902,1135,0,0
-315,-111,0,0,0,0,0,0,0,0,0,-1,909,1135,0,0
-308,-111,0,0,0,0,0,0,0,0,0,-1,916,1135,0,0
-301,-111,0,0,0,0,0,0,0,0,0,-1,923,1135,0,0
-294,-111,0,0,0,0,0,0,0,0,0,-1,930,1135,0,0
-287,-111,0,0,0,0,0,0,0,0,0,-1,937,1135,0,0
-280,-111,0,0,0,0,0,0,0,0,0,-1,944,1135,0,0
-273,-111,0,0,0,0,0,0,0,0,0,-1,951,1135,0,0
-266,-111,0,0,0,0,0,0,0,0,0,-1,958,1135,0,0
-259,-111,0,0,0,0,0,0,0,0,0,-1,965,1135,0,0
-252,-111,0,0,0,0,0,0,0,0,0,-1,972,1135,0,0
-245,-111,0,0,0,0,0,0,0,0,0,-1,979,1135,0,0
-238,-111,0,0,0,0,0,0,0,0,0,-1,986,1135,0,0
-231,-111,0,0,0,0,0,0,0,0,0,-1,993,1135,0,0
-224,-111,0,0,0,0,0,0,0,0,0,-1,1000,1135,0,0
-217,-111,0,0,0,0,0,0,0,0,0,-1,1007,1135,0,0
-210,-111,0,0,0,0,0,0,0,0,0,-1,1014,1135,0,0
-203,-111,0,0,0,0,0,0,0,0,0,-1,1021,1135,0,0
-196,-111,0,0,0,0,0,0,0,0,0,-1,1028,1135,0,0
-189,-111,0,0,0,0,0,0,0,0,0,-1,1035,1135,0,0
-182,-111,0,0,0,0,0,0,0,0,0,-1,1042,1135,0,0
-175,-111,0,0,0,0,0,0,0,0,0,-1,1049,1135,0,0
-168,-111,0,0,0,0,0,0,0,0,0,-1,1056,1135,0,0
-161,-111,0,0,0,0,0,0,0,0,0,-1,1063,1135,0,0
-154,-111,0,0,0,0,0,0,0,0,0,-1,1070,1135,0,0
-147,-111,0,0,0,0,0,0,0,0,0,-1,1077,1135,0,0
-140,-111,0,0,0,0,0,0,0,0,0,-1,1084,1135,0,0
-133,-111,0,0,0,0,0,0,0,0,0,-1,1091,1135,0,0
-126,-111,0,0,0,0,0,0,0,0,0,-1,1098,1135,0,0
-119,-111,0,0,0,0,0,0,0,0,0,-1,1105,1135,0,0
-112,-111,0,0,0,0,0,0,0,0,0,-1,1112,1135,0,0
-105,-111,0,0,0,0,0,0,0,0,0,-1,1119,1135,0,0
-98,-111,0,0,0,0,0,0,0,0,0,-1,1126,1135,0,0
-91,-111,0,0,0,0,0,0,0,0,0,-1,1133,1135,0,0
-84,-111,0,0,0,0,0,0,0,0,0,-1,1140,1135,0,0
-77,-111,0,0,0,0,0,0,0,0,0,-1,1147,1135,0,0
-70,-111,0,0,0,0,0,0,0,0,0,-1,1154,1135,0,0
-63,-111,0,0,0,0,0,0,0,0,0,-1,1161,1135,0,0
-56,-111,0,0,0,0,0,0,0,0,0,-1,1168,1135,0,0
-49,-111,0,0,0,0,0,0,0,0,0,-1,1175,1135,0,0
-42,-111,0,0,0,0,0,0,0,0,0,-1,1182,1135,0,0
-35,-111,0,0,0,0,0,0,0,0,0,-1,1189,1135,0,0
-28,-111,0,0,0,0,0,0,0,0,0,-1,1196,1135,0,0
-21,-111,0,0,0,0,0,0,0,0,0,-1,1203,1135,0,0
-14,-111,0,0,0,0,0,0,0,0,0,-1,1210,1135,0,0
-7,-111,0,0,0,0,0,0,0,0,0,-1,1217,1135,0,0
0,-111,0,0,0,0,0,0,0,0,0,-1,1224,1135,0,0
7,-111,0,0,0,0,0,0,0,0,0,-1,1231,1135,0,0
14,-111,0,0,0,0,0,0,0,0,0,-1,1238,1135,0,0
21,-111,0,0,0,0,0,0,0,0,0,-1,1245,1135,0,0
28,-111,0,0,0,0,0,0,0,0,0,-1,1252,1135,0,0
35,-111,0,0,0,0,0,0,0,0,0,-1,1259,1135,0,0
42,-111,0,0,0,0,0,0,0,0,0,-1,1266,1135,0,0
49,-111,0,0,0,0,0,0,0,0,0,-1,1273,1135,0,0
56,-111,0,0,0,0,0,0,0,0,0,-1,1280,1135,0,0
63,-111,0,0,0,0,0,0,0,0,0,-1,1287,1135,0,0
70,-111,0,0,0,0,0,0,0,0,0,-1,1294,1135,0,0
77,-111,0,0,0,0,0,0,0,0,0,-1,1301,1135,0,0
84,-111,0,0,0,0,0,0,0,0,0,-1,1308,1135,0,0
91,-111,0,0,0,0,0,0,0,0,0,-1,1315,1135,0,0
98,-111,0,0,0,0,0,0,0,0,0,-1,1322,1135,0,0
105,-111,0,0,0,0,0,0,0,0,0,-1,1329,1135,0,0
112,-111,0,0,0,0,0,0,0,0,0,-1,1336,1135,0,0
119,-111,0,0,0,0,0,0,0,0,0,-1,1343,1135,0,0
126,-111,0,0,0,0,0,0,0,0,0,-1,1350,1135,0,0
133,-111,0,0,0,0,0,0,0,0,0,-1,1357,1135,0,0
140,-111,0,0,0,0,0,0,0,0,0,-1,1364,1135,0,0
147,-111,0,0,0,0,0,0,0,0,0,-1,1371,1135,0,0
154,-111,0,0,0,0,0,0,0,0,0,-1,1378,1135,0,0
161,-111,0,0,0,0,0,0,0,0,0,-1,1385,1135,0,0
168,-111,0,0,0,0,0,0,0,0,0,-1,1392,1135,0,0
175,-111,0,0,0,0,0,0,0,0,0,-1,1399,1135,0,0
182,-111,0,0,0,0,0,0,0,0,0,-1,1406,1135,0,0
189,-111,0,0,0,0,0,0,0,0,0,-1,1413,1135,0,0
196,-111,0,0,0,0,0,0,0,0,0,-1,1420,1135,0,0
203,-111,0,0,0,0,0,0,0,0,0,-1,1427,1135,0,0
210,-111,0,0,0,0,0,0,0,0,0,-1,1434,1135,0,0
217,-111,0,0,0,0,0,0,0,0,0,-1,1441,1135,0,0
224,-111,0,0,0,0,0,0,0,0,0,-1,1448,1135,0,0
231,-111,0,0,0,0,0,0,0,0,0,-1,1455,1135,0,0
238,-111,0,0,0,0,0,0,0,0,0,-1,1462,1135,0,0
245,-111,0,0,0,0,0,0,0,0,0,-1,1469,1135,0,0
252,-111,0,0,0,0,0,0,0,0,0,-1,1476,1135,0,0
259,-111,0,0,0,0,0,0,0,0,0,-1,1483,1135,0,0
266,-111,0,0,0,0,0,0,0,0,0,-1,1490,1135,0,0
273,-111,0,0,0,0,0,0,0,0,0,-1,1497,1135,0,0
280,-111,0,0,0,0,0,0,0,0,0,-1,1504,1135,0,0
287,-111,0,0,0,0,0,0,0,0,0,-1,1511,1135,0,0
294,-111,0,0,0,0,0,0,0,0,0,-1,1518,1135,0,0
301,-111,0,0,0,0,0,0,0,0,0,-1,1525,1135,0,0
308,-111,0,0,0,0,0,0,0,0,0,-1,1532,1135,0,0
315,-111,0,0,0,0,0,0,0,0,0,-1,1539,1135,0,0
322,-111,0,0,0,0,0,0,0,0,0,-1,1546,1135,0,0
329,-111,0,0,0,0,0,0,0,0,0,-1,1553,1135,0,0
336,-111,0,0,0,0,0,0,0,0,0,-1,1560,1135,0,0
343,-111,0,0,0,0,0,0,0,0,0,-1,1567,1135,0,0
350,-111,0,0,0,0,0,0,0,0,0,-1,1574,1135,0,0
357,-111,0,0,0,0,0,0,0,0,0,-1,1581,1135,0,0
364,-111,0,0,0,0,0,0,0,0,0,-1,1588,1135,0,0
371,-111,0,0,0,0,0,0,0,0,0,-1,1595,1135,0,0
378,-111,0,0,0,0,0,0,0,0,0,-1,1602,1135,0,0
385,-111,0,0,0,0,0,0,0,0,0,-1,1609,1135,0,0
392,-111,0,0,0,0,0,0,0,0,0,-1,1616,1135,0,0
399,-111,0,0,0,0,0,0,0,0,0,-1,1623,1135,0,0
406,-111,0,0,0,0,0,0,0,0,0,-1,1630,1135,0,0
413,-111,0,0,0,0,0,0,0,0,0,-1,1637,1135,0,0
420,-111,0,0,0,0,0,0,0,0,0,-1,1644,1135,0,0
427,-111,0,0,0,0,0,0,0,0,0,-1,1651,1135,0,0
434,-111,0,0,0,0,0,0,0,0,0,-1,1658,1135,0,0
441,-111,0,0,0,0,0,0,0,0,0,-1,1665,1135,0,0
448,-111,0,0,0,0,0,0,0,0,0,-1,1672,1135,0,0
455,-111,0,0,0,0,0,0,0,0,0,-1,1679,1135,0,0
462,-111,0,0,0,0,0,0,0,0,0,-1,1686,1135,0,0
469,-111,0,0,0,0,0,0,0,0,0,-1,1693,1135,0,0
476,-111,0,0,0,0,0,0,0,0,0,-1,1700,1135,0,0
483,-111,0,0,0,0,0,0,0,0,0,-1,1707,1135,0,0
490,-111,0,0,0,0,0,0,0,0,0,-1,1714,1135,0,0
497,-111,0,0,0,0,0,0,0,0,0,-1,1721,1135,0,0
504,-111,0,0,0,0,0,0,0,0,0,-1,1728,1135,0,0
511,-111,0,0,0,0,0,0,0,0,0,-1,1735,1135,0,0
518,-111,0,0,0,0,0,0,0,0,0,-1,1742,1135,0,0
525,-111,0,0,0,0,0,0,0,0,0,-1,1749,1135,0,0
532,-111,0,0,0,0,0,0,0,0,0,-1,1756,1135,0,0
539,-111,0,0,0,0,0,0,0,0,0,-1,1763,1135,0,0
546,-111,0,0,0,0,0,0,0,0,0,-1,1770,1135,0,0
553,-111,0,0,0,0,0,0,0,0,0,-1,1777,1135,0,0
560,-111,0,0,0,0,0,0,0,0,0,-1,1784,1135,0,0
567,-111,0,0,0,0,0,0,0,0,0,-1,1791,1135,0,0
574,-111,0,0,0,0,0,0,0,0,0,-1,1798,1135,0,0
581,-111,0,0,0,0,0,0,0,0,0,-1,1805,1135,0,0
588,-111,0,0,0,0,0,0,0,0,0,-1,1812,1135,0,0
595,-111,0,0,0,0,0,0,0,0,0,-1,1819,1135,0,0
602,-111,0,0,0,0,0,0,0,0,0,-1,1826,1135,0,0
609,-111,0,0,0,0,0,0,0,0,0,-1,1833,1135,0,0
616,-111,0,0,0,0,0,0,0,0,0,-1,1840,1135,0,0
623,-111,0,0,0,0,0,0,0,0,0,-1,1847,1135,0,0
630,-111,0,0,0,0,0,0,0,0,0,-1,1854,1135,0,0
637,-111,0,0,0,0,0,0,0,0,0,-1,1861,1135,0,0
644,-111,79.9438,2.25684,0.00131867,-0.00323462,-0.00141348,0.00172177,-0.00363772,-0.277809,0.00315952,0.040121,1868,1135,79.9438,-2.25688
651,-111,79.8594,2.40808,0.000445575,-0.00237291,-0.000718547,0.00061819,-0.00254553,-0.235761,0.00193626,0.0421711,1875,1135,79.8593,-2.40804
658,-111,79.9617,2.15942,9.92932e-05,-0.00176155,-0.000251255,0.000132621,-0.00179487,-0.131877,0.00124315,0.0444258,1882,1135,79.9617,-2.15941
665,-111,79.9596,2.07129,-5.75787e-05,-0.00123256,1.54997e-06,-5.75766e-05,-0.00123256,0.00131915,0.000803203,0.045106,1889,1135,79.9595,-2.07126
672,-111,79.8309,2.08118,-5.08701e-05,-0.000761774,7.93252e-05,-4.21262e-05,-0.000770518,0.109785,0.000500228,0.0435995,1896,1135,79.831,-2.08122
679,-111,79.9357,2.32898,0.000136172,-0.000672437,0.000165025,0.000168555,-0.000704819,0.193765,0.00053499,0.0400718,1903,1135,79.9356,-2.32896
686,-111,79.934,2.19629,0.000371538,-0.000746788,9.02742e-05,0.000378778,-0.000754029,0.0800321,0.00066588,0.0389409,1910,1135,79.934,-2.19631
693,-111,79.9103,2.1322,0.000360078,-0.000868927,0.000227588,0.000400869,-0.000909718,0.177349,0.000775446,0.0364999,1917,1135,79.9103,-2.13224
700,-111,79.9919,2.14307,0.000419672,-0.000948064,0.000395015,0.000525559,-0.00105395,0.2619,0.000928784,0.0247122,1924,1135,79.9919,-2.14307
707,-111,80.0244,2.19531,0,0,0,0,0,0,0,-1,1931,1135,80.0244,-2.19525
714,-111,45.1654,7.39746,0,0,0,0,0,0,0,-1,1938,1135,45.1654,-7.39745
721,-111,73.215,10.4309,0,0,0,0,0,0,0,-1,1945,1135,73.2149,-10.4309
728,-111,73.3081,9.61487,-0.000810614,0.000275759,0.00120078,0.00105049,-0.00158535,0.997807,0.00153221,0.0332976,1952,1135,73.3081,-9.61482
735,-111,73.3534,8.98035,-0.0013139,0.000645113,0.00138299,0.00136034,-0.00202912,1.09352,0.00196956,0.0329441,1959,1135,73.3534,-8.98032
742,-111,73.1902,8.36877,-0.00163073,0.00116029,0.00185332,0.00208475,-0.00255518,1.1081,0.00268345,0.0212412,1966,1135,73.1902,-8.36877
749,-111,73.0878,7.70264,-0.00255359,0.00205175,0.00232757,0.0030232,-0.00352504,1.17541,0.00378433,0.0208248,1973,1135,73.0878,-7.70261
756,-111,73.074,7.03235,-0.00440278,0.00321207,0.00253643,0.00397957,-0.00517028,1.27696,0.00529756,0.0169258,1980,1135,73.0739,-7.0324
763,-111,73.0168,6.42444,-0.0067272,0.00457785,0.00275275,0.00521251,-0.00736186,1.3442,0.00729508,0.016805,1987,1135,73.0167,-6.42439
770,-111,72.9233,5.78906,-0.00976266,0.00551338,0.00282433,0.00601883,-0.0102681,1.39371,0.00950935,0.015024,1994,1135,72.9233,-5.78903
777,-111,72.7195,5.09265,-0.0134353,0.00574368,0.00282431,0.00615094,-0.0138425,1.42758,0.0118245,0.0303762,2001,1135,72.7195,-5.0927
784,-111,72.5815,4.45007,-0.0180314,0.00491681,0.00276313,0.00524482,-0.0183594,1.45264,0.0143119,0.0468358,2008,1135,72.5815,-4.45004
791,-111,72.5371,3.83618,0,0,0,0,0,0,0,-1,2015,1135,72.537,-3.83622
798,-111,72.3945,3.65674,-0.0324619,-0.00235964,0.00178299,-0.00225439,-0.0325671,1.51184,0.0210003,0.048338,2022,1135,72.3946,-3.6568
805,-111,72.3269,3.60278,-0.0432933,-0.0103959,0.00062305,-0.0103841,-0.0433051,1.55187,0.0261064,0.0455817,2029,1135,72.327,-3.60282
812,-111,72.1943,3.45728,0,0,0,0,0,0,0,-1,2036,1135,72.1943,-3.45723
-700,-118,0,0,0,0,0,0,0,0,0,-1,524,1142,0,0
-693,-118,-60.0031,-0.197998,0,0,0,0,0,0,0,-1,531,1142,-60.003,0.198037
-686,-118,-59.2556,1.34033,0.0414279,-0.0581959,0.036636,0.0534498,-0.0702178,0.317074,0.071618,0.0493978,538,1142,-59.2556,-1.34027
-679,-118,-58.422,2.8877,0.0357889,-0.0509255,0.0305247,0.0454563,-0.0605929,0.306713,0.061435,0.0435566,545,1142,-58.422,-2.88771
-672,-118,-58.0265,3.95837,0.0294981,-0.0424806,0.024712,0.0371655,-0.0501481,0.300854,0.0505959,0.0460422,552,1142,-58.0265,-3.95835
-665,-118,-57.8716,4.85498,0,0,0,0,0,0,0,-1,559,1142,-57.8716,-4.85496
-658,-118,-55.0958,-1.94812,0,0,0,0,0,0,0,-1,566,1142,-55.0958,1.94813
-651,-118,-55.6868,3.48682,0,0,0,0,0,0,0,-1,573,1142,-55.6867,-3.48676
-644,-118,-55.9592,4.3551,0.00486333,-0.0115001,0.00566178,0.0066313,-0.0132681,0.30267,0.0117,0.0392849,580,1142,-55.9591,-4.35512
-637,-118,-56.1503,5.18652,-0.000183235,-0.00596053,0.00210026,0.000499587,-0.00664335,0.314334,0.00460448,0.0209761,587,1142,-56.1503,-5.18655
-630,-118,-56.2124,5.82483,-0.00487034,-0.000967293,-0.00142799,-0.000500635,-0.005337,-1.25494,0.00340342,0.0302695,594,1142,-56.2124,-5.82483
-623,-118,-56.2027,6.54041,-0.00746889,0.00146585,-0.00356279,0.00271257,-0.00871562,-1.23418,0.00689482,0.024182,601,1142,-56.2027,-6.5404
-616,-118,-56.3682,7.18823,-0.00810207,0.0014771,-0.00357687,0.00266532,-0.00929029,-1.25007,0.00724722,0.040319,608,1142,-56.3682,-7.18818
-609,-118,-56.6863,7.67627,-0.00668421,0.00143689,-0.00256059,0.00217683,-0.00742415,-1.28949,0.00581254,0.046611,615,1142,-56.6864,-7.67623
-602,-118,-57.2625,8.09192,0,0,0,0,0,0,0,-1,622,1142,-57.2624,-8.09187
-595,-118,-56.58,9.19312,0,0,0,0,0,0,0,-1,629,1142,-56.5799,-9.19308
-588,-118,-55.8975,10.2943,0,0,0,0,0,0,0,-1,636,1142,-55.8974,-10.2943
-581,-118,-24.6116,3.89648,0,0,0,0,0,0,0,-1,643,1142,-24.6116,-3.89645
-574,-118,-63.0381,0.39978,0,0,0,0,0,0,0,-1,650,1142,-63.0381,-0.399735
-567,-118,-63.1232,0.385376,-0.00176515,-0.000303292,-0.000367864,-0.000215942,-0.0018525,-1.33766,0.00116968,0.0417001,657,1142,-63.1233,-0.385338
-560,-118,-63.0756,0.379028,0.000577678,-0.000412026,0.000437336,0.000743236,-0.000577584,0.361888,0.000764573,0.0369935,664,1142,-63.0756,-0.378976
-553,-118,-62.9413,0.446899,0.00150995,-0.000455428,0.00060349,0.00168047,-0.000625942,0.275369,0.00137722,0.03941,671,1142,-62.9413,-0.446956
-546,-118,-62.8406,0.488525,0.000242936,-2.22727e-05,-0.000421261,0.00055197,-0.000331307,-0.632918,0.000515237,0.040345,678,1142,-62.8406,-0.488532
-539,-118,-62.9363,0.526978,-0.00110881,0.000229883,-0.00170404,0.00139132,-0.00227025,-0.97254,0.00213421,0.0403637,685,1142,-62.9364,-0.526996
-532,-118,-63.0873,0.479858,-0.00233303,0.000514599,-0.00299231,0.00240457,-0.004223,-1.00746,0.00387414,0.0382014,692,1142,-63.0873,-0.4798
-525,-118,-63.1689,0.500977,-0.00341309,0.00105416,-0.00411911,0.00350627,-0.0058652,-1.03384,0.00546746,0.0414906,699,1142,-63.1689,-0.501006
-518,-118,0,0,0,0,0,0,0,0,0,-1,706,1142,0,0
-511,-118,0,0,0,0,0,0,0,0,0,-1,713,1142,0,0
-504,-118,0,0,0,0,0,0,0,0,0,-1,720,1142,0,0
-497,-118,0,0,0,0,0,0,0,0,0,-1,727,1142,0,0
-490,-118,0,0,0,0,0,0,0,0,0,-1,734,1142,0,0
-483,-118,0,0,0,0,0,0,0,0,0,-1,741,1142,0,0
-476,-118,0,0,0,0,0,0,0,0,0,-1,748,1142,0,0
-469,-118,0,0,0,0,0,0,0,0,0,-1,755,1142,0,0
-462,-118,0,0,0,0,0,0,0,0,0,-1,762,1142,0,0
-455,-118,0,0,0,0,0,0,0,0,0,-1,769,1142,0,0
-448,-118,0,0,0,0,0,0,0,0,0,-1,776,1142,0,0
-441,-118,0,0,0,0,0,0,0,0,0,-1,783,1142,0,0
-434,-118,0,0,0,0,0,0,0,0,0,-1,790,1142,0,0
-427,-118,0,0,0,0,0,0,0,0,0,-1,797,1142,0,0
-420,-118,0,0,0,0,0,0,0,0,0,-1,804,1142,0,0
-413,-118,0,0,0,0,0,0,0,0,0,-1,811,1142,0,0
-406,-118,0,0,0,0,0,0,0,0,0,-1,818,1142,0,0
-399,-118,0,0,0,0,0,0,0,0,0,-1,825,1142,0,0
-392,-118,0,0,0,0,0,0,0,0,0,-1,832,1142,0,0
-385,-118,0,0,0,0,0,0,0,0,0,-1,839,1142,0,0
-378,-118,0,0,0,0,0,0,0,0,0,-1,846,1142,0,0
-371,-118,0,0,0,0,0,0,0,0,0,-1,853,1142,0,0
-364,-118,0,0,0,0,0,0,0,0,0,-1,860,1142,0,0
-357,-118,0,0,0,0,0,0,0,0,0,-1,867,1142,0,0
-350,-118,0,0,0,0,0,0,0,0,0,-1,874,1142,0,0
-343,-118,0,0,0,0,0,0,0,0,0,-1,881,1142,0,0
-336,-118,0,0,0,0,0,0,0,0,0,-1,888,1142,0,0
-329,-118,0,0,0,0,0,0,0,0,0,-1,895,1142,0,0
-322,-118,0,0,0,0,0,0,0,0,0,-1,902,1142,0,0
-315,-118,0,0,0,0,0,0,0,0,0,-1,909,1142,0,0
-308,-118,0,0,0,0,0,0,0,0,0,-1,916,1142,0,0
-301,-118,0,0,0,0,0,0,0,0,0,-1,923,1142,0,0
-294,-118,0,0,0,0,0,0,0,0,0,-1,930,1142,0,0
-287,-118,0,0,0,0,0,0,0,0,0,-1,937,1142,0,0
-280,-118,0,0,0,0,0,0,0,0,0,-1,944,1142,0,0
-273,-118,0,0,0,0,0,0,0,0,0,-1,951,1142,0,0
-266,-118,0,0,0,0,0,0,0,0,0,-1,958,1142,0,0
-259,-118,0,0,0,0,0,0,0,0,0,-1,965,1142,0,0
-252,-118,0,0,0,0,0,0,0,0,0,-1,972,1142,0,0
-245,-118,0,0,0,0,0,0,0,0,0,-1,979,1142,0,0
-238,-118,0,0,0,0,0,0,0,0,0,-1,986,1142,0,0
-231,-118,0,0,0,0,0,0,0,0,0,-1,993,1142,0,0
-224,-118,0,0,0,0,0,0,0,0,0,-1,1000,1142,0,0
-217,-118,0,0,0,0,0,0,0,0,0,-1,1007,1142,0,0
-210,-118,0,0,0,0,0,0,0,0,0,-1,1014,1142,0,0
-203,-118,0,0,0,0,0,0,0,0,0,-1,1021,1142,0,0
-196,-118,0,0,0,0,0,0,0,0,0,-1,1028,1142,0,0
-189,-118,0,0,0,0,0,0,0,0,0,-1,1035,1142,0,0
-182,-118,0,0,0,0,0,0,0,0,0,-1,1042,1142,0,0
-175,-118,0,0,0,0,0,0,0,0,0,-1,1049,1142,0,0
-168,-118,0,0,0,0,0,0,0,0,0,-1,1056,1142,0,0
-161,-118,0,0,0,0,0,0,0,0,0,-1,1063,1142,0,0
-154,-118,0,0,0,0,0,0,0,0,0,-1,1070,1142,0,0
-147,-118,0,0,0,0,0,0,0,0,0,-1,1077,1142,0,0
-140,-118,0,0,0,0,0,0,0,0,0,-1,1084,1142,0,0
-133,-118,0,0,0,0,0,0,0,0,0,-1,1091,1142,0,0
-126,-118,0,0,0,0,0,0,0,0,0,-1,1098,1142,0,0
-119,-118,0,0,0,0,0,0,0,0,0,-1,1105,1142,0,0
-112,-118,0,0,0,0,0,0,0,0,0,-1,1112,1142,0,0
-105,-118,0,0,0,0,0,0,0,0,0,-1,1119,1142,0,0
-98,-118,0,0,0,0,0,0,0,0,0,-1,1126,1142,0,0
-91,-118,0,0,0,0,0,0,0,0,0,-1,1133,1142,0,0
-84,-118,0,0,0,0,0,0,0,0,0,-1,1140,1142,0,0
-77,-118,0,0,0,0,0,0,0,0,0,-1,1147,1142,0,0
-70,-118,0,0,0,0,0,0,0,0,0,-1,1154,1142,0,0
-63,-118,0,0,0,0,0,0,0,0,0,-1,1161,1142,0,0
-56,-118,0,0,0,0,0,0,0,0,0,-1,1168,1142,0,0
-49,-118,0,0,0,0,0,0,0,0,0,-1,1175,1142,0,0
-42,-118,0,0,0,0,0,0,0,0,0,-1,1182,1142,0,0
-35,-118,0,0,0,0,0,0,0,0,0,-1,1189,1142,0,0
-28,-118,0,0,0,0,0,0,0,0,0,-1,1196,1142,0,0
-21,-118,0,0,0,0,0,0,0,0,0,-1,1203,1142,0,0
-14,-118,0,0,0,0,0,0,0,0,0,-1,1210,1142,0,0
-7,-118,0,0,0,0,0,0,0,0,0,-1,1217,1142,0,0
0,-118,0,0,0,0,0,0,0,0,0,-1,1224,1142,0,0
7,-118,0,0,0,0,0,0,0,0,0,-1,1231,1142,0,0
14,-118,0,0,0,0,0,0,0,0,0,-1,1238,1142,0,0
21,-118,0,0,0,0,0,0,0,0,0,-1,1245,1142,0,0
28,-118,0,0,0,0,0,0,0,0,0,-1,1252,1142,0,0
35,-118,0,0,0,0,0,0,0,0,0,-1,1259,1142,0,0
42,-118,0,0,0,0,0,0,0,0,0,-1,1266,1142,0,0
49,-118,0,0,0,0,0,0,0,0,0,-1,1273,1142,0,0
56,-118,0,0,0,0,0,0,0,0,0,-1,1280,1142,0,0
63,-118,0,0,0,0,0,0,0,0,0,-1,1287,1142,0,0
70,-118,0,0,0,0,0,0,0,0,0,-1,1294,1142,0,0
77,-118,0,0,0,0,0,0,0,0,0,-1,1301,1142,0,0
84,-118,0,0,0,0,0,0,0,0,0,-1,1308,1142,0,0
91,-118,0,0,0,0,0,0,0,0,0,-1,1315,1142,0,0
98,-118,0,0,0,0,0,0,0,0,0,-1,1322,1142,0,0
105,-118,0,0,0,0,0,0,0,0,0,-1,1329,1142,0,0
112,-118,0,0,0,0,0,0,0,0,0,-1,1336,1142,0,0
119,-118,0,0,0,0,0,0,0,0,0,-1,1343,1142,0,0
126,-118,0,0,0,0,0,0,0,0,0,-1,1350,1142,0,0
133,-118,0,0,0,0,0,0,0,0,0,-1,1357,1142,0,0
140,-118,0,0,0,0,0,0,0,0,0,-1,1364,1142,0,0
147,-118,0,0,0,0,0,0,0,0,0,-1,1371,1142,0,0
154,-118,0,0,0,0,0,0,0,0,0,-1,1378,1142,0,0
161,-118,0,0,0,0,0,0,0,0,0,-1,1385,1142,0,0
168,-118,0,0,0,0,0,0,0,0,0,-1,1392,1142,0,0
175,-118,0,0,0,0,0,0,0,0,0,-1,1399,1142,0,0
182,-118,0,0,0,0,0,0,0,0,0,-1,1406,1142,0,0
189,-118,0,0,0,0,0,0,0,0,0,-1,1413,1142,0,0
196,-118,0,0,0,0,0,0,0,0,0,-1,1420,1142,0,0
203,-118,0,0,0,0,0,0,0,0,0,-1,1427,1142,0,0
210,-118,0,0,0,0,0,0,0,0,0,-1,1434,1142,0,0
217,-118,0,0,0,0,0,0,0,0,0,-1,1441,1142,0,0
224,-118,0,0,0,0,0,0,0,0,0,-1,1448,1142,0,0
231,-118,0,0,0,0,0,0,0,0,0,-1,1455,1142,0,0
238,-118,0,0,0,0,0,0,0,0,0,-1,1462,1142,0,0
245,-118,0,0,0,0,0,0,0,0,0,-1,1469,1142,0,0
252,-118,0,0,0,0,0,0,0,0,0,-1,1476,1142,0,0
259,-118,0,0,0,0,0,0,0,0,0,-1,1483,1142,0,0
266,-118,0,0,0,0,0,0,0,0,0,-1,1490,1142,0,0
273,-118,0,0,0,0,0,0,0,0,0,-1,1497,1142,0,0
280,-118,0,0,0,0,0,0,0,0,0,-1,1504,1142,0,0
287,-118,0,0,0,0,0,0,0,0,0,-1,1511,1142,0,0
294,-118,0,0,0,0,0,0,0,0,0,-1,1518,1142,0,0
301,-118,0,0,0,0,0,0,0,0,0,-1,1525,1142,0,0
308,-118,0,0,0,0,0,0,0,0,0,-1,1532,1142,0,0
315,-118,0,0,0,0,0,0,0,0,0,-1,1539,1142,0,0
322,-118,0,0,0,0,0,0,0,0,0,-1,1546,1142,0,0
329,-118,0,0,0,0,0,0,0,0,0,-1,1553,1142,0,0
336,-118,0,0,0,0,0,0,0,0,0,-1,1560,1142,0,0
343,-118,0,0,0,0,0,0,0,0,0,-1,1567,1142,0,0
350,-118,0,0,0,0,0,0,0,0,0,-1,1574,1142,0,0
357,-118,0,0,0,0,0,0,0,0,0,-1,1581,1142,0,0
364,-118,0,0,0,0,0,0,0,0,0,-1,1588,1142,0,0
371,-118,0,0,0,0,0,0,0,0,0,-1,1595,1142,0,0
378,-118,0,0,0,0,0,0,0,0,0,-1,1602,1142,0,0
385,-118,0,0,0,0,0,0,0,0,0,-1,1609,1142,0,0
392,-118,0,0,0,0,0,0,0,0,0,-1,1616,1142,0,0
399,-118,0,0,0,0,0,0,0,0,0,-1,1623,1142,0,0
406,-118,0,0,0,0,0,0,0,0,0,-1,1630,1142,0,0
413,-118,0,0,0,0,0,0,0,0,0,-1,1637,1142,0,0
420,-118,0,0,0,0,0,0,0,0,0,-1,1644,1142,0,0
427,-118,0,0,0,0,0,0,0,0,0,-1,1651,1142,0,0
434,-118,0,0,0,0,0,0,0,0,0,-1,1658,1142,0,0
441,-118,0,0,0,0,0,0,0,0,0,-1,1665,1142,0,0
448,-118,0,0,0,0,0,0,0,0,0,-1,1672,1142,0,0
455,-118,0,0,0,0,0,0,0,0,0,-1,1679,1142,0,0
462,-118,0,0,0,0,0,0,0,0,0,-1,1686,1142,0,0
469,-118,0,0,0,0,0,0,0,0,0,-1,1693,1142,0,0
476,-118,0,0,0,0,0,0,0,0,0,-1,1700,1142,0,0
483,-118,0,0,0,0,0,0,0,0,0,-1,1707,1142,0,0
490,-118,0,0,0,0,0,0,0,0,0,-1,1714,1142,0,0
497,-118,0,0,0,0,0,0,0,0,0,-1,1721,1142,0,0
504,-118,0,0,0,0,0,0,0,0,0,-1,1728,1142,0,0
511,-118,0,0,0,0,0,0,0,0,0,-1,1735,1142,0,0
518,-118,0,0,0,0,0,0,0,0,0,-1,1742,1142,0,0
525,-118,0,0,0,0,0,0,0,0,0,-1,1749,1142,0,0
532,-118,0,0,0,0,0,0,0,0,0,-1,1756,1142,0,0
539,-118,0,0,0,0,0,0,0,0,0,-1,1763,1142,0,0
546,-118,0,0,0,0,0,0,0,0,0,-1,1770,1142,0,0
553,-118,0,0,0,0,0,0,0,0,0,-1,1777,1142,0,0
560,-118,0,0,0,0,0,0,0,0,0,-1,1784,1142,0,0
567,-118,0,0,0,0,0,0,0,0,0,-1,1791,1142,0,0
574,-118,0,0,0,0,0,0,0,0,0,-1,1798,1142,0,0
581,-118,0,0,0,0,0,0,0,0,0,-1,1805,1142,0,0
588,-118,0,0,0,0,0,0,0,0,0,-1,1812,1142,0,0
595,-118,0,0,0,0,0,0,0,0,0,-1,1819,1142,0,0
602,-118,0,0,0,0,0,0,0,0,0,-1,1826,1142,0,0
609,-118,0,0,0,0,0,0,0,0,0,-1,1833,1142,0,0
616,-118,0,0,0,0,0,0,0,0,0,-1,1840,1142,0,0
623,-118,0,0,0,0,0,0,0,0,0,-1,1847,1142,0,0
630,-118,0,0,0,0,0,0,0,0,0,-1,1854,1142,0,0
637,-118,0,0,0,0,0,0,0,0,0,-1,1861,1142,0,0
644,-118,79.902,2.17676,0.00131672,-0.00340721,-0.00103291,0.0015327,-0.00362318,-0.206126,0.00305722,0.043471,1868,1142,79.902,-2.17671
651,-118,79.9916,2.36694,0.000343452,-0.0025169,-0.00055605,0.000447744,-0.0026212,-0.185406,0.00191425,0.0437183,1875,1142,79.9915,-2.36699
658,-118,80.0654,2.17017,-6.21283e-05,-0.00186222,-0.000228424,-3.35946e-05,-0.00189075,-0.124272,0.00124945,0.04574,1882,1142,80.0655,-2.17011
665,-118,80.0469,1.99988,-0.000235807,-0.00128072,-6.00273e-05,-0.00023237,-0.00128416,-0.0571961,0.000790124,0.0452149,1889,1142,80.0469,-1.99993
672,-118,79.8514,2.03638,-0.000211043,-0.000754651,-3.36912e-05,-0.000208963,-0.000756731,-0.0616625,0.00045126,0.0466651,1896,1142,79.8514,-2.03641
679,-118,79.8756,2.21362,2.46769e-05,-0.000669611,5.69566e-05,2.93184e-05,-0.000674253,0.0813116,0.000459586,0.041369,1903,1142,79.8756,-2.21359
686,-118,79.9044,2.2334,0.000321047,-0.00076745,2.82054e-05,0.000321777,-0.000768181,0.0258891,0.000646641,0.0354337,1910,1142,79.9044,-2.23334
693,-118,79.8374,2.17639,0.000255722,-0.00088251,0.000196702,0.000288756,-0.000915544,0.166387,0.000726015,0.0318292,1917,1142,79.8374,-2.17644
700,-118,79.9484,2.18811,0.000269427,-0.000979542,0.0003851,0.00037862,-0.00108873,0.276293,0.000879625,0.0196435,1924,1142,79.9484,-2.18807
707,-118,80.0775,2.32239,0,0,0,0,0,0,0,-1,1931,1142,80.0776,-2.32239
714,-118,50.4819,8.53809,0,0,0,0,0,0,0,-1,1938,1142,50.4819,-8.53809
721,-118,72.5585,10.4756,0,0,0,0,0,0,0,-1,1945,1142,72.5584,-10.4756
728,-118,72.5953,9.74731,-0.00071091,5.62824e-05,0.00126183,0.00099153,-0.00164616,0.93296,0.00153842,0.0246477,1952,1142,72.5954,-9.74732
735,-118,72.5621,9.0957,-0.00117436,0.000280972,0.00143395,0.00116132,-0.0020547,1.0202,0.0018805,0.0247142,1959,1142,72.5622,-9.09576
742,-118,72.5022,8.49707,-0.00148279,0.00064055,0.00185562,0.00171674,-0.00255899,1.04524,0.00248451,0.036402,1966,1142,72.5022,-8.49709
749,-118,72.3499,7.79724,-0.00243143,0.00147644,0.00227237,0.00251943,-0.00347442,1.1405,0.00347516,0.0262954,1973,1142,72.3498,-7.7972
756,-118,72.3594,7.05847,-0.0043986,0.00265491,0.00244281,0.00341829,-0.00516198,1.26791,0.00498781,0.0189368,1980,1142,72.3593,-7.0585
763,-118,72.3687,6.39856,-0.0070344,0.00380938,0.00252734,0.00436949,-0.00759452,1.3527,0.00699057,0.0113003,1987,1142,72.3687,-6.39858
770,-118,72.2544,5.79578,-0.0103999,0.00441116,0.00247379,0.00481342,-0.0108021,1.4096,0.009234,0.0152366,1994,1142,72.2543,-5.79583
777,-118,72.0342,5.14282,-0.0144952,0.00421222,0.00232086,0.00449585,-0.0147788,1.44919,0.0116442,0.0333803,2001,1142,72.0343,-5.14285
784,-118,71.9124,4.49243,-0.0197284,0.00272543,0.00206476,0.00291372,-0.0199166,1.47986,0.014348,0.0497723,2008,1142,71.9124,-4.49247
791,-118,71.8481,3.85449,0,0,0,0,0,0,0,-1,2015,1142,71.8482,-3.85448
798,-118,72.3276,3.6438,0,0,0,0,0,0,0,-1,2022,1142,72.3277,-3.64378
805,-118,71.9709,3.71191,0,0,0,0,0,0,0,-1,2029,1142,71.9708,-3.71194
812,-118,74.6331,-3.01611,0,0,0,0,0,0,0,-1,2036,1142,74.633,3.01615
-700,-125,0,0,0,0,0,0,0,0,0,-1,524,1149,0,0
-693,-125,-58.4675,0.866333,0,0,0,0,0,0,0,-1,531,1149,-58.4675,-0.866362
-686,-125,-58.2544,2.09363,0.0570061,-0.0661502,0.0352294,0.0663714,-0.0755156,0.25983,0.0819752,0.04925,538,1149,-58.2544,-2.09369
-679,-125,-58.1657,3.39038,0.0484086,-0.0580574,0.028748,0.0556752,-0.065324,0.247583,0.0699329,0.0444022,545,1149,-58.1657,-3.39044
-672,-125,-57.6931,4.46973,0.0395725,-0.0487102,0.0229541,0.045184,-0.0543217,0.239765,0.0575303,0.0487509,552,1149,-57.6931,-4.46968
-665,-125,-57.5007,5.31946,0,0,0,0,0,0,0,-1,559,1149,-57.5007,-5.31941
-658,-125,-60.2678,1.99365,0,0,0,0,0,0,0,-1,566,1149,-60.2678,-1.99367
-651,-125,-55.0273,3.78345,0,0,0,0,0,0,0,-1,573,1149,-55.0273,-3.78339
-644,-125,-55.2749,4.48486,0.0075153,-0.0137015,0.00474783,0.00852929,-0.0147155,0.210409,0.0135779,0.0404925,580,1149,-55.2749,-4.48484
-637,-125,-55.4285,5.16736,0.00109192,-0.00715025,0.00138479,0.00131836,-0.00737669,0.162085,0.00541105,0.0166294,587,1149,-55.4285,-5.16739
-630,-125,-55.4487,5.86316,-0.00462969,-0.0013143,-0.00194675,-0.000415084,-0.0055289,-1.13809,0.00355566,0.0161807,594,1149,-55.4487,-5.86312
-623,-125,-55.4574,6.58508,-0.0082388,0.00191099,-0.00380207,0.00317726,-0.00950506,-1.2493,0.00761989,0.0141727,601,1149,-55.4574,-6.5851
-616,-125,-55.5532,7.21411,-0.00896489,0.00163841,-0.0036259,0.00275974,-0.0100862,-1.27087,0.00780835,0.0384015,608,1149,-55.5531,-7.21412
-609,-125,-55.8965,8.06714,0,0,0,0,0,0,0,-1,615,1149,-55.8965,-8.06712
-602,-125,-56.8663,8.45361,0,0,0,0,0,0,0,-1,622,1149,-56.8663,-8.45361
-595,-125,-55.8979,9.35608,0,0,0,0,0,0,0,-1,629,1149,-55.8979,-9.35606
-588,-125,-54.9294,10.2585,0,0,0,0,0,0,0,-1,636,1149,-54.9294,-10.2585
-581,-125,-26.4055,4.83203,0,0,0,0,0,0,0,-1,643,1149,-26.4055,-4.83204
-574,-125,-37.674,0.655151,0,0,0,0,0,0,0,-1,650,1149,-37.674,-0.655195
-567,-125,-63.0852,0.272583,0,0,0,0,0,0,0,-1,657,1149,-63.0852,-0.272615
-560,-125,-63.025,0.206055,-0.000135685,4.43845e-05,0.000574076,0.000535443,-0.000626744,0.863182,0.000671679,0.0387678,664,1149,-63.025,-0.206076
-553,-125,-62.9205,0.436157,0.0013672,-0.000158613,0.000993967,0.00185729,-0.000648702,0.458083,0.00150187,0.0409144,671,1149,-62.9205,-0.436156
-546,-125,-63.0716,0.593506,0.0005414,0.000197357,-0.000283733,0.000701186,3.75712e-05,-0.512886,0.00045545,0.040823,678,1149,-63.0716,-0.593471
-539,-125,-63.2853,0.743896,-0.000274498,0.000547505,-0.00183524,0.00201721,-0.0017442,-0.895555,0.00217355,0.0389166,685,1149,-63.2853,-0.743956
-532,-125,-63.2101,0.629883,-0.000941313,0.00102383,-0.00343502,0.00361404,-0.00353152,-0.924701,0.00412559,0.0383072,692,1149,-63.2102,-0.629875
-525,-125,-63.08,0.506958,-0.00147237,0.00182861,-0.00490777,0.00535599,-0.00499975,-0.947608,0.00598007,0.0446374,699,1149,-63.0799,-0.506997
-518,-125,0,0,0,0,0,0,0,0,0,-1,706,1149,0,0
-511,-125,0,0,0,0,0,0,0,0,0,-1,713,1149,0,0
-504,-125,0,0,0,0,0,0,0,0,0,-1,720,1149,0,0
-497,-125,0,0,0,0,0,0,0,0,0,-1,727,1149,0,0
-490,-125,0,0,0,0,0,0,0,0,0,-1,734,1149,0,0
-483,-125,0,0,0,0,0,0,0,0,0,-1,741,1149,0,0
-476,-125,0,0,0,0,0,0,0,0,0,-1,748,1149,0,0
-469,-125,0,0,0,0,0,0,0,0,0,-1,755,1149,0,0
-462,-125,0,0,0,0,0,0,0,0,0,-1,762,1149,0,0
-455,-125,0,0,0,0,0,0,0,0,0,-1,769,1149,0,0
-448,-125,0,0,0,0,0,0,0,0,0,-1,776,1149,0,0
-441,-125,0,0,0,0,0,0,0,0,0,-1,783,1149,0,0
-434,-125,0,0,0,0,0,0,0,0,0,-1,790,1149,0,0
-427,-125,0,0,0,0,0,0,0,0,0,-1,797,1149,0,0
-420,-125,0,0,0,0,0,0,0,0,0,-1,804,1149,0,0
-413,-125,0,0,0,0,0,0,0,0,0,-1,811,1149,0,0
-406,-125,0,0,0,0,0,0,0,0,0,-1,818,1149,0,0
-399,-125,0,0,0,0,0,0,0,0,0,-1,825,1149,0,0
-392,-125,0,0,0,0,0,0,0,0,0,-1,832,1149,0,0
-385,-125,0,0,0,0,0,0,0,0,0,-1,839,1149,0,0
-378,-125,0,0,0,0,0,0,0,0,0,-1,846,1149,0,0
-371,-125,0,0,0,0,0,0,0,0,0,-1,853,1149,0,0
-364,-125,0,0,0,0,0,0,0,0,0,-1,860,1149,0,0
-357,-125,0,0,0,0,0,0,0,0,0,-1,867,1149,0,0
-350,-125,0,0,0,0,0,0,0,0,0,-1,874,1149,0,0
-343,-125,0,0,0,0,0,0,0,0,0,-1,881,1149,0,0
-336,-125,0,0,0,0,0,0,0,0,0,-1,888,1149,0,0
-329,-125,0,0,0,0,0,0,0,0,0,-1,895,1149,0,0
-322,-125,0,0,0,0,0,0,0,0,0,-1,902,1149,0,0
-315,-125,0,0,0,0,0,0,0,0,0,-1,909,1149,0,0
-308,-125,0,0,0,0,0,0,0,0,0,-1,916,1149,0,0
-301,-125,0,0,0,0,0,0,0,0,0,-1,923,1149,0,0
-294,-125,0,0,0,0,0,0,0,0,0,-1,930,1149,0,0
-287,-125,0,0,0,0,0,0,0,0,0,-1,937,1149,0,0
-280,-125,0,0,0,0,0,0,0,0,0,-1,944,1149,0,0
-273,-125,0,0,0,0,0,0,0,0,0,-1,951,1149,0,0
-266,-125,0,0,0,0,0,0,0,0,0,-1,958,1149,0,0
-259,-125,0,0,0,0,0,0,0,0,0,-1,965,1149,0,0
-252,-125,0,0,0,0,0,0,0,0,0,-1,972,1149,0,0
-245,-125,0,0,0,0,0,0,0,0,0,-1,979,1149,0,0
-238,-125,0,0,0,0,0,0,0,0,0,-1,986,1149,0,0
-231,-125,0,0,0,0,0,0,0,0,0,-1,993,1149,0,0
-224,-125,0,0,0,0,0,0,0,0,0,-1,1000,1149,0,0
-217,-125,0,0,0,0,0,0,0,0,0,-1,1007,1149,0,0
-210,-125,0,0,0,0,0,0,0,0,0,-1,1014,1149,0,0
-203,-125,0,0,0,0,0,0,0,0,0,-1,1021,1149,0,0
-196,-125,0,0,0,0,0,0,0,0,0,-1,1028,1149,0,0
-189,-125,0,0,0,0,0,0,0,0,0,-1,1035,1149,0,0
-182,-125,0,0,0,0,0,0,0,0,0,-1,1042,1149,0,0
-175,-125,0,0,0,0,0,0,0,0,0,-1,1049,1149,0,0
-168,-125,0,0,0,0,0,0,0,0,0,-1,1056,1149,0,0
-161,-125,0,0,0,0,0,0,0,0,0,-1,1063,1149,0,0
-154,-125,0,0,0,0,0,0,0,0,0,-1,1070,1149,0,0
-147,-125,0,0,0,0,0,0,0,0,0,-1,1077,1149,0,0
-140,-125,0,0,0,0,0,0,0,0,0,-1,1084,1149,0,0
-133,-125,0,0,0,0,0,0,0,0,0,-1,1091,1149,0,0
-126,-125,0,0,0,0,0,0,0,0,0,-1,1098,1149,0,0
-119,-125,0,0,0,0,0,0,0,0,0,-1,1105,1149,0,0
-112,-125,0,0,0,0,0,0,0,0,0,-1,1112,1149,0,0
-105,-125,0,0,0,0,0,0,0,0,0,-1,1119,1149,0,0
-98,-125,0,0,0,0,0,0,0,0,0,-1,1126,1149,0,0
-91,-125,0,0,0,0,0,0,0,0,0,-1,1133,1149,0,0
-84,-125,0,0,0,0,0,0,0,0,0,-1,1140,1149,0,0
-77,-125,0,0,0,0,0,0,0,0,0,-1,1147,1149,0,0
-70,-125,0,0,0,0,0,0,0,0,0,-1,1154,1149,0,0
-63,-125,0,0,0,0,0,0,0,0,0,-1,1161,1149,0,0
-56,-125,0,0,0,0,0,0,0,0,0,-1,1168,1149,0,0
-49,-125,0,0,0,0,0,0,0,0,0,-1,1175,1149,0,0
-42,-125,0,0,0,0,0,0,0,0,0,-1,1182,1149,0,0
-35,-125,0,0,0,0,0,0,0,0,0,-1,1189,1149,0,0
-28,-125,0,0,0,0,0,0,0,0,0,-1,1196,1149,0,0
-21,-125,0,0,0,0,0,0,0,0,0,-1,1203,1149,0,0
-14,-125,0,0,0,0,0,0,0,0,0,-1,1210,1149,0,0
-7,-125,0,0,0,0,0,0,0,0,0,-1,1217,1149,0,0
0,-125,0,0,0,0,0,0,0,0,0,-1,1224,1149,0,0
7,-125,0,0,0,0,0,0,0,0,0,-1,1231,1149,0,0
14,-125,0,0,0,0,0,0,0,0,0,-1,1238,1149,0,0
21,-125,0,0,0,0,0,0,0,0,0,-1,1245,1149,0,0
28,-125,0,0,0,0,0,0,0,0,0,-1,1252,1149,0,0
35,-125,0,0,0,0,0,0,0,0,0,-1,1259,1149,0,0
42,-125,0,0,0,0,0,0,0,0,0,-1,1266,1149,0,0
49,-125,0,0,0,0,0,0,0,0,0,-1,1273,1149,0,0
56,-125,0,0,0,0,0,0,0,0,0,-1,1280,1149,0,0
63,-125,0,0,0,0,0,0,0,0,0,-1,1287,1149,0,0
70,-125,0,0,0,0,0,0,0,0,0,-1,1294,1149,0,0
77,-125,0,0,0,0,0,0,0,0,0,-1,1301,1149,0,0
84,-125,0,0,0,0,0,0,0,0,0,-1,1308,1149,0,0
91,-125,0,0,0,0,0,0,0,0,0,-1,1315,1149,0,0
98,-125,0,0,0,0,0,0,0,0,0,-1,1322,1149,0,0
105,-125,0,0,0,0,0,0,0,0,0,-1,1329,1149,0,0
112,-125,0,0,0,0,0,0,0,0,0,-1,1336,1149,0,0
119,-125,0,0,0,0,0,0,0,0,0,-1,1343,1149,0,0
126,-125,0,0,0,0,0,0,0,0,0,-1,1350,1149,0,0
133,-125,0,0,0,0,0,0,0,0,0,-1,1357,1149,0,0
140,-125,0,0,0,0,0,0,0,0,0,-1,1364,1149,0,0
147,-125,0,0,0,0,0,0,0,0,0,-1,1371,1149,0,0
154,-125,0,0,0,0,0,0,0,0,0,-1,1378,1149,0,0
161,-125,0,0,0,0,0,0,0,0,0,-1,1385,1149,0,0
168,-125,0,0,0,0,0,0,0,0,0,-1,1392,1149,0,0
175,-125,0,0,0,0,0,0,0,0,0,-1,1399,1149,0,0
182,-125,0,0,0,0,0,0,0,0,0,-1,1406,1149,0,0
189,-125,0,0,0,0,0,0,0,0,0,-1,1413,1149,0,0
196,-125,0,0,0,0,0,0,0,0,0,-1,1420,1149,0,0
203,-125,0,0,0,0,0,0,0,0,0,-1,1427,1149,0,0
210,-125,0,0,0,0,0,0,0,0,0,-1,1434,1149,0,0
217,-125,0,0,0,0,0,0,0,0,0,-1,1441,1149,0,0
224,-125,0,0,0,0,0,0,0,0,0,-1,1448,1149,0,0
231,-125,0,0,0,0,0,0,0,0,0,-1,1455,1149,0,0
238,-125,0,0,0,0,0,0,0,0,0,-1,1462,1149,0,0
245,-125,0,0,0,0,0,0,0,0,0,-1,1469,1149,0,0
252,-125,0,0,0,0,0,0,0,0,0,-1,1476,1149,0,0
259,-125,0,0,0,0,0,0,0,0,0,-1,1483,1149,0,0
266,-125,0,0,0,0,0,0,0,0,0,-1,1490,1149,0,0
273,-125,0,0,0,0,0,0,0,0,0,-1,1497,1149,0,0
280,-125,0,0,0,0,0,0,0,0,0,-1,1504,1149,0,0
287,-125,0,0,0,0,0,0,0,0,0,-1,1511,1149,0,0
294,-125,0,0,0,0,0,0,0,0,0,-1,1518,1149,0,0
301,-125,0,0,0,0,0,0,0,0,0,-1,1525,1149,0,0
308,-125,0,0,0,0,0,0,0,0,0,-1,1532,1149,0,0
315,-125,0,0,0,0,0,0,0,0,0,-1,1539,1149,0,0
322,-125,0,0,0,0,0,0,0,0,0,-1,1546,1149,0,0
329,-125,0,0,0,0,0,0,0,0,0,-1,1553,1149,0,0
336,-125,0,0,0,0,0,0,0,0,0,-1,1560,1149,0,0
343,-125,0,0,0,0,0,0,0,0,0,-1,1567,1149,0,0
350,-125,0,0,0,0,0,0,0,0,0,-1,1574,1149,0,0
357,-125,0,0,0,0,0,0,0,0,0,-1,1581,1149,0,0
364,-125,0,0,0,0,0,0,0,0,0,-1,1588,1149,0,0
371,-125,0,0,0,0,0,0,0,0,0,-1,1595,1149,0,0
378,-125,0,0,0,0,0,0,0,0,0,-1,1602,1149,0,0
385,-125,0,0,0,0,0,0,0,0,0,-1,1609,1149,0,0
392,-125,0,0,0,0,0,0,0,0,0,-1,1616,1149,0,0
399,-125,0,0,0,0,0,0,0,0,0,-1,1623,1149,0,0
406,-125,0,0,0,0,0,0,0,0,0,-1,1630,1149,0,0
413,-125,0,0,0,0,0,0,0,0,0,-1,1637,1149,0,0
420,-125,0,0,0,0,0,0,0,0,0,-1,1644,1149,0,0
427,-125,0,0,0,0,0,0,0,0,0,-1,1651,1149,0,0
434,-125,0,0,0,0,0,0,0,0,0,-1,1658,1149,0,0
441,-125,0,0,0,0,0,0,0,0,0,-1,1665,1149,0,0
448,-125,0,0,0,0,0,0,0,0,0,-1,1672,1149,0,0
455,-125,0,0,0,0,0,0,0,0,0,-1,1679,1149,0,0
462,-125,0,0,0,0,0,0,0,0,0,-1,1686,1149,0,0
469,-125,0,0,0,0,0,0,0,0,0,-1,1693,1149,0,0
476,-125,0,0,0,0,0,0,0,0,0,-1,1700,1149,0,0
483,-125,0,0,0,0,0,0,0,0,0,-1,1707,1149,0,0
490,-125,0,0,0,0,0,0,0,0,0,-1,1714,1149,0,0
497,-125,0,0,0,0,0,0,0,0,0,-1,1721,1149,0,0
504,-125,0,0,0,0,0,0,0,0,0,-1,1728,1149,0,0
511,-125,0,0,0,0,0,0,0,0,0,-1,1735,1149,0,0
518,-125,0,0,0,0,0,0,0,0,0,-1,1742,1149,0,0
525,-125,0,0,0,0,0,0,0,0,0,-1,1749,1149,0,0
532,-125,0,0,0,0,0,0,0,0,0,-1,1756,1149,0,0
539,-125,0,0,0,0,0,0,0,0,0,-1,1763,1149,0,0
546,-125,0,0,0,0,0,0,0,0,0,-1,1770,1149,0,0
553,-125,0,0,0,0,0,0,0,0,0,-1,1777,1149,0,0
560,-125,0,0,0,0,0,0,0,0,0,-1,1784,1149,0,0
567,-125,0,0,0,0,0,0,0,0,0,-1,1791,1149,0,0
574,-125,0,0,0,0,0,0,0,0,0,-1,1798,1149,0,0
581,-125,0,0,0,0,0,0,0,0,0,-1,1805,1149,0,0
588,-125,0,0,0,0,0,0,0,0,0,-1,1812,1149,0,0
595,-125,0,0,0,0,0,0,0,0,0,-1,1819,1149,0,0
602,-125,0,0,0,0,0,0,0,0,0,-1,1826,1149,0,0
609,-125,0,0,0,0,0,0,0,0,0,-1,1833,1149,0,0
616,-125,0,0,0,0,0,0,0,0,0,-1,1840,1149,0,0
623,-125,0,0,0,0,0,0,0,0,0,-1,1847,1149,0,0
630,-125,0,0,0,0,0,0,0,0,0,-1,1854,1149,0,0
637,-125,0,0,0,0,0,0,0,0,0,-1,1861,1149,0,0
644,-125,79.8779,2.19214,0,0,0,0,0,0,0,-1,1868,1149,79.878,-2.19218
651,-125,80.1333,2.62646,0,0,0,0,0,0,0,-1,1875,1149,80.1334,-2.62643
658,-125,80.0646,2.24475,-6.1299e-05,-0.00193467,-5.09432e-05,-5.99147e-05,-0.00193605,-0.0271666,0.0012712,0.0434669,1882,1149,80.0646,-2.24477
665,-125,79.8402,2.18726,-0.000282605,-0.00126136,-1.78233e-05,-0.000282281,-0.00126168,-0.0182022,0.000764598,0.0451077,1889,1149,79.8402,-2.18729
672,-125,79.8221,2.0199,-0.000281064,-0.000645096,-9.75001e-05,-0.000256595,-0.000669565,-0.245887,0.000390072,0.0463264,1896,1149,79.8222,-2.01986
679,-125,79.8994,2.04614,-3.26908e-05,-0.000529615,-4.52034e-05,-2.86122e-05,-0.000533693,-0.0899823,0.000346652,0.0390324,1903,1149,79.8994,-2.04613
686,-125,79.9146,2.15454,0.000369326,-0.000596362,-8.67099e-05,0.00037705,-0.000604086,-0.0888439,0.000571492,0.0344977,1910,1149,79.9145,-2.15459
693,-125,79.8429,2.22021,0.000298557,-0.00069287,9.74993e-05,0.000308054,-0.000702367,0.097103,0.000597991,0.0274971,1917,1149,79.8429,-2.22022
700,-125,79.9384,2.22009,0.000256561,-0.000775088,0.00030053,0.000337724,-0.00085625,0.263771,0.00071068,0.0176679,1924,1149,79.9384,-2.22014
707,-125,80.101,2.32385,0,0,0,0,0,0,0,-1,1931,1149,80.1009,-2.32385
714,-125,54.8745,9.21375,0,0,0,0,0,0,0,-1,1938,1149,54.8746,-9.21371
721,-125,71.7729,10.561,0,0,0,0,0,0,0,-1,1945,1149,71.7729,-10.561
728,-125,71.8051,9.87561,-0.000409947,7.57406e-05,0.00118957,0.001047,-0.00138121,0.886087,0.00140635,0.0224148,1952,1149,71.8051,-9.87556
735,-125,71.8246,9.24915,-0.000771218,0.000164553,0.00137614,0.00115017,-0.00175683,0.949267,0.0016905,0.0253609,1959,1149,71.8246,-9.24911
742,-125,71.7052,8.5658,-0.00104906,0.000395713,0.0017444,0.00156138,-0.00221473,0.981708,0.00219099,0.0378584,1966,1149,71.7052,-8.56585
749,-125,71.5747,7.87939,-0.00205413,0.00116714,0.00210693,0.00220854,-0.00309553,1.11174,0.00307654,0.0265966,1973,1149,71.5747,-7.87945
756,-125,71.6011,7.08154,-0.00421735,0.00234248,0.00221491,0.0030203,-0.00489517,1.27382,0.00461254,0.0234381,1980,1149,71.6012,-7.08152
763,-125,71.655,6.42041,-0.00715623,0.00329515,0.00216012,0.00372401,-0.00758509,1.37481,0.00665495,0.0127774,1987,1149,71.655,-6.42037
770,-125,71.5581,5.75378,-0.0107778,0.00361702,0.00196412,0.00388021,-0.011041,1.43759,0.00893933,0.0164702,1994,1149,71.5582,-5.75374
777,-125,71.3687,5.16907,-0.0151272,0.00309017,0.00164321,0.0032372,-0.0152742,1.48156,0.0114159,0.0353996,2001,1149,71.3686,-5.16901
784,-125,71.2261,4.42712,0,0,0,0,0,0,0,-1,2008,1149,71.2261,-4.42707
791,-125,70.7432,3.79858,0,0,0,0,0,0,0,-1,2015,1149,70.7432,-3.79856
798,-125,73.0706,-3.13586,0,0,0,0,0,0,0,-1,2022,1149,73.0705,3.13581
805,-125,73.2634,-4.34607,0,0,0,0,0,0,0,-1,2029,1149,73.2634,4.34607
812,-125,73.3831,0.178101,0,0,0,0,0,0,0,-1,2036,1149,73.383,-0.17812
-700,-132,0,0,0,0,0,0,0,0,0,-1,524,1156,0,0
-693,-132,-57.7177,3.9071,0,0,0,0,0,0,0,-1,531,1156,-57.7177,-3.90716
-686,-132,-57.204,2.94543,0,0,0,0,0,0,0,-1,538,1156,-57.204,-2.94548
-679,-132,-57.5781,3.72314,0.0581433,-0.0622428,0.0276406,0.0641863,-0.0682857,0.215239,0.076495,0.048017,545,1156,-57.5781,-3.72317
-672,-132,-57.3589,4.95667,0.0475422,-0.0525276,0.0219666,0.0521518,-0.0571372,0.206845,0.0631199,0.0473285,552,1156,-57.3589,-4.95665
-665,-132,-57.1749,5.797,0,0,0,0,0,0,0,-1,559,1156,-57.1749,-5.79706
-658,-132,-54.9409,3.22046,0,0,0,0,0,0,0,-1,566,1156,-54.9409,-3.22047
-651,-132,-54.7048,3.88672,0,0,0,0,0,0,0,-1,573,1156,-54.7048,-3.88666
-644,-132,-54.566,4.47913,0.0102944,-0.0154842,0.00444842,0.0110404,-0.0162302,0.166163,0.0158395,0.0316214,580,1156,-54.566,-4.47907
-637,-132,-54.7084,5.16772,0.00273732,-0.00819472,0.00122178,0.00287221,-0.0083296,0.109954,0.00671834,0.0153773,587,1156,-54.7084,-5.16777
-630,-132,-54.6984,5.87805,-0.00388177,-0.00167483,-0.00195047,-0.000537321,-0.00501928,-1.04282,0.00318224,0.0108724,594,1156,-54.6984,-5.87803
-623,-132,-54.7249,6.61182,-0.00851762,0.00241953,-0.00361544,0.00350662,-0.00960471,-1.27872,0.007838,0.0157851,601,1156,-54.7249,-6.6118
-616,-132,-54.9117,7.15735,-0.00935828,0.00198564,-0.00343333,0.00294382,-0.0103165,-1.29864,0.0080406,0.0486331,608,1156,-54.9117,-7.15738
-609,-132,-54.9097,8.1991,0,0,0,0,0,0,0,-1,615,1156,-54.9097,-8.19913
-602,-132,-51.2123,7.94373,0,0,0,0,0,0,0,-1,622,1156,-51.2123,-7.94373
-595,-132,-55.2007,9.62585,0,0,0,0,0,0,0,-1,629,1156,-55.2007,-9.62589
-588,-132,-42.6534,6.92969,0,0,0,0,0,0,0,-1,636,1156,-42.6535,-6.92967
-581,-132,-35.9343,6.42957,0,0,0,0,0,0,0,-1,643,1156,-35.9342,-6.42957
-574,-132,-33.2071,2.86963,0,0,0,0,0,0,0,-1,650,1156,-33.2071,-2.86963
-567,-132,-63.0627,0.297119,0,0,0,0,0,0,0,-1,657,1156,-63.0627,-0.297132
-560,-132,-63.0664,0.283325,-0.000680289,0.000677044,0.000701308,0.000974298,-0.000977543,1.16989,0.0011269,0.0379526,664,1156,-63.0664,-0.283267
-553,-132,-63.0327,0.446777,0.00109135,0.000447593,0.00144807,0.00225288,-0.000713938,0.676036,0.00178806,0.0409591,671,1156,-63.0326,-0.446762
-546,-132,-63.2798,0.891235,0,0,0,0,0,0,0,-1,678,1156,-63.2798,-0.891248
-539,-132,-63.1212,0.648071,0.000389451,0.00131606,-0.00185652,0.00276621,-0.0010607,-0.907678,0.00228144,0.0434901,685,1156,-63.1212,-0.648118
-532,-132,-63.116,0.491333,0.000298521,0.00206276,-0.00369649,0.00498092,-0.00261964,-0.902526,0.00445822,0.0437689,692,1156,-63.1161,-0.491368
-525,-132,-63.0813,0.334595,0.000325526,0.00320011,-0.00541883,0.00736902,-0.00384339,-0.915033,0.0065793,0.0447422,699,1156,-63.0813,-0.334631
-518,-132,0,0,0,0,0,0,0,0,0,-1,706,1156,0,0
-511,-132,0,0,0,0,0,0,0,0,0,-1,713,1156,0,0
-504,-132,0,0,0,0,0,0,0,0,0,-1,720,1156,0,0
-497,-132,0,0,0,0,0,0,0,0,0,-1,727,1156,0,0
-490,-132,0,0,0,0,0,0,0,0,0,-1,734,1156,0,0
-483,-132,0,0,0,0,0,0,0,0,0,-1,741,1156,0,0
-476,-132,0,0,0,0,0,0,0,0,0,-1,748,1156,0,0
-469,-132,0,0,0,0,0,0,0,0,0,-1,755,1156,0,0
-462,-132,0,0,0,0,0,0,0,0,0,-1,762,1156,0,0
-455,-132,0,0,0,0,0,0,0,0,0,-1,769,1156,0,0
-448,-132,0,0,0,0,0,0,0,0,0,-1,776,1156,0,0
-441,-132,0,0,0,0,0,0,0,0,0,-1,783,1156,0,0
-434,-132,0,0,0,0,0,0,0,0,0,-1,790,1156,0,0
-427,-132,0,0,0,0,0,0,0,0,0,-1,797,1156,0,0
-420,-132,0,0,0,0,0,0,0,0,0,-1,804,1156,0,0
-413,-132,0,0,0,0,0,0,0,0,0,-1,811,1156,0,0
-406,-132,0,0,0,0,0,0,0,0,0,-1,818,1156,0,0
-399,-132,0,0,0,0,0,0,0,0,0,-1,825,1156,0,0
-392,-132,0,0,0,0,0,0,0,0,0,-1,832,1156,0,0
-385,-132,0,0,0,0,0,0,0,0,0,-1,839,1156,0,0
-378,-132,0,0,0,0,0,0,0,0,0,-1,846,1156,0,0
-371,-132,0,0,0,0,0,0,0,0,0,-1,853,1156,0,0
-364,-132,0,0,0,0,0,0,0,0,0,-1,860,1156,0,0
-357,-132,0,0,0,0,0,0,0,0,0,-1,867,1156,0,0
-350,-132,0,0,0,0,0,0,0,0,0,-1,874,1156,0,0
-343,-132,0,0,0,0,0,0,0,0,0,-1,881,1156,0,0
-336,-132,0,0,0,0,0,0,0,0,0,-1,888,1156,0,0
-329,-132,0,0,0,0,0,0,0,0,0,-1,895,1156,0,0
-322,-132,0,0,0,0,0,0,0,0,0,-1,902,1156,0,0
-315,-132,0,0,0,0,0,0,0,0,0,-1,909,1156,0,0
-308,-132,0,0,0,0,0,0,0,0,0,-1,916,1156,0,0
-301,-132,0,0,0,0,0,0,0,0,0,-1,923,1156,0,0
-294,-132,0,0,0,0,0,0,0,0,0,-1,930,1156,0,0
-287,-132,0,0,0,0,0,0,0,0,0,-1,937,1156,0,0
-280,-132,0,0,0,0,0,0,0,0,0,-1,944,1156,0,0
-273,-132,0,0,0,0,0,0,0,0,0,-1,951,1156,0,0
-266,-132,0,0,0,0,0,0,0,0,0,-1,958,1156,0,0
-259,-132,0,0,0,0,0,0,0,0,0,-1,965,1156,0,0
-252,-132,0,0,0,0,0,0,0,0,0,-1,972,1156,0,0
-245,-132,0,0,0,0,0,0,0,0,0,-1,979,1156,0,0
-238,-132,0,0,0,0,0,0,0,0,0,-1,986,1156,0,0
-231,-132,0,0,0,0,0,0,0,0,0,-1,993,1156,0,0
-224,-132,0,0,0,0,0,0,0,0,0,-1,1000,1156,0,0
-217,-132,0,0,0,0,0,0,0,0,0,-1,1007,1156,0,0
-210,-132,0,0,0,0,0,0,0,0,0,-1,1014,1156,0,0
-203,-132,0,0,0,0,0,0,0,0,0,-1,1021,1156,0,0
-196,-132,0,0,0,0,0,0,0,0,0,-1,1028,1156,0,0
-189,-132,0,0,0,0,0,0,0,0,0,-1,1035,1156,0,0
-182,-132,0,0,0,0,0,0,0,0,0,-1,1042,1156,0,0
-175,-132,0,0,0,0,0,0,0,0,0,-1,1049,1156,0,0
-168,-132,0,0,0,0,0,0,0,0,0,-1,1056,1156,0,0
-161,-132,0,0,0,0,0,0,0,0,0,-1,1063,1156,0,0
-154,-132,0,0,0,0,0,0,0,0,0,-1,1070,1156,0,0
-147,-132,0,0,0,0,0,0,0,0,0,-1,1077,1156,0,0
-140,-132,0,0,0,0,0,0,0,0,0,-1,1084,1156,0,0
-133,-132,0,0,0,0,0,0,0,0,0,-1,1091,1156,0,0
-126,-132,0,0,0,0,0,0,0,0,0,-1,1098,1156,0,0
-119,-132,0,0,0,0,0,0,0,0,0,-1,1105,1156,0,0
-112,-132,0,0,0,0,0,0,0,0,0,-1,1112,1156,0,0
-105,-132,0,0,0,0,0,0,0,0,0,-1,1119,1156,0,0
-98,-132,0,0,0,0,0,0,0,0,0,-1,1126,1156,0,0
-91,-132,0,0,0,0,0,0,0,0,0,-1,1133,1156,0,0
-84,-132,0,0,0,0,0,0,0,0,0,-1,1140,1156,0,0
-77,-132,0,0,0,0,0,0,0,0,0,-1,1147,1156,0,0
-70,-132,0,0,0,0,0,0,0,0,0,-1,1154,1156,0,0
-63,-132,0,0,0,0,0,0,0,0,0,-1,1161,1156,0,0
-56,-132,0,0,0,0,0,0,0,0,0,-1,1168,1156,0,0
-49,-132,0,0,0,0,0,0,0,0,0,-1,1175,1156,0,0
-42,-132,0,0,0,0,0,0,0,0,0,-1,1182,1156,0,0
-35,-132,0,0,0,0,0,0,0,0,0,-1,1189,1156,0,0
-28,-132,0,0,0,0,0,0,0,0,0,-1,1196,1156,0,0
-21,-132,0,0,0,0,0,0,0,0,0,-1,1203,1156,0,0
-14,-132,0,0,0,0,0,0,0,0,0,-1,1210,1156,0,0
-7,-132,0,0,0,0,0,0,0,0,0,-1,1217,1156,0,0
0,-132,0,0,0,0,0,0,0,0,0,-1,1224,1156,0,0
7,-132,0,0,0,0,0,0,0,0,0,-1,1231,1156,0,0
14,-132,0,0,0,0,0,0,0,0,0,-1,1238,1156,0,0
21,-132,0,0,0,0,0,0,0,0,0,-1,1245,1156,0,0
28,-132,0,0,0,0,0,0,0,0,0,-1,1252,1156,0,0
35,-132,0,0,0,0,0,0,0,0,0,-1,1259,1156,0,0
42,-132,0,0,0,0,0,0,0,0,0,-1,1266,1156,0,0
49,-132,0,0,0,0,0,0,0,0,0,-1,1273,1156,0,0
56,-132,0,0,0,0,0,0,0,0,0,-1,1280,1156,0,0
63,-132,0,0,0,0,0,0,0,0,0,-1,1287,1156,0,0
70,-132,0,0,0,0,0,0,0,0,0,-1,1294,1156,0,0
77,-132,0,0,0,0,0,0,0,0,0,-1,1301,1156,0,0
84,-132,0,0,0,0,0,0,0,0,0,-1,1308,1156,0,0
91,-132,0,0,0,0,0,0,0,0,0,-1,1315,1156,0,0
98,-132,0,0,0,0,0,0,0,0,0,-1,1322,1156,0,0
105,-132,0,0,0,0,0,0,0,0,0,-1,1329,1156,0,0
112,-132,0,0,0,0,0,0,0,0,0,-1,1336,1156,0,0
119,-132,0,0,0,0,0,0,0,0,0,-1,1343,1156,0,0
126,-132,0,0,0,0,0,0,0,0,0,-1,1350,1156,0,0
133,-132,0,0,0,0,0,0,0,0,0,-1,1357,1156,0,0
140,-132,0,0,0,0,0,0,0,0,0,-1,1364,1156,0,0
147,-132,0,0,0,0,0,0,0,0,0,-1,1371,1156,0,0
154,-132,0,0,0,0,0,0,0,0,0,-1,1378,1156,0,0
161,-132,0,0,0,0,0,0,0,0,0,-1,1385,1156,0,0
168,-132,0,0,0,0,0,0,0,0,0,-1,1392,1156,0,0
175,-132,0,0,0,0,0,0,0,0,0,-1,1399,1156,0,0
182,-132,0,0,0,0,0,0,0,0,0,-1,1406,1156,0,0
189,-132,0,0,0,0,0,0,0,0,0,-1,1413,1156,0,0
196,-132,0,0,0,0,0,0,0,0,0,-1,1420,1156,0,0
203,-132,0,0,0,0,0,0,0,0,0,-1,1427,1156,0,0
210,-132,0,0,0,0,0,0,0,0,0,-1,1434,1156,0,0
217,-132,0,0,0,0,0,0,0,0,0,-1,1441,1156,0,0
224,-132,0,0,0,0,0,0,0,0,0,-1,1448,1156,0,0
231,-132,0,0,0,0,0,0,0,0,0,-1,1455,1156,0,0
238,-132,0,0,0,0,0,0,0,0,0,-1,1462,1156,0,0
245,-132,0,0,0,0,0,0,0,0,0,-1,1469,1156,0,0
252,-132,0,0,0,0,0,0,0,0,0,-1,1476,1156,0,0
259,-132,0,0,0,0,0,0,0,0,0,-1,1483,1156,0,0
266,-132,0,0,0,0,0,0,0,0,0,-1,1490,1156,0,0
273,-132,0,0,0,0,0,0,0,0,0,-1,1497,1156,0,0
280,-132,0,0,0,0,0,0,0,0,0,-1,1504,1156,0,0
287,-132,0,0,0,0,0,0,0,0,0,-1,1511,1156,0,0
294,-132,0,0,0,0,0,0,0,0,0,-1,1518,1156,0,0
301,-132,0,0,0,0,0,0,0,0,0,-1,1525,1156,0,0
308,-132,0,0,0,0,0,0,0,0,0,-1,1532,1156,0,0
315,-132,0,0,0,0,0,0,0,0,0,-1,1539,1156,0,0
322,-132,0,0,0,0,0,0,0,0,0,-1,1546,1156,0,0
329,-132,0,0,0,0,0,0,0,0,0,-1,1553,1156,0,0
336,-132,0,0,0,0,0,0,0,0,0,-1,1560,1156,0,0
343,-132,0,0,0,0,0,0,0,0,0,-1,1567,1156,0,0
350,-132,0,0,0,0,0,0,0,0,0,-1,1574,1156,0,0
357,-132,0,0,0,0,0,0,0,0,0,-1,1581,1156,0,0
364,-132,0,0,0,0,0,0,0,0,0,-1,1588,1156,0,0
371,-132,0,0,0,0,0,0,0,0,0,-1,1595,1156,0,0
378,-132,0,0,0,0,0,0,0,0,0,-1,1602,1156,0,0
385,-132,0,0,0,0,0,0,0,0,0,-1,1609,1156,0,0
392,-132,0,0,0,0,0,0,0,0,0,-1,1616,1156,0,0
399,-132,0,0,0,0,0,0,0,0,0,-1,1623,1156,0,0
406,-132,0,0,0,0,0,0,0,0,0,-1,1630,1156,0,0
413,-132,0,0,0,0,0,0,0,0,0,-1,1637,1156,0,0
420,-132,0,0,0,0,0,0,0,0,0,-1,1644,1156,0,0
427,-132,0,0,0,0,0,0,0,0,0,-1,1651,1156,0,0
434,-132,0,0,0,0,0,0,0,0,0,-1,1658,1156,0,0
441,-132,0,0,0,0,0,0,0,0,0,-1,1665,1156,0,0
448,-132,0,0,0,0,0,0,0,0,0,-1,1672,1156,0,0
455,-132,0,0,0,0,0,0,0,0,0,-1,1679,1156,0,0
462,-132,0,0,0,0,0,0,0,0,0,-1,1686,1156,0,0
469,-132,0,0,0,0,0,0,0,0,0,-1,1693,1156,0,0
476,-132,0,0,0,0,0,0,0,0,0,-1,1700,1156,0,0
483,-132,0,0,0,0,0,0,0,0,0,-1,1707,1156,0,0
490,-132,0,0,0,0,0,0,0,0,0,-1,1714,1156,0,0
497,-132,0,0,0,0,0,0,0,0,0,-1,1721,1156,0,0
504,-132,0,0,0,0,0,0,0,0,0,-1,1728,1156,0,0
511,-132,0,0,0,0,0,0,0,0,0,-1,1735,1156,0,0
518,-132,0,0,0,0,0,0,0,0,0,-1,1742,1156,0,0
525,-132,0,0,0,0,0,0,0,0,0,-1,1749,1156,0,0
532,-132,0,0,0,0,0,0,0,0,0,-1,1756,1156,0,0
539,-132,0,0,0,0,0,0,0,0,0,-1,1763,1156,0,0
546,-132,0,0,0,0,0,0,0,0,0,-1,1770,1156,0,0
553,-132,0,0,0,0,0,0,0,0,0,-1,1777,1156,0,0
560,-132,0,0,0,0,0,0,0,0,0,-1,1784,1156,0,0
567,-132,0,0,0,0,0,0,0,0,0,-1,1791,1156,0,0
574,-132,0,0,0,0,0,0,0,0,0,-1,1798,1156,0,0
581,-132,0,0,0,0,0,0,0,0,0,-1,1805,1156,0,0
588,-132,0,0,0,0,0,0,0,0,0,-1,1812,1156,0,0
595,-132,0,0,0,0,0,0,0,0,0,-1,1819,1156,0,0
602,-132,0,0,0,0,0,0,0,0,0,-1,1826,1156,0,0
609,-132,0,0,0,0,0,0,0,0,0,-1,1833,1156,0,0
616,-132,0,0,0,0,0,0,0,0,0,-1,1840,1156,0,0
623,-132,0,0,0,0,0,0,0,0,0,-1,1847,1156,0,0
630,-132,0,0,0,0,0,0,0,0,0,-1,1854,1156,0,0
637,-132,0,0,0,0,0,0,0,0,0,-1,1861,1156,0,0
644,-132,79.9928,2.2135,0.00152317,-0.00355838,5.95965e-05,0.00152387,-0.00355908,0.0117259,0.00301203,0.0441857,1868,1156,79.9929,-2.21344
651,-132,79.8962,2.21008,0.000514938,-0.0025484,7.90643e-05,0.000516978,-0.00255044,0.025787,0.00189625,0.0407441,1875,1156,79.8962,-2.21005
658,-132,79.9336,2.16553,1.36574e-05,-0.001739,5.07497e-05,1.51257e-05,-0.00174047,0.0289236,0.00116539,0.0417026,1882,1156,79.9336,-2.16557
665,-132,79.8392,2.29028,-0.000246356,-0.00100097,-6.33131e-05,-0.00024108,-0.00100624,-0.0831269,0.000606653,0.0427625,1889,1156,79.8393,-2.29022
672,-132,79.8815,2.23315,-0.000279671,-0.000317531,-0.000264301,-3.36231e-05,-0.000563579,-0.749648,0.000365028,0.0402351,1896,1156,79.8815,-2.23317
679,-132,79.9874,2.13562,-3.84626e-05,-0.000181477,-0.000264571,0.000164095,-0.000384034,-0.653414,0.000324843,0.0368488,1903,1156,79.9874,-2.13563
686,-132,79.936,2.16309,0.000395763,-0.000268374,-0.000296941,0.000509165,-0.000381775,-0.364805,0.000516134,0.034077,1910,1156,79.936,-2.1631
693,-132,79.8733,2.26904,0.000282111,-0.000395348,-4.73315e-05,0.000285402,-0.000398639,-0.0694166,0.000396731,0.0256501,1917,1156,79.8732,-2.26902
700,-132,79.9794,2.24548,0,0,0,0,0,0,0,-1,1924,1156,79.9794,-2.24547
707,-132,57.9275,3.01367,0,0,0,0,0,0,0,-1,1931,1156,57.9275,-3.01369
714,-132,57.8083,9.22156,0,0,0,0,0,0,0,-1,1938,1156,57.8084,-9.22151
721,-132,71.1564,10.5509,0,0,0,0,0,0,0,-1,1945,1156,71.1563,-10.5509
728,-132,71.0596,9.99451,-0.000229969,0.000208107,0.00109954,0.00111021,-0.00113207,0.883716,0.0012946,0.0328216,1952,1156,71.0595,-9.99447
735,-132,71.026,9.30164,-0.000435475,0.000156834,0.00134451,0.00123742,-0.00151606,0.893802,0.00159243,0.0340727,1959,1156,71.026,-9.3016
742,-132,70.9727,8.58093,-0.000657529,0.000252289,0.00169615,0.00155348,-0.00195872,0.916415,0.00203226,0.0303086,1966,1156,70.9726,-8.58099
749,-132,70.8623,7.85571,-0.00172121,0.000966521,0.0020225,0.00205092,-0.00280561,1.07863,0.00281518,0.024946,1973,1156,70.8623,-7.85569
756,-132,70.8599,7.1261,-0.0040034,0.00215821,0.00203805,0.00277132,-0.00461651,1.27858,0.00430949,0.0251055,1980,1156,70.8598,-7.12608
763,-132,70.8899,6.45215,-0.00703494,0.0030396,0.00183059,0.00336192,-0.00735726,1.39651,0.00633039,0.0149891,1987,1156,70.8899,-6.45217
770,-132,70.8462,5.77661,-0.0106832,0.00328094,0.00148345,0.00343679,-0.010839,1.46612,0.00860354,0.0146498,1994,1156,70.8463,-5.77665
777,-132,70.6882,5.02051,-0.0150261,0.00267552,0.000995191,0.0027313,-0.0150818,1.51481,0.0110778,0.0267724,2001,1156,70.6882,-5.02048
784,-132,70.5388,4.29602,-0.0205671,0.000473234,0.000360832,0.000479421,-0.0205733,1.55365,0.0138781,0.047244,2008,1156,70.5388,-4.29608
791,-132,70.4795,3.59009,0,0,0,0,0,0,0,-1,2015,1156,70.4795,-3.59005
798,-132,73.2852,-4.60278,0,0,0,0,0,0,0,-1,2022,1156,73.285,4.60284
805,-132,73.0271,0.386841,0,0,0,0,0,0,0,-1,2029,1156,73.0272,-0.386832
812,-132,73.3503,-0.32959,0,0,0,0,0,0,0,-1,2036,1156,73.3504,0.329639
-700,-139,0,0,0,0,0,0,0,0,0,-1,524,1163,0,0
-693,-139,-57.6978,4.22949,0.0924339,-0.0775577,0.0409242,0.101773,-0.0868968,0.224363,0.109041,0.046523,531,1163,-57.6978,-4.22952
-686,-139,-56.7854,4.78284,0.0839524,-0.0732335,0.0350606,0.0914181,-0.0806992,0.209804,0.0994362,0.0499631,538,1163,-56.7854,-4.78285
-679,-139,-56.6084,4.75146,0,0,0,0,0,0,0,-1,545,1163,-56.6084,-4.75145
-672,-139,-56.6168,5.38135,0,0,0,0,0,0,0,-1,552,1163,-56.6168,-5.38133
-665,-139,-56.6252,6.01123,0,0,0,0,0,0,0,-1,559,1163,-56.6252,-6.01122
-658,-139,-54.7982,1.91382,0,0,0,0,0,0,0,-1,566,1163,-54.7982,-1.91385
-651,-139,-53.812,3.67273,0,0,0,0,0,0,0,-1,573,1163,-53.812,-3.67276
-644,-139,-53.8013,4.50745,0.0163302,-0.0161087,0.00639258,0.0175445,-0.017323,0.187718,0.0201309,0.0322771,580,1163,-53.8013,-4.50741
-637,-139,-53.9273,5.16882,0.00707276,-0.00852402,0.00284473,0.00757542,-0.00902667,0.174892,0.00959742,0.0181602,587,1163,-53.9273,-5.16888
-630,-139,-53.9423,5.89172,-0.00116362,-0.00178122,-0.00073386,-0.000676233,-0.0022686,-0.586249,0.00134491,0.0111632,594,1163,-53.9423,-5.89172
-623,-139,-53.9564,6.61951,-0.00774087,0.00283246,-0.00298668,0.00361778,-0.0085262,-1.31367,0.0071997,0.0168023,601,1163,-53.9564,-6.61951
-616,-139,-54.0927,7.38062,-0.00966901,0.00264811,-0.00354419,0.00359512,-0.010616,-1.3097,0.00853205,0.0232495,608,1163,-54.0927,-7.38067
-609,-139,-54.29,8.21875,0,0,0,0,0,0,0,-1,615,1163,-54.29,-8.21871
-602,-139,-50.4112,7.96228,0,0,0,0,0,0,0,-1,622,1163,-50.4112,-7.96224
-595,-139,-50.6539,8.62317,0,0,0,0,0,0,0,-1,629,1163,-50.6539,-8.62318
-588,-139,-51.0773,9.1781,0,0,0,0,0,0,0,-1,636,1163,-51.0773,-9.17806
-581,-139,-34.4892,6.72473,0,0,0,0,0,0,0,-1,643,1163,-34.4892,-6.72476
-574,-139,-23.0725,2.4043,0,0,0,0,0,0,0,-1,650,1163,-23.0725,-2.40433
-567,-139,-63.0825,0.355957,0,0,0,0,0,0,0,-1,657,1163,-63.0825,-0.356
-560,-139,-63.1044,0.451904,-0.00115898,0.00103938,0.000290506,0.00107712,-0.00119672,1.4416,0.00131341,0.0399378,664,1163,-63.1043,-0.451894
-553,-139,-63.0655,0.545288,0.000443947,0.0009983,0.00124562,0.00199721,-0.000554963,0.894875,0.00154994,0.0396404,671,1163,-63.0655,-0.545316
-546,-139,-63.246,0.672119,0.000385905,0.00154474,-0.000104698,0.00155413,0.000376521,-1.48141,0.000936165,0.0427024,678,1163,-63.246,-0.672123
-539,-139,-63.0823,0.567139,0.000701372,0.00225147,-0.00191717,0.00354432,-0.000591486,-0.977488,0.00258272,0.0428177,685,1163,-63.0823,-0.567118
-532,-139,-62.936,0.365967,0.00114159,0.00324587,-0.00387704,0.006211,-0.00182354,-0.917896,0.00486383,0.0422411,692,1163,-62.936,-0.365914
-525,-139,-62.9574,0.243042,0.00162647,0.00466598,-0.00592559,0.0092636,-0.00297115,-0.910929,0.00736857,0.0419916,699,1163,-62.9574,-0.243085
-518,-139,0,0,0,0,0,0,0,0,0,-1,706,1163,0,0
-511,-139,0,0,0,0,0,0,0,0,0,-1,713,1163,0,0
-504,-139,0,0,0,0,0,0,0,0,0,-1,720,1163,0,0
-497,-139,0,0,0,0,0,0,0,0,0,-1,727,1163,0,0
-490,-139,0,0,0,0,0,0,0,0,0,-1,734,1163,0,0
-483,-139,0,0,0,0,0,0,0,0,0,-1,741,1163,0,0
-476,-139,0,0,0,0,0,0,0,0,0,-1,748,1163,0,0
-469,-139,0,0,0,0,0,0,0,0,0,-1,755,1163,0,0
-462,-139,0,0,0,0,0,0,0,0,0,-1,762,1163,0,0
-455,-139,0,0,0,0,0,0,0,0,0,-1,769,1163,0,0
-448,-139,0,0,0,0,0,0,0,0,0,-1,776,1163,0,0
-441,-139,0,0,0,0,0,0,0,0,0,-1,783,1163,0,0
-434,-139,0,0,0,0,0,0,0,0,0,-1,790,1163,0,0
-427,-139,0,0,0,0,0,0,0,0,0,-1,797,1163,0,0
-420,-139,0,0,0,0,0,0,0,0,0,-1,804,1163,0,0
-413,-139,0,0,0,0,0,0,0,0,0,-1,811,1163,0,0
-406,-139,0,0,0,0,0,0,0,0,0,-1,818,1163,0,0
-399,-139,0,0,0,0,0,0,0,0,0,-1,825,1163,0,0
-392,-139,0,0,0,0,0,0,0,0,0,-1,832,1163,0,0
-385,-139,0,0,0,0,0,0,0,0,0,-1,839,1163,0,0
-378,-139,0,0,0,0,0,0,0,0,0,-1,846,1163,0,0
-371,-139,0,0,0,0,0,0,0,0,0,-1,853,1163,0,0
-364,-139,0,0,0,0,0,0,0,0,0,-1,860,1163,0,0
-357,-139,0,0,0,0,0,0,0,0,0,-1,867,1163,0,0
-350,-139,0,0,0,0,0,0,0,0,0,-1,874,1163,0,0
-343,-139,0,0,0,0,0,0,0,0,0,-1,881,1163,0,0
-336,-139,0,0,0,0,0,0,0,0,0,-1,888,1163,0,0
-329,-139,0,0,0,0,0,0,0,0,0,-1,895,1163,0,0
-322,-139,0,0,0,0,0,0,0,0,0,-1,902,1163,0,0
-315,-139,0,0,0,0,0,0,0,0,0,-1,909,1163,0,0
-308,-139,0,0,0,0,0,0,0,0,0,-1,916,1163,0,0
-301,-139,0,0,0,0,0,0,0,0,0,-1,923,1163,0,0
-294,-139,0,0,0,0,0,0,0,0,0,-1,930,1163,0,0
-287,-139,0,0,0,0,0,0,0,0,0,-1,937,1163,0,0
-280,-139,0,0,0,0,0,0,0,0,0,-1,944,1163,0,0
-273,-139,0,0,0,0,0,0,0,0,0,-1,951,1163,0,0
-266,-139,0,0,0,0,0,0,0,0,0,-1,958,1163,0,0
-259,-139,0,0,0,0,0,0,0,0,0,-1,965,1163,0,0
-252,-139,0,0,0,0,0,0,0,0,0,-1,972,1163,0,0
-245,-139,0,0,0,0,0,0,0,0,0,-1,979,1163,0,0
-238,-139,0,0,0,0,0,0,0,0,0,-1,986,1163,0,0
-231,-139,0,0,0,0,0,0,0,0,0,-1,993,1163,0,0
-224,-139,0,0,0,0,0,0,0,0,0,-1,1000,1163,0,0
-217,-139,0,0,0,0,0,0,0,0,0,-1,1007,1163,0,0
-210,-139,0,0,0,0,0,0,0,0,0,-1,1014,1163,0,0
-203,-139,0,0,0,0,0,0,0,0,0,-1,1021,1163,0,0
-196,-139,0,0,0,0,0,0,0,0,0,-1,1028,1163,0,0
-189,-139,0,0,0,0,0,0,0,0,0,-1,1035,1163,0,0
-182,-139,0,0,0,0,0,0,0,0,0,-1,1042,1163,0,0
-175,-139,0,0,0,0,0,0,0,0,0,-1,1049,1163,0,0
-168,-139,0,0,0,0,0,0,0,0,0,-1,1056,1163,0,0
-161,-139,0,0,0,0,0,0,0,0,0,-1,1063,1163,0,0
-154,-139,0,0,0,0,0,0,0,0,0,-1,1070,1163,0,0
-147,-139,0,0,0,0,0,0,0,0,0,-1,1077,1163,0,0
-140,-139,0,0,0,0,0,0,0,0,0,-1,1084,1163,0,0
-133,-139,0,0,0,0,0,0,0,0,0,-1,1091,1163,0,0
-126,-139,0,0,0,0,0,0,0,0,0,-1,1098,1163,0,0
-119,-139,0,0,0,0,0,0,0,0,0,-1,1105,1163,0,0
-112,-139,0,0,0,0,0,0,0,0,0,-1,1112,1163,0,0
-105,-139,0,0,0,0,0,0,0,0,0,-1,1119,1163,0,0
-98,-139,0,0,0,0,0,0,0,0,0,-1,1126,1163,0,0
-91,-139,0,0,0,0,0,0,0,0,0,-1,1133,1163,0,0
-84,-139,0,0,0,0,0,0,0,0,0,-1,1140,1163,0,0
-77,-139,0,0,0,0,0,0,0,0,0,-1,1147,1163,0,0
-70,-139,0,0,0,0,0,0,0,0,0,-1,1154,1163,0,0
-63,-139,0,0,0,0,0,0,0,0,0,-1,1161,1163,0,0
-56,-139,0,0,0,0,0,0,0,0,0,-1,1168,1163,0,0
-49,-139,0,0,0,0,0,0,0,0,0,-1,1175,1163,0,0
-42,-139,0,0,0,0,0,0,0,0,0,-1,1182,1163,0,0
-35,-139,0,0,0,0,0,0,0,0,0,-1,1189,1163,0,0
-28,-139,0,0,0,0,0,0,0,0,0,-1,1196,1163,0,0
-21,-139,0,0,0,0,0,0,0,0,0,-1,1203,1163,0,0
-14,-139,0,0,0,0,0,0,0,0,0,-1,1210,1163,0,0
-7,-139,0,0,0,0,0,0,0,0,0,-1,1217,1163,0,0
0,-139,0,0,0,0,0,0,0,0,0,-1,1224,1163,0,0
7,-139,0,0,0,0,0,0,0,0,0,-1,1231,1163,0,0
14,-139,0,0,0,0,0,0,0,0,0,-1,1238,1163,0,0
21,-139,0,0,0,0,0,0,0,0,0,-1,1245,1163,0,0
28,-139,0,0,0,0,0,0,0,0,0,-1,1252,1163,0,0
35,-139,0,0,0,0,0,0,0,0,0,-1,1259,1163,0,0
42,-139,0,0,0,0,0,0,0,0,0,-1,1266,1163,0,0
49,-139,0,0,0,0,0,0,0,0,0,-1,1273,1163,0,0
56,-139,0,0,0,0,0,0,0,0,0,-1,1280,1163,0,0
63,-139,0,0,0,0,0,0,0,0,0,-1,1287,1163,0,0
70,-139,0,0,0,0,0,0,0,0,0,-1,1294,1163,0,0
77,-139,0,0,0,0,0,0,0,0,0,-1,1301,1163,0,0
84,-139,0,0,0,0,0,0,0,0,0,-1,1308,1163,0,0
91,-139,0,0,0,0,0,0,0,0,0,-1,1315,1163,0,0
98,-139,0,0,0,0,0,0,0,0,0,-1,1322,1163,0,0
105,-139,0,0,0,0,0,0,0,0,0,-1,1329,1163,0,0
112,-139,0,0,0,0,0,0,0,0,0,-1,1336,1163,0,0
119,-139,0,0,0,0,0,0,0,0,0,-1,1343,1163,0,0
126,-139,0,0,0,0,0,0,0,0,0,-1,1350,1163,0,0
133,-139,0,0,0,0,0,0,0,0,0,-1,1357,1163,0,0
140,-139,0,0,0,0,0,0,0,0,0,-1,1364,1163,0,0
147,-139,0,0,0,0,0,0,0,0,0,-1,1371,1163,0,0
154,-139,0,0,0,0,0,0,0,0,0,-1,1378,1163,0,0
161,-139,0,0,0,0,0,0,0,0,0,-1,1385,1163,0,0
168,-139,0,0,0,0,0,0,0,0,0,-1,1392,1163,0,0
175,-139,0,0,0,0,0,0,0,0,0,-1,1399,1163,0,0
182,-139,0,0,0,0,0,0,0,0,0,-1,1406,1163,0,0
189,-139,0,0,0,0,0,0,0,0,0,-1,1413,1163,0,0
196,-139,0,0,0,0,0,0,0,0,0,-1,1420,1163,0,0
203,-139,0,0,0,0,0,0,0,0,0,-1,1427,1163,0,0
210,-139,0,0,0,0,0,0,0,0,0,-1,1434,1163,0,0
217,-139,0,0,0,0,0,0,0,0,0,-1,1441,1163,0,0
224,-139,0,0,0,0,0,0,0,0,0,-1,1448,1163,0,0
231,-139,0,0,0,0,0,0,0,0,0,-1,1455,1163,0,0
238,-139,0,0,0,0,0,0,0,0,0,-1,1462,1163,0,0
245,-139,0,0,0,0,0,0,0,0,0,-1,1469,1163,0,0
252,-139,0,0,0,0,0,0,0,0,0,-1,1476,1163,0,0
259,-139,0,0,0,0,0,0,0,0,0,-1,1483,1163,0,0
266,-139,0,0,0,0,0,0,0,0,0,-1,1490,1163,0,0
273,-139,0,0,0,0,0,0,0,0,0,-1,1497,1163,0,0
280,-139,0,0,0,0,0,0,0,0,0,-1,1504,1163,0,0
287,-139,0,0,0,0,0,0,0,0,0,-1,1511,1163,0,0
294,-139,0,0,0,0,0,0,0,0,0,-1,1518,1163,0,0
301,-139,0,0,0,0,0,0,0,0,0,-1,1525,1163,0,0
308,-139,0,0,0,0,0,0,0,0,0,-1,1532,1163,0,0
315,-139,0,0,0,0,0,0,0,0,0,-1,1539,1163,0,0
322,-139,0,0,0,0,0,0,0,0,0,-1,1546,1163,0,0
329,-139,0,0,0,0,0,0,0,0,0,-1,1553,1163,0,0
336,-139,0,0,0,0,0,0,0,0,0,-1,1560,1163,0,0
343,-139,0,0,0,0,0,0,0,0,0,-1,1567,1163,0,0
350,-139,0,0,0,0,0,0,0,0,0,-1,1574,1163,0,0
357,-139,0,0,0,0,0,0,0,0,0,-1,1581,1163,0,0
364,-139,0,0,0,0,0,0,0,0,0,-1,1588,1163,0,0
371,-139,0,0,0,0,0,0,0,0,0,-1,1595,1163,0,0
378,-139,0,0,0,0,0,0,0,0,0,-1,1602,1163,0,0
385,-139,0,0,0,0,0,0,0,0,0,-1,1609,1163,0,0
392,-139,0,0,0,0,0,0,0,0,0,-1,1616,1163,0,0
399,-139,0,0,0,0,0,0,0,0,0,-1,1623,1163,0,0
406,-139,0,0,0,0,0,0,0,0,0,-1,1630,1163,0,0
413,-139,0,0,0,0,0,0,0,0,0,-1,1637,1163,0,0
420,-139,0,0,0,0,0,0,0,0,0,-1,1644,1163,0,0
427,-139,0,0,0,0,0,0,0,0,0,-1,1651,1163,0,0
434,-139,0,0,0,0,0,0,0,0,0,-1,1658,1163,0,0
441,-139,0,0,0,0,0,0,0,0,0,-1,1665,1163,0,0
448,-139,0,0,0,0,0,0,0,0,0,-1,1672,1163,0,0
455,-139,0,0,0,0,0,0,0,0,0,-1,1679,1163,0,0
462,-139,0,0,0,0,0,0,0,0,0,-1,1686,1163,0,0
469,-139,0,0,0,0,0,0,0,0,0,-1,1693,1163,0,0
476,-139,0,0,0,0,0,0,0,0,0,-1,1700,1163,0,0
483,-139,0,0,0,0,0,0,0,0,0,-1,1707,1163,0,0
490,-139,0,0,0,0,0,0,0,0,0,-1,1714,1163,0,0
497,-139,0,0,0,0,0,0,0,0,0,-1,1721,1163,0,0
504,-139,0,0,0,0,0,0,0,0,0,-1,1728,1163,0,0
511,-139,0,0,0,0,0,0,0,0,0,-1,1735,1163,0,0
518,-139,0,0,0,0,0,0,0,0,0,-1,1742,1163,0,0
525,-139,0,0,0,0,0,0,0,0,0,-1,1749,1163,0,0
532,-139,0,0,0,0,0,0,0,0,0,-1,1756,1163,0,0
539,-139,0,0,0,0,0,0,0,0,0,-1,1763,1163,0,0
546,-139,0,0,0,0,0,0,0,0,0,-1,1770,1163,0,0
553,-139,0,0,0,0,0,0,0,0,0,-1,1777,1163,0,0
560,-139,0,0,0,0,0,0,0,0,0,-1,1784,1163,0,0
567,-139,0,0,0,0,0,0,0,0,0,-1,1791,1163,0,0
574,-139,0,0,0,0,0,0,0,0,0,-1,1798,1163,0,0
581,-139,0,0,0,0,0,0,0,0,0,-1,1805,1163,0,0
588,-139,0,0,0,0,0,0,0,0,0,-1,1812,1163,0,0
595,-139,0,0,0,0,0,0,0,0,0,-1,1819,1163,0,0
602,-139,0,0,0,0,0,0,0,0,0,-1,1826,1163,0,0
609,-139,0,0,0,0,0,0,0,0,0,-1,1833,1163,0,0
616,-139,0,0,0,0,0,0,0,0,0,-1,1840,1163,0,0
623,-139,0,0,0,0,0,0,0,0,0,-1,1847,1163,0,0
630,-139,0,0,0,0,0,0,0,0,0,-1,1854,1163,0,0
637,-139,0,0,0,0,0,0,0,0,0,-1,1861,1163,0,0
644,-139,80.2161,2.07483,0.00150823,-0.00306274,0.000208887,0.00151776,-0.00307226,0.045572,0.00270023,0.0435482,1868,1163,80.2161,-2.0748
651,-139,80.192,2.02869,0.000581313,-0.0020795,0.000121651,0.000586863,-0.00208505,0.0455928,0.00162145,0.0413105,1875,1163,80.192,-2.02865
658,-139,80.0673,2.05591,7.55294e-05,-0.00126705,-3.32477e-06,7.55377e-05,-0.00126706,-0.00247639,0.000870976,0.0417937,1882,1163,80.0673,-2.05593
665,-139,79.9575,2.34753,-0.000212544,-0.000522333,-0.000200293,-0.00011424,-0.000620637,-0.456262,0.000381424,0.0388219,1889,1163,79.9575,-2.34759
672,-139,79.951,2.46143,-0.000281591,0.000168165,-0.000473717,0.00046767,-0.000581096,-1.007,0.000606685,0.0360417,1896,1163,79.951,-2.46148
679,-139,80.0203,2.34741,-4.83239e-05,0.000283362,-0.000507306,0.000651245,-0.000416207,-0.943377,0.000621254,0.0320183,1903,1163,80.0203,-2.34741
686,-139,79.8577,2.31104,0.000418138,0.000151183,-0.000536963,0.000837965,-0.000268644,-0.663578,0.00066649,0.0317558,1910,1163,79.8577,-2.31106
693,-139,79.9076,2.25427,0.000232064,-2.58858e-05,-0.000228924,0.000365845,-0.000159667,-0.528863,0.000311091,0.0227197,1917,1163,79.9076,-2.25422
700,-139,80.0168,2.17334,0,0,0,0,0,0,0,-1,1924,1163,80.0169,-2.17329
707,-139,32.116,6.54346,0,0,0,0,0,0,0,-1,1931,1163,32.116,-6.54343
714,-139,62.1425,10.1428,0,0,0,0,0,0,0,-1,1938,1163,62.1424,-10.1428
721,-139,69.8052,10.4543,0,0,0,0,0,0,0,-1,1945,1163,69.8052,-10.4543
728,-139,70.3477,10.127,0,0,0,0,0,0,0,-1,1952,1163,70.3477,-10.127
735,-139,70.2421,9.37231,-9.15125e-05,0.000242328,0.00120946,0.00129633,-0.00114551,0.853971,0.00141069,0.037794,1959,1163,70.242,-9.37237
742,-139,70.2678,8.51074,-0.000265747,0.000193065,0.0015678,0.00154815,-0.00162084,0.858045,0.00182978,0.0270974,1966,1163,70.2678,-8.51071
749,-139,70.2017,7.80969,-0.00138265,0.000839334,0.00187316,0.0019062,-0.00244951,1.05307,0.00252128,0.0203333,1973,1163,70.2016,-7.8097
756,-139,70.1389,7.14233,-0.00366754,0.00209477,0.00182201,0.00262254,-0.00419531,1.28885,0.00397105,0.0119729,1980,1163,70.1389,-7.14231
763,-139,70.1108,6.43005,-0.00658988,0.00304274,0.00153121,0.00328028,-0.00682743,1.41689,0.00595427,0.0126054,1987,1163,70.1108,-6.43005
770,-139,70.0898,5.74707,-0.0100643,0.00340782,0.00111034,0.00349872,-0.0101552,1.48911,0.00818942,0.013287,1994,1163,70.0898,-5.74701
777,-139,70.0115,5.01624,-0.014189,0.0029959,0.000535742,0.00301259,-0.0142057,1.53966,0.0106181,0.0261416,2001,1163,70.0116,-5.0162
784,-139,69.7444,4.22742,-0.0194475,0.000990581,-0.000210799,0.000992754,-0.0194497,-1.56048,0.0133097,0.0422949,2008,1163,69.7445,-4.22739
791,-139,69.5576,3.42139,0,0,0,0,0,0,0,-1,2015,1163,69.5575,-3.42142
798,-139,72.6167,0.257446,0,0,0,0,0,0,0,-1,2022,1163,72.6167,-0.257404
805,-139,73.0437,-0.215698,0,0,0,0,0,0,0,-1,2029,1163,73.0437,0.215737
812,-139,0,0,0,0,0,0,0,0,0,-1,2036,1163,0,0
-700,-146,0,0,0,0,0,0,0,0,0,-1,524,1170,0,0
-693,-146,-57.492,4.68994,0.102789,-0.0790019,0.0426747,0.112308,-0.0885211,0.219472,0.11622,0.0431463,531,1170,-57.492,-4.68992
-686,-146,-56.9395,5.13086,0.096177,-0.0736248,0.0385541,0.104521,-0.0819687,0.213132,0.107932,0.0498101,538,1170,-56.9396,-5.13083
-679,-146,-56.4187,5.59729,0,0,0,0,0,0,0,-1,545,1170,-56.4187,-5.59731
-672,-146,-56.0251,5.92395,0.0714708,-0.0537304,0.0282846,0.0775641,-0.0598237,0.212186,0.079541,0.0428383,552,1170,-56.0251,-5.92392
-665,-146,-55.5096,5.94995,0.0589037,-0.043545,0.0232557,0.0639355,-0.0485768,0.213087,0.0651605,0.0449612,559,1170,-55.5096,-5.95001
-658,-146,-55.0266,6.18408,0,0,0,0,0,0,0,-1,566,1170,-55.0266,-6.18405
-651,-146,-52.8506,3.63184,0,0,0,0,0,0,0,-1,573,1170,-52.8506,-3.63179
-644,-146,-53.0023,4.44189,0.022735,-0.0156877,0.00904667,0.0247585,-0.0177112,0.22005,0.0246321,0.0317114,580,1170,-53.0023,-4.44195
-637,-146,-53.1326,5.16846,0.0116861,-0.00809438,0.00485673,0.0128142,-0.00922252,0.228237,0.0127791,0.0144981,587,1170,-53.1326,-5.1684
-630,-146,-53.1665,5.90906,0.00178664,-0.00158607,0.000514727,0.00186345,-0.00166287,0.148124,0.00203702,0.0111239,594,1170,-53.1665,-5.90906
-623,-146,-53.1967,6.62915,-0.00679004,0.00296083,-0.00280718,0.00371124,-0.00754045,-1.30959,0.00662037,0.0140237,601,1170,-53.1967,-6.62914
-616,-146,-53.304,7.36511,-0.0103977,0.00309874,-0.00464697,0.00454398,-0.0118429,-1.26927,0.00976879,0.021804,608,1170,-53.304,-7.36514
-609,-146,-53.4011,8.08704,0,0,0,0,0,0,0,-1,615,1170,-53.4011,-8.08699
-602,-146,-49.7178,7.99854,0,0,0,0,0,0,0,-1,622,1170,-49.7178,-7.99849
-595,-146,-49.8962,8.69519,0,0,0,0,0,0,0,-1,629,1170,-49.8963,-8.6952
-588,-146,-45.0034,7.81934,0,0,0,0,0,0,0,-1,636,1170,-45.0034,-7.81931
-581,-146,-31.7815,6.30347,0,0,0,0,0,0,0,-1,643,1170,-31.7815,-6.3035
-574,-146,-17.9915,3.79114,0,0,0,0,0,0,0,-1,650,1170,-17.9915,-3.79118
-567,-146,-44.4572,0.6604,0,0,0,0,0,0,0,-1,657,1170,-44.4572,-0.660404
-560,-146,-63.1393,0.559204,0,0,0,0,0,0,0,-1,664,1170,-63.1393,-0.559237
-553,-146,-63.0687,0.730347,0.000276251,0.0013552,0.000524749,0.00156831,6.31332e-05,1.18501,0.00102515,0.0383139,671,1170,-63.0687,-0.730364
-546,-146,-63.2062,0.773071,0.000247495,0.00207709,-0.000335329,0.00213661,0.000187972,-1.39512,0.00136607,0.0429345,678,1170,-63.2062,-0.77301
-539,-146,-63.0762,0.526855,0.000902894,0.00298789,-0.00181276,0.00403654,-0.000145759,-1.04635,0.00274091,0.0442874,685,1170,-63.0763,-0.526849
-532,-146,-62.9114,0.319702,0.00175266,0.00422004,-0.00362301,0.00681364,-0.000840951,-0.949498,0.00484712,0.0415855,692,1170,-62.9115,-0.319756
-525,-146,-62.9639,0.291504,0.00276781,0.00594333,-0.00586458,0.0104313,-0.00172014,-0.917597,0.0075928,0.0419648,699,1170,-62.9639,-0.291466
-518,-146,0,0,0,0,0,0,0,0,0,-1,706,1170,0,0
-511,-146,0,0,0,0,0,0,0,0,0,-1,713,1170,0,0
-504,-146,0,0,0,0,0,0,0,0,0,-1,720,1170,0,0
-497,-146,0,0,0,0,0,0,0,0,0,-1,727,1170,0,0
-490,-146,0,0,0,0,0,0,0,0,0,-1,734,1170,0,0
-483,-146,0,0,0,0,0,0,0,0,0,-1,741,1170,0,0
-476,-146,0,0,0,0,0,0,0,0,0,-1,748,1170,0,0
-469,-146,0,0,0,0,0,0,0,0,0,-1,755,1170,0,0
-462,-146,0,0,0,0,0,0,0,0,0,-1,762,1170,0,0
-455,-146,0,0,0,0,0,0,0,0,0,-1,769,1170,0,0
-448,-146,0,0,0,0,0,0,0,0,0,-1,776,1170,0,0
-441,-146,0,0,0,0,0,0,0,0,0,-1,783,1170,0,0
-434,-146,0,0,0,0,0,0,0,0,0,-1,790,1170,0,0
-427,-146,0,0,0,0,0,0,0,0,0,-1,797,1170,0,0
-420,-146,0,0,0,0,0,0,0,0,0,-1,804,1170,0,0
-413,-146,0,0,0,0,0,0,0,0,0,-1,811,1170,0,0
-406,-146,0,0,0,0,0,0,0,0,0,-1,818,1170,0,0
-399,-146,0,0,0,0,0,0,0,0,0,-1,825,1170,0,0
-392,-146,0,0,0,0,0,0,0,0,0,-1,832,1170,0,0
-385,-146,0,0,0,0,0,0,0,0,0,-1,839,1170,0,0
-378,-146,0,0,0,0,0,0,0,0,0,-1,846,1170,0,0
-371,-146,0,0,0,0,0,0,0,0,0,-1,853,1170,0,0
-364,-146,0,0,0,0,0,0,0,0,0,-1,860,1170,0,0
-357,-146,0,0,0,0,0,0,0,0,0,-1,867,1170,0,0
-350,-146,0,0,0,0,0,0,0,0,0,-1,874,1170,0,0
-343,-146,0,0,0,0,0,0,0,0,0,-1,881,1170,0,0
-336,-146,0,0,0,0,0,0,0,0,0,-1,888,1170,0,0
-329,-146,0,0,0,0,0,0,0,0,0,-1,895,1170,0,0
-322,-146,0,0,0,0,0,0,0,0,0,-1,902,1170,0,0
-315,-146,0,0,0,0,0,0,0,0,0,-1,909,1170,0,0
-308,-146,0,0,0,0,0,0,0,0,0,-1,916,1170,0,0
-301,-146,0,0,0,0,0,0,0,0,0,-1,923,1170,0,0
-294,-146,0,0,0,0,0,0,0,0,0,-1,930,1170,0,0
-287,-146,0,0,0,0,0,0,0,0,0,-1,937,1170,0,0
-280,-146,0,0,0,0,0,0,0,0,0,-1,944,1170,0,0
-273,-146,0,0,0,0,0,0,0,0,0,-1,951,1170,0,0
-266,-146,0,0,0,0,0,0,0,0,0,-1,958,1170,0,0
-259,-146,0,0,0,0,0,0,0,0,0,-1,965,1170,0,0
-252,-146,0,0,0,0,0,0,0,0,0,-1,972,1170,0,0
-245,-146,0,0,0,0,0,0,0,0,0,-1,979,1170,0,0
-238,-146,0,0,0,0,0,0,0,0,0,-1,986,1170,0,0
-231,-146,0,0,0,0,0,0,0,0,0,-1,993,1170,0,0
-224,-146,0,0,0,0,0,0,0,0,0,-1,1000,1170,0,0
-217,-146,0,0,0,0,0,0,0,0,0,-1,1007,1170,0,0
-210,-146,0,0,0,0,0,0,0,0,0,-1,1014,1170,0,0
-203,-146,0,0,0,0,0,0,0,0,0,-1,1021,1170,0,0
-196,-146,0,0,0,0,0,0,0,0,0,-1,1028,1170,0,0
-189,-146,0,0,0,0,0,0,0,0,0,-1,1035,1170,0,0
-182,-146,0,0,0,0,0,0,0,0,0,-1,1042,1170,0,0
-175,-146,0,0,0,0,0,0,0,0,0,-1,1049,1170,0,0
-168,-146,0,0,0,0,0,0,0,0,0,-1,1056,1170,0,0
-161,-146,0,0,0,0,0,0,0,0,0,-1,1063,1170,0,0
-154,-146,0,0,0,0,0,0,0,0,0,-1,1070,1170,0,0
-147,-146,0,0,0,0,0,0,0,0,0,-1,1077,1170,0,0
-140,-146,0,0,0,0,0,0,0,0,0,-1,1084,1170,0,0
-133,-146,0,0,0,0,0,0,0,0,0,-1,1091,1170,0,0
-126,-146,0,0,0,0,0,0,0,0,0,-1,1098,1170,0,0
-119,-146,0,0,0,0,0,0,0,0,0,-1,1105,1170,0,0
-112,-146,0,0,0,0,0,0,0,0,0,-1,1112,1170,0,0
-105,-146,0,0,0,0,0,0,0,0,0,-1,1119,1170,0,0
-98,-146,0,0,0,0,0,0,0,0,0,-1,1126,1170,0,0
-91,-146,0,0,0,0,0,0,0,0,0,-1,1133,1170,0,0
-84,-146,0,0,0,0,0,0,0,0,0,-1,1140,1170,0,0
-77,-146,0,0,0,0,0,0,0,0,0,-1,1147,1170,0,0
-70,-146,0,0,0,0,0,0,0,0,0,-1,1154,1170,0,0
-63,-146,0,0,0,0,0,0,0,0,0,-1,1161,1170,0,0
-56,-146,0,0,0,0,0,0,0,0,0,-1,1168,1170,0,0
-49,-146,0,0,0,0,0,0,0,0,0,-1,1175,1170,0,0
-42,-146,0,0,0,0,0,0,0,0,0,-1,1182,1170,0,0
-35,-146,0,0,0,0,0,0,0,0,0,-1,1189,1170,0,0
-28,-146,0,0,0,0,0,0,0,0,0,-1,1196,1170,0,0
-21,-146,0,0,0,0,0,0,0,0,0,-1,1203,1170,0,0
-14,-146,0,0,0,0,0,0,0,0,0,-1,1210,1170,0,0
-7,-146,0,0,0,0,0,0,0,0,0,-1,1217,1170,0,0
0,-146,0,0,0,0,0,0,0,0,0,-1,1224,1170,0,0
7,-146,0,0,0,0,0,0,0,0,0,-1,1231,1170,0,0
14,-146,0,0,0,0,0,0,0,0,0,-1,1238,1170,0,0
21,-146,0,0,0,0,0,0,0,0,0,-1,1245,1170,0,0
28,-146,0,0,0,0,0,0,0,0,0,-1,1252,1170,0,0
35,-146,0,0,0,0,0,0,0,0,0,-1,1259,1170,0,0
42,-146,0,0,0,0,0,0,0,0,0,-1,1266,1170,0,0
49,-146,0,0,0,0,0,0,0,0,0,-1,1273,1170,0,0
56,-146,0,0,0,0,0,0,0,0,0,-1,1280,1170,0,0
63,-146,0,0,0,0,0,0,0,0,0,-1,1287,1170,0,0
70,-146,0,0,0,0,0,0,0,0,0,-1,1294,1170,0,0
77,-146,0,0,0,0,0,0,0,0,0,-1,1301,1170,0,0
84,-146,0,0,0,0,0,0,0,0,0,-1,1308,1170,0,0
91,-146,0,0,0,0,0,0,0,0,0,-1,1315,1170,0,0
98,-146,0,0,0,0,0,0,0,0,0,-1,1322,1170,0,0
105,-146,0,0,0,0,0,0,0,0,0,-1,1329,1170,0,0
112,-146,0,0,0,0,0,0,0,0,0,-1,1336,1170,0,0
119,-146,0,0,0,0,0,0,0,0,0,-1,1343,1170,0,0
126,-146,0,0,0,0,0,0,0,0,0,-1,1350,1170,0,0
133,-146,0,0,0,0,0,0,0,0,0,-1,1357,1170,0,0
140,-146,0,0,0,0,0,0,0,0,0,-1,1364,1170,0,0
147,-146,0,0,0,0,0,0,0,0,0,-1,1371,1170,0,0
154,-146,0,0,0,0,0,0,0,0,0,-1,1378,1170,0,0
161,-146,0,0,0,0,0,0,0,0,0,-1,1385,1170,0,0
168,-146,0,0,0,0,0,0,0,0,0,-1,1392,1170,0,0
175,-146,0,0,0,0,0,0,0,0,0,-1,1399,1170,0,0
182,-146,0,0,0,0,0,0,0,0,0,-1,1406,1170,0,0
189,-146,0,0,0,0,0,0,0,0,0,-1,1413,1170,0,0
196,-146,0,0,0,0,0,0,0,0,0,-1,1420,1170,0,0
203,-146,0,0,0,0,0,0,0,0,0,-1,1427,1170,0,0
210,-146,0,0,0,0,0,0,0,0,0,-1,1434,1170,0,0
217,-146,0,0,0,0,0,0,0,0,0,-1,1441,1170,0,0
224,-146,0,0,0,0,0,0,0,0,0,-1,1448,1170,0,0
231,-146,0,0,0,0,0,0,0,0,0,-1,1455,1170,0,0
238,-146,0,0,0,0,0,0,0,0,0,-1,1462,1170,0,0
245,-146,0,0,0,0,0,0,0,0,0,-1,1469,1170,0,0
252,-146,0,0,0,0,0,0,0,0,0,-1,1476,1170,0,0
259,-146,0,0,0,0,0,0,0,0,0,-1,1483,1170,0,0
266,-146,0,0,0,0,0,0,0,0,0,-1,1490,1170,0,0
273,-146,0,0,0,0,0,0,0,0,0,-1,1497,1170,0,0
280,-146,0,0,0,0,0,0,0,0,0,-1,1504,1170,0,0
287,-146,0,0,0,0,0,0,0,0,0,-1,1511,1170,0,0
294,-146,0,0,0,0,0,0,0,0,0,-1,1518,1170,0,0
301,-146,0,0,0,0,0,0,0,0,0,-1,1525,1170,0,0
308,-146,0,0,0,0,0,0,0,0,0,-1,1532,1170,0,0
315,-146,0,0,0,0,0,0,0,0,0,-1,1539,1170,0,0
322,-146,0,0,0,0,0,0,0,0,0,-1,1546,1170,0,0
329,-146,0,0,0,0,0,0,0,0,0,-1,1553,1170,0,0
336,-146,0,0,0,0,0,0,0,0,0,-1,1560,1170,0,0
343,-146,0,0,0,0,0,0,0,0,0,-1,1567,1170,0,0
350,-146,0,0,0,0,0,0,0,0,0,-1,1574,1170,0,0
357,-146,0,0,0,0,0,0,0,0,0,-1,1581,1170,0,0
364,-146,0,0,0,0,0,0,0,0,0,-1,1588,1170,0,0
371,-146,0,0,0,0,0,0,0,0,0,-1,1595,1170,0,0
378,-146,0,0,0,0,0,0,0,0,0,-1,1602,1170,0,0
385,-146,0,0,0,0,0,0,0,0,0,-1,1609,1170,0,0
392,-146,0,0,0,0,0,0,0,0,0,-1,1616,1170,0,0
399,-146,0,0,0,0,0,0,0,0,0,-1,1623,1170,0,0
406,-146,0,0,0,0,0,0,0,0,0,-1,1630,1170,0,0
413,-146,0,0,0,0,0,0,0,0,0,-1,1637,1170,0,0
420,-146,0,0,0,0,0,0,0,0,0,-1,1644,1170,0,0
427,-146,0,0,0,0,0,0,0,0,0,-1,1651,1170,0,0
434,-146,0,0,0,0,0,0,0,0,0,-1,1658,1170,0,0
441,-146,0,0,0,0,0,0,0,0,0,-1,1665,1170,0,0
448,-146,0,0,0,0,0,0,0,0,0,-1,1672,1170,0,0
455,-146,0,0,0,0,0,0,0,0,0,-1,1679,1170,0,0
462,-146,0,0,0,0,0,0,0,0,0,-1,1686,1170,0,0
469,-146,0,0,0,0,0,0,0,0,0,-1,1693,1170,0,0
476,-146,0,0,0,0,0,0,0,0,0,-1,1700,1170,0,0
483,-146,0,0,0,0,0,0,0,0,0,-1,1707,1170,0,0
490,-146,0,0,0,0,0,0,0,0,0,-1,1714,1170,0,0
497,-146,0,0,0,0,0,0,0,0,0,-1,1721,1170,0,0
504,-146,0,0,0,0,0,0,0,0,0,-1,1728,1170,0,0
511,-146,0,0,0,0,0,0,0,0,0,-1,1735,1170,0,0
518,-146,0,0,0,0,0,0,0,0,0,-1,1742,1170,0,0
525,-146,0,0,0,0,0,0,0,0,0,-1,1749,1170,0,0
532,-146,0,0,0,0,0,0,0,0,0,-1,1756,1170,0,0
539,-146,0,0,0,0,0,0,0,0,0,-1,1763,1170,0,0
546,-146,0,0,0,0,0,0,0,0,0,-1,1770,1170,0,0
553,-146,0,0,0,0,0,0,0,0,0,-1,1777,1170,0,0
560,-146,0,0,0,0,0,0,0,0,0,-1,1784,1170,0,0
567,-146,0,0,0,0,0,0,0,0,0,-1,1791,1170,0,0
574,-146,0,0,0,0,0,0,0,0,0,-1,1798,1170,0,0
581,-146,0,0,0,0,0,0,0,0,0,-1,1805,1170,0,0
588,-146,0,0,0,0,0,0,0,0,0,-1,1812,1170,0,0
595,-146,0,0,0,0,0,0,0,0,0,-1,1819,1170,0,0
602,-146,0,0,0,0,0,0,0,0,0,-1,1826,1170,0,0
609,-146,0,0,0,0,0,0,0,0,0,-1,1833,1170,0,0
616,-146,0,0,0,0,0,0,0,0,0,-1,1840,1170,0,0
623,-146,0,0,0,0,0,0,0,0,0,-1,1847,1170,0,0
630,-146,0,0,0,0,0,0,0,0,0,-1,1854,1170,0,0
637,-146,80.0422,1.92725,0.00314715,-0.00359828,0.000552345,0.00319208,-0.00364321,0.0811639,0.00394922,0.0439439,1861,1170,80.0422,-1.92721
644,-146,80.1296,2.01453,0.00173004,-0.00261753,0.000467426,0.00177973,-0.00266722,0.105902,0.00258443,0.0427511,1868,1170,80.1297,-2.01456
651,-146,80.1544,1.98962,0.000821882,-0.00169764,0.000234113,0.000843451,-0.00171921,0.0918714,0.00150808,0.0389478,1875,1170,80.1544,-1.98966
658,-146,80.08,2.06519,0.000258435,-0.000895147,-3.55629e-05,0.00025953,-0.000896242,-0.0307893,0.000700225,0.0397198,1882,1170,80.0799,-2.06519
665,-146,80.0483,2.37976,-0.00010262,-0.000130205,-0.000367082,0.000250929,-0.000483753,-0.766621,0.00043121,0.038288,1889,1170,80.0483,-2.37977
672,-146,80.026,2.37891,-0.000247461,0.000606389,-0.000765508,0.00105597,-0.000697045,-1.03977,0.00101915,0.0359208,1896,1170,80.026,-2.37896
679,-146,80.0101,2.25562,-3.85412e-05,0.000780303,-0.000906479,0.00136553,-0.00062377,-0.997516,0.00117484,0.0287031,1903,1170,80.0101,-2.25562
686,-146,79.8635,2.20422,0.000430073,0.000641041,-0.000925989,0.00146753,-0.000396421,-0.842111,0.00113384,0.0219435,1910,1170,79.8636,-2.20425
693,-146,79.9304,2.13159,0.000187171,0.000405978,-0.000510333,0.000818502,-0.000225353,-0.890988,0.000634274,0.0195408,1917,1170,79.9304,-2.13163
700,-146,79.9867,2.0415,0,0,0,0,0,0,0,-1,1924,1170,79.9867,-2.04155
707,-146,29.9441,6.94653,0,0,0,0,0,0,0,-1,1931,1170,29.9441,-6.94652
714,-146,31.325,6.13245,0,0,0,0,0,0,0,-1,1938,1170,31.325,-6.1325
721,-146,61.3608,9.47766,0,0,0,0,0,0,0,-1,1945,1170,61.3608,-9.47767
728,-146,69.0663,10.321,0,0,0,0,0,0,0,-1,1952,1170,69.0663,-10.321
735,-146,69.8396,9.02808,0,0,0,0,0,0,0,-1,1959,1170,69.8396,-9.02807
742,-146,69.6566,8.46436,-3.25737e-05,0.000290823,0.00145379,0.00159188,-0.00133363,0.840783,0.00169124,0.0219063,1966,1170,69.6566,-8.46431
749,-146,69.4734,7.85327,-0.00121869,0.000857138,0.00172595,0.00183322,-0.00219477,1.05611,0.00232868,0.0177672,1973,1170,69.4733,-7.85327
756,-146,69.4346,7.16638,-0.00343173,0.00212557,0.00152267,0.00251542,-0.00382158,1.32015,0.00368448,0.0126007,1980,1170,69.4347,-7.16636
763,-146,69.3723,6.42297,-0.00615977,0.00311064,0.0010754,0.00323376,-0.00628289,1.45681,0.00558765,0.0120516,1987,1170,69.3724,-6.42295
770,-146,69.3379,5.7168,-0.00942838,0.0035898,0.000509855,0.00360974,-0.00944832,1.53171,0.00778623,0.0130296,1994,1170,69.3378,-5.7168
777,-146,69.335,5.13501,-0.0133434,0.00339157,-0.000205045,0.00339408,-0.0133459,-1.55855,0.0102183,0.0246507,2001,1170,69.3349,-5.13498
784,-146,68.9724,4.18811,-0.0183285,0.00170201,-0.00111957,0.00176439,-0.0183909,-1.51513,0.012889,0.0419118,2008,1170,68.9725,-4.18809
791,-146,69.022,2.74744,0,0,0,0,0,0,0,-1,2015,1170,69.022,-2.74748
798,-146,69.0327,1.31946,0,0,0,0,0,0,0,-1,2022,1170,69.0328,-1.31946
805,-146,72.9839,-0.712646,0,0,0,0,0,0,0,-1,2029,1170,72.984,0.712678
812,-146,0,0,0,0,0,0,0,0,0,-1,2036,1170,0,0
-700,-153,0,0,0,0,0,0,0,0,0,-1,524,1177,0,0
-693,-153,0,0,0,0,0,0,0,0,0,-1,531,1177,0,0
-686,-153,-57.4616,5.42212,0,0,0,0,0,0,0,-1,538,1177,-57.4616,-5.42217
-679,-153,-56.3643,6.31238,0,0,0,0,0,0,0,-1,545,1177,-56.3643,-6.3124
-672,-153,-55.6417,6.72937,0.0830711,-0.0534441,0.0316711,0.0900608,-0.0604338,0.217215,0.0874475,0.0479155,552,1177,-55.6417,-6.72935
-665,-153,-54.7834,6.43542,0.0695931,-0.0432474,0.0264899,0.0755023,-0.0491566,0.21948,0.0725057,0.0469805,559,1177,-54.7833,-6.43546
-658,-153,-54.2767,6.65234,0,0,0,0,0,0,0,-1,566,1177,-54.2767,-6.65235
-651,-153,-51.9886,3.55505,0,0,0,0,0,0,0,-1,573,1177,-51.9886,-3.555
-644,-153,-52.1597,4.35852,0.0291725,-0.0156191,0.0112814,0.0318534,-0.0183,0.233313,0.0293064,0.0342841,580,1177,-52.1597,-4.35852
-637,-153,-52.3241,5.17053,0.0164769,-0.00809051,0.00655737,0.0181175,-0.00973119,0.245171,0.0163197,0.0134501,587,1177,-52.3241,-5.17057
-630,-153,-52.3702,5.93738,0.00517908,-0.00188716,0.00151711,0.00549103,-0.00219911,0.202795,0.00457349,0.0105457,594,1177,-52.3702,-5.93737
-623,-153,-52.4183,6.69092,-0.00479375,0.00237239,-0.00278599,0.00332806,-0.00574942,-1.24035,0.00530267,0.0128126,601,1177,-52.4182,-6.69088
-616,-153,-52.4965,7.40283,-0.0101032,0.00307947,-0.00593144,0.00535537,-0.0123791,-1.20442,0.0105032,0.0166149,608,1177,-52.4965,-7.40277
-609,-153,-52.5844,8.12036,0,0,0,0,0,0,0,-1,615,1177,-52.5844,-8.12031
-602,-153,-50.7079,7.54736,0,0,0,0,0,0,0,-1,622,1177,-50.7079,-7.54741
-595,-153,-43.9551,7.35718,0,0,0,0,0,0,0,-1,629,1177,-43.9551,-7.35722
-588,-153,-32.348,5.51038,0,0,0,0,0,0,0,-1,636,1177,-32.348,-5.51034
-581,-153,-33.4568,6.41492,0,0,0,0,0,0,0,-1,643,1177,-33.4568,-6.41497
-574,-153,-25.4814,5.16956,0,0,0,0,0,0,0,-1,650,1177,-25.4814,-5.16961
-567,-153,-35.3121,1.09485,0,0,0,0,0,0,0,-1,657,1177,-35.3121,-1.09482
-560,-153,-63.0784,0.393433,0,0,0,0,0,0,0,-1,664,1177,-63.0784,-0.39341
-553,-153,-63.0356,0.480835,0.000665097,0.00166815,-0.000524872,0.00189258,0.000440663,-1.16673,0.0011435,0.0381839,671,1177,-63.0356,-0.480794
-546,-153,-63.0362,0.595825,0.000484126,0.00251987,-0.000876369,0.00284516,0.000158835,-1.21538,0.00184611,0.0421519,678,1177,-63.0362,-0.595884
-539,-153,-63.1052,0.482544,0.0011705,0.00363909,-0.00180244,0.00458935,0.000220238,-1.08562,0.00298886,0.0457945,685,1177,-63.1052,-0.482531
-532,-153,-63.0403,0.328003,0.0021597,0.00512301,-0.00318794,0.00715679,0.000125923,-1.00293,0.00472978,0.0447401,692,1177,-63.0404,-0.327957
-525,-153,-62.9911,0.400757,0.00357129,0.00721045,-0.00546081,0.0111469,-0.00036511,-0.946217,0.00755588,0.041993,699,1177,-62.9911,-0.400804
-518,-153,0,0,0,0,0,0,0,0,0,-1,706,1177,0,0
-511,-153,0,0,0,0,0,0,0,0,0,-1,713,1177,0,0
-504,-153,0,0,0,0,0,0,0,0,0,-1,720,1177,0,0
-497,-153,0,0,0,0,0,0,0,0,0,-1,727,1177,0,0
-490,-153,0,0,0,0,0,0,0,0,0,-1,734,1177,0,0
-483,-153,0,0,0,0,0,0,0,0,0,-1,741,1177,0,0
-476,-153,0,0,0,0,0,0,0,0,0,-1,748,1177,0,0
-469,-153,0,0,0,0,0,0,0,0,0,-1,755,1177,0,0
-462,-153,0,0,0,0,0,0,0,0,0,-1,762,1177,0,0
-455,-153,0,0,0,0,0,0,0,0,0,-1,769,1177,0,0
-448,-153,0,0,0,0,0,0,0,0,0,-1,776,1177,0,0
-441,-153,0,0,0,0,0,0,0,0,0,-1,783,1177,0,0
-434,-153,0,0,0,0,0,0,0,0,0,-1,790,1177,0,0
-427,-153,0,0,0,0,0,0,0,0,0,-1,797,1177,0,0
-420,-153,0,0,0,0,0,0,0,0,0,-1,804,1177,0,0
-413,-153,0,0,0,0,0,0,0,0,0,-1,811,1177,0,0
-406,-153,0,0,0,0,0,0,0,0,0,-1,818,1177,0,0
-399,-153,0,0,0,0,0,0,0,0,0,-1,825,1177,0,0
-392,-153,0,0,0,0,0,0,0,0,0,-1,832,1177,0,0
-385,-153,0,0,0,0,0,0,0,0,0,-1,839,1177,0,0
-378,-153,0,0,0,0,0,0,0,0,0,-1,846,1177,0,0
-371,-153,0,0,0,0,0,0,0,0,0,-1,853,1177,0,0
-364,-153,0,0,0,0,0,0,0,0,0,-1,860,1177,0,0
-357,-153,0,0,0,0,0,0,0,0,0,-1,867,1177,0,0
-350,-153,0,0,0,0,0,0,0,0,0,-1,874,1177,0,0
-343,-153,0,0,0,0,0,0,0,0,0,-1,881,1177,0,0
-336,-153,0,0,0,0,0,0,0,0,0,-1,888,1177,0,0
-329,-153,0,0,0,0,0,0,0,0,0,-1,895,1177,0,0
-322,-153,0,0,0,0,0,0,0,0,0,-1,902,1177,0,0
-315,-153,0,0,0,0,0,0,0,0,0,-1,909,1177,0,0
-308,-153,0,0,0,0,0,0,0,0,0,-1,916,1177,0,0
-301,-153,0,0,0,0,0,0,0,0,0,-1,923,1177,0,0
-294,-153,0,0,0,0,0,0,0,0,0,-1,930,1177,0,0
-287,-153,0,0,0,0,0,0,0,0,0,-1,937,1177,0,0
-280,-153,0,0,0,0,0,0,0,0,0,-1,944,1177,0,0
-273,-153,0,0,0,0,0,0,0,0,0,-1,951,1177,0,0
-266,-153,0,0,0,0,0,0,0,0,0,-1,958,1177,0,0
-259,-153,0,0,0,0,0,0,0,0,0,-1,965,1177,0,0
-252,-153,0,0,0,0,0,0,0,0,0,-1,972,1177,0,0
-245,-153,0,0,0,0,0,0,0,0,0,-1,979,1177,0,0
-238,-153,0,0,0,0,0,0,0,0,0,-1,986,1177,0,0
-231,-153,0,0,0,0,0,0,0,0,0,-1,993,1177,0,0
-224,-153,0,0,0,0,0,0,0,0,0,-1,1000,1177,0,0
-217,-153,0,0,0,0,0,0,0,0,0,-1,1007,1177,0,0
-210,-153,0,0,0,0,0,0,0,0,0,-1,1014,1177,0,0
-203,-153,0,0,0,0,0,0,0,0,0,-1,1021,1177,0,0
-196,-153,0,0,0,0,0,0,0,0,0,-1,1028,1177,0,0
-189,-153,0,0,0,0,0,0,0,0,0,-1,1035,1177,0,0
-182,-153,0,0,0,0,0,0,0,0,0,-1,1042,1177,0,0
-175,-153,0,0,0,0,0,0,0,0,0,-1,1049,1177,0,0
-168,-153,0,0,0,0,0,0,0,0,0,-1,1056,1177,0,0
-161,-153,0,0,0,0,0,0,0,0,0,-1,1063,1177,0,0
-154,-153,0,0,0,0,0,0,0,0,0,-1,1070,1177,0,0
-147,-153,0,0,0,0,0,0,0,0,0,-1,1077,1177,0,0
-140,-153,0,0,0,0,0,0,0,0,0,-1,1084,1177,0,0
-133,-153,0,0,0,0,0,0,0,0,0,-1,1091,1177,0,0
-126,-153,0,0,0,0,0,0,0,0,0,-1,1098,1177,0,0
-119,-153,0,0,0,0,0,0,0,0,0,-1,1105,1177,0,0
-112,-153,0,0,0,0,0,0,0,0,0,-1,1112,1177,0,0
-105,-153,0,0,0,0,0,0,0,0,0,-1,1119,1177,0,0
-98,-153,0,0,0,0,0,0,0,0,0,-1,1126,1177,0,0
-91,-153,0,0,0,0,0,0,0,0,0,-1,1133,1177,0,0
-84,-153,0,0,0,0,0,0,0,0,0,-1,1140,1177,0,0
-77,-153,0,0,0,0,0,0,0,0,0,-1,1147,1177,0,0
-70,-153,0,0,0,0,0,0,0,0,0,-1,1154,1177,0,0
-63,-153,0,0,0,0,0,0,0,0,0,-1,1161,1177,0,0
-56,-153,0,0,0,0,0,0,0,0,0,-1,1168,1177,0,0
-49,-153,0,0,0,0,0,0,0,0,0,-1,1175,1177,0,0
-42,-153,0,0,0,0,0,0,0,0,0,-1,1182,1177,0,0
-35,-153,0,0,0,0,0,0,0,0,0,-1,1189,1177,0,0
-28,-153,0,0,0,0,0,0,0,0,0,-1,1196,1177,0,0
-21,-153,0,0,0,0,0,0,0,0,0,-1,1203,1177,0,0
-14,-153,0,0,0,0,0,0,0,0,0,-1,1210,1177,0,0
-7,-153,0,0,0,0,0,0,0,0,0,-1,1217,1177,0,0
0,-153,0,0,0,0,0,0,0,0,0,-1,1224,1177,0,0
7,-153,0,0,0,0,0,0,0,0,0,-1,1231,1177,0,0
14,-153,0,0,0,0,0,0,0,0,0,-1,1238,1177,0,0
21,-153,0,0,0,0,0,0,0,0,0,-1,1245,1177,0,0
28,-153,0,0,0,0,0,0,0,0,0,-1,1252,1177,0,0
35,-153,0,0,0,0,0,0,0,0,0,-1,1259,1177,0,0
42,-153,0,0,0,0,0,0,0,0,0,-1,1266,1177,0,0
49,-153,0,0,0,0,0,0,0,0,0,-1,1273,1177,0,0
56,-153,0,0,0,0,0,0,0,0,0,-1,1280,1177,0,0
63,-153,0,0,0,0,0,0,0,0,0,-1,1287,1177,0,0
70,-153,0,0,0,0,0,0,0,0,0,-1,1294,1177,0,0
77,-153,0,0,0,0,0,0,0,0,0,-1,1301,1177,0,0
84,-153,0,0,0,0,0,0,0,0,0,-1,1308,1177,0,0
91,-153,0,0,0,0,0,0,0,0,0,-1,1315,1177,0,0
98,-153,0,0,0,0,0,0,0,0,0,-1,1322,1177,0,0
105,-153,0,0,0,0,0,0,0,0,0,-1,1329,1177,0,0
112,-153,0,0,0,0,0,0,0,0,0,-1,1336,1177,0,0
119,-153,0,0,0,0,0,0,0,0,0,-1,1343,1177,0,0
126,-153,0,0,0,0,0,0,0,0,0,-1,1350,1177,0,0
133,-153,0,0,0,0,0,0,0,0,0,-1,1357,1177,0,0
140,-153,0,0,0,0,0,0,0,0,0,-1,1364,1177,0,0
147,-153,0,0,0,0,0,0,0,0,0,-1,1371,1177,0,0
154,-153,0,0,0,0,0,0,0,0,0,-1,1378,1177,0,0
161,-153,0,0,0,0,0,0,0,0,0,-1,1385,1177,0,0
168,-153,0,0,0,0,0,0,0,0,0,-1,1392,1177,0,0
175,-153,0,0,0,0,0,0,0,0,0,-1,1399,1177,0,0
182,-153,0,0,0,0,0,0,0,0,0,-1,1406,1177,0,0
189,-153,0,0,0,0,0,0,0,0,0,-1,1413,1177,0,0
196,-153,0,0,0,0,0,0,0,0,0,-1,1420,1177,0,0
203,-153,0,0,0,0,0,0,0,0,0,-1,1427,1177,0,0
210,-153,0,0,0,0,0,0,0,0,0,-1,1434,1177,0,0
217,-153,0,0,0,0,0,0,0,0,0,-1,1441,1177,0,0
224,-153,0,0,0,0,0,0,0,0,0,-1,1448,1177,0,0
231,-153,0,0,0,0,0,0,0,0,0,-1,1455,1177,0,0
238,-153,0,0,0,0,0,0,0,0,0,-1,1462,1177,0,0
245,-153,0,0,0,0,0,0,0,0,0,-1,1469,1177,0,0
252,-153,0,0,0,0,0,0,0,0,0,-1,1476,1177,0,0
259,-153,0,0,0,0,0,0,0,0,0,-1,1483,1177,0,0
266,-153,0,0,0,0,0,0,0,0,0,-1,1490,1177,0,0
273,-153,0,0,0,0,0,0,0,0,0,-1,1497,1177,0,0
280,-153,0,0,0,0,0,0,0,0,0,-1,1504,1177,0,0
287,-153,0,0,0,0,0,0,0,0,0,-1,1511,1177,0,0
294,-153,0,0,0,0,0,0,0,0,0,-1,1518,1177,0,0
301,-153,0,0,0,0,0,0,0,0,0,-1,1525,1177,0,0
308,-153,0,0,0,0,0,0,0,0,0,-1,1532,1177,0,0
315,-153,0,0,0,0,0,0,0,0,0,-1,1539,1177,0,0
322,-153,0,0,0,0,0,0,0,0,0,-1,1546,1177,0,0
329,-153,0,0,0,0,0,0,0,0,0,-1,1553,1177,0,0
336,-153,0,0,0,0,0,0,0,0,0,-1,1560,1177,0,0
343,-153,0,0,0,0,0,0,0,0,0,-1,1567,1177,0,0
350,-153,0,0,0,0,0,0,0,0,0,-1,1574,1177,0,0
357,-153,0,0,0,0,0,0,0,0,0,-1,1581,1177,0,0
364,-153,0,0,0,0,0,0,0,0,0,-1,1588,1177,0,0
371,-153,0,0,0,0,0,0,0,0,0,-1,1595,1177,0,0
378,-153,0,0,0,0,0,0,0,0,0,-1,1602,1177,0,0
385,-153,0,0,0,0,0,0,0,0,0,-1,1609,1177,0,0
392,-153,0,0,0,0,0,0,0,0,0,-1,1616,1177,0,0
399,-153,0,0,0,0,0,0,0,0,0,-1,1623,1177,0,0
406,-153,0,0,0,0,0,0,0,0,0,-1,1630,1177,0,0
413,-153,0,0,0,0,0,0,0,0,0,-1,1637,1177,0,0
420,-153,0,0,0,0,0,0,0,0,0,-1,1644,1177,0,0
427,-153,0,0,0,0,0,0,0,0,0,-1,1651,1177,0,0
434,-153,0,0,0,0,0,0,0,0,0,-1,1658,1177,0,0
441,-153,0,0,0,0,0,0,0,0,0,-1,1665,1177,0,0
448,-153,0,0,0,0,0,0,0,0,0,-1,1672,1177,0,0
455,-153,0,0,0,0,0,0,0,0,0,-1,1679,1177,0,0
462,-153,0,0,0,0,0,0,0,0,0,-1,1686,1177,0,0
469,-153,0,0,0,0,0,0,0,0,0,-1,1693,1177,0,0
476,-153,0,0,0,0,0,0,0,0,0,-1,1700,1177,0,0
483,-153,0,0,0,0,0,0,0,0,0,-1,1707,1177,0,0
490,-153,0,0,0,0,0,0,0,0,0,-1,1714,1177,0,0
497,-153,0,0,0,0,0,0,0,0,0,-1,1721,1177,0,0
504,-153,0,0,0,0,0,0,0,0,0,-1,1728,1177,0,0
511,-153,0,0,0,0,0,0,0,0,0,-1,1735,1177,0,0
518,-153,0,0,0,0,0,0,0,0,0,-1,1742,1177,0,0
525,-153,0,0,0,0,0,0,0,0,0,-1,1749,1177,0,0
532,-153,0,0,0,0,0,0,0,0,0,-1,1756,1177,0,0
539,-153,0,0,0,0,0,0,0,0,0,-1,1763,1177,0,0
546,-153,0,0,0,0,0,0,0,0,0,-1,1770,1177,0,0
553,-153,0,0,0,0,0,0,0,0,0,-1,1777,1177,0,0
560,-153,0,0,0,0,0,0,0,0,0,-1,1784,1177,0,0
567,-153,0,0,0,0,0,0,0,0,0,-1,1791,1177,0,0
574,-153,0,0,0,0,0,0,0,0,0,-1,1798,1177,0,0
581,-153,0,0,0,0,0,0,0,0,0,-1,1805,1177,0,0
588,-153,0,0,0,0,0,0,0,0,0,-1,1812,1177,0,0
595,-153,0,0,0,0,0,0,0,0,0,-1,1819,1177,0,0
602,-153,0,0,0,0,0,0,0,0,0,-1,1826,1177,0,0
609,-153,0,0,0,0,0,0,0,0,0,-1,1833,1177,0,0
616,-153,0,0,0,0,0,0,0,0,0,-1,1840,1177,0,0
623,-153,0,0,0,0,0,0,0,0,0,-1,1847,1177,0,0
630,-153,0,0,0,0,0,0,0,0,0,-1,1854,1177,0,0
637,-153,79.868,2.18018,0.0035046,-0.00306147,0.00106217,0.00367215,-0.00322901,0.156452,0.00398713,0.043002,1861,1177,79.868,-2.1802
644,-153,79.8553,2.08777,0.0021287,-0.00219863,0.000783908,0.00226633,-0.00233626,0.173797,0.00265741,0.0402356,1868,1177,79.8553,-2.08772
651,-153,79.9945,2.1156,0.00120997,-0.00134425,0.000383145,0.0012662,-0.00140049,0.145733,0.00154027,0.0318579,1875,1177,79.9945,-2.11563
658,-153,80.0107,2.14612,0.000558749,-0.000548146,-5.5955e-05,0.00056157,-0.000550968,-0.0503801,0.000642334,0.0360691,1882,1177,80.0107,-2.14609
665,-153,80.009,2.35205,5.49651e-05,0.000247031,-0.000485127,0.000645539,-0.000343543,-0.883112,0.000579852,0.0371375,1889,1177,80.009,-2.35199
672,-153,79.999,2.29395,-0.000255722,0.00110359,-0.000928728,0.00157479,-0.000726921,-1.10128,0.00135861,0.0365077,1896,1177,79.999,-2.29396
679,-153,79.9132,2.20105,-0.000175677,0.00145249,-0.0010916,0.00200014,-0.000723328,-1.10579,0.00162898,0.0287493,1903,1177,79.9133,-2.20111
686,-153,79.8967,2.20044,0.00029214,0.0013792,-0.00104442,0.00201305,-0.000341712,-1.02532,0.00146924,0.0175606,1910,1177,79.8967,-2.20042
693,-153,79.95,2.11047,0.000130149,0.00109721,-0.000557001,0.00135128,-0.000123919,-1.14285,0.000944872,0.0487732,1917,1177,79.9499,-2.11053
700,-153,79.9266,2.01807,0,0,0,0,0,0,0,-1,1924,1177,79.9267,-2.01805
707,-153,29.6483,6.6842,0,0,0,0,0,0,0,-1,1931,1177,29.6483,-6.68415
714,-153,36.0046,6.78418,0,0,0,0,0,0,0,-1,1938,1177,36.0046,-6.78418
721,-153,36.4866,6.47595,0,0,0,0,0,0,0,-1,1945,1177,36.4866,-6.47593
728,-153,47.7305,7.37024,0,0,0,0,0,0,0,-1,1952,1177,47.7304,-7.37022
735,-153,68.6837,9.24451,0,0,0,0,0,0,0,-1,1959,1177,68.6837,-9.24453
742,-153,68.7415,8.62195,0.000256734,0.000777293,0.00145592,0.00199602,-0.000961994,0.87385,0.00174225,0.0204829,1966,1177,68.7414,-8.62192
749,-153,68.7301,7.94788,-0.000940127,0.00125381,0.00161536,0.00210946,-0.00179578,1.08367,0.00225712,0.0183282,1973,1177,68.7301,-7.94788
756,-153,68.6938,7.20886,-0.00281872,0.00229884,0.0012273,0.00257795,-0.00309783,1.34718,0.00328149,0.0121004,1980,1177,68.6939,-7.20887
763,-153,68.6563,6.46289,-0.00493822,0.0031372,0.000681977,0.00319439,-0.00499541,1.48713,0.00476634,0.0117783,1987,1177,68.6563,-6.46288
770,-153,68.6455,5.74963,-0.0073798,0.00358767,7.5914e-05,0.0035882,-0.00738033,1.56388,0.0064576,0.0127852,1994,1177,68.6455,-5.74966
777,-153,68.5308,5.07458,0,0,0,0,0,0,0,-1,2001,1177,68.5309,-5.07454
784,-153,68.2991,4.18335,0,0,0,0,0,0,0,-1,2008,1177,68.2992,-4.18331
791,-153,68.0674,3.29211,0,0,0,0,0,0,0,-1,2015,1177,68.0675,-3.29209
798,-153,68.6995,3.48706,0,0,0,0,0,0,0,-1,2022,1177,68.6994,-3.48709
805,-153,68.9419,2.93677,0,0,0,0,0,0,0,-1,2029,1177,68.942,-2.93676
812,-153,0,0,0,0,0,0,0,0,0,-1,2036,1177,0,0
-700,-160,0,0,0,0,0,0,0,0,0,-1,524,1184,0,0
-693,-160,0,0,0,0,0,0,0,0,0,-1,531,1184,0,0
-686,-160,-58.0118,5.88403,0.115461,-0.0673165,0.0480323,0.127315,-0.0791702,0.241951,0.12029,0.0461306,538,1184,-58.0118,-5.88407
-679,-160,-58.0095,6.18469,0,0,0,0,0,0,0,-1,545,1184,-58.0095,-6.18468
-672,-160,-55.2114,7.90173,0.0928868,-0.0501299,0.0370067,0.101895,-0.0591383,0.238781,0.0940588,0.0455355,552,1184,-55.2114,-7.90179
-665,-160,-54.2031,7.66016,0.0787099,-0.0407518,0.0311407,0.0863402,-0.0483821,0.240291,0.0788043,0.0470599,559,1184,-54.2031,-7.6602
-658,-160,-53.2408,7.34534,0,0,0,0,0,0,0,-1,566,1184,-53.2409,-7.34539
-651,-160,-51.3005,3.6449,0,0,0,0,0,0,0,-1,573,1184,-51.3005,-3.64488
-644,-160,-51.3713,4.42761,0.0349864,-0.0150215,0.0141486,0.0387119,-0.018747,0.257467,0.0338348,0.0424824,580,1184,-51.3713,-4.42763
-637,-160,-51.5278,5.20679,0.021206,-0.00804786,0.00878457,0.0236412,-0.010483,0.270421,0.020184,0.0170044,587,1184,-51.5278,-5.20683
-630,-160,-51.617,5.93335,0.00911192,-0.00242389,0.00306918,0.00987766,-0.00318964,0.244504,0.0078669,0.00947765,594,1184,-51.617,-5.93331
-623,-160,-51.6791,6.68262,-0.00150055,0.00128446,-0.0019907,0.00232135,-0.00253744,-1.0906,0.00280615,0.0163707,601,1184,-51.6791,-6.68267
-616,-160,-51.7305,7.44751,-0.00813224,0.00252216,-0.00608904,0.00528541,-0.0108955,-1.14478,0.00952738,0.0145781,608,1184,-51.7305,-7.4475
-609,-160,-51.9527,8.17078,-0.00658559,0.00128964,-0.0065852,0.00502468,-0.0103206,-1.05485,0.00903379,0.0300626,615,1184,-51.9527,-8.17083
-602,-160,-52.2381,8.89038,0,0,0,0,0,0,0,-1,622,1184,-52.2381,-8.89042
-595,-160,-33.0669,5.93445,0,0,0,0,0,0,0,-1,629,1184,-33.0669,-5.93446
-588,-160,-33.4845,5.66699,0,0,0,0,0,0,0,-1,636,1184,-33.4845,-5.66697
-581,-160,-33.1338,6.41174,0,0,0,0,0,0,0,-1,643,1184,-33.1338,-6.41176
-574,-160,-32.7831,7.15649,0,0,0,0,0,0,0,-1,650,1184,-32.7831,-7.15655
-567,-160,-29.5828,0.643921,0,0,0,0,0,0,0,-1,657,1184,-29.5828,-0.643968
-560,-160,-57.0784,0.200806,0,0,0,0,0,0,0,-1,664,1184,-57.0784,-0.200768
-553,-160,-62.9473,0.214233,0,0,0,0,0,0,0,-1,671,1184,-62.9473,-0.214226
-546,-160,-63.0024,0.289063,0.000565049,0.00307557,-0.00154402,0.0038102,-0.000169582,-1.1267,0.00259851,0.0389929,678,1184,-63.0024,-0.289012
-539,-160,-63.1745,0.271729,0.00102208,0.00408457,-0.00197444,0.00505195,5.47001e-05,-1.11522,0.00334989,0.0407009,685,1184,-63.1745,-0.271674
-532,-160,-63.2628,0.369873,0.00179933,0.00561761,-0.00289483,0.00717616,0.000240785,-1.07691,0.0047059,0.0424208,692,1184,-63.2628,-0.369871
-525,-160,-63.0092,0.42981,0.00336738,0.00802384,-0.00515806,0.0113548,3.64371e-05,-0.997397,0.00755774,0.0420269,699,1184,-63.0092,-0.429763
-518,-160,-62.9149,0.357788,0.00480493,0.0113412,-0.00734318,0.0161107,3.54769e-05,-0.994767,0.0107287,0.0420534,706,1184,-62.9148,-0.357817
-511,-160,0,0,0,0,0,0,0,0,0,-1,713,1184,0,0
-504,-160,0,0,0,0,0,0,0,0,0,-1,720,1184,0,0
-497,-160,0,0,0,0,0,0,0,0,0,-1,727,1184,0,0
-490,-160,0,0,0,0,0,0,0,0,0,-1,734,1184,0,0
-483,-160,0,0,0,0,0,0,0,0,0,-1,741,1184,0,0
-476,-160,0,0,0,0,0,0,0,0,0,-1,748,1184,0,0
-469,-160,0,0,0,0,0,0,0,0,0,-1,755,1184,0,0
-462,-160,0,0,0,0,0,0,0,0,0,-1,762,1184,0,0
-455,-160,0,0,0,0,0,0,0,0,0,-1,769,1184,0,0
-448,-160,0,0,0,0,0,0,0,0,0,-1,776,1184,0,0
-441,-160,0,0,0,0,0,0,0,0,0,-1,783,1184,0,0
-434,-160,0,0,0,0,0,0,0,0,0,-1,790,1184,0,0
-427,-160,0,0,0,0,0,0,0,0,0,-1,797,1184,0,0
-420,-160,0,0,0,0,0,0,0,0,0,-1,804,1184,0,0
-413,-160,0,0,0,0,0,0,0,0,0,-1,811,1184,0,0
-406,-160,0,0,0,0,0,0,0,0,0,-1,818,1184,0,0
-399,-160,0,0,0,0,0,0,0,0,0,-1,825,1184,0,0
-392,-160,0,0,0,0,0,0,0,0,0,-1,832,1184,0,0
-385,-160,0,0,0,0,0,0,0,0,0,-1,839,1184,0,0
-378,-160,0,0,0,0,0,0,0,0,0,-1,846,1184,0,0
-371,-160,0,0,0,0,0,0,0,0,0,-1,853,1184,0,0
-364,-160,0,0,0,0,0,0,0,0,0,-1,860,1184,0,0
-357,-160,0,0,0,0,0,0,0,0,0,-1,867,1184,0,0
-350,-160,0,0,0,0,0,0,0,0,0,-1,874,1184,0,0
-343,-160,0,0,0,0,0,0,0,0,0,-1,881,1184,0,0
-336,-160,0,0,0,0,0,0,0,0,0,-1,888,1184,0,0
-329,-160,0,0,0,0,0,0,0,0,0,-1,895,1184,0,0
-322,-160,0,0,0,0,0,0,0,0,0,-1,902,1184,0,0
-315,-160,0,0,0,0,0,0,0,0,0,-1,909,1184,0,0
-308,-160,0,0,0,0,0,0,0,0,0,-1,916,1184,0,0
-301,-160,0,0,0,0,0,0,0,0,0,-1,923,1184,0,0
-294,-160,0,0,0,0,0,0,0,0,0,-1,930,1184,0,0
-287,-160,0,0,0,0,0,0,0,0,0,-1,937,1184,0,0
-280,-160,0,0,0,0,0,0,0,0,0,-1,944,1184,0,0
-273,-160,0,0,0,0,0,0,0,0,0,-1,951,1184,0,0
-266,-160,0,0,0,0,0,0,0,0,0,-1,958,1184,0,0
-259,-160,0,0,0,0,0,0,0,0,0,-1,965,1184,0,0
-252,-160,0,0,0,0,0,0,0,0,0,-1,972,1184,0,0
-245,-160,0,0,0,0,0,0,0,0,0,-1,979,1184,0,0
-238,-160,0,0,0,0,0,0,0,0,0,-1,986,1184,0,0
-231,-160,0,0,0,0,0,0,0,0,0,-1,993,1184,0,0
-224,-160,0,0,0,0,0,0,0,0,0,-1,1000,1184,0,0
-217,-160,0,0,0,0,0,0,0,0,0,-1,1007,1184,0,0
-210,-160,0,0,0,0,0,0,0,0,0,-1,1014,1184,0,0
-203,-160,0,0,0,0,0,0,0,0,0,-1,1021,1184,0,0
-196,-160,0,0,0,0,0,0,0,0,0,-1,1028,1184,0,0
-189,-160,0,0,0,0,0,0,0,0,0,-1,1035,1184,0,0
-182,-160,0,0,0,0,0,0,0,0,0,-1,1042,1184,0,0
-175,-160,0,0,0,0,0,0,0,0,0,-1,1049,1184,0,0
-168,-160,0,0,0,0,0,0,0,0,0,-1,1056,1184,0,0
-161,-160,0,0,0,0,0,0,0,0,0,-1,1063,1184,0,0
-154,-160,0,0,0,0,0,0,0,0,0,-1,1070,1184,0,0
-147,-160,0,0,0,0,0,0,0,0,0,-1,1077,1184,0,0
-140,-160,0,0,0,0,0,0,0,0,0,-1,1084,1184,0,0
-133,-160,0,0,0,0,0,0,0,0,0,-1,1091,1184,0,0
-126,-160,0,0,0,0,0,0,0,0,0,-1,1098,1184,0,0
-119,-160,0,0,0,0,0,0,0,0,0,-1,1105,1184,0,0
-112,-160,0,0,0,0,0,0,0,0,0,-1,1112,1184,0,0
-105,-160,0,0,0,0,0,0,0,0,0,-1,1119,1184,0,0
-98,-160,0,0,0,0,0,0,0,0,0,-1,1126,1184,0,0
-91,-160,0,0,0,0,0,0,0,0,0,-1,1133,1184,0,0
-84,-160,0,0,0,0,0,0,0,0,0,-1,1140,1184,0,0
-77,-160,0,0,0,0,0,0,0,0,0,-1,1147,1184,0,0
-70,-160,0,0,0,0,0,0,0,0,0,-1,1154,1184,0,0
-63,-160,0,0,0,0,0,0,0,0,0,-1,1161,1184,0,0
-56,-160,0,0,0,0,0,0,0,0,0,-1,1168,1184,0,0
-49,-160,0,0,0,0,0,0,0,0,0,-1,1175,1184,0,0
-42,-160,0,0,0,0,0,0,0,0,0,-1,1182,1184,0,0
-35,-160,0,0,0,0,0,0,0,0,0,-1,1189,1184,0,0
-28,-160,0,0,0,0,0,0,0,0,0,-1,1196,1184,0,0
-21,-160,0,0,0,0,0,0,0,0,0,-1,1203,1184,0,0
-14,-160,0,0,0,0,0,0,0,0,0,-1,1210,1184,0,0
-7,-160,0,0,0,0,0,0,0,0,0,-1,1217,1184,0,0
0,-160,0,0,0,0,0,0,0,0,0,-1,1224,1184,0,0
7,-160,0,0,0,0,0,0,0,0,0,-1,1231,1184,0,0
14,-160,0,0,0,0,0,0,0,0,0,-1,1238,1184,0,0
21,-160,0,0,0,0,0,0,0,0,0,-1,1245,1184,0,0
28,-160,0,0,0,0,0,0,0,0,0,-1,1252,1184,0,0
35,-160,0,0,0,0,0,0,0,0,0,-1,1259,1184,0,0
42,-160,0,0,0,0,0,0,0,0,0,-1,1266,1184,0,0
49,-160,0,0,0,0,0,0,0,0,0,-1,1273,1184,0,0
56,-160,0,0,0,0,0,0,0,0,0,-1,1280,1184,0,0
63,-160,0,0,0,0,0,0,0,0,0,-1,1287,1184,0,0
70,-160,0,0,0,0,0,0,0,0,0,-1,1294,1184,0,0
77,-160,0,0,0,0,0,0,0,0,0,-1,1301,1184,0,0
84,-160,0,0,0,0,0,0,0,0,0,-1,1308,1184,0,0
91,-160,0,0,0,0,0,0,0,0,0,-1,1315,1184,0,0
98,-160,0,0,0,0,0,0,0,0,0,-1,1322,1184,0,0
105,-160,0,0,0,0,0,0,0,0,0,-1,1329,1184,0,0
112,-160,0,0,0,0,0,0,0,0,0,-1,1336,1184,0,0
119,-160,0,0,0,0,0,0,0,0,0,-1,1343,1184,0,0
126,-160,0,0,0,0,0,0,0,0,0,-1,1350,1184,0,0
133,-160,0,0,0,0,0,0,0,0,0,-1,1357,1184,0,0
140,-160,0,0,0,0,0,0,0,0,0,-1,1364,1184,0,0
147,-160,0,0,0,0,0,0,0,0,0,-1,1371,1184,0,0
154,-160,0,0,0,0,0,0,0,0,0,-1,1378,1184,0,0
161,-160,0,0,0,0,0,0,0,0,0,-1,1385,1184,0,0
168,-160,0,0,0,0,0,0,0,0,0,-1,1392,1184,0,0
175,-160,0,0,0,0,0,0,0,0,0,-1,1399,1184,0,0
182,-160,0,0,0,0,0,0,0,0,0,-1,1406,1184,0,0
189,-160,0,0,0,0,0,0,0,0,0,-1,1413,1184,0,0
196,-160,0,0,0,0,0,0,0,0,0,-1,1420,1184,0,0
203,-160,0,0,0,0,0,0,0,0,0,-1,1427,1184,0,0
210,-160,0,0,0,0,0,0,0,0,0,-1,1434,1184,0,0
217,-160,0,0,0,0,0,0,0,0,0,-1,1441,1184,0,0
224,-160,0,0,0,0,0,0,0,0,0,-1,1448,1184,0,0
231,-160,0,0,0,0,0,0,0,0,0,-1,1455,1184,0,0
238,-160,0,0,0,0,0,0,0,0,0,-1,1462,1184,0,0
245,-160,0,0,0,0,0,0,0,0,0,-1,1469,1184,0,0
252,-160,0,0,0,0,0,0,0,0,0,-1,1476,1184,0,0
259,-160,0,0,0,0,0,0,0,0,0,-1,1483,1184,0,0
266,-160,0,0,0,0,0,0,0,0,0,-1,1490,1184,0,0
273,-160,0,0,0,0,0,0,0,0,0,-1,1497,1184,0,0
280,-160,0,0,0,0,0,0,0,0,0,-1,1504,1184,0,0
287,-160,0,0,0,0,0,0,0,0,0,-1,1511,1184,0,0
294,-160,0,0,0,0,0,0,0,0,0,-1,1518,1184,0,0
301,-160,0,0,0,0,0,0,0,0,0,-1,1525,1184,0,0
308,-160,0,0,0,0,0,0,0,0,0,-1,1532,1184,0,0
315,-160,0,0,0,0,0,0,0,0,0,-1,1539,1184,0,0
322,-160,0,0,0,0,0,0,0,0,0,-1,1546,1184,0,0
329,-160,0,0,0,0,0,0,0,0,0,-1,1553,1184,0,0
336,-160,0,0,0,0,0,0,0,0,0,-1,1560,1184,0,0
343,-160,0,0,0,0,0,0,0,0,0,-1,1567,1184,0,0
350,-160,0,0,0,0,0,0,0,0,0,-1,1574,1184,0,0
357,-160,0,0,0,0,0,0,0,0,0,-1,1581,1184,0,0
364,-160,0,0,0,0,0,0,0,0,0,-1,1588,1184,0,0
371,-160,0,0,0,0,0,0,0,0,0,-1,1595,1184,0,0
378,-160,0,0,0,0,0,0,0,0,0,-1,1602,1184,0,0
385,-160,0,0,0,0,0,0,0,0,0,-1,1609,1184,0,0
392,-160,0,0,0,0,0,0,0,0,0,-1,1616,1184,0,0
399,-160,0,0,0,0,0,0,0,0,0,-1,1623,1184,0,0
406,-160,0,0,0,0,0,0,0,0,0,-1,1630,1184,0,0
413,-160,0,0,0,0,0,0,0,0,0,-1,1637,1184,0,0
420,-160,0,0,0,0,0,0,0,0,0,-1,1644,1184,0,0
427,-160,0,0,0,0,0,0,0,0,0,-1,1651,1184,0,0
434,-160,0,0,0,0,0,0,0,0,0,-1,1658,1184,0,0
441,-160,0,0,0,0,0,0,0,0,0,-1,1665,1184,0,0
448,-160,0,0,0,0,0,0,0,0,0,-1,1672,1184,0,0
455,-160,0,0,0,0,0,0,0,0,0,-1,1679,1184,0,0
462,-160,0,0,0,0,0,0,0,0,0,-1,1686,1184,0,0
469,-160,0,0,0,0,0,0,0,0,0,-1,1693,1184,0,0
476,-160,0,0,0,0,0,0,0,0,0,-1,1700,1184,0,0
483,-160,0,0,0,0,0,0,0,0,0,-1,1707,1184,0,0
490,-160,0,0,0,0,0,0,0,0,0,-1,1714,1184,0,0
497,-160,0,0,0,0,0,0,0,0,0,-1,1721,1184,0,0
504,-160,0,0,0,0,0,0,0,0,0,-1,1728,1184,0,0
511,-160,0,0,0,0,0,0,0,0,0,-1,1735,1184,0,0
518,-160,0,0,0,0,0,0,0,0,0,-1,1742,1184,0,0
525,-160,0,0,0,0,0,0,0,0,0,-1,1749,1184,0,0
532,-160,0,0,0,0,0,0,0,0,0,-1,1756,1184,0,0
539,-160,0,0,0,0,0,0,0,0,0,-1,1763,1184,0,0
546,-160,0,0,0,0,0,0,0,0,0,-1,1770,1184,0,0
553,-160,0,0,0,0,0,0,0,0,0,-1,1777,1184,0,0
560,-160,0,0,0,0,0,0,0,0,0,-1,1784,1184,0,0
567,-160,0,0,0,0,0,0,0,0,0,-1,1791,1184,0,0
574,-160,0,0,0,0,0,0,0,0,0,-1,1798,1184,0,0
581,-160,0,0,0,0,0,0,0,0,0,-1,1805,1184,0,0
588,-160,0,0,0,0,0,0,0,0,0,-1,1812,1184,0,0
595,-160,0,0,0,0,0,0,0,0,0,-1,1819,1184,0,0
602,-160,0,0,0,0,0,0,0,0,0,-1,1826,1184,0,0
609,-160,0,0,0,0,0,0,0,0,0,-1,1833,1184,0,0
616,-160,0,0,0,0,0,0,0,0,0,-1,1840,1184,0,0
623,-160,0,0,0,0,0,0,0,0,0,-1,1847,1184,0,0
630,-160,0,0,0,0,0,0,0,0,0,-1,1854,1184,0,0
637,-160,79.7592,2.34497,0.00376852,-0.00331992,0.00120767,0.00396863,-0.00352002,0.164202,0.00432616,0.0425159,1861,1184,79.7591,-2.34494
644,-160,79.7107,2.20117,0.00248453,-0.00230822,0.000826447,0.00262303,-0.00244672,0.166051,0.00292762,0.0432848,1868,1184,79.7107,-2.20117
651,-160,79.891,2.23584,0.00155626,-0.00131072,0.000321437,0.00159186,-0.00134631,0.110293,0.00169833,0.0393531,1875,1184,79.891,-2.23582
658,-160,79.9697,2.25183,0.000814496,-0.000355094,-0.00021777,0.000853727,-0.000394325,-0.178238,0.000736656,0.0397562,1882,1184,79.9697,-2.25188
665,-160,79.9922,2.30566,0.000200684,0.000593793,-0.000678218,0.00110336,-0.000308887,-0.92644,0.000857292,0.0376158,1889,1184,79.9922,-2.3057
672,-160,79.9574,2.24756,-0.00019328,0.00161867,-0.00109686,0.00213533,-0.000709939,-1.13059,0.00171005,0.0333666,1896,1184,79.9573,-2.24755
679,-160,79.906,2.21558,-0.000183111,0.00207904,-0.001218,0.00261015,-0.000714222,-1.1596,0.00202069,0.0254189,1903,1184,79.906,-2.2156
686,-160,79.9199,2.17578,0.00027595,0.00202303,-0.00117438,0.00261313,-0.000314151,-1.10517,0.00185569,0.0155521,1910,1184,79.9199,-2.17573
693,-160,79.9742,2.11401,0,0,0,0,0,0,0,-1,1917,1184,79.9743,-2.11405
700,-160,42.8784,2.44617,0,0,0,0,0,0,0,-1,1924,1184,42.8785,-2.4462
707,-160,24.5115,6.27405,0,0,0,0,0,0,0,-1,1931,1184,24.5115,-6.27401
714,-160,35.6892,6.8905,0,0,0,0,0,0,0,-1,1938,1184,35.6892,-6.89048
721,-160,36.2388,6.37878,0,0,0,0,0,0,0,-1,1945,1184,36.2388,-6.37876
728,-160,52.2174,8.57385,0,0,0,0,0,0,0,-1,1952,1184,52.2174,-8.57381
735,-160,67.924,9.40515,0,0,0,0,0,0,0,-1,1959,1184,67.924,-9.40517
742,-160,67.984,8.65186,0.000458423,0.00124275,0.00128527,0.00219436,-0.000493182,0.933472,0.00165202,0.020993,1966,1184,67.984,-8.65186
749,-160,67.9777,7.94739,-0.000671122,0.0016502,0.00133276,0.00225685,-0.00127777,1.14364,0.00206664,0.0190365,1973,1184,67.9777,-7.94741
756,-160,67.9421,7.20667,-0.00224454,0.00250273,0.000856416,0.0026525,-0.00239431,1.39766,0.00291505,0.0124751,1980,1184,67.9421,-7.20664
763,-160,67.8865,6.50037,-0.00404396,0.00330514,0.000226312,0.0033121,-0.00405092,1.54004,0.00425817,0.0134204,1987,1184,67.8864,-6.50034
770,-160,67.7722,5.72131,-0.00613865,0.00396681,-0.000559988,0.00399775,-0.00616959,-1.51561,0.00591459,0.0307729,1994,1184,67.7723,-5.72132
777,-160,67.6482,4.99927,0,0,0,0,0,0,0,-1,2001,1184,67.6481,-4.99921
784,-160,67.8142,4.13904,0,0,0,0,0,0,0,-1,2008,1184,67.8143,-4.13902
791,-160,68.4368,3.73438,0,0,0,0,0,0,0,-1,2015,1184,68.4369,-3.73443
798,-160,68.53,3.02148,0,0,0,0,0,0,0,-1,2022,1184,68.5301,-3.0215
805,-160,68.1799,2.41528,0,0,0,0,0,0,0,-1,2029,1184,68.1799,-2.41524
812,-160,0,0,0,0,0,0,0,0,0,-1,2036,1184,0,0
-700,-167,0,0,0,0,0,0,0,0,0,-1,524,1191,0,0
-693,-167,0,0,0,0,0,0,0,0,0,-1,531,1191,0,0
-686,-167,-58.5263,6.36279,0,0,0,0,0,0,0,-1,538,1191,-58.5263,-6.3628
-679,-167,-58.4424,6.70435,0,0,0,0,0,0,0,-1,545,1191,-58.4424,-6.70432
-672,-167,-54.9275,8.88672,0,0,0,0,0,0,0,-1,552,1191,-54.9275,-8.88668
-665,-167,-54.0413,8.64453,0,0,0,0,0,0,0,-1,559,1191,-54.0413,-8.64459
-658,-167,-57.1729,9.32349,0,0,0,0,0,0,0,-1,566,1191,-57.1729,-9.32345
-651,-167,-57.2988,10.054,0,0,0,0,0,0,0,-1,573,1191,-57.2988,-10.0539
-644,-167,-50.5244,4.5293,0,0,0,0,0,0,0,-1,580,1191,-50.5243,-4.52932
-637,-167,-50.7134,5.23633,0.0283265,-0.00506446,0.013653,0.0331982,-0.00993614,0.34274,0.0260828,0.0208576,587,1191,-50.7134,-5.23638
-630,-167,-50.8466,5.93164,0.0146255,-0.00126524,0.00646034,0.0169205,-0.00356023,0.341337,0.0126354,0.0101494,594,1191,-50.8466,-5.93159
-623,-167,-50.8914,6.66711,0.00263903,0.00088664,-8.9839e-05,0.00264362,0.000882047,-0.0510881,0.0015542,0.0151273,601,1191,-50.8914,-6.66709
-616,-167,-50.9208,7.44983,-0.00575147,0.00175927,-0.00557003,0.00472164,-0.00871384,-1.082,0.00787029,0.0192418,608,1191,-50.9208,-7.44987
-609,-167,-51.0008,8.2832,-0.00582682,0.000939365,-0.00712544,0.00544406,-0.0103315,-1.00704,0.00925259,0.0213297,615,1191,-51.0008,-8.28322
-602,-167,-51.1808,9.04785,0,0,0,0,0,0,0,-1,622,1191,-51.1808,-9.04787
-595,-167,-47.733,8.40173,0,0,0,0,0,0,0,-1,629,1191,-47.733,-8.40171
-588,-167,-42.7112,7.92004,0,0,0,0,0,0,0,-1,636,1191,-42.7112,-7.92007
-581,-167,-32.8646,6.30542,0,0,0,0,0,0,0,-1,643,1191,-32.8646,-6.30537
-574,-167,-32.4808,7.37524,0,0,0,0,0,0,0,-1,650,1191,-32.4808,-7.37525
-567,-167,-27.3643,2.55859,0,0,0,0,0,0,0,-1,657,1191,-27.3643,-2.55864
-560,-167,-48.2598,0.834839,0,0,0,0,0,0,0,-1,664,1191,-48.2598,-0.834822
-553,-167,-62.9014,0.226807,0,0,0,0,0,0,0,-1,671,1191,-62.9013,-0.226791
-546,-167,-62.9794,0.327881,0.000685871,0.00339718,-0.00217817,0.00460711,-0.000524059,-1.06376,0.00326016,0.0322006,678,1191,-62.9794,-0.3279
-539,-167,-63.0454,0.400635,0.000888784,0.00424374,-0.00209203,0.00524777,-0.000115253,-1.12333,0.00353756,0.0341748,685,1191,-63.0454,-0.400601
-532,-167,-63.0925,0.455811,0.00135862,0.00575483,-0.00239849,0.0068101,0.000303353,-1.15631,0.0044424,0.0400237,692,1191,-63.0925,-0.455802
-525,-167,-62.9603,0.419678,0.00295945,0.00864569,-0.00428207,0.0109426,0.00066258,-1.07846,0.00708452,0.0439862,699,1191,-62.9603,-0.419659
-518,-167,-63.0216,-0.109375,0.00459646,0.0127407,-0.00636922,0.0162283,0.00110888,-1.06982,0.0104688,0.044373,706,1191,-63.0216,0.109397
-511,-167,0,0,0,0,0,0,0,0,0,-1,713,1191,0,0
-504,-167,0,0,0,0,0,0,0,0,0,-1,720,1191,0,0
-497,-167,0,0,0,0,0,0,0,0,0,-1,727,1191,0,0
-490,-167,0,0,0,0,0,0,0,0,0,-1,734,1191,0,0
-483,-167,0,0,0,0,0,0,0,0,0,-1,741,1191,0,0
-476,-167,0,0,0,0,0,0,0,0,0,-1,748,1191,0,0
-469,-167,0,0,0,0,0,0,0,0,0,-1,755,1191,0,0
-462,-167,0,0,0,0,0,0,0,0,0,-1,762,1191,0,0
-455,-167,0,0,0,0,0,0,0,0,0,-1,769,1191,0,0
-448,-167,0,0,0,0,0,0,0,0,0,-1,776,1191,0,0
-441,-167,0,0,0,0,0,0,0,0,0,-1,783,1191,0,0
-434,-167,0,0,0,0,0,0,0,0,0,-1,790,1191,0,0
-427,-167,0,0,0,0,0,0,0,0,0,-1,797,1191,0,0
-420,-167,0,0,0,0,0,0,0,0,0,-1,804,1191,0,0
-413,-167,0,0,0,0,0,0,0,0,0,-1,811,1191,0,0
-406,-167,0,0,0,0,0,0,0,0,0,-1,818,1191,0,0
-399,-167,0,0,0,0,0,0,0,0,0,-1,825,1191,0,0
-392,-167,0,0,0,0,0,0,0,0,0,-1,832,1191,0,0
-385,-167,0,0,0,0,0,0,0,0,0,-1,839,1191,0,0
-378,-167,0,0,0,0,0,0,0,0,0,-1,846,1191,0,0
-371,-167,0,0,0,0,0,0,0,0,0,-1,853,1191,0,0
-364,-167,0,0,0,0,0,0,0,0,0,-1,860,1191,0,0
-357,-167,0,0,0,0,0,0,0,0,0,-1,867,1191,0,0
-350,-167,0,0,0,0,0,0,0,0,0,-1,874,1191,0,0
-343,-167,0,0,0,0,0,0,0,0,0,-1,881,1191,0,0
-336,-167,0,0,0,0,0,0,0,0,0,-1,888,1191,0,0
-329,-167,0,0,0,0,0,0,0,0,0,-1,895,1191,0,0
-322,-167,0,0,0,0,0,0,0,0,0,-1,902,1191,0,0
-315,-167,0,0,0,0,0,0,0,0,0,-1,909,1191,0,0
-308,-167,0,0,0,0,0,0,0,0,0,-1,916,1191,0,0
-301,-167,0,0,0,0,0,0,0,0,0,-1,923,1191,0,0
-294,-167,0,0,0,0,0,0,0,0,0,-1,930,1191,0,0
-287,-167,0,0,0,0,0,0,0,0,0,-1,937,1191,0,0
-280,-167,0,0,0,0,0,0,0,0,0,-1,944,1191,0,0
-273,-167,0,0,0,0,0,0,0,0,0,-1,951,1191,0,0
-266,-167,0,0,0,0,0,0,0,0,0,-1,958,1191,0,0
-259,-167,0,0,0,0,0,0,0,0,0,-1,965,1191,0,0
-252,-167,0,0,0,0,0,0,0,0,0,-1,972,1191,0,0
-245,-167,0,0,0,0,0,0,0,0,0,-1,979,1191,0,0
-238,-167,0,0,0,0,0,0,0,0,0,-1,986,1191,0,0
-231,-167,0,0,0,0,0,0,0,0,0,-1,993,1191,0,0
-224,-167,0,0,0,0,0,0,0,0,0,-1,1000,1191,0,0
-217,-167,0,0,0,0,0,0,0,0,0,-1,1007,1191,0,0
-210,-167,0,0,0,0,0,0,0,0,0,-1,1014,1191,0,0
-203,-167,0,0,0,0,0,0,0,0,0,-1,1021,1191,0,0
-196,-167,0,0,0,0,0,0,0,0,0,-1,1028,1191,0,0
-189,-167,0,0,0,0,0,0,0,0,0,-1,1035,1191,0,0
-182,-167,0,0,0,0,0,0,0,0,0,-1,1042,1191,0,0
-175,-167,0,0,0,0,0,0,0,0,0,-1,1049,1191,0,0
-168,-167,0,0,0,0,0,0,0,0,0,-1,1056,1191,0,0
-161,-167,0,0,0,0,0,0,0,0,0,-1,1063,1191,0,0
-154,-167,0,0,0,0,0,0,0,0,0,-1,1070,1191,0,0
-147,-167,0,0,0,0,0,0,0,0,0,-1,1077,1191,0,0
-140,-167,0,0,0,0,0,0,0,0,0,-1,1084,1191,0,0
-133,-167,0,0,0,0,0,0,0,0,0,-1,1091,1191,0,0
-126,-167,0,0,0,0,0,0,0,0,0,-1,1098,1191,0,0
-119,-167,0,0,0,0,0,0,0,0,0,-1,1105,1191,0,0
-112,-167,0,0,0,0,0,0,0,0,0,-1,1112,1191,0,0
-105,-167,0,0,0,0,0,0,0,0,0,-1,1119,1191,0,0
-98,-167,0,0,0,0,0,0,0,0,0,-1,1126,1191,0,0
-91,-167,0,0,0,0,0,0,0,0,0,-1,1133,1191,0,0
-84,-167,0,0,0,0,0,0,0,0,0,-1,1140,1191,0,0
-77,-167,0,0,0,0,0,0,0,0,0,-1,1147,1191,0,0
-70,-167,0,0,0,0,0,0,0,0,0,-1,1154,1191,0,0
-63,-167,0,0,0,0,0,0,0,0,0,-1,1161,1191,0,0
-56,-167,0,0,0,0,0,0,0,0,0,-1,1168,1191,0,0
-49,-167,0,0,0,0,0,0,0,0,0,-1,1175,1191,0,0
-42,-167,0,0,0,0,0,0,0,0,0,-1,1182,1191,0,0
-35,-167,0,0,0,0,0,0,0,0,0,-1,1189,1191,0,0
-28,-167,0,0,0,0,0,0,0,0,0,-1,1196,1191,0,0
-21,-167,0,0,0,0,0,0,0,0,0,-1,1203,1191,0,0
-14,-167,0,0,0,0,0,0,0,0,0,-1,1210,1191,0,0
-7,-167,0,0,0,0,0,0,0,0,0,-1,1217,1191,0,0
0,-167,0,0,0,0,0,0,0,0,0,-1,1224,1191,0,0
7,-167,0,0,0,0,0,0,0,0,0,-1,1231,1191,0,0
14,-167,0,0,0,0,0,0,0,0,0,-1,1238,1191,0,0
21,-167,0,0,0,0,0,0,0,0,0,-1,1245,1191,0,0
28,-167,0,0,0,0,0,0,0,0,0,-1,1252,1191,0,0
35,-167,0,0,0,0,0,0,0,0,0,-1,1259,1191,0,0
42,-167,0,0,0,0,0,0,0,0,0,-1,1266,1191,0,0
49,-167,0,0,0,0,0,0,0,0,0,-1,1273,1191,0,0
56,-167,0,0,0,0,0,0,0,0,0,-1,1280,1191,0,0
63,-167,0,0,0,0,0,0,0,0,0,-1,1287,1191,0,0
70,-167,0,0,0,0,0,0,0,0,0,-1,1294,1191,0,0
77,-167,0,0,0,0,0,0,0,0,0,-1,1301,1191,0,0
84,-167,0,0,0,0,0,0,0,0,0,-1,1308,1191,0,0
91,-167,0,0,0,0,0,0,0,0,0,-1,1315,1191,0,0
98,-167,0,0,0,0,0,0,0,0,0,-1,1322,1191,0,0
105,-167,0,0,0,0,0,0,0,0,0,-1,1329,1191,0,0
112,-167,0,0,0,0,0,0,0,0,0,-1,1336,1191,0,0
119,-167,0,0,0,0,0,0,0,0,0,-1,1343,1191,0,0
126,-167,0,0,0,0,0,0,0,0,0,-1,1350,1191,0,0
133,-167,0,0,0,0,0,0,0,0,0,-1,1357,1191,0,0
140,-167,0,0,0,0,0,0,0,0,0,-1,1364,1191,0,0
147,-167,0,0,0,0,0,0,0,0,0,-1,1371,1191,0,0
154,-167,0,0,0,0,0,0,0,0,0,-1,1378,1191,0,0
161,-167,0,0,0,0,0,0,0,0,0,-1,1385,1191,0,0
168,-167,0,0,0,0,0,0,0,0,0,-1,1392,1191,0,0
175,-167,0,0,0,0,0,0,0,0,0,-1,1399,1191,0,0
182,-167,0,0,0,0,0,0,0,0,0,-1,1406,1191,0,0
189,-167,0,0,0,0,0,0,0,0,0,-1,1413,1191,0,0
196,-167,0,0,0,0,0,0,0,0,0,-1,1420,1191,0,0
203,-167,0,0,0,0,0,0,0,0,0,-1,1427,1191,0,0
210,-167,0,0,0,0,0,0,0,0,0,-1,1434,1191,0,0
217,-167,0,0,0,0,0,0,0,0,0,-1,1441,1191,0,0
224,-167,0,0,0,0,0,0,0,0,0,-1,1448,1191,0,0
231,-167,0,0,0,0,0,0,0,0,0,-1,1455,1191,0,0
238,-167,0,0,0,0,0,0,0,0,0,-1,1462,1191,0,0
245,-167,0,0,0,0,0,0,0,0,0,-1,1469,1191,0,0
252,-167,0,0,0,0,0,0,0,0,0,-1,1476,1191,0,0
259,-167,0,0,0,0,0,0,0,0,0,-1,1483,1191,0,0
266,-167,0,0,0,0,0,0,0,0,0,-1,1490,1191,0,0
273,-167,0,0,0,0,0,0,0,0,0,-1,1497,1191,0,0
280,-167,0,0,0,0,0,0,0,0,0,-1,1504,1191,0,0
287,-167,0,0,0,0,0,0,0,0,0,-1,1511,1191,0,0
294,-167,0,0,0,0,0,0,0,0,0,-1,1518,1191,0,0
301,-167,0,0,0,0,0,0,0,0,0,-1,1525,1191,0,0
308,-167,0,0,0,0,0,0,0,0,0,-1,1532,1191,0,0
315,-167,0,0,0,0,0,0,0,0,0,-1,1539,1191,0,0
322,-167,0,0,0,0,0,0,0,0,0,-1,1546,1191,0,0
329,-167,0,0,0,0,0,0,0,0,0,-1,1553,1191,0,0
336,-167,0,0,0,0,0,0,0,0,0,-1,1560,1191,0,0
343,-167,0,0,0,0,0,0,0,0,0,-1,1567,1191,0,0
350,-167,0,0,0,0,0,0,0,0,0,-1,1574,1191,0,0
357,-167,0,0,0,0,0,0,0,0,0,-1,1581,1191,0,0
364,-167,0,0,0,0,0,0,0,0,0,-1,1588,1191,0,0
371,-167,0,0,0,0,0,0,0,0,0,-1,1595,1191,0,0
378,-167,0,0,0,0,0,0,0,0,0,-1,1602,1191,0,0
385,-167,0,0,0,0,0,0,0,0,0,-1,1609,1191,0,0
392,-167,0,0,0,0,0,0,0,0,0,-1,1616,1191,0,0
399,-167,0,0,0,0,0,0,0,0,0,-1,1623,1191,0,0
406,-167,0,0,0,0,0,0,0,0,0,-1,1630,1191,0,0
413,-167,0,0,0,0,0,0,0,0,0,-1,1637,1191,0,0
420,-167,0,0,0,0,0,0,0,0,0,-1,1644,1191,0,0
427,-167,0,0,0,0,0,0,0,0,0,-1,1651,1191,0,0
434,-167,0,0,0,0,0,0,0,0,0,-1,1658,1191,0,0
441,-167,0,0,0,0,0,0,0,0,0,-1,1665,1191,0,0
448,-167,0,0,0,0,0,0,0,0,0,-1,1672,1191,0,0
455,-167,0,0,0,0,0,0,0,0,0,-1,1679,1191,0,0
462,-167,0,0,0,0,0,0,0,0,0,-1,1686,1191,0,0
469,-167,0,0,0,0,0,0,0,0,0,-1,1693,1191,0,0
476,-167,0,0,0,0,0,0,0,0,0,-1,1700,1191,0,0
483,-167,0,0,0,0,0,0,0,0,0,-1,1707,1191,0,0
490,-167,0,0,0,0,0,0,0,0,0,-1,1714,1191,0,0
497,-167,0,0,0,0,0,0,0,0,0,-1,1721,1191,0,0
504,-167,0,0,0,0,0,0,0,0,0,-1,1728,1191,0,0
511,-167,0,0,0,0,0,0,0,0,0,-1,1735,1191,0,0
518,-167,0,0,0,0,0,0,0,0,0,-1,1742,1191,0,0
525,-167,0,0,0,0,0,0,0,0,0,-1,1749,1191,0,0
532,-167,0,0,0,0,0,0,0,0,0,-1,1756,1191,0,0
539,-167,0,0,0,0,0,0,0,0,0,-1,1763,1191,0,0
546,-167,0,0,0,0,0,0,0,0,0,-1,1770,1191,0,0
553,-167,0,0,0,0,0,0,0,0,0,-1,1777,1191,0,0
560,-167,0,0,0,0,0,0,0,0,0,-1,1784,1191,0,0
567,-167,0,0,0,0,0,0,0,0,0,-1,1791,1191,0,0
574,-167,0,0,0,0,0,0,0,0,0,-1,1798,1191,0,0
581,-167,0,0,0,0,0,0,0,0,0,-1,1805,1191,0,0
588,-167,0,0,0,0,0,0,0,0,0,-1,1812,1191,0,0
595,-167,0,0,0,0,0,0,0,0,0,-1,1819,1191,0,0
602,-167,0,0,0,0,0,0,0,0,0,-1,1826,1191,0,0
609,-167,0,0,0,0,0,0,0,0,0,-1,1833,1191,0,0
616,-167,0,0,0,0,0,0,0,0,0,-1,1840,1191,0,0
623,-167,0,0,0,0,0,0,0,0,0,-1,1847,1191,0,0
630,-167,0,0,0,0,0,0,0,0,0,-1,1854,1191,0,0
637,-167,79.6976,2.30493,0.00395934,-0.00376223,0.00112413,0.00411966,-0.00392256,0.141666,0.00464364,0.0420265,1861,1191,79.6976,-2.30495
644,-167,79.9027,2.14465,0.00275776,-0.00252674,0.000696279,0.00284796,-0.00261694,0.12883,0.0031561,0.0461315,1868,1191,79.9027,-2.14466
651,-167,79.8628,2.29004,0.00181349,-0.00130618,0.000124818,0.00181847,-0.00131116,0.0399249,0.00181479,0.042191,1875,1191,79.8628,-2.29004
658,-167,79.8297,2.33057,0.00098347,-0.000130595,-0.000466316,0.00115289,-0.000300017,-0.348492,0.000885703,0.0428996,1882,1191,79.8297,-2.3306
665,-167,80.0123,2.276,0.000273081,0.00100767,-0.00091356,0.00162501,-0.000344253,-0.976534,0.00121446,0.0388866,1889,1191,80.0123,-2.27596
672,-167,79.9576,2.2196,-0.00018449,0.00216112,-0.00125372,0.00270508,-0.000728449,-1.16143,0.00208897,0.0281439,1896,1191,79.9576,-2.21964
679,-167,79.9144,2.18262,-0.000249731,0.00266929,-0.00131796,0.0031763,-0.00075674,-1.20356,0.00240972,0.0203366,1903,1191,79.9144,-2.18256
686,-167,79.8876,2.10303,0.000173442,0.00257792,-0.00129499,0.00314271,-0.000391342,-1.15954,0.00223702,0.0377077,1910,1191,79.8875,-2.10308
693,-167,79.8414,1.99866,0,0,0,0,0,0,0,-1,1917,1191,79.8414,-1.9987
700,-167,28.0459,2.70508,0,0,0,0,0,0,0,-1,1924,1191,28.0459,-2.70513
707,-167,29.4708,7.10168,0,0,0,0,0,0,0,-1,1931,1191,29.4708,-7.10172
714,-167,35.9202,6.84668,0,0,0,0,0,0,0,-1,1938,1191,35.9202,-6.84664
721,-167,36.2072,6.38892,0,0,0,0,0,0,0,-1,1945,1191,36.2072,-6.38891
728,-167,63.7198,9.84265,0,0,0,0,0,0,0,-1,1952,1191,63.7199,-9.8427
735,-167,67.3197,9.52429,0,0,0,0,0,0,0,-1,1959,1191,67.3197,-9.52423
742,-167,67.2488,8.75513,0.000479895,0.00177093,0.00103354,0.00234398,-9.31508e-05,1.06454,0.00159461,0.0178528,1966,1191,67.2488,-8.75518
749,-167,67.2152,7.97534,-0.000532042,0.00202565,0.00110628,0.00243775,-0.000944147,1.21421,0.00201501,0.0147022,1973,1191,67.2152,-7.97535
756,-167,67.1952,7.24341,-0.00191434,0.00269481,0.000804082,0.00283106,-0.00205058,1.40295,0.0028304,0.0115113,1980,1191,67.1953,-7.24346
763,-167,67.1133,6.51025,-0.00363916,0.00349827,0.000386852,0.00351918,-0.00366006,1.51681,0.0041452,0.0147792,1987,1191,67.1134,-6.5103
770,-167,66.8198,5.67676,0,0,0,0,0,0,0,-1,1994,1191,66.8198,-5.67676
777,-167,66.8806,4.99219,0,0,0,0,0,0,0,-1,2001,1191,66.8807,-4.99214
784,-167,68.5981,4.3302,0,0,0,0,0,0,0,-1,2008,1191,68.5981,-4.33021
791,-167,68.4897,3.34521,0,0,0,0,0,0,0,-1,2015,1191,68.4898,-3.34518
798,-167,68.3813,2.36011,0,0,0,0,0,0,0,-1,2022,1191,68.3814,-2.36014
805,-167,68.0513,1.83752,0,0,0,0,0,0,0,-1,2029,1191,68.0514,-1.83759
812,-167,0,0,0,0,0,0,0,0,0,-1,2036,1191,0,0
-700,-174,0,0,0,0,0,0,0,0,0,-1,524,1198,0,0
-693,-174,0,0,0,0,0,0,0,0,0,-1,531,1198,0,0
-686,-174,-58.8232,6.93396,0,0,0,0,0,0,0,-1,538,1198,-58.8232,-6.93395
-679,-174,-58.7383,7.33899,0,0,0,0,0,0,0,-1,545,1198,-58.7383,-7.33902
-672,-174,-54.8538,9.71924,0,0,0,0,0,0,0,-1,552,1198,-54.8538,-9.7193
-665,-174,-53.898,9.59973,0,0,0,0,0,0,0,-1,559,1198,-53.898,-9.59971
-658,-174,-57.5522,9.40894,0,0,0,0,0,0,0,-1,566,1198,-57.5522,-9.40895
-651,-174,-49.7645,3.55505,0,0,0,0,0,0,0,-1,573,1198,-49.7645,-3.55511
-644,-174,-49.7828,4.35718,0.0551698,-0.00231466,0.0302453,0.0681516,-0.0152965,0.405437,0.0512991,0.0463528,580,1198,-49.7828,-4.35712
-637,-174,-49.8572,5.19373,0.0370364,-0.000198629,0.0206949,0.0462557,-0.00941794,0.419095,0.0344088,0.0277242,587,1198,-49.8572,-5.19367
-630,-174,-50.0438,5.94214,0.0213615,0.0011684,0.0113832,0.0264807,-0.00395078,0.422614,0.0191074,0.0142399,594,1198,-50.0438,-5.94218
-623,-174,-50.0976,6.72375,0.00780754,0.0013702,0.00301419,0.00899854,0.000179197,0.376301,0.0059402,0.016381,601,1198,-50.0976,-6.72381
-616,-174,-50.1253,7.52942,-0.0025133,0.00127411,-0.00393374,0.00374623,-0.00498542,-1.00973,0.00505812,0.0223342,608,1198,-50.1253,-7.52941
-609,-174,-50.2117,8.30103,-0.00448177,0.000523798,-0.00673905,0.0052098,-0.00916777,-0.963197,0.00840509,0.025889,615,1198,-50.2117,-8.30108
-602,-174,-50.2888,9.03418,0,0,0,0,0,0,0,-1,622,1198,-50.2888,-9.03422
-595,-174,-48.6967,9.0376,0,0,0,0,0,0,0,-1,629,1198,-48.6967,-9.03761
-588,-174,-50.4626,10.7261,0,0,0,0,0,0,0,-1,636,1198,-50.4627,-10.7261
-581,-174,-50.3373,11.3962,0,0,0,0,0,0,0,-1,643,1198,-50.3373,-11.3962
-574,-174,-31.7448,7.09595,0,0,0,0,0,0,0,-1,650,1198,-31.7448,-7.09599
-567,-174,-26.6597,3.04041,0,0,0,0,0,0,0,-1,657,1198,-26.6597,-3.04039
-560,-174,-42.6953,1.07178,0,0,0,0,0,0,0,-1,664,1198,-42.6953,-1.07181
-553,-174,-62.9047,0.265381,0,0,0,0,0,0,0,-1,671,1198,-62.9047,-0.26534
-546,-174,-62.9536,0.35144,0.000848957,0.00334519,-0.00280817,0.00517012,-0.000975971,-0.994516,0.00381392,0.03256,678,1198,-62.9536,-0.351387
-539,-174,-63.0074,0.436279,0.000825637,0.00407159,-0.00238954,0.00533721,-0.000439976,-1.08371,0.00371349,0.03233,685,1198,-63.0074,-0.436299
-532,-174,-62.9286,0.58667,0.000907022,0.0054484,-0.00212577,0.00628817,6.72527e-05,-1.19457,0.00416987,0.0419915,692,1198,-62.9286,-0.586625
-525,-174,-62.9245,0.504395,0.0023555,0.00862792,-0.00338876,0.010109,0.000874404,-1.15875,0.00646761,0.0451079,699,1198,-62.9245,-0.50436
-518,-174,-63.1667,-0.390747,0,0,0,0,0,0,0,-1,706,1198,-63.1667,0.390714
-511,-174,0,0,0,0,0,0,0,0,0,-1,713,1198,0,0
-504,-174,0,0,0,0,0,0,0,0,0,-1,720,1198,0,0
-497,-174,0,0,0,0,0,0,0,0,0,-1,727,1198,0,0
-490,-174,0,0,0,0,0,0,0,0,0,-1,734,1198,0,0
-483,-174,0,0,0,0,0,0,0,0,0,-1,741,1198,0,0
-476,-174,0,0,0,0,0,0,0,0,0,-1,748,1198,0,0
-469,-174,0,0,0,0,0,0,0,0,0,-1,755,1198,0,0
-462,-174,0,0,0,0,0,0,0,0,0,-1,762,1198,0,0
-455,-174,0,0,0,0,0,0,0,0,0,-1,769,1198,0,0
-448,-174,0,0,0,0,0,0,0,0,0,-1,776,1198,0,0
-441,-174,0,0,0,0,0,0,0,0,0,-1,783,1198,0,0
-434,-174,0,0,0,0,0,0,0,0,0,-1,790,1198,0,0
-427,-174,0,0,0,0,0,0,0,0,0,-1,797,1198,0,0
-420,-174,0,0,0,0,0,0,0,0,0,-1,804,1198,0,0
-413,-174,0,0,0,0,0,0,0,0,0,-1,811,1198,0,0
-406,-174,0,0,0,0,0,0,0,0,0,-1,818,1198,0,0
-399,-174,0,0,0,0,0,0,0,0,0,-1,825,1198,0,0
-392,-174,0,0,0,0,0,0,0,0,0,-1,832,1198,0,0
-385,-174,0,0,0,0,0,0,0,0,0,-1,839,1198,0,0
-378,-174,0,0,0,0,0,0,0,0,0,-1,846,1198,0,0
-371,-174,0,0,0,0,0,0,0,0,0,-1,853,1198,0,0
-364,-174,0,0,0,0,0,0,0,0,0,-1,860,1198,0,0
-357,-174,0,0,0,0,0,0,0,0,0,-1,867,1198,0,0
-350,-174,0,0,0,0,0,0,0,0,0,-1,874,1198,0,0
-343,-174,0,0,0,0,0,0,0,0,0,-1,881,1198,0,0
-336,-174,0,0,0,0,0,0,0,0,0,-1,888,1198,0,0
-329,-174,0,0,0,0,0,0,0,0,0,-1,895,1198,0,0
-322,-174,0,0,0,0,0,0,0,0,0,-1,902,1198,0,0
-315,-174,0,0,0,0,0,0,0,0,0,-1,909,1198,0,0
-308,-174,0,0,0,0,0,0,0,0,0,-1,916,1198,0,0
-301,-174,0,0,0,0,0,0,0,0,0,-1,923,1198,0,0
-294,-174,0,0,0,0,0,0,0,0,0,-1,930,1198,0,0
-287,-174,0,0,0,0,0,0,0,0,0,-1,937,1198,0,0
-280,-174,0,0,0,0,0,0,0,0,0,-1,944,1198,0,0
-273,-174,0,0,0,0,0,0,0,0,0,-1,951,1198,0,0
-266,-174,0,0,0,0,0,0,0,0,0,-1,958,1198,0,0
-259,-174,0,0,0,0,0,0,0,0,0,-1,965,1198,0,0
-252,-174,0,0,0,0,0,0,0,0,0,-1,972,1198,0,0
-245,-174,0,0,0,0,0,0,0,0,0,-1,979,1198,0,0
-238,-174,0,0,0,0,0,0,0,0,0,-1,986,1198,0,0
-231,-174,0,0,0,0,0,0,0,0,0,-1,993,1198,0,0
-224,-174,0,0,0,0,0,0,0,0,0,-1,1000,1198,0,0
-217,-174,0,0,0,0,0,0,0,0,0,-1,1007,1198,0,0
-210,-174,0,0,0,0,0,0,0,0,0,-1,1014,1198,0,0
-203,-174,0,0,0,0,0,0,0,0,0,-1,1021,1198,0,0
-196,-174,0,0,0,0,0,0,0,0,0,-1,1028,1198,0,0
-189,-174,0,0,0,0,0,0,0,0,0,-1,1035,1198,0,0
-182,-174,0,0,0,0,0,0,0,0,0,-1,1042,1198,0,0
-175,-174,0,0,0,0,0,0,0,0,0,-1,1049,1198,0,0
-168,-174,0,0,0,0,0,0,0,0,0,-1,1056,1198,0,0
-161,-174,0,0,0,0,0,0,0,0,0,-1,1063,1198,0,0
-154,-174,0,0,0,0,0,0,0,0,0,-1,1070,1198,0,0
-147,-174,0,0,0,0,0,0,0,0,0,-1,1077,1198,0,0
-140,-174,0,0,0,0,0,0,0,0,0,-1,1084,1198,0,0
-133,-174,0,0,0,0,0,0,0,0,0,-1,1091,1198,0,0
-126,-174,0,0,0,0,0,0,0,0,0,-1,1098,1198,0,0
-119,-174,0,0,0,0,0,0,0,0,0,-1,1105,1198,0,0
-112,-174,0,0,0,0,0,0,0,0,0,-1,1112,1198,0,0
-105,-174,0,0,0,0,0,0,0,0,0,-1,1119,1198,0,0
-98,-174,0,0,0,0,0,0,0,0,0,-1,1126,1198,0,0
-91,-174,0,0,0,0,0,0,0,0,0,-1,1133,1198,0,0
-84,-174,0,0,0,0,0,0,0,0,0,-1,1140,1198,0,0
-77,-174,0,0,0,0,0,0,0,0,0,-1,1147,1198,0,0
-70,-174,0,0,0,0,0,0,0,0,0,-1,1154,1198,0,0
-63,-174,0,0,0,0,0,0,0,0,0,-1,1161,1198,0,0
-56,-174,0,0,0,0,0,0,0,0,0,-1,1168,1198,0,0
-49,-174,0,0,0,0,0,0,0,0,0,-1,1175,1198,0,0
-42,-174,0,0,0,0,0,0,0,0,0,-1,1182,1198,0,0
-35,-174,0,0,0,0,0,0,0,0,0,-1,1189,1198,0,0
-28,-174,0,0,0,0,0,0,0,0,0,-1,1196,1198,0,0
-21,-174,0,0,0,0,0,0,0,0,0,-1,1203,1198,0,0
-14,-174,0,0,0,0,0,0,0,0,0,-1,1210,1198,0,0
-7,-174,0,0,0,0,0,0,0,0,0,-1,1217,1198,0,0
0,-174,0,0,0,0,0,0,0,0,0,-1,1224,1198,0,0
7,-174,0,0,0,0,0,0,0,0,0,-1,1231,1198,0,0
14,-174,0,0,0,0,0,0,0,0,0,-1,1238,1198,0,0
21,-174,0,0,0,0,0,0,0,0,0,-1,1245,1198,0,0
28,-174,0,0,0,0,0,0,0,0,0,-1,1252,1198,0,0
35,-174,0,0,0,0,0,0,0,0,0,-1,1259,1198,0,0
42,-174,0,0,0,0,0,0,0,0,0,-1,1266,1198,0,0
49,-174,0,0,0,0,0,0,0,0,0,-1,1273,1198,0,0
56,-174,0,0,0,0,0,0,0,0,0,-1,1280,1198,0,0
63,-174,0,0,0,0,0,0,0,0,0,-1,1287,1198,0,0
70,-174,0,0,0,0,0,0,0,0,0,-1,1294,1198,0,0
77,-174,0,0,0,0,0,0,0,0,0,-1,1301,1198,0,0
84,-174,0,0,0,0,0,0,0,0,0,-1,1308,1198,0,0
91,-174,0,0,0,0,0,0,0,0,0,-1,1315,1198,0,0
98,-174,0,0,0,0,0,0,0,0,0,-1,1322,1198,0,0
105,-174,0,0,0,0,0,0,0,0,0,-1,1329,1198,0,0
112,-174,0,0,0,0,0,0,0,0,0,-1,1336,1198,0,0
119,-174,0,0,0,0,0,0,0,0,0,-1,1343,1198,0,0
126,-174,0,0,0,0,0,0,0,0,0,-1,1350,1198,0,0
133,-174,0,0,0,0,0,0,0,0,0,-1,1357,1198,0,0
140,-174,0,0,0,0,0,0,0,0,0,-1,1364,1198,0,0
147,-174,0,0,0,0,0,0,0,0,0,-1,1371,1198,0,0
154,-174,0,0,0,0,0,0,0,0,0,-1,1378,1198,0,0
161,-174,0,0,0,0,0,0,0,0,0,-1,1385,1198,0,0
168,-174,0,0,0,0,0,0,0,0,0,-1,1392,1198,0,0
175,-174,0,0,0,0,0,0,0,0,0,-1,1399,1198,0,0
182,-174,0,0,0,0,0,0,0,0,0,-1,1406,1198,0,0
189,-174,0,0,0,0,0,0,0,0,0,-1,1413,1198,0,0
196,-174,0,0,0,0,0,0,0,0,0,-1,1420,1198,0,0
203,-174,0,0,0,0,0,0,0,0,0,-1,1427,1198,0,0
210,-174,0,0,0,0,0,0,0,0,0,-1,1434,1198,0,0
217,-174,0,0,0,0,0,0,0,0,0,-1,1441,1198,0,0
224,-174,0,0,0,0,0,0,0,0,0,-1,1448,1198,0,0
231,-174,0,0,0,0,0,0,0,0,0,-1,1455,1198,0,0
238,-174,0,0,0,0,0,0,0,0,0,-1,1462,1198,0,0
245,-174,0,0,0,0,0,0,0,0,0,-1,1469,1198,0,0
252,-174,0,0,0,0,0,0,0,0,0,-1,1476,1198,0,0
259,-174,0,0,0,0,0,0,0,0,0,-1,1483,1198,0,0
266,-174,0,0,0,0,0,0,0,0,0,-1,1490,1198,0,0
273,-174,0,0,0,0,0,0,0,0,0,-1,1497,1198,0,0
280,-174,0,0,0,0,0,0,0,0,0,-1,1504,1198,0,0
287,-174,0,0,0,0,0,0,0,0,0,-1,1511,1198,0,0
294,-174,0,0,0,0,0,0,0,0,0,-1,1518,1198,0,0
301,-174,0,0,0,0,0,0,0,0,0,-1,1525,1198,0,0
308,-174,0,0,0,0,0,0,0,0,0,-1,1532,1198,0,0
315,-174,0,0,0,0,0,0,0,0,0,-1,1539,1198,0,0
322,-174,0,0,0,0,0,0,0,0,0,-1,1546,1198,0,0
329,-174,0,0,0,0,0,0,0,0,0,-1,1553,1198,0,0
336,-174,0,0,0,0,0,0,0,0,0,-1,1560,1198,0,0
343,-174,0,0,0,0,0,0,0,0,0,-1,1567,1198,0,0
350,-174,0,0,0,0,0,0,0,0,0,-1,1574,1198,0,0
357,-174,0,0,0,0,0,0,0,0,0,-1,1581,1198,0,0
364,-174,0,0,0,0,0,0,0,0,0,-1,1588,1198,0,0
371,-174,0,0,0,0,0,0,0,0,0,-1,1595,1198,0,0
378,-174,0,0,0,0,0,0,0,0,0,-1,1602,1198,0,0
385,-174,0,0,0,0,0,0,0,0,0,-1,1609,1198,0,0
392,-174,0,0,0,0,0,0,0,0,0,-1,1616,1198,0,0
399,-174,0,0,0,0,0,0,0,0,0,-1,1623,1198,0,0
406,-174,0,0,0,0,0,0,0,0,0,-1,1630,1198,0,0
413,-174,0,0,0,0,0,0,0,0,0,-1,1637,1198,0,0
420,-174,0,0,0,0,0,0,0,0,0,-1,1644,1198,0,0
427,-174,0,0,0,0,0,0,0,0,0,-1,1651,1198,0,0
434,-174,0,0,0,0,0,0,0,0,0,-1,1658,1198,0,0
441,-174,0,0,0,0,0,0,0,0,0,-1,1665,1198,0,0
448,-174,0,0,0,0,0,0,0,0,0,-1,1672,1198,0,0
455,-174,0,0,0,0,0,0,0,0,0,-1,1679,1198,0,0
462,-174,0,0,0,0,0,0,0,0,0,-1,1686,1198,0,0
469,-174,0,0,0,0,0,0,0,0,0,-1,1693,1198,0,0
476,-174,0,0,0,0,0,0,0,0,0,-1,1700,1198,0,0
483,-174,0,0,0,0,0,0,0,0,0,-1,1707,1198,0,0
490,-174,0,0,0,0,0,0,0,0,0,-1,1714,1198,0,0
497,-174,0,0,0,0,0,0,0,0,0,-1,1721,1198,0,0
504,-174,0,0,0,0,0,0,0,0,0,-1,1728,1198,0,0
511,-174,0,0,0,0,0,0,0,0,0,-1,1735,1198,0,0
518,-174,0,0,0,0,0,0,0,0,0,-1,1742,1198,0,0
525,-174,0,0,0,0,0,0,0,0,0,-1,1749,1198,0,0
532,-174,0,0,0,0,0,0,0,0,0,-1,1756,1198,0,0
539,-174,0,0,0,0,0,0,0,0,0,-1,1763,1198,0,0
546,-174,0,0,0,0,0,0,0,0,0,-1,1770,1198,0,0
553,-174,0,0,0,0,0,0,0,0,0,-1,1777,1198,0,0
560,-174,0,0,0,0,0,0,0,0,0,-1,1784,1198,0,0
567,-174,0,0,0,0,0,0,0,0,0,-1,1791,1198,0,0
574,-174,0,0,0,0,0,0,0,0,0,-1,1798,1198,0,0
581,-174,0,0,0,0,0,0,0,0,0,-1,1805,1198,0,0
588,-174,0,0,0,0,0,0,0,0,0,-1,1812,1198,0,0
595,-174,0,0,0,0,0,0,0,0,0,-1,1819,1198,0,0
602,-174,0,0,0,0,0,0,0,0,0,-1,1826,1198,0,0
609,-174,0,0,0,0,0,0,0,0,0,-1,1833,1198,0,0
616,-174,0,0,0,0,0,0,0,0,0,-1,1840,1198,0,0
623,-174,0,0,0,0,0,0,0,0,0,-1,1847,1198,0,0
630,-174,0,0,0,0,0,0,0,0,0,-1,1854,1198,0,0
637,-174,79.6903,2.29248,0.00367337,-0.00343506,0.00075378,0.00375243,-0.00351411,0.104492,0.00419609,0.0395103,1861,1198,79.6903,-2.29254
644,-174,79.7634,2.30591,0.00263547,-0.00212216,0.000301728,0.00265453,-0.00214122,0.0630831,0.00277411,0.0405167,1868,1198,79.7634,-2.30586
651,-174,79.8665,2.23938,0.00176448,-0.000803252,-0.00030936,0.00180122,-0.000839997,-0.118226,0.00155821,0.0400061,1875,1198,79.8665,-2.23938
658,-174,79.8679,2.1814,0.000940909,0.000447659,-0.000880827,0.00160899,-0.000220419,-0.648897,0.00115317,0.0400786,1882,1198,79.8679,-2.18137
665,-174,79.9341,2.17419,0.000214519,0.00158405,-0.00119448,0.00227612,-0.00047755,-1.04567,0.00169912,0.0354086,1889,1198,79.9341,-2.17425
672,-174,79.9247,2.16968,-0.000234128,0.00266528,-0.00134201,0.00319108,-0.000759932,-1.19738,0.00242079,0.0269963,1896,1198,79.9247,-2.1697
679,-174,79.8955,2.12024,-0.000306538,0.00305155,-0.00126855,0.00347688,-0.000731873,-1.24728,0.00259649,0.0244684,1903,1198,79.8955,-2.12018
686,-174,79.8661,2.03772,0,0,0,0,0,0,0,-1,1910,1198,79.8661,-2.03769
693,-174,51.1324,2.57349,0,0,0,0,0,0,0,-1,1917,1198,51.1325,-2.57343
700,-174,25.4004,6.11792,0,0,0,0,0,0,0,-1,1924,1198,25.4004,-6.11797
707,-174,34.7908,7.34473,0,0,0,0,0,0,0,-1,1931,1198,34.7908,-7.34475
714,-174,40.1135,7.79871,0,0,0,0,0,0,0,-1,1938,1198,40.1135,-7.79875
721,-174,40.8693,7.59863,0,0,0,0,0,0,0,-1,1945,1198,40.8693,-7.59859
728,-174,66.1897,10.308,0,0,0,0,0,0,0,-1,1952,1198,66.1897,-10.3079
735,-174,66.3612,9.60706,0.00056665,0.00248773,0.000630949,0.00267643,0.000377959,1.2802,0.00167259,0.02977,1959,1198,66.3612,-9.60702
742,-174,66.4938,8.78162,0.000425111,0.00228226,0.000861617,0.00262042,8.69432e-05,1.19679,0.0017187,0.0217452,1966,1198,66.4937,-8.78164
749,-174,66.4741,8.02161,-0.0004151,0.00232922,0.000986358,0.00264695,-0.000732829,1.25917,0.00205298,0.0179334,1973,1198,66.4742,-8.02159
756,-174,66.4111,7.27075,-0.00153927,0.00266032,0.000924824,0.00285496,-0.00173391,1.36336,0.00267561,0.010802,1980,1198,66.4112,-7.27073
763,-174,66.363,6.53442,-0.00306416,0.00317131,0.000856221,0.00328674,-0.0031796,1.43679,0.00373351,0.0187622,1987,1198,66.3631,-6.53448
770,-174,66.3745,5.76416,0,0,0,0,0,0,0,-1,1994,1198,66.3744,-5.76419
777,-174,72.7517,-3.92542,0,0,0,0,0,0,0,-1,2001,1198,72.7517,3.92536
784,-174,72.8079,-3.6228,0,0,0,0,0,0,0,-1,2008,1198,72.8078,3.62276
791,-174,68.3086,2.95959,0,0,0,0,0,0,0,-1,2015,1198,68.3086,-2.95958
798,-174,66.0049,3.41138,0,0,0,0,0,0,0,-1,2022,1198,66.005,-3.41138
805,-174,67.0996,2.96021,0,0,0,0,0,0,0,-1,2029,1198,67.0996,-2.96025
812,-174,0,0,0,0,0,0,0,0,0,-1,2036,1198,0,0
-700,-181,0,0,0,0,0,0,0,0,0,-1,524,1205,0,0
-693,-181,0,0,0,0,0,0,0,0,0,-1,531,1205,0,0
-686,-181,-59.1302,7.08228,0,0,0,0,0,0,0,-1,538,1205,-59.1303,-7.08231
-679,-181,-58.9246,7.71326,0.172436,0.00248682,0.100397,0.218992,-0.0440692,0.434203,0.162686,0.0456247,545,1205,-58.9246,-7.7133
-672,-181,-58.776,8.30676,0,0,0,0,0,0,0,-1,552,1205,-58.776,-8.30681
-665,-181,-58.4706,8.9375,0.133425,0.00499869,0.078299,0.170474,-0.0320506,0.441959,0.125702,0.0474188,559,1205,-58.4706,-8.93744
-658,-181,-58.1808,9.61523,0.111494,0.00580256,0.0661577,0.143322,-0.0260246,0.448398,0.1053,0.046728,566,1205,-58.1808,-9.61518
-651,-181,-49.0378,3.43396,0,0,0,0,0,0,0,-1,573,1205,-49.0378,-3.43396
-644,-181,-49.0748,4.28003,0.0671386,0.00563452,0.0408487,0.0875169,-0.0147437,0.462744,0.0638293,0.0486807,580,1205,-49.0748,-4.28002
-637,-181,-49.0835,5.20642,0.0465178,0.00507731,0.0287034,0.0611983,-0.00960322,0.47277,0.0443479,0.0279435,587,1205,-49.0835,-5.20643
-630,-181,-49.2642,5.97632,0.0286946,0.00423675,0.0172082,0.0375765,-0.00464522,0.476481,0.0267343,0.0144089,594,1205,-49.2642,-5.9763
-623,-181,-49.3211,6.76318,0.0137616,0.00294608,0.00719785,0.0173568,-0.000649104,0.463231,0.0117935,0.016755,601,1205,-49.3211,-6.76323
-616,-181,-49.3351,7.57129,0.00179132,0.00183485,-0.00110447,0.00291777,0.000708401,-0.795252,0.0017573,0.0167409,608,1205,-49.3351,-7.57128
-609,-181,-49.3748,8.3689,-0.00256866,0.00110354,-0.00565476,0.00521282,-0.00667794,-0.942378,0.00688248,0.0166094,615,1205,-49.3748,-8.36889
-602,-181,-49.311,9.20068,-0.00161673,0.000754528,-0.00601687,0.00570147,-0.00656367,-0.882677,0.00708711,0.0343531,622,1205,-49.311,-9.20068
-595,-181,-48.9624,10.0402,0,0,0,0,0,0,0,-1,629,1205,-48.9624,-10.0402
-588,-181,-49.6666,10.7473,0,0,0,0,0,0,0,-1,636,1205,-49.6665,-10.7473
-581,-181,-49.5936,11.6241,0,0,0,0,0,0,0,-1,643,1205,-49.5936,-11.6242
-574,-181,-48.8802,12.0797,0,0,0,0,0,0,0,-1,650,1205,-48.8802,-12.0797
-567,-181,-25.8839,3.34485,0,0,0,0,0,0,0,-1,657,1205,-25.8839,-3.3449
-560,-181,-31.7396,1.63306,0,0,0,0,0,0,0,-1,664,1205,-31.7396,-1.63303
-553,-181,-57.8761,0.527832,0,0,0,0,0,0,0,-1,671,1205,-57.8761,-0.527787
-546,-181,-62.9439,0.323853,0,0,0,0,0,0,0,-1,678,1205,-62.9439,-0.323843
-539,-181,-62.98,0.328491,0.000502308,0.00407709,-0.0032742,0.00602,-0.0014406,-1.03524,0.00456986,0.0384509,685,1205,-62.98,-0.32853
-532,-181,-62.9966,0.397705,0.000212649,0.00480694,-0.0024426,0.00586288,-0.000843293,-1.16276,0.00421788,0.0439962,692,1205,-62.9967,-0.397753
-525,-181,-62.969,0.565796,0.00107179,0.00703657,-0.00243613,0.00790508,0.000203283,-1.22833,0.00520361,0.0423258,699,1205,-62.969,-0.565834
-518,-181,-62.9004,0.69397,0.00254884,0.0119189,-0.00353095,0.0131004,0.00136726,-1.24787,0.00831543,0.0416016,706,1205,-62.9004,-0.693954
-511,-181,0,0,0,0,0,0,0,0,0,-1,713,1205,0,0
-504,-181,0,0,0,0,0,0,0,0,0,-1,720,1205,0,0
-497,-181,0,0,0,0,0,0,0,0,0,-1,727,1205,0,0
-490,-181,0,0,0,0,0,0,0,0,0,-1,734,1205,0,0
-483,-181,0,0,0,0,0,0,0,0,0,-1,741,1205,0,0
-476,-181,0,0,0,0,0,0,0,0,0,-1,748,1205,0,0
-469,-181,0,0,0,0,0,0,0,0,0,-1,755,1205,0,0
-462,-181,0,0,0,0,0,0,0,0,0,-1,762,1205,0,0
-455,-181,0,0,0,0,0,0,0,0,0,-1,769,1205,0,0
-448,-181,0,0,0,0,0,0,0,0,0,-1,776,1205,0,0
-441,-181,0,0,0,0,0,0,0,0,0,-1,783,1205,0,0
-434,-181,0,0,0,0,0,0,0,0,0,-1,790,1205,0,0
-427,-181,0,0,0,0,0,0,0,0,0,-1,797,1205,0,0
-420,-181,0,0,0,0,0,0,0,0,0,-1,804,1205,0,0
-413,-181,0,0,0,0,0,0,0,0,0,-1,811,1205,0,0
-406,-181,0,0,0,0,0,0,0,0,0,-1,818,1205,0,0
-399,-181,0,0,0,0,0,0,0,0,0,-1,825,1205,0,0
-392,-181,0,0,0,0,0,0,0,0,0,-1,832,1205,0,0
-385,-181,0,0,0,0,0,0,0,0,0,-1,839,1205,0,0
-378,-181,0,0,0,0,0,0,0,0,0,-1,846,1205,0,0
-371,-181,0,0,0,0,0,0,0,0,0,-1,853,1205,0,0
-364,-181,0,0,0,0,0,0,0,0,0,-1,860,1205,0,0
-357,-181,0,0,0,0,0,0,0,0,0,-1,867,1205,0,0
-350,-181,0,0,0,0,0,0,0,0,0,-1,874,1205,0,0
-343,-181,0,0,0,0,0,0,0,0,0,-1,881,1205,0,0
-336,-181,0,0,0,0,0,0,0,0,0,-1,888,1205,0,0
-329,-181,0,0,0,0,0,0,0,0,0,-1,895,1205,0,0
-322,-181,0,0,0,0,0,0,0,0,0,-1,902,1205,0,0
-315,-181,0,0,0,0,0,0,0,0,0,-1,909,1205,0,0
-308,-181,0,0,0,0,0,0,0,0,0,-1,916,1205,0,0
-301,-181,0,0,0,0,0,0,0,0,0,-1,923,1205,0,0
-294,-181,0,0,0,0,0,0,0,0,0,-1,930,1205,0,0
-287,-181,0,0,0,0,0,0,0,0,0,-1,937,1205,0,0
-280,-181,0,0,0,0,0,0,0,0,0,-1,944,1205,0,0
-273,-181,0,0,0,0,0,0,0,0,0,-1,951,1205,0,0
-266,-181,0,0,0,0,0,0,0,0,0,-1,958,1205,0,0
-259,-181,0,0,0,0,0,0,0,0,0,-1,965,1205,0,0
-252,-181,0,0,0,0,0,0,0,0,0,-1,972,1205,0,0
-245,-181,0,0,0,0,0,0,0,0,0,-1,979,1205,0,0
-238,-181,0,0,0,0,0,0,0,0,0,-1,986,1205,0,0
-231,-181,0,0,0,0,0,0,0,0,0,-1,993,1205,0,0
-224,-181,0,0,0,0,0,0,0,0,0,-1,1000,1205,0,0
-217,-181,0,0,0,0,0,0,0,0,0,-1,1007,1205,0,0
-210,-181,0,0,0,0,0,0,0,0,0,-1,1014,1205,0,0
-203,-181,0,0,0,0,0,0,0,0,0,-1,1021,1205,0,0
-196,-181,0,0,0,0,0,0,0,0,0,-1,1028,1205,0,0
-189,-181,0,0,0,0,0,0,0,0,0,-1,1035,1205,0,0
-182,-181,0,0,0,0,0,0,0,0,0,-1,1042,1205,0,0
-175,-181,0,0,0,0,0,0,0,0,0,-1,1049,1205,0,0
-168,-181,0,0,0,0,0,0,0,0,0,-1,1056,1205,0,0
-161,-181,0,0,0,0,0,0,0,0,0,-1,1063,1205,0,0
-154,-181,0,0,0,0,0,0,0,0,0,-1,1070,1205,0,0
-147,-181,0,0,0,0,0,0,0,0,0,-1,1077,1205,0,0
-140,-181,0,0,0,0,0,0,0,0,0,-1,1084,1205,0,0
-133,-181,0,0,0,0,0,0,0,0,0,-1,1091,1205,0,0
-126,-181,0,0,0,0,0,0,0,0,0,-1,1098,1205,0,0
-119,-181,0,0,0,0,0,0,0,0,0,-1,1105,1205,0,0
-112,-181,0,0,0,0,0,0,0,0,0,-1,1112,1205,0,0
-105,-181,0,0,0,0,0,0,0,0,0,-1,1119,1205,0,0
-98,-181,0,0,0,0,0,0,0,0,0,-1,1126,1205,0,0
-91,-181,0,0,0,0,0,0,0,0,0,-1,1133,1205,0,0
-84,-181,0,0,0,0,0,0,0,0,0,-1,1140,1205,0,0
-77,-181,0,0,0,0,0,0,0,0,0,-1,1147,1205,0,0
-70,-181,0,0,0,0,0,0,0,0,0,-1,1154,1205,0,0
-63,-181,0,0,0,0,0,0,0,0,0,-1,1161,1205,0,0
-56,-181,0,0,0,0,0,0,0,0,0,-1,1168,1205,0,0
-49,-181,0,0,0,0,0,0,0,0,0,-1,1175,1205,0,0
-42,-181,0,0,0,0,0,0,0,0,0,-1,1182,1205,0,0
-35,-181,0,0,0,0,0,0,0,0,0,-1,1189,1205,0,0
-28,-181,0,0,0,0,0,0,0,0,0,-1,1196,1205,0,0
-21,-181,0,0,0,0,0,0,0,0,0,-1,1203,1205,0,0
-14,-181,0,0,0,0,0,0,0,0,0,-1,1210,1205,0,0
-7,-181,0,0,0,0,0,0,0,0,0,-1,1217,1205,0,0
0,-181,0,0,0,0,0,0,0,0,0,-1,1224,1205,0,0
7,-181,0,0,0,0,0,0,0,0,0,-1,1231,1205,0,0
14,-181,0,0,0,0,0,0,0,0,0,-1,1238,1205,0,0
21,-181,0,0,0,0,0,0,0,0,0,-1,1245,1205,0,0
28,-181,0,0,0,0,0,0,0,0,0,-1,1252,1205,0,0
35,-181,0,0,0,0,0,0,0,0,0,-1,1259,1205,0,0
42,-181,0,0,0,0,0,0,0,0,0,-1,1266,1205,0,0
49,-181,0,0,0,0,0,0,0,0,0,-1,1273,1205,0,0
56,-181,0,0,0,0,0,0,0,0,0,-1,1280,1205,0,0
63,-181,0,0,0,0,0,0,0,0,0,-1,1287,1205,0,0
70,-181,0,0,0,0,0,0,0,0,0,-1,1294,1205,0,0
77,-181,0,0,0,0,0,0,0,0,0,-1,1301,1205,0,0
84,-181,0,0,0,0,0,0,0,0,0,-1,1308,1205,0,0
91,-181,0,0,0,0,0,0,0,0,0,-1,1315,1205,0,0
98,-181,0,0,0,0,0,0,0,0,0,-1,1322,1205,0,0
105,-181,0,0,0,0,0,0,0,0,0,-1,1329,1205,0,0
112,-181,0,0,0,0,0,0,0,0,0,-1,1336,1205,0,0
119,-181,0,0,0,0,0,0,0,0,0,-1,1343,1205,0,0
126,-181,0,0,0,0,0,0,0,0,0,-1,1350,1205,0,0
133,-181,0,0,0,0,0,0,0,0,0,-1,1357,1205,0,0
140,-181,0,0,0,0,0,0,0,0,0,-1,1364,1205,0,0
147,-181,0,0,0,0,0,0,0,0,0,-1,1371,1205,0,0
154,-181,0,0,0,0,0,0,0,0,0,-1,1378,1205,0,0
161,-181,0,0,0,0,0,0,0,0,0,-1,1385,1205,0,0
168,-181,0,0,0,0,0,0,0,0,0,-1,1392,1205,0,0
175,-181,0,0,0,0,0,0,0,0,0,-1,1399,1205,0,0
182,-181,0,0,0,0,0,0,0,0,0,-1,1406,1205,0,0
189,-181,0,0,0,0,0,0,0,0,0,-1,1413,1205,0,0
196,-181,0,0,0,0,0,0,0,0,0,-1,1420,1205,0,0
203,-181,0,0,0,0,0,0,0,0,0,-1,1427,1205,0,0
210,-181,0,0,0,0,0,0,0,0,0,-1,1434,1205,0,0
217,-181,0,0,0,0,0,0,0,0,0,-1,1441,1205,0,0
224,-181,0,0,0,0,0,0,0,0,0,-1,1448,1205,0,0
231,-181,0,0,0,0,0,0,0,0,0,-1,1455,1205,0,0
238,-181,0,0,0,0,0,0,0,0,0,-1,1462,1205,0,0
245,-181,0,0,0,0,0,0,0,0,0,-1,1469,1205,0,0
252,-181,0,0,0,0,0,0,0,0,0,-1,1476,1205,0,0
259,-181,0,0,0,0,0,0,0,0,0,-1,1483,1205,0,0
266,-181,0,0,0,0,0,0,0,0,0,-1,1490,1205,0,0
273,-181,0,0,0,0,0,0,0,0,0,-1,1497,1205,0,0
280,-181,0,0,0,0,0,0,0,0,0,-1,1504,1205,0,0
287,-181,0,0,0,0,0,0,0,0,0,-1,1511,1205,0,0
294,-181,0,0,0,0,0,0,0,0,0,-1,1518,1205,0,0
301,-181,0,0,0,0,0,0,0,0,0,-1,1525,1205,0,0
308,-181,0,0,0,0,0,0,0,0,0,-1,1532,1205,0,0
315,-181,0,0,0,0,0,0,0,0,0,-1,1539,1205,0,0
322,-181,0,0,0,0,0,0,0,0,0,-1,1546,1205,0,0
329,-181,0,0,0,0,0,0,0,0,0,-1,1553,1205,0,0
336,-181,0,0,0,0,0,0,0,0,0,-1,1560,1205,0,0
343,-181,0,0,0,0,0,0,0,0,0,-1,1567,1205,0,0
350,-181,0,0,0,0,0,0,0,0,0,-1,1574,1205,0,0
357,-181,0,0,0,0,0,0,0,0,0,-1,1581,1205,0,0
364,-181,0,0,0,0,0,0,0,0,0,-1,1588,1205,0,0
371,-181,0,0,0,0,0,0,0,0,0,-1,1595,1205,0,0
378,-181,0,0,0,0,0,0,0,0,0,-1,1602,1205,0,0
385,-181,0,0,0,0,0,0,0,0,0,-1,1609,1205,0,0
392,-181,0,0,0,0,0,0,0,0,0,-1,1616,1205,0,0
399,-181,0,0,0,0,0,0,0,0,0,-1,1623,1205,0,0
406,-181,0,0,0,0,0,0,0,0,0,-1,1630,1205,0,0
413,-181,0,0,0,0,0,0,0,0,0,-1,1637,1205,0,0
420,-181,0,0,0,0,0,0,0,0,0,-1,1644,1205,0,0
427,-181,0,0,0,0,0,0,0,0,0,-1,1651,1205,0,0
434,-181,0,0,0,0,0,0,0,0,0,-1,1658,1205,0,0
441,-181,0,0,0,0,0,0,0,0,0,-1,1665,1205,0,0
448,-181,0,0,0,0,0,0,0,0,0,-1,1672,1205,0,0
455,-181,0,0,0,0,0,0,0,0,0,-1,1679,1205,0,0
462,-181,0,0,0,0,0,0,0,0,0,-1,1686,1205,0,0
469,-181,0,0,0,0,0,0,0,0,0,-1,1693,1205,0,0
476,-181,0,0,0,0,0,0,0,0,0,-1,1700,1205,0,0
483,-181,0,0,0,0,0,0,0,0,0,-1,1707,1205,0,0
490,-181,0,0,0,0,0,0,0,0,0,-1,1714,1205,0,0
497,-181,0,0,0,0,0,0,0,0,0,-1,1721,1205,0,0
504,-181,0,0,0,0,0,0,0,0,0,-1,1728,1205,0,0
511,-181,0,0,0,0,0,0,0,0,0,-1,1735,1205,0,0
518,-181,0,0,0,0,0,0,0,0,0,-1,1742,1205,0,0
525,-181,0,0,0,0,0,0,0,0,0,-1,1749,1205,0,0
532,-181,0,0,0,0,0,0,0,0,0,-1,1756,1205,0,0
539,-181,0,0,0,0,0,0,0,0,0,-1,1763,1205,0,0
546,-181,0,0,0,0,0,0,0,0,0,-1,1770,1205,0,0
553,-181,0,0,0,0,0,0,0,0,0,-1,1777,1205,0,0
560,-181,0,0,0,0,0,0,0,0,0,-1,1784,1205,0,0
567,-181,0,0,0,0,0,0,0,0,0,-1,1791,1205,0,0
574,-181,0,0,0,0,0,0,0,0,0,-1,1798,1205,0,0
581,-181,0,0,0,0,0,0,0,0,0,-1,1805,1205,0,0
588,-181,0,0,0,0,0,0,0,0,0,-1,1812,1205,0,0
595,-181,0,0,0,0,0,0,0,0,0,-1,1819,1205,0,0
602,-181,0,0,0,0,0,0,0,0,0,-1,1826,1205,0,0
609,-181,0,0,0,0,0,0,0,0,0,-1,1833,1205,0,0
616,-181,0,0,0,0,0,0,0,0,0,-1,1840,1205,0,0
623,-181,0,0,0,0,0,0,0,0,0,-1,1847,1205,0,0
630,-181,79.9064,2.29089,0.00433944,-0.00357958,0.00086025,0.00443181,-0.00367196,0.106968,0.00468556,0.037368,1854,1205,79.9064,-2.2909
637,-181,79.8512,2.36462,0.00347944,-0.00242961,0.000444202,0.00351265,-0.00246282,0.0746142,0.00346764,0.0357293,1861,1205,79.8512,-2.36461
644,-181,79.8752,2.36548,0.0025639,-0.00120979,-9.18436e-05,0.00256613,-0.00121202,-0.0243187,0.00222753,0.0384357,1868,1205,79.8752,-2.36546
651,-181,79.9296,2.21289,0.00172394,5.93209e-05,-0.000770597,0.00202589,-0.000242636,-0.373459,0.00143831,0.0401784,1875,1205,79.9296,-2.21285
658,-181,79.9258,2.23071,0.000867262,0.00122733,-0.00127758,0.0023375,-0.000242903,-0.855397,0.00164529,0.0353499,1882,1205,79.9258,-2.23072
665,-181,79.8867,2.24829,0.000164391,0.00218444,-0.00137961,0.00288423,-0.000535405,-1.10137,0.0021239,0.0304427,1889,1205,79.8868,-2.24824
672,-181,79.911,2.19666,-0.000190676,0.00306107,-0.00130654,0.00352098,-0.000650589,-1.23233,0.00259155,0.0233067,1896,1205,79.911,-2.19661
679,-181,79.9015,2.09497,-0.000210575,0.00327827,-0.00111711,0.00360531,-0.00053761,-1.286,0.00260133,0.0445109,1903,1205,79.9015,-2.09501
686,-181,79.881,1.93127,0,0,0,0,0,0,0,-1,1910,1205,79.881,-1.93131
693,-181,36.1301,2.91016,0,0,0,0,0,0,0,-1,1917,1205,36.1302,-2.9102
700,-181,29.5845,6.58398,0,0,0,0,0,0,0,-1,1924,1205,29.5844,-6.58395
707,-181,55.4949,10.6722,0,0,0,0,0,0,0,-1,1931,1205,55.4949,-10.6722
714,-181,55.6268,10.3521,0,0,0,0,0,0,0,-1,1938,1205,55.6268,-10.3521
721,-181,51.2217,9.59631,0,0,0,0,0,0,0,-1,1945,1205,51.2217,-9.59637
728,-181,65.7837,10.2986,0,0,0,0,0,0,0,-1,1952,1205,65.7837,-10.2986
735,-181,65.7568,9.54871,0.000530424,0.00281231,0.000518186,0.00292447,0.000418264,1.35764,0.00182626,0.0200895,1959,1205,65.7568,-9.54873
742,-181,65.7191,8.83936,0.000399212,0.00251378,0.000736069,0.00274477,0.000168223,1.26671,0.00177643,0.018531,1966,1205,65.7191,-8.83934
749,-181,65.6693,8.05127,-0.000246588,0.00233806,0.000964503,0.0026583,-0.000566829,1.25022,0.00198826,0.0159013,1973,1205,65.6693,-8.05123
756,-181,65.6432,7.27979,-0.00108556,0.00239359,0.00116145,0.00274569,-0.00143766,1.27645,0.00245429,0.011597,1980,1205,65.6432,-7.27982
763,-181,65.6062,6.52991,-0.00232719,0.00263488,0.00148875,0.00304727,-0.00273958,1.30057,0.00334261,0.0185763,1987,1205,65.6063,-6.52992
770,-181,65.6001,5.77795,0,0,0,0,0,0,0,-1,1994,1205,65.6002,-5.7779
777,-181,69.6453,-1.67188,0,0,0,0,0,0,0,-1,2001,1205,69.6452,1.6719
784,-181,72.6182,-4.63086,0,0,0,0,0,0,0,-1,2008,1205,72.6181,4.63082
791,-181,69.3733,0.442383,0,0,0,0,0,0,0,-1,2015,1205,69.3733,-0.442431
798,-181,66.1357,-1.15442,0,0,0,0,0,0,0,-1,2022,1205,66.1358,1.15445
805,-181,0,0,0,0,0,0,0,0,0,-1,2029,1205,0,0
812,-181,0,0,0,0,0,0,0,0,0,-1,2036,1205,0,0
-700,-188,0,0,0,0,0,0,0,0,0,-1,524,1212,0,0
-693,-188,0,0,0,0,0,0,0,0,0,-1,531,1212,0,0
-686,-188,0,0,0,0,0,0,0,0,0,-1,538,1212,0,0
-679,-188,-59.2276,7.80371,0,0,0,0,0,0,0,-1,545,1212,-59.2276,-7.80376
-672,-188,-59.0628,8.41211,0,0,0,0,0,0,0,-1,552,1212,-59.0628,-8.41216
-665,-188,-59.071,8.76624,0.157169,0.0255213,0.0997488,0.210855,-0.0281647,0.493748,0.150837,0.0473206,559,1212,-59.071,-8.76628
-658,-188,-57.8404,10.3865,0.131508,0.0222533,0.0841921,0.177243,-0.0234809,0.497617,0.126716,0.0441341,566,1212,-57.8404,-10.3865
-651,-188,-56.4717,12.0746,0.105755,0.0185763,0.0682997,0.143189,-0.0188584,0.501379,0.102327,0.0455379,573,1212,-56.4717,-12.0746
-644,-188,-48.4453,4.43787,0,0,0,0,0,0,0,-1,580,1212,-48.4452,-4.43782
-637,-188,-48.4358,5.27576,0.0569583,0.011129,0.0374219,0.0779239,-0.00983659,0.510679,0.0555194,0.026269,587,1212,-48.4358,-5.27575
-630,-188,-48.4512,6.021,0.0366747,0.007947,0.0236265,0.049961,-0.00533931,0.512274,0.0352223,0.0117009,594,1212,-48.4512,-6.02105
-623,-188,-48.4833,6.8175,0.0201945,0.00512016,0.0119987,0.026827,-0.00151227,0.504961,0.0184095,0.0118918,601,1212,-48.4832,-6.81748
-616,-188,-48.5053,7.61121,0.00638228,0.00267153,0.00225385,0.0074462,0.00160761,0.441033,0.00452448,0.0119956,608,1212,-48.5053,-7.61127
-609,-188,-48.522,8.41333,-2.46384e-05,0.00174401,-0.00382185,0.00478251,-0.00306314,-0.899091,0.0045658,0.01504,615,1212,-48.522,-8.41337
-602,-188,-48.478,9.27515,-0.000616116,0.00147328,-0.00594404,0.00646373,-0.00560657,-0.872387,0.00697465,0.0328462,622,1212,-48.478,-9.27517
-595,-188,-48.3725,10.3243,0,0,0,0,0,0,0,-1,629,1212,-48.3725,-10.3244
-588,-188,-48.9028,10.8323,0.000123909,0.00259445,-0.00484233,0.00635658,-0.00363822,-0.910284,0.00584121,0.029921,636,1212,-48.9028,-10.8322
-581,-188,-48.98,11.5459,0.000642743,0.00234963,-0.00452809,0.006104,-0.00311162,-0.878545,0.00541333,0.034685,643,1212,-48.98,-11.5459
-574,-188,-48.9953,12.2118,0,0,0,0,0,0,0,-1,650,1212,-48.9953,-12.2118
-567,-188,-19.5786,4.10388,0,0,0,0,0,0,0,-1,657,1212,-19.5785,-4.10383
-560,-188,-23.9507,0.416626,0,0,0,0,0,0,0,-1,664,1212,-23.9508,-0.416602
-553,-188,-49.2368,1.03101,0,0,0,0,0,0,0,-1,671,1212,-49.2367,-1.03099
-546,-188,-62.8855,0.315308,0,0,0,0,0,0,0,-1,678,1212,-62.8855,-0.315365
-539,-188,-62.8912,0.235962,0.000151223,0.00367461,-0.00347855,0.00581213,-0.0019863,-1.01979,0.00467955,0.0378601,685,1212,-62.8912,-0.235945
-532,-188,-62.8878,0.299683,-0.00039046,0.00388406,-0.00251201,0.00504499,-0.00155139,-1.13788,0.00398249,0.0416278,692,1212,-62.8877,-0.299626
-525,-188,-62.8642,0.484253,-5.8577e-05,0.00507847,-0.00177101,0.00562985,-0.000609956,-1.26897,0.00397219,0.0387273,699,1212,-62.8642,-0.484197
-518,-188,-62.8428,0.655518,0.00127553,0.00906632,-0.00210078,0.00959668,0.000745158,-1.3235,0.00616443,0.0406313,706,1212,-62.8429,-0.655492
-511,-188,-62.8884,0.598633,0.00234759,0.0149905,-0.00321696,0.015762,0.00157612,-1.33543,0.010024,0.0405685,713,1212,-62.8884,-0.598581
-504,-188,0,0,0,0,0,0,0,0,0,-1,720,1212,0,0
-497,-188,0,0,0,0,0,0,0,0,0,-1,727,1212,0,0
-490,-188,0,0,0,0,0,0,0,0,0,-1,734,1212,0,0
-483,-188,0,0,0,0,0,0,0,0,0,-1,741,1212,0,0
-476,-188,0,0,0,0,0,0,0,0,0,-1,748,1212,0,0
-469,-188,0,0,0,0,0,0,0,0,0,-1,755,1212,0,0
-462,-188,0,0,0,0,0,0,0,0,0,-1,762,1212,0,0
-455,-188,0,0,0,0,0,0,0,0,0,-1,769,1212,0,0
-448,-188,0,0,0,0,0,0,0,0,0,-1,776,1212,0,0
-441,-188,0,0,0,0,0,0,0,0,0,-1,783,1212,0,0
-434,-188,0,0,0,0,0,0,0,0,0,-1,790,1212,0,0
-427,-188,0,0,0,0,0,0,0,0,0,-1,797,1212,0,0
-420,-188,0,0,0,0,0,0,0,0,0,-1,804,1212,0,0
-413,-188,0,0,0,0,0,0,0,0,0,-1,811,1212,0,0
-406,-188,0,0,0,0,0,0,0,0,0,-1,818,1212,0,0
-399,-188,0,0,0,0,0,0,0,0,0,-1,825,1212,0,0
-392,-188,0,0,0,0,0,0,0,0,0,-1,832,1212,0,0
-385,-188,0,0,0,0,0,0,0,0,0,-1,839,1212,0,0
-378,-188,0,0,0,0,0,0,0,0,0,-1,846,1212,0,0
-371,-188,0,0,0,0,0,0,0,0,0,-1,853,1212,0,0
-364,-188,0,0,0,0,0,0,0,0,0,-1,860,1212,0,0
-357,-188,0,0,0,0,0,0,0,0,0,-1,867,1212,0,0
-350,-188,0,0,0,0,0,0,0,0,0,-1,874,1212,0,0
-343,-188,0,0,0,0,0,0,0,0,0,-1,881,1212,0,0
-336,-188,0,0,0,0,0,0,0,0,0,-1,888,1212,0,0
-329,-188,0,0,0,0,0,0,0,0,0,-1,895,1212,0,0
-322,-188,0,0,0,0,0,0,0,0,0,-1,902,1212,0,0
-315,-188,0,0,0,0,0,0,0,0,0,-1,909,1212,0,0
-308,-188,0,0,0,0,0,0,0,0,0,-1,916,1212,0,0
-301,-188,0,0,0,0,0,0,0,0,0,-1,923,1212,0,0
-294,-188,0,0,0,0,0,0,0,0,0,-1,930,1212,0,0
-287,-188,0,0,0,0,0,0,0,0,0,-1,937,1212,0,0
-280,-188,0,0,0,0,0,0,0,0,0,-1,944,1212,0,0
-273,-188,0,0,0,0,0,0,0,0,0,-1,951,1212,0,0
-266,-188,0,0,0,0,0,0,0,0,0,-1,958,1212,0,0
-259,-188,0,0,0,0,0,0,0,0,0,-1,965,1212,0,0
-252,-188,0,0,0,0,0,0,0,0,0,-1,972,1212,0,0
-245,-188,0,0,0,0,0,0,0,0,0,-1,979,1212,0,0
-238,-188,0,0,0,0,0,0,0,0,0,-1,986,1212,0,0
-231,-188,0,0,0,0,0,0,0,0,0,-1,993,1212,0,0
-224,-188,0,0,0,0,0,0,0,0,0,-1,1000,1212,0,0
-217,-188,0,0,0,0,0,0,0,0,0,-1,1007,1212,0,0
-210,-188,0,0,0,0,0,0,0,0,0,-1,1014,1212,0,0
-203,-188,0,0,0,0,0,0,0,0,0,-1,1021,1212,0,0
-196,-188,0,0,0,0,0,0,0,0,0,-1,1028,1212,0,0
-189,-188,0,0,0,0,0,0,0,0,0,-1,1035,1212,0,0
-182,-188,0,0,0,0,0,0,0,0,0,-1,1042,1212,0,0
-175,-188,0,0,0,0,0,0,0,0,0,-1,1049,1212,0,0
-168,-188,0,0,0,0,0,0,0,0,0,-1,1056,1212,0,0
-161,-188,0,0,0,0,0,0,0,0,0,-1,1063,1212,0,0
-154,-188,0,0,0,0,0,0,0,0,0,-1,1070,1212,0,0
-147,-188,0,0,0,0,0,0,0,0,0,-1,1077,1212,0,0
-140,-188,0,0,0,0,0,0,0,0,0,-1,1084,1212,0,0
-133,-188,0,0,0,0,0,0,0,0,0,-1,1091,1212,0,0
-126,-188,0,0,0,0,0,0,0,0,0,-1,1098,1212,0,0
-119,-188,0,0,0,0,0,0,0,0,0,-1,1105,1212,0,0
-112,-188,0,0,0,0,0,0,0,0,0,-1,1112,1212,0,0
-105,-188,0,0,0,0,0,0,0,0,0,-1,1119,1212,0,0
-98,-188,0,0,0,0,0,0,0,0,0,-1,1126,1212,0,0
-91,-188,0,0,0,0,0,0,0,0,0,-1,1133,1212,0,0
-84,-188,0,0,0,0,0,0,0,0,0,-1,1140,1212,0,0
-77,-188,0,0,0,0,0,0,0,0,0,-1,1147,1212,0,0
-70,-188,0,0,0,0,0,0,0,0,0,-1,1154,1212,0,0
-63,-188,0,0,0,0,0,0,0,0,0,-1,1161,1212,0,0
-56,-188,0,0,0,0,0,0,0,0,0,-1,1168,1212,0,0
-49,-188,0,0,0,0,0,0,0,0,0,-1,1175,1212,0,0
-42,-188,0,0,0,0,0,0,0,0,0,-1,1182,1212,0,0
-35,-188,0,0,0,0,0,0,0,0,0,-1,1189,1212,0,0
-28,-188,0,0,0,0,0,0,0,0,0,-1,1196,1212,0,0
-21,-188,0,0,0,0,0,0,0,0,0,-1,1203,1212,0,0
-14,-188,0,0,0,0,0,0,0,0,0,-1,1210,1212,0,0
-7,-188,0,0,0,0,0,0,0,0,0,-1,1217,1212,0,0
0,-188,0,0,0,0,0,0,0,0,0,-1,1224,1212,0,0
7,-188,0,0,0,0,0,0,0,0,0,-1,1231,1212,0,0
14,-188,0,0,0,0,0,0,0,0,0,-1,1238,1212,0,0
21,-188,0,0,0,0,0,0,0,0,0,-1,1245,1212,0,0
28,-188,0,0,0,0,0,0,0,0,0,-1,1252,1212,0,0
35,-188,0,0,0,0,0,0,0,0,0,-1,1259,1212,0,0
42,-188,0,0,0,0,0,0,0,0,0,-1,1266,1212,0,0
49,-188,0,0,0,0,0,0,0,0,0,-1,1273,1212,0,0
56,-188,0,0,0,0,0,0,0,0,0,-1,1280,1212,0,0
63,-188,0,0,0,0,0,0,0,0,0,-1,1287,1212,0,0
70,-188,0,0,0,0,0,0,0,0,0,-1,1294,1212,0,0
77,-188,0,0,0,0,0,0,0,0,0,-1,1301,1212,0,0
84,-188,0,0,0,0,0,0,0,0,0,-1,1308,1212,0,0
91,-188,0,0,0,0,0,0,0,0,0,-1,1315,1212,0,0
98,-188,0,0,0,0,0,0,0,0,0,-1,1322,1212,0,0
105,-188,0,0,0,0,0,0,0,0,0,-1,1329,1212,0,0
112,-188,0,0,0,0,0,0,0,0,0,-1,1336,1212,0,0
119,-188,0,0,0,0,0,0,0,0,0,-1,1343,1212,0,0
126,-188,0,0,0,0,0,0,0,0,0,-1,1350,1212,0,0
133,-188,0,0,0,0,0,0,0,0,0,-1,1357,1212,0,0
140,-188,0,0,0,0,0,0,0,0,0,-1,1364,1212,0,0
147,-188,0,0,0,0,0,0,0,0,0,-1,1371,1212,0,0
154,-188,0,0,0,0,0,0,0,0,0,-1,1378,1212,0,0
161,-188,0,0,0,0,0,0,0,0,0,-1,1385,1212,0,0
168,-188,0,0,0,0,0,0,0,0,0,-1,1392,1212,0,0
175,-188,0,0,0,0,0,0,0,0,0,-1,1399,1212,0,0
182,-188,0,0,0,0,0,0,0,0,0,-1,1406,1212,0,0
189,-188,0,0,0,0,0,0,0,0,0,-1,1413,1212,0,0
196,-188,0,0,0,0,0,0,0,0,0,-1,1420,1212,0,0
203,-188,0,0,0,0,0,0,0,0,0,-1,1427,1212,0,0
210,-188,0,0,0,0,0,0,0,0,0,-1,1434,1212,0,0
217,-188,0,0,0,0,0,0,0,0,0,-1,1441,1212,0,0
224,-188,0,0,0,0,0,0,0,0,0,-1,1448,1212,0,0
231,-188,0,0,0,0,0,0,0,0,0,-1,1455,1212,0,0
238,-188,0,0,0,0,0,0,0,0,0,-1,1462,1212,0,0
245,-188,0,0,0,0,0,0,0,0,0,-1,1469,1212,0,0
252,-188,0,0,0,0,0,0,0,0,0,-1,1476,1212,0,0
259,-188,0,0,0,0,0,0,0,0,0,-1,1483,1212,0,0
266,-188,0,0,0,0,0,0,0,0,0,-1,1490,1212,0,0
273,-188,0,0,0,0,0,0,0,0,0,-1,1497,1212,0,0
280,-188,0,0,0,0,0,0,0,0,0,-1,1504,1212,0,0
287,-188,0,0,0,0,0,0,0,0,0,-1,1511,1212,0,0
294,-188,0,0,0,0,0,0,0,0,0,-1,1518,1212,0,0
301,-188,0,0,0,0,0,0,0,0,0,-1,1525,1212,0,0
308,-188,0,0,0,0,0,0,0,0,0,-1,1532,1212,0,0
315,-188,0,0,0,0,0,0,0,0,0,-1,1539,1212,0,0
322,-188,0,0,0,0,0,0,0,0,0,-1,1546,1212,0,0
329,-188,0,0,0,0,0,0,0,0,0,-1,1553,1212,0,0
336,-188,0,0,0,0,0,0,0,0,0,-1,1560,1212,0,0
343,-188,0,0,0,0,0,0,0,0,0,-1,1567,1212,0,0
350,-188,0,0,0,0,0,0,0,0,0,-1,1574,1212,0,0
357,-188,0,0,0,0,0,0,0,0,0,-1,1581,1212,0,0
364,-188,0,0,0,0,0,0,0,0,0,-1,1588,1212,0,0
371,-188,0,0,0,0,0,0,0,0,0,-1,1595,1212,0,0
378,-188,0,0,0,0,0,0,0,0,0,-1,1602,1212,0,0
385,-188,0,0,0,0,0,0,0,0,0,-1,1609,1212,0,0
392,-188,0,0,0,0,0,0,0,0,0,-1,1616,1212,0,0
399,-188,0,0,0,0,0,0,0,0,0,-1,1623,1212,0,0
406,-188,0,0,0,0,0,0,0,0,0,-1,1630,1212,0,0
413,-188,0,0,0,0,0,0,0,0,0,-1,1637,1212,0,0
420,-188,0,0,0,0,0,0,0,0,0,-1,1644,1212,0,0
427,-188,0,0,0,0,0,0,0,0,0,-1,1651,1212,0,0
434,-188,0,0,0,0,0,0,0,0,0,-1,1658,1212,0,0
441,-188,0,0,0,0,0,0,0,0,0,-1,1665,1212,0,0
448,-188,0,0,0,0,0,0,0,0,0,-1,1672,1212,0,0
455,-188,0,0,0,0,0,0,0,0,0,-1,1679,1212,0,0
462,-188,0,0,0,0,0,0,0,0,0,-1,1686,1212,0,0
469,-188,0,0,0,0,0,0,0,0,0,-1,1693,1212,0,0
476,-188,0,0,0,0,0,0,0,0,0,-1,1700,1212,0,0
483,-188,0,0,0,0,0,0,0,0,0,-1,1707,1212,0,0
490,-188,0,0,0,0,0,0,0,0,0,-1,1714,1212,0,0
497,-188,0,0,0,0,0,0,0,0,0,-1,1721,1212,0,0
504,-188,0,0,0,0,0,0,0,0,0,-1,1728,1212,0,0
511,-188,0,0,0,0,0,0,0,0,0,-1,1735,1212,0,0
518,-188,0,0,0,0,0,0,0,0,0,-1,1742,1212,0,0
525,-188,0,0,0,0,0,0,0,0,0,-1,1749,1212,0,0
532,-188,0,0,0,0,0,0,0,0,0,-1,1756,1212,0,0
539,-188,0,0,0,0,0,0,0,0,0,-1,1763,1212,0,0
546,-188,0,0,0,0,0,0,0,0,0,-1,1770,1212,0,0
553,-188,0,0,0,0,0,0,0,0,0,-1,1777,1212,0,0
560,-188,0,0,0,0,0,0,0,0,0,-1,1784,1212,0,0
567,-188,0,0,0,0,0,0,0,0,0,-1,1791,1212,0,0
574,-188,0,0,0,0,0,0,0,0,0,-1,1798,1212,0,0
581,-188,0,0,0,0,0,0,0,0,0,-1,1805,1212,0,0
588,-188,0,0,0,0,0,0,0,0,0,-1,1812,1212,0,0
595,-188,0,0,0,0,0,0,0,0,0,-1,1819,1212,0,0
602,-188,0,0,0,0,0,0,0,0,0,-1,1826,1212,0,0
609,-188,0,0,0,0,0,0,0,0,0,-1,1833,1212,0,0
616,-188,0,0,0,0,0,0,0,0,0,-1,1840,1212,0,0
623,-188,0,0,0,0,0,0,0,0,0,-1,1847,1212,0,0
630,-188,79.916,2.26697,0.00389739,-0.00328781,0.00110224,0.00406268,-0.00345309,0.148845,0.00434399,0.0397063,1854,1212,79.916,-2.267
637,-188,79.9587,2.24402,0.00308317,-0.00209654,0.000501828,0.00313134,-0.00214471,0.0956976,0.00306383,0.0375977,1861,1212,79.9587,-2.24402
644,-188,79.9127,2.22778,0.00222984,-0.0007836,-0.000211844,0.00224466,-0.00079842,-0.0698418,0.00182186,0.0353229,1868,1212,79.9127,-2.22773
651,-188,79.8179,2.22778,0.00140793,0.000587507,-0.0010312,0.00210752,-0.000112078,-0.596094,0.00144382,0.0339746,1875,1212,79.8178,-2.22782
658,-188,79.8878,2.25867,0.000512495,0.00172003,-0.00142169,0.00266085,-0.000428323,-0.986199,0.00193256,0.0336789,1882,1212,79.8879,-2.25862
665,-188,79.8585,2.25415,-0.000124976,0.00248063,-0.00128705,0.00300917,-0.000653509,-1.18114,0.00225573,0.0282767,1889,1212,79.8585,-2.25415
672,-188,79.8864,2.17883,-0.000346129,0.00314363,-0.00103442,0.00342721,-0.000629704,-1.30323,0.00252106,0.0228372,1896,1212,79.8864,-2.17879
679,-188,79.9314,2.10144,0,0,0,0,0,0,0,-1,1903,1212,79.9314,-2.10148
686,-188,60.1007,2.41321,0,0,0,0,0,0,0,-1,1910,1212,60.1007,-2.41325
693,-188,35.9054,2.18042,0,0,0,0,0,0,0,-1,1917,1212,35.9054,-2.18038
700,-188,54.452,11.2678,0,0,0,0,0,0,0,-1,1924,1212,54.452,-11.2678
707,-188,65.3779,12.8871,0,0,0,0,0,0,0,-1,1931,1212,65.3779,-12.8871
714,-188,54.7506,10.1539,0,0,0,0,0,0,0,-1,1938,1212,54.7507,-10.1539
721,-188,61.637,10.8645,0,0,0,0,0,0,0,-1,1945,1212,61.6369,-10.8645
728,-188,65.11,10.338,0,0,0,0,0,0,0,-1,1952,1212,65.11,-10.3381
735,-188,64.998,9.60876,0.000456485,0.00282256,0.000593505,0.00296309,0.000315956,1.3383,0.00187895,0.014275,1959,1212,64.998,-9.6088
742,-188,64.9186,8.84485,0.000286344,0.00234747,0.000859618,0.00265892,-2.51079e-05,1.22319,0.00178104,0.0155663,1966,1212,64.9186,-8.84481
749,-188,64.8846,8.09033,-0.000288948,0.00196152,0.00126059,0.00252603,-0.000853462,1.14976,0.00202924,0.0145304,1973,1212,64.8847,-8.09035
756,-188,64.8699,7.31604,-0.00103608,0.00175085,0.00176004,0.00260227,-0.00188749,1.12023,0.00260309,0.0137771,1980,1212,64.8698,-7.31609
763,-188,64.8518,6.55371,-0.00222104,0.00168569,0.00257085,0.00296108,-0.00349644,1.11027,0.00373252,0.0200621,1987,1212,64.8518,-6.55369
770,-188,64.8499,5.78674,0,0,0,0,0,0,0,-1,1994,1212,64.8498,-5.78668
777,-188,61.4719,4.67664,0,0,0,0,0,0,0,-1,2001,1212,61.4719,-4.67659
784,-188,69.1482,-1.87268,0,0,0,0,0,0,0,-1,2008,1212,69.1481,1.87266
791,-188,68.3596,-0.192261,0,0,0,0,0,0,0,-1,2015,1212,68.3596,0.192286
798,-188,67.5286,1.23303,0,0,0,0,0,0,0,-1,2022,1212,67.5285,-1.23298
805,-188,0,0,0,0,0,0,0,0,0,-1,2029,1212,0,0
812,-188,0,0,0,0,0,0,0,0,0,-1,2036,1212,0,0
-700,-195,0,0,0,0,0,0,0,0,0,-1,524,1219,0,0
-693,-195,0,0,0,0,0,0,0,0,0,-1,531,1219,0,0
-686,-195,0,0,0,0,0,0,0,0,0,-1,538,1219,0,0
-679,-195,-59.5534,7.96692,0.231886,0.0593688,0.152641,0.320955,-0.0297002,0.528214,0.224526,0.0435409,545,1219,-59.5534,-7.96687
-672,-195,-59.2747,8.01196,0,0,0,0,0,0,0,-1,552,1219,-59.2747,-8.01201
-665,-195,-59.9089,8.48547,0,0,0,0,0,0,0,-1,559,1219,-59.9089,-8.48551
-658,-195,-58.7852,9.92371,0.15332,0.0409093,0.103438,0.214837,-0.0206076,0.536528,0.150565,0.0446535,566,1219,-58.7852,-9.92374
-651,-195,-57.4756,11.5302,0.123387,0.0326499,0.0836451,0.173175,-0.0171383,0.536905,0.121566,0.0460922,573,1219,-57.4757,-11.5301
-644,-195,-56.1864,13.2074,0,0,0,0,0,0,0,-1,580,1219,-56.1864,-13.2074
-637,-195,-47.5129,5.2998,0.0676583,0.0177746,0.0462147,0.0952321,-0.00979926,0.53795,0.0669938,0.0289615,587,1219,-47.5129,-5.29976
-630,-195,-47.6136,6.05432,0.0445811,0.0119836,0.0299956,0.06242,-0.00585537,0.536529,0.0436961,0.0102449,594,1219,-47.6136,-6.05431
-623,-195,-47.6623,6.84937,0.0264274,0.00760627,0.0168213,0.0362915,-0.00225789,0.530366,0.024981,0.00908167,601,1219,-47.6623,-6.84932
-616,-195,-47.6865,7.66309,0.0105535,0.00355258,0.00551471,0.0135849,0.000521181,0.502607,0.00888798,0.0101437,608,1219,-47.6864,-7.66315
-609,-195,-47.7231,8.4873,0.00227462,0.00203337,-0.00188515,0.00404301,0.000264989,-0.753449,0.00261149,0.0185449,615,1219,-47.7232,-8.48732
-602,-195,-47.756,9.24854,0.000362185,0.00187823,-0.00531124,0.00648527,-0.00424486,-0.856279,0.00623989,0.0267269,622,1219,-47.756,-9.24848
-595,-195,-47.8056,10.0642,0,0,0,0,0,0,0,-1,629,1219,-47.8056,-10.0641
-588,-195,-48.0595,10.9541,0.000406016,0.00278807,-0.00535221,0.00708017,-0.00388609,-0.894879,0.00642027,0.023351,636,1219,-48.0595,-10.9541
-581,-195,-47.9977,11.595,0.000751608,0.00243839,-0.00498433,0.00665018,-0.00346018,-0.869208,0.00593328,0.0291768,643,1219,-47.9977,-11.595
-574,-195,-48.1815,12.1805,0,0,0,0,0,0,0,-1,650,1219,-48.1814,-12.1805
-567,-195,-20.6388,3.78369,0,0,0,0,0,0,0,-1,657,1219,-20.6388,-3.78369
-560,-195,-20.878,2.10388,0,0,0,0,0,0,0,-1,664,1219,-20.878,-2.10385
-553,-195,-41.595,0.613281,0,0,0,0,0,0,0,-1,671,1219,-41.595,-0.61334
-546,-195,-62.6455,0.363159,0,0,0,0,0,0,0,-1,678,1219,-62.6455,-0.363109
-539,-195,-62.853,0.30896,-0.000384565,0.00297158,-0.00352125,0.00519416,-0.00260715,-1.00776,0.0045859,0.0449578,685,1219,-62.853,-0.309019
-532,-195,-62.8748,0.262451,-0.00107495,0.00289828,-0.00261656,0.00419693,-0.00237361,-1.11009,0.00384188,0.0360035,692,1219,-62.8748,-0.262498
-525,-195,-62.7258,0.316406,-0.00118878,0.00349996,-0.00158744,0.00398685,-0.00167567,-1.27319,0.0033588,0.0387068,699,1219,-62.7258,-0.316345
-518,-195,-62.7714,0.455078,-0.000263377,0.00624888,-0.00135974,0.00652139,-0.000535885,-1.37301,0.00453678,0.0400156,706,1219,-62.7713,-0.455071
-511,-195,-62.758,0.525269,0.000619097,0.0120878,-0.0017958,0.0123624,0.000344481,-1.41905,0.00812922,0.0404286,713,1219,-62.758,-0.525282
-504,-195,0,0,0,0,0,0,0,0,0,-1,720,1219,0,0
-497,-195,0,0,0,0,0,0,0,0,0,-1,727,1219,0,0
-490,-195,0,0,0,0,0,0,0,0,0,-1,734,1219,0,0
-483,-195,0,0,0,0,0,0,0,0,0,-1,741,1219,0,0
-476,-195,0,0,0,0,0,0,0,0,0,-1,748,1219,0,0
-469,-195,0,0,0,0,0,0,0,0,0,-1,755,1219,0,0
-462,-195,0,0,0,0,0,0,0,0,0,-1,762,1219,0,0
-455,-195,0,0,0,0,0,0,0,0,0,-1,769,1219,0,0
-448,-195,0,0,0,0,0,0,0,0,0,-1,776,1219,0,0
-441,-195,0,0,0,0,0,0,0,0,0,-1,783,1219,0,0
-434,-195,0,0,0,0,0,0,0,0,0,-1,790,1219,0,0
-427,-195,0,0,0,0,0,0,0,0,0,-1,797,1219,0,0
-420,-195,0,0,0,0,0,0,0,0,0,-1,804,1219,0,0
-413,-195,0,0,0,0,0,0,0,0,0,-1,811,1219,0,0
-406,-195,0,0,0,0,0,0,0,0,0,-1,818,1219,0,0
-399,-195,0,0,0,0,0,0,0,0,0,-1,825,1219,0,0
-392,-195,0,0,0,0,0,0,0,0,0,-1,832,1219,0,0
-385,-195,0,0,0,0,0,0,0,0,0,-1,839,1219,0,0
-378,-195,0,0,0,0,0,0,0,0,0,-1,846,1219,0,0
-371,-195,0,0,0,0,0,0,0,0,0,-1,853,1219,0,0
-364,-195,0,0,0,0,0,0,0,0,0,-1,860,1219,0,0
-357,-195,0,0,0,0,0,0,0,0,0,-1,867,1219,0,0
-350,-195,0,0,0,0,0,0,0,0,0,-1,874,1219,0,0
-343,-195,0,0,0,0,0,0,0,0,0,-1,881,1219,0,0
-336,-195,0,0,0,0,0,0,0,0,0,-1,888,1219,0,0
-329,-195,0,0,0,0,0,0,0,0,0,-1,895,1219,0,0
-322,-195,0,0,0,0,0,0,0,0,0,-1,902,1219,0,0
-315,-195,0,0,0,0,0,0,0,0,0,-1,909,1219,0,0
-308,-195,0,0,0,0,0,0,0,0,0,-1,916,1219,0,0
-301,-195,0,0,0,0,0,0,0,0,0,-1,923,1219,0,0
-294,-195,0,0,0,0,0,0,0,0,0,-1,930,1219,0,0
-287,-195,0,0,0,0,0,0,0,0,0,-1,937,1219,0,0
-280,-195,0,0,0,0,0,0,0,0,0,-1,944,1219,0,0
-273,-195,0,0,0,0,0,0,0,0,0,-1,951,1219,0,0
-266,-195,0,0,0,0,0,0,0,0,0,-1,958,1219,0,0
-259,-195,0,0,0,0,0,0,0,0,0,-1,965,1219,0,0
-252,-195,0,0,0,0,0,0,0,0,0,-1,972,1219,0,0
-245,-195,0,0,0,0,0,0,0,0,0,-1,979,1219,0,0
-238,-195,0,0,0,0,0,0,0,0,0,-1,986,1219,0,0
-231,-195,0,0,0,0,0,0,0,0,0,-1,993,1219,0,0
-224,-195,0,0,0,0,0,0,0,0,0,-1,1000,1219,0,0
-217,-195,0,0,0,0,0,0,0,0,0,-1,1007,1219,0,0
-210,-195,0,0,0,0,0,0,0,0,0,-1,1014,1219,0,0
-203,-195,0,0,0,0,0,0,0,0,0,-1,1021,1219,0,0
-196,-195,0,0,0,0,0,0,0,0,0,-1,1028,1219,0,0
-189,-195,0,0,0,0,0,0,0,0,0,-1,1035,1219,0,0
-182,-195,0,0,0,0,0,0,0,0,0,-1,1042,1219,0,0
-175,-195,0,0,0,0,0,0,0,0,0,-1,1049,1219,0,0
-168,-195,0,0,0,0,0,0,0,0,0,-1,1056,1219,0,0
-161,-195,0,0,0,0,0,0,0,0,0,-1,1063,1219,0,0
-154,-195,0,0,0,0,0,0,0,0,0,-1,1070,1219,0,0
-147,-195,0,0,0,0,0,0,0,0,0,-1,1077,1219,0,0
-140,-195,0,0,0,0,0,0,0,0,0,-1,1084,1219,0,0
-133,-195,0,0,0,0,0,0,0,0,0,-1,1091,1219,0,0
-126,-195,0,0,0,0,0,0,0,0,0,-1,1098,1219,0,0
-119,-195,0,0,0,0,0,0,0,0,0,-1,1105,1219,0,0
-112,-195,0,0,0,0,0,0,0,0,0,-1,1112,1219,0,0
-105,-195,0,0,0,0,0,0,0,0,0,-1,1119,1219,0,0
-98,-195,0,0,0,0,0,0,0,0,0,-1,1126,1219,0,0
-91,-195,0,0,0,0,0,0,0,0,0,-1,1133,1219,0,0
-84,-195,0,0,0,0,0,0,0,0,0,-1,1140,1219,0,0
-77,-195,0,0,0,0,0,0,0,0,0,-1,1147,1219,0,0
-70,-195,0,0,0,0,0,0,0,0,0,-1,1154,1219,0,0
-63,-195,0,0,0,0,0,0,0,0,0,-1,1161,1219,0,0
-56,-195,0,0,0,0,0,0,0,0,0,-1,1168,1219,0,0
-49,-195,0,0,0,0,0,0,0,0,0,-1,1175,1219,0,0
-42,-195,0,0,0,0,0,0,0,0,0,-1,1182,1219,0,0
-35,-195,0,0,0,0,0,0,0,0,0,-1,1189,1219,0,0
-28,-195,0,0,0,0,0,0,0,0,0,-1,1196,1219,0,0
-21,-195,0,0,0,0,0,0,0,0,0,-1,1203,1219,0,0
-14,-195,0,0,0,0,0,0,0,0,0,-1,1210,1219,0,0
-7,-195,0,0,0,0,0,0,0,0,0,-1,1217,1219,0,0
0,-195,0,0,0,0,0,0,0,0,0,-1,1224,1219,0,0
7,-195,0,0,0,0,0,0,0,0,0,-1,1231,1219,0,0
14,-195,0,0,0,0,0,0,0,0,0,-1,1238,1219,0,0
21,-195,0,0,0,0,0,0,0,0,0,-1,1245,1219,0,0
28,-195,0,0,0,0,0,0,0,0,0,-1,1252,1219,0,0
35,-195,0,0,0,0,0,0,0,0,0,-1,1259,1219,0,0
42,-195,0,0,0,0,0,0,0,0,0,-1,1266,1219,0,0
49,-195,0,0,0,0,0,0,0,0,0,-1,1273,1219,0,0
56,-195,0,0,0,0,0,0,0,0,0,-1,1280,1219,0,0
63,-195,0,0,0,0,0,0,0,0,0,-1,1287,1219,0,0
70,-195,0,0,0,0,0,0,0,0,0,-1,1294,1219,0,0
77,-195,0,0,0,0,0,0,0,0,0,-1,1301,1219,0,0
84,-195,0,0,0,0,0,0,0,0,0,-1,1308,1219,0,0
91,-195,0,0,0,0,0,0,0,0,0,-1,1315,1219,0,0
98,-195,0,0,0,0,0,0,0,0,0,-1,1322,1219,0,0
105,-195,0,0,0,0,0,0,0,0,0,-1,1329,1219,0,0
112,-195,0,0,0,0,0,0,0,0,0,-1,1336,1219,0,0
119,-195,0,0,0,0,0,0,0,0,0,-1,1343,1219,0,0
126,-195,0,0,0,0,0,0,0,0,0,-1,1350,1219,0,0
133,-195,0,0,0,0,0,0,0,0,0,-1,1357,1219,0,0
140,-195,0,0,0,0,0,0,0,0,0,-1,1364,1219,0,0
147,-195,0,0,0,0,0,0,0,0,0,-1,1371,1219,0,0
154,-195,0,0,0,0,0,0,0,0,0,-1,1378,1219,0,0
161,-195,0,0,0,0,0,0,0,0,0,-1,1385,1219,0,0
168,-195,0,0,0,0,0,0,0,0,0,-1,1392,1219,0,0
175,-195,0,0,0,0,0,0,0,0,0,-1,1399,1219,0,0
182,-195,0,0,0,0,0,0,0,0,0,-1,1406,1219,0,0
189,-195,0,0,0,0,0,0,0,0,0,-1,1413,1219,0,0
196,-195,0,0,0,0,0,0,0,0,0,-1,1420,1219,0,0
203,-195,0,0,0,0,0,0,0,0,0,-1,1427,1219,0,0
210,-195,0,0,0,0,0,0,0,0,0,-1,1434,1219,0,0
217,-195,0,0,0,0,0,0,0,0,0,-1,1441,1219,0,0
224,-195,0,0,0,0,0,0,0,0,0,-1,1448,1219,0,0
231,-195,0,0,0,0,0,0,0,0,0,-1,1455,1219,0,0
238,-195,0,0,0,0,0,0,0,0,0,-1,1462,1219,0,0
245,-195,0,0,0,0,0,0,0,0,0,-1,1469,1219,0,0
252,-195,0,0,0,0,0,0,0,0,0,-1,1476,1219,0,0
259,-195,0,0,0,0,0,0,0,0,0,-1,1483,1219,0,0
266,-195,0,0,0,0,0,0,0,0,0,-1,1490,1219,0,0
273,-195,0,0,0,0,0,0,0,0,0,-1,1497,1219,0,0
280,-195,0,0,0,0,0,0,0,0,0,-1,1504,1219,0,0
287,-195,0,0,0,0,0,0,0,0,0,-1,1511,1219,0,0
294,-195,0,0,0,0,0,0,0,0,0,-1,1518,1219,0,0
301,-195,0,0,0,0,0,0,0,0,0,-1,1525,1219,0,0
308,-195,0,0,0,0,0,0,0,0,0,-1,1532,1219,0,0
315,-195,0,0,0,0,0,0,0,0,0,-1,1539,1219,0,0
322,-195,0,0,0,0,0,0,0,0,0,-1,1546,1219,0,0
329,-195,0,0,0,0,0,0,0,0,0,-1,1553,1219,0,0
336,-195,0,0,0,0,0,0,0,0,0,-1,1560,1219,0,0
343,-195,0,0,0,0,0,0,0,0,0,-1,1567,1219,0,0
350,-195,0,0,0,0,0,0,0,0,0,-1,1574,1219,0,0
357,-195,0,0,0,0,0,0,0,0,0,-1,1581,1219,0,0
364,-195,0,0,0,0,0,0,0,0,0,-1,1588,1219,0,0
371,-195,0,0,0,0,0,0,0,0,0,-1,1595,1219,0,0
378,-195,0,0,0,0,0,0,0,0,0,-1,1602,1219,0,0
385,-195,0,0,0,0,0,0,0,0,0,-1,1609,1219,0,0
392,-195,0,0,0,0,0,0,0,0,0,-1,1616,1219,0,0
399,-195,0,0,0,0,0,0,0,0,0,-1,1623,1219,0,0
406,-195,0,0,0,0,0,0,0,0,0,-1,1630,1219,0,0
413,-195,0,0,0,0,0,0,0,0,0,-1,1637,1219,0,0
420,-195,0,0,0,0,0,0,0,0,0,-1,1644,1219,0,0
427,-195,0,0,0,0,0,0,0,0,0,-1,1651,1219,0,0
434,-195,0,0,0,0,0,0,0,0,0,-1,1658,1219,0,0
441,-195,0,0,0,0,0,0,0,0,0,-1,1665,1219,0,0
448,-195,0,0,0,0,0,0,0,0,0,-1,1672,1219,0,0
455,-195,0,0,0,0,0,0,0,0,0,-1,1679,1219,0,0
462,-195,0,0,0,0,0,0,0,0,0,-1,1686,1219,0,0
469,-195,0,0,0,0,0,0,0,0,0,-1,1693,1219,0,0
476,-195,0,0,0,0,0,0,0,0,0,-1,1700,1219,0,0
483,-195,0,0,0,0,0,0,0,0,0,-1,1707,1219,0,0
490,-195,0,0,0,0,0,0,0,0,0,-1,1714,1219,0,0
497,-195,0,0,0,0,0,0,0,0,0,-1,1721,1219,0,0
504,-195,0,0,0,0,0,0,0,0,0,-1,1728,1219,0,0
511,-195,0,0,0,0,0,0,0,0,0,-1,1735,1219,0,0
518,-195,0,0,0,0,0,0,0,0,0,-1,1742,1219,0,0
525,-195,0,0,0,0,0,0,0,0,0,-1,1749,1219,0,0
532,-195,0,0,0,0,0,0,0,0,0,-1,1756,1219,0,0
539,-195,0,0,0,0,0,0,0,0,0,-1,1763,1219,0,0
546,-195,0,0,0,0,0,0,0,0,0,-1,1770,1219,0,0
553,-195,0,0,0,0,0,0,0,0,0,-1,1777,1219,0,0
560,-195,0,0,0,0,0,0,0,0,0,-1,1784,1219,0,0
567,-195,0,0,0,0,0,0,0,0,0,-1,1791,1219,0,0
574,-195,0,0,0,0,0,0,0,0,0,-1,1798,1219,0,0
581,-195,0,0,0,0,0,0,0,0,0,-1,1805,1219,0,0
588,-195,0,0,0,0,0,0,0,0,0,-1,1812,1219,0,0
595,-195,0,0,0,0,0,0,0,0,0,-1,1819,1219,0,0
602,-195,0,0,0,0,0,0,0,0,0,-1,1826,1219,0,0
609,-195,0,0,0,0,0,0,0,0,0,-1,1833,1219,0,0
616,-195,0,0,0,0,0,0,0,0,0,-1,1840,1219,0,0
623,-195,0,0,0,0,0,0,0,0,0,-1,1847,1219,0,0
630,-195,79.9485,2.20227,0.00334314,-0.0028461,0.00105167,0.00351696,-0.00301992,0.163797,0.0037777,0.0404389,1854,1219,79.9484,-2.20222
637,-195,80.0101,2.19458,0.00254318,-0.00176584,0.000321606,0.00256705,-0.00178971,0.0740886,0.00252869,0.0392315,1861,1219,80.0102,-2.19463
644,-195,79.9553,2.22217,0.00172565,-0.000525403,-0.000500022,0.00183172,-0.000631474,-0.209034,0.00147733,0.0351248,1868,1219,79.9553,-2.22221
651,-195,79.8844,2.2356,0.00097128,0.00069407,-0.00130418,0.0021442,-0.000478847,-0.732458,0.00161295,0.0287178,1875,1219,79.8844,-2.23558
658,-195,79.9182,2.25903,0.000189115,0.00157579,-0.00143062,0.00247223,-0.000707321,-1.01104,0.00192768,0.0263047,1882,1219,79.9183,-2.25908
665,-195,79.9324,2.25159,-0.000227005,0.00210613,-0.00107287,0.00252447,-0.000645343,-1.19901,0.00193432,0.0225759,1889,1219,79.9324,-2.25164
672,-195,79.9346,2.09045,-0.000274833,0.00263633,-0.000737235,0.00281238,-0.000450887,-1.33638,0.00204188,0.0360546,1896,1219,79.9345,-2.09039
679,-195,79.933,1.91931,0,0,0,0,0,0,0,-1,1903,1219,79.933,-1.91937
686,-195,51.2117,1.94312,0,0,0,0,0,0,0,-1,1910,1219,51.2117,-1.9431
693,-195,24.4368,5.68298,0,0,0,0,0,0,0,-1,1917,1219,24.4368,-5.68293
700,-195,64.4287,13.5927,0,0,0,0,0,0,0,-1,1924,1219,64.4287,-13.5926
707,-195,64.4811,12.8125,0,0,0,0,0,0,0,-1,1931,1219,64.4811,-12.8125
714,-195,64.4921,12.5361,0,0,0,0,0,0,0,-1,1938,1219,64.4921,-12.5361
721,-195,64.1735,11.3831,0,0,0,0,0,0,0,-1,1945,1219,64.1734,-11.3831
728,-195,64.2513,10.4719,-2.65821e-05,0.00292324,0.000741159,0.00309899,-0.000202331,1.33797,0.00213663,0.0136047,1952,1219,64.2513,-10.4719
735,-195,64.2332,9.61023,0.00024168,0.00250668,0.000941758,0.00284709,-9.87309e-05,1.22395,0.00193181,0.0133555,1959,1219,64.2332,-9.61027
742,-195,64.1538,8.85095,2.42869e-05,0.00191389,0.00129264,0.0025702,-0.000632023,1.10098,0.00195843,0.0151806,1966,1219,64.1538,-8.85098
749,-195,64.1058,8.11499,-0.000459368,0.00138186,0.00188025,0.00255478,-0.00163228,1.01305,0.00243688,0.0148064,1973,1219,64.1058,-8.11505
756,-195,64.0925,7.37964,-0.00106324,0.000964729,0.00266928,0.00280613,-0.00290464,0.966916,0.00329727,0.0151524,1980,1219,64.0925,-7.37969
763,-195,64.0703,6.53625,-0.00201727,0.00066193,0.00393089,0.00347521,-0.00483055,0.94962,0.00481657,0.0229264,1987,1219,64.0704,-6.53622
770,-195,63.8699,5.73389,0,0,0,0,0,0,0,-1,1994,1219,63.8698,-5.73385
777,-195,63.7534,5.10022,0,0,0,0,0,0,0,-1,2001,1219,63.7534,-5.10021
784,-195,69.7437,-3.15942,0,0,0,0,0,0,0,-1,2008,1219,69.7437,3.15944
791,-195,68.9104,-1.24268,0,0,0,0,0,0,0,-1,2015,1219,68.9103,1.24264
798,-195,66.05,2.49902,0,0,0,0,0,0,0,-1,2022,1219,66.0501,-2.499
805,-195,0,0,0,0,0,0,0,0,0,-1,2029,1219,0,0
812,-195,0,0,0,0,0,0,0,0,0,-1,2036,1219,0,0
-700,-202,0,0,0,0,0,0,0,0,0,-1,524,1226,0,0
-693,-202,0,0,0,0,0,0,0,0,0,-1,531,1226,0,0
-686,-202,0,0,0,0,0,0,0,0,0,-1,538,1226,0,0
-679,-202,-59.8624,8.14148,0,0,0,0,0,0,0,-1,545,1226,-59.8624,-8.14148
-672,-202,-62.6643,5.9353,0,0,0,0,0,0,0,-1,552,1226,-62.6643,-5.93536
-665,-202,-61.2224,7.66235,0,0,0,0,0,0,0,-1,559,1226,-61.2224,-7.66239
-658,-202,-59.7079,9.44006,0,0,0,0,0,0,0,-1,566,1226,-59.7079,-9.44004
-651,-202,-58.2099,11.1689,0,0,0,0,0,0,0,-1,573,1226,-58.2099,-11.1689
-644,-202,-46.765,5.05566,0,0,0,0,0,0,0,-1,580,1226,-46.7649,-5.05572
-637,-202,-46.7781,5.18933,0,0,0,0,0,0,0,-1,587,1226,-46.7782,-5.18939
-630,-202,-46.7958,6.03088,0.0521881,0.0164748,0.0361417,0.0746438,-0.00598085,0.555951,0.0518712,0.0253408,594,1226,-46.7958,-6.03084
-623,-202,-46.8329,6.86353,0.0321806,0.0103841,0.021407,0.0453038,-0.00273917,0.549949,0.0311557,0.00986349,601,1226,-46.833,-6.86355
-616,-202,-46.8708,7.68127,0.0140782,0.00438895,0.00840236,0.0189325,-0.000465394,0.523888,0.0127797,0.00901226,608,1226,-46.8708,-7.68129
-609,-202,-46.8746,8.48511,0.00411906,0.00196975,-0.000124285,0.00412622,0.00196259,-0.0575698,0.00238322,0.0233033,615,1226,-46.8746,-8.48513
-602,-202,-46.9493,9.2561,0.00118855,0.0018044,-0.00421815,0.00572584,-0.00273289,-0.821833,0.00498452,0.0237069,622,1226,-46.9493,-9.25614
-595,-202,-47.0355,10.0819,0,0,0,0,0,0,0,-1,629,1226,-47.0355,-10.0819
-588,-202,-47.2668,10.9265,0.000515854,0.00239578,-0.00544216,0.00697856,-0.00406692,-0.870914,0.00645055,0.0268541,636,1226,-47.2668,-10.9265
-581,-202,-47.1677,11.5823,0.000706189,0.00202865,-0.00516651,0.00657608,-0.00384123,-0.849044,0.00608313,0.0364295,643,1226,-47.1677,-11.5823
-574,-202,-47.283,12.3186,0,0,0,0,0,0,0,-1,650,1226,-47.283,-12.3186
-567,-202,-22.1768,4.56995,0,0,0,0,0,0,0,-1,657,1226,-22.1768,-4.56991
-560,-202,-10.929,2.73096,0,0,0,0,0,0,0,-1,664,1226,-10.929,-2.73092
-553,-202,-30.2701,1.474,0,0,0,0,0,0,0,-1,671,1226,-30.2701,-1.47395
-546,-202,-53.2803,0.580933,0,0,0,0,0,0,0,-1,678,1226,-53.2803,-0.580945
-539,-202,-62.9174,0.537476,0,0,0,0,0,0,0,-1,685,1226,-62.9173,-0.537461
-532,-202,-62.8717,0.354736,-0.0018804,0.00165104,-0.00259,0.00301994,-0.00324931,-1.08458,0.00362036,0.0301391,692,1226,-62.8717,-0.354762
-525,-202,-62.7224,0.153442,-0.00224554,0.00184328,-0.00161507,0.00240426,-0.00280652,-1.23649,0.00301143,0.0359457,699,1226,-62.7224,-0.15345
-518,-202,-62.7299,0.341553,-0.00162893,0.00336838,-0.00122452,0.0036523,-0.00191285,-1.34296,0.00326494,0.0421085,706,1226,-62.7299,-0.341513
-511,-202,-62.8,0.586426,0,0,0,0,0,0,0,-1,713,1226,-62.8,-0.586365
-504,-202,0,0,0,0,0,0,0,0,0,-1,720,1226,0,0
-497,-202,0,0,0,0,0,0,0,0,0,-1,727,1226,0,0
-490,-202,0,0,0,0,0,0,0,0,0,-1,734,1226,0,0
-483,-202,0,0,0,0,0,0,0,0,0,-1,741,1226,0,0
-476,-202,0,0,0,0,0,0,0,0,0,-1,748,1226,0,0
-469,-202,0,0,0,0,0,0,0,0,0,-1,755,1226,0,0
-462,-202,0,0,0,0,0,0,0,0,0,-1,762,1226,0,0
-455,-202,0,0,0,0,0,0,0,0,0,-1,769,1226,0,0
-448,-202,0,0,0,0,0,0,0,0,0,-1,776,1226,0,0
-441,-202,0,0,0,0,0,0,0,0,0,-1,783,1226,0,0
-434,-202,0,0,0,0,0,0,0,0,0,-1,790,1226,0,0
-427,-202,0,0,0,0,0,0,0,0,0,-1,797,1226,0,0
-420,-202,0,0,0,0,0,0,0,0,0,-1,804,1226,0,0
-413,-202,0,0,0,0,0,0,0,0,0,-1,811,1226,0,0
-406,-202,0,0,0,0,0,0,0,0,0,-1,818,1226,0,0
-399,-202,0,0,0,0,0,0,0,0,0,-1,825,1226,0,0
-392,-202,0,0,0,0,0,0,0,0,0,-1,832,1226,0,0
-385,-202,0,0,0,0,0,0,0,0,0,-1,839,1226,0,0
-378,-202,0,0,0,0,0,0,0,0,0,-1,846,1226,0,0
-371,-202,0,0,0,0,0,0,0,0,0,-1,853,1226,0,0
-364,-202,0,0,0,0,0,0,0,0,0,-1,860,1226,0,0
-357,-202,0,0,0,0,0,0,0,0,0,-1,867,1226,0,0
-350,-202,0,0,0,0,0,0,0,0,0,-1,874,1226,0,0
-343,-202,0,0,0,0,0,0,0,0,0,-1,881,1226,0,0
-336,-202,0,0,0,0,0,0,0,0,0,-1,888,1226,0,0
-329,-202,0,0,0,0,0,0,0,0,0,-1,895,1226,0,0
-322,-202,0,0,0,0,0,0,0,0,0,-1,902,1226,0,0
-315,-202,0,0,0,0,0,0,0,0,0,-1,909,1226,0,0
-308,-202,0,0,0,0,0,0,0,0,0,-1,916,1226,0,0
-301,-202,0,0,0,0,0,0,0,0,0,-1,923,1226,0,0
-294,-202,0,0,0,0,0,0,0,0,0,-1,930,1226,0,0
-287,-202,0,0,0,0,0,0,0,0,0,-1,937,1226,0,0
-280,-202,0,0,0,0,0,0,0,0,0,-1,944,1226,0,0
-273,-202,0,0,0,0,0,0,0,0,0,-1,951,1226,0,0
-266,-202,0,0,0,0,0,0,0,0,0,-1,958,1226,0,0
-259,-202,0,0,0,0,0,0,0,0,0,-1,965,1226,0,0
-252,-202,0,0,0,0,0,0,0,0,0,-1,972,1226,0,0
-245,-202,0,0,0,0,0,0,0,0,0,-1,979,1226,0,0
-238,-202,0,0,0,0,0,0,0,0,0,-1,986,1226,0,0
-231,-202,0,0,0,0,0,0,0,0,0,-1,993,1226,0,0
-224,-202,0,0,0,0,0,0,0,0,0,-1,1000,1226,0,0
-217,-202,0,0,0,0,0,0,0,0,0,-1,1007,1226,0,0
-210,-202,0,0,0,0,0,0,0,0,0,-1,1014,1226,0,0
-203,-202,0,0,0,0,0,0,0,0,0,-1,1021,1226,0,0
-196,-202,0,0,0,0,0,0,0,0,0,-1,1028,1226,0,0
-189,-202,0,0,0,0,0,0,0,0,0,-1,1035,1226,0,0
-182,-202,0,0,0,0,0,0,0,0,0,-1,1042,1226,0,0
-175,-202,0,0,0,0,0,0,0,0,0,-1,1049,1226,0,0
-168,-202,0,0,0,0,0,0,0,0,0,-1,1056,1226,0,0
-161,-202,0,0,0,0,0,0,0,0,0,-1,1063,1226,0,0
-154,-202,0,0,0,0,0,0,0,0,0,-1,1070,1226,0,0
-147,-202,0,0,0,0,0,0,0,0,0,-1,1077,1226,0,0
-140,-202,0,0,0,0,0,0,0,0,0,-1,1084,1226,0,0
-133,-202,0,0,0,0,0,0,0,0,0,-1,1091,1226,0,0
-126,-202,0,0,0,0,0,0,0,0,0,-1,1098,1226,0,0
-119,-202,0,0,0,0,0,0,0,0,0,-1,1105,1226,0,0
-112,-202,0,0,0,0,0,0,0,0,0,-1,1112,1226,0,0
-105,-202,0,0,0,0,0,0,0,0,0,-1,1119,1226,0,0
-98,-202,0,0,0,0,0,0,0,0,0,-1,1126,1226,0,0
-91,-202,0,0,0,0,0,0,0,0,0,-1,1133,1226,0,0
-84,-202,0,0,0,0,0,0,0,0,0,-1,1140,1226,0,0
-77,-202,0,0,0,0,0,0,0,0,0,-1,1147,1226,0,0
-70,-202,0,0,0,0,0,0,0,0,0,-1,1154,1226,0,0
-63,-202,0,0,0,0,0,0,0,0,0,-1,1161,1226,0,0
-56,-202,0,0,0,0,0,0,0,0,0,-1,1168,1226,0,0
-49,-202,0,0,0,0,0,0,0,0,0,-1,1175,1226,0,0
-42,-202,0,0,0,0,0,0,0,0,0,-1,1182,1226,0,0
-35,-202,0,0,0,0,0,0,0,0,0,-1,1189,1226,0,0
-28,-202,0,0,0,0,0,0,0,0,0,-1,1196,1226,0,0
-21,-202,0,0,0,0,0,0,0,0,0,-1,1203,1226,0,0
-14,-202,0,0,0,0,0,0,0,0,0,-1,1210,1226,0,0
-7,-202,0,0,0,0,0,0,0,0,0,-1,1217,1226,0,0
0,-202,0,0,0,0,0,0,0,0,0,-1,1224,1226,0,0
7,-202,0,0,0,0,0,0,0,0,0,-1,1231,1226,0,0
14,-202,0,0,0,0,0,0,0,0,0,-1,1238,1226,0,0
21,-202,0,0,0,0,0,0,0,0,0,-1,1245,1226,0,0
28,-202,0,0,0,0,0,0,0,0,0,-1,1252,1226,0,0
35,-202,0,0,0,0,0,0,0,0,0,-1,1259,1226,0,0
42,-202,0,0,0,0,0,0,0,0,0,-1,1266,1226,0,0
49,-202,0,0,0,0,0,0,0,0,0,-1,1273,1226,0,0
56,-202,0,0,0,0,0,0,0,0,0,-1,1280,1226,0,0
63,-202,0,0,0,0,0,0,0,0,0,-1,1287,1226,0,0
70,-202,0,0,0,0,0,0,0,0,0,-1,1294,1226,0,0
77,-202,0,0,0,0,0,0,0,0,0,-1,1301,1226,0,0
84,-202,0,0,0,0,0,0,0,0,0,-1,1308,1226,0,0
91,-202,0,0,0,0,0,0,0,0,0,-1,1315,1226,0,0
98,-202,0,0,0,0,0,0,0,0,0,-1,1322,1226,0,0
105,-202,0,0,0,0,0,0,0,0,0,-1,1329,1226,0,0
112,-202,0,0,0,0,0,0,0,0,0,-1,1336,1226,0,0
119,-202,0,0,0,0,0,0,0,0,0,-1,1343,1226,0,0
126,-202,0,0,0,0,0,0,0,0,0,-1,1350,1226,0,0
133,-202,0,0,0,0,0,0,0,0,0,-1,1357,1226,0,0
140,-202,0,0,0,0,0,0,0,0,0,-1,1364,1226,0,0
147,-202,0,0,0,0,0,0,0,0,0,-1,1371,1226,0,0
154,-202,0,0,0,0,0,0,0,0,0,-1,1378,1226,0,0
161,-202,0,0,0,0,0,0,0,0,0,-1,1385,1226,0,0
168,-202,0,0,0,0,0,0,0,0,0,-1,1392,1226,0,0
175,-202,0,0,0,0,0,0,0,0,0,-1,1399,1226,0,0
182,-202,0,0,0,0,0,0,0,0,0,-1,1406,1226,0,0
189,-202,0,0,0,0,0,0,0,0,0,-1,1413,1226,0,0
196,-202,0,0,0,0,0,0,0,0,0,-1,1420,1226,0,0
203,-202,0,0,0,0,0,0,0,0,0,-1,1427,1226,0,0
210,-202,0,0,0,0,0,0,0,0,0,-1,1434,1226,0,0
217,-202,0,0,0,0,0,0,0,0,0,-1,1441,1226,0,0
224,-202,0,0,0,0,0,0,0,0,0,-1,1448,1226,0,0
231,-202,0,0,0,0,0,0,0,0,0,-1,1455,1226,0,0
238,-202,0,0,0,0,0,0,0,0,0,-1,1462,1226,0,0
245,-202,0,0,0,0,0,0,0,0,0,-1,1469,1226,0,0
252,-202,0,0,0,0,0,0,0,0,0,-1,1476,1226,0,0
259,-202,0,0,0,0,0,0,0,0,0,-1,1483,1226,0,0
266,-202,0,0,0,0,0,0,0,0,0,-1,1490,1226,0,0
273,-202,0,0,0,0,0,0,0,0,0,-1,1497,1226,0,0
280,-202,0,0,0,0,0,0,0,0,0,-1,1504,1226,0,0
287,-202,0,0,0,0,0,0,0,0,0,-1,1511,1226,0,0
294,-202,0,0,0,0,0,0,0,0,0,-1,1518,1226,0,0
301,-202,0,0,0,0,0,0,0,0,0,-1,1525,1226,0,0
308,-202,0,0,0,0,0,0,0,0,0,-1,1532,1226,0,0
315,-202,0,0,0,0,0,0,0,0,0,-1,1539,1226,0,0
322,-202,0,0,0,0,0,0,0,0,0,-1,1546,1226,0,0
329,-202,0,0,0,0,0,0,0,0,0,-1,1553,1226,0,0
336,-202,0,0,0,0,0,0,0,0,0,-1,1560,1226,0,0
343,-202,0,0,0,0,0,0,0,0,0,-1,1567,1226,0,0
350,-202,0,0,0,0,0,0,0,0,0,-1,1574,1226,0,0
357,-202,0,0,0,0,0,0,0,0,0,-1,1581,1226,0,0
364,-202,0,0,0,0,0,0,0,0,0,-1,1588,1226,0,0
371,-202,0,0,0,0,0,0,0,0,0,-1,1595,1226,0,0
378,-202,0,0,0,0,0,0,0,0,0,-1,1602,1226,0,0
385,-202,0,0,0,0,0,0,0,0,0,-1,1609,1226,0,0
392,-202,0,0,0,0,0,0,0,0,0,-1,1616,1226,0,0
399,-202,0,0,0,0,0,0,0,0,0,-1,1623,1226,0,0
406,-202,0,0,0,0,0,0,0,0,0,-1,1630,1226,0,0
413,-202,0,0,0,0,0,0,0,0,0,-1,1637,1226,0,0
420,-202,0,0,0,0,0,0,0,0,0,-1,1644,1226,0,0
427,-202,0,0,0,0,0,0,0,0,0,-1,1651,1226,0,0
434,-202,0,0,0,0,0,0,0,0,0,-1,1658,1226,0,0
441,-202,0,0,0,0,0,0,0,0,0,-1,1665,1226,0,0
448,-202,0,0,0,0,0,0,0,0,0,-1,1672,1226,0,0
455,-202,0,0,0,0,0,0,0,0,0,-1,1679,1226,0,0
462,-202,0,0,0,0,0,0,0,0,0,-1,1686,1226,0,0
469,-202,0,0,0,0,0,0,0,0,0,-1,1693,1226,0,0
476,-202,0,0,0,0,0,0,0,0,0,-1,1700,1226,0,0
483,-202,0,0,0,0,0,0,0,0,0,-1,1707,1226,0,0
490,-202,0,0,0,0,0,0,0,0,0,-1,1714,1226,0,0
497,-202,0,0,0,0,0,0,0,0,0,-1,1721,1226,0,0
504,-202,0,0,0,0,0,0,0,0,0,-1,1728,1226,0,0
511,-202,0,0,0,0,0,0,0,0,0,-1,1735,1226,0,0
518,-202,0,0,0,0,0,0,0,0,0,-1,1742,1226,0,0
525,-202,0,0,0,0,0,0,0,0,0,-1,1749,1226,0,0
532,-202,0,0,0,0,0,0,0,0,0,-1,1756,1226,0,0
539,-202,0,0,0,0,0,0,0,0,0,-1,1763,1226,0,0
546,-202,0,0,0,0,0,0,0,0,0,-1,1770,1226,0,0
553,-202,0,0,0,0,0,0,0,0,0,-1,1777,1226,0,0
560,-202,0,0,0,0,0,0,0,0,0,-1,1784,1226,0,0
567,-202,0,0,0,0,0,0,0,0,0,-1,1791,1226,0,0
574,-202,0,0,0,0,0,0,0,0,0,-1,1798,1226,0,0
581,-202,0,0,0,0,0,0,0,0,0,-1,1805,1226,0,0
588,-202,0,0,0,0,0,0,0,0,0,-1,1812,1226,0,0
595,-202,0,0,0,0,0,0,0,0,0,-1,1819,1226,0,0
602,-202,0,0,0,0,0,0,0,0,0,-1,1826,1226,0,0
609,-202,0,0,0,0,0,0,0,0,0,-1,1833,1226,0,0
616,-202,0,0,0,0,0,0,0,0,0,-1,1840,1226,0,0
623,-202,0,0,0,0,0,0,0,0,0,-1,1847,1226,0,0
630,-202,79.9565,2.15503,0.00268623,-0.00183359,0.00054701,0.00275149,-0.00189885,0.118741,0.00269987,0.0382925,1854,1226,79.9566,-2.15498
637,-202,80.0205,2.23889,0.00181796,-0.00117786,-4.44431e-05,0.00181862,-0.00117852,-0.0148307,0.0017435,0.0368387,1861,1226,80.0205,-2.23892
644,-202,79.9937,2.26428,0.00100552,-0.000375592,-0.000715005,0.001309,-0.000679067,-0.401395,0.00116686,0.0315721,1868,1226,79.9936,-2.26426
651,-202,79.9708,2.24109,0.00034196,0.000376803,-0.00127724,0.00163674,-0.000917981,-0.792218,0.0014943,0.0252968,1875,1226,79.9708,-2.24112
658,-202,79.9447,2.24719,-0.000261916,0.000905692,-0.00111322,0.0015789,-0.000935126,-1.0269,0.00146725,0.0219235,1882,1226,79.9448,-2.24717
665,-202,79.9752,2.21631,-0.00046538,0.00132959,-0.000695656,0.00156763,-0.000703419,-1.24111,0.00134246,0.0201547,1889,1226,79.9753,-2.21627
672,-202,80.0669,2.15881,0,0,0,0,0,0,0,-1,1896,1226,80.0669,-2.15878
679,-202,72.3511,2.32935,0,0,0,0,0,0,0,-1,1903,1226,72.3511,-2.32932
686,-202,49.1708,2.15198,0,0,0,0,0,0,0,-1,1910,1226,49.1708,-2.15195
693,-202,52.1176,12.0886,0,0,0,0,0,0,0,-1,1917,1226,52.1176,-12.0886
700,-202,63.7009,13.6372,0,0,0,0,0,0,0,-1,1924,1226,63.701,-13.6372
707,-202,63.6346,12.7371,-0.000370066,0.00262294,0.0003398,0.00266104,-0.000408159,1.45916,0.00192456,0.0334735,1931,1226,63.6347,-12.7371
714,-202,63.4966,12.1499,-0.000440887,0.00289832,0.00049349,0.00296972,-0.000512291,1.4271,0.00217082,0.043875,1938,1226,63.4966,-12.1499
721,-202,63.4703,11.4543,-0.000363825,0.00289821,0.000717131,0.00304891,-0.000514519,1.36368,0.00222404,0.0333396,1945,1226,63.4704,-11.4543
728,-202,63.4851,10.4762,-2.00855e-05,0.00260205,0.00100924,0.00294551,-0.000363547,1.24277,0.00209539,0.0124399,1952,1226,63.4851,-10.4762
735,-202,63.446,9.677,7.7342e-05,0.00216943,0.00125354,0.00275604,-0.000509268,1.1331,0.00202854,0.0120169,1959,1226,63.4461,-9.67695
742,-202,63.3948,8.89636,-0.000294981,0.00157389,0.0017542,0.00262701,-0.0013481,1.03013,0.00233429,0.012998,1966,1226,63.3948,-8.89641
749,-202,63.3187,8.13586,-0.000868355,0.00102543,0.00257499,0.00282211,-0.00266503,0.961588,0.00316844,0.0133396,1973,1226,63.3187,-8.13582
756,-202,63.2979,7.39331,-0.00153314,0.000566247,0.00370026,0.00336282,-0.00432971,0.923608,0.00445297,0.0130331,1980,1226,63.2979,-7.39329
763,-202,63.3674,6.60535,-0.00248672,0.00021176,0.00549906,0.00452468,-0.00679964,0.905701,0.00658193,0.0277684,1987,1226,63.3675,-6.60535
770,-202,63.4553,5.84937,0,0,0,0,0,0,0,-1,1994,1226,63.4553,-5.84941
777,-202,67.5615,-0.236572,0,0,0,0,0,0,0,-1,2001,1226,67.5615,0.236573
784,-202,66.7117,0.754517,0,0,0,0,0,0,0,-1,2008,1226,66.7118,-0.754543
791,-202,66.512,1.74207,0,0,0,0,0,0,0,-1,2015,1226,66.512,-1.74201
798,-202,51.8999,3.58789,0,0,0,0,0,0,0,-1,2022,1226,51.9,-3.58791
805,-202,0,0,0,0,0,0,0,0,0,-1,2029,1226,0,0
812,-202,0,0,0,0,0,0,0,0,0,-1,2036,1226,0,0
-700,-209,0,0,0,0,0,0,0,0,0,-1,524,1233,0,0
-693,-209,0,0,0,0,0,0,0,0,0,-1,531,1233,0,0
-686,-209,0,0,0,0,0,0,0,0,0,-1,538,1233,0,0
-679,-209,-60.1419,8.30994,0,0,0,0,0,0,0,-1,545,1233,-60.1419,-8.30988
-672,-209,-64.1638,5.7395,0,0,0,0,0,0,0,-1,552,1233,-64.1638,-5.73952
-665,-209,-62.1504,7.23218,0,0,0,0,0,0,0,-1,559,1233,-62.1504,-7.23219
-658,-209,-60.2764,8.84106,0,0,0,0,0,0,0,-1,566,1233,-60.2764,-8.84111
-651,-209,-58.6279,10.6505,0,0,0,0,0,0,0,-1,573,1233,-58.6279,-10.6505
-644,-209,-43.4648,-7.04663,0,0,0,0,0,0,0,-1,580,1233,-43.4648,7.04659
-637,-209,-45.7598,5.29675,0,0,0,0,0,0,0,-1,587,1233,-45.7598,-5.29671
-630,-209,-45.8082,6.05139,0.0592475,0.0212571,0.0418011,0.0861668,-0.0056623,0.572137,0.059422,0.0439908,594,1233,-45.8082,-6.05137
-623,-209,-45.9843,6.89087,0.0372388,0.013306,0.0254811,0.0534234,-0.00287866,0.565874,0.0366129,0.018348,601,1233,-45.9842,-6.89082
-616,-209,-46.0558,7.73889,0.016821,0.00519308,0.0107016,0.023186,-0.00117195,0.536565,0.0158624,0.0136041,608,1233,-46.0558,-7.73885
-609,-209,-46.0829,8.53357,0.00523505,0.00173797,0.00105227,0.00552726,0.00144576,0.270869,0.0033099,0.0162848,615,1233,-46.0829,-8.53359
-602,-209,-46.1451,9.31641,0.00158364,0.00155176,-0.00330227,0.00487,-0.00173461,-0.782985,0.00395381,0.0183587,622,1233,-46.1451,-9.31642
-595,-209,-46.2399,10.1969,0.000620958,0.00167651,-0.00518265,0.00635819,-0.00406072,-0.836141,0.00606391,0.0271288,629,1233,-46.2399,-10.1969
-588,-209,-46.4033,10.9825,0.000204237,0.001763,-0.00553103,0.00656929,-0.00460206,-0.855393,0.00648303,0.04999,636,1233,-46.4032,-10.9825
-581,-209,-46.1437,11.7474,0.000228472,0.00137277,-0.00547492,0.00630535,-0.00470411,-0.837461,0.00637869,0.045027,643,1233,-46.1437,-11.7474
-574,-209,-46.2499,12.5923,0.000101533,0.000900601,-0.0050239,0.00554083,-0.00453869,-0.825078,0.00582899,0.0447263,650,1233,-46.2499,-12.5923
-567,-209,-46.2041,13.4924,0,0,0,0,0,0,0,-1,657,1233,-46.2041,-13.4925
-560,-209,-13.9294,4.16626,0,0,0,0,0,0,0,-1,664,1233,-13.9294,-4.16621
-553,-209,-22.7542,0.748779,0,0,0,0,0,0,0,-1,671,1233,-22.7541,-0.748796
-546,-209,-44.691,0.142822,0,0,0,0,0,0,0,-1,678,1233,-44.6911,-0.142844
-539,-209,-62.5862,0.468262,0,0,0,0,0,0,0,-1,685,1233,-62.5862,-0.468282
-532,-209,-62.7245,0.446411,-0.00304405,0.000322894,-0.0026835,0.00180726,-0.00452842,-1.06554,0.00376869,0.0409836,692,1233,-62.7245,-0.446454
-525,-209,-62.8353,0.387939,-0.00349189,0.000174176,-0.00180713,0.000915192,-0.0042329,-1.18165,0.00317133,0.0352571,699,1233,-62.8352,-0.387991
-518,-209,-62.8856,0.306763,-0.00295226,0.000576686,-0.00128341,0.000994073,-0.00336965,-1.25637,0.00264091,0.0428297,706,1233,-62.8856,-0.306786
-511,-209,-63.0049,0.385376,-0.00236898,0.00486783,-0.00103803,0.00501378,-0.00251493,-1.43111,0.00442579,0.0419798,713,1233,-63.0049,-0.385343
-504,-209,0,0,0,0,0,0,0,0,0,-1,720,1233,0,0
-497,-209,0,0,0,0,0,0,0,0,0,-1,727,1233,0,0
-490,-209,0,0,0,0,0,0,0,0,0,-1,734,1233,0,0
-483,-209,0,0,0,0,0,0,0,0,0,-1,741,1233,0,0
-476,-209,0,0,0,0,0,0,0,0,0,-1,748,1233,0,0
-469,-209,0,0,0,0,0,0,0,0,0,-1,755,1233,0,0
-462,-209,0,0,0,0,0,0,0,0,0,-1,762,1233,0,0
-455,-209,0,0,0,0,0,0,0,0,0,-1,769,1233,0,0
-448,-209,0,0,0,0,0,0,0,0,0,-1,776,1233,0,0
-441,-209,0,0,0,0,0,0,0,0,0,-1,783,1233,0,0
-434,-209,0,0,0,0,0,0,0,0,0,-1,790,1233,0,0
-427,-209,0,0,0,0,0,0,0,0,0,-1,797,1233,0,0
-420,-209,0,0,0,0,0,0,0,0,0,-1,804,1233,0,0
-413,-209,0,0,0,0,0,0,0,0,0,-1,811,1233,0,0
-406,-209,0,0,0,0,0,0,0,0,0,-1,818,1233,0,0
-399,-209,0,0,0,0,0,0,0,0,0,-1,825,1233,0,0
-392,-209,0,0,0,0,0,0,0,0,0,-1,832,1233,0,0
-385,-209,0,0,0,0,0,0,0,0,0,-1,839,1233,0,0
-378,-209,0,0,0,0,0,0,0,0,0,-1,846,1233,0,0
-371,-209,0,0,0,0,0,0,0,0,0,-1,853,1233,0,0
-364,-209,0,0,0,0,0,0,0,0,0,-1,860,1233,0,0
-357,-209,0,0,0,0,0,0,0,0,0,-1,867,1233,0,0
-350,-209,0,0,0,0,0,0,0,0,0,-1,874,1233,0,0
-343,-209,0,0,0,0,0,0,0,0,0,-1,881,1233,0,0
-336,-209,0,0,0,0,0,0,0,0,0,-1,888,1233,0,0
-329,-209,0,0,0,0,0,0,0,0,0,-1,895,1233,0,0
-322,-209,0,0,0,0,0,0,0,0,0,-1,902,1233,0,0
-315,-209,0,0,0,0,0,0,0,0,0,-1,909,1233,0,0
-308,-209,0,0,0,0,0,0,0,0,0,-1,916,1233,0,0
-301,-209,0,0,0,0,0,0,0,0,0,-1,923,1233,0,0
-294,-209,0,0,0,0,0,0,0,0,0,-1,930,1233,0,0
-287,-209,0,0,0,0,0,0,0,0,0,-1,937,1233,0,0
-280,-209,0,0,0,0,0,0,0,0,0,-1,944,1233,0,0
-273,-209,0,0,0,0,0,0,0,0,0,-1,951,1233,0,0
-266,-209,0,0,0,0,0,0,0,0,0,-1,958,1233,0,0
-259,-209,0,0,0,0,0,0,0,0,0,-1,965,1233,0,0
-252,-209,0,0,0,0,0,0,0,0,0,-1,972,1233,0,0
-245,-209,0,0,0,0,0,0,0,0,0,-1,979,1233,0,0
-238,-209,0,0,0,0,0,0,0,0,0,-1,986,1233,0,0
-231,-209,0,0,0,0,0,0,0,0,0,-1,993,1233,0,0
-224,-209,0,0,0,0,0,0,0,0,0,-1,1000,1233,0,0
-217,-209,0,0,0,0,0,0,0,0,0,-1,1007,1233,0,0
-210,-209,0,0,0,0,0,0,0,0,0,-1,1014,1233,0,0
-203,-209,0,0,0,0,0,0,0,0,0,-1,1021,1233,0,0
-196,-209,0,0,0,0,0,0,0,0,0,-1,1028,1233,0,0
-189,-209,0,0,0,0,0,0,0,0,0,-1,1035,1233,0,0
-182,-209,0,0,0,0,0,0,0,0,0,-1,1042,1233,0,0
-175,-209,0,0,0,0,0,0,0,0,0,-1,1049,1233,0,0
-168,-209,0,0,0,0,0,0,0,0,0,-1,1056,1233,0,0
-161,-209,0,0,0,0,0,0,0,0,0,-1,1063,1233,0,0
-154,-209,0,0,0,0,0,0,0,0,0,-1,1070,1233,0,0
-147,-209,0,0,0,0,0,0,0,0,0,-1,1077,1233,0,0
-140,-209,0,0,0,0,0,0,0,0,0,-1,1084,1233,0,0
-133,-209,0,0,0,0,0,0,0,0,0,-1,1091,1233,0,0
-126,-209,0,0,0,0,0,0,0,0,0,-1,1098,1233,0,0
-119,-209,0,0,0,0,0,0,0,0,0,-1,1105,1233,0,0
-112,-209,0,0,0,0,0,0,0,0,0,-1,1112,1233,0,0
-105,-209,0,0,0,0,0,0,0,0,0,-1,1119,1233,0,0
-98,-209,0,0,0,0,0,0,0,0,0,-1,1126,1233,0,0
-91,-209,0,0,0,0,0,0,0,0,0,-1,1133,1233,0,0
-84,-209,0,0,0,0,0,0,0,0,0,-1,1140,1233,0,0
-77,-209,0,0,0,0,0,0,0,0,0,-1,1147,1233,0,0
-70,-209,0,0,0,0,0,0,0,0,0,-1,1154,1233,0,0
-63,-209,0,0,0,0,0,0,0,0,0,-1,1161,1233,0,0
-56,-209,0,0,0,0,0,0,0,0,0,-1,1168,1233,0,0
-49,-209,0,0,0,0,0,0,0,0,0,-1,1175,1233,0,0
-42,-209,0,0,0,0,0,0,0,0,0,-1,1182,1233,0,0
-35,-209,0,0,0,0,0,0,0,0,0,-1,1189,1233,0,0
-28,-209,0,0,0,0,0,0,0,0,0,-1,1196,1233,0,0
-21,-209,0,0,0,0,0,0,0,0,0,-1,1203,1233,0,0
-14,-209,0,0,0,0,0,0,0,0,0,-1,1210,1233,0,0
-7,-209,0,0,0,0,0,0,0,0,0,-1,1217,1233,0,0
0,-209,0,0,0,0,0,0,0,0,0,-1,1224,1233,0,0
7,-209,0,0,0,0,0,0,0,0,0,-1,1231,1233,0,0
14,-209,0,0,0,0,0,0,0,0,0,-1,1238,1233,0,0
21,-209,0,0,0,0,0,0,0,0,0,-1,1245,1233,0,0
28,-209,0,0,0,0,0,0,0,0,0,-1,1252,1233,0,0
35,-209,0,0,0,0,0,0,0,0,0,-1,1259,1233,0,0
42,-209,0,0,0,0,0,0,0,0,0,-1,1266,1233,0,0
49,-209,0,0,0,0,0,0,0,0,0,-1,1273,1233,0,0
56,-209,0,0,0,0,0,0,0,0,0,-1,1280,1233,0,0
63,-209,0,0,0,0,0,0,0,0,0,-1,1287,1233,0,0
70,-209,0,0,0,0,0,0,0,0,0,-1,1294,1233,0,0
77,-209,0,0,0,0,0,0,0,0,0,-1,1301,1233,0,0
84,-209,0,0,0,0,0,0,0,0,0,-1,1308,1233,0,0
91,-209,0,0,0,0,0,0,0,0,0,-1,1315,1233,0,0
98,-209,0,0,0,0,0,0,0,0,0,-1,1322,1233,0,0
105,-209,0,0,0,0,0,0,0,0,0,-1,1329,1233,0,0
112,-209,0,0,0,0,0,0,0,0,0,-1,1336,1233,0,0
119,-209,0,0,0,0,0,0,0,0,0,-1,1343,1233,0,0
126,-209,0,0,0,0,0,0,0,0,0,-1,1350,1233,0,0
133,-209,0,0,0,0,0,0,0,0,0,-1,1357,1233,0,0
140,-209,0,0,0,0,0,0,0,0,0,-1,1364,1233,0,0
147,-209,0,0,0,0,0,0,0,0,0,-1,1371,1233,0,0
154,-209,0,0,0,0,0,0,0,0,0,-1,1378,1233,0,0
161,-209,0,0,0,0,0,0,0,0,0,-1,1385,1233,0,0
168,-209,0,0,0,0,0,0,0,0,0,-1,1392,1233,0,0
175,-209,0,0,0,0,0,0,0,0,0,-1,1399,1233,0,0
182,-209,0,0,0,0,0,0,0,0,0,-1,1406,1233,0,0
189,-209,0,0,0,0,0,0,0,0,0,-1,1413,1233,0,0
196,-209,0,0,0,0,0,0,0,0,0,-1,1420,1233,0,0
203,-209,0,0,0,0,0,0,0,0,0,-1,1427,1233,0,0
210,-209,0,0,0,0,0,0,0,0,0,-1,1434,1233,0,0
217,-209,0,0,0,0,0,0,0,0,0,-1,1441,1233,0,0
224,-209,0,0,0,0,0,0,0,0,0,-1,1448,1233,0,0
231,-209,0,0,0,0,0,0,0,0,0,-1,1455,1233,0,0
238,-209,0,0,0,0,0,0,0,0,0,-1,1462,1233,0,0
245,-209,0,0,0,0,0,0,0,0,0,-1,1469,1233,0,0
252,-209,0,0,0,0,0,0,0,0,0,-1,1476,1233,0,0
259,-209,0,0,0,0,0,0,0,0,0,-1,1483,1233,0,0
266,-209,0,0,0,0,0,0,0,0,0,-1,1490,1233,0,0
273,-209,0,0,0,0,0,0,0,0,0,-1,1497,1233,0,0
280,-209,0,0,0,0,0,0,0,0,0,-1,1504,1233,0,0
287,-209,0,0,0,0,0,0,0,0,0,-1,1511,1233,0,0
294,-209,0,0,0,0,0,0,0,0,0,-1,1518,1233,0,0
301,-209,0,0,0,0,0,0,0,0,0,-1,1525,1233,0,0
308,-209,0,0,0,0,0,0,0,0,0,-1,1532,1233,0,0
315,-209,0,0,0,0,0,0,0,0,0,-1,1539,1233,0,0
322,-209,0,0,0,0,0,0,0,0,0,-1,1546,1233,0,0
329,-209,0,0,0,0,0,0,0,0,0,-1,1553,1233,0,0
336,-209,0,0,0,0,0,0,0,0,0,-1,1560,1233,0,0
343,-209,0,0,0,0,0,0,0,0,0,-1,1567,1233,0,0
350,-209,0,0,0,0,0,0,0,0,0,-1,1574,1233,0,0
357,-209,0,0,0,0,0,0,0,0,0,-1,1581,1233,0,0
364,-209,0,0,0,0,0,0,0,0,0,-1,1588,1233,0,0
371,-209,0,0,0,0,0,0,0,0,0,-1,1595,1233,0,0
378,-209,0,0,0,0,0,0,0,0,0,-1,1602,1233,0,0
385,-209,0,0,0,0,0,0,0,0,0,-1,1609,1233,0,0
392,-209,0,0,0,0,0,0,0,0,0,-1,1616,1233,0,0
399,-209,0,0,0,0,0,0,0,0,0,-1,1623,1233,0,0
406,-209,0,0,0,0,0,0,0,0,0,-1,1630,1233,0,0
413,-209,0,0,0,0,0,0,0,0,0,-1,1637,1233,0,0
420,-209,0,0,0,0,0,0,0,0,0,-1,1644,1233,0,0
427,-209,0,0,0,0,0,0,0,0,0,-1,1651,1233,0,0
434,-209,0,0,0,0,0,0,0,0,0,-1,1658,1233,0,0
441,-209,0,0,0,0,0,0,0,0,0,-1,1665,1233,0,0
448,-209,0,0,0,0,0,0,0,0,0,-1,1672,1233,0,0
455,-209,0,0,0,0,0,0,0,0,0,-1,1679,1233,0,0
462,-209,0,0,0,0,0,0,0,0,0,-1,1686,1233,0,0
469,-209,0,0,0,0,0,0,0,0,0,-1,1693,1233,0,0
476,-209,0,0,0,0,0,0,0,0,0,-1,1700,1233,0,0
483,-209,0,0,0,0,0,0,0,0,0,-1,1707,1233,0,0
490,-209,0,0,0,0,0,0,0,0,0,-1,1714,1233,0,0
497,-209,0,0,0,0,0,0,0,0,0,-1,1721,1233,0,0
504,-209,0,0,0,0,0,0,0,0,0,-1,1728,1233,0,0
511,-209,0,0,0,0,0,0,0,0,0,-1,1735,1233,0,0
518,-209,0,0,0,0,0,0,0,0,0,-1,1742,1233,0,0
525,-209,0,0,0,0,0,0,0,0,0,-1,1749,1233,0,0
532,-209,0,0,0,0,0,0,0,0,0,-1,1756,1233,0,0
539,-209,0,0,0,0,0,0,0,0,0,-1,1763,1233,0,0
546,-209,0,0,0,0,0,0,0,0,0,-1,1770,1233,0,0
553,-209,0,0,0,0,0,0,0,0,0,-1,1777,1233,0,0
560,-209,0,0,0,0,0,0,0,0,0,-1,1784,1233,0,0
567,-209,0,0,0,0,0,0,0,0,0,-1,1791,1233,0,0
574,-209,0,0,0,0,0,0,0,0,0,-1,1798,1233,0,0
581,-209,0,0,0,0,0,0,0,0,0,-1,1805,1233,0,0
588,-209,0,0,0,0,0,0,0,0,0,-1,1812,1233,0,0
595,-209,0,0,0,0,0,0,0,0,0,-1,1819,1233,0,0
602,-209,0,0,0,0,0,0,0,0,0,-1,1826,1233,0,0
609,-209,0,0,0,0,0,0,0,0,0,-1,1833,1233,0,0
616,-209,0,0,0,0,0,0,0,0,0,-1,1840,1233,0,0
623,-209,79.9307,2.13464,0.0028527,-0.00107707,0.000799662,0.00300919,-0.00123356,0.193253,0.00252004,0.033259,1847,1233,79.9307,-2.13468
630,-209,79.924,2.07458,0.00195719,-0.000856546,0.000477167,0.0020359,-0.000935264,0.163497,0.0017542,0.0357884,1854,1233,79.9239,-2.07462
637,-209,79.9382,2.20496,0.00107066,-0.00051811,3.75355e-05,0.00107154,-0.000518996,0.023608,0.000936588,0.0350626,1861,1233,79.9383,-2.20494
644,-209,80.0112,2.24463,0.000340074,-9.13561e-05,-0.000503895,0.000672486,-0.000423768,-0.583153,0.000638329,0.0288429,1868,1233,80.0113,-2.24465
651,-209,79.9766,2.25269,-0.000151373,0.000281236,-0.000899537,0.000990109,-0.000860246,-0.903389,0.00106918,0.0220719,1875,1233,79.9765,-2.25273
658,-209,79.9401,2.23828,-0.000539529,0.000587042,-0.000635648,0.000873073,-0.000825561,-1.14796,0.000980834,0.018548,1882,1233,79.94,-2.23834
665,-209,79.9768,2.16089,-0.000602394,0.000939286,-0.000300459,0.000995773,-0.000658881,-1.38496,0.000961893,0.0351841,1889,1233,79.9768,-2.16091
672,-209,80.0364,2.07202,0,0,0,0,0,0,0,-1,1896,1233,80.0364,-2.07204
679,-209,55.2465,2.78674,0,0,0,0,0,0,0,-1,1903,1233,55.2464,-2.78678
686,-209,33.3711,3.89856,0,0,0,0,0,0,0,-1,1910,1233,33.3711,-3.89855
693,-209,60.7567,13.6616,0,0,0,0,0,0,0,-1,1917,1233,60.7567,-13.6616
700,-209,62.8164,13.5925,0,0,0,0,0,0,0,-1,1924,1233,62.8164,-13.5926
707,-209,62.724,12.7999,-0.000542717,0.00240068,0.000568228,0.00250656,-0.000648606,1.38656,0.00192404,0.0353068,1931,1233,62.724,-12.7999
714,-209,62.6702,12.0785,-0.000588828,0.00262428,0.000774623,0.00280128,-0.000765826,1.34616,0.00216835,0.0249276,1938,1233,62.6702,-12.0785
721,-209,62.7369,11.2869,-0.000535398,0.00258413,0.0010323,0.00289479,-0.000846065,1.27847,0.00226518,0.0141608,1945,1233,62.737,-11.2868
728,-209,62.7191,10.5261,-0.000378011,0.0022447,0.00131844,0.00279289,-0.000926206,1.17675,0.00223556,0.0139411,1952,1233,62.7191,-10.5261
735,-209,62.6791,9.74463,-0.000554355,0.0017769,0.00163466,0.00261896,-0.00139642,1.09512,0.00235382,0.0172575,1959,1233,62.6791,-9.74467
742,-209,62.6135,8.9408,-0.00110976,0.00122041,0.00223585,0.00257653,-0.00246587,1.02559,0.00291147,0.0172991,1966,1233,62.6135,-8.94083
749,-209,62.5184,8.16309,-0.00180305,0.000709615,0.00315031,0.00284486,-0.0039383,0.975133,0.00393318,0.0148498,1973,1233,62.5185,-8.16307
756,-209,62.4917,7.41809,-0.00257551,0.000245674,0.00439082,0.00344692,-0.00577676,0.940821,0.00538162,0.0130529,1980,1233,62.4917,-7.41805
763,-209,62.457,6.77222,-0.00361181,-0.00015397,0.00633907,0.00468772,-0.0084535,0.91853,0.00769023,0.0291561,1987,1233,62.457,-6.77219
770,-209,62.543,6.30237,0,0,0,0,0,0,0,-1,1994,1233,62.543,-6.30237
777,-209,68.0347,-0.36377,0,0,0,0,0,0,0,-1,2001,1233,68.0346,0.363742
784,-209,67.6289,0.771729,0,0,0,0,0,0,0,-1,2008,1233,67.6289,-0.771742
791,-209,67.1841,1.90906,0,0,0,0,0,0,0,-1,2015,1233,67.1841,-1.90909
798,-209,53.6404,3.71179,0,0,0,0,0,0,0,-1,2022,1233,53.6404,-3.71185
805,-209,0,0,0,0,0,0,0,0,0,-1,2029,1233,0,0
812,-209,0,0,0,0,0,0,0,0,0,-1,2036,1233,0,0
-700,-216,0,0,0,0,0,0,0,0,0,-1,524,1240,0,0
-693,-216,0,0,0,0,0,0,0,0,0,-1,531,1240,0,0
-686,-216,0,0,0,0,0,0,0,0,0,-1,538,1240,0,0
-679,-216,-67.3322,2.74817,0,0,0,0,0,0,0,-1,545,1240,-67.3321,-2.74816
-672,-216,-65.1939,4.52673,0.325437,0.157178,0.223372,0.479997,0.00261772,0.605298,0.319129,0.0487214,552,1240,-65.1939,-4.52677
-665,-216,-62.9736,6.34985,0.273821,0.127917,0.189684,0.404098,-0.00235982,0.601819,0.270189,0.0480862,559,1240,-62.9736,-6.34985
-658,-216,-61.016,8.34521,0,0,0,0,0,0,0,-1,566,1240,-61.0159,-8.34516
-651,-216,-59.255,10.1135,0,0,0,0,0,0,0,-1,573,1240,-59.255,-10.1135
-644,-216,-45.6099,1.72839,0,0,0,0,0,0,0,-1,580,1240,-45.6099,-1.72843
-637,-216,-44.3499,5.14063,0,0,0,0,0,0,0,-1,587,1240,-44.3498,-5.14063
-630,-216,-44.8857,6.19995,0,0,0,0,0,0,0,-1,594,1240,-44.8858,-6.19997
-623,-216,-45.1255,7.07031,0.0411928,0.0160132,0.0286439,0.0598915,-0.00268555,0.578343,0.0408523,0.0256318,601,1240,-45.1255,-7.07032
-616,-216,-45.2375,7.8031,0.0187137,0.00582962,0.0122683,0.0261285,-0.00158516,0.543637,0.0179707,0.0152498,608,1240,-45.2375,-7.80308
-609,-216,-45.2867,8.59729,0.00585802,0.00136335,0.00177307,0.00647326,0.000748119,0.333989,0.00408901,0.014862,615,1240,-45.2867,-8.59733
-602,-216,-45.3403,9.35779,0.0018462,0.00123972,-0.00246273,0.00402429,-0.00093837,-0.72414,0.00304424,0.014336,622,1240,-45.3403,-9.35774
-595,-216,-45.4199,10.1328,0.000303831,0.00127318,-0.00466533,0.00547894,-0.00390193,-0.837157,0.0054415,0.0213221,629,1240,-45.4199,-10.1328
-588,-216,-45.4341,10.8149,-0.000269378,0.00142941,-0.00533178,0.00597903,-0.004819,-0.864388,0.00624622,0.0486563,636,1240,-45.4342,-10.8149
-581,-216,-45.4554,11.1726,0,0,0,0,0,0,0,-1,643,1240,-45.4554,-11.1726
-574,-216,-45.5423,12.5391,0,0,0,0,0,0,0,-1,650,1240,-45.5423,-12.539
-567,-216,-45.5768,13.2446,0,0,0,0,0,0,0,-1,657,1240,-45.5768,-13.2447
-560,-216,-16.5087,5.4574,0,0,0,0,0,0,0,-1,664,1240,-16.5087,-5.45746
-553,-216,-16.2355,1.22351,0,0,0,0,0,0,0,-1,671,1240,-16.2356,-1.22356
-546,-216,-37.1617,-0.25415,0,0,0,0,0,0,0,-1,678,1240,-37.1618,0.254161
-539,-216,-47.7817,1.47327,0,0,0,0,0,0,0,-1,685,1240,-47.7818,-1.4733
-532,-216,-62.6031,0.524048,0,0,0,0,0,0,0,-1,692,1240,-62.6031,-0.524
-525,-216,-62.7469,0.487793,-0.00502173,-0.00138464,-0.00200725,-0.000494655,-0.00591172,-1.15346,0.00378705,0.0473444,699,1240,-62.747,-0.487829
-518,-216,-62.8796,0.42334,-0.0044577,-0.00182431,-0.00142723,-0.00119918,-0.00508283,-1.15797,0.00306797,0.0409762,706,1240,-62.8796,-0.423385
-511,-216,-62.9671,0.461548,-0.00359307,0.000355397,-0.000920765,0.000559559,-0.00379723,-1.3526,0.00273714,0.0411063,713,1240,-62.9671,-0.46149
-504,-216,-62.9684,0.551514,-0.00289783,0.0072686,-0.000180428,0.0072718,-0.00290103,-1.55306,0.00605129,0.0424505,720,1240,-62.9684,-0.551523
-497,-216,0,0,0,0,0,0,0,0,0,-1,727,1240,0,0
-490,-216,0,0,0,0,0,0,0,0,0,-1,734,1240,0,0
-483,-216,0,0,0,0,0,0,0,0,0,-1,741,1240,0,0
-476,-216,0,0,0,0,0,0,0,0,0,-1,748,1240,0,0
-469,-216,0,0,0,0,0,0,0,0,0,-1,755,1240,0,0
-462,-216,0,0,0,0,0,0,0,0,0,-1,762,1240,0,0
-455,-216,0,0,0,0,0,0,0,0,0,-1,769,1240,0,0
-448,-216,0,0,0,0,0,0,0,0,0,-1,776,1240,0,0
-441,-216,0,0,0,0,0,0,0,0,0,-1,783,1240,0,0
-434,-216,0,0,0,0,0,0,0,0,0,-1,790,1240,0,0
-427,-216,0,0,0,0,0,0,0,0,0,-1,797,1240,0,0
-420,-216,0,0,0,0,0,0,0,0,0,-1,804,1240,0,0
-413,-216,0,0,0,0,0,0,0,0,0,-1,811,1240,0,0
-406,-216,0,0,0,0,0,0,0,0,0,-1,818,1240,0,0
-399,-216,0,0,0,0,0,0,0,0,0,-1,825,1240,0,0
-392,-216,0,0,0,0,0,0,0,0,0,-1,832,1240,0,0
-385,-216,0,0,0,0,0,0,0,0,0,-1,839,1240,0,0
-378,-216,0,0,0,0,0,0,0,0,0,-1,846,1240,0,0
-371,-216,0,0,0,0,0,0,0,0,0,-1,853,1240,0,0
-364,-216,0,0,0,0,0,0,0,0,0,-1,860,1240,0,0
-357,-216,0,0,0,0,0,0,0,0,0,-1,867,1240,0,0
-350,-216,0,0,0,0,0,0,0,0,0,-1,874,1240,0,0
-343,-216,0,0,0,0,0,0,0,0,0,-1,881,1240,0,0
-336,-216,0,0,0,0,0,0,0,0,0,-1,888,1240,0,0
-329,-216,0,0,0,0,0,0,0,0,0,-1,895,1240,0,0
-322,-216,0,0,0,0,0,0,0,0,0,-1,902,1240,0,0
-315,-216,0,0,0,0,0,0,0,0,0,-1,909,1240,0,0
-308,-216,0,0,0,0,0,0,0,0,0,-1,916,1240,0,0
-301,-216,0,0,0,0,0,0,0,0,0,-1,923,1240,0,0
-294,-216,0,0,0,0,0,0,0,0,0,-1,930,1240,0,0
-287,-216,0,0,0,0,0,0,0,0,0,-1,937,1240,0,0
-280,-216,0,0,0,0,0,0,0,0,0,-1,944,1240,0,0
-273,-216,0,0,0,0,0,0,0,0,0,-1,951,1240,0,0
-266,-216,0,0,0,0,0,0,0,0,0,-1,958,1240,0,0
-259,-216,0,0,0,0,0,0,0,0,0,-1,965,1240,0,0
-252,-216,0,0,0,0,0,0,0,0,0,-1,972,1240,0,0
-245,-216,0,0,0,0,0,0,0,0,0,-1,979,1240,0,0
-238,-216,0,0,0,0,0,0,0,0,0,-1,986,1240,0,0
-231,-216,0,0,0,0,0,0,0,0,0,-1,993,1240,0,0
-224,-216,0,0,0,0,0,0,0,0,0,-1,1000,1240,0,0
-217,-216,0,0,0,0,0,0,0,0,0,-1,1007,1240,0,0
-210,-216,0,0,0,0,0,0,0,0,0,-1,1014,1240,0,0
-203,-216,0,0,0,0,0,0,0,0,0,-1,1021,1240,0,0
-196,-216,0,0,0,0,0,0,0,0,0,-1,1028,1240,0,0
-189,-216,0,0,0,0,0,0,0,0,0,-1,1035,1240,0,0
-182,-216,0,0,0,0,0,0,0,0,0,-1,1042,1240,0,0
-175,-216,0,0,0,0,0,0,0,0,0,-1,1049,1240,0,0
-168,-216,0,0,0,0,0,0,0,0,0,-1,1056,1240,0,0
-161,-216,0,0,0,0,0,0,0,0,0,-1,1063,1240,0,0
-154,-216,0,0,0,0,0,0,0,0,0,-1,1070,1240,0,0
-147,-216,0,0,0,0,0,0,0,0,0,-1,1077,1240,0,0
-140,-216,0,0,0,0,0,0,0,0,0,-1,1084,1240,0,0
-133,-216,0,0,0,0,0,0,0,0,0,-1,1091,1240,0,0
-126,-216,0,0,0,0,0,0,0,0,0,-1,1098,1240,0,0
-119,-216,0,0,0,0,0,0,0,0,0,-1,1105,1240,0,0
-112,-216,0,0,0,0,0,0,0,0,0,-1,1112,1240,0,0
-105,-216,0,0,0,0,0,0,0,0,0,-1,1119,1240,0,0
-98,-216,0,0,0,0,0,0,0,0,0,-1,1126,1240,0,0
-91,-216,0,0,0,0,0,0,0,0,0,-1,1133,1240,0,0
-84,-216,0,0,0,0,0,0,0,0,0,-1,1140,1240,0,0
-77,-216,0,0,0,0,0,0,0,0,0,-1,1147,1240,0,0
-70,-216,0,0,0,0,0,0,0,0,0,-1,1154,1240,0,0
-63,-216,0,0,0,0,0,0,0,0,0,-1,1161,1240,0,0
-56,-216,0,0,0,0,0,0,0,0,0,-1,1168,1240,0,0
-49,-216,0,0,0,0,0,0,0,0,0,-1,1175,1240,0,0
-42,-216,0,0,0,0,0,0,0,0,0,-1,1182,1240,0,0
-35,-216,0,0,0,0,0,0,0,0,0,-1,1189,1240,0,0
-28,-216,0,0,0,0,0,0,0,0,0,-1,1196,1240,0,0
-21,-216,0,0,0,0,0,0,0,0,0,-1,1203,1240,0,0
-14,-216,0,0,0,0,0,0,0,0,0,-1,1210,1240,0,0
-7,-216,0,0,0,0,0,0,0,0,0,-1,1217,1240,0,0
0,-216,0,0,0,0,0,0,0,0,0,-1,1224,1240,0,0
7,-216,0,0,0,0,0,0,0,0,0,-1,1231,1240,0,0
14,-216,0,0,0,0,0,0,0,0,0,-1,1238,1240,0,0
21,-216,0,0,0,0,0,0,0,0,0,-1,1245,1240,0,0
28,-216,0,0,0,0,0,0,0,0,0,-1,1252,1240,0,0
35,-216,0,0,0,0,0,0,0,0,0,-1,1259,1240,0,0
42,-216,0,0,0,0,0,0,0,0,0,-1,1266,1240,0,0
49,-216,0,0,0,0,0,0,0,0,0,-1,1273,1240,0,0
56,-216,0,0,0,0,0,0,0,0,0,-1,1280,1240,0,0
63,-216,0,0,0,0,0,0,0,0,0,-1,1287,1240,0,0
70,-216,0,0,0,0,0,0,0,0,0,-1,1294,1240,0,0
77,-216,0,0,0,0,0,0,0,0,0,-1,1301,1240,0,0
84,-216,0,0,0,0,0,0,0,0,0,-1,1308,1240,0,0
91,-216,0,0,0,0,0,0,0,0,0,-1,1315,1240,0,0
98,-216,0,0,0,0,0,0,0,0,0,-1,1322,1240,0,0
105,-216,0,0,0,0,0,0,0,0,0,-1,1329,1240,0,0
112,-216,0,0,0,0,0,0,0,0,0,-1,1336,1240,0,0
119,-216,0,0,0,0,0,0,0,0,0,-1,1343,1240,0,0
126,-216,0,0,0,0,0,0,0,0,0,-1,1350,1240,0,0
133,-216,0,0,0,0,0,0,0,0,0,-1,1357,1240,0,0
140,-216,0,0,0,0,0,0,0,0,0,-1,1364,1240,0,0
147,-216,0,0,0,0,0,0,0,0,0,-1,1371,1240,0,0
154,-216,0,0,0,0,0,0,0,0,0,-1,1378,1240,0,0
161,-216,0,0,0,0,0,0,0,0,0,-1,1385,1240,0,0
168,-216,0,0,0,0,0,0,0,0,0,-1,1392,1240,0,0
175,-216,0,0,0,0,0,0,0,0,0,-1,1399,1240,0,0
182,-216,0,0,0,0,0,0,0,0,0,-1,1406,1240,0,0
189,-216,0,0,0,0,0,0,0,0,0,-1,1413,1240,0,0
196,-216,0,0,0,0,0,0,0,0,0,-1,1420,1240,0,0
203,-216,0,0,0,0,0,0,0,0,0,-1,1427,1240,0,0
210,-216,0,0,0,0,0,0,0,0,0,-1,1434,1240,0,0
217,-216,0,0,0,0,0,0,0,0,0,-1,1441,1240,0,0
224,-216,0,0,0,0,0,0,0,0,0,-1,1448,1240,0,0
231,-216,0,0,0,0,0,0,0,0,0,-1,1455,1240,0,0
238,-216,0,0,0,0,0,0,0,0,0,-1,1462,1240,0,0
245,-216,0,0,0,0,0,0,0,0,0,-1,1469,1240,0,0
252,-216,0,0,0,0,0,0,0,0,0,-1,1476,1240,0,0
259,-216,0,0,0,0,0,0,0,0,0,-1,1483,1240,0,0
266,-216,0,0,0,0,0,0,0,0,0,-1,1490,1240,0,0
273,-216,0,0,0,0,0,0,0,0,0,-1,1497,1240,0,0
280,-216,0,0,0,0,0,0,0,0,0,-1,1504,1240,0,0
287,-216,0,0,0,0,0,0,0,0,0,-1,1511,1240,0,0
294,-216,0,0,0,0,0,0,0,0,0,-1,1518,1240,0,0
301,-216,0,0,0,0,0,0,0,0,0,-1,1525,1240,0,0
308,-216,0,0,0,0,0,0,0,0,0,-1,1532,1240,0,0
315,-216,0,0,0,0,0,0,0,0,0,-1,1539,1240,0,0
322,-216,0,0,0,0,0,0,0,0,0,-1,1546,1240,0,0
329,-216,0,0,0,0,0,0,0,0,0,-1,1553,1240,0,0
336,-216,0,0,0,0,0,0,0,0,0,-1,1560,1240,0,0
343,-216,0,0,0,0,0,0,0,0,0,-1,1567,1240,0,0
350,-216,0,0,0,0,0,0,0,0,0,-1,1574,1240,0,0
357,-216,0,0,0,0,0,0,0,0,0,-1,1581,1240,0,0
364,-216,0,0,0,0,0,0,0,0,0,-1,1588,1240,0,0
371,-216,0,0,0,0,0,0,0,0,0,-1,1595,1240,0,0
378,-216,0,0,0,0,0,0,0,0,0,-1,1602,1240,0,0
385,-216,0,0,0,0,0,0,0,0,0,-1,1609,1240,0,0
392,-216,0,0,0,0,0,0,0,0,0,-1,1616,1240,0,0
399,-216,0,0,0,0,0,0,0,0,0,-1,1623,1240,0,0
406,-216,0,0,0,0,0,0,0,0,0,-1,1630,1240,0,0
413,-216,0,0,0,0,0,0,0,0,0,-1,1637,1240,0,0
420,-216,0,0,0,0,0,0,0,0,0,-1,1644,1240,0,0
427,-216,0,0,0,0,0,0,0,0,0,-1,1651,1240,0,0
434,-216,0,0,0,0,0,0,0,0,0,-1,1658,1240,0,0
441,-216,0,0,0,0,0,0,0,0,0,-1,1665,1240,0,0
448,-216,0,0,0,0,0,0,0,0,0,-1,1672,1240,0,0
455,-216,0,0,0,0,0,0,0,0,0,-1,1679,1240,0,0
462,-216,0,0,0,0,0,0,0,0,0,-1,1686,1240,0,0
469,-216,0,0,0,0,0,0,0,0,0,-1,1693,1240,0,0
476,-216,0,0,0,0,0,0,0,0,0,-1,1700,1240,0,0
483,-216,0,0,0,0,0,0,0,0,0,-1,1707,1240,0,0
490,-216,0,0,0,0,0,0,0,0,0,-1,1714,1240,0,0
497,-216,0,0,0,0,0,0,0,0,0,-1,1721,1240,0,0
504,-216,0,0,0,0,0,0,0,0,0,-1,1728,1240,0,0
511,-216,0,0,0,0,0,0,0,0,0,-1,1735,1240,0,0
518,-216,0,0,0,0,0,0,0,0,0,-1,1742,1240,0,0
525,-216,0,0,0,0,0,0,0,0,0,-1,1749,1240,0,0
532,-216,0,0,0,0,0,0,0,0,0,-1,1756,1240,0,0
539,-216,0,0,0,0,0,0,0,0,0,-1,1763,1240,0,0
546,-216,0,0,0,0,0,0,0,0,0,-1,1770,1240,0,0
553,-216,0,0,0,0,0,0,0,0,0,-1,1777,1240,0,0
560,-216,0,0,0,0,0,0,0,0,0,-1,1784,1240,0,0
567,-216,0,0,0,0,0,0,0,0,0,-1,1791,1240,0,0
574,-216,0,0,0,0,0,0,0,0,0,-1,1798,1240,0,0
581,-216,0,0,0,0,0,0,0,0,0,-1,1805,1240,0,0
588,-216,0,0,0,0,0,0,0,0,0,-1,1812,1240,0,0
595,-216,0,0,0,0,0,0,0,0,0,-1,1819,1240,0,0
602,-216,0,0,0,0,0,0,0,0,0,-1,1826,1240,0,0
609,-216,0,0,0,0,0,0,0,0,0,-1,1833,1240,0,0
616,-216,0,0,0,0,0,0,0,0,0,-1,1840,1240,0,0
623,-216,79.8765,2.26636,0.00216316,2.16474e-05,0.000923696,0.00250652,-0.000321715,0.355898,0.00178793,0.0390894,1847,1240,79.8764,-2.26639
630,-216,79.8916,2.23059,0.00114184,5.78715e-05,0.000667753,0.00145988,-0.000260168,0.444495,0.00107057,0.0379425,1854,1240,79.8916,-2.23058
637,-216,79.9138,2.26624,0.00017831,0.000159116,0.000279004,0.000447882,-0.000110456,0.768207,0.000341415,0.0333359,1861,1240,79.9138,-2.26619
644,-216,79.9883,2.28284,-0.000417331,0.00025729,-0.000237007,0.000332231,-0.000492271,-1.26455,0.000479006,0.0276861,1868,1240,79.9883,-2.28289
651,-216,79.9261,2.26172,-0.000685709,0.000296164,-0.000532404,0.000529432,-0.000918977,-1.15785,0.000846261,0.0219761,1875,1240,79.9261,-2.26167
658,-216,79.9493,2.21338,-0.000845083,0.000422014,-0.000260861,0.000473617,-0.000896686,-1.3755,0.000803615,0.0288382,1882,1240,79.9493,-2.21343
665,-216,80.0001,2.14636,0,0,0,0,0,0,0,-1,1889,1240,80.0002,-2.14632
672,-216,68.6339,1.33826,0,0,0,0,0,0,0,-1,1896,1240,68.6339,-1.33828
679,-216,47.3159,3.82703,0,0,0,0,0,0,0,-1,1903,1240,47.316,-3.82708
686,-216,21.5172,6.19458,0,0,0,0,0,0,0,-1,1910,1240,21.5172,-6.19453
693,-216,56.1224,12.7039,0,0,0,0,0,0,0,-1,1917,1240,56.1224,-12.7038
700,-216,62.0126,13.6926,0,0,0,0,0,0,0,-1,1924,1240,62.0126,-13.6927
707,-216,61.7891,12.8363,0,0,0,0,0,0,0,-1,1931,1240,61.7891,-12.8363
714,-216,62.0121,12.0333,-0.000679724,0.00219019,0.00104321,0.00252932,-0.00101885,1.25649,0.0021095,0.0306957,1938,1240,62.0121,-12.0334
721,-216,61.9756,11.3599,-0.000723039,0.00207302,0.00134548,0.0026153,-0.00126532,1.18767,0.00228522,0.0139423,1945,1240,61.9756,-11.3598
728,-216,61.9513,10.5956,-0.00081821,0.00169493,0.00167708,0.00253397,-0.00165724,1.10691,0.00243738,0.0141187,1952,1240,61.9512,-10.5956
735,-216,61.9552,9.81506,-0.00123301,0.00122958,0.00208416,0.00241899,-0.00242242,1.05221,0.00279519,0.016348,1959,1240,61.9551,-9.81504
742,-216,61.8495,9.01746,-0.0019153,0.000715679,0.00276718,0.00246414,-0.00366376,1.00728,0.00356047,0.0187588,1966,1240,61.8494,-9.01745
749,-216,61.7548,8.21362,-0.00268259,0.000208632,0.0037385,0.00277128,-0.00524524,0.969885,0.00470123,0.013912,1973,1240,61.7548,-8.21367
756,-216,61.7045,7.44092,-0.00352993,-0.000301729,0.00505984,0.00339522,-0.00722689,0.939797,0.00626427,0.0120329,1980,1240,61.7045,-7.44096
763,-216,61.6682,6.75696,-0.00461701,-0.000778812,0.00710715,0.00466378,-0.0100596,0.917265,0.00868875,0.0242902,1987,1240,61.6681,-6.75699
770,-216,61.49,6.41211,0,0,0,0,0,0,0,-1,1994,1240,61.4899,-6.41206
777,-216,61.3721,6.01868,0,0,0,0,0,0,0,-1,2001,1240,61.372,-6.01869
784,-216,68.2205,0.660034,0,0,0,0,0,0,0,-1,2008,1240,68.2204,-0.660033
791,-216,67.71,1.8468,0,0,0,0,0,0,0,-1,2015,1240,67.7099,-1.84686
798,-216,0,0,0,0,0,0,0,0,0,-1,2022,1240,0,0
805,-216,0,0,0,0,0,0,0,0,0,-1,2029,1240,0,0
812,-216,0,0,0,0,0,0,0,0,0,-1,2036,1240,0,0
-700,-223,0,0,0,0,0,0,0,0,0,-1,524,1247,0,0
-693,-223,0,0,0,0,0,0,0,0,0,-1,531,1247,0,0
-686,-223,0,0,0,0,0,0,0,0,0,-1,538,1247,0,0
-679,-223,0,0,0,0,0,0,0,0,0,-1,545,1247,0,0
-672,-223,-66.0346,3.11548,0.362482,0.186114,0.243065,0.532865,0.0157302,0.611382,0.350118,0.0460427,552,1247,-66.0346,-3.11552
-665,-223,-64.0319,5.19934,0.301129,0.148625,0.204093,0.442749,0.00700469,0.606621,0.292859,0.0476444,559,1247,-64.0319,-5.19937
-658,-223,-61.9559,7.7594,0,0,0,0,0,0,0,-1,566,1247,-61.9559,-7.75934
-651,-223,-40.2339,-7.32275,0,0,0,0,0,0,0,-1,573,1247,-40.234,7.32277
-644,-223,-45.9081,3.8446,0,0,0,0,0,0,0,-1,580,1247,-45.9081,-3.84463
-637,-223,-49.2922,0.294189,0,0,0,0,0,0,0,-1,587,1247,-49.2922,-0.294245
-630,-223,-44.4318,5.99622,0,0,0,0,0,0,0,-1,594,1247,-44.4318,-5.99622
-623,-223,-44.5266,7.20679,0.0441159,0.0171823,0.030158,0.0636773,-0.00237911,0.575411,0.0432664,0.04776,601,1247,-44.5266,-7.20675
-616,-223,-44.4443,7.81348,0.0197741,0.00574225,0.0128361,0.0273865,-0.00187017,0.535293,0.0189119,0.0175761,608,1247,-44.4443,-7.81343
-609,-223,-44.4766,8.62756,0.00587421,0.000748387,0.00196285,0.0065395,8.3098e-05,0.326789,0.00433223,0.0125116,615,1247,-44.4766,-8.62759
-602,-223,-44.5287,9.39734,0.00179928,0.00073044,-0.00193281,0.00327019,-0.000740475,-0.650519,0.00246432,0.0153027,622,1247,-44.5287,-9.3973
-595,-223,-44.5507,10.218,-0.000153469,0.000811919,-0.0041694,0.00452647,-0.00386802,-0.843027,0.00485153,0.0208665,629,1247,-44.5507,-10.2181
-588,-223,-44.5461,11.0028,-0.000993851,0.00111045,-0.0050413,0.00520822,-0.00509162,-0.888275,0.00594674,0.0437536,636,1247,-44.5462,-11.0028
-581,-223,-44.5292,11.6816,0,0,0,0,0,0,0,-1,643,1247,-44.5292,-11.6816
-574,-223,-44.9298,12.2598,0,0,0,0,0,0,0,-1,650,1247,-44.9298,-12.2598
-567,-223,-45.3238,13.2701,0,0,0,0,0,0,0,-1,657,1247,-45.3238,-13.2702
-560,-223,-31.8748,9.50732,0,0,0,0,0,0,0,-1,664,1247,-31.8748,-9.50735
-553,-223,-11.4025,4.14722,0,0,0,0,0,0,0,-1,671,1247,-11.4025,-4.14719
-546,-223,-26.9034,-0.148682,0,0,0,0,0,0,0,-1,678,1247,-26.9034,0.14867
-539,-223,-36.7405,0.35376,0,0,0,0,0,0,0,-1,685,1247,-36.7405,-0.353807
-532,-223,-47.6184,1.39844,0,0,0,0,0,0,0,-1,692,1247,-47.6184,-1.3984
-525,-223,-62.6662,0.432373,0,0,0,0,0,0,0,-1,699,1247,-62.6662,-0.432373
-518,-223,-62.848,0.446411,0,0,0,0,0,0,0,-1,706,1247,-62.848,-0.446437
-511,-223,-62.8575,0.362671,-0.00441916,-0.00312215,-0.00142931,-0.0022011,-0.0053402,-0.998368,0.00309898,0.0394053,713,1247,-62.8575,-0.362622
-504,-223,-62.879,0.397949,-0.00358912,0.000849121,3.32283e-05,0.00084937,-0.00358937,1.56331,0.00272059,0.0425428,720,1247,-62.879,-0.397942
-497,-223,0,0,0,0,0,0,0,0,0,-1,727,1247,0,0
-490,-223,0,0,0,0,0,0,0,0,0,-1,734,1247,0,0
-483,-223,0,0,0,0,0,0,0,0,0,-1,741,1247,0,0
-476,-223,0,0,0,0,0,0,0,0,0,-1,748,1247,0,0
-469,-223,0,0,0,0,0,0,0,0,0,-1,755,1247,0,0
-462,-223,0,0,0,0,0,0,0,0,0,-1,762,1247,0,0
-455,-223,0,0,0,0,0,0,0,0,0,-1,769,1247,0,0
-448,-223,0,0,0,0,0,0,0,0,0,-1,776,1247,0,0
-441,-223,0,0,0,0,0,0,0,0,0,-1,783,1247,0,0
-434,-223,0,0,0,0,0,0,0,0,0,-1,790,1247,0,0
-427,-223,0,0,0,0,0,0,0,0,0,-1,797,1247,0,0
-420,-223,0,0,0,0,0,0,0,0,0,-1,804,1247,0,0
-413,-223,0,0,0,0,0,0,0,0,0,-1,811,1247,0,0
-406,-223,0,0,0,0,0,0,0,0,0,-1,818,1247,0,0
-399,-223,0,0,0,0,0,0,0,0,0,-1,825,1247,0,0
-392,-223,0,0,0,0,0,0,0,0,0,-1,832,1247,0,0
-385,-223,0,0,0,0,0,0,0,0,0,-1,839,1247,0,0
-378,-223,0,0,0,0,0,0,0,0,0,-1,846,1247,0,0
-371,-223,0,0,0,0,0,0,0,0,0,-1,853,1247,0,0
-364,-223,0,0,0,0,0,0,0,0,0,-1,860,1247,0,0
-357,-223,0,0,0,0,0,0,0,0,0,-1,867,1247,0,0
-350,-223,0,0,0,0,0,0,0,0,0,-1,874,1247,0,0
-343,-223,0,0,0,0,0,0,0,0,0,-1,881,1247,0,0
-336,-223,0,0,0,0,0,0,0,0,0,-1,888,1247,0,0
-329,-223,0,0,0,0,0,0,0,0,0,-1,895,1247,0,0
-322,-223,0,0,0,0,0,0,0,0,0,-1,902,1247,0,0
-315,-223,0,0,0,0,0,0,0,0,0,-1,909,1247,0,0
-308,-223,0,0,0,0,0,0,0,0,0,-1,916,1247,0,0
-301,-223,0,0,0,0,0,0,0,0,0,-1,923,1247,0,0
-294,-223,0,0,0,0,0,0,0,0,0,-1,930,1247,0,0
-287,-223,0,0,0,0,0,0,0,0,0,-1,937,1247,0,0
-280,-223,0,0,0,0,0,0,0,0,0,-1,944,1247,0,0
-273,-223,0,0,0,0,0,0,0,0,0,-1,951,1247,0,0
-266,-223,0,0,0,0,0,0,0,0,0,-1,958,1247,0,0
-259,-223,0,0,0,0,0,0,0,0,0,-1,965,1247,0,0
-252,-223,0,0,0,0,0,0,0,0,0,-1,972,1247,0,0
-245,-223,0,0,0,0,0,0,0,0,0,-1,979,1247,0,0
-238,-223,0,0,0,0,0,0,0,0,0,-1,986,1247,0,0
-231,-223,0,0,0,0,0,0,0,0,0,-1,993,1247,0,0
-224,-223,0,0,0,0,0,0,0,0,0,-1,1000,1247,0,0
-217,-223,0,0,0,0,0,0,0,0,0,-1,1007,1247,0,0
-210,-223,0,0,0,0,0,0,0,0,0,-1,1014,1247,0,0
-203,-223,0,0,0,0,0,0,0,0,0,-1,1021,1247,0,0
-196,-223,0,0,0,0,0,0,0,0,0,-1,1028,1247,0,0
-189,-223,0,0,0,0,0,0,0,0,0,-1,1035,1247,0,0
-182,-223,0,0,0,0,0,0,0,0,0,-1,1042,1247,0,0
-175,-223,0,0,0,0,0,0,0,0,0,-1,1049,1247,0,0
-168,-223,0,0,0,0,0,0,0,0,0,-1,1056,1247,0,0
-161,-223,0,0,0,0,0,0,0,0,0,-1,1063,1247,0,0
-154,-223,0,0,0,0,0,0,0,0,0,-1,1070,1247,0,0
-147,-223,0,0,0,0,0,0,0,0,0,-1,1077,1247,0,0
-140,-223,0,0,0,0,0,0,0,0,0,-1,1084,1247,0,0
-133,-223,0,0,0,0,0,0,0,0,0,-1,1091,1247,0,0
-126,-223,0,0,0,0,0,0,0,0,0,-1,1098,1247,0,0
-119,-223,0,0,0,0,0,0,0,0,0,-1,1105,1247,0,0
-112,-223,0,0,0,0,0,0,0,0,0,-1,1112,1247,0,0
-105,-223,0,0,0,0,0,0,0,0,0,-1,1119,1247,0,0
-98,-223,0,0,0,0,0,0,0,0,0,-1,1126,1247,0,0
-91,-223,0,0,0,0,0,0,0,0,0,-1,1133,1247,0,0
-84,-223,0,0,0,0,0,0,0,0,0,-1,1140,1247,0,0
-77,-223,0,0,0,0,0,0,0,0,0,-1,1147,1247,0,0
-70,-223,0,0,0,0,0,0,0,0,0,-1,1154,1247,0,0
-63,-223,0,0,0,0,0,0,0,0,0,-1,1161,1247,0,0
-56,-223,0,0,0,0,0,0,0,0,0,-1,1168,1247,0,0
-49,-223,0,0,0,0,0,0,0,0,0,-1,1175,1247,0,0
-42,-223,0,0,0,0,0,0,0,0,0,-1,1182,1247,0,0
-35,-223,0,0,0,0,0,0,0,0,0,-1,1189,1247,0,0
-28,-223,0,0,0,0,0,0,0,0,0,-1,1196,1247,0,0
-21,-223,0,0,0,0,0,0,0,0,0,-1,1203,1247,0,0
-14,-223,0,0,0,0,0,0,0,0,0,-1,1210,1247,0,0
-7,-223,0,0,0,0,0,0,0,0,0,-1,1217,1247,0,0
0,-223,0,0,0,0,0,0,0,0,0,-1,1224,1247,0,0
7,-223,0,0,0,0,0,0,0,0,0,-1,1231,1247,0,0
14,-223,0,0,0,0,0,0,0,0,0,-1,1238,1247,0,0
21,-223,0,0,0,0,0,0,0,0,0,-1,1245,1247,0,0
28,-223,0,0,0,0,0,0,0,0,0,-1,1252,1247,0,0
35,-223,0,0,0,0,0,0,0,0,0,-1,1259,1247,0,0
42,-223,0,0,0,0,0,0,0,0,0,-1,1266,1247,0,0
49,-223,0,0,0,0,0,0,0,0,0,-1,1273,1247,0,0
56,-223,0,0,0,0,0,0,0,0,0,-1,1280,1247,0,0
63,-223,0,0,0,0,0,0,0,0,0,-1,1287,1247,0,0
70,-223,0,0,0,0,0,0,0,0,0,-1,1294,1247,0,0
77,-223,0,0,0,0,0,0,0,0,0,-1,1301,1247,0,0
84,-223,0,0,0,0,0,0,0,0,0,-1,1308,1247,0,0
91,-223,0,0,0,0,0,0,0,0,0,-1,1315,1247,0,0
98,-223,0,0,0,0,0,0,0,0,0,-1,1322,1247,0,0
105,-223,0,0,0,0,0,0,0,0,0,-1,1329,1247,0,0
112,-223,0,0,0,0,0,0,0,0,0,-1,1336,1247,0,0
119,-223,0,0,0,0,0,0,0,0,0,-1,1343,1247,0,0
126,-223,0,0,0,0,0,0,0,0,0,-1,1350,1247,0,0
133,-223,0,0,0,0,0,0,0,0,0,-1,1357,1247,0,0
140,-223,0,0,0,0,0,0,0,0,0,-1,1364,1247,0,0
147,-223,0,0,0,0,0,0,0,0,0,-1,1371,1247,0,0
154,-223,0,0,0,0,0,0,0,0,0,-1,1378,1247,0,0
161,-223,0,0,0,0,0,0,0,0,0,-1,1385,1247,0,0
168,-223,0,0,0,0,0,0,0,0,0,-1,1392,1247,0,0
175,-223,0,0,0,0,0,0,0,0,0,-1,1399,1247,0,0
182,-223,0,0,0,0,0,0,0,0,0,-1,1406,1247,0,0
189,-223,0,0,0,0,0,0,0,0,0,-1,1413,1247,0,0
196,-223,0,0,0,0,0,0,0,0,0,-1,1420,1247,0,0
203,-223,0,0,0,0,0,0,0,0,0,-1,1427,1247,0,0
210,-223,0,0,0,0,0,0,0,0,0,-1,1434,1247,0,0
217,-223,0,0,0,0,0,0,0,0,0,-1,1441,1247,0,0
224,-223,0,0,0,0,0,0,0,0,0,-1,1448,1247,0,0
231,-223,0,0,0,0,0,0,0,0,0,-1,1455,1247,0,0
238,-223,0,0,0,0,0,0,0,0,0,-1,1462,1247,0,0
245,-223,0,0,0,0,0,0,0,0,0,-1,1469,1247,0,0
252,-223,0,0,0,0,0,0,0,0,0,-1,1476,1247,0,0
259,-223,0,0,0,0,0,0,0,0,0,-1,1483,1247,0,0
266,-223,0,0,0,0,0,0,0,0,0,-1,1490,1247,0,0
273,-223,0,0,0,0,0,0,0,0,0,-1,1497,1247,0,0
280,-223,0,0,0,0,0,0,0,0,0,-1,1504,1247,0,0
287,-223,0,0,0,0,0,0,0,0,0,-1,1511,1247,0,0
294,-223,0,0,0,0,0,0,0,0,0,-1,1518,1247,0,0
301,-223,0,0,0,0,0,0,0,0,0,-1,1525,1247,0,0
308,-223,0,0,0,0,0,0,0,0,0,-1,1532,1247,0,0
315,-223,0,0,0,0,0,0,0,0,0,-1,1539,1247,0,0
322,-223,0,0,0,0,0,0,0,0,0,-1,1546,1247,0,0
329,-223,0,0,0,0,0,0,0,0,0,-1,1553,1247,0,0
336,-223,0,0,0,0,0,0,0,0,0,-1,1560,1247,0,0
343,-223,0,0,0,0,0,0,0,0,0,-1,1567,1247,0,0
350,-223,0,0,0,0,0,0,0,0,0,-1,1574,1247,0,0
357,-223,0,0,0,0,0,0,0,0,0,-1,1581,1247,0,0
364,-223,0,0,0,0,0,0,0,0,0,-1,1588,1247,0,0
371,-223,0,0,0,0,0,0,0,0,0,-1,1595,1247,0,0
378,-223,0,0,0,0,0,0,0,0,0,-1,1602,1247,0,0
385,-223,0,0,0,0,0,0,0,0,0,-1,1609,1247,0,0
392,-223,0,0,0,0,0,0,0,0,0,-1,1616,1247,0,0
399,-223,0,0,0,0,0,0,0,0,0,-1,1623,1247,0,0
406,-223,0,0,0,0,0,0,0,0,0,-1,1630,1247,0,0
413,-223,0,0,0,0,0,0,0,0,0,-1,1637,1247,0,0
420,-223,0,0,0,0,0,0,0,0,0,-1,1644,1247,0,0
427,-223,0,0,0,0,0,0,0,0,0,-1,1651,1247,0,0
434,-223,0,0,0,0,0,0,0,0,0,-1,1658,1247,0,0
441,-223,0,0,0,0,0,0,0,0,0,-1,1665,1247,0,0
448,-223,0,0,0,0,0,0,0,0,0,-1,1672,1247,0,0
455,-223,0,0,0,0,0,0,0,0,0,-1,1679,1247,0,0
462,-223,0,0,0,0,0,0,0,0,0,-1,1686,1247,0,0
469,-223,0,0,0,0,0,0,0,0,0,-1,1693,1247,0,0
476,-223,0,0,0,0,0,0,0,0,0,-1,1700,1247,0,0
483,-223,0,0,0,0,0,0,0,0,0,-1,1707,1247,0,0
490,-223,0,0,0,0,0,0,0,0,0,-1,1714,1247,0,0
497,-223,0,0,0,0,0,0,0,0,0,-1,1721,1247,0,0
504,-223,0,0,0,0,0,0,0,0,0,-1,1728,1247,0,0
511,-223,0,0,0,0,0,0,0,0,0,-1,1735,1247,0,0
518,-223,0,0,0,0,0,0,0,0,0,-1,1742,1247,0,0
525,-223,0,0,0,0,0,0,0,0,0,-1,1749,1247,0,0
532,-223,0,0,0,0,0,0,0,0,0,-1,1756,1247,0,0
539,-223,0,0,0,0,0,0,0,0,0,-1,1763,1247,0,0
546,-223,0,0,0,0,0,0,0,0,0,-1,1770,1247,0,0
553,-223,0,0,0,0,0,0,0,0,0,-1,1777,1247,0,0
560,-223,0,0,0,0,0,0,0,0,0,-1,1784,1247,0,0
567,-223,0,0,0,0,0,0,0,0,0,-1,1791,1247,0,0
574,-223,0,0,0,0,0,0,0,0,0,-1,1798,1247,0,0
581,-223,0,0,0,0,0,0,0,0,0,-1,1805,1247,0,0
588,-223,0,0,0,0,0,0,0,0,0,-1,1812,1247,0,0
595,-223,0,0,0,0,0,0,0,0,0,-1,1819,1247,0,0
602,-223,0,0,0,0,0,0,0,0,0,-1,1826,1247,0,0
609,-223,0,0,0,0,0,0,0,0,0,-1,1833,1247,0,0
616,-223,0,0,0,0,0,0,0,0,0,-1,1840,1247,0,0
623,-223,79.8711,2.42371,0.000981542,0.00100452,0.000886039,0.00187915,0.000106919,0.791882,0.00121869,0.0412922,1847,1247,79.8711,-2.42368
630,-223,79.8779,2.34509,-3.932e-05,0.00100434,0.000763168,0.00140703,-0.000442006,1.08527,0.00111495,0.0402026,1854,1247,79.878,-2.34511
637,-223,79.9032,2.24963,-0.000974986,0.00094621,0.0004877,0.00106292,-0.0010917,1.3359,0.00124401,0.0326875,1861,1247,79.9032,-2.24962
644,-223,79.8986,2.23352,-0.00121947,0.000690432,4.34706e-05,0.000691421,-0.00122046,1.54805,0.00111783,0.025269,1868,1247,79.8985,-2.23357
651,-223,79.865,2.1355,-0.00118365,0.000350614,-0.000121077,0.00036011,-0.00119315,-1.49253,0.000938781,0.0298931,1875,1247,79.865,-2.13546
658,-223,79.89,2.0658,0,0,0,0,0,0,0,-1,1882,1247,79.8901,-2.06583
665,-223,68.7177,1.6427,0,0,0,0,0,0,0,-1,1889,1247,68.7176,-1.64275
672,-223,56.4625,2.72424,0,0,0,0,0,0,0,-1,1896,1247,56.4626,-2.72418
679,-223,43.2783,2.46973,0,0,0,0,0,0,0,-1,1903,1247,43.2784,-2.46978
686,-223,40.7926,10.0316,0,0,0,0,0,0,0,-1,1910,1247,40.7926,-10.0316
693,-223,61.6852,14.5868,0,0,0,0,0,0,0,-1,1917,1247,61.6852,-14.5868
700,-223,61.373,13.8239,0,0,0,0,0,0,0,-1,1924,1247,61.373,-13.8239
707,-223,61.4922,12.7523,0,0,0,0,0,0,0,-1,1931,1247,61.4922,-12.7524
714,-223,61.2935,12.089,-0.000683741,0.00160275,0.00129124,0.00218412,-0.00126511,1.14774,0.00201484,0.028715,1938,1247,61.2934,-12.089
721,-223,61.1738,11.3859,-0.000895847,0.00145484,0.00164451,0.00230085,-0.00174185,1.09566,0.00234148,0.0155559,1945,1247,61.1738,-11.3858
728,-223,61.1323,10.6078,-0.00131319,0.00107481,0.00205437,0.00225696,-0.00249534,1.04864,0.00274489,0.0195428,1952,1247,61.1324,-10.6078
735,-223,61.1146,9.8728,-0.00200262,0.000611442,0.00258902,0.00220465,-0.00359583,1.01915,0.00338086,0.0202408,1959,1247,61.1146,-9.87281
742,-223,61.0313,9.09021,-0.00287253,8.60901e-05,0.0033921,0.00230742,-0.00509385,0.991017,0.00437291,0.0183697,1966,1247,61.0312,-9.09025
749,-223,60.9694,8.24207,-0.00379999,-0.000476261,0.00447084,0.00263159,-0.00690784,0.963341,0.00568906,0.0136322,1973,1247,60.9694,-8.24209
756,-223,60.8915,7.45642,-0.00483254,-0.00108292,0.0059298,0.00326139,-0.00917685,0.93851,0.00744701,0.0155981,1980,1247,60.8915,-7.45637
763,-223,60.855,6.76758,-0.00611207,-0.00167213,0.00812031,0.0045262,-0.0123104,0.91883,0.010061,0.0223058,1987,1247,60.855,-6.76755
770,-223,61.0896,6.02686,0,0,0,0,0,0,0,-1,1994,1247,61.0897,-6.02691
777,-223,53.7227,4.88562,0,0,0,0,0,0,0,-1,2001,1247,53.7227,-4.8856
784,-223,68.8677,0.507813,0,0,0,0,0,0,0,-1,2008,1247,68.8676,-0.507816
791,-223,34.7136,2.92554,0,0,0,0,0,0,0,-1,2015,1247,34.7137,-2.92555
798,-223,0,0,0,0,0,0,0,0,0,-1,2022,1247,0,0
805,-223,0,0,0,0,0,0,0,0,0,-1,2029,1247,0,0
812,-223,0,0,0,0,0,0,0,0,0,-1,2036,1247,0,0
-700,-230,0,0,0,0,0,0,0,0,0,-1,524,1254,0,0
-693,-230,0,0,0,0,0,0,0,0,0,-1,531,1254,0,0
-686,-230,0,0,0,0,0,0,0,0,0,-1,538,1254,0,0
-679,-230,0,0,0,0,0,0,0,0,0,-1,545,1254,0,0
-672,-230,-66.8678,2.11389,0,0,0,0,0,0,0,-1,552,1254,-66.8678,-2.11385
-665,-230,-64.7561,3.9519,0,0,0,0,0,0,0,-1,559,1254,-64.7561,-3.95185
-658,-230,-62.6445,5.78979,0,0,0,0,0,0,0,-1,566,1254,-62.6445,-5.78985
-651,-230,-39.3627,-7.38525,0,0,0,0,0,0,0,-1,573,1254,-39.3627,7.38529
-644,-230,-48.2715,0.872925,0,0,0,0,0,0,0,-1,580,1254,-48.2715,-0.87288
-637,-230,-49.1636,-0.158325,0,0,0,0,0,0,0,-1,587,1254,-49.1636,0.158288
-630,-230,-41.3331,5.24744,0,0,0,0,0,0,0,-1,594,1254,-41.3331,-5.24744
-623,-230,-43.6256,6.9668,0,0,0,0,0,0,0,-1,601,1254,-43.6256,-6.96674
-616,-230,-43.5975,7.82471,0.0203726,0.00550429,0.0129408,0.0278626,-0.00198572,0.524678,0.0192711,0.0198259,608,1254,-43.5975,-7.82472
-609,-230,-43.6136,8.65527,0.0057545,0.000146682,0.0019102,0.00634334,-0.000442159,0.29902,0.00438372,0.0126801,615,1254,-43.6136,-8.65522
-602,-230,-43.6654,9.47266,0.00177076,0.000224846,-0.0015243,0.00270689,-0.000711278,-0.550746,0.00208257,0.0126827,622,1254,-43.6654,-9.4726
-595,-230,-43.7277,10.3192,-0.000440979,0.000340713,-0.00360063,0.00357165,-0.00367192,-0.839461,0.00418221,0.0195303,629,1254,-43.7277,-10.3192
-588,-230,-43.8229,11.1748,-0.00161728,0.000665197,-0.0045703,0.00423459,-0.00518668,-0.90775,0.00544862,0.0315375,636,1254,-43.8229,-11.1748
-581,-230,-43.9286,12.0577,0,0,0,0,0,0,0,-1,643,1254,-43.9286,-12.0578
-574,-230,-43.9224,13.0364,-0.00330411,-1.86795e-05,-0.0053525,0.00393751,-0.0072603,-0.934288,0.00655925,0.0479542,650,1254,-43.9224,-13.0363
-567,-230,-44.0591,13.5017,-0.00415511,-0.000489405,-0.00472426,0.00274509,-0.0073896,-0.970443,0.00605261,0.0457426,657,1254,-44.0591,-13.5017
-560,-230,-44.4752,13.8464,0,0,0,0,0,0,0,-1,664,1254,-44.4751,-13.8464
-553,-230,-13.1939,4.9718,0,0,0,0,0,0,0,-1,671,1254,-13.1939,-4.97175
-546,-230,-15.23,0.453979,0,0,0,0,0,0,0,-1,678,1254,-15.23,-0.453996
-539,-230,-25.8232,0.512817,0,0,0,0,0,0,0,-1,685,1254,-25.8232,-0.512878
-532,-230,-21.1644,1.52966,0,0,0,0,0,0,0,-1,692,1254,-21.1644,-1.52969
-525,-230,-29.4775,0.731445,0,0,0,0,0,0,0,-1,699,1254,-29.4775,-0.731432
-518,-230,-62.6876,0.390503,0,0,0,0,0,0,0,-1,706,1254,-62.6876,-0.390451
-511,-230,-62.8171,0.363037,-0.00464161,-0.00536094,-0.00187291,-0.00309414,-0.00690841,-0.690535,0.00399579,0.0441465,713,1254,-62.8171,-0.362984
-504,-230,-62.842,0.326294,-0.00363175,-0.00402495,-0.000810584,-0.00299427,-0.00466244,-0.666424,0.00272791,0.0395965,720,1254,-62.8421,-0.326301
-497,-230,0,0,0,0,0,0,0,0,0,-1,727,1254,0,0
-490,-230,0,0,0,0,0,0,0,0,0,-1,734,1254,0,0
-483,-230,0,0,0,0,0,0,0,0,0,-1,741,1254,0,0
-476,-230,0,0,0,0,0,0,0,0,0,-1,748,1254,0,0
-469,-230,0,0,0,0,0,0,0,0,0,-1,755,1254,0,0
-462,-230,0,0,0,0,0,0,0,0,0,-1,762,1254,0,0
-455,-230,0,0,0,0,0,0,0,0,0,-1,769,1254,0,0
-448,-230,0,0,0,0,0,0,0,0,0,-1,776,1254,0,0
-441,-230,0,0,0,0,0,0,0,0,0,-1,783,1254,0,0
-434,-230,0,0,0,0,0,0,0,0,0,-1,790,1254,0,0
-427,-230,0,0,0,0,0,0,0,0,0,-1,797,1254,0,0
-420,-230,0,0,0,0,0,0,0,0,0,-1,804,1254,0,0
-413,-230,0,0,0,0,0,0,0,0,0,-1,811,1254,0,0
-406,-230,0,0,0,0,0,0,0,0,0,-1,818,1254,0,0
-399,-230,0,0,0,0,0,0,0,0,0,-1,825,1254,0,0
-392,-230,0,0,0,0,0,0,0,0,0,-1,832,1254,0,0
-385,-230,0,0,0,0,0,0,0,0,0,-1,839,1254,0,0
-378,-230,0,0,0,0,0,0,0,0,0,-1,846,1254,0,0
-371,-230,0,0,0,0,0,0,0,0,0,-1,853,1254,0,0
-364,-230,0,0,0,0,0,0,0,0,0,-1,860,1254,0,0
-357,-230,0,0,0,0,0,0,0,0,0,-1,867,1254,0,0
-350,-230,0,0,0,0,0,0,0,0,0,-1,874,1254,0,0
-343,-230,0,0,0,0,0,0,0,0,0,-1,881,1254,0,0
-336,-230,0,0,0,0,0,0,0,0,0,-1,888,1254,0,0
-329,-230,0,0,0,0,0,0,0,0,0,-1,895,1254,0,0
-322,-230,0,0,0,0,0,0,0,0,0,-1,902,1254,0,0
-315,-230,0,0,0,0,0,0,0,0,0,-1,909,1254,0,0
-308,-230,0,0,0,0,0,0,0,0,0,-1,916,1254,0,0
-301,-230,0,0,0,0,0,0,0,0,0,-1,923,1254,0,0
-294,-230,0,0,0,0,0,0,0,0,0,-1,930,1254,0,0
-287,-230,0,0,0,0,0,0,0,0,0,-1,937,1254,0,0
-280,-230,0,0,0,0,0,0,0,0,0,-1,944,1254,0,0
-273,-230,0,0,0,0,0,0,0,0,0,-1,951,1254,0,0
-266,-230,0,0,0,0,0,0,0,0,0,-1,958,1254,0,0
-259,-230,0,0,0,0,0,0,0,0,0,-1,965,1254,0,0
-252,-230,0,0,0,0,0,0,0,0,0,-1,972,1254,0,0
-245,-230,0,0,0,0,0,0,0,0,0,-1,979,1254,0,0
-238,-230,0,0,0,0,0,0,0,0,0,-1,986,1254,0,0
-231,-230,0,0,0,0,0,0,0,0,0,-1,993,1254,0,0
-224,-230,0,0,0,0,0,0,0,0,0,-1,1000,1254,0,0
-217,-230,0,0,0,0,0,0,0,0,0,-1,1007,1254,0,0
-210,-230,0,0,0,0,0,0,0,0,0,-1,1014,1254,0,0
-203,-230,0,0,0,0,0,0,0,0,0,-1,1021,1254,0,0
-196,-230,0,0,0,0,0,0,0,0,0,-1,1028,1254,0,0
-189,-230,0,0,0,0,0,0,0,0,0,-1,1035,1254,0,0
-182,-230,0,0,0,0,0,0,0,0,0,-1,1042,1254,0,0
-175,-230,0,0,0,0,0,0,0,0,0,-1,1049,1254,0,0
-168,-230,0,0,0,0,0,0,0,0,0,-1,1056,1254,0,0
-161,-230,0,0,0,0,0,0,0,0,0,-1,1063,1254,0,0
-154,-230,0,0,0,0,0,0,0,0,0,-1,1070,1254,0,0
-147,-230,0,0,0,0,0,0,0,0,0,-1,1077,1254,0,0
-140,-230,0,0,0,0,0,0,0,0,0,-1,1084,1254,0,0
-133,-230,0,0,0,0,0,0,0,0,0,-1,1091,1254,0,0
-126,-230,0,0,0,0,0,0,0,0,0,-1,1098,1254,0,0
-119,-230,0,0,0,0,0,0,0,0,0,-1,1105,1254,0,0
-112,-230,0,0,0,0,0,0,0,0,0,-1,1112,1254,0,0
-105,-230,0,0,0,0,0,0,0,0,0,-1,1119,1254,0,0
-98,-230,0,0,0,0,0,0,0,0,0,-1,1126,1254,0,0
-91,-230,0,0,0,0,0,0,0,0,0,-1,1133,1254,0,0
-84,-230,0,0,0,0,0,0,0,0,0,-1,1140,1254,0,0
-77,-230,0,0,0,0,0,0,0,0,0,-1,1147,1254,0,0
-70,-230,0,0,0,0,0,0,0,0,0,-1,1154,1254,0,0
-63,-230,0,0,0,0,0,0,0,0,0,-1,1161,1254,0,0
-56,-230,0,0,0,0,0,0,0,0,0,-1,1168,1254,0,0
-49,-230,0,0,0,0,0,0,0,0,0,-1,1175,1254,0,0
-42,-230,0,0,0,0,0,0,0,0,0,-1,1182,1254,0,0
-35,-230,0,0,0,0,0,0,0,0,0,-1,1189,1254,0,0
-28,-230,0,0,0,0,0,0,0,0,0,-1,1196,1254,0,0
-21,-230,0,0,0,0,0,0,0,0,0,-1,1203,1254,0,0
-14,-230,0,0,0,0,0,0,0,0,0,-1,1210,1254,0,0
-7,-230,0,0,0,0,0,0,0,0,0,-1,1217,1254,0,0
0,-230,0,0,0,0,0,0,0,0,0,-1,1224,1254,0,0
7,-230,0,0,0,0,0,0,0,0,0,-1,1231,1254,0,0
14,-230,0,0,0,0,0,0,0,0,0,-1,1238,1254,0,0
21,-230,0,0,0,0,0,0,0,0,0,-1,1245,1254,0,0
28,-230,0,0,0,0,0,0,0,0,0,-1,1252,1254,0,0
35,-230,0,0,0,0,0,0,0,0,0,-1,1259,1254,0,0
42,-230,0,0,0,0,0,0,0,0,0,-1,1266,1254,0,0
49,-230,0,0,0,0,0,0,0,0,0,-1,1273,1254,0,0
56,-230,0,0,0,0,0,0,0,0,0,-1,1280,1254,0,0
63,-230,0,0,0,0,0,0,0,0,0,-1,1287,1254,0,0
70,-230,0,0,0,0,0,0,0,0,0,-1,1294,1254,0,0
77,-230,0,0,0,0,0,0,0,0,0,-1,1301,1254,0,0
84,-230,0,0,0,0,0,0,0,0,0,-1,1308,1254,0,0
91,-230,0,0,0,0,0,0,0,0,0,-1,1315,1254,0,0
98,-230,0,0,0,0,0,0,0,0,0,-1,1322,1254,0,0
105,-230,0,0,0,0,0,0,0,0,0,-1,1329,1254,0,0
112,-230,0,0,0,0,0,0,0,0,0,-1,1336,1254,0,0
119,-230,0,0,0,0,0,0,0,0,0,-1,1343,1254,0,0
126,-230,0,0,0,0,0,0,0,0,0,-1,1350,1254,0,0
133,-230,0,0,0,0,0,0,0,0,0,-1,1357,1254,0,0
140,-230,0,0,0,0,0,0,0,0,0,-1,1364,1254,0,0
147,-230,0,0,0,0,0,0,0,0,0,-1,1371,1254,0,0
154,-230,0,0,0,0,0,0,0,0,0,-1,1378,1254,0,0
161,-230,0,0,0,0,0,0,0,0,0,-1,1385,1254,0,0
168,-230,0,0,0,0,0,0,0,0,0,-1,1392,1254,0,0
175,-230,0,0,0,0,0,0,0,0,0,-1,1399,1254,0,0
182,-230,0,0,0,0,0,0,0,0,0,-1,1406,1254,0,0
189,-230,0,0,0,0,0,0,0,0,0,-1,1413,1254,0,0
196,-230,0,0,0,0,0,0,0,0,0,-1,1420,1254,0,0
203,-230,0,0,0,0,0,0,0,0,0,-1,1427,1254,0,0
210,-230,0,0,0,0,0,0,0,0,0,-1,1434,1254,0,0
217,-230,0,0,0,0,0,0,0,0,0,-1,1441,1254,0,0
224,-230,0,0,0,0,0,0,0,0,0,-1,1448,1254,0,0
231,-230,0,0,0,0,0,0,0,0,0,-1,1455,1254,0,0
238,-230,0,0,0,0,0,0,0,0,0,-1,1462,1254,0,0
245,-230,0,0,0,0,0,0,0,0,0,-1,1469,1254,0,0
252,-230,0,0,0,0,0,0,0,0,0,-1,1476,1254,0,0
259,-230,0,0,0,0,0,0,0,0,0,-1,1483,1254,0,0
266,-230,0,0,0,0,0,0,0,0,0,-1,1490,1254,0,0
273,-230,0,0,0,0,0,0,0,0,0,-1,1497,1254,0,0
280,-230,0,0,0,0,0,0,0,0,0,-1,1504,1254,0,0
287,-230,0,0,0,0,0,0,0,0,0,-1,1511,1254,0,0
294,-230,0,0,0,0,0,0,0,0,0,-1,1518,1254,0,0
301,-230,0,0,0,0,0,0,0,0,0,-1,1525,1254,0,0
308,-230,0,0,0,0,0,0,0,0,0,-1,1532,1254,0,0
315,-230,0,0,0,0,0,0,0,0,0,-1,1539,1254,0,0
322,-230,0,0,0,0,0,0,0,0,0,-1,1546,1254,0,0
329,-230,0,0,0,0,0,0,0,0,0,-1,1553,1254,0,0
336,-230,0,0,0,0,0,0,0,0,0,-1,1560,1254,0,0
343,-230,0,0,0,0,0,0,0,0,0,-1,1567,1254,0,0
350,-230,0,0,0,0,0,0,0,0,0,-1,1574,1254,0,0
357,-230,0,0,0,0,0,0,0,0,0,-1,1581,1254,0,0
364,-230,0,0,0,0,0,0,0,0,0,-1,1588,1254,0,0
371,-230,0,0,0,0,0,0,0,0,0,-1,1595,1254,0,0
378,-230,0,0,0,0,0,0,0,0,0,-1,1602,1254,0,0
385,-230,0,0,0,0,0,0,0,0,0,-1,1609,1254,0,0
392,-230,0,0,0,0,0,0,0,0,0,-1,1616,1254,0,0
399,-230,0,0,0,0,0,0,0,0,0,-1,1623,1254,0,0
406,-230,0,0,0,0,0,0,0,0,0,-1,1630,1254,0,0
413,-230,0,0,0,0,0,0,0,0,0,-1,1637,1254,0,0
420,-230,0,0,0,0,0,0,0,0,0,-1,1644,1254,0,0
427,-230,0,0,0,0,0,0,0,0,0,-1,1651,1254,0,0
434,-230,0,0,0,0,0,0,0,0,0,-1,1658,1254,0,0
441,-230,0,0,0,0,0,0,0,0,0,-1,1665,1254,0,0
448,-230,0,0,0,0,0,0,0,0,0,-1,1672,1254,0,0
455,-230,0,0,0,0,0,0,0,0,0,-1,1679,1254,0,0
462,-230,0,0,0,0,0,0,0,0,0,-1,1686,1254,0,0
469,-230,0,0,0,0,0,0,0,0,0,-1,1693,1254,0,0
476,-230,0,0,0,0,0,0,0,0,0,-1,1700,1254,0,0
483,-230,0,0,0,0,0,0,0,0,0,-1,1707,1254,0,0
490,-230,0,0,0,0,0,0,0,0,0,-1,1714,1254,0,0
497,-230,0,0,0,0,0,0,0,0,0,-1,1721,1254,0,0
504,-230,0,0,0,0,0,0,0,0,0,-1,1728,1254,0,0
511,-230,0,0,0,0,0,0,0,0,0,-1,1735,1254,0,0
518,-230,0,0,0,0,0,0,0,0,0,-1,1742,1254,0,0
525,-230,0,0,0,0,0,0,0,0,0,-1,1749,1254,0,0
532,-230,0,0,0,0,0,0,0,0,0,-1,1756,1254,0,0
539,-230,0,0,0,0,0,0,0,0,0,-1,1763,1254,0,0
546,-230,0,0,0,0,0,0,0,0,0,-1,1770,1254,0,0
553,-230,0,0,0,0,0,0,0,0,0,-1,1777,1254,0,0
560,-230,0,0,0,0,0,0,0,0,0,-1,1784,1254,0,0
567,-230,0,0,0,0,0,0,0,0,0,-1,1791,1254,0,0
574,-230,0,0,0,0,0,0,0,0,0,-1,1798,1254,0,0
581,-230,0,0,0,0,0,0,0,0,0,-1,1805,1254,0,0
588,-230,0,0,0,0,0,0,0,0,0,-1,1812,1254,0,0
595,-230,0,0,0,0,0,0,0,0,0,-1,1819,1254,0,0
602,-230,0,0,0,0,0,0,0,0,0,-1,1826,1254,0,0
609,-230,0,0,0,0,0,0,0,0,0,-1,1833,1254,0,0
616,-230,79.9402,2.18433,0.00131982,0.00221359,0.000809277,0.00269117,0.000842238,1.03767,0.00158957,0.03719,1840,1254,79.9401,-2.18433
623,-230,79.9628,2.25769,9.17491e-05,0.00228984,0.0011489,0.00278072,-0.00039913,1.16701,0.00200018,0.0384123,1847,1254,79.9628,-2.25767
630,-230,79.9302,2.29419,-0.00103056,0.00219784,0.00122209,0.00260827,-0.00144099,1.24679,0.00237,0.0347249,1854,1254,79.9302,-2.29414
637,-230,79.8815,2.26953,-0.00197405,0.00189093,0.00109235,0.00217829,-0.00226141,1.31356,0.00256341,0.0276608,1861,1254,79.8815,-2.26955
644,-230,79.8667,2.1427,-0.00176076,0.00119386,0.000645719,0.00132882,-0.00189571,1.36476,0.00187125,0.021791,1868,1254,79.8667,-2.14276
651,-230,79.9193,2.12683,-0.00147728,0.000533858,0.000489607,0.000646718,-0.00159014,1.34424,0.00132919,0.0456408,1875,1254,79.9194,-2.12682
658,-230,79.9994,2.13477,0,0,0,0,0,0,0,-1,1882,1254,79.9994,-2.13479
665,-230,56.2585,2.51587,0,0,0,0,0,0,0,-1,1889,1254,56.2586,-2.51586
672,-230,43.0962,2.78699,0,0,0,0,0,0,0,-1,1896,1254,43.0962,-2.78698
679,-230,27.9967,2.37708,0,0,0,0,0,0,0,-1,1903,1254,27.9967,-2.3771
686,-230,40.8854,10.1788,0,0,0,0,0,0,0,-1,1910,1254,40.8853,-10.1788
693,-230,60.9672,14.5253,0,0,0,0,0,0,0,-1,1917,1254,60.9671,-14.5252
700,-230,60.709,13.7504,0,0,0,0,0,0,0,-1,1924,1254,60.709,-13.7504
707,-230,60.443,13.0021,0,0,0,0,0,0,0,-1,1931,1254,60.443,-13.0021
714,-230,60.399,12.2316,-0.000740555,0.00105379,0.00144855,0.0018605,-0.00154726,1.06266,0.00197024,0.0249073,1938,1254,60.3991,-12.2316
721,-230,60.3693,11.441,-0.00123956,0.000833572,0.00190548,0.00196619,-0.00237217,1.03451,0.00250841,0.0141259,1945,1254,60.3692,-11.4411
728,-230,60.2976,10.6807,-0.00197919,0.000442058,0.00244009,0.00195533,-0.00349247,1.01568,0.00318675,0.0155635,1952,1254,60.2976,-10.6807
735,-230,60.2692,9.91089,-0.00292523,-2.6228e-05,0.00312654,0.00197047,-0.00492193,1.00246,0.00409914,0.0165378,1959,1254,60.2691,-9.9109
742,-230,60.2163,9.08655,-0.00399948,-0.000574304,0.00406551,0.0021246,-0.00669839,0.984742,0.00531722,0.0123468,1966,1254,60.2163,-9.08655
749,-230,60.183,8.24451,-0.00512384,-0.00120473,0.00527254,0.00246062,-0.00878919,0.963315,0.00682907,0.0111251,1973,1254,60.1829,-8.24454
756,-230,60.1185,7.49402,-0.00639263,-0.00193156,0.00689706,0.00308668,-0.0114109,0.941792,0.0088181,0.0167728,1980,1254,60.1185,-7.49397
763,-230,60.1187,6.71777,-0.00790955,-0.00266837,0.00924825,0.00432341,-0.0149013,0.923459,0.011646,0.0386532,1987,1254,60.1186,-6.71774
770,-230,60.4731,5.91699,0,0,0,0,0,0,0,-1,1994,1254,60.473,-5.91701
777,-230,41.8693,3.74707,0,0,0,0,0,0,0,-1,2001,1254,41.8692,-3.74713
784,-230,35.8896,1.80334,0,0,0,0,0,0,0,-1,2008,1254,35.8897,-1.80338
791,-230,35.6028,2.20642,0,0,0,0,0,0,0,-1,2015,1254,35.6027,-2.2064
798,-230,0,0,0,0,0,0,0,0,0,-1,2022,1254,0,0
805,-230,0,0,0,0,0,0,0,0,0,-1,2029,1254,0,0
812,-230,0,0,0,0,0,0,0,0,0,-1,2036,1254,0,0
-700,-237,0,0,0,0,0,0,0,0,0,-1,524,1261,0,0
-693,-237,0,0,0,0,0,0,0,0,0,-1,531,1261,0,0
-686,-237,0,0,0,0,0,0,0,0,0,-1,538,1261,0,0
-679,-237,0,0,0,0,0,0,0,0,0,-1,545,1261,0,0
-672,-237,-36.6405,-12.5112,0,0,0,0,0,0,0,-1,552,1261,-36.6405,12.5113
-665,-237,-65.7281,2.94849,0,0,0,0,0,0,0,-1,559,1261,-65.7281,-2.94852
-658,-237,-37.8344,-8.67175,0,0,0,0,0,0,0,-1,566,1261,-37.8344,8.67179
-651,-237,-46.9487,1.65137,0,0,0,0,0,0,0,-1,573,1261,-46.9487,-1.65142
-644,-237,-47.6604,0.785034,0,0,0,0,0,0,0,-1,580,1261,-47.6604,-0.785034
-637,-237,-33.4961,2.71313,0,0,0,0,0,0,0,-1,587,1261,-33.4961,-2.71312
-630,-237,-43.0931,6.04626,0,0,0,0,0,0,0,-1,594,1261,-43.0931,-6.04628
-623,-237,-42.733,6.88208,0.0478292,0.0191525,0.0313714,0.0679836,-0.00100188,0.571047,0.04566,0.0459163,601,1261,-42.733,-6.88204
-616,-237,-42.6615,7.84839,0.0203611,0.00546743,0.0124469,0.0274188,-0.00159027,0.515819,0.0188317,0.0176933,608,1261,-42.6615,-7.84835
-609,-237,-42.7441,8.70459,0.00542168,-0.000138718,0.00167409,0.0058868,-0.000603834,0.270998,0.00414051,0.0171737,615,1261,-42.7442,-8.70456
-602,-237,-42.8046,9.53088,0.00168932,-0.000152625,-0.00120157,0.00228227,-0.000745575,-0.458418,0.00182163,0.012987,622,1261,-42.8047,-9.53087
-595,-237,-42.9,10.3824,-0.000603105,-2.42138e-05,-0.00297894,0.00267931,-0.00330663,-0.833828,0.00346231,0.0159726,629,1261,-42.9,-10.3824
-588,-237,-42.9467,11.2183,-0.00201003,0.000243939,-0.00389626,0.00317293,-0.00493902,-0.92618,0.00472029,0.027183,636,1261,-42.9467,-11.2183
-581,-237,-43.0178,11.9993,-0.00315807,6.87997e-05,-0.00473302,0.00345583,-0.0065451,-0.949666,0.00586514,0.0266717,643,1261,-43.0178,-11.9993
-574,-237,-42.921,12.631,-0.00415765,-0.000492353,-0.00508852,0.00308348,-0.00773348,-0.958244,0.00643465,0.0408275,650,1261,-42.921,-12.6309
-567,-237,-43.0999,13.6077,-0.00502426,-0.00113418,-0.00473223,0.00203714,-0.00819558,-0.980383,0.00625435,0.0454536,657,1261,-43.0999,-13.6076
-560,-237,-43.1525,14.2275,0,0,0,0,0,0,0,-1,664,1261,-43.1525,-14.2275
-553,-237,-20.6102,6.92139,0,0,0,0,0,0,0,-1,671,1261,-20.6102,-6.92138
-546,-237,-11.192,1.14014,0,0,0,0,0,0,0,-1,678,1261,-11.192,-1.14011
-539,-237,-16.512,1.53455,0,0,0,0,0,0,0,-1,685,1261,-16.512,-1.53457
-532,-237,-29.7025,1.23621,0,0,0,0,0,0,0,-1,692,1261,-29.7025,-1.23618
-525,-237,-47.2925,0.590942,0,0,0,0,0,0,0,-1,699,1261,-47.2925,-0.590989
-518,-237,-48.2897,0.765869,0,0,0,0,0,0,0,-1,706,1261,-48.2897,-0.765854
-511,-237,-62.8515,0.639771,0,0,0,0,0,0,0,-1,713,1261,-62.8515,-0.639745
-504,-237,-62.9702,0.54834,-0.00182774,-0.0056336,-0.00036507,-0.00179304,-0.0056683,-0.0947716,0.00334539,0.0455948,720,1261,-62.9702,-0.548325
-497,-237,-62.8875,0.43689,0,0,0,0,0,0,0,-1,727,1261,-62.8875,-0.436879
-490,-237,0,0,0,0,0,0,0,0,0,-1,734,1261,0,0
-483,-237,0,0,0,0,0,0,0,0,0,-1,741,1261,0,0
-476,-237,0,0,0,0,0,0,0,0,0,-1,748,1261,0,0
-469,-237,0,0,0,0,0,0,0,0,0,-1,755,1261,0,0
-462,-237,0,0,0,0,0,0,0,0,0,-1,762,1261,0,0
-455,-237,0,0,0,0,0,0,0,0,0,-1,769,1261,0,0
-448,-237,0,0,0,0,0,0,0,0,0,-1,776,1261,0,0
-441,-237,0,0,0,0,0,0,0,0,0,-1,783,1261,0,0
-434,-237,0,0,0,0,0,0,0,0,0,-1,790,1261,0,0
-427,-237,0,0,0,0,0,0,0,0,0,-1,797,1261,0,0
-420,-237,0,0,0,0,0,0,0,0,0,-1,804,1261,0,0
-413,-237,0,0,0,0,0,0,0,0,0,-1,811,1261,0,0
-406,-237,0,0,0,0,0,0,0,0,0,-1,818,1261,0,0
-399,-237,0,0,0,0,0,0,0,0,0,-1,825,1261,0,0
-392,-237,0,0,0,0,0,0,0,0,0,-1,832,1261,0,0
-385,-237,0,0,0,0,0,0,0,0,0,-1,839,1261,0,0
-378,-237,0,0,0,0,0,0,0,0,0,-1,846,1261,0,0
-371,-237,0,0,0,0,0,0,0,0,0,-1,853,1261,0,0
-364,-237,0,0,0,0,0,0,0,0,0,-1,860,1261,0,0
-357,-237,0,0,0,0,0,0,0,0,0,-1,867,1261,0,0
-350,-237,0,0,0,0,0,0,0,0,0,-1,874,1261,0,0
-343,-237,0,0,0,0,0,0,0,0,0,-1,881,1261,0,0
-336,-237,0,0,0,0,0,0,0,0,0,-1,888,1261,0,0
-329,-237,0,0,0,0,0,0,0,0,0,-1,895,1261,0,0
-322,-237,0,0,0,0,0,0,0,0,0,-1,902,1261,0,0
-315,-237,0,0,0,0,0,0,0,0,0,-1,909,1261,0,0
-308,-237,0,0,0,0,0,0,0,0,0,-1,916,1261,0,0
-301,-237,0,0,0,0,0,0,0,0,0,-1,923,1261,0,0
-294,-237,0,0,0,0,0,0,0,0,0,-1,930,1261,0,0
-287,-237,0,0,0,0,0,0,0,0,0,-1,937,1261,0,0
-280,-237,0,0,0,0,0,0,0,0,0,-1,944,1261,0,0
-273,-237,0,0,0,0,0,0,0,0,0,-1,951,1261,0,0
-266,-237,0,0,0,0,0,0,0,0,0,-1,958,1261,0,0
-259,-237,0,0,0,0,0,0,0,0,0,-1,965,1261,0,0
-252,-237,0,0,0,0,0,0,0,0,0,-1,972,1261,0,0
-245,-237,0,0,0,0,0,0,0,0,0,-1,979,1261,0,0
-238,-237,0,0,0,0,0,0,0,0,0,-1,986,1261,0,0
-231,-237,0,0,0,0,0,0,0,0,0,-1,993,1261,0,0
-224,-237,0,0,0,0,0,0,0,0,0,-1,1000,1261,0,0
-217,-237,0,0,0,0,0,0,0,0,0,-1,1007,1261,0,0
-210,-237,0,0,0,0,0,0,0,0,0,-1,1014,1261,0,0
-203,-237,0,0,0,0,0,0,0,0,0,-1,1021,1261,0,0
-196,-237,0,0,0,0,0,0,0,0,0,-1,1028,1261,0,0
-189,-237,0,0,0,0,0,0,0,0,0,-1,1035,1261,0,0
-182,-237,0,0,0,0,0,0,0,0,0,-1,1042,1261,0,0
-175,-237,0,0,0,0,0,0,0,0,0,-1,1049,1261,0,0
-168,-237,0,0,0,0,0,0,0,0,0,-1,1056,1261,0,0
-161,-237,0,0,0,0,0,0,0,0,0,-1,1063,1261,0,0
-154,-237,0,0,0,0,0,0,0,0,0,-1,1070,1261,0,0
-147,-237,0,0,0,0,0,0,0,0,0,-1,1077,1261,0,0
-140,-237,0,0,0,0,0,0,0,0,0,-1,1084,1261,0,0
-133,-237,0,0,0,0,0,0,0,0,0,-1,1091,1261,0,0
-126,-237,0,0,0,0,0,0,0,0,0,-1,1098,1261,0,0
-119,-237,0,0,0,0,0,0,0,0,0,-1,1105,1261,0,0
-112,-237,0,0,0,0,0,0,0,0,0,-1,1112,1261,0,0
-105,-237,0,0,0,0,0,0,0,0,0,-1,1119,1261,0,0
-98,-237,0,0,0,0,0,0,0,0,0,-1,1126,1261,0,0
-91,-237,0,0,0,0,0,0,0,0,0,-1,1133,1261,0,0
-84,-237,0,0,0,0,0,0,0,0,0,-1,1140,1261,0,0
-77,-237,0,0,0,0,0,0,0,0,0,-1,1147,1261,0,0
-70,-237,0,0,0,0,0,0,0,0,0,-1,1154,1261,0,0
-63,-237,0,0,0,0,0,0,0,0,0,-1,1161,1261,0,0
-56,-237,0,0,0,0,0,0,0,0,0,-1,1168,1261,0,0
-49,-237,0,0,0,0,0,0,0,0,0,-1,1175,1261,0,0
-42,-237,0,0,0,0,0,0,0,0,0,-1,1182,1261,0,0
-35,-237,0,0,0,0,0,0,0,0,0,-1,1189,1261,0,0
-28,-237,0,0,0,0,0,0,0,0,0,-1,1196,1261,0,0
-21,-237,0,0,0,0,0,0,0,0,0,-1,1203,1261,0,0
-14,-237,0,0,0,0,0,0,0,0,0,-1,1210,1261,0,0
-7,-237,0,0,0,0,0,0,0,0,0,-1,1217,1261,0,0
0,-237,0,0,0,0,0,0,0,0,0,-1,1224,1261,0,0
7,-237,0,0,0,0,0,0,0,0,0,-1,1231,1261,0,0
14,-237,0,0,0,0,0,0,0,0,0,-1,1238,1261,0,0
21,-237,0,0,0,0,0,0,0,0,0,-1,1245,1261,0,0
28,-237,0,0,0,0,0,0,0,0,0,-1,1252,1261,0,0
35,-237,0,0,0,0,0,0,0,0,0,-1,1259,1261,0,0
42,-237,0,0,0,0,0,0,0,0,0,-1,1266,1261,0,0
49,-237,0,0,0,0,0,0,0,0,0,-1,1273,1261,0,0
56,-237,0,0,0,0,0,0,0,0,0,-1,1280,1261,0,0
63,-237,0,0,0,0,0,0,0,0,0,-1,1287,1261,0,0
70,-237,0,0,0,0,0,0,0,0,0,-1,1294,1261,0,0
77,-237,0,0,0,0,0,0,0,0,0,-1,1301,1261,0,0
84,-237,0,0,0,0,0,0,0,0,0,-1,1308,1261,0,0
91,-237,0,0,0,0,0,0,0,0,0,-1,1315,1261,0,0
98,-237,0,0,0,0,0,0,0,0,0,-1,1322,1261,0,0
105,-237,0,0,0,0,0,0,0,0,0,-1,1329,1261,0,0
112,-237,0,0,0,0,0,0,0,0,0,-1,1336,1261,0,0
119,-237,0,0,0,0,0,0,0,0,0,-1,1343,1261,0,0
126,-237,0,0,0,0,0,0,0,0,0,-1,1350,1261,0,0
133,-237,0,0,0,0,0,0,0,0,0,-1,1357,1261,0,0
140,-237,0,0,0,0,0,0,0,0,0,-1,1364,1261,0,0
147,-237,0,0,0,0,0,0,0,0,0,-1,1371,1261,0,0
154,-237,0,0,0,0,0,0,0,0,0,-1,1378,1261,0,0
161,-237,0,0,0,0,0,0,0,0,0,-1,1385,1261,0,0
168,-237,0,0,0,0,0,0,0,0,0,-1,1392,1261,0,0
175,-237,0,0,0,0,0,0,0,0,0,-1,1399,1261,0,0
182,-237,0,0,0,0,0,0,0,0,0,-1,1406,1261,0,0
189,-237,0,0,0,0,0,0,0,0,0,-1,1413,1261,0,0
196,-237,0,0,0,0,0,0,0,0,0,-1,1420,1261,0,0
203,-237,0,0,0,0,0,0,0,0,0,-1,1427,1261,0,0
210,-237,0,0,0,0,0,0,0,0,0,-1,1434,1261,0,0
217,-237,0,0,0,0,0,0,0,0,0,-1,1441,1261,0,0
224,-237,0,0,0,0,0,0,0,0,0,-1,1448,1261,0,0
231,-237,0,0,0,0,0,0,0,0,0,-1,1455,1261,0,0
238,-237,0,0,0,0,0,0,0,0,0,-1,1462,1261,0,0
245,-237,0,0,0,0,0,0,0,0,0,-1,1469,1261,0,0
252,-237,0,0,0,0,0,0,0,0,0,-1,1476,1261,0,0
259,-237,0,0,0,0,0,0,0,0,0,-1,1483,1261,0,0
266,-237,0,0,0,0,0,0,0,0,0,-1,1490,1261,0,0
273,-237,0,0,0,0,0,0,0,0,0,-1,1497,1261,0,0
280,-237,0,0,0,0,0,0,0,0,0,-1,1504,1261,0,0
287,-237,0,0,0,0,0,0,0,0,0,-1,1511,1261,0,0
294,-237,0,0,0,0,0,0,0,0,0,-1,1518,1261,0,0
301,-237,0,0,0,0,0,0,0,0,0,-1,1525,1261,0,0
308,-237,0,0,0,0,0,0,0,0,0,-1,1532,1261,0,0
315,-237,0,0,0,0,0,0,0,0,0,-1,1539,1261,0,0
322,-237,0,0,0,0,0,0,0,0,0,-1,1546,1261,0,0
329,-237,0,0,0,0,0,0,0,0,0,-1,1553,1261,0,0
336,-237,0,0,0,0,0,0,0,0,0,-1,1560,1261,0,0
343,-237,0,0,0,0,0,0,0,0,0,-1,1567,1261,0,0
350,-237,0,0,0,0,0,0,0,0,0,-1,1574,1261,0,0
357,-237,0,0,0,0,0,0,0,0,0,-1,1581,1261,0,0
364,-237,0,0,0,0,0,0,0,0,0,-1,1588,1261,0,0
371,-237,0,0,0,0,0,0,0,0,0,-1,1595,1261,0,0
378,-237,0,0,0,0,0,0,0,0,0,-1,1602,1261,0,0
385,-237,0,0,0,0,0,0,0,0,0,-1,1609,1261,0,0
392,-237,0,0,0,0,0,0,0,0,0,-1,1616,1261,0,0
399,-237,0,0,0,0,0,0,0,0,0,-1,1623,1261,0,0
406,-237,0,0,0,0,0,0,0,0,0,-1,1630,1261,0,0
413,-237,0,0,0,0,0,0,0,0,0,-1,1637,1261,0,0
420,-237,0,0,0,0,0,0,0,0,0,-1,1644,1261,0,0
427,-237,0,0,0,0,0,0,0,0,0,-1,1651,1261,0,0
434,-237,0,0,0,0,0,0,0,0,0,-1,1658,1261,0,0
441,-237,0,0,0,0,0,0,0,0,0,-1,1665,1261,0,0
448,-237,0,0,0,0,0,0,0,0,0,-1,1672,1261,0,0
455,-237,0,0,0,0,0,0,0,0,0,-1,1679,1261,0,0
462,-237,0,0,0,0,0,0,0,0,0,-1,1686,1261,0,0
469,-237,0,0,0,0,0,0,0,0,0,-1,1693,1261,0,0
476,-237,0,0,0,0,0,0,0,0,0,-1,1700,1261,0,0
483,-237,0,0,0,0,0,0,0,0,0,-1,1707,1261,0,0
490,-237,0,0,0,0,0,0,0,0,0,-1,1714,1261,0,0
497,-237,0,0,0,0,0,0,0,0,0,-1,1721,1261,0,0
504,-237,0,0,0,0,0,0,0,0,0,-1,1728,1261,0,0
511,-237,0,0,0,0,0,0,0,0,0,-1,1735,1261,0,0
518,-237,0,0,0,0,0,0,0,0,0,-1,1742,1261,0,0
525,-237,0,0,0,0,0,0,0,0,0,-1,1749,1261,0,0
532,-237,0,0,0,0,0,0,0,0,0,-1,1756,1261,0,0
539,-237,0,0,0,0,0,0,0,0,0,-1,1763,1261,0,0
546,-237,0,0,0,0,0,0,0,0,0,-1,1770,1261,0,0
553,-237,0,0,0,0,0,0,0,0,0,-1,1777,1261,0,0
560,-237,0,0,0,0,0,0,0,0,0,-1,1784,1261,0,0
567,-237,0,0,0,0,0,0,0,0,0,-1,1791,1261,0,0
574,-237,0,0,0,0,0,0,0,0,0,-1,1798,1261,0,0
581,-237,0,0,0,0,0,0,0,0,0,-1,1805,1261,0,0
588,-237,0,0,0,0,0,0,0,0,0,-1,1812,1261,0,0
595,-237,0,0,0,0,0,0,0,0,0,-1,1819,1261,0,0
602,-237,0,0,0,0,0,0,0,0,0,-1,1826,1261,0,0
609,-237,0,0,0,0,0,0,0,0,0,-1,1833,1261,0,0
616,-237,79.9709,2.07959,0.000689878,0.00342063,0.000882925,0.00368124,0.000429275,1.28379,0.00232432,0.0373782,1840,1261,79.9709,-2.07964
623,-237,79.9736,2.19629,-0.000702576,0.00366034,0.00143729,0.00409127,-0.0011335,1.27951,0.00317356,0.0336194,1847,1261,79.9737,-2.19627
630,-237,79.9189,2.24133,-0.00204584,0.00353579,0.00175623,0.0040424,-0.00255244,1.28996,0.00383979,0.0274785,1854,1261,79.9189,-2.24129
637,-237,79.8601,2.21167,-0.00298154,0.00296016,0.00177791,0.00345152,-0.00347291,1.30116,0.00399783,0.0212343,1861,1261,79.86,-2.21173
644,-237,79.8672,2.16492,-0.0022405,0.0018098,0.00126323,0.00217148,-0.00260219,1.29194,0.00275982,0.0408292,1868,1261,79.8672,-2.16494
651,-237,79.8601,2.11084,0,0,0,0,0,0,0,-1,1875,1261,79.8601,-2.11084
658,-237,76.8235,1.29675,0,0,0,0,0,0,0,-1,1882,1261,76.8235,-1.2968
665,-237,57.9302,3.30676,0,0,0,0,0,0,0,-1,1889,1261,57.9302,-3.30671
672,-237,45.3922,1.95618,0,0,0,0,0,0,0,-1,1896,1261,45.3922,-1.95623
679,-237,23.1501,7.37488,0,0,0,0,0,0,0,-1,1903,1261,23.1502,-7.37493
686,-237,36.8348,9.99426,0,0,0,0,0,0,0,-1,1910,1261,36.8349,-9.99424
693,-237,59.6328,14.7334,0,0,0,0,0,0,0,-1,1917,1261,59.6328,-14.7334
700,-237,59.8499,13.8608,-0.000129471,0.000767437,0.000691248,0.00114296,-0.000504992,1.07315,0.00097492,0.043476,1924,1261,59.8498,-13.8609
707,-237,59.6758,13.1393,-0.000223179,0.00072004,0.00113876,0.00148098,-0.000984119,0.981718,0.00143283,0.0304947,1931,1261,59.6758,-13.1393
714,-237,59.5658,12.3237,-0.000711745,0.000613091,0.00153899,0.00162617,-0.00172483,0.988626,0.00193498,0.0195679,1938,1261,59.5658,-12.3237
721,-237,59.5336,11.5205,-0.00144548,0.000370588,0.00205778,0.00171177,-0.00278666,0.993184,0.00262177,0.0195506,1945,1261,59.5336,-11.5205
728,-237,59.5161,10.7223,-0.00239272,3.85443e-05,0.00267617,0.00176224,-0.00411642,0.998587,0.00348358,0.0156679,1952,1261,59.5162,-10.7222
735,-237,59.4587,9.91687,-0.00351425,-0.000373029,0.00347104,0.00186621,-0.00575349,0.99786,0.00458609,0.0192546,1959,1261,59.4588,-9.91687
742,-237,59.4192,9.13098,-0.00476435,-0.000888538,0.00451307,0.00208511,-0.00773799,0.988193,0.0059762,0.0156869,1966,1261,59.4192,-9.13104
749,-237,59.3618,8.34863,-0.00609792,-0.00154564,0.00582961,0.00243643,-0.01008,0.971519,0.00766236,0.0102822,1973,1261,59.3618,-8.34858
756,-237,59.3022,7.55811,-0.00766882,-0.00237006,0.00762003,0.00304803,-0.0130869,0.952704,0.00989831,0.0180599,1980,1261,59.3022,-7.55812
763,-237,59.0796,6.7937,-0.00954156,-0.0032531,0.0101421,0.00422102,-0.0170157,0.935709,0.0129816,0.0407523,1987,1261,59.0796,-6.79367
770,-237,59.207,5.81018,0,0,0,0,0,0,0,-1,1994,1261,59.207,-5.81018
777,-237,56.8215,4.47815,0,0,0,0,0,0,0,-1,2001,1261,56.8214,-4.47817
784,-237,36.3441,1.68591,0,0,0,0,0,0,0,-1,2008,1261,36.3441,-1.68592
791,-237,32.3025,6.03235,0,0,0,0,0,0,0,-1,2015,1261,32.3025,-6.03229
798,-237,0,0,0,0,0,0,0,0,0,-1,2022,1261,0,0
805,-237,0,0,0,0,0,0,0,0,0,-1,2029,1261,0,0
812,-237,0,0,0,0,0,0,0,0,0,-1,2036,1261,0,0
-700,-244,0,0,0,0,0,0,0,0,0,-1,524,1268,0,0
-693,-244,0,0,0,0,0,0,0,0,0,-1,531,1268,0,0
-686,-244,0,0,0,0,0,0,0,0,0,-1,538,1268,0,0
-679,-244,0,0,0,0,0,0,0,0,0,-1,545,1268,0,0
-672,-244,-44.7993,4.39575,0,0,0,0,0,0,0,-1,552,1268,-44.7992,-4.39576
-665,-244,-46.0868,3.64392,0,0,0,0,0,0,0,-1,559,1268,-46.0868,-3.64391
-658,-244,-45.9758,2.05481,0,0,0,0,0,0,0,-1,566,1268,-45.9758,-2.05486
-651,-244,-46.4749,1.28564,0,0,0,0,0,0,0,-1,573,1268,-46.4749,-1.28561
-644,-244,-32.7362,1.51355,0,0,0,0,0,0,0,-1,580,1268,-32.7362,-1.51355
-637,-244,-34.8414,3.00073,0,0,0,0,0,0,0,-1,587,1268,-34.8414,-3.00078
-630,-244,-42.0244,6.29883,0,0,0,0,0,0,0,-1,594,1268,-42.0244,-6.29887
-623,-244,-41.9222,7.10242,0.0448038,0.0187132,0.0284558,0.0630621,0.000454988,0.570473,0.0418906,0.0455714,601,1268,-41.9222,-7.10246
-616,-244,-41.861,7.92029,0.0175599,0.00450287,0.00991623,0.0229038,-0.000840984,0.494281,0.0155571,0.0199498,608,1268,-41.8609,-7.92029
-609,-244,-41.9531,8.7627,0.0041068,-0.000761337,0.000590346,0.00417737,-0.000831904,0.11897,0.00309965,0.0161599,615,1268,-41.9531,-8.76273
-602,-244,-42.003,9.58472,0.00139858,-0.000554187,-0.00117603,0.00195072,-0.00110633,-0.438945,0.00178729,0.0161904,622,1268,-42.003,-9.58469
-595,-244,-42.0831,10.4291,-0.000563116,-0.000290757,-0.00236149,0.00193847,-0.00279235,-0.8142,0.00274613,0.0171037,629,1268,-42.0831,-10.4291
-588,-244,-42.0981,11.2698,-0.00212829,-7.39456e-05,-0.00318661,0.00224695,-0.00444919,-0.94131,0.00393509,0.0214332,636,1268,-42.0981,-11.2698
-581,-244,-42.1396,12.0458,-0.00351442,-0.000238776,-0.00403272,0.00247602,-0.00622922,-0.97829,0.00517934,0.0195245,643,1268,-42.1396,-12.0458
-574,-244,-42.1802,12.8242,-0.00472256,-0.000827501,-0.00459414,0.00221486,-0.00776492,-0.985874,0.00605155,0.0349984,650,1268,-42.1802,-12.8242
-567,-244,-42.3251,13.6593,-0.00565523,-0.00164224,-0.00453791,0.00131299,-0.00861045,-0.993557,0.0062243,0.0383297,657,1268,-42.3251,-13.6593
-560,-244,-42.3871,14.4441,-0.00605632,-0.00210645,-0.0041975,0.000557508,-0.00872029,-1.00528,0.00600799,0.0442484,664,1268,-42.3871,-14.4441
-553,-244,-42.3787,15.2247,0,0,0,0,0,0,0,-1,671,1268,-42.3787,-15.2248
-546,-244,-11.2686,4.41772,0,0,0,0,0,0,0,-1,678,1268,-11.2686,-4.41767
-539,-244,-12.8706,0.3302,0,0,0,0,0,0,0,-1,685,1268,-12.8706,-0.330156
-532,-244,-18.1502,0.816528,0,0,0,0,0,0,0,-1,692,1268,-18.1502,-0.816514
-525,-244,-33.0835,0.693604,0,0,0,0,0,0,0,-1,699,1268,-33.0835,-0.69365
-518,-244,-47.5015,0.609131,0,0,0,0,0,0,0,-1,706,1268,-47.5015,-0.60919
-511,-244,-48.6138,1.11877,0,0,0,0,0,0,0,-1,713,1268,-48.6138,-1.11872
-504,-244,-63.0194,0.663208,0,0,0,0,0,0,0,-1,720,1268,-63.0194,-0.66324
-497,-244,-62.9807,0.494751,0,0,0,0,0,0,0,-1,727,1268,-62.9807,-0.494714
-490,-244,0,0,0,0,0,0,0,0,0,-1,734,1268,0,0
-483,-244,0,0,0,0,0,0,0,0,0,-1,741,1268,0,0
-476,-244,0,0,0,0,0,0,0,0,0,-1,748,1268,0,0
-469,-244,0,0,0,0,0,0,0,0,0,-1,755,1268,0,0
-462,-244,0,0,0,0,0,0,0,0,0,-1,762,1268,0,0
-455,-244,0,0,0,0,0,0,0,0,0,-1,769,1268,0,0
-448,-244,0,0,0,0,0,0,0,0,0,-1,776,1268,0,0
-441,-244,0,0,0,0,0,0,0,0,0,-1,783,1268,0,0
-434,-244,0,0,0,0,0,0,0,0,0,-1,790,1268,0,0
-427,-244,0,0,0,0,0,0,0,0,0,-1,797,1268,0,0
-420,-244,0,0,0,0,0,0,0,0,0,-1,804,1268,0,0
-413,-244,0,0,0,0,0,0,0,0,0,-1,811,1268,0,0
-406,-244,0,0,0,0,0,0,0,0,0,-1,818,1268,0,0
-399,-244,0,0,0,0,0,0,0,0,0,-1,825,1268,0,0
-392,-244,0,0,0,0,0,0,0,0,0,-1,832,1268,0,0
-385,-244,0,0,0,0,0,0,0,0,0,-1,839,1268,0,0
-378,-244,0,0,0,0,0,0,0,0,0,-1,846,1268,0,0
-371,-244,0,0,0,0,0,0,0,0,0,-1,853,1268,0,0
-364,-244,0,0,0,0,0,0,0,0,0,-1,860,1268,0,0
-357,-244,0,0,0,0,0,0,0,0,0,-1,867,1268,0,0
-350,-244,0,0,0,0,0,0,0,0,0,-1,874,1268,0,0
-343,-244,0,0,0,0,0,0,0,0,0,-1,881,1268,0,0
-336,-244,0,0,0,0,0,0,0,0,0,-1,888,1268,0,0
-329,-244,0,0,0,0,0,0,0,0,0,-1,895,1268,0,0
-322,-244,0,0,0,0,0,0,0,0,0,-1,902,1268,0,0
-315,-244,0,0,0,0,0,0,0,0,0,-1,909,1268,0,0
-308,-244,0,0,0,0,0,0,0,0,0,-1,916,1268,0,0
-301,-244,0,0,0,0,0,0,0,0,0,-1,923,1268,0,0
-294,-244,0,0,0,0,0,0,0,0,0,-1,930,1268,0,0
-287,-244,0,0,0,0,0,0,0,0,0,-1,937,1268,0,0
-280,-244,0,0,0,0,0,0,0,0,0,-1,944,1268,0,0
-273,-244,0,0,0,0,0,0,0,0,0,-1,951,1268,0,0
-266,-244,0,0,0,0,0,0,0,0,0,-1,958,1268,0,0
-259,-244,0,0,0,0,0,0,0,0,0,-1,965,1268,0,0
-252,-244,0,0,0,0,0,0,0,0,0,-1,972,1268,0,0
-245,-244,0,0,0,0,0,0,0,0,0,-1,979,1268,0,0
-238,-244,0,0,0,0,0,0,0,0,0,-1,986,1268,0,0
-231,-244,0,0,0,0,0,0,0,0,0,-1,993,1268,0,0
-224,-244,0,0,0,0,0,0,0,0,0,-1,1000,1268,0,0
-217,-244,0,0,0,0,0,0,0,0,0,-1,1007,1268,0,0
-210,-244,0,0,0,0,0,0,0,0,0,-1,1014,1268,0,0
-203,-244,0,0,0,0,0,0,0,0,0,-1,1021,1268,0,0
-196,-244,0,0,0,0,0,0,0,0,0,-1,1028,1268,0,0
-189,-244,0,0,0,0,0,0,0,0,0,-1,1035,1268,0,0
-182,-244,0,0,0,0,0,0,0,0,0,-1,1042,1268,0,0
-175,-244,0,0,0,0,0,0,0,0,0,-1,1049,1268,0,0
-168,-244,0,0,0,0,0,0,0,0,0,-1,1056,1268,0,0
-161,-244,0,0,0,0,0,0,0,0,0,-1,1063,1268,0,0
-154,-244,0,0,0,0,0,0,0,0,0,-1,1070,1268,0,0
-147,-244,0,0,0,0,0,0,0,0,0,-1,1077,1268,0,0
-140,-244,0,0,0,0,0,0,0,0,0,-1,1084,1268,0,0
-133,-244,0,0,0,0,0,0,0,0,0,-1,1091,1268,0,0
-126,-244,0,0,0,0,0,0,0,0,0,-1,1098,1268,0,0
-119,-244,0,0,0,0,0,0,0,0,0,-1,1105,1268,0,0
-112,-244,0,0,0,0,0,0,0,0,0,-1,1112,1268,0,0
-105,-244,0,0,0,0,0,0,0,0,0,-1,1119,1268,0,0
-98,-244,0,0,0,0,0,0,0,0,0,-1,1126,1268,0,0
-91,-244,0,0,0,0,0,0,0,0,0,-1,1133,1268,0,0
-84,-244,0,0,0,0,0,0,0,0,0,-1,1140,1268,0,0
-77,-244,0,0,0,0,0,0,0,0,0,-1,1147,1268,0,0
-70,-244,0,0,0,0,0,0,0,0,0,-1,1154,1268,0,0
-63,-244,0,0,0,0,0,0,0,0,0,-1,1161,1268,0,0
-56,-244,0,0,0,0,0,0,0,0,0,-1,1168,1268,0,0
-49,-244,0,0,0,0,0,0,0,0,0,-1,1175,1268,0,0
-42,-244,0,0,0,0,0,0,0,0,0,-1,1182,1268,0,0
-35,-244,0,0,0,0,0,0,0,0,0,-1,1189,1268,0,0
-28,-244,0,0,0,0,0,0,0,0,0,-1,1196,1268,0,0
-21,-244,0,0,0,0,0,0,0,0,0,-1,1203,1268,0,0
-14,-244,0,0,0,0,0,0,0,0,0,-1,1210,1268,0,0
-7,-244,0,0,0,0,0,0,0,0,0,-1,1217,1268,0,0
0,-244,0,0,0,0,0,0,0,0,0,-1,1224,1268,0,0
7,-244,0,0,0,0,0,0,0,0,0,-1,1231,1268,0,0
14,-244,0,0,0,0,0,0,0,0,0,-1,1238,1268,0,0
21,-244,0,0,0,0,0,0,0,0,0,-1,1245,1268,0,0
28,-244,0,0,0,0,0,0,0,0,0,-1,1252,1268,0,0
35,-244,0,0,0,0,0,0,0,0,0,-1,1259,1268,0,0
42,-244,0,0,0,0,0,0,0,0,0,-1,1266,1268,0,0
49,-244,0,0,0,0,0,0,0,0,0,-1,1273,1268,0,0
56,-244,0,0,0,0,0,0,0,0,0,-1,1280,1268,0,0
63,-244,0,0,0,0,0,0,0,0,0,-1,1287,1268,0,0
70,-244,0,0,0,0,0,0,0,0,0,-1,1294,1268,0,0
77,-244,0,0,0,0,0,0,0,0,0,-1,1301,1268,0,0
84,-244,0,0,0,0,0,0,0,0,0,-1,1308,1268,0,0
91,-244,0,0,0,0,0,0,0,0,0,-1,1315,1268,0,0
98,-244,0,0,0,0,0,0,0,0,0,-1,1322,1268,0,0
105,-244,0,0,0,0,0,0,0,0,0,-1,1329,1268,0,0
112,-244,0,0,0,0,0,0,0,0,0,-1,1336,1268,0,0
119,-244,0,0,0,0,0,0,0,0,0,-1,1343,1268,0,0
126,-244,0,0,0,0,0,0,0,0,0,-1,1350,1268,0,0
133,-244,0,0,0,0,0,0,0,0,0,-1,1357,1268,0,0
140,-244,0,0,0,0,0,0,0,0,0,-1,1364,1268,0,0
147,-244,0,0,0,0,0,0,0,0,0,-1,1371,1268,0,0
154,-244,0,0,0,0,0,0,0,0,0,-1,1378,1268,0,0
161,-244,0,0,0,0,0,0,0,0,0,-1,1385,1268,0,0
168,-244,0,0,0,0,0,0,0,0,0,-1,1392,1268,0,0
175,-244,0,0,0,0,0,0,0,0,0,-1,1399,1268,0,0
182,-244,0,0,0,0,0,0,0,0,0,-1,1406,1268,0,0
189,-244,0,0,0,0,0,0,0,0,0,-1,1413,1268,0,0
196,-244,0,0,0,0,0,0,0,0,0,-1,1420,1268,0,0
203,-244,0,0,0,0,0,0,0,0,0,-1,1427,1268,0,0
210,-244,0,0,0,0,0,0,0,0,0,-1,1434,1268,0,0
217,-244,0,0,0,0,0,0,0,0,0,-1,1441,1268,0,0
224,-244,0,0,0,0,0,0,0,0,0,-1,1448,1268,0,0
231,-244,0,0,0,0,0,0,0,0,0,-1,1455,1268,0,0
238,-244,0,0,0,0,0,0,0,0,0,-1,1462,1268,0,0
245,-244,0,0,0,0,0,0,0,0,0,-1,1469,1268,0,0
252,-244,0,0,0,0,0,0,0,0,0,-1,1476,1268,0,0
259,-244,0,0,0,0,0,0,0,0,0,-1,1483,1268,0,0
266,-244,0,0,0,0,0,0,0,0,0,-1,1490,1268,0,0
273,-244,0,0,0,0,0,0,0,0,0,-1,1497,1268,0,0
280,-244,0,0,0,0,0,0,0,0,0,-1,1504,1268,0,0
287,-244,0,0,0,0,0,0,0,0,0,-1,1511,1268,0,0
294,-244,0,0,0,0,0,0,0,0,0,-1,1518,1268,0,0
301,-244,0,0,0,0,0,0,0,0,0,-1,1525,1268,0,0
308,-244,0,0,0,0,0,0,0,0,0,-1,1532,1268,0,0
315,-244,0,0,0,0,0,0,0,0,0,-1,1539,1268,0,0
322,-244,0,0,0,0,0,0,0,0,0,-1,1546,1268,0,0
329,-244,0,0,0,0,0,0,0,0,0,-1,1553,1268,0,0
336,-244,0,0,0,0,0,0,0,0,0,-1,1560,1268,0,0
343,-244,0,0,0,0,0,0,0,0,0,-1,1567,1268,0,0
350,-244,0,0,0,0,0,0,0,0,0,-1,1574,1268,0,0
357,-244,0,0,0,0,0,0,0,0,0,-1,1581,1268,0,0
364,-244,0,0,0,0,0,0,0,0,0,-1,1588,1268,0,0
371,-244,0,0,0,0,0,0,0,0,0,-1,1595,1268,0,0
378,-244,0,0,0,0,0,0,0,0,0,-1,1602,1268,0,0
385,-244,0,0,0,0,0,0,0,0,0,-1,1609,1268,0,0
392,-244,0,0,0,0,0,0,0,0,0,-1,1616,1268,0,0
399,-244,0,0,0,0,0,0,0,0,0,-1,1623,1268,0,0
406,-244,0,0,0,0,0,0,0,0,0,-1,1630,1268,0,0
413,-244,0,0,0,0,0,0,0,0,0,-1,1637,1268,0,0
420,-244,0,0,0,0,0,0,0,0,0,-1,1644,1268,0,0
427,-244,0,0,0,0,0,0,0,0,0,-1,1651,1268,0,0
434,-244,0,0,0,0,0,0,0,0,0,-1,1658,1268,0,0
441,-244,0,0,0,0,0,0,0,0,0,-1,1665,1268,0,0
448,-244,0,0,0,0,0,0,0,0,0,-1,1672,1268,0,0
455,-244,0,0,0,0,0,0,0,0,0,-1,1679,1268,0,0
462,-244,0,0,0,0,0,0,0,0,0,-1,1686,1268,0,0
469,-244,0,0,0,0,0,0,0,0,0,-1,1693,1268,0,0
476,-244,0,0,0,0,0,0,0,0,0,-1,1700,1268,0,0
483,-244,0,0,0,0,0,0,0,0,0,-1,1707,1268,0,0
490,-244,0,0,0,0,0,0,0,0,0,-1,1714,1268,0,0
497,-244,0,0,0,0,0,0,0,0,0,-1,1721,1268,0,0
504,-244,0,0,0,0,0,0,0,0,0,-1,1728,1268,0,0
511,-244,0,0,0,0,0,0,0,0,0,-1,1735,1268,0,0
518,-244,0,0,0,0,0,0,0,0,0,-1,1742,1268,0,0
525,-244,0,0,0,0,0,0,0,0,0,-1,1749,1268,0,0
532,-244,0,0,0,0,0,0,0,0,0,-1,1756,1268,0,0
539,-244,0,0,0,0,0,0,0,0,0,-1,1763,1268,0,0
546,-244,0,0,0,0,0,0,0,0,0,-1,1770,1268,0,0
553,-244,0,0,0,0,0,0,0,0,0,-1,1777,1268,0,0
560,-244,0,0,0,0,0,0,0,0,0,-1,1784,1268,0,0
567,-244,0,0,0,0,0,0,0,0,0,-1,1791,1268,0,0
574,-244,0,0,0,0,0,0,0,0,0,-1,1798,1268,0,0
581,-244,0,0,0,0,0,0,0,0,0,-1,1805,1268,0,0
588,-244,0,0,0,0,0,0,0,0,0,-1,1812,1268,0,0
595,-244,0,0,0,0,0,0,0,0,0,-1,1819,1268,0,0
602,-244,0,0,0,0,0,0,0,0,0,-1,1826,1268,0,0
609,-244,0,0,0,0,0,0,0,0,0,-1,1833,1268,0,0
616,-244,79.9391,2.16785,-0.000393973,0.00538948,0.00108675,0.00558695,-0.00059144,1.39105,0.00393662,0.0334458,1840,1268,79.939,-2.16785
623,-244,79.944,2.24512,-0.00187707,0.00579869,0.00186264,0.00622681,-0.00230519,1.34487,0.00509645,0.0269277,1847,1268,79.944,-2.24518
630,-244,79.9095,2.27307,-0.0033,0.00554161,0.00241752,0.00615945,-0.00391784,1.32059,0.00586591,0.0250322,1854,1268,79.9096,-2.27305
637,-244,79.9263,2.2749,-0.00381158,0.00435231,0.00244543,0.00502877,-0.00448804,1.30092,0.00549749,0.040219,1861,1268,79.9263,-2.27485
644,-244,79.8018,2.32458,-0.00260398,0.00267733,0.00180669,0.00323624,-0.00316288,1.27078,0.00369461,0.0460591,1868,1268,79.8018,-2.32461
651,-244,79.6653,2.33435,0,0,0,0,0,0,0,-1,1875,1268,79.6653,-2.33435
658,-244,71.6105,1.55334,0,0,0,0,0,0,0,-1,1882,1268,71.6104,-1.55332
665,-244,50.7988,1.09888,0,0,0,0,0,0,0,-1,1889,1268,50.7989,-1.09893
672,-244,32.224,3.6123,0,0,0,0,0,0,0,-1,1896,1268,32.224,-3.6123
679,-244,27.2593,7.90649,0,0,0,0,0,0,0,-1,1903,1268,27.2592,-7.9065
686,-244,58.9263,15.4556,0,0,0,0,0,0,0,-1,1910,1268,58.9263,-15.4555
693,-244,58.9115,14.7604,-0.000672114,-0.000929008,0.000692005,-9.67366e-05,-0.00150439,0.693635,0.000972284,0.0388789,1917,1268,58.9115,-14.7603
700,-244,58.927,13.9565,0.000179829,0.000391484,0.000656458,0.00095059,-0.000379277,0.865315,0.000791063,0.0188499,1924,1268,58.927,-13.9565
707,-244,58.8258,13.1627,-7.01455e-05,0.000303685,0.00111152,0.0012439,-0.00101036,0.868699,0.00130382,0.0152946,1931,1268,58.8258,-13.1627
714,-244,58.8839,12.3625,-0.00073615,0.000210112,0.00155691,0.0013642,-0.00189023,0.932909,0.00188711,0.0170083,1938,1268,58.884,-12.3626
721,-244,58.7745,11.6156,-0.00164479,4.86508e-05,0.00211607,0.00148112,-0.00307726,0.975711,0.00268502,0.0237391,1945,1268,58.7746,-11.6155
728,-244,58.7229,10.7783,-0.00273951,-0.000182956,0.00279984,0.00161661,-0.00453907,0.999543,0.00368507,0.0299237,1952,1268,58.7229,-10.7784
735,-244,58.6322,9.91577,-0.00400147,-0.000525578,0.00367111,0.00179819,-0.00632524,1.00647,0.00492685,0.0284829,1959,1268,58.6322,-9.91574
742,-244,58.5604,9.19714,-0.00541692,-0.00100046,0.00478247,0.00205897,-0.00847635,1.00168,0.00644775,0.0178348,1966,1268,58.5605,-9.19709
749,-244,58.4038,8.50989,-0.00696213,-0.00167745,0.00618176,0.00240302,-0.0110426,0.987366,0.0082798,0.0254383,1973,1268,58.4038,-8.50984
756,-244,58.2566,7.86804,-0.00885328,-0.00259319,0.00811696,0.00297631,-0.0144228,0.969422,0.0107456,0.0345799,1980,1268,58.2566,-7.86803
763,-244,58.2241,7.005,0,0,0,0,0,0,0,-1,1987,1268,58.2242,-7.00501
770,-244,56.2969,5.43298,0,0,0,0,0,0,0,-1,1994,1268,56.2969,-5.43297
777,-244,48.7119,2.7002,0,0,0,0,0,0,0,-1,2001,1268,48.712,-2.70019
784,-244,31.7908,5.20081,0,0,0,0,0,0,0,-1,2008,1268,31.7907,-5.20083
791,-244,0,0,0,0,0,0,0,0,0,-1,2015,1268,0,0
798,-244,0,0,0,0,0,0,0,0,0,-1,2022,1268,0,0
805,-244,0,0,0,0,0,0,0,0,0,-1,2029,1268,0,0
812,-244,0,0,0,0,0,0,0,0,0,-1,2036,1268,0,0
-700,-251,0,0,0,0,0,0,0,0,0,-1,524,1275,0,0
-693,-251,0,0,0,0,0,0,0,0,0,-1,531,1275,0,0
-686,-251,0,0,0,0,0,0,0,0,0,-1,538,1275,0,0
-679,-251,0,0,0,0,0,0,0,0,0,-1,545,1275,0,0
-672,-251,0,0,0,0,0,0,0,0,0,-1,552,1275,0,0
-665,-251,-45.2521,2.44568,0,0,0,0,0,0,0,-1,559,1275,-45.2521,-2.44573
-658,-251,-45.5222,1.44397,0,0,0,0,0,0,0,-1,566,1275,-45.5221,-1.44401
-651,-251,-45.8498,0.382935,0,0,0,0,0,0,0,-1,573,1275,-45.8498,-0.382965
-644,-251,-46.2018,-0.658325,0,0,0,0,0,0,0,-1,580,1275,-46.2019,0.658365
-637,-251,-35.2292,3.33899,0,0,0,0,0,0,0,-1,587,1275,-35.2292,-3.33904
-630,-251,-41.2621,6.41931,0,0,0,0,0,0,0,-1,594,1275,-41.2621,-6.41934
-623,-251,-41.1932,7.19629,0.0414408,0.0167482,0.0246458,0.0566598,0.00152915,0.553195,0.037274,0.0408714,601,1275,-41.1932,-7.19625
-616,-251,-41.0764,7.96863,0.0153704,0.00302194,0.00731543,0.0187689,-0.000376536,0.434897,0.01264,0.0213429,608,1275,-41.0764,-7.96862
-609,-251,-41.1443,8.78235,0.00335069,-0.00144357,-0.000476653,0.00339762,-0.0014905,-0.0981414,0.00289287,0.021077,615,1275,-41.1443,-8.78229
-602,-251,-41.1707,9.62854,0.00149951,-0.000844158,-0.00107207,0.00191592,-0.00126057,-0.370483,0.00184691,0.0155381,622,1275,-41.1706,-9.6285
-595,-251,-41.2159,10.4589,-0.000236435,-0.000499569,-0.00174002,0.00137698,-0.00211299,-0.747664,0.00202981,0.0143079,629,1275,-41.2159,-10.4588
-588,-251,-41.2703,11.2759,-0.00193622,-0.000357564,-0.0024409,0.00141846,-0.00371225,-0.941779,0.0030593,0.0162666,636,1275,-41.2703,-11.2759
-581,-251,-41.2875,12.1442,-0.00353941,-0.000498935,-0.00320835,0.00153113,-0.00556948,-1.00665,0.00431489,0.0151712,643,1275,-41.2876,-12.1441
-574,-251,-41.3252,13.0457,-0.00495543,-0.00105464,-0.00384809,0.00130911,-0.00731918,-1.01995,0.00536929,0.024071,650,1275,-41.3252,-13.0457
-567,-251,-41.5511,13.7649,-0.00599197,-0.00193262,-0.00405441,0.000571772,-0.00849637,-1.01747,0.00586413,0.0391665,657,1275,-41.5511,-13.7649
-560,-251,-41.636,14.6283,-0.0062834,-0.0024915,-0.00389635,-5.43064e-05,-0.00872059,-1.01183,0.00579571,0.0472475,664,1275,-41.636,-14.6283
-553,-251,-41.4805,15.4911,0,0,0,0,0,0,0,-1,671,1275,-41.4805,-15.491
-546,-251,-12.995,4.5675,0,0,0,0,0,0,0,-1,678,1275,-12.995,-4.56745
-539,-251,-10.7916,0.366333,0,0,0,0,0,0,0,-1,685,1275,-10.7916,-0.366282
-532,-251,-10.7391,-0.00769043,0,0,0,0,0,0,0,-1,692,1275,-10.7391,0.00773227
-525,-251,-29.4286,-0.250244,0,0,0,0,0,0,0,-1,699,1275,-29.4286,0.250266
-518,-251,-32.6981,0.678833,0,0,0,0,0,0,0,-1,706,1275,-32.6981,-0.678787
-511,-251,-29.4731,0.637085,0,0,0,0,0,0,0,-1,713,1275,-29.4731,-0.637025
-504,-251,-30.6428,0.792358,0,0,0,0,0,0,0,-1,720,1275,-30.6427,-0.792335
-497,-251,-54.1249,0.753784,0,0,0,0,0,0,0,-1,727,1275,-54.1249,-0.753774
-490,-251,0,0,0,0,0,0,0,0,0,-1,734,1275,0,0
-483,-251,0,0,0,0,0,0,0,0,0,-1,741,1275,0,0
-476,-251,0,0,0,0,0,0,0,0,0,-1,748,1275,0,0
-469,-251,0,0,0,0,0,0,0,0,0,-1,755,1275,0,0
-462,-251,0,0,0,0,0,0,0,0,0,-1,762,1275,0,0
-455,-251,0,0,0,0,0,0,0,0,0,-1,769,1275,0,0
-448,-251,0,0,0,0,0,0,0,0,0,-1,776,1275,0,0
-441,-251,0,0,0,0,0,0,0,0,0,-1,783,1275,0,0
-434,-251,0,0,0,0,0,0,0,0,0,-1,790,1275,0,0
-427,-251,0,0,0,0,0,0,0,0,0,-1,797,1275,0,0
-420,-251,0,0,0,0,0,0,0,0,0,-1,804,1275,0,0
-413,-251,0,0,0,0,0,0,0,0,0,-1,811,1275,0,0
-406,-251,0,0,0,0,0,0,0,0,0,-1,818,1275,0,0
-399,-251,0,0,0,0,0,0,0,0,0,-1,825,1275,0,0
-392,-251,0,0,0,0,0,0,0,0,0,-1,832,1275,0,0
-385,-251,0,0,0,0,0,0,0,0,0,-1,839,1275,0,0
-378,-251,0,0,0,0,0,0,0,0,0,-1,846,1275,0,0
-371,-251,0,0,0,0,0,0,0,0,0,-1,853,1275,0,0
-364,-251,0,0,0,0,0,0,0,0,0,-1,860,1275,0,0
-357,-251,0,0,0,0,0,0,0,0,0,-1,867,1275,0,0
-350,-251,0,0,0,0,0,0,0,0,0,-1,874,1275,0,0
-343,-251,0,0,0,0,0,0,0,0,0,-1,881,1275,0,0
-336,-251,0,0,0,0,0,0,0,0,0,-1,888,1275,0,0
-329,-251,0,0,0,0,0,0,0,0,0,-1,895,1275,0,0
-322,-251,0,0,0,0,0,0,0,0,0,-1,902,1275,0,0
-315,-251,0,0,0,0,0,0,0,0,0,-1,909,1275,0,0
-308,-251,0,0,0,0,0,0,0,0,0,-1,916,1275,0,0
-301,-251,0,0,0,0,0,0,0,0,0,-1,923,1275,0,0
-294,-251,0,0,0,0,0,0,0,0,0,-1,930,1275,0,0
-287,-251,0,0,0,0,0,0,0,0,0,-1,937,1275,0,0
-280,-251,0,0,0,0,0,0,0,0,0,-1,944,1275,0,0
-273,-251,0,0,0,0,0,0,0,0,0,-1,951,1275,0,0
-266,-251,0,0,0,0,0,0,0,0,0,-1,958,1275,0,0
-259,-251,0,0,0,0,0,0,0,0,0,-1,965,1275,0,0
-252,-251,0,0,0,0,0,0,0,0,0,-1,972,1275,0,0
-245,-251,0,0,0,0,0,0,0,0,0,-1,979,1275,0,0
-238,-251,0,0,0,0,0,0,0,0,0,-1,986,1275,0,0
-231,-251,0,0,0,0,0,0,0,0,0,-1,993,1275,0,0
-224,-251,0,0,0,0,0,0,0,0,0,-1,1000,1275,0,0
-217,-251,0,0,0,0,0,0,0,0,0,-1,1007,1275,0,0
-210,-251,0,0,0,0,0,0,0,0,0,-1,1014,1275,0,0
-203,-251,0,0,0,0,0,0,0,0,0,-1,1021,1275,0,0
-196,-251,0,0,0,0,0,0,0,0,0,-1,1028,1275,0,0
-189,-251,0,0,0,0,0,0,0,0,0,-1,1035,1275,0,0
-182,-251,0,0,0,0,0,0,0,0,0,-1,1042,1275,0,0
-175,-251,0,0,0,0,0,0,0,0,0,-1,1049,1275,0,0
-168,-251,0,0,0,0,0,0,0,0,0,-1,1056,1275,0,0
-161,-251,0,0,0,0,0,0,0,0,0,-1,1063,1275,0,0
-154,-251,0,0,0,0,0,0,0,0,0,-1,1070,1275,0,0
-147,-251,0,0,0,0,0,0,0,0,0,-1,1077,1275,0,0
-140,-251,0,0,0,0,0,0,0,0,0,-1,1084,1275,0,0
-133,-251,0,0,0,0,0,0,0,0,0,-1,1091,1275,0,0
-126,-251,0,0,0,0,0,0,0,0,0,-1,1098,1275,0,0
-119,-251,0,0,0,0,0,0,0,0,0,-1,1105,1275,0,0
-112,-251,0,0,0,0,0,0,0,0,0,-1,1112,1275,0,0
-105,-251,0,0,0,0,0,0,0,0,0,-1,1119,1275,0,0
-98,-251,0,0,0,0,0,0,0,0,0,-1,1126,1275,0,0
-91,-251,0,0,0,0,0,0,0,0,0,-1,1133,1275,0,0
-84,-251,0,0,0,0,0,0,0,0,0,-1,1140,1275,0,0
-77,-251,0,0,0,0,0,0,0,0,0,-1,1147,1275,0,0
-70,-251,0,0,0,0,0,0,0,0,0,-1,1154,1275,0,0
-63,-251,0,0,0,0,0,0,0,0,0,-1,1161,1275,0,0
-56,-251,0,0,0,0,0,0,0,0,0,-1,1168,1275,0,0
-49,-251,0,0,0,0,0,0,0,0,0,-1,1175,1275,0,0
-42,-251,0,0,0,0,0,0,0,0,0,-1,1182,1275,0,0
-35,-251,0,0,0,0,0,0,0,0,0,-1,1189,1275,0,0
-28,-251,0,0,0,0,0,0,0,0,0,-1,1196,1275,0,0
-21,-251,0,0,0,0,0,0,0,0,0,-1,1203,1275,0,0
-14,-251,0,0,0,0,0,0,0,0,0,-1,1210,1275,0,0
-7,-251,0,0,0,0,0,0,0,0,0,-1,1217,1275,0,0
0,-251,0,0,0,0,0,0,0,0,0,-1,1224,1275,0,0
7,-251,0,0,0,0,0,0,0,0,0,-1,1231,1275,0,0
14,-251,0,0,0,0,0,0,0,0,0,-1,1238,1275,0,0
21,-251,0,0,0,0,0,0,0,0,0,-1,1245,1275,0,0
28,-251,0,0,0,0,0,0,0,0,0,-1,1252,1275,0,0
35,-251,0,0,0,0,0,0,0,0,0,-1,1259,1275,0,0
42,-251,0,0,0,0,0,0,0,0,0,-1,1266,1275,0,0
49,-251,0,0,0,0,0,0,0,0,0,-1,1273,1275,0,0
56,-251,0,0,0,0,0,0,0,0,0,-1,1280,1275,0,0
63,-251,0,0,0,0,0,0,0,0,0,-1,1287,1275,0,0
70,-251,0,0,0,0,0,0,0,0,0,-1,1294,1275,0,0
77,-251,0,0,0,0,0,0,0,0,0,-1,1301,1275,0,0
84,-251,0,0,0,0,0,0,0,0,0,-1,1308,1275,0,0
91,-251,0,0,0,0,0,0,0,0,0,-1,1315,1275,0,0
98,-251,0,0,0,0,0,0,0,0,0,-1,1322,1275,0,0
105,-251,0,0,0,0,0,0,0,0,0,-1,1329,1275,0,0
112,-251,0,0,0,0,0,0,0,0,0,-1,1336,1275,0,0
119,-251,0,0,0,0,0,0,0,0,0,-1,1343,1275,0,0
126,-251,0,0,0,0,0,0,0,0,0,-1,1350,1275,0,0
133,-251,0,0,0,0,0,0,0,0,0,-1,1357,1275,0,0
140,-251,0,0,0,0,0,0,0,0,0,-1,1364,1275,0,0
147,-251,0,0,0,0,0,0,0,0,0,-1,1371,1275,0,0
154,-251,0,0,0,0,0,0,0,0,0,-1,1378,1275,0,0
161,-251,0,0,0,0,0,0,0,0,0,-1,1385,1275,0,0
168,-251,0,0,0,0,0,0,0,0,0,-1,1392,1275,0,0
175,-251,0,0,0,0,0,0,0,0,0,-1,1399,1275,0,0
182,-251,0,0,0,0,0,0,0,0,0,-1,1406,1275,0,0
189,-251,0,0,0,0,0,0,0,0,0,-1,1413,1275,0,0
196,-251,0,0,0,0,0,0,0,0,0,-1,1420,1275,0,0
203,-251,0,0,0,0,0,0,0,0,0,-1,1427,1275,0,0
210,-251,0,0,0,0,0,0,0,0,0,-1,1434,1275,0,0
217,-251,0,0,0,0,0,0,0,0,0,-1,1441,1275,0,0
224,-251,0,0,0,0,0,0,0,0,0,-1,1448,1275,0,0
231,-251,0,0,0,0,0,0,0,0,0,-1,1455,1275,0,0
238,-251,0,0,0,0,0,0,0,0,0,-1,1462,1275,0,0
245,-251,0,0,0,0,0,0,0,0,0,-1,1469,1275,0,0
252,-251,0,0,0,0,0,0,0,0,0,-1,1476,1275,0,0
259,-251,0,0,0,0,0,0,0,0,0,-1,1483,1275,0,0
266,-251,0,0,0,0,0,0,0,0,0,-1,1490,1275,0,0
273,-251,0,0,0,0,0,0,0,0,0,-1,1497,1275,0,0
280,-251,0,0,0,0,0,0,0,0,0,-1,1504,1275,0,0
287,-251,0,0,0,0,0,0,0,0,0,-1,1511,1275,0,0
294,-251,0,0,0,0,0,0,0,0,0,-1,1518,1275,0,0
301,-251,0,0,0,0,0,0,0,0,0,-1,1525,1275,0,0
308,-251,0,0,0,0,0,0,0,0,0,-1,1532,1275,0,0
315,-251,0,0,0,0,0,0,0,0,0,-1,1539,1275,0,0
322,-251,0,0,0,0,0,0,0,0,0,-1,1546,1275,0,0
329,-251,0,0,0,0,0,0,0,0,0,-1,1553,1275,0,0
336,-251,0,0,0,0,0,0,0,0,0,-1,1560,1275,0,0
343,-251,0,0,0,0,0,0,0,0,0,-1,1567,1275,0,0
350,-251,0,0,0,0,0,0,0,0,0,-1,1574,1275,0,0
357,-251,0,0,0,0,0,0,0,0,0,-1,1581,1275,0,0
364,-251,0,0,0,0,0,0,0,0,0,-1,1588,1275,0,0
371,-251,0,0,0,0,0,0,0,0,0,-1,1595,1275,0,0
378,-251,0,0,0,0,0,0,0,0,0,-1,1602,1275,0,0
385,-251,0,0,0,0,0,0,0,0,0,-1,1609,1275,0,0
392,-251,0,0,0,0,0,0,0,0,0,-1,1616,1275,0,0
399,-251,0,0,0,0,0,0,0,0,0,-1,1623,1275,0,0
406,-251,0,0,0,0,0,0,0,0,0,-1,1630,1275,0,0
413,-251,0,0,0,0,0,0,0,0,0,-1,1637,1275,0,0
420,-251,0,0,0,0,0,0,0,0,0,-1,1644,1275,0,0
427,-251,0,0,0,0,0,0,0,0,0,-1,1651,1275,0,0
434,-251,0,0,0,0,0,0,0,0,0,-1,1658,1275,0,0
441,-251,0,0,0,0,0,0,0,0,0,-1,1665,1275,0,0
448,-251,0,0,0,0,0,0,0,0,0,-1,1672,1275,0,0
455,-251,0,0,0,0,0,0,0,0,0,-1,1679,1275,0,0
462,-251,0,0,0,0,0,0,0,0,0,-1,1686,1275,0,0
469,-251,0,0,0,0,0,0,0,0,0,-1,1693,1275,0,0
476,-251,0,0,0,0,0,0,0,0,0,-1,1700,1275,0,0
483,-251,0,0,0,0,0,0,0,0,0,-1,1707,1275,0,0
490,-251,0,0,0,0,0,0,0,0,0,-1,1714,1275,0,0
497,-251,0,0,0,0,0,0,0,0,0,-1,1721,1275,0,0
504,-251,0,0,0,0,0,0,0,0,0,-1,1728,1275,0,0
511,-251,0,0,0,0,0,0,0,0,0,-1,1735,1275,0,0
518,-251,0,0,0,0,0,0,0,0,0,-1,1742,1275,0,0
525,-251,0,0,0,0,0,0,0,0,0,-1,1749,1275,0,0
532,-251,0,0,0,0,0,0,0,0,0,-1,1756,1275,0,0
539,-251,0,0,0,0,0,0,0,0,0,-1,1763,1275,0,0
546,-251,0,0,0,0,0,0,0,0,0,-1,1770,1275,0,0
553,-251,0,0,0,0,0,0,0,0,0,-1,1777,1275,0,0
560,-251,0,0,0,0,0,0,0,0,0,-1,1784,1275,0,0
567,-251,0,0,0,0,0,0,0,0,0,-1,1791,1275,0,0
574,-251,0,0,0,0,0,0,0,0,0,-1,1798,1275,0,0
581,-251,0,0,0,0,0,0,0,0,0,-1,1805,1275,0,0
588,-251,0,0,0,0,0,0,0,0,0,-1,1812,1275,0,0
595,-251,0,0,0,0,0,0,0,0,0,-1,1819,1275,0,0
602,-251,0,0,0,0,0,0,0,0,0,-1,1826,1275,0,0
609,-251,79.8986,2.21729,-0.00019551,0.00735486,3.75927e-05,0.00735505,-0.000195697,1.56582,0.00496988,0.0281024,1833,1275,79.8986,-2.21725
616,-251,79.9131,2.20593,-0.00174798,0.00860156,0.00130178,0.00876279,-0.00190921,1.44757,0.00657137,0.0249938,1840,1275,79.9131,-2.20594
623,-251,79.9088,2.25452,-0.0032685,0.0090935,0.00234183,0.00952226,-0.00369726,1.38971,0.0078754,0.0221603,1847,1275,79.9088,-2.25452
630,-251,79.943,2.30688,-0.0042947,0.00819613,0.00296963,0.0088662,-0.00496477,1.34887,0.00809052,0.0341578,1854,1275,79.943,-2.30692
637,-251,80.1196,2.41663,-0.00404536,0.00601442,0.00283362,0.00675767,-0.00478861,1.31428,0.00669848,0.0408012,1861,1275,80.1196,-2.41666
644,-251,79.8214,2.69958,-0.00268734,0.00393105,0.00214928,0.00456776,-0.00332405,1.28279,0.00457516,0.0471513,1868,1275,79.8214,-2.69953
651,-251,79.5677,2.8844,0,0,0,0,0,0,0,-1,1875,1275,79.5677,-2.88437
658,-251,64.3931,2.57288,0,0,0,0,0,0,0,-1,1882,1275,64.393,-2.57287
665,-251,32.9579,2.60229,0,0,0,0,0,0,0,-1,1889,1275,32.9579,-2.60231
672,-251,26.0721,4.53064,0,0,0,0,0,0,0,-1,1896,1275,26.0721,-4.53063
679,-251,29.1344,8.63782,0,0,0,0,0,0,0,-1,1903,1275,29.1344,-8.63778
686,-251,58.2347,15.5304,0,0,0,0,0,0,0,-1,1910,1275,58.2347,-15.5304
693,-251,58.1388,14.8379,-0.000388443,-0.00138723,0.000779967,3.83066e-05,-0.00181398,0.500643,0.00122229,0.0392327,1917,1275,58.1389,-14.8379
700,-251,58.0947,14.0129,0.00055151,7.21043e-05,0.000663594,0.00101737,-0.000393753,0.612081,0.000840811,0.0156535,1924,1275,58.0947,-14.0129
707,-251,58.0437,13.2098,9.26058e-05,-6.71731e-06,0.00109504,0.00113911,-0.00105322,0.762738,0.00126606,0.0129061,1931,1275,58.0437,-13.2099
714,-251,58.0513,12.3923,-0.00076955,-8.47049e-05,0.00159861,0.00120774,-0.002062,0.890904,0.00190914,0.0169846,1938,1275,58.0512,-12.3923
721,-251,57.9424,11.6385,-0.00185598,-0.000238843,0.00223356,0.001328,-0.00342282,0.959065,0.00283037,0.0260443,1945,1275,57.9424,-11.6386
728,-251,57.9,10.9052,-0.00311211,-0.000489449,0.00302587,0.00149702,-0.00509858,0.989869,0.00399273,0.0316938,1952,1275,57.9,-10.9052
735,-251,57.8314,9.98572,-0.0045277,-0.000871157,0.0040104,0.00170805,-0.00710692,0.999266,0.00539814,0.0248899,1959,1275,57.8314,-9.98572
742,-251,57.7344,9.27332,-0.0061133,-0.00139962,0.00522529,0.00197576,-0.00948868,0.997259,0.00707691,0.0186795,1966,1275,57.7344,-9.27328
749,-251,57.4482,8.71277,-0.00787201,-0.00217855,0.00674011,0.00229134,-0.0123419,0.985213,0.00908852,0.0389561,1973,1275,57.4482,-8.71272
756,-251,57.2079,8.19568,0,0,0,0,0,0,0,-1,1980,1275,57.2079,-8.19573
763,-251,43.3652,5.7583,0,0,0,0,0,0,0,-1,1987,1275,43.3653,-5.75827
770,-251,49.4386,3.45508,0,0,0,0,0,0,0,-1,1994,1275,49.4386,-3.4551
777,-251,31.5731,4.33252,0,0,0,0,0,0,0,-1,2001,1275,31.5731,-4.33251
784,-251,32.0776,5.78247,0,0,0,0,0,0,0,-1,2008,1275,32.0776,-5.78247
791,-251,0,0,0,0,0,0,0,0,0,-1,2015,1275,0,0
798,-251,0,0,0,0,0,0,0,0,0,-1,2022,1275,0,0
805,-251,0,0,0,0,0,0,0,0,0,-1,2029,1275,0,0
812,-251,0,0,0,0,0,0,0,0,0,-1,2036,1275,0,0
-700,-258,0,0,0,0,0,0,0,0,0,-1,524,1282,0,0
-693,-258,0,0,0,0,0,0,0,0,0,-1,531,1282,0,0
-686,-258,0,0,0,0,0,0,0,0,0,-1,538,1282,0,0
-679,-258,0,0,0,0,0,0,0,0,0,-1,545,1282,0,0
-672,-258,0,0,0,0,0,0,0,0,0,-1,552,1282,0,0
-665,-258,-44.8717,2.03601,0,0,0,0,0,0,0,-1,559,1282,-44.8717,-2.03603
-658,-258,-45.2628,1.20544,0,0,0,0,0,0,0,-1,566,1282,-45.2627,-1.20545
-651,-258,-45.5418,0.0863037,0,0,0,0,0,0,0,-1,573,1282,-45.5418,-0.0863288
-644,-258,-45.1855,0.336792,0,0,0,0,0,0,0,-1,580,1282,-45.1855,-0.336733
-637,-258,-45.329,0.234253,0,0,0,0,0,0,0,-1,587,1282,-45.329,-0.234296
-630,-258,-34.6896,4.45715,0,0,0,0,0,0,0,-1,594,1282,-34.6896,-4.45712
-623,-258,-40.2228,7.28455,0,0,0,0,0,0,0,-1,601,1282,-40.2228,-7.28454
-616,-258,-40.2629,8.06519,0.0149397,0.0025543,0.00661227,0.0178063,-0.000312347,0.409077,0.0119764,0.032778,608,1282,-40.2629,-8.0652
-609,-258,-40.2548,8.85217,0.00402991,-0.00122075,-0.000185228,0.00403643,-0.00122728,-0.0352188,0.00317999,0.0167621,615,1282,-40.2548,-8.85212
-602,-258,-40.306,9.69128,0.00202373,-0.00070074,-0.000649645,0.00217071,-0.000847718,-0.222497,0.00179762,0.0140595,622,1282,-40.306,-9.69134
-595,-258,-40.36,10.5248,0.000194442,-0.00046664,-0.00121056,0.00111877,-0.00139097,-0.652122,0.00145184,0.0122892,629,1282,-40.36,-10.5247
-588,-258,-40.4169,11.3563,-0.0015227,-0.000423396,-0.00178053,0.000890393,-0.00283649,-0.935109,0.00224738,0.013643,636,1282,-40.4169,-11.3564
-581,-258,-40.4454,12.1715,-0.0032061,-0.000589284,-0.00239433,0.000830818,-0.0046262,-1.03546,0.00339513,0.0155113,643,1282,-40.4454,-12.1715
-574,-258,-40.434,13.0297,-0.00476547,-0.00105325,-0.00298263,0.000603651,-0.00642237,-1.06373,0.00449632,0.0161488,650,1282,-40.434,-13.0297
-567,-258,-40.7623,13.767,-0.00600885,-0.00184209,-0.0033656,3.27802e-05,-0.00788373,-1.06254,0.00526678,0.0255046,657,1282,-40.7623,-13.767
-560,-258,-40.8923,14.8065,0,0,0,0,0,0,0,-1,664,1282,-40.8923,-14.8065
-553,-258,-32.5081,11.6642,0,0,0,0,0,0,0,-1,671,1282,-32.5081,-11.6641
-546,-258,-14.2231,5.92029,0,0,0,0,0,0,0,-1,678,1282,-14.2231,-5.92028
-539,-258,-10.2228,4.05823,0,0,0,0,0,0,0,-1,685,1282,-10.2228,-4.05823
-532,-258,-10.2173,-0.353882,0,0,0,0,0,0,0,-1,692,1282,-10.2173,0.353836
-525,-258,-21.8661,-1.5929,0,0,0,0,0,0,0,-1,699,1282,-21.8661,1.59285
-518,-258,-29.2484,0.123169,0,0,0,0,0,0,0,-1,706,1282,-29.2484,-0.123186
-511,-258,-23.5061,1.16833,0,0,0,0,0,0,0,-1,713,1282,-23.5061,-1.16833
-504,-258,-22.9178,0.484131,0,0,0,0,0,0,0,-1,720,1282,-22.9178,-0.484106
-497,-258,-17.8047,0.730469,0,0,0,0,0,0,0,-1,727,1282,-17.8048,-0.730489
-490,-258,-15.4346,0.632935,0,0,0,0,0,0,0,-1,734,1282,-15.4346,-0.632917
-483,-258,0,0,0,0,0,0,0,0,0,-1,741,1282,0,0
-476,-258,0,0,0,0,0,0,0,0,0,-1,748,1282,0,0
-469,-258,0,0,0,0,0,0,0,0,0,-1,755,1282,0,0
-462,-258,0,0,0,0,0,0,0,0,0,-1,762,1282,0,0
-455,-258,0,0,0,0,0,0,0,0,0,-1,769,1282,0,0
-448,-258,0,0,0,0,0,0,0,0,0,-1,776,1282,0,0
-441,-258,0,0,0,0,0,0,0,0,0,-1,783,1282,0,0
-434,-258,0,0,0,0,0,0,0,0,0,-1,790,1282,0,0
-427,-258,0,0,0,0,0,0,0,0,0,-1,797,1282,0,0
-420,-258,0,0,0,0,0,0,0,0,0,-1,804,1282,0,0
-413,-258,0,0,0,0,0,0,0,0,0,-1,811,1282,0,0
-406,-258,0,0,0,0,0,0,0,0,0,-1,818,1282,0,0
-399,-258,0,0,0,0,0,0,0,0,0,-1,825,1282,0,0
-392,-258,0,0,0,0,0,0,0,0,0,-1,832,1282,0,0
-385,-258,0,0,0,0,0,0,0,0,0,-1,839,1282,0,0
-378,-258,0,0,0,0,0,0,0,0,0,-1,846,1282,0,0
-371,-258,0,0,0,0,0,0,0,0,0,-1,853,1282,0,0
-364,-258,0,0,0,0,0,0,0,0,0,-1,860,1282,0,0
-357,-258,0,0,0,0,0,0,0,0,0,-1,867,1282,0,0
-350,-258,0,0,0,0,0,0,0,0,0,-1,874,1282,0,0
-343,-258,0,0,0,0,0,0,0,0,0,-1,881,1282,0,0
-336,-258,0,0,0,0,0,0,0,0,0,-1,888,1282,0,0
-329,-258,0,0,0,0,0,0,0,0,0,-1,895,1282,0,0
-322,-258,0,0,0,0,0,0,0,0,0,-1,902,1282,0,0
-315,-258,0,0,0,0,0,0,0,0,0,-1,909,1282,0,0
-308,-258,0,0,0,0,0,0,0,0,0,-1,916,1282,0,0
-301,-258,0,0,0,0,0,0,0,0,0,-1,923,1282,0,0
-294,-258,0,0,0,0,0,0,0,0,0,-1,930,1282,0,0
-287,-258,0,0,0,0,0,0,0,0,0,-1,937,1282,0,0
-280,-258,0,0,0,0,0,0,0,0,0,-1,944,1282,0,0
-273,-258,0,0,0,0,0,0,0,0,0,-1,951,1282,0,0
-266,-258,0,0,0,0,0,0,0,0,0,-1,958,1282,0,0
-259,-258,0,0,0,0,0,0,0,0,0,-1,965,1282,0,0
-252,-258,0,0,0,0,0,0,0,0,0,-1,972,1282,0,0
-245,-258,0,0,0,0,0,0,0,0,0,-1,979,1282,0,0
-238,-258,0,0,0,0,0,0,0,0,0,-1,986,1282,0,0
-231,-258,0,0,0,0,0,0,0,0,0,-1,993,1282,0,0
-224,-258,0,0,0,0,0,0,0,0,0,-1,1000,1282,0,0
-217,-258,0,0,0,0,0,0,0,0,0,-1,1007,1282,0,0
-210,-258,0,0,0,0,0,0,0,0,0,-1,1014,1282,0,0
-203,-258,0,0,0,0,0,0,0,0,0,-1,1021,1282,0,0
-196,-258,0,0,0,0,0,0,0,0,0,-1,1028,1282,0,0
-189,-258,0,0,0,0,0,0,0,0,0,-1,1035,1282,0,0
-182,-258,0,0,0,0,0,0,0,0,0,-1,1042,1282,0,0
-175,-258,0,0,0,0,0,0,0,0,0,-1,1049,1282,0,0
-168,-258,0,0,0,0,0,0,0,0,0,-1,1056,1282,0,0
-161,-258,0,0,0,0,0,0,0,0,0,-1,1063,1282,0,0
-154,-258,0,0,0,0,0,0,0,0,0,-1,1070,1282,0,0
-147,-258,0,0,0,0,0,0,0,0,0,-1,1077,1282,0,0
-140,-258,0,0,0,0,0,0,0,0,0,-1,1084,1282,0,0
-133,-258,0,0,0,0,0,0,0,0,0,-1,1091,1282,0,0
-126,-258,0,0,0,0,0,0,0,0,0,-1,1098,1282,0,0
-119,-258,0,0,0,0,0,0,0,0,0,-1,1105,1282,0,0
-112,-258,0,0,0,0,0,0,0,0,0,-1,1112,1282,0,0
-105,-258,0,0,0,0,0,0,0,0,0,-1,1119,1282,0,0
-98,-258,0,0,0,0,0,0,0,0,0,-1,1126,1282,0,0
-91,-258,0,0,0,0,0,0,0,0,0,-1,1133,1282,0,0
-84,-258,0,0,0,0,0,0,0,0,0,-1,1140,1282,0,0
-77,-258,0,0,0,0,0,0,0,0,0,-1,1147,1282,0,0
-70,-258,0,0,0,0,0,0,0,0,0,-1,1154,1282,0,0
-63,-258,0,0,0,0,0,0,0,0,0,-1,1161,1282,0,0
-56,-258,0,0,0,0,0,0,0,0,0,-1,1168,1282,0,0
-49,-258,0,0,0,0,0,0,0,0,0,-1,1175,1282,0,0
-42,-258,0,0,0,0,0,0,0,0,0,-1,1182,1282,0,0
-35,-258,0,0,0,0,0,0,0,0,0,-1,1189,1282,0,0
-28,-258,0,0,0,0,0,0,0,0,0,-1,1196,1282,0,0
-21,-258,0,0,0,0,0,0,0,0,0,-1,1203,1282,0,0
-14,-258,0,0,0,0,0,0,0,0,0,-1,1210,1282,0,0
-7,-258,0,0,0,0,0,0,0,0,0,-1,1217,1282,0,0
0,-258,0,0,0,0,0,0,0,0,0,-1,1224,1282,0,0
7,-258,0,0,0,0,0,0,0,0,0,-1,1231,1282,0,0
14,-258,0,0,0,0,0,0,0,0,0,-1,1238,1282,0,0
21,-258,0,0,0,0,0,0,0,0,0,-1,1245,1282,0,0
28,-258,0,0,0,0,0,0,0,0,0,-1,1252,1282,0,0
35,-258,0,0,0,0,0,0,0,0,0,-1,1259,1282,0,0
42,-258,0,0,0,0,0,0,0,0,0,-1,1266,1282,0,0
49,-258,0,0,0,0,0,0,0,0,0,-1,1273,1282,0,0
56,-258,0,0,0,0,0,0,0,0,0,-1,1280,1282,0,0
63,-258,0,0,0,0,0,0,0,0,0,-1,1287,1282,0,0
70,-258,0,0,0,0,0,0,0,0,0,-1,1294,1282,0,0
77,-258,0,0,0,0,0,0,0,0,0,-1,1301,1282,0,0
84,-258,0,0,0,0,0,0,0,0,0,-1,1308,1282,0,0
91,-258,0,0,0,0,0,0,0,0,0,-1,1315,1282,0,0
98,-258,0,0,0,0,0,0,0,0,0,-1,1322,1282,0,0
105,-258,0,0,0,0,0,0,0,0,0,-1,1329,1282,0,0
112,-258,0,0,0,0,0,0,0,0,0,-1,1336,1282,0,0
119,-258,0,0,0,0,0,0,0,0,0,-1,1343,1282,0,0
126,-258,0,0,0,0,0,0,0,0,0,-1,1350,1282,0,0
133,-258,0,0,0,0,0,0,0,0,0,-1,1357,1282,0,0
140,-258,0,0,0,0,0,0,0,0,0,-1,1364,1282,0,0
147,-258,0,0,0,0,0,0,0,0,0,-1,1371,1282,0,0
154,-258,0,0,0,0,0,0,0,0,0,-1,1378,1282,0,0
161,-258,0,0,0,0,0,0,0,0,0,-1,1385,1282,0,0
168,-258,0,0,0,0,0,0,0,0,0,-1,1392,1282,0,0
175,-258,0,0,0,0,0,0,0,0,0,-1,1399,1282,0,0
182,-258,0,0,0,0,0,0,0,0,0,-1,1406,1282,0,0
189,-258,0,0,0,0,0,0,0,0,0,-1,1413,1282,0,0
196,-258,0,0,0,0,0,0,0,0,0,-1,1420,1282,0,0
203,-258,0,0,0,0,0,0,0,0,0,-1,1427,1282,0,0
210,-258,0,0,0,0,0,0,0,0,0,-1,1434,1282,0,0
217,-258,0,0,0,0,0,0,0,0,0,-1,1441,1282,0,0
224,-258,0,0,0,0,0,0,0,0,0,-1,1448,1282,0,0
231,-258,0,0,0,0,0,0,0,0,0,-1,1455,1282,0,0
238,-258,0,0,0,0,0,0,0,0,0,-1,1462,1282,0,0
245,-258,0,0,0,0,0,0,0,0,0,-1,1469,1282,0,0
252,-258,0,0,0,0,0,0,0,0,0,-1,1476,1282,0,0
259,-258,0,0,0,0,0,0,0,0,0,-1,1483,1282,0,0
266,-258,0,0,0,0,0,0,0,0,0,-1,1490,1282,0,0
273,-258,0,0,0,0,0,0,0,0,0,-1,1497,1282,0,0
280,-258,0,0,0,0,0,0,0,0,0,-1,1504,1282,0,0
287,-258,0,0,0,0,0,0,0,0,0,-1,1511,1282,0,0
294,-258,0,0,0,0,0,0,0,0,0,-1,1518,1282,0,0
301,-258,0,0,0,0,0,0,0,0,0,-1,1525,1282,0,0
308,-258,0,0,0,0,0,0,0,0,0,-1,1532,1282,0,0
315,-258,0,0,0,0,0,0,0,0,0,-1,1539,1282,0,0
322,-258,0,0,0,0,0,0,0,0,0,-1,1546,1282,0,0
329,-258,0,0,0,0,0,0,0,0,0,-1,1553,1282,0,0
336,-258,0,0,0,0,0,0,0,0,0,-1,1560,1282,0,0
343,-258,0,0,0,0,0,0,0,0,0,-1,1567,1282,0,0
350,-258,0,0,0,0,0,0,0,0,0,-1,1574,1282,0,0
357,-258,0,0,0,0,0,0,0,0,0,-1,1581,1282,0,0
364,-258,0,0,0,0,0,0,0,0,0,-1,1588,1282,0,0
371,-258,0,0,0,0,0,0,0,0,0,-1,1595,1282,0,0
378,-258,0,0,0,0,0,0,0,0,0,-1,1602,1282,0,0
385,-258,0,0,0,0,0,0,0,0,0,-1,1609,1282,0,0
392,-258,0,0,0,0,0,0,0,0,0,-1,1616,1282,0,0
399,-258,0,0,0,0,0,0,0,0,0,-1,1623,1282,0,0
406,-258,0,0,0,0,0,0,0,0,0,-1,1630,1282,0,0
413,-258,0,0,0,0,0,0,0,0,0,-1,1637,1282,0,0
420,-258,0,0,0,0,0,0,0,0,0,-1,1644,1282,0,0
427,-258,0,0,0,0,0,0,0,0,0,-1,1651,1282,0,0
434,-258,0,0,0,0,0,0,0,0,0,-1,1658,1282,0,0
441,-258,0,0,0,0,0,0,0,0,0,-1,1665,1282,0,0
448,-258,0,0,0,0,0,0,0,0,0,-1,1672,1282,0,0
455,-258,0,0,0,0,0,0,0,0,0,-1,1679,1282,0,0
462,-258,0,0,0,0,0,0,0,0,0,-1,1686,1282,0,0
469,-258,0,0,0,0,0,0,0,0,0,-1,1693,1282,0,0
476,-258,0,0,0,0,0,0,0,0,0,-1,1700,1282,0,0
483,-258,0,0,0,0,0,0,0,0,0,-1,1707,1282,0,0
490,-258,0,0,0,0,0,0,0,0,0,-1,1714,1282,0,0
497,-258,0,0,0,0,0,0,0,0,0,-1,1721,1282,0,0
504,-258,0,0,0,0,0,0,0,0,0,-1,1728,1282,0,0
511,-258,0,0,0,0,0,0,0,0,0,-1,1735,1282,0,0
518,-258,0,0,0,0,0,0,0,0,0,-1,1742,1282,0,0
525,-258,0,0,0,0,0,0,0,0,0,-1,1749,1282,0,0
532,-258,0,0,0,0,0,0,0,0,0,-1,1756,1282,0,0
539,-258,0,0,0,0,0,0,0,0,0,-1,1763,1282,0,0
546,-258,0,0,0,0,0,0,0,0,0,-1,1770,1282,0,0
553,-258,0,0,0,0,0,0,0,0,0,-1,1777,1282,0,0
560,-258,0,0,0,0,0,0,0,0,0,-1,1784,1282,0,0
567,-258,0,0,0,0,0,0,0,0,0,-1,1791,1282,0,0
574,-258,0,0,0,0,0,0,0,0,0,-1,1798,1282,0,0
581,-258,0,0,0,0,0,0,0,0,0,-1,1805,1282,0,0
588,-258,0,0,0,0,0,0,0,0,0,-1,1812,1282,0,0
595,-258,0,0,0,0,0,0,0,0,0,-1,1819,1282,0,0
602,-258,0,0,0,0,0,0,0,0,0,-1,1826,1282,0,0
609,-258,79.8976,2.31348,-0.00173675,0.0116197,1.83092e-05,0.0116197,-0.00173677,1.56943,0.00838555,0.024234,1833,1282,79.8975,-2.3135
616,-258,79.8873,2.26208,-0.00327415,0.0131876,0.00155588,0.0133333,-0.00341991,1.47738,0.0102214,0.0235548,1840,1282,79.8873,-2.26204
623,-258,79.8462,2.22388,-0.00458027,0.0133748,0.00275452,0.0137879,-0.00499334,1.42194,0.0112326,0.0335718,1847,1282,79.8462,-2.22389
630,-258,79.8788,2.22131,-0.00498481,0.0112803,0.00326356,0.0119107,-0.00561521,1.37998,0.0103339,0.043204,1854,1282,79.8788,-2.22133
637,-258,79.8771,2.43811,-0.00418749,0.00805901,0.00294424,0.00873007,-0.00485855,1.3467,0.00795083,0.045051,1861,1282,79.8771,-2.43815
644,-258,79.8231,2.79272,0,0,0,0,0,0,0,-1,1868,1282,79.8231,-2.79276
651,-258,77.8041,3.65466,0,0,0,0,0,0,0,-1,1875,1282,77.8041,-3.65469
658,-258,45.4424,3.1405,0,0,0,0,0,0,0,-1,1882,1282,45.4423,-3.14046
665,-258,35.4747,1.1864,0,0,0,0,0,0,0,-1,1889,1282,35.4747,-1.18637
672,-258,22.703,2.80957,0,0,0,0,0,0,0,-1,1896,1282,22.703,-2.80962
679,-258,26.8693,8.19543,0,0,0,0,0,0,0,-1,1903,1282,26.8692,-8.19548
686,-258,57.4268,15.8093,0,0,0,0,0,0,0,-1,1910,1282,57.4267,-15.8093
693,-258,57.3136,14.9146,-7.49266e-05,-0.00174998,0.000576985,0.000104583,-0.00192949,0.301623,0.00132257,0.0336275,1917,1282,57.3137,-14.9145
700,-258,57.269,14.064,0.000852595,-0.000262918,0.000398264,0.00098019,-0.000390513,0.310046,0.000815421,0.0112414,1924,1282,57.269,-14.0639
707,-258,57.2495,13.2577,0.000214833,-0.000353884,0.000884241,0.000859313,-0.000998365,0.629828,0.00107353,0.0121831,1931,1282,57.2495,-13.2576
714,-258,57.2227,12.4482,-0.000778079,-0.000414261,0.00151321,0.000927936,-0.00212028,0.845218,0.00180421,0.0132936,1938,1282,57.2227,-12.4483
721,-258,57.1604,11.6239,-0.00197279,-0.000546836,0.00227025,0.00111976,-0.00363938,0.937547,0.00287319,0.0238635,1945,1282,57.1604,-11.6239
728,-258,57.0585,10.8854,-0.00334119,-0.000783807,0.00317642,0.00136164,-0.00548664,0.976753,0.00418612,0.0234154,1952,1282,57.0585,-10.8854
735,-258,57.0505,10.0626,-0.00490306,-0.00114694,0.00425935,0.00163001,-0.00768002,0.99304,0.005741,0.0193926,1959,1282,57.0506,-10.0626
742,-258,56.9865,9.29126,-0.0066755,-0.00166094,0.00556152,0.00193235,-0.0102688,0.997169,0.00757261,0.0181207,1966,1282,56.9865,-9.2913
749,-258,56.7732,8.62085,-0.00870358,-0.00246329,0.00717828,0.00224364,-0.0134105,0.990412,0.00977443,0.0406447,1973,1282,56.7731,-8.62089
756,-258,56.5594,7.79907,0,0,0,0,0,0,0,-1,1980,1282,56.5595,-7.79908
763,-258,39.3638,5.09753,0,0,0,0,0,0,0,-1,1987,1282,39.3638,-5.09751
770,-258,40.3713,4.08325,0,0,0,0,0,0,0,-1,1994,1282,40.3713,-4.08323
777,-258,31.912,4.83093,0,0,0,0,0,0,0,-1,2001,1282,31.912,-4.8309
784,-258,32.6525,6.43091,0,0,0,0,0,0,0,-1,2008,1282,32.6525,-6.43091
791,-258,0,0,0,0,0,0,0,0,0,-1,2015,1282,0,0
798,-258,0,0,0,0,0,0,0,0,0,-1,2022,1282,0,0
805,-258,0,0,0,0,0,0,0,0,0,-1,2029,1282,0,0
812,-258,0,0,0,0,0,0,0,0,0,-1,2036,1282,0,0
-700,-265,0,0,0,0,0,0,0,0,0,-1,524,1289,0,0
-693,-265,0,0,0,0,0,0,0,0,0,-1,531,1289,0,0
-686,-265,0,0,0,0,0,0,0,0,0,-1,538,1289,0,0
-679,-265,0,0,0,0,0,0,0,0,0,-1,545,1289,0,0
-672,-265,0,0,0,0,0,0,0,0,0,-1,552,1289,0,0
-665,-265,-44.553,1.771,0,0,0,0,0,0,0,-1,559,1289,-44.553,-1.77096
-658,-265,-44.9351,1.32117,0,0,0,0,0,0,0,-1,566,1289,-44.9351,-1.32118
-651,-265,-44.821,1.0614,0,0,0,0,0,0,0,-1,573,1289,-44.821,-1.06141
-644,-265,-44.4684,0.304932,0,0,0,0,0,0,0,-1,580,1289,-44.4684,-0.304991
-637,-265,-44.6157,0.250122,0,0,0,0,0,0,0,-1,587,1289,-44.6157,-0.250067
-630,-265,-44.5689,0.900269,0,0,0,0,0,0,0,-1,594,1289,-44.5689,-0.900302
-623,-265,-39.3619,7.26135,0,0,0,0,0,0,0,-1,601,1289,-39.3619,-7.26139
-616,-265,-39.3718,8.03613,0.0147269,0.00257933,0.00605176,0.0172272,7.90516e-05,0.391791,0.0114585,0.0461621,608,1289,-39.3718,-8.03608
-609,-265,-39.3956,8.86938,0.00504775,-0.000566133,0.000256843,0.00505948,-0.000577859,0.0456244,0.00358118,0.0185346,615,1289,-39.3956,-8.86944
-602,-265,-39.4684,9.73987,0.00289167,-0.000219493,-0.000147459,0.00289864,-0.000226467,-0.0472557,0.00201217,0.0147063,622,1289,-39.4684,-9.73989
-595,-265,-39.5132,10.609,0.000974726,-0.00018216,-0.000692124,0.0012983,-0.000505733,-0.437317,0.00107454,0.0129063,629,1289,-39.5132,-10.609
-588,-265,-39.5578,11.4275,-0.000748129,-0.000302883,-0.00121983,0.000714476,-0.00176549,-0.875656,0.00147404,0.0118628,636,1289,-39.5578,-11.4274
-581,-265,-39.6086,12.2211,-0.00239608,-0.000578367,-0.00177198,0.000504239,-0.00347869,-1.02236,0.00250418,0.0140557,643,1289,-39.6086,-12.2211
-574,-265,-39.658,13.105,-0.00391134,-0.00101,-0.00231527,0.00027153,-0.00519287,-1.06526,0.00355588,0.0157136,650,1289,-39.658,-13.105
-567,-265,-39.8591,13.9117,-0.0051421,-0.00164871,-0.00275385,-0.000134322,-0.00665649,-1.06802,0.00439357,0.0265615,657,1289,-39.8592,-13.9118
-560,-265,-40.2167,14.7017,-0.00550167,-0.00202191,-0.00292011,-0.000362641,-0.00716094,-1.05407,0.00465779,0.0382072,664,1289,-40.2167,-14.7016
-553,-265,-40.3251,15.4976,0,0,0,0,0,0,0,-1,671,1289,-40.3252,-15.4976
-546,-265,-24.2283,10.2581,0,0,0,0,0,0,0,-1,678,1289,-24.2283,-10.258
-539,-265,-13.7668,6.39917,0,0,0,0,0,0,0,-1,685,1289,-13.7668,-6.39915
-532,-265,-8.53998,3.41467,0,0,0,0,0,0,0,-1,692,1289,-8.53996,-3.41473
-525,-265,-12.1317,0.514648,0,0,0,0,0,0,0,-1,699,1289,-12.1317,-0.514634
-518,-265,-24.1604,0.712402,0,0,0,0,0,0,0,-1,706,1289,-24.1604,-0.712425
-511,-265,-23.233,0.791626,0,0,0,0,0,0,0,-1,713,1289,-23.233,-0.791617
-504,-265,-22.3056,0.87085,0,0,0,0,0,0,0,-1,720,1289,-22.3056,-0.87081
-497,-265,-18.689,-0.278442,0,0,0,0,0,0,0,-1,727,1289,-18.689,0.278423
-490,-265,-15.1696,0.492676,0,0,0,0,0,0,0,-1,734,1289,-15.1696,-0.492688
-483,-265,0,0,0,0,0,0,0,0,0,-1,741,1289,0,0
-476,-265,0,0,0,0,0,0,0,0,0,-1,748,1289,0,0
-469,-265,0,0,0,0,0,0,0,0,0,-1,755,1289,0,0
-462,-265,0,0,0,0,0,0,0,0,0,-1,762,1289,0,0
-455,-265,0,0,0,0,0,0,0,0,0,-1,769,1289,0,0
-448,-265,0,0,0,0,0,0,0,0,0,-1,776,1289,0,0
-441,-265,0,0,0,0,0,0,0,0,0,-1,783,1289,0,0
-434,-265,0,0,0,0,0,0,0,0,0,-1,790,1289,0,0
-427,-265,0,0,0,0,0,0,0,0,0,-1,797,1289,0,0
-420,-265,0,0,0,0,0,0,0,0,0,-1,804,1289,0,0
-413,-265,0,0,0,0,0,0,0,0,0,-1,811,1289,0,0
-406,-265,0,0,0,0,0,0,0,0,0,-1,818,1289,0,0
-399,-265,0,0,0,0,0,0,0,0,0,-1,825,1289,0,0
-392,-265,0,0,0,0,0,0,0,0,0,-1,832,1289,0,0
-385,-265,0,0,0,0,0,0,0,0,0,-1,839,1289,0,0
-378,-265,0,0,0,0,0,0,0,0,0,-1,846,1289,0,0
-371,-265,0,0,0,0,0,0,0,0,0,-1,853,1289,0,0
-364,-265,0,0,0,0,0,0,0,0,0,-1,860,1289,0,0
-357,-265,0,0,0,0,0,0,0,0,0,-1,867,1289,0,0
-350,-265,0,0,0,0,0,0,0,0,0,-1,874,1289,0,0
-343,-265,0,0,0,0,0,0,0,0,0,-1,881,1289,0,0
-336,-265,0,0,0,0,0,0,0,0,0,-1,888,1289,0,0
-329,-265,0,0,0,0,0,0,0,0,0,-1,895,1289,0,0
-322,-265,0,0,0,0,0,0,0,0,0,-1,902,1289,0,0
-315,-265,0,0,0,0,0,0,0,0,0,-1,909,1289,0,0
-308,-265,0,0,0,0,0,0,0,0,0,-1,916,1289,0,0
-301,-265,0,0,0,0,0,0,0,0,0,-1,923,1289,0,0
-294,-265,0,0,0,0,0,0,0,0,0,-1,930,1289,0,0
-287,-265,0,0,0,0,0,0,0,0,0,-1,937,1289,0,0
-280,-265,0,0,0,0,0,0,0,0,0,-1,944,1289,0,0
-273,-265,0,0,0,0,0,0,0,0,0,-1,951,1289,0,0
-266,-265,0,0,0,0,0,0,0,0,0,-1,958,1289,0,0
-259,-265,0,0,0,0,0,0,0,0,0,-1,965,1289,0,0
-252,-265,0,0,0,0,0,0,0,0,0,-1,972,1289,0,0
-245,-265,0,0,0,0,0,0,0,0,0,-1,979,1289,0,0
-238,-265,0,0,0,0,0,0,0,0,0,-1,986,1289,0,0
-231,-265,0,0,0,0,0,0,0,0,0,-1,993,1289,0,0
-224,-265,0,0,0,0,0,0,0,0,0,-1,1000,1289,0,0
-217,-265,0,0,0,0,0,0,0,0,0,-1,1007,1289,0,0
-210,-265,0,0,0,0,0,0,0,0,0,-1,1014,1289,0,0
-203,-265,0,0,0,0,0,0,0,0,0,-1,1021,1289,0,0
-196,-265,0,0,0,0,0,0,0,0,0,-1,1028,1289,0,0
-189,-265,0,0,0,0,0,0,0,0,0,-1,1035,1289,0,0
-182,-265,0,0,0,0,0,0,0,0,0,-1,1042,1289,0,0
-175,-265,0,0,0,0,0,0,0,0,0,-1,1049,1289,0,0
-168,-265,0,0,0,0,0,0,0,0,0,-1,1056,1289,0,0
-161,-265,0,0,0,0,0,0,0,0,0,-1,1063,1289,0,0
-154,-265,0,0,0,0,0,0,0,0,0,-1,1070,1289,0,0
-147,-265,0,0,0,0,0,0,0,0,0,-1,1077,1289,0,0
-140,-265,0,0,0,0,0,0,0,0,0,-1,1084,1289,0,0
-133,-265,0,0,0,0,0,0,0,0,0,-1,1091,1289,0,0
-126,-265,0,0,0,0,0,0,0,0,0,-1,1098,1289,0,0
-119,-265,0,0,0,0,0,0,0,0,0,-1,1105,1289,0,0
-112,-265,0,0,0,0,0,0,0,0,0,-1,1112,1289,0,0
-105,-265,0,0,0,0,0,0,0,0,0,-1,1119,1289,0,0
-98,-265,0,0,0,0,0,0,0,0,0,-1,1126,1289,0,0
-91,-265,0,0,0,0,0,0,0,0,0,-1,1133,1289,0,0
-84,-265,0,0,0,0,0,0,0,0,0,-1,1140,1289,0,0
-77,-265,0,0,0,0,0,0,0,0,0,-1,1147,1289,0,0
-70,-265,0,0,0,0,0,0,0,0,0,-1,1154,1289,0,0
-63,-265,0,0,0,0,0,0,0,0,0,-1,1161,1289,0,0
-56,-265,0,0,0,0,0,0,0,0,0,-1,1168,1289,0,0
-49,-265,0,0,0,0,0,0,0,0,0,-1,1175,1289,0,0
-42,-265,0,0,0,0,0,0,0,0,0,-1,1182,1289,0,0
-35,-265,0,0,0,0,0,0,0,0,0,-1,1189,1289,0,0
-28,-265,0,0,0,0,0,0,0,0,0,-1,1196,1289,0,0
-21,-265,0,0,0,0,0,0,0,0,0,-1,1203,1289,0,0
-14,-265,0,0,0,0,0,0,0,0,0,-1,1210,1289,0,0
-7,-265,0,0,0,0,0,0,0,0,0,-1,1217,1289,0,0
0,-265,0,0,0,0,0,0,0,0,0,-1,1224,1289,0,0
7,-265,0,0,0,0,0,0,0,0,0,-1,1231,1289,0,0
14,-265,0,0,0,0,0,0,0,0,0,-1,1238,1289,0,0
21,-265,0,0,0,0,0,0,0,0,0,-1,1245,1289,0,0
28,-265,0,0,0,0,0,0,0,0,0,-1,1252,1289,0,0
35,-265,0,0,0,0,0,0,0,0,0,-1,1259,1289,0,0
42,-265,0,0,0,0,0,0,0,0,0,-1,1266,1289,0,0
49,-265,0,0,0,0,0,0,0,0,0,-1,1273,1289,0,0
56,-265,0,0,0,0,0,0,0,0,0,-1,1280,1289,0,0
63,-265,0,0,0,0,0,0,0,0,0,-1,1287,1289,0,0
70,-265,0,0,0,0,0,0,0,0,0,-1,1294,1289,0,0
77,-265,0,0,0,0,0,0,0,0,0,-1,1301,1289,0,0
84,-265,0,0,0,0,0,0,0,0,0,-1,1308,1289,0,0
91,-265,0,0,0,0,0,0,0,0,0,-1,1315,1289,0,0
98,-265,0,0,0,0,0,0,0,0,0,-1,1322,1289,0,0
105,-265,0,0,0,0,0,0,0,0,0,-1,1329,1289,0,0
112,-265,0,0,0,0,0,0,0,0,0,-1,1336,1289,0,0
119,-265,0,0,0,0,0,0,0,0,0,-1,1343,1289,0,0
126,-265,0,0,0,0,0,0,0,0,0,-1,1350,1289,0,0
133,-265,0,0,0,0,0,0,0,0,0,-1,1357,1289,0,0
140,-265,0,0,0,0,0,0,0,0,0,-1,1364,1289,0,0
147,-265,0,0,0,0,0,0,0,0,0,-1,1371,1289,0,0
154,-265,0,0,0,0,0,0,0,0,0,-1,1378,1289,0,0
161,-265,0,0,0,0,0,0,0,0,0,-1,1385,1289,0,0
168,-265,0,0,0,0,0,0,0,0,0,-1,1392,1289,0,0
175,-265,0,0,0,0,0,0,0,0,0,-1,1399,1289,0,0
182,-265,0,0,0,0,0,0,0,0,0,-1,1406,1289,0,0
189,-265,0,0,0,0,0,0,0,0,0,-1,1413,1289,0,0
196,-265,0,0,0,0,0,0,0,0,0,-1,1420,1289,0,0
203,-265,0,0,0,0,0,0,0,0,0,-1,1427,1289,0,0
210,-265,0,0,0,0,0,0,0,0,0,-1,1434,1289,0,0
217,-265,0,0,0,0,0,0,0,0,0,-1,1441,1289,0,0
224,-265,0,0,0,0,0,0,0,0,0,-1,1448,1289,0,0
231,-265,0,0,0,0,0,0,0,0,0,-1,1455,1289,0,0
238,-265,0,0,0,0,0,0,0,0,0,-1,1462,1289,0,0
245,-265,0,0,0,0,0,0,0,0,0,-1,1469,1289,0,0
252,-265,0,0,0,0,0,0,0,0,0,-1,1476,1289,0,0
259,-265,0,0,0,0,0,0,0,0,0,-1,1483,1289,0,0
266,-265,0,0,0,0,0,0,0,0,0,-1,1490,1289,0,0
273,-265,0,0,0,0,0,0,0,0,0,-1,1497,1289,0,0
280,-265,0,0,0,0,0,0,0,0,0,-1,1504,1289,0,0
287,-265,0,0,0,0,0,0,0,0,0,-1,1511,1289,0,0
294,-265,0,0,0,0,0,0,0,0,0,-1,1518,1289,0,0
301,-265,0,0,0,0,0,0,0,0,0,-1,1525,1289,0,0
308,-265,0,0,0,0,0,0,0,0,0,-1,1532,1289,0,0
315,-265,0,0,0,0,0,0,0,0,0,-1,1539,1289,0,0
322,-265,0,0,0,0,0,0,0,0,0,-1,1546,1289,0,0
329,-265,0,0,0,0,0,0,0,0,0,-1,1553,1289,0,0
336,-265,0,0,0,0,0,0,0,0,0,-1,1560,1289,0,0
343,-265,0,0,0,0,0,0,0,0,0,-1,1567,1289,0,0
350,-265,0,0,0,0,0,0,0,0,0,-1,1574,1289,0,0
357,-265,0,0,0,0,0,0,0,0,0,-1,1581,1289,0,0
364,-265,0,0,0,0,0,0,0,0,0,-1,1588,1289,0,0
371,-265,0,0,0,0,0,0,0,0,0,-1,1595,1289,0,0
378,-265,0,0,0,0,0,0,0,0,0,-1,1602,1289,0,0
385,-265,0,0,0,0,0,0,0,0,0,-1,1609,1289,0,0
392,-265,0,0,0,0,0,0,0,0,0,-1,1616,1289,0,0
399,-265,0,0,0,0,0,0,0,0,0,-1,1623,1289,0,0
406,-265,0,0,0,0,0,0,0,0,0,-1,1630,1289,0,0
413,-265,0,0,0,0,0,0,0,0,0,-1,1637,1289,0,0
420,-265,0,0,0,0,0,0,0,0,0,-1,1644,1289,0,0
427,-265,0,0,0,0,0,0,0,0,0,-1,1651,1289,0,0
434,-265,0,0,0,0,0,0,0,0,0,-1,1658,1289,0,0
441,-265,0,0,0,0,0,0,0,0,0,-1,1665,1289,0,0
448,-265,0,0,0,0,0,0,0,0,0,-1,1672,1289,0,0
455,-265,0,0,0,0,0,0,0,0,0,-1,1679,1289,0,0
462,-265,0,0,0,0,0,0,0,0,0,-1,1686,1289,0,0
469,-265,0,0,0,0,0,0,0,0,0,-1,1693,1289,0,0
476,-265,0,0,0,0,0,0,0,0,0,-1,1700,1289,0,0
483,-265,0,0,0,0,0,0,0,0,0,-1,1707,1289,0,0
490,-265,0,0,0,0,0,0,0,0,0,-1,1714,1289,0,0
497,-265,0,0,0,0,0,0,0,0,0,-1,1721,1289,0,0
504,-265,0,0,0,0,0,0,0,0,0,-1,1728,1289,0,0
511,-265,0,0,0,0,0,0,0,0,0,-1,1735,1289,0,0
518,-265,0,0,0,0,0,0,0,0,0,-1,1742,1289,0,0
525,-265,0,0,0,0,0,0,0,0,0,-1,1749,1289,0,0
532,-265,0,0,0,0,0,0,0,0,0,-1,1756,1289,0,0
539,-265,0,0,0,0,0,0,0,0,0,-1,1763,1289,0,0
546,-265,0,0,0,0,0,0,0,0,0,-1,1770,1289,0,0
553,-265,0,0,0,0,0,0,0,0,0,-1,1777,1289,0,0
560,-265,0,0,0,0,0,0,0,0,0,-1,1784,1289,0,0
567,-265,0,0,0,0,0,0,0,0,0,-1,1791,1289,0,0
574,-265,0,0,0,0,0,0,0,0,0,-1,1798,1289,0,0
581,-265,0,0,0,0,0,0,0,0,0,-1,1805,1289,0,0
588,-265,0,0,0,0,0,0,0,0,0,-1,1812,1289,0,0
595,-265,0,0,0,0,0,0,0,0,0,-1,1819,1289,0,0
602,-265,79.8384,2.23877,-0.00184713,0.0144719,-0.00179003,0.014666,-0.00204117,-1.46282,0.0105239,0.0258429,1826,1289,79.8384,-2.2388
609,-265,79.8445,2.23267,-0.00332913,0.0174603,0.000123577,0.0174611,-0.00332986,1.56485,0.0128948,0.0267011,1833,1289,79.8444,-2.23268
616,-265,79.7814,2.17078,-0.00489014,0.0193774,0.00192269,0.0195288,-0.00504153,1.49222,0.0149851,0.0334734,1840,1289,79.7814,-2.17082
623,-265,79.7417,2.04333,-0.00558092,0.0183194,0.0029597,0.0186805,-0.00594198,1.4494,0.0148364,0.0454273,1847,1289,79.7416,-2.04328
630,-265,79.6787,1.79688,-0.00523728,0.0145517,0.00317571,0.0150488,-0.00573442,1.41551,0.0123944,0.0418848,1854,1289,79.6787,-1.79691
637,-265,79.5793,2.24146,0,0,0,0,0,0,0,-1,1861,1289,79.5794,-2.2414
644,-265,77.3746,2.97742,0,0,0,0,0,0,0,-1,1868,1289,77.3746,-2.97738
651,-265,53.6781,1.57166,0,0,0,0,0,0,0,-1,1875,1289,53.6781,-1.57167
658,-265,41.7163,3.71619,0,0,0,0,0,0,0,-1,1882,1289,41.7163,-3.71624
665,-265,34.7902,1.43164,0,0,0,0,0,0,0,-1,1889,1289,34.7901,-1.43162
672,-265,20.0045,6.62671,0,0,0,0,0,0,0,-1,1896,1289,20.0045,-6.62668
679,-265,48.9694,14.0298,0,0,0,0,0,0,0,-1,1903,1289,48.9694,-14.0297
686,-265,56.5482,15.9198,0,0,0,0,0,0,0,-1,1910,1289,56.5482,-15.9198
693,-265,56.4963,14.96,0.000143522,-0.00192029,0.000384579,0.000212857,-0.00198963,0.178371,0.00140276,0.0197842,1917,1289,56.4963,-14.9599
700,-265,56.4659,14.1064,0.000930057,-0.000436301,0.000252492,0.000975222,-0.000481467,0.177007,0.000856973,0.0100188,1924,1289,56.4659,-14.1065
707,-265,56.4277,13.2931,0.000157915,-0.00048785,0.000819796,0.000716122,-0.00104606,0.597798,0.00102332,0.01083,1931,1289,56.4278,-13.293
714,-265,56.3771,12.4745,-0.000872462,-0.000519528,0.00152157,0.000835776,-0.00222777,0.843129,0.00182858,0.0140188,1938,1289,56.3771,-12.4744
721,-265,56.2628,11.6421,-0.00207589,-0.0006419,0.00234161,0.00109003,-0.00380782,0.933965,0.00296935,0.0169534,1945,1289,56.2628,-11.642
728,-265,56.1895,10.8843,-0.00345571,-0.0008818,0.00330129,0.00137451,-0.00571202,0.971254,0.00433937,0.0167025,1952,1289,56.1895,-10.8843
735,-265,56.2328,10.1014,-0.00505508,-0.00125602,0.00442885,0.00166347,-0.00797457,0.987982,0.00594891,0.0166601,1959,1289,56.2328,-10.1014
742,-265,56.1797,9.30322,-0.00690046,-0.00179372,0.00576708,0.00195996,-0.0106541,0.993802,0.00783819,0.0199826,1966,1289,56.1797,-9.30317
749,-265,56.0713,8.41443,-0.00906702,-0.00267841,0.00743227,0.00221692,-0.0139623,0.988358,0.0101284,0.0473713,1973,1289,56.0713,-8.41443
756,-265,56.0557,7.52283,0,0,0,0,0,0,0,-1,1980,1289,56.0556,-7.52285
763,-265,39.1299,4.9679,0,0,0,0,0,0,0,-1,1987,1289,39.1299,-4.96791
770,-265,35.1674,5.07715,0,0,0,0,0,0,0,-1,1994,1289,35.1673,-5.07718
777,-265,32.1664,5.3457,0,0,0,0,0,0,0,-1,2001,1289,32.1664,-5.34568
784,-265,0,0,0,0,0,0,0,0,0,-1,2008,1289,0,0
791,-265,0,0,0,0,0,0,0,0,0,-1,2015,1289,0,0
798,-265,0,0,0,0,0,0,0,0,0,-1,2022,1289,0,0
805,-265,0,0,0,0,0,0,0,0,0,-1,2029,1289,0,0
812,-265,0,0,0,0,0,0,0,0,0,-1,2036,1289,0,0
-700,-272,0,0,0,0,0,0,0,0,0,-1,524,1296,0,0
-693,-272,0,0,0,0,0,0,0,0,0,-1,531,1296,0,0
-686,-272,0,0,0,0,0,0,0,0,0,-1,538,1296,0,0
-679,-272,0,0,0,0,0,0,0,0,0,-1,545,1296,0,0
-672,-272,0,0,0,0,0,0,0,0,0,-1,552,1296,0,0
-665,-272,0,0,0,0,0,0,0,0,0,-1,559,1296,0,0
-658,-272,-44.6526,1.54443,0,0,0,0,0,0,0,-1,566,1296,-44.6526,-1.5444
-651,-272,-44.3723,1.53772,0,0,0,0,0,0,0,-1,573,1296,-44.3723,-1.53774
-644,-272,-44.1104,1.46021,0,0,0,0,0,0,0,-1,580,1296,-44.1104,-1.46022
-637,-272,-43.9348,1.25171,0,0,0,0,0,0,0,-1,587,1296,-43.9348,-1.25175
-630,-272,-43.5906,0.784912,0,0,0,0,0,0,0,-1,594,1296,-43.5906,-0.784935
-623,-272,-36.8673,6.23547,0,0,0,0,0,0,0,-1,601,1296,-36.8673,-6.23548
-616,-272,-38.5624,8.3252,0,0,0,0,0,0,0,-1,608,1296,-38.5624,-8.32517
-609,-272,-38.4996,9.06848,0.00580042,0.000250815,0.000653294,0.00587629,0.000174947,0.115614,0.00386053,0.0285632,615,1296,-38.4996,-9.06854
-602,-272,-38.578,9.74707,0.00363658,0.000410227,0.000361297,0.00367654,0.000370262,0.110165,0.0023374,0.0150401,622,1296,-38.578,-9.74702
-595,-272,-38.655,10.6245,0.00175021,0.000259986,-0.000145012,0.00176419,0.000246006,-0.0961075,0.0011033,0.012569,629,1296,-38.655,-10.6245
-588,-272,-38.7165,11.4692,0.000143435,9.81262e-06,-0.000613472,0.000693723,-0.000540476,-0.731159,0.000714394,0.011922,636,1296,-38.7165,-11.4693
-581,-272,-38.7846,12.2773,-0.00131578,-0.000352417,-0.00109186,0.000359293,-0.00202749,-0.993135,0.00148597,0.0106251,643,1296,-38.7846,-12.2774
-574,-272,-38.8128,13.1506,-0.00260715,-0.000795502,-0.00155455,9.78758e-05,-0.00350053,-1.0492,0.00236699,0.0165899,650,1296,-38.8128,-13.1506
-567,-272,-38.8834,13.9849,-0.00363283,-0.00131355,-0.00195982,-0.000195983,-0.00475039,-1.05255,0.00310367,0.0251334,657,1296,-38.8834,-13.9848
-560,-272,-39.1577,14.8054,-0.00397432,-0.00168451,-0.00219764,-0.00035142,-0.00530741,-1.02554,0.00342714,0.0278477,664,1296,-39.1577,-14.8054
-553,-272,-39.2271,15.6377,-0.00324968,-0.00237998,-0.002054,-0.000715297,-0.00491436,-0.889712,0.00306575,0.0417593,671,1296,-39.227,-15.6376
-546,-272,-39.4842,16.5737,0,0,0,0,0,0,0,-1,678,1296,-39.4842,-16.5737
-539,-272,-24.1416,11.0325,0,0,0,0,0,0,0,-1,685,1296,-24.1416,-11.0324
-532,-272,-10.5572,4.53943,0,0,0,0,0,0,0,-1,692,1296,-10.5572,-4.53943
-525,-272,-11.9599,0.0393066,0,0,0,0,0,0,0,-1,699,1296,-11.9599,-0.0393577
-518,-272,-21.1357,-1.41382,0,0,0,0,0,0,0,-1,706,1296,-21.1357,1.41379
-511,-272,-23.2565,0.226318,0,0,0,0,0,0,0,-1,713,1296,-23.2565,-0.22626
-504,-272,-19.7397,0.114746,0,0,0,0,0,0,0,-1,720,1296,-19.7397,-0.114701
-497,-272,-19.2225,1.71301,0,0,0,0,0,0,0,-1,727,1296,-19.2225,-1.71302
-490,-272,-20.1948,2.4032,0,0,0,0,0,0,0,-1,734,1296,-20.1948,-2.40322
-483,-272,-15.3736,0.792603,0,0,0,0,0,0,0,-1,741,1296,-15.3736,-0.79263
-476,-272,0,0,0,0,0,0,0,0,0,-1,748,1296,0,0
-469,-272,0,0,0,0,0,0,0,0,0,-1,755,1296,0,0
-462,-272,0,0,0,0,0,0,0,0,0,-1,762,1296,0,0
-455,-272,0,0,0,0,0,0,0,0,0,-1,769,1296,0,0
-448,-272,0,0,0,0,0,0,0,0,0,-1,776,1296,0,0
-441,-272,0,0,0,0,0,0,0,0,0,-1,783,1296,0,0
-434,-272,0,0,0,0,0,0,0,0,0,-1,790,1296,0,0
-427,-272,0,0,0,0,0,0,0,0,0,-1,797,1296,0,0
-420,-272,0,0,0,0,0,0,0,0,0,-1,804,1296,0,0
-413,-272,0,0,0,0,0,0,0,0,0,-1,811,1296,0,0
-406,-272,0,0,0,0,0,0,0,0,0,-1,818,1296,0,0
-399,-272,0,0,0,0,0,0,0,0,0,-1,825,1296,0,0
-392,-272,0,0,0,0,0,0,0,0,0,-1,832,1296,0,0
-385,-272,0,0,0,0,0,0,0,0,0,-1,839,1296,0,0
-378,-272,0,0,0,0,0,0,0,0,0,-1,846,1296,0,0
-371,-272,0,0,0,0,0,0,0,0,0,-1,853,1296,0,0
-364,-272,0,0,0,0,0,0,0,0,0,-1,860,1296,0,0
-357,-272,0,0,0,0,0,0,0,0,0,-1,867,1296,0,0
-350,-272,0,0,0,0,0,0,0,0,0,-1,874,1296,0,0
-343,-272,0,0,0,0,0,0,0,0,0,-1,881,1296,0,0
-336,-272,0,0,0,0,0,0,0,0,0,-1,888,1296,0,0
-329,-272,0,0,0,0,0,0,0,0,0,-1,895,1296,0,0
-322,-272,0,0,0,0,0,0,0,0,0,-1,902,1296,0,0
-315,-272,0,0,0,0,0,0,0,0,0,-1,909,1296,0,0
-308,-272,0,0,0,0,0,0,0,0,0,-1,916,1296,0,0
-301,-272,0,0,0,0,0,0,0,0,0,-1,923,1296,0,0
-294,-272,0,0,0,0,0,0,0,0,0,-1,930,1296,0,0
-287,-272,0,0,0,0,0,0,0,0,0,-1,937,1296,0,0
-280,-272,0,0,0,0,0,0,0,0,0,-1,944,1296,0,0
-273,-272,0,0,0,0,0,0,0,0,0,-1,951,1296,0,0
-266,-272,0,0,0,0,0,0,0,0,0,-1,958,1296,0,0
-259,-272,0,0,0,0,0,0,0,0,0,-1,965,1296,0,0
-252,-272,0,0,0,0,0,0,0,0,0,-1,972,1296,0,0
-245,-272,0,0,0,0,0,0,0,0,0,-1,979,1296,0,0
-238,-272,0,0,0,0,0,0,0,0,0,-1,986,1296,0,0
-231,-272,0,0,0,0,0,0,0,0,0,-1,993,1296,0,0
-224,-272,0,0,0,0,0,0,0,0,0,-1,1000,1296,0,0
-217,-272,0,0,0,0,0,0,0,0,0,-1,1007,1296,0,0
-210,-272,0,0,0,0,0,0,0,0,0,-1,1014,1296,0,0
-203,-272,0,0,0,0,0,0,0,0,0,-1,1021,1296,0,0
-196,-272,0,0,0,0,0,0,0,0,0,-1,1028,1296,0,0
-189,-272,0,0,0,0,0,0,0,0,0,-1,1035,1296,0,0
-182,-272,0,0,0,0,0,0,0,0,0,-1,1042,1296,0,0
-175,-272,0,0,0,0,0,0,0,0,0,-1,1049,1296,0,0
-168,-272,0,0,0,0,0,0,0,0,0,-1,1056,1296,0,0
-161,-272,0,0,0,0,0,0,0,0,0,-1,1063,1296,0,0
-154,-272,0,0,0,0,0,0,0,0,0,-1,1070,1296,0,0
-147,-272,0,0,0,0,0,0,0,0,0,-1,1077,1296,0,0
-140,-272,0,0,0,0,0,0,0,0,0,-1,1084,1296,0,0
-133,-272,0,0,0,0,0,0,0,0,0,-1,1091,1296,0,0
-126,-272,0,0,0,0,0,0,0,0,0,-1,1098,1296,0,0
-119,-272,0,0,0,0,0,0,0,0,0,-1,1105,1296,0,0
-112,-272,0,0,0,0,0,0,0,0,0,-1,1112,1296,0,0
-105,-272,0,0,0,0,0,0,0,0,0,-1,1119,1296,0,0
-98,-272,0,0,0,0,0,0,0,0,0,-1,1126,1296,0,0
-91,-272,0,0,0,0,0,0,0,0,0,-1,1133,1296,0,0
-84,-272,0,0,0,0,0,0,0,0,0,-1,1140,1296,0,0
-77,-272,0,0,0,0,0,0,0,0,0,-1,1147,1296,0,0
-70,-272,0,0,0,0,0,0,0,0,0,-1,1154,1296,0,0
-63,-272,0,0,0,0,0,0,0,0,0,-1,1161,1296,0,0
-56,-272,0,0,0,0,0,0,0,0,0,-1,1168,1296,0,0
-49,-272,0,0,0,0,0,0,0,0,0,-1,1175,1296,0,0
-42,-272,0,0,0,0,0,0,0,0,0,-1,1182,1296,0,0
-35,-272,0,0,0,0,0,0,0,0,0,-1,1189,1296,0,0
-28,-272,0,0,0,0,0,0,0,0,0,-1,1196,1296,0,0
-21,-272,0,0,0,0,0,0,0,0,0,-1,1203,1296,0,0
-14,-272,0,0,0,0,0,0,0,0,0,-1,1210,1296,0,0
-7,-272,0,0,0,0,0,0,0,0,0,-1,1217,1296,0,0
0,-272,0,0,0,0,0,0,0,0,0,-1,1224,1296,0,0
7,-272,0,0,0,0,0,0,0,0,0,-1,1231,1296,0,0
14,-272,0,0,0,0,0,0,0,0,0,-1,1238,1296,0,0
21,-272,0,0,0,0,0,0,0,0,0,-1,1245,1296,0,0
28,-272,0,0,0,0,0,0,0,0,0,-1,1252,1296,0,0
35,-272,0,0,0,0,0,0,0,0,0,-1,1259,1296,0,0
42,-272,0,0,0,0,0,0,0,0,0,-1,1266,1296,0,0
49,-272,0,0,0,0,0,0,0,0,0,-1,1273,1296,0,0
56,-272,0,0,0,0,0,0,0,0,0,-1,1280,1296,0,0
63,-272,0,0,0,0,0,0,0,0,0,-1,1287,1296,0,0
70,-272,0,0,0,0,0,0,0,0,0,-1,1294,1296,0,0
77,-272,0,0,0,0,0,0,0,0,0,-1,1301,1296,0,0
84,-272,0,0,0,0,0,0,0,0,0,-1,1308,1296,0,0
91,-272,0,0,0,0,0,0,0,0,0,-1,1315,1296,0,0
98,-272,0,0,0,0,0,0,0,0,0,-1,1322,1296,0,0
105,-272,0,0,0,0,0,0,0,0,0,-1,1329,1296,0,0
112,-272,0,0,0,0,0,0,0,0,0,-1,1336,1296,0,0
119,-272,0,0,0,0,0,0,0,0,0,-1,1343,1296,0,0
126,-272,0,0,0,0,0,0,0,0,0,-1,1350,1296,0,0
133,-272,0,0,0,0,0,0,0,0,0,-1,1357,1296,0,0
140,-272,0,0,0,0,0,0,0,0,0,-1,1364,1296,0,0
147,-272,0,0,0,0,0,0,0,0,0,-1,1371,1296,0,0
154,-272,0,0,0,0,0,0,0,0,0,-1,1378,1296,0,0
161,-272,0,0,0,0,0,0,0,0,0,-1,1385,1296,0,0
168,-272,0,0,0,0,0,0,0,0,0,-1,1392,1296,0,0
175,-272,0,0,0,0,0,0,0,0,0,-1,1399,1296,0,0
182,-272,0,0,0,0,0,0,0,0,0,-1,1406,1296,0,0
189,-272,0,0,0,0,0,0,0,0,0,-1,1413,1296,0,0
196,-272,0,0,0,0,0,0,0,0,0,-1,1420,1296,0,0
203,-272,0,0,0,0,0,0,0,0,0,-1,1427,1296,0,0
210,-272,0,0,0,0,0,0,0,0,0,-1,1434,1296,0,0
217,-272,0,0,0,0,0,0,0,0,0,-1,1441,1296,0,0
224,-272,0,0,0,0,0,0,0,0,0,-1,1448,1296,0,0
231,-272,0,0,0,0,0,0,0,0,0,-1,1455,1296,0,0
238,-272,0,0,0,0,0,0,0,0,0,-1,1462,1296,0,0
245,-272,0,0,0,0,0,0,0,0,0,-1,1469,1296,0,0
252,-272,0,0,0,0,0,0,0,0,0,-1,1476,1296,0,0
259,-272,0,0,0,0,0,0,0,0,0,-1,1483,1296,0,0
266,-272,0,0,0,0,0,0,0,0,0,-1,1490,1296,0,0
273,-272,0,0,0,0,0,0,0,0,0,-1,1497,1296,0,0
280,-272,0,0,0,0,0,0,0,0,0,-1,1504,1296,0,0
287,-272,0,0,0,0,0,0,0,0,0,-1,1511,1296,0,0
294,-272,0,0,0,0,0,0,0,0,0,-1,1518,1296,0,0
301,-272,0,0,0,0,0,0,0,0,0,-1,1525,1296,0,0
308,-272,0,0,0,0,0,0,0,0,0,-1,1532,1296,0,0
315,-272,0,0,0,0,0,0,0,0,0,-1,1539,1296,0,0
322,-272,0,0,0,0,0,0,0,0,0,-1,1546,1296,0,0
329,-272,0,0,0,0,0,0,0,0,0,-1,1553,1296,0,0
336,-272,0,0,0,0,0,0,0,0,0,-1,1560,1296,0,0
343,-272,0,0,0,0,0,0,0,0,0,-1,1567,1296,0,0
350,-272,0,0,0,0,0,0,0,0,0,-1,1574,1296,0,0
357,-272,0,0,0,0,0,0,0,0,0,-1,1581,1296,0,0
364,-272,0,0,0,0,0,0,0,0,0,-1,1588,1296,0,0
371,-272,0,0,0,0,0,0,0,0,0,-1,1595,1296,0,0
378,-272,0,0,0,0,0,0,0,0,0,-1,1602,1296,0,0
385,-272,0,0,0,0,0,0,0,0,0,-1,1609,1296,0,0
392,-272,0,0,0,0,0,0,0,0,0,-1,1616,1296,0,0
399,-272,0,0,0,0,0,0,0,0,0,-1,1623,1296,0,0
406,-272,0,0,0,0,0,0,0,0,0,-1,1630,1296,0,0
413,-272,0,0,0,0,0,0,0,0,0,-1,1637,1296,0,0
420,-272,0,0,0,0,0,0,0,0,0,-1,1644,1296,0,0
427,-272,0,0,0,0,0,0,0,0,0,-1,1651,1296,0,0
434,-272,0,0,0,0,0,0,0,0,0,-1,1658,1296,0,0
441,-272,0,0,0,0,0,0,0,0,0,-1,1665,1296,0,0
448,-272,0,0,0,0,0,0,0,0,0,-1,1672,1296,0,0
455,-272,0,0,0,0,0,0,0,0,0,-1,1679,1296,0,0
462,-272,0,0,0,0,0,0,0,0,0,-1,1686,1296,0,0
469,-272,0,0,0,0,0,0,0,0,0,-1,1693,1296,0,0
476,-272,0,0,0,0,0,0,0,0,0,-1,1700,1296,0,0
483,-272,0,0,0,0,0,0,0,0,0,-1,1707,1296,0,0
490,-272,0,0,0,0,0,0,0,0,0,-1,1714,1296,0,0
497,-272,0,0,0,0,0,0,0,0,0,-1,1721,1296,0,0
504,-272,0,0,0,0,0,0,0,0,0,-1,1728,1296,0,0
511,-272,0,0,0,0,0,0,0,0,0,-1,1735,1296,0,0
518,-272,0,0,0,0,0,0,0,0,0,-1,1742,1296,0,0
525,-272,0,0,0,0,0,0,0,0,0,-1,1749,1296,0,0
532,-272,0,0,0,0,0,0,0,0,0,-1,1756,1296,0,0
539,-272,0,0,0,0,0,0,0,0,0,-1,1763,1296,0,0
546,-272,0,0,0,0,0,0,0,0,0,-1,1770,1296,0,0
553,-272,0,0,0,0,0,0,0,0,0,-1,1777,1296,0,0
560,-272,0,0,0,0,0,0,0,0,0,-1,1784,1296,0,0
567,-272,0,0,0,0,0,0,0,0,0,-1,1791,1296,0,0
574,-272,0,0,0,0,0,0,0,0,0,-1,1798,1296,0,0
581,-272,0,0,0,0,0,0,0,0,0,-1,1805,1296,0,0
588,-272,0,0,0,0,0,0,0,0,0,-1,1812,1296,0,0
595,-272,0,0,0,0,0,0,0,0,0,-1,1819,1296,0,0
602,-272,79.8295,2.19788,-0.00364099,0.021558,-0.00189267,0.0216994,-0.00378235,-1.49624,0.0158779,0.0297371,1826,1296,79.8294,-2.19784
609,-272,79.8002,2.12354,-0.00504094,0.0250281,0.000189468,0.0250293,-0.00504214,1.5645,0.0185961,0.0375766,1833,1296,79.8002,-2.12358
616,-272,79.6222,1.76697,-0.00618442,0.0262485,0.00205021,0.0263775,-0.0063135,1.50792,0.0200241,0.0444777,1840,1296,79.6222,-1.76693
623,-272,79.5732,1.79736,-0.00565613,0.0225586,0.00252955,0.0227835,-0.00588112,1.48209,0.0174823,0.0444093,1847,1296,79.5733,-1.79741
630,-272,79.4915,1.48804,-0.00481972,0.0174878,0.00258179,0.0177827,-0.00511463,1.45706,0.0138778,0.0429686,1854,1296,79.4914,-1.48803
637,-272,79.5732,1.21912,0,0,0,0,0,0,0,-1,1861,1296,79.5733,-1.2191
644,-272,53.563,1.44336,0,0,0,0,0,0,0,-1,1868,1296,53.5629,-1.4433
651,-272,41.9225,4.27161,0,0,0,0,0,0,0,-1,1875,1296,41.9225,-4.27157
658,-272,35.1527,2.10571,0,0,0,0,0,0,0,-1,1882,1296,35.1527,-2.10573
665,-272,22.0238,4.14417,0,0,0,0,0,0,0,-1,1889,1296,22.0238,-4.14421
672,-272,22.661,7.21765,0,0,0,0,0,0,0,-1,1896,1296,22.661,-7.21761
679,-272,51.5885,15.1158,0,0,0,0,0,0,0,-1,1903,1296,51.5885,-15.1159
686,-272,55.5824,15.8411,0,0,0,0,0,0,0,-1,1910,1296,55.5824,-15.8411
693,-272,55.6512,15.0045,0.000502082,-0.0018014,0.00017661,0.000515544,-0.00181487,0.0760781,0.00141345,0.0130407,1917,1296,55.6513,-15.0046
700,-272,55.6478,14.1685,0.00100266,-0.000448607,0.000183082,0.0010254,-0.000471347,0.123574,0.000883664,0.0119005,1924,1296,55.6478,-14.1685
707,-272,55.603,13.3464,0.00015658,-0.00045891,0.000811526,0.000716753,-0.00101908,0.604166,0.00100724,0.0113498,1931,1296,55.6031,-13.3465
714,-272,55.5377,12.5116,-0.000875098,-0.000505952,0.00154922,0.000869648,-0.0022507,0.844689,0.00185942,0.0148463,1938,1296,55.5377,-12.5116
721,-272,55.4509,11.7251,-0.00206701,-0.000654548,0.00240043,0.00114139,-0.00386295,0.928466,0.00302833,0.0196827,1945,1296,55.451,-11.7252
728,-272,55.4189,10.8884,-0.00343956,-0.000926974,0.00338936,0.00143143,-0.00579796,0.962877,0.0044204,0.020043,1952,1296,55.419,-10.8884
735,-272,55.4026,10.1289,-0.00505039,-0.00134634,0.00454894,0.00171314,-0.00810987,0.978719,0.0060589,0.0168255,1959,1296,55.4026,-10.1289
742,-272,55.3129,9.44214,-0.00693561,-0.00194402,0.00591925,0.00198409,-0.0108637,0.984909,0.00798642,0.0252241,1966,1296,55.3129,-9.44218
749,-272,55.1995,8.71143,-0.00919081,-0.00295944,0.00763545,0.00217155,-0.0143218,0.979114,0.0103479,0.046623,1973,1296,55.1995,-8.71141
756,-272,55.1731,8.01147,0,0,0,0,0,0,0,-1,1980,1296,55.173,-8.01144
763,-272,34.3995,5.88416,0,0,0,0,0,0,0,-1,1987,1296,34.3996,-5.88419
770,-272,25.9485,3.67749,0,0,0,0,0,0,0,-1,1994,1296,25.9485,-3.67744
777,-272,32.3619,6.13257,0,0,0,0,0,0,0,-1,2001,1296,32.362,-6.1326
784,-272,0,0,0,0,0,0,0,0,0,-1,2008,1296,0,0
791,-272,0,0,0,0,0,0,0,0,0,-1,2015,1296,0,0
798,-272,0,0,0,0,0,0,0,0,0,-1,2022,1296,0,0
805,-272,0,0,0,0,0,0,0,0,0,-1,2029,1296,0,0
812,-272,0,0,0,0,0,0,0,0,0,-1,2036,1296,0,0
-700,-279,0,0,0,0,0,0,0,0,0,-1,524,1303,0,0
-693,-279,0,0,0,0,0,0,0,0,0,-1,531,1303,0,0
-686,-279,0,0,0,0,0,0,0,0,0,-1,538,1303,0,0
-679,-279,0,0,0,0,0,0,0,0,0,-1,545,1303,0,0
-672,-279,0,0,0,0,0,0,0,0,0,-1,552,1303,0,0
-665,-279,0,0,0,0,0,0,0,0,0,-1,559,1303,0,0
-658,-279,-44.3733,1.65881,0,0,0,0,0,0,0,-1,566,1303,-44.3733,-1.65883
-651,-279,-44.1603,1.61462,0,0,0,0,0,0,0,-1,573,1303,-44.1604,-1.61462
-644,-279,-43.8069,1.50903,0,0,0,0,0,0,0,-1,580,1303,-43.8069,-1.50909
-637,-279,-43.2951,1.33704,0,0,0,0,0,0,0,-1,587,1303,-43.2951,-1.33703
-630,-279,-42.6152,1.22852,0,0,0,0,0,0,0,-1,594,1303,-42.6152,-1.22856
-623,-279,-41.8359,0.907715,0,0,0,0,0,0,0,-1,601,1303,-41.8358,-0.907688
-616,-279,-36.7089,8.0625,0,0,0,0,0,0,0,-1,608,1303,-36.7089,-8.06252
-609,-279,-37.8596,9.33923,0,0,0,0,0,0,0,-1,615,1303,-37.8595,-9.33919
-602,-279,-37.7029,9.78784,0.00430509,0.00109181,0.000975547,0.00457808,0.000818826,0.272847,0.00281903,0.0159902,622,1303,-37.7029,-9.78779
-595,-279,-37.8107,10.6479,0.00244287,0.000813272,0.00042051,0.00254498,0.00071116,0.238218,0.00151625,0.0115376,629,1303,-37.8107,-10.6479
-588,-279,-37.886,11.5082,0.000955076,0.000483932,-5.75038e-05,0.000961993,0.000477015,-0.11971,0.000555413,0.0119606,636,1303,-37.8861,-11.5082
-581,-279,-37.9293,12.3275,-0.000303451,7.43496e-05,-0.000503664,0.000423372,-0.000652473,-0.964806,0.000625816,0.0123292,643,1303,-37.9292,-12.3275
-574,-279,-37.9716,13.1758,-0.00134747,-0.000380318,-0.000908442,0.000165238,-0.00189303,-1.02998,0.00132055,0.0137817,650,1303,-37.9716,-13.1757
-567,-279,-38.0095,14.0261,-0.00212166,-0.00085404,-0.00124012,-9.51539e-05,-0.00288055,-1.02164,0.00188944,0.0206077,657,1303,-38.0095,-14.0261
-560,-279,-38.1293,14.9667,-0.00238025,-0.00129518,-0.00143282,-0.000305613,-0.00336981,-0.96638,0.00215192,0.0203986,664,1303,-38.1294,-14.9667
-553,-279,-38.1936,15.8207,-0.00185486,-0.00208481,-0.00136797,-0.000597046,-0.00334263,-0.743472,0.00205847,0.0272495,671,1303,-38.1936,-15.8207
-546,-279,-38.2429,16.6993,0,0,0,0,0,0,0,-1,678,1303,-38.2429,-16.6994
-539,-279,-38.3979,17.2278,0,0,0,0,0,0,0,-1,685,1303,-38.3979,-17.2278
-532,-279,-14.9813,7.89917,0,0,0,0,0,0,0,-1,692,1303,-14.9813,-7.89918
-525,-279,-11.7063,-0.539185,0,0,0,0,0,0,0,-1,699,1303,-11.7063,0.539166
-518,-279,-16.8138,1.11963,0,0,0,0,0,0,0,-1,706,1303,-16.8138,-1.11968
-511,-279,-20.1063,-1.37915,0,0,0,0,0,0,0,-1,713,1303,-20.1062,1.37918
-504,-279,-18.3766,1.04578,0,0,0,0,0,0,0,-1,720,1303,-18.3767,-1.04577
-497,-279,-19.0046,2.08911,0,0,0,0,0,0,0,-1,727,1303,-19.0046,-2.08905
-490,-279,-20.0176,2.55188,0,0,0,0,0,0,0,-1,734,1303,-20.0176,-2.55183
-483,-279,-20.8064,2.99792,0,0,0,0,0,0,0,-1,741,1303,-20.8064,-2.99797
-476,-279,0,0,0,0,0,0,0,0,0,-1,748,1303,0,0
-469,-279,0,0,0,0,0,0,0,0,0,-1,755,1303,0,0
-462,-279,0,0,0,0,0,0,0,0,0,-1,762,1303,0,0
-455,-279,0,0,0,0,0,0,0,0,0,-1,769,1303,0,0
-448,-279,0,0,0,0,0,0,0,0,0,-1,776,1303,0,0
-441,-279,0,0,0,0,0,0,0,0,0,-1,783,1303,0,0
-434,-279,0,0,0,0,0,0,0,0,0,-1,790,1303,0,0
-427,-279,0,0,0,0,0,0,0,0,0,-1,797,1303,0,0
-420,-279,0,0,0,0,0,0,0,0,0,-1,804,1303,0,0
-413,-279,0,0,0,0,0,0,0,0,0,-1,811,1303,0,0
-406,-279,0,0,0,0,0,0,0,0,0,-1,818,1303,0,0
-399,-279,0,0,0,0,0,0,0,0,0,-1,825,1303,0,0
-392,-279,0,0,0,0,0,0,0,0,0,-1,832,1303,0,0
-385,-279,0,0,0,0,0,0,0,0,0,-1,839,1303,0,0
-378,-279,0,0,0,0,0,0,0,0,0,-1,846,1303,0,0
-371,-279,0,0,0,0,0,0,0,0,0,-1,853,1303,0,0
-364,-279,0,0,0,0,0,0,0,0,0,-1,860,1303,0,0
-357,-279,0,0,0,0,0,0,0,0,0,-1,867,1303,0,0
-350,-279,0,0,0,0,0,0,0,0,0,-1,874,1303,0,0
-343,-279,0,0,0,0,0,0,0,0,0,-1,881,1303,0,0
-336,-279,0,0,0,0,0,0,0,0,0,-1,888,1303,0,0
-329,-279,0,0,0,0,0,0,0,0,0,-1,895,1303,0,0
-322,-279,0,0,0,0,0,0,0,0,0,-1,902,1303,0,0
-315,-279,0,0,0,0,0,0,0,0,0,-1,909,1303,0,0
-308,-279,0,0,0,0,0,0,0,0,0,-1,916,1303,0,0
-301,-279,0,0,0,0,0,0,0,0,0,-1,923,1303,0,0
-294,-279,0,0,0,0,0,0,0,0,0,-1,930,1303,0,0
-287,-279,0,0,0,0,0,0,0,0,0,-1,937,1303,0,0
-280,-279,0,0,0,0,0,0,0,0,0,-1,944,1303,0,0
-273,-279,0,0,0,0,0,0,0,0,0,-1,951,1303,0,0
-266,-279,0,0,0,0,0,0,0,0,0,-1,958,1303,0,0
-259,-279,0,0,0,0,0,0,0,0,0,-1,965,1303,0,0
-252,-279,0,0,0,0,0,0,0,0,0,-1,972,1303,0,0
-245,-279,0,0,0,0,0,0,0,0,0,-1,979,1303,0,0
-238,-279,0,0,0,0,0,0,0,0,0,-1,986,1303,0,0
-231,-279,0,0,0,0,0,0,0,0,0,-1,993,1303,0,0
-224,-279,0,0,0,0,0,0,0,0,0,-1,1000,1303,0,0
-217,-279,0,0,0,0,0,0,0,0,0,-1,1007,1303,0,0
-210,-279,0,0,0,0,0,0,0,0,0,-1,1014,1303,0,0
-203,-279,0,0,0,0,0,0,0,0,0,-1,1021,1303,0,0
-196,-279,0,0,0,0,0,0,0,0,0,-1,1028,1303,0,0
-189,-279,0,0,0,0,0,0,0,0,0,-1,1035,1303,0,0
-182,-279,0,0,0,0,0,0,0,0,0,-1,1042,1303,0,0
-175,-279,0,0,0,0,0,0,0,0,0,-1,1049,1303,0,0
-168,-279,0,0,0,0,0,0,0,0,0,-1,1056,1303,0,0
-161,-279,0,0,0,0,0,0,0,0,0,-1,1063,1303,0,0
-154,-279,0,0,0,0,0,0,0,0,0,-1,1070,1303,0,0
-147,-279,0,0,0,0,0,0,0,0,0,-1,1077,1303,0,0
-140,-279,0,0,0,0,0,0,0,0,0,-1,1084,1303,0,0
-133,-279,0,0,0,0,0,0,0,0,0,-1,1091,1303,0,0
-126,-279,0,0,0,0,0,0,0,0,0,-1,1098,1303,0,0
-119,-279,0,0,0,0,0,0,0,0,0,-1,1105,1303,0,0
-112,-279,0,0,0,0,0,0,0,0,0,-1,1112,1303,0,0
-105,-279,0,0,0,0,0,0,0,0,0,-1,1119,1303,0,0
-98,-279,0,0,0,0,0,0,0,0,0,-1,1126,1303,0,0
-91,-279,0,0,0,0,0,0,0,0,0,-1,1133,1303,0,0
-84,-279,0,0,0,0,0,0,0,0,0,-1,1140,1303,0,0
-77,-279,0,0,0,0,0,0,0,0,0,-1,1147,1303,0,0
-70,-279,0,0,0,0,0,0,0,0,0,-1,1154,1303,0,0
-63,-279,0,0,0,0,0,0,0,0,0,-1,1161,1303,0,0
-56,-279,0,0,0,0,0,0,0,0,0,-1,1168,1303,0,0
-49,-279,0,0,0,0,0,0,0,0,0,-1,1175,1303,0,0
-42,-279,0,0,0,0,0,0,0,0,0,-1,1182,1303,0,0
-35,-279,0,0,0,0,0,0,0,0,0,-1,1189,1303,0,0
-28,-279,0,0,0,0,0,0,0,0,0,-1,1196,1303,0,0
-21,-279,0,0,0,0,0,0,0,0,0,-1,1203,1303,0,0
-14,-279,0,0,0,0,0,0,0,0,0,-1,1210,1303,0,0
-7,-279,0,0,0,0,0,0,0,0,0,-1,1217,1303,0,0
0,-279,0,0,0,0,0,0,0,0,0,-1,1224,1303,0,0
7,-279,0,0,0,0,0,0,0,0,0,-1,1231,1303,0,0
14,-279,0,0,0,0,0,0,0,0,0,-1,1238,1303,0,0
21,-279,0,0,0,0,0,0,0,0,0,-1,1245,1303,0,0
28,-279,0,0,0,0,0,0,0,0,0,-1,1252,1303,0,0
35,-279,0,0,0,0,0,0,0,0,0,-1,1259,1303,0,0
42,-279,0,0,0,0,0,0,0,0,0,-1,1266,1303,0,0
49,-279,0,0,0,0,0,0,0,0,0,-1,1273,1303,0,0
56,-279,0,0,0,0,0,0,0,0,0,-1,1280,1303,0,0
63,-279,0,0,0,0,0,0,0,0,0,-1,1287,1303,0,0
70,-279,0,0,0,0,0,0,0,0,0,-1,1294,1303,0,0
77,-279,0,0,0,0,0,0,0,0,0,-1,1301,1303,0,0
84,-279,0,0,0,0,0,0,0,0,0,-1,1308,1303,0,0
91,-279,0,0,0,0,0,0,0,0,0,-1,1315,1303,0,0
98,-279,0,0,0,0,0,0,0,0,0,-1,1322,1303,0,0
105,-279,0,0,0,0,0,0,0,0,0,-1,1329,1303,0,0
112,-279,0,0,0,0,0,0,0,0,0,-1,1336,1303,0,0
119,-279,0,0,0,0,0,0,0,0,0,-1,1343,1303,0,0
126,-279,0,0,0,0,0,0,0,0,0,-1,1350,1303,0,0
133,-279,0,0,0,0,0,0,0,0,0,-1,1357,1303,0,0
140,-279,0,0,0,0,0,0,0,0,0,-1,1364,1303,0,0
147,-279,0,0,0,0,0,0,0,0,0,-1,1371,1303,0,0
154,-279,0,0,0,0,0,0,0,0,0,-1,1378,1303,0,0
161,-279,0,0,0,0,0,0,0,0,0,-1,1385,1303,0,0
168,-279,0,0,0,0,0,0,0,0,0,-1,1392,1303,0,0
175,-279,0,0,0,0,0,0,0,0,0,-1,1399,1303,0,0
182,-279,0,0,0,0,0,0,0,0,0,-1,1406,1303,0,0
189,-279,0,0,0,0,0,0,0,0,0,-1,1413,1303,0,0
196,-279,0,0,0,0,0,0,0,0,0,-1,1420,1303,0,0
203,-279,0,0,0,0,0,0,0,0,0,-1,1427,1303,0,0
210,-279,0,0,0,0,0,0,0,0,0,-1,1434,1303,0,0
217,-279,0,0,0,0,0,0,0,0,0,-1,1441,1303,0,0
224,-279,0,0,0,0,0,0,0,0,0,-1,1448,1303,0,0
231,-279,0,0,0,0,0,0,0,0,0,-1,1455,1303,0,0
238,-279,0,0,0,0,0,0,0,0,0,-1,1462,1303,0,0
245,-279,0,0,0,0,0,0,0,0,0,-1,1469,1303,0,0
252,-279,0,0,0,0,0,0,0,0,0,-1,1476,1303,0,0
259,-279,0,0,0,0,0,0,0,0,0,-1,1483,1303,0,0
266,-279,0,0,0,0,0,0,0,0,0,-1,1490,1303,0,0
273,-279,0,0,0,0,0,0,0,0,0,-1,1497,1303,0,0
280,-279,0,0,0,0,0,0,0,0,0,-1,1504,1303,0,0
287,-279,0,0,0,0,0,0,0,0,0,-1,1511,1303,0,0
294,-279,0,0,0,0,0,0,0,0,0,-1,1518,1303,0,0
301,-279,0,0,0,0,0,0,0,0,0,-1,1525,1303,0,0
308,-279,0,0,0,0,0,0,0,0,0,-1,1532,1303,0,0
315,-279,0,0,0,0,0,0,0,0,0,-1,1539,1303,0,0
322,-279,0,0,0,0,0,0,0,0,0,-1,1546,1303,0,0
329,-279,0,0,0,0,0,0,0,0,0,-1,1553,1303,0,0
336,-279,0,0,0,0,0,0,0,0,0,-1,1560,1303,0,0
343,-279,0,0,0,0,0,0,0,0,0,-1,1567,1303,0,0
350,-279,0,0,0,0,0,0,0,0,0,-1,1574,1303,0,0
357,-279,0,0,0,0,0,0,0,0,0,-1,1581,1303,0,0
364,-279,0,0,0,0,0,0,0,0,0,-1,1588,1303,0,0
371,-279,0,0,0,0,0,0,0,0,0,-1,1595,1303,0,0
378,-279,0,0,0,0,0,0,0,0,0,-1,1602,1303,0,0
385,-279,0,0,0,0,0,0,0,0,0,-1,1609,1303,0,0
392,-279,0,0,0,0,0,0,0,0,0,-1,1616,1303,0,0
399,-279,0,0,0,0,0,0,0,0,0,-1,1623,1303,0,0
406,-279,0,0,0,0,0,0,0,0,0,-1,1630,1303,0,0
413,-279,0,0,0,0,0,0,0,0,0,-1,1637,1303,0,0
420,-279,0,0,0,0,0,0,0,0,0,-1,1644,1303,0,0
427,-279,0,0,0,0,0,0,0,0,0,-1,1651,1303,0,0
434,-279,0,0,0,0,0,0,0,0,0,-1,1658,1303,0,0
441,-279,0,0,0,0,0,0,0,0,0,-1,1665,1303,0,0
448,-279,0,0,0,0,0,0,0,0,0,-1,1672,1303,0,0
455,-279,0,0,0,0,0,0,0,0,0,-1,1679,1303,0,0
462,-279,0,0,0,0,0,0,0,0,0,-1,1686,1303,0,0
469,-279,0,0,0,0,0,0,0,0,0,-1,1693,1303,0,0
476,-279,0,0,0,0,0,0,0,0,0,-1,1700,1303,0,0
483,-279,0,0,0,0,0,0,0,0,0,-1,1707,1303,0,0
490,-279,0,0,0,0,0,0,0,0,0,-1,1714,1303,0,0
497,-279,0,0,0,0,0,0,0,0,0,-1,1721,1303,0,0
504,-279,0,0,0,0,0,0,0,0,0,-1,1728,1303,0,0
511,-279,0,0,0,0,0,0,0,0,0,-1,1735,1303,0,0
518,-279,0,0,0,0,0,0,0,0,0,-1,1742,1303,0,0
525,-279,0,0,0,0,0,0,0,0,0,-1,1749,1303,0,0
532,-279,0,0,0,0,0,0,0,0,0,-1,1756,1303,0,0
539,-279,0,0,0,0,0,0,0,0,0,-1,1763,1303,0,0
546,-279,0,0,0,0,0,0,0,0,0,-1,1770,1303,0,0
553,-279,0,0,0,0,0,0,0,0,0,-1,1777,1303,0,0
560,-279,0,0,0,0,0,0,0,0,0,-1,1784,1303,0,0
567,-279,0,0,0,0,0,0,0,0,0,-1,1791,1303,0,0
574,-279,0,0,0,0,0,0,0,0,0,-1,1798,1303,0,0
581,-279,0,0,0,0,0,0,0,0,0,-1,1805,1303,0,0
588,-279,0,0,0,0,0,0,0,0,0,-1,1812,1303,0,0
595,-279,0,0,0,0,0,0,0,0,0,-1,1819,1303,0,0
602,-279,79.8511,2.12573,0,0,0,0,0,0,0,-1,1826,1303,79.851,-2.12569
609,-279,79.7762,2.03064,0,0,0,0,0,0,0,-1,1833,1303,79.7763,-2.03064
616,-279,79.5343,1.43359,-0.00687086,0.0328837,0.00107035,0.0329125,-0.00689965,1.5439,0.0245667,0.0480489,1840,1303,79.5343,-1.43354
623,-279,79.4974,1.57922,-0.00536496,0.0264188,0.00121147,0.0264649,-0.00541107,1.53275,0.0196963,0.0458254,1847,1303,79.4975,-1.57928
630,-279,79.3954,1.51001,0,0,0,0,0,0,0,-1,1854,1303,79.3954,-1.51006
637,-279,73.1141,1.62744,0,0,0,0,0,0,0,-1,1861,1303,73.1142,-1.62742
644,-279,33.5021,3.40234,0,0,0,0,0,0,0,-1,1868,1303,33.5021,-3.40237
651,-279,29.8456,2.3562,0,0,0,0,0,0,0,-1,1875,1303,29.8455,-2.35615
658,-279,21.5076,7.65649,0,0,0,0,0,0,0,-1,1882,1303,21.5076,-7.65648
665,-279,18.9794,6.09607,0,0,0,0,0,0,0,-1,1889,1303,18.9793,-6.09601
672,-279,23.5206,8.32507,0,0,0,0,0,0,0,-1,1896,1303,23.5206,-8.32512
679,-279,54.6691,16.7216,0,0,0,0,0,0,0,-1,1903,1303,54.669,-16.7216
686,-279,54.8047,15.9099,0.000389117,-0.00220424,0.000511292,0.00048628,-0.00230141,0.187795,0.00171944,0.0365893,1910,1303,54.8047,-15.91
693,-279,54.8311,15.0887,0.000857593,-0.00148922,-1.01459e-05,0.000857636,-0.00148927,-0.00432316,0.00137124,0.0173357,1917,1303,54.8311,-15.0887
700,-279,54.8086,14.2668,0.00103922,-0.000382047,0.000144254,0.00105372,-0.00039654,0.100136,0.000865486,0.0131709,1924,1303,54.8086,-14.2669
707,-279,54.7469,13.4247,0.000189535,-0.000408849,0.000808673,0.000752589,-0.000971903,0.608217,0.000998316,0.0102591,1931,1303,54.747,-13.4247
714,-279,54.6956,12.5946,-0.000811521,-0.000510572,0.00159059,0.000936643,-0.00225874,0.832559,0.00189676,0.0112204,1938,1303,54.6956,-12.5946
721,-279,54.6907,11.7766,-0.00197733,-0.000710123,0.00248845,0.00122412,-0.00391157,0.910058,0.00309746,0.0159703,1945,1303,54.6907,-11.7767
728,-279,54.6682,10.9641,-0.00334394,-0.00103541,0.00353076,0.00152498,-0.00590433,0.94338,0.00453091,0.0178031,1952,1303,54.6682,-10.9641
735,-279,54.5922,10.196,-0.00498299,-0.00151885,0.0047611,0.00181545,-0.00831729,0.959855,0.00623869,0.016773,1959,1303,54.5922,-10.1961
742,-279,54.5304,9.47595,-0.00694009,-0.00218682,0.00622068,0.00209577,-0.0112227,0.967869,0.00826938,0.0272106,1966,1303,54.5304,-9.47592
749,-279,54.3561,8.98889,-0.00933892,-0.00333111,0.00808111,0.00228635,-0.0149564,0.963344,0.0108139,0.0497814,1973,1303,54.3561,-8.98889
756,-279,54.2751,8.45129,0,0,0,0,0,0,0,-1,1980,1303,54.2752,-8.45134
763,-279,27.1613,3.46265,0,0,0,0,0,0,0,-1,1987,1303,27.1613,-3.4627
770,-279,21.5828,3.54199,0,0,0,0,0,0,0,-1,1994,1303,21.5827,-3.54198
777,-279,32.5369,6.99609,0,0,0,0,0,0,0,-1,2001,1303,32.5369,-6.99608
784,-279,0,0,0,0,0,0,0,0,0,-1,2008,1303,0,0
791,-279,0,0,0,0,0,0,0,0,0,-1,2015,1303,0,0
798,-279,0,0,0,0,0,0,0,0,0,-1,2022,1303,0,0
805,-279,0,0,0,0,0,0,0,0,0,-1,2029,1303,0,0
812,-279,0,0,0,0,0,0,0,0,0,-1,2036,1303,0,0
-700,-286,0,0,0,0,0,0,0,0,0,-1,524,1310,0,0
-693,-286,0,0,0,0,0,0,0,0,0,-1,531,1310,0,0
-686,-286,0,0,0,0,0,0,0,0,0,-1,538,1310,0,0
-679,-286,0,0,0,0,0,0,0,0,0,-1,545,1310,0,0
-672,-286,0,0,0,0,0,0,0,0,0,-1,552,1310,0,0
-665,-286,0,0,0,0,0,0,0,0,0,-1,559,1310,0,0
-658,-286,-44.103,1.76782,0,0,0,0,0,0,0,-1,566,1310,-44.103,-1.76778
-651,-286,-43.6417,1.98254,0,0,0,0,0,0,0,-1,573,1310,-43.6416,-1.98254
-644,-286,-43.3175,1.59558,0,0,0,0,0,0,0,-1,580,1310,-43.3175,-1.59556
-637,-286,-42.8448,1.15039,0,0,0,0,0,0,0,-1,587,1310,-42.8448,-1.15043
-630,-286,-42.1176,0.443848,0,0,0,0,0,0,0,-1,594,1310,-42.1176,-0.443802
-623,-286,-41.3121,-0.468384,0,0,0,0,0,0,0,-1,601,1310,-41.3121,0.468376
-616,-286,-22.0634,2.37744,0,0,0,0,0,0,0,-1,608,1310,-22.0633,-2.37746
-609,-286,-37.0236,8.62988,0,0,0,0,0,0,0,-1,615,1310,-37.0236,-8.62985
-602,-286,-36.8966,9.73938,0.00494282,0.00200557,0.00130038,0.00543579,0.0015126,0.362357,0.00323959,0.024364,622,1310,-36.8966,-9.73944
-595,-286,-36.9789,10.7133,0.00308836,0.00145876,0.000747502,0.0033793,0.00116782,0.371175,0.00198181,0.0137485,629,1310,-36.979,-10.7133
-588,-286,-37.0526,11.547,0.00171376,0.000941558,0.000329275,0.0018351,0.000820218,0.353066,0.00106148,0.0134806,636,1310,-37.0525,-11.5469
-581,-286,-37.0469,12.3842,0.000662349,0.000403607,7.99517e-06,0.000662595,0.00040336,0.030861,0.000385554,0.0150638,643,1310,-37.0468,-12.3841
-574,-286,-37.0895,13.2383,-0.000139519,-0.000132699,-0.000246678,0.000110593,-0.000382811,-0.792309,0.000298969,0.0151503,650,1310,-37.0895,-13.2382
-567,-286,-37.1753,14.0925,-0.000672387,-0.000629521,-0.000411549,-0.000238847,-0.00106306,-0.811414,0.000644028,0.0160469,657,1310,-37.1753,-14.0925
-560,-286,-37.2144,14.9655,-0.000769981,-0.00110062,-0.000432758,-0.000472039,-0.00139856,-0.602946,0.000821548,0.015505,664,1310,-37.2144,-14.9655
-553,-286,-37.2271,15.8475,-0.000281869,-0.00172235,-0.000293246,-0.00022446,-0.00177976,-0.193327,0.00111922,0.0136587,671,1310,-37.2271,-15.8475
-546,-286,-37.1504,16.7902,0.000661086,-0.00205253,0.000209361,0.000677144,-0.00206858,0.0765483,0.00165171,0.0317075,678,1310,-37.1504,-16.7902
-539,-286,-37.2396,17.8494,0,0,0,0,0,0,0,-1,685,1310,-37.2396,-17.8493
-532,-286,-21.6771,10.4924,0,0,0,0,0,0,0,-1,692,1310,-21.6771,-10.4924
-525,-286,-11.4528,-1.11768,0,0,0,0,0,0,0,-1,699,1310,-11.4528,1.11769
-518,-286,-11.0701,1.37329,0,0,0,0,0,0,0,-1,706,1310,-11.0701,-1.37332
-511,-286,-17.7545,-0.0791016,0,0,0,0,0,0,0,-1,713,1310,-17.7544,0.0791606
-504,-286,-18.0455,1.29602,0,0,0,0,0,0,0,-1,720,1310,-18.0455,-1.29601
-497,-286,-18.3367,2.67114,0,0,0,0,0,0,0,-1,727,1310,-18.3366,-2.67118
-490,-286,-19.5795,2.47266,0,0,0,0,0,0,0,-1,734,1310,-19.5795,-2.4727
-483,-286,-19.7277,2.74744,0,0,0,0,0,0,0,-1,741,1310,-19.7277,-2.74747
-476,-286,-20.0391,3.06177,0,0,0,0,0,0,0,-1,748,1310,-20.0391,-3.06178
-469,-286,0,0,0,0,0,0,0,0,0,-1,755,1310,0,0
-462,-286,0,0,0,0,0,0,0,0,0,-1,762,1310,0,0
-455,-286,0,0,0,0,0,0,0,0,0,-1,769,1310,0,0
-448,-286,0,0,0,0,0,0,0,0,0,-1,776,1310,0,0
-441,-286,0,0,0,0,0,0,0,0,0,-1,783,1310,0,0
-434,-286,0,0,0,0,0,0,0,0,0,-1,790,1310,0,0
-427,-286,0,0,0,0,0,0,0,0,0,-1,797,1310,0,0
-420,-286,0,0,0,0,0,0,0,0,0,-1,804,1310,0,0
-413,-286,0,0,0,0,0,0,0,0,0,-1,811,1310,0,0
-406,-286,0,0,0,0,0,0,0,0,0,-1,818,1310,0,0
-399,-286,0,0,0,0,0,0,0,0,0,-1,825,1310,0,0
-392,-286,0,0,0,0,0,0,0,0,0,-1,832,1310,0,0
-385,-286,0,0,0,0,0,0,0,0,0,-1,839,1310,0,0
-378,-286,0,0,0,0,0,0,0,0,0,-1,846,1310,0,0
-371,-286,0,0,0,0,0,0,0,0,0,-1,853,1310,0,0
-364,-286,0,0,0,0,0,0,0,0,0,-1,860,1310,0,0
-357,-286,0,0,0,0,0,0,0,0,0,-1,867,1310,0,0
-350,-286,0,0,0,0,0,0,0,0,0,-1,874,1310,0,0
-343,-286,0,0,0,0,0,0,0,0,0,-1,881,1310,0,0
-336,-286,0,0,0,0,0,0,0,0,0,-1,888,1310,0,0
-329,-286,0,0,0,0,0,0,0,0,0,-1,895,1310,0,0
-322,-286,0,0,0,0,0,0,0,0,0,-1,902,1310,0,0
-315,-286,0,0,0,0,0,0,0,0,0,-1,909,1310,0,0
-308,-286,0,0,0,0,0,0,0,0,0,-1,916,1310,0,0
-301,-286,0,0,0,0,0,0,0,0,0,-1,923,1310,0,0
-294,-286,0,0,0,0,0,0,0,0,0,-1,930,1310,0,0
-287,-286,0,0,0,0,0,0,0,0,0,-1,937,1310,0,0
-280,-286,0,0,0,0,0,0,0,0,0,-1,944,1310,0,0
-273,-286,0,0,0,0,0,0,0,0,0,-1,951,1310,0,0
-266,-286,0,0,0,0,0,0,0,0,0,-1,958,1310,0,0
-259,-286,0,0,0,0,0,0,0,0,0,-1,965,1310,0,0
-252,-286,0,0,0,0,0,0,0,0,0,-1,972,1310,0,0
-245,-286,0,0,0,0,0,0,0,0,0,-1,979,1310,0,0
-238,-286,0,0,0,0,0,0,0,0,0,-1,986,1310,0,0
-231,-286,0,0,0,0,0,0,0,0,0,-1,993,1310,0,0
-224,-286,0,0,0,0,0,0,0,0,0,-1,1000,1310,0,0
-217,-286,0,0,0,0,0,0,0,0,0,-1,1007,1310,0,0
-210,-286,0,0,0,0,0,0,0,0,0,-1,1014,1310,0,0
-203,-286,0,0,0,0,0,0,0,0,0,-1,1021,1310,0,0
-196,-286,0,0,0,0,0,0,0,0,0,-1,1028,1310,0,0
-189,-286,0,0,0,0,0,0,0,0,0,-1,1035,1310,0,0
-182,-286,0,0,0,0,0,0,0,0,0,-1,1042,1310,0,0
-175,-286,0,0,0,0,0,0,0,0,0,-1,1049,1310,0,0
-168,-286,0,0,0,0,0,0,0,0,0,-1,1056,1310,0,0
-161,-286,0,0,0,0,0,0,0,0,0,-1,1063,1310,0,0
-154,-286,0,0,0,0,0,0,0,0,0,-1,1070,1310,0,0
-147,-286,0,0,0,0,0,0,0,0,0,-1,1077,1310,0,0
-140,-286,0,0,0,0,0,0,0,0,0,-1,1084,1310,0,0
-133,-286,0,0,0,0,0,0,0,0,0,-1,1091,1310,0,0
-126,-286,0,0,0,0,0,0,0,0,0,-1,1098,1310,0,0
-119,-286,0,0,0,0,0,0,0,0,0,-1,1105,1310,0,0
-112,-286,0,0,0,0,0,0,0,0,0,-1,1112,1310,0,0
-105,-286,0,0,0,0,0,0,0,0,0,-1,1119,1310,0,0
-98,-286,0,0,0,0,0,0,0,0,0,-1,1126,1310,0,0
-91,-286,0,0,0,0,0,0,0,0,0,-1,1133,1310,0,0
-84,-286,0,0,0,0,0,0,0,0,0,-1,1140,1310,0,0
-77,-286,0,0,0,0,0,0,0,0,0,-1,1147,1310,0,0
-70,-286,0,0,0,0,0,0,0,0,0,-1,1154,1310,0,0
-63,-286,0,0,0,0,0,0,0,0,0,-1,1161,1310,0,0
-56,-286,0,0,0,0,0,0,0,0,0,-1,1168,1310,0,0
-49,-286,0,0,0,0,0,0,0,0,0,-1,1175,1310,0,0
-42,-286,0,0,0,0,0,0,0,0,0,-1,1182,1310,0,0
-35,-286,0,0,0,0,0,0,0,0,0,-1,1189,1310,0,0
-28,-286,0,0,0,0,0,0,0,0,0,-1,1196,1310,0,0
-21,-286,0,0,0,0,0,0,0,0,0,-1,1203,1310,0,0
-14,-286,0,0,0,0,0,0,0,0,0,-1,1210,1310,0,0
-7,-286,0,0,0,0,0,0,0,0,0,-1,1217,1310,0,0
0,-286,0,0,0,0,0,0,0,0,0,-1,1224,1310,0,0
7,-286,0,0,0,0,0,0,0,0,0,-1,1231,1310,0,0
14,-286,0,0,0,0,0,0,0,0,0,-1,1238,1310,0,0
21,-286,0,0,0,0,0,0,0,0,0,-1,1245,1310,0,0
28,-286,0,0,0,0,0,0,0,0,0,-1,1252,1310,0,0
35,-286,0,0,0,0,0,0,0,0,0,-1,1259,1310,0,0
42,-286,0,0,0,0,0,0,0,0,0,-1,1266,1310,0,0
49,-286,0,0,0,0,0,0,0,0,0,-1,1273,1310,0,0
56,-286,0,0,0,0,0,0,0,0,0,-1,1280,1310,0,0
63,-286,0,0,0,0,0,0,0,0,0,-1,1287,1310,0,0
70,-286,0,0,0,0,0,0,0,0,0,-1,1294,1310,0,0
77,-286,0,0,0,0,0,0,0,0,0,-1,1301,1310,0,0
84,-286,0,0,0,0,0,0,0,0,0,-1,1308,1310,0,0
91,-286,0,0,0,0,0,0,0,0,0,-1,1315,1310,0,0
98,-286,0,0,0,0,0,0,0,0,0,-1,1322,1310,0,0
105,-286,0,0,0,0,0,0,0,0,0,-1,1329,1310,0,0
112,-286,0,0,0,0,0,0,0,0,0,-1,1336,1310,0,0
119,-286,0,0,0,0,0,0,0,0,0,-1,1343,1310,0,0
126,-286,0,0,0,0,0,0,0,0,0,-1,1350,1310,0,0
133,-286,0,0,0,0,0,0,0,0,0,-1,1357,1310,0,0
140,-286,0,0,0,0,0,0,0,0,0,-1,1364,1310,0,0
147,-286,0,0,0,0,0,0,0,0,0,-1,1371,1310,0,0
154,-286,0,0,0,0,0,0,0,0,0,-1,1378,1310,0,0
161,-286,0,0,0,0,0,0,0,0,0,-1,1385,1310,0,0
168,-286,0,0,0,0,0,0,0,0,0,-1,1392,1310,0,0
175,-286,0,0,0,0,0,0,0,0,0,-1,1399,1310,0,0
182,-286,0,0,0,0,0,0,0,0,0,-1,1406,1310,0,0
189,-286,0,0,0,0,0,0,0,0,0,-1,1413,1310,0,0
196,-286,0,0,0,0,0,0,0,0,0,-1,1420,1310,0,0
203,-286,0,0,0,0,0,0,0,0,0,-1,1427,1310,0,0
210,-286,0,0,0,0,0,0,0,0,0,-1,1434,1310,0,0
217,-286,0,0,0,0,0,0,0,0,0,-1,1441,1310,0,0
224,-286,0,0,0,0,0,0,0,0,0,-1,1448,1310,0,0
231,-286,0,0,0,0,0,0,0,0,0,-1,1455,1310,0,0
238,-286,0,0,0,0,0,0,0,0,0,-1,1462,1310,0,0
245,-286,0,0,0,0,0,0,0,0,0,-1,1469,1310,0,0
252,-286,0,0,0,0,0,0,0,0,0,-1,1476,1310,0,0
259,-286,0,0,0,0,0,0,0,0,0,-1,1483,1310,0,0
266,-286,0,0,0,0,0,0,0,0,0,-1,1490,1310,0,0
273,-286,0,0,0,0,0,0,0,0,0,-1,1497,1310,0,0
280,-286,0,0,0,0,0,0,0,0,0,-1,1504,1310,0,0
287,-286,0,0,0,0,0,0,0,0,0,-1,1511,1310,0,0
294,-286,0,0,0,0,0,0,0,0,0,-1,1518,1310,0,0
301,-286,0,0,0,0,0,0,0,0,0,-1,1525,1310,0,0
308,-286,0,0,0,0,0,0,0,0,0,-1,1532,1310,0,0
315,-286,0,0,0,0,0,0,0,0,0,-1,1539,1310,0,0
322,-286,0,0,0,0,0,0,0,0,0,-1,1546,1310,0,0
329,-286,0,0,0,0,0,0,0,0,0,-1,1553,1310,0,0
336,-286,0,0,0,0,0,0,0,0,0,-1,1560,1310,0,0
343,-286,0,0,0,0,0,0,0,0,0,-1,1567,1310,0,0
350,-286,0,0,0,0,0,0,0,0,0,-1,1574,1310,0,0
357,-286,0,0,0,0,0,0,0,0,0,-1,1581,1310,0,0
364,-286,0,0,0,0,0,0,0,0,0,-1,1588,1310,0,0
371,-286,0,0,0,0,0,0,0,0,0,-1,1595,1310,0,0
378,-286,0,0,0,0,0,0,0,0,0,-1,1602,1310,0,0
385,-286,0,0,0,0,0,0,0,0,0,-1,1609,1310,0,0
392,-286,0,0,0,0,0,0,0,0,0,-1,1616,1310,0,0
399,-286,0,0,0,0,0,0,0,0,0,-1,1623,1310,0,0
406,-286,0,0,0,0,0,0,0,0,0,-1,1630,1310,0,0
413,-286,0,0,0,0,0,0,0,0,0,-1,1637,1310,0,0
420,-286,0,0,0,0,0,0,0,0,0,-1,1644,1310,0,0
427,-286,0,0,0,0,0,0,0,0,0,-1,1651,1310,0,0
434,-286,0,0,0,0,0,0,0,0,0,-1,1658,1310,0,0
441,-286,0,0,0,0,0,0,0,0,0,-1,1665,1310,0,0
448,-286,0,0,0,0,0,0,0,0,0,-1,1672,1310,0,0
455,-286,0,0,0,0,0,0,0,0,0,-1,1679,1310,0,0
462,-286,0,0,0,0,0,0,0,0,0,-1,1686,1310,0,0
469,-286,0,0,0,0,0,0,0,0,0,-1,1693,1310,0,0
476,-286,0,0,0,0,0,0,0,0,0,-1,1700,1310,0,0
483,-286,0,0,0,0,0,0,0,0,0,-1,1707,1310,0,0
490,-286,0,0,0,0,0,0,0,0,0,-1,1714,1310,0,0
497,-286,0,0,0,0,0,0,0,0,0,-1,1721,1310,0,0
504,-286,0,0,0,0,0,0,0,0,0,-1,1728,1310,0,0
511,-286,0,0,0,0,0,0,0,0,0,-1,1735,1310,0,0
518,-286,0,0,0,0,0,0,0,0,0,-1,1742,1310,0,0
525,-286,0,0,0,0,0,0,0,0,0,-1,1749,1310,0,0
532,-286,0,0,0,0,0,0,0,0,0,-1,1756,1310,0,0
539,-286,0,0,0,0,0,0,0,0,0,-1,1763,1310,0,0
546,-286,0,0,0,0,0,0,0,0,0,-1,1770,1310,0,0
553,-286,0,0,0,0,0,0,0,0,0,-1,1777,1310,0,0
560,-286,0,0,0,0,0,0,0,0,0,-1,1784,1310,0,0
567,-286,0,0,0,0,0,0,0,0,0,-1,1791,1310,0,0
574,-286,0,0,0,0,0,0,0,0,0,-1,1798,1310,0,0
581,-286,0,0,0,0,0,0,0,0,0,-1,1805,1310,0,0
588,-286,0,0,0,0,0,0,0,0,0,-1,1812,1310,0,0
595,-286,69.8951,2.40527,0,0,0,0,0,0,0,-1,1819,1310,69.8951,-2.40522
602,-286,79.8831,1.98608,0,0,0,0,0,0,0,-1,1826,1310,79.8831,-1.98606
609,-286,79.9001,1.40332,0,0,0,0,0,0,0,-1,1833,1310,79.9001,-1.40334
616,-286,79.629,1.09888,0,0,0,0,0,0,0,-1,1840,1310,79.629,-1.0989
623,-286,79.4496,1.37878,0,0,0,0,0,0,0,-1,1847,1310,79.4495,-1.37884
630,-286,73.3732,1.46594,0,0,0,0,0,0,0,-1,1854,1310,73.3731,-1.46595
637,-286,47.8409,3.69824,0,0,0,0,0,0,0,-1,1861,1310,47.841,-3.69823
644,-286,25.6433,1.33862,0,0,0,0,0,0,0,-1,1868,1310,25.6433,-1.33858
651,-286,25.2507,1.88245,0,0,0,0,0,0,0,-1,1875,1310,25.2508,-1.88245
658,-286,25.9475,9.43689,0,0,0,0,0,0,0,-1,1882,1310,25.9475,-9.43693
665,-286,24.9838,8.03101,0,0,0,0,0,0,0,-1,1889,1310,24.9837,-8.03104
672,-286,40.2175,12.9626,0,0,0,0,0,0,0,-1,1896,1310,40.2175,-12.9627
679,-286,54.0597,16.7053,0,0,0,0,0,0,0,-1,1903,1310,54.0597,-16.7053
686,-286,54.035,15.9272,0.000726336,-0.00171029,0.000197384,0.000742222,-0.00172617,0.0803094,0.00146238,0.023554,1910,1310,54.0351,-15.9272
693,-286,54.0023,15.1415,0.00100152,-0.00106869,-0.00014858,0.00101213,-0.0010793,-0.0712837,0.00120769,0.017017,1917,1310,54.0023,-15.1414
700,-286,53.967,14.3015,0.000935897,-0.000294181,0.000156068,0.000955389,-0.000313673,0.124254,0.000763279,0.0125916,1924,1310,53.967,-14.3015
707,-286,53.9159,13.489,0.000149157,-0.000360035,0.000851941,0.00078373,-0.000994608,0.640201,0.00102913,0.00931628,1931,1310,53.916,-13.4891
714,-286,53.8657,12.6715,-0.000796027,-0.000503357,0.00166148,0.00101822,-0.0023176,0.829323,0.00197404,0.00953194,1938,1310,53.8657,-12.6715
721,-286,53.8624,11.8396,-0.0019047,-0.000736603,0.00258835,0.00133278,-0.00397408,0.896362,0.00318791,0.0130165,1945,1310,53.8625,-11.8396
728,-286,53.8313,11.0182,-0.00323156,-0.00109477,0.00366733,0.00165662,-0.00598295,0.927139,0.00464047,0.0169,1952,1310,53.8313,-11.0182
735,-286,53.7986,10.1993,-0.00487106,-0.00162955,0.00495894,0.00196677,-0.00846739,0.943343,0.00640202,0.0207718,1959,1310,53.7985,-10.1993
742,-286,53.8251,9.41333,-0.00687727,-0.00235288,0.00650267,0.00226985,-0.0115,0.952794,0.00852462,0.0371096,1966,1310,53.8251,-9.4133
749,-286,53.6722,9.05444,0,0,0,0,0,0,0,-1,1973,1310,53.6722,-9.05447
756,-286,24.8226,4.43481,0,0,0,0,0,0,0,-1,1980,1310,24.8227,-4.43479
763,-286,20.6671,3.99683,0,0,0,0,0,0,0,-1,1987,1310,20.6671,-3.99683
770,-286,23.9147,4.45679,0,0,0,0,0,0,0,-1,1994,1310,23.9146,-4.45675
777,-286,0,0,0,0,0,0,0,0,0,-1,2001,1310,0,0
784,-286,0,0,0,0,0,0,0,0,0,-1,2008,1310,0,0
791,-286,0,0,0,0,0,0,0,0,0,-1,2015,1310,0,0
798,-286,0,0,0,0,0,0,0,0,0,-1,2022,1310,0,0
805,-286,0,0,0,0,0,0,0,0,0,-1,2029,1310,0,0
812,-286,0,0,0,0,0,0,0,0,0,-1,2036,1310,0,0
-700,-293,0,0,0,0,0,0,0,0,0,-1,524,1317,0,0
-693,-293,0,0,0,0,0,0,0,0,0,-1,531,1317,0,0
-686,-293,0,0,0,0,0,0,0,0,0,-1,538,1317,0,0
-679,-293,0,0,0,0,0,0,0,0,0,-1,545,1317,0,0
-672,-293,0,0,0,0,0,0,0,0,0,-1,552,1317,0,0
-665,-293,0,0,0,0,0,0,0,0,0,-1,559,1317,0,0
-658,-293,0,0,0,0,0,0,0,0,0,-1,566,1317,0,0
-651,-293,-42.6636,2.1897,0,0,0,0,0,0,0,-1,573,1317,-42.6636,-2.18965
-644,-293,-42.6672,1.56262,0,0,0,0,0,0,0,-1,580,1317,-42.6672,-1.5626
-637,-293,-42.7898,0.963745,0,0,0,0,0,0,0,-1,587,1317,-42.7898,-0.963689
-630,-293,-42.7558,0.296021,0,0,0,0,0,0,0,-1,594,1317,-42.7558,-0.295997
-623,-293,-15.6058,0.229614,0,0,0,0,0,0,0,-1,601,1317,-15.6058,-0.229666
-616,-293,-15.5056,2.17737,0,0,0,0,0,0,0,-1,608,1317,-15.5055,-2.17742
-609,-293,-25.3796,5.07373,0,0,0,0,0,0,0,-1,615,1317,-25.3796,-5.07369
-602,-293,-36.1518,9.6665,0,0,0,0,0,0,0,-1,622,1317,-36.1518,-9.66655
-595,-293,-36.1625,10.7275,0.00373286,0.00225203,0.00117214,0.00437885,0.00160603,0.503704,0.00255787,0.0226763,629,1317,-36.1625,-10.7276
-588,-293,-36.1971,11.5774,0.00236989,0.00154793,0.000673619,0.002748,0.00116982,0.511489,0.00159239,0.0163957,636,1317,-36.1972,-11.5774
-581,-293,-36.1815,12.4215,0.00144442,0.000919378,0.000348347,0.00161809,0.000745709,0.46249,0.000935161,0.0188792,643,1317,-36.1815,-12.4214
-574,-293,-36.2055,13.3239,0.000803578,0.000339431,0.000108366,0.000827632,0.000315377,0.218428,0.000482319,0.0170352,650,1317,-36.2055,-13.3238
-567,-293,-36.2995,14.1677,0.000466993,-0.000161313,-1.24716e-05,0.000467241,-0.000161561,-0.0198391,0.000377067,0.0166489,657,1317,-36.2995,-14.1678
-560,-293,-36.3472,15.0281,0.000534569,-0.000598179,2.08253e-05,0.000534951,-0.000598562,0.0183765,0.000654777,0.0186183,664,1317,-36.3471,-15.0281
-553,-293,-36.3738,15.8829,0.00104078,-0.000969269,0.000211448,0.00106278,-0.000991271,0.103683,0.00118615,0.0126521,671,1317,-36.3738,-15.883
-546,-293,-36.3615,16.7842,0.00199836,-0.00110374,0.000725164,0.00215951,-0.00126488,0.218668,0.00199944,0.0243917,678,1317,-36.3614,-16.7842
-539,-293,-36.3192,17.6892,0,0,0,0,0,0,0,-1,685,1317,-36.3192,-17.6892
-532,-293,-27.4858,13.6715,0,0,0,0,0,0,0,-1,692,1317,-27.4858,-13.6715
-525,-293,-8.20642,3.62256,0,0,0,0,0,0,0,-1,699,1317,-8.20639,-3.6226
-518,-293,-10.1053,0.314209,0,0,0,0,0,0,0,-1,706,1317,-10.1053,-0.314234
-511,-293,-11.6276,0.235352,0,0,0,0,0,0,0,-1,713,1317,-11.6276,-0.235372
-504,-293,-17.9086,1.25427,0,0,0,0,0,0,0,-1,720,1317,-17.9086,-1.25423
-497,-293,-18.8006,1.62122,0,0,0,0,0,0,0,-1,727,1317,-18.8006,-1.62119
-490,-293,-18.8961,1.99255,0,0,0,0,0,0,0,-1,734,1317,-18.8961,-1.99251
-483,-293,-19.0831,2.35498,0,0,0,0,0,0,0,-1,741,1317,-19.0831,-2.35497
-476,-293,-19.5228,2.61243,0,0,0,0,0,0,0,-1,748,1317,-19.5228,-2.61237
-469,-293,0,0,0,0,0,0,0,0,0,-1,755,1317,0,0
-462,-293,0,0,0,0,0,0,0,0,0,-1,762,1317,0,0
-455,-293,0,0,0,0,0,0,0,0,0,-1,769,1317,0,0
-448,-293,0,0,0,0,0,0,0,0,0,-1,776,1317,0,0
-441,-293,0,0,0,0,0,0,0,0,0,-1,783,1317,0,0
-434,-293,0,0,0,0,0,0,0,0,0,-1,790,1317,0,0
-427,-293,0,0,0,0,0,0,0,0,0,-1,797,1317,0,0
-420,-293,0,0,0,0,0,0,0,0,0,-1,804,1317,0,0
-413,-293,0,0,0,0,0,0,0,0,0,-1,811,1317,0,0
-406,-293,0,0,0,0,0,0,0,0,0,-1,818,1317,0,0
-399,-293,0,0,0,0,0,0,0,0,0,-1,825,1317,0,0
-392,-293,0,0,0,0,0,0,0,0,0,-1,832,1317,0,0
-385,-293,0,0,0,0,0,0,0,0,0,-1,839,1317,0,0
-378,-293,0,0,0,0,0,0,0,0,0,-1,846,1317,0,0
-371,-293,0,0,0,0,0,0,0,0,0,-1,853,1317,0,0
-364,-293,0,0,0,0,0,0,0,0,0,-1,860,1317,0,0
-357,-293,0,0,0,0,0,0,0,0,0,-1,867,1317,0,0
-350,-293,0,0,0,0,0,0,0,0,0,-1,874,1317,0,0
-343,-293,0,0,0,0,0,0,0,0,0,-1,881,1317,0,0
-336,-293,0,0,0,0,0,0,0,0,0,-1,888,1317,0,0
-329,-293,0,0,0,0,0,0,0,0,0,-1,895,1317,0,0
-322,-293,0,0,0,0,0,0,0,0,0,-1,902,1317,0,0
-315,-293,0,0,0,0,0,0,0,0,0,-1,909,1317,0,0
-308,-293,0,0,0,0,0,0,0,0,0,-1,916,1317,0,0
-301,-293,0,0,0,0,0,0,0,0,0,-1,923,1317,0,0
-294,-293,0,0,0,0,0,0,0,0,0,-1,930,1317,0,0
-287,-293,0,0,0,0,0,0,0,0,0,-1,937,1317,0,0
-280,-293,0,0,0,0,0,0,0,0,0,-1,944,1317,0,0
-273,-293,0,0,0,0,0,0,0,0,0,-1,951,1317,0,0
-266,-293,0,0,0,0,0,0,0,0,0,-1,958,1317,0,0
-259,-293,0,0,0,0,0,0,0,0,0,-1,965,1317,0,0
-252,-293,0,0,0,0,0,0,0,0,0,-1,972,1317,0,0
-245,-293,0,0,0,0,0,0,0,0,0,-1,979,1317,0,0
-238,-293,0,0,0,0,0,0,0,0,0,-1,986,1317,0,0
-231,-293,0,0,0,0,0,0,0,0,0,-1,993,1317,0,0
-224,-293,0,0,0,0,0,0,0,0,0,-1,1000,1317,0,0
-217,-293,0,0,0,0,0,0,0,0,0,-1,1007,1317,0,0
-210,-293,0,0,0,0,0,0,0,0,0,-1,1014,1317,0,0
-203,-293,0,0,0,0,0,0,0,0,0,-1,1021,1317,0,0
-196,-293,0,0,0,0,0,0,0,0,0,-1,1028,1317,0,0
-189,-293,0,0,0,0,0,0,0,0,0,-1,1035,1317,0,0
-182,-293,0,0,0,0,0,0,0,0,0,-1,1042,1317,0,0
-175,-293,0,0,0,0,0,0,0,0,0,-1,1049,1317,0,0
-168,-293,0,0,0,0,0,0,0,0,0,-1,1056,1317,0,0
-161,-293,0,0,0,0,0,0,0,0,0,-1,1063,1317,0,0
-154,-293,0,0,0,0,0,0,0,0,0,-1,1070,1317,0,0
-147,-293,0,0,0,0,0,0,0,0,0,-1,1077,1317,0,0
-140,-293,0,0,0,0,0,0,0,0,0,-1,1084,1317,0,0
-133,-293,0,0,0,0,0,0,0,0,0,-1,1091,1317,0,0
-126,-293,0,0,0,0,0,0,0,0,0,-1,1098,1317,0,0
-119,-293,0,0,0,0,0,0,0,0,0,-1,1105,1317,0,0
-112,-293,0,0,0,0,0,0,0,0,0,-1,1112,1317,0,0
-105,-293,0,0,0,0,0,0,0,0,0,-1,1119,1317,0,0
-98,-293,0,0,0,0,0,0,0,0,0,-1,1126,1317,0,0
-91,-293,0,0,0,0,0,0,0,0,0,-1,1133,1317,0,0
-84,-293,0,0,0,0,0,0,0,0,0,-1,1140,1317,0,0
-77,-293,0,0,0,0,0,0,0,0,0,-1,1147,1317,0,0
-70,-293,0,0,0,0,0,0,0,0,0,-1,1154,1317,0,0
-63,-293,0,0,0,0,0,0,0,0,0,-1,1161,1317,0,0
-56,-293,0,0,0,0,0,0,0,0,0,-1,1168,1317,0,0
-49,-293,0,0,0,0,0,0,0,0,0,-1,1175,1317,0,0
-42,-293,0,0,0,0,0,0,0,0,0,-1,1182,1317,0,0
-35,-293,0,0,0,0,0,0,0,0,0,-1,1189,1317,0,0
-28,-293,0,0,0,0,0,0,0,0,0,-1,1196,1317,0,0
-21,-293,0,0,0,0,0,0,0,0,0,-1,1203,1317,0,0
-14,-293,0,0,0,0,0,0,0,0,0,-1,1210,1317,0,0
-7,-293,0,0,0,0,0,0,0,0,0,-1,1217,1317,0,0
0,-293,0,0,0,0,0,0,0,0,0,-1,1224,1317,0,0
7,-293,0,0,0,0,0,0,0,0,0,-1,1231,1317,0,0
14,-293,0,0,0,0,0,0,0,0,0,-1,1238,1317,0,0
21,-293,0,0,0,0,0,0,0,0,0,-1,1245,1317,0,0
28,-293,0,0,0,0,0,0,0,0,0,-1,1252,1317,0,0
35,-293,0,0,0,0,0,0,0,0,0,-1,1259,1317,0,0
42,-293,0,0,0,0,0,0,0,0,0,-1,1266,1317,0,0
49,-293,0,0,0,0,0,0,0,0,0,-1,1273,1317,0,0
56,-293,0,0,0,0,0,0,0,0,0,-1,1280,1317,0,0
63,-293,0,0,0,0,0,0,0,0,0,-1,1287,1317,0,0
70,-293,0,0,0,0,0,0,0,0,0,-1,1294,1317,0,0
77,-293,0,0,0,0,0,0,0,0,0,-1,1301,1317,0,0
84,-293,0,0,0,0,0,0,0,0,0,-1,1308,1317,0,0
91,-293,0,0,0,0,0,0,0,0,0,-1,1315,1317,0,0
98,-293,0,0,0,0,0,0,0,0,0,-1,1322,1317,0,0
105,-293,0,0,0,0,0,0,0,0,0,-1,1329,1317,0,0
112,-293,0,0,0,0,0,0,0,0,0,-1,1336,1317,0,0
119,-293,0,0,0,0,0,0,0,0,0,-1,1343,1317,0,0
126,-293,0,0,0,0,0,0,0,0,0,-1,1350,1317,0,0
133,-293,0,0,0,0,0,0,0,0,0,-1,1357,1317,0,0
140,-293,0,0,0,0,0,0,0,0,0,-1,1364,1317,0,0
147,-293,0,0,0,0,0,0,0,0,0,-1,1371,1317,0,0
154,-293,0,0,0,0,0,0,0,0,0,-1,1378,1317,0,0
161,-293,0,0,0,0,0,0,0,0,0,-1,1385,1317,0,0
168,-293,0,0,0,0,0,0,0,0,0,-1,1392,1317,0,0
175,-293,0,0,0,0,0,0,0,0,0,-1,1399,1317,0,0
182,-293,0,0,0,0,0,0,0,0,0,-1,1406,1317,0,0
189,-293,0,0,0,0,0,0,0,0,0,-1,1413,1317,0,0
196,-293,0,0,0,0,0,0,0,0,0,-1,1420,1317,0,0
203,-293,0,0,0,0,0,0,0,0,0,-1,1427,1317,0,0
210,-293,0,0,0,0,0,0,0,0,0,-1,1434,1317,0,0
217,-293,0,0,0,0,0,0,0,0,0,-1,1441,1317,0,0
224,-293,0,0,0,0,0,0,0,0,0,-1,1448,1317,0,0
231,-293,0,0,0,0,0,0,0,0,0,-1,1455,1317,0,0
238,-293,0,0,0,0,0,0,0,0,0,-1,1462,1317,0,0
245,-293,0,0,0,0,0,0,0,0,0,-1,1469,1317,0,0
252,-293,0,0,0,0,0,0,0,0,0,-1,1476,1317,0,0
259,-293,0,0,0,0,0,0,0,0,0,-1,1483,1317,0,0
266,-293,0,0,0,0,0,0,0,0,0,-1,1490,1317,0,0
273,-293,0,0,0,0,0,0,0,0,0,-1,1497,1317,0,0
280,-293,0,0,0,0,0,0,0,0,0,-1,1504,1317,0,0
287,-293,0,0,0,0,0,0,0,0,0,-1,1511,1317,0,0
294,-293,0,0,0,0,0,0,0,0,0,-1,1518,1317,0,0
301,-293,0,0,0,0,0,0,0,0,0,-1,1525,1317,0,0
308,-293,0,0,0,0,0,0,0,0,0,-1,1532,1317,0,0
315,-293,0,0,0,0,0,0,0,0,0,-1,1539,1317,0,0
322,-293,0,0,0,0,0,0,0,0,0,-1,1546,1317,0,0
329,-293,0,0,0,0,0,0,0,0,0,-1,1553,1317,0,0
336,-293,0,0,0,0,0,0,0,0,0,-1,1560,1317,0,0
343,-293,0,0,0,0,0,0,0,0,0,-1,1567,1317,0,0
350,-293,0,0,0,0,0,0,0,0,0,-1,1574,1317,0,0
357,-293,0,0,0,0,0,0,0,0,0,-1,1581,1317,0,0
364,-293,0,0,0,0,0,0,0,0,0,-1,1588,1317,0,0
371,-293,0,0,0,0,0,0,0,0,0,-1,1595,1317,0,0
378,-293,0,0,0,0,0,0,0,0,0,-1,1602,1317,0,0
385,-293,0,0,0,0,0,0,0,0,0,-1,1609,1317,0,0
392,-293,0,0,0,0,0,0,0,0,0,-1,1616,1317,0,0
399,-293,0,0,0,0,0,0,0,0,0,-1,1623,1317,0,0
406,-293,0,0,0,0,0,0,0,0,0,-1,1630,1317,0,0
413,-293,0,0,0,0,0,0,0,0,0,-1,1637,1317,0,0
420,-293,0,0,0,0,0,0,0,0,0,-1,1644,1317,0,0
427,-293,0,0,0,0,0,0,0,0,0,-1,1651,1317,0,0
434,-293,0,0,0,0,0,0,0,0,0,-1,1658,1317,0,0
441,-293,0,0,0,0,0,0,0,0,0,-1,1665,1317,0,0
448,-293,0,0,0,0,0,0,0,0,0,-1,1672,1317,0,0
455,-293,0,0,0,0,0,0,0,0,0,-1,1679,1317,0,0
462,-293,0,0,0,0,0,0,0,0,0,-1,1686,1317,0,0
469,-293,0,0,0,0,0,0,0,0,0,-1,1693,1317,0,0
476,-293,0,0,0,0,0,0,0,0,0,-1,1700,1317,0,0
483,-293,0,0,0,0,0,0,0,0,0,-1,1707,1317,0,0
490,-293,0,0,0,0,0,0,0,0,0,-1,1714,1317,0,0
497,-293,0,0,0,0,0,0,0,0,0,-1,1721,1317,0,0
504,-293,0,0,0,0,0,0,0,0,0,-1,1728,1317,0,0
511,-293,0,0,0,0,0,0,0,0,0,-1,1735,1317,0,0
518,-293,0,0,0,0,0,0,0,0,0,-1,1742,1317,0,0
525,-293,0,0,0,0,0,0,0,0,0,-1,1749,1317,0,0
532,-293,0,0,0,0,0,0,0,0,0,-1,1756,1317,0,0
539,-293,0,0,0,0,0,0,0,0,0,-1,1763,1317,0,0
546,-293,0,0,0,0,0,0,0,0,0,-1,1770,1317,0,0
553,-293,0,0,0,0,0,0,0,0,0,-1,1777,1317,0,0
560,-293,0,0,0,0,0,0,0,0,0,-1,1784,1317,0,0
567,-293,0,0,0,0,0,0,0,0,0,-1,1791,1317,0,0
574,-293,0,0,0,0,0,0,0,0,0,-1,1798,1317,0,0
581,-293,0,0,0,0,0,0,0,0,0,-1,1805,1317,0,0
588,-293,0,0,0,0,0,0,0,0,0,-1,1812,1317,0,0
595,-293,70.0999,2.25085,0,0,0,0,0,0,0,-1,1819,1317,70.0998,-2.25088
602,-293,70.2273,2.05859,0,0,0,0,0,0,0,-1,1826,1317,70.2273,-2.05859
609,-293,79.9369,0.984985,0,0,0,0,0,0,0,-1,1833,1317,79.9368,-0.985044
616,-293,79.6583,0.456787,0,0,0,0,0,0,0,-1,1840,1317,79.6583,-0.456764
623,-293,64.6224,0.448364,0,0,0,0,0,0,0,-1,1847,1317,64.6224,-0.448318
630,-293,46.6716,3.21558,0,0,0,0,0,0,0,-1,1854,1317,46.6716,-3.2156
637,-293,42.7729,4.95544,0,0,0,0,0,0,0,-1,1861,1317,42.773,-4.95546
644,-293,24.4565,0.520752,0,0,0,0,0,0,0,-1,1868,1317,24.4566,-0.520709
651,-293,25.8926,9.51245,0,0,0,0,0,0,0,-1,1875,1317,25.8926,-9.51246
658,-293,25.4904,9.10205,0,0,0,0,0,0,0,-1,1882,1317,25.4904,-9.10209
665,-293,39.7999,13.4221,0,0,0,0,0,0,0,-1,1889,1317,39.8,-13.4221
672,-293,53.3262,17.6117,0,0,0,0,0,0,0,-1,1896,1317,53.3261,-17.6118
679,-293,53.3041,16.7925,0.000652205,0.000291661,0.000144823,0.000703172,0.000240694,0.338392,0.000412653,0.0246627,1903,1317,53.3041,-16.7925
686,-293,53.2538,15.9978,0.00117854,-0.00109118,-0.000163438,0.00119025,-0.00110289,-0.0715161,0.00132427,0.0174576,1910,1317,53.2538,-15.9979
693,-293,53.2137,15.1742,0.00122799,-0.000657857,-0.000271406,0.00126627,-0.00069614,-0.14013,0.00114883,0.0134389,1917,1317,53.2138,-15.1741
700,-293,53.1532,14.3324,0.000933603,-0.000243458,0.000172615,0.000958394,-0.00026825,0.142649,0.00074463,0.0111949,1924,1317,53.1532,-14.3324
707,-293,53.111,13.5232,0.000171096,-0.000338037,0.000888179,0.00084047,-0.00100741,0.645831,0.00106832,0.0111815,1931,1317,53.111,-13.5232
714,-293,53.0568,12.7109,-0.000727987,-0.000504505,0.00170967,0.00109707,-0.00232957,0.818031,0.00202058,0.00813701,1938,1317,53.0568,-12.711
721,-293,53.0259,11.8761,-0.0017878,-0.000747715,0.0026503,0.00143308,-0.00396859,0.882277,0.00323115,0.0101059,1945,1317,53.0258,-11.8761
728,-293,53.0083,11.0294,-0.00306338,-0.00110092,0.00374716,0.00179135,-0.00595565,0.913453,0.00468318,0.0135427,1952,1317,53.0083,-11.0294
735,-293,52.9602,10.172,-0.00466348,-0.00164194,0.00507932,0.00214653,-0.00845195,0.929949,0.00646994,0.0249824,1959,1317,52.9602,-10.172
742,-293,52.9067,9.22876,-0.00662635,-0.00234826,0.00667482,0.00252189,-0.0114965,0.94046,0.00862869,0.0495839,1966,1317,52.9068,-9.22881
749,-293,53.1185,8.14404,0,0,0,0,0,0,0,-1,1973,1317,53.1186,-8.14408
756,-293,24.978,3.9718,0,0,0,0,0,0,0,-1,1980,1317,24.978,-3.97186
763,-293,26.6713,4.74097,0,0,0,0,0,0,0,-1,1987,1317,26.6713,-4.74098
770,-293,24.1349,4.69153,0,0,0,0,0,0,0,-1,1994,1317,24.1348,-4.69159
777,-293,0,0,0,0,0,0,0,0,0,-1,2001,1317,0,0
784,-293,0,0,0,0,0,0,0,0,0,-1,2008,1317,0,0
791,-293,0,0,0,0,0,0,0,0,0,-1,2015,1317,0,0
798,-293,0,0,0,0,0,0,0,0,0,-1,2022,1317,0,0
805,-293,0,0,0,0,0,0,0,0,0,-1,2029,1317,0,0
812,-293,0,0,0,0,0,0,0,0,0,-1,2036,1317,0,0
-700,-300,0,0,0,0,0,0,0,0,0,-1,524,1324,0,0
-693,-300,0,0,0,0,0,0,0,0,0,-1,531,1324,0,0
-686,-300,0,0,0,0,0,0,0,0,0,-1,538,1324,0,0
-679,-300,0,0,0,0,0,0,0,0,0,-1,545,1324,0,0
-672,-300,0,0,0,0,0,0,0,0,0,-1,552,1324,0,0
-665,-300,0,0,0,0,0,0,0,0,0,-1,559,1324,0,0
-658,-300,0,0,0,0,0,0,0,0,0,-1,566,1324,0,0
-651,-300,-41.7632,2.33789,0,0,0,0,0,0,0,-1,573,1324,-41.7632,-2.33789
-644,-300,-42.3084,1.3728,0,0,0,0,0,0,0,-1,580,1324,-42.3084,-1.37282
-637,-300,-42.6259,0.807251,0,0,0,0,0,0,0,-1,587,1324,-42.6259,-0.807209
-630,-300,-21.1108,2.26306,0,0,0,0,0,0,0,-1,594,1324,-21.1109,-2.2631
-623,-300,-12.7067,1.48462,0,0,0,0,0,0,0,-1,601,1324,-12.7067,-1.48462
-616,-300,-14.9988,1.68628,0,0,0,0,0,0,0,-1,608,1324,-14.9988,-1.68627
-609,-300,-15.5027,3.29907,0,0,0,0,0,0,0,-1,615,1324,-15.5027,-3.29902
-602,-300,-35.3788,9.62341,0,0,0,0,0,0,0,-1,622,1324,-35.3789,-9.62345
-595,-300,-35.3839,10.7279,0.00412817,0.00289622,0.00170628,0.00532625,0.00169814,0.612175,0.00314169,0.0422414,629,1324,-35.3839,-10.7278
-588,-300,-35.3017,11.6453,0.00275163,0.00210397,0.0010553,0.00353167,0.00132393,0.636528,0.00206018,0.0203109,636,1324,-35.3017,-11.6453
-581,-300,-35.3565,12.514,0.00195259,0.00148149,0.000690417,0.00244653,0.000987547,0.621006,0.00142122,0.0207916,643,1324,-35.3565,-12.5141
-574,-300,-35.3726,13.386,0.00146476,0.000923541,0.000437155,0.00170829,0.000680018,0.508251,0.000993089,0.0171842,650,1324,-35.3726,-13.386
-567,-300,-35.4214,14.2136,0.00130456,0.000461564,0.000335142,0.00142156,0.000344563,0.33588,0.00085628,0.017525,657,1324,-35.4214,-14.2136
-560,-300,-35.4845,15.0751,0.00151166,7.76986e-05,0.00040225,0.00161679,-2.74318e-05,0.255637,0.00108712,0.0170692,664,1324,-35.4845,-15.0751
-553,-300,-35.5125,15.9412,0.00212802,-0.000215342,0.000651161,0.00229681,-0.000384126,0.253623,0.001674,0.0121946,671,1324,-35.5124,-15.9412
-546,-300,-35.5633,16.7926,0.00315073,-0.000361283,0.00117237,0.00350613,-0.000716677,0.294336,0.00260933,0.0132952,678,1324,-35.5633,-16.7925
-539,-300,-35.4316,17.7627,0.00484557,-0.000363856,0.00211164,0.005594,-0.00111229,0.340616,0.00415008,0.0328453,685,1324,-35.4317,-17.7627
-532,-300,-35.2255,18.7366,0,0,0,0,0,0,0,-1,692,1324,-35.2255,-18.7366
-525,-300,-13.5115,6.27783,0,0,0,0,0,0,0,-1,699,1324,-13.5115,-6.2778
-518,-300,-9.8349,-0.537109,0,0,0,0,0,0,0,-1,706,1324,-9.83487,0.537068
-511,-300,-12.8644,0.081665,0,0,0,0,0,0,0,-1,713,1324,-12.8644,-0.0817016
-504,-300,-13.4829,-0.165527,0,0,0,0,0,0,0,-1,720,1324,-13.4829,0.165544
-497,-300,-18.1063,0.956543,0,0,0,0,0,0,0,-1,727,1324,-18.1063,-0.9565
-490,-300,-18.2293,1.53625,0,0,0,0,0,0,0,-1,734,1324,-18.2293,-1.53626
-483,-300,-18.3522,1.61084,0,0,0,0,0,0,0,-1,741,1324,-18.3522,-1.6108
-476,-300,-18.7489,1.96387,0,0,0,0,0,0,0,-1,748,1324,-18.7489,-1.96387
-469,-300,0,0,0,0,0,0,0,0,0,-1,755,1324,0,0
-462,-300,0,0,0,0,0,0,0,0,0,-1,762,1324,0,0
-455,-300,0,0,0,0,0,0,0,0,0,-1,769,1324,0,0
-448,-300,0,0,0,0,0,0,0,0,0,-1,776,1324,0,0
-441,-300,0,0,0,0,0,0,0,0,0,-1,783,1324,0,0
-434,-300,0,0,0,0,0,0,0,0,0,-1,790,1324,0,0
-427,-300,0,0,0,0,0,0,0,0,0,-1,797,1324,0,0
-420,-300,0,0,0,0,0,0,0,0,0,-1,804,1324,0,0
-413,-300,0,0,0,0,0,0,0,0,0,-1,811,1324,0,0
-406,-300,0,0,0,0,0,0,0,0,0,-1,818,1324,0,0
-399,-300,0,0,0,0,0,0,0,0,0,-1,825,1324,0,0
-392,-300,0,0,0,0,0,0,0,0,0,-1,832,1324,0,0
-385,-300,0,0,0,0,0,0,0,0,0,-1,839,1324,0,0
-378,-300,0,0,0,0,0,0,0,0,0,-1,846,1324,0,0
-371,-300,0,0,0,0,0,0,0,0,0,-1,853,1324,0,0
-364,-300,0,0,0,0,0,0,0,0,0,-1,860,1324,0,0
-357,-300,0,0,0,0,0,0,0,0,0,-1,867,1324,0,0
-350,-300,0,0,0,0,0,0,0,0,0,-1,874,1324,0,0
-343,-300,0,0,0,0,0,0,0,0,0,-1,881,1324,0,0
-336,-300,0,0,0,0,0,0,0,0,0,-1,888,1324,0,0
-329,-300,0,0,0,0,0,0,0,0,0,-1,895,1324,0,0
-322,-300,0,0,0,0,0,0,0,0,0,-1,902,1324,0,0
-315,-300,0,0,0,0,0,0,0,0,0,-1,909,1324,0,0
-308,-300,0,0,0,0,0,0,0,0,0,-1,916,1324,0,0
-301,-300,0,0,0,0,0,0,0,0,0,-1,923,1324,0,0
-294,-300,0,0,0,0,0,0,0,0,0,-1,930,1324,0,0
-287,-300,0,0,0,0,0,0,0,0,0,-1,937,1324,0,0
-280,-300,0,0,0,0,0,0,0,0,0,-1,944,1324,0,0
-273,-300,0,0,0,0,0,0,0,0,0,-1,951,1324,0,0
-266,-300,0,0,0,0,0,0,0,0,0,-1,958,1324,0,0
-259,-300,0,0,0,0,0,0,0,0,0,-1,965,1324,0,0
-252,-300,0,0,0,0,0,0,0,0,0,-1,972,1324,0,0
-245,-300,0,0,0,0,0,0,0,0,0,-1,979,1324,0,0
-238,-300,0,0,0,0,0,0,0,0,0,-1,986,1324,0,0
-231,-300,0,0,0,0,0,0,0,0,0,-1,993,1324,0,0
-224,-300,0,0,0,0,0,0,0,0,0,-1,1000,1324,0,0
-217,-300,0,0,0,0,0,0,0,0,0,-1,1007,1324,0,0
-210,-300,0,0,0,0,0,0,0,0,0,-1,1014,1324,0,0
-203,-300,0,0,0,0,0,0,0,0,0,-1,1021,1324,0,0
-196,-300,0,0,0,0,0,0,0,0,0,-1,1028,1324,0,0
-189,-300,0,0,0,0,0,0,0,0,0,-1,1035,1324,0,0
-182,-300,0,0,0,0,0,0,0,0,0,-1,1042,1324,0,0
-175,-300,0,0,0,0,0,0,0,0,0,-1,1049,1324,0,0
-168,-300,0,0,0,0,0,0,0,0,0,-1,1056,1324,0,0
-161,-300,0,0,0,0,0,0,0,0,0,-1,1063,1324,0,0
-154,-300,0,0,0,0,0,0,0,0,0,-1,1070,1324,0,0
-147,-300,0,0,0,0,0,0,0,0,0,-1,1077,1324,0,0
-140,-300,0,0,0,0,0,0,0,0,0,-1,1084,1324,0,0
-133,-300,0,0,0,0,0,0,0,0,0,-1,1091,1324,0,0
-126,-300,0,0,0,0,0,0,0,0,0,-1,1098,1324,0,0
-119,-300,0,0,0,0,0,0,0,0,0,-1,1105,1324,0,0
-112,-300,0,0,0,0,0,0,0,0,0,-1,1112,1324,0,0
-105,-300,0,0,0,0,0,0,0,0,0,-1,1119,1324,0,0
-98,-300,0,0,0,0,0,0,0,0,0,-1,1126,1324,0,0
-91,-300,0,0,0,0,0,0,0,0,0,-1,1133,1324,0,0
-84,-300,0,0,0,0,0,0,0,0,0,-1,1140,1324,0,0
-77,-300,0,0,0,0,0,0,0,0,0,-1,1147,1324,0,0
-70,-300,0,0,0,0,0,0,0,0,0,-1,1154,1324,0,0
-63,-300,0,0,0,0,0,0,0,0,0,-1,1161,1324,0,0
-56,-300,0,0,0,0,0,0,0,0,0,-1,1168,1324,0,0
-49,-300,0,0,0,0,0,0,0,0,0,-1,1175,1324,0,0
-42,-300,0,0,0,0,0,0,0,0,0,-1,1182,1324,0,0
-35,-300,0,0,0,0,0,0,0,0,0,-1,1189,1324,0,0
-28,-300,0,0,0,0,0,0,0,0,0,-1,1196,1324,0,0
-21,-300,0,0,0,0,0,0,0,0,0,-1,1203,1324,0,0
-14,-300,0,0,0,0,0,0,0,0,0,-1,1210,1324,0,0
-7,-300,0,0,0,0,0,0,0,0,0,-1,1217,1324,0,0
0,-300,0,0,0,0,0,0,0,0,0,-1,1224,1324,0,0
7,-300,0,0,0,0,0,0,0,0,0,-1,1231,1324,0,0
14,-300,0,0,0,0,0,0,0,0,0,-1,1238,1324,0,0
21,-300,0,0,0,0,0,0,0,0,0,-1,1245,1324,0,0
28,-300,0,0,0,0,0,0,0,0,0,-1,1252,1324,0,0
35,-300,0,0,0,0,0,0,0,0,0,-1,1259,1324,0,0
42,-300,0,0,0,0,0,0,0,0,0,-1,1266,1324,0,0
49,-300,0,0,0,0,0,0,0,0,0,-1,1273,1324,0,0
56,-300,0,0,0,0,0,0,0,0,0,-1,1280,1324,0,0
63,-300,0,0,0,0,0,0,0,0,0,-1,1287,1324,0,0
70,-300,0,0,0,0,0,0,0,0,0,-1,1294,1324,0,0
77,-300,0,0,0,0,0,0,0,0,0,-1,1301,1324,0,0
84,-300,0,0,0,0,0,0,0,0,0,-1,1308,1324,0,0
91,-300,0,0,0,0,0,0,0,0,0,-1,1315,1324,0,0
98,-300,0,0,0,0,0,0,0,0,0,-1,1322,1324,0,0
105,-300,0,0,0,0,0,0,0,0,0,-1,1329,1324,0,0
112,-300,0,0,0,0,0,0,0,0,0,-1,1336,1324,0,0
119,-300,0,0,0,0,0,0,0,0,0,-1,1343,1324,0,0
126,-300,0,0,0,0,0,0,0,0,0,-1,1350,1324,0,0
133,-300,0,0,0,0,0,0,0,0,0,-1,1357,1324,0,0
140,-300,0,0,0,0,0,0,0,0,0,-1,1364,1324,0,0
147,-300,0,0,0,0,0,0,0,0,0,-1,1371,1324,0,0
154,-300,0,0,0,0,0,0,0,0,0,-1,1378,1324,0,0
161,-300,0,0,0,0,0,0,0,0,0,-1,1385,1324,0,0
168,-300,0,0,0,0,0,0,0,0,0,-1,1392,1324,0,0
175,-300,0,0,0,0,0,0,0,0,0,-1,1399,1324,0,0
182,-300,0,0,0,0,0,0,0,0,0,-1,1406,1324,0,0
189,-300,0,0,0,0,0,0,0,0,0,-1,1413,1324,0,0
196,-300,0,0,0,0,0,0,0,0,0,-1,1420,1324,0,0
203,-300,0,0,0,0,0,0,0,0,0,-1,1427,1324,0,0
210,-300,0,0,0,0,0,0,0,0,0,-1,1434,1324,0,0
217,-300,0,0,0,0,0,0,0,0,0,-1,1441,1324,0,0
224,-300,0,0,0,0,0,0,0,0,0,-1,1448,1324,0,0
231,-300,0,0,0,0,0,0,0,0,0,-1,1455,1324,0,0
238,-300,0,0,0,0,0,0,0,0,0,-1,1462,1324,0,0
245,-300,0,0,0,0,0,0,0,0,0,-1,1469,1324,0,0
252,-300,0,0,0,0,0,0,0,0,0,-1,1476,1324,0,0
259,-300,0,0,0,0,0,0,0,0,0,-1,1483,1324,0,0
266,-300,0,0,0,0,0,0,0,0,0,-1,1490,1324,0,0
273,-300,0,0,0,0,0,0,0,0,0,-1,1497,1324,0,0
280,-300,0,0,0,0,0,0,0,0,0,-1,1504,1324,0,0
287,-300,0,0,0,0,0,0,0,0,0,-1,1511,1324,0,0
294,-300,0,0,0,0,0,0,0,0,0,-1,1518,1324,0,0
301,-300,0,0,0,0,0,0,0,0,0,-1,1525,1324,0,0
308,-300,0,0,0,0,0,0,0,0,0,-1,1532,1324,0,0
315,-300,0,0,0,0,0,0,0,0,0,-1,1539,1324,0,0
322,-300,0,0,0,0,0,0,0,0,0,-1,1546,1324,0,0
329,-300,0,0,0,0,0,0,0,0,0,-1,1553,1324,0,0
336,-300,0,0,0,0,0,0,0,0,0,-1,1560,1324,0,0
343,-300,0,0,0,0,0,0,0,0,0,-1,1567,1324,0,0
350,-300,0,0,0,0,0,0,0,0,0,-1,1574,1324,0,0
357,-300,0,0,0,0,0,0,0,0,0,-1,1581,1324,0,0
364,-300,0,0,0,0,0,0,0,0,0,-1,1588,1324,0,0
371,-300,0,0,0,0,0,0,0,0,0,-1,1595,1324,0,0
378,-300,0,0,0,0,0,0,0,0,0,-1,1602,1324,0,0
385,-300,0,0,0,0,0,0,0,0,0,-1,1609,1324,0,0
392,-300,0,0,0,0,0,0,0,0,0,-1,1616,1324,0,0
399,-300,0,0,0,0,0,0,0,0,0,-1,1623,1324,0,0
406,-300,0,0,0,0,0,0,0,0,0,-1,1630,1324,0,0
413,-300,0,0,0,0,0,0,0,0,0,-1,1637,1324,0,0
420,-300,0,0,0,0,0,0,0,0,0,-1,1644,1324,0,0
427,-300,0,0,0,0,0,0,0,0,0,-1,1651,1324,0,0
434,-300,0,0,0,0,0,0,0,0,0,-1,1658,1324,0,0
441,-300,0,0,0,0,0,0,0,0,0,-1,1665,1324,0,0
448,-300,0,0,0,0,0,0,0,0,0,-1,1672,1324,0,0
455,-300,0,0,0,0,0,0,0,0,0,-1,1679,1324,0,0
462,-300,0,0,0,0,0,0,0,0,0,-1,1686,1324,0,0
469,-300,0,0,0,0,0,0,0,0,0,-1,1693,1324,0,0
476,-300,0,0,0,0,0,0,0,0,0,-1,1700,1324,0,0
483,-300,0,0,0,0,0,0,0,0,0,-1,1707,1324,0,0
490,-300,0,0,0,0,0,0,0,0,0,-1,1714,1324,0,0
497,-300,0,0,0,0,0,0,0,0,0,-1,1721,1324,0,0
504,-300,0,0,0,0,0,0,0,0,0,-1,1728,1324,0,0
511,-300,0,0,0,0,0,0,0,0,0,-1,1735,1324,0,0
518,-300,0,0,0,0,0,0,0,0,0,-1,1742,1324,0,0
525,-300,0,0,0,0,0,0,0,0,0,-1,1749,1324,0,0
532,-300,0,0,0,0,0,0,0,0,0,-1,1756,1324,0,0
539,-300,0,0,0,0,0,0,0,0,0,-1,1763,1324,0,0
546,-300,0,0,0,0,0,0,0,0,0,-1,1770,1324,0,0
553,-300,0,0,0,0,0,0,0,0,0,-1,1777,1324,0,0
560,-300,0,0,0,0,0,0,0,0,0,-1,1784,1324,0,0
567,-300,0,0,0,0,0,0,0,0,0,-1,1791,1324,0,0
574,-300,0,0,0,0,0,0,0,0,0,-1,1798,1324,0,0
581,-300,0,0,0,0,0,0,0,0,0,-1,1805,1324,0,0
588,-300,66.4561,1.99207,0,0,0,0,0,0,0,-1,1812,1324,66.456,-1.99202
595,-300,66.4685,1.95496,0,0,0,0,0,0,0,-1,1819,1324,66.4685,-1.95499
602,-300,66.5259,1.72363,0,0,0,0,0,0,0,-1,1826,1324,66.5259,-1.72367
609,-300,64.2576,2.90149,0,0,0,0,0,0,0,-1,1833,1324,64.2575,-2.90154
616,-300,65.1267,2.84033,0,0,0,0,0,0,0,-1,1840,1324,65.1267,-2.84037
623,-300,47.4474,2.43188,0,0,0,0,0,0,0,-1,1847,1324,47.4474,-2.43194
630,-300,42.4099,3.9165,0,0,0,0,0,0,0,-1,1854,1324,42.4099,-3.91649
637,-300,31.1719,4.6366,0,0,0,0,0,0,0,-1,1861,1324,31.1718,-4.63665
644,-300,22.9836,3.44934,0,0,0,0,0,0,0,-1,1868,1324,22.9836,-3.4493
651,-300,25.5004,9.11853,0,0,0,0,0,0,0,-1,1875,1324,25.5004,-9.11851
658,-300,25.4012,9.20032,0,0,0,0,0,0,0,-1,1882,1324,25.4012,-9.20036
665,-300,52.6694,18.4771,0,0,0,0,0,0,0,-1,1889,1324,52.6695,-18.4771
672,-300,52.4799,17.7466,0.000274761,0.00294322,0.000361101,0.00299122,0.000226759,1.43864,0.00192302,0.0384832,1896,1324,52.4799,-17.7466
679,-300,52.4839,16.8727,0.000923301,0.000823284,-0.000174723,0.00105503,0.000691554,-0.646016,0.000618861,0.0141001,1903,1324,52.4838,-16.8726
686,-300,52.4265,16.0612,0.00126093,-0.000451902,-0.000332958,0.00132338,-0.000514349,-0.185398,0.00109475,0.0145118,1910,1324,52.4265,-16.0612
693,-300,52.3687,15.229,0.00115419,-0.000309375,-0.000258977,0.00119867,-0.000353849,-0.170072,0.00093954,0.0123673,1917,1324,52.3687,-15.229
700,-300,52.3185,14.3778,0.000792768,-0.000202164,0.000242595,0.000848768,-0.000258165,0.226864,0.000668723,0.0130314,1924,1324,52.3185,-14.3778
707,-300,52.3014,13.5319,0.000186778,-0.000302951,0.000903938,0.00087843,-0.000994602,0.653129,0.00108209,0.00911377,1931,1324,52.3014,-13.5319
714,-300,52.2574,12.7257,-0.000558598,-0.000473677,0.0016785,0.0011629,-0.00219517,0.798044,0.00196908,0.0107395,1938,1324,52.2575,-12.7256
721,-300,52.2042,11.9161,-0.00147786,-0.000706625,0.0025784,0.00151484,-0.00369932,0.859626,0.00309721,0.0127374,1945,1324,52.2042,-11.9161
728,-300,52.1915,11.0531,-0.0026358,-0.0010266,0.00364548,0.00190202,-0.00556442,0.894012,0.00448028,0.0173427,1952,1324,52.1916,-11.0531
735,-300,51.9872,10.49,-0.00416361,-0.00154754,0.00498264,0.0022959,-0.00800705,0.913761,0.00624561,0.0325301,1959,1324,51.9872,-10.49
742,-300,52.3087,9.20593,0,0,0,0,0,0,0,-1,1966,1324,52.3087,-9.20591
749,-300,27.4065,5.9718,0,0,0,0,0,0,0,-1,1973,1324,27.4065,-5.97181
756,-300,22.1423,3.45642,0,0,0,0,0,0,0,-1,1980,1324,22.1423,-3.45638
763,-300,22.6136,5.1571,0,0,0,0,0,0,0,-1,1987,1324,22.6136,-5.15706
770,-300,24.859,4.77979,0,0,0,0,0,0,0,-1,1994,1324,24.859,-4.77972
777,-300,0,0,0,0,0,0,0,0,0,-1,2001,1324,0,0
784,-300,0,0,0,0,0,0,0,0,0,-1,2008,1324,0,0
791,-300,0,0,0,0,0,0,0,0,0,-1,2015,1324,0,0
798,-300,0,0,0,0,0,0,0,0,0,-1,2022,1324,0,0
805,-300,0,0,0,0,0,0,0,0,0,-1,2029,1324,0,0
812,-300,0,0,0,0,0,0,0,0,0,-1,2036,1324,0,0
-700,-307,0,0,0,0,0,0,0,0,0,-1,524,1331,0,0
-693,-307,0,0,0,0,0,0,0,0,0,-1,531,1331,0,0
-686,-307,0,0,0,0,0,0,0,0,0,-1,538,1331,0,0
-679,-307,0,0,0,0,0,0,0,0,0,-1,545,1331,0,0
-672,-307,0,0,0,0,0,0,0,0,0,-1,552,1331,0,0
-665,-307,0,0,0,0,0,0,0,0,0,-1,559,1331,0,0
-658,-307,0,0,0,0,0,0,0,0,0,-1,566,1331,0,0
-651,-307,-40.7436,1.98755,0,0,0,0,0,0,0,-1,573,1331,-40.7436,-1.98753
-644,-307,-41.7838,1.24817,0,0,0,0,0,0,0,-1,580,1331,-41.7838,-1.2482
-637,-307,-41.9006,0.477783,0,0,0,0,0,0,0,-1,587,1331,-41.9006,-0.477844
-630,-307,-12.0005,0.767212,0,0,0,0,0,0,0,-1,594,1331,-12.0005,-0.767266
-623,-307,-12.2128,2.93811,0,0,0,0,0,0,0,-1,601,1331,-12.2128,-2.93813
-616,-307,-12.6612,2.08289,0,0,0,0,0,0,0,-1,608,1331,-12.6612,-2.08293
-609,-307,-12.2767,1.83228,0,0,0,0,0,0,0,-1,615,1331,-12.2768,-1.83224
-602,-307,-27.5659,6.93335,0,0,0,0,0,0,0,-1,622,1331,-27.5658,-6.9333
-595,-307,-34.4835,10.8436,0,0,0,0,0,0,0,-1,629,1331,-34.4835,-10.8436
-588,-307,-34.4575,11.7448,0.00301361,0.00262055,0.00149151,0.00432148,0.00131268,0.719893,0.00255826,0.0237945,636,1331,-34.4574,-11.7448
-581,-307,-34.4763,12.5837,0.00235873,0.00196752,0.00105185,0.00323301,0.00109324,0.693466,0.0018989,0.0169259,643,1331,-34.4763,-12.5837
-574,-307,-34.5292,13.4058,0.00199931,0.00138342,0.000753532,0.00250539,0.000877337,0.591418,0.00146798,0.0143278,650,1331,-34.5292,-13.4058
-567,-307,-34.5842,14.2676,0.00196699,0.000913731,0.000632288,0.00226324,0.000617484,0.438158,0.00135089,0.0136609,657,1331,-34.5842,-14.2676
-560,-307,-34.6235,15.1318,0.00224432,0.000534631,0.000689672,0.00248784,0.00029111,0.339431,0.00157054,0.0154571,664,1331,-34.6235,-15.1319
-553,-307,-34.6627,15.9888,0.00287885,0.000264219,0.000937732,0.00318039,-3.73204e-05,0.31112,0.00213281,0.0126202,671,1331,-34.6627,-15.9888
-546,-307,-34.7126,16.8444,0.00386545,8.94427e-05,0.00141189,0.00433499,-0.000380095,0.321053,0.00302466,0.0117887,678,1331,-34.7126,-16.8444
-539,-307,-34.6953,17.7744,0.00536725,4.43554e-05,0.00222257,0.00617323,-0.000761633,0.347889,0.00439144,0.0260704,685,1331,-34.6952,-17.7744
-532,-307,-34.6161,18.7474,0,0,0,0,0,0,0,-1,692,1331,-34.6161,-18.7474
-525,-307,-13.2009,6.91309,0,0,0,0,0,0,0,-1,699,1331,-13.2009,-6.9131
-518,-307,-9.77777,-1.56653,0,0,0,0,0,0,0,-1,706,1331,-9.77777,1.56651
-511,-307,-12.5226,0.26709,0,0,0,0,0,0,0,-1,713,1331,-12.5226,-0.267038
-504,-307,-12.5913,-0.308105,0,0,0,0,0,0,0,-1,720,1331,-12.5913,0.308124
-497,-307,-13.8586,-0.115845,0,0,0,0,0,0,0,-1,727,1331,-13.8587,0.115861
-490,-307,-17.9429,0.982178,0,0,0,0,0,0,0,-1,734,1331,-17.9429,-0.982198
-483,-307,-18.1066,0.927612,0,0,0,0,0,0,0,-1,741,1331,-18.1066,-0.927609
-476,-307,-18.1288,1.1228,0,0,0,0,0,0,0,-1,748,1331,-18.1289,-1.12286
-469,-307,-18.2028,0.798584,0,0,0,0,0,0,0,-1,755,1331,-18.2027,-0.798546
-462,-307,0,0,0,0,0,0,0,0,0,-1,762,1331,0,0
-455,-307,0,0,0,0,0,0,0,0,0,-1,769,1331,0,0
-448,-307,0,0,0,0,0,0,0,0,0,-1,776,1331,0,0
-441,-307,0,0,0,0,0,0,0,0,0,-1,783,1331,0,0
-434,-307,0,0,0,0,0,0,0,0,0,-1,790,1331,0,0
-427,-307,0,0,0,0,0,0,0,0,0,-1,797,1331,0,0
-420,-307,0,0,0,0,0,0,0,0,0,-1,804,1331,0,0
-413,-307,0,0,0,0,0,0,0,0,0,-1,811,1331,0,0
-406,-307,0,0,0,0,0,0,0,0,0,-1,818,1331,0,0
-399,-307,0,0,0,0,0,0,0,0,0,-1,825,1331,0,0
-392,-307,0,0,0,0,0,0,0,0,0,-1,832,1331,0,0
-385,-307,0,0,0,0,0,0,0,0,0,-1,839,1331,0,0
-378,-307,0,0,0,0,0,0,0,0,0,-1,846,1331,0,0
-371,-307,0,0,0,0,0,0,0,0,0,-1,853,1331,0,0
-364,-307,0,0,0,0,0,0,0,0,0,-1,860,1331,0,0
-357,-307,0,0,0,0,0,0,0,0,0,-1,867,1331,0,0
-350,-307,0,0,0,0,0,0,0,0,0,-1,874,1331,0,0
-343,-307,0,0,0,0,0,0,0,0,0,-1,881,1331,0,0
-336,-307,0,0,0,0,0,0,0,0,0,-1,888,1331,0,0
-329,-307,0,0,0,0,0,0,0,0,0,-1,895,1331,0,0
-322,-307,0,0,0,0,0,0,0,0,0,-1,902,1331,0,0
-315,-307,0,0,0,0,0,0,0,0,0,-1,909,1331,0,0
-308,-307,0,0,0,0,0,0,0,0,0,-1,916,1331,0,0
-301,-307,0,0,0,0,0,0,0,0,0,-1,923,1331,0,0
-294,-307,0,0,0,0,0,0,0,0,0,-1,930,1331,0,0
-287,-307,0,0,0,0,0,0,0,0,0,-1,937,1331,0,0
-280,-307,0,0,0,0,0,0,0,0,0,-1,944,1331,0,0
-273,-307,0,0,0,0,0,0,0,0,0,-1,951,1331,0,0
-266,-307,0,0,0,0,0,0,0,0,0,-1,958,1331,0,0
-259,-307,0,0,0,0,0,0,0,0,0,-1,965,1331,0,0
-252,-307,0,0,0,0,0,0,0,0,0,-1,972,1331,0,0
-245,-307,0,0,0,0,0,0,0,0,0,-1,979,1331,0,0
-238,-307,0,0,0,0,0,0,0,0,0,-1,986,1331,0,0
-231,-307,0,0,0,0,0,0,0,0,0,-1,993,1331,0,0
-224,-307,0,0,0,0,0,0,0,0,0,-1,1000,1331,0,0
-217,-307,0,0,0,0,0,0,0,0,0,-1,1007,1331,0,0
-210,-307,0,0,0,0,0,0,0,0,0,-1,1014,1331,0,0
-203,-307,0,0,0,0,0,0,0,0,0,-1,1021,1331,0,0
-196,-307,0,0,0,0,0,0,0,0,0,-1,1028,1331,0,0
-189,-307,0,0,0,0,0,0,0,0,0,-1,1035,1331,0,0
-182,-307,0,0,0,0,0,0,0,0,0,-1,1042,1331,0,0
-175,-307,0,0,0,0,0,0,0,0,0,-1,1049,1331,0,0
-168,-307,0,0,0,0,0,0,0,0,0,-1,1056,1331,0,0
-161,-307,0,0,0,0,0,0,0,0,0,-1,1063,1331,0,0
-154,-307,0,0,0,0,0,0,0,0,0,-1,1070,1331,0,0
-147,-307,0,0,0,0,0,0,0,0,0,-1,1077,1331,0,0
-140,-307,0,0,0,0,0,0,0,0,0,-1,1084,1331,0,0
-133,-307,0,0,0,0,0,0,0,0,0,-1,1091,1331,0,0
-126,-307,0,0,0,0,0,0,0,0,0,-1,1098,1331,0,0
-119,-307,0,0,0,0,0,0,0,0,0,-1,1105,1331,0,0
-112,-307,0,0,0,0,0,0,0,0,0,-1,1112,1331,0,0
-105,-307,0,0,0,0,0,0,0,0,0,-1,1119,1331,0,0
-98,-307,0,0,0,0,0,0,0,0,0,-1,1126,1331,0,0
-91,-307,0,0,0,0,0,0,0,0,0,-1,1133,1331,0,0
-84,-307,0,0,0,0,0,0,0,0,0,-1,1140,1331,0,0
-77,-307,0,0,0,0,0,0,0,0,0,-1,1147,1331,0,0
-70,-307,0,0,0,0,0,0,0,0,0,-1,1154,1331,0,0
-63,-307,0,0,0,0,0,0,0,0,0,-1,1161,1331,0,0
-56,-307,0,0,0,0,0,0,0,0,0,-1,1168,1331,0,0
-49,-307,0,0,0,0,0,0,0,0,0,-1,1175,1331,0,0
-42,-307,0,0,0,0,0,0,0,0,0,-1,1182,1331,0,0
-35,-307,0,0,0,0,0,0,0,0,0,-1,1189,1331,0,0
-28,-307,0,0,0,0,0,0,0,0,0,-1,1196,1331,0,0
-21,-307,0,0,0,0,0,0,0,0,0,-1,1203,1331,0,0
-14,-307,0,0,0,0,0,0,0,0,0,-1,1210,1331,0,0
-7,-307,0,0,0,0,0,0,0,0,0,-1,1217,1331,0,0
0,-307,0,0,0,0,0,0,0,0,0,-1,1224,1331,0,0
7,-307,0,0,0,0,0,0,0,0,0,-1,1231,1331,0,0
14,-307,0,0,0,0,0,0,0,0,0,-1,1238,1331,0,0
21,-307,0,0,0,0,0,0,0,0,0,-1,1245,1331,0,0
28,-307,0,0,0,0,0,0,0,0,0,-1,1252,1331,0,0
35,-307,0,0,0,0,0,0,0,0,0,-1,1259,1331,0,0
42,-307,0,0,0,0,0,0,0,0,0,-1,1266,1331,0,0
49,-307,0,0,0,0,0,0,0,0,0,-1,1273,1331,0,0
56,-307,0,0,0,0,0,0,0,0,0,-1,1280,1331,0,0
63,-307,0,0,0,0,0,0,0,0,0,-1,1287,1331,0,0
70,-307,0,0,0,0,0,0,0,0,0,-1,1294,1331,0,0
77,-307,0,0,0,0,0,0,0,0,0,-1,1301,1331,0,0
84,-307,0,0,0,0,0,0,0,0,0,-1,1308,1331,0,0
91,-307,0,0,0,0,0,0,0,0,0,-1,1315,1331,0,0
98,-307,0,0,0,0,0,0,0,0,0,-1,1322,1331,0,0
105,-307,0,0,0,0,0,0,0,0,0,-1,1329,1331,0,0
112,-307,0,0,0,0,0,0,0,0,0,-1,1336,1331,0,0
119,-307,0,0,0,0,0,0,0,0,0,-1,1343,1331,0,0
126,-307,0,0,0,0,0,0,0,0,0,-1,1350,1331,0,0
133,-307,0,0,0,0,0,0,0,0,0,-1,1357,1331,0,0
140,-307,0,0,0,0,0,0,0,0,0,-1,1364,1331,0,0
147,-307,0,0,0,0,0,0,0,0,0,-1,1371,1331,0,0
154,-307,0,0,0,0,0,0,0,0,0,-1,1378,1331,0,0
161,-307,0,0,0,0,0,0,0,0,0,-1,1385,1331,0,0
168,-307,0,0,0,0,0,0,0,0,0,-1,1392,1331,0,0
175,-307,0,0,0,0,0,0,0,0,0,-1,1399,1331,0,0
182,-307,0,0,0,0,0,0,0,0,0,-1,1406,1331,0,0
189,-307,0,0,0,0,0,0,0,0,0,-1,1413,1331,0,0
196,-307,0,0,0,0,0,0,0,0,0,-1,1420,1331,0,0
203,-307,0,0,0,0,0,0,0,0,0,-1,1427,1331,0,0
210,-307,0,0,0,0,0,0,0,0,0,-1,1434,1331,0,0
217,-307,0,0,0,0,0,0,0,0,0,-1,1441,1331,0,0
224,-307,0,0,0,0,0,0,0,0,0,-1,1448,1331,0,0
231,-307,0,0,0,0,0,0,0,0,0,-1,1455,1331,0,0
238,-307,0,0,0,0,0,0,0,0,0,-1,1462,1331,0,0
245,-307,0,0,0,0,0,0,0,0,0,-1,1469,1331,0,0
252,-307,0,0,0,0,0,0,0,0,0,-1,1476,1331,0,0
259,-307,0,0,0,0,0,0,0,0,0,-1,1483,1331,0,0
266,-307,0,0,0,0,0,0,0,0,0,-1,1490,1331,0,0
273,-307,0,0,0,0,0,0,0,0,0,-1,1497,1331,0,0
280,-307,0,0,0,0,0,0,0,0,0,-1,1504,1331,0,0
287,-307,0,0,0,0,0,0,0,0,0,-1,1511,1331,0,0
294,-307,0,0,0,0,0,0,0,0,0,-1,1518,1331,0,0
301,-307,0,0,0,0,0,0,0,0,0,-1,1525,1331,0,0
308,-307,0,0,0,0,0,0,0,0,0,-1,1532,1331,0,0
315,-307,0,0,0,0,0,0,0,0,0,-1,1539,1331,0,0
322,-307,0,0,0,0,0,0,0,0,0,-1,1546,1331,0,0
329,-307,0,0,0,0,0,0,0,0,0,-1,1553,1331,0,0
336,-307,0,0,0,0,0,0,0,0,0,-1,1560,1331,0,0
343,-307,0,0,0,0,0,0,0,0,0,-1,1567,1331,0,0
350,-307,0,0,0,0,0,0,0,0,0,-1,1574,1331,0,0
357,-307,0,0,0,0,0,0,0,0,0,-1,1581,1331,0,0
364,-307,0,0,0,0,0,0,0,0,0,-1,1588,1331,0,0
371,-307,0,0,0,0,0,0,0,0,0,-1,1595,1331,0,0
378,-307,0,0,0,0,0,0,0,0,0,-1,1602,1331,0,0
385,-307,0,0,0,0,0,0,0,0,0,-1,1609,1331,0,0
392,-307,0,0,0,0,0,0,0,0,0,-1,1616,1331,0,0
399,-307,0,0,0,0,0,0,0,0,0,-1,1623,1331,0,0
406,-307,0,0,0,0,0,0,0,0,0,-1,1630,1331,0,0
413,-307,0,0,0,0,0,0,0,0,0,-1,1637,1331,0,0
420,-307,0,0,0,0,0,0,0,0,0,-1,1644,1331,0,0
427,-307,0,0,0,0,0,0,0,0,0,-1,1651,1331,0,0
434,-307,0,0,0,0,0,0,0,0,0,-1,1658,1331,0,0
441,-307,0,0,0,0,0,0,0,0,0,-1,1665,1331,0,0
448,-307,0,0,0,0,0,0,0,0,0,-1,1672,1331,0,0
455,-307,0,0,0,0,0,0,0,0,0,-1,1679,1331,0,0
462,-307,0,0,0,0,0,0,0,0,0,-1,1686,1331,0,0
469,-307,0,0,0,0,0,0,0,0,0,-1,1693,1331,0,0
476,-307,0,0,0,0,0,0,0,0,0,-1,1700,1331,0,0
483,-307,0,0,0,0,0,0,0,0,0,-1,1707,1331,0,0
490,-307,0,0,0,0,0,0,0,0,0,-1,1714,1331,0,0
497,-307,0,0,0,0,0,0,0,0,0,-1,1721,1331,0,0
504,-307,0,0,0,0,0,0,0,0,0,-1,1728,1331,0,0
511,-307,0,0,0,0,0,0,0,0,0,-1,1735,1331,0,0
518,-307,0,0,0,0,0,0,0,0,0,-1,1742,1331,0,0
525,-307,0,0,0,0,0,0,0,0,0,-1,1749,1331,0,0
532,-307,0,0,0,0,0,0,0,0,0,-1,1756,1331,0,0
539,-307,0,0,0,0,0,0,0,0,0,-1,1763,1331,0,0
546,-307,0,0,0,0,0,0,0,0,0,-1,1770,1331,0,0
553,-307,0,0,0,0,0,0,0,0,0,-1,1777,1331,0,0
560,-307,0,0,0,0,0,0,0,0,0,-1,1784,1331,0,0
567,-307,0,0,0,0,0,0,0,0,0,-1,1791,1331,0,0
574,-307,0,0,0,0,0,0,0,0,0,-1,1798,1331,0,0
581,-307,0,0,0,0,0,0,0,0,0,-1,1805,1331,0,0
588,-307,66.5917,1.60864,0,0,0,0,0,0,0,-1,1812,1331,66.5917,-1.60867
595,-307,66.708,1.85352,0,0,0,0,0,0,0,-1,1819,1331,66.708,-1.85351
602,-307,66.111,1.49976,0,0,0,0,0,0,0,-1,1826,1331,66.1109,-1.49974
609,-307,63.8848,2.78992,0,0,0,0,0,0,0,-1,1833,1331,63.8848,-2.78989
616,-307,53.2878,0.135498,0,0,0,0,0,0,0,-1,1840,1331,53.2878,-0.135477
623,-307,44.3966,2.84888,0,0,0,0,0,0,0,-1,1847,1331,44.3966,-2.84884
630,-307,29.8116,1.51184,0,0,0,0,0,0,0,-1,1854,1331,29.8116,-1.51188
637,-307,24.6407,4.09106,0,0,0,0,0,0,0,-1,1861,1331,24.6407,-4.09103
644,-307,22.6885,5.80408,0,0,0,0,0,0,0,-1,1868,1331,22.6884,-5.80408
651,-307,17.5013,5.80078,0,0,0,0,0,0,0,-1,1875,1331,17.5014,-5.80072
658,-307,37.4427,13.9775,0,0,0,0,0,0,0,-1,1882,1331,37.4427,-13.9776
665,-307,51.8525,18.5426,0,0,0,0,0,0,0,-1,1889,1331,51.8525,-18.5426
672,-307,51.7089,17.748,0.000736911,0.00306959,-0.000318347,0.00311225,0.000694246,-1.43757,0.00188649,0.0222754,1896,1331,51.7088,-17.7481
679,-307,51.6387,16.9293,0.00122723,0.00101937,-0.000611884,0.00174395,0.00050265,-0.701276,0.00103653,0.0109643,1903,1331,51.6386,-16.9293
686,-307,51.582,16.0945,0.00137595,-0.000102724,-0.000490686,0.00152396,-0.000250739,-0.292968,0.00110904,0.0108886,1910,1331,51.582,-16.0945
693,-307,51.5363,15.2706,0.00113998,-0.000139768,-0.000207637,0.00117283,-0.000172614,-0.156888,0.000845318,0.0126173,1917,1331,51.5363,-15.2707
700,-307,51.5155,14.4141,0.000747758,-0.000211605,0.000314193,0.000841498,-0.000305344,0.289942,0.000685825,0.0143331,1924,1331,51.5155,-14.4141
707,-307,51.4877,13.5619,0.000268405,-0.000307456,0.000922938,0.000947283,-0.000986334,0.634196,0.00111645,0.0152793,1931,1331,51.4877,-13.5619
714,-307,51.4352,12.7815,-0.000353225,-0.000473563,0.00165292,0.00124062,-0.00206741,0.767205,0.00192967,0.0128147,1938,1331,51.4351,-12.7815
721,-307,51.4089,11.9758,-0.00115235,-0.000717871,0.00253114,0.00160534,-0.00347555,0.828206,0.00299896,0.0172274,1945,1331,51.409,-11.9758
728,-307,51.3582,11.297,-0.00221001,-0.00104991,0.00361229,0.00202861,-0.00528853,0.865007,0.00436207,0.0472623,1952,1331,51.3582,-11.297
735,-307,51.4181,10.3231,0,0,0,0,0,0,0,-1,1959,1331,51.4181,-10.3232
742,-307,26.677,6.09192,0,0,0,0,0,0,0,-1,1966,1331,26.677,-6.0919
749,-307,26.7727,5.9032,0,0,0,0,0,0,0,-1,1973,1331,26.7727,-5.90323
756,-307,27.1556,5.74756,0,0,0,0,0,0,0,-1,1980,1331,27.1557,-5.7475
763,-307,18.7522,3.55298,0,0,0,0,0,0,0,-1,1987,1331,18.7522,-3.55301
770,-307,0,0,0,0,0,0,0,0,0,-1,1994,1331,0,0
777,-307,0,0,0,0,0,0,0,0,0,-1,2001,1331,0,0
784,-307,0,0,0,0,0,0,0,0,0,-1,2008,1331,0,0
791,-307,0,0,0,0,0,0,0,0,0,-1,2015,1331,0,0
798,-307,0,0,0,0,0,0,0,0,0,-1,2022,1331,0,0
805,-307,0,0,0,0,0,0,0,0,0,-1,2029,1331,0,0
812,-307,0,0,0,0,0,0,0,0,0,-1,2036,1331,0,0
-700,-314,0,0,0,0,0,0,0,0,0,-1,524,1338,0,0
-693,-314,0,0,0,0,0,0,0,0,0,-1,531,1338,0,0
-686,-314,0,0,0,0,0,0,0,0,0,-1,538,1338,0,0
-679,-314,0,0,0,0,0,0,0,0,0,-1,545,1338,0,0
-672,-314,0,0,0,0,0,0,0,0,0,-1,552,1338,0,0
-665,-314,0,0,0,0,0,0,0,0,0,-1,559,1338,0,0
-658,-314,0,0,0,0,0,0,0,0,0,-1,566,1338,0,0
-651,-314,0,0,0,0,0,0,0,0,0,-1,573,1338,0,0
-644,-314,-41.2806,1.17566,0,0,0,0,0,0,0,-1,580,1338,-41.2806,-1.17565
-637,-314,-58.369,7.97375,0,0,0,0,0,0,0,-1,587,1338,-58.369,-7.97376
-630,-314,-59.7463,6.72742,0,0,0,0,0,0,0,-1,594,1338,-59.7463,-6.72739
-623,-314,-13.3542,3.00903,0,0,0,0,0,0,0,-1,601,1338,-13.3542,-3.00907
-616,-314,-9.93311,1.15088,0,0,0,0,0,0,0,-1,608,1338,-9.93308,-1.15093
-609,-314,-9.4361,2.86292,0,0,0,0,0,0,0,-1,615,1338,-9.43612,-2.86286
-602,-314,-11.8027,2.42798,0,0,0,0,0,0,0,-1,622,1338,-11.8027,-2.42802
-595,-314,-33.8462,10.788,0,0,0,0,0,0,0,-1,629,1338,-33.8462,-10.788
-588,-314,-33.6503,11.7007,0.00314425,0.00318655,0.00188162,0.00504713,0.00128366,0.791018,0.00302894,0.0363427,636,1338,-33.6503,-11.7007
-581,-314,-33.6058,12.6019,0.00261101,0.00248082,0.00137506,0.00392252,0.00116931,0.761747,0.00232539,0.0140843,643,1338,-33.6059,-12.6019
-574,-314,-33.691,13.4379,0.00234921,0.00182351,0.0010401,0.00315916,0.00101356,0.661632,0.00186257,0.0142449,650,1338,-33.691,-13.4378
-567,-314,-33.7254,14.3053,0.00240207,0.00129614,0.000899635,0.0029051,0.000793118,0.509836,0.00173391,0.0148323,657,1338,-33.7254,-14.3053
-560,-314,-33.7397,15.1877,0.00276009,0.000866983,0.000952497,0.00315637,0.000470698,0.394264,0.00196622,0.0163133,664,1338,-33.7397,-15.1877
-553,-314,-33.8083,16.0387,0.00342338,0.000552111,0.00119458,0.00385538,0.000120108,0.347003,0.00253117,0.0191675,671,1338,-33.8083,-16.0387
-546,-314,-33.8824,16.9052,0.00440014,0.000310685,0.00163151,0.00497127,-0.000260449,0.336733,0.00340432,0.0191739,678,1338,-33.8824,-16.9051
-539,-314,-33.8969,17.8062,0.00579125,0.000192701,0.00234352,0.00664273,-0.00065878,0.348504,0.00466361,0.023903,685,1338,-33.8969,-17.8062
-532,-314,-33.8304,18.621,0,0,0,0,0,0,0,-1,692,1338,-33.8304,-18.621
-525,-314,-13.3017,7.50671,0,0,0,0,0,0,0,-1,699,1338,-13.3017,-7.50669
-518,-314,-8.52753,4.70032,0,0,0,0,0,0,0,-1,706,1338,-8.52755,-4.70034
-511,-314,-11.8597,0.384888,0,0,0,0,0,0,0,-1,713,1338,-11.8597,-0.384927
-504,-314,-11.4322,-0.187378,0,0,0,0,0,0,0,-1,720,1338,-11.4322,0.187381
-497,-314,-11.0047,-0.759644,0,0,0,0,0,0,0,-1,727,1338,-11.0047,0.759689
-490,-314,-18.5143,0.471069,0,0,0,0,0,0,0,-1,734,1338,-18.5143,-0.47103
-483,-314,-17.8528,0.577271,0,0,0,0,0,0,0,-1,741,1338,-17.8528,-0.577327
-476,-314,-17.714,0.665405,0,0,0,0,0,0,0,-1,748,1338,-17.714,-0.665388
-469,-314,-17.7246,0.794678,0,0,0,0,0,0,0,-1,755,1338,-17.7246,-0.794645
-462,-314,0,0,0,0,0,0,0,0,0,-1,762,1338,0,0
-455,-314,0,0,0,0,0,0,0,0,0,-1,769,1338,0,0
-448,-314,0,0,0,0,0,0,0,0,0,-1,776,1338,0,0
-441,-314,0,0,0,0,0,0,0,0,0,-1,783,1338,0,0
-434,-314,0,0,0,0,0,0,0,0,0,-1,790,1338,0,0
-427,-314,0,0,0,0,0,0,0,0,0,-1,797,1338,0,0
-420,-314,0,0,0,0,0,0,0,0,0,-1,804,1338,0,0
-413,-314,0,0,0,0,0,0,0,0,0,-1,811,1338,0,0
-406,-314,0,0,0,0,0,0,0,0,0,-1,818,1338,0,0
-399,-314,0,0,0,0,0,0,0,0,0,-1,825,1338,0,0
-392,-314,0,0,0,0,0,0,0,0,0,-1,832,1338,0,0
-385,-314,0,0,0,0,0,0,0,0,0,-1,839,1338,0,0
-378,-314,0,0,0,0,0,0,0,0,0,-1,846,1338,0,0
-371,-314,0,0,0,0,0,0,0,0,0,-1,853,1338,0,0
-364,-314,0,0,0,0,0,0,0,0,0,-1,860,1338,0,0
-357,-314,0,0,0,0,0,0,0,0,0,-1,867,1338,0,0
-350,-314,0,0,0,0,0,0,0,0,0,-1,874,1338,0,0
-343,-314,0,0,0,0,0,0,0,0,0,-1,881,1338,0,0
-336,-314,0,0,0,0,0,0,0,0,0,-1,888,1338,0,0
-329,-314,0,0,0,0,0,0,0,0,0,-1,895,1338,0,0
-322,-314,0,0,0,0,0,0,0,0,0,-1,902,1338,0,0
-315,-314,0,0,0,0,0,0,0,0,0,-1,909,1338,0,0
-308,-314,0,0,0,0,0,0,0,0,0,-1,916,1338,0,0
-301,-314,0,0,0,0,0,0,0,0,0,-1,923,1338,0,0
-294,-314,0,0,0,0,0,0,0,0,0,-1,930,1338,0,0
-287,-314,0,0,0,0,0,0,0,0,0,-1,937,1338,0,0
-280,-314,0,0,0,0,0,0,0,0,0,-1,944,1338,0,0
-273,-314,0,0,0,0,0,0,0,0,0,-1,951,1338,0,0
-266,-314,0,0,0,0,0,0,0,0,0,-1,958,1338,0,0
-259,-314,0,0,0,0,0,0,0,0,0,-1,965,1338,0,0
-252,-314,0,0,0,0,0,0,0,0,0,-1,972,1338,0,0
-245,-314,0,0,0,0,0,0,0,0,0,-1,979,1338,0,0
-238,-314,0,0,0,0,0,0,0,0,0,-1,986,1338,0,0
-231,-314,0,0,0,0,0,0,0,0,0,-1,993,1338,0,0
-224,-314,0,0,0,0,0,0,0,0,0,-1,1000,1338,0,0
-217,-314,0,0,0,0,0,0,0,0,0,-1,1007,1338,0,0
-210,-314,0,0,0,0,0,0,0,0,0,-1,1014,1338,0,0
-203,-314,0,0,0,0,0,0,0,0,0,-1,1021,1338,0,0
-196,-314,0,0,0,0,0,0,0,0,0,-1,1028,1338,0,0
-189,-314,0,0,0,0,0,0,0,0,0,-1,1035,1338,0,0
-182,-314,0,0,0,0,0,0,0,0,0,-1,1042,1338,0,0
-175,-314,0,0,0,0,0,0,0,0,0,-1,1049,1338,0,0
-168,-314,0,0,0,0,0,0,0,0,0,-1,1056,1338,0,0
-161,-314,0,0,0,0,0,0,0,0,0,-1,1063,1338,0,0
-154,-314,0,0,0,0,0,0,0,0,0,-1,1070,1338,0,0
-147,-314,0,0,0,0,0,0,0,0,0,-1,1077,1338,0,0
-140,-314,0,0,0,0,0,0,0,0,0,-1,1084,1338,0,0
-133,-314,0,0,0,0,0,0,0,0,0,-1,1091,1338,0,0
-126,-314,0,0,0,0,0,0,0,0,0,-1,1098,1338,0,0
-119,-314,0,0,0,0,0,0,0,0,0,-1,1105,1338,0,0
-112,-314,0,0,0,0,0,0,0,0,0,-1,1112,1338,0,0
-105,-314,0,0,0,0,0,0,0,0,0,-1,1119,1338,0,0
-98,-314,0,0,0,0,0,0,0,0,0,-1,1126,1338,0,0
-91,-314,0,0,0,0,0,0,0,0,0,-1,1133,1338,0,0
-84,-314,0,0,0,0,0,0,0,0,0,-1,1140,1338,0,0
-77,-314,0,0,0,0,0,0,0,0,0,-1,1147,1338,0,0
-70,-314,0,0,0,0,0,0,0,0,0,-1,1154,1338,0,0
-63,-314,0,0,0,0,0,0,0,0,0,-1,1161,1338,0,0
-56,-314,0,0,0,0,0,0,0,0,0,-1,1168,1338,0,0
-49,-314,0,0,0,0,0,0,0,0,0,-1,1175,1338,0,0
-42,-314,0,0,0,0,0,0,0,0,0,-1,1182,1338,0,0
-35,-314,0,0,0,0,0,0,0,0,0,-1,1189,1338,0,0
-28,-314,0,0,0,0,0,0,0,0,0,-1,1196,1338,0,0
-21,-314,0,0,0,0,0,0,0,0,0,-1,1203,1338,0,0
-14,-314,0,0,0,0,0,0,0,0,0,-1,1210,1338,0,0
-7,-314,0,0,0,0,0,0,0,0,0,-1,1217,1338,0,0
0,-314,0,0,0,0,0,0,0,0,0,-1,1224,1338,0,0
7,-314,0,0,0,0,0,0,0,0,0,-1,1231,1338,0,0
14,-314,0,0,0,0,0,0,0,0,0,-1,1238,1338,0,0
21,-314,0,0,0,0,0,0,0,0,0,-1,1245,1338,0,0
28,-314,0,0,0,0,0,0,0,0,0,-1,1252,1338,0,0
35,-314,0,0,0,0,0,0,0,0,0,-1,1259,1338,0,0
42,-314,0,0,0,0,0,0,0,0,0,-1,1266,1338,0,0
49,-314,0,0,0,0,0,0,0,0,0,-1,1273,1338,0,0
56,-314,0,0,0,0,0,0,0,0,0,-1,1280,1338,0,0
63,-314,0,0,0,0,0,0,0,0,0,-1,1287,1338,0,0
70,-314,0,0,0,0,0,0,0,0,0,-1,1294,1338,0,0
77,-314,0,0,0,0,0,0,0,0,0,-1,1301,1338,0,0
84,-314,0,0,0,0,0,0,0,0,0,-1,1308,1338,0,0
91,-314,0,0,0,0,0,0,0,0,0,-1,1315,1338,0,0
98,-314,0,0,0,0,0,0,0,0,0,-1,1322,1338,0,0
105,-314,0,0,0,0,0,0,0,0,0,-1,1329,1338,0,0
112,-314,0,0,0,0,0,0,0,0,0,-1,1336,1338,0,0
119,-314,0,0,0,0,0,0,0,0,0,-1,1343,1338,0,0
126,-314,0,0,0,0,0,0,0,0,0,-1,1350,1338,0,0
133,-314,0,0,0,0,0,0,0,0,0,-1,1357,1338,0,0
140,-314,0,0,0,0,0,0,0,0,0,-1,1364,1338,0,0
147,-314,0,0,0,0,0,0,0,0,0,-1,1371,1338,0,0
154,-314,0,0,0,0,0,0,0,0,0,-1,1378,1338,0,0
161,-314,0,0,0,0,0,0,0,0,0,-1,1385,1338,0,0
168,-314,0,0,0,0,0,0,0,0,0,-1,1392,1338,0,0
175,-314,0,0,0,0,0,0,0,0,0,-1,1399,1338,0,0
182,-314,0,0,0,0,0,0,0,0,0,-1,1406,1338,0,0
189,-314,0,0,0,0,0,0,0,0,0,-1,1413,1338,0,0
196,-314,0,0,0,0,0,0,0,0,0,-1,1420,1338,0,0
203,-314,0,0,0,0,0,0,0,0,0,-1,1427,1338,0,0
210,-314,0,0,0,0,0,0,0,0,0,-1,1434,1338,0,0
217,-314,0,0,0,0,0,0,0,0,0,-1,1441,1338,0,0
224,-314,0,0,0,0,0,0,0,0,0,-1,1448,1338,0,0
231,-314,0,0,0,0,0,0,0,0,0,-1,1455,1338,0,0
238,-314,0,0,0,0,0,0,0,0,0,-1,1462,1338,0,0
245,-314,0,0,0,0,0,0,0,0,0,-1,1469,1338,0,0
252,-314,0,0,0,0,0,0,0,0,0,-1,1476,1338,0,0
259,-314,0,0,0,0,0,0,0,0,0,-1,1483,1338,0,0
266,-314,0,0,0,0,0,0,0,0,0,-1,1490,1338,0,0
273,-314,0,0,0,0,0,0,0,0,0,-1,1497,1338,0,0
280,-314,0,0,0,0,0,0,0,0,0,-1,1504,1338,0,0
287,-314,0,0,0,0,0,0,0,0,0,-1,1511,1338,0,0
294,-314,0,0,0,0,0,0,0,0,0,-1,1518,1338,0,0
301,-314,0,0,0,0,0,0,0,0,0,-1,1525,1338,0,0
308,-314,0,0,0,0,0,0,0,0,0,-1,1532,1338,0,0
315,-314,0,0,0,0,0,0,0,0,0,-1,1539,1338,0,0
322,-314,0,0,0,0,0,0,0,0,0,-1,1546,1338,0,0
329,-314,0,0,0,0,0,0,0,0,0,-1,1553,1338,0,0
336,-314,0,0,0,0,0,0,0,0,0,-1,1560,1338,0,0
343,-314,0,0,0,0,0,0,0,0,0,-1,1567,1338,0,0
350,-314,0,0,0,0,0,0,0,0,0,-1,1574,1338,0,0
357,-314,0,0,0,0,0,0,0,0,0,-1,1581,1338,0,0
364,-314,0,0,0,0,0,0,0,0,0,-1,1588,1338,0,0
371,-314,0,0,0,0,0,0,0,0,0,-1,1595,1338,0,0
378,-314,0,0,0,0,0,0,0,0,0,-1,1602,1338,0,0
385,-314,0,0,0,0,0,0,0,0,0,-1,1609,1338,0,0
392,-314,0,0,0,0,0,0,0,0,0,-1,1616,1338,0,0
399,-314,0,0,0,0,0,0,0,0,0,-1,1623,1338,0,0
406,-314,0,0,0,0,0,0,0,0,0,-1,1630,1338,0,0
413,-314,0,0,0,0,0,0,0,0,0,-1,1637,1338,0,0
420,-314,0,0,0,0,0,0,0,0,0,-1,1644,1338,0,0
427,-314,0,0,0,0,0,0,0,0,0,-1,1651,1338,0,0
434,-314,0,0,0,0,0,0,0,0,0,-1,1658,1338,0,0
441,-314,0,0,0,0,0,0,0,0,0,-1,1665,1338,0,0
448,-314,0,0,0,0,0,0,0,0,0,-1,1672,1338,0,0
455,-314,0,0,0,0,0,0,0,0,0,-1,1679,1338,0,0
462,-314,0,0,0,0,0,0,0,0,0,-1,1686,1338,0,0
469,-314,0,0,0,0,0,0,0,0,0,-1,1693,1338,0,0
476,-314,0,0,0,0,0,0,0,0,0,-1,1700,1338,0,0
483,-314,0,0,0,0,0,0,0,0,0,-1,1707,1338,0,0
490,-314,0,0,0,0,0,0,0,0,0,-1,1714,1338,0,0
497,-314,0,0,0,0,0,0,0,0,0,-1,1721,1338,0,0
504,-314,0,0,0,0,0,0,0,0,0,-1,1728,1338,0,0
511,-314,0,0,0,0,0,0,0,0,0,-1,1735,1338,0,0
518,-314,0,0,0,0,0,0,0,0,0,-1,1742,1338,0,0
525,-314,0,0,0,0,0,0,0,0,0,-1,1749,1338,0,0
532,-314,0,0,0,0,0,0,0,0,0,-1,1756,1338,0,0
539,-314,0,0,0,0,0,0,0,0,0,-1,1763,1338,0,0
546,-314,0,0,0,0,0,0,0,0,0,-1,1770,1338,0,0
553,-314,0,0,0,0,0,0,0,0,0,-1,1777,1338,0,0
560,-314,0,0,0,0,0,0,0,0,0,-1,1784,1338,0,0
567,-314,0,0,0,0,0,0,0,0,0,-1,1791,1338,0,0
574,-314,0,0,0,0,0,0,0,0,0,-1,1798,1338,0,0
581,-314,66.1637,1.86658,0,0,0,0,0,0,0,-1,1805,1338,66.1637,-1.86663
588,-314,66.4303,1.43481,0,0,0,0,0,0,0,-1,1812,1338,66.4303,-1.43487
595,-314,66.7465,0.982788,0,0,0,0,0,0,0,-1,1819,1338,66.7464,-0.982795
602,-314,66.322,1.38416,0,0,0,0,0,0,0,-1,1826,1338,66.322,-1.3842
609,-314,60.2225,1.27014,0,0,0,0,0,0,0,-1,1833,1338,60.2225,-1.27017
616,-314,48.1149,3.005,0,0,0,0,0,0,0,-1,1840,1338,48.1149,-3.00505
623,-314,38.7728,2.71741,0,0,0,0,0,0,0,-1,1847,1338,38.7728,-2.71737
630,-314,29.4308,6.23206,0,0,0,0,0,0,0,-1,1854,1338,29.4308,-6.23202
637,-314,22.1349,5.16418,0,0,0,0,0,0,0,-1,1861,1338,22.1349,-5.16414
644,-314,18.7517,6.2605,0,0,0,0,0,0,0,-1,1868,1338,18.7517,-6.26053
651,-314,23.1317,8.005,0,0,0,0,0,0,0,-1,1875,1338,23.1317,-8.00506
658,-314,49.9191,18.822,0,0,0,0,0,0,0,-1,1882,1338,49.9191,-18.8221
665,-314,50.9143,18.6802,0,0,0,0,0,0,0,-1,1889,1338,50.9143,-18.6801
672,-314,50.8589,17.8406,0.000707056,0.00182894,-0.000876873,0.00230894,0.000227055,-1.06995,0.00146947,0.0140454,1896,1338,50.8589,-17.8406
679,-314,50.8173,16.9924,0.00109359,0.000422573,-0.00084636,0.00166852,-0.000152352,-0.596692,0.00116645,0.0116062,1903,1338,50.8173,-16.9924
686,-314,50.7534,16.1444,0.00123011,-0.000159,-0.000526648,0.0014072,-0.00033609,-0.32438,0.00106794,0.0142808,1910,1338,50.7534,-16.1444
693,-314,50.7039,15.3015,0.00112884,-0.000110448,-0.000190448,0.00115745,-0.000139055,-0.149093,0.000821916,0.0134857,1917,1338,50.7039,-15.3016
700,-314,50.676,14.4512,0.000896234,-0.000165463,0.00024717,0.000950957,-0.000220186,0.217881,0.000718699,0.0150506,1924,1338,50.676,-14.4512
707,-314,50.6569,13.6223,0.000578722,-0.000222866,0.000765493,0.001042,-0.00068614,0.544233,0.00100477,0.0143008,1931,1338,50.6569,-13.6223
714,-314,50.5898,12.8456,0.000111665,-0.000348035,0.00141675,0.00131709,-0.00155346,0.70498,0.00165918,0.0115002,1938,1338,50.5898,-12.8455
721,-314,50.5273,12.0483,-0.00054875,-0.00059481,0.00225652,0.00168485,-0.00282841,0.780295,0.00263347,0.0256656,1945,1338,50.5273,-12.0483
728,-314,50.5472,11.2419,0,0,0,0,0,0,0,-1,1952,1338,50.5473,-11.2419
735,-314,26.3665,6.21582,0,0,0,0,0,0,0,-1,1959,1338,26.3664,-6.21581
742,-314,26.2235,6.0166,0,0,0,0,0,0,0,-1,1966,1338,26.2235,-6.01662
749,-314,26.2223,5.47046,0,0,0,0,0,0,0,-1,1973,1338,26.2223,-5.47041
756,-314,24.2521,5.93408,0,0,0,0,0,0,0,-1,1980,1338,24.252,-5.93413
763,-314,19.2207,4.07239,0,0,0,0,0,0,0,-1,1987,1338,19.2206,-4.07239
770,-314,0,0,0,0,0,0,0,0,0,-1,1994,1338,0,0
777,-314,0,0,0,0,0,0,0,0,0,-1,2001,1338,0,0
784,-314,0,0,0,0,0,0,0,0,0,-1,2008,1338,0,0
791,-314,0,0,0,0,0,0,0,0,0,-1,2015,1338,0,0
798,-314,0,0,0,0,0,0,0,0,0,-1,2022,1338,0,0
805,-314,0,0,0,0,0,0,0,0,0,-1,2029,1338,0,0
812,-314,0,0,0,0,0,0,0,0,0,-1,2036,1338,0,0
-700,-321,0,0,0,0,0,0,0,0,0,-1,524,1345,0,0
-693,-321,0,0,0,0,0,0,0,0,0,-1,531,1345,0,0
-686,-321,0,0,0,0,0,0,0,0,0,-1,538,1345,0,0
-679,-321,0,0,0,0,0,0,0,0,0,-1,545,1345,0,0
-672,-321,0,0,0,0,0,0,0,0,0,-1,552,1345,0,0
-665,-321,0,0,0,0,0,0,0,0,0,-1,559,1345,0,0
-658,-321,0,0,0,0,0,0,0,0,0,-1,566,1345,0,0
-651,-321,0,0,0,0,0,0,0,0,0,-1,573,1345,0,0
-644,-321,-58.7329,10.2313,0,0,0,0,0,0,0,-1,580,1345,-58.7329,-10.2313
-637,-321,-59.9981,9.06421,0,0,0,0,0,0,0,-1,587,1345,-59.9981,-9.06417
-630,-321,-61.377,8.07166,0,0,0,0,0,0,0,-1,594,1345,-61.3769,-8.07168
-623,-321,-13.2242,3.14148,0,0,0,0,0,0,0,-1,601,1345,-13.2243,-3.14146
-616,-321,-11.6754,3.13794,0,0,0,0,0,0,0,-1,608,1345,-11.6754,-3.13789
-609,-321,-7.95209,1.14758,0,0,0,0,0,0,0,-1,615,1345,-7.95208,-1.14757
-602,-321,-8.85791,2.50049,0,0,0,0,0,0,0,-1,622,1345,-8.85791,-2.50048
-595,-321,-19.8463,5.36584,0,0,0,0,0,0,0,-1,629,1345,-19.8462,-5.36589
-588,-321,-32.8625,11.7386,0,0,0,0,0,0,0,-1,636,1345,-32.8626,-11.7386
-581,-321,-32.7857,12.6666,0.00283735,0.00305738,0.00170073,0.00465165,0.00124308,0.817696,0.00278094,0.0156335,643,1345,-32.7857,-12.6666
-574,-321,-32.8623,13.5333,0.00265348,0.00232878,0.00133651,0.00383747,0.00114479,0.724957,0.00227485,0.0168049,650,1345,-32.8623,-13.5333
-567,-321,-32.8782,14.4014,0.00275518,0.00174031,0.00116935,0.00352245,0.000973048,0.580687,0.00210047,0.0222021,657,1345,-32.8782,-14.4014
-560,-321,-32.905,15.267,0.00313968,0.00125838,0.00120051,0.00372417,0.000673891,0.453086,0.00229142,0.0270387,664,1345,-32.9051,-15.267
-553,-321,-32.9776,16.0706,0.00377328,0.000876298,0.00140907,0.00434558,0.000303996,0.385802,0.00280122,0.0298603,671,1345,-32.9776,-16.0705
-546,-321,-33.0317,16.9556,0.00466672,0.000563525,0.00178358,0.00533362,-0.000103373,0.357814,0.0035907,0.0291107,678,1345,-33.0317,-16.9556
-539,-321,-33.0572,17.8342,0.00587297,0.000362654,0.00237898,0.00675793,-0.000522303,0.356129,0.00468909,0.0262004,685,1345,-33.0572,-17.8343
-532,-321,-33.0338,18.662,0.00753058,0.000287826,0.0032069,0.00874641,-0.000928005,0.362386,0.00616361,0.0370586,692,1345,-33.0338,-18.662
-525,-321,-33.0393,19.4902,0,0,0,0,0,0,0,-1,699,1345,-33.0393,-19.4902
-518,-321,-10.3564,6.75696,0,0,0,0,0,0,0,-1,706,1345,-10.3564,-6.75694
-511,-321,-9.3302,5.29297,0,0,0,0,0,0,0,-1,713,1345,-9.33023,-5.29294
-504,-321,-10.4713,0.0145264,0,0,0,0,0,0,0,-1,720,1345,-10.4713,-0.0145296
-497,-321,-9.96771,0.313599,0,0,0,0,0,0,0,-1,727,1345,-9.96769,-0.313618
-490,-321,-10.7631,0.973511,0,0,0,0,0,0,0,-1,734,1345,-10.7631,-0.97353
-483,-321,-17.5908,0.2323,0,0,0,0,0,0,0,-1,741,1345,-17.5908,-0.232355
-476,-321,-17.2915,0.297363,0,0,0,0,0,0,0,-1,748,1345,-17.2915,-0.297342
-469,-321,-17.2441,0.478027,0,0,0,0,0,0,0,-1,755,1345,-17.2441,-0.477994
-462,-321,-17.1672,0.526489,0,0,0,0,0,0,0,-1,762,1345,-17.1672,-0.526533
-455,-321,0,0,0,0,0,0,0,0,0,-1,769,1345,0,0
-448,-321,0,0,0,0,0,0,0,0,0,-1,776,1345,0,0
-441,-321,0,0,0,0,0,0,0,0,0,-1,783,1345,0,0
-434,-321,0,0,0,0,0,0,0,0,0,-1,790,1345,0,0
-427,-321,0,0,0,0,0,0,0,0,0,-1,797,1345,0,0
-420,-321,0,0,0,0,0,0,0,0,0,-1,804,1345,0,0
-413,-321,0,0,0,0,0,0,0,0,0,-1,811,1345,0,0
-406,-321,0,0,0,0,0,0,0,0,0,-1,818,1345,0,0
-399,-321,0,0,0,0,0,0,0,0,0,-1,825,1345,0,0
-392,-321,0,0,0,0,0,0,0,0,0,-1,832,1345,0,0
-385,-321,0,0,0,0,0,0,0,0,0,-1,839,1345,0,0
-378,-321,0,0,0,0,0,0,0,0,0,-1,846,1345,0,0
-371,-321,0,0,0,0,0,0,0,0,0,-1,853,1345,0,0
-364,-321,0,0,0,0,0,0,0,0,0,-1,860,1345,0,0
-357,-321,0,0,0,0,0,0,0,0,0,-1,867,1345,0,0
-350,-321,0,0,0,0,0,0,0,0,0,-1,874,1345,0,0
-343,-321,0,0,0,0,0,0,0,0,0,-1,881,1345,0,0
-336,-321,0,0,0,0,0,0,0,0,0,-1,888,1345,0,0
-329,-321,0,0,0,0,0,0,0,0,0,-1,895,1345,0,0
-322,-321,0,0,0,0,0,0,0,0,0,-1,902,1345,0,0
-315,-321,0,0,0,0,0,0,0,0,0,-1,909,1345,0,0
-308,-321,0,0,0,0,0,0,0,0,0,-1,916,1345,0,0
-301,-321,0,0,0,0,0,0,0,0,0,-1,923,1345,0,0
-294,-321,0,0,0,0,0,0,0,0,0,-1,930,1345,0,0
-287,-321,0,0,0,0,0,0,0,0,0,-1,937,1345,0,0
-280,-321,0,0,0,0,0,0,0,0,0,-1,944,1345,0,0
-273,-321,0,0,0,0,0,0,0,0,0,-1,951,1345,0,0
-266,-321,0,0,0,0,0,0,0,0,0,-1,958,1345,0,0
-259,-321,0,0,0,0,0,0,0,0,0,-1,965,1345,0,0
-252,-321,0,0,0,0,0,0,0,0,0,-1,972,1345,0,0
-245,-321,0,0,0,0,0,0,0,0,0,-1,979,1345,0,0
-238,-321,0,0,0,0,0,0,0,0,0,-1,986,1345,0,0
-231,-321,0,0,0,0,0,0,0,0,0,-1,993,1345,0,0
-224,-321,0,0,0,0,0,0,0,0,0,-1,1000,1345,0,0
-217,-321,0,0,0,0,0,0,0,0,0,-1,1007,1345,0,0
-210,-321,0,0,0,0,0,0,0,0,0,-1,1014,1345,0,0
-203,-321,0,0,0,0,0,0,0,0,0,-1,1021,1345,0,0
-196,-321,0,0,0,0,0,0,0,0,0,-1,1028,1345,0,0
-189,-321,0,0,0,0,0,0,0,0,0,-1,1035,1345,0,0
-182,-321,0,0,0,0,0,0,0,0,0,-1,1042,1345,0,0
-175,-321,0,0,0,0,0,0,0,0,0,-1,1049,1345,0,0
-168,-321,0,0,0,0,0,0,0,0,0,-1,1056,1345,0,0
-161,-321,0,0,0,0,0,0,0,0,0,-1,1063,1345,0,0
-154,-321,0,0,0,0,0,0,0,0,0,-1,1070,1345,0,0
-147,-321,0,0,0,0,0,0,0,0,0,-1,1077,1345,0,0
-140,-321,0,0,0,0,0,0,0,0,0,-1,1084,1345,0,0
-133,-321,0,0,0,0,0,0,0,0,0,-1,1091,1345,0,0
-126,-321,0,0,0,0,0,0,0,0,0,-1,1098,1345,0,0
-119,-321,0,0,0,0,0,0,0,0,0,-1,1105,1345,0,0
-112,-321,0,0,0,0,0,0,0,0,0,-1,1112,1345,0,0
-105,-321,0,0,0,0,0,0,0,0,0,-1,1119,1345,0,0
-98,-321,0,0,0,0,0,0,0,0,0,-1,1126,1345,0,0
-91,-321,0,0,0,0,0,0,0,0,0,-1,1133,1345,0,0
-84,-321,0,0,0,0,0,0,0,0,0,-1,1140,1345,0,0
-77,-321,0,0,0,0,0,0,0,0,0,-1,1147,1345,0,0
-70,-321,0,0,0,0,0,0,0,0,0,-1,1154,1345,0,0
-63,-321,0,0,0,0,0,0,0,0,0,-1,1161,1345,0,0
-56,-321,0,0,0,0,0,0,0,0,0,-1,1168,1345,0,0
-49,-321,0,0,0,0,0,0,0,0,0,-1,1175,1345,0,0
-42,-321,0,0,0,0,0,0,0,0,0,-1,1182,1345,0,0
-35,-321,0,0,0,0,0,0,0,0,0,-1,1189,1345,0,0
-28,-321,0,0,0,0,0,0,0,0,0,-1,1196,1345,0,0
-21,-321,0,0,0,0,0,0,0,0,0,-1,1203,1345,0,0
-14,-321,0,0,0,0,0,0,0,0,0,-1,1210,1345,0,0
-7,-321,0,0,0,0,0,0,0,0,0,-1,1217,1345,0,0
0,-321,0,0,0,0,0,0,0,0,0,-1,1224,1345,0,0
7,-321,0,0,0,0,0,0,0,0,0,-1,1231,1345,0,0
14,-321,0,0,0,0,0,0,0,0,0,-1,1238,1345,0,0
21,-321,0,0,0,0,0,0,0,0,0,-1,1245,1345,0,0
28,-321,0,0,0,0,0,0,0,0,0,-1,1252,1345,0,0
35,-321,0,0,0,0,0,0,0,0,0,-1,1259,1345,0,0
42,-321,0,0,0,0,0,0,0,0,0,-1,1266,1345,0,0
49,-321,0,0,0,0,0,0,0,0,0,-1,1273,1345,0,0
56,-321,0,0,0,0,0,0,0,0,0,-1,1280,1345,0,0
63,-321,0,0,0,0,0,0,0,0,0,-1,1287,1345,0,0
70,-321,0,0,0,0,0,0,0,0,0,-1,1294,1345,0,0
77,-321,0,0,0,0,0,0,0,0,0,-1,1301,1345,0,0
84,-321,0,0,0,0,0,0,0,0,0,-1,1308,1345,0,0
91,-321,0,0,0,0,0,0,0,0,0,-1,1315,1345,0,0
98,-321,0,0,0,0,0,0,0,0,0,-1,1322,1345,0,0
105,-321,0,0,0,0,0,0,0,0,0,-1,1329,1345,0,0
112,-321,0,0,0,0,0,0,0,0,0,-1,1336,1345,0,0
119,-321,0,0,0,0,0,0,0,0,0,-1,1343,1345,0,0
126,-321,0,0,0,0,0,0,0,0,0,-1,1350,1345,0,0
133,-321,0,0,0,0,0,0,0,0,0,-1,1357,1345,0,0
140,-321,0,0,0,0,0,0,0,0,0,-1,1364,1345,0,0
147,-321,0,0,0,0,0,0,0,0,0,-1,1371,1345,0,0
154,-321,0,0,0,0,0,0,0,0,0,-1,1378,1345,0,0
161,-321,0,0,0,0,0,0,0,0,0,-1,1385,1345,0,0
168,-321,0,0,0,0,0,0,0,0,0,-1,1392,1345,0,0
175,-321,0,0,0,0,0,0,0,0,0,-1,1399,1345,0,0
182,-321,0,0,0,0,0,0,0,0,0,-1,1406,1345,0,0
189,-321,0,0,0,0,0,0,0,0,0,-1,1413,1345,0,0
196,-321,0,0,0,0,0,0,0,0,0,-1,1420,1345,0,0
203,-321,0,0,0,0,0,0,0,0,0,-1,1427,1345,0,0
210,-321,0,0,0,0,0,0,0,0,0,-1,1434,1345,0,0
217,-321,0,0,0,0,0,0,0,0,0,-1,1441,1345,0,0
224,-321,0,0,0,0,0,0,0,0,0,-1,1448,1345,0,0
231,-321,0,0,0,0,0,0,0,0,0,-1,1455,1345,0,0
238,-321,0,0,0,0,0,0,0,0,0,-1,1462,1345,0,0
245,-321,0,0,0,0,0,0,0,0,0,-1,1469,1345,0,0
252,-321,0,0,0,0,0,0,0,0,0,-1,1476,1345,0,0
259,-321,0,0,0,0,0,0,0,0,0,-1,1483,1345,0,0
266,-321,0,0,0,0,0,0,0,0,0,-1,1490,1345,0,0
273,-321,0,0,0,0,0,0,0,0,0,-1,1497,1345,0,0
280,-321,0,0,0,0,0,0,0,0,0,-1,1504,1345,0,0
287,-321,0,0,0,0,0,0,0,0,0,-1,1511,1345,0,0
294,-321,0,0,0,0,0,0,0,0,0,-1,1518,1345,0,0
301,-321,0,0,0,0,0,0,0,0,0,-1,1525,1345,0,0
308,-321,0,0,0,0,0,0,0,0,0,-1,1532,1345,0,0
315,-321,0,0,0,0,0,0,0,0,0,-1,1539,1345,0,0
322,-321,0,0,0,0,0,0,0,0,0,-1,1546,1345,0,0
329,-321,0,0,0,0,0,0,0,0,0,-1,1553,1345,0,0
336,-321,0,0,0,0,0,0,0,0,0,-1,1560,1345,0,0
343,-321,0,0,0,0,0,0,0,0,0,-1,1567,1345,0,0
350,-321,0,0,0,0,0,0,0,0,0,-1,1574,1345,0,0
357,-321,0,0,0,0,0,0,0,0,0,-1,1581,1345,0,0
364,-321,0,0,0,0,0,0,0,0,0,-1,1588,1345,0,0
371,-321,0,0,0,0,0,0,0,0,0,-1,1595,1345,0,0
378,-321,0,0,0,0,0,0,0,0,0,-1,1602,1345,0,0
385,-321,0,0,0,0,0,0,0,0,0,-1,1609,1345,0,0
392,-321,0,0,0,0,0,0,0,0,0,-1,1616,1345,0,0
399,-321,0,0,0,0,0,0,0,0,0,-1,1623,1345,0,0
406,-321,0,0,0,0,0,0,0,0,0,-1,1630,1345,0,0
413,-321,0,0,0,0,0,0,0,0,0,-1,1637,1345,0,0
420,-321,0,0,0,0,0,0,0,0,0,-1,1644,1345,0,0
427,-321,0,0,0,0,0,0,0,0,0,-1,1651,1345,0,0
434,-321,0,0,0,0,0,0,0,0,0,-1,1658,1345,0,0
441,-321,0,0,0,0,0,0,0,0,0,-1,1665,1345,0,0
448,-321,0,0,0,0,0,0,0,0,0,-1,1672,1345,0,0
455,-321,0,0,0,0,0,0,0,0,0,-1,1679,1345,0,0
462,-321,0,0,0,0,0,0,0,0,0,-1,1686,1345,0,0
469,-321,0,0,0,0,0,0,0,0,0,-1,1693,1345,0,0
476,-321,0,0,0,0,0,0,0,0,0,-1,1700,1345,0,0
483,-321,0,0,0,0,0,0,0,0,0,-1,1707,1345,0,0
490,-321,0,0,0,0,0,0,0,0,0,-1,1714,1345,0,0
497,-321,0,0,0,0,0,0,0,0,0,-1,1721,1345,0,0
504,-321,0,0,0,0,0,0,0,0,0,-1,1728,1345,0,0
511,-321,0,0,0,0,0,0,0,0,0,-1,1735,1345,0,0
518,-321,0,0,0,0,0,0,0,0,0,-1,1742,1345,0,0
525,-321,0,0,0,0,0,0,0,0,0,-1,1749,1345,0,0
532,-321,0,0,0,0,0,0,0,0,0,-1,1756,1345,0,0
539,-321,0,0,0,0,0,0,0,0,0,-1,1763,1345,0,0
546,-321,0,0,0,0,0,0,0,0,0,-1,1770,1345,0,0
553,-321,0,0,0,0,0,0,0,0,0,-1,1777,1345,0,0
560,-321,0,0,0,0,0,0,0,0,0,-1,1784,1345,0,0
567,-321,0,0,0,0,0,0,0,0,0,-1,1791,1345,0,0
574,-321,0,0,0,0,0,0,0,0,0,-1,1798,1345,0,0
581,-321,66.1073,1.6543,0,0,0,0,0,0,0,-1,1805,1345,66.1073,-1.65427
588,-321,66.6576,0.7948,0,0,0,0,0,0,0,-1,1812,1345,66.6575,-0.794774
595,-321,67.2585,-0.216431,0,0,0,0,0,0,0,-1,1819,1345,67.2586,0.216484
602,-321,60.3523,1.24133,0,0,0,0,0,0,0,-1,1826,1345,60.3523,-1.2413
609,-321,48.311,3.39575,0,0,0,0,0,0,0,-1,1833,1345,48.311,-3.39571
616,-321,37.8107,2.58704,0,0,0,0,0,0,0,-1,1840,1345,37.8106,-2.58705
623,-321,37.6854,3.68933,0,0,0,0,0,0,0,-1,1847,1345,37.6854,-3.68931
630,-321,23.6674,4.34106,0,0,0,0,0,0,0,-1,1854,1345,23.6674,-4.34112
637,-321,21.7925,6.79224,0,0,0,0,0,0,0,-1,1861,1345,21.7925,-6.7922
644,-321,16.8844,6.71973,0,0,0,0,0,0,0,-1,1868,1345,16.8844,-6.71971
651,-321,27.4924,10.0319,0,0,0,0,0,0,0,-1,1875,1345,27.4924,-10.0319
658,-321,49.9933,19.4728,0,0,0,0,0,0,0,-1,1882,1345,49.9933,-19.4728
665,-321,50.0273,18.6846,0.00025529,0.00266341,-0.000706551,0.00285541,6.32934e-05,-1.30546,0.00188286,0.0317295,1889,1345,50.0274,-18.6845
672,-321,50.0314,17.8865,0.000750499,0.000673348,-0.000742616,0.00145554,-3.16933e-05,-0.759449,0.000981095,0.0135873,1896,1345,50.0314,-17.8865
679,-321,49.9972,17.0297,0.00102098,4.24248e-05,-0.000708558,0.00139278,-0.00032937,-0.483228,0.00105558,0.0127204,1903,1345,49.9972,-17.0296
686,-321,49.9169,16.1918,0.00114339,-0.000125384,-0.000477492,0.00130301,-0.000285003,-0.322607,0.000977622,0.0144706,1910,1345,49.9168,-16.1918
693,-321,49.8649,15.3694,0.00115525,-1.03008e-05,-0.00023969,0.00120262,-5.76668e-05,-0.1951,0.000821642,0.0128781,1917,1345,49.8649,-15.3694
700,-321,49.845,14.5225,0.00104596,-1.79267e-05,0.000104487,0.00105613,-2.80914e-05,0.0969772,0.000713634,0.0126878,1924,1345,49.845,-14.5225
707,-321,49.8199,13.6884,0.000850808,-1.30123e-05,0.000523971,0.00109794,-0.00026014,0.440706,0.000832333,0.0150986,1931,1345,49.8199,-13.6884
714,-321,49.7621,12.8722,0.000498196,-4.66805e-05,0.00108012,0.00133971,-0.000888194,0.661861,0.00129506,0.0141351,1938,1345,49.762,-12.8722
721,-321,49.6731,12.0292,-6.61817e-05,-0.000237619,0.00187173,0.0017218,-0.0020256,0.762516,0.00216593,0.0420782,1945,1345,49.6731,-12.0291
728,-321,49.6592,11.2316,0,0,0,0,0,0,0,-1,1952,1345,49.6592,-11.2315
735,-321,22.0081,5.65479,0,0,0,0,0,0,0,-1,1959,1345,22.008,-5.65481
742,-321,24.5398,5.05725,0,0,0,0,0,0,0,-1,1966,1345,24.5398,-5.05729
749,-321,24.0675,5.4458,0,0,0,0,0,0,0,-1,1973,1345,24.0675,-5.44581
756,-321,19.6251,4.98315,0,0,0,0,0,0,0,-1,1980,1345,19.6251,-4.98311
763,-321,19.6747,4.61438,0,0,0,0,0,0,0,-1,1987,1345,19.6747,-4.61436
770,-321,0,0,0,0,0,0,0,0,0,-1,1994,1345,0,0
777,-321,0,0,0,0,0,0,0,0,0,-1,2001,1345,0,0
784,-321,0,0,0,0,0,0,0,0,0,-1,2008,1345,0,0
791,-321,0,0,0,0,0,0,0,0,0,-1,2015,1345,0,0
798,-321,0,0,0,0,0,0,0,0,0,-1,2022,1345,0,0
805,-321,0,0,0,0,0,0,0,0,0,-1,2029,1345,0,0
812,-321,0,0,0,0,0,0,0,0,0,-1,2036,1345,0,0
-700,-328,0,0,0,0,0,0,0,0,0,-1,524,1352,0,0
-693,-328,0,0,0,0,0,0,0,0,0,-1,531,1352,0,0
-686,-328,0,0,0,0,0,0,0,0,0,-1,538,1352,0,0
-679,-328,0,0,0,0,0,0,0,0,0,-1,545,1352,0,0
-672,-328,0,0,0,0,0,0,0,0,0,-1,552,1352,0,0
-665,-328,0,0,0,0,0,0,0,0,0,-1,559,1352,0,0
-658,-328,0,0,0,0,0,0,0,0,0,-1,566,1352,0,0
-651,-328,0,0,0,0,0,0,0,0,0,-1,573,1352,0,0
-644,-328,0,0,0,0,0,0,0,0,0,-1,580,1352,0,0
-637,-328,-61.3883,10.1125,0,0,0,0,0,0,0,-1,587,1352,-61.3883,-10.1126
-630,-328,-62.8012,9.14563,0,0,0,0,0,0,0,-1,594,1352,-62.8012,-9.14564
-623,-328,-10.7739,4.55042,0,0,0,0,0,0,0,-1,601,1352,-10.7739,-4.55041
-616,-328,-8.22198,-0.25708,0,0,0,0,0,0,0,-1,608,1352,-8.22201,0.257067
-609,-328,-7.87439,0.192871,0,0,0,0,0,0,0,-1,615,1352,-7.87441,-0.192822
-602,-328,-7.63062,1.31665,0,0,0,0,0,0,0,-1,622,1352,-7.63064,-1.3166
-595,-328,-9.42639,2.93494,0,0,0,0,0,0,0,-1,629,1352,-9.42638,-2.93499
-588,-328,-32.0417,11.5457,0,0,0,0,0,0,0,-1,636,1352,-32.0417,-11.5457
-581,-328,-31.9515,12.6584,0.00319012,0.00377012,0.00206605,0.00556642,0.00139382,0.855124,0.0033446,0.0284563,643,1352,-31.9515,-12.6585
-574,-328,-31.9844,13.5797,0.00289256,0.00289888,0.00163486,0.00453058,0.00126086,0.786364,0.00270008,0.0156529,650,1352,-31.9844,-13.5797
-567,-328,-32.0605,14.4449,0.00289645,0.00221405,0.0014151,0.0040109,0.0010996,0.667099,0.00239314,0.0208136,657,1352,-32.0605,-14.445
-560,-328,-32.0921,15.3608,0.00320092,0.00165962,0.00141171,0.00403863,0.000821914,0.535553,0.00246456,0.0297114,664,1352,-32.0921,-15.3608
-553,-328,-32.1304,16.1637,0.00373001,0.00120844,0.00157356,0.00448557,0.000452872,0.447652,0.00285144,0.0327823,671,1352,-32.1304,-16.1637
-546,-328,-32.1127,17.0129,0.00449998,0.000846013,0.00189446,0.00530489,4.1103e-05,0.401765,0.00352297,0.0310745,678,1352,-32.1127,-17.013
-539,-328,-32.1642,17.8831,0.00552554,0.000587339,0.00239879,0.00649892,-0.000386038,0.385478,0.00446686,0.0257337,685,1352,-32.1642,-17.8831
-532,-328,-32.2076,18.75,0.00690252,0.000439043,0.00309798,0.00814757,-0.000806006,0.382135,0.00571935,0.020103,692,1352,-32.2076,-18.7501
-525,-328,-32.2314,19.6826,0.0086206,0.00028932,0.0039911,0.010224,-0.00131405,0.382002,0.00729356,0.0345296,699,1352,-32.2314,-19.6826
-518,-328,-32.4022,20.662,0,0,0,0,0,0,0,-1,706,1352,-32.4022,-20.662
-511,-328,-9.39868,7.16113,0,0,0,0,0,0,0,-1,713,1352,-9.39869,-7.16113
-504,-328,-8.60626,-0.905762,0,0,0,0,0,0,0,-1,720,1352,-8.60623,0.905787
-497,-328,-9.29102,-0.0517578,0,0,0,0,0,0,0,-1,727,1352,-9.29104,0.0518175
-490,-328,-10.0663,0.882813,0,0,0,0,0,0,0,-1,734,1352,-10.0663,-0.882795
-483,-328,-10.8181,1.72375,0,0,0,0,0,0,0,-1,741,1352,-10.8181,-1.72374
-476,-328,-16.8951,-0.150757,0,0,0,0,0,0,0,-1,748,1352,-16.8951,0.150795
-469,-328,-16.8412,0.00158691,0,0,0,0,0,0,0,-1,755,1352,-16.8412,-0.00161515
-462,-328,-16.3546,-0.203491,0,0,0,0,0,0,0,-1,762,1352,-16.3545,0.203532
-455,-328,0,0,0,0,0,0,0,0,0,-1,769,1352,0,0
-448,-328,0,0,0,0,0,0,0,0,0,-1,776,1352,0,0
-441,-328,0,0,0,0,0,0,0,0,0,-1,783,1352,0,0
-434,-328,0,0,0,0,0,0,0,0,0,-1,790,1352,0,0
-427,-328,0,0,0,0,0,0,0,0,0,-1,797,1352,0,0
-420,-328,0,0,0,0,0,0,0,0,0,-1,804,1352,0,0
-413,-328,0,0,0,0,0,0,0,0,0,-1,811,1352,0,0
-406,-328,0,0,0,0,0,0,0,0,0,-1,818,1352,0,0
-399,-328,0,0,0,0,0,0,0,0,0,-1,825,1352,0,0
-392,-328,0,0,0,0,0,0,0,0,0,-1,832,1352,0,0
-385,-328,0,0,0,0,0,0,0,0,0,-1,839,1352,0,0
-378,-328,0,0,0,0,0,0,0,0,0,-1,846,1352,0,0
-371,-328,0,0,0,0,0,0,0,0,0,-1,853,1352,0,0
-364,-328,0,0,0,0,0,0,0,0,0,-1,860,1352,0,0
-357,-328,0,0,0,0,0,0,0,0,0,-1,867,1352,0,0
-350,-328,0,0,0,0,0,0,0,0,0,-1,874,1352,0,0
-343,-328,0,0,0,0,0,0,0,0,0,-1,881,1352,0,0
-336,-328,0,0,0,0,0,0,0,0,0,-1,888,1352,0,0
-329,-328,0,0,0,0,0,0,0,0,0,-1,895,1352,0,0
-322,-328,0,0,0,0,0,0,0,0,0,-1,902,1352,0,0
-315,-328,0,0,0,0,0,0,0,0,0,-1,909,1352,0,0
-308,-328,0,0,0,0,0,0,0,0,0,-1,916,1352,0,0
-301,-328,0,0,0,0,0,0,0,0,0,-1,923,1352,0,0
-294,-328,0,0,0,0,0,0,0,0,0,-1,930,1352,0,0
-287,-328,0,0,0,0,0,0,0,0,0,-1,937,1352,0,0
-280,-328,0,0,0,0,0,0,0,0,0,-1,944,1352,0,0
-273,-328,0,0,0,0,0,0,0,0,0,-1,951,1352,0,0
-266,-328,0,0,0,0,0,0,0,0,0,-1,958,1352,0,0
-259,-328,0,0,0,0,0,0,0,0,0,-1,965,1352,0,0
-252,-328,0,0,0,0,0,0,0,0,0,-1,972,1352,0,0
-245,-328,0,0,0,0,0,0,0,0,0,-1,979,1352,0,0
-238,-328,0,0,0,0,0,0,0,0,0,-1,986,1352,0,0
-231,-328,0,0,0,0,0,0,0,0,0,-1,993,1352,0,0
-224,-328,0,0,0,0,0,0,0,0,0,-1,1000,1352,0,0
-217,-328,0,0,0,0,0,0,0,0,0,-1,1007,1352,0,0
-210,-328,0,0,0,0,0,0,0,0,0,-1,1014,1352,0,0
-203,-328,0,0,0,0,0,0,0,0,0,-1,1021,1352,0,0
-196,-328,0,0,0,0,0,0,0,0,0,-1,1028,1352,0,0
-189,-328,0,0,0,0,0,0,0,0,0,-1,1035,1352,0,0
-182,-328,0,0,0,0,0,0,0,0,0,-1,1042,1352,0,0
-175,-328,0,0,0,0,0,0,0,0,0,-1,1049,1352,0,0
-168,-328,0,0,0,0,0,0,0,0,0,-1,1056,1352,0,0
-161,-328,0,0,0,0,0,0,0,0,0,-1,1063,1352,0,0
-154,-328,0,0,0,0,0,0,0,0,0,-1,1070,1352,0,0
-147,-328,0,0,0,0,0,0,0,0,0,-1,1077,1352,0,0
-140,-328,0,0,0,0,0,0,0,0,0,-1,1084,1352,0,0
-133,-328,0,0,0,0,0,0,0,0,0,-1,1091,1352,0,0
-126,-328,0,0,0,0,0,0,0,0,0,-1,1098,1352,0,0
-119,-328,0,0,0,0,0,0,0,0,0,-1,1105,1352,0,0
-112,-328,0,0,0,0,0,0,0,0,0,-1,1112,1352,0,0
-105,-328,0,0,0,0,0,0,0,0,0,-1,1119,1352,0,0
-98,-328,0,0,0,0,0,0,0,0,0,-1,1126,1352,0,0
-91,-328,0,0,0,0,0,0,0,0,0,-1,1133,1352,0,0
-84,-328,0,0,0,0,0,0,0,0,0,-1,1140,1352,0,0
-77,-328,0,0,0,0,0,0,0,0,0,-1,1147,1352,0,0
-70,-328,0,0,0,0,0,0,0,0,0,-1,1154,1352,0,0
-63,-328,0,0,0,0,0,0,0,0,0,-1,1161,1352,0,0
-56,-328,0,0,0,0,0,0,0,0,0,-1,1168,1352,0,0
-49,-328,0,0,0,0,0,0,0,0,0,-1,1175,1352,0,0
-42,-328,0,0,0,0,0,0,0,0,0,-1,1182,1352,0,0
-35,-328,0,0,0,0,0,0,0,0,0,-1,1189,1352,0,0
-28,-328,0,0,0,0,0,0,0,0,0,-1,1196,1352,0,0
-21,-328,0,0,0,0,0,0,0,0,0,-1,1203,1352,0,0
-14,-328,0,0,0,0,0,0,0,0,0,-1,1210,1352,0,0
-7,-328,0,0,0,0,0,0,0,0,0,-1,1217,1352,0,0
0,-328,0,0,0,0,0,0,0,0,0,-1,1224,1352,0,0
7,-328,0,0,0,0,0,0,0,0,0,-1,1231,1352,0,0
14,-328,0,0,0,0,0,0,0,0,0,-1,1238,1352,0,0
21,-328,0,0,0,0,0,0,0,0,0,-1,1245,1352,0,0
28,-328,0,0,0,0,0,0,0,0,0,-1,1252,1352,0,0
35,-328,0,0,0,0,0,0,0,0,0,-1,1259,1352,0,0
42,-328,0,0,0,0,0,0,0,0,0,-1,1266,1352,0,0
49,-328,0,0,0,0,0,0,0,0,0,-1,1273,1352,0,0
56,-328,0,0,0,0,0,0,0,0,0,-1,1280,1352,0,0
63,-328,0,0,0,0,0,0,0,0,0,-1,1287,1352,0,0
70,-328,0,0,0,0,0,0,0,0,0,-1,1294,1352,0,0
77,-328,0,0,0,0,0,0,0,0,0,-1,1301,1352,0,0
84,-328,0,0,0,0,0,0,0,0,0,-1,1308,1352,0,0
91,-328,0,0,0,0,0,0,0,0,0,-1,1315,1352,0,0
98,-328,0,0,0,0,0,0,0,0,0,-1,1322,1352,0,0
105,-328,0,0,0,0,0,0,0,0,0,-1,1329,1352,0,0
112,-328,0,0,0,0,0,0,0,0,0,-1,1336,1352,0,0
119,-328,0,0,0,0,0,0,0,0,0,-1,1343,1352,0,0
126,-328,0,0,0,0,0,0,0,0,0,-1,1350,1352,0,0
133,-328,0,0,0,0,0,0,0,0,0,-1,1357,1352,0,0
140,-328,0,0,0,0,0,0,0,0,0,-1,1364,1352,0,0
147,-328,0,0,0,0,0,0,0,0,0,-1,1371,1352,0,0
154,-328,0,0,0,0,0,0,0,0,0,-1,1378,1352,0,0
161,-328,0,0,0,0,0,0,0,0,0,-1,1385,1352,0,0
168,-328,0,0,0,0,0,0,0,0,0,-1,1392,1352,0,0
175,-328,0,0,0,0,0,0,0,0,0,-1,1399,1352,0,0
182,-328,0,0,0,0,0,0,0,0,0,-1,1406,1352,0,0
189,-328,0,0,0,0,0,0,0,0,0,-1,1413,1352,0,0
196,-328,0,0,0,0,0,0,0,0,0,-1,1420,1352,0,0
203,-328,0,0,0,0,0,0,0,0,0,-1,1427,1352,0,0
210,-328,0,0,0,0,0,0,0,0,0,-1,1434,1352,0,0
217,-328,0,0,0,0,0,0,0,0,0,-1,1441,1352,0,0
224,-328,0,0,0,0,0,0,0,0,0,-1,1448,1352,0,0
231,-328,0,0,0,0,0,0,0,0,0,-1,1455,1352,0,0
238,-328,0,0,0,0,0,0,0,0,0,-1,1462,1352,0,0
245,-328,0,0,0,0,0,0,0,0,0,-1,1469,1352,0,0
252,-328,0,0,0,0,0,0,0,0,0,-1,1476,1352,0,0
259,-328,0,0,0,0,0,0,0,0,0,-1,1483,1352,0,0
266,-328,0,0,0,0,0,0,0,0,0,-1,1490,1352,0,0
273,-328,0,0,0,0,0,0,0,0,0,-1,1497,1352,0,0
280,-328,0,0,0,0,0,0,0,0,0,-1,1504,1352,0,0
287,-328,0,0,0,0,0,0,0,0,0,-1,1511,1352,0,0
294,-328,0,0,0,0,0,0,0,0,0,-1,1518,1352,0,0
301,-328,0,0,0,0,0,0,0,0,0,-1,1525,1352,0,0
308,-328,0,0,0,0,0,0,0,0,0,-1,1532,1352,0,0
315,-328,0,0,0,0,0,0,0,0,0,-1,1539,1352,0,0
322,-328,0,0,0,0,0,0,0,0,0,-1,1546,1352,0,0
329,-328,0,0,0,0,0,0,0,0,0,-1,1553,1352,0,0
336,-328,0,0,0,0,0,0,0,0,0,-1,1560,1352,0,0
343,-328,0,0,0,0,0,0,0,0,0,-1,1567,1352,0,0
350,-328,0,0,0,0,0,0,0,0,0,-1,1574,1352,0,0
357,-328,0,0,0,0,0,0,0,0,0,-1,1581,1352,0,0
364,-328,0,0,0,0,0,0,0,0,0,-1,1588,1352,0,0
371,-328,0,0,0,0,0,0,0,0,0,-1,1595,1352,0,0
378,-328,0,0,0,0,0,0,0,0,0,-1,1602,1352,0,0
385,-328,0,0,0,0,0,0,0,0,0,-1,1609,1352,0,0
392,-328,0,0,0,0,0,0,0,0,0,-1,1616,1352,0,0
399,-328,0,0,0,0,0,0,0,0,0,-1,1623,1352,0,0
406,-328,0,0,0,0,0,0,0,0,0,-1,1630,1352,0,0
413,-328,0,0,0,0,0,0,0,0,0,-1,1637,1352,0,0
420,-328,0,0,0,0,0,0,0,0,0,-1,1644,1352,0,0
427,-328,0,0,0,0,0,0,0,0,0,-1,1651,1352,0,0
434,-328,0,0,0,0,0,0,0,0,0,-1,1658,1352,0,0
441,-328,0,0,0,0,0,0,0,0,0,-1,1665,1352,0,0
448,-328,0,0,0,0,0,0,0,0,0,-1,1672,1352,0,0
455,-328,0,0,0,0,0,0,0,0,0,-1,1679,1352,0,0
462,-328,0,0,0,0,0,0,0,0,0,-1,1686,1352,0,0
469,-328,0,0,0,0,0,0,0,0,0,-1,1693,1352,0,0
476,-328,0,0,0,0,0,0,0,0,0,-1,1700,1352,0,0
483,-328,0,0,0,0,0,0,0,0,0,-1,1707,1352,0,0
490,-328,0,0,0,0,0,0,0,0,0,-1,1714,1352,0,0
497,-328,0,0,0,0,0,0,0,0,0,-1,1721,1352,0,0
504,-328,0,0,0,0,0,0,0,0,0,-1,1728,1352,0,0
511,-328,0,0,0,0,0,0,0,0,0,-1,1735,1352,0,0
518,-328,0,0,0,0,0,0,0,0,0,-1,1742,1352,0,0
525,-328,0,0,0,0,0,0,0,0,0,-1,1749,1352,0,0
532,-328,0,0,0,0,0,0,0,0,0,-1,1756,1352,0,0
539,-328,0,0,0,0,0,0,0,0,0,-1,1763,1352,0,0
546,-328,0,0,0,0,0,0,0,0,0,-1,1770,1352,0,0
553,-328,0,0,0,0,0,0,0,0,0,-1,1777,1352,0,0
560,-328,0,0,0,0,0,0,0,0,0,-1,1784,1352,0,0
567,-328,0,0,0,0,0,0,0,0,0,-1,1791,1352,0,0
574,-328,65.0565,3.09021,0,0,0,0,0,0,0,-1,1798,1352,65.0565,-3.09019
581,-328,66.3988,1.74048,0,0,0,0,0,0,0,-1,1805,1352,66.3989,-1.74051
588,-328,67.0304,0.506714,0,0,0,0,0,0,0,-1,1812,1352,67.0304,-0.506669
595,-328,60.5831,1.52856,0,0,0,0,0,0,0,-1,1819,1352,60.5832,-1.52861
602,-328,48.7734,3.66785,0,0,0,0,0,0,0,-1,1826,1352,48.7734,-3.66782
609,-328,37.0468,1.17407,0,0,0,0,0,0,0,-1,1833,1352,37.0468,-1.17407
616,-328,36.999,2.42859,0,0,0,0,0,0,0,-1,1840,1352,36.999,-2.42862
623,-328,34.345,5.14722,0,0,0,0,0,0,0,-1,1847,1352,34.3449,-5.14718
630,-328,22.0211,5.026,0,0,0,0,0,0,0,-1,1854,1352,22.0212,-5.02603
637,-328,21.15,5.53699,0,0,0,0,0,0,0,-1,1861,1352,21.15,-5.53704
644,-328,16.9579,6.3396,0,0,0,0,0,0,0,-1,1868,1352,16.9579,-6.33959
651,-328,36.2629,14.6906,0,0,0,0,0,0,0,-1,1875,1352,36.263,-14.6905
658,-328,49.2561,19.5966,0,0,0,0,0,0,0,-1,1882,1352,49.2561,-19.5966
665,-328,49.2516,18.7712,0.000356853,0.000750405,-0.00046435,0.00105795,4.93063e-05,-0.985811,0.000689454,0.015032,1889,1352,49.2516,-18.7712
672,-328,49.2024,17.939,0.000682305,4.73494e-05,-0.000561183,0.00100959,-0.000279936,-0.527979,0.000783229,0.0123833,1896,1352,49.2024,-17.939
679,-328,49.1533,17.0809,0.000973886,-3.77413e-05,-0.000589199,0.0012446,-0.00030846,-0.430701,0.000949409,0.0152891,1903,1352,49.1533,-17.081
686,-328,49.0863,16.24,0.00121121,1.19832e-05,-0.000496841,0.0013903,-0.000167113,-0.345971,0.000987298,0.0164164,1910,1352,49.0863,-16.24
693,-328,49.0422,15.4211,0.0014162,0.000188872,-0.000396815,0.00153332,7.17513e-05,-0.287003,0.000999154,0.010648,1917,1352,49.0423,-15.4211
700,-328,49.0121,14.575,0.0015215,0.000285966,-0.000214103,0.00155755,0.000249916,-0.16681,0.0009659,0.0141448,1924,1352,49.0121,-14.5749
707,-328,48.99,13.7434,0.00153554,0.000394192,4.05009e-05,0.00153698,0.000392757,0.0354257,0.000922051,0.0164906,1931,1352,48.99,-13.7434
714,-328,48.9572,12.9182,0.00139047,0.000527707,0.000410589,0.00155463,0.000363544,0.380354,0.000939,0.0177529,1938,1352,48.9572,-12.9182
721,-328,48.9921,12.0648,0,0,0,0,0,0,0,-1,1945,1352,48.9921,-12.0648
728,-328,29.2787,6.74695,0,0,0,0,0,0,0,-1,1952,1352,29.2787,-6.74693
735,-328,20.8927,5.23523,0,0,0,0,0,0,0,-1,1959,1352,20.8927,-5.23528
742,-328,20.3547,4.11316,0,0,0,0,0,0,0,-1,1966,1352,20.3547,-4.11321
749,-328,20.0669,5.66321,0,0,0,0,0,0,0,-1,1973,1352,20.0669,-5.66319
756,-328,19.9543,5.50464,0,0,0,0,0,0,0,-1,1980,1352,19.9543,-5.50463
763,-328,0,0,0,0,0,0,0,0,0,-1,1987,1352,0,0
770,-328,0,0,0,0,0,0,0,0,0,-1,1994,1352,0,0
777,-328,0,0,0,0,0,0,0,0,0,-1,2001,1352,0,0
784,-328,0,0,0,0,0,0,0,0,0,-1,2008,1352,0,0
791,-328,0,0,0,0,0,0,0,0,0,-1,2015,1352,0,0
798,-328,0,0,0,0,0,0,0,0,0,-1,2022,1352,0,0
805,-328,0,0,0,0,0,0,0,0,0,-1,2029,1352,0,0
812,-328,0,0,0,0,0,0,0,0,0,-1,2036,1352,0,0
-700,-335,0,0,0,0,0,0,0,0,0,-1,524,1359,0,0
-693,-335,0,0,0,0,0,0,0,0,0,-1,531,1359,0,0
-686,-335,0,0,0,0,0,0,0,0,0,-1,538,1359,0,0
-679,-335,0,0,0,0,0,0,0,0,0,-1,545,1359,0,0
-672,-335,0,0,0,0,0,0,0,0,0,-1,552,1359,0,0
-665,-335,0,0,0,0,0,0,0,0,0,-1,559,1359,0,0
-658,-335,0,0,0,0,0,0,0,0,0,-1,566,1359,0,0
-651,-335,0,0,0,0,0,0,0,0,0,-1,573,1359,0,0
-644,-335,0,0,0,0,0,0,0,0,0,-1,580,1359,0,0
-637,-335,-62.7114,11.0491,0,0,0,0,0,0,0,-1,587,1359,-62.7114,-11.0491
-630,-335,-64.2532,9.91284,0,0,0,0,0,0,0,-1,594,1359,-64.2532,-9.91285
-623,-335,-8.43304,1.09509,0,0,0,0,0,0,0,-1,601,1359,-8.43301,-1.09507
-616,-335,-7.80927,-0.485352,0,0,0,0,0,0,0,-1,608,1359,-7.80926,0.485291
-609,-335,-7.12256,-2.03601,0,0,0,0,0,0,0,-1,615,1359,-7.12253,2.03601
-602,-335,-9.39935,2.25146,0,0,0,0,0,0,0,-1,622,1359,-9.39935,-2.25145
-595,-335,-9.54767,3.01917,0,0,0,0,0,0,0,-1,629,1359,-9.54768,-3.01911
-588,-335,-31.208,11.4578,0,0,0,0,0,0,0,-1,636,1359,-31.208,-11.4577
-581,-335,-31.0546,12.7373,0.00363595,0.00448576,0.00232769,0.00642701,0.0016947,0.875677,0.0038463,0.0485999,643,1359,-31.0546,-12.7373
-574,-335,-31.1041,13.584,0.00313311,0.00346385,0.00183427,0.00514019,0.00145677,0.830355,0.00305909,0.0139681,650,1359,-31.1042,-13.584
-567,-335,-31.1489,14.5024,0.00296324,0.0026556,0.00153861,0.0043557,0.00126314,0.735577,0.00258764,0.0182679,657,1359,-31.1489,-14.5024
-560,-335,-31.1967,15.3566,0.0031361,0.00199676,0.00147088,0.00414378,0.000989085,0.600644,0.00249894,0.0267821,664,1359,-31.1967,-15.3565
-553,-335,-31.2416,16.1854,0.00353925,0.00145355,0.00156754,0.00437914,0.000613661,0.491878,0.0027379,0.0300569,671,1359,-31.2416,-16.1854
-546,-335,-31.2678,17.0656,0.00417749,0.00101673,0.00181807,0.00500604,0.000188172,0.427612,0.00327644,0.0276195,678,1359,-31.2678,-17.0655
-539,-335,-31.3154,17.9415,0.00505186,0.000690457,0.00223381,0.00599291,-0.000250597,0.398714,0.00408137,0.0222958,685,1359,-31.3154,-17.9415
-532,-335,-31.3848,18.8298,0.00623044,0.00048472,0.00282914,0.00738962,-0.00067446,0.388865,0.00516593,0.0163824,692,1359,-31.3847,-18.8298
-525,-335,-31.3844,19.7136,0.00771454,0.000330914,0.00359633,0.00917667,-0.00113121,0.386149,0.0065276,0.0140628,699,1359,-31.3844,-19.7136
-518,-335,-31.5139,20.5239,0,0,0,0,0,0,0,-1,706,1359,-31.5139,-20.5239
-511,-335,-17.3098,11.6718,0,0,0,0,0,0,0,-1,713,1359,-17.3097,-11.6717
-504,-335,-9.35767,5.99695,0,0,0,0,0,0,0,-1,720,1359,-9.35767,-5.99694
-497,-335,-8.75024,-0.650513,0,0,0,0,0,0,0,-1,727,1359,-8.75024,0.650521
-490,-335,-9.51971,0.417603,0,0,0,0,0,0,0,-1,734,1359,-9.51974,-0.41765
-483,-335,-10.2883,1.29224,0,0,0,0,0,0,0,-1,741,1359,-10.2883,-1.2922
-476,-335,-11.9938,-0.173462,0,0,0,0,0,0,0,-1,748,1359,-11.9938,0.173429
-469,-335,-12.8704,-0.204102,0,0,0,0,0,0,0,-1,755,1359,-12.8704,0.204117
-462,-335,-13.486,0.0218506,0,0,0,0,0,0,0,-1,762,1359,-13.4859,-0.0217908
-455,-335,-14.1504,0.549561,0,0,0,0,0,0,0,-1,769,1359,-14.1504,-0.549583
-448,-335,0,0,0,0,0,0,0,0,0,-1,776,1359,0,0
-441,-335,0,0,0,0,0,0,0,0,0,-1,783,1359,0,0
-434,-335,0,0,0,0,0,0,0,0,0,-1,790,1359,0,0
-427,-335,0,0,0,0,0,0,0,0,0,-1,797,1359,0,0
-420,-335,0,0,0,0,0,0,0,0,0,-1,804,1359,0,0
-413,-335,0,0,0,0,0,0,0,0,0,-1,811,1359,0,0
-406,-335,0,0,0,0,0,0,0,0,0,-1,818,1359,0,0
-399,-335,0,0,0,0,0,0,0,0,0,-1,825,1359,0,0
-392,-335,0,0,0,0,0,0,0,0,0,-1,832,1359,0,0
-385,-335,0,0,0,0,0,0,0,0,0,-1,839,1359,0,0
-378,-335,0,0,0,0,0,0,0,0,0,-1,846,1359,0,0
-371,-335,0,0,0,0,0,0,0,0,0,-1,853,1359,0,0
-364,-335,0,0,0,0,0,0,0,0,0,-1,860,1359,0,0
-357,-335,0,0,0,0,0,0,0,0,0,-1,867,1359,0,0
-350,-335,0,0,0,0,0,0,0,0,0,-1,874,1359,0,0
-343,-335,0,0,0,0,0,0,0,0,0,-1,881,1359,0,0
-336,-335,0,0,0,0,0,0,0,0,0,-1,888,1359,0,0
-329,-335,0,0,0,0,0,0,0,0,0,-1,895,1359,0,0
-322,-335,0,0,0,0,0,0,0,0,0,-1,902,1359,0,0
-315,-335,0,0,0,0,0,0,0,0,0,-1,909,1359,0,0
-308,-335,0,0,0,0,0,0,0,0,0,-1,916,1359,0,0
-301,-335,0,0,0,0,0,0,0,0,0,-1,923,1359,0,0
-294,-335,0,0,0,0,0,0,0,0,0,-1,930,1359,0,0
-287,-335,0,0,0,0,0,0,0,0,0,-1,937,1359,0,0
-280,-335,0,0,0,0,0,0,0,0,0,-1,944,1359,0,0
-273,-335,0,0,0,0,0,0,0,0,0,-1,951,1359,0,0
-266,-335,0,0,0,0,0,0,0,0,0,-1,958,1359,0,0
-259,-335,0,0,0,0,0,0,0,0,0,-1,965,1359,0,0
-252,-335,0,0,0,0,0,0,0,0,0,-1,972,1359,0,0
-245,-335,0,0,0,0,0,0,0,0,0,-1,979,1359,0,0
-238,-335,0,0,0,0,0,0,0,0,0,-1,986,1359,0,0
-231,-335,0,0,0,0,0,0,0,0,0,-1,993,1359,0,0
-224,-335,0,0,0,0,0,0,0,0,0,-1,1000,1359,0,0
-217,-335,0,0,0,0,0,0,0,0,0,-1,1007,1359,0,0
-210,-335,0,0,0,0,0,0,0,0,0,-1,1014,1359,0,0
-203,-335,0,0,0,0,0,0,0,0,0,-1,1021,1359,0,0
-196,-335,0,0,0,0,0,0,0,0,0,-1,1028,1359,0,0
-189,-335,0,0,0,0,0,0,0,0,0,-1,1035,1359,0,0
-182,-335,0,0,0,0,0,0,0,0,0,-1,1042,1359,0,0
-175,-335,0,0,0,0,0,0,0,0,0,-1,1049,1359,0,0
-168,-335,0,0,0,0,0,0,0,0,0,-1,1056,1359,0,0
-161,-335,0,0,0,0,0,0,0,0,0,-1,1063,1359,0,0
-154,-335,0,0,0,0,0,0,0,0,0,-1,1070,1359,0,0
-147,-335,0,0,0,0,0,0,0,0,0,-1,1077,1359,0,0
-140,-335,0,0,0,0,0,0,0,0,0,-1,1084,1359,0,0
-133,-335,0,0,0,0,0,0,0,0,0,-1,1091,1359,0,0
-126,-335,0,0,0,0,0,0,0,0,0,-1,1098,1359,0,0
-119,-335,0,0,0,0,0,0,0,0,0,-1,1105,1359,0,0
-112,-335,0,0,0,0,0,0,0,0,0,-1,1112,1359,0,0
-105,-335,0,0,0,0,0,0,0,0,0,-1,1119,1359,0,0
-98,-335,0,0,0,0,0,0,0,0,0,-1,1126,1359,0,0
-91,-335,0,0,0,0,0,0,0,0,0,-1,1133,1359,0,0
-84,-335,0,0,0,0,0,0,0,0,0,-1,1140,1359,0,0
-77,-335,0,0,0,0,0,0,0,0,0,-1,1147,1359,0,0
-70,-335,0,0,0,0,0,0,0,0,0,-1,1154,1359,0,0
-63,-335,0,0,0,0,0,0,0,0,0,-1,1161,1359,0,0
-56,-335,0,0,0,0,0,0,0,0,0,-1,1168,1359,0,0
-49,-335,0,0,0,0,0,0,0,0,0,-1,1175,1359,0,0
-42,-335,0,0,0,0,0,0,0,0,0,-1,1182,1359,0,0
-35,-335,0,0,0,0,0,0,0,0,0,-1,1189,1359,0,0
-28,-335,0,0,0,0,0,0,0,0,0,-1,1196,1359,0,0
-21,-335,0,0,0,0,0,0,0,0,0,-1,1203,1359,0,0
-14,-335,0,0,0,0,0,0,0,0,0,-1,1210,1359,0,0
-7,-335,0,0,0,0,0,0,0,0,0,-1,1217,1359,0,0
0,-335,0,0,0,0,0,0,0,0,0,-1,1224,1359,0,0
7,-335,0,0,0,0,0,0,0,0,0,-1,1231,1359,0,0
14,-335,0,0,0,0,0,0,0,0,0,-1,1238,1359,0,0
21,-335,0,0,0,0,0,0,0,0,0,-1,1245,1359,0,0
28,-335,0,0,0,0,0,0,0,0,0,-1,1252,1359,0,0
35,-335,0,0,0,0,0,0,0,0,0,-1,1259,1359,0,0
42,-335,0,0,0,0,0,0,0,0,0,-1,1266,1359,0,0
49,-335,0,0,0,0,0,0,0,0,0,-1,1273,1359,0,0
56,-335,0,0,0,0,0,0,0,0,0,-1,1280,1359,0,0
63,-335,0,0,0,0,0,0,0,0,0,-1,1287,1359,0,0
70,-335,0,0,0,0,0,0,0,0,0,-1,1294,1359,0,0
77,-335,0,0,0,0,0,0,0,0,0,-1,1301,1359,0,0
84,-335,0,0,0,0,0,0,0,0,0,-1,1308,1359,0,0
91,-335,0,0,0,0,0,0,0,0,0,-1,1315,1359,0,0
98,-335,0,0,0,0,0,0,0,0,0,-1,1322,1359,0,0
105,-335,0,0,0,0,0,0,0,0,0,-1,1329,1359,0,0
112,-335,0,0,0,0,0,0,0,0,0,-1,1336,1359,0,0
119,-335,0,0,0,0,0,0,0,0,0,-1,1343,1359,0,0
126,-335,0,0,0,0,0,0,0,0,0,-1,1350,1359,0,0
133,-335,0,0,0,0,0,0,0,0,0,-1,1357,1359,0,0
140,-335,0,0,0,0,0,0,0,0,0,-1,1364,1359,0,0
147,-335,0,0,0,0,0,0,0,0,0,-1,1371,1359,0,0
154,-335,0,0,0,0,0,0,0,0,0,-1,1378,1359,0,0
161,-335,0,0,0,0,0,0,0,0,0,-1,1385,1359,0,0
168,-335,0,0,0,0,0,0,0,0,0,-1,1392,1359,0,0
175,-335,0,0,0,0,0,0,0,0,0,-1,1399,1359,0,0
182,-335,0,0,0,0,0,0,0,0,0,-1,1406,1359,0,0
189,-335,0,0,0,0,0,0,0,0,0,-1,1413,1359,0,0
196,-335,0,0,0,0,0,0,0,0,0,-1,1420,1359,0,0
203,-335,0,0,0,0,0,0,0,0,0,-1,1427,1359,0,0
210,-335,0,0,0,0,0,0,0,0,0,-1,1434,1359,0,0
217,-335,0,0,0,0,0,0,0,0,0,-1,1441,1359,0,0
224,-335,0,0,0,0,0,0,0,0,0,-1,1448,1359,0,0
231,-335,0,0,0,0,0,0,0,0,0,-1,1455,1359,0,0
238,-335,0,0,0,0,0,0,0,0,0,-1,1462,1359,0,0
245,-335,0,0,0,0,0,0,0,0,0,-1,1469,1359,0,0
252,-335,0,0,0,0,0,0,0,0,0,-1,1476,1359,0,0
259,-335,0,0,0,0,0,0,0,0,0,-1,1483,1359,0,0
266,-335,0,0,0,0,0,0,0,0,0,-1,1490,1359,0,0
273,-335,0,0,0,0,0,0,0,0,0,-1,1497,1359,0,0
280,-335,0,0,0,0,0,0,0,0,0,-1,1504,1359,0,0
287,-335,0,0,0,0,0,0,0,0,0,-1,1511,1359,0,0
294,-335,0,0,0,0,0,0,0,0,0,-1,1518,1359,0,0
301,-335,0,0,0,0,0,0,0,0,0,-1,1525,1359,0,0
308,-335,0,0,0,0,0,0,0,0,0,-1,1532,1359,0,0
315,-335,0,0,0,0,0,0,0,0,0,-1,1539,1359,0,0
322,-335,0,0,0,0,0,0,0,0,0,-1,1546,1359,0,0
329,-335,0,0,0,0,0,0,0,0,0,-1,1553,1359,0,0
336,-335,0,0,0,0,0,0,0,0,0,-1,1560,1359,0,0
343,-335,0,0,0,0,0,0,0,0,0,-1,1567,1359,0,0
350,-335,0,0,0,0,0,0,0,0,0,-1,1574,1359,0,0
357,-335,0,0,0,0,0,0,0,0,0,-1,1581,1359,0,0
364,-335,0,0,0,0,0,0,0,0,0,-1,1588,1359,0,0
371,-335,0,0,0,0,0,0,0,0,0,-1,1595,1359,0,0
378,-335,0,0,0,0,0,0,0,0,0,-1,1602,1359,0,0
385,-335,0,0,0,0,0,0,0,0,0,-1,1609,1359,0,0
392,-335,0,0,0,0,0,0,0,0,0,-1,1616,1359,0,0
399,-335,0,0,0,0,0,0,0,0,0,-1,1623,1359,0,0
406,-335,0,0,0,0,0,0,0,0,0,-1,1630,1359,0,0
413,-335,0,0,0,0,0,0,0,0,0,-1,1637,1359,0,0
420,-335,0,0,0,0,0,0,0,0,0,-1,1644,1359,0,0
427,-335,0,0,0,0,0,0,0,0,0,-1,1651,1359,0,0
434,-335,0,0,0,0,0,0,0,0,0,-1,1658,1359,0,0
441,-335,0,0,0,0,0,0,0,0,0,-1,1665,1359,0,0
448,-335,0,0,0,0,0,0,0,0,0,-1,1672,1359,0,0
455,-335,0,0,0,0,0,0,0,0,0,-1,1679,1359,0,0
462,-335,0,0,0,0,0,0,0,0,0,-1,1686,1359,0,0
469,-335,0,0,0,0,0,0,0,0,0,-1,1693,1359,0,0
476,-335,0,0,0,0,0,0,0,0,0,-1,1700,1359,0,0
483,-335,0,0,0,0,0,0,0,0,0,-1,1707,1359,0,0
490,-335,0,0,0,0,0,0,0,0,0,-1,1714,1359,0,0
497,-335,0,0,0,0,0,0,0,0,0,-1,1721,1359,0,0
504,-335,0,0,0,0,0,0,0,0,0,-1,1728,1359,0,0
511,-335,0,0,0,0,0,0,0,0,0,-1,1735,1359,0,0
518,-335,0,0,0,0,0,0,0,0,0,-1,1742,1359,0,0
525,-335,0,0,0,0,0,0,0,0,0,-1,1749,1359,0,0
532,-335,0,0,0,0,0,0,0,0,0,-1,1756,1359,0,0
539,-335,0,0,0,0,0,0,0,0,0,-1,1763,1359,0,0
546,-335,0,0,0,0,0,0,0,0,0,-1,1770,1359,0,0
553,-335,0,0,0,0,0,0,0,0,0,-1,1777,1359,0,0
560,-335,0,0,0,0,0,0,0,0,0,-1,1784,1359,0,0
567,-335,0,0,0,0,0,0,0,0,0,-1,1791,1359,0,0
574,-335,65.0712,2.80188,0,0,0,0,0,0,0,-1,1798,1359,65.0712,-2.80193
581,-335,66.5206,1.60327,0,0,0,0,0,0,0,-1,1805,1359,66.5206,-1.60333
588,-335,67.826,0.334961,0,0,0,0,0,0,0,-1,1812,1359,67.8261,-0.335018
595,-335,49.984,3.76465,0,0,0,0,0,0,0,-1,1819,1359,49.984,-3.76467
602,-335,36.5643,0.0861816,0,0,0,0,0,0,0,-1,1826,1359,36.5643,-0.0862283
609,-335,36.2933,0.993896,0,0,0,0,0,0,0,-1,1833,1359,36.2934,-0.993911
616,-335,34.6969,4.82666,0,0,0,0,0,0,0,-1,1840,1359,34.6969,-4.82667
623,-335,26.6051,6.54333,0,0,0,0,0,0,0,-1,1847,1359,26.6051,-6.54339
630,-335,19.1707,1.00952,0,0,0,0,0,0,0,-1,1854,1359,19.1707,-1.00953
637,-335,18.2009,6.65454,0,0,0,0,0,0,0,-1,1861,1359,18.2009,-6.6546
644,-335,28.1042,12.067,0,0,0,0,0,0,0,-1,1868,1359,28.1042,-12.067
651,-335,48.3378,20.722,0,0,0,0,0,0,0,-1,1875,1359,48.3378,-20.7221
658,-335,48.4194,19.7371,-2.99467e-05,0.00019359,-0.000781483,0.000871257,-0.000707613,-0.856427,0.000913192,0.0446442,1882,1359,48.4195,-19.737
665,-335,48.4205,18.8289,0.000228906,-4.71021e-05,-0.000566794,0.000674255,-0.000492451,-0.665981,0.000676319,0.0151051,1889,1359,48.4205,-18.8289
672,-335,48.3756,17.9698,0.000588542,-5.20861e-05,-0.000522709,0.000881275,-0.000344818,-0.51051,0.000730121,0.0179617,1896,1359,48.3757,-17.9698
679,-335,48.3113,17.1366,0.000968501,6.95459e-05,-0.000541846,0.00122303,-0.000184984,-0.439153,0.000883494,0.0160972,1903,1359,48.3112,-17.1366
686,-335,48.274,16.2789,0.00133802,0.000171527,-0.000561711,0.00156453,-5.4976e-05,-0.383295,0.00106182,0.0143779,1910,1359,48.274,-16.279
693,-335,48.2096,15.4507,0.00172438,0.000417292,-0.000613228,0.00196703,0.00017464,-0.376791,0.00125719,0.0119263,1917,1359,48.2095,-15.4506
700,-335,48.1605,14.6493,0.00207458,0.000653021,-0.000643924,0.00232289,0.000404715,-0.368043,0.00143287,0.0119468,1924,1359,48.1605,-14.6493
707,-335,48.1221,13.8226,0.00234824,0.000892167,-0.000611817,0.00257118,0.000669227,-0.349437,0.00154029,0.014997,1931,1359,48.1221,-13.8227
714,-335,48.1145,12.8998,0.00251316,0.00124309,-0.000528227,0.00270413,0.00105212,-0.34692,0.00157399,0.0366412,1938,1359,48.1146,-12.8998
721,-335,48.0079,11.9028,0,0,0,0,0,0,0,-1,1945,1359,48.0079,-11.9028
728,-335,20.8126,5.21167,0,0,0,0,0,0,0,-1,1952,1359,20.8127,-5.21172
735,-335,20.2725,5.34729,0,0,0,0,0,0,0,-1,1959,1359,20.2724,-5.34734
742,-335,19.8624,4.72229,0,0,0,0,0,0,0,-1,1966,1359,19.8624,-4.72225
749,-335,20.5887,6.05322,0,0,0,0,0,0,0,-1,1973,1359,20.5887,-6.05322
756,-335,20.7832,6.00452,0,0,0,0,0,0,0,-1,1980,1359,20.7832,-6.00447
763,-335,0,0,0,0,0,0,0,0,0,-1,1987,1359,0,0
770,-335,0,0,0,0,0,0,0,0,0,-1,1994,1359,0,0
777,-335,0,0,0,0,0,0,0,0,0,-1,2001,1359,0,0
784,-335,0,0,0,0,0,0,0,0,0,-1,2008,1359,0,0
791,-335,0,0,0,0,0,0,0,0,0,-1,2015,1359,0,0
798,-335,0,0,0,0,0,0,0,0,0,-1,2022,1359,0,0
805,-335,0,0,0,0,0,0,0,0,0,-1,2029,1359,0,0
812,-335,0,0,0,0,0,0,0,0,0,-1,2036,1359,0,0
-700,-342,0,0,0,0,0,0,0,0,0,-1,524,1366,0,0
-693,-342,0,0,0,0,0,0,0,0,0,-1,531,1366,0,0
-686,-342,0,0,0,0,0,0,0,0,0,-1,538,1366,0,0
-679,-342,0,0,0,0,0,0,0,0,0,-1,545,1366,0,0
-672,-342,0,0,0,0,0,0,0,0,0,-1,552,1366,0,0
-665,-342,0,0,0,0,0,0,0,0,0,-1,559,1366,0,0
-658,-342,0,0,0,0,0,0,0,0,0,-1,566,1366,0,0
-651,-342,0,0,0,0,0,0,0,0,0,-1,573,1366,0,0
-644,-342,0,0,0,0,0,0,0,0,0,-1,580,1366,0,0
-637,-342,-63.7546,12.2344,0,0,0,0,0,0,0,-1,587,1366,-63.7546,-12.2343
-630,-342,-8.60132,2.71777,0,0,0,0,0,0,0,-1,594,1366,-8.60135,-2.71779
-623,-342,-8.41168,0.662476,0,0,0,0,0,0,0,-1,601,1366,-8.41168,-0.662442
-616,-342,-6.625,-1.28015,0,0,0,0,0,0,0,-1,608,1366,-6.62499,1.28011
-609,-342,-7.83154,0.674561,0,0,0,0,0,0,0,-1,615,1366,-7.83155,-0.674598
-602,-342,-9.65765,2.25195,0,0,0,0,0,0,0,-1,622,1366,-9.65767,-2.25192
-595,-342,-9.47687,3.00671,0,0,0,0,0,0,0,-1,629,1366,-9.47686,-3.00668
-588,-342,-9.78467,3.57727,0,0,0,0,0,0,0,-1,636,1366,-9.78468,-3.57723
-581,-342,-30.288,12.5664,0,0,0,0,0,0,0,-1,643,1366,-30.288,-12.5664
-574,-342,-30.2712,13.6448,0.00367448,0.00413857,0.00217778,0.00609663,0.00171642,0.838473,0.00363016,0.0190588,650,1366,-30.2712,-13.6448
-567,-342,-30.2346,14.5625,0.00322301,0.00313697,0.00174892,0.00492944,0.00143054,0.773103,0.00292834,0.0185131,657,1366,-30.2346,-14.5624
-560,-342,-30.3237,15.3844,0.00317635,0.00232636,0.00156008,0.00436829,0.00113442,0.652415,0.00261733,0.0276034,664,1366,-30.3237,-15.3844
-553,-342,-30.402,16.1598,0.00337542,0.00165662,0.00154305,0.00428225,0.000749787,0.531316,0.00264063,0.0302491,671,1366,-30.402,-16.1598
-546,-342,-30.4417,17.0211,0.00380024,0.00112411,0.00168039,0.00461023,0.000314124,0.449164,0.00297431,0.0292855,678,1366,-30.4417,-17.0211
-539,-342,-30.4617,17.9653,0.00445134,0.000717866,0.00196842,0.00529742,-0.000128215,0.405953,0.00357512,0.0242745,685,1366,-30.4617,-17.9653
-532,-342,-30.5144,18.88,0.00537512,0.00045442,0.00242671,0.00637053,-0.000540985,0.389257,0.00443835,0.0184231,692,1366,-30.5144,-18.88
-525,-342,-30.5177,19.7673,0.00657517,0.000295368,0.00304586,0.00780977,-0.000939227,0.385098,0.00554616,0.0138555,699,1366,-30.5177,-19.7673
-518,-342,-30.423,20.6781,0.00816032,0.000534814,0.00394597,0.00983462,-0.00113949,0.401283,0.00696737,0.0477696,706,1366,-30.423,-20.6781
-511,-342,-30.3669,21.5527,0,0,0,0,0,0,0,-1,713,1366,-30.3669,-21.5527
-504,-342,-8.95709,6.5719,0,0,0,0,0,0,0,-1,720,1366,-8.95707,-6.57192
-497,-342,-8.26587,-0.943604,0,0,0,0,0,0,0,-1,727,1366,-8.26586,0.943543
-490,-342,-9.07153,-0.0227051,0,0,0,0,0,0,0,-1,734,1366,-9.07155,0.0227087
-483,-342,-9.87726,0.898071,0,0,0,0,0,0,0,-1,741,1366,-9.87724,-0.898125
-476,-342,-11.6371,-0.736328,0,0,0,0,0,0,0,-1,748,1366,-11.6371,0.736281
-469,-342,-12.6245,-0.987549,0,0,0,0,0,0,0,-1,755,1366,-12.6245,0.987553
-462,-342,-13.0912,-0.533203,0,0,0,0,0,0,0,-1,762,1366,-13.0912,0.533224
-455,-342,-13.7612,0.122925,0,0,0,0,0,0,0,-1,769,1366,-13.7612,-0.122896
-448,-342,-14.5278,0.826904,0,0,0,0,0,0,0,-1,776,1366,-14.5277,-0.826861
-441,-342,0,0,0,0,0,0,0,0,0,-1,783,1366,0,0
-434,-342,0,0,0,0,0,0,0,0,0,-1,790,1366,0,0
-427,-342,0,0,0,0,0,0,0,0,0,-1,797,1366,0,0
-420,-342,0,0,0,0,0,0,0,0,0,-1,804,1366,0,0
-413,-342,0,0,0,0,0,0,0,0,0,-1,811,1366,0,0
-406,-342,0,0,0,0,0,0,0,0,0,-1,818,1366,0,0
-399,-342,0,0,0,0,0,0,0,0,0,-1,825,1366,0,0
-392,-342,0,0,0,0,0,0,0,0,0,-1,832,1366,0,0
-385,-342,0,0,0,0,0,0,0,0,0,-1,839,1366,0,0
-378,-342,0,0,0,0,0,0,0,0,0,-1,846,1366,0,0
-371,-342,0,0,0,0,0,0,0,0,0,-1,853,1366,0,0
-364,-342,0,0,0,0,0,0,0,0,0,-1,860,1366,0,0
-357,-342,0,0,0,0,0,0,0,0,0,-1,867,1366,0,0
-350,-342,0,0,0,0,0,0,0,0,0,-1,874,1366,0,0
-343,-342,0,0,0,0,0,0,0,0,0,-1,881,1366,0,0
-336,-342,0,0,0,0,0,0,0,0,0,-1,888,1366,0,0
-329,-342,0,0,0,0,0,0,0,0,0,-1,895,1366,0,0
-322,-342,0,0,0,0,0,0,0,0,0,-1,902,1366,0,0
-315,-342,0,0,0,0,0,0,0,0,0,-1,909,1366,0,0
-308,-342,0,0,0,0,0,0,0,0,0,-1,916,1366,0,0
-301,-342,0,0,0,0,0,0,0,0,0,-1,923,1366,0,0
-294,-342,0,0,0,0,0,0,0,0,0,-1,930,1366,0,0
-287,-342,0,0,0,0,0,0,0,0,0,-1,937,1366,0,0
-280,-342,0,0,0,0,0,0,0,0,0,-1,944,1366,0,0
-273,-342,0,0,0,0,0,0,0,0,0,-1,951,1366,0,0
-266,-342,0,0,0,0,0,0,0,0,0,-1,958,1366,0,0
-259,-342,0,0,0,0,0,0,0,0,0,-1,965,1366,0,0
-252,-342,0,0,0,0,0,0,0,0,0,-1,972,1366,0,0
-245,-342,0,0,0,0,0,0,0,0,0,-1,979,1366,0,0
-238,-342,0,0,0,0,0,0,0,0,0,-1,986,1366,0,0
-231,-342,0,0,0,0,0,0,0,0,0,-1,993,1366,0,0
-224,-342,0,0,0,0,0,0,0,0,0,-1,1000,1366,0,0
-217,-342,0,0,0,0,0,0,0,0,0,-1,1007,1366,0,0
-210,-342,0,0,0,0,0,0,0,0,0,-1,1014,1366,0,0
-203,-342,0,0,0,0,0,0,0,0,0,-1,1021,1366,0,0
-196,-342,0,0,0,0,0,0,0,0,0,-1,1028,1366,0,0
-189,-342,0,0,0,0,0,0,0,0,0,-1,1035,1366,0,0
-182,-342,0,0,0,0,0,0,0,0,0,-1,1042,1366,0,0
-175,-342,0,0,0,0,0,0,0,0,0,-1,1049,1366,0,0
-168,-342,0,0,0,0,0,0,0,0,0,-1,1056,1366,0,0
-161,-342,0,0,0,0,0,0,0,0,0,-1,1063,1366,0,0
-154,-342,0,0,0,0,0,0,0,0,0,-1,1070,1366,0,0
-147,-342,0,0,0,0,0,0,0,0,0,-1,1077,1366,0,0
-140,-342,0,0,0,0,0,0,0,0,0,-1,1084,1366,0,0
-133,-342,0,0,0,0,0,0,0,0,0,-1,1091,1366,0,0
-126,-342,0,0,0,0,0,0,0,0,0,-1,1098,1366,0,0
-119,-342,0,0,0,0,0,0,0,0,0,-1,1105,1366,0,0
-112,-342,0,0,0,0,0,0,0,0,0,-1,1112,1366,0,0
-105,-342,0,0,0,0,0,0,0,0,0,-1,1119,1366,0,0
-98,-342,0,0,0,0,0,0,0,0,0,-1,1126,1366,0,0
-91,-342,0,0,0,0,0,0,0,0,0,-1,1133,1366,0,0
-84,-342,0,0,0,0,0,0,0,0,0,-1,1140,1366,0,0
-77,-342,0,0,0,0,0,0,0,0,0,-1,1147,1366,0,0
-70,-342,0,0,0,0,0,0,0,0,0,-1,1154,1366,0,0
-63,-342,0,0,0,0,0,0,0,0,0,-1,1161,1366,0,0
-56,-342,0,0,0,0,0,0,0,0,0,-1,1168,1366,0,0
-49,-342,0,0,0,0,0,0,0,0,0,-1,1175,1366,0,0
-42,-342,0,0,0,0,0,0,0,0,0,-1,1182,1366,0,0
-35,-342,0,0,0,0,0,0,0,0,0,-1,1189,1366,0,0
-28,-342,0,0,0,0,0,0,0,0,0,-1,1196,1366,0,0
-21,-342,0,0,0,0,0,0,0,0,0,-1,1203,1366,0,0
-14,-342,0,0,0,0,0,0,0,0,0,-1,1210,1366,0,0
-7,-342,0,0,0,0,0,0,0,0,0,-1,1217,1366,0,0
0,-342,0,0,0,0,0,0,0,0,0,-1,1224,1366,0,0
7,-342,0,0,0,0,0,0,0,0,0,-1,1231,1366,0,0
14,-342,0,0,0,0,0,0,0,0,0,-1,1238,1366,0,0
21,-342,0,0,0,0,0,0,0,0,0,-1,1245,1366,0,0
28,-342,0,0,0,0,0,0,0,0,0,-1,1252,1366,0,0
35,-342,0,0,0,0,0,0,0,0,0,-1,1259,1366,0,0
42,-342,0,0,0,0,0,0,0,0,0,-1,1266,1366,0,0
49,-342,0,0,0,0,0,0,0,0,0,-1,1273,1366,0,0
56,-342,0,0,0,0,0,0,0,0,0,-1,1280,1366,0,0
63,-342,0,0,0,0,0,0,0,0,0,-1,1287,1366,0,0
70,-342,0,0,0,0,0,0,0,0,0,-1,1294,1366,0,0
77,-342,0,0,0,0,0,0,0,0,0,-1,1301,1366,0,0
84,-342,0,0,0,0,0,0,0,0,0,-1,1308,1366,0,0
91,-342,0,0,0,0,0,0,0,0,0,-1,1315,1366,0,0
98,-342,0,0,0,0,0,0,0,0,0,-1,1322,1366,0,0
105,-342,0,0,0,0,0,0,0,0,0,-1,1329,1366,0,0
112,-342,0,0,0,0,0,0,0,0,0,-1,1336,1366,0,0
119,-342,0,0,0,0,0,0,0,0,0,-1,1343,1366,0,0
126,-342,0,0,0,0,0,0,0,0,0,-1,1350,1366,0,0
133,-342,0,0,0,0,0,0,0,0,0,-1,1357,1366,0,0
140,-342,0,0,0,0,0,0,0,0,0,-1,1364,1366,0,0
147,-342,0,0,0,0,0,0,0,0,0,-1,1371,1366,0,0
154,-342,0,0,0,0,0,0,0,0,0,-1,1378,1366,0,0
161,-342,0,0,0,0,0,0,0,0,0,-1,1385,1366,0,0
168,-342,0,0,0,0,0,0,0,0,0,-1,1392,1366,0,0
175,-342,0,0,0,0,0,0,0,0,0,-1,1399,1366,0,0
182,-342,0,0,0,0,0,0,0,0,0,-1,1406,1366,0,0
189,-342,0,0,0,0,0,0,0,0,0,-1,1413,1366,0,0
196,-342,0,0,0,0,0,0,0,0,0,-1,1420,1366,0,0
203,-342,0,0,0,0,0,0,0,0,0,-1,1427,1366,0,0
210,-342,0,0,0,0,0,0,0,0,0,-1,1434,1366,0,0
217,-342,0,0,0,0,0,0,0,0,0,-1,1441,1366,0,0
224,-342,0,0,0,0,0,0,0,0,0,-1,1448,1366,0,0
231,-342,0,0,0,0,0,0,0,0,0,-1,1455,1366,0,0
238,-342,0,0,0,0,0,0,0,0,0,-1,1462,1366,0,0
245,-342,0,0,0,0,0,0,0,0,0,-1,1469,1366,0,0
252,-342,0,0,0,0,0,0,0,0,0,-1,1476,1366,0,0
259,-342,0,0,0,0,0,0,0,0,0,-1,1483,1366,0,0
266,-342,0,0,0,0,0,0,0,0,0,-1,1490,1366,0,0
273,-342,0,0,0,0,0,0,0,0,0,-1,1497,1366,0,0
280,-342,0,0,0,0,0,0,0,0,0,-1,1504,1366,0,0
287,-342,0,0,0,0,0,0,0,0,0,-1,1511,1366,0,0
294,-342,0,0,0,0,0,0,0,0,0,-1,1518,1366,0,0
301,-342,0,0,0,0,0,0,0,0,0,-1,1525,1366,0,0
308,-342,0,0,0,0,0,0,0,0,0,-1,1532,1366,0,0
315,-342,0,0,0,0,0,0,0,0,0,-1,1539,1366,0,0
322,-342,0,0,0,0,0,0,0,0,0,-1,1546,1366,0,0
329,-342,0,0,0,0,0,0,0,0,0,-1,1553,1366,0,0
336,-342,0,0,0,0,0,0,0,0,0,-1,1560,1366,0,0
343,-342,0,0,0,0,0,0,0,0,0,-1,1567,1366,0,0
350,-342,0,0,0,0,0,0,0,0,0,-1,1574,1366,0,0
357,-342,0,0,0,0,0,0,0,0,0,-1,1581,1366,0,0
364,-342,0,0,0,0,0,0,0,0,0,-1,1588,1366,0,0
371,-342,0,0,0,0,0,0,0,0,0,-1,1595,1366,0,0
378,-342,0,0,0,0,0,0,0,0,0,-1,1602,1366,0,0
385,-342,0,0,0,0,0,0,0,0,0,-1,1609,1366,0,0
392,-342,0,0,0,0,0,0,0,0,0,-1,1616,1366,0,0
399,-342,0,0,0,0,0,0,0,0,0,-1,1623,1366,0,0
406,-342,0,0,0,0,0,0,0,0,0,-1,1630,1366,0,0
413,-342,0,0,0,0,0,0,0,0,0,-1,1637,1366,0,0
420,-342,0,0,0,0,0,0,0,0,0,-1,1644,1366,0,0
427,-342,0,0,0,0,0,0,0,0,0,-1,1651,1366,0,0
434,-342,0,0,0,0,0,0,0,0,0,-1,1658,1366,0,0
441,-342,0,0,0,0,0,0,0,0,0,-1,1665,1366,0,0
448,-342,0,0,0,0,0,0,0,0,0,-1,1672,1366,0,0
455,-342,0,0,0,0,0,0,0,0,0,-1,1679,1366,0,0
462,-342,0,0,0,0,0,0,0,0,0,-1,1686,1366,0,0
469,-342,0,0,0,0,0,0,0,0,0,-1,1693,1366,0,0
476,-342,0,0,0,0,0,0,0,0,0,-1,1700,1366,0,0
483,-342,0,0,0,0,0,0,0,0,0,-1,1707,1366,0,0
490,-342,0,0,0,0,0,0,0,0,0,-1,1714,1366,0,0
497,-342,0,0,0,0,0,0,0,0,0,-1,1721,1366,0,0
504,-342,0,0,0,0,0,0,0,0,0,-1,1728,1366,0,0
511,-342,0,0,0,0,0,0,0,0,0,-1,1735,1366,0,0
518,-342,0,0,0,0,0,0,0,0,0,-1,1742,1366,0,0
525,-342,0,0,0,0,0,0,0,0,0,-1,1749,1366,0,0
532,-342,0,0,0,0,0,0,0,0,0,-1,1756,1366,0,0
539,-342,0,0,0,0,0,0,0,0,0,-1,1763,1366,0,0
546,-342,0,0,0,0,0,0,0,0,0,-1,1770,1366,0,0
553,-342,0,0,0,0,0,0,0,0,0,-1,1777,1366,0,0
560,-342,0,0,0,0,0,0,0,0,0,-1,1784,1366,0,0
567,-342,64.6937,3.24878,0,0,0,0,0,0,0,-1,1791,1366,64.6938,-3.24881
574,-342,65.4669,2.18384,0,0,0,0,0,0,0,-1,1798,1366,65.4669,-2.18381
581,-342,66.542,1.36292,0,0,0,0,0,0,0,-1,1805,1366,66.542,-1.36295
588,-342,43.9108,7.22559,0,0,0,0,0,0,0,-1,1812,1366,43.9107,-7.22554
595,-342,35.7993,0.709961,0,0,0,0,0,0,0,-1,1819,1366,35.7993,-0.709913
602,-342,36.3618,3.28723,0,0,0,0,0,0,0,-1,1826,1366,36.3619,-3.28719
609,-342,35.3777,4.14978,0,0,0,0,0,0,0,-1,1833,1366,35.3777,-4.14976
616,-342,34.199,5.8158,0,0,0,0,0,0,0,-1,1840,1366,34.199,-5.81579
623,-342,26.0299,6.86865,0,0,0,0,0,0,0,-1,1847,1366,26.0299,-6.86863
630,-342,17.3431,0.773071,0,0,0,0,0,0,0,-1,1854,1366,17.3432,-0.773095
637,-342,16.196,6.76172,0,0,0,0,0,0,0,-1,1861,1366,16.1961,-6.76174
644,-342,31.8916,14.0614,0,0,0,0,0,0,0,-1,1868,1366,31.8916,-14.0613
651,-342,47.6461,20.6212,0,0,0,0,0,0,0,-1,1875,1366,47.6461,-20.6212
658,-342,47.6216,19.7347,-0.000151024,0.000148301,-0.000553602,0.000572113,-0.000574837,-0.917414,0.000662193,0.0215758,1882,1366,47.6215,-19.7348
665,-342,47.5895,18.8464,0.000199604,-2.72934e-05,-0.00043368,0.000534429,-0.000362118,-0.657467,0.000520798,0.0171177,1889,1366,47.5895,-18.8464
672,-342,47.5255,18.0332,0.000645726,1.07655e-05,-0.000471011,0.000896264,-0.000239773,-0.488853,0.000691433,0.0139251,1896,1366,47.5255,-18.0333
679,-342,47.4623,17.2178,0.00113414,0.000154299,-0.000589119,0.00141043,-0.000121994,-0.438536,0.000983479,0.0141102,1903,1366,47.4623,-17.2178
686,-342,47.4647,16.3716,0.00163037,0.000311446,-0.000736827,0.00195975,-1.79315e-05,-0.420374,0.00131252,0.013218,1910,1366,47.4647,-16.3716
693,-342,47.3843,15.5309,0.00215614,0.000597803,-0.000943763,0.00260081,0.000153127,-0.440321,0.00168515,0.0130172,1917,1366,47.3842,-15.5309
700,-342,47.3171,14.7108,0.00266896,0.000903346,-0.00116033,0.00324414,0.000328167,-0.460202,0.00206209,0.0142883,1924,1366,47.3171,-14.7108
707,-342,47.2761,13.8307,0.00309961,0.001193,-0.00132492,0.00377854,0.000514067,-0.473546,0.00236636,0.0145039,1931,1366,47.2761,-13.8307
714,-342,47.3242,12.8531,0,0,0,0,0,0,0,-1,1938,1366,47.3242,-12.8531
721,-342,22.4666,6.08679,0,0,0,0,0,0,0,-1,1945,1366,22.4666,-6.08678
728,-342,19.8912,5.26636,0,0,0,0,0,0,0,-1,1952,1366,19.8913,-5.26636
735,-342,19.481,4.41968,0,0,0,0,0,0,0,-1,1959,1366,19.4809,-4.41962
742,-342,19.309,2.66943,0,0,0,0,0,0,0,-1,1966,1366,19.3089,-2.66948
749,-342,21.0934,6.47729,0,0,0,0,0,0,0,-1,1973,1366,21.0934,-6.4773
756,-342,0,0,0,0,0,0,0,0,0,-1,1980,1366,0,0
763,-342,0,0,0,0,0,0,0,0,0,-1,1987,1366,0,0
770,-342,0,0,0,0,0,0,0,0,0,-1,1994,1366,0,0
777,-342,0,0,0,0,0,0,0,0,0,-1,2001,1366,0,0
784,-342,0,0,0,0,0,0,0,0,0,-1,2008,1366,0,0
791,-342,0,0,0,0,0,0,0,0,0,-1,2015,1366,0,0
798,-342,0,0,0,0,0,0,0,0,0,-1,2022,1366,0,0
805,-342,0,0,0,0,0,0,0,0,0,-1,2029,1366,0,0
812,-342,0,0,0,0,0,0,0,0,0,-1,2036,1366,0,0
-700,-349,0,0,0,0,0,0,0,0,0,-1,524,1373,0,0
-693,-349,0,0,0,0,0,0,0,0,0,-1,531,1373,0,0
-686,-349,0,0,0,0,0,0,0,0,0,-1,538,1373,0,0
-679,-349,0,0,0,0,0,0,0,0,0,-1,545,1373,0,0
-672,-349,0,0,0,0,0,0,0,0,0,-1,552,1373,0,0
-665,-349,0,0,0,0,0,0,0,0,0,-1,559,1373,0,0
-658,-349,0,0,0,0,0,0,0,0,0,-1,566,1373,0,0
-651,-349,0,0,0,0,0,0,0,0,0,-1,573,1373,0,0
-644,-349,0,0,0,0,0,0,0,0,0,-1,580,1373,0,0
-637,-349,0,0,0,0,0,0,0,0,0,-1,587,1373,0,0
-630,-349,-7.64117,-5.06177,0,0,0,0,0,0,0,-1,594,1373,-7.64118,5.0618
-623,-349,-8.63507,0.51123,0,0,0,0,0,0,0,-1,601,1373,-8.63505,-0.511275
-616,-349,-5.2066,-0.188232,0,0,0,0,0,0,0,-1,608,1373,-5.20659,0.188211
-609,-349,-7.12073,1.37048,0,0,0,0,0,0,0,-1,615,1373,-7.12072,-1.37044
-602,-349,-9.00623,3.39587,0,0,0,0,0,0,0,-1,622,1373,-9.0062,-3.39591
-595,-349,-9.50568,2.96912,0,0,0,0,0,0,0,-1,629,1373,-9.50569,-2.96906
-588,-349,-8.60046,3.56042,0,0,0,0,0,0,0,-1,636,1373,-8.60046,-3.56047
-581,-349,-29.2329,12.7268,0,0,0,0,0,0,0,-1,643,1373,-29.2329,-12.7268
-574,-349,-29.34,13.5699,0.00438689,0.00492518,0.00281867,0.00748752,0.00182455,0.832997,0.00450829,0.0481687,650,1373,-29.34,-13.5699
-567,-349,-29.4234,14.5594,0.00368285,0.00369521,0.00217455,0.00586359,0.00151447,0.78682,0.00351474,0.0200596,657,1373,-29.4234,-14.5595
-560,-349,-29.4766,15.4635,0.00343616,0.00272639,0.00181021,0.00492594,0.00123661,0.688602,0.00295918,0.0232497,664,1373,-29.4766,-15.4635
-553,-349,-29.4838,16.2566,0.00344782,0.00193563,0.00165025,0.00450695,0.000876507,0.570585,0.00275926,0.029042,671,1373,-29.4838,-16.2565
-546,-349,-29.5081,17.0829,0.00366371,0.00130627,0.00164516,0.00450883,0.000461148,0.474548,0.00286457,0.0311122,678,1373,-29.5081,-17.0829
-539,-349,-29.5803,17.9817,0.00408675,0.000822489,0.00179078,0.00487758,3.16564e-05,0.415858,0.00324122,0.0249492,685,1373,-29.5803,-17.9816
-532,-349,-29.6719,18.9304,0.00474808,0.000489399,0.00209705,0.00560733,-0.000369854,0.388879,0.00386741,0.0186061,692,1373,-29.6719,-18.9304
-525,-349,-29.6667,19.8192,0.0056515,0.000284932,0.00255362,0.00667241,-0.000735972,0.380322,0.00471279,0.0145116,699,1373,-29.6667,-19.8192
-518,-349,-29.6552,20.7277,0.00684527,0.000396082,0.00322506,0.00818126,-0.000939915,0.392735,0.00579295,0.029542,706,1373,-29.6552,-20.7277
-511,-349,-29.5927,21.6598,0,0,0,0,0,0,0,-1,713,1373,-29.5927,-21.6598
-504,-349,-9.60516,7.88831,0,0,0,0,0,0,0,-1,720,1373,-9.60519,-7.88825
-497,-349,-7.9339,5.58789,0,0,0,0,0,0,0,-1,727,1373,-7.93388,-5.58785
-490,-349,-8.73969,-0.503784,0,0,0,0,0,0,0,-1,734,1373,-8.73966,0.503752
-483,-349,-5.66974,3.7395,0,0,0,0,0,0,0,-1,741,1373,-5.66975,-3.73949
-476,-349,-10.8496,1.15759,0,0,0,0,0,0,0,-1,748,1373,-10.8496,-1.15756
-469,-349,-12.3314,-1.74878,0,0,0,0,0,0,0,-1,755,1373,-12.3314,1.74882
-462,-349,-12.6559,-0.995361,0,0,0,0,0,0,0,-1,762,1373,-12.656,0.995351
-455,-349,-13.2897,-0.234253,0,0,0,0,0,0,0,-1,769,1373,-13.2897,0.234261
-448,-349,-14.045,0.712891,0,0,0,0,0,0,0,-1,776,1373,-14.045,-0.712838
-441,-349,0,0,0,0,0,0,0,0,0,-1,783,1373,0,0
-434,-349,0,0,0,0,0,0,0,0,0,-1,790,1373,0,0
-427,-349,0,0,0,0,0,0,0,0,0,-1,797,1373,0,0
-420,-349,0,0,0,0,0,0,0,0,0,-1,804,1373,0,0
-413,-349,0,0,0,0,0,0,0,0,0,-1,811,1373,0,0
-406,-349,0,0,0,0,0,0,0,0,0,-1,818,1373,0,0
-399,-349,0,0,0,0,0,0,0,0,0,-1,825,1373,0,0
-392,-349,0,0,0,0,0,0,0,0,0,-1,832,1373,0,0
-385,-349,0,0,0,0,0,0,0,0,0,-1,839,1373,0,0
-378,-349,0,0,0,0,0,0,0,0,0,-1,846,1373,0,0
-371,-349,0,0,0,0,0,0,0,0,0,-1,853,1373,0,0
-364,-349,0,0,0,0,0,0,0,0,0,-1,860,1373,0,0
-357,-349,0,0,0,0,0,0,0,0,0,-1,867,1373,0,0
-350,-349,0,0,0,0,0,0,0,0,0,-1,874,1373,0,0
-343,-349,0,0,0,0,0,0,0,0,0,-1,881,1373,0,0
-336,-349,0,0,0,0,0,0,0,0,0,-1,888,1373,0,0
-329,-349,0,0,0,0,0,0,0,0,0,-1,895,1373,0,0
-322,-349,0,0,0,0,0,0,0,0,0,-1,902,1373,0,0
-315,-349,0,0,0,0,0,0,0,0,0,-1,909,1373,0,0
-308,-349,0,0,0,0,0,0,0,0,0,-1,916,1373,0,0
-301,-349,0,0,0,0,0,0,0,0,0,-1,923,1373,0,0
-294,-349,0,0,0,0,0,0,0,0,0,-1,930,1373,0,0
-287,-349,0,0,0,0,0,0,0,0,0,-1,937,1373,0,0
-280,-349,0,0,0,0,0,0,0,0,0,-1,944,1373,0,0
-273,-349,0,0,0,0,0,0,0,0,0,-1,951,1373,0,0
-266,-349,0,0,0,0,0,0,0,0,0,-1,958,1373,0,0
-259,-349,0,0,0,0,0,0,0,0,0,-1,965,1373,0,0
-252,-349,0,0,0,0,0,0,0,0,0,-1,972,1373,0,0
-245,-349,0,0,0,0,0,0,0,0,0,-1,979,1373,0,0
-238,-349,0,0,0,0,0,0,0,0,0,-1,986,1373,0,0
-231,-349,0,0,0,0,0,0,0,0,0,-1,993,1373,0,0
-224,-349,0,0,0,0,0,0,0,0,0,-1,1000,1373,0,0
-217,-349,0,0,0,0,0,0,0,0,0,-1,1007,1373,0,0
-210,-349,0,0,0,0,0,0,0,0,0,-1,1014,1373,0,0
-203,-349,0,0,0,0,0,0,0,0,0,-1,1021,1373,0,0
-196,-349,0,0,0,0,0,0,0,0,0,-1,1028,1373,0,0
-189,-349,0,0,0,0,0,0,0,0,0,-1,1035,1373,0,0
-182,-349,0,0,0,0,0,0,0,0,0,-1,1042,1373,0,0
-175,-349,0,0,0,0,0,0,0,0,0,-1,1049,1373,0,0
-168,-349,0,0,0,0,0,0,0,0,0,-1,1056,1373,0,0
-161,-349,0,0,0,0,0,0,0,0,0,-1,1063,1373,0,0
-154,-349,0,0,0,0,0,0,0,0,0,-1,1070,1373,0,0
-147,-349,0,0,0,0,0,0,0,0,0,-1,1077,1373,0,0
-140,-349,0,0,0,0,0,0,0,0,0,-1,1084,1373,0,0
-133,-349,0,0,0,0,0,0,0,0,0,-1,1091,1373,0,0
-126,-349,0,0,0,0,0,0,0,0,0,-1,1098,1373,0,0
-119,-349,0,0,0,0,0,0,0,0,0,-1,1105,1373,0,0
-112,-349,0,0,0,0,0,0,0,0,0,-1,1112,1373,0,0
-105,-349,0,0,0,0,0,0,0,0,0,-1,1119,1373,0,0
-98,-349,0,0,0,0,0,0,0,0,0,-1,1126,1373,0,0
-91,-349,0,0,0,0,0,0,0,0,0,-1,1133,1373,0,0
-84,-349,0,0,0,0,0,0,0,0,0,-1,1140,1373,0,0
-77,-349,0,0,0,0,0,0,0,0,0,-1,1147,1373,0,0
-70,-349,0,0,0,0,0,0,0,0,0,-1,1154,1373,0,0
-63,-349,0,0,0,0,0,0,0,0,0,-1,1161,1373,0,0
-56,-349,0,0,0,0,0,0,0,0,0,-1,1168,1373,0,0
-49,-349,0,0,0,0,0,0,0,0,0,-1,1175,1373,0,0
-42,-349,0,0,0,0,0,0,0,0,0,-1,1182,1373,0,0
-35,-349,0,0,0,0,0,0,0,0,0,-1,1189,1373,0,0
-28,-349,0,0,0,0,0,0,0,0,0,-1,1196,1373,0,0
-21,-349,0,0,0,0,0,0,0,0,0,-1,1203,1373,0,0
-14,-349,0,0,0,0,0,0,0,0,0,-1,1210,1373,0,0
-7,-349,0,0,0,0,0,0,0,0,0,-1,1217,1373,0,0
0,-349,0,0,0,0,0,0,0,0,0,-1,1224,1373,0,0
7,-349,0,0,0,0,0,0,0,0,0,-1,1231,1373,0,0
14,-349,0,0,0,0,0,0,0,0,0,-1,1238,1373,0,0
21,-349,0,0,0,0,0,0,0,0,0,-1,1245,1373,0,0
28,-349,0,0,0,0,0,0,0,0,0,-1,1252,1373,0,0
35,-349,0,0,0,0,0,0,0,0,0,-1,1259,1373,0,0
42,-349,0,0,0,0,0,0,0,0,0,-1,1266,1373,0,0
49,-349,0,0,0,0,0,0,0,0,0,-1,1273,1373,0,0
56,-349,0,0,0,0,0,0,0,0,0,-1,1280,1373,0,0
63,-349,0,0,0,0,0,0,0,0,0,-1,1287,1373,0,0
70,-349,0,0,0,0,0,0,0,0,0,-1,1294,1373,0,0
77,-349,0,0,0,0,0,0,0,0,0,-1,1301,1373,0,0
84,-349,0,0,0,0,0,0,0,0,0,-1,1308,1373,0,0
91,-349,0,0,0,0,0,0,0,0,0,-1,1315,1373,0,0
98,-349,0,0,0,0,0,0,0,0,0,-1,1322,1373,0,0
105,-349,0,0,0,0,0,0,0,0,0,-1,1329,1373,0,0
112,-349,0,0,0,0,0,0,0,0,0,-1,1336,1373,0,0
119,-349,0,0,0,0,0,0,0,0,0,-1,1343,1373,0,0
126,-349,0,0,0,0,0,0,0,0,0,-1,1350,1373,0,0
133,-349,0,0,0,0,0,0,0,0,0,-1,1357,1373,0,0
140,-349,0,0,0,0,0,0,0,0,0,-1,1364,1373,0,0
147,-349,0,0,0,0,0,0,0,0,0,-1,1371,1373,0,0
154,-349,0,0,0,0,0,0,0,0,0,-1,1378,1373,0,0
161,-349,0,0,0,0,0,0,0,0,0,-1,1385,1373,0,0
168,-349,0,0,0,0,0,0,0,0,0,-1,1392,1373,0,0
175,-349,0,0,0,0,0,0,0,0,0,-1,1399,1373,0,0
182,-349,0,0,0,0,0,0,0,0,0,-1,1406,1373,0,0
189,-349,0,0,0,0,0,0,0,0,0,-1,1413,1373,0,0
196,-349,0,0,0,0,0,0,0,0,0,-1,1420,1373,0,0
203,-349,0,0,0,0,0,0,0,0,0,-1,1427,1373,0,0
210,-349,0,0,0,0,0,0,0,0,0,-1,1434,1373,0,0
217,-349,0,0,0,0,0,0,0,0,0,-1,1441,1373,0,0
224,-349,0,0,0,0,0,0,0,0,0,-1,1448,1373,0,0
231,-349,0,0,0,0,0,0,0,0,0,-1,1455,1373,0,0
238,-349,0,0,0,0,0,0,0,0,0,-1,1462,1373,0,0
245,-349,0,0,0,0,0,0,0,0,0,-1,1469,1373,0,0
252,-349,0,0,0,0,0,0,0,0,0,-1,1476,1373,0,0
259,-349,0,0,0,0,0,0,0,0,0,-1,1483,1373,0,0
266,-349,0,0,0,0,0,0,0,0,0,-1,1490,1373,0,0
273,-349,0,0,0,0,0,0,0,0,0,-1,1497,1373,0,0
280,-349,0,0,0,0,0,0,0,0,0,-1,1504,1373,0,0
287,-349,0,0,0,0,0,0,0,0,0,-1,1511,1373,0,0
294,-349,0,0,0,0,0,0,0,0,0,-1,1518,1373,0,0
301,-349,0,0,0,0,0,0,0,0,0,-1,1525,1373,0,0
308,-349,0,0,0,0,0,0,0,0,0,-1,1532,1373,0,0
315,-349,0,0,0,0,0,0,0,0,0,-1,1539,1373,0,0
322,-349,0,0,0,0,0,0,0,0,0,-1,1546,1373,0,0
329,-349,0,0,0,0,0,0,0,0,0,-1,1553,1373,0,0
336,-349,0,0,0,0,0,0,0,0,0,-1,1560,1373,0,0
343,-349,0,0,0,0,0,0,0,0,0,-1,1567,1373,0,0
350,-349,0,0,0,0,0,0,0,0,0,-1,1574,1373,0,0
357,-349,0,0,0,0,0,0,0,0,0,-1,1581,1373,0,0
364,-349,0,0,0,0,0,0,0,0,0,-1,1588,1373,0,0
371,-349,0,0,0,0,0,0,0,0,0,-1,1595,1373,0,0
378,-349,0,0,0,0,0,0,0,0,0,-1,1602,1373,0,0
385,-349,0,0,0,0,0,0,0,0,0,-1,1609,1373,0,0
392,-349,0,0,0,0,0,0,0,0,0,-1,1616,1373,0,0
399,-349,0,0,0,0,0,0,0,0,0,-1,1623,1373,0,0
406,-349,0,0,0,0,0,0,0,0,0,-1,1630,1373,0,0
413,-349,0,0,0,0,0,0,0,0,0,-1,1637,1373,0,0
420,-349,0,0,0,0,0,0,0,0,0,-1,1644,1373,0,0
427,-349,0,0,0,0,0,0,0,0,0,-1,1651,1373,0,0
434,-349,0,0,0,0,0,0,0,0,0,-1,1658,1373,0,0
441,-349,0,0,0,0,0,0,0,0,0,-1,1665,1373,0,0
448,-349,0,0,0,0,0,0,0,0,0,-1,1672,1373,0,0
455,-349,0,0,0,0,0,0,0,0,0,-1,1679,1373,0,0
462,-349,0,0,0,0,0,0,0,0,0,-1,1686,1373,0,0
469,-349,0,0,0,0,0,0,0,0,0,-1,1693,1373,0,0
476,-349,0,0,0,0,0,0,0,0,0,-1,1700,1373,0,0
483,-349,0,0,0,0,0,0,0,0,0,-1,1707,1373,0,0
490,-349,0,0,0,0,0,0,0,0,0,-1,1714,1373,0,0
497,-349,0,0,0,0,0,0,0,0,0,-1,1721,1373,0,0
504,-349,0,0,0,0,0,0,0,0,0,-1,1728,1373,0,0
511,-349,0,0,0,0,0,0,0,0,0,-1,1735,1373,0,0
518,-349,0,0,0,0,0,0,0,0,0,-1,1742,1373,0,0
525,-349,0,0,0,0,0,0,0,0,0,-1,1749,1373,0,0
532,-349,0,0,0,0,0,0,0,0,0,-1,1756,1373,0,0
539,-349,0,0,0,0,0,0,0,0,0,-1,1763,1373,0,0
546,-349,0,0,0,0,0,0,0,0,0,-1,1770,1373,0,0
553,-349,0,0,0,0,0,0,0,0,0,-1,1777,1373,0,0
560,-349,63.5519,3.94397,0,0,0,0,0,0,0,-1,1784,1373,63.5519,-3.94394
567,-349,64.7863,2.54688,0,0,0,0,0,0,0,-1,1791,1373,64.7863,-2.5469
574,-349,65.8214,1.63818,0,0,0,0,0,0,0,-1,1798,1373,65.8214,-1.63813
581,-349,42.8947,6.78381,0,0,0,0,0,0,0,-1,1805,1373,42.8946,-6.78376
588,-349,44.8121,5.06213,0,0,0,0,0,0,0,-1,1812,1373,44.8121,-5.06215
595,-349,44.4338,6.14099,0,0,0,0,0,0,0,-1,1819,1373,44.4338,-6.14095
602,-349,35.6641,3.26465,0,0,0,0,0,0,0,-1,1826,1373,35.6641,-3.26468
609,-349,34.7175,4.401,0,0,0,0,0,0,0,-1,1833,1373,34.7175,-4.40096
616,-349,27.1451,6.68274,0,0,0,0,0,0,0,-1,1840,1373,27.1451,-6.6828
623,-349,18.8478,2.75769,0,0,0,0,0,0,0,-1,1847,1373,18.8478,-2.75774
630,-349,15.4948,6.47644,0,0,0,0,0,0,0,-1,1854,1373,15.4947,-6.4765
637,-349,16.5161,6.92639,0,0,0,0,0,0,0,-1,1861,1373,16.5161,-6.92636
644,-349,44.2694,19.8312,0,0,0,0,0,0,0,-1,1868,1373,44.2695,-19.8311
651,-349,46.9435,20.5653,0,0,0,0,0,0,0,-1,1875,1373,46.9435,-20.5653
658,-349,46.8419,19.7173,-9.20273e-05,9.46786e-05,-0.000339587,0.00035351,-0.000350859,-0.919536,0.000406669,0.0274344,1882,1373,46.8419,-19.7173
665,-349,46.7257,18.882,0.000296526,7.91942e-06,-0.000334114,0.000516167,-0.000211722,-0.581549,0.000432327,0.0216832,1889,1373,46.7257,-18.882
672,-349,46.6646,18.0649,0.000787975,9.70315e-05,-0.000472003,0.00102743,-0.000142422,-0.469481,0.000737028,0.0157612,1896,1373,46.6646,-18.065
679,-349,46.6176,17.2528,0.00135254,0.000270844,-0.000704375,0.00169976,-7.63726e-05,-0.457986,0.00115947,0.0163997,1903,1373,46.6175,-17.2528
686,-349,46.66,16.4227,0.00195947,0.000499911,-0.000994858,0.00246352,-4.13216e-06,-0.468952,0.00164372,0.0178662,1910,1373,46.6601,-16.4227
693,-349,46.5576,15.585,0.00262842,0.000813902,-0.00136316,0.00335864,8.36833e-05,-0.491782,0.00221173,0.0193333,1917,1373,46.5576,-15.585
700,-349,46.485,14.7593,0.00333326,0.00119257,-0.00178224,0.00434187,0.000183963,-0.514982,0.00283525,0.0173852,1924,1373,46.485,-14.7593
707,-349,46.5391,13.8716,0.00397682,0.00152802,-0.00215813,0.00523369,0.000271153,-0.527368,0.00340235,0.0396406,1931,1373,46.5391,-13.8715
714,-349,46.6486,12.8802,0,0,0,0,0,0,0,-1,1938,1373,46.6486,-12.8802
721,-349,19.6688,5.93604,0,0,0,0,0,0,0,-1,1945,1373,19.6688,-5.93606
728,-349,18.6333,3.73218,0,0,0,0,0,0,0,-1,1952,1373,18.6333,-3.73214
735,-349,18.1918,3.39954,0,0,0,0,0,0,0,-1,1959,1373,18.1918,-3.3995
742,-349,20.7345,2.07483,0,0,0,0,0,0,0,-1,1966,1373,20.7345,-2.07485
749,-349,21.9037,1.45789,0,0,0,0,0,0,0,-1,1973,1373,21.9037,-1.45788
756,-349,0,0,0,0,0,0,0,0,0,-1,1980,1373,0,0
763,-349,0,0,0,0,0,0,0,0,0,-1,1987,1373,0,0
770,-349,0,0,0,0,0,0,0,0,0,-1,1994,1373,0,0
777,-349,0,0,0,0,0,0,0,0,0,-1,2001,1373,0,0
784,-349,0,0,0,0,0,0,0,0,0,-1,2008,1373,0,0
791,-349,0,0,0,0,0,0,0,0,0,-1,2015,1373,0,0
798,-349,0,0,0,0,0,0,0,0,0,-1,2022,1373,0,0
805,-349,0,0,0,0,0,0,0,0,0,-1,2029,1373,0,0
812,-349,0,0,0,0,0,0,0,0,0,-1,2036,1373,0,0
-700,-356,0,0,0,0,0,0,0,0,0,-1,524,1380,0,0
-693,-356,0,0,0,0,0,0,0,0,0,-1,531,1380,0,0
-686,-356,0,0,0,0,0,0,0,0,0,-1,538,1380,0,0
-679,-356,0,0,0,0,0,0,0,0,0,-1,545,1380,0,0
-672,-356,0,0,0,0,0,0,0,0,0,-1,552,1380,0,0
-665,-356,0,0,0,0,0,0,0,0,0,-1,559,1380,0,0
-658,-356,0,0,0,0,0,0,0,0,0,-1,566,1380,0,0
-651,-356,0,0,0,0,0,0,0,0,0,-1,573,1380,0,0
-644,-356,0,0,0,0,0,0,0,0,0,-1,580,1380,0,0
-637,-356,0,0,0,0,0,0,0,0,0,-1,587,1380,0,0
-630,-356,-8.23126,-5.01917,0,0,0,0,0,0,0,-1,594,1380,-8.23124,5.0192
-623,-356,-0.263855,-0.675781,0,0,0,0,0,0,0,-1,601,1380,-0.263835,0.675841
-616,-356,-8.26532,-3.43945,0,0,0,0,0,0,0,-1,608,1380,-8.2653,3.43948
-609,-356,-4.88483,0.734497,0,0,0,0,0,0,0,-1,615,1380,-4.88485,-0.734532
-602,-356,-9.06635,2.4021,0,0,0,0,0,0,0,-1,622,1380,-9.06634,-2.40206
-595,-356,-8.45703,3.61853,0,0,0,0,0,0,0,-1,629,1380,-8.45706,-3.61848
-588,-356,-9.31738,4.14258,0,0,0,0,0,0,0,-1,636,1380,-9.31736,-4.14255
-581,-356,-16.5185,7.32312,0,0,0,0,0,0,0,-1,643,1380,-16.5185,-7.32306
-574,-356,-28.4133,13.7705,0,0,0,0,0,0,0,-1,650,1380,-28.4133,-13.7706
-567,-356,-28.6143,14.5281,0.00422307,0.00436125,0.002709,0.00700205,0.00158227,0.798147,0.00424018,0.0279776,657,1380,-28.6143,-14.528
-560,-356,-28.5699,15.5035,0.00373591,0.00319682,0.00212601,0.00560939,0.00132334,0.722342,0.00338581,0.0186464,664,1380,-28.57,-15.5035
-553,-356,-28.5762,16.3577,0.00354147,0.0022664,0.00180727,0.00482036,0.00098751,0.615833,0.00294021,0.0217019,671,1380,-28.5762,-16.3576
-546,-356,-28.6506,17.1978,0.00353408,0.00152856,0.0016504,0.00446247,0.000600166,0.512409,0.00279648,0.024914,678,1380,-28.6507,-17.1977
-539,-356,-28.7349,18.0748,0.00374693,0.000963141,0.0016591,0.00452067,0.000189402,0.436377,0.00295267,0.0178959,685,1380,-28.7349,-18.0748
-532,-356,-28.8315,18.9912,0.00420849,0.000599664,0.00185442,0.0049915,-0.000183348,0.399532,0.00339043,0.0163064,692,1380,-28.8316,-18.9912
-525,-356,-28.8452,19.853,0.00490907,0.000387582,0.00220496,0.00580631,-0.000509653,0.386454,0.00405146,0.0133062,699,1380,-28.8452,-19.8531
-518,-356,-28.8568,20.7112,0.00589261,0.000455257,0.00275876,0.00704717,-0.000699301,0.396358,0.00494771,0.0148044,706,1380,-28.8568,-20.7112
-511,-356,-28.8565,21.6035,0,0,0,0,0,0,0,-1,713,1380,-28.8565,-21.6036
-504,-356,-14.3925,12.3971,0,0,0,0,0,0,0,-1,720,1380,-14.3925,-12.3971
-497,-356,-5.68604,4.96387,0,0,0,0,0,0,0,-1,727,1380,-5.68605,-4.96385
-490,-356,-7.95288,5.5625,0,0,0,0,0,0,0,-1,734,1380,-7.95285,-5.56246
-483,-356,-7.2627,4.07446,0,0,0,0,0,0,0,-1,741,1380,-7.2627,-4.07441
-476,-356,-5.1936,4.16016,0,0,0,0,0,0,0,-1,748,1380,-5.1936,-4.16012
-469,-356,-10.0883,0.536011,0,0,0,0,0,0,0,-1,755,1380,-10.0883,-0.535989
-462,-356,-12.3481,-0.215698,0,0,0,0,0,0,0,-1,762,1380,-12.3481,0.215641
-455,-356,-13.1367,-0.264648,0,0,0,0,0,0,0,-1,769,1380,-13.1367,0.264647
-448,-356,-13.9116,-0.310181,0,0,0,0,0,0,0,-1,776,1380,-13.9115,0.310207
-441,-356,-13.1602,3.05603,0,0,0,0,0,0,0,-1,783,1380,-13.1602,-3.05609
-434,-356,0,0,0,0,0,0,0,0,0,-1,790,1380,0,0
-427,-356,0,0,0,0,0,0,0,0,0,-1,797,1380,0,0
-420,-356,0,0,0,0,0,0,0,0,0,-1,804,1380,0,0
-413,-356,0,0,0,0,0,0,0,0,0,-1,811,1380,0,0
-406,-356,0,0,0,0,0,0,0,0,0,-1,818,1380,0,0
-399,-356,0,0,0,0,0,0,0,0,0,-1,825,1380,0,0
-392,-356,0,0,0,0,0,0,0,0,0,-1,832,1380,0,0
-385,-356,0,0,0,0,0,0,0,0,0,-1,839,1380,0,0
-378,-356,0,0,0,0,0,0,0,0,0,-1,846,1380,0,0
-371,-356,0,0,0,0,0,0,0,0,0,-1,853,1380,0,0
-364,-356,0,0,0,0,0,0,0,0,0,-1,860,1380,0,0
-357,-356,0,0,0,0,0,0,0,0,0,-1,867,1380,0,0
-350,-356,0,0,0,0,0,0,0,0,0,-1,874,1380,0,0
-343,-356,0,0,0,0,0,0,0,0,0,-1,881,1380,0,0
-336,-356,0,0,0,0,0,0,0,0,0,-1,888,1380,0,0
-329,-356,0,0,0,0,0,0,0,0,0,-1,895,1380,0,0
-322,-356,0,0,0,0,0,0,0,0,0,-1,902,1380,0,0
-315,-356,0,0,0,0,0,0,0,0,0,-1,909,1380,0,0
-308,-356,0,0,0,0,0,0,0,0,0,-1,916,1380,0,0
-301,-356,0,0,0,0,0,0,0,0,0,-1,923,1380,0,0
-294,-356,0,0,0,0,0,0,0,0,0,-1,930,1380,0,0
-287,-356,0,0,0,0,0,0,0,0,0,-1,937,1380,0,0
-280,-356,0,0,0,0,0,0,0,0,0,-1,944,1380,0,0
-273,-356,0,0,0,0,0,0,0,0,0,-1,951,1380,0,0
-266,-356,0,0,0,0,0,0,0,0,0,-1,958,1380,0,0
-259,-356,0,0,0,0,0,0,0,0,0,-1,965,1380,0,0
-252,-356,0,0,0,0,0,0,0,0,0,-1,972,1380,0,0
-245,-356,0,0,0,0,0,0,0,0,0,-1,979,1380,0,0
-238,-356,0,0,0,0,0,0,0,0,0,-1,986,1380,0,0
-231,-356,0,0,0,0,0,0,0,0,0,-1,993,1380,0,0
-224,-356,0,0,0,0,0,0,0,0,0,-1,1000,1380,0,0
-217,-356,0,0,0,0,0,0,0,0,0,-1,1007,1380,0,0
-210,-356,0,0,0,0,0,0,0,0,0,-1,1014,1380,0,0
-203,-356,0,0,0,0,0,0,0,0,0,-1,1021,1380,0,0
-196,-356,0,0,0,0,0,0,0,0,0,-1,1028,1380,0,0
-189,-356,0,0,0,0,0,0,0,0,0,-1,1035,1380,0,0
-182,-356,0,0,0,0,0,0,0,0,0,-1,1042,1380,0,0
-175,-356,0,0,0,0,0,0,0,0,0,-1,1049,1380,0,0
-168,-356,0,0,0,0,0,0,0,0,0,-1,1056,1380,0,0
-161,-356,0,0,0,0,0,0,0,0,0,-1,1063,1380,0,0
-154,-356,0,0,0,0,0,0,0,0,0,-1,1070,1380,0,0
-147,-356,0,0,0,0,0,0,0,0,0,-1,1077,1380,0,0
-140,-356,0,0,0,0,0,0,0,0,0,-1,1084,1380,0,0
-133,-356,0,0,0,0,0,0,0,0,0,-1,1091,1380,0,0
-126,-356,0,0,0,0,0,0,0,0,0,-1,1098,1380,0,0
-119,-356,0,0,0,0,0,0,0,0,0,-1,1105,1380,0,0
-112,-356,0,0,0,0,0,0,0,0,0,-1,1112,1380,0,0
-105,-356,0,0,0,0,0,0,0,0,0,-1,1119,1380,0,0
-98,-356,0,0,0,0,0,0,0,0,0,-1,1126,1380,0,0
-91,-356,0,0,0,0,0,0,0,0,0,-1,1133,1380,0,0
-84,-356,0,0,0,0,0,0,0,0,0,-1,1140,1380,0,0
-77,-356,0,0,0,0,0,0,0,0,0,-1,1147,1380,0,0
-70,-356,0,0,0,0,0,0,0,0,0,-1,1154,1380,0,0
-63,-356,0,0,0,0,0,0,0,0,0,-1,1161,1380,0,0
-56,-356,0,0,0,0,0,0,0,0,0,-1,1168,1380,0,0
-49,-356,0,0,0,0,0,0,0,0,0,-1,1175,1380,0,0
-42,-356,0,0,0,0,0,0,0,0,0,-1,1182,1380,0,0
-35,-356,0,0,0,0,0,0,0,0,0,-1,1189,1380,0,0
-28,-356,0,0,0,0,0,0,0,0,0,-1,1196,1380,0,0
-21,-356,0,0,0,0,0,0,0,0,0,-1,1203,1380,0,0
-14,-356,0,0,0,0,0,0,0,0,0,-1,1210,1380,0,0
-7,-356,0,0,0,0,0,0,0,0,0,-1,1217,1380,0,0
0,-356,0,0,0,0,0,0,0,0,0,-1,1224,1380,0,0
7,-356,0,0,0,0,0,0,0,0,0,-1,1231,1380,0,0
14,-356,0,0,0,0,0,0,0,0,0,-1,1238,1380,0,0
21,-356,0,0,0,0,0,0,0,0,0,-1,1245,1380,0,0
28,-356,0,0,0,0,0,0,0,0,0,-1,1252,1380,0,0
35,-356,0,0,0,0,0,0,0,0,0,-1,1259,1380,0,0
42,-356,0,0,0,0,0,0,0,0,0,-1,1266,1380,0,0
49,-356,0,0,0,0,0,0,0,0,0,-1,1273,1380,0,0
56,-356,0,0,0,0,0,0,0,0,0,-1,1280,1380,0,0
63,-356,0,0,0,0,0,0,0,0,0,-1,1287,1380,0,0
70,-356,0,0,0,0,0,0,0,0,0,-1,1294,1380,0,0
77,-356,0,0,0,0,0,0,0,0,0,-1,1301,1380,0,0
84,-356,0,0,0,0,0,0,0,0,0,-1,1308,1380,0,0
91,-356,0,0,0,0,0,0,0,0,0,-1,1315,1380,0,0
98,-356,0,0,0,0,0,0,0,0,0,-1,1322,1380,0,0
105,-356,0,0,0,0,0,0,0,0,0,-1,1329,1380,0,0
112,-356,0,0,0,0,0,0,0,0,0,-1,1336,1380,0,0
119,-356,0,0,0,0,0,0,0,0,0,-1,1343,1380,0,0
126,-356,0,0,0,0,0,0,0,0,0,-1,1350,1380,0,0
133,-356,0,0,0,0,0,0,0,0,0,-1,1357,1380,0,0
140,-356,0,0,0,0,0,0,0,0,0,-1,1364,1380,0,0
147,-356,0,0,0,0,0,0,0,0,0,-1,1371,1380,0,0
154,-356,0,0,0,0,0,0,0,0,0,-1,1378,1380,0,0
161,-356,0,0,0,0,0,0,0,0,0,-1,1385,1380,0,0
168,-356,0,0,0,0,0,0,0,0,0,-1,1392,1380,0,0
175,-356,0,0,0,0,0,0,0,0,0,-1,1399,1380,0,0
182,-356,0,0,0,0,0,0,0,0,0,-1,1406,1380,0,0
189,-356,0,0,0,0,0,0,0,0,0,-1,1413,1380,0,0
196,-356,0,0,0,0,0,0,0,0,0,-1,1420,1380,0,0
203,-356,0,0,0,0,0,0,0,0,0,-1,1427,1380,0,0
210,-356,0,0,0,0,0,0,0,0,0,-1,1434,1380,0,0
217,-356,0,0,0,0,0,0,0,0,0,-1,1441,1380,0,0
224,-356,0,0,0,0,0,0,0,0,0,-1,1448,1380,0,0
231,-356,0,0,0,0,0,0,0,0,0,-1,1455,1380,0,0
238,-356,0,0,0,0,0,0,0,0,0,-1,1462,1380,0,0
245,-356,0,0,0,0,0,0,0,0,0,-1,1469,1380,0,0
252,-356,0,0,0,0,0,0,0,0,0,-1,1476,1380,0,0
259,-356,0,0,0,0,0,0,0,0,0,-1,1483,1380,0,0
266,-356,0,0,0,0,0,0,0,0,0,-1,1490,1380,0,0
273,-356,0,0,0,0,0,0,0,0,0,-1,1497,1380,0,0
280,-356,0,0,0,0,0,0,0,0,0,-1,1504,1380,0,0
287,-356,0,0,0,0,0,0,0,0,0,-1,1511,1380,0,0
294,-356,0,0,0,0,0,0,0,0,0,-1,1518,1380,0,0
301,-356,0,0,0,0,0,0,0,0,0,-1,1525,1380,0,0
308,-356,0,0,0,0,0,0,0,0,0,-1,1532,1380,0,0
315,-356,0,0,0,0,0,0,0,0,0,-1,1539,1380,0,0
322,-356,0,0,0,0,0,0,0,0,0,-1,1546,1380,0,0
329,-356,0,0,0,0,0,0,0,0,0,-1,1553,1380,0,0
336,-356,0,0,0,0,0,0,0,0,0,-1,1560,1380,0,0
343,-356,0,0,0,0,0,0,0,0,0,-1,1567,1380,0,0
350,-356,0,0,0,0,0,0,0,0,0,-1,1574,1380,0,0
357,-356,0,0,0,0,0,0,0,0,0,-1,1581,1380,0,0
364,-356,0,0,0,0,0,0,0,0,0,-1,1588,1380,0,0
371,-356,0,0,0,0,0,0,0,0,0,-1,1595,1380,0,0
378,-356,0,0,0,0,0,0,0,0,0,-1,1602,1380,0,0
385,-356,0,0,0,0,0,0,0,0,0,-1,1609,1380,0,0
392,-356,0,0,0,0,0,0,0,0,0,-1,1616,1380,0,0
399,-356,0,0,0,0,0,0,0,0,0,-1,1623,1380,0,0
406,-356,0,0,0,0,0,0,0,0,0,-1,1630,1380,0,0
413,-356,0,0,0,0,0,0,0,0,0,-1,1637,1380,0,0
420,-356,0,0,0,0,0,0,0,0,0,-1,1644,1380,0,0
427,-356,0,0,0,0,0,0,0,0,0,-1,1651,1380,0,0
434,-356,0,0,0,0,0,0,0,0,0,-1,1658,1380,0,0
441,-356,0,0,0,0,0,0,0,0,0,-1,1665,1380,0,0
448,-356,0,0,0,0,0,0,0,0,0,-1,1672,1380,0,0
455,-356,0,0,0,0,0,0,0,0,0,-1,1679,1380,0,0
462,-356,0,0,0,0,0,0,0,0,0,-1,1686,1380,0,0
469,-356,0,0,0,0,0,0,0,0,0,-1,1693,1380,0,0
476,-356,0,0,0,0,0,0,0,0,0,-1,1700,1380,0,0
483,-356,0,0,0,0,0,0,0,0,0,-1,1707,1380,0,0
490,-356,0,0,0,0,0,0,0,0,0,-1,1714,1380,0,0
497,-356,0,0,0,0,0,0,0,0,0,-1,1721,1380,0,0
504,-356,0,0,0,0,0,0,0,0,0,-1,1728,1380,0,0
511,-356,0,0,0,0,0,0,0,0,0,-1,1735,1380,0,0
518,-356,0,0,0,0,0,0,0,0,0,-1,1742,1380,0,0
525,-356,0,0,0,0,0,0,0,0,0,-1,1749,1380,0,0
532,-356,0,0,0,0,0,0,0,0,0,-1,1756,1380,0,0
539,-356,0,0,0,0,0,0,0,0,0,-1,1763,1380,0,0
546,-356,0,0,0,0,0,0,0,0,0,-1,1770,1380,0,0
553,-356,0,0,0,0,0,0,0,0,0,-1,1777,1380,0,0
560,-356,63.6171,3.12183,0,0,0,0,0,0,0,-1,1784,1380,63.617,-3.12183
567,-356,65.0425,1.89966,0,0,0,0,0,0,0,-1,1791,1380,65.0424,-1.8996
574,-356,45.5742,3.39575,0,0,0,0,0,0,0,-1,1798,1380,45.5742,-3.39574
581,-356,45.6708,3.64172,0,0,0,0,0,0,0,-1,1805,1380,45.6707,-3.64175
588,-356,44.4739,4.87085,0,0,0,0,0,0,0,-1,1812,1380,44.4739,-4.87086
595,-356,32.0834,5.86084,0,0,0,0,0,0,0,-1,1819,1380,32.0834,-5.86079
602,-356,30.1604,6.07104,0,0,0,0,0,0,0,-1,1826,1380,30.1604,-6.07104
609,-356,28.3435,6.48901,0,0,0,0,0,0,0,-1,1833,1380,28.3435,-6.48899
616,-356,26.9358,6.80872,0,0,0,0,0,0,0,-1,1840,1380,26.9358,-6.80877
623,-356,16.1803,1.07532,0,0,0,0,0,0,0,-1,1847,1380,16.1803,-1.07529
630,-356,16.4138,6.91553,0,0,0,0,0,0,0,-1,1854,1380,16.4138,-6.9155
637,-356,24.8021,12.0151,0,0,0,0,0,0,0,-1,1861,1380,24.8022,-12.0151
644,-356,46.082,21.5654,0,0,0,0,0,0,0,-1,1868,1380,46.082,-21.5654
651,-356,46.0381,20.6039,-0.000433245,0.000107587,-0.000282068,0.000227923,-0.000553581,-1.16755,0.000464076,0.0223781,1875,1380,46.0381,-20.6039
658,-356,45.9443,19.7001,-0.000114645,3.35868e-05,-0.000157818,0.000133826,-0.000214884,-1.00493,0.000203133,0.0158872,1882,1380,45.9443,-19.7
665,-356,45.8844,18.95,0.000407066,5.52721e-05,-0.000262047,0.000546777,-8.44386e-05,-0.489816,0.000395679,0.0158663,1889,1380,45.8844,-18.9499
672,-356,45.8142,18.1687,0.00103945,0.000220264,-0.000513628,0.0012868,-2.70907e-05,-0.448807,0.000867039,0.0166561,1896,1380,45.8142,-18.1687
679,-356,45.792,17.3284,0.0017778,0.000470086,-0.000888942,0.00222746,2.04277e-05,-0.468305,0.00147821,0.0182406,1903,1380,45.792,-17.3284
686,-356,45.78,16.4615,0.00262976,0.000841475,-0.00139837,0.00339541,7.58175e-05,-0.500949,0.00223876,0.0194298,1910,1380,45.78,-16.4615
693,-356,45.7128,15.6511,0.00357601,0.0013293,-0.00202367,0.00476721,0.0001381,-0.53202,0.00313312,0.0164862,1917,1380,45.7127,-15.6512
700,-356,45.6794,14.8114,0.00466503,0.00197636,-0.00280319,0.00642957,0.000211825,-0.561811,0.00421755,0.0249822,1924,1380,45.6794,-14.8114
707,-356,45.8251,13.7358,0,0,0,0,0,0,0,-1,1931,1380,45.8251,-13.7358
714,-356,19.6907,5.82129,0,0,0,0,0,0,0,-1,1938,1380,19.6907,-5.82132
721,-356,17.2948,4.1958,0,0,0,0,0,0,0,-1,1945,1380,17.2948,-4.19584
728,-356,19.1846,2.31519,0,0,0,0,0,0,0,-1,1952,1380,19.1846,-2.31514
735,-356,20.0731,2.50842,0,0,0,0,0,0,0,-1,1959,1380,20.0731,-2.50844
742,-356,21.0111,2.43762,0,0,0,0,0,0,0,-1,1966,1380,21.0112,-2.43762
749,-356,22.1411,1.83276,0,0,0,0,0,0,0,-1,1973,1380,22.1411,-1.83275
756,-356,0,0,0,0,0,0,0,0,0,-1,1980,1380,0,0
763,-356,0,0,0,0,0,0,0,0,0,-1,1987,1380,0,0
770,-356,0,0,0,0,0,0,0,0,0,-1,1994,1380,0,0
777,-356,0,0,0,0,0,0,0,0,0,-1,2001,1380,0,0
784,-356,0,0,0,0,0,0,0,0,0,-1,2008,1380,0,0
791,-356,0,0,0,0,0,0,0,0,0,-1,2015,1380,0,0
798,-356,0,0,0,0,0,0,0,0,0,-1,2022,1380,0,0
805,-356,0,0,0,0,0,0,0,0,0,-1,2029,1380,0,0
812,-356,0,0,0,0,0,0,0,0,0,-1,2036,1380,0,0
-700,-363,0,0,0,0,0,0,0,0,0,-1,524,1387,0,0
-693,-363,0,0,0,0,0,0,0,0,0,-1,531,1387,0,0
-686,-363,0,0,0,0,0,0,0,0,0,-1,538,1387,0,0
-679,-363,0,0,0,0,0,0,0,0,0,-1,545,1387,0,0
-672,-363,0,0,0,0,0,0,0,0,0,-1,552,1387,0,0
-665,-363,0,0,0,0,0,0,0,0,0,-1,559,1387,0,0
-658,-363,0,0,0,0,0,0,0,0,0,-1,566,1387,0,0
-651,-363,0,0,0,0,0,0,0,0,0,-1,573,1387,0,0
-644,-363,0,0,0,0,0,0,0,0,0,-1,580,1387,0,0
-637,-363,0,0,0,0,0,0,0,0,0,-1,587,1387,0,0
-630,-363,0,0,0,0,0,0,0,0,0,-1,594,1387,0,0
-623,-363,-9.67566,-5.91846,0,0,0,0,0,0,0,-1,601,1387,-9.67563,5.91847
-616,-363,-9.02985,-2.98083,0,0,0,0,0,0,0,-1,608,1387,-9.02987,2.98079
-609,-363,-4.90265,0.195679,0,0,0,0,0,0,0,-1,615,1387,-4.90263,-0.195721
-602,-363,-9.65009,3.5321,0,0,0,0,0,0,0,-1,622,1387,-9.65007,-3.53211
-595,-363,-8.00256,3.48853,0,0,0,0,0,0,0,-1,629,1387,-8.00256,-3.48855
-588,-363,-10.8846,4.49768,0,0,0,0,0,0,0,-1,636,1387,-10.8846,-4.49773
-581,-363,-11.7469,5.15161,0,0,0,0,0,0,0,-1,643,1387,-11.747,-5.15167
-574,-363,-17.8334,8.33801,0,0,0,0,0,0,0,-1,650,1387,-17.8334,-8.33804
-567,-363,-27.8151,14.5823,0,0,0,0,0,0,0,-1,657,1387,-27.8151,-14.5823
-560,-363,-27.7281,15.5001,0.00413209,0.00365514,0.00260753,0.00651202,0.00127521,0.739797,0.00398488,0.0158735,664,1387,-27.7281,-15.5002
-553,-363,-27.7422,16.4091,0.00373946,0.00259948,0.0021131,0.0053581,0.000980847,0.653663,0.00329416,0.0146185,671,1387,-27.7422,-16.4091
-546,-363,-27.8051,17.272,0.00353468,0.00176831,0.00179394,0.00465106,0.000651933,0.556657,0.00290786,0.0146118,678,1387,-27.805,-17.272
-539,-363,-27.8405,18.1454,0.00356191,0.0011375,0.00165256,0.00439919,0.000300225,0.468959,0.00283802,0.0166605,685,1387,-27.8405,-18.1454
-532,-363,-27.9157,19.0367,0.00384365,0.000741208,0.00170909,0.00460052,-1.56579e-05,0.41689,0.00307224,0.0136239,692,1387,-27.9157,-19.0368
-525,-363,-27.962,19.8842,0.0043608,0.000512152,0.00192299,0.00515694,-0.000283988,0.392526,0.00353643,0.012612,699,1387,-27.962,-19.8841
-518,-363,-27.9881,20.7615,0.00513257,0.000525859,0.00231586,0.00609551,-0.000437079,0.394053,0.00421692,0.0116316,706,1387,-27.9881,-20.7615
-511,-363,-27.8771,21.6969,0.00624321,0.000802144,0.00297107,0.00755114,-0.000505788,0.414694,0.00521088,0.036234,713,1387,-27.8771,-21.6969
-504,-363,-27.7071,22.6752,0,0,0,0,0,0,0,-1,720,1387,-27.7071,-22.6751
-497,-363,-7.18842,7.29944,0,0,0,0,0,0,0,-1,727,1387,-7.18839,-7.29945
-490,-363,-5.42413,4.6958,0,0,0,0,0,0,0,-1,734,1387,-5.42412,-4.69583
-483,-363,-6.28375,4.1394,0,0,0,0,0,0,0,-1,741,1387,-6.28374,-4.13944
-476,-363,-5.83807,4.31018,0,0,0,0,0,0,0,-1,748,1387,-5.8381,-4.31013
-469,-363,-10.7125,0.697754,0,0,0,0,0,0,0,-1,755,1387,-10.7125,-0.697811
-462,-363,-9.55951,-0.0830078,0,0,0,0,0,0,0,-1,762,1387,-9.55949,0.0830163
-455,-363,-13.1008,-0.290894,0,0,0,0,0,0,0,-1,769,1387,-13.1008,0.290921
-448,-363,-11.7324,2.46606,0,0,0,0,0,0,0,-1,776,1387,-11.7324,-2.46605
-441,-363,-12.4464,2.5354,0,0,0,0,0,0,0,-1,783,1387,-12.4463,-2.53537
-434,-363,-13.6918,2.14661,0,0,0,0,0,0,0,-1,790,1387,-13.6918,-2.14662
-427,-363,0,0,0,0,0,0,0,0,0,-1,797,1387,0,0
-420,-363,0,0,0,0,0,0,0,0,0,-1,804,1387,0,0
-413,-363,0,0,0,0,0,0,0,0,0,-1,811,1387,0,0
-406,-363,0,0,0,0,0,0,0,0,0,-1,818,1387,0,0
-399,-363,0,0,0,0,0,0,0,0,0,-1,825,1387,0,0
-392,-363,0,0,0,0,0,0,0,0,0,-1,832,1387,0,0
-385,-363,0,0,0,0,0,0,0,0,0,-1,839,1387,0,0
-378,-363,0,0,0,0,0,0,0,0,0,-1,846,1387,0,0
-371,-363,0,0,0,0,0,0,0,0,0,-1,853,1387,0,0
-364,-363,0,0,0,0,0,0,0,0,0,-1,860,1387,0,0
-357,-363,0,0,0,0,0,0,0,0,0,-1,867,1387,0,0
-350,-363,0,0,0,0,0,0,0,0,0,-1,874,1387,0,0
-343,-363,0,0,0,0,0,0,0,0,0,-1,881,1387,0,0
-336,-363,0,0,0,0,0,0,0,0,0,-1,888,1387,0,0
-329,-363,0,0,0,0,0,0,0,0,0,-1,895,1387,0,0
-322,-363,0,0,0,0,0,0,0,0,0,-1,902,1387,0,0
-315,-363,0,0,0,0,0,0,0,0,0,-1,909,1387,0,0
-308,-363,0,0,0,0,0,0,0,0,0,-1,916,1387,0,0
-301,-363,0,0,0,0,0,0,0,0,0,-1,923,1387,0,0
-294,-363,0,0,0,0,0,0,0,0,0,-1,930,1387,0,0
-287,-363,0,0,0,0,0,0,0,0,0,-1,937,1387,0,0
-280,-363,0,0,0,0,0,0,0,0,0,-1,944,1387,0,0
-273,-363,0,0,0,0,0,0,0,0,0,-1,951,1387,0,0
-266,-363,0,0,0,0,0,0,0,0,0,-1,958,1387,0,0
-259,-363,0,0,0,0,0,0,0,0,0,-1,965,1387,0,0
-252,-363,0,0,0,0,0,0,0,0,0,-1,972,1387,0,0
-245,-363,0,0,0,0,0,0,0,0,0,-1,979,1387,0,0
-238,-363,0,0,0,0,0,0,0,0,0,-1,986,1387,0,0
-231,-363,0,0,0,0,0,0,0,0,0,-1,993,1387,0,0
-224,-363,0,0,0,0,0,0,0,0,0,-1,1000,1387,0,0
-217,-363,0,0,0,0,0,0,0,0,0,-1,1007,1387,0,0
-210,-363,0,0,0,0,0,0,0,0,0,-1,1014,1387,0,0
-203,-363,0,0,0,0,0,0,0,0,0,-1,1021,1387,0,0
-196,-363,0,0,0,0,0,0,0,0,0,-1,1028,1387,0,0
-189,-363,0,0,0,0,0,0,0,0,0,-1,1035,1387,0,0
-182,-363,0,0,0,0,0,0,0,0,0,-1,1042,1387,0,0
-175,-363,0,0,0,0,0,0,0,0,0,-1,1049,1387,0,0
-168,-363,0,0,0,0,0,0,0,0,0,-1,1056,1387,0,0
-161,-363,0,0,0,0,0,0,0,0,0,-1,1063,1387,0,0
-154,-363,0,0,0,0,0,0,0,0,0,-1,1070,1387,0,0
-147,-363,0,0,0,0,0,0,0,0,0,-1,1077,1387,0,0
-140,-363,0,0,0,0,0,0,0,0,0,-1,1084,1387,0,0
-133,-363,0,0,0,0,0,0,0,0,0,-1,1091,1387,0,0
-126,-363,0,0,0,0,0,0,0,0,0,-1,1098,1387,0,0
-119,-363,0,0,0,0,0,0,0,0,0,-1,1105,1387,0,0
-112,-363,0,0,0,0,0,0,0,0,0,-1,1112,1387,0,0
-105,-363,0,0,0,0,0,0,0,0,0,-1,1119,1387,0,0
-98,-363,0,0,0,0,0,0,0,0,0,-1,1126,1387,0,0
-91,-363,0,0,0,0,0,0,0,0,0,-1,1133,1387,0,0
-84,-363,0,0,0,0,0,0,0,0,0,-1,1140,1387,0,0
-77,-363,0,0,0,0,0,0,0,0,0,-1,1147,1387,0,0
-70,-363,0,0,0,0,0,0,0,0,0,-1,1154,1387,0,0
-63,-363,0,0,0,0,0,0,0,0,0,-1,1161,1387,0,0
-56,-363,0,0,0,0,0,0,0,0,0,-1,1168,1387,0,0
-49,-363,0,0,0,0,0,0,0,0,0,-1,1175,1387,0,0
-42,-363,0,0,0,0,0,0,0,0,0,-1,1182,1387,0,0
-35,-363,0,0,0,0,0,0,0,0,0,-1,1189,1387,0,0
-28,-363,0,0,0,0,0,0,0,0,0,-1,1196,1387,0,0
-21,-363,0,0,0,0,0,0,0,0,0,-1,1203,1387,0,0
-14,-363,0,0,0,0,0,0,0,0,0,-1,1210,1387,0,0
-7,-363,0,0,0,0,0,0,0,0,0,-1,1217,1387,0,0
0,-363,0,0,0,0,0,0,0,0,0,-1,1224,1387,0,0
7,-363,0,0,0,0,0,0,0,0,0,-1,1231,1387,0,0
14,-363,0,0,0,0,0,0,0,0,0,-1,1238,1387,0,0
21,-363,0,0,0,0,0,0,0,0,0,-1,1245,1387,0,0
28,-363,0,0,0,0,0,0,0,0,0,-1,1252,1387,0,0
35,-363,0,0,0,0,0,0,0,0,0,-1,1259,1387,0,0
42,-363,0,0,0,0,0,0,0,0,0,-1,1266,1387,0,0
49,-363,0,0,0,0,0,0,0,0,0,-1,1273,1387,0,0
56,-363,0,0,0,0,0,0,0,0,0,-1,1280,1387,0,0
63,-363,0,0,0,0,0,0,0,0,0,-1,1287,1387,0,0
70,-363,0,0,0,0,0,0,0,0,0,-1,1294,1387,0,0
77,-363,0,0,0,0,0,0,0,0,0,-1,1301,1387,0,0
84,-363,0,0,0,0,0,0,0,0,0,-1,1308,1387,0,0
91,-363,0,0,0,0,0,0,0,0,0,-1,1315,1387,0,0
98,-363,0,0,0,0,0,0,0,0,0,-1,1322,1387,0,0
105,-363,0,0,0,0,0,0,0,0,0,-1,1329,1387,0,0
112,-363,0,0,0,0,0,0,0,0,0,-1,1336,1387,0,0
119,-363,0,0,0,0,0,0,0,0,0,-1,1343,1387,0,0
126,-363,0,0,0,0,0,0,0,0,0,-1,1350,1387,0,0
133,-363,0,0,0,0,0,0,0,0,0,-1,1357,1387,0,0
140,-363,0,0,0,0,0,0,0,0,0,-1,1364,1387,0,0
147,-363,0,0,0,0,0,0,0,0,0,-1,1371,1387,0,0
154,-363,0,0,0,0,0,0,0,0,0,-1,1378,1387,0,0
161,-363,0,0,0,0,0,0,0,0,0,-1,1385,1387,0,0
168,-363,0,0,0,0,0,0,0,0,0,-1,1392,1387,0,0
175,-363,0,0,0,0,0,0,0,0,0,-1,1399,1387,0,0
182,-363,0,0,0,0,0,0,0,0,0,-1,1406,1387,0,0
189,-363,0,0,0,0,0,0,0,0,0,-1,1413,1387,0,0
196,-363,0,0,0,0,0,0,0,0,0,-1,1420,1387,0,0
203,-363,0,0,0,0,0,0,0,0,0,-1,1427,1387,0,0
210,-363,0,0,0,0,0,0,0,0,0,-1,1434,1387,0,0
217,-363,0,0,0,0,0,0,0,0,0,-1,1441,1387,0,0
224,-363,0,0,0,0,0,0,0,0,0,-1,1448,1387,0,0
231,-363,0,0,0,0,0,0,0,0,0,-1,1455,1387,0,0
238,-363,0,0,0,0,0,0,0,0,0,-1,1462,1387,0,0
245,-363,0,0,0,0,0,0,0,0,0,-1,1469,1387,0,0
252,-363,0,0,0,0,0,0,0,0,0,-1,1476,1387,0,0
259,-363,0,0,0,0,0,0,0,0,0,-1,1483,1387,0,0
266,-363,0,0,0,0,0,0,0,0,0,-1,1490,1387,0,0
273,-363,0,0,0,0,0,0,0,0,0,-1,1497,1387,0,0
280,-363,0,0,0,0,0,0,0,0,0,-1,1504,1387,0,0
287,-363,0,0,0,0,0,0,0,0,0,-1,1511,1387,0,0
294,-363,0,0,0,0,0,0,0,0,0,-1,1518,1387,0,0
301,-363,0,0,0,0,0,0,0,0,0,-1,1525,1387,0,0
308,-363,0,0,0,0,0,0,0,0,0,-1,1532,1387,0,0
315,-363,0,0,0,0,0,0,0,0,0,-1,1539,1387,0,0
322,-363,0,0,0,0,0,0,0,0,0,-1,1546,1387,0,0
329,-363,0,0,0,0,0,0,0,0,0,-1,1553,1387,0,0
336,-363,0,0,0,0,0,0,0,0,0,-1,1560,1387,0,0
343,-363,0,0,0,0,0,0,0,0,0,-1,1567,1387,0,0
350,-363,0,0,0,0,0,0,0,0,0,-1,1574,1387,0,0
357,-363,0,0,0,0,0,0,0,0,0,-1,1581,1387,0,0
364,-363,0,0,0,0,0,0,0,0,0,-1,1588,1387,0,0
371,-363,0,0,0,0,0,0,0,0,0,-1,1595,1387,0,0
378,-363,0,0,0,0,0,0,0,0,0,-1,1602,1387,0,0
385,-363,0,0,0,0,0,0,0,0,0,-1,1609,1387,0,0
392,-363,0,0,0,0,0,0,0,0,0,-1,1616,1387,0,0
399,-363,0,0,0,0,0,0,0,0,0,-1,1623,1387,0,0
406,-363,0,0,0,0,0,0,0,0,0,-1,1630,1387,0,0
413,-363,0,0,0,0,0,0,0,0,0,-1,1637,1387,0,0
420,-363,0,0,0,0,0,0,0,0,0,-1,1644,1387,0,0
427,-363,0,0,0,0,0,0,0,0,0,-1,1651,1387,0,0
434,-363,0,0,0,0,0,0,0,0,0,-1,1658,1387,0,0
441,-363,0,0,0,0,0,0,0,0,0,-1,1665,1387,0,0
448,-363,0,0,0,0,0,0,0,0,0,-1,1672,1387,0,0
455,-363,0,0,0,0,0,0,0,0,0,-1,1679,1387,0,0
462,-363,0,0,0,0,0,0,0,0,0,-1,1686,1387,0,0
469,-363,0,0,0,0,0,0,0,0,0,-1,1693,1387,0,0
476,-363,0,0,0,0,0,0,0,0,0,-1,1700,1387,0,0
483,-363,0,0,0,0,0,0,0,0,0,-1,1707,1387,0,0
490,-363,0,0,0,0,0,0,0,0,0,-1,1714,1387,0,0
497,-363,0,0,0,0,0,0,0,0,0,-1,1721,1387,0,0
504,-363,0,0,0,0,0,0,0,0,0,-1,1728,1387,0,0
511,-363,0,0,0,0,0,0,0,0,0,-1,1735,1387,0,0
518,-363,0,0,0,0,0,0,0,0,0,-1,1742,1387,0,0
525,-363,0,0,0,0,0,0,0,0,0,-1,1749,1387,0,0
532,-363,0,0,0,0,0,0,0,0,0,-1,1756,1387,0,0
539,-363,0,0,0,0,0,0,0,0,0,-1,1763,1387,0,0
546,-363,0,0,0,0,0,0,0,0,0,-1,1770,1387,0,0
553,-363,62.1395,3.42249,0,0,0,0,0,0,0,-1,1777,1387,62.1395,-3.42245
560,-363,63.2896,2.40808,0,0,0,0,0,0,0,-1,1784,1387,63.2896,-2.40811
567,-363,64.4463,1.38135,0,0,0,0,0,0,0,-1,1791,1387,64.4463,-1.38131
574,-363,45.7261,2.8075,0,0,0,0,0,0,0,-1,1798,1387,45.7261,-2.80754
581,-363,39.2413,1.97632,0,0,0,0,0,0,0,-1,1805,1387,39.2413,-1.97636
588,-363,32.5608,6.72131,0,0,0,0,0,0,0,-1,1812,1387,32.5608,-6.72131
595,-363,31.4688,6.95435,0,0,0,0,0,0,0,-1,1819,1387,31.4688,-6.95431
602,-363,25.7437,5.33667,0,0,0,0,0,0,0,-1,1826,1387,25.7437,-5.33667
609,-363,27.7048,7.06885,0,0,0,0,0,0,0,-1,1833,1387,27.7048,-7.06882
616,-363,16.229,1.08704,0,0,0,0,0,0,0,-1,1840,1387,16.229,-1.08706
623,-363,15.7283,7.16663,0,0,0,0,0,0,0,-1,1847,1387,15.7282,-7.16665
630,-363,18.3192,9.27844,0,0,0,0,0,0,0,-1,1854,1387,18.3192,-9.27843
637,-363,45.1462,22.4843,0,0,0,0,0,0,0,-1,1861,1387,45.1462,-22.4842
644,-363,45.1611,21.5731,-0.000455398,0.000269627,-0.000490915,0.00051737,-0.000703142,-1.10343,0.000707379,0.0198415,1868,1387,45.1612,-21.5731
651,-363,45.1434,20.6836,-0.000319855,7.82258e-06,-0.000150302,6.6321e-05,-0.000378353,-1.19963,0.000277002,0.0122703,1875,1387,45.1434,-20.6836
658,-363,45.1035,19.8372,0.000107359,2.4163e-05,-0.000138463,0.000210338,-7.88161e-05,-0.639475,0.000172604,0.012928,1882,1387,45.1035,-19.8372
665,-363,45.0574,19.0392,0.000704477,0.000137487,-0.000330318,0.000856274,-1.43098e-05,-0.430766,0.000575678,0.0131189,1889,1387,45.0573,-19.0391
672,-363,45.0048,18.2302,0.00142088,0.000374581,-0.000679558,0.00175534,4.01271e-05,-0.457359,0.00115708,0.0147591,1896,1387,45.0047,-18.2302
679,-363,44.9408,17.3914,0.00226798,0.000721411,-0.00118713,0.00291147,7.79242e-05,-0.496722,0.00191553,0.014982,1903,1387,44.9408,-17.3914
686,-363,44.9113,16.5453,0.0032541,0.00119711,-0.00185928,0.00435039,0.000100816,-0.532763,0.00286725,0.0152862,1910,1387,44.9112,-16.5452
693,-363,44.8618,15.6884,0.00436998,0.00183585,-0.00270061,0.00608599,0.000119839,-0.566055,0.00401798,0.0143746,1917,1387,44.8618,-15.6883
700,-363,44.9647,14.7244,0.00572958,0.00271785,-0.00380465,0.00831554,0.000131887,-0.59696,0.00550026,0.0371238,1924,1387,44.9648,-14.7244
707,-363,45.2667,13.7805,0,0,0,0,0,0,0,-1,1931,1387,45.2668,-13.7805
714,-363,16.5782,5.3147,0,0,0,0,0,0,0,-1,1938,1387,16.5783,-5.31472
721,-363,14.4045,4.51685,0,0,0,0,0,0,0,-1,1945,1387,14.4045,-4.51685
728,-363,19.9756,0.853027,0,0,0,0,0,0,0,-1,1952,1387,19.9756,-0.853059
735,-363,21.4297,1.2981,0,0,0,0,0,0,0,-1,1959,1387,21.4297,-1.29811
742,-363,21.3621,2.79663,0,0,0,0,0,0,0,-1,1966,1387,21.362,-2.7966
749,-363,0,0,0,0,0,0,0,0,0,-1,1973,1387,0,0
756,-363,0,0,0,0,0,0,0,0,0,-1,1980,1387,0,0
763,-363,0,0,0,0,0,0,0,0,0,-1,1987,1387,0,0
770,-363,0,0,0,0,0,0,0,0,0,-1,1994,1387,0,0
777,-363,0,0,0,0,0,0,0,0,0,-1,2001,1387,0,0
784,-363,0,0,0,0,0,0,0,0,0,-1,2008,1387,0,0
791,-363,0,0,0,0,0,0,0,0,0,-1,2015,1387,0,0
798,-363,0,0,0,0,0,0,0,0,0,-1,2022,1387,0,0
805,-363,0,0,0,0,0,0,0,0,0,-1,2029,1387,0,0
812,-363,0,0,0,0,0,0,0,0,0,-1,2036,1387,0,0
-700,-370,0,0,0,0,0,0,0,0,0,-1,524,1394,0,0
-693,-370,0,0,0,0,0,0,0,0,0,-1,531,1394,0,0
-686,-370,0,0,0,0,0,0,0,0,0,-1,538,1394,0,0
-679,-370,0,0,0,0,0,0,0,0,0,-1,545,1394,0,0
-672,-370,0,0,0,0,0,0,0,0,0,-1,552,1394,0,0
-665,-370,0,0,0,0,0,0,0,0,0,-1,559,1394,0,0
-658,-370,0,0,0,0,0,0,0,0,0,-1,566,1394,0,0
-651,-370,0,0,0,0,0,0,0,0,0,-1,573,1394,0,0
-644,-370,0,0,0,0,0,0,0,0,0,-1,580,1394,0,0
-637,-370,0,0,0,0,0,0,0,0,0,-1,587,1394,0,0
-630,-370,0,0,0,0,0,0,0,0,0,-1,594,1394,0,0
-623,-370,-10.1758,-7.10486,0,0,0,0,0,0,0,-1,601,1394,-10.1758,7.10483
-616,-370,-8.85925,-1.61475,0,0,0,0,0,0,0,-1,608,1394,-8.85925,1.61476
-609,-370,-5.39325,0.0421143,0,0,0,0,0,0,0,-1,615,1394,-5.39328,-0.0421372
-602,-370,-12.3151,3.44592,0,0,0,0,0,0,0,-1,622,1394,-12.3151,-3.44595
-595,-370,-7.53284,5.44214,0,0,0,0,0,0,0,-1,629,1394,-7.53284,-5.44216
-588,-370,-11.2422,4.50598,0,0,0,0,0,0,0,-1,636,1394,-11.2422,-4.50596
-581,-370,-13.1575,5.84888,0,0,0,0,0,0,0,-1,643,1394,-13.1575,-5.84887
-574,-370,-13.0107,6.69861,0,0,0,0,0,0,0,-1,650,1394,-13.0108,-6.69866
-567,-370,-26.8799,14.4448,0,0,0,0,0,0,0,-1,657,1394,-26.88,-14.4449
-560,-370,-26.948,15.4681,0.00461842,0.00412221,0.0030742,0.00745451,0.00128612,0.745133,0.00460128,0.0419103,664,1394,-26.948,-15.4681
-553,-370,-26.9011,16.4639,0.00405369,0.00294808,0.00242689,0.00598994,0.00101183,0.673417,0.0037024,0.0122762,671,1394,-26.9011,-16.4639
-546,-370,-26.9188,17.342,0.003658,0.00202596,0.00196324,0.00496806,0.000715903,0.588436,0.00310107,0.0150338,678,1394,-26.9187,-17.342
-539,-370,-26.9282,18.2249,0.00349796,0.00133069,0.00169194,0.00442353,0.000405119,0.500576,0.00282369,0.0188116,685,1394,-26.9282,-18.2248
-532,-370,-27.0252,19.071,0.00359721,0.000881587,0.00162474,0.00435681,0.000121983,0.43733,0.00286474,0.0209899,692,1394,-27.0252,-19.0711
-525,-370,-27.069,19.9403,0.0039233,0.00060774,0.00171773,0.00465274,-0.000121702,0.401578,0.00314318,0.0209121,699,1394,-27.069,-19.9403
-518,-370,-27.1017,20.8022,0.00448519,0.000538364,0.00197234,0.00530185,-0.000278292,0.392563,0.00363088,0.0152457,706,1394,-27.1017,-20.8023
-511,-370,-27.1217,21.7128,0.00534337,0.000717168,0.00244092,0.00639309,-0.000332545,0.406139,0.00437712,0.0164613,713,1394,-27.1217,-21.7128
-504,-370,-27.1492,22.6139,0,0,0,0,0,0,0,-1,720,1394,-27.1492,-22.6139
-497,-370,-12.3546,11.7982,0,0,0,0,0,0,0,-1,727,1394,-12.3546,-11.7983
-490,-370,-5.30695,4.5271,0,0,0,0,0,0,0,-1,734,1394,-5.30698,-4.52704
-483,-370,-6.02997,4.59253,0,0,0,0,0,0,0,-1,741,1394,-6.02994,-4.5925
-476,-370,-6.75293,4.65796,0,0,0,0,0,0,0,-1,748,1394,-6.7529,-4.65795
-469,-370,-10.584,1.14294,0,0,0,0,0,0,0,-1,755,1394,-10.584,-1.14293
-462,-370,-9.54462,0.387207,0,0,0,0,0,0,0,-1,762,1394,-9.5446,-0.387176
-455,-370,-8.50525,-0.36853,0,0,0,0,0,0,0,-1,769,1394,-8.50523,0.368582
-448,-370,-10.9543,2.28833,0,0,0,0,0,0,0,-1,776,1394,-10.9543,-2.28835
-441,-370,-11.8699,1.8313,0,0,0,0,0,0,0,-1,783,1394,-11.8699,-1.83127
-434,-370,-12.7855,1.37415,0,0,0,0,0,0,0,-1,790,1394,-12.7855,-1.37419
-427,-370,0,0,0,0,0,0,0,0,0,-1,797,1394,0,0
-420,-370,0,0,0,0,0,0,0,0,0,-1,804,1394,0,0
-413,-370,0,0,0,0,0,0,0,0,0,-1,811,1394,0,0
-406,-370,0,0,0,0,0,0,0,0,0,-1,818,1394,0,0
-399,-370,0,0,0,0,0,0,0,0,0,-1,825,1394,0,0
-392,-370,0,0,0,0,0,0,0,0,0,-1,832,1394,0,0
-385,-370,0,0,0,0,0,0,0,0,0,-1,839,1394,0,0
-378,-370,0,0,0,0,0,0,0,0,0,-1,846,1394,0,0
-371,-370,0,0,0,0,0,0,0,0,0,-1,853,1394,0,0
-364,-370,0,0,0,0,0,0,0,0,0,-1,860,1394,0,0
-357,-370,0,0,0,0,0,0,0,0,0,-1,867,1394,0,0
-350,-370,0,0,0,0,0,0,0,0,0,-1,874,1394,0,0
-343,-370,0,0,0,0,0,0,0,0,0,-1,881,1394,0,0
-336,-370,0,0,0,0,0,0,0,0,0,-1,888,1394,0,0
-329,-370,0,0,0,0,0,0,0,0,0,-1,895,1394,0,0
-322,-370,0,0,0,0,0,0,0,0,0,-1,902,1394,0,0
-315,-370,0,0,0,0,0,0,0,0,0,-1,909,1394,0,0
-308,-370,0,0,0,0,0,0,0,0,0,-1,916,1394,0,0
-301,-370,0,0,0,0,0,0,0,0,0,-1,923,1394,0,0
-294,-370,0,0,0,0,0,0,0,0,0,-1,930,1394,0,0
-287,-370,0,0,0,0,0,0,0,0,0,-1,937,1394,0,0
-280,-370,0,0,0,0,0,0,0,0,0,-1,944,1394,0,0
-273,-370,0,0,0,0,0,0,0,0,0,-1,951,1394,0,0
-266,-370,0,0,0,0,0,0,0,0,0,-1,958,1394,0,0
-259,-370,0,0,0,0,0,0,0,0,0,-1,965,1394,0,0
-252,-370,0,0,0,0,0,0,0,0,0,-1,972,1394,0,0
-245,-370,0,0,0,0,0,0,0,0,0,-1,979,1394,0,0
-238,-370,0,0,0,0,0,0,0,0,0,-1,986,1394,0,0
-231,-370,0,0,0,0,0,0,0,0,0,-1,993,1394,0,0
-224,-370,0,0,0,0,0,0,0,0,0,-1,1000,1394,0,0
-217,-370,0,0,0,0,0,0,0,0,0,-1,1007,1394,0,0
-210,-370,0,0,0,0,0,0,0,0,0,-1,1014,1394,0,0
-203,-370,0,0,0,0,0,0,0,0,0,-1,1021,1394,0,0
-196,-370,0,0,0,0,0,0,0,0,0,-1,1028,1394,0,0
-189,-370,0,0,0,0,0,0,0,0,0,-1,1035,1394,0,0
-182,-370,0,0,0,0,0,0,0,0,0,-1,1042,1394,0,0
-175,-370,0,0,0,0,0,0,0,0,0,-1,1049,1394,0,0
-168,-370,0,0,0,0,0,0,0,0,0,-1,1056,1394,0,0
-161,-370,0,0,0,0,0,0,0,0,0,-1,1063,1394,0,0
-154,-370,0,0,0,0,0,0,0,0,0,-1,1070,1394,0,0
-147,-370,0,0,0,0,0,0,0,0,0,-1,1077,1394,0,0
-140,-370,0,0,0,0,0,0,0,0,0,-1,1084,1394,0,0
-133,-370,0,0,0,0,0,0,0,0,0,-1,1091,1394,0,0
-126,-370,0,0,0,0,0,0,0,0,0,-1,1098,1394,0,0
-119,-370,0,0,0,0,0,0,0,0,0,-1,1105,1394,0,0
-112,-370,0,0,0,0,0,0,0,0,0,-1,1112,1394,0,0
-105,-370,0,0,0,0,0,0,0,0,0,-1,1119,1394,0,0
-98,-370,0,0,0,0,0,0,0,0,0,-1,1126,1394,0,0
-91,-370,0,0,0,0,0,0,0,0,0,-1,1133,1394,0,0
-84,-370,0,0,0,0,0,0,0,0,0,-1,1140,1394,0,0
-77,-370,0,0,0,0,0,0,0,0,0,-1,1147,1394,0,0
-70,-370,0,0,0,0,0,0,0,0,0,-1,1154,1394,0,0
-63,-370,0,0,0,0,0,0,0,0,0,-1,1161,1394,0,0
-56,-370,0,0,0,0,0,0,0,0,0,-1,1168,1394,0,0
-49,-370,0,0,0,0,0,0,0,0,0,-1,1175,1394,0,0
-42,-370,0,0,0,0,0,0,0,0,0,-1,1182,1394,0,0
-35,-370,0,0,0,0,0,0,0,0,0,-1,1189,1394,0,0
-28,-370,0,0,0,0,0,0,0,0,0,-1,1196,1394,0,0
-21,-370,0,0,0,0,0,0,0,0,0,-1,1203,1394,0,0
-14,-370,0,0,0,0,0,0,0,0,0,-1,1210,1394,0,0
-7,-370,0,0,0,0,0,0,0,0,0,-1,1217,1394,0,0
0,-370,0,0,0,0,0,0,0,0,0,-1,1224,1394,0,0
7,-370,0,0,0,0,0,0,0,0,0,-1,1231,1394,0,0
14,-370,0,0,0,0,0,0,0,0,0,-1,1238,1394,0,0
21,-370,0,0,0,0,0,0,0,0,0,-1,1245,1394,0,0
28,-370,0,0,0,0,0,0,0,0,0,-1,1252,1394,0,0
35,-370,0,0,0,0,0,0,0,0,0,-1,1259,1394,0,0
42,-370,0,0,0,0,0,0,0,0,0,-1,1266,1394,0,0
49,-370,0,0,0,0,0,0,0,0,0,-1,1273,1394,0,0
56,-370,0,0,0,0,0,0,0,0,0,-1,1280,1394,0,0
63,-370,0,0,0,0,0,0,0,0,0,-1,1287,1394,0,0
70,-370,0,0,0,0,0,0,0,0,0,-1,1294,1394,0,0
77,-370,0,0,0,0,0,0,0,0,0,-1,1301,1394,0,0
84,-370,0,0,0,0,0,0,0,0,0,-1,1308,1394,0,0
91,-370,0,0,0,0,0,0,0,0,0,-1,1315,1394,0,0
98,-370,0,0,0,0,0,0,0,0,0,-1,1322,1394,0,0
105,-370,0,0,0,0,0,0,0,0,0,-1,1329,1394,0,0
112,-370,0,0,0,0,0,0,0,0,0,-1,1336,1394,0,0
119,-370,0,0,0,0,0,0,0,0,0,-1,1343,1394,0,0
126,-370,0,0,0,0,0,0,0,0,0,-1,1350,1394,0,0
133,-370,0,0,0,0,0,0,0,0,0,-1,1357,1394,0,0
140,-370,0,0,0,0,0,0,0,0,0,-1,1364,1394,0,0
147,-370,0,0,0,0,0,0,0,0,0,-1,1371,1394,0,0
154,-370,0,0,0,0,0,0,0,0,0,-1,1378,1394,0,0
161,-370,0,0,0,0,0,0,0,0,0,-1,1385,1394,0,0
168,-370,0,0,0,0,0,0,0,0,0,-1,1392,1394,0,0
175,-370,0,0,0,0,0,0,0,0,0,-1,1399,1394,0,0
182,-370,0,0,0,0,0,0,0,0,0,-1,1406,1394,0,0
189,-370,0,0,0,0,0,0,0,0,0,-1,1413,1394,0,0
196,-370,0,0,0,0,0,0,0,0,0,-1,1420,1394,0,0
203,-370,0,0,0,0,0,0,0,0,0,-1,1427,1394,0,0
210,-370,0,0,0,0,0,0,0,0,0,-1,1434,1394,0,0
217,-370,0,0,0,0,0,0,0,0,0,-1,1441,1394,0,0
224,-370,0,0,0,0,0,0,0,0,0,-1,1448,1394,0,0
231,-370,0,0,0,0,0,0,0,0,0,-1,1455,1394,0,0
238,-370,0,0,0,0,0,0,0,0,0,-1,1462,1394,0,0
245,-370,0,0,0,0,0,0,0,0,0,-1,1469,1394,0,0
252,-370,0,0,0,0,0,0,0,0,0,-1,1476,1394,0,0
259,-370,0,0,0,0,0,0,0,0,0,-1,1483,1394,0,0
266,-370,0,0,0,0,0,0,0,0,0,-1,1490,1394,0,0
273,-370,0,0,0,0,0,0,0,0,0,-1,1497,1394,0,0
280,-370,0,0,0,0,0,0,0,0,0,-1,1504,1394,0,0
287,-370,0,0,0,0,0,0,0,0,0,-1,1511,1394,0,0
294,-370,0,0,0,0,0,0,0,0,0,-1,1518,1394,0,0
301,-370,0,0,0,0,0,0,0,0,0,-1,1525,1394,0,0
308,-370,0,0,0,0,0,0,0,0,0,-1,1532,1394,0,0
315,-370,0,0,0,0,0,0,0,0,0,-1,1539,1394,0,0
322,-370,0,0,0,0,0,0,0,0,0,-1,1546,1394,0,0
329,-370,0,0,0,0,0,0,0,0,0,-1,1553,1394,0,0
336,-370,0,0,0,0,0,0,0,0,0,-1,1560,1394,0,0
343,-370,0,0,0,0,0,0,0,0,0,-1,1567,1394,0,0
350,-370,0,0,0,0,0,0,0,0,0,-1,1574,1394,0,0
357,-370,0,0,0,0,0,0,0,0,0,-1,1581,1394,0,0
364,-370,0,0,0,0,0,0,0,0,0,-1,1588,1394,0,0
371,-370,0,0,0,0,0,0,0,0,0,-1,1595,1394,0,0
378,-370,0,0,0,0,0,0,0,0,0,-1,1602,1394,0,0
385,-370,0,0,0,0,0,0,0,0,0,-1,1609,1394,0,0
392,-370,0,0,0,0,0,0,0,0,0,-1,1616,1394,0,0
399,-370,0,0,0,0,0,0,0,0,0,-1,1623,1394,0,0
406,-370,0,0,0,0,0,0,0,0,0,-1,1630,1394,0,0
413,-370,0,0,0,0,0,0,0,0,0,-1,1637,1394,0,0
420,-370,0,0,0,0,0,0,0,0,0,-1,1644,1394,0,0
427,-370,0,0,0,0,0,0,0,0,0,-1,1651,1394,0,0
434,-370,0,0,0,0,0,0,0,0,0,-1,1658,1394,0,0
441,-370,0,0,0,0,0,0,0,0,0,-1,1665,1394,0,0
448,-370,0,0,0,0,0,0,0,0,0,-1,1672,1394,0,0
455,-370,0,0,0,0,0,0,0,0,0,-1,1679,1394,0,0
462,-370,0,0,0,0,0,0,0,0,0,-1,1686,1394,0,0
469,-370,0,0,0,0,0,0,0,0,0,-1,1693,1394,0,0
476,-370,0,0,0,0,0,0,0,0,0,-1,1700,1394,0,0
483,-370,0,0,0,0,0,0,0,0,0,-1,1707,1394,0,0
490,-370,0,0,0,0,0,0,0,0,0,-1,1714,1394,0,0
497,-370,0,0,0,0,0,0,0,0,0,-1,1721,1394,0,0
504,-370,0,0,0,0,0,0,0,0,0,-1,1728,1394,0,0
511,-370,0,0,0,0,0,0,0,0,0,-1,1735,1394,0,0
518,-370,0,0,0,0,0,0,0,0,0,-1,1742,1394,0,0
525,-370,0,0,0,0,0,0,0,0,0,-1,1749,1394,0,0
532,-370,0,0,0,0,0,0,0,0,0,-1,1756,1394,0,0
539,-370,0,0,0,0,0,0,0,0,0,-1,1763,1394,0,0
546,-370,60.9257,3.80493,0,0,0,0,0,0,0,-1,1770,1394,60.9256,-3.80494
553,-370,61.9966,2.87524,0,0,0,0,0,0,0,-1,1777,1394,61.9966,-2.8753
560,-370,63.1577,1.82617,0,0,0,0,0,0,0,-1,1784,1394,63.1578,-1.82617
567,-370,46.1089,3.11719,0,0,0,0,0,0,0,-1,1791,1394,46.1089,-3.1172
574,-370,38.8953,1.49353,0,0,0,0,0,0,0,-1,1798,1394,38.8952,-1.49348
581,-370,39.178,2.86145,0,0,0,0,0,0,0,-1,1805,1394,39.1779,-2.86145
588,-370,39.2102,4.27661,0,0,0,0,0,0,0,-1,1812,1394,39.2102,-4.27657
595,-370,25.793,4.5271,0,0,0,0,0,0,0,-1,1819,1394,25.793,-4.52711
602,-370,25.1077,5.34937,0,0,0,0,0,0,0,-1,1826,1394,25.1077,-5.34932
609,-370,16.712,0.993286,0,0,0,0,0,0,0,-1,1833,1394,16.7121,-0.99323
616,-370,16.7764,7.23315,0,0,0,0,0,0,0,-1,1840,1394,16.7764,-7.23313
623,-370,17.6625,8.94263,0,0,0,0,0,0,0,-1,1847,1394,17.6624,-8.94258
630,-370,20.9681,11.1785,0,0,0,0,0,0,0,-1,1854,1394,20.9681,-11.1784
637,-370,44.3738,22.4373,0,0,0,0,0,0,0,-1,1861,1394,44.3738,-22.4372
644,-370,44.3711,21.5876,-0.000386039,0.00014764,-0.000258979,0.000252652,-0.000491051,-1.18557,0.000436669,0.016041,1868,1394,44.3711,-21.5877
651,-370,44.3351,20.7408,-0.00012687,-1.09472e-05,-8.09662e-05,3.06658e-05,-0.000168483,-1.09605,0.000123816,0.0135906,1875,1394,44.3351,-20.7408
658,-370,44.2843,19.9321,0.000376056,5.00229e-05,-0.000172781,0.000450585,-2.45059e-05,-0.407235,0.000308883,0.0127375,1882,1394,44.2843,-19.9322
665,-370,44.2297,19.1017,0.00103454,0.000216642,-0.000450309,0.00123388,1.73007e-05,-0.416748,0.000816882,0.0143905,1889,1394,44.2297,-19.1017
672,-370,44.1635,18.2666,0.00183267,0.000501018,-0.000896708,0.00228372,4.99687e-05,-0.466049,0.0015061,0.0159958,1896,1394,44.1635,-18.2667
679,-370,44.1104,17.4185,0.00278361,0.000896752,-0.00151872,0.00362808,5.22829e-05,-0.507468,0.00240148,0.015014,1903,1394,44.1103,-17.4184
686,-370,44.058,16.5922,0.00390599,0.00142065,-0.00233509,0.00530848,1.81645e-05,-0.540872,0.00353295,0.0147358,1910,1394,44.058,-16.5921
693,-370,44.0176,15.696,0.00519597,0.00212874,-0.00336703,0.0073622,-3.74839e-05,-0.571697,0.00492068,0.0163182,1917,1394,44.0175,-15.6961
700,-370,44.0582,14.7437,0,0,0,0,0,0,0,-1,1924,1394,44.0582,-14.7437
707,-370,39.2391,11.5549,0,0,0,0,0,0,0,-1,1931,1394,39.2392,-11.555
714,-370,16.9116,5.93018,0,0,0,0,0,0,0,-1,1938,1394,16.9116,-5.93014
721,-370,17.2007,4.69153,0,0,0,0,0,0,0,-1,1945,1394,17.2007,-4.69158
728,-370,20.5315,-0.313354,0,0,0,0,0,0,0,-1,1952,1394,20.5315,0.313332
735,-370,22.3652,0.233398,0,0,0,0,0,0,0,-1,1959,1394,22.3652,-0.233355
742,-370,24.1989,0.780029,0,0,0,0,0,0,0,-1,1966,1394,24.1989,-0.780041
749,-370,0,0,0,0,0,0,0,0,0,-1,1973,1394,0,0
756,-370,0,0,0,0,0,0,0,0,0,-1,1980,1394,0,0
763,-370,0,0,0,0,0,0,0,0,0,-1,1987,1394,0,0
770,-370,0,0,0,0,0,0,0,0,0,-1,1994,1394,0,0
777,-370,0,0,0,0,0,0,0,0,0,-1,2001,1394,0,0
784,-370,0,0,0,0,0,0,0,0,0,-1,2008,1394,0,0
791,-370,0,0,0,0,0,0,0,0,0,-1,2015,1394,0,0
798,-370,0,0,0,0,0,0,0,0,0,-1,2022,1394,0,0
805,-370,0,0,0,0,0,0,0,0,0,-1,2029,1394,0,0
812,-370,0,0,0,0,0,0,0,0,0,-1,2036,1394,0,0
-700,-377,0,0,0,0,0,0,0,0,0,-1,524,1401,0,0
-693,-377,0,0,0,0,0,0,0,0,0,-1,531,1401,0,0
-686,-377,0,0,0,0,0,0,0,0,0,-1,538,1401,0,0
-679,-377,0,0,0,0,0,0,0,0,0,-1,545,1401,0,0
-672,-377,0,0,0,0,0,0,0,0,0,-1,552,1401,0,0
-665,-377,0,0,0,0,0,0,0,0,0,-1,559,1401,0,0
-658,-377,0,0,0,0,0,0,0,0,0,-1,566,1401,0,0
-651,-377,0,0,0,0,0,0,0,0,0,-1,573,1401,0,0
-644,-377,0,0,0,0,0,0,0,0,0,-1,580,1401,0,0
-637,-377,0,0,0,0,0,0,0,0,0,-1,587,1401,0,0
-630,-377,0,0,0,0,0,0,0,0,0,-1,594,1401,0,0
-623,-377,0,0,0,0,0,0,0,0,0,-1,601,1401,0,0
-616,-377,-9.43915,-2.4906,0,0,0,0,0,0,0,-1,608,1401,-9.43915,2.49062
-609,-377,-7.2821,-1.35278,0,0,0,0,0,0,0,-1,615,1401,-7.28208,1.35279
-602,-377,-14.9736,3.98279,0,0,0,0,0,0,0,-1,622,1401,-14.9737,-3.98276
-595,-377,-6.9082,1.18201,0,0,0,0,0,0,0,-1,629,1401,-6.90822,-1.18204
-588,-377,-12.8003,3.44751,0,0,0,0,0,0,0,-1,636,1401,-12.8003,-3.44754
-581,-377,-11.8243,6.21521,0,0,0,0,0,0,0,-1,643,1401,-11.8244,-6.21519
-574,-377,-12.2761,6.60547,0,0,0,0,0,0,0,-1,650,1401,-12.2761,-6.60552
-567,-377,-13.4844,7.41931,0,0,0,0,0,0,0,-1,657,1401,-13.4845,-7.41926
-560,-377,-26.0833,15.3845,0,0,0,0,0,0,0,-1,664,1401,-26.0833,-15.3845
-553,-377,-26.0521,16.4688,0.0046226,0.00340449,0.00282433,0.0069028,0.0011243,0.679201,0.00427665,0.0191359,671,1401,-26.0521,-16.4687
-546,-377,-26.0722,17.4368,0.00395549,0.00237178,0.00222436,0.00552473,0.000802531,0.614397,0.00344693,0.0172927,678,1401,-26.0722,-17.4368
-539,-377,-26.1036,18.2306,0.00355552,0.00160011,0.00183534,0.00465733,0.0004983,0.540662,0.00295283,0.0220817,685,1401,-26.1036,-18.2306
-532,-377,-26.1829,19.0646,0.00343148,0.0010734,0.00164642,0.00427749,0.000227388,0.474667,0.00277897,0.0212071,692,1401,-26.1829,-19.0645
-525,-377,-26.172,19.9937,0.00354926,0.000742995,0.00162551,0.00429346,-1.21421e-06,0.429346,0.00286271,0.0264441,699,1401,-26.172,-19.9936
-518,-377,-26.2493,20.8773,0.00389511,0.00057835,0.00174478,0.0046439,-0.000170441,0.40539,0.00315429,0.0174507,706,1401,-26.2493,-20.8774
-511,-377,-26.3015,21.7618,0.00450555,0.000641442,0.00203847,0.00538209,-0.000235096,0.406096,0.00366894,0.0124817,713,1401,-26.3015,-21.7618
-504,-377,-26.3646,22.6565,0.00546997,0.000960809,0.00256015,0.00662676,-0.000195989,0.42439,0.0044846,0.0170067,720,1401,-26.3646,-22.6565
-497,-377,-26.2119,23.585,0,0,0,0,0,0,0,-1,727,1401,-26.2119,-23.585
-490,-377,-8.88409,10.1245,0,0,0,0,0,0,0,-1,734,1401,-8.8841,-10.1245
-483,-377,-5.6524,5.07324,0,0,0,0,0,0,0,-1,741,1401,-5.6524,-5.07325
-476,-377,-6.11682,5.10535,0,0,0,0,0,0,0,-1,748,1401,-6.11681,-5.10537
-469,-377,-10.3211,1.9281,0,0,0,0,0,0,0,-1,755,1401,-10.3211,-1.92808
-462,-377,-9.2204,1.0022,0,0,0,0,0,0,0,-1,762,1401,-9.22039,-1.00218
-455,-377,-8.11969,0.0762939,0,0,0,0,0,0,0,-1,769,1401,-8.11968,-0.0762759
-448,-377,-9.05334,0.877319,0,0,0,0,0,0,0,-1,776,1401,-9.05332,-0.877324
-441,-377,-11.212,0.763428,0,0,0,0,0,0,0,-1,783,1401,-11.212,-0.763415
-434,-377,-11.0984,0.996216,0,0,0,0,0,0,0,-1,790,1401,-11.0984,-0.996265
-427,-377,-11.1733,1.25732,0,0,0,0,0,0,0,-1,797,1401,-11.1733,-1.25732
-420,-377,0,0,0,0,0,0,0,0,0,-1,804,1401,0,0
-413,-377,0,0,0,0,0,0,0,0,0,-1,811,1401,0,0
-406,-377,0,0,0,0,0,0,0,0,0,-1,818,1401,0,0
-399,-377,0,0,0,0,0,0,0,0,0,-1,825,1401,0,0
-392,-377,0,0,0,0,0,0,0,0,0,-1,832,1401,0,0
-385,-377,0,0,0,0,0,0,0,0,0,-1,839,1401,0,0
-378,-377,0,0,0,0,0,0,0,0,0,-1,846,1401,0,0
-371,-377,0,0,0,0,0,0,0,0,0,-1,853,1401,0,0
-364,-377,0,0,0,0,0,0,0,0,0,-1,860,1401,0,0
-357,-377,0,0,0,0,0,0,0,0,0,-1,867,1401,0,0
-350,-377,0,0,0,0,0,0,0,0,0,-1,874,1401,0,0
-343,-377,0,0,0,0,0,0,0,0,0,-1,881,1401,0,0
-336,-377,0,0,0,0,0,0,0,0,0,-1,888,1401,0,0
-329,-377,0,0,0,0,0,0,0,0,0,-1,895,1401,0,0
-322,-377,0,0,0,0,0,0,0,0,0,-1,902,1401,0,0
-315,-377,0,0,0,0,0,0,0,0,0,-1,909,1401,0,0
-308,-377,0,0,0,0,0,0,0,0,0,-1,916,1401,0,0
-301,-377,0,0,0,0,0,0,0,0,0,-1,923,1401,0,0
-294,-377,0,0,0,0,0,0,0,0,0,-1,930,1401,0,0
-287,-377,0,0,0,0,0,0,0,0,0,-1,937,1401,0,0
-280,-377,0,0,0,0,0,0,0,0,0,-1,944,1401,0,0
-273,-377,0,0,0,0,0,0,0,0,0,-1,951,1401,0,0
-266,-377,0,0,0,0,0,0,0,0,0,-1,958,1401,0,0
-259,-377,0,0,0,0,0,0,0,0,0,-1,965,1401,0,0
-252,-377,0,0,0,0,0,0,0,0,0,-1,972,1401,0,0
-245,-377,0,0,0,0,0,0,0,0,0,-1,979,1401,0,0
-238,-377,0,0,0,0,0,0,0,0,0,-1,986,1401,0,0
-231,-377,0,0,0,0,0,0,0,0,0,-1,993,1401,0,0
-224,-377,0,0,0,0,0,0,0,0,0,-1,1000,1401,0,0
-217,-377,0,0,0,0,0,0,0,0,0,-1,1007,1401,0,0
-210,-377,0,0,0,0,0,0,0,0,0,-1,1014,1401,0,0
-203,-377,0,0,0,0,0,0,0,0,0,-1,1021,1401,0,0
-196,-377,0,0,0,0,0,0,0,0,0,-1,1028,1401,0,0
-189,-377,0,0,0,0,0,0,0,0,0,-1,1035,1401,0,0
-182,-377,0,0,0,0,0,0,0,0,0,-1,1042,1401,0,0
-175,-377,0,0,0,0,0,0,0,0,0,-1,1049,1401,0,0
-168,-377,0,0,0,0,0,0,0,0,0,-1,1056,1401,0,0
-161,-377,0,0,0,0,0,0,0,0,0,-1,1063,1401,0,0
-154,-377,0,0,0,0,0,0,0,0,0,-1,1070,1401,0,0
-147,-377,0,0,0,0,0,0,0,0,0,-1,1077,1401,0,0
-140,-377,0,0,0,0,0,0,0,0,0,-1,1084,1401,0,0
-133,-377,0,0,0,0,0,0,0,0,0,-1,1091,1401,0,0
-126,-377,0,0,0,0,0,0,0,0,0,-1,1098,1401,0,0
-119,-377,0,0,0,0,0,0,0,0,0,-1,1105,1401,0,0
-112,-377,0,0,0,0,0,0,0,0,0,-1,1112,1401,0,0
-105,-377,0,0,0,0,0,0,0,0,0,-1,1119,1401,0,0
-98,-377,0,0,0,0,0,0,0,0,0,-1,1126,1401,0,0
-91,-377,0,0,0,0,0,0,0,0,0,-1,1133,1401,0,0
-84,-377,0,0,0,0,0,0,0,0,0,-1,1140,1401,0,0
-77,-377,0,0,0,0,0,0,0,0,0,-1,1147,1401,0,0
-70,-377,0,0,0,0,0,0,0,0,0,-1,1154,1401,0,0
-63,-377,0,0,0,0,0,0,0,0,0,-1,1161,1401,0,0
-56,-377,0,0,0,0,0,0,0,0,0,-1,1168,1401,0,0
-49,-377,0,0,0,0,0,0,0,0,0,-1,1175,1401,0,0
-42,-377,0,0,0,0,0,0,0,0,0,-1,1182,1401,0,0
-35,-377,0,0,0,0,0,0,0,0,0,-1,1189,1401,0,0
-28,-377,0,0,0,0,0,0,0,0,0,-1,1196,1401,0,0
-21,-377,0,0,0,0,0,0,0,0,0,-1,1203,1401,0,0
-14,-377,0,0,0,0,0,0,0,0,0,-1,1210,1401,0,0
-7,-377,0,0,0,0,0,0,0,0,0,-1,1217,1401,0,0
0,-377,0,0,0,0,0,0,0,0,0,-1,1224,1401,0,0
7,-377,0,0,0,0,0,0,0,0,0,-1,1231,1401,0,0
14,-377,0,0,0,0,0,0,0,0,0,-1,1238,1401,0,0
21,-377,0,0,0,0,0,0,0,0,0,-1,1245,1401,0,0
28,-377,0,0,0,0,0,0,0,0,0,-1,1252,1401,0,0
35,-377,0,0,0,0,0,0,0,0,0,-1,1259,1401,0,0
42,-377,0,0,0,0,0,0,0,0,0,-1,1266,1401,0,0
49,-377,0,0,0,0,0,0,0,0,0,-1,1273,1401,0,0
56,-377,0,0,0,0,0,0,0,0,0,-1,1280,1401,0,0
63,-377,0,0,0,0,0,0,0,0,0,-1,1287,1401,0,0
70,-377,0,0,0,0,0,0,0,0,0,-1,1294,1401,0,0
77,-377,0,0,0,0,0,0,0,0,0,-1,1301,1401,0,0
84,-377,0,0,0,0,0,0,0,0,0,-1,1308,1401,0,0
91,-377,0,0,0,0,0,0,0,0,0,-1,1315,1401,0,0
98,-377,0,0,0,0,0,0,0,0,0,-1,1322,1401,0,0
105,-377,0,0,0,0,0,0,0,0,0,-1,1329,1401,0,0
112,-377,0,0,0,0,0,0,0,0,0,-1,1336,1401,0,0
119,-377,0,0,0,0,0,0,0,0,0,-1,1343,1401,0,0
126,-377,0,0,0,0,0,0,0,0,0,-1,1350,1401,0,0
133,-377,0,0,0,0,0,0,0,0,0,-1,1357,1401,0,0
140,-377,0,0,0,0,0,0,0,0,0,-1,1364,1401,0,0
147,-377,0,0,0,0,0,0,0,0,0,-1,1371,1401,0,0
154,-377,0,0,0,0,0,0,0,0,0,-1,1378,1401,0,0
161,-377,0,0,0,0,0,0,0,0,0,-1,1385,1401,0,0
168,-377,0,0,0,0,0,0,0,0,0,-1,1392,1401,0,0
175,-377,0,0,0,0,0,0,0,0,0,-1,1399,1401,0,0
182,-377,0,0,0,0,0,0,0,0,0,-1,1406,1401,0,0
189,-377,0,0,0,0,0,0,0,0,0,-1,1413,1401,0,0
196,-377,0,0,0,0,0,0,0,0,0,-1,1420,1401,0,0
203,-377,0,0,0,0,0,0,0,0,0,-1,1427,1401,0,0
210,-377,0,0,0,0,0,0,0,0,0,-1,1434,1401,0,0
217,-377,0,0,0,0,0,0,0,0,0,-1,1441,1401,0,0
224,-377,0,0,0,0,0,0,0,0,0,-1,1448,1401,0,0
231,-377,0,0,0,0,0,0,0,0,0,-1,1455,1401,0,0
238,-377,0,0,0,0,0,0,0,0,0,-1,1462,1401,0,0
245,-377,0,0,0,0,0,0,0,0,0,-1,1469,1401,0,0
252,-377,0,0,0,0,0,0,0,0,0,-1,1476,1401,0,0
259,-377,0,0,0,0,0,0,0,0,0,-1,1483,1401,0,0
266,-377,0,0,0,0,0,0,0,0,0,-1,1490,1401,0,0
273,-377,0,0,0,0,0,0,0,0,0,-1,1497,1401,0,0
280,-377,0,0,0,0,0,0,0,0,0,-1,1504,1401,0,0
287,-377,0,0,0,0,0,0,0,0,0,-1,1511,1401,0,0
294,-377,0,0,0,0,0,0,0,0,0,-1,1518,1401,0,0
301,-377,0,0,0,0,0,0,0,0,0,-1,1525,1401,0,0
308,-377,0,0,0,0,0,0,0,0,0,-1,1532,1401,0,0
315,-377,0,0,0,0,0,0,0,0,0,-1,1539,1401,0,0
322,-377,0,0,0,0,0,0,0,0,0,-1,1546,1401,0,0
329,-377,0,0,0,0,0,0,0,0,0,-1,1553,1401,0,0
336,-377,0,0,0,0,0,0,0,0,0,-1,1560,1401,0,0
343,-377,0,0,0,0,0,0,0,0,0,-1,1567,1401,0,0
350,-377,0,0,0,0,0,0,0,0,0,-1,1574,1401,0,0
357,-377,0,0,0,0,0,0,0,0,0,-1,1581,1401,0,0
364,-377,0,0,0,0,0,0,0,0,0,-1,1588,1401,0,0
371,-377,0,0,0,0,0,0,0,0,0,-1,1595,1401,0,0
378,-377,0,0,0,0,0,0,0,0,0,-1,1602,1401,0,0
385,-377,0,0,0,0,0,0,0,0,0,-1,1609,1401,0,0
392,-377,0,0,0,0,0,0,0,0,0,-1,1616,1401,0,0
399,-377,0,0,0,0,0,0,0,0,0,-1,1623,1401,0,0
406,-377,0,0,0,0,0,0,0,0,0,-1,1630,1401,0,0
413,-377,0,0,0,0,0,0,0,0,0,-1,1637,1401,0,0
420,-377,0,0,0,0,0,0,0,0,0,-1,1644,1401,0,0
427,-377,0,0,0,0,0,0,0,0,0,-1,1651,1401,0,0
434,-377,0,0,0,0,0,0,0,0,0,-1,1658,1401,0,0
441,-377,0,0,0,0,0,0,0,0,0,-1,1665,1401,0,0
448,-377,0,0,0,0,0,0,0,0,0,-1,1672,1401,0,0
455,-377,0,0,0,0,0,0,0,0,0,-1,1679,1401,0,0
462,-377,0,0,0,0,0,0,0,0,0,-1,1686,1401,0,0
469,-377,0,0,0,0,0,0,0,0,0,-1,1693,1401,0,0
476,-377,0,0,0,0,0,0,0,0,0,-1,1700,1401,0,0
483,-377,0,0,0,0,0,0,0,0,0,-1,1707,1401,0,0
490,-377,0,0,0,0,0,0,0,0,0,-1,1714,1401,0,0
497,-377,0,0,0,0,0,0,0,0,0,-1,1721,1401,0,0
504,-377,0,0,0,0,0,0,0,0,0,-1,1728,1401,0,0
511,-377,0,0,0,0,0,0,0,0,0,-1,1735,1401,0,0
518,-377,0,0,0,0,0,0,0,0,0,-1,1742,1401,0,0
525,-377,0,0,0,0,0,0,0,0,0,-1,1749,1401,0,0
532,-377,0,0,0,0,0,0,0,0,0,-1,1756,1401,0,0
539,-377,0,0,0,0,0,0,0,0,0,-1,1763,1401,0,0
546,-377,27.8485,2.34094,0,0,0,0,0,0,0,-1,1770,1401,27.8486,-2.34091
553,-377,61.8907,2.39148,0,0,0,0,0,0,0,-1,1777,1401,61.8908,-2.39149
560,-377,38.3577,-2.15015,0,0,0,0,0,0,0,-1,1784,1401,38.3576,2.1501
567,-377,38.4889,-0.285645,0,0,0,0,0,0,0,-1,1791,1401,38.4889,0.2857
574,-377,38.6221,1.61694,0,0,0,0,0,0,0,-1,1798,1401,38.6221,-1.61689
581,-377,39.1818,3.76367,0,0,0,0,0,0,0,-1,1805,1401,39.1818,-3.76366
588,-377,25.882,4.35217,0,0,0,0,0,0,0,-1,1812,1401,25.8819,-4.3522
595,-377,25.5392,5.11804,0,0,0,0,0,0,0,-1,1819,1401,25.5392,-5.11808
602,-377,24.816,5.79126,0,0,0,0,0,0,0,-1,1826,1401,24.816,-5.79124
609,-377,15.0223,4.76135,0,0,0,0,0,0,0,-1,1833,1401,15.0224,-4.76129
616,-377,14.1842,5.78992,0,0,0,0,0,0,0,-1,1840,1401,14.1842,-5.78987
623,-377,15.8248,8.76721,0,0,0,0,0,0,0,-1,1847,1401,15.8248,-8.76725
630,-377,37.4343,20.0704,0,0,0,0,0,0,0,-1,1854,1401,37.4344,-20.0704
637,-377,43.5663,22.5033,0,0,0,0,0,0,0,-1,1861,1401,43.5663,-22.5034
644,-377,43.5363,21.6334,-0.000282517,8.74833e-05,-0.000134717,0.000131336,-0.00032637,-1.2561,0.000272136,0.0145334,1868,1401,43.5362,-21.6334
651,-377,43.4908,20.7748,8.21922e-05,2.51378e-05,-9.96933e-05,0.00015736,-5.00296e-05,-0.646047,0.000124967,0.0148542,1875,1401,43.4909,-20.7748
658,-377,43.4336,19.9569,0.000661114,0.000131772,-0.000287501,0.000787221,5.66518e-06,-0.41336,0.000522936,0.01532,1882,1401,43.4336,-19.9569
665,-377,43.3882,19.1193,0.00139267,0.000343127,-0.000643682,0.00169838,3.74083e-05,-0.443409,0.00111999,0.0193778,1889,1401,43.3882,-19.1193
672,-377,43.3265,18.2928,0.00229022,0.000662171,-0.00117631,0.0029067,4.56903e-05,-0.482725,0.00192275,0.019643,1896,1401,43.3265,-18.2929
679,-377,43.2388,17.4669,0.00336506,0.00109456,-0.00190001,0.00444314,1.64786e-05,-0.51611,0.00295661,0.0182731,1903,1401,43.2388,-17.4669
686,-377,43.2039,16.6484,0.00464951,0.00164459,-0.00284191,0.00636167,-6.75751e-05,-0.542235,0.00426382,0.0158965,1910,1401,43.2038,-16.6485
693,-377,43.3027,15.7361,0.00614801,0.00239954,-0.00404577,0.00873259,-0.000185042,-0.568486,0.00588438,0.0297164,1917,1401,43.3027,-15.7361
700,-377,43.5664,14.6553,0,0,0,0,0,0,0,-1,1924,1401,43.5664,-14.6552
707,-377,28.6234,9.18152,0,0,0,0,0,0,0,-1,1931,1401,28.6234,-9.18151
714,-377,16.5369,5.45959,0,0,0,0,0,0,0,-1,1938,1401,16.5369,-5.4596
721,-377,17.0913,5.42529,0,0,0,0,0,0,0,-1,1945,1401,17.0914,-5.42529
728,-377,14.5396,2.79724,0,0,0,0,0,0,0,-1,1952,1401,14.5396,-2.7972
735,-377,23.2977,-0.991089,0,0,0,0,0,0,0,-1,1959,1401,23.2978,0.991076
742,-377,0,0,0,0,0,0,0,0,0,-1,1966,1401,0,0
749,-377,0,0,0,0,0,0,0,0,0,-1,1973,1401,0,0
756,-377,0,0,0,0,0,0,0,0,0,-1,1980,1401,0,0
763,-377,0,0,0,0,0,0,0,0,0,-1,1987,1401,0,0
770,-377,0,0,0,0,0,0,0,0,0,-1,1994,1401,0,0
777,-377,0,0,0,0,0,0,0,0,0,-1,2001,1401,0,0
784,-377,0,0,0,0,0,0,0,0,0,-1,2008,1401,0,0
791,-377,0,0,0,0,0,0,0,0,0,-1,2015,1401,0,0
798,-377,0,0,0,0,0,0,0,0,0,-1,2022,1401,0,0
805,-377,0,0,0,0,0,0,0,0,0,-1,2029,1401,0,0
812,-377,0,0,0,0,0,0,0,0,0,-1,2036,1401,0,0
-700,-384,0,0,0,0,0,0,0,0,0,-1,524,1408,0,0
-693,-384,0,0,0,0,0,0,0,0,0,-1,531,1408,0,0
-686,-384,0,0,0,0,0,0,0,0,0,-1,538,1408,0,0
-679,-384,0,0,0,0,0,0,0,0,0,-1,545,1408,0,0
-672,-384,0,0,0,0,0,0,0,0,0,-1,552,1408,0,0
-665,-384,0,0,0,0,0,0,0,0,0,-1,559,1408,0,0
-658,-384,0,0,0,0,0,0,0,0,0,-1,566,1408,0,0
-651,-384,0,0,0,0,0,0,0,0,0,-1,573,1408,0,0
-644,-384,0,0,0,0,0,0,0,0,0,-1,580,1408,0,0
-637,-384,0,0,0,0,0,0,0,0,0,-1,587,1408,0,0
-630,-384,0,0,0,0,0,0,0,0,0,-1,594,1408,0,0
-623,-384,0,0,0,0,0,0,0,0,0,-1,601,1408,0,0
-616,-384,-10.019,-3.36646,0,0,0,0,0,0,0,-1,608,1408,-10.019,3.36648
-609,-384,-7.72357,-2.3418,0,0,0,0,0,0,0,-1,615,1408,-7.72358,2.34182
-602,-384,-11.7632,-2.85156,0,0,0,0,0,0,0,-1,622,1408,-11.7632,2.85157
-595,-384,-10.2217,2.8855,0,0,0,0,0,0,0,-1,629,1408,-10.2218,-2.88548
-588,-384,-12.1653,2.29041,0,0,0,0,0,0,0,-1,636,1408,-12.1654,-2.29038
-581,-384,-11.9297,3.60376,0,0,0,0,0,0,0,-1,643,1408,-11.9298,-3.6038
-574,-384,-11.8677,6.02722,0,0,0,0,0,0,0,-1,650,1408,-11.8677,-6.02722
-567,-384,-12.0743,7.04639,0,0,0,0,0,0,0,-1,657,1408,-12.0743,-7.04641
-560,-384,-19.9478,11.6345,0,0,0,0,0,0,0,-1,664,1408,-19.9478,-11.6345
-553,-384,-25.1487,16.5707,0,0,0,0,0,0,0,-1,671,1408,-25.1488,-16.5707
-546,-384,-25.2197,17.4803,0.00424206,0.00275254,0.00254156,0.00614573,0.000848867,0.642872,0.00384556,0.0158124,678,1408,-25.2196,-17.4804
-539,-384,-25.2884,18.3077,0.00361116,0.00190695,0.00200941,0.00494167,0.000576435,0.584862,0.0031201,0.0168375,685,1408,-25.2884,-18.3078
-532,-384,-25.2925,19.1005,0.0032866,0.00129513,0.00167636,0.00424066,0.000341076,0.517406,0.00272055,0.0233181,692,1408,-25.2925,-19.1005
-525,-384,-25.3105,20.0537,0.00324497,0.000915279,0.00153932,0.00401051,0.00014974,0.461502,0.00262518,0.0235503,699,1408,-25.3105,-20.0537
-518,-384,-25.3876,20.9501,0.00343867,0.000683547,0.00154248,0.00412917,-6.96001e-06,0.420908,0.0027551,0.0139534,706,1408,-25.3877,-20.9501
-511,-384,-25.458,21.8303,0.00388464,0.00066088,0.00170497,0.00461905,-7.3533e-05,0.406729,0.00310417,0.0113152,713,1408,-25.458,-21.8303
-504,-384,-25.4879,22.7048,0.00463296,0.000848695,0.00206801,0.00554383,-6.21774e-05,0.414891,0.00371679,0.0129625,720,1408,-25.4878,-22.7048
-497,-384,-25.4711,23.5918,0.00565114,0.00119383,0.00259592,0.00684385,1.12015e-06,0.430688,0.00456219,0.0434596,727,1408,-25.4711,-23.5918
-490,-384,-25.3258,24.5962,0,0,0,0,0,0,0,-1,734,1408,-25.3258,-24.5962
-483,-384,-6.26471,7.61194,0,0,0,0,0,0,0,-1,741,1408,-6.26469,-7.61191
-476,-384,-6.02734,5.67761,0,0,0,0,0,0,0,-1,748,1408,-6.02736,-5.6776
-469,-384,-10.206,2.63721,0,0,0,0,0,0,0,-1,755,1408,-10.206,-2.6372
-462,-384,-9.04291,1.43542,0,0,0,0,0,0,0,-1,762,1408,-9.04293,-1.43545
-455,-384,-7.87988,0.233765,0,0,0,0,0,0,0,-1,769,1408,-7.87986,-0.233709
-448,-384,-9.35529,7.19226,0,0,0,0,0,0,0,-1,776,1408,-9.35531,-7.19226
-441,-384,-10.4697,1.79004,0,0,0,0,0,0,0,-1,783,1408,-10.4697,-1.79003
-434,-384,-10.6449,0.552246,0,0,0,0,0,0,0,-1,790,1408,-10.6449,-0.552216
-427,-384,-10.968,1.10583,0,0,0,0,0,0,0,-1,797,1408,-10.968,-1.10588
-420,-384,-12.5607,4.54858,0,0,0,0,0,0,0,-1,804,1408,-12.5607,-4.54859
-413,-384,0,0,0,0,0,0,0,0,0,-1,811,1408,0,0
-406,-384,0,0,0,0,0,0,0,0,0,-1,818,1408,0,0
-399,-384,0,0,0,0,0,0,0,0,0,-1,825,1408,0,0
-392,-384,0,0,0,0,0,0,0,0,0,-1,832,1408,0,0
-385,-384,0,0,0,0,0,0,0,0,0,-1,839,1408,0,0
-378,-384,0,0,0,0,0,0,0,0,0,-1,846,1408,0,0
-371,-384,0,0,0,0,0,0,0,0,0,-1,853,1408,0,0
-364,-384,0,0,0,0,0,0,0,0,0,-1,860,1408,0,0
-357,-384,0,0,0,0,0,0,0,0,0,-1,867,1408,0,0
-350,-384,0,0,0,0,0,0,0,0,0,-1,874,1408,0,0
-343,-384,0,0,0,0,0,0,0,0,0,-1,881,1408,0,0
-336,-384,0,0,0,0,0,0,0,0,0,-1,888,1408,0,0
-329,-384,0,0,0,0,0,0,0,0,0,-1,895,1408,0,0
-322,-384,0,0,0,0,0,0,0,0,0,-1,902,1408,0,0
-315,-384,0,0,0,0,0,0,0,0,0,-1,909,1408,0,0
-308,-384,0,0,0,0,0,0,0,0,0,-1,916,1408,0,0
-301,-384,0,0,0,0,0,0,0,0,0,-1,923,1408,0,0
-294,-384,0,0,0,0,0,0,0,0,0,-1,930,1408,0,0
-287,-384,0,0,0,0,0,0,0,0,0,-1,937,1408,0,0
-280,-384,0,0,0,0,0,0,0,0,0,-1,944,1408,0,0
-273,-384,0,0,0,0,0,0,0,0,0,-1,951,1408,0,0
-266,-384,0,0,0,0,0,0,0,0,0,-1,958,1408,0,0
-259,-384,0,0,0,0,0,0,0,0,0,-1,965,1408,0,0
-252,-384,0,0,0,0,0,0,0,0,0,-1,972,1408,0,0
-245,-384,0,0,0,0,0,0,0,0,0,-1,979,1408,0,0
-238,-384,0,0,0,0,0,0,0,0,0,-1,986,1408,0,0
-231,-384,0,0,0,0,0,0,0,0,0,-1,993,1408,0,0
-224,-384,0,0,0,0,0,0,0,0,0,-1,1000,1408,0,0
-217,-384,0,0,0,0,0,0,0,0,0,-1,1007,1408,0,0
-210,-384,0,0,0,0,0,0,0,0,0,-1,1014,1408,0,0
-203,-384,0,0,0,0,0,0,0,0,0,-1,1021,1408,0,0
-196,-384,0,0,0,0,0,0,0,0,0,-1,1028,1408,0,0
-189,-384,0,0,0,0,0,0,0,0,0,-1,1035,1408,0,0
-182,-384,0,0,0,0,0,0,0,0,0,-1,1042,1408,0,0
-175,-384,0,0,0,0,0,0,0,0,0,-1,1049,1408,0,0
-168,-384,0,0,0,0,0,0,0,0,0,-1,1056,1408,0,0
-161,-384,0,0,0,0,0,0,0,0,0,-1,1063,1408,0,0
-154,-384,0,0,0,0,0,0,0,0,0,-1,1070,1408,0,0
-147,-384,0,0,0,0,0,0,0,0,0,-1,1077,1408,0,0
-140,-384,0,0,0,0,0,0,0,0,0,-1,1084,1408,0,0
-133,-384,0,0,0,0,0,0,0,0,0,-1,1091,1408,0,0
-126,-384,0,0,0,0,0,0,0,0,0,-1,1098,1408,0,0
-119,-384,0,0,0,0,0,0,0,0,0,-1,1105,1408,0,0
-112,-384,0,0,0,0,0,0,0,0,0,-1,1112,1408,0,0
-105,-384,0,0,0,0,0,0,0,0,0,-1,1119,1408,0,0
-98,-384,0,0,0,0,0,0,0,0,0,-1,1126,1408,0,0
-91,-384,0,0,0,0,0,0,0,0,0,-1,1133,1408,0,0
-84,-384,0,0,0,0,0,0,0,0,0,-1,1140,1408,0,0
-77,-384,0,0,0,0,0,0,0,0,0,-1,1147,1408,0,0
-70,-384,0,0,0,0,0,0,0,0,0,-1,1154,1408,0,0
-63,-384,0,0,0,0,0,0,0,0,0,-1,1161,1408,0,0
-56,-384,0,0,0,0,0,0,0,0,0,-1,1168,1408,0,0
-49,-384,0,0,0,0,0,0,0,0,0,-1,1175,1408,0,0
-42,-384,0,0,0,0,0,0,0,0,0,-1,1182,1408,0,0
-35,-384,0,0,0,0,0,0,0,0,0,-1,1189,1408,0,0
-28,-384,0,0,0,0,0,0,0,0,0,-1,1196,1408,0,0
-21,-384,0,0,0,0,0,0,0,0,0,-1,1203,1408,0,0
-14,-384,0,0,0,0,0,0,0,0,0,-1,1210,1408,0,0
-7,-384,0,0,0,0,0,0,0,0,0,-1,1217,1408,0,0
0,-384,0,0,0,0,0,0,0,0,0,-1,1224,1408,0,0
7,-384,0,0,0,0,0,0,0,0,0,-1,1231,1408,0,0
14,-384,0,0,0,0,0,0,0,0,0,-1,1238,1408,0,0
21,-384,0,0,0,0,0,0,0,0,0,-1,1245,1408,0,0
28,-384,0,0,0,0,0,0,0,0,0,-1,1252,1408,0,0
35,-384,0,0,0,0,0,0,0,0,0,-1,1259,1408,0,0
42,-384,0,0,0,0,0,0,0,0,0,-1,1266,1408,0,0
49,-384,0,0,0,0,0,0,0,0,0,-1,1273,1408,0,0
56,-384,0,0,0,0,0,0,0,0,0,-1,1280,1408,0,0
63,-384,0,0,0,0,0,0,0,0,0,-1,1287,1408,0,0
70,-384,0,0,0,0,0,0,0,0,0,-1,1294,1408,0,0
77,-384,0,0,0,0,0,0,0,0,0,-1,1301,1408,0,0
84,-384,0,0,0,0,0,0,0,0,0,-1,1308,1408,0,0
91,-384,0,0,0,0,0,0,0,0,0,-1,1315,1408,0,0
98,-384,0,0,0,0,0,0,0,0,0,-1,1322,1408,0,0
105,-384,0,0,0,0,0,0,0,0,0,-1,1329,1408,0,0
112,-384,0,0,0,0,0,0,0,0,0,-1,1336,1408,0,0
119,-384,0,0,0,0,0,0,0,0,0,-1,1343,1408,0,0
126,-384,0,0,0,0,0,0,0,0,0,-1,1350,1408,0,0
133,-384,0,0,0,0,0,0,0,0,0,-1,1357,1408,0,0
140,-384,0,0,0,0,0,0,0,0,0,-1,1364,1408,0,0
147,-384,0,0,0,0,0,0,0,0,0,-1,1371,1408,0,0
154,-384,0,0,0,0,0,0,0,0,0,-1,1378,1408,0,0
161,-384,0,0,0,0,0,0,0,0,0,-1,1385,1408,0,0
168,-384,0,0,0,0,0,0,0,0,0,-1,1392,1408,0,0
175,-384,0,0,0,0,0,0,0,0,0,-1,1399,1408,0,0
182,-384,0,0,0,0,0,0,0,0,0,-1,1406,1408,0,0
189,-384,0,0,0,0,0,0,0,0,0,-1,1413,1408,0,0
196,-384,0,0,0,0,0,0,0,0,0,-1,1420,1408,0,0
203,-384,0,0,0,0,0,0,0,0,0,-1,1427,1408,0,0
210,-384,0,0,0,0,0,0,0,0,0,-1,1434,1408,0,0
217,-384,0,0,0,0,0,0,0,0,0,-1,1441,1408,0,0
224,-384,0,0,0,0,0,0,0,0,0,-1,1448,1408,0,0
231,-384,0,0,0,0,0,0,0,0,0,-1,1455,1408,0,0
238,-384,0,0,0,0,0,0,0,0,0,-1,1462,1408,0,0
245,-384,0,0,0,0,0,0,0,0,0,-1,1469,1408,0,0
252,-384,0,0,0,0,0,0,0,0,0,-1,1476,1408,0,0
259,-384,0,0,0,0,0,0,0,0,0,-1,1483,1408,0,0
266,-384,0,0,0,0,0,0,0,0,0,-1,1490,1408,0,0
273,-384,0,0,0,0,0,0,0,0,0,-1,1497,1408,0,0
280,-384,0,0,0,0,0,0,0,0,0,-1,1504,1408,0,0
287,-384,0,0,0,0,0,0,0,0,0,-1,1511,1408,0,0
294,-384,0,0,0,0,0,0,0,0,0,-1,1518,1408,0,0
301,-384,0,0,0,0,0,0,0,0,0,-1,1525,1408,0,0
308,-384,0,0,0,0,0,0,0,0,0,-1,1532,1408,0,0
315,-384,0,0,0,0,0,0,0,0,0,-1,1539,1408,0,0
322,-384,0,0,0,0,0,0,0,0,0,-1,1546,1408,0,0
329,-384,0,0,0,0,0,0,0,0,0,-1,1553,1408,0,0
336,-384,0,0,0,0,0,0,0,0,0,-1,1560,1408,0,0
343,-384,0,0,0,0,0,0,0,0,0,-1,1567,1408,0,0
350,-384,0,0,0,0,0,0,0,0,0,-1,1574,1408,0,0
357,-384,0,0,0,0,0,0,0,0,0,-1,1581,1408,0,0
364,-384,0,0,0,0,0,0,0,0,0,-1,1588,1408,0,0
371,-384,0,0,0,0,0,0,0,0,0,-1,1595,1408,0,0
378,-384,0,0,0,0,0,0,0,0,0,-1,1602,1408,0,0
385,-384,0,0,0,0,0,0,0,0,0,-1,1609,1408,0,0
392,-384,0,0,0,0,0,0,0,0,0,-1,1616,1408,0,0
399,-384,0,0,0,0,0,0,0,0,0,-1,1623,1408,0,0
406,-384,0,0,0,0,0,0,0,0,0,-1,1630,1408,0,0
413,-384,0,0,0,0,0,0,0,0,0,-1,1637,1408,0,0
420,-384,0,0,0,0,0,0,0,0,0,-1,1644,1408,0,0
427,-384,0,0,0,0,0,0,0,0,0,-1,1651,1408,0,0
434,-384,0,0,0,0,0,0,0,0,0,-1,1658,1408,0,0
441,-384,0,0,0,0,0,0,0,0,0,-1,1665,1408,0,0
448,-384,0,0,0,0,0,0,0,0,0,-1,1672,1408,0,0
455,-384,0,0,0,0,0,0,0,0,0,-1,1679,1408,0,0
462,-384,0,0,0,0,0,0,0,0,0,-1,1686,1408,0,0
469,-384,0,0,0,0,0,0,0,0,0,-1,1693,1408,0,0
476,-384,0,0,0,0,0,0,0,0,0,-1,1700,1408,0,0
483,-384,0,0,0,0,0,0,0,0,0,-1,1707,1408,0,0
490,-384,0,0,0,0,0,0,0,0,0,-1,1714,1408,0,0
497,-384,0,0,0,0,0,0,0,0,0,-1,1721,1408,0,0
504,-384,0,0,0,0,0,0,0,0,0,-1,1728,1408,0,0
511,-384,0,0,0,0,0,0,0,0,0,-1,1735,1408,0,0
518,-384,0,0,0,0,0,0,0,0,0,-1,1742,1408,0,0
525,-384,0,0,0,0,0,0,0,0,0,-1,1749,1408,0,0
532,-384,0,0,0,0,0,0,0,0,0,-1,1756,1408,0,0
539,-384,27.6886,2.85803,0,0,0,0,0,0,0,-1,1763,1408,27.6886,-2.85807
546,-384,27.5044,2.9425,0,0,0,0,0,0,0,-1,1770,1408,27.5044,-2.94255
553,-384,27.3052,2.78394,0,0,0,0,0,0,0,-1,1777,1408,27.3051,-2.78394
560,-384,26.833,3.19812,0,0,0,0,0,0,0,-1,1784,1408,26.833,-3.19816
567,-384,38.2566,0.109985,0,0,0,0,0,0,0,-1,1791,1408,38.2566,-0.110044
574,-384,38.4003,2.05945,0,0,0,0,0,0,0,-1,1798,1408,38.4003,-2.05949
581,-384,25.819,3.91846,0,0,0,0,0,0,0,-1,1805,1408,25.8189,-3.91848
588,-384,23.3721,4.25439,0,0,0,0,0,0,0,-1,1812,1408,23.3721,-4.25442
595,-384,24.981,5.59595,0,0,0,0,0,0,0,-1,1819,1408,24.981,-5.59598
602,-384,20.6605,4.17261,0,0,0,0,0,0,0,-1,1826,1408,20.6606,-4.17265
609,-384,14.158,5.49475,0,0,0,0,0,0,0,-1,1833,1408,14.158,-5.49474
616,-384,14.7997,7.6908,0,0,0,0,0,0,0,-1,1840,1408,14.7996,-7.69079
623,-384,16.4293,9.58899,0,0,0,0,0,0,0,-1,1847,1408,16.4294,-9.58901
630,-384,42.6545,23.49,0,0,0,0,0,0,0,-1,1854,1408,42.6545,-23.49
637,-384,42.6903,22.5696,-0.000118126,0.000195486,-0.000294504,0.000372327,-0.000294967,-1.03003,0.000386125,0.0263445,1861,1408,42.6903,-22.5696
644,-384,42.6284,21.7194,2.91222e-05,7.97669e-05,-0.000131101,0.000187969,-7.90796e-05,-0.880799,0.000158395,0.0175477,1868,1408,42.6284,-21.7194
651,-384,42.5817,20.8296,0.000439961,8.30026e-05,-0.000200122,0.00052963,-6.66658e-06,-0.42125,0.00035533,0.0166196,1875,1408,42.5816,-20.8296
658,-384,42.5404,19.9917,0.00104175,0.000214135,-0.000456019,0.00124372,1.2158e-05,-0.416945,0.000825126,0.0168501,1882,1408,42.5405,-19.9917
665,-384,42.5355,19.1935,0.00181399,0.000467601,-0.000887313,0.00225458,2.70105e-05,-0.460879,0.00149413,0.0195432,1889,1408,42.5356,-19.1935
672,-384,42.4841,18.3413,0.00276788,0.000829741,-0.00150279,0.00358695,1.06654e-05,-0.499026,0.00238776,0.0173161,1896,1408,42.4842,-18.3413
679,-384,42.4132,17.491,0.00391801,0.00130602,-0.0023256,0.00527923,-5.51997e-05,-0.529555,0.00353803,0.0164133,1903,1408,42.4132,-17.491
686,-384,42.3583,16.6627,0.0052983,0.00188962,-0.0033889,0.0073873,-0.000199378,-0.552408,0.00499265,0.0153142,1910,1408,42.3583,-16.6627
693,-384,42.5422,15.6841,0,0,0,0,0,0,0,-1,1917,1408,42.5423,-15.684
700,-384,41.9762,14.4678,0,0,0,0,0,0,0,-1,1924,1408,41.9762,-14.4678
707,-384,17.0566,6.62842,0,0,0,0,0,0,0,-1,1931,1408,17.0567,-6.62848
714,-384,16.038,5.0282,0,0,0,0,0,0,0,-1,1938,1408,16.038,-5.02819
721,-384,13.8843,2.8717,0,0,0,0,0,0,0,-1,1945,1408,13.8843,-2.87171
728,-384,15.4409,6.25745,0,0,0,0,0,0,0,-1,1952,1408,15.4409,-6.2574
735,-384,16.7598,6.71289,0,0,0,0,0,0,0,-1,1959,1408,16.7598,-6.71287
742,-384,0,0,0,0,0,0,0,0,0,-1,1966,1408,0,0
749,-384,0,0,0,0,0,0,0,0,0,-1,1973,1408,0,0
756,-384,0,0,0,0,0,0,0,0,0,-1,1980,1408,0,0
763,-384,0,0,0,0,0,0,0,0,0,-1,1987,1408,0,0
770,-384,0,0,0,0,0,0,0,0,0,-1,1994,1408,0,0
777,-384,0,0,0,0,0,0,0,0,0,-1,2001,1408,0,0
784,-384,0,0,0,0,0,0,0,0,0,-1,2008,1408,0,0
791,-384,0,0,0,0,0,0,0,0,0,-1,2015,1408,0,0
798,-384,0,0,0,0,0,0,0,0,0,-1,2022,1408,0,0
805,-384,0,0,0,0,0,0,0,0,0,-1,2029,1408,0,0
812,-384,0,0,0,0,0,0,0,0,0,-1,2036,1408,0,0
-700,-391,0,0,0,0,0,0,0,0,0,-1,524,1415,0,0
-693,-391,0,0,0,0,0,0,0,0,0,-1,531,1415,0,0
-686,-391,0,0,0,0,0,0,0,0,0,-1,538,1415,0,0
-679,-391,0,0,0,0,0,0,0,0,0,-1,545,1415,0,0
-672,-391,0,0,0,0,0,0,0,0,0,-1,552,1415,0,0
-665,-391,0,0,0,0,0,0,0,0,0,-1,559,1415,0,0
-658,-391,0,0,0,0,0,0,0,0,0,-1,566,1415,0,0
-651,-391,0,0,0,0,0,0,0,0,0,-1,573,1415,0,0
-644,-391,0,0,0,0,0,0,0,0,0,-1,580,1415,0,0
-637,-391,0,0,0,0,0,0,0,0,0,-1,587,1415,0,0
-630,-391,0,0,0,0,0,0,0,0,0,-1,594,1415,0,0
-623,-391,0,0,0,0,0,0,0,0,0,-1,601,1415,0,0
-616,-391,0,0,0,0,0,0,0,0,0,-1,608,1415,0,0
-609,-391,-7.71753,-3.69763,0,0,0,0,0,0,0,-1,615,1415,-7.71751,3.69759
-602,-391,-13.9493,-4.12805,0,0,0,0,0,0,0,-1,622,1415,-13.9493,4.12803
-595,-391,-10.8315,1.76172,0,0,0,0,0,0,0,-1,629,1415,-10.8315,-1.76171
-588,-391,-10.265,2.16431,0,0,0,0,0,0,0,-1,636,1415,-10.265,-2.16431
-581,-391,-11.3325,2.44836,0,0,0,0,0,0,0,-1,643,1415,-11.3325,-2.44842
-574,-391,-11.1471,6.19983,0,0,0,0,0,0,0,-1,650,1415,-11.1471,-6.19981
-567,-391,-11.5172,6.82458,0,0,0,0,0,0,0,-1,657,1415,-11.5171,-6.82454
-560,-391,-11.2459,7.37195,0,0,0,0,0,0,0,-1,664,1415,-11.2459,-7.37191
-553,-391,-24.4634,16.5081,0,0,0,0,0,0,0,-1,671,1415,-24.4634,-16.5081
-546,-391,-24.3813,17.4814,0.00473154,0.00336888,0.00307883,0.00720353,0.000896893,0.676506,0.00453306,0.0221594,678,1415,-24.3813,-17.4814
-539,-391,-24.3486,18.3949,0.00383695,0.00239547,0.00237388,0.0055971,0.00063533,0.638014,0.00353868,0.0139224,685,1415,-24.3486,-18.3949
-532,-391,-24.38,19.2496,0.00328392,0.00163997,0.00186843,0.00450319,0.000420702,0.578175,0.00287218,0.0250373,692,1415,-24.38,-19.2496
-525,-391,-24.4441,20.1547,0.00306529,0.00117344,0.00159651,0.00397506,0.000263672,0.517956,0.00256667,0.0235695,699,1415,-24.4441,-20.1546
-518,-391,-24.5345,21.0173,0.00308555,0.000857589,0.00147443,0.00381951,0.000123628,0.461881,0.00250615,0.0145197,706,1415,-24.5345,-21.0173
-511,-391,-24.5719,21.8947,0.00332815,0.000731949,0.00148834,0.00400495,5.51478e-05,0.426784,0.00265177,0.014638,713,1415,-24.5719,-21.8946
-504,-391,-24.6144,22.7527,0.00382491,0.000786146,0.00167205,0.00456479,4.62607e-05,0.4166,0.00302789,0.0133917,720,1415,-24.6144,-22.7527
-497,-391,-24.6502,23.6139,0.0045533,0.000998378,0.00200662,0.00545649,9.51882e-05,0.422941,0.00360635,0.0150165,727,1415,-24.6502,-23.6139
-490,-391,-24.6395,24.5239,0,0,0,0,0,0,0,-1,734,1415,-24.6395,-24.5239
-483,-391,-11.1018,12.9382,0,0,0,0,0,0,0,-1,741,1415,-11.1018,-12.9382
-476,-391,-6.05731,6.85303,0,0,0,0,0,0,0,-1,748,1415,-6.05728,-6.85304
-469,-391,-3.88953,5.0979,0,0,0,0,0,0,0,-1,755,1415,-3.88955,-5.09794
-462,-391,-8.67688,2.03125,0,0,0,0,0,0,0,-1,762,1415,-8.67685,-2.03121
-455,-391,-8.65576,6.46997,0,0,0,0,0,0,0,-1,769,1415,-8.65579,-6.46999
-448,-391,-8.39618,4.38403,0,0,0,0,0,0,0,-1,776,1415,-8.39617,-4.38405
-441,-391,-9.77704,2.5946,0,0,0,0,0,0,0,-1,783,1415,-9.77702,-2.5946
-434,-391,-11.5403,2.12878,0,0,0,0,0,0,0,-1,790,1415,-11.5403,-2.12881
-427,-391,-10.5311,2.50403,0,0,0,0,0,0,0,-1,797,1415,-10.5311,-2.504
-420,-391,-14.7087,1.24365,0,0,0,0,0,0,0,-1,804,1415,-14.7088,-1.24365
-413,-391,0,0,0,0,0,0,0,0,0,-1,811,1415,0,0
-406,-391,0,0,0,0,0,0,0,0,0,-1,818,1415,0,0
-399,-391,0,0,0,0,0,0,0,0,0,-1,825,1415,0,0
-392,-391,0,0,0,0,0,0,0,0,0,-1,832,1415,0,0
-385,-391,0,0,0,0,0,0,0,0,0,-1,839,1415,0,0
-378,-391,0,0,0,0,0,0,0,0,0,-1,846,1415,0,0
-371,-391,0,0,0,0,0,0,0,0,0,-1,853,1415,0,0
-364,-391,0,0,0,0,0,0,0,0,0,-1,860,1415,0,0
-357,-391,0,0,0,0,0,0,0,0,0,-1,867,1415,0,0
-350,-391,0,0,0,0,0,0,0,0,0,-1,874,1415,0,0
-343,-391,0,0,0,0,0,0,0,0,0,-1,881,1415,0,0
-336,-391,0,0,0,0,0,0,0,0,0,-1,888,1415,0,0
-329,-391,0,0,0,0,0,0,0,0,0,-1,895,1415,0,0
-322,-391,0,0,0,0,0,0,0,0,0,-1,902,1415,0,0
-315,-391,0,0,0,0,0,0,0,0,0,-1,909,1415,0,0
-308,-391,0,0,0,0,0,0,0,0,0,-1,916,1415,0,0
-301,-391,0,0,0,0,0,0,0,0,0,-1,923,1415,0,0
-294,-391,0,0,0,0,0,0,0,0,0,-1,930,1415,0,0
-287,-391,0,0,0,0,0,0,0,0,0,-1,937,1415,0,0
-280,-391,0,0,0,0,0,0,0,0,0,-1,944,1415,0,0
-273,-391,0,0,0,0,0,0,0,0,0,-1,951,1415,0,0
-266,-391,0,0,0,0,0,0,0,0,0,-1,958,1415,0,0
-259,-391,0,0,0,0,0,0,0,0,0,-1,965,1415,0,0
-252,-391,0,0,0,0,0,0,0,0,0,-1,972,1415,0,0
-245,-391,0,0,0,0,0,0,0,0,0,-1,979,1415,0,0
-238,-391,0,0,0,0,0,0,0,0,0,-1,986,1415,0,0
-231,-391,0,0,0,0,0,0,0,0,0,-1,993,1415,0,0
-224,-391,0,0,0,0,0,0,0,0,0,-1,1000,1415,0,0
-217,-391,0,0,0,0,0,0,0,0,0,-1,1007,1415,0,0
-210,-391,0,0,0,0,0,0,0,0,0,-1,1014,1415,0,0
-203,-391,0,0,0,0,0,0,0,0,0,-1,1021,1415,0,0
-196,-391,0,0,0,0,0,0,0,0,0,-1,1028,1415,0,0
-189,-391,0,0,0,0,0,0,0,0,0,-1,1035,1415,0,0
-182,-391,0,0,0,0,0,0,0,0,0,-1,1042,1415,0,0
-175,-391,0,0,0,0,0,0,0,0,0,-1,1049,1415,0,0
-168,-391,0,0,0,0,0,0,0,0,0,-1,1056,1415,0,0
-161,-391,0,0,0,0,0,0,0,0,0,-1,1063,1415,0,0
-154,-391,0,0,0,0,0,0,0,0,0,-1,1070,1415,0,0
-147,-391,0,0,0,0,0,0,0,0,0,-1,1077,1415,0,0
-140,-391,0,0,0,0,0,0,0,0,0,-1,1084,1415,0,0
-133,-391,0,0,0,0,0,0,0,0,0,-1,1091,1415,0,0
-126,-391,0,0,0,0,0,0,0,0,0,-1,1098,1415,0,0
-119,-391,0,0,0,0,0,0,0,0,0,-1,1105,1415,0,0
-112,-391,0,0,0,0,0,0,0,0,0,-1,1112,1415,0,0
-105,-391,0,0,0,0,0,0,0,0,0,-1,1119,1415,0,0
-98,-391,0,0,0,0,0,0,0,0,0,-1,1126,1415,0,0
-91,-391,0,0,0,0,0,0,0,0,0,-1,1133,1415,0,0
-84,-391,0,0,0,0,0,0,0,0,0,-1,1140,1415,0,0
-77,-391,0,0,0,0,0,0,0,0,0,-1,1147,1415,0,0
-70,-391,0,0,0,0,0,0,0,0,0,-1,1154,1415,0,0
-63,-391,0,0,0,0,0,0,0,0,0,-1,1161,1415,0,0
-56,-391,0,0,0,0,0,0,0,0,0,-1,1168,1415,0,0
-49,-391,0,0,0,0,0,0,0,0,0,-1,1175,1415,0,0
-42,-391,0,0,0,0,0,0,0,0,0,-1,1182,1415,0,0
-35,-391,0,0,0,0,0,0,0,0,0,-1,1189,1415,0,0
-28,-391,0,0,0,0,0,0,0,0,0,-1,1196,1415,0,0
-21,-391,0,0,0,0,0,0,0,0,0,-1,1203,1415,0,0
-14,-391,0,0,0,0,0,0,0,0,0,-1,1210,1415,0,0
-7,-391,0,0,0,0,0,0,0,0,0,-1,1217,1415,0,0
0,-391,0,0,0,0,0,0,0,0,0,-1,1224,1415,0,0
7,-391,0,0,0,0,0,0,0,0,0,-1,1231,1415,0,0
14,-391,0,0,0,0,0,0,0,0,0,-1,1238,1415,0,0
21,-391,0,0,0,0,0,0,0,0,0,-1,1245,1415,0,0
28,-391,0,0,0,0,0,0,0,0,0,-1,1252,1415,0,0
35,-391,0,0,0,0,0,0,0,0,0,-1,1259,1415,0,0
42,-391,0,0,0,0,0,0,0,0,0,-1,1266,1415,0,0
49,-391,0,0,0,0,0,0,0,0,0,-1,1273,1415,0,0
56,-391,0,0,0,0,0,0,0,0,0,-1,1280,1415,0,0
63,-391,0,0,0,0,0,0,0,0,0,-1,1287,1415,0,0
70,-391,0,0,0,0,0,0,0,0,0,-1,1294,1415,0,0
77,-391,0,0,0,0,0,0,0,0,0,-1,1301,1415,0,0
84,-391,0,0,0,0,0,0,0,0,0,-1,1308,1415,0,0
91,-391,0,0,0,0,0,0,0,0,0,-1,1315,1415,0,0
98,-391,0,0,0,0,0,0,0,0,0,-1,1322,1415,0,0
105,-391,0,0,0,0,0,0,0,0,0,-1,1329,1415,0,0
112,-391,0,0,0,0,0,0,0,0,0,-1,1336,1415,0,0
119,-391,0,0,0,0,0,0,0,0,0,-1,1343,1415,0,0
126,-391,0,0,0,0,0,0,0,0,0,-1,1350,1415,0,0
133,-391,0,0,0,0,0,0,0,0,0,-1,1357,1415,0,0
140,-391,0,0,0,0,0,0,0,0,0,-1,1364,1415,0,0
147,-391,0,0,0,0,0,0,0,0,0,-1,1371,1415,0,0
154,-391,0,0,0,0,0,0,0,0,0,-1,1378,1415,0,0
161,-391,0,0,0,0,0,0,0,0,0,-1,1385,1415,0,0
168,-391,0,0,0,0,0,0,0,0,0,-1,1392,1415,0,0
175,-391,0,0,0,0,0,0,0,0,0,-1,1399,1415,0,0
182,-391,0,0,0,0,0,0,0,0,0,-1,1406,1415,0,0
189,-391,0,0,0,0,0,0,0,0,0,-1,1413,1415,0,0
196,-391,0,0,0,0,0,0,0,0,0,-1,1420,1415,0,0
203,-391,0,0,0,0,0,0,0,0,0,-1,1427,1415,0,0
210,-391,0,0,0,0,0,0,0,0,0,-1,1434,1415,0,0
217,-391,0,0,0,0,0,0,0,0,0,-1,1441,1415,0,0
224,-391,0,0,0,0,0,0,0,0,0,-1,1448,1415,0,0
231,-391,0,0,0,0,0,0,0,0,0,-1,1455,1415,0,0
238,-391,0,0,0,0,0,0,0,0,0,-1,1462,1415,0,0
245,-391,0,0,0,0,0,0,0,0,0,-1,1469,1415,0,0
252,-391,0,0,0,0,0,0,0,0,0,-1,1476,1415,0,0
259,-391,0,0,0,0,0,0,0,0,0,-1,1483,1415,0,0
266,-391,0,0,0,0,0,0,0,0,0,-1,1490,1415,0,0
273,-391,0,0,0,0,0,0,0,0,0,-1,1497,1415,0,0
280,-391,0,0,0,0,0,0,0,0,0,-1,1504,1415,0,0
287,-391,0,0,0,0,0,0,0,0,0,-1,1511,1415,0,0
294,-391,0,0,0,0,0,0,0,0,0,-1,1518,1415,0,0
301,-391,0,0,0,0,0,0,0,0,0,-1,1525,1415,0,0
308,-391,0,0,0,0,0,0,0,0,0,-1,1532,1415,0,0
315,-391,0,0,0,0,0,0,0,0,0,-1,1539,1415,0,0
322,-391,0,0,0,0,0,0,0,0,0,-1,1546,1415,0,0
329,-391,0,0,0,0,0,0,0,0,0,-1,1553,1415,0,0
336,-391,0,0,0,0,0,0,0,0,0,-1,1560,1415,0,0
343,-391,0,0,0,0,0,0,0,0,0,-1,1567,1415,0,0
350,-391,0,0,0,0,0,0,0,0,0,-1,1574,1415,0,0
357,-391,0,0,0,0,0,0,0,0,0,-1,1581,1415,0,0
364,-391,0,0,0,0,0,0,0,0,0,-1,1588,1415,0,0
371,-391,0,0,0,0,0,0,0,0,0,-1,1595,1415,0,0
378,-391,0,0,0,0,0,0,0,0,0,-1,1602,1415,0,0
385,-391,0,0,0,0,0,0,0,0,0,-1,1609,1415,0,0
392,-391,0,0,0,0,0,0,0,0,0,-1,1616,1415,0,0
399,-391,0,0,0,0,0,0,0,0,0,-1,1623,1415,0,0
406,-391,0,0,0,0,0,0,0,0,0,-1,1630,1415,0,0
413,-391,0,0,0,0,0,0,0,0,0,-1,1637,1415,0,0
420,-391,0,0,0,0,0,0,0,0,0,-1,1644,1415,0,0
427,-391,0,0,0,0,0,0,0,0,0,-1,1651,1415,0,0
434,-391,0,0,0,0,0,0,0,0,0,-1,1658,1415,0,0
441,-391,0,0,0,0,0,0,0,0,0,-1,1665,1415,0,0
448,-391,0,0,0,0,0,0,0,0,0,-1,1672,1415,0,0
455,-391,0,0,0,0,0,0,0,0,0,-1,1679,1415,0,0
462,-391,0,0,0,0,0,0,0,0,0,-1,1686,1415,0,0
469,-391,0,0,0,0,0,0,0,0,0,-1,1693,1415,0,0
476,-391,0,0,0,0,0,0,0,0,0,-1,1700,1415,0,0
483,-391,0,0,0,0,0,0,0,0,0,-1,1707,1415,0,0
490,-391,0,0,0,0,0,0,0,0,0,-1,1714,1415,0,0
497,-391,0,0,0,0,0,0,0,0,0,-1,1721,1415,0,0
504,-391,0,0,0,0,0,0,0,0,0,-1,1728,1415,0,0
511,-391,0,0,0,0,0,0,0,0,0,-1,1735,1415,0,0
518,-391,0,0,0,0,0,0,0,0,0,-1,1742,1415,0,0
525,-391,0,0,0,0,0,0,0,0,0,-1,1749,1415,0,0
532,-391,28.5959,3.02356,0,0,0,0,0,0,0,-1,1756,1415,28.596,-3.02358
539,-391,27.5881,3.25012,0,0,0,0,0,0,0,-1,1763,1415,27.5882,-3.25016
546,-391,27.2837,3.28064,0,0,0,0,0,0,0,-1,1770,1415,27.2837,-3.28064
553,-391,32.5952,5.04553,0,0,0,0,0,0,0,-1,1777,1415,32.5952,-5.04551
560,-391,31.2947,5.67017,0,0,0,0,0,0,0,-1,1784,1415,31.2947,-5.67011
567,-391,30.1473,6.17603,0,0,0,0,0,0,0,-1,1791,1415,30.1473,-6.17602
574,-391,27.5656,5.6842,0,0,0,0,0,0,0,-1,1798,1415,27.5655,-5.68422
581,-391,25.8883,5.76123,0,0,0,0,0,0,0,-1,1805,1415,25.8883,-5.76124
588,-391,24.2717,5.47986,0,0,0,0,0,0,0,-1,1812,1415,24.2717,-5.47982
595,-391,22.8827,6.1991,0,0,0,0,0,0,0,-1,1819,1415,22.8827,-6.19909
602,-391,15.1635,5.69849,0,0,0,0,0,0,0,-1,1826,1415,15.1635,-5.69847
609,-391,14.8285,7.50476,0,0,0,0,0,0,0,-1,1833,1415,14.8285,-7.50479
616,-391,20.7952,12.0503,0,0,0,0,0,0,0,-1,1840,1415,20.7952,-12.0503
623,-391,36.6426,20.3677,0,0,0,0,0,0,0,-1,1847,1415,36.6426,-20.3676
630,-391,41.9265,23.449,0,0,0,0,0,0,0,-1,1854,1415,41.9265,-23.449
637,-391,41.8566,22.5876,0.00017312,0.000160166,-0.00021413,0.000380871,-4.75846e-05,-0.770279,0.000271171,0.0176905,1861,1415,41.8566,-22.5877
644,-391,41.7874,21.7379,0.000358702,7.51894e-05,-0.000173506,0.000440997,-7.10585e-06,-0.442884,0.000296395,0.0179821,1868,1415,41.7874,-21.7379
651,-391,41.7383,20.9076,0.000786253,0.000128837,-0.000332744,0.000925271,-1.01806e-05,-0.39575,0.000620269,0.0180534,1875,1415,41.7383,-20.9075
658,-391,41.679,20.0682,0.00144175,0.000310692,-0.00068604,0.00176531,-1.28651e-05,-0.440696,0.00118118,0.0195726,1882,1415,41.6789,-20.0682
665,-391,41.672,19.254,0.00229257,0.000620813,-0.00121372,0.0029304,-1.70139e-05,-0.48385,0.00195929,0.0163667,1889,1415,41.6721,-19.254
672,-391,41.6348,18.4009,0.00333416,0.00103972,-0.00192709,0.00442966,-5.57813e-05,-0.516916,0.00297188,0.0136699,1896,1415,41.6347,-18.4008
679,-391,41.583,17.5464,0.00459363,0.00157076,-0.00286303,0.00631969,-0.000155297,-0.542534,0.00426583,0.0128432,1903,1415,41.5831,-17.5464
686,-391,41.5386,16.6731,0.00610236,0.00218302,-0.00405793,0.00864902,-0.000363649,-0.560452,0.00589097,0.0246641,1910,1415,41.5385,-16.673
693,-391,41.6168,15.7065,0,0,0,0,0,0,0,-1,1917,1415,41.6169,-15.7065
700,-391,39.8163,14.4929,0,0,0,0,0,0,0,-1,1924,1415,39.8163,-14.4929
707,-391,12.9524,5.96851,0,0,0,0,0,0,0,-1,1931,1415,12.9524,-5.96849
714,-391,15.6875,7.67896,0,0,0,0,0,0,0,-1,1938,1415,15.6875,-7.67893
721,-391,14.1808,8.08435,0,0,0,0,0,0,0,-1,1945,1415,14.1808,-8.08439
728,-391,13.8102,7.28174,0,0,0,0,0,0,0,-1,1952,1415,13.8102,-7.28174
735,-391,0,0,0,0,0,0,0,0,0,-1,1959,1415,0,0
742,-391,0,0,0,0,0,0,0,0,0,-1,1966,1415,0,0
749,-391,0,0,0,0,0,0,0,0,0,-1,1973,1415,0,0
756,-391,0,0,0,0,0,0,0,0,0,-1,1980,1415,0,0
763,-391,0,0,0,0,0,0,0,0,0,-1,1987,1415,0,0
770,-391,0,0,0,0,0,0,0,0,0,-1,1994,1415,0,0
777,-391,0,0,0,0,0,0,0,0,0,-1,2001,1415,0,0
784,-391,0,0,0,0,0,0,0,0,0,-1,2008,1415,0,0
791,-391,0,0,0,0,0,0,0,0,0,-1,2015,1415,0,0
798,-391,0,0,0,0,0,0,0,0,0,-1,2022,1415,0,0
805,-391,0,0,0,0,0,0,0,0,0,-1,2029,1415,0,0
812,-391,0,0,0,0,0,0,0,0,0,-1,2036,1415,0,0
-700,-398,0,0,0,0,0,0,0,0,0,-1,524,1422,0,0
-693,-398,0,0,0,0,0,0,0,0,0,-1,531,1422,0,0
-686,-398,0,0,0,0,0,0,0,0,0,-1,538,1422,0,0
-679,-398,0,0,0,0,0,0,0,0,0,-1,545,1422,0,0
-672,-398,0,0,0,0,0,0,0,0,0,-1,552,1422,0,0
-665,-398,0,0,0,0,0,0,0,0,0,-1,559,1422,0,0
-658,-398,0,0,0,0,0,0,0,0,0,-1,566,1422,0,0
-651,-398,0,0,0,0,0,0,0,0,0,-1,573,1422,0,0
-644,-398,0,0,0,0,0,0,0,0,0,-1,580,1422,0,0
-637,-398,0,0,0,0,0,0,0,0,0,-1,587,1422,0,0
-630,-398,0,0,0,0,0,0,0,0,0,-1,594,1422,0,0
-623,-398,0,0,0,0,0,0,0,0,0,-1,601,1422,0,0
-616,-398,0,0,0,0,0,0,0,0,0,-1,608,1422,0,0
-609,-398,-7.47125,-4.05322,0,0,0,0,0,0,0,-1,615,1422,-7.47128,4.05317
-602,-398,-4.58868,-2.77026,0,0,0,0,0,0,0,-1,622,1422,-4.58869,2.77023
-595,-398,-12.2224,-1.82007,0,0,0,0,0,0,0,-1,629,1422,-12.2224,1.82006
-588,-398,-10.6939,1.32336,0,0,0,0,0,0,0,-1,636,1422,-10.6939,-1.32337
-581,-398,-10.433,3.1123,0,0,0,0,0,0,0,-1,643,1422,-10.433,-3.11233
-574,-398,-10.4475,5.89807,0,0,0,0,0,0,0,-1,650,1422,-10.4475,-5.89802
-567,-398,-10.4904,6.80115,0,0,0,0,0,0,0,-1,657,1422,-10.4904,-6.80115
-560,-398,-10.5333,7.70435,0,0,0,0,0,0,0,-1,664,1422,-10.5333,-7.70429
-553,-398,-23.5428,16.4187,0,0,0,0,0,0,0,-1,671,1422,-23.5428,-16.4188
-546,-398,-23.5411,17.5129,0.00536436,0.00408608,0.00378798,0.00856674,0.0008837,0.701821,0.00544057,0.0437779,678,1422,-23.5411,-17.5129
-539,-398,-23.4471,18.4844,0.00414954,0.00298078,0.00289242,0.00651603,0.000614295,0.685721,0.00415442,0.0130404,685,1422,-23.4472,-18.4844
-532,-398,-23.5116,19.3427,0.0033212,0.00205232,0.0021841,0.00496114,0.000412374,0.644048,0.0031789,0.0204847,692,1422,-23.5116,-19.3426
-525,-398,-23.5948,20.2056,0.00290938,0.00149094,0.00176485,0.00410219,0.000298136,0.594344,0.00264103,0.0192232,699,1422,-23.5948,-20.2056
-518,-398,-23.6316,21.0769,0.00275557,0.00109148,0.00150249,0.00364102,0.000206035,0.532529,0.00236167,0.0172821,706,1422,-23.6316,-21.0769
-511,-398,-23.6718,21.9486,0.00281106,0.000868788,0.00136904,0.00351843,0.000161418,0.47691,0.00229371,0.0147575,713,1422,-23.6718,-21.9487
-504,-398,-23.7347,22.8271,0.00309064,0.000814316,0.0013874,0.00374699,0.000157962,0.441883,0.00244704,0.0153854,720,1422,-23.7347,-22.8271
-497,-398,-23.7939,23.6782,0.00359084,0.0009281,0.00155012,0.00430285,0.000216085,0.430585,0.00279932,0.0114125,727,1422,-23.7939,-23.6783
-490,-398,-23.8148,24.5563,0.00444119,0.00119935,0.00186865,0.00529398,0.000346558,0.428136,0.00341966,0.0240315,734,1422,-23.8148,-24.5562
-483,-398,-23.587,25.7679,0,0,0,0,0,0,0,-1,741,1422,-23.587,-25.7679
-476,-398,-8.64392,11.9448,0,0,0,0,0,0,0,-1,748,1422,-8.6439,-11.9448
-469,-398,-8.91699,10.6276,0,0,0,0,0,0,0,-1,755,1422,-8.91697,-10.6275
-462,-398,-9.59753,9.32532,0,0,0,0,0,0,0,-1,762,1422,-9.59753,-9.32531
-455,-398,-8.08331,6.75024,0,0,0,0,0,0,0,-1,769,1422,-8.08333,-6.75022
-448,-398,-7.4505,5.25293,0,0,0,0,0,0,0,-1,776,1422,-7.4505,-5.25291
-441,-398,-7.61639,3.32141,0,0,0,0,0,0,0,-1,783,1422,-7.61637,-3.32145
-434,-398,-10.7618,3.297,0,0,0,0,0,0,0,-1,790,1422,-10.7618,-3.29704
-427,-398,-11.9061,2.24939,0,0,0,0,0,0,0,-1,797,1422,-11.9061,-2.24941
-420,-398,-13.467,2.32788,0,0,0,0,0,0,0,-1,804,1422,-13.467,-2.32787
-413,-398,-14.7983,2.15515,0,0,0,0,0,0,0,-1,811,1422,-14.7983,-2.15516
-406,-398,0,0,0,0,0,0,0,0,0,-1,818,1422,0,0
-399,-398,0,0,0,0,0,0,0,0,0,-1,825,1422,0,0
-392,-398,0,0,0,0,0,0,0,0,0,-1,832,1422,0,0
-385,-398,0,0,0,0,0,0,0,0,0,-1,839,1422,0,0
-378,-398,0,0,0,0,0,0,0,0,0,-1,846,1422,0,0
-371,-398,0,0,0,0,0,0,0,0,0,-1,853,1422,0,0
-364,-398,0,0,0,0,0,0,0,0,0,-1,860,1422,0,0
-357,-398,0,0,0,0,0,0,0,0,0,-1,867,1422,0,0
-350,-398,0,0,0,0,0,0,0,0,0,-1,874,1422,0,0
-343,-398,0,0,0,0,0,0,0,0,0,-1,881,1422,0,0
-336,-398,0,0,0,0,0,0,0,0,0,-1,888,1422,0,0
-329,-398,0,0,0,0,0,0,0,0,0,-1,895,1422,0,0
-322,-398,0,0,0,0,0,0,0,0,0,-1,902,1422,0,0
-315,-398,0,0,0,0,0,0,0,0,0,-1,909,1422,0,0
-308,-398,0,0,0,0,0,0,0,0,0,-1,916,1422,0,0
-301,-398,0,0,0,0,0,0,0,0,0,-1,923,1422,0,0
-294,-398,0,0,0,0,0,0,0,0,0,-1,930,1422,0,0
-287,-398,0,0,0,0,0,0,0,0,0,-1,937,1422,0,0
-280,-398,0,0,0,0,0,0,0,0,0,-1,944,1422,0,0
-273,-398,0,0,0,0,0,0,0,0,0,-1,951,1422,0,0
-266,-398,0,0,0,0,0,0,0,0,0,-1,958,1422,0,0
-259,-398,0,0,0,0,0,0,0,0,0,-1,965,1422,0,0
-252,-398,0,0,0,0,0,0,0,0,0,-1,972,1422,0,0
-245,-398,0,0,0,0,0,0,0,0,0,-1,979,1422,0,0
-238,-398,0,0,0,0,0,0,0,0,0,-1,986,1422,0,0
-231,-398,0,0,0,0,0,0,0,0,0,-1,993,1422,0,0
-224,-398,0,0,0,0,0,0,0,0,0,-1,1000,1422,0,0
-217,-398,0,0,0,0,0,0,0,0,0,-1,1007,1422,0,0
-210,-398,0,0,0,0,0,0,0,0,0,-1,1014,1422,0,0
-203,-398,0,0,0,0,0,0,0,0,0,-1,1021,1422,0,0
-196,-398,0,0,0,0,0,0,0,0,0,-1,1028,1422,0,0
-189,-398,0,0,0,0,0,0,0,0,0,-1,1035,1422,0,0
-182,-398,0,0,0,0,0,0,0,0,0,-1,1042,1422,0,0
-175,-398,0,0,0,0,0,0,0,0,0,-1,1049,1422,0,0
-168,-398,0,0,0,0,0,0,0,0,0,-1,1056,1422,0,0
-161,-398,0,0,0,0,0,0,0,0,0,-1,1063,1422,0,0
-154,-398,0,0,0,0,0,0,0,0,0,-1,1070,1422,0,0
-147,-398,0,0,0,0,0,0,0,0,0,-1,1077,1422,0,0
-140,-398,0,0,0,0,0,0,0,0,0,-1,1084,1422,0,0
-133,-398,0,0,0,0,0,0,0,0,0,-1,1091,1422,0,0
-126,-398,0,0,0,0,0,0,0,0,0,-1,1098,1422,0,0
-119,-398,0,0,0,0,0,0,0,0,0,-1,1105,1422,0,0
-112,-398,0,0,0,0,0,0,0,0,0,-1,1112,1422,0,0
-105,-398,0,0,0,0,0,0,0,0,0,-1,1119,1422,0,0
-98,-398,0,0,0,0,0,0,0,0,0,-1,1126,1422,0,0
-91,-398,0,0,0,0,0,0,0,0,0,-1,1133,1422,0,0
-84,-398,0,0,0,0,0,0,0,0,0,-1,1140,1422,0,0
-77,-398,0,0,0,0,0,0,0,0,0,-1,1147,1422,0,0
-70,-398,0,0,0,0,0,0,0,0,0,-1,1154,1422,0,0
-63,-398,0,0,0,0,0,0,0,0,0,-1,1161,1422,0,0
-56,-398,0,0,0,0,0,0,0,0,0,-1,1168,1422,0,0
-49,-398,0,0,0,0,0,0,0,0,0,-1,1175,1422,0,0
-42,-398,0,0,0,0,0,0,0,0,0,-1,1182,1422,0,0
-35,-398,0,0,0,0,0,0,0,0,0,-1,1189,1422,0,0
-28,-398,0,0,0,0,0,0,0,0,0,-1,1196,1422,0,0
-21,-398,0,0,0,0,0,0,0,0,0,-1,1203,1422,0,0
-14,-398,0,0,0,0,0,0,0,0,0,-1,1210,1422,0,0
-7,-398,0,0,0,0,0,0,0,0,0,-1,1217,1422,0,0
0,-398,0,0,0,0,0,0,0,0,0,-1,1224,1422,0,0
7,-398,0,0,0,0,0,0,0,0,0,-1,1231,1422,0,0
14,-398,0,0,0,0,0,0,0,0,0,-1,1238,1422,0,0
21,-398,0,0,0,0,0,0,0,0,0,-1,1245,1422,0,0
28,-398,0,0,0,0,0,0,0,0,0,-1,1252,1422,0,0
35,-398,0,0,0,0,0,0,0,0,0,-1,1259,1422,0,0
42,-398,0,0,0,0,0,0,0,0,0,-1,1266,1422,0,0
49,-398,0,0,0,0,0,0,0,0,0,-1,1273,1422,0,0
56,-398,0,0,0,0,0,0,0,0,0,-1,1280,1422,0,0
63,-398,0,0,0,0,0,0,0,0,0,-1,1287,1422,0,0
70,-398,0,0,0,0,0,0,0,0,0,-1,1294,1422,0,0
77,-398,0,0,0,0,0,0,0,0,0,-1,1301,1422,0,0
84,-398,0,0,0,0,0,0,0,0,0,-1,1308,1422,0,0
91,-398,0,0,0,0,0,0,0,0,0,-1,1315,1422,0,0
98,-398,0,0,0,0,0,0,0,0,0,-1,1322,1422,0,0
105,-398,0,0,0,0,0,0,0,0,0,-1,1329,1422,0,0
112,-398,0,0,0,0,0,0,0,0,0,-1,1336,1422,0,0
119,-398,0,0,0,0,0,0,0,0,0,-1,1343,1422,0,0
126,-398,0,0,0,0,0,0,0,0,0,-1,1350,1422,0,0
133,-398,0,0,0,0,0,0,0,0,0,-1,1357,1422,0,0
140,-398,0,0,0,0,0,0,0,0,0,-1,1364,1422,0,0
147,-398,0,0,0,0,0,0,0,0,0,-1,1371,1422,0,0
154,-398,0,0,0,0,0,0,0,0,0,-1,1378,1422,0,0
161,-398,0,0,0,0,0,0,0,0,0,-1,1385,1422,0,0
168,-398,0,0,0,0,0,0,0,0,0,-1,1392,1422,0,0
175,-398,0,0,0,0,0,0,0,0,0,-1,1399,1422,0,0
182,-398,0,0,0,0,0,0,0,0,0,-1,1406,1422,0,0
189,-398,0,0,0,0,0,0,0,0,0,-1,1413,1422,0,0
196,-398,0,0,0,0,0,0,0,0,0,-1,1420,1422,0,0
203,-398,0,0,0,0,0,0,0,0,0,-1,1427,1422,0,0
210,-398,0,0,0,0,0,0,0,0,0,-1,1434,1422,0,0
217,-398,0,0,0,0,0,0,0,0,0,-1,1441,1422,0,0
224,-398,0,0,0,0,0,0,0,0,0,-1,1448,1422,0,0
231,-398,0,0,0,0,0,0,0,0,0,-1,1455,1422,0,0
238,-398,0,0,0,0,0,0,0,0,0,-1,1462,1422,0,0
245,-398,0,0,0,0,0,0,0,0,0,-1,1469,1422,0,0
252,-398,0,0,0,0,0,0,0,0,0,-1,1476,1422,0,0
259,-398,0,0,0,0,0,0,0,0,0,-1,1483,1422,0,0
266,-398,0,0,0,0,0,0,0,0,0,-1,1490,1422,0,0
273,-398,0,0,0,0,0,0,0,0,0,-1,1497,1422,0,0
280,-398,0,0,0,0,0,0,0,0,0,-1,1504,1422,0,0
287,-398,0,0,0,0,0,0,0,0,0,-1,1511,1422,0,0
294,-398,0,0,0,0,0,0,0,0,0,-1,1518,1422,0,0
301,-398,0,0,0,0,0,0,0,0,0,-1,1525,1422,0,0
308,-398,0,0,0,0,0,0,0,0,0,-1,1532,1422,0,0
315,-398,0,0,0,0,0,0,0,0,0,-1,1539,1422,0,0
322,-398,0,0,0,0,0,0,0,0,0,-1,1546,1422,0,0
329,-398,0,0,0,0,0,0,0,0,0,-1,1553,1422,0,0
336,-398,0,0,0,0,0,0,0,0,0,-1,1560,1422,0,0
343,-398,0,0,0,0,0,0,0,0,0,-1,1567,1422,0,0
350,-398,0,0,0,0,0,0,0,0,0,-1,1574,1422,0,0
357,-398,0,0,0,0,0,0,0,0,0,-1,1581,1422,0,0
364,-398,0,0,0,0,0,0,0,0,0,-1,1588,1422,0,0
371,-398,0,0,0,0,0,0,0,0,0,-1,1595,1422,0,0
378,-398,0,0,0,0,0,0,0,0,0,-1,1602,1422,0,0
385,-398,0,0,0,0,0,0,0,0,0,-1,1609,1422,0,0
392,-398,0,0,0,0,0,0,0,0,0,-1,1616,1422,0,0
399,-398,0,0,0,0,0,0,0,0,0,-1,1623,1422,0,0
406,-398,0,0,0,0,0,0,0,0,0,-1,1630,1422,0,0
413,-398,0,0,0,0,0,0,0,0,0,-1,1637,1422,0,0
420,-398,0,0,0,0,0,0,0,0,0,-1,1644,1422,0,0
427,-398,0,0,0,0,0,0,0,0,0,-1,1651,1422,0,0
434,-398,0,0,0,0,0,0,0,0,0,-1,1658,1422,0,0
441,-398,0,0,0,0,0,0,0,0,0,-1,1665,1422,0,0
448,-398,0,0,0,0,0,0,0,0,0,-1,1672,1422,0,0
455,-398,0,0,0,0,0,0,0,0,0,-1,1679,1422,0,0
462,-398,0,0,0,0,0,0,0,0,0,-1,1686,1422,0,0
469,-398,0,0,0,0,0,0,0,0,0,-1,1693,1422,0,0
476,-398,0,0,0,0,0,0,0,0,0,-1,1700,1422,0,0
483,-398,0,0,0,0,0,0,0,0,0,-1,1707,1422,0,0
490,-398,0,0,0,0,0,0,0,0,0,-1,1714,1422,0,0
497,-398,0,0,0,0,0,0,0,0,0,-1,1721,1422,0,0
504,-398,0,0,0,0,0,0,0,0,0,-1,1728,1422,0,0
511,-398,0,0,0,0,0,0,0,0,0,-1,1735,1422,0,0
518,-398,0,0,0,0,0,0,0,0,0,-1,1742,1422,0,0
525,-398,0,0,0,0,0,0,0,0,0,-1,1749,1422,0,0
532,-398,28.4558,3.84094,0,0,0,0,0,0,0,-1,1756,1422,28.4558,-3.8409
539,-398,27.0594,3.33887,0,0,0,0,0,0,0,-1,1763,1422,27.0595,-3.3389
546,-398,31.6873,5.58582,0,0,0,0,0,0,0,-1,1770,1422,31.6872,-5.58585
553,-398,30.4392,5.92383,0,0,0,0,0,0,0,-1,1777,1422,30.4392,-5.92386
560,-398,29.1621,6.30469,0,0,0,0,0,0,0,-1,1784,1422,29.1621,-6.30469
567,-398,27.8411,6.55029,0,0,0,0,0,0,0,-1,1791,1422,27.8411,-6.55033
574,-398,26.411,6.8916,0,0,0,0,0,0,0,-1,1798,1422,26.411,-6.8916
581,-398,24.75,7.11145,0,0,0,0,0,0,0,-1,1805,1422,24.7499,-7.11142
588,-398,23.1649,7.67969,0,0,0,0,0,0,0,-1,1812,1422,23.1649,-7.67975
595,-398,21.4253,7.86023,0,0,0,0,0,0,0,-1,1819,1422,21.4253,-7.86029
602,-398,19.6857,8.04077,0,0,0,0,0,0,0,-1,1826,1422,19.6856,-8.04083
609,-398,21.1835,13.2628,0,0,0,0,0,0,0,-1,1833,1422,21.1835,-13.2628
616,-398,35.7712,21.4,0,0,0,0,0,0,0,-1,1840,1422,35.7713,-21.4
623,-398,41.1494,24.3363,0,0,0,0,0,0,0,-1,1847,1422,41.1494,-24.3364
630,-398,41.0796,23.4647,0.000489643,0.00046999,-0.000480729,0.000960646,-1.01281e-06,-0.775179,0.000640768,0.0153243,1854,1422,41.0796,-23.4648
637,-398,41.0209,22.6,0.000529573,0.000178425,-0.000328611,0.000726572,-1.85748e-05,-0.540047,0.00049069,0.0152452,1861,1422,41.0208,-22.6
644,-398,40.9581,21.8009,0.000749074,8.02657e-05,-0.000349515,0.000898392,-6.90519e-05,-0.403744,0.000623222,0.0222132,1868,1422,40.9581,-21.8009
651,-398,40.9768,21.0149,0.00120764,0.000167206,-0.000575561,0.00146324,-8.83966e-05,-0.417931,0.00100626,0.0312009,1875,1422,40.9768,-21.0149
658,-398,40.9138,20.1542,0.00190857,0.000394855,-0.000997799,0.00240408,-0.00010066,-0.46093,0.00163731,0.0266564,1882,1422,40.9139,-20.1541
665,-398,40.8428,19.3036,0.00282436,0.000767554,-0.00159795,0.00369623,-0.000104323,-0.499476,0.00249966,0.0175823,1889,1422,40.8427,-19.3036
672,-398,40.799,18.4608,0.0039411,0.00125517,-0.00238204,0.00533267,-0.000136402,-0.528714,0.00360144,0.0140491,1896,1422,40.799,-18.4608
679,-398,40.7712,17.6052,0.00531052,0.00186583,-0.00340648,0.00740532,-0.000228962,-0.551336,0.00501494,0.0167354,1903,1422,40.7712,-17.6053
686,-398,40.6826,16.7334,0.00695438,0.00253651,-0.004702,0.00994045,-0.000449571,-0.565805,0.00678179,0.0368882,1910,1422,40.6826,-16.7334
693,-398,40.5336,15.6815,0,0,0,0,0,0,0,-1,1917,1422,40.5336,-15.6815
700,-398,38.7251,14.4174,0,0,0,0,0,0,0,-1,1924,1422,38.725,-14.4174
707,-398,10.9731,5.479,0,0,0,0,0,0,0,-1,1931,1422,10.9732,-5.47896
714,-398,11.7313,6.17346,0,0,0,0,0,0,0,-1,1938,1422,11.7313,-6.17348
721,-398,13.9371,8.05103,0,0,0,0,0,0,0,-1,1945,1422,13.9372,-8.05102
728,-398,14.786,7.0282,0,0,0,0,0,0,0,-1,1952,1422,14.786,-7.0282
735,-398,0,0,0,0,0,0,0,0,0,-1,1959,1422,0,0
742,-398,0,0,0,0,0,0,0,0,0,-1,1966,1422,0,0
749,-398,0,0,0,0,0,0,0,0,0,-1,1973,1422,0,0
756,-398,0,0,0,0,0,0,0,0,0,-1,1980,1422,0,0
763,-398,0,0,0,0,0,0,0,0,0,-1,1987,1422,0,0
770,-398,0,0,0,0,0,0,0,0,0,-1,1994,1422,0,0
777,-398,0,0,0,0,0,0,0,0,0,-1,2001,1422,0,0
784,-398,0,0,0,0,0,0,0,0,0,-1,2008,1422,0,0
791,-398,0,0,0,0,0,0,0,0,0,-1,2015,1422,0,0
798,-398,0,0,0,0,0,0,0,0,0,-1,2022,1422,0,0
805,-398,0,0,0,0,0,0,0,0,0,-1,2029,1422,0,0
812,-398,0,0,0,0,0,0,0,0,0,-1,2036,1422,0,0
-700,-405,0,0,0,0,0,0,0,0,0,-1,524,1429,0,0
-693,-405,0,0,0,0,0,0,0,0,0,-1,531,1429,0,0
-686,-405,0,0,0,0,0,0,0,0,0,-1,538,1429,0,0
-679,-405,0,0,0,0,0,0,0,0,0,-1,545,1429,0,0
-672,-405,0,0,0,0,0,0,0,0,0,-1,552,1429,0,0
-665,-405,0,0,0,0,0,0,0,0,0,-1,559,1429,0,0
-658,-405,0,0,0,0,0,0,0,0,0,-1,566,1429,0,0
-651,-405,0,0,0,0,0,0,0,0,0,-1,573,1429,0,0
-644,-405,0,0,0,0,0,0,0,0,0,-1,580,1429,0,0
-637,-405,0,0,0,0,0,0,0,0,0,-1,587,1429,0,0
-630,-405,0,0,0,0,0,0,0,0,0,-1,594,1429,0,0
-623,-405,0,0,0,0,0,0,0,0,0,-1,601,1429,0,0
-616,-405,0,0,0,0,0,0,0,0,0,-1,608,1429,0,0
-609,-405,0,0,0,0,0,0,0,0,0,-1,615,1429,0,0
-602,-405,-5.80988,-3.46594,0,0,0,0,0,0,0,-1,622,1429,-5.80987,3.46592
-595,-405,-9.35413,2.01477,0,0,0,0,0,0,0,-1,629,1429,-9.35411,-2.01476
-588,-405,-7.35693,0.507202,0,0,0,0,0,0,0,-1,636,1429,-7.35696,-0.507187
-581,-405,-10.1284,1.62927,0,0,0,0,0,0,0,-1,643,1429,-10.1284,-1.62922
-574,-405,-9.32074,3.05896,0,0,0,0,0,0,0,-1,650,1429,-9.32077,-3.0589
-567,-405,-9.68781,6.92163,0,0,0,0,0,0,0,-1,657,1429,-9.68782,-6.92166
-560,-405,-9.28674,7.20886,0,0,0,0,0,0,0,-1,664,1429,-9.28675,-7.20885
-553,-405,-20.6244,15.8638,0,0,0,0,0,0,0,-1,671,1429,-20.6244,-15.8637
-546,-405,-22.7095,17.3459,0,0,0,0,0,0,0,-1,678,1429,-22.7095,-17.3459
-539,-405,-22.6288,18.4685,0.00448482,0.00375257,0.00350241,0.00764018,0.000597196,0.73332,0.00490652,0.0153711,685,1429,-22.6288,-18.4685
-532,-405,-22.6716,19.3589,0.00339799,0.00263213,0.0025826,0.0056259,0.00040422,0.711798,0.00362338,0.0163141,692,1429,-22.6716,-19.3589
-525,-405,-22.723,20.2394,0.00284245,0.00196159,0.00202133,0.00447078,0.000333261,0.67813,0.00287588,0.0141655,699,1429,-22.723,-20.2393
-518,-405,-22.7545,21.1265,0.00256184,0.00146583,0.00163122,0.00373465,0.000293026,0.623348,0.00239806,0.0148477,706,1429,-22.7544,-21.1265
-511,-405,-22.796,22.0114,0.00249317,0.00112192,0.00137255,0.00334181,0.000273281,0.553763,0.0021426,0.0156386,713,1429,-22.796,-22.0113
-504,-405,-22.8556,22.887,0.00263566,0.000937328,0.00125316,0.00330026,0.000272729,0.487624,0.00211513,0.0170194,720,1429,-22.8556,-22.8869
-497,-405,-22.9142,23.7775,0.00299119,0.000928826,0.00128119,0.00360463,0.000315388,0.446548,0.00230516,0.0159311,727,1429,-22.9142,-23.7775
-490,-405,-22.9606,24.6322,0.00359193,0.0010742,0.00145555,0.00425748,0.000408648,0.428865,0.00271238,0.0153157,734,1429,-22.9606,-24.6322
-483,-405,-22.8513,25.623,0.00428682,0.00149695,0.0017517,0.00513115,0.000652624,0.449147,0.00322531,0.0433979,741,1429,-22.8513,-25.623
-476,-405,-22.5125,26.8912,0,0,0,0,0,0,0,-1,748,1429,-22.5124,-26.8913
-469,-405,-9.65692,12.8171,0,0,0,0,0,0,0,-1,755,1429,-9.65691,-12.8172
-462,-405,-9.14862,11.3597,0,0,0,0,0,0,0,-1,762,1429,-9.14865,-11.3597
-455,-405,-9.021,9.51111,0,0,0,0,0,0,0,-1,769,1429,-9.021,-9.51109
-448,-405,-8.4649,6.82813,0,0,0,0,0,0,0,-1,776,1429,-8.46492,-6.82817
-441,-405,-6.6712,4.23767,0,0,0,0,0,0,0,-1,783,1429,-6.67121,-4.23764
-434,-405,-9.62549,3.94189,0,0,0,0,0,0,0,-1,790,1429,-9.62546,-3.94191
-427,-405,-10.9764,3.73926,0,0,0,0,0,0,0,-1,797,1429,-10.9764,-3.73923
-420,-405,-12.1187,3.68506,0,0,0,0,0,0,0,-1,804,1429,-12.1187,-3.68512
-413,-405,-13.5353,3.75659,0,0,0,0,0,0,0,-1,811,1429,-13.5353,-3.75655
-406,-405,-14.7374,3.99817,0,0,0,0,0,0,0,-1,818,1429,-14.7374,-3.99814
-399,-405,0,0,0,0,0,0,0,0,0,-1,825,1429,0,0
-392,-405,0,0,0,0,0,0,0,0,0,-1,832,1429,0,0
-385,-405,0,0,0,0,0,0,0,0,0,-1,839,1429,0,0
-378,-405,0,0,0,0,0,0,0,0,0,-1,846,1429,0,0
-371,-405,0,0,0,0,0,0,0,0,0,-1,853,1429,0,0
-364,-405,0,0,0,0,0,0,0,0,0,-1,860,1429,0,0
-357,-405,0,0,0,0,0,0,0,0,0,-1,867,1429,0,0
-350,-405,0,0,0,0,0,0,0,0,0,-1,874,1429,0,0
-343,-405,0,0,0,0,0,0,0,0,0,-1,881,1429,0,0
-336,-405,0,0,0,0,0,0,0,0,0,-1,888,1429,0,0
-329,-405,0,0,0,0,0,0,0,0,0,-1,895,1429,0,0
-322,-405,0,0,0,0,0,0,0,0,0,-1,902,1429,0,0
-315,-405,0,0,0,0,0,0,0,0,0,-1,909,1429,0,0
-308,-405,0,0,0,0,0,0,0,0,0,-1,916,1429,0,0
-301,-405,0,0,0,0,0,0,0,0,0,-1,923,1429,0,0
-294,-405,0,0,0,0,0,0,0,0,0,-1,930,1429,0,0
-287,-405,0,0,0,0,0,0,0,0,0,-1,937,1429,0,0
-280,-405,0,0,0,0,0,0,0,0,0,-1,944,1429,0,0
-273,-405,0,0,0,0,0,0,0,0,0,-1,951,1429,0,0
-266,-405,0,0,0,0,0,0,0,0,0,-1,958,1429,0,0
-259,-405,0,0,0,0,0,0,0,0,0,-1,965,1429,0,0
-252,-405,0,0,0,0,0,0,0,0,0,-1,972,1429,0,0
-245,-405,0,0,0,0,0,0,0,0,0,-1,979,1429,0,0
-238,-405,0,0,0,0,0,0,0,0,0,-1,986,1429,0,0
-231,-405,0,0,0,0,0,0,0,0,0,-1,993,1429,0,0
-224,-405,0,0,0,0,0,0,0,0,0,-1,1000,1429,0,0
-217,-405,0,0,0,0,0,0,0,0,0,-1,1007,1429,0,0
-210,-405,0,0,0,0,0,0,0,0,0,-1,1014,1429,0,0
-203,-405,0,0,0,0,0,0,0,0,0,-1,1021,1429,0,0
-196,-405,0,0,0,0,0,0,0,0,0,-1,1028,1429,0,0
-189,-405,0,0,0,0,0,0,0,0,0,-1,1035,1429,0,0
-182,-405,0,0,0,0,0,0,0,0,0,-1,1042,1429,0,0
-175,-405,0,0,0,0,0,0,0,0,0,-1,1049,1429,0,0
-168,-405,0,0,0,0,0,0,0,0,0,-1,1056,1429,0,0
-161,-405,0,0,0,0,0,0,0,0,0,-1,1063,1429,0,0
-154,-405,0,0,0,0,0,0,0,0,0,-1,1070,1429,0,0
-147,-405,0,0,0,0,0,0,0,0,0,-1,1077,1429,0,0
-140,-405,0,0,0,0,0,0,0,0,0,-1,1084,1429,0,0
-133,-405,0,0,0,0,0,0,0,0,0,-1,1091,1429,0,0
-126,-405,0,0,0,0,0,0,0,0,0,-1,1098,1429,0,0
-119,-405,0,0,0,0,0,0,0,0,0,-1,1105,1429,0,0
-112,-405,0,0,0,0,0,0,0,0,0,-1,1112,1429,0,0
-105,-405,0,0,0,0,0,0,0,0,0,-1,1119,1429,0,0
-98,-405,0,0,0,0,0,0,0,0,0,-1,1126,1429,0,0
-91,-405,0,0,0,0,0,0,0,0,0,-1,1133,1429,0,0
-84,-405,0,0,0,0,0,0,0,0,0,-1,1140,1429,0,0
-77,-405,0,0,0,0,0,0,0,0,0,-1,1147,1429,0,0
-70,-405,0,0,0,0,0,0,0,0,0,-1,1154,1429,0,0
-63,-405,0,0,0,0,0,0,0,0,0,-1,1161,1429,0,0
-56,-405,0,0,0,0,0,0,0,0,0,-1,1168,1429,0,0
-49,-405,0,0,0,0,0,0,0,0,0,-1,1175,1429,0,0
-42,-405,0,0,0,0,0,0,0,0,0,-1,1182,1429,0,0
-35,-405,0,0,0,0,0,0,0,0,0,-1,1189,1429,0,0
-28,-405,0,0,0,0,0,0,0,0,0,-1,1196,1429,0,0
-21,-405,0,0,0,0,0,0,0,0,0,-1,1203,1429,0,0
-14,-405,0,0,0,0,0,0,0,0,0,-1,1210,1429,0,0
-7,-405,0,0,0,0,0,0,0,0,0,-1,1217,1429,0,0
0,-405,0,0,0,0,0,0,0,0,0,-1,1224,1429,0,0
7,-405,0,0,0,0,0,0,0,0,0,-1,1231,1429,0,0
14,-405,0,0,0,0,0,0,0,0,0,-1,1238,1429,0,0
21,-405,0,0,0,0,0,0,0,0,0,-1,1245,1429,0,0
28,-405,0,0,0,0,0,0,0,0,0,-1,1252,1429,0,0
35,-405,0,0,0,0,0,0,0,0,0,-1,1259,1429,0,0
42,-405,0,0,0,0,0,0,0,0,0,-1,1266,1429,0,0
49,-405,0,0,0,0,0,0,0,0,0,-1,1273,1429,0,0
56,-405,0,0,0,0,0,0,0,0,0,-1,1280,1429,0,0
63,-405,0,0,0,0,0,0,0,0,0,-1,1287,1429,0,0
70,-405,0,0,0,0,0,0,0,0,0,-1,1294,1429,0,0
77,-405,0,0,0,0,0,0,0,0,0,-1,1301,1429,0,0
84,-405,0,0,0,0,0,0,0,0,0,-1,1308,1429,0,0
91,-405,0,0,0,0,0,0,0,0,0,-1,1315,1429,0,0
98,-405,0,0,0,0,0,0,0,0,0,-1,1322,1429,0,0
105,-405,0,0,0,0,0,0,0,0,0,-1,1329,1429,0,0
112,-405,0,0,0,0,0,0,0,0,0,-1,1336,1429,0,0
119,-405,0,0,0,0,0,0,0,0,0,-1,1343,1429,0,0
126,-405,0,0,0,0,0,0,0,0,0,-1,1350,1429,0,0
133,-405,0,0,0,0,0,0,0,0,0,-1,1357,1429,0,0
140,-405,0,0,0,0,0,0,0,0,0,-1,1364,1429,0,0
147,-405,0,0,0,0,0,0,0,0,0,-1,1371,1429,0,0
154,-405,0,0,0,0,0,0,0,0,0,-1,1378,1429,0,0
161,-405,0,0,0,0,0,0,0,0,0,-1,1385,1429,0,0
168,-405,0,0,0,0,0,0,0,0,0,-1,1392,1429,0,0
175,-405,0,0,0,0,0,0,0,0,0,-1,1399,1429,0,0
182,-405,0,0,0,0,0,0,0,0,0,-1,1406,1429,0,0
189,-405,0,0,0,0,0,0,0,0,0,-1,1413,1429,0,0
196,-405,0,0,0,0,0,0,0,0,0,-1,1420,1429,0,0
203,-405,0,0,0,0,0,0,0,0,0,-1,1427,1429,0,0
210,-405,0,0,0,0,0,0,0,0,0,-1,1434,1429,0,0
217,-405,0,0,0,0,0,0,0,0,0,-1,1441,1429,0,0
224,-405,0,0,0,0,0,0,0,0,0,-1,1448,1429,0,0
231,-405,0,0,0,0,0,0,0,0,0,-1,1455,1429,0,0
238,-405,0,0,0,0,0,0,0,0,0,-1,1462,1429,0,0
245,-405,0,0,0,0,0,0,0,0,0,-1,1469,1429,0,0
252,-405,0,0,0,0,0,0,0,0,0,-1,1476,1429,0,0
259,-405,0,0,0,0,0,0,0,0,0,-1,1483,1429,0,0
266,-405,0,0,0,0,0,0,0,0,0,-1,1490,1429,0,0
273,-405,0,0,0,0,0,0,0,0,0,-1,1497,1429,0,0
280,-405,0,0,0,0,0,0,0,0,0,-1,1504,1429,0,0
287,-405,0,0,0,0,0,0,0,0,0,-1,1511,1429,0,0
294,-405,0,0,0,0,0,0,0,0,0,-1,1518,1429,0,0
301,-405,0,0,0,0,0,0,0,0,0,-1,1525,1429,0,0
308,-405,0,0,0,0,0,0,0,0,0,-1,1532,1429,0,0
315,-405,0,0,0,0,0,0,0,0,0,-1,1539,1429,0,0
322,-405,0,0,0,0,0,0,0,0,0,-1,1546,1429,0,0
329,-405,0,0,0,0,0,0,0,0,0,-1,1553,1429,0,0
336,-405,0,0,0,0,0,0,0,0,0,-1,1560,1429,0,0
343,-405,0,0,0,0,0,0,0,0,0,-1,1567,1429,0,0
350,-405,0,0,0,0,0,0,0,0,0,-1,1574,1429,0,0
357,-405,0,0,0,0,0,0,0,0,0,-1,1581,1429,0,0
364,-405,0,0,0,0,0,0,0,0,0,-1,1588,1429,0,0
371,-405,0,0,0,0,0,0,0,0,0,-1,1595,1429,0,0
378,-405,0,0,0,0,0,0,0,0,0,-1,1602,1429,0,0
385,-405,0,0,0,0,0,0,0,0,0,-1,1609,1429,0,0
392,-405,0,0,0,0,0,0,0,0,0,-1,1616,1429,0,0
399,-405,0,0,0,0,0,0,0,0,0,-1,1623,1429,0,0
406,-405,0,0,0,0,0,0,0,0,0,-1,1630,1429,0,0
413,-405,0,0,0,0,0,0,0,0,0,-1,1637,1429,0,0
420,-405,0,0,0,0,0,0,0,0,0,-1,1644,1429,0,0
427,-405,0,0,0,0,0,0,0,0,0,-1,1651,1429,0,0
434,-405,0,0,0,0,0,0,0,0,0,-1,1658,1429,0,0
441,-405,0,0,0,0,0,0,0,0,0,-1,1665,1429,0,0
448,-405,0,0,0,0,0,0,0,0,0,-1,1672,1429,0,0
455,-405,0,0,0,0,0,0,0,0,0,-1,1679,1429,0,0
462,-405,0,0,0,0,0,0,0,0,0,-1,1686,1429,0,0
469,-405,0,0,0,0,0,0,0,0,0,-1,1693,1429,0,0
476,-405,0,0,0,0,0,0,0,0,0,-1,1700,1429,0,0
483,-405,0,0,0,0,0,0,0,0,0,-1,1707,1429,0,0
490,-405,0,0,0,0,0,0,0,0,0,-1,1714,1429,0,0
497,-405,0,0,0,0,0,0,0,0,0,-1,1721,1429,0,0
504,-405,0,0,0,0,0,0,0,0,0,-1,1728,1429,0,0
511,-405,0,0,0,0,0,0,0,0,0,-1,1735,1429,0,0
518,-405,0,0,0,0,0,0,0,0,0,-1,1742,1429,0,0
525,-405,31.1563,-1.40942,0,0,0,0,0,0,0,-1,1749,1429,31.1563,1.40937
532,-405,28.156,4.8783,0,0,0,0,0,0,0,-1,1756,1429,28.1561,-4.87833
539,-405,26.5133,3.02454,0,0,0,0,0,0,0,-1,1763,1429,26.5133,-3.0246
546,-405,29.5735,6.53052,0,0,0,0,0,0,0,-1,1770,1429,29.5735,-6.53049
553,-405,28.2911,6.70654,0,0,0,0,0,0,0,-1,1777,1429,28.2912,-6.70656
560,-405,26.9299,7.08472,0,0,0,0,0,0,0,-1,1784,1429,26.9299,-7.08469
567,-405,25.804,7.14661,0,0,0,0,0,0,0,-1,1791,1429,25.8039,-7.14665
574,-405,25.1151,8.07971,0,0,0,0,0,0,0,-1,1798,1429,25.1151,-8.07965
581,-405,23.5055,8.505,0,0,0,0,0,0,0,-1,1805,1429,23.5054,-8.50501
588,-405,21.7491,8.98254,0,0,0,0,0,0,0,-1,1812,1429,21.7491,-8.98254
595,-405,21.6327,10.7795,0,0,0,0,0,0,0,-1,1819,1429,21.6327,-10.7796
602,-405,21.6461,13.9199,0,0,0,0,0,0,0,-1,1826,1429,21.6461,-13.92
609,-405,37.801,24.062,0,0,0,0,0,0,0,-1,1833,1429,37.8011,-24.062
616,-405,40.2815,25.3246,0,0,0,0,0,0,0,-1,1840,1429,40.2815,-25.3245
623,-405,40.2552,24.428,0.00127034,0.0011353,-0.00105819,0.00226316,0.000142475,-0.753538,0.0014636,0.0166295,1847,1429,40.2552,-24.428
630,-405,40.2263,23.538,0.000914929,0.000540139,-0.000643534,0.0013978,5.72712e-05,-0.643718,0.000913373,0.0117598,1854,1429,40.2263,-23.538
637,-405,40.1815,22.6855,0.000938101,0.000193685,-0.000520504,0.00120579,-7.40008e-05,-0.475007,0.000829625,0.0120534,1861,1429,40.1815,-22.6856
644,-405,40.1262,21.8683,0.0012126,6.72018e-05,-0.000606781,0.00147427,-0.000194466,-0.407143,0.00105367,0.0321123,1868,1429,40.1262,-21.8683
651,-405,40.0684,21.0497,0.00171211,0.000159468,-0.0008937,0.00211959,-0.000248007,-0.427784,0.00150256,0.0363342,1875,1429,40.0684,-21.0497
658,-405,40.0448,20.1693,0.00244126,0.000416876,-0.00137001,0.00313243,-0.000274296,-0.467244,0.00218546,0.0272461,1882,1429,40.0448,-20.1694
665,-405,39.9894,19.3258,0.00339439,0.000840605,-0.00202692,0.00451309,-0.000278095,-0.504316,0.00310558,0.0209276,1889,1429,39.9894,-19.3258
672,-405,39.9473,18.4901,0.00453836,0.00139526,-0.00286067,0.00623074,-0.000297116,-0.534221,0.00425632,0.0235947,1896,1429,39.9473,-18.4901
679,-405,40.08,17.6299,0.00596175,0.00210017,-0.00395365,0.00843088,-0.000368967,-0.558254,0.00574752,0.0436783,1903,1429,40.08,-17.6298
686,-405,39.9874,16.7043,0,0,0,0,0,0,0,-1,1910,1429,39.9874,-16.7044
693,-405,37.6653,14.9521,0,0,0,0,0,0,0,-1,1917,1429,37.6653,-14.9521
700,-405,9.1958,4.02026,0,0,0,0,0,0,0,-1,1924,1429,9.19579,-4.02025
707,-405,7.40308,3.83191,0,0,0,0,0,0,0,-1,1931,1429,7.40311,-3.83194
714,-405,7.33252,3.47388,0,0,0,0,0,0,0,-1,1938,1429,7.33255,-3.47383
721,-405,9.23523,0.993896,0,0,0,0,0,0,0,-1,1945,1429,9.23523,-0.993884
728,-405,0,0,0,0,0,0,0,0,0,-1,1952,1429,0,0
735,-405,0,0,0,0,0,0,0,0,0,-1,1959,1429,0,0
742,-405,0,0,0,0,0,0,0,0,0,-1,1966,1429,0,0
749,-405,0,0,0,0,0,0,0,0,0,-1,1973,1429,0,0
756,-405,0,0,0,0,0,0,0,0,0,-1,1980,1429,0,0
763,-405,0,0,0,0,0,0,0,0,0,-1,1987,1429,0,0
770,-405,0,0,0,0,0,0,0,0,0,-1,1994,1429,0,0
777,-405,0,0,0,0,0,0,0,0,0,-1,2001,1429,0,0
784,-405,0,0,0,0,0,0,0,0,0,-1,2008,1429,0,0
791,-405,0,0,0,0,0,0,0,0,0,-1,2015,1429,0,0
798,-405,0,0,0,0,0,0,0,0,0,-1,2022,1429,0,0
805,-405,0,0,0,0,0,0,0,0,0,-1,2029,1429,0,0
812,-405,0,0,0,0,0,0,0,0,0,-1,2036,1429,0,0
-700,-412,0,0,0,0,0,0,0,0,0,-1,524,1436,0,0
-693,-412,0,0,0,0,0,0,0,0,0,-1,531,1436,0,0
-686,-412,0,0,0,0,0,0,0,0,0,-1,538,1436,0,0
-679,-412,0,0,0,0,0,0,0,0,0,-1,545,1436,0,0
-672,-412,0,0,0,0,0,0,0,0,0,-1,552,1436,0,0
-665,-412,0,0,0,0,0,0,0,0,0,-1,559,1436,0,0
-658,-412,0,0,0,0,0,0,0,0,0,-1,566,1436,0,0
-651,-412,0,0,0,0,0,0,0,0,0,-1,573,1436,0,0
-644,-412,0,0,0,0,0,0,0,0,0,-1,580,1436,0,0
-637,-412,0,0,0,0,0,0,0,0,0,-1,587,1436,0,0
-630,-412,0,0,0,0,0,0,0,0,0,-1,594,1436,0,0
-623,-412,0,0,0,0,0,0,0,0,0,-1,601,1436,0,0
-616,-412,0,0,0,0,0,0,0,0,0,-1,608,1436,0,0
-609,-412,0,0,0,0,0,0,0,0,0,-1,615,1436,0,0
-602,-412,-3.72766,-3.50012,0,0,0,0,0,0,0,-1,622,1436,-3.72764,3.50017
-595,-412,-10.3706,0.65564,0,0,0,0,0,0,0,-1,629,1436,-10.3706,-0.655672
-588,-412,-8.17957,1.94934,0,0,0,0,0,0,0,-1,636,1436,-8.17956,-1.94939
-581,-412,-6.60065,-0.0554199,0,0,0,0,0,0,0,-1,643,1436,-6.60063,0.0554733
-574,-412,-8.34131,5.25012,0,0,0,0,0,0,0,-1,650,1436,-8.34129,-5.25012
-567,-412,-7.50354,3.65454,0,0,0,0,0,0,0,-1,657,1436,-7.50356,-3.65452
-560,-412,-8.52448,7.39014,0,0,0,0,0,0,0,-1,664,1436,-8.52447,-7.39019
-553,-412,-7.36761,6.54651,0,0,0,0,0,0,0,-1,671,1436,-7.36763,-6.54654
-546,-412,-21.7958,17.4263,0,0,0,0,0,0,0,-1,678,1436,-21.7958,-17.4263
-539,-412,-21.7121,18.4321,0.00463977,0.00481264,0.00413633,0.00886344,0.000588976,0.795845,0.00572274,0.034382,685,1436,-21.7121,-18.4321
-532,-412,-21.8036,19.4362,0.00339767,0.00341983,0.00303355,0.00644232,0.000375185,0.787224,0.00417544,0.0155906,692,1436,-21.8036,-19.4362
-525,-412,-21.8595,20.3246,0.00277002,0.00259735,0.00236107,0.00504633,0.000321034,0.767123,0.00326248,0.0150962,699,1436,-21.8595,-20.3246
-518,-412,-21.8875,21.1779,0.00241676,0.00196107,0.00186855,0.00407131,0.000306523,0.724728,0.00261802,0.0162025,706,1436,-21.8874,-21.1778
-511,-412,-21.931,22.0325,0.00226222,0.00148303,0.00151018,0.00343224,0.000313002,0.659161,0.00219129,0.0195082,713,1436,-21.931,-22.0325
-504,-412,-22.0123,22.9066,0.00228857,0.00116324,0.00127456,0.00311914,0.000332678,0.577534,0.00197788,0.0193445,720,1436,-22.0123,-22.9067
-497,-412,-22.0702,23.814,0.00251231,0.00102018,0.00118031,0.00316258,0.000369916,0.503555,0.00199653,0.0163354,727,1436,-22.0702,-23.814
-490,-412,-22.0939,24.677,0.00290208,0.00102654,0.00121691,0.00350063,0.000427994,0.457115,0.00220498,0.0148154,734,1436,-22.0939,-24.677
-483,-412,-22.1222,25.501,0.00339302,0.00126288,0.00137398,0.0040664,0.000589508,0.455689,0.00253736,0.0128506,741,1436,-22.1222,-25.5009
-476,-412,-22.1115,26.4659,0,0,0,0,0,0,0,-1,748,1436,-22.1115,-26.4659
-469,-412,-12.7646,18.4785,0,0,0,0,0,0,0,-1,755,1436,-12.7647,-18.4785
-462,-412,-8.94659,13.3385,0,0,0,0,0,0,0,-1,762,1436,-8.94657,-13.3385
-455,-412,-8.25006,11.2572,0,0,0,0,0,0,0,-1,769,1436,-8.25007,-11.2572
-448,-412,-7.38086,8.78186,0,0,0,0,0,0,0,-1,776,1436,-7.38088,-8.78183
-441,-412,-8.79523,9.05286,0,0,0,0,0,0,0,-1,783,1436,-8.79521,-9.0529
-434,-412,-10.6305,8.03577,0,0,0,0,0,0,0,-1,790,1436,-10.6305,-8.0358
-427,-412,-10.0004,5.15271,0,0,0,0,0,0,0,-1,797,1436,-10.0004,-5.15266
-420,-412,-10.4468,4.9043,0,0,0,0,0,0,0,-1,804,1436,-10.4468,-4.90429
-413,-412,-11.5704,4.97766,0,0,0,0,0,0,0,-1,811,1436,-11.5704,-4.97771
-406,-412,-13.1968,5.70093,0,0,0,0,0,0,0,-1,818,1436,-13.1968,-5.70096
-399,-412,-10.5506,0.771973,0,0,0,0,0,0,0,-1,825,1436,-10.5506,-0.771954
-392,-412,0,0,0,0,0,0,0,0,0,-1,832,1436,0,0
-385,-412,0,0,0,0,0,0,0,0,0,-1,839,1436,0,0
-378,-412,0,0,0,0,0,0,0,0,0,-1,846,1436,0,0
-371,-412,0,0,0,0,0,0,0,0,0,-1,853,1436,0,0
-364,-412,0,0,0,0,0,0,0,0,0,-1,860,1436,0,0
-357,-412,0,0,0,0,0,0,0,0,0,-1,867,1436,0,0
-350,-412,0,0,0,0,0,0,0,0,0,-1,874,1436,0,0
-343,-412,0,0,0,0,0,0,0,0,0,-1,881,1436,0,0
-336,-412,0,0,0,0,0,0,0,0,0,-1,888,1436,0,0
-329,-412,0,0,0,0,0,0,0,0,0,-1,895,1436,0,0
-322,-412,0,0,0,0,0,0,0,0,0,-1,902,1436,0,0
-315,-412,0,0,0,0,0,0,0,0,0,-1,909,1436,0,0
-308,-412,0,0,0,0,0,0,0,0,0,-1,916,1436,0,0
-301,-412,0,0,0,0,0,0,0,0,0,-1,923,1436,0,0
-294,-412,0,0,0,0,0,0,0,0,0,-1,930,1436,0,0
-287,-412,0,0,0,0,0,0,0,0,0,-1,937,1436,0,0
-280,-412,0,0,0,0,0,0,0,0,0,-1,944,1436,0,0
-273,-412,0,0,0,0,0,0,0,0,0,-1,951,1436,0,0
-266,-412,0,0,0,0,0,0,0,0,0,-1,958,1436,0,0
-259,-412,0,0,0,0,0,0,0,0,0,-1,965,1436,0,0
-252,-412,0,0,0,0,0,0,0,0,0,-1,972,1436,0,0
-245,-412,0,0,0,0,0,0,0,0,0,-1,979,1436,0,0
-238,-412,0,0,0,0,0,0,0,0,0,-1,986,1436,0,0
-231,-412,0,0,0,0,0,0,0,0,0,-1,993,1436,0,0
-224,-412,0,0,0,0,0,0,0,0,0,-1,1000,1436,0,0
-217,-412,0,0,0,0,0,0,0,0,0,-1,1007,1436,0,0
-210,-412,0,0,0,0,0,0,0,0,0,-1,1014,1436,0,0
-203,-412,0,0,0,0,0,0,0,0,0,-1,1021,1436,0,0
-196,-412,0,0,0,0,0,0,0,0,0,-1,1028,1436,0,0
-189,-412,0,0,0,0,0,0,0,0,0,-1,1035,1436,0,0
-182,-412,0,0,0,0,0,0,0,0,0,-1,1042,1436,0,0
-175,-412,0,0,0,0,0,0,0,0,0,-1,1049,1436,0,0
-168,-412,0,0,0,0,0,0,0,0,0,-1,1056,1436,0,0
-161,-412,0,0,0,0,0,0,0,0,0,-1,1063,1436,0,0
-154,-412,0,0,0,0,0,0,0,0,0,-1,1070,1436,0,0
-147,-412,0,0,0,0,0,0,0,0,0,-1,1077,1436,0,0
-140,-412,0,0,0,0,0,0,0,0,0,-1,1084,1436,0,0
-133,-412,0,0,0,0,0,0,0,0,0,-1,1091,1436,0,0
-126,-412,0,0,0,0,0,0,0,0,0,-1,1098,1436,0,0
-119,-412,0,0,0,0,0,0,0,0,0,-1,1105,1436,0,0
-112,-412,0,0,0,0,0,0,0,0,0,-1,1112,1436,0,0
-105,-412,0,0,0,0,0,0,0,0,0,-1,1119,1436,0,0
-98,-412,0,0,0,0,0,0,0,0,0,-1,1126,1436,0,0
-91,-412,0,0,0,0,0,0,0,0,0,-1,1133,1436,0,0
-84,-412,0,0,0,0,0,0,0,0,0,-1,1140,1436,0,0
-77,-412,0,0,0,0,0,0,0,0,0,-1,1147,1436,0,0
-70,-412,0,0,0,0,0,0,0,0,0,-1,1154,1436,0,0
-63,-412,0,0,0,0,0,0,0,0,0,-1,1161,1436,0,0
-56,-412,0,0,0,0,0,0,0,0,0,-1,1168,1436,0,0
-49,-412,0,0,0,0,0,0,0,0,0,-1,1175,1436,0,0
-42,-412,0,0,0,0,0,0,0,0,0,-1,1182,1436,0,0
-35,-412,0,0,0,0,0,0,0,0,0,-1,1189,1436,0,0
-28,-412,0,0,0,0,0,0,0,0,0,-1,1196,1436,0,0
-21,-412,0,0,0,0,0,0,0,0,0,-1,1203,1436,0,0
-14,-412,0,0,0,0,0,0,0,0,0,-1,1210,1436,0,0
-7,-412,0,0,0,0,0,0,0,0,0,-1,1217,1436,0,0
0,-412,0,0,0,0,0,0,0,0,0,-1,1224,1436,0,0
7,-412,0,0,0,0,0,0,0,0,0,-1,1231,1436,0,0
14,-412,0,0,0,0,0,0,0,0,0,-1,1238,1436,0,0
21,-412,0,0,0,0,0,0,0,0,0,-1,1245,1436,0,0
28,-412,0,0,0,0,0,0,0,0,0,-1,1252,1436,0,0
35,-412,0,0,0,0,0,0,0,0,0,-1,1259,1436,0,0
42,-412,0,0,0,0,0,0,0,0,0,-1,1266,1436,0,0
49,-412,0,0,0,0,0,0,0,0,0,-1,1273,1436,0,0
56,-412,0,0,0,0,0,0,0,0,0,-1,1280,1436,0,0
63,-412,0,0,0,0,0,0,0,0,0,-1,1287,1436,0,0
70,-412,0,0,0,0,0,0,0,0,0,-1,1294,1436,0,0
77,-412,0,0,0,0,0,0,0,0,0,-1,1301,1436,0,0
84,-412,0,0,0,0,0,0,0,0,0,-1,1308,1436,0,0
91,-412,0,0,0,0,0,0,0,0,0,-1,1315,1436,0,0
98,-412,0,0,0,0,0,0,0,0,0,-1,1322,1436,0,0
105,-412,0,0,0,0,0,0,0,0,0,-1,1329,1436,0,0
112,-412,0,0,0,0,0,0,0,0,0,-1,1336,1436,0,0
119,-412,0,0,0,0,0,0,0,0,0,-1,1343,1436,0,0
126,-412,0,0,0,0,0,0,0,0,0,-1,1350,1436,0,0
133,-412,0,0,0,0,0,0,0,0,0,-1,1357,1436,0,0
140,-412,0,0,0,0,0,0,0,0,0,-1,1364,1436,0,0
147,-412,0,0,0,0,0,0,0,0,0,-1,1371,1436,0,0
154,-412,0,0,0,0,0,0,0,0,0,-1,1378,1436,0,0
161,-412,0,0,0,0,0,0,0,0,0,-1,1385,1436,0,0
168,-412,0,0,0,0,0,0,0,0,0,-1,1392,1436,0,0
175,-412,0,0,0,0,0,0,0,0,0,-1,1399,1436,0,0
182,-412,0,0,0,0,0,0,0,0,0,-1,1406,1436,0,0
189,-412,0,0,0,0,0,0,0,0,0,-1,1413,1436,0,0
196,-412,0,0,0,0,0,0,0,0,0,-1,1420,1436,0,0
203,-412,0,0,0,0,0,0,0,0,0,-1,1427,1436,0,0
210,-412,0,0,0,0,0,0,0,0,0,-1,1434,1436,0,0
217,-412,0,0,0,0,0,0,0,0,0,-1,1441,1436,0,0
224,-412,0,0,0,0,0,0,0,0,0,-1,1448,1436,0,0
231,-412,0,0,0,0,0,0,0,0,0,-1,1455,1436,0,0
238,-412,0,0,0,0,0,0,0,0,0,-1,1462,1436,0,0
245,-412,0,0,0,0,0,0,0,0,0,-1,1469,1436,0,0
252,-412,0,0,0,0,0,0,0,0,0,-1,1476,1436,0,0
259,-412,0,0,0,0,0,0,0,0,0,-1,1483,1436,0,0
266,-412,0,0,0,0,0,0,0,0,0,-1,1490,1436,0,0
273,-412,0,0,0,0,0,0,0,0,0,-1,1497,1436,0,0
280,-412,0,0,0,0,0,0,0,0,0,-1,1504,1436,0,0
287,-412,0,0,0,0,0,0,0,0,0,-1,1511,1436,0,0
294,-412,0,0,0,0,0,0,0,0,0,-1,1518,1436,0,0
301,-412,0,0,0,0,0,0,0,0,0,-1,1525,1436,0,0
308,-412,0,0,0,0,0,0,0,0,0,-1,1532,1436,0,0
315,-412,0,0,0,0,0,0,0,0,0,-1,1539,1436,0,0
322,-412,0,0,0,0,0,0,0,0,0,-1,1546,1436,0,0
329,-412,0,0,0,0,0,0,0,0,0,-1,1553,1436,0,0
336,-412,0,0,0,0,0,0,0,0,0,-1,1560,1436,0,0
343,-412,0,0,0,0,0,0,0,0,0,-1,1567,1436,0,0
350,-412,0,0,0,0,0,0,0,0,0,-1,1574,1436,0,0
357,-412,0,0,0,0,0,0,0,0,0,-1,1581,1436,0,0
364,-412,0,0,0,0,0,0,0,0,0,-1,1588,1436,0,0
371,-412,0,0,0,0,0,0,0,0,0,-1,1595,1436,0,0
378,-412,0,0,0,0,0,0,0,0,0,-1,1602,1436,0,0
385,-412,0,0,0,0,0,0,0,0,0,-1,1609,1436,0,0
392,-412,0,0,0,0,0,0,0,0,0,-1,1616,1436,0,0
399,-412,0,0,0,0,0,0,0,0,0,-1,1623,1436,0,0
406,-412,0,0,0,0,0,0,0,0,0,-1,1630,1436,0,0
413,-412,0,0,0,0,0,0,0,0,0,-1,1637,1436,0,0
420,-412,0,0,0,0,0,0,0,0,0,-1,1644,1436,0,0
427,-412,0,0,0,0,0,0,0,0,0,-1,1651,1436,0,0
434,-412,0,0,0,0,0,0,0,0,0,-1,1658,1436,0,0
441,-412,0,0,0,0,0,0,0,0,0,-1,1665,1436,0,0
448,-412,0,0,0,0,0,0,0,0,0,-1,1672,1436,0,0
455,-412,0,0,0,0,0,0,0,0,0,-1,1679,1436,0,0
462,-412,0,0,0,0,0,0,0,0,0,-1,1686,1436,0,0
469,-412,0,0,0,0,0,0,0,0,0,-1,1693,1436,0,0
476,-412,0,0,0,0,0,0,0,0,0,-1,1700,1436,0,0
483,-412,0,0,0,0,0,0,0,0,0,-1,1707,1436,0,0
490,-412,0,0,0,0,0,0,0,0,0,-1,1714,1436,0,0
497,-412,0,0,0,0,0,0,0,0,0,-1,1721,1436,0,0
504,-412,0,0,0,0,0,0,0,0,0,-1,1728,1436,0,0
511,-412,0,0,0,0,0,0,0,0,0,-1,1735,1436,0,0
518,-412,30.1038,-2.43384,0,0,0,0,0,0,0,-1,1742,1436,30.1038,2.43383
525,-412,29.5283,-1.42493,0,0,0,0,0,0,0,-1,1749,1436,29.5283,1.42495
532,-412,28.8533,-0.386597,0,0,0,0,0,0,0,-1,1756,1436,28.8533,0.386632
539,-412,25.8654,2.74683,0,0,0,0,0,0,0,-1,1763,1436,25.8654,-2.74685
546,-412,25.4265,2.4342,0,0,0,0,0,0,0,-1,1770,1436,25.4265,-2.4342
553,-412,26.3595,7.49255,0,0,0,0,0,0,0,-1,1777,1436,26.3595,-7.4925
560,-412,24.9116,7.94324,0,0,0,0,0,0,0,-1,1784,1436,24.9116,-7.94327
567,-412,23.668,7.94531,0,0,0,0,0,0,0,-1,1791,1436,23.6679,-7.94534
574,-412,23.0142,9.17236,0,0,0,0,0,0,0,-1,1798,1436,23.0141,-9.17235
581,-412,22.2615,10.0349,0,0,0,0,0,0,0,-1,1805,1436,22.2615,-10.0349
588,-412,21.6893,10.8069,0,0,0,0,0,0,0,-1,1812,1436,21.6893,-10.8069
595,-412,21.5137,14.3157,0,0,0,0,0,0,0,-1,1819,1436,21.5137,-14.3157
602,-412,37.0725,24.8387,0,0,0,0,0,0,0,-1,1826,1436,37.0725,-24.8388
609,-412,39.5099,26.1703,0,0,0,0,0,0,0,-1,1833,1436,39.5099,-26.1703
616,-412,39.4847,25.3016,0.00204777,0.00195432,-0.00173472,0.00373639,0.000265699,-0.771934,0.00240725,0.0159524,1840,1436,39.4847,-25.3017
623,-412,39.4155,24.4749,0.00146665,0.00115838,-0.00118159,0.00250412,0.000120914,-0.720542,0.0016306,0.0106041,1847,1436,39.4155,-24.4749
630,-412,39.3918,23.5862,0.00124478,0.000586647,-0.000823637,0.00180265,2.87735e-05,-0.595348,0.00119229,0.0118246,1854,1436,39.3919,-23.5861
637,-412,39.3579,22.7235,0.00132337,0.000232776,-0.000693996,0.00166067,-0.000104524,-0.452406,0.00114355,0.0144946,1861,1436,39.358,-22.7235
644,-412,39.3013,21.9049,0.00167539,8.79384e-05,-0.000796438,0.00200608,-0.000242753,-0.393552,0.00142521,0.0167984,1868,1436,39.3013,-21.9049
651,-412,39.2373,20.9915,0.00224805,0.000157913,-0.00110101,0.002721,-0.000315038,-0.405729,0.00192761,0.0266956,1875,1436,39.2373,-20.9914
658,-412,39.1699,20.2067,0.00305968,0.00040791,-0.0016123,0.00382125,-0.000353661,-0.441285,0.0026732,0.0191635,1882,1436,39.17,-20.2066
665,-412,39.1349,19.353,0.00410456,0.000826645,-0.00231745,0.00530405,-0.000372842,-0.477619,0.00366664,0.0249674,1889,1436,39.1348,-19.353
672,-412,39.1614,18.4767,0.00533955,0.00137399,-0.00320905,0.00712896,-0.000415415,-0.50867,0.00489699,0.0454686,1896,1436,39.1613,-18.4767
679,-412,39.2544,17.5594,0,0,0,0,0,0,0,-1,1903,1436,39.2544,-17.5595
686,-412,35.3159,15.2073,0,0,0,0,0,0,0,-1,1910,1436,35.3159,-15.2072
693,-412,11.9346,6.02344,0,0,0,0,0,0,0,-1,1917,1436,11.9346,-6.02343
700,-412,8.82764,5.8844,0,0,0,0,0,0,0,-1,1924,1436,8.82761,-5.88444
707,-412,6.59998,1.68994,0,0,0,0,0,0,0,-1,1931,1436,6.60002,-1.68995
714,-412,4.77283,-2.39832,0,0,0,0,0,0,0,-1,1938,1436,4.77288,2.39835
721,-412,0,0,0,0,0,0,0,0,0,-1,1945,1436,0,0
728,-412,0,0,0,0,0,0,0,0,0,-1,1952,1436,0,0
735,-412,0,0,0,0,0,0,0,0,0,-1,1959,1436,0,0
742,-412,0,0,0,0,0,0,0,0,0,-1,1966,1436,0,0
749,-412,0,0,0,0,0,0,0,0,0,-1,1973,1436,0,0
756,-412,0,0,0,0,0,0,0,0,0,-1,1980,1436,0,0
763,-412,0,0,0,0,0,0,0,0,0,-1,1987,1436,0,0
770,-412,0,0,0,0,0,0,0,0,0,-1,1994,1436,0,0
777,-412,0,0,0,0,0,0,0,0,0,-1,2001,1436,0,0
784,-412,0,0,0,0,0,0,0,0,0,-1,2008,1436,0,0
791,-412,0,0,0,0,0,0,0,0,0,-1,2015,1436,0,0
798,-412,0,0,0,0,0,0,0,0,0,-1,2022,1436,0,0
805,-412,0,0,0,0,0,0,0,0,0,-1,2029,1436,0,0
812,-412,0,0,0,0,0,0,0,0,0,-1,2036,1436,0,0
-700,-419,0,0,0,0,0,0,0,0,0,-1,524,1443,0,0
-693,-419,0,0,0,0,0,0,0,0,0,-1,531,1443,0,0
-686,-419,0,0,0,0,0,0,0,0,0,-1,538,1443,0,0
-679,-419,0,0,0,0,0,0,0,0,0,-1,545,1443,0,0
-672,-419,0,0,0,0,0,0,0,0,0,-1,552,1443,0,0
-665,-419,0,0,0,0,0,0,0,0,0,-1,559,1443,0,0
-658,-419,0,0,0,0,0,0,0,0,0,-1,566,1443,0,0
-651,-419,0,0,0,0,0,0,0,0,0,-1,573,1443,0,0
-644,-419,0,0,0,0,0,0,0,0,0,-1,580,1443,0,0
-637,-419,0,0,0,0,0,0,0,0,0,-1,587,1443,0,0
-630,-419,0,0,0,0,0,0,0,0,0,-1,594,1443,0,0
-623,-419,0,0,0,0,0,0,0,0,0,-1,601,1443,0,0
-616,-419,0,0,0,0,0,0,0,0,0,-1,608,1443,0,0
-609,-419,0,0,0,0,0,0,0,0,0,-1,615,1443,0,0
-602,-419,0,0,0,0,0,0,0,0,0,-1,622,1443,0,0
-595,-419,-11.4904,-0.622681,0,0,0,0,0,0,0,-1,629,1443,-11.4903,0.622714
-588,-419,-9.09369,0.742432,0,0,0,0,0,0,0,-1,636,1443,-9.09366,-0.742482
-581,-419,-6.39172,2.14673,0,0,0,0,0,0,0,-1,643,1443,-6.39175,-2.14668
-574,-419,-4.09772,3.54773,0,0,0,0,0,0,0,-1,650,1443,-4.09772,-3.54767
-567,-419,-6.14038,3.22498,0,0,0,0,0,0,0,-1,657,1443,-6.14037,-3.22497
-560,-419,-4.52814,5.22253,0,0,0,0,0,0,0,-1,664,1443,-4.52816,-5.22251
-553,-419,-5.08331,6.11829,0,0,0,0,0,0,0,-1,671,1443,-5.08331,-6.1183
-546,-419,-10.3732,9.23279,0,0,0,0,0,0,0,-1,678,1443,-10.3732,-9.23275
-539,-419,-20.8621,18.4489,0,0,0,0,0,0,0,-1,685,1443,-20.8621,-18.4489
-532,-419,-20.9584,19.4431,0.00373111,0.0044214,0.00378909,0.00788103,0.000271477,0.830817,0.00516591,0.0343756,692,1443,-20.9585,-19.4431
-525,-419,-20.9764,20.3853,0.00293032,0.00339302,0.00295676,0.00612746,0.000195873,0.824441,0.00402127,0.0128439,699,1443,-20.9765,-20.3852
-518,-419,-20.9894,21.2391,0.00243613,0.00258193,0.00231946,0.00482963,0.000188432,0.801108,0.00315882,0.0169902,706,1443,-20.9894,-21.2391
-511,-419,-21.0502,22.0898,0.00213944,0.00193872,0.00181282,0.00385468,0.000223487,0.757745,0.00249862,0.0201709,713,1443,-21.0503,-22.0899
-504,-419,-21.1607,22.9594,0.00200788,0.00146797,0.00142242,0.00318573,0.000290112,0.691621,0.00203403,0.0210119,720,1443,-21.1607,-22.9593
-497,-419,-21.1973,23.8176,0.00205612,0.00117273,0.0011646,0.00285998,0.000368881,0.604146,0.00179636,0.0150039,727,1443,-21.1973,-23.8176
-490,-419,-21.2177,24.6831,0.0022307,0.00103131,0.00102958,0.00282251,0.000439504,0.521686,0.00175363,0.0121837,734,1443,-21.2177,-24.6831
-483,-419,-21.2547,25.5546,0.00254864,0.00113364,0.00105017,0.0031074,0.000574884,0.488969,0.00190905,0.0108289,741,1443,-21.2547,-25.5546
-476,-419,-21.2803,26.4425,0.00290745,0.00133698,0.00118814,0.00354639,0.00069804,0.493401,0.00216934,0.0235419,748,1443,-21.2804,-26.4425
-469,-419,-21.3152,27.3352,0,0,0,0,0,0,0,-1,755,1443,-21.3152,-27.3352
-462,-419,-11.5347,18.1563,0,0,0,0,0,0,0,-1,762,1443,-11.5347,-18.1562
-455,-419,-7.35645,11.9451,0,0,0,0,0,0,0,-1,769,1443,-7.35646,-11.9451
-448,-419,-7.49109,9.92444,0,0,0,0,0,0,0,-1,776,1443,-7.49109,-9.92442
-441,-419,-7.65527,8.75574,0,0,0,0,0,0,0,-1,783,1443,-7.65525,-8.75568
-434,-419,-11.3724,12.3643,0,0,0,0,0,0,0,-1,790,1443,-11.3724,-12.3643
-427,-419,-8.23193,7.89404,0,0,0,0,0,0,0,-1,797,1443,-8.23193,-7.89404
-420,-419,-8.74091,6.36597,0,0,0,0,0,0,0,-1,804,1443,-8.74089,-6.366
-413,-419,-9.88391,6.53955,0,0,0,0,0,0,0,-1,811,1443,-9.8839,-6.53955
-406,-419,-10.3372,2.75195,0,0,0,0,0,0,0,-1,818,1443,-10.3372,-2.75201
-399,-419,-11.5999,1.40002,0,0,0,0,0,0,0,-1,825,1443,-11.5999,-1.39998
-392,-419,0,0,0,0,0,0,0,0,0,-1,832,1443,0,0
-385,-419,0,0,0,0,0,0,0,0,0,-1,839,1443,0,0
-378,-419,0,0,0,0,0,0,0,0,0,-1,846,1443,0,0
-371,-419,0,0,0,0,0,0,0,0,0,-1,853,1443,0,0
-364,-419,0,0,0,0,0,0,0,0,0,-1,860,1443,0,0
-357,-419,0,0,0,0,0,0,0,0,0,-1,867,1443,0,0
-350,-419,0,0,0,0,0,0,0,0,0,-1,874,1443,0,0
-343,-419,0,0,0,0,0,0,0,0,0,-1,881,1443,0,0
-336,-419,0,0,0,0,0,0,0,0,0,-1,888,1443,0,0
-329,-419,0,0,0,0,0,0,0,0,0,-1,895,1443,0,0
-322,-419,0,0,0,0,0,0,0,0,0,-1,902,1443,0,0
-315,-419,0,0,0,0,0,0,0,0,0,-1,909,1443,0,0
-308,-419,0,0,0,0,0,0,0,0,0,-1,916,1443,0,0
-301,-419,0,0,0,0,0,0,0,0,0,-1,923,1443,0,0
-294,-419,0,0,0,0,0,0,0,0,0,-1,930,1443,0,0
-287,-419,0,0,0,0,0,0,0,0,0,-1,937,1443,0,0
-280,-419,0,0,0,0,0,0,0,0,0,-1,944,1443,0,0
-273,-419,0,0,0,0,0,0,0,0,0,-1,951,1443,0,0
-266,-419,0,0,0,0,0,0,0,0,0,-1,958,1443,0,0
-259,-419,0,0,0,0,0,0,0,0,0,-1,965,1443,0,0
-252,-419,0,0,0,0,0,0,0,0,0,-1,972,1443,0,0
-245,-419,0,0,0,0,0,0,0,0,0,-1,979,1443,0,0
-238,-419,0,0,0,0,0,0,0,0,0,-1,986,1443,0,0
-231,-419,0,0,0,0,0,0,0,0,0,-1,993,1443,0,0
-224,-419,0,0,0,0,0,0,0,0,0,-1,1000,1443,0,0
-217,-419,0,0,0,0,0,0,0,0,0,-1,1007,1443,0,0
-210,-419,0,0,0,0,0,0,0,0,0,-1,1014,1443,0,0
-203,-419,0,0,0,0,0,0,0,0,0,-1,1021,1443,0,0
-196,-419,0,0,0,0,0,0,0,0,0,-1,1028,1443,0,0
-189,-419,0,0,0,0,0,0,0,0,0,-1,1035,1443,0,0
-182,-419,0,0,0,0,0,0,0,0,0,-1,1042,1443,0,0
-175,-419,0,0,0,0,0,0,0,0,0,-1,1049,1443,0,0
-168,-419,0,0,0,0,0,0,0,0,0,-1,1056,1443,0,0
-161,-419,0,0,0,0,0,0,0,0,0,-1,1063,1443,0,0
-154,-419,0,0,0,0,0,0,0,0,0,-1,1070,1443,0,0
-147,-419,0,0,0,0,0,0,0,0,0,-1,1077,1443,0,0
-140,-419,0,0,0,0,0,0,0,0,0,-1,1084,1443,0,0
-133,-419,0,0,0,0,0,0,0,0,0,-1,1091,1443,0,0
-126,-419,0,0,0,0,0,0,0,0,0,-1,1098,1443,0,0
-119,-419,0,0,0,0,0,0,0,0,0,-1,1105,1443,0,0
-112,-419,0,0,0,0,0,0,0,0,0,-1,1112,1443,0,0
-105,-419,0,0,0,0,0,0,0,0,0,-1,1119,1443,0,0
-98,-419,0,0,0,0,0,0,0,0,0,-1,1126,1443,0,0
-91,-419,0,0,0,0,0,0,0,0,0,-1,1133,1443,0,0
-84,-419,0,0,0,0,0,0,0,0,0,-1,1140,1443,0,0
-77,-419,0,0,0,0,0,0,0,0,0,-1,1147,1443,0,0
-70,-419,0,0,0,0,0,0,0,0,0,-1,1154,1443,0,0
-63,-419,0,0,0,0,0,0,0,0,0,-1,1161,1443,0,0
-56,-419,0,0,0,0,0,0,0,0,0,-1,1168,1443,0,0
-49,-419,0,0,0,0,0,0,0,0,0,-1,1175,1443,0,0
-42,-419,0,0,0,0,0,0,0,0,0,-1,1182,1443,0,0
-35,-419,0,0,0,0,0,0,0,0,0,-1,1189,1443,0,0
-28,-419,0,0,0,0,0,0,0,0,0,-1,1196,1443,0,0
-21,-419,0,0,0,0,0,0,0,0,0,-1,1203,1443,0,0
-14,-419,0,0,0,0,0,0,0,0,0,-1,1210,1443,0,0
-7,-419,0,0,0,0,0,0,0,0,0,-1,1217,1443,0,0
0,-419,0,0,0,0,0,0,0,0,0,-1,1224,1443,0,0
7,-419,0,0,0,0,0,0,0,0,0,-1,1231,1443,0,0
14,-419,0,0,0,0,0,0,0,0,0,-1,1238,1443,0,0
21,-419,0,0,0,0,0,0,0,0,0,-1,1245,1443,0,0
28,-419,0,0,0,0,0,0,0,0,0,-1,1252,1443,0,0
35,-419,0,0,0,0,0,0,0,0,0,-1,1259,1443,0,0
42,-419,0,0,0,0,0,0,0,0,0,-1,1266,1443,0,0
49,-419,0,0,0,0,0,0,0,0,0,-1,1273,1443,0,0
56,-419,0,0,0,0,0,0,0,0,0,-1,1280,1443,0,0
63,-419,0,0,0,0,0,0,0,0,0,-1,1287,1443,0,0
70,-419,0,0,0,0,0,0,0,0,0,-1,1294,1443,0,0
77,-419,0,0,0,0,0,0,0,0,0,-1,1301,1443,0,0
84,-419,0,0,0,0,0,0,0,0,0,-1,1308,1443,0,0
91,-419,0,0,0,0,0,0,0,0,0,-1,1315,1443,0,0
98,-419,0,0,0,0,0,0,0,0,0,-1,1322,1443,0,0
105,-419,0,0,0,0,0,0,0,0,0,-1,1329,1443,0,0
112,-419,0,0,0,0,0,0,0,0,0,-1,1336,1443,0,0
119,-419,0,0,0,0,0,0,0,0,0,-1,1343,1443,0,0
126,-419,0,0,0,0,0,0,0,0,0,-1,1350,1443,0,0
133,-419,0,0,0,0,0,0,0,0,0,-1,1357,1443,0,0
140,-419,0,0,0,0,0,0,0,0,0,-1,1364,1443,0,0
147,-419,0,0,0,0,0,0,0,0,0,-1,1371,1443,0,0
154,-419,0,0,0,0,0,0,0,0,0,-1,1378,1443,0,0
161,-419,0,0,0,0,0,0,0,0,0,-1,1385,1443,0,0
168,-419,0,0,0,0,0,0,0,0,0,-1,1392,1443,0,0
175,-419,0,0,0,0,0,0,0,0,0,-1,1399,1443,0,0
182,-419,0,0,0,0,0,0,0,0,0,-1,1406,1443,0,0
189,-419,0,0,0,0,0,0,0,0,0,-1,1413,1443,0,0
196,-419,0,0,0,0,0,0,0,0,0,-1,1420,1443,0,0
203,-419,0,0,0,0,0,0,0,0,0,-1,1427,1443,0,0
210,-419,0,0,0,0,0,0,0,0,0,-1,1434,1443,0,0
217,-419,0,0,0,0,0,0,0,0,0,-1,1441,1443,0,0
224,-419,0,0,0,0,0,0,0,0,0,-1,1448,1443,0,0
231,-419,0,0,0,0,0,0,0,0,0,-1,1455,1443,0,0
238,-419,0,0,0,0,0,0,0,0,0,-1,1462,1443,0,0
245,-419,0,0,0,0,0,0,0,0,0,-1,1469,1443,0,0
252,-419,0,0,0,0,0,0,0,0,0,-1,1476,1443,0,0
259,-419,0,0,0,0,0,0,0,0,0,-1,1483,1443,0,0
266,-419,0,0,0,0,0,0,0,0,0,-1,1490,1443,0,0
273,-419,0,0,0,0,0,0,0,0,0,-1,1497,1443,0,0
280,-419,0,0,0,0,0,0,0,0,0,-1,1504,1443,0,0
287,-419,0,0,0,0,0,0,0,0,0,-1,1511,1443,0,0
294,-419,0,0,0,0,0,0,0,0,0,-1,1518,1443,0,0
301,-419,0,0,0,0,0,0,0,0,0,-1,1525,1443,0,0
308,-419,0,0,0,0,0,0,0,0,0,-1,1532,1443,0,0
315,-419,0,0,0,0,0,0,0,0,0,-1,1539,1443,0,0
322,-419,0,0,0,0,0,0,0,0,0,-1,1546,1443,0,0
329,-419,0,0,0,0,0,0,0,0,0,-1,1553,1443,0,0
336,-419,0,0,0,0,0,0,0,0,0,-1,1560,1443,0,0
343,-419,0,0,0,0,0,0,0,0,0,-1,1567,1443,0,0
350,-419,0,0,0,0,0,0,0,0,0,-1,1574,1443,0,0
357,-419,0,0,0,0,0,0,0,0,0,-1,1581,1443,0,0
364,-419,0,0,0,0,0,0,0,0,0,-1,1588,1443,0,0
371,-419,0,0,0,0,0,0,0,0,0,-1,1595,1443,0,0
378,-419,0,0,0,0,0,0,0,0,0,-1,1602,1443,0,0
385,-419,0,0,0,0,0,0,0,0,0,-1,1609,1443,0,0
392,-419,0,0,0,0,0,0,0,0,0,-1,1616,1443,0,0
399,-419,0,0,0,0,0,0,0,0,0,-1,1623,1443,0,0
406,-419,0,0,0,0,0,0,0,0,0,-1,1630,1443,0,0
413,-419,0,0,0,0,0,0,0,0,0,-1,1637,1443,0,0
420,-419,0,0,0,0,0,0,0,0,0,-1,1644,1443,0,0
427,-419,0,0,0,0,0,0,0,0,0,-1,1651,1443,0,0
434,-419,0,0,0,0,0,0,0,0,0,-1,1658,1443,0,0
441,-419,0,0,0,0,0,0,0,0,0,-1,1665,1443,0,0
448,-419,0,0,0,0,0,0,0,0,0,-1,1672,1443,0,0
455,-419,0,0,0,0,0,0,0,0,0,-1,1679,1443,0,0
462,-419,0,0,0,0,0,0,0,0,0,-1,1686,1443,0,0
469,-419,0,0,0,0,0,0,0,0,0,-1,1693,1443,0,0
476,-419,0,0,0,0,0,0,0,0,0,-1,1700,1443,0,0
483,-419,0,0,0,0,0,0,0,0,0,-1,1707,1443,0,0
490,-419,0,0,0,0,0,0,0,0,0,-1,1714,1443,0,0
497,-419,0,0,0,0,0,0,0,0,0,-1,1721,1443,0,0
504,-419,0,0,0,0,0,0,0,0,0,-1,1728,1443,0,0
511,-419,20.3005,3.7959,0,0,0,0,0,0,0,-1,1735,1443,20.3005,-3.79584
518,-419,21.3154,2.03027,0,0,0,0,0,0,0,-1,1742,1443,21.3155,-2.03029
525,-419,28.3439,-1.24475,0,0,0,0,0,0,0,-1,1749,1443,28.3438,1.24471
532,-419,27.5902,-0.272583,0,0,0,0,0,0,0,-1,1756,1443,27.5902,0.272526
539,-419,26.5278,1.60583,0,0,0,0,0,0,0,-1,1763,1443,26.5279,-1.60579
546,-419,24.9509,2.77539,0,0,0,0,0,0,0,-1,1770,1443,24.9509,-2.77537
553,-419,24.118,3.75525,0,0,0,0,0,0,0,-1,1777,1443,24.1181,-3.75526
560,-419,11.8199,8.26343,0,0,0,0,0,0,0,-1,1784,1443,11.82,-8.26341
567,-419,21.5143,8.74719,0,0,0,0,0,0,0,-1,1791,1443,21.5143,-8.74722
574,-419,19.5886,6.46155,0,0,0,0,0,0,0,-1,1798,1443,19.5886,-6.46157
581,-419,20.7926,11.4265,0,0,0,0,0,0,0,-1,1805,1443,20.7926,-11.4265
588,-419,19.4242,12.5363,0,0,0,0,0,0,0,-1,1812,1443,19.4242,-12.5362
595,-419,22.9375,16.0151,0,0,0,0,0,0,0,-1,1819,1443,22.9375,-16.0152
602,-419,38.6976,27.0964,0,0,0,0,0,0,0,-1,1826,1443,38.6976,-27.0964
609,-419,38.6855,26.202,0.00300186,0.00250351,-0.00262006,0.00538457,0.000120802,-0.737989,0.00355013,0.0310555,1833,1443,38.6855,-26.202
616,-419,38.6361,25.3617,0.0022391,0.00166754,-0.00182802,0.00380355,0.000103099,-0.707859,0.00250204,0.0130319,1840,1443,38.6361,-25.3617
623,-419,38.5868,24.5129,0.001709,0.00104207,-0.00125087,0.00267009,8.09745e-05,-0.655135,0.00175369,0.0109231,1847,1443,38.5868,-24.5129
630,-419,38.5649,23.6315,0.00151543,0.000516897,-0.000873222,0.00202204,1.0289e-05,-0.525703,0.00134461,0.0125071,1854,1443,38.565,-23.6314
637,-419,38.5222,22.8016,0.00157389,0.000182137,-0.000685025,0.00185449,-9.84606e-05,-0.388769,0.00127042,0.0139457,1861,1443,38.5223,-22.8017
644,-419,38.4628,21.986,0.00191751,3.27309e-05,-0.000735175,0.00217035,-0.000220111,-0.331249,0.00152558,0.0131457,1868,1443,38.4628,-21.986
651,-419,38.3915,21.1735,0.0024901,7.86439e-05,-0.000994722,0.00284746,-0.000278719,-0.344899,0.00199771,0.0123262,1875,1443,38.3914,-21.1735
658,-419,38.3242,20.2859,0.00334372,0.000322075,-0.00149115,0.00395566,-0.000289867,-0.389424,0.00273885,0.0137186,1882,1443,38.3242,-20.2859
665,-419,38.3129,19.4063,0.00444762,0.000721365,-0.00220121,0.00546834,-0.000299351,-0.434195,0.00374933,0.0259333,1889,1443,38.3129,-19.4062
672,-419,38.3475,18.516,0,0,0,0,0,0,0,-1,1896,1443,38.3475,-18.516
679,-419,35.5436,15.4066,0,0,0,0,0,0,0,-1,1903,1443,35.5436,-15.4067
686,-419,17.4127,8.03076,0,0,0,0,0,0,0,-1,1910,1443,17.4127,-8.03071
693,-419,8.76086,5.60535,0,0,0,0,0,0,0,-1,1917,1443,8.76091,-5.6054
700,-419,11.0498,4.85156,0,0,0,0,0,0,0,-1,1924,1443,11.0498,-4.85153
707,-419,9.5752,1.80042,0,0,0,0,0,0,0,-1,1931,1443,9.57523,-1.80037
714,-419,5.77576,-1.25061,0,0,0,0,0,0,0,-1,1938,1443,5.7757,1.25056
721,-419,0,0,0,0,0,0,0,0,0,-1,1945,1443,0,0
728,-419,0,0,0,0,0,0,0,0,0,-1,1952,1443,0,0
735,-419,0,0,0,0,0,0,0,0,0,-1,1959,1443,0,0
742,-419,0,0,0,0,0,0,0,0,0,-1,1966,1443,0,0
749,-419,0,0,0,0,0,0,0,0,0,-1,1973,1443,0,0
756,-419,0,0,0,0,0,0,0,0,0,-1,1980,1443,0,0
763,-419,0,0,0,0,0,0,0,0,0,-1,1987,1443,0,0
770,-419,0,0,0,0,0,0,0,0,0,-1,1994,1443,0,0
777,-419,0,0,0,0,0,0,0,0,0,-1,2001,1443,0,0
784,-419,0,0,0,0,0,0,0,0,0,-1,2008,1443,0,0
791,-419,0,0,0,0,0,0,0,0,0,-1,2015,1443,0,0
798,-419,0,0,0,0,0,0,0,0,0,-1,2022,1443,0,0
805,-419,0,0,0,0,0,0,0,0,0,-1,2029,1443,0,0
812,-419,0,0,0,0,0,0,0,0,0,-1,2036,1443,0,0
-700,-426,0,0,0,0,0,0,0,0,0,-1,524,1450,0,0
-693,-426,0,0,0,0,0,0,0,0,0,-1,531,1450,0,0
-686,-426,0,0,0,0,0,0,0,0,0,-1,538,1450,0,0
-679,-426,0,0,0,0,0,0,0,0,0,-1,545,1450,0,0
-672,-426,0,0,0,0,0,0,0,0,0,-1,552,1450,0,0
-665,-426,0,0,0,0,0,0,0,0,0,-1,559,1450,0,0
-658,-426,0,0,0,0,0,0,0,0,0,-1,566,1450,0,0
-651,-426,0,0,0,0,0,0,0,0,0,-1,573,1450,0,0
-644,-426,0,0,0,0,0,0,0,0,0,-1,580,1450,0,0
-637,-426,0,0,0,0,0,0,0,0,0,-1,587,1450,0,0
-630,-426,0,0,0,0,0,0,0,0,0,-1,594,1450,0,0
-623,-426,0,0,0,0,0,0,0,0,0,-1,601,1450,0,0
-616,-426,0,0,0,0,0,0,0,0,0,-1,608,1450,0,0
-609,-426,0,0,0,0,0,0,0,0,0,-1,615,1450,0,0
-602,-426,0,0,0,0,0,0,0,0,0,-1,622,1450,0,0
-595,-426,0,0,0,0,0,0,0,0,0,-1,629,1450,0,0
-588,-426,-10.184,-0.554321,0,0,0,0,0,0,0,-1,636,1450,-10.184,0.554321
-581,-426,-7.3349,1.48157,0,0,0,0,0,0,0,-1,643,1450,-7.33491,-1.48152
-574,-426,-5.02856,2.89319,0,0,0,0,0,0,0,-1,650,1450,-5.02858,-2.89319
-567,-426,-3.04797,1.72644,0,0,0,0,0,0,0,-1,657,1450,-3.04797,-1.72639
-560,-426,-5.55682,3.44397,0,0,0,0,0,0,0,-1,664,1450,-5.55684,-3.44399
-553,-426,-4.67017,6.66614,0,0,0,0,0,0,0,-1,671,1450,-4.67015,-6.66619
-546,-426,-7.58752,8.28882,0,0,0,0,0,0,0,-1,678,1450,-7.58752,-8.28878
-539,-426,-10.436,10.7441,0,0,0,0,0,0,0,-1,685,1450,-10.436,-10.7441
-532,-426,-20.1207,19.3867,0,0,0,0,0,0,0,-1,692,1450,-20.1206,-19.3867
-525,-426,-20.1416,20.3419,0.00299249,0.00424517,0.00362649,0.00729901,-6.13553e-05,0.87091,0.00488659,0.0275756,699,1450,-20.1416,-20.3419
-518,-426,-20.1304,21.304,0.00248049,0.00325233,0.00285422,0.0057466,-1.37836e-05,0.852596,0.00383567,0.0165949,706,1450,-20.1304,-21.304
-511,-426,-20.1788,22.1704,0.0021453,0.00244204,0.00222081,0.00451943,6.79099e-05,0.818754,0.00299057,0.0168985,713,1450,-20.1788,-22.1704
-504,-426,-20.2635,23.0188,0.00193892,0.00182131,0.00170666,0.00358779,0.000172443,0.768177,0.0023365,0.0168899,720,1450,-20.2636,-23.0187
-497,-426,-20.2982,23.8795,0.0018686,0.00138205,0.00131321,0.00296088,0.000289771,0.69381,0.00188477,0.0135434,727,1450,-20.2982,-23.8795
-490,-426,-20.3388,24.7572,0.00188379,0.00110381,0.00103608,0.00260085,0.000386752,0.605394,0.00162044,0.0133093,734,1450,-20.3388,-24.7572
-483,-426,-20.3848,25.6411,0.0020477,0.00107751,0.000929967,0.00261149,0.000513722,0.544998,0.00159753,0.0129283,741,1450,-20.3848,-25.6411
-476,-426,-20.4322,26.4961,0.0022336,0.00119148,0.000922908,0.00277238,0.000652701,0.528413,0.00167366,0.010028,748,1450,-20.4322,-26.4961
-469,-426,-20.4909,27.3439,0.00254536,0.00155979,0.001057,0.0032188,0.000886346,0.567272,0.00191988,0.0148681,755,1450,-20.4909,-27.3439
-462,-426,-20.4371,28.251,0,0,0,0,0,0,0,-1,762,1450,-20.4372,-28.2509
-455,-426,-10.215,17.7007,0,0,0,0,0,0,0,-1,769,1450,-10.215,-17.7007
-448,-426,-6.46545,10.1322,0,0,0,0,0,0,0,-1,776,1450,-6.46543,-10.1322
-441,-426,-10.9547,11.4747,0,0,0,0,0,0,0,-1,783,1450,-10.9546,-11.4748
-434,-426,-10.4998,13.6189,0,0,0,0,0,0,0,-1,790,1450,-10.4997,-13.6189
-427,-426,-9.36627,13.7396,0,0,0,0,0,0,0,-1,797,1450,-9.36628,-13.7396
-420,-426,-5.33765,7.95044,0,0,0,0,0,0,0,-1,804,1450,-5.33766,-7.95041
-413,-426,-10.1148,5.0415,0,0,0,0,0,0,0,-1,811,1450,-10.1148,-5.04152
-406,-426,-11.4199,3.6438,0,0,0,0,0,0,0,-1,818,1450,-11.4198,-3.64382
-399,-426,-12.7595,2.29004,0,0,0,0,0,0,0,-1,825,1450,-12.7595,-2.29003
-392,-426,-12.4147,0.537354,0,0,0,0,0,0,0,-1,832,1450,-12.4147,-0.53731
-385,-426,0,0,0,0,0,0,0,0,0,-1,839,1450,0,0
-378,-426,0,0,0,0,0,0,0,0,0,-1,846,1450,0,0
-371,-426,0,0,0,0,0,0,0,0,0,-1,853,1450,0,0
-364,-426,0,0,0,0,0,0,0,0,0,-1,860,1450,0,0
-357,-426,0,0,0,0,0,0,0,0,0,-1,867,1450,0,0
-350,-426,0,0,0,0,0,0,0,0,0,-1,874,1450,0,0
-343,-426,0,0,0,0,0,0,0,0,0,-1,881,1450,0,0
-336,-426,0,0,0,0,0,0,0,0,0,-1,888,1450,0,0
-329,-426,0,0,0,0,0,0,0,0,0,-1,895,1450,0,0
-322,-426,0,0,0,0,0,0,0,0,0,-1,902,1450,0,0
-315,-426,0,0,0,0,0,0,0,0,0,-1,909,1450,0,0
-308,-426,0,0,0,0,0,0,0,0,0,-1,916,1450,0,0
-301,-426,0,0,0,0,0,0,0,0,0,-1,923,1450,0,0
-294,-426,0,0,0,0,0,0,0,0,0,-1,930,1450,0,0
-287,-426,0,0,0,0,0,0,0,0,0,-1,937,1450,0,0
-280,-426,0,0,0,0,0,0,0,0,0,-1,944,1450,0,0
-273,-426,0,0,0,0,0,0,0,0,0,-1,951,1450,0,0
-266,-426,0,0,0,0,0,0,0,0,0,-1,958,1450,0,0
-259,-426,0,0,0,0,0,0,0,0,0,-1,965,1450,0,0
-252,-426,0,0,0,0,0,0,0,0,0,-1,972,1450,0,0
-245,-426,0,0,0,0,0,0,0,0,0,-1,979,1450,0,0
-238,-426,0,0,0,0,0,0,0,0,0,-1,986,1450,0,0
-231,-426,0,0,0,0,0,0,0,0,0,-1,993,1450,0,0
-224,-426,0,0,0,0,0,0,0,0,0,-1,1000,1450,0,0
-217,-426,0,0,0,0,0,0,0,0,0,-1,1007,1450,0,0
-210,-426,0,0,0,0,0,0,0,0,0,-1,1014,1450,0,0
-203,-426,0,0,0,0,0,0,0,0,0,-1,1021,1450,0,0
-196,-426,0,0,0,0,0,0,0,0,0,-1,1028,1450,0,0
-189,-426,0,0,0,0,0,0,0,0,0,-1,1035,1450,0,0
-182,-426,0,0,0,0,0,0,0,0,0,-1,1042,1450,0,0
-175,-426,0,0,0,0,0,0,0,0,0,-1,1049,1450,0,0
-168,-426,0,0,0,0,0,0,0,0,0,-1,1056,1450,0,0
-161,-426,0,0,0,0,0,0,0,0,0,-1,1063,1450,0,0
-154,-426,0,0,0,0,0,0,0,0,0,-1,1070,1450,0,0
-147,-426,0,0,0,0,0,0,0,0,0,-1,1077,1450,0,0
-140,-426,0,0,0,0,0,0,0,0,0,-1,1084,1450,0,0
-133,-426,0,0,0,0,0,0,0,0,0,-1,1091,1450,0,0
-126,-426,0,0,0,0,0,0,0,0,0,-1,1098,1450,0,0
-119,-426,0,0,0,0,0,0,0,0,0,-1,1105,1450,0,0
-112,-426,0,0,0,0,0,0,0,0,0,-1,1112,1450,0,0
-105,-426,0,0,0,0,0,0,0,0,0,-1,1119,1450,0,0
-98,-426,0,0,0,0,0,0,0,0,0,-1,1126,1450,0,0
-91,-426,0,0,0,0,0,0,0,0,0,-1,1133,1450,0,0
-84,-426,0,0,0,0,0,0,0,0,0,-1,1140,1450,0,0
-77,-426,0,0,0,0,0,0,0,0,0,-1,1147,1450,0,0
-70,-426,0,0,0,0,0,0,0,0,0,-1,1154,1450,0,0
-63,-426,0,0,0,0,0,0,0,0,0,-1,1161,1450,0,0
-56,-426,0,0,0,0,0,0,0,0,0,-1,1168,1450,0,0
-49,-426,0,0,0,0,0,0,0,0,0,-1,1175,1450,0,0
-42,-426,0,0,0,0,0,0,0,0,0,-1,1182,1450,0,0
-35,-426,0,0,0,0,0,0,0,0,0,-1,1189,1450,0,0
-28,-426,0,0,0,0,0,0,0,0,0,-1,1196,1450,0,0
-21,-426,0,0,0,0,0,0,0,0,0,-1,1203,1450,0,0
-14,-426,0,0,0,0,0,0,0,0,0,-1,1210,1450,0,0
-7,-426,0,0,0,0,0,0,0,0,0,-1,1217,1450,0,0
0,-426,0,0,0,0,0,0,0,0,0,-1,1224,1450,0,0
7,-426,0,0,0,0,0,0,0,0,0,-1,1231,1450,0,0
14,-426,0,0,0,0,0,0,0,0,0,-1,1238,1450,0,0
21,-426,0,0,0,0,0,0,0,0,0,-1,1245,1450,0,0
28,-426,0,0,0,0,0,0,0,0,0,-1,1252,1450,0,0
35,-426,0,0,0,0,0,0,0,0,0,-1,1259,1450,0,0
42,-426,0,0,0,0,0,0,0,0,0,-1,1266,1450,0,0
49,-426,0,0,0,0,0,0,0,0,0,-1,1273,1450,0,0
56,-426,0,0,0,0,0,0,0,0,0,-1,1280,1450,0,0
63,-426,0,0,0,0,0,0,0,0,0,-1,1287,1450,0,0
70,-426,0,0,0,0,0,0,0,0,0,-1,1294,1450,0,0
77,-426,0,0,0,0,0,0,0,0,0,-1,1301,1450,0,0
84,-426,0,0,0,0,0,0,0,0,0,-1,1308,1450,0,0
91,-426,0,0,0,0,0,0,0,0,0,-1,1315,1450,0,0
98,-426,0,0,0,0,0,0,0,0,0,-1,1322,1450,0,0
105,-426,0,0,0,0,0,0,0,0,0,-1,1329,1450,0,0
112,-426,0,0,0,0,0,0,0,0,0,-1,1336,1450,0,0
119,-426,0,0,0,0,0,0,0,0,0,-1,1343,1450,0,0
126,-426,0,0,0,0,0,0,0,0,0,-1,1350,1450,0,0
133,-426,0,0,0,0,0,0,0,0,0,-1,1357,1450,0,0
140,-426,0,0,0,0,0,0,0,0,0,-1,1364,1450,0,0
147,-426,0,0,0,0,0,0,0,0,0,-1,1371,1450,0,0
154,-426,0,0,0,0,0,0,0,0,0,-1,1378,1450,0,0
161,-426,0,0,0,0,0,0,0,0,0,-1,1385,1450,0,0
168,-426,0,0,0,0,0,0,0,0,0,-1,1392,1450,0,0
175,-426,0,0,0,0,0,0,0,0,0,-1,1399,1450,0,0
182,-426,0,0,0,0,0,0,0,0,0,-1,1406,1450,0,0
189,-426,0,0,0,0,0,0,0,0,0,-1,1413,1450,0,0
196,-426,0,0,0,0,0,0,0,0,0,-1,1420,1450,0,0
203,-426,0,0,0,0,0,0,0,0,0,-1,1427,1450,0,0
210,-426,0,0,0,0,0,0,0,0,0,-1,1434,1450,0,0
217,-426,0,0,0,0,0,0,0,0,0,-1,1441,1450,0,0
224,-426,0,0,0,0,0,0,0,0,0,-1,1448,1450,0,0
231,-426,0,0,0,0,0,0,0,0,0,-1,1455,1450,0,0
238,-426,0,0,0,0,0,0,0,0,0,-1,1462,1450,0,0
245,-426,0,0,0,0,0,0,0,0,0,-1,1469,1450,0,0
252,-426,0,0,0,0,0,0,0,0,0,-1,1476,1450,0,0
259,-426,0,0,0,0,0,0,0,0,0,-1,1483,1450,0,0
266,-426,0,0,0,0,0,0,0,0,0,-1,1490,1450,0,0
273,-426,0,0,0,0,0,0,0,0,0,-1,1497,1450,0,0
280,-426,0,0,0,0,0,0,0,0,0,-1,1504,1450,0,0
287,-426,0,0,0,0,0,0,0,0,0,-1,1511,1450,0,0
294,-426,0,0,0,0,0,0,0,0,0,-1,1518,1450,0,0
301,-426,0,0,0,0,0,0,0,0,0,-1,1525,1450,0,0
308,-426,0,0,0,0,0,0,0,0,0,-1,1532,1450,0,0
315,-426,0,0,0,0,0,0,0,0,0,-1,1539,1450,0,0
322,-426,0,0,0,0,0,0,0,0,0,-1,1546,1450,0,0
329,-426,0,0,0,0,0,0,0,0,0,-1,1553,1450,0,0
336,-426,0,0,0,0,0,0,0,0,0,-1,1560,1450,0,0
343,-426,0,0,0,0,0,0,0,0,0,-1,1567,1450,0,0
350,-426,0,0,0,0,0,0,0,0,0,-1,1574,1450,0,0
357,-426,0,0,0,0,0,0,0,0,0,-1,1581,1450,0,0
364,-426,0,0,0,0,0,0,0,0,0,-1,1588,1450,0,0
371,-426,0,0,0,0,0,0,0,0,0,-1,1595,1450,0,0
378,-426,0,0,0,0,0,0,0,0,0,-1,1602,1450,0,0
385,-426,0,0,0,0,0,0,0,0,0,-1,1609,1450,0,0
392,-426,0,0,0,0,0,0,0,0,0,-1,1616,1450,0,0
399,-426,0,0,0,0,0,0,0,0,0,-1,1623,1450,0,0
406,-426,0,0,0,0,0,0,0,0,0,-1,1630,1450,0,0
413,-426,0,0,0,0,0,0,0,0,0,-1,1637,1450,0,0
420,-426,0,0,0,0,0,0,0,0,0,-1,1644,1450,0,0
427,-426,0,0,0,0,0,0,0,0,0,-1,1651,1450,0,0
434,-426,0,0,0,0,0,0,0,0,0,-1,1658,1450,0,0
441,-426,0,0,0,0,0,0,0,0,0,-1,1665,1450,0,0
448,-426,0,0,0,0,0,0,0,0,0,-1,1672,1450,0,0
455,-426,0,0,0,0,0,0,0,0,0,-1,1679,1450,0,0
462,-426,0,0,0,0,0,0,0,0,0,-1,1686,1450,0,0
469,-426,0,0,0,0,0,0,0,0,0,-1,1693,1450,0,0
476,-426,0,0,0,0,0,0,0,0,0,-1,1700,1450,0,0
483,-426,0,0,0,0,0,0,0,0,0,-1,1707,1450,0,0
490,-426,0,0,0,0,0,0,0,0,0,-1,1714,1450,0,0
497,-426,0,0,0,0,0,0,0,0,0,-1,1721,1450,0,0
504,-426,20.6873,3.38367,0,0,0,0,0,0,0,-1,1728,1450,20.6873,-3.38361
511,-426,19.6676,3.53748,0,0,0,0,0,0,0,-1,1735,1450,19.6676,-3.53749
518,-426,18.6853,3.32288,0,0,0,0,0,0,0,-1,1742,1450,18.6853,-3.3229
525,-426,18.9552,2.71033,0,0,0,0,0,0,0,-1,1749,1450,18.9552,-2.71034
532,-426,19.4333,2.70764,0,0,0,0,0,0,0,-1,1756,1450,19.4334,-2.70764
539,-426,25.1482,2.56287,0,0,0,0,0,0,0,-1,1763,1450,25.1482,-2.56286
546,-426,24.1136,3.75659,0,0,0,0,0,0,0,-1,1770,1450,24.1136,-3.7566
553,-426,23.0791,4.95032,0,0,0,0,0,0,0,-1,1777,1450,23.0791,-4.95034
560,-426,12.9688,11.8289,0,0,0,0,0,0,0,-1,1784,1450,12.9688,-11.8288
567,-426,13.6388,11.5623,0,0,0,0,0,0,0,-1,1791,1450,13.6388,-11.5623
574,-426,14.3943,11.0286,0,0,0,0,0,0,0,-1,1798,1450,14.3942,-11.0285
581,-426,16.3879,11.4653,0,0,0,0,0,0,0,-1,1805,1450,16.3879,-11.4653
588,-426,18.1212,12.5547,0,0,0,0,0,0,0,-1,1812,1450,18.1212,-12.5547
595,-426,30.0474,21.0964,0,0,0,0,0,0,0,-1,1819,1450,30.0474,-21.0965
602,-426,37.8553,27.1,0,0,0,0,0,0,0,-1,1826,1450,37.8553,-27.1
609,-426,37.8381,26.2382,0.00319035,0.00223775,-0.00256984,0.00532765,0.000100446,-0.693767,0.00351876,0.015531,1833,1450,37.8382,-26.2381
616,-426,37.7999,25.3806,0.00236779,0.00143119,-0.00175049,0.00371154,8.74385e-05,-0.654698,0.00244574,0.0157075,1840,1450,37.7999,-25.3806
623,-426,37.7598,24.5404,0.00188165,0.000857815,-0.00116602,0.00264318,9.62844e-05,-0.578552,0.00173092,0.012864,1847,1450,37.7598,-24.5404
630,-426,37.7471,23.7074,0.00174551,0.000330412,-0.00077639,0.00208839,-1.24711e-05,-0.415878,0.00139644,0.0135389,1854,1450,37.7471,-23.7073
637,-426,37.6853,22.871,0.00181905,-2.45527e-05,-0.000541972,0.00196657,-0.000172075,-0.265756,0.001372,0.0142015,1861,1450,37.6853,-22.871
644,-426,37.5948,22.0497,0.00218458,-0.000198087,-0.000537394,0.00230017,-0.000313684,-0.211879,0.00164799,0.0138988,1868,1450,37.5948,-22.0496
651,-426,37.524,21.2305,0.00282325,-0.000155701,-0.000774461,0.00301257,-0.000345012,-0.239742,0.0021327,0.0128747,1875,1450,37.524,-21.2304
658,-426,37.5109,20.3123,0.00377927,0.000117378,-0.00125947,0.00417062,-0.00027398,-0.301273,0.0028761,0.0138666,1882,1450,37.5109,-20.3122
665,-426,37.6279,19.4709,0,0,0,0,0,0,0,-1,1889,1450,37.6279,-19.4709
672,-426,36.2397,16.927,0,0,0,0,0,0,0,-1,1896,1450,36.2397,-16.9271
679,-426,17.1522,8.15784,0,0,0,0,0,0,0,-1,1903,1450,17.1522,-8.15784
686,-426,13.5326,8.03711,0,0,0,0,0,0,0,-1,1910,1450,13.5326,-8.03717
693,-426,11.8607,6.45215,0,0,0,0,0,0,0,-1,1917,1450,11.8607,-6.45215
700,-426,9.24304,2.95447,0,0,0,0,0,0,0,-1,1924,1450,9.24305,-2.95442
707,-426,8.44519,-1.21448,0,0,0,0,0,0,0,-1,1931,1450,8.44514,1.21454
714,-426,0,0,0,0,0,0,0,0,0,-1,1938,1450,0,0
721,-426,0,0,0,0,0,0,0,0,0,-1,1945,1450,0,0
728,-426,0,0,0,0,0,0,0,0,0,-1,1952,1450,0,0
735,-426,0,0,0,0,0,0,0,0,0,-1,1959,1450,0,0
742,-426,0,0,0,0,0,0,0,0,0,-1,1966,1450,0,0
749,-426,0,0,0,0,0,0,0,0,0,-1,1973,1450,0,0
756,-426,0,0,0,0,0,0,0,0,0,-1,1980,1450,0,0
763,-426,0,0,0,0,0,0,0,0,0,-1,1987,1450,0,0
770,-426,0,0,0,0,0,0,0,0,0,-1,1994,1450,0,0
777,-426,0,0,0,0,0,0,0,0,0,-1,2001,1450,0,0
784,-426,0,0,0,0,0,0,0,0,0,-1,2008,1450,0,0
791,-426,0,0,0,0,0,0,0,0,0,-1,2015,1450,0,0
798,-426,0,0,0,0,0,0,0,0,0,-1,2022,1450,0,0
805,-426,0,0,0,0,0,0,0,0,0,-1,2029,1450,0,0
812,-426,0,0,0,0,0,0,0,0,0,-1,2036,1450,0,0
-700,-433,0,0,0,0,0,0,0,0,0,-1,524,1457,0,0
-693,-433,0,0,0,0,0,0,0,0,0,-1,531,1457,0,0
-686,-433,0,0,0,0,0,0,0,0,0,-1,538,1457,0,0
-679,-433,0,0,0,0,0,0,0,0,0,-1,545,1457,0,0
-672,-433,0,0,0,0,0,0,0,0,0,-1,552,1457,0,0
-665,-433,0,0,0,0,0,0,0,0,0,-1,559,1457,0,0
-658,-433,0,0,0,0,0,0,0,0,0,-1,566,1457,0,0
-651,-433,0,0,0,0,0,0,0,0,0,-1,573,1457,0,0
-644,-433,0,0,0,0,0,0,0,0,0,-1,580,1457,0,0
-637,-433,0,0,0,0,0,0,0,0,0,-1,587,1457,0,0
-630,-433,0,0,0,0,0,0,0,0,0,-1,594,1457,0,0
-623,-433,0,0,0,0,0,0,0,0,0,-1,601,1457,0,0
-616,-433,0,0,0,0,0,0,0,0,0,-1,608,1457,0,0
-609,-433,0,0,0,0,0,0,0,0,0,-1,615,1457,0,0
-602,-433,0,0,0,0,0,0,0,0,0,-1,622,1457,0,0
-595,-433,0,0,0,0,0,0,0,0,0,-1,629,1457,0,0
-588,-433,-10.3756,-0.467041,0,0,0,0,0,0,0,-1,636,1457,-10.3756,0.467081
-581,-433,-8.12201,0.884033,0,0,0,0,0,0,0,-1,643,1457,-8.12204,-0.884056
-574,-433,-5.86847,2.23523,0,0,0,0,0,0,0,-1,650,1457,-5.86844,-2.23519
-567,-433,-5.42255,1.16833,0,0,0,0,0,0,0,-1,657,1457,-5.42254,-1.1683
-560,-433,-6.84027,1.86414,0,0,0,0,0,0,0,-1,664,1457,-6.84026,-1.86412
-553,-433,-5.74017,1.79163,0,0,0,0,0,0,0,-1,671,1457,-5.74015,-1.79166
-546,-433,-8.12451,7.35095,0,0,0,0,0,0,0,-1,678,1457,-8.12451,-7.35097
-539,-433,-7.3136,8.75659,0,0,0,0,0,0,0,-1,685,1457,-7.31362,-8.75659
-532,-433,-14.5645,14.8475,0,0,0,0,0,0,0,-1,692,1457,-14.5645,-14.8475
-525,-433,-19.3142,20.3801,0,0,0,0,0,0,0,-1,699,1457,-19.3142,-20.3802
-518,-433,-19.2685,21.3687,0.00259704,0.00411382,0.00355216,0.00698765,-0.000276785,0.89057,0.00475338,0.018841,706,1457,-19.2685,-21.3687
-511,-433,-19.3286,22.2202,0.00222812,0.00311625,0.00276822,0.0054758,-0.000131424,0.864929,0.00369512,0.0164766,713,1457,-19.3286,-22.2203
-504,-433,-19.3839,23.0605,0.00194996,0.00232011,0.00211029,0.00425343,1.66458e-05,0.829137,0.00283009,0.0135157,720,1457,-19.3838,-23.0605
-497,-433,-19.421,23.9403,0.00178673,0.00172501,0.00158828,0.00334445,0.000167294,0.775685,0.00217601,0.0149338,727,1457,-19.421,-23.9403
-490,-433,-19.4783,24.8192,0.00169302,0.00129327,0.00118214,0.00269206,0.000294227,0.701651,0.00170512,0.0168356,734,1457,-19.4783,-24.8192
-483,-433,-19.5251,25.6841,0.00175424,0.00110428,0.000959889,0.00244267,0.000415853,0.622176,0.00150905,0.0168469,741,1457,-19.5251,-25.6841
-476,-433,-19.5757,26.5647,0.00184364,0.00108703,0.000847157,0.00239312,0.000537546,0.575404,0.00144984,0.011401,748,1457,-19.5757,-26.5647
-469,-433,-19.6213,27.4336,0.00203206,0.00128277,0.000873841,0.00260818,0.000706648,0.582882,0.00155762,0.0117406,755,1457,-19.6213,-27.4336
-462,-433,-19.6774,28.3057,0,0,0,0,0,0,0,-1,762,1457,-19.6774,-28.3057
-455,-433,-13.8576,22.7446,0,0,0,0,0,0,0,-1,769,1457,-13.8576,-22.7446
-448,-433,-6.94812,14.5563,0,0,0,0,0,0,0,-1,776,1457,-6.94809,-14.5562
-441,-433,-9.97485,14.0258,0,0,0,0,0,0,0,-1,783,1457,-9.97488,-14.0257
-434,-433,-9.41205,14.2297,0,0,0,0,0,0,0,-1,790,1457,-9.41205,-14.2297
-427,-433,-8.67419,13.6827,0,0,0,0,0,0,0,-1,797,1457,-8.67422,-13.6827
-420,-433,-5.74658,9.49121,0,0,0,0,0,0,0,-1,804,1457,-5.7466,-9.49119
-413,-433,-3.63074,5.5813,0,0,0,0,0,0,0,-1,811,1457,-3.63072,-5.58129
-406,-433,-12.3472,4.69373,0,0,0,0,0,0,0,-1,818,1457,-12.3472,-4.69374
-399,-433,-12.055,2.83594,0,0,0,0,0,0,0,-1,825,1457,-12.055,-2.83594
-392,-433,-12.9772,1.6228,0,0,0,0,0,0,0,-1,832,1457,-12.9772,-1.62282
-385,-433,-13.7999,0.514771,0,0,0,0,0,0,0,-1,839,1457,-13.7999,-0.514788
-378,-433,0,0,0,0,0,0,0,0,0,-1,846,1457,0,0
-371,-433,0,0,0,0,0,0,0,0,0,-1,853,1457,0,0
-364,-433,0,0,0,0,0,0,0,0,0,-1,860,1457,0,0
-357,-433,0,0,0,0,0,0,0,0,0,-1,867,1457,0,0
-350,-433,0,0,0,0,0,0,0,0,0,-1,874,1457,0,0
-343,-433,0,0,0,0,0,0,0,0,0,-1,881,1457,0,0
-336,-433,0,0,0,0,0,0,0,0,0,-1,888,1457,0,0
-329,-433,0,0,0,0,0,0,0,0,0,-1,895,1457,0,0
-322,-433,0,0,0,0,0,0,0,0,0,-1,902,1457,0,0
-315,-433,0,0,0,0,0,0,0,0,0,-1,909,1457,0,0
-308,-433,0,0,0,0,0,0,0,0,0,-1,916,1457,0,0
-301,-433,0,0,0,0,0,0,0,0,0,-1,923,1457,0,0
-294,-433,0,0,0,0,0,0,0,0,0,-1,930,1457,0,0
-287,-433,0,0,0,0,0,0,0,0,0,-1,937,1457,0,0
-280,-433,0,0,0,0,0,0,0,0,0,-1,944,1457,0,0
-273,-433,0,0,0,0,0,0,0,0,0,-1,951,1457,0,0
-266,-433,0,0,0,0,0,0,0,0,0,-1,958,1457,0,0
-259,-433,0,0,0,0,0,0,0,0,0,-1,965,1457,0,0
-252,-433,0,0,0,0,0,0,0,0,0,-1,972,1457,0,0
-245,-433,0,0,0,0,0,0,0,0,0,-1,979,1457,0,0
-238,-433,0,0,0,0,0,0,0,0,0,-1,986,1457,0,0
-231,-433,0,0,0,0,0,0,0,0,0,-1,993,1457,0,0
-224,-433,0,0,0,0,0,0,0,0,0,-1,1000,1457,0,0
-217,-433,0,0,0,0,0,0,0,0,0,-1,1007,1457,0,0
-210,-433,0,0,0,0,0,0,0,0,0,-1,1014,1457,0,0
-203,-433,0,0,0,0,0,0,0,0,0,-1,1021,1457,0,0
-196,-433,0,0,0,0,0,0,0,0,0,-1,1028,1457,0,0
-189,-433,0,0,0,0,0,0,0,0,0,-1,1035,1457,0,0
-182,-433,0,0,0,0,0,0,0,0,0,-1,1042,1457,0,0
-175,-433,0,0,0,0,0,0,0,0,0,-1,1049,1457,0,0
-168,-433,0,0,0,0,0,0,0,0,0,-1,1056,1457,0,0
-161,-433,0,0,0,0,0,0,0,0,0,-1,1063,1457,0,0
-154,-433,0,0,0,0,0,0,0,0,0,-1,1070,1457,0,0
-147,-433,0,0,0,0,0,0,0,0,0,-1,1077,1457,0,0
-140,-433,0,0,0,0,0,0,0,0,0,-1,1084,1457,0,0
-133,-433,0,0,0,0,0,0,0,0,0,-1,1091,1457,0,0
-126,-433,0,0,0,0,0,0,0,0,0,-1,1098,1457,0,0
-119,-433,0,0,0,0,0,0,0,0,0,-1,1105,1457,0,0
-112,-433,0,0,0,0,0,0,0,0,0,-1,1112,1457,0,0
-105,-433,0,0,0,0,0,0,0,0,0,-1,1119,1457,0,0
-98,-433,0,0,0,0,0,0,0,0,0,-1,1126,1457,0,0
-91,-433,0,0,0,0,0,0,0,0,0,-1,1133,1457,0,0
-84,-433,0,0,0,0,0,0,0,0,0,-1,1140,1457,0,0
-77,-433,0,0,0,0,0,0,0,0,0,-1,1147,1457,0,0
-70,-433,0,0,0,0,0,0,0,0,0,-1,1154,1457,0,0
-63,-433,0,0,0,0,0,0,0,0,0,-1,1161,1457,0,0
-56,-433,0,0,0,0,0,0,0,0,0,-1,1168,1457,0,0
-49,-433,0,0,0,0,0,0,0,0,0,-1,1175,1457,0,0
-42,-433,0,0,0,0,0,0,0,0,0,-1,1182,1457,0,0
-35,-433,0,0,0,0,0,0,0,0,0,-1,1189,1457,0,0
-28,-433,0,0,0,0,0,0,0,0,0,-1,1196,1457,0,0
-21,-433,0,0,0,0,0,0,0,0,0,-1,1203,1457,0,0
-14,-433,0,0,0,0,0,0,0,0,0,-1,1210,1457,0,0
-7,-433,0,0,0,0,0,0,0,0,0,-1,1217,1457,0,0
0,-433,0,0,0,0,0,0,0,0,0,-1,1224,1457,0,0
7,-433,0,0,0,0,0,0,0,0,0,-1,1231,1457,0,0
14,-433,0,0,0,0,0,0,0,0,0,-1,1238,1457,0,0
21,-433,0,0,0,0,0,0,0,0,0,-1,1245,1457,0,0
28,-433,0,0,0,0,0,0,0,0,0,-1,1252,1457,0,0
35,-433,0,0,0,0,0,0,0,0,0,-1,1259,1457,0,0
42,-433,0,0,0,0,0,0,0,0,0,-1,1266,1457,0,0
49,-433,0,0,0,0,0,0,0,0,0,-1,1273,1457,0,0
56,-433,0,0,0,0,0,0,0,0,0,-1,1280,1457,0,0
63,-433,0,0,0,0,0,0,0,0,0,-1,1287,1457,0,0
70,-433,0,0,0,0,0,0,0,0,0,-1,1294,1457,0,0
77,-433,0,0,0,0,0,0,0,0,0,-1,1301,1457,0,0
84,-433,0,0,0,0,0,0,0,0,0,-1,1308,1457,0,0
91,-433,0,0,0,0,0,0,0,0,0,-1,1315,1457,0,0
98,-433,0,0,0,0,0,0,0,0,0,-1,1322,1457,0,0
105,-433,0,0,0,0,0,0,0,0,0,-1,1329,1457,0,0
112,-433,0,0,0,0,0,0,0,0,0,-1,1336,1457,0,0
119,-433,0,0,0,0,0,0,0,0,0,-1,1343,1457,0,0
126,-433,0,0,0,0,0,0,0,0,0,-1,1350,1457,0,0
133,-433,0,0,0,0,0,0,0,0,0,-1,1357,1457,0,0
140,-433,0,0,0,0,0,0,0,0,0,-1,1364,1457,0,0
147,-433,0,0,0,0,0,0,0,0,0,-1,1371,1457,0,0
154,-433,0,0,0,0,0,0,0,0,0,-1,1378,1457,0,0
161,-433,0,0,0,0,0,0,0,0,0,-1,1385,1457,0,0
168,-433,0,0,0,0,0,0,0,0,0,-1,1392,1457,0,0
175,-433,0,0,0,0,0,0,0,0,0,-1,1399,1457,0,0
182,-433,0,0,0,0,0,0,0,0,0,-1,1406,1457,0,0
189,-433,0,0,0,0,0,0,0,0,0,-1,1413,1457,0,0
196,-433,0,0,0,0,0,0,0,0,0,-1,1420,1457,0,0
203,-433,0,0,0,0,0,0,0,0,0,-1,1427,1457,0,0
210,-433,0,0,0,0,0,0,0,0,0,-1,1434,1457,0,0
217,-433,0,0,0,0,0,0,0,0,0,-1,1441,1457,0,0
224,-433,0,0,0,0,0,0,0,0,0,-1,1448,1457,0,0
231,-433,0,0,0,0,0,0,0,0,0,-1,1455,1457,0,0
238,-433,0,0,0,0,0,0,0,0,0,-1,1462,1457,0,0
245,-433,0,0,0,0,0,0,0,0,0,-1,1469,1457,0,0
252,-433,0,0,0,0,0,0,0,0,0,-1,1476,1457,0,0
259,-433,0,0,0,0,0,0,0,0,0,-1,1483,1457,0,0
266,-433,0,0,0,0,0,0,0,0,0,-1,1490,1457,0,0
273,-433,0,0,0,0,0,0,0,0,0,-1,1497,1457,0,0
280,-433,0,0,0,0,0,0,0,0,0,-1,1504,1457,0,0
287,-433,0,0,0,0,0,0,0,0,0,-1,1511,1457,0,0
294,-433,0,0,0,0,0,0,0,0,0,-1,1518,1457,0,0
301,-433,0,0,0,0,0,0,0,0,0,-1,1525,1457,0,0
308,-433,0,0,0,0,0,0,0,0,0,-1,1532,1457,0,0
315,-433,0,0,0,0,0,0,0,0,0,-1,1539,1457,0,0
322,-433,0,0,0,0,0,0,0,0,0,-1,1546,1457,0,0
329,-433,0,0,0,0,0,0,0,0,0,-1,1553,1457,0,0
336,-433,0,0,0,0,0,0,0,0,0,-1,1560,1457,0,0
343,-433,0,0,0,0,0,0,0,0,0,-1,1567,1457,0,0
350,-433,0,0,0,0,0,0,0,0,0,-1,1574,1457,0,0
357,-433,0,0,0,0,0,0,0,0,0,-1,1581,1457,0,0
364,-433,0,0,0,0,0,0,0,0,0,-1,1588,1457,0,0
371,-433,0,0,0,0,0,0,0,0,0,-1,1595,1457,0,0
378,-433,0,0,0,0,0,0,0,0,0,-1,1602,1457,0,0
385,-433,0,0,0,0,0,0,0,0,0,-1,1609,1457,0,0
392,-433,0,0,0,0,0,0,0,0,0,-1,1616,1457,0,0
399,-433,0,0,0,0,0,0,0,0,0,-1,1623,1457,0,0
406,-433,0,0,0,0,0,0,0,0,0,-1,1630,1457,0,0
413,-433,0,0,0,0,0,0,0,0,0,-1,1637,1457,0,0
420,-433,0,0,0,0,0,0,0,0,0,-1,1644,1457,0,0
427,-433,0,0,0,0,0,0,0,0,0,-1,1651,1457,0,0
434,-433,0,0,0,0,0,0,0,0,0,-1,1658,1457,0,0
441,-433,0,0,0,0,0,0,0,0,0,-1,1665,1457,0,0
448,-433,0,0,0,0,0,0,0,0,0,-1,1672,1457,0,0
455,-433,0,0,0,0,0,0,0,0,0,-1,1679,1457,0,0
462,-433,0,0,0,0,0,0,0,0,0,-1,1686,1457,0,0
469,-433,0,0,0,0,0,0,0,0,0,-1,1693,1457,0,0
476,-433,0,0,0,0,0,0,0,0,0,-1,1700,1457,0,0
483,-433,0,0,0,0,0,0,0,0,0,-1,1707,1457,0,0
490,-433,0,0,0,0,0,0,0,0,0,-1,1714,1457,0,0
497,-433,0,0,0,0,0,0,0,0,0,-1,1721,1457,0,0
504,-433,19.9058,3.03662,0,0,0,0,0,0,0,-1,1728,1457,19.9058,-3.03656
511,-433,19.0145,3.07837,0,0,0,0,0,0,0,-1,1735,1457,19.0146,-3.07834
518,-433,18.071,3.06433,0,0,0,0,0,0,0,-1,1742,1457,18.071,-3.06432
525,-433,17.2048,3.37085,0,0,0,0,0,0,0,-1,1749,1457,17.2049,-3.37083
532,-433,16.5637,3.36646,0,0,0,0,0,0,0,-1,1756,1457,16.5637,-3.36643
539,-433,15.9193,3.30396,0,0,0,0,0,0,0,-1,1763,1457,15.9193,-3.30394
546,-433,23.1903,4.81775,0,0,0,0,0,0,0,-1,1770,1457,23.1903,-4.81775
553,-433,13.9674,11.5781,0,0,0,0,0,0,0,-1,1777,1457,13.9674,-11.5781
560,-433,13.9855,11.7341,0,0,0,0,0,0,0,-1,1784,1457,13.9855,-11.7341
567,-433,13.9264,11.3364,0,0,0,0,0,0,0,-1,1791,1457,13.9263,-11.3364
574,-433,15.5305,12.3673,0,0,0,0,0,0,0,-1,1798,1457,15.5305,-12.3673
581,-433,16.6405,12.1898,0,0,0,0,0,0,0,-1,1805,1457,16.6405,-12.1898
588,-433,26.4386,19.7478,0,0,0,0,0,0,0,-1,1812,1457,26.4386,-19.7478
595,-433,37.0787,28.1111,0,0,0,0,0,0,0,-1,1819,1457,37.0787,-28.1111
602,-433,37.0245,27.1825,0.00431418,0.00265705,-0.00318405,0.00677571,0.000195519,-0.658109,0.0044534,0.0312287,1826,1457,37.0245,-27.1825
609,-433,37.0217,26.2651,0.00326312,0.0018625,-0.00230007,0.00496713,0.00015849,-0.637621,0.00325987,0.0177854,1833,1457,37.0218,-26.2651
616,-433,36.9841,25.4265,0.00242223,0.00111048,-0.00151534,0.00341754,0.000115169,-0.581159,0.00224096,0.0148518,1840,1457,36.9841,-25.4265
623,-433,36.9189,24.5947,0.00195813,0.000587358,-0.000952581,0.00244627,9.92174e-05,-0.47355,0.0015988,0.0113973,1847,1457,36.919,-24.5947
630,-433,36.8947,23.7706,0.00184497,6.81347e-05,-0.000556489,0.00200487,-9.17636e-05,-0.279797,0.00136819,0.0149256,1854,1457,36.8947,-23.7706
637,-433,36.8448,22.929,0.00191189,-0.000301218,-0.000286597,0.0019484,-0.00033773,-0.126716,0.00142491,0.0165271,1861,1457,36.8449,-22.929
644,-433,36.7621,22.1097,0.0022485,-0.000486895,-0.000223714,0.00226668,-0.00050507,-0.0810669,0.0017046,0.0171342,1868,1457,36.7621,-22.1097
651,-433,36.713,21.2671,0.00291339,-0.000438083,-0.00042969,0.0029676,-0.000492296,-0.125505,0.00216127,0.0128718,1875,1457,36.713,-21.2671
658,-433,36.7236,20.2838,0,0,0,0,0,0,0,-1,1882,1457,36.7236,-20.2838
665,-433,36.4893,18.9447,0,0,0,0,0,0,0,-1,1889,1457,36.4893,-18.9447
672,-433,18.115,8.7207,0,0,0,0,0,0,0,-1,1896,1457,18.115,-8.72074
679,-433,17.2969,9.6355,0,0,0,0,0,0,0,-1,1903,1457,17.2968,-9.63548
686,-433,13.6356,8.61694,0,0,0,0,0,0,0,-1,1910,1457,13.6356,-8.61694
693,-433,13.4081,8.39624,0,0,0,0,0,0,0,-1,1917,1457,13.4081,-8.39624
700,-433,7.16809,-1.5166,0,0,0,0,0,0,0,-1,1924,1457,7.16806,1.51656
707,-433,8.68359,-2.82202,0,0,0,0,0,0,0,-1,1931,1457,8.68359,2.82197
714,-433,0,0,0,0,0,0,0,0,0,-1,1938,1457,0,0
721,-433,0,0,0,0,0,0,0,0,0,-1,1945,1457,0,0
728,-433,0,0,0,0,0,0,0,0,0,-1,1952,1457,0,0
735,-433,0,0,0,0,0,0,0,0,0,-1,1959,1457,0,0
742,-433,0,0,0,0,0,0,0,0,0,-1,1966,1457,0,0
749,-433,0,0,0,0,0,0,0,0,0,-1,1973,1457,0,0
756,-433,0,0,0,0,0,0,0,0,0,-1,1980,1457,0,0
763,-433,0,0,0,0,0,0,0,0,0,-1,1987,1457,0,0
770,-433,0,0,0,0,0,0,0,0,0,-1,1994,1457,0,0
777,-433,0,0,0,0,0,0,0,0,0,-1,2001,1457,0,0
784,-433,0,0,0,0,0,0,0,0,0,-1,2008,1457,0,0
791,-433,0,0,0,0,0,0,0,0,0,-1,2015,1457,0,0
798,-433,0,0,0,0,0,0,0,0,0,-1,2022,1457,0,0
805,-433,0,0,0,0,0,0,0,0,0,-1,2029,1457,0,0
812,-433,0,0,0,0,0,0,0,0,0,-1,2036,1457,0,0
-700,-440,0,0,0,0,0,0,0,0,0,-1,524,1464,0,0
-693,-440,0,0,0,0,0,0,0,0,0,-1,531,1464,0,0
-686,-440,0,0,0,0,0,0,0,0,0,-1,538,1464,0,0
-679,-440,0,0,0,0,0,0,0,0,0,-1,545,1464,0,0
-672,-440,0,0,0,0,0,0,0,0,0,-1,552,1464,0,0
-665,-440,0,0,0,0,0,0,0,0,0,-1,559,1464,0,0
-658,-440,0,0,0,0,0,0,0,0,0,-1,566,1464,0,0
-651,-440,0,0,0,0,0,0,0,0,0,-1,573,1464,0,0
-644,-440,0,0,0,0,0,0,0,0,0,-1,580,1464,0,0
-637,-440,0,0,0,0,0,0,0,0,0,-1,587,1464,0,0
-630,-440,0,0,0,0,0,0,0,0,0,-1,594,1464,0,0
-623,-440,0,0,0,0,0,0,0,0,0,-1,601,1464,0,0
-616,-440,0,0,0,0,0,0,0,0,0,-1,608,1464,0,0
-609,-440,0,0,0,0,0,0,0,0,0,-1,615,1464,0,0
-602,-440,0,0,0,0,0,0,0,0,0,-1,622,1464,0,0
-595,-440,0,0,0,0,0,0,0,0,0,-1,629,1464,0,0
-588,-440,0,0,0,0,0,0,0,0,0,-1,636,1464,0,0
-581,-440,-8.97278,0.254517,0,0,0,0,0,0,0,-1,643,1464,-8.97276,-0.254526
-574,-440,-7.00818,-0.918579,0,0,0,0,0,0,0,-1,650,1464,-7.00817,0.918538
-567,-440,-6.12152,-0.0766602,0,0,0,0,0,0,0,-1,657,1464,-6.12151,0.0767097
-560,-440,-5.46747,0.82251,0,0,0,0,0,0,0,-1,664,1464,-5.46748,-0.822551
-553,-440,-6.84729,0.0831299,0,0,0,0,0,0,0,-1,671,1464,-6.84732,-0.083136
-546,-440,-5.63446,-0.153198,0,0,0,0,0,0,0,-1,678,1464,-5.63447,0.153147
-539,-440,-6.80017,8.58252,0,0,0,0,0,0,0,-1,685,1464,-6.80015,-8.58257
-532,-440,-9.69647,11.3262,0,0,0,0,0,0,0,-1,692,1464,-9.69649,-11.3262
-525,-440,-18.5443,20.2944,0,0,0,0,0,0,0,-1,699,1464,-18.5443,-20.2945
-518,-440,-18.4571,21.2814,0.00304873,0.00534892,0.00464755,0.00898657,-0.000588912,0.906693,0.00619668,0.0358639,706,1464,-18.4571,-21.2814
-511,-440,-18.4482,22.2616,0.00258975,0.0041215,0.00367097,0.00710563,-0.000394386,0.888238,0.00487387,0.0164158,713,1464,-18.4482,-22.2616
-504,-440,-18.4985,23.1277,0.00218703,0.00309951,0.0028265,0.00550636,-0.000219818,0.865415,0.00374633,0.0198532,720,1464,-18.4985,-23.1277
-497,-440,-18.584,23.9807,0.00188062,0.00229444,0.00212772,0.00422528,-5.02267e-05,0.833869,0.00283375,0.0241107,727,1464,-18.5841,-23.9808
-490,-440,-18.617,24.7904,0.00164367,0.00166524,0.00154955,0.00320405,0.000104865,0.788877,0.00210195,0.0240841,734,1464,-18.617,-24.7904
-483,-440,-18.6673,25.7,0.00156553,0.00126223,0.00115382,0.00257763,0.000250136,0.720056,0.00164141,0.0205751,741,1464,-18.6673,-25.6999
-476,-440,-18.7036,26.5845,0.00152299,0.00104821,0.000877681,0.00219482,0.00037638,0.653321,0.00135529,0.0139261,748,1464,-18.7036,-26.5845
-469,-440,-18.764,27.4714,0.00155951,0.00108201,0.000758982,0.0021164,0.000525108,0.633015,0.00127254,0.0133925,755,1464,-18.764,-27.4714
-462,-440,-18.8638,28.3224,0.00173604,0.00141965,0.000834989,0.00242769,0.000728004,0.691779,0.00143856,0.0197546,762,1464,-18.8638,-28.3224
-455,-440,-18.8826,29.23,0,0,0,0,0,0,0,-1,769,1464,-18.8826,-29.23
-448,-440,-12.8837,23.5623,0,0,0,0,0,0,0,-1,776,1464,-12.8837,-23.5623
-441,-440,-7.28583,14.7465,0,0,0,0,0,0,0,-1,783,1464,-7.28584,-14.7464
-434,-440,-8.33636,14.5024,0,0,0,0,0,0,0,-1,790,1464,-8.33638,-14.5025
-427,-440,-8.28094,14.2512,0,0,0,0,0,0,0,-1,797,1464,-8.28094,-14.2512
-420,-440,-6.86603,8.09216,0,0,0,0,0,0,0,-1,804,1464,-6.86602,-8.09222
-413,-440,-3.46796,5.72278,0,0,0,0,0,0,0,-1,811,1464,-3.46797,-5.72276
-406,-440,-5.2887,5.20264,0,0,0,0,0,0,0,-1,818,1464,-5.2887,-5.20261
-399,-440,-12.7318,3.94421,0,0,0,0,0,0,0,-1,825,1464,-12.7318,-3.94419
-392,-440,-13.5565,2.51855,0,0,0,0,0,0,0,-1,832,1464,-13.5565,-2.51861
-385,-440,-14.6741,1.39795,0,0,0,0,0,0,0,-1,839,1464,-14.6741,-1.39801
-378,-440,-15.8063,0.293457,0,0,0,0,0,0,0,-1,846,1464,-15.8063,-0.293412
-371,-440,0,0,0,0,0,0,0,0,0,-1,853,1464,0,0
-364,-440,0,0,0,0,0,0,0,0,0,-1,860,1464,0,0
-357,-440,0,0,0,0,0,0,0,0,0,-1,867,1464,0,0
-350,-440,0,0,0,0,0,0,0,0,0,-1,874,1464,0,0
-343,-440,0,0,0,0,0,0,0,0,0,-1,881,1464,0,0
-336,-440,0,0,0,0,0,0,0,0,0,-1,888,1464,0,0
-329,-440,0,0,0,0,0,0,0,0,0,-1,895,1464,0,0
-322,-440,0,0,0,0,0,0,0,0,0,-1,902,1464,0,0
-315,-440,0,0,0,0,0,0,0,0,0,-1,909,1464,0,0
-308,-440,0,0,0,0,0,0,0,0,0,-1,916,1464,0,0
-301,-440,0,0,0,0,0,0,0,0,0,-1,923,1464,0,0
-294,-440,0,0,0,0,0,0,0,0,0,-1,930,1464,0,0
-287,-440,0,0,0,0,0,0,0,0,0,-1,937,1464,0,0
-280,-440,0,0,0,0,0,0,0,0,0,-1,944,1464,0,0
-273,-440,0,0,0,0,0,0,0,0,0,-1,951,1464,0,0
-266,-440,0,0,0,0,0,0,0,0,0,-1,958,1464,0,0
-259,-440,0,0,0,0,0,0,0,0,0,-1,965,1464,0,0
-252,-440,0,0,0,0,0,0,0,0,0,-1,972,1464,0,0
-245,-440,0,0,0,0,0,0,0,0,0,-1,979,1464,0,0
-238,-440,0,0,0,0,0,0,0,0,0,-1,986,1464,0,0
-231,-440,0,0,0,0,0,0,0,0,0,-1,993,1464,0,0
-224,-440,0,0,0,0,0,0,0,0,0,-1,1000,1464,0,0
-217,-440,0,0,0,0,0,0,0,0,0,-1,1007,1464,0,0
-210,-440,0,0,0,0,0,0,0,0,0,-1,1014,1464,0,0
-203,-440,0,0,0,0,0,0,0,0,0,-1,1021,1464,0,0
-196,-440,0,0,0,0,0,0,0,0,0,-1,1028,1464,0,0
-189,-440,0,0,0,0,0,0,0,0,0,-1,1035,1464,0,0
-182,-440,0,0,0,0,0,0,0,0,0,-1,1042,1464,0,0
-175,-440,0,0,0,0,0,0,0,0,0,-1,1049,1464,0,0
-168,-440,0,0,0,0,0,0,0,0,0,-1,1056,1464,0,0
-161,-440,0,0,0,0,0,0,0,0,0,-1,1063,1464,0,0
-154,-440,0,0,0,0,0,0,0,0,0,-1,1070,1464,0,0
-147,-440,0,0,0,0,0,0,0,0,0,-1,1077,1464,0,0
-140,-440,0,0,0,0,0,0,0,0,0,-1,1084,1464,0,0
-133,-440,0,0,0,0,0,0,0,0,0,-1,1091,1464,0,0
-126,-440,0,0,0,0,0,0,0,0,0,-1,1098,1464,0,0
-119,-440,0,0,0,0,0,0,0,0,0,-1,1105,1464,0,0
-112,-440,0,0,0,0,0,0,0,0,0,-1,1112,1464,0,0
-105,-440,0,0,0,0,0,0,0,0,0,-1,1119,1464,0,0
-98,-440,0,0,0,0,0,0,0,0,0,-1,1126,1464,0,0
-91,-440,0,0,0,0,0,0,0,0,0,-1,1133,1464,0,0
-84,-440,0,0,0,0,0,0,0,0,0,-1,1140,1464,0,0
-77,-440,0,0,0,0,0,0,0,0,0,-1,1147,1464,0,0
-70,-440,0,0,0,0,0,0,0,0,0,-1,1154,1464,0,0
-63,-440,0,0,0,0,0,0,0,0,0,-1,1161,1464,0,0
-56,-440,0,0,0,0,0,0,0,0,0,-1,1168,1464,0,0
-49,-440,0,0,0,0,0,0,0,0,0,-1,1175,1464,0,0
-42,-440,0,0,0,0,0,0,0,0,0,-1,1182,1464,0,0
-35,-440,0,0,0,0,0,0,0,0,0,-1,1189,1464,0,0
-28,-440,0,0,0,0,0,0,0,0,0,-1,1196,1464,0,0
-21,-440,0,0,0,0,0,0,0,0,0,-1,1203,1464,0,0
-14,-440,0,0,0,0,0,0,0,0,0,-1,1210,1464,0,0
-7,-440,0,0,0,0,0,0,0,0,0,-1,1217,1464,0,0
0,-440,0,0,0,0,0,0,0,0,0,-1,1224,1464,0,0
7,-440,0,0,0,0,0,0,0,0,0,-1,1231,1464,0,0
14,-440,0,0,0,0,0,0,0,0,0,-1,1238,1464,0,0
21,-440,0,0,0,0,0,0,0,0,0,-1,1245,1464,0,0
28,-440,0,0,0,0,0,0,0,0,0,-1,1252,1464,0,0
35,-440,0,0,0,0,0,0,0,0,0,-1,1259,1464,0,0
42,-440,0,0,0,0,0,0,0,0,0,-1,1266,1464,0,0
49,-440,0,0,0,0,0,0,0,0,0,-1,1273,1464,0,0
56,-440,0,0,0,0,0,0,0,0,0,-1,1280,1464,0,0
63,-440,0,0,0,0,0,0,0,0,0,-1,1287,1464,0,0
70,-440,0,0,0,0,0,0,0,0,0,-1,1294,1464,0,0
77,-440,0,0,0,0,0,0,0,0,0,-1,1301,1464,0,0
84,-440,0,0,0,0,0,0,0,0,0,-1,1308,1464,0,0
91,-440,0,0,0,0,0,0,0,0,0,-1,1315,1464,0,0
98,-440,0,0,0,0,0,0,0,0,0,-1,1322,1464,0,0
105,-440,0,0,0,0,0,0,0,0,0,-1,1329,1464,0,0
112,-440,0,0,0,0,0,0,0,0,0,-1,1336,1464,0,0
119,-440,0,0,0,0,0,0,0,0,0,-1,1343,1464,0,0
126,-440,0,0,0,0,0,0,0,0,0,-1,1350,1464,0,0
133,-440,0,0,0,0,0,0,0,0,0,-1,1357,1464,0,0
140,-440,0,0,0,0,0,0,0,0,0,-1,1364,1464,0,0
147,-440,0,0,0,0,0,0,0,0,0,-1,1371,1464,0,0
154,-440,0,0,0,0,0,0,0,0,0,-1,1378,1464,0,0
161,-440,0,0,0,0,0,0,0,0,0,-1,1385,1464,0,0
168,-440,0,0,0,0,0,0,0,0,0,-1,1392,1464,0,0
175,-440,0,0,0,0,0,0,0,0,0,-1,1399,1464,0,0
182,-440,0,0,0,0,0,0,0,0,0,-1,1406,1464,0,0
189,-440,0,0,0,0,0,0,0,0,0,-1,1413,1464,0,0
196,-440,0,0,0,0,0,0,0,0,0,-1,1420,1464,0,0
203,-440,0,0,0,0,0,0,0,0,0,-1,1427,1464,0,0
210,-440,0,0,0,0,0,0,0,0,0,-1,1434,1464,0,0
217,-440,0,0,0,0,0,0,0,0,0,-1,1441,1464,0,0
224,-440,0,0,0,0,0,0,0,0,0,-1,1448,1464,0,0
231,-440,0,0,0,0,0,0,0,0,0,-1,1455,1464,0,0
238,-440,0,0,0,0,0,0,0,0,0,-1,1462,1464,0,0
245,-440,0,0,0,0,0,0,0,0,0,-1,1469,1464,0,0
252,-440,0,0,0,0,0,0,0,0,0,-1,1476,1464,0,0
259,-440,0,0,0,0,0,0,0,0,0,-1,1483,1464,0,0
266,-440,0,0,0,0,0,0,0,0,0,-1,1490,1464,0,0
273,-440,0,0,0,0,0,0,0,0,0,-1,1497,1464,0,0
280,-440,0,0,0,0,0,0,0,0,0,-1,1504,1464,0,0
287,-440,0,0,0,0,0,0,0,0,0,-1,1511,1464,0,0
294,-440,0,0,0,0,0,0,0,0,0,-1,1518,1464,0,0
301,-440,0,0,0,0,0,0,0,0,0,-1,1525,1464,0,0
308,-440,0,0,0,0,0,0,0,0,0,-1,1532,1464,0,0
315,-440,0,0,0,0,0,0,0,0,0,-1,1539,1464,0,0
322,-440,0,0,0,0,0,0,0,0,0,-1,1546,1464,0,0
329,-440,0,0,0,0,0,0,0,0,0,-1,1553,1464,0,0
336,-440,0,0,0,0,0,0,0,0,0,-1,1560,1464,0,0
343,-440,0,0,0,0,0,0,0,0,0,-1,1567,1464,0,0
350,-440,0,0,0,0,0,0,0,0,0,-1,1574,1464,0,0
357,-440,0,0,0,0,0,0,0,0,0,-1,1581,1464,0,0
364,-440,0,0,0,0,0,0,0,0,0,-1,1588,1464,0,0
371,-440,0,0,0,0,0,0,0,0,0,-1,1595,1464,0,0
378,-440,0,0,0,0,0,0,0,0,0,-1,1602,1464,0,0
385,-440,0,0,0,0,0,0,0,0,0,-1,1609,1464,0,0
392,-440,0,0,0,0,0,0,0,0,0,-1,1616,1464,0,0
399,-440,0,0,0,0,0,0,0,0,0,-1,1623,1464,0,0
406,-440,0,0,0,0,0,0,0,0,0,-1,1630,1464,0,0
413,-440,0,0,0,0,0,0,0,0,0,-1,1637,1464,0,0
420,-440,0,0,0,0,0,0,0,0,0,-1,1644,1464,0,0
427,-440,0,0,0,0,0,0,0,0,0,-1,1651,1464,0,0
434,-440,0,0,0,0,0,0,0,0,0,-1,1658,1464,0,0
441,-440,0,0,0,0,0,0,0,0,0,-1,1665,1464,0,0
448,-440,0,0,0,0,0,0,0,0,0,-1,1672,1464,0,0
455,-440,0,0,0,0,0,0,0,0,0,-1,1679,1464,0,0
462,-440,0,0,0,0,0,0,0,0,0,-1,1686,1464,0,0
469,-440,0,0,0,0,0,0,0,0,0,-1,1693,1464,0,0
476,-440,0,0,0,0,0,0,0,0,0,-1,1700,1464,0,0
483,-440,0,0,0,0,0,0,0,0,0,-1,1707,1464,0,0
490,-440,0,0,0,0,0,0,0,0,0,-1,1714,1464,0,0
497,-440,16.965,-0.528442,0,0,0,0,0,0,0,-1,1721,1464,16.965,0.528492
504,-440,15.8052,0.670166,0,0,0,0,0,0,0,-1,1728,1464,15.8052,-0.670145
511,-440,17.5754,2.77832,0,0,0,0,0,0,0,-1,1735,1464,17.5754,-2.77826
518,-440,16.9017,3.07861,0,0,0,0,0,0,0,-1,1742,1464,16.9018,-3.07859
525,-440,18.4495,12.0867,0,0,0,0,0,0,0,-1,1749,1464,18.4495,-12.0867
532,-440,15.4319,3.64392,0,0,0,0,0,0,0,-1,1756,1464,15.4318,-3.64391
539,-440,14.8214,3.41321,0,0,0,0,0,0,0,-1,1763,1464,14.8214,-3.4132
546,-440,14.8651,10.7683,0,0,0,0,0,0,0,-1,1770,1464,14.8651,-10.7683
553,-440,15.1213,11.4121,0,0,0,0,0,0,0,-1,1777,1464,15.1213,-11.4121
560,-440,17.4325,12.5394,0,0,0,0,0,0,0,-1,1784,1464,17.4325,-12.5394
567,-440,16.9025,12.4249,0,0,0,0,0,0,0,-1,1791,1464,16.9025,-12.425
574,-440,19.2841,14.8679,0,0,0,0,0,0,0,-1,1798,1464,19.2841,-14.868
581,-440,26.4432,21.3477,0,0,0,0,0,0,0,-1,1805,1464,26.4432,-21.3476
588,-440,36.0605,29.0648,0,0,0,0,0,0,0,-1,1812,1464,36.0605,-29.0649
595,-440,36.11,28.0853,0.00538348,0.00297075,-0.00367414,0.00804423,0.00031,-0.626773,0.00526253,0.0350119,1819,1464,36.11,-28.0854
602,-440,36.2158,27.1521,0.00410487,0.00214371,-0.00272024,0.00601587,0.000232707,-0.61241,0.00393531,0.0201991,1826,1464,36.2158,-27.1521
609,-440,36.1843,26.3208,0.00313846,0.00142795,-0.00190978,0.00437574,0.00019067,-0.574875,0.00285573,0.0169763,1833,1464,36.1843,-26.3209
616,-440,36.1144,25.4893,0.00235024,0.000749785,-0.00117013,0.00296761,0.000132415,-0.485487,0.00193578,0.0179527,1840,1464,36.1144,-25.4893
623,-440,36.0692,24.6417,0.00194563,0.000272683,-0.000626935,0.0021545,6.38168e-05,-0.321589,0.00141554,0.0149184,1847,1464,36.0692,-24.6417
630,-440,36.0344,23.7887,0.0018743,-0.00022945,-0.000210119,0.00189508,-0.000250231,-0.098581,0.00135452,0.0123647,1854,1464,36.0344,-23.7888
637,-440,35.9991,22.9803,0.00197494,-0.00060682,0.000102729,0.00197902,-0.000610901,0.0397066,0.00156329,0.0169392,1861,1464,35.9992,-22.9803
644,-440,35.955,22.1678,0.00234097,-0.000801858,0.000219074,0.00235617,-0.000817055,0.0692597,0.00190254,0.0165473,1868,1464,35.9549,-22.1679
651,-440,35.9481,21.2638,0.00309074,-0.00075706,4.564e-05,0.00309128,-0.000757601,0.0118591,0.00235438,0.0269978,1875,1464,35.9482,-21.2637
658,-440,36.012,20.2311,0,0,0,0,0,0,0,-1,1882,1464,36.0119,-20.231
665,-440,24.2067,12.5813,0,0,0,0,0,0,0,-1,1889,1464,24.2067,-12.5813
672,-440,18.9385,9.6394,0,0,0,0,0,0,0,-1,1896,1464,18.9384,-9.63939
679,-440,16.9508,10.2336,0,0,0,0,0,0,0,-1,1903,1464,16.9508,-10.2337
686,-440,15.2556,8.44177,0,0,0,0,0,0,0,-1,1910,1464,15.2556,-8.44177
693,-440,9.88635,2.89795,0,0,0,0,0,0,0,-1,1917,1464,9.88638,-2.89798
700,-440,7.07825,-2.62061,0,0,0,0,0,0,0,-1,1924,1464,7.07829,2.62057
707,-440,0,0,0,0,0,0,0,0,0,-1,1931,1464,0,0
714,-440,0,0,0,0,0,0,0,0,0,-1,1938,1464,0,0
721,-440,0,0,0,0,0,0,0,0,0,-1,1945,1464,0,0
728,-440,0,0,0,0,0,0,0,0,0,-1,1952,1464,0,0
735,-440,0,0,0,0,0,0,0,0,0,-1,1959,1464,0,0
742,-440,0,0,0,0,0,0,0,0,0,-1,1966,1464,0,0
749,-440,0,0,0,0,0,0,0,0,0,-1,1973,1464,0,0
756,-440,0,0,0,0,0,0,0,0,0,-1,1980,1464,0,0
763,-440,0,0,0,0,0,0,0,0,0,-1,1987,1464,0,0
770,-440,0,0,0,0,0,0,0,0,0,-1,1994,1464,0,0
777,-440,0,0,0,0,0,0,0,0,0,-1,2001,1464,0,0
784,-440,0,0,0,0,0,0,0,0,0,-1,2008,1464,0,0
791,-440,0,0,0,0,0,0,0,0,0,-1,2015,1464,0,0
798,-440,0,0,0,0,0,0,0,0,0,-1,2022,1464,0,0
805,-440,0,0,0,0,0,0,0,0,0,-1,2029,1464,0,0
812,-440,0,0,0,0,0,0,0,0,0,-1,2036,1464,0,0
-700,-447,0,0,0,0,0,0,0,0,0,-1,524,1471,0,0
-693,-447,0,0,0,0,0,0,0,0,0,-1,531,1471,0,0
-686,-447,0,0,0,0,0,0,0,0,0,-1,538,1471,0,0
-679,-447,0,0,0,0,0,0,0,0,0,-1,545,1471,0,0
-672,-447,0,0,0,0,0,0,0,0,0,-1,552,1471,0,0
-665,-447,0,0,0,0,0,0,0,0,0,-1,559,1471,0,0
-658,-447,0,0,0,0,0,0,0,0,0,-1,566,1471,0,0
-651,-447,0,0,0,0,0,0,0,0,0,-1,573,1471,0,0
-644,-447,0,0,0,0,0,0,0,0,0,-1,580,1471,0,0
-637,-447,0,0,0,0,0,0,0,0,0,-1,587,1471,0,0
-630,-447,0,0,0,0,0,0,0,0,0,-1,594,1471,0,0
-623,-447,0,0,0,0,0,0,0,0,0,-1,601,1471,0,0
-616,-447,0,0,0,0,0,0,0,0,0,-1,608,1471,0,0
-609,-447,0,0,0,0,0,0,0,0,0,-1,615,1471,0,0
-602,-447,0,0,0,0,0,0,0,0,0,-1,622,1471,0,0
-595,-447,0,0,0,0,0,0,0,0,0,-1,629,1471,0,0
-588,-447,0,0,0,0,0,0,0,0,0,-1,636,1471,0,0
-581,-447,-7.06482,-1.50476,0,0,0,0,0,0,0,-1,643,1471,-7.0648,1.50474
-574,-447,-6.88092,-0.00585938,0,0,0,0,0,0,0,-1,650,1471,-6.88095,0.00589852
-567,-447,-6.8205,-1.32178,0,0,0,0,0,0,0,-1,657,1471,-6.82047,1.32172
-560,-447,-8.85748,2.80774,0,0,0,0,0,0,0,-1,664,1471,-8.85748,-2.80775
-553,-447,-7.60486,3.26794,0,0,0,0,0,0,0,-1,671,1471,-7.60487,-3.26799
-546,-447,-3.94501,1.8656,0,0,0,0,0,0,0,-1,678,1471,-3.945,-1.86554
-539,-447,-5.35492,4.50024,0,0,0,0,0,0,0,-1,685,1471,-5.35492,-4.50018
-532,-447,-6.12781,8.81091,0,0,0,0,0,0,0,-1,692,1471,-6.12781,-8.81094
-525,-447,-9.44501,12.098,0,0,0,0,0,0,0,-1,699,1471,-9.44502,-12.098
-518,-447,-17.6603,21.0565,0,0,0,0,0,0,0,-1,706,1471,-17.6604,-21.0565
-511,-447,-17.6264,22.2345,0.00301129,0.00520641,0.00466399,0.00890024,-0.000682539,0.900959,0.0061736,0.0325506,713,1471,-17.6264,-22.2345
-504,-447,-17.6415,23.2449,0.00254806,0.00393385,0.00364888,0.00695504,-0.000473127,0.879227,0.00480218,0.0223555,720,1471,-17.6415,-23.2449
-497,-447,-17.7891,24.0819,0.00214273,0.00291321,0.00278664,0.00534112,-0.000285174,0.854085,0.00365951,0.0267834,727,1471,-17.7891,-24.0819
-490,-447,-17.7856,24.8457,0.0018137,0.00210824,0.00205911,0.00402534,-0.000103401,0.821098,0.00271868,0.0254103,734,1471,-17.7856,-24.8457
-483,-447,-17.8261,25.7321,0.00162153,0.00152816,0.00150687,0.00308244,6.72512e-05,0.769914,0.00203291,0.0227482,741,1471,-17.8261,-25.732
-476,-447,-17.8504,26.613,0.00147324,0.00117213,0.00109307,0.00242607,0.000219295,0.716961,0.00154946,0.0144305,748,1471,-17.8504,-26.613
-469,-447,-17.8946,27.499,0.00140768,0.00110343,0.000842871,0.00211204,0.000399064,0.696115,0.00129566,0.0136985,755,1471,-17.8946,-27.499
-462,-447,-17.9604,28.3806,0.00151379,0.001326,0.000792931,0.00221837,0.000621426,0.726464,0.00132141,0.0137926,762,1471,-17.9604,-28.3806
-455,-447,-18.0266,29.2499,0.00179394,0.00186953,0.000980138,0.0028126,0.00085087,0.804668,0.00166554,0.0272255,769,1471,-18.0266,-29.2499
-448,-447,-18.0455,30.1716,0,0,0,0,0,0,0,-1,776,1471,-18.0455,-30.1717
-441,-447,-8.68506,19.0931,0,0,0,0,0,0,0,-1,783,1471,-8.68504,-19.0932
-434,-447,-7.43402,15.6273,0,0,0,0,0,0,0,-1,790,1471,-7.43404,-15.6274
-427,-447,-7.21832,14.691,0,0,0,0,0,0,0,-1,797,1471,-7.21834,-14.6911
-420,-447,-8.0545,12.8055,0,0,0,0,0,0,0,-1,804,1471,-8.05452,-12.8055
-413,-447,-4.27393,6.59705,0,0,0,0,0,0,0,-1,811,1471,-4.27392,-6.59707
-406,-447,-1.04279,6.18591,0,0,0,0,0,0,0,-1,818,1471,-1.04276,-6.18586
-399,-447,0.0134888,0.687622,0,0,0,0,0,0,0,-1,825,1471,0.0134841,-0.68767
-392,-447,-14.0646,3.76147,0,0,0,0,0,0,0,-1,832,1471,-14.0646,-3.7615
-385,-447,-15.1695,2.61865,0,0,0,0,0,0,0,-1,839,1471,-15.1695,-2.61871
-378,-447,-15.9424,1.49316,0,0,0,0,0,0,0,-1,846,1471,-15.9424,-1.49313
-371,-447,-17.3655,0.73291,0,0,0,0,0,0,0,-1,853,1471,-17.3655,-0.732946
-364,-447,0,0,0,0,0,0,0,0,0,-1,860,1471,0,0
-357,-447,0,0,0,0,0,0,0,0,0,-1,867,1471,0,0
-350,-447,0,0,0,0,0,0,0,0,0,-1,874,1471,0,0
-343,-447,0,0,0,0,0,0,0,0,0,-1,881,1471,0,0
-336,-447,0,0,0,0,0,0,0,0,0,-1,888,1471,0,0
-329,-447,0,0,0,0,0,0,0,0,0,-1,895,1471,0,0
-322,-447,0,0,0,0,0,0,0,0,0,-1,902,1471,0,0
-315,-447,0,0,0,0,0,0,0,0,0,-1,909,1471,0,0
-308,-447,0,0,0,0,0,0,0,0,0,-1,916,1471,0,0
-301,-447,0,0,0,0,0,0,0,0,0,-1,923,1471,0,0
-294,-447,0,0,0,0,0,0,0,0,0,-1,930,1471,0,0
-287,-447,0,0,0,0,0,0,0,0,0,-1,937,1471,0,0
-280,-447,0,0,0,0,0,0,0,0,0,-1,944,1471,0,0
-273,-447,0,0,0,0,0,0,0,0,0,-1,951,1471,0,0
-266,-447,0,0,0,0,0,0,0,0,0,-1,958,1471,0,0
-259,-447,0,0,0,0,0,0,0,0,0,-1,965,1471,0,0
-252,-447,0,0,0,0,0,0,0,0,0,-1,972,1471,0,0
-245,-447,0,0,0,0,0,0,0,0,0,-1,979,1471,0,0
-238,-447,0,0,0,0,0,0,0,0,0,-1,986,1471,0,0
-231,-447,0,0,0,0,0,0,0,0,0,-1,993,1471,0,0
-224,-447,0,0,0,0,0,0,0,0,0,-1,1000,1471,0,0
-217,-447,0,0,0,0,0,0,0,0,0,-1,1007,1471,0,0
-210,-447,0,0,0,0,0,0,0,0,0,-1,1014,1471,0,0
-203,-447,0,0,0,0,0,0,0,0,0,-1,1021,1471,0,0
-196,-447,0,0,0,0,0,0,0,0,0,-1,1028,1471,0,0
-189,-447,0,0,0,0,0,0,0,0,0,-1,1035,1471,0,0
-182,-447,0,0,0,0,0,0,0,0,0,-1,1042,1471,0,0
-175,-447,0,0,0,0,0,0,0,0,0,-1,1049,1471,0,0
-168,-447,0,0,0,0,0,0,0,0,0,-1,1056,1471,0,0
-161,-447,0,0,0,0,0,0,0,0,0,-1,1063,1471,0,0
-154,-447,0,0,0,0,0,0,0,0,0,-1,1070,1471,0,0
-147,-447,0,0,0,0,0,0,0,0,0,-1,1077,1471,0,0
-140,-447,0,0,0,0,0,0,0,0,0,-1,1084,1471,0,0
-133,-447,0,0,0,0,0,0,0,0,0,-1,1091,1471,0,0
-126,-447,0,0,0,0,0,0,0,0,0,-1,1098,1471,0,0
-119,-447,0,0,0,0,0,0,0,0,0,-1,1105,1471,0,0
-112,-447,0,0,0,0,0,0,0,0,0,-1,1112,1471,0,0
-105,-447,0,0,0,0,0,0,0,0,0,-1,1119,1471,0,0
-98,-447,0,0,0,0,0,0,0,0,0,-1,1126,1471,0,0
-91,-447,0,0,0,0,0,0,0,0,0,-1,1133,1471,0,0
-84,-447,0,0,0,0,0,0,0,0,0,-1,1140,1471,0,0
-77,-447,0,0,0,0,0,0,0,0,0,-1,1147,1471,0,0
-70,-447,0,0,0,0,0,0,0,0,0,-1,1154,1471,0,0
-63,-447,0,0,0,0,0,0,0,0,0,-1,1161,1471,0,0
-56,-447,0,0,0,0,0,0,0,0,0,-1,1168,1471,0,0
-49,-447,0,0,0,0,0,0,0,0,0,-1,1175,1471,0,0
-42,-447,0,0,0,0,0,0,0,0,0,-1,1182,1471,0,0
-35,-447,0,0,0,0,0,0,0,0,0,-1,1189,1471,0,0
-28,-447,0,0,0,0,0,0,0,0,0,-1,1196,1471,0,0
-21,-447,0,0,0,0,0,0,0,0,0,-1,1203,1471,0,0
-14,-447,0,0,0,0,0,0,0,0,0,-1,1210,1471,0,0
-7,-447,0,0,0,0,0,0,0,0,0,-1,1217,1471,0,0
0,-447,0,0,0,0,0,0,0,0,0,-1,1224,1471,0,0
7,-447,0,0,0,0,0,0,0,0,0,-1,1231,1471,0,0
14,-447,0,0,0,0,0,0,0,0,0,-1,1238,1471,0,0
21,-447,0,0,0,0,0,0,0,0,0,-1,1245,1471,0,0
28,-447,0,0,0,0,0,0,0,0,0,-1,1252,1471,0,0
35,-447,0,0,0,0,0,0,0,0,0,-1,1259,1471,0,0
42,-447,0,0,0,0,0,0,0,0,0,-1,1266,1471,0,0
49,-447,0,0,0,0,0,0,0,0,0,-1,1273,1471,0,0
56,-447,0,0,0,0,0,0,0,0,0,-1,1280,1471,0,0
63,-447,0,0,0,0,0,0,0,0,0,-1,1287,1471,0,0
70,-447,0,0,0,0,0,0,0,0,0,-1,1294,1471,0,0
77,-447,0,0,0,0,0,0,0,0,0,-1,1301,1471,0,0
84,-447,0,0,0,0,0,0,0,0,0,-1,1308,1471,0,0
91,-447,0,0,0,0,0,0,0,0,0,-1,1315,1471,0,0
98,-447,0,0,0,0,0,0,0,0,0,-1,1322,1471,0,0
105,-447,0,0,0,0,0,0,0,0,0,-1,1329,1471,0,0
112,-447,0,0,0,0,0,0,0,0,0,-1,1336,1471,0,0
119,-447,0,0,0,0,0,0,0,0,0,-1,1343,1471,0,0
126,-447,0,0,0,0,0,0,0,0,0,-1,1350,1471,0,0
133,-447,0,0,0,0,0,0,0,0,0,-1,1357,1471,0,0
140,-447,0,0,0,0,0,0,0,0,0,-1,1364,1471,0,0
147,-447,0,0,0,0,0,0,0,0,0,-1,1371,1471,0,0
154,-447,0,0,0,0,0,0,0,0,0,-1,1378,1471,0,0
161,-447,0,0,0,0,0,0,0,0,0,-1,1385,1471,0,0
168,-447,0,0,0,0,0,0,0,0,0,-1,1392,1471,0,0
175,-447,0,0,0,0,0,0,0,0,0,-1,1399,1471,0,0
182,-447,0,0,0,0,0,0,0,0,0,-1,1406,1471,0,0
189,-447,0,0,0,0,0,0,0,0,0,-1,1413,1471,0,0
196,-447,0,0,0,0,0,0,0,0,0,-1,1420,1471,0,0
203,-447,0,0,0,0,0,0,0,0,0,-1,1427,1471,0,0
210,-447,0,0,0,0,0,0,0,0,0,-1,1434,1471,0,0
217,-447,0,0,0,0,0,0,0,0,0,-1,1441,1471,0,0
224,-447,0,0,0,0,0,0,0,0,0,-1,1448,1471,0,0
231,-447,0,0,0,0,0,0,0,0,0,-1,1455,1471,0,0
238,-447,0,0,0,0,0,0,0,0,0,-1,1462,1471,0,0
245,-447,0,0,0,0,0,0,0,0,0,-1,1469,1471,0,0
252,-447,0,0,0,0,0,0,0,0,0,-1,1476,1471,0,0
259,-447,0,0,0,0,0,0,0,0,0,-1,1483,1471,0,0
266,-447,0,0,0,0,0,0,0,0,0,-1,1490,1471,0,0
273,-447,0,0,0,0,0,0,0,0,0,-1,1497,1471,0,0
280,-447,0,0,0,0,0,0,0,0,0,-1,1504,1471,0,0
287,-447,0,0,0,0,0,0,0,0,0,-1,1511,1471,0,0
294,-447,0,0,0,0,0,0,0,0,0,-1,1518,1471,0,0
301,-447,0,0,0,0,0,0,0,0,0,-1,1525,1471,0,0
308,-447,0,0,0,0,0,0,0,0,0,-1,1532,1471,0,0
315,-447,0,0,0,0,0,0,0,0,0,-1,1539,1471,0,0
322,-447,0,0,0,0,0,0,0,0,0,-1,1546,1471,0,0
329,-447,0,0,0,0,0,0,0,0,0,-1,1553,1471,0,0
336,-447,0,0,0,0,0,0,0,0,0,-1,1560,1471,0,0
343,-447,0,0,0,0,0,0,0,0,0,-1,1567,1471,0,0
350,-447,0,0,0,0,0,0,0,0,0,-1,1574,1471,0,0
357,-447,0,0,0,0,0,0,0,0,0,-1,1581,1471,0,0
364,-447,0,0,0,0,0,0,0,0,0,-1,1588,1471,0,0
371,-447,0,0,0,0,0,0,0,0,0,-1,1595,1471,0,0
378,-447,0,0,0,0,0,0,0,0,0,-1,1602,1471,0,0
385,-447,0,0,0,0,0,0,0,0,0,-1,1609,1471,0,0
392,-447,0,0,0,0,0,0,0,0,0,-1,1616,1471,0,0
399,-447,0,0,0,0,0,0,0,0,0,-1,1623,1471,0,0
406,-447,0,0,0,0,0,0,0,0,0,-1,1630,1471,0,0
413,-447,0,0,0,0,0,0,0,0,0,-1,1637,1471,0,0
420,-447,0,0,0,0,0,0,0,0,0,-1,1644,1471,0,0
427,-447,0,0,0,0,0,0,0,0,0,-1,1651,1471,0,0
434,-447,0,0,0,0,0,0,0,0,0,-1,1658,1471,0,0
441,-447,0,0,0,0,0,0,0,0,0,-1,1665,1471,0,0
448,-447,0,0,0,0,0,0,0,0,0,-1,1672,1471,0,0
455,-447,0,0,0,0,0,0,0,0,0,-1,1679,1471,0,0
462,-447,0,0,0,0,0,0,0,0,0,-1,1686,1471,0,0
469,-447,0,0,0,0,0,0,0,0,0,-1,1693,1471,0,0
476,-447,0,0,0,0,0,0,0,0,0,-1,1700,1471,0,0
483,-447,0,0,0,0,0,0,0,0,0,-1,1707,1471,0,0
490,-447,18.2214,-0.810303,0,0,0,0,0,0,0,-1,1714,1471,18.2215,0.810307
497,-447,17.0237,0.352417,0,0,0,0,0,0,0,-1,1721,1471,17.0237,-0.352442
504,-447,15.8998,1.53479,0,0,0,0,0,0,0,-1,1728,1471,15.8997,-1.53478
511,-447,14.7201,2.76111,0,0,0,0,0,0,0,-1,1735,1471,14.7201,-2.76107
518,-447,17.7618,13.2864,0,0,0,0,0,0,0,-1,1742,1471,17.7619,-13.2863
525,-447,17.1191,11.9014,0,0,0,0,0,0,0,-1,1749,1471,17.1191,-11.9013
532,-447,16.3959,10.0455,0,0,0,0,0,0,0,-1,1756,1471,16.3959,-10.0456
539,-447,14.1699,10.0204,0,0,0,0,0,0,0,-1,1763,1471,14.1699,-10.0204
546,-447,16.3715,11.8046,0,0,0,0,0,0,0,-1,1770,1471,16.3714,-11.8046
553,-447,17.5106,13.4012,0,0,0,0,0,0,0,-1,1777,1471,17.5107,-13.4012
560,-447,17.0187,13.168,0,0,0,0,0,0,0,-1,1784,1471,17.0187,-13.168
567,-447,18.9286,15.1703,0,0,0,0,0,0,0,-1,1791,1471,18.9286,-15.1703
574,-447,32.1848,27.6504,0,0,0,0,0,0,0,-1,1798,1471,32.1848,-27.6503
581,-447,35.3936,30.0067,0,0,0,0,0,0,0,-1,1805,1471,35.3935,-30.0067
588,-447,35.3959,28.9353,0.0066753,0.00303451,-0.0038865,0.0091466,0.000563202,-0.566377,0.00591894,0.0408527,1812,1471,35.3959,-28.9352
595,-447,35.3984,28.0375,0.00499785,0.0023749,-0.00304865,0.00700514,0.000367605,-0.582273,0.00455251,0.0143044,1819,1471,35.3984,-28.0374
602,-447,35.3737,27.1791,0.00380098,0.00164088,-0.00219976,0.00517154,0.000270325,-0.557194,0.00336121,0.0121023,1826,1471,35.3736,-27.1791
609,-447,35.3278,26.3574,0.00291524,0.0010239,-0.00145195,0.00370233,0.000236815,-0.49675,0.00239319,0.0132585,1833,1471,35.3278,-26.3575
616,-447,35.275,25.5209,0.00220088,0.000424764,-0.000747981,0.00247391,0.000151734,-0.349994,0.00160109,0.0151261,1840,1471,35.275,-25.5209
623,-447,35.2242,24.6995,0.00186281,-1.73356e-05,-0.000199929,0.00188383,-3.83604e-05,-0.104776,0.00126887,0.0174202,1847,1471,35.2242,-24.6994
630,-447,35.1909,23.8751,0.00182708,-0.000502372,0.000271446,0.00185829,-0.000533584,0.114485,0.00144983,0.0106072,1854,1471,35.1909,-23.8751
637,-447,35.1765,23.03,0.0019568,-0.000888098,0.00066284,0.00210366,-0.00103495,0.218034,0.00184676,0.0113702,1861,1471,35.1765,-23.03
644,-447,35.1444,22.1923,0.0023323,-0.00110107,0.000877133,0.0025434,-0.00131218,0.236183,0.00226354,0.0138904,1868,1471,35.1444,-22.1922
651,-447,35.2395,21.1338,0,0,0,0,0,0,0,-1,1875,1471,35.2395,-21.1338
658,-447,30.2566,16.5862,0,0,0,0,0,0,0,-1,1882,1471,30.2566,-16.5862
665,-447,18.4946,9.79919,0,0,0,0,0,0,0,-1,1889,1471,18.4946,-9.79922
672,-447,18.9784,9.66077,0,0,0,0,0,0,0,-1,1896,1471,18.9784,-9.66081
679,-447,14.844,7.4248,0,0,0,0,0,0,0,-1,1903,1471,14.844,-7.42477
686,-447,9.81079,4.30859,0,0,0,0,0,0,0,-1,1910,1471,9.8108,-4.30864
693,-447,10.48,2.08643,0,0,0,0,0,0,0,-1,1917,1471,10.48,-2.08642
700,-447,0,0,0,0,0,0,0,0,0,-1,1924,1471,0,0
707,-447,0,0,0,0,0,0,0,0,0,-1,1931,1471,0,0
714,-447,0,0,0,0,0,0,0,0,0,-1,1938,1471,0,0
721,-447,0,0,0,0,0,0,0,0,0,-1,1945,1471,0,0
728,-447,0,0,0,0,0,0,0,0,0,-1,1952,1471,0,0
735,-447,0,0,0,0,0,0,0,0,0,-1,1959,1471,0,0
742,-447,0,0,0,0,0,0,0,0,0,-1,1966,1471,0,0
749,-447,0,0,0,0,0,0,0,0,0,-1,1973,1471,0,0
756,-447,0,0,0,0,0,0,0,0,0,-1,1980,1471,0,0
763,-447,0,0,0,0,0,0,0,0,0,-1,1987,1471,0,0
770,-447,0,0,0,0,0,0,0,0,0,-1,1994,1471,0,0
777,-447,0,0,0,0,0,0,0,0,0,-1,2001,1471,0,0
784,-447,0,0,0,0,0,0,0,0,0,-1,2008,1471,0,0
791,-447,0,0,0,0,0,0,0,0,0,-1,2015,1471,0,0
798,-447,0,0,0,0,0,0,0,0,0,-1,2022,1471,0,0
805,-447,0,0,0,0,0,0,0,0,0,-1,2029,1471,0,0
812,-447,0,0,0,0,0,0,0,0,0,-1,2036,1471,0,0
-700,-454,0,0,0,0,0,0,0,0,0,-1,524,1478,0,0
-693,-454,0,0,0,0,0,0,0,0,0,-1,531,1478,0,0
-686,-454,0,0,0,0,0,0,0,0,0,-1,538,1478,0,0
-679,-454,0,0,0,0,0,0,0,0,0,-1,545,1478,0,0
-672,-454,0,0,0,0,0,0,0,0,0,-1,552,1478,0,0
-665,-454,0,0,0,0,0,0,0,0,0,-1,559,1478,0,0
-658,-454,0,0,0,0,0,0,0,0,0,-1,566,1478,0,0
-651,-454,0,0,0,0,0,0,0,0,0,-1,573,1478,0,0
-644,-454,0,0,0,0,0,0,0,0,0,-1,580,1478,0,0
-637,-454,0,0,0,0,0,0,0,0,0,-1,587,1478,0,0
-630,-454,0,0,0,0,0,0,0,0,0,-1,594,1478,0,0
-623,-454,0,0,0,0,0,0,0,0,0,-1,601,1478,0,0
-616,-454,0,0,0,0,0,0,0,0,0,-1,608,1478,0,0
-609,-454,0,0,0,0,0,0,0,0,0,-1,615,1478,0,0
-602,-454,0,0,0,0,0,0,0,0,0,-1,622,1478,0,0
-595,-454,0,0,0,0,0,0,0,0,0,-1,629,1478,0,0
-588,-454,0,0,0,0,0,0,0,0,0,-1,636,1478,0,0
-581,-454,0,0,0,0,0,0,0,0,0,-1,643,1478,0,0
-574,-454,-8.4881,-0.465942,0,0,0,0,0,0,0,-1,650,1478,-8.4881,0.465885
-567,-454,-8.10046,0.922974,0,0,0,0,0,0,0,-1,657,1478,-8.10047,-0.923034
-560,-454,-10.656,3.51172,0,0,0,0,0,0,0,-1,664,1478,-10.656,-3.51176
-553,-454,-9.01129,3.95251,0,0,0,0,0,0,0,-1,671,1478,-9.0113,-3.95256
-546,-454,-9.61896,6.05237,0,0,0,0,0,0,0,-1,678,1478,-9.61897,-6.05239
-539,-454,-7.72589,4.96533,0,0,0,0,0,0,0,-1,685,1478,-7.72592,-4.96532
-532,-454,-7.03931,7.59985,0,0,0,0,0,0,0,-1,692,1478,-7.03929,-7.59981
-525,-454,-5.78723,9.677,0,0,0,0,0,0,0,-1,699,1478,-5.78722,-9.67703
-518,-454,-9.82098,13.8295,0,0,0,0,0,0,0,-1,706,1478,-9.82098,-13.8295
-511,-454,-16.9103,22.2526,0,0,0,0,0,0,0,-1,713,1478,-16.9103,-22.2526
-504,-454,-16.8176,23.2428,0.00303063,0.00488223,0.00459995,0.00864862,-0.000735756,0.884703,0.00602599,0.0235001,720,1478,-16.8176,-23.2428
-497,-454,-16.9089,24.1915,0.00253177,0.00363984,0.00355441,0.00668313,-0.000511521,0.862713,0.00463535,0.0207776,727,1478,-16.9089,-24.1916
-490,-454,-16.9049,24.9844,0.00212263,0.00266413,0.00267173,0.00507879,-0.000292031,0.835895,0.00348728,0.0186312,734,1478,-16.9049,-24.9844
-483,-454,-16.9562,25.8115,0.00180609,0.00190937,0.00195522,0.00381364,-9.81719e-05,0.798601,0.00257577,0.0161519,741,1478,-16.9562,-25.8116
-476,-454,-17.024,26.6628,0.00155571,0.00142428,0.00141162,0.00290315,7.68412e-05,0.762138,0.00191033,0.0133986,748,1478,-17.024,-26.6629
-469,-454,-17.0613,27.5359,0.00140013,0.00124321,0.00104711,0.00237171,0.000271622,0.748004,0.00149883,0.0104609,755,1478,-17.0613,-27.5359
-462,-454,-17.1339,28.4275,0.00142417,0.00133935,0.000890455,0.00227322,0.000490292,0.761603,0.00138136,0.0114997,762,1478,-17.1339,-28.4275
-455,-454,-17.1883,29.2833,0.00162835,0.00174783,0.000968551,0.00265848,0.000717699,0.8162,0.0015881,0.012429,769,1478,-17.1883,-29.2834
-448,-454,-17.189,30.1635,0.0019529,0.00247363,0.00131282,0.00355165,0.000874883,0.883291,0.0021367,0.0277161,776,1478,-17.189,-30.1634
-441,-454,-17.0217,31.1934,0,0,0,0,0,0,0,-1,783,1478,-17.0217,-31.1933
-434,-454,-7.55743,19.4857,0,0,0,0,0,0,0,-1,790,1478,-7.55746,-19.4858
-427,-454,-6.00183,15.8636,0,0,0,0,0,0,0,-1,797,1478,-6.00184,-15.8637
-420,-454,-6.28088,15.2135,0,0,0,0,0,0,0,-1,804,1478,-6.28087,-15.2135
-413,-454,-5.4408,13.674,0,0,0,0,0,0,0,-1,811,1478,-5.44079,-13.6739
-406,-454,-2.38208,10.0308,0,0,0,0,0,0,0,-1,818,1478,-2.38209,-10.0308
-399,-454,-1.21033,6.95447,0,0,0,0,0,0,0,-1,825,1478,-1.21035,-6.95452
-392,-454,0.0967407,0.985474,0,0,0,0,0,0,0,-1,832,1478,0.0967364,-0.985529
-385,-454,2.38629,3.297,0,0,0,0,0,0,0,-1,839,1478,2.38629,-3.29702
-378,-454,-15.9756,2.83997,0,0,0,0,0,0,0,-1,846,1478,-15.9756,-2.83994
-371,-454,-17.2753,2.01453,0,0,0,0,0,0,0,-1,853,1478,-17.2753,-2.01455
-364,-454,1.08124,0.819458,0,0,0,0,0,0,0,-1,860,1478,1.08124,-0.819513
-357,-454,0,0,0,0,0,0,0,0,0,-1,867,1478,0,0
-350,-454,0,0,0,0,0,0,0,0,0,-1,874,1478,0,0
-343,-454,0,0,0,0,0,0,0,0,0,-1,881,1478,0,0
-336,-454,0,0,0,0,0,0,0,0,0,-1,888,1478,0,0
-329,-454,0,0,0,0,0,0,0,0,0,-1,895,1478,0,0
-322,-454,0,0,0,0,0,0,0,0,0,-1,902,1478,0,0
-315,-454,0,0,0,0,0,0,0,0,0,-1,909,1478,0,0
-308,-454,0,0,0,0,0,0,0,0,0,-1,916,1478,0,0
-301,-454,0,0,0,0,0,0,0,0,0,-1,923,1478,0,0
-294,-454,0,0,0,0,0,0,0,0,0,-1,930,1478,0,0
-287,-454,0,0,0,0,0,0,0,0,0,-1,937,1478,0,0
-280,-454,0,0,0,0,0,0,0,0,0,-1,944,1478,0,0
-273,-454,0,0,0,0,0,0,0,0,0,-1,951,1478,0,0
-266,-454,0,0,0,0,0,0,0,0,0,-1,958,1478,0,0
-259,-454,0,0,0,0,0,0,0,0,0,-1,965,1478,0,0
-252,-454,0,0,0,0,0,0,0,0,0,-1,972,1478,0,0
-245,-454,0,0,0,0,0,0,0,0,0,-1,979,1478,0,0
-238,-454,0,0,0,0,0,0,0,0,0,-1,986,1478,0,0
-231,-454,0,0,0,0,0,0,0,0,0,-1,993,1478,0,0
-224,-454,0,0,0,0,0,0,0,0,0,-1,1000,1478,0,0
-217,-454,0,0,0,0,0,0,0,0,0,-1,1007,1478,0,0
-210,-454,0,0,0,0,0,0,0,0,0,-1,1014,1478,0,0
-203,-454,0,0,0,0,0,0,0,0,0,-1,1021,1478,0,0
-196,-454,0,0,0,0,0,0,0,0,0,-1,1028,1478,0,0
-189,-454,0,0,0,0,0,0,0,0,0,-1,1035,1478,0,0
-182,-454,0,0,0,0,0,0,0,0,0,-1,1042,1478,0,0
-175,-454,0,0,0,0,0,0,0,0,0,-1,1049,1478,0,0
-168,-454,0,0,0,0,0,0,0,0,0,-1,1056,1478,0,0
-161,-454,0,0,0,0,0,0,0,0,0,-1,1063,1478,0,0
-154,-454,0,0,0,0,0,0,0,0,0,-1,1070,1478,0,0
-147,-454,0,0,0,0,0,0,0,0,0,-1,1077,1478,0,0
-140,-454,0,0,0,0,0,0,0,0,0,-1,1084,1478,0,0
-133,-454,0,0,0,0,0,0,0,0,0,-1,1091,1478,0,0
-126,-454,0,0,0,0,0,0,0,0,0,-1,1098,1478,0,0
-119,-454,0,0,0,0,0,0,0,0,0,-1,1105,1478,0,0
-112,-454,0,0,0,0,0,0,0,0,0,-1,1112,1478,0,0
-105,-454,0,0,0,0,0,0,0,0,0,-1,1119,1478,0,0
-98,-454,0,0,0,0,0,0,0,0,0,-1,1126,1478,0,0
-91,-454,0,0,0,0,0,0,0,0,0,-1,1133,1478,0,0
-84,-454,0,0,0,0,0,0,0,0,0,-1,1140,1478,0,0
-77,-454,0,0,0,0,0,0,0,0,0,-1,1147,1478,0,0
-70,-454,0,0,0,0,0,0,0,0,0,-1,1154,1478,0,0
-63,-454,0,0,0,0,0,0,0,0,0,-1,1161,1478,0,0
-56,-454,0,0,0,0,0,0,0,0,0,-1,1168,1478,0,0
-49,-454,0,0,0,0,0,0,0,0,0,-1,1175,1478,0,0
-42,-454,0,0,0,0,0,0,0,0,0,-1,1182,1478,0,0
-35,-454,0,0,0,0,0,0,0,0,0,-1,1189,1478,0,0
-28,-454,0,0,0,0,0,0,0,0,0,-1,1196,1478,0,0
-21,-454,0,0,0,0,0,0,0,0,0,-1,1203,1478,0,0
-14,-454,0,0,0,0,0,0,0,0,0,-1,1210,1478,0,0
-7,-454,0,0,0,0,0,0,0,0,0,-1,1217,1478,0,0
0,-454,0,0,0,0,0,0,0,0,0,-1,1224,1478,0,0
7,-454,0,0,0,0,0,0,0,0,0,-1,1231,1478,0,0
14,-454,0,0,0,0,0,0,0,0,0,-1,1238,1478,0,0
21,-454,0,0,0,0,0,0,0,0,0,-1,1245,1478,0,0
28,-454,0,0,0,0,0,0,0,0,0,-1,1252,1478,0,0
35,-454,0,0,0,0,0,0,0,0,0,-1,1259,1478,0,0
42,-454,0,0,0,0,0,0,0,0,0,-1,1266,1478,0,0
49,-454,0,0,0,0,0,0,0,0,0,-1,1273,1478,0,0
56,-454,0,0,0,0,0,0,0,0,0,-1,1280,1478,0,0
63,-454,0,0,0,0,0,0,0,0,0,-1,1287,1478,0,0
70,-454,0,0,0,0,0,0,0,0,0,-1,1294,1478,0,0
77,-454,0,0,0,0,0,0,0,0,0,-1,1301,1478,0,0
84,-454,0,0,0,0,0,0,0,0,0,-1,1308,1478,0,0
91,-454,0,0,0,0,0,0,0,0,0,-1,1315,1478,0,0
98,-454,0,0,0,0,0,0,0,0,0,-1,1322,1478,0,0
105,-454,0,0,0,0,0,0,0,0,0,-1,1329,1478,0,0
112,-454,0,0,0,0,0,0,0,0,0,-1,1336,1478,0,0
119,-454,0,0,0,0,0,0,0,0,0,-1,1343,1478,0,0
126,-454,0,0,0,0,0,0,0,0,0,-1,1350,1478,0,0
133,-454,0,0,0,0,0,0,0,0,0,-1,1357,1478,0,0
140,-454,0,0,0,0,0,0,0,0,0,-1,1364,1478,0,0
147,-454,0,0,0,0,0,0,0,0,0,-1,1371,1478,0,0
154,-454,0,0,0,0,0,0,0,0,0,-1,1378,1478,0,0
161,-454,0,0,0,0,0,0,0,0,0,-1,1385,1478,0,0
168,-454,0,0,0,0,0,0,0,0,0,-1,1392,1478,0,0
175,-454,0,0,0,0,0,0,0,0,0,-1,1399,1478,0,0
182,-454,0,0,0,0,0,0,0,0,0,-1,1406,1478,0,0
189,-454,0,0,0,0,0,0,0,0,0,-1,1413,1478,0,0
196,-454,0,0,0,0,0,0,0,0,0,-1,1420,1478,0,0
203,-454,0,0,0,0,0,0,0,0,0,-1,1427,1478,0,0
210,-454,0,0,0,0,0,0,0,0,0,-1,1434,1478,0,0
217,-454,0,0,0,0,0,0,0,0,0,-1,1441,1478,0,0
224,-454,0,0,0,0,0,0,0,0,0,-1,1448,1478,0,0
231,-454,0,0,0,0,0,0,0,0,0,-1,1455,1478,0,0
238,-454,0,0,0,0,0,0,0,0,0,-1,1462,1478,0,0
245,-454,0,0,0,0,0,0,0,0,0,-1,1469,1478,0,0
252,-454,0,0,0,0,0,0,0,0,0,-1,1476,1478,0,0
259,-454,0,0,0,0,0,0,0,0,0,-1,1483,1478,0,0
266,-454,0,0,0,0,0,0,0,0,0,-1,1490,1478,0,0
273,-454,0,0,0,0,0,0,0,0,0,-1,1497,1478,0,0
280,-454,0,0,0,0,0,0,0,0,0,-1,1504,1478,0,0
287,-454,0,0,0,0,0,0,0,0,0,-1,1511,1478,0,0
294,-454,0,0,0,0,0,0,0,0,0,-1,1518,1478,0,0
301,-454,0,0,0,0,0,0,0,0,0,-1,1525,1478,0,0
308,-454,0,0,0,0,0,0,0,0,0,-1,1532,1478,0,0
315,-454,0,0,0,0,0,0,0,0,0,-1,1539,1478,0,0
322,-454,0,0,0,0,0,0,0,0,0,-1,1546,1478,0,0
329,-454,0,0,0,0,0,0,0,0,0,-1,1553,1478,0,0
336,-454,0,0,0,0,0,0,0,0,0,-1,1560,1478,0,0
343,-454,0,0,0,0,0,0,0,0,0,-1,1567,1478,0,0
350,-454,0,0,0,0,0,0,0,0,0,-1,1574,1478,0,0
357,-454,0,0,0,0,0,0,0,0,0,-1,1581,1478,0,0
364,-454,0,0,0,0,0,0,0,0,0,-1,1588,1478,0,0
371,-454,0,0,0,0,0,0,0,0,0,-1,1595,1478,0,0
378,-454,0,0,0,0,0,0,0,0,0,-1,1602,1478,0,0
385,-454,0,0,0,0,0,0,0,0,0,-1,1609,1478,0,0
392,-454,0,0,0,0,0,0,0,0,0,-1,1616,1478,0,0
399,-454,0,0,0,0,0,0,0,0,0,-1,1623,1478,0,0
406,-454,0,0,0,0,0,0,0,0,0,-1,1630,1478,0,0
413,-454,0,0,0,0,0,0,0,0,0,-1,1637,1478,0,0
420,-454,0,0,0,0,0,0,0,0,0,-1,1644,1478,0,0
427,-454,0,0,0,0,0,0,0,0,0,-1,1651,1478,0,0
434,-454,0,0,0,0,0,0,0,0,0,-1,1658,1478,0,0
441,-454,0,0,0,0,0,0,0,0,0,-1,1665,1478,0,0
448,-454,0,0,0,0,0,0,0,0,0,-1,1672,1478,0,0
455,-454,0,0,0,0,0,0,0,0,0,-1,1679,1478,0,0
462,-454,0,0,0,0,0,0,0,0,0,-1,1686,1478,0,0
469,-454,0,0,0,0,0,0,0,0,0,-1,1693,1478,0,0
476,-454,0,0,0,0,0,0,0,0,0,-1,1700,1478,0,0
483,-454,14.2399,3.97498,0,0,0,0,0,0,0,-1,1707,1478,14.2399,-3.97502
490,-454,18.1821,-0.175781,0,0,0,0,0,0,0,-1,1714,1478,18.1821,0.175822
497,-454,16.8854,1.01208,0,0,0,0,0,0,0,-1,1721,1478,16.8854,-1.01209
504,-454,15.587,2.05994,0,0,0,0,0,0,0,-1,1728,1478,15.5871,-2.05998
511,-454,17.0273,14.5258,0,0,0,0,0,0,0,-1,1735,1478,17.0273,-14.5258
518,-454,16.4158,13.1039,0,0,0,0,0,0,0,-1,1742,1478,16.4157,-13.1038
525,-454,15.7842,11.6628,0,0,0,0,0,0,0,-1,1749,1478,15.7841,-11.6629
532,-454,15.1094,10.2476,0,0,0,0,0,0,0,-1,1756,1478,15.1094,-10.2475
539,-454,13.7905,10.9373,0,0,0,0,0,0,0,-1,1763,1478,13.7906,-10.9372
546,-454,16.2002,13.2458,0,0,0,0,0,0,0,-1,1770,1478,16.2002,-13.2459
553,-454,15.6747,12.1868,0,0,0,0,0,0,0,-1,1777,1478,15.6747,-12.1868
560,-454,16.3895,14.0527,0,0,0,0,0,0,0,-1,1784,1478,16.3895,-14.0528
567,-454,34.813,31.4346,0,0,0,0,0,0,0,-1,1791,1478,34.813,-31.4345
574,-454,34.528,30.7117,0,0,0,0,0,0,0,-1,1798,1478,34.528,-30.7117
581,-454,34.6118,29.7866,0.00778639,0.00318293,-0.00409832,0.0101851,0.000784217,-0.529535,0.00654435,0.0354271,1805,1478,34.6118,-29.7867
588,-454,34.6685,28.8905,0.00591829,0.00250838,-0.00321543,0.00785282,0.000573847,-0.541625,0.0050548,0.0155051,1812,1478,34.6685,-28.8905
595,-454,34.5814,28.0713,0.00448005,0.00187625,-0.00244849,0.00595124,0.000405049,-0.54105,0.00383961,0.0127577,1819,1478,34.5814,-28.0713
602,-454,34.5264,27.2321,0.00340893,0.00123196,-0.00170195,0.0043407,0.000300192,-0.5009,0.0027991,0.00956257,1826,1478,34.5264,-27.232
609,-454,34.5005,26.4167,0.00262598,0.000700271,-0.00101706,0.00306366,0.00026259,-0.406384,0.00196078,0.0119068,1833,1478,34.5005,-26.4168
616,-454,34.4647,25.5974,0.00200264,0.000163917,-0.00034203,0.0020642,0.000102356,-0.178082,0.00134331,0.0149169,1840,1478,34.4647,-25.5974
623,-454,34.4458,24.7737,0.00173401,-0.000275139,0.000233794,0.00176085,-0.000301986,0.11433,0.00128643,0.0156474,1847,1478,34.4458,-24.7737
630,-454,34.4127,23.9465,0.00172839,-0.000771193,0.000804142,0.00196475,-0.00100755,0.285868,0.00174546,0.0159495,1854,1478,34.4127,-23.9466
637,-454,34.3156,23.1196,0.0018991,-0.00119869,0.00133219,0.00239319,-0.00169279,0.355161,0.00237057,0.013875,1861,1478,34.3156,-23.1197
644,-454,34.3757,22.2563,0.00229331,-0.00148341,0.00173377,0.00296852,-0.00215861,0.371372,0.00297243,0.0320217,1868,1478,34.3757,-22.2563
651,-454,34.4706,21.3286,0,0,0,0,0,0,0,-1,1875,1478,34.4706,-21.3286
658,-454,17.2583,10.0765,0,0,0,0,0,0,0,-1,1882,1478,17.2583,-10.0765
665,-454,17.683,9.67566,0,0,0,0,0,0,0,-1,1889,1478,17.683,-9.67572
672,-454,16.5476,6.41931,0,0,0,0,0,0,0,-1,1896,1478,16.5476,-6.41929
679,-454,14.2161,5.45007,0,0,0,0,0,0,0,-1,1903,1478,14.2161,-5.45013
686,-454,10.3767,2.12842,0,0,0,0,0,0,0,-1,1910,1478,10.3767,-2.12839
693,-454,11.1857,1.48486,0,0,0,0,0,0,0,-1,1917,1478,11.1857,-1.48487
700,-454,0,0,0,0,0,0,0,0,0,-1,1924,1478,0,0
707,-454,0,0,0,0,0,0,0,0,0,-1,1931,1478,0,0
714,-454,0,0,0,0,0,0,0,0,0,-1,1938,1478,0,0
721,-454,0,0,0,0,0,0,0,0,0,-1,1945,1478,0,0
728,-454,0,0,0,0,0,0,0,0,0,-1,1952,1478,0,0
735,-454,0,0,0,0,0,0,0,0,0,-1,1959,1478,0,0
742,-454,0,0,0,0,0,0,0,0,0,-1,1966,1478,0,0
749,-454,0,0,0,0,0,0,0,0,0,-1,1973,1478,0,0
756,-454,0,0,0,0,0,0,0,0,0,-1,1980,1478,0,0
763,-454,0,0,0,0,0,0,0,0,0,-1,1987,1478,0,0
770,-454,0,0,0,0,0,0,0,0,0,-1,1994,1478,0,0
777,-454,0,0,0,0,0,0,0,0,0,-1,2001,1478,0,0
784,-454,0,0,0,0,0,0,0,0,0,-1,2008,1478,0,0
791,-454,0,0,0,0,0,0,0,0,0,-1,2015,1478,0,0
798,-454,0,0,0,0,0,0,0,0,0,-1,2022,1478,0,0
805,-454,0,0,0,0,0,0,0,0,0,-1,2029,1478,0,0
812,-454,0,0,0,0,0,0,0,0,0,-1,2036,1478,0,0
-700,-461,0,0,0,0,0,0,0,0,0,-1,524,1485,0,0
-693,-461,0,0,0,0,0,0,0,0,0,-1,531,1485,0,0
-686,-461,0,0,0,0,0,0,0,0,0,-1,538,1485,0,0
-679,-461,0,0,0,0,0,0,0,0,0,-1,545,1485,0,0
-672,-461,0,0,0,0,0,0,0,0,0,-1,552,1485,0,0
-665,-461,0,0,0,0,0,0,0,0,0,-1,559,1485,0,0
-658,-461,0,0,0,0,0,0,0,0,0,-1,566,1485,0,0
-651,-461,0,0,0,0,0,0,0,0,0,-1,573,1485,0,0
-644,-461,0,0,0,0,0,0,0,0,0,-1,580,1485,0,0
-637,-461,0,0,0,0,0,0,0,0,0,-1,587,1485,0,0
-630,-461,0,0,0,0,0,0,0,0,0,-1,594,1485,0,0
-623,-461,0,0,0,0,0,0,0,0,0,-1,601,1485,0,0
-616,-461,0,0,0,0,0,0,0,0,0,-1,608,1485,0,0
-609,-461,0,0,0,0,0,0,0,0,0,-1,615,1485,0,0
-602,-461,0,0,0,0,0,0,0,0,0,-1,622,1485,0,0
-595,-461,0,0,0,0,0,0,0,0,0,-1,629,1485,0,0
-588,-461,0,0,0,0,0,0,0,0,0,-1,636,1485,0,0
-581,-461,0,0,0,0,0,0,0,0,0,-1,643,1485,0,0
-574,-461,0,0,0,0,0,0,0,0,0,-1,650,1485,0,0
-567,-461,-9.69031,0.513306,0,0,0,0,0,0,0,-1,657,1485,-9.69032,-0.513305
-560,-461,-7.28815,1.54004,0,0,0,0,0,0,0,-1,664,1485,-7.28817,-1.54005
-553,-461,-11.9607,5.27783,0,0,0,0,0,0,0,-1,671,1485,-11.9607,-5.27778
-546,-461,-11.4215,4.44666,0,0,0,0,0,0,0,-1,678,1485,-11.4215,-4.4467
-539,-461,-9.36493,5.23438,0,0,0,0,0,0,0,-1,685,1485,-9.3649,-5.23432
-532,-461,-7.82898,6.78357,0,0,0,0,0,0,0,-1,692,1485,-7.829,-6.78363
-525,-461,-6.37878,8.75659,0,0,0,0,0,0,0,-1,699,1485,-6.3788,-8.75659
-518,-461,-6.49695,10.886,0,0,0,0,0,0,0,-1,706,1485,-6.49696,-10.8859
-511,-461,-15.8618,21.5214,0,0,0,0,0,0,0,-1,713,1485,-15.8617,-21.5213
-504,-461,-15.9619,23.2764,0,0,0,0,0,0,0,-1,720,1485,-15.9619,-23.2763
-497,-461,-15.998,24.1649,0.00324771,0.00460664,0.00453149,0.00850932,-0.000654973,0.859816,0.00590333,0.0120006,727,1485,-15.998,-24.165
-490,-461,-16.0386,25.0334,0.00260997,0.00336752,0.00340719,0.00641692,-0.000439432,0.840756,0.00443169,0.0131722,734,1485,-16.0387,-25.0334
-483,-461,-16.1003,25.8802,0.00207412,0.00235391,0.0024569,0.00467489,-0.000246861,0.813837,0.00320205,0.0117747,741,1485,-16.1003,-25.8802
-476,-461,-16.179,26.7344,0.00167566,0.00167979,0.0017491,0.00342682,-7.13706e-05,0.785989,0.00230871,0.0102043,748,1485,-16.179,-26.7343
-469,-461,-16.2145,27.5959,0.00140288,0.00133834,0.00125375,0.00262478,0.000116445,0.77253,0.00171236,0.0118316,755,1485,-16.2146,-27.5959
-462,-461,-16.2663,28.4729,0.00132625,0.00128643,0.000987091,0.00229363,0.000319049,0.775315,0.00143461,0.0194035,762,1485,-16.2663,-28.4729
-455,-461,-16.3459,29.3218,0.00143318,0.00154847,0.000955907,0.00244847,0.00053318,0.815512,0.0014868,0.0261096,769,1485,-16.3459,-29.3217
-448,-461,-16.3518,30.182,0.00170474,0.0021199,0.00117489,0.0031054,0.000719237,0.872836,0.00187703,0.0236172,776,1485,-16.3518,-30.1819
-441,-461,-16.3555,30.9955,0,0,0,0,0,0,0,-1,783,1485,-16.3555,-30.9954
-434,-461,-16.1284,32.1522,0,0,0,0,0,0,0,-1,790,1485,-16.1283,-32.1522
-427,-461,-8.26154,21.546,0,0,0,0,0,0,0,-1,797,1485,-8.26153,-21.5461
-420,-461,-5.70355,16.6116,0,0,0,0,0,0,0,-1,804,1485,-5.70353,-16.6115
-413,-461,-5.98798,16.0605,0,0,0,0,0,0,0,-1,811,1485,-5.98796,-16.0605
-406,-461,-5.52667,14.839,0,0,0,0,0,0,0,-1,818,1485,-5.52666,-14.839
-399,-461,-1.93439,9.82849,0,0,0,0,0,0,0,-1,825,1485,-1.9344,-9.82846
-392,-461,-0.357544,5.55225,0,0,0,0,0,0,0,-1,832,1485,-0.357536,-5.55228
-385,-461,1.71509,3.35254,0,0,0,0,0,0,0,-1,839,1485,1.71511,-3.35255
-378,-461,1.95996,3.01111,0,0,0,0,0,0,0,-1,846,1485,1.95993,-3.01111
-371,-461,0.702881,2.33459,0,0,0,0,0,0,0,-1,853,1485,0.702859,-2.33459
-364,-461,-1.93097,2.56458,0,0,0,0,0,0,0,-1,860,1485,-1.93095,-2.56456
-357,-461,-2.41516,3.49487,0,0,0,0,0,0,0,-1,867,1485,-2.41517,-3.49487
-350,-461,0,0,0,0,0,0,0,0,0,-1,874,1485,0,0
-343,-461,0,0,0,0,0,0,0,0,0,-1,881,1485,0,0
-336,-461,0,0,0,0,0,0,0,0,0,-1,888,1485,0,0
-329,-461,0,0,0,0,0,0,0,0,0,-1,895,1485,0,0
-322,-461,0,0,0,0,0,0,0,0,0,-1,902,1485,0,0
-315,-461,0,0,0,0,0,0,0,0,0,-1,909,1485,0,0
-308,-461,0,0,0,0,0,0,0,0,0,-1,916,1485,0,0
-301,-461,0,0,0,0,0,0,0,0,0,-1,923,1485,0,0
-294,-461,0,0,0,0,0,0,0,0,0,-1,930,1485,0,0
-287,-461,0,0,0,0,0,0,0,0,0,-1,937,1485,0,0
-280,-461,0,0,0,0,0,0,0,0,0,-1,944,1485,0,0
-273,-461,0,0,0,0,0,0,0,0,0,-1,951,1485,0,0
-266,-461,0,0,0,0,0,0,0,0,0,-1,958,1485,0,0
-259,-461,0,0,0,0,0,0,0,0,0,-1,965,1485,0,0
-252,-461,0,0,0,0,0,0,0,0,0,-1,972,1485,0,0
-245,-461,0,0,0,0,0,0,0,0,0,-1,979,1485,0,0
-238,-461,0,0,0,0,0,0,0,0,0,-1,986,1485,0,0
-231,-461,0,0,0,0,0,0,0,0,0,-1,993,1485,0,0
-224,-461,0,0,0,0,0,0,0,0,0,-1,1000,1485,0,0
-217,-461,0,0,0,0,0,0,0,0,0,-1,1007,1485,0,0
-210,-461,0,0,0,0,0,0,0,0,0,-1,1014,1485,0,0
-203,-461,0,0,0,0,0,0,0,0,0,-1,1021,1485,0,0
-196,-461,0,0,0,0,0,0,0,0,0,-1,1028,1485,0,0
-189,-461,0,0,0,0,0,0,0,0,0,-1,1035,1485,0,0
-182,-461,0,0,0,0,0,0,0,0,0,-1,1042,1485,0,0
-175,-461,0,0,0,0,0,0,0,0,0,-1,1049,1485,0,0
-168,-461,0,0,0,0,0,0,0,0,0,-1,1056,1485,0,0
-161,-461,0,0,0,0,0,0,0,0,0,-1,1063,1485,0,0
-154,-461,0,0,0,0,0,0,0,0,0,-1,1070,1485,0,0
-147,-461,0,0,0,0,0,0,0,0,0,-1,1077,1485,0,0
-140,-461,0,0,0,0,0,0,0,0,0,-1,1084,1485,0,0
-133,-461,0,0,0,0,0,0,0,0,0,-1,1091,1485,0,0
-126,-461,0,0,0,0,0,0,0,0,0,-1,1098,1485,0,0
-119,-461,0,0,0,0,0,0,0,0,0,-1,1105,1485,0,0
-112,-461,0,0,0,0,0,0,0,0,0,-1,1112,1485,0,0
-105,-461,0,0,0,0,0,0,0,0,0,-1,1119,1485,0,0
-98,-461,0,0,0,0,0,0,0,0,0,-1,1126,1485,0,0
-91,-461,0,0,0,0,0,0,0,0,0,-1,1133,1485,0,0
-84,-461,0,0,0,0,0,0,0,0,0,-1,1140,1485,0,0
-77,-461,0,0,0,0,0,0,0,0,0,-1,1147,1485,0,0
-70,-461,0,0,0,0,0,0,0,0,0,-1,1154,1485,0,0
-63,-461,0,0,0,0,0,0,0,0,0,-1,1161,1485,0,0
-56,-461,0,0,0,0,0,0,0,0,0,-1,1168,1485,0,0
-49,-461,0,0,0,0,0,0,0,0,0,-1,1175,1485,0,0
-42,-461,0,0,0,0,0,0,0,0,0,-1,1182,1485,0,0
-35,-461,0,0,0,0,0,0,0,0,0,-1,1189,1485,0,0
-28,-461,0,0,0,0,0,0,0,0,0,-1,1196,1485,0,0
-21,-461,0,0,0,0,0,0,0,0,0,-1,1203,1485,0,0
-14,-461,0,0,0,0,0,0,0,0,0,-1,1210,1485,0,0
-7,-461,0,0,0,0,0,0,0,0,0,-1,1217,1485,0,0
0,-461,0,0,0,0,0,0,0,0,0,-1,1224,1485,0,0
7,-461,0,0,0,0,0,0,0,0,0,-1,1231,1485,0,0
14,-461,0,0,0,0,0,0,0,0,0,-1,1238,1485,0,0
21,-461,0,0,0,0,0,0,0,0,0,-1,1245,1485,0,0
28,-461,0,0,0,0,0,0,0,0,0,-1,1252,1485,0,0
35,-461,0,0,0,0,0,0,0,0,0,-1,1259,1485,0,0
42,-461,0,0,0,0,0,0,0,0,0,-1,1266,1485,0,0
49,-461,0,0,0,0,0,0,0,0,0,-1,1273,1485,0,0
56,-461,0,0,0,0,0,0,0,0,0,-1,1280,1485,0,0
63,-461,0,0,0,0,0,0,0,0,0,-1,1287,1485,0,0
70,-461,0,0,0,0,0,0,0,0,0,-1,1294,1485,0,0
77,-461,0,0,0,0,0,0,0,0,0,-1,1301,1485,0,0
84,-461,0,0,0,0,0,0,0,0,0,-1,1308,1485,0,0
91,-461,0,0,0,0,0,0,0,0,0,-1,1315,1485,0,0
98,-461,0,0,0,0,0,0,0,0,0,-1,1322,1485,0,0
105,-461,0,0,0,0,0,0,0,0,0,-1,1329,1485,0,0
112,-461,0,0,0,0,0,0,0,0,0,-1,1336,1485,0,0
119,-461,0,0,0,0,0,0,0,0,0,-1,1343,1485,0,0
126,-461,0,0,0,0,0,0,0,0,0,-1,1350,1485,0,0
133,-461,0,0,0,0,0,0,0,0,0,-1,1357,1485,0,0
140,-461,0,0,0,0,0,0,0,0,0,-1,1364,1485,0,0
147,-461,0,0,0,0,0,0,0,0,0,-1,1371,1485,0,0
154,-461,0,0,0,0,0,0,0,0,0,-1,1378,1485,0,0
161,-461,0,0,0,0,0,0,0,0,0,-1,1385,1485,0,0
168,-461,0,0,0,0,0,0,0,0,0,-1,1392,1485,0,0
175,-461,0,0,0,0,0,0,0,0,0,-1,1399,1485,0,0
182,-461,0,0,0,0,0,0,0,0,0,-1,1406,1485,0,0
189,-461,0,0,0,0,0,0,0,0,0,-1,1413,1485,0,0
196,-461,0,0,0,0,0,0,0,0,0,-1,1420,1485,0,0
203,-461,0,0,0,0,0,0,0,0,0,-1,1427,1485,0,0
210,-461,0,0,0,0,0,0,0,0,0,-1,1434,1485,0,0
217,-461,0,0,0,0,0,0,0,0,0,-1,1441,1485,0,0
224,-461,0,0,0,0,0,0,0,0,0,-1,1448,1485,0,0
231,-461,0,0,0,0,0,0,0,0,0,-1,1455,1485,0,0
238,-461,0,0,0,0,0,0,0,0,0,-1,1462,1485,0,0
245,-461,0,0,0,0,0,0,0,0,0,-1,1469,1485,0,0
252,-461,0,0,0,0,0,0,0,0,0,-1,1476,1485,0,0
259,-461,0,0,0,0,0,0,0,0,0,-1,1483,1485,0,0
266,-461,0,0,0,0,0,0,0,0,0,-1,1490,1485,0,0
273,-461,0,0,0,0,0,0,0,0,0,-1,1497,1485,0,0
280,-461,0,0,0,0,0,0,0,0,0,-1,1504,1485,0,0
287,-461,0,0,0,0,0,0,0,0,0,-1,1511,1485,0,0
294,-461,0,0,0,0,0,0,0,0,0,-1,1518,1485,0,0
301,-461,0,0,0,0,0,0,0,0,0,-1,1525,1485,0,0
308,-461,0,0,0,0,0,0,0,0,0,-1,1532,1485,0,0
315,-461,0,0,0,0,0,0,0,0,0,-1,1539,1485,0,0
322,-461,0,0,0,0,0,0,0,0,0,-1,1546,1485,0,0
329,-461,0,0,0,0,0,0,0,0,0,-1,1553,1485,0,0
336,-461,0,0,0,0,0,0,0,0,0,-1,1560,1485,0,0
343,-461,0,0,0,0,0,0,0,0,0,-1,1567,1485,0,0
350,-461,0,0,0,0,0,0,0,0,0,-1,1574,1485,0,0
357,-461,0,0,0,0,0,0,0,0,0,-1,1581,1485,0,0
364,-461,0,0,0,0,0,0,0,0,0,-1,1588,1485,0,0
371,-461,0,0,0,0,0,0,0,0,0,-1,1595,1485,0,0
378,-461,0,0,0,0,0,0,0,0,0,-1,1602,1485,0,0
385,-461,0,0,0,0,0,0,0,0,0,-1,1609,1485,0,0
392,-461,0,0,0,0,0,0,0,0,0,-1,1616,1485,0,0
399,-461,0,0,0,0,0,0,0,0,0,-1,1623,1485,0,0
406,-461,0,0,0,0,0,0,0,0,0,-1,1630,1485,0,0
413,-461,0,0,0,0,0,0,0,0,0,-1,1637,1485,0,0
420,-461,0,0,0,0,0,0,0,0,0,-1,1644,1485,0,0
427,-461,0,0,0,0,0,0,0,0,0,-1,1651,1485,0,0
434,-461,0,0,0,0,0,0,0,0,0,-1,1658,1485,0,0
441,-461,0,0,0,0,0,0,0,0,0,-1,1665,1485,0,0
448,-461,0,0,0,0,0,0,0,0,0,-1,1672,1485,0,0
455,-461,0,0,0,0,0,0,0,0,0,-1,1679,1485,0,0
462,-461,0,0,0,0,0,0,0,0,0,-1,1686,1485,0,0
469,-461,0,0,0,0,0,0,0,0,0,-1,1693,1485,0,0
476,-461,14.1906,0.690552,0,0,0,0,0,0,0,-1,1700,1485,14.1906,-0.690525
483,-461,10.6361,3.09106,0,0,0,0,0,0,0,-1,1707,1485,10.6361,-3.091
490,-461,17.9972,0.665894,0,0,0,0,0,0,0,-1,1714,1485,17.9972,-0.665876
497,-461,16.6829,1.87732,0,0,0,0,0,0,0,-1,1721,1485,16.6828,-1.87736
504,-461,15.3884,3.09216,0,0,0,0,0,0,0,-1,1728,1485,15.3885,-3.09212
511,-461,15.4292,14.3512,0,0,0,0,0,0,0,-1,1735,1485,15.4292,-14.3512
518,-461,14.8081,10.0085,0,0,0,0,0,0,0,-1,1742,1485,14.8081,-10.0086
525,-461,14.0022,10.8033,0,0,0,0,0,0,0,-1,1749,1485,14.0022,-10.8033
532,-461,17.1704,14.077,0,0,0,0,0,0,0,-1,1756,1485,17.1704,-14.077
539,-461,17.0229,14.7386,0,0,0,0,0,0,0,-1,1763,1485,17.0229,-14.7387
546,-461,16.2106,14.1372,0,0,0,0,0,0,0,-1,1770,1485,16.2106,-14.1372
553,-461,25.9354,24.2889,0,0,0,0,0,0,0,-1,1777,1485,25.9354,-24.2889
560,-461,33.849,32.3879,0,0,0,0,0,0,0,-1,1784,1485,33.849,-32.388
567,-461,33.8834,31.3678,0.0110076,0.00488339,-0.00562516,0.0143501,0.0015409,-0.536146,0.00909672,0.0408973,1791,1485,33.8834,-31.3678
574,-461,33.9104,30.6085,0.00862648,0.00372908,-0.00440795,0.0112202,0.00113535,-0.531863,0.00713188,0.0341093,1798,1485,33.9104,-30.6086
581,-461,33.8746,29.7561,0.00670189,0.00279117,-0.0034422,0.00870534,0.000787722,-0.527098,0.00555962,0.0199621,1805,1485,33.8747,-29.756
588,-461,33.8268,28.9421,0.00512705,0.00209143,-0.00263372,0.00664902,0.000569469,-0.523993,0.00425557,0.0118712,1812,1485,33.8267,-28.9422
595,-461,33.743,28.1407,0.00393715,0.00146397,-0.00192225,0.00498621,0.000414907,-0.499571,0.00319483,0.00975698,1819,1485,33.7431,-28.1408
602,-461,33.7019,27.2963,0.00301712,0.000871199,-0.00125743,0.00359715,0.00029117,-0.432195,0.00230718,0.0104966,1826,1485,33.7018,-27.2962
609,-461,33.6698,26.4575,0.00234054,0.000391201,-0.000617163,0.0025195,0.000212237,-0.282238,0.00161358,0.0122407,1833,1485,33.6698,-26.4576
616,-461,33.6433,25.6348,0.0018166,-9.86798e-05,3.99073e-05,0.00181743,-9.95109e-05,0.0208243,0.00124612,0.0142385,1840,1485,33.6433,-25.6347
623,-461,33.6355,24.8344,0.0016016,-0.000561906,0.00066649,0.00179044,-0.000750742,0.276094,0.00150753,0.0179507,1847,1485,33.6355,-24.8343
630,-461,33.5809,24.0333,0.00155228,-0.00109025,0.00137154,0.00213545,-0.00167342,0.402032,0.00220444,0.0185082,1854,1485,33.5809,-24.0334
637,-461,33.5049,23.1748,0.0016583,-0.0015866,0.00208041,0.00267412,-0.00260242,0.454225,0.00304651,0.0178904,1861,1485,33.5049,-23.1748
644,-461,33.589,22.4104,0.0018947,-0.00199888,0.00275383,0.00332038,-0.00342457,0.477714,0.00389435,0.0443664,1868,1485,33.589,-22.4104
651,-461,33.7665,21.5573,0,0,0,0,0,0,0,-1,1875,1485,33.7665,-21.5572
658,-461,16.8987,10.1084,0,0,0,0,0,0,0,-1,1882,1485,16.8986,-10.1084
665,-461,17.2638,9.81384,0,0,0,0,0,0,0,-1,1889,1485,17.2638,-9.81385
672,-461,14.4877,6.89429,0,0,0,0,0,0,0,-1,1896,1485,14.4876,-6.89431
679,-461,10.0535,2.16321,0,0,0,0,0,0,0,-1,1903,1485,10.0535,-2.16317
686,-461,10.8195,1.84192,0,0,0,0,0,0,0,-1,1910,1485,10.8194,-1.84195
693,-461,0,0,0,0,0,0,0,0,0,-1,1917,1485,0,0
700,-461,0,0,0,0,0,0,0,0,0,-1,1924,1485,0,0
707,-461,0,0,0,0,0,0,0,0,0,-1,1931,1485,0,0
714,-461,0,0,0,0,0,0,0,0,0,-1,1938,1485,0,0
721,-461,0,0,0,0,0,0,0,0,0,-1,1945,1485,0,0
728,-461,0,0,0,0,0,0,0,0,0,-1,1952,1485,0,0
735,-461,0,0,0,0,0,0,0,0,0,-1,1959,1485,0,0
742,-461,0,0,0,0,0,0,0,0,0,-1,1966,1485,0,0
749,-461,0,0,0,0,0,0,0,0,0,-1,1973,1485,0,0
756,-461,0,0,0,0,0,0,0,0,0,-1,1980,1485,0,0
763,-461,0,0,0,0,0,0,0,0,0,-1,1987,1485,0,0
770,-461,0,0,0,0,0,0,0,0,0,-1,1994,1485,0,0
777,-461,0,0,0,0,0,0,0,0,0,-1,2001,1485,0,0
784,-461,0,0,0,0,0,0,0,0,0,-1,2008,1485,0,0
791,-461,0,0,0,0,0,0,0,0,0,-1,2015,1485,0,0
798,-461,0,0,0,0,0,0,0,0,0,-1,2022,1485,0,0
805,-461,0,0,0,0,0,0,0,0,0,-1,2029,1485,0,0
812,-461,0,0,0,0,0,0,0,0,0,-1,2036,1485,0,0
-700,-468,0,0,0,0,0,0,0,0,0,-1,524,1492,0,0
-693,-468,0,0,0,0,0,0,0,0,0,-1,531,1492,0,0
-686,-468,0,0,0,0,0,0,0,0,0,-1,538,1492,0,0
-679,-468,0,0,0,0,0,0,0,0,0,-1,545,1492,0,0
-672,-468,0,0,0,0,0,0,0,0,0,-1,552,1492,0,0
-665,-468,0,0,0,0,0,0,0,0,0,-1,559,1492,0,0
-658,-468,0,0,0,0,0,0,0,0,0,-1,566,1492,0,0
-651,-468,0,0,0,0,0,0,0,0,0,-1,573,1492,0,0
-644,-468,0,0,0,0,0,0,0,0,0,-1,580,1492,0,0
-637,-468,0,0,0,0,0,0,0,0,0,-1,587,1492,0,0
-630,-468,0,0,0,0,0,0,0,0,0,-1,594,1492,0,0
-623,-468,0,0,0,0,0,0,0,0,0,-1,601,1492,0,0
-616,-468,0,0,0,0,0,0,0,0,0,-1,608,1492,0,0
-609,-468,0,0,0,0,0,0,0,0,0,-1,615,1492,0,0
-602,-468,0,0,0,0,0,0,0,0,0,-1,622,1492,0,0
-595,-468,0,0,0,0,0,0,0,0,0,-1,629,1492,0,0
-588,-468,0,0,0,0,0,0,0,0,0,-1,636,1492,0,0
-581,-468,0,0,0,0,0,0,0,0,0,-1,643,1492,0,0
-574,-468,0,0,0,0,0,0,0,0,0,-1,650,1492,0,0
-567,-468,-11.2603,1.8042,0,0,0,0,0,0,0,-1,657,1492,-11.2603,-1.80424
-560,-468,-8.77441,2.23694,0,0,0,0,0,0,0,-1,664,1492,-8.77443,-2.23692
-553,-468,-5.94061,9.26318,0,0,0,0,0,0,0,-1,671,1492,-5.94062,-9.26322
-546,-468,-10.47,5.43237,0,0,0,0,0,0,0,-1,678,1492,-10.47,-5.4324
-539,-468,-10.2468,5.45203,0,0,0,0,0,0,0,-1,685,1492,-10.2468,-5.45197
-532,-468,-8.39795,6.02783,0,0,0,0,0,0,0,-1,692,1492,-8.39793,-6.02789
-525,-468,-6.59332,7.15405,0,0,0,0,0,0,0,-1,699,1492,-6.59331,-7.15411
-518,-468,-6.33588,8.65393,0,0,0,0,0,0,0,-1,706,1492,-6.33588,-8.65397
-511,-468,-8.05835,13.8282,0,0,0,0,0,0,0,-1,713,1492,-8.05835,-13.8283
-504,-468,-15.2297,22.9829,0,0,0,0,0,0,0,-1,720,1492,-15.2297,-22.9829
-497,-468,-15.2005,24.0905,0.00405789,0.00578078,0.00563567,0.0106205,-0.000781792,0.861239,0.00735477,0.0365377,727,1492,-15.2005,-24.0904
-490,-468,-15.1891,25.0958,0.00324324,0.00424287,0.00431758,0.00808947,-0.000603352,0.843023,0.00560493,0.00875371,734,1492,-15.1891,-25.0958
-483,-468,-15.2474,25.9421,0.00252385,0.0029357,0.0031532,0.00588969,-0.000430138,0.818005,0.00407741,0.00867882,741,1492,-15.2474,-25.9421
-476,-468,-15.3026,26.8088,0.0020198,0.00205872,0.00229249,0.00433182,-0.000253312,0.789642,0.00297592,0.00894714,748,1492,-15.3025,-26.8089
-469,-468,-15.3362,27.6891,0.00165421,0.0015425,0.00165932,0.00325861,-6.19035e-05,0.768575,0.00219333,0.0125817,755,1492,-15.3362,-27.6891
-462,-468,-15.3417,28.516,0.00148308,0.00135036,0.00126569,0.00268415,0.00014929,0.759205,0.0017418,0.0249202,762,1492,-15.3417,-28.516
-455,-468,-15.3972,29.3152,0.00149108,0.00147973,0.00109926,0.00258468,0.000386135,0.782816,0.00160992,0.0276012,769,1492,-15.3972,-29.3152
-448,-468,-15.4739,30.2103,0.001683,0.00191817,0.00116473,0.00297123,0.000629937,0.835707,0.0018078,0.0164879,776,1492,-15.474,-30.2104
-441,-468,-15.5303,31.0566,0.00211963,0.00277901,0.00152543,0.00400997,0.000888673,0.891825,0.00243183,0.0173698,783,1492,-15.5304,-31.0567
-434,-468,-15.4868,32.0398,0.00284689,0.00389839,0.00215629,0.0055921,0.00115318,0.904976,0.00340931,0.0468661,790,1492,-15.4868,-32.0397
-427,-468,-15.4705,33.0839,0,0,0,0,0,0,0,-1,797,1492,-15.4705,-33.0839
-420,-468,-7.57581,22.0538,0,0,0,0,0,0,0,-1,804,1492,-7.57582,-22.0538
-413,-468,-5.30328,17.3519,0,0,0,0,0,0,0,-1,811,1492,-5.30329,-17.352
-406,-468,-2.2356,9.396,0,0,0,0,0,0,0,-1,818,1492,-2.2356,-9.396
-399,-468,-0.940369,8.1936,0,0,0,0,0,0,0,-1,825,1492,-0.940365,-8.19357
-392,-468,-0.35144,8.14673,0,0,0,0,0,0,0,-1,832,1492,-0.351449,-8.14674
-385,-468,0.465759,5.35864,0,0,0,0,0,0,0,-1,839,1492,0.465732,-5.35864
-378,-468,1.99835,3.25391,0,0,0,0,0,0,0,-1,846,1492,1.99837,-3.2539
-371,-468,-0.31842,3.1532,0,0,0,0,0,0,0,-1,853,1492,-0.318441,-3.15324
-364,-468,-0.966736,2.14563,0,0,0,0,0,0,0,-1,860,1492,-0.966735,-2.14557
-357,-468,-3.06787,3.22742,0,0,0,0,0,0,0,-1,867,1492,-3.06784,-3.2274
-350,-468,-3.18658,4.12659,0,0,0,0,0,0,0,-1,874,1492,-3.18659,-4.12658
-343,-468,0,0,0,0,0,0,0,0,0,-1,881,1492,0,0
-336,-468,0,0,0,0,0,0,0,0,0,-1,888,1492,0,0
-329,-468,0,0,0,0,0,0,0,0,0,-1,895,1492,0,0
-322,-468,0,0,0,0,0,0,0,0,0,-1,902,1492,0,0
-315,-468,0,0,0,0,0,0,0,0,0,-1,909,1492,0,0
-308,-468,0,0,0,0,0,0,0,0,0,-1,916,1492,0,0
-301,-468,0,0,0,0,0,0,0,0,0,-1,923,1492,0,0
-294,-468,0,0,0,0,0,0,0,0,0,-1,930,1492,0,0
-287,-468,0,0,0,0,0,0,0,0,0,-1,937,1492,0,0
-280,-468,0,0,0,0,0,0,0,0,0,-1,944,1492,0,0
-273,-468,0,0,0,0,0,0,0,0,0,-1,951,1492,0,0
-266,-468,0,0,0,0,0,0,0,0,0,-1,958,1492,0,0
-259,-468,0,0,0,0,0,0,0,0,0,-1,965,1492,0,0
-252,-468,0,0,0,0,0,0,0,0,0,-1,972,1492,0,0
-245,-468,0,0,0,0,0,0,0,0,0,-1,979,1492,0,0
-238,-468,0,0,0,0,0,0,0,0,0,-1,986,1492,0,0
-231,-468,0,0,0,0,0,0,0,0,0,-1,993,1492,0,0
-224,-468,0,0,0,0,0,0,0,0,0,-1,1000,1492,0,0
-217,-468,0,0,0,0,0,0,0,0,0,-1,1007,1492,0,0
-210,-468,0,0,0,0,0,0,0,0,0,-1,1014,1492,0,0
-203,-468,0,0,0,0,0,0,0,0,0,-1,1021,1492,0,0
-196,-468,0,0,0,0,0,0,0,0,0,-1,1028,1492,0,0
-189,-468,0,0,0,0,0,0,0,0,0,-1,1035,1492,0,0
-182,-468,0,0,0,0,0,0,0,0,0,-1,1042,1492,0,0
-175,-468,0,0,0,0,0,0,0,0,0,-1,1049,1492,0,0
-168,-468,0,0,0,0,0,0,0,0,0,-1,1056,1492,0,0
-161,-468,0,0,0,0,0,0,0,0,0,-1,1063,1492,0,0
-154,-468,0,0,0,0,0,0,0,0,0,-1,1070,1492,0,0
-147,-468,0,0,0,0,0,0,0,0,0,-1,1077,1492,0,0
-140,-468,0,0,0,0,0,0,0,0,0,-1,1084,1492,0,0
-133,-468,0,0,0,0,0,0,0,0,0,-1,1091,1492,0,0
-126,-468,0,0,0,0,0,0,0,0,0,-1,1098,1492,0,0
-119,-468,0,0,0,0,0,0,0,0,0,-1,1105,1492,0,0
-112,-468,0,0,0,0,0,0,0,0,0,-1,1112,1492,0,0
-105,-468,0,0,0,0,0,0,0,0,0,-1,1119,1492,0,0
-98,-468,0,0,0,0,0,0,0,0,0,-1,1126,1492,0,0
-91,-468,0,0,0,0,0,0,0,0,0,-1,1133,1492,0,0
-84,-468,0,0,0,0,0,0,0,0,0,-1,1140,1492,0,0
-77,-468,0,0,0,0,0,0,0,0,0,-1,1147,1492,0,0
-70,-468,0,0,0,0,0,0,0,0,0,-1,1154,1492,0,0
-63,-468,0,0,0,0,0,0,0,0,0,-1,1161,1492,0,0
-56,-468,0,0,0,0,0,0,0,0,0,-1,1168,1492,0,0
-49,-468,0,0,0,0,0,0,0,0,0,-1,1175,1492,0,0
-42,-468,0,0,0,0,0,0,0,0,0,-1,1182,1492,0,0
-35,-468,0,0,0,0,0,0,0,0,0,-1,1189,1492,0,0
-28,-468,0,0,0,0,0,0,0,0,0,-1,1196,1492,0,0
-21,-468,0,0,0,0,0,0,0,0,0,-1,1203,1492,0,0
-14,-468,0,0,0,0,0,0,0,0,0,-1,1210,1492,0,0
-7,-468,0,0,0,0,0,0,0,0,0,-1,1217,1492,0,0
0,-468,0,0,0,0,0,0,0,0,0,-1,1224,1492,0,0
7,-468,0,0,0,0,0,0,0,0,0,-1,1231,1492,0,0
14,-468,0,0,0,0,0,0,0,0,0,-1,1238,1492,0,0
21,-468,0,0,0,0,0,0,0,0,0,-1,1245,1492,0,0
28,-468,0,0,0,0,0,0,0,0,0,-1,1252,1492,0,0
35,-468,0,0,0,0,0,0,0,0,0,-1,1259,1492,0,0
42,-468,0,0,0,0,0,0,0,0,0,-1,1266,1492,0,0
49,-468,0,0,0,0,0,0,0,0,0,-1,1273,1492,0,0
56,-468,0,0,0,0,0,0,0,0,0,-1,1280,1492,0,0
63,-468,0,0,0,0,0,0,0,0,0,-1,1287,1492,0,0
70,-468,0,0,0,0,0,0,0,0,0,-1,1294,1492,0,0
77,-468,0,0,0,0,0,0,0,0,0,-1,1301,1492,0,0
84,-468,0,0,0,0,0,0,0,0,0,-1,1308,1492,0,0
91,-468,0,0,0,0,0,0,0,0,0,-1,1315,1492,0,0
98,-468,0,0,0,0,0,0,0,0,0,-1,1322,1492,0,0
105,-468,0,0,0,0,0,0,0,0,0,-1,1329,1492,0,0
112,-468,0,0,0,0,0,0,0,0,0,-1,1336,1492,0,0
119,-468,0,0,0,0,0,0,0,0,0,-1,1343,1492,0,0
126,-468,0,0,0,0,0,0,0,0,0,-1,1350,1492,0,0
133,-468,0,0,0,0,0,0,0,0,0,-1,1357,1492,0,0
140,-468,0,0,0,0,0,0,0,0,0,-1,1364,1492,0,0
147,-468,0,0,0,0,0,0,0,0,0,-1,1371,1492,0,0
154,-468,0,0,0,0,0,0,0,0,0,-1,1378,1492,0,0
161,-468,0,0,0,0,0,0,0,0,0,-1,1385,1492,0,0
168,-468,0,0,0,0,0,0,0,0,0,-1,1392,1492,0,0
175,-468,0,0,0,0,0,0,0,0,0,-1,1399,1492,0,0
182,-468,0,0,0,0,0,0,0,0,0,-1,1406,1492,0,0
189,-468,0,0,0,0,0,0,0,0,0,-1,1413,1492,0,0
196,-468,0,0,0,0,0,0,0,0,0,-1,1420,1492,0,0
203,-468,0,0,0,0,0,0,0,0,0,-1,1427,1492,0,0
210,-468,0,0,0,0,0,0,0,0,0,-1,1434,1492,0,0
217,-468,0,0,0,0,0,0,0,0,0,-1,1441,1492,0,0
224,-468,0,0,0,0,0,0,0,0,0,-1,1448,1492,0,0
231,-468,0,0,0,0,0,0,0,0,0,-1,1455,1492,0,0
238,-468,0,0,0,0,0,0,0,0,0,-1,1462,1492,0,0
245,-468,0,0,0,0,0,0,0,0,0,-1,1469,1492,0,0
252,-468,0,0,0,0,0,0,0,0,0,-1,1476,1492,0,0
259,-468,0,0,0,0,0,0,0,0,0,-1,1483,1492,0,0
266,-468,0,0,0,0,0,0,0,0,0,-1,1490,1492,0,0
273,-468,0,0,0,0,0,0,0,0,0,-1,1497,1492,0,0
280,-468,0,0,0,0,0,0,0,0,0,-1,1504,1492,0,0
287,-468,0,0,0,0,0,0,0,0,0,-1,1511,1492,0,0
294,-468,0,0,0,0,0,0,0,0,0,-1,1518,1492,0,0
301,-468,0,0,0,0,0,0,0,0,0,-1,1525,1492,0,0
308,-468,0,0,0,0,0,0,0,0,0,-1,1532,1492,0,0
315,-468,0,0,0,0,0,0,0,0,0,-1,1539,1492,0,0
322,-468,0,0,0,0,0,0,0,0,0,-1,1546,1492,0,0
329,-468,0,0,0,0,0,0,0,0,0,-1,1553,1492,0,0
336,-468,0,0,0,0,0,0,0,0,0,-1,1560,1492,0,0
343,-468,0,0,0,0,0,0,0,0,0,-1,1567,1492,0,0
350,-468,0,0,0,0,0,0,0,0,0,-1,1574,1492,0,0
357,-468,0,0,0,0,0,0,0,0,0,-1,1581,1492,0,0
364,-468,0,0,0,0,0,0,0,0,0,-1,1588,1492,0,0
371,-468,0,0,0,0,0,0,0,0,0,-1,1595,1492,0,0
378,-468,0,0,0,0,0,0,0,0,0,-1,1602,1492,0,0
385,-468,0,0,0,0,0,0,0,0,0,-1,1609,1492,0,0
392,-468,0,0,0,0,0,0,0,0,0,-1,1616,1492,0,0
399,-468,0,0,0,0,0,0,0,0,0,-1,1623,1492,0,0
406,-468,0,0,0,0,0,0,0,0,0,-1,1630,1492,0,0
413,-468,0,0,0,0,0,0,0,0,0,-1,1637,1492,0,0
420,-468,0,0,0,0,0,0,0,0,0,-1,1644,1492,0,0
427,-468,0,0,0,0,0,0,0,0,0,-1,1651,1492,0,0
434,-468,0,0,0,0,0,0,0,0,0,-1,1658,1492,0,0
441,-468,0,0,0,0,0,0,0,0,0,-1,1665,1492,0,0
448,-468,0,0,0,0,0,0,0,0,0,-1,1672,1492,0,0
455,-468,0,0,0,0,0,0,0,0,0,-1,1679,1492,0,0
462,-468,0,0,0,0,0,0,0,0,0,-1,1686,1492,0,0
469,-468,15.6879,1.2677,0,0,0,0,0,0,0,-1,1693,1492,15.6879,-1.26772
476,-468,14.9318,1.61865,0,0,0,0,0,0,0,-1,1700,1492,14.9318,-1.61869
483,-468,11.265,4.64795,0,0,0,0,0,0,0,-1,1707,1492,11.265,-4.64798
490,-468,12.1316,3.51624,0,0,0,0,0,0,0,-1,1714,1492,12.1316,-3.51628
497,-468,16.5355,3.14587,0,0,0,0,0,0,0,-1,1721,1492,16.5356,-3.14583
504,-468,15.0642,4.10437,0,0,0,0,0,0,0,-1,1728,1492,15.0643,-4.10431
511,-468,15.6877,9.4801,0,0,0,0,0,0,0,-1,1735,1492,15.6878,-9.48007
518,-468,13.759,11.0887,0,0,0,0,0,0,0,-1,1742,1492,13.759,-11.0887
525,-468,16.6531,14.2238,0,0,0,0,0,0,0,-1,1749,1492,16.653,-14.2237
532,-468,16.9696,15.9641,0,0,0,0,0,0,0,-1,1756,1492,16.9696,-15.9641
539,-468,21.5308,20.7551,0,0,0,0,0,0,0,-1,1763,1492,21.5308,-20.7551
546,-468,25.5796,25.0283,0,0,0,0,0,0,0,-1,1770,1492,25.5796,-25.0284
553,-468,31.8678,31.5677,0,0,0,0,0,0,0,-1,1777,1492,31.8678,-31.5678
560,-468,32.8103,32.6875,0,0,0,0,0,0,0,-1,1784,1492,32.8104,-32.6874
567,-468,33.0699,31.5408,0.00958755,0.00465953,-0.00501631,0.0127123,0.00153474,-0.557107,0.00801246,0.0288161,1791,1492,33.0699,-31.5408
574,-468,33.0916,30.6466,0.00751916,0.00343627,-0.00387084,0.00985389,0.00110155,-0.542738,0.0062346,0.0171848,1798,1492,33.0915,-30.6467
581,-468,33.0569,29.8324,0.00580609,0.00247373,-0.00294468,0.00752329,0.000756525,-0.527941,0.00478334,0.0173717,1805,1492,33.0569,-29.8324
588,-468,32.9861,29.0204,0.00444248,0.00174297,-0.00218934,0.0056647,0.000520753,-0.509163,0.0036154,0.0139031,1812,1492,32.986,-29.0204
595,-468,32.9365,28.1981,0.00343792,0.00110817,-0.00150378,0.00417522,0.000370867,-0.455858,0.00266846,0.0118668,1819,1492,32.9365,-28.1982
602,-468,32.8855,27.3499,0.00263711,0.000552492,-0.000883128,0.00296093,0.000228666,-0.351457,0.00190232,0.0103693,1826,1492,32.8855,-27.3499
609,-468,32.8217,26.5051,0.00204556,0.000115399,-0.000262893,0.00208073,8.02332e-05,-0.132976,0.00136119,0.0104993,1833,1492,32.8216,-26.5051
616,-468,32.7872,25.6777,0.0016142,-0.00032095,0.000392715,0.00169086,-0.00039761,0.192781,0.00128052,0.0104366,1840,1492,32.7872,-25.6778
623,-468,32.7585,24.871,0.00144376,-0.000811981,0.00110243,0.00189305,-0.00126127,0.386995,0.00183328,0.0117195,1847,1492,32.7586,-24.871
630,-468,32.7363,24.0369,0.00136803,-0.00135486,0.00196263,0.00239519,-0.00238202,0.482161,0.00275813,0.013122,1854,1492,32.7363,-24.0369
637,-468,32.7383,23.1501,0.0014154,-0.00190284,0.00289508,0.00309308,-0.00358051,0.525202,0.00385642,0.0268007,1861,1492,32.7383,-23.1502
644,-468,32.5946,22.5087,0.00151425,-0.00243495,0.00391754,0.0039267,-0.0048474,0.551961,0.00507501,0.0447679,1868,1492,32.5946,-22.5087
651,-468,32.5978,21.7053,0,0,0,0,0,0,0,-1,1875,1492,32.5978,-21.7053
658,-468,16.4969,10.0774,0,0,0,0,0,0,0,-1,1882,1492,16.497,-10.0774
665,-468,15.4673,8.59546,0,0,0,0,0,0,0,-1,1889,1492,15.4672,-8.59548
672,-468,9.96814,3.61133,0,0,0,0,0,0,0,-1,1896,1492,9.96817,-3.61139
679,-468,11.2191,1.91968,0,0,0,0,0,0,0,-1,1903,1492,11.2191,-1.91965
686,-468,11.9252,1.42285,0,0,0,0,0,0,0,-1,1910,1492,11.9252,-1.42291
693,-468,0,0,0,0,0,0,0,0,0,-1,1917,1492,0,0
700,-468,0,0,0,0,0,0,0,0,0,-1,1924,1492,0,0
707,-468,0,0,0,0,0,0,0,0,0,-1,1931,1492,0,0
714,-468,0,0,0,0,0,0,0,0,0,-1,1938,1492,0,0
721,-468,0,0,0,0,0,0,0,0,0,-1,1945,1492,0,0
728,-468,0,0,0,0,0,0,0,0,0,-1,1952,1492,0,0
735,-468,0,0,0,0,0,0,0,0,0,-1,1959,1492,0,0
742,-468,0,0,0,0,0,0,0,0,0,-1,1966,1492,0,0
749,-468,0,0,0,0,0,0,0,0,0,-1,1973,1492,0,0
756,-468,0,0,0,0,0,0,0,0,0,-1,1980,1492,0,0
763,-468,0,0,0,0,0,0,0,0,0,-1,1987,1492,0,0
770,-468,0,0,0,0,0,0,0,0,0,-1,1994,1492,0,0
777,-468,0,0,0,0,0,0,0,0,0,-1,2001,1492,0,0
784,-468,0,0,0,0,0,0,0,0,0,-1,2008,1492,0,0
791,-468,0,0,0,0,0,0,0,0,0,-1,2015,1492,0,0
798,-468,0,0,0,0,0,0,0,0,0,-1,2022,1492,0,0
805,-468,0,0,0,0,0,0,0,0,0,-1,2029,1492,0,0
812,-468,0,0,0,0,0,0,0,0,0,-1,2036,1492,0,0
-700,-475,0,0,0,0,0,0,0,0,0,-1,524,1499,0,0
-693,-475,0,0,0,0,0,0,0,0,0,-1,531,1499,0,0
-686,-475,0,0,0,0,0,0,0,0,0,-1,538,1499,0,0
-679,-475,0,0,0,0,0,0,0,0,0,-1,545,1499,0,0
-672,-475,0,0,0,0,0,0,0,0,0,-1,552,1499,0,0
-665,-475,0,0,0,0,0,0,0,0,0,-1,559,1499,0,0
-658,-475,0,0,0,0,0,0,0,0,0,-1,566,1499,0,0
-651,-475,0,0,0,0,0,0,0,0,0,-1,573,1499,0,0
-644,-475,0,0,0,0,0,0,0,0,0,-1,580,1499,0,0
-637,-475,0,0,0,0,0,0,0,0,0,-1,587,1499,0,0
-630,-475,0,0,0,0,0,0,0,0,0,-1,594,1499,0,0
-623,-475,0,0,0,0,0,0,0,0,0,-1,601,1499,0,0
-616,-475,0,0,0,0,0,0,0,0,0,-1,608,1499,0,0
-609,-475,0,0,0,0,0,0,0,0,0,-1,615,1499,0,0
-602,-475,0,0,0,0,0,0,0,0,0,-1,622,1499,0,0
-595,-475,0,0,0,0,0,0,0,0,0,-1,629,1499,0,0
-588,-475,0,0,0,0,0,0,0,0,0,-1,636,1499,0,0
-581,-475,0,0,0,0,0,0,0,0,0,-1,643,1499,0,0
-574,-475,0,0,0,0,0,0,0,0,0,-1,650,1499,0,0
-567,-475,0,0,0,0,0,0,0,0,0,-1,657,1499,0,0
-560,-475,-9.42731,9.29517,0,0,0,0,0,0,0,-1,664,1499,-9.42731,-9.29519
-553,-475,-8.15131,8.78369,0,0,0,0,0,0,0,-1,671,1499,-8.15131,-8.78367
-546,-475,-8.41254,8.20654,0,0,0,0,0,0,0,-1,678,1499,-8.41251,-8.20655
-539,-475,-4.7345,4.17419,0,0,0,0,0,0,0,-1,685,1499,-4.73449,-4.17418
-532,-475,-7.07379,4.25024,0,0,0,0,0,0,0,-1,692,1499,-7.07378,-4.2503
-525,-475,-6.13147,5.82166,0,0,0,0,0,0,0,-1,699,1499,-6.1315,-5.8216
-518,-475,-7.28784,9.31506,0,0,0,0,0,0,0,-1,706,1499,-7.28782,-9.315
-511,-475,-6.84851,12.4244,0,0,0,0,0,0,0,-1,713,1499,-6.84851,-12.4244
-504,-475,-8.80957,16.0863,0,0,0,0,0,0,0,-1,720,1499,-8.80954,-16.0862
-497,-475,-14.5467,23.9722,0,0,0,0,0,0,0,-1,727,1499,-14.5467,-23.9722
-490,-475,-14.3722,25.0892,0.0040184,0.00519473,0.00534722,0.00998603,-0.000772911,0.840175,0.00692938,0.0223024,734,1499,-14.3722,-25.0892
-483,-475,-14.3724,26.037,0.00310698,0.00357061,0.00391507,0.00726072,-0.000583127,0.814969,0.0050461,0.00909158,741,1499,-14.3724,-26.037
-476,-475,-14.4235,26.8812,0.00248437,0.00250376,0.00287543,0.00536951,-0.000381377,0.787084,0.00371333,0.0111534,748,1499,-14.4235,-26.8812
-469,-475,-14.4792,27.7537,0.00199827,0.00181446,0.00209462,0.004003,-0.000190272,0.763473,0.0027343,0.0150757,755,1499,-14.4792,-27.7537
-462,-475,-14.4647,28.5709,0.0017013,0.00148862,0.00157169,0.00317025,1.96726e-05,0.751619,0.00210697,0.0207944,762,1499,-14.4647,-28.5709
-455,-475,-14.5165,29.4236,0.00158207,0.00149381,0.00128312,0.00282181,0.000254063,0.768208,0.0018025,0.0175602,769,1499,-14.5165,-29.4236
-448,-475,-14.6368,30.278,0.00164762,0.00180516,0.00121599,0.00294493,0.000507855,0.817742,0.0018178,0.0147891,776,1499,-14.6368,-30.278
-441,-475,-14.7021,31.0828,0.00190572,0.00246034,0.00141238,0.00362238,0.00074368,0.882337,0.00220915,0.0168138,783,1499,-14.7021,-31.0827
-434,-475,-14.7098,31.9502,0.00238881,0.00336781,0.00184502,0.00478716,0.000969457,0.915066,0.00292239,0.0121758,790,1499,-14.7098,-31.9501
-427,-475,-14.7077,32.7987,0,0,0,0,0,0,0,-1,797,1499,-14.7077,-32.7988
-420,-475,-14.302,33.4558,0,0,0,0,0,0,0,-1,804,1499,-14.302,-33.4559
-413,-475,-6.46777,20.8481,0,0,0,0,0,0,0,-1,811,1499,-6.46776,-20.8481
-406,-475,-2.56116,12.4956,0,0,0,0,0,0,0,-1,818,1499,-2.56116,-12.4956
-399,-475,-1.39667,6.1615,0,0,0,0,0,0,0,-1,825,1499,-1.39664,-6.16155
-392,-475,0.217163,8.61389,0,0,0,0,0,0,0,-1,832,1499,0.217167,-8.6139
-385,-475,1.18372,2.73999,0,0,0,0,0,0,0,-1,839,1499,1.18372,-2.73995
-378,-475,1.31409,2.90149,0,0,0,0,0,0,0,-1,846,1499,1.31411,-2.90151
-371,-475,2.3476,3.31116,0,0,0,0,0,0,0,-1,853,1499,2.34761,-3.31121
-364,-475,1.04462,9.05823,0,0,0,0,0,0,0,-1,860,1499,1.04461,-9.05825
-357,-475,-0.262756,7.97205,0,0,0,0,0,0,0,-1,867,1499,-0.262784,-7.97205
-350,-475,-5.16473,-1.27881,0,0,0,0,0,0,0,-1,874,1499,-5.16474,1.27884
-343,-475,-5.76923,-0.530518,0,0,0,0,0,0,0,-1,881,1499,-5.76923,0.530526
-336,-475,0,0,0,0,0,0,0,0,0,-1,888,1499,0,0
-329,-475,0,0,0,0,0,0,0,0,0,-1,895,1499,0,0
-322,-475,0,0,0,0,0,0,0,0,0,-1,902,1499,0,0
-315,-475,0,0,0,0,0,0,0,0,0,-1,909,1499,0,0
-308,-475,0,0,0,0,0,0,0,0,0,-1,916,1499,0,0
-301,-475,0,0,0,0,0,0,0,0,0,-1,923,1499,0,0
-294,-475,0,0,0,0,0,0,0,0,0,-1,930,1499,0,0
-287,-475,0,0,0,0,0,0,0,0,0,-1,937,1499,0,0
-280,-475,0,0,0,0,0,0,0,0,0,-1,944,1499,0,0
-273,-475,0,0,0,0,0,0,0,0,0,-1,951,1499,0,0
-266,-475,0,0,0,0,0,0,0,0,0,-1,958,1499,0,0
-259,-475,0,0,0,0,0,0,0,0,0,-1,965,1499,0,0
-252,-475,0,0,0,0,0,0,0,0,0,-1,972,1499,0,0
-245,-475,0,0,0,0,0,0,0,0,0,-1,979,1499,0,0
-238,-475,0,0,0,0,0,0,0,0,0,-1,986,1499,0,0
-231,-475,0,0,0,0,0,0,0,0,0,-1,993,1499,0,0
-224,-475,0,0,0,0,0,0,0,0,0,-1,1000,1499,0,0
-217,-475,0,0,0,0,0,0,0,0,0,-1,1007,1499,0,0
-210,-475,0,0,0,0,0,0,0,0,0,-1,1014,1499,0,0
-203,-475,0,0,0,0,0,0,0,0,0,-1,1021,1499,0,0
-196,-475,0,0,0,0,0,0,0,0,0,-1,1028,1499,0,0
-189,-475,0,0,0,0,0,0,0,0,0,-1,1035,1499,0,0
-182,-475,0,0,0,0,0,0,0,0,0,-1,1042,1499,0,0
-175,-475,0,0,0,0,0,0,0,0,0,-1,1049,1499,0,0
-168,-475,0,0,0,0,0,0,0,0,0,-1,1056,1499,0,0
-161,-475,0,0,0,0,0,0,0,0,0,-1,1063,1499,0,0
-154,-475,0,0,0,0,0,0,0,0,0,-1,1070,1499,0,0
-147,-475,0,0,0,0,0,0,0,0,0,-1,1077,1499,0,0
-140,-475,0,0,0,0,0,0,0,0,0,-1,1084,1499,0,0
-133,-475,0,0,0,0,0,0,0,0,0,-1,1091,1499,0,0
-126,-475,0,0,0,0,0,0,0,0,0,-1,1098,1499,0,0
-119,-475,0,0,0,0,0,0,0,0,0,-1,1105,1499,0,0
-112,-475,0,0,0,0,0,0,0,0,0,-1,1112,1499,0,0
-105,-475,0,0,0,0,0,0,0,0,0,-1,1119,1499,0,0
-98,-475,0,0,0,0,0,0,0,0,0,-1,1126,1499,0,0
-91,-475,0,0,0,0,0,0,0,0,0,-1,1133,1499,0,0
-84,-475,0,0,0,0,0,0,0,0,0,-1,1140,1499,0,0
-77,-475,0,0,0,0,0,0,0,0,0,-1,1147,1499,0,0
-70,-475,0,0,0,0,0,0,0,0,0,-1,1154,1499,0,0
-63,-475,0,0,0,0,0,0,0,0,0,-1,1161,1499,0,0
-56,-475,0,0,0,0,0,0,0,0,0,-1,1168,1499,0,0
-49,-475,0,0,0,0,0,0,0,0,0,-1,1175,1499,0,0
-42,-475,0,0,0,0,0,0,0,0,0,-1,1182,1499,0,0
-35,-475,0,0,0,0,0,0,0,0,0,-1,1189,1499,0,0
-28,-475,0,0,0,0,0,0,0,0,0,-1,1196,1499,0,0
-21,-475,0,0,0,0,0,0,0,0,0,-1,1203,1499,0,0
-14,-475,0,0,0,0,0,0,0,0,0,-1,1210,1499,0,0
-7,-475,0,0,0,0,0,0,0,0,0,-1,1217,1499,0,0
0,-475,0,0,0,0,0,0,0,0,0,-1,1224,1499,0,0
7,-475,0,0,0,0,0,0,0,0,0,-1,1231,1499,0,0
14,-475,0,0,0,0,0,0,0,0,0,-1,1238,1499,0,0
21,-475,0,0,0,0,0,0,0,0,0,-1,1245,1499,0,0
28,-475,0,0,0,0,0,0,0,0,0,-1,1252,1499,0,0
35,-475,0,0,0,0,0,0,0,0,0,-1,1259,1499,0,0
42,-475,0,0,0,0,0,0,0,0,0,-1,1266,1499,0,0
49,-475,0,0,0,0,0,0,0,0,0,-1,1273,1499,0,0
56,-475,0,0,0,0,0,0,0,0,0,-1,1280,1499,0,0
63,-475,0,0,0,0,0,0,0,0,0,-1,1287,1499,0,0
70,-475,0,0,0,0,0,0,0,0,0,-1,1294,1499,0,0
77,-475,0,0,0,0,0,0,0,0,0,-1,1301,1499,0,0
84,-475,0,0,0,0,0,0,0,0,0,-1,1308,1499,0,0
91,-475,0,0,0,0,0,0,0,0,0,-1,1315,1499,0,0
98,-475,0,0,0,0,0,0,0,0,0,-1,1322,1499,0,0
105,-475,0,0,0,0,0,0,0,0,0,-1,1329,1499,0,0
112,-475,0,0,0,0,0,0,0,0,0,-1,1336,1499,0,0
119,-475,0,0,0,0,0,0,0,0,0,-1,1343,1499,0,0
126,-475,0,0,0,0,0,0,0,0,0,-1,1350,1499,0,0
133,-475,0,0,0,0,0,0,0,0,0,-1,1357,1499,0,0
140,-475,0,0,0,0,0,0,0,0,0,-1,1364,1499,0,0
147,-475,0,0,0,0,0,0,0,0,0,-1,1371,1499,0,0
154,-475,0,0,0,0,0,0,0,0,0,-1,1378,1499,0,0
161,-475,0,0,0,0,0,0,0,0,0,-1,1385,1499,0,0
168,-475,0,0,0,0,0,0,0,0,0,-1,1392,1499,0,0
175,-475,0,0,0,0,0,0,0,0,0,-1,1399,1499,0,0
182,-475,0,0,0,0,0,0,0,0,0,-1,1406,1499,0,0
189,-475,0,0,0,0,0,0,0,0,0,-1,1413,1499,0,0
196,-475,0,0,0,0,0,0,0,0,0,-1,1420,1499,0,0
203,-475,0,0,0,0,0,0,0,0,0,-1,1427,1499,0,0
210,-475,0,0,0,0,0,0,0,0,0,-1,1434,1499,0,0
217,-475,0,0,0,0,0,0,0,0,0,-1,1441,1499,0,0
224,-475,0,0,0,0,0,0,0,0,0,-1,1448,1499,0,0
231,-475,0,0,0,0,0,0,0,0,0,-1,1455,1499,0,0
238,-475,0,0,0,0,0,0,0,0,0,-1,1462,1499,0,0
245,-475,0,0,0,0,0,0,0,0,0,-1,1469,1499,0,0
252,-475,0,0,0,0,0,0,0,0,0,-1,1476,1499,0,0
259,-475,0,0,0,0,0,0,0,0,0,-1,1483,1499,0,0
266,-475,0,0,0,0,0,0,0,0,0,-1,1490,1499,0,0
273,-475,0,0,0,0,0,0,0,0,0,-1,1497,1499,0,0
280,-475,0,0,0,0,0,0,0,0,0,-1,1504,1499,0,0
287,-475,0,0,0,0,0,0,0,0,0,-1,1511,1499,0,0
294,-475,0,0,0,0,0,0,0,0,0,-1,1518,1499,0,0
301,-475,0,0,0,0,0,0,0,0,0,-1,1525,1499,0,0
308,-475,0,0,0,0,0,0,0,0,0,-1,1532,1499,0,0
315,-475,0,0,0,0,0,0,0,0,0,-1,1539,1499,0,0
322,-475,0,0,0,0,0,0,0,0,0,-1,1546,1499,0,0
329,-475,0,0,0,0,0,0,0,0,0,-1,1553,1499,0,0
336,-475,0,0,0,0,0,0,0,0,0,-1,1560,1499,0,0
343,-475,0,0,0,0,0,0,0,0,0,-1,1567,1499,0,0
350,-475,0,0,0,0,0,0,0,0,0,-1,1574,1499,0,0
357,-475,0,0,0,0,0,0,0,0,0,-1,1581,1499,0,0
364,-475,0,0,0,0,0,0,0,0,0,-1,1588,1499,0,0
371,-475,0,0,0,0,0,0,0,0,0,-1,1595,1499,0,0
378,-475,0,0,0,0,0,0,0,0,0,-1,1602,1499,0,0
385,-475,0,0,0,0,0,0,0,0,0,-1,1609,1499,0,0
392,-475,0,0,0,0,0,0,0,0,0,-1,1616,1499,0,0
399,-475,0,0,0,0,0,0,0,0,0,-1,1623,1499,0,0
406,-475,0,0,0,0,0,0,0,0,0,-1,1630,1499,0,0
413,-475,0,0,0,0,0,0,0,0,0,-1,1637,1499,0,0
420,-475,0,0,0,0,0,0,0,0,0,-1,1644,1499,0,0
427,-475,0,0,0,0,0,0,0,0,0,-1,1651,1499,0,0
434,-475,0,0,0,0,0,0,0,0,0,-1,1658,1499,0,0
441,-475,0,0,0,0,0,0,0,0,0,-1,1665,1499,0,0
448,-475,0,0,0,0,0,0,0,0,0,-1,1672,1499,0,0
455,-475,0,0,0,0,0,0,0,0,0,-1,1679,1499,0,0
462,-475,12.6372,0.275391,0,0,0,0,0,0,0,-1,1686,1499,12.6372,-0.27536
469,-475,15.6437,2.28296,0,0,0,0,0,0,0,-1,1693,1499,15.6437,-2.28293
476,-475,15.3302,2.71436,0,0,0,0,0,0,0,-1,1700,1499,15.3303,-2.7143
483,-475,10.7461,5.91479,0,0,0,0,0,0,0,-1,1707,1499,10.7461,-5.91476
490,-475,11.9305,4.4364,0,0,0,0,0,0,0,-1,1714,1499,11.9305,-4.43644
497,-475,15.3451,4.3479,0,0,0,0,0,0,0,-1,1721,1499,15.3451,-4.34789
504,-475,16.9646,7.71265,0,0,0,0,0,0,0,-1,1728,1499,16.9646,-7.71265
511,-475,18.941,12.7572,0,0,0,0,0,0,0,-1,1735,1499,18.941,-12.7572
518,-475,17.0021,13.8564,0,0,0,0,0,0,0,-1,1742,1499,17.0021,-13.8564
525,-475,17.5637,15.2103,0,0,0,0,0,0,0,-1,1749,1499,17.5637,-15.2103
532,-475,20.8623,20.8413,0,0,0,0,0,0,0,-1,1756,1499,20.8623,-20.8413
539,-475,20.5494,20.8519,0,0,0,0,0,0,0,-1,1763,1499,20.5494,-20.852
546,-475,20.4524,19.8799,0,0,0,0,0,0,0,-1,1770,1499,20.4524,-19.8798
553,-475,31.9181,33.4409,0,0,0,0,0,0,0,-1,1777,1499,31.9181,-33.4409
560,-475,32.0743,32.5179,0.010158,0.00576133,-0.00572588,0.0140931,0.00182628,-0.60211,0.00884965,0.0382137,1784,1499,32.0743,-32.5179
567,-475,32.3046,31.5182,0.0081001,0.00421361,-0.00434577,0.0109173,0.0013964,-0.575154,0.00686028,0.0173238,1791,1499,32.3046,-31.5182
574,-475,32.2388,30.6855,0.00642159,0.00304538,-0.00334112,0.00847685,0.000990121,-0.551478,0.00535181,0.0156207,1798,1499,32.2388,-30.6856
581,-475,32.191,29.8966,0.00498121,0.00213392,-0.0025049,0.00643876,0.000676371,-0.526989,0.00408575,0.012331,1805,1499,32.191,-29.8966
588,-475,32.1486,29.0708,0.00383721,0.00143015,-0.00182955,0.0048236,0.000443762,-0.494469,0.00307849,0.0107568,1812,1499,32.1485,-29.0709
595,-475,32.1108,28.2366,0.00300531,0.000829401,-0.00119775,0.00353546,0.000299254,-0.416699,0.00226382,0.0113101,1819,1499,32.1108,-28.2366
602,-475,32.0618,27.411,0.00232741,0.000343475,-0.000642304,0.0025172,0.000153683,-0.28731,0.00162932,0.0127157,1826,1499,32.0617,-27.411
609,-475,31.9958,26.573,0.00181716,-3.08816e-05,-5.60956e-05,0.00181886,-3.25827e-05,-0.0303169,0.00122358,0.0124554,1833,1499,31.9958,-26.573
616,-475,31.9418,25.7461,0.00149789,-0.000387784,0.000583784,0.00166399,-0.000553886,0.277201,0.00133289,0.0122879,1840,1499,31.9418,-25.7461
623,-475,31.9159,24.8831,0.00138699,-0.000889343,0.00137291,0.00203217,-0.00153452,0.439306,0.0020659,0.0121616,1847,1499,31.9159,-24.8831
630,-475,31.865,24.043,0.00125564,-0.00142673,0.00241428,0.00267625,-0.00284734,0.531861,0.00318956,0.0207681,1854,1499,31.8649,-24.043
637,-475,31.8303,23.292,0.00120372,-0.00199918,0.00362568,0.00356588,-0.00436134,0.577434,0.00458445,0.0398802,1861,1499,31.8304,-23.2919
644,-475,31.653,22.4224,0,0,0,0,0,0,0,-1,1868,1499,31.6529,-22.4224
651,-475,29.886,19.2421,0,0,0,0,0,0,0,-1,1875,1499,29.886,-19.242
658,-475,14.6708,8.80322,0,0,0,0,0,0,0,-1,1882,1499,14.6708,-8.8032
665,-475,9.33435,5.43335,0,0,0,0,0,0,0,-1,1889,1499,9.33439,-5.43332
672,-475,9.38635,1.10474,0,0,0,0,0,0,0,-1,1896,1499,9.38629,-1.10475
679,-475,12.2594,1.31079,0,0,0,0,0,0,0,-1,1903,1499,12.2594,-1.31077
686,-475,0,0,0,0,0,0,0,0,0,-1,1910,1499,0,0
693,-475,0,0,0,0,0,0,0,0,0,-1,1917,1499,0,0
700,-475,0,0,0,0,0,0,0,0,0,-1,1924,1499,0,0
707,-475,0,0,0,0,0,0,0,0,0,-1,1931,1499,0,0
714,-475,0,0,0,0,0,0,0,0,0,-1,1938,1499,0,0
721,-475,0,0,0,0,0,0,0,0,0,-1,1945,1499,0,0
728,-475,0,0,0,0,0,0,0,0,0,-1,1952,1499,0,0
735,-475,0,0,0,0,0,0,0,0,0,-1,1959,1499,0,0
742,-475,0,0,0,0,0,0,0,0,0,-1,1966,1499,0,0
749,-475,0,0,0,0,0,0,0,0,0,-1,1973,1499,0,0
756,-475,0,0,0,0,0,0,0,0,0,-1,1980,1499,0,0
763,-475,0,0,0,0,0,0,0,0,0,-1,1987,1499,0,0
770,-475,0,0,0,0,0,0,0,0,0,-1,1994,1499,0,0
777,-475,0,0,0,0,0,0,0,0,0,-1,2001,1499,0,0
784,-475,0,0,0,0,0,0,0,0,0,-1,2008,1499,0,0
791,-475,0,0,0,0,0,0,0,0,0,-1,2015,1499,0,0
798,-475,0,0,0,0,0,0,0,0,0,-1,2022,1499,0,0
805,-475,0,0,0,0,0,0,0,0,0,-1,2029,1499,0,0
812,-475,0,0,0,0,0,0,0,0,0,-1,2036,1499,0,0
-700,-482,0,0,0,0,0,0,0,0,0,-1,524,1506,0,0
-693,-482,0,0,0,0,0,0,0,0,0,-1,531,1506,0,0
-686,-482,0,0,0,0,0,0,0,0,0,-1,538,1506,0,0
-679,-482,0,0,0,0,0,0,0,0,0,-1,545,1506,0,0
-672,-482,0,0,0,0,0,0,0,0,0,-1,552,1506,0,0
-665,-482,0,0,0,0,0,0,0,0,0,-1,559,1506,0,0
-658,-482,0,0,0,0,0,0,0,0,0,-1,566,1506,0,0
-651,-482,0,0,0,0,0,0,0,0,0,-1,573,1506,0,0
-644,-482,0,0,0,0,0,0,0,0,0,-1,580,1506,0,0
-637,-482,0,0,0,0,0,0,0,0,0,-1,587,1506,0,0
-630,-482,0,0,0,0,0,0,0,0,0,-1,594,1506,0,0
-623,-482,0,0,0,0,0,0,0,0,0,-1,601,1506,0,0
-616,-482,0,0,0,0,0,0,0,0,0,-1,608,1506,0,0
-609,-482,0,0,0,0,0,0,0,0,0,-1,615,1506,0,0
-602,-482,0,0,0,0,0,0,0,0,0,-1,622,1506,0,0
-595,-482,0,0,0,0,0,0,0,0,0,-1,629,1506,0,0
-588,-482,0,0,0,0,0,0,0,0,0,-1,636,1506,0,0
-581,-482,0,0,0,0,0,0,0,0,0,-1,643,1506,0,0
-574,-482,0,0,0,0,0,0,0,0,0,-1,650,1506,0,0
-567,-482,0,0,0,0,0,0,0,0,0,-1,657,1506,0,0
-560,-482,0,0,0,0,0,0,0,0,0,-1,664,1506,0,0
-553,-482,-9.06055,9.34314,0,0,0,0,0,0,0,-1,671,1506,-9.06056,-9.34312
-546,-482,-4.08624,8.34241,0,0,0,0,0,0,0,-1,678,1506,-4.08624,-8.3424
-539,-482,-4.29877,2.73499,0,0,0,0,0,0,0,-1,685,1506,-4.29879,-2.73494
-532,-482,-3.63611,4.23987,0,0,0,0,0,0,0,-1,692,1506,-3.63609,-4.23983
-525,-482,-6.19116,5.24927,0,0,0,0,0,0,0,-1,699,1506,-6.19117,-5.24927
-518,-482,-5.92957,6.39807,0,0,0,0,0,0,0,-1,706,1506,-5.92958,-6.39806
-511,-482,-7.74634,11.9137,0,0,0,0,0,0,0,-1,713,1506,-7.74633,-11.9137
-504,-482,-6.42358,13.4211,0,0,0,0,0,0,0,-1,720,1506,-6.42356,-13.4212
-497,-482,-8.86163,17.7108,0,0,0,0,0,0,0,-1,727,1506,-8.86163,-17.7109
-490,-482,-13.5817,25.0437,0,0,0,0,0,0,0,-1,734,1506,-13.5817,-25.0437
-483,-482,-13.5404,26.0563,0.0035419,0.00427184,0.00466681,0.00858794,-0.000774187,0.824421,0.00600003,0.0135741,741,1506,-13.5404,-26.0562
-476,-482,-13.5688,26.9301,0.00280271,0.00300282,0.00343871,0.00634293,-0.000537397,0.799943,0.00441866,0.0105223,748,1506,-13.5688,-26.9301
-469,-482,-13.636,27.8149,0.00221592,0.0021215,0.00251558,0.00468473,-0.000347317,0.776016,0.00324513,0.0135961,755,1506,-13.636,-27.8149
-462,-482,-13.6819,28.6591,0.00182596,0.00165521,0.00187065,0.00361318,-0.000132016,0.762594,0.00245398,0.0144451,762,1506,-13.6819,-28.6591
-455,-482,-13.7321,29.4668,0.00163595,0.00153164,0.0014742,0.00305891,0.000108672,0.767716,0.00200403,0.0137098,769,1506,-13.732,-29.4668
-448,-482,-13.7961,30.3329,0.00165128,0.00170135,0.00129511,0.00297166,0.000380968,0.795061,0.00186712,0.0146636,776,1506,-13.7962,-30.3329
-441,-482,-13.8436,31.1582,0.00184665,0.00214738,0.00135362,0.00335897,0.000635064,0.840713,0.00206051,0.0136774,783,1506,-13.8436,-31.1581
-434,-482,-13.8682,32.0054,0.00223836,0.00283359,0.00161693,0.00418006,0.000891889,0.87641,0.00254211,0.016171,790,1506,-13.8682,-32.0054
-427,-482,-13.9001,32.8948,0.00287663,0.00387556,0.00211998,0.00555412,0.00119807,0.901088,0.00337503,0.0219452,797,1506,-13.9002,-32.8948
-420,-482,-13.9759,33.8046,0,0,0,0,0,0,0,-1,804,1506,-13.9759,-33.8046
-413,-482,-6.56415,22.3163,0,0,0,0,0,0,0,-1,811,1506,-6.56417,-22.3163
-406,-482,-2.51373,12.7556,0,0,0,0,0,0,0,-1,818,1506,-2.51376,-12.7556
-399,-482,-1.3822,9.22595,0,0,0,0,0,0,0,-1,825,1506,-1.38221,-9.22598
-392,-482,-1.06836,9.22729,0,0,0,0,0,0,0,-1,832,1506,-1.06835,-9.2273
-385,-482,0.0647583,8.90649,0,0,0,0,0,0,0,-1,839,1506,0.0647778,-8.90644
-378,-482,0.215698,5.96948,0,0,0,0,0,0,0,-1,846,1506,0.215681,-5.9695
-371,-482,-0.10907,8.10437,0,0,0,0,0,0,0,-1,853,1506,-0.109063,-8.10433
-364,-482,-0.154968,10.5032,0,0,0,0,0,0,0,-1,860,1506,-0.154976,-10.5032
-357,-482,2.14807,4.60144,0,0,0,0,0,0,0,-1,867,1506,2.14807,-4.60144
-350,-482,-7.5813,-1.45935,0,0,0,0,0,0,0,-1,874,1506,-7.58133,1.45937
-343,-482,-5.80902,1.81226,0,0,0,0,0,0,0,-1,881,1506,-5.80903,-1.81221
-336,-482,2.52826,-0.390503,0,0,0,0,0,0,0,-1,888,1506,2.52826,0.390456
-329,-482,0,0,0,0,0,0,0,0,0,-1,895,1506,0,0
-322,-482,0,0,0,0,0,0,0,0,0,-1,902,1506,0,0
-315,-482,0,0,0,0,0,0,0,0,0,-1,909,1506,0,0
-308,-482,0,0,0,0,0,0,0,0,0,-1,916,1506,0,0
-301,-482,0,0,0,0,0,0,0,0,0,-1,923,1506,0,0
-294,-482,0,0,0,0,0,0,0,0,0,-1,930,1506,0,0
-287,-482,0,0,0,0,0,0,0,0,0,-1,937,1506,0,0
-280,-482,0,0,0,0,0,0,0,0,0,-1,944,1506,0,0
-273,-482,0,0,0,0,0,0,0,0,0,-1,951,1506,0,0
-266,-482,0,0,0,0,0,0,0,0,0,-1,958,1506,0,0
-259,-482,0,0,0,0,0,0,0,0,0,-1,965,1506,0,0
-252,-482,0,0,0,0,0,0,0,0,0,-1,972,1506,0,0
-245,-482,0,0,0,0,0,0,0,0,0,-1,979,1506,0,0
-238,-482,0,0,0,0,0,0,0,0,0,-1,986,1506,0,0
-231,-482,0,0,0,0,0,0,0,0,0,-1,993,1506,0,0
-224,-482,0,0,0,0,0,0,0,0,0,-1,1000,1506,0,0
-217,-482,0,0,0,0,0,0,0,0,0,-1,1007,1506,0,0
-210,-482,0,0,0,0,0,0,0,0,0,-1,1014,1506,0,0
-203,-482,0,0,0,0,0,0,0,0,0,-1,1021,1506,0,0
-196,-482,0,0,0,0,0,0,0,0,0,-1,1028,1506,0,0
-189,-482,0,0,0,0,0,0,0,0,0,-1,1035,1506,0,0
-182,-482,0,0,0,0,0,0,0,0,0,-1,1042,1506,0,0
-175,-482,0,0,0,0,0,0,0,0,0,-1,1049,1506,0,0
-168,-482,0,0,0,0,0,0,0,0,0,-1,1056,1506,0,0
-161,-482,0,0,0,0,0,0,0,0,0,-1,1063,1506,0,0
-154,-482,0,0,0,0,0,0,0,0,0,-1,1070,1506,0,0
-147,-482,0,0,0,0,0,0,0,0,0,-1,1077,1506,0,0
-140,-482,0,0,0,0,0,0,0,0,0,-1,1084,1506,0,0
-133,-482,0,0,0,0,0,0,0,0,0,-1,1091,1506,0,0
-126,-482,0,0,0,0,0,0,0,0,0,-1,1098,1506,0,0
-119,-482,0,0,0,0,0,0,0,0,0,-1,1105,1506,0,0
-112,-482,0,0,0,0,0,0,0,0,0,-1,1112,1506,0,0
-105,-482,0,0,0,0,0,0,0,0,0,-1,1119,1506,0,0
-98,-482,0,0,0,0,0,0,0,0,0,-1,1126,1506,0,0
-91,-482,0,0,0,0,0,0,0,0,0,-1,1133,1506,0,0
-84,-482,0,0,0,0,0,0,0,0,0,-1,1140,1506,0,0
-77,-482,0,0,0,0,0,0,0,0,0,-1,1147,1506,0,0
-70,-482,0,0,0,0,0,0,0,0,0,-1,1154,1506,0,0
-63,-482,0,0,0,0,0,0,0,0,0,-1,1161,1506,0,0
-56,-482,0,0,0,0,0,0,0,0,0,-1,1168,1506,0,0
-49,-482,0,0,0,0,0,0,0,0,0,-1,1175,1506,0,0
-42,-482,0,0,0,0,0,0,0,0,0,-1,1182,1506,0,0
-35,-482,0,0,0,0,0,0,0,0,0,-1,1189,1506,0,0
-28,-482,0,0,0,0,0,0,0,0,0,-1,1196,1506,0,0
-21,-482,0,0,0,0,0,0,0,0,0,-1,1203,1506,0,0
-14,-482,0,0,0,0,0,0,0,0,0,-1,1210,1506,0,0
-7,-482,0,0,0,0,0,0,0,0,0,-1,1217,1506,0,0
0,-482,0,0,0,0,0,0,0,0,0,-1,1224,1506,0,0
7,-482,0,0,0,0,0,0,0,0,0,-1,1231,1506,0,0
14,-482,0,0,0,0,0,0,0,0,0,-1,1238,1506,0,0
21,-482,0,0,0,0,0,0,0,0,0,-1,1245,1506,0,0
28,-482,0,0,0,0,0,0,0,0,0,-1,1252,1506,0,0
35,-482,0,0,0,0,0,0,0,0,0,-1,1259,1506,0,0
42,-482,0,0,0,0,0,0,0,0,0,-1,1266,1506,0,0
49,-482,0,0,0,0,0,0,0,0,0,-1,1273,1506,0,0
56,-482,0,0,0,0,0,0,0,0,0,-1,1280,1506,0,0
63,-482,0,0,0,0,0,0,0,0,0,-1,1287,1506,0,0
70,-482,0,0,0,0,0,0,0,0,0,-1,1294,1506,0,0
77,-482,0,0,0,0,0,0,0,0,0,-1,1301,1506,0,0
84,-482,0,0,0,0,0,0,0,0,0,-1,1308,1506,0,0
91,-482,0,0,0,0,0,0,0,0,0,-1,1315,1506,0,0
98,-482,0,0,0,0,0,0,0,0,0,-1,1322,1506,0,0
105,-482,0,0,0,0,0,0,0,0,0,-1,1329,1506,0,0
112,-482,0,0,0,0,0,0,0,0,0,-1,1336,1506,0,0
119,-482,0,0,0,0,0,0,0,0,0,-1,1343,1506,0,0
126,-482,0,0,0,0,0,0,0,0,0,-1,1350,1506,0,0
133,-482,0,0,0,0,0,0,0,0,0,-1,1357,1506,0,0
140,-482,0,0,0,0,0,0,0,0,0,-1,1364,1506,0,0
147,-482,0,0,0,0,0,0,0,0,0,-1,1371,1506,0,0
154,-482,0,0,0,0,0,0,0,0,0,-1,1378,1506,0,0
161,-482,0,0,0,0,0,0,0,0,0,-1,1385,1506,0,0
168,-482,0,0,0,0,0,0,0,0,0,-1,1392,1506,0,0
175,-482,0,0,0,0,0,0,0,0,0,-1,1399,1506,0,0
182,-482,0,0,0,0,0,0,0,0,0,-1,1406,1506,0,0
189,-482,0,0,0,0,0,0,0,0,0,-1,1413,1506,0,0
196,-482,0,0,0,0,0,0,0,0,0,-1,1420,1506,0,0
203,-482,0,0,0,0,0,0,0,0,0,-1,1427,1506,0,0
210,-482,0,0,0,0,0,0,0,0,0,-1,1434,1506,0,0
217,-482,0,0,0,0,0,0,0,0,0,-1,1441,1506,0,0
224,-482,0,0,0,0,0,0,0,0,0,-1,1448,1506,0,0
231,-482,0,0,0,0,0,0,0,0,0,-1,1455,1506,0,0
238,-482,0,0,0,0,0,0,0,0,0,-1,1462,1506,0,0
245,-482,0,0,0,0,0,0,0,0,0,-1,1469,1506,0,0
252,-482,0,0,0,0,0,0,0,0,0,-1,1476,1506,0,0
259,-482,0,0,0,0,0,0,0,0,0,-1,1483,1506,0,0
266,-482,0,0,0,0,0,0,0,0,0,-1,1490,1506,0,0
273,-482,0,0,0,0,0,0,0,0,0,-1,1497,1506,0,0
280,-482,0,0,0,0,0,0,0,0,0,-1,1504,1506,0,0
287,-482,0,0,0,0,0,0,0,0,0,-1,1511,1506,0,0
294,-482,0,0,0,0,0,0,0,0,0,-1,1518,1506,0,0
301,-482,0,0,0,0,0,0,0,0,0,-1,1525,1506,0,0
308,-482,0,0,0,0,0,0,0,0,0,-1,1532,1506,0,0
315,-482,0,0,0,0,0,0,0,0,0,-1,1539,1506,0,0
322,-482,0,0,0,0,0,0,0,0,0,-1,1546,1506,0,0
329,-482,0,0,0,0,0,0,0,0,0,-1,1553,1506,0,0
336,-482,0,0,0,0,0,0,0,0,0,-1,1560,1506,0,0
343,-482,0,0,0,0,0,0,0,0,0,-1,1567,1506,0,0
350,-482,0,0,0,0,0,0,0,0,0,-1,1574,1506,0,0
357,-482,0,0,0,0,0,0,0,0,0,-1,1581,1506,0,0
364,-482,0,0,0,0,0,0,0,0,0,-1,1588,1506,0,0
371,-482,0,0,0,0,0,0,0,0,0,-1,1595,1506,0,0
378,-482,0,0,0,0,0,0,0,0,0,-1,1602,1506,0,0
385,-482,0,0,0,0,0,0,0,0,0,-1,1609,1506,0,0
392,-482,0,0,0,0,0,0,0,0,0,-1,1616,1506,0,0
399,-482,0,0,0,0,0,0,0,0,0,-1,1623,1506,0,0
406,-482,0,0,0,0,0,0,0,0,0,-1,1630,1506,0,0
413,-482,0,0,0,0,0,0,0,0,0,-1,1637,1506,0,0
420,-482,0,0,0,0,0,0,0,0,0,-1,1644,1506,0,0
427,-482,0,0,0,0,0,0,0,0,0,-1,1651,1506,0,0
434,-482,0,0,0,0,0,0,0,0,0,-1,1658,1506,0,0
441,-482,0,0,0,0,0,0,0,0,0,-1,1665,1506,0,0
448,-482,4.24146,1.55383,0,0,0,0,0,0,0,-1,1672,1506,4.24149,-1.55381
455,-482,12.4122,1.09729,0,0,0,0,0,0,0,-1,1679,1506,12.4122,-1.09734
462,-482,15.0673,3.13135,0,0,0,0,0,0,0,-1,1686,1506,15.0672,-3.13134
469,-482,15.3793,3.46301,0,0,0,0,0,0,0,-1,1693,1506,15.3793,-3.46307
476,-482,8.69751,9.18738,0,0,0,0,0,0,0,-1,1700,1506,8.69753,-9.18739
483,-482,10.0902,7.17432,0,0,0,0,0,0,0,-1,1707,1506,10.0902,-7.1743
490,-482,11.6289,5.4928,0,0,0,0,0,0,0,-1,1714,1506,11.6289,-5.49283
497,-482,15.9539,7.40222,0,0,0,0,0,0,0,-1,1721,1506,15.9538,-7.40219
504,-482,20.4233,12.006,0,0,0,0,0,0,0,-1,1728,1506,20.4233,-12.006
511,-482,18.4937,12.9175,0,0,0,0,0,0,0,-1,1735,1506,18.4936,-12.9174
518,-482,16.6002,13.9679,0,0,0,0,0,0,0,-1,1742,1506,16.6003,-13.9679
525,-482,18.495,15.9618,0,0,0,0,0,0,0,-1,1749,1506,18.495,-15.9618
532,-482,19.9375,21.0775,0,0,0,0,0,0,0,-1,1756,1506,19.9375,-21.0775
539,-482,20.2291,20.5577,0,0,0,0,0,0,0,-1,1763,1506,20.2291,-20.5578
546,-482,31.4343,34.4468,0,0,0,0,0,0,0,-1,1770,1506,31.4343,-34.4468
553,-482,31.2721,33.3453,0,0,0,0,0,0,0,-1,1777,1506,31.2721,-33.3454
560,-482,31.3839,32.4209,0.00849906,0.00521258,-0.00497116,0.0120915,0.00162011,-0.625774,0.00757893,0.0184567,1784,1506,31.384,-32.4209
567,-482,31.4849,31.5424,0.00681608,0.00378571,-0.00377227,0.00936608,0.0012357,-0.594428,0.00587563,0.016223,1791,1506,31.4848,-31.5423
574,-482,31.4222,30.7466,0.00544589,0.00269178,-0.00288366,0.00726443,0.000873249,-0.56264,0.00457971,0.0150312,1798,1506,31.4223,-30.7466
581,-482,31.3608,29.933,0.00425124,0.00184271,-0.00213196,0.00549555,0.000598401,-0.528307,0.00348142,0.0104865,1805,1506,31.3608,-29.933
588,-482,31.3148,29.0869,0.00331982,0.00117332,-0.0015317,0.00411686,0.000376282,-0.479803,0.00262814,0.0110859,1812,1506,31.3149,-29.087
595,-482,31.2856,28.2598,0.00265847,0.000620933,-0.000960909,0.00304015,0.000239262,-0.378089,0.0019519,0.0166556,1819,1506,31.2856,-28.2597
602,-482,31.2522,27.4552,0.00211652,0.000209869,-0.000479209,0.00223019,9.62035e-05,-0.232891,0.00145578,0.0209498,1826,1506,31.2522,-27.4552
609,-482,31.202,26.6498,0.00169853,-0.000110807,5.43668e-05,0.00170016,-0.00011244,0.0300119,0.00117272,0.0171667,1833,1506,31.202,-26.6498
616,-482,31.1213,25.7971,0.00153543,-0.000388043,0.000639276,0.00172852,-0.000581127,0.293323,0.00138724,0.0128048,1840,1506,31.1213,-25.7972
623,-482,31.0481,24.9542,0.0015025,-0.000900503,0.0014874,0.00221305,-0.00161106,0.445662,0.00221695,0.0225804,1847,1506,31.0481,-24.9542
630,-482,30.9568,24.1071,0.00127107,-0.0014373,0.00269364,0.00293177,-0.003098,0.552482,0.00348173,0.049161,1854,1506,30.9567,-24.1071
637,-482,31.056,23.1754,0,0,0,0,0,0,0,-1,1861,1506,31.0561,-23.1755
644,-482,29.0146,20.1443,0,0,0,0,0,0,0,-1,1868,1506,29.0147,-20.1442
651,-482,4.03845,7.05273,0,0,0,0,0,0,0,-1,1875,1506,4.03843,-7.05279
658,-482,10.0278,5.87903,0,0,0,0,0,0,0,-1,1882,1506,10.0279,-5.87902
665,-482,8.15198,3.22229,0,0,0,0,0,0,0,-1,1889,1506,8.15199,-3.22232
672,-482,9.87415,1.3147,0,0,0,0,0,0,0,-1,1896,1506,9.87416,-1.31473
679,-482,0,0,0,0,0,0,0,0,0,-1,1903,1506,0,0
686,-482,0,0,0,0,0,0,0,0,0,-1,1910,1506,0,0
693,-482,0,0,0,0,0,0,0,0,0,-1,1917,1506,0,0
700,-482,0,0,0,0,0,0,0,0,0,-1,1924,1506,0,0
707,-482,0,0,0,0,0,0,0,0,0,-1,1931,1506,0,0
714,-482,0,0,0,0,0,0,0,0,0,-1,1938,1506,0,0
721,-482,0,0,0,0,0,0,0,0,0,-1,1945,1506,0,0
728,-482,0,0,0,0,0,0,0,0,0,-1,1952,1506,0,0
735,-482,0,0,0,0,0,0,0,0,0,-1,1959,1506,0,0
742,-482,0,0,0,0,0,0,0,0,0,-1,1966,1506,0,0
749,-482,0,0,0,0,0,0,0,0,0,-1,1973,1506,0,0
756,-482,0,0,0,0,0,0,0,0,0,-1,1980,1506,0,0
763,-482,0,0,0,0,0,0,0,0,0,-1,1987,1506,0,0
770,-482,0,0,0,0,0,0,0,0,0,-1,1994,1506,0,0
777,-482,0,0,0,0,0,0,0,0,0,-1,2001,1506,0,0
784,-482,0,0,0,0,0,0,0,0,0,-1,2008,1506,0,0
791,-482,0,0,0,0,0,0,0,0,0,-1,2015,1506,0,0
798,-482,0,0,0,0,0,0,0,0,0,-1,2022,1506,0,0
805,-482,0,0,0,0,0,0,0,0,0,-1,2029,1506,0,0
812,-482,0,0,0,0,0,0,0,0,0,-1,2036,1506,0,0
-700,-489,0,0,0,0,0,0,0,0,0,-1,524,1513,0,0
-693,-489,0,0,0,0,0,0,0,0,0,-1,531,1513,0,0
-686,-489,0,0,0,0,0,0,0,0,0,-1,538,1513,0,0
-679,-489,0,0,0,0,0,0,0,0,0,-1,545,1513,0,0
-672,-489,0,0,0,0,0,0,0,0,0,-1,552,1513,0,0
-665,-489,0,0,0,0,0,0,0,0,0,-1,559,1513,0,0
-658,-489,0,0,0,0,0,0,0,0,0,-1,566,1513,0,0
-651,-489,0,0,0,0,0,0,0,0,0,-1,573,1513,0,0
-644,-489,0,0,0,0,0,0,0,0,0,-1,580,1513,0,0
-637,-489,0,0,0,0,0,0,0,0,0,-1,587,1513,0,0
-630,-489,0,0,0,0,0,0,0,0,0,-1,594,1513,0,0
-623,-489,0,0,0,0,0,0,0,0,0,-1,601,1513,0,0
-616,-489,0,0,0,0,0,0,0,0,0,-1,608,1513,0,0
-609,-489,0,0,0,0,0,0,0,0,0,-1,615,1513,0,0
-602,-489,0,0,0,0,0,0,0,0,0,-1,622,1513,0,0
-595,-489,0,0,0,0,0,0,0,0,0,-1,629,1513,0,0
-588,-489,0,0,0,0,0,0,0,0,0,-1,636,1513,0,0
-581,-489,0,0,0,0,0,0,0,0,0,-1,643,1513,0,0
-574,-489,0,0,0,0,0,0,0,0,0,-1,650,1513,0,0
-567,-489,0,0,0,0,0,0,0,0,0,-1,657,1513,0,0
-560,-489,0,0,0,0,0,0,0,0,0,-1,664,1513,0,0
-553,-489,-9.42206,8.5116,0,0,0,0,0,0,0,-1,671,1513,-9.42205,-8.51158
-546,-489,-7.80951,8.18506,0,0,0,0,0,0,0,-1,678,1513,-7.8095,-8.18503
-539,-489,-3.06879,2.82349,0,0,0,0,0,0,0,-1,685,1513,-3.06881,-2.82354
-532,-489,-3.14215,2.5835,0,0,0,0,0,0,0,-1,692,1513,-3.14213,-2.58353
-525,-489,-2.604,4.06274,0,0,0,0,0,0,0,-1,699,1513,-2.60399,-4.06274
-518,-489,-5.43774,7.48059,0,0,0,0,0,0,0,-1,706,1513,-5.43777,-7.48058
-511,-489,-7.52856,10.951,0,0,0,0,0,0,0,-1,713,1513,-7.52857,-10.951
-504,-489,-7.17352,12.8508,0,0,0,0,0,0,0,-1,720,1513,-7.17352,-12.8508
-497,-489,-5.51678,14.9254,0,0,0,0,0,0,0,-1,727,1513,-5.51681,-14.9254
-490,-489,-12.8575,24.8945,0,0,0,0,0,0,0,-1,734,1513,-12.8575,-24.8945
-483,-489,-12.757,25.8945,0.00416469,0.00497786,0.00553223,0.0101184,-0.000975881,0.822079,0.00709333,0.0407053,741,1513,-12.7569,-25.8945
-476,-489,-12.7529,26.933,0.00326254,0.00345862,0.00407033,0.00743209,-0.000710926,0.797439,0.0052079,0.0116811,748,1513,-12.7529,-26.933
-469,-489,-12.7863,27.8239,0.00252381,0.0023344,0.00296275,0.00539337,-0.000535157,0.769421,0.00378659,0.0112093,755,1513,-12.7863,-27.8239
-462,-489,-12.8481,28.6963,0.00199352,0.00173173,0.00216759,0.00403416,-0.000308917,0.755241,0.0027981,0.0164766,762,1513,-12.8481,-28.6963
-455,-489,-12.9097,29.5594,0.00169544,0.00149055,0.00164931,0.00324548,-5.94964e-05,0.754382,0.00218376,0.0209229,769,1513,-12.9097,-29.5595
-448,-489,-12.9687,30.3754,0.00161181,0.00153874,0.00135117,0.00292694,0.000223607,0.77188,0.00188119,0.0183839,776,1513,-12.9687,-30.3754
-441,-489,-12.9926,31.2209,0.00169505,0.00183172,0.00127358,0.00303879,0.000487976,0.812201,0.00188438,0.0158563,783,1513,-12.9926,-31.221
-434,-489,-13.0522,32.0657,0.00194995,0.00236223,0.00138027,0.00355167,0.00076052,0.859524,0.00215938,0.0190434,790,1513,-13.0522,-32.0656
-427,-489,-13.1043,32.9048,0.00240038,0.00311292,0.00165532,0.00444987,0.00106342,0.891396,0.00268329,0.0207743,797,1513,-13.1043,-32.9048
-420,-489,-13.1679,33.9001,0.00306959,0.00393988,0.00209207,0.00564158,0.0013679,0.887935,0.00339814,0.0288221,804,1513,-13.1679,-33.9001
-413,-489,-13.1802,35.0034,0,0,0,0,0,0,0,-1,811,1513,-13.1803,-35.0034
-406,-489,-3.10559,15.8143,0,0,0,0,0,0,0,-1,818,1513,-3.10556,-15.8143
-399,-489,-1.41241,9.10718,0,0,0,0,0,0,0,-1,825,1513,-1.41244,-9.10722
-392,-489,-1.0368,9.30469,0,0,0,0,0,0,0,-1,832,1513,-1.03682,-9.30466
-385,-489,-1.75165,10.6559,0,0,0,0,0,0,0,-1,839,1513,-1.75165,-10.6559
-378,-489,-0.401428,9.87048,0,0,0,0,0,0,0,-1,846,1513,-0.401415,-9.87047
-371,-489,-1.11633,10.6606,0,0,0,0,0,0,0,-1,853,1513,-1.11633,-10.6606
-364,-489,-0.503113,8.98486,0,0,0,0,0,0,0,-1,860,1513,-0.503097,-8.98482
-357,-489,-0.609924,10.9606,0,0,0,0,0,0,0,-1,867,1513,-0.609947,-10.9605
-350,-489,-7.94659,-0.358887,0,0,0,0,0,0,0,-1,874,1513,-7.94657,0.358912
-343,-489,-7.49323,-0.437866,0,0,0,0,0,0,0,-1,881,1513,-7.49322,0.437823
-336,-489,-7.02332,-0.53125,0,0,0,0,0,0,0,-1,888,1513,-7.0233,0.531295
-329,-489,-13.2786,4.96082,0,0,0,0,0,0,0,-1,895,1513,-13.2785,-4.96077
-322,-489,0,0,0,0,0,0,0,0,0,-1,902,1513,0,0
-315,-489,0,0,0,0,0,0,0,0,0,-1,909,1513,0,0
-308,-489,0,0,0,0,0,0,0,0,0,-1,916,1513,0,0
-301,-489,0,0,0,0,0,0,0,0,0,-1,923,1513,0,0
-294,-489,0,0,0,0,0,0,0,0,0,-1,930,1513,0,0
-287,-489,0,0,0,0,0,0,0,0,0,-1,937,1513,0,0
-280,-489,0,0,0,0,0,0,0,0,0,-1,944,1513,0,0
-273,-489,0,0,0,0,0,0,0,0,0,-1,951,1513,0,0
-266,-489,0,0,0,0,0,0,0,0,0,-1,958,1513,0,0
-259,-489,0,0,0,0,0,0,0,0,0,-1,965,1513,0,0
-252,-489,0,0,0,0,0,0,0,0,0,-1,972,1513,0,0
-245,-489,0,0,0,0,0,0,0,0,0,-1,979,1513,0,0
-238,-489,0,0,0,0,0,0,0,0,0,-1,986,1513,0,0
-231,-489,0,0,0,0,0,0,0,0,0,-1,993,1513,0,0
-224,-489,0,0,0,0,0,0,0,0,0,-1,1000,1513,0,0
-217,-489,0,0,0,0,0,0,0,0,0,-1,1007,1513,0,0
-210,-489,0,0,0,0,0,0,0,0,0,-1,1014,1513,0,0
-203,-489,0,0,0,0,0,0,0,0,0,-1,1021,1513,0,0
-196,-489,0,0,0,0,0,0,0,0,0,-1,1028,1513,0,0
-189,-489,0,0,0,0,0,0,0,0,0,-1,1035,1513,0,0
-182,-489,0,0,0,0,0,0,0,0,0,-1,1042,1513,0,0
-175,-489,0,0,0,0,0,0,0,0,0,-1,1049,1513,0,0
-168,-489,0,0,0,0,0,0,0,0,0,-1,1056,1513,0,0
-161,-489,0,0,0,0,0,0,0,0,0,-1,1063,1513,0,0
-154,-489,0,0,0,0,0,0,0,0,0,-1,1070,1513,0,0
-147,-489,0,0,0,0,0,0,0,0,0,-1,1077,1513,0,0
-140,-489,0,0,0,0,0,0,0,0,0,-1,1084,1513,0,0
-133,-489,0,0,0,0,0,0,0,0,0,-1,1091,1513,0,0
-126,-489,0,0,0,0,0,0,0,0,0,-1,1098,1513,0,0
-119,-489,0,0,0,0,0,0,0,0,0,-1,1105,1513,0,0
-112,-489,0,0,0,0,0,0,0,0,0,-1,1112,1513,0,0
-105,-489,0,0,0,0,0,0,0,0,0,-1,1119,1513,0,0
-98,-489,0,0,0,0,0,0,0,0,0,-1,1126,1513,0,0
-91,-489,0,0,0,0,0,0,0,0,0,-1,1133,1513,0,0
-84,-489,0,0,0,0,0,0,0,0,0,-1,1140,1513,0,0
-77,-489,0,0,0,0,0,0,0,0,0,-1,1147,1513,0,0
-70,-489,0,0,0,0,0,0,0,0,0,-1,1154,1513,0,0
-63,-489,0,0,0,0,0,0,0,0,0,-1,1161,1513,0,0
-56,-489,0,0,0,0,0,0,0,0,0,-1,1168,1513,0,0
-49,-489,0,0,0,0,0,0,0,0,0,-1,1175,1513,0,0
-42,-489,0,0,0,0,0,0,0,0,0,-1,1182,1513,0,0
-35,-489,0,0,0,0,0,0,0,0,0,-1,1189,1513,0,0
-28,-489,0,0,0,0,0,0,0,0,0,-1,1196,1513,0,0
-21,-489,0,0,0,0,0,0,0,0,0,-1,1203,1513,0,0
-14,-489,0,0,0,0,0,0,0,0,0,-1,1210,1513,0,0
-7,-489,0,0,0,0,0,0,0,0,0,-1,1217,1513,0,0
0,-489,0,0,0,0,0,0,0,0,0,-1,1224,1513,0,0
7,-489,0,0,0,0,0,0,0,0,0,-1,1231,1513,0,0
14,-489,0,0,0,0,0,0,0,0,0,-1,1238,1513,0,0
21,-489,0,0,0,0,0,0,0,0,0,-1,1245,1513,0,0
28,-489,0,0,0,0,0,0,0,0,0,-1,1252,1513,0,0
35,-489,0,0,0,0,0,0,0,0,0,-1,1259,1513,0,0
42,-489,0,0,0,0,0,0,0,0,0,-1,1266,1513,0,0
49,-489,0,0,0,0,0,0,0,0,0,-1,1273,1513,0,0
56,-489,0,0,0,0,0,0,0,0,0,-1,1280,1513,0,0
63,-489,0,0,0,0,0,0,0,0,0,-1,1287,1513,0,0
70,-489,0,0,0,0,0,0,0,0,0,-1,1294,1513,0,0
77,-489,0,0,0,0,0,0,0,0,0,-1,1301,1513,0,0
84,-489,0,0,0,0,0,0,0,0,0,-1,1308,1513,0,0
91,-489,0,0,0,0,0,0,0,0,0,-1,1315,1513,0,0
98,-489,0,0,0,0,0,0,0,0,0,-1,1322,1513,0,0
105,-489,0,0,0,0,0,0,0,0,0,-1,1329,1513,0,0
112,-489,0,0,0,0,0,0,0,0,0,-1,1336,1513,0,0
119,-489,0,0,0,0,0,0,0,0,0,-1,1343,1513,0,0
126,-489,0,0,0,0,0,0,0,0,0,-1,1350,1513,0,0
133,-489,0,0,0,0,0,0,0,0,0,-1,1357,1513,0,0
140,-489,0,0,0,0,0,0,0,0,0,-1,1364,1513,0,0
147,-489,0,0,0,0,0,0,0,0,0,-1,1371,1513,0,0
154,-489,0,0,0,0,0,0,0,0,0,-1,1378,1513,0,0
161,-489,0,0,0,0,0,0,0,0,0,-1,1385,1513,0,0
168,-489,0,0,0,0,0,0,0,0,0,-1,1392,1513,0,0
175,-489,0,0,0,0,0,0,0,0,0,-1,1399,1513,0,0
182,-489,0,0,0,0,0,0,0,0,0,-1,1406,1513,0,0
189,-489,0,0,0,0,0,0,0,0,0,-1,1413,1513,0,0
196,-489,0,0,0,0,0,0,0,0,0,-1,1420,1513,0,0
203,-489,0,0,0,0,0,0,0,0,0,-1,1427,1513,0,0
210,-489,0,0,0,0,0,0,0,0,0,-1,1434,1513,0,0
217,-489,0,0,0,0,0,0,0,0,0,-1,1441,1513,0,0
224,-489,0,0,0,0,0,0,0,0,0,-1,1448,1513,0,0
231,-489,0,0,0,0,0,0,0,0,0,-1,1455,1513,0,0
238,-489,0,0,0,0,0,0,0,0,0,-1,1462,1513,0,0
245,-489,0,0,0,0,0,0,0,0,0,-1,1469,1513,0,0
252,-489,0,0,0,0,0,0,0,0,0,-1,1476,1513,0,0
259,-489,0,0,0,0,0,0,0,0,0,-1,1483,1513,0,0
266,-489,0,0,0,0,0,0,0,0,0,-1,1490,1513,0,0
273,-489,0,0,0,0,0,0,0,0,0,-1,1497,1513,0,0
280,-489,0,0,0,0,0,0,0,0,0,-1,1504,1513,0,0
287,-489,0,0,0,0,0,0,0,0,0,-1,1511,1513,0,0
294,-489,0,0,0,0,0,0,0,0,0,-1,1518,1513,0,0
301,-489,0,0,0,0,0,0,0,0,0,-1,1525,1513,0,0
308,-489,0,0,0,0,0,0,0,0,0,-1,1532,1513,0,0
315,-489,0,0,0,0,0,0,0,0,0,-1,1539,1513,0,0
322,-489,0,0,0,0,0,0,0,0,0,-1,1546,1513,0,0
329,-489,0,0,0,0,0,0,0,0,0,-1,1553,1513,0,0
336,-489,0,0,0,0,0,0,0,0,0,-1,1560,1513,0,0
343,-489,0,0,0,0,0,0,0,0,0,-1,1567,1513,0,0
350,-489,0,0,0,0,0,0,0,0,0,-1,1574,1513,0,0
357,-489,0,0,0,0,0,0,0,0,0,-1,1581,1513,0,0
364,-489,0,0,0,0,0,0,0,0,0,-1,1588,1513,0,0
371,-489,0,0,0,0,0,0,0,0,0,-1,1595,1513,0,0
378,-489,0,0,0,0,0,0,0,0,0,-1,1602,1513,0,0
385,-489,0,0,0,0,0,0,0,0,0,-1,1609,1513,0,0
392,-489,0,0,0,0,0,0,0,0,0,-1,1616,1513,0,0
399,-489,0,0,0,0,0,0,0,0,0,-1,1623,1513,0,0
406,-489,0,0,0,0,0,0,0,0,0,-1,1630,1513,0,0
413,-489,0,0,0,0,0,0,0,0,0,-1,1637,1513,0,0
420,-489,0,0,0,0,0,0,0,0,0,-1,1644,1513,0,0
427,-489,0,0,0,0,0,0,0,0,0,-1,1651,1513,0,0
434,-489,0,0,0,0,0,0,0,0,0,-1,1658,1513,0,0
441,-489,11.4602,2.56787,0,0,0,0,0,0,0,-1,1665,1513,11.4602,-2.56786
448,-489,12.4425,1.72351,0,0,0,0,0,0,0,-1,1672,1513,12.4425,-1.72349
455,-489,12.5575,1.37463,0,0,0,0,0,0,0,-1,1679,1513,12.5575,-1.37469
462,-489,14.9784,3.84888,0,0,0,0,0,0,0,-1,1686,1513,14.9784,-3.84892
469,-489,15.1367,4.53101,0,0,0,0,0,0,0,-1,1693,1513,15.1368,-4.531
476,-489,15.5536,5.09338,0,0,0,0,0,0,0,-1,1700,1513,15.5536,-5.09339
483,-489,8.96912,8.37805,0,0,0,0,0,0,0,-1,1707,1513,8.96909,-8.37809
490,-489,10.5366,7.49561,0,0,0,0,0,0,0,-1,1714,1513,10.5367,-7.49558
497,-489,14.6051,11.8397,0,0,0,0,0,0,0,-1,1721,1513,14.6051,-11.8397
504,-489,16.7527,14.1735,0,0,0,0,0,0,0,-1,1728,1513,16.7527,-14.1735
511,-489,17.83,17.7993,0,0,0,0,0,0,0,-1,1735,1513,17.83,-17.7993
518,-489,16.4751,14.3682,0,0,0,0,0,0,0,-1,1742,1513,16.4751,-14.3682
525,-489,17.2606,17.4949,0,0,0,0,0,0,0,-1,1749,1513,17.2606,-17.4949
532,-489,19.397,21.0182,0,0,0,0,0,0,0,-1,1756,1513,19.397,-21.0182
539,-489,30.524,35.4296,0,0,0,0,0,0,0,-1,1763,1513,30.524,-35.4296
546,-489,30.7014,34.3516,0.0109833,0.00838263,-0.00739684,0.0171932,0.00217271,-0.698389,0.010811,0.0442913,1770,1513,30.7014,-34.3516
553,-489,30.646,33.3445,0.00886675,0.00632841,-0.0056466,0.0133851,0.0018101,-0.674852,0.00838539,0.0246429,1777,1513,30.646,-33.3444
560,-489,30.641,32.4523,0.00712221,0.00464045,-0.00425437,0.010313,0.00144968,-0.643499,0.00644665,0.0140982,1784,1513,30.641,-32.4522
567,-489,30.6582,31.6165,0.00569646,0.00332966,-0.00321804,0.00794179,0.00108433,-0.609204,0.00497265,0.0160169,1791,1513,30.6582,-31.6165
574,-489,30.5862,30.8201,0.00454328,0.00230644,-0.00243864,0.00610774,0.000741978,-0.570397,0.00384842,0.0160617,1798,1513,30.5861,-30.82
581,-489,30.5562,29.9772,0.00354125,0.00151507,-0.00177783,0.00457439,0.00048194,-0.526421,0.00290231,0.0113958,1805,1513,30.5561,-29.9772
588,-489,30.5149,29.1383,0.00279354,0.000891232,-0.00126836,0.00342776,0.000257008,-0.463677,0.0022045,0.0143591,1812,1513,30.5149,-29.1383
595,-489,30.4615,28.3528,0.0022918,0.000410201,-0.0007831,0.00257507,0.00012693,-0.347087,0.00167601,0.0206806,1819,1513,30.4615,-28.3528
602,-489,30.421,27.5354,0.00191148,0.000105487,-0.00039842,0.00199547,2.14974e-05,-0.207764,0.00132321,0.0255254,1826,1513,30.421,-27.5354
609,-489,30.3746,26.7169,0.00163065,-0.000135321,3.73184e-05,0.00163144,-0.000136109,0.0211194,0.00113572,0.0182902,1833,1513,30.3746,-26.7169
616,-489,30.343,25.8317,0.00170615,-0.000298421,0.000500445,0.00182414,-0.000416413,0.231545,0.00137606,0.0226352,1840,1513,30.343,-25.8316
623,-489,30.4044,24.957,0,0,0,0,0,0,0,-1,1847,1513,30.4044,-24.957
630,-489,30.3123,23.9675,0,0,0,0,0,0,0,-1,1854,1513,30.3123,-23.9676
637,-489,17.2048,11.8091,0,0,0,0,0,0,0,-1,1861,1513,17.2048,-11.8091
644,-489,9.67578,8.45874,0,0,0,0,0,0,0,-1,1868,1513,9.67576,-8.45879
651,-489,6.13818,6.85095,0,0,0,0,0,0,0,-1,1875,1513,6.13823,-6.85097
658,-489,5.43848,7.75513,0,0,0,0,0,0,0,-1,1882,1513,5.43844,-7.75509
665,-489,5.48438,8.59912,0,0,0,0,0,0,0,-1,1889,1513,5.48434,-8.59907
672,-489,0,0,0,0,0,0,0,0,0,-1,1896,1513,0,0
679,-489,0,0,0,0,0,0,0,0,0,-1,1903,1513,0,0
686,-489,0,0,0,0,0,0,0,0,0,-1,1910,1513,0,0
693,-489,0,0,0,0,0,0,0,0,0,-1,1917,1513,0,0
700,-489,0,0,0,0,0,0,0,0,0,-1,1924,1513,0,0
707,-489,0,0,0,0,0,0,0,0,0,-1,1931,1513,0,0
714,-489,0,0,0,0,0,0,0,0,0,-1,1938,1513,0,0
721,-489,0,0,0,0,0,0,0,0,0,-1,1945,1513,0,0
728,-489,0,0,0,0,0,0,0,0,0,-1,1952,1513,0,0
735,-489,0,0,0,0,0,0,0,0,0,-1,1959,1513,0,0
742,-489,0,0,0,0,0,0,0,0,0,-1,1966,1513,0,0
749,-489,0,0,0,0,0,0,0,0,0,-1,1973,1513,0,0
756,-489,0,0,0,0,0,0,0,0,0,-1,1980,1513,0,0
763,-489,0,0,0,0,0,0,0,0,0,-1,1987,1513,0,0
770,-489,0,0,0,0,0,0,0,0,0,-1,1994,1513,0,0
777,-489,0,0,0,0,0,0,0,0,0,-1,2001,1513,0,0
784,-489,0,0,0,0,0,0,0,0,0,-1,2008,1513,0,0
791,-489,0,0,0,0,0,0,0,0,0,-1,2015,1513,0,0
798,-489,0,0,0,0,0,0,0,0,0,-1,2022,1513,0,0
805,-489,0,0,0,0,0,0,0,0,0,-1,2029,1513,0,0
812,-489,0,0,0,0,0,0,0,0,0,-1,2036,1513,0,0
-700,-496,0,0,0,0,0,0,0,0,0,-1,524,1520,0,0
-693,-496,0,0,0,0,0,0,0,0,0,-1,531,1520,0,0
-686,-496,0,0,0,0,0,0,0,0,0,-1,538,1520,0,0
-679,-496,0,0,0,0,0,0,0,0,0,-1,545,1520,0,0
-672,-496,0,0,0,0,0,0,0,0,0,-1,552,1520,0,0
-665,-496,0,0,0,0,0,0,0,0,0,-1,559,1520,0,0
-658,-496,0,0,0,0,0,0,0,0,0,-1,566,1520,0,0
-651,-496,0,0,0,0,0,0,0,0,0,-1,573,1520,0,0
-644,-496,0,0,0,0,0,0,0,0,0,-1,580,1520,0,0
-637,-496,0,0,0,0,0,0,0,0,0,-1,587,1520,0,0
-630,-496,0,0,0,0,0,0,0,0,0,-1,594,1520,0,0
-623,-496,0,0,0,0,0,0,0,0,0,-1,601,1520,0,0
-616,-496,0,0,0,0,0,0,0,0,0,-1,608,1520,0,0
-609,-496,0,0,0,0,0,0,0,0,0,-1,615,1520,0,0
-602,-496,0,0,0,0,0,0,0,0,0,-1,622,1520,0,0
-595,-496,0,0,0,0,0,0,0,0,0,-1,629,1520,0,0
-588,-496,0,0,0,0,0,0,0,0,0,-1,636,1520,0,0
-581,-496,0,0,0,0,0,0,0,0,0,-1,643,1520,0,0
-574,-496,0,0,0,0,0,0,0,0,0,-1,650,1520,0,0
-567,-496,0,0,0,0,0,0,0,0,0,-1,657,1520,0,0
-560,-496,0,0,0,0,0,0,0,0,0,-1,664,1520,0,0
-553,-496,0,0,0,0,0,0,0,0,0,-1,671,1520,0,0
-546,-496,-8.09711,7.94836,0,0,0,0,0,0,0,-1,678,1520,-8.09712,-7.94842
-539,-496,-3.20129,1.16052,0,0,0,0,0,0,0,-1,685,1520,-3.20131,-1.16054
-532,-496,-2.98279,2.62146,0,0,0,0,0,0,0,-1,692,1520,-2.98278,-2.62151
-525,-496,-2.75201,4.08032,0,0,0,0,0,0,0,-1,699,1520,-2.75201,-4.08031
-518,-496,-2.6333,5.36072,0,0,0,0,0,0,0,-1,706,1520,-2.63328,-5.36077
-511,-496,-7.92126,9.68604,0,0,0,0,0,0,0,-1,713,1520,-7.92127,-9.68598
-504,-496,-7.51044,11.6274,0,0,0,0,0,0,0,-1,720,1520,-7.51042,-11.6275
-497,-496,-5.30933,14.4291,0,0,0,0,0,0,0,-1,727,1520,-5.30932,-14.4291
-490,-496,-8.21246,19.5051,0,0,0,0,0,0,0,-1,734,1520,-8.21243,-19.5051
-483,-496,-12.0493,25.9209,0,0,0,0,0,0,0,-1,741,1520,-12.0493,-25.9209
-476,-496,-11.9626,26.944,0.00369123,0.00384657,0.00457887,0.00834842,-0.000810631,0.793879,0.00585456,0.031635,748,1520,-11.9626,-26.9439
-469,-496,-11.9584,27.8634,0.00284377,0.00244902,0.00328948,0.00594179,-0.000648998,0.755433,0.00419429,0.0112619,755,1520,-11.9584,-27.8634
-462,-496,-12.0207,28.7522,0.00220668,0.00171255,0.00235959,0.00433211,-0.000412879,0.733235,0.00303507,0.0162963,762,1520,-12.0207,-28.7522
-455,-496,-12.0752,29.6221,0.00181753,0.00136624,0.00173955,0.00334602,-0.000162237,0.720901,0.00228668,0.0228854,769,1520,-12.0752,-29.622
-448,-496,-12.1126,30.4727,0.00163544,0.00131334,0.00135099,0.00283494,0.000113828,0.726074,0.00185319,0.0208805,776,1520,-12.1126,-30.4726
-441,-496,-12.1327,31.296,0.001606,0.00149746,0.00117971,0.00273269,0.000370777,0.762413,0.00171164,0.0156838,783,1520,-12.1327,-31.296
-434,-496,-12.2016,32.1252,0.00172141,0.00191993,0.00118826,0.00301306,0.000628274,0.827069,0.00183548,0.0155143,790,1520,-12.2016,-32.1252
-427,-496,-12.2446,32.9663,0.0019783,0.00247576,0.0013283,0.00357841,0.000875642,0.877954,0.0021539,0.0200436,797,1520,-12.2446,-32.9663
-420,-496,-12.2931,33.7922,0.00240924,0.00313038,0.00161191,0.00442155,0.00111807,0.895434,0.00265469,0.0200304,804,1520,-12.2931,-33.7922
-413,-496,-12.2456,34.6881,0.0030193,0.00388954,0.00204905,0.00554916,0.00135968,0.890021,0.00333978,0.0333283,811,1520,-12.2456,-34.6881
-406,-496,-12.1343,35.7949,0,0,0,0,0,0,0,-1,818,1520,-12.1343,-35.7949
-399,-496,-11.5063,36.5204,0,0,0,0,0,0,0,-1,825,1520,-11.5063,-36.5204
-392,-496,-1.49786,12.387,0,0,0,0,0,0,0,-1,832,1520,-1.49788,-12.387
-385,-496,-1.72437,11.4985,0,0,0,0,0,0,0,-1,839,1520,-1.72436,-11.4985
-378,-496,-1.45532,14.0719,0,0,0,0,0,0,0,-1,846,1520,-1.45533,-14.0719
-371,-496,0.0877075,12.5299,0,0,0,0,0,0,0,-1,853,1520,0.0876896,-12.5299
-364,-496,0.0881348,10.6422,0,0,0,0,0,0,0,-1,860,1520,0.0881368,-10.6423
-357,-496,0.323792,7.56812,0,0,0,0,0,0,0,-1,867,1520,0.323782,-7.56806
-350,-496,2.1535,7.18945,0,0,0,0,0,0,0,-1,874,1520,2.15348,-7.1894
-343,-496,-7.56244,0.335327,0,0,0,0,0,0,0,-1,881,1520,-7.56242,-0.335322
-336,-496,-3.99249,6.02222,0,0,0,0,0,0,0,-1,888,1520,-3.99246,-6.0222
-329,-496,-6.93689,-0.100342,0,0,0,0,0,0,0,-1,895,1520,-6.93686,0.1003
-322,-496,-6.17505,0.494385,0,0,0,0,0,0,0,-1,902,1520,-6.17507,-0.49437
-315,-496,-7.539,5.78638,0,0,0,0,0,0,0,-1,909,1520,-7.53898,-5.78633
-308,-496,0,0,0,0,0,0,0,0,0,-1,916,1520,0,0
-301,-496,0,0,0,0,0,0,0,0,0,-1,923,1520,0,0
-294,-496,0,0,0,0,0,0,0,0,0,-1,930,1520,0,0
-287,-496,0,0,0,0,0,0,0,0,0,-1,937,1520,0,0
-280,-496,0,0,0,0,0,0,0,0,0,-1,944,1520,0,0
-273,-496,0,0,0,0,0,0,0,0,0,-1,951,1520,0,0
-266,-496,0,0,0,0,0,0,0,0,0,-1,958,1520,0,0
-259,-496,0,0,0,0,0,0,0,0,0,-1,965,1520,0,0
-252,-496,0,0,0,0,0,0,0,0,0,-1,972,1520,0,0
-245,-496,0,0,0,0,0,0,0,0,0,-1,979,1520,0,0
-238,-496,0,0,0,0,0,0,0,0,0,-1,986,1520,0,0
-231,-496,0,0,0,0,0,0,0,0,0,-1,993,1520,0,0
-224,-496,0,0,0,0,0,0,0,0,0,-1,1000,1520,0,0
-217,-496,0,0,0,0,0,0,0,0,0,-1,1007,1520,0,0
-210,-496,0,0,0,0,0,0,0,0,0,-1,1014,1520,0,0
-203,-496,0,0,0,0,0,0,0,0,0,-1,1021,1520,0,0
-196,-496,0,0,0,0,0,0,0,0,0,-1,1028,1520,0,0
-189,-496,0,0,0,0,0,0,0,0,0,-1,1035,1520,0,0
-182,-496,0,0,0,0,0,0,0,0,0,-1,1042,1520,0,0
-175,-496,0,0,0,0,0,0,0,0,0,-1,1049,1520,0,0
-168,-496,0,0,0,0,0,0,0,0,0,-1,1056,1520,0,0
-161,-496,0,0,0,0,0,0,0,0,0,-1,1063,1520,0,0
-154,-496,0,0,0,0,0,0,0,0,0,-1,1070,1520,0,0
-147,-496,0,0,0,0,0,0,0,0,0,-1,1077,1520,0,0
-140,-496,0,0,0,0,0,0,0,0,0,-1,1084,1520,0,0
-133,-496,0,0,0,0,0,0,0,0,0,-1,1091,1520,0,0
-126,-496,0,0,0,0,0,0,0,0,0,-1,1098,1520,0,0
-119,-496,0,0,0,0,0,0,0,0,0,-1,1105,1520,0,0
-112,-496,0,0,0,0,0,0,0,0,0,-1,1112,1520,0,0
-105,-496,0,0,0,0,0,0,0,0,0,-1,1119,1520,0,0
-98,-496,0,0,0,0,0,0,0,0,0,-1,1126,1520,0,0
-91,-496,0,0,0,0,0,0,0,0,0,-1,1133,1520,0,0
-84,-496,0,0,0,0,0,0,0,0,0,-1,1140,1520,0,0
-77,-496,0,0,0,0,0,0,0,0,0,-1,1147,1520,0,0
-70,-496,0,0,0,0,0,0,0,0,0,-1,1154,1520,0,0
-63,-496,0,0,0,0,0,0,0,0,0,-1,1161,1520,0,0
-56,-496,0,0,0,0,0,0,0,0,0,-1,1168,1520,0,0
-49,-496,0,0,0,0,0,0,0,0,0,-1,1175,1520,0,0
-42,-496,0,0,0,0,0,0,0,0,0,-1,1182,1520,0,0
-35,-496,0,0,0,0,0,0,0,0,0,-1,1189,1520,0,0
-28,-496,0,0,0,0,0,0,0,0,0,-1,1196,1520,0,0
-21,-496,0,0,0,0,0,0,0,0,0,-1,1203,1520,0,0
-14,-496,0,0,0,0,0,0,0,0,0,-1,1210,1520,0,0
-7,-496,0,0,0,0,0,0,0,0,0,-1,1217,1520,0,0
0,-496,0,0,0,0,0,0,0,0,0,-1,1224,1520,0,0
7,-496,0,0,0,0,0,0,0,0,0,-1,1231,1520,0,0
14,-496,0,0,0,0,0,0,0,0,0,-1,1238,1520,0,0
21,-496,0,0,0,0,0,0,0,0,0,-1,1245,1520,0,0
28,-496,0,0,0,0,0,0,0,0,0,-1,1252,1520,0,0
35,-496,0,0,0,0,0,0,0,0,0,-1,1259,1520,0,0
42,-496,0,0,0,0,0,0,0,0,0,-1,1266,1520,0,0
49,-496,0,0,0,0,0,0,0,0,0,-1,1273,1520,0,0
56,-496,0,0,0,0,0,0,0,0,0,-1,1280,1520,0,0
63,-496,0,0,0,0,0,0,0,0,0,-1,1287,1520,0,0
70,-496,0,0,0,0,0,0,0,0,0,-1,1294,1520,0,0
77,-496,0,0,0,0,0,0,0,0,0,-1,1301,1520,0,0
84,-496,0,0,0,0,0,0,0,0,0,-1,1308,1520,0,0
91,-496,0,0,0,0,0,0,0,0,0,-1,1315,1520,0,0
98,-496,0,0,0,0,0,0,0,0,0,-1,1322,1520,0,0
105,-496,0,0,0,0,0,0,0,0,0,-1,1329,1520,0,0
112,-496,0,0,0,0,0,0,0,0,0,-1,1336,1520,0,0
119,-496,0,0,0,0,0,0,0,0,0,-1,1343,1520,0,0
126,-496,0,0,0,0,0,0,0,0,0,-1,1350,1520,0,0
133,-496,0,0,0,0,0,0,0,0,0,-1,1357,1520,0,0
140,-496,0,0,0,0,0,0,0,0,0,-1,1364,1520,0,0
147,-496,0,0,0,0,0,0,0,0,0,-1,1371,1520,0,0
154,-496,0,0,0,0,0,0,0,0,0,-1,1378,1520,0,0
161,-496,0,0,0,0,0,0,0,0,0,-1,1385,1520,0,0
168,-496,0,0,0,0,0,0,0,0,0,-1,1392,1520,0,0
175,-496,0,0,0,0,0,0,0,0,0,-1,1399,1520,0,0
182,-496,0,0,0,0,0,0,0,0,0,-1,1406,1520,0,0
189,-496,0,0,0,0,0,0,0,0,0,-1,1413,1520,0,0
196,-496,0,0,0,0,0,0,0,0,0,-1,1420,1520,0,0
203,-496,0,0,0,0,0,0,0,0,0,-1,1427,1520,0,0
210,-496,0,0,0,0,0,0,0,0,0,-1,1434,1520,0,0
217,-496,0,0,0,0,0,0,0,0,0,-1,1441,1520,0,0
224,-496,0,0,0,0,0,0,0,0,0,-1,1448,1520,0,0
231,-496,0,0,0,0,0,0,0,0,0,-1,1455,1520,0,0
238,-496,0,0,0,0,0,0,0,0,0,-1,1462,1520,0,0
245,-496,0,0,0,0,0,0,0,0,0,-1,1469,1520,0,0
252,-496,0,0,0,0,0,0,0,0,0,-1,1476,1520,0,0
259,-496,0,0,0,0,0,0,0,0,0,-1,1483,1520,0,0
266,-496,0,0,0,0,0,0,0,0,0,-1,1490,1520,0,0
273,-496,0,0,0,0,0,0,0,0,0,-1,1497,1520,0,0
280,-496,0,0,0,0,0,0,0,0,0,-1,1504,1520,0,0
287,-496,0,0,0,0,0,0,0,0,0,-1,1511,1520,0,0
294,-496,0,0,0,0,0,0,0,0,0,-1,1518,1520,0,0
301,-496,0,0,0,0,0,0,0,0,0,-1,1525,1520,0,0
308,-496,0,0,0,0,0,0,0,0,0,-1,1532,1520,0,0
315,-496,0,0,0,0,0,0,0,0,0,-1,1539,1520,0,0
322,-496,0,0,0,0,0,0,0,0,0,-1,1546,1520,0,0
329,-496,0,0,0,0,0,0,0,0,0,-1,1553,1520,0,0
336,-496,0,0,0,0,0,0,0,0,0,-1,1560,1520,0,0
343,-496,0,0,0,0,0,0,0,0,0,-1,1567,1520,0,0
350,-496,0,0,0,0,0,0,0,0,0,-1,1574,1520,0,0
357,-496,0,0,0,0,0,0,0,0,0,-1,1581,1520,0,0
364,-496,0,0,0,0,0,0,0,0,0,-1,1588,1520,0,0
371,-496,0,0,0,0,0,0,0,0,0,-1,1595,1520,0,0
378,-496,0,0,0,0,0,0,0,0,0,-1,1602,1520,0,0
385,-496,0,0,0,0,0,0,0,0,0,-1,1609,1520,0,0
392,-496,0,0,0,0,0,0,0,0,0,-1,1616,1520,0,0
399,-496,0,0,0,0,0,0,0,0,0,-1,1623,1520,0,0
406,-496,0,0,0,0,0,0,0,0,0,-1,1630,1520,0,0
413,-496,0,0,0,0,0,0,0,0,0,-1,1637,1520,0,0
420,-496,0,0,0,0,0,0,0,0,0,-1,1644,1520,0,0
427,-496,0,0,0,0,0,0,0,0,0,-1,1651,1520,0,0
434,-496,11.0457,3.37732,0,0,0,0,0,0,0,-1,1658,1520,11.0456,-3.37736
441,-496,11.788,2.75488,0,0,0,0,0,0,0,-1,1665,1520,11.7879,-2.75485
448,-496,12.2146,2.18494,0,0,0,0,0,0,0,-1,1672,1520,12.2146,-2.18489
455,-496,12.3489,1.65173,0,0,0,0,0,0,0,-1,1679,1520,12.3489,-1.65178
462,-496,12.1912,1.32361,0,0,0,0,0,0,0,-1,1686,1520,12.1911,-1.32357
469,-496,14.8138,5.77954,0,0,0,0,0,0,0,-1,1693,1520,14.8138,-5.77958
476,-496,15.2449,6.27942,0,0,0,0,0,0,0,-1,1700,1520,15.2449,-6.27936
483,-496,9.19812,6.88367,0,0,0,0,0,0,0,-1,1707,1520,9.19812,-6.88361
490,-496,10.2123,7.97144,0,0,0,0,0,0,0,-1,1714,1520,10.2122,-7.97145
497,-496,13.9297,12.2981,0,0,0,0,0,0,0,-1,1721,1520,13.9297,-12.2982
504,-496,16.3271,16.6501,0,0,0,0,0,0,0,-1,1728,1520,16.3272,-16.6502
511,-496,17.6753,18.0685,0,0,0,0,0,0,0,-1,1735,1520,17.6753,-18.0685
518,-496,17.0537,17.3118,0,0,0,0,0,0,0,-1,1742,1520,17.0538,-17.3118
525,-496,18.2721,19.3259,0,0,0,0,0,0,0,-1,1749,1520,18.2721,-19.3259
532,-496,30.0385,35.2427,0,0,0,0,0,0,0,-1,1756,1520,30.0384,-35.2426
539,-496,29.6224,35.3109,0,0,0,0,0,0,0,-1,1763,1520,29.6225,-35.3109
546,-496,29.7666,34.2719,0.00900314,0.00725729,-0.00622917,0.0144203,0.00184018,-0.715784,0.0090626,0.024903,1770,1520,29.7666,-34.2719
553,-496,29.8777,33.299,0.0072093,0.00546086,-0.00473237,0.0111475,0.00152263,-0.694062,0.00697972,0.0152834,1777,1520,29.8777,-33.299
560,-496,29.8625,32.5006,0.00576558,0.00398609,-0.00354422,0.00853003,0.00122164,-0.662419,0.00532638,0.0155004,1784,1520,29.8625,-32.5006
567,-496,29.8177,31.6614,0.00462269,0.00281148,-0.00267778,0.00654386,0.000890314,-0.622339,0.00409816,0.0130146,1791,1520,29.8177,-31.6614
574,-496,29.7684,30.8296,0.00371795,0.00188002,-0.00202791,0.0050254,0.000572569,-0.572659,0.00317666,0.0132684,1798,1520,29.7684,-30.8296
581,-496,29.7249,30.0267,0.00295198,0.00117016,-0.00148833,0.00379567,0.000326465,-0.515705,0.00242895,0.0145334,1805,1520,29.7249,-30.0267
588,-496,29.6986,29.2101,0.00243255,0.000623329,-0.00110411,0.00295531,0.000100569,-0.442196,0.00193755,0.0176159,1812,1520,29.6986,-29.2101
595,-496,29.6324,28.4144,0.00213161,0.000246385,-0.000744377,0.00239008,-1.20924e-05,-0.334214,0.00159743,0.0188037,1819,1520,29.6324,-28.4145
602,-496,29.5825,27.5881,0.00197089,8.90033e-05,-0.0004884,0.00209009,-3.01993e-05,-0.239387,0.00140357,0.0182404,1826,1520,29.5826,-27.5882
609,-496,29.5677,26.6986,0.00189235,-3.99269e-05,-0.000186487,0.00191018,-5.77604e-05,-0.0953392,0.00129314,0.0179375,1833,1520,29.5677,-26.6986
616,-496,29.5959,25.7723,0,0,0,0,0,0,0,-1,1840,1520,29.596,-25.7723
623,-496,28.9139,24.1847,0,0,0,0,0,0,0,-1,1847,1520,28.9139,-24.1846
630,-496,18.5656,13.8966,0,0,0,0,0,0,0,-1,1854,1520,18.5655,-13.8967
637,-496,14.6411,10.1016,0,0,0,0,0,0,0,-1,1861,1520,14.6411,-10.1016
644,-496,12.4537,10.087,0,0,0,0,0,0,0,-1,1868,1520,12.4537,-10.0871
651,-496,8.18506,5.47803,0,0,0,0,0,0,0,-1,1875,1520,8.18505,-5.47806
658,-496,7.79993,4.02563,0,0,0,0,0,0,0,-1,1882,1520,7.79997,-4.02568
665,-496,5.47583,7.90625,0,0,0,0,0,0,0,-1,1889,1520,5.47581,-7.90628
672,-496,0,0,0,0,0,0,0,0,0,-1,1896,1520,0,0
679,-496,0,0,0,0,0,0,0,0,0,-1,1903,1520,0,0
686,-496,0,0,0,0,0,0,0,0,0,-1,1910,1520,0,0
693,-496,0,0,0,0,0,0,0,0,0,-1,1917,1520,0,0
700,-496,0,0,0,0,0,0,0,0,0,-1,1924,1520,0,0
707,-496,0,0,0,0,0,0,0,0,0,-1,1931,1520,0,0
714,-496,0,0,0,0,0,0,0,0,0,-1,1938,1520,0,0
721,-496,0,0,0,0,0,0,0,0,0,-1,1945,1520,0,0
728,-496,0,0,0,0,0,0,0,0,0,-1,1952,1520,0,0
735,-496,0,0,0,0,0,0,0,0,0,-1,1959,1520,0,0
742,-496,0,0,0,0,0,0,0,0,0,-1,1966,1520,0,0
749,-496,0,0,0,0,0,0,0,0,0,-1,1973,1520,0,0
756,-496,0,0,0,0,0,0,0,0,0,-1,1980,1520,0,0
763,-496,0,0,0,0,0,0,0,0,0,-1,1987,1520,0,0
770,-496,0,0,0,0,0,0,0,0,0,-1,1994,1520,0,0
777,-496,0,0,0,0,0,0,0,0,0,-1,2001,1520,0,0
784,-496,0,0,0,0,0,0,0,0,0,-1,2008,1520,0,0
791,-496,0,0,0,0,0,0,0,0,0,-1,2015,1520,0,0
798,-496,0,0,0,0,0,0,0,0,0,-1,2022,1520,0,0
805,-496,0,0,0,0,0,0,0,0,0,-1,2029,1520,0,0
812,-496,0,0,0,0,0,0,0,0,0,-1,2036,1520,0,0
-700,-503,0,0,0,0,0,0,0,0,0,-1,524,1527,0,0
-693,-503,0,0,0,0,0,0,0,0,0,-1,531,1527,0,0
-686,-503,0,0,0,0,0,0,0,0,0,-1,538,1527,0,0
-679,-503,0,0,0,0,0,0,0,0,0,-1,545,1527,0,0
-672,-503,0,0,0,0,0,0,0,0,0,-1,552,1527,0,0
-665,-503,0,0,0,0,0,0,0,0,0,-1,559,1527,0,0
-658,-503,0,0,0,0,0,0,0,0,0,-1,566,1527,0,0
-651,-503,0,0,0,0,0,0,0,0,0,-1,573,1527,0,0
-644,-503,0,0,0,0,0,0,0,0,0,-1,580,1527,0,0
-637,-503,0,0,0,0,0,0,0,0,0,-1,587,1527,0,0
-630,-503,0,0,0,0,0,0,0,0,0,-1,594,1527,0,0
-623,-503,0,0,0,0,0,0,0,0,0,-1,601,1527,0,0
-616,-503,0,0,0,0,0,0,0,0,0,-1,608,1527,0,0
-609,-503,0,0,0,0,0,0,0,0,0,-1,615,1527,0,0
-602,-503,0,0,0,0,0,0,0,0,0,-1,622,1527,0,0
-595,-503,0,0,0,0,0,0,0,0,0,-1,629,1527,0,0
-588,-503,0,0,0,0,0,0,0,0,0,-1,636,1527,0,0
-581,-503,0,0,0,0,0,0,0,0,0,-1,643,1527,0,0
-574,-503,0,0,0,0,0,0,0,0,0,-1,650,1527,0,0
-567,-503,0,0,0,0,0,0,0,0,0,-1,657,1527,0,0
-560,-503,0,0,0,0,0,0,0,0,0,-1,664,1527,0,0
-553,-503,0,0,0,0,0,0,0,0,0,-1,671,1527,0,0
-546,-503,0,0,0,0,0,0,0,0,0,-1,678,1527,0,0
-539,-503,3.50177,4.26428,0,0,0,0,0,0,0,-1,685,1527,3.50177,-4.26424
-532,-503,-3.13196,1.05298,0,0,0,0,0,0,0,-1,692,1527,-3.13194,-1.05299
-525,-503,-2.94293,2.59314,0,0,0,0,0,0,0,-1,699,1527,-2.94296,-2.59314
-518,-503,-2.7395,4.05872,0,0,0,0,0,0,0,-1,706,1527,-2.73948,-4.05871
-511,-503,-1.60022,7.23877,0,0,0,0,0,0,0,-1,713,1527,-1.60023,-7.23872
-504,-503,-8.1402,10.1541,0,0,0,0,0,0,0,-1,720,1527,-8.14017,-10.1541
-497,-503,-4.51758,14.0781,0,0,0,0,0,0,0,-1,727,1527,-4.5176,-14.0782
-490,-503,-4.24194,16.1982,0,0,0,0,0,0,0,-1,734,1527,-4.24196,-16.1982
-483,-503,-9.55774,23.7681,0,0,0,0,0,0,0,-1,741,1527,-9.55776,-23.7681
-476,-503,-11.1788,26.9669,0,0,0,0,0,0,0,-1,748,1527,-11.1788,-26.9669
-469,-503,-11.1332,27.9041,0.0031526,0.0025921,0.00363553,0.00651866,-0.000773966,0.746931,0.0046254,0.0208043,755,1527,-11.1332,-27.9041
-462,-503,-11.1801,28.797,0.00236428,0.00168177,0.00254547,0.00459127,-0.000545223,0.718763,0.00325783,0.0125915,762,1527,-11.1801,-28.797
-455,-503,-11.2098,29.6774,0.00187696,0.00123372,0.00182838,0.0034118,-0.000301111,0.698337,0.00238126,0.0193134,769,1527,-11.2098,-29.6774
-448,-503,-11.2122,30.5309,0.00160167,0.0010792,0.00135276,0.00271819,-3.73208e-05,0.690017,0.0018247,0.0180813,776,1527,-11.2122,-30.5309
-441,-503,-11.2366,31.3395,0.00148208,0.00115172,0.00108511,0.00241451,0.000219292,0.709867,0.00154178,0.0141893,783,1527,-11.2365,-31.3394
-434,-503,-11.3372,32.1636,0.00150211,0.0014603,0.00099534,0.00247677,0.000485646,0.774897,0.00151546,0.0122348,790,1527,-11.3372,-32.1635
-427,-503,-11.4246,32.9939,0.00163343,0.00185451,0.00101022,0.00276022,0.000727723,0.839892,0.0016519,0.0195148,797,1527,-11.4245,-32.9939
-420,-503,-11.4453,33.8099,0.00192184,0.00237589,0.0011577,0.00332861,0.000969121,0.88222,0.00197687,0.0193197,804,1527,-11.4453,-33.8099
-413,-503,-11.4708,34.6694,0.00239052,0.00301941,0.00146003,0.00419847,0.00121146,0.891461,0.0024952,0.0164751,811,1527,-11.4707,-34.6695
-406,-503,-11.483,35.4995,0.00301123,0.00384388,0.00192479,0.00539686,0.00145825,0.891906,0.0032237,0.0280822,818,1527,-11.483,-35.4995
-399,-503,-11.4142,36.3843,0,0,0,0,0,0,0,-1,825,1527,-11.4142,-36.3843
-392,-503,-10.7637,37.4486,0,0,0,0,0,0,0,-1,832,1527,-10.7637,-37.4486
-385,-503,-2.00403,14.1218,0,0,0,0,0,0,0,-1,839,1527,-2.00403,-14.1218
-378,-503,-2.07043,13.8632,0,0,0,0,0,0,0,-1,846,1527,-2.07043,-13.8631
-371,-503,-1.67285,13.8081,0,0,0,0,0,0,0,-1,853,1527,-1.67285,-13.8081
-364,-503,0.181396,12.3768,0,0,0,0,0,0,0,-1,860,1527,0.18138,-12.3768
-357,-503,0.558533,9.25452,0,0,0,0,0,0,0,-1,867,1527,0.558542,-9.25446
-350,-503,0.219971,6.84827,0,0,0,0,0,0,0,-1,874,1527,0.21996,-6.84831
-343,-503,-3.5802,4.43274,0,0,0,0,0,0,0,-1,881,1527,-3.58018,-4.43276
-336,-503,-3.2384,6.40637,0,0,0,0,0,0,0,-1,888,1527,-3.2384,-6.40643
-329,-503,-1.70691,11.886,0,0,0,0,0,0,0,-1,895,1527,-1.70689,-11.886
-322,-503,-3.31317,8.81519,0,0,0,0,0,0,0,-1,902,1527,-3.31315,-8.81524
-315,-503,-3.90265,7.73853,0,0,0,0,0,0,0,-1,909,1527,-3.90264,-7.73854
-308,-503,-1.70264,7.35413,0,0,0,0,0,0,0,-1,916,1527,-1.70262,-7.35416
-301,-503,0,0,0,0,0,0,0,0,0,-1,923,1527,0,0
-294,-503,0,0,0,0,0,0,0,0,0,-1,930,1527,0,0
-287,-503,0,0,0,0,0,0,0,0,0,-1,937,1527,0,0
-280,-503,0,0,0,0,0,0,0,0,0,-1,944,1527,0,0
-273,-503,0,0,0,0,0,0,0,0,0,-1,951,1527,0,0
-266,-503,0,0,0,0,0,0,0,0,0,-1,958,1527,0,0
-259,-503,0,0,0,0,0,0,0,0,0,-1,965,1527,0,0
-252,-503,0,0,0,0,0,0,0,0,0,-1,972,1527,0,0
-245,-503,0,0,0,0,0,0,0,0,0,-1,979,1527,0,0
-238,-503,0,0,0,0,0,0,0,0,0,-1,986,1527,0,0
-231,-503,0,0,0,0,0,0,0,0,0,-1,993,1527,0,0
-224,-503,0,0,0,0,0,0,0,0,0,-1,1000,1527,0,0
-217,-503,0,0,0,0,0,0,0,0,0,-1,1007,1527,0,0
-210,-503,0,0,0,0,0,0,0,0,0,-1,1014,1527,0,0
-203,-503,0,0,0,0,0,0,0,0,0,-1,1021,1527,0,0
-196,-503,0,0,0,0,0,0,0,0,0,-1,1028,1527,0,0
-189,-503,0,0,0,0,0,0,0,0,0,-1,1035,1527,0,0
-182,-503,0,0,0,0,0,0,0,0,0,-1,1042,1527,0,0
-175,-503,0,0,0,0,0,0,0,0,0,-1,1049,1527,0,0
-168,-503,0,0,0,0,0,0,0,0,0,-1,1056,1527,0,0
-161,-503,0,0,0,0,0,0,0,0,0,-1,1063,1527,0,0
-154,-503,0,0,0,0,0,0,0,0,0,-1,1070,1527,0,0
-147,-503,0,0,0,0,0,0,0,0,0,-1,1077,1527,0,0
-140,-503,0,0,0,0,0,0,0,0,0,-1,1084,1527,0,0
-133,-503,0,0,0,0,0,0,0,0,0,-1,1091,1527,0,0
-126,-503,0,0,0,0,0,0,0,0,0,-1,1098,1527,0,0
-119,-503,0,0,0,0,0,0,0,0,0,-1,1105,1527,0,0
-112,-503,0,0,0,0,0,0,0,0,0,-1,1112,1527,0,0
-105,-503,0,0,0,0,0,0,0,0,0,-1,1119,1527,0,0
-98,-503,0,0,0,0,0,0,0,0,0,-1,1126,1527,0,0
-91,-503,0,0,0,0,0,0,0,0,0,-1,1133,1527,0,0
-84,-503,0,0,0,0,0,0,0,0,0,-1,1140,1527,0,0
-77,-503,0,0,0,0,0,0,0,0,0,-1,1147,1527,0,0
-70,-503,0,0,0,0,0,0,0,0,0,-1,1154,1527,0,0
-63,-503,0,0,0,0,0,0,0,0,0,-1,1161,1527,0,0
-56,-503,0,0,0,0,0,0,0,0,0,-1,1168,1527,0,0
-49,-503,0,0,0,0,0,0,0,0,0,-1,1175,1527,0,0
-42,-503,0,0,0,0,0,0,0,0,0,-1,1182,1527,0,0
-35,-503,0,0,0,0,0,0,0,0,0,-1,1189,1527,0,0
-28,-503,0,0,0,0,0,0,0,0,0,-1,1196,1527,0,0
-21,-503,0,0,0,0,0,0,0,0,0,-1,1203,1527,0,0
-14,-503,0,0,0,0,0,0,0,0,0,-1,1210,1527,0,0
-7,-503,0,0,0,0,0,0,0,0,0,-1,1217,1527,0,0
0,-503,0,0,0,0,0,0,0,0,0,-1,1224,1527,0,0
7,-503,0,0,0,0,0,0,0,0,0,-1,1231,1527,0,0
14,-503,0,0,0,0,0,0,0,0,0,-1,1238,1527,0,0
21,-503,0,0,0,0,0,0,0,0,0,-1,1245,1527,0,0
28,-503,0,0,0,0,0,0,0,0,0,-1,1252,1527,0,0
35,-503,0,0,0,0,0,0,0,0,0,-1,1259,1527,0,0
42,-503,0,0,0,0,0,0,0,0,0,-1,1266,1527,0,0
49,-503,0,0,0,0,0,0,0,0,0,-1,1273,1527,0,0
56,-503,0,0,0,0,0,0,0,0,0,-1,1280,1527,0,0
63,-503,0,0,0,0,0,0,0,0,0,-1,1287,1527,0,0
70,-503,0,0,0,0,0,0,0,0,0,-1,1294,1527,0,0
77,-503,0,0,0,0,0,0,0,0,0,-1,1301,1527,0,0
84,-503,0,0,0,0,0,0,0,0,0,-1,1308,1527,0,0
91,-503,0,0,0,0,0,0,0,0,0,-1,1315,1527,0,0
98,-503,0,0,0,0,0,0,0,0,0,-1,1322,1527,0,0
105,-503,0,0,0,0,0,0,0,0,0,-1,1329,1527,0,0
112,-503,0,0,0,0,0,0,0,0,0,-1,1336,1527,0,0
119,-503,0,0,0,0,0,0,0,0,0,-1,1343,1527,0,0
126,-503,0,0,0,0,0,0,0,0,0,-1,1350,1527,0,0
133,-503,0,0,0,0,0,0,0,0,0,-1,1357,1527,0,0
140,-503,0,0,0,0,0,0,0,0,0,-1,1364,1527,0,0
147,-503,0,0,0,0,0,0,0,0,0,-1,1371,1527,0,0
154,-503,0,0,0,0,0,0,0,0,0,-1,1378,1527,0,0
161,-503,0,0,0,0,0,0,0,0,0,-1,1385,1527,0,0
168,-503,0,0,0,0,0,0,0,0,0,-1,1392,1527,0,0
175,-503,0,0,0,0,0,0,0,0,0,-1,1399,1527,0,0
182,-503,0,0,0,0,0,0,0,0,0,-1,1406,1527,0,0
189,-503,0,0,0,0,0,0,0,0,0,-1,1413,1527,0,0
196,-503,0,0,0,0,0,0,0,0,0,-1,1420,1527,0,0
203,-503,0,0,0,0,0,0,0,0,0,-1,1427,1527,0,0
210,-503,0,0,0,0,0,0,0,0,0,-1,1434,1527,0,0
217,-503,0,0,0,0,0,0,0,0,0,-1,1441,1527,0,0
224,-503,0,0,0,0,0,0,0,0,0,-1,1448,1527,0,0
231,-503,0,0,0,0,0,0,0,0,0,-1,1455,1527,0,0
238,-503,0,0,0,0,0,0,0,0,0,-1,1462,1527,0,0
245,-503,0,0,0,0,0,0,0,0,0,-1,1469,1527,0,0
252,-503,0,0,0,0,0,0,0,0,0,-1,1476,1527,0,0
259,-503,0,0,0,0,0,0,0,0,0,-1,1483,1527,0,0
266,-503,0,0,0,0,0,0,0,0,0,-1,1490,1527,0,0
273,-503,0,0,0,0,0,0,0,0,0,-1,1497,1527,0,0
280,-503,0,0,0,0,0,0,0,0,0,-1,1504,1527,0,0
287,-503,0,0,0,0,0,0,0,0,0,-1,1511,1527,0,0
294,-503,0,0,0,0,0,0,0,0,0,-1,1518,1527,0,0
301,-503,0,0,0,0,0,0,0,0,0,-1,1525,1527,0,0
308,-503,0,0,0,0,0,0,0,0,0,-1,1532,1527,0,0
315,-503,0,0,0,0,0,0,0,0,0,-1,1539,1527,0,0
322,-503,0,0,0,0,0,0,0,0,0,-1,1546,1527,0,0
329,-503,0,0,0,0,0,0,0,0,0,-1,1553,1527,0,0
336,-503,0,0,0,0,0,0,0,0,0,-1,1560,1527,0,0
343,-503,0,0,0,0,0,0,0,0,0,-1,1567,1527,0,0
350,-503,0,0,0,0,0,0,0,0,0,-1,1574,1527,0,0
357,-503,0,0,0,0,0,0,0,0,0,-1,1581,1527,0,0
364,-503,0,0,0,0,0,0,0,0,0,-1,1588,1527,0,0
371,-503,0,0,0,0,0,0,0,0,0,-1,1595,1527,0,0
378,-503,0,0,0,0,0,0,0,0,0,-1,1602,1527,0,0
385,-503,0,0,0,0,0,0,0,0,0,-1,1609,1527,0,0
392,-503,0,0,0,0,0,0,0,0,0,-1,1616,1527,0,0
399,-503,0,0,0,0,0,0,0,0,0,-1,1623,1527,0,0
406,-503,0,0,0,0,0,0,0,0,0,-1,1630,1527,0,0
413,-503,0,0,0,0,0,0,0,0,0,-1,1637,1527,0,0
420,-503,0,0,0,0,0,0,0,0,0,-1,1644,1527,0,0
427,-503,10.5968,4.9856,0,0,0,0,0,0,0,-1,1651,1527,10.5969,-4.98563
434,-503,11.4329,3.97217,0,0,0,0,0,0,0,-1,1658,1527,11.4328,-3.97222
441,-503,12.0957,2.96509,0,0,0,0,0,0,0,-1,1665,1527,12.0957,-2.96512
448,-503,12.3259,2.53894,0,0,0,0,0,0,0,-1,1672,1527,12.326,-2.53895
455,-503,12.1669,2.18762,0,0,0,0,0,0,0,-1,1679,1527,12.1668,-2.18767
462,-503,11.59,2.60791,0,0,0,0,0,0,0,-1,1686,1527,11.5899,-2.60794
469,-503,11.1625,1.61853,0,0,0,0,0,0,0,-1,1693,1527,11.1625,-1.61856
476,-503,9.07703,5.81042,0,0,0,0,0,0,0,-1,1700,1527,9.07699,-5.81047
483,-503,9.74414,6.92432,0,0,0,0,0,0,0,-1,1707,1527,9.74417,-6.9243
490,-503,10.5033,10.1071,0,0,0,0,0,0,0,-1,1714,1527,10.5032,-10.107
497,-503,15.0057,17.9476,0,0,0,0,0,0,0,-1,1721,1527,15.0058,-17.9476
504,-503,16.4764,18.4486,0,0,0,0,0,0,0,-1,1728,1527,16.4764,-18.4486
511,-503,16.8276,18.3271,0,0,0,0,0,0,0,-1,1735,1527,16.8276,-18.3272
518,-503,17.2533,18.2738,0,0,0,0,0,0,0,-1,1742,1527,17.2533,-18.2738
525,-503,21.2887,26.5785,0,0,0,0,0,0,0,-1,1749,1527,21.2887,-26.5785
532,-503,28.9824,36.0554,0,0,0,0,0,0,0,-1,1756,1527,28.9825,-36.0554
539,-503,29.0699,35.0835,0.00916535,0.00781373,-0.00656108,0.0150853,0.00189375,-0.734078,0.00948884,0.0345766,1763,1527,29.07,-35.0835
546,-503,29.0691,34.1636,0.00727448,0.00611471,-0.0051181,0.0118454,0.00154374,-0.728988,0.00743599,0.0143095,1770,1527,29.0691,-34.1636
553,-503,29.0677,33.3578,0.0057804,0.00456176,-0.00387371,0.00909242,0.00124974,-0.707389,0.00569096,0.0138144,1777,1527,29.0677,-33.3578
560,-503,29.0223,32.5466,0.00460919,0.00328133,-0.00288402,0.00690471,0.00098581,-0.672265,0.00431226,0.0144128,1784,1527,29.0224,-32.5466
567,-503,28.9819,31.6993,0.00372402,0.00224664,-0.00217894,0.00528608,0.000684578,-0.621972,0.00331948,0.0135968,1791,1527,28.9819,-31.6994
574,-503,28.9507,30.8662,0.00305659,0.00141827,-0.00165747,0.00408627,0.000388588,-0.555891,0.00260433,0.0135676,1798,1527,28.9506,-30.8662
581,-503,28.8961,30.0735,0.00252733,0.000805608,-0.00125171,0.00318563,0.000147307,-0.48417,0.0020764,0.0147606,1805,1527,28.8962,-30.0735
588,-503,28.8545,29.2926,0.0022358,0.00036259,-0.00100966,0.00267638,-7.79903e-05,-0.411458,0.00181081,0.0182361,1812,1527,28.8545,-29.2926
595,-503,28.8091,28.4614,0.00213001,0.000116938,-0.000803153,0.00241118,-0.000164225,-0.336741,0.00166489,0.0142359,1819,1527,28.8091,-28.4614
602,-503,28.8304,27.5635,0.00219823,0.000158878,-0.000725774,0.00243015,-7.30394e-05,-0.30929,0.00164499,0.0262849,1826,1527,28.8304,-27.5634
609,-503,28.8606,26.5327,0,0,0,0,0,0,0,-1,1833,1527,28.8606,-26.5327
616,-503,27.9205,24.2308,0,0,0,0,0,0,0,-1,1840,1527,27.9206,-24.2309
623,-503,18.7351,15.5999,0,0,0,0,0,0,0,-1,1847,1527,18.7351,-15.5999
630,-503,20.6721,13.9077,0,0,0,0,0,0,0,-1,1854,1527,20.6721,-13.9077
637,-503,14.5564,9.20496,0,0,0,0,0,0,0,-1,1861,1527,14.5564,-9.2049
644,-503,11.4802,7.57214,0,0,0,0,0,0,0,-1,1868,1527,11.4802,-7.57215
651,-503,11.5718,6.5448,0,0,0,0,0,0,0,-1,1875,1527,11.5718,-6.54476
658,-503,8.25635,3.10498,0,0,0,0,0,0,0,-1,1882,1527,8.2563,-3.10493
665,-503,0,0,0,0,0,0,0,0,0,-1,1889,1527,0,0
672,-503,0,0,0,0,0,0,0,0,0,-1,1896,1527,0,0
679,-503,0,0,0,0,0,0,0,0,0,-1,1903,1527,0,0
686,-503,0,0,0,0,0,0,0,0,0,-1,1910,1527,0,0
693,-503,0,0,0,0,0,0,0,0,0,-1,1917,1527,0,0
700,-503,0,0,0,0,0,0,0,0,0,-1,1924,1527,0,0
707,-503,0,0,0,0,0,0,0,0,0,-1,1931,1527,0,0
714,-503,0,0,0,0,0,0,0,0,0,-1,1938,1527,0,0
721,-503,0,0,0,0,0,0,0,0,0,-1,1945,1527,0,0
728,-503,0,0,0,0,0,0,0,0,0,-1,1952,1527,0,0
735,-503,0,0,0,0,0,0,0,0,0,-1,1959,1527,0,0
742,-503,0,0,0,0,0,0,0,0,0,-1,1966,1527,0,0
749,-503,0,0,0,0,0,0,0,0,0,-1,1973,1527,0,0
756,-503,0,0,0,0,0,0,0,0,0,-1,1980,1527,0,0
763,-503,0,0,0,0,0,0,0,0,0,-1,1987,1527,0,0
770,-503,0,0,0,0,0,0,0,0,0,-1,1994,1527,0,0
777,-503,0,0,0,0,0,0,0,0,0,-1,2001,1527,0,0
784,-503,0,0,0,0,0,0,0,0,0,-1,2008,1527,0,0
791,-503,0,0,0,0,0,0,0,0,0,-1,2015,1527,0,0
798,-503,0,0,0,0,0,0,0,0,0,-1,2022,1527,0,0
805,-503,0,0,0,0,0,0,0,0,0,-1,2029,1527,0,0
812,-503,0,0,0,0,0,0,0,0,0,-1,2036,1527,0,0
-700,-510,0,0,0,0,0,0,0,0,0,-1,524,1534,0,0
-693,-510,0,0,0,0,0,0,0,0,0,-1,531,1534,0,0
-686,-510,0,0,0,0,0,0,0,0,0,-1,538,1534,0,0
-679,-510,0,0,0,0,0,0,0,0,0,-1,545,1534,0,0
-672,-510,0,0,0,0,0,0,0,0,0,-1,552,1534,0,0
-665,-510,0,0,0,0,0,0,0,0,0,-1,559,1534,0,0
-658,-510,0,0,0,0,0,0,0,0,0,-1,566,1534,0,0
-651,-510,0,0,0,0,0,0,0,0,0,-1,573,1534,0,0
-644,-510,0,0,0,0,0,0,0,0,0,-1,580,1534,0,0
-637,-510,0,0,0,0,0,0,0,0,0,-1,587,1534,0,0
-630,-510,0,0,0,0,0,0,0,0,0,-1,594,1534,0,0
-623,-510,0,0,0,0,0,0,0,0,0,-1,601,1534,0,0
-616,-510,0,0,0,0,0,0,0,0,0,-1,608,1534,0,0
-609,-510,0,0,0,0,0,0,0,0,0,-1,615,1534,0,0
-602,-510,0,0,0,0,0,0,0,0,0,-1,622,1534,0,0
-595,-510,0,0,0,0,0,0,0,0,0,-1,629,1534,0,0
-588,-510,0,0,0,0,0,0,0,0,0,-1,636,1534,0,0
-581,-510,0,0,0,0,0,0,0,0,0,-1,643,1534,0,0
-574,-510,0,0,0,0,0,0,0,0,0,-1,650,1534,0,0
-567,-510,0,0,0,0,0,0,0,0,0,-1,657,1534,0,0
-560,-510,0,0,0,0,0,0,0,0,0,-1,664,1534,0,0
-553,-510,0,0,0,0,0,0,0,0,0,-1,671,1534,0,0
-546,-510,0,0,0,0,0,0,0,0,0,-1,678,1534,0,0
-539,-510,0,0,0,0,0,0,0,0,0,-1,685,1534,0,0
-532,-510,-3.95129,4.52014,0,0,0,0,0,0,0,-1,692,1534,-3.95131,-4.5202
-525,-510,-2.77411,0.316772,0,0,0,0,0,0,0,-1,699,1534,-2.77409,-0.3168
-518,-510,-2.86847,2.71423,0,0,0,0,0,0,0,-1,706,1534,-2.86849,-2.71424
-511,-510,-2.28571,4.48083,0,0,0,0,0,0,0,-1,713,1534,-2.28571,-4.48086
-504,-510,-4.86731,10.8224,0,0,0,0,0,0,0,-1,720,1534,-4.8673,-10.8224
-497,-510,-3.42352,15.5178,0,0,0,0,0,0,0,-1,727,1534,-3.42352,-15.5178
-490,-510,-5.9472,18.5184,0,0,0,0,0,0,0,-1,734,1534,-5.94718,-18.5185
-483,-510,-6.79639,20.8453,0,0,0,0,0,0,0,-1,741,1534,-6.79638,-20.8454
-476,-510,-10.3644,27.0604,0,0,0,0,0,0,0,-1,748,1534,-10.3644,-27.0604
-469,-510,-10.2733,27.9757,0.00356517,0.00260006,0.0039877,0.00709941,-0.000934184,0.725186,0.00507308,0.0298328,755,1534,-10.2733,-27.9757
-462,-510,-10.3156,28.8174,0.00258158,0.00153987,0.00272785,0.00483785,-0.000716408,0.691064,0.00348864,0.0136062,762,1534,-10.3156,-28.8174
-455,-510,-10.3616,29.7075,0.00196852,0.0010105,0.00190859,0.00345729,-0.000478277,0.66245,0.00247971,0.0162692,769,1534,-10.3616,-29.7075
-448,-510,-10.3423,30.545,0.00158929,0.000787185,0.00136633,0.00261221,-0.000235736,0.642645,0.00182513,0.0143649,776,1534,-10.3423,-30.5451
-441,-510,-10.4046,31.3756,0.00138057,0.000776056,0.00101904,0.00214123,1.53959e-05,0.641226,0.00142238,0.0145711,783,1534,-10.4046,-31.3756
-434,-510,-10.5162,32.215,0.00131344,0.000992206,0.000847379,0.00201529,0.000290357,0.691736,0.00125796,0.0156623,790,1534,-10.5162,-32.215
-427,-510,-10.5977,33.0121,0.00133938,0.00126732,0.000762247,0.00206645,0.000540254,0.761783,0.0012375,0.0235614,797,1534,-10.5977,-33.0121
-420,-510,-10.6251,33.8608,0.00151082,0.0016877,0.000797797,0.00240194,0.000796572,0.8406,0.00141272,0.0213474,804,1534,-10.6251,-33.8608
-413,-510,-10.6396,34.7203,0.00186894,0.0022488,0.000987713,0.00306468,0.00105306,0.880386,0.00179801,0.0115563,811,1534,-10.6396,-34.7204
-406,-510,-10.7003,35.5444,0.00236394,0.00296844,0.00130403,0.00400479,0.00132759,0.899276,0.00235553,0.0115344,818,1534,-10.7003,-35.5445
-399,-510,-10.744,36.3486,0.00306301,0.00369072,0.00168475,0.0050906,0.00166313,0.877488,0.00299733,0.0177957,825,1534,-10.744,-36.3486
-392,-510,-10.6512,37.1821,0,0,0,0,0,0,0,-1,832,1534,-10.6512,-37.1822
-385,-510,-7.23199,31.704,0,0,0,0,0,0,0,-1,839,1534,-7.23198,-31.704
-378,-510,-1.78308,13.8044,0,0,0,0,0,0,0,-1,846,1534,-1.78309,-13.8044
-371,-510,-1.74982,13.8027,0,0,0,0,0,0,0,-1,853,1534,-1.74981,-13.8028
-364,-510,-1.3479,13.7771,0,0,0,0,0,0,0,-1,860,1534,-1.34791,-13.7771
-357,-510,-0.254395,8.89575,0,0,0,0,0,0,0,-1,867,1534,-0.254397,-8.89569
-350,-510,0.471191,6.06458,0,0,0,0,0,0,0,-1,874,1534,0.47118,-6.06453
-343,-510,-6.96869,26.3074,0,0,0,0,0,0,0,-1,881,1534,-6.9687,-26.3074
-336,-510,-5.60437,29.5996,0,0,0,0,0,0,0,-1,888,1534,-5.60435,-29.5996
-329,-510,-4.87781,20.6893,0,0,0,0,0,0,0,-1,895,1534,-4.87782,-20.6894
-322,-510,-0.251526,11.973,0,0,0,0,0,0,0,-1,902,1534,-0.251497,-11.9731
-315,-510,-1.73047,10.9796,0,0,0,0,0,0,0,-1,909,1534,-1.73049,-10.9796
-308,-510,-2.05328,9.72034,0,0,0,0,0,0,0,-1,916,1534,-2.05327,-9.72036
-301,-510,-1.85437,11.5869,0,0,0,0,0,0,0,-1,923,1534,-1.85437,-11.5869
-294,-510,0,0,0,0,0,0,0,0,0,-1,930,1534,0,0
-287,-510,0,0,0,0,0,0,0,0,0,-1,937,1534,0,0
-280,-510,0,0,0,0,0,0,0,0,0,-1,944,1534,0,0
-273,-510,0,0,0,0,0,0,0,0,0,-1,951,1534,0,0
-266,-510,0,0,0,0,0,0,0,0,0,-1,958,1534,0,0
-259,-510,0,0,0,0,0,0,0,0,0,-1,965,1534,0,0
-252,-510,0,0,0,0,0,0,0,0,0,-1,972,1534,0,0
-245,-510,0,0,0,0,0,0,0,0,0,-1,979,1534,0,0
-238,-510,0,0,0,0,0,0,0,0,0,-1,986,1534,0,0
-231,-510,0,0,0,0,0,0,0,0,0,-1,993,1534,0,0
-224,-510,0,0,0,0,0,0,0,0,0,-1,1000,1534,0,0
-217,-510,0,0,0,0,0,0,0,0,0,-1,1007,1534,0,0
-210,-510,0,0,0,0,0,0,0,0,0,-1,1014,1534,0,0
-203,-510,0,0,0,0,0,0,0,0,0,-1,1021,1534,0,0
-196,-510,0,0,0,0,0,0,0,0,0,-1,1028,1534,0,0
-189,-510,0,0,0,0,0,0,0,0,0,-1,1035,1534,0,0
-182,-510,0,0,0,0,0,0,0,0,0,-1,1042,1534,0,0
-175,-510,0,0,0,0,0,0,0,0,0,-1,1049,1534,0,0
-168,-510,0,0,0,0,0,0,0,0,0,-1,1056,1534,0,0
-161,-510,0,0,0,0,0,0,0,0,0,-1,1063,1534,0,0
-154,-510,0,0,0,0,0,0,0,0,0,-1,1070,1534,0,0
-147,-510,0,0,0,0,0,0,0,0,0,-1,1077,1534,0,0
-140,-510,0,0,0,0,0,0,0,0,0,-1,1084,1534,0,0
-133,-510,0,0,0,0,0,0,0,0,0,-1,1091,1534,0,0
-126,-510,0,0,0,0,0,0,0,0,0,-1,1098,1534,0,0
-119,-510,0,0,0,0,0,0,0,0,0,-1,1105,1534,0,0
-112,-510,0,0,0,0,0,0,0,0,0,-1,1112,1534,0,0
-105,-510,0,0,0,0,0,0,0,0,0,-1,1119,1534,0,0
-98,-510,0,0,0,0,0,0,0,0,0,-1,1126,1534,0,0
-91,-510,0,0,0,0,0,0,0,0,0,-1,1133,1534,0,0
-84,-510,0,0,0,0,0,0,0,0,0,-1,1140,1534,0,0
-77,-510,0,0,0,0,0,0,0,0,0,-1,1147,1534,0,0
-70,-510,0,0,0,0,0,0,0,0,0,-1,1154,1534,0,0
-63,-510,0,0,0,0,0,0,0,0,0,-1,1161,1534,0,0
-56,-510,0,0,0,0,0,0,0,0,0,-1,1168,1534,0,0
-49,-510,0,0,0,0,0,0,0,0,0,-1,1175,1534,0,0
-42,-510,0,0,0,0,0,0,0,0,0,-1,1182,1534,0,0
-35,-510,0,0,0,0,0,0,0,0,0,-1,1189,1534,0,0
-28,-510,0,0,0,0,0,0,0,0,0,-1,1196,1534,0,0
-21,-510,0,0,0,0,0,0,0,0,0,-1,1203,1534,0,0
-14,-510,0,0,0,0,0,0,0,0,0,-1,1210,1534,0,0
-7,-510,0,0,0,0,0,0,0,0,0,-1,1217,1534,0,0
0,-510,0,0,0,0,0,0,0,0,0,-1,1224,1534,0,0
7,-510,0,0,0,0,0,0,0,0,0,-1,1231,1534,0,0
14,-510,0,0,0,0,0,0,0,0,0,-1,1238,1534,0,0
21,-510,0,0,0,0,0,0,0,0,0,-1,1245,1534,0,0
28,-510,0,0,0,0,0,0,0,0,0,-1,1252,1534,0,0
35,-510,0,0,0,0,0,0,0,0,0,-1,1259,1534,0,0
42,-510,0,0,0,0,0,0,0,0,0,-1,1266,1534,0,0
49,-510,0,0,0,0,0,0,0,0,0,-1,1273,1534,0,0
56,-510,0,0,0,0,0,0,0,0,0,-1,1280,1534,0,0
63,-510,0,0,0,0,0,0,0,0,0,-1,1287,1534,0,0
70,-510,0,0,0,0,0,0,0,0,0,-1,1294,1534,0,0
77,-510,0,0,0,0,0,0,0,0,0,-1,1301,1534,0,0
84,-510,0,0,0,0,0,0,0,0,0,-1,1308,1534,0,0
91,-510,0,0,0,0,0,0,0,0,0,-1,1315,1534,0,0
98,-510,0,0,0,0,0,0,0,0,0,-1,1322,1534,0,0
105,-510,0,0,0,0,0,0,0,0,0,-1,1329,1534,0,0
112,-510,0,0,0,0,0,0,0,0,0,-1,1336,1534,0,0
119,-510,0,0,0,0,0,0,0,0,0,-1,1343,1534,0,0
126,-510,0,0,0,0,0,0,0,0,0,-1,1350,1534,0,0
133,-510,0,0,0,0,0,0,0,0,0,-1,1357,1534,0,0
140,-510,0,0,0,0,0,0,0,0,0,-1,1364,1534,0,0
147,-510,0,0,0,0,0,0,0,0,0,-1,1371,1534,0,0
154,-510,0,0,0,0,0,0,0,0,0,-1,1378,1534,0,0
161,-510,0,0,0,0,0,0,0,0,0,-1,1385,1534,0,0
168,-510,0,0,0,0,0,0,0,0,0,-1,1392,1534,0,0
175,-510,0,0,0,0,0,0,0,0,0,-1,1399,1534,0,0
182,-510,0,0,0,0,0,0,0,0,0,-1,1406,1534,0,0
189,-510,0,0,0,0,0,0,0,0,0,-1,1413,1534,0,0
196,-510,0,0,0,0,0,0,0,0,0,-1,1420,1534,0,0
203,-510,0,0,0,0,0,0,0,0,0,-1,1427,1534,0,0
210,-510,0,0,0,0,0,0,0,0,0,-1,1434,1534,0,0
217,-510,0,0,0,0,0,0,0,0,0,-1,1441,1534,0,0
224,-510,0,0,0,0,0,0,0,0,0,-1,1448,1534,0,0
231,-510,0,0,0,0,0,0,0,0,0,-1,1455,1534,0,0
238,-510,0,0,0,0,0,0,0,0,0,-1,1462,1534,0,0
245,-510,0,0,0,0,0,0,0,0,0,-1,1469,1534,0,0
252,-510,0,0,0,0,0,0,0,0,0,-1,1476,1534,0,0
259,-510,0,0,0,0,0,0,0,0,0,-1,1483,1534,0,0
266,-510,0,0,0,0,0,0,0,0,0,-1,1490,1534,0,0
273,-510,0,0,0,0,0,0,0,0,0,-1,1497,1534,0,0
280,-510,0,0,0,0,0,0,0,0,0,-1,1504,1534,0,0
287,-510,0,0,0,0,0,0,0,0,0,-1,1511,1534,0,0
294,-510,0,0,0,0,0,0,0,0,0,-1,1518,1534,0,0
301,-510,0,0,0,0,0,0,0,0,0,-1,1525,1534,0,0
308,-510,0,0,0,0,0,0,0,0,0,-1,1532,1534,0,0
315,-510,0,0,0,0,0,0,0,0,0,-1,1539,1534,0,0
322,-510,0,0,0,0,0,0,0,0,0,-1,1546,1534,0,0
329,-510,0,0,0,0,0,0,0,0,0,-1,1553,1534,0,0
336,-510,0,0,0,0,0,0,0,0,0,-1,1560,1534,0,0
343,-510,0,0,0,0,0,0,0,0,0,-1,1567,1534,0,0
350,-510,0,0,0,0,0,0,0,0,0,-1,1574,1534,0,0
357,-510,0,0,0,0,0,0,0,0,0,-1,1581,1534,0,0
364,-510,0,0,0,0,0,0,0,0,0,-1,1588,1534,0,0
371,-510,0,0,0,0,0,0,0,0,0,-1,1595,1534,0,0
378,-510,0,0,0,0,0,0,0,0,0,-1,1602,1534,0,0
385,-510,0,0,0,0,0,0,0,0,0,-1,1609,1534,0,0
392,-510,0,0,0,0,0,0,0,0,0,-1,1616,1534,0,0
399,-510,0,0,0,0,0,0,0,0,0,-1,1623,1534,0,0
406,-510,0,0,0,0,0,0,0,0,0,-1,1630,1534,0,0
413,-510,0,0,0,0,0,0,0,0,0,-1,1637,1534,0,0
420,-510,14.1888,6.71936,0,0,0,0,0,0,0,-1,1644,1534,14.1889,-6.71939
427,-510,10.2134,5.59485,0,0,0,0,0,0,0,-1,1651,1534,10.2134,-5.59485
434,-510,11.8219,4.07898,0,0,0,0,0,0,0,-1,1658,1534,11.8219,-4.07895
441,-510,12.6812,3.02991,0,0,0,0,0,0,0,-1,1665,1534,12.6811,-3.0299
448,-510,13.2379,2.2804,0,0,0,0,0,0,0,-1,1672,1534,13.2379,-2.28037
455,-510,9.76892,2.20642,0,0,0,0,0,0,0,-1,1679,1534,9.76894,-2.20647
462,-510,9.84692,2.49182,0,0,0,0,0,0,0,-1,1686,1534,9.84695,-2.49185
469,-510,16.6072,7.26941,0,0,0,0,0,0,0,-1,1693,1534,16.6072,-7.26945
476,-510,15.9199,7.8645,0,0,0,0,0,0,0,-1,1700,1534,15.9199,-7.86455
483,-510,13.0833,8.10938,0,0,0,0,0,0,0,-1,1707,1534,13.0833,-8.10932
490,-510,13.0841,15.3286,0,0,0,0,0,0,0,-1,1714,1534,13.0841,-15.3286
497,-510,15.5652,18.823,0,0,0,0,0,0,0,-1,1721,1534,15.5652,-18.823
504,-510,15.998,18.7478,0,0,0,0,0,0,0,-1,1728,1534,15.998,-18.7478
511,-510,15.9443,18.0476,0,0,0,0,0,0,0,-1,1735,1534,15.9443,-18.0476
518,-510,21.5343,27.1368,0,0,0,0,0,0,0,-1,1742,1534,21.5342,-27.1368
525,-510,27.957,37.0156,0,0,0,0,0,0,0,-1,1749,1534,27.957,-37.0157
532,-510,28.3064,35.9086,0.00898021,0.00809403,-0.00662455,0.0151765,0.00189777,-0.752005,0.00954814,0.0326493,1756,1534,28.3064,-35.9086
539,-510,28.3624,34.9587,0.00717568,0.00642936,-0.00522658,0.0120424,0.00156264,-0.74976,0.00756141,0.0151151,1763,1534,28.3624,-34.9587
546,-510,28.2813,34.2133,0.00570277,0.0049725,-0.00409009,0.009444,0.00123128,-0.74088,0.00592835,0.0145105,1770,1534,28.2812,-34.2132
553,-510,28.2393,33.4088,0.00451251,0.00363939,-0.00309067,0.0071973,0.000954594,-0.715237,0.00451378,0.0143652,1777,1534,28.2392,-33.4088
560,-510,28.1893,32.5583,0.00361169,0.00253256,-0.00229588,0.00543055,0.000713702,-0.669985,0.00340747,0.0142703,1784,1534,28.1894,-32.5584
567,-510,28.1576,31.7201,0.00297523,0.00162402,-0.00174773,0.00417339,0.000425856,-0.600963,0.00265173,0.0137275,1791,1534,28.1576,-31.7202
574,-510,28.1135,30.9094,0.00253836,0.000890435,-0.0013503,0.00329624,0.000132552,-0.511453,0.00215467,0.0147871,1798,1534,28.1136,-30.9094
581,-510,28.0736,30.1459,0.00226688,0.000368915,-0.00108737,0.00276114,-0.000125342,-0.426626,0.00188393,0.0138016,1805,1534,28.0736,-30.1458
588,-510,28.0365,29.3496,0.00223332,3.3325e-05,-0.000994987,0.00261656,-0.000349915,-0.367657,0.00187195,0.0143524,1812,1534,28.0365,-29.3496
595,-510,28.1169,28.3826,0.00233681,-6.58359e-05,-0.000950732,0.0026675,-0.000396527,-0.334739,0.00192418,0.0226565,1819,1534,28.117,-28.3826
602,-510,28.1399,27.4319,0,0,0,0,0,0,0,-1,1826,1534,28.1398,-27.4319
609,-510,21.259,19.222,0,0,0,0,0,0,0,-1,1833,1534,21.259,-19.222
616,-510,18.7024,16.2474,0,0,0,0,0,0,0,-1,1840,1534,18.7024,-16.2474
623,-510,19.6013,14.6211,0,0,0,0,0,0,0,-1,1847,1534,19.6013,-14.6211
630,-510,13.7461,9.30334,0,0,0,0,0,0,0,-1,1854,1534,13.7461,-9.30335
637,-510,11.0155,7.38464,0,0,0,0,0,0,0,-1,1861,1534,11.0155,-7.38463
644,-510,11.5809,7.17126,0,0,0,0,0,0,0,-1,1868,1534,11.5809,-7.17123
651,-510,8.70471,3.5061,0,0,0,0,0,0,0,-1,1875,1534,8.70475,-3.50611
658,-510,0,0,0,0,0,0,0,0,0,-1,1882,1534,0,0
665,-510,0,0,0,0,0,0,0,0,0,-1,1889,1534,0,0
672,-510,0,0,0,0,0,0,0,0,0,-1,1896,1534,0,0
679,-510,0,0,0,0,0,0,0,0,0,-1,1903,1534,0,0
686,-510,0,0,0,0,0,0,0,0,0,-1,1910,1534,0,0
693,-510,0,0,0,0,0,0,0,0,0,-1,1917,1534,0,0
700,-510,0,0,0,0,0,0,0,0,0,-1,1924,1534,0,0
707,-510,0,0,0,0,0,0,0,0,0,-1,1931,1534,0,0
714,-510,0,0,0,0,0,0,0,0,0,-1,1938,1534,0,0
721,-510,0,0,0,0,0,0,0,0,0,-1,1945,1534,0,0
728,-510,0,0,0,0,0,0,0,0,0,-1,1952,1534,0,0
735,-510,0,0,0,0,0,0,0,0,0,-1,1959,1534,0,0
742,-510,0,0,0,0,0,0,0,0,0,-1,1966,1534,0,0
749,-510,0,0,0,0,0,0,0,0,0,-1,1973,1534,0,0
756,-510,0,0,0,0,0,0,0,0,0,-1,1980,1534,0,0
763,-510,0,0,0,0,0,0,0,0,0,-1,1987,1534,0,0
770,-510,0,0,0,0,0,0,0,0,0,-1,1994,1534,0,0
777,-510,0,0,0,0,0,0,0,0,0,-1,2001,1534,0,0
784,-510,0,0,0,0,0,0,0,0,0,-1,2008,1534,0,0
791,-510,0,0,0,0,0,0,0,0,0,-1,2015,1534,0,0
798,-510,0,0,0,0,0,0,0,0,0,-1,2022,1534,0,0
805,-510,0,0,0,0,0,0,0,0,0,-1,2029,1534,0,0
812,-510,0,0,0,0,0,0,0,0,0,-1,2036,1534,0,0
-700,-517,0,0,0,0,0,0,0,0,0,-1,524,1541,0,0
-693,-517,0,0,0,0,0,0,0,0,0,-1,531,1541,0,0
-686,-517,0,0,0,0,0,0,0,0,0,-1,538,1541,0,0
-679,-517,0,0,0,0,0,0,0,0,0,-1,545,1541,0,0
-672,-517,0,0,0,0,0,0,0,0,0,-1,552,1541,0,0
-665,-517,0,0,0,0,0,0,0,0,0,-1,559,1541,0,0
-658,-517,0,0,0,0,0,0,0,0,0,-1,566,1541,0,0
-651,-517,0,0,0,0,0,0,0,0,0,-1,573,1541,0,0
-644,-517,0,0,0,0,0,0,0,0,0,-1,580,1541,0,0
-637,-517,0,0,0,0,0,0,0,0,0,-1,587,1541,0,0
-630,-517,0,0,0,0,0,0,0,0,0,-1,594,1541,0,0
-623,-517,0,0,0,0,0,0,0,0,0,-1,601,1541,0,0
-616,-517,0,0,0,0,0,0,0,0,0,-1,608,1541,0,0
-609,-517,0,0,0,0,0,0,0,0,0,-1,615,1541,0,0
-602,-517,0,0,0,0,0,0,0,0,0,-1,622,1541,0,0
-595,-517,0,0,0,0,0,0,0,0,0,-1,629,1541,0,0
-588,-517,0,0,0,0,0,0,0,0,0,-1,636,1541,0,0
-581,-517,0,0,0,0,0,0,0,0,0,-1,643,1541,0,0
-574,-517,0,0,0,0,0,0,0,0,0,-1,650,1541,0,0
-567,-517,0,0,0,0,0,0,0,0,0,-1,657,1541,0,0
-560,-517,0,0,0,0,0,0,0,0,0,-1,664,1541,0,0
-553,-517,0,0,0,0,0,0,0,0,0,-1,671,1541,0,0
-546,-517,0,0,0,0,0,0,0,0,0,-1,678,1541,0,0
-539,-517,0,0,0,0,0,0,0,0,0,-1,685,1541,0,0
-532,-517,0,0,0,0,0,0,0,0,0,-1,692,1541,0,0
-525,-517,-3.62903,4.3606,0,0,0,0,0,0,0,-1,699,1541,-3.62904,-4.36056
-518,-517,-1.664,2.27209,0,0,0,0,0,0,0,-1,706,1541,-1.66399,-2.27207
-511,-517,-0.999146,5.52063,0,0,0,0,0,0,0,-1,713,1541,-0.999126,-5.52059
-504,-517,-1.06946,8.67432,0,0,0,0,0,0,0,-1,720,1541,-1.06947,-8.6743
-497,-517,-5.43036,17.4033,0,0,0,0,0,0,0,-1,727,1541,-5.43033,-17.4034
-490,-517,-6.20526,19.4496,0,0,0,0,0,0,0,-1,734,1541,-6.20526,-19.4495
-483,-517,-6.2254,20.368,0,0,0,0,0,0,0,-1,741,1541,-6.22542,-20.368
-476,-517,-8.96545,26.8018,0,0,0,0,0,0,0,-1,748,1541,-8.96548,-26.8017
-469,-517,-9.36743,27.9752,0,0,0,0,0,0,0,-1,755,1541,-9.36741,-27.9752
-462,-517,-9.50238,28.8286,0.00281714,0.00125722,0.00278486,0.0049292,-0.000854834,0.648861,0.00360502,0.0355029,762,1541,-9.50235,-28.8286
-455,-517,-9.52747,29.7379,0.00210885,0.000712454,0.00192494,0.00345831,-0.000637002,0.611421,0.00254459,0.0210269,769,1541,-9.52747,-29.738
-448,-517,-9.52838,30.6034,0.00165193,0.000459847,0.0013639,0.00254434,-0.000432563,0.579397,0.00185728,0.0150542,776,1541,-9.52836,-30.6034
-441,-517,-9.6001,31.4371,0.00136966,0.000404857,0.000979184,0.00197882,-0.000204306,0.55652,0.00139232,0.0124925,783,1541,-9.60008,-31.4371
-434,-517,-9.67108,32.2623,0.00123362,0.000557104,0.000763165,0.00173013,6.05941e-05,0.576793,0.00113376,0.0152571,790,1541,-9.67111,-32.2623
-427,-517,-9.72583,33.077,0.00117575,0.000754708,0.000617169,0.00161731,0.000313142,0.621034,0.000990467,0.0147856,797,1541,-9.72581,-33.0771
-420,-517,-9.75171,33.9199,0.00124633,0.00109282,0.000571775,0.00174648,0.000592676,0.718677,0.00102553,0.0297705,804,1541,-9.75169,-33.9199
-413,-517,-9.83386,34.7427,0.00149947,0.0015665,0.000674624,0.00220844,0.000857525,0.810218,0.0012856,0.0167161,811,1541,-9.83387,-34.7426
-406,-517,-9.86292,35.5989,0.00187126,0.00217614,0.000879321,0.00291614,0.00113126,0.871225,0.00169767,0.0128167,818,1541,-9.86293,-35.5988
-399,-517,-9.89282,36.4176,0.00237212,0.0028147,0.00112807,0.00374298,0.00144384,0.882251,0.00217973,0.0118087,825,1541,-9.89282,-36.4176
-392,-517,-9.9184,37.2461,0.00281201,0.00358141,0.00134513,0.00459577,0.00179765,0.924677,0.00267425,0.0216199,832,1541,-9.9184,-37.2461
-385,-517,-9.8772,38.1648,0,0,0,0,0,0,0,-1,839,1541,-9.87721,-38.1648
-378,-517,-6.61444,32.6315,0,0,0,0,0,0,0,-1,846,1541,-6.61445,-32.6315
-371,-517,-1.37585,13.2646,0,0,0,0,0,0,0,-1,853,1541,-1.37586,-13.2647
-364,-517,-1.26245,12.6289,0,0,0,0,0,0,0,-1,860,1541,-1.26243,-12.6289
-357,-517,-1.23889,12.979,0,0,0,0,0,0,0,-1,867,1541,-1.23891,-12.979
-350,-517,-5.40198,23.8954,0,0,0,0,0,0,0,-1,874,1541,-5.40196,-23.8954
-343,-517,-5.45844,29.2598,0,0,0,0,0,0,0,-1,881,1541,-5.45842,-29.2598
-336,-517,-4.53223,29.6708,0,0,0,0,0,0,0,-1,888,1541,-4.53221,-29.6708
-329,-517,-3.60602,30.0817,0,0,0,0,0,0,0,-1,895,1541,-3.60601,-30.0817
-322,-517,-4.21246,19.5819,0,0,0,0,0,0,0,-1,902,1541,-4.21244,-19.5819
-315,-517,-0.987976,7.29749,0,0,0,0,0,0,0,-1,909,1541,-0.987993,-7.29743
-308,-517,3.27911,17.621,0,0,0,0,0,0,0,-1,916,1541,3.27913,-17.621
-301,-517,-1.69141,8.87488,0,0,0,0,0,0,0,-1,923,1541,-1.69141,-8.87485
-294,-517,-1.72583,9.92566,0,0,0,0,0,0,0,-1,930,1541,-1.72584,-9.92571
-287,-517,-3.09045,12.1472,0,0,0,0,0,0,0,-1,937,1541,-3.09043,-12.1472
-280,-517,0,0,0,0,0,0,0,0,0,-1,944,1541,0,0
-273,-517,0,0,0,0,0,0,0,0,0,-1,951,1541,0,0
-266,-517,0,0,0,0,0,0,0,0,0,-1,958,1541,0,0
-259,-517,0,0,0,0,0,0,0,0,0,-1,965,1541,0,0
-252,-517,0,0,0,0,0,0,0,0,0,-1,972,1541,0,0
-245,-517,0,0,0,0,0,0,0,0,0,-1,979,1541,0,0
-238,-517,0,0,0,0,0,0,0,0,0,-1,986,1541,0,0
-231,-517,0,0,0,0,0,0,0,0,0,-1,993,1541,0,0
-224,-517,0,0,0,0,0,0,0,0,0,-1,1000,1541,0,0
-217,-517,0,0,0,0,0,0,0,0,0,-1,1007,1541,0,0
-210,-517,0,0,0,0,0,0,0,0,0,-1,1014,1541,0,0
-203,-517,0,0,0,0,0,0,0,0,0,-1,1021,1541,0,0
-196,-517,0,0,0,0,0,0,0,0,0,-1,1028,1541,0,0
-189,-517,0,0,0,0,0,0,0,0,0,-1,1035,1541,0,0
-182,-517,0,0,0,0,0,0,0,0,0,-1,1042,1541,0,0
-175,-517,0,0,0,0,0,0,0,0,0,-1,1049,1541,0,0
-168,-517,0,0,0,0,0,0,0,0,0,-1,1056,1541,0,0
-161,-517,0,0,0,0,0,0,0,0,0,-1,1063,1541,0,0
-154,-517,0,0,0,0,0,0,0,0,0,-1,1070,1541,0,0
-147,-517,0,0,0,0,0,0,0,0,0,-1,1077,1541,0,0
-140,-517,0,0,0,0,0,0,0,0,0,-1,1084,1541,0,0
-133,-517,0,0,0,0,0,0,0,0,0,-1,1091,1541,0,0
-126,-517,0,0,0,0,0,0,0,0,0,-1,1098,1541,0,0
-119,-517,0,0,0,0,0,0,0,0,0,-1,1105,1541,0,0
-112,-517,0,0,0,0,0,0,0,0,0,-1,1112,1541,0,0
-105,-517,0,0,0,0,0,0,0,0,0,-1,1119,1541,0,0
-98,-517,0,0,0,0,0,0,0,0,0,-1,1126,1541,0,0
-91,-517,0,0,0,0,0,0,0,0,0,-1,1133,1541,0,0
-84,-517,0,0,0,0,0,0,0,0,0,-1,1140,1541,0,0
-77,-517,0,0,0,0,0,0,0,0,0,-1,1147,1541,0,0
-70,-517,0,0,0,0,0,0,0,0,0,-1,1154,1541,0,0
-63,-517,0,0,0,0,0,0,0,0,0,-1,1161,1541,0,0
-56,-517,0,0,0,0,0,0,0,0,0,-1,1168,1541,0,0
-49,-517,0,0,0,0,0,0,0,0,0,-1,1175,1541,0,0
-42,-517,0,0,0,0,0,0,0,0,0,-1,1182,1541,0,0
-35,-517,0,0,0,0,0,0,0,0,0,-1,1189,1541,0,0
-28,-517,0,0,0,0,0,0,0,0,0,-1,1196,1541,0,0
-21,-517,0,0,0,0,0,0,0,0,0,-1,1203,1541,0,0
-14,-517,0,0,0,0,0,0,0,0,0,-1,1210,1541,0,0
-7,-517,0,0,0,0,0,0,0,0,0,-1,1217,1541,0,0
0,-517,0,0,0,0,0,0,0,0,0,-1,1224,1541,0,0
7,-517,0,0,0,0,0,0,0,0,0,-1,1231,1541,0,0
14,-517,0,0,0,0,0,0,0,0,0,-1,1238,1541,0,0
21,-517,0,0,0,0,0,0,0,0,0,-1,1245,1541,0,0
28,-517,0,0,0,0,0,0,0,0,0,-1,1252,1541,0,0
35,-517,0,0,0,0,0,0,0,0,0,-1,1259,1541,0,0
42,-517,0,0,0,0,0,0,0,0,0,-1,1266,1541,0,0
49,-517,0,0,0,0,0,0,0,0,0,-1,1273,1541,0,0
56,-517,0,0,0,0,0,0,0,0,0,-1,1280,1541,0,0
63,-517,0,0,0,0,0,0,0,0,0,-1,1287,1541,0,0
70,-517,0,0,0,0,0,0,0,0,0,-1,1294,1541,0,0
77,-517,0,0,0,0,0,0,0,0,0,-1,1301,1541,0,0
84,-517,0,0,0,0,0,0,0,0,0,-1,1308,1541,0,0
91,-517,0,0,0,0,0,0,0,0,0,-1,1315,1541,0,0
98,-517,0,0,0,0,0,0,0,0,0,-1,1322,1541,0,0
105,-517,0,0,0,0,0,0,0,0,0,-1,1329,1541,0,0
112,-517,0,0,0,0,0,0,0,0,0,-1,1336,1541,0,0
119,-517,0,0,0,0,0,0,0,0,0,-1,1343,1541,0,0
126,-517,0,0,0,0,0,0,0,0,0,-1,1350,1541,0,0
133,-517,0,0,0,0,0,0,0,0,0,-1,1357,1541,0,0
140,-517,0,0,0,0,0,0,0,0,0,-1,1364,1541,0,0
147,-517,0,0,0,0,0,0,0,0,0,-1,1371,1541,0,0
154,-517,0,0,0,0,0,0,0,0,0,-1,1378,1541,0,0
161,-517,0,0,0,0,0,0,0,0,0,-1,1385,1541,0,0
168,-517,0,0,0,0,0,0,0,0,0,-1,1392,1541,0,0
175,-517,0,0,0,0,0,0,0,0,0,-1,1399,1541,0,0
182,-517,0,0,0,0,0,0,0,0,0,-1,1406,1541,0,0
189,-517,0,0,0,0,0,0,0,0,0,-1,1413,1541,0,0
196,-517,0,0,0,0,0,0,0,0,0,-1,1420,1541,0,0
203,-517,0,0,0,0,0,0,0,0,0,-1,1427,1541,0,0
210,-517,0,0,0,0,0,0,0,0,0,-1,1434,1541,0,0
217,-517,0,0,0,0,0,0,0,0,0,-1,1441,1541,0,0
224,-517,0,0,0,0,0,0,0,0,0,-1,1448,1541,0,0
231,-517,0,0,0,0,0,0,0,0,0,-1,1455,1541,0,0
238,-517,0,0,0,0,0,0,0,0,0,-1,1462,1541,0,0
245,-517,0,0,0,0,0,0,0,0,0,-1,1469,1541,0,0
252,-517,0,0,0,0,0,0,0,0,0,-1,1476,1541,0,0
259,-517,0,0,0,0,0,0,0,0,0,-1,1483,1541,0,0
266,-517,0,0,0,0,0,0,0,0,0,-1,1490,1541,0,0
273,-517,0,0,0,0,0,0,0,0,0,-1,1497,1541,0,0
280,-517,0,0,0,0,0,0,0,0,0,-1,1504,1541,0,0
287,-517,0,0,0,0,0,0,0,0,0,-1,1511,1541,0,0
294,-517,0,0,0,0,0,0,0,0,0,-1,1518,1541,0,0
301,-517,0,0,0,0,0,0,0,0,0,-1,1525,1541,0,0
308,-517,0,0,0,0,0,0,0,0,0,-1,1532,1541,0,0
315,-517,0,0,0,0,0,0,0,0,0,-1,1539,1541,0,0
322,-517,0,0,0,0,0,0,0,0,0,-1,1546,1541,0,0
329,-517,0,0,0,0,0,0,0,0,0,-1,1553,1541,0,0
336,-517,0,0,0,0,0,0,0,0,0,-1,1560,1541,0,0
343,-517,0,0,0,0,0,0,0,0,0,-1,1567,1541,0,0
350,-517,0,0,0,0,0,0,0,0,0,-1,1574,1541,0,0
357,-517,0,0,0,0,0,0,0,0,0,-1,1581,1541,0,0
364,-517,0,0,0,0,0,0,0,0,0,-1,1588,1541,0,0
371,-517,0,0,0,0,0,0,0,0,0,-1,1595,1541,0,0
378,-517,0,0,0,0,0,0,0,0,0,-1,1602,1541,0,0
385,-517,0,0,0,0,0,0,0,0,0,-1,1609,1541,0,0
392,-517,0,0,0,0,0,0,0,0,0,-1,1616,1541,0,0
399,-517,0,0,0,0,0,0,0,0,0,-1,1623,1541,0,0
406,-517,13.1395,7.01978,0,0,0,0,0,0,0,-1,1630,1541,13.1396,-7.01981
413,-517,12.8859,6.31592,0,0,0,0,0,0,0,-1,1637,1541,12.8858,-6.31588
420,-517,12.4789,6.20337,0,0,0,0,0,0,0,-1,1644,1541,12.4789,-6.20333
427,-517,11.647,4.66516,0,0,0,0,0,0,0,-1,1651,1541,11.647,-4.66519
434,-517,12.3719,3.92773,0,0,0,0,0,0,0,-1,1658,1541,12.3719,-3.92776
441,-517,13.146,3.14124,0,0,0,0,0,0,0,-1,1665,1541,13.146,-3.14121
448,-517,13.8861,2.36682,0,0,0,0,0,0,0,-1,1672,1541,13.8861,-2.36684
455,-517,13.6012,4.06335,0,0,0,0,0,0,0,-1,1679,1541,13.6012,-4.06335
462,-517,14.8956,7.0752,0,0,0,0,0,0,0,-1,1686,1541,14.8956,-7.07525
469,-517,13.6292,6.87744,0,0,0,0,0,0,0,-1,1693,1541,13.6292,-6.87739
476,-517,17.1632,14.1487,0,0,0,0,0,0,0,-1,1700,1541,17.1632,-14.1487
483,-517,16.5157,15.0776,0,0,0,0,0,0,0,-1,1707,1541,16.5157,-15.0777
490,-517,15.5439,18.0258,0,0,0,0,0,0,0,-1,1714,1541,15.5439,-18.0258
497,-517,16.0292,18.7786,0,0,0,0,0,0,0,-1,1721,1541,16.0291,-18.7786
504,-517,17.3815,22.3873,0,0,0,0,0,0,0,-1,1728,1541,17.3814,-22.3873
511,-517,16.9674,21.8491,0,0,0,0,0,0,0,-1,1735,1541,16.9674,-21.8491
518,-517,27.2347,37.5715,0,0,0,0,0,0,0,-1,1742,1541,27.2348,-37.5716
525,-517,27.4323,36.7186,0.00881686,0.00820996,-0.00659619,0.0151166,0.00191024,-0.762412,0.00950517,0.0274466,1749,1541,27.4322,-36.7187
532,-517,27.5878,35.7883,0.00702018,0.00662045,-0.00531257,0.0121366,0.00150399,-0.766596,0.00763928,0.0127546,1756,1541,27.5878,-35.7883
539,-517,27.5674,34.984,0.00558594,0.00527623,-0.0042184,0.00965233,0.00120984,-0.767051,0.00607192,0.0141236,1763,1541,27.5673,-34.984
546,-517,27.5116,34.2318,0.00442052,0.00400994,-0.0032938,0.00751541,0.000915039,-0.754275,0.00473483,0.0156715,1770,1541,27.5116,-34.2318
553,-517,27.4557,33.4246,0.00346356,0.00283608,-0.00246026,0.00563,0.000669643,-0.721978,0.00355123,0.0195533,1777,1541,27.4557,-33.4246
560,-517,27.4156,32.6031,0.00277471,0.00183535,-0.00179137,0.00415694,0.00045311,-0.657189,0.00263329,0.0181453,1784,1541,27.4156,-32.6032
567,-517,27.3872,31.8007,0.00232864,0.000975194,-0.00132946,0.0031437,0.00016013,-0.54998,0.00204451,0.0142524,1791,1541,27.3873,-31.8006
574,-517,27.3359,30.9629,0.0020682,0.000248122,-0.000993213,0.00250525,-0.000188926,-0.414536,0.00173657,0.0156954,1798,1541,27.3359,-30.9629
581,-517,27.2653,30.1638,0.00202893,-0.000274924,-0.000830724,0.00229722,-0.000543223,-0.312394,0.00174104,0.0174685,1805,1541,27.2653,-30.1638
588,-517,27.2268,29.355,0.00224787,-0.000601734,-0.000844809,0.0024795,-0.000833363,-0.267603,0.00198983,0.0184596,1812,1541,27.2268,-29.3549
595,-517,27.2324,28.5562,0.00253677,-0.000663217,-0.00096268,0.00280405,-0.000930502,-0.270826,0.00224477,0.0485214,1819,1541,27.2324,-28.5561
602,-517,27.4781,27.4673,0,0,0,0,0,0,0,-1,1826,1541,27.4781,-27.4673
609,-517,12.6417,10.8751,0,0,0,0,0,0,0,-1,1833,1541,12.6417,-10.8751
616,-517,14.205,10.3193,0,0,0,0,0,0,0,-1,1840,1541,14.205,-10.3194
623,-517,12.578,10.0779,0,0,0,0,0,0,0,-1,1847,1541,12.578,-10.0779
630,-517,11.7035,7.47815,0,0,0,0,0,0,0,-1,1854,1541,11.7035,-7.47812
637,-517,11.5172,5.79822,0,0,0,0,0,0,0,-1,1861,1541,11.5173,-5.79825
644,-517,11.4232,3.30579,0,0,0,0,0,0,0,-1,1868,1541,11.4232,-3.30574
651,-517,0,0,0,0,0,0,0,0,0,-1,1875,1541,0,0
658,-517,0,0,0,0,0,0,0,0,0,-1,1882,1541,0,0
665,-517,0,0,0,0,0,0,0,0,0,-1,1889,1541,0,0
672,-517,0,0,0,0,0,0,0,0,0,-1,1896,1541,0,0
679,-517,0,0,0,0,0,0,0,0,0,-1,1903,1541,0,0
686,-517,0,0,0,0,0,0,0,0,0,-1,1910,1541,0,0
693,-517,0,0,0,0,0,0,0,0,0,-1,1917,1541,0,0
700,-517,0,0,0,0,0,0,0,0,0,-1,1924,1541,0,0
707,-517,0,0,0,0,0,0,0,0,0,-1,1931,1541,0,0
714,-517,0,0,0,0,0,0,0,0,0,-1,1938,1541,0,0
721,-517,0,0,0,0,0,0,0,0,0,-1,1945,1541,0,0
728,-517,0,0,0,0,0,0,0,0,0,-1,1952,1541,0,0
735,-517,0,0,0,0,0,0,0,0,0,-1,1959,1541,0,0
742,-517,0,0,0,0,0,0,0,0,0,-1,1966,1541,0,0
749,-517,0,0,0,0,0,0,0,0,0,-1,1973,1541,0,0
756,-517,0,0,0,0,0,0,0,0,0,-1,1980,1541,0,0
763,-517,0,0,0,0,0,0,0,0,0,-1,1987,1541,0,0
770,-517,0,0,0,0,0,0,0,0,0,-1,1994,1541,0,0
777,-517,0,0,0,0,0,0,0,0,0,-1,2001,1541,0,0
784,-517,0,0,0,0,0,0,0,0,0,-1,2008,1541,0,0
791,-517,0,0,0,0,0,0,0,0,0,-1,2015,1541,0,0
798,-517,0,0,0,0,0,0,0,0,0,-1,2022,1541,0,0
805,-517,0,0,0,0,0,0,0,0,0,-1,2029,1541,0,0
812,-517,0,0,0,0,0,0,0,0,0,-1,2036,1541,0,0
-700,-524,0,0,0,0,0,0,0,0,0,-1,524,1548,0,0
-693,-524,0,0,0,0,0,0,0,0,0,-1,531,1548,0,0
-686,-524,0,0,0,0,0,0,0,0,0,-1,538,1548,0,0
-679,-524,0,0,0,0,0,0,0,0,0,-1,545,1548,0,0
-672,-524,0,0,0,0,0,0,0,0,0,-1,552,1548,0,0
-665,-524,0,0,0,0,0,0,0,0,0,-1,559,1548,0,0
-658,-524,0,0,0,0,0,0,0,0,0,-1,566,1548,0,0
-651,-524,0,0,0,0,0,0,0,0,0,-1,573,1548,0,0
-644,-524,0,0,0,0,0,0,0,0,0,-1,580,1548,0,0
-637,-524,0,0,0,0,0,0,0,0,0,-1,587,1548,0,0
-630,-524,0,0,0,0,0,0,0,0,0,-1,594,1548,0,0
-623,-524,0,0,0,0,0,0,0,0,0,-1,601,1548,0,0
-616,-524,0,0,0,0,0,0,0,0,0,-1,608,1548,0,0
-609,-524,0,0,0,0,0,0,0,0,0,-1,615,1548,0,0
-602,-524,0,0,0,0,0,0,0,0,0,-1,622,1548,0,0
-595,-524,0,0,0,0,0,0,0,0,0,-1,629,1548,0,0
-588,-524,0,0,0,0,0,0,0,0,0,-1,636,1548,0,0
-581,-524,0,0,0,0,0,0,0,0,0,-1,643,1548,0,0
-574,-524,0,0,0,0,0,0,0,0,0,-1,650,1548,0,0
-567,-524,0,0,0,0,0,0,0,0,0,-1,657,1548,0,0
-560,-524,0,0,0,0,0,0,0,0,0,-1,664,1548,0,0
-553,-524,0,0,0,0,0,0,0,0,0,-1,671,1548,0,0
-546,-524,0,0,0,0,0,0,0,0,0,-1,678,1548,0,0
-539,-524,0,0,0,0,0,0,0,0,0,-1,685,1548,0,0
-532,-524,0,0,0,0,0,0,0,0,0,-1,692,1548,0,0
-525,-524,-0.215515,3.97131,0,0,0,0,0,0,0,-1,699,1548,-0.215501,-3.97136
-518,-524,-0.806274,4.35632,0,0,0,0,0,0,0,-1,706,1548,-0.806259,-4.35633
-511,-524,-1.08301,4.29004,0,0,0,0,0,0,0,-1,713,1548,-1.08301,-4.29006
-504,-524,-1.28821,3.98145,0,0,0,0,0,0,0,-1,720,1548,-1.28822,-3.98151
-497,-524,-0.328491,8.63416,0,0,0,0,0,0,0,-1,727,1548,-0.328487,-8.63411
-490,-524,-6.65582,19.3033,0,0,0,0,0,0,0,-1,734,1548,-6.65583,-19.3034
-483,-524,-7.57153,22.1989,0,0,0,0,0,0,0,-1,741,1548,-7.57151,-22.1988
-476,-524,-8.51898,26.7598,0,0,0,0,0,0,0,-1,748,1548,-8.51897,-26.7597
-469,-524,-8.46796,27.7797,0,0,0,0,0,0,0,-1,755,1548,-8.46799,-27.7796
-462,-524,-8.9856,28.8468,0,0,0,0,0,0,0,-1,762,1548,-8.98557,-28.8468
-455,-524,-8.78137,29.8064,0.00234838,0.000470223,0.00199281,0.0036123,-0.00079369,0.565213,0.00271176,0.0441395,769,1548,-8.78137,-29.8064
-448,-524,-8.73962,30.6497,0.00179917,0.00021311,0.00144744,0.00265659,-0.000644305,0.534789,0.00202037,0.0190059,776,1548,-8.7396,-30.6497
-441,-524,-8.77881,31.4938,0.00143864,0.000123446,0.00104331,0.00201431,-0.000452218,0.504198,0.00151626,0.0116104,783,1548,-8.7788,-31.4938
-434,-524,-8.80719,32.3207,0.00122933,0.000222349,0.00078517,0.00165857,-0.000206897,0.500299,0.00118074,0.0136521,790,1548,-8.80721,-32.3207
-427,-524,-8.86298,33.1403,0.00109464,0.000362636,0.000583906,0.00141777,3.95059e-05,0.505445,0.000932292,0.0165129,797,1548,-8.86297,-33.1402
-420,-524,-8.92761,33.9635,0.00107182,0.000624552,0.000462279,0.00136172,0.000334656,0.560109,0.000819368,0.0415282,804,1548,-8.9276,-33.9635
-413,-524,-9.02411,34.7865,0.00122656,0.00100207,0.000473267,0.00160071,0.00062792,0.668962,0.000931295,0.0386117,811,1548,-9.02409,-34.7865
-406,-524,-9.02032,35.6378,0.00150239,0.00149597,0.000567904,0.0020671,0.000931271,0.782572,0.00119539,0.0138579,818,1548,-9.02032,-35.6378
-399,-524,-9.06189,36.4423,0.00186231,0.00204054,0.000697453,0.00265455,0.0012483,0.84894,0.00153351,0.00980185,825,1548,-9.06188,-36.4422
-392,-524,-9.11517,37.2419,0.00222024,0.00267334,0.000843491,0.00332018,0.00157341,0.916595,0.00191778,0.0106644,832,1548,-9.11518,-37.242
-385,-524,-9.15796,38.1003,0.00261992,0.00337127,0.00111156,0.00416892,0.00182227,0.948357,0.00241327,0.0193159,839,1548,-9.15797,-38.1004
-378,-524,-9.13739,39.0146,0,0,0,0,0,0,0,-1,846,1548,-9.1374,-39.0146
-371,-524,-4.20789,29.1592,0,0,0,0,0,0,0,-1,853,1548,-4.2079,-29.1592
-364,-524,-0.712097,14.9871,0,0,0,0,0,0,0,-1,860,1548,-0.712116,-14.9871
-357,-524,-1.34052,14.7448,0,0,0,0,0,0,0,-1,867,1548,-1.34054,-14.7447
-350,-524,-4.31909,25.032,0,0,0,0,0,0,0,-1,874,1548,-4.31906,-25.0319
-343,-524,-3.69696,28.6923,0,0,0,0,0,0,0,-1,881,1548,-3.69694,-28.6922
-336,-524,-3.4873,29.655,0,0,0,0,0,0,0,-1,888,1548,-3.48728,-29.6551
-329,-524,-3.21936,30.5509,0,0,0,0,0,0,0,-1,895,1548,-3.21933,-30.5509
-322,-524,-4.31378,25.6389,0,0,0,0,0,0,0,-1,902,1548,-4.31379,-25.639
-315,-524,-1.90839,19.4824,0,0,0,0,0,0,0,-1,909,1548,-1.90838,-19.4824
-308,-524,-2.36938,19.3059,0,0,0,0,0,0,0,-1,916,1548,-2.3694,-19.3058
-301,-524,2.72394,17.7618,0,0,0,0,0,0,0,-1,923,1548,2.72396,-17.7619
-294,-524,-1.52515,9.05408,0,0,0,0,0,0,0,-1,930,1548,-1.52512,-9.05411
-287,-524,-0.962219,10.3199,0,0,0,0,0,0,0,-1,937,1548,-0.962241,-10.32
-280,-524,-1.36255,10.3859,0,0,0,0,0,0,0,-1,944,1548,-1.36253,-10.3859
-273,-524,0,0,0,0,0,0,0,0,0,-1,951,1548,0,0
-266,-524,0,0,0,0,0,0,0,0,0,-1,958,1548,0,0
-259,-524,0,0,0,0,0,0,0,0,0,-1,965,1548,0,0
-252,-524,0,0,0,0,0,0,0,0,0,-1,972,1548,0,0
-245,-524,0,0,0,0,0,0,0,0,0,-1,979,1548,0,0
-238,-524,0,0,0,0,0,0,0,0,0,-1,986,1548,0,0
-231,-524,0,0,0,0,0,0,0,0,0,-1,993,1548,0,0
-224,-524,0,0,0,0,0,0,0,0,0,-1,1000,1548,0,0
-217,-524,0,0,0,0,0,0,0,0,0,-1,1007,1548,0,0
-210,-524,0,0,0,0,0,0,0,0,0,-1,1014,1548,0,0
-203,-524,0,0,0,0,0,0,0,0,0,-1,1021,1548,0,0
-196,-524,0,0,0,0,0,0,0,0,0,-1,1028,1548,0,0
-189,-524,0,0,0,0,0,0,0,0,0,-1,1035,1548,0,0
-182,-524,0,0,0,0,0,0,0,0,0,-1,1042,1548,0,0
-175,-524,0,0,0,0,0,0,0,0,0,-1,1049,1548,0,0
-168,-524,0,0,0,0,0,0,0,0,0,-1,1056,1548,0,0
-161,-524,0,0,0,0,0,0,0,0,0,-1,1063,1548,0,0
-154,-524,0,0,0,0,0,0,0,0,0,-1,1070,1548,0,0
-147,-524,0,0,0,0,0,0,0,0,0,-1,1077,1548,0,0
-140,-524,0,0,0,0,0,0,0,0,0,-1,1084,1548,0,0
-133,-524,0,0,0,0,0,0,0,0,0,-1,1091,1548,0,0
-126,-524,0,0,0,0,0,0,0,0,0,-1,1098,1548,0,0
-119,-524,0,0,0,0,0,0,0,0,0,-1,1105,1548,0,0
-112,-524,0,0,0,0,0,0,0,0,0,-1,1112,1548,0,0
-105,-524,0,0,0,0,0,0,0,0,0,-1,1119,1548,0,0
-98,-524,0,0,0,0,0,0,0,0,0,-1,1126,1548,0,0
-91,-524,0,0,0,0,0,0,0,0,0,-1,1133,1548,0,0
-84,-524,0,0,0,0,0,0,0,0,0,-1,1140,1548,0,0
-77,-524,0,0,0,0,0,0,0,0,0,-1,1147,1548,0,0
-70,-524,0,0,0,0,0,0,0,0,0,-1,1154,1548,0,0
-63,-524,0,0,0,0,0,0,0,0,0,-1,1161,1548,0,0
-56,-524,0,0,0,0,0,0,0,0,0,-1,1168,1548,0,0
-49,-524,0,0,0,0,0,0,0,0,0,-1,1175,1548,0,0
-42,-524,0,0,0,0,0,0,0,0,0,-1,1182,1548,0,0
-35,-524,0,0,0,0,0,0,0,0,0,-1,1189,1548,0,0
-28,-524,0,0,0,0,0,0,0,0,0,-1,1196,1548,0,0
-21,-524,0,0,0,0,0,0,0,0,0,-1,1203,1548,0,0
-14,-524,0,0,0,0,0,0,0,0,0,-1,1210,1548,0,0
-7,-524,0,0,0,0,0,0,0,0,0,-1,1217,1548,0,0
0,-524,0,0,0,0,0,0,0,0,0,-1,1224,1548,0,0
7,-524,0,0,0,0,0,0,0,0,0,-1,1231,1548,0,0
14,-524,0,0,0,0,0,0,0,0,0,-1,1238,1548,0,0
21,-524,0,0,0,0,0,0,0,0,0,-1,1245,1548,0,0
28,-524,0,0,0,0,0,0,0,0,0,-1,1252,1548,0,0
35,-524,0,0,0,0,0,0,0,0,0,-1,1259,1548,0,0
42,-524,0,0,0,0,0,0,0,0,0,-1,1266,1548,0,0
49,-524,0,0,0,0,0,0,0,0,0,-1,1273,1548,0,0
56,-524,0,0,0,0,0,0,0,0,0,-1,1280,1548,0,0
63,-524,0,0,0,0,0,0,0,0,0,-1,1287,1548,0,0
70,-524,0,0,0,0,0,0,0,0,0,-1,1294,1548,0,0
77,-524,0,0,0,0,0,0,0,0,0,-1,1301,1548,0,0
84,-524,0,0,0,0,0,0,0,0,0,-1,1308,1548,0,0
91,-524,0,0,0,0,0,0,0,0,0,-1,1315,1548,0,0
98,-524,0,0,0,0,0,0,0,0,0,-1,1322,1548,0,0
105,-524,0,0,0,0,0,0,0,0,0,-1,1329,1548,0,0
112,-524,0,0,0,0,0,0,0,0,0,-1,1336,1548,0,0
119,-524,0,0,0,0,0,0,0,0,0,-1,1343,1548,0,0
126,-524,0,0,0,0,0,0,0,0,0,-1,1350,1548,0,0
133,-524,0,0,0,0,0,0,0,0,0,-1,1357,1548,0,0
140,-524,0,0,0,0,0,0,0,0,0,-1,1364,1548,0,0
147,-524,0,0,0,0,0,0,0,0,0,-1,1371,1548,0,0
154,-524,0,0,0,0,0,0,0,0,0,-1,1378,1548,0,0
161,-524,0,0,0,0,0,0,0,0,0,-1,1385,1548,0,0
168,-524,0,0,0,0,0,0,0,0,0,-1,1392,1548,0,0
175,-524,0,0,0,0,0,0,0,0,0,-1,1399,1548,0,0
182,-524,0,0,0,0,0,0,0,0,0,-1,1406,1548,0,0
189,-524,0,0,0,0,0,0,0,0,0,-1,1413,1548,0,0
196,-524,0,0,0,0,0,0,0,0,0,-1,1420,1548,0,0
203,-524,0,0,0,0,0,0,0,0,0,-1,1427,1548,0,0
210,-524,0,0,0,0,0,0,0,0,0,-1,1434,1548,0,0
217,-524,0,0,0,0,0,0,0,0,0,-1,1441,1548,0,0
224,-524,0,0,0,0,0,0,0,0,0,-1,1448,1548,0,0
231,-524,0,0,0,0,0,0,0,0,0,-1,1455,1548,0,0
238,-524,0,0,0,0,0,0,0,0,0,-1,1462,1548,0,0
245,-524,0,0,0,0,0,0,0,0,0,-1,1469,1548,0,0
252,-524,0,0,0,0,0,0,0,0,0,-1,1476,1548,0,0
259,-524,0,0,0,0,0,0,0,0,0,-1,1483,1548,0,0
266,-524,0,0,0,0,0,0,0,0,0,-1,1490,1548,0,0
273,-524,0,0,0,0,0,0,0,0,0,-1,1497,1548,0,0
280,-524,0,0,0,0,0,0,0,0,0,-1,1504,1548,0,0
287,-524,0,0,0,0,0,0,0,0,0,-1,1511,1548,0,0
294,-524,0,0,0,0,0,0,0,0,0,-1,1518,1548,0,0
301,-524,0,0,0,0,0,0,0,0,0,-1,1525,1548,0,0
308,-524,0,0,0,0,0,0,0,0,0,-1,1532,1548,0,0
315,-524,0,0,0,0,0,0,0,0,0,-1,1539,1548,0,0
322,-524,0,0,0,0,0,0,0,0,0,-1,1546,1548,0,0
329,-524,0,0,0,0,0,0,0,0,0,-1,1553,1548,0,0
336,-524,0,0,0,0,0,0,0,0,0,-1,1560,1548,0,0
343,-524,0,0,0,0,0,0,0,0,0,-1,1567,1548,0,0
350,-524,0,0,0,0,0,0,0,0,0,-1,1574,1548,0,0
357,-524,0,0,0,0,0,0,0,0,0,-1,1581,1548,0,0
364,-524,0,0,0,0,0,0,0,0,0,-1,1588,1548,0,0
371,-524,0,0,0,0,0,0,0,0,0,-1,1595,1548,0,0
378,-524,0,0,0,0,0,0,0,0,0,-1,1602,1548,0,0
385,-524,0,0,0,0,0,0,0,0,0,-1,1609,1548,0,0
392,-524,0,0,0,0,0,0,0,0,0,-1,1616,1548,0,0
399,-524,8.81848,5.05774,0,0,0,0,0,0,0,-1,1623,1548,8.81843,-5.05769
406,-524,8.64294,6.06799,0,0,0,0,0,0,0,-1,1630,1548,8.6429,-6.06805
413,-524,11.677,6.41858,0,0,0,0,0,0,0,-1,1637,1548,11.677,-6.41864
420,-524,11.4913,6.36401,0,0,0,0,0,0,0,-1,1644,1548,11.4913,-6.36402
427,-524,7.68335,6.17249,0,0,0,0,0,0,0,-1,1651,1548,7.68341,-6.17245
434,-524,10.432,11.6801,0,0,0,0,0,0,0,-1,1658,1548,10.432,-11.68
441,-524,8.78552,4.12305,0,0,0,0,0,0,0,-1,1665,1548,8.78553,-4.12301
448,-524,14.1854,4.78674,0,0,0,0,0,0,0,-1,1672,1548,14.1854,-4.78674
455,-524,12.4784,3.65576,0,0,0,0,0,0,0,-1,1679,1548,12.4784,-3.65572
462,-524,14.7551,9.29395,0,0,0,0,0,0,0,-1,1686,1548,14.7552,-9.29397
469,-524,16.3314,14.3779,0,0,0,0,0,0,0,-1,1693,1548,16.3314,-14.3779
476,-524,15.9106,15.1875,0,0,0,0,0,0,0,-1,1700,1548,15.9107,-15.1876
483,-524,15.2776,16.2268,0,0,0,0,0,0,0,-1,1707,1548,15.2776,-16.2269
490,-524,15.2563,18.5848,0,0,0,0,0,0,0,-1,1714,1548,15.2564,-18.5848
497,-524,17.5173,22.6123,0,0,0,0,0,0,0,-1,1721,1548,17.5174,-22.6123
504,-524,26.5569,39.4066,0,0,0,0,0,0,0,-1,1728,1548,26.5568,-39.4066
511,-524,26.8802,38.3602,0,0,0,0,0,0,0,-1,1735,1548,26.8803,-38.3602
518,-524,26.8992,37.454,0.0085683,0.00795958,-0.00626987,0.0145412,0.00198669,-0.761145,0.00910444,0.026667,1742,1548,26.8992,-37.454
525,-524,26.8303,36.6619,0.00685394,0.00652704,-0.00514021,0.0118333,0.00154768,-0.769504,0.00742692,0.0157601,1749,1548,26.8303,-36.6619
532,-524,26.7852,35.8441,0.00535752,0.00520186,-0.00410346,0.00938388,0.00117549,-0.775916,0.00590323,0.0110926,1756,1548,26.7852,-35.8441
539,-524,26.7474,35.0215,0.00419453,0.00407521,-0.0032352,0.00737062,0.000899126,-0.776179,0.00464315,0.0116296,1763,1548,26.7474,-35.0214
546,-524,26.7052,34.2572,0.00326942,0.00295226,-0.00248253,0.00559843,0.000623245,-0.753503,0.00354286,0.0156934,1770,1548,26.7052,-34.2572
553,-524,26.673,33.4873,0.00252358,0.00191713,-0.00180971,0.00405529,0.000385424,-0.702391,0.00258465,0.025958,1777,1548,26.6729,-33.4873
560,-524,26.6898,32.6663,0.00204145,0.00102067,-0.00128034,0.00290938,0.000152734,-0.595735,0.00189073,0.0344068,1784,1548,26.6898,-32.6663
567,-524,26.577,31.8464,0.00178512,0.000220173,-0.000916445,0.00220769,-0.0002024,-0.432047,0.00154369,0.0198033,1791,1548,26.5771,-31.8464
574,-524,26.5393,31.0125,0.00170124,-0.000492474,-0.000654361,0.0018816,-0.000672834,-0.268949,0.00152885,0.0144706,1798,1548,26.5393,-31.0125
581,-524,26.4985,30.1838,0.00190306,-0.00101119,-0.000622179,0.00203033,-0.00113846,-0.201778,0.0018535,0.0160046,1805,1548,26.4985,-30.1839
588,-524,26.5323,29.3641,0.00242764,-0.0013095,-0.0007862,0.0025863,-0.00146816,-0.199132,0.00237033,0.033212,1812,1548,26.5323,-29.3641
595,-524,26.5803,28.2972,0,0,0,0,0,0,0,-1,1819,1548,26.5803,-28.2973
602,-524,13.837,12.0682,0,0,0,0,0,0,0,-1,1826,1548,13.837,-12.0683
609,-524,13.0056,10.5138,0,0,0,0,0,0,0,-1,1833,1548,13.0056,-10.5138
616,-524,11.6941,8.65515,0,0,0,0,0,0,0,-1,1840,1548,11.6941,-8.65514
623,-524,9.38452,5.15356,0,0,0,0,0,0,0,-1,1847,1548,9.38456,-5.15359
630,-524,11.0541,3.57434,0,0,0,0,0,0,0,-1,1854,1548,11.0541,-3.57438
637,-524,11.6067,3.20728,0,0,0,0,0,0,0,-1,1861,1548,11.6067,-3.20724
644,-524,12.2134,0.727173,0,0,0,0,0,0,0,-1,1868,1548,12.2134,-0.727222
651,-524,0,0,0,0,0,0,0,0,0,-1,1875,1548,0,0
658,-524,0,0,0,0,0,0,0,0,0,-1,1882,1548,0,0
665,-524,0,0,0,0,0,0,0,0,0,-1,1889,1548,0,0
672,-524,0,0,0,0,0,0,0,0,0,-1,1896,1548,0,0
679,-524,0,0,0,0,0,0,0,0,0,-1,1903,1548,0,0
686,-524,0,0,0,0,0,0,0,0,0,-1,1910,1548,0,0
693,-524,0,0,0,0,0,0,0,0,0,-1,1917,1548,0,0
700,-524,0,0,0,0,0,0,0,0,0,-1,1924,1548,0,0
707,-524,0,0,0,0,0,0,0,0,0,-1,1931,1548,0,0
714,-524,0,0,0,0,0,0,0,0,0,-1,1938,1548,0,0
721,-524,0,0,0,0,0,0,0,0,0,-1,1945,1548,0,0
728,-524,0,0,0,0,0,0,0,0,0,-1,1952,1548,0,0
735,-524,0,0,0,0,0,0,0,0,0,-1,1959,1548,0,0
742,-524,0,0,0,0,0,0,0,0,0,-1,1966,1548,0,0
749,-524,0,0,0,0,0,0,0,0,0,-1,1973,1548,0,0
756,-524,0,0,0,0,0,0,0,0,0,-1,1980,1548,0,0
763,-524,0,0,0,0,0,0,0,0,0,-1,1987,1548,0,0
770,-524,0,0,0,0,0,0,0,0,0,-1,1994,1548,0,0
777,-524,0,0,0,0,0,0,0,0,0,-1,2001,1548,0,0
784,-524,0,0,0,0,0,0,0,0,0,-1,2008,1548,0,0
791,-524,0,0,0,0,0,0,0,0,0,-1,2015,1548,0,0
798,-524,0,0,0,0,0,0,0,0,0,-1,2022,1548,0,0
805,-524,0,0,0,0,0,0,0,0,0,-1,2029,1548,0,0
812,-524,0,0,0,0,0,0,0,0,0,-1,2036,1548,0,0
-700,-531,0,0,0,0,0,0,0,0,0,-1,524,1555,0,0
-693,-531,0,0,0,0,0,0,0,0,0,-1,531,1555,0,0
-686,-531,0,0,0,0,0,0,0,0,0,-1,538,1555,0,0
-679,-531,0,0,0,0,0,0,0,0,0,-1,545,1555,0,0
-672,-531,0,0,0,0,0,0,0,0,0,-1,552,1555,0,0
-665,-531,0,0,0,0,0,0,0,0,0,-1,559,1555,0,0
-658,-531,0,0,0,0,0,0,0,0,0,-1,566,1555,0,0
-651,-531,0,0,0,0,0,0,0,0,0,-1,573,1555,0,0
-644,-531,0,0,0,0,0,0,0,0,0,-1,580,1555,0,0
-637,-531,0,0,0,0,0,0,0,0,0,-1,587,1555,0,0
-630,-531,0,0,0,0,0,0,0,0,0,-1,594,1555,0,0
-623,-531,0,0,0,0,0,0,0,0,0,-1,601,1555,0,0
-616,-531,0,0,0,0,0,0,0,0,0,-1,608,1555,0,0
-609,-531,0,0,0,0,0,0,0,0,0,-1,615,1555,0,0
-602,-531,0,0,0,0,0,0,0,0,0,-1,622,1555,0,0
-595,-531,0,0,0,0,0,0,0,0,0,-1,629,1555,0,0
-588,-531,0,0,0,0,0,0,0,0,0,-1,636,1555,0,0
-581,-531,0,0,0,0,0,0,0,0,0,-1,643,1555,0,0
-574,-531,0,0,0,0,0,0,0,0,0,-1,650,1555,0,0
-567,-531,0,0,0,0,0,0,0,0,0,-1,657,1555,0,0
-560,-531,0,0,0,0,0,0,0,0,0,-1,664,1555,0,0
-553,-531,0,0,0,0,0,0,0,0,0,-1,671,1555,0,0
-546,-531,0,0,0,0,0,0,0,0,0,-1,678,1555,0,0
-539,-531,0,0,0,0,0,0,0,0,0,-1,685,1555,0,0
-532,-531,0,0,0,0,0,0,0,0,0,-1,692,1555,0,0
-525,-531,0,0,0,0,0,0,0,0,0,-1,699,1555,0,0
-518,-531,-1.63983,4.03821,0,0,0,0,0,0,0,-1,706,1555,-1.63982,-4.03821
-511,-531,-2.9682,8.07483,0,0,0,0,0,0,0,-1,713,1555,-2.9682,-8.07479
-504,-531,-2.95978,0.557861,0,0,0,0,0,0,0,-1,720,1555,-2.95978,-0.557917
-497,-531,-2.46039,8.07422,0,0,0,0,0,0,0,-1,727,1555,-2.46039,-8.07423
-490,-531,-0.423462,7.92065,0,0,0,0,0,0,0,-1,734,1555,-0.42344,-7.92066
-483,-531,-7.50745,20.1915,0,0,0,0,0,0,0,-1,741,1555,-7.50744,-20.1915
-476,-531,-7.69647,23.6229,0,0,0,0,0,0,0,-1,748,1555,-7.6965,-23.6229
-469,-531,-8.2475,27.6931,0,0,0,0,0,0,0,-1,755,1555,-8.2475,-27.6931
-462,-531,-7.27551,28.5044,0,0,0,0,0,0,0,-1,762,1555,-7.27551,-28.5044
-455,-531,-7.95532,29.6547,0,0,0,0,0,0,0,-1,769,1555,-7.95529,-29.6546
-448,-531,-7.8028,30.6824,0.00195298,-0.000172742,0.0014528,0.0026902,-0.000909961,0.469589,0.0021616,0.0334058,776,1555,-7.80278,-30.6824
-441,-531,-7.97339,31.5042,0.00155922,-0.000247279,0.0010652,0.00205257,-0.000740637,0.433744,0.0016709,0.0145119,783,1555,-7.97338,-31.5041
-434,-531,-8.01489,32.3721,0.00133632,-0.00011934,0.000832826,0.00171454,-0.000497555,0.426287,0.00134003,0.0121914,790,1555,-8.01492,-32.372
-427,-531,-8.06946,33.2222,0.00117158,3.71113e-05,0.00064269,0.00146155,-0.000252863,0.423842,0.00106867,0.0161289,797,1555,-8.06948,-33.2221
-420,-531,-8.16156,33.9965,0.00107322,0.000284628,0.000502876,0.00131795,3.98972e-05,0.45292,0.000865639,0.0368412,804,1555,-8.16158,-33.9964
-413,-531,-8.18689,34.8629,0.00112875,0.000610181,0.00046256,0.00139974,0.000339192,0.529947,0.000843154,0.0343115,811,1555,-8.18689,-34.8629
-406,-531,-8.20532,35.6859,0.00130954,0.00103326,0.000496108,0.00168638,0.000656418,0.649615,0.000981562,0.0139311,818,1555,-8.20532,-35.686
-399,-531,-8.24335,36.4894,0.00154993,0.00153067,0.000563229,0.00210361,0.000976987,0.776851,0.00121554,0.0139657,825,1555,-8.24337,-36.4893
-392,-531,-8.26288,37.3136,0.00184322,0.00209268,0.000668737,0.00264822,0.00128768,0.8776,0.00152914,0.0174691,832,1555,-8.2629,-37.3136
-385,-531,-8.3161,38.1345,0.00218606,0.00272092,0.00084376,0.00333862,0.00156836,0.938865,0.00192872,0.0149808,839,1555,-8.31611,-38.1346
-378,-531,-8.38947,38.8983,0.00275428,0.00344986,0.00110664,0.00426208,0.00194206,0.937649,0.00246394,0.0217111,846,1555,-8.38949,-38.8983
-371,-531,-8.39911,39.8091,0,0,0,0,0,0,0,-1,853,1555,-8.39913,-39.8091
-364,-531,-8.16858,40.9211,0,0,0,0,0,0,0,-1,860,1555,-8.1686,-40.9211
-357,-531,-4.29193,31.5354,0,0,0,0,0,0,0,-1,867,1555,-4.29191,-31.5354
-350,-531,-3.16101,27.5791,0,0,0,0,0,0,0,-1,874,1555,-3.16099,-27.5791
-343,-531,-2.90552,28.561,0,0,0,0,0,0,0,-1,881,1555,-2.90549,-28.5611
-336,-531,-2.6698,29.5398,0,0,0,0,0,0,0,-1,888,1555,-2.66983,-29.5398
-329,-531,-2.45148,30.4781,0,0,0,0,0,0,0,-1,895,1555,-2.45148,-30.4781
-322,-531,-3.25092,28.4921,0,0,0,0,0,0,0,-1,902,1555,-3.25092,-28.4921
-315,-531,-5.51929,31.7814,0,0,0,0,0,0,0,-1,909,1555,-5.51928,-31.7813
-308,-531,-1.66455,19.0624,0,0,0,0,0,0,0,-1,916,1555,-1.66455,-19.0623
-301,-531,-2.02405,18.8912,0,0,0,0,0,0,0,-1,923,1555,-2.02407,-18.8913
-294,-531,-1.3244,8.1825,0,0,0,0,0,0,0,-1,930,1555,-1.3244,-8.18251
-287,-531,-1.78192,10.1661,0,0,0,0,0,0,0,-1,937,1555,-1.78192,-10.1661
-280,-531,-2.14508,10.3945,0,0,0,0,0,0,0,-1,944,1555,-2.14506,-10.3945
-273,-531,-2.50818,10.6229,0,0,0,0,0,0,0,-1,951,1555,-2.5082,-10.6229
-266,-531,-4.97742,17.9215,0,0,0,0,0,0,0,-1,958,1555,-4.97744,-17.9215
-259,-531,0,0,0,0,0,0,0,0,0,-1,965,1555,0,0
-252,-531,0,0,0,0,0,0,0,0,0,-1,972,1555,0,0
-245,-531,0,0,0,0,0,0,0,0,0,-1,979,1555,0,0
-238,-531,0,0,0,0,0,0,0,0,0,-1,986,1555,0,0
-231,-531,0,0,0,0,0,0,0,0,0,-1,993,1555,0,0
-224,-531,0,0,0,0,0,0,0,0,0,-1,1000,1555,0,0
-217,-531,0,0,0,0,0,0,0,0,0,-1,1007,1555,0,0
-210,-531,0,0,0,0,0,0,0,0,0,-1,1014,1555,0,0
-203,-531,0,0,0,0,0,0,0,0,0,-1,1021,1555,0,0
-196,-531,0,0,0,0,0,0,0,0,0,-1,1028,1555,0,0
-189,-531,0,0,0,0,0,0,0,0,0,-1,1035,1555,0,0
-182,-531,0,0,0,0,0,0,0,0,0,-1,1042,1555,0,0
-175,-531,0,0,0,0,0,0,0,0,0,-1,1049,1555,0,0
-168,-531,0,0,0,0,0,0,0,0,0,-1,1056,1555,0,0
-161,-531,0,0,0,0,0,0,0,0,0,-1,1063,1555,0,0
-154,-531,0,0,0,0,0,0,0,0,0,-1,1070,1555,0,0
-147,-531,0,0,0,0,0,0,0,0,0,-1,1077,1555,0,0
-140,-531,0,0,0,0,0,0,0,0,0,-1,1084,1555,0,0
-133,-531,0,0,0,0,0,0,0,0,0,-1,1091,1555,0,0
-126,-531,0,0,0,0,0,0,0,0,0,-1,1098,1555,0,0
-119,-531,0,0,0,0,0,0,0,0,0,-1,1105,1555,0,0
-112,-531,0,0,0,0,0,0,0,0,0,-1,1112,1555,0,0
-105,-531,0,0,0,0,0,0,0,0,0,-1,1119,1555,0,0
-98,-531,0,0,0,0,0,0,0,0,0,-1,1126,1555,0,0
-91,-531,0,0,0,0,0,0,0,0,0,-1,1133,1555,0,0
-84,-531,0,0,0,0,0,0,0,0,0,-1,1140,1555,0,0
-77,-531,0,0,0,0,0,0,0,0,0,-1,1147,1555,0,0
-70,-531,0,0,0,0,0,0,0,0,0,-1,1154,1555,0,0
-63,-531,0,0,0,0,0,0,0,0,0,-1,1161,1555,0,0
-56,-531,0,0,0,0,0,0,0,0,0,-1,1168,1555,0,0
-49,-531,0,0,0,0,0,0,0,0,0,-1,1175,1555,0,0
-42,-531,0,0,0,0,0,0,0,0,0,-1,1182,1555,0,0
-35,-531,0,0,0,0,0,0,0,0,0,-1,1189,1555,0,0
-28,-531,0,0,0,0,0,0,0,0,0,-1,1196,1555,0,0
-21,-531,0,0,0,0,0,0,0,0,0,-1,1203,1555,0,0
-14,-531,0,0,0,0,0,0,0,0,0,-1,1210,1555,0,0
-7,-531,0,0,0,0,0,0,0,0,0,-1,1217,1555,0,0
0,-531,0,0,0,0,0,0,0,0,0,-1,1224,1555,0,0
7,-531,0,0,0,0,0,0,0,0,0,-1,1231,1555,0,0
14,-531,0,0,0,0,0,0,0,0,0,-1,1238,1555,0,0
21,-531,0,0,0,0,0,0,0,0,0,-1,1245,1555,0,0
28,-531,0,0,0,0,0,0,0,0,0,-1,1252,1555,0,0
35,-531,0,0,0,0,0,0,0,0,0,-1,1259,1555,0,0
42,-531,0,0,0,0,0,0,0,0,0,-1,1266,1555,0,0
49,-531,0,0,0,0,0,0,0,0,0,-1,1273,1555,0,0
56,-531,0,0,0,0,0,0,0,0,0,-1,1280,1555,0,0
63,-531,0,0,0,0,0,0,0,0,0,-1,1287,1555,0,0
70,-531,0,0,0,0,0,0,0,0,0,-1,1294,1555,0,0
77,-531,0,0,0,0,0,0,0,0,0,-1,1301,1555,0,0
84,-531,0,0,0,0,0,0,0,0,0,-1,1308,1555,0,0
91,-531,0,0,0,0,0,0,0,0,0,-1,1315,1555,0,0
98,-531,0,0,0,0,0,0,0,0,0,-1,1322,1555,0,0
105,-531,0,0,0,0,0,0,0,0,0,-1,1329,1555,0,0
112,-531,0,0,0,0,0,0,0,0,0,-1,1336,1555,0,0
119,-531,0,0,0,0,0,0,0,0,0,-1,1343,1555,0,0
126,-531,0,0,0,0,0,0,0,0,0,-1,1350,1555,0,0
133,-531,0,0,0,0,0,0,0,0,0,-1,1357,1555,0,0
140,-531,0,0,0,0,0,0,0,0,0,-1,1364,1555,0,0
147,-531,0,0,0,0,0,0,0,0,0,-1,1371,1555,0,0
154,-531,0,0,0,0,0,0,0,0,0,-1,1378,1555,0,0
161,-531,0,0,0,0,0,0,0,0,0,-1,1385,1555,0,0
168,-531,0,0,0,0,0,0,0,0,0,-1,1392,1555,0,0
175,-531,0,0,0,0,0,0,0,0,0,-1,1399,1555,0,0
182,-531,0,0,0,0,0,0,0,0,0,-1,1406,1555,0,0
189,-531,0,0,0,0,0,0,0,0,0,-1,1413,1555,0,0
196,-531,0,0,0,0,0,0,0,0,0,-1,1420,1555,0,0
203,-531,0,0,0,0,0,0,0,0,0,-1,1427,1555,0,0
210,-531,0,0,0,0,0,0,0,0,0,-1,1434,1555,0,0
217,-531,0,0,0,0,0,0,0,0,0,-1,1441,1555,0,0
224,-531,0,0,0,0,0,0,0,0,0,-1,1448,1555,0,0
231,-531,0,0,0,0,0,0,0,0,0,-1,1455,1555,0,0
238,-531,0,0,0,0,0,0,0,0,0,-1,1462,1555,0,0
245,-531,0,0,0,0,0,0,0,0,0,-1,1469,1555,0,0
252,-531,0,0,0,0,0,0,0,0,0,-1,1476,1555,0,0
259,-531,0,0,0,0,0,0,0,0,0,-1,1483,1555,0,0
266,-531,0,0,0,0,0,0,0,0,0,-1,1490,1555,0,0
273,-531,0,0,0,0,0,0,0,0,0,-1,1497,1555,0,0
280,-531,0,0,0,0,0,0,0,0,0,-1,1504,1555,0,0
287,-531,0,0,0,0,0,0,0,0,0,-1,1511,1555,0,0
294,-531,0,0,0,0,0,0,0,0,0,-1,1518,1555,0,0
301,-531,0,0,0,0,0,0,0,0,0,-1,1525,1555,0,0
308,-531,0,0,0,0,0,0,0,0,0,-1,1532,1555,0,0
315,-531,0,0,0,0,0,0,0,0,0,-1,1539,1555,0,0
322,-531,0,0,0,0,0,0,0,0,0,-1,1546,1555,0,0
329,-531,0,0,0,0,0,0,0,0,0,-1,1553,1555,0,0
336,-531,0,0,0,0,0,0,0,0,0,-1,1560,1555,0,0
343,-531,0,0,0,0,0,0,0,0,0,-1,1567,1555,0,0
350,-531,0,0,0,0,0,0,0,0,0,-1,1574,1555,0,0
357,-531,0,0,0,0,0,0,0,0,0,-1,1581,1555,0,0
364,-531,0,0,0,0,0,0,0,0,0,-1,1588,1555,0,0
371,-531,0,0,0,0,0,0,0,0,0,-1,1595,1555,0,0
378,-531,0,0,0,0,0,0,0,0,0,-1,1602,1555,0,0
385,-531,3.48169,1.78625,0,0,0,0,0,0,0,-1,1609,1555,3.48165,-1.78624
392,-531,10.8781,9.09204,0,0,0,0,0,0,0,-1,1616,1555,10.8781,-9.09205
399,-531,8.26306,5.29602,0,0,0,0,0,0,0,-1,1623,1555,8.26302,-5.29607
406,-531,8.26147,5.42712,0,0,0,0,0,0,0,-1,1630,1555,8.26145,-5.42716
413,-531,8.20618,5.75012,0,0,0,0,0,0,0,-1,1637,1555,8.20619,-5.75017
420,-531,7.64868,7.09558,0,0,0,0,0,0,0,-1,1644,1555,7.64867,-7.09564
427,-531,9.93054,11.8412,0,0,0,0,0,0,0,-1,1651,1555,9.93059,-11.8412
434,-531,10.244,11.7072,0,0,0,0,0,0,0,-1,1658,1555,10.244,-11.7071
441,-531,11.4528,12.9397,0,0,0,0,0,0,0,-1,1665,1555,11.4528,-12.9397
448,-531,11.928,18.8029,0,0,0,0,0,0,0,-1,1672,1555,11.928,-18.8028
455,-531,14.4877,9.67065,0,0,0,0,0,0,0,-1,1679,1555,14.4876,-9.67066
462,-531,13.5253,12.2002,0,0,0,0,0,0,0,-1,1686,1555,13.5252,-12.2002
469,-531,15.5087,15.7894,0,0,0,0,0,0,0,-1,1693,1555,15.5086,-15.7895
476,-531,14.6582,16.2264,0,0,0,0,0,0,0,-1,1700,1555,14.6582,-16.2264
483,-531,14.755,18.5994,0,0,0,0,0,0,0,-1,1707,1555,14.7551,-18.5994
490,-531,16.9362,25.4943,0,0,0,0,0,0,0,-1,1714,1555,16.9362,-25.4942
497,-531,25.8835,40.2451,0,0,0,0,0,0,0,-1,1721,1555,25.8836,-40.2451
504,-531,25.9926,39.1869,0.0101758,0.00931097,-0.00716531,0.0169218,0.00256505,-0.755259,0.0105308,0.0364692,1728,1555,25.9925,-39.1869
511,-531,26.069,38.3065,0.00821421,0.00757167,-0.00583221,0.013734,0.00205189,-0.757883,0.00855446,0.0159879,1735,1555,26.069,-38.3066
518,-531,26.0746,37.5018,0.0065791,0.00625724,-0.00478826,0.0112091,0.00162721,-0.7686,0.00699374,0.0154726,1742,1555,26.0746,-37.5018
525,-531,26.0427,36.7119,0.00509584,0.00498997,-0.00385894,0.00890221,0.0011836,-0.77854,0.00558226,0.0157236,1749,1555,26.0427,-36.7119
532,-531,26.007,35.9069,0.00383712,0.00383533,-0.00302458,0.00686081,0.000811647,-0.78525,0.00432876,0.0120002,1756,1555,26.0069,-35.9068
539,-531,25.9606,35.1029,0.00289904,0.00285618,-0.00234584,0.00522354,0.000531673,-0.780831,0.00331936,0.0130088,1763,1555,25.9605,-35.1029
546,-531,25.9004,34.2842,0.00219444,0.00184632,-0.00174494,0.00377398,0.00026678,-0.735687,0.00243194,0.016661,1770,1555,25.9004,-34.2841
553,-531,25.8828,33.5157,0.00168198,0.000939605,-0.00123077,0.00259632,2.52632e-05,-0.638942,0.00172252,0.0330208,1777,1555,25.8828,-33.5157
560,-531,25.8518,32.7471,0.00145126,0.000152953,-0.000852554,0.00187367,-0.000269457,-0.460013,0.00134794,0.0366656,1784,1555,25.8518,-32.7471
567,-531,25.7107,31.8894,0.00144388,-0.000570362,-0.00059513,0.00160657,-0.000733059,-0.266859,0.00138181,0.020584,1791,1555,25.7107,-31.8894
574,-531,25.661,31.0596,0.00161716,-0.00123777,-0.000411453,0.00167528,-0.00129588,-0.140317,0.00172005,0.0157052,1798,1555,25.6611,-31.0595
581,-531,25.703,30.1992,0.00220887,-0.00168782,-0.000559735,0.00228768,-0.00176663,-0.139877,0.00234719,0.0288033,1805,1555,25.703,-30.1992
588,-531,25.9346,29.1206,0,0,0,0,0,0,0,-1,1812,1555,25.9346,-29.1206
595,-531,25.4437,28.0334,0,0,0,0,0,0,0,-1,1819,1555,25.4438,-28.0335
602,-531,13.701,11.8346,0,0,0,0,0,0,0,-1,1826,1555,13.701,-11.8347
609,-531,10.9072,8.50903,0,0,0,0,0,0,0,-1,1833,1555,10.9073,-8.50902
616,-531,10.5723,7.17859,0,0,0,0,0,0,0,-1,1840,1555,10.5723,-7.17855
623,-531,10.0674,5.08984,0,0,0,0,0,0,0,-1,1847,1555,10.0674,-5.08981
630,-531,11.672,3.18909,0,0,0,0,0,0,0,-1,1854,1555,11.672,-3.18904
637,-531,13.2546,1.38965,0,0,0,0,0,0,0,-1,1861,1555,13.2547,-1.3896
644,-531,0,0,0,0,0,0,0,0,0,-1,1868,1555,0,0
651,-531,0,0,0,0,0,0,0,0,0,-1,1875,1555,0,0
658,-531,0,0,0,0,0,0,0,0,0,-1,1882,1555,0,0
665,-531,0,0,0,0,0,0,0,0,0,-1,1889,1555,0,0
672,-531,0,0,0,0,0,0,0,0,0,-1,1896,1555,0,0
679,-531,0,0,0,0,0,0,0,0,0,-1,1903,1555,0,0
686,-531,0,0,0,0,0,0,0,0,0,-1,1910,1555,0,0
693,-531,0,0,0,0,0,0,0,0,0,-1,1917,1555,0,0
700,-531,0,0,0,0,0,0,0,0,0,-1,1924,1555,0,0
707,-531,0,0,0,0,0,0,0,0,0,-1,1931,1555,0,0
714,-531,0,0,0,0,0,0,0,0,0,-1,1938,1555,0,0
721,-531,0,0,0,0,0,0,0,0,0,-1,1945,1555,0,0
728,-531,0,0,0,0,0,0,0,0,0,-1,1952,1555,0,0
735,-531,0,0,0,0,0,0,0,0,0,-1,1959,1555,0,0
742,-531,0,0,0,0,0,0,0,0,0,-1,1966,1555,0,0
749,-531,0,0,0,0,0,0,0,0,0,-1,1973,1555,0,0
756,-531,0,0,0,0,0,0,0,0,0,-1,1980,1555,0,0
763,-531,0,0,0,0,0,0,0,0,0,-1,1987,1555,0,0
770,-531,0,0,0,0,0,0,0,0,0,-1,1994,1555,0,0
777,-531,0,0,0,0,0,0,0,0,0,-1,2001,1555,0,0
784,-531,0,0,0,0,0,0,0,0,0,-1,2008,1555,0,0
791,-531,0,0,0,0,0,0,0,0,0,-1,2015,1555,0,0
798,-531,0,0,0,0,0,0,0,0,0,-1,2022,1555,0,0
805,-531,0,0,0,0,0,0,0,0,0,-1,2029,1555,0,0
812,-531,0,0,0,0,0,0,0,0,0,-1,2036,1555,0,0
-700,-538,0,0,0,0,0,0,0,0,0,-1,524,1562,0,0
-693,-538,0,0,0,0,0,0,0,0,0,-1,531,1562,0,0
-686,-538,0,0,0,0,0,0,0,0,0,-1,538,1562,0,0
-679,-538,0,0,0,0,0,0,0,0,0,-1,545,1562,0,0
-672,-538,0,0,0,0,0,0,0,0,0,-1,552,1562,0,0
-665,-538,0,0,0,0,0,0,0,0,0,-1,559,1562,0,0
-658,-538,0,0,0,0,0,0,0,0,0,-1,566,1562,0,0
-651,-538,0,0,0,0,0,0,0,0,0,-1,573,1562,0,0
-644,-538,0,0,0,0,0,0,0,0,0,-1,580,1562,0,0
-637,-538,0,0,0,0,0,0,0,0,0,-1,587,1562,0,0
-630,-538,0,0,0,0,0,0,0,0,0,-1,594,1562,0,0
-623,-538,0,0,0,0,0,0,0,0,0,-1,601,1562,0,0
-616,-538,0,0,0,0,0,0,0,0,0,-1,608,1562,0,0
-609,-538,0,0,0,0,0,0,0,0,0,-1,615,1562,0,0
-602,-538,0,0,0,0,0,0,0,0,0,-1,622,1562,0,0
-595,-538,0,0,0,0,0,0,0,0,0,-1,629,1562,0,0
-588,-538,0,0,0,0,0,0,0,0,0,-1,636,1562,0,0
-581,-538,0,0,0,0,0,0,0,0,0,-1,643,1562,0,0
-574,-538,0,0,0,0,0,0,0,0,0,-1,650,1562,0,0
-567,-538,0,0,0,0,0,0,0,0,0,-1,657,1562,0,0
-560,-538,0,0,0,0,0,0,0,0,0,-1,664,1562,0,0
-553,-538,0,0,0,0,0,0,0,0,0,-1,671,1562,0,0
-546,-538,0,0,0,0,0,0,0,0,0,-1,678,1562,0,0
-539,-538,0,0,0,0,0,0,0,0,0,-1,685,1562,0,0
-532,-538,0,0,0,0,0,0,0,0,0,-1,692,1562,0,0
-525,-538,0,0,0,0,0,0,0,0,0,-1,699,1562,0,0
-518,-538,0,0,0,0,0,0,0,0,0,-1,706,1562,0,0
-511,-538,-2.6582,-1.54321,0,0,0,0,0,0,0,-1,713,1562,-2.65821,1.54327
-504,-538,-2.66455,-0.71167,0,0,0,0,0,0,0,-1,720,1562,-2.66456,0.711667
-497,-538,-0.763855,6.77747,0,0,0,0,0,0,0,-1,727,1562,-0.76385,-6.77743
-490,-538,-2.70453,8.01465,0,0,0,0,0,0,0,-1,734,1562,-2.70451,-8.0147
-483,-538,-0.933533,7.84644,0,0,0,0,0,0,0,-1,741,1562,-0.933548,-7.84638
-476,-538,-3.29962,15.8307,0,0,0,0,0,0,0,-1,748,1562,-3.29962,-15.8306
-469,-538,-6.44983,24.5707,0,0,0,0,0,0,0,-1,755,1562,-6.4498,-24.5707
-462,-538,-5.75458,25.4069,0,0,0,0,0,0,0,-1,762,1562,-5.7546,-25.4068
-455,-538,-6.5755,28.8893,0,0,0,0,0,0,0,-1,769,1562,-6.57549,-28.8893
-448,-538,-7.10394,30.7643,0,0,0,0,0,0,0,-1,776,1562,-7.10396,-30.7643
-441,-538,-7.17999,31.5216,0,0,0,0,0,0,0,-1,783,1562,-7.17997,-31.5217
-434,-538,-7.22186,32.4078,0.00160523,-0.000456877,0.00100582,0.00201457,-0.00086622,0.386505,0.00170671,0.0150714,790,1562,-7.22187,-32.4079
-427,-538,-7.26617,33.2805,0.00142968,-0.000203233,0.000864349,0.00180221,-0.000575768,0.406942,0.0014325,0.0142012,797,1562,-7.26618,-33.2805
-420,-538,-7.29852,34.0833,0.00125373,7.25595e-05,0.000725427,0.00159858,-0.000272288,0.443751,0.00116712,0.0189788,804,1562,-7.2985,-34.0833
-413,-538,-7.32635,34.8707,0.00119094,0.000357478,0.000628223,0.00152808,2.03326e-05,0.492547,0.00101201,0.0194518,811,1562,-7.32633,-34.8708
-406,-538,-7.38171,35.7296,0.00125948,0.00070562,0.000592023,0.00163614,0.000328959,0.566633,0.000999321,0.0164829,818,1562,-7.38169,-35.7296
-399,-538,-7.43372,36.5641,0.00138127,0.00114297,0.000588793,0.00186285,0.000661393,0.685567,0.00109048,0.0140296,825,1562,-7.43373,-36.5641
-392,-538,-7.4447,37.386,0.00158904,0.00162003,0.000630383,0.00223511,0.000973964,0.797684,0.00129399,0.01502,832,1562,-7.44472,-37.3859
-385,-538,-7.50372,38.1919,0.00182065,0.00214703,0.000692463,0.00269528,0.00127241,0.901119,0.00155693,0.0132059,839,1562,-7.50375,-38.1919
-378,-538,-7.55872,38.9847,0.00219716,0.00278712,0.000836561,0.00337918,0.0016051,0.954898,0.00195179,0.0107428,846,1562,-7.55872,-38.9847
-371,-538,-7.61597,39.7532,0.00270119,0.0035534,0.00108731,0.00429511,0.00195947,0.972146,0.00248295,0.0164109,853,1562,-7.61597,-39.7531
-364,-538,-7.54944,40.6823,0.00348273,0.00473313,0.00163585,0.00585918,0.00235668,0.967927,0.00340429,0.028536,860,1562,-7.54941,-40.6823
-357,-538,-7.37567,41.7264,0,0,0,0,0,0,0,-1,867,1562,-7.37565,-41.7264
-350,-538,-6.37695,40.0256,0,0,0,0,0,0,0,-1,874,1562,-6.37696,-40.0257
-343,-538,-2.47339,28.3082,0,0,0,0,0,0,0,-1,881,1562,-2.47341,-28.3083
-336,-538,-2.40161,28.5409,0,0,0,0,0,0,0,-1,888,1562,-2.40163,-28.541
-329,-538,-2.57159,28.4905,0,0,0,0,0,0,0,-1,895,1562,-2.57161,-28.4905
-322,-538,-2.83783,28.2308,0,0,0,0,0,0,0,-1,902,1562,-2.83783,-28.2308
-315,-538,-2.91827,27.7609,0,0,0,0,0,0,0,-1,909,1562,-2.91829,-27.7608
-308,-538,-4.37433,31.7996,0,0,0,0,0,0,0,-1,916,1562,-4.3743,-31.7995
-301,-538,-0.452393,18.5101,0,0,0,0,0,0,0,-1,923,1562,-0.452367,-18.5102
-294,-538,1.23138,14.0757,0,0,0,0,0,0,0,-1,930,1562,1.23137,-14.0757
-287,-538,-2.60419,10.2361,0,0,0,0,0,0,0,-1,937,1562,-2.6042,-10.2361
-280,-538,-2.93475,10.5106,0,0,0,0,0,0,0,-1,944,1562,-2.93475,-10.5106
-273,-538,-3.26532,10.785,0,0,0,0,0,0,0,-1,951,1562,-3.26531,-10.785
-266,-538,-5.03412,15.9951,0,0,0,0,0,0,0,-1,958,1562,-5.03409,-15.9951
-259,-538,-5.89642,16.5184,0,0,0,0,0,0,0,-1,965,1562,-5.89644,-16.5184
-252,-538,0,0,0,0,0,0,0,0,0,-1,972,1562,0,0
-245,-538,0,0,0,0,0,0,0,0,0,-1,979,1562,0,0
-238,-538,0,0,0,0,0,0,0,0,0,-1,986,1562,0,0
-231,-538,0,0,0,0,0,0,0,0,0,-1,993,1562,0,0
-224,-538,0,0,0,0,0,0,0,0,0,-1,1000,1562,0,0
-217,-538,0,0,0,0,0,0,0,0,0,-1,1007,1562,0,0
-210,-538,0,0,0,0,0,0,0,0,0,-1,1014,1562,0,0
-203,-538,0,0,0,0,0,0,0,0,0,-1,1021,1562,0,0
-196,-538,0,0,0,0,0,0,0,0,0,-1,1028,1562,0,0
-189,-538,0,0,0,0,0,0,0,0,0,-1,1035,1562,0,0
-182,-538,0,0,0,0,0,0,0,0,0,-1,1042,1562,0,0
-175,-538,0,0,0,0,0,0,0,0,0,-1,1049,1562,0,0
-168,-538,0,0,0,0,0,0,0,0,0,-1,1056,1562,0,0
-161,-538,0,0,0,0,0,0,0,0,0,-1,1063,1562,0,0
-154,-538,0,0,0,0,0,0,0,0,0,-1,1070,1562,0,0
-147,-538,0,0,0,0,0,0,0,0,0,-1,1077,1562,0,0
-140,-538,0,0,0,0,0,0,0,0,0,-1,1084,1562,0,0
-133,-538,0,0,0,0,0,0,0,0,0,-1,1091,1562,0,0
-126,-538,0,0,0,0,0,0,0,0,0,-1,1098,1562,0,0
-119,-538,0,0,0,0,0,0,0,0,0,-1,1105,1562,0,0
-112,-538,0,0,0,0,0,0,0,0,0,-1,1112,1562,0,0
-105,-538,0,0,0,0,0,0,0,0,0,-1,1119,1562,0,0
-98,-538,0,0,0,0,0,0,0,0,0,-1,1126,1562,0,0
-91,-538,0,0,0,0,0,0,0,0,0,-1,1133,1562,0,0
-84,-538,0,0,0,0,0,0,0,0,0,-1,1140,1562,0,0
-77,-538,0,0,0,0,0,0,0,0,0,-1,1147,1562,0,0
-70,-538,0,0,0,0,0,0,0,0,0,-1,1154,1562,0,0
-63,-538,0,0,0,0,0,0,0,0,0,-1,1161,1562,0,0
-56,-538,0,0,0,0,0,0,0,0,0,-1,1168,1562,0,0
-49,-538,0,0,0,0,0,0,0,0,0,-1,1175,1562,0,0
-42,-538,0,0,0,0,0,0,0,0,0,-1,1182,1562,0,0
-35,-538,0,0,0,0,0,0,0,0,0,-1,1189,1562,0,0
-28,-538,0,0,0,0,0,0,0,0,0,-1,1196,1562,0,0
-21,-538,0,0,0,0,0,0,0,0,0,-1,1203,1562,0,0
-14,-538,0,0,0,0,0,0,0,0,0,-1,1210,1562,0,0
-7,-538,0,0,0,0,0,0,0,0,0,-1,1217,1562,0,0
0,-538,0,0,0,0,0,0,0,0,0,-1,1224,1562,0,0
7,-538,0,0,0,0,0,0,0,0,0,-1,1231,1562,0,0
14,-538,0,0,0,0,0,0,0,0,0,-1,1238,1562,0,0
21,-538,0,0,0,0,0,0,0,0,0,-1,1245,1562,0,0
28,-538,0,0,0,0,0,0,0,0,0,-1,1252,1562,0,0
35,-538,0,0,0,0,0,0,0,0,0,-1,1259,1562,0,0
42,-538,0,0,0,0,0,0,0,0,0,-1,1266,1562,0,0
49,-538,0,0,0,0,0,0,0,0,0,-1,1273,1562,0,0
56,-538,0,0,0,0,0,0,0,0,0,-1,1280,1562,0,0
63,-538,0,0,0,0,0,0,0,0,0,-1,1287,1562,0,0
70,-538,0,0,0,0,0,0,0,0,0,-1,1294,1562,0,0
77,-538,0,0,0,0,0,0,0,0,0,-1,1301,1562,0,0
84,-538,0,0,0,0,0,0,0,0,0,-1,1308,1562,0,0
91,-538,0,0,0,0,0,0,0,0,0,-1,1315,1562,0,0
98,-538,0,0,0,0,0,0,0,0,0,-1,1322,1562,0,0
105,-538,0,0,0,0,0,0,0,0,0,-1,1329,1562,0,0
112,-538,0,0,0,0,0,0,0,0,0,-1,1336,1562,0,0
119,-538,0,0,0,0,0,0,0,0,0,-1,1343,1562,0,0
126,-538,0,0,0,0,0,0,0,0,0,-1,1350,1562,0,0
133,-538,0,0,0,0,0,0,0,0,0,-1,1357,1562,0,0
140,-538,0,0,0,0,0,0,0,0,0,-1,1364,1562,0,0
147,-538,0,0,0,0,0,0,0,0,0,-1,1371,1562,0,0
154,-538,0,0,0,0,0,0,0,0,0,-1,1378,1562,0,0
161,-538,0,0,0,0,0,0,0,0,0,-1,1385,1562,0,0
168,-538,0,0,0,0,0,0,0,0,0,-1,1392,1562,0,0
175,-538,0,0,0,0,0,0,0,0,0,-1,1399,1562,0,0
182,-538,0,0,0,0,0,0,0,0,0,-1,1406,1562,0,0
189,-538,0,0,0,0,0,0,0,0,0,-1,1413,1562,0,0
196,-538,0,0,0,0,0,0,0,0,0,-1,1420,1562,0,0
203,-538,0,0,0,0,0,0,0,0,0,-1,1427,1562,0,0
210,-538,0,0,0,0,0,0,0,0,0,-1,1434,1562,0,0
217,-538,0,0,0,0,0,0,0,0,0,-1,1441,1562,0,0
224,-538,0,0,0,0,0,0,0,0,0,-1,1448,1562,0,0
231,-538,0,0,0,0,0,0,0,0,0,-1,1455,1562,0,0
238,-538,0,0,0,0,0,0,0,0,0,-1,1462,1562,0,0
245,-538,0,0,0,0,0,0,0,0,0,-1,1469,1562,0,0
252,-538,0,0,0,0,0,0,0,0,0,-1,1476,1562,0,0
259,-538,0,0,0,0,0,0,0,0,0,-1,1483,1562,0,0
266,-538,0,0,0,0,0,0,0,0,0,-1,1490,1562,0,0
273,-538,0,0,0,0,0,0,0,0,0,-1,1497,1562,0,0
280,-538,0,0,0,0,0,0,0,0,0,-1,1504,1562,0,0
287,-538,0,0,0,0,0,0,0,0,0,-1,1511,1562,0,0
294,-538,0,0,0,0,0,0,0,0,0,-1,1518,1562,0,0
301,-538,0,0,0,0,0,0,0,0,0,-1,1525,1562,0,0
308,-538,0,0,0,0,0,0,0,0,0,-1,1532,1562,0,0
315,-538,0,0,0,0,0,0,0,0,0,-1,1539,1562,0,0
322,-538,0,0,0,0,0,0,0,0,0,-1,1546,1562,0,0
329,-538,0,0,0,0,0,0,0,0,0,-1,1553,1562,0,0
336,-538,0,0,0,0,0,0,0,0,0,-1,1560,1562,0,0
343,-538,0,0,0,0,0,0,0,0,0,-1,1567,1562,0,0
350,-538,0,0,0,0,0,0,0,0,0,-1,1574,1562,0,0
357,-538,0,0,0,0,0,0,0,0,0,-1,1581,1562,0,0
364,-538,0,0,0,0,0,0,0,0,0,-1,1588,1562,0,0
371,-538,0,0,0,0,0,0,0,0,0,-1,1595,1562,0,0
378,-538,9.65479,5.82434,0,0,0,0,0,0,0,-1,1602,1562,9.6548,-5.82439
385,-538,10.5449,7.9502,0,0,0,0,0,0,0,-1,1609,1562,10.5449,-7.95014
392,-538,8.20361,7.07214,0,0,0,0,0,0,0,-1,1616,1562,8.20362,-7.07211
399,-538,7.85425,4.70508,0,0,0,0,0,0,0,-1,1623,1562,7.85425,-4.70512
406,-538,7.77734,4.96094,0,0,0,0,0,0,0,-1,1630,1562,7.77729,-4.96097
413,-538,13.0446,13.1765,0,0,0,0,0,0,0,-1,1637,1562,13.0446,-13.1765
420,-538,9.96216,12.7653,0,0,0,0,0,0,0,-1,1644,1562,9.96221,-12.7653
427,-538,10.1732,14.5863,0,0,0,0,0,0,0,-1,1651,1562,10.1732,-14.5863
434,-538,9.64331,14.7745,0,0,0,0,0,0,0,-1,1658,1562,9.64326,-14.7746
441,-538,11.5039,20.5195,0,0,0,0,0,0,0,-1,1665,1562,11.5039,-20.5195
448,-538,12.8766,22.4932,0,0,0,0,0,0,0,-1,1672,1562,12.8766,-22.4932
455,-538,12.5693,17.4128,0,0,0,0,0,0,0,-1,1679,1562,12.5694,-17.4128
462,-538,12.1389,17.017,0,0,0,0,0,0,0,-1,1686,1562,12.1389,-17.017
469,-538,14.3802,16.6945,0,0,0,0,0,0,0,-1,1693,1562,14.3803,-16.6945
476,-538,13.724,19.0608,0,0,0,0,0,0,0,-1,1700,1562,13.724,-19.0608
483,-538,17.088,25.2936,0,0,0,0,0,0,0,-1,1707,1562,17.088,-25.2936
490,-538,25.173,40.8831,0,0,0,0,0,0,0,-1,1714,1562,25.1729,-40.883
497,-538,25.2454,40.0563,0.0102842,0.00878296,-0.00682589,0.0164006,0.00266653,-0.730636,0.0101622,0.0395314,1721,1562,25.2453,-40.0563
504,-538,25.3446,39.082,0.00812667,0.0074101,-0.00554628,0.0133262,0.00221054,-0.753143,0.00824666,0.0166628,1728,1562,25.3447,-39.082
511,-538,25.2766,38.3053,0.00642791,0.00592255,-0.00445232,0.0106347,0.00171574,-0.757053,0.00659274,0.0105705,1735,1562,25.2767,-38.3053
518,-538,25.2616,37.5339,0.00500298,0.00478455,-0.00361743,0.00851284,0.00127468,-0.770307,0.00530166,0.0109378,1742,1562,25.2617,-37.534
525,-538,25.2213,36.7362,0.00374017,0.00367874,-0.00286708,0.0065767,0.00084221,-0.780042,0.00413244,0.012899,1749,1562,25.2213,-36.7362
532,-538,25.1925,35.9589,0.00269928,0.00267702,-0.00220621,0.00489439,0.000481911,-0.782876,0.00311474,0.0151908,1756,1562,25.1925,-35.9589
539,-538,25.1686,35.1837,0.00195094,0.00181521,-0.00168025,0.0035647,0.000201455,-0.765216,0.00231224,0.0181501,1763,1562,25.1686,-35.1837
546,-538,25.0919,34.3497,0.00142545,0.000895297,-0.00120028,0.00238958,-6.88335e-05,-0.676721,0.00161649,0.0190477,1770,1562,25.0919,-34.3497
553,-538,25.0403,33.4989,0.00111023,8.11536e-05,-0.000816797,0.00156105,-0.000369661,-0.504323,0.00118333,0.0289815,1777,1562,25.0402,-33.4989
560,-538,24.9749,32.7002,0.00107859,-0.000648241,-0.000556467,0.00124238,-0.000812027,-0.286247,0.00119475,0.0323431,1784,1562,24.9749,-32.7002
567,-538,24.8661,32.0056,0.00124534,-0.00137101,-0.000351413,0.00129172,-0.00141738,-0.131216,0.00156466,0.0253262,1791,1562,24.866,-32.0056
574,-538,24.748,31.1448,0.0015986,-0.00207995,-0.000186921,0.00160808,-0.00208942,-0.05064,0.00214077,0.0328842,1798,1562,24.7481,-31.1447
581,-538,25.0062,30.1025,0,0,0,0,0,0,0,-1,1805,1562,25.0062,-30.1025
588,-538,24.6564,29.0522,0,0,0,0,0,0,0,-1,1812,1562,24.6563,-29.0522
595,-538,15.9808,16.0894,0,0,0,0,0,0,0,-1,1819,1562,15.9808,-16.0893
602,-538,10.314,8.94238,0,0,0,0,0,0,0,-1,1826,1562,10.314,-8.94238
609,-538,10.1046,7.05713,0,0,0,0,0,0,0,-1,1833,1562,10.1046,-7.05719
616,-538,9.92249,5.43506,0,0,0,0,0,0,0,-1,1840,1562,9.92254,-5.43507
623,-538,11.1711,4.31604,0,0,0,0,0,0,0,-1,1847,1562,11.1711,-4.316
630,-538,12.6112,2.61633,0,0,0,0,0,0,0,-1,1854,1562,12.6112,-2.61637
637,-538,0,0,0,0,0,0,0,0,0,-1,1861,1562,0,0
644,-538,0,0,0,0,0,0,0,0,0,-1,1868,1562,0,0
651,-538,0,0,0,0,0,0,0,0,0,-1,1875,1562,0,0
658,-538,0,0,0,0,0,0,0,0,0,-1,1882,1562,0,0
665,-538,0,0,0,0,0,0,0,0,0,-1,1889,1562,0,0
672,-538,0,0,0,0,0,0,0,0,0,-1,1896,1562,0,0
679,-538,0,0,0,0,0,0,0,0,0,-1,1903,1562,0,0
686,-538,0,0,0,0,0,0,0,0,0,-1,1910,1562,0,0
693,-538,0,0,0,0,0,0,0,0,0,-1,1917,1562,0,0
700,-538,0,0,0,0,0,0,0,0,0,-1,1924,1562,0,0
707,-538,0,0,0,0,0,0,0,0,0,-1,1931,1562,0,0
714,-538,0,0,0,0,0,0,0,0,0,-1,1938,1562,0,0
721,-538,0,0,0,0,0,0,0,0,0,-1,1945,1562,0,0
728,-538,0,0,0,0,0,0,0,0,0,-1,1952,1562,0,0
735,-538,0,0,0,0,0,0,0,0,0,-1,1959,1562,0,0
742,-538,0,0,0,0,0,0,0,0,0,-1,1966,1562,0,0
749,-538,0,0,0,0,0,0,0,0,0,-1,1973,1562,0,0
756,-538,0,0,0,0,0,0,0,0,0,-1,1980,1562,0,0
763,-538,0,0,0,0,0,0,0,0,0,-1,1987,1562,0,0
770,-538,0,0,0,0,0,0,0,0,0,-1,1994,1562,0,0
777,-538,0,0,0,0,0,0,0,0,0,-1,2001,1562,0,0
784,-538,0,0,0,0,0,0,0,0,0,-1,2008,1562,0,0
791,-538,0,0,0,0,0,0,0,0,0,-1,2015,1562,0,0
798,-538,0,0,0,0,0,0,0,0,0,-1,2022,1562,0,0
805,-538,0,0,0,0,0,0,0,0,0,-1,2029,1562,0,0
812,-538,0,0,0,0,0,0,0,0,0,-1,2036,1562,0,0
-700,-545,0,0,0,0,0,0,0,0,0,-1,524,1569,0,0
-693,-545,0,0,0,0,0,0,0,0,0,-1,531,1569,0,0
-686,-545,0,0,0,0,0,0,0,0,0,-1,538,1569,0,0
-679,-545,0,0,0,0,0,0,0,0,0,-1,545,1569,0,0
-672,-545,0,0,0,0,0,0,0,0,0,-1,552,1569,0,0
-665,-545,0,0,0,0,0,0,0,0,0,-1,559,1569,0,0
-658,-545,0,0,0,0,0,0,0,0,0,-1,566,1569,0,0
-651,-545,0,0,0,0,0,0,0,0,0,-1,573,1569,0,0
-644,-545,0,0,0,0,0,0,0,0,0,-1,580,1569,0,0
-637,-545,0,0,0,0,0,0,0,0,0,-1,587,1569,0,0
-630,-545,0,0,0,0,0,0,0,0,0,-1,594,1569,0,0
-623,-545,0,0,0,0,0,0,0,0,0,-1,601,1569,0,0
-616,-545,0,0,0,0,0,0,0,0,0,-1,608,1569,0,0
-609,-545,0,0,0,0,0,0,0,0,0,-1,615,1569,0,0
-602,-545,0,0,0,0,0,0,0,0,0,-1,622,1569,0,0
-595,-545,0,0,0,0,0,0,0,0,0,-1,629,1569,0,0
-588,-545,0,0,0,0,0,0,0,0,0,-1,636,1569,0,0
-581,-545,0,0,0,0,0,0,0,0,0,-1,643,1569,0,0
-574,-545,0,0,0,0,0,0,0,0,0,-1,650,1569,0,0
-567,-545,0,0,0,0,0,0,0,0,0,-1,657,1569,0,0
-560,-545,0,0,0,0,0,0,0,0,0,-1,664,1569,0,0
-553,-545,0,0,0,0,0,0,0,0,0,-1,671,1569,0,0
-546,-545,0,0,0,0,0,0,0,0,0,-1,678,1569,0,0
-539,-545,0,0,0,0,0,0,0,0,0,-1,685,1569,0,0
-532,-545,0,0,0,0,0,0,0,0,0,-1,692,1569,0,0
-525,-545,0,0,0,0,0,0,0,0,0,-1,699,1569,0,0
-518,-545,0,0,0,0,0,0,0,0,0,-1,706,1569,0,0
-511,-545,0,0,0,0,0,0,0,0,0,-1,713,1569,0,0
-504,-545,-3.55237,-2.5354,0,0,0,0,0,0,0,-1,720,1569,-3.55236,2.53545
-497,-545,2.26575,5.69214,0,0,0,0,0,0,0,-1,727,1569,2.26573,-5.6922
-490,-545,-2.17334,7.81396,0,0,0,0,0,0,0,-1,734,1569,-2.17334,-7.81399
-483,-545,-1.88336,5.8446,0,0,0,0,0,0,0,-1,741,1569,-1.88334,-5.84466
-476,-545,-1.13147,6.5741,0,0,0,0,0,0,0,-1,748,1569,-1.13149,-6.57405
-469,-545,-1.03412,15.8353,0,0,0,0,0,0,0,-1,755,1569,-1.03414,-15.8353
-462,-545,-4.09772,21.0458,0,0,0,0,0,0,0,-1,762,1569,-4.0977,-21.0458
-455,-545,-6.01373,28.8918,0,0,0,0,0,0,0,-1,769,1569,-6.01371,-28.8919
-448,-545,-5.99054,30.2144,0,0,0,0,0,0,0,-1,776,1569,-5.99053,-30.2144
-441,-545,-6.17993,31.6302,0,0,0,0,0,0,0,-1,783,1569,-6.17993,-31.6302
-434,-545,-6.48035,32.509,0.00192348,-0.00064047,0.00130037,0.00246755,-0.00118454,0.396261,0.00215147,0.0326031,790,1569,-6.48035,-32.5091
-427,-545,-6.45648,33.3319,0.00179698,-0.000276983,0.00126244,0.00239373,-0.000873734,0.441567,0.00195333,0.0220175,797,1569,-6.45648,-33.3319
-420,-545,-6.44495,34.098,0.00156384,1.24069e-05,0.00112958,0.00215841,-0.000582161,0.484515,0.00166722,0.0248483,804,1569,-6.44496,-34.0981
-413,-545,-6.46222,34.8829,0.00137731,0.000219438,0.00095713,0.00191697,-0.000320226,0.513404,0.00139701,0.0251139,811,1569,-6.46224,-34.8829
-406,-545,-6.53949,35.7576,0.00133157,0.000457379,0.000838807,0.00184033,-5.13855e-05,0.54521,0.00124437,0.0190188,818,1569,-6.53951,-35.7576
-399,-545,-6.60156,36.5853,0.0013526,0.000809016,0.000765158,0.0018928,0.000268812,0.614744,0.00118249,0.0119457,825,1569,-6.60155,-36.5853
-392,-545,-6.64172,37.3905,0.00148951,0.00118843,0.000745016,0.00209905,0.000578902,0.685709,0.00125184,0.0123114,832,1569,-6.64171,-37.3904
-385,-545,-6.68683,38.2208,0.0016272,0.00161623,0.000718002,0.00233974,0.000903695,0.781578,0.00136246,0.0105725,839,1569,-6.68681,-38.2208
-378,-545,-6.74988,39.015,0.00185093,0.00216349,0.000769219,0.00279215,0.00122228,0.885617,0.0016162,0.0123725,846,1569,-6.74988,-39.0151
-371,-545,-6.79303,39.8351,0.0022029,0.0027943,0.000907334,0.0034529,0.0015443,0.942921,0.00199723,0.0165009,853,1569,-6.79301,-39.8351
-364,-545,-6.82092,40.6088,0.00281726,0.00388944,0.00134905,0.00480501,0.00190169,0.974521,0.0027942,0.012706,860,1569,-6.8209,-40.6087
-357,-545,-6.75964,41.5662,0.0034674,0.00523563,0.00189023,0.00643829,0.00226474,1.00415,0.00377121,0.0286833,867,1569,-6.75967,-41.5662
-350,-545,-6.67236,42.6401,0,0,0,0,0,0,0,-1,874,1569,-6.67234,-42.6401
-343,-545,-6.60913,43.3346,0,0,0,0,0,0,0,-1,881,1569,-6.60911,-43.3346
-336,-545,-4.2146,36.9165,0,0,0,0,0,0,0,-1,888,1569,-4.21457,-36.9165
-329,-545,-2.03595,27.8694,0,0,0,0,0,0,0,-1,895,1569,-2.03592,-27.8694
-322,-545,-2.42474,27.9695,0,0,0,0,0,0,0,-1,902,1569,-2.42474,-27.9695
-315,-545,-2.52954,30.1711,0,0,0,0,0,0,0,-1,909,1569,-2.52951,-30.1712
-308,-545,-1.54358,21.4457,0,0,0,0,0,0,0,-1,916,1569,-1.54357,-21.4457
-301,-545,1.52191,17.5009,0,0,0,0,0,0,0,-1,923,1569,1.52192,-17.5008
-294,-545,-2.69287,8.42102,0,0,0,0,0,0,0,-1,930,1569,-2.69287,-8.42097
-287,-545,-3.47784,9.96021,0,0,0,0,0,0,0,-1,937,1569,-3.47785,-9.96021
-280,-545,-3.7879,10.5448,0,0,0,0,0,0,0,-1,944,1569,-3.78793,-10.5448
-273,-545,-5.10333,12.864,0,0,0,0,0,0,0,-1,951,1569,-5.10331,-12.864
-266,-545,-5.78955,13.3704,0,0,0,0,0,0,0,-1,958,1569,-5.78952,-13.3703
-259,-545,-6.32184,13.8101,0,0,0,0,0,0,0,-1,965,1569,-6.32182,-13.81
-252,-545,0.369263,7.54053,0,0,0,0,0,0,0,-1,972,1569,0.369276,-7.54056
-245,-545,-0.236633,6.65564,0,0,0,0,0,0,0,-1,979,1569,-0.236605,-6.65566
-238,-545,0,0,0,0,0,0,0,0,0,-1,986,1569,0,0
-231,-545,0,0,0,0,0,0,0,0,0,-1,993,1569,0,0
-224,-545,0,0,0,0,0,0,0,0,0,-1,1000,1569,0,0
-217,-545,0,0,0,0,0,0,0,0,0,-1,1007,1569,0,0
-210,-545,0,0,0,0,0,0,0,0,0,-1,1014,1569,0,0
-203,-545,0,0,0,0,0,0,0,0,0,-1,1021,1569,0,0
-196,-545,0,0,0,0,0,0,0,0,0,-1,1028,1569,0,0
-189,-545,0,0,0,0,0,0,0,0,0,-1,1035,1569,0,0
-182,-545,0,0,0,0,0,0,0,0,0,-1,1042,1569,0,0
-175,-545,0,0,0,0,0,0,0,0,0,-1,1049,1569,0,0
-168,-545,0,0,0,0,0,0,0,0,0,-1,1056,1569,0,0
-161,-545,0,0,0,0,0,0,0,0,0,-1,1063,1569,0,0
-154,-545,0,0,0,0,0,0,0,0,0,-1,1070,1569,0,0
-147,-545,0,0,0,0,0,0,0,0,0,-1,1077,1569,0,0
-140,-545,0,0,0,0,0,0,0,0,0,-1,1084,1569,0,0
-133,-545,0,0,0,0,0,0,0,0,0,-1,1091,1569,0,0
-126,-545,0,0,0,0,0,0,0,0,0,-1,1098,1569,0,0
-119,-545,0,0,0,0,0,0,0,0,0,-1,1105,1569,0,0
-112,-545,0,0,0,0,0,0,0,0,0,-1,1112,1569,0,0
-105,-545,0,0,0,0,0,0,0,0,0,-1,1119,1569,0,0
-98,-545,0,0,0,0,0,0,0,0,0,-1,1126,1569,0,0
-91,-545,0,0,0,0,0,0,0,0,0,-1,1133,1569,0,0
-84,-545,0,0,0,0,0,0,0,0,0,-1,1140,1569,0,0
-77,-545,0,0,0,0,0,0,0,0,0,-1,1147,1569,0,0
-70,-545,0,0,0,0,0,0,0,0,0,-1,1154,1569,0,0
-63,-545,0,0,0,0,0,0,0,0,0,-1,1161,1569,0,0
-56,-545,0,0,0,0,0,0,0,0,0,-1,1168,1569,0,0
-49,-545,0,0,0,0,0,0,0,0,0,-1,1175,1569,0,0
-42,-545,0,0,0,0,0,0,0,0,0,-1,1182,1569,0,0
-35,-545,0,0,0,0,0,0,0,0,0,-1,1189,1569,0,0
-28,-545,0,0,0,0,0,0,0,0,0,-1,1196,1569,0,0
-21,-545,0,0,0,0,0,0,0,0,0,-1,1203,1569,0,0
-14,-545,0,0,0,0,0,0,0,0,0,-1,1210,1569,0,0
-7,-545,0,0,0,0,0,0,0,0,0,-1,1217,1569,0,0
0,-545,0,0,0,0,0,0,0,0,0,-1,1224,1569,0,0
7,-545,0,0,0,0,0,0,0,0,0,-1,1231,1569,0,0
14,-545,0,0,0,0,0,0,0,0,0,-1,1238,1569,0,0
21,-545,0,0,0,0,0,0,0,0,0,-1,1245,1569,0,0
28,-545,0,0,0,0,0,0,0,0,0,-1,1252,1569,0,0
35,-545,0,0,0,0,0,0,0,0,0,-1,1259,1569,0,0
42,-545,0,0,0,0,0,0,0,0,0,-1,1266,1569,0,0
49,-545,0,0,0,0,0,0,0,0,0,-1,1273,1569,0,0
56,-545,0,0,0,0,0,0,0,0,0,-1,1280,1569,0,0
63,-545,0,0,0,0,0,0,0,0,0,-1,1287,1569,0,0
70,-545,0,0,0,0,0,0,0,0,0,-1,1294,1569,0,0
77,-545,0,0,0,0,0,0,0,0,0,-1,1301,1569,0,0
84,-545,0,0,0,0,0,0,0,0,0,-1,1308,1569,0,0
91,-545,0,0,0,0,0,0,0,0,0,-1,1315,1569,0,0
98,-545,0,0,0,0,0,0,0,0,0,-1,1322,1569,0,0
105,-545,0,0,0,0,0,0,0,0,0,-1,1329,1569,0,0
112,-545,0,0,0,0,0,0,0,0,0,-1,1336,1569,0,0
119,-545,0,0,0,0,0,0,0,0,0,-1,1343,1569,0,0
126,-545,0,0,0,0,0,0,0,0,0,-1,1350,1569,0,0
133,-545,0,0,0,0,0,0,0,0,0,-1,1357,1569,0,0
140,-545,0,0,0,0,0,0,0,0,0,-1,1364,1569,0,0
147,-545,0,0,0,0,0,0,0,0,0,-1,1371,1569,0,0
154,-545,0,0,0,0,0,0,0,0,0,-1,1378,1569,0,0
161,-545,0,0,0,0,0,0,0,0,0,-1,1385,1569,0,0
168,-545,0,0,0,0,0,0,0,0,0,-1,1392,1569,0,0
175,-545,0,0,0,0,0,0,0,0,0,-1,1399,1569,0,0
182,-545,0,0,0,0,0,0,0,0,0,-1,1406,1569,0,0
189,-545,0,0,0,0,0,0,0,0,0,-1,1413,1569,0,0
196,-545,0,0,0,0,0,0,0,0,0,-1,1420,1569,0,0
203,-545,0,0,0,0,0,0,0,0,0,-1,1427,1569,0,0
210,-545,0,0,0,0,0,0,0,0,0,-1,1434,1569,0,0
217,-545,0,0,0,0,0,0,0,0,0,-1,1441,1569,0,0
224,-545,0,0,0,0,0,0,0,0,0,-1,1448,1569,0,0
231,-545,0,0,0,0,0,0,0,0,0,-1,1455,1569,0,0
238,-545,0,0,0,0,0,0,0,0,0,-1,1462,1569,0,0
245,-545,0,0,0,0,0,0,0,0,0,-1,1469,1569,0,0
252,-545,0,0,0,0,0,0,0,0,0,-1,1476,1569,0,0
259,-545,0,0,0,0,0,0,0,0,0,-1,1483,1569,0,0
266,-545,0,0,0,0,0,0,0,0,0,-1,1490,1569,0,0
273,-545,0,0,0,0,0,0,0,0,0,-1,1497,1569,0,0
280,-545,0,0,0,0,0,0,0,0,0,-1,1504,1569,0,0
287,-545,0,0,0,0,0,0,0,0,0,-1,1511,1569,0,0
294,-545,0,0,0,0,0,0,0,0,0,-1,1518,1569,0,0
301,-545,0,0,0,0,0,0,0,0,0,-1,1525,1569,0,0
308,-545,0,0,0,0,0,0,0,0,0,-1,1532,1569,0,0
315,-545,0,0,0,0,0,0,0,0,0,-1,1539,1569,0,0
322,-545,0,0,0,0,0,0,0,0,0,-1,1546,1569,0,0
329,-545,0,0,0,0,0,0,0,0,0,-1,1553,1569,0,0
336,-545,0,0,0,0,0,0,0,0,0,-1,1560,1569,0,0
343,-545,0,0,0,0,0,0,0,0,0,-1,1567,1569,0,0
350,-545,0,0,0,0,0,0,0,0,0,-1,1574,1569,0,0
357,-545,0,0,0,0,0,0,0,0,0,-1,1581,1569,0,0
364,-545,7.19495,4.88098,0,0,0,0,0,0,0,-1,1588,1569,7.19497,-4.88095
371,-545,7.82324,3.84302,0,0,0,0,0,0,0,-1,1595,1569,7.82324,-3.84307
378,-545,7.65674,5.52673,0,0,0,0,0,0,0,-1,1602,1569,7.6567,-5.52667
385,-545,8.58447,1.16125,0,0,0,0,0,0,0,-1,1609,1569,8.5845,-1.1612
392,-545,12.5654,3.89526,0,0,0,0,0,0,0,-1,1616,1569,12.5655,-3.89532
399,-545,11.5869,5.6333,0,0,0,0,0,0,0,-1,1623,1569,11.5869,-5.63326
406,-545,11.234,6.36414,0,0,0,0,0,0,0,-1,1630,1569,11.234,-6.3641
413,-545,12.1521,13.4817,0,0,0,0,0,0,0,-1,1637,1569,12.1521,-13.4817
420,-545,11.1954,13.6047,0,0,0,0,0,0,0,-1,1644,1569,11.1954,-13.6047
427,-545,9.61072,14.9135,0,0,0,0,0,0,0,-1,1651,1569,9.61076,-14.9134
434,-545,13.1598,23.9921,0,0,0,0,0,0,0,-1,1658,1569,13.1598,-23.992
441,-545,12.2833,22.2238,0,0,0,0,0,0,0,-1,1665,1569,12.2833,-22.2237
448,-545,13.0082,21.941,0,0,0,0,0,0,0,-1,1672,1569,13.0082,-21.941
455,-545,13.733,21.6583,0,0,0,0,0,0,0,-1,1679,1569,13.733,-21.6583
462,-545,12.449,20.7413,0,0,0,0,0,0,0,-1,1686,1569,12.4489,-20.7413
469,-545,12.7837,17.7919,0,0,0,0,0,0,0,-1,1693,1569,12.7837,-17.7919
476,-545,15.7562,24.8708,0,0,0,0,0,0,0,-1,1700,1569,15.7563,-24.8709
483,-545,24.5449,41.6277,0,0,0,0,0,0,0,-1,1707,1569,24.5449,-41.6277
490,-545,24.5264,40.7668,0.0102417,0.00855867,-0.00653098,0.0159852,0.00281523,-0.721325,0.00985335,0.0295167,1714,1569,24.5264,-40.7668
497,-545,24.5543,39.9697,0.00822404,0.00681272,-0.00520353,0.0127695,0.00226722,-0.718003,0.00786695,0.0223329,1721,1569,24.5543,-39.9697
504,-545,24.6207,39.1637,0.00646681,0.00568523,-0.00423046,0.0103245,0.00182755,-0.739341,0.00636192,0.0153211,1728,1569,24.6207,-39.1637
511,-545,24.5369,38.3591,0.00498796,0.00445204,-0.00334779,0.0080785,0.00136151,-0.745463,0.00499408,0.0115237,1735,1569,24.5368,-38.3591
518,-545,24.4857,37.5715,0.00372899,0.00350072,-0.00268751,0.0063048,0.000924923,-0.764177,0.00393133,0.012973,1742,1569,24.4857,-37.5715
525,-545,24.4192,36.7733,0.0026286,0.00256252,-0.00208362,0.00467944,0.000511671,-0.777471,0.00296383,0.0146706,1749,1569,24.4192,-36.7733
532,-545,24.3615,35.9939,0.00175492,0.00172016,-0.00156521,0.00330285,0.000172234,-0.779846,0.00214679,0.0156165,1756,1569,24.3614,-35.9939
539,-545,24.34,35.2345,0.0011532,0.00097891,-0.00116197,0.00223129,-9.91797e-05,-0.74797,0.00152166,0.0185698,1763,1569,24.34,-35.2345
546,-545,24.2893,34.3981,0.00077661,0.000166441,-0.000787234,0.00131581,-0.000372758,-0.600539,0.00102432,0.0195493,1770,1569,24.2893,-34.398
553,-545,24.238,33.5507,0.000642383,-0.000543987,-0.000530608,0.00084507,-0.000746675,-0.364886,0.000919579,0.0266054,1777,1569,24.2381,-33.5507
560,-545,24.2279,32.7428,0.000780261,-0.00123115,-0.000388362,0.000852641,-0.00130353,-0.184259,0.0012539,0.0328213,1784,1569,24.2279,-32.7428
567,-545,24.2007,31.8661,0,0,0,0,0,0,0,-1,1791,1569,24.2007,-31.8661
574,-545,24.0828,30.9785,0,0,0,0,0,0,0,-1,1798,1569,24.0828,-30.9785
581,-545,23.9723,29.941,0,0,0,0,0,0,0,-1,1805,1569,23.9723,-29.941
588,-545,15.4786,16.7035,0,0,0,0,0,0,0,-1,1812,1569,15.4786,-16.7035
595,-545,10.2859,9.11218,0,0,0,0,0,0,0,-1,1819,1569,10.2858,-9.11215
602,-545,8.82117,6.32214,0,0,0,0,0,0,0,-1,1826,1569,8.82121,-6.32217
609,-545,10.2406,5.22351,0,0,0,0,0,0,0,-1,1833,1569,10.2406,-5.22353
616,-545,11.701,3.93188,0,0,0,0,0,0,0,-1,1840,1569,11.701,-3.93191
623,-545,13.2139,2.32043,0,0,0,0,0,0,0,-1,1847,1569,13.2139,-2.32042
630,-545,0,0,0,0,0,0,0,0,0,-1,1854,1569,0,0
637,-545,0,0,0,0,0,0,0,0,0,-1,1861,1569,0,0
644,-545,0,0,0,0,0,0,0,0,0,-1,1868,1569,0,0
651,-545,0,0,0,0,0,0,0,0,0,-1,1875,1569,0,0
658,-545,0,0,0,0,0,0,0,0,0,-1,1882,1569,0,0
665,-545,0,0,0,0,0,0,0,0,0,-1,1889,1569,0,0
672,-545,0,0,0,0,0,0,0,0,0,-1,1896,1569,0,0
679,-545,0,0,0,0,0,0,0,0,0,-1,1903,1569,0,0
686,-545,0,0,0,0,0,0,0,0,0,-1,1910,1569,0,0
693,-545,0,0,0,0,0,0,0,0,0,-1,1917,1569,0,0
700,-545,0,0,0,0,0,0,0,0,0,-1,1924,1569,0,0
707,-545,0,0,0,0,0,0,0,0,0,-1,1931,1569,0,0
714,-545,0,0,0,0,0,0,0,0,0,-1,1938,1569,0,0
721,-545,0,0,0,0,0,0,0,0,0,-1,1945,1569,0,0
728,-545,0,0,0,0,0,0,0,0,0,-1,1952,1569,0,0
735,-545,0,0,0,0,0,0,0,0,0,-1,1959,1569,0,0
742,-545,0,0,0,0,0,0,0,0,0,-1,1966,1569,0,0
749,-545,0,0,0,0,0,0,0,0,0,-1,1973,1569,0,0
756,-545,0,0,0,0,0,0,0,0,0,-1,1980,1569,0,0
763,-545,0,0,0,0,0,0,0,0,0,-1,1987,1569,0,0
770,-545,0,0,0,0,0,0,0,0,0,-1,1994,1569,0,0
777,-545,0,0,0,0,0,0,0,0,0,-1,2001,1569,0,0
784,-545,0,0,0,0,0,0,0,0,0,-1,2008,1569,0,0
791,-545,0,0,0,0,0,0,0,0,0,-1,2015,1569,0,0
798,-545,0,0,0,0,0,0,0,0,0,-1,2022,1569,0,0
805,-545,0,0,0,0,0,0,0,0,0,-1,2029,1569,0,0
812,-545,0,0,0,0,0,0,0,0,0,-1,2036,1569,0,0
-700,-552,0,0,0,0,0,0,0,0,0,-1,524,1576,0,0
-693,-552,0,0,0,0,0,0,0,0,0,-1,531,1576,0,0
-686,-552,0,0,0,0,0,0,0,0,0,-1,538,1576,0,0
-679,-552,0,0,0,0,0,0,0,0,0,-1,545,1576,0,0
-672,-552,0,0,0,0,0,0,0,0,0,-1,552,1576,0,0
-665,-552,0,0,0,0,0,0,0,0,0,-1,559,1576,0,0
-658,-552,0,0,0,0,0,0,0,0,0,-1,566,1576,0,0
-651,-552,0,0,0,0,0,0,0,0,0,-1,573,1576,0,0
-644,-552,0,0,0,0,0,0,0,0,0,-1,580,1576,0,0
-637,-552,0,0,0,0,0,0,0,0,0,-1,587,1576,0,0
-630,-552,0,0,0,0,0,0,0,0,0,-1,594,1576,0,0
-623,-552,0,0,0,0,0,0,0,0,0,-1,601,1576,0,0
-616,-552,0,0,0,0,0,0,0,0,0,-1,608,1576,0,0
-609,-552,0,0,0,0,0,0,0,0,0,-1,615,1576,0,0
-602,-552,0,0,0,0,0,0,0,0,0,-1,622,1576,0,0
-595,-552,0,0,0,0,0,0,0,0,0,-1,629,1576,0,0
-588,-552,0,0,0,0,0,0,0,0,0,-1,636,1576,0,0
-581,-552,0,0,0,0,0,0,0,0,0,-1,643,1576,0,0
-574,-552,0,0,0,0,0,0,0,0,0,-1,650,1576,0,0
-567,-552,0,0,0,0,0,0,0,0,0,-1,657,1576,0,0
-560,-552,0,0,0,0,0,0,0,0,0,-1,664,1576,0,0
-553,-552,0,0,0,0,0,0,0,0,0,-1,671,1576,0,0
-546,-552,0,0,0,0,0,0,0,0,0,-1,678,1576,0,0
-539,-552,0,0,0,0,0,0,0,0,0,-1,685,1576,0,0
-532,-552,0,0,0,0,0,0,0,0,0,-1,692,1576,0,0
-525,-552,0,0,0,0,0,0,0,0,0,-1,699,1576,0,0
-518,-552,0,0,0,0,0,0,0,0,0,-1,706,1576,0,0
-511,-552,0,0,0,0,0,0,0,0,0,-1,713,1576,0,0
-504,-552,0,0,0,0,0,0,0,0,0,-1,720,1576,0,0
-497,-552,1.51282,3.96924,0,0,0,0,0,0,0,-1,727,1576,1.5128,-3.96924
-490,-552,-3.82312,6.32104,0,0,0,0,0,0,0,-1,734,1576,-3.82314,-6.3211
-483,-552,-3.50586,6.47986,0,0,0,0,0,0,0,-1,741,1576,-3.50587,-6.47983
-476,-552,-1.95129,4.43054,0,0,0,0,0,0,0,-1,748,1576,-1.95128,-4.43054
-469,-552,-1.40491,7.9895,0,0,0,0,0,0,0,-1,755,1576,-1.40491,-7.98947
-462,-552,0.0459595,16.3469,0,0,0,0,0,0,0,-1,762,1576,0.0459611,-16.3469
-455,-552,-3.21484,22.3766,0,0,0,0,0,0,0,-1,769,1576,-3.21487,-22.3766
-448,-552,-5.22241,29.7556,0,0,0,0,0,0,0,-1,776,1576,-5.22238,-29.7556
-441,-552,-4.66534,32.1996,0,0,0,0,0,0,0,-1,783,1576,-4.66536,-32.1996
-434,-552,-5.35614,32.7432,0,0,0,0,0,0,0,-1,790,1576,-5.35614,-32.7431
-427,-552,-6.04694,33.2866,0,0,0,0,0,0,0,-1,797,1576,-6.04691,-33.2867
-420,-552,-5.64709,34.1677,0.00207925,0.000168596,0.00171961,0.00309108,-0.000843233,0.531851,0.00239187,0.0244065,804,1576,-5.6471,-34.1677
-413,-552,-5.65131,34.9531,0.00169246,0.000295688,0.00147751,0.00262833,-0.00064018,0.564623,0.00200006,0.0183625,811,1576,-5.6513,-34.9531
-406,-552,-5.72083,35.7917,0.00148327,0.000412473,0.00127404,0.00232984,-0.000434095,0.586483,0.00171632,0.0146936,818,1576,-5.72085,-35.7917
-399,-552,-5.77655,36.5981,0.00138905,0.000670792,0.00113024,0.00221585,-0.000156007,0.63157,0.00153189,0.0145697,825,1576,-5.77653,-36.5981
-392,-552,-5.85187,37.4115,0.00144471,0.000945296,0.00103988,0.00226444,0.000125562,0.667564,0.00146956,0.0162776,832,1576,-5.85184,-37.4115
-385,-552,-5.89807,38.2567,0.00149721,0.00126126,0.000921917,0.00230867,0.0004498,0.721759,0.00141325,0.0144681,839,1576,-5.89806,-38.2567
-378,-552,-5.95673,39.0411,0.00160689,0.00168077,0.000879911,0.00252452,0.000763144,0.806377,0.00149503,0.0156461,846,1576,-5.95674,-39.0412
-371,-552,-5.98889,39.8621,0.00185408,0.00212963,0.000899703,0.00290205,0.00108166,0.861377,0.00169349,0.0203242,853,1576,-5.98887,-39.862
-364,-552,-6.01422,40.6548,0.0023588,0.00301058,0.00120988,0.00393769,0.00143169,0.916953,0.00230146,0.0159837,860,1576,-6.01419,-40.6548
-357,-552,-6.02557,41.4208,0.00291562,0.00408344,0.00159675,0.00519969,0.00179937,0.96069,0.00304911,0.011279,867,1576,-6.0256,-41.4207
-350,-552,-6.01117,42.3059,0.00357416,0.00546064,0.00216278,0.00687692,0.00215788,0.991025,0.00406114,0.0181919,874,1576,-6.01118,-42.306
-343,-552,-6.05884,43.0416,0.00410142,0.00657921,0.00268408,0.00829651,0.00238411,1.00162,0.00493227,0.0342437,881,1576,-6.05887,-43.0416
-336,-552,-6.13165,43.6826,0,0,0,0,0,0,0,-1,888,1576,-6.13167,-43.6826
-329,-552,-3.68982,37.6417,0,0,0,0,0,0,0,-1,895,1576,-3.68984,-37.6417
-322,-552,-1.23962,28.5371,0,0,0,0,0,0,0,-1,902,1576,-1.23964,-28.5371
-315,-552,-0.605347,28.994,0,0,0,0,0,0,0,-1,909,1576,-0.605331,-28.9941
-308,-552,-1.01624,30.3169,0,0,0,0,0,0,0,-1,916,1576,-1.01624,-30.3169
-301,-552,1.39453,18.4995,0,0,0,0,0,0,0,-1,923,1576,1.3945,-18.4995
-294,-552,0.842163,13.7863,0,0,0,0,0,0,0,-1,930,1576,0.842149,-13.7863
-287,-552,-0.663757,13.3474,0,0,0,0,0,0,0,-1,937,1576,-0.663744,-13.3474
-280,-552,-5.47241,8.96765,0,0,0,0,0,0,0,-1,944,1576,-5.47239,-8.96766
-273,-552,1.64587,10.6685,0,0,0,0,0,0,0,-1,951,1576,1.6459,-10.6685
-266,-552,-1.32678,8.05688,0,0,0,0,0,0,0,-1,958,1576,-1.32677,-8.05683
-259,-552,-5.54321,8.31213,0,0,0,0,0,0,0,-1,965,1576,-5.54324,-8.31214
-252,-552,-1.93445,7.81543,0,0,0,0,0,0,0,-1,972,1576,-1.93445,-7.81546
-245,-552,-2.53613,6.92212,0,0,0,0,0,0,0,-1,979,1576,-2.53614,-6.92216
-238,-552,-6.5365,2.81885,0,0,0,0,0,0,0,-1,986,1576,-6.53649,-2.8188
-231,-552,-4.32239,4.34583,0,0,0,0,0,0,0,-1,993,1576,-4.32239,-4.34587
-224,-552,0,0,0,0,0,0,0,0,0,-1,1000,1576,0,0
-217,-552,0,0,0,0,0,0,0,0,0,-1,1007,1576,0,0
-210,-552,0,0,0,0,0,0,0,0,0,-1,1014,1576,0,0
-203,-552,0,0,0,0,0,0,0,0,0,-1,1021,1576,0,0
-196,-552,0,0,0,0,0,0,0,0,0,-1,1028,1576,0,0
-189,-552,0,0,0,0,0,0,0,0,0,-1,1035,1576,0,0
-182,-552,0,0,0,0,0,0,0,0,0,-1,1042,1576,0,0
-175,-552,0,0,0,0,0,0,0,0,0,-1,1049,1576,0,0
-168,-552,0,0,0,0,0,0,0,0,0,-1,1056,1576,0,0
-161,-552,0,0,0,0,0,0,0,0,0,-1,1063,1576,0,0
-154,-552,0,0,0,0,0,0,0,0,0,-1,1070,1576,0,0
-147,-552,0,0,0,0,0,0,0,0,0,-1,1077,1576,0,0
-140,-552,0,0,0,0,0,0,0,0,0,-1,1084,1576,0,0
-133,-552,0,0,0,0,0,0,0,0,0,-1,1091,1576,0,0
-126,-552,0,0,0,0,0,0,0,0,0,-1,1098,1576,0,0
-119,-552,0,0,0,0,0,0,0,0,0,-1,1105,1576,0,0
-112,-552,0,0,0,0,0,0,0,0,0,-1,1112,1576,0,0
-105,-552,0,0,0,0,0,0,0,0,0,-1,1119,1576,0,0
-98,-552,0,0,0,0,0,0,0,0,0,-1,1126,1576,0,0
-91,-552,0,0,0,0,0,0,0,0,0,-1,1133,1576,0,0
-84,-552,0,0,0,0,0,0,0,0,0,-1,1140,1576,0,0
-77,-552,0,0,0,0,0,0,0,0,0,-1,1147,1576,0,0
-70,-552,0,0,0,0,0,0,0,0,0,-1,1154,1576,0,0
-63,-552,0,0,0,0,0,0,0,0,0,-1,1161,1576,0,0
-56,-552,0,0,0,0,0,0,0,0,0,-1,1168,1576,0,0
-49,-552,0,0,0,0,0,0,0,0,0,-1,1175,1576,0,0
-42,-552,0,0,0,0,0,0,0,0,0,-1,1182,1576,0,0
-35,-552,0,0,0,0,0,0,0,0,0,-1,1189,1576,0,0
-28,-552,0,0,0,0,0,0,0,0,0,-1,1196,1576,0,0
-21,-552,0,0,0,0,0,0,0,0,0,-1,1203,1576,0,0
-14,-552,0,0,0,0,0,0,0,0,0,-1,1210,1576,0,0
-7,-552,0,0,0,0,0,0,0,0,0,-1,1217,1576,0,0
0,-552,0,0,0,0,0,0,0,0,0,-1,1224,1576,0,0
7,-552,0,0,0,0,0,0,0,0,0,-1,1231,1576,0,0
14,-552,0,0,0,0,0,0,0,0,0,-1,1238,1576,0,0
21,-552,0,0,0,0,0,0,0,0,0,-1,1245,1576,0,0
28,-552,0,0,0,0,0,0,0,0,0,-1,1252,1576,0,0
35,-552,0,0,0,0,0,0,0,0,0,-1,1259,1576,0,0
42,-552,0,0,0,0,0,0,0,0,0,-1,1266,1576,0,0
49,-552,0,0,0,0,0,0,0,0,0,-1,1273,1576,0,0
56,-552,0,0,0,0,0,0,0,0,0,-1,1280,1576,0,0
63,-552,0,0,0,0,0,0,0,0,0,-1,1287,1576,0,0
70,-552,0,0,0,0,0,0,0,0,0,-1,1294,1576,0,0
77,-552,0,0,0,0,0,0,0,0,0,-1,1301,1576,0,0
84,-552,0,0,0,0,0,0,0,0,0,-1,1308,1576,0,0
91,-552,0,0,0,0,0,0,0,0,0,-1,1315,1576,0,0
98,-552,0,0,0,0,0,0,0,0,0,-1,1322,1576,0,0
105,-552,0,0,0,0,0,0,0,0,0,-1,1329,1576,0,0
112,-552,0,0,0,0,0,0,0,0,0,-1,1336,1576,0,0
119,-552,0,0,0,0,0,0,0,0,0,-1,1343,1576,0,0
126,-552,0,0,0,0,0,0,0,0,0,-1,1350,1576,0,0
133,-552,0,0,0,0,0,0,0,0,0,-1,1357,1576,0,0
140,-552,0,0,0,0,0,0,0,0,0,-1,1364,1576,0,0
147,-552,0,0,0,0,0,0,0,0,0,-1,1371,1576,0,0
154,-552,0,0,0,0,0,0,0,0,0,-1,1378,1576,0,0
161,-552,0,0,0,0,0,0,0,0,0,-1,1385,1576,0,0
168,-552,0,0,0,0,0,0,0,0,0,-1,1392,1576,0,0
175,-552,0,0,0,0,0,0,0,0,0,-1,1399,1576,0,0
182,-552,0,0,0,0,0,0,0,0,0,-1,1406,1576,0,0
189,-552,0,0,0,0,0,0,0,0,0,-1,1413,1576,0,0
196,-552,0,0,0,0,0,0,0,0,0,-1,1420,1576,0,0
203,-552,0,0,0,0,0,0,0,0,0,-1,1427,1576,0,0
210,-552,0,0,0,0,0,0,0,0,0,-1,1434,1576,0,0
217,-552,0,0,0,0,0,0,0,0,0,-1,1441,1576,0,0
224,-552,0,0,0,0,0,0,0,0,0,-1,1448,1576,0,0
231,-552,0,0,0,0,0,0,0,0,0,-1,1455,1576,0,0
238,-552,0,0,0,0,0,0,0,0,0,-1,1462,1576,0,0
245,-552,0,0,0,0,0,0,0,0,0,-1,1469,1576,0,0
252,-552,0,0,0,0,0,0,0,0,0,-1,1476,1576,0,0
259,-552,0,0,0,0,0,0,0,0,0,-1,1483,1576,0,0
266,-552,0,0,0,0,0,0,0,0,0,-1,1490,1576,0,0
273,-552,0,0,0,0,0,0,0,0,0,-1,1497,1576,0,0
280,-552,0,0,0,0,0,0,0,0,0,-1,1504,1576,0,0
287,-552,0,0,0,0,0,0,0,0,0,-1,1511,1576,0,0
294,-552,0,0,0,0,0,0,0,0,0,-1,1518,1576,0,0
301,-552,0,0,0,0,0,0,0,0,0,-1,1525,1576,0,0
308,-552,0,0,0,0,0,0,0,0,0,-1,1532,1576,0,0
315,-552,0,0,0,0,0,0,0,0,0,-1,1539,1576,0,0
322,-552,0,0,0,0,0,0,0,0,0,-1,1546,1576,0,0
329,-552,0,0,0,0,0,0,0,0,0,-1,1553,1576,0,0
336,-552,0,0,0,0,0,0,0,0,0,-1,1560,1576,0,0
343,-552,0,0,0,0,0,0,0,0,0,-1,1567,1576,0,0
350,-552,4.97876,4.09888,0,0,0,0,0,0,0,-1,1574,1576,4.97875,-4.09883
357,-552,5.18469,4.10706,0,0,0,0,0,0,0,-1,1581,1576,5.1847,-4.10702
364,-552,5.80872,5.07031,0,0,0,0,0,0,0,-1,1588,1576,5.80874,-5.07037
371,-552,7.10657,5.64783,0,0,0,0,0,0,0,-1,1595,1576,7.10651,-5.64786
378,-552,6.44446,4.91492,0,0,0,0,0,0,0,-1,1602,1576,6.44448,-4.91496
385,-552,12.8276,3.16504,0,0,0,0,0,0,0,-1,1609,1576,12.8276,-3.16503
392,-552,12.1301,4.3363,0,0,0,0,0,0,0,-1,1616,1576,12.1302,-4.33631
399,-552,11.3486,5.6012,0,0,0,0,0,0,0,-1,1623,1576,11.3486,-5.60115
406,-552,10.7863,6.42542,0,0,0,0,0,0,0,-1,1630,1576,10.7863,-6.42536
413,-552,8.39307,10.365,0,0,0,0,0,0,0,-1,1637,1576,8.3931,-10.365
420,-552,10.2306,12.7225,0,0,0,0,0,0,0,-1,1644,1576,10.2305,-12.7226
427,-552,9.73267,14.783,0,0,0,0,0,0,0,-1,1651,1576,9.73269,-14.783
434,-552,12.0377,20.1364,0,0,0,0,0,0,0,-1,1658,1576,12.0377,-20.1364
441,-552,12.4963,21.5277,0,0,0,0,0,0,0,-1,1665,1576,12.4964,-21.5277
448,-552,12.9141,21.5482,0,0,0,0,0,0,0,-1,1672,1576,12.9141,-21.5482
455,-552,13.3318,21.5687,0,0,0,0,0,0,0,-1,1679,1576,13.3317,-21.5687
462,-552,12.745,20.5947,0,0,0,0,0,0,0,-1,1686,1576,12.745,-20.5947
469,-552,17.7067,29.6902,0,0,0,0,0,0,0,-1,1693,1576,17.7067,-29.6902
476,-552,23.6599,42.6005,0,0,0,0,0,0,0,-1,1700,1576,23.6599,-42.6005
483,-552,23.8914,41.4885,0,0,0,0,0,0,0,-1,1707,1576,23.8914,-41.4886
490,-552,23.807,40.6841,0.00815312,0.00680109,-0.00500636,0.0125289,0.00242531,-0.718288,0.00767301,0.015261,1714,1576,23.8071,-40.6841
497,-552,23.8674,39.9094,0.00642132,0.00534339,-0.00396209,0.00988093,0.00188378,-0.717798,0.00605779,0.0219847,1721,1576,23.8674,-39.9094
504,-552,23.8337,39.1853,0.00493129,0.00435707,-0.00320725,0.00786426,0.00142411,-0.740758,0.00483851,0.0240354,1728,1576,23.8337,-39.1853
511,-552,23.7982,38.3947,0.00362846,0.00328352,-0.00248754,0.0059495,0.000962477,-0.750787,0.00368762,0.0180376,1735,1576,23.7983,-38.3947
518,-552,23.7324,37.5792,0.00251213,0.00244074,-0.00196037,0.00443713,0.000515745,-0.776295,0.00280204,0.0162226,1742,1576,23.7324,-37.5793
525,-552,23.6492,36.7998,0.00155711,0.00160223,-0.00147791,0.00305775,0.000101586,-0.793031,0.0020055,0.0163356,1749,1576,23.6492,-36.7998
532,-552,23.5929,36.0237,0.0008514,0.000859176,-0.00108426,0.00193956,-0.000228979,-0.787191,0.00137573,0.0158991,1756,1576,23.5929,-36.0236
539,-552,23.5511,35.2434,0.00041224,0.000180238,-0.000784389,0.00108916,-0.000496682,-0.711987,0.000936643,0.0195146,1763,1576,23.5511,-35.2434
546,-552,23.4708,34.4216,0.000230542,-0.000562119,-0.000500128,0.000472339,-0.000803915,-0.450336,0.000745089,0.0238613,1770,1576,23.4708,-34.4217
553,-552,23.4772,33.5696,0.000346982,-0.00121022,-0.000343486,0.000419382,-0.00128262,-0.207738,0.00102391,0.027666,1777,1576,23.4772,-33.5696
560,-552,23.5392,32.71,0,0,0,0,0,0,0,-1,1784,1576,23.5391,-32.71
567,-552,20.6783,26.0908,0,0,0,0,0,0,0,-1,1791,1576,20.6784,-26.0908
574,-552,12.8835,14.8463,0,0,0,0,0,0,0,-1,1798,1576,12.8836,-14.8463
581,-552,9.74841,9.98645,0,0,0,0,0,0,0,-1,1805,1576,9.74847,-9.9864
588,-552,10.5619,9.34924,0,0,0,0,0,0,0,-1,1812,1576,10.5619,-9.34921
595,-552,5.36194,6.62744,0,0,0,0,0,0,0,-1,1819,1576,5.36193,-6.62742
602,-552,10.6863,4.31616,0,0,0,0,0,0,0,-1,1826,1576,10.6862,-4.31619
609,-552,12.146,3.18286,0,0,0,0,0,0,0,-1,1833,1576,12.1459,-3.18281
616,-552,13.8762,2.08167,0,0,0,0,0,0,0,-1,1840,1576,13.8763,-2.08167
623,-552,0,0,0,0,0,0,0,0,0,-1,1847,1576,0,0
630,-552,0,0,0,0,0,0,0,0,0,-1,1854,1576,0,0
637,-552,0,0,0,0,0,0,0,0,0,-1,1861,1576,0,0
644,-552,0,0,0,0,0,0,0,0,0,-1,1868,1576,0,0
651,-552,0,0,0,0,0,0,0,0,0,-1,1875,1576,0,0
658,-552,0,0,0,0,0,0,0,0,0,-1,1882,1576,0,0
665,-552,0,0,0,0,0,0,0,0,0,-1,1889,1576,0,0
672,-552,0,0,0,0,0,0,0,0,0,-1,1896,1576,0,0
679,-552,0,0,0,0,0,0,0,0,0,-1,1903,1576,0,0
686,-552,0,0,0,0,0,0,0,0,0,-1,1910,1576,0,0
693,-552,0,0,0,0,0,0,0,0,0,-1,1917,1576,0,0
700,-552,0,0,0,0,0,0,0,0,0,-1,1924,1576,0,0
707,-552,0,0,0,0,0,0,0,0,0,-1,1931,1576,0,0
714,-552,0,0,0,0,0,0,0,0,0,-1,1938,1576,0,0
721,-552,0,0,0,0,0,0,0,0,0,-1,1945,1576,0,0
728,-552,0,0,0,0,0,0,0,0,0,-1,1952,1576,0,0
735,-552,0,0,0,0,0,0,0,0,0,-1,1959,1576,0,0
742,-552,0,0,0,0,0,0,0,0,0,-1,1966,1576,0,0
749,-552,0,0,0,0,0,0,0,0,0,-1,1973,1576,0,0
756,-552,0,0,0,0,0,0,0,0,0,-1,1980,1576,0,0
763,-552,0,0,0,0,0,0,0,0,0,-1,1987,1576,0,0
770,-552,0,0,0,0,0,0,0,0,0,-1,1994,1576,0,0
777,-552,0,0,0,0,0,0,0,0,0,-1,2001,1576,0,0
784,-552,0,0,0,0,0,0,0,0,0,-1,2008,1576,0,0
791,-552,0,0,0,0,0,0,0,0,0,-1,2015,1576,0,0
798,-552,0,0,0,0,0,0,0,0,0,-1,2022,1576,0,0
805,-552,0,0,0,0,0,0,0,0,0,-1,2029,1576,0,0
812,-552,0,0,0,0,0,0,0,0,0,-1,2036,1576,0,0
-700,-559,0,0,0,0,0,0,0,0,0,-1,524,1583,0,0
-693,-559,0,0,0,0,0,0,0,0,0,-1,531,1583,0,0
-686,-559,0,0,0,0,0,0,0,0,0,-1,538,1583,0,0
-679,-559,0,0,0,0,0,0,0,0,0,-1,545,1583,0,0
-672,-559,0,0,0,0,0,0,0,0,0,-1,552,1583,0,0
-665,-559,0,0,0,0,0,0,0,0,0,-1,559,1583,0,0
-658,-559,0,0,0,0,0,0,0,0,0,-1,566,1583,0,0
-651,-559,0,0,0,0,0,0,0,0,0,-1,573,1583,0,0
-644,-559,0,0,0,0,0,0,0,0,0,-1,580,1583,0,0
-637,-559,0,0,0,0,0,0,0,0,0,-1,587,1583,0,0
-630,-559,0,0,0,0,0,0,0,0,0,-1,594,1583,0,0
-623,-559,0,0,0,0,0,0,0,0,0,-1,601,1583,0,0
-616,-559,0,0,0,0,0,0,0,0,0,-1,608,1583,0,0
-609,-559,0,0,0,0,0,0,0,0,0,-1,615,1583,0,0
-602,-559,0,0,0,0,0,0,0,0,0,-1,622,1583,0,0
-595,-559,0,0,0,0,0,0,0,0,0,-1,629,1583,0,0
-588,-559,0,0,0,0,0,0,0,0,0,-1,636,1583,0,0
-581,-559,0,0,0,0,0,0,0,0,0,-1,643,1583,0,0
-574,-559,0,0,0,0,0,0,0,0,0,-1,650,1583,0,0
-567,-559,0,0,0,0,0,0,0,0,0,-1,657,1583,0,0
-560,-559,0,0,0,0,0,0,0,0,0,-1,664,1583,0,0
-553,-559,0,0,0,0,0,0,0,0,0,-1,671,1583,0,0
-546,-559,0,0,0,0,0,0,0,0,0,-1,678,1583,0,0
-539,-559,0,0,0,0,0,0,0,0,0,-1,685,1583,0,0
-532,-559,0,0,0,0,0,0,0,0,0,-1,692,1583,0,0
-525,-559,0,0,0,0,0,0,0,0,0,-1,699,1583,0,0
-518,-559,0,0,0,0,0,0,0,0,0,-1,706,1583,0,0
-511,-559,0,0,0,0,0,0,0,0,0,-1,713,1583,0,0
-504,-559,0,0,0,0,0,0,0,0,0,-1,720,1583,0,0
-497,-559,0,0,0,0,0,0,0,0,0,-1,727,1583,0,0
-490,-559,-5.49835,4.47424,0,0,0,0,0,0,0,-1,734,1583,-5.49833,-4.4743
-483,-559,-5.24078,4.74561,0,0,0,0,0,0,0,-1,741,1583,-5.24079,-4.74563
-476,-559,-4.98022,4.99316,0,0,0,0,0,0,0,-1,748,1583,-4.98024,-4.99321
-469,-559,-4.6424,5.38062,0,0,0,0,0,0,0,-1,755,1583,-4.64237,-5.38058
-462,-559,-0.161865,6.49438,0,0,0,0,0,0,0,-1,762,1583,-0.161835,-6.49444
-455,-559,1.08826,7.02527,0,0,0,0,0,0,0,-1,769,1583,1.08823,-7.02529
-448,-559,-2.86023,20.0852,0,0,0,0,0,0,0,-1,776,1583,-2.86025,-20.0852
-441,-559,-3.86279,30.3889,0,0,0,0,0,0,0,-1,783,1583,-3.86278,-30.3889
-434,-559,-4.0697,32.7432,0,0,0,0,0,0,0,-1,790,1583,-4.06969,-32.7431
-427,-559,-4.71918,32.7725,0,0,0,0,0,0,0,-1,797,1583,-4.7192,-32.7724
-420,-559,-4.83203,34.1055,0,0,0,0,0,0,0,-1,804,1583,-4.83206,-34.1055
-413,-559,-4.91394,35.02,0.0021163,0.000478258,0.00222471,0.00366797,-0.0010734,0.609023,0.0028708,0.0201149,811,1583,-4.91395,-35.02
-406,-559,-4.94464,35.8726,0.00173711,0.000440002,0.00191459,0.00311001,-0.000932893,0.622092,0.00244438,0.0108544,818,1583,-4.94463,-35.8726
-399,-559,-4.97229,36.6826,0.00153607,0.000590846,0.00169353,0.0028217,-0.000694782,0.649325,0.00215047,0.0138562,825,1583,-4.97227,-36.6827
-392,-559,-5.05121,37.4807,0.00150643,0.000772627,0.00152537,0.0027084,-0.000429344,0.667374,0.00196442,0.0170263,832,1583,-5.05121,-37.4807
-385,-559,-5.09863,38.2914,0.00147076,0.000996804,0.0013133,0.0025683,-0.000100731,0.696137,0.00174674,0.0161805,839,1583,-5.09866,-38.2913
-378,-559,-5.13092,39.0872,0.00147217,0.00131219,0.00117058,0.00256549,0.000218872,0.751285,0.00164224,0.014248,846,1583,-5.13091,-39.0872
-371,-559,-5.17316,39.896,0.00162474,0.00162837,0.00106334,0.0026899,0.000563217,0.786251,0.00163812,0.0225163,853,1583,-5.17313,-39.896
-364,-559,-5.19745,40.67,0.00202339,0.00232097,0.00121925,0.00340048,0.000943881,0.846115,0.00202699,0.0217594,860,1583,-5.19743,-40.67
-357,-559,-5.2334,41.4708,0.00248937,0.00319079,0.00143339,0.00431575,0.0013644,0.905377,0.00254723,0.0135525,867,1583,-5.2334,-41.4708
-350,-559,-5.25415,42.2445,0.00308928,0.00424148,0.00178533,0.00554135,0.00178941,0.941466,0.0032655,0.0110002,874,1583,-5.25417,-42.2446
-343,-559,-5.29968,43.0291,0.00357731,0.00509582,0.0020955,0.00656537,0.00210776,0.959205,0.0038706,0.0122588,881,1583,-5.29965,-43.0291
-336,-559,-5.37256,43.7855,0.00431559,0.00649379,0.00274788,0.00836053,0.00244885,0.974072,0.00496305,0.0320995,888,1583,-5.37253,-43.7855
-329,-559,-5.04663,44.8109,0,0,0,0,0,0,0,-1,895,1583,-5.04662,-44.8109
-322,-559,-4.86597,44.8291,0,0,0,0,0,0,0,-1,902,1583,-4.86594,-44.8291
-315,-559,-0.659607,29.1698,0,0,0,0,0,0,0,-1,909,1583,-0.659577,-29.1698
-308,-559,-0.755493,30.4624,0,0,0,0,0,0,0,-1,916,1583,-0.755509,-30.4625
-301,-559,-1.22174,31.0372,0,0,0,0,0,0,0,-1,923,1583,-1.22176,-31.0372
-294,-559,0.945129,18.5165,0,0,0,0,0,0,0,-1,930,1583,0.945117,-18.5165
-287,-559,-0.11792,15.4912,0,0,0,0,0,0,0,-1,937,1583,-0.117939,-15.4912
-280,-559,0.191467,13.5093,0,0,0,0,0,0,0,-1,944,1583,0.191441,-13.5093
-273,-559,2.12836,10.3059,0,0,0,0,0,0,0,-1,951,1583,2.12839,-10.3059
-266,-559,-0.597046,6.68933,0,0,0,0,0,0,0,-1,958,1583,-0.597031,-6.68937
-259,-559,-7.00311,8.62756,0,0,0,0,0,0,0,-1,965,1583,-7.00312,-8.6275
-252,-559,-9.4483,2.87805,0,0,0,0,0,0,0,-1,972,1583,-9.44829,-2.87805
-245,-559,-4.80804,7.1803,0,0,0,0,0,0,0,-1,979,1583,-4.80804,-7.18027
-238,-559,-8.45764,2.54858,0,0,0,0,0,0,0,-1,986,1583,-8.45763,-2.54862
-231,-559,-5.86914,4.34021,0,0,0,0,0,0,0,-1,993,1583,-5.86914,-4.34019
-224,-559,-3.30505,6.22864,0,0,0,0,0,0,0,-1,1000,1583,-3.30505,-6.22859
-217,-559,0,0,0,0,0,0,0,0,0,-1,1007,1583,0,0
-210,-559,0,0,0,0,0,0,0,0,0,-1,1014,1583,0,0
-203,-559,0,0,0,0,0,0,0,0,0,-1,1021,1583,0,0
-196,-559,0,0,0,0,0,0,0,0,0,-1,1028,1583,0,0
-189,-559,0,0,0,0,0,0,0,0,0,-1,1035,1583,0,0
-182,-559,0,0,0,0,0,0,0,0,0,-1,1042,1583,0,0
-175,-559,0,0,0,0,0,0,0,0,0,-1,1049,1583,0,0
-168,-559,0,0,0,0,0,0,0,0,0,-1,1056,1583,0,0
-161,-559,0,0,0,0,0,0,0,0,0,-1,1063,1583,0,0
-154,-559,0,0,0,0,0,0,0,0,0,-1,1070,1583,0,0
-147,-559,0,0,0,0,0,0,0,0,0,-1,1077,1583,0,0
-140,-559,0,0,0,0,0,0,0,0,0,-1,1084,1583,0,0
-133,-559,0,0,0,0,0,0,0,0,0,-1,1091,1583,0,0
-126,-559,0,0,0,0,0,0,0,0,0,-1,1098,1583,0,0
-119,-559,0,0,0,0,0,0,0,0,0,-1,1105,1583,0,0
-112,-559,0,0,0,0,0,0,0,0,0,-1,1112,1583,0,0
-105,-559,0,0,0,0,0,0,0,0,0,-1,1119,1583,0,0
-98,-559,0,0,0,0,0,0,0,0,0,-1,1126,1583,0,0
-91,-559,0,0,0,0,0,0,0,0,0,-1,1133,1583,0,0
-84,-559,0,0,0,0,0,0,0,0,0,-1,1140,1583,0,0
-77,-559,0,0,0,0,0,0,0,0,0,-1,1147,1583,0,0
-70,-559,0,0,0,0,0,0,0,0,0,-1,1154,1583,0,0
-63,-559,0,0,0,0,0,0,0,0,0,-1,1161,1583,0,0
-56,-559,0,0,0,0,0,0,0,0,0,-1,1168,1583,0,0
-49,-559,0,0,0,0,0,0,0,0,0,-1,1175,1583,0,0
-42,-559,0,0,0,0,0,0,0,0,0,-1,1182,1583,0,0
-35,-559,0,0,0,0,0,0,0,0,0,-1,1189,1583,0,0
-28,-559,0,0,0,0,0,0,0,0,0,-1,1196,1583,0,0
-21,-559,0,0,0,0,0,0,0,0,0,-1,1203,1583,0,0
-14,-559,0,0,0,0,0,0,0,0,0,-1,1210,1583,0,0
-7,-559,0,0,0,0,0,0,0,0,0,-1,1217,1583,0,0
0,-559,0,0,0,0,0,0,0,0,0,-1,1224,1583,0,0
7,-559,0,0,0,0,0,0,0,0,0,-1,1231,1583,0,0
14,-559,0,0,0,0,0,0,0,0,0,-1,1238,1583,0,0
21,-559,0,0,0,0,0,0,0,0,0,-1,1245,1583,0,0
28,-559,0,0,0,0,0,0,0,0,0,-1,1252,1583,0,0
35,-559,0,0,0,0,0,0,0,0,0,-1,1259,1583,0,0
42,-559,0,0,0,0,0,0,0,0,0,-1,1266,1583,0,0
49,-559,0,0,0,0,0,0,0,0,0,-1,1273,1583,0,0
56,-559,0,0,0,0,0,0,0,0,0,-1,1280,1583,0,0
63,-559,0,0,0,0,0,0,0,0,0,-1,1287,1583,0,0
70,-559,0,0,0,0,0,0,0,0,0,-1,1294,1583,0,0
77,-559,0,0,0,0,0,0,0,0,0,-1,1301,1583,0,0
84,-559,0,0,0,0,0,0,0,0,0,-1,1308,1583,0,0
91,-559,0,0,0,0,0,0,0,0,0,-1,1315,1583,0,0
98,-559,0,0,0,0,0,0,0,0,0,-1,1322,1583,0,0
105,-559,0,0,0,0,0,0,0,0,0,-1,1329,1583,0,0
112,-559,0,0,0,0,0,0,0,0,0,-1,1336,1583,0,0
119,-559,0,0,0,0,0,0,0,0,0,-1,1343,1583,0,0
126,-559,0,0,0,0,0,0,0,0,0,-1,1350,1583,0,0
133,-559,0,0,0,0,0,0,0,0,0,-1,1357,1583,0,0
140,-559,0,0,0,0,0,0,0,0,0,-1,1364,1583,0,0
147,-559,0,0,0,0,0,0,0,0,0,-1,1371,1583,0,0
154,-559,0,0,0,0,0,0,0,0,0,-1,1378,1583,0,0
161,-559,0,0,0,0,0,0,0,0,0,-1,1385,1583,0,0
168,-559,0,0,0,0,0,0,0,0,0,-1,1392,1583,0,0
175,-559,0,0,0,0,0,0,0,0,0,-1,1399,1583,0,0
182,-559,0,0,0,0,0,0,0,0,0,-1,1406,1583,0,0
189,-559,0,0,0,0,0,0,0,0,0,-1,1413,1583,0,0
196,-559,0,0,0,0,0,0,0,0,0,-1,1420,1583,0,0
203,-559,0,0,0,0,0,0,0,0,0,-1,1427,1583,0,0
210,-559,0,0,0,0,0,0,0,0,0,-1,1434,1583,0,0
217,-559,0,0,0,0,0,0,0,0,0,-1,1441,1583,0,0
224,-559,0,0,0,0,0,0,0,0,0,-1,1448,1583,0,0
231,-559,0,0,0,0,0,0,0,0,0,-1,1455,1583,0,0
238,-559,0,0,0,0,0,0,0,0,0,-1,1462,1583,0,0
245,-559,0,0,0,0,0,0,0,0,0,-1,1469,1583,0,0
252,-559,0,0,0,0,0,0,0,0,0,-1,1476,1583,0,0
259,-559,0,0,0,0,0,0,0,0,0,-1,1483,1583,0,0
266,-559,0,0,0,0,0,0,0,0,0,-1,1490,1583,0,0
273,-559,0,0,0,0,0,0,0,0,0,-1,1497,1583,0,0
280,-559,0,0,0,0,0,0,0,0,0,-1,1504,1583,0,0
287,-559,0,0,0,0,0,0,0,0,0,-1,1511,1583,0,0
294,-559,0,0,0,0,0,0,0,0,0,-1,1518,1583,0,0
301,-559,0,0,0,0,0,0,0,0,0,-1,1525,1583,0,0
308,-559,0,0,0,0,0,0,0,0,0,-1,1532,1583,0,0
315,-559,0,0,0,0,0,0,0,0,0,-1,1539,1583,0,0
322,-559,0,0,0,0,0,0,0,0,0,-1,1546,1583,0,0
329,-559,0,0,0,0,0,0,0,0,0,-1,1553,1583,0,0
336,-559,5.97668,3.09827,0,0,0,0,0,0,0,-1,1560,1583,5.97667,-3.09824
343,-559,5.44824,2.88696,0,0,0,0,0,0,0,-1,1567,1583,5.44819,-2.88693
350,-559,4.69775,3.27051,0,0,0,0,0,0,0,-1,1574,1583,4.69771,-3.27048
357,-559,3.88025,3.60999,0,0,0,0,0,0,0,-1,1581,1583,3.88027,-3.60998
364,-559,5.00928,5.32605,0,0,0,0,0,0,0,-1,1588,1583,5.00928,-5.32607
371,-559,1.84436,2.52441,0,0,0,0,0,0,0,-1,1595,1583,1.84441,-2.52447
378,-559,6.34753,1.53137,0,0,0,0,0,0,0,-1,1602,1583,6.34752,-1.53139
385,-559,6.95911,1.48181,0,0,0,0,0,0,0,-1,1609,1583,6.95916,-1.48175
392,-559,11.6949,4.77734,0,0,0,0,0,0,0,-1,1616,1583,11.6949,-4.77731
399,-559,11.1104,5.56909,0,0,0,0,0,0,0,-1,1623,1583,11.1103,-5.56905
406,-559,10.3385,6.48657,0,0,0,0,0,0,0,-1,1630,1583,10.3385,-6.48661
413,-559,9.76147,6.97571,0,0,0,0,0,0,0,-1,1637,1583,9.76143,-6.97574
420,-559,7.77124,10.5851,0,0,0,0,0,0,0,-1,1644,1583,7.77128,-10.585
427,-559,10.1022,12.5565,0,0,0,0,0,0,0,-1,1651,1583,10.1021,-12.5565
434,-559,9.62769,14.6309,0,0,0,0,0,0,0,-1,1658,1583,9.62771,-14.6309
441,-559,12.6149,21.3678,0,0,0,0,0,0,0,-1,1665,1583,12.6149,-21.3678
448,-559,13.7046,22.6677,0,0,0,0,0,0,0,-1,1672,1583,13.7046,-22.6677
455,-559,13.9427,23.0509,0,0,0,0,0,0,0,-1,1679,1583,13.9427,-23.0509
462,-559,21.9476,42.0568,0,0,0,0,0,0,0,-1,1686,1583,21.9477,-42.0568
469,-559,22.7853,43.3076,0,0,0,0,0,0,0,-1,1693,1583,22.7852,-43.3077
476,-559,23.0283,42.4246,0.00901984,0.00763264,-0.00556463,0.0139339,0.00271855,-0.723396,0.00852877,0.0324344,1700,1583,23.0283,-42.4246
483,-559,23.1014,41.5085,0.00766352,0.00633143,-0.00464439,0.0116894,0.00230557,-0.714179,0.00714941,0.0147974,1707,1583,23.1014,-41.5085
490,-559,23.056,40.7133,0.00628086,0.00519173,-0.00377294,0.00954833,0.00192426,-0.713726,0.00583095,0.0172298,1714,1583,23.056,-40.7133
497,-559,23.0532,39.9583,0.00484923,0.00403073,-0.0029744,0.00744241,0.00143755,-0.717033,0.00455861,0.0193202,1721,1583,23.0533,-39.9583
504,-559,23.0084,39.2292,0.00361937,0.00318522,-0.00240557,0.00581765,0.00098695,-0.740401,0.00359489,0.024739,1728,1583,23.0084,-39.2292
511,-559,22.9745,38.4326,0.00250261,0.00227379,-0.00183589,0.00422765,0.000548749,-0.754278,0.00265449,0.0232345,1735,1583,22.9745,-38.4326
518,-559,22.9551,37.6235,0.00153795,0.00154258,-0.00142616,0.00296642,0.000114104,-0.78621,0.0019407,0.0152699,1742,1583,22.955,-37.6236
525,-559,22.8774,36.8495,0.000723493,0.000810201,-0.00105566,0.00182339,-0.000289699,-0.805921,0.00132278,0.0137498,1749,1583,22.8774,-36.8495
532,-559,22.8274,36.0619,0.00016597,0.00016672,-0.000776998,0.000943344,-0.000610653,-0.78564,0.000904028,0.014592,1756,1583,22.8274,-36.0619
539,-559,22.7684,35.2808,-0.000152441,-0.000469714,-0.00056584,0.000276579,-0.000898735,-0.648729,0.000709551,0.0201171,1763,1583,22.7684,-35.2807
546,-559,22.663,34.4921,-0.000197771,-0.00115708,-0.00035484,-8.07855e-05,-0.00127407,-0.318464,0.000823772,0.0189908,1770,1583,22.663,-34.4921
553,-559,22.7511,33.6283,9.22904e-05,-0.00177801,-0.000261708,0.000128221,-0.00181394,-0.136438,0.00125422,0.0250539,1777,1583,22.7511,-33.6284
560,-559,22.7766,32.7839,0,0,0,0,0,0,0,-1,1784,1583,22.7766,-32.784
567,-559,21.7423,29.5544,0,0,0,0,0,0,0,-1,1791,1583,21.7423,-29.5544
574,-559,10.5109,10.7317,0,0,0,0,0,0,0,-1,1798,1583,10.5108,-10.7317
581,-559,5.97095,5.96179,0,0,0,0,0,0,0,-1,1805,1583,5.97093,-5.96181
588,-559,5.79102,5.89954,0,0,0,0,0,0,0,-1,1812,1583,5.79098,-5.89949
595,-559,5.79089,6.24231,0,0,0,0,0,0,0,-1,1819,1583,5.7909,-6.24227
602,-559,12.478,2.35669,0,0,0,0,0,0,0,-1,1826,1583,12.4781,-2.35675
609,-559,14.0479,1.22681,0,0,0,0,0,0,0,-1,1833,1583,14.0479,-1.22681
616,-559,0,0,0,0,0,0,0,0,0,-1,1840,1583,0,0
623,-559,0,0,0,0,0,0,0,0,0,-1,1847,1583,0,0
630,-559,0,0,0,0,0,0,0,0,0,-1,1854,1583,0,0
637,-559,0,0,0,0,0,0,0,0,0,-1,1861,1583,0,0
644,-559,0,0,0,0,0,0,0,0,0,-1,1868,1583,0,0
651,-559,0,0,0,0,0,0,0,0,0,-1,1875,1583,0,0
658,-559,0,0,0,0,0,0,0,0,0,-1,1882,1583,0,0
665,-559,0,0,0,0,0,0,0,0,0,-1,1889,1583,0,0
672,-559,0,0,0,0,0,0,0,0,0,-1,1896,1583,0,0
679,-559,0,0,0,0,0,0,0,0,0,-1,1903,1583,0,0
686,-559,0,0,0,0,0,0,0,0,0,-1,1910,1583,0,0
693,-559,0,0,0,0,0,0,0,0,0,-1,1917,1583,0,0
700,-559,0,0,0,0,0,0,0,0,0,-1,1924,1583,0,0
707,-559,0,0,0,0,0,0,0,0,0,-1,1931,1583,0,0
714,-559,0,0,0,0,0,0,0,0,0,-1,1938,1583,0,0
721,-559,0,0,0,0,0,0,0,0,0,-1,1945,1583,0,0
728,-559,0,0,0,0,0,0,0,0,0,-1,1952,1583,0,0
735,-559,0,0,0,0,0,0,0,0,0,-1,1959,1583,0,0
742,-559,0,0,0,0,0,0,0,0,0,-1,1966,1583,0,0
749,-559,0,0,0,0,0,0,0,0,0,-1,1973,1583,0,0
756,-559,0,0,0,0,0,0,0,0,0,-1,1980,1583,0,0
763,-559,0,0,0,0,0,0,0,0,0,-1,1987,1583,0,0
770,-559,0,0,0,0,0,0,0,0,0,-1,1994,1583,0,0
777,-559,0,0,0,0,0,0,0,0,0,-1,2001,1583,0,0
784,-559,0,0,0,0,0,0,0,0,0,-1,2008,1583,0,0
791,-559,0,0,0,0,0,0,0,0,0,-1,2015,1583,0,0
798,-559,0,0,0,0,0,0,0,0,0,-1,2022,1583,0,0
805,-559,0,0,0,0,0,0,0,0,0,-1,2029,1583,0,0
812,-559,0,0,0,0,0,0,0,0,0,-1,2036,1583,0,0
-700,-566,0,0,0,0,0,0,0,0,0,-1,524,1590,0,0
-693,-566,0,0,0,0,0,0,0,0,0,-1,531,1590,0,0
-686,-566,0,0,0,0,0,0,0,0,0,-1,538,1590,0,0
-679,-566,0,0,0,0,0,0,0,0,0,-1,545,1590,0,0
-672,-566,0,0,0,0,0,0,0,0,0,-1,552,1590,0,0
-665,-566,0,0,0,0,0,0,0,0,0,-1,559,1590,0,0
-658,-566,0,0,0,0,0,0,0,0,0,-1,566,1590,0,0
-651,-566,0,0,0,0,0,0,0,0,0,-1,573,1590,0,0
-644,-566,0,0,0,0,0,0,0,0,0,-1,580,1590,0,0
-637,-566,0,0,0,0,0,0,0,0,0,-1,587,1590,0,0
-630,-566,0,0,0,0,0,0,0,0,0,-1,594,1590,0,0
-623,-566,0,0,0,0,0,0,0,0,0,-1,601,1590,0,0
-616,-566,0,0,0,0,0,0,0,0,0,-1,608,1590,0,0
-609,-566,0,0,0,0,0,0,0,0,0,-1,615,1590,0,0
-602,-566,0,0,0,0,0,0,0,0,0,-1,622,1590,0,0
-595,-566,0,0,0,0,0,0,0,0,0,-1,629,1590,0,0
-588,-566,0,0,0,0,0,0,0,0,0,-1,636,1590,0,0
-581,-566,0,0,0,0,0,0,0,0,0,-1,643,1590,0,0
-574,-566,0,0,0,0,0,0,0,0,0,-1,650,1590,0,0
-567,-566,0,0,0,0,0,0,0,0,0,-1,657,1590,0,0
-560,-566,0,0,0,0,0,0,0,0,0,-1,664,1590,0,0
-553,-566,0,0,0,0,0,0,0,0,0,-1,671,1590,0,0
-546,-566,0,0,0,0,0,0,0,0,0,-1,678,1590,0,0
-539,-566,0,0,0,0,0,0,0,0,0,-1,685,1590,0,0
-532,-566,0,0,0,0,0,0,0,0,0,-1,692,1590,0,0
-525,-566,0,0,0,0,0,0,0,0,0,-1,699,1590,0,0
-518,-566,0,0,0,0,0,0,0,0,0,-1,706,1590,0,0
-511,-566,0,0,0,0,0,0,0,0,0,-1,713,1590,0,0
-504,-566,0,0,0,0,0,0,0,0,0,-1,720,1590,0,0
-497,-566,0,0,0,0,0,0,0,0,0,-1,727,1590,0,0
-490,-566,0,0,0,0,0,0,0,0,0,-1,734,1590,0,0
-483,-566,-7.17084,2.78613,0,0,0,0,0,0,0,-1,741,1590,-7.17083,-2.78618
-476,-566,-7.13971,2.87183,0,0,0,0,0,0,0,-1,748,1590,-7.13971,-2.87184
-469,-566,-6.43829,3.2998,0,0,0,0,0,0,0,-1,755,1590,-6.43829,-3.2998
-462,-566,-0.459106,3.89343,0,0,0,0,0,0,0,-1,762,1590,-0.459095,-3.89341
-455,-566,0.280212,4.74023,0,0,0,0,0,0,0,-1,769,1590,0.280207,-4.74023
-448,-566,0.436951,5.51306,0,0,0,0,0,0,0,-1,776,1590,0.436971,-5.51301
-441,-566,-0.440735,12.4063,0,0,0,0,0,0,0,-1,783,1590,-0.440753,-12.4062
-434,-566,-2.66687,31.0841,0,0,0,0,0,0,0,-1,790,1590,-2.66687,-31.0841
-427,-566,-3.8623,33.8759,0,0,0,0,0,0,0,-1,797,1590,-3.86232,-33.8758
-420,-566,-4.27722,34.1283,0,0,0,0,0,0,0,-1,804,1590,-4.27723,-34.1283
-413,-566,-4.13049,35.0703,0.00280756,0.000729647,0.00326696,0.00519679,-0.00165958,0.631446,0.00413039,0.0387237,811,1590,-4.13047,-35.0703
-406,-566,-4.13629,35.9086,0.00230329,0.000412543,0.00283903,0.00435021,-0.00163438,0.624677,0.00357183,0.0163859,818,1590,-4.13631,-35.9086
-399,-566,-4.18152,36.7317,0.00199767,0.000398619,0.00253085,0.00385228,-0.00145599,0.632403,0.00316711,0.0116724,825,1590,-4.18153,-36.7316
-392,-566,-4.25366,37.5306,0.0018832,0.000455324,0.00228312,0.0035614,-0.00122288,0.633863,0.00287009,0.015363,832,1590,-4.25365,-37.5306
-385,-566,-4.27905,38.3491,0.00174991,0.000585222,0.00197267,0.0032244,-0.000889267,0.641872,0.00249933,0.0168251,839,1590,-4.27906,-38.3492
-378,-566,-4.31067,39.1492,0.00161656,0.000813319,0.00171268,0.00297408,-0.000544201,0.67023,0.00218681,0.0149719,846,1590,-4.31065,-39.1492
-371,-566,-4.36163,39.9087,0.00161532,0.00104255,0.00146104,0.00281777,-0.000159913,0.688618,0.00193403,0.0214952,853,1590,-4.36161,-39.9087
-364,-566,-4.36774,40.6946,0.00181993,0.00160203,0.00143282,0.00314794,0.000274023,0.747452,0.00201351,0.0238211,860,1590,-4.36775,-40.6946
-357,-566,-4.44861,41.5056,0.00210302,0.0023642,0.00145839,0.00369784,0.000769383,0.83005,0.00225299,0.0205065,867,1590,-4.44863,-41.5056
-350,-566,-4.48993,42.2944,0.00253962,0.00324931,0.00159562,0.00452906,0.00125986,0.894811,0.00269927,0.0231139,874,1590,-4.48994,-42.2944
-343,-566,-4.52502,43.0449,0.00290238,0.0040036,0.00171413,0.00525339,0.0016526,0.940801,0.00310178,0.028087,881,1590,-4.52504,-43.0449
-336,-566,-4.6499,43.8359,0.00349607,0.00525949,0.00216071,0.00671146,0.00204409,0.979118,0.00397231,0.0304295,888,1590,-4.64989,-43.8359
-329,-566,-4.55237,44.5985,0,0,0,0,0,0,0,-1,895,1590,-4.55238,-44.5985
-322,-566,-4.42682,45.5413,0,0,0,0,0,0,0,-1,902,1590,-4.42684,-45.5413
-315,-566,-4.03998,46.5,0,0,0,0,0,0,0,-1,909,1590,-4.03995,-46.5
-308,-566,-0.127258,29.7607,0,0,0,0,0,0,0,-1,916,1590,-0.12725,-29.7608
-301,-566,0.424011,30.6545,0,0,0,0,0,0,0,-1,923,1590,0.424036,-30.6546
-294,-566,-2.54523,43.1459,0,0,0,0,0,0,0,-1,930,1590,-2.54522,-43.1458
-287,-566,1.25391,23.4589,0,0,0,0,0,0,0,-1,937,1590,1.2539,-23.4589
-280,-566,1.59406,17.8762,0,0,0,0,0,0,0,-1,944,1590,1.59405,-17.8762
-273,-566,0.49762,11.2427,0,0,0,0,0,0,0,-1,951,1590,0.497591,-11.2426
-266,-566,0.392151,6.90295,0,0,0,0,0,0,0,-1,958,1590,0.392151,-6.90294
-259,-566,0.343628,6.47437,0,0,0,0,0,0,0,-1,965,1590,0.34363,-6.47438
-252,-566,-7.68311,1.01343,0,0,0,0,0,0,0,-1,972,1590,-7.68308,-1.01348
-245,-566,-11.1835,1.97522,0,0,0,0,0,0,0,-1,979,1590,-11.1835,-1.97527
-238,-566,-10.4883,2.40491,0,0,0,0,0,0,0,-1,986,1590,-10.4883,-2.40487
-231,-566,-7.41827,4.22803,0,0,0,0,0,0,0,-1,993,1590,-7.41827,-4.22803
-224,-566,-4.67188,6.30859,0,0,0,0,0,0,0,-1,1000,1590,-4.67185,-6.30853
-217,-566,-2.82867,7.52527,0,0,0,0,0,0,0,-1,1007,1590,-2.82869,-7.52531
-210,-566,-1.03436,8.67737,0,0,0,0,0,0,0,-1,1014,1590,-1.03439,-8.67733
-203,-566,0,0,0,0,0,0,0,0,0,-1,1021,1590,0,0
-196,-566,0,0,0,0,0,0,0,0,0,-1,1028,1590,0,0
-189,-566,0,0,0,0,0,0,0,0,0,-1,1035,1590,0,0
-182,-566,0,0,0,0,0,0,0,0,0,-1,1042,1590,0,0
-175,-566,0,0,0,0,0,0,0,0,0,-1,1049,1590,0,0
-168,-566,0,0,0,0,0,0,0,0,0,-1,1056,1590,0,0
-161,-566,0,0,0,0,0,0,0,0,0,-1,1063,1590,0,0
-154,-566,0,0,0,0,0,0,0,0,0,-1,1070,1590,0,0
-147,-566,0,0,0,0,0,0,0,0,0,-1,1077,1590,0,0
-140,-566,0,0,0,0,0,0,0,0,0,-1,1084,1590,0,0
-133,-566,0,0,0,0,0,0,0,0,0,-1,1091,1590,0,0
-126,-566,0,0,0,0,0,0,0,0,0,-1,1098,1590,0,0
-119,-566,0,0,0,0,0,0,0,0,0,-1,1105,1590,0,0
-112,-566,0,0,0,0,0,0,0,0,0,-1,1112,1590,0,0
-105,-566,0,0,0,0,0,0,0,0,0,-1,1119,1590,0,0
-98,-566,0,0,0,0,0,0,0,0,0,-1,1126,1590,0,0
-91,-566,0,0,0,0,0,0,0,0,0,-1,1133,1590,0,0
-84,-566,0,0,0,0,0,0,0,0,0,-1,1140,1590,0,0
-77,-566,0,0,0,0,0,0,0,0,0,-1,1147,1590,0,0
-70,-566,0,0,0,0,0,0,0,0,0,-1,1154,1590,0,0
-63,-566,0,0,0,0,0,0,0,0,0,-1,1161,1590,0,0
-56,-566,0,0,0,0,0,0,0,0,0,-1,1168,1590,0,0
-49,-566,0,0,0,0,0,0,0,0,0,-1,1175,1590,0,0
-42,-566,0,0,0,0,0,0,0,0,0,-1,1182,1590,0,0
-35,-566,0,0,0,0,0,0,0,0,0,-1,1189,1590,0,0
-28,-566,0,0,0,0,0,0,0,0,0,-1,1196,1590,0,0
-21,-566,0,0,0,0,0,0,0,0,0,-1,1203,1590,0,0
-14,-566,0,0,0,0,0,0,0,0,0,-1,1210,1590,0,0
-7,-566,0,0,0,0,0,0,0,0,0,-1,1217,1590,0,0
0,-566,0,0,0,0,0,0,0,0,0,-1,1224,1590,0,0
7,-566,0,0,0,0,0,0,0,0,0,-1,1231,1590,0,0
14,-566,0,0,0,0,0,0,0,0,0,-1,1238,1590,0,0
21,-566,0,0,0,0,0,0,0,0,0,-1,1245,1590,0,0
28,-566,0,0,0,0,0,0,0,0,0,-1,1252,1590,0,0
35,-566,0,0,0,0,0,0,0,0,0,-1,1259,1590,0,0
42,-566,0,0,0,0,0,0,0,0,0,-1,1266,1590,0,0
49,-566,0,0,0,0,0,0,0,0,0,-1,1273,1590,0,0
56,-566,0,0,0,0,0,0,0,0,0,-1,1280,1590,0,0
63,-566,0,0,0,0,0,0,0,0,0,-1,1287,1590,0,0
70,-566,0,0,0,0,0,0,0,0,0,-1,1294,1590,0,0
77,-566,0,0,0,0,0,0,0,0,0,-1,1301,1590,0,0
84,-566,0,0,0,0,0,0,0,0,0,-1,1308,1590,0,0
91,-566,0,0,0,0,0,0,0,0,0,-1,1315,1590,0,0
98,-566,0,0,0,0,0,0,0,0,0,-1,1322,1590,0,0
105,-566,0,0,0,0,0,0,0,0,0,-1,1329,1590,0,0
112,-566,0,0,0,0,0,0,0,0,0,-1,1336,1590,0,0
119,-566,0,0,0,0,0,0,0,0,0,-1,1343,1590,0,0
126,-566,0,0,0,0,0,0,0,0,0,-1,1350,1590,0,0
133,-566,0,0,0,0,0,0,0,0,0,-1,1357,1590,0,0
140,-566,0,0,0,0,0,0,0,0,0,-1,1364,1590,0,0
147,-566,0,0,0,0,0,0,0,0,0,-1,1371,1590,0,0
154,-566,0,0,0,0,0,0,0,0,0,-1,1378,1590,0,0
161,-566,0,0,0,0,0,0,0,0,0,-1,1385,1590,0,0
168,-566,0,0,0,0,0,0,0,0,0,-1,1392,1590,0,0
175,-566,0,0,0,0,0,0,0,0,0,-1,1399,1590,0,0
182,-566,0,0,0,0,0,0,0,0,0,-1,1406,1590,0,0
189,-566,0,0,0,0,0,0,0,0,0,-1,1413,1590,0,0
196,-566,0,0,0,0,0,0,0,0,0,-1,1420,1590,0,0
203,-566,0,0,0,0,0,0,0,0,0,-1,1427,1590,0,0
210,-566,0,0,0,0,0,0,0,0,0,-1,1434,1590,0,0
217,-566,0,0,0,0,0,0,0,0,0,-1,1441,1590,0,0
224,-566,0,0,0,0,0,0,0,0,0,-1,1448,1590,0,0
231,-566,0,0,0,0,0,0,0,0,0,-1,1455,1590,0,0
238,-566,0,0,0,0,0,0,0,0,0,-1,1462,1590,0,0
245,-566,0,0,0,0,0,0,0,0,0,-1,1469,1590,0,0
252,-566,0,0,0,0,0,0,0,0,0,-1,1476,1590,0,0
259,-566,0,0,0,0,0,0,0,0,0,-1,1483,1590,0,0
266,-566,0,0,0,0,0,0,0,0,0,-1,1490,1590,0,0
273,-566,0,0,0,0,0,0,0,0,0,-1,1497,1590,0,0
280,-566,0,0,0,0,0,0,0,0,0,-1,1504,1590,0,0
287,-566,0,0,0,0,0,0,0,0,0,-1,1511,1590,0,0
294,-566,0,0,0,0,0,0,0,0,0,-1,1518,1590,0,0
301,-566,0,0,0,0,0,0,0,0,0,-1,1525,1590,0,0
308,-566,0,0,0,0,0,0,0,0,0,-1,1532,1590,0,0
315,-566,0,0,0,0,0,0,0,0,0,-1,1539,1590,0,0
322,-566,6.07983,4.44873,0,0,0,0,0,0,0,-1,1546,1590,6.07983,-4.44873
329,-566,5.77026,3.47534,0,0,0,0,0,0,0,-1,1553,1590,5.77026,-3.47535
336,-566,5.41138,2.62915,0,0,0,0,0,0,0,-1,1560,1590,5.41138,-2.62909
343,-566,4.81873,1.79089,0,0,0,0,0,0,0,-1,1567,1590,4.81878,-1.79095
350,-566,24.2104,52.894,0,0,0,0,0,0,0,-1,1574,1590,24.2105,-52.8941
357,-566,6.34058,5.18579,0,0,0,0,0,0,0,-1,1581,1590,6.34059,-5.1858
364,-566,6.06262,4.20251,0,0,0,0,0,0,0,-1,1588,1590,6.06259,-4.20246
371,-566,5.78455,3.21912,0,0,0,0,0,0,0,-1,1595,1590,5.7846,-3.21912
378,-566,5.7439,0.695557,0,0,0,0,0,0,0,-1,1602,1590,5.74392,-0.695531
385,-566,5.67615,-0.573975,0,0,0,0,0,0,0,-1,1609,1590,5.67612,0.573956
392,-566,5.78638,1.82434,0,0,0,0,0,0,0,-1,1616,1590,5.78637,-1.82439
399,-566,18.6853,38.6455,0,0,0,0,0,0,0,-1,1623,1590,18.6853,-38.6456
406,-566,4.30359,5.26868,0,0,0,0,0,0,0,-1,1630,1590,4.30364,-5.26867
413,-566,4.27124,5.79492,0,0,0,0,0,0,0,-1,1637,1590,4.27123,-5.7949
420,-566,18.0121,32.5314,0,0,0,0,0,0,0,-1,1644,1590,18.0121,-32.5313
427,-566,19.4491,36.9315,0,0,0,0,0,0,0,-1,1651,1590,19.4491,-36.9315
434,-566,19.338,36.7385,0,0,0,0,0,0,0,-1,1658,1590,19.338,-36.7386
441,-566,15.5841,27.5869,0,0,0,0,0,0,0,-1,1665,1590,15.5842,-27.587
448,-566,21.8796,45.052,0,0,0,0,0,0,0,-1,1672,1590,21.8797,-45.052
455,-566,22.1077,45.1887,0,0,0,0,0,0,0,-1,1679,1590,22.1077,-45.1888
462,-566,22.3529,43.8911,0,0,0,0,0,0,0,-1,1686,1590,22.3529,-43.8912
469,-566,22.2495,43.1394,0.00816492,0.00692635,-0.00483182,0.012417,0.00267429,-0.721661,0.0075462,0.0222006,1693,1590,22.2495,-43.1394
476,-566,22.3173,42.3256,0.0069943,0.00577792,-0.00420829,0.0106381,0.0021341,-0.713634,0.00649859,0.0108652,1700,1590,22.3172,-42.3256
483,-566,22.3123,41.5565,0.00587298,0.00472434,-0.00353762,0.00888259,0.00171473,-0.704927,0.00544098,0.0115805,1707,1590,22.3123,-41.5566
490,-566,22.2924,40.7609,0.00470832,0.00383699,-0.00287508,0.00718055,0.00136475,-0.710205,0.00440319,0.0142904,1714,1590,22.2924,-40.7608
497,-566,22.2938,40.006,0.00350536,0.00293088,-0.00227314,0.00550933,0.000926906,-0.72255,0.00340622,0.0173256,1721,1590,22.2938,-40.006
504,-566,22.2516,39.2825,0.00246603,0.00219133,-0.00183517,0.00416898,0.000488381,-0.748046,0.00263168,0.0204702,1728,1590,22.2516,-39.2825
511,-566,22.1847,38.4927,0.00149646,0.00142803,-0.00138587,0.00284854,7.59589e-05,-0.773056,0.00187422,0.0207771,1735,1590,22.1846,-38.4927
518,-566,22.1519,37.7172,0.000656024,0.000797912,-0.00106373,0.00179307,-0.000339129,-0.818695,0.00132299,0.012657,1742,1590,22.1519,-37.7171
525,-566,22.0896,36.9082,-3.86525e-05,0.000170901,-0.000782205,0.000855316,-0.000723067,-0.851977,0.000912345,0.0120032,1749,1590,22.0896,-36.9083
532,-566,22.0428,36.0836,-0.000468234,-0.000376268,-0.000590521,0.000170058,-0.00101456,-0.824254,0.000739605,0.0142889,1756,1590,22.0429,-36.0836
539,-566,21.9822,35.2596,-0.000700905,-0.00100442,-0.000431708,-0.000395057,-0.00131027,-0.616381,0.000776098,0.0208257,1763,1590,21.9822,-35.2596
546,-566,22.0068,34.4093,-0.000637151,-0.00162966,-0.000284649,-0.00056131,-0.0017055,-0.260388,0.00100366,0.0258751,1770,1590,22.0068,-34.4093
553,-566,22.0225,33.8539,-0.00016696,-0.00219623,-0.000266508,-0.000132542,-0.00223065,-0.128431,0.00144494,0.0384989,1777,1590,22.0225,-33.8539
560,-566,21.8219,33.28,0,0,0,0,0,0,0,-1,1784,1590,21.8219,-33.28
567,-566,21.7307,32.5446,0,0,0,0,0,0,0,-1,1791,1590,21.7307,-32.5446
574,-566,7.99548,3.14514,0,0,0,0,0,0,0,-1,1798,1590,7.99543,-3.14511
581,-566,2.54102,5.1311,0,0,0,0,0,0,0,-1,1805,1590,2.54099,-5.13111
588,-566,-1.91321,8.39197,0,0,0,0,0,0,0,-1,1812,1590,-1.91316,-8.39199
595,-566,9.0271,4.66467,0,0,0,0,0,0,0,-1,1819,1590,9.02705,-4.66468
602,-566,9.953,3.54895,0,0,0,0,0,0,0,-1,1826,1590,9.953,-3.54898
609,-566,0,0,0,0,0,0,0,0,0,-1,1833,1590,0,0
616,-566,0,0,0,0,0,0,0,0,0,-1,1840,1590,0,0
623,-566,0,0,0,0,0,0,0,0,0,-1,1847,1590,0,0
630,-566,0,0,0,0,0,0,0,0,0,-1,1854,1590,0,0
637,-566,0,0,0,0,0,0,0,0,0,-1,1861,1590,0,0
644,-566,0,0,0,0,0,0,0,0,0,-1,1868,1590,0,0
651,-566,0,0,0,0,0,0,0,0,0,-1,1875,1590,0,0
658,-566,0,0,0,0,0,0,0,0,0,-1,1882,1590,0,0
665,-566,0,0,0,0,0,0,0,0,0,-1,1889,1590,0,0
672,-566,0,0,0,0,0,0,0,0,0,-1,1896,1590,0,0
679,-566,0,0,0,0,0,0,0,0,0,-1,1903,1590,0,0
686,-566,0,0,0,0,0,0,0,0,0,-1,1910,1590,0,0
693,-566,0,0,0,0,0,0,0,0,0,-1,1917,1590,0,0
700,-566,0,0,0,0,0,0,0,0,0,-1,1924,1590,0,0
707,-566,0,0,0,0,0,0,0,0,0,-1,1931,1590,0,0
714,-566,0,0,0,0,0,0,0,0,0,-1,1938,1590,0,0
721,-566,0,0,0,0,0,0,0,0,0,-1,1945,1590,0,0
728,-566,0,0,0,0,0,0,0,0,0,-1,1952,1590,0,0
735,-566,0,0,0,0,0,0,0,0,0,-1,1959,1590,0,0
742,-566,0,0,0,0,0,0,0,0,0,-1,1966,1590,0,0
749,-566,0,0,0,0,0,0,0,0,0,-1,1973,1590,0,0
756,-566,0,0,0,0,0,0,0,0,0,-1,1980,1590,0,0
763,-566,0,0,0,0,0,0,0,0,0,-1,1987,1590,0,0
770,-566,0,0,0,0,0,0,0,0,0,-1,1994,1590,0,0
777,-566,0,0,0,0,0,0,0,0,0,-1,2001,1590,0,0
784,-566,0,0,0,0,0,0,0,0,0,-1,2008,1590,0,0
791,-566,0,0,0,0,0,0,0,0,0,-1,2015,1590,0,0
798,-566,0,0,0,0,0,0,0,0,0,-1,2022,1590,0,0
805,-566,0,0,0,0,0,0,0,0,0,-1,2029,1590,0,0
812,-566,0,0,0,0,0,0,0,0,0,-1,2036,1590,0,0
-700,-573,0,0,0,0,0,0,0,0,0,-1,524,1597,0,0
-693,-573,0,0,0,0,0,0,0,0,0,-1,531,1597,0,0
-686,-573,0,0,0,0,0,0,0,0,0,-1,538,1597,0,0
-679,-573,0,0,0,0,0,0,0,0,0,-1,545,1597,0,0
-672,-573,0,0,0,0,0,0,0,0,0,-1,552,1597,0,0
-665,-573,0,0,0,0,0,0,0,0,0,-1,559,1597,0,0
-658,-573,0,0,0,0,0,0,0,0,0,-1,566,1597,0,0
-651,-573,0,0,0,0,0,0,0,0,0,-1,573,1597,0,0
-644,-573,0,0,0,0,0,0,0,0,0,-1,580,1597,0,0
-637,-573,0,0,0,0,0,0,0,0,0,-1,587,1597,0,0
-630,-573,0,0,0,0,0,0,0,0,0,-1,594,1597,0,0
-623,-573,0,0,0,0,0,0,0,0,0,-1,601,1597,0,0
-616,-573,0,0,0,0,0,0,0,0,0,-1,608,1597,0,0
-609,-573,0,0,0,0,0,0,0,0,0,-1,615,1597,0,0
-602,-573,0,0,0,0,0,0,0,0,0,-1,622,1597,0,0
-595,-573,0,0,0,0,0,0,0,0,0,-1,629,1597,0,0
-588,-573,0,0,0,0,0,0,0,0,0,-1,636,1597,0,0
-581,-573,0,0,0,0,0,0,0,0,0,-1,643,1597,0,0
-574,-573,0,0,0,0,0,0,0,0,0,-1,650,1597,0,0
-567,-573,0,0,0,0,0,0,0,0,0,-1,657,1597,0,0
-560,-573,0,0,0,0,0,0,0,0,0,-1,664,1597,0,0
-553,-573,0,0,0,0,0,0,0,0,0,-1,671,1597,0,0
-546,-573,0,0,0,0,0,0,0,0,0,-1,678,1597,0,0
-539,-573,0,0,0,0,0,0,0,0,0,-1,685,1597,0,0
-532,-573,0,0,0,0,0,0,0,0,0,-1,692,1597,0,0
-525,-573,0,0,0,0,0,0,0,0,0,-1,699,1597,0,0
-518,-573,0,0,0,0,0,0,0,0,0,-1,706,1597,0,0
-511,-573,0,0,0,0,0,0,0,0,0,-1,713,1597,0,0
-504,-573,0,0,0,0,0,0,0,0,0,-1,720,1597,0,0
-497,-573,0,0,0,0,0,0,0,0,0,-1,727,1597,0,0
-490,-573,0,0,0,0,0,0,0,0,0,-1,734,1597,0,0
-483,-573,0,0,0,0,0,0,0,0,0,-1,741,1597,0,0
-476,-573,-9.3327,0.972778,0,0,0,0,0,0,0,-1,748,1597,-9.33268,-0.972776
-469,-573,-1.41681,1.13379,0,0,0,0,0,0,0,-1,755,1597,-1.41681,-1.13382
-462,-573,-0.748535,2.02588,0,0,0,0,0,0,0,-1,762,1597,-0.748533,-2.02584
-455,-573,-0.112976,2.70703,0,0,0,0,0,0,0,-1,769,1597,-0.112988,-2.70697
-448,-573,-1.26172,3.33252,0,0,0,0,0,0,0,-1,776,1597,-1.26173,-3.33248
-441,-573,0.108582,5.06726,0,0,0,0,0,0,0,-1,783,1597,0.108584,-5.06721
-434,-573,1.61768,7.05444,0,0,0,0,0,0,0,-1,790,1597,1.61767,-7.05446
-427,-573,-1.37927,24.4124,0,0,0,0,0,0,0,-1,797,1597,-1.37928,-24.4124
-420,-573,-1.15186,28.0936,0,0,0,0,0,0,0,-1,804,1597,-1.15185,-28.0936
-413,-573,-3.36731,34.8049,0,0,0,0,0,0,0,-1,811,1597,-3.36731,-34.8049
-406,-573,-3.33783,35.8286,0.00300456,0.000680341,0.00399814,0.00600606,-0.00232115,0.643964,0.00496214,0.0481254,818,1597,-3.33785,-35.8286
-399,-573,-3.40076,36.7594,0.00249219,0.000398271,0.00355169,0.00514802,-0.00225756,0.642069,0.00438283,0.0193263,825,1597,-3.40074,-36.7594
-392,-573,-3.43658,37.5977,0.0022586,0.000239868,0.00319228,0.00459729,-0.00209882,0.632277,0.00395469,0.0149284,832,1597,-3.43659,-37.5976
-385,-573,-3.48438,38.4104,0.00203429,0.000227561,0.0027554,0.00403063,-0.00176878,0.626993,0.00343212,0.0163835,839,1597,-3.48436,-38.4104
-378,-573,-3.51178,39.1943,0.00178044,0.000326307,0.00236587,0.00352845,-0.0014217,0.636321,0.00294298,0.0162308,846,1597,-3.5118,-39.1944
-371,-573,-3.54016,39.9847,0.00164876,0.000432073,0.00197873,0.00311054,-0.00102972,0.636264,0.00248898,0.0170342,853,1597,-3.54016,-39.9848
-364,-573,-3.58844,40.7545,0.00169562,0.000808809,0.00177516,0.00308192,-0.000577487,0.66301,0.00227171,0.0205854,860,1597,-3.58844,-40.7546
-357,-573,-3.64209,41.5431,0.00186228,0.00142555,0.00165029,0.00330859,-2.07665e-05,0.719621,0.00221268,0.0252597,867,1597,-3.64208,-41.5431
-350,-573,-3.68237,42.3702,0.00221114,0.00214376,0.00163331,0.00381111,0.000543792,0.775086,0.00238027,0.0195356,874,1597,-3.68235,-42.3702
-343,-573,-3.71191,43.126,0.00252282,0.00281982,0.00163451,0.00431256,0.00103008,0.830701,0.00260059,0.0234304,881,1597,-3.7119,-43.126
-336,-573,-3.75476,43.9293,0.00302965,0.00394002,0.00193545,0.00547309,0.00149658,0.900891,0.00326622,0.0175824,888,1597,-3.75478,-43.9293
-329,-573,-3.76544,44.6753,0.00398635,0.00566035,0.00243394,0.00739718,0.00224952,0.951007,0.00437866,0.0185422,895,1597,-3.76543,-44.6753
-322,-573,-3.81213,45.4895,0.00550081,0.00750512,0.00327517,0.00992803,0.0030779,0.933868,0.00586825,0.0189793,902,1597,-3.81213,-45.4895
-315,-573,-3.62158,46.512,0.00710871,0.00959818,0.00439993,0.012926,0.00378084,0.923245,0.00767409,0.047434,909,1597,-3.62158,-46.512
-308,-573,-3.73956,47.7828,0,0,0,0,0,0,0,-1,916,1597,-3.73954,-47.7828
-301,-573,-3.54291,48.1381,0,0,0,0,0,0,0,-1,923,1597,-3.54293,-48.138
-294,-573,-3.46948,48.5833,0,0,0,0,0,0,0,-1,930,1597,-3.46945,-48.5832
-287,-573,-2.00739,43.4723,0,0,0,0,0,0,0,-1,937,1597,-2.00739,-43.4723
-280,-573,1.19684,26.4906,0,0,0,0,0,0,0,-1,944,1597,1.19685,-26.4906
-273,-573,2.24805,25.4375,0,0,0,0,0,0,0,-1,951,1597,2.24803,-25.4374
-266,-573,1.31116,7.1814,0,0,0,0,0,0,0,-1,958,1597,1.31118,-7.18142
-259,-573,1.2514,6.70959,0,0,0,0,0,0,0,-1,965,1597,1.25137,-6.70965
-252,-573,2.07874,5.27161,0,0,0,0,0,0,0,-1,972,1597,2.07875,-5.27157
-245,-573,-10.2592,1.09827,0,0,0,0,0,0,0,-1,979,1597,-10.2592,-1.09823
-238,-573,-11.5463,4.44141,0,0,0,0,0,0,0,-1,986,1597,-11.5463,-4.44146
-231,-573,-9.23431,4.14539,0,0,0,0,0,0,0,-1,993,1597,-9.23431,-4.14534
-224,-573,-6.70044,7.40857,0,0,0,0,0,0,0,-1,1000,1597,-6.70045,-7.40851
-217,-573,-4.25824,8.59119,0,0,0,0,0,0,0,-1,1007,1597,-4.25824,-8.59122
-210,-573,-2.39661,9.73914,0,0,0,0,0,0,0,-1,1014,1597,-2.39658,-9.73915
-203,-573,-0.557373,10.9005,0,0,0,0,0,0,0,-1,1021,1597,-0.557387,-10.9006
-196,-573,-1.65344,9.02246,0,0,0,0,0,0,0,-1,1028,1597,-1.65349,-9.02241
-189,-573,-6.12915,6.66882,0,0,0,0,0,0,0,-1,1035,1597,-6.12913,-6.66884
-182,-573,0,0,0,0,0,0,0,0,0,-1,1042,1597,0,0
-175,-573,0,0,0,0,0,0,0,0,0,-1,1049,1597,0,0
-168,-573,0,0,0,0,0,0,0,0,0,-1,1056,1597,0,0
-161,-573,0,0,0,0,0,0,0,0,0,-1,1063,1597,0,0
-154,-573,0,0,0,0,0,0,0,0,0,-1,1070,1597,0,0
-147,-573,0,0,0,0,0,0,0,0,0,-1,1077,1597,0,0
-140,-573,0,0,0,0,0,0,0,0,0,-1,1084,1597,0,0
-133,-573,0,0,0,0,0,0,0,0,0,-1,1091,1597,0,0
-126,-573,0,0,0,0,0,0,0,0,0,-1,1098,1597,0,0
-119,-573,0,0,0,0,0,0,0,0,0,-1,1105,1597,0,0
-112,-573,0,0,0,0,0,0,0,0,0,-1,1112,1597,0,0
-105,-573,0,0,0,0,0,0,0,0,0,-1,1119,1597,0,0
-98,-573,0,0,0,0,0,0,0,0,0,-1,1126,1597,0,0
-91,-573,0,0,0,0,0,0,0,0,0,-1,1133,1597,0,0
-84,-573,0,0,0,0,0,0,0,0,0,-1,1140,1597,0,0
-77,-573,0,0,0,0,0,0,0,0,0,-1,1147,1597,0,0
-70,-573,0,0,0,0,0,0,0,0,0,-1,1154,1597,0,0
-63,-573,0,0,0,0,0,0,0,0,0,-1,1161,1597,0,0
-56,-573,0,0,0,0,0,0,0,0,0,-1,1168,1597,0,0
-49,-573,0,0,0,0,0,0,0,0,0,-1,1175,1597,0,0
-42,-573,0,0,0,0,0,0,0,0,0,-1,1182,1597,0,0
-35,-573,0,0,0,0,0,0,0,0,0,-1,1189,1597,0,0
-28,-573,0,0,0,0,0,0,0,0,0,-1,1196,1597,0,0
-21,-573,0,0,0,0,0,0,0,0,0,-1,1203,1597,0,0
-14,-573,0,0,0,0,0,0,0,0,0,-1,1210,1597,0,0
-7,-573,0,0,0,0,0,0,0,0,0,-1,1217,1597,0,0
0,-573,0,0,0,0,0,0,0,0,0,-1,1224,1597,0,0
7,-573,0,0,0,0,0,0,0,0,0,-1,1231,1597,0,0
14,-573,0,0,0,0,0,0,0,0,0,-1,1238,1597,0,0
21,-573,0,0,0,0,0,0,0,0,0,-1,1245,1597,0,0
28,-573,0,0,0,0,0,0,0,0,0,-1,1252,1597,0,0
35,-573,0,0,0,0,0,0,0,0,0,-1,1259,1597,0,0
42,-573,0,0,0,0,0,0,0,0,0,-1,1266,1597,0,0
49,-573,0,0,0,0,0,0,0,0,0,-1,1273,1597,0,0
56,-573,0,0,0,0,0,0,0,0,0,-1,1280,1597,0,0
63,-573,0,0,0,0,0,0,0,0,0,-1,1287,1597,0,0
70,-573,0,0,0,0,0,0,0,0,0,-1,1294,1597,0,0
77,-573,0,0,0,0,0,0,0,0,0,-1,1301,1597,0,0
84,-573,0,0,0,0,0,0,0,0,0,-1,1308,1597,0,0
91,-573,0,0,0,0,0,0,0,0,0,-1,1315,1597,0,0
98,-573,0,0,0,0,0,0,0,0,0,-1,1322,1597,0,0
105,-573,0,0,0,0,0,0,0,0,0,-1,1329,1597,0,0
112,-573,0,0,0,0,0,0,0,0,0,-1,1336,1597,0,0
119,-573,0,0,0,0,0,0,0,0,0,-1,1343,1597,0,0
126,-573,0,0,0,0,0,0,0,0,0,-1,1350,1597,0,0
133,-573,0,0,0,0,0,0,0,0,0,-1,1357,1597,0,0
140,-573,0,0,0,0,0,0,0,0,0,-1,1364,1597,0,0
147,-573,0,0,0,0,0,0,0,0,0,-1,1371,1597,0,0
154,-573,0,0,0,0,0,0,0,0,0,-1,1378,1597,0,0
161,-573,0,0,0,0,0,0,0,0,0,-1,1385,1597,0,0
168,-573,0,0,0,0,0,0,0,0,0,-1,1392,1597,0,0
175,-573,0,0,0,0,0,0,0,0,0,-1,1399,1597,0,0
182,-573,0,0,0,0,0,0,0,0,0,-1,1406,1597,0,0
189,-573,0,0,0,0,0,0,0,0,0,-1,1413,1597,0,0
196,-573,0,0,0,0,0,0,0,0,0,-1,1420,1597,0,0
203,-573,0,0,0,0,0,0,0,0,0,-1,1427,1597,0,0
210,-573,0,0,0,0,0,0,0,0,0,-1,1434,1597,0,0
217,-573,0,0,0,0,0,0,0,0,0,-1,1441,1597,0,0
224,-573,0,0,0,0,0,0,0,0,0,-1,1448,1597,0,0
231,-573,0,0,0,0,0,0,0,0,0,-1,1455,1597,0,0
238,-573,0,0,0,0,0,0,0,0,0,-1,1462,1597,0,0
245,-573,0,0,0,0,0,0,0,0,0,-1,1469,1597,0,0
252,-573,0,0,0,0,0,0,0,0,0,-1,1476,1597,0,0
259,-573,0,0,0,0,0,0,0,0,0,-1,1483,1597,0,0
266,-573,0,0,0,0,0,0,0,0,0,-1,1490,1597,0,0
273,-573,0,0,0,0,0,0,0,0,0,-1,1497,1597,0,0
280,-573,0,0,0,0,0,0,0,0,0,-1,1504,1597,0,0
287,-573,0,0,0,0,0,0,0,0,0,-1,1511,1597,0,0
294,-573,0,0,0,0,0,0,0,0,0,-1,1518,1597,0,0
301,-573,0,0,0,0,0,0,0,0,0,-1,1525,1597,0,0
308,-573,5.93042,9.71143,0,0,0,0,0,0,0,-1,1532,1597,5.93046,-9.71144
315,-573,4.34204,11.719,0,0,0,0,0,0,0,-1,1539,1597,4.34205,-11.719
322,-573,10.3269,7.77563,0,0,0,0,0,0,0,-1,1546,1597,10.327,-7.77565
329,-573,4.99573,3.80273,0,0,0,0,0,0,0,-1,1553,1597,4.9957,-3.80273
336,-573,4.85693,2.53455,0,0,0,0,0,0,0,-1,1560,1597,4.8569,-2.53459
343,-573,21.4159,52.1832,0,0,0,0,0,0,0,-1,1567,1597,21.4159,-52.1833
350,-573,21.6807,52.4836,0,0,0,0,0,0,0,-1,1574,1597,21.6806,-52.4836
357,-573,21.9453,52.7841,0,0,0,0,0,0,0,-1,1581,1597,21.9453,-52.784
364,-573,7.14551,3.02087,0,0,0,0,0,0,0,-1,1588,1597,7.14556,-3.02084
371,-573,6.88867,2.00549,0,0,0,0,0,0,0,-1,1595,1597,6.88868,-2.00553
378,-573,8.62012,6.09106,0,0,0,0,0,0,0,-1,1602,1597,8.62012,-6.09103
385,-573,6.54346,-0.951904,0,0,0,0,0,0,0,-1,1609,1597,6.54349,0.951901
392,-573,17.5164,38.3645,0,0,0,0,0,0,0,-1,1616,1597,17.5164,-38.3645
399,-573,20.5255,42.9893,0,0,0,0,0,0,0,-1,1623,1597,20.5255,-42.9893
406,-573,20.2545,44.7974,0,0,0,0,0,0,0,-1,1630,1597,20.2545,-44.7974
413,-573,19.0908,43.9061,0,0,0,0,0,0,0,-1,1637,1597,19.0908,-43.9062
420,-573,18.8063,37.0011,0,0,0,0,0,0,0,-1,1644,1597,18.8063,-37.0011
427,-573,20.4286,42.2079,0,0,0,0,0,0,0,-1,1651,1597,20.4285,-42.2079
434,-573,21.7727,47.5009,0,0,0,0,0,0,0,-1,1658,1597,21.7728,-47.5009
441,-573,21.4508,46.7397,0,0,0,0,0,0,0,-1,1665,1597,21.4508,-46.7397
448,-573,21.5953,45.5919,0,0,0,0,0,0,0,-1,1672,1597,21.5954,-45.5919
455,-573,21.5487,44.7966,0.00808535,0.00692926,-0.00497251,0.0125133,0.00250131,-0.727534,0.00764605,0.0363626,1679,1597,21.5487,-44.7966
462,-573,21.626,43.8135,0.00714462,0.00612534,-0.00423691,0.0109024,0.00236753,-0.725543,0.00662172,0.023903,1686,1597,21.626,-43.8135
469,-573,21.6079,43.0428,0.00621802,0.00515044,-0.00367736,0.00940012,0.00196833,-0.713324,0.00572457,0.0159946,1693,1597,21.6079,-43.0428
476,-573,21.6061,42.3279,0.00527562,0.00426783,-0.00322436,0.00803523,0.00150823,-0.707887,0.00493156,0.014787,1700,1597,21.6061,-42.3279
483,-573,21.5905,41.5918,0.00436099,0.00340403,-0.00274704,0.00667091,0.00109411,-0.699173,0.00413115,0.0142517,1707,1597,21.5905,-41.5917
490,-573,21.54,40.7982,0.00338727,0.0027103,-0.00225221,0.00532629,0.000771286,-0.710811,0.00332373,0.0159809,1714,1597,21.5401,-40.7982
497,-573,21.5435,39.9998,0.00237304,0.00200864,-0.00180595,0.00400596,0.000375721,-0.735124,0.00255463,0.0240843,1721,1597,21.5434,-39.9998
504,-573,21.5016,39.259,0.0014818,0.00135241,-0.00146531,0.00288384,-4.96382e-05,-0.763338,0.00193932,0.0189986,1728,1597,21.5016,-39.259
511,-573,21.4435,38.4817,0.000633194,0.000730716,-0.0011227,0.00180572,-0.000441807,-0.8071,0.00137495,0.0186538,1735,1597,21.4434,-38.4817
518,-573,21.3687,37.7297,-0.000103751,0.000192047,-0.000872349,0.000928945,-0.000840649,-0.86937,0.0010221,0.0147346,1742,1597,21.3686,-37.7298
525,-573,21.3214,36.9559,-0.000692842,-0.000336255,-0.000662177,0.000171211,-0.00120031,-0.916906,0.000862956,0.0181328,1749,1597,21.3214,-36.9559
532,-573,21.3049,36.129,-0.00100314,-0.00080278,-0.000529302,-0.000364262,-0.00144166,-0.878926,0.000865622,0.0179009,1756,1597,21.305,-36.1291
539,-573,21.2164,35.2872,0,0,0,0,0,0,0,-1,1763,1597,21.2164,-35.2873
546,-573,21.3483,34.42,0,0,0,0,0,0,0,-1,1770,1597,21.3483,-34.4201
553,-573,21.0986,34.0859,0,0,0,0,0,0,0,-1,1777,1597,21.0987,-34.0859
560,-573,20.8483,33.514,0,0,0,0,0,0,0,-1,1784,1597,20.8483,-33.514
567,-573,19.8645,28.3368,0,0,0,0,0,0,0,-1,1791,1597,19.8645,-28.3368
574,-573,0.83374,5.7041,0,0,0,0,0,0,0,-1,1798,1597,0.833718,-5.70405
581,-573,-0.224854,7.41602,0,0,0,0,0,0,0,-1,1805,1597,-0.224904,-7.41596
588,-573,-0.134033,7.67065,0,0,0,0,0,0,0,-1,1812,1597,-0.134037,-7.67063
595,-573,-0.0825195,8.35083,0,0,0,0,0,0,0,-1,1819,1597,-0.0824684,-8.35088
602,-573,0,0,0,0,0,0,0,0,0,-1,1826,1597,0,0
609,-573,0,0,0,0,0,0,0,0,0,-1,1833,1597,0,0
616,-573,0,0,0,0,0,0,0,0,0,-1,1840,1597,0,0
623,-573,0,0,0,0,0,0,0,0,0,-1,1847,1597,0,0
630,-573,0,0,0,0,0,0,0,0,0,-1,1854,1597,0,0
637,-573,0,0,0,0,0,0,0,0,0,-1,1861,1597,0,0
644,-573,0,0,0,0,0,0,0,0,0,-1,1868,1597,0,0
651,-573,0,0,0,0,0,0,0,0,0,-1,1875,1597,0,0
658,-573,0,0,0,0,0,0,0,0,0,-1,1882,1597,0,0
665,-573,0,0,0,0,0,0,0,0,0,-1,1889,1597,0,0
672,-573,0,0,0,0,0,0,0,0,0,-1,1896,1597,0,0
679,-573,0,0,0,0,0,0,0,0,0,-1,1903,1597,0,0
686,-573,0,0,0,0,0,0,0,0,0,-1,1910,1597,0,0
693,-573,0,0,0,0,0,0,0,0,0,-1,1917,1597,0,0
700,-573,0,0,0,0,0,0,0,0,0,-1,1924,1597,0,0
707,-573,0,0,0,0,0,0,0,0,0,-1,1931,1597,0,0
714,-573,0,0,0,0,0,0,0,0,0,-1,1938,1597,0,0
721,-573,0,0,0,0,0,0,0,0,0,-1,1945,1597,0,0
728,-573,0,0,0,0,0,0,0,0,0,-1,1952,1597,0,0
735,-573,0,0,0,0,0,0,0,0,0,-1,1959,1597,0,0
742,-573,0,0,0,0,0,0,0,0,0,-1,1966,1597,0,0
749,-573,0,0,0,0,0,0,0,0,0,-1,1973,1597,0,0
756,-573,0,0,0,0,0,0,0,0,0,-1,1980,1597,0,0
763,-573,0,0,0,0,0,0,0,0,0,-1,1987,1597,0,0
770,-573,0,0,0,0,0,0,0,0,0,-1,1994,1597,0,0
777,-573,0,0,0,0,0,0,0,0,0,-1,2001,1597,0,0
784,-573,0,0,0,0,0,0,0,0,0,-1,2008,1597,0,0
791,-573,0,0,0,0,0,0,0,0,0,-1,2015,1597,0,0
798,-573,0,0,0,0,0,0,0,0,0,-1,2022,1597,0,0
805,-573,0,0,0,0,0,0,0,0,0,-1,2029,1597,0,0
812,-573,0,0,0,0,0,0,0,0,0,-1,2036,1597,0,0
-700,-580,0,0,0,0,0,0,0,0,0,-1,524,1604,0,0
-693,-580,0,0,0,0,0,0,0,0,0,-1,531,1604,0,0
-686,-580,0,0,0,0,0,0,0,0,0,-1,538,1604,0,0
-679,-580,0,0,0,0,0,0,0,0,0,-1,545,1604,0,0
-672,-580,0,0,0,0,0,0,0,0,0,-1,552,1604,0,0
-665,-580,0,0,0,0,0,0,0,0,0,-1,559,1604,0,0
-658,-580,0,0,0,0,0,0,0,0,0,-1,566,1604,0,0
-651,-580,0,0,0,0,0,0,0,0,0,-1,573,1604,0,0
-644,-580,0,0,0,0,0,0,0,0,0,-1,580,1604,0,0
-637,-580,0,0,0,0,0,0,0,0,0,-1,587,1604,0,0
-630,-580,0,0,0,0,0,0,0,0,0,-1,594,1604,0,0
-623,-580,0,0,0,0,0,0,0,0,0,-1,601,1604,0,0
-616,-580,0,0,0,0,0,0,0,0,0,-1,608,1604,0,0
-609,-580,0,0,0,0,0,0,0,0,0,-1,615,1604,0,0
-602,-580,0,0,0,0,0,0,0,0,0,-1,622,1604,0,0
-595,-580,0,0,0,0,0,0,0,0,0,-1,629,1604,0,0
-588,-580,0,0,0,0,0,0,0,0,0,-1,636,1604,0,0
-581,-580,0,0,0,0,0,0,0,0,0,-1,643,1604,0,0
-574,-580,0,0,0,0,0,0,0,0,0,-1,650,1604,0,0
-567,-580,0,0,0,0,0,0,0,0,0,-1,657,1604,0,0
-560,-580,0,0,0,0,0,0,0,0,0,-1,664,1604,0,0
-553,-580,0,0,0,0,0,0,0,0,0,-1,671,1604,0,0
-546,-580,0,0,0,0,0,0,0,0,0,-1,678,1604,0,0
-539,-580,0,0,0,0,0,0,0,0,0,-1,685,1604,0,0
-532,-580,0,0,0,0,0,0,0,0,0,-1,692,1604,0,0
-525,-580,0,0,0,0,0,0,0,0,0,-1,699,1604,0,0
-518,-580,0,0,0,0,0,0,0,0,0,-1,706,1604,0,0
-511,-580,0,0,0,0,0,0,0,0,0,-1,713,1604,0,0
-504,-580,0,0,0,0,0,0,0,0,0,-1,720,1604,0,0
-497,-580,0,0,0,0,0,0,0,0,0,-1,727,1604,0,0
-490,-580,0,0,0,0,0,0,0,0,0,-1,734,1604,0,0
-483,-580,0,0,0,0,0,0,0,0,0,-1,741,1604,0,0
-476,-580,0,0,0,0,0,0,0,0,0,-1,748,1604,0,0
-469,-580,-1.69189,-0.38916,0,0,0,0,0,0,0,-1,755,1604,-1.69192,0.389188
-462,-580,-0.859863,0.675293,0,0,0,0,0,0,0,-1,762,1604,-0.859834,-0.675245
-455,-580,-0.730164,0.651978,0,0,0,0,0,0,0,-1,769,1604,-0.730153,-0.651957
-448,-580,-3.31891,2.07544,0,0,0,0,0,0,0,-1,776,1604,-3.3189,-2.07539
-441,-580,-1.63843,3.9469,0,0,0,0,0,0,0,-1,783,1604,-1.63842,-3.94695
-434,-580,0.23291,5.97876,0,0,0,0,0,0,0,-1,790,1604,0.232901,-5.97878
-427,-580,1.62756,8.05493,0,0,0,0,0,0,0,-1,797,1604,1.62758,-8.05488
-420,-580,0.986572,11.2383,0,0,0,0,0,0,0,-1,804,1604,0.986544,-11.2382
-413,-580,0.922913,21.5701,0,0,0,0,0,0,0,-1,811,1604,0.922905,-21.5701
-406,-580,-2.60583,35.7753,0,0,0,0,0,0,0,-1,818,1604,-2.60585,-35.7753
-399,-580,-2.67743,36.7449,0,0,0,0,0,0,0,-1,825,1604,-2.67744,-36.7449
-392,-580,-2.65216,37.6536,0.00296821,4.60033e-06,0.00432498,0.00605819,-0.00308538,0.620357,0.00537124,0.0252063,832,1604,-2.65218,-37.6536
-385,-580,-2.68292,38.4553,0.00270536,-0.000146845,0.00370455,0.00524883,-0.00269031,0.601661,0.00466233,0.0128511,839,1604,-2.6829,-38.4553
-378,-580,-2.70245,39.2528,0.00233299,-0.000176465,0.00314629,0.00446552,-0.00230899,0.595664,0.00397677,0.0156031,846,1604,-2.70246,-39.2528
-371,-580,-2.75256,40.0793,0.0020441,-0.000188183,0.00259914,0.00375662,-0.0019007,0.582591,0.00332432,0.0153497,853,1604,-2.75258,-40.0794
-364,-580,-2.83844,40.8392,0.00189208,-2.12923e-06,0.00219277,0.00333354,-0.00144359,0.581539,0.00282911,0.021824,860,1604,-2.83841,-40.8392
-357,-580,-2.86255,41.5944,0.00189521,0.000465531,0.00190869,0.00321853,-0.000857792,0.606224,0.00248154,0.015835,867,1604,-2.86255,-41.5944
-350,-580,-2.91119,42.4077,0.00208352,0.00104544,0.00174632,0.0033863,-0.00025734,0.640945,0.00234802,0.0121213,874,1604,-2.91121,-42.4078
-343,-580,-2.9278,43.1783,0.00225677,0.00167315,0.00164899,0.00363957,0.000290353,0.697824,0.00233562,0.012049,881,1604,-2.92781,-43.1783
-336,-580,-2.93982,43.8947,0.00258127,0.00266854,0.00182012,0.00444555,0.000804261,0.797383,0.00273531,0.0205554,888,1604,-2.9398,-43.8947
-329,-580,-2.979,44.726,0.00326483,0.00414075,0.00215067,0.0058976,0.00150799,0.885844,0.00353787,0.0191068,895,1604,-2.97902,-44.7259
-322,-580,-3.02271,45.5471,0.00443047,0.00572596,0.00278369,0.00793627,0.00222015,0.89971,0.00472787,0.0216209,902,1604,-3.02273,-45.5472
-315,-580,-3.01575,46.266,0.00574925,0.00749085,0.00368356,0.0104051,0.00283496,0.901468,0.00621131,0.0256619,909,1604,-3.01577,-46.2659
-308,-580,-2.96655,47.1989,0.00762656,0.00953878,0.00516064,0.0138311,0.00333421,0.876994,0.0083347,0.0409631,916,1604,-2.96654,-47.1988
-301,-580,-2.90527,47.8119,0.00995173,0.0118447,0.00684518,0.0178085,0.00398792,0.854098,0.0107915,0.0383682,923,1604,-2.90527,-47.8119
-294,-580,-3.05316,48.3615,0.0127216,0.0147221,0.00897993,0.0227573,0.00468638,0.840863,0.0138758,0.0380707,930,1604,-3.05313,-48.3614
-287,-580,-3.02893,49.2275,0,0,0,0,0,0,0,-1,937,1604,-3.02891,-49.2276
-280,-580,-2.92059,50.8741,0,0,0,0,0,0,0,-1,944,1604,-2.92057,-50.8741
-273,-580,-2.4433,51.2457,0,0,0,0,0,0,0,-1,951,1604,-2.4433,-51.2458
-266,-580,-1.22644,48.4485,0,0,0,0,0,0,0,-1,958,1604,-1.22644,-48.4485
-259,-580,1.31091,9.11536,0,0,0,0,0,0,0,-1,965,1604,1.31092,-9.11539
-252,-580,1.07629,7.74097,0,0,0,0,0,0,0,-1,972,1604,1.07627,-7.74101
-245,-580,3.80304,9.16028,0,0,0,0,0,0,0,-1,979,1604,3.80306,-9.16034
-238,-580,-10.3588,1.57556,0,0,0,0,0,0,0,-1,986,1604,-10.3588,-1.5755
-231,-580,-10.576,6.43787,0,0,0,0,0,0,0,-1,993,1604,-10.576,-6.43783
-224,-580,-8.27435,7.58972,0,0,0,0,0,0,0,-1,1000,1604,-8.27435,-7.5897
-217,-580,-5.85632,9.51221,0,0,0,0,0,0,0,-1,1007,1604,-5.85632,-9.5122
-210,-580,-3.6684,11.1569,0,0,0,0,0,0,0,-1,1014,1604,-3.66839,-11.1569
-203,-580,-1.92474,12.7845,0,0,0,0,0,0,0,-1,1021,1604,-1.92477,-12.7845
-196,-580,-2.28552,10.3289,0,0,0,0,0,0,0,-1,1028,1604,-2.28552,-10.3288
-189,-580,-4.58252,7.59058,0,0,0,0,0,0,0,-1,1035,1604,-4.58256,-7.59057
-182,-580,-5.45874,7.65942,0,0,0,0,0,0,0,-1,1042,1604,-5.45876,-7.65939
-175,-580,-6.38977,7.55005,0,0,0,0,0,0,0,-1,1049,1604,-6.38981,-7.5501
-168,-580,0,0,0,0,0,0,0,0,0,-1,1056,1604,0,0
-161,-580,0,0,0,0,0,0,0,0,0,-1,1063,1604,0,0
-154,-580,0,0,0,0,0,0,0,0,0,-1,1070,1604,0,0
-147,-580,0,0,0,0,0,0,0,0,0,-1,1077,1604,0,0
-140,-580,0,0,0,0,0,0,0,0,0,-1,1084,1604,0,0
-133,-580,0,0,0,0,0,0,0,0,0,-1,1091,1604,0,0
-126,-580,0,0,0,0,0,0,0,0,0,-1,1098,1604,0,0
-119,-580,0,0,0,0,0,0,0,0,0,-1,1105,1604,0,0
-112,-580,0,0,0,0,0,0,0,0,0,-1,1112,1604,0,0
-105,-580,0,0,0,0,0,0,0,0,0,-1,1119,1604,0,0
-98,-580,0,0,0,0,0,0,0,0,0,-1,1126,1604,0,0
-91,-580,0,0,0,0,0,0,0,0,0,-1,1133,1604,0,0
-84,-580,0,0,0,0,0,0,0,0,0,-1,1140,1604,0,0
-77,-580,0,0,0,0,0,0,0,0,0,-1,1147,1604,0,0
-70,-580,0,0,0,0,0,0,0,0,0,-1,1154,1604,0,0
-63,-580,0,0,0,0,0,0,0,0,0,-1,1161,1604,0,0
-56,-580,0,0,0,0,0,0,0,0,0,-1,1168,1604,0,0
-49,-580,0,0,0,0,0,0,0,0,0,-1,1175,1604,0,0
-42,-580,0,0,0,0,0,0,0,0,0,-1,1182,1604,0,0
-35,-580,0,0,0,0,0,0,0,0,0,-1,1189,1604,0,0
-28,-580,0,0,0,0,0,0,0,0,0,-1,1196,1604,0,0
-21,-580,0,0,0,0,0,0,0,0,0,-1,1203,1604,0,0
-14,-580,0,0,0,0,0,0,0,0,0,-1,1210,1604,0,0
-7,-580,0,0,0,0,0,0,0,0,0,-1,1217,1604,0,0
0,-580,0,0,0,0,0,0,0,0,0,-1,1224,1604,0,0
7,-580,0,0,0,0,0,0,0,0,0,-1,1231,1604,0,0
14,-580,0,0,0,0,0,0,0,0,0,-1,1238,1604,0,0
21,-580,0,0,0,0,0,0,0,0,0,-1,1245,1604,0,0
28,-580,0,0,0,0,0,0,0,0,0,-1,1252,1604,0,0
35,-580,0,0,0,0,0,0,0,0,0,-1,1259,1604,0,0
42,-580,0,0,0,0,0,0,0,0,0,-1,1266,1604,0,0
49,-580,0,0,0,0,0,0,0,0,0,-1,1273,1604,0,0
56,-580,0,0,0,0,0,0,0,0,0,-1,1280,1604,0,0
63,-580,0,0,0,0,0,0,0,0,0,-1,1287,1604,0,0
70,-580,0,0,0,0,0,0,0,0,0,-1,1294,1604,0,0
77,-580,0,0,0,0,0,0,0,0,0,-1,1301,1604,0,0
84,-580,0,0,0,0,0,0,0,0,0,-1,1308,1604,0,0
91,-580,0,0,0,0,0,0,0,0,0,-1,1315,1604,0,0
98,-580,0,0,0,0,0,0,0,0,0,-1,1322,1604,0,0
105,-580,0,0,0,0,0,0,0,0,0,-1,1329,1604,0,0
112,-580,0,0,0,0,0,0,0,0,0,-1,1336,1604,0,0
119,-580,0,0,0,0,0,0,0,0,0,-1,1343,1604,0,0
126,-580,0,0,0,0,0,0,0,0,0,-1,1350,1604,0,0
133,-580,0,0,0,0,0,0,0,0,0,-1,1357,1604,0,0
140,-580,0,0,0,0,0,0,0,0,0,-1,1364,1604,0,0
147,-580,0,0,0,0,0,0,0,0,0,-1,1371,1604,0,0
154,-580,0,0,0,0,0,0,0,0,0,-1,1378,1604,0,0
161,-580,0,0,0,0,0,0,0,0,0,-1,1385,1604,0,0
168,-580,0,0,0,0,0,0,0,0,0,-1,1392,1604,0,0
175,-580,0,0,0,0,0,0,0,0,0,-1,1399,1604,0,0
182,-580,0,0,0,0,0,0,0,0,0,-1,1406,1604,0,0
189,-580,0,0,0,0,0,0,0,0,0,-1,1413,1604,0,0
196,-580,0,0,0,0,0,0,0,0,0,-1,1420,1604,0,0
203,-580,0,0,0,0,0,0,0,0,0,-1,1427,1604,0,0
210,-580,0,0,0,0,0,0,0,0,0,-1,1434,1604,0,0
217,-580,0,0,0,0,0,0,0,0,0,-1,1441,1604,0,0
224,-580,0,0,0,0,0,0,0,0,0,-1,1448,1604,0,0
231,-580,0,0,0,0,0,0,0,0,0,-1,1455,1604,0,0
238,-580,0,0,0,0,0,0,0,0,0,-1,1462,1604,0,0
245,-580,0,0,0,0,0,0,0,0,0,-1,1469,1604,0,0
252,-580,0,0,0,0,0,0,0,0,0,-1,1476,1604,0,0
259,-580,0,0,0,0,0,0,0,0,0,-1,1483,1604,0,0
266,-580,0,0,0,0,0,0,0,0,0,-1,1490,1604,0,0
273,-580,0,0,0,0,0,0,0,0,0,-1,1497,1604,0,0
280,-580,0,0,0,0,0,0,0,0,0,-1,1504,1604,0,0
287,-580,0,0,0,0,0,0,0,0,0,-1,1511,1604,0,0
294,-580,4.0437,0.177368,0,0,0,0,0,0,0,-1,1518,1604,4.04369,-0.177371
301,-580,7.55164,8.05798,0,0,0,0,0,0,0,-1,1525,1604,7.55158,-8.05802
308,-580,5.9126,9.99341,0,0,0,0,0,0,0,-1,1532,1604,5.91255,-9.99337
315,-580,4.27356,11.9287,0,0,0,0,0,0,0,-1,1539,1604,4.27352,-11.9287
322,-580,10.2366,7.50281,0,0,0,0,0,0,0,-1,1546,1604,10.2366,-7.50282
329,-580,10.5962,8.69641,0,0,0,0,0,0,0,-1,1553,1604,10.5962,-8.69642
336,-580,3.66431,1.58862,0,0,0,0,0,0,0,-1,1560,1604,3.6643,-1.58864
343,-580,19.0659,51.8346,0,0,0,0,0,0,0,-1,1567,1604,19.0659,-51.8346
350,-580,21.4856,54.0978,0,0,0,0,0,0,0,-1,1574,1604,21.4857,-54.0978
357,-580,21.0597,54.0709,0,0,0,0,0,0,0,-1,1581,1604,21.0597,-54.071
364,-580,21.548,53.6591,0,0,0,0,0,0,0,-1,1588,1604,21.548,-53.6591
371,-580,22.3584,52.7148,0,0,0,0,0,0,0,-1,1595,1604,22.3584,-52.7149
378,-580,23.3003,52.3074,0,0,0,0,0,0,0,-1,1602,1604,23.3003,-52.3074
385,-580,18.6182,47.5352,0,0,0,0,0,0,0,-1,1609,1604,18.6181,-47.5352
392,-580,19.1388,46.7451,0,0,0,0,0,0,0,-1,1616,1604,19.1388,-46.7452
399,-580,19.433,45.329,0,0,0,0,0,0,0,-1,1623,1604,19.433,-45.329
406,-580,20.5717,49.8016,0,0,0,0,0,0,0,-1,1630,1604,20.5717,-49.8017
413,-580,20.7283,49.1143,0,0,0,0,0,0,0,-1,1637,1604,20.7282,-49.1143
420,-580,20.7915,48.4464,0,0,0,0,0,0,0,-1,1644,1604,20.7915,-48.4464
427,-580,20.9968,47.8809,0,0,0,0,0,0,0,-1,1651,1604,20.9969,-47.8808
434,-580,20.8798,47.231,0,0,0,0,0,0,0,-1,1658,1604,20.8798,-47.231
441,-580,20.8074,46.1962,0.00879581,0.0060621,-0.00434735,0.0119861,0.00287179,-0.633085,0.00722627,0.0270187,1665,1604,20.8074,-46.1962
448,-580,20.8943,45.3406,0.00724302,0.00571238,-0.00401268,0.0105627,0.00239269,-0.691167,0.00639522,0.0186183,1672,1604,20.8943,-45.3405
455,-580,20.9337,44.6206,0.00621443,0.00506851,-0.00375753,0.00944244,0.00184051,-0.70974,0.00577997,0.0218305,1679,1604,20.9337,-44.6206
462,-580,20.871,43.8458,0.00547648,0.00442319,-0.00325767,0.0082498,0.00164987,-0.70526,0.00504073,0.0243246,1686,1604,20.871,-43.8458
469,-580,20.8354,43.0765,0.00477778,0.00368919,-0.00290923,0.0071932,0.00127377,-0.692922,0.00443231,0.0216908,1693,1604,20.8355,-43.0766
476,-580,20.8422,42.3367,0.00402103,0.0030237,-0.00261117,0.00618073,0.000864004,-0.691048,0.00386481,0.0161522,1700,1604,20.8422,-42.3366
483,-580,20.7993,41.613,0.00325247,0.00232759,-0.00228897,0.00512525,0.000454818,-0.685725,0.00327577,0.0145675,1707,1604,20.7994,-41.6131
490,-580,20.7533,40.8564,0.00241352,0.00179183,-0.0019296,0.00405715,0.000148203,-0.705537,0.00265674,0.0199985,1714,1604,20.7533,-40.8565
497,-580,20.7155,40.0646,0.00153512,0.00126816,-0.00160981,0.00301697,-0.000213702,-0.744034,0.0020862,0.0157359,1721,1604,20.7155,-40.0646
504,-580,20.6665,39.287,0.000727773,0.000679792,-0.00133242,0.00203642,-0.000628856,-0.776396,0.00160874,0.0186064,1728,1604,20.6665,-39.287
511,-580,20.6324,38.5374,-6.42126e-05,0.000186622,-0.00107098,0.0011395,-0.00101709,-0.843685,0.00124578,0.0180949,1735,1604,20.6324,-38.5374
518,-580,20.5779,37.7705,-0.000784551,-0.000297372,-0.000852739,0.000345886,-0.00142781,-0.924521,0.00108569,0.0163473,1742,1604,20.5779,-37.7706
525,-580,20.5427,36.9913,-0.00138322,-0.000764113,-0.000651454,-0.000352405,-0.00179492,-1.00719,0.00109816,0.0199761,1749,1604,20.5428,-36.9913
532,-580,20.4644,36.2129,-0.00171521,-0.00120158,-0.000507645,-0.000889486,-0.0020273,-1.01957,0.00117339,0.0322298,1756,1604,20.4644,-36.2129
539,-580,20.4509,35.3812,0,0,0,0,0,0,0,-1,1763,1604,20.451,-35.3812
546,-580,20.6797,34.8347,0,0,0,0,0,0,0,-1,1770,1604,20.6797,-34.8347
553,-580,17.1749,26.6359,0,0,0,0,0,0,0,-1,1777,1604,17.1749,-26.6358
560,-580,18.9662,29.0388,0,0,0,0,0,0,0,-1,1784,1604,18.9661,-29.0389
567,-580,3.87708,4.0647,0,0,0,0,0,0,0,-1,1791,1604,3.87711,-4.06471
574,-580,2.31653,5.62952,0,0,0,0,0,0,0,-1,1798,1604,2.31654,-5.62947
581,-580,1.60876,6.67664,0,0,0,0,0,0,0,-1,1805,1604,1.60873,-6.67667
588,-580,1.38684,7.14441,0,0,0,0,0,0,0,-1,1812,1604,1.38689,-7.14443
595,-580,0,0,0,0,0,0,0,0,0,-1,1819,1604,0,0
602,-580,0,0,0,0,0,0,0,0,0,-1,1826,1604,0,0
609,-580,0,0,0,0,0,0,0,0,0,-1,1833,1604,0,0
616,-580,0,0,0,0,0,0,0,0,0,-1,1840,1604,0,0
623,-580,0,0,0,0,0,0,0,0,0,-1,1847,1604,0,0
630,-580,0,0,0,0,0,0,0,0,0,-1,1854,1604,0,0
637,-580,0,0,0,0,0,0,0,0,0,-1,1861,1604,0,0
644,-580,0,0,0,0,0,0,0,0,0,-1,1868,1604,0,0
651,-580,0,0,0,0,0,0,0,0,0,-1,1875,1604,0,0
658,-580,0,0,0,0,0,0,0,0,0,-1,1882,1604,0,0
665,-580,0,0,0,0,0,0,0,0,0,-1,1889,1604,0,0
672,-580,0,0,0,0,0,0,0,0,0,-1,1896,1604,0,0
679,-580,0,0,0,0,0,0,0,0,0,-1,1903,1604,0,0
686,-580,0,0,0,0,0,0,0,0,0,-1,1910,1604,0,0
693,-580,0,0,0,0,0,0,0,0,0,-1,1917,1604,0,0
700,-580,0,0,0,0,0,0,0,0,0,-1,1924,1604,0,0
707,-580,0,0,0,0,0,0,0,0,0,-1,1931,1604,0,0
714,-580,0,0,0,0,0,0,0,0,0,-1,1938,1604,0,0
721,-580,0,0,0,0,0,0,0,0,0,-1,1945,1604,0,0
728,-580,0,0,0,0,0,0,0,0,0,-1,1952,1604,0,0
735,-580,0,0,0,0,0,0,0,0,0,-1,1959,1604,0,0
742,-580,0,0,0,0,0,0,0,0,0,-1,1966,1604,0,0
749,-580,0,0,0,0,0,0,0,0,0,-1,1973,1604,0,0
756,-580,0,0,0,0,0,0,0,0,0,-1,1980,1604,0,0
763,-580,0,0,0,0,0,0,0,0,0,-1,1987,1604,0,0
770,-580,0,0,0,0,0,0,0,0,0,-1,1994,1604,0,0
777,-580,0,0,0,0,0,0,0,0,0,-1,2001,1604,0,0
784,-580,0,0,0,0,0,0,0,0,0,-1,2008,1604,0,0
791,-580,0,0,0,0,0,0,0,0,0,-1,2015,1604,0,0
798,-580,0,0,0,0,0,0,0,0,0,-1,2022,1604,0,0
805,-580,0,0,0,0,0,0,0,0,0,-1,2029,1604,0,0
812,-580,0,0,0,0,0,0,0,0,0,-1,2036,1604,0,0
-700,-587,0,0,0,0,0,0,0,0,0,-1,524,1611,0,0
-693,-587,0,0,0,0,0,0,0,0,0,-1,531,1611,0,0
-686,-587,0,0,0,0,0,0,0,0,0,-1,538,1611,0,0
-679,-587,0,0,0,0,0,0,0,0,0,-1,545,1611,0,0
-672,-587,0,0,0,0,0,0,0,0,0,-1,552,1611,0,0
-665,-587,0,0,0,0,0,0,0,0,0,-1,559,1611,0,0
-658,-587,0,0,0,0,0,0,0,0,0,-1,566,1611,0,0
-651,-587,0,0,0,0,0,0,0,0,0,-1,573,1611,0,0
-644,-587,0,0,0,0,0,0,0,0,0,-1,580,1611,0,0
-637,-587,0,0,0,0,0,0,0,0,0,-1,587,1611,0,0
-630,-587,0,0,0,0,0,0,0,0,0,-1,594,1611,0,0
-623,-587,0,0,0,0,0,0,0,0,0,-1,601,1611,0,0
-616,-587,0,0,0,0,0,0,0,0,0,-1,608,1611,0,0
-609,-587,0,0,0,0,0,0,0,0,0,-1,615,1611,0,0
-602,-587,0,0,0,0,0,0,0,0,0,-1,622,1611,0,0
-595,-587,0,0,0,0,0,0,0,0,0,-1,629,1611,0,0
-588,-587,0,0,0,0,0,0,0,0,0,-1,636,1611,0,0
-581,-587,0,0,0,0,0,0,0,0,0,-1,643,1611,0,0
-574,-587,0,0,0,0,0,0,0,0,0,-1,650,1611,0,0
-567,-587,0,0,0,0,0,0,0,0,0,-1,657,1611,0,0
-560,-587,0,0,0,0,0,0,0,0,0,-1,664,1611,0,0
-553,-587,0,0,0,0,0,0,0,0,0,-1,671,1611,0,0
-546,-587,0,0,0,0,0,0,0,0,0,-1,678,1611,0,0
-539,-587,0,0,0,0,0,0,0,0,0,-1,685,1611,0,0
-532,-587,0,0,0,0,0,0,0,0,0,-1,692,1611,0,0
-525,-587,0,0,0,0,0,0,0,0,0,-1,699,1611,0,0
-518,-587,0,0,0,0,0,0,0,0,0,-1,706,1611,0,0
-511,-587,0,0,0,0,0,0,0,0,0,-1,713,1611,0,0
-504,-587,0,0,0,0,0,0,0,0,0,-1,720,1611,0,0
-497,-587,0,0,0,0,0,0,0,0,0,-1,727,1611,0,0
-490,-587,0,0,0,0,0,0,0,0,0,-1,734,1611,0,0
-483,-587,0,0,0,0,0,0,0,0,0,-1,741,1611,0,0
-476,-587,0,0,0,0,0,0,0,0,0,-1,748,1611,0,0
-469,-587,0,0,0,0,0,0,0,0,0,-1,755,1611,0,0
-462,-587,-0.714355,-0.418457,0,0,0,0,0,0,0,-1,762,1611,-0.714359,0.418483
-455,-587,-0.619812,-0.522461,0,0,0,0,0,0,0,-1,769,1611,-0.619802,0.522515
-448,-587,-0.461731,-0.686523,0,0,0,0,0,0,0,-1,776,1611,-0.461739,0.686559
-441,-587,-3.56555,2.72253,0,0,0,0,0,0,0,-1,783,1611,-3.56555,-2.72259
-434,-587,-1.77319,4.76318,0,0,0,0,0,0,0,-1,790,1611,-1.77318,-4.76323
-427,-587,0.0346069,6.92944,0,0,0,0,0,0,0,-1,797,1611,0.034587,-6.92941
-420,-587,-0.647156,10.1157,0,0,0,0,0,0,0,-1,804,1611,-0.647128,-10.1158
-413,-587,2.13971,10.3901,0,0,0,0,0,0,0,-1,811,1611,2.13971,-10.3902
-406,-587,2.2525,19.7814,0,0,0,0,0,0,0,-1,818,1611,2.25253,-19.7814
-399,-587,-1.7851,36.6587,0,0,0,0,0,0,0,-1,825,1611,-1.78511,-36.6587
-392,-587,-2.01886,37.515,0,0,0,0,0,0,0,-1,832,1611,-2.01883,-37.515
-385,-587,-2.03284,38.4128,0.00352028,-0.00061341,0.00488257,0.00675545,-0.00384858,0.585179,0.00619844,0.032914,839,1611,-2.03283,-38.4129
-378,-587,-1.95313,39.2933,0.00300228,-0.000735922,0.00414029,0.00567581,-0.00340945,0.573372,0.0052995,0.0142667,846,1611,-1.95314,-39.2934
-371,-587,-2.00159,40.1144,0.00252221,-0.000845085,0.0034165,0.00464738,-0.00297026,0.556463,0.00443343,0.0147267,853,1611,-2.00161,-40.1143
-364,-587,-2.05804,40.8837,0.00216405,-0.000846055,0.00278015,0.00382039,-0.0025024,0.537307,0.0036768,0.0186227,860,1611,-2.05806,-40.8837
-357,-587,-2.10522,41.6056,0.00201746,-0.000512898,0.00231442,0.00338994,-0.00188538,0.535264,0.00308672,0.0172255,867,1611,-2.10524,-41.6056
-350,-587,-2.14282,42.4445,0.00206516,-3.60497e-05,0.00198568,0.00326104,-0.00123193,0.542074,0.00268075,0.0107121,874,1611,-2.14284,-42.4445
-343,-587,-2.19104,43.2068,0.00214475,0.000573316,0.0017654,0.00329139,-0.000573325,0.576028,0.00240822,0.0132307,881,1611,-2.19102,-43.2068
-336,-587,-2.22394,43.948,0.00234818,0.0014685,0.00177294,0.00373502,8.16549e-05,0.663811,0.00246325,0.0131605,888,1611,-2.22391,-43.948
-329,-587,-2.25378,44.7448,0.00283236,0.00273529,0.00191228,0.00469672,0.000870932,0.77271,0.00288499,0.0150919,895,1611,-2.25377,-44.7447
-322,-587,-2.25903,45.5472,0.00372448,0.00410631,0.00231864,0.00624189,0.0015889,0.826475,0.00374569,0.0174587,902,1611,-2.25902,-45.5473
-315,-587,-2.31305,46.2632,0.00480897,0.00561283,0.00298521,0.00822305,0.00219875,0.852316,0.00491585,0.0141948,909,1611,-2.31305,-46.2632
-308,-587,-2.36176,47.0154,0.00636905,0.00735157,0.00412125,0.0110107,0.00270989,0.844719,0.0066246,0.0155777,916,1611,-2.36174,-47.0154
-301,-587,-2.30334,47.7938,0.00831183,0.00938228,0.00550121,0.0143742,0.00331987,0.833892,0.00869022,0.01687,923,1611,-2.30337,-47.7938
-294,-587,-2.23242,48.5857,0.0105755,0.0117982,0.00722143,0.0184341,0.00393957,0.827627,0.0112094,0.0253215,930,1611,-2.23243,-48.5857
-287,-587,-2.29773,49.3922,0.0135181,0.0146097,0.00936809,0.0234478,0.00467988,0.814496,0.014329,0.0394223,937,1611,-2.29772,-49.3922
-280,-587,-2.24823,50.354,0.0169934,0.0179704,0.0118917,0.0293837,0.0055801,0.805927,0.0180194,0.0498122,944,1611,-2.24826,-50.354
-273,-587,-1.96564,50.9799,0.0203759,0.0213495,0.0144457,0.0353166,0.00640877,0.80224,0.0217256,0.0477797,951,1611,-1.96565,-50.9799
-266,-587,-1.86884,51.7374,0,0,0,0,0,0,0,-1,958,1611,-1.86882,-51.7375
-259,-587,-1.30328,52.619,0,0,0,0,0,0,0,-1,965,1611,-1.3033,-52.619
-252,-587,1.30188,10.3103,0,0,0,0,0,0,0,-1,972,1611,1.30188,-10.3104
-245,-587,1.52075,27.4791,0,0,0,0,0,0,0,-1,979,1611,1.52076,-27.4791
-238,-587,2.87799,9.53821,0,0,0,0,0,0,0,-1,986,1611,2.87797,-9.53823
-231,-587,2.49548,9.14465,0,0,0,0,0,0,0,-1,993,1611,2.49551,-9.14468
-224,-587,-9.72528,9.21069,0,0,0,0,0,0,0,-1,1000,1611,-9.72529,-9.21072
-217,-587,-7.07495,10.7847,0,0,0,0,0,0,0,-1,1007,1611,-7.07495,-10.7847
-210,-587,-4.72308,12.5889,0,0,0,0,0,0,0,-1,1014,1611,-4.72307,-12.5888
-203,-587,-3.2583,13.7289,0,0,0,0,0,0,0,-1,1021,1611,-3.25828,-13.7289
-196,-587,-1.953,14.8145,0,0,0,0,0,0,0,-1,1028,1611,-1.95302,-14.8144
-189,-587,-3.04138,8.66638,0,0,0,0,0,0,0,-1,1035,1611,-3.04136,-8.66635
-182,-587,-3.97095,9.7146,0,0,0,0,0,0,0,-1,1042,1611,-3.97093,-9.71461
-175,-587,-4.80969,8.37878,0,0,0,0,0,0,0,-1,1049,1611,-4.80964,-8.37883
-168,-587,-5.91394,8.72546,0,0,0,0,0,0,0,-1,1056,1611,-5.91398,-8.72542
-161,-587,-7.06946,8.88501,0,0,0,0,0,0,0,-1,1063,1611,-7.06947,-8.885
-154,-587,-2.24731,6.56519,0,0,0,0,0,0,0,-1,1070,1611,-2.24728,-6.56517
-147,-587,0,0,0,0,0,0,0,0,0,-1,1077,1611,0,0
-140,-587,0,0,0,0,0,0,0,0,0,-1,1084,1611,0,0
-133,-587,0,0,0,0,0,0,0,0,0,-1,1091,1611,0,0
-126,-587,0,0,0,0,0,0,0,0,0,-1,1098,1611,0,0
-119,-587,0,0,0,0,0,0,0,0,0,-1,1105,1611,0,0
-112,-587,0,0,0,0,0,0,0,0,0,-1,1112,1611,0,0
-105,-587,0,0,0,0,0,0,0,0,0,-1,1119,1611,0,0
-98,-587,0,0,0,0,0,0,0,0,0,-1,1126,1611,0,0
-91,-587,0,0,0,0,0,0,0,0,0,-1,1133,1611,0,0
-84,-587,0,0,0,0,0,0,0,0,0,-1,1140,1611,0,0
-77,-587,0,0,0,0,0,0,0,0,0,-1,1147,1611,0,0
-70,-587,0,0,0,0,0,0,0,0,0,-1,1154,1611,0,0
-63,-587,0,0,0,0,0,0,0,0,0,-1,1161,1611,0,0
-56,-587,0,0,0,0,0,0,0,0,0,-1,1168,1611,0,0
-49,-587,0,0,0,0,0,0,0,0,0,-1,1175,1611,0,0
-42,-587,0,0,0,0,0,0,0,0,0,-1,1182,1611,0,0
-35,-587,0,0,0,0,0,0,0,0,0,-1,1189,1611,0,0
-28,-587,0,0,0,0,0,0,0,0,0,-1,1196,1611,0,0
-21,-587,0,0,0,0,0,0,0,0,0,-1,1203,1611,0,0
-14,-587,0,0,0,0,0,0,0,0,0,-1,1210,1611,0,0
-7,-587,0,0,0,0,0,0,0,0,0,-1,1217,1611,0,0
0,-587,0,0,0,0,0,0,0,0,0,-1,1224,1611,0,0
7,-587,0,0,0,0,0,0,0,0,0,-1,1231,1611,0,0
14,-587,0,0,0,0,0,0,0,0,0,-1,1238,1611,0,0
21,-587,0,0,0,0,0,0,0,0,0,-1,1245,1611,0,0
28,-587,0,0,0,0,0,0,0,0,0,-1,1252,1611,0,0
35,-587,0,0,0,0,0,0,0,0,0,-1,1259,1611,0,0
42,-587,0,0,0,0,0,0,0,0,0,-1,1266,1611,0,0
49,-587,0,0,0,0,0,0,0,0,0,-1,1273,1611,0,0
56,-587,0,0,0,0,0,0,0,0,0,-1,1280,1611,0,0
63,-587,0,0,0,0,0,0,0,0,0,-1,1287,1611,0,0
70,-587,0,0,0,0,0,0,0,0,0,-1,1294,1611,0,0
77,-587,0,0,0,0,0,0,0,0,0,-1,1301,1611,0,0
84,-587,0,0,0,0,0,0,0,0,0,-1,1308,1611,0,0
91,-587,0,0,0,0,0,0,0,0,0,-1,1315,1611,0,0
98,-587,0,0,0,0,0,0,0,0,0,-1,1322,1611,0,0
105,-587,0,0,0,0,0,0,0,0,0,-1,1329,1611,0,0
112,-587,0,0,0,0,0,0,0,0,0,-1,1336,1611,0,0
119,-587,0,0,0,0,0,0,0,0,0,-1,1343,1611,0,0
126,-587,0,0,0,0,0,0,0,0,0,-1,1350,1611,0,0
133,-587,0,0,0,0,0,0,0,0,0,-1,1357,1611,0,0
140,-587,0,0,0,0,0,0,0,0,0,-1,1364,1611,0,0
147,-587,0,0,0,0,0,0,0,0,0,-1,1371,1611,0,0
154,-587,0,0,0,0,0,0,0,0,0,-1,1378,1611,0,0
161,-587,0,0,0,0,0,0,0,0,0,-1,1385,1611,0,0
168,-587,0,0,0,0,0,0,0,0,0,-1,1392,1611,0,0
175,-587,0,0,0,0,0,0,0,0,0,-1,1399,1611,0,0
182,-587,0,0,0,0,0,0,0,0,0,-1,1406,1611,0,0
189,-587,0,0,0,0,0,0,0,0,0,-1,1413,1611,0,0
196,-587,0,0,0,0,0,0,0,0,0,-1,1420,1611,0,0
203,-587,0,0,0,0,0,0,0,0,0,-1,1427,1611,0,0
210,-587,0,0,0,0,0,0,0,0,0,-1,1434,1611,0,0
217,-587,0,0,0,0,0,0,0,0,0,-1,1441,1611,0,0
224,-587,0,0,0,0,0,0,0,0,0,-1,1448,1611,0,0
231,-587,0,0,0,0,0,0,0,0,0,-1,1455,1611,0,0
238,-587,0,0,0,0,0,0,0,0,0,-1,1462,1611,0,0
245,-587,0,0,0,0,0,0,0,0,0,-1,1469,1611,0,0
252,-587,0,0,0,0,0,0,0,0,0,-1,1476,1611,0,0
259,-587,0,0,0,0,0,0,0,0,0,-1,1483,1611,0,0
266,-587,0,0,0,0,0,0,0,0,0,-1,1490,1611,0,0
273,-587,10.2936,6.35083,0,0,0,0,0,0,0,-1,1497,1611,10.2936,-6.35087
280,-587,2.09204,1.1217,0,0,0,0,0,0,0,-1,1504,1611,2.092,-1.12176
287,-587,3.2865,0.671509,0,0,0,0,0,0,0,-1,1511,1611,3.28656,-0.671538
294,-587,4.24646,1.58765,0,0,0,0,0,0,0,-1,1518,1611,4.24648,-1.58761
301,-587,7.60474,8.37085,0,0,0,0,0,0,0,-1,1525,1611,7.60478,-8.37084
308,-587,5.99316,10.2291,0,0,0,0,0,0,0,-1,1532,1611,5.99315,-10.2291
315,-587,4.34558,12.3289,0,0,0,0,0,0,0,-1,1539,1611,4.34556,-12.3288
322,-587,10.4526,6.38245,0,0,0,0,0,0,0,-1,1546,1611,10.4526,-6.38245
329,-587,10.7738,8.42444,0,0,0,0,0,0,0,-1,1553,1611,10.7738,-8.42438
336,-587,7.5531,5.96619,0,0,0,0,0,0,0,-1,1560,1611,7.55311,-5.96617
343,-587,20.0991,54.4835,0,0,0,0,0,0,0,-1,1567,1611,20.0991,-54.4835
350,-587,19.8248,54.2876,0,0,0,0,0,0,0,-1,1574,1611,19.8249,-54.2876
357,-587,18.6205,53.876,0,0,0,0,0,0,0,-1,1581,1611,18.6205,-53.876
364,-587,19.7931,53.4395,0,0,0,0,0,0,0,-1,1588,1611,19.7931,-53.4395
371,-587,17.7566,54.684,0,0,0,0,0,0,0,-1,1595,1611,17.7565,-54.6839
378,-587,18.45,53.8905,0,0,0,0,0,0,0,-1,1602,1611,18.45,-53.8905
385,-587,22.3545,51.4707,0,0,0,0,0,0,0,-1,1609,1611,22.3544,-51.4707
392,-587,20.2103,51.0754,0,0,0,0,0,0,0,-1,1616,1611,20.2103,-51.0755
399,-587,20.0211,50.4277,0,0,0,0,0,0,0,-1,1623,1611,20.0211,-50.4277
406,-587,20.0426,49.7966,0.0305977,0.0122976,-0.0137041,0.0379258,0.00496963,-0.491044,0.0238009,0.0438628,1630,1611,20.0427,-49.7967
413,-587,20.1499,49.1006,0.0231746,0.00982543,-0.0102113,0.0286992,0.00430078,-0.495932,0.0178725,0.0330643,1637,1611,20.1499,-49.1006
420,-587,20.2024,48.3621,0.0175975,0.00821236,-0.00779257,0.0220014,0.00380855,-0.514385,0.0135773,0.0297149,1644,1611,20.2024,-48.362
427,-587,20.2782,47.7008,0.0120276,0.00648037,-0.00502345,0.0149923,0.00351568,-0.533159,0.00905342,0.0261048,1651,1611,20.2782,-47.7008
434,-587,20.2208,46.842,0.00808218,0.00485571,-0.00329295,0.0101358,0.00280206,-0.557629,0.00604374,0.0203287,1658,1611,20.2208,-46.8421
441,-587,20.204,46.0028,0.00693698,0.00449285,-0.00315879,0.00910186,0.00232796,-0.600827,0.00545993,0.0241687,1665,1611,20.204,-46.0028
448,-587,20.1919,45.3845,0.00567903,0.00417469,-0.0030216,0.00804067,0.00181305,-0.663412,0.00486992,0.0179095,1672,1611,20.1919,-45.3845
455,-587,20.1924,44.668,0.00482603,0.00362418,-0.00292048,0.00720677,0.00124344,-0.683933,0.00444835,0.016426,1679,1611,20.1924,-44.668
462,-587,20.1514,43.9015,0.00420114,0.00305365,-0.0026163,0.00630587,0.000948924,-0.677459,0.00392602,0.020603,1686,1611,20.1514,-43.9015
469,-587,20.0981,43.1627,0.00362407,0.0024612,-0.00242952,0.00554076,0.00054451,-0.667946,0.00352638,0.0184477,1693,1611,20.0981,-43.1627
476,-587,20.0592,42.4344,0.00297628,0.00194763,-0.00226172,0.00478142,0.000142497,-0.673597,0.00314119,0.0115814,1700,1611,20.0592,-42.4345
483,-587,20.0195,41.6479,0.00229894,0.00137657,-0.00206958,0.0039581,-0.000282591,-0.675769,0.0027378,0.0138148,1707,1611,20.0195,-41.648
490,-587,19.976,40.8772,0.00156368,0.000965162,-0.00183492,0.00312358,-0.000594738,-0.704564,0.00230634,0.0168897,1714,1611,19.976,-40.8771
497,-587,19.9351,40.1259,0.000807091,0.000610738,-0.00163563,0.00234749,-0.000929658,-0.755422,0.00195019,0.0133019,1721,1611,19.9351,-40.1259
504,-587,19.8743,39.3916,8.31467e-05,0.000102516,-0.00141613,0.00150899,-0.00132333,-0.788818,0.00163642,0.0128711,1728,1611,19.8743,-39.3916
511,-587,19.8385,38.6445,-0.000630244,-0.000223246,-0.00124488,0.000834656,-0.00168815,-0.866416,0.00148406,0.0149769,1735,1611,19.8385,-38.6445
518,-587,19.8351,37.8499,-0.00130442,-0.000622514,-0.00104725,0.000137889,-0.00206482,-0.942771,0.00142474,0.0142166,1742,1611,19.8351,-37.8498
525,-587,19.8022,37.0891,-0.00190166,-0.00100359,-0.000851041,-0.000490389,-0.00241486,-1.02815,0.0014739,0.019971,1749,1611,19.8022,-37.0891
532,-587,19.719,36.3154,-0.00226064,-0.00138833,-0.000666563,-0.00102791,-0.00262106,-1.07511,0.00152496,0.0414471,1756,1611,19.719,-36.3154
539,-587,19.683,35.3071,0,0,0,0,0,0,0,-1,1763,1611,19.6829,-35.3071
546,-587,17.6716,25.2673,0,0,0,0,0,0,0,-1,1770,1611,17.6716,-25.2674
553,-587,7.5813,8.45068,0,0,0,0,0,0,0,-1,1777,1611,7.58125,-8.45068
560,-587,4.21179,5.23547,0,0,0,0,0,0,0,-1,1784,1611,4.21185,-5.23553
567,-587,4.03711,5.46387,0,0,0,0,0,0,0,-1,1791,1611,4.03715,-5.46382
574,-587,3.83142,5.68884,0,0,0,0,0,0,0,-1,1798,1611,3.83141,-5.68881
581,-587,3.47168,6.00977,0,0,0,0,0,0,0,-1,1805,1611,3.47167,-6.00983
588,-587,0,0,0,0,0,0,0,0,0,-1,1812,1611,0,0
595,-587,0,0,0,0,0,0,0,0,0,-1,1819,1611,0,0
602,-587,0,0,0,0,0,0,0,0,0,-1,1826,1611,0,0
609,-587,0,0,0,0,0,0,0,0,0,-1,1833,1611,0,0
616,-587,0,0,0,0,0,0,0,0,0,-1,1840,1611,0,0
623,-587,0,0,0,0,0,0,0,0,0,-1,1847,1611,0,0
630,-587,0,0,0,0,0,0,0,0,0,-1,1854,1611,0,0
637,-587,0,0,0,0,0,0,0,0,0,-1,1861,1611,0,0
644,-587,0,0,0,0,0,0,0,0,0,-1,1868,1611,0,0
651,-587,0,0,0,0,0,0,0,0,0,-1,1875,1611,0,0
658,-587,0,0,0,0,0,0,0,0,0,-1,1882,1611,0,0
665,-587,0,0,0,0,0,0,0,0,0,-1,1889,1611,0,0
672,-587,0,0,0,0,0,0,0,0,0,-1,1896,1611,0,0
679,-587,0,0,0,0,0,0,0,0,0,-1,1903,1611,0,0
686,-587,0,0,0,0,0,0,0,0,0,-1,1910,1611,0,0
693,-587,0,0,0,0,0,0,0,0,0,-1,1917,1611,0,0
700,-587,0,0,0,0,0,0,0,0,0,-1,1924,1611,0,0
707,-587,0,0,0,0,0,0,0,0,0,-1,1931,1611,0,0
714,-587,0,0,0,0,0,0,0,0,0,-1,1938,1611,0,0
721,-587,0,0,0,0,0,0,0,0,0,-1,1945,1611,0,0
728,-587,0,0,0,0,0,0,0,0,0,-1,1952,1611,0,0
735,-587,0,0,0,0,0,0,0,0,0,-1,1959,1611,0,0
742,-587,0,0,0,0,0,0,0,0,0,-1,1966,1611,0,0
749,-587,0,0,0,0,0,0,0,0,0,-1,1973,1611,0,0
756,-587,0,0,0,0,0,0,0,0,0,-1,1980,1611,0,0
763,-587,0,0,0,0,0,0,0,0,0,-1,1987,1611,0,0
770,-587,0,0,0,0,0,0,0,0,0,-1,1994,1611,0,0
777,-587,0,0,0,0,0,0,0,0,0,-1,2001,1611,0,0
784,-587,0,0,0,0,0,0,0,0,0,-1,2008,1611,0,0
791,-587,0,0,0,0,0,0,0,0,0,-1,2015,1611,0,0
798,-587,0,0,0,0,0,0,0,0,0,-1,2022,1611,0,0
805,-587,0,0,0,0,0,0,0,0,0,-1,2029,1611,0,0
812,-587,0,0,0,0,0,0,0,0,0,-1,2036,1611,0,0
-700,-594,0,0,0,0,0,0,0,0,0,-1,524,1618,0,0
-693,-594,0,0,0,0,0,0,0,0,0,-1,531,1618,0,0
-686,-594,0,0,0,0,0,0,0,0,0,-1,538,1618,0,0
-679,-594,0,0,0,0,0,0,0,0,0,-1,545,1618,0,0
-672,-594,0,0,0,0,0,0,0,0,0,-1,552,1618,0,0
-665,-594,0,0,0,0,0,0,0,0,0,-1,559,1618,0,0
-658,-594,0,0,0,0,0,0,0,0,0,-1,566,1618,0,0
-651,-594,0,0,0,0,0,0,0,0,0,-1,573,1618,0,0
-644,-594,0,0,0,0,0,0,0,0,0,-1,580,1618,0,0
-637,-594,0,0,0,0,0,0,0,0,0,-1,587,1618,0,0
-630,-594,0,0,0,0,0,0,0,0,0,-1,594,1618,0,0
-623,-594,0,0,0,0,0,0,0,0,0,-1,601,1618,0,0
-616,-594,0,0,0,0,0,0,0,0,0,-1,608,1618,0,0
-609,-594,0,0,0,0,0,0,0,0,0,-1,615,1618,0,0
-602,-594,0,0,0,0,0,0,0,0,0,-1,622,1618,0,0
-595,-594,0,0,0,0,0,0,0,0,0,-1,629,1618,0,0
-588,-594,0,0,0,0,0,0,0,0,0,-1,636,1618,0,0
-581,-594,0,0,0,0,0,0,0,0,0,-1,643,1618,0,0
-574,-594,0,0,0,0,0,0,0,0,0,-1,650,1618,0,0
-567,-594,0,0,0,0,0,0,0,0,0,-1,657,1618,0,0
-560,-594,0,0,0,0,0,0,0,0,0,-1,664,1618,0,0
-553,-594,0,0,0,0,0,0,0,0,0,-1,671,1618,0,0
-546,-594,0,0,0,0,0,0,0,0,0,-1,678,1618,0,0
-539,-594,0,0,0,0,0,0,0,0,0,-1,685,1618,0,0
-532,-594,0,0,0,0,0,0,0,0,0,-1,692,1618,0,0
-525,-594,0,0,0,0,0,0,0,0,0,-1,699,1618,0,0
-518,-594,0,0,0,0,0,0,0,0,0,-1,706,1618,0,0
-511,-594,0,0,0,0,0,0,0,0,0,-1,713,1618,0,0
-504,-594,0,0,0,0,0,0,0,0,0,-1,720,1618,0,0
-497,-594,0,0,0,0,0,0,0,0,0,-1,727,1618,0,0
-490,-594,0,0,0,0,0,0,0,0,0,-1,734,1618,0,0
-483,-594,0,0,0,0,0,0,0,0,0,-1,741,1618,0,0
-476,-594,0,0,0,0,0,0,0,0,0,-1,748,1618,0,0
-469,-594,0,0,0,0,0,0,0,0,0,-1,755,1618,0,0
-462,-594,0,0,0,0,0,0,0,0,0,-1,762,1618,0,0
-455,-594,-0.509216,-1.58411,0,0,0,0,0,0,0,-1,769,1618,-0.509245,1.58415
-448,-594,-7.71887,-0.0559082,0,0,0,0,0,0,0,-1,776,1618,-7.71885,0.055939
-441,-594,-5.78473,1.18298,0,0,0,0,0,0,0,-1,783,1618,-5.78474,-1.18295
-434,-594,-3.93628,3.06213,0,0,0,0,0,0,0,-1,790,1618,-3.93631,-3.06208
-427,-594,-3.97693,6.77759,0,0,0,0,0,0,0,-1,797,1618,-3.97695,-6.77764
-420,-594,-2.53046,7.71606,0,0,0,0,0,0,0,-1,804,1618,-2.53047,-7.71609
-413,-594,-0.860413,8.00391,0,0,0,0,0,0,0,-1,811,1618,-0.860423,-8.00389
-406,-594,2.45746,13.6218,0,0,0,0,0,0,0,-1,818,1618,2.45747,-13.6218
-399,-594,1.30414,24.9963,0,0,0,0,0,0,0,-1,825,1618,1.30415,-24.9963
-392,-594,-0.504883,35.921,0,0,0,0,0,0,0,-1,832,1618,-0.50491,-35.921
-385,-594,-1.30762,38.4025,0,0,0,0,0,0,0,-1,839,1618,-1.30763,-38.4025
-378,-594,-1.27887,39.3048,0.0041349,-0.00148413,0.00537519,0.00739053,-0.00473977,0.544584,0.00705895,0.0236831,846,1618,-1.27888,-39.3048
-371,-594,-1.24536,40.1602,0.00334017,-0.00171896,0.00437633,0.00586541,-0.00424419,0.523351,0.00586174,0.0147449,853,1618,-1.24538,-40.1601
-364,-594,-1.27258,40.9327,0.00269249,-0.00190801,0.00343013,0.00452225,-0.00373777,0.490038,0.00477609,0.0119564,860,1618,-1.27257,-40.9327
-357,-594,-1.32123,41.7095,0.00234268,-0.00168494,0.002742,0.00373093,-0.00307319,0.468667,0.00393448,0.0117001,867,1618,-1.32121,-41.7094
-350,-594,-1.38403,42.5082,0.00220553,-0.00125981,0.00223456,0.00330048,-0.00235476,0.455619,0.00328024,0.0169181,874,1618,-1.38403,-42.5082
-343,-594,-1.44824,43.2689,0.0021623,-0.000615664,0.00188962,0.00311851,-0.00157188,0.468464,0.00275664,0.0188344,881,1618,-1.44825,-43.2689
-336,-594,-1.50488,44.0269,0.00222466,0.000238254,0.00174564,0.00323986,-0.000776951,0.526756,0.00246013,0.0160253,888,1618,-1.5049,-44.0268
-329,-594,-1.51465,44.8104,0.00250188,0.00136962,0.00172526,0.00375152,0.000119976,0.626864,0.002462,0.0154088,895,1618,-1.51467,-44.8104
-322,-594,-1.49902,45.5966,0.00312434,0.00260961,0.00194796,0.00483186,0.00090209,0.719718,0.00296662,0.0163428,902,1618,-1.49903,-45.5966
-315,-594,-1.52368,46.3069,0.00396294,0.0039322,0.00241765,0.00636527,0.00152987,0.782219,0.00383662,0.0166842,909,1618,-1.52368,-46.3068
-308,-594,-1.56702,47.0474,0.00520445,0.00544712,0.00326557,0.00859361,0.00205796,0.803967,0.00518116,0.0159102,916,1618,-1.56703,-47.0474
-301,-594,-1.6062,47.7754,0.00677493,0.00724064,0.00437507,0.011389,0.00262652,0.811985,0.00688623,0.0132113,923,1618,-1.60619,-47.7754
-294,-594,-1.57654,48.4971,0.00860226,0.00927653,0.00574685,0.0146961,0.00318267,0.814697,0.00892768,0.0139265,930,1618,-1.57652,-48.4971
-287,-594,-1.66553,49.2236,0.0108539,0.0115552,0.00740556,0.0186184,0.0037907,0.809055,0.0113615,0.0214021,937,1618,-1.66553,-49.2236
-280,-594,-1.59436,49.9866,0.013529,0.0141424,0.00934535,0.0231861,0.00448533,0.801799,0.0142004,0.0241859,944,1618,-1.59433,-49.9866
-273,-594,-1.47852,50.8102,0.0161635,0.0167529,0.0112451,0.0277072,0.00520922,0.798497,0.0170032,0.0294476,951,1618,-1.47853,-50.8102
-266,-594,-1.27563,51.6271,0.0189525,0.0191933,0.0134717,0.0325451,0.0056007,0.789868,0.0200917,0.0354034,958,1618,-1.27563,-51.6271
-259,-594,-1.04401,52.3917,0.0217623,0.0215297,0.0156122,0.0372586,0.00603333,0.781674,0.0230922,0.0432862,965,1618,-1.04398,-52.3917
-252,-594,-0.915649,53.0515,0,0,0,0,0,0,0,-1,972,1618,-0.915652,-53.0515
-245,-594,2.27759,35.1766,0,0,0,0,0,0,0,-1,979,1618,2.27756,-35.1766
-238,-594,2.09015,28.0121,0,0,0,0,0,0,0,-1,986,1618,2.09012,-28.0121
-231,-594,1.93774,9.35388,0,0,0,0,0,0,0,-1,993,1618,1.93776,-9.35393
-224,-594,1.81824,8.62744,0,0,0,0,0,0,0,-1,1000,1618,1.81822,-8.62745
-217,-594,-8.24066,12.0752,0,0,0,0,0,0,0,-1,1007,1618,-8.24068,-12.0751
-210,-594,-5.61438,14.2119,0,0,0,0,0,0,0,-1,1014,1618,-5.6144,-14.212
-203,-594,-3.94507,15.5768,0,0,0,0,0,0,0,-1,1021,1618,-3.94506,-15.5768
-196,-594,2.78613,10.5815,0,0,0,0,0,0,0,-1,1028,1618,2.78612,-10.5815
-189,-594,2.60913,9.48865,0,0,0,0,0,0,0,-1,1035,1618,2.6091,-9.48871
-182,-594,1.2395,9.38806,0,0,0,0,0,0,0,-1,1042,1618,1.23951,-9.38804
-175,-594,0.234863,8.73792,0,0,0,0,0,0,0,-1,1049,1618,0.234812,-8.73786
-168,-594,-0.495483,8.46289,0,0,0,0,0,0,0,-1,1056,1618,-0.495513,-8.46285
-161,-594,-1.39734,8.28699,0,0,0,0,0,0,0,-1,1063,1618,-1.39729,-8.28699
-154,-594,-0.000854492,7.68445,0,0,0,0,0,0,0,-1,1070,1618,-0.000805755,-7.6845
-147,-594,0.348267,9.3385,0,0,0,0,0,0,0,-1,1077,1618,0.348237,-9.33849
-140,-594,0.675171,11.5884,0,0,0,0,0,0,0,-1,1084,1618,0.675204,-11.5884
-133,-594,0,0,0,0,0,0,0,0,0,-1,1091,1618,0,0
-126,-594,0,0,0,0,0,0,0,0,0,-1,1098,1618,0,0
-119,-594,0,0,0,0,0,0,0,0,0,-1,1105,1618,0,0
-112,-594,0,0,0,0,0,0,0,0,0,-1,1112,1618,0,0
-105,-594,0,0,0,0,0,0,0,0,0,-1,1119,1618,0,0
-98,-594,0,0,0,0,0,0,0,0,0,-1,1126,1618,0,0
-91,-594,0,0,0,0,0,0,0,0,0,-1,1133,1618,0,0
-84,-594,0,0,0,0,0,0,0,0,0,-1,1140,1618,0,0
-77,-594,0,0,0,0,0,0,0,0,0,-1,1147,1618,0,0
-70,-594,0,0,0,0,0,0,0,0,0,-1,1154,1618,0,0
-63,-594,0,0,0,0,0,0,0,0,0,-1,1161,1618,0,0
-56,-594,0,0,0,0,0,0,0,0,0,-1,1168,1618,0,0
-49,-594,0,0,0,0,0,0,0,0,0,-1,1175,1618,0,0
-42,-594,0,0,0,0,0,0,0,0,0,-1,1182,1618,0,0
-35,-594,0,0,0,0,0,0,0,0,0,-1,1189,1618,0,0
-28,-594,0,0,0,0,0,0,0,0,0,-1,1196,1618,0,0
-21,-594,0,0,0,0,0,0,0,0,0,-1,1203,1618,0,0
-14,-594,0,0,0,0,0,0,0,0,0,-1,1210,1618,0,0
-7,-594,0,0,0,0,0,0,0,0,0,-1,1217,1618,0,0
0,-594,0,0,0,0,0,0,0,0,0,-1,1224,1618,0,0
7,-594,0,0,0,0,0,0,0,0,0,-1,1231,1618,0,0
14,-594,0,0,0,0,0,0,0,0,0,-1,1238,1618,0,0
21,-594,0,0,0,0,0,0,0,0,0,-1,1245,1618,0,0
28,-594,0,0,0,0,0,0,0,0,0,-1,1252,1618,0,0
35,-594,0,0,0,0,0,0,0,0,0,-1,1259,1618,0,0
42,-594,0,0,0,0,0,0,0,0,0,-1,1266,1618,0,0
49,-594,0,0,0,0,0,0,0,0,0,-1,1273,1618,0,0
56,-594,0,0,0,0,0,0,0,0,0,-1,1280,1618,0,0
63,-594,0,0,0,0,0,0,0,0,0,-1,1287,1618,0,0
70,-594,0,0,0,0,0,0,0,0,0,-1,1294,1618,0,0
77,-594,0,0,0,0,0,0,0,0,0,-1,1301,1618,0,0
84,-594,0,0,0,0,0,0,0,0,0,-1,1308,1618,0,0
91,-594,0,0,0,0,0,0,0,0,0,-1,1315,1618,0,0
98,-594,0,0,0,0,0,0,0,0,0,-1,1322,1618,0,0
105,-594,0,0,0,0,0,0,0,0,0,-1,1329,1618,0,0
112,-594,0,0,0,0,0,0,0,0,0,-1,1336,1618,0,0
119,-594,0,0,0,0,0,0,0,0,0,-1,1343,1618,0,0
126,-594,0,0,0,0,0,0,0,0,0,-1,1350,1618,0,0
133,-594,0,0,0,0,0,0,0,0,0,-1,1357,1618,0,0
140,-594,0,0,0,0,0,0,0,0,0,-1,1364,1618,0,0
147,-594,0,0,0,0,0,0,0,0,0,-1,1371,1618,0,0
154,-594,0,0,0,0,0,0,0,0,0,-1,1378,1618,0,0
161,-594,0,0,0,0,0,0,0,0,0,-1,1385,1618,0,0
168,-594,0,0,0,0,0,0,0,0,0,-1,1392,1618,0,0
175,-594,0,0,0,0,0,0,0,0,0,-1,1399,1618,0,0
182,-594,0,0,0,0,0,0,0,0,0,-1,1406,1618,0,0
189,-594,0,0,0,0,0,0,0,0,0,-1,1413,1618,0,0
196,-594,0,0,0,0,0,0,0,0,0,-1,1420,1618,0,0
203,-594,0,0,0,0,0,0,0,0,0,-1,1427,1618,0,0
210,-594,0,0,0,0,0,0,0,0,0,-1,1434,1618,0,0
217,-594,0,0,0,0,0,0,0,0,0,-1,1441,1618,0,0
224,-594,0,0,0,0,0,0,0,0,0,-1,1448,1618,0,0
231,-594,0,0,0,0,0,0,0,0,0,-1,1455,1618,0,0
238,-594,0,0,0,0,0,0,0,0,0,-1,1462,1618,0,0
245,-594,0,0,0,0,0,0,0,0,0,-1,1469,1618,0,0
252,-594,3.03674,1.20996,0,0,0,0,0,0,0,-1,1476,1618,3.0368,-1.20999
259,-594,4.79834,1.53113,0,0,0,0,0,0,0,-1,1483,1618,4.79837,-1.53118
266,-594,3.71606,2.68152,0,0,0,0,0,0,0,-1,1490,1618,3.71609,-2.68149
273,-594,9.7655,6.33557,0,0,0,0,0,0,0,-1,1497,1618,9.76555,-6.33554
280,-594,3.13281,0.911255,0,0,0,0,0,0,0,-1,1504,1618,3.13277,-0.911207
287,-594,4.42749,1.51563,0,0,0,0,0,0,0,-1,1511,1618,4.42747,-1.51564
294,-594,5.36475,3.34937,0,0,0,0,0,0,0,-1,1518,1618,5.36475,-3.3494
301,-594,7.97144,9.04333,0,0,0,0,0,0,0,-1,1525,1618,7.9714,-9.04328
308,-594,6.30347,10.4633,0,0,0,0,0,0,0,-1,1532,1618,6.30351,-10.4633
315,-594,4.62012,11.934,0,0,0,0,0,0,0,-1,1539,1618,4.62006,-11.934
322,-594,2.91528,13.3134,0,0,0,0,0,0,0,-1,1546,1618,2.91523,-13.3133
329,-594,4.19861,9.77258,0,0,0,0,0,0,0,-1,1553,1618,4.19865,-9.77264
336,-594,10.1353,4.66528,0,0,0,0,0,0,0,-1,1560,1618,10.1353,-4.66533
343,-594,18.1643,55.3273,0,0,0,0,0,0,0,-1,1567,1618,18.1643,-55.3273
350,-594,18.2991,54.4825,0,0,0,0,0,0,0,-1,1574,1618,18.2991,-54.4826
357,-594,18.2343,53.7335,0,0,0,0,0,0,0,-1,1581,1618,18.2343,-53.7335
364,-594,16.946,55.3911,0,0,0,0,0,0,0,-1,1588,1618,16.9461,-55.3911
371,-594,17.6168,54.5718,0.0753516,0.0333462,-0.0415066,0.100867,0.00783103,-0.551177,0.0647921,0.0488002,1595,1618,17.6168,-54.5718
378,-594,18.2411,53.7606,0.0631962,0.0276216,-0.033405,0.0832544,0.00756339,-0.540754,0.0531614,0.0488638,1602,1618,18.2411,-53.7606
385,-594,19.0619,51.6874,0,0,0,0,0,0,0,-1,1609,1618,19.0619,-51.6874
392,-594,19.3247,51.1078,0.0412288,0.0176018,-0.0199017,0.0525592,0.00627149,-0.517551,0.0331473,0.0493051,1616,1618,19.3247,-51.1078
399,-594,19.6232,50.4827,0.032097,0.0135872,-0.0147079,0.0402196,0.0054647,-0.504574,0.0251898,0.046649,1623,1618,19.6232,-50.4827
406,-594,19.6041,49.8074,0.0246377,0.0108608,-0.0109696,0.0307023,0.00479619,-0.505036,0.0190716,0.029831,1630,1618,19.6042,-49.8073
413,-594,19.5482,49.0814,0.0185893,0.00845362,-0.00800237,0.0229936,0.00404934,-0.503129,0.0141734,0.018366,1637,1618,19.5483,-49.0814
420,-594,19.5524,48.3816,0.0140508,0.00679997,-0.00599639,0.0174326,0.00341822,-0.5135,0.0106665,0.0155273,1644,1618,19.5523,-48.3816
427,-594,19.5417,47.6833,0.00945892,0.00505415,-0.00371368,0.0115742,0.00293891,-0.517753,0.00694688,0.0138402,1651,1618,19.5418,-47.6833
434,-594,19.4825,46.9459,0.00624979,0.00360434,-0.00239057,0.00765918,0.00219496,-0.532707,0.00455433,0.0191545,1658,1618,19.4826,-46.9459
441,-594,19.4513,46.1846,0.00536298,0.00324164,-0.00240788,0.00693345,0.00167117,-0.577935,0.00417817,0.01806,1665,1618,19.4513,-46.1846
448,-594,19.4518,45.439,0.00438905,0.00290718,-0.0023921,0.00615234,0.00114389,-0.635213,0.00377843,0.0185211,1672,1618,19.4518,-45.439
455,-594,19.4122,44.683,0.00375424,0.00241404,-0.00241553,0.0055909,0.000577378,-0.650094,0.00355049,0.0134343,1679,1618,19.4122,-44.6829
462,-594,19.3842,43.9427,0.00328659,0.00187343,-0.00227567,0.00496285,0.000197172,-0.63487,0.00324484,0.0151852,1686,1618,19.3841,-43.9428
469,-594,19.3447,43.2241,0.00286643,0.00136892,-0.00222939,0.00446944,-0.000234092,-0.623389,0.00306064,0.0142078,1693,1618,19.3448,-43.2241
476,-594,19.3251,42.4908,0.00235612,0.000963589,-0.00218021,0.00394854,-0.000628832,-0.630838,0.00286507,0.0137741,1700,1618,19.325,-42.4908
483,-594,19.3044,41.7128,0.00178189,0.000495231,-0.00211682,0.00335097,-0.00107385,-0.637877,0.00266505,0.0163235,1707,1618,19.3044,-41.7128
490,-594,19.2509,40.9211,0.001149,0.000182354,-0.00202217,0.0027448,-0.00141345,-0.668093,0.00244144,0.0150017,1714,1618,19.2509,-40.9211
497,-594,19.1948,40.1748,0.000501843,-1.65894e-05,-0.00196255,0.00222222,-0.00173697,-0.719738,0.00229156,0.0112636,1721,1618,19.1948,-40.1748
504,-594,19.151,39.4254,-0.000160939,-0.000429711,-0.00182588,0.0015355,-0.00212615,-0.748664,0.0021232,0.0110541,1728,1618,19.151,-39.4254
511,-594,19.118,38.6311,-0.000855252,-0.000498525,-0.0017894,0.00112138,-0.00247515,-0.835073,0.00212493,0.0180327,1735,1618,19.118,-38.6311
518,-594,19.0371,37.8335,-0.00161329,-0.000730822,-0.00159072,0.000478726,-0.00282283,-0.920686,0.00206009,0.0247755,1742,1618,19.0372,-37.8335
525,-594,18.9418,37.0464,-0.00225838,-0.00100993,-0.00137692,-0.000122344,-0.00314597,-0.998216,0.00205774,0.0369931,1749,1618,18.9417,-37.0464
532,-594,18.9176,36.2992,0,0,0,0,0,0,0,-1,1756,1618,18.9176,-36.2992
539,-594,21.0237,24.9617,0,0,0,0,0,0,0,-1,1763,1618,21.0237,-24.9616
546,-594,7.48645,8.54785,0,0,0,0,0,0,0,-1,1770,1618,7.48639,-8.54789
553,-594,3.69714,5.68762,0,0,0,0,0,0,0,-1,1777,1618,3.69715,-5.68764
560,-594,6.06616,4.44482,0,0,0,0,0,0,0,-1,1784,1618,6.06621,-4.44477
567,-594,5.97266,4.73303,0,0,0,0,0,0,0,-1,1791,1618,5.97271,-4.73309
574,-594,5.9906,4.96326,0,0,0,0,0,0,0,-1,1798,1618,5.99065,-4.96326
581,-594,0,0,0,0,0,0,0,0,0,-1,1805,1618,0,0
588,-594,0,0,0,0,0,0,0,0,0,-1,1812,1618,0,0
595,-594,0,0,0,0,0,0,0,0,0,-1,1819,1618,0,0
602,-594,0,0,0,0,0,0,0,0,0,-1,1826,1618,0,0
609,-594,0,0,0,0,0,0,0,0,0,-1,1833,1618,0,0
616,-594,0,0,0,0,0,0,0,0,0,-1,1840,1618,0,0
623,-594,0,0,0,0,0,0,0,0,0,-1,1847,1618,0,0
630,-594,0,0,0,0,0,0,0,0,0,-1,1854,1618,0,0
637,-594,0,0,0,0,0,0,0,0,0,-1,1861,1618,0,0
644,-594,0,0,0,0,0,0,0,0,0,-1,1868,1618,0,0
651,-594,0,0,0,0,0,0,0,0,0,-1,1875,1618,0,0
658,-594,0,0,0,0,0,0,0,0,0,-1,1882,1618,0,0
665,-594,0,0,0,0,0,0,0,0,0,-1,1889,1618,0,0
672,-594,0,0,0,0,0,0,0,0,0,-1,1896,1618,0,0
679,-594,0,0,0,0,0,0,0,0,0,-1,1903,1618,0,0
686,-594,0,0,0,0,0,0,0,0,0,-1,1910,1618,0,0
693,-594,0,0,0,0,0,0,0,0,0,-1,1917,1618,0,0
700,-594,0,0,0,0,0,0,0,0,0,-1,1924,1618,0,0
707,-594,0,0,0,0,0,0,0,0,0,-1,1931,1618,0,0
714,-594,0,0,0,0,0,0,0,0,0,-1,1938,1618,0,0
721,-594,0,0,0,0,0,0,0,0,0,-1,1945,1618,0,0
728,-594,0,0,0,0,0,0,0,0,0,-1,1952,1618,0,0
735,-594,0,0,0,0,0,0,0,0,0,-1,1959,1618,0,0
742,-594,0,0,0,0,0,0,0,0,0,-1,1966,1618,0,0
749,-594,0,0,0,0,0,0,0,0,0,-1,1973,1618,0,0
756,-594,0,0,0,0,0,0,0,0,0,-1,1980,1618,0,0
763,-594,0,0,0,0,0,0,0,0,0,-1,1987,1618,0,0
770,-594,0,0,0,0,0,0,0,0,0,-1,1994,1618,0,0
777,-594,0,0,0,0,0,0,0,0,0,-1,2001,1618,0,0
784,-594,0,0,0,0,0,0,0,0,0,-1,2008,1618,0,0
791,-594,0,0,0,0,0,0,0,0,0,-1,2015,1618,0,0
798,-594,0,0,0,0,0,0,0,0,0,-1,2022,1618,0,0
805,-594,0,0,0,0,0,0,0,0,0,-1,2029,1618,0,0
812,-594,0,0,0,0,0,0,0,0,0,-1,2036,1618,0,0
-700,-601,0,0,0,0,0,0,0,0,0,-1,524,1625,0,0
-693,-601,0,0,0,0,0,0,0,0,0,-1,531,1625,0,0
-686,-601,0,0,0,0,0,0,0,0,0,-1,538,1625,0,0
-679,-601,0,0,0,0,0,0,0,0,0,-1,545,1625,0,0
-672,-601,0,0,0,0,0,0,0,0,0,-1,552,1625,0,0
-665,-601,0,0,0,0,0,0,0,0,0,-1,559,1625,0,0
-658,-601,0,0,0,0,0,0,0,0,0,-1,566,1625,0,0
-651,-601,0,0,0,0,0,0,0,0,0,-1,573,1625,0,0
-644,-601,0,0,0,0,0,0,0,0,0,-1,580,1625,0,0
-637,-601,0,0,0,0,0,0,0,0,0,-1,587,1625,0,0
-630,-601,0,0,0,0,0,0,0,0,0,-1,594,1625,0,0
-623,-601,0,0,0,0,0,0,0,0,0,-1,601,1625,0,0
-616,-601,0,0,0,0,0,0,0,0,0,-1,608,1625,0,0
-609,-601,0,0,0,0,0,0,0,0,0,-1,615,1625,0,0
-602,-601,0,0,0,0,0,0,0,0,0,-1,622,1625,0,0
-595,-601,0,0,0,0,0,0,0,0,0,-1,629,1625,0,0
-588,-601,0,0,0,0,0,0,0,0,0,-1,636,1625,0,0
-581,-601,0,0,0,0,0,0,0,0,0,-1,643,1625,0,0
-574,-601,0,0,0,0,0,0,0,0,0,-1,650,1625,0,0
-567,-601,0,0,0,0,0,0,0,0,0,-1,657,1625,0,0
-560,-601,0,0,0,0,0,0,0,0,0,-1,664,1625,0,0
-553,-601,0,0,0,0,0,0,0,0,0,-1,671,1625,0,0
-546,-601,0,0,0,0,0,0,0,0,0,-1,678,1625,0,0
-539,-601,0,0,0,0,0,0,0,0,0,-1,685,1625,0,0
-532,-601,0,0,0,0,0,0,0,0,0,-1,692,1625,0,0
-525,-601,0,0,0,0,0,0,0,0,0,-1,699,1625,0,0
-518,-601,0,0,0,0,0,0,0,0,0,-1,706,1625,0,0
-511,-601,0,0,0,0,0,0,0,0,0,-1,713,1625,0,0
-504,-601,0,0,0,0,0,0,0,0,0,-1,720,1625,0,0
-497,-601,0,0,0,0,0,0,0,0,0,-1,727,1625,0,0
-490,-601,0,0,0,0,0,0,0,0,0,-1,734,1625,0,0
-483,-601,0,0,0,0,0,0,0,0,0,-1,741,1625,0,0
-476,-601,0,0,0,0,0,0,0,0,0,-1,748,1625,0,0
-469,-601,0,0,0,0,0,0,0,0,0,-1,755,1625,0,0
-462,-601,0,0,0,0,0,0,0,0,0,-1,762,1625,0,0
-455,-601,0,0,0,0,0,0,0,0,0,-1,769,1625,0,0
-448,-601,-7.07623,2.7616,0,0,0,0,0,0,0,-1,776,1625,-7.07626,-2.76161
-441,-601,-6.06689,3.33447,0,0,0,0,0,0,0,-1,783,1625,-6.06691,-3.33448
-434,-601,-5.02655,3.8468,0,0,0,0,0,0,0,-1,790,1625,-5.02657,-3.84674
-427,-601,-5.78601,4.2406,0,0,0,0,0,0,0,-1,797,1625,-5.786,-4.24058
-420,-601,-5.5191,5.60364,0,0,0,0,0,0,0,-1,804,1625,-5.51907,-5.60368
-413,-601,-4.30756,5.86047,0,0,0,0,0,0,0,-1,811,1625,-4.30757,-5.86046
-406,-601,-1.67493,7.20422,0,0,0,0,0,0,0,-1,818,1625,-1.67493,-7.20428
-399,-601,1.40094,15.3108,0,0,0,0,0,0,0,-1,825,1625,1.40096,-15.3107
-392,-601,0.678833,30.98,0,0,0,0,0,0,0,-1,832,1625,0.678827,-30.98
-385,-601,-0.0147095,37.3687,0,0,0,0,0,0,0,-1,839,1625,-0.0147267,-37.3687
-378,-601,-0.566711,39.1738,0,0,0,0,0,0,0,-1,846,1625,-0.566735,-39.1738
-371,-601,-0.486938,40.1146,0.00444257,-0.0026615,0.00553735,0.00746924,-0.00568816,0.500221,0.00761959,0.0264429,853,1625,-0.48691,-40.1146
-364,-601,-0.513245,40.949,0.00341818,-0.00308793,0.00417955,0.00546144,-0.00513119,0.454705,0.00611665,0.0139219,860,1625,-0.513236,-40.9489
-357,-601,-0.577515,41.7617,0.00281003,-0.00300009,0.00321852,0.00424066,-0.00443072,0.418271,0.00500682,0.0118286,867,1625,-0.577504,-41.7617
-350,-601,-0.602417,42.6124,0.00244702,-0.00260923,0.00250727,0.00347948,-0.0036417,0.390628,0.00411177,0.0240167,874,1625,-0.602422,-42.6124
-343,-601,-0.675232,43.4055,0.00225554,-0.00190879,0.0020218,0.00307563,-0.00272888,0.385345,0.00335323,0.0265685,881,1625,-0.675235,-43.4055
-336,-601,-0.775635,44.1506,0.00216887,-0.00107381,0.0017281,0.00291715,-0.00182209,0.40863,0.00276044,0.0235171,888,1625,-0.775612,-44.1506
-329,-601,-0.775085,44.8889,0.00224962,-4.03548e-05,0.00156954,0.00304743,-0.000838161,0.47027,0.00236113,0.0192302,895,1625,-0.775058,-44.8889
-322,-601,-0.752258,45.6243,0.00262747,0.00111673,0.00164157,0.00367913,6.50731e-05,0.569766,0.00243135,0.0133907,902,1625,-0.752258,-45.6242
-315,-601,-0.749634,46.3079,0.00323699,0.00232439,0.00194808,0.00478149,0.000779887,0.670356,0.00296212,0.014233,909,1625,-0.749641,-46.3079
-308,-601,-0.796814,47.0471,0.00418164,0.00367766,0.00254265,0.00648476,0.00137454,0.736007,0.00394562,0.0139963,916,1625,-0.796827,-47.0471
-301,-601,-0.821655,47.8141,0.00544185,0.00530656,0.00343131,0.00880618,0.00194222,0.775542,0.00534239,0.0113642,923,1625,-0.821628,-47.8141
-294,-601,-0.853271,48.5487,0.00691498,0.00706136,0.00451566,0.0115044,0.00247192,0.793501,0.00699282,0.0107059,930,1625,-0.85325,-48.5487
-287,-601,-0.934753,49.3013,0.00863086,0.0089589,0.00578521,0.0145824,0.00300734,0.79957,0.00889036,0.0117493,937,1625,-0.934775,-49.3013
-280,-601,-0.942505,50.0212,0.0106437,0.0109986,0.00723384,0.0180572,0.00358513,0.797659,0.0110389,0.0133662,944,1625,-0.942489,-50.0213
-273,-601,-0.929993,50.7468,0.0126623,0.0130026,0.0085827,0.0214168,0.00424803,0.79531,0.0130936,0.0135145,951,1625,-0.929998,-50.7468
-266,-601,-0.886841,51.4939,0.0147859,0.014762,0.0101632,0.0249372,0.00461071,0.784812,0.0153209,0.0163727,958,1625,-0.886865,-51.4938
-259,-601,-0.841614,52.145,0.0169273,0.01651,0.01164,0.0283606,0.00507679,0.776437,0.0174625,0.0268529,965,1625,-0.841613,-52.145
-252,-601,-0.610291,53.1981,0.0191475,0.0181962,0.013056,0.0317365,0.00560716,0.767192,0.0195584,0.0477668,972,1625,-0.610274,-53.1982
-245,-601,-0.432434,54.2451,0,0,0,0,0,0,0,-1,979,1625,-0.432444,-54.2451
-238,-601,-0.0498657,52.927,0,0,0,0,0,0,0,-1,986,1625,-0.0498886,-52.9271
-231,-601,2.66772,13.7051,0,0,0,0,0,0,0,-1,993,1625,2.6677,-13.7051
-224,-601,-0.0305176,9.13684,0,0,0,0,0,0,0,-1,1000,1625,-0.030498,-9.13681
-217,-601,3.39429,10.3898,0,0,0,0,0,0,0,-1,1007,1625,3.39431,-10.3898
-210,-601,-6.53699,15.7931,0,0,0,0,0,0,0,-1,1014,1625,-6.53697,-15.7931
-203,-601,2.69348,15.9099,0,0,0,0,0,0,0,-1,1021,1625,2.69351,-15.91
-196,-601,2.66992,16.1815,0,0,0,0,0,0,0,-1,1028,1625,2.66995,-16.1815
-189,-601,2.849,16.6105,0,0,0,0,0,0,0,-1,1035,1625,2.84902,-16.6104
-182,-601,1.82153,13.9752,0,0,0,0,0,0,0,-1,1042,1625,1.82155,-13.9752
-175,-601,0.544922,9.28687,0,0,0,0,0,0,0,-1,1049,1625,0.544879,-9.28685
-168,-601,-0.247559,8.97461,0,0,0,0,0,0,0,-1,1056,1625,-0.247598,-8.97466
-161,-601,-1.16833,8.80078,0,0,0,0,0,0,0,-1,1063,1625,-1.16837,-8.80081
-154,-601,1.12756,7.94861,0,0,0,0,0,0,0,-1,1070,1625,1.12762,-7.94855
-147,-601,1.35352,9.55432,0,0,0,0,0,0,0,-1,1077,1625,1.35351,-9.55429
-140,-601,1.72437,11.1498,0,0,0,0,0,0,0,-1,1084,1625,1.72432,-11.1498
-133,-601,2.13281,12.8347,0,0,0,0,0,0,0,-1,1091,1625,2.13287,-12.8348
-126,-601,3.09534,15.427,0,0,0,0,0,0,0,-1,1098,1625,3.0953,-15.4271
-119,-601,1.22485,9.43457,0,0,0,0,0,0,0,-1,1105,1625,1.22489,-9.43456
-112,-601,0,0,0,0,0,0,0,0,0,-1,1112,1625,0,0
-105,-601,0,0,0,0,0,0,0,0,0,-1,1119,1625,0,0
-98,-601,0,0,0,0,0,0,0,0,0,-1,1126,1625,0,0
-91,-601,0,0,0,0,0,0,0,0,0,-1,1133,1625,0,0
-84,-601,0,0,0,0,0,0,0,0,0,-1,1140,1625,0,0
-77,-601,0,0,0,0,0,0,0,0,0,-1,1147,1625,0,0
-70,-601,0,0,0,0,0,0,0,0,0,-1,1154,1625,0,0
-63,-601,0,0,0,0,0,0,0,0,0,-1,1161,1625,0,0
-56,-601,0,0,0,0,0,0,0,0,0,-1,1168,1625,0,0
-49,-601,0,0,0,0,0,0,0,0,0,-1,1175,1625,0,0
-42,-601,0,0,0,0,0,0,0,0,0,-1,1182,1625,0,0
-35,-601,0,0,0,0,0,0,0,0,0,-1,1189,1625,0,0
-28,-601,0,0,0,0,0,0,0,0,0,-1,1196,1625,0,0
-21,-601,0,0,0,0,0,0,0,0,0,-1,1203,1625,0,0
-14,-601,0,0,0,0,0,0,0,0,0,-1,1210,1625,0,0
-7,-601,0,0,0,0,0,0,0,0,0,-1,1217,1625,0,0
0,-601,0,0,0,0,0,0,0,0,0,-1,1224,1625,0,0
7,-601,0,0,0,0,0,0,0,0,0,-1,1231,1625,0,0
14,-601,0,0,0,0,0,0,0,0,0,-1,1238,1625,0,0
21,-601,0,0,0,0,0,0,0,0,0,-1,1245,1625,0,0
28,-601,0,0,0,0,0,0,0,0,0,-1,1252,1625,0,0
35,-601,0,0,0,0,0,0,0,0,0,-1,1259,1625,0,0
42,-601,0,0,0,0,0,0,0,0,0,-1,1266,1625,0,0
49,-601,0,0,0,0,0,0,0,0,0,-1,1273,1625,0,0
56,-601,0,0,0,0,0,0,0,0,0,-1,1280,1625,0,0
63,-601,0,0,0,0,0,0,0,0,0,-1,1287,1625,0,0
70,-601,0,0,0,0,0,0,0,0,0,-1,1294,1625,0,0
77,-601,0,0,0,0,0,0,0,0,0,-1,1301,1625,0,0
84,-601,0,0,0,0,0,0,0,0,0,-1,1308,1625,0,0
91,-601,0,0,0,0,0,0,0,0,0,-1,1315,1625,0,0
98,-601,0,0,0,0,0,0,0,0,0,-1,1322,1625,0,0
105,-601,0,0,0,0,0,0,0,0,0,-1,1329,1625,0,0
112,-601,0,0,0,0,0,0,0,0,0,-1,1336,1625,0,0
119,-601,0,0,0,0,0,0,0,0,0,-1,1343,1625,0,0
126,-601,0,0,0,0,0,0,0,0,0,-1,1350,1625,0,0
133,-601,0,0,0,0,0,0,0,0,0,-1,1357,1625,0,0
140,-601,0,0,0,0,0,0,0,0,0,-1,1364,1625,0,0
147,-601,0,0,0,0,0,0,0,0,0,-1,1371,1625,0,0
154,-601,0,0,0,0,0,0,0,0,0,-1,1378,1625,0,0
161,-601,0,0,0,0,0,0,0,0,0,-1,1385,1625,0,0
168,-601,0,0,0,0,0,0,0,0,0,-1,1392,1625,0,0
175,-601,0,0,0,0,0,0,0,0,0,-1,1399,1625,0,0
182,-601,0,0,0,0,0,0,0,0,0,-1,1406,1625,0,0
189,-601,0,0,0,0,0,0,0,0,0,-1,1413,1625,0,0
196,-601,0,0,0,0,0,0,0,0,0,-1,1420,1625,0,0
203,-601,0,0,0,0,0,0,0,0,0,-1,1427,1625,0,0
210,-601,0,0,0,0,0,0,0,0,0,-1,1434,1625,0,0
217,-601,0,0,0,0,0,0,0,0,0,-1,1441,1625,0,0
224,-601,0,0,0,0,0,0,0,0,0,-1,1448,1625,0,0
231,-601,-0.0371094,0.525879,0,0,0,0,0,0,0,-1,1455,1625,-0.0371518,-0.525824
238,-601,2.03369,-1.32861,0,0,0,0,0,0,0,-1,1462,1625,2.03364,1.32858
245,-601,2.71375,2.44983,0,0,0,0,0,0,0,-1,1469,1625,2.71371,-2.44979
252,-601,4.66943,2.28381,0,0,0,0,0,0,0,-1,1476,1625,4.66947,-2.28376
259,-601,6.42712,2.61987,0,0,0,0,0,0,0,-1,1483,1625,6.42711,-2.61985
266,-601,6.75317,1.68701,0,0,0,0,0,0,0,-1,1490,1625,6.75323,-1.687
273,-601,5.4314,2.92053,0,0,0,0,0,0,0,-1,1497,1625,5.43144,-2.92051
280,-601,4.64722,1.17786,0,0,0,0,0,0,0,-1,1504,1625,4.64722,-1.1779
287,-601,5.32532,2.6217,0,0,0,0,0,0,0,-1,1511,1625,5.32535,-2.62171
294,-601,5.97693,4.22693,0,0,0,0,0,0,0,-1,1518,1625,5.97697,-4.22694
301,-601,7.28162,9.50024,0,0,0,0,0,0,0,-1,1525,1625,7.28162,-9.50025
308,-601,6.53528,10.3927,0,0,0,0,0,0,0,-1,1532,1625,6.53529,-10.3927
315,-601,4.88013,11.7184,0,0,0,0,0,0,0,-1,1539,1625,4.88015,-11.7184
322,-601,3.38098,12.7864,0,0,0,0,0,0,0,-1,1546,1625,3.38104,-12.7864
329,-601,1.8772,13.8768,0,0,0,0,0,0,0,-1,1553,1625,1.87716,-13.8768
336,-601,4.67847,9.53308,0,0,0,0,0,0,0,-1,1560,1625,4.67848,-9.53309
343,-601,11.1404,3.14575,0,0,0,0,0,0,0,-1,1567,1625,11.1404,-3.1458
350,-601,16.8986,54.5154,0,0,0,0,0,0,0,-1,1574,1625,16.8985,-54.5154
357,-601,17.2762,53.5797,0,0,0,0,0,0,0,-1,1581,1625,17.2763,-53.5797
364,-601,17.0177,55.3223,0,0,0,0,0,0,0,-1,1588,1625,17.0177,-55.3222
371,-601,17.6224,54.4438,0.0576465,0.0284233,-0.0322261,0.0784188,0.00765098,-0.572556,0.0499247,0.0499078,1595,1625,17.6225,-54.4439
378,-601,18.3234,53.6129,0.0488351,0.0237024,-0.0261921,0.0653194,0.00721808,-0.56173,0.0413508,0.0419275,1602,1625,18.3234,-53.6129
385,-601,18.5078,52.4265,0,0,0,0,0,0,0,-1,1609,1625,18.5078,-52.4266
392,-601,18.585,51.2009,0.0323947,0.0151019,-0.0157235,0.0416924,0.00580424,-0.534015,0.0260764,0.0410415,1616,1625,18.585,-51.2009
399,-601,18.8097,50.5176,0.0254084,0.011658,-0.0116717,0.0320793,0.00498708,-0.519233,0.0199329,0.0223919,1623,1625,18.8097,-50.5176
406,-601,18.8729,49.7755,0.0196229,0.00912365,-0.00866864,0.0245076,0.00423899,-0.513139,0.0151247,0.0150389,1630,1625,18.8729,-49.7755
413,-601,18.8297,49.0645,0.0148594,0.00690641,-0.00626386,0.0183024,0.00346345,-0.502579,0.0112266,0.0133795,1637,1625,18.8297,-49.0645
420,-601,18.8282,48.34,0.0112054,0.00534984,-0.00464134,0.0137653,0.00279001,-0.504015,0.00840269,0.0119376,1644,1625,18.8283,-48.34
427,-601,18.8086,47.6506,0.00747514,0.00371101,-0.00280681,0.00897248,0.00221367,-0.49006,0.00539727,0.015899,1651,1625,18.8086,-47.6506
434,-601,18.7551,46.9226,0.00491322,0.00247182,-0.00184565,0.00590533,0.00147971,-0.493228,0.00354804,0.0160966,1658,1625,18.7551,-46.9226
441,-601,18.7428,46.1832,0.00422811,0.00214255,-0.0019851,0.00542765,0.000943011,-0.543556,0.00334865,0.0180047,1665,1625,18.7428,-46.1833
448,-601,18.7284,45.463,0.00351618,0.00183634,-0.0021018,0.00493967,0.000412846,-0.595308,0.00316449,0.0158806,1672,1625,18.7284,-45.463
455,-601,18.7074,44.7047,0.00306997,0.00142461,-0.00225316,0.00464594,-0.000151359,-0.610356,0.00314896,0.0138639,1679,1625,18.7074,-44.7047
462,-601,18.662,43.9712,0.00272895,0.000940507,-0.00227231,0.00427666,-0.000607203,-0.59794,0.00307357,0.0124692,1686,1625,18.662,-43.9712
469,-601,18.6223,43.2537,0.00244012,0.000535976,-0.00236459,0.00403711,-0.00106102,-0.59401,0.00310609,0.012862,1693,1625,18.6223,-43.2537
476,-601,18.5953,42.5146,0.00205053,0.000240961,-0.00242617,0.00373513,-0.00144364,-0.606922,0.00308599,0.0143136,1700,1625,18.5953,-42.5146
483,-601,18.5454,41.7502,0.00156622,-0.000125052,-0.00248056,0.00334133,-0.00190016,-0.621123,0.00306407,0.0170787,1707,1625,18.5454,-41.7502
490,-601,18.4902,40.9857,0.00101723,-0.000366612,-0.0025096,0.00292854,-0.00227792,-0.650885,0.00301377,0.0143514,1714,1625,18.4902,-40.9857
497,-601,18.4607,40.2196,0.000458381,-0.000431344,-0.00257451,0.00262618,-0.00259915,-0.699846,0.00301686,0.0137937,1721,1625,18.4607,-40.2195
504,-601,18.509,39.4349,-0.000166402,-0.000727088,-0.00251917,0.00208797,-0.00298146,-0.729984,0.00294196,0.0289925,1728,1625,18.509,-39.4349
511,-601,18.361,38.772,-0.000892339,-0.000476953,-0.0026288,0.00195234,-0.00332164,-0.82482,0.00307895,0.0467169,1735,1625,18.3609,-38.7719
518,-601,18.1047,38.089,0,0,0,0,0,0,0,-1,1742,1625,18.1047,-38.0889
525,-601,18.0365,36.8839,0,0,0,0,0,0,0,-1,1749,1625,18.0365,-36.8839
532,-601,15.9053,24.3068,0,0,0,0,0,0,0,-1,1756,1625,15.9053,-24.3067
539,-601,7.77112,11.4299,0,0,0,0,0,0,0,-1,1763,1625,7.77116,-11.4299
546,-601,6.56873,3.62354,0,0,0,0,0,0,0,-1,1770,1625,6.56867,-3.62352
553,-601,7.03015,4.25049,0,0,0,0,0,0,0,-1,1777,1625,7.03011,-4.25048
560,-601,7.50745,4.83374,0,0,0,0,0,0,0,-1,1784,1625,7.50744,-4.83376
567,-601,7.82043,3.83301,0,0,0,0,0,0,0,-1,1791,1625,7.82041,-3.83303
574,-601,0,0,0,0,0,0,0,0,0,-1,1798,1625,0,0
581,-601,0,0,0,0,0,0,0,0,0,-1,1805,1625,0,0
588,-601,0,0,0,0,0,0,0,0,0,-1,1812,1625,0,0
595,-601,0,0,0,0,0,0,0,0,0,-1,1819,1625,0,0
602,-601,0,0,0,0,0,0,0,0,0,-1,1826,1625,0,0
609,-601,0,0,0,0,0,0,0,0,0,-1,1833,1625,0,0
616,-601,0,0,0,0,0,0,0,0,0,-1,1840,1625,0,0
623,-601,0,0,0,0,0,0,0,0,0,-1,1847,1625,0,0
630,-601,0,0,0,0,0,0,0,0,0,-1,1854,1625,0,0
637,-601,0,0,0,0,0,0,0,0,0,-1,1861,1625,0,0
644,-601,0,0,0,0,0,0,0,0,0,-1,1868,1625,0,0
651,-601,0,0,0,0,0,0,0,0,0,-1,1875,1625,0,0
658,-601,0,0,0,0,0,0,0,0,0,-1,1882,1625,0,0
665,-601,0,0,0,0,0,0,0,0,0,-1,1889,1625,0,0
672,-601,0,0,0,0,0,0,0,0,0,-1,1896,1625,0,0
679,-601,0,0,0,0,0,0,0,0,0,-1,1903,1625,0,0
686,-601,0,0,0,0,0,0,0,0,0,-1,1910,1625,0,0
693,-601,0,0,0,0,0,0,0,0,0,-1,1917,1625,0,0
700,-601,0,0,0,0,0,0,0,0,0,-1,1924,1625,0,0
707,-601,0,0,0,0,0,0,0,0,0,-1,1931,1625,0,0
714,-601,0,0,0,0,0,0,0,0,0,-1,1938,1625,0,0
721,-601,0,0,0,0,0,0,0,0,0,-1,1945,1625,0,0
728,-601,0,0,0,0,0,0,0,0,0,-1,1952,1625,0,0
735,-601,0,0,0,0,0,0,0,0,0,-1,1959,1625,0,0
742,-601,0,0,0,0,0,0,0,0,0,-1,1966,1625,0,0
749,-601,0,0,0,0,0,0,0,0,0,-1,1973,1625,0,0
756,-601,0,0,0,0,0,0,0,0,0,-1,1980,1625,0,0
763,-601,0,0,0,0,0,0,0,0,0,-1,1987,1625,0,0
770,-601,0,0,0,0,0,0,0,0,0,-1,1994,1625,0,0
777,-601,0,0,0,0,0,0,0,0,0,-1,2001,1625,0,0
784,-601,0,0,0,0,0,0,0,0,0,-1,2008,1625,0,0
791,-601,0,0,0,0,0,0,0,0,0,-1,2015,1625,0,0
798,-601,0,0,0,0,0,0,0,0,0,-1,2022,1625,0,0
805,-601,0,0,0,0,0,0,0,0,0,-1,2029,1625,0,0
812,-601,0,0,0,0,0,0,0,0,0,-1,2036,1625,0,0
-700,-608,0,0,0,0,0,0,0,0,0,-1,524,1632,0,0
-693,-608,0,0,0,0,0,0,0,0,0,-1,531,1632,0,0
-686,-608,0,0,0,0,0,0,0,0,0,-1,538,1632,0,0
-679,-608,0,0,0,0,0,0,0,0,0,-1,545,1632,0,0
-672,-608,0,0,0,0,0,0,0,0,0,-1,552,1632,0,0
-665,-608,0,0,0,0,0,0,0,0,0,-1,559,1632,0,0
-658,-608,0,0,0,0,0,0,0,0,0,-1,566,1632,0,0
-651,-608,0,0,0,0,0,0,0,0,0,-1,573,1632,0,0
-644,-608,0,0,0,0,0,0,0,0,0,-1,580,1632,0,0
-637,-608,0,0,0,0,0,0,0,0,0,-1,587,1632,0,0
-630,-608,0,0,0,0,0,0,0,0,0,-1,594,1632,0,0
-623,-608,0,0,0,0,0,0,0,0,0,-1,601,1632,0,0
-616,-608,0,0,0,0,0,0,0,0,0,-1,608,1632,0,0
-609,-608,0,0,0,0,0,0,0,0,0,-1,615,1632,0,0
-602,-608,0,0,0,0,0,0,0,0,0,-1,622,1632,0,0
-595,-608,0,0,0,0,0,0,0,0,0,-1,629,1632,0,0
-588,-608,0,0,0,0,0,0,0,0,0,-1,636,1632,0,0
-581,-608,0,0,0,0,0,0,0,0,0,-1,643,1632,0,0
-574,-608,0,0,0,0,0,0,0,0,0,-1,650,1632,0,0
-567,-608,0,0,0,0,0,0,0,0,0,-1,657,1632,0,0
-560,-608,0,0,0,0,0,0,0,0,0,-1,664,1632,0,0
-553,-608,0,0,0,0,0,0,0,0,0,-1,671,1632,0,0
-546,-608,0,0,0,0,0,0,0,0,0,-1,678,1632,0,0
-539,-608,0,0,0,0,0,0,0,0,0,-1,685,1632,0,0
-532,-608,0,0,0,0,0,0,0,0,0,-1,692,1632,0,0
-525,-608,0,0,0,0,0,0,0,0,0,-1,699,1632,0,0
-518,-608,0,0,0,0,0,0,0,0,0,-1,706,1632,0,0
-511,-608,0,0,0,0,0,0,0,0,0,-1,713,1632,0,0
-504,-608,0,0,0,0,0,0,0,0,0,-1,720,1632,0,0
-497,-608,0,0,0,0,0,0,0,0,0,-1,727,1632,0,0
-490,-608,0,0,0,0,0,0,0,0,0,-1,734,1632,0,0
-483,-608,0,0,0,0,0,0,0,0,0,-1,741,1632,0,0
-476,-608,0,0,0,0,0,0,0,0,0,-1,748,1632,0,0
-469,-608,0,0,0,0,0,0,0,0,0,-1,755,1632,0,0
-462,-608,0,0,0,0,0,0,0,0,0,-1,762,1632,0,0
-455,-608,0,0,0,0,0,0,0,0,0,-1,769,1632,0,0
-448,-608,0,0,0,0,0,0,0,0,0,-1,776,1632,0,0
-441,-608,-7.34601,2.78052,0,0,0,0,0,0,0,-1,783,1632,-7.346,-2.78056
-434,-608,-6.34558,3.27405,0,0,0,0,0,0,0,-1,790,1632,-6.34555,-3.27406
-427,-608,-7.74335,4.17688,0,0,0,0,0,0,0,-1,797,1632,-7.74334,-4.17693
-420,-608,-6.82794,4.34839,0,0,0,0,0,0,0,-1,804,1632,-6.82794,-4.34838
-413,-608,-5.41919,5.66138,0,0,0,0,0,0,0,-1,811,1632,-5.41917,-5.66133
-406,-608,-4.79681,4.98999,0,0,0,0,0,0,0,-1,818,1632,-4.79684,-4.98997
-399,-608,-2.60645,6.34167,0,0,0,0,0,0,0,-1,825,1632,-2.60643,-6.34169
-392,-608,2.08356,15.437,0,0,0,0,0,0,0,-1,832,1632,2.08354,-15.437
-385,-608,1.51526,31.5153,0,0,0,0,0,0,0,-1,839,1632,1.51527,-31.5153
-378,-608,0.340515,38.2742,0,0,0,0,0,0,0,-1,846,1632,0.340526,-38.2742
-371,-608,0.302979,39.8971,0,0,0,0,0,0,0,-1,853,1632,0.30297,-39.8971
-364,-608,0.299194,40.8695,0.0043786,-0.00448833,0.00495298,0.00659251,-0.00670224,0.420344,0.00767582,0.0284939,860,1632,0.299216,-40.8695
-357,-608,0.185791,41.7299,0.00343959,-0.00453204,0.00371317,0.00490119,-0.00599364,0.375,0.00630066,0.0207476,867,1632,0.185804,-41.7298
-350,-608,0.174072,42.5829,0.00281725,-0.00411699,0.00281652,0.00381708,-0.00511682,0.341113,0.00517616,0.0228764,874,1632,0.174076,-42.5829
-343,-608,0.130371,43.3867,0.00245398,-0.00331371,0.00220953,0.00320312,-0.00406285,0.326887,0.00420479,0.0287323,881,1632,0.130396,-43.3867
-336,-608,0.0444336,44.1901,0.00219976,-0.00245981,0.00178675,0.00280602,-0.00306608,0.32712,0.00339137,0.0203916,888,1632,0.0444528,-44.1901
-329,-608,-0.0360107,44.953,0.00207833,-0.00147598,0.00151482,0.00263633,-0.00203398,0.352938,0.00270387,0.0185252,895,1632,-0.0360372,-44.953
-322,-608,-0.0575562,45.6636,0.00221841,-0.000357838,0.00146035,0.00287757,-0.00101699,0.42399,0.00233249,0.0183971,902,1632,-0.0575518,-45.6636
-315,-608,-0.0184937,46.3486,0.00260621,0.000787081,0.00162717,0.00356078,-0.00016749,0.530541,0.00243161,0.0178006,909,1632,-0.0184825,-46.3487
-308,-608,-0.0824585,47.1124,0.00326788,0.00202862,0.00199659,0.00473878,0.000557719,0.634938,0.00299067,0.0179443,916,1632,-0.0824693,-47.1124
-301,-608,-0.108643,47.8577,0.00423176,0.00351216,0.00267302,0.00656908,0.00117484,0.718498,0.00404505,0.0116056,923,1632,-0.108633,-47.8577
-294,-608,-0.118591,48.5765,0.00540079,0.00505152,0.00350999,0.00874049,0.00171183,0.760542,0.00534849,0.0108806,930,1632,-0.118613,-48.5766
-287,-608,-0.172424,49.3104,0.0066797,0.00665916,0.004454,0.0111234,0.00221542,0.784245,0.00679856,0.0109691,937,1632,-0.172416,-49.3105
-280,-608,-0.189392,50.0044,0.00817999,0.00829833,0.00550769,0.0137472,0.00273115,0.790769,0.00840366,0.0102135,944,1632,-0.18937,-50.0044
-273,-608,-0.232483,50.7244,0.00973255,0.00985609,0.0064335,0.0162281,0.00336052,0.790199,0.00989074,0.0110936,951,1632,-0.232474,-50.7243
-266,-608,-0.226501,51.4738,0.0113614,0.0111349,0.00751724,0.0187662,0.00373004,0.777867,0.0114714,0.0117564,958,1632,-0.226505,-51.4737
-259,-608,-0.172791,52.1763,0.0129783,0.0124411,0.00848887,0.0212028,0.00421657,0.769584,0.0129604,0.015172,965,1632,-0.172769,-52.1762
-252,-608,-0.115723,52.9125,0.0146123,0.013643,0.00937281,0.023513,0.00474231,0.759569,0.014358,0.0288386,972,1632,-0.115696,-52.9125
-245,-608,-0.00469971,53.8937,0.0160356,0.0145487,0.0101076,0.025427,0.00515732,0.748687,0.0155206,0.0440106,979,1632,-0.00470113,-53.8937
-238,-608,0.167786,54.7732,0,0,0,0,0,0,0,-1,986,1632,0.167779,-54.7732
-231,-608,-0.0169067,55.1617,0,0,0,0,0,0,0,-1,993,1632,-0.0168977,-55.1618
-224,-608,-0.23407,55.5261,0,0,0,0,0,0,0,-1,1000,1632,-0.234074,-55.5261
-217,-608,1.04419,12.8451,0,0,0,0,0,0,0,-1,1007,1632,1.04418,-12.8451
-210,-608,2.75903,15.9414,0,0,0,0,0,0,0,-1,1014,1632,2.75903,-15.9414
-203,-608,2.76776,16.217,0,0,0,0,0,0,0,-1,1021,1632,2.76773,-16.217
-196,-608,1.53955,18.6058,0,0,0,0,0,0,0,-1,1028,1632,1.53959,-18.6058
-189,-608,1.37634,19.119,0,0,0,0,0,0,0,-1,1035,1632,1.37634,-19.1191
-182,-608,2.89221,16.7092,0,0,0,0,0,0,0,-1,1042,1632,2.89224,-16.7093
-175,-608,0.219116,15.1643,0,0,0,0,0,0,0,-1,1049,1632,0.219173,-15.1644
-168,-608,0.000366211,9.48645,0,0,0,0,0,0,0,-1,1056,1632,0.000317105,-9.48648
-161,-608,2.27832,15.4423,0,0,0,0,0,0,0,-1,1063,1632,2.27826,-15.4423
-154,-608,1.3999,16.4037,0,0,0,0,0,0,0,-1,1070,1632,1.39987,-16.4037
-147,-608,2.4386,9.50317,0,0,0,0,0,0,0,-1,1077,1632,2.43858,-9.50313
-140,-608,2.60132,10.8401,0,0,0,0,0,0,0,-1,1084,1632,2.60134,-10.8401
-133,-608,3.2312,12.4738,0,0,0,0,0,0,0,-1,1091,1632,3.23116,-12.4738
-126,-608,3.76465,13.9644,0,0,0,0,0,0,0,-1,1098,1632,3.76466,-13.9644
-119,-608,4.28906,15.4196,0,0,0,0,0,0,0,-1,1105,1632,4.28911,-15.4195
-112,-608,0.745117,10.5587,0,0,0,0,0,0,0,-1,1112,1632,0.745145,-10.5587
-105,-608,-0.252319,1.42419,0,0,0,0,0,0,0,-1,1119,1632,-0.252331,-1.42418
-98,-608,-2.8595,3.0863,0,0,0,0,0,0,0,-1,1126,1632,-2.85948,-3.08625
-91,-608,-3.71948,1.73608,0,0,0,0,0,0,0,-1,1133,1632,-3.7195,-1.73607
-84,-608,0,0,0,0,0,0,0,0,0,-1,1140,1632,0,0
-77,-608,0,0,0,0,0,0,0,0,0,-1,1147,1632,0,0
-70,-608,0,0,0,0,0,0,0,0,0,-1,1154,1632,0,0
-63,-608,0,0,0,0,0,0,0,0,0,-1,1161,1632,0,0
-56,-608,0,0,0,0,0,0,0,0,0,-1,1168,1632,0,0
-49,-608,0,0,0,0,0,0,0,0,0,-1,1175,1632,0,0
-42,-608,0,0,0,0,0,0,0,0,0,-1,1182,1632,0,0
-35,-608,0,0,0,0,0,0,0,0,0,-1,1189,1632,0,0
-28,-608,0,0,0,0,0,0,0,0,0,-1,1196,1632,0,0
-21,-608,0,0,0,0,0,0,0,0,0,-1,1203,1632,0,0
-14,-608,0,0,0,0,0,0,0,0,0,-1,1210,1632,0,0
-7,-608,0,0,0,0,0,0,0,0,0,-1,1217,1632,0,0
0,-608,0,0,0,0,0,0,0,0,0,-1,1224,1632,0,0
7,-608,0,0,0,0,0,0,0,0,0,-1,1231,1632,0,0
14,-608,0,0,0,0,0,0,0,0,0,-1,1238,1632,0,0
21,-608,0,0,0,0,0,0,0,0,0,-1,1245,1632,0,0
28,-608,0,0,0,0,0,0,0,0,0,-1,1252,1632,0,0
35,-608,0,0,0,0,0,0,0,0,0,-1,1259,1632,0,0
42,-608,0,0,0,0,0,0,0,0,0,-1,1266,1632,0,0
49,-608,0,0,0,0,0,0,0,0,0,-1,1273,1632,0,0
56,-608,0,0,0,0,0,0,0,0,0,-1,1280,1632,0,0
63,-608,0,0,0,0,0,0,0,0,0,-1,1287,1632,0,0
70,-608,0,0,0,0,0,0,0,0,0,-1,1294,1632,0,0
77,-608,0,0,0,0,0,0,0,0,0,-1,1301,1632,0,0
84,-608,0,0,0,0,0,0,0,0,0,-1,1308,1632,0,0
91,-608,0,0,0,0,0,0,0,0,0,-1,1315,1632,0,0
98,-608,0,0,0,0,0,0,0,0,0,-1,1322,1632,0,0
105,-608,0,0,0,0,0,0,0,0,0,-1,1329,1632,0,0
112,-608,0,0,0,0,0,0,0,0,0,-1,1336,1632,0,0
119,-608,0,0,0,0,0,0,0,0,0,-1,1343,1632,0,0
126,-608,0,0,0,0,0,0,0,0,0,-1,1350,1632,0,0
133,-608,0,0,0,0,0,0,0,0,0,-1,1357,1632,0,0
140,-608,0,0,0,0,0,0,0,0,0,-1,1364,1632,0,0
147,-608,0,0,0,0,0,0,0,0,0,-1,1371,1632,0,0
154,-608,0,0,0,0,0,0,0,0,0,-1,1378,1632,0,0
161,-608,0,0,0,0,0,0,0,0,0,-1,1385,1632,0,0
168,-608,0,0,0,0,0,0,0,0,0,-1,1392,1632,0,0
175,-608,0,0,0,0,0,0,0,0,0,-1,1399,1632,0,0
182,-608,0,0,0,0,0,0,0,0,0,-1,1406,1632,0,0
189,-608,0,0,0,0,0,0,0,0,0,-1,1413,1632,0,0
196,-608,0,0,0,0,0,0,0,0,0,-1,1420,1632,0,0
203,-608,0,0,0,0,0,0,0,0,0,-1,1427,1632,0,0
210,-608,5.7157,-0.333008,0,0,0,0,0,0,0,-1,1434,1632,5.71566,0.333004
217,-608,4.49402,-0.831787,0,0,0,0,0,0,0,-1,1441,1632,4.49396,0.831738
224,-608,4.18018,-1.11792,0,0,0,0,0,0,0,-1,1448,1632,4.1802,1.11796
231,-608,0.361816,0.825195,0,0,0,0,0,0,0,-1,1455,1632,0.36185,-0.825226
238,-608,2.85388,-0.28833,0,0,0,0,0,0,0,-1,1462,1632,2.85391,0.288282
245,-608,3.87537,4.02173,0,0,0,0,0,0,0,-1,1469,1632,3.87538,-4.02168
252,-608,5.66956,3.5282,0,0,0,0,0,0,0,-1,1476,1632,5.6696,-3.52815
259,-608,7.47437,3.07178,0,0,0,0,0,0,0,-1,1483,1632,7.4744,-3.07172
266,-608,9.46936,2.34766,0,0,0,0,0,0,0,-1,1490,1632,9.46932,-2.34764
273,-608,6.03003,3.34241,0,0,0,0,0,0,0,-1,1497,1632,6.02997,-3.34245
280,-608,5.72461,2.0769,0,0,0,0,0,0,0,-1,1504,1632,5.72457,-2.07688
287,-608,6.20581,3.59338,0,0,0,0,0,0,0,-1,1511,1632,6.20585,-3.59341
294,-608,6.94922,5.17151,0,0,0,0,0,0,0,-1,1518,1632,6.94925,-5.17151
301,-608,7.60083,6.68018,0,0,0,0,0,0,0,-1,1525,1632,7.60086,-6.68013
308,-608,7.64746,9.93848,0,0,0,0,0,0,0,-1,1532,1632,7.64745,-9.93842
315,-608,5.30688,11.2054,0,0,0,0,0,0,0,-1,1539,1632,5.30694,-11.2054
322,-608,5.32617,13.7581,0,0,0,0,0,0,0,-1,1546,1632,5.32613,-13.758
329,-608,7.12231,13.9607,0,0,0,0,0,0,0,-1,1553,1632,7.12231,-13.9607
336,-608,5.48633,7.82446,0,0,0,0,0,0,0,-1,1560,1632,5.48634,-7.82446
343,-608,5.47192,5.61047,0,0,0,0,0,0,0,-1,1567,1632,5.47192,-5.61045
350,-608,11.6957,1.71387,0,0,0,0,0,0,0,-1,1574,1632,11.6957,-1.71388
357,-608,3.77002,5.10046,0,0,0,0,0,0,0,-1,1581,1632,3.77002,-5.10043
364,-608,17.0704,55.1177,0,0,0,0,0,0,0,-1,1588,1632,17.0704,-55.1177
371,-608,17.4827,54.1144,0.0431826,0.0234439,-0.0242818,0.0595241,0.00710239,-0.59237,0.0375399,0.0455122,1595,1632,17.4827,-54.1143
378,-608,17.896,53.104,0.0369159,0.01961,-0.0199036,0.049966,0.00655981,-0.580351,0.0313537,0.0355635,1602,1632,17.896,-53.104
385,-608,18.1342,52.0704,0,0,0,0,0,0,0,-1,1609,1632,18.1342,-52.0704
392,-608,18.1235,51.1973,0.0249692,0.0125577,-0.0121412,0.0323987,0.00512814,-0.549143,0.0201089,0.0218598,1616,1632,18.1236,-51.1973
399,-608,18.1272,50.4783,0.0197088,0.00972546,-0.00908202,0.0250805,0.00435373,-0.534123,0.0154746,0.0111437,1623,1632,18.1272,-50.4783
406,-608,18.1437,49.7561,0.0153063,0.00751199,-0.00676482,0.0192162,0.00360206,-0.524071,0.0117949,0.0102971,1630,1632,18.1437,-49.7562
413,-608,18.1284,49.0535,0.0116311,0.00556959,-0.00489589,0.0143584,0.0028423,-0.508245,0.00877958,0.0119743,1637,1632,18.1284,-49.0535
420,-608,18.0668,48.3739,0.00876007,0.00419447,-0.00365296,0.0107849,0.00216968,-0.506128,0.00658689,0.0204171,1644,1632,18.0668,-48.3739
427,-608,18.0616,47.6675,0.00584039,0.00274616,-0.00226836,0.007039,0.00154755,-0.486112,0.00427131,0.0212052,1651,1632,18.0617,-47.6675
434,-608,18.035,46.9515,0.00389748,0.00173706,-0.0016532,0.00479209,0.000842451,-0.496016,0.00295422,0.0164799,1658,1632,18.035,-46.9515
441,-608,18.0165,46.2344,0.00340247,0.00144439,-0.00189654,0.00455776,0.000289101,-0.547127,0.00294687,0.0144377,1665,1632,18.0165,-46.2344
448,-608,18.0105,45.5303,0.00295045,0.0011572,-0.00213566,0.00437007,-0.000262409,-0.586654,0.00300467,0.0165571,1672,1632,18.0105,-45.5303
455,-608,18.0186,44.7596,0.00270027,0.000787068,-0.00240045,0.00432771,-0.000840367,-0.595788,0.00320223,0.0125789,1679,1632,18.0185,-44.7597
462,-608,17.9546,44.0309,0.00249578,0.000323165,-0.00256976,0.00419941,-0.00138047,-0.585427,0.00335578,0.0115838,1686,1632,17.9546,-44.0309
469,-608,17.8794,43.2974,0.00234763,-3.17537e-05,-0.0027906,0.00419155,-0.00187567,-0.583904,0.00358696,0.00949892,1693,1632,17.8793,-43.2974
476,-608,17.8356,42.5593,0.00209373,-0.00027638,-0.00294076,0.00407923,-0.00226188,-0.593863,0.00371082,0.00949192,1700,1632,17.8355,-42.5593
483,-608,17.8051,41.8003,0.00170581,-0.000609039,-0.00309135,0.00384931,-0.00275254,-0.606273,0.00382907,0.00885436,1707,1632,17.8051,-41.8002
490,-608,17.7996,41.0204,0.00122584,-0.000878494,-0.00321086,0.00355252,-0.00320518,-0.627067,0.00390328,0.0126402,1714,1632,17.7996,-41.0204
497,-608,17.8258,40.2004,0.000774316,-0.000823685,-0.00339067,0.00345886,-0.00350823,-0.669686,0.00402248,0.0337208,1721,1632,17.8258,-40.2004
504,-608,18.0499,39.2477,0,0,0,0,0,0,0,-1,1728,1632,18.0499,-39.2477
511,-608,17.6432,38.9061,0,0,0,0,0,0,0,-1,1735,1632,17.6432,-38.9061
518,-608,17.8663,36.3457,0,0,0,0,0,0,0,-1,1742,1632,17.8663,-36.3457
525,-608,11.2109,16.2579,0,0,0,0,0,0,0,-1,1749,1632,11.2109,-16.2579
532,-608,8.27917,11.6693,0,0,0,0,0,0,0,-1,1756,1632,8.27919,-11.6694
539,-608,9.40796,1.43457,0,0,0,0,0,0,0,-1,1763,1632,9.40801,-1.43463
546,-608,9.94031,2.1134,0,0,0,0,0,0,0,-1,1770,1632,9.94031,-2.11346
553,-608,10.363,2.81335,0,0,0,0,0,0,0,-1,1777,1632,10.3631,-2.81333
560,-608,9.23999,4.5636,0,0,0,0,0,0,0,-1,1784,1632,9.24,-4.56354
567,-608,0,0,0,0,0,0,0,0,0,-1,1791,1632,0,0
574,-608,0,0,0,0,0,0,0,0,0,-1,1798,1632,0,0
581,-608,0,0,0,0,0,0,0,0,0,-1,1805,1632,0,0
588,-608,0,0,0,0,0,0,0,0,0,-1,1812,1632,0,0
595,-608,0,0,0,0,0,0,0,0,0,-1,1819,1632,0,0
602,-608,0,0,0,0,0,0,0,0,0,-1,1826,1632,0,0
609,-608,0,0,0,0,0,0,0,0,0,-1,1833,1632,0,0
616,-608,0,0,0,0,0,0,0,0,0,-1,1840,1632,0,0
623,-608,0,0,0,0,0,0,0,0,0,-1,1847,1632,0,0
630,-608,0,0,0,0,0,0,0,0,0,-1,1854,1632,0,0
637,-608,0,0,0,0,0,0,0,0,0,-1,1861,1632,0,0
644,-608,0,0,0,0,0,0,0,0,0,-1,1868,1632,0,0
651,-608,0,0,0,0,0,0,0,0,0,-1,1875,1632,0,0
658,-608,0,0,0,0,0,0,0,0,0,-1,1882,1632,0,0
665,-608,0,0,0,0,0,0,0,0,0,-1,1889,1632,0,0
672,-608,0,0,0,0,0,0,0,0,0,-1,1896,1632,0,0
679,-608,0,0,0,0,0,0,0,0,0,-1,1903,1632,0,0
686,-608,0,0,0,0,0,0,0,0,0,-1,1910,1632,0,0
693,-608,0,0,0,0,0,0,0,0,0,-1,1917,1632,0,0
700,-608,0,0,0,0,0,0,0,0,0,-1,1924,1632,0,0
707,-608,0,0,0,0,0,0,0,0,0,-1,1931,1632,0,0
714,-608,0,0,0,0,0,0,0,0,0,-1,1938,1632,0,0
721,-608,0,0,0,0,0,0,0,0,0,-1,1945,1632,0,0
728,-608,0,0,0,0,0,0,0,0,0,-1,1952,1632,0,0
735,-608,0,0,0,0,0,0,0,0,0,-1,1959,1632,0,0
742,-608,0,0,0,0,0,0,0,0,0,-1,1966,1632,0,0
749,-608,0,0,0,0,0,0,0,0,0,-1,1973,1632,0,0
756,-608,0,0,0,0,0,0,0,0,0,-1,1980,1632,0,0
763,-608,0,0,0,0,0,0,0,0,0,-1,1987,1632,0,0
770,-608,0,0,0,0,0,0,0,0,0,-1,1994,1632,0,0
777,-608,0,0,0,0,0,0,0,0,0,-1,2001,1632,0,0
784,-608,0,0,0,0,0,0,0,0,0,-1,2008,1632,0,0
791,-608,0,0,0,0,0,0,0,0,0,-1,2015,1632,0,0
798,-608,0,0,0,0,0,0,0,0,0,-1,2022,1632,0,0
805,-608,0,0,0,0,0,0,0,0,0,-1,2029,1632,0,0
812,-608,0,0,0,0,0,0,0,0,0,-1,2036,1632,0,0
-700,-615,0,0,0,0,0,0,0,0,0,-1,524,1639,0,0
-693,-615,0,0,0,0,0,0,0,0,0,-1,531,1639,0,0
-686,-615,0,0,0,0,0,0,0,0,0,-1,538,1639,0,0
-679,-615,0,0,0,0,0,0,0,0,0,-1,545,1639,0,0
-672,-615,0,0,0,0,0,0,0,0,0,-1,552,1639,0,0
-665,-615,0,0,0,0,0,0,0,0,0,-1,559,1639,0,0
-658,-615,0,0,0,0,0,0,0,0,0,-1,566,1639,0,0
-651,-615,0,0,0,0,0,0,0,0,0,-1,573,1639,0,0
-644,-615,0,0,0,0,0,0,0,0,0,-1,580,1639,0,0
-637,-615,0,0,0,0,0,0,0,0,0,-1,587,1639,0,0
-630,-615,0,0,0,0,0,0,0,0,0,-1,594,1639,0,0
-623,-615,0,0,0,0,0,0,0,0,0,-1,601,1639,0,0
-616,-615,0,0,0,0,0,0,0,0,0,-1,608,1639,0,0
-609,-615,0,0,0,0,0,0,0,0,0,-1,615,1639,0,0
-602,-615,0,0,0,0,0,0,0,0,0,-1,622,1639,0,0
-595,-615,0,0,0,0,0,0,0,0,0,-1,629,1639,0,0
-588,-615,0,0,0,0,0,0,0,0,0,-1,636,1639,0,0
-581,-615,0,0,0,0,0,0,0,0,0,-1,643,1639,0,0
-574,-615,0,0,0,0,0,0,0,0,0,-1,650,1639,0,0
-567,-615,0,0,0,0,0,0,0,0,0,-1,657,1639,0,0
-560,-615,0,0,0,0,0,0,0,0,0,-1,664,1639,0,0
-553,-615,0,0,0,0,0,0,0,0,0,-1,671,1639,0,0
-546,-615,0,0,0,0,0,0,0,0,0,-1,678,1639,0,0
-539,-615,0,0,0,0,0,0,0,0,0,-1,685,1639,0,0
-532,-615,0,0,0,0,0,0,0,0,0,-1,692,1639,0,0
-525,-615,0,0,0,0,0,0,0,0,0,-1,699,1639,0,0
-518,-615,0,0,0,0,0,0,0,0,0,-1,706,1639,0,0
-511,-615,0,0,0,0,0,0,0,0,0,-1,713,1639,0,0
-504,-615,0,0,0,0,0,0,0,0,0,-1,720,1639,0,0
-497,-615,0,0,0,0,0,0,0,0,0,-1,727,1639,0,0
-490,-615,0,0,0,0,0,0,0,0,0,-1,734,1639,0,0
-483,-615,0,0,0,0,0,0,0,0,0,-1,741,1639,0,0
-476,-615,0,0,0,0,0,0,0,0,0,-1,748,1639,0,0
-469,-615,0,0,0,0,0,0,0,0,0,-1,755,1639,0,0
-462,-615,0,0,0,0,0,0,0,0,0,-1,762,1639,0,0
-455,-615,0,0,0,0,0,0,0,0,0,-1,769,1639,0,0
-448,-615,0,0,0,0,0,0,0,0,0,-1,776,1639,0,0
-441,-615,0,0,0,0,0,0,0,0,0,-1,783,1639,0,0
-434,-615,-7.64508,2.98596,0,0,0,0,0,0,0,-1,790,1639,-7.64505,-2.98594
-427,-615,-9.0011,2.89404,0,0,0,0,0,0,0,-1,797,1639,-9.00107,-2.89399
-420,-615,-8.07568,3.0752,0,0,0,0,0,0,0,-1,804,1639,-8.07569,-3.07514
-413,-615,-7.09149,3.396,0,0,0,0,0,0,0,-1,811,1639,-7.09147,-3.39599
-406,-615,-6.21368,3.7312,0,0,0,0,0,0,0,-1,818,1639,-6.21366,-3.73114
-399,-615,-4.84875,3.91907,0,0,0,0,0,0,0,-1,825,1639,-4.84877,-3.91901
-392,-615,1.7395,13.3127,0,0,0,0,0,0,0,-1,832,1639,1.73953,-13.3128
-385,-615,3.42297,14.9401,0,0,0,0,0,0,0,-1,839,1639,3.42296,-14.94
-378,-615,1.50134,37.1793,0,0,0,0,0,0,0,-1,846,1639,1.50132,-37.1793
-371,-615,0.838196,39.9268,0,0,0,0,0,0,0,-1,853,1639,0.838195,-39.9268
-364,-615,0.838684,40.9969,0.0055866,-0.00632377,0.00577264,0.00792524,-0.00866241,0.384917,0.00958004,0.0379367,860,1639,0.838707,-40.9969
-357,-615,1.00012,42.0216,0.00429445,-0.00635802,0.00422898,0.00576917,-0.00783274,0.335533,0.00788313,0.038886,867,1639,1.00009,-42.0217
-350,-615,0.89856,42.7491,0.00341659,-0.00571965,0.00315598,0.00440076,-0.00670382,0.302286,0.00645703,0.037734,874,1639,0.898536,-42.7491
-343,-615,0.837036,43.3732,0.00289391,-0.00462781,0.00244245,0.00361743,-0.00535133,0.28799,0.00521027,0.0228985,881,1639,0.837022,-43.3732
-336,-615,0.81897,44.1627,0.00247627,-0.00365635,0.00190943,0.00302219,-0.00420226,0.278477,0.00418955,0.0118455,888,1639,0.818948,-44.1627
-329,-615,0.74054,44.9369,0.00214722,-0.00263193,0.00155021,0.00260601,-0.00309073,0.287744,0.00329298,0.0121464,895,1639,0.740562,-44.9368
-322,-615,0.707825,45.6952,0.00204946,-0.0014915,0.00139789,0.00253479,-0.00197683,0.334169,0.00261142,0.0146269,902,1639,0.707852,-45.6951
-315,-615,0.688843,46.4458,0.00221135,-0.000370839,0.00145258,0.00286369,-0.00102317,0.422093,0.00232643,0.0180638,909,1639,0.688863,-46.4458
-308,-615,0.602295,47.2123,0.00259835,0.000786631,0.00164101,0.00356692,-0.00018194,0.533204,0.00244085,0.0251432,916,1639,0.602285,-47.2123
-301,-615,0.606628,47.9019,0.00327422,0.00211699,0.00213736,0.0049099,0.000481308,0.653209,0.00312521,0.0131485,923,1639,0.606628,-47.9018
-294,-615,0.591248,48.6287,0.00416031,0.00343864,0.00276865,0.00659154,0.0010074,0.720598,0.00410003,0.0103289,930,1639,0.591277,-48.6287
-287,-615,0.545288,49.3461,0.00507368,0.00477677,0.00345898,0.00838738,0.00146306,0.763952,0.00517333,0.00820815,937,1639,0.545269,-49.346
-280,-615,0.529053,50.0537,0.00614908,0.00606109,0.00420514,0.0103105,0.00189971,0.780167,0.00633605,0.0109347,944,1639,0.529055,-50.0537
-273,-615,0.489502,50.7731,0.00733076,0.00724117,0.0048155,0.0121017,0.00247026,0.780747,0.00738342,0.0127942,951,1639,0.489522,-50.7731
-266,-615,0.445068,51.4641,0.00855849,0.00814046,0.00551682,0.0138703,0.00282869,0.766464,0.00846301,0.013762,958,1639,0.44504,-51.4642
-259,-615,0.469604,52.147,0.00976653,0.00909831,0.00610893,0.0155505,0.00331437,0.758079,0.0094578,0.0144761,965,1639,0.469581,-52.147
-252,-615,0.475464,52.8993,0.0109617,0.00994715,0.00658908,0.017063,0.00384586,0.746979,0.0103347,0.0170152,972,1639,0.475462,-52.8993
-245,-615,0.55304,53.7168,0.0120306,0.010553,0.00698429,0.018315,0.00426851,0.732704,0.0110651,0.0256637,979,1639,0.553063,-53.7168
-238,-615,0.577881,54.4016,0.0130152,0.0108524,0.00715239,0.0191675,0.00470014,0.710372,0.0115353,0.0337604,986,1639,0.577858,-54.4016
-231,-615,0.6026,55.0433,0.0136284,0.0103729,0.00685171,0.0190431,0.00495826,0.668776,0.0114077,0.0428846,993,1639,0.60263,-55.0433
-224,-615,0.569519,55.5425,0.0136656,0.00908745,0.00631286,0.0180916,0.00466146,0.611469,0.0108464,0.0495879,1000,1639,0.569494,-55.5425
-217,-615,0.692566,56.2378,0,0,0,0,0,0,0,-1,1007,1639,0.692558,-56.2377
-210,-615,2.48901,18.9324,0,0,0,0,0,0,0,-1,1014,1639,2.48902,-18.9323
-203,-615,2.13684,18.6173,0,0,0,0,0,0,0,-1,1021,1639,2.13683,-18.6173
-196,-615,4.27161,21.3264,0,0,0,0,0,0,0,-1,1028,1639,4.27165,-21.3264
-189,-615,0.985352,58.1743,0,0,0,0,0,0,0,-1,1035,1639,0.985309,-58.1744
-182,-615,2.98364,52.7119,0,0,0,0,0,0,0,-1,1042,1639,2.9836,-52.7119
-175,-615,2.25159,49.2682,0,0,0,0,0,0,0,-1,1049,1639,2.25158,-49.2682
-168,-615,3.85754,15.472,0,0,0,0,0,0,0,-1,1056,1639,3.85757,-15.472
-161,-615,2.14307,46.5156,0,0,0,0,0,0,0,-1,1063,1639,2.14303,-46.5156
-154,-615,1.37329,47.9545,0,0,0,0,0,0,0,-1,1070,1639,1.37327,-47.9545
-147,-615,0.0180664,48.1396,0,0,0,0,0,0,0,-1,1077,1639,0.0180157,-48.1397
-140,-615,3.73401,10.2349,0,0,0,0,0,0,0,-1,1084,1639,3.73402,-10.2348
-133,-615,2.6178,17.45,0,0,0,0,0,0,0,-1,1091,1639,2.61776,-17.4499
-126,-615,4.43408,12.5017,0,0,0,0,0,0,0,-1,1098,1639,4.43403,-12.5018
-119,-615,4.82983,13.9279,0,0,0,0,0,0,0,-1,1105,1639,4.82986,-13.9278
-112,-615,3.65698,14.4874,0,0,0,0,0,0,0,-1,1112,1639,3.65695,-14.4875
-105,-615,0.958496,2.45398,0,0,0,0,0,0,0,-1,1119,1639,0.958452,-2.45398
-98,-615,-0.647705,2.12109,0,0,0,0,0,0,0,-1,1126,1639,-0.647756,-2.12105
-91,-615,-3.07983,2.97375,0,0,0,0,0,0,0,-1,1133,1639,-3.07989,-2.97376
-84,-615,-2.46509,0.703247,0,0,0,0,0,0,0,-1,1140,1639,-2.46505,-0.703273
-77,-615,-3.17859,1.23755,0,0,0,0,0,0,0,-1,1147,1639,-3.17865,-1.23752
-70,-615,-4.03943,1.43335,0,0,0,0,0,0,0,-1,1154,1639,-4.03942,-1.43339
-63,-615,-4.8877,1.45544,0,0,0,0,0,0,0,-1,1161,1639,-4.88766,-1.45549
-56,-615,0,0,0,0,0,0,0,0,0,-1,1168,1639,0,0
-49,-615,0,0,0,0,0,0,0,0,0,-1,1175,1639,0,0
-42,-615,0,0,0,0,0,0,0,0,0,-1,1182,1639,0,0
-35,-615,0,0,0,0,0,0,0,0,0,-1,1189,1639,0,0
-28,-615,0,0,0,0,0,0,0,0,0,-1,1196,1639,0,0
-21,-615,0,0,0,0,0,0,0,0,0,-1,1203,1639,0,0
-14,-615,0,0,0,0,0,0,0,0,0,-1,1210,1639,0,0
-7,-615,0,0,0,0,0,0,0,0,0,-1,1217,1639,0,0
0,-615,0,0,0,0,0,0,0,0,0,-1,1224,1639,0,0
7,-615,0,0,0,0,0,0,0,0,0,-1,1231,1639,0,0
14,-615,0,0,0,0,0,0,0,0,0,-1,1238,1639,0,0
21,-615,0,0,0,0,0,0,0,0,0,-1,1245,1639,0,0
28,-615,0,0,0,0,0,0,0,0,0,-1,1252,1639,0,0
35,-615,0,0,0,0,0,0,0,0,0,-1,1259,1639,0,0
42,-615,0,0,0,0,0,0,0,0,0,-1,1266,1639,0,0
49,-615,0,0,0,0,0,0,0,0,0,-1,1273,1639,0,0
56,-615,0,0,0,0,0,0,0,0,0,-1,1280,1639,0,0
63,-615,0,0,0,0,0,0,0,0,0,-1,1287,1639,0,0
70,-615,0,0,0,0,0,0,0,0,0,-1,1294,1639,0,0
77,-615,0,0,0,0,0,0,0,0,0,-1,1301,1639,0,0
84,-615,0,0,0,0,0,0,0,0,0,-1,1308,1639,0,0
91,-615,0,0,0,0,0,0,0,0,0,-1,1315,1639,0,0
98,-615,0,0,0,0,0,0,0,0,0,-1,1322,1639,0,0
105,-615,0,0,0,0,0,0,0,0,0,-1,1329,1639,0,0
112,-615,0,0,0,0,0,0,0,0,0,-1,1336,1639,0,0
119,-615,0,0,0,0,0,0,0,0,0,-1,1343,1639,0,0
126,-615,0,0,0,0,0,0,0,0,0,-1,1350,1639,0,0
133,-615,0,0,0,0,0,0,0,0,0,-1,1357,1639,0,0
140,-615,0,0,0,0,0,0,0,0,0,-1,1364,1639,0,0
147,-615,0,0,0,0,0,0,0,0,0,-1,1371,1639,0,0
154,-615,0,0,0,0,0,0,0,0,0,-1,1378,1639,0,0
161,-615,0,0,0,0,0,0,0,0,0,-1,1385,1639,0,0
168,-615,0,0,0,0,0,0,0,0,0,-1,1392,1639,0,0
175,-615,5.39648,-2.00879,0,0,0,0,0,0,0,-1,1399,1639,5.3965,2.00881
182,-615,5.65393,-1.51025,0,0,0,0,0,0,0,-1,1406,1639,5.65388,1.51028
189,-615,5.58972,-1.35608,0,0,0,0,0,0,0,-1,1413,1639,5.58967,1.35607
196,-615,5.49915,-0.693604,0,0,0,0,0,0,0,-1,1420,1639,5.4991,0.693602
203,-615,5.33411,-0.226685,0,0,0,0,0,0,0,-1,1427,1639,5.33414,0.226689
210,-615,5.60278,0.108276,0,0,0,0,0,0,0,-1,1434,1639,5.60284,-0.10831
217,-615,6.26331,-0.307373,0,0,0,0,0,0,0,-1,1441,1639,6.26331,0.307372
224,-615,5.45422,-0.333984,0,0,0,0,0,0,0,-1,1448,1639,5.45422,0.333992
231,-615,4.92542,1.80298,0,0,0,0,0,0,0,-1,1455,1639,4.92537,-1.80297
238,-615,4.76355,1.96729,0,0,0,0,0,0,0,-1,1462,1639,4.76357,-1.96734
245,-615,4.08643,3.15906,0,0,0,0,0,0,0,-1,1469,1639,4.08638,-3.159
252,-615,6.37805,3.73889,0,0,0,0,0,0,0,-1,1476,1639,6.37806,-3.73891
259,-615,8.35974,3.16443,0,0,0,0,0,0,0,-1,1483,1639,8.35975,-3.16444
266,-615,10.3414,2.58997,0,0,0,0,0,0,0,-1,1490,1639,10.3414,-2.58996
273,-615,6.57043,1.84766,0,0,0,0,0,0,0,-1,1497,1639,6.5704,-1.84771
280,-615,7.10449,3.23438,0,0,0,0,0,0,0,-1,1504,1639,7.10447,-3.23435
287,-615,7.35779,4.68542,0,0,0,0,0,0,0,-1,1511,1639,7.35776,-4.68546
294,-615,7.63733,6.29114,0,0,0,0,0,0,0,-1,1518,1639,7.63735,-6.29109
301,-615,8.47925,11.452,0,0,0,0,0,0,0,-1,1525,1639,8.47922,-11.452
308,-615,6.8114,10.9059,0,0,0,0,0,0,0,-1,1532,1639,6.81137,-10.9058
315,-615,5.1427,14.7251,0,0,0,0,0,0,0,-1,1539,1639,5.14269,-14.7251
322,-615,7.17981,17.6864,0,0,0,0,0,0,0,-1,1546,1639,7.17985,-17.6864
329,-615,7.62134,20.4354,0,0,0,0,0,0,0,-1,1553,1639,7.62139,-20.4354
336,-615,6.45007,14.1138,0,0,0,0,0,0,0,-1,1560,1639,6.45011,-14.1138
343,-615,2.40491,6.50134,0,0,0,0,0,0,0,-1,1567,1639,2.40489,-6.50137
350,-615,16.3262,55.0724,0,0,0,0,0,0,0,-1,1574,1639,16.3261,-55.0724
357,-615,16.8098,55.1318,0,0,0,0,0,0,0,-1,1581,1639,16.8098,-55.1318
364,-615,17.153,54.2101,0,0,0,0,0,0,0,-1,1588,1639,17.153,-54.2101
371,-615,17.1212,53.6494,0.0315712,0.0187677,-0.0178623,0.0441442,0.00619463,-0.613331,0.0275973,0.0392262,1595,1639,17.1212,-53.6494
378,-615,17.4652,52.6176,0.0273184,0.0158395,-0.0148386,0.0374889,0.00566901,-0.600863,0.0233336,0.0203876,1602,1639,17.4653,-52.6175
385,-615,17.489,51.8508,0.0231077,0.0128928,-0.0119435,0.03099,0.00501049,-0.583349,0.0192089,0.0122864,1609,1639,17.489,-51.8509
392,-615,17.4712,51.1647,0.0188859,0.01029,-0.00928378,0.0248183,0.00435752,-0.568612,0.0153013,0.0107046,1616,1639,17.4712,-51.1647
399,-615,17.4341,50.4961,0.0149812,0.0080144,-0.00703416,0.0193472,0.00364838,-0.555492,0.0118704,0.0115847,1623,1639,17.4341,-50.4961
406,-615,17.4203,49.8037,0.0116917,0.00613536,-0.00530108,0.0148985,0.00292859,-0.544036,0.00911435,0.0120389,1630,1639,17.4203,-49.8038
413,-615,17.4095,49.123,0.00891989,0.00446907,-0.0039044,0.0111886,0.00220039,-0.526374,0.00684451,0.0139506,1637,1639,17.4095,-49.123
420,-615,17.3849,48.4315,0.00672767,0.00328219,-0.00300555,0.0084692,0.00154066,-0.525163,0.00520909,0.0145373,1644,1639,17.3849,-48.4315
427,-615,17.3595,47.701,0.00455091,0.00203325,-0.00204056,0.00568969,0.000894469,-0.50902,0.00353292,0.0159919,1651,1639,17.3595,-47.701
434,-615,17.3411,46.9958,0.00318318,0.00122729,-0.0017371,0.00419869,0.000211776,-0.529023,0.00273128,0.0155845,1658,1639,17.341,-46.9958
441,-615,17.3159,46.2909,0.00286744,0.000926679,-0.00205501,0.00416966,-0.000375538,-0.564816,0.00291303,0.0156481,1665,1639,17.3159,-46.2909
448,-615,17.2864,45.5676,0.00266034,0.000618726,-0.00239482,0.00424284,-0.000963773,-0.583931,0.00319859,0.0159265,1672,1639,17.2864,-45.5677
455,-615,17.2603,44.8179,0.00260219,0.000249104,-0.00275463,0.00442102,-0.00156972,-0.583568,0.00358696,0.0147256,1679,1639,17.2602,-44.8179
462,-615,17.2065,44.0891,0.0025483,-0.000221398,-0.00307063,0.00453192,-0.00220502,-0.573556,0.00396615,0.0148903,1686,1639,17.2065,-44.0891
469,-615,17.1497,43.3406,0.00255591,-0.000543831,-0.0034354,0.00477487,-0.00276279,-0.573495,0.00440325,0.0129653,1693,1639,17.1497,-43.3406
476,-615,17.1274,42.5779,0.00246435,-0.00077367,-0.00369195,0.00487667,-0.003186,-0.578763,0.00468897,0.0122028,1700,1639,17.1274,-42.5779
483,-615,17.1462,41.7218,0.00224428,-0.00107484,-0.00399114,0.00490714,-0.0037377,-0.588367,0.0050063,0.0309372,1707,1639,17.1462,-41.7218
490,-615,17.1494,40.8793,0,0,0,0,0,0,0,-1,1714,1639,17.1494,-40.8793
497,-615,17.21,40.0179,0,0,0,0,0,0,0,-1,1721,1639,17.21,-40.018
504,-615,16.4989,34.738,0,0,0,0,0,0,0,-1,1728,1639,16.4989,-34.738
511,-615,15.2349,30.2052,0,0,0,0,0,0,0,-1,1735,1639,15.2348,-30.2052
518,-615,13.2416,9.81812,0,0,0,0,0,0,0,-1,1742,1639,13.2416,-9.81813
525,-615,4.37524,3.90491,0,0,0,0,0,0,0,-1,1749,1639,4.37518,-3.90495
532,-615,7.3645,0.848145,0,0,0,0,0,0,0,-1,1756,1639,7.36451,-0.848093
539,-615,12.8112,-0.0476074,0,0,0,0,0,0,0,-1,1763,1639,12.8111,0.0475553
546,-615,8.33813,2.94556,0,0,0,0,0,0,0,-1,1770,1639,8.33813,-2.9455
553,-615,5.82532,-2.04199,0,0,0,0,0,0,0,-1,1777,1639,5.82534,2.04195
560,-615,0,0,0,0,0,0,0,0,0,-1,1784,1639,0,0
567,-615,0,0,0,0,0,0,0,0,0,-1,1791,1639,0,0
574,-615,0,0,0,0,0,0,0,0,0,-1,1798,1639,0,0
581,-615,0,0,0,0,0,0,0,0,0,-1,1805,1639,0,0
588,-615,0,0,0,0,0,0,0,0,0,-1,1812,1639,0,0
595,-615,0,0,0,0,0,0,0,0,0,-1,1819,1639,0,0
602,-615,0,0,0,0,0,0,0,0,0,-1,1826,1639,0,0
609,-615,0,0,0,0,0,0,0,0,0,-1,1833,1639,0,0
616,-615,0,0,0,0,0,0,0,0,0,-1,1840,1639,0,0
623,-615,0,0,0,0,0,0,0,0,0,-1,1847,1639,0,0
630,-615,0,0,0,0,0,0,0,0,0,-1,1854,1639,0,0
637,-615,0,0,0,0,0,0,0,0,0,-1,1861,1639,0,0
644,-615,0,0,0,0,0,0,0,0,0,-1,1868,1639,0,0
651,-615,0,0,0,0,0,0,0,0,0,-1,1875,1639,0,0
658,-615,0,0,0,0,0,0,0,0,0,-1,1882,1639,0,0
665,-615,0,0,0,0,0,0,0,0,0,-1,1889,1639,0,0
672,-615,0,0,0,0,0,0,0,0,0,-1,1896,1639,0,0
679,-615,0,0,0,0,0,0,0,0,0,-1,1903,1639,0,0
686,-615,0,0,0,0,0,0,0,0,0,-1,1910,1639,0,0
693,-615,0,0,0,0,0,0,0,0,0,-1,1917,1639,0,0
700,-615,0,0,0,0,0,0,0,0,0,-1,1924,1639,0,0
707,-615,0,0,0,0,0,0,0,0,0,-1,1931,1639,0,0
714,-615,0,0,0,0,0,0,0,0,0,-1,1938,1639,0,0
721,-615,0,0,0,0,0,0,0,0,0,-1,1945,1639,0,0
728,-615,0,0,0,0,0,0,0,0,0,-1,1952,1639,0,0
735,-615,0,0,0,0,0,0,0,0,0,-1,1959,1639,0,0
742,-615,0,0,0,0,0,0,0,0,0,-1,1966,1639,0,0
749,-615,0,0,0,0,0,0,0,0,0,-1,1973,1639,0,0
756,-615,0,0,0,0,0,0,0,0,0,-1,1980,1639,0,0
763,-615,0,0,0,0,0,0,0,0,0,-1,1987,1639,0,0
770,-615,0,0,0,0,0,0,0,0,0,-1,1994,1639,0,0
777,-615,0,0,0,0,0,0,0,0,0,-1,2001,1639,0,0
784,-615,0,0,0,0,0,0,0,0,0,-1,2008,1639,0,0
791,-615,0,0,0,0,0,0,0,0,0,-1,2015,1639,0,0
798,-615,0,0,0,0,0,0,0,0,0,-1,2022,1639,0,0
805,-615,0,0,0,0,0,0,0,0,0,-1,2029,1639,0,0
812,-615,0,0,0,0,0,0,0,0,0,-1,2036,1639,0,0
-700,-622,0,0,0,0,0,0,0,0,0,-1,524,1646,0,0
-693,-622,0,0,0,0,0,0,0,0,0,-1,531,1646,0,0
-686,-622,0,0,0,0,0,0,0,0,0,-1,538,1646,0,0
-679,-622,0,0,0,0,0,0,0,0,0,-1,545,1646,0,0
-672,-622,0,0,0,0,0,0,0,0,0,-1,552,1646,0,0
-665,-622,0,0,0,0,0,0,0,0,0,-1,559,1646,0,0
-658,-622,0,0,0,0,0,0,0,0,0,-1,566,1646,0,0
-651,-622,0,0,0,0,0,0,0,0,0,-1,573,1646,0,0
-644,-622,0,0,0,0,0,0,0,0,0,-1,580,1646,0,0
-637,-622,0,0,0,0,0,0,0,0,0,-1,587,1646,0,0
-630,-622,0,0,0,0,0,0,0,0,0,-1,594,1646,0,0
-623,-622,0,0,0,0,0,0,0,0,0,-1,601,1646,0,0
-616,-622,0,0,0,0,0,0,0,0,0,-1,608,1646,0,0
-609,-622,0,0,0,0,0,0,0,0,0,-1,615,1646,0,0
-602,-622,0,0,0,0,0,0,0,0,0,-1,622,1646,0,0
-595,-622,0,0,0,0,0,0,0,0,0,-1,629,1646,0,0
-588,-622,0,0,0,0,0,0,0,0,0,-1,636,1646,0,0
-581,-622,0,0,0,0,0,0,0,0,0,-1,643,1646,0,0
-574,-622,0,0,0,0,0,0,0,0,0,-1,650,1646,0,0
-567,-622,0,0,0,0,0,0,0,0,0,-1,657,1646,0,0
-560,-622,0,0,0,0,0,0,0,0,0,-1,664,1646,0,0
-553,-622,0,0,0,0,0,0,0,0,0,-1,671,1646,0,0
-546,-622,0,0,0,0,0,0,0,0,0,-1,678,1646,0,0
-539,-622,0,0,0,0,0,0,0,0,0,-1,685,1646,0,0
-532,-622,0,0,0,0,0,0,0,0,0,-1,692,1646,0,0
-525,-622,0,0,0,0,0,0,0,0,0,-1,699,1646,0,0
-518,-622,0,0,0,0,0,0,0,0,0,-1,706,1646,0,0
-511,-622,0,0,0,0,0,0,0,0,0,-1,713,1646,0,0
-504,-622,0,0,0,0,0,0,0,0,0,-1,720,1646,0,0
-497,-622,0,0,0,0,0,0,0,0,0,-1,727,1646,0,0
-490,-622,0,0,0,0,0,0,0,0,0,-1,734,1646,0,0
-483,-622,0,0,0,0,0,0,0,0,0,-1,741,1646,0,0
-476,-622,0,0,0,0,0,0,0,0,0,-1,748,1646,0,0
-469,-622,0,0,0,0,0,0,0,0,0,-1,755,1646,0,0
-462,-622,0,0,0,0,0,0,0,0,0,-1,762,1646,0,0
-455,-622,0,0,0,0,0,0,0,0,0,-1,769,1646,0,0
-448,-622,0,0,0,0,0,0,0,0,0,-1,776,1646,0,0
-441,-622,0,0,0,0,0,0,0,0,0,-1,783,1646,0,0
-434,-622,0,0,0,0,0,0,0,0,0,-1,790,1646,0,0
-427,-622,-7.62891,3.48096,0,0,0,0,0,0,0,-1,797,1646,-7.62892,-3.48092
-420,-622,-9.35791,1.77185,0,0,0,0,0,0,0,-1,804,1646,-9.35789,-1.77183
-413,-622,-8.46075,1.96777,0,0,0,0,0,0,0,-1,811,1646,-8.46074,-1.96774
-406,-622,-4.44318,2.16858,0,0,0,0,0,0,0,-1,818,1646,-4.44315,-2.16859
-399,-622,-7.06976,1.51001,0,0,0,0,0,0,0,-1,825,1646,-7.06976,-1.51005
-392,-622,3.89551,5.85376,0,0,0,0,0,0,0,-1,832,1646,3.8955,-5.85379
-385,-622,2.00543,14.0448,0,0,0,0,0,0,0,-1,839,1646,2.00544,-14.0448
-378,-622,1.49036,15.3436,0,0,0,0,0,0,0,-1,846,1646,1.49033,-15.3436
-371,-622,1.5274,38.0657,0,0,0,0,0,0,0,-1,853,1646,1.5274,-38.0657
-364,-622,1.17371,40.7305,0,0,0,0,0,0,0,-1,860,1646,1.17371,-40.7304
-357,-622,1.52972,41.8224,0,0,0,0,0,0,0,-1,867,1646,1.52971,-41.8224
-350,-622,1.56384,42.8611,0.00418351,-0.00753251,0.00336213,0.00507978,-0.00842877,0.260518,0.00787865,0.0478701,874,1646,1.56384,-42.8611
-343,-622,1.40277,43.5289,0.00355214,-0.00589043,0.00259734,0.00421942,-0.00655772,0.251473,0.00627081,0.0306979,881,1646,1.40277,-43.5289
-336,-622,1.53925,44.1967,0.00299251,-0.00468561,0.00201908,0.00349108,-0.00518419,0.242088,0.00504036,0.0104911,888,1646,1.53922,-44.1966
-329,-622,1.49017,44.9576,0.00246651,-0.00348932,0.00162826,0.00288259,-0.00390541,0.250183,0.00393385,0.0088556,895,1646,1.49018,-44.9576
-322,-622,1.44452,45.7153,0.00216007,-0.00221994,0.00143915,0.00259061,-0.00265048,0.290691,0.00302601,0.0110939,902,1646,1.44452,-45.7153
-315,-622,1.39618,46.4575,0.00211839,-0.00104352,0.00144151,0.00267691,-0.00160205,0.369646,0.0024963,0.0159484,909,1646,1.39618,-46.4576
-308,-622,1.362,47.1971,0.00225571,9.55003e-05,0.00151541,0.00303655,-0.00068533,0.475782,0.00228729,0.0160579,916,1646,1.36202,-47.1971
-301,-622,1.33508,47.9336,0.00266641,0.00131696,0.00188408,0.00399294,-9.57074e-06,0.613453,0.00266515,0.0139507,923,1646,1.3351,-47.9335
-294,-622,1.29858,48.6664,0.00329351,0.00245114,0.00235742,0.00526707,0.000477575,0.696998,0.00336351,0.0103037,930,1646,1.2986,-48.6664
-287,-622,1.26581,49.3668,0.00389248,0.00354849,0.00285285,0.00657852,0.000862453,0.75529,0.00412834,0.00810044,937,1646,1.2658,-49.3669
-280,-622,1.23334,50.0701,0.00461482,0.00452867,0.00336018,0.00793221,0.00121129,0.778989,0.00493419,0.0101867,944,1646,1.23331,-50.0701
-273,-622,1.21985,50.7551,0.00548544,0.00537142,0.0037266,0.00915547,0.00170139,0.77775,0.00562298,0.0163453,951,1646,1.21984,-50.7552
-266,-622,1.1626,51.4542,0.00639425,0.0059543,0.00413142,0.0103115,0.00203701,0.758801,0.006306,0.0161067,958,1646,1.1626,-51.4543
-259,-622,1.15485,52.1875,0.00728185,0.0065958,0.00442867,0.0113808,0.00249689,0.746747,0.00690699,0.0136419,965,1646,1.15487,-52.1875
-252,-622,1.14722,52.8641,0.00814508,0.00713705,0.0046022,0.0122708,0.00301135,0.730857,0.00738433,0.0134464,972,1646,1.14723,-52.8641
-245,-622,1.18231,53.5453,0.00894622,0.0074677,0.00470626,0.0129709,0.00344299,0.707495,0.00775859,0.0109878,979,1646,1.18231,-53.5453
-238,-622,1.1795,54.2174,0.00973513,0.00760894,0.00468559,0.0134767,0.00386736,0.673844,0.00801274,0.0128994,986,1646,1.17952,-54.2173
-231,-622,1.22516,54.9523,0.0102765,0.00718209,0.00440447,0.0133976,0.00406096,0.616492,0.00793249,0.020358,993,1646,1.22518,-54.9522
-224,-622,1.30859,55.5238,0.0103868,0.00625552,0.00394327,0.0127727,0.00386961,0.544131,0.00756278,0.0319515,1000,1646,1.30856,-55.5238
-217,-622,1.44904,55.9634,0.0101582,0.00508728,0.00332869,0.0118071,0.0034384,0.459925,0.00701213,0.0462089,1007,1646,1.44901,-55.9633
-210,-622,1.479,56.8934,0,0,0,0,0,0,0,-1,1014,1646,1.47902,-56.8934
-203,-622,4.21375,20.9574,0,0,0,0,0,0,0,-1,1021,1646,4.21375,-20.9574
-196,-622,1.69104,57.2128,0,0,0,0,0,0,0,-1,1028,1646,1.69104,-57.2128
-189,-622,2.06653,58.4335,0,0,0,0,0,0,0,-1,1035,1646,2.06649,-58.4335
-182,-622,2.39661,58.1133,0,0,0,0,0,0,0,-1,1042,1646,2.39664,-58.1133
-175,-622,3.61438,53.5428,0,0,0,0,0,0,0,-1,1049,1646,3.61438,-53.5428
-168,-622,3.44849,53.4453,0,0,0,0,0,0,0,-1,1056,1646,3.44848,-53.4453
-161,-622,2.79761,52.5291,0,0,0,0,0,0,0,-1,1063,1646,2.79756,-52.529
-154,-622,2.00879,52.2384,0,0,0,0,0,0,0,-1,1070,1646,2.00874,-52.2384
-147,-622,0.939453,52.2694,0,0,0,0,0,0,0,-1,1077,1646,0.939511,-52.2694
-140,-622,0.546997,48.6783,0,0,0,0,0,0,0,-1,1084,1646,0.547022,-48.6784
-133,-622,3.09644,17.677,0,0,0,0,0,0,0,-1,1091,1646,3.09638,-17.677
-126,-622,3.5061,19.5251,0,0,0,0,0,0,0,-1,1098,1646,3.50616,-19.5252
-119,-622,4.06384,13.1715,0,0,0,0,0,0,0,-1,1105,1646,4.06379,-13.1716
-112,-622,4.33276,14.6605,0,0,0,0,0,0,0,-1,1112,1646,4.33281,-14.6605
-105,-622,0.306519,4.38159,0,0,0,0,0,0,0,-1,1119,1646,0.306536,-4.38159
-98,-622,-0.510376,3.5033,0,0,0,0,0,0,0,-1,1126,1646,-0.510393,-3.50324
-91,-622,-1.146,0.975952,0,0,0,0,0,0,0,-1,1133,1646,-1.14599,-0.97597
-84,-622,-2.04895,1.31787,0,0,0,0,0,0,0,-1,1140,1646,-2.0489,-1.31781
-77,-622,-1.80627,0.332275,0,0,0,0,0,0,0,-1,1147,1646,-1.80622,-0.33223
-70,-622,-3.65588,2.28149,0,0,0,0,0,0,0,-1,1154,1646,-3.65589,-2.28155
-63,-622,-2.49683,1.27087,0,0,0,0,0,0,0,-1,1161,1646,-2.49679,-1.27093
-56,-622,-2.44238,-0.575562,0,0,0,0,0,0,0,-1,1168,1646,-2.44242,0.575508
-49,-622,-2.41089,1.38818,0,0,0,0,0,0,0,-1,1175,1646,-2.41088,-1.38815
-42,-622,-2.71497,2.85242,0,0,0,0,0,0,0,-1,1182,1646,-2.71491,-2.85247
-35,-622,-3.0177,4.25842,0,0,0,0,0,0,0,-1,1189,1646,-3.01773,-4.25838
-28,-622,-0.896606,0.678833,0,0,0,0,0,0,0,-1,1196,1646,-0.89661,-0.678835
-21,-622,16.4141,36.2849,0,0,0,0,0,0,0,-1,1203,1646,16.4141,-36.285
-14,-622,-4.54675,49.5179,0,0,0,0,0,0,0,-1,1210,1646,-4.54671,-49.5179
-7,-622,-3.02295,48.9022,0,0,0,0,0,0,0,-1,1217,1646,-3.0229,-48.9022
0,-622,0,0,0,0,0,0,0,0,0,-1,1224,1646,0,0
7,-622,0,0,0,0,0,0,0,0,0,-1,1231,1646,0,0
14,-622,0,0,0,0,0,0,0,0,0,-1,1238,1646,0,0
21,-622,0,0,0,0,0,0,0,0,0,-1,1245,1646,0,0
28,-622,0,0,0,0,0,0,0,0,0,-1,1252,1646,0,0
35,-622,0,0,0,0,0,0,0,0,0,-1,1259,1646,0,0
42,-622,0,0,0,0,0,0,0,0,0,-1,1266,1646,0,0
49,-622,0,0,0,0,0,0,0,0,0,-1,1273,1646,0,0
56,-622,0,0,0,0,0,0,0,0,0,-1,1280,1646,0,0
63,-622,0,0,0,0,0,0,0,0,0,-1,1287,1646,0,0
70,-622,0,0,0,0,0,0,0,0,0,-1,1294,1646,0,0
77,-622,0,0,0,0,0,0,0,0,0,-1,1301,1646,0,0
84,-622,0,0,0,0,0,0,0,0,0,-1,1308,1646,0,0
91,-622,0,0,0,0,0,0,0,0,0,-1,1315,1646,0,0
98,-622,0,0,0,0,0,0,0,0,0,-1,1322,1646,0,0
105,-622,0,0,0,0,0,0,0,0,0,-1,1329,1646,0,0
112,-622,0,0,0,0,0,0,0,0,0,-1,1336,1646,0,0
119,-622,0,0,0,0,0,0,0,0,0,-1,1343,1646,0,0
126,-622,9.87805,75.8231,0,0,0,0,0,0,0,-1,1350,1646,9.87809,-75.8231
133,-622,10.7632,66.9135,0,0,0,0,0,0,0,-1,1357,1646,10.7631,-66.9135
140,-622,11.865,69.6938,0,0,0,0,0,0,0,-1,1364,1646,11.865,-69.6939
147,-622,11.3212,69.8832,0,0,0,0,0,0,0,-1,1371,1646,11.3211,-69.8832
154,-622,10.7966,70.0903,0,0,0,0,0,0,0,-1,1378,1646,10.7967,-70.0903
161,-622,10.6884,6.46448,0,0,0,0,0,0,0,-1,1385,1646,10.6883,-6.46442
168,-622,12.2402,5.18091,0,0,0,0,0,0,0,-1,1392,1646,12.2403,-5.1809
175,-622,5.64355,-1.77075,0,0,0,0,0,0,0,-1,1399,1646,5.64351,1.77077
182,-622,5.88586,-1.32251,0,0,0,0,0,0,0,-1,1406,1646,5.88587,1.32256
189,-622,5.97986,-1.18005,0,0,0,0,0,0,0,-1,1413,1646,5.97986,1.18003
196,-622,5.85022,-0.244507,0,0,0,0,0,0,0,-1,1420,1646,5.85026,0.244478
203,-622,5.25159,0.138794,0,0,0,0,0,0,0,-1,1427,1646,5.25162,-0.138822
210,-622,6.66833,0.0397949,0,0,0,0,0,0,0,-1,1434,1646,6.6684,-0.0398278
217,-622,6.12061,0.0506592,0,0,0,0,0,0,0,-1,1441,1646,6.12058,-0.0507181
224,-622,5.57275,0.0616455,0,0,0,0,0,0,0,-1,1448,1646,5.57276,-0.0616084
231,-622,5.31348,1.3949,0,0,0,0,0,0,0,-1,1455,1646,5.31342,-1.39495
238,-622,3.76477,2.90686,0,0,0,0,0,0,0,-1,1462,1646,3.7648,-2.90686
245,-622,5.13794,2.67993,0,0,0,0,0,0,0,-1,1469,1646,5.13796,-2.67992
252,-622,6.66528,2.53992,0,0,0,0,0,0,0,-1,1476,1646,6.66522,-2.53991
259,-622,8.93787,3.31458,0,0,0,0,0,0,0,-1,1483,1646,8.93791,-3.31454
266,-622,5.72644,3.11926,0,0,0,0,0,0,0,-1,1490,1646,5.72647,-3.1192
273,-622,7.28076,3.61218,0,0,0,0,0,0,0,-1,1497,1646,7.28071,-3.61212
280,-622,8.43127,4.4447,0,0,0,0,0,0,0,-1,1504,1646,8.43123,-4.44467
287,-622,8.60315,5.94617,0,0,0,0,0,0,0,-1,1511,1646,8.60319,-5.94622
294,-622,7.62756,11.5143,0,0,0,0,0,0,0,-1,1518,1646,7.62762,-11.5143
301,-622,7.36548,11.6569,0,0,0,0,0,0,0,-1,1525,1646,7.36549,-11.6569
308,-622,7.10339,11.7994,0,0,0,0,0,0,0,-1,1532,1646,7.10335,-11.7995
315,-622,8.28687,16.5842,0,0,0,0,0,0,0,-1,1539,1646,8.28689,-16.5843
322,-622,7.43689,20.5786,0,0,0,0,0,0,0,-1,1546,1646,7.43685,-20.5786
329,-622,9.76477,26.4202,0,0,0,0,0,0,0,-1,1553,1646,9.7648,-26.4202
336,-622,10.4526,28.8552,0,0,0,0,0,0,0,-1,1560,1646,10.4526,-28.8552
343,-622,16.2339,55.6134,0,0,0,0,0,0,0,-1,1567,1646,16.2339,-55.6134
350,-622,16.8699,55.4302,0,0,0,0,0,0,0,-1,1574,1646,16.8699,-55.4302
357,-622,16.5345,54.8506,0.0271869,0.0186683,-0.0162544,0.0397309,0.00612441,-0.65726,0.0247002,0.0415748,1581,1646,16.5346,-54.8506
364,-622,16.6758,54.0315,0.0251795,0.0167632,-0.0148249,0.0363819,0.00556079,-0.647108,0.0226299,0.0333903,1588,1646,16.6758,-54.0315
371,-622,16.7683,53.2913,0.0226923,0.0146109,-0.0129312,0.0321994,0.0051038,-0.633967,0.0199835,0.0215264,1595,1646,16.7683,-53.2913
378,-622,16.7925,52.5802,0.0198377,0.0124151,-0.0108859,0.0276276,0.00462532,-0.621113,0.0170866,0.0132059,1602,1646,16.7924,-52.5802
385,-622,16.7799,51.8899,0.0169618,0.0101741,-0.00888997,0.0230837,0.00405219,-0.603056,0.014232,0.0100982,1609,1646,16.7799,-51.8899
392,-622,16.7616,51.2203,0.0139492,0.00814834,-0.00700179,0.0186275,0.00347001,-0.589037,0.0114385,0.0107608,1616,1646,16.7616,-51.2203
399,-622,16.7253,50.5297,0.0110802,0.00636953,-0.00539549,0.0146121,0.00283769,-0.579596,0.00894678,0.0113348,1623,1646,16.7254,-50.5296
406,-622,16.709,49.8301,0.00866178,0.00482442,-0.0041444,0.0113101,0.00217611,-0.56861,0.00692954,0.0145861,1630,1646,16.709,-49.8301
413,-622,16.7008,49.1398,0.00662292,0.00344381,-0.00315884,0.0085696,0.00149713,-0.552293,0.00528519,0.0165741,1637,1646,16.7008,-49.1397
420,-622,16.6702,48.4675,0.00499992,0.00245733,-0.00256392,0.00659042,0.000866826,-0.555242,0.00413507,0.0163131,1644,1646,16.6701,-48.4675
427,-622,16.656,47.7307,0.00350751,0.00145501,-0.00200985,0.00473795,0.000224568,-0.549349,0.0030865,0.0138528,1651,1646,16.6561,-47.7307
434,-622,16.6411,47.0123,0.00267714,0.000860569,-0.00200268,0.00396788,-0.000430168,-0.572503,0.00279968,0.0152861,1658,1646,16.6411,-47.0123
441,-622,16.5945,46.3154,0.00253356,0.000549751,-0.00239434,0.00413332,-0.00105001,-0.589025,0.00316417,0.0160677,1665,1646,16.5944,-46.3155
448,-622,16.5409,45.5929,0.00257122,0.000211752,-0.00283616,0.00446322,-0.00168025,-0.588303,0.00366624,0.0142902,1672,1646,16.5409,-45.5929
455,-622,16.4937,44.8408,0.0027218,-0.000174777,-0.00329495,0.00487271,-0.00232569,-0.578334,0.00424183,0.01634,1679,1646,16.4937,-44.8409
462,-622,16.4753,44.1125,0.00286079,-0.000668662,-0.00377379,0.00526208,-0.00306996,-0.56669,0.00486569,0.018429,1686,1646,16.4754,-44.1126
469,-622,16.4312,43.3809,0.00308474,-0.000957611,-0.00432424,0.00583685,-0.00370972,-0.566781,0.00555713,0.0192869,1693,1646,16.4311,-43.3808
476,-622,16.5443,42.6085,0.00322638,-0.00119017,-0.00471603,0.00622554,-0.00418934,-0.566435,0.00605122,0.03939,1700,1646,16.5443,-42.6085
483,-622,16.6722,41.7133,0,0,0,0,0,0,0,-1,1707,1646,16.6723,-41.7133
490,-622,15.8815,36.627,0,0,0,0,0,0,0,-1,1714,1646,15.8814,-36.6269
497,-622,14.9666,32.1024,0,0,0,0,0,0,0,-1,1721,1646,14.9665,-32.1024
504,-622,10.8306,19.8021,0,0,0,0,0,0,0,-1,1728,1646,10.8306,-19.8022
511,-622,5.29004,4.14587,0,0,0,0,0,0,0,-1,1735,1646,5.29008,-4.14589
518,-622,5.6001,1.55359,0,0,0,0,0,0,0,-1,1742,1646,5.60015,-1.5536
525,-622,5.83093,2.01807,0,0,0,0,0,0,0,-1,1749,1646,5.83097,-2.01802
532,-622,5.44202,0.57373,0,0,0,0,0,0,0,-1,1756,1646,5.44196,-0.573705
539,-622,9.32129,1.06116,0,0,0,0,0,0,0,-1,1763,1646,9.32131,-1.0612
546,-622,6.50977,-3.45618,0,0,0,0,0,0,0,-1,1770,1646,6.50981,3.4562
553,-622,0,0,0,0,0,0,0,0,0,-1,1777,1646,0,0
560,-622,0,0,0,0,0,0,0,0,0,-1,1784,1646,0,0
567,-622,0,0,0,0,0,0,0,0,0,-1,1791,1646,0,0
574,-622,0,0,0,0,0,0,0,0,0,-1,1798,1646,0,0
581,-622,0,0,0,0,0,0,0,0,0,-1,1805,1646,0,0
588,-622,0,0,0,0,0,0,0,0,0,-1,1812,1646,0,0
595,-622,0,0,0,0,0,0,0,0,0,-1,1819,1646,0,0
602,-622,0,0,0,0,0,0,0,0,0,-1,1826,1646,0,0
609,-622,0,0,0,0,0,0,0,0,0,-1,1833,1646,0,0
616,-622,0,0,0,0,0,0,0,0,0,-1,1840,1646,0,0
623,-622,0,0,0,0,0,0,0,0,0,-1,1847,1646,0,0
630,-622,0,0,0,0,0,0,0,0,0,-1,1854,1646,0,0
637,-622,0,0,0,0,0,0,0,0,0,-1,1861,1646,0,0
644,-622,0,0,0,0,0,0,0,0,0,-1,1868,1646,0,0
651,-622,0,0,0,0,0,0,0,0,0,-1,1875,1646,0,0
658,-622,0,0,0,0,0,0,0,0,0,-1,1882,1646,0,0
665,-622,0,0,0,0,0,0,0,0,0,-1,1889,1646,0,0
672,-622,0,0,0,0,0,0,0,0,0,-1,1896,1646,0,0
679,-622,0,0,0,0,0,0,0,0,0,-1,1903,1646,0,0
686,-622,0,0,0,0,0,0,0,0,0,-1,1910,1646,0,0
693,-622,0,0,0,0,0,0,0,0,0,-1,1917,1646,0,0
700,-622,0,0,0,0,0,0,0,0,0,-1,1924,1646,0,0
707,-622,0,0,0,0,0,0,0,0,0,-1,1931,1646,0,0
714,-622,0,0,0,0,0,0,0,0,0,-1,1938,1646,0,0
721,-622,0,0,0,0,0,0,0,0,0,-1,1945,1646,0,0
728,-622,0,0,0,0,0,0,0,0,0,-1,1952,1646,0,0
735,-622,0,0,0,0,0,0,0,0,0,-1,1959,1646,0,0
742,-622,0,0,0,0,0,0,0,0,0,-1,1966,1646,0,0
749,-622,0,0,0,0,0,0,0,0,0,-1,1973,1646,0,0
756,-622,0,0,0,0,0,0,0,0,0,-1,1980,1646,0,0
763,-622,0,0,0,0,0,0,0,0,0,-1,1987,1646,0,0
770,-622,0,0,0,0,0,0,0,0,0,-1,1994,1646,0,0
777,-622,0,0,0,0,0,0,0,0,0,-1,2001,1646,0,0
784,-622,0,0,0,0,0,0,0,0,0,-1,2008,1646,0,0
791,-622,0,0,0,0,0,0,0,0,0,-1,2015,1646,0,0
798,-622,0,0,0,0,0,0,0,0,0,-1,2022,1646,0,0
805,-622,0,0,0,0,0,0,0,0,0,-1,2029,1646,0,0
812,-622,0,0,0,0,0,0,0,0,0,-1,2036,1646,0,0
-700,-629,0,0,0,0,0,0,0,0,0,-1,524,1653,0,0
-693,-629,0,0,0,0,0,0,0,0,0,-1,531,1653,0,0
-686,-629,0,0,0,0,0,0,0,0,0,-1,538,1653,0,0
-679,-629,0,0,0,0,0,0,0,0,0,-1,545,1653,0,0
-672,-629,0,0,0,0,0,0,0,0,0,-1,552,1653,0,0
-665,-629,0,0,0,0,0,0,0,0,0,-1,559,1653,0,0
-658,-629,0,0,0,0,0,0,0,0,0,-1,566,1653,0,0
-651,-629,0,0,0,0,0,0,0,0,0,-1,573,1653,0,0
-644,-629,0,0,0,0,0,0,0,0,0,-1,580,1653,0,0
-637,-629,0,0,0,0,0,0,0,0,0,-1,587,1653,0,0
-630,-629,0,0,0,0,0,0,0,0,0,-1,594,1653,0,0
-623,-629,0,0,0,0,0,0,0,0,0,-1,601,1653,0,0
-616,-629,0,0,0,0,0,0,0,0,0,-1,608,1653,0,0
-609,-629,0,0,0,0,0,0,0,0,0,-1,615,1653,0,0
-602,-629,0,0,0,0,0,0,0,0,0,-1,622,1653,0,0
-595,-629,0,0,0,0,0,0,0,0,0,-1,629,1653,0,0
-588,-629,0,0,0,0,0,0,0,0,0,-1,636,1653,0,0
-581,-629,0,0,0,0,0,0,0,0,0,-1,643,1653,0,0
-574,-629,0,0,0,0,0,0,0,0,0,-1,650,1653,0,0
-567,-629,0,0,0,0,0,0,0,0,0,-1,657,1653,0,0
-560,-629,0,0,0,0,0,0,0,0,0,-1,664,1653,0,0
-553,-629,0,0,0,0,0,0,0,0,0,-1,671,1653,0,0
-546,-629,0,0,0,0,0,0,0,0,0,-1,678,1653,0,0
-539,-629,0,0,0,0,0,0,0,0,0,-1,685,1653,0,0
-532,-629,0,0,0,0,0,0,0,0,0,-1,692,1653,0,0
-525,-629,0,0,0,0,0,0,0,0,0,-1,699,1653,0,0
-518,-629,0,0,0,0,0,0,0,0,0,-1,706,1653,0,0
-511,-629,0,0,0,0,0,0,0,0,0,-1,713,1653,0,0
-504,-629,0,0,0,0,0,0,0,0,0,-1,720,1653,0,0
-497,-629,0,0,0,0,0,0,0,0,0,-1,727,1653,0,0
-490,-629,0,0,0,0,0,0,0,0,0,-1,734,1653,0,0
-483,-629,0,0,0,0,0,0,0,0,0,-1,741,1653,0,0
-476,-629,0,0,0,0,0,0,0,0,0,-1,748,1653,0,0
-469,-629,0,0,0,0,0,0,0,0,0,-1,755,1653,0,0
-462,-629,0,0,0,0,0,0,0,0,0,-1,762,1653,0,0
-455,-629,0,0,0,0,0,0,0,0,0,-1,769,1653,0,0
-448,-629,0,0,0,0,0,0,0,0,0,-1,776,1653,0,0
-441,-629,0,0,0,0,0,0,0,0,0,-1,783,1653,0,0
-434,-629,0,0,0,0,0,0,0,0,0,-1,790,1653,0,0
-427,-629,0,0,0,0,0,0,0,0,0,-1,797,1653,0,0
-420,-629,-3.87103,3.37634,0,0,0,0,0,0,0,-1,804,1653,-3.87101,-3.37633
-413,-629,-5.69751,1.33582,0,0,0,0,0,0,0,-1,811,1653,-5.69754,-1.3358
-406,-629,2.85406,6.01501,0,0,0,0,0,0,0,-1,818,1653,2.85405,-6.01507
-399,-629,-0.455627,10.8687,0,0,0,0,0,0,0,-1,825,1653,-0.455625,-10.8687
-392,-629,1.15369,11.1295,0,0,0,0,0,0,0,-1,832,1653,1.1537,-11.1295
-385,-629,1.81976,11.6935,0,0,0,0,0,0,0,-1,839,1653,1.81975,-11.6935
-378,-629,2.19452,14.7941,0,0,0,0,0,0,0,-1,846,1653,2.19451,-14.7941
-371,-629,3.60114,14.7299,0,0,0,0,0,0,0,-1,853,1653,3.60113,-14.7299
-364,-629,3.26898,21.0801,0,0,0,0,0,0,0,-1,860,1653,3.26895,-21.08
-357,-629,4.38782,16.3444,0,0,0,0,0,0,0,-1,867,1653,4.38783,-16.3443
-350,-629,2.23499,42.929,0,0,0,0,0,0,0,-1,874,1653,2.23496,-42.9289
-343,-629,1.99139,43.7117,0.00476733,-0.00694373,0.00253521,0.00529259,-0.00746899,0.204297,0.00740353,0.0434457,881,1653,1.99137,-43.7117
-336,-629,2.25165,44.2563,0.00390263,-0.00541934,0.00184166,0.00425328,-0.00576999,0.188147,0.00580898,0.0200681,888,1653,2.25165,-44.2564
-329,-629,2.25372,45.0042,0.00309897,-0.00396281,0.00140495,0.00336822,-0.00423206,0.189349,0.00439746,0.0114768,895,1653,2.25372,-45.0042
-322,-629,2.19598,45.7526,0.00255165,-0.0025053,0.00118856,0.00281708,-0.00277073,0.219709,0.00322616,0.0121598,902,1653,2.196,-45.7525
-315,-629,2.12115,46.4916,0.00230639,-0.00122803,0.00117678,0.00266235,-0.00158398,0.293735,0.00247783,0.0162094,909,1653,2.12114,-46.4916
-308,-629,2.09442,47.2405,0.00222888,-6.51201e-05,0.00120139,0.00274289,-0.00057913,0.404278,0.0020491,0.0137305,916,1653,2.09441,-47.2404
-301,-629,2.07288,48.0028,0.00241788,0.00109302,0.00151797,0.00341167,9.92366e-05,0.579657,0.0022421,0.0120931,923,1653,2.07286,-48.0028
-294,-629,2.03479,48.7125,0.00282776,0.00208183,0.00192855,0.00441907,0.000490515,0.689882,0.00279692,0.0122805,930,1653,2.03482,-48.7126
-287,-629,1.99603,49.4185,0.00317633,0.00297733,0.00234518,0.00542412,0.000729542,0.764196,0.0033991,0.00956559,937,1653,1.99603,-49.4185
-280,-629,1.9613,50.1249,0.00362024,0.00370972,0.00274264,0.00640798,0.000921978,0.793554,0.00400024,0.010592,944,1653,1.96133,-50.1248
-273,-629,1.92157,50.7931,0.00422536,0.00426114,0.00299782,0.00724112,0.00124537,0.788382,0.00447049,0.0151829,951,1653,1.92155,-50.7931
-266,-629,1.88135,51.5066,0.00487216,0.00458613,0.00324776,0.00798005,0.00147824,0.763394,0.00490215,0.0149422,958,1653,1.88135,-51.5066
-259,-629,1.85095,52.2507,0.00549412,0.004961,0.00339073,0.00862875,0.00182637,0.746171,0.00525068,0.0156469,965,1653,1.85094,-52.2507
-252,-629,1.83459,52.9073,0.00606352,0.00522485,0.0033745,0.00904464,0.00224373,0.723582,0.00543838,0.0122733,972,1653,1.83458,-52.9073
-245,-629,1.8432,53.5725,0.00659215,0.00528329,0.00328928,0.00929147,0.00258397,0.687202,0.00553773,0.00887153,979,1653,1.84322,-53.5725
-238,-629,1.8288,54.2429,0.00716741,0.00522931,0.00309263,0.00943926,0.00295747,0.633572,0.00557494,0.0114426,986,1653,1.82878,-54.2429
-231,-629,1.79059,54.905,0.00759981,0.00486611,0.00278425,0.00933462,0.0031313,0.557218,0.00548577,0.0148284,993,1653,1.79058,-54.905
-224,-629,1.88623,55.6396,0.00778954,0.00419066,0.0023922,0.00898353,0.00299667,0.462941,0.00528155,0.017356,1000,1653,1.88624,-55.6396
-217,-629,1.84601,56.1865,0.00776895,0.00335007,0.00192817,0.008492,0.00262702,0.358762,0.00502025,0.0290396,1007,1653,1.84599,-56.1865
-210,-629,1.95709,56.9175,0,0,0,0,0,0,0,-1,1014,1653,1.95707,-56.9174
-203,-629,2.08588,57.468,0,0,0,0,0,0,0,-1,1021,1653,2.0859,-57.468
-196,-629,2.45728,58.0975,0,0,0,0,0,0,0,-1,1028,1653,2.45724,-58.0975
-189,-629,2.29675,58.4863,0,0,0,0,0,0,0,-1,1035,1653,2.29673,-58.4863
-182,-629,2.02844,59.4198,0,0,0,0,0,0,0,-1,1042,1653,2.02843,-59.4197
-175,-629,2.3053,59.0123,0,0,0,0,0,0,0,-1,1049,1653,2.30528,-59.0123
-168,-629,3.94775,55.7037,0,0,0,0,0,0,0,-1,1056,1653,3.94774,-55.7038
-161,-629,3.2146,53.0543,0,0,0,0,0,0,0,-1,1063,1653,3.21462,-53.0543
-154,-629,2.30042,52.7101,0,0,0,0,0,0,0,-1,1070,1653,2.30043,-52.7101
-147,-629,1.22363,52.6086,0,0,0,0,0,0,0,-1,1077,1653,1.22368,-52.6087
-140,-629,3.68201,55.7941,0,0,0,0,0,0,0,-1,1084,1653,3.68206,-55.7941
-133,-629,1.99792,57.769,0,0,0,0,0,0,0,-1,1091,1653,1.99792,-57.769
-126,-629,4.01025,19.5328,0,0,0,0,0,0,0,-1,1098,1653,4.01022,-19.5328
-119,-629,4.94177,13.5525,0,0,0,0,0,0,0,-1,1105,1653,4.94172,-13.5525
-112,-629,5.63123,15.9187,0,0,0,0,0,0,0,-1,1112,1653,5.63118,-15.9187
-105,-629,2.15881,4.38342,0,0,0,0,0,0,0,-1,1119,1653,2.15878,-4.38347
-98,-629,0.825806,4.19385,0,0,0,0,0,0,0,-1,1126,1653,0.825779,-4.1939
-91,-629,-0.452271,3.64465,0,0,0,0,0,0,0,-1,1133,1653,-0.452278,-3.6446
-84,-629,-2.6084,0.466797,0,0,0,0,0,0,0,-1,1140,1653,-2.6084,-0.466786
-77,-629,-3.50903,2.10706,0,0,0,0,0,0,0,-1,1147,1653,-3.509,-2.10707
-70,-629,-1.20886,2.52502,0,0,0,0,0,0,0,-1,1154,1653,-1.20886,-2.525
-63,-629,-0.960693,4.30212,0,0,0,0,0,0,0,-1,1161,1653,-0.960691,-4.30215
-56,-629,-1.31934,5.64343,0,0,0,0,0,0,0,-1,1168,1653,-1.31928,-5.6434
-49,-629,-2.15662,2.57458,0,0,0,0,0,0,0,-1,1175,1653,-2.15656,-2.57459
-42,-629,-2.46326,3.91467,0,0,0,0,0,0,0,-1,1182,1653,-2.4633,-3.91466
-35,-629,-2.67261,5.24292,0,0,0,0,0,0,0,-1,1189,1653,-2.67257,-5.24298
-28,-629,-0.402954,-0.866577,0,0,0,0,0,0,0,-1,1196,1653,-0.402943,0.866612
-21,-629,3.45508,27.0596,0,0,0,0,0,0,0,-1,1203,1653,3.45508,-27.0596
-14,-629,-2.63892,51.2357,0,0,0,0,0,0,0,-1,1210,1653,-2.63893,-51.2357
-7,-629,3.61853,70.9427,0,0,0,0,0,0,0,-1,1217,1653,3.61849,-70.9427
0,-629,2.48706,70.5568,0,0,0,0,0,0,0,-1,1224,1653,2.4871,-70.5568
7,-629,21.624,76.1952,0,0,0,0,0,0,0,-1,1231,1653,21.624,-76.1952
14,-629,20.4194,77.0763,0,0,0,0,0,0,0,-1,1238,1653,20.4194,-77.0762
21,-629,17.2228,79.5066,0,0,0,0,0,0,0,-1,1245,1653,17.2228,-79.5066
28,-629,17.7352,79.7648,0,0,0,0,0,0,0,-1,1252,1653,17.7352,-79.7648
35,-629,18.0378,80.2816,-0.0725876,0.0648795,0.0501785,0.0812469,-0.0889551,1.25549,0.0982997,0.0462673,1259,1653,18.0379,-80.2816
42,-629,18.4677,80.9329,0,0,0,0,0,0,0,-1,1266,1653,18.4677,-80.9328
49,-629,15.3883,80.1273,0,0,0,0,0,0,0,-1,1273,1653,15.3883,-80.1274
56,-629,14.1714,78.9396,0,0,0,0,0,0,0,-1,1280,1653,14.1713,-78.9396
63,-629,13.7203,78.3983,-0.0593445,0.0892976,-0.010406,0.0900226,-0.0600694,-1.50124,0.087229,0.0448046,1287,1653,13.7204,-78.3983
70,-629,13.2964,77.8499,-0.0601771,0.0866213,-0.0140111,0.0879467,-0.0615024,-1.47649,0.0867336,0.0448535,1294,1653,13.2964,-77.8499
77,-629,12.6667,76.7186,0,0,0,0,0,0,0,-1,1301,1653,12.6667,-76.7186
84,-629,12.3141,76.3958,-0.0543837,0.0807677,-0.0165618,0.0827676,-0.0563836,-1.45062,0.080819,0.0475606,1308,1653,12.3141,-76.3957
91,-629,12.0023,76.0289,-0.0483469,0.0754499,-0.0206823,0.0788139,-0.0517109,-1.40956,0.0758981,0.0445026,1315,1653,12.0023,-76.0289
98,-629,11.3931,76.0165,-0.0379868,0.0753989,-0.0263174,0.0812095,-0.0437974,-1.35349,0.0732422,0.0439019,1322,1653,11.393,-76.0165
105,-629,10.9916,75.8209,0,0,0,0,0,0,0,-1,1329,1653,10.9915,-75.821
112,-629,10.5273,75.6417,0,0,0,0,0,0,0,-1,1336,1653,10.5274,-75.6417
119,-629,9.97241,75.4437,-0.00383155,0.0747599,-0.0480302,0.097521,-0.0265926,-1.12825,0.0754567,0.044194,1343,1653,9.97243,-75.4438
126,-629,9.77405,75.0408,0.0109034,0.0726736,-0.060706,0.109899,-0.0263225,-1.02072,0.0834362,0.0457979,1350,1653,9.774,-75.0408
133,-629,9.59973,74.6035,0,0,0,0,0,0,0,-1,1357,1653,9.59973,-74.6035
140,-629,8.31384,74.0579,0,0,0,0,0,0,0,-1,1364,1653,8.31384,-74.0579
147,-629,8.70752,73.0443,0,0,0,0,0,0,0,-1,1371,1653,8.70757,-73.0443
154,-629,6.41516,53.151,0,0,0,0,0,0,0,-1,1378,1653,6.41517,-53.151
161,-629,10.5461,6.83752,0,0,0,0,0,0,0,-1,1385,1653,10.5461,-6.83758
168,-629,12.0059,5.56348,0,0,0,0,0,0,0,-1,1392,1653,12.0059,-5.56352
175,-629,5.84485,-1.78845,0,0,0,0,0,0,0,-1,1399,1653,5.84479,1.7884
182,-629,5.99036,-1.27783,0,0,0,0,0,0,0,-1,1406,1653,5.99041,1.27778
189,-629,5.97668,-0.748535,0,0,0,0,0,0,0,-1,1413,1653,5.97671,0.748544
196,-629,4.52869,9.24695,0,0,0,0,0,0,0,-1,1420,1653,4.52869,-9.2469
203,-629,3.75085,6.88037,0,0,0,0,0,0,0,-1,1427,1653,3.75087,-6.88032
210,-629,3.5907,6.52637,0,0,0,0,0,0,0,-1,1434,1653,3.59067,-6.52642
217,-629,2.4585,4.84448,0,0,0,0,0,0,0,-1,1441,1653,2.45855,-4.84448
224,-629,1.31982,3.68481,0,0,0,0,0,0,0,-1,1448,1653,1.31986,-3.68487
231,-629,3.63025,1.73499,0,0,0,0,0,0,0,-1,1455,1653,3.6303,-1.735
238,-629,4.26428,2.11255,0,0,0,0,0,0,0,-1,1462,1653,4.26429,-2.11253
245,-629,5.61816,1.95361,0,0,0,0,0,0,0,-1,1469,1653,5.61815,-1.95359
252,-629,7.27136,2.18982,0,0,0,0,0,0,0,-1,1476,1653,7.27131,-2.18985
259,-629,8.67334,2.18628,0,0,0,0,0,0,0,-1,1483,1653,8.6733,-2.18633
266,-629,6.86475,3.72058,0,0,0,0,0,0,0,-1,1490,1653,6.86479,-3.72063
273,-629,7.9021,3.8717,0,0,0,0,0,0,0,-1,1497,1653,7.90205,-3.87171
280,-629,9.70837,4.39087,0,0,0,0,0,0,0,-1,1504,1653,9.7084,-4.39082
287,-629,9.82947,7.19348,0,0,0,0,0,0,0,-1,1511,1653,9.8295,-7.19347
294,-629,6.56555,11.6359,0,0,0,0,0,0,0,-1,1518,1653,6.5656,-11.6358
301,-629,13.903,44.4862,0,0,0,0,0,0,0,-1,1525,1653,13.903,-44.4862
308,-629,6.08264,12.1423,0,0,0,0,0,0,0,-1,1532,1653,6.08263,-12.1423
315,-629,6.82043,18.2764,0,0,0,0,0,0,0,-1,1539,1653,6.82049,-18.2764
322,-629,14.1931,43.8071,0,0,0,0,0,0,0,-1,1546,1653,14.1931,-43.8071
329,-629,16.0791,57.0477,0,0,0,0,0,0,0,-1,1553,1653,16.0791,-57.0477
336,-629,15.7583,56.384,0,0,0,0,0,0,0,-1,1560,1653,15.7583,-56.384
343,-629,16.0425,55.8358,0,0,0,0,0,0,0,-1,1567,1653,16.0425,-55.8358
350,-629,16.1857,55.3091,0.01951,0.015415,-0.011519,0.029162,0.00576297,-0.697443,0.0178335,0.0351489,1574,1653,16.1856,-55.3091
357,-629,16.163,54.5555,0.0187478,0.0139287,-0.011111,0.0277075,0.004969,-0.67862,0.0170583,0.0175618,1581,1653,16.1629,-54.5556
364,-629,16.1365,53.9147,0.0175379,0.0125535,-0.0103217,0.0256639,0.00442737,-0.666939,0.0158411,0.014722,1588,1653,16.1364,-53.9146
371,-629,16.1218,53.2433,0.0159434,0.0109818,-0.00915417,0.022947,0.00397823,-0.653074,0.0141594,0.0126994,1595,1653,16.1218,-53.2433
378,-629,16.1019,52.5598,0.0140468,0.00936828,-0.00782446,0.0198742,0.00354087,-0.640144,0.0122411,0.01166,1602,1653,16.102,-52.5598
385,-629,16.0958,51.915,0.0121107,0.00771265,-0.00650813,0.0167813,0.00304208,-0.622474,0.010324,0.0129621,1609,1653,16.0958,-51.915
392,-629,16.0787,51.2462,0.00998806,0.0061906,-0.00523293,0.0136561,0.00252258,-0.611363,0.00839057,0.0113845,1616,1653,16.0787,-51.2462
399,-629,16.0557,50.5424,0.00791057,0.0048574,-0.00415383,0.0108095,0.00195852,-0.609303,0.0066503,0.0115512,1623,1653,16.0556,-50.5424
406,-629,16.0355,49.8412,0.00616788,0.00363025,-0.00330182,0.00843628,0.00136185,-0.601959,0.00522968,0.0151106,1630,1653,16.0356,-49.8412
413,-629,15.9929,49.1635,0.00472228,0.00254353,-0.00268183,0.00652754,0.00073827,-0.592476,0.00412767,0.0248627,1637,1653,15.9929,-49.1634
420,-629,15.9247,48.5082,0.00359013,0.00178541,-0.00237424,0.0052277,0.000147831,-0.603798,0.00343692,0.0234078,1644,1653,15.9247,-48.5081
427,-629,15.9532,47.8011,0.00272204,0.00106774,-0.00221753,0.00426166,-0.000471882,-0.606888,0.00301075,0.016536,1651,1653,15.9532,-47.8011
434,-629,15.9552,47.0769,0.00239406,0.00069897,-0.00249839,0.00418475,-0.00109172,-0.621871,0.00321611,0.0148402,1658,1653,15.9552,-47.0768
441,-629,15.8777,46.354,0.00242911,0.000390836,-0.00297965,0.00455909,-0.00173915,-0.620619,0.00375582,0.0160416,1665,1653,15.8777,-46.354
448,-629,15.8213,45.6067,0.00272155,2.85306e-05,-0.00354739,0.00516938,-0.0024193,-0.604009,0.0044762,0.0147208,1672,1653,15.8212,-45.6068
455,-629,15.7819,44.8583,0.00312215,-0.000372625,-0.00413296,0.00586194,-0.00311241,-0.585399,0.00526178,0.0148675,1679,1653,15.7818,-44.8582
462,-629,15.7885,44.1863,0.00353135,-0.000897167,-0.00482039,0.00662172,-0.00398753,-0.570096,0.00618787,0.022114,1686,1653,15.7885,-44.1863
469,-629,15.79,43.4132,0.00404865,-0.00117664,-0.00562742,0.00764034,-0.00476833,-0.56807,0.00722783,0.0364363,1693,1653,15.79,-43.4132
476,-629,15.89,42.6055,0,0,0,0,0,0,0,-1,1700,1653,15.8901,-42.6055
483,-629,14.0381,30.967,0,0,0,0,0,0,0,-1,1707,1653,14.0381,-30.9671
490,-629,13.9072,28.8588,0,0,0,0,0,0,0,-1,1714,1653,13.9072,-28.8587
497,-629,10.3662,19.8605,0,0,0,0,0,0,0,-1,1721,1653,10.3662,-19.8605
504,-629,7.89453,15.5316,0,0,0,0,0,0,0,-1,1728,1653,7.89447,-15.5316
511,-629,6.29138,3.40295,0,0,0,0,0,0,0,-1,1735,1653,6.29137,-3.403
518,-629,5.84387,1.41858,0,0,0,0,0,0,0,-1,1742,1653,5.84391,-1.4186
525,-629,6.4729,1.02319,0,0,0,0,0,0,0,-1,1749,1653,6.47284,-1.02316
532,-629,6.86511,0.903687,0,0,0,0,0,0,0,-1,1756,1653,6.86514,-0.903691
539,-629,6.60803,0.746704,0,0,0,0,0,0,0,-1,1763,1653,6.60809,-0.746691
546,-629,0,0,0,0,0,0,0,0,0,-1,1770,1653,0,0
553,-629,0,0,0,0,0,0,0,0,0,-1,1777,1653,0,0
560,-629,0,0,0,0,0,0,0,0,0,-1,1784,1653,0,0
567,-629,0,0,0,0,0,0,0,0,0,-1,1791,1653,0,0
574,-629,0,0,0,0,0,0,0,0,0,-1,1798,1653,0,0
581,-629,0,0,0,0,0,0,0,0,0,-1,1805,1653,0,0
588,-629,0,0,0,0,0,0,0,0,0,-1,1812,1653,0,0
595,-629,0,0,0,0,0,0,0,0,0,-1,1819,1653,0,0
602,-629,0,0,0,0,0,0,0,0,0,-1,1826,1653,0,0
609,-629,0,0,0,0,0,0,0,0,0,-1,1833,1653,0,0
616,-629,0,0,0,0,0,0,0,0,0,-1,1840,1653,0,0
623,-629,0,0,0,0,0,0,0,0,0,-1,1847,1653,0,0
630,-629,0,0,0,0,0,0,0,0,0,-1,1854,1653,0,0
637,-629,0,0,0,0,0,0,0,0,0,-1,1861,1653,0,0
644,-629,0,0,0,0,0,0,0,0,0,-1,1868,1653,0,0
651,-629,0,0,0,0,0,0,0,0,0,-1,1875,1653,0,0
658,-629,0,0,0,0,0,0,0,0,0,-1,1882,1653,0,0
665,-629,0,0,0,0,0,0,0,0,0,-1,1889,1653,0,0
672,-629,0,0,0,0,0,0,0,0,0,-1,1896,1653,0,0
679,-629,0,0,0,0,0,0,0,0,0,-1,1903,1653,0,0
686,-629,0,0,0,0,0,0,0,0,0,-1,1910,1653,0,0
693,-629,0,0,0,0,0,0,0,0,0,-1,1917,1653,0,0
700,-629,0,0,0,0,0,0,0,0,0,-1,1924,1653,0,0
707,-629,0,0,0,0,0,0,0,0,0,-1,1931,1653,0,0
714,-629,0,0,0,0,0,0,0,0,0,-1,1938,1653,0,0
721,-629,0,0,0,0,0,0,0,0,0,-1,1945,1653,0,0
728,-629,0,0,0,0,0,0,0,0,0,-1,1952,1653,0,0
735,-629,0,0,0,0,0,0,0,0,0,-1,1959,1653,0,0
742,-629,0,0,0,0,0,0,0,0,0,-1,1966,1653,0,0
749,-629,0,0,0,0,0,0,0,0,0,-1,1973,1653,0,0
756,-629,0,0,0,0,0,0,0,0,0,-1,1980,1653,0,0
763,-629,0,0,0,0,0,0,0,0,0,-1,1987,1653,0,0
770,-629,0,0,0,0,0,0,0,0,0,-1,1994,1653,0,0
777,-629,0,0,0,0,0,0,0,0,0,-1,2001,1653,0,0
784,-629,0,0,0,0,0,0,0,0,0,-1,2008,1653,0,0
791,-629,0,0,0,0,0,0,0,0,0,-1,2015,1653,0,0
798,-629,0,0,0,0,0,0,0,0,0,-1,2022,1653,0,0
805,-629,0,0,0,0,0,0,0,0,0,-1,2029,1653,0,0
812,-629,0,0,0,0,0,0,0,0,0,-1,2036,1653,0,0
-700,-636,0,0,0,0,0,0,0,0,0,-1,524,1660,0,0
-693,-636,0,0,0,0,0,0,0,0,0,-1,531,1660,0,0
-686,-636,0,0,0,0,0,0,0,0,0,-1,538,1660,0,0
-679,-636,0,0,0,0,0,0,0,0,0,-1,545,1660,0,0
-672,-636,0,0,0,0,0,0,0,0,0,-1,552,1660,0,0
-665,-636,0,0,0,0,0,0,0,0,0,-1,559,1660,0,0
-658,-636,0,0,0,0,0,0,0,0,0,-1,566,1660,0,0
-651,-636,0,0,0,0,0,0,0,0,0,-1,573,1660,0,0
-644,-636,0,0,0,0,0,0,0,0,0,-1,580,1660,0,0
-637,-636,0,0,0,0,0,0,0,0,0,-1,587,1660,0,0
-630,-636,0,0,0,0,0,0,0,0,0,-1,594,1660,0,0
-623,-636,0,0,0,0,0,0,0,0,0,-1,601,1660,0,0
-616,-636,0,0,0,0,0,0,0,0,0,-1,608,1660,0,0
-609,-636,0,0,0,0,0,0,0,0,0,-1,615,1660,0,0
-602,-636,0,0,0,0,0,0,0,0,0,-1,622,1660,0,0
-595,-636,0,0,0,0,0,0,0,0,0,-1,629,1660,0,0
-588,-636,0,0,0,0,0,0,0,0,0,-1,636,1660,0,0
-581,-636,0,0,0,0,0,0,0,0,0,-1,643,1660,0,0
-574,-636,0,0,0,0,0,0,0,0,0,-1,650,1660,0,0
-567,-636,0,0,0,0,0,0,0,0,0,-1,657,1660,0,0
-560,-636,0,0,0,0,0,0,0,0,0,-1,664,1660,0,0
-553,-636,0,0,0,0,0,0,0,0,0,-1,671,1660,0,0
-546,-636,0,0,0,0,0,0,0,0,0,-1,678,1660,0,0
-539,-636,0,0,0,0,0,0,0,0,0,-1,685,1660,0,0
-532,-636,0,0,0,0,0,0,0,0,0,-1,692,1660,0,0
-525,-636,0,0,0,0,0,0,0,0,0,-1,699,1660,0,0
-518,-636,0,0,0,0,0,0,0,0,0,-1,706,1660,0,0
-511,-636,0,0,0,0,0,0,0,0,0,-1,713,1660,0,0
-504,-636,0,0,0,0,0,0,0,0,0,-1,720,1660,0,0
-497,-636,0,0,0,0,0,0,0,0,0,-1,727,1660,0,0
-490,-636,0,0,0,0,0,0,0,0,0,-1,734,1660,0,0
-483,-636,0,0,0,0,0,0,0,0,0,-1,741,1660,0,0
-476,-636,0,0,0,0,0,0,0,0,0,-1,748,1660,0,0
-469,-636,0,0,0,0,0,0,0,0,0,-1,755,1660,0,0
-462,-636,0,0,0,0,0,0,0,0,0,-1,762,1660,0,0
-455,-636,0,0,0,0,0,0,0,0,0,-1,769,1660,0,0
-448,-636,0,0,0,0,0,0,0,0,0,-1,776,1660,0,0
-441,-636,0,0,0,0,0,0,0,0,0,-1,783,1660,0,0
-434,-636,0,0,0,0,0,0,0,0,0,-1,790,1660,0,0
-427,-636,0,0,0,0,0,0,0,0,0,-1,797,1660,0,0
-420,-636,0,0,0,0,0,0,0,0,0,-1,804,1660,0,0
-413,-636,0,0,0,0,0,0,0,0,0,-1,811,1660,0,0
-406,-636,-0.591125,10.6943,0,0,0,0,0,0,0,-1,818,1660,-0.59115,-10.6943
-399,-636,0.0766602,11.2408,0,0,0,0,0,0,0,-1,825,1660,0.076685,-11.2409
-392,-636,0.75946,11.9233,0,0,0,0,0,0,0,-1,832,1660,0.759481,-11.9233
-385,-636,1.68878,12.517,0,0,0,0,0,0,0,-1,839,1660,1.6888,-12.5169
-378,-636,2.22107,13.0013,0,0,0,0,0,0,0,-1,846,1660,2.22107,-13.0014
-371,-636,2.52185,11.9684,0,0,0,0,0,0,0,-1,853,1660,2.52184,-11.9684
-364,-636,4.51947,14.8503,0,0,0,0,0,0,0,-1,860,1660,4.51949,-14.8504
-357,-636,4.55682,15.8809,0,0,0,0,0,0,0,-1,867,1660,4.55681,-15.8808
-350,-636,2.57788,36.7095,0,0,0,0,0,0,0,-1,874,1660,2.57785,-36.7094
-343,-636,2.68225,43.8962,0,0,0,0,0,0,0,-1,881,1660,2.68227,-43.8963
-336,-636,2.9743,44.2472,0.00493213,-0.00622206,0.00164936,0.00517091,-0.00646084,0.143771,0.00672934,0.0365853,888,1660,2.97431,-44.2472
-329,-636,3.01556,45.0281,0.00386713,-0.0043878,0.00127331,0.00405907,-0.00457975,0.149616,0.00499064,0.0186987,895,1660,3.01559,-45.028
-322,-636,2.92041,45.7782,0.00310919,-0.00267022,0.00113219,0.00332307,-0.0028841,0.186709,0.0035867,0.0131227,902,1660,2.92038,-45.7781
-315,-636,2.83978,46.5229,0.00270143,-0.00123482,0.00119443,0.00303551,-0.00156891,0.272734,0.00270294,0.0147421,909,1660,2.8398,-46.5229
-308,-636,2.81866,47.2843,0.00247268,1.11459e-06,0.00123754,0.0029858,-0.000512008,0.393055,0.00218133,0.0125275,916,1660,2.81867,-47.2843
-301,-636,2.78479,48.0129,0.00249492,0.00115546,0.00154566,0.00350971,0.000140675,0.580959,0.00229435,0.0124677,923,1660,2.78481,-48.013
-294,-636,2.71844,48.7448,0.00273049,0.00205783,0.001926,0.0043493,0.000439018,0.698956,0.00276484,0.0155839,930,1660,2.71845,-48.7447
-287,-636,2.69513,49.4664,0.00288528,0.00281642,0.00228666,0.00513777,0.000563924,0.777871,0.00325354,0.013079,937,1660,2.69515,-49.4664
-280,-636,2.6676,50.1621,0.00310891,0.00337242,0.00259657,0.00584058,0.000640757,0.810748,0.00369868,0.0123783,944,1660,2.66761,-50.1621
-273,-636,2.61804,50.8508,0.00350112,0.00371247,0.00276116,0.00636998,0.000843609,0.804525,0.00399525,0.0128463,951,1660,2.61803,-50.8509
-266,-636,2.58673,51.5702,0.00393536,0.00386949,0.00288233,0.00678494,0.00101991,0.779686,0.00422456,0.0139496,958,1660,2.58675,-51.5702
-259,-636,2.57019,52.3018,0.00433201,0.00403297,0.00288908,0.00707544,0.00128955,0.759545,0.00435128,0.0167196,965,1660,2.57019,-52.3017
-252,-636,2.5542,52.9495,0.00466429,0.00408612,0.0027233,0.0071138,0.0016366,0.73252,0.00430205,0.0128775,972,1660,2.55418,-52.9495
-245,-636,2.53186,53.6246,0.00493184,0.00390198,0.00251318,0.0069823,0.00185153,0.684351,0.0041768,0.0113145,979,1660,2.53183,-53.6246
-238,-636,2.52069,54.3036,0.00527026,0.00360245,0.00220179,0.00679077,0.00208194,0.604375,0.00401724,0.0131293,986,1660,2.52069,-54.3035
-231,-636,2.5152,54.9648,0.00559849,0.00329259,0.00186697,0.00663983,0.00225126,0.508786,0.00389914,0.0126312,993,1660,2.51522,-54.9649
-224,-636,2.51813,55.6113,0.00580747,0.00276501,0.00149929,0.00642213,0.00215035,0.389067,0.00377465,0.0105204,1000,1660,2.51815,-55.6113
-217,-636,2.50244,56.3109,0.00589134,0.00214595,0.00111522,0.00619825,0.00183904,0.268558,0.00367584,0.0176643,1007,1660,2.50246,-56.3109
-210,-636,2.48511,56.9198,0.00607182,0.00125007,0.000603234,0.00614614,0.00117575,0.12259,0.00376717,0.0278843,1014,1660,2.48513,-56.9198
-203,-636,2.46301,57.5592,0,0,0,0,0,0,0,-1,1021,1660,2.46303,-57.5592
-196,-636,2.73523,58.0487,0.00590777,-0.000962295,-0.000936381,0.00603312,-0.00108764,-0.133065,0.00442936,0.0339184,1028,1660,2.73522,-58.0486
-189,-636,2.6886,58.5901,0.00476611,-0.00197567,-0.00184871,0.00523978,-0.00244934,-0.25082,0.00453571,0.0372181,1035,1660,2.6886,-58.5901
-182,-636,2.67468,59.5992,0,0,0,0,0,0,0,-1,1042,1660,2.67465,-59.5992
-175,-636,2.82703,58.9026,0,0,0,0,0,0,0,-1,1049,1660,2.82706,-58.9026
-168,-636,3.87,56.0028,0,0,0,0,0,0,0,-1,1056,1660,3.87004,-56.0028
-161,-636,4.54553,56.2565,0,0,0,0,0,0,0,-1,1063,1660,4.5455,-56.2564
-154,-636,2.71875,59.7118,0,0,0,0,0,0,0,-1,1070,1660,2.71874,-59.7118
-147,-636,4.22656,55.8413,0,0,0,0,0,0,0,-1,1077,1660,4.22662,-55.8413
-140,-636,3.20886,57.1307,0,0,0,0,0,0,0,-1,1084,1660,3.20882,-57.1307
-133,-636,2.82764,57.9807,0,0,0,0,0,0,0,-1,1091,1660,2.82766,-57.9807
-126,-636,2.44653,58.8307,0,0,0,0,0,0,0,-1,1098,1660,2.44649,-58.8307
-119,-636,1.8667,13.8916,0,0,0,0,0,0,0,-1,1105,1660,1.86668,-13.8916
-112,-636,-1.24963,9.7998,0,0,0,0,0,0,0,-1,1112,1660,-1.24968,-9.79978
-105,-636,3.51624,4.72791,0,0,0,0,0,0,0,-1,1119,1660,3.51618,-4.7279
-98,-636,1.54504,5.11914,0,0,0,0,0,0,0,-1,1126,1660,1.54503,-5.11912
-91,-636,-1.87964,-2.25012,0,0,0,0,0,0,0,-1,1133,1660,-1.87966,2.25016
-84,-636,-2.84143,0.133667,0,0,0,0,0,0,0,-1,1140,1660,-2.84144,-0.133701
-77,-636,-3.57349,2.45935,0,0,0,0,0,0,0,-1,1147,1660,-3.57345,-2.45939
-70,-636,-4.23682,4.82312,0,0,0,0,0,0,0,-1,1154,1660,-4.23681,-4.82307
-63,-636,-2.21033,6.97168,0,0,0,0,0,0,0,-1,1161,1660,-2.21034,-6.97165
-56,-636,-2.51917,8.80359,0,0,0,0,0,0,0,-1,1168,1660,-2.51916,-8.80361
-49,-636,-3.13,10.4113,0,0,0,0,0,0,0,-1,1175,1660,-3.12996,-10.4112
-42,-636,-2.27771,4.90173,0,0,0,0,0,0,0,-1,1182,1660,-2.27775,-4.90173
-35,-636,-2.27698,5.89685,0,0,0,0,0,0,0,-1,1189,1660,-2.27695,-5.89686
-28,-636,-1.70654,4.83936,0,0,0,0,0,0,0,-1,1196,1660,-1.70656,-4.8393
-21,-636,4.24683,27.7834,0,0,0,0,0,0,0,-1,1203,1660,4.24687,-27.7835
-14,-636,5.3468,70.6627,0,0,0,0,0,0,0,-1,1210,1660,5.34679,-70.6627
-7,-636,4.2113,70.317,0,0,0,0,0,0,0,-1,1217,1660,4.21128,-70.317
0,-636,22.3197,74.7477,0,0,0,0,0,0,0,-1,1224,1660,22.3197,-74.7476
7,-636,20.9646,75.9829,-0.132481,0.00245029,0.0942344,0.05088,-0.180911,1.09607,0.140669,0.0461483,1231,1660,20.9646,-75.9829
14,-636,19.7002,76.5905,0,0,0,0,0,0,0,-1,1238,1660,19.7002,-76.5905
21,-636,18.2571,77.3704,0,0,0,0,0,0,0,-1,1245,1660,18.2571,-77.3704
28,-636,17.3188,78.1085,0,0,0,0,0,0,0,-1,1252,1660,17.3189,-78.1085
35,-636,17.1854,78.693,0,0,0,0,0,0,0,-1,1259,1660,17.1854,-78.6929
42,-636,15.7751,79.6655,0,0,0,0,0,0,0,-1,1266,1660,15.7751,-79.6655
49,-636,15.0626,79.028,-0.0724143,0.105952,0.00694492,0.106222,-0.0726843,1.53194,0.103895,0.0484993,1273,1660,15.0627,-79.028
56,-636,14.3475,78.3347,-0.0696884,0.120085,-0.00776686,0.120403,-0.0700058,-1.52996,0.111208,0.0462176,1280,1660,14.3475,-78.3347
63,-636,13.5686,77.6732,-0.0662324,0.131218,-0.0183876,0.132916,-0.0679301,-1.47873,0.117965,0.0434113,1287,1660,13.5685,-77.6732
70,-636,13.1366,77.28,-0.0644194,0.131115,-0.0213441,0.133418,-0.0667222,-1.46333,0.11767,0.0428618,1294,1660,13.1366,-77.2801
77,-636,12.6854,76.8384,-0.0613598,0.129154,-0.022474,0.131769,-0.0639751,-1.45495,0.11525,0.0463786,1301,1660,12.6854,-76.8383
84,-636,12.1021,76.3035,-0.0568699,0.125101,-0.0230556,0.127977,-0.0597456,-1.44671,0.110742,0.045258,1308,1660,12.1021,-76.3035
91,-636,11.5774,75.7294,-0.0513986,0.119204,-0.0255387,0.122945,-0.0551396,-1.42535,0.105272,0.0426958,1315,1660,11.5774,-75.7294
98,-636,11.157,75.2731,-0.0417537,0.115313,-0.0290039,0.120498,-0.0469384,-1.39391,0.0997304,0.04772,1322,1660,11.157,-75.2731
105,-636,10.7573,75.0005,0,0,0,0,0,0,0,-1,1329,1660,10.7573,-75.0004
112,-636,10.1531,75.3479,0,0,0,0,0,0,0,-1,1336,1660,10.1531,-75.3479
119,-636,9.84595,74.8071,-0.0106546,0.104701,-0.0452409,0.120327,-0.0262807,-1.23823,0.0902627,0.047195,1343,1660,9.84594,-74.8072
126,-636,9.71167,74.3508,0.00239948,0.100906,-0.056214,0.126392,-0.0230861,-1.14515,0.0929173,0.0468823,1350,1660,9.71169,-74.3509
133,-636,9.56592,73.8129,0.0177306,0.0942766,-0.0707472,0.13644,-0.0244326,-1.03335,0.100103,0.0442267,1357,1660,9.56589,-73.8129
140,-636,9.68457,73.2322,0.0344366,0.0831267,-0.0883617,0.150436,-0.0328725,-0.919821,0.112855,0.0414936,1364,1660,9.68458,-73.2321
147,-636,9.98474,72.5333,0.0534285,0.0653377,-0.108693,0.168239,-0.0494726,-0.812763,0.131783,0.0470449,1371,1660,9.98479,-72.5333
154,-636,10.4083,71.9282,0,0,0,0,0,0,0,-1,1378,1660,10.4083,-71.9282
161,-636,10.2961,7.13025,0,0,0,0,0,0,0,-1,1385,1660,10.2961,-7.13021
168,-636,11.7659,5.83899,0,0,0,0,0,0,0,-1,1392,1660,11.7658,-5.83899
175,-636,5.94592,-1.72888,0,0,0,0,0,0,0,-1,1399,1660,5.94598,1.72886
182,-636,5.93994,-1.11938,0,0,0,0,0,0,0,-1,1406,1660,5.93998,1.11936
189,-636,5.32544,11.9595,0,0,0,0,0,0,0,-1,1413,1660,5.32542,-11.9595
196,-636,5.3623,9.38025,0,0,0,0,0,0,0,-1,1420,1660,5.36225,-9.38027
203,-636,5.18542,9.02429,0,0,0,0,0,0,0,-1,1427,1660,5.18547,-9.0243
210,-636,4.09167,7.17041,0,0,0,0,0,0,0,-1,1434,1660,4.09173,-7.17041
217,-636,2.94897,5.28992,0,0,0,0,0,0,0,-1,1441,1660,2.94899,-5.28991
224,-636,1.49194,3.63916,0,0,0,0,0,0,0,-1,1448,1660,1.49197,-3.63918
231,-636,0.17749,2.24854,0,0,0,0,0,0,0,-1,1455,1660,0.177501,-2.24855
238,-636,-0.764648,1.00598,0,0,0,0,0,0,0,-1,1462,1660,-0.764704,-1.00595
245,-636,6.21204,1.18005,0,0,0,0,0,0,0,-1,1469,1660,6.21206,-1.18001
252,-636,7.70251,0.865723,0,0,0,0,0,0,0,-1,1476,1660,7.7025,-0.865692
259,-636,9.03601,0.787231,0,0,0,0,0,0,0,-1,1483,1660,9.03598,-0.787243
266,-636,10.1071,3.24109,0,0,0,0,0,0,0,-1,1490,1660,10.1071,-3.24103
273,-636,8.48535,5.02466,0,0,0,0,0,0,0,-1,1497,1660,8.48533,-5.02472
280,-636,11.908,32.0698,0,0,0,0,0,0,0,-1,1504,1660,11.9079,-32.0698
287,-636,12.1218,36.4158,0,0,0,0,0,0,0,-1,1511,1660,12.1218,-36.4158
294,-636,13.3706,44.9711,0,0,0,0,0,0,0,-1,1518,1660,13.3706,-44.9711
301,-636,15.5745,59.8364,0,0,0,0,0,0,0,-1,1525,1660,15.5744,-59.8365
308,-636,15.5452,59.2689,0,0,0,0,0,0,0,-1,1532,1660,15.5451,-59.2689
315,-636,15.4359,58.5886,0,0,0,0,0,0,0,-1,1539,1660,15.4359,-58.5886
322,-636,15.3827,57.7717,0,0,0,0,0,0,0,-1,1546,1660,15.3827,-57.7717
329,-636,15.4204,57.1663,0.0120061,0.012924,-0.00612229,0.0186046,0.00632561,-0.822811,0.0109231,0.0415403,1553,1660,15.4204,-57.1663
336,-636,15.2599,56.5491,0.0127721,0.0125718,-0.00697049,0.0196432,0.00570073,-0.778211,0.011669,0.034455,1560,1660,15.2599,-56.549
343,-636,15.4246,55.8347,0.0131387,0.0117976,-0.00732979,0.0198286,0.00510775,-0.739781,0.011888,0.0306391,1567,1660,15.4245,-55.8347
350,-636,15.4878,55.1957,0.0131281,0.0110892,-0.00753009,0.0197074,0.00450986,-0.718114,0.0119228,0.0134256,1574,1660,15.4877,-55.1957
357,-636,15.4695,54.5505,0.0127252,0.01007,-0.00746827,0.0189829,0.00381225,-0.697436,0.0115954,0.0107221,1581,1660,15.4694,-54.5506
364,-636,15.468,53.8949,0.011967,0.00910113,-0.00708725,0.0177647,0.00330342,-0.68565,0.01091,0.0109487,1588,1660,15.4681,-53.8948
371,-636,15.4579,53.2491,0.0109202,0.00798074,-0.00641295,0.0160297,0.00287125,-0.672753,0.00986958,0.00986636,1595,1660,15.4579,-53.2491
378,-636,15.4363,52.5848,0.00964297,0.00682291,-0.00557956,0.0139879,0.00247796,-0.661633,0.00861885,0.0101509,1602,1660,15.4362,-52.5849
385,-636,15.4285,51.9165,0.0083342,0.00563974,-0.00475028,0.0119246,0.00204934,-0.647221,0.00736231,0.0147168,1609,1660,15.4285,-51.9165
392,-636,15.4071,51.25,0.0068434,0.0045266,-0.00392898,0.00978119,0.00158881,-0.642043,0.00606101,0.01587,1616,1660,15.4071,-51.25
399,-636,15.3823,50.5775,0.00536035,0.003572,-0.00325566,0.0078424,0.00108995,-0.651377,0.00490548,0.0129986,1623,1660,15.3824,-50.5775
406,-636,15.3508,49.891,0.00414851,0.00264975,-0.00274136,0.00624107,0.000557192,-0.651977,0.00398798,0.0154418,1630,1660,15.3508,-49.891
413,-636,15.3276,49.1802,0.00319763,0.00184647,-0.00245165,0.00506508,-2.09811e-05,-0.650954,0.00338374,0.024818,1637,1660,15.3276,-49.1802
420,-636,15.2552,48.5219,0.00249421,0.00132378,-0.00241349,0.00439242,-0.000574433,-0.666456,0.00313734,0.0253899,1644,1660,15.2553,-48.5219
427,-636,15.2571,47.8492,0.00219876,0.000913543,-0.00264107,0.00427428,-0.00116198,-0.666061,0.00330564,0.0167106,1651,1660,15.2571,-47.8492
434,-636,15.2386,47.1279,0.00235665,0.000789606,-0.0032103,0.00487766,-0.00173141,-0.665706,0.00395725,0.016121,1658,1660,15.2386,-47.1279
441,-636,15.1851,46.3928,0.0026038,0.000508375,-0.00381411,0.00551148,-0.00239931,-0.651358,0.00468363,0.0130001,1665,1660,15.1851,-46.3928
448,-636,15.1608,45.6509,0.0031797,0.000132452,-0.00454354,0.00644828,-0.00313612,-0.623621,0.00564262,0.0145289,1672,1660,15.1608,-45.6509
455,-636,15.1311,44.8954,0.00387493,-0.000284022,-0.00528812,0.00747774,-0.00388683,-0.598068,0.00666963,0.0187757,1679,1660,15.1311,-44.8954
462,-636,15.043,44.1689,0.00462268,-0.000868047,-0.0062139,0.00867066,-0.00491603,-0.577387,0.00794349,0.0296387,1686,1660,15.043,-44.1689
469,-636,15.0872,43.3167,0,0,0,0,0,0,0,-1,1693,1660,15.0871,-43.3166
476,-636,15.2583,42.1936,0,0,0,0,0,0,0,-1,1700,1660,15.2584,-42.1937
483,-636,11.3833,24.3958,0,0,0,0,0,0,0,-1,1707,1660,11.3833,-24.3957
490,-636,10.8951,23.9569,0,0,0,0,0,0,0,-1,1714,1660,10.8951,-23.9569
497,-636,9.55579,18.0111,0,0,0,0,0,0,0,-1,1721,1660,9.55574,-18.0111
504,-636,6.26428,19.4268,0,0,0,0,0,0,0,-1,1728,1660,6.26433,-19.4268
511,-636,5.65466,9.23218,0,0,0,0,0,0,0,-1,1735,1660,5.65461,-9.23216
518,-636,6.72791,1.07605,0,0,0,0,0,0,0,-1,1742,1660,6.7279,-1.0761
525,-636,7.04309,0.93335,0,0,0,0,0,0,0,-1,1749,1660,7.04308,-0.933298
532,-636,0,0,0,0,0,0,0,0,0,-1,1756,1660,0,0
539,-636,0,0,0,0,0,0,0,0,0,-1,1763,1660,0,0
546,-636,0,0,0,0,0,0,0,0,0,-1,1770,1660,0,0
553,-636,0,0,0,0,0,0,0,0,0,-1,1777,1660,0,0
560,-636,0,0,0,0,0,0,0,0,0,-1,1784,1660,0,0
567,-636,0,0,0,0,0,0,0,0,0,-1,1791,1660,0,0
574,-636,0,0,0,0,0,0,0,0,0,-1,1798,1660,0,0
581,-636,0,0,0,0,0,0,0,0,0,-1,1805,1660,0,0
588,-636,0,0,0,0,0,0,0,0,0,-1,1812,1660,0,0
595,-636,0,0,0,0,0,0,0,0,0,-1,1819,1660,0,0
602,-636,0,0,0,0,0,0,0,0,0,-1,1826,1660,0,0
609,-636,0,0,0,0,0,0,0,0,0,-1,1833,1660,0,0
616,-636,0,0,0,0,0,0,0,0,0,-1,1840,1660,0,0
623,-636,0,0,0,0,0,0,0,0,0,-1,1847,1660,0,0
630,-636,0,0,0,0,0,0,0,0,0,-1,1854,1660,0,0
637,-636,0,0,0,0,0,0,0,0,0,-1,1861,1660,0,0
644,-636,0,0,0,0,0,0,0,0,0,-1,1868,1660,0,0
651,-636,0,0,0,0,0,0,0,0,0,-1,1875,1660,0,0
658,-636,0,0,0,0,0,0,0,0,0,-1,1882,1660,0,0
665,-636,0,0,0,0,0,0,0,0,0,-1,1889,1660,0,0
672,-636,0,0,0,0,0,0,0,0,0,-1,1896,1660,0,0
679,-636,0,0,0,0,0,0,0,0,0,-1,1903,1660,0,0
686,-636,0,0,0,0,0,0,0,0,0,-1,1910,1660,0,0
693,-636,0,0,0,0,0,0,0,0,0,-1,1917,1660,0,0
700,-636,0,0,0,0,0,0,0,0,0,-1,1924,1660,0,0
707,-636,0,0,0,0,0,0,0,0,0,-1,1931,1660,0,0
714,-636,0,0,0,0,0,0,0,0,0,-1,1938,1660,0,0
721,-636,0,0,0,0,0,0,0,0,0,-1,1945,1660,0,0
728,-636,0,0,0,0,0,0,0,0,0,-1,1952,1660,0,0
735,-636,0,0,0,0,0,0,0,0,0,-1,1959,1660,0,0
742,-636,0,0,0,0,0,0,0,0,0,-1,1966,1660,0,0
749,-636,0,0,0,0,0,0,0,0,0,-1,1973,1660,0,0
756,-636,0,0,0,0,0,0,0,0,0,-1,1980,1660,0,0
763,-636,0,0,0,0,0,0,0,0,0,-1,1987,1660,0,0
770,-636,0,0,0,0,0,0,0,0,0,-1,1994,1660,0,0
777,-636,0,0,0,0,0,0,0,0,0,-1,2001,1660,0,0
784,-636,0,0,0,0,0,0,0,0,0,-1,2008,1660,0,0
791,-636,0,0,0,0,0,0,0,0,0,-1,2015,1660,0,0
798,-636,0,0,0,0,0,0,0,0,0,-1,2022,1660,0,0
805,-636,0,0,0,0,0,0,0,0,0,-1,2029,1660,0,0
812,-636,0,0,0,0,0,0,0,0,0,-1,2036,1660,0,0
-700,-643,0,0,0,0,0,0,0,0,0,-1,524,1667,0,0
-693,-643,0,0,0,0,0,0,0,0,0,-1,531,1667,0,0
-686,-643,0,0,0,0,0,0,0,0,0,-1,538,1667,0,0
-679,-643,0,0,0,0,0,0,0,0,0,-1,545,1667,0,0
-672,-643,0,0,0,0,0,0,0,0,0,-1,552,1667,0,0
-665,-643,0,0,0,0,0,0,0,0,0,-1,559,1667,0,0
-658,-643,0,0,0,0,0,0,0,0,0,-1,566,1667,0,0
-651,-643,0,0,0,0,0,0,0,0,0,-1,573,1667,0,0
-644,-643,0,0,0,0,0,0,0,0,0,-1,580,1667,0,0
-637,-643,0,0,0,0,0,0,0,0,0,-1,587,1667,0,0
-630,-643,0,0,0,0,0,0,0,0,0,-1,594,1667,0,0
-623,-643,0,0,0,0,0,0,0,0,0,-1,601,1667,0,0
-616,-643,0,0,0,0,0,0,0,0,0,-1,608,1667,0,0
-609,-643,0,0,0,0,0,0,0,0,0,-1,615,1667,0,0
-602,-643,0,0,0,0,0,0,0,0,0,-1,622,1667,0,0
-595,-643,0,0,0,0,0,0,0,0,0,-1,629,1667,0,0
-588,-643,0,0,0,0,0,0,0,0,0,-1,636,1667,0,0
-581,-643,0,0,0,0,0,0,0,0,0,-1,643,1667,0,0
-574,-643,0,0,0,0,0,0,0,0,0,-1,650,1667,0,0
-567,-643,0,0,0,0,0,0,0,0,0,-1,657,1667,0,0
-560,-643,0,0,0,0,0,0,0,0,0,-1,664,1667,0,0
-553,-643,0,0,0,0,0,0,0,0,0,-1,671,1667,0,0
-546,-643,0,0,0,0,0,0,0,0,0,-1,678,1667,0,0
-539,-643,0,0,0,0,0,0,0,0,0,-1,685,1667,0,0
-532,-643,0,0,0,0,0,0,0,0,0,-1,692,1667,0,0
-525,-643,0,0,0,0,0,0,0,0,0,-1,699,1667,0,0
-518,-643,0,0,0,0,0,0,0,0,0,-1,706,1667,0,0
-511,-643,0,0,0,0,0,0,0,0,0,-1,713,1667,0,0
-504,-643,0,0,0,0,0,0,0,0,0,-1,720,1667,0,0
-497,-643,0,0,0,0,0,0,0,0,0,-1,727,1667,0,0
-490,-643,0,0,0,0,0,0,0,0,0,-1,734,1667,0,0
-483,-643,0,0,0,0,0,0,0,0,0,-1,741,1667,0,0
-476,-643,0,0,0,0,0,0,0,0,0,-1,748,1667,0,0
-469,-643,0,0,0,0,0,0,0,0,0,-1,755,1667,0,0
-462,-643,0,0,0,0,0,0,0,0,0,-1,762,1667,0,0
-455,-643,0,0,0,0,0,0,0,0,0,-1,769,1667,0,0
-448,-643,0,0,0,0,0,0,0,0,0,-1,776,1667,0,0
-441,-643,0,0,0,0,0,0,0,0,0,-1,783,1667,0,0
-434,-643,0,0,0,0,0,0,0,0,0,-1,790,1667,0,0
-427,-643,0,0,0,0,0,0,0,0,0,-1,797,1667,0,0
-420,-643,0,0,0,0,0,0,0,0,0,-1,804,1667,0,0
-413,-643,0,0,0,0,0,0,0,0,0,-1,811,1667,0,0
-406,-643,0,0,0,0,0,0,0,0,0,-1,818,1667,0,0
-399,-643,0.589417,11.6465,0,0,0,0,0,0,0,-1,825,1667,0.58939,-11.6465
-392,-643,0.865295,12.6523,0,0,0,0,0,0,0,-1,832,1667,0.865315,-12.6523
-385,-643,1.72968,13.2692,0,0,0,0,0,0,0,-1,839,1667,1.72967,-13.2692
-378,-643,2.66522,13.8193,0,0,0,0,0,0,0,-1,846,1667,2.66524,-13.8193
-371,-643,0.466125,3.35095,0,0,0,0,0,0,0,-1,853,1667,0.466148,-3.351
-364,-643,1.69513,9.922,0,0,0,0,0,0,0,-1,860,1667,1.69511,-9.92205
-357,-643,1.14227,10.8429,0,0,0,0,0,0,0,-1,867,1667,1.14228,-10.8429
-350,-643,4.48804,36.1799,0,0,0,0,0,0,0,-1,874,1667,4.48801,-36.1799
-343,-643,3.57642,43.6594,0,0,0,0,0,0,0,-1,881,1667,3.57641,-43.6594
-336,-643,3.5921,44.4417,0.0064334,-0.00671015,0.00131894,0.00656445,-0.0068412,0.0990332,0.00774031,0.0488296,888,1667,3.5921,-44.4417
-329,-643,3.69055,45.0891,0.005203,-0.00414974,0.00110461,0.00533169,-0.00427843,0.115979,0.0055595,0.0400114,895,1667,3.69056,-45.0892
-322,-643,3.64972,45.8932,0.00427521,-0.00204979,0.00108426,0.00445591,-0.0022305,0.165146,0.00393103,0.0299285,902,1667,3.64971,-45.8932
-315,-643,3.53589,46.614,0.00361945,-0.000452395,0.00123203,0.00396321,-0.000796151,0.272097,0.00294363,0.0199964,909,1667,3.53588,-46.614
-308,-643,3.54028,47.3004,0.00314571,0.000797165,0.00131082,0.00373131,0.000211559,0.420146,0.00242011,0.0138421,916,1667,3.54031,-47.3004
-301,-643,3.51245,48.0371,0.00291063,0.00184195,0.00161801,0.00408025,0.000672325,0.625914,0.00252606,0.0151764,923,1667,3.51248,-48.0371
-294,-643,3.44061,48.7678,0.00288818,0.00254695,0.00197334,0.00469826,0.000736864,0.742275,0.00291773,0.0135107,930,1667,3.44061,-48.7678
-287,-643,3.41644,49.4911,0.00279542,0.00306467,0.00229172,0.00522571,0.000634376,0.814737,0.00329278,0.010863,937,1667,3.41643,-49.4911
-280,-643,3.37604,50.1907,0.00275238,0.00335797,0.00253262,0.00560583,0.00050452,0.844894,0.00358091,0.0144392,944,1667,3.37606,-50.1907
-273,-643,3.32422,50.8943,0.0029009,0.00343485,0.00263396,0.00581533,0.000520418,0.835905,0.00371558,0.0129744,951,1667,3.32419,-50.8943
-266,-643,3.27203,51.5977,0.00312371,0.00341155,0.00267519,0.00594669,0.000588572,0.812271,0.00378356,0.0133877,958,1667,3.27201,-51.5976
-259,-643,3.24463,52.2975,0.00332286,0.00337737,0.0026026,0.00595286,0.000747367,0.790634,0.00374439,0.0140707,965,1667,3.24463,-52.2974
-252,-643,3.23755,52.9855,0.00347333,0.00326119,0.00235672,0.00572637,0.00100816,0.76291,0.00352985,0.0148512,972,1667,3.23756,-52.9855
-245,-643,3.19928,53.6593,0.00355859,0.00290924,0.00211205,0.00537077,0.00109705,0.709133,0.00327663,0.012456,979,1667,3.1993,-53.6593
-238,-643,3.20728,54.3309,0.00375683,0.00246032,0.00177002,0.00499358,0.00122358,0.609864,0.0030054,0.0165503,986,1667,3.2073,-54.3309
-231,-643,3.18396,55.0117,0.00403856,0.00224472,0.00143462,0.00483356,0.00144971,0.506029,0.00286416,0.0125654,993,1667,3.18393,-55.0117
-224,-643,3.18402,55.6268,0.00429378,0.00185148,0.00108582,0.00470671,0.00143855,0.363402,0.00278502,0.00986905,1000,1667,3.18402,-55.6269
-217,-643,3.16528,56.2263,0.00448561,0.00138858,0.000740453,0.00465354,0.00122065,0.223015,0.00278608,0.00869036,1007,1667,3.16528,-56.2263
-210,-643,3.13232,56.8866,0.00473634,0.000724055,0.000310712,0.00476026,0.000700136,0.0768297,0.00296779,0.0124099,1014,1667,3.1323,-56.8866
-203,-643,3.1178,57.5754,0.00503912,-3.76259e-05,-0.000255531,0.00505195,-5.04553e-05,-0.0501646,0.00338491,0.0161785,1021,1667,3.11779,-57.5754
-196,-643,3.14624,58.1582,0.00493793,-0.000826744,-0.000809967,0.00504957,-0.000938386,-0.136973,0.00371885,0.0173691,1028,1667,3.14624,-58.1582
-189,-643,3.26636,58.751,0.00421886,-0.00143121,-0.00151323,0.00459862,-0.00181097,-0.24588,0.00381546,0.0214501,1035,1667,3.26642,-58.751
-182,-643,3.27405,59.3723,0.00358362,-0.00135757,-0.00212864,0.00437415,-0.0021481,-0.355592,0.00383803,0.0369746,1042,1667,3.2741,-59.3723
-175,-643,3.36462,60.0066,0,0,0,0,0,0,0,-1,1049,1667,3.36467,-60.0066
-168,-643,3.42285,60.6306,0,0,0,0,0,0,0,-1,1056,1667,3.42279,-60.6306
-161,-643,3.09717,61.0161,0,0,0,0,0,0,0,-1,1063,1667,3.09716,-61.0161
-154,-643,3.21838,61.5138,0,0,0,0,0,0,0,-1,1070,1667,3.21834,-61.5138
-147,-643,3.22937,62.0654,0,0,0,0,0,0,0,-1,1077,1667,3.22932,-62.0654
-140,-643,2.87488,62.6578,0,0,0,0,0,0,0,-1,1084,1667,2.87492,-62.6579
-133,-643,2.32495,61.5938,0,0,0,0,0,0,0,-1,1091,1667,2.32497,-61.5937
-126,-643,3.28662,58.6659,0,0,0,0,0,0,0,-1,1098,1667,3.28657,-58.6658
-119,-643,3.76282,14.1458,0,0,0,0,0,0,0,-1,1105,1667,3.76283,-14.1458
-112,-643,3.81458,16.2069,0,0,0,0,0,0,0,-1,1112,1667,3.81463,-16.2069
-105,-643,-2.23413,10.0996,0,0,0,0,0,0,0,-1,1119,1667,-2.23415,-10.0996
-98,-643,3.11035,4.68066,0,0,0,0,0,0,0,-1,1126,1667,3.11041,-4.68071
-91,-643,-1.74146,-2.5885,0,0,0,0,0,0,0,-1,1133,1667,-1.74146,2.58856
-84,-643,-3.07446,-0.199341,0,0,0,0,0,0,0,-1,1140,1667,-3.07449,0.199383
-77,-643,-3.63794,2.81165,0,0,0,0,0,0,0,-1,1147,1667,-3.63791,-2.8117
-70,-643,-3.36938,4.45203,0,0,0,0,0,0,0,-1,1154,1667,-3.36941,-4.452
-63,-643,-3.67822,6.26855,0,0,0,0,0,0,0,-1,1161,1667,-3.67823,-6.26856
-56,-643,-3.95142,8.1073,0,0,0,0,0,0,0,-1,1168,1667,-3.95139,-8.10732
-49,-643,-4.23535,9.90552,0,0,0,0,0,0,0,-1,1175,1667,-4.23537,-9.90557
-42,-643,-4.25195,10.7059,0,0,0,0,0,0,0,-1,1182,1667,-4.25192,-10.706
-35,-643,-4.10986,11.6588,0,0,0,0,0,0,0,-1,1189,1667,-4.10982,-11.6589
-28,-643,-1.38513,5.604,0,0,0,0,0,0,0,-1,1196,1667,-1.3851,-5.60403
-21,-643,1.61011,23.1276,0,0,0,0,0,0,0,-1,1203,1667,1.61011,-23.1275
-14,-643,13.2256,68.0854,0,0,0,0,0,0,0,-1,1210,1667,13.2256,-68.0855
-7,-643,22.7059,74.8185,0,0,0,0,0,0,0,-1,1217,1667,22.706,-74.8184
0,-643,21.5911,75.1011,-0.177892,0.0204304,0.0686759,0.0418898,-0.199351,1.26794,0.148842,0.0491827,1224,1667,21.5911,-75.1011
7,-643,20.2986,75.9323,-0.159257,0.0488632,0.0601715,0.0650076,-0.175401,1.30866,0.143595,0.0442457,1231,1667,20.2986,-75.9323
14,-643,19.052,76.5779,0,0,0,0,0,0,0,-1,1238,1667,19.0521,-76.5779
21,-643,17.173,77.2418,0,0,0,0,0,0,0,-1,1245,1667,17.173,-77.2419
28,-643,16.7264,77.1492,0,0,0,0,0,0,0,-1,1252,1667,16.7265,-77.1491
35,-643,16.4192,77.3783,0,0,0,0,0,0,0,-1,1259,1667,16.4192,-77.3783
42,-643,15.4667,78.6053,0,0,0,0,0,0,0,-1,1266,1667,15.4667,-78.6053
49,-643,14.7506,77.9376,-0.0825191,0.139064,-0.00539239,0.139195,-0.0826503,-1.54648,0.129462,0.0482747,1273,1667,14.7506,-77.9377
56,-643,14.0553,77.3226,-0.0751756,0.150061,-0.0148039,0.15103,-0.0761444,-1.50545,0.133514,0.0471429,1280,1667,14.0553,-77.3226
63,-643,12.8062,77.105,0,0,0,0,0,0,0,-1,1287,1667,12.8061,-77.1049
70,-643,12.7412,76.5898,-0.0644566,0.156826,-0.0251788,0.159655,-0.0672855,-1.45892,0.134593,0.0446173,1294,1667,12.7412,-76.5898
77,-643,12.8069,76.0942,-0.0603233,0.155011,-0.0266047,0.158249,-0.0635616,-1.44967,0.131894,0.043779,1301,1667,12.8069,-76.0942
84,-643,11.9934,75.6218,-0.0561582,0.150159,-0.026705,0.153559,-0.0595587,-1.44414,0.126971,0.0453176,1308,1667,11.9934,-75.6218
91,-643,11.5177,75.0226,-0.0515604,0.143674,-0.0279776,0.147604,-0.0554905,-1.43123,0.12121,0.0463276,1315,1667,11.5177,-75.0226
98,-643,11.1444,76.1041,-0.0426838,0.136643,-0.0294964,0.14137,-0.0474109,-1.41189,0.113404,0.0464647,1322,1667,11.1444,-76.1042
105,-643,10.9436,75.6621,-0.0339757,0.130186,-0.0313808,0.13598,-0.0397699,-1.38821,0.106417,0.0477278,1329,1667,10.9436,-75.6622
112,-643,10.1508,74.655,0,0,0,0,0,0,0,-1,1336,1667,10.1508,-74.655
119,-643,9.87512,74.1041,-0.0141605,0.119193,-0.041797,0.13121,-0.026178,-1.29083,0.0973795,0.045276,1343,1667,9.87515,-74.1041
126,-643,9.70459,73.5592,-0.00248836,0.114389,-0.0516154,0.13392,-0.022019,-1.20906,0.0974525,0.0448549,1350,1667,9.70453,-73.5592
133,-643,9.9624,73.2656,0.0111186,0.107469,-0.0649813,0.140185,-0.0215976,-1.10438,0.101426,0.0460722,1357,1667,9.96237,-73.2657
140,-643,10.3422,73.0416,0.0259258,0.0957805,-0.0813759,0.149408,-0.0277016,-0.988114,0.110008,0.041926,1364,1667,10.3421,-73.0416
147,-643,11.3049,72.1644,0.0407897,0.0776595,-0.0965302,0.157499,-0.0390501,-0.87975,0.12015,0.0436797,1371,1667,11.3049,-72.1645
154,-643,11.8607,71.6486,0,0,0,0,0,0,0,-1,1378,1667,11.8607,-71.6485
161,-643,5.57935,26.2754,0,0,0,0,0,0,0,-1,1385,1667,5.57931,-26.2754
168,-643,10.5563,10.9818,0,0,0,0,0,0,0,-1,1392,1667,10.5562,-10.9819
175,-643,5.88525,-1.1698,0,0,0,0,0,0,0,-1,1399,1667,5.88526,1.16977
182,-643,5.80945,-0.418701,0,0,0,0,0,0,0,-1,1406,1667,5.80949,0.418712
189,-643,5.42297,12.9208,0,0,0,0,0,0,0,-1,1413,1667,5.42298,-12.9208
196,-643,5.51953,11.2415,0,0,0,0,0,0,0,-1,1420,1667,5.51948,-11.2414
203,-643,5.60828,9.82153,0,0,0,0,0,0,0,-1,1427,1667,5.60833,-9.82148
210,-643,4.73218,7.58728,0,0,0,0,0,0,0,-1,1434,1667,4.73222,-7.58728
217,-643,3.8031,5.28955,0,0,0,0,0,0,0,-1,1441,1667,3.80305,-5.28955
224,-643,2.96436,2.97095,0,0,0,0,0,0,0,-1,1448,1667,2.96432,-2.97095
231,-643,2.13403,1.08472,0,0,0,0,0,0,0,-1,1455,1667,2.13403,-1.08467
238,-643,1.18152,-0.261963,0,0,0,0,0,0,0,-1,1462,1667,1.18152,0.26192
245,-643,-0.157471,-1.79016,0,0,0,0,0,0,0,-1,1469,1667,-0.157517,1.7901
252,-643,8.08789,0.0202637,0,0,0,0,0,0,0,-1,1476,1667,8.08791,-0.0203056
259,-643,9.02979,-0.46936,0,0,0,0,0,0,0,-1,1483,1667,9.02974,0.46933
266,-643,4.55066,5.17554,0,0,0,0,0,0,0,-1,1490,1667,4.55063,-5.17556
273,-643,10.74,31.432,0,0,0,0,0,0,0,-1,1497,1667,10.7399,-31.4319
280,-643,12.1675,42.5023,0,0,0,0,0,0,0,-1,1504,1667,12.1675,-42.5023
287,-643,12.9725,46.299,0,0,0,0,0,0,0,-1,1511,1667,12.9725,-46.299
294,-643,15.0281,59.8208,0,0,0,0,0,0,0,-1,1518,1667,15.028,-59.8208
301,-643,14.8412,59.611,0.00546036,0.00881734,0.00161396,0.00946741,0.00481028,1.1879,0.00546625,0.043989,1525,1667,14.8412,-59.611
308,-643,14.844,58.9812,0.00531245,0.0085678,0.000710108,0.00871596,0.00516429,1.36511,0.00506079,0.0358908,1532,1667,14.844,-58.9812
315,-643,14.8065,58.392,0.00517841,0.00814493,7.17116e-06,0.00814494,0.00517839,1.56838,0.00475993,0.0317487,1539,1667,14.8066,-58.392
322,-643,14.8203,57.7515,0.00684861,0.00854793,-0.00194658,0.00982221,0.00557433,-0.991178,0.00568807,0.0198169,1546,1667,14.8203,-57.7514
329,-643,14.8217,57.0986,0.0081803,0.00884482,-0.00336451,0.0118934,0.00513168,-0.834616,0.00688815,0.0131385,1553,1667,14.8217,-57.0986
336,-643,14.7871,56.5011,0.00855234,0.00865928,-0.00404859,0.0126547,0.00455687,-0.792001,0.00740095,0.0127529,1560,1667,14.7872,-56.5011
343,-643,14.8021,55.8938,0.00873229,0.00824125,-0.0044923,0.0129858,0.00398777,-0.758099,0.0076811,0.0142324,1567,1667,14.8021,-55.8938
350,-643,14.8309,55.2271,0.00870608,0.00781393,-0.00486242,0.0131428,0.00337716,-0.739657,0.00788117,0.0124381,1574,1667,14.831,-55.227
357,-643,14.8126,54.5767,0.00846233,0.00715103,-0.00501058,0.01286,0.00275339,-0.720341,0.00781883,0.0107451,1581,1667,14.8126,-54.5767
364,-643,14.8115,53.9354,0.00795928,0.00647841,-0.00489193,0.0121665,0.0022712,-0.710289,0.00746992,0.0097635,1588,1667,14.8115,-53.9354
371,-643,14.7968,53.3086,0.00725355,0.00569322,-0.00455669,0.0110964,0.00185039,-0.700614,0.00686443,0.00805321,1595,1667,14.7968,-53.3086
378,-643,14.7562,52.6606,0.00638374,0.00487229,-0.00406595,0.0097636,0.00149243,-0.693513,0.00607303,0.0100665,1602,1667,14.7563,-52.6606
385,-643,14.7483,51.9866,0.00549805,0.00405501,-0.00358002,0.00842853,0.00112452,-0.685959,0.00528422,0.016265,1609,1667,14.7483,-51.9866
392,-643,14.743,51.2993,0.00446143,0.003275,-0.00310271,0.00702712,0.000709301,-0.690942,0.00446713,0.0174316,1616,1667,14.7431,-51.2993
399,-643,14.6965,50.6576,0.00343378,0.00262292,-0.0027439,0.00580204,0.000254657,-0.712051,0.003786,0.0157004,1623,1667,14.6965,-50.6576
406,-643,14.6783,49.9486,0.00263669,0.00196359,-0.0025038,0.00482646,-0.000226175,-0.718591,0.00329562,0.0141875,1630,1667,14.6783,-49.9486
413,-643,14.6741,49.2246,0.00209117,0.00139721,-0.00250464,0.00427275,-0.000784364,-0.716569,0.00314275,0.0203771,1637,1667,14.674,-49.2246
420,-643,14.5991,48.5563,0.00176178,0.00110039,-0.00271382,0.00416497,-0.0013028,-0.724769,0.00329784,0.0194649,1644,1667,14.5991,-48.5563
427,-643,14.5796,47.874,0.00199707,0.000987534,-0.00333372,0.00486402,-0.00187941,-0.710262,0.00401842,0.0159097,1651,1667,14.5796,-47.874
434,-643,14.541,47.16,0.0026461,0.00111236,-0.00422507,0.00617333,-0.00241487,-0.695623,0.00511423,0.0174621,1658,1667,14.541,-47.16
441,-643,14.4858,46.4191,0.00315353,0.000848122,-0.00499714,0.00712919,-0.00312754,-0.672044,0.0060701,0.0177413,1665,1667,14.4858,-46.4191
448,-643,14.4939,45.6747,0.00407569,0.000405185,-0.0059341,0.00845185,-0.00397098,-0.635427,0.0073262,0.0236896,1672,1667,14.4939,-45.6747
455,-643,14.4301,45.0862,0.0051398,-0.000139126,-0.00686056,0.00985112,-0.00485045,-0.601761,0.00865008,0.0308959,1679,1667,14.4301,-45.0862
462,-643,14.5562,44.3584,0.00621772,-0.00098246,-0.00795383,0.0113483,-0.00611301,-0.572881,0.0102312,0.0429879,1686,1667,14.5561,-44.3584
469,-643,14.7019,43.5708,0,0,0,0,0,0,0,-1,1693,1667,14.702,-43.5708
476,-643,10.5598,24.5066,0,0,0,0,0,0,0,-1,1700,1667,10.5598,-24.5065
483,-643,10.4502,24.3062,0,0,0,0,0,0,0,-1,1707,1667,10.4502,-24.3062
490,-643,10.6885,24.1522,0,0,0,0,0,0,0,-1,1714,1667,10.6884,-24.1522
497,-643,10.9073,23.9465,0,0,0,0,0,0,0,-1,1721,1667,10.9074,-23.9465
504,-643,8.05591,19.0656,0,0,0,0,0,0,0,-1,1728,1667,8.0559,-19.0655
511,-643,7.74719,18.1564,0,0,0,0,0,0,0,-1,1735,1667,7.74724,-18.1563
518,-643,7.40564,0.922607,0,0,0,0,0,0,0,-1,1742,1667,7.4057,-0.922598
525,-643,0,0,0,0,0,0,0,0,0,-1,1749,1667,0,0
532,-643,0,0,0,0,0,0,0,0,0,-1,1756,1667,0,0
539,-643,0,0,0,0,0,0,0,0,0,-1,1763,1667,0,0
546,-643,0,0,0,0,0,0,0,0,0,-1,1770,1667,0,0
553,-643,0,0,0,0,0,0,0,0,0,-1,1777,1667,0,0
560,-643,0,0,0,0,0,0,0,0,0,-1,1784,1667,0,0
567,-643,0,0,0,0,0,0,0,0,0,-1,1791,1667,0,0
574,-643,0,0,0,0,0,0,0,0,0,-1,1798,1667,0,0
581,-643,0,0,0,0,0,0,0,0,0,-1,1805,1667,0,0
588,-643,0,0,0,0,0,0,0,0,0,-1,1812,1667,0,0
595,-643,0,0,0,0,0,0,0,0,0,-1,1819,1667,0,0
602,-643,0,0,0,0,0,0,0,0,0,-1,1826,1667,0,0
609,-643,0,0,0,0,0,0,0,0,0,-1,1833,1667,0,0
616,-643,0,0,0,0,0,0,0,0,0,-1,1840,1667,0,0
623,-643,0,0,0,0,0,0,0,0,0,-1,1847,1667,0,0
630,-643,0,0,0,0,0,0,0,0,0,-1,1854,1667,0,0
637,-643,0,0,0,0,0,0,0,0,0,-1,1861,1667,0,0
644,-643,0,0,0,0,0,0,0,0,0,-1,1868,1667,0,0
651,-643,0,0,0,0,0,0,0,0,0,-1,1875,1667,0,0
658,-643,0,0,0,0,0,0,0,0,0,-1,1882,1667,0,0
665,-643,0,0,0,0,0,0,0,0,0,-1,1889,1667,0,0
672,-643,0,0,0,0,0,0,0,0,0,-1,1896,1667,0,0
679,-643,0,0,0,0,0,0,0,0,0,-1,1903,1667,0,0
686,-643,0,0,0,0,0,0,0,0,0,-1,1910,1667,0,0
693,-643,0,0,0,0,0,0,0,0,0,-1,1917,1667,0,0
700,-643,0,0,0,0,0,0,0,0,0,-1,1924,1667,0,0
707,-643,0,0,0,0,0,0,0,0,0,-1,1931,1667,0,0
714,-643,0,0,0,0,0,0,0,0,0,-1,1938,1667,0,0
721,-643,0,0,0,0,0,0,0,0,0,-1,1945,1667,0,0
728,-643,0,0,0,0,0,0,0,0,0,-1,1952,1667,0,0
735,-643,0,0,0,0,0,0,0,0,0,-1,1959,1667,0,0
742,-643,0,0,0,0,0,0,0,0,0,-1,1966,1667,0,0
749,-643,0,0,0,0,0,0,0,0,0,-1,1973,1667,0,0
756,-643,0,0,0,0,0,0,0,0,0,-1,1980,1667,0,0
763,-643,0,0,0,0,0,0,0,0,0,-1,1987,1667,0,0
770,-643,0,0,0,0,0,0,0,0,0,-1,1994,1667,0,0
777,-643,0,0,0,0,0,0,0,0,0,-1,2001,1667,0,0
784,-643,0,0,0,0,0,0,0,0,0,-1,2008,1667,0,0
791,-643,0,0,0,0,0,0,0,0,0,-1,2015,1667,0,0
798,-643,0,0,0,0,0,0,0,0,0,-1,2022,1667,0,0
805,-643,0,0,0,0,0,0,0,0,0,-1,2029,1667,0,0
812,-643,0,0,0,0,0,0,0,0,0,-1,2036,1667,0,0
-700,-650,0,0,0,0,0,0,0,0,0,-1,524,1674,0,0
-693,-650,0,0,0,0,0,0,0,0,0,-1,531,1674,0,0
-686,-650,0,0,0,0,0,0,0,0,0,-1,538,1674,0,0
-679,-650,0,0,0,0,0,0,0,0,0,-1,545,1674,0,0
-672,-650,0,0,0,0,0,0,0,0,0,-1,552,1674,0,0
-665,-650,0,0,0,0,0,0,0,0,0,-1,559,1674,0,0
-658,-650,0,0,0,0,0,0,0,0,0,-1,566,1674,0,0
-651,-650,0,0,0,0,0,0,0,0,0,-1,573,1674,0,0
-644,-650,0,0,0,0,0,0,0,0,0,-1,580,1674,0,0
-637,-650,0,0,0,0,0,0,0,0,0,-1,587,1674,0,0
-630,-650,0,0,0,0,0,0,0,0,0,-1,594,1674,0,0
-623,-650,0,0,0,0,0,0,0,0,0,-1,601,1674,0,0
-616,-650,0,0,0,0,0,0,0,0,0,-1,608,1674,0,0
-609,-650,0,0,0,0,0,0,0,0,0,-1,615,1674,0,0
-602,-650,0,0,0,0,0,0,0,0,0,-1,622,1674,0,0
-595,-650,0,0,0,0,0,0,0,0,0,-1,629,1674,0,0
-588,-650,0,0,0,0,0,0,0,0,0,-1,636,1674,0,0
-581,-650,0,0,0,0,0,0,0,0,0,-1,643,1674,0,0
-574,-650,0,0,0,0,0,0,0,0,0,-1,650,1674,0,0
-567,-650,0,0,0,0,0,0,0,0,0,-1,657,1674,0,0
-560,-650,0,0,0,0,0,0,0,0,0,-1,664,1674,0,0
-553,-650,0,0,0,0,0,0,0,0,0,-1,671,1674,0,0
-546,-650,0,0,0,0,0,0,0,0,0,-1,678,1674,0,0
-539,-650,0,0,0,0,0,0,0,0,0,-1,685,1674,0,0
-532,-650,0,0,0,0,0,0,0,0,0,-1,692,1674,0,0
-525,-650,0,0,0,0,0,0,0,0,0,-1,699,1674,0,0
-518,-650,0,0,0,0,0,0,0,0,0,-1,706,1674,0,0
-511,-650,0,0,0,0,0,0,0,0,0,-1,713,1674,0,0
-504,-650,0,0,0,0,0,0,0,0,0,-1,720,1674,0,0
-497,-650,0,0,0,0,0,0,0,0,0,-1,727,1674,0,0
-490,-650,0,0,0,0,0,0,0,0,0,-1,734,1674,0,0
-483,-650,0,0,0,0,0,0,0,0,0,-1,741,1674,0,0
-476,-650,0,0,0,0,0,0,0,0,0,-1,748,1674,0,0
-469,-650,0,0,0,0,0,0,0,0,0,-1,755,1674,0,0
-462,-650,0,0,0,0,0,0,0,0,0,-1,762,1674,0,0
-455,-650,0,0,0,0,0,0,0,0,0,-1,769,1674,0,0
-448,-650,0,0,0,0,0,0,0,0,0,-1,776,1674,0,0
-441,-650,0,0,0,0,0,0,0,0,0,-1,783,1674,0,0
-434,-650,0,0,0,0,0,0,0,0,0,-1,790,1674,0,0
-427,-650,0,0,0,0,0,0,0,0,0,-1,797,1674,0,0
-420,-650,0,0,0,0,0,0,0,0,0,-1,804,1674,0,0
-413,-650,0,0,0,0,0,0,0,0,0,-1,811,1674,0,0
-406,-650,0,0,0,0,0,0,0,0,0,-1,818,1674,0,0
-399,-650,0,0,0,0,0,0,0,0,0,-1,825,1674,0,0
-392,-650,5.44415,6.85669,0,0,0,0,0,0,0,-1,832,1674,5.44414,-6.85674
-385,-650,1.74451,14.0183,0,0,0,0,0,0,0,-1,839,1674,1.74453,-14.0183
-378,-650,0.997986,4.11108,0,0,0,0,0,0,0,-1,846,1674,0.998006,-4.11113
-371,-650,-1.80096,3.78625,0,0,0,0,0,0,0,-1,853,1674,-1.80094,-3.78625
-364,-650,-2.95679,2.57507,0,0,0,0,0,0,0,-1,860,1674,-2.95681,-2.57506
-357,-650,5.76074,34.531,0,0,0,0,0,0,0,-1,867,1674,5.76077,-34.531
-350,-650,5.11011,35.4972,0,0,0,0,0,0,0,-1,874,1674,5.1101,-35.4971
-343,-650,5.20538,37.4165,0,0,0,0,0,0,0,-1,881,1674,5.20538,-37.4166
-336,-650,4.22784,44.5947,0,0,0,0,0,0,0,-1,888,1674,4.22783,-44.5948
-329,-650,4.4483,45.3339,0,0,0,0,0,0,0,-1,895,1674,4.44831,-45.3339
-322,-650,4.36688,46.0394,0.00595319,-0.000640864,0.000793213,0.00604727,-0.000734939,0.118049,0.00429749,0.0450767,902,1674,4.36687,-46.0395
-315,-650,4.27734,46.675,0.00515715,0.00124255,0.00123737,0.00551548,0.000884231,0.281873,0.00342055,0.039746,909,1674,4.27736,-46.675
-308,-650,4.22162,47.3422,0.00449546,0.00256811,0.00152714,0.00533757,0.00172601,0.503935,0.00314509,0.023736,916,1674,4.22162,-47.3421
-301,-650,4.22205,48.0864,0.00398209,0.00347995,0.00191323,0.00566066,0.00180139,0.720157,0.00333939,0.0129366,923,1674,4.22205,-48.0864
-294,-650,4.17474,48.8201,0.00366176,0.00393494,0.00229081,0.00609323,0.00150348,0.815176,0.00366526,0.00985237,930,1674,4.17473,-48.8201
-287,-650,4.12244,49.525,0.00328757,0.00414125,0.00259206,0.00634137,0.00108744,0.867002,0.00391576,0.013182,937,1674,4.12245,-49.525
-280,-650,4.07184,50.2152,0.00294016,0.00409797,0.00277349,0.00635233,0.000685802,0.888285,0.0040258,0.0158631,944,1674,4.07184,-50.2152
-273,-650,4.01831,50.9435,0.00279456,0.00384388,0.00280325,0.00617114,0.00046729,0.877908,0.00396752,0.0151419,951,1674,4.01829,-50.9435
-266,-650,3.95087,51.65,0.00276488,0.0035662,0.00276215,0.0059566,0.000374482,0.857422,0.00385231,0.0129204,958,1674,3.9509,-51.65
-259,-650,3.91309,52.3098,0.0027386,0.00329011,0.00259993,0.00562888,0.000399842,0.838232,0.00362666,0.0165867,965,1674,3.91311,-52.3098
-252,-650,3.8941,52.9978,0.00267878,0.00296965,0.00226438,0.00509326,0.00055517,0.817468,0.00322641,0.0147564,972,1674,3.89411,-52.9978
-245,-650,3.87054,53.6545,0.00254389,0.00242872,0.00198578,0.00447292,0.000499688,0.770903,0.00283012,0.0124547,979,1674,3.87055,-53.6546
-238,-650,3.8371,54.3456,0.00256541,0.00180556,0.00160579,0.00383562,0.000535361,0.669236,0.00239862,0.0135164,986,1674,3.83711,-54.3456
-231,-650,3.81445,55.0314,0.00276786,0.00163776,0.00123716,0.0035629,0.000842721,0.571179,0.00215013,0.0186076,993,1674,3.81445,-55.0314
-224,-650,3.81116,55.6816,0.00300512,0.00129227,0.000881576,0.00337777,0.000919615,0.399935,0.00201647,0.0151085,1000,1674,3.81114,-55.6817
-217,-650,3.80927,56.2703,0.00321309,0.000918239,0.000549099,0.00333771,0.00079362,0.22317,0.00201343,0.0098086,1007,1674,3.80927,-56.2702
-210,-650,3.78485,56.8922,0.00348725,0.000419638,0.000181475,0.00349795,0.00040894,0.0588845,0.00220831,0.0102385,1014,1674,3.78484,-56.8922
-203,-650,3.79419,57.5125,0.00382927,-0.000139875,-0.00022546,0.00384203,-0.000152641,-0.0565606,0.00261372,0.0151198,1021,1674,3.7942,-57.5124
-196,-650,3.78955,58.1317,0.00388622,-0.000738885,-0.000647704,0.00397522,-0.000827877,-0.136542,0.00296488,0.0139973,1028,1674,3.78955,-58.1318
-189,-650,3.80273,58.739,0.00348339,-0.00113897,-0.00121367,0.00378267,-0.00143826,-0.241774,0.00311396,0.0126623,1035,1674,3.80275,-58.7391
-182,-650,3.87769,59.3777,0.00314007,-0.000978953,-0.00174974,0.003783,-0.00162188,-0.352129,0.00320258,0.0164323,1042,1674,3.87773,-59.3777
-175,-650,3.87,59.8943,0.00289032,-0.000714061,-0.00211281,0.00386515,-0.00168889,-0.432287,0.00328766,0.0270121,1049,1674,3.87003,-59.8943
-168,-650,3.84827,60.4545,0.00225221,-0.000150966,-0.00250796,0.00383157,-0.00173032,-0.562,0.00328666,0.0311536,1056,1674,3.84829,-60.4545
-161,-650,3.76672,60.9359,0.00142809,0.00117397,-0.00308656,0.0043902,-0.00178815,-0.764827,0.00367101,0.0377387,1063,1674,3.76672,-60.9359
-154,-650,3.84912,61.4855,0.000513806,0.00263322,-0.00366735,0.0053909,-0.00224387,-0.926046,0.00453104,0.0370632,1070,1674,3.84912,-61.4855
-147,-650,3.87341,62.0587,-0.000595531,0.00467118,-0.00423164,0.00702194,-0.00294629,-1.06373,0.00591333,0.0456267,1077,1674,3.87342,-62.0588
-140,-650,3.55737,62.7476,-0.00181156,0.00715433,-0.00490224,0.00931433,-0.00397156,-1.15577,0.00787464,0.0468365,1084,1674,3.55734,-62.7476
-133,-650,3.38599,63.6866,0,0,0,0,0,0,0,-1,1091,1674,3.38604,-63.6866
-126,-650,3.67334,62.924,0,0,0,0,0,0,0,-1,1098,1674,3.67329,-62.924
-119,-650,5.16663,20.6232,0,0,0,0,0,0,0,-1,1105,1674,5.16665,-20.6232
-112,-650,3.86292,14.4513,0,0,0,0,0,0,0,-1,1112,1674,3.8629,-14.4513
-105,-650,7.92102,38.1313,0,0,0,0,0,0,0,-1,1119,1674,7.92104,-38.1314
-98,-650,3.3761,6.78003,0,0,0,0,0,0,0,-1,1126,1674,3.37611,-6.78009
-91,-650,3.66809,7.04443,0,0,0,0,0,0,0,-1,1133,1674,3.66806,-7.04439
-84,-650,-3.82666,-1.59521,0,0,0,0,0,0,0,-1,1140,1674,-3.82661,1.59517
-77,-650,-4.70557,1.90198,0,0,0,0,0,0,0,-1,1147,1674,-4.7056,-1.90194
-70,-650,-4.88171,3.81653,0,0,0,0,0,0,0,-1,1154,1674,-4.88176,-3.81651
-63,-650,-5.14612,5.56543,0,0,0,0,0,0,0,-1,1161,1674,-5.14612,-5.56547
-56,-650,-5.38367,7.41101,0,0,0,0,0,0,0,-1,1168,1674,-5.38361,-7.41102
-49,-650,-5.11316,8.23706,0,0,0,0,0,0,0,-1,1175,1674,-5.11317,-8.23708
-42,-650,-4.99487,9.6792,0,0,0,0,0,0,0,-1,1182,1674,-4.99484,-9.67921
-35,-650,-4.77771,11.3369,0,0,0,0,0,0,0,-1,1189,1674,-4.77769,-11.3369
-28,-650,-4.1936,13.1501,0,0,0,0,0,0,0,-1,1196,1674,-4.19358,-13.1501
-21,-650,7.52466,48.5822,0,0,0,0,0,0,0,-1,1203,1674,7.52469,-48.5821
-14,-650,6.11377,68.813,0,0,0,0,0,0,0,-1,1210,1674,6.1138,-68.813
-7,-650,21.8187,75.5111,0,0,0,0,0,0,0,-1,1217,1674,21.8187,-75.5111
0,-650,20.7914,75.4586,-0.164149,0.0369388,0.0494101,0.0484236,-0.175633,1.34241,0.136132,0.043088,1224,1674,20.7914,-75.4586
7,-650,19.5468,75.8896,-0.148984,0.0592922,0.0427805,0.067737,-0.157429,1.3759,0.133393,0.0422976,1231,1674,19.5467,-75.8896
14,-650,17.2571,76.5135,0,0,0,0,0,0,0,-1,1238,1674,17.2571,-76.5135
21,-650,16.7645,76.4366,-0.118345,0.100095,0.0233464,0.102563,-0.120812,1.4655,0.129109,0.0458093,1245,1674,16.7645,-76.4366
28,-650,16.298,76.354,-0.105847,0.116783,0.0126782,0.117503,-0.106567,1.51409,0.129418,0.0411202,1252,1674,16.298,-76.354
35,-650,15.8071,76.4736,-0.0952979,0.127849,0.00281542,0.127885,-0.0953335,1.55818,0.129331,0.0409381,1259,1674,15.8072,-76.4737
42,-650,15.2877,76.4425,0,0,0,0,0,0,0,-1,1266,1674,15.2878,-76.4425
49,-650,14.9471,76.2657,-0.0780572,0.143322,-0.0110786,0.143875,-0.0786103,-1.52092,0.130281,0.044986,1273,1674,14.9472,-76.2658
56,-650,14.1388,75.9108,-0.0704289,0.153381,-0.0172029,0.154696,-0.0717435,-1.49453,0.133627,0.0487113,1280,1674,14.1388,-75.9108
63,-650,13.3551,74.9656,-0.0636801,0.159833,-0.0228162,0.162139,-0.0659854,-1.4701,0.135551,0.0467238,1287,1674,13.3551,-74.9655
70,-650,12.5253,75.9513,0,0,0,0,0,0,0,-1,1294,1674,12.5252,-75.9514
77,-650,12.7471,75.3018,-0.0546452,0.15591,-0.0265502,0.159207,-0.0579415,-1.44728,0.129835,0.0459759,1301,1674,12.7471,-75.3017
84,-650,11.9828,74.72,-0.0513623,0.152751,-0.02674,0.156196,-0.0548073,-1.44267,0.126424,0.0475748,1308,1674,11.9828,-74.72
91,-650,11.3807,74.3246,-0.0480842,0.148214,-0.0276411,0.152032,-0.0519022,-1.43354,0.122381,0.0487802,1315,1674,11.3808,-74.3246
98,-650,10.8578,74.3196,-0.0408742,0.141806,-0.0281168,0.146036,-0.0451038,-1.42149,0.115369,0.042821,1322,1674,10.8578,-74.3196
105,-650,10.6582,73.9822,-0.0335248,0.13557,-0.0291353,0.14045,-0.0384041,-1.40487,0.108719,0.046435,1329,1674,10.6582,-73.9822
112,-650,10.2664,73.644,0,0,0,0,0,0,0,-1,1336,1674,10.2663,-73.644
119,-650,9.90649,73.1563,-0.0166932,0.123228,-0.0368938,0.13236,-0.0258253,-1.32815,0.0979894,0.0427529,1343,1674,9.9065,-73.1563
126,-650,9.6947,72.5132,-0.00710617,0.118033,-0.0448926,0.132472,-0.021545,-1.25962,0.0963032,0.0472467,1350,1674,9.69473,-72.5132
133,-650,9.25208,71.7361,0,0,0,0,0,0,0,-1,1357,1674,9.2521,-71.7361
140,-650,12.0664,72.1902,0,0,0,0,0,0,0,-1,1364,1674,12.0664,-72.1902
147,-650,12.6177,71.7244,0,0,0,0,0,0,0,-1,1371,1674,12.6177,-71.7244
154,-650,13.1691,71.2585,0,0,0,0,0,0,0,-1,1378,1674,13.169,-71.2586
161,-650,4.09106,30.3021,0,0,0,0,0,0,0,-1,1385,1674,4.09104,-30.3021
168,-650,11.2113,7.87231,0,0,0,0,0,0,0,-1,1392,1674,11.2113,-7.87236
175,-650,5.62537,-0.230713,0,0,0,0,0,0,0,-1,1399,1674,5.62538,0.230745
182,-650,5.56006,0.421631,0,0,0,0,0,0,0,-1,1406,1674,5.56,-0.421652
189,-650,4.81543,11.0654,0,0,0,0,0,0,0,-1,1413,1674,4.81542,-11.0654
196,-650,5.39575,11.9077,0,0,0,0,0,0,0,-1,1420,1674,5.39575,-11.9078
203,-650,3.93628,11.8215,0,0,0,0,0,0,0,-1,1427,1674,3.93624,-11.8216
210,-650,5.40955,8.08594,0,0,0,0,0,0,0,-1,1434,1674,5.40958,-8.086
217,-650,5.12451,4.69739,0,0,0,0,0,0,0,-1,1441,1674,5.12451,-4.69738
224,-650,4.79041,1.45813,0,0,0,0,0,0,0,-1,1448,1674,4.79046,-1.45816
231,-650,4.04102,-0.642212,0,0,0,0,0,0,0,-1,1455,1674,4.04101,0.642209
238,-650,3.23022,-1.43396,0,0,0,0,0,0,0,-1,1462,1674,3.23023,1.43394
245,-650,1.65894,-2.55042,0,0,0,0,0,0,0,-1,1469,1674,1.65889,2.55036
252,-650,8.75342,0.355103,0,0,0,0,0,0,0,-1,1476,1674,8.75337,-0.355147
259,-650,5.61255,3.17566,0,0,0,0,0,0,0,-1,1483,1674,5.61257,-3.17572
266,-650,4.00403,6.10229,0,0,0,0,0,0,0,-1,1490,1674,4.00401,-6.10225
273,-650,11.9524,42.7109,0,0,0,0,0,0,0,-1,1497,1674,11.9524,-42.7109
280,-650,12.3011,46.7283,0,0,0,0,0,0,0,-1,1504,1674,12.3011,-46.7283
287,-650,14.1521,60.2821,0,0,0,0,0,0,0,-1,1511,1674,14.1521,-60.2821
294,-650,14.1974,59.9979,0.00583239,0.00624281,0.00143024,0.00748248,0.00459271,0.856651,0.00435715,0.0479189,1518,1674,14.1974,-59.9979
301,-650,14.1334,59.4081,0.0052643,0.00599713,0.00127893,0.0069611,0.00430033,0.924911,0.00405598,0.0355865,1525,1674,14.1334,-59.408
308,-650,14.1606,58.8842,0.00483013,0.00573755,0.000746109,0.00615707,0.00441061,1.05858,0.00366403,0.0205064,1532,1674,14.1606,-58.8842
315,-650,14.1949,58.3418,0.0044206,0.00555229,0.000279885,0.00561773,0.00435517,1.34112,0.00340328,0.0139893,1539,1674,14.1949,-58.3418
322,-650,14.1858,57.7645,0.00484282,0.00583518,-0.000795713,0.00627674,0.00440126,-1.06418,0.00372039,0.01221,1546,1674,14.1858,-57.7645
329,-650,14.2069,57.1024,0.00526263,0.00605243,-0.00166862,0.00737224,0.00394282,-0.901591,0.0042598,0.0161574,1553,1674,14.2069,-57.1024
336,-650,14.2004,56.5203,0.00534304,0.00598044,-0.00217539,0.00786035,0.00346313,-0.858133,0.00454884,0.0143466,1560,1674,14.2004,-56.5203
343,-650,14.1964,55.9246,0.00533182,0.00580009,-0.00260732,0.00818376,0.00294814,-0.830178,0.00478603,0.0135867,1567,1674,14.1964,-55.9245
350,-650,14.1937,55.2743,0.00525784,0.00555694,-0.00304345,0.00845451,0.00236027,-0.809948,0.0050374,0.0152235,1574,1674,14.1937,-55.2743
357,-650,14.1589,54.6111,0.00509656,0.0051091,-0.00328984,0.00839267,0.00181298,-0.786351,0.00509937,0.0130687,1581,1674,14.159,-54.6111
364,-650,14.1578,53.9692,0.00477078,0.00460485,-0.00332311,0.00801195,0.00136367,-0.772918,0.00494976,0.00897352,1588,1674,14.1579,-53.9693
371,-650,14.1233,53.3193,0.00433238,0.00402252,-0.00323027,0.00741143,0.000943468,-0.761435,0.00465842,0.0108656,1595,1674,14.1233,-53.3193
378,-650,14.0656,52.6666,0.00380235,0.0034177,-0.00301126,0.00662741,0.000592633,-0.753507,0.00423458,0.013392,1602,1674,14.0655,-52.6666
385,-650,14.0571,52.0159,0.00328467,0.0028487,-0.00282101,0.00589611,0.000237263,-0.746839,0.00385409,0.0152026,1609,1674,14.0571,-52.0159
392,-650,14.0358,51.337,0.00266748,0.00231665,-0.00266135,0.00515919,-0.00017506,-0.75249,0.00349928,0.0192727,1616,1674,14.0358,-51.337
399,-650,14.0122,50.6731,0.00208381,0.00188699,-0.00260067,0.00458793,-0.000617136,-0.766487,0.00328372,0.0179222,1623,1674,14.0121,-50.673
406,-650,13.9784,49.9872,0.0016966,0.00145245,-0.00260834,0.00418571,-0.00103667,-0.762014,0.00319264,0.0163847,1630,1674,13.9783,-49.9872
413,-650,13.9594,49.2957,0.00153721,0.0010824,-0.00289001,0.00420875,-0.00158914,-0.746135,0.00345943,0.0167806,1637,1674,13.9594,-49.2956
420,-650,13.8976,48.6353,0.00154985,0.00105048,-0.00334576,0.00465523,-0.0020549,-0.748154,0.00396988,0.0167299,1644,1674,13.8975,-48.6353
427,-650,13.8721,47.9392,0.0022484,0.00127361,-0.00430858,0.00609707,-0.00257506,-0.729076,0.00514265,0.0153715,1651,1674,13.872,-47.9392
434,-650,13.8221,47.2229,0.00327033,0.00167391,-0.00543061,0.00796108,-0.00301684,-0.712429,0.00654887,0.0232997,1658,1674,13.8222,-47.2229
441,-650,13.8285,46.359,0.00406023,0.00146857,-0.00638965,0.00928413,-0.00375533,-0.685355,0.00775062,0.0431495,1665,1674,13.8285,-46.359
448,-650,13.7455,45.4447,0,0,0,0,0,0,0,-1,1672,1674,13.7455,-45.4447
455,-650,13.7568,45.3385,0,0,0,0,0,0,0,-1,1679,1674,13.7568,-45.3386
462,-650,13.7372,44.7065,0,0,0,0,0,0,0,-1,1686,1674,13.7372,-44.7065
469,-650,11.3628,29.8889,0,0,0,0,0,0,0,-1,1693,1674,11.3628,-29.8889
476,-650,10.9189,27.1289,0,0,0,0,0,0,0,-1,1700,1674,10.919,-27.1289
483,-650,10.2426,24.5127,0,0,0,0,0,0,0,-1,1707,1674,10.2425,-24.5127
490,-650,10.4818,24.3475,0,0,0,0,0,0,0,-1,1714,1674,10.4818,-24.3475
497,-650,10.4985,20.1362,0,0,0,0,0,0,0,-1,1721,1674,10.4986,-20.1362
504,-650,9.69458,18.7721,0,0,0,0,0,0,0,-1,1728,1674,9.6946,-18.772
511,-650,9.37158,17.7506,0,0,0,0,0,0,0,-1,1735,1674,9.37159,-17.7506
518,-650,0,0,0,0,0,0,0,0,0,-1,1742,1674,0,0
525,-650,0,0,0,0,0,0,0,0,0,-1,1749,1674,0,0
532,-650,0,0,0,0,0,0,0,0,0,-1,1756,1674,0,0
539,-650,0,0,0,0,0,0,0,0,0,-1,1763,1674,0,0
546,-650,0,0,0,0,0,0,0,0,0,-1,1770,1674,0,0
553,-650,0,0,0,0,0,0,0,0,0,-1,1777,1674,0,0
560,-650,0,0,0,0,0,0,0,0,0,-1,1784,1674,0,0
567,-650,0,0,0,0,0,0,0,0,0,-1,1791,1674,0,0
574,-650,0,0,0,0,0,0,0,0,0,-1,1798,1674,0,0
581,-650,0,0,0,0,0,0,0,0,0,-1,1805,1674,0,0
588,-650,0,0,0,0,0,0,0,0,0,-1,1812,1674,0,0
595,-650,0,0,0,0,0,0,0,0,0,-1,1819,1674,0,0
602,-650,0,0,0,0,0,0,0,0,0,-1,1826,1674,0,0
609,-650,0,0,0,0,0,0,0,0,0,-1,1833,1674,0,0
616,-650,0,0,0,0,0,0,0,0,0,-1,1840,1674,0,0
623,-650,0,0,0,0,0,0,0,0,0,-1,1847,1674,0,0
630,-650,0,0,0,0,0,0,0,0,0,-1,1854,1674,0,0
637,-650,0,0,0,0,0,0,0,0,0,-1,1861,1674,0,0
644,-650,0,0,0,0,0,0,0,0,0,-1,1868,1674,0,0
651,-650,0,0,0,0,0,0,0,0,0,-1,1875,1674,0,0
658,-650,0,0,0,0,0,0,0,0,0,-1,1882,1674,0,0
665,-650,0,0,0,0,0,0,0,0,0,-1,1889,1674,0,0
672,-650,0,0,0,0,0,0,0,0,0,-1,1896,1674,0,0
679,-650,0,0,0,0,0,0,0,0,0,-1,1903,1674,0,0
686,-650,0,0,0,0,0,0,0,0,0,-1,1910,1674,0,0
693,-650,0,0,0,0,0,0,0,0,0,-1,1917,1674,0,0
700,-650,0,0,0,0,0,0,0,0,0,-1,1924,1674,0,0
707,-650,0,0,0,0,0,0,0,0,0,-1,1931,1674,0,0
714,-650,0,0,0,0,0,0,0,0,0,-1,1938,1674,0,0
721,-650,0,0,0,0,0,0,0,0,0,-1,1945,1674,0,0
728,-650,0,0,0,0,0,0,0,0,0,-1,1952,1674,0,0
735,-650,0,0,0,0,0,0,0,0,0,-1,1959,1674,0,0
742,-650,0,0,0,0,0,0,0,0,0,-1,1966,1674,0,0
749,-650,0,0,0,0,0,0,0,0,0,-1,1973,1674,0,0
756,-650,0,0,0,0,0,0,0,0,0,-1,1980,1674,0,0
763,-650,0,0,0,0,0,0,0,0,0,-1,1987,1674,0,0
770,-650,0,0,0,0,0,0,0,0,0,-1,1994,1674,0,0
777,-650,0,0,0,0,0,0,0,0,0,-1,2001,1674,0,0
784,-650,0,0,0,0,0,0,0,0,0,-1,2008,1674,0,0
791,-650,0,0,0,0,0,0,0,0,0,-1,2015,1674,0,0
798,-650,0,0,0,0,0,0,0,0,0,-1,2022,1674,0,0
805,-650,0,0,0,0,0,0,0,0,0,-1,2029,1674,0,0
812,-650,0,0,0,0,0,0,0,0,0,-1,2036,1674,0,0
-700,-657,0,0,0,0,0,0,0,0,0,-1,524,1681,0,0
-693,-657,0,0,0,0,0,0,0,0,0,-1,531,1681,0,0
-686,-657,0,0,0,0,0,0,0,0,0,-1,538,1681,0,0
-679,-657,0,0,0,0,0,0,0,0,0,-1,545,1681,0,0
-672,-657,0,0,0,0,0,0,0,0,0,-1,552,1681,0,0
-665,-657,0,0,0,0,0,0,0,0,0,-1,559,1681,0,0
-658,-657,0,0,0,0,0,0,0,0,0,-1,566,1681,0,0
-651,-657,0,0,0,0,0,0,0,0,0,-1,573,1681,0,0
-644,-657,0,0,0,0,0,0,0,0,0,-1,580,1681,0,0
-637,-657,0,0,0,0,0,0,0,0,0,-1,587,1681,0,0
-630,-657,0,0,0,0,0,0,0,0,0,-1,594,1681,0,0
-623,-657,0,0,0,0,0,0,0,0,0,-1,601,1681,0,0
-616,-657,0,0,0,0,0,0,0,0,0,-1,608,1681,0,0
-609,-657,0,0,0,0,0,0,0,0,0,-1,615,1681,0,0
-602,-657,0,0,0,0,0,0,0,0,0,-1,622,1681,0,0
-595,-657,0,0,0,0,0,0,0,0,0,-1,629,1681,0,0
-588,-657,0,0,0,0,0,0,0,0,0,-1,636,1681,0,0
-581,-657,0,0,0,0,0,0,0,0,0,-1,643,1681,0,0
-574,-657,0,0,0,0,0,0,0,0,0,-1,650,1681,0,0
-567,-657,0,0,0,0,0,0,0,0,0,-1,657,1681,0,0
-560,-657,0,0,0,0,0,0,0,0,0,-1,664,1681,0,0
-553,-657,0,0,0,0,0,0,0,0,0,-1,671,1681,0,0
-546,-657,0,0,0,0,0,0,0,0,0,-1,678,1681,0,0
-539,-657,0,0,0,0,0,0,0,0,0,-1,685,1681,0,0
-532,-657,0,0,0,0,0,0,0,0,0,-1,692,1681,0,0
-525,-657,0,0,0,0,0,0,0,0,0,-1,699,1681,0,0
-518,-657,0,0,0,0,0,0,0,0,0,-1,706,1681,0,0
-511,-657,0,0,0,0,0,0,0,0,0,-1,713,1681,0,0
-504,-657,0,0,0,0,0,0,0,0,0,-1,720,1681,0,0
-497,-657,0,0,0,0,0,0,0,0,0,-1,727,1681,0,0
-490,-657,0,0,0,0,0,0,0,0,0,-1,734,1681,0,0
-483,-657,0,0,0,0,0,0,0,0,0,-1,741,1681,0,0
-476,-657,0,0,0,0,0,0,0,0,0,-1,748,1681,0,0
-469,-657,0,0,0,0,0,0,0,0,0,-1,755,1681,0,0
-462,-657,0,0,0,0,0,0,0,0,0,-1,762,1681,0,0
-455,-657,0,0,0,0,0,0,0,0,0,-1,769,1681,0,0
-448,-657,0,0,0,0,0,0,0,0,0,-1,776,1681,0,0
-441,-657,0,0,0,0,0,0,0,0,0,-1,783,1681,0,0
-434,-657,0,0,0,0,0,0,0,0,0,-1,790,1681,0,0
-427,-657,0,0,0,0,0,0,0,0,0,-1,797,1681,0,0
-420,-657,0,0,0,0,0,0,0,0,0,-1,804,1681,0,0
-413,-657,0,0,0,0,0,0,0,0,0,-1,811,1681,0,0
-406,-657,0,0,0,0,0,0,0,0,0,-1,818,1681,0,0
-399,-657,0,0,0,0,0,0,0,0,0,-1,825,1681,0,0
-392,-657,0,0,0,0,0,0,0,0,0,-1,832,1681,0,0
-385,-657,1.09814,6.18896,0,0,0,0,0,0,0,-1,839,1681,1.09814,-6.18894
-378,-657,0.31488,4.46753,0,0,0,0,0,0,0,-1,846,1681,0.31487,-4.46755
-371,-657,-0.519043,2.69421,0,0,0,0,0,0,0,-1,853,1681,-0.519064,-2.69422
-364,-657,-3.42017,4.18323,0,0,0,0,0,0,0,-1,860,1681,-3.42019,-4.18319
-357,-657,5.03418,34.7598,0,0,0,0,0,0,0,-1,867,1681,5.03417,-34.7597
-350,-657,4.23431,35.8203,0,0,0,0,0,0,0,-1,874,1681,4.23429,-35.8203
-343,-657,3.60156,36.754,0,0,0,0,0,0,0,-1,881,1681,3.60154,-36.754
-336,-657,3.67853,40.0931,0,0,0,0,0,0,0,-1,888,1681,3.67851,-40.0932
-329,-657,5.08069,45.4258,0,0,0,0,0,0,0,-1,895,1681,5.08069,-45.4257
-322,-657,5.07355,46.1747,0.00821731,0.00155524,-2.3013e-05,0.00821739,0.00155516,-0.00345427,0.00504049,0.0455783,902,1681,5.07354,-46.1747
-315,-657,5.05469,46.901,0.0072604,0.0038506,0.000910697,0.00748839,0.00362262,0.245302,0.00432418,0.0448259,909,1681,5.0547,-46.901
-308,-657,4.80011,47.5199,0.00645225,0.00529261,0.00161892,0.00759205,0.00415281,0.613439,0.00438972,0.0411665,916,1681,4.80014,-47.52
-301,-657,4.7821,48.1493,0.00573784,0.00613123,0.00229657,0.00823951,0.00362956,0.828117,0.00476829,0.0305095,923,1681,4.78207,-48.1493
-294,-657,4.82678,48.8462,0.00510493,0.00628948,0.00282202,0.0085807,0.00281371,0.888835,0.00505093,0.0161205,930,1681,4.8268,-48.8462
-287,-657,4.78003,49.5811,0.00443568,0.0061152,0.00320201,0.00858574,0.00196514,0.91364,0.0051942,0.0117311,937,1681,4.78001,-49.5811
-280,-657,4.73676,50.2679,0.00375305,0.00564426,0.00338368,0.00821198,0.00118533,0.921653,0.00512544,0.0146277,944,1681,4.73674,-50.268
-273,-657,4.68982,50.9902,0.00326683,0.00496879,0.00337587,0.00759928,0.000636339,0.908865,0.00486796,0.0113107,951,1681,4.68984,-50.9902
-266,-657,4.6358,51.6777,0.00299369,0.0043093,0.00324637,0.00696384,0.000339152,0.885359,0.00453374,0.0162115,958,1681,4.63578,-51.6778
-259,-657,4.63989,52.3286,0.00274672,0.0037158,0.00295928,0.00622995,0.000232572,0.866546,0.00407799,0.0208789,965,1681,4.63991,-52.3286
-252,-657,4.57281,53.0026,0.00245855,0.00314435,0.0025004,0.00532525,0.000277651,0.853543,0.00346133,0.0148574,972,1681,4.5728,-53.0025
-245,-657,4.52631,53.6855,0.00206461,0.0023628,0.00216746,0.00438629,4.11235e-05,0.819738,0.00291058,0.0160476,979,1681,4.5263,-53.6855
-238,-657,4.52954,54.361,0.00186724,0.00151672,0.001719,0.00341989,-3.59293e-05,0.734596,0.002292,0.020405,986,1681,4.52953,-54.361
-231,-657,4.51318,55.0255,0.00195057,0.00137313,0.00127801,0.00297207,0.000351633,0.674308,0.00187519,0.0211239,993,1681,4.51318,-55.0255
-224,-657,4.46545,55.7041,0.0021093,0.00104694,0.00088343,0.00260894,0.000547295,0.514723,0.00158861,0.0165123,1000,1681,4.46544,-55.7041
-217,-657,4.4444,56.3577,0.0022531,0.00074912,0.000536406,0.00242481,0.00057741,0.309804,0.00146257,0.0107748,1007,1681,4.44437,-56.3576
-210,-657,4.42822,56.9595,0.00244953,0.000391687,0.00020827,0.0024704,0.00037082,0.0998586,0.0015383,0.0119683,1014,1681,4.42825,-56.9595
-203,-657,4.41223,57.5686,0.0027264,-2.79027e-05,-8.48626e-05,0.00272902,-3.05149e-05,-0.030772,0.0018296,0.0139761,1021,1681,4.41226,-57.5686
-196,-657,4.39832,58.1815,0.00287434,-0.000468802,-0.000370489,0.00291491,-0.000509367,-0.109058,0.00213343,0.0145649,1028,1681,4.39831,-58.1815
-189,-657,4.42542,58.7762,0.00267596,-0.000759128,-0.000836804,0.00286896,-0.000952134,-0.226682,0.00229677,0.0111384,1035,1681,4.42546,-58.7763
-182,-657,4.42236,59.3646,0.0025302,-0.000597999,-0.00130871,0.0030055,-0.00107329,-0.348366,0.00244138,0.00994181,1042,1681,4.42232,-59.3646
-175,-657,4.448,59.942,0.00253843,-0.000329393,-0.00162701,0.00327322,-0.00106418,-0.4242,0.00261022,0.012711,1049,1681,4.44801,-59.942
-168,-657,4.41675,60.5266,0.00226929,0.000116694,-0.00200893,0.00347208,-0.00108609,-0.539477,0.00274921,0.0165902,1056,1681,4.41675,-60.5266
-161,-657,4.43091,61.0964,0.00195662,0.00104184,-0.00248642,0.00402737,-0.00102891,-0.694438,0.0030856,0.0167633,1063,1681,4.43088,-61.0964
-154,-657,4.52087,61.5887,0.00158426,0.00222505,-0.00297227,0.00489414,-0.00108483,-0.839088,0.00367809,0.015836,1070,1681,4.52087,-61.5887
-147,-657,4.55103,62.1031,0.00106816,0.00385932,-0.00341271,0.00615078,-0.0012233,-0.979491,0.00456327,0.0241055,1077,1681,4.55102,-62.1032
-140,-657,4.46045,62.8075,0.000500297,0.00565324,-0.0038805,0.00773472,-0.00158118,-1.07846,0.00575639,0.0358114,1084,1681,4.46041,-62.8075
-133,-657,4.20947,63.4399,2.09774e-06,0.00773079,-0.00411899,0.00951439,-0.0017815,-1.16215,0.0070126,0.0437609,1091,1681,4.20944,-63.4399
-126,-657,4.07117,64.1686,0,0,0,0,0,0,0,-1,1098,1681,4.07115,-64.1686
-119,-657,5.64758,54.4952,0,0,0,0,0,0,0,-1,1105,1681,5.64753,-54.4952
-112,-657,6.24219,42.9092,0,0,0,0,0,0,0,-1,1112,1681,6.24217,-42.9092
-105,-657,7.37256,41.0361,0,0,0,0,0,0,0,-1,1119,1681,7.37254,-41.0362
-98,-657,8.14404,38.4435,0,0,0,0,0,0,0,-1,1126,1681,8.14405,-38.4435
-91,-657,3.6521,16.6017,0,0,0,0,0,0,0,-1,1133,1681,3.65215,-16.6017
-84,-657,4.08008,10.4579,0,0,0,0,0,0,0,-1,1140,1681,4.08006,-10.4579
-77,-657,-5.29846,0.396606,0,0,0,0,0,0,0,-1,1147,1681,-5.29842,-0.396573
-70,-657,-4.14893,2.14575,0,0,0,0,0,0,0,-1,1154,1681,-4.14893,-2.1458
-63,-657,-4.1239,3.177,0,0,0,0,0,0,0,-1,1161,1681,-4.12391,-3.17698
-56,-657,-6.40576,5.73987,0,0,0,0,0,0,0,-1,1168,1681,-6.40577,-5.7399
-49,-657,-5.98462,7.54053,0,0,0,0,0,0,0,-1,1175,1681,-5.98466,-7.5405
-42,-657,-5.71948,9.28955,0,0,0,0,0,0,0,-1,1182,1681,-5.71951,-9.2895
-35,-657,-5.44556,11.015,0,0,0,0,0,0,0,-1,1189,1681,-5.44555,-11.015
-28,-657,-1.3446,8.92847,0,0,0,0,0,0,0,-1,1196,1681,-1.34459,-8.92848
-21,-657,5.17517,69.8007,0,0,0,0,0,0,0,-1,1203,1681,5.1752,-69.8007
-14,-657,22.7413,75.4298,0,0,0,0,0,0,0,-1,1210,1681,22.7414,-75.4298
-7,-657,21.4821,75.5061,-0.151845,0.0260717,0.0400703,0.0346799,-0.160453,1.35919,0.120208,0.0455093,1217,1681,21.482,-75.5061
0,-657,20.2158,75.5852,-0.142245,0.041946,0.0366582,0.0489737,-0.149273,1.38139,0.119241,0.0428607,1224,1681,20.2159,-75.5852
7,-657,19.0123,75.7246,-0.130411,0.0587001,0.0317589,0.0638911,-0.135602,1.40878,0.117632,0.0435958,1231,1681,19.0124,-75.7246
14,-657,17.851,75.8071,-0.117675,0.0776994,0.0243572,0.0806902,-0.120666,1.44862,0.117014,0.0403317,1238,1681,17.851,-75.8071
21,-657,16.5847,75.9124,-0.10483,0.0943629,0.0161339,0.0956612,-0.106128,1.4905,0.116556,0.0408454,1245,1681,16.5848,-75.9123
28,-657,15.8103,75.7297,-0.0938768,0.109185,0.00726333,0.109445,-0.0941363,1.53509,0.117648,0.0411289,1252,1681,15.8103,-75.7298
35,-657,15.5682,75.549,-0.084434,0.119144,-0.000938046,0.119148,-0.0844383,-1.56619,0.118109,0.0390565,1259,1681,15.5682,-75.549
42,-657,15.0637,75.4536,0,0,0,0,0,0,0,-1,1266,1681,15.0638,-75.4536
49,-657,14.8368,74.9061,0,0,0,0,0,0,0,-1,1273,1681,14.8368,-74.9061
56,-657,14.0155,74.2676,0,0,0,0,0,0,0,-1,1280,1681,14.0155,-74.2676
63,-657,13.6554,72.3718,-0.0556485,0.147134,-0.0208466,0.149255,-0.0577694,-1.46941,0.123355,0.0486079,1287,1681,13.6554,-72.3718
70,-657,12.9598,71.54,-0.0510979,0.14471,-0.0227368,0.147315,-0.0537033,-1.4567,0.12018,0.0476235,1294,1681,12.9599,-71.54
77,-657,12.7128,74.4531,0,0,0,0,0,0,0,-1,1301,1681,12.7127,-74.4531
84,-657,11.8965,73.9324,0,0,0,0,0,0,0,-1,1308,1681,11.8965,-73.9324
91,-657,11.0642,72.78,0,0,0,0,0,0,0,-1,1315,1681,11.0642,-72.78
98,-657,10.5796,72.473,-0.0363968,0.1338,-0.0254124,0.137513,-0.0401101,-1.4257,0.107568,0.0443014,1322,1681,10.5796,-72.4731
105,-657,10.396,72.2367,-0.0304217,0.128616,-0.0259583,0.132746,-0.0345513,-1.41303,0.101984,0.0489535,1329,1681,10.396,-72.2367
112,-657,9.98755,72.007,0,0,0,0,0,0,0,-1,1336,1681,9.98756,-72.007
119,-657,9.65771,71.8777,-0.0168649,0.117251,-0.0316305,0.124337,-0.0239505,-1.35042,0.0919207,0.048431,1343,1681,9.6577,-71.8776
126,-657,9.5083,71.4392,-0.009559,0.112701,-0.0377976,0.123442,-0.0203007,-1.29391,0.0898296,0.0484791,1350,1681,9.50836,-71.4392
133,-657,9.05591,70.7582,-0.00159291,0.106875,-0.0454874,0.123426,-0.0181433,-1.22184,0.0889504,0.0483314,1357,1681,9.05588,-70.7581
140,-657,8.59045,70.1322,0,0,0,0,0,0,0,-1,1364,1681,8.59049,-70.1322
147,-657,13.9467,71.2494,0,0,0,0,0,0,0,-1,1371,1681,13.9466,-71.2494
154,-657,10.6222,48.2162,0,0,0,0,0,0,0,-1,1378,1681,10.6223,-48.2162
161,-657,4.2926,24.9226,0,0,0,0,0,0,0,-1,1385,1681,4.29264,-24.9226
168,-657,5.21643,0.70105,0,0,0,0,0,0,0,-1,1392,1681,5.21648,-0.7011
175,-657,5.52771,0.649048,0,0,0,0,0,0,0,-1,1399,1681,5.52774,-0.649019
182,-657,5.73999,1.02612,0,0,0,0,0,0,0,-1,1406,1681,5.73995,-1.02611
189,-657,5.92126,1.44116,0,0,0,0,0,0,0,-1,1413,1681,5.92126,-1.44115
196,-657,4.92834,9.59021,0,0,0,0,0,0,0,-1,1420,1681,4.9284,-9.59018
203,-657,6.26343,5.16492,0,0,0,0,0,0,0,-1,1427,1681,6.26345,-5.16488
210,-657,3.9856,5.28088,0,0,0,0,0,0,0,-1,1434,1681,3.98555,-5.28084
217,-657,3.95178,5.2843,0,0,0,0,0,0,0,-1,1441,1681,3.95174,-5.28431
224,-657,6.66736,-0.250244,0,0,0,0,0,0,0,-1,1448,1681,6.66737,0.250229
231,-657,6.85498,-1.70752,0,0,0,0,0,0,0,-1,1455,1681,6.855,1.70758
238,-657,5.34143,-2.89819,0,0,0,0,0,0,0,-1,1462,1681,5.34143,2.89813
245,-657,8.66003,-0.102783,0,0,0,0,0,0,0,-1,1469,1681,8.66,0.102824
252,-657,4.78955,0.623779,0,0,0,0,0,0,0,-1,1476,1681,4.7895,-0.623826
259,-657,2.61523,4.31909,0,0,0,0,0,0,0,-1,1483,1681,2.61523,-4.31908
266,-657,5.35437,11.4742,0,0,0,0,0,0,0,-1,1490,1681,5.35441,-11.4742
273,-657,11.9164,46.0638,0,0,0,0,0,0,0,-1,1497,1681,11.9164,-46.0638
280,-657,13.1313,61.0597,0,0,0,0,0,0,0,-1,1504,1681,13.1313,-61.0596
287,-657,13.3361,60.4276,0,0,0,0,0,0,0,-1,1511,1681,13.3361,-60.4277
294,-657,13.4882,59.9871,0.00551051,0.00406865,0.000946512,0.00597938,0.00359978,0.459934,0.00347607,0.0417598,1518,1681,13.4882,-59.987
301,-657,13.54,59.5194,0.0049209,0.00401895,0.000837612,0.00542123,0.00351863,0.538449,0.00317596,0.0276891,1525,1681,13.54,-59.5194
308,-657,13.5458,58.9523,0.00441424,0.00391959,0.00047752,0.00470469,0.00362915,0.546452,0.0028465,0.0173332,1532,1681,13.5458,-58.9523
315,-657,13.5665,58.3499,0.00393199,0.00389233,0.000138735,0.0040523,0.00377201,0.714407,0.00261312,0.0118172,1539,1681,13.5665,-58.3498
322,-657,13.5881,57.7496,0.0037454,0.00409868,-0.00047924,0.0044328,0.00341128,-0.961962,0.00268038,0.0135735,1546,1681,13.5882,-57.7497
329,-657,13.5941,57.0984,0.00362305,0.00421944,-0.00103987,0.00500302,0.00283947,-0.925032,0.00289727,0.0191065,1553,1681,13.5941,-57.0984
336,-657,13.5813,56.504,0.00345135,0.00419052,-0.00140412,0.00527288,0.002369,-0.914087,0.00304952,0.0169083,1560,1681,13.5813,-56.504
343,-657,13.5883,55.9281,0.00322957,0.00409859,-0.00174347,0.00546087,0.00186728,-0.907521,0.00320492,0.0137457,1567,1681,13.5883,-55.9281
350,-657,13.5667,55.3113,0.00301888,0.00391665,-0.00214015,0.00565449,0.00128104,-0.888772,0.00342349,0.0151988,1574,1681,13.5667,-55.3113
357,-657,13.5441,54.6443,0.00281277,0.00357312,-0.0023999,0.00562277,0.00076312,-0.863952,0.00352181,0.0144792,1581,1681,13.5441,-54.6443
364,-657,13.5358,53.989,0.00254704,0.00315188,-0.00249113,0.00535888,0.000340042,-0.845803,0.0034648,0.0105398,1588,1681,13.5358,-53.989
371,-657,13.4885,53.355,0.00227659,0.00270599,-0.00254793,0.00504825,-6.5672e-05,-0.827431,0.0033876,0.0148396,1595,1681,13.4886,-53.355
378,-657,13.4218,52.6927,0.00200375,0.00227217,-0.00252146,0.00466299,-0.000387073,-0.811986,0.00324539,0.0163688,1602,1681,13.4217,-52.6927
385,-657,13.371,52.0382,0.00180029,0.0019217,-0.0025591,0.00442082,-0.000698826,-0.797257,0.00320564,0.0144926,1609,1681,13.3709,-52.0382
392,-657,13.3516,51.3613,0.00156917,0.00162544,-0.00265794,0.00425539,-0.00106078,-0.79069,0.00324877,0.0145811,1616,1681,13.3516,-51.3613
399,-657,13.3456,50.6899,0.00141607,0.00139913,-0.00285183,0.00425944,-0.00144424,-0.783913,0.00342412,0.0146881,1623,1681,13.3456,-50.6899
406,-657,13.3229,50.0134,0.00141576,0.00122808,-0.00308223,0.00440558,-0.00176173,-0.77018,0.00366814,0.0161457,1630,1681,13.3229,-50.0134
413,-657,13.2844,49.3286,0.00163831,0.00110624,-0.00363043,0.00501244,-0.00226789,-0.748824,0.0043017,0.0163381,1637,1681,13.2844,-49.3286
420,-657,13.2614,48.5935,0.00199963,0.00139268,-0.00431872,0.00602553,-0.00263322,-0.750321,0.00512542,0.0211425,1644,1681,13.2614,-48.5935
427,-657,13.1926,47.7839,0.0030421,0.00197655,-0.00556598,0.00810075,-0.00308209,-0.737684,0.00666962,0.0302168,1651,1681,13.1926,-47.784
434,-657,13.2697,47.0089,0.00431117,0.0026389,-0.00688706,0.0104127,-0.00346259,-0.724991,0.00833914,0.0405337,1658,1681,13.2697,-47.0089
441,-657,13.1849,46.2521,0,0,0,0,0,0,0,-1,1665,1681,13.1849,-46.2521
448,-657,13.8298,44.941,0,0,0,0,0,0,0,-1,1672,1681,13.8298,-44.9411
455,-657,12.9745,45.5529,0,0,0,0,0,0,0,-1,1679,1681,12.9744,-45.5529
462,-657,10.2832,30.1719,0,0,0,0,0,0,0,-1,1686,1681,10.2831,-30.1718
469,-657,9.22205,26.4175,0,0,0,0,0,0,0,-1,1693,1681,9.2221,-26.4175
476,-657,8.9519,20.5712,0,0,0,0,0,0,0,-1,1700,1681,8.95194,-20.5712
483,-657,10.0663,21.8628,0,0,0,0,0,0,0,-1,1707,1681,10.0663,-21.8628
490,-657,11.6039,21.2185,0,0,0,0,0,0,0,-1,1714,1681,11.6038,-21.2185
497,-657,9.20862,17.8127,0,0,0,0,0,0,0,-1,1721,1681,9.2086,-17.8127
504,-657,0,0,0,0,0,0,0,0,0,-1,1728,1681,0,0
511,-657,0,0,0,0,0,0,0,0,0,-1,1735,1681,0,0
518,-657,0,0,0,0,0,0,0,0,0,-1,1742,1681,0,0
525,-657,0,0,0,0,0,0,0,0,0,-1,1749,1681,0,0
532,-657,0,0,0,0,0,0,0,0,0,-1,1756,1681,0,0
539,-657,0,0,0,0,0,0,0,0,0,-1,1763,1681,0,0
546,-657,0,0,0,0,0,0,0,0,0,-1,1770,1681,0,0
553,-657,0,0,0,0,0,0,0,0,0,-1,1777,1681,0,0
560,-657,0,0,0,0,0,0,0,0,0,-1,1784,1681,0,0
567,-657,0,0,0,0,0,0,0,0,0,-1,1791,1681,0,0
574,-657,0,0,0,0,0,0,0,0,0,-1,1798,1681,0,0
581,-657,0,0,0,0,0,0,0,0,0,-1,1805,1681,0,0
588,-657,0,0,0,0,0,0,0,0,0,-1,1812,1681,0,0
595,-657,0,0,0,0,0,0,0,0,0,-1,1819,1681,0,0
602,-657,0,0,0,0,0,0,0,0,0,-1,1826,1681,0,0
609,-657,0,0,0,0,0,0,0,0,0,-1,1833,1681,0,0
616,-657,0,0,0,0,0,0,0,0,0,-1,1840,1681,0,0
623,-657,0,0,0,0,0,0,0,0,0,-1,1847,1681,0,0
630,-657,0,0,0,0,0,0,0,0,0,-1,1854,1681,0,0
637,-657,0,0,0,0,0,0,0,0,0,-1,1861,1681,0,0
644,-657,0,0,0,0,0,0,0,0,0,-1,1868,1681,0,0
651,-657,0,0,0,0,0,0,0,0,0,-1,1875,1681,0,0
658,-657,0,0,0,0,0,0,0,0,0,-1,1882,1681,0,0
665,-657,0,0,0,0,0,0,0,0,0,-1,1889,1681,0,0
672,-657,0,0,0,0,0,0,0,0,0,-1,1896,1681,0,0
679,-657,0,0,0,0,0,0,0,0,0,-1,1903,1681,0,0
686,-657,0,0,0,0,0,0,0,0,0,-1,1910,1681,0,0
693,-657,0,0,0,0,0,0,0,0,0,-1,1917,1681,0,0
700,-657,0,0,0,0,0,0,0,0,0,-1,1924,1681,0,0
707,-657,0,0,0,0,0,0,0,0,0,-1,1931,1681,0,0
714,-657,0,0,0,0,0,0,0,0,0,-1,1938,1681,0,0
721,-657,0,0,0,0,0,0,0,0,0,-1,1945,1681,0,0
728,-657,0,0,0,0,0,0,0,0,0,-1,1952,1681,0,0
735,-657,0,0,0,0,0,0,0,0,0,-1,1959,1681,0,0
742,-657,0,0,0,0,0,0,0,0,0,-1,1966,1681,0,0
749,-657,0,0,0,0,0,0,0,0,0,-1,1973,1681,0,0
756,-657,0,0,0,0,0,0,0,0,0,-1,1980,1681,0,0
763,-657,0,0,0,0,0,0,0,0,0,-1,1987,1681,0,0
770,-657,0,0,0,0,0,0,0,0,0,-1,1994,1681,0,0
777,-657,0,0,0,0,0,0,0,0,0,-1,2001,1681,0,0
784,-657,0,0,0,0,0,0,0,0,0,-1,2008,1681,0,0
791,-657,0,0,0,0,0,0,0,0,0,-1,2015,1681,0,0
798,-657,0,0,0,0,0,0,0,0,0,-1,2022,1681,0,0
805,-657,0,0,0,0,0,0,0,0,0,-1,2029,1681,0,0
812,-657,0,0,0,0,0,0,0,0,0,-1,2036,1681,0,0
-700,-664,0,0,0,0,0,0,0,0,0,-1,524,1688,0,0
-693,-664,0,0,0,0,0,0,0,0,0,-1,531,1688,0,0
-686,-664,0,0,0,0,0,0,0,0,0,-1,538,1688,0,0
-679,-664,0,0,0,0,0,0,0,0,0,-1,545,1688,0,0
-672,-664,0,0,0,0,0,0,0,0,0,-1,552,1688,0,0
-665,-664,0,0,0,0,0,0,0,0,0,-1,559,1688,0,0
-658,-664,0,0,0,0,0,0,0,0,0,-1,566,1688,0,0
-651,-664,0,0,0,0,0,0,0,0,0,-1,573,1688,0,0
-644,-664,0,0,0,0,0,0,0,0,0,-1,580,1688,0,0
-637,-664,0,0,0,0,0,0,0,0,0,-1,587,1688,0,0
-630,-664,0,0,0,0,0,0,0,0,0,-1,594,1688,0,0
-623,-664,0,0,0,0,0,0,0,0,0,-1,601,1688,0,0
-616,-664,0,0,0,0,0,0,0,0,0,-1,608,1688,0,0
-609,-664,0,0,0,0,0,0,0,0,0,-1,615,1688,0,0
-602,-664,0,0,0,0,0,0,0,0,0,-1,622,1688,0,0
-595,-664,0,0,0,0,0,0,0,0,0,-1,629,1688,0,0
-588,-664,0,0,0,0,0,0,0,0,0,-1,636,1688,0,0
-581,-664,0,0,0,0,0,0,0,0,0,-1,643,1688,0,0
-574,-664,0,0,0,0,0,0,0,0,0,-1,650,1688,0,0
-567,-664,0,0,0,0,0,0,0,0,0,-1,657,1688,0,0
-560,-664,0,0,0,0,0,0,0,0,0,-1,664,1688,0,0
-553,-664,0,0,0,0,0,0,0,0,0,-1,671,1688,0,0
-546,-664,0,0,0,0,0,0,0,0,0,-1,678,1688,0,0
-539,-664,0,0,0,0,0,0,0,0,0,-1,685,1688,0,0
-532,-664,0,0,0,0,0,0,0,0,0,-1,692,1688,0,0
-525,-664,0,0,0,0,0,0,0,0,0,-1,699,1688,0,0
-518,-664,0,0,0,0,0,0,0,0,0,-1,706,1688,0,0
-511,-664,0,0,0,0,0,0,0,0,0,-1,713,1688,0,0
-504,-664,0,0,0,0,0,0,0,0,0,-1,720,1688,0,0
-497,-664,0,0,0,0,0,0,0,0,0,-1,727,1688,0,0
-490,-664,0,0,0,0,0,0,0,0,0,-1,734,1688,0,0
-483,-664,0,0,0,0,0,0,0,0,0,-1,741,1688,0,0
-476,-664,0,0,0,0,0,0,0,0,0,-1,748,1688,0,0
-469,-664,0,0,0,0,0,0,0,0,0,-1,755,1688,0,0
-462,-664,0,0,0,0,0,0,0,0,0,-1,762,1688,0,0
-455,-664,0,0,0,0,0,0,0,0,0,-1,769,1688,0,0
-448,-664,0,0,0,0,0,0,0,0,0,-1,776,1688,0,0
-441,-664,0,0,0,0,0,0,0,0,0,-1,783,1688,0,0
-434,-664,0,0,0,0,0,0,0,0,0,-1,790,1688,0,0
-427,-664,0,0,0,0,0,0,0,0,0,-1,797,1688,0,0
-420,-664,0,0,0,0,0,0,0,0,0,-1,804,1688,0,0
-413,-664,0,0,0,0,0,0,0,0,0,-1,811,1688,0,0
-406,-664,0,0,0,0,0,0,0,0,0,-1,818,1688,0,0
-399,-664,0,0,0,0,0,0,0,0,0,-1,825,1688,0,0
-392,-664,0,0,0,0,0,0,0,0,0,-1,832,1688,0,0
-385,-664,0,0,0,0,0,0,0,0,0,-1,839,1688,0,0
-378,-664,0,0,0,0,0,0,0,0,0,-1,846,1688,0,0
-371,-664,-1.61676,5.92737,0,0,0,0,0,0,0,-1,853,1688,-1.61675,-5.92735
-364,-664,-3.901,5.87024,0,0,0,0,0,0,0,-1,860,1688,-3.90097,-5.87027
-357,-664,-4.81012,4.53479,0,0,0,0,0,0,0,-1,867,1688,-4.81012,-4.5348
-350,-664,3.26105,36.0225,0,0,0,0,0,0,0,-1,874,1688,3.26104,-36.0224
-343,-664,5.56708,45.6833,0,0,0,0,0,0,0,-1,881,1688,5.56709,-45.6833
-336,-664,5.21466,44.8312,0,0,0,0,0,0,0,-1,888,1688,5.21463,-44.8312
-329,-664,5.05334,43.625,0,0,0,0,0,0,0,-1,895,1688,5.05332,-43.625
-322,-664,5.76807,46.2493,0,0,0,0,0,0,0,-1,902,1688,5.76807,-46.2492
-315,-664,5.7403,47.0308,0,0,0,0,0,0,0,-1,909,1688,5.74028,-47.0308
-308,-664,5.41394,47.7383,0,0,0,0,0,0,0,-1,916,1688,5.41393,-47.7383
-301,-664,5.23932,48.0526,0.00823653,0.00991961,0.00251909,0.011734,0.00642213,0.946603,0.00678473,0.0427716,923,1688,5.23932,-48.0527
-294,-664,5.33636,48.7504,0.0072716,0.00970785,0.0034087,0.0121095,0.00486991,0.957005,0.00703593,0.0398099,930,1688,5.33635,-48.7503
-287,-664,5.47186,49.6395,0.00624176,0.00901739,0.00400071,0.0118642,0.00339499,0.95235,0.00705551,0.0290123,937,1688,5.47185,-49.6396
-280,-664,5.3999,50.3336,0.00514584,0.00797383,0.00427153,0.0110593,0.00206035,0.945235,0.00679109,0.0186189,944,1688,5.39988,-50.3336
-273,-664,5.31354,51.0258,0.0042398,0.00675983,0.0042775,0.00995904,0.00104059,0.928631,0.00632111,0.0150402,951,1688,5.31352,-51.0257
-266,-664,5.2821,51.6957,0.00364899,0.00561679,0.00408986,0.00883943,0.000426345,0.90344,0.00575611,0.0216244,958,1688,5.28213,-51.6957
-259,-664,5.27112,52.374,0.00312634,0.00463629,0.00369107,0.00764881,0.000113819,0.886277,0.00506169,0.0195575,965,1688,5.2711,-52.3741
-252,-664,5.27106,53.0706,0.00256907,0.00375702,0.0031089,0.00632818,-2.09338e-06,0.879788,0.00421948,0.0173522,972,1688,5.27104,-53.0706
-245,-664,5.18103,53.7601,0.00182411,0.00267647,0.00271796,0.00500145,-0.000500879,0.863166,0.00351318,0.0208445,979,1688,5.18102,-53.7601
-238,-664,5.18555,54.4091,0.00134302,0.00155393,0.00218521,0.00363623,-0.000739271,0.809509,0.00270447,0.0244433,986,1688,5.18555,-54.4091
-231,-664,5.17389,55.0321,0.00128183,0.00138318,0.0016346,0.00296789,-0.000302877,0.800895,0.00208689,0.0207863,993,1688,5.17386,-55.0321
-224,-664,5.1084,55.7157,0.00134599,0.00101663,0.00115269,0.0023457,1.69161e-05,0.714444,0.00155819,0.0139305,1000,1688,5.10839,-55.7157
-217,-664,5.07123,56.3817,0.00141897,0.000749226,0.000737985,0.0018945,0.00027369,0.572408,0.00118238,0.0106264,1007,1688,5.07121,-56.3818
-210,-664,5.05011,56.9879,0.00153878,0.000496549,0.000400895,0.00167514,0.000360186,0.327871,0.00101816,0.0122153,1014,1688,5.05008,-56.988
-203,-664,5.026,57.6029,0.00174699,0.000186866,0.000157016,0.00176263,0.00017122,0.0993162,0.00112238,0.0148153,1021,1688,5.02594,-57.6029
-196,-664,5.00635,58.2035,0.00194718,-0.000154235,-6.51746e-05,0.0019492,-0.000156255,-0.030975,0.00135456,0.015941,1028,1688,5.00641,-58.2035
-189,-664,5.01306,58.7887,0.00193257,-0.000335285,-0.000435337,0.00201326,-0.000415982,-0.183284,0.00150019,0.0114329,1035,1688,5.01302,-58.7887
-182,-664,5.01233,59.4032,0.00193498,-0.000181779,-0.000851793,0.00223517,-0.000481972,-0.338833,0.00167406,0.0102681,1042,1688,5.01231,-59.4031
-175,-664,5.01477,59.9438,0.00210253,7.79447e-05,-0.00113497,0.00261106,-0.000430585,-0.421234,0.00190057,0.0135537,1049,1688,5.01478,-59.9438
-168,-664,5.03943,60.4763,0.00206169,0.000427256,-0.00148418,0.00293877,-0.000449821,-0.533739,0.00212505,0.0145993,1056,1688,5.03939,-60.4763
-161,-664,5.0072,61.0398,0.00199763,0.00110523,-0.00187046,0.00347437,-0.000371515,-0.668311,0.0024495,0.0114097,1063,1688,5.00722,-61.0398
-154,-664,5.07275,61.5648,0.00193902,0.00199574,-0.00225523,0.00422279,-0.000288034,-0.791685,0.00291595,0.0116314,1070,1688,5.07273,-61.5648
-147,-664,5.07507,62.0776,0.00183519,0.00320336,-0.00261274,0.00522009,-0.000181531,-0.913438,0.00354212,0.0159818,1077,1688,5.07508,-62.0776
-140,-664,5.09668,62.6394,0.00166526,0.00445171,-0.0029791,0.00634727,-0.000230304,-1.00412,0.00431034,0.0185487,1084,1688,5.09668,-62.6394
-133,-664,5.0376,63.1941,0.00160647,0.00591194,-0.00314527,0.00757064,-5.22297e-05,-1.0855,0.00506459,0.022543,1091,1688,5.0376,-63.1941
-126,-664,5.18396,63.8657,0.00185985,0.00710301,-0.0033492,0.00873465,0.000228217,-1.11746,0.00574853,0.0463903,1098,1688,5.18395,-63.8658
-119,-664,5.40698,64.6201,0,0,0,0,0,0,0,-1,1105,1688,5.40696,-64.6201
-112,-664,6.3916,51.1235,0,0,0,0,0,0,0,-1,1112,1688,6.39161,-51.1236
-105,-664,6.87256,43.2527,0,0,0,0,0,0,0,-1,1119,1688,6.87258,-43.2527
-98,-664,7.69324,41.3359,0,0,0,0,0,0,0,-1,1126,1688,7.69321,-41.3359
-91,-664,5.41931,25.6302,0,0,0,0,0,0,0,-1,1133,1688,5.41932,-25.6302
-84,-664,3.48389,16.6913,0,0,0,0,0,0,0,-1,1140,1688,3.4839,-16.6913
-77,-664,4.52014,11.2122,0,0,0,0,0,0,0,-1,1147,1688,4.5202,-11.2122
-70,-664,4.20374,8.24524,0,0,0,0,0,0,0,-1,1154,1688,4.20379,-8.24519
-63,-664,-4.677,2.40503,0,0,0,0,0,0,0,-1,1161,1688,-4.67702,-2.40498
-56,-664,-4.66504,3.32727,0,0,0,0,0,0,0,-1,1168,1688,-4.6651,-3.32724
-49,-664,-2.54297,3.31848,0,0,0,0,0,0,0,-1,1175,1688,-2.54297,-3.31852
-42,-664,-0.359253,4.38684,0,0,0,0,0,0,0,-1,1182,1688,-0.359261,-4.38685
-35,-664,-0.705566,3.55017,0,0,0,0,0,0,0,-1,1189,1688,-0.705567,-3.55023
-28,-664,-1.54236,10.2538,0,0,0,0,0,0,0,-1,1196,1688,-1.54236,-10.2538
-21,-664,23.5707,75.3533,0,0,0,0,0,0,0,-1,1203,1688,23.5707,-75.3533
-14,-664,22.3647,75.4688,-0.130991,0.0210674,0.0317234,0.0274203,-0.137344,1.37315,0.101939,0.0481178,1210,1688,22.3648,-75.4688
-7,-664,21.1497,75.5356,-0.12654,0.0299053,0.0299523,0.0354438,-0.132078,1.38795,0.101942,0.0492193,1217,1688,21.1497,-75.5356
0,-664,19.8715,75.3551,-0.119416,0.0412753,0.0274547,0.0458365,-0.123977,1.40616,0.101443,0.0468832,1224,1688,19.8715,-75.355
7,-664,18.6782,75.4169,-0.110407,0.0536545,0.0239451,0.0570779,-0.113831,1.42879,0.100471,0.0439315,1231,1688,18.6782,-75.4169
14,-664,17.4133,75.0824,-0.100423,0.0694584,0.0182194,0.0713904,-0.102355,1.46515,0.100841,0.0424642,1238,1688,17.4133,-75.0824
21,-664,16.1266,74.9618,-0.0899021,0.0837716,0.0117039,0.0845568,-0.0906873,1.50381,0.101198,0.0432736,1245,1688,16.1266,-74.9618
28,-664,15.4849,75.1901,0,0,0,0,0,0,0,-1,1252,1688,15.4849,-75.19
35,-664,15.5326,75.2477,-0.0725674,0.105746,-0.00231092,0.105775,-0.0725974,-1.55784,0.103576,0.0423903,1259,1688,15.5326,-75.2477
42,-664,15.7107,74.7413,0,0,0,0,0,0,0,-1,1266,1688,15.7107,-74.7414
49,-664,14.585,73.8284,0,0,0,0,0,0,0,-1,1273,1688,14.585,-73.8283
56,-664,14.4899,70.7711,0,0,0,0,0,0,0,-1,1280,1688,14.4899,-70.7711
63,-664,13.7465,70.1631,-0.0472714,0.130819,-0.0183534,0.132691,-0.0491432,-1.46916,0.108613,0.0492909,1287,1688,13.7465,-70.1631
70,-664,13.0825,69.6008,-0.0431712,0.12857,-0.0200207,0.130873,-0.0454742,-1.45627,0.105719,0.0467924,1294,1688,13.0825,-69.6009
77,-664,12.5428,68.868,-0.0396406,0.127815,-0.0215127,0.130534,-0.0423601,-1.44505,0.104058,0.0451337,1301,1688,12.5429,-68.868
84,-664,11.8473,68.2009,0,0,0,0,0,0,0,-1,1308,1688,11.8473,-68.2009
91,-664,7.82141,72.8739,0,0,0,0,0,0,0,-1,1315,1688,7.82146,-72.8739
98,-664,10.1682,70.8082,0,0,0,0,0,0,0,-1,1322,1688,10.1682,-70.8082
105,-664,10.1232,70.5146,0,0,0,0,0,0,0,-1,1329,1688,10.1232,-70.5147
112,-664,9.71753,70.9111,0,0,0,0,0,0,0,-1,1336,1688,9.7175,-70.9112
119,-664,9.00439,70.79,0,0,0,0,0,0,0,-1,1343,1688,9.00438,-70.7901
126,-664,8.95679,70.4545,0,0,0,0,0,0,0,-1,1350,1688,8.95684,-70.4545
133,-664,8.73926,70.0729,-0.005001,0.0989896,-0.0365739,0.110564,-0.0165758,-1.26429,0.0798107,0.0499408,1357,1688,8.73932,-70.0729
140,-664,8.54297,69.6512,0.000416575,0.0935645,-0.0418301,0.109592,-0.0156105,-1.2049,0.0787818,0.0470363,1364,1688,8.54301,-69.6512
147,-664,8.67493,69.4053,0,0,0,0,0,0,0,-1,1371,1688,8.6749,-69.4052
154,-664,20.1138,63.4268,0,0,0,0,0,0,0,-1,1378,1688,20.1137,-63.4268
161,-664,4.60132,1.56238,0,0,0,0,0,0,0,-1,1385,1688,4.60134,-1.56233
168,-664,5.172,1.25488,0,0,0,0,0,0,0,-1,1392,1688,5.17203,-1.25484
175,-664,5.58313,1.16467,0,0,0,0,0,0,0,-1,1399,1688,5.58317,-1.16466
182,-664,5.74268,1.41113,0,0,0,0,0,0,0,-1,1406,1688,5.74263,-1.41115
189,-664,5.87744,1.87061,0,0,0,0,0,0,0,-1,1413,1688,5.87745,-1.87065
196,-664,6.7594,5.97473,0,0,0,0,0,0,0,-1,1420,1688,6.75943,-5.97478
203,-664,5.38452,5.22034,0,0,0,0,0,0,0,-1,1427,1688,5.38453,-5.2203
210,-664,5.25549,6.45715,0,0,0,0,0,0,0,-1,1434,1688,5.25549,-6.45721
217,-664,5.72009,6.73975,0,0,0,0,0,0,0,-1,1441,1688,5.72014,-6.73972
224,-664,5.05725,7.42908,0,0,0,0,0,0,0,-1,1448,1688,5.05723,-7.42912
231,-664,5.13318,7.60864,0,0,0,0,0,0,0,-1,1455,1688,5.13313,-7.60862
238,-664,4.23193,6.45471,0,0,0,0,0,0,0,-1,1462,1688,4.23197,-6.45476
245,-664,4.42004,6.80896,0,0,0,0,0,0,0,-1,1469,1688,4.4201,-6.80901
252,-664,3.67346,6.85461,0,0,0,0,0,0,0,-1,1476,1688,3.6734,-6.85462
259,-664,4.55823,11.7435,0,0,0,0,0,0,0,-1,1483,1688,4.55826,-11.7435
266,-664,12.6235,61.9756,0,0,0,0,0,0,0,-1,1490,1688,12.6235,-61.9756
273,-664,12.809,61.6008,0,0,0,0,0,0,0,-1,1497,1688,12.809,-61.6008
280,-664,12.764,61.129,0.00600377,0.00264771,0.000600581,0.00610801,0.00254348,0.171852,0.00354285,0.0433143,1504,1688,12.764,-61.129
287,-664,12.7458,60.561,0.00534777,0.00279282,0.000543085,0.00545842,0.00268217,0.200988,0.00315157,0.0387783,1511,1688,12.7458,-60.5611
294,-664,12.9103,60.0576,0.00481184,0.00270539,0.00047056,0.00491218,0.00260505,0.210086,0.00283779,0.0253434,1518,1688,12.9103,-60.0576
301,-664,12.9742,59.4995,0.00420469,0.00276972,0.000365856,0.00429259,0.00268183,0.235774,0.00250391,0.0151939,1525,1688,12.9743,-59.4995
308,-664,12.9874,58.9031,0.00367594,0.00278929,9.2603e-05,0.00368551,0.00277972,0.102961,0.00221762,0.0127954,1532,1688,12.9875,-58.9031
315,-664,12.984,58.3352,0.00319735,0.00285288,-0.000181064,0.00327501,0.00277521,-0.405191,0.00203728,0.0123465,1539,1688,12.984,-58.3352
322,-664,13.0028,57.7845,0.00282146,0.00301085,-0.000562072,0.00348615,0.00234616,-0.868856,0.00205249,0.0153137,1546,1688,13.0028,-57.7845
329,-664,12.9768,57.1799,0.00253039,0.00306838,-0.000948587,0.00378537,0.00181339,-0.923559,0.00218613,0.0173908,1553,1688,12.9768,-57.1799
336,-664,12.9585,56.5455,0.00228631,0.00306333,-0.00122617,0.00396107,0.00138858,-0.938819,0.00232073,0.0151002,1560,1688,12.9585,-56.5455
343,-664,12.9546,55.9304,0.00203694,0.00301489,-0.0015007,0.00410426,0.000947563,-0.942891,0.00248138,0.0121291,1567,1688,12.9546,-55.9304
350,-664,12.9368,55.3217,0.00182745,0.00287077,-0.00186053,0.00428139,0.000416828,-0.922081,0.00272596,0.013799,1574,1688,12.9368,-55.3217
357,-664,12.9178,54.6545,0.00165833,0.00261074,-0.00213412,0.00432114,-5.20716e-05,-0.89517,0.00289828,0.0146892,1581,1688,12.9178,-54.6546
364,-664,12.9026,54.0027,0.00147682,0.00226837,-0.00227541,0.00418217,-0.000436981,-0.871504,0.0029446,0.0120009,1588,1688,12.9026,-54.0027
371,-664,12.8636,53.4064,0.00134873,0.00195325,-0.0024566,0.00412611,-0.00082413,-0.846611,0.00306264,0.0142633,1595,1688,12.8636,-53.4064
378,-664,12.8142,52.7494,0.00125087,0.00167915,-0.00258882,0.00406267,-0.00113265,-0.826663,0.00315452,0.0144452,1602,1688,12.8142,-52.7494
385,-664,12.7665,52.0825,0.00124692,0.00154279,-0.00282112,0.00421985,-0.00143014,-0.811594,0.00339198,0.0153695,1609,1688,12.7665,-52.0826
392,-664,12.6827,51.4403,0.00126365,0.00148298,-0.00314782,0.00452304,-0.00177641,-0.80281,0.00375045,0.0181481,1616,1688,12.6828,-51.4403
399,-664,12.6831,50.7386,0.00139625,0.00146286,-0.00357091,0.00500062,-0.00214151,-0.790062,0.00423222,0.0161568,1623,1688,12.6831,-50.7387
406,-664,12.6733,50.042,0.00164727,0.00156292,-0.00400727,0.00561259,-0.00240239,-0.780136,0.00474956,0.0159306,1630,1688,12.6733,-50.042
413,-664,12.6669,49.3138,0.00213198,0.0016673,-0.0048196,0.00672484,-0.00292555,-0.761313,0.00571377,0.0182202,1637,1688,12.6669,-49.3138
420,-664,12.7555,48.5448,0.00273339,0.00228821,-0.00574173,0.00825684,-0.00323524,-0.766025,0.00684284,0.0416551,1644,1688,12.7555,-48.5447
427,-664,12.6906,47.4758,0,0,0,0,0,0,0,-1,1651,1688,12.6905,-47.4758
434,-664,12.5726,46.5334,0,0,0,0,0,0,0,-1,1658,1688,12.5726,-46.5334
441,-664,12.7198,45.0563,0,0,0,0,0,0,0,-1,1665,1688,12.7198,-45.0563
448,-664,12.5538,38.7155,0,0,0,0,0,0,0,-1,1672,1688,12.5539,-38.7154
455,-664,12.1709,39.3733,0,0,0,0,0,0,0,-1,1679,1688,12.1708,-39.3733
462,-664,4.3147,4.25439,0,0,0,0,0,0,0,-1,1686,1688,4.31467,-4.25435
469,-664,6.05469,7.49341,0,0,0,0,0,0,0,-1,1693,1688,6.05474,-7.49339
476,-664,10.2377,22.7128,0,0,0,0,0,0,0,-1,1700,1688,10.2377,-22.7128
483,-664,8.41895,10.9768,0,0,0,0,0,0,0,-1,1707,1688,8.41897,-10.9769
490,-664,3.90771,13.2842,0,0,0,0,0,0,0,-1,1714,1688,3.90776,-13.2841
497,-664,0,0,0,0,0,0,0,0,0,-1,1721,1688,0,0
504,-664,0,0,0,0,0,0,0,0,0,-1,1728,1688,0,0
511,-664,0,0,0,0,0,0,0,0,0,-1,1735,1688,0,0
518,-664,0,0,0,0,0,0,0,0,0,-1,1742,1688,0,0
525,-664,0,0,0,0,0,0,0,0,0,-1,1749,1688,0,0
532,-664,0,0,0,0,0,0,0,0,0,-1,1756,1688,0,0
539,-664,0,0,0,0,0,0,0,0,0,-1,1763,1688,0,0
546,-664,0,0,0,0,0,0,0,0,0,-1,1770,1688,0,0
553,-664,0,0,0,0,0,0,0,0,0,-1,1777,1688,0,0
560,-664,0,0,0,0,0,0,0,0,0,-1,1784,1688,0,0
567,-664,0,0,0,0,0,0,0,0,0,-1,1791,1688,0,0
574,-664,0,0,0,0,0,0,0,0,0,-1,1798,1688,0,0
581,-664,0,0,0,0,0,0,0,0,0,-1,1805,1688,0,0
588,-664,0,0,0,0,0,0,0,0,0,-1,1812,1688,0,0
595,-664,0,0,0,0,0,0,0,0,0,-1,1819,1688,0,0
602,-664,0,0,0,0,0,0,0,0,0,-1,1826,1688,0,0
609,-664,0,0,0,0,0,0,0,0,0,-1,1833,1688,0,0
616,-664,0,0,0,0,0,0,0,0,0,-1,1840,1688,0,0
623,-664,0,0,0,0,0,0,0,0,0,-1,1847,1688,0,0
630,-664,0,0,0,0,0,0,0,0,0,-1,1854,1688,0,0
637,-664,0,0,0,0,0,0,0,0,0,-1,1861,1688,0,0
644,-664,0,0,0,0,0,0,0,0,0,-1,1868,1688,0,0
651,-664,0,0,0,0,0,0,0,0,0,-1,1875,1688,0,0
658,-664,0,0,0,0,0,0,0,0,0,-1,1882,1688,0,0
665,-664,0,0,0,0,0,0,0,0,0,-1,1889,1688,0,0
672,-664,0,0,0,0,0,0,0,0,0,-1,1896,1688,0,0
679,-664,0,0,0,0,0,0,0,0,0,-1,1903,1688,0,0
686,-664,0,0,0,0,0,0,0,0,0,-1,1910,1688,0,0
693,-664,0,0,0,0,0,0,0,0,0,-1,1917,1688,0,0
700,-664,0,0,0,0,0,0,0,0,0,-1,1924,1688,0,0
707,-664,0,0,0,0,0,0,0,0,0,-1,1931,1688,0,0
714,-664,0,0,0,0,0,0,0,0,0,-1,1938,1688,0,0
721,-664,0,0,0,0,0,0,0,0,0,-1,1945,1688,0,0
728,-664,0,0,0,0,0,0,0,0,0,-1,1952,1688,0,0
735,-664,0,0,0,0,0,0,0,0,0,-1,1959,1688,0,0
742,-664,0,0,0,0,0,0,0,0,0,-1,1966,1688,0,0
749,-664,0,0,0,0,0,0,0,0,0,-1,1973,1688,0,0
756,-664,0,0,0,0,0,0,0,0,0,-1,1980,1688,0,0
763,-664,0,0,0,0,0,0,0,0,0,-1,1987,1688,0,0
770,-664,0,0,0,0,0,0,0,0,0,-1,1994,1688,0,0
777,-664,0,0,0,0,0,0,0,0,0,-1,2001,1688,0,0
784,-664,0,0,0,0,0,0,0,0,0,-1,2008,1688,0,0
791,-664,0,0,0,0,0,0,0,0,0,-1,2015,1688,0,0
798,-664,0,0,0,0,0,0,0,0,0,-1,2022,1688,0,0
805,-664,0,0,0,0,0,0,0,0,0,-1,2029,1688,0,0
812,-664,0,0,0,0,0,0,0,0,0,-1,2036,1688,0,0
-700,-671,0,0,0,0,0,0,0,0,0,-1,524,1695,0,0
-693,-671,0,0,0,0,0,0,0,0,0,-1,531,1695,0,0
-686,-671,0,0,0,0,0,0,0,0,0,-1,538,1695,0,0
-679,-671,0,0,0,0,0,0,0,0,0,-1,545,1695,0,0
-672,-671,0,0,0,0,0,0,0,0,0,-1,552,1695,0,0
-665,-671,0,0,0,0,0,0,0,0,0,-1,559,1695,0,0
-658,-671,0,0,0,0,0,0,0,0,0,-1,566,1695,0,0
-651,-671,0,0,0,0,0,0,0,0,0,-1,573,1695,0,0
-644,-671,0,0,0,0,0,0,0,0,0,-1,580,1695,0,0
-637,-671,0,0,0,0,0,0,0,0,0,-1,587,1695,0,0
-630,-671,0,0,0,0,0,0,0,0,0,-1,594,1695,0,0
-623,-671,0,0,0,0,0,0,0,0,0,-1,601,1695,0,0
-616,-671,0,0,0,0,0,0,0,0,0,-1,608,1695,0,0
-609,-671,0,0,0,0,0,0,0,0,0,-1,615,1695,0,0
-602,-671,0,0,0,0,0,0,0,0,0,-1,622,1695,0,0
-595,-671,0,0,0,0,0,0,0,0,0,-1,629,1695,0,0
-588,-671,0,0,0,0,0,0,0,0,0,-1,636,1695,0,0
-581,-671,0,0,0,0,0,0,0,0,0,-1,643,1695,0,0
-574,-671,0,0,0,0,0,0,0,0,0,-1,650,1695,0,0
-567,-671,0,0,0,0,0,0,0,0,0,-1,657,1695,0,0
-560,-671,0,0,0,0,0,0,0,0,0,-1,664,1695,0,0
-553,-671,0,0,0,0,0,0,0,0,0,-1,671,1695,0,0
-546,-671,0,0,0,0,0,0,0,0,0,-1,678,1695,0,0
-539,-671,0,0,0,0,0,0,0,0,0,-1,685,1695,0,0
-532,-671,0,0,0,0,0,0,0,0,0,-1,692,1695,0,0
-525,-671,0,0,0,0,0,0,0,0,0,-1,699,1695,0,0
-518,-671,0,0,0,0,0,0,0,0,0,-1,706,1695,0,0
-511,-671,0,0,0,0,0,0,0,0,0,-1,713,1695,0,0
-504,-671,0,0,0,0,0,0,0,0,0,-1,720,1695,0,0
-497,-671,0,0,0,0,0,0,0,0,0,-1,727,1695,0,0
-490,-671,0,0,0,0,0,0,0,0,0,-1,734,1695,0,0
-483,-671,0,0,0,0,0,0,0,0,0,-1,741,1695,0,0
-476,-671,0,0,0,0,0,0,0,0,0,-1,748,1695,0,0
-469,-671,0,0,0,0,0,0,0,0,0,-1,755,1695,0,0
-462,-671,0,0,0,0,0,0,0,0,0,-1,762,1695,0,0
-455,-671,0,0,0,0,0,0,0,0,0,-1,769,1695,0,0
-448,-671,0,0,0,0,0,0,0,0,0,-1,776,1695,0,0
-441,-671,0,0,0,0,0,0,0,0,0,-1,783,1695,0,0
-434,-671,0,0,0,0,0,0,0,0,0,-1,790,1695,0,0
-427,-671,0,0,0,0,0,0,0,0,0,-1,797,1695,0,0
-420,-671,0,0,0,0,0,0,0,0,0,-1,804,1695,0,0
-413,-671,0,0,0,0,0,0,0,0,0,-1,811,1695,0,0
-406,-671,0,0,0,0,0,0,0,0,0,-1,818,1695,0,0
-399,-671,0,0,0,0,0,0,0,0,0,-1,825,1695,0,0
-392,-671,0,0,0,0,0,0,0,0,0,-1,832,1695,0,0
-385,-671,0,0,0,0,0,0,0,0,0,-1,839,1695,0,0
-378,-671,0,0,0,0,0,0,0,0,0,-1,846,1695,0,0
-371,-671,0,0,0,0,0,0,0,0,0,-1,853,1695,0,0
-364,-671,-4.18738,7.51416,0,0,0,0,0,0,0,-1,860,1695,-4.18739,-7.51419
-357,-671,-5.02393,6.07129,0,0,0,0,0,0,0,-1,867,1695,-5.0239,-6.07135
-350,-671,8.03021,46.2139,0,0,0,0,0,0,0,-1,874,1695,8.03024,-46.2139
-343,-671,7.2002,45.9105,0,0,0,0,0,0,0,-1,881,1695,7.20021,-45.9105
-336,-671,6.3653,45.8201,0,0,0,0,0,0,0,-1,888,1695,6.36532,-45.82
-329,-671,5.6283,45.7198,0,0,0,0,0,0,0,-1,895,1695,5.6283,-45.7199
-322,-671,5.80243,44.7689,0,0,0,0,0,0,0,-1,902,1695,5.80243,-44.7689
-315,-671,5.13806,46.3394,0,0,0,0,0,0,0,-1,909,1695,5.13804,-46.3394
-308,-671,5.55151,46.9888,0,0,0,0,0,0,0,-1,916,1695,5.55154,-46.9888
-301,-671,5.84943,47.7747,0.0116136,0.0151754,0.00246835,0.0164382,0.0103508,1.0979,0.00959642,0.0464951,923,1695,5.8494,-47.7747
-294,-671,6.06354,48.1632,0.0102191,0.0143999,0.00390696,0.0167405,0.00787847,1.03104,0.0096707,0.0458537,930,1695,6.06354,-48.1632
-287,-671,6.17029,49.746,0.0087583,0.0130414,0.00487093,0.0162208,0.00557895,0.992511,0.00951593,0.0455854,937,1695,6.17027,-49.746
-280,-671,6.00818,50.2662,0.00714589,0.011238,0.00532453,0.0148961,0.00348784,0.968835,0.00899637,0.0359216,944,1695,6.00819,-50.2663
-273,-671,5.9494,50.9838,0.00571108,0.00932788,0.00538284,0.013198,0.00184099,0.947453,0.00825371,0.0326049,951,1695,5.94943,-50.9838
-266,-671,5.97241,51.7722,0.00473916,0.00750957,0.00515178,0.0114591,0.00078961,0.916732,0.00739028,0.0228895,958,1695,5.97243,-51.7722
-259,-671,5.91571,52.4404,0.00389656,0.00604262,0.00462761,0.00971998,0.000219197,0.899323,0.00640817,0.0219924,965,1695,5.91571,-52.4404
-252,-671,5.88568,53.1205,0.00303025,0.00479105,0.00391574,0.00792414,-0.000102839,0.895978,0.00531737,0.0171043,972,1695,5.88566,-53.1205
-245,-671,5.83698,53.7811,0.00190129,0.00335166,0.00347064,0.00617207,-0.000919112,0.888391,0.00445282,0.0195219,979,1695,5.83697,-53.7811
-238,-671,5.80426,54.4243,0.00111211,0.00189067,0.00284103,0.00436896,-0.00136619,0.853485,0.00345917,0.0208131,986,1695,5.80429,-54.4243
-231,-671,5.77301,55.0736,0.000945525,0.00161177,0.00217781,0.00348178,-0.000924491,0.861291,0.00268298,0.0158136,993,1695,5.77301,-55.0736
-224,-671,5.72162,55.7125,0.000957864,0.001119,0.00159642,0.00263688,-0.000560016,0.810611,0.00197129,0.0120259,1000,1695,5.72164,-55.7125
-217,-671,5.69171,56.358,0.000962518,0.000818837,0.0011038,0.00199682,-0.000215461,0.752902,0.00140853,0.0122613,1007,1695,5.69173,-56.358
-210,-671,5.6875,57.0165,0.000994533,0.00062209,0.00075611,0.00158702,2.96064e-05,0.664657,0.00104828,0.0124504,1014,1695,5.68751,-57.0165
-203,-671,5.65564,57.6147,0.00110406,0.000378338,0.000561974,0.00141014,7.2257e-05,0.49873,0.000916955,0.0204972,1021,1695,5.65559,-57.6147
-196,-671,5.62354,58.2172,0.00129503,7.75428e-05,0.000387702,0.00140801,-3.54346e-05,0.283551,0.000950705,0.0183211,1028,1695,5.62358,-58.2172
-189,-671,5.61877,58.8588,0.00136498,-3.11152e-05,8.42901e-05,0.00137005,-3.61858e-05,0.0600849,0.000925663,0.013691,1035,1695,5.61873,-58.8588
-182,-671,5.58679,59.4258,0.00142557,0.000119816,-0.000272738,0.00148025,6.51377e-05,-0.197856,0.000965854,0.0108795,1042,1695,5.58681,-59.4258
-175,-671,5.58582,59.9702,0.00162907,0.00035709,-0.000533142,0.00182297,0.000163186,-0.348828,0.00116473,0.0133973,1049,1695,5.58587,-59.9703
-168,-671,5.57751,60.5032,0.00166139,0.000614467,-0.000865739,0.00214962,0.000126239,-0.513485,0.00139291,0.0145415,1056,1695,5.57757,-60.5032
-161,-671,5.56531,61.0577,0.00166856,0.0011076,-0.00120427,0.00262458,0.000151575,-0.670986,0.00170145,0.010678,1063,1695,5.56525,-61.0577
-154,-671,5.58826,61.5967,0.00173296,0.0017434,-0.00154306,0.00328124,0.000195111,-0.787089,0.00212545,0.0101385,1070,1695,5.58821,-61.5967
-147,-671,5.58838,62.1362,0.00181832,0.00259896,-0.00187969,0.00412843,0.000288856,-0.887769,0.00266123,0.0115693,1077,1695,5.58835,-62.1362
-140,-671,5.62671,62.6365,0.00190377,0.00342258,-0.00222014,0.0050096,0.00031675,-0.950186,0.00323932,0.0143544,1084,1695,5.62665,-62.6365
-133,-671,5.63794,63.0978,0.00208678,0.00435998,-0.0024125,0.00589022,0.000556541,-1.00554,0.00375507,0.0214349,1091,1695,5.63792,-63.0977
-126,-671,5.74792,63.7384,0.00261624,0.00506725,-0.00260967,0.00672484,0.000958655,-1.00492,0.0042003,0.0417773,1098,1695,5.74797,-63.7384
-119,-671,5.9137,64.5804,0,0,0,0,0,0,0,-1,1105,1695,5.91375,-64.5804
-112,-671,6.58704,44.6255,0,0,0,0,0,0,0,-1,1112,1695,6.58701,-44.6255
-105,-671,7.33252,41.3418,0,0,0,0,0,0,0,-1,1119,1695,7.33247,-41.3418
-98,-671,6.34534,45.6299,0,0,0,0,0,0,0,-1,1126,1695,6.34533,-45.6299
-91,-671,6.40063,38.2443,0,0,0,0,0,0,0,-1,1133,1695,6.40059,-38.2442
-84,-671,5.4209,26.2415,0,0,0,0,0,0,0,-1,1140,1695,5.42096,-26.2414
-77,-671,4.31763,16.489,0,0,0,0,0,0,0,-1,1147,1695,4.31757,-16.489
-70,-671,3.06067,10.7737,0,0,0,0,0,0,0,-1,1154,1695,3.0607,-10.7737
-63,-671,2.94592,6.90198,0,0,0,0,0,0,0,-1,1161,1695,2.94594,-6.90198
-56,-671,-3.07678,2.87976,0,0,0,0,0,0,0,-1,1168,1695,-3.07675,-2.87979
-49,-671,-1.05957,4.76917,0,0,0,0,0,0,0,-1,1175,1695,-1.05958,-4.76921
-42,-671,0.539307,3.7865,0,0,0,0,0,0,0,-1,1182,1695,0.539266,-3.78648
-35,-671,-0.272461,0.347534,0,0,0,0,0,0,0,-1,1189,1695,-0.272434,-0.347569
-28,-671,-10.4878,17.2009,0,0,0,0,0,0,0,-1,1196,1695,-10.4878,-17.2009
-21,-671,23.0973,75.3171,0,0,0,0,0,0,0,-1,1203,1695,23.0972,-75.3171
-14,-671,21.9254,75.4647,-0.105661,0.0232085,0.0231878,0.0272538,-0.109706,1.39808,0.0837142,0.0453423,1210,1695,21.9254,-75.4648
-7,-671,20.7635,75.5518,-0.102644,0.0292137,0.0222042,0.0328524,-0.106283,1.40837,0.0839762,0.0480447,1217,1695,20.7636,-75.5518
0,-671,19.5522,75.0564,-0.0974804,0.037414,0.0204735,0.0404529,-0.100519,1.42344,0.0838169,0.0467875,1224,1695,19.5523,-75.0564
7,-671,18.3492,75.0942,-0.0908414,0.0464663,0.0180533,0.0488002,-0.0931754,1.44223,0.0832936,0.0433161,1231,1695,18.3492,-75.0943
14,-671,16.8173,73.2448,-0.0832941,0.0592487,0.0137563,0.0605641,-0.0846095,1.47546,0.0841984,0.0462351,1238,1695,16.8173,-73.2447
21,-671,15.7679,73.7905,-0.0750369,0.0712162,0.00873941,0.0717366,-0.0755573,1.51132,0.0850497,0.0435316,1245,1695,15.7679,-73.7905
28,-671,14.9788,74.1318,0,0,0,0,0,0,0,-1,1252,1695,14.9788,-74.1318
35,-671,13.9755,74.4991,0,0,0,0,0,0,0,-1,1259,1695,13.9755,-74.4992
42,-671,12.7797,74.5286,0,0,0,0,0,0,0,-1,1266,1695,12.7797,-74.5285
49,-671,15.083,68.8795,0,0,0,0,0,0,0,-1,1273,1695,15.083,-68.8796
56,-671,14.5245,68.5907,0,0,0,0,0,0,0,-1,1280,1695,14.5245,-68.5907
63,-671,13.962,68.2722,0,0,0,0,0,0,0,-1,1287,1695,13.962,-68.2722
70,-671,13.225,67.6378,0,0,0,0,0,0,0,-1,1294,1695,13.225,-67.6378
77,-671,12.8317,66.8287,0,0,0,0,0,0,0,-1,1301,1695,12.8317,-66.8288
84,-671,12.0665,66.1146,0,0,0,0,0,0,0,-1,1308,1695,12.0666,-66.1146
91,-671,7.66626,72.9375,0,0,0,0,0,0,0,-1,1315,1695,7.6663,-72.9375
98,-671,10.408,71.4297,0,0,0,0,0,0,0,-1,1322,1695,10.4079,-71.4297
105,-671,10.0245,70.9399,-0.0216919,0.10209,-0.0192701,0.10502,-0.0246224,-1.41988,0.0795024,0.0477424,1329,1695,10.0245,-70.94
112,-671,9.69885,70.1909,-0.0177513,0.0985001,-0.0202709,0.101933,-0.0211846,-1.40302,0.0760076,0.04352,1336,1695,9.69888,-70.1909
119,-671,9.16223,69.9127,-0.0137862,0.0937549,-0.0219943,0.0980793,-0.0181106,-1.37666,0.0721844,0.0436167,1343,1695,9.16227,-69.9128
126,-671,8.90161,69.5101,-0.0102287,0.0910855,-0.0251911,0.0970035,-0.0161466,-1.34006,0.0706688,0.0488261,1350,1695,8.90164,-69.5101
133,-671,8.6333,69.1069,-0.00661897,0.0884027,-0.0288845,0.0964939,-0.0147102,-1.29767,0.0697517,0.0493181,1357,1695,8.63333,-69.1069
140,-671,8.30469,68.6709,-0.00305418,0.0853451,-0.0324874,0.0960002,-0.0137093,-1.25388,0.0690252,0.0487709,1364,1695,8.30467,-68.6709
147,-671,8.02393,68.2269,0,0,0,0,0,0,0,-1,1371,1695,8.02392,-68.2269
154,-671,8.01001,65.1267,0,0,0,0,0,0,0,-1,1378,1695,8.00997,-65.1268
161,-671,4.49292,4.91272,0,0,0,0,0,0,0,-1,1385,1695,4.49297,-4.91273
168,-671,5.17639,6.1416,0,0,0,0,0,0,0,-1,1392,1695,5.1764,-6.14164
175,-671,5.6731,1.64685,0,0,0,0,0,0,0,-1,1399,1695,5.67313,-1.64691
182,-671,5.56812,1.71692,0,0,0,0,0,0,0,-1,1406,1695,5.56809,-1.71686
189,-671,6.98315,6.36169,0,0,0,0,0,0,0,-1,1413,1695,6.98312,-6.36175
196,-671,5.38123,5.69775,0,0,0,0,0,0,0,-1,1420,1695,5.38125,-5.69769
203,-671,5.95117,8.11658,0,0,0,0,0,0,0,-1,1427,1695,5.9512,-8.11662
210,-671,4.73596,8.39624,0,0,0,0,0,0,0,-1,1434,1695,4.736,-8.39618
217,-671,5.37097,11.863,0,0,0,0,0,0,0,-1,1441,1695,5.37094,-11.863
224,-671,5.08167,13.6694,0,0,0,0,0,0,0,-1,1448,1695,5.08165,-13.6695
231,-671,5.66663,15.3348,0,0,0,0,0,0,0,-1,1455,1695,5.66667,-15.3349
238,-671,6.32959,16.2036,0,0,0,0,0,0,0,-1,1462,1695,6.32961,-16.2037
245,-671,11.9244,57.5367,0,0,0,0,0,0,0,-1,1469,1695,11.9245,-57.5367
252,-671,12.2545,63.6451,0,0,0,0,0,0,0,-1,1476,1695,12.2545,-63.6451
259,-671,12.1727,62.7061,0,0,0,0,0,0,0,-1,1483,1695,12.1727,-62.7061
266,-671,12.2883,62.2028,0.00628275,0.00125784,0.000229127,0.00629317,0.00124741,0.0454724,0.00384765,0.0312489,1490,1695,12.2883,-62.2028
273,-671,12.3611,61.7028,0.00574772,0.00150947,0.000167907,0.00575436,0.00150282,0.0395345,0.00344631,0.0117602,1497,1695,12.361,-61.7028
280,-671,12.3816,61.191,0.00502867,0.00169406,0.00012343,0.00503323,0.0016895,0.0369476,0.00295779,0.0119028,1504,1695,12.3816,-61.191
287,-671,12.3649,60.5782,0.00438811,0.00186408,5.51299e-05,0.00438931,0.00186288,0.0218281,0.00254381,0.0141066,1511,1695,12.3649,-60.5782
294,-671,12.353,60.0076,0.0038374,0.00187948,-9.86789e-06,0.00383745,0.00187943,-0.00503982,0.00221571,0.0128286,1518,1695,12.353,-60.0075
301,-671,12.3888,59.4836,0.00325173,0.00199607,-0.000133864,0.00326584,0.00198196,-0.105035,0.00189984,0.0116375,1525,1695,12.3888,-59.4836
308,-671,12.3986,58.9279,0.00275829,0.00211799,-0.000373739,0.00293025,0.00194603,-0.431238,0.00172189,0.0121877,1532,1695,12.3986,-58.9278
315,-671,12.4077,58.3612,0.00234784,0.00223586,-0.000628718,0.00292306,0.00166065,-0.740989,0.00169284,0.0136356,1539,1695,12.4077,-58.3612
322,-671,12.403,57.8223,0.00195174,0.0024031,-0.00090415,0.00310931,0.00124553,-0.907701,0.00180695,0.0155178,1546,1695,12.403,-57.8222
329,-671,12.3613,57.2401,0.0016687,0.00250166,-0.00122257,0.00337674,0.000793622,-0.949564,0.00203877,0.0140181,1553,1695,12.3613,-57.2402
336,-671,12.3433,56.5907,0.00145521,0.00256963,-0.00147674,0.00359078,0.000434054,-0.965802,0.00226309,0.01214,1560,1695,12.3433,-56.5907
343,-671,12.3585,55.9385,0.00126976,0.00260789,-0.00175178,0.00381403,6.36224e-05,-0.967816,0.00252175,0.0126613,1567,1695,12.3586,-55.9385
350,-671,12.3257,55.3569,0.00113648,0.00255313,-0.00212081,0.00408078,-0.000391166,-0.946568,0.00285984,0.0134812,1574,1695,12.3257,-55.3569
357,-671,12.2745,54.6709,0.00105946,0.00241205,-0.0024392,0.00426697,-0.00079546,-0.920631,0.00314353,0.0133245,1581,1695,12.2746,-54.671
364,-671,12.2535,54.0308,0.00099045,0.0021657,-0.00264065,0.00428332,-0.00112717,-0.894879,0.00329615,0.0139489,1588,1695,12.2536,-54.0308
371,-671,12.2009,53.4281,0.00100809,0.00196702,-0.00292902,0.00445556,-0.00148045,-0.866525,0.00356775,0.0153617,1595,1695,12.2009,-53.4281
378,-671,12.1694,52.7831,0.00106477,0.00180779,-0.00319179,0.00464962,-0.00177706,-0.843336,0.00383201,0.0134406,1602,1695,12.1694,-52.7831
385,-671,12.1316,52.1051,0.0012268,0.00182193,-0.00358149,0.0051182,-0.00206947,-0.826845,0.00427243,0.0153972,1609,1695,12.1316,-52.1051
392,-671,12.0444,51.4868,0.00144859,0.00192746,-0.00408987,0.0057849,-0.00240885,-0.814637,0.00486267,0.0192664,1616,1695,12.0445,-51.4869
399,-671,11.9944,50.787,0.00183034,0.0020137,-0.00469657,0.00661948,-0.00277544,-0.795157,0.00557345,0.0167711,1623,1695,11.9944,-50.787
406,-671,12.026,50.0627,0.00228798,0.00231838,-0.00529079,0.00759399,-0.00298763,-0.786835,0.0062993,0.0267421,1630,1695,12.026,-50.0628
413,-671,11.9855,49.4635,0.00299467,0.00255974,-0.00633797,0.0091189,-0.00356449,-0.768249,0.00755319,0.0410592,1637,1695,11.9854,-49.4635
420,-671,12.1968,48.738,0,0,0,0,0,0,0,-1,1644,1695,12.1968,-48.7381
427,-671,11.9879,42.9364,0,0,0,0,0,0,0,-1,1651,1695,11.988,-42.9364
434,-671,12.0647,42.6493,0,0,0,0,0,0,0,-1,1658,1695,12.0648,-42.6493
441,-671,11.8904,39.6104,0,0,0,0,0,0,0,-1,1665,1695,11.8904,-39.6103
448,-671,11.6979,39.1995,0,0,0,0,0,0,0,-1,1672,1695,11.6979,-39.1994
455,-671,11.5221,39.0929,0,0,0,0,0,0,0,-1,1679,1695,11.5221,-39.0929
462,-671,5.86255,4.47961,0,0,0,0,0,0,0,-1,1686,1695,5.8625,-4.4796
469,-671,3.71301,3.76978,0,0,0,0,0,0,0,-1,1693,1695,3.71297,-3.76974
476,-671,3.75574,3.18848,0,0,0,0,0,0,0,-1,1700,1695,3.7558,-3.18847
483,-671,7.81824,12.1041,0,0,0,0,0,0,0,-1,1707,1695,7.81826,-12.1041
490,-671,0,0,0,0,0,0,0,0,0,-1,1714,1695,0,0
497,-671,0,0,0,0,0,0,0,0,0,-1,1721,1695,0,0
504,-671,0,0,0,0,0,0,0,0,0,-1,1728,1695,0,0
511,-671,0,0,0,0,0,0,0,0,0,-1,1735,1695,0,0
518,-671,0,0,0,0,0,0,0,0,0,-1,1742,1695,0,0
525,-671,0,0,0,0,0,0,0,0,0,-1,1749,1695,0,0
532,-671,0,0,0,0,0,0,0,0,0,-1,1756,1695,0,0
539,-671,0,0,0,0,0,0,0,0,0,-1,1763,1695,0,0
546,-671,0,0,0,0,0,0,0,0,0,-1,1770,1695,0,0
553,-671,0,0,0,0,0,0,0,0,0,-1,1777,1695,0,0
560,-671,0,0,0,0,0,0,0,0,0,-1,1784,1695,0,0
567,-671,0,0,0,0,0,0,0,0,0,-1,1791,1695,0,0
574,-671,0,0,0,0,0,0,0,0,0,-1,1798,1695,0,0
581,-671,0,0,0,0,0,0,0,0,0,-1,1805,1695,0,0
588,-671,0,0,0,0,0,0,0,0,0,-1,1812,1695,0,0
595,-671,0,0,0,0,0,0,0,0,0,-1,1819,1695,0,0
602,-671,0,0,0,0,0,0,0,0,0,-1,1826,1695,0,0
609,-671,0,0,0,0,0,0,0,0,0,-1,1833,1695,0,0
616,-671,0,0,0,0,0,0,0,0,0,-1,1840,1695,0,0
623,-671,0,0,0,0,0,0,0,0,0,-1,1847,1695,0,0
630,-671,0,0,0,0,0,0,0,0,0,-1,1854,1695,0,0
637,-671,0,0,0,0,0,0,0,0,0,-1,1861,1695,0,0
644,-671,0,0,0,0,0,0,0,0,0,-1,1868,1695,0,0
651,-671,0,0,0,0,0,0,0,0,0,-1,1875,1695,0,0
658,-671,0,0,0,0,0,0,0,0,0,-1,1882,1695,0,0
665,-671,0,0,0,0,0,0,0,0,0,-1,1889,1695,0,0
672,-671,0,0,0,0,0,0,0,0,0,-1,1896,1695,0,0
679,-671,0,0,0,0,0,0,0,0,0,-1,1903,1695,0,0
686,-671,0,0,0,0,0,0,0,0,0,-1,1910,1695,0,0
693,-671,0,0,0,0,0,0,0,0,0,-1,1917,1695,0,0
700,-671,0,0,0,0,0,0,0,0,0,-1,1924,1695,0,0
707,-671,0,0,0,0,0,0,0,0,0,-1,1931,1695,0,0
714,-671,0,0,0,0,0,0,0,0,0,-1,1938,1695,0,0
721,-671,0,0,0,0,0,0,0,0,0,-1,1945,1695,0,0
728,-671,0,0,0,0,0,0,0,0,0,-1,1952,1695,0,0
735,-671,0,0,0,0,0,0,0,0,0,-1,1959,1695,0,0
742,-671,0,0,0,0,0,0,0,0,0,-1,1966,1695,0,0
749,-671,0,0,0,0,0,0,0,0,0,-1,1973,1695,0,0
756,-671,0,0,0,0,0,0,0,0,0,-1,1980,1695,0,0
763,-671,0,0,0,0,0,0,0,0,0,-1,1987,1695,0,0
770,-671,0,0,0,0,0,0,0,0,0,-1,1994,1695,0,0
777,-671,0,0,0,0,0,0,0,0,0,-1,2001,1695,0,0
784,-671,0,0,0,0,0,0,0,0,0,-1,2008,1695,0,0
791,-671,0,0,0,0,0,0,0,0,0,-1,2015,1695,0,0
798,-671,0,0,0,0,0,0,0,0,0,-1,2022,1695,0,0
805,-671,0,0,0,0,0,0,0,0,0,-1,2029,1695,0,0
812,-671,0,0,0,0,0,0,0,0,0,-1,2036,1695,0,0
-700,-678,0,0,0,0,0,0,0,0,0,-1,524,1702,0,0
-693,-678,0,0,0,0,0,0,0,0,0,-1,531,1702,0,0
-686,-678,0,0,0,0,0,0,0,0,0,-1,538,1702,0,0
-679,-678,0,0,0,0,0,0,0,0,0,-1,545,1702,0,0
-672,-678,0,0,0,0,0,0,0,0,0,-1,552,1702,0,0
-665,-678,0,0,0,0,0,0,0,0,0,-1,559,1702,0,0
-658,-678,0,0,0,0,0,0,0,0,0,-1,566,1702,0,0
-651,-678,0,0,0,0,0,0,0,0,0,-1,573,1702,0,0
-644,-678,0,0,0,0,0,0,0,0,0,-1,580,1702,0,0
-637,-678,0,0,0,0,0,0,0,0,0,-1,587,1702,0,0
-630,-678,0,0,0,0,0,0,0,0,0,-1,594,1702,0,0
-623,-678,0,0,0,0,0,0,0,0,0,-1,601,1702,0,0
-616,-678,0,0,0,0,0,0,0,0,0,-1,608,1702,0,0
-609,-678,0,0,0,0,0,0,0,0,0,-1,615,1702,0,0
-602,-678,0,0,0,0,0,0,0,0,0,-1,622,1702,0,0
-595,-678,0,0,0,0,0,0,0,0,0,-1,629,1702,0,0
-588,-678,0,0,0,0,0,0,0,0,0,-1,636,1702,0,0
-581,-678,0,0,0,0,0,0,0,0,0,-1,643,1702,0,0
-574,-678,0,0,0,0,0,0,0,0,0,-1,650,1702,0,0
-567,-678,0,0,0,0,0,0,0,0,0,-1,657,1702,0,0
-560,-678,0,0,0,0,0,0,0,0,0,-1,664,1702,0,0
-553,-678,0,0,0,0,0,0,0,0,0,-1,671,1702,0,0
-546,-678,0,0,0,0,0,0,0,0,0,-1,678,1702,0,0
-539,-678,0,0,0,0,0,0,0,0,0,-1,685,1702,0,0
-532,-678,0,0,0,0,0,0,0,0,0,-1,692,1702,0,0
-525,-678,0,0,0,0,0,0,0,0,0,-1,699,1702,0,0
-518,-678,0,0,0,0,0,0,0,0,0,-1,706,1702,0,0
-511,-678,0,0,0,0,0,0,0,0,0,-1,713,1702,0,0
-504,-678,0,0,0,0,0,0,0,0,0,-1,720,1702,0,0
-497,-678,0,0,0,0,0,0,0,0,0,-1,727,1702,0,0
-490,-678,0,0,0,0,0,0,0,0,0,-1,734,1702,0,0
-483,-678,0,0,0,0,0,0,0,0,0,-1,741,1702,0,0
-476,-678,0,0,0,0,0,0,0,0,0,-1,748,1702,0,0
-469,-678,0,0,0,0,0,0,0,0,0,-1,755,1702,0,0
-462,-678,0,0,0,0,0,0,0,0,0,-1,762,1702,0,0
-455,-678,0,0,0,0,0,0,0,0,0,-1,769,1702,0,0
-448,-678,0,0,0,0,0,0,0,0,0,-1,776,1702,0,0
-441,-678,0,0,0,0,0,0,0,0,0,-1,783,1702,0,0
-434,-678,0,0,0,0,0,0,0,0,0,-1,790,1702,0,0
-427,-678,0,0,0,0,0,0,0,0,0,-1,797,1702,0,0
-420,-678,0,0,0,0,0,0,0,0,0,-1,804,1702,0,0
-413,-678,0,0,0,0,0,0,0,0,0,-1,811,1702,0,0
-406,-678,0,0,0,0,0,0,0,0,0,-1,818,1702,0,0
-399,-678,0,0,0,0,0,0,0,0,0,-1,825,1702,0,0
-392,-678,0,0,0,0,0,0,0,0,0,-1,832,1702,0,0
-385,-678,0,0,0,0,0,0,0,0,0,-1,839,1702,0,0
-378,-678,0,0,0,0,0,0,0,0,0,-1,846,1702,0,0
-371,-678,0,0,0,0,0,0,0,0,0,-1,853,1702,0,0
-364,-678,0,0,0,0,0,0,0,0,0,-1,860,1702,0,0
-357,-678,0,0,0,0,0,0,0,0,0,-1,867,1702,0,0
-350,-678,-5.79944,6.11865,0,0,0,0,0,0,0,-1,874,1702,-5.79942,-6.11864
-343,-678,8.83331,46.1378,0,0,0,0,0,0,0,-1,881,1702,8.83334,-46.1378
-336,-678,7.73517,46.2286,0,0,0,0,0,0,0,-1,888,1702,7.73516,-46.2286
-329,-678,6.11768,46.3923,0,0,0,0,0,0,0,-1,895,1702,6.11768,-46.3923
-322,-678,8.50494,35.5048,0,0,0,0,0,0,0,-1,902,1702,8.50495,-35.5047
-315,-678,6.50409,44.3799,0,0,0,0,0,0,0,-1,909,1702,6.50409,-44.3799
-308,-678,6.23431,46.8629,0,0,0,0,0,0,0,-1,916,1702,6.23431,-46.8629
-301,-678,6.51105,47.604,0.0160391,0.022189,0.00185752,0.0227065,0.0155216,1.29909,0.0134009,0.0483228,923,1702,6.51107,-47.604
-294,-678,6.71228,47.7014,0.014073,0.0205317,0.00411148,0.0225304,0.0120743,1.1183,0.0130191,0.0471177,930,1702,6.7123,-47.7014
-287,-678,6.89325,49.7938,0,0,0,0,0,0,0,-1,937,1702,6.89328,-49.7938
-280,-678,6.37402,50.0752,0.0098155,0.015425,0.00643089,0.0196361,0.00560433,0.99103,0.0116798,0.0440388,944,1702,6.37401,-50.0752
-273,-678,6.42596,50.8346,0.00775636,0.012628,0.00659368,0.0172214,0.00316297,0.962333,0.0105853,0.0440013,951,1702,6.42597,-50.8346
-266,-678,6.40503,51.739,0.00638845,0.00988099,0.006337,0.0147079,0.00156151,0.919845,0.00932845,0.0353052,958,1702,6.40506,-51.739
-259,-678,6.52856,52.4722,0.00517568,0.00783917,0.00565748,0.0123195,0.000695317,0.900991,0.00799134,0.0229239,965,1702,6.52858,-52.4722
-252,-678,6.55609,53.1454,0.00393634,0.00618132,0.00480156,0.00998985,0.000127818,0.900224,0.00661771,0.0179376,972,1702,6.5561,-53.1453
-245,-678,6.50177,53.8138,0.00231758,0.00434243,0.00430672,0.00775412,-0.00109411,0.900842,0.00557005,0.0190716,979,1702,6.50175,-53.8139
-238,-678,6.43256,54.4652,0.00113879,0.00252585,0.00357338,0.00547238,-0.00180773,0.881248,0.00437708,0.016025,986,1702,6.43257,-54.4652
-231,-678,6.37683,55.109,0.000795031,0.00213046,0.00277343,0.00431542,-0.00138993,0.903527,0.0034353,0.0137525,993,1702,6.37685,-55.1091
-224,-678,6.3205,55.7388,0.000682272,0.00151182,0.00207232,0.00321046,-0.00101637,0.884167,0.0025476,0.0136532,1000,1702,6.3205,-55.7387
-217,-678,6.302,56.3947,0.000559399,0.00117681,0.00149075,0.00239048,-0.000654272,0.887496,0.00185071,0.0144542,1007,1702,6.302,-56.3947
-210,-678,6.28375,57.0704,0.000453412,0.00101237,0.00112939,0.00189634,-0.000430567,0.906691,0.00142953,0.0155734,1014,1702,6.28374,-57.0705
-203,-678,6.26428,57.6495,0.000439694,0.000801371,0.000983916,0.00162093,-0.000379864,0.876281,0.001227,0.0206937,1021,1702,6.26433,-57.6495
-196,-678,6.22961,58.2454,0.000610131,0.000497418,0.00085702,0.00141265,-0.000305097,0.752566,0.00105823,0.0207732,1028,1702,6.22962,-58.2454
-189,-678,6.17981,58.8618,0.000773915,0.000431998,0.00063667,0.00126218,-5.62668e-05,0.654232,0.000860822,0.0121289,1035,1702,6.1798,-58.8618
-182,-678,6.1676,59.4537,0.000914321,0.000539707,0.000358198,0.00113123,0.000322799,0.544492,0.000672877,0.0109528,1042,1702,6.16756,-59.4537
-175,-678,6.15283,60.0065,0.00116571,0.000712889,0.000146098,0.00120875,0.000669844,0.286526,0.000699238,0.0113262,1049,1702,6.15288,-60.0064
-168,-678,6.12671,60.5559,0.00128415,0.000862441,-0.000140306,0.00132656,0.000820026,-0.293569,0.000772987,0.0112381,1056,1702,6.12676,-60.5559
-161,-678,6.12207,61.0978,0.00134424,0.00119305,-0.000429531,0.00170478,0.000832511,-0.69829,0.000984342,0.0105274,1063,1702,6.12206,-61.0977
-154,-678,6.1261,61.6432,0.00148473,0.00159428,-0.000730459,0.00227201,0.000806992,-0.822822,0.00132996,0.00985599,1070,1702,6.12615,-61.6432
-147,-678,6.09766,62.172,0.00167752,0.00213483,-0.0010665,0.00299691,0.00081544,-0.890997,0.00178918,0.0114567,1077,1702,6.09767,-62.1721
-140,-678,6.15076,62.6711,0.00189729,0.002606,-0.00142062,0.00371579,0.000787494,-0.907622,0.00226088,0.011966,1084,1702,6.15072,-62.6712
-133,-678,6.18933,63.1285,0.0021608,0.00311053,-0.0016828,0.00438418,0.000887149,-0.922916,0.00267654,0.0136126,1091,1702,6.18928,-63.1286
-126,-678,6.1825,63.671,0.00266593,0.00342141,-0.00196356,0.00504324,0.00104411,-0.880425,0.00307381,0.0199111,1098,1702,6.18246,-63.671
-119,-678,6.24475,64.0779,0,0,0,0,0,0,0,-1,1105,1702,6.24478,-64.0779
-112,-678,6.26855,64.5492,0,0,0,0,0,0,0,-1,1112,1702,6.26852,-64.5492
-105,-678,6.22021,65.1604,0,0,0,0,0,0,0,-1,1119,1702,6.22015,-65.1603
-98,-678,6.26965,65.676,0,0,0,0,0,0,0,-1,1126,1702,6.26959,-65.676
-91,-678,6.44653,65.8257,0,0,0,0,0,0,0,-1,1133,1702,6.44652,-65.8257
-84,-678,6.58545,36.5073,0,0,0,0,0,0,0,-1,1140,1702,6.58544,-36.5073
-77,-678,5.95154,29.1879,0,0,0,0,0,0,0,-1,1147,1702,5.95156,-29.1878
-70,-678,4.75891,19.6552,0,0,0,0,0,0,0,-1,1154,1702,4.75895,-19.6551
-63,-678,3.41687,11.0365,0,0,0,0,0,0,0,-1,1161,1702,3.41682,-11.0365
-56,-678,1.72388,6.13159,0,0,0,0,0,0,0,-1,1168,1702,1.72388,-6.13157
-49,-678,-0.241699,5.29895,0,0,0,0,0,0,0,-1,1175,1702,-0.241682,-5.29897
-42,-678,0.297119,3.90649,0,0,0,0,0,0,0,-1,1182,1702,0.297139,-3.90655
-35,-678,0.498413,3.64038,0,0,0,0,0,0,0,-1,1189,1702,0.498471,-3.64038
-28,-678,0.132446,3.55994,0,0,0,0,0,0,0,-1,1196,1702,0.132432,-3.55993
-21,-678,7.51819,67.6843,0,0,0,0,0,0,0,-1,1203,1702,7.51814,-67.6844
-14,-678,21.4734,75.4371,0,0,0,0,0,0,0,-1,1210,1702,21.4734,-75.4371
-7,-678,20.3732,75.5367,0,0,0,0,0,0,0,-1,1217,1702,20.3732,-75.5368
0,-678,19.2439,74.679,0,0,0,0,0,0,0,-1,1224,1702,19.2439,-74.6789
7,-678,18.0018,74.7404,0,0,0,0,0,0,0,-1,1231,1702,18.0018,-74.7403
14,-678,16.6436,72.0892,0,0,0,0,0,0,0,-1,1238,1702,16.6436,-72.0892
21,-678,15.5681,72.6591,0,0,0,0,0,0,0,-1,1245,1702,15.5682,-72.659
28,-678,14.8395,72.9979,0,0,0,0,0,0,0,-1,1252,1702,14.8395,-72.998
35,-678,13.7837,73.1901,0,0,0,0,0,0,0,-1,1259,1702,13.7837,-73.19
42,-678,0.305786,70.9513,0,0,0,0,0,0,0,-1,1266,1702,0.305793,-70.9513
49,-678,-0.374146,71.4697,0,0,0,0,0,0,0,-1,1273,1702,-0.374189,-71.4697
56,-678,15.0009,66.8501,0,0,0,0,0,0,0,-1,1280,1702,15.0008,-66.8501
63,-678,14.4337,66.4907,0,0,0,0,0,0,0,-1,1287,1702,14.4337,-66.4907
70,-678,-2.20435,73.943,0,0,0,0,0,0,0,-1,1294,1702,-2.2044,-73.943
77,-678,13.0408,64.9359,0,0,0,0,0,0,0,-1,1301,1702,13.0407,-64.9359
84,-678,6.88086,73.8018,0,0,0,0,0,0,0,-1,1308,1702,6.8808,-73.8017
91,-678,7.50684,72.9137,0,0,0,0,0,0,0,-1,1315,1702,7.50683,-72.9137
98,-678,9.65088,68.7289,0,0,0,0,0,0,0,-1,1322,1702,9.65083,-68.7289
105,-678,9.30823,68.9954,-0.0170789,0.0864731,-0.0160295,0.0888976,-0.0195035,-1.42068,0.0667233,0.0449463,1329,1702,9.30821,-68.9953
112,-678,9.83508,69.5354,-0.0141605,0.0834851,-0.0166957,0.0862609,-0.0169362,-1.40605,0.0639052,0.0426481,1336,1702,9.83514,-69.5354
119,-678,9.40967,69.266,-0.0113172,0.0795102,-0.0177915,0.0828709,-0.0146779,-1.3841,0.060734,0.0395513,1343,1702,9.40961,-69.2659
126,-678,8.88904,68.5482,-0.00899961,0.0775463,-0.0199374,0.0819183,-0.0133717,-1.35492,0.0595718,0.0423435,1350,1702,8.88904,-68.5483
133,-678,8.42554,67.9174,-0.00673688,0.0758884,-0.0223527,0.0815478,-0.0123963,-1.32282,0.0589335,0.0483142,1357,1702,8.42551,-67.9173
140,-678,8.12146,67.2789,-0.00450127,0.0743077,-0.0247632,0.0814428,-0.0116364,-1.29026,0.0585606,0.0497939,1364,1702,8.12149,-67.2789
147,-678,7.86768,66.5879,0,0,0,0,0,0,0,-1,1371,1702,7.86766,-66.5879
154,-678,7.64893,65.8849,0,0,0,0,0,0,0,-1,1378,1702,7.6489,-65.8848
161,-678,8.81226,34.8624,0,0,0,0,0,0,0,-1,1385,1702,8.81229,-34.8624
168,-678,4.21863,5.25781,0,0,0,0,0,0,0,-1,1392,1702,4.21865,-5.25781
175,-678,5.21899,5.9635,0,0,0,0,0,0,0,-1,1399,1702,5.21894,-5.96346
182,-678,7.31262,6.75122,0,0,0,0,0,0,0,-1,1406,1702,7.3126,-6.75123
189,-678,5.96021,6.36853,0,0,0,0,0,0,0,-1,1413,1702,5.96018,-6.36851
196,-678,5.01599,8.15771,0,0,0,0,0,0,0,-1,1420,1702,5.01596,-8.15767
203,-678,4.64771,13.0559,0,0,0,0,0,0,0,-1,1427,1702,4.64766,-13.0559
210,-678,5.6532,18.5957,0,0,0,0,0,0,0,-1,1434,1702,5.65318,-18.5958
217,-678,6.88049,23.4835,0,0,0,0,0,0,0,-1,1441,1702,6.88047,-23.4835
224,-678,8.521,32.0977,0,0,0,0,0,0,0,-1,1448,1702,8.52098,-32.0977
231,-678,9.96838,42.3734,0,0,0,0,0,0,0,-1,1455,1702,9.96844,-42.3734
238,-678,11.679,64.2184,0,0,0,0,0,0,0,-1,1462,1702,11.679,-64.2184
245,-678,11.7771,63.6735,0,0,0,0,0,0,0,-1,1469,1702,11.7771,-63.6735
252,-678,11.7609,63.288,0.00645606,-0.000117842,0.000108979,0.00645786,-0.000119648,0.0165715,0.00434567,0.0236172,1476,1702,11.7608,-63.2879
259,-678,11.7628,62.7853,0.00559631,0.000419516,3.65081e-05,0.00559656,0.000419259,0.0070518,0.00359944,0.0181074,1483,1702,11.7628,-62.7853
266,-678,11.8246,62.2418,0.00493498,0.000774899,-0.000162061,0.00494128,0.000768596,-0.0388777,0.00307023,0.0142818,1490,1702,11.8246,-62.2418
273,-678,11.8459,61.7354,0.00444758,0.00105519,-0.000271141,0.00446912,0.00103366,-0.0792557,0.0027016,0.0118061,1497,1702,11.8459,-61.7354
280,-678,11.847,61.2275,0.00382198,0.00124834,-0.000357574,0.00387074,0.00119958,-0.135518,0.00228797,0.0126439,1504,1702,11.847,-61.2276
287,-678,11.8577,60.6566,0.00323463,0.00139625,-0.000436133,0.00333285,0.00129803,-0.22151,0.00193983,0.013032,1511,1702,11.8577,-60.6566
294,-678,11.8488,60.0657,0.00269618,0.00145904,-0.000489093,0.00286618,0.00128904,-0.334516,0.00165758,0.0135184,1518,1702,11.8488,-60.0657
301,-678,11.8204,59.5134,0.00215655,0.00159726,-0.000648217,0.00258287,0.00117094,-0.581758,0.00149338,0.0128046,1525,1702,11.8205,-59.5135
308,-678,11.8137,58.9626,0.00171852,0.0018018,-0.000873953,0.00263511,0.000885216,-0.809202,0.00154844,0.0139316,1532,1702,11.8137,-58.9626
315,-678,11.7964,58.3788,0.00140555,0.00194515,-0.00113799,0.00284489,0.000505813,-0.901791,0.00175249,0.0154646,1539,1702,11.7964,-58.3788
322,-678,11.7864,57.851,0.0010856,0.00216289,-0.00140152,0.00312571,0.000122786,-0.968861,0.00204411,0.0185115,1546,1702,11.7863,-57.851
329,-678,11.7642,57.2394,0.000892384,0.00235662,-0.00172263,0.00349625,-0.000247248,-0.986333,0.00241747,0.0153154,1553,1702,11.7641,-57.2394
336,-678,11.7234,56.6001,0.000776301,0.00253767,-0.00200936,0.00385087,-0.000536901,-0.991935,0.00276365,0.0134215,1560,1702,11.7234,-56.6001
343,-678,11.7124,55.9825,0.000721795,0.00271341,-0.00234018,0.00426084,-0.000825642,-0.986556,0.00315203,0.0148087,1567,1702,11.7124,-55.9825
350,-678,11.6953,55.364,0.000732998,0.00280472,-0.00276238,0.00471908,-0.00118136,-0.964778,0.00360495,0.0152887,1574,1702,11.6954,-55.364
357,-678,11.6517,54.7305,0.000811578,0.00282906,-0.00316699,0.00514408,-0.00150344,-0.939577,0.00402524,0.0117328,1581,1702,11.6517,-54.7305
364,-678,11.616,54.0999,0.000901129,0.0027298,-0.00346059,0.00539481,-0.00176388,-0.914554,0.00430664,0.0124756,1588,1702,11.6159,-54.0999
371,-678,11.5576,53.4421,0.00109248,0.00267471,-0.00386677,0.00583047,-0.00206328,-0.886302,0.00472729,0.0133111,1595,1702,11.5576,-53.4422
378,-678,11.5057,52.8099,0.00131113,0.00262799,-0.00426227,0.00628238,-0.00234326,-0.862032,0.00515021,0.0136847,1602,1702,11.5058,-52.81
385,-678,11.476,52.1685,0.00163279,0.00277046,-0.00480123,0.00703644,-0.00263318,-0.844362,0.00577248,0.0140806,1609,1702,11.4759,-52.1685
392,-678,11.4794,51.5123,0.00204175,0.00301038,-0.00547232,0.00801977,-0.00296765,-0.829535,0.00656331,0.0232837,1616,1702,11.4793,-51.5124
399,-678,11.4524,50.8348,0.00265691,0.00312433,-0.0062369,0.00913189,-0.00335066,-0.804125,0.00746,0.0339756,1623,1702,11.4524,-50.8348
406,-678,11.4061,50.0789,0.00327558,0.00359184,-0.00694182,0.0103773,-0.00350991,-0.796786,0.00833819,0.048338,1630,1702,11.4062,-50.0788
413,-678,11.4495,49.249,0,0,0,0,0,0,0,-1,1637,1702,11.4495,-49.249
420,-678,11.2355,43.032,0,0,0,0,0,0,0,-1,1644,1702,11.2355,-43.032
427,-678,10.0541,38.9548,0,0,0,0,0,0,0,-1,1651,1702,10.0541,-38.9548
434,-678,10.1094,38.722,0,0,0,0,0,0,0,-1,1658,1702,10.1094,-38.7221
441,-678,11.6007,39.4658,0,0,0,0,0,0,0,-1,1665,1702,11.6007,-39.4658
448,-678,11.344,38.9084,0,0,0,0,0,0,0,-1,1672,1702,11.344,-38.9084
455,-678,5.44678,5.54297,0,0,0,0,0,0,0,-1,1679,1702,5.44676,-5.54294
462,-678,3.86792,2.87402,0,0,0,0,0,0,0,-1,1686,1702,3.86796,-2.87406
469,-678,2.26587,1.98755,0,0,0,0,0,0,0,-1,1693,1702,2.26592,-1.98755
476,-678,0,0,0,0,0,0,0,0,0,-1,1700,1702,0,0
483,-678,0,0,0,0,0,0,0,0,0,-1,1707,1702,0,0
490,-678,0,0,0,0,0,0,0,0,0,-1,1714,1702,0,0
497,-678,0,0,0,0,0,0,0,0,0,-1,1721,1702,0,0
504,-678,0,0,0,0,0,0,0,0,0,-1,1728,1702,0,0
511,-678,0,0,0,0,0,0,0,0,0,-1,1735,1702,0,0
518,-678,0,0,0,0,0,0,0,0,0,-1,1742,1702,0,0
525,-678,0,0,0,0,0,0,0,0,0,-1,1749,1702,0,0
532,-678,0,0,0,0,0,0,0,0,0,-1,1756,1702,0,0
539,-678,0,0,0,0,0,0,0,0,0,-1,1763,1702,0,0
546,-678,0,0,0,0,0,0,0,0,0,-1,1770,1702,0,0
553,-678,0,0,0,0,0,0,0,0,0,-1,1777,1702,0,0
560,-678,0,0,0,0,0,0,0,0,0,-1,1784,1702,0,0
567,-678,0,0,0,0,0,0,0,0,0,-1,1791,1702,0,0
574,-678,0,0,0,0,0,0,0,0,0,-1,1798,1702,0,0
581,-678,0,0,0,0,0,0,0,0,0,-1,1805,1702,0,0
588,-678,0,0,0,0,0,0,0,0,0,-1,1812,1702,0,0
595,-678,0,0,0,0,0,0,0,0,0,-1,1819,1702,0,0
602,-678,0,0,0,0,0,0,0,0,0,-1,1826,1702,0,0
609,-678,0,0,0,0,0,0,0,0,0,-1,1833,1702,0,0
616,-678,0,0,0,0,0,0,0,0,0,-1,1840,1702,0,0
623,-678,0,0,0,0,0,0,0,0,0,-1,1847,1702,0,0
630,-678,0,0,0,0,0,0,0,0,0,-1,1854,1702,0,0
637,-678,0,0,0,0,0,0,0,0,0,-1,1861,1702,0,0
644,-678,0,0,0,0,0,0,0,0,0,-1,1868,1702,0,0
651,-678,0,0,0,0,0,0,0,0,0,-1,1875,1702,0,0
658,-678,0,0,0,0,0,0,0,0,0,-1,1882,1702,0,0
665,-678,0,0,0,0,0,0,0,0,0,-1,1889,1702,0,0
672,-678,0,0,0,0,0,0,0,0,0,-1,1896,1702,0,0
679,-678,0,0,0,0,0,0,0,0,0,-1,1903,1702,0,0
686,-678,0,0,0,0,0,0,0,0,0,-1,1910,1702,0,0
693,-678,0,0,0,0,0,0,0,0,0,-1,1917,1702,0,0
700,-678,0,0,0,0,0,0,0,0,0,-1,1924,1702,0,0
707,-678,0,0,0,0,0,0,0,0,0,-1,1931,1702,0,0
714,-678,0,0,0,0,0,0,0,0,0,-1,1938,1702,0,0
721,-678,0,0,0,0,0,0,0,0,0,-1,1945,1702,0,0
728,-678,0,0,0,0,0,0,0,0,0,-1,1952,1702,0,0
735,-678,0,0,0,0,0,0,0,0,0,-1,1959,1702,0,0
742,-678,0,0,0,0,0,0,0,0,0,-1,1966,1702,0,0
749,-678,0,0,0,0,0,0,0,0,0,-1,1973,1702,0,0
756,-678,0,0,0,0,0,0,0,0,0,-1,1980,1702,0,0
763,-678,0,0,0,0,0,0,0,0,0,-1,1987,1702,0,0
770,-678,0,0,0,0,0,0,0,0,0,-1,1994,1702,0,0
777,-678,0,0,0,0,0,0,0,0,0,-1,2001,1702,0,0
784,-678,0,0,0,0,0,0,0,0,0,-1,2008,1702,0,0
791,-678,0,0,0,0,0,0,0,0,0,-1,2015,1702,0,0
798,-678,0,0,0,0,0,0,0,0,0,-1,2022,1702,0,0
805,-678,0,0,0,0,0,0,0,0,0,-1,2029,1702,0,0
812,-678,0,0,0,0,0,0,0,0,0,-1,2036,1702,0,0
-700,-685,0,0,0,0,0,0,0,0,0,-1,524,1709,0,0
-693,-685,0,0,0,0,0,0,0,0,0,-1,531,1709,0,0
-686,-685,0,0,0,0,0,0,0,0,0,-1,538,1709,0,0
-679,-685,0,0,0,0,0,0,0,0,0,-1,545,1709,0,0
-672,-685,0,0,0,0,0,0,0,0,0,-1,552,1709,0,0
-665,-685,0,0,0,0,0,0,0,0,0,-1,559,1709,0,0
-658,-685,0,0,0,0,0,0,0,0,0,-1,566,1709,0,0
-651,-685,0,0,0,0,0,0,0,0,0,-1,573,1709,0,0
-644,-685,0,0,0,0,0,0,0,0,0,-1,580,1709,0,0
-637,-685,0,0,0,0,0,0,0,0,0,-1,587,1709,0,0
-630,-685,0,0,0,0,0,0,0,0,0,-1,594,1709,0,0
-623,-685,0,0,0,0,0,0,0,0,0,-1,601,1709,0,0
-616,-685,0,0,0,0,0,0,0,0,0,-1,608,1709,0,0
-609,-685,0,0,0,0,0,0,0,0,0,-1,615,1709,0,0
-602,-685,0,0,0,0,0,0,0,0,0,-1,622,1709,0,0
-595,-685,0,0,0,0,0,0,0,0,0,-1,629,1709,0,0
-588,-685,0,0,0,0,0,0,0,0,0,-1,636,1709,0,0
-581,-685,0,0,0,0,0,0,0,0,0,-1,643,1709,0,0
-574,-685,0,0,0,0,0,0,0,0,0,-1,650,1709,0,0
-567,-685,0,0,0,0,0,0,0,0,0,-1,657,1709,0,0
-560,-685,0,0,0,0,0,0,0,0,0,-1,664,1709,0,0
-553,-685,0,0,0,0,0,0,0,0,0,-1,671,1709,0,0
-546,-685,0,0,0,0,0,0,0,0,0,-1,678,1709,0,0
-539,-685,0,0,0,0,0,0,0,0,0,-1,685,1709,0,0
-532,-685,0,0,0,0,0,0,0,0,0,-1,692,1709,0,0
-525,-685,0,0,0,0,0,0,0,0,0,-1,699,1709,0,0
-518,-685,0,0,0,0,0,0,0,0,0,-1,706,1709,0,0
-511,-685,0,0,0,0,0,0,0,0,0,-1,713,1709,0,0
-504,-685,0,0,0,0,0,0,0,0,0,-1,720,1709,0,0
-497,-685,0,0,0,0,0,0,0,0,0,-1,727,1709,0,0
-490,-685,0,0,0,0,0,0,0,0,0,-1,734,1709,0,0
-483,-685,0,0,0,0,0,0,0,0,0,-1,741,1709,0,0
-476,-685,0,0,0,0,0,0,0,0,0,-1,748,1709,0,0
-469,-685,0,0,0,0,0,0,0,0,0,-1,755,1709,0,0
-462,-685,0,0,0,0,0,0,0,0,0,-1,762,1709,0,0
-455,-685,0,0,0,0,0,0,0,0,0,-1,769,1709,0,0
-448,-685,0,0,0,0,0,0,0,0,0,-1,776,1709,0,0
-441,-685,0,0,0,0,0,0,0,0,0,-1,783,1709,0,0
-434,-685,0,0,0,0,0,0,0,0,0,-1,790,1709,0,0
-427,-685,0,0,0,0,0,0,0,0,0,-1,797,1709,0,0
-420,-685,0,0,0,0,0,0,0,0,0,-1,804,1709,0,0
-413,-685,0,0,0,0,0,0,0,0,0,-1,811,1709,0,0
-406,-685,0,0,0,0,0,0,0,0,0,-1,818,1709,0,0
-399,-685,0,0,0,0,0,0,0,0,0,-1,825,1709,0,0
-392,-685,0,0,0,0,0,0,0,0,0,-1,832,1709,0,0
-385,-685,0,0,0,0,0,0,0,0,0,-1,839,1709,0,0
-378,-685,0,0,0,0,0,0,0,0,0,-1,846,1709,0,0
-371,-685,0,0,0,0,0,0,0,0,0,-1,853,1709,0,0
-364,-685,0,0,0,0,0,0,0,0,0,-1,860,1709,0,0
-357,-685,0,0,0,0,0,0,0,0,0,-1,867,1709,0,0
-350,-685,0,0,0,0,0,0,0,0,0,-1,874,1709,0,0
-343,-685,-5.98505,6.56335,0,0,0,0,0,0,0,-1,881,1709,-5.98505,-6.56329
-336,-685,-6.51312,5.10571,0,0,0,0,0,0,0,-1,888,1709,-6.51311,-5.10575
-329,-685,9.98907,36.2474,0,0,0,0,0,0,0,-1,895,1709,9.98909,-36.2475
-322,-685,3.83191,16.7219,0,0,0,0,0,0,0,-1,902,1709,3.8319,-16.7219
-315,-685,5.15784,21.4388,0,0,0,0,0,0,0,-1,909,1709,5.15783,-21.4389
-308,-685,6.98718,46.6025,0,0,0,0,0,0,0,-1,916,1709,6.98718,-46.6026
-301,-685,7.01422,47.5739,0,0,0,0,0,0,0,-1,923,1709,7.0142,-47.5739
-294,-685,7.0127,48.3958,0,0,0,0,0,0,0,-1,930,1709,7.01268,-48.3957
-287,-685,7.04834,49.1404,0,0,0,0,0,0,0,-1,937,1709,7.04836,-49.1404
-280,-685,6.98828,50.0225,0.0131444,0.020275,0.0074864,0.0250017,0.00841769,1.00762,0.0146892,0.0474323,944,1709,6.98826,-50.0225
-273,-685,7.00146,50.8214,0.0103058,0.016391,0.00784389,0.0217617,0.00493507,0.970412,0.0131746,0.0488334,951,1709,7.00144,-50.8214
-266,-685,6.89197,51.7234,0.00850403,0.0124265,0.00756811,0.0182834,0.00264717,0.912181,0.0114093,0.0492135,958,1709,6.89198,-51.7234
-259,-685,7.08356,52.4226,0.00688166,0.00973474,0.0066882,0.0151468,0.00146956,0.89047,0.00964543,0.0464893,965,1709,7.08355,-52.4227
-252,-685,7.24109,52.9854,0.00521225,0.0076639,0.00567803,0.0122469,0.000629229,0.891711,0.00796317,0.0423964,972,1709,7.24111,-52.9854
-245,-685,7.16614,53.7871,0.00299577,0.00540592,0.00515367,0.00949354,-0.00109184,0.900249,0.00672259,0.0395369,979,1709,7.16613,-53.7871
-238,-685,7.09802,54.5129,0.00138064,0.00324333,0.0043317,0.00674268,-0.00211871,0.89129,0.00534326,0.029546,986,1709,7.09801,-54.513
-231,-685,7.01019,55.1943,0.000888416,0.00271782,0.00340416,0.00532803,-0.00172179,0.916649,0.00424401,0.0186796,993,1709,7.01019,-55.1943
-224,-685,6.94733,55.799,0.000676624,0.00195828,0.00258188,0.00397767,-0.00134277,0.907041,0.00319486,0.0159174,1000,1709,6.9473,-55.799
-217,-685,6.92249,56.4423,0.000428488,0.00158379,0.00191714,0.00300842,-0.00099614,0.931727,0.00240737,0.0115887,1007,1709,6.92246,-56.4422
-210,-685,6.88831,57.1089,0.000179087,0.0014393,0.00155706,0.00248892,-0.00087053,0.977665,0.0020132,0.0163161,1014,1709,6.88832,-57.1089
-203,-685,6.86584,57.6909,3.35161e-05,0.00124344,0.00146997,0.00222806,-0.000951104,0.98061,0.0018842,0.0174653,1021,1709,6.8658,-57.6909
-196,-685,6.8252,58.2802,0.000157871,0.00091372,0.00139971,0.00198562,-0.000914033,0.917256,0.0017118,0.0144638,1028,1709,6.82525,-58.2801
-189,-685,6.76904,58.8634,0.000366075,0.000863099,0.00126198,0.0019008,-0.000671627,0.882616,0.00154067,0.0097388,1035,1709,6.76899,-58.8634
-182,-685,6.73633,59.4607,0.000534753,0.000913589,0.00105401,0.00179506,-0.000346721,0.874305,0.00132746,0.0140379,1042,1709,6.73637,-59.4607
-175,-685,6.71448,60.0359,0.00077559,0.00101559,0.000878832,0.00178257,8.60117e-06,0.85325,0.00118553,0.0136233,1049,1709,6.71446,-60.0359
-168,-685,6.69397,60.5844,0.000912041,0.00108041,0.000640202,0.00164194,0.00035051,0.85077,0.000998509,0.0108384,1056,1709,6.69397,-60.5844
-161,-685,6.69824,61.139,0.000946496,0.00131941,0.000387394,0.00156288,0.000703021,1.00969,0.000903844,0.0119473,1063,1709,6.69821,-61.139
-154,-685,6.68262,61.6965,0.00110789,0.00153237,0.000120109,0.001564,0.00107626,1.31331,0.00092404,0.011182,1070,1709,6.68256,-61.6966
-147,-685,6.65515,62.2039,0.00135394,0.00183815,-0.000213282,0.0019187,0.00127339,-1.2097,0.00112737,0.0104296,1077,1709,6.65511,-62.2039
-140,-685,6.68298,62.6581,0.00166151,0.00210276,-0.000567271,0.0024908,0.00127347,-0.970857,0.00143819,0.012747,1084,1709,6.68295,-62.6581
-133,-685,6.70276,63.1476,0.00195449,0.00236539,-0.000864319,0.00304834,0.00127154,-0.902084,0.001768,0.012398,1091,1709,6.7028,-63.1475
-126,-685,6.7019,63.652,0.00237582,0.00250076,-0.00117281,0.00361276,0.00126382,-0.812007,0.00211696,0.0102129,1098,1709,6.70191,-63.652
-119,-685,6.71667,64.1206,0.00303813,0.00240903,-0.00150156,0.00425773,0.00118943,-0.68215,0.00253673,0.0151698,1105,1709,6.71671,-64.1206
-112,-685,6.72815,64.5922,0.00370441,0.00228851,-0.0018321,0.00496059,0.00103233,-0.601028,0.0030223,0.0160289,1112,1709,6.7281,-64.5921
-105,-685,6.71936,65.0588,0.00428121,0.00205289,-0.00211879,0.00556092,0.00077317,-0.543343,0.00347832,0.0187277,1119,1709,6.71937,-65.0588
-98,-685,6.77722,65.4381,0.0048158,0.00166942,-0.0024193,0.00612842,0.000356795,-0.497117,0.00397203,0.0265783,1126,1709,6.77721,-65.4382
-91,-685,6.83215,65.6968,0.00584194,0.00129959,-0.00293692,0.00728342,-0.000141884,-0.456269,0.00490359,0.0485772,1133,1709,6.83213,-65.6968
-84,-685,6.90027,66.1713,0,0,0,0,0,0,0,-1,1140,1709,6.90024,-66.1712
-77,-685,6.88098,66.6442,0,0,0,0,0,0,0,-1,1147,1709,6.88095,-66.6441
-70,-685,7.02173,66.9767,0,0,0,0,0,0,0,-1,1154,1709,7.02169,-66.9767
-63,-685,6.03015,29.7728,0,0,0,0,0,0,0,-1,1161,1709,6.0302,-29.7728
-56,-685,3.93909,15.8704,0,0,0,0,0,0,0,-1,1168,1709,3.93905,-15.8704
-49,-685,3.07471,9.86011,0,0,0,0,0,0,0,-1,1175,1709,3.07467,-9.86009
-42,-685,2.70618,7.54504,0,0,0,0,0,0,0,-1,1182,1709,2.7062,-7.54504
-35,-685,2.95264,7.91516,0,0,0,0,0,0,0,-1,1189,1709,2.95262,-7.91517
-28,-685,8.11353,52.4509,0,0,0,0,0,0,0,-1,1196,1709,8.1135,-52.451
-21,-685,7.68652,68.6713,0,0,0,0,0,0,0,-1,1203,1709,7.6865,-68.6712
-14,-685,7.81274,68.7235,0,0,0,0,0,0,0,-1,1210,1709,7.81274,-68.7236
-7,-685,7.83728,68.9397,0,0,0,0,0,0,0,-1,1217,1709,7.83726,-68.9398
0,-685,7.78918,69.0862,0,0,0,0,0,0,0,-1,1224,1709,7.78918,-69.0862
7,-685,7.80908,69.224,0,0,0,0,0,0,0,-1,1231,1709,7.80913,-69.224
14,-685,8.12183,69.8265,0,0,0,0,0,0,0,-1,1238,1709,8.12181,-69.8265
21,-685,8.5343,69.9755,0,0,0,0,0,0,0,-1,1245,1709,8.53431,-69.9755
28,-685,8.59241,69.751,0,0,0,0,0,0,0,-1,1252,1709,8.59245,-69.751
35,-685,8.62195,69.8038,0,0,0,0,0,0,0,-1,1259,1709,8.62194,-69.8038
42,-685,8.76697,70.1327,0,0,0,0,0,0,0,-1,1266,1709,8.76692,-70.1327
49,-685,8.78259,70.1626,0,0,0,0,0,0,0,-1,1273,1709,8.78263,-70.1626
56,-685,-0.484985,71.3826,0,0,0,0,0,0,0,-1,1280,1709,-0.485029,-71.3826
63,-685,-1.07104,72.1707,0,0,0,0,0,0,0,-1,1287,1709,-1.0711,-72.1706
70,-685,9.11914,70.2517,0,0,0,0,0,0,0,-1,1294,1709,9.11913,-70.2517
77,-685,12.3151,71.6799,0,0,0,0,0,0,0,-1,1301,1709,12.315,-71.68
84,-685,6.4696,73.6356,0,0,0,0,0,0,0,-1,1308,1709,6.46956,-73.6356
91,-685,9.87061,68.9203,0,0,0,0,0,0,0,-1,1315,1709,9.87065,-68.9203
98,-685,9.60547,68.9552,-0.0149266,0.0759754,-0.0135538,0.0779533,-0.0169044,-1.42589,0.0584246,0.0442475,1322,1709,9.6055,-68.9552
105,-685,9.37329,68.9473,-0.0126877,0.0732807,-0.0134803,0.075345,-0.0147519,-1.41885,0.0558011,0.0485896,1329,1709,9.3733,-68.9472
112,-685,9.8739,69.1776,-0.0105252,0.070417,-0.0138713,0.0727282,-0.0128364,-1.4057,0.0532822,0.0484947,1336,1709,9.87389,-69.1776
119,-685,9.95374,68.9296,-0.0084901,0.0666487,-0.0144762,0.0693412,-0.0111826,-1.3869,0.0503704,0.047433,1343,1709,9.95375,-68.9296
126,-685,9.96106,68.5317,0,0,0,0,0,0,0,-1,1350,1709,9.96107,-68.5317
133,-685,10.2773,68.6963,0,0,0,0,0,0,0,-1,1357,1709,10.2773,-68.6963
140,-685,10.2113,68.6428,0,0,0,0,0,0,0,-1,1364,1709,10.2113,-68.6428
147,-685,7.66113,66.2727,0,0,0,0,0,0,0,-1,1371,1709,7.66113,-66.2727
154,-685,10.0796,56.0078,0,0,0,0,0,0,0,-1,1378,1709,10.0796,-56.0079
161,-685,10.4932,55.8827,0,0,0,0,0,0,0,-1,1385,1709,10.4932,-55.8827
168,-685,4.37524,10.8778,0,0,0,0,0,0,0,-1,1392,1709,4.37525,-10.8778
175,-685,3.97522,8.94324,0,0,0,0,0,0,0,-1,1399,1709,3.97519,-8.94328
182,-685,3.98218,9.19739,0,0,0,0,0,0,0,-1,1406,1709,3.98221,-9.1974
189,-685,4.53479,15.2343,0,0,0,0,0,0,0,-1,1413,1709,4.53474,-15.2343
196,-685,10.7043,66.8362,0,0,0,0,0,0,0,-1,1420,1709,10.7043,-66.8361
203,-685,10.8009,66.351,0,0,0,0,0,0,0,-1,1427,1709,10.8009,-66.351
210,-685,11.2126,65.8229,0,0,0,0,0,0,0,-1,1434,1709,11.2126,-65.8228
217,-685,11.1708,65.3041,0,0,0,0,0,0,0,-1,1441,1709,11.1707,-65.3041
224,-685,11.1061,64.963,0,0,0,0,0,0,0,-1,1448,1709,11.106,-64.963
231,-685,11.1407,64.6023,0,0,0,0,0,0,0,-1,1455,1709,11.1408,-64.6023
238,-685,11.2321,64.147,0.0062078,-0.0008481,-0.000188553,0.00621284,-0.000853135,-0.0266973,0.00445359,0.0384628,1462,1709,11.2321,-64.147
245,-685,11.261,63.6641,0.00558931,-0.000476749,-0.000208533,0.00559647,-0.00048391,-0.034323,0.0039023,0.0225413,1469,1709,11.261,-63.6641
252,-685,11.2834,63.2303,0.00491033,7.20642e-05,-0.000205202,0.00491902,6.33767e-05,-0.0423111,0.00325843,0.0157836,1476,1709,11.2835,-63.2303
259,-685,11.2767,62.7661,0.00418126,0.000477072,-0.000346628,0.00421342,0.000444915,-0.092507,0.00267301,0.0117752,1483,1709,11.2768,-62.7662
266,-685,11.3049,62.2589,0.0035811,0.000753273,-0.00057734,0.00369443,0.000639943,-0.193832,0.00227978,0.0130683,1490,1709,11.305,-62.2589
273,-685,11.3097,61.7501,0.00309841,0.000994372,-0.000712209,0.00331682,0.000775964,-0.297559,0.00200329,0.0155154,1497,1709,11.3096,-61.7501
280,-685,11.2866,61.2258,0.0025186,0.00115593,-0.000830777,0.0029117,0.000762835,-0.441954,0.0017434,0.0172342,1504,1709,11.2866,-61.2259
287,-685,11.2948,60.6918,0.00195915,0.00125308,-0.000925937,0.00259707,0.000615158,-0.603267,0.0015671,0.0133826,1511,1709,11.2948,-60.6917
294,-685,11.2928,60.1245,0.00142299,0.0013504,-0.000975414,0.00236279,0.000410609,-0.766803,0.00145773,0.011788,1518,1709,11.2928,-60.1245
301,-685,11.2742,59.5571,0.000930524,0.00149439,-0.00118083,0.00242647,-1.56206e-06,-0.902583,0.00161817,0.0135664,1525,1709,11.2742,-59.5572
308,-685,11.2648,58.9962,0.000581352,0.00182831,-0.00145015,0.00278333,-0.000373666,-0.988423,0.00199183,0.0150553,1532,1709,11.2648,-58.9963
315,-685,11.2534,58.4084,0.000413476,0.00201419,-0.00177745,0.00316316,-0.0007355,-0.996943,0.00239194,0.0136439,1539,1709,11.2534,-58.4085
322,-685,11.1985,57.829,0.000210754,0.00232095,-0.00208491,0.00360254,-0.00107083,-1.01964,0.00282707,0.0214178,1546,1709,11.1985,-57.8289
329,-685,11.1643,57.2546,0.000145497,0.0026433,-0.00244931,0.00414374,-0.00135494,-1.02117,0.00330797,0.0197679,1553,1709,11.1643,-57.2546
336,-685,11.1399,56.6183,0.00016689,0.00297658,-0.00280987,0.00471323,-0.00156976,-1.01721,0.00377579,0.0132418,1560,1709,11.1399,-56.6183
343,-685,11.0951,55.9994,0.000282308,0.0033275,-0.00323335,0.00537882,-0.001769,-1.00545,0.00429864,0.0126124,1567,1709,11.0951,-55.9994
350,-685,11.0553,55.3933,0.000479449,0.00361853,-0.00373314,0.00609865,-0.00200068,-0.984397,0.00487158,0.0141713,1574,1709,11.0554,-55.3933
357,-685,11.0356,54.778,0.00075308,0.00384892,-0.00424396,0.00681844,-0.00221643,-0.960269,0.00543717,0.0113708,1581,1709,11.0356,-54.778
364,-685,11.0051,54.153,0.00102513,0.00394558,-0.00463775,0.00734756,-0.00237685,-0.937913,0.00585378,0.0111832,1588,1709,11.0051,-54.153
371,-685,10.968,53.5027,0.00140076,0.00405874,-0.00514445,0.00804309,-0.00258359,-0.911802,0.00639953,0.0181658,1595,1709,10.9681,-53.5027
378,-685,10.9332,52.8331,0.00178026,0.0041197,-0.00565206,0.00872181,-0.00282185,-0.887435,0.00694884,0.0223325,1602,1709,10.9332,-52.8331
385,-685,10.8282,52.1772,0.00225674,0.00437267,-0.00631875,0.00972141,-0.003092,-0.868345,0.00772082,0.0350916,1609,1709,10.8282,-52.1772
392,-685,10.8181,51.4673,0.00284811,0.00473044,-0.00712999,0.0109811,-0.00340257,-0.851019,0.00868015,0.0409313,1616,1709,10.8181,-51.4673
399,-685,10.8444,50.7185,0,0,0,0,0,0,0,-1,1623,1709,10.8443,-50.7185
406,-685,10.8198,50.1417,0,0,0,0,0,0,0,-1,1630,1709,10.8198,-50.1417
413,-685,10.9447,43.5477,0,0,0,0,0,0,0,-1,1637,1709,10.9447,-43.5477
420,-685,10.3047,40.3569,0,0,0,0,0,0,0,-1,1644,1709,10.3047,-40.3569
427,-685,10.7286,38.6702,0,0,0,0,0,0,0,-1,1651,1709,10.7286,-38.6702
434,-685,4.87769,8.91418,0,0,0,0,0,0,0,-1,1658,1709,4.87768,-8.91413
441,-685,5.62,8.75549,0,0,0,0,0,0,0,-1,1665,1709,5.61996,-8.75545
448,-685,6.4043,8.58972,0,0,0,0,0,0,0,-1,1672,1709,6.40435,-8.58971
455,-685,2.31958,4.09802,0,0,0,0,0,0,0,-1,1679,1709,2.31957,-4.09803
462,-685,0,0,0,0,0,0,0,0,0,-1,1686,1709,0,0
469,-685,0,0,0,0,0,0,0,0,0,-1,1693,1709,0,0
476,-685,0,0,0,0,0,0,0,0,0,-1,1700,1709,0,0
483,-685,0,0,0,0,0,0,0,0,0,-1,1707,1709,0,0
490,-685,0,0,0,0,0,0,0,0,0,-1,1714,1709,0,0
497,-685,0,0,0,0,0,0,0,0,0,-1,1721,1709,0,0
504,-685,0,0,0,0,0,0,0,0,0,-1,1728,1709,0,0
511,-685,0,0,0,0,0,0,0,0,0,-1,1735,1709,0,0
518,-685,0,0,0,0,0,0,0,0,0,-1,1742,1709,0,0
525,-685,0,0,0,0,0,0,0,0,0,-1,1749,1709,0,0
532,-685,0,0,0,0,0,0,0,0,0,-1,1756,1709,0,0
539,-685,0,0,0,0,0,0,0,0,0,-1,1763,1709,0,0
546,-685,0,0,0,0,0,0,0,0,0,-1,1770,1709,0,0
553,-685,0,0,0,0,0,0,0,0,0,-1,1777,1709,0,0
560,-685,0,0,0,0,0,0,0,0,0,-1,1784,1709,0,0
567,-685,0,0,0,0,0,0,0,0,0,-1,1791,1709,0,0
574,-685,0,0,0,0,0,0,0,0,0,-1,1798,1709,0,0
581,-685,0,0,0,0,0,0,0,0,0,-1,1805,1709,0,0
588,-685,0,0,0,0,0,0,0,0,0,-1,1812,1709,0,0
595,-685,0,0,0,0,0,0,0,0,0,-1,1819,1709,0,0
602,-685,0,0,0,0,0,0,0,0,0,-1,1826,1709,0,0
609,-685,0,0,0,0,0,0,0,0,0,-1,1833,1709,0,0
616,-685,0,0,0,0,0,0,0,0,0,-1,1840,1709,0,0
623,-685,0,0,0,0,0,0,0,0,0,-1,1847,1709,0,0
630,-685,0,0,0,0,0,0,0,0,0,-1,1854,1709,0,0
637,-685,0,0,0,0,0,0,0,0,0,-1,1861,1709,0,0
644,-685,0,0,0,0,0,0,0,0,0,-1,1868,1709,0,0
651,-685,0,0,0,0,0,0,0,0,0,-1,1875,1709,0,0
658,-685,0,0,0,0,0,0,0,0,0,-1,1882,1709,0,0
665,-685,0,0,0,0,0,0,0,0,0,-1,1889,1709,0,0
672,-685,0,0,0,0,0,0,0,0,0,-1,1896,1709,0,0
679,-685,0,0,0,0,0,0,0,0,0,-1,1903,1709,0,0
686,-685,0,0,0,0,0,0,0,0,0,-1,1910,1709,0,0
693,-685,0,0,0,0,0,0,0,0,0,-1,1917,1709,0,0
700,-685,0,0,0,0,0,0,0,0,0,-1,1924,1709,0,0
707,-685,0,0,0,0,0,0,0,0,0,-1,1931,1709,0,0
714,-685,0,0,0,0,0,0,0,0,0,-1,1938,1709,0,0
721,-685,0,0,0,0,0,0,0,0,0,-1,1945,1709,0,0
728,-685,0,0,0,0,0,0,0,0,0,-1,1952,1709,0,0
735,-685,0,0,0,0,0,0,0,0,0,-1,1959,1709,0,0
742,-685,0,0,0,0,0,0,0,0,0,-1,1966,1709,0,0
749,-685,0,0,0,0,0,0,0,0,0,-1,1973,1709,0,0
756,-685,0,0,0,0,0,0,0,0,0,-1,1980,1709,0,0
763,-685,0,0,0,0,0,0,0,0,0,-1,1987,1709,0,0
770,-685,0,0,0,0,0,0,0,0,0,-1,1994,1709,0,0
777,-685,0,0,0,0,0,0,0,0,0,-1,2001,1709,0,0
784,-685,0,0,0,0,0,0,0,0,0,-1,2008,1709,0,0
791,-685,0,0,0,0,0,0,0,0,0,-1,2015,1709,0,0
798,-685,0,0,0,0,0,0,0,0,0,-1,2022,1709,0,0
805,-685,0,0,0,0,0,0,0,0,0,-1,2029,1709,0,0
812,-685,0,0,0,0,0,0,0,0,0,-1,2036,1709,0,0
-700,-692,0,0,0,0,0,0,0,0,0,-1,524,1716,0,0
-693,-692,0,0,0,0,0,0,0,0,0,-1,531,1716,0,0
-686,-692,0,0,0,0,0,0,0,0,0,-1,538,1716,0,0
-679,-692,0,0,0,0,0,0,0,0,0,-1,545,1716,0,0
-672,-692,0,0,0,0,0,0,0,0,0,-1,552,1716,0,0
-665,-692,0,0,0,0,0,0,0,0,0,-1,559,1716,0,0
-658,-692,0,0,0,0,0,0,0,0,0,-1,566,1716,0,0
-651,-692,0,0,0,0,0,0,0,0,0,-1,573,1716,0,0
-644,-692,0,0,0,0,0,0,0,0,0,-1,580,1716,0,0
-637,-692,0,0,0,0,0,0,0,0,0,-1,587,1716,0,0
-630,-692,0,0,0,0,0,0,0,0,0,-1,594,1716,0,0
-623,-692,0,0,0,0,0,0,0,0,0,-1,601,1716,0,0
-616,-692,0,0,0,0,0,0,0,0,0,-1,608,1716,0,0
-609,-692,0,0,0,0,0,0,0,0,0,-1,615,1716,0,0
-602,-692,0,0,0,0,0,0,0,0,0,-1,622,1716,0,0
-595,-692,0,0,0,0,0,0,0,0,0,-1,629,1716,0,0
-588,-692,0,0,0,0,0,0,0,0,0,-1,636,1716,0,0
-581,-692,0,0,0,0,0,0,0,0,0,-1,643,1716,0,0
-574,-692,0,0,0,0,0,0,0,0,0,-1,650,1716,0,0
-567,-692,0,0,0,0,0,0,0,0,0,-1,657,1716,0,0
-560,-692,0,0,0,0,0,0,0,0,0,-1,664,1716,0,0
-553,-692,0,0,0,0,0,0,0,0,0,-1,671,1716,0,0
-546,-692,0,0,0,0,0,0,0,0,0,-1,678,1716,0,0
-539,-692,0,0,0,0,0,0,0,0,0,-1,685,1716,0,0
-532,-692,0,0,0,0,0,0,0,0,0,-1,692,1716,0,0
-525,-692,0,0,0,0,0,0,0,0,0,-1,699,1716,0,0
-518,-692,0,0,0,0,0,0,0,0,0,-1,706,1716,0,0
-511,-692,0,0,0,0,0,0,0,0,0,-1,713,1716,0,0
-504,-692,0,0,0,0,0,0,0,0,0,-1,720,1716,0,0
-497,-692,0,0,0,0,0,0,0,0,0,-1,727,1716,0,0
-490,-692,0,0,0,0,0,0,0,0,0,-1,734,1716,0,0
-483,-692,0,0,0,0,0,0,0,0,0,-1,741,1716,0,0
-476,-692,0,0,0,0,0,0,0,0,0,-1,748,1716,0,0
-469,-692,0,0,0,0,0,0,0,0,0,-1,755,1716,0,0
-462,-692,0,0,0,0,0,0,0,0,0,-1,762,1716,0,0
-455,-692,0,0,0,0,0,0,0,0,0,-1,769,1716,0,0
-448,-692,0,0,0,0,0,0,0,0,0,-1,776,1716,0,0
-441,-692,0,0,0,0,0,0,0,0,0,-1,783,1716,0,0
-434,-692,0,0,0,0,0,0,0,0,0,-1,790,1716,0,0
-427,-692,0,0,0,0,0,0,0,0,0,-1,797,1716,0,0
-420,-692,0,0,0,0,0,0,0,0,0,-1,804,1716,0,0
-413,-692,0,0,0,0,0,0,0,0,0,-1,811,1716,0,0
-406,-692,0,0,0,0,0,0,0,0,0,-1,818,1716,0,0
-399,-692,0,0,0,0,0,0,0,0,0,-1,825,1716,0,0
-392,-692,0,0,0,0,0,0,0,0,0,-1,832,1716,0,0
-385,-692,0,0,0,0,0,0,0,0,0,-1,839,1716,0,0
-378,-692,0,0,0,0,0,0,0,0,0,-1,846,1716,0,0
-371,-692,0,0,0,0,0,0,0,0,0,-1,853,1716,0,0
-364,-692,0,0,0,0,0,0,0,0,0,-1,860,1716,0,0
-357,-692,0,0,0,0,0,0,0,0,0,-1,867,1716,0,0
-350,-692,0,0,0,0,0,0,0,0,0,-1,874,1716,0,0
-343,-692,0,0,0,0,0,0,0,0,0,-1,881,1716,0,0
-336,-692,0,0,0,0,0,0,0,0,0,-1,888,1716,0,0
-329,-692,3.03107,4.10266,0,0,0,0,0,0,0,-1,895,1716,3.03105,-4.10267
-322,-692,4.43713,18.5242,0,0,0,0,0,0,0,-1,902,1716,4.43711,-18.5241
-315,-692,5.38965,17.975,0,0,0,0,0,0,0,-1,909,1716,5.38963,-17.975
-308,-692,5.86938,17.4392,0,0,0,0,0,0,0,-1,916,1716,5.86937,-17.4392
-301,-692,12.015,41.2892,0,0,0,0,0,0,0,-1,923,1716,12.015,-41.2892
-294,-692,8.41125,35.4742,0,0,0,0,0,0,0,-1,930,1716,8.41125,-35.4742
-287,-692,8.44659,48.7144,0,0,0,0,0,0,0,-1,937,1716,8.44657,-48.7143
-280,-692,7.91217,49.8398,0,0,0,0,0,0,0,-1,944,1716,7.91215,-49.8398
-273,-692,7.83319,50.7446,0,0,0,0,0,0,0,-1,951,1716,7.83317,-50.7447
-266,-692,7.52716,51.7593,0,0,0,0,0,0,0,-1,958,1716,7.52717,-51.7593
-259,-692,7.72205,52.4457,0,0,0,0,0,0,0,-1,965,1716,7.72204,-52.4457
-252,-692,7.87695,52.7908,0,0,0,0,0,0,0,-1,972,1716,7.87697,-52.7908
-245,-692,7.89221,53.618,0,0,0,0,0,0,0,-1,979,1716,7.89223,-53.618
-238,-692,7.81982,54.5433,0,0,0,0,0,0,0,-1,986,1716,7.81985,-54.5434
-231,-692,7.68756,55.3353,0.00123131,0.00338385,0.00404705,0.0064953,-0.00188013,0.91536,0.00507437,0.0421428,993,1716,7.68756,-55.3353
-224,-692,7.56323,55.8898,0.000919566,0.00241307,0.00311445,0.00486904,-0.0015364,0.903062,0.00386143,0.0205551,1000,1716,7.56326,-55.8898
-217,-692,7.51373,56.486,0.000518361,0.00197245,0.00238692,0.0037406,-0.00124979,0.933232,0.00299844,0.0140481,1007,1716,7.51371,-56.4859
-210,-692,7.47754,57.1074,0.000104342,0.00183276,0.00205692,0.00319965,-0.00126255,0.984274,0.00265593,0.013978,1014,1716,7.47752,-57.1074
-203,-692,7.44873,57.7111,-0.000179721,0.00164136,0.00204413,0.00296857,-0.00150693,0.994927,0.00262947,0.0162559,1021,1716,7.44872,-57.711
-196,-692,7.40564,58.3186,-0.000115557,0.00128099,0.00204057,0.00273945,-0.00157402,0.950251,0.0025205,0.0177971,1028,1716,7.40562,-58.3186
-189,-692,7.32361,58.8763,0.000112874,0.00127418,0.00199173,0.00276817,-0.00138111,0.927234,0.0024398,0.00944149,1035,1716,7.32364,-58.8764
-182,-692,7.28723,59.4788,0.00028207,0.00129814,0.00184763,0.00270631,-0.00112609,0.919566,0.00227447,0.0144764,1042,1716,7.28729,-59.4788
-175,-692,7.25049,60.0809,0.000472318,0.00134506,0.00169804,0.0026619,-0.000844521,0.91117,0.00211313,0.0153188,1049,1716,7.25049,-60.0809
-168,-692,7.25244,60.631,0.000584007,0.00135712,0.00149465,0.00251439,-0.000573259,0.911939,0.00189645,0.0118936,1056,1716,7.25247,-60.6309
-161,-692,7.25183,61.1747,0.000546332,0.00156177,0.00126863,0.0024205,-0.000312401,0.975742,0.00172724,0.0136535,1063,1716,7.25184,-61.1747
-154,-692,7.21741,61.7489,0.000673277,0.00162413,0.00102948,0.00228267,1.47428e-05,1.00171,0.00151689,0.0148099,1070,1716,7.21739,-61.7489
-147,-692,7.18945,62.2443,0.000914938,0.00173516,0.00069082,0.00212843,0.000521667,1.05327,0.00128098,0.015461,1077,1716,7.1894,-62.2443
-140,-692,7.16296,62.7151,0.00125671,0.00185304,0.000331162,0.00200048,0.00110926,1.1519,0.00115726,0.012013,1084,1716,7.163,-62.715
-133,-692,7.16833,63.1841,0.00152145,0.00193113,-7.43323e-06,0.00193126,0.00152131,-1.55266,0.00117494,0.0103321,1091,1716,7.16835,-63.1841
-126,-692,7.17822,63.6676,0.00179465,0.00194755,-0.000347919,0.00222732,0.00151488,-0.893546,0.00131347,0.00839891,1098,1716,7.17822,-63.6676
-119,-692,7.15491,64.1426,0.00227962,0.0017916,-0.000656523,0.00273601,0.00133521,-0.607476,0.00157979,0.0131571,1105,1716,7.15491,-64.1426
-112,-692,7.18201,64.5985,0.00285661,0.00161367,-0.000940533,0.00336245,0.00110783,-0.493445,0.00197859,0.0130881,1112,1716,7.18197,-64.5984
-105,-692,7.22095,65.0217,0.00337577,0.00132215,-0.00123332,0.00395377,0.000744152,-0.438258,0.00242614,0.0180937,1119,1716,7.22089,-65.0217
-98,-692,7.26086,65.4027,0.00385772,0.000963253,-0.00152708,0.0045144,0.000306572,-0.406119,0.00291279,0.0211872,1126,1716,7.26085,-65.4027
-91,-692,7.23889,65.8214,0.00463816,0.000664842,-0.00195142,0.00543625,-0.000133251,-0.388225,0.00366939,0.0210386,1133,1716,7.2389,-65.8214
-84,-692,7.31799,66.2164,0.00598903,0.00051813,-0.0022481,0.00679429,-0.000287133,-0.343958,0.00462821,0.024178,1140,1716,7.31794,-66.2164
-77,-692,7.30237,66.6138,0.00694794,-0.00025403,-0.00260303,0.00779025,-0.00109634,-0.312954,0.00559487,0.0199009,1147,1716,7.30232,-66.6138
-70,-692,7.37402,66.9207,0.00715947,-0.00135002,-0.00321022,0.00823467,-0.00242523,-0.323188,0.00645196,0.0359618,1154,1716,7.374,-66.9206
-63,-692,7.47021,67.248,0,0,0,0,0,0,0,-1,1161,1716,7.47025,-67.2481
-56,-692,7.46716,67.5665,0,0,0,0,0,0,0,-1,1168,1716,7.4672,-67.5665
-49,-692,7.4552,67.9495,0,0,0,0,0,0,0,-1,1175,1716,7.45516,-67.9494
-42,-692,7.3949,68.4763,0,0,0,0,0,0,0,-1,1182,1716,7.39484,-68.4764
-35,-692,7.62268,68.7513,0,0,0,0,0,0,0,-1,1189,1716,7.62268,-68.7513
-28,-692,7.87622,68.838,0,0,0,0,0,0,0,-1,1196,1716,7.87617,-68.838
-21,-692,7.87537,68.8051,-0.0415122,0.0108388,0.00687977,0.0117278,-0.0424012,1.44229,0.0328815,0.0365827,1203,1716,7.87532,-68.8051
-14,-692,7.97534,68.9628,-0.0426415,0.0132749,0.0071227,0.0141679,-0.0435346,1.44607,0.0347229,0.0196803,1210,1716,7.97537,-68.9628
-7,-692,7.98987,69.1577,-0.0428189,0.0153843,0.00716692,0.0162539,-0.0436884,1.45006,0.0357955,0.0188798,1217,1716,7.9899,-69.1577
0,-692,8.03442,69.3116,-0.041898,0.0183386,0.00693853,0.0191275,-0.0426869,1.45758,0.0365424,0.0252234,1224,1716,8.03446,-69.3116
7,-692,8.1665,69.3981,-0.0401973,0.0215178,0.00650639,0.0221963,-0.0408758,1.46689,0.0369432,0.0336439,1231,1716,8.16655,-69.3981
14,-692,8.33972,69.7484,-0.0379904,0.0271428,0.00522692,0.0275596,-0.0384072,1.49123,0.0382572,0.0365068,1238,1716,8.33978,-69.7484
21,-692,8.49817,69.9001,-0.0352165,0.0329709,0.00354105,0.0331543,-0.0353999,1.51905,0.0395868,0.0358578,1245,1716,8.4982,-69.9002
28,-692,8.57813,69.8265,-0.0322773,0.0391249,0.00129491,0.0391484,-0.0323008,1.55267,0.0413143,0.0349883,1252,1716,8.57812,-69.8265
35,-692,8.64685,69.9176,-0.0295673,0.0449081,-0.00106422,0.0449233,-0.0295825,-1.55651,0.0433188,0.0317655,1259,1716,8.64687,-69.9176
42,-692,8.7594,70.0656,-0.0267128,0.0505549,-0.00353867,0.0507166,-0.0268745,-1.52513,0.0454968,0.0316728,1266,1716,8.75936,-70.0655
49,-692,8.79077,70.1001,-0.0239047,0.0556755,-0.00549354,0.056053,-0.0242821,-1.5022,0.0475751,0.0420408,1273,1716,8.79082,-70.1001
56,-692,8.85974,70.1609,0,0,0,0,0,0,0,-1,1280,1716,8.85977,-70.1609
63,-692,8.96301,70.0297,0,0,0,0,0,0,0,-1,1287,1716,8.96297,-70.0296
70,-692,9.06409,70.1233,0,0,0,0,0,0,0,-1,1294,1716,9.06408,-70.1233
77,-692,9.26733,70.0725,0,0,0,0,0,0,0,-1,1301,1716,9.26736,-70.0726
84,-692,9.39514,69.9801,0,0,0,0,0,0,0,-1,1308,1716,9.39513,-69.9801
91,-692,9.45447,69.8198,0,0,0,0,0,0,0,-1,1315,1716,9.45447,-69.8198
98,-692,9.53186,69.4614,0,0,0,0,0,0,0,-1,1322,1716,9.53185,-69.4614
105,-692,9.30347,69.4429,0,0,0,0,0,0,0,-1,1329,1716,9.30344,-69.4429
112,-692,9.82361,69.4594,0,0,0,0,0,0,0,-1,1336,1716,9.82357,-69.4593
119,-692,9.83032,69.2131,-0.00606639,0.0541497,-0.0102847,0.0558578,-0.00777454,-1.40621,0.0400822,0.0432872,1343,1716,9.83038,-69.2132
126,-692,9.92883,68.9834,-0.00534566,0.052551,-0.0109071,0.0545376,-0.00733228,-1.39063,0.0390327,0.0458996,1350,1716,9.92883,-68.9834
133,-692,10.057,68.9023,-0.00468826,0.051486,-0.011568,0.0537749,-0.00697719,-1.37545,0.0383876,0.0349714,1357,1716,10.057,-68.9024
140,-692,10.037,68.821,-0.00403515,0.0505517,-0.0122099,0.0531583,-0.00664177,-1.36047,0.0378475,0.0361705,1364,1716,10.0369,-68.8211
147,-692,10.0123,68.7432,0,0,0,0,0,0,0,-1,1371,1716,10.0123,-68.7432
154,-692,9.92883,56.0276,0,0,0,0,0,0,0,-1,1378,1716,9.92887,-56.0276
161,-692,10.1063,68.064,0,0,0,0,0,0,0,-1,1385,1716,10.1063,-68.0639
168,-692,10.462,67.9938,0,0,0,0,0,0,0,-1,1392,1716,10.4621,-67.9938
175,-692,10.6168,67.6722,0,0,0,0,0,0,0,-1,1399,1716,10.6168,-67.6722
182,-692,10.5844,67.3153,0,0,0,0,0,0,0,-1,1406,1716,10.5843,-67.3153
189,-692,10.5233,66.9771,0,0,0,0,0,0,0,-1,1413,1716,10.5233,-66.9771
196,-692,10.4329,66.5637,0.0108398,-0.00108569,-0.00160535,0.0110521,-0.00129802,-0.131497,0.00783669,0.0391979,1420,1716,10.4329,-66.5638
203,-692,10.5112,66.1958,0.00826134,-0.00142598,0.000818821,0.00833006,-0.0014947,0.0837335,0.00611283,0.0281954,1427,1716,10.5112,-66.1958
210,-692,10.7391,65.8599,0.0074707,-0.00114933,0.000578749,0.00750939,-0.00118801,0.0667408,0.00544563,0.0211674,1434,1716,10.7392,-65.8598
217,-692,10.725,65.4312,0.00664735,-0.000980966,0.000424405,0.00667089,-0.00100451,0.0554076,0.00481713,0.0174417,1441,1716,10.725,-65.4311
224,-692,10.7305,65.0416,0.00584417,-0.000735314,0.000240242,0.00585293,-0.000744074,0.036449,0.00417215,0.0145831,1448,1716,10.7305,-65.0416
231,-692,10.7513,64.635,0.00507711,-0.000489562,-0.00012122,0.00507975,-0.000492201,-0.0217623,0.00356192,0.013566,1455,1716,10.7514,-64.635
238,-692,10.7651,64.1195,0.00449087,-0.00025238,-0.000471639,0.00453731,-0.000298822,-0.0981532,0.00312924,0.0190768,1462,1716,10.7651,-64.1195
245,-692,10.78,63.6384,0.00395051,5.82074e-05,-0.000559505,0.00402934,-2.0623e-05,-0.139972,0.00269313,0.0215074,1469,1716,10.78,-63.6384
252,-692,10.7745,63.2391,0.00336002,0.000484895,-0.000610269,0.00348419,0.000360723,-0.200731,0.00221238,0.0204844,1476,1716,10.7746,-63.2391
259,-692,10.7817,62.7875,0.0027322,0.000791614,-0.000779947,0.00300681,0.000517004,-0.338534,0.00185636,0.0105223,1483,1716,10.7818,-62.7875
266,-692,10.7903,62.2985,0.00217743,0.001006,-0.00102355,0.002771,0.000412425,-0.525521,0.00172636,0.0107302,1490,1716,10.7903,-62.2985
273,-692,10.7865,61.7855,0.00169176,0.00121299,-0.00117761,0.00265407,0.000250677,-0.685124,0.00169202,0.0160305,1497,1716,10.7865,-61.7855
280,-692,10.7715,61.2285,0.0011494,0.00134437,-0.00131949,0.00256997,-7.61979e-05,-0.822271,0.00173927,0.0146365,1504,1716,10.7715,-61.2285
287,-692,10.7601,60.7051,0.000601429,0.00138946,-0.00142574,0.00247463,-0.000483738,-0.920213,0.00183241,0.0111984,1511,1716,10.7602,-60.7051
294,-692,10.743,60.1666,4.90475e-05,0.00152293,-0.0014695,0.00242992,-0.000857944,-1.01782,0.00196925,0.0110894,1518,1716,10.7431,-60.1666
301,-692,10.7405,59.6019,-0.000409012,0.00169188,-0.00173718,0.00267152,-0.00138864,-1.05733,0.00238282,0.01344,1525,1716,10.7405,-59.602
308,-692,10.7123,59.026,-0.000679121,0.00218957,-0.00207926,0.00328122,-0.00177078,-1.08733,0.00295991,0.0172449,1532,1716,10.7122,-59.0261
315,-692,10.6746,58.4196,-0.000697936,0.0024336,-0.00250495,0.00382188,-0.00208622,-1.06472,0.00345976,0.0164687,1539,1716,10.6745,-58.4195
322,-692,10.6001,57.8225,-0.000779109,0.00283635,-0.0028947,0.00444141,-0.00238418,-1.06452,0.00399998,0.0216534,1546,1716,10.6001,-57.8225
329,-692,10.5537,57.2356,-0.000700854,0.00330563,-0.00333437,0.00519225,-0.00258747,-1.0559,0.00457477,0.0192154,1553,1716,10.5537,-57.2356
336,-692,10.5516,56.6316,-0.000505027,0.00382492,-0.00381014,0.00604222,-0.00272232,-1.04376,0.0051798,0.0123852,1560,1716,10.5516,-56.6316
343,-692,10.5171,56.0385,-0.000163749,0.00438008,-0.00437052,0.00703392,-0.00281759,-1.02509,0.00585884,0.0127222,1567,1716,10.5171,-56.0385
350,-692,10.4681,55.4552,0.00030146,0.00492066,-0.00498182,0.00810221,-0.00288009,-1.00245,0.00657524,0.0148864,1574,1716,10.4681,-55.4552
357,-692,10.4138,54.766,0.000877665,0.0053888,-0.0056367,0.00920447,-0.00293801,-0.975719,0.00731504,0.0235904,1581,1716,10.4139,-54.766
364,-692,10.4246,54.0576,0.00144206,0.00572295,-0.00616302,0.0101066,-0.00294163,-0.952534,0.00790295,0.0313219,1588,1716,10.4245,-54.0576
371,-692,10.4022,53.4111,0.00211777,0.00601482,-0.00677874,0.0111195,-0.00298694,-0.925348,0.00858368,0.0393092,1595,1716,10.4022,-53.4111
378,-692,10.4126,52.8068,0.00277254,0.0061523,-0.00740239,0.0120552,-0.0031304,-0.897619,0.00925842,0.0494502,1602,1716,10.4126,-52.8067
385,-692,10.3805,52.1415,0,0,0,0,0,0,0,-1,1609,1716,10.3805,-52.1414
392,-692,10.1355,51.4739,0,0,0,0,0,0,0,-1,1616,1716,10.1355,-51.4739
399,-692,10.6187,48.0621,0,0,0,0,0,0,0,-1,1623,1716,10.6187,-48.0621
406,-692,11.3221,42.7773,0,0,0,0,0,0,0,-1,1630,1716,11.3222,-42.7773
413,-692,11.4845,42.9004,0,0,0,0,0,0,0,-1,1637,1716,11.4845,-42.9004
420,-692,9.65894,40.2512,0,0,0,0,0,0,0,-1,1644,1716,9.65889,-40.2513
427,-692,3.79578,8.60339,0,0,0,0,0,0,0,-1,1651,1716,3.79577,-8.6034
434,-692,4.78516,8.64636,0,0,0,0,0,0,0,-1,1658,1716,4.78512,-8.64634
441,-692,5.8208,8.74036,0,0,0,0,0,0,0,-1,1665,1716,5.82084,-8.7404
448,-692,6.73792,8.51013,0,0,0,0,0,0,0,-1,1672,1716,6.73793,-8.5101
455,-692,0,0,0,0,0,0,0,0,0,-1,1679,1716,0,0
462,-692,0,0,0,0,0,0,0,0,0,-1,1686,1716,0,0
469,-692,0,0,0,0,0,0,0,0,0,-1,1693,1716,0,0
476,-692,0,0,0,0,0,0,0,0,0,-1,1700,1716,0,0
483,-692,0,0,0,0,0,0,0,0,0,-1,1707,1716,0,0
490,-692,0,0,0,0,0,0,0,0,0,-1,1714,1716,0,0
497,-692,0,0,0,0,0,0,0,0,0,-1,1721,1716,0,0
504,-692,0,0,0,0,0,0,0,0,0,-1,1728,1716,0,0
511,-692,0,0,0,0,0,0,0,0,0,-1,1735,1716,0,0
518,-692,0,0,0,0,0,0,0,0,0,-1,1742,1716,0,0
525,-692,0,0,0,0,0,0,0,0,0,-1,1749,1716,0,0
532,-692,0,0,0,0,0,0,0,0,0,-1,1756,1716,0,0
539,-692,0,0,0,0,0,0,0,0,0,-1,1763,1716,0,0
546,-692,0,0,0,0,0,0,0,0,0,-1,1770,1716,0,0
553,-692,0,0,0,0,0,0,0,0,0,-1,1777,1716,0,0
560,-692,0,0,0,0,0,0,0,0,0,-1,1784,1716,0,0
567,-692,0,0,0,0,0,0,0,0,0,-1,1791,1716,0,0
574,-692,0,0,0,0,0,0,0,0,0,-1,1798,1716,0,0
581,-692,0,0,0,0,0,0,0,0,0,-1,1805,1716,0,0
588,-692,0,0,0,0,0,0,0,0,0,-1,1812,1716,0,0
595,-692,0,0,0,0,0,0,0,0,0,-1,1819,1716,0,0
602,-692,0,0,0,0,0,0,0,0,0,-1,1826,1716,0,0
609,-692,0,0,0,0,0,0,0,0,0,-1,1833,1716,0,0
616,-692,0,0,0,0,0,0,0,0,0,-1,1840,1716,0,0
623,-692,0,0,0,0,0,0,0,0,0,-1,1847,1716,0,0
630,-692,0,0,0,0,0,0,0,0,0,-1,1854,1716,0,0
637,-692,0,0,0,0,0,0,0,0,0,-1,1861,1716,0,0
644,-692,0,0,0,0,0,0,0,0,0,-1,1868,1716,0,0
651,-692,0,0,0,0,0,0,0,0,0,-1,1875,1716,0,0
658,-692,0,0,0,0,0,0,0,0,0,-1,1882,1716,0,0
665,-692,0,0,0,0,0,0,0,0,0,-1,1889,1716,0,0
672,-692,0,0,0,0,0,0,0,0,0,-1,1896,1716,0,0
679,-692,0,0,0,0,0,0,0,0,0,-1,1903,1716,0,0
686,-692,0,0,0,0,0,0,0,0,0,-1,1910,1716,0,0
693,-692,0,0,0,0,0,0,0,0,0,-1,1917,1716,0,0
700,-692,0,0,0,0,0,0,0,0,0,-1,1924,1716,0,0
707,-692,0,0,0,0,0,0,0,0,0,-1,1931,1716,0,0
714,-692,0,0,0,0,0,0,0,0,0,-1,1938,1716,0,0
721,-692,0,0,0,0,0,0,0,0,0,-1,1945,1716,0,0
728,-692,0,0,0,0,0,0,0,0,0,-1,1952,1716,0,0
735,-692,0,0,0,0,0,0,0,0,0,-1,1959,1716,0,0
742,-692,0,0,0,0,0,0,0,0,0,-1,1966,1716,0,0
749,-692,0,0,0,0,0,0,0,0,0,-1,1973,1716,0,0
756,-692,0,0,0,0,0,0,0,0,0,-1,1980,1716,0,0
763,-692,0,0,0,0,0,0,0,0,0,-1,1987,1716,0,0
770,-692,0,0,0,0,0,0,0,0,0,-1,1994,1716,0,0
777,-692,0,0,0,0,0,0,0,0,0,-1,2001,1716,0,0
784,-692,0,0,0,0,0,0,0,0,0,-1,2008,1716,0,0
791,-692,0,0,0,0,0,0,0,0,0,-1,2015,1716,0,0
798,-692,0,0,0,0,0,0,0,0,0,-1,2022,1716,0,0
805,-692,0,0,0,0,0,0,0,0,0,-1,2029,1716,0,0
812,-692,0,0,0,0,0,0,0,0,0,-1,2036,1716,0,0
-700,-699,0,0,0,0,0,0,0,0,0,-1,524,1723,0,0
-693,-699,0,0,0,0,0,0,0,0,0,-1,531,1723,0,0
-686,-699,0,0,0,0,0,0,0,0,0,-1,538,1723,0,0
-679,-699,0,0,0,0,0,0,0,0,0,-1,545,1723,0,0
-672,-699,0,0,0,0,0,0,0,0,0,-1,552,1723,0,0
-665,-699,0,0,0,0,0,0,0,0,0,-1,559,1723,0,0
-658,-699,0,0,0,0,0,0,0,0,0,-1,566,1723,0,0
-651,-699,0,0,0,0,0,0,0,0,0,-1,573,1723,0,0
-644,-699,0,0,0,0,0,0,0,0,0,-1,580,1723,0,0
-637,-699,0,0,0,0,0,0,0,0,0,-1,587,1723,0,0
-630,-699,0,0,0,0,0,0,0,0,0,-1,594,1723,0,0
-623,-699,0,0,0,0,0,0,0,0,0,-1,601,1723,0,0
-616,-699,0,0,0,0,0,0,0,0,0,-1,608,1723,0,0
-609,-699,0,0,0,0,0,0,0,0,0,-1,615,1723,0,0
-602,-699,0,0,0,0,0,0,0,0,0,-1,622,1723,0,0
-595,-699,0,0,0,0,0,0,0,0,0,-1,629,1723,0,0
-588,-699,0,0,0,0,0,0,0,0,0,-1,636,1723,0,0
-581,-699,0,0,0,0,0,0,0,0,0,-1,643,1723,0,0
-574,-699,0,0,0,0,0,0,0,0,0,-1,650,1723,0,0
-567,-699,0,0,0,0,0,0,0,0,0,-1,657,1723,0,0
-560,-699,0,0,0,0,0,0,0,0,0,-1,664,1723,0,0
-553,-699,0,0,0,0,0,0,0,0,0,-1,671,1723,0,0
-546,-699,0,0,0,0,0,0,0,0,0,-1,678,1723,0,0
-539,-699,0,0,0,0,0,0,0,0,0,-1,685,1723,0,0
-532,-699,0,0,0,0,0,0,0,0,0,-1,692,1723,0,0
-525,-699,0,0,0,0,0,0,0,0,0,-1,699,1723,0,0
-518,-699,0,0,0,0,0,0,0,0,0,-1,706,1723,0,0
-511,-699,0,0,0,0,0,0,0,0,0,-1,713,1723,0,0
-504,-699,0,0,0,0,0,0,0,0,0,-1,720,1723,0,0
-497,-699,0,0,0,0,0,0,0,0,0,-1,727,1723,0,0
-490,-699,0,0,0,0,0,0,0,0,0,-1,734,1723,0,0
-483,-699,0,0,0,0,0,0,0,0,0,-1,741,1723,0,0
-476,-699,0,0,0,0,0,0,0,0,0,-1,748,1723,0,0
-469,-699,0,0,0,0,0,0,0,0,0,-1,755,1723,0,0
-462,-699,0,0,0,0,0,0,0,0,0,-1,762,1723,0,0
-455,-699,0,0,0,0,0,0,0,0,0,-1,769,1723,0,0
-448,-699,0,0,0,0,0,0,0,0,0,-1,776,1723,0,0
-441,-699,0,0,0,0,0,0,0,0,0,-1,783,1723,0,0
-434,-699,0,0,0,0,0,0,0,0,0,-1,790,1723,0,0
-427,-699,0,0,0,0,0,0,0,0,0,-1,797,1723,0,0
-420,-699,0,0,0,0,0,0,0,0,0,-1,804,1723,0,0
-413,-699,0,0,0,0,0,0,0,0,0,-1,811,1723,0,0
-406,-699,0,0,0,0,0,0,0,0,0,-1,818,1723,0,0
-399,-699,0,0,0,0,0,0,0,0,0,-1,825,1723,0,0
-392,-699,0,0,0,0,0,0,0,0,0,-1,832,1723,0,0
-385,-699,0,0,0,0,0,0,0,0,0,-1,839,1723,0,0
-378,-699,0,0,0,0,0,0,0,0,0,-1,846,1723,0,0
-371,-699,0,0,0,0,0,0,0,0,0,-1,853,1723,0,0
-364,-699,0,0,0,0,0,0,0,0,0,-1,860,1723,0,0
-357,-699,0,0,0,0,0,0,0,0,0,-1,867,1723,0,0
-350,-699,0,0,0,0,0,0,0,0,0,-1,874,1723,0,0
-343,-699,0,0,0,0,0,0,0,0,0,-1,881,1723,0,0
-336,-699,0,0,0,0,0,0,0,0,0,-1,888,1723,0,0
-329,-699,0,0,0,0,0,0,0,0,0,-1,895,1723,0,0
-322,-699,0,0,0,0,0,0,0,0,0,-1,902,1723,0,0
-315,-699,6.20001,19.5193,0,0,0,0,0,0,0,-1,909,1723,6.20001,-19.5193
-308,-699,6.98151,18.9218,0,0,0,0,0,0,0,-1,916,1723,6.98151,-18.9217
-301,-699,4.72729,12.8752,0,0,0,0,0,0,0,-1,923,1723,4.72732,-12.8752
-294,-699,6.90332,19.8601,0,0,0,0,0,0,0,-1,930,1723,6.90332,-19.8601
-287,-699,9.0968,36.3315,0,0,0,0,0,0,0,-1,937,1723,9.09678,-36.3315
-280,-699,9.53729,45.2391,0,0,0,0,0,0,0,-1,944,1723,9.53728,-45.2391
-273,-699,8.216,48.0923,0,0,0,0,0,0,0,-1,951,1723,8.21601,-48.0923
-266,-699,6.81915,20.8951,0,0,0,0,0,0,0,-1,958,1723,6.81914,-20.8952
-259,-699,5.39758,14.5466,0,0,0,0,0,0,0,-1,965,1723,5.39759,-14.5466
-252,-699,8.3866,31.6284,0,0,0,0,0,0,0,-1,972,1723,8.38657,-31.6284
-245,-699,7.94281,50.88,0,0,0,0,0,0,0,-1,979,1723,7.9428,-50.88
-238,-699,8.05341,54.8698,0,0,0,0,0,0,0,-1,986,1723,8.05342,-54.8698
-231,-699,8.13214,55.2793,0.00218168,0.00438748,0.00472363,0.00813526,-0.00156609,0.900087,0.0060139,0.0471469,993,1723,8.13213,-55.2793
-224,-699,8.12897,55.8519,0.00175757,0.00309147,0.00367867,0.00616316,-0.00131412,0.875075,0.00460968,0.0404801,1000,1723,8.12895,-55.852
-217,-699,8.07733,56.4602,0.00112653,0.00252594,0.00291037,0.00481953,-0.00116707,0.903368,0.00366452,0.0273095,1007,1723,8.07736,-56.4602
-210,-699,8.08179,57.0245,0.000467216,0.00233777,0.00264882,0.00421158,-0.0014066,0.955111,0.00337572,0.0199016,1014,1723,8.08177,-57.0246
-203,-699,8.05872,57.7092,-1.85049e-05,0.00209372,0.0027354,0.00396981,-0.00189459,0.969628,0.00345575,0.0251741,1021,1723,8.05877,-57.7092
-196,-699,7.97766,58.3645,-7.654e-05,0.0016532,0.00281569,0.00373385,-0.00215719,0.934405,0.00344156,0.0192885,1028,1723,7.97763,-58.3644
-189,-699,7.89587,58.9264,0.000111966,0.00169692,0.0028699,0.00388175,-0.00207287,0.920108,0.00349038,0.00976992,1035,1723,7.8959,-58.9263
-182,-699,7.83618,59.5205,0.000222378,0.00170485,0.00278444,0.00384502,-0.0019178,0.915484,0.00338862,0.0139467,1042,1723,7.83612,-59.5205
-175,-699,7.80933,60.1215,0.000302593,0.00170196,0.00265271,0.00374571,-0.00174115,0.914343,0.00323754,0.0168475,1049,1723,7.8093,-60.1214
-168,-699,7.79993,60.6581,0.000339364,0.00168286,0.00246969,0.00357053,-0.00154831,0.918184,0.00303126,0.0171241,1056,1723,7.79987,-60.6581
-161,-699,7.77307,61.1752,0.000178778,0.0018974,0.00225956,0.00345553,-0.00137935,0.967103,0.00287593,0.0141559,1063,1723,7.77313,-61.1752
-154,-699,7.73645,61.7261,0.000223543,0.00185568,0.00203899,0.00323585,-0.00115662,0.975751,0.002629,0.0139391,1070,1723,7.73647,-61.726
-147,-699,7.69263,62.2393,0.00041055,0.00182559,0.00168428,0.00294492,-0.000708784,0.984243,0.00223729,0.0169837,1077,1723,7.69268,-62.2392
-140,-699,7.64771,62.7224,0.000746315,0.00186946,0.00130294,0.0027267,-0.000110922,0.98887,0.00185588,0.0119176,1084,1723,7.64769,-62.7224
-133,-699,7.63647,63.2253,0.000939674,0.00183483,0.00091669,0.00240738,0.000367132,1.0125,0.00149762,0.00982314,1091,1723,7.63647,-63.2254
-126,-699,7.63379,63.6975,0.00100566,0.00178051,0.000541042,0.00205854,0.000727637,1.09611,0.00120539,0.0122996,1098,1723,7.63374,-63.6975
-119,-699,7.63367,64.1642,0.00127218,0.00159446,0.00025139,0.00173192,0.00113472,1.07041,0.00101585,0.01887,1105,1723,7.63362,-64.1642
-112,-699,7.625,64.6066,0.00175686,0.00138155,1.20144e-05,0.00175724,0.00138116,0.0319682,0.00106843,0.0127,1112,1723,7.62504,-64.6066
-105,-699,7.64124,65.0323,0.00221171,0.00105276,-0.000285235,0.00227811,0.000986363,-0.228706,0.0013192,0.0130558,1119,1723,7.64121,-65.0323
-98,-699,7.67065,65.4489,0.00262687,0.000743231,-0.000567634,0.0027847,0.000585399,-0.271201,0.00169536,0.0158838,1126,1723,7.67064,-65.4489
-91,-699,7.67493,65.8513,0.00320865,0.000540933,-0.00091653,0.00349319,0.000256396,-0.301017,0.00224821,0.0218541,1133,1723,7.67498,-65.8514
-84,-699,7.71899,66.269,0.00409869,0.000407613,-0.00120568,0.00445762,4.86868e-05,-0.289343,0.00295565,0.0265318,1140,1723,7.719,-66.2691
-77,-699,7.7074,66.6122,0.00479586,2.13969e-05,-0.00149811,0.005227,-0.000409743,-0.280216,0.00362896,0.0181491,1147,1723,7.70735,-66.6122
-70,-699,7.73535,66.951,0.00511566,-0.000607976,-0.00191503,0.00569729,-0.00118961,-0.294865,0.00425059,0.0181526,1154,1723,7.73531,-66.9511
-63,-699,7.78369,67.3108,0.00153367,-0.0008209,-0.000918083,0.00184932,-0.00113656,-0.331161,0.00174019,0.0159513,1161,1723,7.78368,-67.3108
-56,-699,7.79114,67.6124,-0.00378413,-0.00109001,-1.3246e-06,-0.00109001,-0.00378413,-1.5703,0.00224925,0.0129666,1168,1723,7.79111,-67.6125
-49,-699,7.79333,67.9515,-0.0095613,-0.00076211,0.00114476,-0.000615617,-0.00970779,1.44352,0.00627673,0.0269423,1175,1723,7.79336,-67.9515
-42,-699,7.78125,68.3356,-0.0147783,-5.94169e-05,0.00182798,0.000164208,-0.0150019,1.44907,0.0100565,0.0290816,1182,1723,7.78125,-68.3356
-35,-699,7.89172,68.5901,-0.0192955,0.00337554,0.00233527,0.00361359,-0.0195335,1.46921,0.014379,0.0267808,1189,1723,7.89167,-68.5901
-28,-699,8.04089,68.7678,-0.0228712,0.00597453,0.00289339,0.0062619,-0.0231586,1.4718,0.0178954,0.0215022,1196,1723,8.04085,-68.7678
-21,-699,8.06702,68.8915,-0.0253225,0.00743118,0.00330698,0.00776174,-0.0256531,1.47117,0.0201928,0.0154123,1203,1723,8.06704,-68.8914
-14,-699,8.08984,69.1124,-0.0267318,0.009283,0.00359087,0.00963754,-0.0270863,1.47238,0.0219858,0.0139751,1210,1723,8.08983,-69.1124
-7,-699,8.15405,69.3326,-0.0273743,0.010805,0.00372703,0.0111654,-0.0277347,1.47439,0.0231281,0.0108438,1217,1723,8.15407,-69.3327
0,-699,8.2666,69.5006,-0.0271736,0.0127327,0.00378566,0.0130886,-0.0275295,1.47705,0.0239398,0.0148348,1224,1723,8.26661,-69.5007
7,-699,8.42249,69.5619,-0.0263019,0.0147117,0.00375335,0.0150523,-0.0266426,1.48028,0.0243806,0.024545,1231,1723,8.42247,-69.562
14,-699,8.4978,69.7273,-0.0249715,0.0184417,0.00310761,0.018663,-0.0251928,1.4997,0.0254136,0.0242952,1238,1723,8.49776,-69.7273
21,-699,8.50818,69.8429,-0.0232602,0.0222416,0.00220405,0.0223481,-0.0233667,1.52251,0.0263956,0.0203232,1245,1723,8.50818,-69.8429
28,-699,8.58838,69.9072,-0.0212812,0.0263268,0.000930269,0.026345,-0.0212993,1.55127,0.0275589,0.0187636,1252,1723,8.58838,-69.9072
35,-699,8.66968,70.0494,-0.0193647,0.0302583,-0.000435964,0.0302621,-0.0193685,-1.56201,0.0288834,0.0156796,1259,1723,8.66966,-70.0495
42,-699,8.76575,70.0881,-0.0172576,0.0343609,-0.00210262,0.0344464,-0.0173431,-1.53015,0.0304393,0.0142234,1266,1723,8.7658,-70.0881
49,-699,8.82861,70.121,-0.0152117,0.0383315,-0.00355657,0.0385667,-0.0154469,-1.50476,0.0321229,0.0174626,1273,1723,8.82859,-70.1209
56,-699,8.95325,70.1792,-0.0124311,0.0434424,-0.00444451,0.0437938,-0.0127824,-1.49191,0.0342609,0.0178784,1280,1723,8.95321,-70.1792
63,-699,9.03284,70.1439,-0.0101069,0.0463568,-0.00534009,0.0468574,-0.0106075,-1.47732,0.0353092,0.0154363,1287,1723,9.0329,-70.1439
70,-699,9.06677,70.1246,-0.00838673,0.0460531,-0.00641473,0.0467987,-0.00913237,-1.45508,0.0346468,0.0127064,1294,1723,9.06679,-70.1246
77,-699,9.16663,70.0903,-0.00694386,0.0464784,-0.00734056,0.0474687,-0.00793415,-1.4367,0.0345951,0.0128419,1301,1723,9.16659,-70.0903
84,-699,9.28528,70.0437,-0.00659834,0.0468015,-0.00748092,0.0478298,-0.00762656,-1.43421,0.0347091,0.015623,1308,1723,9.28527,-70.0437
91,-699,9.35571,69.9448,-0.00640161,0.0468046,-0.00756667,0.0478598,-0.00745677,-1.43224,0.0346605,0.015556,1315,1723,9.35575,-69.9448
98,-699,9.40588,69.8142,-0.00590294,0.0452878,-0.00726277,0.0462982,-0.00691341,-1.43255,0.0334092,0.0133244,1322,1723,9.40594,-69.8142
105,-699,9.47131,69.7479,-0.00537581,0.0436137,-0.00705783,0.0446103,-0.00637235,-1.43053,0.032076,0.0176547,1329,1723,9.47128,-69.7479
112,-699,9.56335,69.6638,-0.00494856,0.0417349,-0.00701017,0.0427649,-0.00597851,-1.42492,0.0306974,0.0238765,1336,1723,9.56335,-69.6638
119,-699,9.57874,69.4885,-0.00450026,0.0392284,-0.00684935,0.0402761,-0.00554799,-1.419,0.0288782,0.0173775,1343,1723,9.57873,-69.4885
126,-699,9.698,69.2875,-0.00438422,0.0378921,-0.00692608,0.0389978,-0.00548999,-1.41248,0.0280085,0.0196295,1350,1723,9.69802,-69.2875
133,-699,9.85022,69.1224,-0.00437131,0.0369057,-0.0069911,0.0380576,-0.00552326,-1.40749,0.027399,0.0184587,1357,1723,9.85028,-69.1225
140,-699,9.93225,68.9246,-0.00434935,0.0359833,-0.00703414,0.0371749,-0.00554092,-1.40299,0.0268217,0.019192,1364,1723,9.9322,-68.9246
147,-699,9.98181,68.5282,-0.00392953,0.0340858,-0.00690356,0.0353006,-0.00514439,-1.3966,0.0254227,0.0451825,1371,1723,9.9818,-68.5282
154,-699,9.68518,68.244,0,0,0,0,0,0,0,-1,1378,1723,9.68522,-68.244
161,-699,9.97473,68.2043,-0.00230594,0.0263081,-0.00629906,0.0276334,-0.00363123,-1.36343,0.0197443,0.030807,1385,1723,9.97471,-68.2044
168,-699,10.0938,67.9503,-0.00125221,0.0226959,-0.00536018,0.0238409,-0.00239721,-1.36035,0.0167503,0.0126359,1392,1723,10.0938,-67.9503
175,-699,10.1464,67.6942,0.000539098,0.0185768,-0.00371688,0.0193126,-0.000196789,-1.37534,0.0129412,0.018407,1399,1723,10.1463,-67.6942
182,-699,10.1984,67.3645,0.00254896,0.012868,-0.00227065,0.0133455,0.00207141,-1.3635,0.00829322,0.0196435,1406,1723,10.1984,-67.3645
189,-699,10.1886,67.01,0.00485577,0.00608965,-0.00103386,0.00667665,0.00426877,-1.0544,0.00390436,0.0183196,1413,1723,10.1886,-67.01
196,-699,10.1835,66.5853,0.00660198,-0.0011914,0.000275005,0.00661167,-0.00120109,0.0352286,0.00485789,0.0202813,1420,1723,10.1835,-66.5853
203,-699,10.2295,66.2052,0.00594311,-0.000588835,0.000187877,0.00594851,-0.000594235,0.0287312,0.00417786,0.0165035,1427,1723,10.2295,-66.2052
210,-699,10.282,65.8977,0.00531801,-0.000395234,-3.63446e-05,0.00531824,-0.000395465,-0.00636112,0.0036844,0.0146826,1434,1723,10.282,-65.8978
217,-699,10.292,65.525,0.00464604,-0.000213491,-0.000178644,0.0046526,-0.00022005,-0.0366956,0.00317762,0.0150226,1441,1723,10.292,-65.5251
224,-699,10.3218,65.0876,0.0039909,1.13014e-05,-0.000377488,0.00402639,-2.41892e-05,-0.0937419,0.00269236,0.017227,1448,1723,10.3218,-65.0876
231,-699,10.3409,64.6448,0.00335771,0.000237652,-0.000663463,0.00349293,0.000102431,-0.201058,0.00229524,0.0137208,1455,1723,10.3409,-64.6448
238,-699,10.3134,64.1389,0.00284524,0.000478653,-0.00092012,0.00316088,0.000163012,-0.330463,0.00205507,0.0111433,1462,1723,10.3134,-64.1389
245,-699,10.2982,63.6809,0.00236422,0.000739109,-0.00103881,0.00287052,0.000232814,-0.453501,0.00184099,0.0126564,1469,1723,10.2982,-63.681
252,-699,10.2972,63.2673,0.00183615,0.00106641,-0.00111695,0.00263268,0.000269882,-0.619484,0.00167243,0.0113588,1476,1723,10.2972,-63.2673
259,-699,10.291,62.8102,0.00128853,0.00129073,-0.00128778,0.0025774,1.85135e-06,-0.785824,0.00171765,0.0114151,1483,1723,10.291,-62.8102
266,-699,10.2896,62.3304,0.000764384,0.00145718,-0.00152179,0.0026715,-0.000449933,-0.897304,0.00194837,0.0135439,1490,1723,10.2895,-62.3304
273,-699,10.2808,61.8035,0.000264304,0.0016453,-0.00168523,0.00277601,-0.000866405,-0.979833,0.00219717,0.0129972,1497,1723,10.2808,-61.8035
280,-699,10.2625,61.2539,-0.00029121,0.00178564,-0.00184513,0.00286449,-0.00137006,-1.0417,0.00249505,0.0126449,1504,1723,10.2624,-61.2539
287,-699,10.2296,60.6992,-0.00086291,0.00182354,-0.00197108,0.00286556,-0.00190493,-1.08449,0.0027728,0.0107771,1511,1723,10.2296,-60.6992
294,-699,10.2024,60.1615,-0.00145861,0.00203465,-0.00201016,0.00295099,-0.00237496,-1.14308,0.00308093,0.0112192,1518,1723,10.2023,-60.1615
301,-699,10.1926,59.6235,-0.00190604,0.00228902,-0.00234795,0.0033399,-0.00295692,-1.14996,0.00363771,0.0123546,1525,1723,10.1926,-59.6235
308,-699,10.1746,59.0509,-0.00211669,0.00301715,-0.00277642,0.00423145,-0.00333098,-1.1585,0.00437648,0.0171435,1532,1723,10.1745,-59.0509
315,-699,10.1298,58.4371,-0.00198133,0.00336536,-0.00332747,0.00496037,-0.00357633,-1.12381,0.00495021,0.0197634,1539,1723,10.1298,-58.4371
322,-699,10.0586,57.8468,-0.00193137,0.0038891,-0.00383398,0.00579227,-0.00383454,-1.11004,0.00559622,0.021294,1546,1723,10.0586,-57.8468
329,-699,9.99377,57.2462,-0.0016828,0.00453296,-0.00437776,0.00679385,-0.00394369,-1.09408,0.0062717,0.0170691,1553,1723,9.99383,-57.2462
336,-699,9.96399,56.6719,-0.00125376,0.00527481,-0.0050166,0.00799565,-0.00397461,-1.07383,0.00703981,0.0141174,1560,1723,9.96402,-56.6719
343,-699,9.98535,56.0886,-0.000604394,0.00605205,-0.00576652,0.00938189,-0.00393424,-1.04713,0.00789961,0.0207276,1567,1723,9.98536,-56.0886
350,-699,9.9895,55.4077,0.000245981,0.00689169,-0.00652544,0.0108916,-0.00375392,-1.02089,0.00878394,0.0368118,1574,1723,9.98946,-55.4077
357,-699,10.0072,54.4399,0.00126231,0.00754402,-0.00736582,0.0124107,-0.00360435,-0.98693,0.00970106,0.046824,1581,1723,10.0072,-54.4399
364,-699,10.2821,54.1263,0.00225427,0.00811203,-0.00806469,0.0137632,-0.00339692,-0.959579,0.0104927,0.0482651,1588,1723,10.2821,-54.1263
371,-699,9.73596,53.5812,0,0,0,0,0,0,0,-1,1595,1723,9.73595,-53.5812
378,-699,9.77405,52.9747,0,0,0,0,0,0,0,-1,1602,1723,9.77408,-52.9747
385,-699,8.04944,42.8464,0,0,0,0,0,0,0,-1,1609,1723,8.04943,-42.8464
392,-699,8.04492,42.0624,0,0,0,0,0,0,0,-1,1616,1723,8.04492,-42.0623
399,-699,8.49963,41.4828,0,0,0,0,0,0,0,-1,1623,1723,8.49961,-41.4828
406,-699,11.7264,44.1525,0,0,0,0,0,0,0,-1,1630,1723,11.7264,-44.1525
413,-699,12.3215,44.3011,0,0,0,0,0,0,0,-1,1637,1723,12.3215,-44.3011
420,-699,8.41907,38.2246,0,0,0,0,0,0,0,-1,1644,1723,8.41902,-38.2247
427,-699,2.98743,11.8593,0,0,0,0,0,0,0,-1,1651,1723,2.98746,-11.8592
434,-699,4.66455,8.90222,0,0,0,0,0,0,0,-1,1658,1723,4.66456,-8.90223
441,-699,0,0,0,0,0,0,0,0,0,-1,1665,1723,0,0
448,-699,0,0,0,0,0,0,0,0,0,-1,1672,1723,0,0
455,-699,0,0,0,0,0,0,0,0,0,-1,1679,1723,0,0
462,-699,0,0,0,0,0,0,0,0,0,-1,1686,1723,0,0
469,-699,0,0,0,0,0,0,0,0,0,-1,1693,1723,0,0
476,-699,0,0,0,0,0,0,0,0,0,-1,1700,1723,0,0
483,-699,0,0,0,0,0,0,0,0,0,-1,1707,1723,0,0
490,-699,0,0,0,0,0,0,0,0,0,-1,1714,1723,0,0
497,-699,0,0,0,0,0,0,0,0,0,-1,1721,1723,0,0
504,-699,0,0,0,0,0,0,0,0,0,-1,1728,1723,0,0
511,-699,0,0,0,0,0,0,0,0,0,-1,1735,1723,0,0
518,-699,0,0,0,0,0,0,0,0,0,-1,1742,1723,0,0
525,-699,0,0,0,0,0,0,0,0,0,-1,1749,1723,0,0
532,-699,0,0,0,0,0,0,0,0,0,-1,1756,1723,0,0
539,-699,0,0,0,0,0,0,0,0,0,-1,1763,1723,0,0
546,-699,0,0,0,0,0,0,0,0,0,-1,1770,1723,0,0
553,-699,0,0,0,0,0,0,0,0,0,-1,1777,1723,0,0
560,-699,0,0,0,0,0,0,0,0,0,-1,1784,1723,0,0
567,-699,0,0,0,0,0,0,0,0,0,-1,1791,1723,0,0
574,-699,0,0,0,0,0,0,0,0,0,-1,1798,1723,0,0
581,-699,0,0,0,0,0,0,0,0,0,-1,1805,1723,0,0
588,-699,0,0,0,0,0,0,0,0,0,-1,1812,1723,0,0
595,-699,0,0,0,0,0,0,0,0,0,-1,1819,1723,0,0
602,-699,0,0,0,0,0,0,0,0,0,-1,1826,1723,0,0
609,-699,0,0,0,0,0,0,0,0,0,-1,1833,1723,0,0
616,-699,0,0,0,0,0,0,0,0,0,-1,1840,1723,0,0
623,-699,0,0,0,0,0,0,0,0,0,-1,1847,1723,0,0
630,-699,0,0,0,0,0,0,0,0,0,-1,1854,1723,0,0
637,-699,0,0,0,0,0,0,0,0,0,-1,1861,1723,0,0
644,-699,0,0,0,0,0,0,0,0,0,-1,1868,1723,0,0
651,-699,0,0,0,0,0,0,0,0,0,-1,1875,1723,0,0
658,-699,0,0,0,0,0,0,0,0,0,-1,1882,1723,0,0
665,-699,0,0,0,0,0,0,0,0,0,-1,1889,1723,0,0
672,-699,0,0,0,0,0,0,0,0,0,-1,1896,1723,0,0
679,-699,0,0,0,0,0,0,0,0,0,-1,1903,1723,0,0
686,-699,0,0,0,0,0,0,0,0,0,-1,1910,1723,0,0
693,-699,0,0,0,0,0,0,0,0,0,-1,1917,1723,0,0
700,-699,0,0,0,0,0,0,0,0,0,-1,1924,1723,0,0
707,-699,0,0,0,0,0,0,0,0,0,-1,1931,1723,0,0
714,-699,0,0,0,0,0,0,0,0,0,-1,1938,1723,0,0
721,-699,0,0,0,0,0,0,0,0,0,-1,1945,1723,0,0
728,-699,0,0,0,0,0,0,0,0,0,-1,1952,1723,0,0
735,-699,0,0,0,0,0,0,0,0,0,-1,1959,1723,0,0
742,-699,0,0,0,0,0,0,0,0,0,-1,1966,1723,0,0
749,-699,0,0,0,0,0,0,0,0,0,-1,1973,1723,0,0
756,-699,0,0,0,0,0,0,0,0,0,-1,1980,1723,0,0
763,-699,0,0,0,0,0,0,0,0,0,-1,1987,1723,0,0
770,-699,0,0,0,0,0,0,0,0,0,-1,1994,1723,0,0
777,-699,0,0,0,0,0,0,0,0,0,-1,2001,1723,0,0
784,-699,0,0,0,0,0,0,0,0,0,-1,2008,1723,0,0
791,-699,0,0,0,0,0,0,0,0,0,-1,2015,1723,0,0
798,-699,0,0,0,0,0,0,0,0,0,-1,2022,1723,0,0
805,-699,0,0,0,0,0,0,0,0,0,-1,2029,1723,0,0
812,-699,0,0,0,0,0,0,0,0,0,-1,2036,1723,0,0
-700,-706,0,0,0,0,0,0,0,0,0,-1,524,1730,0,0
-693,-706,0,0,0,0,0,0,0,0,0,-1,531,1730,0,0
-686,-706,0,0,0,0,0,0,0,0,0,-1,538,1730,0,0
-679,-706,0,0,0,0,0,0,0,0,0,-1,545,1730,0,0
-672,-706,0,0,0,0,0,0,0,0,0,-1,552,1730,0,0
-665,-706,0,0,0,0,0,0,0,0,0,-1,559,1730,0,0
-658,-706,0,0,0,0,0,0,0,0,0,-1,566,1730,0,0
-651,-706,0,0,0,0,0,0,0,0,0,-1,573,1730,0,0
-644,-706,0,0,0,0,0,0,0,0,0,-1,580,1730,0,0
-637,-706,0,0,0,0,0,0,0,0,0,-1,587,1730,0,0
-630,-706,0,0,0,0,0,0,0,0,0,-1,594,1730,0,0
-623,-706,0,0,0,0,0,0,0,0,0,-1,601,1730,0,0
-616,-706,0,0,0,0,0,0,0,0,0,-1,608,1730,0,0
-609,-706,0,0,0,0,0,0,0,0,0,-1,615,1730,0,0
-602,-706,0,0,0,0,0,0,0,0,0,-1,622,1730,0,0
-595,-706,0,0,0,0,0,0,0,0,0,-1,629,1730,0,0
-588,-706,0,0,0,0,0,0,0,0,0,-1,636,1730,0,0
-581,-706,0,0,0,0,0,0,0,0,0,-1,643,1730,0,0
-574,-706,0,0,0,0,0,0,0,0,0,-1,650,1730,0,0
-567,-706,0,0,0,0,0,0,0,0,0,-1,657,1730,0,0
-560,-706,0,0,0,0,0,0,0,0,0,-1,664,1730,0,0
-553,-706,0,0,0,0,0,0,0,0,0,-1,671,1730,0,0
-546,-706,0,0,0,0,0,0,0,0,0,-1,678,1730,0,0
-539,-706,0,0,0,0,0,0,0,0,0,-1,685,1730,0,0
-532,-706,0,0,0,0,0,0,0,0,0,-1,692,1730,0,0
-525,-706,0,0,0,0,0,0,0,0,0,-1,699,1730,0,0
-518,-706,0,0,0,0,0,0,0,0,0,-1,706,1730,0,0
-511,-706,0,0,0,0,0,0,0,0,0,-1,713,1730,0,0
-504,-706,0,0,0,0,0,0,0,0,0,-1,720,1730,0,0
-497,-706,0,0,0,0,0,0,0,0,0,-1,727,1730,0,0
-490,-706,0,0,0,0,0,0,0,0,0,-1,734,1730,0,0
-483,-706,0,0,0,0,0,0,0,0,0,-1,741,1730,0,0
-476,-706,0,0,0,0,0,0,0,0,0,-1,748,1730,0,0
-469,-706,0,0,0,0,0,0,0,0,0,-1,755,1730,0,0
-462,-706,0,0,0,0,0,0,0,0,0,-1,762,1730,0,0
-455,-706,0,0,0,0,0,0,0,0,0,-1,769,1730,0,0
-448,-706,0,0,0,0,0,0,0,0,0,-1,776,1730,0,0
-441,-706,0,0,0,0,0,0,0,0,0,-1,783,1730,0,0
-434,-706,0,0,0,0,0,0,0,0,0,-1,790,1730,0,0
-427,-706,0,0,0,0,0,0,0,0,0,-1,797,1730,0,0
-420,-706,0,0,0,0,0,0,0,0,0,-1,804,1730,0,0
-413,-706,0,0,0,0,0,0,0,0,0,-1,811,1730,0,0
-406,-706,0,0,0,0,0,0,0,0,0,-1,818,1730,0,0
-399,-706,0,0,0,0,0,0,0,0,0,-1,825,1730,0,0
-392,-706,0,0,0,0,0,0,0,0,0,-1,832,1730,0,0
-385,-706,0,0,0,0,0,0,0,0,0,-1,839,1730,0,0
-378,-706,0,0,0,0,0,0,0,0,0,-1,846,1730,0,0
-371,-706,0,0,0,0,0,0,0,0,0,-1,853,1730,0,0
-364,-706,0,0,0,0,0,0,0,0,0,-1,860,1730,0,0
-357,-706,0,0,0,0,0,0,0,0,0,-1,867,1730,0,0
-350,-706,0,0,0,0,0,0,0,0,0,-1,874,1730,0,0
-343,-706,0,0,0,0,0,0,0,0,0,-1,881,1730,0,0
-336,-706,0,0,0,0,0,0,0,0,0,-1,888,1730,0,0
-329,-706,0,0,0,0,0,0,0,0,0,-1,895,1730,0,0
-322,-706,0,0,0,0,0,0,0,0,0,-1,902,1730,0,0
-315,-706,0,0,0,0,0,0,0,0,0,-1,909,1730,0,0
-308,-706,5.08191,14.6245,0,0,0,0,0,0,0,-1,916,1730,5.08188,-14.6245
-301,-706,7.45007,21.1975,0,0,0,0,0,0,0,-1,923,1730,7.45005,-21.1976
-294,-706,11.8603,21.026,0,0,0,0,0,0,0,-1,930,1730,11.8603,-21.026
-287,-706,10.3292,20.8425,0,0,0,0,0,0,0,-1,937,1730,10.3292,-20.8425
-280,-706,7.9162,21.8951,0,0,0,0,0,0,0,-1,944,1730,7.9162,-21.8952
-273,-706,7.38953,20.6355,0,0,0,0,0,0,0,-1,951,1730,7.38955,-20.6355
-266,-706,9.66724,22.8231,0,0,0,0,0,0,0,-1,958,1730,9.66722,-22.8231
-259,-706,3.47852,20.7363,0,0,0,0,0,0,0,-1,965,1730,3.47851,-20.7364
-252,-706,3.84259,20.1979,0,0,0,0,0,0,0,-1,972,1730,3.84256,-20.1979
-245,-706,4.698,19.2992,0,0,0,0,0,0,0,-1,979,1730,4.69799,-19.2991
-238,-706,7.87585,53.6793,0,0,0,0,0,0,0,-1,986,1730,7.87588,-53.6793
-231,-706,8.88434,55.2494,0,0,0,0,0,0,0,-1,993,1730,8.88434,-55.2493
-224,-706,8.78284,55.9097,0,0,0,0,0,0,0,-1,1000,1730,8.78286,-55.9097
-217,-706,8.43848,56.6819,0.00240985,0.00305171,0.00339631,0.00614222,-0.000680664,0.832505,0.00433953,0.0433382,1007,1730,8.43848,-56.6819
-210,-706,8.77911,56.937,0.00142456,0.00277275,0.0032488,0.00541665,-0.00121934,0.887692,0.00407876,0.0416261,1014,1730,8.77914,-56.937
-203,-706,8.77051,57.5132,0.000694934,0.00244796,0.00347434,0.00515465,-0.00201175,0.908961,0.0042681,0.0331107,1021,1730,8.77049,-57.5132
-196,-706,8.58057,58.2407,0.000425533,0.00191447,0.00368243,0.00492693,-0.00258693,0.885138,0.00440769,0.0259093,1028,1730,8.58053,-58.2408
-189,-706,8.42542,58.8984,0.000463724,0.00207526,0.00387308,0.0052255,-0.00268652,0.887957,0.00464574,0.0212028,1035,1730,8.42543,-58.8984
-182,-706,8.35815,59.5289,0.00044382,0.00211362,0.00385764,0.00522567,-0.00266823,0.891968,0.00463659,0.0162584,1042,1730,8.3582,-59.5289
-175,-706,8.34961,60.1127,0.000331504,0.00208837,0.00374524,0.00505681,-0.00263694,0.900589,0.00451464,0.0167865,1049,1730,8.34966,-60.1127
-168,-706,8.32959,60.6531,0.000229866,0.00208362,0.00357804,0.00485289,-0.0025394,0.912135,0.00433705,0.0175742,1056,1730,8.32964,-60.6531
-161,-706,8.27075,61.1833,-0.000115397,0.00236558,0.00337938,0.00472496,-0.00247477,0.961301,0.0042239,0.0142263,1063,1730,8.27075,-61.1834
-154,-706,8.22205,61.7333,-0.00020466,0.00227871,0.00317011,0.00444163,-0.00236759,0.972057,0.00399163,0.0137932,1070,1730,8.22203,-61.7333
-147,-706,8.16992,62.2406,-0.000121986,0.00215831,0.00279105,0.0040331,-0.00199678,0.979305,0.00354691,0.012998,1077,1730,8.16998,-62.2406
-140,-706,8.14539,62.743,0.000163744,0.00218926,0.00238009,0.0037631,-0.00141009,0.986551,0.00308802,0.0124933,1084,1730,8.1454,-62.7431
-133,-706,8.11328,63.2188,0.00024709,0.00209618,0.0019387,0.00331951,-0.000976235,1.00789,0.00260024,0.0106953,1091,1730,8.11323,-63.2188
-126,-706,8.10889,63.683,6.78771e-05,0.00201567,0.00152161,0.00284836,-0.000764814,1.07007,0.00219864,0.0160205,1098,1730,8.10884,-63.683
-119,-706,8.06958,64.1401,9.76733e-05,0.0018289,0.00124872,0.00248269,-0.000556116,1.08847,0.00186829,0.01952,1105,1730,8.06961,-64.1401
-112,-706,8.05835,64.6289,0.000509685,0.00160375,0.00105275,0.00224311,-0.000129676,1.02501,0.00154045,0.0127109,1112,1730,8.05832,-64.6289
-105,-706,8.0575,65.0652,0.000909786,0.00124358,0.000750435,0.00184545,0.000307914,0.894818,0.00114159,0.00964992,1119,1730,8.05747,-65.0652
-98,-706,8.06873,65.4418,0.00126173,0.000987458,0.000476965,0.00162088,0.000628305,0.645416,0.00094366,0.0123683,1126,1730,8.06874,-65.4417
-91,-706,8.07751,65.8658,0.00167664,0.000875076,0.000185089,0.00171731,0.000834401,0.216319,0.000991624,0.0163592,1133,1730,8.07755,-65.8659
-84,-706,8.08398,66.3105,0.00218875,0.00066111,-0.000116439,0.00219758,0.000652286,-0.0756391,0.00130322,0.0191027,1140,1730,8.084,-66.3105
-77,-706,8.08093,66.6499,0.00269766,0.000462398,-0.000370772,0.00275756,0.000402502,-0.160162,0.00171997,0.0169006,1147,1730,8.08091,-66.6499
-70,-706,8.0769,67.0159,0.00305479,0.000136913,-0.000703554,0.00321557,-2.38678e-05,-0.224668,0.00215171,0.0188032,1154,1730,8.07696,-67.0159
-63,-706,8.08521,67.3434,0.00172382,-3.05223e-05,-0.000361693,0.00179546,-0.000102167,-0.19555,0.00123244,0.0145949,1161,1730,8.08524,-67.3434
-56,-706,8.10583,67.6404,-0.00065446,-0.00029178,1.15163e-05,-0.000291415,-0.000654825,1.53909,0.000378824,0.0143928,1168,1730,8.10578,-67.6403
-49,-706,8.11414,67.9485,-0.00337041,-0.00025239,0.000405516,-0.000200514,-0.00342229,1.44356,0.00221771,0.0150212,1175,1730,8.11409,-67.9484
-42,-706,8.14514,68.2296,-0.00613123,-8.87804e-05,0.000606516,-2.8502e-05,-0.00619151,1.47174,0.0041182,0.0191424,1182,1730,8.14515,-68.2296
-35,-706,8.18701,68.4756,-0.00893268,0.00184059,0.000844902,0.00190645,-0.00899854,1.493,0.00672519,0.0189355,1189,1730,8.187,-68.4756
-28,-706,8.24011,68.731,-0.0114694,0.00335825,0.00116604,0.00344939,-0.0115606,1.4928,0.00907799,0.0132656,1196,1730,8.24012,-68.731
-21,-706,8.24597,68.9313,-0.0133739,0.00418636,0.0013958,0.00429662,-0.0134842,1.49197,0.0107128,0.0143272,1203,1730,8.246,-68.9312
-14,-706,8.28137,69.1451,-0.0147041,0.00531207,0.00160477,0.00543992,-0.014832,1.4913,0.0121154,0.013258,1210,1730,8.28135,-69.1451
-7,-706,8.36316,69.3585,-0.0154725,0.00626721,0.00171344,0.00640143,-0.0156067,1.49262,0.0130717,0.0107906,1217,1730,8.36311,-69.3586
0,-706,8.45081,69.5382,-0.0155987,0.00733155,0.00184606,0.00747922,-0.0157464,1.49097,0.0136895,0.0151686,1224,1730,8.45075,-69.5382
7,-706,8.48889,69.6876,-0.0151677,0.00830034,0.00198517,0.00846708,-0.0153345,1.487,0.0139312,0.0175108,1231,1730,8.48895,-69.6876
14,-706,8.55664,69.8015,-0.0143541,0.0101092,0.00181492,0.0102431,-0.014488,1.49714,0.0143484,0.0171019,1238,1730,8.55661,-69.8016
21,-706,8.63147,69.9199,-0.0131674,0.0120854,0.00140755,0.0121636,-0.0132456,1.51529,0.0146744,0.0132792,1245,1730,8.6315,-69.9199
28,-706,8.672,70.0187,-0.0115922,0.0141126,0.000819682,0.0141387,-0.0116184,1.53895,0.0148946,0.0132445,1252,1730,8.67204,-70.0187
35,-706,8.69836,70.1108,-0.00990995,0.0159022,0.000219167,0.0159041,-0.00991181,1.56231,0.0150381,0.0158046,1259,1730,8.6984,-70.1109
42,-706,8.7677,70.15,-0.0079175,0.0178161,-0.000637249,0.0178319,-0.00793327,-1.54605,0.0152371,0.0130518,1266,1730,8.76774,-70.1501
49,-706,8.85095,70.177,-0.00604424,0.0195061,-0.00139959,0.0195826,-0.00612067,-1.51624,0.0155034,0.0154917,1273,1730,8.85101,-70.1771
56,-706,8.95056,70.2023,-0.00383144,0.0225198,-0.00172255,0.022632,-0.00394357,-1.5058,0.0165598,0.0159311,1280,1730,8.95053,-70.2022
63,-706,9.00769,70.1906,-0.00204441,0.0242774,-0.00214184,0.0244506,-0.00221755,-1.49013,0.0170876,0.0136948,1287,1730,9.00765,-70.1906
70,-706,9.03503,70.1658,-0.000847307,0.0239727,-0.00298556,0.0243268,-0.00120139,-1.45275,0.0166328,0.0138873,1294,1730,9.03505,-70.1658
77,-706,9.08301,70.1316,-2.06276e-05,0.024379,-0.00371235,0.0249313,-0.00057295,-1.4231,0.0168151,0.0124242,1301,1730,9.08299,-70.1316
84,-706,9.17212,70.1052,-0.000310392,0.0253398,-0.00391705,0.0259247,-0.000895232,-1.42259,0.0175891,0.00983781,1308,1730,9.17217,-70.1052
91,-706,9.24658,70.0522,-0.000720403,0.0261232,-0.00415288,0.026751,-0.0013482,-1.42076,0.0183,0.0106354,1315,1730,9.24655,-70.0523
98,-706,9.27087,69.9597,-0.000907508,0.0258342,-0.00417478,0.0264708,-0.0015441,-1.41948,0.0181837,0.0139098,1322,1730,9.27086,-69.9598
105,-706,9.31787,69.882,-0.00112645,0.0254796,-0.00424017,0.026139,-0.00178586,-1.41652,0.0180507,0.0162383,1329,1730,9.31783,-69.8819
112,-706,9.35107,69.7748,-0.00130011,0.0247739,-0.00440621,0.0254983,-0.00202458,-1.40783,0.0177124,0.0158787,1336,1730,9.35105,-69.7748
119,-706,9.37305,69.6267,-0.00129531,0.0235107,-0.00443197,0.0242788,-0.00206337,-1.3992,0.0169156,0.0138225,1343,1730,9.37303,-69.6267
126,-706,9.46765,69.4207,-0.00136325,0.022623,-0.00447628,0.0234312,-0.00217138,-1.39218,0.0163926,0.0156576,1350,1730,9.46768,-69.4207
133,-706,9.59656,69.1836,-0.0015063,0.0218932,-0.00450436,0.0227303,-0.00234344,-1.38704,0.015992,0.0139187,1357,1730,9.59658,-69.1836
140,-706,9.64319,68.9333,-0.00157225,0.021182,-0.00450555,0.0220417,-0.00243191,-1.38226,0.0155685,0.0136264,1364,1730,9.64325,-68.9333
147,-706,9.69885,68.7046,-0.00131271,0.0197691,-0.00437045,0.0206392,-0.00218283,-1.37427,0.0145418,0.0248393,1371,1730,9.69882,-68.7046
154,-706,9.74158,68.5237,-0.000708517,0.0179783,-0.00412611,0.0188488,-0.00157902,-1.36287,0.0131239,0.0248093,1378,1730,9.74161,-68.5236
161,-706,9.71924,68.2258,-0.000256384,0.0148584,-0.003879,0.0157958,-0.00119374,-1.33369,0.0109502,0.0120319,1385,1730,9.71922,-68.2258
168,-706,9.74756,67.9432,0.000399477,0.01241,-0.00324619,0.0132312,-0.000421747,-1.32301,0.00896472,0.0112334,1392,1730,9.74755,-67.9433
175,-706,9.79956,67.6805,0.00145366,0.0100146,-0.00222854,0.0105599,0.000908285,-1.33079,0.00675757,0.0114182,1399,1730,9.79953,-67.6805
182,-706,9.82166,67.3494,0.00246259,0.00691854,-0.00150666,0.00738015,0.00200098,-1.27349,0.00440722,0.012457,1406,1730,9.82169,-67.3494
189,-706,9.84619,66.9891,0.00353127,0.00332326,-0.000953758,0.00438668,0.00246785,-0.731091,0.00253925,0.0163847,1413,1730,9.84622,-66.9892
196,-706,9.87061,66.6273,0.00421229,-0.00018889,-0.000377457,0.00424443,-0.000221028,-0.0849362,0.0029061,0.0136856,1420,1730,9.8706,-66.6273
203,-706,9.87976,66.2759,0.00372483,0.000253712,-0.000524813,0.00380244,0.000176098,-0.146824,0.00247835,0.0142594,1427,1730,9.87976,-66.2759
210,-706,9.87671,65.9059,0.00324968,0.000440131,-0.000748995,0.00343688,0.00025293,-0.244919,0.00221177,0.013939,1434,1730,9.87674,-65.9059
217,-706,9.87158,65.535,0.00273374,0.000677293,-0.000896944,0.00306998,0.000341056,-0.358656,0.00194297,0.0152247,1441,1730,9.87159,-65.535
224,-706,9.86975,65.1217,0.00223004,0.000904745,-0.00110687,0.00285746,0.000277327,-0.515679,0.00181959,0.0194276,1448,1730,9.86978,-65.1216
231,-706,9.89209,64.6519,0.00171526,0.00111309,-0.00133962,0.00278722,4.11337e-05,-0.674859,0.00184459,0.013766,1455,1730,9.89203,-64.6518
238,-706,9.88306,64.1853,0.00127657,0.0013551,-0.00152173,0.00283807,-0.000206403,-0.798296,0.00196447,0.00946615,1462,1730,9.88305,-64.1853
245,-706,9.86243,63.7084,0.000849768,0.00157195,-0.00165025,0.00290015,-0.000478438,-0.893105,0.00211106,0.0124714,1469,1730,9.86244,-63.7084
252,-706,9.8501,63.2567,0.000351836,0.00189664,-0.00173256,0.00302117,-0.0007727,-0.995082,0.00231507,0.0117245,1476,1730,9.85005,-63.2567
259,-706,9.85034,62.7977,-0.000153624,0.00209827,-0.00187308,0.00315777,-0.00121312,-1.05602,0.00260546,0.0129796,1483,1730,9.85037,-62.7977
266,-706,9.81152,62.3385,-0.000680004,0.00225637,-0.0020702,0.00332616,-0.00174979,-1.09384,0.00297733,0.0127977,1490,1730,9.81153,-62.3385
273,-706,9.7699,61.8258,-0.00122055,0.00244996,-0.00222849,0.00350163,-0.00227221,-1.12986,0.00335862,0.0122197,1497,1730,9.76996,-61.8258
280,-706,9.73157,61.2578,-0.00182107,0.00262099,-0.00238957,0.00366233,-0.00286241,-1.15983,0.00377648,0.0105113,1504,1730,9.73152,-61.2579
287,-706,9.68787,60.714,-0.00245815,0.00266833,-0.0025191,0.00369898,-0.0034888,-1.18244,0.00415046,0.0112404,1511,1730,9.68783,-60.714
294,-706,9.6687,60.1752,-0.00314285,0.00296264,-0.00253085,0.0038753,-0.00405551,-1.2247,0.00457925,0.0112313,1518,1730,9.66874,-60.1752
301,-706,9.64844,59.6238,-0.00361106,0.00331671,-0.00292489,0.00438642,-0.00468077,-1.22018,0.00523587,0.0107354,1525,1730,9.64845,-59.6238
308,-706,9.63672,59.0686,-0.00378705,0.00430464,-0.00343063,0.00556334,-0.00504574,-1.21915,0.00612758,0.0176927,1532,1730,9.63667,-59.0687
315,-706,9.62976,58.4384,-0.00349168,0.00477636,-0.00411777,0.00647725,-0.00519257,-1.17908,0.00675117,0.0435623,1539,1730,9.62974,-58.4384
322,-706,9.57886,57.8853,0,0,0,0,0,0,0,-1,1546,1730,9.57882,-57.8852
329,-706,9.495,57.2504,-0.00287002,0.00627912,-0.00544458,0.00881582,-0.00540672,-1.13479,0.00828964,0.0397591,1553,1730,9.49501,-57.2504
336,-706,9.35876,56.7257,-0.00214465,0.00731261,-0.00631087,0.0104699,-0.00530189,-1.10692,0.00926734,0.038181,1560,1730,9.35871,-56.7257
343,-706,9.15686,55.9294,-0.00109509,0.00837348,-0.00733251,0.0123673,-0.00508887,-1.07206,0.0103662,0.0449739,1567,1730,9.15681,-55.9294
350,-706,9.45435,55.3746,0,0,0,0,0,0,0,-1,1574,1730,9.45436,-55.3746
357,-706,9.66345,54.2417,0,0,0,0,0,0,0,-1,1581,1730,9.66349,-54.2417
364,-706,9.94385,54.342,0,0,0,0,0,0,0,-1,1588,1730,9.94381,-54.3421
371,-706,8.6084,48.7302,0,0,0,0,0,0,0,-1,1595,1730,8.60844,-48.7303
378,-706,7.63867,44.0519,0,0,0,0,0,0,0,-1,1602,1730,7.63863,-44.0519
385,-706,7.3186,43.2451,0,0,0,0,0,0,0,-1,1609,1730,7.31862,-43.2451
392,-706,7.33728,42.4652,0,0,0,0,0,0,0,-1,1616,1730,7.3373,-42.4651
399,-706,7.51855,41.7692,0,0,0,0,0,0,0,-1,1623,1730,7.51855,-41.7691
406,-706,7.46301,40.9797,0,0,0,0,0,0,0,-1,1630,1730,7.46301,-40.9797
413,-706,8.43433,40.3345,0,0,0,0,0,0,0,-1,1637,1730,8.43428,-40.3344
420,-706,8.0636,39.6101,0,0,0,0,0,0,0,-1,1644,1730,8.06362,-39.6101
427,-706,0,0,0,0,0,0,0,0,0,-1,1651,1730,0,0
434,-706,0,0,0,0,0,0,0,0,0,-1,1658,1730,0,0
441,-706,0,0,0,0,0,0,0,0,0,-1,1665,1730,0,0
448,-706,0,0,0,0,0,0,0,0,0,-1,1672,1730,0,0
455,-706,0,0,0,0,0,0,0,0,0,-1,1679,1730,0,0
462,-706,0,0,0,0,0,0,0,0,0,-1,1686,1730,0,0
469,-706,0,0,0,0,0,0,0,0,0,-1,1693,1730,0,0
476,-706,0,0,0,0,0,0,0,0,0,-1,1700,1730,0,0
483,-706,0,0,0,0,0,0,0,0,0,-1,1707,1730,0,0
490,-706,0,0,0,0,0,0,0,0,0,-1,1714,1730,0,0
497,-706,0,0,0,0,0,0,0,0,0,-1,1721,1730,0,0
504,-706,0,0,0,0,0,0,0,0,0,-1,1728,1730,0,0
511,-706,0,0,0,0,0,0,0,0,0,-1,1735,1730,0,0
518,-706,0,0,0,0,0,0,0,0,0,-1,1742,1730,0,0
525,-706,0,0,0,0,0,0,0,0,0,-1,1749,1730,0,0
532,-706,0,0,0,0,0,0,0,0,0,-1,1756,1730,0,0
539,-706,0,0,0,0,0,0,0,0,0,-1,1763,1730,0,0
546,-706,0,0,0,0,0,0,0,0,0,-1,1770,1730,0,0
553,-706,0,0,0,0,0,0,0,0,0,-1,1777,1730,0,0
560,-706,0,0,0,0,0,0,0,0,0,-1,1784,1730,0,0
567,-706,0,0,0,0,0,0,0,0,0,-1,1791,1730,0,0
574,-706,0,0,0,0,0,0,0,0,0,-1,1798,1730,0,0
581,-706,0,0,0,0,0,0,0,0,0,-1,1805,1730,0,0
588,-706,0,0,0,0,0,0,0,0,0,-1,1812,1730,0,0
595,-706,0,0,0,0,0,0,0,0,0,-1,1819,1730,0,0
602,-706,0,0,0,0,0,0,0,0,0,-1,1826,1730,0,0
609,-706,0,0,0,0,0,0,0,0,0,-1,1833,1730,0,0
616,-706,0,0,0,0,0,0,0,0,0,-1,1840,1730,0,0
623,-706,0,0,0,0,0,0,0,0,0,-1,1847,1730,0,0
630,-706,0,0,0,0,0,0,0,0,0,-1,1854,1730,0,0
637,-706,0,0,0,0,0,0,0,0,0,-1,1861,1730,0,0
644,-706,0,0,0,0,0,0,0,0,0,-1,1868,1730,0,0
651,-706,0,0,0,0,0,0,0,0,0,-1,1875,1730,0,0
658,-706,0,0,0,0,0,0,0,0,0,-1,1882,1730,0,0
665,-706,0,0,0,0,0,0,0,0,0,-1,1889,1730,0,0
672,-706,0,0,0,0,0,0,0,0,0,-1,1896,1730,0,0
679,-706,0,0,0,0,0,0,0,0,0,-1,1903,1730,0,0
686,-706,0,0,0,0,0,0,0,0,0,-1,1910,1730,0,0
693,-706,0,0,0,0,0,0,0,0,0,-1,1917,1730,0,0
700,-706,0,0,0,0,0,0,0,0,0,-1,1924,1730,0,0
707,-706,0,0,0,0,0,0,0,0,0,-1,1931,1730,0,0
714,-706,0,0,0,0,0,0,0,0,0,-1,1938,1730,0,0
721,-706,0,0,0,0,0,0,0,0,0,-1,1945,1730,0,0
728,-706,0,0,0,0,0,0,0,0,0,-1,1952,1730,0,0
735,-706,0,0,0,0,0,0,0,0,0,-1,1959,1730,0,0
742,-706,0,0,0,0,0,0,0,0,0,-1,1966,1730,0,0
749,-706,0,0,0,0,0,0,0,0,0,-1,1973,1730,0,0
756,-706,0,0,0,0,0,0,0,0,0,-1,1980,1730,0,0
763,-706,0,0,0,0,0,0,0,0,0,-1,1987,1730,0,0
770,-706,0,0,0,0,0,0,0,0,0,-1,1994,1730,0,0
777,-706,0,0,0,0,0,0,0,0,0,-1,2001,1730,0,0
784,-706,0,0,0,0,0,0,0,0,0,-1,2008,1730,0,0
791,-706,0,0,0,0,0,0,0,0,0,-1,2015,1730,0,0
798,-706,0,0,0,0,0,0,0,0,0,-1,2022,1730,0,0
805,-706,0,0,0,0,0,0,0,0,0,-1,2029,1730,0,0
812,-706,0,0,0,0,0,0,0,0,0,-1,2036,1730,0,0
-700,-713,0,0,0,0,0,0,0,0,0,-1,524,1737,0,0
-693,-713,0,0,0,0,0,0,0,0,0,-1,531,1737,0,0
-686,-713,0,0,0,0,0,0,0,0,0,-1,538,1737,0,0
-679,-713,0,0,0,0,0,0,0,0,0,-1,545,1737,0,0
-672,-713,0,0,0,0,0,0,0,0,0,-1,552,1737,0,0
-665,-713,0,0,0,0,0,0,0,0,0,-1,559,1737,0,0
-658,-713,0,0,0,0,0,0,0,0,0,-1,566,1737,0,0
-651,-713,0,0,0,0,0,0,0,0,0,-1,573,1737,0,0
-644,-713,0,0,0,0,0,0,0,0,0,-1,580,1737,0,0
-637,-713,0,0,0,0,0,0,0,0,0,-1,587,1737,0,0
-630,-713,0,0,0,0,0,0,0,0,0,-1,594,1737,0,0
-623,-713,0,0,0,0,0,0,0,0,0,-1,601,1737,0,0
-616,-713,0,0,0,0,0,0,0,0,0,-1,608,1737,0,0
-609,-713,0,0,0,0,0,0,0,0,0,-1,615,1737,0,0
-602,-713,0,0,0,0,0,0,0,0,0,-1,622,1737,0,0
-595,-713,0,0,0,0,0,0,0,0,0,-1,629,1737,0,0
-588,-713,0,0,0,0,0,0,0,0,0,-1,636,1737,0,0
-581,-713,0,0,0,0,0,0,0,0,0,-1,643,1737,0,0
-574,-713,0,0,0,0,0,0,0,0,0,-1,650,1737,0,0
-567,-713,0,0,0,0,0,0,0,0,0,-1,657,1737,0,0
-560,-713,0,0,0,0,0,0,0,0,0,-1,664,1737,0,0
-553,-713,0,0,0,0,0,0,0,0,0,-1,671,1737,0,0
-546,-713,0,0,0,0,0,0,0,0,0,-1,678,1737,0,0
-539,-713,0,0,0,0,0,0,0,0,0,-1,685,1737,0,0
-532,-713,0,0,0,0,0,0,0,0,0,-1,692,1737,0,0
-525,-713,0,0,0,0,0,0,0,0,0,-1,699,1737,0,0
-518,-713,0,0,0,0,0,0,0,0,0,-1,706,1737,0,0
-511,-713,0,0,0,0,0,0,0,0,0,-1,713,1737,0,0
-504,-713,0,0,0,0,0,0,0,0,0,-1,720,1737,0,0
-497,-713,0,0,0,0,0,0,0,0,0,-1,727,1737,0,0
-490,-713,0,0,0,0,0,0,0,0,0,-1,734,1737,0,0
-483,-713,0,0,0,0,0,0,0,0,0,-1,741,1737,0,0
-476,-713,0,0,0,0,0,0,0,0,0,-1,748,1737,0,0
-469,-713,0,0,0,0,0,0,0,0,0,-1,755,1737,0,0
-462,-713,0,0,0,0,0,0,0,0,0,-1,762,1737,0,0
-455,-713,0,0,0,0,0,0,0,0,0,-1,769,1737,0,0
-448,-713,0,0,0,0,0,0,0,0,0,-1,776,1737,0,0
-441,-713,0,0,0,0,0,0,0,0,0,-1,783,1737,0,0
-434,-713,0,0,0,0,0,0,0,0,0,-1,790,1737,0,0
-427,-713,0,0,0,0,0,0,0,0,0,-1,797,1737,0,0
-420,-713,0,0,0,0,0,0,0,0,0,-1,804,1737,0,0
-413,-713,0,0,0,0,0,0,0,0,0,-1,811,1737,0,0
-406,-713,0,0,0,0,0,0,0,0,0,-1,818,1737,0,0
-399,-713,0,0,0,0,0,0,0,0,0,-1,825,1737,0,0
-392,-713,0,0,0,0,0,0,0,0,0,-1,832,1737,0,0
-385,-713,0,0,0,0,0,0,0,0,0,-1,839,1737,0,0
-378,-713,0,0,0,0,0,0,0,0,0,-1,846,1737,0,0
-371,-713,0,0,0,0,0,0,0,0,0,-1,853,1737,0,0
-364,-713,0,0,0,0,0,0,0,0,0,-1,860,1737,0,0
-357,-713,0,0,0,0,0,0,0,0,0,-1,867,1737,0,0
-350,-713,0,0,0,0,0,0,0,0,0,-1,874,1737,0,0
-343,-713,0,0,0,0,0,0,0,0,0,-1,881,1737,0,0
-336,-713,0,0,0,0,0,0,0,0,0,-1,888,1737,0,0
-329,-713,0,0,0,0,0,0,0,0,0,-1,895,1737,0,0
-322,-713,0,0,0,0,0,0,0,0,0,-1,902,1737,0,0
-315,-713,0,0,0,0,0,0,0,0,0,-1,909,1737,0,0
-308,-713,0,0,0,0,0,0,0,0,0,-1,916,1737,0,0
-301,-713,0,0,0,0,0,0,0,0,0,-1,923,1737,0,0
-294,-713,7.17883,22.0453,0,0,0,0,0,0,0,-1,930,1737,7.17881,-22.0453
-287,-713,11.8916,21.5834,0,0,0,0,0,0,0,-1,937,1737,11.8916,-21.5833
-280,-713,10.2786,21.3551,0,0,0,0,0,0,0,-1,944,1737,10.2787,-21.3551
-273,-713,11.1981,23.8683,0,0,0,0,0,0,0,-1,951,1737,11.198,-23.8683
-266,-713,3.17981,19.8851,0,0,0,0,0,0,0,-1,958,1737,3.17983,-19.8851
-259,-713,3.5921,19.6868,0,0,0,0,0,0,0,-1,965,1737,3.59207,-19.6868
-252,-713,4.55469,20.5758,0,0,0,0,0,0,0,-1,972,1737,4.55466,-20.5758
-245,-713,3.89014,25.9825,0,0,0,0,0,0,0,-1,979,1737,3.89013,-25.9826
-238,-713,6.62506,30.5463,0,0,0,0,0,0,0,-1,986,1737,6.62509,-30.5462
-231,-713,8.52356,54.5547,0,0,0,0,0,0,0,-1,993,1737,8.52359,-54.5547
-224,-713,9.021,54.7601,0,0,0,0,0,0,0,-1,1000,1737,9.02097,-54.7602
-217,-713,8.9126,56.9174,0,0,0,0,0,0,0,-1,1007,1737,8.9126,-56.9174
-210,-713,9.48456,56.9567,0,0,0,0,0,0,0,-1,1014,1737,9.48453,-56.9567
-203,-713,9.5752,57.3984,0,0,0,0,0,0,0,-1,1021,1737,9.57525,-57.3984
-196,-713,9.06433,58.326,0.00175271,0.00202884,0.00473786,0.00663065,-0.0028491,0.799964,0.00561641,0.0470321,1028,1737,9.06436,-58.3261
-189,-713,8.73486,58.8693,0.00154562,0.00247736,0.00510974,0.00714242,-0.00311945,0.830859,0.00607456,0.0418572,1035,1737,8.7349,-58.8693
-182,-713,8.81018,59.4583,0.00121426,0.00273046,0.00515341,0.00718123,-0.00323651,0.858428,0.00615673,0.0277085,1042,1737,8.81013,-59.4583
-175,-713,8.90295,60.052,0.000764179,0.00274432,0.00505316,0.00690349,-0.00339499,0.882138,0.00605975,0.0214916,1049,1737,8.903,-60.0519
-168,-713,8.95764,60.6151,0.000400461,0.00282628,0.0048862,0.00664786,-0.00342112,0.907055,0.00591199,0.0238338,1056,1737,8.95762,-60.6151
-161,-713,8.79565,61.2102,-0.000257529,0.00325551,0.00468625,0.00650362,-0.00350564,0.964706,0.00586462,0.0130532,1063,1737,8.79568,-61.2102
-154,-713,8.70044,61.7303,-0.000599071,0.00318725,0.00447372,0.00615189,-0.00356372,0.985559,0.00567527,0.0118547,1070,1737,8.7005,-61.7303
-147,-713,8.63953,62.2612,-0.000736403,0.00301282,0.0040493,0.00560038,-0.00332396,1.00218,0.00520805,0.0190465,1077,1737,8.63949,-62.2612
-140,-713,8.63452,62.8073,-0.000600903,0.00305992,0.00359208,0.00526106,-0.00280205,1.02103,0.00472685,0.0198891,1084,1737,8.63451,-62.8073
-133,-713,8.57166,63.2665,-0.00071405,0.00291444,0.00307951,0.00467439,-0.002474,1.05159,0.00419179,0.0146081,1091,1737,8.57168,-63.2664
-126,-713,8.57214,63.686,-0.00121198,0.00280752,0.00260594,0.00408867,-0.00249313,1.11387,0.00383704,0.0218448,1098,1737,8.57218,-63.686
-119,-713,8.53931,64.0891,-0.00145142,0.00260194,0.00233515,0.00366724,-0.00251672,1.1428,0.00359085,0.028655,1105,1737,8.53927,-64.0891
-112,-713,8.48511,64.6444,-0.00108592,0.00235337,0.00217837,0.00340905,-0.00214161,1.11953,0.0032324,0.014469,1112,1737,8.4851,-64.6444
-105,-713,8.4856,65.0713,-0.000715602,0.00193862,0.00187466,0.00290837,-0.00168535,1.09341,0.00268333,0.0120938,1119,1737,8.48562,-65.0713
-98,-713,8.47266,65.4658,-0.000396936,0.00170989,0.00160834,0.00257909,-0.00126614,1.07533,0.00226277,0.011892,1126,1737,8.47266,-65.4658
-91,-713,8.4408,65.8746,-4.46707e-05,0.00163903,0.00134944,0.00238768,-0.000793323,1.06428,0.0019119,0.011429,1133,1737,8.44074,-65.8746
-84,-713,8.43335,66.3008,0.000279071,0.00121331,0.00102261,0.00187044,-0.000378056,0.999643,0.00139022,0.0107775,1140,1737,8.43335,-66.3008
-77,-713,8.42944,66.6678,0.000652392,0.00104777,0.00078448,0.00165909,4.10751e-05,0.908828,0.00109262,0.0134397,1147,1737,8.42949,-66.6678
-70,-713,8.41785,67.0115,0.00102214,0.00091847,0.000473147,0.00144629,0.000494329,0.730837,0.000848832,0.0149626,1154,1737,8.41789,-67.0115
-63,-713,8.41797,67.3519,0.000995053,0.000822186,0.000367078,0.00128574,0.000531503,0.669773,0.000746023,0.0138458,1161,1737,8.41802,-67.3519
-56,-713,8.44519,67.6655,0.000566104,0.00060237,0.000310978,0.000895743,0.000272731,0.81452,0.000530174,0.0139075,1168,1737,8.4452,-67.6656
-49,-713,8.41553,67.9635,-0.000250292,0.000423884,0.000317454,0.000549836,-0.000376243,1.19309,0.000537794,0.0171856,1175,1737,8.41558,-67.9635
-42,-713,8.41895,68.2162,-0.00126501,0.000262923,0.000292175,0.000316888,-0.00131897,1.38815,0.00100179,0.0202535,1182,1737,8.41895,-68.2162
-35,-713,8.46912,68.4786,-0.00251251,0.000928444,0.000297915,0.000954047,-0.00253811,1.48507,0.00208419,0.0160246,1189,1737,8.46915,-68.4786
-28,-713,8.50354,68.7522,-0.00384669,0.00150595,0.000385818,0.00153362,-0.00387435,1.49921,0.00321831,0.0151969,1196,1737,8.50354,-68.7521
-21,-713,8.47693,68.9628,-0.0049355,0.00175217,0.000462414,0.00178399,-0.00496733,1.50209,0.00403973,0.011171,1203,1737,8.47688,-68.9628
-14,-713,8.49548,69.1655,-0.00579008,0.00221899,0.000576384,0.00226025,-0.00583135,1.49932,0.00482096,0.0120376,1210,1737,8.49552,-69.1656
-7,-713,8.55981,69.3804,-0.00628546,0.00259728,0.000613775,0.00263949,-0.00632767,1.50213,0.00532116,0.0114232,1217,1737,8.55986,-69.3804
0,-713,8.61548,69.5365,-0.00637605,0.00310479,0.00070745,0.00315729,-0.00642855,1.49672,0.00564078,0.0169108,1224,1737,8.61545,-69.5365
7,-713,8.64771,69.6782,-0.00610141,0.00353315,0.000827442,0.00360369,-0.00617196,1.48574,0.00570853,0.0198041,1231,1737,8.64765,-69.6782
14,-713,8.6709,69.8364,-0.0056022,0.00414348,0.000861055,0.00421897,-0.0056777,1.48335,0.00573449,0.0145432,1238,1737,8.67093,-69.8365
21,-713,8.71802,69.9674,-0.00486369,0.00476169,0.000790071,0.00482611,-0.00492811,1.48944,0.00563171,0.0115335,1245,1737,8.71806,-69.9675
28,-713,8.73792,70.0712,-0.00387348,0.00552356,0.000574835,0.0055586,-0.00390852,1.50993,0.00549345,0.01212,1252,1737,8.73791,-70.0712
35,-713,8.77527,70.1295,-0.00276381,0.00605379,0.000388977,0.00607091,-0.00278094,1.5268,0.00522696,0.0126019,1259,1737,8.77522,-70.1295
42,-713,8.83228,70.1652,-0.00142064,0.00655896,6.20028e-05,0.00655944,-0.00142112,1.56303,0.00491562,0.011736,1266,1737,8.83222,-70.1651
49,-713,8.88757,70.1639,-0.000359353,0.00657304,-0.000171665,0.00657729,-0.000363601,-1.54605,0.00451095,0.0146484,1273,1737,8.88753,-70.1639
56,-713,8.93835,70.1769,0.000849063,0.00769702,-0.00014467,0.00770007,0.000846008,-1.54968,0.00487591,0.0182731,1280,1737,8.93837,-70.1768
63,-713,8.96362,70.2172,0.0017047,0.00848096,-0.000242937,0.00848966,0.001696,-1.53501,0.00518769,0.0169375,1287,1737,8.9636,-70.2171
70,-713,8.995,70.2148,0.00210991,0.00808498,-0.000756871,0.00817936,0.00201553,-1.44674,0.00492064,0.0136965,1294,1737,8.99494,-70.2148
77,-713,9.03845,70.1891,0.00234644,0.00834557,-0.00124983,0.00859554,0.00209647,-1.3734,0.00517508,0.0136752,1301,1737,9.03851,-70.1891
84,-713,9.09888,70.1593,0.00190893,0.00945694,-0.00147774,0.00973594,0.00162993,-1.38419,0.00602131,0.0131055,1308,1737,9.09883,-70.1593
91,-713,9.13696,70.0981,0.00138811,0.0105856,-0.00179593,0.0109238,0.00104987,-1.38464,0.00695902,0.0122126,1315,1737,9.13701,-70.0981
98,-713,9.16479,69.9839,0.0010643,0.0109786,-0.0019638,0.0113535,0.000689491,-1.3822,0.00734993,0.0114057,1322,1737,9.16483,-69.9839
105,-713,9.19287,69.8765,0.000736417,0.0113784,-0.00213967,0.0117925,0.000322328,-1.37963,0.00775646,0.0137762,1329,1737,9.19288,-69.8765
112,-713,9.23511,69.7631,0.00046929,0.0115077,-0.00238328,0.0120003,-2.32952e-05,-1.36698,0.00800799,0.0139701,1336,1737,9.23514,-69.763
119,-713,9.24329,69.6245,0.000303844,0.0113273,-0.00254593,0.0118869,-0.000255746,-1.35444,0.00801119,0.0144561,1343,1737,9.24333,-69.6245
126,-713,9.27869,69.4419,0.000151474,0.0111319,-0.00266065,0.0117426,-0.000459258,-1.34516,0.0079859,0.0139716,1350,1737,9.27866,-69.4419
133,-713,9.33667,69.2137,1.82585e-05,0.0107756,-0.00269489,0.0114129,-0.000619094,-1.33856,0.00782315,0.0128576,1357,1737,9.33664,-69.2137
140,-713,9.39905,68.9569,-7.17665e-05,0.0104047,-0.0027091,0.0110637,-0.00073085,-1.33215,0.00763112,0.0143995,1364,1737,9.39907,-68.9569
147,-713,9.41296,68.7123,6.1646e-05,0.00956182,-0.00263514,0.0102438,-0.000620328,-1.31755,0.00704508,0.0161443,1371,1737,9.41299,-68.7122
154,-713,9.40076,68.5382,0.000398137,0.0086587,-0.00247541,0.00934369,-0.000286854,-1.30083,0.00632691,0.0157334,1378,1737,9.40071,-68.5382
161,-713,9.4353,68.239,0.000610174,0.00693579,-0.0023044,0.00768625,-0.000140282,-1.25597,0.00517156,0.011066,1385,1737,9.43536,-68.239
168,-713,9.44531,67.9349,0.000922378,0.00546166,-0.0019398,0.00617766,0.000206373,-1.2172,0.0040514,0.0109616,1392,1737,9.44527,-67.9349
175,-713,9.47083,67.6511,0.00137258,0.00433624,-0.00141711,0.00490478,0.000804036,-1.18926,0.00303752,0.0138953,1399,1737,9.47087,-67.6511
182,-713,9.4873,67.3488,0.00167087,0.00301988,-0.00117747,0.00370236,0.000988393,-1.0455,0.00221359,0.013542,1406,1737,9.4873,-67.3487
189,-713,9.49316,67.0035,0.00189069,0.00175101,-0.00114072,0.00296371,0.000677998,-0.754825,0.00179305,0.0130576,1413,1737,9.49314,-67.0035
196,-713,9.5072,66.6362,0.0019443,0.000671905,-0.00107595,0.00255807,5.81379e-05,-0.518402,0.00168633,0.0136637,1420,1737,9.50716,-66.6362
203,-713,9.50134,66.2894,0.00160132,0.00107425,-0.00131206,0.00267605,-4.81727e-07,-0.686288,0.00178419,0.0180028,1427,1737,9.50139,-66.2895
210,-713,9.48779,65.9098,0.0012653,0.00134455,-0.00156249,0.00286792,-0.000258071,-0.798075,0.00200352,0.0153789,1434,1737,9.48784,-65.9098
217,-713,9.49841,65.5042,0.000909826,0.001674,-0.00172936,0.00306298,-0.000479156,-0.894122,0.00221902,0.0128902,1441,1737,9.49836,-65.5041
224,-713,9.46069,65.0975,0.000561618,0.00193226,-0.0019481,0.00331207,-0.000818187,-0.954532,0.00252535,0.0127583,1448,1737,9.46066,-65.0975
231,-713,9.45605,64.6726,0.000154968,0.00213578,-0.00214392,0.00350701,-0.00121626,-1.00178,0.00283187,0.0112676,1455,1737,9.45599,-64.6727
238,-713,9.44592,64.2128,-0.000208825,0.00238356,-0.00226739,0.00369911,-0.00152437,-1.04506,0.00310168,0.00903894,1462,1737,9.44594,-64.2128
245,-713,9.42749,63.7516,-0.000597582,0.00258071,-0.0023827,0.00385559,-0.00187246,-1.0795,0.00337251,0.0121563,1469,1737,9.42748,-63.7516
252,-713,9.40417,63.2706,-0.00108293,0.00292455,-0.00244891,0.00408501,-0.00224338,-1.12827,0.00370491,0.0125303,1476,1737,9.40421,-63.2706
259,-713,9.41052,62.7764,-0.00156084,0.00311993,-0.00252822,0.00422473,-0.00266565,-1.15882,0.00401196,0.0128345,1483,1737,9.41048,-62.7763
266,-713,9.3457,62.3301,-0.00209971,0.00327919,-0.00265469,0.0043687,-0.00318922,-1.18135,0.00438124,0.0113055,1490,1737,9.3457,-62.3301
273,-713,9.28113,61.8297,-0.00268471,0.00348398,-0.00279195,0.00455994,-0.00376067,-1.20296,0.00481129,0.00964559,1497,1737,9.28113,-61.8297
280,-713,9.23645,61.2783,-0.00333075,0.00368287,-0.00293925,0.00475175,-0.00439962,-1.22201,0.00528485,0.0108085,1504,1737,9.23643,-61.2783
287,-713,9.19836,60.736,-0.00404009,0.00373968,-0.00305881,0.00479828,-0.0050987,-1.23762,0.0057149,0.011782,1511,1737,9.19831,-60.736
294,-713,9.1698,60.182,-0.00482961,0.00410528,-0.00302739,0.00503443,-0.00575876,-1.27301,0.00623612,0.0191627,1518,1737,9.16984,-60.182
301,-713,9.05151,59.5396,-0.0053256,0.00456987,-0.00347345,0.00566738,-0.0064231,-1.26475,0.00698498,0.0361656,1525,1737,9.05146,-59.5395
308,-713,9.0918,59.0371,0,0,0,0,0,0,0,-1,1532,1737,9.09182,-59.0371
315,-713,9.09058,58.3101,0,0,0,0,0,0,0,-1,1539,1737,9.09056,-58.3101
322,-713,9.14771,54.0642,0,0,0,0,0,0,0,-1,1546,1737,9.14768,-54.0642
329,-713,9.01123,57.2892,0,0,0,0,0,0,0,-1,1553,1737,9.01124,-57.2891
336,-713,8.89734,56.8353,0,0,0,0,0,0,0,-1,1560,1737,8.89739,-56.8353
343,-713,8.02356,55.7913,0,0,0,0,0,0,0,-1,1567,1737,8.02356,-55.7912
350,-713,8.63867,47.4143,0,0,0,0,0,0,0,-1,1574,1737,8.6387,-47.4143
357,-713,8.53796,49.5679,0,0,0,0,0,0,0,-1,1581,1737,8.53795,-49.5679
364,-713,7.52661,46.5348,0,0,0,0,0,0,0,-1,1588,1737,7.52664,-46.5347
371,-713,7.3302,45.0861,0,0,0,0,0,0,0,-1,1595,1737,7.33021,-45.0861
378,-713,6.73975,44.3853,0,0,0,0,0,0,0,-1,1602,1737,6.7397,-44.3853
385,-713,6.58777,43.6438,0,0,0,0,0,0,0,-1,1609,1737,6.58781,-43.6438
392,-713,6.62964,42.8679,0,0,0,0,0,0,0,-1,1616,1737,6.62968,-42.868
399,-713,6.53748,42.0555,0,0,0,0,0,0,0,-1,1623,1737,6.53749,-42.0555
406,-713,2.49878,27.8931,0,0,0,0,0,0,0,-1,1630,1737,2.49884,-27.893
413,-713,1.36597,29.459,0,0,0,0,0,0,0,-1,1637,1737,1.36593,-29.459
420,-713,0,0,0,0,0,0,0,0,0,-1,1644,1737,0,0
427,-713,0,0,0,0,0,0,0,0,0,-1,1651,1737,0,0
434,-713,0,0,0,0,0,0,0,0,0,-1,1658,1737,0,0
441,-713,0,0,0,0,0,0,0,0,0,-1,1665,1737,0,0
448,-713,0,0,0,0,0,0,0,0,0,-1,1672,1737,0,0
455,-713,0,0,0,0,0,0,0,0,0,-1,1679,1737,0,0
462,-713,0,0,0,0,0,0,0,0,0,-1,1686,1737,0,0
469,-713,0,0,0,0,0,0,0,0,0,-1,1693,1737,0,0
476,-713,0,0,0,0,0,0,0,0,0,-1,1700,1737,0,0
483,-713,0,0,0,0,0,0,0,0,0,-1,1707,1737,0,0
490,-713,0,0,0,0,0,0,0,0,0,-1,1714,1737,0,0
497,-713,0,0,0,0,0,0,0,0,0,-1,1721,1737,0,0
504,-713,0,0,0,0,0,0,0,0,0,-1,1728,1737,0,0
511,-713,0,0,0,0,0,0,0,0,0,-1,1735,1737,0,0
518,-713,0,0,0,0,0,0,0,0,0,-1,1742,1737,0,0
525,-713,0,0,0,0,0,0,0,0,0,-1,1749,1737,0,0
532,-713,0,0,0,0,0,0,0,0,0,-1,1756,1737,0,0
539,-713,0,0,0,0,0,0,0,0,0,-1,1763,1737,0,0
546,-713,0,0,0,0,0,0,0,0,0,-1,1770,1737,0,0
553,-713,0,0,0,0,0,0,0,0,0,-1,1777,1737,0,0
560,-713,0,0,0,0,0,0,0,0,0,-1,1784,1737,0,0
567,-713,0,0,0,0,0,0,0,0,0,-1,1791,1737,0,0
574,-713,0,0,0,0,0,0,0,0,0,-1,1798,1737,0,0
581,-713,0,0,0,0,0,0,0,0,0,-1,1805,1737,0,0
588,-713,0,0,0,0,0,0,0,0,0,-1,1812,1737,0,0
595,-713,0,0,0,0,0,0,0,0,0,-1,1819,1737,0,0
602,-713,0,0,0,0,0,0,0,0,0,-1,1826,1737,0,0
609,-713,0,0,0,0,0,0,0,0,0,-1,1833,1737,0,0
616,-713,0,0,0,0,0,0,0,0,0,-1,1840,1737,0,0
623,-713,0,0,0,0,0,0,0,0,0,-1,1847,1737,0,0
630,-713,0,0,0,0,0,0,0,0,0,-1,1854,1737,0,0
637,-713,0,0,0,0,0,0,0,0,0,-1,1861,1737,0,0
644,-713,0,0,0,0,0,0,0,0,0,-1,1868,1737,0,0
651,-713,0,0,0,0,0,0,0,0,0,-1,1875,1737,0,0
658,-713,0,0,0,0,0,0,0,0,0,-1,1882,1737,0,0
665,-713,0,0,0,0,0,0,0,0,0,-1,1889,1737,0,0
672,-713,0,0,0,0,0,0,0,0,0,-1,1896,1737,0,0
679,-713,0,0,0,0,0,0,0,0,0,-1,1903,1737,0,0
686,-713,0,0,0,0,0,0,0,0,0,-1,1910,1737,0,0
693,-713,0,0,0,0,0,0,0,0,0,-1,1917,1737,0,0
700,-713,0,0,0,0,0,0,0,0,0,-1,1924,1737,0,0
707,-713,0,0,0,0,0,0,0,0,0,-1,1931,1737,0,0
714,-713,0,0,0,0,0,0,0,0,0,-1,1938,1737,0,0
721,-713,0,0,0,0,0,0,0,0,0,-1,1945,1737,0,0
728,-713,0,0,0,0,0,0,0,0,0,-1,1952,1737,0,0
735,-713,0,0,0,0,0,0,0,0,0,-1,1959,1737,0,0
742,-713,0,0,0,0,0,0,0,0,0,-1,1966,1737,0,0
749,-713,0,0,0,0,0,0,0,0,0,-1,1973,1737,0,0
756,-713,0,0,0,0,0,0,0,0,0,-1,1980,1737,0,0
763,-713,0,0,0,0,0,0,0,0,0,-1,1987,1737,0,0
770,-713,0,0,0,0,0,0,0,0,0,-1,1994,1737,0,0
777,-713,0,0,0,0,0,0,0,0,0,-1,2001,1737,0,0
784,-713,0,0,0,0,0,0,0,0,0,-1,2008,1737,0,0
791,-713,0,0,0,0,0,0,0,0,0,-1,2015,1737,0,0
798,-713,0,0,0,0,0,0,0,0,0,-1,2022,1737,0,0
805,-713,0,0,0,0,0,0,0,0,0,-1,2029,1737,0,0
812,-713,0,0,0,0,0,0,0,0,0,-1,2036,1737,0,0
-700,-720,0,0,0,0,0,0,0,0,0,-1,524,1744,0,0
-693,-720,0,0,0,0,0,0,0,0,0,-1,531,1744,0,0
-686,-720,0,0,0,0,0,0,0,0,0,-1,538,1744,0,0
-679,-720,0,0,0,0,0,0,0,0,0,-1,545,1744,0,0
-672,-720,0,0,0,0,0,0,0,0,0,-1,552,1744,0,0
-665,-720,0,0,0,0,0,0,0,0,0,-1,559,1744,0,0
-658,-720,0,0,0,0,0,0,0,0,0,-1,566,1744,0,0
-651,-720,0,0,0,0,0,0,0,0,0,-1,573,1744,0,0
-644,-720,0,0,0,0,0,0,0,0,0,-1,580,1744,0,0
-637,-720,0,0,0,0,0,0,0,0,0,-1,587,1744,0,0
-630,-720,0,0,0,0,0,0,0,0,0,-1,594,1744,0,0
-623,-720,0,0,0,0,0,0,0,0,0,-1,601,1744,0,0
-616,-720,0,0,0,0,0,0,0,0,0,-1,608,1744,0,0
-609,-720,0,0,0,0,0,0,0,0,0,-1,615,1744,0,0
-602,-720,0,0,0,0,0,0,0,0,0,-1,622,1744,0,0
-595,-720,0,0,0,0,0,0,0,0,0,-1,629,1744,0,0
-588,-720,0,0,0,0,0,0,0,0,0,-1,636,1744,0,0
-581,-720,0,0,0,0,0,0,0,0,0,-1,643,1744,0,0
-574,-720,0,0,0,0,0,0,0,0,0,-1,650,1744,0,0
-567,-720,0,0,0,0,0,0,0,0,0,-1,657,1744,0,0
-560,-720,0,0,0,0,0,0,0,0,0,-1,664,1744,0,0
-553,-720,0,0,0,0,0,0,0,0,0,-1,671,1744,0,0
-546,-720,0,0,0,0,0,0,0,0,0,-1,678,1744,0,0
-539,-720,0,0,0,0,0,0,0,0,0,-1,685,1744,0,0
-532,-720,0,0,0,0,0,0,0,0,0,-1,692,1744,0,0
-525,-720,0,0,0,0,0,0,0,0,0,-1,699,1744,0,0
-518,-720,0,0,0,0,0,0,0,0,0,-1,706,1744,0,0
-511,-720,0,0,0,0,0,0,0,0,0,-1,713,1744,0,0
-504,-720,0,0,0,0,0,0,0,0,0,-1,720,1744,0,0
-497,-720,0,0,0,0,0,0,0,0,0,-1,727,1744,0,0
-490,-720,0,0,0,0,0,0,0,0,0,-1,734,1744,0,0
-483,-720,0,0,0,0,0,0,0,0,0,-1,741,1744,0,0
-476,-720,0,0,0,0,0,0,0,0,0,-1,748,1744,0,0
-469,-720,0,0,0,0,0,0,0,0,0,-1,755,1744,0,0
-462,-720,0,0,0,0,0,0,0,0,0,-1,762,1744,0,0
-455,-720,0,0,0,0,0,0,0,0,0,-1,769,1744,0,0
-448,-720,0,0,0,0,0,0,0,0,0,-1,776,1744,0,0
-441,-720,0,0,0,0,0,0,0,0,0,-1,783,1744,0,0
-434,-720,0,0,0,0,0,0,0,0,0,-1,790,1744,0,0
-427,-720,0,0,0,0,0,0,0,0,0,-1,797,1744,0,0
-420,-720,0,0,0,0,0,0,0,0,0,-1,804,1744,0,0
-413,-720,0,0,0,0,0,0,0,0,0,-1,811,1744,0,0
-406,-720,0,0,0,0,0,0,0,0,0,-1,818,1744,0,0
-399,-720,0,0,0,0,0,0,0,0,0,-1,825,1744,0,0
-392,-720,0,0,0,0,0,0,0,0,0,-1,832,1744,0,0
-385,-720,0,0,0,0,0,0,0,0,0,-1,839,1744,0,0
-378,-720,0,0,0,0,0,0,0,0,0,-1,846,1744,0,0
-371,-720,0,0,0,0,0,0,0,0,0,-1,853,1744,0,0
-364,-720,0,0,0,0,0,0,0,0,0,-1,860,1744,0,0
-357,-720,0,0,0,0,0,0,0,0,0,-1,867,1744,0,0
-350,-720,0,0,0,0,0,0,0,0,0,-1,874,1744,0,0
-343,-720,0,0,0,0,0,0,0,0,0,-1,881,1744,0,0
-336,-720,0,0,0,0,0,0,0,0,0,-1,888,1744,0,0
-329,-720,0,0,0,0,0,0,0,0,0,-1,895,1744,0,0
-322,-720,0,0,0,0,0,0,0,0,0,-1,902,1744,0,0
-315,-720,0,0,0,0,0,0,0,0,0,-1,909,1744,0,0
-308,-720,0,0,0,0,0,0,0,0,0,-1,916,1744,0,0
-301,-720,0,0,0,0,0,0,0,0,0,-1,923,1744,0,0
-294,-720,0,0,0,0,0,0,0,0,0,-1,930,1744,0,0
-287,-720,0,0,0,0,0,0,0,0,0,-1,937,1744,0,0
-280,-720,6.46796,22.6417,0,0,0,0,0,0,0,-1,944,1744,6.46793,-22.6417
-273,-720,8.54633,13.262,0,0,0,0,0,0,0,-1,951,1744,8.54636,-13.2619
-266,-720,7.28027,13.3165,0,0,0,0,0,0,0,-1,958,1744,7.28026,-13.3166
-259,-720,3.70563,18.6372,0,0,0,0,0,0,0,-1,965,1744,3.70564,-18.6372
-252,-720,4.00989,18.5059,0,0,0,0,0,0,0,-1,972,1744,4.00988,-18.5058
-245,-720,7.05634,33.8489,0,0,0,0,0,0,0,-1,979,1744,7.05634,-33.8489
-238,-720,5.02216,24.1455,0,0,0,0,0,0,0,-1,986,1744,5.02217,-24.1455
-231,-720,9.45819,50.8396,0,0,0,0,0,0,0,-1,993,1744,9.45816,-50.8396
-224,-720,10.0804,54.4775,0,0,0,0,0,0,0,-1,1000,1744,10.0805,-54.4775
-217,-720,9.41168,53.88,0,0,0,0,0,0,0,-1,1007,1744,9.41166,-53.88
-210,-720,8.74036,38.6686,0,0,0,0,0,0,0,-1,1014,1744,8.74035,-38.6686
-203,-720,9.75891,57.5505,0,0,0,0,0,0,0,-1,1021,1744,9.75891,-57.5505
-196,-720,9.56299,58.515,0,0,0,0,0,0,0,-1,1028,1744,9.56303,-58.5151
-189,-720,9.17151,59.109,0,0,0,0,0,0,0,-1,1035,1744,9.17154,-59.109
-182,-720,9.23254,59.5743,0.00304386,0.00366666,0.00680816,0.0101705,-0.00346002,0.808252,0.00818133,0.0477122,1042,1744,9.23253,-59.5744
-175,-720,9.51868,60.2616,0.00218137,0.00389392,0.00676589,0.0098575,-0.00378221,0.848343,0.00813111,0.0413684,1049,1744,9.51866,-60.2616
-168,-720,9.72156,60.6992,0,0,0,0,0,0,0,-1,1056,1744,9.72161,-60.6992
-161,-720,9.27527,61.1089,0.000364009,0.00491077,0.00640019,0.00942935,-0.00415457,0.95605,0.00803735,0.0314386,1063,1744,9.27525,-61.1089
-154,-720,9.22693,61.7361,-0.000345805,0.00498508,0.00618,0.00904994,-0.00441066,0.988996,0.00792385,0.026138,1070,1744,9.22694,-61.7361
-147,-720,9.12292,62.3544,-0.0008325,0.00482973,0.0056912,0.00835511,-0.00435788,1.0162,0.0074598,0.026737,1077,1744,9.12295,-62.3544
-140,-720,9.09167,62.8887,-0.000970274,0.00493219,0.00516771,0.00793201,-0.00397009,1.04484,0.00699743,0.0220418,1084,1744,9.09173,-62.8886
-133,-720,9.0282,63.2905,-0.00139423,0.00473759,0.00455808,0.00716494,-0.00382158,1.08146,0.00644023,0.0173859,1091,1744,9.02814,-63.2906
-126,-720,9.01318,63.7579,-0.00230936,0.00458139,0.00399874,0.00641433,-0.0041423,1.141,0.00614174,0.0164143,1098,1744,9.01322,-63.7579
-119,-720,8.98181,64.2054,-0.00289173,0.00429209,0.00369081,0.00585032,-0.00444995,1.17131,0.00596516,0.0160105,1105,1744,8.98183,-64.2054
-112,-720,8.92236,64.6364,-0.00261311,0.00397026,0.00354454,0.00551582,-0.00415867,1.15961,0.00560386,0.0150614,1112,1744,8.92242,-64.6364
-105,-720,8.89368,65.0624,-0.00231896,0.00340138,0.00320697,0.00483833,-0.00375591,1.14955,0.00497498,0.0153505,1119,1744,8.89369,-65.0624
-98,-720,8.86865,65.4742,-0.00207294,0.00310335,0.00291008,0.0044097,-0.00337928,1.14885,0.00451007,0.0119881,1126,1744,8.8686,-65.4742
-91,-720,8.82117,65.8802,-0.00178977,0.00296308,0.00263958,0.00413838,-0.00296507,1.15189,0.00411979,0.0102758,1133,1744,8.82116,-65.8803
-84,-720,8.78821,66.2933,-0.00162848,0.00212738,0.00223544,0.00316901,-0.00267011,1.13475,0.00337532,0.0115659,1140,1744,8.78827,-66.2933
-77,-720,8.77356,66.6702,-0.00133932,0.00177645,0.00197669,0.00273537,-0.00229825,1.11913,0.00290981,0.0151945,1147,1744,8.77353,-66.6702
-70,-720,8.76184,67.0094,-0.000984648,0.00173987,0.00162862,0.00250086,-0.00174563,1.13369,0.0024646,0.0131313,1154,1744,8.76186,-67.0094
-63,-720,8.72717,67.3445,-0.000481019,0.00173404,0.00124717,0.00229446,-0.00104144,1.14848,0.00197075,0.0121585,1161,1744,8.7272,-67.3445
-56,-720,8.75159,67.6655,-0.000129576,0.00158151,0.000925185,0.00198609,-0.00053416,1.15855,0.00153345,0.0143207,1168,1744,8.75163,-67.6655
-49,-720,8.71155,67.9631,7.44148e-07,0.00135888,0.000685418,0.00164466,-0.000285035,1.17577,0.00120276,0.0205582,1175,1744,8.71157,-67.9632
-42,-720,8.70581,68.2166,8.58744e-05,0.000961562,0.000557872,0.00123289,-0.000185456,1.11811,0.00089021,0.0219628,1182,1744,8.70577,-68.2166
-35,-720,8.73499,68.4774,-4.92417e-05,0.000811749,0.000408082,0.00097443,-0.000211922,1.19146,0.000730579,0.0187923,1189,1744,8.73498,-68.4774
-28,-720,8.74719,68.7581,-0.000331445,0.000685267,0.000314029,0.00077444,-0.000420618,1.29412,0.000699974,0.011368,1196,1744,8.74714,-68.758
-21,-720,8.72974,69.0012,-0.000642432,0.000539696,0.000267891,0.000597571,-0.000700307,1.35803,0.000750113,0.00898801,1203,1744,8.7297,-69.0013
-14,-720,8.7179,69.1918,-0.000928319,0.000475936,0.000269603,0.000525918,-0.000978301,1.38749,0.000881456,0.0109159,1210,1744,8.71787,-69.1917
-7,-720,8.74036,69.3895,-0.00109836,0.000363176,0.000228404,0.000398038,-0.00113322,1.41933,0.000917411,0.0131397,1217,1744,8.74037,-69.3895
0,-720,8.75342,69.5736,-0.00110878,0.000421403,0.000267452,0.000466803,-0.00115418,1.40265,0.000963515,0.0146169,1224,1744,8.75344,-69.5736
7,-720,8.78235,69.7095,-0.000962624,0.000450291,0.000341577,0.000528535,-0.00104087,1.34561,0.000922049,0.0175957,1231,1744,8.78235,-69.7094
14,-720,8.81079,69.8677,-0.000730084,0.000385583,0.000414645,0.00052281,-0.000867311,1.25119,0.00081076,0.016108,1238,1744,8.81073,-69.8676
21,-720,8.82068,69.9998,-0.000401122,0.000257013,0.000454144,0.000488777,-0.000632886,1.09892,0.000649372,0.0119822,1245,1744,8.82066,-69.9997
28,-720,8.82629,70.0803,0.000105505,9.48857e-05,0.0004602,0.000560426,-0.000360035,0.77963,0.00053561,0.0120379,1252,1744,8.82635,-70.0803
35,-720,8.85608,70.1525,0.00068959,-8.23143e-05,0.000468617,0.00091073,-0.000303454,0.440915,0.000729651,0.0122636,1259,1744,8.85608,-70.1524
42,-720,8.88477,70.2079,0.00132115,-0.000348257,0.000442895,0.00143137,-0.00045848,0.243914,0.00113828,0.0125864,1266,1744,8.88475,-70.2079
49,-720,8.9165,70.2112,0.0017444,-0.000863969,0.000476579,0.00182875,-0.000948318,0.175174,0.00162998,0.0154481,1273,1744,8.91649,-70.2112
56,-720,8.92883,70.2306,0.00223662,-0.000473209,0.000641874,0.00238097,-0.00061756,0.221209,0.00182827,0.0152973,1280,1744,8.92883,-70.2305
63,-720,8.94531,70.2389,0.00248715,1.02422e-05,0.000697746,0.00267018,-0.000172788,0.256537,0.00184042,0.0159077,1287,1744,8.94537,-70.2389
70,-720,8.99353,70.2358,0.00251169,7.62907e-05,0.000463631,0.00259696,-8.98552e-06,0.181898,0.00173431,0.0149597,1294,1744,8.99358,-70.2359
77,-720,9.01465,70.1921,0.00249315,0.000612948,0.000179215,0.00251008,0.000596018,0.094187,0.00151433,0.017311,1301,1744,9.01464,-70.1921
84,-720,9.04724,70.0977,0.0022183,0.00165259,5.80017e-06,0.00221836,0.00165253,0.0102514,0.00133101,0.0151634,1308,1744,9.04723,-70.0977
91,-720,9.06274,70.0331,0.00188476,0.00281867,-0.000232629,0.00287341,0.00183002,-1.3397,0.00167956,0.0148745,1315,1744,9.06276,-70.0331
98,-720,9.0321,69.9763,0.00165404,0.00349942,-0.00040752,0.0035854,0.00156805,-1.36285,0.00207544,0.0141623,1322,1744,9.03213,-69.9764
105,-720,9.06519,69.8696,0.0014354,0.00416457,-0.000590876,0.004287,0.00131297,-1.36648,0.00253628,0.0127977,1329,1744,9.06513,-69.8696
112,-720,9.10095,69.7366,0.00125105,0.00457959,-0.000847244,0.00478283,0.00104781,-1.33535,0.00290302,0.0113752,1336,1744,9.10094,-69.7366
119,-720,9.1084,69.5923,0.00106045,0.00481535,-0.00107296,0.00510032,0.000775479,-1.3112,0.00317346,0.01135,1343,1744,9.10844,-69.5923
126,-720,9.1217,69.3871,0.000886322,0.00483753,-0.00124913,0.0051993,0.000524546,-1.28889,0.00330526,0.0113812,1350,1744,9.12165,-69.387
133,-720,9.1405,69.191,0.000687146,0.00463876,-0.00137095,0.00506781,0.000258101,-1.2675,0.00329588,0.0125388,1357,1744,9.14048,-69.1911
140,-720,9.19067,69.0129,0.000499764,0.00425714,-0.00143919,0.00474504,1.1866e-05,-1.24395,0.00315941,0.0185904,1364,1744,9.19065,-69.0129
147,-720,9.18579,68.7689,0.000441129,0.00363194,-0.00146079,0.00419969,-0.000126618,-1.20011,0.00284294,0.0209653,1371,1744,9.18582,-68.7689
154,-720,9.1554,68.5267,0.000485426,0.00302993,-0.00142726,0.00366967,-0.000154311,-1.14942,0.00249947,0.014144,1378,1744,9.15542,-68.5268
161,-720,9.18665,68.2477,0.000468911,0.00214404,-0.00137184,0.0029138,-0.000300841,-1.05947,0.00205018,0.010113,1385,1744,9.18665,-68.2477
168,-720,9.19214,67.9576,0.000472693,0.00140176,-0.00128306,0.0023018,-0.000427341,-0.959083,0.00169503,0.0107234,1392,1744,9.19219,-67.9576
175,-720,9.17639,67.6395,0.000365342,0.00100316,-0.00124128,0.00196584,-0.000597339,-0.911138,0.00154856,0.0165491,1399,1744,9.17638,-67.6396
182,-720,9.17578,67.3496,0.000124083,0.000763693,-0.00130673,0.00178918,-0.000901405,-0.905408,0.00158135,0.0158483,1406,1744,9.17573,-67.3496
189,-720,9.17102,67.0109,-5.87013e-07,0.000974336,-0.00154997,0.00211169,-0.00113794,-0.93775,0.00190404,0.0137028,1413,1744,9.17102,-67.0109
196,-720,9.17017,66.6281,-0.000235873,0.00142699,-0.00182979,0.00260539,-0.00141427,-0.998646,0.00235447,0.0144212,1420,1744,9.17021,-66.628
203,-720,9.09985,66.2728,-0.000428983,0.00187377,-0.00217396,0.00318243,-0.00173764,-1.02893,0.00288114,0.0160734,1427,1744,9.09986,-66.2729
210,-720,9.08252,65.918,-0.000633767,0.00229889,-0.00247537,0.00370964,-0.00204452,-1.05279,0.00336821,0.0144447,1434,1744,9.08252,-65.9179
217,-720,9.09021,65.4884,-0.000825293,0.00276014,-0.00267609,0.00418849,-0.00225364,-1.08052,0.00377487,0.0141675,1441,1744,9.09024,-65.4883
224,-720,9.06055,65.0641,-0.00101308,0.0030803,-0.0029028,0.0045854,-0.00251818,-1.09246,0.00415873,0.0109316,1448,1744,9.06057,-65.064
231,-720,9.04028,64.6592,-0.00132472,0.00329764,-0.00308947,0.00484475,-0.00287183,-1.10653,0.00450345,0.01144,1455,1744,9.04024,-64.6592
238,-720,9.02881,64.2031,-0.00160709,0.0035633,-0.00319124,0.00508509,-0.00312887,-1.12583,0.00478695,0.00990816,1462,1744,9.02875,-64.2031
245,-720,8.98962,63.7758,-0.00193174,0.00375776,-0.00330835,0.00527624,-0.00345022,-1.1405,0.00507486,0.0120793,1469,1744,8.98958,-63.7758
252,-720,8.95801,63.3038,-0.00239241,0.00413844,-0.00338366,0.00557537,-0.00382934,-1.16921,0.00546092,0.0122699,1476,1744,8.95802,-63.3038
259,-720,8.91626,62.8146,-0.00283919,0.00434872,-0.0034184,0.0057148,-0.00420528,-1.19061,0.00574942,0.011102,1483,1744,8.91624,-62.8146
266,-720,8.87659,62.3193,-0.0033856,0.00452456,-0.0034832,0.00583971,-0.00470076,-1.20977,0.00609737,0.0086113,1490,1744,8.87663,-62.3193
273,-720,8.82349,61.8184,-0.00401066,0.00475788,-0.0036255,0.00606273,-0.0053155,-1.22532,0.00657395,0.0148775,1497,1744,8.82349,-61.8184
280,-720,8.71021,61.2859,-0.00469599,0.00500135,-0.00379357,0.00630904,-0.00600368,-1.23884,0.00710948,0.022676,1504,1744,8.71017,-61.2858
287,-720,8.63428,60.6786,-0.00548229,0.00509989,-0.00394302,0.00640751,-0.00678991,-1.25058,0.00762061,0.0374948,1511,1744,8.63424,-60.6786
294,-720,8.69934,60.163,0,0,0,0,0,0,0,-1,1518,1744,8.69932,-60.163
301,-720,8.4823,59.4449,0,0,0,0,0,0,0,-1,1525,1744,8.48236,-59.445
308,-720,8.48608,51.5551,0,0,0,0,0,0,0,-1,1532,1744,8.48612,-51.555
315,-720,8.66516,48.6633,0,0,0,0,0,0,0,-1,1539,1744,8.6651,-48.6633
322,-720,8.98181,43.5223,0,0,0,0,0,0,0,-1,1546,1744,8.98176,-43.5223
329,-720,9.15906,34.7668,0,0,0,0,0,0,0,-1,1553,1744,9.1591,-34.7669
336,-720,6.14148,26.5682,0,0,0,0,0,0,0,-1,1560,1744,6.14151,-26.5683
343,-720,6.78552,21.3625,0,0,0,0,0,0,0,-1,1567,1744,6.78551,-21.3625
350,-720,4.0741,11.1836,0,0,0,0,0,0,0,-1,1574,1744,4.07412,-11.1836
357,-720,6.90833,21.4504,0,0,0,0,0,0,0,-1,1581,1744,6.90827,-21.4505
364,-720,6.59497,44.1384,0,0,0,0,0,0,0,-1,1588,1744,6.59492,-44.1385
371,-720,6.67773,45.2386,0,0,0,0,0,0,0,-1,1595,1744,6.67779,-45.2386
378,-720,3.88257,25.5404,0,0,0,0,0,0,0,-1,1602,1744,3.88262,-25.5404
385,-720,4.672,37.3854,0,0,0,0,0,0,0,-1,1609,1744,4.67202,-37.3854
392,-720,4.89319,36.2684,0,0,0,0,0,0,0,-1,1616,1744,4.89323,-36.2684
399,-720,2.37317,24.7166,0,0,0,0,0,0,0,-1,1623,1744,2.37317,-24.7166
406,-720,0,0,0,0,0,0,0,0,0,-1,1630,1744,0,0
413,-720,0,0,0,0,0,0,0,0,0,-1,1637,1744,0,0
420,-720,0,0,0,0,0,0,0,0,0,-1,1644,1744,0,0
427,-720,0,0,0,0,0,0,0,0,0,-1,1651,1744,0,0
434,-720,0,0,0,0,0,0,0,0,0,-1,1658,1744,0,0
441,-720,0,0,0,0,0,0,0,0,0,-1,1665,1744,0,0
448,-720,0,0,0,0,0,0,0,0,0,-1,1672,1744,0,0
455,-720,0,0,0,0,0,0,0,0,0,-1,1679,1744,0,0
462,-720,0,0,0,0,0,0,0,0,0,-1,1686,1744,0,0
469,-720,0,0,0,0,0,0,0,0,0,-1,1693,1744,0,0
476,-720,0,0,0,0,0,0,0,0,0,-1,1700,1744,0,0
483,-720,0,0,0,0,0,0,0,0,0,-1,1707,1744,0,0
490,-720,0,0,0,0,0,0,0,0,0,-1,1714,1744,0,0
497,-720,0,0,0,0,0,0,0,0,0,-1,1721,1744,0,0
504,-720,0,0,0,0,0,0,0,0,0,-1,1728,1744,0,0
511,-720,0,0,0,0,0,0,0,0,0,-1,1735,1744,0,0
518,-720,0,0,0,0,0,0,0,0,0,-1,1742,1744,0,0
525,-720,0,0,0,0,0,0,0,0,0,-1,1749,1744,0,0
532,-720,0,0,0,0,0,0,0,0,0,-1,1756,1744,0,0
539,-720,0,0,0,0,0,0,0,0,0,-1,1763,1744,0,0
546,-720,0,0,0,0,0,0,0,0,0,-1,1770,1744,0,0
553,-720,0,0,0,0,0,0,0,0,0,-1,1777,1744,0,0
560,-720,0,0,0,0,0,0,0,0,0,-1,1784,1744,0,0
567,-720,0,0,0,0,0,0,0,0,0,-1,1791,1744,0,0
574,-720,0,0,0,0,0,0,0,0,0,-1,1798,1744,0,0
581,-720,0,0,0,0,0,0,0,0,0,-1,1805,1744,0,0
588,-720,0,0,0,0,0,0,0,0,0,-1,1812,1744,0,0
595,-720,0,0,0,0,0,0,0,0,0,-1,1819,1744,0,0
602,-720,0,0,0,0,0,0,0,0,0,-1,1826,1744,0,0
609,-720,0,0,0,0,0,0,0,0,0,-1,1833,1744,0,0
616,-720,0,0,0,0,0,0,0,0,0,-1,1840,1744,0,0
623,-720,0,0,0,0,0,0,0,0,0,-1,1847,1744,0,0
630,-720,0,0,0,0,0,0,0,0,0,-1,1854,1744,0,0
637,-720,0,0,0,0,0,0,0,0,0,-1,1861,1744,0,0
644,-720,0,0,0,0,0,0,0,0,0,-1,1868,1744,0,0
651,-720,0,0,0,0,0,0,0,0,0,-1,1875,1744,0,0
658,-720,0,0,0,0,0,0,0,0,0,-1,1882,1744,0,0
665,-720,0,0,0,0,0,0,0,0,0,-1,1889,1744,0,0
672,-720,0,0,0,0,0,0,0,0,0,-1,1896,1744,0,0
679,-720,0,0,0,0,0,0,0,0,0,-1,1903,1744,0,0
686,-720,0,0,0,0,0,0,0,0,0,-1,1910,1744,0,0
693,-720,0,0,0,0,0,0,0,0,0,-1,1917,1744,0,0
700,-720,0,0,0,0,0,0,0,0,0,-1,1924,1744,0,0
707,-720,0,0,0,0,0,0,0,0,0,-1,1931,1744,0,0
714,-720,0,0,0,0,0,0,0,0,0,-1,1938,1744,0,0
721,-720,0,0,0,0,0,0,0,0,0,-1,1945,1744,0,0
728,-720,0,0,0,0,0,0,0,0,0,-1,1952,1744,0,0
735,-720,0,0,0,0,0,0,0,0,0,-1,1959,1744,0,0
742,-720,0,0,0,0,0,0,0,0,0,-1,1966,1744,0,0
749,-720,0,0,0,0,0,0,0,0,0,-1,1973,1744,0,0
756,-720,0,0,0,0,0,0,0,0,0,-1,1980,1744,0,0
763,-720,0,0,0,0,0,0,0,0,0,-1,1987,1744,0,0
770,-720,0,0,0,0,0,0,0,0,0,-1,1994,1744,0,0
777,-720,0,0,0,0,0,0,0,0,0,-1,2001,1744,0,0
784,-720,0,0,0,0,0,0,0,0,0,-1,2008,1744,0,0
791,-720,0,0,0,0,0,0,0,0,0,-1,2015,1744,0,0
798,-720,0,0,0,0,0,0,0,0,0,-1,2022,1744,0,0
805,-720,0,0,0,0,0,0,0,0,0,-1,2029,1744,0,0
812,-720,0,0,0,0,0,0,0,0,0,-1,2036,1744,0,0
-700,-727,0,0,0,0,0,0,0,0,0,-1,524,1751,0,0
-693,-727,0,0,0,0,0,0,0,0,0,-1,531,1751,0,0
-686,-727,0,0,0,0,0,0,0,0,0,-1,538,1751,0,0
-679,-727,0,0,0,0,0,0,0,0,0,-1,545,1751,0,0
-672,-727,0,0,0,0,0,0,0,0,0,-1,552,1751,0,0
-665,-727,0,0,0,0,0,0,0,0,0,-1,559,1751,0,0
-658,-727,0,0,0,0,0,0,0,0,0,-1,566,1751,0,0
-651,-727,0,0,0,0,0,0,0,0,0,-1,573,1751,0,0
-644,-727,0,0,0,0,0,0,0,0,0,-1,580,1751,0,0
-637,-727,0,0,0,0,0,0,0,0,0,-1,587,1751,0,0
-630,-727,0,0,0,0,0,0,0,0,0,-1,594,1751,0,0
-623,-727,0,0,0,0,0,0,0,0,0,-1,601,1751,0,0
-616,-727,0,0,0,0,0,0,0,0,0,-1,608,1751,0,0
-609,-727,0,0,0,0,0,0,0,0,0,-1,615,1751,0,0
-602,-727,0,0,0,0,0,0,0,0,0,-1,622,1751,0,0
-595,-727,0,0,0,0,0,0,0,0,0,-1,629,1751,0,0
-588,-727,0,0,0,0,0,0,0,0,0,-1,636,1751,0,0
-581,-727,0,0,0,0,0,0,0,0,0,-1,643,1751,0,0
-574,-727,0,0,0,0,0,0,0,0,0,-1,650,1751,0,0
-567,-727,0,0,0,0,0,0,0,0,0,-1,657,1751,0,0
-560,-727,0,0,0,0,0,0,0,0,0,-1,664,1751,0,0
-553,-727,0,0,0,0,0,0,0,0,0,-1,671,1751,0,0
-546,-727,0,0,0,0,0,0,0,0,0,-1,678,1751,0,0
-539,-727,0,0,0,0,0,0,0,0,0,-1,685,1751,0,0
-532,-727,0,0,0,0,0,0,0,0,0,-1,692,1751,0,0
-525,-727,0,0,0,0,0,0,0,0,0,-1,699,1751,0,0
-518,-727,0,0,0,0,0,0,0,0,0,-1,706,1751,0,0
-511,-727,0,0,0,0,0,0,0,0,0,-1,713,1751,0,0
-504,-727,0,0,0,0,0,0,0,0,0,-1,720,1751,0,0
-497,-727,0,0,0,0,0,0,0,0,0,-1,727,1751,0,0
-490,-727,0,0,0,0,0,0,0,0,0,-1,734,1751,0,0
-483,-727,0,0,0,0,0,0,0,0,0,-1,741,1751,0,0
-476,-727,0,0,0,0,0,0,0,0,0,-1,748,1751,0,0
-469,-727,0,0,0,0,0,0,0,0,0,-1,755,1751,0,0
-462,-727,0,0,0,0,0,0,0,0,0,-1,762,1751,0,0
-455,-727,0,0,0,0,0,0,0,0,0,-1,769,1751,0,0
-448,-727,0,0,0,0,0,0,0,0,0,-1,776,1751,0,0
-441,-727,0,0,0,0,0,0,0,0,0,-1,783,1751,0,0
-434,-727,0,0,0,0,0,0,0,0,0,-1,790,1751,0,0
-427,-727,0,0,0,0,0,0,0,0,0,-1,797,1751,0,0
-420,-727,0,0,0,0,0,0,0,0,0,-1,804,1751,0,0
-413,-727,0,0,0,0,0,0,0,0,0,-1,811,1751,0,0
-406,-727,0,0,0,0,0,0,0,0,0,-1,818,1751,0,0
-399,-727,0,0,0,0,0,0,0,0,0,-1,825,1751,0,0
-392,-727,0,0,0,0,0,0,0,0,0,-1,832,1751,0,0
-385,-727,0,0,0,0,0,0,0,0,0,-1,839,1751,0,0
-378,-727,0,0,0,0,0,0,0,0,0,-1,846,1751,0,0
-371,-727,0,0,0,0,0,0,0,0,0,-1,853,1751,0,0
-364,-727,0,0,0,0,0,0,0,0,0,-1,860,1751,0,0
-357,-727,0,0,0,0,0,0,0,0,0,-1,867,1751,0,0
-350,-727,0,0,0,0,0,0,0,0,0,-1,874,1751,0,0
-343,-727,0,0,0,0,0,0,0,0,0,-1,881,1751,0,0
-336,-727,0,0,0,0,0,0,0,0,0,-1,888,1751,0,0
-329,-727,0,0,0,0,0,0,0,0,0,-1,895,1751,0,0
-322,-727,0,0,0,0,0,0,0,0,0,-1,902,1751,0,0
-315,-727,0,0,0,0,0,0,0,0,0,-1,909,1751,0,0
-308,-727,0,0,0,0,0,0,0,0,0,-1,916,1751,0,0
-301,-727,0,0,0,0,0,0,0,0,0,-1,923,1751,0,0
-294,-727,0,0,0,0,0,0,0,0,0,-1,930,1751,0,0
-287,-727,0,0,0,0,0,0,0,0,0,-1,937,1751,0,0
-280,-727,0,0,0,0,0,0,0,0,0,-1,944,1751,0,0
-273,-727,0,0,0,0,0,0,0,0,0,-1,951,1751,0,0
-266,-727,4.24805,7.61145,0,0,0,0,0,0,0,-1,958,1751,4.24802,-7.6115
-259,-727,3.65228,5.4082,0,0,0,0,0,0,0,-1,965,1751,3.65229,-5.40818
-252,-727,5.8797,32.9292,0,0,0,0,0,0,0,-1,972,1751,5.87972,-32.9292
-245,-727,6.59198,32.2588,0,0,0,0,0,0,0,-1,979,1751,6.59195,-32.2587
-238,-727,6.6189,30.4597,0,0,0,0,0,0,0,-1,986,1751,6.61889,-30.4598
-231,-727,9.95819,51.5021,0,0,0,0,0,0,0,-1,993,1751,9.95818,-51.5021
-224,-727,10.0845,52.0088,0,0,0,0,0,0,0,-1,1000,1751,10.0845,-52.0088
-217,-727,10.2109,52.5154,0,0,0,0,0,0,0,-1,1007,1751,10.2109,-52.5154
-210,-727,5.0921,32.4524,0,0,0,0,0,0,0,-1,1014,1751,5.09209,-32.4523
-203,-727,14.1763,48.6819,0,0,0,0,0,0,0,-1,1021,1751,14.1763,-48.6819
-196,-727,13.0454,48.5956,0,0,0,0,0,0,0,-1,1028,1751,13.0455,-48.5955
-189,-727,10.3168,48.1697,0,0,0,0,0,0,0,-1,1035,1751,10.3168,-48.1697
-182,-727,9.71899,59.7433,0,0,0,0,0,0,0,-1,1042,1751,9.71902,-59.7433
-175,-727,10.1173,60.5509,0,0,0,0,0,0,0,-1,1049,1751,10.1173,-60.5509
-168,-727,9.79773,60.7053,0,0,0,0,0,0,0,-1,1056,1751,9.79767,-60.7053
-161,-727,9.72205,61.0985,0,0,0,0,0,0,0,-1,1063,1751,9.72203,-61.0985
-154,-727,9.76123,61.6058,0,0,0,0,0,0,0,-1,1070,1751,9.76119,-61.6058
-147,-727,9.68567,62.3893,0,0,0,0,0,0,0,-1,1077,1751,9.68569,-62.3893
-140,-727,9.42798,62.5048,-0.000844559,0.00743257,0.00723897,0.0116325,-0.00504448,1.04508,0.0098757,0.035779,1084,1751,9.428,-62.5048
-133,-727,9.52405,63.1272,-0.00169893,0.00719071,0.00649568,0.0106167,-0.00512496,1.08544,0.009271,0.0270489,1091,1751,9.52407,-63.1272
-126,-727,9.41089,63.7466,-0.00311268,0.00695502,0.00580958,0.00960822,-0.00576589,1.14239,0.00896818,0.0243363,1098,1751,9.41086,-63.7466
-119,-727,9.38306,64.105,0,0,0,0,0,0,0,-1,1105,1751,9.38303,-64.1049
-112,-727,9.35559,64.6903,0,0,0,0,0,0,0,-1,1112,1751,9.35561,-64.6903
-105,-727,9.29907,65.0887,0,0,0,0,0,0,0,-1,1119,1751,9.2991,-65.0887
-98,-727,9.24377,65.5059,-0.00362007,0.00494523,0.00442816,0.00682291,-0.00549775,1.16975,0.00712704,0.0184418,1126,1751,9.24374,-65.5059
-91,-727,9.18799,65.8806,-0.00342897,0.00466823,0.00410075,0.00638222,-0.00514295,1.1749,0.00666687,0.0133236,1133,1751,9.18796,-65.8806
-84,-727,9.14282,66.2665,-0.00345572,0.00329185,0.00356014,0.00482287,-0.00498673,1.16466,0.00566384,0.0125575,1140,1751,9.1428,-66.2665
-77,-727,9.10278,66.6333,-0.00328,0.00264351,0.00322007,0.00405678,-0.00469328,1.15722,0.0050563,0.0140119,1147,1751,9.10273,-66.6333
-70,-727,9.0979,67.0111,-0.00296967,0.00260321,0.00277407,0.00374866,-0.00411511,1.17921,0.00454179,0.0156166,1154,1751,9.09791,-67.0111
-63,-727,9.07153,67.3677,-0.00273969,0.0027216,0.00229652,0.00355892,-0.00357701,1.22117,0.00411994,0.0123141,1161,1751,9.07158,-67.3676
-56,-727,9.03174,67.6595,-0.00253005,0.00267078,0.00181636,0.00324233,-0.0031016,1.26594,0.00366297,0.0126357,1168,1751,9.03171,-67.6595
-49,-727,9.00024,67.9535,-0.00236005,0.00260014,0.00140468,0.00297031,-0.00273022,1.31313,0.00329217,0.0146361,1175,1751,9.00021,-67.9535
-42,-727,8.98511,68.2352,-0.00192514,0.0020882,0.00118489,0.00241192,-0.00224886,1.3041,0.00269145,0.0169514,1182,1751,8.98516,-68.2352
-35,-727,8.95874,68.491,-0.00157628,0.00176669,0.000899607,0.00199341,-0.00180299,1.32392,0.00219277,0.014866,1189,1751,8.95872,-68.4909
-28,-727,8.95593,68.7406,-0.00123264,0.00135496,0.000699348,0.00153187,-0.00140956,1.32302,0.00169872,0.00919466,1196,1751,8.95591,-68.7406
-21,-727,8.92517,68.9941,-0.000978518,0.000989449,0.00052873,0.00112251,-0.00111157,1.32426,0.00128985,0.010457,1203,1751,8.92522,-68.9941
-14,-727,8.91882,69.201,-0.000741427,0.000594298,0.000436072,0.000724056,-0.000871185,1.28158,0.000922318,0.0119449,1210,1751,8.91886,-69.2011
-7,-727,8.92273,69.3783,-0.000573225,8.97197e-05,0.000321897,0.000220299,-0.000703804,1.18542,0.000557342,0.0157743,1217,1751,8.92268,-69.3783
0,-727,8.91418,69.5933,-0.000402216,-0.000234897,0.000316463,8.77737e-06,-0.00064589,0.914621,0.000433549,0.0159808,1224,1751,8.9142,-69.5933
7,-727,8.9187,69.7354,-0.000238654,-0.000545156,0.000371205,9.69056e-06,-0.0007935,0.589632,0.000532259,0.0155381,1231,1751,8.91875,-69.7354
14,-727,8.93848,69.8711,-0.000161771,-0.000810883,0.000396934,2.64048e-05,-0.000999059,0.442691,0.000675013,0.0152832,1238,1751,8.93845,-69.8711
21,-727,8.91968,69.9983,-0.0001482,-0.00104431,0.000419674,1.76498e-05,-0.00121016,0.376352,0.000812719,0.0129753,1245,1751,8.91971,-69.9982
28,-727,8.92322,70.0573,-7.96629e-05,-0.00117013,0.000418588,6.24864e-05,-0.00131228,0.327373,0.000896408,0.0119219,1252,1751,8.92322,-70.0572
35,-727,8.94592,70.1382,3.55401e-05,-0.00122814,0.000402944,0.00015309,-0.00134569,0.28385,0.000952271,0.0136078,1259,1751,8.94594,-70.1382
42,-727,8.92896,70.1953,7.83479e-05,-0.00130849,0.000417932,0.000194557,-0.0014247,0.271206,0.00102085,0.0143965,1266,1751,8.929,-70.1953
49,-727,8.91492,70.2301,3.2136e-05,-0.0014191,0.000469491,0.000170777,-0.00155774,0.287139,0.00109985,0.0128721,1273,1751,8.91497,-70.2301
56,-727,8.89807,70.2682,0.000120901,-0.00126592,0.000595012,0.000341196,-0.00148621,0.354588,0.00112197,0.01163,1280,1751,8.8981,-70.2682
63,-727,8.92859,70.2531,0.000146817,-0.000873875,0.000744182,0.000538834,-0.00126589,0.484838,0.00106977,0.0133377,1287,1751,8.92862,-70.2531
70,-727,8.98633,70.2191,0.000392022,-0.000782526,0.00085846,0.000844866,-0.00123537,0.48541,0.00120806,0.0154023,1294,1751,8.98634,-70.2191
77,-727,8.98877,70.1935,0.000816565,-0.000620456,0.000893488,0.0012446,-0.0010485,0.446761,0.00132554,0.0179654,1301,1751,8.98878,-70.1935
84,-727,9.00549,70.052,0.00109235,-0.000341254,0.00096273,0.00157582,-0.000824725,0.465396,0.00140839,0.0177122,1308,1751,9.00551,-70.052
91,-727,8.9928,69.9398,0.00133192,2.78034e-05,0.000974199,0.00185215,-0.000492419,0.490476,0.0014275,0.0195546,1315,1751,8.99284,-69.9398
98,-727,8.94653,69.9315,0.001605,0.000181566,0.000979327,0.00210391,-0.000317346,0.471174,0.00151948,0.0176834,1322,1751,8.94648,-69.9316
105,-727,8.95374,69.84,0.00185864,0.000357847,0.00093131,0.00230425,-8.77641e-05,0.446282,0.00156624,0.0152704,1329,1751,8.95379,-69.84
112,-727,8.97046,69.7229,0.00205296,0.000419793,0.000745017,0.00234175,0.000130999,0.3698,0.00151939,0.0117269,1336,1751,8.97044,-69.7228
119,-727,8.99329,69.5826,0.00210068,0.000385314,0.000538308,0.00225562,0.000230379,0.280244,0.00143314,0.00960493,1343,1751,8.99334,-69.5826
126,-727,8.99622,69.3718,0.00205539,0.000298844,0.000294084,0.00210332,0.000250916,0.161554,0.00132651,0.0110932,1350,1751,8.99626,-69.3718
133,-727,8.96326,69.1973,0.00183569,0.000140669,4.32337e-05,0.00183679,0.000139567,0.0254842,0.00118076,0.0144358,1357,1751,8.9632,-69.1973
140,-727,8.97253,69.0062,0.00144555,-4.99268e-06,-0.000197259,0.0014719,-3.13394e-05,-0.132778,0.000991876,0.020011,1364,1751,8.97249,-69.0063
147,-727,8.97363,68.7798,0.00107352,-0.000190334,-0.0004355,0.00120905,-0.000325865,-0.301708,0.000933805,0.0177773,1371,1751,8.97362,-68.7798
154,-727,8.9469,68.5088,0.000700613,-0.000372905,-0.000638176,0.000997748,-0.000670039,-0.435751,0.000969074,0.0115522,1378,1751,8.94685,-68.5088
161,-727,8.93079,68.2462,0.000318123,-0.000421517,-0.000779115,0.000810734,-0.000914128,-0.56381,0.000996446,0.0099526,1385,1751,8.9308,-68.2463
168,-727,8.90991,67.9711,-5.97225e-05,-0.00046759,-0.00105668,0.000812518,-0.00133983,-0.690072,0.00125503,0.0135063,1392,1751,8.90997,-67.9711
175,-727,8.8999,67.6554,-0.000950017,-0.000265267,-0.00154637,0.00097618,-0.00219146,-0.894343,0.00187317,0.0200683,1399,1751,8.89992,-67.6553
182,-727,8.90515,67.3492,-0.00199833,9.49627e-05,-0.00179152,0.00112317,-0.00302653,-1.04977,0.00247841,0.0207807,1406,1751,8.9051,-67.3493
189,-727,8.8374,67.0068,-0.00214623,0.00099125,-0.00216103,0.0020929,-0.00324788,-1.09935,0.00310744,0.0128951,1413,1751,8.83743,-67.0068
196,-727,8.80908,66.637,-0.00233057,0.002053,-0.00262417,0.00328031,-0.00355788,-1.13333,0.00394912,0.0143984,1420,1751,8.80914,-66.637
203,-727,8.74426,66.2612,-0.00236694,0.00262564,-0.00310147,0.00411063,-0.00385193,-1.12425,0.00459799,0.0165284,1427,1751,8.74432,-66.2612
210,-727,8.71326,65.8921,-0.00244552,0.00328627,-0.00348644,0.00493354,-0.00409279,-1.12941,0.00521889,0.016496,1434,1751,8.71322,-65.8921
217,-727,8.70264,65.498,-0.00246407,0.00391986,-0.00374604,0.00564943,-0.00419364,-1.13825,0.00570357,0.0132446,1441,1751,8.70265,-65.4981
224,-727,8.66626,65.0654,-0.00247519,0.00433665,-0.00398964,0.00617644,-0.00431498,-1.13871,0.00608893,0.0140583,1448,1751,8.66632,-65.0654
231,-727,8.63208,64.6454,-0.00268107,0.00459793,-0.00419464,0.00651189,-0.00459503,-1.14273,0.00644434,0.0131878,1455,1751,8.63211,-64.6454
238,-727,8.66516,64.0387,-0.00286627,0.00489735,-0.00431448,0.00681926,-0.00478818,-1.15173,0.00673567,0.0310468,1462,1751,8.66521,-64.0386
245,-727,8.58508,63.786,0,0,0,0,0,0,0,-1,1469,1751,8.58504,-63.786
252,-727,8.51038,63.3125,0,0,0,0,0,0,0,-1,1476,1751,8.51035,-63.3125
259,-727,8.43909,62.8057,0,0,0,0,0,0,0,-1,1483,1751,8.43913,-62.8057
266,-727,8.44434,62.2332,-0.00449633,0.00598139,-0.00453915,0.00767431,-0.00618925,-1.21382,0.00801942,0.0444489,1490,1751,8.44431,-62.2331
273,-727,8.43079,61.787,-0.00519225,0.00624647,-0.0046753,0.00791422,-0.00686,-1.22815,0.00853714,0.0484224,1497,1751,8.43077,-61.787
280,-727,8.11914,61.3245,0,0,0,0,0,0,0,-1,1504,1751,8.11911,-61.3245
287,-727,8.01758,60.6405,0,0,0,0,0,0,0,-1,1511,1751,8.01755,-60.6405
294,-727,8.48657,53.1189,0,0,0,0,0,0,0,-1,1518,1751,8.48656,-53.1189
301,-727,8.44385,46.1619,0,0,0,0,0,0,0,-1,1525,1751,8.4439,-46.1619
308,-727,8.77002,44.8007,0,0,0,0,0,0,0,-1,1532,1751,8.76996,-44.8006
315,-727,8.10571,41.24,0,0,0,0,0,0,0,-1,1539,1751,8.10567,-41.2399
322,-727,8.24133,40.2081,0,0,0,0,0,0,0,-1,1546,1751,8.24136,-40.2082
329,-727,5.54419,31.0325,0,0,0,0,0,0,0,-1,1553,1751,5.54425,-31.0325
336,-727,5.55823,20.2439,0,0,0,0,0,0,0,-1,1560,1751,5.55829,-20.2438
343,-727,2.41699,8.72095,0,0,0,0,0,0,0,-1,1567,1751,2.41702,-8.72098
350,-727,3.89783,7.50195,0,0,0,0,0,0,0,-1,1574,1751,3.89782,-7.50193
357,-727,4.48462,10.2948,0,0,0,0,0,0,0,-1,1581,1751,4.48464,-10.2948
364,-727,6.96729,17.2365,0,0,0,0,0,0,0,-1,1588,1751,6.96732,-17.2365
371,-727,5.04565,23.2227,0,0,0,0,0,0,0,-1,1595,1751,5.04564,-23.2227
378,-727,4.56726,23.0574,0,0,0,0,0,0,0,-1,1602,1751,4.56727,-23.0574
385,-727,3.52307,22.6431,0,0,0,0,0,0,0,-1,1609,1751,3.52303,-22.643
392,-727,0,0,0,0,0,0,0,0,0,-1,1616,1751,0,0
399,-727,0,0,0,0,0,0,0,0,0,-1,1623,1751,0,0
406,-727,0,0,0,0,0,0,0,0,0,-1,1630,1751,0,0
413,-727,0,0,0,0,0,0,0,0,0,-1,1637,1751,0,0
420,-727,0,0,0,0,0,0,0,0,0,-1,1644,1751,0,0
427,-727,0,0,0,0,0,0,0,0,0,-1,1651,1751,0,0
434,-727,0,0,0,0,0,0,0,0,0,-1,1658,1751,0,0
441,-727,0,0,0,0,0,0,0,0,0,-1,1665,1751,0,0
448,-727,0,0,0,0,0,0,0,0,0,-1,1672,1751,0,0
455,-727,0,0,0,0,0,0,0,0,0,-1,1679,1751,0,0
462,-727,0,0,0,0,0,0,0,0,0,-1,1686,1751,0,0
469,-727,0,0,0,0,0,0,0,0,0,-1,1693,1751,0,0
476,-727,0,0,0,0,0,0,0,0,0,-1,1700,1751,0,0
483,-727,0,0,0,0,0,0,0,0,0,-1,1707,1751,0,0
490,-727,0,0,0,0,0,0,0,0,0,-1,1714,1751,0,0
497,-727,0,0,0,0,0,0,0,0,0,-1,1721,1751,0,0
504,-727,0,0,0,0,0,0,0,0,0,-1,1728,1751,0,0
511,-727,0,0,0,0,0,0,0,0,0,-1,1735,1751,0,0
518,-727,0,0,0,0,0,0,0,0,0,-1,1742,1751,0,0
525,-727,0,0,0,0,0,0,0,0,0,-1,1749,1751,0,0
532,-727,0,0,0,0,0,0,0,0,0,-1,1756,1751,0,0
539,-727,0,0,0,0,0,0,0,0,0,-1,1763,1751,0,0
546,-727,0,0,0,0,0,0,0,0,0,-1,1770,1751,0,0
553,-727,0,0,0,0,0,0,0,0,0,-1,1777,1751,0,0
560,-727,0,0,0,0,0,0,0,0,0,-1,1784,1751,0,0
567,-727,0,0,0,0,0,0,0,0,0,-1,1791,1751,0,0
574,-727,0,0,0,0,0,0,0,0,0,-1,1798,1751,0,0
581,-727,0,0,0,0,0,0,0,0,0,-1,1805,1751,0,0
588,-727,0,0,0,0,0,0,0,0,0,-1,1812,1751,0,0
595,-727,0,0,0,0,0,0,0,0,0,-1,1819,1751,0,0
602,-727,0,0,0,0,0,0,0,0,0,-1,1826,1751,0,0
609,-727,0,0,0,0,0,0,0,0,0,-1,1833,1751,0,0
616,-727,0,0,0,0,0,0,0,0,0,-1,1840,1751,0,0
623,-727,0,0,0,0,0,0,0,0,0,-1,1847,1751,0,0
630,-727,0,0,0,0,0,0,0,0,0,-1,1854,1751,0,0
637,-727,0,0,0,0,0,0,0,0,0,-1,1861,1751,0,0
644,-727,0,0,0,0,0,0,0,0,0,-1,1868,1751,0,0
651,-727,0,0,0,0,0,0,0,0,0,-1,1875,1751,0,0
658,-727,0,0,0,0,0,0,0,0,0,-1,1882,1751,0,0
665,-727,0,0,0,0,0,0,0,0,0,-1,1889,1751,0,0
672,-727,0,0,0,0,0,0,0,0,0,-1,1896,1751,0,0
679,-727,0,0,0,0,0,0,0,0,0,-1,1903,1751,0,0
686,-727,0,0,0,0,0,0,0,0,0,-1,1910,1751,0,0
693,-727,0,0,0,0,0,0,0,0,0,-1,1917,1751,0,0
700,-727,0,0,0,0,0,0,0,0,0,-1,1924,1751,0,0
707,-727,0,0,0,0,0,0,0,0,0,-1,1931,1751,0,0
714,-727,0,0,0,0,0,0,0,0,0,-1,1938,1751,0,0
721,-727,0,0,0,0,0,0,0,0,0,-1,1945,1751,0,0
728,-727,0,0,0,0,0,0,0,0,0,-1,1952,1751,0,0
735,-727,0,0,0,0,0,0,0,0,0,-1,1959,1751,0,0
742,-727,0,0,0,0,0,0,0,0,0,-1,1966,1751,0,0
749,-727,0,0,0,0,0,0,0,0,0,-1,1973,1751,0,0
756,-727,0,0,0,0,0,0,0,0,0,-1,1980,1751,0,0
763,-727,0,0,0,0,0,0,0,0,0,-1,1987,1751,0,0
770,-727,0,0,0,0,0,0,0,0,0,-1,1994,1751,0,0
777,-727,0,0,0,0,0,0,0,0,0,-1,2001,1751,0,0
784,-727,0,0,0,0,0,0,0,0,0,-1,2008,1751,0,0
791,-727,0,0,0,0,0,0,0,0,0,-1,2015,1751,0,0
798,-727,0,0,0,0,0,0,0,0,0,-1,2022,1751,0,0
805,-727,0,0,0,0,0,0,0,0,0,-1,2029,1751,0,0
812,-727,0,0,0,0,0,0,0,0,0,-1,2036,1751,0,0
-700,-734,0,0,0,0,0,0,0,0,0,-1,524,1758,0,0
-693,-734,0,0,0,0,0,0,0,0,0,-1,531,1758,0,0
-686,-734,0,0,0,0,0,0,0,0,0,-1,538,1758,0,0
-679,-734,0,0,0,0,0,0,0,0,0,-1,545,1758,0,0
-672,-734,0,0,0,0,0,0,0,0,0,-1,552,1758,0,0
-665,-734,0,0,0,0,0,0,0,0,0,-1,559,1758,0,0
-658,-734,0,0,0,0,0,0,0,0,0,-1,566,1758,0,0
-651,-734,0,0,0,0,0,0,0,0,0,-1,573,1758,0,0
-644,-734,0,0,0,0,0,0,0,0,0,-1,580,1758,0,0
-637,-734,0,0,0,0,0,0,0,0,0,-1,587,1758,0,0
-630,-734,0,0,0,0,0,0,0,0,0,-1,594,1758,0,0
-623,-734,0,0,0,0,0,0,0,0,0,-1,601,1758,0,0
-616,-734,0,0,0,0,0,0,0,0,0,-1,608,1758,0,0
-609,-734,0,0,0,0,0,0,0,0,0,-1,615,1758,0,0
-602,-734,0,0,0,0,0,0,0,0,0,-1,622,1758,0,0
-595,-734,0,0,0,0,0,0,0,0,0,-1,629,1758,0,0
-588,-734,0,0,0,0,0,0,0,0,0,-1,636,1758,0,0
-581,-734,0,0,0,0,0,0,0,0,0,-1,643,1758,0,0
-574,-734,0,0,0,0,0,0,0,0,0,-1,650,1758,0,0
-567,-734,0,0,0,0,0,0,0,0,0,-1,657,1758,0,0
-560,-734,0,0,0,0,0,0,0,0,0,-1,664,1758,0,0
-553,-734,0,0,0,0,0,0,0,0,0,-1,671,1758,0,0
-546,-734,0,0,0,0,0,0,0,0,0,-1,678,1758,0,0
-539,-734,0,0,0,0,0,0,0,0,0,-1,685,1758,0,0
-532,-734,0,0,0,0,0,0,0,0,0,-1,692,1758,0,0
-525,-734,0,0,0,0,0,0,0,0,0,-1,699,1758,0,0
-518,-734,0,0,0,0,0,0,0,0,0,-1,706,1758,0,0
-511,-734,0,0,0,0,0,0,0,0,0,-1,713,1758,0,0
-504,-734,0,0,0,0,0,0,0,0,0,-1,720,1758,0,0
-497,-734,0,0,0,0,0,0,0,0,0,-1,727,1758,0,0
-490,-734,0,0,0,0,0,0,0,0,0,-1,734,1758,0,0
-483,-734,0,0,0,0,0,0,0,0,0,-1,741,1758,0,0
-476,-734,0,0,0,0,0,0,0,0,0,-1,748,1758,0,0
-469,-734,0,0,0,0,0,0,0,0,0,-1,755,1758,0,0
-462,-734,0,0,0,0,0,0,0,0,0,-1,762,1758,0,0
-455,-734,0,0,0,0,0,0,0,0,0,-1,769,1758,0,0
-448,-734,0,0,0,0,0,0,0,0,0,-1,776,1758,0,0
-441,-734,0,0,0,0,0,0,0,0,0,-1,783,1758,0,0
-434,-734,0,0,0,0,0,0,0,0,0,-1,790,1758,0,0
-427,-734,0,0,0,0,0,0,0,0,0,-1,797,1758,0,0
-420,-734,0,0,0,0,0,0,0,0,0,-1,804,1758,0,0
-413,-734,0,0,0,0,0,0,0,0,0,-1,811,1758,0,0
-406,-734,0,0,0,0,0,0,0,0,0,-1,818,1758,0,0
-399,-734,0,0,0,0,0,0,0,0,0,-1,825,1758,0,0
-392,-734,0,0,0,0,0,0,0,0,0,-1,832,1758,0,0
-385,-734,0,0,0,0,0,0,0,0,0,-1,839,1758,0,0
-378,-734,0,0,0,0,0,0,0,0,0,-1,846,1758,0,0
-371,-734,0,0,0,0,0,0,0,0,0,-1,853,1758,0,0
-364,-734,0,0,0,0,0,0,0,0,0,-1,860,1758,0,0
-357,-734,0,0,0,0,0,0,0,0,0,-1,867,1758,0,0
-350,-734,0,0,0,0,0,0,0,0,0,-1,874,1758,0,0
-343,-734,0,0,0,0,0,0,0,0,0,-1,881,1758,0,0
-336,-734,0,0,0,0,0,0,0,0,0,-1,888,1758,0,0
-329,-734,0,0,0,0,0,0,0,0,0,-1,895,1758,0,0
-322,-734,0,0,0,0,0,0,0,0,0,-1,902,1758,0,0
-315,-734,0,0,0,0,0,0,0,0,0,-1,909,1758,0,0
-308,-734,0,0,0,0,0,0,0,0,0,-1,916,1758,0,0
-301,-734,0,0,0,0,0,0,0,0,0,-1,923,1758,0,0
-294,-734,0,0,0,0,0,0,0,0,0,-1,930,1758,0,0
-287,-734,0,0,0,0,0,0,0,0,0,-1,937,1758,0,0
-280,-734,0,0,0,0,0,0,0,0,0,-1,944,1758,0,0
-273,-734,0,0,0,0,0,0,0,0,0,-1,951,1758,0,0
-266,-734,0,0,0,0,0,0,0,0,0,-1,958,1758,0,0
-259,-734,0,0,0,0,0,0,0,0,0,-1,965,1758,0,0
-252,-734,5.73883,31.5245,0,0,0,0,0,0,0,-1,972,1758,5.73884,-31.5246
-245,-734,6.32513,30.9761,0,0,0,0,0,0,0,-1,979,1758,6.32511,-30.9761
-238,-734,6.82385,30.0449,0,0,0,0,0,0,0,-1,986,1758,6.82387,-30.0449
-231,-734,7.1958,29.1666,0,0,0,0,0,0,0,-1,993,1758,7.19578,-29.1666
-224,-734,10.8631,52.8424,0,0,0,0,0,0,0,-1,1000,1758,10.8631,-52.8424
-217,-734,7.45984,28.4386,0,0,0,0,0,0,0,-1,1007,1758,7.45986,-28.4386
-210,-734,7.45483,28.4388,0,0,0,0,0,0,0,-1,1014,1758,7.45482,-28.4388
-203,-734,14.3309,49.7766,0,0,0,0,0,0,0,-1,1021,1758,14.3309,-49.7766
-196,-734,13.0366,49.6821,0,0,0,0,0,0,0,-1,1028,1758,13.0366,-49.6822
-189,-734,11.8075,49.2727,0,0,0,0,0,0,0,-1,1035,1758,11.8075,-49.2728
-182,-734,10.8073,48.8035,0,0,0,0,0,0,0,-1,1042,1758,10.8072,-48.8035
-175,-734,9.90186,48.634,0,0,0,0,0,0,0,-1,1049,1758,9.90187,-48.6341
-168,-734,10.3246,61.437,0,0,0,0,0,0,0,-1,1056,1758,10.3246,-61.437
-161,-734,8.28674,49.0464,0,0,0,0,0,0,0,-1,1063,1758,8.28671,-49.0464
-154,-734,10.3014,52.4893,0,0,0,0,0,0,0,-1,1070,1758,10.3014,-52.4893
-147,-734,10.325,56.6101,0,0,0,0,0,0,0,-1,1077,1758,10.3249,-56.6101
-140,-734,9.95325,62.3125,0,0,0,0,0,0,0,-1,1084,1758,9.95328,-62.3126
-133,-734,9.93909,63.0928,0,0,0,0,0,0,0,-1,1091,1758,9.9391,-63.0928
-126,-734,9.80884,63.6448,0,0,0,0,0,0,0,-1,1098,1758,9.80883,-63.6447
-119,-734,9.79077,63.3988,0,0,0,0,0,0,0,-1,1105,1758,9.79077,-63.3988
-112,-734,9.52307,61.2794,0,0,0,0,0,0,0,-1,1112,1758,9.52313,-61.2794
-105,-734,9.39783,63.9799,0,0,0,0,0,0,0,-1,1119,1758,9.39786,-63.9798
-98,-734,9.60657,65.5214,0,0,0,0,0,0,0,-1,1126,1758,9.60662,-65.5214
-91,-734,9.55701,65.8683,0,0,0,0,0,0,0,-1,1133,1758,9.55705,-65.8683
-84,-734,9.48438,66.2332,0,0,0,0,0,0,0,-1,1140,1758,9.48433,-66.2332
-77,-734,9.43909,66.6417,0,0,0,0,0,0,0,-1,1147,1758,9.43906,-66.6418
-70,-734,9.44922,67.0284,0,0,0,0,0,0,0,-1,1154,1758,9.44926,-67.0285
-63,-734,9.30652,67.1522,-0.00482653,0.00375001,0.00329278,0.00486837,-0.00594489,1.24338,0.00625334,0.0368436,1161,1758,9.30652,-67.1522
-56,-734,9.31311,67.6656,-0.00475132,0.00380105,0.00266,0.00456087,-0.00551114,1.29256,0.0058237,0.0179541,1168,1758,9.31316,-67.6656
-49,-734,9.26257,67.9574,-0.00472703,0.00387203,0.00209749,0.00435638,-0.00521137,1.34386,0.00553129,0.0142488,1175,1758,9.26257,-67.9574
-42,-734,9.22278,68.2545,-0.00424983,0.00312086,0.00186446,0.00356564,-0.00469461,1.33661,0.00478388,0.0144214,1182,1758,9.22278,-68.2545
-35,-734,9.21179,68.5057,-0.00395506,0.00280677,0.00147026,0.00311262,-0.00426092,1.3657,0.00427429,0.014648,1189,1758,9.21179,-68.5058
-28,-734,9.18738,68.75,-0.003645,0.00241959,0.00120723,0.00265106,-0.00387647,1.38135,0.00379075,0.0103484,1196,1758,9.18739,-68.75
-21,-734,9.19775,68.9766,-0.00360463,0.00216855,0.000909215,0.00230836,-0.00374443,1.41823,0.00352721,0.0168088,1203,1758,9.1977,-68.9766
-14,-734,9.12976,69.2197,-0.0035756,0.00180325,0.000717095,0.00189721,-0.00366956,1.44051,0.00326783,0.0173891,1210,1758,9.1298,-69.2197
-7,-734,9.10364,69.3901,-0.0036333,0.00122469,0.000532585,0.00128239,-0.003691,1.46287,0.00298152,0.0178724,1217,1758,9.10365,-69.3902
0,-734,9.08057,69.568,-0.00369276,0.00079976,0.000481672,0.000850823,-0.00374383,1.46518,0.00282257,0.0173671,1224,1758,9.08062,-69.568
7,-734,9.05383,69.7272,-0.00376768,0.000369008,0.000512822,0.000431634,-0.0038303,1.44928,0.0027089,0.0131974,1231,1758,9.05389,-69.7272
14,-734,9.02979,69.8579,-0.00385768,1.75364e-05,0.000486576,7.76972e-05,-0.00391784,1.44778,0.00263817,0.0139632,1238,1758,9.02983,-69.8579
21,-734,8.98792,69.9698,-0.00396719,-0.000347797,0.000510291,-0.000277227,-0.00403776,1.43338,0.00260435,0.0126338,1245,1758,8.98792,-69.9699
28,-734,8.98584,70.0597,-0.00399868,-0.000573222,0.000523554,-0.000494988,-0.00407692,1.42246,0.0025689,0.0122599,1252,1758,8.98582,-70.0596
35,-734,8.98303,70.1611,-0.00395331,-0.00074978,0.000506172,-0.000671706,-0.00403138,1.41776,0.00249402,0.016299,1259,1758,8.98298,-70.1612
42,-734,8.97046,70.2115,-0.00389595,-0.00097732,0.000545305,-0.000878765,-0.00399451,1.39199,0.00242378,0.0138744,1266,1758,8.97052,-70.2115
49,-734,8.95056,70.2415,-0.00382663,-0.00100823,0.000621113,-0.000877419,-0.00395744,1.36323,0.00239989,0.0113383,1273,1758,8.95061,-70.2415
56,-734,8.92517,70.2598,-0.003676,-0.0010062,0.000693703,-0.00083671,-0.00384549,1.33117,0.00233527,0.0106772,1280,1758,8.92521,-70.2598
63,-734,8.92212,70.2333,-0.00350279,-0.00068922,0.000937337,-0.000405549,-0.00378646,1.27692,0.00240057,0.0132992,1287,1758,8.92208,-70.2332
70,-734,8.92065,70.2249,-0.00275141,-0.000714394,0.00133803,-5.13343e-05,-0.00341447,1.11071,0.0022594,0.0127246,1294,1758,8.9206,-70.2249
77,-734,8.92114,70.2263,-0.00170847,-0.00072022,0.00153079,0.000394216,-0.00282291,0.941515,0.00202617,0.0165713,1301,1758,8.92115,-70.2263
84,-734,8.91125,70.1152,-0.000901385,-0.000725633,0.00177013,0.000958799,-0.00258582,0.8102,0.00211713,0.0175066,1308,1758,8.91121,-70.1153
91,-734,8.89111,70.0282,-0.000125837,-0.000718898,0.00196694,0.0015668,-0.00241153,0.710583,0.00231409,0.0211768,1315,1758,8.89106,-70.0282
98,-734,8.88733,69.9717,0.000632875,-0.000788634,0.00210848,0.00214717,-0.00230293,0.622833,0.00256979,0.0170071,1322,1758,8.88738,-69.9717
105,-734,8.86938,69.8575,0.00134755,-0.000866043,0.00218363,0.00268886,-0.00220735,0.550837,0.00283138,0.0167493,1329,1758,8.8694,-69.8576
112,-734,8.85742,69.719,0.00194179,-0.0010334,0.00209154,0.0030208,-0.00211241,0.476282,0.00297909,0.0127763,1336,1758,8.85748,-69.7189
119,-734,8.85608,69.5569,0.00222564,-0.0013133,0.00193379,0.00307735,-0.00216501,0.41487,0.00304191,0.0135515,1343,1758,8.85603,-69.5569
126,-734,8.81775,69.3602,0.00235825,-0.00150642,0.00165407,0.0029695,-0.00211768,0.353982,0.00295078,0.0165674,1350,1758,8.81777,-69.3602
133,-734,8.7771,69.1552,0.00220555,-0.00166083,0.00129883,0.00260135,-0.00205663,0.295793,0.00269541,0.0144664,1357,1758,8.77705,-69.1551
140,-734,8.75415,68.9371,0.00169907,-0.00161626,0.000885376,0.0019207,-0.00183788,0.245281,0.0021702,0.0185282,1364,1758,8.7541,-68.9371
147,-734,8.73389,68.7106,0.00109939,-0.00139726,0.000421261,0.00116855,-0.00146643,0.16273,0.00152454,0.0136082,1371,1758,8.73385,-68.7106
154,-734,8.70178,68.5022,0.00037637,-0.00129665,-5.69826e-05,0.000378309,-0.00129859,-0.0340071,0.0010156,0.0101326,1378,1758,8.70183,-68.5022
161,-734,8.67664,68.2467,-0.000374511,-0.000825378,-0.000504053,-4.77763e-05,-0.00115211,-0.575119,0.000752655,0.00994128,1385,1758,8.67663,-68.2467
168,-734,8.63184,67.9456,-0.00109609,-0.000345654,-0.00128655,0.000619274,-0.00206102,-0.927286,0.00162038,0.0160191,1392,1758,8.63187,-67.9456
175,-734,8.60693,67.647,-0.00273839,0.000232151,-0.00237979,0.00155213,-0.00405837,-1.06438,0.00334522,0.0200545,1399,1758,8.60691,-67.647
182,-734,8.60583,67.3121,-0.00455569,0.000634839,-0.00264844,0.00174762,-0.00566847,-1.17303,0.00447671,0.0178773,1406,1758,8.60587,-67.3122
189,-734,8.51941,66.9872,-0.00444882,0.00153207,-0.00297373,0.00275895,-0.0056757,-1.1795,0.00496585,0.013112,1413,1758,8.51946,-66.9871
196,-734,8.47278,66.6488,-0.00435327,0.00251703,-0.00344382,0.00394605,-0.00578229,-1.17747,0.00564991,0.0151979,1420,1758,8.47279,-66.6488
203,-734,8.46948,66.251,-0.00422469,0.0033204,-0.0040893,0.00511153,-0.00601582,-1.15796,0.00643145,0.0217851,1427,1758,8.46947,-66.251
210,-734,8.44739,65.8488,-0.0041903,0.00434863,-0.00461696,0.00636761,-0.00620928,-1.15856,0.00726147,0.0384648,1434,1758,8.44735,-65.8488
217,-734,8.32935,65.5085,0,0,0,0,0,0,0,-1,1441,1758,8.3293,-65.5086
224,-734,8.2749,65.1044,0,0,0,0,0,0,0,-1,1448,1758,8.27493,-65.1044
231,-734,8.18652,64.6265,0,0,0,0,0,0,0,-1,1455,1758,8.18651,-64.6265
238,-734,8.29541,63.7102,0,0,0,0,0,0,0,-1,1462,1758,8.29535,-63.7102
245,-734,8.29065,60.4988,0,0,0,0,0,0,0,-1,1469,1758,8.29062,-60.4987
252,-734,8.17517,58.5679,0,0,0,0,0,0,0,-1,1476,1758,8.1752,-58.5678
259,-734,8.07666,59.5597,0,0,0,0,0,0,0,-1,1483,1758,8.07667,-59.5597
266,-734,8.03247,62.0757,0,0,0,0,0,0,0,-1,1490,1758,8.0325,-62.0757
273,-734,8.1012,61.7448,0,0,0,0,0,0,0,-1,1497,1758,8.10118,-61.7447
280,-734,7.90149,52.7294,0,0,0,0,0,0,0,-1,1504,1758,7.90153,-52.7294
287,-734,7.56177,50.5933,0,0,0,0,0,0,0,-1,1511,1758,7.56172,-50.5933
294,-734,7.42676,47.7545,0,0,0,0,0,0,0,-1,1518,1758,7.4268,-47.7545
301,-734,7.21814,42.6078,0,0,0,0,0,0,0,-1,1525,1758,7.21809,-42.6078
308,-734,8.0509,41.5156,0,0,0,0,0,0,0,-1,1532,1758,8.05087,-41.5157
315,-734,7.93787,40.8274,0,0,0,0,0,0,0,-1,1539,1758,7.93784,-40.8273
322,-734,7.82483,40.139,0,0,0,0,0,0,0,-1,1546,1758,7.82481,-40.139
329,-734,5.73267,19.656,0,0,0,0,0,0,0,-1,1553,1758,5.73262,-19.656
336,-734,6.71375,23.7469,0,0,0,0,0,0,0,-1,1560,1758,6.71372,-23.7469
343,-734,5.54968,5.14221,0,0,0,0,0,0,0,-1,1567,1758,5.54973,-5.14225
350,-734,5.07397,6.73242,0,0,0,0,0,0,0,-1,1574,1758,5.07402,-6.73243
357,-734,5.05542,7.19189,0,0,0,0,0,0,0,-1,1581,1758,5.05541,-7.19184
364,-734,4.43896,10.4904,0,0,0,0,0,0,0,-1,1588,1758,4.43893,-10.4904
371,-734,7.36975,17.4751,0,0,0,0,0,0,0,-1,1595,1758,7.36972,-17.4752
378,-734,0,0,0,0,0,0,0,0,0,-1,1602,1758,0,0
385,-734,0,0,0,0,0,0,0,0,0,-1,1609,1758,0,0
392,-734,0,0,0,0,0,0,0,0,0,-1,1616,1758,0,0
399,-734,0,0,0,0,0,0,0,0,0,-1,1623,1758,0,0
406,-734,0,0,0,0,0,0,0,0,0,-1,1630,1758,0,0
413,-734,0,0,0,0,0,0,0,0,0,-1,1637,1758,0,0
420,-734,0,0,0,0,0,0,0,0,0,-1,1644,1758,0,0
427,-734,0,0,0,0,0,0,0,0,0,-1,1651,1758,0,0
434,-734,0,0,0,0,0,0,0,0,0,-1,1658,1758,0,0
441,-734,0,0,0,0,0,0,0,0,0,-1,1665,1758,0,0
448,-734,0,0,0,0,0,0,0,0,0,-1,1672,1758,0,0
455,-734,0,0,0,0,0,0,0,0,0,-1,1679,1758,0,0
462,-734,0,0,0,0,0,0,0,0,0,-1,1686,1758,0,0
469,-734,0,0,0,0,0,0,0,0,0,-1,1693,1758,0,0
476,-734,0,0,0,0,0,0,0,0,0,-1,1700,1758,0,0
483,-734,0,0,0,0,0,0,0,0,0,-1,1707,1758,0,0
490,-734,0,0,0,0,0,0,0,0,0,-1,1714,1758,0,0
497,-734,0,0,0,0,0,0,0,0,0,-1,1721,1758,0,0
504,-734,0,0,0,0,0,0,0,0,0,-1,1728,1758,0,0
511,-734,0,0,0,0,0,0,0,0,0,-1,1735,1758,0,0
518,-734,0,0,0,0,0,0,0,0,0,-1,1742,1758,0,0
525,-734,0,0,0,0,0,0,0,0,0,-1,1749,1758,0,0
532,-734,0,0,0,0,0,0,0,0,0,-1,1756,1758,0,0
539,-734,0,0,0,0,0,0,0,0,0,-1,1763,1758,0,0
546,-734,0,0,0,0,0,0,0,0,0,-1,1770,1758,0,0
553,-734,0,0,0,0,0,0,0,0,0,-1,1777,1758,0,0
560,-734,0,0,0,0,0,0,0,0,0,-1,1784,1758,0,0
567,-734,0,0,0,0,0,0,0,0,0,-1,1791,1758,0,0
574,-734,0,0,0,0,0,0,0,0,0,-1,1798,1758,0,0
581,-734,0,0,0,0,0,0,0,0,0,-1,1805,1758,0,0
588,-734,0,0,0,0,0,0,0,0,0,-1,1812,1758,0,0
595,-734,0,0,0,0,0,0,0,0,0,-1,1819,1758,0,0
602,-734,0,0,0,0,0,0,0,0,0,-1,1826,1758,0,0
609,-734,0,0,0,0,0,0,0,0,0,-1,1833,1758,0,0
616,-734,0,0,0,0,0,0,0,0,0,-1,1840,1758,0,0
623,-734,0,0,0,0,0,0,0,0,0,-1,1847,1758,0,0
630,-734,0,0,0,0,0,0,0,0,0,-1,1854,1758,0,0
637,-734,0,0,0,0,0,0,0,0,0,-1,1861,1758,0,0
644,-734,0,0,0,0,0,0,0,0,0,-1,1868,1758,0,0
651,-734,0,0,0,0,0,0,0,0,0,-1,1875,1758,0,0
658,-734,0,0,0,0,0,0,0,0,0,-1,1882,1758,0,0
665,-734,0,0,0,0,0,0,0,0,0,-1,1889,1758,0,0
672,-734,0,0,0,0,0,0,0,0,0,-1,1896,1758,0,0
679,-734,0,0,0,0,0,0,0,0,0,-1,1903,1758,0,0
686,-734,0,0,0,0,0,0,0,0,0,-1,1910,1758,0,0
693,-734,0,0,0,0,0,0,0,0,0,-1,1917,1758,0,0
700,-734,0,0,0,0,0,0,0,0,0,-1,1924,1758,0,0
707,-734,0,0,0,0,0,0,0,0,0,-1,1931,1758,0,0
714,-734,0,0,0,0,0,0,0,0,0,-1,1938,1758,0,0
721,-734,0,0,0,0,0,0,0,0,0,-1,1945,1758,0,0
728,-734,0,0,0,0,0,0,0,0,0,-1,1952,1758,0,0
735,-734,0,0,0,0,0,0,0,0,0,-1,1959,1758,0,0
742,-734,0,0,0,0,0,0,0,0,0,-1,1966,1758,0,0
749,-734,0,0,0,0,0,0,0,0,0,-1,1973,1758,0,0
756,-734,0,0,0,0,0,0,0,0,0,-1,1980,1758,0,0
763,-734,0,0,0,0,0,0,0,0,0,-1,1987,1758,0,0
770,-734,0,0,0,0,0,0,0,0,0,-1,1994,1758,0,0
777,-734,0,0,0,0,0,0,0,0,0,-1,2001,1758,0,0
784,-734,0,0,0,0,0,0,0,0,0,-1,2008,1758,0,0
791,-734,0,0,0,0,0,0,0,0,0,-1,2015,1758,0,0
798,-734,0,0,0,0,0,0,0,0,0,-1,2022,1758,0,0
805,-734,0,0,0,0,0,0,0,0,0,-1,2029,1758,0,0
812,-734,0,0,0,0,0,0,0,0,0,-1,2036,1758,0,0
-700,-741,0,0,0,0,0,0,0,0,0,-1,524,1765,0,0
-693,-741,0,0,0,0,0,0,0,0,0,-1,531,1765,0,0
-686,-741,0,0,0,0,0,0,0,0,0,-1,538,1765,0,0
-679,-741,0,0,0,0,0,0,0,0,0,-1,545,1765,0,0
-672,-741,0,0,0,0,0,0,0,0,0,-1,552,1765,0,0
-665,-741,0,0,0,0,0,0,0,0,0,-1,559,1765,0,0
-658,-741,0,0,0,0,0,0,0,0,0,-1,566,1765,0,0
-651,-741,0,0,0,0,0,0,0,0,0,-1,573,1765,0,0
-644,-741,0,0,0,0,0,0,0,0,0,-1,580,1765,0,0
-637,-741,0,0,0,0,0,0,0,0,0,-1,587,1765,0,0
-630,-741,0,0,0,0,0,0,0,0,0,-1,594,1765,0,0
-623,-741,0,0,0,0,0,0,0,0,0,-1,601,1765,0,0
-616,-741,0,0,0,0,0,0,0,0,0,-1,608,1765,0,0
-609,-741,0,0,0,0,0,0,0,0,0,-1,615,1765,0,0
-602,-741,0,0,0,0,0,0,0,0,0,-1,622,1765,0,0
-595,-741,0,0,0,0,0,0,0,0,0,-1,629,1765,0,0
-588,-741,0,0,0,0,0,0,0,0,0,-1,636,1765,0,0
-581,-741,0,0,0,0,0,0,0,0,0,-1,643,1765,0,0
-574,-741,0,0,0,0,0,0,0,0,0,-1,650,1765,0,0
-567,-741,0,0,0,0,0,0,0,0,0,-1,657,1765,0,0
-560,-741,0,0,0,0,0,0,0,0,0,-1,664,1765,0,0
-553,-741,0,0,0,0,0,0,0,0,0,-1,671,1765,0,0
-546,-741,0,0,0,0,0,0,0,0,0,-1,678,1765,0,0
-539,-741,0,0,0,0,0,0,0,0,0,-1,685,1765,0,0
-532,-741,0,0,0,0,0,0,0,0,0,-1,692,1765,0,0
-525,-741,0,0,0,0,0,0,0,0,0,-1,699,1765,0,0
-518,-741,0,0,0,0,0,0,0,0,0,-1,706,1765,0,0
-511,-741,0,0,0,0,0,0,0,0,0,-1,713,1765,0,0
-504,-741,0,0,0,0,0,0,0,0,0,-1,720,1765,0,0
-497,-741,0,0,0,0,0,0,0,0,0,-1,727,1765,0,0
-490,-741,0,0,0,0,0,0,0,0,0,-1,734,1765,0,0
-483,-741,0,0,0,0,0,0,0,0,0,-1,741,1765,0,0
-476,-741,0,0,0,0,0,0,0,0,0,-1,748,1765,0,0
-469,-741,0,0,0,0,0,0,0,0,0,-1,755,1765,0,0
-462,-741,0,0,0,0,0,0,0,0,0,-1,762,1765,0,0
-455,-741,0,0,0,0,0,0,0,0,0,-1,769,1765,0,0
-448,-741,0,0,0,0,0,0,0,0,0,-1,776,1765,0,0
-441,-741,0,0,0,0,0,0,0,0,0,-1,783,1765,0,0
-434,-741,0,0,0,0,0,0,0,0,0,-1,790,1765,0,0
-427,-741,0,0,0,0,0,0,0,0,0,-1,797,1765,0,0
-420,-741,0,0,0,0,0,0,0,0,0,-1,804,1765,0,0
-413,-741,0,0,0,0,0,0,0,0,0,-1,811,1765,0,0
-406,-741,0,0,0,0,0,0,0,0,0,-1,818,1765,0,0
-399,-741,0,0,0,0,0,0,0,0,0,-1,825,1765,0,0
-392,-741,0,0,0,0,0,0,0,0,0,-1,832,1765,0,0
-385,-741,0,0,0,0,0,0,0,0,0,-1,839,1765,0,0
-378,-741,0,0,0,0,0,0,0,0,0,-1,846,1765,0,0
-371,-741,0,0,0,0,0,0,0,0,0,-1,853,1765,0,0
-364,-741,0,0,0,0,0,0,0,0,0,-1,860,1765,0,0
-357,-741,0,0,0,0,0,0,0,0,0,-1,867,1765,0,0
-350,-741,0,0,0,0,0,0,0,0,0,-1,874,1765,0,0
-343,-741,0,0,0,0,0,0,0,0,0,-1,881,1765,0,0
-336,-741,0,0,0,0,0,0,0,0,0,-1,888,1765,0,0
-329,-741,0,0,0,0,0,0,0,0,0,-1,895,1765,0,0
-322,-741,0,0,0,0,0,0,0,0,0,-1,902,1765,0,0
-315,-741,0,0,0,0,0,0,0,0,0,-1,909,1765,0,0
-308,-741,0,0,0,0,0,0,0,0,0,-1,916,1765,0,0
-301,-741,0,0,0,0,0,0,0,0,0,-1,923,1765,0,0
-294,-741,0,0,0,0,0,0,0,0,0,-1,930,1765,0,0
-287,-741,0,0,0,0,0,0,0,0,0,-1,937,1765,0,0
-280,-741,0,0,0,0,0,0,0,0,0,-1,944,1765,0,0
-273,-741,0,0,0,0,0,0,0,0,0,-1,951,1765,0,0
-266,-741,0,0,0,0,0,0,0,0,0,-1,958,1765,0,0
-259,-741,0,0,0,0,0,0,0,0,0,-1,965,1765,0,0
-252,-741,0,0,0,0,0,0,0,0,0,-1,972,1765,0,0
-245,-741,0,0,0,0,0,0,0,0,0,-1,979,1765,0,0
-238,-741,7.13855,29.8348,0,0,0,0,0,0,0,-1,986,1765,7.13856,-29.8348
-231,-741,7.74182,29.3066,0,0,0,0,0,0,0,-1,993,1765,7.74183,-29.3066
-224,-741,7.80078,29.0964,0,0,0,0,0,0,0,-1,1000,1765,7.80079,-29.0964
-217,-741,8.15863,29.113,0,0,0,0,0,0,0,-1,1007,1765,8.15863,-29.1131
-210,-741,8.37024,29.3896,0,0,0,0,0,0,0,-1,1014,1765,8.37022,-29.3896
-203,-741,7.703,44.0701,0,0,0,0,0,0,0,-1,1021,1765,7.70306,-44.0701
-196,-741,13.1698,50.7012,0,0,0,0,0,0,0,-1,1028,1765,13.1698,-50.7012
-189,-741,12.3024,50.0712,0,0,0,0,0,0,0,-1,1035,1765,12.3023,-50.0712
-182,-741,11.3236,49.675,0,0,0,0,0,0,0,-1,1042,1765,11.3236,-49.675
-175,-741,10.1451,49.7836,0,0,0,0,0,0,0,-1,1049,1765,10.1451,-49.7836
-168,-741,8.38049,49.6892,0,0,0,0,0,0,0,-1,1056,1765,8.38049,-49.6892
-161,-741,8.15625,50.3143,0,0,0,0,0,0,0,-1,1063,1765,8.15622,-50.3143
-154,-741,7.93201,50.9395,0,0,0,0,0,0,0,-1,1070,1765,7.93195,-50.9395
-147,-741,10.9515,48.8568,0,0,0,0,0,0,0,-1,1077,1765,10.9515,-48.8569
-140,-741,10.5068,51.2876,0,0,0,0,0,0,0,-1,1084,1765,10.5068,-51.2876
-133,-741,10.6208,54.5072,0,0,0,0,0,0,0,-1,1091,1765,10.6208,-54.5072
-126,-741,9.89746,52.7167,0,0,0,0,0,0,0,-1,1098,1765,9.8975,-52.7167
-119,-741,9.33801,50.1482,0,0,0,0,0,0,0,-1,1105,1765,9.33802,-50.1482
-112,-741,9.6283,47.2815,0,0,0,0,0,0,0,-1,1112,1765,9.62827,-47.2815
-105,-741,9.61792,45.9158,0,0,0,0,0,0,0,-1,1119,1765,9.61797,-45.9158
-98,-741,9.19971,40.25,0,0,0,0,0,0,0,-1,1126,1765,9.19971,-40.25
-91,-741,8.40002,36.3687,0,0,0,0,0,0,0,-1,1133,1765,8.40002,-36.3687
-84,-741,7.8877,35.0892,0,0,0,0,0,0,0,-1,1140,1765,7.88776,-35.0892
-77,-741,7.73303,34.1174,0,0,0,0,0,0,0,-1,1147,1765,7.73304,-34.1174
-70,-741,7.5437,32.0275,0,0,0,0,0,0,0,-1,1154,1765,7.5437,-32.0275
-63,-741,9.37097,66.77,0,0,0,0,0,0,0,-1,1161,1765,9.37095,-66.77
-56,-741,9.58862,67.6793,0,0,0,0,0,0,0,-1,1168,1765,9.58865,-67.6793
-49,-741,9.52136,68.026,0,0,0,0,0,0,0,-1,1175,1765,9.52133,-68.026
-42,-741,9.44568,68.329,0,0,0,0,0,0,0,-1,1182,1765,9.44573,-68.329
-35,-741,9.45557,68.5308,-0.00623462,0.00362293,0.00208158,0.00404447,-0.00665615,1.37099,0.00623904,0.0248554,1189,1765,9.45557,-68.5307
-28,-741,9.44116,68.7623,-0.00593356,0.00321623,0.00176493,0.00354487,-0.00626219,1.3867,0.0057341,0.0152282,1196,1765,9.44118,-68.7623
-21,-741,9.42017,68.9795,-0.00615828,0.00307589,0.0013168,0.00326,-0.00634239,1.43188,0.00563834,0.0203471,1203,1765,9.4202,-68.9794
-14,-741,9.34143,69.2159,-0.00638346,0.00271573,0.00101253,0.00282704,-0.00649477,1.4613,0.00551906,0.019833,1210,1765,9.34145,-69.216
-7,-741,9.27039,69.3872,-0.00671112,0.00204921,0.000756394,0.00211404,-0.00677595,1.4853,0.00536272,0.0148991,1217,1765,9.2704,-69.3873
0,-741,9.22107,69.5118,-0.00713304,0.00150258,0.000696086,0.00155833,-0.00718879,1.49088,0.00538762,0.0150739,1224,1765,9.22113,-69.5119
7,-741,9.16589,69.6604,-0.00749368,0.00087707,0.000745677,0.000942977,-0.00755959,1.48264,0.00538166,0.0170549,1231,1765,9.16587,-69.6605
14,-741,9.14099,69.8423,-0.00780762,0.000424858,0.000687819,0.00048193,-0.00786469,1.48801,0.00541093,0.016547,1238,1765,9.14094,-69.8423
21,-741,9.099,69.9454,-0.00803852,-0.000104356,0.00075094,-3.39085e-05,-0.00810897,1.47726,0.00539471,0.0142649,1245,1765,9.09903,-69.9454
28,-741,9.05542,70.0554,-0.00814939,-0.000428419,0.000827341,-0.00034076,-0.00823705,1.46524,0.00538138,0.0149395,1252,1765,9.05541,-70.0555
35,-741,9.04651,70.1418,-0.008171,-0.000742365,0.000848465,-0.000646689,-0.00826667,1.45851,0.0053087,0.0162935,1259,1765,9.04654,-70.1418
42,-741,9.00903,70.198,-0.00808077,-0.00112385,0.000953667,-0.000995487,-0.00820914,1.437,0.00517296,0.0170845,1266,1765,9.00906,-70.198
49,-741,8.98962,70.2321,-0.00786019,-0.00108473,0.00109857,-0.000911058,-0.00803386,1.41401,0.00507953,0.0113468,1273,1765,8.98961,-70.2321
56,-741,8.94739,70.2493,-0.00754214,-0.00105773,0.0012307,-0.000832005,-0.00776786,1.3894,0.00492472,0.0103374,1280,1765,8.94744,-70.2493
63,-741,8.91516,70.2477,-0.00716643,-0.000639957,0.00162724,-0.00025674,-0.00754964,1.33951,0.00494974,0.0146745,1287,1765,8.91511,-70.2477
70,-741,8.88232,70.2485,-0.00584131,-0.00060637,0.00234558,0.000290827,-0.0067385,1.20546,0.00459235,0.0165116,1294,1765,8.88238,-70.2486
77,-741,8.85461,70.2096,-0.0041225,-0.0004861,0.00268013,0.000934365,-0.00554297,1.08344,0.00404292,0.0133382,1301,1765,8.85463,-70.2096
84,-741,8.81799,70.1436,-0.00277457,-0.000426805,0.003077,0.00169263,-0.00489401,0.967628,0.00394969,0.0159184,1308,1765,8.81803,-70.1436
91,-741,8.77954,70.0715,-0.00146205,-0.00036147,0.00341463,0.00254693,-0.00437045,0.865289,0.00403974,0.0144489,1315,1765,8.77949,-70.0716
98,-741,8.7583,69.9596,-0.000188809,-0.000356215,0.00365178,0.00338023,-0.00392526,0.77394,0.00422174,0.0114909,1322,1765,8.75832,-69.9596
105,-741,8.74634,69.8136,0.00107628,-0.000395726,0.00379049,0.00420156,-0.00352101,0.689506,0.0044644,0.0118706,1329,1765,8.74634,-69.8137
112,-741,8.7439,69.6799,0.00211566,-0.000546759,0.00372319,0.00473847,-0.00316957,0.613708,0.00459556,0.0115638,1336,1765,8.74391,-69.6799
119,-741,8.68542,69.5156,0.00264802,-0.00097995,0.00353525,0.00480751,-0.00313944,0.548356,0.00462174,0.0136662,1343,1765,8.68541,-69.5157
126,-741,8.63623,69.3298,0.00299542,-0.0013111,0.00314455,0.00465329,-0.00296897,0.485186,0.00443638,0.0190342,1350,1765,8.63623,-69.3298
133,-741,8.60706,69.1266,0.00296611,-0.00169556,0.00261698,0.00413975,-0.0028692,0.421583,0.00406872,0.0149614,1357,1765,8.60705,-69.1266
140,-741,8.5509,68.9146,0.00238012,-0.00181892,0.00198985,0.00317326,-0.00261206,0.379294,0.00334539,0.0113177,1364,1765,8.55086,-68.9145
147,-741,8.50391,68.7164,0.00162937,-0.00169397,0.00130398,0.00207993,-0.00214453,0.332683,0.00243909,0.0108561,1371,1765,8.5039,-68.7165
154,-741,8.46729,68.5188,0.000693288,-0.00181061,0.000581725,0.00082184,-0.00193916,0.217487,0.00163699,0.00964943,1378,1765,8.46734,-68.5188
161,-741,8.44861,68.2288,-0.000354012,-0.00133405,-0.000110834,-0.000341634,-0.00134643,-0.11122,0.000808181,0.0120089,1385,1765,8.44866,-68.2287
168,-741,8.40149,67.9425,-0.00135834,-0.000866155,-0.0013193,0.000229812,-0.0024543,-0.877604,0.00171794,0.0266227,1392,1765,8.4015,-67.9424
175,-741,8.34106,67.6865,0,0,0,0,0,0,0,-1,1399,1765,8.34104,-67.6866
182,-741,8.26697,67.3074,0,0,0,0,0,0,0,-1,1406,1765,8.26699,-67.3074
189,-741,8.17749,66.9906,0,0,0,0,0,0,0,-1,1413,1765,8.17747,-66.9906
196,-741,8.14771,66.6821,0,0,0,0,0,0,0,-1,1420,1765,8.14775,-66.6822
203,-741,8.14685,66.2122,0,0,0,0,0,0,0,-1,1427,1765,8.1469,-66.2121
210,-741,8.05383,65.5531,0,0,0,0,0,0,0,-1,1434,1765,8.05384,-65.5531
217,-741,8.4032,40.1213,0,0,0,0,0,0,0,-1,1441,1765,8.40325,-40.1214
224,-741,8.0719,38.4249,0,0,0,0,0,0,0,-1,1448,1765,8.07187,-38.4249
231,-741,7.95923,39.0671,0,0,0,0,0,0,0,-1,1455,1765,7.9592,-39.0671
238,-741,7.96619,42.4865,0,0,0,0,0,0,0,-1,1462,1765,7.96621,-42.4864
245,-741,8.53577,45.7744,0,0,0,0,0,0,0,-1,1469,1765,8.53581,-45.7744
252,-741,8.59167,47.473,0,0,0,0,0,0,0,-1,1476,1765,8.59162,-47.473
259,-741,8.47412,48.5269,0,0,0,0,0,0,0,-1,1483,1765,8.47412,-48.5269
266,-741,8.50134,48.3838,0,0,0,0,0,0,0,-1,1490,1765,8.50132,-48.3838
273,-741,8.81421,49.1227,0,0,0,0,0,0,0,-1,1497,1765,8.81426,-49.1227
280,-741,7.33093,51.4729,0,0,0,0,0,0,0,-1,1504,1765,7.33092,-51.4729
287,-741,7.52783,49.7068,0,0,0,0,0,0,0,-1,1511,1765,7.52783,-49.7068
294,-741,5.91187,43.7742,0,0,0,0,0,0,0,-1,1518,1765,5.91188,-43.7742
301,-741,6.20667,38.5165,0,0,0,0,0,0,0,-1,1525,1765,6.20667,-38.5165
308,-741,7.99036,42.5969,0,0,0,0,0,0,0,-1,1532,1765,7.99037,-42.5969
315,-741,7.83838,41.6693,0,0,0,0,0,0,0,-1,1539,1765,7.83835,-41.6694
322,-741,7.68628,40.7418,0,0,0,0,0,0,0,-1,1546,1765,7.68633,-40.7418
329,-741,4.74414,17.928,0,0,0,0,0,0,0,-1,1553,1765,4.74414,-17.928
336,-741,5.74304,22.0945,0,0,0,0,0,0,0,-1,1560,1765,5.74306,-22.0945
343,-741,7.09888,26.501,0,0,0,0,0,0,0,-1,1567,1765,7.09885,-26.501
350,-741,4.90369,5.44666,0,0,0,0,0,0,0,-1,1574,1765,4.90368,-5.44664
357,-741,4.02063,5.16626,0,0,0,0,0,0,0,-1,1581,1765,4.02058,-5.1662
364,-741,0,0,0,0,0,0,0,0,0,-1,1588,1765,0,0
371,-741,0,0,0,0,0,0,0,0,0,-1,1595,1765,0,0
378,-741,0,0,0,0,0,0,0,0,0,-1,1602,1765,0,0
385,-741,0,0,0,0,0,0,0,0,0,-1,1609,1765,0,0
392,-741,0,0,0,0,0,0,0,0,0,-1,1616,1765,0,0
399,-741,0,0,0,0,0,0,0,0,0,-1,1623,1765,0,0
406,-741,0,0,0,0,0,0,0,0,0,-1,1630,1765,0,0
413,-741,0,0,0,0,0,0,0,0,0,-1,1637,1765,0,0
420,-741,0,0,0,0,0,0,0,0,0,-1,1644,1765,0,0
427,-741,0,0,0,0,0,0,0,0,0,-1,1651,1765,0,0
434,-741,0,0,0,0,0,0,0,0,0,-1,1658,1765,0,0
441,-741,0,0,0,0,0,0,0,0,0,-1,1665,1765,0,0
448,-741,0,0,0,0,0,0,0,0,0,-1,1672,1765,0,0
455,-741,0,0,0,0,0,0,0,0,0,-1,1679,1765,0,0
462,-741,0,0,0,0,0,0,0,0,0,-1,1686,1765,0,0
469,-741,0,0,0,0,0,0,0,0,0,-1,1693,1765,0,0
476,-741,0,0,0,0,0,0,0,0,0,-1,1700,1765,0,0
483,-741,0,0,0,0,0,0,0,0,0,-1,1707,1765,0,0
490,-741,0,0,0,0,0,0,0,0,0,-1,1714,1765,0,0
497,-741,0,0,0,0,0,0,0,0,0,-1,1721,1765,0,0
504,-741,0,0,0,0,0,0,0,0,0,-1,1728,1765,0,0
511,-741,0,0,0,0,0,0,0,0,0,-1,1735,1765,0,0
518,-741,0,0,0,0,0,0,0,0,0,-1,1742,1765,0,0
525,-741,0,0,0,0,0,0,0,0,0,-1,1749,1765,0,0
532,-741,0,0,0,0,0,0,0,0,0,-1,1756,1765,0,0
539,-741,0,0,0,0,0,0,0,0,0,-1,1763,1765,0,0
546,-741,0,0,0,0,0,0,0,0,0,-1,1770,1765,0,0
553,-741,0,0,0,0,0,0,0,0,0,-1,1777,1765,0,0
560,-741,0,0,0,0,0,0,0,0,0,-1,1784,1765,0,0
567,-741,0,0,0,0,0,0,0,0,0,-1,1791,1765,0,0
574,-741,0,0,0,0,0,0,0,0,0,-1,1798,1765,0,0
581,-741,0,0,0,0,0,0,0,0,0,-1,1805,1765,0,0
588,-741,0,0,0,0,0,0,0,0,0,-1,1812,1765,0,0
595,-741,0,0,0,0,0,0,0,0,0,-1,1819,1765,0,0
602,-741,0,0,0,0,0,0,0,0,0,-1,1826,1765,0,0
609,-741,0,0,0,0,0,0,0,0,0,-1,1833,1765,0,0
616,-741,0,0,0,0,0,0,0,0,0,-1,1840,1765,0,0
623,-741,0,0,0,0,0,0,0,0,0,-1,1847,1765,0,0
630,-741,0,0,0,0,0,0,0,0,0,-1,1854,1765,0,0
637,-741,0,0,0,0,0,0,0,0,0,-1,1861,1765,0,0
644,-741,0,0,0,0,0,0,0,0,0,-1,1868,1765,0,0
651,-741,0,0,0,0,0,0,0,0,0,-1,1875,1765,0,0
658,-741,0,0,0,0,0,0,0,0,0,-1,1882,1765,0,0
665,-741,0,0,0,0,0,0,0,0,0,-1,1889,1765,0,0
672,-741,0,0,0,0,0,0,0,0,0,-1,1896,1765,0,0
679,-741,0,0,0,0,0,0,0,0,0,-1,1903,1765,0,0
686,-741,0,0,0,0,0,0,0,0,0,-1,1910,1765,0,0
693,-741,0,0,0,0,0,0,0,0,0,-1,1917,1765,0,0
700,-741,0,0,0,0,0,0,0,0,0,-1,1924,1765,0,0
707,-741,0,0,0,0,0,0,0,0,0,-1,1931,1765,0,0
714,-741,0,0,0,0,0,0,0,0,0,-1,1938,1765,0,0
721,-741,0,0,0,0,0,0,0,0,0,-1,1945,1765,0,0
728,-741,0,0,0,0,0,0,0,0,0,-1,1952,1765,0,0
735,-741,0,0,0,0,0,0,0,0,0,-1,1959,1765,0,0
742,-741,0,0,0,0,0,0,0,0,0,-1,1966,1765,0,0
749,-741,0,0,0,0,0,0,0,0,0,-1,1973,1765,0,0
756,-741,0,0,0,0,0,0,0,0,0,-1,1980,1765,0,0
763,-741,0,0,0,0,0,0,0,0,0,-1,1987,1765,0,0
770,-741,0,0,0,0,0,0,0,0,0,-1,1994,1765,0,0
777,-741,0,0,0,0,0,0,0,0,0,-1,2001,1765,0,0
784,-741,0,0,0,0,0,0,0,0,0,-1,2008,1765,0,0
791,-741,0,0,0,0,0,0,0,0,0,-1,2015,1765,0,0
798,-741,0,0,0,0,0,0,0,0,0,-1,2022,1765,0,0
805,-741,0,0,0,0,0,0,0,0,0,-1,2029,1765,0,0
812,-741,0,0,0,0,0,0,0,0,0,-1,2036,1765,0,0
-700,-748,0,0,0,0,0,0,0,0,0,-1,524,1772,0,0
-693,-748,0,0,0,0,0,0,0,0,0,-1,531,1772,0,0
-686,-748,0,0,0,0,0,0,0,0,0,-1,538,1772,0,0
-679,-748,0,0,0,0,0,0,0,0,0,-1,545,1772,0,0
-672,-748,0,0,0,0,0,0,0,0,0,-1,552,1772,0,0
-665,-748,0,0,0,0,0,0,0,0,0,-1,559,1772,0,0
-658,-748,0,0,0,0,0,0,0,0,0,-1,566,1772,0,0
-651,-748,0,0,0,0,0,0,0,0,0,-1,573,1772,0,0
-644,-748,0,0,0,0,0,0,0,0,0,-1,580,1772,0,0
-637,-748,0,0,0,0,0,0,0,0,0,-1,587,1772,0,0
-630,-748,0,0,0,0,0,0,0,0,0,-1,594,1772,0,0
-623,-748,0,0,0,0,0,0,0,0,0,-1,601,1772,0,0
-616,-748,0,0,0,0,0,0,0,0,0,-1,608,1772,0,0
-609,-748,0,0,0,0,0,0,0,0,0,-1,615,1772,0,0
-602,-748,0,0,0,0,0,0,0,0,0,-1,622,1772,0,0
-595,-748,0,0,0,0,0,0,0,0,0,-1,629,1772,0,0
-588,-748,0,0,0,0,0,0,0,0,0,-1,636,1772,0,0
-581,-748,0,0,0,0,0,0,0,0,0,-1,643,1772,0,0
-574,-748,0,0,0,0,0,0,0,0,0,-1,650,1772,0,0
-567,-748,0,0,0,0,0,0,0,0,0,-1,657,1772,0,0
-560,-748,0,0,0,0,0,0,0,0,0,-1,664,1772,0,0
-553,-748,0,0,0,0,0,0,0,0,0,-1,671,1772,0,0
-546,-748,0,0,0,0,0,0,0,0,0,-1,678,1772,0,0
-539,-748,0,0,0,0,0,0,0,0,0,-1,685,1772,0,0
-532,-748,0,0,0,0,0,0,0,0,0,-1,692,1772,0,0
-525,-748,0,0,0,0,0,0,0,0,0,-1,699,1772,0,0
-518,-748,0,0,0,0,0,0,0,0,0,-1,706,1772,0,0
-511,-748,0,0,0,0,0,0,0,0,0,-1,713,1772,0,0
-504,-748,0,0,0,0,0,0,0,0,0,-1,720,1772,0,0
-497,-748,0,0,0,0,0,0,0,0,0,-1,727,1772,0,0
-490,-748,0,0,0,0,0,0,0,0,0,-1,734,1772,0,0
-483,-748,0,0,0,0,0,0,0,0,0,-1,741,1772,0,0
-476,-748,0,0,0,0,0,0,0,0,0,-1,748,1772,0,0
-469,-748,0,0,0,0,0,0,0,0,0,-1,755,1772,0,0
-462,-748,0,0,0,0,0,0,0,0,0,-1,762,1772,0,0
-455,-748,0,0,0,0,0,0,0,0,0,-1,769,1772,0,0
-448,-748,0,0,0,0,0,0,0,0,0,-1,776,1772,0,0
-441,-748,0,0,0,0,0,0,0,0,0,-1,783,1772,0,0
-434,-748,0,0,0,0,0,0,0,0,0,-1,790,1772,0,0
-427,-748,0,0,0,0,0,0,0,0,0,-1,797,1772,0,0
-420,-748,0,0,0,0,0,0,0,0,0,-1,804,1772,0,0
-413,-748,0,0,0,0,0,0,0,0,0,-1,811,1772,0,0
-406,-748,0,0,0,0,0,0,0,0,0,-1,818,1772,0,0
-399,-748,0,0,0,0,0,0,0,0,0,-1,825,1772,0,0
-392,-748,0,0,0,0,0,0,0,0,0,-1,832,1772,0,0
-385,-748,0,0,0,0,0,0,0,0,0,-1,839,1772,0,0
-378,-748,0,0,0,0,0,0,0,0,0,-1,846,1772,0,0
-371,-748,0,0,0,0,0,0,0,0,0,-1,853,1772,0,0
-364,-748,0,0,0,0,0,0,0,0,0,-1,860,1772,0,0
-357,-748,0,0,0,0,0,0,0,0,0,-1,867,1772,0,0
-350,-748,0,0,0,0,0,0,0,0,0,-1,874,1772,0,0
-343,-748,0,0,0,0,0,0,0,0,0,-1,881,1772,0,0
-336,-748,0,0,0,0,0,0,0,0,0,-1,888,1772,0,0
-329,-748,0,0,0,0,0,0,0,0,0,-1,895,1772,0,0
-322,-748,0,0,0,0,0,0,0,0,0,-1,902,1772,0,0
-315,-748,0,0,0,0,0,0,0,0,0,-1,909,1772,0,0
-308,-748,0,0,0,0,0,0,0,0,0,-1,916,1772,0,0
-301,-748,0,0,0,0,0,0,0,0,0,-1,923,1772,0,0
-294,-748,0,0,0,0,0,0,0,0,0,-1,930,1772,0,0
-287,-748,0,0,0,0,0,0,0,0,0,-1,937,1772,0,0
-280,-748,0,0,0,0,0,0,0,0,0,-1,944,1772,0,0
-273,-748,0,0,0,0,0,0,0,0,0,-1,951,1772,0,0
-266,-748,0,0,0,0,0,0,0,0,0,-1,958,1772,0,0
-259,-748,0,0,0,0,0,0,0,0,0,-1,965,1772,0,0
-252,-748,0,0,0,0,0,0,0,0,0,-1,972,1772,0,0
-245,-748,0,0,0,0,0,0,0,0,0,-1,979,1772,0,0
-238,-748,0,0,0,0,0,0,0,0,0,-1,986,1772,0,0
-231,-748,0,0,0,0,0,0,0,0,0,-1,993,1772,0,0
-224,-748,0,0,0,0,0,0,0,0,0,-1,1000,1772,0,0
-217,-748,8.97742,29.9884,0,0,0,0,0,0,0,-1,1007,1772,8.97744,-29.9884
-210,-748,8.8941,30.14,0,0,0,0,0,0,0,-1,1014,1772,8.8941,-30.14
-203,-748,7.88,43.3942,0,0,0,0,0,0,0,-1,1021,1772,7.87999,-43.3941
-196,-748,7.95483,43.9952,0,0,0,0,0,0,0,-1,1028,1772,7.95478,-43.9953
-189,-748,8.18359,44.5873,0,0,0,0,0,0,0,-1,1035,1772,8.18358,-44.5873
-182,-748,8.49304,45.5183,0,0,0,0,0,0,0,-1,1042,1772,8.49308,-45.5183
-175,-748,10.4392,50.6167,0,0,0,0,0,0,0,-1,1049,1772,10.4392,-50.6167
-168,-748,9.54541,50.6587,0,0,0,0,0,0,0,-1,1056,1772,9.54547,-50.6586
-161,-748,8.02576,51.5823,0,0,0,0,0,0,0,-1,1063,1772,8.02572,-51.5823
-154,-748,11.4552,48.7113,0,0,0,0,0,0,0,-1,1070,1772,11.4552,-48.7113
-147,-748,11.7789,49.4792,0,0,0,0,0,0,0,-1,1077,1772,11.7789,-49.4793
-140,-748,10.4108,44.9001,0,0,0,0,0,0,0,-1,1084,1772,10.4107,-44.9001
-133,-748,7.44727,22.0308,0,0,0,0,0,0,0,-1,1091,1772,7.44728,-22.0308
-126,-748,5.98035,22.6067,0,0,0,0,0,0,0,-1,1098,1772,5.9803,-22.6067
-119,-748,6.63342,26.309,0,0,0,0,0,0,0,-1,1105,1772,6.6334,-26.3089
-112,-748,6.91333,24.923,0,0,0,0,0,0,0,-1,1112,1772,6.91339,-24.923
-105,-748,6.83313,25.0537,0,0,0,0,0,0,0,-1,1119,1772,6.83311,-25.0537
-98,-748,8.13623,30.8743,0,0,0,0,0,0,0,-1,1126,1772,8.13628,-30.8742
-91,-748,4.85352,15.3033,0,0,0,0,0,0,0,-1,1133,1772,4.85351,-15.3033
-84,-748,-0.192017,7.26196,0,0,0,0,0,0,0,-1,1140,1772,-0.192047,-7.26201
-77,-748,4.42615,13.5537,0,0,0,0,0,0,0,-1,1147,1772,4.4261,-13.5538
-70,-748,4.46191,13.7446,0,0,0,0,0,0,0,-1,1154,1772,4.4619,-13.7446
-63,-748,4.49768,13.9355,0,0,0,0,0,0,0,-1,1161,1772,4.49769,-13.9355
-56,-748,3.05762,7.87817,0,0,0,0,0,0,0,-1,1168,1772,3.05768,-7.87822
-49,-748,3.04102,7.82471,0,0,0,0,0,0,0,-1,1175,1772,3.04096,-7.82468
-42,-748,0.793457,14.9474,0,0,0,0,0,0,0,-1,1182,1772,0.793413,-14.9474
-35,-748,9.74011,68.4877,0,0,0,0,0,0,0,-1,1189,1772,9.74007,-68.4877
-28,-748,9.68506,68.7745,-0.00794983,0.00314337,0.00246995,0.00366846,-0.00847492,1.36132,0.00719172,0.0482494,1196,1772,9.68505,-68.7745
-21,-748,9.57275,68.9758,-0.00861148,0.00320397,0.00181077,0.00347525,-0.00888276,1.42209,0.00735906,0.0234458,1203,1772,9.57275,-68.9758
-14,-748,9.48108,69.1384,-0.0092383,0.00288307,0.00137143,0.0030363,-0.00939153,1.45953,0.00748139,0.0175679,1210,1772,9.48108,-69.1384
-7,-748,9.44263,69.3354,-0.00997418,0.0021642,0.00104652,0.00225376,-0.0100637,1.48542,0.00757304,0.0159366,1217,1772,9.44268,-69.3354
0,-748,9.35999,69.462,-0.010867,0.00156335,0.000969354,0.00163849,-0.0109422,1.49344,0.00789781,0.0156837,1224,1772,9.35995,-69.462
7,-748,9.29089,69.6033,-0.0115872,0.000827938,0.00103247,0.000913215,-0.0116724,1.48839,0.00810321,0.0155167,1231,1772,9.29094,-69.6033
14,-748,9.24988,69.7866,-0.0121798,0.000331856,0.000931051,0.000400761,-0.0122487,1.49692,0.00830261,0.0163404,1238,1772,9.24985,-69.7866
21,-748,9.20605,69.9297,-0.0125509,-0.000296012,0.00103231,-0.000209663,-0.0126373,1.48734,0.00835582,0.0124033,1245,1772,9.2061,-69.9297
28,-748,9.16614,70.0304,-0.0127445,-0.000662936,0.00116885,-0.000550893,-0.0128565,1.47523,0.00839339,0.013033,1252,1772,9.16608,-70.0304
35,-748,9.10388,70.0912,-0.0128383,-0.00108755,0.00123181,-0.000959812,-0.012966,1.46746,0.00834251,0.0136947,1259,1772,9.10388,-70.0912
42,-748,9.06519,70.1504,-0.0127035,-0.00161349,0.00141411,-0.00143601,-0.0128809,1.44595,0.00815089,0.015818,1266,1772,9.06519,-70.1503
49,-748,9.03772,70.1663,-0.01235,-0.00151103,0.00165522,-0.00126389,-0.0125971,1.42258,0.00801008,0.0120263,1273,1772,9.0377,-70.1663
56,-748,8.96338,70.2163,-0.0118633,-0.00145785,0.001888,-0.00112587,-0.0121953,1.39674,0.00778208,0.0111882,1280,1772,8.96343,-70.2163
63,-748,8.91553,70.2179,-0.0112495,-0.000897753,0.00250219,-0.00032466,-0.0118226,1.34564,0.00777578,0.0133643,1287,1772,8.91554,-70.2179
70,-748,8.87317,70.2057,-0.00923169,-0.000784315,0.00358985,0.000535153,-0.0105512,1.21857,0.00721911,0.0151208,1294,1772,8.87314,-70.2057
77,-748,8.81104,70.1627,-0.00664819,-0.000507211,0.00411173,0.00155399,-0.00870939,1.10611,0.00638758,0.0130537,1301,1772,8.81101,-70.1628
84,-748,8.75757,70.1088,-0.00457979,-0.000360013,0.00472443,0.00270425,-0.00764405,0.995406,0.00619734,0.0144742,1308,1772,8.75762,-70.1088
91,-748,8.69397,70.0569,-0.00253292,-0.000206158,0.00525014,0.00400796,-0.00674703,0.894432,0.00627616,0.012733,1315,1772,8.694,-70.0569
98,-748,8.64038,69.9438,-0.000539681,-0.00010247,0.00561658,0.00529975,-0.0059419,0.804849,0.0064939,0.012687,1322,1772,8.6404,-69.9439
105,-748,8.63025,69.7726,0.00147584,-0.000101246,0.00585472,0.00659487,-0.00522028,0.718459,0.00683686,0.0136175,1329,1772,8.63022,-69.7726
112,-748,8.59045,69.6436,0.00316407,-0.000263939,0.00582701,0.00752393,-0.0046238,0.642359,0.00707981,0.0168561,1336,1772,8.59044,-69.6435
119,-748,8.53394,69.4894,0.00408534,-0.000896155,0.00559517,0.00771911,-0.00452993,0.575987,0.00715144,0.0143663,1343,1772,8.53393,-69.4894
126,-748,8.47021,69.3276,0.00477219,-0.00144493,0.00508021,0.00761944,-0.00429219,0.510838,0.00696604,0.015406,1350,1772,8.47015,-69.3277
133,-748,8.39429,69.1365,0.00494534,-0.00218206,0.00436871,0.00701951,-0.00425623,0.443268,0.00657489,0.00970035,1357,1772,8.39426,-69.1364
140,-748,8.3501,68.9359,0.00427573,-0.00262094,0.00350527,0.0057445,-0.00408971,0.396793,0.00570452,0.0127942,1364,1772,8.35004,-68.936
147,-748,8.30969,68.7128,0.00335285,-0.00274437,0.00259226,0.00430597,-0.00369749,0.352337,0.00462525,0.0147887,1371,1772,8.30974,-68.7128
154,-748,8.23572,68.5085,0.00213338,-0.00331488,0.00161336,0.00257529,-0.00375679,0.26735,0.00367698,0.0132263,1378,1772,8.23577,-68.5086
161,-748,8.19617,68.2415,0.000684423,-0.00289436,0.000637693,0.000794656,-0.0030046,0.171171,0.00231389,0.0201379,1385,1772,8.19622,-68.2415
168,-748,8.18164,67.9573,0,0,0,0,0,0,0,-1,1392,1772,8.18159,-67.9573
175,-748,11.6235,16.8242,0,0,0,0,0,0,0,-1,1399,1772,11.6236,-16.8242
182,-748,7.62476,10.3058,0,0,0,0,0,0,0,-1,1406,1772,7.62476,-10.3058
189,-748,6.15857,6.95898,0,0,0,0,0,0,0,-1,1413,1772,6.15862,-6.95896
196,-748,3.9425,8.46021,0,0,0,0,0,0,0,-1,1420,1772,3.9425,-8.46026
203,-748,3.9668,12.9835,0,0,0,0,0,0,0,-1,1427,1772,3.96678,-12.9836
210,-748,4.71472,16.8318,0,0,0,0,0,0,0,-1,1434,1772,4.71471,-16.8317
217,-748,5.38452,21.5551,0,0,0,0,0,0,0,-1,1441,1772,5.38455,-21.555
224,-748,6.14258,25.2345,0,0,0,0,0,0,0,-1,1448,1772,6.14263,-25.2345
231,-748,6.46045,29.7867,0,0,0,0,0,0,0,-1,1455,1772,6.46049,-29.7867
238,-748,7.41565,32.8574,0,0,0,0,0,0,0,-1,1462,1772,7.41562,-32.8574
245,-748,7.84912,32.0914,0,0,0,0,0,0,0,-1,1469,1772,7.84914,-32.0914
252,-748,7.57336,29.4369,0,0,0,0,0,0,0,-1,1476,1772,7.57337,-29.4369
259,-748,9.47351,46.1896,0,0,0,0,0,0,0,-1,1483,1772,9.4735,-46.1895
266,-748,8.36536,48.6908,0,0,0,0,0,0,0,-1,1490,1772,8.36541,-48.6909
273,-748,7.31421,46.6743,0,0,0,0,0,0,0,-1,1497,1772,7.31415,-46.6743
280,-748,8.76538,40.4501,0,0,0,0,0,0,0,-1,1504,1772,8.76537,-40.45
287,-748,14.161,8.32813,0,0,0,0,0,0,0,-1,1511,1772,14.161,-8.32808
294,-748,6.38525,32.4724,0,0,0,0,0,0,0,-1,1518,1772,6.38521,-32.4725
301,-748,5.40393,38.9807,0,0,0,0,0,0,0,-1,1525,1772,5.40397,-38.9807
308,-748,5.95227,37.1827,0,0,0,0,0,0,0,-1,1532,1772,5.95229,-37.1827
315,-748,7.71741,42.637,0,0,0,0,0,0,0,-1,1539,1772,7.71738,-42.637
322,-748,4.26538,29.0557,0,0,0,0,0,0,0,-1,1546,1772,4.26537,-29.0556
329,-748,3.87256,16.1473,0,0,0,0,0,0,0,-1,1553,1772,3.87259,-16.1474
336,-748,4.81006,19.6141,0,0,0,0,0,0,0,-1,1560,1772,4.81011,-19.6141
343,-748,0,0,0,0,0,0,0,0,0,-1,1567,1772,0,0
350,-748,0,0,0,0,0,0,0,0,0,-1,1574,1772,0,0
357,-748,0,0,0,0,0,0,0,0,0,-1,1581,1772,0,0
364,-748,0,0,0,0,0,0,0,0,0,-1,1588,1772,0,0
371,-748,0,0,0,0,0,0,0,0,0,-1,1595,1772,0,0
378,-748,0,0,0,0,0,0,0,0,0,-1,1602,1772,0,0
385,-748,0,0,0,0,0,0,0,0,0,-1,1609,1772,0,0
392,-748,0,0,0,0,0,0,0,0,0,-1,1616,1772,0,0
399,-748,0,0,0,0,0,0,0,0,0,-1,1623,1772,0,0
406,-748,0,0,0,0,0,0,0,0,0,-1,1630,1772,0,0
413,-748,0,0,0,0,0,0,0,0,0,-1,1637,1772,0,0
420,-748,0,0,0,0,0,0,0,0,0,-1,1644,1772,0,0
427,-748,0,0,0,0,0,0,0,0,0,-1,1651,1772,0,0
434,-748,0,0,0,0,0,0,0,0,0,-1,1658,1772,0,0
441,-748,0,0,0,0,0,0,0,0,0,-1,1665,1772,0,0
448,-748,0,0,0,0,0,0,0,0,0,-1,1672,1772,0,0
455,-748,0,0,0,0,0,0,0,0,0,-1,1679,1772,0,0
462,-748,0,0,0,0,0,0,0,0,0,-1,1686,1772,0,0
469,-748,0,0,0,0,0,0,0,0,0,-1,1693,1772,0,0
476,-748,0,0,0,0,0,0,0,0,0,-1,1700,1772,0,0
483,-748,0,0,0,0,0,0,0,0,0,-1,1707,1772,0,0
490,-748,0,0,0,0,0,0,0,0,0,-1,1714,1772,0,0
497,-748,0,0,0,0,0,0,0,0,0,-1,1721,1772,0,0
504,-748,0,0,0,0,0,0,0,0,0,-1,1728,1772,0,0
511,-748,0,0,0,0,0,0,0,0,0,-1,1735,1772,0,0
518,-748,0,0,0,0,0,0,0,0,0,-1,1742,1772,0,0
525,-748,0,0,0,0,0,0,0,0,0,-1,1749,1772,0,0
532,-748,0,0,0,0,0,0,0,0,0,-1,1756,1772,0,0
539,-748,0,0,0,0,0,0,0,0,0,-1,1763,1772,0,0
546,-748,0,0,0,0,0,0,0,0,0,-1,1770,1772,0,0
553,-748,0,0,0,0,0,0,0,0,0,-1,1777,1772,0,0
560,-748,0,0,0,0,0,0,0,0,0,-1,1784,1772,0,0
567,-748,0,0,0,0,0,0,0,0,0,-1,1791,1772,0,0
574,-748,0,0,0,0,0,0,0,0,0,-1,1798,1772,0,0
581,-748,0,0,0,0,0,0,0,0,0,-1,1805,1772,0,0
588,-748,0,0,0,0,0,0,0,0,0,-1,1812,1772,0,0
595,-748,0,0,0,0,0,0,0,0,0,-1,1819,1772,0,0
602,-748,0,0,0,0,0,0,0,0,0,-1,1826,1772,0,0
609,-748,0,0,0,0,0,0,0,0,0,-1,1833,1772,0,0
616,-748,0,0,0,0,0,0,0,0,0,-1,1840,1772,0,0
623,-748,0,0,0,0,0,0,0,0,0,-1,1847,1772,0,0
630,-748,0,0,0,0,0,0,0,0,0,-1,1854,1772,0,0
637,-748,0,0,0,0,0,0,0,0,0,-1,1861,1772,0,0
644,-748,0,0,0,0,0,0,0,0,0,-1,1868,1772,0,0
651,-748,0,0,0,0,0,0,0,0,0,-1,1875,1772,0,0
658,-748,0,0,0,0,0,0,0,0,0,-1,1882,1772,0,0
665,-748,0,0,0,0,0,0,0,0,0,-1,1889,1772,0,0
672,-748,0,0,0,0,0,0,0,0,0,-1,1896,1772,0,0
679,-748,0,0,0,0,0,0,0,0,0,-1,1903,1772,0,0
686,-748,0,0,0,0,0,0,0,0,0,-1,1910,1772,0,0
693,-748,0,0,0,0,0,0,0,0,0,-1,1917,1772,0,0
700,-748,0,0,0,0,0,0,0,0,0,-1,1924,1772,0,0
707,-748,0,0,0,0,0,0,0,0,0,-1,1931,1772,0,0
714,-748,0,0,0,0,0,0,0,0,0,-1,1938,1772,0,0
721,-748,0,0,0,0,0,0,0,0,0,-1,1945,1772,0,0
728,-748,0,0,0,0,0,0,0,0,0,-1,1952,1772,0,0
735,-748,0,0,0,0,0,0,0,0,0,-1,1959,1772,0,0
742,-748,0,0,0,0,0,0,0,0,0,-1,1966,1772,0,0
749,-748,0,0,0,0,0,0,0,0,0,-1,1973,1772,0,0
756,-748,0,0,0,0,0,0,0,0,0,-1,1980,1772,0,0
763,-748,0,0,0,0,0,0,0,0,0,-1,1987,1772,0,0
770,-748,0,0,0,0,0,0,0,0,0,-1,1994,1772,0,0
777,-748,0,0,0,0,0,0,0,0,0,-1,2001,1772,0,0
784,-748,0,0,0,0,0,0,0,0,0,-1,2008,1772,0,0
791,-748,0,0,0,0,0,0,0,0,0,-1,2015,1772,0,0
798,-748,0,0,0,0,0,0,0,0,0,-1,2022,1772,0,0
805,-748,0,0,0,0,0,0,0,0,0,-1,2029,1772,0,0
812,-748,0,0,0,0,0,0,0,0,0,-1,2036,1772,0,0
-700,-755,0,0,0,0,0,0,0,0,0,-1,524,1779,0,0
-693,-755,0,0,0,0,0,0,0,0,0,-1,531,1779,0,0
-686,-755,0,0,0,0,0,0,0,0,0,-1,538,1779,0,0
-679,-755,0,0,0,0,0,0,0,0,0,-1,545,1779,0,0
-672,-755,0,0,0,0,0,0,0,0,0,-1,552,1779,0,0
-665,-755,0,0,0,0,0,0,0,0,0,-1,559,1779,0,0
-658,-755,0,0,0,0,0,0,0,0,0,-1,566,1779,0,0
-651,-755,0,0,0,0,0,0,0,0,0,-1,573,1779,0,0
-644,-755,0,0,0,0,0,0,0,0,0,-1,580,1779,0,0
-637,-755,0,0,0,0,0,0,0,0,0,-1,587,1779,0,0
-630,-755,0,0,0,0,0,0,0,0,0,-1,594,1779,0,0
-623,-755,0,0,0,0,0,0,0,0,0,-1,601,1779,0,0
-616,-755,0,0,0,0,0,0,0,0,0,-1,608,1779,0,0
-609,-755,0,0,0,0,0,0,0,0,0,-1,615,1779,0,0
-602,-755,0,0,0,0,0,0,0,0,0,-1,622,1779,0,0
-595,-755,0,0,0,0,0,0,0,0,0,-1,629,1779,0,0
-588,-755,0,0,0,0,0,0,0,0,0,-1,636,1779,0,0
-581,-755,0,0,0,0,0,0,0,0,0,-1,643,1779,0,0
-574,-755,0,0,0,0,0,0,0,0,0,-1,650,1779,0,0
-567,-755,0,0,0,0,0,0,0,0,0,-1,657,1779,0,0
-560,-755,0,0,0,0,0,0,0,0,0,-1,664,1779,0,0
-553,-755,0,0,0,0,0,0,0,0,0,-1,671,1779,0,0
-546,-755,0,0,0,0,0,0,0,0,0,-1,678,1779,0,0
-539,-755,0,0,0,0,0,0,0,0,0,-1,685,1779,0,0
-532,-755,0,0,0,0,0,0,0,0,0,-1,692,1779,0,0
-525,-755,0,0,0,0,0,0,0,0,0,-1,699,1779,0,0
-518,-755,0,0,0,0,0,0,0,0,0,-1,706,1779,0,0
-511,-755,0,0,0,0,0,0,0,0,0,-1,713,1779,0,0
-504,-755,0,0,0,0,0,0,0,0,0,-1,720,1779,0,0
-497,-755,0,0,0,0,0,0,0,0,0,-1,727,1779,0,0
-490,-755,0,0,0,0,0,0,0,0,0,-1,734,1779,0,0
-483,-755,0,0,0,0,0,0,0,0,0,-1,741,1779,0,0
-476,-755,0,0,0,0,0,0,0,0,0,-1,748,1779,0,0
-469,-755,0,0,0,0,0,0,0,0,0,-1,755,1779,0,0
-462,-755,0,0,0,0,0,0,0,0,0,-1,762,1779,0,0
-455,-755,0,0,0,0,0,0,0,0,0,-1,769,1779,0,0
-448,-755,0,0,0,0,0,0,0,0,0,-1,776,1779,0,0
-441,-755,0,0,0,0,0,0,0,0,0,-1,783,1779,0,0
-434,-755,0,0,0,0,0,0,0,0,0,-1,790,1779,0,0
-427,-755,0,0,0,0,0,0,0,0,0,-1,797,1779,0,0
-420,-755,0,0,0,0,0,0,0,0,0,-1,804,1779,0,0
-413,-755,0,0,0,0,0,0,0,0,0,-1,811,1779,0,0
-406,-755,0,0,0,0,0,0,0,0,0,-1,818,1779,0,0
-399,-755,0,0,0,0,0,0,0,0,0,-1,825,1779,0,0
-392,-755,0,0,0,0,0,0,0,0,0,-1,832,1779,0,0
-385,-755,0,0,0,0,0,0,0,0,0,-1,839,1779,0,0
-378,-755,0,0,0,0,0,0,0,0,0,-1,846,1779,0,0
-371,-755,0,0,0,0,0,0,0,0,0,-1,853,1779,0,0
-364,-755,0,0,0,0,0,0,0,0,0,-1,860,1779,0,0
-357,-755,0,0,0,0,0,0,0,0,0,-1,867,1779,0,0
-350,-755,0,0,0,0,0,0,0,0,0,-1,874,1779,0,0
-343,-755,0,0,0,0,0,0,0,0,0,-1,881,1779,0,0
-336,-755,0,0,0,0,0,0,0,0,0,-1,888,1779,0,0
-329,-755,0,0,0,0,0,0,0,0,0,-1,895,1779,0,0
-322,-755,0,0,0,0,0,0,0,0,0,-1,902,1779,0,0
-315,-755,0,0,0,0,0,0,0,0,0,-1,909,1779,0,0
-308,-755,0,0,0,0,0,0,0,0,0,-1,916,1779,0,0
-301,-755,0,0,0,0,0,0,0,0,0,-1,923,1779,0,0
-294,-755,0,0,0,0,0,0,0,0,0,-1,930,1779,0,0
-287,-755,0,0,0,0,0,0,0,0,0,-1,937,1779,0,0
-280,-755,0,0,0,0,0,0,0,0,0,-1,944,1779,0,0
-273,-755,0,0,0,0,0,0,0,0,0,-1,951,1779,0,0
-266,-755,0,0,0,0,0,0,0,0,0,-1,958,1779,0,0
-259,-755,0,0,0,0,0,0,0,0,0,-1,965,1779,0,0
-252,-755,0,0,0,0,0,0,0,0,0,-1,972,1779,0,0
-245,-755,0,0,0,0,0,0,0,0,0,-1,979,1779,0,0
-238,-755,0,0,0,0,0,0,0,0,0,-1,986,1779,0,0
-231,-755,0,0,0,0,0,0,0,0,0,-1,993,1779,0,0
-224,-755,0,0,0,0,0,0,0,0,0,-1,1000,1779,0,0
-217,-755,0,0,0,0,0,0,0,0,0,-1,1007,1779,0,0
-210,-755,0,0,0,0,0,0,0,0,0,-1,1014,1779,0,0
-203,-755,8.97363,30.5414,0,0,0,0,0,0,0,-1,1021,1779,8.97362,-30.5414
-196,-755,8.08667,43.2203,0,0,0,0,0,0,0,-1,1028,1779,8.08666,-43.2204
-189,-755,0.725098,39.8892,0,0,0,0,0,0,0,-1,1035,1779,0.725055,-39.8891
-182,-755,1.80835,40.9692,0,0,0,0,0,0,0,-1,1042,1779,1.80838,-40.9692
-175,-755,3.04749,41.9612,0,0,0,0,0,0,0,-1,1049,1779,3.0475,-41.9612
-168,-755,4.8302,42.7631,0,0,0,0,0,0,0,-1,1056,1779,4.8302,-42.7631
-161,-755,6.46777,44.0007,0,0,0,0,0,0,0,-1,1063,1779,6.46773,-44.0007
-154,-755,7.71094,44.9023,0,0,0,0,0,0,0,-1,1070,1779,7.71089,-44.9023
-147,-755,-6.45593,10.2422,0,0,0,0,0,0,0,-1,1077,1779,-6.45594,-10.2422
-140,-755,1.33521,21.3856,0,0,0,0,0,0,0,-1,1084,1779,1.33522,-21.3857
-133,-755,2.89417,21.0964,0,0,0,0,0,0,0,-1,1091,1779,2.89422,-21.0964
-126,-755,3.26404,20.9304,0,0,0,0,0,0,0,-1,1098,1779,3.26399,-20.9305
-119,-755,5.17761,21.9325,0,0,0,0,0,0,0,-1,1105,1779,5.17761,-21.9325
-112,-755,5.40247,24.5646,0,0,0,0,0,0,0,-1,1112,1779,5.40244,-24.5646
-105,-755,7.01294,20.1539,0,0,0,0,0,0,0,-1,1119,1779,7.01295,-20.154
-98,-755,5.50708,16.9628,0,0,0,0,0,0,0,-1,1126,1779,5.5071,-16.9628
-91,-755,5.51025,12.0438,0,0,0,0,0,0,0,-1,1133,1779,5.51022,-12.0439
-84,-755,0.169312,8.66443,0,0,0,0,0,0,0,-1,1140,1779,0.16932,-8.66446
-77,-755,-0.0491943,6.87439,0,0,0,0,0,0,0,-1,1147,1779,-0.0491385,-6.87443
-70,-755,4.5686,13.2169,0,0,0,0,0,0,0,-1,1154,1779,4.56865,-13.2169
-63,-755,-1.36316,7.3147,0,0,0,0,0,0,0,-1,1161,1779,-1.36312,-7.31473
-56,-755,0.0483398,5.06079,0,0,0,0,0,0,0,-1,1168,1779,0.0483138,-5.06084
-49,-755,-1.32263,5.33716,0,0,0,0,0,0,0,-1,1175,1779,-1.32264,-5.33718
-42,-755,-2.03613,4.01672,0,0,0,0,0,0,0,-1,1182,1779,-2.0361,-4.01671
-35,-755,-2.72498,2.37476,0,0,0,0,0,0,0,-1,1189,1779,-2.72502,-2.37473
-28,-755,9.80701,68.8242,0,0,0,0,0,0,0,-1,1196,1779,9.80699,-68.8242
-21,-755,9.72412,68.8356,0,0,0,0,0,0,0,-1,1203,1779,9.7241,-68.8356
-14,-755,9.67664,69.0516,-0.0122124,0.00217836,0.00178343,0.00239609,-0.0124301,1.44932,0.00919015,0.0350256,1210,1779,9.67662,-69.0516
-7,-755,9.58655,69.2134,-0.0135505,0.0013033,0.00140332,0.00143472,-0.0136819,1.47742,0.0096352,0.026034,1217,1779,9.58656,-69.2134
0,-755,9.50427,69.3691,-0.015114,0.000647342,0.00134467,0.000761239,-0.0152279,1.4863,0.010415,0.0159916,1224,1779,9.50425,-69.3692
7,-755,9.42102,69.5228,-0.0163206,-0.000172164,0.00145185,-4.26713e-05,-0.0164501,1.48184,0.0109525,0.0145079,1231,1779,9.42097,-69.5229
14,-755,9.40002,69.7164,-0.017307,-0.000654175,0.0013156,-0.000550883,-0.0174103,1.49244,0.0114277,0.0129394,1238,1779,9.39997,-69.7164
21,-755,9.31836,69.8857,-0.0178385,-0.00131547,0.00148392,-0.00118326,-0.0179708,1.48194,0.0116062,0.0178443,1245,1779,9.31833,-69.8858
28,-755,9.24219,69.9489,-0.0180978,-0.00164966,0.0017132,-0.00147311,-0.0182744,1.46811,0.0117228,0.0217643,1252,1779,9.24218,-69.9488
35,-755,9.1908,70.058,-0.0182444,-0.00213058,0.00184814,-0.00192133,-0.0184537,1.45805,0.0117146,0.0218689,1259,1779,9.19082,-70.058
42,-755,9.13733,70.0907,-0.0179975,-0.00274998,0.00213162,-0.00245758,-0.0182899,1.43448,0.0114622,0.0160129,1266,1779,9.13731,-70.0907
49,-755,9.09058,70.087,-0.0174119,-0.00248563,0.00249713,-0.00207895,-0.0178186,1.40935,0.0112503,0.0108446,1273,1779,9.09059,-70.087
56,-755,8.98279,70.1493,-0.0166532,-0.00232859,0.00286605,-0.00177643,-0.0172054,1.38048,0.0109264,0.010482,1280,1779,8.98284,-70.1493
63,-755,8.92578,70.1937,-0.0156868,-0.00157026,0.00374938,-0.000636213,-0.0166208,1.32665,0.0108747,0.0111405,1287,1779,8.92584,-70.1938
70,-755,8.88379,70.1497,-0.0128056,-0.00136072,0.00525475,0.000685921,-0.0148523,1.19939,0.0101379,0.0151874,1294,1779,8.88383,-70.1496
77,-755,8.78015,70.0745,-0.00917989,-0.000921095,0.00598513,0.00222093,-0.0123219,1.08737,0.00904626,0.0146091,1301,1779,8.78012,-70.0745
84,-755,8.70825,70.0355,-0.00625668,-0.000702661,0.00686241,0.00392333,-0.0108827,0.977661,0.00885742,0.0157582,1308,1779,8.70828,-70.0355
91,-755,8.63391,69.9719,-0.00333273,-0.000478122,0.00762736,0.00585433,-0.00966518,0.877893,0.00904979,0.0160569,1315,1779,8.63387,-69.9719
98,-755,8.53845,69.9065,-0.000443542,-0.000300285,0.00817731,0.00780571,-0.00854954,0.789778,0.00944596,0.0171961,1322,1779,8.53839,-69.9065
105,-755,8.48755,69.7642,0.00256031,-0.000296028,0.00858608,0.00983619,-0.00757191,0.702985,0.0100789,0.0204392,1329,1779,8.48757,-69.7642
112,-755,8.41187,69.6023,0.00515887,-0.000508268,0.00866672,0.0114435,-0.00679288,0.627402,0.0106423,0.0263784,1336,1779,8.41182,-69.6023
119,-755,8.35962,69.4292,0.00667516,-0.00142875,0.00842269,0.0119699,-0.00672345,0.561201,0.0109334,0.0265674,1343,1779,8.35962,-69.4292
126,-755,8.35156,69.3735,0.00792424,-0.00228736,0.00780459,0.0121448,-0.00650791,0.495735,0.0109318,0.0283433,1350,1779,8.3515,-69.3735
133,-755,8.20496,69.1821,0.0084845,-0.0034995,0.00689071,0.0116241,-0.00663909,0.427523,0.0106744,0.0293573,1357,1779,8.20502,-69.1821
140,-755,8.03699,69.0065,0.00782117,-0.0043587,0.00572274,0.0100881,-0.00662563,0.377162,0.00971845,0.0373902,1364,1779,8.03697,-69.0065
147,-755,8.08765,68.8107,0.00686295,-0.00479768,0.00454071,0.00842254,-0.00635727,0.330843,0.00856085,0.0379921,1371,1779,8.08765,-68.8106
154,-755,8.02612,68.6296,0.00552839,-0.00594936,0.00325731,0.00638835,-0.00680933,0.258122,0.00762098,0.0368468,1378,1779,8.02617,-68.6297
161,-755,7.96448,68.2834,0,0,0,0,0,0,0,-1,1385,1779,7.9645,-68.2835
168,-755,3.98181,7.35901,0,0,0,0,0,0,0,-1,1392,1779,3.98184,-7.35904
175,-755,8.17065,1.34363,0,0,0,0,0,0,0,-1,1399,1779,8.1706,-1.34368
182,-755,8.09216,2.96924,0,0,0,0,0,0,0,-1,1406,1779,8.09213,-2.9693
189,-755,8.04419,4.68042,0,0,0,0,0,0,0,-1,1413,1779,8.04419,-4.68046
196,-755,7.74841,7.4541,0,0,0,0,0,0,0,-1,1420,1779,7.74842,-7.45405
203,-755,4.80554,6.88696,0,0,0,0,0,0,0,-1,1427,1779,4.80554,-6.88697
210,-755,25.1694,7.35693,0,0,0,0,0,0,0,-1,1434,1779,25.1694,-7.35688
217,-755,5.01648,16.411,0,0,0,0,0,0,0,-1,1441,1779,5.01646,-16.411
224,-755,5.18103,22.6283,0,0,0,0,0,0,0,-1,1448,1779,5.18101,-22.6283
231,-755,5.7489,30.15,0,0,0,0,0,0,0,-1,1455,1779,5.74885,-30.15
238,-755,6.56323,29.2726,0,0,0,0,0,0,0,-1,1462,1779,6.56327,-29.2726
245,-755,8.29639,28.2113,0,0,0,0,0,0,0,-1,1469,1779,8.29639,-28.2113
252,-755,6.8877,28.8699,0,0,0,0,0,0,0,-1,1476,1779,6.88774,-28.8698
259,-755,6.42676,30.8574,0,0,0,0,0,0,0,-1,1483,1779,6.42677,-30.8575
266,-755,17.255,7.86096,0,0,0,0,0,0,0,-1,1490,1779,17.255,-7.86092
273,-755,15.7932,7.59778,0,0,0,0,0,0,0,-1,1497,1779,15.7932,-7.59777
280,-755,14.6255,7.34802,0,0,0,0,0,0,0,-1,1504,1779,14.6254,-7.34806
287,-755,13.8279,7.83105,0,0,0,0,0,0,0,-1,1511,1779,13.8279,-7.83104
294,-755,12.5695,7.96814,0,0,0,0,0,0,0,-1,1518,1779,12.5694,-7.9682
301,-755,11.2659,8.27087,0,0,0,0,0,0,0,-1,1525,1779,11.2658,-8.27087
308,-755,5.17737,37.2896,0,0,0,0,0,0,0,-1,1532,1779,5.17742,-37.2896
315,-755,0.828613,31.032,0,0,0,0,0,0,0,-1,1539,1779,0.828668,-31.032
322,-755,0,0,0,0,0,0,0,0,0,-1,1546,1779,0,0
329,-755,0,0,0,0,0,0,0,0,0,-1,1553,1779,0,0
336,-755,0,0,0,0,0,0,0,0,0,-1,1560,1779,0,0
343,-755,0,0,0,0,0,0,0,0,0,-1,1567,1779,0,0
350,-755,0,0,0,0,0,0,0,0,0,-1,1574,1779,0,0
357,-755,0,0,0,0,0,0,0,0,0,-1,1581,1779,0,0
364,-755,0,0,0,0,0,0,0,0,0,-1,1588,1779,0,0
371,-755,0,0,0,0,0,0,0,0,0,-1,1595,1779,0,0
378,-755,0,0,0,0,0,0,0,0,0,-1,1602,1779,0,0
385,-755,0,0,0,0,0,0,0,0,0,-1,1609,1779,0,0
392,-755,0,0,0,0,0,0,0,0,0,-1,1616,1779,0,0
399,-755,0,0,0,0,0,0,0,0,0,-1,1623,1779,0,0
406,-755,0,0,0,0,0,0,0,0,0,-1,1630,1779,0,0
413,-755,0,0,0,0,0,0,0,0,0,-1,1637,1779,0,0
420,-755,0,0,0,0,0,0,0,0,0,-1,1644,1779,0,0
427,-755,0,0,0,0,0,0,0,0,0,-1,1651,1779,0,0
434,-755,0,0,0,0,0,0,0,0,0,-1,1658,1779,0,0
441,-755,0,0,0,0,0,0,0,0,0,-1,1665,1779,0,0
448,-755,0,0,0,0,0,0,0,0,0,-1,1672,1779,0,0
455,-755,0,0,0,0,0,0,0,0,0,-1,1679,1779,0,0
462,-755,0,0,0,0,0,0,0,0,0,-1,1686,1779,0,0
469,-755,0,0,0,0,0,0,0,0,0,-1,1693,1779,0,0
476,-755,0,0,0,0,0,0,0,0,0,-1,1700,1779,0,0
483,-755,0,0,0,0,0,0,0,0,0,-1,1707,1779,0,0
490,-755,0,0,0,0,0,0,0,0,0,-1,1714,1779,0,0
497,-755,0,0,0,0,0,0,0,0,0,-1,1721,1779,0,0
504,-755,0,0,0,0,0,0,0,0,0,-1,1728,1779,0,0
511,-755,0,0,0,0,0,0,0,0,0,-1,1735,1779,0,0
518,-755,0,0,0,0,0,0,0,0,0,-1,1742,1779,0,0
525,-755,0,0,0,0,0,0,0,0,0,-1,1749,1779,0,0
532,-755,0,0,0,0,0,0,0,0,0,-1,1756,1779,0,0
539,-755,0,0,0,0,0,0,0,0,0,-1,1763,1779,0,0
546,-755,0,0,0,0,0,0,0,0,0,-1,1770,1779,0,0
553,-755,0,0,0,0,0,0,0,0,0,-1,1777,1779,0,0
560,-755,0,0,0,0,0,0,0,0,0,-1,1784,1779,0,0
567,-755,0,0,0,0,0,0,0,0,0,-1,1791,1779,0,0
574,-755,0,0,0,0,0,0,0,0,0,-1,1798,1779,0,0
581,-755,0,0,0,0,0,0,0,0,0,-1,1805,1779,0,0
588,-755,0,0,0,0,0,0,0,0,0,-1,1812,1779,0,0
595,-755,0,0,0,0,0,0,0,0,0,-1,1819,1779,0,0
602,-755,0,0,0,0,0,0,0,0,0,-1,1826,1779,0,0
609,-755,0,0,0,0,0,0,0,0,0,-1,1833,1779,0,0
616,-755,0,0,0,0,0,0,0,0,0,-1,1840,1779,0,0
623,-755,0,0,0,0,0,0,0,0,0,-1,1847,1779,0,0
630,-755,0,0,0,0,0,0,0,0,0,-1,1854,1779,0,0
637,-755,0,0,0,0,0,0,0,0,0,-1,1861,1779,0,0
644,-755,0,0,0,0,0,0,0,0,0,-1,1868,1779,0,0
651,-755,0,0,0,0,0,0,0,0,0,-1,1875,1779,0,0
658,-755,0,0,0,0,0,0,0,0,0,-1,1882,1779,0,0
665,-755,0,0,0,0,0,0,0,0,0,-1,1889,1779,0,0
672,-755,0,0,0,0,0,0,0,0,0,-1,1896,1779,0,0
679,-755,0,0,0,0,0,0,0,0,0,-1,1903,1779,0,0
686,-755,0,0,0,0,0,0,0,0,0,-1,1910,1779,0,0
693,-755,0,0,0,0,0,0,0,0,0,-1,1917,1779,0,0
700,-755,0,0,0,0,0,0,0,0,0,-1,1924,1779,0,0
707,-755,0,0,0,0,0,0,0,0,0,-1,1931,1779,0,0
714,-755,0,0,0,0,0,0,0,0,0,-1,1938,1779,0,0
721,-755,0,0,0,0,0,0,0,0,0,-1,1945,1779,0,0
728,-755,0,0,0,0,0,0,0,0,0,-1,1952,1779,0,0
735,-755,0,0,0,0,0,0,0,0,0,-1,1959,1779,0,0
742,-755,0,0,0,0,0,0,0,0,0,-1,1966,1779,0,0
749,-755,0,0,0,0,0,0,0,0,0,-1,1973,1779,0,0
756,-755,0,0,0,0,0,0,0,0,0,-1,1980,1779,0,0
763,-755,0,0,0,0,0,0,0,0,0,-1,1987,1779,0,0
770,-755,0,0,0,0,0,0,0,0,0,-1,1994,1779,0,0
777,-755,0,0,0,0,0,0,0,0,0,-1,2001,1779,0,0
784,-755,0,0,0,0,0,0,0,0,0,-1,2008,1779,0,0
791,-755,0,0,0,0,0,0,0,0,0,-1,2015,1779,0,0
798,-755,0,0,0,0,0,0,0,0,0,-1,2022,1779,0,0
805,-755,0,0,0,0,0,0,0,0,0,-1,2029,1779,0,0
812,-755,0,0,0,0,0,0,0,0,0,-1,2036,1779,0,0
-700,-762,0,0,0,0,0,0,0,0,0,-1,524,1786,0,0
-693,-762,0,0,0,0,0,0,0,0,0,-1,531,1786,0,0
-686,-762,0,0,0,0,0,0,0,0,0,-1,538,1786,0,0
-679,-762,0,0,0,0,0,0,0,0,0,-1,545,1786,0,0
-672,-762,0,0,0,0,0,0,0,0,0,-1,552,1786,0,0
-665,-762,0,0,0,0,0,0,0,0,0,-1,559,1786,0,0
-658,-762,0,0,0,0,0,0,0,0,0,-1,566,1786,0,0
-651,-762,0,0,0,0,0,0,0,0,0,-1,573,1786,0,0
-644,-762,0,0,0,0,0,0,0,0,0,-1,580,1786,0,0
-637,-762,0,0,0,0,0,0,0,0,0,-1,587,1786,0,0
-630,-762,0,0,0,0,0,0,0,0,0,-1,594,1786,0,0
-623,-762,0,0,0,0,0,0,0,0,0,-1,601,1786,0,0
-616,-762,0,0,0,0,0,0,0,0,0,-1,608,1786,0,0
-609,-762,0,0,0,0,0,0,0,0,0,-1,615,1786,0,0
-602,-762,0,0,0,0,0,0,0,0,0,-1,622,1786,0,0
-595,-762,0,0,0,0,0,0,0,0,0,-1,629,1786,0,0
-588,-762,0,0,0,0,0,0,0,0,0,-1,636,1786,0,0
-581,-762,0,0,0,0,0,0,0,0,0,-1,643,1786,0,0
-574,-762,0,0,0,0,0,0,0,0,0,-1,650,1786,0,0
-567,-762,0,0,0,0,0,0,0,0,0,-1,657,1786,0,0
-560,-762,0,0,0,0,0,0,0,0,0,-1,664,1786,0,0
-553,-762,0,0,0,0,0,0,0,0,0,-1,671,1786,0,0
-546,-762,0,0,0,0,0,0,0,0,0,-1,678,1786,0,0
-539,-762,0,0,0,0,0,0,0,0,0,-1,685,1786,0,0
-532,-762,0,0,0,0,0,0,0,0,0,-1,692,1786,0,0
-525,-762,0,0,0,0,0,0,0,0,0,-1,699,1786,0,0
-518,-762,0,0,0,0,0,0,0,0,0,-1,706,1786,0,0
-511,-762,0,0,0,0,0,0,0,0,0,-1,713,1786,0,0
-504,-762,0,0,0,0,0,0,0,0,0,-1,720,1786,0,0
-497,-762,0,0,0,0,0,0,0,0,0,-1,727,1786,0,0
-490,-762,0,0,0,0,0,0,0,0,0,-1,734,1786,0,0
-483,-762,0,0,0,0,0,0,0,0,0,-1,741,1786,0,0
-476,-762,0,0,0,0,0,0,0,0,0,-1,748,1786,0,0
-469,-762,0,0,0,0,0,0,0,0,0,-1,755,1786,0,0
-462,-762,0,0,0,0,0,0,0,0,0,-1,762,1786,0,0
-455,-762,0,0,0,0,0,0,0,0,0,-1,769,1786,0,0
-448,-762,0,0,0,0,0,0,0,0,0,-1,776,1786,0,0
-441,-762,0,0,0,0,0,0,0,0,0,-1,783,1786,0,0
-434,-762,0,0,0,0,0,0,0,0,0,-1,790,1786,0,0
-427,-762,0,0,0,0,0,0,0,0,0,-1,797,1786,0,0
-420,-762,0,0,0,0,0,0,0,0,0,-1,804,1786,0,0
-413,-762,0,0,0,0,0,0,0,0,0,-1,811,1786,0,0
-406,-762,0,0,0,0,0,0,0,0,0,-1,818,1786,0,0
-399,-762,0,0,0,0,0,0,0,0,0,-1,825,1786,0,0
-392,-762,0,0,0,0,0,0,0,0,0,-1,832,1786,0,0
-385,-762,0,0,0,0,0,0,0,0,0,-1,839,1786,0,0
-378,-762,0,0,0,0,0,0,0,0,0,-1,846,1786,0,0
-371,-762,0,0,0,0,0,0,0,0,0,-1,853,1786,0,0
-364,-762,0,0,0,0,0,0,0,0,0,-1,860,1786,0,0
-357,-762,0,0,0,0,0,0,0,0,0,-1,867,1786,0,0
-350,-762,0,0,0,0,0,0,0,0,0,-1,874,1786,0,0
-343,-762,0,0,0,0,0,0,0,0,0,-1,881,1786,0,0
-336,-762,0,0,0,0,0,0,0,0,0,-1,888,1786,0,0
-329,-762,0,0,0,0,0,0,0,0,0,-1,895,1786,0,0
-322,-762,0,0,0,0,0,0,0,0,0,-1,902,1786,0,0
-315,-762,0,0,0,0,0,0,0,0,0,-1,909,1786,0,0
-308,-762,0,0,0,0,0,0,0,0,0,-1,916,1786,0,0
-301,-762,0,0,0,0,0,0,0,0,0,-1,923,1786,0,0
-294,-762,0,0,0,0,0,0,0,0,0,-1,930,1786,0,0
-287,-762,0,0,0,0,0,0,0,0,0,-1,937,1786,0,0
-280,-762,0,0,0,0,0,0,0,0,0,-1,944,1786,0,0
-273,-762,0,0,0,0,0,0,0,0,0,-1,951,1786,0,0
-266,-762,0,0,0,0,0,0,0,0,0,-1,958,1786,0,0
-259,-762,0,0,0,0,0,0,0,0,0,-1,965,1786,0,0
-252,-762,0,0,0,0,0,0,0,0,0,-1,972,1786,0,0
-245,-762,0,0,0,0,0,0,0,0,0,-1,979,1786,0,0
-238,-762,0,0,0,0,0,0,0,0,0,-1,986,1786,0,0
-231,-762,0,0,0,0,0,0,0,0,0,-1,993,1786,0,0
-224,-762,0,0,0,0,0,0,0,0,0,-1,1000,1786,0,0
-217,-762,0,0,0,0,0,0,0,0,0,-1,1007,1786,0,0
-210,-762,0,0,0,0,0,0,0,0,0,-1,1014,1786,0,0
-203,-762,0,0,0,0,0,0,0,0,0,-1,1021,1786,0,0
-196,-762,0,0,0,0,0,0,0,0,0,-1,1028,1786,0,0
-189,-762,0,0,0,0,0,0,0,0,0,-1,1035,1786,0,0
-182,-762,4.44226,13.2462,0,0,0,0,0,0,0,-1,1042,1786,4.44227,-13.2462
-175,-762,1.14465,40.1932,0,0,0,0,0,0,0,-1,1049,1786,1.1447,-40.1932
-168,-762,3.26794,41.3881,0,0,0,0,0,0,0,-1,1056,1786,3.26794,-41.388
-161,-762,-3.29077,11.9508,0,0,0,0,0,0,0,-1,1063,1786,-3.29076,-11.9508
-154,-762,-4.55823,11.1176,0,0,0,0,0,0,0,-1,1070,1786,-4.55828,-11.1175
-147,-762,-6.52454,9.41418,0,0,0,0,0,0,0,-1,1077,1786,-6.52458,-9.41419
-140,-762,4.99792,5.28589,0,0,0,0,0,0,0,-1,1084,1786,4.99793,-5.28587
-133,-762,0.689819,19.2172,0,0,0,0,0,0,0,-1,1091,1786,0.689867,-19.2171
-126,-762,1.48743,19.9288,0,0,0,0,0,0,0,-1,1098,1786,1.48738,-19.9289
-119,-762,2.65637,20.208,0,0,0,0,0,0,0,-1,1105,1786,2.65632,-20.208
-112,-762,6.84705,25.5554,0,0,0,0,0,0,0,-1,1112,1786,6.84706,-25.5554
-105,-762,5.57947,21.618,0,0,0,0,0,0,0,-1,1119,1786,5.57948,-21.618
-98,-762,5.0636,17.9901,0,0,0,0,0,0,0,-1,1126,1786,5.06361,-17.9901
-91,-762,4.54773,14.3622,0,0,0,0,0,0,0,-1,1133,1786,4.54774,-14.3622
-84,-762,3.96375,10.4547,0,0,0,0,0,0,0,-1,1140,1786,3.96371,-10.4548
-77,-762,0.305054,8.49365,0,0,0,0,0,0,0,-1,1147,1786,0.305008,-8.49362
-70,-762,0.183716,6.74622,0,0,0,0,0,0,0,-1,1154,1786,0.183696,-6.74621
-63,-762,-0.883057,9.08813,0,0,0,0,0,0,0,-1,1161,1786,-0.88311,-9.08808
-56,-762,-0.578979,5.10254,0,0,0,0,0,0,0,-1,1168,1786,-0.578951,-5.10249
-49,-762,-2.04541,3.66321,0,0,0,0,0,0,0,-1,1175,1786,-2.0454,-3.66319
-42,-762,-2.23462,3.474,0,0,0,0,0,0,0,-1,1182,1786,-2.23459,-3.47399
-35,-762,-3.28992,1.68164,0,0,0,0,0,0,0,-1,1189,1786,-3.28998,-1.68164
-28,-762,-3.75378,1.37769,0,0,0,0,0,0,0,-1,1196,1786,-3.75373,-1.37767
-21,-762,10.1432,68.8326,0,0,0,0,0,0,0,-1,1203,1786,10.1432,-68.8327
-14,-762,9.86096,68.9825,0,0,0,0,0,0,0,-1,1210,1786,9.86098,-68.9825
-7,-762,9.69141,69.0707,0,0,0,0,0,0,0,-1,1217,1786,9.69137,-69.0707
0,-762,9.69019,69.3051,-0.0200954,-0.00137333,0.00188869,-0.0011847,-0.020284,1.47125,0.0131456,0.0393243,1224,1786,9.69018,-69.3051
7,-762,9.61255,69.4797,-0.0219135,-0.00223233,0.00204837,-0.0020214,-0.0221244,1.46818,0.0141241,0.0239499,1231,1786,9.61254,-69.4797
14,-762,9.34644,69.538,0,0,0,0,0,0,0,-1,1238,1786,9.34643,-69.5379
21,-762,9.22668,69.6915,0,0,0,0,0,0,0,-1,1245,1786,9.22672,-69.6915
28,-762,9.10706,69.845,0,0,0,0,0,0,0,-1,1252,1786,9.10701,-69.845
35,-762,9.22571,69.999,0,0,0,0,0,0,0,-1,1259,1786,9.22574,-69.999
42,-762,9.13721,70.0734,0,0,0,0,0,0,0,-1,1266,1786,9.13721,-70.0733
49,-762,9.12085,70.1653,-0.0231785,-0.00416078,0.00369259,-0.00346897,-0.0238703,1.38559,0.0148925,0.0434631,1273,1786,9.12083,-70.1653
56,-762,9.06213,70.2009,-0.0220208,-0.00383576,0.00425025,-0.00289142,-0.0229652,1.35216,0.0144431,0.0331711,1280,1786,9.06208,-70.201
63,-762,8.98608,70.2118,-0.0205575,-0.00284051,0.00546838,-0.00128862,-0.0221094,1.29427,0.0143294,0.0312468,1287,1786,8.98607,-70.2118
70,-762,8.86816,70.1842,-0.0166162,-0.00251216,0.00745956,0.000701101,-0.0198295,1.16406,0.0134594,0.032031,1294,1786,8.86819,-70.1842
77,-762,8.73718,70.027,-0.0117295,-0.00187926,0.00844131,0.00296867,-0.0165774,1.04948,0.0121625,0.0415294,1301,1786,8.73716,-70.027
84,-762,8.66565,69.9808,0,0,0,0,0,0,0,-1,1308,1786,8.66566,-69.9808
91,-762,8.65747,69.8322,0,0,0,0,0,0,0,-1,1315,1786,8.65744,-69.8322
98,-762,8.37231,69.8221,0,0,0,0,0,0,0,-1,1322,1786,8.37231,-69.8222
105,-762,8.31909,69.678,0,0,0,0,0,0,0,-1,1329,1786,8.3191,-69.6779
112,-762,8.02136,69.4792,0.00829094,-0.0012302,0.0123964,0.0168094,-0.00974867,0.602067,0.0155129,0.0492914,1336,1786,8.02132,-69.4793
119,-762,7.9751,69.708,0.0106431,-0.00248601,0.0121676,0.017904,-0.00974696,0.538021,0.0161942,0.0495966,1343,1786,7.97512,-69.708
126,-762,8.15686,69.5675,0.0127098,-0.00367356,0.0114812,0.0186221,-0.00958584,0.475538,0.0165621,0.0493621,1350,1786,8.15687,-69.5675
133,-762,8.34351,69.2657,0.0138857,-0.00539688,0.0103739,0.0184068,-0.00991794,0.410992,0.0165963,0.0480414,1357,1786,8.34356,-69.2657
140,-762,8.0481,69.176,0.0133611,-0.00669524,0.00886548,0.016718,-0.0100522,0.361968,0.0156147,0.0454174,1364,1786,8.04813,-69.1761
147,-762,7.84009,68.8618,0.0125063,-0.0074431,0.00742973,0.0149693,-0.00990607,0.320101,0.0144606,0.0453064,1371,1786,7.84004,-68.8619
154,-762,7.72668,68.8322,0,0,0,0,0,0,0,-1,1378,1786,7.72669,-68.8321
161,-762,8.65051,34.8102,0,0,0,0,0,0,0,-1,1385,1786,8.65054,-34.8101
168,-762,8.19287,0.880615,0,0,0,0,0,0,0,-1,1392,1786,8.19291,-0.880603
175,-762,8.33997,1.95947,0,0,0,0,0,0,0,-1,1399,1786,8.33997,-1.95942
182,-762,8.28418,3.56482,0,0,0,0,0,0,0,-1,1406,1786,8.28415,-3.56485
189,-762,8.21179,5.23389,0,0,0,0,0,0,0,-1,1413,1786,8.21183,-5.23383
196,-762,8.05969,6.95483,0,0,0,0,0,0,0,-1,1420,1786,8.05972,-6.9548
203,-762,24.0077,7.10425,0,0,0,0,0,0,0,-1,1427,1786,24.0077,-7.10426
210,-762,23.8073,7.6499,0,0,0,0,0,0,0,-1,1434,1786,23.8073,-7.64987
217,-762,23.3193,8.24426,0,0,0,0,0,0,0,-1,1441,1786,23.3194,-8.2442
224,-762,2.65149,20.6106,0,0,0,0,0,0,0,-1,1448,1786,2.65153,-20.6106
231,-762,5.46655,23.521,0,0,0,0,0,0,0,-1,1455,1786,5.46653,-23.521
238,-762,5.35632,29.7203,0,0,0,0,0,0,0,-1,1462,1786,5.35629,-29.7203
245,-762,6.93054,27.8312,0,0,0,0,0,0,0,-1,1469,1786,6.93058,-27.8312
252,-762,6.20215,28.3027,0,0,0,0,0,0,0,-1,1476,1786,6.20211,-28.3027
259,-762,5.46472,28.8762,0,0,0,0,0,0,0,-1,1483,1786,5.46476,-28.8762
266,-762,16.451,7.67773,0,0,0,0,0,0,0,-1,1490,1786,16.4511,-7.67773
273,-762,15.287,7.5304,0,0,0,0,0,0,0,-1,1497,1786,15.2869,-7.53044
280,-762,14.1501,7.38379,0,0,0,0,0,0,0,-1,1504,1786,14.1502,-7.38376
287,-762,12.6891,7.99133,0,0,0,0,0,0,0,-1,1511,1786,12.6891,-7.99135
294,-762,12.6959,8.30371,0,0,0,0,0,0,0,-1,1518,1786,12.6959,-8.30368
301,-762,11.4222,8.84143,0,0,0,0,0,0,0,-1,1525,1786,11.4223,-8.84149
308,-762,0,0,0,0,0,0,0,0,0,-1,1532,1786,0,0
315,-762,0,0,0,0,0,0,0,0,0,-1,1539,1786,0,0
322,-762,0,0,0,0,0,0,0,0,0,-1,1546,1786,0,0
329,-762,0,0,0,0,0,0,0,0,0,-1,1553,1786,0,0
336,-762,0,0,0,0,0,0,0,0,0,-1,1560,1786,0,0
343,-762,0,0,0,0,0,0,0,0,0,-1,1567,1786,0,0
350,-762,0,0,0,0,0,0,0,0,0,-1,1574,1786,0,0
357,-762,0,0,0,0,0,0,0,0,0,-1,1581,1786,0,0
364,-762,0,0,0,0,0,0,0,0,0,-1,1588,1786,0,0
371,-762,0,0,0,0,0,0,0,0,0,-1,1595,1786,0,0
378,-762,0,0,0,0,0,0,0,0,0,-1,1602,1786,0,0
385,-762,0,0,0,0,0,0,0,0,0,-1,1609,1786,0,0
392,-762,0,0,0,0,0,0,0,0,0,-1,1616,1786,0,0
399,-762,0,0,0,0,0,0,0,0,0,-1,1623,1786,0,0
406,-762,0,0,0,0,0,0,0,0,0,-1,1630,1786,0,0
413,-762,0,0,0,0,0,0,0,0,0,-1,1637,1786,0,0
420,-762,0,0,0,0,0,0,0,0,0,-1,1644,1786,0,0
427,-762,0,0,0,0,0,0,0,0,0,-1,1651,1786,0,0
434,-762,0,0,0,0,0,0,0,0,0,-1,1658,1786,0,0
441,-762,0,0,0,0,0,0,0,0,0,-1,1665,1786,0,0
448,-762,0,0,0,0,0,0,0,0,0,-1,1672,1786,0,0
455,-762,0,0,0,0,0,0,0,0,0,-1,1679,1786,0,0
462,-762,0,0,0,0,0,0,0,0,0,-1,1686,1786,0,0
469,-762,0,0,0,0,0,0,0,0,0,-1,1693,1786,0,0
476,-762,0,0,0,0,0,0,0,0,0,-1,1700,1786,0,0
483,-762,0,0,0,0,0,0,0,0,0,-1,1707,1786,0,0
490,-762,0,0,0,0,0,0,0,0,0,-1,1714,1786,0,0
497,-762,0,0,0,0,0,0,0,0,0,-1,1721,1786,0,0
504,-762,0,0,0,0,0,0,0,0,0,-1,1728,1786,0,0
511,-762,0,0,0,0,0,0,0,0,0,-1,1735,1786,0,0
518,-762,0,0,0,0,0,0,0,0,0,-1,1742,1786,0,0
525,-762,0,0,0,0,0,0,0,0,0,-1,1749,1786,0,0
532,-762,0,0,0,0,0,0,0,0,0,-1,1756,1786,0,0
539,-762,0,0,0,0,0,0,0,0,0,-1,1763,1786,0,0
546,-762,0,0,0,0,0,0,0,0,0,-1,1770,1786,0,0
553,-762,0,0,0,0,0,0,0,0,0,-1,1777,1786,0,0
560,-762,0,0,0,0,0,0,0,0,0,-1,1784,1786,0,0
567,-762,0,0,0,0,0,0,0,0,0,-1,1791,1786,0,0
574,-762,0,0,0,0,0,0,0,0,0,-1,1798,1786,0,0
581,-762,0,0,0,0,0,0,0,0,0,-1,1805,1786,0,0
588,-762,0,0,0,0,0,0,0,0,0,-1,1812,1786,0,0
595,-762,0,0,0,0,0,0,0,0,0,-1,1819,1786,0,0
602,-762,0,0,0,0,0,0,0,0,0,-1,1826,1786,0,0
609,-762,0,0,0,0,0,0,0,0,0,-1,1833,1786,0,0
616,-762,0,0,0,0,0,0,0,0,0,-1,1840,1786,0,0
623,-762,0,0,0,0,0,0,0,0,0,-1,1847,1786,0,0
630,-762,0,0,0,0,0,0,0,0,0,-1,1854,1786,0,0
637,-762,0,0,0,0,0,0,0,0,0,-1,1861,1786,0,0
644,-762,0,0,0,0,0,0,0,0,0,-1,1868,1786,0,0
651,-762,0,0,0,0,0,0,0,0,0,-1,1875,1786,0,0
658,-762,0,0,0,0,0,0,0,0,0,-1,1882,1786,0,0
665,-762,0,0,0,0,0,0,0,0,0,-1,1889,1786,0,0
672,-762,0,0,0,0,0,0,0,0,0,-1,1896,1786,0,0
679,-762,0,0,0,0,0,0,0,0,0,-1,1903,1786,0,0
686,-762,0,0,0,0,0,0,0,0,0,-1,1910,1786,0,0
693,-762,0,0,0,0,0,0,0,0,0,-1,1917,1786,0,0
700,-762,0,0,0,0,0,0,0,0,0,-1,1924,1786,0,0
707,-762,0,0,0,0,0,0,0,0,0,-1,1931,1786,0,0
714,-762,0,0,0,0,0,0,0,0,0,-1,1938,1786,0,0
721,-762,0,0,0,0,0,0,0,0,0,-1,1945,1786,0,0
728,-762,0,0,0,0,0,0,0,0,0,-1,1952,1786,0,0
735,-762,0,0,0,0,0,0,0,0,0,-1,1959,1786,0,0
742,-762,0,0,0,0,0,0,0,0,0,-1,1966,1786,0,0
749,-762,0,0,0,0,0,0,0,0,0,-1,1973,1786,0,0
756,-762,0,0,0,0,0,0,0,0,0,-1,1980,1786,0,0
763,-762,0,0,0,0,0,0,0,0,0,-1,1987,1786,0,0
770,-762,0,0,0,0,0,0,0,0,0,-1,1994,1786,0,0
777,-762,0,0,0,0,0,0,0,0,0,-1,2001,1786,0,0
784,-762,0,0,0,0,0,0,0,0,0,-1,2008,1786,0,0
791,-762,0,0,0,0,0,0,0,0,0,-1,2015,1786,0,0
798,-762,0,0,0,0,0,0,0,0,0,-1,2022,1786,0,0
805,-762,0,0,0,0,0,0,0,0,0,-1,2029,1786,0,0
812,-762,0,0,0,0,0,0,0,0,0,-1,2036,1786,0,0
-700,-769,0,0,0,0,0,0,0,0,0,-1,524,1793,0,0
-693,-769,0,0,0,0,0,0,0,0,0,-1,531,1793,0,0
-686,-769,0,0,0,0,0,0,0,0,0,-1,538,1793,0,0
-679,-769,0,0,0,0,0,0,0,0,0,-1,545,1793,0,0
-672,-769,0,0,0,0,0,0,0,0,0,-1,552,1793,0,0
-665,-769,0,0,0,0,0,0,0,0,0,-1,559,1793,0,0
-658,-769,0,0,0,0,0,0,0,0,0,-1,566,1793,0,0
-651,-769,0,0,0,0,0,0,0,0,0,-1,573,1793,0,0
-644,-769,0,0,0,0,0,0,0,0,0,-1,580,1793,0,0
-637,-769,0,0,0,0,0,0,0,0,0,-1,587,1793,0,0
-630,-769,0,0,0,0,0,0,0,0,0,-1,594,1793,0,0
-623,-769,0,0,0,0,0,0,0,0,0,-1,601,1793,0,0
-616,-769,0,0,0,0,0,0,0,0,0,-1,608,1793,0,0
-609,-769,0,0,0,0,0,0,0,0,0,-1,615,1793,0,0
-602,-769,0,0,0,0,0,0,0,0,0,-1,622,1793,0,0
-595,-769,0,0,0,0,0,0,0,0,0,-1,629,1793,0,0
-588,-769,0,0,0,0,0,0,0,0,0,-1,636,1793,0,0
-581,-769,0,0,0,0,0,0,0,0,0,-1,643,1793,0,0
-574,-769,0,0,0,0,0,0,0,0,0,-1,650,1793,0,0
-567,-769,0,0,0,0,0,0,0,0,0,-1,657,1793,0,0
-560,-769,0,0,0,0,0,0,0,0,0,-1,664,1793,0,0
-553,-769,0,0,0,0,0,0,0,0,0,-1,671,1793,0,0
-546,-769,0,0,0,0,0,0,0,0,0,-1,678,1793,0,0
-539,-769,0,0,0,0,0,0,0,0,0,-1,685,1793,0,0
-532,-769,0,0,0,0,0,0,0,0,0,-1,692,1793,0,0
-525,-769,0,0,0,0,0,0,0,0,0,-1,699,1793,0,0
-518,-769,0,0,0,0,0,0,0,0,0,-1,706,1793,0,0
-511,-769,0,0,0,0,0,0,0,0,0,-1,713,1793,0,0
-504,-769,0,0,0,0,0,0,0,0,0,-1,720,1793,0,0
-497,-769,0,0,0,0,0,0,0,0,0,-1,727,1793,0,0
-490,-769,0,0,0,0,0,0,0,0,0,-1,734,1793,0,0
-483,-769,0,0,0,0,0,0,0,0,0,-1,741,1793,0,0
-476,-769,0,0,0,0,0,0,0,0,0,-1,748,1793,0,0
-469,-769,0,0,0,0,0,0,0,0,0,-1,755,1793,0,0
-462,-769,0,0,0,0,0,0,0,0,0,-1,762,1793,0,0
-455,-769,0,0,0,0,0,0,0,0,0,-1,769,1793,0,0
-448,-769,0,0,0,0,0,0,0,0,0,-1,776,1793,0,0
-441,-769,0,0,0,0,0,0,0,0,0,-1,783,1793,0,0
-434,-769,0,0,0,0,0,0,0,0,0,-1,790,1793,0,0
-427,-769,0,0,0,0,0,0,0,0,0,-1,797,1793,0,0
-420,-769,0,0,0,0,0,0,0,0,0,-1,804,1793,0,0
-413,-769,0,0,0,0,0,0,0,0,0,-1,811,1793,0,0
-406,-769,0,0,0,0,0,0,0,0,0,-1,818,1793,0,0
-399,-769,0,0,0,0,0,0,0,0,0,-1,825,1793,0,0
-392,-769,0,0,0,0,0,0,0,0,0,-1,832,1793,0,0
-385,-769,0,0,0,0,0,0,0,0,0,-1,839,1793,0,0
-378,-769,0,0,0,0,0,0,0,0,0,-1,846,1793,0,0
-371,-769,0,0,0,0,0,0,0,0,0,-1,853,1793,0,0
-364,-769,0,0,0,0,0,0,0,0,0,-1,860,1793,0,0
-357,-769,0,0,0,0,0,0,0,0,0,-1,867,1793,0,0
-350,-769,0,0,0,0,0,0,0,0,0,-1,874,1793,0,0
-343,-769,0,0,0,0,0,0,0,0,0,-1,881,1793,0,0
-336,-769,0,0,0,0,0,0,0,0,0,-1,888,1793,0,0
-329,-769,0,0,0,0,0,0,0,0,0,-1,895,1793,0,0
-322,-769,0,0,0,0,0,0,0,0,0,-1,902,1793,0,0
-315,-769,0,0,0,0,0,0,0,0,0,-1,909,1793,0,0
-308,-769,0,0,0,0,0,0,0,0,0,-1,916,1793,0,0
-301,-769,0,0,0,0,0,0,0,0,0,-1,923,1793,0,0
-294,-769,0,0,0,0,0,0,0,0,0,-1,930,1793,0,0
-287,-769,0,0,0,0,0,0,0,0,0,-1,937,1793,0,0
-280,-769,0,0,0,0,0,0,0,0,0,-1,944,1793,0,0
-273,-769,0,0,0,0,0,0,0,0,0,-1,951,1793,0,0
-266,-769,0,0,0,0,0,0,0,0,0,-1,958,1793,0,0
-259,-769,0,0,0,0,0,0,0,0,0,-1,965,1793,0,0
-252,-769,0,0,0,0,0,0,0,0,0,-1,972,1793,0,0
-245,-769,0,0,0,0,0,0,0,0,0,-1,979,1793,0,0
-238,-769,0,0,0,0,0,0,0,0,0,-1,986,1793,0,0
-231,-769,0,0,0,0,0,0,0,0,0,-1,993,1793,0,0
-224,-769,0,0,0,0,0,0,0,0,0,-1,1000,1793,0,0
-217,-769,0,0,0,0,0,0,0,0,0,-1,1007,1793,0,0
-210,-769,0,0,0,0,0,0,0,0,0,-1,1014,1793,0,0
-203,-769,0,0,0,0,0,0,0,0,0,-1,1021,1793,0,0
-196,-769,0,0,0,0,0,0,0,0,0,-1,1028,1793,0,0
-189,-769,0,0,0,0,0,0,0,0,0,-1,1035,1793,0,0
-182,-769,0,0,0,0,0,0,0,0,0,-1,1042,1793,0,0
-175,-769,0,0,0,0,0,0,0,0,0,-1,1049,1793,0,0
-168,-769,0,0,0,0,0,0,0,0,0,-1,1056,1793,0,0
-161,-769,-3.61145,12.4761,0,0,0,0,0,0,0,-1,1063,1793,-3.6114,-12.476
-154,-769,-0.813232,5.32874,0,0,0,0,0,0,0,-1,1070,1793,-0.813269,-5.32872
-147,-769,4.26587,4.7002,0,0,0,0,0,0,0,-1,1077,1793,4.26593,-4.70022
-140,-769,4.10376,5.28589,0,0,0,0,0,0,0,-1,1084,1793,4.10371,-5.28584
-133,-769,6.422,8.21777,0,0,0,0,0,0,0,-1,1091,1793,6.42198,-8.21773
-126,-769,-0.352295,19.326,0,0,0,0,0,0,0,-1,1098,1793,-0.352235,-19.326
-119,-769,6.01685,16.2577,0,0,0,0,0,0,0,-1,1105,1793,6.01689,-16.2576
-112,-769,5.76416,27.2615,0,0,0,0,0,0,0,-1,1112,1793,5.7642,-27.2615
-105,-769,4.97009,22.8479,0,0,0,0,0,0,0,-1,1119,1793,4.97006,-22.8479
-98,-769,4.69373,18.9142,0,0,0,0,0,0,0,-1,1126,1793,4.69376,-18.9142
-91,-769,4.41748,14.9805,0,0,0,0,0,0,0,-1,1133,1793,4.41746,-14.9805
-84,-769,3.2207,12.4565,0,0,0,0,0,0,0,-1,1140,1793,3.22066,-12.4565
-77,-769,2.48816,8.98486,0,0,0,0,0,0,0,-1,1147,1793,2.48815,-8.98489
-70,-769,1.04944,11.9852,0,0,0,0,0,0,0,-1,1154,1793,1.04947,-11.9852
-63,-769,-2.39709,9.60339,0,0,0,0,0,0,0,-1,1161,1793,-2.39706,-9.6034
-56,-769,-5.84363,7.22156,0,0,0,0,0,0,0,-1,1168,1793,-5.84359,-7.22157
-49,-769,-2.41443,3.95471,0,0,0,0,0,0,0,-1,1175,1793,-2.41446,-3.95471
-42,-769,-3.1991,2.64941,0,0,0,0,0,0,0,-1,1182,1793,-3.19914,-2.64944
-35,-769,-3.50183,1.73389,0,0,0,0,0,0,0,-1,1189,1793,-3.50189,-1.7339
-28,-769,-3.96985,1.14075,0,0,0,0,0,0,0,-1,1196,1793,-3.96985,-1.14078
-21,-769,9.98193,66.4116,0,0,0,0,0,0,0,-1,1203,1793,9.98188,-66.4116
-14,-769,10.4238,66.7214,0,0,0,0,0,0,0,-1,1210,1793,10.4238,-66.7215
-7,-769,9.43689,68.3896,0,0,0,0,0,0,0,-1,1217,1793,9.43691,-68.3896
0,-769,9.85193,69.2223,0,0,0,0,0,0,0,-1,1224,1793,9.85193,-69.2223
7,-769,9.7345,70.0732,-0.0286178,-0.0055254,0.00285444,-0.00517779,-0.0289654,1.44962,0.0178366,0.0429579,1231,1793,9.73448,-70.0732
14,-769,9.93127,70.7794,0,0,0,0,0,0,0,-1,1238,1793,9.93131,-70.7794
21,-769,9.19202,69.4063,0,0,0,0,0,0,0,-1,1245,1793,9.192,-69.4063
28,-769,10.1049,70.906,-0.0317956,-0.00627333,0.00354892,-0.00578904,-0.0322799,1.43517,0.0198733,0.0454153,1252,1793,10.1049,-70.906
35,-769,9.74915,70.5887,-0.0318893,-0.00669248,0.00394853,-0.00608821,-0.0324936,1.41894,0.0199452,0.0475188,1259,1793,9.74916,-70.5887
42,-769,9.47327,70.4386,-0.0311429,-0.00735406,0.00453872,-0.00651752,-0.0319794,1.38853,0.0195133,0.0472564,1266,1793,9.4733,-70.4386
49,-769,9.09619,70.4342,-0.0297264,-0.00653789,0.00527535,-0.00539417,-0.0308701,1.3573,0.0190385,0.0455247,1273,1793,9.09616,-70.4342
56,-769,9.11121,70.2808,-0.0279951,-0.00596115,0.00607429,-0.00439755,-0.0295587,1.31885,0.0184158,0.048683,1280,1793,9.11117,-70.2807
63,-769,8.40784,70.6049,0,0,0,0,0,0,0,-1,1287,1793,8.4078,-70.6049
70,-769,8.37573,70.8383,0,0,0,0,0,0,0,-1,1294,1793,8.37579,-70.8383
77,-769,8.0979,71.3796,0,0,0,0,0,0,0,-1,1301,1793,8.09794,-71.3796
84,-769,7.80652,71.9244,0,0,0,0,0,0,0,-1,1308,1793,7.80652,-71.9244
91,-769,7.83447,72.4449,0,0,0,0,0,0,0,-1,1315,1793,7.83446,-72.4449
98,-769,7.7594,72.8903,0,0,0,0,0,0,0,-1,1322,1793,7.75937,-72.8902
105,-769,7.99243,70.2708,0,0,0,0,0,0,0,-1,1329,1793,7.99249,-70.2707
112,-769,7.75549,69.2047,0,0,0,0,0,0,0,-1,1336,1793,7.75544,-69.2047
119,-769,7.13403,69.7073,0.0159716,-0.00378235,0.0168341,0.0256124,-0.0134231,0.520097,0.0229004,0.0441062,1343,1793,7.13399,-69.7072
126,-769,7.99609,69.5499,0.0191436,-0.00530359,0.0161326,0.0271605,-0.0133205,0.461194,0.0238227,0.0480294,1350,1793,7.99611,-69.5499
133,-769,8.41138,69.241,0,0,0,0,0,0,0,-1,1357,1793,8.41134,-69.2409
140,-769,8.12,69.222,0,0,0,0,0,0,0,-1,1364,1793,8.11998,-69.2221
147,-769,7.57263,68.8527,0,0,0,0,0,0,0,-1,1371,1793,7.57261,-68.8527
154,-769,7.29382,55.4241,0,0,0,0,0,0,0,-1,1378,1793,7.29384,-55.4241
161,-769,6.57019,1.53223,0,0,0,0,0,0,0,-1,1385,1793,6.57019,-1.53226
168,-769,8.27637,0.756958,0,0,0,0,0,0,0,-1,1392,1793,8.27639,-0.756944
175,-769,8.47144,2.41174,0,0,0,0,0,0,0,-1,1399,1793,8.47147,-2.4118
182,-769,8.41479,4.05994,0,0,0,0,0,0,0,-1,1406,1793,8.41479,-4.05997
189,-769,8.25049,5.68433,0,0,0,0,0,0,0,-1,1413,1793,8.25054,-5.68428
196,-769,7.97729,7.42847,0,0,0,0,0,0,0,-1,1420,1793,7.9773,-7.42848
203,-769,22.0977,6.73889,0,0,0,0,0,0,0,-1,1427,1793,22.0977,-6.7389
210,-769,22.1115,7.77246,0,0,0,0,0,0,0,-1,1434,1793,22.1115,-7.77248
217,-769,22.4723,8.79102,0,0,0,0,0,0,0,-1,1441,1793,22.4723,-8.79099
224,-769,22.1348,9.35278,0,0,0,0,0,0,0,-1,1448,1793,22.1348,-9.35283
231,-769,3.13318,19.7184,0,0,0,0,0,0,0,-1,1455,1793,3.13323,-19.7184
238,-769,5.74512,18.6597,0,0,0,0,0,0,0,-1,1462,1793,5.74512,-18.6596
245,-769,5.80798,22.87,0,0,0,0,0,0,0,-1,1469,1793,5.80796,-22.87
252,-769,6.20837,28.394,0,0,0,0,0,0,0,-1,1476,1793,6.20833,-28.3941
259,-769,10.974,17.7698,0,0,0,0,0,0,0,-1,1483,1793,10.974,-17.7698
266,-769,15.8488,7.3905,0,0,0,0,0,0,0,-1,1490,1793,15.8488,-7.39046
273,-769,14.8075,7.56152,0,0,0,0,0,0,0,-1,1497,1793,14.8075,-7.56152
280,-769,13.6519,7.43054,0,0,0,0,0,0,0,-1,1504,1793,13.6518,-7.43058
287,-769,0,0,0,0,0,0,0,0,0,-1,1511,1793,0,0
294,-769,0,0,0,0,0,0,0,0,0,-1,1518,1793,0,0
301,-769,0,0,0,0,0,0,0,0,0,-1,1525,1793,0,0
308,-769,0,0,0,0,0,0,0,0,0,-1,1532,1793,0,0
315,-769,0,0,0,0,0,0,0,0,0,-1,1539,1793,0,0
322,-769,0,0,0,0,0,0,0,0,0,-1,1546,1793,0,0
329,-769,0,0,0,0,0,0,0,0,0,-1,1553,1793,0,0
336,-769,0,0,0,0,0,0,0,0,0,-1,1560,1793,0,0
343,-769,0,0,0,0,0,0,0,0,0,-1,1567,1793,0,0
350,-769,0,0,0,0,0,0,0,0,0,-1,1574,1793,0,0
357,-769,0,0,0,0,0,0,0,0,0,-1,1581,1793,0,0
364,-769,0,0,0,0,0,0,0,0,0,-1,1588,1793,0,0
371,-769,0,0,0,0,0,0,0,0,0,-1,1595,1793,0,0
378,-769,0,0,0,0,0,0,0,0,0,-1,1602,1793,0,0
385,-769,0,0,0,0,0,0,0,0,0,-1,1609,1793,0,0
392,-769,0,0,0,0,0,0,0,0,0,-1,1616,1793,0,0
399,-769,0,0,0,0,0,0,0,0,0,-1,1623,1793,0,0
406,-769,0,0,0,0,0,0,0,0,0,-1,1630,1793,0,0
413,-769,0,0,0,0,0,0,0,0,0,-1,1637,1793,0,0
420,-769,0,0,0,0,0,0,0,0,0,-1,1644,1793,0,0
427,-769,0,0,0,0,0,0,0,0,0,-1,1651,1793,0,0
434,-769,0,0,0,0,0,0,0,0,0,-1,1658,1793,0,0
441,-769,0,0,0,0,0,0,0,0,0,-1,1665,1793,0,0
448,-769,0,0,0,0,0,0,0,0,0,-1,1672,1793,0,0
455,-769,0,0,0,0,0,0,0,0,0,-1,1679,1793,0,0
462,-769,0,0,0,0,0,0,0,0,0,-1,1686,1793,0,0
469,-769,0,0,0,0,0,0,0,0,0,-1,1693,1793,0,0
476,-769,0,0,0,0,0,0,0,0,0,-1,1700,1793,0,0
483,-769,0,0,0,0,0,0,0,0,0,-1,1707,1793,0,0
490,-769,0,0,0,0,0,0,0,0,0,-1,1714,1793,0,0
497,-769,0,0,0,0,0,0,0,0,0,-1,1721,1793,0,0
504,-769,0,0,0,0,0,0,0,0,0,-1,1728,1793,0,0
511,-769,0,0,0,0,0,0,0,0,0,-1,1735,1793,0,0
518,-769,0,0,0,0,0,0,0,0,0,-1,1742,1793,0,0
525,-769,0,0,0,0,0,0,0,0,0,-1,1749,1793,0,0
532,-769,0,0,0,0,0,0,0,0,0,-1,1756,1793,0,0
539,-769,0,0,0,0,0,0,0,0,0,-1,1763,1793,0,0
546,-769,0,0,0,0,0,0,0,0,0,-1,1770,1793,0,0
553,-769,0,0,0,0,0,0,0,0,0,-1,1777,1793,0,0
560,-769,0,0,0,0,0,0,0,0,0,-1,1784,1793,0,0
567,-769,0,0,0,0,0,0,0,0,0,-1,1791,1793,0,0
574,-769,0,0,0,0,0,0,0,0,0,-1,1798,1793,0,0
581,-769,0,0,0,0,0,0,0,0,0,-1,1805,1793,0,0
588,-769,0,0,0,0,0,0,0,0,0,-1,1812,1793,0,0
595,-769,0,0,0,0,0,0,0,0,0,-1,1819,1793,0,0
602,-769,0,0,0,0,0,0,0,0,0,-1,1826,1793,0,0
609,-769,0,0,0,0,0,0,0,0,0,-1,1833,1793,0,0
616,-769,0,0,0,0,0,0,0,0,0,-1,1840,1793,0,0
623,-769,0,0,0,0,0,0,0,0,0,-1,1847,1793,0,0
630,-769,0,0,0,0,0,0,0,0,0,-1,1854,1793,0,0
637,-769,0,0,0,0,0,0,0,0,0,-1,1861,1793,0,0
644,-769,0,0,0,0,0,0,0,0,0,-1,1868,1793,0,0
651,-769,0,0,0,0,0,0,0,0,0,-1,1875,1793,0,0
658,-769,0,0,0,0,0,0,0,0,0,-1,1882,1793,0,0
665,-769,0,0,0,0,0,0,0,0,0,-1,1889,1793,0,0
672,-769,0,0,0,0,0,0,0,0,0,-1,1896,1793,0,0
679,-769,0,0,0,0,0,0,0,0,0,-1,1903,1793,0,0
686,-769,0,0,0,0,0,0,0,0,0,-1,1910,1793,0,0
693,-769,0,0,0,0,0,0,0,0,0,-1,1917,1793,0,0
700,-769,0,0,0,0,0,0,0,0,0,-1,1924,1793,0,0
707,-769,0,0,0,0,0,0,0,0,0,-1,1931,1793,0,0
714,-769,0,0,0,0,0,0,0,0,0,-1,1938,1793,0,0
721,-769,0,0,0,0,0,0,0,0,0,-1,1945,1793,0,0
728,-769,0,0,0,0,0,0,0,0,0,-1,1952,1793,0,0
735,-769,0,0,0,0,0,0,0,0,0,-1,1959,1793,0,0
742,-769,0,0,0,0,0,0,0,0,0,-1,1966,1793,0,0
749,-769,0,0,0,0,0,0,0,0,0,-1,1973,1793,0,0
756,-769,0,0,0,0,0,0,0,0,0,-1,1980,1793,0,0
763,-769,0,0,0,0,0,0,0,0,0,-1,1987,1793,0,0
770,-769,0,0,0,0,0,0,0,0,0,-1,1994,1793,0,0
777,-769,0,0,0,0,0,0,0,0,0,-1,2001,1793,0,0
784,-769,0,0,0,0,0,0,0,0,0,-1,2008,1793,0,0
791,-769,0,0,0,0,0,0,0,0,0,-1,2015,1793,0,0
798,-769,0,0,0,0,0,0,0,0,0,-1,2022,1793,0,0
805,-769,0,0,0,0,0,0,0,0,0,-1,2029,1793,0,0
812,-769,0,0,0,0,0,0,0,0,0,-1,2036,1793,0,0
-700,-776,0,0,0,0,0,0,0,0,0,-1,524,1800,0,0
-693,-776,0,0,0,0,0,0,0,0,0,-1,531,1800,0,0
-686,-776,0,0,0,0,0,0,0,0,0,-1,538,1800,0,0
-679,-776,0,0,0,0,0,0,0,0,0,-1,545,1800,0,0
-672,-776,0,0,0,0,0,0,0,0,0,-1,552,1800,0,0
-665,-776,0,0,0,0,0,0,0,0,0,-1,559,1800,0,0
-658,-776,0,0,0,0,0,0,0,0,0,-1,566,1800,0,0
-651,-776,0,0,0,0,0,0,0,0,0,-1,573,1800,0,0
-644,-776,0,0,0,0,0,0,0,0,0,-1,580,1800,0,0
-637,-776,0,0,0,0,0,0,0,0,0,-1,587,1800,0,0
-630,-776,0,0,0,0,0,0,0,0,0,-1,594,1800,0,0
-623,-776,0,0,0,0,0,0,0,0,0,-1,601,1800,0,0
-616,-776,0,0,0,0,0,0,0,0,0,-1,608,1800,0,0
-609,-776,0,0,0,0,0,0,0,0,0,-1,615,1800,0,0
-602,-776,0,0,0,0,0,0,0,0,0,-1,622,1800,0,0
-595,-776,0,0,0,0,0,0,0,0,0,-1,629,1800,0,0
-588,-776,0,0,0,0,0,0,0,0,0,-1,636,1800,0,0
-581,-776,0,0,0,0,0,0,0,0,0,-1,643,1800,0,0
-574,-776,0,0,0,0,0,0,0,0,0,-1,650,1800,0,0
-567,-776,0,0,0,0,0,0,0,0,0,-1,657,1800,0,0
-560,-776,0,0,0,0,0,0,0,0,0,-1,664,1800,0,0
-553,-776,0,0,0,0,0,0,0,0,0,-1,671,1800,0,0
-546,-776,0,0,0,0,0,0,0,0,0,-1,678,1800,0,0
-539,-776,0,0,0,0,0,0,0,0,0,-1,685,1800,0,0
-532,-776,0,0,0,0,0,0,0,0,0,-1,692,1800,0,0
-525,-776,0,0,0,0,0,0,0,0,0,-1,699,1800,0,0
-518,-776,0,0,0,0,0,0,0,0,0,-1,706,1800,0,0
-511,-776,0,0,0,0,0,0,0,0,0,-1,713,1800,0,0
-504,-776,0,0,0,0,0,0,0,0,0,-1,720,1800,0,0
-497,-776,0,0,0,0,0,0,0,0,0,-1,727,1800,0,0
-490,-776,0,0,0,0,0,0,0,0,0,-1,734,1800,0,0
-483,-776,0,0,0,0,0,0,0,0,0,-1,741,1800,0,0
-476,-776,0,0,0,0,0,0,0,0,0,-1,748,1800,0,0
-469,-776,0,0,0,0,0,0,0,0,0,-1,755,1800,0,0
-462,-776,0,0,0,0,0,0,0,0,0,-1,762,1800,0,0
-455,-776,0,0,0,0,0,0,0,0,0,-1,769,1800,0,0
-448,-776,0,0,0,0,0,0,0,0,0,-1,776,1800,0,0
-441,-776,0,0,0,0,0,0,0,0,0,-1,783,1800,0,0
-434,-776,0,0,0,0,0,0,0,0,0,-1,790,1800,0,0
-427,-776,0,0,0,0,0,0,0,0,0,-1,797,1800,0,0
-420,-776,0,0,0,0,0,0,0,0,0,-1,804,1800,0,0
-413,-776,0,0,0,0,0,0,0,0,0,-1,811,1800,0,0
-406,-776,0,0,0,0,0,0,0,0,0,-1,818,1800,0,0
-399,-776,0,0,0,0,0,0,0,0,0,-1,825,1800,0,0
-392,-776,0,0,0,0,0,0,0,0,0,-1,832,1800,0,0
-385,-776,0,0,0,0,0,0,0,0,0,-1,839,1800,0,0
-378,-776,0,0,0,0,0,0,0,0,0,-1,846,1800,0,0
-371,-776,0,0,0,0,0,0,0,0,0,-1,853,1800,0,0
-364,-776,0,0,0,0,0,0,0,0,0,-1,860,1800,0,0
-357,-776,0,0,0,0,0,0,0,0,0,-1,867,1800,0,0
-350,-776,0,0,0,0,0,0,0,0,0,-1,874,1800,0,0
-343,-776,0,0,0,0,0,0,0,0,0,-1,881,1800,0,0
-336,-776,0,0,0,0,0,0,0,0,0,-1,888,1800,0,0
-329,-776,0,0,0,0,0,0,0,0,0,-1,895,1800,0,0
-322,-776,0,0,0,0,0,0,0,0,0,-1,902,1800,0,0
-315,-776,0,0,0,0,0,0,0,0,0,-1,909,1800,0,0
-308,-776,0,0,0,0,0,0,0,0,0,-1,916,1800,0,0
-301,-776,0,0,0,0,0,0,0,0,0,-1,923,1800,0,0
-294,-776,0,0,0,0,0,0,0,0,0,-1,930,1800,0,0
-287,-776,0,0,0,0,0,0,0,0,0,-1,937,1800,0,0
-280,-776,0,0,0,0,0,0,0,0,0,-1,944,1800,0,0
-273,-776,0,0,0,0,0,0,0,0,0,-1,951,1800,0,0
-266,-776,0,0,0,0,0,0,0,0,0,-1,958,1800,0,0
-259,-776,0,0,0,0,0,0,0,0,0,-1,965,1800,0,0
-252,-776,0,0,0,0,0,0,0,0,0,-1,972,1800,0,0
-245,-776,0,0,0,0,0,0,0,0,0,-1,979,1800,0,0
-238,-776,0,0,0,0,0,0,0,0,0,-1,986,1800,0,0
-231,-776,0,0,0,0,0,0,0,0,0,-1,993,1800,0,0
-224,-776,0,0,0,0,0,0,0,0,0,-1,1000,1800,0,0
-217,-776,0,0,0,0,0,0,0,0,0,-1,1007,1800,0,0
-210,-776,0,0,0,0,0,0,0,0,0,-1,1014,1800,0,0
-203,-776,0,0,0,0,0,0,0,0,0,-1,1021,1800,0,0
-196,-776,0,0,0,0,0,0,0,0,0,-1,1028,1800,0,0
-189,-776,0,0,0,0,0,0,0,0,0,-1,1035,1800,0,0
-182,-776,0,0,0,0,0,0,0,0,0,-1,1042,1800,0,0
-175,-776,0,0,0,0,0,0,0,0,0,-1,1049,1800,0,0
-168,-776,0,0,0,0,0,0,0,0,0,-1,1056,1800,0,0
-161,-776,0,0,0,0,0,0,0,0,0,-1,1063,1800,0,0
-154,-776,0,0,0,0,0,0,0,0,0,-1,1070,1800,0,0
-147,-776,0,0,0,0,0,0,0,0,0,-1,1077,1800,0,0
-140,-776,2.98499,5.20911,0,0,0,0,0,0,0,-1,1084,1800,2.98493,-5.2091
-133,-776,6.72363,9.35828,0,0,0,0,0,0,0,-1,1091,1800,6.72358,-9.35824
-126,-776,6.55029,13.7832,0,0,0,0,0,0,0,-1,1098,1800,6.55029,-13.7832
-119,-776,5.72107,13.7787,0,0,0,0,0,0,0,-1,1105,1800,5.72106,-13.7787
-112,-776,6.84998,20.4421,0,0,0,0,0,0,0,-1,1112,1800,6.84993,-20.4421
-105,-776,4.46863,24.6742,0,0,0,0,0,0,0,-1,1119,1800,4.46868,-24.6742
-98,-776,4.31616,19.7659,0,0,0,0,0,0,0,-1,1126,1800,4.31619,-19.7659
-91,-776,3.30225,18.134,0,0,0,0,0,0,0,-1,1133,1800,3.30222,-18.134
-84,-776,2.67932,14.3162,0,0,0,0,0,0,0,-1,1140,1800,2.67926,-14.3161
-77,-776,0.580078,11.1272,0,0,0,0,0,0,0,-1,1147,1800,0.58002,-11.1272
-70,-776,-0.562866,12.3163,0,0,0,0,0,0,0,-1,1154,1800,-0.562897,-12.3163
-63,-776,-3.96106,9.97656,0,0,0,0,0,0,0,-1,1161,1800,-3.961,-9.97654
-56,-776,-7.35913,7.63672,0,0,0,0,0,0,0,-1,1168,1800,-7.3591,-7.63676
-49,-776,-7.62952,3.1908,0,0,0,0,0,0,0,-1,1175,1800,-7.62955,-3.19076
-42,-776,-3.41272,3.0249,0,0,0,0,0,0,0,-1,1182,1800,-3.41269,-3.02488
-35,-776,-3.71753,1.63635,0,0,0,0,0,0,0,-1,1189,1800,-3.71755,-1.63631
-28,-776,-4.03979,0.716064,0,0,0,0,0,0,0,-1,1196,1800,-4.03977,-0.716055
-21,-776,9.50623,66.6532,0,0,0,0,0,0,0,-1,1203,1800,9.50621,-66.6532
-14,-776,9.89319,66.981,0,0,0,0,0,0,0,-1,1210,1800,9.89324,-66.981
-7,-776,9.54639,68.144,0,0,0,0,0,0,0,-1,1217,1800,9.54642,-68.1441
0,-776,9.6792,68.321,0,0,0,0,0,0,0,-1,1224,1800,9.67924,-68.3211
7,-776,9.79663,70.5104,0,0,0,0,0,0,0,-1,1231,1800,9.79663,-70.5104
14,-776,11.0035,70.4897,0,0,0,0,0,0,0,-1,1238,1800,11.0036,-70.4897
21,-776,10.6296,70.6025,0,0,0,0,0,0,0,-1,1245,1800,10.6296,-70.6026
28,-776,10.2432,70.6045,-0.040496,-0.010011,0.00490821,-0.00924025,-0.0412667,1.41503,0.0250068,0.0433124,1252,1800,10.2431,-70.6046
35,-776,9.81665,70.5651,-0.04041,-0.0102537,0.00549269,-0.00928445,-0.0413793,1.39613,0.0250711,0.0434465,1259,1800,9.81667,-70.565
42,-776,9.40967,70.5354,-0.039216,-0.0108065,0.00628904,-0.00947654,-0.0405459,1.3624,0.0244907,0.0426447,1266,1800,9.40961,-70.5354
49,-776,9.00317,70.5657,-0.037125,-0.00960435,0.00727067,-0.0078016,-0.0389277,1.32775,0.0237817,0.0447024,1273,1800,9.00313,-70.5657
56,-776,8.60596,70.6329,-0.0345874,-0.0086637,0.00835925,-0.00620198,-0.0370491,1.2844,0.0229136,0.0469804,1280,1800,8.60593,-70.6329
63,-776,8.30762,70.7086,0,0,0,0,0,0,0,-1,1287,1800,8.30768,-70.7086
70,-776,8.34692,71.1014,-0.0249706,-0.00631033,0.0134529,0.000731243,-0.0320121,1.08859,0.0215893,0.0447584,1294,1800,8.34691,-71.1015
77,-776,8.14636,71.5624,-0.0170339,-0.00506504,0.015028,0.00512624,-0.0272251,0.974883,0.0200782,0.0472103,1301,1800,8.14638,-71.5624
84,-776,7.78967,72.1422,0,0,0,0,0,0,0,-1,1308,1800,7.78965,-72.1422
91,-776,7.67371,72.6564,-0.00376566,-0.00364691,0.018797,0.0150908,-0.0225034,0.786978,0.0218452,0.045358,1315,1800,7.67372,-72.6564
98,-776,7.58875,73.0177,0.00305269,-0.00307039,0.0202493,0.0204706,-0.0204883,0.71037,0.0236476,0.0476286,1322,1800,7.58875,-73.0177
105,-776,7.40247,73.3806,0,0,0,0,0,0,0,-1,1329,1800,7.40246,-73.3806
112,-776,6.37292,69.9724,0.0176554,-0.00318716,0.0224264,0.0319635,-0.0174953,0.567898,0.0289595,0.0458443,1336,1800,6.37294,-69.9724
119,-776,6.26038,69.9224,0.0225599,-0.00521778,0.0223906,0.0350195,-0.0176774,0.507793,0.0309689,0.0421581,1343,1800,6.26038,-69.9224
126,-776,7.96082,69.4901,0.0271367,-0.00713588,0.0217601,0.037698,-0.0176971,0.451859,0.0326699,0.04534,1350,1800,7.96078,-69.4901
133,-776,8.36792,69.306,0,0,0,0,0,0,0,-1,1357,1800,8.36797,-69.306
140,-776,8.78247,69.1526,0,0,0,0,0,0,0,-1,1364,1800,8.78245,-69.1526
147,-776,7.1377,66.0736,0,0,0,0,0,0,0,-1,1371,1800,7.13775,-66.0736
154,-776,38.4338,21.854,0,0,0,0,0,0,0,-1,1378,1800,38.4339,-21.854
161,-776,6.50293,1.1731,0,0,0,0,0,0,0,-1,1385,1800,6.5029,-1.17313
168,-776,8.44971,1.22913,0,0,0,0,0,0,0,-1,1392,1800,8.44974,-1.22915
175,-776,8.61523,2.87061,0,0,0,0,0,0,0,-1,1399,1800,8.6152,-2.87063
182,-776,8.54065,4.60645,0,0,0,0,0,0,0,-1,1406,1800,8.5407,-4.60643
189,-776,8.35303,6.28223,0,0,0,0,0,0,0,-1,1413,1800,8.35297,-6.28225
196,-776,8.0387,8.21704,0,0,0,0,0,0,0,-1,1420,1800,8.03865,-8.217
203,-776,7.91736,9.79919,0,0,0,0,0,0,0,-1,1427,1800,7.91735,-9.79922
210,-776,20.2479,7.85718,0,0,0,0,0,0,0,-1,1434,1800,20.248,-7.85719
217,-776,21.5171,9.3418,0,0,0,0,0,0,0,-1,1441,1800,21.5171,-9.34182
224,-776,3.09253,14.9313,0,0,0,0,0,0,0,-1,1448,1800,3.09254,-14.9313
231,-776,20.8671,9.21057,0,0,0,0,0,0,0,-1,1455,1800,20.867,-9.21054
238,-776,20.7511,9.05847,0,0,0,0,0,0,0,-1,1462,1800,20.7511,-9.05848
245,-776,3.80823,15.4108,0,0,0,0,0,0,0,-1,1469,1800,3.80826,-15.4108
252,-776,8.57837,20.2009,0,0,0,0,0,0,0,-1,1476,1800,8.57841,-20.2009
259,-776,14.1882,7.69055,0,0,0,0,0,0,0,-1,1483,1800,14.1882,-7.69061
266,-776,0,0,0,0,0,0,0,0,0,-1,1490,1800,0,0
273,-776,0,0,0,0,0,0,0,0,0,-1,1497,1800,0,0
280,-776,0,0,0,0,0,0,0,0,0,-1,1504,1800,0,0
287,-776,0,0,0,0,0,0,0,0,0,-1,1511,1800,0,0
294,-776,0,0,0,0,0,0,0,0,0,-1,1518,1800,0,0
301,-776,0,0,0,0,0,0,0,0,0,-1,1525,1800,0,0
308,-776,0,0,0,0,0,0,0,0,0,-1,1532,1800,0,0
315,-776,0,0,0,0,0,0,0,0,0,-1,1539,1800,0,0
322,-776,0,0,0,0,0,0,0,0,0,-1,1546,1800,0,0
329,-776,0,0,0,0,0,0,0,0,0,-1,1553,1800,0,0
336,-776,0,0,0,0,0,0,0,0,0,-1,1560,1800,0,0
343,-776,0,0,0,0,0,0,0,0,0,-1,1567,1800,0,0
350,-776,0,0,0,0,0,0,0,0,0,-1,1574,1800,0,0
357,-776,0,0,0,0,0,0,0,0,0,-1,1581,1800,0,0
364,-776,0,0,0,0,0,0,0,0,0,-1,1588,1800,0,0
371,-776,0,0,0,0,0,0,0,0,0,-1,1595,1800,0,0
378,-776,0,0,0,0,0,0,0,0,0,-1,1602,1800,0,0
385,-776,0,0,0,0,0,0,0,0,0,-1,1609,1800,0,0
392,-776,0,0,0,0,0,0,0,0,0,-1,1616,1800,0,0
399,-776,0,0,0,0,0,0,0,0,0,-1,1623,1800,0,0
406,-776,0,0,0,0,0,0,0,0,0,-1,1630,1800,0,0
413,-776,0,0,0,0,0,0,0,0,0,-1,1637,1800,0,0
420,-776,0,0,0,0,0,0,0,0,0,-1,1644,1800,0,0
427,-776,0,0,0,0,0,0,0,0,0,-1,1651,1800,0,0
434,-776,0,0,0,0,0,0,0,0,0,-1,1658,1800,0,0
441,-776,0,0,0,0,0,0,0,0,0,-1,1665,1800,0,0
448,-776,0,0,0,0,0,0,0,0,0,-1,1672,1800,0,0
455,-776,0,0,0,0,0,0,0,0,0,-1,1679,1800,0,0
462,-776,0,0,0,0,0,0,0,0,0,-1,1686,1800,0,0
469,-776,0,0,0,0,0,0,0,0,0,-1,1693,1800,0,0
476,-776,0,0,0,0,0,0,0,0,0,-1,1700,1800,0,0
483,-776,0,0,0,0,0,0,0,0,0,-1,1707,1800,0,0
490,-776,0,0,0,0,0,0,0,0,0,-1,1714,1800,0,0
497,-776,0,0,0,0,0,0,0,0,0,-1,1721,1800,0,0
504,-776,0,0,0,0,0,0,0,0,0,-1,1728,1800,0,0
511,-776,0,0,0,0,0,0,0,0,0,-1,1735,1800,0,0
518,-776,0,0,0,0,0,0,0,0,0,-1,1742,1800,0,0
525,-776,0,0,0,0,0,0,0,0,0,-1,1749,1800,0,0
532,-776,0,0,0,0,0,0,0,0,0,-1,1756,1800,0,0
539,-776,0,0,0,0,0,0,0,0,0,-1,1763,1800,0,0
546,-776,0,0,0,0,0,0,0,0,0,-1,1770,1800,0,0
553,-776,0,0,0,0,0,0,0,0,0,-1,1777,1800,0,0
560,-776,0,0,0,0,0,0,0,0,0,-1,1784,1800,0,0
567,-776,0,0,0,0,0,0,0,0,0,-1,1791,1800,0,0
574,-776,0,0,0,0,0,0,0,0,0,-1,1798,1800,0,0
581,-776,0,0,0,0,0,0,0,0,0,-1,1805,1800,0,0
588,-776,0,0,0,0,0,0,0,0,0,-1,1812,1800,0,0
595,-776,0,0,0,0,0,0,0,0,0,-1,1819,1800,0,0
602,-776,0,0,0,0,0,0,0,0,0,-1,1826,1800,0,0
609,-776,0,0,0,0,0,0,0,0,0,-1,1833,1800,0,0
616,-776,0,0,0,0,0,0,0,0,0,-1,1840,1800,0,0
623,-776,0,0,0,0,0,0,0,0,0,-1,1847,1800,0,0
630,-776,0,0,0,0,0,0,0,0,0,-1,1854,1800,0,0
637,-776,0,0,0,0,0,0,0,0,0,-1,1861,1800,0,0
644,-776,0,0,0,0,0,0,0,0,0,-1,1868,1800,0,0
651,-776,0,0,0,0,0,0,0,0,0,-1,1875,1800,0,0
658,-776,0,0,0,0,0,0,0,0,0,-1,1882,1800,0,0
665,-776,0,0,0,0,0,0,0,0,0,-1,1889,1800,0,0
672,-776,0,0,0,0,0,0,0,0,0,-1,1896,1800,0,0
679,-776,0,0,0,0,0,0,0,0,0,-1,1903,1800,0,0
686,-776,0,0,0,0,0,0,0,0,0,-1,1910,1800,0,0
693,-776,0,0,0,0,0,0,0,0,0,-1,1917,1800,0,0
700,-776,0,0,0,0,0,0,0,0,0,-1,1924,1800,0,0
707,-776,0,0,0,0,0,0,0,0,0,-1,1931,1800,0,0
714,-776,0,0,0,0,0,0,0,0,0,-1,1938,1800,0,0
721,-776,0,0,0,0,0,0,0,0,0,-1,1945,1800,0,0
728,-776,0,0,0,0,0,0,0,0,0,-1,1952,1800,0,0
735,-776,0,0,0,0,0,0,0,0,0,-1,1959,1800,0,0
742,-776,0,0,0,0,0,0,0,0,0,-1,1966,1800,0,0
749,-776,0,0,0,0,0,0,0,0,0,-1,1973,1800,0,0
756,-776,0,0,0,0,0,0,0,0,0,-1,1980,1800,0,0
763,-776,0,0,0,0,0,0,0,0,0,-1,1987,1800,0,0
770,-776,0,0,0,0,0,0,0,0,0,-1,1994,1800,0,0
777,-776,0,0,0,0,0,0,0,0,0,-1,2001,1800,0,0
784,-776,0,0,0,0,0,0,0,0,0,-1,2008,1800,0,0
791,-776,0,0,0,0,0,0,0,0,0,-1,2015,1800,0,0
798,-776,0,0,0,0,0,0,0,0,0,-1,2022,1800,0,0
805,-776,0,0,0,0,0,0,0,0,0,-1,2029,1800,0,0
812,-776,0,0,0,0,0,0,0,0,0,-1,2036,1800,0,0
-700,-783,0,0,0,0,0,0,0,0,0,-1,524,1807,0,0
-693,-783,0,0,0,0,0,0,0,0,0,-1,531,1807,0,0
-686,-783,0,0,0,0,0,0,0,0,0,-1,538,1807,0,0
-679,-783,0,0,0,0,0,0,0,0,0,-1,545,1807,0,0
-672,-783,0,0,0,0,0,0,0,0,0,-1,552,1807,0,0
-665,-783,0,0,0,0,0,0,0,0,0,-1,559,1807,0,0
-658,-783,0,0,0,0,0,0,0,0,0,-1,566,1807,0,0
-651,-783,0,0,0,0,0,0,0,0,0,-1,573,1807,0,0
-644,-783,0,0,0,0,0,0,0,0,0,-1,580,1807,0,0
-637,-783,0,0,0,0,0,0,0,0,0,-1,587,1807,0,0
-630,-783,0,0,0,0,0,0,0,0,0,-1,594,1807,0,0
-623,-783,0,0,0,0,0,0,0,0,0,-1,601,1807,0,0
-616,-783,0,0,0,0,0,0,0,0,0,-1,608,1807,0,0
-609,-783,0,0,0,0,0,0,0,0,0,-1,615,1807,0,0
-602,-783,0,0,0,0,0,0,0,0,0,-1,622,1807,0,0
-595,-783,0,0,0,0,0,0,0,0,0,-1,629,1807,0,0
-588,-783,0,0,0,0,0,0,0,0,0,-1,636,1807,0,0
-581,-783,0,0,0,0,0,0,0,0,0,-1,643,1807,0,0
-574,-783,0,0,0,0,0,0,0,0,0,-1,650,1807,0,0
-567,-783,0,0,0,0,0,0,0,0,0,-1,657,1807,0,0
-560,-783,0,0,0,0,0,0,0,0,0,-1,664,1807,0,0
-553,-783,0,0,0,0,0,0,0,0,0,-1,671,1807,0,0
-546,-783,0,0,0,0,0,0,0,0,0,-1,678,1807,0,0
-539,-783,0,0,0,0,0,0,0,0,0,-1,685,1807,0,0
-532,-783,0,0,0,0,0,0,0,0,0,-1,692,1807,0,0
-525,-783,0,0,0,0,0,0,0,0,0,-1,699,1807,0,0
-518,-783,0,0,0,0,0,0,0,0,0,-1,706,1807,0,0
-511,-783,0,0,0,0,0,0,0,0,0,-1,713,1807,0,0
-504,-783,0,0,0,0,0,0,0,0,0,-1,720,1807,0,0
-497,-783,0,0,0,0,0,0,0,0,0,-1,727,1807,0,0
-490,-783,0,0,0,0,0,0,0,0,0,-1,734,1807,0,0
-483,-783,0,0,0,0,0,0,0,0,0,-1,741,1807,0,0
-476,-783,0,0,0,0,0,0,0,0,0,-1,748,1807,0,0
-469,-783,0,0,0,0,0,0,0,0,0,-1,755,1807,0,0
-462,-783,0,0,0,0,0,0,0,0,0,-1,762,1807,0,0
-455,-783,0,0,0,0,0,0,0,0,0,-1,769,1807,0,0
-448,-783,0,0,0,0,0,0,0,0,0,-1,776,1807,0,0
-441,-783,0,0,0,0,0,0,0,0,0,-1,783,1807,0,0
-434,-783,0,0,0,0,0,0,0,0,0,-1,790,1807,0,0
-427,-783,0,0,0,0,0,0,0,0,0,-1,797,1807,0,0
-420,-783,0,0,0,0,0,0,0,0,0,-1,804,1807,0,0
-413,-783,0,0,0,0,0,0,0,0,0,-1,811,1807,0,0
-406,-783,0,0,0,0,0,0,0,0,0,-1,818,1807,0,0
-399,-783,0,0,0,0,0,0,0,0,0,-1,825,1807,0,0
-392,-783,0,0,0,0,0,0,0,0,0,-1,832,1807,0,0
-385,-783,0,0,0,0,0,0,0,0,0,-1,839,1807,0,0
-378,-783,0,0,0,0,0,0,0,0,0,-1,846,1807,0,0
-371,-783,0,0,0,0,0,0,0,0,0,-1,853,1807,0,0
-364,-783,0,0,0,0,0,0,0,0,0,-1,860,1807,0,0
-357,-783,0,0,0,0,0,0,0,0,0,-1,867,1807,0,0
-350,-783,0,0,0,0,0,0,0,0,0,-1,874,1807,0,0
-343,-783,0,0,0,0,0,0,0,0,0,-1,881,1807,0,0
-336,-783,0,0,0,0,0,0,0,0,0,-1,888,1807,0,0
-329,-783,0,0,0,0,0,0,0,0,0,-1,895,1807,0,0
-322,-783,0,0,0,0,0,0,0,0,0,-1,902,1807,0,0
-315,-783,0,0,0,0,0,0,0,0,0,-1,909,1807,0,0
-308,-783,0,0,0,0,0,0,0,0,0,-1,916,1807,0,0
-301,-783,0,0,0,0,0,0,0,0,0,-1,923,1807,0,0
-294,-783,0,0,0,0,0,0,0,0,0,-1,930,1807,0,0
-287,-783,0,0,0,0,0,0,0,0,0,-1,937,1807,0,0
-280,-783,0,0,0,0,0,0,0,0,0,-1,944,1807,0,0
-273,-783,0,0,0,0,0,0,0,0,0,-1,951,1807,0,0
-266,-783,0,0,0,0,0,0,0,0,0,-1,958,1807,0,0
-259,-783,0,0,0,0,0,0,0,0,0,-1,965,1807,0,0
-252,-783,0,0,0,0,0,0,0,0,0,-1,972,1807,0,0
-245,-783,0,0,0,0,0,0,0,0,0,-1,979,1807,0,0
-238,-783,0,0,0,0,0,0,0,0,0,-1,986,1807,0,0
-231,-783,0,0,0,0,0,0,0,0,0,-1,993,1807,0,0
-224,-783,0,0,0,0,0,0,0,0,0,-1,1000,1807,0,0
-217,-783,0,0,0,0,0,0,0,0,0,-1,1007,1807,0,0
-210,-783,0,0,0,0,0,0,0,0,0,-1,1014,1807,0,0
-203,-783,0,0,0,0,0,0,0,0,0,-1,1021,1807,0,0
-196,-783,0,0,0,0,0,0,0,0,0,-1,1028,1807,0,0
-189,-783,0,0,0,0,0,0,0,0,0,-1,1035,1807,0,0
-182,-783,0,0,0,0,0,0,0,0,0,-1,1042,1807,0,0
-175,-783,0,0,0,0,0,0,0,0,0,-1,1049,1807,0,0
-168,-783,0,0,0,0,0,0,0,0,0,-1,1056,1807,0,0
-161,-783,0,0,0,0,0,0,0,0,0,-1,1063,1807,0,0
-154,-783,0,0,0,0,0,0,0,0,0,-1,1070,1807,0,0
-147,-783,0,0,0,0,0,0,0,0,0,-1,1077,1807,0,0
-140,-783,0,0,0,0,0,0,0,0,0,-1,1084,1807,0,0
-133,-783,0,0,0,0,0,0,0,0,0,-1,1091,1807,0,0
-126,-783,0,0,0,0,0,0,0,0,0,-1,1098,1807,0,0
-119,-783,0,0,0,0,0,0,0,0,0,-1,1105,1807,0,0
-112,-783,5.33936,14.7699,0,0,0,0,0,0,0,-1,1112,1807,5.33931,-14.7699
-105,-783,6.44263,21.2224,0,0,0,0,0,0,0,-1,1119,1807,6.44263,-21.2224
-98,-783,5.54773,20.5695,0,0,0,0,0,0,0,-1,1126,1807,5.54772,-20.5695
-91,-783,2.6106,20.2491,0,0,0,0,0,0,0,-1,1133,1807,2.61056,-20.2492
-84,-783,-0.0491943,14.5743,0,0,0,0,0,0,0,-1,1140,1807,-0.0491562,-14.5743
-77,-783,0.332764,12.7788,0,0,0,0,0,0,0,-1,1147,1807,0.332743,-12.7788
-70,-783,-1.93176,5.12817,0,0,0,0,0,0,0,-1,1154,1807,-1.93171,-5.12813
-63,-783,-5.31702,10.54,0,0,0,0,0,0,0,-1,1161,1807,-5.31703,-10.54
-56,-783,-6.26135,6.9679,0,0,0,0,0,0,0,-1,1168,1807,-6.26136,-6.96785
-49,-783,-3.17688,4.59705,0,0,0,0,0,0,0,-1,1175,1807,-3.17685,-4.5971
-42,-783,-3.72876,3.1405,0,0,0,0,0,0,0,-1,1182,1807,-3.72874,-3.14055
-35,-783,-3.97046,1.59399,0,0,0,0,0,0,0,-1,1189,1807,-3.97041,-1.59401
-28,-783,-4.12195,0.270386,0,0,0,0,0,0,0,-1,1196,1807,-4.12197,-0.270408
-21,-783,8.84314,67.165,0,0,0,0,0,0,0,-1,1203,1807,8.84311,-67.1651
-14,-783,9.13062,67.3273,0,0,0,0,0,0,0,-1,1210,1807,9.13056,-67.3272
-7,-783,9.36438,67.4999,0,0,0,0,0,0,0,-1,1217,1807,9.36442,-67.4998
0,-783,9.59497,67.9932,0,0,0,0,0,0,0,-1,1224,1807,9.595,-67.9932
7,-783,9.71631,68.3044,0,0,0,0,0,0,0,-1,1231,1807,9.71626,-68.3045
14,-783,10.092,69.5411,0,0,0,0,0,0,0,-1,1238,1807,10.092,-69.5412
21,-783,10.5416,70.7859,0,0,0,0,0,0,0,-1,1245,1807,10.5416,-70.7859
28,-783,10.1738,70.7201,-0.0507075,-0.0147175,0.00668656,-0.0135154,-0.0519097,1.39291,0.0310963,0.0446399,1252,1807,10.1738,-70.7201
35,-783,9.77576,70.6721,-0.0502693,-0.0147033,0.0074707,-0.0131978,-0.0517748,1.37194,0.0310662,0.0425168,1259,1807,9.77572,-70.6721
42,-783,9.32324,70.7272,-0.0484411,-0.0150618,0.0085022,-0.013021,-0.050482,1.33521,0.0302629,0.0414024,1266,1807,9.32322,-70.7271
49,-783,8.89563,70.7457,-0.0454395,-0.0134389,0.00975494,-0.0106997,-0.0481787,1.29705,0.0292132,0.0440824,1273,1807,8.89568,-70.7457
56,-783,8.18469,70.5316,-0.0417983,-0.0120041,0.0111676,-0.00828297,-0.0455194,1.24916,0.0279967,0.0474681,1280,1807,8.18472,-70.5316
63,-783,8.20752,70.8123,0,0,0,0,0,0,0,-1,1287,1807,8.20755,-70.8123
70,-783,8.26172,71.2935,-0.0295052,-0.00895802,0.0171775,0.000783745,-0.039247,1.0549,0.0264298,0.0447324,1294,1807,8.26171,-71.2935
77,-783,8.18872,71.5192,-0.0198934,-0.00728694,0.0190721,0.00649658,-0.0336769,0.944994,0.0249009,0.0480699,1301,1807,8.18877,-71.5192
84,-783,8.11279,71.9176,0,0,0,0,0,0,0,-1,1308,1807,8.11282,-71.9176
91,-783,7.50549,72.8716,-0.00352647,-0.00523831,0.0236771,0.0193102,-0.028075,0.767331,0.0275134,0.0453003,1315,1807,7.50547,-72.8716
98,-783,7.37866,72.4872,0.00496116,-0.00445487,0.0255534,0.0262367,-0.0257304,0.694299,0.0300037,0.0429421,1322,1807,7.37866,-72.4871
105,-783,7.60596,72.163,0,0,0,0,0,0,0,-1,1329,1807,7.60593,-72.163
112,-783,5.46167,70.2075,0.0235434,-0.0045361,0.0286428,0.0414024,-0.022395,0.557523,0.0373744,0.0485614,1336,1807,5.46165,-70.2075
119,-783,5.46936,70.0897,0.0301959,-0.00706341,0.0288616,0.0459182,-0.0227857,0.498802,0.0404087,0.0438614,1343,1807,5.4694,-70.0897
126,-783,5.45361,69.8883,0,0,0,0,0,0,0,-1,1350,1807,5.45365,-69.8883
133,-783,8.26892,69.2891,0,0,0,0,0,0,0,-1,1357,1807,8.26896,-69.2891
140,-783,7.30542,66.7736,0,0,0,0,0,0,0,-1,1364,1807,7.30541,-66.7735
147,-783,7.61633,65.818,0,0,0,0,0,0,0,-1,1371,1807,7.61632,-65.818
154,-783,38.2109,17.545,0,0,0,0,0,0,0,-1,1378,1807,38.2109,-17.545
161,-783,39.5087,17.5449,0,0,0,0,0,0,0,-1,1385,1807,39.5087,-17.545
168,-783,8.62561,1.79944,0,0,0,0,0,0,0,-1,1392,1807,8.62561,-1.79946
175,-783,8.78699,3.40857,0,0,0,0,0,0,0,-1,1399,1807,8.78697,-3.40854
182,-783,8.70984,5.14661,0,0,0,0,0,0,0,-1,1406,1807,8.70989,-5.14666
189,-783,8.55762,6.79871,0,0,0,0,0,0,0,-1,1413,1807,8.55766,-6.79872
196,-783,8.25488,8.66626,0,0,0,0,0,0,0,-1,1420,1807,8.25492,-8.66628
203,-783,7.86755,10.5735,0,0,0,0,0,0,0,-1,1427,1807,7.8676,-10.5734
210,-783,5.6969,8.99231,0,0,0,0,0,0,0,-1,1434,1807,5.69693,-8.99234
217,-783,5.28503,3.80872,0,0,0,0,0,0,0,-1,1441,1807,5.285,-3.80868
224,-783,3.22571,6.62903,0,0,0,0,0,0,0,-1,1448,1807,3.2257,-6.62907
231,-783,4.27942,4.56262,0,0,0,0,0,0,0,-1,1455,1807,4.27948,-4.56267
238,-783,0,0,0,0,0,0,0,0,0,-1,1462,1807,0,0
245,-783,0,0,0,0,0,0,0,0,0,-1,1469,1807,0,0
252,-783,0,0,0,0,0,0,0,0,0,-1,1476,1807,0,0
259,-783,0,0,0,0,0,0,0,0,0,-1,1483,1807,0,0
266,-783,0,0,0,0,0,0,0,0,0,-1,1490,1807,0,0
273,-783,0,0,0,0,0,0,0,0,0,-1,1497,1807,0,0
280,-783,0,0,0,0,0,0,0,0,0,-1,1504,1807,0,0
287,-783,0,0,0,0,0,0,0,0,0,-1,1511,1807,0,0
294,-783,0,0,0,0,0,0,0,0,0,-1,1518,1807,0,0
301,-783,0,0,0,0,0,0,0,0,0,-1,1525,1807,0,0
308,-783,0,0,0,0,0,0,0,0,0,-1,1532,1807,0,0
315,-783,0,0,0,0,0,0,0,0,0,-1,1539,1807,0,0
322,-783,0,0,0,0,0,0,0,0,0,-1,1546,1807,0,0
329,-783,0,0,0,0,0,0,0,0,0,-1,1553,1807,0,0
336,-783,0,0,0,0,0,0,0,0,0,-1,1560,1807,0,0
343,-783,0,0,0,0,0,0,0,0,0,-1,1567,1807,0,0
350,-783,0,0,0,0,0,0,0,0,0,-1,1574,1807,0,0
357,-783,0,0,0,0,0,0,0,0,0,-1,1581,1807,0,0
364,-783,0,0,0,0,0,0,0,0,0,-1,1588,1807,0,0
371,-783,0,0,0,0,0,0,0,0,0,-1,1595,1807,0,0
378,-783,0,0,0,0,0,0,0,0,0,-1,1602,1807,0,0
385,-783,0,0,0,0,0,0,0,0,0,-1,1609,1807,0,0
392,-783,0,0,0,0,0,0,0,0,0,-1,1616,1807,0,0
399,-783,0,0,0,0,0,0,0,0,0,-1,1623,1807,0,0
406,-783,0,0,0,0,0,0,0,0,0,-1,1630,1807,0,0
413,-783,0,0,0,0,0,0,0,0,0,-1,1637,1807,0,0
420,-783,0,0,0,0,0,0,0,0,0,-1,1644,1807,0,0
427,-783,0,0,0,0,0,0,0,0,0,-1,1651,1807,0,0
434,-783,0,0,0,0,0,0,0,0,0,-1,1658,1807,0,0
441,-783,0,0,0,0,0,0,0,0,0,-1,1665,1807,0,0
448,-783,0,0,0,0,0,0,0,0,0,-1,1672,1807,0,0
455,-783,0,0,0,0,0,0,0,0,0,-1,1679,1807,0,0
462,-783,0,0,0,0,0,0,0,0,0,-1,1686,1807,0,0
469,-783,0,0,0,0,0,0,0,0,0,-1,1693,1807,0,0
476,-783,0,0,0,0,0,0,0,0,0,-1,1700,1807,0,0
483,-783,0,0,0,0,0,0,0,0,0,-1,1707,1807,0,0
490,-783,0,0,0,0,0,0,0,0,0,-1,1714,1807,0,0
497,-783,0,0,0,0,0,0,0,0,0,-1,1721,1807,0,0
504,-783,0,0,0,0,0,0,0,0,0,-1,1728,1807,0,0
511,-783,0,0,0,0,0,0,0,0,0,-1,1735,1807,0,0
518,-783,0,0,0,0,0,0,0,0,0,-1,1742,1807,0,0
525,-783,0,0,0,0,0,0,0,0,0,-1,1749,1807,0,0
532,-783,0,0,0,0,0,0,0,0,0,-1,1756,1807,0,0
539,-783,0,0,0,0,0,0,0,0,0,-1,1763,1807,0,0
546,-783,0,0,0,0,0,0,0,0,0,-1,1770,1807,0,0
553,-783,0,0,0,0,0,0,0,0,0,-1,1777,1807,0,0
560,-783,0,0,0,0,0,0,0,0,0,-1,1784,1807,0,0
567,-783,0,0,0,0,0,0,0,0,0,-1,1791,1807,0,0
574,-783,0,0,0,0,0,0,0,0,0,-1,1798,1807,0,0
581,-783,0,0,0,0,0,0,0,0,0,-1,1805,1807,0,0
588,-783,0,0,0,0,0,0,0,0,0,-1,1812,1807,0,0
595,-783,0,0,0,0,0,0,0,0,0,-1,1819,1807,0,0
602,-783,0,0,0,0,0,0,0,0,0,-1,1826,1807,0,0
609,-783,0,0,0,0,0,0,0,0,0,-1,1833,1807,0,0
616,-783,0,0,0,0,0,0,0,0,0,-1,1840,1807,0,0
623,-783,0,0,0,0,0,0,0,0,0,-1,1847,1807,0,0
630,-783,0,0,0,0,0,0,0,0,0,-1,1854,1807,0,0
637,-783,0,0,0,0,0,0,0,0,0,-1,1861,1807,0,0
644,-783,0,0,0,0,0,0,0,0,0,-1,1868,1807,0,0
651,-783,0,0,0,0,0,0,0,0,0,-1,1875,1807,0,0
658,-783,0,0,0,0,0,0,0,0,0,-1,1882,1807,0,0
665,-783,0,0,0,0,0,0,0,0,0,-1,1889,1807,0,0
672,-783,0,0,0,0,0,0,0,0,0,-1,1896,1807,0,0
679,-783,0,0,0,0,0,0,0,0,0,-1,1903,1807,0,0
686,-783,0,0,0,0,0,0,0,0,0,-1,1910,1807,0,0
693,-783,0,0,0,0,0,0,0,0,0,-1,1917,1807,0,0
700,-783,0,0,0,0,0,0,0,0,0,-1,1924,1807,0,0
707,-783,0,0,0,0,0,0,0,0,0,-1,1931,1807,0,0
714,-783,0,0,0,0,0,0,0,0,0,-1,1938,1807,0,0
721,-783,0,0,0,0,0,0,0,0,0,-1,1945,1807,0,0
728,-783,0,0,0,0,0,0,0,0,0,-1,1952,1807,0,0
735,-783,0,0,0,0,0,0,0,0,0,-1,1959,1807,0,0
742,-783,0,0,0,0,0,0,0,0,0,-1,1966,1807,0,0
749,-783,0,0,0,0,0,0,0,0,0,-1,1973,1807,0,0
756,-783,0,0,0,0,0,0,0,0,0,-1,1980,1807,0,0
763,-783,0,0,0,0,0,0,0,0,0,-1,1987,1807,0,0
770,-783,0,0,0,0,0,0,0,0,0,-1,1994,1807,0,0
777,-783,0,0,0,0,0,0,0,0,0,-1,2001,1807,0,0
784,-783,0,0,0,0,0,0,0,0,0,-1,2008,1807,0,0
791,-783,0,0,0,0,0,0,0,0,0,-1,2015,1807,0,0
798,-783,0,0,0,0,0,0,0,0,0,-1,2022,1807,0,0
805,-783,0,0,0,0,0,0,0,0,0,-1,2029,1807,0,0
812,-783,0,0,0,0,0,0,0,0,0,-1,2036,1807,0,0
-700,-790,0,0,0,0,0,0,0,0,0,-1,524,1814,0,0
-693,-790,0,0,0,0,0,0,0,0,0,-1,531,1814,0,0
-686,-790,0,0,0,0,0,0,0,0,0,-1,538,1814,0,0
-679,-790,0,0,0,0,0,0,0,0,0,-1,545,1814,0,0
-672,-790,0,0,0,0,0,0,0,0,0,-1,552,1814,0,0
-665,-790,0,0,0,0,0,0,0,0,0,-1,559,1814,0,0
-658,-790,0,0,0,0,0,0,0,0,0,-1,566,1814,0,0
-651,-790,0,0,0,0,0,0,0,0,0,-1,573,1814,0,0
-644,-790,0,0,0,0,0,0,0,0,0,-1,580,1814,0,0
-637,-790,0,0,0,0,0,0,0,0,0,-1,587,1814,0,0
-630,-790,0,0,0,0,0,0,0,0,0,-1,594,1814,0,0
-623,-790,0,0,0,0,0,0,0,0,0,-1,601,1814,0,0
-616,-790,0,0,0,0,0,0,0,0,0,-1,608,1814,0,0
-609,-790,0,0,0,0,0,0,0,0,0,-1,615,1814,0,0
-602,-790,0,0,0,0,0,0,0,0,0,-1,622,1814,0,0
-595,-790,0,0,0,0,0,0,0,0,0,-1,629,1814,0,0
-588,-790,0,0,0,0,0,0,0,0,0,-1,636,1814,0,0
-581,-790,0,0,0,0,0,0,0,0,0,-1,643,1814,0,0
-574,-790,0,0,0,0,0,0,0,0,0,-1,650,1814,0,0
-567,-790,0,0,0,0,0,0,0,0,0,-1,657,1814,0,0
-560,-790,0,0,0,0,0,0,0,0,0,-1,664,1814,0,0
-553,-790,0,0,0,0,0,0,0,0,0,-1,671,1814,0,0
-546,-790,0,0,0,0,0,0,0,0,0,-1,678,1814,0,0
-539,-790,0,0,0,0,0,0,0,0,0,-1,685,1814,0,0
-532,-790,0,0,0,0,0,0,0,0,0,-1,692,1814,0,0
-525,-790,0,0,0,0,0,0,0,0,0,-1,699,1814,0,0
-518,-790,0,0,0,0,0,0,0,0,0,-1,706,1814,0,0
-511,-790,0,0,0,0,0,0,0,0,0,-1,713,1814,0,0
-504,-790,0,0,0,0,0,0,0,0,0,-1,720,1814,0,0
-497,-790,0,0,0,0,0,0,0,0,0,-1,727,1814,0,0
-490,-790,0,0,0,0,0,0,0,0,0,-1,734,1814,0,0
-483,-790,0,0,0,0,0,0,0,0,0,-1,741,1814,0,0
-476,-790,0,0,0,0,0,0,0,0,0,-1,748,1814,0,0
-469,-790,0,0,0,0,0,0,0,0,0,-1,755,1814,0,0
-462,-790,0,0,0,0,0,0,0,0,0,-1,762,1814,0,0
-455,-790,0,0,0,0,0,0,0,0,0,-1,769,1814,0,0
-448,-790,0,0,0,0,0,0,0,0,0,-1,776,1814,0,0
-441,-790,0,0,0,0,0,0,0,0,0,-1,783,1814,0,0
-434,-790,0,0,0,0,0,0,0,0,0,-1,790,1814,0,0
-427,-790,0,0,0,0,0,0,0,0,0,-1,797,1814,0,0
-420,-790,0,0,0,0,0,0,0,0,0,-1,804,1814,0,0
-413,-790,0,0,0,0,0,0,0,0,0,-1,811,1814,0,0
-406,-790,0,0,0,0,0,0,0,0,0,-1,818,1814,0,0
-399,-790,0,0,0,0,0,0,0,0,0,-1,825,1814,0,0
-392,-790,0,0,0,0,0,0,0,0,0,-1,832,1814,0,0
-385,-790,0,0,0,0,0,0,0,0,0,-1,839,1814,0,0
-378,-790,0,0,0,0,0,0,0,0,0,-1,846,1814,0,0
-371,-790,0,0,0,0,0,0,0,0,0,-1,853,1814,0,0
-364,-790,0,0,0,0,0,0,0,0,0,-1,860,1814,0,0
-357,-790,0,0,0,0,0,0,0,0,0,-1,867,1814,0,0
-350,-790,0,0,0,0,0,0,0,0,0,-1,874,1814,0,0
-343,-790,0,0,0,0,0,0,0,0,0,-1,881,1814,0,0
-336,-790,0,0,0,0,0,0,0,0,0,-1,888,1814,0,0
-329,-790,0,0,0,0,0,0,0,0,0,-1,895,1814,0,0
-322,-790,0,0,0,0,0,0,0,0,0,-1,902,1814,0,0
-315,-790,0,0,0,0,0,0,0,0,0,-1,909,1814,0,0
-308,-790,0,0,0,0,0,0,0,0,0,-1,916,1814,0,0
-301,-790,0,0,0,0,0,0,0,0,0,-1,923,1814,0,0
-294,-790,0,0,0,0,0,0,0,0,0,-1,930,1814,0,0
-287,-790,0,0,0,0,0,0,0,0,0,-1,937,1814,0,0
-280,-790,0,0,0,0,0,0,0,0,0,-1,944,1814,0,0
-273,-790,0,0,0,0,0,0,0,0,0,-1,951,1814,0,0
-266,-790,0,0,0,0,0,0,0,0,0,-1,958,1814,0,0
-259,-790,0,0,0,0,0,0,0,0,0,-1,965,1814,0,0
-252,-790,0,0,0,0,0,0,0,0,0,-1,972,1814,0,0
-245,-790,0,0,0,0,0,0,0,0,0,-1,979,1814,0,0
-238,-790,0,0,0,0,0,0,0,0,0,-1,986,1814,0,0
-231,-790,0,0,0,0,0,0,0,0,0,-1,993,1814,0,0
-224,-790,0,0,0,0,0,0,0,0,0,-1,1000,1814,0,0
-217,-790,0,0,0,0,0,0,0,0,0,-1,1007,1814,0,0
-210,-790,0,0,0,0,0,0,0,0,0,-1,1014,1814,0,0
-203,-790,0,0,0,0,0,0,0,0,0,-1,1021,1814,0,0
-196,-790,0,0,0,0,0,0,0,0,0,-1,1028,1814,0,0
-189,-790,0,0,0,0,0,0,0,0,0,-1,1035,1814,0,0
-182,-790,0,0,0,0,0,0,0,0,0,-1,1042,1814,0,0
-175,-790,0,0,0,0,0,0,0,0,0,-1,1049,1814,0,0
-168,-790,0,0,0,0,0,0,0,0,0,-1,1056,1814,0,0
-161,-790,0,0,0,0,0,0,0,0,0,-1,1063,1814,0,0
-154,-790,0,0,0,0,0,0,0,0,0,-1,1070,1814,0,0
-147,-790,0,0,0,0,0,0,0,0,0,-1,1077,1814,0,0
-140,-790,0,0,0,0,0,0,0,0,0,-1,1084,1814,0,0
-133,-790,0,0,0,0,0,0,0,0,0,-1,1091,1814,0,0
-126,-790,0,0,0,0,0,0,0,0,0,-1,1098,1814,0,0
-119,-790,0,0,0,0,0,0,0,0,0,-1,1105,1814,0,0
-112,-790,0,0,0,0,0,0,0,0,0,-1,1112,1814,0,0
-105,-790,0,0,0,0,0,0,0,0,0,-1,1119,1814,0,0
-98,-790,0,0,0,0,0,0,0,0,0,-1,1126,1814,0,0
-91,-790,0,0,0,0,0,0,0,0,0,-1,1133,1814,0,0
-84,-790,0,0,0,0,0,0,0,0,0,-1,1140,1814,0,0
-77,-790,-0.969238,5.30847,0,0,0,0,0,0,0,-1,1147,1814,-0.969277,-5.3085
-70,-790,-1.23169,4.98914,0,0,0,0,0,0,0,-1,1154,1814,-1.23163,-4.98916
-63,-790,-1.69128,4.32263,0,0,0,0,0,0,0,-1,1161,1814,-1.69128,-4.32258
-56,-790,-2.24756,3.75305,0,0,0,0,0,0,0,-1,1168,1814,-2.24758,-3.75302
-49,-790,-3.11011,3.35779,0,0,0,0,0,0,0,-1,1175,1814,-3.11006,-3.35781
-42,-790,0.593262,1.19165,0,0,0,0,0,0,0,-1,1182,1814,0.593225,-1.19165
-35,-790,0.307129,-0.20105,0,0,0,0,0,0,0,-1,1189,1814,0.307178,0.201006
-28,-790,-2.78467,0.785156,0,0,0,0,0,0,0,-1,1196,1814,-2.78471,-0.785183
-21,-790,8.0752,67.6027,0,0,0,0,0,0,0,-1,1203,1814,8.07523,-67.6026
-14,-790,8.47095,67.4736,0,0,0,0,0,0,0,-1,1210,1814,8.47096,-67.4737
-7,-790,8.96753,67.4336,0,0,0,0,0,0,0,-1,1217,1814,8.96752,-67.4337
0,-790,9.45215,67.722,0,0,0,0,0,0,0,-1,1224,1814,9.45209,-67.7221
7,-790,9.62329,68.0161,0,0,0,0,0,0,0,-1,1231,1814,9.6233,-68.0161
14,-790,9.61963,70.2319,0,0,0,0,0,0,0,-1,1238,1814,9.61962,-70.2319
21,-790,10.4033,70.8755,0,0,0,0,0,0,0,-1,1245,1814,10.4033,-70.8755
28,-790,10.0555,70.774,0,0,0,0,0,0,0,-1,1252,1814,10.0555,-70.7741
35,-790,9.69067,70.6707,0,0,0,0,0,0,0,-1,1259,1814,9.69064,-70.6706
42,-790,9.24353,70.8602,0,0,0,0,0,0,0,-1,1266,1814,9.24353,-70.8602
49,-790,8.66077,70.8671,-0.0547375,-0.0182288,0.0128847,-0.0141395,-0.0588268,1.26348,0.0354572,0.0458311,1273,1814,8.6608,-70.867
56,-790,8.03418,70.8984,-0.0496115,-0.0161733,0.0146333,-0.0106738,-0.0551109,1.21131,0.0337501,0.0472971,1280,1814,8.03416,-70.8984
63,-790,8.06738,71.1141,0,0,0,0,0,0,0,-1,1287,1814,8.06739,-71.1142
70,-790,8.07813,71.2723,-0.0342621,-0.0123499,0.0213735,0.000711963,-0.0473239,1.02224,0.0317893,0.0446261,1294,1814,8.07817,-71.2724
77,-790,8.09912,71.4285,-0.0230193,-0.0101772,0.0235887,0.00784879,-0.0410452,0.918283,0.0303203,0.0451714,1301,1814,8.09914,-71.4284
84,-790,8.08337,71.6438,0,0,0,0,0,0,0,-1,1308,1814,8.08339,-71.6438
91,-790,7.32214,73.1346,0,0,0,0,0,0,0,-1,1315,1814,7.32215,-73.1347
98,-790,7.11792,73.4646,0,0,0,0,0,0,0,-1,1322,1814,7.11798,-73.4646
105,-790,7.30115,68.0945,0,0,0,0,0,0,0,-1,1329,1814,7.3011,-68.0945
112,-790,4.70642,70.4287,0,0,0,0,0,0,0,-1,1336,1814,4.70648,-70.4287
119,-790,4.67468,70.2671,0.038448,-0.00948049,0.0362615,0.0579485,-0.0289809,0.493407,0.0511091,0.0465857,1343,1814,4.67467,-70.2671
126,-790,4.62329,70.1064,0,0,0,0,0,0,0,-1,1350,1814,4.62326,-70.1065
133,-790,4.65222,69.9012,0,0,0,0,0,0,0,-1,1357,1814,4.65217,-69.9013
140,-790,7.9375,65.4023,0,0,0,0,0,0,0,-1,1364,1814,7.93746,-65.4023
147,-790,7.78027,65.0953,0,0,0,0,0,0,0,-1,1371,1814,7.78025,-65.0954
154,-790,40.215,13.2396,0,0,0,0,0,0,0,-1,1378,1814,40.2149,-13.2396
161,-790,39.3429,13.0336,0,0,0,0,0,0,0,-1,1385,1814,39.3429,-13.0336
168,-790,7.04077,2.23279,0,0,0,0,0,0,0,-1,1392,1814,7.04082,-2.23275
175,-790,9.03918,3.98535,0,0,0,0,0,0,0,-1,1399,1814,9.0392,-3.98535
182,-790,8.96997,5.67896,0,0,0,0,0,0,0,-1,1406,1814,8.97001,-5.6789
189,-790,8.59729,6.86975,0,0,0,0,0,0,0,-1,1413,1814,8.59728,-6.86972
196,-790,8.21924,9.29053,0,0,0,0,0,0,0,-1,1420,1814,8.21924,-9.29048
203,-790,0,0,0,0,0,0,0,0,0,-1,1427,1814,0,0
210,-790,0,0,0,0,0,0,0,0,0,-1,1434,1814,0,0
217,-790,0,0,0,0,0,0,0,0,0,-1,1441,1814,0,0
224,-790,0,0,0,0,0,0,0,0,0,-1,1448,1814,0,0
231,-790,0,0,0,0,0,0,0,0,0,-1,1455,1814,0,0
238,-790,0,0,0,0,0,0,0,0,0,-1,1462,1814,0,0
245,-790,0,0,0,0,0,0,0,0,0,-1,1469,1814,0,0
252,-790,0,0,0,0,0,0,0,0,0,-1,1476,1814,0,0
259,-790,0,0,0,0,0,0,0,0,0,-1,1483,1814,0,0
266,-790,0,0,0,0,0,0,0,0,0,-1,1490,1814,0,0
273,-790,0,0,0,0,0,0,0,0,0,-1,1497,1814,0,0
280,-790,0,0,0,0,0,0,0,0,0,-1,1504,1814,0,0
287,-790,0,0,0,0,0,0,0,0,0,-1,1511,1814,0,0
294,-790,0,0,0,0,0,0,0,0,0,-1,1518,1814,0,0
301,-790,0,0,0,0,0,0,0,0,0,-1,1525,1814,0,0
308,-790,0,0,0,0,0,0,0,0,0,-1,1532,1814,0,0
315,-790,0,0,0,0,0,0,0,0,0,-1,1539,1814,0,0
322,-790,0,0,0,0,0,0,0,0,0,-1,1546,1814,0,0
329,-790,0,0,0,0,0,0,0,0,0,-1,1553,1814,0,0
336,-790,0,0,0,0,0,0,0,0,0,-1,1560,1814,0,0
343,-790,0,0,0,0,0,0,0,0,0,-1,1567,1814,0,0
350,-790,0,0,0,0,0,0,0,0,0,-1,1574,1814,0,0
357,-790,0,0,0,0,0,0,0,0,0,-1,1581,1814,0,0
364,-790,0,0,0,0,0,0,0,0,0,-1,1588,1814,0,0
371,-790,0,0,0,0,0,0,0,0,0,-1,1595,1814,0,0
378,-790,0,0,0,0,0,0,0,0,0,-1,1602,1814,0,0
385,-790,0,0,0,0,0,0,0,0,0,-1,1609,1814,0,0
392,-790,0,0,0,0,0,0,0,0,0,-1,1616,1814,0,0
399,-790,0,0,0,0,0,0,0,0,0,-1,1623,1814,0,0
406,-790,0,0,0,0,0,0,0,0,0,-1,1630,1814,0,0
413,-790,0,0,0,0,0,0,0,0,0,-1,1637,1814,0,0
420,-790,0,0,0,0,0,0,0,0,0,-1,1644,1814,0,0
427,-790,0,0,0,0,0,0,0,0,0,-1,1651,1814,0,0
434,-790,0,0,0,0,0,0,0,0,0,-1,1658,1814,0,0
441,-790,0,0,0,0,0,0,0,0,0,-1,1665,1814,0,0
448,-790,0,0,0,0,0,0,0,0,0,-1,1672,1814,0,0
455,-790,0,0,0,0,0,0,0,0,0,-1,1679,1814,0,0
462,-790,0,0,0,0,0,0,0,0,0,-1,1686,1814,0,0
469,-790,0,0,0,0,0,0,0,0,0,-1,1693,1814,0,0
476,-790,0,0,0,0,0,0,0,0,0,-1,1700,1814,0,0
483,-790,0,0,0,0,0,0,0,0,0,-1,1707,1814,0,0
490,-790,0,0,0,0,0,0,0,0,0,-1,1714,1814,0,0
497,-790,0,0,0,0,0,0,0,0,0,-1,1721,1814,0,0
504,-790,0,0,0,0,0,0,0,0,0,-1,1728,1814,0,0
511,-790,0,0,0,0,0,0,0,0,0,-1,1735,1814,0,0
518,-790,0,0,0,0,0,0,0,0,0,-1,1742,1814,0,0
525,-790,0,0,0,0,0,0,0,0,0,-1,1749,1814,0,0
532,-790,0,0,0,0,0,0,0,0,0,-1,1756,1814,0,0
539,-790,0,0,0,0,0,0,0,0,0,-1,1763,1814,0,0
546,-790,0,0,0,0,0,0,0,0,0,-1,1770,1814,0,0
553,-790,0,0,0,0,0,0,0,0,0,-1,1777,1814,0,0
560,-790,0,0,0,0,0,0,0,0,0,-1,1784,1814,0,0
567,-790,0,0,0,0,0,0,0,0,0,-1,1791,1814,0,0
574,-790,0,0,0,0,0,0,0,0,0,-1,1798,1814,0,0
581,-790,0,0,0,0,0,0,0,0,0,-1,1805,1814,0,0
588,-790,0,0,0,0,0,0,0,0,0,-1,1812,1814,0,0
595,-790,0,0,0,0,0,0,0,0,0,-1,1819,1814,0,0
602,-790,0,0,0,0,0,0,0,0,0,-1,1826,1814,0,0
609,-790,0,0,0,0,0,0,0,0,0,-1,1833,1814,0,0
616,-790,0,0,0,0,0,0,0,0,0,-1,1840,1814,0,0
623,-790,0,0,0,0,0,0,0,0,0,-1,1847,1814,0,0
630,-790,0,0,0,0,0,0,0,0,0,-1,1854,1814,0,0
637,-790,0,0,0,0,0,0,0,0,0,-1,1861,1814,0,0
644,-790,0,0,0,0,0,0,0,0,0,-1,1868,1814,0,0
651,-790,0,0,0,0,0,0,0,0,0,-1,1875,1814,0,0
658,-790,0,0,0,0,0,0,0,0,0,-1,1882,1814,0,0
665,-790,0,0,0,0,0,0,0,0,0,-1,1889,1814,0,0
672,-790,0,0,0,0,0,0,0,0,0,-1,1896,1814,0,0
679,-790,0,0,0,0,0,0,0,0,0,-1,1903,1814,0,0
686,-790,0,0,0,0,0,0,0,0,0,-1,1910,1814,0,0
693,-790,0,0,0,0,0,0,0,0,0,-1,1917,1814,0,0
700,-790,0,0,0,0,0,0,0,0,0,-1,1924,1814,0,0
707,-790,0,0,0,0,0,0,0,0,0,-1,1931,1814,0,0
714,-790,0,0,0,0,0,0,0,0,0,-1,1938,1814,0,0
721,-790,0,0,0,0,0,0,0,0,0,-1,1945,1814,0,0
728,-790,0,0,0,0,0,0,0,0,0,-1,1952,1814,0,0
735,-790,0,0,0,0,0,0,0,0,0,-1,1959,1814,0,0
742,-790,0,0,0,0,0,0,0,0,0,-1,1966,1814,0,0
749,-790,0,0,0,0,0,0,0,0,0,-1,1973,1814,0,0
756,-790,0,0,0,0,0,0,0,0,0,-1,1980,1814,0,0
763,-790,0,0,0,0,0,0,0,0,0,-1,1987,1814,0,0
770,-790,0,0,0,0,0,0,0,0,0,-1,1994,1814,0,0
777,-790,0,0,0,0,0,0,0,0,0,-1,2001,1814,0,0
784,-790,0,0,0,0,0,0,0,0,0,-1,2008,1814,0,0
791,-790,0,0,0,0,0,0,0,0,0,-1,2015,1814,0,0
798,-790,0,0,0,0,0,0,0,0,0,-1,2022,1814,0,0
805,-790,0,0,0,0,0,0,0,0,0,-1,2029,1814,0,0
812,-790,0,0,0,0,0,0,0,0,0,-1,2036,1814,0,0
-700,-797,0,0,0,0,0,0,0,0,0,-1,524,1821,0,0
-693,-797,0,0,0,0,0,0,0,0,0,-1,531,1821,0,0
-686,-797,0,0,0,0,0,0,0,0,0,-1,538,1821,0,0
-679,-797,0,0,0,0,0,0,0,0,0,-1,545,1821,0,0
-672,-797,0,0,0,0,0,0,0,0,0,-1,552,1821,0,0
-665,-797,0,0,0,0,0,0,0,0,0,-1,559,1821,0,0
-658,-797,0,0,0,0,0,0,0,0,0,-1,566,1821,0,0
-651,-797,0,0,0,0,0,0,0,0,0,-1,573,1821,0,0
-644,-797,0,0,0,0,0,0,0,0,0,-1,580,1821,0,0
-637,-797,0,0,0,0,0,0,0,0,0,-1,587,1821,0,0
-630,-797,0,0,0,0,0,0,0,0,0,-1,594,1821,0,0
-623,-797,0,0,0,0,0,0,0,0,0,-1,601,1821,0,0
-616,-797,0,0,0,0,0,0,0,0,0,-1,608,1821,0,0
-609,-797,0,0,0,0,0,0,0,0,0,-1,615,1821,0,0
-602,-797,0,0,0,0,0,0,0,0,0,-1,622,1821,0,0
-595,-797,0,0,0,0,0,0,0,0,0,-1,629,1821,0,0
-588,-797,0,0,0,0,0,0,0,0,0,-1,636,1821,0,0
-581,-797,0,0,0,0,0,0,0,0,0,-1,643,1821,0,0
-574,-797,0,0,0,0,0,0,0,0,0,-1,650,1821,0,0
-567,-797,0,0,0,0,0,0,0,0,0,-1,657,1821,0,0
-560,-797,0,0,0,0,0,0,0,0,0,-1,664,1821,0,0
-553,-797,0,0,0,0,0,0,0,0,0,-1,671,1821,0,0
-546,-797,0,0,0,0,0,0,0,0,0,-1,678,1821,0,0
-539,-797,0,0,0,0,0,0,0,0,0,-1,685,1821,0,0
-532,-797,0,0,0,0,0,0,0,0,0,-1,692,1821,0,0
-525,-797,0,0,0,0,0,0,0,0,0,-1,699,1821,0,0
-518,-797,0,0,0,0,0,0,0,0,0,-1,706,1821,0,0
-511,-797,0,0,0,0,0,0,0,0,0,-1,713,1821,0,0
-504,-797,0,0,0,0,0,0,0,0,0,-1,720,1821,0,0
-497,-797,0,0,0,0,0,0,0,0,0,-1,727,1821,0,0
-490,-797,0,0,0,0,0,0,0,0,0,-1,734,1821,0,0
-483,-797,0,0,0,0,0,0,0,0,0,-1,741,1821,0,0
-476,-797,0,0,0,0,0,0,0,0,0,-1,748,1821,0,0
-469,-797,0,0,0,0,0,0,0,0,0,-1,755,1821,0,0
-462,-797,0,0,0,0,0,0,0,0,0,-1,762,1821,0,0
-455,-797,0,0,0,0,0,0,0,0,0,-1,769,1821,0,0
-448,-797,0,0,0,0,0,0,0,0,0,-1,776,1821,0,0
-441,-797,0,0,0,0,0,0,0,0,0,-1,783,1821,0,0
-434,-797,0,0,0,0,0,0,0,0,0,-1,790,1821,0,0
-427,-797,0,0,0,0,0,0,0,0,0,-1,797,1821,0,0
-420,-797,0,0,0,0,0,0,0,0,0,-1,804,1821,0,0
-413,-797,0,0,0,0,0,0,0,0,0,-1,811,1821,0,0
-406,-797,0,0,0,0,0,0,0,0,0,-1,818,1821,0,0
-399,-797,0,0,0,0,0,0,0,0,0,-1,825,1821,0,0
-392,-797,0,0,0,0,0,0,0,0,0,-1,832,1821,0,0
-385,-797,0,0,0,0,0,0,0,0,0,-1,839,1821,0,0
-378,-797,0,0,0,0,0,0,0,0,0,-1,846,1821,0,0
-371,-797,0,0,0,0,0,0,0,0,0,-1,853,1821,0,0
-364,-797,0,0,0,0,0,0,0,0,0,-1,860,1821,0,0
-357,-797,0,0,0,0,0,0,0,0,0,-1,867,1821,0,0
-350,-797,0,0,0,0,0,0,0,0,0,-1,874,1821,0,0
-343,-797,0,0,0,0,0,0,0,0,0,-1,881,1821,0,0
-336,-797,0,0,0,0,0,0,0,0,0,-1,888,1821,0,0
-329,-797,0,0,0,0,0,0,0,0,0,-1,895,1821,0,0
-322,-797,0,0,0,0,0,0,0,0,0,-1,902,1821,0,0
-315,-797,0,0,0,0,0,0,0,0,0,-1,909,1821,0,0
-308,-797,0,0,0,0,0,0,0,0,0,-1,916,1821,0,0
-301,-797,0,0,0,0,0,0,0,0,0,-1,923,1821,0,0
-294,-797,0,0,0,0,0,0,0,0,0,-1,930,1821,0,0
-287,-797,0,0,0,0,0,0,0,0,0,-1,937,1821,0,0
-280,-797,0,0,0,0,0,0,0,0,0,-1,944,1821,0,0
-273,-797,0,0,0,0,0,0,0,0,0,-1,951,1821,0,0
-266,-797,0,0,0,0,0,0,0,0,0,-1,958,1821,0,0
-259,-797,0,0,0,0,0,0,0,0,0,-1,965,1821,0,0
-252,-797,0,0,0,0,0,0,0,0,0,-1,972,1821,0,0
-245,-797,0,0,0,0,0,0,0,0,0,-1,979,1821,0,0
-238,-797,0,0,0,0,0,0,0,0,0,-1,986,1821,0,0
-231,-797,0,0,0,0,0,0,0,0,0,-1,993,1821,0,0
-224,-797,0,0,0,0,0,0,0,0,0,-1,1000,1821,0,0
-217,-797,0,0,0,0,0,0,0,0,0,-1,1007,1821,0,0
-210,-797,0,0,0,0,0,0,0,0,0,-1,1014,1821,0,0
-203,-797,0,0,0,0,0,0,0,0,0,-1,1021,1821,0,0
-196,-797,0,0,0,0,0,0,0,0,0,-1,1028,1821,0,0
-189,-797,0,0,0,0,0,0,0,0,0,-1,1035,1821,0,0
-182,-797,0,0,0,0,0,0,0,0,0,-1,1042,1821,0,0
-175,-797,0,0,0,0,0,0,0,0,0,-1,1049,1821,0,0
-168,-797,0,0,0,0,0,0,0,0,0,-1,1056,1821,0,0
-161,-797,0,0,0,0,0,0,0,0,0,-1,1063,1821,0,0
-154,-797,0,0,0,0,0,0,0,0,0,-1,1070,1821,0,0
-147,-797,0,0,0,0,0,0,0,0,0,-1,1077,1821,0,0
-140,-797,0,0,0,0,0,0,0,0,0,-1,1084,1821,0,0
-133,-797,0,0,0,0,0,0,0,0,0,-1,1091,1821,0,0
-126,-797,0,0,0,0,0,0,0,0,0,-1,1098,1821,0,0
-119,-797,0,0,0,0,0,0,0,0,0,-1,1105,1821,0,0
-112,-797,0,0,0,0,0,0,0,0,0,-1,1112,1821,0,0
-105,-797,0,0,0,0,0,0,0,0,0,-1,1119,1821,0,0
-98,-797,0,0,0,0,0,0,0,0,0,-1,1126,1821,0,0
-91,-797,0,0,0,0,0,0,0,0,0,-1,1133,1821,0,0
-84,-797,0,0,0,0,0,0,0,0,0,-1,1140,1821,0,0
-77,-797,0,0,0,0,0,0,0,0,0,-1,1147,1821,0,0
-70,-797,0,0,0,0,0,0,0,0,0,-1,1154,1821,0,0
-63,-797,0,0,0,0,0,0,0,0,0,-1,1161,1821,0,0
-56,-797,0,0,0,0,0,0,0,0,0,-1,1168,1821,0,0
-49,-797,0,0,0,0,0,0,0,0,0,-1,1175,1821,0,0
-42,-797,0.579834,0.692871,0,0,0,0,0,0,0,-1,1182,1821,0.579856,-0.692816
-35,-797,-0.185425,5.55396,0,0,0,0,0,0,0,-1,1189,1821,-0.18542,-5.55396
-28,-797,-0.310181,4.71509,0,0,0,0,0,0,0,-1,1196,1821,-0.310228,-4.71503
-21,-797,7.65479,67.3679,0,0,0,0,0,0,0,-1,1203,1821,7.65474,-67.3679
-14,-797,8.11133,67.2397,0,0,0,0,0,0,0,-1,1210,1821,8.11135,-67.2398
-7,-797,8.75684,67.282,0,0,0,0,0,0,0,-1,1217,1821,8.75681,-67.282
0,-797,9.42163,67.5658,0,0,0,0,0,0,0,-1,1224,1821,9.42165,-67.5658
7,-797,9.88074,69.1477,0,0,0,0,0,0,0,-1,1231,1821,9.88075,-69.1477
14,-797,9.89441,70.3544,0,0,0,0,0,0,0,-1,1238,1821,9.89435,-70.3543
21,-797,9.2937,70.9464,0,0,0,0,0,0,0,-1,1245,1821,9.29373,-70.9464
28,-797,9.95227,70.8055,0,0,0,0,0,0,0,-1,1252,1821,9.95222,-70.8055
35,-797,11.5085,72.0033,0,0,0,0,0,0,0,-1,1259,1821,11.5086,-72.0033
42,-797,9.41797,71.0383,0,0,0,0,0,0,0,-1,1266,1821,9.41798,-71.0383
49,-797,8.25964,70.8137,0,0,0,0,0,0,0,-1,1273,1821,8.25967,-70.8137
56,-797,7.3822,70.5594,0,0,0,0,0,0,0,-1,1280,1821,7.38222,-70.5594
63,-797,7.88269,71.1477,0,0,0,0,0,0,0,-1,1287,1821,7.88271,-71.1477
70,-797,8.15857,71.5664,0,0,0,0,0,0,0,-1,1294,1821,8.1586,-71.5665
77,-797,7.99341,71.4951,0,0,0,0,0,0,0,-1,1301,1821,7.99346,-71.4952
84,-797,7.92188,71.7299,0,0,0,0,0,0,0,-1,1308,1821,7.92187,-71.7299
91,-797,7.19812,73.4956,0,0,0,0,0,0,0,-1,1315,1821,7.19816,-73.4956
98,-797,6.95044,73.8481,0,0,0,0,0,0,0,-1,1322,1821,6.95043,-73.8482
105,-797,6.96204,67.1682,0,0,0,0,0,0,0,-1,1329,1821,6.96202,-67.1682
112,-797,3.81396,70.259,0,0,0,0,0,0,0,-1,1336,1821,3.81394,-70.2591
119,-797,3.9696,70.4989,0,0,0,0,0,0,0,-1,1343,1821,3.96955,-70.499
126,-797,3.80725,70.2966,0,0,0,0,0,0,0,-1,1350,1821,3.80727,-70.2966
133,-797,9.07654,64.5762,0,0,0,0,0,0,0,-1,1357,1821,9.07654,-64.5762
140,-797,8.54834,64.0643,0,0,0,0,0,0,0,-1,1364,1821,8.54838,-64.0644
147,-797,8.328,63.6344,0,0,0,0,0,0,0,-1,1371,1821,8.32803,-63.6344
154,-797,40.2623,8.88733,0,0,0,0,0,0,0,-1,1378,1821,40.2623,-8.88731
161,-797,42.2798,8.17371,0,0,0,0,0,0,0,-1,1385,1821,42.2798,-8.17367
168,-797,0,0,0,0,0,0,0,0,0,-1,1392,1821,0,0
175,-797,0,0,0,0,0,0,0,0,0,-1,1399,1821,0,0
182,-797,0,0,0,0,0,0,0,0,0,-1,1406,1821,0,0
189,-797,0,0,0,0,0,0,0,0,0,-1,1413,1821,0,0
196,-797,0,0,0,0,0,0,0,0,0,-1,1420,1821,0,0
203,-797,0,0,0,0,0,0,0,0,0,-1,1427,1821,0,0
210,-797,0,0,0,0,0,0,0,0,0,-1,1434,1821,0,0
217,-797,0,0,0,0,0,0,0,0,0,-1,1441,1821,0,0
224,-797,0,0,0,0,0,0,0,0,0,-1,1448,1821,0,0
231,-797,0,0,0,0,0,0,0,0,0,-1,1455,1821,0,0
238,-797,0,0,0,0,0,0,0,0,0,-1,1462,1821,0,0
245,-797,0,0,0,0,0,0,0,0,0,-1,1469,1821,0,0
252,-797,0,0,0,0,0,0,0,0,0,-1,1476,1821,0,0
259,-797,0,0,0,0,0,0,0,0,0,-1,1483,1821,0,0
266,-797,0,0,0,0,0,0,0,0,0,-1,1490,1821,0,0
273,-797,0,0,0,0,0,0,0,0,0,-1,1497,1821,0,0
280,-797,0,0,0,0,0,0,0,0,0,-1,1504,1821,0,0
287,-797,0,0,0,0,0,0,0,0,0,-1,1511,1821,0,0
294,-797,0,0,0,0,0,0,0,0,0,-1,1518,1821,0,0
301,-797,0,0,0,0,0,0,0,0,0,-1,1525,1821,0,0
308,-797,0,0,0,0,0,0,0,0,0,-1,1532,1821,0,0
315,-797,0,0,0,0,0,0,0,0,0,-1,1539,1821,0,0
322,-797,0,0,0,0,0,0,0,0,0,-1,1546,1821,0,0
329,-797,0,0,0,0,0,0,0,0,0,-1,1553,1821,0,0
336,-797,0,0,0,0,0,0,0,0,0,-1,1560,1821,0,0
343,-797,0,0,0,0,0,0,0,0,0,-1,1567,1821,0,0
350,-797,0,0,0,0,0,0,0,0,0,-1,1574,1821,0,0
357,-797,0,0,0,0,0,0,0,0,0,-1,1581,1821,0,0
364,-797,0,0,0,0,0,0,0,0,0,-1,1588,1821,0,0
371,-797,0,0,0,0,0,0,0,0,0,-1,1595,1821,0,0
378,-797,0,0,0,0,0,0,0,0,0,-1,1602,1821,0,0
385,-797,0,0,0,0,0,0,0,0,0,-1,1609,1821,0,0
392,-797,0,0,0,0,0,0,0,0,0,-1,1616,1821,0,0
399,-797,0,0,0,0,0,0,0,0,0,-1,1623,1821,0,0
406,-797,0,0,0,0,0,0,0,0,0,-1,1630,1821,0,0
413,-797,0,0,0,0,0,0,0,0,0,-1,1637,1821,0,0
420,-797,0,0,0,0,0,0,0,0,0,-1,1644,1821,0,0
427,-797,0,0,0,0,0,0,0,0,0,-1,1651,1821,0,0
434,-797,0,0,0,0,0,0,0,0,0,-1,1658,1821,0,0
441,-797,0,0,0,0,0,0,0,0,0,-1,1665,1821,0,0
448,-797,0,0,0,0,0,0,0,0,0,-1,1672,1821,0,0
455,-797,0,0,0,0,0,0,0,0,0,-1,1679,1821,0,0
462,-797,0,0,0,0,0,0,0,0,0,-1,1686,1821,0,0
469,-797,0,0,0,0,0,0,0,0,0,-1,1693,1821,0,0
476,-797,0,0,0,0,0,0,0,0,0,-1,1700,1821,0,0
483,-797,0,0,0,0,0,0,0,0,0,-1,1707,1821,0,0
490,-797,0,0,0,0,0,0,0,0,0,-1,1714,1821,0,0
497,-797,0,0,0,0,0,0,0,0,0,-1,1721,1821,0,0
504,-797,0,0,0,0,0,0,0,0,0,-1,1728,1821,0,0
511,-797,0,0,0,0,0,0,0,0,0,-1,1735,1821,0,0
518,-797,0,0,0,0,0,0,0,0,0,-1,1742,1821,0,0
525,-797,0,0,0,0,0,0,0,0,0,-1,1749,1821,0,0
532,-797,0,0,0,0,0,0,0,0,0,-1,1756,1821,0,0
539,-797,0,0,0,0,0,0,0,0,0,-1,1763,1821,0,0
546,-797,0,0,0,0,0,0,0,0,0,-1,1770,1821,0,0
553,-797,0,0,0,0,0,0,0,0,0,-1,1777,1821,0,0
560,-797,0,0,0,0,0,0,0,0,0,-1,1784,1821,0,0
567,-797,0,0,0,0,0,0,0,0,0,-1,1791,1821,0,0
574,-797,0,0,0,0,0,0,0,0,0,-1,1798,1821,0,0
581,-797,0,0,0,0,0,0,0,0,0,-1,1805,1821,0,0
588,-797,0,0,0,0,0,0,0,0,0,-1,1812,1821,0,0
595,-797,0,0,0,0,0,0,0,0,0,-1,1819,1821,0,0
602,-797,0,0,0,0,0,0,0,0,0,-1,1826,1821,0,0
609,-797,0,0,0,0,0,0,0,0,0,-1,1833,1821,0,0
616,-797,0,0,0,0,0,0,0,0,0,-1,1840,1821,0,0
623,-797,0,0,0,0,0,0,0,0,0,-1,1847,1821,0,0
630,-797,0,0,0,0,0,0,0,0,0,-1,1854,1821,0,0
637,-797,0,0,0,0,0,0,0,0,0,-1,1861,1821,0,0
644,-797,0,0,0,0,0,0,0,0,0,-1,1868,1821,0,0
651,-797,0,0,0,0,0,0,0,0,0,-1,1875,1821,0,0
658,-797,0,0,0,0,0,0,0,0,0,-1,1882,1821,0,0
665,-797,0,0,0,0,0,0,0,0,0,-1,1889,1821,0,0
672,-797,0,0,0,0,0,0,0,0,0,-1,1896,1821,0,0
679,-797,0,0,0,0,0,0,0,0,0,-1,1903,1821,0,0
686,-797,0,0,0,0,0,0,0,0,0,-1,1910,1821,0,0
693,-797,0,0,0,0,0,0,0,0,0,-1,1917,1821,0,0
700,-797,0,0,0,0,0,0,0,0,0,-1,1924,1821,0,0
707,-797,0,0,0,0,0,0,0,0,0,-1,1931,1821,0,0
714,-797,0,0,0,0,0,0,0,0,0,-1,1938,1821,0,0
721,-797,0,0,0,0,0,0,0,0,0,-1,1945,1821,0,0
728,-797,0,0,0,0,0,0,0,0,0,-1,1952,1821,0,0
735,-797,0,0,0,0,0,0,0,0,0,-1,1959,1821,0,0
742,-797,0,0,0,0,0,0,0,0,0,-1,1966,1821,0,0
749,-797,0,0,0,0,0,0,0,0,0,-1,1973,1821,0,0
756,-797,0,0,0,0,0,0,0,0,0,-1,1980,1821,0,0
763,-797,0,0,0,0,0,0,0,0,0,-1,1987,1821,0,0
770,-797,0,0,0,0,0,0,0,0,0,-1,1994,1821,0,0
777,-797,0,0,0,0,0,0,0,0,0,-1,2001,1821,0,0
784,-797,0,0,0,0,0,0,0,0,0,-1,2008,1821,0,0
791,-797,0,0,0,0,0,0,0,0,0,-1,2015,1821,0,0
798,-797,0,0,0,0,0,0,0,0,0,-1,2022,1821,0,0
805,-797,0,0,0,0,0,0,0,0,0,-1,2029,1821,0,0
812,-797,0,0,0,0,0,0,0,0,0,-1,2036,1821,0,0
-700,-804,0,0,0,0,0,0,0,0,0,-1,524,1828,0,0
-693,-804,0,0,0,0,0,0,0,0,0,-1,531,1828,0,0
-686,-804,0,0,0,0,0,0,0,0,0,-1,538,1828,0,0
-679,-804,0,0,0,0,0,0,0,0,0,-1,545,1828,0,0
-672,-804,0,0,0,0,0,0,0,0,0,-1,552,1828,0,0
-665,-804,0,0,0,0,0,0,0,0,0,-1,559,1828,0,0
-658,-804,0,0,0,0,0,0,0,0,0,-1,566,1828,0,0
-651,-804,0,0,0,0,0,0,0,0,0,-1,573,1828,0,0
-644,-804,0,0,0,0,0,0,0,0,0,-1,580,1828,0,0
-637,-804,0,0,0,0,0,0,0,0,0,-1,587,1828,0,0
-630,-804,0,0,0,0,0,0,0,0,0,-1,594,1828,0,0
-623,-804,0,0,0,0,0,0,0,0,0,-1,601,1828,0,0
-616,-804,0,0,0,0,0,0,0,0,0,-1,608,1828,0,0
-609,-804,0,0,0,0,0,0,0,0,0,-1,615,1828,0,0
-602,-804,0,0,0,0,0,0,0,0,0,-1,622,1828,0,0
-595,-804,0,0,0,0,0,0,0,0,0,-1,629,1828,0,0
-588,-804,0,0,0,0,0,0,0,0,0,-1,636,1828,0,0
-581,-804,0,0,0,0,0,0,0,0,0,-1,643,1828,0,0
-574,-804,0,0,0,0,0,0,0,0,0,-1,650,1828,0,0
-567,-804,0,0,0,0,0,0,0,0,0,-1,657,1828,0,0
-560,-804,0,0,0,0,0,0,0,0,0,-1,664,1828,0,0
-553,-804,0,0,0,0,0,0,0,0,0,-1,671,1828,0,0
-546,-804,0,0,0,0,0,0,0,0,0,-1,678,1828,0,0
-539,-804,0,0,0,0,0,0,0,0,0,-1,685,1828,0,0
-532,-804,0,0,0,0,0,0,0,0,0,-1,692,1828,0,0
-525,-804,0,0,0,0,0,0,0,0,0,-1,699,1828,0,0
-518,-804,0,0,0,0,0,0,0,0,0,-1,706,1828,0,0
-511,-804,0,0,0,0,0,0,0,0,0,-1,713,1828,0,0
-504,-804,0,0,0,0,0,0,0,0,0,-1,720,1828,0,0
-497,-804,0,0,0,0,0,0,0,0,0,-1,727,1828,0,0
-490,-804,0,0,0,0,0,0,0,0,0,-1,734,1828,0,0
-483,-804,0,0,0,0,0,0,0,0,0,-1,741,1828,0,0
-476,-804,0,0,0,0,0,0,0,0,0,-1,748,1828,0,0
-469,-804,0,0,0,0,0,0,0,0,0,-1,755,1828,0,0
-462,-804,0,0,0,0,0,0,0,0,0,-1,762,1828,0,0
-455,-804,0,0,0,0,0,0,0,0,0,-1,769,1828,0,0
-448,-804,0,0,0,0,0,0,0,0,0,-1,776,1828,0,0
-441,-804,0,0,0,0,0,0,0,0,0,-1,783,1828,0,0
-434,-804,0,0,0,0,0,0,0,0,0,-1,790,1828,0,0
-427,-804,0,0,0,0,0,0,0,0,0,-1,797,1828,0,0
-420,-804,0,0,0,0,0,0,0,0,0,-1,804,1828,0,0
-413,-804,0,0,0,0,0,0,0,0,0,-1,811,1828,0,0
-406,-804,0,0,0,0,0,0,0,0,0,-1,818,1828,0,0
-399,-804,0,0,0,0,0,0,0,0,0,-1,825,1828,0,0
-392,-804,0,0,0,0,0,0,0,0,0,-1,832,1828,0,0
-385,-804,0,0,0,0,0,0,0,0,0,-1,839,1828,0,0
-378,-804,0,0,0,0,0,0,0,0,0,-1,846,1828,0,0
-371,-804,0,0,0,0,0,0,0,0,0,-1,853,1828,0,0
-364,-804,0,0,0,0,0,0,0,0,0,-1,860,1828,0,0
-357,-804,0,0,0,0,0,0,0,0,0,-1,867,1828,0,0
-350,-804,0,0,0,0,0,0,0,0,0,-1,874,1828,0,0
-343,-804,0,0,0,0,0,0,0,0,0,-1,881,1828,0,0
-336,-804,0,0,0,0,0,0,0,0,0,-1,888,1828,0,0
-329,-804,0,0,0,0,0,0,0,0,0,-1,895,1828,0,0
-322,-804,0,0,0,0,0,0,0,0,0,-1,902,1828,0,0
-315,-804,0,0,0,0,0,0,0,0,0,-1,909,1828,0,0
-308,-804,0,0,0,0,0,0,0,0,0,-1,916,1828,0,0
-301,-804,0,0,0,0,0,0,0,0,0,-1,923,1828,0,0
-294,-804,0,0,0,0,0,0,0,0,0,-1,930,1828,0,0
-287,-804,0,0,0,0,0,0,0,0,0,-1,937,1828,0,0
-280,-804,0,0,0,0,0,0,0,0,0,-1,944,1828,0,0
-273,-804,0,0,0,0,0,0,0,0,0,-1,951,1828,0,0
-266,-804,0,0,0,0,0,0,0,0,0,-1,958,1828,0,0
-259,-804,0,0,0,0,0,0,0,0,0,-1,965,1828,0,0
-252,-804,0,0,0,0,0,0,0,0,0,-1,972,1828,0,0
-245,-804,0,0,0,0,0,0,0,0,0,-1,979,1828,0,0
-238,-804,0,0,0,0,0,0,0,0,0,-1,986,1828,0,0
-231,-804,0,0,0,0,0,0,0,0,0,-1,993,1828,0,0
-224,-804,0,0,0,0,0,0,0,0,0,-1,1000,1828,0,0
-217,-804,0,0,0,0,0,0,0,0,0,-1,1007,1828,0,0
-210,-804,0,0,0,0,0,0,0,0,0,-1,1014,1828,0,0
-203,-804,0,0,0,0,0,0,0,0,0,-1,1021,1828,0,0
-196,-804,0,0,0,0,0,0,0,0,0,-1,1028,1828,0,0
-189,-804,0,0,0,0,0,0,0,0,0,-1,1035,1828,0,0
-182,-804,0,0,0,0,0,0,0,0,0,-1,1042,1828,0,0
-175,-804,0,0,0,0,0,0,0,0,0,-1,1049,1828,0,0
-168,-804,0,0,0,0,0,0,0,0,0,-1,1056,1828,0,0
-161,-804,0,0,0,0,0,0,0,0,0,-1,1063,1828,0,0
-154,-804,0,0,0,0,0,0,0,0,0,-1,1070,1828,0,0
-147,-804,0,0,0,0,0,0,0,0,0,-1,1077,1828,0,0
-140,-804,0,0,0,0,0,0,0,0,0,-1,1084,1828,0,0
-133,-804,0,0,0,0,0,0,0,0,0,-1,1091,1828,0,0
-126,-804,0,0,0,0,0,0,0,0,0,-1,1098,1828,0,0
-119,-804,0,0,0,0,0,0,0,0,0,-1,1105,1828,0,0
-112,-804,0,0,0,0,0,0,0,0,0,-1,1112,1828,0,0
-105,-804,0,0,0,0,0,0,0,0,0,-1,1119,1828,0,0
-98,-804,0,0,0,0,0,0,0,0,0,-1,1126,1828,0,0
-91,-804,0,0,0,0,0,0,0,0,0,-1,1133,1828,0,0
-84,-804,0,0,0,0,0,0,0,0,0,-1,1140,1828,0,0
-77,-804,0,0,0,0,0,0,0,0,0,-1,1147,1828,0,0
-70,-804,0,0,0,0,0,0,0,0,0,-1,1154,1828,0,0
-63,-804,0,0,0,0,0,0,0,0,0,-1,1161,1828,0,0
-56,-804,0,0,0,0,0,0,0,0,0,-1,1168,1828,0,0
-49,-804,0,0,0,0,0,0,0,0,0,-1,1175,1828,0,0
-42,-804,0,0,0,0,0,0,0,0,0,-1,1182,1828,0,0
-35,-804,0,0,0,0,0,0,0,0,0,-1,1189,1828,0,0
-28,-804,0,0,0,0,0,0,0,0,0,-1,1196,1828,0,0
-21,-804,0,0,0,0,0,0,0,0,0,-1,1203,1828,0,0
-14,-804,0,0,0,0,0,0,0,0,0,-1,1210,1828,0,0
-7,-804,0,0,0,0,0,0,0,0,0,-1,1217,1828,0,0
0,-804,0,0,0,0,0,0,0,0,0,-1,1224,1828,0,0
7,-804,0,0,0,0,0,0,0,0,0,-1,1231,1828,0,0
14,-804,0,0,0,0,0,0,0,0,0,-1,1238,1828,0,0
21,-804,0,0,0,0,0,0,0,0,0,-1,1245,1828,0,0
28,-804,0,0,0,0,0,0,0,0,0,-1,1252,1828,0,0
35,-804,10.5293,71.3127,0,0,0,0,0,0,0,-1,1259,1828,10.5292,-71.3128
42,-804,9.20032,71.295,0,0,0,0,0,0,0,-1,1266,1828,9.2003,-71.2951
49,-804,7.71033,71.0027,0,0,0,0,0,0,0,-1,1273,1828,7.71037,-71.0027
56,-804,7.37244,72.1838,0,0,0,0,0,0,0,-1,1280,1828,7.37241,-72.1839
63,-804,7.64575,72.3162,0,0,0,0,0,0,0,-1,1287,1828,7.6457,-72.3162
70,-804,7.974,72.1494,0,0,0,0,0,0,0,-1,1294,1828,7.97405,-72.1495
77,-804,8.0885,72.3353,0,0,0,0,0,0,0,-1,1301,1828,8.08854,-72.3354
84,-804,8.38806,72.3199,0,0,0,0,0,0,0,-1,1308,1828,8.38806,-72.32
91,-804,0,0,0,0,0,0,0,0,0,-1,1315,1828,0,0
98,-804,0,0,0,0,0,0,0,0,0,-1,1322,1828,0,0
105,-804,0,0,0,0,0,0,0,0,0,-1,1329,1828,0,0
112,-804,0,0,0,0,0,0,0,0,0,-1,1336,1828,0,0
119,-804,0,0,0,0,0,0,0,0,0,-1,1343,1828,0,0
126,-804,0,0,0,0,0,0,0,0,0,-1,1350,1828,0,0
133,-804,0,0,0,0,0,0,0,0,0,-1,1357,1828,0,0
140,-804,0,0,0,0,0,0,0,0,0,-1,1364,1828,0,0
147,-804,0,0,0,0,0,0,0,0,0,-1,1371,1828,0,0
154,-804,0,0,0,0,0,0,0,0,0,-1,1378,1828,0,0
161,-804,0,0,0,0,0,0,0,0,0,-1,1385,1828,0,0
168,-804,0,0,0,0,0,0,0,0,0,-1,1392,1828,0,0
175,-804,0,0,0,0,0,0,0,0,0,-1,1399,1828,0,0
182,-804,0,0,0,0,0,0,0,0,0,-1,1406,1828,0,0
189,-804,0,0,0,0,0,0,0,0,0,-1,1413,1828,0,0
196,-804,0,0,0,0,0,0,0,0,0,-1,1420,1828,0,0
203,-804,0,0,0,0,0,0,0,0,0,-1,1427,1828,0,0
210,-804,0,0,0,0,0,0,0,0,0,-1,1434,1828,0,0
217,-804,0,0,0,0,0,0,0,0,0,-1,1441,1828,0,0
224,-804,0,0,0,0,0,0,0,0,0,-1,1448,1828,0,0
231,-804,0,0,0,0,0,0,0,0,0,-1,1455,1828,0,0
238,-804,0,0,0,0,0,0,0,0,0,-1,1462,1828,0,0
245,-804,0,0,0,0,0,0,0,0,0,-1,1469,1828,0,0
252,-804,0,0,0,0,0,0,0,0,0,-1,1476,1828,0,0
259,-804,0,0,0,0,0,0,0,0,0,-1,1483,1828,0,0
266,-804,0,0,0,0,0,0,0,0,0,-1,1490,1828,0,0
273,-804,0,0,0,0,0,0,0,0,0,-1,1497,1828,0,0
280,-804,0,0,0,0,0,0,0,0,0,-1,1504,1828,0,0
287,-804,0,0,0,0,0,0,0,0,0,-1,1511,1828,0,0
294,-804,0,0,0,0,0,0,0,0,0,-1,1518,1828,0,0
301,-804,0,0,0,0,0,0,0,0,0,-1,1525,1828,0,0
308,-804,0,0,0,0,0,0,0,0,0,-1,1532,1828,0,0
315,-804,0,0,0,0,0,0,0,0,0,-1,1539,1828,0,0
322,-804,0,0,0,0,0,0,0,0,0,-1,1546,1828,0,0
329,-804,0,0,0,0,0,0,0,0,0,-1,1553,1828,0,0
336,-804,0,0,0,0,0,0,0,0,0,-1,1560,1828,0,0
343,-804,0,0,0,0,0,0,0,0,0,-1,1567,1828,0,0
350,-804,0,0,0,0,0,0,0,0,0,-1,1574,1828,0,0
357,-804,0,0,0,0,0,0,0,0,0,-1,1581,1828,0,0
364,-804,0,0,0,0,0,0,0,0,0,-1,1588,1828,0,0
371,-804,0,0,0,0,0,0,0,0,0,-1,1595,1828,0,0
378,-804,0,0,0,0,0,0,0,0,0,-1,1602,1828,0,0
385,-804,0,0,0,0,0,0,0,0,0,-1,1609,1828,0,0
392,-804,0,0,0,0,0,0,0,0,0,-1,1616,1828,0,0
399,-804,0,0,0,0,0,0,0,0,0,-1,1623,1828,0,0
406,-804,0,0,0,0,0,0,0,0,0,-1,1630,1828,0,0
413,-804,0,0,0,0,0,0,0,0,0,-1,1637,1828,0,0
420,-804,0,0,0,0,0,0,0,0,0,-1,1644,1828,0,0
427,-804,0,0,0,0,0,0,0,0,0,-1,1651,1828,0,0
434,-804,0,0,0,0,0,0,0,0,0,-1,1658,1828,0,0
441,-804,0,0,0,0,0,0,0,0,0,-1,1665,1828,0,0
448,-804,0,0,0,0,0,0,0,0,0,-1,1672,1828,0,0
455,-804,0,0,0,0,0,0,0,0,0,-1,1679,1828,0,0
462,-804,0,0,0,0,0,0,0,0,0,-1,1686,1828,0,0
469,-804,0,0,0,0,0,0,0,0,0,-1,1693,1828,0,0
476,-804,0,0,0,0,0,0,0,0,0,-1,1700,1828,0,0
483,-804,0,0,0,0,0,0,0,0,0,-1,1707,1828,0,0
490,-804,0,0,0,0,0,0,0,0,0,-1,1714,1828,0,0
497,-804,0,0,0,0,0,0,0,0,0,-1,1721,1828,0,0
504,-804,0,0,0,0,0,0,0,0,0,-1,1728,1828,0,0
511,-804,0,0,0,0,0,0,0,0,0,-1,1735,1828,0,0
518,-804,0,0,0,0,0,0,0,0,0,-1,1742,1828,0,0
525,-804,0,0,0,0,0,0,0,0,0,-1,1749,1828,0,0
532,-804,0,0,0,0,0,0,0,0,0,-1,1756,1828,0,0
539,-804,0,0,0,0,0,0,0,0,0,-1,1763,1828,0,0
546,-804,0,0,0,0,0,0,0,0,0,-1,1770,1828,0,0
553,-804,0,0,0,0,0,0,0,0,0,-1,1777,1828,0,0
560,-804,0,0,0,0,0,0,0,0,0,-1,1784,1828,0,0
567,-804,0,0,0,0,0,0,0,0,0,-1,1791,1828,0,0
574,-804,0,0,0,0,0,0,0,0,0,-1,1798,1828,0,0
581,-804,0,0,0,0,0,0,0,0,0,-1,1805,1828,0,0
588,-804,0,0,0,0,0,0,0,0,0,-1,1812,1828,0,0
595,-804,0,0,0,0,0,0,0,0,0,-1,1819,1828,0,0
602,-804,0,0,0,0,0,0,0,0,0,-1,1826,1828,0,0
609,-804,0,0,0,0,0,0,0,0,0,-1,1833,1828,0,0
616,-804,0,0,0,0,0,0,0,0,0,-1,1840,1828,0,0
623,-804,0,0,0,0,0,0,0,0,0,-1,1847,1828,0,0
630,-804,0,0,0,0,0,0,0,0,0,-1,1854,1828,0,0
637,-804,0,0,0,0,0,0,0,0,0,-1,1861,1828,0,0
644,-804,0,0,0,0,0,0,0,0,0,-1,1868,1828,0,0
651,-804,0,0,0,0,0,0,0,0,0,-1,1875,1828,0,0
658,-804,0,0,0,0,0,0,0,0,0,-1,1882,1828,0,0
665,-804,0,0,0,0,0,0,0,0,0,-1,1889,1828,0,0
672,-804,0,0,0,0,0,0,0,0,0,-1,1896,1828,0,0
679,-804,0,0,0,0,0,0,0,0,0,-1,1903,1828,0,0
686,-804,0,0,0,0,0,0,0,0,0,-1,1910,1828,0,0
693,-804,0,0,0,0,0,0,0,0,0,-1,1917,1828,0,0
700,-804,0,0,0,0,0,0,0,0,0,-1,1924,1828,0,0
707,-804,0,0,0,0,0,0,0,0,0,-1,1931,1828,0,0
714,-804,0,0,0,0,0,0,0,0,0,-1,1938,1828,0,0
721,-804,0,0,0,0,0,0,0,0,0,-1,1945,1828,0,0
728,-804,0,0,0,0,0,0,0,0,0,-1,1952,1828,0,0
735,-804,0,0,0,0,0,0,0,0,0,-1,1959,1828,0,0
742,-804,0,0,0,0,0,0,0,0,0,-1,1966,1828,0,0
749,-804,0,0,0,0,0,0,0,0,0,-1,1973,1828,0,0
756,-804,0,0,0,0,0,0,0,0,0,-1,1980,1828,0,0
763,-804,0,0,0,0,0,0,0,0,0,-1,1987,1828,0,0
770,-804,0,0,0,0,0,0,0,0,0,-1,1994,1828,0,0
777,-804,0,0,0,0,0,0,0,0,0,-1,2001,1828,0,0
784,-804,0,0,0,0,0,0,0,0,0,-1,2008,1828,0,0
791,-804,0,0,0,0,0,0,0,0,0,-1,2015,1828,0,0
798,-804,0,0,0,0,0,0,0,0,0,-1,2022,1828,0,0
805,-804,0,0,0,0,0,0,0,0,0,-1,2029,1828,0,0
812,-804,0,0,0,0,0,0,0,0,0,-1,2036,1828,0,0

