 "x_c",  "y_c",  "u_c",  "v_c",  "exx",  "eyy",  "exy",  "e1",  "e2",  "gamma",  "e_vonmises",  "sigma",  "x",  "y",  "u",  "v"
-700,715,0,0,0,0,0,0,0,0,0,-1,524,309,0,0
-693,715,0,0,0,0,0,0,0,0,0,-1,531,309,0,0
-686,715,0,0,0,0,0,0,0,0,0,-1,538,309,0,0
-679,715,0,0,0,0,0,0,0,0,0,-1,545,309,0,0
-672,715,0,0,0,0,0,0,0,0,0,-1,552,309,0,0
-665,715,0,0,0,0,0,0,0,0,0,-1,559,309,0,0
-658,715,0,0,0,0,0,0,0,0,0,-1,566,309,0,0
-651,715,0,0,0,0,0,0,0,0,0,-1,573,309,0,0
-644,715,0,0,0,0,0,0,0,0,0,-1,580,309,0,0
-637,715,0,0,0,0,0,0,0,0,0,-1,587,309,0,0
-630,715,0,0,0,0,0,0,0,0,0,-1,594,309,0,0
-623,715,0,0,0,0,0,0,0,0,0,-1,601,309,0,0
-616,715,0,0,0,0,0,0,0,0,0,-1,608,309,0,0
-609,715,0,0,0,0,0,0,0,0,0,-1,615,309,0,0
-602,715,0,0,0,0,0,0,0,0,0,-1,622,309,0,0
-595,715,0,0,0,0,0,0,0,0,0,-1,629,309,0,0
-588,715,0,0,0,0,0,0,0,0,0,-1,636,309,0,0
-581,715,0,0,0,0,0,0,0,0,0,-1,643,309,0,0
-574,715,0,0,0,0,0,0,0,0,0,-1,650,309,0,0
-567,715,0,0,0,0,0,0,0,0,0,-1,657,309,0,0
-560,715,0,0,0,0,0,0,0,0,0,-1,664,309,0,0
-553,715,0,0,0,0,0,0,0,0,0,-1,671,309,0,0
-546,715,0,0,0,0,0,0,0,0,0,-1,678,309,0,0
-539,715,0,0,0,0,0,0,0,0,0,-1,685,309,0,0
-532,715,0,0,0,0,0,0,0,0,0,-1,692,309,0,0
-525,715,0,0,0,0,0,0,0,0,0,-1,699,309,0,0
-518,715,0,0,0,0,0,0,0,0,0,-1,706,309,0,0
-511,715,0,0,0,0,0,0,0,0,0,-1,713,309,0,0
-504,715,0,0,0,0,0,0,0,0,0,-1,720,309,0,0
-497,715,0,0,0,0,0,0,0,0,0,-1,727,309,0,0
-490,715,0,0,0,0,0,0,0,0,0,-1,734,309,0,0
-483,715,0,0,0,0,0,0,0,0,0,-1,741,309,0,0
-476,715,0,0,0,0,0,0,0,0,0,-1,748,309,0,0
-469,715,0,0,0,0,0,0,0,0,0,-1,755,309,0,0
-462,715,0,0,0,0,0,0,0,0,0,-1,762,309,0,0
-455,715,0,0,0,0,0,0,0,0,0,-1,769,309,0,0
-448,715,0,0,0,0,0,0,0,0,0,-1,776,309,0,0
-441,715,0,0,0,0,0,0,0,0,0,-1,783,309,0,0
-434,715,0,0,0,0,0,0,0,0,0,-1,790,309,0,0
-427,715,0,0,0,0,0,0,0,0,0,-1,797,309,0,0
-420,715,0,0,0,0,0,0,0,0,0,-1,804,309,0,0
-413,715,0,0,0,0,0,0,0,0,0,-1,811,309,0,0
-406,715,0,0,0,0,0,0,0,0,0,-1,818,309,0,0
-399,715,0,0,0,0,0,0,0,0,0,-1,825,309,0,0
-392,715,0,0,0,0,0,0,0,0,0,-1,832,309,0,0
-385,715,0,0,0,0,0,0,0,0,0,-1,839,309,0,0
-378,715,0,0,0,0,0,0,0,0,0,-1,846,309,0,0
-371,715,0,0,0,0,0,0,0,0,0,-1,853,309,0,0
-364,715,0,0,0,0,0,0,0,0,0,-1,860,309,0,0
-357,715,0,0,0,0,0,0,0,0,0,-1,867,309,0,0
-350,715,0,0,0,0,0,0,0,0,0,-1,874,309,0,0
-343,715,0,0,0,0,0,0,0,0,0,-1,881,309,0,0
-336,715,0,0,0,0,0,0,0,0,0,-1,888,309,0,0
-329,715,0,0,0,0,0,0,0,0,0,-1,895,309,0,0
-322,715,0,0,0,0,0,0,0,0,0,-1,902,309,0,0
-315,715,0,0,0,0,0,0,0,0,0,-1,909,309,0,0
-308,715,0,0,0,0,0,0,0,0,0,-1,916,309,0,0
-301,715,0,0,0,0,0,0,0,0,0,-1,923,309,0,0
-294,715,0,0,0,0,0,0,0,0,0,-1,930,309,0,0
-287,715,0,0,0,0,0,0,0,0,0,-1,937,309,0,0
-280,715,0,0,0,0,0,0,0,0,0,-1,944,309,0,0
-273,715,0,0,0,0,0,0,0,0,0,-1,951,309,0,0
-266,715,0,0,0,0,0,0,0,0,0,-1,958,309,0,0
-259,715,0,0,0,0,0,0,0,0,0,-1,965,309,0,0
-252,715,0,0,0,0,0,0,0,0,0,-1,972,309,0,0
-245,715,0,0,0,0,0,0,0,0,0,-1,979,309,0,0
-238,715,0,0,0,0,0,0,0,0,0,-1,986,309,0,0
-231,715,0,0,0,0,0,0,0,0,0,-1,993,309,0,0
-224,715,0,0,0,0,0,0,0,0,0,-1,1000,309,0,0
-217,715,0,0,0,0,0,0,0,0,0,-1,1007,309,0,0
-210,715,0,0,0,0,0,0,0,0,0,-1,1014,309,0,0
-203,715,0,0,0,0,0,0,0,0,0,-1,1021,309,0,0
-196,715,0,0,0,0,0,0,0,0,0,-1,1028,309,0,0
-189,715,0,0,0,0,0,0,0,0,0,-1,1035,309,0,0
-182,715,0,0,0,0,0,0,0,0,0,-1,1042,309,0,0
-175,715,0,0,0,0,0,0,0,0,0,-1,1049,309,0,0
-168,715,0,0,0,0,0,0,0,0,0,-1,1056,309,0,0
-161,715,0,0,0,0,0,0,0,0,0,-1,1063,309,0,0
-154,715,0,0,0,0,0,0,0,0,0,-1,1070,309,0,0
-147,715,0,0,0,0,0,0,0,0,0,-1,1077,309,0,0
-140,715,0,0,0,0,0,0,0,0,0,-1,1084,309,0,0
-133,715,0,0,0,0,0,0,0,0,0,-1,1091,309,0,0
-126,715,0,0,0,0,0,0,0,0,0,-1,1098,309,0,0
-119,715,0,0,0,0,0,0,0,0,0,-1,1105,309,0,0
-112,715,0,0,0,0,0,0,0,0,0,-1,1112,309,0,0
-105,715,0,0,0,0,0,0,0,0,0,-1,1119,309,0,0
-98,715,0,0,0,0,0,0,0,0,0,-1,1126,309,0,0
-91,715,0,0,0,0,0,0,0,0,0,-1,1133,309,0,0
-84,715,0,0,0,0,0,0,0,0,0,-1,1140,309,0,0
-77,715,0,0,0,0,0,0,0,0,0,-1,1147,309,0,0
-70,715,0,0,0,0,0,0,0,0,0,-1,1154,309,0,0
-63,715,0,0,0,0,0,0,0,0,0,-1,1161,309,0,0
-56,715,0,0,0,0,0,0,0,0,0,-1,1168,309,0,0
-49,715,0,0,0,0,0,0,0,0,0,-1,1175,309,0,0
-42,715,0,0,0,0,0,0,0,0,0,-1,1182,309,0,0
-35,715,0,0,0,0,0,0,0,0,0,-1,1189,309,0,0
-28,715,0,0,0,0,0,0,0,0,0,-1,1196,309,0,0
-21,715,0,0,0,0,0,0,0,0,0,-1,1203,309,0,0
-14,715,0,0,0,0,0,0,0,0,0,-1,1210,309,0,0
-7,715,0,0,0,0,0,0,0,0,0,-1,1217,309,0,0
0,715,0,0,0,0,0,0,0,0,0,-1,1224,309,0,0
7,715,0,0,0,0,0,0,0,0,0,-1,1231,309,0,0
14,715,0,0,0,0,0,0,0,0,0,-1,1238,309,0,0
21,715,0,0,0,0,0,0,0,0,0,-1,1245,309,0,0
28,715,0,0,0,0,0,0,0,0,0,-1,1252,309,0,0
35,715,0,0,0,0,0,0,0,0,0,-1,1259,309,0,0
42,715,0,0,0,0,0,0,0,0,0,-1,1266,309,0,0
49,715,0,0,0,0,0,0,0,0,0,-1,1273,309,0,0
56,715,0,0,0,0,0,0,0,0,0,-1,1280,309,0,0
63,715,9.62585,-32.5424,0,0,0,0,0,0,0,-1,1287,309,9.62581,32.5424
70,715,8.98315,-32.0104,0,0,0,0,0,0,0,-1,1294,309,8.98321,32.0104
77,715,0,0,0,0,0,0,0,0,0,-1,1301,309,0,0
84,715,0,0,0,0,0,0,0,0,0,-1,1308,309,0,0
91,715,0,0,0,0,0,0,0,0,0,-1,1315,309,0,0
98,715,0,0,0,0,0,0,0,0,0,-1,1322,309,0,0
105,715,0,0,0,0,0,0,0,0,0,-1,1329,309,0,0
112,715,0,0,0,0,0,0,0,0,0,-1,1336,309,0,0
119,715,0,0,0,0,0,0,0,0,0,-1,1343,309,0,0
126,715,0,0,0,0,0,0,0,0,0,-1,1350,309,0,0
133,715,0,0,0,0,0,0,0,0,0,-1,1357,309,0,0
140,715,0,0,0,0,0,0,0,0,0,-1,1364,309,0,0
147,715,0,0,0,0,0,0,0,0,0,-1,1371,309,0,0
154,715,0,0,0,0,0,0,0,0,0,-1,1378,309,0,0
161,715,0,0,0,0,0,0,0,0,0,-1,1385,309,0,0
168,715,0,0,0,0,0,0,0,0,0,-1,1392,309,0,0
175,715,0,0,0,0,0,0,0,0,0,-1,1399,309,0,0
182,715,0,0,0,0,0,0,0,0,0,-1,1406,309,0,0
189,715,0,0,0,0,0,0,0,0,0,-1,1413,309,0,0
196,715,0,0,0,0,0,0,0,0,0,-1,1420,309,0,0
203,715,0,0,0,0,0,0,0,0,0,-1,1427,309,0,0
210,715,0,0,0,0,0,0,0,0,0,-1,1434,309,0,0
217,715,0,0,0,0,0,0,0,0,0,-1,1441,309,0,0
224,715,0,0,0,0,0,0,0,0,0,-1,1448,309,0,0
231,715,0,0,0,0,0,0,0,0,0,-1,1455,309,0,0
238,715,0,0,0,0,0,0,0,0,0,-1,1462,309,0,0
245,715,0,0,0,0,0,0,0,0,0,-1,1469,309,0,0
252,715,0,0,0,0,0,0,0,0,0,-1,1476,309,0,0
259,715,0,0,0,0,0,0,0,0,0,-1,1483,309,0,0
266,715,0,0,0,0,0,0,0,0,0,-1,1490,309,0,0
273,715,0,0,0,0,0,0,0,0,0,-1,1497,309,0,0
280,715,0,0,0,0,0,0,0,0,0,-1,1504,309,0,0
287,715,0,0,0,0,0,0,0,0,0,-1,1511,309,0,0
294,715,0,0,0,0,0,0,0,0,0,-1,1518,309,0,0
301,715,0,0,0,0,0,0,0,0,0,-1,1525,309,0,0
308,715,0,0,0,0,0,0,0,0,0,-1,1532,309,0,0
315,715,0,0,0,0,0,0,0,0,0,-1,1539,309,0,0
322,715,0,0,0,0,0,0,0,0,0,-1,1546,309,0,0
329,715,0,0,0,0,0,0,0,0,0,-1,1553,309,0,0
336,715,0,0,0,0,0,0,0,0,0,-1,1560,309,0,0
343,715,0,0,0,0,0,0,0,0,0,-1,1567,309,0,0
350,715,0,0,0,0,0,0,0,0,0,-1,1574,309,0,0
357,715,0,0,0,0,0,0,0,0,0,-1,1581,309,0,0
364,715,0,0,0,0,0,0,0,0,0,-1,1588,309,0,0
371,715,0,0,0,0,0,0,0,0,0,-1,1595,309,0,0
378,715,0,0,0,0,0,0,0,0,0,-1,1602,309,0,0
385,715,0,0,0,0,0,0,0,0,0,-1,1609,309,0,0
392,715,0,0,0,0,0,0,0,0,0,-1,1616,309,0,0
399,715,0,0,0,0,0,0,0,0,0,-1,1623,309,0,0
406,715,0,0,0,0,0,0,0,0,0,-1,1630,309,0,0
413,715,0,0,0,0,0,0,0,0,0,-1,1637,309,0,0
420,715,0,0,0,0,0,0,0,0,0,-1,1644,309,0,0
427,715,0,0,0,0,0,0,0,0,0,-1,1651,309,0,0
434,715,0,0,0,0,0,0,0,0,0,-1,1658,309,0,0
441,715,0,0,0,0,0,0,0,0,0,-1,1665,309,0,0
448,715,0,0,0,0,0,0,0,0,0,-1,1672,309,0,0
455,715,0,0,0,0,0,0,0,0,0,-1,1679,309,0,0
462,715,0,0,0,0,0,0,0,0,0,-1,1686,309,0,0
469,715,0,0,0,0,0,0,0,0,0,-1,1693,309,0,0
476,715,0,0,0,0,0,0,0,0,0,-1,1700,309,0,0
483,715,0,0,0,0,0,0,0,0,0,-1,1707,309,0,0
490,715,0,0,0,0,0,0,0,0,0,-1,1714,309,0,0
497,715,0,0,0,0,0,0,0,0,0,-1,1721,309,0,0
504,715,0,0,0,0,0,0,0,0,0,-1,1728,309,0,0
511,715,0,0,0,0,0,0,0,0,0,-1,1735,309,0,0
518,715,0,0,0,0,0,0,0,0,0,-1,1742,309,0,0
525,715,0,0,0,0,0,0,0,0,0,-1,1749,309,0,0
532,715,0,0,0,0,0,0,0,0,0,-1,1756,309,0,0
539,715,0,0,0,0,0,0,0,0,0,-1,1763,309,0,0
546,715,0,0,0,0,0,0,0,0,0,-1,1770,309,0,0
553,715,0,0,0,0,0,0,0,0,0,-1,1777,309,0,0
560,715,0,0,0,0,0,0,0,0,0,-1,1784,309,0,0
567,715,0,0,0,0,0,0,0,0,0,-1,1791,309,0,0
574,715,0,0,0,0,0,0,0,0,0,-1,1798,309,0,0
581,715,0,0,0,0,0,0,0,0,0,-1,1805,309,0,0
588,715,0,0,0,0,0,0,0,0,0,-1,1812,309,0,0
595,715,0,0,0,0,0,0,0,0,0,-1,1819,309,0,0
602,715,0,0,0,0,0,0,0,0,0,-1,1826,309,0,0
609,715,0,0,0,0,0,0,0,0,0,-1,1833,309,0,0
616,715,0,0,0,0,0,0,0,0,0,-1,1840,309,0,0
623,715,0,0,0,0,0,0,0,0,0,-1,1847,309,0,0
630,715,0,0,0,0,0,0,0,0,0,-1,1854,309,0,0
637,715,0,0,0,0,0,0,0,0,0,-1,1861,309,0,0
644,715,0,0,0,0,0,0,0,0,0,-1,1868,309,0,0
651,715,0,0,0,0,0,0,0,0,0,-1,1875,309,0,0
658,715,0,0,0,0,0,0,0,0,0,-1,1882,309,0,0
665,715,0,0,0,0,0,0,0,0,0,-1,1889,309,0,0
672,715,0,0,0,0,0,0,0,0,0,-1,1896,309,0,0
679,715,0,0,0,0,0,0,0,0,0,-1,1903,309,0,0
686,715,0,0,0,0,0,0,0,0,0,-1,1910,309,0,0
693,715,0,0,0,0,0,0,0,0,0,-1,1917,309,0,0
700,715,0,0,0,0,0,0,0,0,0,-1,1924,309,0,0
707,715,0,0,0,0,0,0,0,0,0,-1,1931,309,0,0
714,715,0,0,0,0,0,0,0,0,0,-1,1938,309,0,0
721,715,0,0,0,0,0,0,0,0,0,-1,1945,309,0,0
728,715,0,0,0,0,0,0,0,0,0,-1,1952,309,0,0
735,715,0,0,0,0,0,0,0,0,0,-1,1959,309,0,0
742,715,0,0,0,0,0,0,0,0,0,-1,1966,309,0,0
749,715,0,0,0,0,0,0,0,0,0,-1,1973,309,0,0
756,715,0,0,0,0,0,0,0,0,0,-1,1980,309,0,0
763,715,0,0,0,0,0,0,0,0,0,-1,1987,309,0,0
770,715,0,0,0,0,0,0,0,0,0,-1,1994,309,0,0
777,715,0,0,0,0,0,0,0,0,0,-1,2001,309,0,0
784,715,0,0,0,0,0,0,0,0,0,-1,2008,309,0,0
791,715,0,0,0,0,0,0,0,0,0,-1,2015,309,0,0
798,715,0,0,0,0,0,0,0,0,0,-1,2022,309,0,0
805,715,0,0,0,0,0,0,0,0,0,-1,2029,309,0,0
812,715,0,0,0,0,0,0,0,0,0,-1,2036,309,0,0
-700,708,0,0,0,0,0,0,0,0,0,-1,524,316,0,0
-693,708,0,0,0,0,0,0,0,0,0,-1,531,316,0,0
-686,708,0,0,0,0,0,0,0,0,0,-1,538,316,0,0
-679,708,0,0,0,0,0,0,0,0,0,-1,545,316,0,0
-672,708,0,0,0,0,0,0,0,0,0,-1,552,316,0,0
-665,708,0,0,0,0,0,0,0,0,0,-1,559,316,0,0
-658,708,0,0,0,0,0,0,0,0,0,-1,566,316,0,0
-651,708,0,0,0,0,0,0,0,0,0,-1,573,316,0,0
-644,708,0,0,0,0,0,0,0,0,0,-1,580,316,0,0
-637,708,0,0,0,0,0,0,0,0,0,-1,587,316,0,0
-630,708,0,0,0,0,0,0,0,0,0,-1,594,316,0,0
-623,708,0,0,0,0,0,0,0,0,0,-1,601,316,0,0
-616,708,0,0,0,0,0,0,0,0,0,-1,608,316,0,0
-609,708,0,0,0,0,0,0,0,0,0,-1,615,316,0,0
-602,708,0,0,0,0,0,0,0,0,0,-1,622,316,0,0
-595,708,0,0,0,0,0,0,0,0,0,-1,629,316,0,0
-588,708,0,0,0,0,0,0,0,0,0,-1,636,316,0,0
-581,708,0,0,0,0,0,0,0,0,0,-1,643,316,0,0
-574,708,0,0,0,0,0,0,0,0,0,-1,650,316,0,0
-567,708,0,0,0,0,0,0,0,0,0,-1,657,316,0,0
-560,708,0,0,0,0,0,0,0,0,0,-1,664,316,0,0
-553,708,0,0,0,0,0,0,0,0,0,-1,671,316,0,0
-546,708,0,0,0,0,0,0,0,0,0,-1,678,316,0,0
-539,708,0,0,0,0,0,0,0,0,0,-1,685,316,0,0
-532,708,0,0,0,0,0,0,0,0,0,-1,692,316,0,0
-525,708,0,0,0,0,0,0,0,0,0,-1,699,316,0,0
-518,708,0,0,0,0,0,0,0,0,0,-1,706,316,0,0
-511,708,0,0,0,0,0,0,0,0,0,-1,713,316,0,0
-504,708,0,0,0,0,0,0,0,0,0,-1,720,316,0,0
-497,708,0,0,0,0,0,0,0,0,0,-1,727,316,0,0
-490,708,0,0,0,0,0,0,0,0,0,-1,734,316,0,0
-483,708,0,0,0,0,0,0,0,0,0,-1,741,316,0,0
-476,708,0,0,0,0,0,0,0,0,0,-1,748,316,0,0
-469,708,0,0,0,0,0,0,0,0,0,-1,755,316,0,0
-462,708,0,0,0,0,0,0,0,0,0,-1,762,316,0,0
-455,708,0,0,0,0,0,0,0,0,0,-1,769,316,0,0
-448,708,0,0,0,0,0,0,0,0,0,-1,776,316,0,0
-441,708,0,0,0,0,0,0,0,0,0,-1,783,316,0,0
-434,708,0,0,0,0,0,0,0,0,0,-1,790,316,0,0
-427,708,0,0,0,0,0,0,0,0,0,-1,797,316,0,0
-420,708,0,0,0,0,0,0,0,0,0,-1,804,316,0,0
-413,708,0,0,0,0,0,0,0,0,0,-1,811,316,0,0
-406,708,0,0,0,0,0,0,0,0,0,-1,818,316,0,0
-399,708,0,0,0,0,0,0,0,0,0,-1,825,316,0,0
-392,708,0,0,0,0,0,0,0,0,0,-1,832,316,0,0
-385,708,0,0,0,0,0,0,0,0,0,-1,839,316,0,0
-378,708,0,0,0,0,0,0,0,0,0,-1,846,316,0,0
-371,708,0,0,0,0,0,0,0,0,0,-1,853,316,0,0
-364,708,0,0,0,0,0,0,0,0,0,-1,860,316,0,0
-357,708,0,0,0,0,0,0,0,0,0,-1,867,316,0,0
-350,708,0,0,0,0,0,0,0,0,0,-1,874,316,0,0
-343,708,0,0,0,0,0,0,0,0,0,-1,881,316,0,0
-336,708,0,0,0,0,0,0,0,0,0,-1,888,316,0,0
-329,708,0,0,0,0,0,0,0,0,0,-1,895,316,0,0
-322,708,0,0,0,0,0,0,0,0,0,-1,902,316,0,0
-315,708,0,0,0,0,0,0,0,0,0,-1,909,316,0,0
-308,708,0,0,0,0,0,0,0,0,0,-1,916,316,0,0
-301,708,0,0,0,0,0,0,0,0,0,-1,923,316,0,0
-294,708,0,0,0,0,0,0,0,0,0,-1,930,316,0,0
-287,708,0,0,0,0,0,0,0,0,0,-1,937,316,0,0
-280,708,0,0,0,0,0,0,0,0,0,-1,944,316,0,0
-273,708,0,0,0,0,0,0,0,0,0,-1,951,316,0,0
-266,708,0,0,0,0,0,0,0,0,0,-1,958,316,0,0
-259,708,0,0,0,0,0,0,0,0,0,-1,965,316,0,0
-252,708,0,0,0,0,0,0,0,0,0,-1,972,316,0,0
-245,708,0,0,0,0,0,0,0,0,0,-1,979,316,0,0
-238,708,0,0,0,0,0,0,0,0,0,-1,986,316,0,0
-231,708,0,0,0,0,0,0,0,0,0,-1,993,316,0,0
-224,708,0,0,0,0,0,0,0,0,0,-1,1000,316,0,0
-217,708,0,0,0,0,0,0,0,0,0,-1,1007,316,0,0
-210,708,0,0,0,0,0,0,0,0,0,-1,1014,316,0,0
-203,708,0,0,0,0,0,0,0,0,0,-1,1021,316,0,0
-196,708,0,0,0,0,0,0,0,0,0,-1,1028,316,0,0
-189,708,0,0,0,0,0,0,0,0,0,-1,1035,316,0,0
-182,708,0,0,0,0,0,0,0,0,0,-1,1042,316,0,0
-175,708,0,0,0,0,0,0,0,0,0,-1,1049,316,0,0
-168,708,0,0,0,0,0,0,0,0,0,-1,1056,316,0,0
-161,708,0,0,0,0,0,0,0,0,0,-1,1063,316,0,0
-154,708,0,0,0,0,0,0,0,0,0,-1,1070,316,0,0
-147,708,0,0,0,0,0,0,0,0,0,-1,1077,316,0,0
-140,708,0,0,0,0,0,0,0,0,0,-1,1084,316,0,0
-133,708,0,0,0,0,0,0,0,0,0,-1,1091,316,0,0
-126,708,0,0,0,0,0,0,0,0,0,-1,1098,316,0,0
-119,708,0,0,0,0,0,0,0,0,0,-1,1105,316,0,0
-112,708,0,0,0,0,0,0,0,0,0,-1,1112,316,0,0
-105,708,0,0,0,0,0,0,0,0,0,-1,1119,316,0,0
-98,708,0,0,0,0,0,0,0,0,0,-1,1126,316,0,0
-91,708,0,0,0,0,0,0,0,0,0,-1,1133,316,0,0
-84,708,0,0,0,0,0,0,0,0,0,-1,1140,316,0,0
-77,708,0,0,0,0,0,0,0,0,0,-1,1147,316,0,0
-70,708,0,0,0,0,0,0,0,0,0,-1,1154,316,0,0
-63,708,0,0,0,0,0,0,0,0,0,-1,1161,316,0,0
-56,708,0,0,0,0,0,0,0,0,0,-1,1168,316,0,0
-49,708,0,0,0,0,0,0,0,0,0,-1,1175,316,0,0
-42,708,0,0,0,0,0,0,0,0,0,-1,1182,316,0,0
-35,708,-2.71204,-6.31558,0,0,0,0,0,0,0,-1,1189,316,-2.712,6.3156
-28,708,-2.92371,-5.53253,0,0,0,0,0,0,0,-1,1196,316,-2.92375,5.53254
-21,708,-0.417969,-24.5911,0,0,0,0,0,0,0,-1,1203,316,-0.418022,24.5911
-14,708,5.56641,-32.0021,0,0,0,0,0,0,0,-1,1210,316,5.56642,32.0021
-7,708,3.63855,-31.6629,0,0,0,0,0,0,0,-1,1217,316,3.63854,31.6629
0,708,8.85669,-29.8568,0,0,0,0,0,0,0,-1,1224,316,8.85674,29.8568
7,708,8.55664,-30.1161,0,0,0,0,0,0,0,-1,1231,316,8.55668,30.1161
14,708,7.77771,-30.8448,0,0,0,0,0,0,0,-1,1238,316,7.77771,30.8448
21,708,7.47803,-31.0345,-0.0493283,0.134652,0.0202229,0.136849,-0.051525,1.4626,0.112415,0.0489683,1245,316,7.47803,31.0344
28,708,6.99097,-31.3336,0,0,0,0,0,0,0,-1,1252,316,6.99097,31.3336
35,708,6.40466,-31.865,-0.0465816,0.113694,0.020105,0.116177,-0.0490651,1.44789,0.0979903,0.0472341,1259,316,6.4047,31.865
42,708,5.54333,-32.1655,-0.0401867,0.104617,0.019414,0.107175,-0.0427444,1.43981,0.0891808,0.044791,1266,316,5.54339,32.1655
49,708,4.76733,-32.1813,0,0,0,0,0,0,0,-1,1273,316,4.76733,32.1813
56,708,3.90442,-32.3779,0,0,0,0,0,0,0,-1,1280,316,3.90442,32.3779
63,708,3.77637,-32.1447,0,0,0,0,0,0,0,-1,1287,316,3.77634,32.1447
70,708,7.78955,-33.2935,0,0,0,0,0,0,0,-1,1294,316,7.78957,33.2935
77,708,7.22278,-32.7094,-0.0257814,0.0471344,0.0316211,0.0589369,-0.037584,1.21356,0.0561791,0.0425943,1301,316,7.2228,32.7094
84,708,7.19189,-32.3083,-0.0292553,0.0417162,0.0357153,0.0565775,-0.0441166,1.17649,0.0582839,0.0468074,1308,316,7.19195,32.3083
91,708,5.77332,-34.9183,0,0,0,0,0,0,0,-1,1315,316,5.77331,34.9183
98,708,4.89929,-34.1718,-0.044598,0.0313366,0.0430732,0.0507872,-0.0640486,1.14664,0.0664477,0.0465557,1322,316,4.89934,34.1718
105,708,3.83301,-33.7311,-0.060793,0.0301766,0.0438324,0.0478594,-0.0784758,1.18735,0.0736501,0.0474542,1329,316,3.83295,33.7311
112,708,3.04199,-33.1852,0,0,0,0,0,0,0,-1,1336,316,3.04199,33.1852
119,708,-0.621948,-29.793,0,0,0,0,0,0,0,-1,1343,316,-0.621945,29.793
126,708,3.26404,-30.5426,0,0,0,0,0,0,0,-1,1350,316,3.26404,30.5426
133,708,4.0011,-29.6936,0,0,0,0,0,0,0,-1,1357,316,4.00115,29.6936
140,708,4.73828,-28.8445,0,0,0,0,0,0,0,-1,1364,316,4.73827,28.8445
147,708,2.70288,-31.8309,0,0,0,0,0,0,0,-1,1371,316,2.70289,31.8309
154,708,0,0,0,0,0,0,0,0,0,-1,1378,316,0,0
161,708,0,0,0,0,0,0,0,0,0,-1,1385,316,0,0
168,708,0,0,0,0,0,0,0,0,0,-1,1392,316,0,0
175,708,0,0,0,0,0,0,0,0,0,-1,1399,316,0,0
182,708,0,0,0,0,0,0,0,0,0,-1,1406,316,0,0
189,708,0,0,0,0,0,0,0,0,0,-1,1413,316,0,0
196,708,0,0,0,0,0,0,0,0,0,-1,1420,316,0,0
203,708,0,0,0,0,0,0,0,0,0,-1,1427,316,0,0
210,708,0,0,0,0,0,0,0,0,0,-1,1434,316,0,0
217,708,0,0,0,0,0,0,0,0,0,-1,1441,316,0,0
224,708,0,0,0,0,0,0,0,0,0,-1,1448,316,0,0
231,708,0,0,0,0,0,0,0,0,0,-1,1455,316,0,0
238,708,0,0,0,0,0,0,0,0,0,-1,1462,316,0,0
245,708,0,0,0,0,0,0,0,0,0,-1,1469,316,0,0
252,708,0,0,0,0,0,0,0,0,0,-1,1476,316,0,0
259,708,0,0,0,0,0,0,0,0,0,-1,1483,316,0,0
266,708,0,0,0,0,0,0,0,0,0,-1,1490,316,0,0
273,708,0,0,0,0,0,0,0,0,0,-1,1497,316,0,0
280,708,0,0,0,0,0,0,0,0,0,-1,1504,316,0,0
287,708,0,0,0,0,0,0,0,0,0,-1,1511,316,0,0
294,708,0,0,0,0,0,0,0,0,0,-1,1518,316,0,0
301,708,0,0,0,0,0,0,0,0,0,-1,1525,316,0,0
308,708,0,0,0,0,0,0,0,0,0,-1,1532,316,0,0
315,708,0,0,0,0,0,0,0,0,0,-1,1539,316,0,0
322,708,0,0,0,0,0,0,0,0,0,-1,1546,316,0,0
329,708,0,0,0,0,0,0,0,0,0,-1,1553,316,0,0
336,708,0,0,0,0,0,0,0,0,0,-1,1560,316,0,0
343,708,0,0,0,0,0,0,0,0,0,-1,1567,316,0,0
350,708,0,0,0,0,0,0,0,0,0,-1,1574,316,0,0
357,708,0,0,0,0,0,0,0,0,0,-1,1581,316,0,0
364,708,0,0,0,0,0,0,0,0,0,-1,1588,316,0,0
371,708,0,0,0,0,0,0,0,0,0,-1,1595,316,0,0
378,708,0,0,0,0,0,0,0,0,0,-1,1602,316,0,0
385,708,0,0,0,0,0,0,0,0,0,-1,1609,316,0,0
392,708,0,0,0,0,0,0,0,0,0,-1,1616,316,0,0
399,708,0,0,0,0,0,0,0,0,0,-1,1623,316,0,0
406,708,0,0,0,0,0,0,0,0,0,-1,1630,316,0,0
413,708,0,0,0,0,0,0,0,0,0,-1,1637,316,0,0
420,708,0,0,0,0,0,0,0,0,0,-1,1644,316,0,0
427,708,0,0,0,0,0,0,0,0,0,-1,1651,316,0,0
434,708,0,0,0,0,0,0,0,0,0,-1,1658,316,0,0
441,708,0,0,0,0,0,0,0,0,0,-1,1665,316,0,0
448,708,0,0,0,0,0,0,0,0,0,-1,1672,316,0,0
455,708,0,0,0,0,0,0,0,0,0,-1,1679,316,0,0
462,708,0,0,0,0,0,0,0,0,0,-1,1686,316,0,0
469,708,0,0,0,0,0,0,0,0,0,-1,1693,316,0,0
476,708,0,0,0,0,0,0,0,0,0,-1,1700,316,0,0
483,708,0,0,0,0,0,0,0,0,0,-1,1707,316,0,0
490,708,0,0,0,0,0,0,0,0,0,-1,1714,316,0,0
497,708,0,0,0,0,0,0,0,0,0,-1,1721,316,0,0
504,708,0,0,0,0,0,0,0,0,0,-1,1728,316,0,0
511,708,0,0,0,0,0,0,0,0,0,-1,1735,316,0,0
518,708,0,0,0,0,0,0,0,0,0,-1,1742,316,0,0
525,708,0,0,0,0,0,0,0,0,0,-1,1749,316,0,0
532,708,0,0,0,0,0,0,0,0,0,-1,1756,316,0,0
539,708,0,0,0,0,0,0,0,0,0,-1,1763,316,0,0
546,708,0,0,0,0,0,0,0,0,0,-1,1770,316,0,0
553,708,0,0,0,0,0,0,0,0,0,-1,1777,316,0,0
560,708,0,0,0,0,0,0,0,0,0,-1,1784,316,0,0
567,708,0,0,0,0,0,0,0,0,0,-1,1791,316,0,0
574,708,0,0,0,0,0,0,0,0,0,-1,1798,316,0,0
581,708,0,0,0,0,0,0,0,0,0,-1,1805,316,0,0
588,708,0,0,0,0,0,0,0,0,0,-1,1812,316,0,0
595,708,0,0,0,0,0,0,0,0,0,-1,1819,316,0,0
602,708,0,0,0,0,0,0,0,0,0,-1,1826,316,0,0
609,708,0,0,0,0,0,0,0,0,0,-1,1833,316,0,0
616,708,0,0,0,0,0,0,0,0,0,-1,1840,316,0,0
623,708,0,0,0,0,0,0,0,0,0,-1,1847,316,0,0
630,708,0,0,0,0,0,0,0,0,0,-1,1854,316,0,0
637,708,0,0,0,0,0,0,0,0,0,-1,1861,316,0,0
644,708,0,0,0,0,0,0,0,0,0,-1,1868,316,0,0
651,708,0,0,0,0,0,0,0,0,0,-1,1875,316,0,0
658,708,0,0,0,0,0,0,0,0,0,-1,1882,316,0,0
665,708,0,0,0,0,0,0,0,0,0,-1,1889,316,0,0
672,708,0,0,0,0,0,0,0,0,0,-1,1896,316,0,0
679,708,0,0,0,0,0,0,0,0,0,-1,1903,316,0,0
686,708,0,0,0,0,0,0,0,0,0,-1,1910,316,0,0
693,708,0,0,0,0,0,0,0,0,0,-1,1917,316,0,0
700,708,0,0,0,0,0,0,0,0,0,-1,1924,316,0,0
707,708,0,0,0,0,0,0,0,0,0,-1,1931,316,0,0
714,708,0,0,0,0,0,0,0,0,0,-1,1938,316,0,0
721,708,0,0,0,0,0,0,0,0,0,-1,1945,316,0,0
728,708,0,0,0,0,0,0,0,0,0,-1,1952,316,0,0
735,708,0,0,0,0,0,0,0,0,0,-1,1959,316,0,0
742,708,0,0,0,0,0,0,0,0,0,-1,1966,316,0,0
749,708,0,0,0,0,0,0,0,0,0,-1,1973,316,0,0
756,708,0,0,0,0,0,0,0,0,0,-1,1980,316,0,0
763,708,0,0,0,0,0,0,0,0,0,-1,1987,316,0,0
770,708,0,0,0,0,0,0,0,0,0,-1,1994,316,0,0
777,708,0,0,0,0,0,0,0,0,0,-1,2001,316,0,0
784,708,0,0,0,0,0,0,0,0,0,-1,2008,316,0,0
791,708,0,0,0,0,0,0,0,0,0,-1,2015,316,0,0
798,708,0,0,0,0,0,0,0,0,0,-1,2022,316,0,0
805,708,0,0,0,0,0,0,0,0,0,-1,2029,316,0,0
812,708,0,0,0,0,0,0,0,0,0,-1,2036,316,0,0
-700,701,0,0,0,0,0,0,0,0,0,-1,524,323,0,0
-693,701,0,0,0,0,0,0,0,0,0,-1,531,323,0,0
-686,701,0,0,0,0,0,0,0,0,0,-1,538,323,0,0
-679,701,0,0,0,0,0,0,0,0,0,-1,545,323,0,0
-672,701,0,0,0,0,0,0,0,0,0,-1,552,323,0,0
-665,701,0,0,0,0,0,0,0,0,0,-1,559,323,0,0
-658,701,0,0,0,0,0,0,0,0,0,-1,566,323,0,0
-651,701,0,0,0,0,0,0,0,0,0,-1,573,323,0,0
-644,701,0,0,0,0,0,0,0,0,0,-1,580,323,0,0
-637,701,0,0,0,0,0,0,0,0,0,-1,587,323,0,0
-630,701,0,0,0,0,0,0,0,0,0,-1,594,323,0,0
-623,701,0,0,0,0,0,0,0,0,0,-1,601,323,0,0
-616,701,0,0,0,0,0,0,0,0,0,-1,608,323,0,0
-609,701,0,0,0,0,0,0,0,0,0,-1,615,323,0,0
-602,701,0,0,0,0,0,0,0,0,0,-1,622,323,0,0
-595,701,0,0,0,0,0,0,0,0,0,-1,629,323,0,0
-588,701,0,0,0,0,0,0,0,0,0,-1,636,323,0,0
-581,701,0,0,0,0,0,0,0,0,0,-1,643,323,0,0
-574,701,0,0,0,0,0,0,0,0,0,-1,650,323,0,0
-567,701,0,0,0,0,0,0,0,0,0,-1,657,323,0,0
-560,701,0,0,0,0,0,0,0,0,0,-1,664,323,0,0
-553,701,0,0,0,0,0,0,0,0,0,-1,671,323,0,0
-546,701,0,0,0,0,0,0,0,0,0,-1,678,323,0,0
-539,701,0,0,0,0,0,0,0,0,0,-1,685,323,0,0
-532,701,0,0,0,0,0,0,0,0,0,-1,692,323,0,0
-525,701,0,0,0,0,0,0,0,0,0,-1,699,323,0,0
-518,701,0,0,0,0,0,0,0,0,0,-1,706,323,0,0
-511,701,0,0,0,0,0,0,0,0,0,-1,713,323,0,0
-504,701,0,0,0,0,0,0,0,0,0,-1,720,323,0,0
-497,701,0,0,0,0,0,0,0,0,0,-1,727,323,0,0
-490,701,0,0,0,0,0,0,0,0,0,-1,734,323,0,0
-483,701,0,0,0,0,0,0,0,0,0,-1,741,323,0,0
-476,701,0,0,0,0,0,0,0,0,0,-1,748,323,0,0
-469,701,0,0,0,0,0,0,0,0,0,-1,755,323,0,0
-462,701,0,0,0,0,0,0,0,0,0,-1,762,323,0,0
-455,701,0,0,0,0,0,0,0,0,0,-1,769,323,0,0
-448,701,0,0,0,0,0,0,0,0,0,-1,776,323,0,0
-441,701,0,0,0,0,0,0,0,0,0,-1,783,323,0,0
-434,701,0,0,0,0,0,0,0,0,0,-1,790,323,0,0
-427,701,0,0,0,0,0,0,0,0,0,-1,797,323,0,0
-420,701,0,0,0,0,0,0,0,0,0,-1,804,323,0,0
-413,701,0,0,0,0,0,0,0,0,0,-1,811,323,0,0
-406,701,0,0,0,0,0,0,0,0,0,-1,818,323,0,0
-399,701,0,0,0,0,0,0,0,0,0,-1,825,323,0,0
-392,701,0,0,0,0,0,0,0,0,0,-1,832,323,0,0
-385,701,0,0,0,0,0,0,0,0,0,-1,839,323,0,0
-378,701,0,0,0,0,0,0,0,0,0,-1,846,323,0,0
-371,701,0,0,0,0,0,0,0,0,0,-1,853,323,0,0
-364,701,0,0,0,0,0,0,0,0,0,-1,860,323,0,0
-357,701,0,0,0,0,0,0,0,0,0,-1,867,323,0,0
-350,701,0,0,0,0,0,0,0,0,0,-1,874,323,0,0
-343,701,0,0,0,0,0,0,0,0,0,-1,881,323,0,0
-336,701,0,0,0,0,0,0,0,0,0,-1,888,323,0,0
-329,701,0,0,0,0,0,0,0,0,0,-1,895,323,0,0
-322,701,0,0,0,0,0,0,0,0,0,-1,902,323,0,0
-315,701,0,0,0,0,0,0,0,0,0,-1,909,323,0,0
-308,701,0,0,0,0,0,0,0,0,0,-1,916,323,0,0
-301,701,0,0,0,0,0,0,0,0,0,-1,923,323,0,0
-294,701,0,0,0,0,0,0,0,0,0,-1,930,323,0,0
-287,701,0,0,0,0,0,0,0,0,0,-1,937,323,0,0
-280,701,0,0,0,0,0,0,0,0,0,-1,944,323,0,0
-273,701,0,0,0,0,0,0,0,0,0,-1,951,323,0,0
-266,701,0,0,0,0,0,0,0,0,0,-1,958,323,0,0
-259,701,0,0,0,0,0,0,0,0,0,-1,965,323,0,0
-252,701,0,0,0,0,0,0,0,0,0,-1,972,323,0,0
-245,701,0,0,0,0,0,0,0,0,0,-1,979,323,0,0
-238,701,0,0,0,0,0,0,0,0,0,-1,986,323,0,0
-231,701,0,0,0,0,0,0,0,0,0,-1,993,323,0,0
-224,701,0,0,0,0,0,0,0,0,0,-1,1000,323,0,0
-217,701,0,0,0,0,0,0,0,0,0,-1,1007,323,0,0
-210,701,0,0,0,0,0,0,0,0,0,-1,1014,323,0,0
-203,701,0,0,0,0,0,0,0,0,0,-1,1021,323,0,0
-196,701,0,0,0,0,0,0,0,0,0,-1,1028,323,0,0
-189,701,0,0,0,0,0,0,0,0,0,-1,1035,323,0,0
-182,701,0,0,0,0,0,0,0,0,0,-1,1042,323,0,0
-175,701,0,0,0,0,0,0,0,0,0,-1,1049,323,0,0
-168,701,0,0,0,0,0,0,0,0,0,-1,1056,323,0,0
-161,701,0,0,0,0,0,0,0,0,0,-1,1063,323,0,0
-154,701,0,0,0,0,0,0,0,0,0,-1,1070,323,0,0
-147,701,0,0,0,0,0,0,0,0,0,-1,1077,323,0,0
-140,701,0,0,0,0,0,0,0,0,0,-1,1084,323,0,0
-133,701,0,0,0,0,0,0,0,0,0,-1,1091,323,0,0
-126,701,0,0,0,0,0,0,0,0,0,-1,1098,323,0,0
-119,701,0,0,0,0,0,0,0,0,0,-1,1105,323,0,0
-112,701,0,0,0,0,0,0,0,0,0,-1,1112,323,0,0
-105,701,0,0,0,0,0,0,0,0,0,-1,1119,323,0,0
-98,701,0,0,0,0,0,0,0,0,0,-1,1126,323,0,0
-91,701,0,0,0,0,0,0,0,0,0,-1,1133,323,0,0
-84,701,0,0,0,0,0,0,0,0,0,-1,1140,323,0,0
-77,701,0,0,0,0,0,0,0,0,0,-1,1147,323,0,0
-70,701,-12.5206,-30.0983,0,0,0,0,0,0,0,-1,1154,323,-12.5206,30.0983
-63,701,-18.3169,-21.2322,0,0,0,0,0,0,0,-1,1161,323,-18.3169,21.2322
-56,701,-0.420166,-0.101776,0,0,0,0,0,0,0,-1,1168,323,-0.420119,0.101777
-49,701,-1.09021,-0.155762,0,0,0,0,0,0,0,-1,1175,323,-1.09024,0.155768
-42,701,-0.210327,-0.299133,0,0,0,0,0,0,0,-1,1182,323,-0.210379,0.29914
-35,701,-2.9635,-7.98676,0,0,0,0,0,0,0,-1,1189,323,-2.9635,7.98676
-28,701,-6.64417,-5.4917,0,0,0,0,0,0,0,-1,1196,323,-6.64411,5.4917
-21,701,5.22729,-32.2801,0,0,0,0,0,0,0,-1,1203,323,5.22728,32.2801
-14,701,4.33386,-32.3847,0,0,0,0,0,0,0,-1,1210,323,4.3339,32.3847
-7,701,8.84497,-31.0238,0,0,0,0,0,0,0,-1,1217,323,8.845,31.0238
0,701,8.37598,-31.0606,0.0231837,0.105737,0.0290048,0.114909,0.014012,1.26453,0.0723888,0.0476088,1224,323,8.37593,31.0607
7,701,7.83789,-31.2316,-0.00307797,0.109466,0.024335,0.114502,-0.00811446,1.36671,0.0791782,0.044844,1231,323,7.83783,31.2316
14,701,7.26563,-31.5976,-0.0255798,0.111325,0.0198994,0.114159,-0.0284135,1.42934,0.087135,0.0499567,1238,323,7.26557,31.5976
21,701,6.89624,-31.7937,-0.0365054,0.111623,0.0155693,0.113242,-0.0381241,1.4672,0.0909076,0.0497826,1245,323,6.89628,31.7937
28,701,6.48511,-32.0463,0,0,0,0,0,0,0,-1,1252,323,6.4851,32.0463
35,701,6.1897,-32.8505,-0.0341883,0.0983965,0.0156962,0.100229,-0.0360212,1.45455,0.0815239,0.0465653,1259,323,6.18975,32.8505
42,701,5.33801,-33.0559,-0.0292318,0.0929734,0.0149108,0.0947664,-0.0310249,1.45112,0.0756698,0.0472323,1266,323,5.33798,33.0559
49,701,2.90991,-33.7743,0,0,0,0,0,0,0,-1,1273,323,2.90986,33.7743
56,701,3.86096,-32.9959,0,0,0,0,0,0,0,-1,1280,323,3.861,32.9959
63,701,3.92358,-32.7337,0,0,0,0,0,0,0,-1,1287,323,3.92353,32.7337
70,701,3.70959,-32.2149,0,0,0,0,0,0,0,-1,1294,323,3.70964,32.2149
77,701,6.57056,-32.6569,-0.0171736,0.0489657,0.0266862,0.0583902,-0.0265981,1.23131,0.0501994,0.0441387,1301,323,6.57061,32.6569
84,701,6.92249,-32.1136,-0.0209788,0.044696,0.0303834,0.0565961,-0.0328789,1.1975,0.0522599,0.045487,1308,323,6.92246,32.1136
91,701,5.76953,-35.4244,0,0,0,0,0,0,0,-1,1315,323,5.76958,35.4244
98,701,4.99304,-34.6575,-0.0345214,0.0357054,0.036624,0.0513293,-0.0501452,1.16757,0.0585877,0.0459012,1322,323,4.99308,34.6575
105,701,4.32361,-33.8508,-0.0460713,0.0341422,0.036957,0.0485732,-0.0605023,1.19852,0.0631002,0.0475482,1329,323,4.32361,33.8508
112,701,3.72742,-33.0997,-0.0537079,0.0338914,0.0370115,0.0474351,-0.0672516,1.22,0.0665431,0.044835,1336,323,3.72739,33.0997
119,701,3.61731,-32.1905,0,0,0,0,0,0,0,-1,1343,323,3.61734,32.1905
126,701,3.75757,-31.2727,0,0,0,0,0,0,0,-1,1350,323,3.75762,31.2727
133,701,3.74048,-30.4864,0,0,0,0,0,0,0,-1,1357,323,3.7405,30.4864
140,701,4.23511,-29.8792,0,0,0,0,0,0,0,-1,1364,323,4.23514,29.8792
147,701,2.40613,-32.0232,0,0,0,0,0,0,0,-1,1371,323,2.40618,32.0232
154,701,2.34778,-31.6131,0,0,0,0,0,0,0,-1,1378,323,2.34778,31.6131
161,701,2.62903,-31.4281,0,0,0,0,0,0,0,-1,1385,323,2.62906,31.4281
168,701,30.7272,1.76184,0,0,0,0,0,0,0,-1,1392,323,30.7272,-1.76184
175,701,31.5035,2.25711,0,0,0,0,0,0,0,-1,1399,323,31.5036,-2.25712
182,701,8.80652,5.42807,0,0,0,0,0,0,0,-1,1406,323,8.8065,-5.42808
189,701,8.58081,4.24493,0,0,0,0,0,0,0,-1,1413,323,8.58082,-4.24494
196,701,0,0,0,0,0,0,0,0,0,-1,1420,323,0,0
203,701,0,0,0,0,0,0,0,0,0,-1,1427,323,0,0
210,701,0,0,0,0,0,0,0,0,0,-1,1434,323,0,0
217,701,0,0,0,0,0,0,0,0,0,-1,1441,323,0,0
224,701,0,0,0,0,0,0,0,0,0,-1,1448,323,0,0
231,701,0,0,0,0,0,0,0,0,0,-1,1455,323,0,0
238,701,0,0,0,0,0,0,0,0,0,-1,1462,323,0,0
245,701,0,0,0,0,0,0,0,0,0,-1,1469,323,0,0
252,701,0,0,0,0,0,0,0,0,0,-1,1476,323,0,0
259,701,0,0,0,0,0,0,0,0,0,-1,1483,323,0,0
266,701,0,0,0,0,0,0,0,0,0,-1,1490,323,0,0
273,701,0,0,0,0,0,0,0,0,0,-1,1497,323,0,0
280,701,0,0,0,0,0,0,0,0,0,-1,1504,323,0,0
287,701,0,0,0,0,0,0,0,0,0,-1,1511,323,0,0
294,701,0,0,0,0,0,0,0,0,0,-1,1518,323,0,0
301,701,0,0,0,0,0,0,0,0,0,-1,1525,323,0,0
308,701,0,0,0,0,0,0,0,0,0,-1,1532,323,0,0
315,701,0,0,0,0,0,0,0,0,0,-1,1539,323,0,0
322,701,0,0,0,0,0,0,0,0,0,-1,1546,323,0,0
329,701,0,0,0,0,0,0,0,0,0,-1,1553,323,0,0
336,701,0,0,0,0,0,0,0,0,0,-1,1560,323,0,0
343,701,0,0,0,0,0,0,0,0,0,-1,1567,323,0,0
350,701,0,0,0,0,0,0,0,0,0,-1,1574,323,0,0
357,701,0,0,0,0,0,0,0,0,0,-1,1581,323,0,0
364,701,0,0,0,0,0,0,0,0,0,-1,1588,323,0,0
371,701,0,0,0,0,0,0,0,0,0,-1,1595,323,0,0
378,701,0,0,0,0,0,0,0,0,0,-1,1602,323,0,0
385,701,0,0,0,0,0,0,0,0,0,-1,1609,323,0,0
392,701,0,0,0,0,0,0,0,0,0,-1,1616,323,0,0
399,701,0,0,0,0,0,0,0,0,0,-1,1623,323,0,0
406,701,0,0,0,0,0,0,0,0,0,-1,1630,323,0,0
413,701,0,0,0,0,0,0,0,0,0,-1,1637,323,0,0
420,701,0,0,0,0,0,0,0,0,0,-1,1644,323,0,0
427,701,0,0,0,0,0,0,0,0,0,-1,1651,323,0,0
434,701,0,0,0,0,0,0,0,0,0,-1,1658,323,0,0
441,701,0,0,0,0,0,0,0,0,0,-1,1665,323,0,0
448,701,0,0,0,0,0,0,0,0,0,-1,1672,323,0,0
455,701,0,0,0,0,0,0,0,0,0,-1,1679,323,0,0
462,701,0,0,0,0,0,0,0,0,0,-1,1686,323,0,0
469,701,0,0,0,0,0,0,0,0,0,-1,1693,323,0,0
476,701,0,0,0,0,0,0,0,0,0,-1,1700,323,0,0
483,701,0,0,0,0,0,0,0,0,0,-1,1707,323,0,0
490,701,0,0,0,0,0,0,0,0,0,-1,1714,323,0,0
497,701,0,0,0,0,0,0,0,0,0,-1,1721,323,0,0
504,701,0,0,0,0,0,0,0,0,0,-1,1728,323,0,0
511,701,0,0,0,0,0,0,0,0,0,-1,1735,323,0,0
518,701,0,0,0,0,0,0,0,0,0,-1,1742,323,0,0
525,701,0,0,0,0,0,0,0,0,0,-1,1749,323,0,0
532,701,0,0,0,0,0,0,0,0,0,-1,1756,323,0,0
539,701,0,0,0,0,0,0,0,0,0,-1,1763,323,0,0
546,701,0,0,0,0,0,0,0,0,0,-1,1770,323,0,0
553,701,0,0,0,0,0,0,0,0,0,-1,1777,323,0,0
560,701,0,0,0,0,0,0,0,0,0,-1,1784,323,0,0
567,701,0,0,0,0,0,0,0,0,0,-1,1791,323,0,0
574,701,0,0,0,0,0,0,0,0,0,-1,1798,323,0,0
581,701,0,0,0,0,0,0,0,0,0,-1,1805,323,0,0
588,701,0,0,0,0,0,0,0,0,0,-1,1812,323,0,0
595,701,0,0,0,0,0,0,0,0,0,-1,1819,323,0,0
602,701,0,0,0,0,0,0,0,0,0,-1,1826,323,0,0
609,701,0,0,0,0,0,0,0,0,0,-1,1833,323,0,0
616,701,0,0,0,0,0,0,0,0,0,-1,1840,323,0,0
623,701,0,0,0,0,0,0,0,0,0,-1,1847,323,0,0
630,701,0,0,0,0,0,0,0,0,0,-1,1854,323,0,0
637,701,0,0,0,0,0,0,0,0,0,-1,1861,323,0,0
644,701,0,0,0,0,0,0,0,0,0,-1,1868,323,0,0
651,701,0,0,0,0,0,0,0,0,0,-1,1875,323,0,0
658,701,0,0,0,0,0,0,0,0,0,-1,1882,323,0,0
665,701,0,0,0,0,0,0,0,0,0,-1,1889,323,0,0
672,701,0,0,0,0,0,0,0,0,0,-1,1896,323,0,0
679,701,0,0,0,0,0,0,0,0,0,-1,1903,323,0,0
686,701,0,0,0,0,0,0,0,0,0,-1,1910,323,0,0
693,701,0,0,0,0,0,0,0,0,0,-1,1917,323,0,0
700,701,0,0,0,0,0,0,0,0,0,-1,1924,323,0,0
707,701,0,0,0,0,0,0,0,0,0,-1,1931,323,0,0
714,701,0,0,0,0,0,0,0,0,0,-1,1938,323,0,0
721,701,0,0,0,0,0,0,0,0,0,-1,1945,323,0,0
728,701,0,0,0,0,0,0,0,0,0,-1,1952,323,0,0
735,701,0,0,0,0,0,0,0,0,0,-1,1959,323,0,0
742,701,0,0,0,0,0,0,0,0,0,-1,1966,323,0,0
749,701,0,0,0,0,0,0,0,0,0,-1,1973,323,0,0
756,701,0,0,0,0,0,0,0,0,0,-1,1980,323,0,0
763,701,0,0,0,0,0,0,0,0,0,-1,1987,323,0,0
770,701,0,0,0,0,0,0,0,0,0,-1,1994,323,0,0
777,701,0,0,0,0,0,0,0,0,0,-1,2001,323,0,0
784,701,0,0,0,0,0,0,0,0,0,-1,2008,323,0,0
791,701,0,0,0,0,0,0,0,0,0,-1,2015,323,0,0
798,701,0,0,0,0,0,0,0,0,0,-1,2022,323,0,0
805,701,0,0,0,0,0,0,0,0,0,-1,2029,323,0,0
812,701,0,0,0,0,0,0,0,0,0,-1,2036,323,0,0
-700,694,0,0,0,0,0,0,0,0,0,-1,524,330,0,0
-693,694,0,0,0,0,0,0,0,0,0,-1,531,330,0,0
-686,694,0,0,0,0,0,0,0,0,0,-1,538,330,0,0
-679,694,0,0,0,0,0,0,0,0,0,-1,545,330,0,0
-672,694,0,0,0,0,0,0,0,0,0,-1,552,330,0,0
-665,694,0,0,0,0,0,0,0,0,0,-1,559,330,0,0
-658,694,0,0,0,0,0,0,0,0,0,-1,566,330,0,0
-651,694,0,0,0,0,0,0,0,0,0,-1,573,330,0,0
-644,694,0,0,0,0,0,0,0,0,0,-1,580,330,0,0
-637,694,0,0,0,0,0,0,0,0,0,-1,587,330,0,0
-630,694,0,0,0,0,0,0,0,0,0,-1,594,330,0,0
-623,694,0,0,0,0,0,0,0,0,0,-1,601,330,0,0
-616,694,0,0,0,0,0,0,0,0,0,-1,608,330,0,0
-609,694,0,0,0,0,0,0,0,0,0,-1,615,330,0,0
-602,694,0,0,0,0,0,0,0,0,0,-1,622,330,0,0
-595,694,0,0,0,0,0,0,0,0,0,-1,629,330,0,0
-588,694,0,0,0,0,0,0,0,0,0,-1,636,330,0,0
-581,694,0,0,0,0,0,0,0,0,0,-1,643,330,0,0
-574,694,0,0,0,0,0,0,0,0,0,-1,650,330,0,0
-567,694,0,0,0,0,0,0,0,0,0,-1,657,330,0,0
-560,694,0,0,0,0,0,0,0,0,0,-1,664,330,0,0
-553,694,0,0,0,0,0,0,0,0,0,-1,671,330,0,0
-546,694,0,0,0,0,0,0,0,0,0,-1,678,330,0,0
-539,694,0,0,0,0,0,0,0,0,0,-1,685,330,0,0
-532,694,0,0,0,0,0,0,0,0,0,-1,692,330,0,0
-525,694,0,0,0,0,0,0,0,0,0,-1,699,330,0,0
-518,694,0,0,0,0,0,0,0,0,0,-1,706,330,0,0
-511,694,0,0,0,0,0,0,0,0,0,-1,713,330,0,0
-504,694,0,0,0,0,0,0,0,0,0,-1,720,330,0,0
-497,694,0,0,0,0,0,0,0,0,0,-1,727,330,0,0
-490,694,0,0,0,0,0,0,0,0,0,-1,734,330,0,0
-483,694,0,0,0,0,0,0,0,0,0,-1,741,330,0,0
-476,694,0,0,0,0,0,0,0,0,0,-1,748,330,0,0
-469,694,0,0,0,0,0,0,0,0,0,-1,755,330,0,0
-462,694,0,0,0,0,0,0,0,0,0,-1,762,330,0,0
-455,694,0,0,0,0,0,0,0,0,0,-1,769,330,0,0
-448,694,0,0,0,0,0,0,0,0,0,-1,776,330,0,0
-441,694,0,0,0,0,0,0,0,0,0,-1,783,330,0,0
-434,694,0,0,0,0,0,0,0,0,0,-1,790,330,0,0
-427,694,0,0,0,0,0,0,0,0,0,-1,797,330,0,0
-420,694,0,0,0,0,0,0,0,0,0,-1,804,330,0,0
-413,694,0,0,0,0,0,0,0,0,0,-1,811,330,0,0
-406,694,0,0,0,0,0,0,0,0,0,-1,818,330,0,0
-399,694,0,0,0,0,0,0,0,0,0,-1,825,330,0,0
-392,694,0,0,0,0,0,0,0,0,0,-1,832,330,0,0
-385,694,0,0,0,0,0,0,0,0,0,-1,839,330,0,0
-378,694,0,0,0,0,0,0,0,0,0,-1,846,330,0,0
-371,694,0,0,0,0,0,0,0,0,0,-1,853,330,0,0
-364,694,0,0,0,0,0,0,0,0,0,-1,860,330,0,0
-357,694,0,0,0,0,0,0,0,0,0,-1,867,330,0,0
-350,694,0,0,0,0,0,0,0,0,0,-1,874,330,0,0
-343,694,0,0,0,0,0,0,0,0,0,-1,881,330,0,0
-336,694,0,0,0,0,0,0,0,0,0,-1,888,330,0,0
-329,694,0,0,0,0,0,0,0,0,0,-1,895,330,0,0
-322,694,0,0,0,0,0,0,0,0,0,-1,902,330,0,0
-315,694,0,0,0,0,0,0,0,0,0,-1,909,330,0,0
-308,694,0,0,0,0,0,0,0,0,0,-1,916,330,0,0
-301,694,0,0,0,0,0,0,0,0,0,-1,923,330,0,0
-294,694,0,0,0,0,0,0,0,0,0,-1,930,330,0,0
-287,694,0,0,0,0,0,0,0,0,0,-1,937,330,0,0
-280,694,0,0,0,0,0,0,0,0,0,-1,944,330,0,0
-273,694,0,0,0,0,0,0,0,0,0,-1,951,330,0,0
-266,694,0,0,0,0,0,0,0,0,0,-1,958,330,0,0
-259,694,0,0,0,0,0,0,0,0,0,-1,965,330,0,0
-252,694,0,0,0,0,0,0,0,0,0,-1,972,330,0,0
-245,694,0,0,0,0,0,0,0,0,0,-1,979,330,0,0
-238,694,0,0,0,0,0,0,0,0,0,-1,986,330,0,0
-231,694,0,0,0,0,0,0,0,0,0,-1,993,330,0,0
-224,694,0,0,0,0,0,0,0,0,0,-1,1000,330,0,0
-217,694,0,0,0,0,0,0,0,0,0,-1,1007,330,0,0
-210,694,0,0,0,0,0,0,0,0,0,-1,1014,330,0,0
-203,694,0,0,0,0,0,0,0,0,0,-1,1021,330,0,0
-196,694,0,0,0,0,0,0,0,0,0,-1,1028,330,0,0
-189,694,0,0,0,0,0,0,0,0,0,-1,1035,330,0,0
-182,694,0,0,0,0,0,0,0,0,0,-1,1042,330,0,0
-175,694,0,0,0,0,0,0,0,0,0,-1,1049,330,0,0
-168,694,0,0,0,0,0,0,0,0,0,-1,1056,330,0,0
-161,694,0,0,0,0,0,0,0,0,0,-1,1063,330,0,0
-154,694,0,0,0,0,0,0,0,0,0,-1,1070,330,0,0
-147,694,0,0,0,0,0,0,0,0,0,-1,1077,330,0,0
-140,694,0,0,0,0,0,0,0,0,0,-1,1084,330,0,0
-133,694,0,0,0,0,0,0,0,0,0,-1,1091,330,0,0
-126,694,0,0,0,0,0,0,0,0,0,-1,1098,330,0,0
-119,694,0,0,0,0,0,0,0,0,0,-1,1105,330,0,0
-112,694,0,0,0,0,0,0,0,0,0,-1,1112,330,0,0
-105,694,2.5188,-19.3963,0,0,0,0,0,0,0,-1,1119,330,2.51882,19.3963
-98,694,1.34875,-10.1051,0,0,0,0,0,0,0,-1,1126,330,1.34874,10.1051
-91,694,7.12927,-43.3935,0,0,0,0,0,0,0,-1,1133,330,7.12929,43.3935
-84,694,0.937744,-38.53,0,0,0,0,0,0,0,-1,1140,330,0.937727,38.53
-77,694,-5.45215,-32.2713,0,0,0,0,0,0,0,-1,1147,330,-5.45219,32.2713
-70,694,-11.7397,-25.7227,0,0,0,0,0,0,0,-1,1154,330,-11.7398,25.7228
-63,694,-18.0549,-19.214,0,0,0,0,0,0,0,-1,1161,330,-18.055,19.2139
-56,694,-6.50623,-0.649139,0,0,0,0,0,0,0,-1,1168,330,-6.5062,0.649126
-49,694,-1.11426,0.0341797,0,0,0,0,0,0,0,-1,1175,330,-1.11424,-0.0341846
-42,694,-0.346313,-0.709595,0,0,0,0,0,0,0,-1,1182,330,-0.346298,0.709581
-35,694,-0.459106,-1.24713,0,0,0,0,0,0,0,-1,1189,330,-0.459142,1.24714
-28,694,-6.48413,-3.95972,0,0,0,0,0,0,0,-1,1196,330,-6.48414,3.9597
-21,694,4.51855,-32.5075,0,0,0,0,0,0,0,-1,1203,330,4.51852,32.5075
-14,694,4.92981,-34.4583,0,0,0,0,0,0,0,-1,1210,330,4.9298,34.4583
-7,694,4.95667,-34.4133,0.0378296,0.0783275,0.0245169,0.0898763,0.0262808,1.13057,0.05336,0.0471309,1217,330,4.95672,34.4133
0,694,8.08789,-32.312,0.0163217,0.0836561,0.0213985,0.089881,0.0100968,1.28771,0.0568547,0.0427161,1224,330,8.08793,32.312
7,694,7.24207,-32.1858,-0.00294209,0.0874462,0.0181247,0.0909451,-0.00644103,1.38009,0.0628871,0.0425688,1231,330,7.24211,32.1858
14,694,6.75891,-32.4035,-0.0197632,0.0898435,0.0149039,0.0918339,-0.0217536,1.43803,0.0696161,0.0446445,1238,330,6.75888,32.4035
21,694,6.56226,-32.6664,-0.027228,0.0909811,0.0116378,0.0921159,-0.0283629,1.47359,0.0727323,0.0486217,1245,330,6.56227,32.6664
28,694,6.37598,-32.9658,0,0,0,0,0,0,0,-1,1252,330,6.37599,32.9658
35,694,4.97717,-32.5949,-0.0252717,0.0833271,0.0119222,0.0846206,-0.0265652,1.46273,0.0670466,0.0452862,1259,330,4.97716,32.5949
42,694,4.16077,-32.9369,-0.0215218,0.0804507,0.0111825,0.0816626,-0.0227337,1.46284,0.0633933,0.0490305,1266,330,4.16074,32.9369
49,694,3.15552,-33.5803,0,0,0,0,0,0,0,-1,1273,330,3.1555,33.5803
56,694,4.44751,-33.6666,0,0,0,0,0,0,0,-1,1280,330,4.44753,33.6666
63,694,3.82349,-33.0573,0,0,0,0,0,0,0,-1,1287,330,3.82353,33.0573
70,694,3.87134,-32.8096,-0.0123633,0.0534681,0.0187316,0.0584248,-0.0173199,1.31211,0.0458275,0.0441523,1294,330,3.87135,32.8096
77,694,5.98328,-32.7282,-0.0119147,0.0476242,0.0218987,0.0548111,-0.0191016,1.25368,0.0443025,0.0453884,1301,330,5.98323,32.7282
84,694,6.38391,-32.3759,-0.015573,0.044282,0.0250822,0.0534029,-0.0246938,1.22202,0.0460935,0.0418176,1308,330,6.38394,32.3759
91,694,5.86743,-35.4973,0,0,0,0,0,0,0,-1,1315,330,5.86747,35.4973
98,694,5.11865,-34.8163,-0.0267514,0.0366175,0.0301973,0.0487027,-0.0388366,1.19011,0.0506477,0.0445115,1322,330,5.11863,34.8163
105,694,4.38293,-34.1571,-0.0350263,0.0349755,0.0302603,0.0462428,-0.0462936,1.21435,0.0534259,0.0450102,1329,330,4.38291,34.1571
112,694,3.72607,-33.5484,-0.04066,0.0344058,0.0300992,0.0449841,-0.0512382,1.23283,0.0555931,0.0453052,1336,330,3.72608,33.5484
119,694,3.33179,-33.0857,0,0,0,0,0,0,0,-1,1343,330,3.33179,33.0857
126,694,2.97131,-31.9273,0,0,0,0,0,0,0,-1,1350,330,2.97125,31.9273
133,694,3.54626,-31.2329,-0.0360617,0.0392794,0.0234518,0.0459829,-0.0427653,1.29238,0.05125,0.048561,1357,330,3.54623,31.2329
140,694,4.12708,-30.5476,0,0,0,0,0,0,0,-1,1364,330,4.12711,30.5476
147,694,4.62158,-29.9185,0,0,0,0,0,0,0,-1,1371,330,4.62153,29.9185
154,694,2.71143,-32.0522,0,0,0,0,0,0,0,-1,1378,330,2.71141,32.0522
161,694,2.71069,-31.7711,0,0,0,0,0,0,0,-1,1385,330,2.71067,31.7711
168,694,30.451,0.196686,0,0,0,0,0,0,0,-1,1392,330,30.4511,-0.196674
175,694,31.0701,0.869873,0,0,0,0,0,0,0,-1,1399,330,31.07,-0.869874
182,694,8.29028,5.75238,0,0,0,0,0,0,0,-1,1406,330,8.29034,-5.75237
189,694,7.9801,4.46118,0,0,0,0,0,0,0,-1,1413,330,7.9801,-4.46118
196,694,7.39331,3.32632,0,0,0,0,0,0,0,-1,1420,330,7.39329,-3.32633
203,694,7.04492,2.20529,0,0,0,0,0,0,0,-1,1427,330,7.04496,-2.20529
210,694,6.44714,0.646912,0,0,0,0,0,0,0,-1,1434,330,6.44717,-0.646903
217,694,7.12061,-0.644958,0,0,0,0,0,0,0,-1,1441,330,7.12059,0.644961
224,694,6.74011,-1.70544,0,0,0,0,0,0,0,-1,1448,330,6.74013,1.70546
231,694,0,0,0,0,0,0,0,0,0,-1,1455,330,0,0
238,694,0,0,0,0,0,0,0,0,0,-1,1462,330,0,0
245,694,0,0,0,0,0,0,0,0,0,-1,1469,330,0,0
252,694,0,0,0,0,0,0,0,0,0,-1,1476,330,0,0
259,694,0,0,0,0,0,0,0,0,0,-1,1483,330,0,0
266,694,0,0,0,0,0,0,0,0,0,-1,1490,330,0,0
273,694,0,0,0,0,0,0,0,0,0,-1,1497,330,0,0
280,694,0,0,0,0,0,0,0,0,0,-1,1504,330,0,0
287,694,0,0,0,0,0,0,0,0,0,-1,1511,330,0,0
294,694,0,0,0,0,0,0,0,0,0,-1,1518,330,0,0
301,694,0,0,0,0,0,0,0,0,0,-1,1525,330,0,0
308,694,0,0,0,0,0,0,0,0,0,-1,1532,330,0,0
315,694,0,0,0,0,0,0,0,0,0,-1,1539,330,0,0
322,694,0,0,0,0,0,0,0,0,0,-1,1546,330,0,0
329,694,0,0,0,0,0,0,0,0,0,-1,1553,330,0,0
336,694,0,0,0,0,0,0,0,0,0,-1,1560,330,0,0
343,694,0,0,0,0,0,0,0,0,0,-1,1567,330,0,0
350,694,0,0,0,0,0,0,0,0,0,-1,1574,330,0,0
357,694,0,0,0,0,0,0,0,0,0,-1,1581,330,0,0
364,694,0,0,0,0,0,0,0,0,0,-1,1588,330,0,0
371,694,0,0,0,0,0,0,0,0,0,-1,1595,330,0,0
378,694,0,0,0,0,0,0,0,0,0,-1,1602,330,0,0
385,694,0,0,0,0,0,0,0,0,0,-1,1609,330,0,0
392,694,0,0,0,0,0,0,0,0,0,-1,1616,330,0,0
399,694,0,0,0,0,0,0,0,0,0,-1,1623,330,0,0
406,694,0,0,0,0,0,0,0,0,0,-1,1630,330,0,0
413,694,0,0,0,0,0,0,0,0,0,-1,1637,330,0,0
420,694,0,0,0,0,0,0,0,0,0,-1,1644,330,0,0
427,694,0,0,0,0,0,0,0,0,0,-1,1651,330,0,0
434,694,0,0,0,0,0,0,0,0,0,-1,1658,330,0,0
441,694,0,0,0,0,0,0,0,0,0,-1,1665,330,0,0
448,694,0,0,0,0,0,0,0,0,0,-1,1672,330,0,0
455,694,0,0,0,0,0,0,0,0,0,-1,1679,330,0,0
462,694,0,0,0,0,0,0,0,0,0,-1,1686,330,0,0
469,694,0,0,0,0,0,0,0,0,0,-1,1693,330,0,0
476,694,0,0,0,0,0,0,0,0,0,-1,1700,330,0,0
483,694,0,0,0,0,0,0,0,0,0,-1,1707,330,0,0
490,694,0,0,0,0,0,0,0,0,0,-1,1714,330,0,0
497,694,0,0,0,0,0,0,0,0,0,-1,1721,330,0,0
504,694,0,0,0,0,0,0,0,0,0,-1,1728,330,0,0
511,694,0,0,0,0,0,0,0,0,0,-1,1735,330,0,0
518,694,0,0,0,0,0,0,0,0,0,-1,1742,330,0,0
525,694,0,0,0,0,0,0,0,0,0,-1,1749,330,0,0
532,694,0,0,0,0,0,0,0,0,0,-1,1756,330,0,0
539,694,0,0,0,0,0,0,0,0,0,-1,1763,330,0,0
546,694,0,0,0,0,0,0,0,0,0,-1,1770,330,0,0
553,694,0,0,0,0,0,0,0,0,0,-1,1777,330,0,0
560,694,0,0,0,0,0,0,0,0,0,-1,1784,330,0,0
567,694,0,0,0,0,0,0,0,0,0,-1,1791,330,0,0
574,694,0,0,0,0,0,0,0,0,0,-1,1798,330,0,0
581,694,0,0,0,0,0,0,0,0,0,-1,1805,330,0,0
588,694,0,0,0,0,0,0,0,0,0,-1,1812,330,0,0
595,694,0,0,0,0,0,0,0,0,0,-1,1819,330,0,0
602,694,0,0,0,0,0,0,0,0,0,-1,1826,330,0,0
609,694,0,0,0,0,0,0,0,0,0,-1,1833,330,0,0
616,694,0,0,0,0,0,0,0,0,0,-1,1840,330,0,0
623,694,0,0,0,0,0,0,0,0,0,-1,1847,330,0,0
630,694,0,0,0,0,0,0,0,0,0,-1,1854,330,0,0
637,694,0,0,0,0,0,0,0,0,0,-1,1861,330,0,0
644,694,0,0,0,0,0,0,0,0,0,-1,1868,330,0,0
651,694,0,0,0,0,0,0,0,0,0,-1,1875,330,0,0
658,694,0,0,0,0,0,0,0,0,0,-1,1882,330,0,0
665,694,0,0,0,0,0,0,0,0,0,-1,1889,330,0,0
672,694,0,0,0,0,0,0,0,0,0,-1,1896,330,0,0
679,694,0,0,0,0,0,0,0,0,0,-1,1903,330,0,0
686,694,0,0,0,0,0,0,0,0,0,-1,1910,330,0,0
693,694,0,0,0,0,0,0,0,0,0,-1,1917,330,0,0
700,694,0,0,0,0,0,0,0,0,0,-1,1924,330,0,0
707,694,0,0,0,0,0,0,0,0,0,-1,1931,330,0,0
714,694,0,0,0,0,0,0,0,0,0,-1,1938,330,0,0
721,694,0,0,0,0,0,0,0,0,0,-1,1945,330,0,0
728,694,0,0,0,0,0,0,0,0,0,-1,1952,330,0,0
735,694,0,0,0,0,0,0,0,0,0,-1,1959,330,0,0
742,694,0,0,0,0,0,0,0,0,0,-1,1966,330,0,0
749,694,0,0,0,0,0,0,0,0,0,-1,1973,330,0,0
756,694,0,0,0,0,0,0,0,0,0,-1,1980,330,0,0
763,694,0,0,0,0,0,0,0,0,0,-1,1987,330,0,0
770,694,0,0,0,0,0,0,0,0,0,-1,1994,330,0,0
777,694,0,0,0,0,0,0,0,0,0,-1,2001,330,0,0
784,694,0,0,0,0,0,0,0,0,0,-1,2008,330,0,0
791,694,0,0,0,0,0,0,0,0,0,-1,2015,330,0,0
798,694,0,0,0,0,0,0,0,0,0,-1,2022,330,0,0
805,694,0,0,0,0,0,0,0,0,0,-1,2029,330,0,0
812,694,0,0,0,0,0,0,0,0,0,-1,2036,330,0,0
-700,687,0,0,0,0,0,0,0,0,0,-1,524,337,0,0
-693,687,0,0,0,0,0,0,0,0,0,-1,531,337,0,0
-686,687,0,0,0,0,0,0,0,0,0,-1,538,337,0,0
-679,687,0,0,0,0,0,0,0,0,0,-1,545,337,0,0
-672,687,0,0,0,0,0,0,0,0,0,-1,552,337,0,0
-665,687,0,0,0,0,0,0,0,0,0,-1,559,337,0,0
-658,687,0,0,0,0,0,0,0,0,0,-1,566,337,0,0
-651,687,0,0,0,0,0,0,0,0,0,-1,573,337,0,0
-644,687,0,0,0,0,0,0,0,0,0,-1,580,337,0,0
-637,687,0,0,0,0,0,0,0,0,0,-1,587,337,0,0
-630,687,0,0,0,0,0,0,0,0,0,-1,594,337,0,0
-623,687,0,0,0,0,0,0,0,0,0,-1,601,337,0,0
-616,687,0,0,0,0,0,0,0,0,0,-1,608,337,0,0
-609,687,0,0,0,0,0,0,0,0,0,-1,615,337,0,0
-602,687,0,0,0,0,0,0,0,0,0,-1,622,337,0,0
-595,687,0,0,0,0,0,0,0,0,0,-1,629,337,0,0
-588,687,0,0,0,0,0,0,0,0,0,-1,636,337,0,0
-581,687,0,0,0,0,0,0,0,0,0,-1,643,337,0,0
-574,687,0,0,0,0,0,0,0,0,0,-1,650,337,0,0
-567,687,0,0,0,0,0,0,0,0,0,-1,657,337,0,0
-560,687,0,0,0,0,0,0,0,0,0,-1,664,337,0,0
-553,687,0,0,0,0,0,0,0,0,0,-1,671,337,0,0
-546,687,0,0,0,0,0,0,0,0,0,-1,678,337,0,0
-539,687,0,0,0,0,0,0,0,0,0,-1,685,337,0,0
-532,687,0,0,0,0,0,0,0,0,0,-1,692,337,0,0
-525,687,0,0,0,0,0,0,0,0,0,-1,699,337,0,0
-518,687,0,0,0,0,0,0,0,0,0,-1,706,337,0,0
-511,687,0,0,0,0,0,0,0,0,0,-1,713,337,0,0
-504,687,0,0,0,0,0,0,0,0,0,-1,720,337,0,0
-497,687,0,0,0,0,0,0,0,0,0,-1,727,337,0,0
-490,687,0,0,0,0,0,0,0,0,0,-1,734,337,0,0
-483,687,0,0,0,0,0,0,0,0,0,-1,741,337,0,0
-476,687,0,0,0,0,0,0,0,0,0,-1,748,337,0,0
-469,687,0,0,0,0,0,0,0,0,0,-1,755,337,0,0
-462,687,0,0,0,0,0,0,0,0,0,-1,762,337,0,0
-455,687,0,0,0,0,0,0,0,0,0,-1,769,337,0,0
-448,687,0,0,0,0,0,0,0,0,0,-1,776,337,0,0
-441,687,0,0,0,0,0,0,0,0,0,-1,783,337,0,0
-434,687,0,0,0,0,0,0,0,0,0,-1,790,337,0,0
-427,687,0,0,0,0,0,0,0,0,0,-1,797,337,0,0
-420,687,0,0,0,0,0,0,0,0,0,-1,804,337,0,0
-413,687,0,0,0,0,0,0,0,0,0,-1,811,337,0,0
-406,687,0,0,0,0,0,0,0,0,0,-1,818,337,0,0
-399,687,0,0,0,0,0,0,0,0,0,-1,825,337,0,0
-392,687,0,0,0,0,0,0,0,0,0,-1,832,337,0,0
-385,687,0,0,0,0,0,0,0,0,0,-1,839,337,0,0
-378,687,0,0,0,0,0,0,0,0,0,-1,846,337,0,0
-371,687,0,0,0,0,0,0,0,0,0,-1,853,337,0,0
-364,687,0,0,0,0,0,0,0,0,0,-1,860,337,0,0
-357,687,0,0,0,0,0,0,0,0,0,-1,867,337,0,0
-350,687,0,0,0,0,0,0,0,0,0,-1,874,337,0,0
-343,687,0,0,0,0,0,0,0,0,0,-1,881,337,0,0
-336,687,0,0,0,0,0,0,0,0,0,-1,888,337,0,0
-329,687,0,0,0,0,0,0,0,0,0,-1,895,337,0,0
-322,687,0,0,0,0,0,0,0,0,0,-1,902,337,0,0
-315,687,0,0,0,0,0,0,0,0,0,-1,909,337,0,0
-308,687,0,0,0,0,0,0,0,0,0,-1,916,337,0,0
-301,687,0,0,0,0,0,0,0,0,0,-1,923,337,0,0
-294,687,0,0,0,0,0,0,0,0,0,-1,930,337,0,0
-287,687,0,0,0,0,0,0,0,0,0,-1,937,337,0,0
-280,687,0,0,0,0,0,0,0,0,0,-1,944,337,0,0
-273,687,0,0,0,0,0,0,0,0,0,-1,951,337,0,0
-266,687,0,0,0,0,0,0,0,0,0,-1,958,337,0,0
-259,687,0,0,0,0,0,0,0,0,0,-1,965,337,0,0
-252,687,0,0,0,0,0,0,0,0,0,-1,972,337,0,0
-245,687,0,0,0,0,0,0,0,0,0,-1,979,337,0,0
-238,687,0,0,0,0,0,0,0,0,0,-1,986,337,0,0
-231,687,0,0,0,0,0,0,0,0,0,-1,993,337,0,0
-224,687,0,0,0,0,0,0,0,0,0,-1,1000,337,0,0
-217,687,0,0,0,0,0,0,0,0,0,-1,1007,337,0,0
-210,687,0,0,0,0,0,0,0,0,0,-1,1014,337,0,0
-203,687,0,0,0,0,0,0,0,0,0,-1,1021,337,0,0
-196,687,0,0,0,0,0,0,0,0,0,-1,1028,337,0,0
-189,687,0,0,0,0,0,0,0,0,0,-1,1035,337,0,0
-182,687,0,0,0,0,0,0,0,0,0,-1,1042,337,0,0
-175,687,0,0,0,0,0,0,0,0,0,-1,1049,337,0,0
-168,687,0,0,0,0,0,0,0,0,0,-1,1056,337,0,0
-161,687,0,0,0,0,0,0,0,0,0,-1,1063,337,0,0
-154,687,0,0,0,0,0,0,0,0,0,-1,1070,337,0,0
-147,687,0,0,0,0,0,0,0,0,0,-1,1077,337,0,0
-140,687,0,0,0,0,0,0,0,0,0,-1,1084,337,0,0
-133,687,5.05859,-32.5701,0,0,0,0,0,0,0,-1,1091,337,5.05864,32.5701
-126,687,5.46191,-31.8163,0,0,0,0,0,0,0,-1,1098,337,5.46188,31.8163
-119,687,5.87366,-31.1191,0,0,0,0,0,0,0,-1,1105,337,5.87367,31.1191
-112,687,6.2616,-30.3766,0,0,0,0,0,0,0,-1,1112,337,6.26163,30.3766
-105,687,6.71155,-27.9981,0,0,0,0,0,0,0,-1,1119,337,6.7116,27.9981
-98,687,13.5825,-44.6227,0,0,0,0,0,0,0,-1,1126,337,13.5825,44.6227
-91,687,7.80652,-40.6695,0,0,0,0,0,0,0,-1,1133,337,7.80654,40.6695
-84,687,1.58215,-34.1306,0,0,0,0,0,0,0,-1,1140,337,1.58212,34.1306
-77,687,-4.66223,-27.6216,-0.0959238,-0.486656,0.167336,-0.0340563,-0.548523,0.354135,0.354875,0.0456349,1147,337,-4.66227,27.6216
-70,687,-10.9153,-21.2731,-0.0936486,-0.475379,0.163305,-0.0333205,-0.535707,0.353869,0.346566,0.0437173,1154,337,-10.9153,21.2731
-63,687,-17.217,-14.7555,0,0,0,0,0,0,0,-1,1161,337,-17.2171,14.7555
-56,687,-18.104,7.81931,0,0,0,0,0,0,0,-1,1168,337,-18.104,-7.81931
-49,687,-15.6449,-9.94391,0,0,0,0,0,0,0,-1,1175,337,-15.6449,9.94392
-42,687,-4.2019,-0.405609,0,0,0,0,0,0,0,-1,1182,337,-4.20192,0.405614
-35,687,-4.42273,-0.688171,0,0,0,0,0,0,0,-1,1189,337,-4.42276,0.688178
-28,687,-1.14038,-1.39072,0,0,0,0,0,0,0,-1,1196,337,-1.14035,1.3907
-21,687,4.24622,-34.6239,0,0,0,0,0,0,0,-1,1203,337,4.24616,34.6239
-14,687,4.55908,-34.5465,0.0414061,0.0559337,0.019097,0.0691017,0.0282381,0.96713,0.0401172,0.0468513,1210,337,4.55914,34.5465
-7,687,4.95825,-34.4451,0.0255464,0.0607906,0.0173688,0.0679114,0.0184256,1.18172,0.0405526,0.0483403,1217,337,4.95823,34.4451
0,687,5.03857,-34.4789,0,0,0,0,0,0,0,-1,1224,337,5.03861,34.4789
7,687,6.76672,-33.0176,-0.003232,0.0688397,0.0130729,0.0711377,-0.00552997,1.39679,0.0493718,0.043948,1231,337,6.76672,33.0176
14,687,6.27258,-33.1861,-0.0154455,0.0713354,0.0108012,0.0726595,-0.0167697,1.44881,0.0548902,0.043074,1238,337,6.27253,33.1861
21,687,5.87805,-33.3761,0,0,0,0,0,0,0,-1,1245,337,5.87809,33.3761
28,687,5.09485,-34.03,0,0,0,0,0,0,0,-1,1252,337,5.09489,34.03
35,687,5.16284,-33.1822,-0.0187622,0.0691096,0.00879703,0.0699816,-0.0196342,1.47199,0.0543935,0.0455117,1259,337,5.16283,33.1822
42,687,4.39014,-33.5387,-0.0159983,0.0679374,0.00817242,0.0687257,-0.0167866,1.47463,0.0523182,0.046988,1266,337,4.39018,33.5387
49,687,4.45569,-33.9962,0,0,0,0,0,0,0,-1,1273,337,4.45566,33.9963
56,687,4.62671,-33.7654,0,0,0,0,0,0,0,-1,1280,337,4.62672,33.7654
63,687,4.34106,-33.4994,0,0,0,0,0,0,0,-1,1287,337,4.34106,33.4994
70,687,4.1217,-33.4159,-0.0084497,0.0485955,0.0147442,0.052181,-0.0120352,1.33225,0.0394164,0.0444179,1294,337,4.12168,33.4159
77,687,5.61157,-33.2035,-0.00862227,0.044272,0.017503,0.0495393,-0.0138896,1.27848,0.0385004,0.0458186,1301,337,5.61162,33.2035
84,687,5.56494,-32.594,-0.0118636,0.0417156,0.0201443,0.0484443,-0.0185923,1.24842,0.0399623,0.0449217,1308,337,5.56489,32.594
91,687,4.74292,-33.9465,-0.0158673,0.0380288,0.0226992,0.046315,-0.0241535,1.22078,0.0413502,0.0478185,1315,337,4.7429,33.9465
98,687,4.37427,-33.9903,0,0,0,0,0,0,0,-1,1322,337,4.37433,33.9903
105,687,3.92371,-33.9433,-0.0266026,0.0337838,0.0241062,0.0422266,-0.0350454,1.23391,0.0446772,0.0467491,1329,337,3.92374,33.9433
112,687,3.1217,-33.193,-0.0307563,0.0330657,0.023813,0.0409714,-0.038662,1.25025,0.0459828,0.0491755,1336,337,3.12167,33.193
119,687,2.50085,-32.7802,0,0,0,0,0,0,0,-1,1343,337,2.50091,32.7801
126,687,2.86987,-32.8085,0,0,0,0,0,0,0,-1,1350,337,2.86986,32.8085
133,687,3.34265,-32.054,0,0,0,0,0,0,0,-1,1357,337,3.34259,32.0541
140,687,3.81531,-31.2996,0,0,0,0,0,0,0,-1,1364,337,3.81533,31.2996
147,687,1.96411,-33.0946,0,0,0,0,0,0,0,-1,1371,337,1.96411,33.0946
154,687,2.29565,-32.8448,0,0,0,0,0,0,0,-1,1378,337,2.29565,32.8447
161,687,29.3895,-1.90628,0,0,0,0,0,0,0,-1,1385,337,29.3895,1.90628
168,687,29.8564,-1.19434,0,0,0,0,0,0,0,-1,1392,337,29.8564,1.19434
175,687,30.3419,-0.453583,0,0,0,0,0,0,0,-1,1399,337,30.3419,0.45357
182,687,6.67249,0.289917,0,0,0,0,0,0,0,-1,1406,337,6.67247,-0.289916
189,687,7.76062,4.53635,0,0,0,0,0,0,0,-1,1413,337,7.76064,-4.53636
196,687,6.99048,3.2966,0,0,0,0,0,0,0,-1,1420,337,6.99046,-3.2966
203,687,6.36499,2.1445,0,0,0,0,0,0,0,-1,1427,337,6.36499,-2.14451
210,687,6.68066,0.674652,0,0,0,0,0,0,0,-1,1434,337,6.68062,-0.674655
217,687,5.99683,-0.630493,0,0,0,0,0,0,0,-1,1441,337,5.99684,0.630497
224,687,5.52917,0.524902,0,0,0,0,0,0,0,-1,1448,337,5.5292,-0.524915
231,687,5.85583,-1.73651,0,0,0,0,0,0,0,-1,1455,337,5.85577,1.73651
238,687,5.96582,-2.96774,0,0,0,0,0,0,0,-1,1462,337,5.96577,2.96773
245,687,1.28259,2.32211,0,0,0,0,0,0,0,-1,1469,337,1.28258,-2.32211
252,687,1.97278,3.88422,0,0,0,0,0,0,0,-1,1476,337,1.97281,-3.88421
259,687,0,0,0,0,0,0,0,0,0,-1,1483,337,0,0
266,687,0,0,0,0,0,0,0,0,0,-1,1490,337,0,0
273,687,0,0,0,0,0,0,0,0,0,-1,1497,337,0,0
280,687,0,0,0,0,0,0,0,0,0,-1,1504,337,0,0
287,687,0,0,0,0,0,0,0,0,0,-1,1511,337,0,0
294,687,0,0,0,0,0,0,0,0,0,-1,1518,337,0,0
301,687,0,0,0,0,0,0,0,0,0,-1,1525,337,0,0
308,687,0,0,0,0,0,0,0,0,0,-1,1532,337,0,0
315,687,0,0,0,0,0,0,0,0,0,-1,1539,337,0,0
322,687,0,0,0,0,0,0,0,0,0,-1,1546,337,0,0
329,687,0,0,0,0,0,0,0,0,0,-1,1553,337,0,0
336,687,0,0,0,0,0,0,0,0,0,-1,1560,337,0,0
343,687,0,0,0,0,0,0,0,0,0,-1,1567,337,0,0
350,687,0,0,0,0,0,0,0,0,0,-1,1574,337,0,0
357,687,0,0,0,0,0,0,0,0,0,-1,1581,337,0,0
364,687,0,0,0,0,0,0,0,0,0,-1,1588,337,0,0
371,687,0,0,0,0,0,0,0,0,0,-1,1595,337,0,0
378,687,0,0,0,0,0,0,0,0,0,-1,1602,337,0,0
385,687,0,0,0,0,0,0,0,0,0,-1,1609,337,0,0
392,687,0,0,0,0,0,0,0,0,0,-1,1616,337,0,0
399,687,0,0,0,0,0,0,0,0,0,-1,1623,337,0,0
406,687,0,0,0,0,0,0,0,0,0,-1,1630,337,0,0
413,687,0,0,0,0,0,0,0,0,0,-1,1637,337,0,0
420,687,0,0,0,0,0,0,0,0,0,-1,1644,337,0,0
427,687,0,0,0,0,0,0,0,0,0,-1,1651,337,0,0
434,687,0,0,0,0,0,0,0,0,0,-1,1658,337,0,0
441,687,0,0,0,0,0,0,0,0,0,-1,1665,337,0,0
448,687,0,0,0,0,0,0,0,0,0,-1,1672,337,0,0
455,687,0,0,0,0,0,0,0,0,0,-1,1679,337,0,0
462,687,0,0,0,0,0,0,0,0,0,-1,1686,337,0,0
469,687,0,0,0,0,0,0,0,0,0,-1,1693,337,0,0
476,687,0,0,0,0,0,0,0,0,0,-1,1700,337,0,0
483,687,0,0,0,0,0,0,0,0,0,-1,1707,337,0,0
490,687,0,0,0,0,0,0,0,0,0,-1,1714,337,0,0
497,687,0,0,0,0,0,0,0,0,0,-1,1721,337,0,0
504,687,0,0,0,0,0,0,0,0,0,-1,1728,337,0,0
511,687,0,0,0,0,0,0,0,0,0,-1,1735,337,0,0
518,687,0,0,0,0,0,0,0,0,0,-1,1742,337,0,0
525,687,0,0,0,0,0,0,0,0,0,-1,1749,337,0,0
532,687,0,0,0,0,0,0,0,0,0,-1,1756,337,0,0
539,687,0,0,0,0,0,0,0,0,0,-1,1763,337,0,0
546,687,0,0,0,0,0,0,0,0,0,-1,1770,337,0,0
553,687,0,0,0,0,0,0,0,0,0,-1,1777,337,0,0
560,687,0,0,0,0,0,0,0,0,0,-1,1784,337,0,0
567,687,0,0,0,0,0,0,0,0,0,-1,1791,337,0,0
574,687,0,0,0,0,0,0,0,0,0,-1,1798,337,0,0
581,687,0,0,0,0,0,0,0,0,0,-1,1805,337,0,0
588,687,0,0,0,0,0,0,0,0,0,-1,1812,337,0,0
595,687,0,0,0,0,0,0,0,0,0,-1,1819,337,0,0
602,687,0,0,0,0,0,0,0,0,0,-1,1826,337,0,0
609,687,0,0,0,0,0,0,0,0,0,-1,1833,337,0,0
616,687,0,0,0,0,0,0,0,0,0,-1,1840,337,0,0
623,687,0,0,0,0,0,0,0,0,0,-1,1847,337,0,0
630,687,0,0,0,0,0,0,0,0,0,-1,1854,337,0,0
637,687,0,0,0,0,0,0,0,0,0,-1,1861,337,0,0
644,687,0,0,0,0,0,0,0,0,0,-1,1868,337,0,0
651,687,0,0,0,0,0,0,0,0,0,-1,1875,337,0,0
658,687,0,0,0,0,0,0,0,0,0,-1,1882,337,0,0
665,687,0,0,0,0,0,0,0,0,0,-1,1889,337,0,0
672,687,0,0,0,0,0,0,0,0,0,-1,1896,337,0,0
679,687,0,0,0,0,0,0,0,0,0,-1,1903,337,0,0
686,687,0,0,0,0,0,0,0,0,0,-1,1910,337,0,0
693,687,0,0,0,0,0,0,0,0,0,-1,1917,337,0,0
700,687,0,0,0,0,0,0,0,0,0,-1,1924,337,0,0
707,687,0,0,0,0,0,0,0,0,0,-1,1931,337,0,0
714,687,0,0,0,0,0,0,0,0,0,-1,1938,337,0,0
721,687,0,0,0,0,0,0,0,0,0,-1,1945,337,0,0
728,687,0,0,0,0,0,0,0,0,0,-1,1952,337,0,0
735,687,0,0,0,0,0,0,0,0,0,-1,1959,337,0,0
742,687,0,0,0,0,0,0,0,0,0,-1,1966,337,0,0
749,687,0,0,0,0,0,0,0,0,0,-1,1973,337,0,0
756,687,0,0,0,0,0,0,0,0,0,-1,1980,337,0,0
763,687,0,0,0,0,0,0,0,0,0,-1,1987,337,0,0
770,687,0,0,0,0,0,0,0,0,0,-1,1994,337,0,0
777,687,0,0,0,0,0,0,0,0,0,-1,2001,337,0,0
784,687,0,0,0,0,0,0,0,0,0,-1,2008,337,0,0
791,687,0,0,0,0,0,0,0,0,0,-1,2015,337,0,0
798,687,0,0,0,0,0,0,0,0,0,-1,2022,337,0,0
805,687,0,0,0,0,0,0,0,0,0,-1,2029,337,0,0
812,687,0,0,0,0,0,0,0,0,0,-1,2036,337,0,0
-700,680,0,0,0,0,0,0,0,0,0,-1,524,344,0,0
-693,680,0,0,0,0,0,0,0,0,0,-1,531,344,0,0
-686,680,0,0,0,0,0,0,0,0,0,-1,538,344,0,0
-679,680,0,0,0,0,0,0,0,0,0,-1,545,344,0,0
-672,680,0,0,0,0,0,0,0,0,0,-1,552,344,0,0
-665,680,0,0,0,0,0,0,0,0,0,-1,559,344,0,0
-658,680,0,0,0,0,0,0,0,0,0,-1,566,344,0,0
-651,680,0,0,0,0,0,0,0,0,0,-1,573,344,0,0
-644,680,0,0,0,0,0,0,0,0,0,-1,580,344,0,0
-637,680,0,0,0,0,0,0,0,0,0,-1,587,344,0,0
-630,680,0,0,0,0,0,0,0,0,0,-1,594,344,0,0
-623,680,0,0,0,0,0,0,0,0,0,-1,601,344,0,0
-616,680,0,0,0,0,0,0,0,0,0,-1,608,344,0,0
-609,680,0,0,0,0,0,0,0,0,0,-1,615,344,0,0
-602,680,0,0,0,0,0,0,0,0,0,-1,622,344,0,0
-595,680,0,0,0,0,0,0,0,0,0,-1,629,344,0,0
-588,680,0,0,0,0,0,0,0,0,0,-1,636,344,0,0
-581,680,0,0,0,0,0,0,0,0,0,-1,643,344,0,0
-574,680,0,0,0,0,0,0,0,0,0,-1,650,344,0,0
-567,680,0,0,0,0,0,0,0,0,0,-1,657,344,0,0
-560,680,0,0,0,0,0,0,0,0,0,-1,664,344,0,0
-553,680,0,0,0,0,0,0,0,0,0,-1,671,344,0,0
-546,680,0,0,0,0,0,0,0,0,0,-1,678,344,0,0
-539,680,0,0,0,0,0,0,0,0,0,-1,685,344,0,0
-532,680,0,0,0,0,0,0,0,0,0,-1,692,344,0,0
-525,680,0,0,0,0,0,0,0,0,0,-1,699,344,0,0
-518,680,0,0,0,0,0,0,0,0,0,-1,706,344,0,0
-511,680,0,0,0,0,0,0,0,0,0,-1,713,344,0,0
-504,680,0,0,0,0,0,0,0,0,0,-1,720,344,0,0
-497,680,0,0,0,0,0,0,0,0,0,-1,727,344,0,0
-490,680,0,0,0,0,0,0,0,0,0,-1,734,344,0,0
-483,680,0,0,0,0,0,0,0,0,0,-1,741,344,0,0
-476,680,0,0,0,0,0,0,0,0,0,-1,748,344,0,0
-469,680,0,0,0,0,0,0,0,0,0,-1,755,344,0,0
-462,680,0,0,0,0,0,0,0,0,0,-1,762,344,0,0
-455,680,0,0,0,0,0,0,0,0,0,-1,769,344,0,0
-448,680,0,0,0,0,0,0,0,0,0,-1,776,344,0,0
-441,680,0,0,0,0,0,0,0,0,0,-1,783,344,0,0
-434,680,0,0,0,0,0,0,0,0,0,-1,790,344,0,0
-427,680,0,0,0,0,0,0,0,0,0,-1,797,344,0,0
-420,680,0,0,0,0,0,0,0,0,0,-1,804,344,0,0
-413,680,0,0,0,0,0,0,0,0,0,-1,811,344,0,0
-406,680,0,0,0,0,0,0,0,0,0,-1,818,344,0,0
-399,680,0,0,0,0,0,0,0,0,0,-1,825,344,0,0
-392,680,0,0,0,0,0,0,0,0,0,-1,832,344,0,0
-385,680,0,0,0,0,0,0,0,0,0,-1,839,344,0,0
-378,680,0,0,0,0,0,0,0,0,0,-1,846,344,0,0
-371,680,0,0,0,0,0,0,0,0,0,-1,853,344,0,0
-364,680,0,0,0,0,0,0,0,0,0,-1,860,344,0,0
-357,680,0,0,0,0,0,0,0,0,0,-1,867,344,0,0
-350,680,0,0,0,0,0,0,0,0,0,-1,874,344,0,0
-343,680,0,0,0,0,0,0,0,0,0,-1,881,344,0,0
-336,680,0,0,0,0,0,0,0,0,0,-1,888,344,0,0
-329,680,0,0,0,0,0,0,0,0,0,-1,895,344,0,0
-322,680,0,0,0,0,0,0,0,0,0,-1,902,344,0,0
-315,680,0,0,0,0,0,0,0,0,0,-1,909,344,0,0
-308,680,0,0,0,0,0,0,0,0,0,-1,916,344,0,0
-301,680,0,0,0,0,0,0,0,0,0,-1,923,344,0,0
-294,680,0,0,0,0,0,0,0,0,0,-1,930,344,0,0
-287,680,0,0,0,0,0,0,0,0,0,-1,937,344,0,0
-280,680,0,0,0,0,0,0,0,0,0,-1,944,344,0,0
-273,680,0,0,0,0,0,0,0,0,0,-1,951,344,0,0
-266,680,0,0,0,0,0,0,0,0,0,-1,958,344,0,0
-259,680,0,0,0,0,0,0,0,0,0,-1,965,344,0,0
-252,680,0,0,0,0,0,0,0,0,0,-1,972,344,0,0
-245,680,0,0,0,0,0,0,0,0,0,-1,979,344,0,0
-238,680,0,0,0,0,0,0,0,0,0,-1,986,344,0,0
-231,680,0,0,0,0,0,0,0,0,0,-1,993,344,0,0
-224,680,0,0,0,0,0,0,0,0,0,-1,1000,344,0,0
-217,680,0,0,0,0,0,0,0,0,0,-1,1007,344,0,0
-210,680,0,0,0,0,0,0,0,0,0,-1,1014,344,0,0
-203,680,0,0,0,0,0,0,0,0,0,-1,1021,344,0,0
-196,680,0,0,0,0,0,0,0,0,0,-1,1028,344,0,0
-189,680,0,0,0,0,0,0,0,0,0,-1,1035,344,0,0
-182,680,0,0,0,0,0,0,0,0,0,-1,1042,344,0,0
-175,680,0,0,0,0,0,0,0,0,0,-1,1049,344,0,0
-168,680,0,0,0,0,0,0,0,0,0,-1,1056,344,0,0
-161,680,0,0,0,0,0,0,0,0,0,-1,1063,344,0,0
-154,680,2.25244,-29.1442,0,0,0,0,0,0,0,-1,1070,344,2.25241,29.1442
-147,680,5.75867,-30.2404,0,0,0,0,0,0,0,-1,1077,344,5.75868,30.2404
-140,680,4.63684,-31.9802,0,0,0,0,0,0,0,-1,1084,344,4.63687,31.9802
-133,680,5.0437,-31.8094,0,0,0,0,0,0,0,-1,1091,344,5.04366,31.8094
-126,680,5.4635,-31.3669,0,0,0,0,0,0,0,-1,1098,344,5.46346,31.3669
-119,680,5.91211,-30.6628,0,0,0,0,0,0,0,-1,1105,344,5.91217,30.6628
-112,680,6.33032,-29.9273,0,0,0,0,0,0,0,-1,1112,344,6.33028,29.9273
-105,680,8.12,-27.7806,0,0,0,0,0,0,0,-1,1119,344,8.12,27.7806
-98,680,14.1224,-39.1392,0,0,0,0,0,0,0,-1,1126,344,14.1225,39.1392
-91,680,8.3208,-33.7806,0,0,0,0,0,0,0,-1,1133,344,8.32075,33.7806
-84,680,2.26807,-29.7271,0,0,0,0,0,0,0,-1,1140,344,2.26804,29.7271
-77,680,-3.90979,-22.8858,-0.0785339,-0.39268,0.136196,-0.0277096,-0.443504,0.357166,0.286879,0.0471782,1147,344,-3.90976,22.8858
-70,680,-10.1283,-16.7068,-0.0764839,-0.38235,0.132583,-0.0270147,-0.431819,0.357121,0.279311,0.0462068,1154,344,-10.1283,16.7069
-63,680,-16.4406,-10.4266,0,0,0,0,0,0,0,-1,1161,344,-16.4405,10.4266
-56,680,-6.96912,-8.83356,0,0,0,0,0,0,0,-1,1168,344,-6.96907,8.83354
-49,680,-6.7677,-2.24063,0,0,0,0,0,0,0,-1,1175,344,-6.76772,2.24063
-42,680,-1.02368,0.618805,0,0,0,0,0,0,0,-1,1182,344,-1.0237,-0.618797
-35,680,-0.947876,-0.942719,0,0,0,0,0,0,0,-1,1189,344,-0.947842,0.942731
-28,680,-1.46118,-1.10574,0,0,0,0,0,0,0,-1,1196,344,-1.4612,1.10575
-21,680,5.01917,-34.4367,0,0,0,0,0,0,0,-1,1203,344,5.01914,34.4367
-14,680,4.99988,-34.4328,0.0270397,0.0425168,0.0130027,0.0499096,0.019647,1.05382,0.0290317,0.045791,1210,344,4.99989,34.4328
-7,680,5.01123,-34.4291,0.0162026,0.0464803,0.01187,0.050579,0.012104,1.23832,0.0304961,0.047427,1217,344,5.01118,34.4291
0,680,5.06543,-34.4507,0.00598818,0.0502188,0.0105446,0.052604,0.00360295,1.34834,0.0339322,0.0497104,1224,344,5.06539,34.4507
7,680,5.09338,-34.4778,0,0,0,0,0,0,0,-1,1231,344,5.09333,34.4778
14,680,5.70093,-33.6046,-0.0121338,0.055667,0.00754147,0.0564957,-0.0129625,1.46135,0.0426465,0.0413747,1238,344,5.70091,33.6046
21,680,5.00085,-34.1907,-0.0152992,0.0573593,0.00585162,0.0578276,-0.0157674,1.49095,0.0447434,0.0478888,1245,344,5.0008,34.1907
28,680,5.07117,-34.2649,-0.0152443,0.0570708,0.00615572,0.057591,-0.0157646,1.48648,0.0445877,0.0492096,1252,344,5.0712,34.2649
35,680,4.67603,-34.1516,-0.0139439,0.0561385,0.00629749,0.0566999,-0.0145053,1.48189,0.0434498,0.0451632,1259,344,4.67606,34.1516
42,680,4.77417,-34.1123,-0.011963,0.0560308,0.00581462,0.0565245,-0.0124566,1.4861,0.0424489,0.0455252,1266,344,4.77413,34.1123
49,680,4.65503,-34.2768,-0.012357,0.0547287,0.00619708,0.0552963,-0.0129246,1.47945,0.0418432,0.0433266,1273,344,4.65506,34.2768
56,680,4.71484,-34.1397,-0.0109378,0.0503176,0.00740405,0.0511999,-0.01182,1.4522,0.03868,0.0424738,1280,344,4.7149,34.1397
63,680,4.54272,-33.9604,-0.00826912,0.0462377,0.00935334,0.0477981,-0.00982948,1.40549,0.0355971,0.0426299,1287,344,4.54277,33.9604
70,680,4.48596,-33.8717,-0.0060072,0.0427564,0.0113189,0.0452557,-0.00850641,1.35348,0.0333693,0.042963,1294,344,4.48592,33.8717
77,680,5.15234,-33.6154,-0.00648065,0.0396638,0.0136241,0.043386,-0.0102029,1.3041,0.0328573,0.044715,1301,344,5.15231,33.6154
84,680,4.74622,-33.4586,-0.00918301,0.0377785,0.0157415,0.0425669,-0.0139713,1.2755,0.0340056,0.0462864,1308,344,4.74625,33.4586
91,680,5.0968,-34.4996,-0.0124158,0.0348428,0.0177652,0.040776,-0.0183491,1.24846,0.0349449,0.0484334,1315,344,5.09682,34.4996
98,680,4.47485,-34.0547,-0.0159064,0.0326211,0.0188674,0.0390935,-0.0223788,1.24033,0.0359257,0.0473004,1322,344,4.47489,34.0547
105,680,3.86487,-33.6256,-0.0200995,0.0312367,0.0186762,0.0373121,-0.0261749,1.25629,0.0368418,0.045925,1329,344,3.86489,33.6256
112,680,3.23071,-33.2184,-0.023132,0.030475,0.0183166,0.0361358,-0.0287927,1.27106,0.0375663,0.0494029,1336,344,3.23068,33.2184
119,680,2.62305,-32.8253,0,0,0,0,0,0,0,-1,1343,344,2.62301,32.8252
126,680,4.44043,-33.3614,0,0,0,0,0,0,0,-1,1350,344,4.4404,33.3614
133,680,3.47327,-32.9034,0,0,0,0,0,0,0,-1,1357,344,3.47322,32.9034
140,680,3.93213,-32.0115,0,0,0,0,0,0,0,-1,1364,344,3.93216,32.0115
147,680,2.62097,-33.2823,-0.0104846,0.0319065,0.00802276,0.033374,-0.0119522,1.38987,0.0271258,0.0448265,1371,344,2.62092,33.2822
154,680,2.84363,-33.112,-0.000210253,0.0320275,0.00336061,0.0323741,-0.000556851,1.46802,0.0217707,0.0480789,1378,344,2.84358,33.112
161,680,3.07153,-32.8717,0,0,0,0,0,0,0,-1,1385,344,3.07159,32.8717
168,680,29.4142,-2.51651,0,0,0,0,0,0,0,-1,1392,344,29.4142,2.51652
175,680,6.66541,0.942078,0,0,0,0,0,0,0,-1,1399,344,6.66538,-0.942088
182,680,6.52917,0.532379,0,0,0,0,0,0,0,-1,1406,344,6.52922,-0.532385
189,680,7.55884,4.77695,0,0,0,0,0,0,0,-1,1413,344,7.55886,-4.77694
196,680,6.55627,3.35254,0,0,0,0,0,0,0,-1,1420,344,6.55622,-3.35255
203,680,5.7334,1.90753,0,0,0,0,0,0,0,-1,1427,344,5.73341,-1.90754
210,680,5.27515,0.493622,0,0,0,0,0,0,0,-1,1434,344,5.27514,-0.493632
217,680,6.56384,-0.374176,0,0,0,0,0,0,0,-1,1441,344,6.56379,0.374176
224,680,3.9491,-0.640228,0,0,0,0,0,0,0,-1,1448,344,3.94908,0.64024
231,680,4.24866,-1.96881,0,0,0,0,0,0,0,-1,1455,344,4.2486,1.96882
238,680,4.29333,-3.23984,0,0,0,0,0,0,0,-1,1462,344,4.29332,3.23984
245,680,2.44397,0.985382,0,0,0,0,0,0,0,-1,1469,344,2.44402,-0.985394
252,680,3.07349,2.18951,0,0,0,0,0,0,0,-1,1476,344,3.0735,-2.18952
259,680,2.82971,1.30682,0,0,0,0,0,0,0,-1,1483,344,2.82972,-1.30684
266,680,2.67554,1.44067,0,0,0,0,0,0,0,-1,1490,344,2.67551,-1.44066
273,680,2.46411,1.54666,0,0,0,0,0,0,0,-1,1497,344,2.46407,-1.54666
280,680,0,0,0,0,0,0,0,0,0,-1,1504,344,0,0
287,680,0,0,0,0,0,0,0,0,0,-1,1511,344,0,0
294,680,0,0,0,0,0,0,0,0,0,-1,1518,344,0,0
301,680,0,0,0,0,0,0,0,0,0,-1,1525,344,0,0
308,680,0,0,0,0,0,0,0,0,0,-1,1532,344,0,0
315,680,0,0,0,0,0,0,0,0,0,-1,1539,344,0,0
322,680,0,0,0,0,0,0,0,0,0,-1,1546,344,0,0
329,680,0,0,0,0,0,0,0,0,0,-1,1553,344,0,0
336,680,0,0,0,0,0,0,0,0,0,-1,1560,344,0,0
343,680,0,0,0,0,0,0,0,0,0,-1,1567,344,0,0
350,680,0,0,0,0,0,0,0,0,0,-1,1574,344,0,0
357,680,0,0,0,0,0,0,0,0,0,-1,1581,344,0,0
364,680,0,0,0,0,0,0,0,0,0,-1,1588,344,0,0
371,680,0,0,0,0,0,0,0,0,0,-1,1595,344,0,0
378,680,0,0,0,0,0,0,0,0,0,-1,1602,344,0,0
385,680,0,0,0,0,0,0,0,0,0,-1,1609,344,0,0
392,680,0,0,0,0,0,0,0,0,0,-1,1616,344,0,0
399,680,0,0,0,0,0,0,0,0,0,-1,1623,344,0,0
406,680,0,0,0,0,0,0,0,0,0,-1,1630,344,0,0
413,680,0,0,0,0,0,0,0,0,0,-1,1637,344,0,0
420,680,0,0,0,0,0,0,0,0,0,-1,1644,344,0,0
427,680,0,0,0,0,0,0,0,0,0,-1,1651,344,0,0
434,680,0,0,0,0,0,0,0,0,0,-1,1658,344,0,0
441,680,0,0,0,0,0,0,0,0,0,-1,1665,344,0,0
448,680,0,0,0,0,0,0,0,0,0,-1,1672,344,0,0
455,680,0,0,0,0,0,0,0,0,0,-1,1679,344,0,0
462,680,0,0,0,0,0,0,0,0,0,-1,1686,344,0,0
469,680,0,0,0,0,0,0,0,0,0,-1,1693,344,0,0
476,680,0,0,0,0,0,0,0,0,0,-1,1700,344,0,0
483,680,0,0,0,0,0,0,0,0,0,-1,1707,344,0,0
490,680,0,0,0,0,0,0,0,0,0,-1,1714,344,0,0
497,680,0,0,0,0,0,0,0,0,0,-1,1721,344,0,0
504,680,0,0,0,0,0,0,0,0,0,-1,1728,344,0,0
511,680,0,0,0,0,0,0,0,0,0,-1,1735,344,0,0
518,680,0,0,0,0,0,0,0,0,0,-1,1742,344,0,0
525,680,0,0,0,0,0,0,0,0,0,-1,1749,344,0,0
532,680,0,0,0,0,0,0,0,0,0,-1,1756,344,0,0
539,680,0,0,0,0,0,0,0,0,0,-1,1763,344,0,0
546,680,0,0,0,0,0,0,0,0,0,-1,1770,344,0,0
553,680,0,0,0,0,0,0,0,0,0,-1,1777,344,0,0
560,680,0,0,0,0,0,0,0,0,0,-1,1784,344,0,0
567,680,0,0,0,0,0,0,0,0,0,-1,1791,344,0,0
574,680,0,0,0,0,0,0,0,0,0,-1,1798,344,0,0
581,680,0,0,0,0,0,0,0,0,0,-1,1805,344,0,0
588,680,0,0,0,0,0,0,0,0,0,-1,1812,344,0,0
595,680,0,0,0,0,0,0,0,0,0,-1,1819,344,0,0
602,680,0,0,0,0,0,0,0,0,0,-1,1826,344,0,0
609,680,0,0,0,0,0,0,0,0,0,-1,1833,344,0,0
616,680,0,0,0,0,0,0,0,0,0,-1,1840,344,0,0
623,680,0,0,0,0,0,0,0,0,0,-1,1847,344,0,0
630,680,0,0,0,0,0,0,0,0,0,-1,1854,344,0,0
637,680,0,0,0,0,0,0,0,0,0,-1,1861,344,0,0
644,680,0,0,0,0,0,0,0,0,0,-1,1868,344,0,0
651,680,0,0,0,0,0,0,0,0,0,-1,1875,344,0,0
658,680,0,0,0,0,0,0,0,0,0,-1,1882,344,0,0
665,680,0,0,0,0,0,0,0,0,0,-1,1889,344,0,0
672,680,0,0,0,0,0,0,0,0,0,-1,1896,344,0,0
679,680,0,0,0,0,0,0,0,0,0,-1,1903,344,0,0
686,680,0,0,0,0,0,0,0,0,0,-1,1910,344,0,0
693,680,0,0,0,0,0,0,0,0,0,-1,1917,344,0,0
700,680,0,0,0,0,0,0,0,0,0,-1,1924,344,0,0
707,680,0,0,0,0,0,0,0,0,0,-1,1931,344,0,0
714,680,0,0,0,0,0,0,0,0,0,-1,1938,344,0,0
721,680,0,0,0,0,0,0,0,0,0,-1,1945,344,0,0
728,680,0,0,0,0,0,0,0,0,0,-1,1952,344,0,0
735,680,0,0,0,0,0,0,0,0,0,-1,1959,344,0,0
742,680,0,0,0,0,0,0,0,0,0,-1,1966,344,0,0
749,680,0,0,0,0,0,0,0,0,0,-1,1973,344,0,0
756,680,0,0,0,0,0,0,0,0,0,-1,1980,344,0,0
763,680,0,0,0,0,0,0,0,0,0,-1,1987,344,0,0
770,680,0,0,0,0,0,0,0,0,0,-1,1994,344,0,0
777,680,0,0,0,0,0,0,0,0,0,-1,2001,344,0,0
784,680,0,0,0,0,0,0,0,0,0,-1,2008,344,0,0
791,680,0,0,0,0,0,0,0,0,0,-1,2015,344,0,0
798,680,0,0,0,0,0,0,0,0,0,-1,2022,344,0,0
805,680,0,0,0,0,0,0,0,0,0,-1,2029,344,0,0
812,680,0,0,0,0,0,0,0,0,0,-1,2036,344,0,0
-700,673,0,0,0,0,0,0,0,0,0,-1,524,351,0,0
-693,673,0,0,0,0,0,0,0,0,0,-1,531,351,0,0
-686,673,0,0,0,0,0,0,0,0,0,-1,538,351,0,0
-679,673,0,0,0,0,0,0,0,0,0,-1,545,351,0,0
-672,673,0,0,0,0,0,0,0,0,0,-1,552,351,0,0
-665,673,0,0,0,0,0,0,0,0,0,-1,559,351,0,0
-658,673,0,0,0,0,0,0,0,0,0,-1,566,351,0,0
-651,673,0,0,0,0,0,0,0,0,0,-1,573,351,0,0
-644,673,0,0,0,0,0,0,0,0,0,-1,580,351,0,0
-637,673,0,0,0,0,0,0,0,0,0,-1,587,351,0,0
-630,673,0,0,0,0,0,0,0,0,0,-1,594,351,0,0
-623,673,0,0,0,0,0,0,0,0,0,-1,601,351,0,0
-616,673,0,0,0,0,0,0,0,0,0,-1,608,351,0,0
-609,673,0,0,0,0,0,0,0,0,0,-1,615,351,0,0
-602,673,0,0,0,0,0,0,0,0,0,-1,622,351,0,0
-595,673,0,0,0,0,0,0,0,0,0,-1,629,351,0,0
-588,673,0,0,0,0,0,0,0,0,0,-1,636,351,0,0
-581,673,0,0,0,0,0,0,0,0,0,-1,643,351,0,0
-574,673,0,0,0,0,0,0,0,0,0,-1,650,351,0,0
-567,673,0,0,0,0,0,0,0,0,0,-1,657,351,0,0
-560,673,0,0,0,0,0,0,0,0,0,-1,664,351,0,0
-553,673,0,0,0,0,0,0,0,0,0,-1,671,351,0,0
-546,673,0,0,0,0,0,0,0,0,0,-1,678,351,0,0
-539,673,0,0,0,0,0,0,0,0,0,-1,685,351,0,0
-532,673,0,0,0,0,0,0,0,0,0,-1,692,351,0,0
-525,673,0,0,0,0,0,0,0,0,0,-1,699,351,0,0
-518,673,0,0,0,0,0,0,0,0,0,-1,706,351,0,0
-511,673,0,0,0,0,0,0,0,0,0,-1,713,351,0,0
-504,673,0,0,0,0,0,0,0,0,0,-1,720,351,0,0
-497,673,0,0,0,0,0,0,0,0,0,-1,727,351,0,0
-490,673,0,0,0,0,0,0,0,0,0,-1,734,351,0,0
-483,673,0,0,0,0,0,0,0,0,0,-1,741,351,0,0
-476,673,0,0,0,0,0,0,0,0,0,-1,748,351,0,0
-469,673,0,0,0,0,0,0,0,0,0,-1,755,351,0,0
-462,673,0,0,0,0,0,0,0,0,0,-1,762,351,0,0
-455,673,0,0,0,0,0,0,0,0,0,-1,769,351,0,0
-448,673,0,0,0,0,0,0,0,0,0,-1,776,351,0,0
-441,673,0,0,0,0,0,0,0,0,0,-1,783,351,0,0
-434,673,0,0,0,0,0,0,0,0,0,-1,790,351,0,0
-427,673,0,0,0,0,0,0,0,0,0,-1,797,351,0,0
-420,673,0,0,0,0,0,0,0,0,0,-1,804,351,0,0
-413,673,0,0,0,0,0,0,0,0,0,-1,811,351,0,0
-406,673,0,0,0,0,0,0,0,0,0,-1,818,351,0,0
-399,673,0,0,0,0,0,0,0,0,0,-1,825,351,0,0
-392,673,0,0,0,0,0,0,0,0,0,-1,832,351,0,0
-385,673,0,0,0,0,0,0,0,0,0,-1,839,351,0,0
-378,673,0,0,0,0,0,0,0,0,0,-1,846,351,0,0
-371,673,0,0,0,0,0,0,0,0,0,-1,853,351,0,0
-364,673,0,0,0,0,0,0,0,0,0,-1,860,351,0,0
-357,673,0,0,0,0,0,0,0,0,0,-1,867,351,0,0
-350,673,0,0,0,0,0,0,0,0,0,-1,874,351,0,0
-343,673,0,0,0,0,0,0,0,0,0,-1,881,351,0,0
-336,673,0,0,0,0,0,0,0,0,0,-1,888,351,0,0
-329,673,0,0,0,0,0,0,0,0,0,-1,895,351,0,0
-322,673,0,0,0,0,0,0,0,0,0,-1,902,351,0,0
-315,673,0,0,0,0,0,0,0,0,0,-1,909,351,0,0
-308,673,0,0,0,0,0,0,0,0,0,-1,916,351,0,0
-301,673,0,0,0,0,0,0,0,0,0,-1,923,351,0,0
-294,673,0,0,0,0,0,0,0,0,0,-1,930,351,0,0
-287,673,0,0,0,0,0,0,0,0,0,-1,937,351,0,0
-280,673,0,0,0,0,0,0,0,0,0,-1,944,351,0,0
-273,673,0,0,0,0,0,0,0,0,0,-1,951,351,0,0
-266,673,0,0,0,0,0,0,0,0,0,-1,958,351,0,0
-259,673,0,0,0,0,0,0,0,0,0,-1,965,351,0,0
-252,673,0,0,0,0,0,0,0,0,0,-1,972,351,0,0
-245,673,0,0,0,0,0,0,0,0,0,-1,979,351,0,0
-238,673,0,0,0,0,0,0,0,0,0,-1,986,351,0,0
-231,673,0,0,0,0,0,0,0,0,0,-1,993,351,0,0
-224,673,0,0,0,0,0,0,0,0,0,-1,1000,351,0,0
-217,673,0,0,0,0,0,0,0,0,0,-1,1007,351,0,0
-210,673,0,0,0,0,0,0,0,0,0,-1,1014,351,0,0
-203,673,0,0,0,0,0,0,0,0,0,-1,1021,351,0,0
-196,673,0,0,0,0,0,0,0,0,0,-1,1028,351,0,0
-189,673,0,0,0,0,0,0,0,0,0,-1,1035,351,0,0
-182,673,0,0,0,0,0,0,0,0,0,-1,1042,351,0,0
-175,673,5.2832,-32.3343,0,0,0,0,0,0,0,-1,1049,351,5.28321,32.3343
-168,673,4.46045,-30.7689,0,0,0,0,0,0,0,-1,1056,351,4.46044,30.7689
-161,673,4.37891,-32.2039,0,0,0,0,0,0,0,-1,1063,351,4.37897,32.2039
-154,673,6.15723,-35.5591,0,0,0,0,0,0,0,-1,1070,351,6.15727,35.559
-147,673,5.61096,-30.1121,0,0,0,0,0,0,0,-1,1077,351,5.61101,30.1121
-140,673,4.7522,-31.6575,0,0,0,0,0,0,0,-1,1084,351,4.75223,31.6575
-133,673,5.18884,-31.4102,0,0,0,0,0,0,0,-1,1091,351,5.18883,31.4102
-126,673,5.68237,-30.9974,0,0,0,0,0,0,0,-1,1098,351,5.68242,30.9974
-119,673,6.15649,-30.4594,0,0,0,0,0,0,0,-1,1105,351,6.15652,30.4593
-112,673,6.6344,-29.6632,0,0,0,0,0,0,0,-1,1112,351,6.63446,29.6632
-105,673,6.17139,-28.5951,0,0,0,0,0,0,0,-1,1119,351,6.17133,28.5951
-98,673,14.6038,-34.1646,0,0,0,0,0,0,0,-1,1126,351,14.6038,34.1646
-91,673,8.87854,-29.3053,0,0,0,0,0,0,0,-1,1133,351,8.87848,29.3053
-84,673,2.95984,-25.4112,0,0,0,0,0,0,0,-1,1140,351,2.95983,25.4112
-77,673,-3.17065,-18.5375,-0.0622385,-0.304967,0.106703,-0.0220017,-0.345203,0.360602,0.223164,0.0477196,1147,351,-3.1706,18.5375
-70,673,-9.33289,-12.0613,-0.0604524,-0.295991,0.103567,-0.0213917,-0.335052,0.360659,0.21659,0.0483994,1154,351,-9.33284,12.0613
-63,673,-15.652,-5.80804,0,0,0,0,0,0,0,-1,1161,351,-15.652,5.80804
-56,673,-18.0282,2.79053,0,0,0,0,0,0,0,-1,1168,351,-18.0283,-2.79052
-49,673,-0.926758,-0.115448,0,0,0,0,0,0,0,-1,1175,351,-0.926732,0.115444
-42,673,-1.15015,0.289917,0,0,0,0,0,0,0,-1,1182,351,-1.15017,-0.289932
-35,673,-0.919556,-1.00711,0,0,0,0,0,0,0,-1,1189,351,-0.919514,1.00711
-28,673,3.19104,-25.0986,0,0,0,0,0,0,0,-1,1196,351,3.19099,25.0986
-21,673,5.30298,-33.7944,0,0,0,0,0,0,0,-1,1203,351,5.30299,33.7944
-14,673,4.89075,-34.2102,0.0167042,0.0317165,0.0084926,0.0355446,0.012876,1.14731,0.0207797,0.0430901,1210,351,4.89073,34.2102
-7,673,5.05115,-34.1781,0.00949042,0.0349534,0.00778531,0.0371452,0.00729871,1.29638,0.0227246,0.0400129,1217,351,5.0511,34.1781
0,673,5.1001,-34.3863,0.00276776,0.0379595,0.00697768,0.0392925,0.00143474,1.38203,0.0257301,0.0434793,1224,351,5.10011,34.3862
7,673,5.14954,-34.1315,-0.00361545,0.0405732,0.00606771,0.0413913,-0.00443349,1.43679,0.0291845,0.0489937,1231,351,5.14954,34.1315
14,673,5.25745,-34.0223,-0.00947454,0.0426584,0.00504896,0.0431429,-0.00995902,1.47513,0.0325928,0.0407918,1238,351,5.25749,34.0223
21,673,5.04138,-34.3541,-0.0114122,0.0443176,0.00390593,0.04459,-0.0116847,1.50116,0.0342917,0.0304952,1245,351,5.04141,34.3541
28,673,5.04468,-34.4178,-0.0112781,0.0446732,0.00419743,0.0449864,-0.0115912,1.49633,0.0345098,0.0225353,1252,351,5.04468,34.4178
35,673,4.99683,-34.3949,-0.0103014,0.0446582,0.00437426,0.0450042,-0.0106474,1.49187,0.0341104,0.0307805,1259,351,4.99685,34.3949
42,673,4.84094,-34.4035,-0.00892308,0.0451484,0.00403377,0.0454477,-0.00922235,1.49674,0.0337946,0.0305713,1266,351,4.84093,34.4035
49,673,4.79944,-34.4654,-0.00913743,0.0446832,0.00435696,0.0450337,-0.00948786,1.49054,0.0336341,0.0185176,1273,351,4.79948,34.4654
56,673,4.75269,-34.4549,-0.00796514,0.0417926,0.00534538,0.0423603,-0.00853291,1.46498,0.0314725,0.0154028,1280,351,4.75269,34.4549
63,673,4.75146,-34.3,-0.00602861,0.0389523,0.0069,0.0399869,-0.00706326,1.42196,0.0292976,0.0195075,1287,351,4.75151,34.3001
70,673,4.73254,-34.2348,-0.00442418,0.0364922,0.00847199,0.038177,-0.00610898,1.37449,0.027713,0.031356,1294,351,4.73253,34.2348
77,673,4.80713,-33.9904,-0.00498534,0.0343622,0.0103248,0.0369068,-0.00753001,1.32915,0.0274609,0.0392874,1301,351,4.80715,33.9905
84,673,4.85254,-33.9112,-0.00712669,0.033025,0.0119608,0.0363179,-0.0104196,1.30214,0.0283312,0.0462758,1308,351,4.85254,33.9112
91,673,4.63367,-34.5211,0,0,0,0,0,0,0,-1,1315,351,4.63366,34.5211
98,673,4.45618,-34.3974,0,0,0,0,0,0,0,-1,1322,351,4.45616,34.3974
105,673,4.13049,-34.2809,0,0,0,0,0,0,0,-1,1329,351,4.13049,34.2808
112,673,3.3219,-33.2651,0,0,0,0,0,0,0,-1,1336,351,3.3219,33.2651
119,673,4.46875,-33.7124,0,0,0,0,0,0,0,-1,1343,351,4.4687,33.7124
126,673,4.31885,-33.6237,-0.0191931,0.0260492,0.0118413,0.028961,-0.0221049,1.32968,0.0295714,0.0420769,1350,351,4.31886,33.6237
133,673,4.00354,-33.4331,-0.0183411,0.0263578,0.00913502,0.0281526,-0.0201359,1.37679,0.0280072,0.0429205,1357,351,4.00349,33.4331
140,673,4.06641,-33.4302,0,0,0,0,0,0,0,-1,1364,351,4.06644,33.4302
147,673,3.37659,-33.3913,-0.00870956,0.0264868,0.00546138,0.0273148,-0.00953751,1.42034,0.0220865,0.0402534,1371,351,3.37659,33.3913
154,673,3.69153,-32.965,-0.0015602,0.0264955,0.00198898,0.0266358,-0.00170051,1.50037,0.0183503,0.0399021,1378,351,3.69155,32.965
161,673,3.87439,-32.8826,0,0,0,0,0,0,0,-1,1385,351,3.87444,32.8826
168,673,6.87061,1.83954,0,0,0,0,0,0,0,-1,1392,351,6.87063,-1.83953
175,673,6.6228,1.1459,0,0,0,0,0,0,0,-1,1399,351,6.62276,-1.14591
182,673,6.37244,0.796112,0,0,0,0,0,0,0,-1,1406,351,6.3724,-0.796102
189,673,6.12097,0.265472,0,0,0,0,0,0,0,-1,1413,351,6.121,-0.265482
196,673,6.02173,3.12717,0,0,0,0,0,0,0,-1,1420,351,6.02176,-3.12717
203,673,5.04456,1.6351,0,0,0,0,0,0,0,-1,1427,351,5.04455,-1.63509
210,673,4.79224,0.447479,0,0,0,0,0,0,0,-1,1434,351,4.79229,-0.447469
217,673,2.01648,0.972687,0,0,0,0,0,0,0,-1,1441,351,2.01644,-0.972691
224,673,2.3689,-1.80539,0,0,0,0,0,0,0,-1,1448,351,2.36896,1.80539
231,673,2.65857,-2.18497,0,0,0,0,0,0,0,-1,1455,351,2.65852,2.18496
238,673,3.77844,-2.06088,0,0,0,0,0,0,0,-1,1462,351,3.77839,2.06088
245,673,3.5376,-0.190399,0,0,0,0,0,0,0,-1,1469,351,3.53759,0.1904
252,673,3.80518,0.55603,0,0,0,0,0,0,0,-1,1476,351,3.80519,-0.556022
259,673,3.88562,1.29617,0,0,0,0,0,0,0,-1,1483,351,3.88562,-1.29618
266,673,4.22424,2.04834,0,0,0,0,0,0,0,-1,1490,351,4.22429,-2.04834
273,673,6.07886,0.385895,0,0,0,0,0,0,0,-1,1497,351,6.0789,-0.385906
280,673,6.97534,-0.0820007,0,0,0,0,0,0,0,-1,1504,351,6.97536,0.0820122
287,673,7.66968,-0.348541,0,0,0,0,0,0,0,-1,1511,351,7.66969,0.348534
294,673,8.20996,0.28537,0,0,0,0,0,0,0,-1,1518,351,8.20993,-0.28536
301,673,0,0,0,0,0,0,0,0,0,-1,1525,351,0,0
308,673,0,0,0,0,0,0,0,0,0,-1,1532,351,0,0
315,673,0,0,0,0,0,0,0,0,0,-1,1539,351,0,0
322,673,0,0,0,0,0,0,0,0,0,-1,1546,351,0,0
329,673,0,0,0,0,0,0,0,0,0,-1,1553,351,0,0
336,673,0,0,0,0,0,0,0,0,0,-1,1560,351,0,0
343,673,0,0,0,0,0,0,0,0,0,-1,1567,351,0,0
350,673,0,0,0,0,0,0,0,0,0,-1,1574,351,0,0
357,673,0,0,0,0,0,0,0,0,0,-1,1581,351,0,0
364,673,0,0,0,0,0,0,0,0,0,-1,1588,351,0,0
371,673,0,0,0,0,0,0,0,0,0,-1,1595,351,0,0
378,673,0,0,0,0,0,0,0,0,0,-1,1602,351,0,0
385,673,0,0,0,0,0,0,0,0,0,-1,1609,351,0,0
392,673,0,0,0,0,0,0,0,0,0,-1,1616,351,0,0
399,673,0,0,0,0,0,0,0,0,0,-1,1623,351,0,0
406,673,0,0,0,0,0,0,0,0,0,-1,1630,351,0,0
413,673,0,0,0,0,0,0,0,0,0,-1,1637,351,0,0
420,673,0,0,0,0,0,0,0,0,0,-1,1644,351,0,0
427,673,0,0,0,0,0,0,0,0,0,-1,1651,351,0,0
434,673,0,0,0,0,0,0,0,0,0,-1,1658,351,0,0
441,673,0,0,0,0,0,0,0,0,0,-1,1665,351,0,0
448,673,0,0,0,0,0,0,0,0,0,-1,1672,351,0,0
455,673,0,0,0,0,0,0,0,0,0,-1,1679,351,0,0
462,673,0,0,0,0,0,0,0,0,0,-1,1686,351,0,0
469,673,0,0,0,0,0,0,0,0,0,-1,1693,351,0,0
476,673,0,0,0,0,0,0,0,0,0,-1,1700,351,0,0
483,673,0,0,0,0,0,0,0,0,0,-1,1707,351,0,0
490,673,0,0,0,0,0,0,0,0,0,-1,1714,351,0,0
497,673,0,0,0,0,0,0,0,0,0,-1,1721,351,0,0
504,673,0,0,0,0,0,0,0,0,0,-1,1728,351,0,0
511,673,0,0,0,0,0,0,0,0,0,-1,1735,351,0,0
518,673,0,0,0,0,0,0,0,0,0,-1,1742,351,0,0
525,673,0,0,0,0,0,0,0,0,0,-1,1749,351,0,0
532,673,0,0,0,0,0,0,0,0,0,-1,1756,351,0,0
539,673,0,0,0,0,0,0,0,0,0,-1,1763,351,0,0
546,673,0,0,0,0,0,0,0,0,0,-1,1770,351,0,0
553,673,0,0,0,0,0,0,0,0,0,-1,1777,351,0,0
560,673,0,0,0,0,0,0,0,0,0,-1,1784,351,0,0
567,673,0,0,0,0,0,0,0,0,0,-1,1791,351,0,0
574,673,0,0,0,0,0,0,0,0,0,-1,1798,351,0,0
581,673,0,0,0,0,0,0,0,0,0,-1,1805,351,0,0
588,673,0,0,0,0,0,0,0,0,0,-1,1812,351,0,0
595,673,0,0,0,0,0,0,0,0,0,-1,1819,351,0,0
602,673,0,0,0,0,0,0,0,0,0,-1,1826,351,0,0
609,673,0,0,0,0,0,0,0,0,0,-1,1833,351,0,0
616,673,0,0,0,0,0,0,0,0,0,-1,1840,351,0,0
623,673,0,0,0,0,0,0,0,0,0,-1,1847,351,0,0
630,673,0,0,0,0,0,0,0,0,0,-1,1854,351,0,0
637,673,0,0,0,0,0,0,0,0,0,-1,1861,351,0,0
644,673,0,0,0,0,0,0,0,0,0,-1,1868,351,0,0
651,673,0,0,0,0,0,0,0,0,0,-1,1875,351,0,0
658,673,0,0,0,0,0,0,0,0,0,-1,1882,351,0,0
665,673,0,0,0,0,0,0,0,0,0,-1,1889,351,0,0
672,673,0,0,0,0,0,0,0,0,0,-1,1896,351,0,0
679,673,0,0,0,0,0,0,0,0,0,-1,1903,351,0,0
686,673,0,0,0,0,0,0,0,0,0,-1,1910,351,0,0
693,673,0,0,0,0,0,0,0,0,0,-1,1917,351,0,0
700,673,0,0,0,0,0,0,0,0,0,-1,1924,351,0,0
707,673,0,0,0,0,0,0,0,0,0,-1,1931,351,0,0
714,673,0,0,0,0,0,0,0,0,0,-1,1938,351,0,0
721,673,0,0,0,0,0,0,0,0,0,-1,1945,351,0,0
728,673,0,0,0,0,0,0,0,0,0,-1,1952,351,0,0
735,673,0,0,0,0,0,0,0,0,0,-1,1959,351,0,0
742,673,0,0,0,0,0,0,0,0,0,-1,1966,351,0,0
749,673,0,0,0,0,0,0,0,0,0,-1,1973,351,0,0
756,673,0,0,0,0,0,0,0,0,0,-1,1980,351,0,0
763,673,0,0,0,0,0,0,0,0,0,-1,1987,351,0,0
770,673,0,0,0,0,0,0,0,0,0,-1,1994,351,0,0
777,673,0,0,0,0,0,0,0,0,0,-1,2001,351,0,0
784,673,0,0,0,0,0,0,0,0,0,-1,2008,351,0,0
791,673,0,0,0,0,0,0,0,0,0,-1,2015,351,0,0
798,673,0,0,0,0,0,0,0,0,0,-1,2022,351,0,0
805,673,0,0,0,0,0,0,0,0,0,-1,2029,351,0,0
812,673,0,0,0,0,0,0,0,0,0,-1,2036,351,0,0
-700,666,0,0,0,0,0,0,0,0,0,-1,524,358,0,0
-693,666,0,0,0,0,0,0,0,0,0,-1,531,358,0,0
-686,666,0,0,0,0,0,0,0,0,0,-1,538,358,0,0
-679,666,0,0,0,0,0,0,0,0,0,-1,545,358,0,0
-672,666,0,0,0,0,0,0,0,0,0,-1,552,358,0,0
-665,666,0,0,0,0,0,0,0,0,0,-1,559,358,0,0
-658,666,0,0,0,0,0,0,0,0,0,-1,566,358,0,0
-651,666,0,0,0,0,0,0,0,0,0,-1,573,358,0,0
-644,666,0,0,0,0,0,0,0,0,0,-1,580,358,0,0
-637,666,0,0,0,0,0,0,0,0,0,-1,587,358,0,0
-630,666,0,0,0,0,0,0,0,0,0,-1,594,358,0,0
-623,666,0,0,0,0,0,0,0,0,0,-1,601,358,0,0
-616,666,0,0,0,0,0,0,0,0,0,-1,608,358,0,0
-609,666,0,0,0,0,0,0,0,0,0,-1,615,358,0,0
-602,666,0,0,0,0,0,0,0,0,0,-1,622,358,0,0
-595,666,0,0,0,0,0,0,0,0,0,-1,629,358,0,0
-588,666,0,0,0,0,0,0,0,0,0,-1,636,358,0,0
-581,666,0,0,0,0,0,0,0,0,0,-1,643,358,0,0
-574,666,0,0,0,0,0,0,0,0,0,-1,650,358,0,0
-567,666,0,0,0,0,0,0,0,0,0,-1,657,358,0,0
-560,666,0,0,0,0,0,0,0,0,0,-1,664,358,0,0
-553,666,0,0,0,0,0,0,0,0,0,-1,671,358,0,0
-546,666,0,0,0,0,0,0,0,0,0,-1,678,358,0,0
-539,666,0,0,0,0,0,0,0,0,0,-1,685,358,0,0
-532,666,0,0,0,0,0,0,0,0,0,-1,692,358,0,0
-525,666,0,0,0,0,0,0,0,0,0,-1,699,358,0,0
-518,666,0,0,0,0,0,0,0,0,0,-1,706,358,0,0
-511,666,0,0,0,0,0,0,0,0,0,-1,713,358,0,0
-504,666,0,0,0,0,0,0,0,0,0,-1,720,358,0,0
-497,666,0,0,0,0,0,0,0,0,0,-1,727,358,0,0
-490,666,0,0,0,0,0,0,0,0,0,-1,734,358,0,0
-483,666,0,0,0,0,0,0,0,0,0,-1,741,358,0,0
-476,666,0,0,0,0,0,0,0,0,0,-1,748,358,0,0
-469,666,0,0,0,0,0,0,0,0,0,-1,755,358,0,0
-462,666,0,0,0,0,0,0,0,0,0,-1,762,358,0,0
-455,666,0,0,0,0,0,0,0,0,0,-1,769,358,0,0
-448,666,0,0,0,0,0,0,0,0,0,-1,776,358,0,0
-441,666,0,0,0,0,0,0,0,0,0,-1,783,358,0,0
-434,666,0,0,0,0,0,0,0,0,0,-1,790,358,0,0
-427,666,0,0,0,0,0,0,0,0,0,-1,797,358,0,0
-420,666,0,0,0,0,0,0,0,0,0,-1,804,358,0,0
-413,666,0,0,0,0,0,0,0,0,0,-1,811,358,0,0
-406,666,0,0,0,0,0,0,0,0,0,-1,818,358,0,0
-399,666,0,0,0,0,0,0,0,0,0,-1,825,358,0,0
-392,666,0,0,0,0,0,0,0,0,0,-1,832,358,0,0
-385,666,0,0,0,0,0,0,0,0,0,-1,839,358,0,0
-378,666,0,0,0,0,0,0,0,0,0,-1,846,358,0,0
-371,666,0,0,0,0,0,0,0,0,0,-1,853,358,0,0
-364,666,0,0,0,0,0,0,0,0,0,-1,860,358,0,0
-357,666,0,0,0,0,0,0,0,0,0,-1,867,358,0,0
-350,666,0,0,0,0,0,0,0,0,0,-1,874,358,0,0
-343,666,0,0,0,0,0,0,0,0,0,-1,881,358,0,0
-336,666,0,0,0,0,0,0,0,0,0,-1,888,358,0,0
-329,666,0,0,0,0,0,0,0,0,0,-1,895,358,0,0
-322,666,0,0,0,0,0,0,0,0,0,-1,902,358,0,0
-315,666,0,0,0,0,0,0,0,0,0,-1,909,358,0,0
-308,666,0,0,0,0,0,0,0,0,0,-1,916,358,0,0
-301,666,0,0,0,0,0,0,0,0,0,-1,923,358,0,0
-294,666,0,0,0,0,0,0,0,0,0,-1,930,358,0,0
-287,666,0,0,0,0,0,0,0,0,0,-1,937,358,0,0
-280,666,0,0,0,0,0,0,0,0,0,-1,944,358,0,0
-273,666,0,0,0,0,0,0,0,0,0,-1,951,358,0,0
-266,666,0,0,0,0,0,0,0,0,0,-1,958,358,0,0
-259,666,0,0,0,0,0,0,0,0,0,-1,965,358,0,0
-252,666,0,0,0,0,0,0,0,0,0,-1,972,358,0,0
-245,666,0,0,0,0,0,0,0,0,0,-1,979,358,0,0
-238,666,0,0,0,0,0,0,0,0,0,-1,986,358,0,0
-231,666,0,0,0,0,0,0,0,0,0,-1,993,358,0,0
-224,666,0,0,0,0,0,0,0,0,0,-1,1000,358,0,0
-217,666,0,0,0,0,0,0,0,0,0,-1,1007,358,0,0
-210,666,0,0,0,0,0,0,0,0,0,-1,1014,358,0,0
-203,666,0,0,0,0,0,0,0,0,0,-1,1021,358,0,0
-196,666,1.6853,-29.5602,0,0,0,0,0,0,0,-1,1028,358,1.68528,29.5602
-189,666,2.41431,-29.26,0,0,0,0,0,0,0,-1,1035,358,2.41429,29.26
-182,666,4.39185,-30.1624,0,0,0,0,0,0,0,-1,1042,358,4.3918,30.1624
-175,666,4.87549,-31.3018,-0.016199,-0.0662055,0.0283135,-0.0034291,-0.0789754,0.423702,0.0515453,0.0465435,1049,358,4.87553,31.3018
-168,666,4.63538,-30.3904,0,0,0,0,0,0,0,-1,1056,358,4.63534,30.3904
-161,666,4.42798,-31.6121,0,0,0,0,0,0,0,-1,1063,358,4.428,31.6121
-154,666,4.35596,-32.7505,0,0,0,0,0,0,0,-1,1070,358,4.35599,32.7505
-147,666,4.81836,-29.7686,0,0,0,0,0,0,0,-1,1077,358,4.81836,29.7686
-140,666,4.56018,-28.8821,0,0,0,0,0,0,0,-1,1084,358,4.56023,28.8821
-133,666,5.59155,-30.8354,0,0,0,0,0,0,0,-1,1091,358,5.5915,30.8354
-126,666,5.76843,-30.6155,0,0,0,0,0,0,0,-1,1098,358,5.76847,30.6155
-119,666,6.12341,-30.6432,0,0,0,0,0,0,0,-1,1105,358,6.12346,30.6432
-112,666,6.13318,-30.696,0,0,0,0,0,0,0,-1,1112,358,6.13319,30.696
-105,666,6.30908,-29.0855,0,0,0,0,0,0,0,-1,1119,358,6.30905,29.0855
-98,666,3.5968,-23.5447,0,0,0,0,0,0,0,-1,1126,358,3.59686,23.5447
-91,666,9.5127,-25.1347,0,0,0,0,0,0,0,-1,1133,358,9.51269,25.1347
-84,666,4.03943,-19.3453,0,0,0,0,0,0,0,-1,1140,358,4.03941,19.3453
-77,666,-2.39233,-14.0082,0,0,0,0,0,0,0,-1,1147,358,-2.39229,14.0082
-70,666,-8.53284,-7.41498,0,0,0,0,0,0,0,-1,1154,358,-8.53289,7.41498
-63,666,-11.7778,-0.975189,0,0,0,0,0,0,0,-1,1161,358,-11.7778,0.97519
-56,666,0.424683,-2.04132,0,0,0,0,0,0,0,-1,1168,358,0.424665,2.04132
-49,666,0.754395,-2.23169,0,0,0,0,0,0,0,-1,1175,358,0.754383,2.23169
-42,666,1.34473,-3.53897,0,0,0,0,0,0,0,-1,1182,358,1.34476,3.53896
-35,666,5.07654,-33.9164,0,0,0,0,0,0,0,-1,1189,358,5.07656,33.9164
-28,666,5.25696,-33.9075,0,0,0,0,0,0,0,-1,1196,358,5.25701,33.9075
-21,666,5.20923,-33.9509,0.00884349,0.00221028,0.0110214,0.0170365,-0.00598269,0.639246,0.0137914,0.0339094,1203,358,5.20925,33.9509
-14,666,5.13672,-34.0555,0.00962458,0.0232226,0.00529085,0.0250387,0.00780851,1.24015,0.0147933,0.029651,1210,358,5.13666,34.0555
-7,666,5.10535,-34.18,0.00500046,0.0258143,0.0048729,0.0268987,0.00391612,1.35184,0.0167801,0.0190023,1217,358,5.1053,34.1799
0,666,5.11572,-34.3066,0.000740687,0.0281548,0.00440474,0.0288452,5.03464e-05,1.41533,0.0192134,0.012796,1224,358,5.11571,34.3066
7,666,5.06091,-34.3669,-0.00338298,0.0302748,0.00385911,0.0307116,-0.00381979,1.45809,0.0218592,0.0182999,1231,358,5.06093,34.3669
14,666,4.99841,-34.4072,-0.0072337,0.0320203,0.00321583,0.032282,-0.0074954,1.48959,0.0244065,0.0178669,1238,358,4.99842,34.4072
21,666,4.94629,-34.535,-0.00835818,0.0335232,0.00247938,0.0336695,-0.00850445,1.51187,0.0257535,0.0140731,1245,358,4.9463,34.535
28,666,4.90918,-34.63,-0.00818001,0.0341951,0.00275044,0.0343729,-0.00835779,1.50625,0.0261502,0.0149288,1252,358,4.90918,34.63
35,666,4.90125,-34.6167,-0.00745643,0.0346734,0.00293525,0.034877,-0.00765995,1.50157,0.0261808,0.0130738,1259,358,4.90126,34.6167
42,666,4.84143,-34.6611,-0.00652551,0.0354275,0.00272009,0.0356031,-0.00670114,1.50632,0.0262557,0.0128543,1266,358,4.84141,34.6611
49,666,4.78894,-34.6944,-0.00663188,0.0354491,0.00299182,0.0356608,-0.00684353,1.50017,0.0263529,0.0111825,1273,358,4.78898,34.6944
56,666,4.74597,-34.7168,-0.00572716,0.0336634,0.00376401,0.0340199,-0.0060836,1.47638,0.0249562,0.0132344,1280,358,4.74598,34.7168
63,666,4.70093,-34.7661,-0.00437448,0.0317753,0.00495305,0.0324416,-0.00504083,1.43706,0.023489,0.0158415,1287,358,4.70091,34.7662
70,666,4.68384,-34.7246,-0.00327276,0.0300991,0.00615779,0.0311991,-0.00437274,1.39403,0.0223997,0.015226,1294,358,4.68386,34.7246
77,666,4.65515,-34.6216,-0.00380104,0.0286977,0.00759168,0.0303836,-0.00548699,1.35226,0.0223108,0.0205544,1301,358,4.65516,34.6216
84,666,4.65198,-34.6388,-0.00542551,0.0277964,0.00880668,0.0299865,-0.00761566,1.32705,0.0229546,0.0287182,1308,358,4.65193,34.6388
91,666,4.58679,-34.6627,-0.00727143,0.0261069,0.0099333,0.0288393,-0.0100039,1.30236,0.0232884,0.02577,1315,358,4.58677,34.6627
98,666,4.44604,-34.5815,-0.00901198,0.024725,0.0104656,0.0277078,-0.0119948,1.29315,0.0235131,0.0214956,1322,358,4.44602,34.5815
105,666,4.3479,-34.4634,-0.0110205,0.0237901,0.0102557,0.0265868,-0.0138172,1.30457,0.0237125,0.0238904,1329,358,4.34795,34.4634
112,666,4.3772,-34.2126,-0.012544,0.0231599,0.00992208,0.0257319,-0.0151161,1.31715,0.0238476,0.0485767,1336,358,4.37722,34.2125
119,666,4.25146,-34.028,0,0,0,0,0,0,0,-1,1343,358,4.25147,34.028
126,666,4.18298,-33.9175,-0.0141741,0.0220135,0.00841339,0.0238739,-0.0160346,1.35317,0.0231889,0.0305158,1350,358,4.18301,33.9175
133,666,4.15918,-33.8118,-0.0136155,0.0219643,0.00628016,0.0230402,-0.0146915,1.40112,0.0219615,0.0252612,1357,358,4.15916,33.8118
140,666,4.12561,-33.7956,-0.0109375,0.0217215,0.00462978,0.0223652,-0.0115811,1.43266,0.0199258,0.0248542,1364,358,4.12558,33.7956
147,666,4.03809,-33.6562,-0.00681008,0.021611,0.00362554,0.0220662,-0.00726529,1.4459,0.0176386,0.0233244,1371,358,4.03811,33.6562
154,666,4.00842,-33.3478,-0.00205439,0.0215611,0.00120946,0.0216228,-0.00211617,1.51976,0.0151699,0.0209744,1378,358,4.00844,33.3479
161,666,4.01196,-33.1711,0.00274044,0.0225665,-0.00129316,0.0226505,0.00265644,-1.50594,0.0142974,0.0296938,1385,358,4.01192,33.1711
168,666,3.98181,-32.9882,0,0,0,0,0,0,0,-1,1392,358,3.98179,32.9882
175,666,4.18335,-33.1334,0,0,0,0,0,0,0,-1,1399,358,4.18335,33.1334
182,666,2.60876,-5.17068,0,0,0,0,0,0,0,-1,1406,358,2.6088,5.17068
189,666,2.46973,-5.49979,0,0,0,0,0,0,0,-1,1413,358,2.46975,5.49979
196,666,2.32458,-5.23651,0,0,0,0,0,0,0,-1,1420,358,2.32461,5.23653
203,666,2.28064,-3.88004,0,0,0,0,0,0,0,-1,1427,358,2.28059,3.88003
210,666,3.02576,-5.83548,0,0,0,0,0,0,0,-1,1434,358,3.02581,5.83547
217,666,2.30444,-5.36011,0,0,0,0,0,0,0,-1,1441,358,2.30447,5.3601
224,666,1.82324,-6.03101,0,0,0,0,0,0,0,-1,1448,358,1.82322,6.031
231,666,2.29797,-10.1093,0,0,0,0,0,0,0,-1,1455,358,2.29801,10.1093
238,666,2.52429,-6.10568,0,0,0,0,0,0,0,-1,1462,358,2.52423,6.10567
245,666,4.53345,-1.38205,0,0,0,0,0,0,0,-1,1469,358,4.53349,1.38204
252,666,4.77405,-0.246979,0,0,0,0,0,0,0,-1,1476,358,4.77405,0.246993
259,666,4.83655,1.14087,0,0,0,0,0,0,0,-1,1483,358,4.83652,-1.14087
266,666,6.14148,0.749512,0,0,0,0,0,0,0,-1,1490,358,6.14144,-0.749519
273,666,2.61304,-1.53772,0,0,0,0,0,0,0,-1,1497,358,2.613,1.53773
280,666,8.70898,-0.836975,0,0,0,0,0,0,0,-1,1504,358,8.70894,0.836988
287,666,-7.06934,-20.3464,0,0,0,0,0,0,0,-1,1511,358,-7.06933,20.3464
294,666,-7.85376,-22.0297,0,0,0,0,0,0,0,-1,1518,358,-7.85378,22.0297
301,666,-6.78711,-23.9803,0,0,0,0,0,0,0,-1,1525,358,-6.78706,23.9803
308,666,1.08496,-1.87576,0,0,0,0,0,0,0,-1,1532,358,1.08491,1.87575
315,666,1.76294,-0.284027,0,0,0,0,0,0,0,-1,1539,358,1.76291,0.284016
322,666,0,0,0,0,0,0,0,0,0,-1,1546,358,0,0
329,666,0,0,0,0,0,0,0,0,0,-1,1553,358,0,0
336,666,0,0,0,0,0,0,0,0,0,-1,1560,358,0,0
343,666,0,0,0,0,0,0,0,0,0,-1,1567,358,0,0
350,666,0,0,0,0,0,0,0,0,0,-1,1574,358,0,0
357,666,0,0,0,0,0,0,0,0,0,-1,1581,358,0,0
364,666,0,0,0,0,0,0,0,0,0,-1,1588,358,0,0
371,666,0,0,0,0,0,0,0,0,0,-1,1595,358,0,0
378,666,0,0,0,0,0,0,0,0,0,-1,1602,358,0,0
385,666,0,0,0,0,0,0,0,0,0,-1,1609,358,0,0
392,666,0,0,0,0,0,0,0,0,0,-1,1616,358,0,0
399,666,0,0,0,0,0,0,0,0,0,-1,1623,358,0,0
406,666,0,0,0,0,0,0,0,0,0,-1,1630,358,0,0
413,666,0,0,0,0,0,0,0,0,0,-1,1637,358,0,0
420,666,0,0,0,0,0,0,0,0,0,-1,1644,358,0,0
427,666,0,0,0,0,0,0,0,0,0,-1,1651,358,0,0
434,666,0,0,0,0,0,0,0,0,0,-1,1658,358,0,0
441,666,0,0,0,0,0,0,0,0,0,-1,1665,358,0,0
448,666,0,0,0,0,0,0,0,0,0,-1,1672,358,0,0
455,666,0,0,0,0,0,0,0,0,0,-1,1679,358,0,0
462,666,0,0,0,0,0,0,0,0,0,-1,1686,358,0,0
469,666,0,0,0,0,0,0,0,0,0,-1,1693,358,0,0
476,666,0,0,0,0,0,0,0,0,0,-1,1700,358,0,0
483,666,0,0,0,0,0,0,0,0,0,-1,1707,358,0,0
490,666,0,0,0,0,0,0,0,0,0,-1,1714,358,0,0
497,666,0,0,0,0,0,0,0,0,0,-1,1721,358,0,0
504,666,0,0,0,0,0,0,0,0,0,-1,1728,358,0,0
511,666,0,0,0,0,0,0,0,0,0,-1,1735,358,0,0
518,666,0,0,0,0,0,0,0,0,0,-1,1742,358,0,0
525,666,0,0,0,0,0,0,0,0,0,-1,1749,358,0,0
532,666,0,0,0,0,0,0,0,0,0,-1,1756,358,0,0
539,666,0,0,0,0,0,0,0,0,0,-1,1763,358,0,0
546,666,0,0,0,0,0,0,0,0,0,-1,1770,358,0,0
553,666,0,0,0,0,0,0,0,0,0,-1,1777,358,0,0
560,666,0,0,0,0,0,0,0,0,0,-1,1784,358,0,0
567,666,0,0,0,0,0,0,0,0,0,-1,1791,358,0,0
574,666,0,0,0,0,0,0,0,0,0,-1,1798,358,0,0
581,666,0,0,0,0,0,0,0,0,0,-1,1805,358,0,0
588,666,0,0,0,0,0,0,0,0,0,-1,1812,358,0,0
595,666,0,0,0,0,0,0,0,0,0,-1,1819,358,0,0
602,666,0,0,0,0,0,0,0,0,0,-1,1826,358,0,0
609,666,0,0,0,0,0,0,0,0,0,-1,1833,358,0,0
616,666,0,0,0,0,0,0,0,0,0,-1,1840,358,0,0
623,666,0,0,0,0,0,0,0,0,0,-1,1847,358,0,0
630,666,0,0,0,0,0,0,0,0,0,-1,1854,358,0,0
637,666,0,0,0,0,0,0,0,0,0,-1,1861,358,0,0
644,666,0,0,0,0,0,0,0,0,0,-1,1868,358,0,0
651,666,0,0,0,0,0,0,0,0,0,-1,1875,358,0,0
658,666,0,0,0,0,0,0,0,0,0,-1,1882,358,0,0
665,666,0,0,0,0,0,0,0,0,0,-1,1889,358,0,0
672,666,0,0,0,0,0,0,0,0,0,-1,1896,358,0,0
679,666,0,0,0,0,0,0,0,0,0,-1,1903,358,0,0
686,666,0,0,0,0,0,0,0,0,0,-1,1910,358,0,0
693,666,0,0,0,0,0,0,0,0,0,-1,1917,358,0,0
700,666,0,0,0,0,0,0,0,0,0,-1,1924,358,0,0
707,666,0,0,0,0,0,0,0,0,0,-1,1931,358,0,0
714,666,0,0,0,0,0,0,0,0,0,-1,1938,358,0,0
721,666,0,0,0,0,0,0,0,0,0,-1,1945,358,0,0
728,666,0,0,0,0,0,0,0,0,0,-1,1952,358,0,0
735,666,0,0,0,0,0,0,0,0,0,-1,1959,358,0,0
742,666,0,0,0,0,0,0,0,0,0,-1,1966,358,0,0
749,666,0,0,0,0,0,0,0,0,0,-1,1973,358,0,0
756,666,0,0,0,0,0,0,0,0,0,-1,1980,358,0,0
763,666,0,0,0,0,0,0,0,0,0,-1,1987,358,0,0
770,666,0,0,0,0,0,0,0,0,0,-1,1994,358,0,0
777,666,0,0,0,0,0,0,0,0,0,-1,2001,358,0,0
784,666,0,0,0,0,0,0,0,0,0,-1,2008,358,0,0
791,666,0,0,0,0,0,0,0,0,0,-1,2015,358,0,0
798,666,0,0,0,0,0,0,0,0,0,-1,2022,358,0,0
805,666,0,0,0,0,0,0,0,0,0,-1,2029,358,0,0
812,666,0,0,0,0,0,0,0,0,0,-1,2036,358,0,0
-700,659,0,0,0,0,0,0,0,0,0,-1,524,365,0,0
-693,659,0,0,0,0,0,0,0,0,0,-1,531,365,0,0
-686,659,0,0,0,0,0,0,0,0,0,-1,538,365,0,0
-679,659,0,0,0,0,0,0,0,0,0,-1,545,365,0,0
-672,659,0,0,0,0,0,0,0,0,0,-1,552,365,0,0
-665,659,0,0,0,0,0,0,0,0,0,-1,559,365,0,0
-658,659,0,0,0,0,0,0,0,0,0,-1,566,365,0,0
-651,659,0,0,0,0,0,0,0,0,0,-1,573,365,0,0
-644,659,0,0,0,0,0,0,0,0,0,-1,580,365,0,0
-637,659,0,0,0,0,0,0,0,0,0,-1,587,365,0,0
-630,659,0,0,0,0,0,0,0,0,0,-1,594,365,0,0
-623,659,0,0,0,0,0,0,0,0,0,-1,601,365,0,0
-616,659,0,0,0,0,0,0,0,0,0,-1,608,365,0,0
-609,659,0,0,0,0,0,0,0,0,0,-1,615,365,0,0
-602,659,0,0,0,0,0,0,0,0,0,-1,622,365,0,0
-595,659,0,0,0,0,0,0,0,0,0,-1,629,365,0,0
-588,659,0,0,0,0,0,0,0,0,0,-1,636,365,0,0
-581,659,0,0,0,0,0,0,0,0,0,-1,643,365,0,0
-574,659,0,0,0,0,0,0,0,0,0,-1,650,365,0,0
-567,659,0,0,0,0,0,0,0,0,0,-1,657,365,0,0
-560,659,0,0,0,0,0,0,0,0,0,-1,664,365,0,0
-553,659,0,0,0,0,0,0,0,0,0,-1,671,365,0,0
-546,659,0,0,0,0,0,0,0,0,0,-1,678,365,0,0
-539,659,0,0,0,0,0,0,0,0,0,-1,685,365,0,0
-532,659,0,0,0,0,0,0,0,0,0,-1,692,365,0,0
-525,659,0,0,0,0,0,0,0,0,0,-1,699,365,0,0
-518,659,0,0,0,0,0,0,0,0,0,-1,706,365,0,0
-511,659,0,0,0,0,0,0,0,0,0,-1,713,365,0,0
-504,659,0,0,0,0,0,0,0,0,0,-1,720,365,0,0
-497,659,0,0,0,0,0,0,0,0,0,-1,727,365,0,0
-490,659,0,0,0,0,0,0,0,0,0,-1,734,365,0,0
-483,659,0,0,0,0,0,0,0,0,0,-1,741,365,0,0
-476,659,0,0,0,0,0,0,0,0,0,-1,748,365,0,0
-469,659,0,0,0,0,0,0,0,0,0,-1,755,365,0,0
-462,659,0,0,0,0,0,0,0,0,0,-1,762,365,0,0
-455,659,0,0,0,0,0,0,0,0,0,-1,769,365,0,0
-448,659,0,0,0,0,0,0,0,0,0,-1,776,365,0,0
-441,659,0,0,0,0,0,0,0,0,0,-1,783,365,0,0
-434,659,0,0,0,0,0,0,0,0,0,-1,790,365,0,0
-427,659,0,0,0,0,0,0,0,0,0,-1,797,365,0,0
-420,659,0,0,0,0,0,0,0,0,0,-1,804,365,0,0
-413,659,0,0,0,0,0,0,0,0,0,-1,811,365,0,0
-406,659,0,0,0,0,0,0,0,0,0,-1,818,365,0,0
-399,659,0,0,0,0,0,0,0,0,0,-1,825,365,0,0
-392,659,0,0,0,0,0,0,0,0,0,-1,832,365,0,0
-385,659,0,0,0,0,0,0,0,0,0,-1,839,365,0,0
-378,659,0,0,0,0,0,0,0,0,0,-1,846,365,0,0
-371,659,0,0,0,0,0,0,0,0,0,-1,853,365,0,0
-364,659,0,0,0,0,0,0,0,0,0,-1,860,365,0,0
-357,659,0,0,0,0,0,0,0,0,0,-1,867,365,0,0
-350,659,0,0,0,0,0,0,0,0,0,-1,874,365,0,0
-343,659,0,0,0,0,0,0,0,0,0,-1,881,365,0,0
-336,659,0,0,0,0,0,0,0,0,0,-1,888,365,0,0
-329,659,0,0,0,0,0,0,0,0,0,-1,895,365,0,0
-322,659,0,0,0,0,0,0,0,0,0,-1,902,365,0,0
-315,659,0,0,0,0,0,0,0,0,0,-1,909,365,0,0
-308,659,0,0,0,0,0,0,0,0,0,-1,916,365,0,0
-301,659,0,0,0,0,0,0,0,0,0,-1,923,365,0,0
-294,659,0,0,0,0,0,0,0,0,0,-1,930,365,0,0
-287,659,0,0,0,0,0,0,0,0,0,-1,937,365,0,0
-280,659,0,0,0,0,0,0,0,0,0,-1,944,365,0,0
-273,659,0,0,0,0,0,0,0,0,0,-1,951,365,0,0
-266,659,0,0,0,0,0,0,0,0,0,-1,958,365,0,0
-259,659,0,0,0,0,0,0,0,0,0,-1,965,365,0,0
-252,659,0,0,0,0,0,0,0,0,0,-1,972,365,0,0
-245,659,0,0,0,0,0,0,0,0,0,-1,979,365,0,0
-238,659,0,0,0,0,0,0,0,0,0,-1,986,365,0,0
-231,659,0,0,0,0,0,0,0,0,0,-1,993,365,0,0
-224,659,0,0,0,0,0,0,0,0,0,-1,1000,365,0,0
-217,659,1.58905,-25.7653,0,0,0,0,0,0,0,-1,1007,365,1.58908,25.7652
-210,659,2.664,-25.0039,0,0,0,0,0,0,0,-1,1014,365,2.664,25.0039
-203,659,3.64746,-23.8298,0,0,0,0,0,0,0,-1,1021,365,3.64742,23.8298
-196,659,2.4447,-28.0702,0,0,0,0,0,0,0,-1,1028,365,2.44469,28.0702
-189,659,3.53638,-28.0162,0,0,0,0,0,0,0,-1,1035,365,3.53642,28.0162
-182,659,4.17529,-29.0959,0,0,0,0,0,0,0,-1,1042,365,4.17528,29.0959
-175,659,4.73425,-30.3141,0,0,0,0,0,0,0,-1,1049,365,4.73426,30.3142
-168,659,4.401,-30.1204,0,0,0,0,0,0,0,-1,1056,365,4.40098,30.1204
-161,659,4.36633,-30.8882,0,0,0,0,0,0,0,-1,1063,365,4.3663,30.8882
-154,659,5.40588,-30.0099,0,0,0,0,0,0,0,-1,1070,365,5.40583,30.01
-147,659,4.92126,-29.6041,-0.000388509,0.00720854,0.00110887,0.00736708,-0.000547052,1.42878,0.00510352,0.045568,1077,365,4.92127,29.6041
-140,659,4.69836,-29.1362,0.00101051,0.016168,-0.000246633,0.016172,0.0010065,-1.55453,0.010462,0.0482088,1084,365,4.69842,29.1362
-133,659,6.28955,-29.3275,0,0,0,0,0,0,0,-1,1091,365,6.2895,29.3274
-126,659,5.76147,-30.364,0,0,0,0,0,0,0,-1,1098,365,5.76151,30.364
-119,659,5.94482,-30.639,0,0,0,0,0,0,0,-1,1105,365,5.94482,30.639
-112,659,5.82007,-30.8994,0,0,0,0,0,0,0,-1,1112,365,5.82005,30.8995
-105,659,5.38696,-30.5854,0,0,0,0,0,0,0,-1,1119,365,5.387,30.5854
-98,659,4.68042,-26.2438,0,0,0,0,0,0,0,-1,1126,365,4.68041,26.2438
-91,659,4.20776,-20.8654,0,0,0,0,0,0,0,-1,1133,365,4.20777,20.8654
-84,659,2.8584,-17.8303,0,0,0,0,0,0,0,-1,1140,365,2.85836,17.8303
-77,659,2.80139,-15.3457,0,0,0,0,0,0,0,-1,1147,365,2.80139,15.3457
-70,659,2.9353,-12.7028,0,0,0,0,0,0,0,-1,1154,365,2.93533,12.7028
-63,659,2.11267,-9.7796,0,0,0,0,0,0,0,-1,1161,365,2.11266,9.7796
-56,659,2.11182,-9.91541,0,0,0,0,0,0,0,-1,1168,365,2.11178,9.91541
-49,659,5.22778,-33.4268,0,0,0,0,0,0,0,-1,1175,365,5.22777,33.4268
-42,659,5.22522,-33.6143,0,0,0,0,0,0,0,-1,1182,365,5.22521,33.6144
-35,659,5.15564,-33.8264,-0.00170848,-0.0369411,0.0184332,0.00617263,-0.0448222,0.404028,0.0321372,0.0432454,1189,365,5.15559,33.8264
-28,659,5.16919,-33.9136,0.00112447,-0.0181697,0.0129722,0.0076435,-0.0246887,0.465678,0.0195125,0.0158681,1196,365,5.16921,33.9136
-21,659,5.12244,-34.0724,0.004686,0.00260356,0.00686598,0.0105893,-0.00329971,0.710147,0.00837886,0.0118171,1203,365,5.12239,34.0724
-14,659,5.06433,-34.2299,0.00512226,0.0167005,0.00312027,0.0174879,0.00433491,1.32362,0.0105158,0.0100767,1210,365,5.06431,34.2299
-7,659,5.0304,-34.3344,0.00231429,0.0186075,0.00289277,0.0191058,0.00181594,1.4002,0.0121771,0.0100717,1217,365,5.03043,34.3343
0,659,5.01135,-34.4283,-0.000259656,0.0202781,0.00263309,0.0206103,-0.000591864,1.44529,0.0139417,0.00852941,1224,365,5.01137,34.4283
7,659,4.98193,-34.5198,-0.00280958,0.0218566,0.00231424,0.0220718,-0.00302483,1.47805,0.0158195,0.00841108,1231,365,4.98192,34.5198
14,659,4.93726,-34.568,-0.00524224,0.0231906,0.00192075,0.0233198,-0.00537141,1.50365,0.0176122,0.0109949,1238,365,4.9373,34.568
21,659,4.91284,-34.6455,-0.0058521,0.0244327,0.00146789,0.0245036,-0.00592308,1.52248,0.0186267,0.0117887,1245,365,4.91289,34.6455
28,659,4.87146,-34.7215,-0.0056575,0.0251792,0.00170502,0.0252732,-0.00575149,1.51573,0.0190575,0.0103835,1252,365,4.87149,34.7215
35,659,4.83801,-34.7672,-0.00512519,0.0258522,0.00187701,0.0259655,-0.00523851,1.5105,0.019295,0.010517,1259,365,4.83805,34.7671
42,659,4.81519,-34.8083,-0.00451184,0.0266677,0.00175813,0.0267665,-0.00461066,1.51465,0.0195632,0.0113974,1266,365,4.81521,34.8083
49,659,4.77734,-34.8326,-0.00455848,0.026949,0.00197984,0.0270729,-0.0046824,1.50829,0.0197949,0.0115961,1273,365,4.7774,34.8326
56,659,4.72363,-34.8454,-0.00390148,0.025939,0.00254502,0.0261545,-0.00411698,1.48632,0.0189582,0.0154973,1280,365,4.72367,34.8454
63,659,4.71387,-34.875,-0.00299437,0.0247719,0.00340554,0.0251835,-0.00340596,1.45052,0.0180318,0.0171769,1287,365,4.71391,34.875
70,659,4.67139,-34.8541,-0.00226757,0.0237039,0.00427765,0.0243904,-0.00295398,1.41169,0.017329,0.0175493,1294,365,4.6714,34.8541
77,659,4.60266,-34.7884,-0.00270767,0.0228632,0.00533603,0.023932,-0.0037765,1.37311,0.017351,0.0177917,1301,365,4.60268,34.7883
84,659,4.58179,-34.8176,-0.00389488,0.0223074,0.00618653,0.0236947,-0.00528212,1.35021,0.01782,0.0128459,1308,365,4.5818,34.8176
91,659,4.54248,-34.7616,-0.00523042,0.0211044,0.00696303,0.0228321,-0.00695813,1.32758,0.0179949,0.0110543,1315,365,4.54245,34.7616
98,659,4.4895,-34.6678,-0.00644256,0.0200762,0.00730925,0.0219574,-0.00832373,1.31889,0.0180638,0.0084649,1322,365,4.48945,34.6678
105,659,4.47791,-34.5699,-0.0077895,0.0193682,0.00713382,0.0211281,-0.00954938,1.32893,0.0181273,0.0101244,1329,365,4.47794,34.5699
112,659,4.4541,-34.4637,-0.00882177,0.0188664,0.00686663,0.0204758,-0.0104311,1.34058,0.0181555,0.0143853,1336,365,4.45408,34.4637
119,659,4.40222,-34.3366,-0.00916058,0.0183813,0.00637479,0.0197853,-0.0105645,1.35403,0.01779,0.0162789,1343,365,4.40221,34.3366
126,659,4.34607,-34.2039,-0.0100171,0.0178424,0.00573435,0.0189765,-0.0111513,1.37554,0.0175888,0.0147282,1350,365,4.3461,34.2038
133,659,4.30371,-34.0829,-0.00961816,0.0176683,0.00418077,0.0182945,-0.0102444,1.42212,0.016694,0.0130044,1357,365,4.30369,34.0829
140,659,4.26245,-33.9849,-0.00773967,0.0173356,0.00302288,0.0176949,-0.00809893,1.4525,0.0152317,0.0103914,1364,365,4.2624,33.9849
147,659,4.22937,-33.8406,-0.00498771,0.0172747,0.0024213,0.017535,-0.00524801,1.4637,0.0137767,0.00914835,1371,365,4.22939,33.8406
154,659,4.19604,-33.6363,-0.00196573,0.0172864,0.000883084,0.0173268,-0.00200615,1.52505,0.0122747,0.00996209,1378,365,4.19609,33.6363
161,659,4.16345,-33.4429,0.000875604,0.0179542,-0.000625787,0.0179771,0.000852706,-1.53422,0.0117108,0.0125772,1385,365,4.16348,33.4429
168,659,4.15149,-33.2453,0.00275159,0.0176858,-0.00192637,0.0179303,0.00250711,-1.44456,0.0112117,0.019648,1392,365,4.15154,33.2453
175,659,4.15503,-33.0679,0.00240867,0.0168829,-0.00172091,0.0170847,0.00220688,-1.45407,0.0107301,0.0421656,1399,365,4.155,33.0679
182,659,4.03137,-32.8614,0,0,0,0,0,0,0,-1,1406,365,4.03132,32.8614
189,659,4.05286,-32.5618,0,0,0,0,0,0,0,-1,1413,365,4.05292,32.5618
196,659,2.41248,-13.4371,0,0,0,0,0,0,0,-1,1420,365,2.41243,13.4371
203,659,2.38623,-12.2163,0,0,0,0,0,0,0,-1,1427,365,2.38617,12.2163
210,659,2.20789,-13.9792,0,0,0,0,0,0,0,-1,1434,365,2.20794,13.9792
217,659,2.24121,-13.487,0,0,0,0,0,0,0,-1,1441,365,2.24116,13.487
224,659,2.3479,-15.2926,0,0,0,0,0,0,0,-1,1448,365,2.34793,15.2926
231,659,2.47974,-17.8629,0,0,0,0,0,0,0,-1,1455,365,2.47976,17.8628
238,659,3.57886,-21.1258,0,0,0,0,0,0,0,-1,1462,365,3.57889,21.1258
245,659,3.29883,-25.0283,0,0,0,0,0,0,0,-1,1469,365,3.29889,25.0283
252,659,2.81909,-24.1604,0,0,0,0,0,0,0,-1,1476,365,2.81905,24.1604
259,659,2.33069,-3.36703,0,0,0,0,0,0,0,-1,1483,365,2.33073,3.36702
266,659,1.72681,-17.183,0,0,0,0,0,0,0,-1,1490,365,1.72683,17.183
273,659,3.44775,-29.9893,0,0,0,0,0,0,0,-1,1497,365,3.44771,29.9894
280,659,-6.90784,-17.1906,0,0,0,0,0,0,0,-1,1504,365,-6.90789,17.1906
287,659,-6.03333,-19.2684,0,0,0,0,0,0,0,-1,1511,365,-6.03339,19.2684
294,659,-5.25952,-20.9666,0,0,0,0,0,0,0,-1,1518,365,-5.25957,20.9666
301,659,-4.52319,-22.5462,0,0,0,0,0,0,0,-1,1525,365,-4.52316,22.5462
308,659,-3.6543,-24.1383,0,0,0,0,0,0,0,-1,1532,365,-3.65433,24.1383
315,659,2.17102,-2.98474,0,0,0,0,0,0,0,-1,1539,365,2.171,2.98473
322,659,0.382813,-2.2424,0,0,0,0,0,0,0,-1,1546,365,0.382801,2.2424
329,659,0.604004,-1.75998,0,0,0,0,0,0,0,-1,1553,365,0.603966,1.75998
336,659,4.55933,-25.2647,0,0,0,0,0,0,0,-1,1560,365,4.55935,25.2647
343,659,0,0,0,0,0,0,0,0,0,-1,1567,365,0,0
350,659,0,0,0,0,0,0,0,0,0,-1,1574,365,0,0
357,659,0,0,0,0,0,0,0,0,0,-1,1581,365,0,0
364,659,0,0,0,0,0,0,0,0,0,-1,1588,365,0,0
371,659,0,0,0,0,0,0,0,0,0,-1,1595,365,0,0
378,659,0,0,0,0,0,0,0,0,0,-1,1602,365,0,0
385,659,0,0,0,0,0,0,0,0,0,-1,1609,365,0,0
392,659,0,0,0,0,0,0,0,0,0,-1,1616,365,0,0
399,659,0,0,0,0,0,0,0,0,0,-1,1623,365,0,0
406,659,0,0,0,0,0,0,0,0,0,-1,1630,365,0,0
413,659,0,0,0,0,0,0,0,0,0,-1,1637,365,0,0
420,659,0,0,0,0,0,0,0,0,0,-1,1644,365,0,0
427,659,0,0,0,0,0,0,0,0,0,-1,1651,365,0,0
434,659,0,0,0,0,0,0,0,0,0,-1,1658,365,0,0
441,659,0,0,0,0,0,0,0,0,0,-1,1665,365,0,0
448,659,0,0,0,0,0,0,0,0,0,-1,1672,365,0,0
455,659,0,0,0,0,0,0,0,0,0,-1,1679,365,0,0
462,659,0,0,0,0,0,0,0,0,0,-1,1686,365,0,0
469,659,0,0,0,0,0,0,0,0,0,-1,1693,365,0,0
476,659,0,0,0,0,0,0,0,0,0,-1,1700,365,0,0
483,659,0,0,0,0,0,0,0,0,0,-1,1707,365,0,0
490,659,0,0,0,0,0,0,0,0,0,-1,1714,365,0,0
497,659,0,0,0,0,0,0,0,0,0,-1,1721,365,0,0
504,659,0,0,0,0,0,0,0,0,0,-1,1728,365,0,0
511,659,0,0,0,0,0,0,0,0,0,-1,1735,365,0,0
518,659,0,0,0,0,0,0,0,0,0,-1,1742,365,0,0
525,659,0,0,0,0,0,0,0,0,0,-1,1749,365,0,0
532,659,0,0,0,0,0,0,0,0,0,-1,1756,365,0,0
539,659,0,0,0,0,0,0,0,0,0,-1,1763,365,0,0
546,659,0,0,0,0,0,0,0,0,0,-1,1770,365,0,0
553,659,0,0,0,0,0,0,0,0,0,-1,1777,365,0,0
560,659,0,0,0,0,0,0,0,0,0,-1,1784,365,0,0
567,659,0,0,0,0,0,0,0,0,0,-1,1791,365,0,0
574,659,0,0,0,0,0,0,0,0,0,-1,1798,365,0,0
581,659,0,0,0,0,0,0,0,0,0,-1,1805,365,0,0
588,659,0,0,0,0,0,0,0,0,0,-1,1812,365,0,0
595,659,0,0,0,0,0,0,0,0,0,-1,1819,365,0,0
602,659,0,0,0,0,0,0,0,0,0,-1,1826,365,0,0
609,659,0,0,0,0,0,0,0,0,0,-1,1833,365,0,0
616,659,0,0,0,0,0,0,0,0,0,-1,1840,365,0,0
623,659,0,0,0,0,0,0,0,0,0,-1,1847,365,0,0
630,659,0,0,0,0,0,0,0,0,0,-1,1854,365,0,0
637,659,0,0,0,0,0,0,0,0,0,-1,1861,365,0,0
644,659,0,0,0,0,0,0,0,0,0,-1,1868,365,0,0
651,659,0,0,0,0,0,0,0,0,0,-1,1875,365,0,0
658,659,0,0,0,0,0,0,0,0,0,-1,1882,365,0,0
665,659,0,0,0,0,0,0,0,0,0,-1,1889,365,0,0
672,659,0,0,0,0,0,0,0,0,0,-1,1896,365,0,0
679,659,0,0,0,0,0,0,0,0,0,-1,1903,365,0,0
686,659,0,0,0,0,0,0,0,0,0,-1,1910,365,0,0
693,659,0,0,0,0,0,0,0,0,0,-1,1917,365,0,0
700,659,0,0,0,0,0,0,0,0,0,-1,1924,365,0,0
707,659,0,0,0,0,0,0,0,0,0,-1,1931,365,0,0
714,659,0,0,0,0,0,0,0,0,0,-1,1938,365,0,0
721,659,0,0,0,0,0,0,0,0,0,-1,1945,365,0,0
728,659,0,0,0,0,0,0,0,0,0,-1,1952,365,0,0
735,659,0,0,0,0,0,0,0,0,0,-1,1959,365,0,0
742,659,0,0,0,0,0,0,0,0,0,-1,1966,365,0,0
749,659,0,0,0,0,0,0,0,0,0,-1,1973,365,0,0
756,659,0,0,0,0,0,0,0,0,0,-1,1980,365,0,0
763,659,0,0,0,0,0,0,0,0,0,-1,1987,365,0,0
770,659,0,0,0,0,0,0,0,0,0,-1,1994,365,0,0
777,659,0,0,0,0,0,0,0,0,0,-1,2001,365,0,0
784,659,0,0,0,0,0,0,0,0,0,-1,2008,365,0,0
791,659,0,0,0,0,0,0,0,0,0,-1,2015,365,0,0
798,659,0,0,0,0,0,0,0,0,0,-1,2022,365,0,0
805,659,0,0,0,0,0,0,0,0,0,-1,2029,365,0,0
812,659,0,0,0,0,0,0,0,0,0,-1,2036,365,0,0
-700,652,0,0,0,0,0,0,0,0,0,-1,524,372,0,0
-693,652,0,0,0,0,0,0,0,0,0,-1,531,372,0,0
-686,652,0,0,0,0,0,0,0,0,0,-1,538,372,0,0
-679,652,0,0,0,0,0,0,0,0,0,-1,545,372,0,0
-672,652,0,0,0,0,0,0,0,0,0,-1,552,372,0,0
-665,652,0,0,0,0,0,0,0,0,0,-1,559,372,0,0
-658,652,0,0,0,0,0,0,0,0,0,-1,566,372,0,0
-651,652,0,0,0,0,0,0,0,0,0,-1,573,372,0,0
-644,652,0,0,0,0,0,0,0,0,0,-1,580,372,0,0
-637,652,0,0,0,0,0,0,0,0,0,-1,587,372,0,0
-630,652,0,0,0,0,0,0,0,0,0,-1,594,372,0,0
-623,652,0,0,0,0,0,0,0,0,0,-1,601,372,0,0
-616,652,0,0,0,0,0,0,0,0,0,-1,608,372,0,0
-609,652,0,0,0,0,0,0,0,0,0,-1,615,372,0,0
-602,652,0,0,0,0,0,0,0,0,0,-1,622,372,0,0
-595,652,0,0,0,0,0,0,0,0,0,-1,629,372,0,0
-588,652,0,0,0,0,0,0,0,0,0,-1,636,372,0,0
-581,652,0,0,0,0,0,0,0,0,0,-1,643,372,0,0
-574,652,0,0,0,0,0,0,0,0,0,-1,650,372,0,0
-567,652,0,0,0,0,0,0,0,0,0,-1,657,372,0,0
-560,652,0,0,0,0,0,0,0,0,0,-1,664,372,0,0
-553,652,0,0,0,0,0,0,0,0,0,-1,671,372,0,0
-546,652,0,0,0,0,0,0,0,0,0,-1,678,372,0,0
-539,652,0,0,0,0,0,0,0,0,0,-1,685,372,0,0
-532,652,0,0,0,0,0,0,0,0,0,-1,692,372,0,0
-525,652,0,0,0,0,0,0,0,0,0,-1,699,372,0,0
-518,652,0,0,0,0,0,0,0,0,0,-1,706,372,0,0
-511,652,0,0,0,0,0,0,0,0,0,-1,713,372,0,0
-504,652,0,0,0,0,0,0,0,0,0,-1,720,372,0,0
-497,652,0,0,0,0,0,0,0,0,0,-1,727,372,0,0
-490,652,0,0,0,0,0,0,0,0,0,-1,734,372,0,0
-483,652,0,0,0,0,0,0,0,0,0,-1,741,372,0,0
-476,652,0,0,0,0,0,0,0,0,0,-1,748,372,0,0
-469,652,0,0,0,0,0,0,0,0,0,-1,755,372,0,0
-462,652,0,0,0,0,0,0,0,0,0,-1,762,372,0,0
-455,652,0,0,0,0,0,0,0,0,0,-1,769,372,0,0
-448,652,0,0,0,0,0,0,0,0,0,-1,776,372,0,0
-441,652,0,0,0,0,0,0,0,0,0,-1,783,372,0,0
-434,652,0,0,0,0,0,0,0,0,0,-1,790,372,0,0
-427,652,0,0,0,0,0,0,0,0,0,-1,797,372,0,0
-420,652,0,0,0,0,0,0,0,0,0,-1,804,372,0,0
-413,652,0,0,0,0,0,0,0,0,0,-1,811,372,0,0
-406,652,0,0,0,0,0,0,0,0,0,-1,818,372,0,0
-399,652,0,0,0,0,0,0,0,0,0,-1,825,372,0,0
-392,652,0,0,0,0,0,0,0,0,0,-1,832,372,0,0
-385,652,0,0,0,0,0,0,0,0,0,-1,839,372,0,0
-378,652,0,0,0,0,0,0,0,0,0,-1,846,372,0,0
-371,652,0,0,0,0,0,0,0,0,0,-1,853,372,0,0
-364,652,0,0,0,0,0,0,0,0,0,-1,860,372,0,0
-357,652,0,0,0,0,0,0,0,0,0,-1,867,372,0,0
-350,652,0,0,0,0,0,0,0,0,0,-1,874,372,0,0
-343,652,0,0,0,0,0,0,0,0,0,-1,881,372,0,0
-336,652,0,0,0,0,0,0,0,0,0,-1,888,372,0,0
-329,652,0,0,0,0,0,0,0,0,0,-1,895,372,0,0
-322,652,0,0,0,0,0,0,0,0,0,-1,902,372,0,0
-315,652,0,0,0,0,0,0,0,0,0,-1,909,372,0,0
-308,652,0,0,0,0,0,0,0,0,0,-1,916,372,0,0
-301,652,0,0,0,0,0,0,0,0,0,-1,923,372,0,0
-294,652,0,0,0,0,0,0,0,0,0,-1,930,372,0,0
-287,652,0,0,0,0,0,0,0,0,0,-1,937,372,0,0
-280,652,0,0,0,0,0,0,0,0,0,-1,944,372,0,0
-273,652,0,0,0,0,0,0,0,0,0,-1,951,372,0,0
-266,652,0,0,0,0,0,0,0,0,0,-1,958,372,0,0
-259,652,0,0,0,0,0,0,0,0,0,-1,965,372,0,0
-252,652,0,0,0,0,0,0,0,0,0,-1,972,372,0,0
-245,652,0,0,0,0,0,0,0,0,0,-1,979,372,0,0
-238,652,0,0,0,0,0,0,0,0,0,-1,986,372,0,0
-231,652,8.68457,-21.315,0,0,0,0,0,0,0,-1,993,372,8.68455,21.315
-224,652,9.47449,-18.002,0,0,0,0,0,0,0,-1,1000,372,9.47449,18.002
-217,652,1.80139,-26.709,0,0,0,0,0,0,0,-1,1007,372,1.80137,26.709
-210,652,2.70807,-25.7509,0,0,0,0,0,0,0,-1,1014,372,2.70809,25.7509
-203,652,3.66467,-24.6504,0,0,0,0,0,0,0,-1,1021,372,3.66463,24.6504
-196,652,4.50012,-23.3835,0,0,0,0,0,0,0,-1,1028,372,4.50007,23.3835
-189,652,4.42688,-26.6211,0,0,0,0,0,0,0,-1,1035,372,4.42691,26.6211
-182,652,4.00623,-28.1492,0,0,0,0,0,0,0,-1,1042,372,4.00617,28.1492
-175,652,4.5874,-29.3477,0,0,0,0,0,0,0,-1,1049,372,4.58737,29.3476
-168,652,4.52222,-29.3987,0,0,0,0,0,0,0,-1,1056,372,4.52223,29.3988
-161,652,4.50171,-30.1871,0,0,0,0,0,0,0,-1,1063,372,4.50171,30.1871
-154,652,4.74365,-29.0067,0,0,0,0,0,0,0,-1,1070,372,4.74365,29.0067
-147,652,4.82666,-29.4211,1.13834e-05,0.00936213,-0.00274894,0.0101104,-0.000736873,-1.30504,0.00699883,0.041718,1077,372,4.82661,29.4211
-140,652,4.74609,-29.6633,0.00093755,0.0150591,-0.00329391,0.0157896,0.000207022,-1.35255,0.0104581,0.044264,1084,372,4.74605,29.6633
-133,652,5.68982,-29.6627,0.0013251,0.0195931,-0.00344309,0.0202205,0.000697704,-1.39056,0.0132539,0.042334,1091,372,5.68985,29.6627
-126,652,5.52795,-30.3104,-0.00260953,0.00120312,0.00345173,0.00323996,-0.00464637,1.03769,0.00457724,0.0438555,1098,372,5.528,30.3104
-119,652,5.57666,-30.6931,-0.00718476,-0.0214783,0.0109874,-0.00122427,-0.0274388,0.497053,0.0178984,0.0379628,1105,372,5.57663,30.6931
-112,652,5.46008,-31.036,-0.0104966,-0.0369333,0.0167812,-0.00235298,-0.0450769,0.451804,0.0292985,0.0348544,1112,372,5.46003,31.036
-105,652,5.40076,-31.2416,0,0,0,0,0,0,0,-1,1119,372,5.40073,31.2416
-98,652,5.43433,-31.2108,0,0,0,0,0,0,0,-1,1126,372,5.43429,31.2108
-91,652,5.45789,-31.5366,0,0,0,0,0,0,0,-1,1133,372,5.45786,31.5366
-84,652,5.45703,-31.8235,0,0,0,0,0,0,0,-1,1140,372,5.45709,31.8235
-77,652,5.24097,-32.4764,0,0,0,0,0,0,0,-1,1147,372,5.24101,32.4764
-70,652,5.22217,-32.7668,0,0,0,0,0,0,0,-1,1154,372,5.22219,32.7668
-63,652,5.21716,-32.9937,0,0,0,0,0,0,0,-1,1161,372,5.21714,32.9937
-56,652,5.15076,-33.258,0,0,0,0,0,0,0,-1,1168,372,5.15081,33.258
-49,652,5.1377,-33.4818,-0.00776184,-0.0549602,0.0206362,-1.18054e-05,-0.0627102,0.359258,0.0418029,0.0384067,1175,372,5.13773,33.4818
-42,652,5.07471,-33.6106,-0.00439791,-0.0381193,0.0157682,0.00182648,-0.0443437,0.375965,0.0301897,0.0119427,1182,372,5.07474,33.6106
-35,652,5.06201,-33.7648,-0.00199285,-0.0230915,0.0115402,0.00309322,-0.0281775,0.415114,0.0198964,0.00959049,1189,372,5.06201,33.7648
-28,652,5.02209,-33.9311,1.16556e-05,-0.0111931,0.00800886,0.00418314,-0.0153646,0.480195,0.0118854,0.00825439,1196,372,5.02208,33.9311
-21,652,4.97156,-34.0961,0.0023478,0.00220564,0.00405203,0.00632937,-0.00177594,0.776628,0.0049196,0.00783407,1203,372,4.9715,34.0961
-14,652,4.95276,-34.2325,0.00282948,0.0111426,0.00173071,0.0114885,0.00248356,1.37352,0.00698004,0.00986665,1210,372,4.9527,34.2325
-7,652,4.92859,-34.368,0.00136346,0.0123086,0.00164335,0.01255,0.00112205,1.42494,0.00801888,0.0134467,1217,372,4.9286,34.368
0,652,4.90198,-34.4616,-4.5553e-05,0.0133336,0.00151228,0.0135024,-0.00021436,1.45963,0.00907388,0.0127293,1224,372,4.90204,34.4616
7,652,4.88086,-34.5258,-0.0015097,0.0143589,0.00132871,0.0144694,-0.00162019,1.48783,0.0102292,0.0130765,1231,372,4.8809,34.5258
14,652,4.86548,-34.6088,-0.00296367,0.0152484,0.00108345,0.0153126,-0.0030279,1.51158,0.0113531,0.0117443,1238,372,4.86546,34.6088
21,652,4.82898,-34.7152,-0.00322029,0.0161576,0.000796782,0.0161903,-0.003253,1.52977,0.0120254,0.0112995,1245,372,4.82897,34.7153
28,652,4.81226,-34.8039,-0.00300667,0.0168687,0.000945394,0.0169135,-0.00305154,1.52337,0.0124185,0.0103021,1252,372,4.81223,34.8039
35,652,4.78259,-34.8418,-0.00258142,0.0176392,0.00110907,0.0176999,-0.00264207,1.51617,0.012772,0.0100484,1259,372,4.78257,34.8418
42,652,4.75244,-34.8682,-0.00217289,0.0184623,0.00104009,0.0185146,-0.00222518,1.52056,0.0131477,0.0112739,1266,372,4.75247,34.8682
49,652,4.74622,-34.8828,-0.00212903,0.0189379,0.00120333,0.0190064,-0.00219754,1.51392,0.0134634,0.0134045,1273,372,4.74616,34.8828
56,652,4.72632,-34.8828,-0.0016493,0.0185589,0.00157906,0.0186816,-0.00177194,1.49328,0.0130851,0.0159172,1280,372,4.72632,34.8828
63,652,4.70215,-34.9117,-0.00110649,0.0180243,0.00215539,0.0182641,-0.00134632,1.45998,0.0126488,0.0204126,1287,372,4.7021,34.9117
70,652,4.67627,-34.8675,-0.000642939,0.0175276,0.00273945,0.0179316,-0.00104696,1.42437,0.0123183,0.0171497,1294,372,4.67627,34.8675
77,652,4.6145,-34.8378,-0.000999808,0.0172088,0.00348019,0.0178513,-0.0016423,1.38824,0.0124843,0.016367,1301,372,4.61453,34.8378
84,652,4.61743,-34.8454,-0.00181,0.0169712,0.00402645,0.017798,-0.00263682,1.36826,0.0128349,0.0135387,1308,372,4.61748,34.8454
91,652,4.56885,-34.8123,-0.0027496,0.0162243,0.00451465,0.0172438,-0.00376904,1.34871,0.0129365,0.0161091,1315,372,4.56888,34.8123
98,652,4.57434,-34.7143,-0.0035925,0.0155082,0.00472785,0.0166144,-0.00469869,1.34096,0.0129302,0.013881,1322,372,4.57429,34.7142
105,652,4.56348,-34.6135,-0.0044668,0.0149495,0.00460163,0.0159848,-0.00550217,1.34948,0.0128882,0.0119247,1329,372,4.56344,34.6135
112,652,4.53125,-34.5196,-0.00515866,0.0145184,0.00440974,0.0154615,-0.00610171,1.36011,0.0128345,0.010115,1336,372,4.53124,34.5196
119,652,4.49341,-34.398,-0.00541154,0.0140892,0.00407417,0.0149062,-0.00622851,1.3729,0.0125403,0.0107696,1343,372,4.49343,34.398
126,652,4.45251,-34.2753,-0.00607331,0.0136337,0.00362414,0.014279,-0.00671866,1.39457,0.0123822,0.0121308,1350,372,4.45249,34.2753
133,652,4.42896,-34.1605,-0.00582483,0.0134068,0.00259025,0.0137496,-0.0061676,1.43923,0.0117737,0.0128662,1357,372,4.42899,34.1605
140,652,4.39685,-34.0443,-0.0046382,0.0130769,0.00178621,0.0132552,-0.00481651,1.4713,0.0108062,0.0105346,1364,372,4.39688,34.0442
147,652,4.37415,-33.8827,-0.00294159,0.0131283,0.00149467,0.0132662,-0.00307942,1.47884,0.0100294,0.00943849,1371,372,4.37411,33.8827
154,652,4.35132,-33.6981,-0.00126956,0.0132842,0.000640593,0.0133124,-0.0012977,1.52689,0.00933758,0.00929648,1378,372,4.35127,33.6981
161,652,4.32507,-33.4991,0.000149857,0.0138088,-0.000161596,0.0138107,0.000147946,-1.55897,0.00915821,0.0112061,1385,372,4.32509,33.4991
168,652,4.2981,-33.2966,0.00109236,0.0137069,-0.000745808,0.0137509,0.00104842,-1.51195,0.00883853,0.0121306,1392,372,4.29812,33.2966
175,652,4.26782,-33.086,0.000757242,0.0133412,-0.000445667,0.0133569,0.000741478,-1.53544,0.00866803,0.0123693,1399,372,4.26786,33.086
182,652,4.21558,-32.9023,0.000470053,0.0128224,-0.000124033,0.0128236,0.000468807,-1.56076,0.00839717,0.0183476,1406,372,4.21562,32.9023
189,652,4.2052,-32.6772,-0.000192384,0.0116409,0.000108689,0.0116419,-0.000193383,1.56161,0.00782651,0.0302023,1413,372,4.20518,32.6772
196,652,4.16931,-32.4165,0,0,0,0,0,0,0,-1,1420,372,4.16935,32.4165
203,652,4.13635,-32.1327,0,0,0,0,0,0,0,-1,1427,372,4.13632,32.1327
210,652,4.18384,-31.7964,0,0,0,0,0,0,0,-1,1434,372,4.18384,31.7964
217,652,4.10254,-31.5909,0,0,0,0,0,0,0,-1,1441,372,4.10249,31.5908
224,652,3.63794,-31.2791,0,0,0,0,0,0,0,-1,1448,372,3.63799,31.2791
231,652,3.83936,-30.4812,0,0,0,0,0,0,0,-1,1455,372,3.8393,30.4812
238,652,4.10461,-30.5291,0,0,0,0,0,0,0,-1,1462,372,4.10466,30.5291
245,652,3.97485,-30.3167,0,0,0,0,0,0,0,-1,1469,372,3.97481,30.3166
252,652,4.01733,-29.9605,0,0,0,0,0,0,0,-1,1476,372,4.01732,29.9605
259,652,3.56885,-29.3509,0,0,0,0,0,0,0,-1,1483,372,3.56889,29.3509
266,652,3.52942,-28.9376,0,0,0,0,0,0,0,-1,1490,372,3.52947,28.9376
273,652,3.74597,-29.5345,0,0,0,0,0,0,0,-1,1497,372,3.74603,29.5345
280,652,3.6001,-28.9045,0,0,0,0,0,0,0,-1,1504,372,3.60006,28.9045
287,652,-4.71191,-19.5709,0,0,0,0,0,0,0,-1,1511,372,-4.71192,19.5709
294,652,-3.52563,-20.1174,0,0,0,0,0,0,0,-1,1518,372,-3.52558,20.1174
301,652,-2.42944,-21.364,0,0,0,0,0,0,0,-1,1525,372,-2.4295,21.364
308,652,-1.33337,-22.6107,0,0,0,0,0,0,0,-1,1532,372,-1.33341,22.6107
315,652,2.32214,-25.9898,0,0,0,0,0,0,0,-1,1539,372,2.32213,25.9898
322,652,1.62671,-24.3525,0,0,0,0,0,0,0,-1,1546,372,1.62673,24.3525
329,652,3.6593,-22.1693,0,0,0,0,0,0,0,-1,1553,372,3.65935,22.1693
336,652,3.52173,-24.2133,0,0,0,0,0,0,0,-1,1560,372,3.52174,24.2133
343,652,4.85767,-24.4762,0,0,0,0,0,0,0,-1,1567,372,4.85772,24.4762
350,652,5.28394,-25.6715,0,0,0,0,0,0,0,-1,1574,372,5.28393,25.6715
357,652,0,0,0,0,0,0,0,0,0,-1,1581,372,0,0
364,652,0,0,0,0,0,0,0,0,0,-1,1588,372,0,0
371,652,0,0,0,0,0,0,0,0,0,-1,1595,372,0,0
378,652,0,0,0,0,0,0,0,0,0,-1,1602,372,0,0
385,652,0,0,0,0,0,0,0,0,0,-1,1609,372,0,0
392,652,0,0,0,0,0,0,0,0,0,-1,1616,372,0,0
399,652,0,0,0,0,0,0,0,0,0,-1,1623,372,0,0
406,652,0,0,0,0,0,0,0,0,0,-1,1630,372,0,0
413,652,0,0,0,0,0,0,0,0,0,-1,1637,372,0,0
420,652,0,0,0,0,0,0,0,0,0,-1,1644,372,0,0
427,652,0,0,0,0,0,0,0,0,0,-1,1651,372,0,0
434,652,0,0,0,0,0,0,0,0,0,-1,1658,372,0,0
441,652,0,0,0,0,0,0,0,0,0,-1,1665,372,0,0
448,652,0,0,0,0,0,0,0,0,0,-1,1672,372,0,0
455,652,0,0,0,0,0,0,0,0,0,-1,1679,372,0,0
462,652,0,0,0,0,0,0,0,0,0,-1,1686,372,0,0
469,652,0,0,0,0,0,0,0,0,0,-1,1693,372,0,0
476,652,0,0,0,0,0,0,0,0,0,-1,1700,372,0,0
483,652,0,0,0,0,0,0,0,0,0,-1,1707,372,0,0
490,652,0,0,0,0,0,0,0,0,0,-1,1714,372,0,0
497,652,0,0,0,0,0,0,0,0,0,-1,1721,372,0,0
504,652,0,0,0,0,0,0,0,0,0,-1,1728,372,0,0
511,652,0,0,0,0,0,0,0,0,0,-1,1735,372,0,0
518,652,0,0,0,0,0,0,0,0,0,-1,1742,372,0,0
525,652,0,0,0,0,0,0,0,0,0,-1,1749,372,0,0
532,652,0,0,0,0,0,0,0,0,0,-1,1756,372,0,0
539,652,0,0,0,0,0,0,0,0,0,-1,1763,372,0,0
546,652,0,0,0,0,0,0,0,0,0,-1,1770,372,0,0
553,652,0,0,0,0,0,0,0,0,0,-1,1777,372,0,0
560,652,0,0,0,0,0,0,0,0,0,-1,1784,372,0,0
567,652,0,0,0,0,0,0,0,0,0,-1,1791,372,0,0
574,652,0,0,0,0,0,0,0,0,0,-1,1798,372,0,0
581,652,0,0,0,0,0,0,0,0,0,-1,1805,372,0,0
588,652,0,0,0,0,0,0,0,0,0,-1,1812,372,0,0
595,652,0,0,0,0,0,0,0,0,0,-1,1819,372,0,0
602,652,0,0,0,0,0,0,0,0,0,-1,1826,372,0,0
609,652,0,0,0,0,0,0,0,0,0,-1,1833,372,0,0
616,652,0,0,0,0,0,0,0,0,0,-1,1840,372,0,0
623,652,0,0,0,0,0,0,0,0,0,-1,1847,372,0,0
630,652,0,0,0,0,0,0,0,0,0,-1,1854,372,0,0
637,652,0,0,0,0,0,0,0,0,0,-1,1861,372,0,0
644,652,0,0,0,0,0,0,0,0,0,-1,1868,372,0,0
651,652,0,0,0,0,0,0,0,0,0,-1,1875,372,0,0
658,652,0,0,0,0,0,0,0,0,0,-1,1882,372,0,0
665,652,0,0,0,0,0,0,0,0,0,-1,1889,372,0,0
672,652,0,0,0,0,0,0,0,0,0,-1,1896,372,0,0
679,652,0,0,0,0,0,0,0,0,0,-1,1903,372,0,0
686,652,0,0,0,0,0,0,0,0,0,-1,1910,372,0,0
693,652,0,0,0,0,0,0,0,0,0,-1,1917,372,0,0
700,652,0,0,0,0,0,0,0,0,0,-1,1924,372,0,0
707,652,0,0,0,0,0,0,0,0,0,-1,1931,372,0,0
714,652,0,0,0,0,0,0,0,0,0,-1,1938,372,0,0
721,652,0,0,0,0,0,0,0,0,0,-1,1945,372,0,0
728,652,0,0,0,0,0,0,0,0,0,-1,1952,372,0,0
735,652,0,0,0,0,0,0,0,0,0,-1,1959,372,0,0
742,652,0,0,0,0,0,0,0,0,0,-1,1966,372,0,0
749,652,0,0,0,0,0,0,0,0,0,-1,1973,372,0,0
756,652,0,0,0,0,0,0,0,0,0,-1,1980,372,0,0
763,652,0,0,0,0,0,0,0,0,0,-1,1987,372,0,0
770,652,0,0,0,0,0,0,0,0,0,-1,1994,372,0,0
777,652,0,0,0,0,0,0,0,0,0,-1,2001,372,0,0
784,652,0,0,0,0,0,0,0,0,0,-1,2008,372,0,0
791,652,0,0,0,0,0,0,0,0,0,-1,2015,372,0,0
798,652,0,0,0,0,0,0,0,0,0,-1,2022,372,0,0
805,652,0,0,0,0,0,0,0,0,0,-1,2029,372,0,0
812,652,0,0,0,0,0,0,0,0,0,-1,2036,372,0,0
-700,645,0,0,0,0,0,0,0,0,0,-1,524,379,0,0
-693,645,0,0,0,0,0,0,0,0,0,-1,531,379,0,0
-686,645,0,0,0,0,0,0,0,0,0,-1,538,379,0,0
-679,645,0,0,0,0,0,0,0,0,0,-1,545,379,0,0
-672,645,0,0,0,0,0,0,0,0,0,-1,552,379,0,0
-665,645,0,0,0,0,0,0,0,0,0,-1,559,379,0,0
-658,645,0,0,0,0,0,0,0,0,0,-1,566,379,0,0
-651,645,0,0,0,0,0,0,0,0,0,-1,573,379,0,0
-644,645,0,0,0,0,0,0,0,0,0,-1,580,379,0,0
-637,645,0,0,0,0,0,0,0,0,0,-1,587,379,0,0
-630,645,0,0,0,0,0,0,0,0,0,-1,594,379,0,0
-623,645,0,0,0,0,0,0,0,0,0,-1,601,379,0,0
-616,645,0,0,0,0,0,0,0,0,0,-1,608,379,0,0
-609,645,0,0,0,0,0,0,0,0,0,-1,615,379,0,0
-602,645,0,0,0,0,0,0,0,0,0,-1,622,379,0,0
-595,645,0,0,0,0,0,0,0,0,0,-1,629,379,0,0
-588,645,0,0,0,0,0,0,0,0,0,-1,636,379,0,0
-581,645,0,0,0,0,0,0,0,0,0,-1,643,379,0,0
-574,645,0,0,0,0,0,0,0,0,0,-1,650,379,0,0
-567,645,0,0,0,0,0,0,0,0,0,-1,657,379,0,0
-560,645,0,0,0,0,0,0,0,0,0,-1,664,379,0,0
-553,645,0,0,0,0,0,0,0,0,0,-1,671,379,0,0
-546,645,0,0,0,0,0,0,0,0,0,-1,678,379,0,0
-539,645,0,0,0,0,0,0,0,0,0,-1,685,379,0,0
-532,645,0,0,0,0,0,0,0,0,0,-1,692,379,0,0
-525,645,0,0,0,0,0,0,0,0,0,-1,699,379,0,0
-518,645,0,0,0,0,0,0,0,0,0,-1,706,379,0,0
-511,645,0,0,0,0,0,0,0,0,0,-1,713,379,0,0
-504,645,0,0,0,0,0,0,0,0,0,-1,720,379,0,0
-497,645,0,0,0,0,0,0,0,0,0,-1,727,379,0,0
-490,645,0,0,0,0,0,0,0,0,0,-1,734,379,0,0
-483,645,0,0,0,0,0,0,0,0,0,-1,741,379,0,0
-476,645,0,0,0,0,0,0,0,0,0,-1,748,379,0,0
-469,645,0,0,0,0,0,0,0,0,0,-1,755,379,0,0
-462,645,0,0,0,0,0,0,0,0,0,-1,762,379,0,0
-455,645,0,0,0,0,0,0,0,0,0,-1,769,379,0,0
-448,645,0,0,0,0,0,0,0,0,0,-1,776,379,0,0
-441,645,0,0,0,0,0,0,0,0,0,-1,783,379,0,0
-434,645,0,0,0,0,0,0,0,0,0,-1,790,379,0,0
-427,645,0,0,0,0,0,0,0,0,0,-1,797,379,0,0
-420,645,0,0,0,0,0,0,0,0,0,-1,804,379,0,0
-413,645,0,0,0,0,0,0,0,0,0,-1,811,379,0,0
-406,645,0,0,0,0,0,0,0,0,0,-1,818,379,0,0
-399,645,0,0,0,0,0,0,0,0,0,-1,825,379,0,0
-392,645,0,0,0,0,0,0,0,0,0,-1,832,379,0,0
-385,645,0,0,0,0,0,0,0,0,0,-1,839,379,0,0
-378,645,0,0,0,0,0,0,0,0,0,-1,846,379,0,0
-371,645,0,0,0,0,0,0,0,0,0,-1,853,379,0,0
-364,645,0,0,0,0,0,0,0,0,0,-1,860,379,0,0
-357,645,0,0,0,0,0,0,0,0,0,-1,867,379,0,0
-350,645,0,0,0,0,0,0,0,0,0,-1,874,379,0,0
-343,645,0,0,0,0,0,0,0,0,0,-1,881,379,0,0
-336,645,0,0,0,0,0,0,0,0,0,-1,888,379,0,0
-329,645,0,0,0,0,0,0,0,0,0,-1,895,379,0,0
-322,645,0,0,0,0,0,0,0,0,0,-1,902,379,0,0
-315,645,0,0,0,0,0,0,0,0,0,-1,909,379,0,0
-308,645,0,0,0,0,0,0,0,0,0,-1,916,379,0,0
-301,645,0,0,0,0,0,0,0,0,0,-1,923,379,0,0
-294,645,0,0,0,0,0,0,0,0,0,-1,930,379,0,0
-287,645,0,0,0,0,0,0,0,0,0,-1,937,379,0,0
-280,645,0,0,0,0,0,0,0,0,0,-1,944,379,0,0
-273,645,0,0,0,0,0,0,0,0,0,-1,951,379,0,0
-266,645,0,0,0,0,0,0,0,0,0,-1,958,379,0,0
-259,645,0,0,0,0,0,0,0,0,0,-1,965,379,0,0
-252,645,2.95691,-26.9133,0,0,0,0,0,0,0,-1,972,379,2.9569,26.9133
-245,645,2.73169,-27.0215,0,0,0,0,0,0,0,-1,979,379,2.73172,27.0215
-238,645,2.6665,-26.9464,0,0,0,0,0,0,0,-1,986,379,2.66649,26.9464
-231,645,1.89801,-26.437,0,0,0,0,0,0,0,-1,993,379,1.89804,26.437
-224,645,9.92029,-21.3227,0,0,0,0,0,0,0,-1,1000,379,9.92026,21.3227
-217,645,8.09961,-19.0991,0,0,0,0,0,0,0,-1,1007,379,8.0996,19.0991
-210,645,3.58685,-26.664,0,0,0,0,0,0,0,-1,1014,379,3.58685,26.664
-203,645,3.70166,-25.3203,0,0,0,0,0,0,0,-1,1021,379,3.70166,25.3203
-196,645,3.98962,-24.5246,0,0,0,0,0,0,0,-1,1028,379,3.98963,24.5246
-189,645,3.8988,-23.8797,0,0,0,0,0,0,0,-1,1035,379,3.89886,23.8797
-182,645,3.80847,-27.3266,0,0,0,0,0,0,0,-1,1042,379,3.80845,27.3266
-175,645,4.42578,-28.4171,0,0,0,0,0,0,0,-1,1049,379,4.42583,28.4171
-168,645,5.12219,-29.4183,-0.00316009,-0.00147618,-0.00272414,0.000533154,-0.00516942,-0.935277,0.00363705,0.0463179,1056,379,5.12215,29.4183
-161,645,4.90649,-29.6241,-0.00195866,0.0020924,-0.00358796,0.00418709,-0.00405336,-1.04237,0.00475783,0.0468965,1063,379,4.90646,29.6242
-154,645,4.89587,-29.0758,-0.000800755,0.00608191,-0.00416872,0.00804622,-0.00276506,-1.13045,0.00648538,0.0421478,1070,379,4.89585,29.0758
-147,645,4.94214,-29.4057,6.08297e-05,0.0098533,-0.00449343,0.0116027,-0.00168854,-1.19953,0.00835503,0.0375586,1077,379,4.94217,29.4057
-140,645,4.90479,-29.8236,0.000691565,0.0132501,-0.00453647,0.0147173,-0.000775703,-1.25798,0.0100801,0.0417575,1084,379,4.90479,29.8236
-133,645,5.16223,-30.1672,0.000957458,0.0160192,-0.00431269,0.0171667,-0.000189994,-1.31076,0.0115083,0.0470256,1091,379,5.16223,30.1672
-126,645,5.31226,-30.4559,-0.00113011,0.00676104,-0.000335628,0.00677529,-0.00114436,-1.52837,0.00494267,0.0352247,1098,379,5.31224,30.4559
-119,645,5.255,-30.8706,-0.00379455,-0.00605473,0.0043031,-0.000475621,-0.00937365,0.656987,0.00609675,0.0204818,1105,379,5.25497,30.8706
-112,645,5.19165,-31.2364,-0.005865,-0.0152729,0.00809619,-0.00120543,-0.0199325,0.522229,0.0129053,0.0137296,1112,379,5.19163,31.2364
-105,645,5.18713,-31.4636,-0.008192,-0.0262045,0.0120858,-0.00212574,-0.0322707,0.465191,0.0208414,0.0203567,1119,379,5.18718,31.4636
-98,645,5.13196,-31.6328,-0.0103832,-0.0375512,0.0157554,-0.00316439,-0.04477,0.429637,0.0288498,0.0324606,1126,379,5.13199,31.6328
-91,645,5.14075,-31.9554,-0.0121159,-0.0474916,0.0190959,-0.00377469,-0.0558329,0.411829,0.0360296,0.0435633,1133,379,5.14075,31.9554
-84,645,5.19006,-32.2795,-0.0137952,-0.0556768,0.0214132,-0.00478539,-0.0646867,0.398276,0.0416211,0.0497526,1140,379,5.1901,32.2795
-77,645,5.078,-32.6368,-0.0148278,-0.0595196,0.0221182,-0.00573245,-0.0686149,0.390139,0.0439572,0.0303199,1147,379,5.07796,32.6368
-70,645,5.01001,-32.8461,-0.0144156,-0.0582869,0.0215885,-0.00557404,-0.0671284,0.388711,0.0430148,0.0136972,1154,379,5.01003,32.8461
-63,645,4.99792,-33.0368,-0.0124752,-0.0522023,0.0188434,-0.00495929,-0.0597182,0.379525,0.0382663,0.0110573,1161,379,4.99792,33.0368
-56,645,4.96948,-33.2349,-0.00846439,-0.0435809,0.0158426,-0.00237355,-0.0496717,0.367039,0.0323523,0.0126143,1168,379,4.96945,33.2349
-49,645,4.95129,-33.4446,-0.00526335,-0.0334446,0.01249,-0.000524573,-0.0381834,0.362627,0.0252826,0.0106787,1175,379,4.95129,33.4446
-42,645,4.93359,-33.6227,-0.00297877,-0.0234919,0.00944629,0.000708464,-0.0271792,0.372148,0.0183602,0.0101798,1182,379,4.93364,33.6228
-35,645,4.90088,-33.7967,-0.00131272,-0.0145973,0.0068501,0.00158668,-0.0174967,0.4004,0.0122277,0.0105952,1189,379,4.90083,33.7967
-28,645,4.85059,-33.9756,0.000120573,-0.0077045,0.00468403,0.00231116,-0.00989509,0.437452,0.00748698,0.00913801,1196,379,4.85063,33.9756
-21,645,4.81543,-34.1237,0.00173292,0.000292406,0.00224739,0.00337265,-0.00134732,0.630326,0.00280746,0.0101962,1203,379,4.81541,34.1237
-14,645,4.81958,-34.2692,0.00232524,0.00556544,0.000830816,0.00576605,0.00212463,1.33387,0.00336721,0.0106489,1210,379,4.81964,34.2692
-7,645,4.82019,-34.4021,0.00179143,0.00611699,0.000771048,0.00625032,0.0016581,1.39957,0.00373881,0.014813,1217,379,4.82024,34.4021
0,645,4.82397,-34.493,0.00120762,0.00666943,0.000661141,0.00674832,0.00112873,1.45203,0.00417383,0.0259747,1224,379,4.82403,34.493
7,645,4.78369,-34.5527,0.000493989,0.00732865,0.000516332,0.00736743,0.000455202,1.49582,0.00476714,0.0178929,1231,379,4.78363,34.5527
14,645,4.77759,-34.6231,-0.000308856,0.00801278,0.000322887,0.00802529,-0.000321365,1.53207,0.00546047,0.0169692,1238,379,4.77755,34.6231
21,645,4.75122,-34.738,-0.000423517,0.00880549,0.000105716,0.0088067,-0.000424728,1.55934,0.00601771,0.0116091,1245,379,4.75124,34.738
28,645,4.74438,-34.8167,-0.000331338,0.00959074,0.000140378,0.00959272,-0.000333323,1.55665,0.0065091,0.0100548,1252,379,4.74441,34.8167
35,645,4.73145,-34.8612,-0.000167738,0.0104794,0.000185161,0.0104827,-0.000170957,1.55341,0.00704611,0.00900906,1259,379,4.7314,34.8612
42,645,4.71204,-34.9138,-5.48691e-05,0.0113714,0.000113835,0.0113726,-5.60028e-05,1.56084,0.00760046,0.00899573,1266,379,4.71205,34.9139
49,645,4.71399,-34.9283,-0.000150735,0.0120251,0.000182291,0.0120278,-0.000153463,1.55583,0.0080702,0.0121619,1273,379,4.71393,34.9283
56,645,4.71484,-34.9124,-2.54401e-05,0.012122,0.000354722,0.0121324,-3.57893e-05,1.54163,0.00810022,0.0127755,1280,379,4.71482,34.9125
63,645,4.70544,-34.9275,9.45743e-05,0.0120295,0.000644681,0.0120642,5.98514e-05,1.51699,0.00802292,0.0132174,1287,379,4.7055,34.9275
70,645,4.66785,-34.9123,0.000181212,0.0118797,0.000955067,0.0119572,0.000103753,1.48987,0.0079371,0.0166124,1294,379,4.66785,34.9123
77,645,4.65112,-34.9055,-0.000167512,0.0118096,0.00139989,0.0119711,-0.000328956,1.45598,0.00809259,0.0188509,1301,379,4.65112,34.9055
84,645,4.66956,-34.8633,-0.000733979,0.0116867,0.00167429,0.0119085,-0.000955711,1.43913,0.00827597,0.0135867,1308,379,4.66957,34.8633
91,645,4.63269,-34.8341,-0.00141334,0.0111892,0.00191232,0.011473,-0.00169712,1.42347,0.00827261,0.015609,1315,379,4.63266,34.8341
98,645,4.65466,-34.7304,-0.00198542,0.0106564,0.00200938,0.0109681,-0.00229712,1.4169,0.00818592,0.0148354,1322,379,4.65462,34.7304
105,645,4.65771,-34.6341,-0.00244342,0.0101926,0.00193096,0.0104811,-0.00273191,1.42249,0.00805398,0.011006,1329,379,4.65772,34.6341
112,645,4.61365,-34.548,-0.00277971,0.00983625,0.00180787,0.0100902,-0.00303367,1.43124,0.00793378,0.00934103,1336,379,4.61363,34.548
119,645,4.5824,-34.4337,-0.00288681,0.00948106,0.00163792,0.0096943,-0.00310005,1.44134,0.00770692,0.00927563,1343,379,4.58241,34.4337
126,645,4.55469,-34.3063,-0.00328792,0.00915648,0.00140723,0.00931363,-0.00344507,1.45959,0.00762156,0.0108158,1350,379,4.55466,34.3063
133,645,4.55933,-34.1834,-0.00309538,0.00897007,0.000869244,0.00903238,-0.00315769,1.49924,0.00730529,0.0122561,1357,379,4.55934,34.1835
140,645,4.55664,-34.0488,-0.00234467,0.00874986,0.000514073,0.00877363,-0.00236844,1.52459,0.00677794,0.0126392,1364,379,4.55658,34.0488
147,645,4.51904,-33.9002,-0.00137268,0.00887309,0.000454508,0.00889321,-0.0013928,1.52655,0.00644345,0.0129088,1371,379,4.51901,33.9002
154,645,4.50952,-33.7237,-0.000483012,0.00908836,9.53647e-05,0.00908931,-0.000483962,1.56083,0.00622714,0.0118642,1378,379,4.50954,33.7237
161,645,4.48779,-33.538,0.000220178,0.00956611,-0.000207574,0.00957071,0.00021557,-1.5486,0.00630985,0.0142614,1385,379,4.48777,33.538
168,645,4.4834,-33.3531,0.00058469,0.00965555,-0.000358631,0.0096697,0.000570533,-1.53134,0.00626496,0.0159641,1392,379,4.48341,33.353
175,645,4.48975,-33.1516,0.000291646,0.00964137,-7.04059e-05,0.0096419,0.000291117,-1.56327,0.00633312,0.013673,1399,379,4.48977,33.1515
182,645,4.43323,-32.9393,2.81065e-05,0.00945648,0.000229321,0.00946206,2.2532e-05,1.54649,0.00630054,0.0107568,1406,379,4.43328,32.9393
189,645,4.41382,-32.6805,-0.00040706,0.00886265,0.000529231,0.00889277,-0.000437177,1.51395,0.00607948,0.0121465,1413,379,4.41384,32.6805
196,645,4.38208,-32.4601,-0.000766643,0.00877987,0.00107626,0.00889971,-0.000886476,1.45991,0.00624962,0.0123602,1420,379,4.3821,32.4601
203,645,4.33728,-32.1842,-0.00172841,0.00881495,0.00218248,0.00924887,-0.00216233,1.37454,0.00699893,0.012055,1427,379,4.33732,32.1842
210,645,4.35852,-31.8417,-0.00284865,0.00938875,0.00306153,0.0101119,-0.00357184,1.33883,0.0081956,0.0197309,1434,379,4.35856,31.8417
217,645,4.33716,-31.656,-0.00299517,0.0100559,0.00304852,0.0107329,-0.00367214,1.35228,0.00864337,0.0383086,1441,379,4.33711,31.656
224,645,4.15479,-31.5788,0,0,0,0,0,0,0,-1,1448,379,4.15473,31.5788
231,645,4.19482,-31.0693,0,0,0,0,0,0,0,-1,1455,379,4.19481,31.0693
238,645,4.20105,-30.733,-0.00259287,0.0138761,0.00340485,0.0145523,-0.00326904,1.37476,0.010955,0.0256573,1462,379,4.20107,30.733
245,645,4.18982,-30.4293,-0.00293261,0.0151989,0.00354717,0.0158682,-0.00360186,1.38432,0.0119616,0.0159306,1469,379,4.18987,30.4293
252,645,4.19519,-29.9884,-0.00285492,0.0164819,0.0038203,0.0172093,-0.00358232,1.38265,0.0128347,0.0283312,1476,379,4.19518,29.9884
259,645,4.04163,-29.5551,-0.00269392,0.0177898,0.00429514,0.0186539,-0.0035581,1.37225,0.013776,0.0465261,1483,379,4.04165,29.5551
266,645,3.92908,-29.2444,-0.00266117,0.0188663,0.00481217,0.019893,-0.0036879,1.36059,0.0146469,0.033021,1490,379,3.92902,29.2444
273,645,4.0105,-29.0428,-0.0037539,0.0183232,0.00651222,0.020101,-0.00553169,1.3043,0.0155755,0.0235621,1497,379,4.01045,29.0428
280,645,4.03088,-28.8019,-0.00522151,0.0187807,0.0083475,0.0213983,-0.00783914,1.26693,0.0174749,0.0481935,1504,379,4.03092,28.8019
287,645,4.0675,-28.5872,0,0,0,0,0,0,0,-1,1511,379,4.06754,28.5872
294,645,3.95911,-28.243,0,0,0,0,0,0,0,-1,1518,379,3.95909,28.243
301,645,0.0356445,-19.925,0,0,0,0,0,0,0,-1,1525,379,0.0356305,19.925
308,645,4.37341,-25.1157,0,0,0,0,0,0,0,-1,1532,379,4.37337,25.1157
315,645,3.73743,-23.8562,0,0,0,0,0,0,0,-1,1539,379,3.73748,23.8562
322,645,4.29028,-27.4981,0,0,0,0,0,0,0,-1,1546,379,4.29029,27.4981
329,645,3.61487,-26.396,0,0,0,0,0,0,0,-1,1553,379,3.61483,26.396
336,645,5.78894,-25.6707,0,0,0,0,0,0,0,-1,1560,379,5.78891,25.6707
343,645,4.77185,-23.7191,0,0,0,0,0,0,0,-1,1567,379,4.77184,23.7191
350,645,4.76404,-22.1987,0,0,0,0,0,0,0,-1,1574,379,4.76399,22.1987
357,645,4.61316,-21.967,0,0,0,0,0,0,0,-1,1581,379,4.61316,21.967
364,645,-0.0794678,-3.22021,0,0,0,0,0,0,0,-1,1588,379,-0.0794987,3.22021
371,645,0,0,0,0,0,0,0,0,0,-1,1595,379,0,0
378,645,0,0,0,0,0,0,0,0,0,-1,1602,379,0,0
385,645,0,0,0,0,0,0,0,0,0,-1,1609,379,0,0
392,645,0,0,0,0,0,0,0,0,0,-1,1616,379,0,0
399,645,0,0,0,0,0,0,0,0,0,-1,1623,379,0,0
406,645,0,0,0,0,0,0,0,0,0,-1,1630,379,0,0
413,645,0,0,0,0,0,0,0,0,0,-1,1637,379,0,0
420,645,0,0,0,0,0,0,0,0,0,-1,1644,379,0,0
427,645,0,0,0,0,0,0,0,0,0,-1,1651,379,0,0
434,645,0,0,0,0,0,0,0,0,0,-1,1658,379,0,0
441,645,0,0,0,0,0,0,0,0,0,-1,1665,379,0,0
448,645,0,0,0,0,0,0,0,0,0,-1,1672,379,0,0
455,645,0,0,0,0,0,0,0,0,0,-1,1679,379,0,0
462,645,0,0,0,0,0,0,0,0,0,-1,1686,379,0,0
469,645,0,0,0,0,0,0,0,0,0,-1,1693,379,0,0
476,645,0,0,0,0,0,0,0,0,0,-1,1700,379,0,0
483,645,0,0,0,0,0,0,0,0,0,-1,1707,379,0,0
490,645,0,0,0,0,0,0,0,0,0,-1,1714,379,0,0
497,645,0,0,0,0,0,0,0,0,0,-1,1721,379,0,0
504,645,0,0,0,0,0,0,0,0,0,-1,1728,379,0,0
511,645,0,0,0,0,0,0,0,0,0,-1,1735,379,0,0
518,645,0,0,0,0,0,0,0,0,0,-1,1742,379,0,0
525,645,0,0,0,0,0,0,0,0,0,-1,1749,379,0,0
532,645,0,0,0,0,0,0,0,0,0,-1,1756,379,0,0
539,645,0,0,0,0,0,0,0,0,0,-1,1763,379,0,0
546,645,0,0,0,0,0,0,0,0,0,-1,1770,379,0,0
553,645,0,0,0,0,0,0,0,0,0,-1,1777,379,0,0
560,645,0,0,0,0,0,0,0,0,0,-1,1784,379,0,0
567,645,0,0,0,0,0,0,0,0,0,-1,1791,379,0,0
574,645,0,0,0,0,0,0,0,0,0,-1,1798,379,0,0
581,645,0,0,0,0,0,0,0,0,0,-1,1805,379,0,0
588,645,0,0,0,0,0,0,0,0,0,-1,1812,379,0,0
595,645,0,0,0,0,0,0,0,0,0,-1,1819,379,0,0
602,645,0,0,0,0,0,0,0,0,0,-1,1826,379,0,0
609,645,0,0,0,0,0,0,0,0,0,-1,1833,379,0,0
616,645,0,0,0,0,0,0,0,0,0,-1,1840,379,0,0
623,645,0,0,0,0,0,0,0,0,0,-1,1847,379,0,0
630,645,0,0,0,0,0,0,0,0,0,-1,1854,379,0,0
637,645,0,0,0,0,0,0,0,0,0,-1,1861,379,0,0
644,645,0,0,0,0,0,0,0,0,0,-1,1868,379,0,0
651,645,0,0,0,0,0,0,0,0,0,-1,1875,379,0,0
658,645,0,0,0,0,0,0,0,0,0,-1,1882,379,0,0
665,645,0,0,0,0,0,0,0,0,0,-1,1889,379,0,0
672,645,0,0,0,0,0,0,0,0,0,-1,1896,379,0,0
679,645,0,0,0,0,0,0,0,0,0,-1,1903,379,0,0
686,645,0,0,0,0,0,0,0,0,0,-1,1910,379,0,0
693,645,0,0,0,0,0,0,0,0,0,-1,1917,379,0,0
700,645,0,0,0,0,0,0,0,0,0,-1,1924,379,0,0
707,645,0,0,0,0,0,0,0,0,0,-1,1931,379,0,0
714,645,0,0,0,0,0,0,0,0,0,-1,1938,379,0,0
721,645,0,0,0,0,0,0,0,0,0,-1,1945,379,0,0
728,645,0,0,0,0,0,0,0,0,0,-1,1952,379,0,0
735,645,0,0,0,0,0,0,0,0,0,-1,1959,379,0,0
742,645,0,0,0,0,0,0,0,0,0,-1,1966,379,0,0
749,645,0,0,0,0,0,0,0,0,0,-1,1973,379,0,0
756,645,0,0,0,0,0,0,0,0,0,-1,1980,379,0,0
763,645,0,0,0,0,0,0,0,0,0,-1,1987,379,0,0
770,645,0,0,0,0,0,0,0,0,0,-1,1994,379,0,0
777,645,0,0,0,0,0,0,0,0,0,-1,2001,379,0,0
784,645,0,0,0,0,0,0,0,0,0,-1,2008,379,0,0
791,645,0,0,0,0,0,0,0,0,0,-1,2015,379,0,0
798,645,0,0,0,0,0,0,0,0,0,-1,2022,379,0,0
805,645,0,0,0,0,0,0,0,0,0,-1,2029,379,0,0
812,645,0,0,0,0,0,0,0,0,0,-1,2036,379,0,0
-700,638,0,0,0,0,0,0,0,0,0,-1,524,386,0,0
-693,638,0,0,0,0,0,0,0,0,0,-1,531,386,0,0
-686,638,0,0,0,0,0,0,0,0,0,-1,538,386,0,0
-679,638,0,0,0,0,0,0,0,0,0,-1,545,386,0,0
-672,638,0,0,0,0,0,0,0,0,0,-1,552,386,0,0
-665,638,0,0,0,0,0,0,0,0,0,-1,559,386,0,0
-658,638,0,0,0,0,0,0,0,0,0,-1,566,386,0,0
-651,638,0,0,0,0,0,0,0,0,0,-1,573,386,0,0
-644,638,0,0,0,0,0,0,0,0,0,-1,580,386,0,0
-637,638,0,0,0,0,0,0,0,0,0,-1,587,386,0,0
-630,638,0,0,0,0,0,0,0,0,0,-1,594,386,0,0
-623,638,0,0,0,0,0,0,0,0,0,-1,601,386,0,0
-616,638,0,0,0,0,0,0,0,0,0,-1,608,386,0,0
-609,638,0,0,0,0,0,0,0,0,0,-1,615,386,0,0
-602,638,0,0,0,0,0,0,0,0,0,-1,622,386,0,0
-595,638,0,0,0,0,0,0,0,0,0,-1,629,386,0,0
-588,638,0,0,0,0,0,0,0,0,0,-1,636,386,0,0
-581,638,0,0,0,0,0,0,0,0,0,-1,643,386,0,0
-574,638,0,0,0,0,0,0,0,0,0,-1,650,386,0,0
-567,638,0,0,0,0,0,0,0,0,0,-1,657,386,0,0
-560,638,0,0,0,0,0,0,0,0,0,-1,664,386,0,0
-553,638,0,0,0,0,0,0,0,0,0,-1,671,386,0,0
-546,638,0,0,0,0,0,0,0,0,0,-1,678,386,0,0
-539,638,0,0,0,0,0,0,0,0,0,-1,685,386,0,0
-532,638,0,0,0,0,0,0,0,0,0,-1,692,386,0,0
-525,638,0,0,0,0,0,0,0,0,0,-1,699,386,0,0
-518,638,0,0,0,0,0,0,0,0,0,-1,706,386,0,0
-511,638,0,0,0,0,0,0,0,0,0,-1,713,386,0,0
-504,638,0,0,0,0,0,0,0,0,0,-1,720,386,0,0
-497,638,0,0,0,0,0,0,0,0,0,-1,727,386,0,0
-490,638,0,0,0,0,0,0,0,0,0,-1,734,386,0,0
-483,638,0,0,0,0,0,0,0,0,0,-1,741,386,0,0
-476,638,0,0,0,0,0,0,0,0,0,-1,748,386,0,0
-469,638,0,0,0,0,0,0,0,0,0,-1,755,386,0,0
-462,638,0,0,0,0,0,0,0,0,0,-1,762,386,0,0
-455,638,0,0,0,0,0,0,0,0,0,-1,769,386,0,0
-448,638,0,0,0,0,0,0,0,0,0,-1,776,386,0,0
-441,638,0,0,0,0,0,0,0,0,0,-1,783,386,0,0
-434,638,0,0,0,0,0,0,0,0,0,-1,790,386,0,0
-427,638,0,0,0,0,0,0,0,0,0,-1,797,386,0,0
-420,638,0,0,0,0,0,0,0,0,0,-1,804,386,0,0
-413,638,0,0,0,0,0,0,0,0,0,-1,811,386,0,0
-406,638,0,0,0,0,0,0,0,0,0,-1,818,386,0,0
-399,638,0,0,0,0,0,0,0,0,0,-1,825,386,0,0
-392,638,0,0,0,0,0,0,0,0,0,-1,832,386,0,0
-385,638,0,0,0,0,0,0,0,0,0,-1,839,386,0,0
-378,638,0,0,0,0,0,0,0,0,0,-1,846,386,0,0
-371,638,0,0,0,0,0,0,0,0,0,-1,853,386,0,0
-364,638,0,0,0,0,0,0,0,0,0,-1,860,386,0,0
-357,638,0,0,0,0,0,0,0,0,0,-1,867,386,0,0
-350,638,0,0,0,0,0,0,0,0,0,-1,874,386,0,0
-343,638,0,0,0,0,0,0,0,0,0,-1,881,386,0,0
-336,638,0,0,0,0,0,0,0,0,0,-1,888,386,0,0
-329,638,0,0,0,0,0,0,0,0,0,-1,895,386,0,0
-322,638,0,0,0,0,0,0,0,0,0,-1,902,386,0,0
-315,638,0,0,0,0,0,0,0,0,0,-1,909,386,0,0
-308,638,0,0,0,0,0,0,0,0,0,-1,916,386,0,0
-301,638,0,0,0,0,0,0,0,0,0,-1,923,386,0,0
-294,638,0,0,0,0,0,0,0,0,0,-1,930,386,0,0
-287,638,0,0,0,0,0,0,0,0,0,-1,937,386,0,0
-280,638,0,0,0,0,0,0,0,0,0,-1,944,386,0,0
-273,638,0,0,0,0,0,0,0,0,0,-1,951,386,0,0
-266,638,5.34705,-26.6979,0,0,0,0,0,0,0,-1,958,386,5.34704,26.6979
-259,638,7.30426,-26.7659,0,0,0,0,0,0,0,-1,965,386,7.30423,26.7659
-252,638,9.31195,-27.1175,0,0,0,0,0,0,0,-1,972,386,9.31197,27.1175
-245,638,3.35309,-26.4681,0,0,0,0,0,0,0,-1,979,386,3.35311,26.4681
-238,638,2.93518,-26.3649,0,0,0,0,0,0,0,-1,986,386,2.93516,26.3649
-231,638,2.36829,-26.0088,0,0,0,0,0,0,0,-1,993,386,2.3683,26.0088
-224,638,1.80823,-25.8195,0,0,0,0,0,0,0,-1,1000,386,1.8082,25.8196
-217,638,3.34961,-27.6036,0,0,0,0,0,0,0,-1,1007,386,3.3496,27.6036
-210,638,3.4826,-26.5204,0,0,0,0,0,0,0,-1,1014,386,3.48262,26.5204
-203,638,3.61267,-25.3666,0,0,0,0,0,0,0,-1,1021,386,3.61262,25.3666
-196,638,3.92346,-24.3737,0,0,0,0,0,0,0,-1,1028,386,3.92344,24.3737
-189,638,4.1333,-23.6895,0,0,0,0,0,0,0,-1,1035,386,4.13334,23.6895
-182,638,4.18262,-25.9996,0,0,0,0,0,0,0,-1,1042,386,4.18259,25.9996
-175,638,5.17749,-28.1918,0,0,0,0,0,0,0,-1,1049,386,5.17754,28.1918
-168,638,5.02283,-28.7931,-0.00218084,0.00397935,-0.00470995,0.00652692,-0.00472841,-1.07497,0.00652586,0.0414405,1056,386,5.02277,28.7931
-161,638,5.16431,-29.1636,-0.00134939,0.0054475,-0.00495778,0.00805979,-0.00396168,-1.08585,0.00707375,0.0371426,1063,386,5.16432,29.1636
-154,638,5.15991,-29.3689,-0.000551026,0.00743207,-0.00503164,0.00986312,-0.00298208,-1.12072,0.00776278,0.0308692,1070,386,5.15985,29.3689
-147,638,5.10095,-29.6108,7.85582e-06,0.00939239,-0.00496825,0.0115339,-0.00213368,-1.16382,0.00849035,0.0254377,1077,386,5.1009,29.6108
-140,638,5.07678,-29.9685,0.000465472,0.0112601,-0.00475677,0.0130571,-0.00133151,-1.2096,0.00918078,0.0224628,1084,386,5.07679,29.9685
-133,638,5.04724,-30.4026,0.000684483,0.0128438,-0.00436151,0.0142464,-0.000718179,-1.25964,0.00974583,0.0197597,1091,386,5.04722,30.4026
-126,638,5.02161,-30.6999,-0.000382356,0.00826351,-0.00202182,0.00871294,-0.000831793,-1.35206,0.00610481,0.0167442,1098,386,5.02164,30.6999
-119,638,4.97827,-31.0441,-0.00183255,0.00143657,0.00074246,0.00159729,-0.00199327,1.35761,0.00207721,0.0165707,1105,386,4.97828,31.0441
-112,638,4.95093,-31.347,-0.00302475,-0.00359959,0.00309701,-0.000201849,-0.00642249,0.739128,0.00421599,0.014718,1112,386,4.9509,31.3469
-105,638,4.94897,-31.616,-0.00441945,-0.00994612,0.00555962,-0.000974287,-0.0133913,0.554761,0.00862113,0.0163478,1119,386,4.94891,31.616
-98,638,4.92737,-31.8651,-0.0057622,-0.0169795,0.00786049,-0.00171455,-0.0210272,0.475525,0.013483,0.0165869,1126,386,4.92736,31.8651
-91,638,4.83594,-32.1405,-0.00679144,-0.0230903,0.00996413,-0.00206854,-0.0278132,0.442624,0.0178925,0.0128513,1133,386,4.83599,32.1405
-84,638,4.80786,-32.4012,-0.00783933,-0.0283368,0.0114695,-0.0027067,-0.0334694,0.420775,0.0214676,0.014764,1140,386,4.80784,32.4012
-77,638,4.80298,-32.6377,-0.00849043,-0.03096,0.0119127,-0.00335048,-0.0360999,0.407338,0.0230312,0.0120596,1147,386,4.803,32.6377
-70,638,4.80493,-32.8693,-0.00817779,-0.0304451,0.01164,-0.00320406,-0.0354188,0.403814,0.0226203,0.0110336,1154,386,4.80495,32.8693
-63,638,4.79126,-33.0897,-0.00699386,-0.0273199,0.0101383,-0.00280165,-0.0315122,0.392091,0.0201393,0.0113451,1161,386,4.7913,33.0897
-56,638,4.7738,-33.291,-0.00556038,-0.0228938,0.00830848,-0.00222115,-0.0262331,0.382149,0.0167974,0.0138581,1168,386,4.77378,33.291
-49,638,4.75879,-33.4707,-0.00422954,-0.0177832,0.00629033,-0.00176009,-0.0202526,0.374092,0.012955,0.0124742,1175,386,4.75874,33.4707
-42,638,4.76086,-33.6587,-0.00302046,-0.0129004,0.00462284,-0.00119477,-0.0147261,0.376125,0.00944433,0.0120246,1182,386,4.76087,33.6587
-35,638,4.74121,-33.8275,-0.00208044,-0.00859988,0.00321313,-0.000763049,-0.00991727,0.3891,0.00637241,0.0115491,1189,386,4.74123,33.8275
-28,638,4.72522,-33.9959,-0.00125429,-0.00531329,0.00200601,-0.000430206,-0.00613737,0.389789,0.00395598,0.0110245,1196,386,4.72517,33.9959
-21,638,4.68665,-34.1326,-0.000283397,-0.00124408,0.000619609,2.02541e-05,-0.00154773,0.455671,0.00103864,0.0119613,1203,386,4.6866,34.1326
-14,638,4.68103,-34.2839,0.000330189,0.00130078,-0.000193585,0.00133796,0.000293003,-1.38102,0.000812121,0.0120635,1210,386,4.68097,34.2839
-7,638,4.71094,-34.4289,0.00049817,0.00126159,-0.00022732,0.00132415,0.000435609,-1.30223,0.000779267,0.0177421,1217,386,4.71092,34.4289
0,638,4.75635,-34.5129,0.00054775,0.00139962,-0.000307312,0.00149891,0.00044846,-1.25829,0.000888358,0.0323088,1224,386,4.75637,34.513
7,638,4.67383,-34.5905,0.000447123,0.00170554,-0.000378822,0.00181078,0.000341887,-1.29983,0.0011109,0.0265477,1231,386,4.67383,34.5905
14,638,4.66309,-34.659,0.000256282,0.00219026,-0.000479637,0.00230268,0.000143865,-1.34057,0.00148948,0.0143742,1238,386,4.66313,34.659
21,638,4.68726,-34.7576,0.000268301,0.00280494,-0.000573787,0.00292869,0.000144548,-1.35837,0.0019061,0.0119342,1245,386,4.6872,34.7576
28,638,4.67517,-34.8229,0.000468446,0.00356515,-0.000701672,0.00371672,0.000316875,-1.35805,0.00237923,0.00959265,1252,386,4.67513,34.8229
35,638,4.67725,-34.8609,0.000687802,0.00425381,-0.000755911,0.00440743,0.000534184,-1.3703,0.0027774,0.0107273,1259,386,4.67724,34.8609
42,638,4.70667,-34.9138,0.000799892,0.00507093,-0.000809291,0.00521913,0.000651687,-1.38967,0.00328382,0.00970555,1266,386,4.70671,34.9138
49,638,4.71545,-34.9176,0.000932698,0.00566823,-0.000761471,0.00578766,0.000813266,-1.41522,0.00361795,0.00849597,1273,386,4.71545,34.9176
56,638,4.69824,-34.9145,0.000996164,0.00586591,-0.000730502,0.00597313,0.000888944,-1.42506,0.00372133,0.0115567,1280,386,4.69825,34.9145
63,638,4.68762,-34.9255,0.00091391,0.00582283,-0.000626786,0.0059016,0.000835144,-1.44579,0.00368767,0.0146668,1287,386,4.68761,34.9255
70,638,4.66614,-34.9452,0.000861379,0.00563961,-0.000449848,0.00568159,0.000819397,-1.47774,0.00354629,0.019367,1294,386,4.66617,34.9452
77,638,4.67102,-34.9154,0.000684429,0.00548519,-0.000106047,0.00548753,0.000682088,-1.54872,0.00345352,0.0188212,1301,386,4.67105,34.9154
84,638,4.7356,-34.8601,0.000311176,0.00520594,7.54059e-05,0.0052071,0.000310015,1.5554,0.00337282,0.0133364,1308,386,4.73561,34.8601
91,638,4.73669,-34.7993,-0.000202968,0.00474107,0.00026225,0.00475494,-0.00021684,1.51795,0.00324466,0.0148976,1315,386,4.73675,34.7993
98,638,4.73315,-34.7209,-0.000657263,0.00427173,0.000379127,0.00430072,-0.000686254,1.49448,0.00312115,0.0137543,1322,386,4.73314,34.7209
105,638,4.7356,-34.6505,-0.00087953,0.00386898,0.000387284,0.00390036,-0.000910909,1.48995,0.00295111,0.009921,1329,386,4.73561,34.6505
112,638,4.7196,-34.583,-0.00103519,0.00364784,0.000299025,0.00366686,-0.0010542,1.50729,0.00286145,0.00977399,1336,386,4.71967,34.583
119,638,4.70056,-34.462,-0.00110985,0.00350451,0.000204748,0.00351357,-0.00111892,1.52654,0.00279114,0.0119669,1343,386,4.70062,34.462
126,638,4.68567,-34.3245,-0.00124243,0.00355452,3.14646e-05,0.00355473,-0.00124264,1.56424,0.00287499,0.0152186,1350,386,4.68569,34.3244
133,638,4.66443,-34.1861,-0.00118705,0.00368485,-0.000196041,0.00369273,-0.00119493,-1.53064,0.00294215,0.0158114,1357,386,4.6644,34.1861
140,638,4.67725,-34.0437,-0.000829769,0.00391934,-0.000400172,0.00395282,-0.000863253,-1.48732,0.00296515,0.0162009,1364,386,4.67726,34.0437
147,638,4.67322,-33.9069,-0.00032617,0.00424828,-0.0004631,0.00429469,-0.000372582,-1.47091,0.00299506,0.0171976,1371,386,4.67327,33.9069
154,638,4.68018,-33.7711,0.000125017,0.00466101,-0.000606511,0.00474071,4.53203e-05,-1.44014,0.00314547,0.0162128,1378,386,4.68014,33.7711
161,638,4.68213,-33.6029,0.000457418,0.00525577,-0.000614258,0.00533316,0.000380032,-1.44547,0.00343577,0.0189623,1385,386,4.68218,33.6029
168,638,4.6853,-33.3903,0.000541669,0.00558136,-0.000513264,0.0056331,0.000489927,-1.47033,0.00360321,0.023243,1392,386,4.68532,33.3903
175,638,4.69958,-33.1655,0.000272506,0.00594394,-0.000186392,0.00595006,0.000266387,-1.53798,0.00388096,0.0193099,1399,386,4.6996,33.1655
182,638,4.63464,-32.9529,2.50633e-05,0.00612359,0.000158376,0.0061277,2.09531e-05,1.54485,0.00407817,0.013687,1406,386,4.63459,32.9529
189,638,4.62671,-32.7067,-0.000192457,0.0062076,0.000590034,0.00626154,-0.000246399,1.47963,0.00425887,0.0125615,1413,386,4.62673,32.7067
196,638,4.61401,-32.4711,-0.000475582,0.00640831,0.00103349,0.00656013,-0.000627394,1.42495,0.00459684,0.0144614,1420,386,4.61402,32.4711
203,638,4.58362,-32.236,-0.00111953,0.00666933,0.00178159,0.00705749,-0.00150769,1.35627,0.00527981,0.0196935,1427,386,4.5836,32.236
210,638,4.56555,-31.9844,-0.00186748,0.00722737,0.00232996,0.00778952,-0.00242964,1.33405,0.00616461,0.0159537,1434,386,4.56554,31.9844
217,638,4.53906,-31.7105,-0.00204588,0.00785745,0.00233323,0.00837963,-0.00256806,1.35062,0.00661085,0.0120972,1441,386,4.53908,31.7105
224,638,4.50256,-31.4023,-0.00206485,0.00877674,0.00237735,0.00927514,-0.00256324,1.36415,0.00719175,0.0107706,1448,386,4.50251,31.4023
231,638,4.4646,-31.096,-0.00190829,0.00950247,0.00246259,0.0100113,-0.00241706,1.36706,0.00760892,0.0113839,1455,386,4.46463,31.096
238,638,4.44946,-30.7961,-0.00189568,0.0107547,0.00284725,0.011366,-0.00250698,1.35931,0.00853662,0.0124432,1462,386,4.44943,30.7962
245,638,4.45142,-30.4967,-0.00220528,0.0117252,0.0030364,0.0123582,-0.00283835,1.36525,0.00932999,0.0144787,1469,386,4.4514,30.4967
252,638,4.43945,-30.1848,-0.00218642,0.0127485,0.00333205,0.0134582,-0.00289609,1.36095,0.0100772,0.0188578,1476,386,4.43951,30.1848
259,638,4.38867,-29.8684,-0.00211459,0.0138427,0.00381552,0.0147081,-0.00297998,1.34776,0.0109349,0.0189263,1483,386,4.38871,29.8684
266,638,4.31055,-29.4906,-0.00215038,0.0147632,0.00431926,0.0158024,-0.00318955,1.33469,0.0117434,0.0126909,1490,386,4.31056,29.4906
273,638,4.3053,-29.151,-0.0030016,0.0144532,0.00568608,0.0161421,-0.00469049,1.28207,0.0126189,0.0113624,1497,386,4.30524,29.151
280,638,4.35437,-28.7428,-0.00401557,0.0149379,0.0071159,0.0173121,-0.00638976,1.24876,0.0141603,0.0205641,1504,386,4.35438,28.7428
287,638,4.53162,-28.1388,-0.00418638,0.0145999,0.00871725,0.0180216,-0.00760813,1.19675,0.015199,0.0371827,1511,386,4.53157,28.1388
294,638,4.28088,-27.949,-0.00503372,0.0142597,0.0105649,0.0189195,-0.00969352,1.1554,0.0168036,0.0464685,1518,386,4.28091,27.949
301,638,4.04407,-27.4644,0,0,0,0,0,0,0,-1,1525,386,4.04413,27.4644
308,638,4.59412,-26.745,0,0,0,0,0,0,0,-1,1532,386,4.5941,26.745
315,638,4.45288,-26.5981,0,0,0,0,0,0,0,-1,1539,386,4.45288,26.5981
322,638,4.4845,-26.8775,-0.0085873,0.00908299,0.0197866,0.0219174,-0.0214217,0.995377,0.0250224,0.0421827,1546,386,4.48453,26.8775
329,638,3.88562,-25.8197,-0.00936706,0.00751211,0.0219413,0.0225809,-0.0244359,0.968998,0.0271522,0.0475648,1553,386,3.88557,25.8197
336,638,3.34082,-24.6874,0,0,0,0,0,0,0,-1,1560,386,3.34084,24.6874
343,638,5.62451,-25.231,0,0,0,0,0,0,0,-1,1567,386,5.62449,25.2311
350,638,5.91162,-19.0222,0,0,0,0,0,0,0,-1,1574,386,5.91165,19.0222
357,638,0.387329,-3.01077,0,0,0,0,0,0,0,-1,1581,386,0.387332,3.01077
364,638,3.78149,-6.45215,0,0,0,0,0,0,0,-1,1588,386,3.78155,6.45216
371,638,4.18604,-6.71164,0,0,0,0,0,0,0,-1,1595,386,4.18598,6.71164
378,638,4.59045,-6.97113,0,0,0,0,0,0,0,-1,1602,386,4.5904,6.97112
385,638,0,0,0,0,0,0,0,0,0,-1,1609,386,0,0
392,638,0,0,0,0,0,0,0,0,0,-1,1616,386,0,0
399,638,0,0,0,0,0,0,0,0,0,-1,1623,386,0,0
406,638,0,0,0,0,0,0,0,0,0,-1,1630,386,0,0
413,638,0,0,0,0,0,0,0,0,0,-1,1637,386,0,0
420,638,0,0,0,0,0,0,0,0,0,-1,1644,386,0,0
427,638,0,0,0,0,0,0,0,0,0,-1,1651,386,0,0
434,638,0,0,0,0,0,0,0,0,0,-1,1658,386,0,0
441,638,0,0,0,0,0,0,0,0,0,-1,1665,386,0,0
448,638,0,0,0,0,0,0,0,0,0,-1,1672,386,0,0
455,638,0,0,0,0,0,0,0,0,0,-1,1679,386,0,0
462,638,0,0,0,0,0,0,0,0,0,-1,1686,386,0,0
469,638,0,0,0,0,0,0,0,0,0,-1,1693,386,0,0
476,638,0,0,0,0,0,0,0,0,0,-1,1700,386,0,0
483,638,0,0,0,0,0,0,0,0,0,-1,1707,386,0,0
490,638,0,0,0,0,0,0,0,0,0,-1,1714,386,0,0
497,638,0,0,0,0,0,0,0,0,0,-1,1721,386,0,0
504,638,0,0,0,0,0,0,0,0,0,-1,1728,386,0,0
511,638,0,0,0,0,0,0,0,0,0,-1,1735,386,0,0
518,638,0,0,0,0,0,0,0,0,0,-1,1742,386,0,0
525,638,0,0,0,0,0,0,0,0,0,-1,1749,386,0,0
532,638,0,0,0,0,0,0,0,0,0,-1,1756,386,0,0
539,638,0,0,0,0,0,0,0,0,0,-1,1763,386,0,0
546,638,0,0,0,0,0,0,0,0,0,-1,1770,386,0,0
553,638,0,0,0,0,0,0,0,0,0,-1,1777,386,0,0
560,638,0,0,0,0,0,0,0,0,0,-1,1784,386,0,0
567,638,0,0,0,0,0,0,0,0,0,-1,1791,386,0,0
574,638,0,0,0,0,0,0,0,0,0,-1,1798,386,0,0
581,638,0,0,0,0,0,0,0,0,0,-1,1805,386,0,0
588,638,0,0,0,0,0,0,0,0,0,-1,1812,386,0,0
595,638,0,0,0,0,0,0,0,0,0,-1,1819,386,0,0
602,638,0,0,0,0,0,0,0,0,0,-1,1826,386,0,0
609,638,0,0,0,0,0,0,0,0,0,-1,1833,386,0,0
616,638,0,0,0,0,0,0,0,0,0,-1,1840,386,0,0
623,638,0,0,0,0,0,0,0,0,0,-1,1847,386,0,0
630,638,0,0,0,0,0,0,0,0,0,-1,1854,386,0,0
637,638,0,0,0,0,0,0,0,0,0,-1,1861,386,0,0
644,638,0,0,0,0,0,0,0,0,0,-1,1868,386,0,0
651,638,0,0,0,0,0,0,0,0,0,-1,1875,386,0,0
658,638,0,0,0,0,0,0,0,0,0,-1,1882,386,0,0
665,638,0,0,0,0,0,0,0,0,0,-1,1889,386,0,0
672,638,0,0,0,0,0,0,0,0,0,-1,1896,386,0,0
679,638,0,0,0,0,0,0,0,0,0,-1,1903,386,0,0
686,638,0,0,0,0,0,0,0,0,0,-1,1910,386,0,0
693,638,0,0,0,0,0,0,0,0,0,-1,1917,386,0,0
700,638,0,0,0,0,0,0,0,0,0,-1,1924,386,0,0
707,638,0,0,0,0,0,0,0,0,0,-1,1931,386,0,0
714,638,0,0,0,0,0,0,0,0,0,-1,1938,386,0,0
721,638,0,0,0,0,0,0,0,0,0,-1,1945,386,0,0
728,638,0,0,0,0,0,0,0,0,0,-1,1952,386,0,0
735,638,0,0,0,0,0,0,0,0,0,-1,1959,386,0,0
742,638,0,0,0,0,0,0,0,0,0,-1,1966,386,0,0
749,638,0,0,0,0,0,0,0,0,0,-1,1973,386,0,0
756,638,0,0,0,0,0,0,0,0,0,-1,1980,386,0,0
763,638,0,0,0,0,0,0,0,0,0,-1,1987,386,0,0
770,638,0,0,0,0,0,0,0,0,0,-1,1994,386,0,0
777,638,0,0,0,0,0,0,0,0,0,-1,2001,386,0,0
784,638,0,0,0,0,0,0,0,0,0,-1,2008,386,0,0
791,638,0,0,0,0,0,0,0,0,0,-1,2015,386,0,0
798,638,0,0,0,0,0,0,0,0,0,-1,2022,386,0,0
805,638,0,0,0,0,0,0,0,0,0,-1,2029,386,0,0
812,638,0,0,0,0,0,0,0,0,0,-1,2036,386,0,0
-700,631,0,0,0,0,0,0,0,0,0,-1,524,393,0,0
-693,631,0,0,0,0,0,0,0,0,0,-1,531,393,0,0
-686,631,0,0,0,0,0,0,0,0,0,-1,538,393,0,0
-679,631,0,0,0,0,0,0,0,0,0,-1,545,393,0,0
-672,631,0,0,0,0,0,0,0,0,0,-1,552,393,0,0
-665,631,0,0,0,0,0,0,0,0,0,-1,559,393,0,0
-658,631,0,0,0,0,0,0,0,0,0,-1,566,393,0,0
-651,631,0,0,0,0,0,0,0,0,0,-1,573,393,0,0
-644,631,0,0,0,0,0,0,0,0,0,-1,580,393,0,0
-637,631,0,0,0,0,0,0,0,0,0,-1,587,393,0,0
-630,631,0,0,0,0,0,0,0,0,0,-1,594,393,0,0
-623,631,0,0,0,0,0,0,0,0,0,-1,601,393,0,0
-616,631,0,0,0,0,0,0,0,0,0,-1,608,393,0,0
-609,631,0,0,0,0,0,0,0,0,0,-1,615,393,0,0
-602,631,0,0,0,0,0,0,0,0,0,-1,622,393,0,0
-595,631,0,0,0,0,0,0,0,0,0,-1,629,393,0,0
-588,631,0,0,0,0,0,0,0,0,0,-1,636,393,0,0
-581,631,0,0,0,0,0,0,0,0,0,-1,643,393,0,0
-574,631,0,0,0,0,0,0,0,0,0,-1,650,393,0,0
-567,631,0,0,0,0,0,0,0,0,0,-1,657,393,0,0
-560,631,0,0,0,0,0,0,0,0,0,-1,664,393,0,0
-553,631,0,0,0,0,0,0,0,0,0,-1,671,393,0,0
-546,631,0,0,0,0,0,0,0,0,0,-1,678,393,0,0
-539,631,0,0,0,0,0,0,0,0,0,-1,685,393,0,0
-532,631,0,0,0,0,0,0,0,0,0,-1,692,393,0,0
-525,631,0,0,0,0,0,0,0,0,0,-1,699,393,0,0
-518,631,0,0,0,0,0,0,0,0,0,-1,706,393,0,0
-511,631,0,0,0,0,0,0,0,0,0,-1,713,393,0,0
-504,631,0,0,0,0,0,0,0,0,0,-1,720,393,0,0
-497,631,0,0,0,0,0,0,0,0,0,-1,727,393,0,0
-490,631,0,0,0,0,0,0,0,0,0,-1,734,393,0,0
-483,631,0,0,0,0,0,0,0,0,0,-1,741,393,0,0
-476,631,0,0,0,0,0,0,0,0,0,-1,748,393,0,0
-469,631,0,0,0,0,0,0,0,0,0,-1,755,393,0,0
-462,631,0,0,0,0,0,0,0,0,0,-1,762,393,0,0
-455,631,0,0,0,0,0,0,0,0,0,-1,769,393,0,0
-448,631,0,0,0,0,0,0,0,0,0,-1,776,393,0,0
-441,631,0,0,0,0,0,0,0,0,0,-1,783,393,0,0
-434,631,0,0,0,0,0,0,0,0,0,-1,790,393,0,0
-427,631,0,0,0,0,0,0,0,0,0,-1,797,393,0,0
-420,631,0,0,0,0,0,0,0,0,0,-1,804,393,0,0
-413,631,0,0,0,0,0,0,0,0,0,-1,811,393,0,0
-406,631,0,0,0,0,0,0,0,0,0,-1,818,393,0,0
-399,631,0,0,0,0,0,0,0,0,0,-1,825,393,0,0
-392,631,0,0,0,0,0,0,0,0,0,-1,832,393,0,0
-385,631,0,0,0,0,0,0,0,0,0,-1,839,393,0,0
-378,631,0,0,0,0,0,0,0,0,0,-1,846,393,0,0
-371,631,0,0,0,0,0,0,0,0,0,-1,853,393,0,0
-364,631,0,0,0,0,0,0,0,0,0,-1,860,393,0,0
-357,631,0,0,0,0,0,0,0,0,0,-1,867,393,0,0
-350,631,0,0,0,0,0,0,0,0,0,-1,874,393,0,0
-343,631,0,0,0,0,0,0,0,0,0,-1,881,393,0,0
-336,631,0,0,0,0,0,0,0,0,0,-1,888,393,0,0
-329,631,0,0,0,0,0,0,0,0,0,-1,895,393,0,0
-322,631,0,0,0,0,0,0,0,0,0,-1,902,393,0,0
-315,631,0,0,0,0,0,0,0,0,0,-1,909,393,0,0
-308,631,0,0,0,0,0,0,0,0,0,-1,916,393,0,0
-301,631,0,0,0,0,0,0,0,0,0,-1,923,393,0,0
-294,631,0,0,0,0,0,0,0,0,0,-1,930,393,0,0
-287,631,0,0,0,0,0,0,0,0,0,-1,937,393,0,0
-280,631,1.02759,-14.3235,0,0,0,0,0,0,0,-1,944,393,1.02761,14.3235
-273,631,3.12531,-25.4045,0,0,0,0,0,0,0,-1,951,393,3.12531,25.4045
-266,631,4.95123,-25.876,0,0,0,0,0,0,0,-1,958,393,4.95123,25.876
-259,631,6.86334,-26.3179,0,0,0,0,0,0,0,-1,965,393,6.86332,26.3179
-252,631,8.73389,-26.7964,0,0,0,0,0,0,0,-1,972,393,8.7339,26.7964
-245,631,4.06909,-25.853,0,0,0,0,0,0,0,-1,979,393,4.06911,25.853
-238,631,3.05438,-25.4099,0,0,0,0,0,0,0,-1,986,393,3.0544,25.4099
-231,631,2.14966,-25.2306,0,0,0,0,0,0,0,-1,993,393,2.14968,25.2306
-224,631,6.83575,-19.7909,0,0,0,0,0,0,0,-1,1000,393,6.83575,19.7909
-217,631,5.05188,-18.3867,0,0,0,0,0,0,0,-1,1007,393,5.0519,18.3866
-210,631,3.37842,-26.3769,0,0,0,0,0,0,0,-1,1014,393,3.37839,26.3769
-203,631,5.05298,-26.4169,0,0,0,0,0,0,0,-1,1021,393,5.05302,26.4169
-196,631,5.1156,-26.5206,0,0,0,0,0,0,0,-1,1028,393,5.1156,26.5206
-189,631,4.96985,-26.774,0,0,0,0,0,0,0,-1,1035,393,4.96979,26.774
-182,631,4.95337,-27.3451,0,0,0,0,0,0,0,-1,1042,393,4.95343,27.3451
-175,631,4.93823,-28.2705,-0.00215053,0.00698911,-0.00522937,0.00936404,-0.00452546,-1.14449,0.00817969,0.0400866,1049,393,4.93829,28.2705
-168,631,4.88708,-28.7395,-0.00153075,0.00671298,-0.00523173,0.0092515,-0.00406927,-1.11905,0.00788236,0.021995,1056,393,4.88713,28.7395
-161,631,4.85193,-29.1326,-0.000920693,0.00692779,-0.00513728,0.00946817,-0.00346107,-1.11156,0.0077286,0.0110239,1063,393,4.85189,29.1326
-154,631,4.81482,-29.5071,-0.000337864,0.00759645,-0.00493797,0.00996348,-0.00270489,-1.1238,0.00770389,0.0108166,1070,393,4.81481,29.5071
-147,631,4.79944,-29.8177,5.78657e-05,0.00834476,-0.00468483,0.0104556,-0.00205295,-1.14747,0.00774592,0.0116342,1077,393,4.79941,29.8177
-140,631,4.78723,-30.144,0.000412171,0.00915157,-0.00435902,0.010954,-0.00139027,-1.17871,0.00780747,0.0101356,1084,393,4.78722,30.1439
-133,631,4.74585,-30.4635,0.000619002,0.00988835,-0.00390383,0.0113134,-0.000806033,-1.22079,0.00782478,0.00853596,1091,393,4.74587,30.4635
-126,631,4.72693,-30.7591,0.000221662,0.00820664,-0.00266591,0.00901489,-0.000586581,-1.27643,0.00621469,0.0132687,1098,393,4.72697,30.7591
-119,631,4.69556,-31.0517,-0.000363859,0.00551634,-0.00128817,0.00578616,-0.000633675,-1.36432,0.00408508,0.0168322,1105,393,4.69555,31.0517
-112,631,4.66919,-31.3479,-0.00089887,0.00347655,-3.38772e-05,0.00347681,-0.000899132,-1.56305,0.00266856,0.0156112,1112,393,4.66924,31.3479
-105,631,4.71631,-31.6132,-0.00156399,0.00061826,0.0012134,0.00115897,-0.0021047,1.15159,0.00191047,0.0204736,1119,393,4.71628,31.6132
-98,631,4.69336,-31.8766,-0.00221157,-0.00289925,0.00236455,-0.000165986,-0.00494483,0.713197,0.00324264,0.0171841,1126,393,4.6934,31.8767
-91,631,4.63037,-32.1418,-0.00264333,-0.00578623,0.00338601,-0.000481887,-0.00794768,0.568138,0.00514535,0.0188367,1133,393,4.63034,32.1417
-84,631,4.59436,-32.4058,-0.00311854,-0.00841068,0.00412257,-0.000865905,-0.0106633,0.500086,0.00683854,0.0183862,1140,393,4.59437,32.4058
-77,631,4.60059,-32.6548,-0.00339627,-0.00978893,0.00427733,-0.00125293,-0.0119323,0.464522,0.00757184,0.0117826,1147,393,4.60061,32.6548
-70,631,4.60645,-32.8702,-0.00312281,-0.00963517,0.00414004,-0.00111187,-0.0116461,0.452168,0.00742127,0.0125183,1154,393,4.60645,32.8702
-63,631,4.59998,-33.1024,-0.00251534,-0.00858789,0.00354933,-0.000880779,-0.0102225,0.431573,0.00654117,0.0136174,1161,393,4.59995,33.1024
-56,631,4.56873,-33.3367,-0.00181246,-0.00711846,0.0028515,-0.000570669,-0.00836026,0.410722,0.00539336,0.0140049,1168,393,4.56875,33.3367
-49,631,4.56543,-33.5036,-0.00118259,-0.00549453,0.00212642,-0.000310379,-0.00636674,0.389249,0.00414491,0.0107948,1175,393,4.5654,33.5036
-42,631,4.57019,-33.6616,-0.000497913,-0.00441226,0.0017116,0.000144931,-0.0050551,0.35928,0.0034194,0.00948878,1182,393,4.57022,33.6616
-35,631,4.57544,-33.8297,0.000155958,-0.00363347,0.00133718,0.000580295,-0.00405781,0.307285,0.00291793,0.0105421,1189,393,4.57549,33.8297
-28,631,4.59668,-33.9902,0.000669507,-0.00295301,0.0010126,0.000933345,-0.00321684,0.254887,0.00251411,0.0134412,1196,393,4.59671,33.9902
-21,631,4.57275,-34.1374,0.0012146,-0.00182733,0.000598948,0.00132828,-0.00194102,0.187573,0.00189855,0.0117648,1203,393,4.57277,34.1374
-14,631,4.54199,-34.2756,0.0016884,-0.00123673,0.000278911,0.00171475,-0.00126309,0.0942187,0.00172584,0.01404,1210,393,4.54205,34.2756
-7,631,4.57251,-34.4317,0.00205736,-0.00157246,0.000228098,0.00207164,-0.00158673,0.0625124,0.00211834,0.0213554,1217,393,4.57246,34.4317
0,631,4.60425,-34.5541,0.00213255,-0.00147069,0.000106508,0.0021357,-0.00147383,0.0295245,0.00209561,0.0240445,1224,393,4.60427,34.5541
7,631,4.56384,-34.6228,0.00200266,-0.00123232,-2.49942e-05,0.00200285,-0.00123251,-0.00772563,0.0018855,0.0200118,1231,393,4.56387,34.6228
14,631,4.58264,-34.7018,0.00177254,-0.000704631,-0.000222114,0.0017923,-0.000724389,-0.0887214,0.00149598,0.0118659,1238,393,4.5826,34.7017
21,631,4.62671,-34.7831,0.00155284,-0.000117576,-0.000400657,0.00164397,-0.000208704,-0.223642,0.00117176,0.014452,1245,393,4.62666,34.7831
28,631,4.61707,-34.8059,0.00150977,0.000626527,-0.000837574,0.00201502,0.00012128,-0.542789,0.0013048,0.0161804,1252,393,4.61711,34.8059
35,631,4.65173,-34.8538,0.00158896,0.000971752,-0.00115686,0.00247767,8.30415e-05,-0.655054,0.00162481,0.0143935,1259,393,4.65168,34.8538
42,631,4.70496,-34.9035,0.00171159,0.00140105,-0.00134051,0.00290579,0.000206843,-0.72774,0.00187206,0.0123009,1266,393,4.70501,34.9035
49,631,4.69885,-34.9214,0.00182195,0.00157813,-0.00141601,0.00312128,0.000278792,-0.742456,0.00199443,0.0111371,1273,393,4.69887,34.9214
56,631,4.70032,-34.9517,0.00188551,0.00131615,-0.00152134,0.00314857,5.30806e-05,-0.692905,0.00208158,0.0129247,1280,393,4.70032,34.9517
63,631,4.71204,-34.9761,0.00182919,0.00079646,-0.00149597,0.0028954,-0.000269751,-0.619215,0.00202618,0.0152161,1287,393,4.71198,34.9761
70,631,4.70691,-34.9311,0.0018403,6.97701e-05,-0.00133609,0.00255779,-0.000647718,-0.492813,0.00195716,0.0156248,1294,393,4.70693,34.9311
77,631,4.72021,-34.9112,0.00193007,-0.000731911,-0.000989045,0.00225731,-0.00105916,-0.319532,0.00195597,0.0154396,1301,393,4.72024,34.9112
84,631,4.76086,-34.8737,0.00191328,-0.00154775,-0.00076698,0.00207563,-0.0017101,-0.208597,0.00218908,0.0128471,1308,393,4.76092,34.8737
91,631,4.77161,-34.8112,0.00164865,-0.00237678,-0.00045528,0.0016995,-0.00242763,-0.111229,0.00239513,0.0159805,1315,393,4.77163,34.8112
98,631,4.79016,-34.7399,0.00129325,-0.00298551,-0.000205059,0.00130306,-0.00299532,-0.047779,0.00254497,0.0141128,1322,393,4.79017,34.7399
105,631,4.78918,-34.6702,0.00126404,-0.00353538,-5.96209e-05,0.00126478,-0.00353612,-0.01242,0.00287335,0.0115135,1329,393,4.78918,34.6702
112,631,4.80249,-34.6064,0.0012668,-0.00371921,-7.69745e-05,0.00126799,-0.0037204,-0.0154332,0.00299382,0.0116672,1336,393,4.80253,34.6064
119,631,4.81238,-34.4942,0.00120798,-0.00371859,-9.73341e-05,0.0012099,-0.00372051,-0.0197467,0.00296704,0.0120341,1343,393,4.81236,34.4942
126,631,4.81677,-34.3597,0.0011469,-0.00324821,-0.000279573,0.00116461,-0.00326592,-0.0632702,0.00265213,0.0168546,1350,393,4.81683,34.3597
133,631,4.7915,-34.2126,0.0010888,-0.00271665,-0.000357452,0.00112208,-0.00274994,-0.0928495,0.00230042,0.0184536,1357,393,4.79154,34.2126
140,631,4.80432,-34.0684,0.00114071,-0.00183918,-0.000589488,0.00125309,-0.00195155,-0.188373,0.00186479,0.0199057,1364,393,4.80433,34.0684
147,631,4.80505,-33.913,0.00130613,-0.00110726,-0.000848862,0.00157479,-0.00137592,-0.306523,0.00170488,0.0223026,1371,393,4.80504,33.913
154,631,4.81689,-33.7798,0.0015438,-0.000329676,-0.00104285,0.00200885,-0.000794729,-0.419476,0.00166847,0.0211279,1378,393,4.81686,33.7798
161,631,4.88196,-33.6063,0.00167118,0.00059018,-0.00101051,0.00227666,-1.5303e-05,-0.539819,0.0015229,0.0238198,1385,393,4.88193,33.6063
168,631,4.88977,-33.3688,0.00157228,0.00135664,-0.000890309,0.00236127,0.000567645,-0.72514,0.00142321,0.0286926,1392,393,4.88976,33.3688
175,631,4.8623,-33.1649,0.0012091,0.00223367,-0.000601994,0.00251185,0.000930925,-1.13793,0.00146631,0.0218292,1399,393,4.86233,33.1649
182,631,4.8374,-32.9646,0.000785379,0.00288054,-0.000298059,0.00292211,0.000743802,-1.4322,0.00175354,0.0120504,1406,393,4.83744,32.9646
189,631,4.83557,-32.7137,0.000443968,0.00344992,0.000107904,0.00345379,0.0004401,1.53496,0.00217075,0.0114291,1413,393,4.83552,32.7137
196,631,4.8219,-32.4835,0.000150072,0.00399572,0.000524681,0.00406602,7.97722e-05,1.4376,0.00268449,0.0119982,1420,393,4.82191,32.4835
203,631,4.84241,-32.253,-0.000319927,0.00452877,0.00107966,0.00475831,-0.000549468,1.36131,0.00337033,0.0141455,1427,393,4.84242,32.253
210,631,4.81677,-32.0261,-0.00085828,0.00515962,0.00150268,0.00551398,-0.00121264,1.33921,0.00413983,0.0152933,1434,393,4.81673,32.0261
217,631,4.79028,-31.7708,-0.0010639,0.0058273,0.00161705,0.00618789,-0.00142448,1.3514,0.00467302,0.0157704,1441,393,4.79033,31.7708
224,631,4.76843,-31.4509,-0.00113586,0.00656758,0.00173527,0.00694042,-0.0015087,1.35915,0.00520327,0.0129971,1448,393,4.76839,31.4509
231,631,4.74353,-31.1353,-0.00106969,0.00714623,0.00189582,0.00756259,-0.00148604,1.35461,0.00560315,0.0110429,1455,393,4.74355,31.1353
238,631,4.73279,-30.8231,-0.00110645,0.00810064,0.00226061,0.00862574,-0.00163155,1.34256,0.00636444,0.0164682,1462,393,4.7328,30.8231
245,631,4.73486,-30.5261,-0.00136754,0.00885169,0.00246918,0.00941703,-0.00193287,1.34572,0.00701168,0.0179533,1469,393,4.73491,30.5261
252,631,4.72095,-30.241,-0.0013952,0.00968871,0.00275522,0.0103358,-0.0020423,1.34011,0.00766258,0.0175015,1476,393,4.721,30.241
259,631,4.66626,-29.8919,-0.00139934,0.0105954,0.00320158,0.0113964,-0.00220039,1.32562,0.00842739,0.0126689,1483,393,4.66621,29.8919
266,631,4.66663,-29.549,-0.00148304,0.0113638,0.00365465,0.0123307,-0.00244993,1.31216,0.00914714,0.0119923,1490,393,4.66665,29.549
273,631,4.64355,-29.1813,-0.00214364,0.0112297,0.00472477,0.0127306,-0.00364446,1.26323,0.00992741,0.0142397,1497,393,4.6435,29.1813
280,631,4.62634,-28.8151,-0.00285627,0.0116826,0.00582819,0.0137305,-0.00490416,1.2329,0.0111537,0.0119036,1504,393,4.62632,28.8151
287,631,4.599,-28.4193,-0.00289642,0.0115843,0.00707672,0.0144683,-0.00578042,1.18381,0.012044,0.0129627,1511,393,4.59896,28.4193
294,631,4.54504,-27.9669,-0.00344787,0.0115109,0.00846998,0.0153311,-0.00726813,1.14708,0.0133216,0.0170002,1518,393,4.54499,27.9669
301,631,4.50098,-27.5056,-0.00403009,0.0111892,0.0100004,0.0161459,-0.00898683,1.11063,0.0147053,0.0253847,1525,393,4.50095,27.5056
308,631,4.73059,-26.9887,-0.00453087,0.0106005,0.0116331,0.0169117,-0.0108421,1.07371,0.0161509,0.0349863,1532,393,4.73059,26.9887
315,631,4.67517,-26.7048,-0.00493038,0.00967821,0.0134192,0.0176523,-0.0129044,1.03463,0.0177127,0.0427581,1539,393,4.67512,26.7048
322,631,4.53516,-26.4848,-0.00533447,0.00870324,0.0152385,0.0184616,-0.0150928,1.00122,0.0194052,0.0478167,1546,393,4.53515,26.4848
329,631,4.42456,-26.0218,-0.00568373,0.00774504,0.0167796,0.0191038,-0.0170425,0.975717,0.0208804,0.046175,1553,393,4.4246,26.0218
336,631,4.70886,-25.6551,-0.00598325,0.00684505,0.0179609,0.0195028,-0.018641,0.956898,0.0220242,0.0439229,1560,393,4.70889,25.6551
343,631,5.11682,-25.1893,0,0,0,0,0,0,0,-1,1567,393,5.11687,25.1893
350,631,2.1344,-9.23401,0,0,0,0,0,0,0,-1,1574,393,2.13439,9.23401
357,631,2.6449,-9.60303,0,0,0,0,0,0,0,-1,1581,393,2.64491,9.60304
364,631,3.39136,-5.7594,0,0,0,0,0,0,0,-1,1588,393,3.39137,5.75939
371,631,3.72839,-6.0574,0,0,0,0,0,0,0,-1,1595,393,3.72845,6.05742
378,631,4.06555,-6.35544,0,0,0,0,0,0,0,-1,1602,393,4.06553,6.35544
385,631,3.90442,-3.58298,0,0,0,0,0,0,0,-1,1609,393,3.90437,3.58299
392,631,0.352295,-2.21301,0,0,0,0,0,0,0,-1,1616,393,0.352345,2.213
399,631,0,0,0,0,0,0,0,0,0,-1,1623,393,0,0
406,631,0,0,0,0,0,0,0,0,0,-1,1630,393,0,0
413,631,0,0,0,0,0,0,0,0,0,-1,1637,393,0,0
420,631,0,0,0,0,0,0,0,0,0,-1,1644,393,0,0
427,631,0,0,0,0,0,0,0,0,0,-1,1651,393,0,0
434,631,0,0,0,0,0,0,0,0,0,-1,1658,393,0,0
441,631,0,0,0,0,0,0,0,0,0,-1,1665,393,0,0
448,631,0,0,0,0,0,0,0,0,0,-1,1672,393,0,0
455,631,0,0,0,0,0,0,0,0,0,-1,1679,393,0,0
462,631,0,0,0,0,0,0,0,0,0,-1,1686,393,0,0
469,631,0,0,0,0,0,0,0,0,0,-1,1693,393,0,0
476,631,0,0,0,0,0,0,0,0,0,-1,1700,393,0,0
483,631,0,0,0,0,0,0,0,0,0,-1,1707,393,0,0
490,631,0,0,0,0,0,0,0,0,0,-1,1714,393,0,0
497,631,0,0,0,0,0,0,0,0,0,-1,1721,393,0,0
504,631,0,0,0,0,0,0,0,0,0,-1,1728,393,0,0
511,631,0,0,0,0,0,0,0,0,0,-1,1735,393,0,0
518,631,0,0,0,0,0,0,0,0,0,-1,1742,393,0,0
525,631,0,0,0,0,0,0,0,0,0,-1,1749,393,0,0
532,631,0,0,0,0,0,0,0,0,0,-1,1756,393,0,0
539,631,0,0,0,0,0,0,0,0,0,-1,1763,393,0,0
546,631,0,0,0,0,0,0,0,0,0,-1,1770,393,0,0
553,631,0,0,0,0,0,0,0,0,0,-1,1777,393,0,0
560,631,0,0,0,0,0,0,0,0,0,-1,1784,393,0,0
567,631,0,0,0,0,0,0,0,0,0,-1,1791,393,0,0
574,631,0,0,0,0,0,0,0,0,0,-1,1798,393,0,0
581,631,0,0,0,0,0,0,0,0,0,-1,1805,393,0,0
588,631,0,0,0,0,0,0,0,0,0,-1,1812,393,0,0
595,631,0,0,0,0,0,0,0,0,0,-1,1819,393,0,0
602,631,0,0,0,0,0,0,0,0,0,-1,1826,393,0,0
609,631,0,0,0,0,0,0,0,0,0,-1,1833,393,0,0
616,631,0,0,0,0,0,0,0,0,0,-1,1840,393,0,0
623,631,0,0,0,0,0,0,0,0,0,-1,1847,393,0,0
630,631,0,0,0,0,0,0,0,0,0,-1,1854,393,0,0
637,631,0,0,0,0,0,0,0,0,0,-1,1861,393,0,0
644,631,0,0,0,0,0,0,0,0,0,-1,1868,393,0,0
651,631,0,0,0,0,0,0,0,0,0,-1,1875,393,0,0
658,631,0,0,0,0,0,0,0,0,0,-1,1882,393,0,0
665,631,0,0,0,0,0,0,0,0,0,-1,1889,393,0,0
672,631,0,0,0,0,0,0,0,0,0,-1,1896,393,0,0
679,631,0,0,0,0,0,0,0,0,0,-1,1903,393,0,0
686,631,0,0,0,0,0,0,0,0,0,-1,1910,393,0,0
693,631,0,0,0,0,0,0,0,0,0,-1,1917,393,0,0
700,631,0,0,0,0,0,0,0,0,0,-1,1924,393,0,0
707,631,0,0,0,0,0,0,0,0,0,-1,1931,393,0,0
714,631,0,0,0,0,0,0,0,0,0,-1,1938,393,0,0
721,631,0,0,0,0,0,0,0,0,0,-1,1945,393,0,0
728,631,0,0,0,0,0,0,0,0,0,-1,1952,393,0,0
735,631,0,0,0,0,0,0,0,0,0,-1,1959,393,0,0
742,631,0,0,0,0,0,0,0,0,0,-1,1966,393,0,0
749,631,0,0,0,0,0,0,0,0,0,-1,1973,393,0,0
756,631,0,0,0,0,0,0,0,0,0,-1,1980,393,0,0
763,631,0,0,0,0,0,0,0,0,0,-1,1987,393,0,0
770,631,0,0,0,0,0,0,0,0,0,-1,1994,393,0,0
777,631,0,0,0,0,0,0,0,0,0,-1,2001,393,0,0
784,631,0,0,0,0,0,0,0,0,0,-1,2008,393,0,0
791,631,0,0,0,0,0,0,0,0,0,-1,2015,393,0,0
798,631,0,0,0,0,0,0,0,0,0,-1,2022,393,0,0
805,631,0,0,0,0,0,0,0,0,0,-1,2029,393,0,0
812,631,0,0,0,0,0,0,0,0,0,-1,2036,393,0,0
-700,624,0,0,0,0,0,0,0,0,0,-1,524,400,0,0
-693,624,0,0,0,0,0,0,0,0,0,-1,531,400,0,0
-686,624,0,0,0,0,0,0,0,0,0,-1,538,400,0,0
-679,624,0,0,0,0,0,0,0,0,0,-1,545,400,0,0
-672,624,0,0,0,0,0,0,0,0,0,-1,552,400,0,0
-665,624,0,0,0,0,0,0,0,0,0,-1,559,400,0,0
-658,624,0,0,0,0,0,0,0,0,0,-1,566,400,0,0
-651,624,0,0,0,0,0,0,0,0,0,-1,573,400,0,0
-644,624,0,0,0,0,0,0,0,0,0,-1,580,400,0,0
-637,624,0,0,0,0,0,0,0,0,0,-1,587,400,0,0
-630,624,0,0,0,0,0,0,0,0,0,-1,594,400,0,0
-623,624,0,0,0,0,0,0,0,0,0,-1,601,400,0,0
-616,624,0,0,0,0,0,0,0,0,0,-1,608,400,0,0
-609,624,0,0,0,0,0,0,0,0,0,-1,615,400,0,0
-602,624,0,0,0,0,0,0,0,0,0,-1,622,400,0,0
-595,624,0,0,0,0,0,0,0,0,0,-1,629,400,0,0
-588,624,0,0,0,0,0,0,0,0,0,-1,636,400,0,0
-581,624,0,0,0,0,0,0,0,0,0,-1,643,400,0,0
-574,624,0,0,0,0,0,0,0,0,0,-1,650,400,0,0
-567,624,0,0,0,0,0,0,0,0,0,-1,657,400,0,0
-560,624,0,0,0,0,0,0,0,0,0,-1,664,400,0,0
-553,624,0,0,0,0,0,0,0,0,0,-1,671,400,0,0
-546,624,0,0,0,0,0,0,0,0,0,-1,678,400,0,0
-539,624,0,0,0,0,0,0,0,0,0,-1,685,400,0,0
-532,624,0,0,0,0,0,0,0,0,0,-1,692,400,0,0
-525,624,0,0,0,0,0,0,0,0,0,-1,699,400,0,0
-518,624,0,0,0,0,0,0,0,0,0,-1,706,400,0,0
-511,624,0,0,0,0,0,0,0,0,0,-1,713,400,0,0
-504,624,0,0,0,0,0,0,0,0,0,-1,720,400,0,0
-497,624,0,0,0,0,0,0,0,0,0,-1,727,400,0,0
-490,624,0,0,0,0,0,0,0,0,0,-1,734,400,0,0
-483,624,0,0,0,0,0,0,0,0,0,-1,741,400,0,0
-476,624,0,0,0,0,0,0,0,0,0,-1,748,400,0,0
-469,624,0,0,0,0,0,0,0,0,0,-1,755,400,0,0
-462,624,0,0,0,0,0,0,0,0,0,-1,762,400,0,0
-455,624,0,0,0,0,0,0,0,0,0,-1,769,400,0,0
-448,624,0,0,0,0,0,0,0,0,0,-1,776,400,0,0
-441,624,0,0,0,0,0,0,0,0,0,-1,783,400,0,0
-434,624,0,0,0,0,0,0,0,0,0,-1,790,400,0,0
-427,624,0,0,0,0,0,0,0,0,0,-1,797,400,0,0
-420,624,0,0,0,0,0,0,0,0,0,-1,804,400,0,0
-413,624,0,0,0,0,0,0,0,0,0,-1,811,400,0,0
-406,624,0,0,0,0,0,0,0,0,0,-1,818,400,0,0
-399,624,0,0,0,0,0,0,0,0,0,-1,825,400,0,0
-392,624,0,0,0,0,0,0,0,0,0,-1,832,400,0,0
-385,624,0,0,0,0,0,0,0,0,0,-1,839,400,0,0
-378,624,0,0,0,0,0,0,0,0,0,-1,846,400,0,0
-371,624,0,0,0,0,0,0,0,0,0,-1,853,400,0,0
-364,624,0,0,0,0,0,0,0,0,0,-1,860,400,0,0
-357,624,0,0,0,0,0,0,0,0,0,-1,867,400,0,0
-350,624,0,0,0,0,0,0,0,0,0,-1,874,400,0,0
-343,624,0,0,0,0,0,0,0,0,0,-1,881,400,0,0
-336,624,0,0,0,0,0,0,0,0,0,-1,888,400,0,0
-329,624,0,0,0,0,0,0,0,0,0,-1,895,400,0,0
-322,624,0,0,0,0,0,0,0,0,0,-1,902,400,0,0
-315,624,0,0,0,0,0,0,0,0,0,-1,909,400,0,0
-308,624,0,0,0,0,0,0,0,0,0,-1,916,400,0,0
-301,624,0,0,0,0,0,0,0,0,0,-1,923,400,0,0
-294,624,10.6271,-28.4093,0,0,0,0,0,0,0,-1,930,400,10.6271,28.4093
-287,624,0.12146,-15.0862,0,0,0,0,0,0,0,-1,937,400,0.121451,15.0862
-280,624,1.61359,-14.553,0,0,0,0,0,0,0,-1,944,400,1.6136,14.553
-273,624,2.92303,-24.3356,0,0,0,0,0,0,0,-1,951,400,2.92306,24.3356
-266,624,4.62988,-24.8541,0,0,0,0,0,0,0,-1,958,400,4.62991,24.8541
-259,624,6.30719,-25.3577,0,0,0,0,0,0,0,-1,965,400,6.30719,25.3577
-252,624,7.96606,-26.0403,0,0,0,0,0,0,0,-1,972,400,7.96608,26.0403
-245,624,4.72278,-25.3516,0,0,0,0,0,0,0,-1,979,400,4.72279,25.3516
-238,624,4.08038,-25.0565,0,0,0,0,0,0,0,-1,986,400,4.0804,25.0565
-231,624,4.95148,-20.7456,0,0,0,0,0,0,0,-1,993,400,4.95146,20.7456
-224,624,3.2287,-22.9566,0,0,0,0,0,0,0,-1,1000,400,3.22873,22.9566
-217,624,4.9978,-25.6974,0,0,0,0,0,0,0,-1,1007,400,4.99781,25.6975
-210,624,4.80914,-26.2651,0,0,0,0,0,0,0,-1,1014,400,4.80915,26.2651
-203,624,4.69202,-26.605,-0.0032819,0.017965,-0.00587286,0.0194803,-0.00479715,-1.31829,0.0148465,0.0494001,1021,400,4.69201,26.605
-196,624,4.7356,-26.8911,-0.00341195,0.0139753,-0.00550225,0.0155702,-0.00500686,-1.28866,0.012391,0.0437003,1028,400,4.73554,26.8911
-189,624,4.62427,-27.2643,-0.00281126,0.0117308,-0.00548467,0.0135674,-0.0046479,-1.24767,0.0109288,0.0407736,1035,400,4.62425,27.2642
-182,624,4.62988,-27.7562,-0.0020091,0.00999988,-0.00523212,0.0119596,-0.00396884,-1.21241,0.00957427,0.0339619,1042,400,4.62991,27.7562
-175,624,4.69336,-28.3844,-0.00151986,0.00836313,-0.00505293,0.0104892,-0.00364593,-1.17252,0.00847372,0.0232407,1049,400,4.69333,28.3844
-168,624,4.59412,-28.7834,-0.00105817,0.00744403,-0.00485556,0.00964648,-0.00326062,-1.14496,0.00774998,0.0142461,1056,400,4.59412,28.7834
-161,624,4.54309,-29.1685,-0.000592401,0.00684332,-0.00459622,0.00903712,-0.0027862,-1.12547,0.00713712,0.0107189,1063,400,4.54315,29.1685
-154,624,4.53271,-29.5045,-0.000147524,0.00657983,-0.00427024,0.00865208,-0.00221977,-1.119,0.00663296,0.0101441,1070,400,4.53269,29.5045
-147,624,4.5094,-29.8416,0.000160819,0.006455,-0.00394744,0.00835632,-0.0017405,-1.12193,0.00623259,0.0111866,1077,400,4.50936,29.8415
-140,624,4.48132,-30.1664,0.000457515,0.00645603,-0.0035953,0.00813884,-0.0012253,-1.13303,0.00587705,0.00959355,1084,400,4.48127,30.1665
-133,624,4.46118,-30.4774,0.000665276,0.00651186,-0.00314977,0.00788585,-0.000708718,-1.15946,0.00550869,0.0108365,1091,400,4.46122,30.4774
-126,624,4.42883,-30.7653,0.000608802,0.00587638,-0.0024639,0.0068492,-0.000364021,-1.19475,0.00469218,0.0131162,1098,400,4.42889,30.7652
-119,624,4.40015,-31.0441,0.000491874,0.00500157,-0.00178243,0.00562099,-0.000127541,-1.23634,0.00379055,0.0160181,1105,400,4.40018,31.0441
-112,624,4.39636,-31.3283,0.000339686,0.00434568,-0.00113451,0.00464466,4.07009e-05,-1.31312,0.00308296,0.0200028,1112,400,4.39639,31.3283
-105,624,4.42859,-31.613,0.000117176,0.00325374,-0.000567695,0.00335333,1.75892e-05,-1.39714,0.00222971,0.0146729,1119,400,4.42861,31.613
-98,624,4.4104,-31.8836,-8.8849e-05,0.00171031,-8.36955e-05,0.00171419,-9.27341e-05,-1.52441,0.00117493,0.0135264,1126,400,4.41036,31.8836
-91,624,4.3988,-32.1463,-0.000149991,0.000608824,0.000304337,0.000715802,-0.000256969,1.23277,0.000582083,0.0202692,1133,400,4.39878,32.1463
-84,624,4.39319,-32.4154,-0.00020766,-0.000377166,0.000569682,0.000283539,-0.000868365,0.711554,0.000693035,0.019934,1140,400,4.39317,32.4154
-77,624,4.40991,-32.6564,-0.000173139,-0.000828903,0.00057729,0.000162884,-0.00116493,0.527131,0.000836217,0.0142253,1147,400,4.40993,32.6564
-70,624,4.40552,-32.8521,0.000102905,-0.000694411,0.000510877,0.000352262,-0.000943768,0.45408,0.000773805,0.0147765,1154,400,4.40556,32.8522
-63,624,4.39966,-33.0631,0.000510204,-0.000399254,0.000376501,0.000645841,-0.00053489,0.345782,0.000682698,0.016668,1161,400,4.39962,33.0631
-56,624,4.39209,-33.3121,0.000932136,-0.00022269,0.000291872,0.00100171,-0.000292267,0.234012,0.000783614,0.0135642,1168,400,4.39211,33.3121
-49,624,4.39783,-33.5141,0.00121974,-0.000401953,0.000266462,0.0012624,-0.000444614,0.158753,0.00102255,0.0103517,1175,400,4.39787,33.5141
-42,624,4.3949,-33.6663,0.00172274,-0.00124991,0.000540072,0.00181782,-0.00134498,0.174264,0.00183283,0.00995967,1182,400,4.39485,33.6663
-35,624,4.41418,-33.8263,0.00236054,-0.00235742,0.000684663,0.00245788,-0.00245477,0.141238,0.00283632,0.0144554,1189,400,4.41421,33.8263
-28,624,4.42737,-34.0095,0.00269007,-0.00271993,0.000921433,0.0028427,-0.00287257,0.164156,0.00329973,0.0190766,1196,400,4.42738,34.0095
-21,624,4.43848,-34.144,0.00292872,-0.00284556,0.00113944,0.00314543,-0.00306227,0.187948,0.00358413,0.0144493,1203,400,4.43852,34.1439
-14,624,4.39905,-34.2685,0.00323767,-0.00298181,0.00106558,0.00341517,-0.00315931,0.16506,0.00379673,0.0157762,1210,400,4.39903,34.2685
-7,624,4.45947,-34.3979,0.00365432,-0.00336467,0.00102513,0.00380098,-0.00351133,0.142098,0.00422287,0.0202846,1217,400,4.45945,34.3979
0,624,4.4939,-34.5163,0.00370943,-0.00305287,0.000969118,0.00384557,-0.00318902,0.13957,0.00406731,0.019964,1224,400,4.49389,34.5163
7,624,4.47937,-34.604,0.00346925,-0.0026692,0.000828833,0.00357919,-0.00277914,0.131878,0.00368066,0.0156413,1231,400,4.47938,34.604
14,624,4.54077,-34.7372,0.00311849,-0.00194398,0.000529864,0.00317335,-0.00199884,0.103175,0.00301172,0.0136483,1238,400,4.54077,34.7372
21,624,4.57117,-34.8082,0.00279525,-0.00116115,0.00025719,0.0028119,-0.0011778,0.0646435,0.00236698,0.0145255,1245,400,4.57119,34.8082
28,624,4.55579,-34.8415,0.00268628,-0.000354865,-0.000467559,0.00275654,-0.000425127,-0.149156,0.00199456,0.0131221,1252,400,4.55582,34.8415
35,624,4.57471,-34.8726,0.00268744,-0.000291081,-0.0010544,0.00302291,-0.000626554,-0.308038,0.00225335,0.0164153,1259,400,4.57473,34.8726
42,624,4.65002,-34.9226,0.00277472,-0.000401488,-0.00141678,0.00331484,-0.000941605,-0.364221,0.00258165,0.0176703,1266,400,4.64997,34.9227
49,624,4.67175,-34.9376,0.00291714,-0.000708105,-0.00170275,0.00359148,-0.00138244,-0.377077,0.0029646,0.0180725,1273,400,4.67177,34.9376
56,624,4.6908,-34.9808,0.00298007,-0.00166884,-0.00194374,0.00368566,-0.00237444,-0.348218,0.00352599,0.0187523,1280,400,4.69085,34.9808
63,624,4.73718,-34.9718,0.00289628,-0.00297354,-0.0019697,0.00349597,-0.00357323,-0.295542,0.00408149,0.0149016,1287,400,4.73721,34.9718
70,624,4.73608,-34.9595,0.00288876,-0.00448945,-0.00185071,0.00332696,-0.00492765,-0.232491,0.00479557,0.0125194,1294,400,4.73607,34.9595
77,624,4.75745,-34.9214,0.00310121,-0.00627929,-0.00152201,0.00334198,-0.00652006,-0.156892,0.00579156,0.0135223,1301,400,4.7574,34.9214
84,624,4.79028,-34.8875,0.00328175,-0.00794311,-0.00125001,0.00341927,-0.00808063,-0.109573,0.00681886,0.0121537,1308,400,4.79029,34.8875
91,624,4.80786,-34.8148,0.00316435,-0.00952491,-0.000775257,0.00321154,-0.00957209,-0.0607942,0.00767913,0.0131559,1315,400,4.80785,34.8149
98,624,4.83081,-34.7502,0.00285511,-0.0105455,-0.000322712,0.00286288,-0.0105533,-0.0240632,0.00815901,0.0138633,1322,400,4.83076,34.7502
105,624,4.854,-34.702,0.00289675,-0.0114502,-4.46346e-05,0.00289689,-0.0114503,-0.00311106,0.0087603,0.014901,1329,400,4.85396,34.702
112,624,4.88611,-34.6227,0.00304729,-0.0118121,5.23548e-05,0.00304747,-0.0118123,0.00352329,0.0090631,0.014007,1336,400,4.88605,34.6227
119,624,4.90869,-34.5167,0.0030748,-0.0117967,0.000161182,0.00307654,-0.0117984,0.0108366,0.00906683,0.013245,1343,400,4.90868,34.5167
126,624,4.95581,-34.3674,0.00303845,-0.0109959,-2.5679e-05,0.00303849,-0.0109959,-0.00182972,0.00852589,0.0169685,1350,400,4.95577,34.3674
133,624,4.97583,-34.2062,0.00293781,-0.00997203,-3.24803e-05,0.0029379,-0.00997211,-0.00251591,0.0078137,0.0182696,1357,400,4.97586,34.2062
140,624,4.95776,-34.0753,0.00294553,-0.00840149,-0.000369393,0.00295755,-0.00841351,-0.0325083,0.00681233,0.0189918,1364,400,4.95774,34.0753
147,624,4.93274,-33.9035,0.00304036,-0.00706083,-0.000867604,0.00311434,-0.00713481,-0.085061,0.00606721,0.0241108,1371,400,4.9327,33.9035
154,624,5.00037,-33.7849,0.00319075,-0.00588148,-0.00123937,0.00335701,-0.00604775,-0.133356,0.00550342,0.026262,1378,400,5.00036,33.7849
161,624,5.06763,-33.6036,0.00331019,-0.00452706,-0.00138623,0.00354816,-0.00476503,-0.170007,0.00481673,0.0242003,1385,400,5.06766,33.6036
168,624,5.06885,-33.3922,0.00320546,-0.00325501,-0.00144354,0.00351334,-0.00356289,-0.210129,0.00408549,0.0244217,1392,400,5.06884,33.3922
175,624,5.06226,-33.2286,0.00276509,-0.00186927,-0.00123514,0.00307372,-0.00217791,-0.244863,0.0030467,0.018704,1399,400,5.06223,33.2286
182,624,5.06714,-32.9913,0.00215257,-0.000749952,-0.00102125,0.00247588,-0.00107326,-0.306601,0.00210176,0.011197,1406,400,5.06715,32.9913
189,624,5.04932,-32.7384,0.00160866,0.000345896,-0.000637891,0.0018748,7.97553e-05,-0.395263,0.00122415,0.0108405,1413,400,5.04932,32.7384
196,624,5.0426,-32.5064,0.00119835,0.00144028,-0.000219675,0.00157009,0.00106854,-1.03707,0.000925985,0.0119109,1420,400,5.04264,32.5064
203,624,5.08655,-32.2627,0.000746682,0.00238814,0.000213476,0.00241545,0.000719373,1.44356,0.00143206,0.0152237,1427,400,5.08654,32.2627
210,624,5.08765,-32.0379,0.000203673,0.00321526,0.000600245,0.00333049,8.84456e-05,1.38114,0.00219144,0.0185058,1434,400,5.08764,32.0379
217,624,5.04077,-31.749,-0.000155916,0.00407121,0.000919235,0.00426245,-0.000347161,1.36567,0.00296414,0.021029,1441,400,5.0408,31.749
224,624,5.02673,-31.4291,-0.000305372,0.00475744,0.00112894,0.00499777,-0.000545703,1.36105,0.00352784,0.0168182,1448,400,5.02668,31.4291
231,624,5.02844,-31.1558,-0.000343293,0.00531181,0.00137553,0.00562863,-0.000660121,1.34441,0.0039907,0.0122906,1455,400,5.0285,31.1558
238,624,5.02808,-30.8657,-0.000422213,0.00608813,0.00173084,0.00651968,-0.000853766,1.32645,0.0046572,0.0162227,1462,400,5.02806,30.8657
245,624,5.02734,-30.5858,-0.000628615,0.00672993,0.00195611,0.0072176,-0.00111629,1.32647,0.00522374,0.0172928,1469,400,5.02729,30.5858
252,624,5.00159,-30.2497,-0.000690077,0.00744377,0.00222628,0.00801324,-0.00125955,1.32037,0.00580772,0.0132527,1476,400,5.00154,30.2497
259,624,4.98987,-29.9151,-0.000755085,0.00819944,0.0026201,0.00890974,-0.00146538,1.30606,0.00648372,0.00916732,1483,400,4.98991,29.9151
266,624,4.99402,-29.562,-0.000869347,0.00884445,0.00301397,0.00970363,-0.00172852,1.2931,0.00711559,0.0135533,1490,400,4.99407,29.562
273,624,4.97656,-29.2019,-0.00137388,0.00885707,0.00383546,0.0101352,-0.00265206,1.24912,0.00779276,0.0163604,1497,400,4.97659,29.2019
280,624,4.93579,-28.8766,-0.00187951,0.00925555,0.00468523,0.0109646,-0.00358857,1.22102,0.00875462,0.014331,1504,400,4.9358,28.8766
287,624,4.89941,-28.5213,-0.00187386,0.00930719,0.0056631,0.0116743,-0.00424101,1.17487,0.00951694,0.0107459,1511,400,4.89939,28.5213
294,624,4.86694,-28.1299,-0.00225632,0.00937949,0.00672161,0.0124514,-0.00532819,1.14213,0.0105361,0.0091427,1518,400,4.86695,28.1299
301,624,4.83643,-27.7159,-0.00262856,0.00927227,0.00785828,0.0131788,-0.00653512,1.10945,0.0115953,0.0108582,1525,400,4.83644,27.7159
308,624,4.82947,-27.2799,-0.00288874,0.00897911,0.00907076,0.0138845,-0.00779411,1.07505,0.0126797,0.0146158,1532,400,4.8295,27.2799
315,624,4.85071,-26.8714,-0.00307552,0.00846514,0.0103594,0.0145529,-0.00916328,1.0395,0.0138099,0.0177746,1539,400,4.8507,26.8714
322,624,4.85974,-26.4767,-0.00326646,0.00791824,0.0116461,0.0152451,-0.0105933,1.00924,0.0149981,0.0309865,1546,400,4.85979,26.4767
329,624,4.85486,-26.0104,-0.00343444,0.0073483,0.0127187,0.0157711,-0.0118573,0.985865,0.0160045,0.0456743,1553,400,4.85486,26.0104
336,624,4.98682,-25.5336,-0.00362175,0.00683011,0.013509,0.0160888,-0.0128804,0.969957,0.0167595,0.0414026,1560,400,4.98679,25.5336
343,624,5.17651,-25.0625,0,0,0,0,0,0,0,-1,1567,400,5.17655,25.0625
350,624,1.99194,-7.29742,0,0,0,0,0,0,0,-1,1574,400,1.99198,7.29741
357,624,2.64075,-3.13092,0,0,0,0,0,0,0,-1,1581,400,2.64076,3.13091
364,624,3.16565,-4.9458,0,0,0,0,0,0,0,-1,1588,400,3.16564,4.94579
371,624,3.37561,-5.23529,0,0,0,0,0,0,0,-1,1595,400,3.37563,5.23529
378,624,1.50439,-5.22165,0,0,0,0,0,0,0,-1,1602,400,1.50438,5.22164
385,624,1.2301,-10.5866,0,0,0,0,0,0,0,-1,1609,400,1.2301,10.5866
392,624,4.26819,-5.14236,0,0,0,0,0,0,0,-1,1616,400,4.26818,5.14236
399,624,2.22168,-9.19293,0,0,0,0,0,0,0,-1,1623,400,2.22173,9.19294
406,624,2.68213,-9.91171,0,0,0,0,0,0,0,-1,1630,400,2.68213,9.91171
413,624,0,0,0,0,0,0,0,0,0,-1,1637,400,0,0
420,624,0,0,0,0,0,0,0,0,0,-1,1644,400,0,0
427,624,0,0,0,0,0,0,0,0,0,-1,1651,400,0,0
434,624,0,0,0,0,0,0,0,0,0,-1,1658,400,0,0
441,624,0,0,0,0,0,0,0,0,0,-1,1665,400,0,0
448,624,0,0,0,0,0,0,0,0,0,-1,1672,400,0,0
455,624,0,0,0,0,0,0,0,0,0,-1,1679,400,0,0
462,624,0,0,0,0,0,0,0,0,0,-1,1686,400,0,0
469,624,0,0,0,0,0,0,0,0,0,-1,1693,400,0,0
476,624,0,0,0,0,0,0,0,0,0,-1,1700,400,0,0
483,624,0,0,0,0,0,0,0,0,0,-1,1707,400,0,0
490,624,0,0,0,0,0,0,0,0,0,-1,1714,400,0,0
497,624,0,0,0,0,0,0,0,0,0,-1,1721,400,0,0
504,624,0,0,0,0,0,0,0,0,0,-1,1728,400,0,0
511,624,0,0,0,0,0,0,0,0,0,-1,1735,400,0,0
518,624,0,0,0,0,0,0,0,0,0,-1,1742,400,0,0
525,624,0,0,0,0,0,0,0,0,0,-1,1749,400,0,0
532,624,0,0,0,0,0,0,0,0,0,-1,1756,400,0,0
539,624,0,0,0,0,0,0,0,0,0,-1,1763,400,0,0
546,624,0,0,0,0,0,0,0,0,0,-1,1770,400,0,0
553,624,0,0,0,0,0,0,0,0,0,-1,1777,400,0,0
560,624,0,0,0,0,0,0,0,0,0,-1,1784,400,0,0
567,624,0,0,0,0,0,0,0,0,0,-1,1791,400,0,0
574,624,0,0,0,0,0,0,0,0,0,-1,1798,400,0,0
581,624,0,0,0,0,0,0,0,0,0,-1,1805,400,0,0
588,624,0,0,0,0,0,0,0,0,0,-1,1812,400,0,0
595,624,0,0,0,0,0,0,0,0,0,-1,1819,400,0,0
602,624,0,0,0,0,0,0,0,0,0,-1,1826,400,0,0
609,624,0,0,0,0,0,0,0,0,0,-1,1833,400,0,0
616,624,0,0,0,0,0,0,0,0,0,-1,1840,400,0,0
623,624,0,0,0,0,0,0,0,0,0,-1,1847,400,0,0
630,624,0,0,0,0,0,0,0,0,0,-1,1854,400,0,0
637,624,0,0,0,0,0,0,0,0,0,-1,1861,400,0,0
644,624,0,0,0,0,0,0,0,0,0,-1,1868,400,0,0
651,624,0,0,0,0,0,0,0,0,0,-1,1875,400,0,0
658,624,0,0,0,0,0,0,0,0,0,-1,1882,400,0,0
665,624,0,0,0,0,0,0,0,0,0,-1,1889,400,0,0
672,624,0,0,0,0,0,0,0,0,0,-1,1896,400,0,0
679,624,0,0,0,0,0,0,0,0,0,-1,1903,400,0,0
686,624,0,0,0,0,0,0,0,0,0,-1,1910,400,0,0
693,624,0,0,0,0,0,0,0,0,0,-1,1917,400,0,0
700,624,0,0,0,0,0,0,0,0,0,-1,1924,400,0,0
707,624,0,0,0,0,0,0,0,0,0,-1,1931,400,0,0
714,624,0,0,0,0,0,0,0,0,0,-1,1938,400,0,0
721,624,0,0,0,0,0,0,0,0,0,-1,1945,400,0,0
728,624,0,0,0,0,0,0,0,0,0,-1,1952,400,0,0
735,624,0,0,0,0,0,0,0,0,0,-1,1959,400,0,0
742,624,0,0,0,0,0,0,0,0,0,-1,1966,400,0,0
749,624,0,0,0,0,0,0,0,0,0,-1,1973,400,0,0
756,624,0,0,0,0,0,0,0,0,0,-1,1980,400,0,0
763,624,0,0,0,0,0,0,0,0,0,-1,1987,400,0,0
770,624,0,0,0,0,0,0,0,0,0,-1,1994,400,0,0
777,624,0,0,0,0,0,0,0,0,0,-1,2001,400,0,0
784,624,0,0,0,0,0,0,0,0,0,-1,2008,400,0,0
791,624,0,0,0,0,0,0,0,0,0,-1,2015,400,0,0
798,624,0,0,0,0,0,0,0,0,0,-1,2022,400,0,0
805,624,0,0,0,0,0,0,0,0,0,-1,2029,400,0,0
812,624,0,0,0,0,0,0,0,0,0,-1,2036,400,0,0
-700,617,0,0,0,0,0,0,0,0,0,-1,524,407,0,0
-693,617,0,0,0,0,0,0,0,0,0,-1,531,407,0,0
-686,617,0,0,0,0,0,0,0,0,0,-1,538,407,0,0
-679,617,0,0,0,0,0,0,0,0,0,-1,545,407,0,0
-672,617,0,0,0,0,0,0,0,0,0,-1,552,407,0,0
-665,617,0,0,0,0,0,0,0,0,0,-1,559,407,0,0
-658,617,0,0,0,0,0,0,0,0,0,-1,566,407,0,0
-651,617,0,0,0,0,0,0,0,0,0,-1,573,407,0,0
-644,617,0,0,0,0,0,0,0,0,0,-1,580,407,0,0
-637,617,0,0,0,0,0,0,0,0,0,-1,587,407,0,0
-630,617,0,0,0,0,0,0,0,0,0,-1,594,407,0,0
-623,617,0,0,0,0,0,0,0,0,0,-1,601,407,0,0
-616,617,0,0,0,0,0,0,0,0,0,-1,608,407,0,0
-609,617,0,0,0,0,0,0,0,0,0,-1,615,407,0,0
-602,617,0,0,0,0,0,0,0,0,0,-1,622,407,0,0
-595,617,0,0,0,0,0,0,0,0,0,-1,629,407,0,0
-588,617,0,0,0,0,0,0,0,0,0,-1,636,407,0,0
-581,617,0,0,0,0,0,0,0,0,0,-1,643,407,0,0
-574,617,0,0,0,0,0,0,0,0,0,-1,650,407,0,0
-567,617,0,0,0,0,0,0,0,0,0,-1,657,407,0,0
-560,617,0,0,0,0,0,0,0,0,0,-1,664,407,0,0
-553,617,0,0,0,0,0,0,0,0,0,-1,671,407,0,0
-546,617,0,0,0,0,0,0,0,0,0,-1,678,407,0,0
-539,617,0,0,0,0,0,0,0,0,0,-1,685,407,0,0
-532,617,0,0,0,0,0,0,0,0,0,-1,692,407,0,0
-525,617,0,0,0,0,0,0,0,0,0,-1,699,407,0,0
-518,617,0,0,0,0,0,0,0,0,0,-1,706,407,0,0
-511,617,0,0,0,0,0,0,0,0,0,-1,713,407,0,0
-504,617,0,0,0,0,0,0,0,0,0,-1,720,407,0,0
-497,617,0,0,0,0,0,0,0,0,0,-1,727,407,0,0
-490,617,0,0,0,0,0,0,0,0,0,-1,734,407,0,0
-483,617,0,0,0,0,0,0,0,0,0,-1,741,407,0,0
-476,617,0,0,0,0,0,0,0,0,0,-1,748,407,0,0
-469,617,0,0,0,0,0,0,0,0,0,-1,755,407,0,0
-462,617,0,0,0,0,0,0,0,0,0,-1,762,407,0,0
-455,617,0,0,0,0,0,0,0,0,0,-1,769,407,0,0
-448,617,0,0,0,0,0,0,0,0,0,-1,776,407,0,0
-441,617,0,0,0,0,0,0,0,0,0,-1,783,407,0,0
-434,617,0,0,0,0,0,0,0,0,0,-1,790,407,0,0
-427,617,0,0,0,0,0,0,0,0,0,-1,797,407,0,0
-420,617,0,0,0,0,0,0,0,0,0,-1,804,407,0,0
-413,617,0,0,0,0,0,0,0,0,0,-1,811,407,0,0
-406,617,0,0,0,0,0,0,0,0,0,-1,818,407,0,0
-399,617,0,0,0,0,0,0,0,0,0,-1,825,407,0,0
-392,617,0,0,0,0,0,0,0,0,0,-1,832,407,0,0
-385,617,0,0,0,0,0,0,0,0,0,-1,839,407,0,0
-378,617,0,0,0,0,0,0,0,0,0,-1,846,407,0,0
-371,617,0,0,0,0,0,0,0,0,0,-1,853,407,0,0
-364,617,0,0,0,0,0,0,0,0,0,-1,860,407,0,0
-357,617,0,0,0,0,0,0,0,0,0,-1,867,407,0,0
-350,617,0,0,0,0,0,0,0,0,0,-1,874,407,0,0
-343,617,0,0,0,0,0,0,0,0,0,-1,881,407,0,0
-336,617,0,0,0,0,0,0,0,0,0,-1,888,407,0,0
-329,617,0,0,0,0,0,0,0,0,0,-1,895,407,0,0
-322,617,0,0,0,0,0,0,0,0,0,-1,902,407,0,0
-315,617,0,0,0,0,0,0,0,0,0,-1,909,407,0,0
-308,617,0,0,0,0,0,0,0,0,0,-1,916,407,0,0
-301,617,6.8504,-26.4473,0,0,0,0,0,0,0,-1,923,407,6.85041,26.4473
-294,617,8.41962,-26.4389,0,0,0,0,0,0,0,-1,930,407,8.41964,26.4389
-287,617,9.90497,-26.4554,0,0,0,0,0,0,0,-1,937,407,9.90498,26.4554
-280,617,4.3504,-25.0479,0,0,0,0,0,0,0,-1,944,407,4.35041,25.0479
-273,617,3.83069,-23.1539,0,0,0,0,0,0,0,-1,951,407,3.83071,23.1539
-266,617,4.50061,-23.7659,0,0,0,0,0,0,0,-1,958,407,4.50058,23.7659
-259,617,5.4046,-24.5516,0,0,0,0,0,0,0,-1,965,407,5.40458,24.5516
-252,617,4.3783,-25.163,0,0,0,0,0,0,0,-1,972,407,4.37827,25.163
-245,617,4.87335,-24.4558,0,0,0,0,0,0,0,-1,979,407,4.87337,24.4558
-238,617,4.11346,-24.7751,0,0,0,0,0,0,0,-1,986,407,4.11347,24.7751
-231,617,4.54932,-24.6942,0,0,0,0,0,0,0,-1,993,407,4.54933,24.6942
-224,617,4.51428,-25.347,0,0,0,0,0,0,0,-1,1000,407,4.51429,25.3469
-217,617,4.50885,-25.8606,-0.00321288,0.024228,-0.00615405,0.0255449,-0.00452983,-1.35998,0.0187234,0.0447928,1007,407,4.50883,25.8606
-210,617,4.42725,-26.4342,-0.00265652,0.0198551,-0.00596462,0.0213378,-0.00413924,-1.32715,0.0157869,0.0306673,1014,407,4.42726,26.4342
-203,617,4.38159,-26.8904,-0.00244111,0.0165752,-0.00536889,0.0179862,-0.0038522,-1.31378,0.0134599,0.0212785,1021,407,4.38154,26.8904
-196,617,4.35718,-27.2816,-0.00244504,0.0134072,-0.00500191,0.0148535,-0.00389135,-1.28932,0.0114226,0.0163915,1028,407,4.35714,27.2816
-189,617,4.29651,-27.654,-0.00202207,0.0112972,-0.00493471,0.0129263,-0.00365111,-1.25194,0.0100579,0.0143092,1035,407,4.2965,27.654
-182,617,4.28967,-28.0451,-0.00142981,0.00960594,-0.0046137,0.0112806,-0.00310451,-1.2226,0.00874101,0.0165035,1042,407,4.28962,28.0451
-175,617,4.28162,-28.4108,-0.00100268,0.00785421,-0.0043074,0.00960354,-0.002752,-1.18502,0.00749015,0.0158897,1049,407,4.28165,28.4108
-168,617,4.24792,-28.8104,-0.000609248,0.00655404,-0.00401951,0.00835614,-0.00241134,-1.14933,0.00652479,0.0110299,1056,407,4.24789,28.8104
-161,617,4.2052,-29.1838,-0.000208736,0.00539631,-0.00369565,0.00723189,-0.00204431,-1.1098,0.00562785,0.0100184,1063,407,4.20514,29.1838
-154,617,4.19556,-29.5183,0.000183878,0.00450545,-0.0033201,0.00630598,-0.00161666,-1.07387,0.00483384,0.0111459,1070,407,4.19562,29.5183
-147,617,4.19031,-29.8508,0.000476256,0.00375127,-0.00298571,0.00551904,-0.00129151,-1.03622,0.00417696,0.0155377,1077,407,4.19033,29.8508
-140,617,4.17554,-30.1917,0.00076013,0.00312714,-0.00265006,0.00484596,-0.000958691,-0.995408,0.00359309,0.0113475,1084,407,4.17552,30.1917
-133,617,4.16577,-30.5107,0.000982866,0.00260873,-0.00224931,0.00418751,-0.000595911,-0.958801,0.00301003,0.0137947,1091,407,4.16572,30.5107
-126,617,4.15515,-30.7658,0.00105789,0.00218197,-0.00186411,0.00356692,-0.000327064,-0.931817,0.00249413,0.0143494,1098,407,4.15512,30.7658
-119,617,4.12988,-31.05,0.00110986,0.0019151,-0.00154297,0.00310711,-8.21535e-05,-0.913022,0.00209933,0.0143813,1105,407,4.12989,31.05
-112,617,4.1333,-31.3387,0.00110629,0.00169639,-0.001225,0.00266137,0.000141304,-0.903576,0.00172907,0.0161057,1112,407,4.13332,31.3387
-105,617,4.12646,-31.6025,0.00105546,0.00125641,-0.000993959,0.00215496,0.000156909,-0.83577,0.0013873,0.016418,1119,407,4.12647,31.6025
-98,617,4.13135,-31.8781,0.00102458,0.000518329,-0.000798417,0.00160903,-6.61273e-05,-0.631894,0.0010954,0.0125339,1126,407,4.13133,31.8781
-91,617,4.12683,-32.153,0.00109101,-3.53563e-05,-0.000638572,0.00137926,-0.000323613,-0.424025,0.00104423,0.0180427,1133,407,4.12685,32.153
-84,617,4.16809,-32.419,0.00121283,-0.000509704,-0.000483552,0.00133929,-0.000636163,-0.255793,0.00116436,0.0189412,1140,407,4.16807,32.419
-77,617,4.19666,-32.6537,0.00140352,-0.000679144,-0.000310711,0.00144889,-0.00072451,-0.144984,0.00127783,0.0144424,1147,407,4.19671,32.6537
-70,617,4.19885,-32.87,0.00172068,-0.000667824,-0.000150036,0.00173007,-0.000677212,-0.0624886,0.00143347,0.0156678,1154,407,4.19879,32.87
-63,617,4.2113,-33.0677,0.00214605,-0.000442724,1.31822e-05,0.00214612,-0.000442791,0.0050919,0.00159891,0.0179769,1161,407,4.21136,33.0677
-56,617,4.19934,-33.2776,0.00259249,-0.000549714,0.000189202,0.00260384,-0.000561066,0.0599245,0.00195001,0.0130494,1168,407,4.19934,33.2776
-49,617,4.20703,-33.4917,0.00288697,-0.00111892,0.000329388,0.00291387,-0.00114582,0.0814967,0.00241682,0.00985672,1175,407,4.20706,33.4917
-42,617,4.22754,-33.6978,0.00358494,-0.00249341,0.000811967,0.00369154,-0.00260001,0.130535,0.0036506,0.0120404,1182,407,4.22753,33.6978
-35,617,4.26245,-33.8424,0.00448919,-0.00423985,0.00103617,0.0046105,-0.00436116,0.116546,0.00518046,0.0166145,1189,407,4.26244,33.8424
-28,617,4.27295,-33.9832,0.00476356,-0.00440242,0.00153119,0.00501258,-0.00465145,0.161222,0.00558083,0.0190331,1196,407,4.27292,33.9832
-21,617,4.29199,-34.134,0.00476201,-0.0045848,0.00212446,0.00522222,-0.00504501,0.21333,0.00592808,0.0145829,1203,407,4.29194,34.134
-14,617,4.30237,-34.2535,0.00488346,-0.00474939,0.00211282,0.0053265,-0.00519243,0.206696,0.00607327,0.0164101,1210,407,4.3024,34.2535
-7,617,4.32483,-34.3553,0.0052554,-0.00521921,0.00207307,0.00565077,-0.00561457,0.188452,0.00650406,0.0188768,1217,407,4.32479,34.3553
0,617,4.37073,-34.4824,0.00513993,-0.00475671,0.00201759,0.00553545,-0.00515222,0.193577,0.00617185,0.0157254,1224,407,4.37076,34.4823
7,617,4.41846,-34.5932,0.00469523,-0.00415064,0.00182044,0.00505521,-0.00451063,0.195229,0.00552583,0.0120101,1231,407,4.41852,34.5932
14,617,4.4574,-34.7067,0.00416057,-0.00322836,0.00130658,0.00438481,-0.00345259,0.169965,0.00453558,0.0144183,1238,407,4.45738,34.7067
21,617,4.49902,-34.7885,0.00394383,-0.0025358,0.00106242,0.00411358,-0.00270555,0.158438,0.0039649,0.0131345,1245,407,4.49903,34.7885
28,617,4.53455,-34.8609,0.00429813,-0.00185686,0.000641768,0.00436433,-0.00192306,0.102795,0.00372012,0.0113752,1252,407,4.5345,34.8609
35,617,4.52588,-34.9113,0.00455143,-0.00215529,5.48053e-05,0.00455188,-0.00215574,0.00817097,0.00395416,0.0144698,1259,407,4.52593,34.9113
42,617,4.61975,-34.8961,0.00501553,-0.00272401,-0.000204639,0.00502094,-0.00272941,-0.0264161,0.0045394,0.0207115,1266,407,4.61977,34.8961
49,617,4.64832,-34.9105,0.00559857,-0.00351175,-0.000319366,0.00560975,-0.00352293,-0.0349982,0.00531844,0.0189865,1273,407,4.64832,34.9105
56,617,4.67212,-34.9495,0.00597653,-0.00523552,-0.000323014,0.00598583,-0.00524482,-0.0287777,0.00648872,0.0139807,1280,407,4.67209,34.9495
63,617,4.72363,-34.9614,0.0062535,-0.00748541,-2.75573e-05,0.00625356,-0.00748546,-0.00200578,0.00794285,0.0107859,1287,407,4.72363,34.9614
70,617,4.76355,-34.9663,0.00656627,-0.00962781,0.00047683,0.0065803,-0.00964184,0.0294108,0.00942129,0.0149983,1294,407,4.76355,34.9664
77,617,4.82507,-34.921,0.00693604,-0.0120756,0.00103686,0.00699242,-0.0121319,0.0543237,0.0111736,0.0134786,1301,407,4.82511,34.921
84,617,4.85901,-34.8674,0.00726004,-0.014438,0.00145422,0.00735707,-0.0145351,0.0666236,0.0128639,0.0103356,1308,407,4.85904,34.8674
91,617,4.89038,-34.7996,0.00711238,-0.0166159,0.00207555,0.00729256,-0.0167961,0.0865955,0.0142638,0.010898,1315,407,4.89041,34.7996
98,617,4.92932,-34.7289,0.00655825,-0.0178247,0.00254917,0.00682191,-0.0180884,0.103062,0.0148642,0.0122812,1322,407,4.92929,34.7289
105,617,4.95361,-34.6649,0.00638567,-0.0187692,0.00272873,0.00667828,-0.0190618,0.106822,0.0154236,0.0135585,1329,407,4.95361,34.6649
112,617,4.99646,-34.5883,0.0063185,-0.0191669,0.00262146,0.00658535,-0.0194338,0.101446,0.0156207,0.0160235,1336,407,4.9965,34.5883
119,617,5.02075,-34.4731,0.00608268,-0.0189339,0.00252594,0.00633518,-0.0191864,0.0996307,0.015345,0.0180613,1343,407,5.02076,34.4731
126,617,5.05493,-34.3471,0.00560262,-0.0174673,0.00177737,0.00573875,-0.0176034,0.0764417,0.0140449,0.0201511,1350,407,5.05494,34.3471
133,617,5.07825,-34.2036,0.00502105,-0.015872,0.00110626,0.00507946,-0.0159304,0.0527522,0.0126578,0.0186027,1357,407,5.07826,34.2036
140,617,5.10693,-34.0746,0.00500217,-0.013613,0.000472682,0.00501417,-0.0136249,0.0253706,0.0111375,0.0167095,1364,407,5.10699,34.0746
147,617,5.10583,-33.9008,0.0050723,-0.0117961,-0.000439948,0.00508377,-0.0118075,-0.0260576,0.0100064,0.0209939,1371,407,5.10589,33.9008
154,617,5.15515,-33.7628,0.00523948,-0.0103245,-0.00121976,0.00533449,-0.0104195,-0.0777383,0.00925217,0.0247849,1378,407,5.15518,33.7628
161,617,5.21997,-33.6039,0.00547314,-0.00859608,-0.00175821,0.00568954,-0.00881247,-0.12246,0.0084372,0.0252373,1385,407,5.21993,33.604
168,617,5.26782,-33.4548,0.00533015,-0.00686772,-0.00220686,0.00571715,-0.00725471,-0.173593,0.00750682,0.0224247,1392,407,5.26787,33.4548
175,617,5.24426,-33.2587,0.00477158,-0.00541398,-0.00230715,0.00526981,-0.0059122,-0.212683,0.00645949,0.0178324,1399,407,5.24429,33.2587
182,617,5.28503,-33.009,0.00412734,-0.00423583,-0.00218118,0.00466203,-0.00477051,-0.240395,0.005446,0.0121807,1406,407,5.28508,33.009
189,617,5.27112,-32.7652,0.00332696,-0.0026846,-0.00177415,0.0038115,-0.00316914,-0.266609,0.00403596,0.011893,1413,407,5.27116,32.7652
196,617,5.2688,-32.5219,0.00269752,-0.00100034,-0.00129634,0.0031067,-0.00140951,-0.305741,0.0026681,0.0154577,1420,407,5.2688,32.5219
203,617,5.3053,-32.2807,0.00205729,0.000367232,-0.000853717,0.00241347,1.10505e-05,-0.395257,0.00160531,0.0163331,1427,407,5.30535,32.2807
210,617,5.33972,-32.035,0.00127958,0.00137816,-0.000363023,0.00169523,0.000962519,-0.852873,0.000981732,0.0158655,1434,407,5.33966,32.035
217,617,5.30652,-31.7454,0.000697681,0.00253515,0.000233064,0.00256425,0.00066858,1.44658,0.00153593,0.0209423,1441,407,5.30649,31.7453
224,617,5.30713,-31.4572,0.00046511,0.00323669,0.000543805,0.00333957,0.00036223,1.38382,0.002116,0.0196805,1448,407,5.30708,31.4572
231,617,5.33167,-31.1759,0.00032929,0.00381647,0.000881777,0.00402676,0.000119003,1.33669,0.00264573,0.0143509,1455,407,5.33171,31.1759
238,617,5.33301,-30.8948,0.000231665,0.00446764,0.0012376,0.00480272,-0.000103414,1.30639,0.00323683,0.0143483,1462,407,5.33297,30.8948
245,617,5.34998,-30.6174,9.63189e-05,0.00501727,0.00146985,0.00542287,-0.000309283,1.30155,0.00372263,0.0126467,1469,407,5.34993,30.6174
252,617,5.30774,-30.2589,1.90094e-05,0.00560452,0.00171792,0.0060906,-0.000467067,1.29506,0.0042247,0.0140384,1476,407,5.3077,30.2589
259,617,5.30042,-29.9136,-9.11603e-05,0.00619441,0.00204674,0.00680213,-0.000698875,1.28217,0.00478475,0.0114873,1483,407,5.3004,29.9136
266,617,5.29846,-29.574,-0.000219474,0.00669922,0.00237243,0.00743457,-0.000954825,1.27023,0.00530339,0.0138427,1490,407,5.29851,29.574
273,617,5.29236,-29.231,-0.000582677,0.00681788,0.00297174,0.00786348,-0.00162827,1.23248,0.00586096,0.0145887,1497,407,5.29238,29.2309
280,617,5.26831,-28.8884,-0.000929723,0.00713706,0.00360826,0.00851549,-0.00230815,1.20589,0.00658268,0.0132727,1504,407,5.26826,28.8884
287,617,5.23669,-28.5142,-0.000921643,0.00729567,0.00436304,0.00918011,-0.00280608,1.16309,0.00723905,0.0122443,1511,407,5.23665,28.5142
294,617,5.2113,-28.1406,-0.00119724,0.00746828,0.00516639,0.00987825,-0.00360721,1.13433,0.00806156,0.00900038,1518,407,5.21135,28.1406
301,617,5.18469,-27.7742,-0.00145149,0.0075189,0.00601644,0.010538,-0.00447059,1.1057,0.00889811,0.00755667,1525,407,5.18464,27.7742
308,617,5.1637,-27.3826,-0.00158385,0.00743123,0.00693361,0.0111937,-0.00534631,1.07362,0.00974626,0.00802886,1532,407,5.16368,27.3826
315,617,5.13513,-26.9836,-0.00167472,0.00721246,0.00787888,0.0118144,-0.0062767,1.04216,0.0106068,0.00901824,1539,407,5.13514,26.9837
322,617,5.10461,-26.5662,-0.00178441,0.0069777,0.00880735,0.0124335,-0.00724017,1.01619,0.0114897,0.0131348,1546,407,5.10464,26.5662
329,617,5.10718,-26.1366,-0.00189765,0.00669334,0.00957412,0.0128914,-0.00809572,0.996266,0.0122219,0.0145641,1553,407,5.10719,26.1366
336,617,5.18567,-25.6139,-0.00206659,0.00643753,0.0101184,0.013161,-0.00879007,0.98431,0.0127569,0.0260902,1560,407,5.18563,25.6139
343,617,5.29211,-25.1133,0,0,0,0,0,0,0,-1,1567,407,5.29216,25.1133
350,617,5.1355,-24.702,0,0,0,0,0,0,0,-1,1574,407,5.13549,24.702
357,617,2.1748,-7.16504,0,0,0,0,0,0,0,-1,1581,407,2.1748,7.16505
364,617,2.30127,-7.60257,0,0,0,0,0,0,0,-1,1588,407,2.30125,7.60258
371,617,2.60266,-6.20667,0,0,0,0,0,0,0,-1,1595,407,2.60261,6.20668
378,617,1.56921,-10.3601,0,0,0,0,0,0,0,-1,1602,407,1.56918,10.3601
385,617,1.74146,-10.3561,0,0,0,0,0,0,0,-1,1609,407,1.7414,10.3561
392,617,1.96936,-5.10449,0,0,0,0,0,0,0,-1,1616,407,1.96931,5.10451
399,617,2.48889,-5.81256,0,0,0,0,0,0,0,-1,1623,407,2.48888,5.81255
406,617,3.01465,-6.51642,0,0,0,0,0,0,0,-1,1630,407,3.01461,6.51643
413,617,3.6427,-7.2074,0,0,0,0,0,0,0,-1,1637,407,3.64274,7.20739
420,617,3.42737,-4.47391,0,0,0,0,0,0,0,-1,1644,407,3.42737,4.47391
427,617,0,0,0,0,0,0,0,0,0,-1,1651,407,0,0
434,617,0,0,0,0,0,0,0,0,0,-1,1658,407,0,0
441,617,0,0,0,0,0,0,0,0,0,-1,1665,407,0,0
448,617,0,0,0,0,0,0,0,0,0,-1,1672,407,0,0
455,617,0,0,0,0,0,0,0,0,0,-1,1679,407,0,0
462,617,0,0,0,0,0,0,0,0,0,-1,1686,407,0,0
469,617,0,0,0,0,0,0,0,0,0,-1,1693,407,0,0
476,617,0,0,0,0,0,0,0,0,0,-1,1700,407,0,0
483,617,0,0,0,0,0,0,0,0,0,-1,1707,407,0,0
490,617,0,0,0,0,0,0,0,0,0,-1,1714,407,0,0
497,617,0,0,0,0,0,0,0,0,0,-1,1721,407,0,0
504,617,0,0,0,0,0,0,0,0,0,-1,1728,407,0,0
511,617,0,0,0,0,0,0,0,0,0,-1,1735,407,0,0
518,617,0,0,0,0,0,0,0,0,0,-1,1742,407,0,0
525,617,0,0,0,0,0,0,0,0,0,-1,1749,407,0,0
532,617,0,0,0,0,0,0,0,0,0,-1,1756,407,0,0
539,617,0,0,0,0,0,0,0,0,0,-1,1763,407,0,0
546,617,0,0,0,0,0,0,0,0,0,-1,1770,407,0,0
553,617,0,0,0,0,0,0,0,0,0,-1,1777,407,0,0
560,617,0,0,0,0,0,0,0,0,0,-1,1784,407,0,0
567,617,0,0,0,0,0,0,0,0,0,-1,1791,407,0,0
574,617,0,0,0,0,0,0,0,0,0,-1,1798,407,0,0
581,617,0,0,0,0,0,0,0,0,0,-1,1805,407,0,0
588,617,0,0,0,0,0,0,0,0,0,-1,1812,407,0,0
595,617,0,0,0,0,0,0,0,0,0,-1,1819,407,0,0
602,617,0,0,0,0,0,0,0,0,0,-1,1826,407,0,0
609,617,0,0,0,0,0,0,0,0,0,-1,1833,407,0,0
616,617,0,0,0,0,0,0,0,0,0,-1,1840,407,0,0
623,617,0,0,0,0,0,0,0,0,0,-1,1847,407,0,0
630,617,0,0,0,0,0,0,0,0,0,-1,1854,407,0,0
637,617,0,0,0,0,0,0,0,0,0,-1,1861,407,0,0
644,617,0,0,0,0,0,0,0,0,0,-1,1868,407,0,0
651,617,0,0,0,0,0,0,0,0,0,-1,1875,407,0,0
658,617,0,0,0,0,0,0,0,0,0,-1,1882,407,0,0
665,617,0,0,0,0,0,0,0,0,0,-1,1889,407,0,0
672,617,0,0,0,0,0,0,0,0,0,-1,1896,407,0,0
679,617,0,0,0,0,0,0,0,0,0,-1,1903,407,0,0
686,617,0,0,0,0,0,0,0,0,0,-1,1910,407,0,0
693,617,0,0,0,0,0,0,0,0,0,-1,1917,407,0,0
700,617,0,0,0,0,0,0,0,0,0,-1,1924,407,0,0
707,617,0,0,0,0,0,0,0,0,0,-1,1931,407,0,0
714,617,0,0,0,0,0,0,0,0,0,-1,1938,407,0,0
721,617,0,0,0,0,0,0,0,0,0,-1,1945,407,0,0
728,617,0,0,0,0,0,0,0,0,0,-1,1952,407,0,0
735,617,0,0,0,0,0,0,0,0,0,-1,1959,407,0,0
742,617,0,0,0,0,0,0,0,0,0,-1,1966,407,0,0
749,617,0,0,0,0,0,0,0,0,0,-1,1973,407,0,0
756,617,0,0,0,0,0,0,0,0,0,-1,1980,407,0,0
763,617,0,0,0,0,0,0,0,0,0,-1,1987,407,0,0
770,617,0,0,0,0,0,0,0,0,0,-1,1994,407,0,0
777,617,0,0,0,0,0,0,0,0,0,-1,2001,407,0,0
784,617,0,0,0,0,0,0,0,0,0,-1,2008,407,0,0
791,617,0,0,0,0,0,0,0,0,0,-1,2015,407,0,0
798,617,0,0,0,0,0,0,0,0,0,-1,2022,407,0,0
805,617,0,0,0,0,0,0,0,0,0,-1,2029,407,0,0
812,617,0,0,0,0,0,0,0,0,0,-1,2036,407,0,0
-700,610,0,0,0,0,0,0,0,0,0,-1,524,414,0,0
-693,610,0,0,0,0,0,0,0,0,0,-1,531,414,0,0
-686,610,0,0,0,0,0,0,0,0,0,-1,538,414,0,0
-679,610,0,0,0,0,0,0,0,0,0,-1,545,414,0,0
-672,610,0,0,0,0,0,0,0,0,0,-1,552,414,0,0
-665,610,0,0,0,0,0,0,0,0,0,-1,559,414,0,0
-658,610,0,0,0,0,0,0,0,0,0,-1,566,414,0,0
-651,610,0,0,0,0,0,0,0,0,0,-1,573,414,0,0
-644,610,0,0,0,0,0,0,0,0,0,-1,580,414,0,0
-637,610,0,0,0,0,0,0,0,0,0,-1,587,414,0,0
-630,610,0,0,0,0,0,0,0,0,0,-1,594,414,0,0
-623,610,0,0,0,0,0,0,0,0,0,-1,601,414,0,0
-616,610,0,0,0,0,0,0,0,0,0,-1,608,414,0,0
-609,610,0,0,0,0,0,0,0,0,0,-1,615,414,0,0
-602,610,0,0,0,0,0,0,0,0,0,-1,622,414,0,0
-595,610,0,0,0,0,0,0,0,0,0,-1,629,414,0,0
-588,610,0,0,0,0,0,0,0,0,0,-1,636,414,0,0
-581,610,0,0,0,0,0,0,0,0,0,-1,643,414,0,0
-574,610,0,0,0,0,0,0,0,0,0,-1,650,414,0,0
-567,610,0,0,0,0,0,0,0,0,0,-1,657,414,0,0
-560,610,0,0,0,0,0,0,0,0,0,-1,664,414,0,0
-553,610,0,0,0,0,0,0,0,0,0,-1,671,414,0,0
-546,610,0,0,0,0,0,0,0,0,0,-1,678,414,0,0
-539,610,0,0,0,0,0,0,0,0,0,-1,685,414,0,0
-532,610,0,0,0,0,0,0,0,0,0,-1,692,414,0,0
-525,610,0,0,0,0,0,0,0,0,0,-1,699,414,0,0
-518,610,0,0,0,0,0,0,0,0,0,-1,706,414,0,0
-511,610,0,0,0,0,0,0,0,0,0,-1,713,414,0,0
-504,610,0,0,0,0,0,0,0,0,0,-1,720,414,0,0
-497,610,0,0,0,0,0,0,0,0,0,-1,727,414,0,0
-490,610,0,0,0,0,0,0,0,0,0,-1,734,414,0,0
-483,610,0,0,0,0,0,0,0,0,0,-1,741,414,0,0
-476,610,0,0,0,0,0,0,0,0,0,-1,748,414,0,0
-469,610,0,0,0,0,0,0,0,0,0,-1,755,414,0,0
-462,610,0,0,0,0,0,0,0,0,0,-1,762,414,0,0
-455,610,0,0,0,0,0,0,0,0,0,-1,769,414,0,0
-448,610,0,0,0,0,0,0,0,0,0,-1,776,414,0,0
-441,610,0,0,0,0,0,0,0,0,0,-1,783,414,0,0
-434,610,0,0,0,0,0,0,0,0,0,-1,790,414,0,0
-427,610,0,0,0,0,0,0,0,0,0,-1,797,414,0,0
-420,610,0,0,0,0,0,0,0,0,0,-1,804,414,0,0
-413,610,0,0,0,0,0,0,0,0,0,-1,811,414,0,0
-406,610,0,0,0,0,0,0,0,0,0,-1,818,414,0,0
-399,610,0,0,0,0,0,0,0,0,0,-1,825,414,0,0
-392,610,0,0,0,0,0,0,0,0,0,-1,832,414,0,0
-385,610,0,0,0,0,0,0,0,0,0,-1,839,414,0,0
-378,610,0,0,0,0,0,0,0,0,0,-1,846,414,0,0
-371,610,0,0,0,0,0,0,0,0,0,-1,853,414,0,0
-364,610,0,0,0,0,0,0,0,0,0,-1,860,414,0,0
-357,610,0,0,0,0,0,0,0,0,0,-1,867,414,0,0
-350,610,0,0,0,0,0,0,0,0,0,-1,874,414,0,0
-343,610,0,0,0,0,0,0,0,0,0,-1,881,414,0,0
-336,610,0,0,0,0,0,0,0,0,0,-1,888,414,0,0
-329,610,0,0,0,0,0,0,0,0,0,-1,895,414,0,0
-322,610,0,0,0,0,0,0,0,0,0,-1,902,414,0,0
-315,610,8.08594,-20.6403,0,0,0,0,0,0,0,-1,909,414,8.08595,20.6403
-308,610,3.97559,-24.1635,0,0,0,0,0,0,0,-1,916,414,3.97556,24.1635
-301,610,4.95953,-24.3575,0,0,0,0,0,0,0,-1,923,414,4.95952,24.3575
-294,610,6.20813,-24.3114,0,0,0,0,0,0,0,-1,930,414,6.20815,24.3114
-287,610,2.427,-24.4821,0,0,0,0,0,0,0,-1,937,414,2.42702,24.4821
-280,610,2.78668,-21.9856,0,0,0,0,0,0,0,-1,944,414,2.78671,21.9856
-273,610,3.55499,-22.5514,0,0,0,0,0,0,0,-1,951,414,3.55497,22.5514
-266,610,4.38629,-23.0743,0,0,0,0,0,0,0,-1,958,414,4.38632,23.0743
-259,610,4.97595,-24.3593,0,0,0,0,0,0,0,-1,965,414,4.97593,24.3593
-252,610,4.20795,-24.1009,0,0,0,0,0,0,0,-1,972,414,4.20796,24.1009
-245,610,4.37555,-24.4176,0,0,0,0,0,0,0,-1,979,414,4.37558,24.4176
-238,610,4.1889,-24.5166,0,0,0,0,0,0,0,-1,986,414,4.18891,24.5166
-231,610,4.12848,-25.0007,-0.00372512,0.0227183,-0.004867,0.0235856,-0.00459246,-1.39444,0.0174571,0.0389859,993,414,4.12849,25.0007
-224,610,4.10785,-25.5696,-0.00299703,0.0220757,-0.00506009,0.0230584,-0.00397973,-1.37898,0.0168561,0.027099,1000,414,4.10787,25.5696
-217,610,4.06866,-26.0905,-0.00224129,0.0203407,-0.00561236,0.0216587,-0.00355922,-1.34015,0.0157601,0.0179125,1007,414,4.06867,26.0905
-210,610,4.04779,-26.5733,-0.00179207,0.0172628,-0.00541411,0.0186937,-0.00322295,-1.31242,0.0136641,0.0122688,1014,414,4.04779,26.5733
-203,610,4.04321,-26.9972,-0.00165574,0.0147068,-0.00483307,0.0160278,-0.00297667,-1.304,0.0118032,0.0139134,1021,414,4.04319,26.9972
-196,610,4.0282,-27.3698,-0.00158749,0.0122859,-0.00447281,0.013603,-0.0029045,-1.28444,0.0101759,0.0135985,1028,414,4.02819,27.3698
-189,610,4.00073,-27.7357,-0.00122327,0.0104128,-0.00432873,0.0118465,-0.00265695,-1.25097,0.00891627,0.0106314,1035,414,4.00079,27.7358
-182,610,3.95605,-28.098,-0.000702923,0.00873687,-0.00398616,0.0101949,-0.00216096,-1.22014,0.00761976,0.0112627,1042,414,3.95608,28.098
-175,610,3.92957,-28.4614,-0.000278852,0.00692223,-0.00362452,0.00843061,-0.00178723,-1.17644,0.00630121,0.0129645,1049,414,3.92954,28.4614
-168,610,3.89404,-28.8322,0.000105544,0.00532431,-0.00329059,0.00691456,-0.0014847,-1.12062,0.00517608,0.0116442,1056,414,3.89404,28.8322
-161,610,3.86682,-29.2095,0.000484247,0.00376796,-0.0029324,0.00548686,-0.00123465,-1.0406,0.00413142,0.0106718,1063,414,3.86688,29.2095
-154,610,3.86462,-29.5345,0.000853845,0.00239755,-0.00251868,0.00425999,-0.00100859,-0.934081,0.00322913,0.0140777,1070,414,3.86463,29.5345
-147,610,3.89063,-29.8488,0.00114215,0.00112509,-0.00216685,0.00330049,-0.00103325,-0.78343,0.00261373,0.0156573,1077,414,3.89063,29.8488
-140,610,3.88843,-30.1781,0.00140165,-5.79734e-05,-0.00182939,0.00264143,-0.00129776,-0.595604,0.00231797,0.0113182,1084,414,3.88841,30.1781
-133,610,3.87744,-30.4768,0.00160623,-0.00114353,-0.00144876,0.00222864,-0.00176595,-0.405779,0.00231143,0.0130707,1091,414,3.87744,30.4768
-126,610,3.87415,-30.7503,0.00168719,-0.00205218,-0.00109595,0.00198473,-0.00234971,-0.265094,0.00250545,0.0129442,1098,414,3.87418,30.7503
-119,610,3.87549,-31.0394,0.00174362,-0.0027621,-0.000796115,0.00188015,-0.00289862,-0.169841,0.00277983,0.0107328,1105,414,3.87549,31.0394
-112,610,3.89587,-31.3333,0.00176032,-0.00328446,-0.000573981,0.00182481,-0.00334894,-0.111872,0.00302996,0.018085,1112,414,3.89586,31.3332
-105,610,3.87378,-31.6017,0.00172715,-0.00385578,-0.000412189,0.00175742,-0.00388604,-0.0733007,0.00333462,0.0190174,1119,414,3.87378,31.6017
-98,610,3.88428,-31.8672,0.00171922,-0.0044265,-0.000278616,0.00173183,-0.00443911,-0.0452112,0.0036753,0.0131132,1126,414,3.88427,31.8672
-91,610,3.88293,-32.1219,0.00186936,-0.00473628,-0.000242357,0.00187824,-0.00474516,-0.0366238,0.00394162,0.0142635,1133,414,3.88297,32.1219
-84,610,3.92419,-32.3858,0.00214137,-0.00467552,-0.000219865,0.00214846,-0.0046826,-0.0322083,0.00403336,0.0153166,1140,414,3.92415,32.3858
-77,610,3.94763,-32.6722,0.00249436,-0.00411877,-2.40792e-05,0.00249444,-0.00411886,-0.00364105,0.00385639,0.0120749,1147,414,3.94767,32.6722
-70,610,3.97864,-32.9013,0.00295157,-0.00345269,0.000133783,0.00295436,-0.00345548,0.0208776,0.00370449,0.0146351,1154,414,3.97862,32.9013
-63,610,4.00317,-33.1036,0.00355325,-0.00240249,0.000310035,0.00356934,-0.00241859,0.0518696,0.00347835,0.0135885,1161,414,4.00319,33.1036
-56,610,4.00513,-33.2695,0.004172,-0.00200753,0.000500832,0.00421233,-0.00204785,0.0803482,0.00368563,0.0108311,1168,414,4.00508,33.2695
-49,610,4.01221,-33.4708,0.00454413,-0.00254239,0.000616383,0.00459734,-0.00259561,0.0861179,0.00420611,0.0111071,1175,414,4.01226,33.4708
-42,610,4.03137,-33.6898,0.00551204,-0.00439788,0.00130842,0.00568188,-0.00456772,0.129084,0.00592925,0.015396,1182,414,4.03138,33.6898
-35,610,4.07251,-33.8463,0.00678727,-0.00681419,0.00161825,0.00697715,-0.00700408,0.116804,0.00807207,0.0152226,1189,414,4.07248,33.8464
-28,610,4.11499,-33.9755,0.00701093,-0.00620309,0.00255986,0.0074895,-0.00668166,0.184819,0.00818616,0.0130489,1196,414,4.115,33.9755
-21,610,4.15222,-34.1095,0.00670697,-0.00594743,0.00360338,0.0076611,-0.00690156,0.258848,0.00841157,0.0121233,1203,414,4.15227,34.1095
-14,610,4.19153,-34.2371,0.0066109,-0.00578668,0.00356005,0.00756047,-0.00673624,0.260659,0.00825878,0.0133712,1210,414,4.19153,34.2371
-7,610,4.23047,-34.3352,0.00695721,-0.00635907,0.00352261,0.00783164,-0.0072335,0.243315,0.00870015,0.0151103,1217,414,4.23044,34.3352
0,610,4.2771,-34.4626,0.0067456,-0.00584351,0.00345048,0.00762929,-0.0067272,0.250718,0.00829418,0.0116541,1224,414,4.27708,34.4627
7,610,4.32898,-34.5784,0.00615293,-0.00512072,0.00315893,0.00697773,-0.00594552,0.2554,0.00746917,0.0121588,1231,414,4.32899,34.5784
14,610,4.42297,-34.6398,0.00603261,-0.00443636,0.00280803,0.00673824,-0.00514198,0.24619,0.00687965,0.016332,1238,414,4.42296,34.6398
21,610,4.48193,-34.7002,0.00625819,-0.00422531,0.00277233,0.00694617,-0.00491329,0.243247,0.00688052,0.0152554,1245,414,4.48198,34.7002
28,610,4.45715,-34.782,0.00706032,-0.0039072,0.00248406,0.00759671,-0.00444359,0.212666,0.00703047,0.0154401,1252,414,4.4572,34.782
35,610,4.58936,-34.8141,0.00769483,-0.00471254,0.00191047,0.00798234,-0.00500005,0.149371,0.00756102,0.0188139,1259,414,4.58931,34.8142
42,610,4.61218,-34.8234,0.00866,-0.00595283,0.00173926,0.00886416,-0.00615699,0.116848,0.00871928,0.0172345,1266,414,4.61212,34.8234
49,610,4.646,-34.8871,0.00983062,-0.00746478,0.00178317,0.0100125,-0.00764671,0.101676,0.010226,0.0154241,1273,414,4.64599,34.8871
56,610,4.71631,-34.8893,0.0106172,-0.0100876,0.00196762,0.0108025,-0.0102729,0.0939122,0.0121692,0.0142148,1280,414,4.71627,34.8893
63,610,4.70691,-34.8387,0.0111853,-0.0133923,0.00241405,0.0114202,-0.0136272,0.0969865,0.0144798,0.0205079,1287,414,4.7069,34.8387
70,610,4.76868,-34.8396,0.011654,-0.0160877,0.00307736,0.0119913,-0.0164249,0.109161,0.0164725,0.0293534,1294,414,4.76863,34.8396
77,610,4.88,-34.8228,0.0120139,-0.018929,0.00367118,0.0124434,-0.0193586,0.116489,0.018505,0.0349675,1301,414,4.87995,34.8228
84,610,4.94214,-34.7836,0.0123014,-0.0213873,0.00406165,0.0127841,-0.0218701,0.118306,0.0202356,0.0314343,1308,414,4.94212,34.7836
91,610,5.01453,-34.7705,0.0119512,-0.0237003,0.00467413,0.0125539,-0.024303,0.128219,0.0216367,0.0280086,1315,414,5.01459,34.7705
98,610,5.10803,-34.7208,0.0109585,-0.0244925,0.00495681,0.0116385,-0.0251725,0.136339,0.0217264,0.0254349,1322,414,5.10799,34.7208
105,610,5.10205,-34.6379,0.010426,-0.024908,0.00486572,0.0110838,-0.0255657,0.134375,0.0217033,0.0195713,1329,414,5.1021,34.638
112,610,5.10901,-34.5673,0.0100191,-0.0247851,0.00446066,0.0105817,-0.0253477,0.125463,0.0213198,0.0134233,1336,414,5.10906,34.5673
119,610,5.12146,-34.4629,0.0091501,-0.0237526,0.00388843,0.00960339,-0.0242059,0.11605,0.0201175,0.0191422,1343,414,5.12146,34.4629
126,610,5.17432,-34.3421,0.00823259,-0.021267,0.00263062,0.00846534,-0.0214997,0.088247,0.0178376,0.0268102,1350,414,5.17428,34.3421
133,610,5.25061,-34.2002,0.00744175,-0.0189745,0.00160518,0.00753893,-0.0190717,0.0604685,0.0158373,0.0220378,1357,414,5.25066,34.2002
140,610,5.30261,-34.0578,0.00747808,-0.0160075,0.000704228,0.00749918,-0.0160286,0.0299497,0.0138781,0.0176904,1364,414,5.30262,34.0578
147,610,5.28076,-33.8744,0.00759899,-0.0137328,-0.000563531,0.00761387,-0.0137476,-0.0263929,0.0125014,0.0180419,1371,414,5.28078,33.8744
154,610,5.26904,-33.7005,0.00781589,-0.012089,-0.00168136,0.00795691,-0.01223,-0.0836795,0.0117417,0.0234961,1378,414,5.26904,33.7005
161,610,5.39368,-33.571,0.00812478,-0.0101617,-0.00255011,0.00847374,-0.0105107,-0.135997,0.0109817,0.0287981,1385,414,5.39371,33.571
168,610,5.46167,-33.3944,0.00792376,-0.0081605,-0.00327358,0.0085645,-0.00880124,-0.193286,0.0100264,0.0282246,1392,414,5.46172,33.3944
175,610,5.4436,-33.1918,0.0072371,-0.00707626,-0.00363191,0.00810593,-0.00794509,-0.234809,0.00926722,0.0220732,1399,414,5.44357,33.1918
182,610,5.4906,-32.99,0.00650973,-0.00641883,-0.00360092,0.00744501,-0.00735411,-0.25412,0.00854433,0.0162078,1406,414,5.49058,32.99
189,610,5.52368,-32.7465,0.00534189,-0.00508353,-0.0032164,0.00625434,-0.00599598,-0.276424,0.00707325,0.0145737,1413,414,5.52365,32.7465
196,610,5.52808,-32.518,0.00445055,-0.00286911,-0.00263116,0.0052982,-0.00371675,-0.311659,0.00523141,0.0139881,1420,414,5.52811,32.518
203,610,5.54858,-32.2898,0.00353739,-0.00127522,-0.00209389,0.00432086,-0.00205869,-0.358043,0.00375963,0.0150247,1427,414,5.54863,32.2898
210,610,5.57068,-32.0421,0.0023712,-0.000337569,-0.00140411,0.00296768,-0.000934049,-0.401711,0.00235245,0.0114087,1434,414,5.57065,32.0421
217,610,5.59424,-31.7616,0.00147686,0.00125076,-0.000438716,0.00181686,0.000910763,-0.659301,0.00104896,0.0174376,1441,414,5.5942,31.7616
224,610,5.62109,-31.4852,0.00115789,0.00203531,-1.84778e-05,0.0020357,0.0011575,-1.54975,0.00117899,0.0204672,1448,414,5.62114,31.4852
231,610,5.61487,-31.2045,0.000933996,0.00268603,0.000416993,0.00278021,0.000839812,1.34866,0.00164655,0.0157086,1455,414,5.61484,31.2045
238,610,5.61768,-30.8948,0.000840621,0.0032571,0.000783324,0.00348881,0.000608917,1.2832,0.00215181,0.011198,1462,414,5.61767,30.8948
245,610,5.64868,-30.5783,0.00078987,0.00372386,0.00101537,0.00404098,0.000472756,1.26808,0.00255104,0.0124591,1469,414,5.64874,30.5783
252,610,5.64307,-30.2521,0.000731942,0.00414377,0.00123377,0.00454317,0.000332549,1.25772,0.00292424,0.0136985,1476,414,5.64309,30.2521
259,610,5.63367,-29.9112,0.000603668,0.00452889,0.00147993,0.00502433,0.000108224,1.24775,0.00331407,0.0119291,1483,414,5.63366,29.9112
266,610,5.63293,-29.566,0.000478012,0.00485754,0.00172156,0.00545324,-0.000117691,1.23767,0.00367535,0.0123652,1490,414,5.63291,29.566
273,610,5.62256,-29.2267,0.000237939,0.00501841,0.00211777,0.00582164,-0.000565284,1.20828,0.00408259,0.00969104,1497,414,5.62254,29.2267
280,610,5.59998,-28.8682,7.06088e-06,0.00520255,0.00256959,0.00625872,-0.00104911,1.18082,0.00456257,0.00929094,1504,414,5.59993,28.8682
287,610,5.57507,-28.4931,-1.78425e-05,0.00540364,0.00313363,0.0068363,-0.0014505,1.14198,0.00511012,0.0127266,1511,414,5.57505,28.4931
294,610,5.56543,-28.1315,-0.000243777,0.00561675,0.00374002,0.00743772,-0.00206474,1.11769,0.00577119,0.0106312,1518,414,5.56541,28.1315
301,610,5.57483,-27.7891,-0.00045824,0.00576193,0.00438075,0.00802433,-0.00272064,1.09408,0.0064506,0.0097537,1525,414,5.57488,27.7891
308,610,5.56165,-27.3969,-0.000554325,0.00579727,0.00509124,0.00862201,-0.00337906,1.06426,0.00714583,0.0116958,1532,414,5.56161,27.3969
315,610,5.50244,-27.0153,-0.000640733,0.00578404,0.00580364,0.00920503,-0.00406172,1.03817,0.00784909,0.0119191,1539,414,5.50248,27.0153
322,610,5.48511,-26.5812,-0.000765695,0.00578042,0.00649857,0.00978364,-0.00476892,1.01868,0.00856659,0.0118801,1546,414,5.4851,26.5812
329,610,5.46936,-26.1613,-0.00090922,0.00572051,0.00707543,0.0102191,-0.00540781,1.00447,0.00916363,0.0110818,1553,414,5.46934,26.1612
336,610,5.47351,-25.735,-0.00111513,0.0056705,0.00747649,0.010488,-0.00593262,0.998402,0.00960127,0.0103193,1560,414,5.47353,25.7349
343,610,5.45935,-25.2909,-0.00122003,0.00564166,0.00778891,0.0107219,-0.00630022,0.992852,0.00993761,0.0192486,1567,414,5.45937,25.2909
350,610,5.42651,-24.8988,-0.00122796,0.00616529,0.00821241,0.0114747,-0.00653737,0.996878,0.0105287,0.0436642,1574,414,5.42651,24.8988
357,610,5.52954,-24.2571,0,0,0,0,0,0,0,-1,1581,414,5.52956,24.2571
364,610,4.34302,-15.9496,0,0,0,0,0,0,0,-1,1588,414,4.34299,15.9496
371,610,3.54138,-13.3788,0,0,0,0,0,0,0,-1,1595,414,3.54137,13.3788
378,610,3.5752,-12.1958,0,0,0,0,0,0,0,-1,1602,414,3.57517,12.1958
385,610,2.57104,-10.3878,0,0,0,0,0,0,0,-1,1609,414,2.57109,10.3878
392,610,1.99744,-1.83582,0,0,0,0,0,0,0,-1,1616,414,1.99741,1.8358
399,610,2.77136,-2.60333,0,0,0,0,0,0,0,-1,1623,414,2.77133,2.60332
406,610,3.54529,-3.37085,0,0,0,0,0,0,0,-1,1630,414,3.54525,3.37084
413,610,3.01929,-3.20306,0,0,0,0,0,0,0,-1,1637,414,3.01929,3.20306
420,610,4.78149,-3.64041,0,0,0,0,0,0,0,-1,1644,414,4.78152,3.64042
427,610,5.20764,-4.67545,0,0,0,0,0,0,0,-1,1651,414,5.20759,4.67545
434,610,5.39233,-5.45441,0,0,0,0,0,0,0,-1,1658,414,5.39228,5.4544
441,610,0,0,0,0,0,0,0,0,0,-1,1665,414,0,0
448,610,0,0,0,0,0,0,0,0,0,-1,1672,414,0,0
455,610,0,0,0,0,0,0,0,0,0,-1,1679,414,0,0
462,610,0,0,0,0,0,0,0,0,0,-1,1686,414,0,0
469,610,0,0,0,0,0,0,0,0,0,-1,1693,414,0,0
476,610,0,0,0,0,0,0,0,0,0,-1,1700,414,0,0
483,610,0,0,0,0,0,0,0,0,0,-1,1707,414,0,0
490,610,0,0,0,0,0,0,0,0,0,-1,1714,414,0,0
497,610,0,0,0,0,0,0,0,0,0,-1,1721,414,0,0
504,610,0,0,0,0,0,0,0,0,0,-1,1728,414,0,0
511,610,0,0,0,0,0,0,0,0,0,-1,1735,414,0,0
518,610,0,0,0,0,0,0,0,0,0,-1,1742,414,0,0
525,610,0,0,0,0,0,0,0,0,0,-1,1749,414,0,0
532,610,0,0,0,0,0,0,0,0,0,-1,1756,414,0,0
539,610,0,0,0,0,0,0,0,0,0,-1,1763,414,0,0
546,610,0,0,0,0,0,0,0,0,0,-1,1770,414,0,0
553,610,0,0,0,0,0,0,0,0,0,-1,1777,414,0,0
560,610,0,0,0,0,0,0,0,0,0,-1,1784,414,0,0
567,610,0,0,0,0,0,0,0,0,0,-1,1791,414,0,0
574,610,0,0,0,0,0,0,0,0,0,-1,1798,414,0,0
581,610,0,0,0,0,0,0,0,0,0,-1,1805,414,0,0
588,610,0,0,0,0,0,0,0,0,0,-1,1812,414,0,0
595,610,0,0,0,0,0,0,0,0,0,-1,1819,414,0,0
602,610,0,0,0,0,0,0,0,0,0,-1,1826,414,0,0
609,610,0,0,0,0,0,0,0,0,0,-1,1833,414,0,0
616,610,0,0,0,0,0,0,0,0,0,-1,1840,414,0,0
623,610,0,0,0,0,0,0,0,0,0,-1,1847,414,0,0
630,610,0,0,0,0,0,0,0,0,0,-1,1854,414,0,0
637,610,0,0,0,0,0,0,0,0,0,-1,1861,414,0,0
644,610,0,0,0,0,0,0,0,0,0,-1,1868,414,0,0
651,610,0,0,0,0,0,0,0,0,0,-1,1875,414,0,0
658,610,0,0,0,0,0,0,0,0,0,-1,1882,414,0,0
665,610,0,0,0,0,0,0,0,0,0,-1,1889,414,0,0
672,610,0,0,0,0,0,0,0,0,0,-1,1896,414,0,0
679,610,0,0,0,0,0,0,0,0,0,-1,1903,414,0,0
686,610,0,0,0,0,0,0,0,0,0,-1,1910,414,0,0
693,610,0,0,0,0,0,0,0,0,0,-1,1917,414,0,0
700,610,0,0,0,0,0,0,0,0,0,-1,1924,414,0,0
707,610,0,0,0,0,0,0,0,0,0,-1,1931,414,0,0
714,610,0,0,0,0,0,0,0,0,0,-1,1938,414,0,0
721,610,0,0,0,0,0,0,0,0,0,-1,1945,414,0,0
728,610,0,0,0,0,0,0,0,0,0,-1,1952,414,0,0
735,610,0,0,0,0,0,0,0,0,0,-1,1959,414,0,0
742,610,0,0,0,0,0,0,0,0,0,-1,1966,414,0,0
749,610,0,0,0,0,0,0,0,0,0,-1,1973,414,0,0
756,610,0,0,0,0,0,0,0,0,0,-1,1980,414,0,0
763,610,0,0,0,0,0,0,0,0,0,-1,1987,414,0,0
770,610,0,0,0,0,0,0,0,0,0,-1,1994,414,0,0
777,610,0,0,0,0,0,0,0,0,0,-1,2001,414,0,0
784,610,0,0,0,0,0,0,0,0,0,-1,2008,414,0,0
791,610,0,0,0,0,0,0,0,0,0,-1,2015,414,0,0
798,610,0,0,0,0,0,0,0,0,0,-1,2022,414,0,0
805,610,0,0,0,0,0,0,0,0,0,-1,2029,414,0,0
812,610,0,0,0,0,0,0,0,0,0,-1,2036,414,0,0
-700,603,0,0,0,0,0,0,0,0,0,-1,524,421,0,0
-693,603,0,0,0,0,0,0,0,0,0,-1,531,421,0,0
-686,603,0,0,0,0,0,0,0,0,0,-1,538,421,0,0
-679,603,0,0,0,0,0,0,0,0,0,-1,545,421,0,0
-672,603,0,0,0,0,0,0,0,0,0,-1,552,421,0,0
-665,603,0,0,0,0,0,0,0,0,0,-1,559,421,0,0
-658,603,0,0,0,0,0,0,0,0,0,-1,566,421,0,0
-651,603,0,0,0,0,0,0,0,0,0,-1,573,421,0,0
-644,603,0,0,0,0,0,0,0,0,0,-1,580,421,0,0
-637,603,0,0,0,0,0,0,0,0,0,-1,587,421,0,0
-630,603,0,0,0,0,0,0,0,0,0,-1,594,421,0,0
-623,603,0,0,0,0,0,0,0,0,0,-1,601,421,0,0
-616,603,0,0,0,0,0,0,0,0,0,-1,608,421,0,0
-609,603,0,0,0,0,0,0,0,0,0,-1,615,421,0,0
-602,603,0,0,0,0,0,0,0,0,0,-1,622,421,0,0
-595,603,0,0,0,0,0,0,0,0,0,-1,629,421,0,0
-588,603,0,0,0,0,0,0,0,0,0,-1,636,421,0,0
-581,603,0,0,0,0,0,0,0,0,0,-1,643,421,0,0
-574,603,0,0,0,0,0,0,0,0,0,-1,650,421,0,0
-567,603,0,0,0,0,0,0,0,0,0,-1,657,421,0,0
-560,603,0,0,0,0,0,0,0,0,0,-1,664,421,0,0
-553,603,0,0,0,0,0,0,0,0,0,-1,671,421,0,0
-546,603,0,0,0,0,0,0,0,0,0,-1,678,421,0,0
-539,603,0,0,0,0,0,0,0,0,0,-1,685,421,0,0
-532,603,0,0,0,0,0,0,0,0,0,-1,692,421,0,0
-525,603,0,0,0,0,0,0,0,0,0,-1,699,421,0,0
-518,603,0,0,0,0,0,0,0,0,0,-1,706,421,0,0
-511,603,0,0,0,0,0,0,0,0,0,-1,713,421,0,0
-504,603,0,0,0,0,0,0,0,0,0,-1,720,421,0,0
-497,603,0,0,0,0,0,0,0,0,0,-1,727,421,0,0
-490,603,0,0,0,0,0,0,0,0,0,-1,734,421,0,0
-483,603,0,0,0,0,0,0,0,0,0,-1,741,421,0,0
-476,603,0,0,0,0,0,0,0,0,0,-1,748,421,0,0
-469,603,0,0,0,0,0,0,0,0,0,-1,755,421,0,0
-462,603,0,0,0,0,0,0,0,0,0,-1,762,421,0,0
-455,603,0,0,0,0,0,0,0,0,0,-1,769,421,0,0
-448,603,0,0,0,0,0,0,0,0,0,-1,776,421,0,0
-441,603,0,0,0,0,0,0,0,0,0,-1,783,421,0,0
-434,603,0,0,0,0,0,0,0,0,0,-1,790,421,0,0
-427,603,0,0,0,0,0,0,0,0,0,-1,797,421,0,0
-420,603,0,0,0,0,0,0,0,0,0,-1,804,421,0,0
-413,603,0,0,0,0,0,0,0,0,0,-1,811,421,0,0
-406,603,0,0,0,0,0,0,0,0,0,-1,818,421,0,0
-399,603,0,0,0,0,0,0,0,0,0,-1,825,421,0,0
-392,603,0,0,0,0,0,0,0,0,0,-1,832,421,0,0
-385,603,0,0,0,0,0,0,0,0,0,-1,839,421,0,0
-378,603,0,0,0,0,0,0,0,0,0,-1,846,421,0,0
-371,603,0,0,0,0,0,0,0,0,0,-1,853,421,0,0
-364,603,0,0,0,0,0,0,0,0,0,-1,860,421,0,0
-357,603,0,0,0,0,0,0,0,0,0,-1,867,421,0,0
-350,603,0,0,0,0,0,0,0,0,0,-1,874,421,0,0
-343,603,0,0,0,0,0,0,0,0,0,-1,881,421,0,0
-336,603,0,0,0,0,0,0,0,0,0,-1,888,421,0,0
-329,603,4.09686,-17.9702,0,0,0,0,0,0,0,-1,895,421,4.09687,17.9702
-322,603,5.98431,-20.9071,0,0,0,0,0,0,0,-1,902,421,5.98431,20.9071
-315,603,5.99744,-20.4501,0,0,0,0,0,0,0,-1,909,421,5.99745,20.4501
-308,603,5.92249,-20.778,0,0,0,0,0,0,0,-1,916,421,5.92248,20.778
-301,603,2.87506,-22.5246,0,0,0,0,0,0,0,-1,923,421,2.87504,22.5246
-294,603,4.08228,-22.5695,0,0,0,0,0,0,0,-1,930,421,4.0823,22.5695
-287,603,5.09351,-22.4149,0,0,0,0,0,0,0,-1,937,421,5.09353,22.4149
-280,603,3.82019,-21.8847,0,0,0,0,0,0,0,-1,944,421,3.82019,21.8847
-273,603,4.35431,-23.7925,0,0,0,0,0,0,0,-1,951,421,4.35428,23.7925
-266,603,3.88062,-22.9841,0,0,0,0,0,0,0,-1,958,421,3.88064,22.9841
-259,603,3.57153,-23.0731,0,0,0,0,0,0,0,-1,965,421,3.57151,23.0731
-252,603,3.81885,-24.085,0,0,0,0,0,0,0,-1,972,421,3.81885,24.085
-245,603,3.87469,-24.4235,-0.00415571,0.0166919,-0.00368716,0.0173248,-0.00478861,-1.4008,0.0134337,0.0347199,979,421,3.87468,24.4235
-238,603,3.82507,-24.8462,-0.00344285,0.0171948,-0.00399151,0.0179399,-0.00418794,-1.38625,0.013573,0.0233896,986,421,3.82506,24.8462
-231,603,3.737,-25.3291,-0.00278978,0.0170045,-0.00400349,0.0177836,-0.00356884,-1.3786,0.013207,0.0141257,993,421,3.73699,25.3291
-224,603,3.68542,-25.775,-0.00220403,0.0164606,-0.00403543,0.0172957,-0.00303916,-1.36673,0.0126656,0.0141969,1000,421,3.68542,25.775
-217,603,3.68573,-26.1746,-0.00155529,0.0154711,-0.00438071,0.0165321,-0.00261629,-1.33317,0.011989,0.0124011,1007,421,3.68574,26.1746
-210,603,3.68182,-26.5952,-0.00115199,0.0131547,-0.00410382,0.0142483,-0.00224556,-1.31037,0.0103291,0.0104701,1014,421,3.6818,26.5952
-203,603,3.66992,-27.0209,-0.000975848,0.0111144,-0.00355157,0.0120805,-0.00194194,-1.3052,0.00877293,0.0165225,1021,421,3.66988,27.0209
-196,603,3.68152,-27.4233,-0.000811611,0.00933394,-0.00325245,0.0102871,-0.00176474,-1.28573,0.00751568,0.018667,1028,421,3.68148,27.4233
-189,603,3.66711,-27.752,-0.000416134,0.00774451,-0.00312346,0.00880277,-0.0014744,-1.24412,0.00641669,0.0154748,1035,421,3.66711,27.752
-182,603,3.62122,-28.113,0.000119582,0.00623099,-0.00285918,0.00736004,-0.00100947,-1.1947,0.00527548,0.0111888,1042,421,3.62119,28.113
-175,603,3.59314,-28.4672,0.000597403,0.00455004,-0.00257761,0.00582179,-0.000674343,-1.11246,0.00412439,0.0117657,1049,421,3.5931,28.4672
-168,603,3.57178,-28.8293,0.00102094,0.00288001,-0.00233599,0.00446461,-0.000563662,-0.974753,0.00318098,0.0142432,1056,421,3.57175,28.8293
-161,603,3.54724,-29.2018,0.00141361,0.00116126,-0.00207123,0.0033625,-0.000787639,-0.754976,0.00254517,0.0138962,1063,421,3.54725,29.2017
-154,603,3.5426,-29.5247,0.00179237,-0.000452942,-0.00172728,0.00272978,-0.00139035,-0.497226,0.0024203,0.0136192,1070,421,3.5426,29.5248
-147,603,3.56958,-29.842,0.0021048,-0.00203514,-0.00143932,0.00255602,-0.00248636,-0.303793,0.00291132,0.0142446,1077,421,3.56957,29.842
-140,603,3.60266,-30.1525,0.00234802,-0.00363274,-0.00115085,0.00256183,-0.00384655,-0.18369,0.00372458,0.0109536,1084,421,3.60264,30.1525
-133,603,3.58289,-30.4438,0.00251472,-0.00519931,-0.000806694,0.00259817,-0.00528277,-0.103089,0.00463723,0.0117123,1091,421,3.58284,30.4438
-126,603,3.58044,-30.7261,0.00256452,-0.00657625,-0.000468485,0.00258847,-0.00660019,-0.0510738,0.00547102,0.011159,1098,421,3.58042,30.7261
-119,603,3.6012,-31.0279,0.00258497,-0.00769493,-0.000191883,0.00258855,-0.00769851,-0.0186572,0.00617866,0.0107401,1105,421,3.60119,31.0279
-112,603,3.60327,-31.3385,0.00256196,-0.00860513,-7.51774e-06,0.00256196,-0.00860514,-0.000673205,0.00675469,0.0155244,1112,421,3.60323,31.3385
-105,603,3.61829,-31.6318,0.00246873,-0.00946688,0.000168241,0.00247111,-0.00946925,0.014092,0.00727775,0.0164441,1119,421,3.61827,31.6318
-98,603,3.61816,-31.8622,0.00241438,-0.0100138,0.000296638,0.00242146,-0.0100209,0.0238501,0.00761712,0.0134723,1126,421,3.61821,31.8622
-91,603,3.62659,-32.1021,0.00265676,-0.010014,0.000178741,0.00265928,-0.0100165,0.0141029,0.00771836,0.00974378,1133,421,3.62654,32.1021
-84,603,3.67517,-32.386,0.00304741,-0.0095183,2.854e-05,0.00304747,-0.00951836,0.00227125,0.00756875,0.010941,1140,421,3.67511,32.386
-77,603,3.69604,-32.6606,0.00348442,-0.00822293,0.000267764,0.00349054,-0.00822906,0.0228555,0.00694823,0.0170026,1147,421,3.69608,32.6605
-70,603,3.69946,-32.8983,0,0,0,0,0,0,0,-1,1154,421,3.6994,32.8983
-63,603,3.74915,-33.094,0,0,0,0,0,0,0,-1,1161,421,3.74916,33.094
-56,603,3.8009,-33.2789,0,0,0,0,0,0,0,-1,1168,421,3.80095,33.2789
-49,603,3.83704,-33.4657,0,0,0,0,0,0,0,-1,1175,421,3.83705,33.4657
-42,603,3.8822,-33.7225,0,0,0,0,0,0,0,-1,1182,421,3.88216,33.7225
-35,603,3.84973,-33.765,0.00948087,-0.00978862,0.00243983,0.009785,-0.0100927,0.124009,0.0114769,0.0413532,1189,421,3.84971,33.765
-28,603,3.87939,-33.8597,0.00971842,-0.00746531,0.00421447,0.0106964,-0.00844329,0.228017,0.0110758,0.0262979,1196,421,3.87943,33.8597
-21,603,3.95752,-34.0137,0.00904246,-0.00641422,0.00585665,0.0110109,-0.00838266,0.324242,0.0112311,0.0232143,1203,421,3.9575,34.0137
-14,603,4.08374,-34.1321,0.00865946,-0.00584623,0.00561986,0.0105819,-0.00776871,0.329608,0.0106362,0.0221942,1210,421,4.08373,34.1321
-7,603,4.12512,-34.2289,0.00897538,-0.00666002,0.00547768,0.0107034,-0.00838807,0.30559,0.0110495,0.0252645,1217,421,4.12515,34.2289
0,603,4.17114,-34.4182,0.00871987,-0.0063505,0.00526932,0.0103795,-0.00801014,0.305126,0.0106466,0.0316258,1224,421,4.17119,34.4182
7,603,4.2356,-34.356,0.00806616,-0.00564043,0.0048237,0.00959354,-0.00716781,0.306653,0.00971089,0.0378041,1231,421,4.23563,34.3559
14,603,4.44885,-34.2543,0.00805577,-0.00589309,0.00462233,0.00944845,-0.00728577,0.292644,0.00968837,0.0361167,1238,421,4.44891,34.2543
21,603,4.47107,-34.3288,0.00841018,-0.00619704,0.00456114,0.00971742,-0.00750428,0.279122,0.00997028,0.0299213,1245,421,4.47107,34.3288
28,603,4.47327,-34.3576,0.00935228,-0.00629507,0.00431892,0.0104652,-0.007408,0.252201,0.0103693,0.0354038,1252,421,4.47322,34.3576
35,603,4.50989,-34.3068,0.0101029,-0.00754638,0.00368406,0.010841,-0.00828451,0.19774,0.011075,0.0430973,1259,421,4.5099,34.3068
42,603,4.63379,-34.6246,0.0113364,-0.00946718,0.003516,0.0119146,-0.0100453,0.162981,0.0126939,0.0394344,1266,421,4.63374,34.6246
49,603,4.70349,-34.7926,0.0129184,-0.0117851,0.00365828,0.0134488,-0.0123155,0.143972,0.0148798,0.0196025,1273,421,4.70347,34.7926
56,603,4.67285,-34.6859,0.0140326,-0.015368,0.00403241,0.0145757,-0.015911,0.133861,0.0176071,0.0379545,1280,421,4.67288,34.6859
63,603,4.66187,-34.568,0,0,0,0,0,0,0,-1,1287,421,4.66182,34.568
70,603,4.71375,-34.6546,0,0,0,0,0,0,0,-1,1294,421,4.71377,34.6546
77,603,4.9342,-34.7142,0,0,0,0,0,0,0,-1,1301,421,4.93425,34.7142
84,603,5.02734,-34.7007,0,0,0,0,0,0,0,-1,1308,421,5.02732,34.7007
91,603,5.13721,-34.7221,0,0,0,0,0,0,0,-1,1315,421,5.13722,34.7221
98,603,5.31641,-34.7436,0,0,0,0,0,0,0,-1,1322,421,5.31639,34.7436
105,603,5.67834,-34.4462,0.014336,-0.0290318,0.00691892,0.0154131,-0.0301089,0.154435,0.0267347,0.0444351,1329,421,5.67838,34.4462
112,603,5.43787,-34.3616,0.0137986,-0.0280729,0.00623767,0.0147081,-0.0289824,0.144784,0.0256695,0.0381271,1336,421,5.43792,34.3616
119,603,5.5116,-34.2368,0.0126955,-0.0256753,0.00519987,0.0133876,-0.0263675,0.132337,0.0233569,0.0394428,1343,421,5.51164,34.2368
126,603,5.55249,-34.0176,0,0,0,0,0,0,0,-1,1350,421,5.55248,34.0176
133,603,5.51782,-33.8864,0.0105827,-0.0190174,0.00207939,0.010728,-0.0191627,0.0697929,0.017485,0.0431988,1357,421,5.51786,33.8864
140,603,5.6228,-33.7664,0.0107496,-0.0153363,0.000869598,0.0107786,-0.0153652,0.0332867,0.0151714,0.0312426,1364,421,5.62283,33.7664
147,603,5.50342,-33.7006,0.0109893,-0.0126066,-0.000746253,0.0110129,-0.0126302,-0.0315843,0.013661,0.0249083,1371,421,5.50346,33.7006
154,603,5.45166,-33.6122,0.0112829,-0.0108362,-0.00216979,0.0114938,-0.011047,-0.0968654,0.0130148,0.0304455,1378,421,5.4517,33.6121
161,603,5.56299,-33.4739,0.0116297,-0.00881925,-0.0033275,0.0121575,-0.00934708,-0.157317,0.012451,0.0321499,1385,421,5.56305,33.4739
168,603,5.66565,-33.2912,0.0113021,-0.00685754,-0.00424765,0.0122466,-0.00780197,-0.218783,0.0116695,0.0346492,1392,421,5.66563,33.2912
175,603,5.84509,-33.1312,0.0104212,-0.00643361,-0.00484334,0.0117139,-0.00772624,-0.260809,0.0113022,0.0383132,1399,421,5.84515,33.1312
182,603,5.92395,-32.9459,0.00962368,-0.00678511,-0.00490431,0.0109778,-0.00813919,-0.269388,0.0110777,0.0437837,1406,421,5.92399,32.9459
189,603,5.88135,-32.6777,0.00804566,-0.00640828,-0.00464374,0.009409,-0.00777161,-0.285562,0.00993423,0.0377489,1413,421,5.88137,32.6777
196,603,5.79639,-32.4054,0.00679371,-0.00382038,-0.00397722,0.00811863,-0.00514531,-0.321566,0.00772181,0.0289813,1420,421,5.79637,32.4054
203,603,5.79993,-32.2307,0.00539501,-0.00237892,-0.00343575,0.00669581,-0.00367972,-0.361929,0.00607409,0.0170153,1427,421,5.79988,32.2306
210,603,5.83716,-32.0552,0.00349394,-0.00193147,-0.00253957,0.00449717,-0.0029347,-0.376223,0.00432229,0.0129128,1434,421,5.83713,32.0552
217,603,5.85681,-31.7615,0.0021659,0.000253398,-0.00108935,0.00265916,-0.000239869,-0.425187,0.0018579,0.0141068,1441,421,5.85676,31.7615
224,603,5.90393,-31.4652,0.00175564,0.00118502,-0.000555336,0.00209467,0.000845989,-0.548101,0.00121678,0.0174517,1448,421,5.90398,31.4652
231,603,5.89612,-31.1715,0.00145451,0.0019491,-1.69804e-05,0.00194969,0.00145392,-1.53652,0.00117009,0.0147895,1455,421,5.89617,31.1715
238,603,5.90295,-30.8711,0.0013927,0.00248088,0.000373467,0.00259673,0.00127686,1.27003,0.00149929,0.0111388,1462,421,5.90299,30.8711
245,603,5.93188,-30.5621,0.00144207,0.00285851,0.000598783,0.00307771,0.00122286,1.21987,0.00178936,0.011463,1469,421,5.93185,30.5621
252,603,5.95349,-30.2303,0.00142524,0.00308466,0.000785927,0.0033978,0.00111211,1.19164,0.00200034,0.00999265,1476,421,5.95353,30.2303
259,603,5.95862,-29.9087,0.00129916,0.00323489,0.000945723,0.00362022,0.000913823,1.18388,0.00217387,0.0104867,1483,421,5.95863,29.9087
266,603,5.9635,-29.5669,0.00119092,0.00335407,0.00109975,0.00381498,0.000730015,1.17393,0.00233828,0.0124984,1490,421,5.96347,29.5669
273,603,5.95605,-29.2143,0.00105873,0.00348958,0.00131581,0.00406541,0.000482899,1.15828,0.00256451,0.0109452,1497,421,5.95609,29.2143
280,603,5.94958,-28.8387,0.000912118,0.00345845,0.00159253,0.00422418,0.000146386,1.1226,0.00276862,0.0114095,1504,421,5.94964,28.8387
287,603,5.94946,-28.4822,0.000838254,0.00363254,0.00197815,0.00465719,-0.000186397,1.09286,0.00316876,0.0114223,1511,421,5.94944,28.4822
294,603,5.92603,-28.1389,0.000636413,0.0038334,0.00241732,0.00513294,-0.000663131,1.07753,0.00366307,0.00983996,1518,421,5.92599,28.1389
301,603,5.92834,-27.7741,0.000428454,0.00401721,0.00289138,0.00562575,-0.00118009,1.06311,0.0041995,0.010884,1525,421,5.92829,27.7741
308,603,5.92603,-27.3977,0.000331377,0.00410477,0.00344569,0.00614649,-0.00171034,1.03588,0.00477108,0.0161349,1532,421,5.92597,27.3977
315,603,5.8877,-27.0205,0.000218142,0.00422275,0.00399439,0.0066886,-0.00224771,1.01773,0.00536754,0.0139258,1539,421,5.88769,27.0205
322,603,5.88062,-26.5947,5.13939e-05,0.00438019,0.00454321,0.00724822,-0.00281664,1.00769,0.00599577,0.0134747,1546,421,5.88068,26.5947
329,603,5.8667,-26.1688,-0.000137722,0.0044891,0.00502414,0.00770686,-0.00335549,1.00116,0.00654948,0.0106102,1553,421,5.86669,26.1688
336,603,5.84607,-25.761,-0.000382744,0.00459242,0.0053795,0.00803165,-0.00382197,1.00196,0.00698607,0.0097264,1560,421,5.84603,25.761
343,603,5.83813,-25.3506,-0.000572049,0.00474864,0.0056852,0.00836515,-0.00418856,1.00424,0.00738039,0.0116353,1567,421,5.83812,25.3506
350,603,5.79993,-24.9378,-0.000697311,0.00535009,0.00608142,0.00911804,-0.00446526,1.0161,0.0079942,0.0204123,1574,421,5.79991,24.9378
357,603,5.82275,-24.4286,-0.000919796,0.00575443,0.0064501,0.00967955,-0.00484492,1.02412,0.00853916,0.0306421,1581,421,5.82272,24.4286
364,603,5.86829,-23.8545,0,0,0,0,0,0,0,-1,1588,421,5.86834,23.8545
371,603,5.77234,-23.3853,0,0,0,0,0,0,0,-1,1595,421,5.7723,23.3852
378,603,5.63916,-23.2115,0,0,0,0,0,0,0,-1,1602,421,5.63918,23.2115
385,603,5.40393,-22.6319,0,0,0,0,0,0,0,-1,1609,421,5.40389,22.6319
392,603,4.90527,-19.605,0,0,0,0,0,0,0,-1,1616,421,4.90526,19.605
399,603,2.94299,0.638214,0,0,0,0,0,0,0,-1,1623,421,2.94293,-0.638215
406,603,3.01917,-2.37219,0,0,0,0,0,0,0,-1,1630,421,3.01915,2.37219
413,603,2.38928,-2.41275,0,0,0,0,0,0,0,-1,1637,421,2.38926,2.41274
420,603,2.74866,-2.30066,0,0,0,0,0,0,0,-1,1644,421,2.74867,2.30065
427,603,7.11548,-3.35352,0,0,0,0,0,0,0,-1,1651,421,7.11549,3.35351
434,603,7.32153,-4.50525,0,0,0,0,0,0,0,-1,1658,421,7.32149,4.50525
441,603,3.18213,-0.250946,0,0,0,0,0,0,0,-1,1665,421,3.18212,0.250944
448,603,2.95667,-0.066925,0,0,0,0,0,0,0,-1,1672,421,2.95662,0.0669226
455,603,0,0,0,0,0,0,0,0,0,-1,1679,421,0,0
462,603,0,0,0,0,0,0,0,0,0,-1,1686,421,0,0
469,603,0,0,0,0,0,0,0,0,0,-1,1693,421,0,0
476,603,0,0,0,0,0,0,0,0,0,-1,1700,421,0,0
483,603,0,0,0,0,0,0,0,0,0,-1,1707,421,0,0
490,603,0,0,0,0,0,0,0,0,0,-1,1714,421,0,0
497,603,0,0,0,0,0,0,0,0,0,-1,1721,421,0,0
504,603,0,0,0,0,0,0,0,0,0,-1,1728,421,0,0
511,603,0,0,0,0,0,0,0,0,0,-1,1735,421,0,0
518,603,0,0,0,0,0,0,0,0,0,-1,1742,421,0,0
525,603,0,0,0,0,0,0,0,0,0,-1,1749,421,0,0
532,603,0,0,0,0,0,0,0,0,0,-1,1756,421,0,0
539,603,0,0,0,0,0,0,0,0,0,-1,1763,421,0,0
546,603,0,0,0,0,0,0,0,0,0,-1,1770,421,0,0
553,603,0,0,0,0,0,0,0,0,0,-1,1777,421,0,0
560,603,0,0,0,0,0,0,0,0,0,-1,1784,421,0,0
567,603,0,0,0,0,0,0,0,0,0,-1,1791,421,0,0
574,603,0,0,0,0,0,0,0,0,0,-1,1798,421,0,0
581,603,0,0,0,0,0,0,0,0,0,-1,1805,421,0,0
588,603,0,0,0,0,0,0,0,0,0,-1,1812,421,0,0
595,603,0,0,0,0,0,0,0,0,0,-1,1819,421,0,0
602,603,0,0,0,0,0,0,0,0,0,-1,1826,421,0,0
609,603,0,0,0,0,0,0,0,0,0,-1,1833,421,0,0
616,603,0,0,0,0,0,0,0,0,0,-1,1840,421,0,0
623,603,0,0,0,0,0,0,0,0,0,-1,1847,421,0,0
630,603,0,0,0,0,0,0,0,0,0,-1,1854,421,0,0
637,603,0,0,0,0,0,0,0,0,0,-1,1861,421,0,0
644,603,0,0,0,0,0,0,0,0,0,-1,1868,421,0,0
651,603,0,0,0,0,0,0,0,0,0,-1,1875,421,0,0
658,603,0,0,0,0,0,0,0,0,0,-1,1882,421,0,0
665,603,0,0,0,0,0,0,0,0,0,-1,1889,421,0,0
672,603,0,0,0,0,0,0,0,0,0,-1,1896,421,0,0
679,603,0,0,0,0,0,0,0,0,0,-1,1903,421,0,0
686,603,0,0,0,0,0,0,0,0,0,-1,1910,421,0,0
693,603,0,0,0,0,0,0,0,0,0,-1,1917,421,0,0
700,603,0,0,0,0,0,0,0,0,0,-1,1924,421,0,0
707,603,0,0,0,0,0,0,0,0,0,-1,1931,421,0,0
714,603,0,0,0,0,0,0,0,0,0,-1,1938,421,0,0
721,603,0,0,0,0,0,0,0,0,0,-1,1945,421,0,0
728,603,0,0,0,0,0,0,0,0,0,-1,1952,421,0,0
735,603,0,0,0,0,0,0,0,0,0,-1,1959,421,0,0
742,603,0,0,0,0,0,0,0,0,0,-1,1966,421,0,0
749,603,0,0,0,0,0,0,0,0,0,-1,1973,421,0,0
756,603,0,0,0,0,0,0,0,0,0,-1,1980,421,0,0
763,603,0,0,0,0,0,0,0,0,0,-1,1987,421,0,0
770,603,0,0,0,0,0,0,0,0,0,-1,1994,421,0,0
777,603,0,0,0,0,0,0,0,0,0,-1,2001,421,0,0
784,603,0,0,0,0,0,0,0,0,0,-1,2008,421,0,0
791,603,0,0,0,0,0,0,0,0,0,-1,2015,421,0,0
798,603,0,0,0,0,0,0,0,0,0,-1,2022,421,0,0
805,603,0,0,0,0,0,0,0,0,0,-1,2029,421,0,0
812,603,0,0,0,0,0,0,0,0,0,-1,2036,421,0,0
-700,596,0,0,0,0,0,0,0,0,0,-1,524,428,0,0
-693,596,0,0,0,0,0,0,0,0,0,-1,531,428,0,0
-686,596,0,0,0,0,0,0,0,0,0,-1,538,428,0,0
-679,596,0,0,0,0,0,0,0,0,0,-1,545,428,0,0
-672,596,0,0,0,0,0,0,0,0,0,-1,552,428,0,0
-665,596,0,0,0,0,0,0,0,0,0,-1,559,428,0,0
-658,596,0,0,0,0,0,0,0,0,0,-1,566,428,0,0
-651,596,0,0,0,0,0,0,0,0,0,-1,573,428,0,0
-644,596,0,0,0,0,0,0,0,0,0,-1,580,428,0,0
-637,596,0,0,0,0,0,0,0,0,0,-1,587,428,0,0
-630,596,0,0,0,0,0,0,0,0,0,-1,594,428,0,0
-623,596,0,0,0,0,0,0,0,0,0,-1,601,428,0,0
-616,596,0,0,0,0,0,0,0,0,0,-1,608,428,0,0
-609,596,0,0,0,0,0,0,0,0,0,-1,615,428,0,0
-602,596,0,0,0,0,0,0,0,0,0,-1,622,428,0,0
-595,596,0,0,0,0,0,0,0,0,0,-1,629,428,0,0
-588,596,0,0,0,0,0,0,0,0,0,-1,636,428,0,0
-581,596,0,0,0,0,0,0,0,0,0,-1,643,428,0,0
-574,596,0,0,0,0,0,0,0,0,0,-1,650,428,0,0
-567,596,0,0,0,0,0,0,0,0,0,-1,657,428,0,0
-560,596,0,0,0,0,0,0,0,0,0,-1,664,428,0,0
-553,596,0,0,0,0,0,0,0,0,0,-1,671,428,0,0
-546,596,0,0,0,0,0,0,0,0,0,-1,678,428,0,0
-539,596,0,0,0,0,0,0,0,0,0,-1,685,428,0,0
-532,596,0,0,0,0,0,0,0,0,0,-1,692,428,0,0
-525,596,0,0,0,0,0,0,0,0,0,-1,699,428,0,0
-518,596,0,0,0,0,0,0,0,0,0,-1,706,428,0,0
-511,596,0,0,0,0,0,0,0,0,0,-1,713,428,0,0
-504,596,0,0,0,0,0,0,0,0,0,-1,720,428,0,0
-497,596,0,0,0,0,0,0,0,0,0,-1,727,428,0,0
-490,596,0,0,0,0,0,0,0,0,0,-1,734,428,0,0
-483,596,0,0,0,0,0,0,0,0,0,-1,741,428,0,0
-476,596,0,0,0,0,0,0,0,0,0,-1,748,428,0,0
-469,596,0,0,0,0,0,0,0,0,0,-1,755,428,0,0
-462,596,0,0,0,0,0,0,0,0,0,-1,762,428,0,0
-455,596,0,0,0,0,0,0,0,0,0,-1,769,428,0,0
-448,596,0,0,0,0,0,0,0,0,0,-1,776,428,0,0
-441,596,0,0,0,0,0,0,0,0,0,-1,783,428,0,0
-434,596,0,0,0,0,0,0,0,0,0,-1,790,428,0,0
-427,596,0,0,0,0,0,0,0,0,0,-1,797,428,0,0
-420,596,0,0,0,0,0,0,0,0,0,-1,804,428,0,0
-413,596,0,0,0,0,0,0,0,0,0,-1,811,428,0,0
-406,596,0,0,0,0,0,0,0,0,0,-1,818,428,0,0
-399,596,0,0,0,0,0,0,0,0,0,-1,825,428,0,0
-392,596,0,0,0,0,0,0,0,0,0,-1,832,428,0,0
-385,596,0,0,0,0,0,0,0,0,0,-1,839,428,0,0
-378,596,0,0,0,0,0,0,0,0,0,-1,846,428,0,0
-371,596,0,0,0,0,0,0,0,0,0,-1,853,428,0,0
-364,596,0,0,0,0,0,0,0,0,0,-1,860,428,0,0
-357,596,0,0,0,0,0,0,0,0,0,-1,867,428,0,0
-350,596,0,0,0,0,0,0,0,0,0,-1,874,428,0,0
-343,596,0,0,0,0,0,0,0,0,0,-1,881,428,0,0
-336,596,-0.98291,-20.0836,0,0,0,0,0,0,0,-1,888,428,-0.982933,20.0836
-329,596,4.43048,-20.1666,0,0,0,0,0,0,0,-1,895,428,4.43045,20.1666
-322,596,4.29657,-19.996,0,0,0,0,0,0,0,-1,902,428,4.29655,19.996
-315,596,4.20044,-19.8317,0,0,0,0,0,0,0,-1,909,428,4.20045,19.8317
-308,596,0.254761,-20.841,0,0,0,0,0,0,0,-1,916,428,0.254731,20.841
-301,596,2.90369,-20.8094,0,0,0,0,0,0,0,-1,923,428,2.9037,20.8094
-294,596,2.79095,-20.7735,0,0,0,0,0,0,0,-1,930,428,2.79093,20.7735
-287,596,3.56439,-21.2512,0,0,0,0,0,0,0,-1,937,428,3.56439,21.2512
-280,596,3.70923,-22.9504,0,0,0,0,0,0,0,-1,944,428,3.70921,22.9504
-273,596,3.74084,-23.312,-0.00642645,0.0119756,-0.0015623,0.0121073,-0.00655815,-1.4867,0.0109341,0.0454959,951,428,3.74083,23.3119
-266,596,3.47339,-23.0603,-0.00561834,0.0114178,-0.0022955,0.0117217,-0.00592222,-1.43918,0.0103685,0.0434187,958,428,3.47338,23.0603
-259,596,3.26373,-23.3444,-0.0047273,0.0114782,-0.00273493,0.0119273,-0.00517642,-1.40803,0.010128,0.0354995,965,428,3.26376,23.3444
-252,596,3.3606,-24.0225,-0.00380698,0.0122119,-0.00299897,0.0127549,-0.00435002,-1.39166,0.0102653,0.0185386,972,428,3.36062,24.0225
-245,596,3.40417,-24.5264,-0.00309572,0.0125722,-0.00320183,0.0132013,-0.00372477,-1.3768,0.0102701,0.014817,979,428,3.40415,24.5264
-238,596,3.40515,-24.9583,-0.00250643,0.01271,-0.00329357,0.0133923,-0.00318872,-1.36653,0.0101593,0.0127679,986,428,3.40518,24.9583
-231,596,3.33624,-25.4099,-0.00197471,0.0123355,-0.00316652,0.0130049,-0.00264407,-1.36247,0.00967252,0.0135399,993,428,3.33622,25.4098
-224,596,3.29407,-25.817,-0.0014889,0.0117389,-0.00304452,0.012406,-0.00215599,-1.35509,0.00907512,0.0140509,1000,428,3.29404,25.817
-217,596,3.30664,-26.2114,-0.000929018,0.0110229,-0.00317377,0.0118134,-0.00171952,-1.32669,0.00850687,0.0142504,1007,428,3.30663,26.2114
-210,596,3.31378,-26.6249,-0.000512811,0.00923816,-0.00286486,0.0100176,-0.00129221,-1.30517,0.00714815,0.012317,1014,428,3.31377,26.6249
-203,596,3.30298,-27.0193,-0.000240696,0.00761989,-0.00237123,0.0082798,-0.000900602,-1.29937,0.00584325,0.0160711,1021,428,3.30304,27.0193
-196,596,3.29651,-27.3877,-1.22975e-05,0.0062645,-0.00204184,0.00687025,-0.000618049,-1.2824,0.00479946,0.0164104,1028,428,3.29653,27.3877
-189,596,3.27405,-27.7311,0.000368305,0.00496961,-0.00183762,0.00561342,-0.000275506,-1.23381,0.00383741,0.013249,1035,428,3.27409,27.7311
-182,596,3.25415,-28.1036,0.000897685,0.0035568,-0.00161489,0.00431904,0.000135448,-1.12979,0.00283529,0.0119009,1042,428,3.25417,28.1036
-175,596,3.24512,-28.4798,0.00140867,0.00196614,-0.00137184,0.00308728,0.000287533,-0.885625,0.00196935,0.0145747,1049,428,3.24511,28.4798
-168,596,3.23975,-28.8308,0.00184695,0.000159633,-0.00118755,0.00246001,-0.00045343,-0.476556,0.00181018,0.0168293,1056,428,3.23978,28.8308
-161,596,3.24622,-29.1858,0.00224044,-0.0017755,-0.000994863,0.00247338,-0.00200844,-0.230004,0.00259222,0.0146989,1063,428,3.24626,29.1858
-154,596,3.22522,-29.5204,0.00263112,-0.0036752,-0.00071674,0.00271156,-0.00375564,-0.111755,0.00375002,0.0129136,1070,428,3.22528,29.5204
-147,596,3.26208,-29.8167,0.00299115,-0.00559131,-0.000515152,0.00302196,-0.00562212,-0.059738,0.00506536,0.0134352,1077,428,3.26208,29.8166
-140,596,3.28516,-30.1266,0.00325553,-0.00767593,-0.000293509,0.0032634,-0.0076838,-0.0268242,0.00648985,0.0139065,1084,428,3.28519,30.1266
-133,596,3.28027,-30.4431,0.00344041,-0.00979422,-2.51105e-05,0.00344045,-0.00979427,-0.00189732,0.00792916,0.0144756,1091,428,3.28025,30.4431
-126,596,3.27783,-30.7296,0.00352911,-0.0117184,0.000242142,0.00353296,-0.0117222,0.0158755,0.00922089,0.0113107,1098,428,3.2778,30.7297
-119,596,3.30359,-31.0456,0.00359291,-0.0133377,0.000427734,0.00360371,-0.0133485,0.0252425,0.0103123,0.0139941,1105,428,3.3036,31.0456
-112,596,3.30811,-31.3364,0.00360568,-0.0147087,0.000503529,0.00361951,-0.0147225,0.027466,0.0112179,0.0155403,1112,428,3.30811,31.3364
-105,596,3.32666,-31.6326,0.0035059,-0.0159119,0.000632367,0.00352647,-0.0159325,0.0325204,0.0119715,0.0165106,1119,428,3.32669,31.6326
-98,596,3.36694,-31.8656,0.00342207,-0.01647,0.000720839,0.00344816,-0.0164961,0.0361742,0.0123089,0.0125653,1126,428,3.36697,31.8656
-91,596,3.37402,-32.2239,0.00376428,-0.0160829,0.000465916,0.00377521,-0.0160939,0.0234579,0.0121842,0.0299502,1133,428,3.374,32.2239
-84,596,3.54504,-32.8031,0,0,0,0,0,0,0,-1,1140,428,3.54504,32.8031
-77,596,3.45996,-32.6653,0,0,0,0,0,0,0,-1,1147,428,3.45999,32.6653
-70,596,3.50696,-32.137,0,0,0,0,0,0,0,-1,1154,428,3.50696,32.137
-63,596,1.95569,-12.2758,0,0,0,0,0,0,0,-1,1161,428,1.95563,12.2759
-56,596,1.60107,-10.5827,0,0,0,0,0,0,0,-1,1168,428,1.60108,10.5827
-49,596,1.59473,-10.0393,0,0,0,0,0,0,0,-1,1175,428,1.59472,10.0393
-42,596,1.99585,-6.6246,0,0,0,0,0,0,0,-1,1182,428,1.99586,6.62459
-35,596,3.4762,-33.5243,0,0,0,0,0,0,0,-1,1189,428,3.47624,33.5243
-28,596,3.65881,-33.6853,0,0,0,0,0,0,0,-1,1196,428,3.65876,33.6853
-21,596,3.75439,-33.8607,0,0,0,0,0,0,0,-1,1203,428,3.75445,33.8607
-14,596,3.9801,-33.9823,0,0,0,0,0,0,0,-1,1210,428,3.98007,33.9823
-7,596,4.00439,-34.0054,0,0,0,0,0,0,0,-1,1217,428,4.00441,34.0054
0,596,4.05847,-34.3667,0,0,0,0,0,0,0,-1,1224,428,4.05849,34.3667
7,596,4.12219,-34.0432,0.00973637,-0.00513209,0.00714594,0.0126139,-0.00800961,0.382814,0.0120055,0.0483795,1231,428,4.12221,34.0432
14,596,4.55103,-33.8164,0.00996786,-0.0061379,0.00703189,0.0126059,-0.00877597,0.358909,0.0124107,0.0458938,1238,428,4.55102,33.8164
21,596,4.80347,-33.8581,0,0,0,0,0,0,0,-1,1245,428,4.80343,33.8581
28,596,4.46155,-33.78,0,0,0,0,0,0,0,-1,1252,428,4.46157,33.78
35,596,4.32275,-33.8944,0.0126795,-0.00902953,0.00612316,0.0142875,-0.0106375,0.256806,0.0144418,0.0460737,1259,428,4.32277,33.8944
42,596,4.50244,-34.4002,0.0143935,-0.0117509,0.00599314,0.0157018,-0.0130592,0.214936,0.0166286,0.0459356,1266,428,4.50248,34.4002
49,596,4.99365,-34.9949,0.0166535,-0.015089,0.00630955,0.0178617,-0.0162972,0.189194,0.0197285,0.0443426,1273,428,4.99369,34.9949
56,596,4.7688,-34.6145,0.0183067,-0.0199445,0.00698555,0.0195425,-0.0211803,0.175096,0.0235177,0.0413165,1280,428,4.76875,34.6145
63,596,4.67493,-34.4055,0.0195854,-0.0254354,0.00784454,0.0209131,-0.0267631,0.167662,0.0275949,0.0430442,1287,428,4.6749,34.4055
70,596,4.52234,-34.3604,0,0,0,0,0,0,0,-1,1294,428,4.52233,34.3604
77,596,3.8988,-34.7022,0,0,0,0,0,0,0,-1,1301,428,3.89884,34.7022
84,596,5.23694,-36.1836,0,0,0,0,0,0,0,-1,1308,428,5.23689,36.1836
91,596,6.15308,-36.0172,0,0,0,0,0,0,0,-1,1315,428,6.1531,36.0172
98,596,6.51855,-36.8362,0,0,0,0,0,0,0,-1,1322,428,6.51859,36.8362
105,596,6.41125,-36.3443,0,0,0,0,0,0,0,-1,1329,428,6.41122,36.3443
112,596,5.77625,-34.0866,0,0,0,0,0,0,0,-1,1336,428,5.77626,34.0866
119,596,5.97827,-33.7868,0,0,0,0,0,0,0,-1,1343,428,5.97827,33.7868
126,596,5.70813,-34.1527,0,0,0,0,0,0,0,-1,1350,428,5.70814,34.1527
133,596,5.80103,-33.4507,0,0,0,0,0,0,0,-1,1357,428,5.80099,33.4507
140,596,5.96521,-33.2875,0,0,0,0,0,0,0,-1,1364,428,5.96523,33.2875
147,596,5.7251,-33.2631,0,0,0,0,0,0,0,-1,1371,428,5.7251,33.2631
154,596,5.51135,-33.2755,0,0,0,0,0,0,0,-1,1378,428,5.5113,33.2755
161,596,5.8335,-32.8878,0,0,0,0,0,0,0,-1,1385,428,5.83355,32.8878
168,596,5.81531,-32.6873,0,0,0,0,0,0,0,-1,1392,428,5.81529,32.6873
175,596,6.17566,-32.8259,0,0,0,0,0,0,0,-1,1399,428,6.17561,32.8259
182,596,6.30933,-32.8503,0,0,0,0,0,0,0,-1,1406,428,6.30928,32.8503
189,596,6.21167,-32.6224,0,0,0,0,0,0,0,-1,1413,428,6.21172,32.6224
196,596,6.09766,-32.1762,0,0,0,0,0,0,0,-1,1420,428,6.09767,32.1762
203,596,6.01855,-32.1504,0,0,0,0,0,0,0,-1,1427,428,6.01851,32.1504
210,596,6.06299,-32.0719,0,0,0,0,0,0,0,-1,1434,428,6.06295,32.0719
217,596,6.11804,-31.7462,0,0,0,0,0,0,0,-1,1441,428,6.11803,31.7462
224,596,6.31628,-31.6788,0.00222964,0.000724137,-0.00106989,0.00278506,0.00016872,-0.478837,0.0018031,0.046656,1448,428,6.31626,31.6788
231,596,6.22705,-31.1711,0.00187111,0.00163573,-0.000419965,0.00218957,0.00131728,-0.648784,0.00127282,0.0186659,1455,428,6.22699,31.1711
238,596,6.22449,-30.856,0.00187399,0.00216432,1.32666e-05,0.00216492,0.00187339,1.52523,0.00135659,0.0155137,1462,428,6.2245,30.856
245,596,6.24231,-30.5562,0.00204093,0.00242966,0.000225331,0.00253287,0.00193771,1.14127,0.0015293,0.0132278,1469,428,6.24226,30.5562
252,596,6.26917,-30.2316,0.00210026,0.00240281,0.000379617,0.00266018,0.00184289,0.974997,0.00157344,0.010178,1476,428,6.26911,30.2316
259,596,6.28235,-29.8971,0.00200532,0.0022715,0.000446906,0.00260471,0.00167211,0.930115,0.0015239,0.00905797,1483,428,6.28233,29.8971
266,596,6.28516,-29.5617,0.00193252,0.00213985,0.000507263,0.00255393,0.00151844,0.886189,0.00148327,0.0108965,1490,428,6.28513,29.5617
273,596,6.28491,-29.2126,0.00189677,0.00218129,0.000563666,0.00262037,0.00145769,0.909009,0.00151607,0.012384,1497,428,6.28495,29.2125
280,596,6.29175,-28.8601,0.00181341,0.00188934,0.000687708,0.00254013,0.00116262,0.812972,0.00146829,0.0125619,1504,428,6.29179,28.8601
287,596,6.2948,-28.5138,0.00168548,0.00197957,0.000915336,0.0027596,0.000905455,0.86504,0.00162433,0.0119323,1511,428,6.29477,28.5138
294,596,6.27478,-28.1517,0.00148045,0.0021529,0.00121921,0.0030814,0.000551957,0.919941,0.00189723,0.00896661,1518,428,6.27482,28.1517
301,596,6.2793,-27.7801,0.00124391,0.0023161,0.00156255,0.00343197,0.000128045,0.950652,0.00224651,0.00976519,1525,428,6.2793,27.7801
308,596,6.30151,-27.4058,0.00110978,0.00240011,0.00199431,0.00385101,-0.000341121,0.941837,0.00268827,0.0161859,1532,428,6.30148,27.4058
315,596,6.26538,-27.0226,0.00094111,0.0025934,0.00242137,0.00432569,-0.000791172,0.9498,0.00318049,0.0152021,1539,428,6.26535,27.0226
322,596,6.27856,-26.587,0.000710167,0.00285807,0.00286721,0.00484586,-0.00127762,0.964592,0.00373011,0.011667,1546,428,6.27862,26.587
329,596,6.26343,-26.1784,0.000463946,0.0030941,0.00328851,0.00532074,-0.00176269,0.975608,0.00425812,0.00963535,1553,428,6.26344,26.1784
336,596,6.22485,-25.7864,0.000183886,0.00331777,0.00362553,0.00570048,-0.00219882,0.989374,0.00470766,0.00951503,1560,428,6.22487,25.7864
343,596,6.22217,-25.3919,-6.67971e-05,0.003608,0.00393129,0.00611008,-0.00256888,1.004,0.00514796,0.011718,1567,428,6.22219,25.3919
350,596,6.20313,-24.9589,-0.000263261,0.00427399,0.00431342,0.00687899,-0.00286826,1.02749,0.0057842,0.0116945,1574,428,6.20315,24.9589
357,596,6.17651,-24.5004,-0.000504504,0.00479732,0.0046815,0.00752635,-0.00323354,1.04302,0.0063749,0.00957827,1581,428,6.17656,24.5004
364,596,6.16418,-24.0168,-0.000814448,0.00531584,0.00491888,0.00804643,-0.00354503,1.06403,0.00685848,0.0149401,1588,428,6.16415,24.0168
371,596,6.15979,-23.5919,-0.00107768,0.00611812,0.00520031,0.00884384,-0.0038034,1.08802,0.00749269,0.0220455,1595,428,6.15985,23.592
378,596,6.08203,-23.2364,-0.00106369,0.00774862,0.0051995,0.0101578,-0.00347289,1.13689,0.00817908,0.0307614,1602,428,6.082,23.2364
385,596,5.96521,-22.7273,-0.00140976,0.00845456,0.00518525,0.0106787,-0.00363393,1.16559,0.00859059,0.0451354,1609,428,5.96521,22.7273
392,596,5.8595,-22.2633,0,0,0,0,0,0,0,-1,1616,428,5.85948,22.2633
399,596,5.91577,-21.1225,0,0,0,0,0,0,0,-1,1623,428,5.91575,21.1225
406,596,3.60034,-10.1525,0,0,0,0,0,0,0,-1,1630,428,3.60028,10.1525
413,596,3.39124,-2.63528,0,0,0,0,0,0,0,-1,1637,428,3.39122,2.6353
420,596,2.6344,-3.06308,0,0,0,0,0,0,0,-1,1644,428,2.63439,3.06308
427,596,2.99329,-1.90512,0,0,0,0,0,0,0,-1,1651,428,2.99327,1.90512
434,596,3.80896,-0.253998,0,0,0,0,0,0,0,-1,1658,428,3.80902,0.254004
441,596,3.86401,-0.131622,0,0,0,0,0,0,0,-1,1665,428,3.86406,0.131613
448,596,1.0769,0.0083313,0,0,0,0,0,0,0,-1,1672,428,1.07684,-0.00832231
455,596,2.00769,-1.43329,0,0,0,0,0,0,0,-1,1679,428,2.00765,1.4333
462,596,0,0,0,0,0,0,0,0,0,-1,1686,428,0,0
469,596,0,0,0,0,0,0,0,0,0,-1,1693,428,0,0
476,596,0,0,0,0,0,0,0,0,0,-1,1700,428,0,0
483,596,0,0,0,0,0,0,0,0,0,-1,1707,428,0,0
490,596,0,0,0,0,0,0,0,0,0,-1,1714,428,0,0
497,596,0,0,0,0,0,0,0,0,0,-1,1721,428,0,0
504,596,0,0,0,0,0,0,0,0,0,-1,1728,428,0,0
511,596,0,0,0,0,0,0,0,0,0,-1,1735,428,0,0
518,596,0,0,0,0,0,0,0,0,0,-1,1742,428,0,0
525,596,0,0,0,0,0,0,0,0,0,-1,1749,428,0,0
532,596,0,0,0,0,0,0,0,0,0,-1,1756,428,0,0
539,596,0,0,0,0,0,0,0,0,0,-1,1763,428,0,0
546,596,0,0,0,0,0,0,0,0,0,-1,1770,428,0,0
553,596,0,0,0,0,0,0,0,0,0,-1,1777,428,0,0
560,596,0,0,0,0,0,0,0,0,0,-1,1784,428,0,0
567,596,0,0,0,0,0,0,0,0,0,-1,1791,428,0,0
574,596,0,0,0,0,0,0,0,0,0,-1,1798,428,0,0
581,596,0,0,0,0,0,0,0,0,0,-1,1805,428,0,0
588,596,0,0,0,0,0,0,0,0,0,-1,1812,428,0,0
595,596,0,0,0,0,0,0,0,0,0,-1,1819,428,0,0
602,596,0,0,0,0,0,0,0,0,0,-1,1826,428,0,0
609,596,0,0,0,0,0,0,0,0,0,-1,1833,428,0,0
616,596,0,0,0,0,0,0,0,0,0,-1,1840,428,0,0
623,596,0,0,0,0,0,0,0,0,0,-1,1847,428,0,0
630,596,0,0,0,0,0,0,0,0,0,-1,1854,428,0,0
637,596,0,0,0,0,0,0,0,0,0,-1,1861,428,0,0
644,596,0,0,0,0,0,0,0,0,0,-1,1868,428,0,0
651,596,0,0,0,0,0,0,0,0,0,-1,1875,428,0,0
658,596,0,0,0,0,0,0,0,0,0,-1,1882,428,0,0
665,596,0,0,0,0,0,0,0,0,0,-1,1889,428,0,0
672,596,0,0,0,0,0,0,0,0,0,-1,1896,428,0,0
679,596,0,0,0,0,0,0,0,0,0,-1,1903,428,0,0
686,596,0,0,0,0,0,0,0,0,0,-1,1910,428,0,0
693,596,0,0,0,0,0,0,0,0,0,-1,1917,428,0,0
700,596,0,0,0,0,0,0,0,0,0,-1,1924,428,0,0
707,596,0,0,0,0,0,0,0,0,0,-1,1931,428,0,0
714,596,0,0,0,0,0,0,0,0,0,-1,1938,428,0,0
721,596,0,0,0,0,0,0,0,0,0,-1,1945,428,0,0
728,596,0,0,0,0,0,0,0,0,0,-1,1952,428,0,0
735,596,0,0,0,0,0,0,0,0,0,-1,1959,428,0,0
742,596,0,0,0,0,0,0,0,0,0,-1,1966,428,0,0
749,596,0,0,0,0,0,0,0,0,0,-1,1973,428,0,0
756,596,0,0,0,0,0,0,0,0,0,-1,1980,428,0,0
763,596,0,0,0,0,0,0,0,0,0,-1,1987,428,0,0
770,596,0,0,0,0,0,0,0,0,0,-1,1994,428,0,0
777,596,0,0,0,0,0,0,0,0,0,-1,2001,428,0,0
784,596,0,0,0,0,0,0,0,0,0,-1,2008,428,0,0
791,596,0,0,0,0,0,0,0,0,0,-1,2015,428,0,0
798,596,0,0,0,0,0,0,0,0,0,-1,2022,428,0,0
805,596,0,0,0,0,0,0,0,0,0,-1,2029,428,0,0
812,596,0,0,0,0,0,0,0,0,0,-1,2036,428,0,0
-700,589,0,0,0,0,0,0,0,0,0,-1,524,435,0,0
-693,589,0,0,0,0,0,0,0,0,0,-1,531,435,0,0
-686,589,0,0,0,0,0,0,0,0,0,-1,538,435,0,0
-679,589,0,0,0,0,0,0,0,0,0,-1,545,435,0,0
-672,589,0,0,0,0,0,0,0,0,0,-1,552,435,0,0
-665,589,0,0,0,0,0,0,0,0,0,-1,559,435,0,0
-658,589,0,0,0,0,0,0,0,0,0,-1,566,435,0,0
-651,589,0,0,0,0,0,0,0,0,0,-1,573,435,0,0
-644,589,0,0,0,0,0,0,0,0,0,-1,580,435,0,0
-637,589,0,0,0,0,0,0,0,0,0,-1,587,435,0,0
-630,589,0,0,0,0,0,0,0,0,0,-1,594,435,0,0
-623,589,0,0,0,0,0,0,0,0,0,-1,601,435,0,0
-616,589,0,0,0,0,0,0,0,0,0,-1,608,435,0,0
-609,589,0,0,0,0,0,0,0,0,0,-1,615,435,0,0
-602,589,0,0,0,0,0,0,0,0,0,-1,622,435,0,0
-595,589,0,0,0,0,0,0,0,0,0,-1,629,435,0,0
-588,589,0,0,0,0,0,0,0,0,0,-1,636,435,0,0
-581,589,0,0,0,0,0,0,0,0,0,-1,643,435,0,0
-574,589,0,0,0,0,0,0,0,0,0,-1,650,435,0,0
-567,589,0,0,0,0,0,0,0,0,0,-1,657,435,0,0
-560,589,0,0,0,0,0,0,0,0,0,-1,664,435,0,0
-553,589,0,0,0,0,0,0,0,0,0,-1,671,435,0,0
-546,589,0,0,0,0,0,0,0,0,0,-1,678,435,0,0
-539,589,0,0,0,0,0,0,0,0,0,-1,685,435,0,0
-532,589,0,0,0,0,0,0,0,0,0,-1,692,435,0,0
-525,589,0,0,0,0,0,0,0,0,0,-1,699,435,0,0
-518,589,0,0,0,0,0,0,0,0,0,-1,706,435,0,0
-511,589,0,0,0,0,0,0,0,0,0,-1,713,435,0,0
-504,589,0,0,0,0,0,0,0,0,0,-1,720,435,0,0
-497,589,0,0,0,0,0,0,0,0,0,-1,727,435,0,0
-490,589,0,0,0,0,0,0,0,0,0,-1,734,435,0,0
-483,589,0,0,0,0,0,0,0,0,0,-1,741,435,0,0
-476,589,0,0,0,0,0,0,0,0,0,-1,748,435,0,0
-469,589,0,0,0,0,0,0,0,0,0,-1,755,435,0,0
-462,589,0,0,0,0,0,0,0,0,0,-1,762,435,0,0
-455,589,0,0,0,0,0,0,0,0,0,-1,769,435,0,0
-448,589,0,0,0,0,0,0,0,0,0,-1,776,435,0,0
-441,589,0,0,0,0,0,0,0,0,0,-1,783,435,0,0
-434,589,0,0,0,0,0,0,0,0,0,-1,790,435,0,0
-427,589,0,0,0,0,0,0,0,0,0,-1,797,435,0,0
-420,589,0,0,0,0,0,0,0,0,0,-1,804,435,0,0
-413,589,0,0,0,0,0,0,0,0,0,-1,811,435,0,0
-406,589,0,0,0,0,0,0,0,0,0,-1,818,435,0,0
-399,589,0,0,0,0,0,0,0,0,0,-1,825,435,0,0
-392,589,0,0,0,0,0,0,0,0,0,-1,832,435,0,0
-385,589,0,0,0,0,0,0,0,0,0,-1,839,435,0,0
-378,589,0,0,0,0,0,0,0,0,0,-1,846,435,0,0
-371,589,0,0,0,0,0,0,0,0,0,-1,853,435,0,0
-364,589,0,0,0,0,0,0,0,0,0,-1,860,435,0,0
-357,589,0,0,0,0,0,0,0,0,0,-1,867,435,0,0
-350,589,-0.799927,-20.664,0,0,0,0,0,0,0,-1,874,435,-0.799952,20.664
-343,589,-0.370911,-19.1543,0,0,0,0,0,0,0,-1,881,435,-0.370922,19.1543
-336,589,-0.836914,-18.9103,0,0,0,0,0,0,0,-1,888,435,-0.836925,18.9103
-329,589,2.58252,-16.902,0,0,0,0,0,0,0,-1,895,435,2.58251,16.902
-322,589,4.17059,-19.8552,0,0,0,0,0,0,0,-1,902,435,4.17058,19.8552
-315,589,3.4679,-20.4316,0,0,0,0,0,0,0,-1,909,435,3.46792,20.4316
-308,589,3.51221,-20.593,0,0,0,0,0,0,0,-1,916,435,3.5122,20.593
-301,589,2.35931,-20.3924,0,0,0,0,0,0,0,-1,923,435,2.35933,20.3924
-294,589,3.08344,-20.9044,0,0,0,0,0,0,0,-1,930,435,3.08343,20.9044
-287,589,3.1369,-21.4805,-0.00647602,0.0162144,-0.000584373,0.0162294,-0.00649106,-1.54506,0.0135134,0.0472786,937,435,3.13693,21.4805
-280,589,3.16827,-22.156,-0.00570974,0.0132887,-0.00118904,0.0133628,-0.00578387,-1.50853,0.0113394,0.0338979,944,435,3.16824,22.156
-273,589,3.15106,-22.7256,-0.00495032,0.0102864,-0.00190412,0.0105207,-0.00518468,-1.44834,0.00924033,0.0201599,951,435,3.15104,22.7257
-266,589,3.08496,-23.1586,-0.00429427,0.00925504,-0.00238176,0.00966152,-0.00470075,-1.40176,0.00845533,0.0177462,958,435,3.08494,23.1586
-259,589,2.98999,-23.6263,-0.00357563,0.00892036,-0.00254294,0.00941803,-0.0040733,-1.37753,0.00799037,0.0154737,965,435,2.99001,23.6263
-252,589,3.00861,-24.1419,-0.00282324,0.00915517,-0.00255039,0.00967558,-0.00334365,-1.36951,0.00780736,0.0105956,972,435,3.00861,24.1419
-245,589,3.02454,-24.5829,-0.00222833,0.00909973,-0.00256078,0.00965171,-0.00278031,-1.35849,0.00753423,0.0110836,979,435,3.02454,24.5829
-238,589,2.98938,-24.9898,-0.00170524,0.00886803,-0.00248515,0.00942301,-0.00226022,-1.35108,0.00715541,0.0148702,986,435,2.98937,24.9898
-231,589,2.94702,-25.4044,-0.00123276,0.00826425,-0.00224957,0.00877016,-0.00173866,-1.34959,0.00650425,0.0150299,993,435,2.94699,25.4044
-224,589,2.91559,-25.8121,-0.000794792,0.00752446,-0.00200658,0.00798315,-0.00125348,-1.34606,0.00578537,0.0148641,1000,435,2.91558,25.8121
-217,589,2.92224,-26.2272,-0.000264991,0.0069266,-0.00194931,0.00742098,-0.000759376,-1.32241,0.00521889,0.0154766,1007,435,2.92223,26.2272
-210,589,2.91901,-26.6253,0.00021491,0.00559147,-0.00163878,0.0060516,-0.000245212,-1.29707,0.00411857,0.0147841,1014,435,2.91898,26.6253
-203,589,2.92755,-26.993,0.00062967,0.00437206,-0.0012442,0.00474796,0.000253778,-1.2774,0.00308419,0.0114316,1021,435,2.92753,26.993
-196,589,2.92883,-27.3511,0.000944345,0.003377,-0.0009255,0.00368907,0.000632274,-1.24558,0.00227806,0.01356,1028,435,2.92888,27.3511
-189,589,2.90417,-27.7531,0.00141984,0.00240178,-0.000678779,0.00274854,0.00107308,-1.0985,0.00159953,0.016785,1035,435,2.9042,27.7531
-182,589,2.90234,-28.0933,0.00204986,0.00113275,-0.000499973,0.00226972,0.000912892,-0.414291,0.00131875,0.0126394,1042,435,2.9023,28.0933
-175,589,2.90332,-28.4545,0.00264499,-0.000352086,-0.000322567,0.00267932,-0.00038641,-0.10601,0.00192796,0.0164455,1049,435,2.90326,28.4545
-168,589,2.90198,-28.8242,0.00315267,-0.00230987,-0.000216088,0.00316121,-0.0023184,-0.039476,0.0031761,0.0137929,1056,435,2.90198,28.8241
-161,589,2.91382,-29.1657,0.0035789,-0.00446401,-0.000121204,0.00358073,-0.00446583,-0.0150651,0.00465504,0.0120207,1063,435,2.91382,29.1657
-154,589,2.9104,-29.4846,0.00400017,-0.00670656,7.80355e-05,0.00400073,-0.00670713,0.00728794,0.00624767,0.0124285,1070,435,2.91039,29.4847
-147,589,2.92761,-29.7956,0.00443361,-0.00909908,0.000177982,0.00443595,-0.00910142,0.013149,0.00796902,0.0130907,1077,435,2.92758,29.7956
-140,589,2.95691,-30.1076,0.00471303,-0.0118641,0.000313651,0.00471897,-0.01187,0.0189117,0.00986982,0.0146222,1084,435,2.95695,30.1076
-133,589,2.96509,-30.4284,0.00487271,-0.0147686,0.000487748,0.00488481,-0.0147807,0.0248124,0.0118233,0.0141951,1091,435,2.96515,30.4284
-126,589,2.98853,-30.7363,0.00493455,-0.0175028,0.000669619,0.00495451,-0.0175228,0.0298086,0.0136367,0.0114068,1098,435,2.98852,30.7363
-119,589,2.98328,-31.0226,0.00495997,-0.0198918,0.000741453,0.00498207,-0.0199139,0.0297997,0.0152111,0.0178493,1105,435,2.98333,31.0226
-112,589,2.99292,-31.2864,0.00494413,-0.0218358,0.000684286,0.00496161,-0.0218533,0.0255299,0.0164737,0.018536,1112,435,2.99294,31.2864
-105,589,2.98462,-31.6211,0.00475259,-0.0234821,0.000784609,0.00477438,-0.0235039,0.0277602,0.0174795,0.0217627,1119,435,2.9846,31.6211
-98,589,3.14624,-31.966,0.00451066,-0.0243255,0.000898174,0.00453861,-0.0243535,0.0311072,0.0179409,0.0466085,1126,435,3.14619,31.966
-91,589,3.02612,-32.4218,0,0,0,0,0,0,0,-1,1133,435,3.02616,32.4218
-84,589,2.76538,-22.6013,0,0,0,0,0,0,0,-1,1140,435,2.76539,22.6014
-77,589,2.18152,-14.8023,0,0,0,0,0,0,0,-1,1147,435,2.18155,14.8023
-70,589,1.48267,-9.90961,0,0,0,0,0,0,0,-1,1154,435,1.48264,9.9096
-63,589,0.880127,-5.50586,0,0,0,0,0,0,0,-1,1161,435,0.880186,5.50587
-56,589,-2.78052,-7.28082,0,0,0,0,0,0,0,-1,1168,435,-2.78053,7.28082
-49,589,-0.525757,-2.76703,0,0,0,0,0,0,0,-1,1175,435,-0.525771,2.76702
-42,589,-2.7738,-2.87921,0,0,0,0,0,0,0,-1,1182,435,-2.77383,2.87922
-35,589,-2.55225,-3.27551,0,0,0,0,0,0,0,-1,1189,435,-2.55223,3.27552
-28,589,-0.0632324,-3.42938,0,0,0,0,0,0,0,-1,1196,435,-0.063241,3.42938
-21,589,3.00769,-32.8834,0,0,0,0,0,0,0,-1,1203,435,3.00768,32.8834
-14,589,3.26501,-33.4625,0,0,0,0,0,0,0,-1,1210,435,3.26501,33.4625
-7,589,3.48486,-33.7408,0,0,0,0,0,0,0,-1,1217,435,3.4849,33.7408
0,589,3.50903,-33.9153,0,0,0,0,0,0,0,-1,1224,435,3.50905,33.9153
7,589,4.02917,-33.8857,0,0,0,0,0,0,0,-1,1231,435,4.02918,33.8857
14,589,4.61328,-33.5381,0,0,0,0,0,0,0,-1,1238,435,4.61332,33.5381
21,589,6.89807,-35.0073,0,0,0,0,0,0,0,-1,1245,435,6.89804,35.0073
28,589,6.76282,-34.2487,0,0,0,0,0,0,0,-1,1252,435,6.76281,34.2487
35,589,4.09912,-33.6832,0,0,0,0,0,0,0,-1,1259,435,4.09916,33.6832
42,589,5.31409,-35.3102,0,0,0,0,0,0,0,-1,1266,435,5.3141,35.3102
49,589,5.41443,-35.2477,0.0210239,-0.0191673,0.00983222,0.0233003,-0.0214437,0.227514,0.0258404,0.0465566,1273,435,5.41446,35.2477
56,589,4.98584,-34.8352,0.0233975,-0.0254999,0.0109654,0.0257439,-0.0278463,0.210806,0.0309483,0.0443103,1280,435,4.98588,34.8352
63,589,4.84729,-34.6985,0.0252209,-0.0323724,0.012159,0.0276827,-0.0348342,0.199764,0.0361728,0.0433609,1287,435,4.84732,34.6985
70,589,4.78931,-34.672,0,0,0,0,0,0,0,-1,1294,435,4.78928,34.672
77,589,4.62793,-34.5859,0.0269301,-0.0395994,0.0143833,0.0299065,-0.0425758,0.204055,0.0420602,0.0433793,1301,435,4.62793,34.5859
84,589,5.40332,-36.7824,0.0273921,-0.0409993,0.014722,0.0304266,-0.0440337,0.203269,0.0432283,0.0386971,1308,435,5.40336,36.7824
91,589,6.1438,-36.2878,0.0269362,-0.0426954,0.0153753,0.0301801,-0.0459393,0.207931,0.0442604,0.0427014,1315,435,6.1438,36.2878
98,589,6.40771,-35.9827,0.0251771,-0.0407483,0.0148894,0.0283839,-0.0439552,0.212136,0.0420863,0.0492591,1322,435,6.40766,35.9827
105,589,6.30652,-35.4927,0.02408,-0.0383774,0.0138043,0.0269949,-0.0412923,0.208107,0.0397127,0.0468665,1329,435,6.30647,35.4927
112,589,6.12585,-35.0145,0.022869,-0.0355799,0.0122497,0.0253325,-0.0380434,0.198456,0.0368346,0.0428281,1336,435,6.12588,35.0145
119,589,5.46387,-34.3028,0.0207431,-0.0301837,0.00988227,0.0225935,-0.0320341,0.185102,0.0316959,0.0444383,1343,435,5.46385,34.3028
126,589,5.71826,-33.9406,0.0186635,-0.0236633,0.00673316,0.0197088,-0.0247086,0.154012,0.0256985,0.0490684,1350,435,5.71821,33.9406
133,589,5.47021,-33.6301,0,0,0,0,0,0,0,-1,1357,435,5.47026,33.6301
140,589,5.95313,-33.8861,0,0,0,0,0,0,0,-1,1364,435,5.95309,33.8861
147,589,6.23889,-32.6479,0,0,0,0,0,0,0,-1,1371,435,6.23888,32.648
154,589,6.09058,-32.4009,0.0191301,-0.00601258,-0.00340862,0.019584,-0.0064665,-0.132388,0.015663,0.0432236,1378,435,6.09056,32.4009
161,589,6.16931,-32.3152,0.0194548,-0.00357419,-0.0052584,0.0205986,-0.00471807,-0.214196,0.0155456,0.0461756,1385,435,6.16935,32.3152
168,589,6.38843,-32.0669,0,0,0,0,0,0,0,-1,1392,435,6.38845,32.0669
175,589,8.66992,-7.65527,0,0,0,0,0,0,0,-1,1399,435,8.66994,7.65528
182,589,3.8136,-2.45389,0,0,0,0,0,0,0,-1,1406,435,3.81363,2.4539
189,589,3.69983,-3.68149,0,0,0,0,0,0,0,-1,1413,435,3.69987,3.68147
196,589,3.31055,-5.31677,0,0,0,0,0,0,0,-1,1420,435,3.31059,5.31678
203,589,2.72559,-8.84338,0,0,0,0,0,0,0,-1,1427,435,2.72558,8.84338
210,589,3.62378,-14.4032,0,0,0,0,0,0,0,-1,1434,435,3.62378,14.4032
217,589,4.65601,-22.3745,0,0,0,0,0,0,0,-1,1441,435,4.65607,22.3745
224,589,6.62036,-31.8128,0,0,0,0,0,0,0,-1,1448,435,6.6204,31.8128
231,589,6.56799,-31.1972,0,0,0,0,0,0,0,-1,1455,435,6.56802,31.1972
238,589,6.54968,-31.049,0,0,0,0,0,0,0,-1,1462,435,6.5497,31.049
245,589,6.53613,-30.4947,0.00255631,0.00313722,-0.000152997,0.00317505,0.00251848,-1.32839,0.00193533,0.0323012,1469,435,6.53618,30.4947
252,589,6.5896,-30.1961,0.00276199,0.00255485,-5.66088e-05,0.00277645,0.00254039,-0.250103,0.00177751,0.0145248,1476,435,6.58954,30.1961
259,589,6.61255,-29.91,0.00274488,0.00189396,-0.000104185,0.00275745,0.00188139,-0.120076,0.0016269,0.00984192,1483,435,6.61257,29.91
266,589,6.61926,-29.551,0.00273367,0.00132644,-0.000138059,0.00274708,0.00131302,-0.0968761,0.00158654,0.00956136,1490,435,6.61925,29.551
273,589,6.64673,-29.2202,0.00278829,0.00111913,-0.000206971,0.00281358,0.00109385,-0.121544,0.00163776,0.0114024,1497,435,6.64673,29.2202
280,589,6.65381,-28.8794,0.00274411,0.000441825,-0.000197516,0.00276093,0.000425003,-0.0849638,0.00171658,0.0128825,1504,435,6.65381,28.8794
287,589,6.64966,-28.5354,0.00255206,0.000367728,-8.71484e-05,0.00255554,0.000364257,-0.0398126,0.00159619,0.0117328,1511,435,6.6497,28.5354
294,589,6.64673,-28.1558,0.00232623,0.000466609,0.000125519,0.00233467,0.000458175,0.0670911,0.00142843,0.00964938,1518,435,6.64677,28.1558
301,589,6.65588,-27.7678,0.00203863,0.000496892,0.000343193,0.00211157,0.000423948,0.209429,0.00128984,0.0101252,1525,435,6.65593,27.7678
308,589,6.66492,-27.371,0.00183244,0.000510214,0.000650507,0.00209882,0.000243842,0.388655,0.00132543,0.0108251,1532,435,6.66494,27.371
315,589,6.65979,-26.9787,0.00157504,0.000725234,0.00095992,0.00219989,0.00010038,0.577038,0.00143431,0.0103683,1539,435,6.65984,26.9787
322,589,6.67236,-26.577,0.00126607,0.00105873,0.00131102,0.00247751,-0.00015271,0.745942,0.00170486,0.0107296,1546,435,6.67242,26.577
329,589,6.66321,-26.1837,0.000958221,0.00140286,0.00168725,0.00288238,-0.000521292,0.850903,0.00211685,0.0103894,1553,435,6.66326,26.1837
336,589,6.6427,-25.7968,0.000640331,0.00174787,0.00202873,0.00329706,-0.000908854,0.918634,0.00255544,0.0104292,1560,435,6.64268,25.7968
343,589,6.63501,-25.4212,0.000332147,0.00219008,0.00237189,0.00380844,-0.00128621,0.972045,0.00305919,0.0114543,1567,435,6.63496,25.4212
350,589,6.60669,-24.9893,8.07923e-05,0.00297696,0.00280412,0.00468482,-0.00162707,1.02374,0.00378403,0.0162871,1574,435,6.60675,24.9893
357,589,6.6095,-24.5001,-0.00017409,0.00369666,0.00324937,0.00554336,-0.00202079,1.05399,0.00452226,0.0133475,1581,435,6.60955,24.5001
364,589,6.61597,-24.0396,-0.000445171,0.00439725,0.003623,0.00633361,-0.00238153,1.07996,0.00520128,0.0106129,1588,435,6.61595,24.0396
371,589,6.5614,-23.5978,-0.000681282,0.00528097,0.00401544,0.00730094,-0.00270125,1.10471,0.00597484,0.0106757,1595,435,6.5614,23.5978
378,589,6.52783,-23.1494,-0.000799019,0.00661138,0.00423947,0.0085366,-0.00272424,1.14452,0.00678399,0.0120998,1602,435,6.52789,23.1494
385,589,6.52161,-22.6589,-0.00112475,0.00739837,0.00437332,0.0092431,-0.00296948,1.17163,0.00735451,0.0152442,1609,435,6.52158,22.6589
392,589,6.4906,-22.088,-0.00177362,0.00857827,0.00466458,0.01037,-0.00356537,1.20406,0.00835921,0.0203457,1616,435,6.49062,22.0879
399,589,6.46228,-21.4646,-0.00195607,0.0102809,0.00553018,0.0124098,-0.00408493,1.20333,0.00991928,0.0333931,1623,435,6.46231,21.4646
406,589,6.45715,-21,0,0,0,0,0,0,0,-1,1630,435,6.45713,21
413,589,5.61377,-19.0606,0,0,0,0,0,0,0,-1,1637,435,5.61372,19.0606
420,589,2.79724,-5.79956,0,0,0,0,0,0,0,-1,1644,435,2.7973,5.79955
427,589,5.88257,-19.8929,0,0,0,0,0,0,0,-1,1651,435,5.88253,19.8929
434,589,2.52734,-2.73029,0,0,0,0,0,0,0,-1,1658,435,2.52736,2.73029
441,589,3.17639,-2.02435,0,0,0,0,0,0,0,-1,1665,435,3.17643,2.02435
448,589,0.453735,-3.2868,0,0,0,0,0,0,0,-1,1672,435,0.453701,3.28681
455,589,0.664307,-3.46848,0,0,0,0,0,0,0,-1,1679,435,0.66425,3.46846
462,589,3.46716,-4.41891,0,0,0,0,0,0,0,-1,1686,435,3.4672,4.41891
469,589,0.0238037,-3.81497,0,0,0,0,0,0,0,-1,1693,435,0.0237965,3.81498
476,589,0,0,0,0,0,0,0,0,0,-1,1700,435,0,0
483,589,0,0,0,0,0,0,0,0,0,-1,1707,435,0,0
490,589,0,0,0,0,0,0,0,0,0,-1,1714,435,0,0
497,589,0,0,0,0,0,0,0,0,0,-1,1721,435,0,0
504,589,0,0,0,0,0,0,0,0,0,-1,1728,435,0,0
511,589,0,0,0,0,0,0,0,0,0,-1,1735,435,0,0
518,589,0,0,0,0,0,0,0,0,0,-1,1742,435,0,0
525,589,0,0,0,0,0,0,0,0,0,-1,1749,435,0,0
532,589,0,0,0,0,0,0,0,0,0,-1,1756,435,0,0
539,589,0,0,0,0,0,0,0,0,0,-1,1763,435,0,0
546,589,0,0,0,0,0,0,0,0,0,-1,1770,435,0,0
553,589,0,0,0,0,0,0,0,0,0,-1,1777,435,0,0
560,589,0,0,0,0,0,0,0,0,0,-1,1784,435,0,0
567,589,0,0,0,0,0,0,0,0,0,-1,1791,435,0,0
574,589,0,0,0,0,0,0,0,0,0,-1,1798,435,0,0
581,589,0,0,0,0,0,0,0,0,0,-1,1805,435,0,0
588,589,0,0,0,0,0,0,0,0,0,-1,1812,435,0,0
595,589,0,0,0,0,0,0,0,0,0,-1,1819,435,0,0
602,589,0,0,0,0,0,0,0,0,0,-1,1826,435,0,0
609,589,0,0,0,0,0,0,0,0,0,-1,1833,435,0,0
616,589,0,0,0,0,0,0,0,0,0,-1,1840,435,0,0
623,589,0,0,0,0,0,0,0,0,0,-1,1847,435,0,0
630,589,0,0,0,0,0,0,0,0,0,-1,1854,435,0,0
637,589,0,0,0,0,0,0,0,0,0,-1,1861,435,0,0
644,589,0,0,0,0,0,0,0,0,0,-1,1868,435,0,0
651,589,0,0,0,0,0,0,0,0,0,-1,1875,435,0,0
658,589,0,0,0,0,0,0,0,0,0,-1,1882,435,0,0
665,589,0,0,0,0,0,0,0,0,0,-1,1889,435,0,0
672,589,0,0,0,0,0,0,0,0,0,-1,1896,435,0,0
679,589,0,0,0,0,0,0,0,0,0,-1,1903,435,0,0
686,589,0,0,0,0,0,0,0,0,0,-1,1910,435,0,0
693,589,0,0,0,0,0,0,0,0,0,-1,1917,435,0,0
700,589,0,0,0,0,0,0,0,0,0,-1,1924,435,0,0
707,589,0,0,0,0,0,0,0,0,0,-1,1931,435,0,0
714,589,0,0,0,0,0,0,0,0,0,-1,1938,435,0,0
721,589,0,0,0,0,0,0,0,0,0,-1,1945,435,0,0
728,589,0,0,0,0,0,0,0,0,0,-1,1952,435,0,0
735,589,0,0,0,0,0,0,0,0,0,-1,1959,435,0,0
742,589,0,0,0,0,0,0,0,0,0,-1,1966,435,0,0
749,589,0,0,0,0,0,0,0,0,0,-1,1973,435,0,0
756,589,0,0,0,0,0,0,0,0,0,-1,1980,435,0,0
763,589,0,0,0,0,0,0,0,0,0,-1,1987,435,0,0
770,589,0,0,0,0,0,0,0,0,0,-1,1994,435,0,0
777,589,0,0,0,0,0,0,0,0,0,-1,2001,435,0,0
784,589,0,0,0,0,0,0,0,0,0,-1,2008,435,0,0
791,589,0,0,0,0,0,0,0,0,0,-1,2015,435,0,0
798,589,0,0,0,0,0,0,0,0,0,-1,2022,435,0,0
805,589,0,0,0,0,0,0,0,0,0,-1,2029,435,0,0
812,589,0,0,0,0,0,0,0,0,0,-1,2036,435,0,0
-700,582,0,0,0,0,0,0,0,0,0,-1,524,442,0,0
-693,582,0,0,0,0,0,0,0,0,0,-1,531,442,0,0
-686,582,0,0,0,0,0,0,0,0,0,-1,538,442,0,0
-679,582,0,0,0,0,0,0,0,0,0,-1,545,442,0,0
-672,582,0,0,0,0,0,0,0,0,0,-1,552,442,0,0
-665,582,0,0,0,0,0,0,0,0,0,-1,559,442,0,0
-658,582,0,0,0,0,0,0,0,0,0,-1,566,442,0,0
-651,582,0,0,0,0,0,0,0,0,0,-1,573,442,0,0
-644,582,0,0,0,0,0,0,0,0,0,-1,580,442,0,0
-637,582,0,0,0,0,0,0,0,0,0,-1,587,442,0,0
-630,582,0,0,0,0,0,0,0,0,0,-1,594,442,0,0
-623,582,0,0,0,0,0,0,0,0,0,-1,601,442,0,0
-616,582,0,0,0,0,0,0,0,0,0,-1,608,442,0,0
-609,582,0,0,0,0,0,0,0,0,0,-1,615,442,0,0
-602,582,0,0,0,0,0,0,0,0,0,-1,622,442,0,0
-595,582,0,0,0,0,0,0,0,0,0,-1,629,442,0,0
-588,582,0,0,0,0,0,0,0,0,0,-1,636,442,0,0
-581,582,0,0,0,0,0,0,0,0,0,-1,643,442,0,0
-574,582,0,0,0,0,0,0,0,0,0,-1,650,442,0,0
-567,582,0,0,0,0,0,0,0,0,0,-1,657,442,0,0
-560,582,0,0,0,0,0,0,0,0,0,-1,664,442,0,0
-553,582,0,0,0,0,0,0,0,0,0,-1,671,442,0,0
-546,582,0,0,0,0,0,0,0,0,0,-1,678,442,0,0
-539,582,0,0,0,0,0,0,0,0,0,-1,685,442,0,0
-532,582,0,0,0,0,0,0,0,0,0,-1,692,442,0,0
-525,582,0,0,0,0,0,0,0,0,0,-1,699,442,0,0
-518,582,0,0,0,0,0,0,0,0,0,-1,706,442,0,0
-511,582,0,0,0,0,0,0,0,0,0,-1,713,442,0,0
-504,582,0,0,0,0,0,0,0,0,0,-1,720,442,0,0
-497,582,0,0,0,0,0,0,0,0,0,-1,727,442,0,0
-490,582,0,0,0,0,0,0,0,0,0,-1,734,442,0,0
-483,582,0,0,0,0,0,0,0,0,0,-1,741,442,0,0
-476,582,0,0,0,0,0,0,0,0,0,-1,748,442,0,0
-469,582,0,0,0,0,0,0,0,0,0,-1,755,442,0,0
-462,582,0,0,0,0,0,0,0,0,0,-1,762,442,0,0
-455,582,0,0,0,0,0,0,0,0,0,-1,769,442,0,0
-448,582,0,0,0,0,0,0,0,0,0,-1,776,442,0,0
-441,582,0,0,0,0,0,0,0,0,0,-1,783,442,0,0
-434,582,0,0,0,0,0,0,0,0,0,-1,790,442,0,0
-427,582,0,0,0,0,0,0,0,0,0,-1,797,442,0,0
-420,582,0,0,0,0,0,0,0,0,0,-1,804,442,0,0
-413,582,0,0,0,0,0,0,0,0,0,-1,811,442,0,0
-406,582,0,0,0,0,0,0,0,0,0,-1,818,442,0,0
-399,582,0,0,0,0,0,0,0,0,0,-1,825,442,0,0
-392,582,0,0,0,0,0,0,0,0,0,-1,832,442,0,0
-385,582,0,0,0,0,0,0,0,0,0,-1,839,442,0,0
-378,582,0,0,0,0,0,0,0,0,0,-1,846,442,0,0
-371,582,0,0,0,0,0,0,0,0,0,-1,853,442,0,0
-364,582,0,0,0,0,0,0,0,0,0,-1,860,442,0,0
-357,582,-1.4903,-21.5295,0,0,0,0,0,0,0,-1,867,442,-1.49031,21.5295
-350,582,-0.880859,-19.7966,0,0,0,0,0,0,0,-1,874,442,-0.880885,19.7966
-343,582,-0.208557,-18.0078,0,0,0,0,0,0,0,-1,881,442,-0.208576,18.0078
-336,582,-0.167114,-18.7637,0,0,0,0,0,0,0,-1,888,442,-0.167108,18.7637
-329,582,1.93494,-18.9446,0,0,0,0,0,0,0,-1,895,442,1.93492,18.9446
-322,582,2.3327,-19.6136,0,0,0,0,0,0,0,-1,902,442,2.33272,19.6136
-315,582,2.75488,-20.1151,0,0,0,0,0,0,0,-1,909,442,2.75489,20.1151
-308,582,2.78638,-20.3389,0,0,0,0,0,0,0,-1,916,442,2.7864,20.3389
-301,582,2.78424,-20.6497,0,0,0,0,0,0,0,-1,923,442,2.78423,20.6497
-294,582,2.76038,-21.2357,-0.00573029,0.0192607,-0.000552509,0.0192729,-0.0057425,-1.5487,0.0151305,0.0455088,930,442,2.76037,21.2357
-287,582,2.73993,-21.6928,-0.00511368,0.0145287,-0.00104706,0.0145844,-0.00516934,-1.51769,0.0118287,0.0377331,937,442,2.73994,21.6928
-280,582,2.73352,-22.2163,-0.00449083,0.0117029,-0.00146131,0.0118337,-0.00462164,-1.48152,0.00979992,0.017536,944,442,2.7335,22.2163
-273,582,2.71222,-22.7363,-0.0038291,0.00871153,-0.00197639,0.00901564,-0.0041332,-1.41813,0.00776397,0.00997492,951,442,2.71221,22.7363
-266,582,2.67145,-23.2306,-0.00323822,0.00734737,-0.00224513,0.00780386,-0.00369471,-1.37021,0.00677853,0.00949269,958,442,2.67143,23.2306
-259,582,2.63318,-23.6874,-0.00256898,0.00666246,-0.00221882,0.00716807,-0.00307459,-1.34675,0.00606898,0.00876306,965,442,2.63321,23.6874
-252,582,2.6192,-24.1301,-0.00189826,0.00646659,-0.00203371,0.00693483,-0.0023665,-1.3445,0.00558185,0.00815293,972,442,2.61918,24.1301
-245,582,2.61957,-24.5515,-0.0013513,0.00604807,-0.00188354,0.00649994,-0.00180317,-1.33534,0.00504297,0.0118864,979,442,2.61959,24.5515
-238,582,2.58612,-24.9587,-0.000844948,0.00546735,-0.00166216,0.00587828,-0.00125588,-1.32843,0.00439766,0.016915,986,442,2.58609,24.9587
-231,582,2.56305,-25.3737,-0.000390557,0.0046187,-0.00132736,0.00494869,-0.000720543,-1.32713,0.00356367,0.0131336,993,442,2.56307,25.3737
-224,582,2.55609,-25.796,1.75073e-05,0.00368034,-0.000969523,0.00392114,-0.000223288,-1.32736,0.00269161,0.0105683,1000,442,2.55611,25.796
-217,582,2.53558,-26.2042,0.000460818,0.00294146,-0.000716816,0.0031337,0.000268582,-1.30878,0.00200561,0.0124756,1007,442,2.53559,26.2042
-210,582,2.52496,-26.5883,0.000960851,0.00185062,-0.0003986,0.00200307,0.000808405,-1.20551,0.00116362,0.0129552,1014,442,2.52499,26.5883
-203,582,2.55676,-26.981,0.00151315,0.000963646,-0.000116411,0.00153679,0.000940002,-0.200383,0.000894612,0.0102379,1021,442,2.55677,26.9811
-196,582,2.55798,-27.3794,0.00191219,0.000254899,0.000148891,0.00192546,0.000241629,0.0888915,0.00121116,0.0157013,1028,442,2.55803,27.3794
-189,582,2.54883,-27.7537,0.0025112,-0.000441549,0.000382761,0.00256001,-0.000490359,0.126836,0.00189144,0.0227768,1035,442,2.54881,27.7537
-182,582,2.5376,-28.1272,0.00329649,-0.00155139,0.000473193,0.00334225,-0.00159714,0.0963959,0.00291048,0.0156019,1042,442,2.53756,28.1272
-175,582,2.5575,-28.4365,0.00403472,-0.00287034,0.000525799,0.00407453,-0.00291015,0.0755663,0.00405124,0.013778,1049,442,2.55746,28.4365
-168,582,2.5437,-28.7981,0.00469497,-0.00494332,0.000493803,0.00472021,-0.00496855,0.0510553,0.00559442,0.011475,1056,442,2.54374,28.7981
-161,582,2.55859,-29.139,0.00524653,-0.00726998,0.000430311,0.0052613,-0.00728475,0.0343254,0.00727481,0.0119622,1063,442,2.55853,29.139
-154,582,2.58057,-29.4644,0.00578564,-0.00982836,0.000495406,0.00580134,-0.00984406,0.0316859,0.00913284,0.0117992,1070,442,2.58056,29.4644
-147,582,2.59436,-29.7953,0.00635917,-0.0127078,0.000447889,0.00636968,-0.0127183,0.0234731,0.0112218,0.0122152,1077,442,2.59431,29.7953
-140,582,2.5907,-30.0965,0.00668468,-0.0162829,0.000481844,0.00669479,-0.016293,0.020967,0.0136522,0.0131042,1084,442,2.59074,30.0965
-133,582,2.64233,-30.4062,0.00679744,-0.0201817,0.000566457,0.00680933,-0.0201936,0.0209838,0.0162159,0.0154943,1091,442,2.64234,30.4062
-126,582,2.67261,-30.6341,0.00676055,-0.0240481,0.000688409,0.00677592,-0.0240635,0.0223298,0.0187144,0.0147131,1098,442,2.67266,30.6341
-119,582,2.64954,-30.8137,0.00663585,-0.0276108,0.0006715,0.00664901,-0.0276239,0.0195977,0.0209864,0.019293,1105,442,2.6496,30.8137
-112,582,2.55469,-31.0925,0.00637487,-0.0305149,0.000526699,0.00638239,-0.0305224,0.0142738,0.0227758,0.027683,1112,442,2.55471,31.0925
-105,582,2.52527,-31.4226,0.00584723,-0.0331182,0.000690689,0.00585947,-0.0331304,0.0177183,0.024277,0.0481423,1119,442,2.52526,31.4226
-98,582,2.46008,-31.8193,0,0,0,0,0,0,0,-1,1126,442,2.46005,31.8193
-91,582,2.16492,-24.1119,0,0,0,0,0,0,0,-1,1133,442,2.16496,24.1119
-84,582,2.10278,-16.7533,0,0,0,0,0,0,0,-1,1140,442,2.10279,16.7533
-77,582,2.30212,-11.4907,0,0,0,0,0,0,0,-1,1147,442,2.30207,11.4907
-70,582,1.49255,-6.36548,0,0,0,0,0,0,0,-1,1154,442,1.49251,6.36549
-63,582,-4.62915,-4.0347,0,0,0,0,0,0,0,-1,1161,442,-4.6292,4.03471
-56,582,-5.81714,-5.24149,0,0,0,0,0,0,0,-1,1168,442,-5.81718,5.24149
-49,582,-3.88672,-10.1064,0,0,0,0,0,0,0,-1,1175,442,-3.88678,10.1064
-42,582,-0.948975,1.13968,0,0,0,0,0,0,0,-1,1182,442,-0.949003,-1.13969
-35,582,-2.58435,-3.86911,0,0,0,0,0,0,0,-1,1189,442,-2.58437,3.86912
-28,582,-0.825317,-3.45941,0,0,0,0,0,0,0,-1,1196,442,-0.825377,3.45942
-21,582,3.68225,-32.4738,0,0,0,0,0,0,0,-1,1203,442,3.68221,32.4738
-14,582,3.12341,-33.3924,0,0,0,0,0,0,0,-1,1210,442,3.12336,33.3924
-7,582,16.519,-41.9478,0,0,0,0,0,0,0,-1,1217,442,16.519,41.9478
0,582,2.72119,-33.2015,0,0,0,0,0,0,0,-1,1224,442,2.7212,33.2015
7,582,4.02246,-33.6462,0,0,0,0,0,0,0,-1,1231,442,4.0225,33.6462
14,582,6.67822,-36.319,0,0,0,0,0,0,0,-1,1238,442,6.67821,36.319
21,582,6.6189,-35.8219,0.0158748,-0.00986673,0.0129599,0.0212692,-0.0152611,0.394424,0.0211856,0.0455,1245,442,6.61886,35.8219
28,582,6.58521,-35.371,0.0170136,-0.0112338,0.0131284,0.0221729,-0.0163931,0.374447,0.0223493,0.0443,1252,442,6.5852,35.371
35,582,5.43726,-35.0647,0.0187858,-0.0136773,0.0127873,0.0232177,-0.0181092,0.333631,0.0239208,0.0480357,1259,442,5.4373,35.0647
42,582,5.62122,-35.1783,0,0,0,0,0,0,0,-1,1266,442,5.62117,35.1783
49,582,5.7771,-35.2888,0.0261671,-0.0244928,0.0142864,0.0299182,-0.0282439,0.256769,0.0335845,0.046458,1273,442,5.77709,35.2888
56,582,5.41443,-34.912,0.0294879,-0.0325066,0.0161077,0.0334233,-0.0364419,0.239621,0.0403492,0.0460994,1280,442,5.41445,34.912
63,582,5.34326,-35.0406,0.0319975,-0.0407665,0.0177321,0.0360886,-0.0448577,0.226753,0.0468257,0.0434739,1287,442,5.34327,35.0406
70,582,5.31494,-34.9846,0,0,0,0,0,0,0,-1,1294,442,5.31489,34.9846
77,582,5.35303,-34.4351,0.0339786,-0.0474426,0.0202988,0.0387586,-0.0522226,0.231269,0.0527194,0.0460526,1301,442,5.35307,34.4351
84,582,5.0614,-34.3014,0.0344051,-0.0475648,0.0204681,0.0392319,-0.0523915,0.231586,0.0530804,0.0454068,1308,442,5.06139,34.3014
91,582,5.70227,-35.9864,0.0338387,-0.0482729,0.0209391,0.03887,-0.0533042,0.235814,0.0534339,0.0462227,1315,442,5.70222,35.9863
98,582,6.12451,-35.2887,0.0317043,-0.044569,0.0198628,0.0365668,-0.0494316,0.240087,0.0498361,0.047445,1322,442,6.12452,35.2887
105,582,6.1134,-34.7065,0.0302496,-0.0405698,0.0181613,0.0346354,-0.0449555,0.236953,0.0460804,0.0462672,1329,442,6.11337,34.7066
112,582,5.91516,-34.1217,0.0284824,-0.0361856,0.0158908,0.0321762,-0.0398795,0.228396,0.0416805,0.0448929,1336,442,5.91515,34.1217
119,582,5.6731,-33.6748,0.0256199,-0.0284883,0.0124931,0.0283651,-0.0312335,0.216305,0.0344226,0.0437212,1343,442,5.67307,33.6748
126,582,5.63696,-33.5347,0.022941,-0.0200215,0.00840829,0.024528,-0.0216085,0.186546,0.0266547,0.0466228,1350,442,5.63697,33.5347
133,582,5.75757,-33.2847,0.0213723,-0.0130784,0.00450162,0.0219508,-0.0136569,0.12781,0.0207431,0.0475432,1357,442,5.75757,33.2847
140,582,6.11743,-33.4178,0.0222391,-0.00649678,0.00152317,0.0223196,-0.00657729,0.0528087,0.0174894,0.0450759,1364,442,6.11746,33.4178
147,582,6.17102,-32.7133,0.0231709,-0.00172401,-0.00180913,0.0233017,-0.00185479,-0.0721652,0.0161882,0.0480507,1371,442,6.17108,32.7133
154,582,6.43542,-32.2579,0.0238765,0.00115928,-0.0045665,0.0247601,0.000275716,-0.191127,0.0164156,0.0458575,1378,442,6.43538,32.2579
161,582,6.78906,-32.0305,0.0240242,0.00365087,-0.00671911,0.0260406,0.00163448,-0.291547,0.016842,0.0477197,1385,442,6.78904,32.0305
168,582,7.16553,-31.7727,0,0,0,0,0,0,0,-1,1392,442,7.1655,31.7727
175,582,6.50549,-2.00424,0,0,0,0,0,0,0,-1,1399,442,6.50546,2.00425
182,582,5.18958,-2.18652,0,0,0,0,0,0,0,-1,1406,442,5.1896,2.18652
189,582,6.19751,-0.880951,0,0,0,0,0,0,0,-1,1413,442,6.19754,0.88096
196,582,4.87354,-2.22327,0,0,0,0,0,0,0,-1,1420,442,4.87348,2.22325
203,582,3.11401,-4.48257,0,0,0,0,0,0,0,-1,1427,442,3.11404,4.48259
210,582,2.93115,-11.0731,0,0,0,0,0,0,0,-1,1434,442,2.93113,11.0731
217,582,4.94092,-16.5476,0,0,0,0,0,0,0,-1,1441,442,4.94087,16.5476
224,582,5.21008,-20.9908,0,0,0,0,0,0,0,-1,1448,442,5.21006,20.9908
231,582,5.70032,-25.622,0,0,0,0,0,0,0,-1,1455,442,5.70026,25.6221
238,582,6.44189,-30.7028,0,0,0,0,0,0,0,-1,1462,442,6.44195,30.7028
245,582,7.13745,-30.7692,0,0,0,0,0,0,0,-1,1469,442,7.13739,30.7692
252,582,7.02124,-30.3694,0.00335853,0.00356712,-0.000188791,0.00367851,0.00324714,-1.03775,0.00232195,0.0361128,1476,442,7.02126,30.3694
259,582,6.92419,-30.0063,0.00347195,0.00213344,-0.000415046,0.0035902,0.00201519,-0.277557,0.00207799,0.0259057,1483,442,6.92423,30.0063
266,582,6.92896,-29.624,0.00354618,0.000956612,-0.000609151,0.00368232,0.000820477,-0.219871,0.00223223,0.0183845,1490,442,6.929,29.624
273,582,6.99524,-29.2454,0.00356638,0.000241966,-0.00073154,0.00372024,8.81104e-05,-0.207296,0.00245132,0.0152082,1497,442,6.99524,29.2454
280,582,7.01001,-28.8997,0.00344881,-0.000944535,-0.000829102,0.00360007,-0.00109579,-0.180452,0.00283676,0.0127994,1504,442,7.00998,28.8998
287,582,7.02551,-28.5277,0.00320019,-0.00127473,-0.000875856,0.00336551,-0.00144005,-0.186557,0.00284776,0.011351,1511,442,7.02548,28.5277
294,582,7.03979,-28.16,0.00297677,-0.00127495,-0.0007821,0.00311607,-0.00141425,-0.176265,0.00267639,0.00951161,1518,442,7.03981,28.16
301,582,7.05713,-27.7499,0.002682,-0.00139504,-0.000715494,0.00280392,-0.00151696,-0.168777,0.00253127,0.0102092,1525,442,7.05707,27.75
308,582,7.06726,-27.3412,0.00246972,-0.00145684,-0.000561644,0.00254847,-0.0015356,-0.139316,0.00238199,0.0131341,1532,442,7.06725,27.3412
315,582,7.05371,-26.9644,0.00218442,-0.00114393,-0.000392256,0.00223002,-0.00118953,-0.115741,0.00200451,0.0129142,1539,442,7.05376,26.9644
322,582,7.04944,-26.5756,0.00186512,-0.000702157,-0.000155907,0.00187455,-0.00071159,-0.0604325,0.00154261,0.0103027,1546,442,7.04946,26.5756
329,582,7.04419,-26.1806,0.00156886,-0.00021015,0.000155887,0.00158242,-0.000223706,0.0867448,0.00113687,0.0107512,1553,442,7.04416,26.1806
336,582,7.0354,-25.7803,0.00127582,0.000275652,0.000477972,0.0014675,8.39698e-05,0.381396,0.000951582,0.0111887,1560,442,7.0354,25.7803
343,582,7.03601,-25.366,0.000949504,0.000830964,0.000814351,0.00170674,7.3729e-05,0.749071,0.00111406,0.0129229,1567,442,7.03598,25.366
350,582,7.03418,-24.9516,0.00065042,0.00163737,0.0012476,0.00248554,-0.000197753,0.973726,0.00172673,0.0154075,1574,442,7.03424,24.9516
357,582,7.04382,-24.4886,0.000371221,0.00240246,0.00172021,0.00338449,-0.000610807,1.05207,0.00248508,0.0131446,1581,442,7.04385,24.4886
364,582,7.03308,-24.0373,0.000109448,0.00309718,0.00217451,0.00424152,-0.00103489,1.08637,0.00322841,0.0103353,1588,442,7.03303,24.0373
371,582,6.98059,-23.5978,-0.000126539,0.00388631,0.00263914,0.00519512,-0.00143535,1.11041,0.00402803,0.0144151,1595,442,6.98065,23.5978
378,582,6.93958,-23.1677,-0.000392616,0.0048445,0.00305908,0.0062527,-0.00180082,1.13938,0.00488077,0.015409,1602,442,6.93953,23.1677
385,582,6.93481,-22.7043,-0.000764881,0.00561272,0.00333415,0.00703749,-0.00218965,1.16696,0.00556699,0.0105122,1609,442,6.93481,22.7043
392,582,6.90662,-22.2253,-0.00110575,0.00647855,0.00368008,0.00797066,-0.00259786,1.1856,0.00635914,0.00940926,1616,442,6.90662,22.2253
399,582,6.87866,-21.7759,-0.00125777,0.00781177,0.00445209,0.00963194,-0.00307794,1.1827,0.00765635,0.017159,1623,442,6.87869,21.7759
406,582,6.91223,-21.1689,-0.00176815,0.00941384,0.00495043,0.0112905,-0.00364481,1.20844,0.00899165,0.0312095,1630,442,6.9122,21.1689
413,582,6.83875,-20.7721,0,0,0,0,0,0,0,-1,1637,442,6.83875,20.772
420,582,6.77075,-20.2641,0,0,0,0,0,0,0,-1,1644,442,6.77076,20.2641
427,582,6.56689,-19.8029,0,0,0,0,0,0,0,-1,1651,442,6.56689,19.8029
434,582,6.49634,-19.267,0,0,0,0,0,0,0,-1,1658,442,6.49637,19.267
441,582,4.53979,-12.7726,0,0,0,0,0,0,0,-1,1665,442,4.53983,12.7726
448,582,7.49854,-17.2696,0,0,0,0,0,0,0,-1,1672,442,7.49848,17.2696
455,582,5.93567,-16.3171,0,0,0,0,0,0,0,-1,1679,442,5.93569,16.3171
462,582,6.7699,-17.5673,0,0,0,0,0,0,0,-1,1686,442,6.76989,17.5673
469,582,5.90674,-15.9182,0,0,0,0,0,0,0,-1,1693,442,5.90676,15.9182
476,582,1.93579,-8.53891,0,0,0,0,0,0,0,-1,1700,442,1.93579,8.53892
483,582,0,0,0,0,0,0,0,0,0,-1,1707,442,0,0
490,582,0,0,0,0,0,0,0,0,0,-1,1714,442,0,0
497,582,0,0,0,0,0,0,0,0,0,-1,1721,442,0,0
504,582,0,0,0,0,0,0,0,0,0,-1,1728,442,0,0
511,582,0,0,0,0,0,0,0,0,0,-1,1735,442,0,0
518,582,0,0,0,0,0,0,0,0,0,-1,1742,442,0,0
525,582,0,0,0,0,0,0,0,0,0,-1,1749,442,0,0
532,582,0,0,0,0,0,0,0,0,0,-1,1756,442,0,0
539,582,0,0,0,0,0,0,0,0,0,-1,1763,442,0,0
546,582,0,0,0,0,0,0,0,0,0,-1,1770,442,0,0
553,582,0,0,0,0,0,0,0,0,0,-1,1777,442,0,0
560,582,0,0,0,0,0,0,0,0,0,-1,1784,442,0,0
567,582,0,0,0,0,0,0,0,0,0,-1,1791,442,0,0
574,582,0,0,0,0,0,0,0,0,0,-1,1798,442,0,0
581,582,0,0,0,0,0,0,0,0,0,-1,1805,442,0,0
588,582,0,0,0,0,0,0,0,0,0,-1,1812,442,0,0
595,582,0,0,0,0,0,0,0,0,0,-1,1819,442,0,0
602,582,0,0,0,0,0,0,0,0,0,-1,1826,442,0,0
609,582,0,0,0,0,0,0,0,0,0,-1,1833,442,0,0
616,582,0,0,0,0,0,0,0,0,0,-1,1840,442,0,0
623,582,0,0,0,0,0,0,0,0,0,-1,1847,442,0,0
630,582,0,0,0,0,0,0,0,0,0,-1,1854,442,0,0
637,582,0,0,0,0,0,0,0,0,0,-1,1861,442,0,0
644,582,0,0,0,0,0,0,0,0,0,-1,1868,442,0,0
651,582,0,0,0,0,0,0,0,0,0,-1,1875,442,0,0
658,582,0,0,0,0,0,0,0,0,0,-1,1882,442,0,0
665,582,0,0,0,0,0,0,0,0,0,-1,1889,442,0,0
672,582,0,0,0,0,0,0,0,0,0,-1,1896,442,0,0
679,582,0,0,0,0,0,0,0,0,0,-1,1903,442,0,0
686,582,0,0,0,0,0,0,0,0,0,-1,1910,442,0,0
693,582,0,0,0,0,0,0,0,0,0,-1,1917,442,0,0
700,582,0,0,0,0,0,0,0,0,0,-1,1924,442,0,0
707,582,0,0,0,0,0,0,0,0,0,-1,1931,442,0,0
714,582,0,0,0,0,0,0,0,0,0,-1,1938,442,0,0
721,582,0,0,0,0,0,0,0,0,0,-1,1945,442,0,0
728,582,0,0,0,0,0,0,0,0,0,-1,1952,442,0,0
735,582,0,0,0,0,0,0,0,0,0,-1,1959,442,0,0
742,582,0,0,0,0,0,0,0,0,0,-1,1966,442,0,0
749,582,0,0,0,0,0,0,0,0,0,-1,1973,442,0,0
756,582,0,0,0,0,0,0,0,0,0,-1,1980,442,0,0
763,582,0,0,0,0,0,0,0,0,0,-1,1987,442,0,0
770,582,0,0,0,0,0,0,0,0,0,-1,1994,442,0,0
777,582,0,0,0,0,0,0,0,0,0,-1,2001,442,0,0
784,582,0,0,0,0,0,0,0,0,0,-1,2008,442,0,0
791,582,0,0,0,0,0,0,0,0,0,-1,2015,442,0,0
798,582,0,0,0,0,0,0,0,0,0,-1,2022,442,0,0
805,582,0,0,0,0,0,0,0,0,0,-1,2029,442,0,0
812,582,0,0,0,0,0,0,0,0,0,-1,2036,442,0,0
-700,575,0,0,0,0,0,0,0,0,0,-1,524,449,0,0
-693,575,0,0,0,0,0,0,0,0,0,-1,531,449,0,0
-686,575,0,0,0,0,0,0,0,0,0,-1,538,449,0,0
-679,575,0,0,0,0,0,0,0,0,0,-1,545,449,0,0
-672,575,0,0,0,0,0,0,0,0,0,-1,552,449,0,0
-665,575,0,0,0,0,0,0,0,0,0,-1,559,449,0,0
-658,575,0,0,0,0,0,0,0,0,0,-1,566,449,0,0
-651,575,0,0,0,0,0,0,0,0,0,-1,573,449,0,0
-644,575,0,0,0,0,0,0,0,0,0,-1,580,449,0,0
-637,575,0,0,0,0,0,0,0,0,0,-1,587,449,0,0
-630,575,0,0,0,0,0,0,0,0,0,-1,594,449,0,0
-623,575,0,0,0,0,0,0,0,0,0,-1,601,449,0,0
-616,575,0,0,0,0,0,0,0,0,0,-1,608,449,0,0
-609,575,0,0,0,0,0,0,0,0,0,-1,615,449,0,0
-602,575,0,0,0,0,0,0,0,0,0,-1,622,449,0,0
-595,575,0,0,0,0,0,0,0,0,0,-1,629,449,0,0
-588,575,0,0,0,0,0,0,0,0,0,-1,636,449,0,0
-581,575,0,0,0,0,0,0,0,0,0,-1,643,449,0,0
-574,575,0,0,0,0,0,0,0,0,0,-1,650,449,0,0
-567,575,0,0,0,0,0,0,0,0,0,-1,657,449,0,0
-560,575,0,0,0,0,0,0,0,0,0,-1,664,449,0,0
-553,575,0,0,0,0,0,0,0,0,0,-1,671,449,0,0
-546,575,0,0,0,0,0,0,0,0,0,-1,678,449,0,0
-539,575,0,0,0,0,0,0,0,0,0,-1,685,449,0,0
-532,575,0,0,0,0,0,0,0,0,0,-1,692,449,0,0
-525,575,0,0,0,0,0,0,0,0,0,-1,699,449,0,0
-518,575,0,0,0,0,0,0,0,0,0,-1,706,449,0,0
-511,575,0,0,0,0,0,0,0,0,0,-1,713,449,0,0
-504,575,0,0,0,0,0,0,0,0,0,-1,720,449,0,0
-497,575,0,0,0,0,0,0,0,0,0,-1,727,449,0,0
-490,575,0,0,0,0,0,0,0,0,0,-1,734,449,0,0
-483,575,0,0,0,0,0,0,0,0,0,-1,741,449,0,0
-476,575,0,0,0,0,0,0,0,0,0,-1,748,449,0,0
-469,575,0,0,0,0,0,0,0,0,0,-1,755,449,0,0
-462,575,0,0,0,0,0,0,0,0,0,-1,762,449,0,0
-455,575,0,0,0,0,0,0,0,0,0,-1,769,449,0,0
-448,575,0,0,0,0,0,0,0,0,0,-1,776,449,0,0
-441,575,0,0,0,0,0,0,0,0,0,-1,783,449,0,0
-434,575,0,0,0,0,0,0,0,0,0,-1,790,449,0,0
-427,575,0,0,0,0,0,0,0,0,0,-1,797,449,0,0
-420,575,0,0,0,0,0,0,0,0,0,-1,804,449,0,0
-413,575,0,0,0,0,0,0,0,0,0,-1,811,449,0,0
-406,575,0,0,0,0,0,0,0,0,0,-1,818,449,0,0
-399,575,0,0,0,0,0,0,0,0,0,-1,825,449,0,0
-392,575,0,0,0,0,0,0,0,0,0,-1,832,449,0,0
-385,575,0,0,0,0,0,0,0,0,0,-1,839,449,0,0
-378,575,0,0,0,0,0,0,0,0,0,-1,846,449,0,0
-371,575,0.56897,-3.52304,0,0,0,0,0,0,0,-1,853,449,0.568955,3.52306
-364,575,1.49805,-4.67191,0,0,0,0,0,0,0,-1,860,449,1.49803,4.6719
-357,575,3.15521,-8.29892,0,0,0,0,0,0,0,-1,867,449,3.15521,8.29891
-350,575,-0.825928,-18.5347,0,0,0,0,0,0,0,-1,874,449,-0.825948,18.5347
-343,575,0.465393,-16.3569,0,0,0,0,0,0,0,-1,881,449,0.465397,16.3569
-336,575,3.1994,-17.5725,0,0,0,0,0,0,0,-1,888,449,3.19941,17.5725
-329,575,3.62091,-17.5445,0,0,0,0,0,0,0,-1,895,449,3.62092,17.5445
-322,575,3.43378,-18.4327,0,0,0,0,0,0,0,-1,902,449,3.4338,18.4327
-315,575,3.23669,-19.1795,0,0,0,0,0,0,0,-1,909,449,3.23672,19.1795
-308,575,2.42651,-20.437,-0.00610267,0.0288922,0.00084347,0.0289125,-0.00612298,1.54671,0.0216071,0.0472222,916,449,2.42649,20.437
-301,575,2.43066,-20.8672,-0.00516191,0.0219602,-0.000268109,0.0219629,-0.00516456,-1.56091,0.0166329,0.0329022,923,449,2.43064,20.8672
-294,575,2.38885,-21.3298,-0.00441061,0.0164947,-0.000837441,0.0165282,-0.0044441,-1.53082,0.0127608,0.0246895,930,449,2.38883,21.3298
-287,575,2.3338,-21.8287,-0.00387425,0.0124709,-0.00114725,0.012551,-0.00395438,-1.50106,0.00995093,0.0189792,937,449,2.33377,21.8287
-280,575,2.31244,-22.3032,-0.00332489,0.00982764,-0.00140594,0.00997625,-0.0034735,-1.46549,0.00806207,0.0139078,944,449,2.31243,22.3032
-273,575,2.29315,-22.7821,-0.00274364,0.00699699,-0.00176257,0.00730612,-0.00305277,-1.39718,0.00614646,0.00966423,951,449,2.29317,22.7821
-266,575,2.26392,-23.2475,-0.00220814,0.00547333,-0.00187651,0.00590724,-0.00264204,-1.34356,0.0050545,0.010753,958,449,2.26393,23.2475
-259,575,2.22394,-23.7006,-0.00158428,0.00454708,-0.00172209,0.00499765,-0.00203485,-1.31489,0.0041786,0.0126615,965,449,2.22395,23.7006
-252,575,2.18689,-24.14,-0.000984322,0.0039929,-0.00139666,0.00435803,-0.00134946,-1.31509,0.00344444,0.0122237,972,449,2.18692,24.14
-245,575,2.17218,-24.5424,-0.000482423,0.00326794,-0.00111588,0.00357484,-0.000789328,-1.3024,0.00268529,0.0148002,979,449,2.17219,24.5424
-238,575,2.16632,-24.9571,5.4276e-06,0.0023658,-0.000771142,0.0025954,-0.000224173,-1.28141,0.00180962,0.014987,986,449,2.16633,24.9571
-231,575,2.16992,-25.3711,0.000445937,0.00126735,-0.00035053,0.0013966,0.000316689,-1.21754,0.000845511,0.0125528,993,449,2.16991,25.3711
-224,575,2.1593,-25.7803,0.000825701,9.41606e-05,0.000119606,0.00084476,7.51017e-05,0.158019,0.000539883,0.012153,1000,449,2.15931,25.7803
-217,575,2.16235,-26.1788,0.00121305,-0.000911928,0.000559733,0.00135147,-0.00105035,0.242434,0.00139032,0.0108979,1007,449,2.16234,26.1788
-210,575,2.16382,-26.6013,0.00176858,-0.00186175,0.000859362,0.00196173,-0.0020549,0.221085,0.00231921,0.00952955,1014,449,2.16383,26.6013
-203,575,2.18365,-26.9922,0.00250486,-0.00245126,0.000992505,0.00269623,-0.00264263,0.190476,0.00308244,0.0123161,1021,449,2.18366,26.9922
-196,575,2.17419,-27.3702,0.00303593,-0.00289156,0.00115763,0.00325399,-0.00310962,0.186187,0.00367435,0.0156546,1028,449,2.17415,27.3702
-189,575,2.1582,-27.7412,0.00379871,-0.0033095,0.00133171,0.00404001,-0.00355081,0.179253,0.00438559,0.0167095,1035,449,2.15819,27.7413
-182,575,2.16943,-28.0942,0.00478579,-0.00423702,0.00128316,0.00496473,-0.00441595,0.138554,0.00541903,0.0150376,1042,449,2.16944,28.0942
-175,575,2.19446,-28.4376,0.00571476,-0.00533143,0.00115719,0.00583468,-0.00545135,0.103266,0.00651725,0.0123425,1049,449,2.19447,28.4376
-168,575,2.18298,-28.7707,0.0065789,-0.00745703,0.000927639,0.00663994,-0.00751808,0.0657094,0.00817937,0.0110848,1056,449,2.18303,28.7707
-161,575,2.20654,-29.0997,0.0073113,-0.00987528,0.000643507,0.00733536,-0.00989934,0.0373727,0.00998709,0.0153549,1063,449,2.2065,29.0997
-154,575,2.23303,-29.418,0.00801772,-0.0127169,0.000525777,0.00803104,-0.0127302,0.0253358,0.0120884,0.019114,1070,449,2.23309,29.418
-147,575,2.26465,-29.7072,0.00878232,-0.0161437,0.000292097,0.00878574,-0.0161471,0.0117164,0.0146026,0.0183287,1077,449,2.26459,29.7072
-140,575,2.22095,-29.961,0.0091638,-0.020789,0.000232626,0.00916561,-0.0207908,0.00776578,0.0177241,0.0234177,1084,449,2.22099,29.961
-133,575,2.29614,-30.134,0.0091987,-0.0260733,0.000270741,0.00920078,-0.0260754,0.0076752,0.0211292,0.0313765,1091,449,2.29613,30.134
-126,575,2.41211,-30.0713,0.00899923,-0.0316438,0.000414836,0.00900347,-0.031648,0.0102054,0.0246541,0.0351765,1098,449,2.41207,30.0713
-119,575,2.40906,-30.1427,0.00863319,-0.0370294,0.000435818,0.00863735,-0.0370336,0.00954316,0.0280156,0.0344612,1105,449,2.40905,30.1427
-112,575,2.36414,-30.4602,0.00804393,-0.0416868,0.000322335,0.00804602,-0.0416889,0.00648123,0.0308266,0.0421774,1112,449,2.36417,30.4602
-105,575,2.18408,-30.7004,0,0,0,0,0,0,0,-1,1119,449,2.1841,30.7005
-98,575,1.521,-25.6961,0,0,0,0,0,0,0,-1,1126,449,1.52105,25.6961
-91,575,1.60803,-16.4247,0,0,0,0,0,0,0,-1,1133,449,1.60802,16.4247
-84,575,1.16553,-11.9056,0,0,0,0,0,0,0,-1,1140,449,1.16558,11.9056
-77,575,0.205078,-11.2584,0,0,0,0,0,0,0,-1,1147,449,0.205117,11.2584
-70,575,-4.2467,-1.78738,0,0,0,0,0,0,0,-1,1154,449,-4.24674,1.78739
-63,575,-4.52209,-3.48798,0,0,0,0,0,0,0,-1,1161,449,-4.5221,3.48796
-56,575,-5.5968,-5.4928,0,0,0,0,0,0,0,-1,1168,449,-5.59683,5.49281
-49,575,-5.96863,-7.17612,0,0,0,0,0,0,0,-1,1175,449,-5.96868,7.1761
-42,575,-0.830322,0.773499,0,0,0,0,0,0,0,-1,1182,449,-0.83038,-0.77351
-35,575,-0.62085,0.205139,0,0,0,0,0,0,0,-1,1189,449,-0.620855,-0.205126
-28,575,0.49292,-3.87988,0,0,0,0,0,0,0,-1,1196,449,0.492941,3.87989
-21,575,16.8424,-42.838,0,0,0,0,0,0,0,-1,1203,449,16.8424,42.838
-14,575,16.866,-42.219,0,0,0,0,0,0,0,-1,1210,449,16.8659,42.219
-7,575,16.9323,-41.6153,0,0,0,0,0,0,0,-1,1217,449,16.9322,41.6153
0,575,3.10815,-33.2534,0,0,0,0,0,0,0,-1,1224,449,3.10815,33.2534
7,575,4.22351,-33.4326,0,0,0,0,0,0,0,-1,1231,449,4.22356,33.4326
14,575,6.50684,-37.0626,0,0,0,0,0,0,0,-1,1238,449,6.50677,37.0626
21,575,6.37195,-36.6509,0.0192016,-0.0127382,0.0161666,0.0259561,-0.0194927,0.395761,0.0263281,0.0460306,1245,449,6.3719,36.6509
28,575,6.22168,-36.2623,0.0200144,-0.0147553,0.0164957,0.026595,-0.0213358,0.37958,0.0277283,0.0437458,1252,449,6.22162,36.2623
35,575,6.25293,-35.9636,0.0224353,-0.0177564,0.0167412,0.0284949,-0.0238161,0.34729,0.030242,0.0426313,1259,449,6.25293,35.9636
42,575,6.44897,-35.735,0,0,0,0,0,0,0,-1,1266,449,6.44895,35.735
49,575,5.84045,-35.9522,0.0322917,-0.0317389,0.019748,0.0378924,-0.0373395,0.276351,0.0434356,0.0436249,1273,449,5.84042,35.9522
56,575,6.31421,-34.9149,0.0368382,-0.0416437,0.022584,0.0428729,-0.0476785,0.261113,0.0523044,0.0433513,1280,449,6.3142,34.9149
63,575,5.83752,-35.3248,0.0401973,-0.0511716,0.0247621,0.0464766,-0.0574509,0.24835,0.060114,0.0438965,1287,449,5.83754,35.3248
70,575,5.93286,-35.2518,0.0423328,-0.055174,0.0269905,0.0493053,-0.0621465,0.252806,0.0644889,0.046418,1294,449,5.93283,35.2518
77,575,5.93311,-35.1752,0,0,0,0,0,0,0,-1,1301,449,5.93307,35.1752
84,575,5.74548,-33.9457,0.0426901,-0.0535403,0.027417,0.0499533,-0.0608035,0.258967,0.0640476,0.0480446,1308,449,5.74548,33.9457
91,575,5.41394,-33.6487,0.0419826,-0.0523097,0.0275012,0.0494174,-0.0597445,0.264032,0.0631186,0.0450855,1315,449,5.41397,33.6487
98,575,5.74341,-34.5287,0,0,0,0,0,0,0,-1,1322,449,5.74335,34.5287
105,575,5.76807,-33.9088,0.0375521,-0.0396988,0.0230405,0.0439021,-0.0460488,0.268925,0.0519381,0.0447408,1329,449,5.76804,33.9088
112,575,5.68018,-33.4342,0.0350075,-0.0330722,0.0197733,0.0403338,-0.0383985,0.263123,0.0454607,0.042684,1336,449,5.68015,33.4342
119,575,5.53113,-32.8344,0,0,0,0,0,0,0,-1,1343,449,5.53109,32.8344
126,575,5.72339,-33.2014,0,0,0,0,0,0,0,-1,1350,449,5.72338,33.2014
133,575,6.0686,-32.8976,0.0259525,-0.00327739,0.00489142,0.0267493,-0.00407421,0.161484,0.0193345,0.046261,1357,449,6.06866,32.8976
140,575,6.44922,-32.5262,0.0270921,0.00414497,0.00106588,0.0271415,0.00409557,0.0463163,0.0168955,0.047357,1364,449,6.44921,32.5262
147,575,6.66821,-32.1443,0.0283045,0.00939028,-0.00302136,0.0287754,0.00891937,-0.154615,0.0170088,0.0491025,1371,449,6.66827,32.1442
154,575,6.896,-31.8164,0.029151,0.0126283,-0.00632129,0.031292,0.0104874,-0.326568,0.0183909,0.0479015,1378,449,6.89601,31.8164
161,575,7.10632,-31.5706,0,0,0,0,0,0,0,-1,1385,449,7.10636,31.5707
168,575,7.5509,-35.3165,0,0,0,0,0,0,0,-1,1392,449,7.5509,35.3165
175,575,4.32617,1.93634,0,0,0,0,0,0,0,-1,1399,449,4.32612,-1.93634
182,575,6.3147,-2.88345,0,0,0,0,0,0,0,-1,1406,449,6.31466,2.88346
189,575,6.10449,-1.30817,0,0,0,0,0,0,0,-1,1413,449,6.10455,1.30817
196,575,5.79895,0.818359,0,0,0,0,0,0,0,-1,1420,449,5.79895,-0.81837
203,575,3.29724,-1.46378,0,0,0,0,0,0,0,-1,1427,449,3.29722,1.46377
210,575,2.32739,-7.74503,0,0,0,0,0,0,0,-1,1434,449,2.32741,7.74502
217,575,3.33618,-11.5521,0,0,0,0,0,0,0,-1,1441,449,3.3362,11.5521
224,575,5.51709,-16.3903,0,0,0,0,0,0,0,-1,1448,449,5.51713,16.3903
231,575,5.48572,-20.4595,0,0,0,0,0,0,0,-1,1455,449,5.48571,20.4595
238,575,5.33484,-22.3575,0,0,0,0,0,0,0,-1,1462,449,5.33478,22.3575
245,575,5.59741,-23.513,0,0,0,0,0,0,0,-1,1469,449,5.5974,23.513
252,575,7.44995,-30.739,0,0,0,0,0,0,0,-1,1476,449,7.44994,30.7389
259,575,7.27002,-30.2687,0,0,0,0,0,0,0,-1,1483,449,7.27006,30.2687
266,575,7.24841,-29.8132,0,0,0,0,0,0,0,-1,1490,449,7.24842,29.8132
273,575,7.30261,-29.3255,0,0,0,0,0,0,0,-1,1497,449,7.30262,29.3255
280,575,7.33374,-28.9178,0,0,0,0,0,0,0,-1,1504,449,7.33373,28.9178
287,575,7.32495,-28.5719,0.00431058,-0.0027753,-0.00158234,0.00464787,-0.00311259,-0.210019,0.00450963,0.0294406,1511,449,7.32489,28.5719
294,575,7.41016,-28.1722,0.00399895,-0.00294444,-0.00161184,0.00435487,-0.00330037,-0.217333,0.00443371,0.0133292,1518,449,7.4101,28.1722
301,575,7.45129,-27.7612,0.00356911,-0.00338111,-0.00170544,0.00396503,-0.00377704,-0.228114,0.00447032,0.0103302,1525,449,7.45125,27.7612
308,575,7.47473,-27.356,0.00319423,-0.00362468,-0.00169257,0.00359124,-0.00402169,-0.230395,0.00439767,0.0104666,1532,449,7.47477,27.356
315,575,7.45093,-26.9729,0.00271492,-0.00329714,-0.00161,0.00311892,-0.00370114,-0.245857,0.00394235,0.010191,1539,449,7.4509,26.9729
322,575,7.45618,-26.5881,0.00222944,-0.00279165,-0.00141643,0.00260145,-0.00316366,-0.256838,0.00333376,0.00922187,1546,449,7.45621,26.5881
329,575,7.44958,-26.1875,0.00180062,-0.00215829,-0.00110189,0.00208664,-0.00244431,-0.253972,0.00261866,0.0102751,1553,449,7.44955,26.1875
336,575,7.43494,-25.7739,0.00141191,-0.00150941,-0.000750877,0.00159361,-0.00169111,-0.237419,0.00189671,0.0118305,1560,449,7.43493,25.7739
343,575,7.46997,-25.3359,0.000986173,-0.00081248,-0.000391497,0.00106769,-0.000893999,-0.205291,0.00113406,0.0117321,1567,449,7.46995,25.3359
350,575,7.46582,-24.9109,0.000630932,8.20399e-05,7.66237e-05,0.000641428,7.15441e-05,0.136131,0.000405878,0.0110974,1574,449,7.46583,24.9109
357,575,7.45215,-24.475,0.000324558,0.000974464,0.000572076,0.00130744,-8.41421e-06,1.04369,0.000874443,0.0106531,1581,449,7.45211,24.475
364,575,7.44397,-24.0472,9.5745e-05,0.00175882,0.00108607,0.00229513,-0.000440564,1.11212,0.00169612,0.010538,1588,449,7.44402,24.0472
371,575,7.41174,-23.6161,-9.89222e-05,0.00255159,0.00158549,0.00329275,-0.000840087,1.13351,0.00252227,0.020192,1595,449,7.41169,23.6161
378,575,7.38269,-23.1552,-0.000307137,0.00338346,0.00203503,0.00428525,-0.00120892,1.15367,0.00333369,0.0183701,1602,449,7.3827,23.1552
385,575,7.36914,-22.7049,-0.000522088,0.00415215,0.0023386,0.00512126,-0.0014912,1.17794,0.00400487,0.0106065,1609,449,7.36912,22.7049
392,575,7.33997,-22.254,-0.000634374,0.00483227,0.00271874,0.00595415,-0.00175626,1.17943,0.00466635,0.0087645,1616,449,7.34002,22.254
399,575,7.32056,-21.8098,-0.000746959,0.00591913,0.00342119,0.00736246,-0.00219029,1.17157,0.00577847,0.00973418,1623,449,7.32061,21.8098
406,575,7.31628,-21.3061,-0.00114567,0.00731388,0.00389653,0.0088351,-0.00266689,1.19859,0.0069517,0.0118956,1630,449,7.31624,21.3061
413,575,7.30554,-20.7923,-0.0018206,0.00981034,0.00415731,0.0111435,-0.00315376,1.26048,0.00867353,0.0142737,1637,449,7.30555,20.7923
420,575,7.26001,-20.2896,-0.00242253,0.0118785,0.00452879,0.0131921,-0.00373605,1.28851,0.0102691,0.0139678,1644,449,7.26007,20.2896
427,575,7.2002,-19.774,-0.00287117,0.0143111,0.00494886,0.0156345,-0.00419461,1.30949,0.0120667,0.0169552,1651,449,7.20018,19.7739
434,575,7.09314,-19.3261,-0.00353125,0.0175711,0.00542515,0.0188842,-0.00484429,1.33334,0.0144769,0.0286047,1658,449,7.09316,19.3261
441,575,7.02795,-18.9196,0,0,0,0,0,0,0,-1,1665,449,7.02791,18.9196
448,575,7.70715,-17.6257,0,0,0,0,0,0,0,-1,1672,449,7.70714,17.6257
455,575,7.70959,-16.8456,0,0,0,0,0,0,0,-1,1679,449,7.7096,16.8456
462,575,6.72778,-15.9041,0,0,0,0,0,0,0,-1,1686,449,6.72774,15.9041
469,575,7.1427,-16.6444,0,0,0,0,0,0,0,-1,1693,449,7.14271,16.6444
476,575,6.77588,-15.1698,0,0,0,0,0,0,0,-1,1700,449,6.77589,15.1698
483,575,6.28979,-16.1878,0,0,0,0,0,0,0,-1,1707,449,6.28984,16.1878
490,575,5.84216,-16.4164,0,0,0,0,0,0,0,-1,1714,449,5.84215,16.4164
497,575,0,0,0,0,0,0,0,0,0,-1,1721,449,0,0
504,575,0,0,0,0,0,0,0,0,0,-1,1728,449,0,0
511,575,0,0,0,0,0,0,0,0,0,-1,1735,449,0,0
518,575,0,0,0,0,0,0,0,0,0,-1,1742,449,0,0
525,575,0,0,0,0,0,0,0,0,0,-1,1749,449,0,0
532,575,0,0,0,0,0,0,0,0,0,-1,1756,449,0,0
539,575,0,0,0,0,0,0,0,0,0,-1,1763,449,0,0
546,575,0,0,0,0,0,0,0,0,0,-1,1770,449,0,0
553,575,0,0,0,0,0,0,0,0,0,-1,1777,449,0,0
560,575,0,0,0,0,0,0,0,0,0,-1,1784,449,0,0
567,575,0,0,0,0,0,0,0,0,0,-1,1791,449,0,0
574,575,0,0,0,0,0,0,0,0,0,-1,1798,449,0,0
581,575,0,0,0,0,0,0,0,0,0,-1,1805,449,0,0
588,575,0,0,0,0,0,0,0,0,0,-1,1812,449,0,0
595,575,0,0,0,0,0,0,0,0,0,-1,1819,449,0,0
602,575,0,0,0,0,0,0,0,0,0,-1,1826,449,0,0
609,575,0,0,0,0,0,0,0,0,0,-1,1833,449,0,0
616,575,0,0,0,0,0,0,0,0,0,-1,1840,449,0,0
623,575,0,0,0,0,0,0,0,0,0,-1,1847,449,0,0
630,575,0,0,0,0,0,0,0,0,0,-1,1854,449,0,0
637,575,0,0,0,0,0,0,0,0,0,-1,1861,449,0,0
644,575,0,0,0,0,0,0,0,0,0,-1,1868,449,0,0
651,575,0,0,0,0,0,0,0,0,0,-1,1875,449,0,0
658,575,0,0,0,0,0,0,0,0,0,-1,1882,449,0,0
665,575,0,0,0,0,0,0,0,0,0,-1,1889,449,0,0
672,575,0,0,0,0,0,0,0,0,0,-1,1896,449,0,0
679,575,0,0,0,0,0,0,0,0,0,-1,1903,449,0,0
686,575,0,0,0,0,0,0,0,0,0,-1,1910,449,0,0
693,575,0,0,0,0,0,0,0,0,0,-1,1917,449,0,0
700,575,0,0,0,0,0,0,0,0,0,-1,1924,449,0,0
707,575,0,0,0,0,0,0,0,0,0,-1,1931,449,0,0
714,575,0,0,0,0,0,0,0,0,0,-1,1938,449,0,0
721,575,0,0,0,0,0,0,0,0,0,-1,1945,449,0,0
728,575,0,0,0,0,0,0,0,0,0,-1,1952,449,0,0
735,575,0,0,0,0,0,0,0,0,0,-1,1959,449,0,0
742,575,0,0,0,0,0,0,0,0,0,-1,1966,449,0,0
749,575,0,0,0,0,0,0,0,0,0,-1,1973,449,0,0
756,575,0,0,0,0,0,0,0,0,0,-1,1980,449,0,0
763,575,0,0,0,0,0,0,0,0,0,-1,1987,449,0,0
770,575,0,0,0,0,0,0,0,0,0,-1,1994,449,0,0
777,575,0,0,0,0,0,0,0,0,0,-1,2001,449,0,0
784,575,0,0,0,0,0,0,0,0,0,-1,2008,449,0,0
791,575,0,0,0,0,0,0,0,0,0,-1,2015,449,0,0
798,575,0,0,0,0,0,0,0,0,0,-1,2022,449,0,0
805,575,0,0,0,0,0,0,0,0,0,-1,2029,449,0,0
812,575,0,0,0,0,0,0,0,0,0,-1,2036,449,0,0
-700,568,0,0,0,0,0,0,0,0,0,-1,524,456,0,0
-693,568,0,0,0,0,0,0,0,0,0,-1,531,456,0,0
-686,568,0,0,0,0,0,0,0,0,0,-1,538,456,0,0
-679,568,0,0,0,0,0,0,0,0,0,-1,545,456,0,0
-672,568,0,0,0,0,0,0,0,0,0,-1,552,456,0,0
-665,568,0,0,0,0,0,0,0,0,0,-1,559,456,0,0
-658,568,0,0,0,0,0,0,0,0,0,-1,566,456,0,0
-651,568,0,0,0,0,0,0,0,0,0,-1,573,456,0,0
-644,568,0,0,0,0,0,0,0,0,0,-1,580,456,0,0
-637,568,0,0,0,0,0,0,0,0,0,-1,587,456,0,0
-630,568,0,0,0,0,0,0,0,0,0,-1,594,456,0,0
-623,568,0,0,0,0,0,0,0,0,0,-1,601,456,0,0
-616,568,0,0,0,0,0,0,0,0,0,-1,608,456,0,0
-609,568,0,0,0,0,0,0,0,0,0,-1,615,456,0,0
-602,568,0,0,0,0,0,0,0,0,0,-1,622,456,0,0
-595,568,0,0,0,0,0,0,0,0,0,-1,629,456,0,0
-588,568,0,0,0,0,0,0,0,0,0,-1,636,456,0,0
-581,568,0,0,0,0,0,0,0,0,0,-1,643,456,0,0
-574,568,0,0,0,0,0,0,0,0,0,-1,650,456,0,0
-567,568,0,0,0,0,0,0,0,0,0,-1,657,456,0,0
-560,568,0,0,0,0,0,0,0,0,0,-1,664,456,0,0
-553,568,0,0,0,0,0,0,0,0,0,-1,671,456,0,0
-546,568,0,0,0,0,0,0,0,0,0,-1,678,456,0,0
-539,568,0,0,0,0,0,0,0,0,0,-1,685,456,0,0
-532,568,0,0,0,0,0,0,0,0,0,-1,692,456,0,0
-525,568,0,0,0,0,0,0,0,0,0,-1,699,456,0,0
-518,568,0,0,0,0,0,0,0,0,0,-1,706,456,0,0
-511,568,0,0,0,0,0,0,0,0,0,-1,713,456,0,0
-504,568,0,0,0,0,0,0,0,0,0,-1,720,456,0,0
-497,568,0,0,0,0,0,0,0,0,0,-1,727,456,0,0
-490,568,0,0,0,0,0,0,0,0,0,-1,734,456,0,0
-483,568,0,0,0,0,0,0,0,0,0,-1,741,456,0,0
-476,568,0,0,0,0,0,0,0,0,0,-1,748,456,0,0
-469,568,0,0,0,0,0,0,0,0,0,-1,755,456,0,0
-462,568,0,0,0,0,0,0,0,0,0,-1,762,456,0,0
-455,568,0,0,0,0,0,0,0,0,0,-1,769,456,0,0
-448,568,0,0,0,0,0,0,0,0,0,-1,776,456,0,0
-441,568,0,0,0,0,0,0,0,0,0,-1,783,456,0,0
-434,568,0,0,0,0,0,0,0,0,0,-1,790,456,0,0
-427,568,0,0,0,0,0,0,0,0,0,-1,797,456,0,0
-420,568,0,0,0,0,0,0,0,0,0,-1,804,456,0,0
-413,568,0,0,0,0,0,0,0,0,0,-1,811,456,0,0
-406,568,0,0,0,0,0,0,0,0,0,-1,818,456,0,0
-399,568,0,0,0,0,0,0,0,0,0,-1,825,456,0,0
-392,568,0,0,0,0,0,0,0,0,0,-1,832,456,0,0
-385,568,0,0,0,0,0,0,0,0,0,-1,839,456,0,0
-378,568,0.321777,-7.29929,0,0,0,0,0,0,0,-1,846,456,0.321806,7.29927
-371,568,1.09595,-7.46707,0,0,0,0,0,0,0,-1,853,456,1.09597,7.46707
-364,568,1.87787,-7.61115,0,0,0,0,0,0,0,-1,860,456,1.87784,7.61116
-357,568,2.14166,-7.67645,0,0,0,0,0,0,0,-1,867,456,2.14167,7.67646
-350,568,2.7467,-11.2507,0,0,0,0,0,0,0,-1,874,456,2.7467,11.2507
-343,568,2.16516,-11.3762,0,0,0,0,0,0,0,-1,881,456,2.16514,11.3762
-336,568,2.9043,-17.4771,0,0,0,0,0,0,0,-1,888,456,2.90429,17.4771
-329,568,2.77887,-18.0496,-0.00569495,0.0476758,0.00228494,0.0477735,-0.0057926,1.52809,0.033945,0.0474482,895,456,2.77889,18.0495
-322,568,2.65668,-18.7612,-0.00564125,0.0376803,0.00190775,0.0377642,-0.00572509,1.52687,0.0272854,0.042258,902,456,2.65669,18.7612
-315,568,2.46765,-19.4522,-0.00525336,0.0297853,0.00115728,0.0298235,-0.00529154,1.53782,0.0218607,0.0390653,909,456,2.46767,19.4522
-308,568,2.02667,-20.4216,-0.00465982,0.0234246,0.000282312,0.0234274,-0.00466266,1.56075,0.0173822,0.0323798,916,456,2.02667,20.4216
-301,568,1.96222,-20.9513,-0.00393843,0.0180221,-0.000432451,0.0180306,-0.00394694,-1.55111,0.0135294,0.0185027,923,456,1.96219,20.9513
-294,568,1.93359,-21.3776,-0.00331498,0.0135787,-0.000782728,0.0136149,-0.00335117,-1.5246,0.0103756,0.0133161,930,456,1.93357,21.3776
-287,568,1.90552,-21.8553,-0.00284752,0.0102173,-0.000951147,0.0102862,-0.00291641,-1.4985,0.00800862,0.0112249,937,456,1.9055,21.8553
-280,568,1.88654,-22.3418,-0.00235426,0.00783906,-0.00110665,0.00795783,-0.00247303,-1.46389,0.00629366,0.0109299,944,456,1.88655,22.3418
-273,568,1.87799,-22.7984,-0.00183478,0.00528287,-0.00134221,0.00552756,-0.00207947,-1.39047,0.00453983,0.0109975,951,456,1.87798,22.7984
-266,568,1.83038,-23.2566,-0.00132766,0.00372465,-0.00134672,0.0040612,-0.00166421,-1.3259,0.00340076,0.010317,958,456,1.83036,23.2566
-259,568,1.79895,-23.7128,-0.000717907,0.00263285,-0.00111649,0.00297079,-0.00105584,-1.27688,0.00241081,0.0125795,965,456,1.79897,23.7128
-252,568,1.77197,-24.1399,-0.000157422,0.00173683,-0.000701687,0.00196844,-0.00038903,-1.25198,0.00145936,0.0136519,972,456,1.77195,24.1399
-245,568,1.76202,-24.5264,0.000335481,0.00069829,-0.000322407,0.000886823,0.000146949,-1.04165,0.00054883,0.0157842,979,456,1.76204,24.5264
-238,568,1.77625,-24.9428,0.000838334,-0.000557052,0.000129892,0.000850322,-0.00056904,0.0920331,0.000824816,0.0135723,986,456,1.77623,24.9428
-231,568,1.763,-25.3594,0.00129261,-0.00195344,0.000635654,0.00141264,-0.00207348,0.186643,0.00202473,0.011329,993,456,1.76301,25.3594
-224,568,1.74677,-25.7711,0.00166358,-0.00341718,0.00121826,0.00194059,-0.00369419,0.223581,0.00330534,0.012976,1000,456,1.74677,25.7711
-217,568,1.755,-26.1728,0.00201716,-0.00474892,0.00184533,0.00248772,-0.00521948,0.249678,0.00454197,0.0119917,1007,456,1.75498,26.1728
-210,568,1.76703,-26.5574,0.00265895,-0.00558901,0.00212223,0.00317298,-0.00610303,0.237632,0.00544383,0.0119127,1014,456,1.76703,26.5574
-203,568,1.78235,-26.9644,0.0036055,-0.00585087,0.00209521,0.00404893,-0.0062943,0.208564,0.00601839,0.0106593,1021,456,1.78232,26.9644
-196,568,1.8114,-27.3221,0.00429994,-0.00597073,0.0021483,0.00473119,-0.00640197,0.198106,0.00645182,0.0139287,1028,456,1.81139,27.3221
-189,568,1.80737,-27.6774,0.00527448,-0.00602128,0.00223274,0.00569979,-0.00644659,0.188234,0.00701713,0.0142165,1035,456,1.8074,27.6774
-182,568,1.81921,-28.074,0.00651981,-0.00665013,0.00199923,0.00681661,-0.00694693,0.14738,0.0079465,0.0156428,1042,456,1.81916,28.074
-175,568,1.83032,-28.4105,0.00770867,-0.00735629,0.00163168,0.00788337,-0.00753099,0.106662,0.00890026,0.0150237,1049,456,1.83031,28.4105
-168,568,1.83923,-28.64,0.00887437,-0.00943556,0.00111899,0.0089425,-0.00950369,0.0608121,0.0106516,0.0217546,1056,456,1.83922,28.64
-161,568,1.84009,-28.9212,0.00989518,-0.0118386,0.000508322,0.00990707,-0.0118505,0.0233715,0.0125784,0.0353692,1063,456,1.84005,28.9212
-154,568,1.96912,-29.4427,0.0108703,-0.0149376,0.00011011,0.0108708,-0.0149381,0.00426643,0.0149623,0.042566,1070,456,1.9691,29.4427
-147,568,2.01135,-29.7144,0.0119134,-0.0190313,-0.000405678,0.0119187,-0.0190366,-0.0131068,0.0180289,0.0449562,1077,456,2.0114,29.7144
-140,568,1.95618,-29.7053,0.0123904,-0.0251677,-0.000597273,0.0123999,-0.0251772,-0.0158973,0.0221093,0.0438203,1084,456,1.95613,29.7053
-133,568,2.44495,-29.3093,0.0123358,-0.0324134,-0.000595232,0.0123437,-0.0324213,-0.0132984,0.0266975,0.0453629,1091,456,2.44492,29.3093
-126,568,2.43372,-29.4799,0.0118753,-0.0404564,-0.000347332,0.0118776,-0.0404587,-0.00663674,0.0316827,0.0455163,1098,456,2.43366,29.4799
-119,568,2.45996,-29.377,0.0111438,-0.0485052,-0.000221384,0.0111446,-0.0485061,-0.00371138,0.0366219,0.0458153,1105,456,2.45997,29.377
-112,568,2.198,-29.7112,0,0,0,0,0,0,0,-1,1112,456,2.198,29.7112
-105,568,2.02454,-25.038,0,0,0,0,0,0,0,-1,1119,456,2.02459,25.038
-98,568,1.58618,-14.7874,0,0,0,0,0,0,0,-1,1126,456,1.58617,14.7874
-91,568,1.11621,-11.1853,0,0,0,0,0,0,0,-1,1133,456,1.11626,11.1853
-84,568,0.461792,-9.7959,0,0,0,0,0,0,0,-1,1140,456,0.461793,9.7959
-77,568,-1.13806,-8.57822,0,0,0,0,0,0,0,-1,1147,456,-1.13807,8.57821
-70,568,-4.09766,-1.42911,0,0,0,0,0,0,0,-1,1154,456,-4.09767,1.4291
-63,568,-5.92273,-3.70752,0,0,0,0,0,0,0,-1,1161,456,-5.92272,3.70751
-56,568,-5.24158,-6.01385,0,0,0,0,0,0,0,-1,1168,456,-5.24161,6.01386
-49,568,-5.24365,-8.33557,0,0,0,0,0,0,0,-1,1175,456,-5.24371,8.33557
-42,568,-0.664795,0.521973,0,0,0,0,0,0,0,-1,1182,456,-0.664829,-0.521984
-35,568,-0.153076,-1.67731,0,0,0,0,0,0,0,-1,1189,456,-0.153068,1.67731
-28,568,1.25439,-4.48798,0,0,0,0,0,0,0,-1,1196,456,1.2544,4.48797
-21,568,17.198,-42.8687,0,0,0,0,0,0,0,-1,1203,456,17.198,42.8687
-14,568,17.2854,-42.1557,0,0,0,0,0,0,0,-1,1210,456,17.2854,42.1557
-7,568,2.98743,-33.6622,0,0,0,0,0,0,0,-1,1217,456,2.98745,33.6622
0,568,3.54321,-33.2975,0,0,0,0,0,0,0,-1,1224,456,3.54316,33.2975
7,568,3.34509,-37.7085,0,0,0,0,0,0,0,-1,1231,456,3.34511,37.7085
14,568,5.14209,-33.1295,0,0,0,0,0,0,0,-1,1238,456,5.14212,33.1295
21,568,5.59448,-36.3047,0,0,0,0,0,0,0,-1,1245,456,5.59452,36.3047
28,568,5.76501,-36.0835,0.0233233,-0.0200872,0.0196146,0.0308729,-0.0276369,0.367422,0.0337978,0.046787,1252,456,5.76501,36.0835
35,568,5.86584,-35.8687,0.0267423,-0.0240321,0.0209169,0.0342493,-0.0315391,0.344577,0.0379937,0.0428863,1259,456,5.86585,35.8688
42,568,6.00488,-35.6641,0.0323744,-0.0318093,0.0229751,0.0397508,-0.0391857,0.310664,0.0455744,0.0405156,1266,456,6.0049,35.6641
49,568,6.01843,-35.5191,0.0397334,-0.0419439,0.0263505,0.0474967,-0.0497071,0.286509,0.0561255,0.0447605,1273,456,6.01837,35.5191
56,568,6.14636,-35.4128,0.0458156,-0.0539337,0.0306443,0.0544777,-0.0625958,0.27548,0.0676466,0.0455503,1280,456,6.14636,35.4128
63,568,6.33691,-35.5983,0.0501888,-0.0643971,0.0335137,0.0592709,-0.0734792,0.264641,0.0767896,0.0457925,1287,456,6.33697,35.5983
70,568,6.24963,-35.9336,0.0527775,-0.0670274,0.0361471,0.0628388,-0.0770887,0.27147,0.0809267,0.045191,1294,456,6.24969,35.9336
77,568,5.34546,-28.7787,0.0524312,-0.0644344,0.036369,0.0628249,-0.0748282,0.278366,0.0795747,0.047278,1301,456,5.34545,28.7787
84,568,6.43542,-33.6825,0,0,0,0,0,0,0,-1,1308,456,6.43548,33.6825
91,568,6.56873,-28.2976,0,0,0,0,0,0,0,-1,1315,456,6.56868,28.2976
98,568,5.36731,-33.9019,0,0,0,0,0,0,0,-1,1322,456,5.36728,33.9019
105,568,5.63342,-33.0041,0.0463075,-0.0338602,0.028259,0.0552674,-0.0428201,0.307036,0.0567826,0.0462304,1329,456,5.63341,33.0041
112,568,5.47351,-32.6902,0.0426798,-0.0240812,0.0236138,0.0501878,-0.0315892,0.307842,0.0476192,0.0439231,1336,456,5.47356,32.6902
119,568,6.83545,-29.7799,0.0376842,-0.00958341,0.017097,0.04322,-0.0151192,0.313134,0.0349603,0.0433867,1343,456,6.83545,29.7799
126,568,6.27356,-29.801,0.0333757,0.00328115,0.0109023,0.0369102,-0.000253309,0.313502,0.0246916,0.0441549,1350,456,6.2736,29.801
133,568,6.39063,-32.5782,0,0,0,0,0,0,0,-1,1357,456,6.39056,32.5783
140,568,6.76172,-32.2434,0,0,0,0,0,0,0,-1,1364,456,6.76169,32.2434
147,568,6.92737,-32.0762,0.034,0.0262092,-0.0049381,0.0363942,0.023815,-0.451447,0.0213434,0.0469547,1371,456,6.92738,32.0762
154,568,7.11499,-32.0126,0.0349324,0.0295278,-0.00885618,0.0414894,0.0229708,-0.63732,0.0239998,0.0447395,1378,456,7.11494,32.0126
161,568,7.21301,-31.7618,0,0,0,0,0,0,0,-1,1385,456,7.21306,31.7618
168,568,4.17395,-32.3794,0,0,0,0,0,0,0,-1,1392,456,4.174,32.3794
175,568,10.5151,0.747498,0,0,0,0,0,0,0,-1,1399,456,10.5152,-0.747501
182,568,6.35095,-3.63361,0,0,0,0,0,0,0,-1,1406,456,6.35093,3.63359
189,568,6.17493,-1.70911,0,0,0,0,0,0,0,-1,1413,456,6.17497,1.70911
196,568,6.04724,0.200836,0,0,0,0,0,0,0,-1,1420,456,6.04724,-0.200835
203,568,5.9281,2.08649,0,0,0,0,0,0,0,-1,1427,456,5.92812,-2.08648
210,568,1.46216,-2.50446,0,0,0,0,0,0,0,-1,1434,456,1.46219,2.50446
217,568,2.62366,-7.86703,0,0,0,0,0,0,0,-1,1441,456,2.62365,7.86704
224,568,3.43494,-12.1555,0,0,0,0,0,0,0,-1,1448,456,3.43492,12.1555
231,568,4.38245,-9.3205,0,0,0,0,0,0,0,-1,1455,456,4.38244,9.32048
238,568,5.88879,-20.7448,0,0,0,0,0,0,0,-1,1462,456,5.88876,20.7449
245,568,3.34387,-10.6774,0,0,0,0,0,0,0,-1,1469,456,3.34389,10.6774
252,568,3.56946,-9.28928,0,0,0,0,0,0,0,-1,1476,456,3.56948,9.28928
259,568,3.38843,-8.73068,0,0,0,0,0,0,0,-1,1483,456,3.38842,8.73068
266,568,3.104,-9.16876,0,0,0,0,0,0,0,-1,1490,456,3.10397,9.16876
273,568,3.77869,-13.1147,0,0,0,0,0,0,0,-1,1497,456,3.77869,13.1147
280,568,4.40002,-14.9322,0,0,0,0,0,0,0,-1,1504,456,4.4,14.9322
287,568,7.70715,-28.7052,0,0,0,0,0,0,0,-1,1511,456,7.70716,28.7052
294,568,7.84192,-28.0176,0.00528464,-0.00466941,-0.00231381,0.00579619,-0.00518097,-0.217587,0.00634098,0.0413827,1518,456,7.84193,28.0176
301,568,7.83875,-27.6784,0.00470855,-0.00552315,-0.00259498,0.00532906,-0.00614366,-0.234713,0.00662934,0.0202949,1525,456,7.8387,27.6784
308,568,7.86279,-27.3226,0.00414301,-0.00596655,-0.00276153,0.00484816,-0.0066717,-0.250007,0.00667872,0.013903,1532,456,7.86277,27.3226
315,568,7.84656,-26.9693,0.00342719,-0.00558922,-0.00279173,0.00422159,-0.00638363,-0.277229,0.00616519,0.00837887,1539,456,7.84657,26.9693
322,568,7.87317,-26.5931,0.00275873,-0.00502581,-0.00266747,0.00358505,-0.00585214,-0.300405,0.00550072,0.00961638,1546,456,7.87321,26.5931
329,568,7.87366,-26.1787,0.00219339,-0.0042574,-0.002376,0.00297406,-0.00503807,-0.317453,0.00467669,0.0105434,1553,456,7.87367,26.1787
336,568,7.86902,-25.743,0.00170526,-0.00345547,-0.00202411,0.00240442,-0.00415463,-0.332586,0.00383155,0.0117364,1560,456,7.86908,25.743
343,568,7.91162,-25.3167,0.00118101,-0.00263637,-0.00166796,0.00180712,-0.00326247,-0.359097,0.00296686,0.0115555,1567,456,7.91159,25.3167
350,568,7.90662,-24.9083,0.000765898,-0.00165441,-0.00117871,0.00124507,-0.00213358,-0.386117,0.00197302,0.00997055,1574,456,7.90659,24.9083
357,568,7.8761,-24.4718,0.000424089,-0.000627435,-0.000656667,0.000739539,-0.000942885,-0.447829,0.00097371,0.00938942,1581,456,7.87604,24.4718
364,568,7.88025,-24.0417,0.0002143,0.000260574,-8.06916e-05,0.00032138,0.000153494,-0.925021,0.000185611,0.0119884,1588,456,7.88024,24.0417
371,568,7.88147,-23.575,6.41393e-05,0.00110402,0.000481396,0.00129266,-0.000124496,1.19733,0.000906127,0.0218673,1595,456,7.88145,23.5749
378,568,7.85498,-23.1356,-9.30704e-05,0.00193661,0.000985207,0.00233617,-0.000492633,1.1855,0.00174499,0.0191663,1602,456,7.85493,23.1356
385,568,7.80078,-22.6967,-0.000234356,0.00275895,0.00137094,0.00329194,-0.000767342,1.2,0.00249013,0.00971721,1609,456,7.80082,22.6967
392,568,7.76953,-22.2568,-0.000287619,0.00339207,0.00180546,0.00412996,-0.0010255,1.18281,0.00315126,0.0104926,1616,456,7.76955,22.2568
399,568,7.72314,-21.8315,-0.000392349,0.00430555,0.00245984,0.00535783,-0.00144463,1.16657,0.00413835,0.0172963,1623,456,7.72309,21.8315
406,568,7.75,-21.3231,-0.000723631,0.0055691,0.00294022,0.00672907,-0.0018836,1.19503,0.00522827,0.0160087,1630,456,7.74996,21.3231
413,568,7.74255,-20.8138,-0.00126167,0.00760472,0.00323732,0.00866092,-0.00231787,1.25543,0.00668195,0.012528,1637,456,7.74253,20.8138
420,568,7.73022,-20.306,-0.00172383,0.00920978,0.00358421,0.01028,-0.00279404,1.28063,0.00795005,0.0108275,1644,456,7.73026,20.306
427,568,7.70996,-19.7996,-0.00204757,0.0111011,0.00397103,0.0122073,-0.0031538,1.29911,0.00936812,0.0126524,1651,456,7.70998,19.7996
434,568,7.71082,-19.3032,-0.00251741,0.0135359,0.00439703,0.0146613,-0.00364286,1.32022,0.011188,0.0194645,1658,456,7.71083,19.3032
441,568,7.68982,-18.8583,-0.0030869,0.0162861,0.00477884,0.0174007,-0.00420159,1.34164,0.0132254,0.0289202,1665,456,7.6898,18.8583
448,568,7.80103,-18.0036,-0.00383058,0.019129,0.00499377,0.0201681,-0.00486971,1.36564,0.0153287,0.0399337,1672,456,7.80099,18.0036
455,568,7.48975,-17.2625,-0.00453137,0.0218558,0.00513026,0.0228182,-0.00549371,1.38537,0.017336,0.0465889,1679,456,7.48979,17.2625
462,568,7.32288,-16.5469,-0.00494384,0.0248004,0.00524255,0.0256974,-0.00584081,1.40134,0.0193743,0.0481705,1686,456,7.32283,16.5469
469,568,7.13367,-16.2054,0,0,0,0,0,0,0,-1,1693,456,7.13363,16.2054
476,568,7.37585,-16.3438,0,0,0,0,0,0,0,-1,1700,456,7.37587,16.3438
483,568,6.99231,-15.3912,0,0,0,0,0,0,0,-1,1707,456,6.99227,15.3912
490,568,7.36218,-14.3343,0,0,0,0,0,0,0,-1,1714,456,7.36218,14.3343
497,568,5.27844,-10.0788,0,0,0,0,0,0,0,-1,1721,456,5.27847,10.0788
504,568,0,0,0,0,0,0,0,0,0,-1,1728,456,0,0
511,568,0,0,0,0,0,0,0,0,0,-1,1735,456,0,0
518,568,0,0,0,0,0,0,0,0,0,-1,1742,456,0,0
525,568,0,0,0,0,0,0,0,0,0,-1,1749,456,0,0
532,568,0,0,0,0,0,0,0,0,0,-1,1756,456,0,0
539,568,0,0,0,0,0,0,0,0,0,-1,1763,456,0,0
546,568,0,0,0,0,0,0,0,0,0,-1,1770,456,0,0
553,568,0,0,0,0,0,0,0,0,0,-1,1777,456,0,0
560,568,0,0,0,0,0,0,0,0,0,-1,1784,456,0,0
567,568,0,0,0,0,0,0,0,0,0,-1,1791,456,0,0
574,568,0,0,0,0,0,0,0,0,0,-1,1798,456,0,0
581,568,0,0,0,0,0,0,0,0,0,-1,1805,456,0,0
588,568,0,0,0,0,0,0,0,0,0,-1,1812,456,0,0
595,568,0,0,0,0,0,0,0,0,0,-1,1819,456,0,0
602,568,0,0,0,0,0,0,0,0,0,-1,1826,456,0,0
609,568,0,0,0,0,0,0,0,0,0,-1,1833,456,0,0
616,568,0,0,0,0,0,0,0,0,0,-1,1840,456,0,0
623,568,0,0,0,0,0,0,0,0,0,-1,1847,456,0,0
630,568,0,0,0,0,0,0,0,0,0,-1,1854,456,0,0
637,568,0,0,0,0,0,0,0,0,0,-1,1861,456,0,0
644,568,0,0,0,0,0,0,0,0,0,-1,1868,456,0,0
651,568,0,0,0,0,0,0,0,0,0,-1,1875,456,0,0
658,568,0,0,0,0,0,0,0,0,0,-1,1882,456,0,0
665,568,0,0,0,0,0,0,0,0,0,-1,1889,456,0,0
672,568,0,0,0,0,0,0,0,0,0,-1,1896,456,0,0
679,568,0,0,0,0,0,0,0,0,0,-1,1903,456,0,0
686,568,0,0,0,0,0,0,0,0,0,-1,1910,456,0,0
693,568,0,0,0,0,0,0,0,0,0,-1,1917,456,0,0
700,568,0,0,0,0,0,0,0,0,0,-1,1924,456,0,0
707,568,0,0,0,0,0,0,0,0,0,-1,1931,456,0,0
714,568,0,0,0,0,0,0,0,0,0,-1,1938,456,0,0
721,568,0,0,0,0,0,0,0,0,0,-1,1945,456,0,0
728,568,0,0,0,0,0,0,0,0,0,-1,1952,456,0,0
735,568,0,0,0,0,0,0,0,0,0,-1,1959,456,0,0
742,568,0,0,0,0,0,0,0,0,0,-1,1966,456,0,0
749,568,0,0,0,0,0,0,0,0,0,-1,1973,456,0,0
756,568,0,0,0,0,0,0,0,0,0,-1,1980,456,0,0
763,568,0,0,0,0,0,0,0,0,0,-1,1987,456,0,0
770,568,0,0,0,0,0,0,0,0,0,-1,1994,456,0,0
777,568,0,0,0,0,0,0,0,0,0,-1,2001,456,0,0
784,568,0,0,0,0,0,0,0,0,0,-1,2008,456,0,0
791,568,0,0,0,0,0,0,0,0,0,-1,2015,456,0,0
798,568,0,0,0,0,0,0,0,0,0,-1,2022,456,0,0
805,568,0,0,0,0,0,0,0,0,0,-1,2029,456,0,0
812,568,0,0,0,0,0,0,0,0,0,-1,2036,456,0,0
-700,561,0,0,0,0,0,0,0,0,0,-1,524,463,0,0
-693,561,0,0,0,0,0,0,0,0,0,-1,531,463,0,0
-686,561,0,0,0,0,0,0,0,0,0,-1,538,463,0,0
-679,561,0,0,0,0,0,0,0,0,0,-1,545,463,0,0
-672,561,0,0,0,0,0,0,0,0,0,-1,552,463,0,0
-665,561,0,0,0,0,0,0,0,0,0,-1,559,463,0,0
-658,561,0,0,0,0,0,0,0,0,0,-1,566,463,0,0
-651,561,0,0,0,0,0,0,0,0,0,-1,573,463,0,0
-644,561,0,0,0,0,0,0,0,0,0,-1,580,463,0,0
-637,561,0,0,0,0,0,0,0,0,0,-1,587,463,0,0
-630,561,0,0,0,0,0,0,0,0,0,-1,594,463,0,0
-623,561,0,0,0,0,0,0,0,0,0,-1,601,463,0,0
-616,561,0,0,0,0,0,0,0,0,0,-1,608,463,0,0
-609,561,0,0,0,0,0,0,0,0,0,-1,615,463,0,0
-602,561,0,0,0,0,0,0,0,0,0,-1,622,463,0,0
-595,561,0,0,0,0,0,0,0,0,0,-1,629,463,0,0
-588,561,0,0,0,0,0,0,0,0,0,-1,636,463,0,0
-581,561,0,0,0,0,0,0,0,0,0,-1,643,463,0,0
-574,561,0,0,0,0,0,0,0,0,0,-1,650,463,0,0
-567,561,0,0,0,0,0,0,0,0,0,-1,657,463,0,0
-560,561,0,0,0,0,0,0,0,0,0,-1,664,463,0,0
-553,561,0,0,0,0,0,0,0,0,0,-1,671,463,0,0
-546,561,0,0,0,0,0,0,0,0,0,-1,678,463,0,0
-539,561,0,0,0,0,0,0,0,0,0,-1,685,463,0,0
-532,561,0,0,0,0,0,0,0,0,0,-1,692,463,0,0
-525,561,0,0,0,0,0,0,0,0,0,-1,699,463,0,0
-518,561,0,0,0,0,0,0,0,0,0,-1,706,463,0,0
-511,561,0,0,0,0,0,0,0,0,0,-1,713,463,0,0
-504,561,0,0,0,0,0,0,0,0,0,-1,720,463,0,0
-497,561,0,0,0,0,0,0,0,0,0,-1,727,463,0,0
-490,561,0,0,0,0,0,0,0,0,0,-1,734,463,0,0
-483,561,0,0,0,0,0,0,0,0,0,-1,741,463,0,0
-476,561,0,0,0,0,0,0,0,0,0,-1,748,463,0,0
-469,561,0,0,0,0,0,0,0,0,0,-1,755,463,0,0
-462,561,0,0,0,0,0,0,0,0,0,-1,762,463,0,0
-455,561,0,0,0,0,0,0,0,0,0,-1,769,463,0,0
-448,561,0,0,0,0,0,0,0,0,0,-1,776,463,0,0
-441,561,0,0,0,0,0,0,0,0,0,-1,783,463,0,0
-434,561,0,0,0,0,0,0,0,0,0,-1,790,463,0,0
-427,561,0,0,0,0,0,0,0,0,0,-1,797,463,0,0
-420,561,0,0,0,0,0,0,0,0,0,-1,804,463,0,0
-413,561,0,0,0,0,0,0,0,0,0,-1,811,463,0,0
-406,561,0,0,0,0,0,0,0,0,0,-1,818,463,0,0
-399,561,0,0,0,0,0,0,0,0,0,-1,825,463,0,0
-392,561,4.92407,-2.54578,0,0,0,0,0,0,0,-1,832,463,4.92408,2.54576
-385,561,5.55634,-1.02338,0,0,0,0,0,0,0,-1,839,463,5.55634,1.02338
-378,561,0.160522,-4.51785,0,0,0,0,0,0,0,-1,846,463,0.160542,4.51785
-371,561,1.06299,-7.56818,0,0,0,0,0,0,0,-1,853,463,1.06297,7.56817
-364,561,1.45264,-7.57684,0,0,0,0,0,0,0,-1,860,463,1.45264,7.57684
-357,561,0.948242,-12.2803,0,0,0,0,0,0,0,-1,867,463,0.948262,12.2803
-350,561,1.33124,-11.9406,0,0,0,0,0,0,0,-1,874,463,1.33127,11.9406
-343,561,1.13214,-14.1837,0,0,0,0,0,0,0,-1,881,463,1.13217,14.1837
-336,561,1.59479,-18.5399,0,0,0,0,0,0,0,-1,888,463,1.59476,18.54
-329,561,1.52576,-19.0543,-0.00407129,0.0360143,0.000598253,0.0360232,-0.00408022,1.55588,0.0254847,0.0404978,895,463,1.52574,19.0543
-322,561,1.5011,-19.3956,-0.00421093,0.0291271,0.000695929,0.0291416,-0.00422545,1.54993,0.0209786,0.0339706,902,463,1.50109,19.3956
-315,561,1.61548,-19.7497,-0.00396392,0.0234152,0.000393848,0.0234208,-0.00396958,1.55642,0.0170914,0.0236092,909,463,1.61547,19.7497
-308,561,1.57587,-20.344,-0.00350737,0.0186155,-7.03323e-05,0.0186157,-0.00350759,-1.56762,0.0137298,0.0191401,916,463,1.57586,20.344
-301,561,1.50049,-20.9639,-0.00293603,0.0143917,-0.000469099,0.0144044,-0.00294872,-1.54375,0.0107218,0.0133926,923,463,1.50052,20.9639
-294,561,1.47473,-21.4156,-0.00239524,0.0107862,-0.000631012,0.0108163,-0.00242538,-1.52307,0.00814068,0.0117758,930,463,1.47474,21.4156
-287,561,1.45947,-21.8696,-0.00195944,0.00799208,-0.00067211,0.00803727,-0.00200463,-1.50366,0.00613652,0.010112,937,463,1.45948,21.8696
-280,561,1.43903,-22.3361,-0.00148919,0.00587237,-0.000733335,0.00594471,-0.00156154,-1.47247,0.00457339,0.0124971,944,463,1.43903,22.3361
-273,561,1.41229,-22.7604,-0.00100442,0.00362499,-0.000844032,0.00377407,-0.0011535,-1.39597,0.00297602,0.015453,951,463,1.41232,22.7604
-266,561,1.39923,-23.2122,-0.000493253,0.0020638,-0.000734332,0.00225968,-0.000689133,-1.31012,0.00178117,0.00957346,958,463,1.39925,23.2122
-259,561,1.38391,-23.6721,0.000132099,0.000819673,-0.000433513,0.00102917,-7.73978e-05,-1.12064,0.000713313,0.0101854,965,463,1.38394,23.6721
-252,561,1.36847,-24.101,0.00068831,-0.000403339,6.61402e-05,0.000692303,-0.000407331,0.0602935,0.000641941,0.0158107,972,463,1.3685,24.101
-245,561,1.35345,-24.5319,0.00119917,-0.00172728,0.000547933,0.0012984,-0.00182651,0.179153,0.00181273,0.0183851,979,463,1.35346,24.5319
-238,561,1.37421,-24.954,0.00174147,-0.00330942,0.00110595,0.00197301,-0.00354097,0.206383,0.00322612,0.013609,986,463,1.3742,24.9541
-231,561,1.35266,-25.375,0.0022352,-0.00499017,0.00169085,0.0026113,-0.00536628,0.218874,0.00469651,0.0111981,993,463,1.35265,25.375
-224,561,1.33386,-25.7876,0.00260703,-0.00676144,0.00238941,0.00318125,-0.00733566,0.235846,0.00622785,0.0114077,1000,463,1.33387,25.7876
-217,561,1.35181,-26.1616,0.00294003,-0.00843173,0.00319549,0.00377645,-0.00926814,0.256006,0.00775058,0.0119819,1007,463,1.35181,26.1616
-210,561,1.36188,-26.537,0.00367766,-0.00916567,0.00343567,0.00453896,-0.010027,0.245632,0.00860631,0.0128447,1014,463,1.36187,26.537
-203,561,1.37799,-26.9256,0.00486272,-0.00909351,0.00322467,0.00557177,-0.00980256,0.21644,0.00898771,0.0140257,1021,463,1.378,26.9256
-196,561,1.38562,-27.2742,0.00576214,-0.00887031,0.00313114,0.006404,-0.00951217,0.202193,0.00924743,0.0156902,1028,463,1.38564,27.2742
-189,561,1.41187,-27.6013,0.00699794,-0.00850212,0.00308466,0.00758926,-0.00909344,0.189399,0.0096448,0.0197153,1035,463,1.41189,27.6013
-182,561,1.46533,-27.953,0.00856338,-0.00874766,0.00260868,0.00894795,-0.00913223,0.146365,0.0104388,0.023219,1042,463,1.46537,27.953
-175,561,1.33984,-28.2836,0.0100932,-0.00889954,0.00192572,0.0102865,-0.00909283,0.100036,0.0111957,0.0349991,1049,463,1.33988,28.2836
-168,561,1.26001,-28.703,0.0116944,-0.0108287,0.00102144,0.0117407,-0.0108749,0.0452268,0.0130603,0.0484901,1056,463,1.26007,28.703
-161,561,1.34827,-29.0533,0.0131427,-0.0130653,-4.00571e-05,0.0131427,-0.0130654,-0.00152843,0.0151313,0.0475412,1063,463,1.34823,29.0533
-154,561,1.79907,-29.6581,0.0145231,-0.0162645,-0.000842245,0.0145462,-0.0162875,-0.0273293,0.0178113,0.0475688,1070,463,1.79907,29.6581
-147,561,1.95923,-30.099,0,0,0,0,0,0,0,-1,1077,463,1.95926,30.099
-140,561,1.71326,-29.4159,0,0,0,0,0,0,0,-1,1084,463,1.71326,29.4159
-133,561,2.50623,-28.5596,0,0,0,0,0,0,0,-1,1091,463,2.50617,28.5596
-126,561,2.63074,-29.0589,0,0,0,0,0,0,0,-1,1098,463,2.63071,29.0589
-119,561,2.55225,-28.7428,0,0,0,0,0,0,0,-1,1105,463,2.55223,28.7428
-112,561,0.157715,-27.1758,0,0,0,0,0,0,0,-1,1112,463,0.157754,27.1758
-105,561,0.530518,-13.5379,0,0,0,0,0,0,0,-1,1119,463,0.530477,13.5379
-98,561,1.5387,-7.54352,0,0,0,0,0,0,0,-1,1126,463,1.53871,7.54351
-91,561,1.29553,-6.57968,0,0,0,0,0,0,0,-1,1133,463,1.29549,6.5797
-84,561,1.23364,-5.84555,0,0,0,0,0,0,0,-1,1140,463,1.23363,5.84556
-77,561,-2.36023,1.00204,0,0,0,0,0,0,0,-1,1147,463,-2.3602,-1.00205
-70,561,-3.90015,-1.41541,0,0,0,0,0,0,0,-1,1154,463,-3.90009,1.4154
-63,561,-6.95691,-4.02756,0,0,0,0,0,0,0,-1,1161,463,-6.95696,4.02756
-56,561,-5.37988,-6.66855,0,0,0,0,0,0,0,-1,1168,463,-5.37988,6.66854
-49,561,-5.7439,-9.11029,0,0,0,0,0,0,0,-1,1175,463,-5.74387,9.1103
-42,561,-1.72644,-5.63065,0,0,0,0,0,0,0,-1,1182,463,-1.72648,5.63064
-35,561,-1.65674,-4.87994,0,0,0,0,0,0,0,-1,1189,463,-1.6567,4.87993
-28,561,-1.91418,-3.86896,0,0,0,0,0,0,0,-1,1196,463,-1.91414,3.86895
-21,561,18.2469,-42.2016,0,0,0,0,0,0,0,-1,1203,463,18.247,42.2016
-14,561,17.9991,-41.671,0,0,0,0,0,0,0,-1,1210,463,17.9991,41.671
-7,561,17.8,-41.4101,0,0,0,0,0,0,0,-1,1217,463,17.8,41.4101
0,561,3.39441,-38.6296,0,0,0,0,0,0,0,-1,1224,463,3.39437,38.6296
7,561,3.91455,-37.6169,0,0,0,0,0,0,0,-1,1231,463,3.91459,37.6169
14,561,5.21802,-36.1737,0,0,0,0,0,0,0,-1,1238,463,5.21797,36.1737
21,561,5.57166,-35.9824,0.0273678,-0.0237663,0.0212131,0.0350223,-0.0314208,0.346297,0.0383797,0.0431701,1245,463,5.57168,35.9824
28,561,5.82373,-35.6203,0.0273044,-0.0287529,0.0221266,0.0349856,-0.0364341,0.334131,0.041237,0.0438777,1252,463,5.8237,35.6203
35,561,5.89697,-35.3559,0.0322379,-0.0343727,0.0251739,0.0406815,-0.0428162,0.323618,0.0482127,0.0407986,1259,463,5.89699,35.3559
42,561,6.06873,-35.1475,0.0396993,-0.0444395,0.028958,0.0487024,-0.0534426,0.301428,0.0589946,0.0439334,1266,463,6.06877,35.1475
49,561,6.28882,-35.0168,0.0490552,-0.057192,0.0342715,0.0591507,-0.0672875,0.286471,0.0730495,0.0453867,1273,463,6.28883,35.0168
56,561,6.55286,-35.1335,0,0,0,0,0,0,0,-1,1280,463,6.55281,35.1335
63,561,6.66333,-35.6352,0.0625084,-0.0821094,0.0442467,0.0749718,-0.0945728,0.274566,0.0981044,0.0451755,1287,463,6.66339,35.6352
70,561,4.64978,-27.76,0.065502,-0.0816831,0.0471674,0.0793201,-0.0955012,0.284985,0.101077,0.0462359,1294,463,4.64975,27.76
77,561,4.96399,-28.2014,0.0645225,-0.073504,0.0466767,0.0788251,-0.0878067,0.297336,0.0962515,0.0475696,1301,463,4.964,28.2014
84,561,5.401,-28.2038,0,0,0,0,0,0,0,-1,1308,463,5.40104,28.2038
91,561,5.77246,-28.5748,0,0,0,0,0,0,0,-1,1315,463,5.77242,28.5748
98,561,5.83777,-29.0742,0,0,0,0,0,0,0,-1,1322,463,5.83779,29.0742
105,561,5.81165,-29.6265,0,0,0,0,0,0,0,-1,1329,463,5.81169,29.6265
112,561,6.0321,-30.0302,0.051839,-0.00537364,0.026724,0.0623798,-0.0159144,0.375696,0.0477831,0.0495493,1336,463,6.03206,30.0301
119,561,6.32178,-30.7202,0.0453327,0.0141381,0.0179192,0.0534919,0.00597889,0.427282,0.0338448,0.0438304,1343,463,6.32183,30.7202
126,561,6.30859,-30.9322,0.0399328,0.0290003,0.0108025,0.0465733,0.0223598,0.551173,0.0268962,0.0422952,1350,463,6.30865,30.9321
133,561,6.7428,-30.9721,0.0372473,0.0397749,0.00357865,0.0423063,0.0347158,0.955135,0.0260454,0.0479617,1357,463,6.7428,30.9721
140,561,6.79529,-31.5944,0,0,0,0,0,0,0,-1,1364,463,6.79527,31.5944
147,561,7.06226,-32.0874,0.0402646,0.0513433,-0.00781525,0.0553832,0.0362246,-1.0937,0.0324776,0.0477523,1371,463,7.06223,32.0874
154,561,7.14099,-32.4426,0.0411465,0.0539922,-0.0123867,0.0615222,0.0336165,-1.02458,0.0355709,0.0448204,1378,463,7.14096,32.4426
161,561,7.57251,-32.9342,0,0,0,0,0,0,0,-1,1385,463,7.57249,32.9342
168,561,3.78113,-33.7118,0,0,0,0,0,0,0,-1,1392,463,3.78116,33.7118
175,561,10.4185,0.276398,0,0,0,0,0,0,0,-1,1399,463,10.4185,-0.276394
182,561,6.45703,-4.02127,0,0,0,0,0,0,0,-1,1406,463,6.45704,4.02127
189,561,6.50854,-2.08685,0,0,0,0,0,0,0,-1,1413,463,6.50851,2.08686
196,561,6.44775,-0.27182,0,0,0,0,0,0,0,-1,1420,463,6.44773,0.271814
203,561,6.18591,1.1301,0,0,0,0,0,0,0,-1,1427,463,6.18592,-1.13009
210,561,5.68713,2.68427,0,0,0,0,0,0,0,-1,1434,463,5.6871,-2.68425
217,561,3.61743,-7.33582,0,0,0,0,0,0,0,-1,1441,463,3.61738,7.33581
224,561,4.27466,-8.59171,0,0,0,0,0,0,0,-1,1448,463,4.27466,8.59171
231,561,4.93188,-9.8476,0,0,0,0,0,0,0,-1,1455,463,4.93193,9.84761
238,561,2.18018,-5.18359,0,0,0,0,0,0,0,-1,1462,463,2.18023,5.18359
245,561,3.07568,-3.50238,0,0,0,0,0,0,0,-1,1469,463,3.0757,3.50238
252,561,3.47412,-3.71109,0,0,0,0,0,0,0,-1,1476,463,3.47413,3.71109
259,561,3.42212,-3.2334,0,0,0,0,0,0,0,-1,1483,463,3.42214,3.2334
266,561,4.44373,-5.90027,0,0,0,0,0,0,0,-1,1490,463,4.44372,5.90026
273,561,2.59485,-3.65268,0,0,0,0,0,0,0,-1,1497,463,2.5948,3.65268
280,561,3.10767,-6.38235,0,0,0,0,0,0,0,-1,1504,463,3.10766,6.38235
287,561,4.91809,-14.429,0,0,0,0,0,0,0,-1,1511,463,4.9181,14.429
294,561,8.21497,-27.7878,0,0,0,0,0,0,0,-1,1518,463,8.21497,27.7878
301,561,8.12817,-27.463,0.00594304,-0.00833118,-0.00362277,0.00680985,-0.00919799,-0.234853,0.00927635,0.0447982,1525,463,8.12813,27.4631
308,561,8.26477,-27.2094,0.0051484,-0.00883565,-0.00397247,0.00619807,-0.00988532,-0.258333,0.00936674,0.0325719,1532,463,8.26473,27.2093
315,561,8.27588,-26.9306,0.00414458,-0.00820317,-0.00408421,0.00537324,-0.00943183,-0.292219,0.00865411,0.0200287,1539,463,8.27585,26.9306
322,561,8.28101,-26.591,0.00328858,-0.00747919,-0.00400025,0.00461202,-0.00880264,-0.319505,0.00786992,0.0195456,1546,463,8.28102,26.591
329,561,8.28467,-26.1786,0.00259986,-0.00651019,-0.00370667,0.00391745,-0.00782779,-0.341536,0.00690525,0.015282,1553,463,8.2847,26.1786
336,561,8.30298,-25.7323,0.00202007,-0.00551831,-0.00334158,0.00328804,-0.00678628,-0.362668,0.00593214,0.0124206,1560,463,8.30297,25.7323
343,561,8.32507,-25.3138,0.00139524,-0.00454579,-0.00297733,0.00263049,-0.00578104,-0.393272,0.00496865,0.0106209,1567,463,8.32507,25.3138
350,561,8.3252,-24.8975,0.000916772,-0.00346104,-0.00245674,0.00201829,-0.00456255,-0.421493,0.00389295,0.00947761,1574,463,8.32524,24.8975
357,561,8.30591,-24.4575,0.000531848,-0.00229106,-0.00190205,0.00148894,-0.00324815,-0.466196,0.00279712,0.00983717,1581,463,8.30592,24.4575
364,561,8.29517,-24.0305,0.000330879,-0.00128562,-0.00126273,0.00102188,-0.00197662,-0.500713,0.00176019,0.00970156,1588,463,8.29511,24.0305
371,561,8.29065,-23.5889,0.00021557,-0.000346246,-0.000623813,0.000618805,-0.000749481,-0.573843,0.00079118,0.0161631,1595,463,8.2906,23.5889
378,561,8.27441,-23.1486,0.00010256,0.000553854,-4.60289e-05,0.0005585,9.79132e-05,-1.47018,0.000344367,0.0118778,1602,463,8.27446,23.1486
385,561,8.26013,-22.6942,1.62627e-05,0.00148353,0.000442041,0.00160641,-0.000106619,1.29965,0.00110819,0.0111544,1609,463,8.26019,22.6942
392,561,8.24231,-22.2119,-7.02332e-06,0.00214627,0.000935094,0.00249565,-0.00035641,1.21322,0.00179441,0.0143681,1616,463,8.2423,22.2119
399,561,8.22168,-21.766,-8.42971e-05,0.00293796,0.0015581,0.00359736,-0.000743694,1.17045,0.00268075,0.0198347,1623,463,8.22167,21.766
406,561,8.21509,-21.2963,-0.000330389,0.00412026,0.00206263,0.00492916,-0.00113928,1.19706,0.00372441,0.0187676,1630,463,8.21506,21.2963
413,561,8.21631,-20.8032,-0.000727775,0.00575618,0.00240164,0.00654884,-0.00152043,1.252,0.00495114,0.0172371,1637,463,8.2163,20.8032
420,561,8.19507,-20.3121,-0.0010596,0.00699726,0.00273536,0.00783816,-0.0019005,1.27255,0.0059608,0.0133696,1644,463,8.19511,20.3121
427,561,8.19458,-19.8019,-0.0012887,0.00848191,0.00309564,0.00938013,-0.00218692,1.28839,0.00709563,0.0102316,1651,463,8.19454,19.802
434,561,8.19275,-19.2992,-0.00161605,0.0103111,0.00348049,0.0112524,-0.00255741,1.30665,0.00848356,0.0132055,1658,463,8.19272,19.2992
441,561,8.17871,-18.825,-0.00198929,0.0123187,0.00382628,0.0132777,-0.00294825,1.32523,0.00998076,0.0167683,1665,463,8.17875,18.825
448,561,8.12646,-18.2778,-0.00243223,0.0143673,0.00406484,0.0152991,-0.00336408,1.34544,0.0114862,0.0218952,1672,463,8.12651,18.2778
455,561,8.10474,-17.5786,-0.00278229,0.0162668,0.00425605,0.0171745,-0.00368995,1.36068,0.0128574,0.0388232,1679,463,8.10475,17.5786
462,561,7.99792,-17.1909,-0.0028967,0.0181021,0.00442649,0.018997,-0.00379165,1.3713,0.0140996,0.0394937,1686,463,7.99793,17.1909
469,561,7.89502,-16.808,-0.00270095,0.0195206,0.00450559,0.0203994,-0.00357974,1.37817,0.0149365,0.0264316,1693,463,7.89505,16.808
476,561,7.8623,-16.155,-0.0024748,0.0203191,0.00446855,0.0211638,-0.00331951,1.38397,0.015336,0.0446471,1700,463,7.86228,16.155
483,561,7.78833,-15.4866,0,0,0,0,0,0,0,-1,1707,463,7.78833,15.4866
490,561,7.92944,-13.2884,0,0,0,0,0,0,0,-1,1714,463,7.92949,13.2884
497,561,8.21472,-11.8027,0,0,0,0,0,0,0,-1,1721,463,8.21472,11.8027
504,561,10.0769,-0.811401,0,0,0,0,0,0,0,-1,1728,463,10.0769,0.8114
511,561,0,0,0,0,0,0,0,0,0,-1,1735,463,0,0
518,561,0,0,0,0,0,0,0,0,0,-1,1742,463,0,0
525,561,0,0,0,0,0,0,0,0,0,-1,1749,463,0,0
532,561,0,0,0,0,0,0,0,0,0,-1,1756,463,0,0
539,561,0,0,0,0,0,0,0,0,0,-1,1763,463,0,0
546,561,0,0,0,0,0,0,0,0,0,-1,1770,463,0,0
553,561,0,0,0,0,0,0,0,0,0,-1,1777,463,0,0
560,561,0,0,0,0,0,0,0,0,0,-1,1784,463,0,0
567,561,0,0,0,0,0,0,0,0,0,-1,1791,463,0,0
574,561,0,0,0,0,0,0,0,0,0,-1,1798,463,0,0
581,561,0,0,0,0,0,0,0,0,0,-1,1805,463,0,0
588,561,0,0,0,0,0,0,0,0,0,-1,1812,463,0,0
595,561,0,0,0,0,0,0,0,0,0,-1,1819,463,0,0
602,561,0,0,0,0,0,0,0,0,0,-1,1826,463,0,0
609,561,0,0,0,0,0,0,0,0,0,-1,1833,463,0,0
616,561,0,0,0,0,0,0,0,0,0,-1,1840,463,0,0
623,561,0,0,0,0,0,0,0,0,0,-1,1847,463,0,0
630,561,0,0,0,0,0,0,0,0,0,-1,1854,463,0,0
637,561,0,0,0,0,0,0,0,0,0,-1,1861,463,0,0
644,561,0,0,0,0,0,0,0,0,0,-1,1868,463,0,0
651,561,0,0,0,0,0,0,0,0,0,-1,1875,463,0,0
658,561,0,0,0,0,0,0,0,0,0,-1,1882,463,0,0
665,561,0,0,0,0,0,0,0,0,0,-1,1889,463,0,0
672,561,0,0,0,0,0,0,0,0,0,-1,1896,463,0,0
679,561,0,0,0,0,0,0,0,0,0,-1,1903,463,0,0
686,561,0,0,0,0,0,0,0,0,0,-1,1910,463,0,0
693,561,0,0,0,0,0,0,0,0,0,-1,1917,463,0,0
700,561,0,0,0,0,0,0,0,0,0,-1,1924,463,0,0
707,561,0,0,0,0,0,0,0,0,0,-1,1931,463,0,0
714,561,0,0,0,0,0,0,0,0,0,-1,1938,463,0,0
721,561,0,0,0,0,0,0,0,0,0,-1,1945,463,0,0
728,561,0,0,0,0,0,0,0,0,0,-1,1952,463,0,0
735,561,0,0,0,0,0,0,0,0,0,-1,1959,463,0,0
742,561,0,0,0,0,0,0,0,0,0,-1,1966,463,0,0
749,561,0,0,0,0,0,0,0,0,0,-1,1973,463,0,0
756,561,0,0,0,0,0,0,0,0,0,-1,1980,463,0,0
763,561,0,0,0,0,0,0,0,0,0,-1,1987,463,0,0
770,561,0,0,0,0,0,0,0,0,0,-1,1994,463,0,0
777,561,0,0,0,0,0,0,0,0,0,-1,2001,463,0,0
784,561,0,0,0,0,0,0,0,0,0,-1,2008,463,0,0
791,561,0,0,0,0,0,0,0,0,0,-1,2015,463,0,0
798,561,0,0,0,0,0,0,0,0,0,-1,2022,463,0,0
805,561,0,0,0,0,0,0,0,0,0,-1,2029,463,0,0
812,561,0,0,0,0,0,0,0,0,0,-1,2036,463,0,0
-700,554,0,0,0,0,0,0,0,0,0,-1,524,470,0,0
-693,554,0,0,0,0,0,0,0,0,0,-1,531,470,0,0
-686,554,0,0,0,0,0,0,0,0,0,-1,538,470,0,0
-679,554,0,0,0,0,0,0,0,0,0,-1,545,470,0,0
-672,554,0,0,0,0,0,0,0,0,0,-1,552,470,0,0
-665,554,0,0,0,0,0,0,0,0,0,-1,559,470,0,0
-658,554,0,0,0,0,0,0,0,0,0,-1,566,470,0,0
-651,554,0,0,0,0,0,0,0,0,0,-1,573,470,0,0
-644,554,0,0,0,0,0,0,0,0,0,-1,580,470,0,0
-637,554,0,0,0,0,0,0,0,0,0,-1,587,470,0,0
-630,554,0,0,0,0,0,0,0,0,0,-1,594,470,0,0
-623,554,0,0,0,0,0,0,0,0,0,-1,601,470,0,0
-616,554,0,0,0,0,0,0,0,0,0,-1,608,470,0,0
-609,554,0,0,0,0,0,0,0,0,0,-1,615,470,0,0
-602,554,0,0,0,0,0,0,0,0,0,-1,622,470,0,0
-595,554,0,0,0,0,0,0,0,0,0,-1,629,470,0,0
-588,554,0,0,0,0,0,0,0,0,0,-1,636,470,0,0
-581,554,0,0,0,0,0,0,0,0,0,-1,643,470,0,0
-574,554,0,0,0,0,0,0,0,0,0,-1,650,470,0,0
-567,554,0,0,0,0,0,0,0,0,0,-1,657,470,0,0
-560,554,0,0,0,0,0,0,0,0,0,-1,664,470,0,0
-553,554,0,0,0,0,0,0,0,0,0,-1,671,470,0,0
-546,554,0,0,0,0,0,0,0,0,0,-1,678,470,0,0
-539,554,0,0,0,0,0,0,0,0,0,-1,685,470,0,0
-532,554,0,0,0,0,0,0,0,0,0,-1,692,470,0,0
-525,554,0,0,0,0,0,0,0,0,0,-1,699,470,0,0
-518,554,0,0,0,0,0,0,0,0,0,-1,706,470,0,0
-511,554,0,0,0,0,0,0,0,0,0,-1,713,470,0,0
-504,554,0,0,0,0,0,0,0,0,0,-1,720,470,0,0
-497,554,0,0,0,0,0,0,0,0,0,-1,727,470,0,0
-490,554,0,0,0,0,0,0,0,0,0,-1,734,470,0,0
-483,554,0,0,0,0,0,0,0,0,0,-1,741,470,0,0
-476,554,0,0,0,0,0,0,0,0,0,-1,748,470,0,0
-469,554,0,0,0,0,0,0,0,0,0,-1,755,470,0,0
-462,554,0,0,0,0,0,0,0,0,0,-1,762,470,0,0
-455,554,0,0,0,0,0,0,0,0,0,-1,769,470,0,0
-448,554,0,0,0,0,0,0,0,0,0,-1,776,470,0,0
-441,554,0,0,0,0,0,0,0,0,0,-1,783,470,0,0
-434,554,0,0,0,0,0,0,0,0,0,-1,790,470,0,0
-427,554,0,0,0,0,0,0,0,0,0,-1,797,470,0,0
-420,554,0,0,0,0,0,0,0,0,0,-1,804,470,0,0
-413,554,0,0,0,0,0,0,0,0,0,-1,811,470,0,0
-406,554,0,0,0,0,0,0,0,0,0,-1,818,470,0,0
-399,554,-1.32275,-3.95142,0,0,0,0,0,0,0,-1,825,470,-1.32275,3.95141
-392,554,-1.35632,-3.7406,0,0,0,0,0,0,0,-1,832,470,-1.35632,3.7406
-385,554,-0.849243,-4.14447,0,0,0,0,0,0,0,-1,839,470,-0.849262,4.14446
-378,554,-0.982666,-4.55084,0,0,0,0,0,0,0,-1,846,470,-0.982671,4.55084
-371,554,-1.74542,-4.63467,0,0,0,0,0,0,0,-1,853,470,-1.74541,4.63468
-364,554,1.04883,-7.68756,0,0,0,0,0,0,0,-1,860,470,1.0488,7.68757
-357,554,1.06714,-11.5403,0,0,0,0,0,0,0,-1,867,470,1.06715,11.5403
-350,554,0.835327,-15.9311,0,0,0,0,0,0,0,-1,874,470,0.8353,15.9311
-343,554,1.34985,-18.018,0,0,0,0,0,0,0,-1,881,470,1.34988,18.018
-336,554,1.24927,-18.4301,-0.00224894,0.0320165,-0.00112219,0.0320532,-0.00228565,-1.53809,0.02217,0.0408195,888,470,1.24927,18.4301
-329,554,1.13519,-19.0094,-0.00273633,0.0271011,-0.000456065,0.0271081,-0.0027433,-1.55552,0.0190524,0.0193955,895,470,1.13518,19.0094
-322,554,1.08344,-19.5103,-0.00298906,0.0222165,-7.77737e-05,0.0222168,-0.0029893,-1.56771,0.0159016,0.0126755,902,470,1.08346,19.5103
-315,554,1.08789,-19.9838,-0.00283289,0.0180095,-8.96353e-05,0.0180098,-0.00283327,-1.5665,0.0130539,0.0128269,909,470,1.08791,19.9838
-308,554,1.06256,-20.4609,-0.00246975,0.0143428,-0.000271005,0.0143471,-0.00247411,-1.55468,0.0104872,0.0136101,916,470,1.06258,20.4609
-301,554,1.05701,-20.9553,-0.00201451,0.0110152,-0.000428869,0.0110293,-0.00202861,-1.53793,0.00811405,0.0135346,923,470,1.05699,20.9553
-294,554,1.02216,-21.4008,-0.00154346,0.00809898,-0.000433717,0.00811845,-0.00156293,-1.52594,0.0060015,0.0121035,930,470,1.02217,21.4008
-287,554,1.00836,-21.8732,-0.00113442,0.00579653,-0.000358412,0.00581502,-0.0011529,-1.51927,0.00431266,0.0119872,937,470,1.00834,21.8732
-280,554,0.987854,-22.3274,-0.000688258,0.00389539,-0.000318007,0.00391735,-0.000710216,-1.50186,0.00287767,0.0120035,944,470,0.987873,22.3274
-273,554,0.965942,-22.7694,-0.000240942,0.00195641,-0.000285468,0.00199289,-0.000277423,-1.44369,0.00143007,0.0162,951,470,0.965927,22.7694
-266,554,0.95636,-23.2088,0.000274808,0.000431905,-5.24229e-05,0.000447792,0.000258921,-1.27654,0.000259585,0.0126896,958,470,0.956364,23.2088
-259,554,0.940735,-23.6153,0.000923117,-0.000938211,0.000315858,0.000975256,-0.00099035,0.163596,0.00113485,0.0120202,965,470,0.940716,23.6153
-252,554,0.941528,-24.0304,0.00148497,-0.00246919,0.000889859,0.001676,-0.00266022,0.211463,0.00252492,0.0154652,972,470,0.941517,24.0304
-245,554,0.939331,-24.4759,0.00203171,-0.0040569,0.00146841,0.00236735,-0.00439254,0.224713,0.00396077,0.0168034,979,470,0.939326,24.4758
-238,554,0.942871,-24.9307,0.00263932,-0.00593678,0.00212333,0.00313623,-0.0064337,0.22989,0.00563347,0.0118072,986,470,0.942859,24.9307
-231,554,0.935547,-25.3665,0.00321164,-0.00789603,0.00278565,0.00387109,-0.00855548,0.232452,0.00734244,0.0104374,993,470,0.935558,25.3666
-224,554,0.929749,-25.7574,0.00363184,-0.0100029,0.00360362,0.00452567,-0.0108967,0.24313,0.00915388,0.0104287,1000,470,0.929768,25.7574
-217,554,0.951721,-26.1313,0.00399055,-0.012083,0.00460067,0.00521422,-0.0133067,0.259959,0.011028,0.0103963,1007,470,0.95172,26.1313
-210,554,0.985474,-26.5164,0.00487442,-0.0127862,0.00480607,0.0060976,-0.0140094,0.249217,0.0119046,0.0147031,1014,470,0.985456,26.5164
-203,554,0.988831,-26.8631,0.00636617,-0.0124194,0.00439207,0.00734231,-0.0133956,0.218696,0.0121419,0.0260372,1021,470,0.988859,26.8631
-196,554,0.888306,-27.0906,0.00756529,-0.0118752,0.00411103,0.0083989,-0.0127088,0.20006,0.0122709,0.0348626,1028,470,0.888293,27.0906
-189,554,0.934937,-27.3405,0.00915677,-0.0110767,0.00387567,0.00987374,-0.0117936,0.182924,0.012526,0.0432533,1035,470,0.934881,27.3406
-182,554,0.991577,-27.5922,0,0,0,0,0,0,0,-1,1042,470,0.991517,27.5922
-175,554,0.812988,-28.1354,0,0,0,0,0,0,0,-1,1049,470,0.812997,28.1354
-168,554,0.682007,-28.7113,0,0,0,0,0,0,0,-1,1056,470,0.682037,28.7113
-161,554,1.43591,-29.4469,0.0173418,-0.013673,-0.00121857,0.0173896,-0.0137208,-0.0392093,0.0180032,0.0469734,1063,470,1.43594,29.4469
-154,554,1.64819,-29.8638,0.0193207,-0.0164943,-0.00268138,0.0195204,-0.0166939,-0.0743155,0.0209295,0.0490171,1070,470,1.64815,29.8638
-147,554,1.8031,-30.3135,0,0,0,0,0,0,0,-1,1077,470,1.80312,30.3135
-140,554,3.14563,-26.981,0,0,0,0,0,0,0,-1,1084,470,3.14569,26.981
-133,554,2.33813,-27.5244,0,0,0,0,0,0,0,-1,1091,470,2.3381,27.5244
-126,554,2.70093,-28.5442,0,0,0,0,0,0,0,-1,1098,470,2.70092,28.5441
-119,554,-0.547607,-26.993,0,0,0,0,0,0,0,-1,1105,470,-0.547614,26.993
-112,554,1.03162,-24.5784,0,0,0,0,0,0,0,-1,1112,470,1.03156,24.5784
-105,554,0.608765,-21.0475,0,0,0,0,0,0,0,-1,1119,470,0.608728,21.0475
-98,554,1.51929,-7.3624,0,0,0,0,0,0,0,-1,1126,470,1.51928,7.36241
-91,554,1.41089,-6.5864,0,0,0,0,0,0,0,-1,1133,470,1.41093,6.58638
-84,554,1.62305,-5.87186,0,0,0,0,0,0,0,-1,1140,470,1.62299,5.87186
-77,554,-2.56958,1.33258,0,0,0,0,0,0,0,-1,1147,470,-2.56959,-1.33257
-70,554,-3.68164,-1.18332,0,0,0,0,0,0,0,-1,1154,470,-3.68158,1.18331
-63,554,-4.86853,-3.88708,0,0,0,0,0,0,0,-1,1161,470,-4.86853,3.88708
-56,554,-5.69958,-6.45422,0,0,0,0,0,0,0,-1,1168,470,-5.69955,6.45422
-49,554,-6.23645,-8.8569,0,0,0,0,0,0,0,-1,1175,470,-6.23643,8.85689
-42,554,-6.62524,-11.5382,0,0,0,0,0,0,0,-1,1182,470,-6.62522,11.5382
-35,554,-2.40173,-4.59482,0,0,0,0,0,0,0,-1,1189,470,-2.40169,4.59481
-28,554,-0.760132,-1.65555,0,0,0,0,0,0,0,-1,1196,470,-0.760095,1.65556
-21,554,-6.11462,-31.9121,0,0,0,0,0,0,0,-1,1203,470,-6.11458,31.9122
-14,554,18.8212,-41.4066,0,0,0,0,0,0,0,-1,1210,470,18.8212,41.4066
-7,554,18.2686,-40.8158,0,0,0,0,0,0,0,-1,1217,470,18.2685,40.8158
0,554,3.95605,-38.3934,0,0,0,0,0,0,0,-1,1224,470,3.95611,38.3934
7,554,4.46118,-37.4671,0,0,0,0,0,0,0,-1,1231,470,4.46119,37.4671
14,554,5.02979,-36.48,0,0,0,0,0,0,0,-1,1238,470,5.02982,36.48
21,554,5.67346,-35.8253,0.0329107,-0.0363282,0.0219568,0.0392864,-0.0427039,0.282606,0.0473509,0.0437394,1245,470,5.67341,35.8253
28,554,6.07556,-35.3427,0.0330353,-0.0453224,0.023739,0.0396661,-0.0519532,0.272378,0.0530548,0.0413631,1252,470,6.07562,35.3428
35,554,6.30957,-34.9298,0.0401915,-0.0539524,0.0295047,0.048674,-0.0624349,0.279947,0.0643125,0.0382655,1259,470,6.30962,34.9298
42,554,6.36963,-34.7028,0.0498602,-0.0671044,0.0358441,0.0599708,-0.077215,0.274927,0.0794125,0.0450211,1266,470,6.36969,34.7028
49,554,6.64978,-34.6244,0.0613319,-0.0828698,0.043815,0.073601,-0.0951389,0.273028,0.0976862,0.0473766,1273,470,6.64976,34.6244
56,554,6.62,-34.6996,0,0,0,0,0,0,0,-1,1280,470,6.62,34.6996
63,554,4.5448,-27.2365,0.0779955,-0.108486,0.0571265,0.0941041,-0.124594,0.274845,0.126674,0.0437978,1287,470,4.54482,27.2365
70,554,4.526,-27.4772,0.0811539,-0.101715,0.0598676,0.0990098,-0.119571,0.289856,0.126384,0.0459095,1294,470,4.52604,27.4772
77,554,4.84412,-27.9512,0.0791719,-0.0834914,0.0579257,0.0976912,-0.102011,0.309439,0.115307,0.0483348,1301,470,4.84416,27.9512
84,554,4.9845,-28.3798,0,0,0,0,0,0,0,-1,1308,470,4.9845,28.3798
91,554,5.19543,-28.9017,0,0,0,0,0,0,0,-1,1315,470,5.19538,28.9017
98,554,5.35437,-29.4225,0,0,0,0,0,0,0,-1,1322,470,5.35442,29.4225
105,554,5.34204,-29.9322,0,0,0,0,0,0,0,-1,1329,470,5.34207,29.9322
112,554,5.49634,-30.5997,0.0630039,0.0306983,0.0267301,0.0780826,0.0156195,0.513613,0.0477086,0.0438645,1336,470,5.4963,30.5997
119,554,5.85437,-31.4139,0.0545995,0.057134,0.0149267,0.0708471,0.0408864,0.827745,0.0410654,0.0432151,1343,470,5.85433,31.4139
126,554,6.14185,-31.9278,0.0478929,0.0731006,0.00751242,0.0751696,0.0458239,1.30204,0.0437454,0.0439674,1350,470,6.1419,31.9277
133,554,6.43201,-32.1267,0.0445125,0.083711,-0.000286759,0.0837131,0.0445103,-1.56348,0.0483642,0.046308,1357,470,6.43206,32.1267
140,554,6.69006,-32.1514,0,0,0,0,0,0,0,-1,1364,470,6.69003,32.1514
147,554,6.83374,-32.4394,0.0471189,0.0897116,-0.0126577,0.0931893,0.0436412,-1.30267,0.0538389,0.0485267,1371,470,6.83368,32.4394
154,554,7.13025,-32.709,0.0476364,0.0896404,-0.0176908,0.0960984,0.0411785,-1.22078,0.0556712,0.0475678,1378,470,7.13023,32.7089
161,554,7.56079,-32.9069,0,0,0,0,0,0,0,-1,1385,470,7.56074,32.9069
168,554,8.31201,-33.04,0,0,0,0,0,0,0,-1,1392,470,8.31206,33.04
175,554,10.663,0.286957,0,0,0,0,0,0,0,-1,1399,470,10.663,-0.286966
182,554,6.71106,-4.50217,0,0,0,0,0,0,0,-1,1406,470,6.71107,4.50215
189,554,6.90479,-2.50348,0,0,0,0,0,0,0,-1,1413,470,6.90477,2.50348
196,554,6.96216,-0.740906,0,0,0,0,0,0,0,-1,1420,470,6.96214,0.740912
203,554,6.43518,0.414154,0,0,0,0,0,0,0,-1,1427,470,6.43523,-0.414141
210,554,6.21167,1.96707,0,0,0,0,0,0,0,-1,1434,470,6.21165,-1.96706
217,554,5.64551,3.4989,0,0,0,0,0,0,0,-1,1441,470,5.64555,-3.49891
224,554,4.85144,-8.85172,0,0,0,0,0,0,0,-1,1448,470,4.85146,8.85173
231,554,3.25073,-5.29642,0,0,0,0,0,0,0,-1,1455,470,3.25078,5.29642
238,554,4.28625,-3.25253,0,0,0,0,0,0,0,-1,1462,470,4.28622,3.25252
245,554,4.0752,-2.90033,0,0,0,0,0,0,0,-1,1469,470,4.07515,2.90032
252,554,3.52112,-0.934998,0,0,0,0,0,0,0,-1,1476,470,3.52113,0.934996
259,554,3.96448,-2.16425,0,0,0,0,0,0,0,-1,1483,470,3.96446,2.16424
266,554,3.0592,-2.71716,0,0,0,0,0,0,0,-1,1490,470,3.05923,2.71718
273,554,2.58521,-3.06876,0,0,0,0,0,0,0,-1,1497,470,2.58524,3.06874
280,554,2.83301,-0.991699,0,0,0,0,0,0,0,-1,1504,470,2.83303,0.991704
287,554,3.54126,-4.12277,0,0,0,0,0,0,0,-1,1511,470,3.54123,4.12277
294,554,3.62036,-8.50146,0,0,0,0,0,0,0,-1,1518,470,3.62031,8.50145
301,554,8.35608,-27.0173,0,0,0,0,0,0,0,-1,1525,470,8.35604,27.0173
308,554,8.69055,-27.1126,0,0,0,0,0,0,0,-1,1532,470,8.6905,27.1126
315,554,8.73401,-26.9008,0,0,0,0,0,0,0,-1,1539,470,8.73405,26.9008
322,554,8.69128,-26.6006,0,0,0,0,0,0,0,-1,1546,470,8.6913,26.6005
329,554,8.67896,-25.8865,0.00280289,-0.00916181,-0.00538199,0.00486755,-0.0112265,-0.36631,0.00953058,0.0437731,1553,470,8.67897,25.8865
336,554,8.68884,-25.6901,0.00216094,-0.007854,-0.00492295,0.00417559,-0.00986865,-0.388443,0.00832755,0.0268954,1560,470,8.68889,25.6901
343,554,8.70447,-25.3226,0.00145655,-0.0066189,-0.00447534,0.00344642,-0.00860877,-0.418379,0.00716964,0.015172,1567,470,8.70451,25.3226
350,554,8.75354,-24.8811,0.000939765,-0.0053573,-0.00385794,0.00277089,-0.00718842,-0.443153,0.00593556,0.00968147,1574,470,8.75357,24.8811
357,554,8.75793,-24.4513,0.000545235,-0.0039904,-0.00321747,0.0022138,-0.00565897,-0.478413,0.00468817,0.0103466,1581,470,8.75792,24.4513
364,554,8.74414,-24.0385,0.000375746,-0.00282019,-0.0024786,0.00172684,-0.00417128,-0.499076,0.00350141,0.00922688,1588,470,8.74412,24.0385
371,554,8.73572,-23.5981,0.000309723,-0.00174484,-0.00173651,0.00130005,-0.00273517,-0.518296,0.00237834,0.00884968,1595,470,8.73568,23.5981
378,554,8.73108,-23.1353,0.000250094,-0.000707619,-0.00104841,0.000923831,-0.00138136,-0.571174,0.00133961,0.0104452,1602,470,8.73106,23.1353
385,554,8.72595,-22.6767,0.000215925,0.000370554,-0.000428397,0.000728557,-0.000142078,-0.874674,0.000539339,0.0103018,1609,470,8.72596,22.6767
392,554,8.74023,-22.199,0.000211082,0.00110656,0.000134299,0.00112627,0.000191375,1.42509,0.000695884,0.0128184,1616,470,8.7402,22.199
399,554,8.73511,-21.7211,0.000165763,0.00182305,0.000745804,0.00210925,-0.000120435,1.20438,0.00144798,0.0165709,1623,470,8.73516,21.7211
406,554,8.70154,-21.2659,8.2845e-07,0.00296457,0.00129284,0.00344926,-0.000483865,1.21211,0.0024766,0.0164522,1630,470,8.70157,21.2659
413,554,8.69238,-20.7788,-0.000269197,0.00425127,0.00168147,0.00480813,-0.000826051,1.25099,0.00351329,0.0157044,1637,470,8.69236,20.7788
420,554,8.66907,-20.3253,-0.000493079,0.00519926,0.00201146,0.0058383,-0.00113211,1.26318,0.00431931,0.0156765,1644,470,8.66907,20.3253
427,554,8.6571,-19.8354,-0.000664628,0.00637001,0.0023497,0.00708266,-0.00137728,1.27632,0.00524153,0.0104613,1651,470,8.65713,19.8354
434,554,8.63245,-19.3466,-0.000898579,0.00774269,0.0026973,0.00851551,-0.0016714,1.29175,0.00630839,0.00960239,1658,470,8.63241,19.3466
441,554,8.63562,-18.8362,-0.00113914,0.0092006,0.00301287,0.0100145,-0.00195299,1.30697,0.00741355,0.0116362,1665,470,8.63557,18.8361
448,554,8.62598,-18.29,-0.00138591,0.0106506,0.00325615,0.011475,-0.00221031,1.32283,0.00848331,0.0166014,1672,470,8.62594,18.29
455,554,8.5907,-17.7825,-0.0015278,0.0119441,0.00347311,0.0127868,-0.00237047,1.33277,0.00941467,0.0173184,1679,470,8.59064,17.7825
462,554,8.52393,-17.2994,-0.001488,0.0130454,0.00367995,0.013924,-0.00236667,1.33641,0.0101638,0.0194674,1686,470,8.52398,17.2994
469,554,8.46362,-16.7963,-0.00126802,0.0137815,0.0037894,0.0146818,-0.00216831,1.33754,0.0105849,0.0237011,1693,470,8.4636,16.7963
476,554,8.505,-16.1568,-0.00113436,0.0139751,0.0038045,0.0148789,-0.00203825,1.33754,0.0106638,0.0437298,1700,470,8.50506,16.1568
483,554,8.54724,-15.5261,0,0,0,0,0,0,0,-1,1707,470,8.54723,15.526
490,554,8.76025,-12.0439,0,0,0,0,0,0,0,-1,1714,470,8.76021,12.0438
497,554,10.9613,1.60983,0,0,0,0,0,0,0,-1,1721,470,10.9613,-1.60982
504,554,2.13257,-3.81628,0,0,0,0,0,0,0,-1,1728,470,2.1326,3.8163
511,554,1.31396,-4.02713,0,0,0,0,0,0,0,-1,1735,470,1.31398,4.02712
518,554,5.04236,-5.9472,0,0,0,0,0,0,0,-1,1742,470,5.04231,5.94721
525,554,0,0,0,0,0,0,0,0,0,-1,1749,470,0,0
532,554,0,0,0,0,0,0,0,0,0,-1,1756,470,0,0
539,554,0,0,0,0,0,0,0,0,0,-1,1763,470,0,0
546,554,0,0,0,0,0,0,0,0,0,-1,1770,470,0,0
553,554,0,0,0,0,0,0,0,0,0,-1,1777,470,0,0
560,554,0,0,0,0,0,0,0,0,0,-1,1784,470,0,0
567,554,0,0,0,0,0,0,0,0,0,-1,1791,470,0,0
574,554,0,0,0,0,0,0,0,0,0,-1,1798,470,0,0
581,554,0,0,0,0,0,0,0,0,0,-1,1805,470,0,0
588,554,0,0,0,0,0,0,0,0,0,-1,1812,470,0,0
595,554,0,0,0,0,0,0,0,0,0,-1,1819,470,0,0
602,554,0,0,0,0,0,0,0,0,0,-1,1826,470,0,0
609,554,0,0,0,0,0,0,0,0,0,-1,1833,470,0,0
616,554,0,0,0,0,0,0,0,0,0,-1,1840,470,0,0
623,554,0,0,0,0,0,0,0,0,0,-1,1847,470,0,0
630,554,0,0,0,0,0,0,0,0,0,-1,1854,470,0,0
637,554,0,0,0,0,0,0,0,0,0,-1,1861,470,0,0
644,554,0,0,0,0,0,0,0,0,0,-1,1868,470,0,0
651,554,0,0,0,0,0,0,0,0,0,-1,1875,470,0,0
658,554,0,0,0,0,0,0,0,0,0,-1,1882,470,0,0
665,554,0,0,0,0,0,0,0,0,0,-1,1889,470,0,0
672,554,0,0,0,0,0,0,0,0,0,-1,1896,470,0,0
679,554,0,0,0,0,0,0,0,0,0,-1,1903,470,0,0
686,554,0,0,0,0,0,0,0,0,0,-1,1910,470,0,0
693,554,0,0,0,0,0,0,0,0,0,-1,1917,470,0,0
700,554,0,0,0,0,0,0,0,0,0,-1,1924,470,0,0
707,554,0,0,0,0,0,0,0,0,0,-1,1931,470,0,0
714,554,0,0,0,0,0,0,0,0,0,-1,1938,470,0,0
721,554,0,0,0,0,0,0,0,0,0,-1,1945,470,0,0
728,554,0,0,0,0,0,0,0,0,0,-1,1952,470,0,0
735,554,0,0,0,0,0,0,0,0,0,-1,1959,470,0,0
742,554,0,0,0,0,0,0,0,0,0,-1,1966,470,0,0
749,554,0,0,0,0,0,0,0,0,0,-1,1973,470,0,0
756,554,0,0,0,0,0,0,0,0,0,-1,1980,470,0,0
763,554,0,0,0,0,0,0,0,0,0,-1,1987,470,0,0
770,554,0,0,0,0,0,0,0,0,0,-1,1994,470,0,0
777,554,0,0,0,0,0,0,0,0,0,-1,2001,470,0,0
784,554,0,0,0,0,0,0,0,0,0,-1,2008,470,0,0
791,554,0,0,0,0,0,0,0,0,0,-1,2015,470,0,0
798,554,0,0,0,0,0,0,0,0,0,-1,2022,470,0,0
805,554,0,0,0,0,0,0,0,0,0,-1,2029,470,0,0
812,554,0,0,0,0,0,0,0,0,0,-1,2036,470,0,0
-700,547,0,0,0,0,0,0,0,0,0,-1,524,477,0,0
-693,547,0,0,0,0,0,0,0,0,0,-1,531,477,0,0
-686,547,0,0,0,0,0,0,0,0,0,-1,538,477,0,0
-679,547,0,0,0,0,0,0,0,0,0,-1,545,477,0,0
-672,547,0,0,0,0,0,0,0,0,0,-1,552,477,0,0
-665,547,0,0,0,0,0,0,0,0,0,-1,559,477,0,0
-658,547,0,0,0,0,0,0,0,0,0,-1,566,477,0,0
-651,547,0,0,0,0,0,0,0,0,0,-1,573,477,0,0
-644,547,0,0,0,0,0,0,0,0,0,-1,580,477,0,0
-637,547,0,0,0,0,0,0,0,0,0,-1,587,477,0,0
-630,547,0,0,0,0,0,0,0,0,0,-1,594,477,0,0
-623,547,0,0,0,0,0,0,0,0,0,-1,601,477,0,0
-616,547,0,0,0,0,0,0,0,0,0,-1,608,477,0,0
-609,547,0,0,0,0,0,0,0,0,0,-1,615,477,0,0
-602,547,0,0,0,0,0,0,0,0,0,-1,622,477,0,0
-595,547,0,0,0,0,0,0,0,0,0,-1,629,477,0,0
-588,547,0,0,0,0,0,0,0,0,0,-1,636,477,0,0
-581,547,0,0,0,0,0,0,0,0,0,-1,643,477,0,0
-574,547,0,0,0,0,0,0,0,0,0,-1,650,477,0,0
-567,547,0,0,0,0,0,0,0,0,0,-1,657,477,0,0
-560,547,0,0,0,0,0,0,0,0,0,-1,664,477,0,0
-553,547,0,0,0,0,0,0,0,0,0,-1,671,477,0,0
-546,547,0,0,0,0,0,0,0,0,0,-1,678,477,0,0
-539,547,0,0,0,0,0,0,0,0,0,-1,685,477,0,0
-532,547,0,0,0,0,0,0,0,0,0,-1,692,477,0,0
-525,547,0,0,0,0,0,0,0,0,0,-1,699,477,0,0
-518,547,0,0,0,0,0,0,0,0,0,-1,706,477,0,0
-511,547,0,0,0,0,0,0,0,0,0,-1,713,477,0,0
-504,547,0,0,0,0,0,0,0,0,0,-1,720,477,0,0
-497,547,0,0,0,0,0,0,0,0,0,-1,727,477,0,0
-490,547,0,0,0,0,0,0,0,0,0,-1,734,477,0,0
-483,547,0,0,0,0,0,0,0,0,0,-1,741,477,0,0
-476,547,0,0,0,0,0,0,0,0,0,-1,748,477,0,0
-469,547,0,0,0,0,0,0,0,0,0,-1,755,477,0,0
-462,547,0,0,0,0,0,0,0,0,0,-1,762,477,0,0
-455,547,0,0,0,0,0,0,0,0,0,-1,769,477,0,0
-448,547,0,0,0,0,0,0,0,0,0,-1,776,477,0,0
-441,547,0,0,0,0,0,0,0,0,0,-1,783,477,0,0
-434,547,0,0,0,0,0,0,0,0,0,-1,790,477,0,0
-427,547,0,0,0,0,0,0,0,0,0,-1,797,477,0,0
-420,547,0,0,0,0,0,0,0,0,0,-1,804,477,0,0
-413,547,0,0,0,0,0,0,0,0,0,-1,811,477,0,0
-406,547,0.144592,-11.0292,0,0,0,0,0,0,0,-1,818,477,0.144583,11.0292
-399,547,0.775513,-10.0294,0,0,0,0,0,0,0,-1,825,477,0.775482,10.0295
-392,547,-1.52271,-4.41675,0,0,0,0,0,0,0,-1,832,477,-1.52273,4.41674
-385,547,-1.73743,-4.6431,0,0,0,0,0,0,0,-1,839,477,-1.73743,4.64308
-378,547,-2.41339,-4.60071,0,0,0,0,0,0,0,-1,846,477,-2.41337,4.60071
-371,547,1.64569,-11.1445,0,0,0,0,0,0,0,-1,853,477,1.64569,11.1445
-364,547,0.271729,-4.58582,0,0,0,0,0,0,0,-1,860,477,0.271753,4.5858
-357,547,0.575989,-15.8035,0,0,0,0,0,0,0,-1,867,477,0.575992,15.8035
-350,547,0.840698,-16.881,0,0,0,0,0,0,0,-1,874,477,0.840677,16.881
-343,547,0.638916,-17.7825,-0.000339808,0.0269197,-0.00310602,0.0272691,-0.000689237,-1.45877,0.0184135,0.046381,881,477,0.63893,17.7825
-336,547,0.705383,-18.4623,-0.0011046,0.023595,-0.00204591,0.0237633,-0.00127292,-1.48871,0.0162831,0.0188117,888,477,0.705378,18.4623
-329,547,0.666321,-19.0057,-0.00164939,0.0199711,-0.00113,0.02003,-0.00170829,-1.51872,0.0139577,0.0111051,895,477,0.666315,19.0057
-322,547,0.65155,-19.494,-0.00195486,0.0164386,-0.00058443,0.0164572,-0.00197341,-1.53907,0.0116849,0.0118135,902,477,0.651547,19.494
-315,547,0.618042,-20.0031,-0.00185395,0.0133233,-0.000397165,0.0133336,-0.00186434,-1.54465,0.00957126,0.0110343,909,477,0.618056,20.0031
-308,547,0.599487,-20.4772,-0.00155431,0.0105176,-0.00037133,0.010529,-0.00156573,-1.54008,0.00759523,0.0125952,916,477,0.599476,20.4772
-301,547,0.600281,-20.9513,-0.00118854,0.00789493,-0.000335346,0.0079073,-0.00120091,-1.53394,0.00571405,0.0117658,923,477,0.600299,20.9513
-294,547,0.565796,-21.394,-0.00077149,0.00555549,-0.000208161,0.00556233,-0.000778331,-1.53794,0.00399303,0.00985812,930,477,0.565793,21.3941
-287,547,0.545593,-21.8444,-0.000375345,0.00367067,-2.69179e-05,0.00367084,-0.000375524,-1.56414,0.00258152,0.0114792,937,477,0.545623,21.8444
-280,547,0.545959,-22.3037,6.12238e-05,0.00198057,0.000107758,0.0019866,5.51929e-05,1.51489,0.00130639,0.0131483,944,477,0.545947,22.3037
-273,547,0.531494,-22.7508,0.000480509,0.000365829,0.000286014,0.000714874,0.000131464,0.68647,0.000439367,0.0130109,951,477,0.531515,22.7508
-266,547,0.503845,-23.1902,0.00101442,-0.00108485,0.000649263,0.00119899,-0.00126943,0.276978,0.00142534,0.0126627,958,477,0.503835,23.1903
-259,547,0.495056,-23.6143,0.00170069,-0.00254501,0.00108835,0.00196342,-0.00280774,0.236872,0.00276897,0.0110344,965,477,0.495079,23.6143
-252,547,0.523071,-24.0471,0.00228058,-0.00437256,0.00174062,0.00270845,-0.00480044,0.241036,0.00439098,0.0105638,972,477,0.523087,24.0471
-245,547,0.534546,-24.4812,0.00288226,-0.00623073,0.00242337,0.00348662,-0.00683508,0.244401,0.00606286,0.0115151,979,477,0.534536,24.4812
-238,547,0.525391,-24.9094,0.00358078,-0.00844518,0.00319364,0.00437627,-0.00924067,0.244118,0.00802722,0.00861786,986,477,0.525405,24.9094
-231,547,0.509766,-25.3354,0.00426459,-0.0107618,0.00396675,0.00524746,-0.0117447,0.242887,0.0100466,0.00855916,993,477,0.509791,25.3355
-224,547,0.512756,-25.7107,0.00476637,-0.0133383,0.0049599,0.00603611,-0.014608,0.25062,0.0122566,0.0112216,1000,477,0.512783,25.7107
-217,547,0.5495,-26.091,0.00519722,-0.0160188,0.00620994,0.00688121,-0.0177028,0.264808,0.0146448,0.0192655,1007,477,0.549502,26.091
-210,547,0.588074,-26.3501,0.00629077,-0.0168599,0.0064134,0.00794873,-0.0185179,0.252977,0.0156814,0.0349028,1014,477,0.5881,26.3501
-203,547,0.588318,-26.325,0.0081879,-0.0162719,0.00577904,0.00948456,-0.0175685,0.220717,0.0158498,0.0472179,1021,477,0.588311,26.325
-196,547,0.538818,-26.3326,0,0,0,0,0,0,0,-1,1028,477,0.538827,26.3326
-189,547,0.457886,-27.0839,0,0,0,0,0,0,0,-1,1035,477,0.457888,27.0839
-182,547,-0.0454102,-23.1846,0,0,0,0,0,0,0,-1,1042,477,-0.0454543,23.1846
-175,547,-0.350098,-12.3584,0,0,0,0,0,0,0,-1,1049,477,-0.350098,12.3584
-168,547,1.12463,-8.66785,0,0,0,0,0,0,0,-1,1056,477,1.12461,8.66786
-161,547,1.27869,-29.5224,0,0,0,0,0,0,0,-1,1063,477,1.27866,29.5224
-154,547,1.4668,-30.046,0,0,0,0,0,0,0,-1,1070,477,1.46675,30.046
-147,547,3.69434,-26.413,0,0,0,0,0,0,0,-1,1077,477,3.69437,26.413
-140,547,1.55676,-22.5229,0,0,0,0,0,0,0,-1,1084,477,1.5568,22.5229
-133,547,2.31665,-17.9421,0,0,0,0,0,0,0,-1,1091,477,2.31667,17.9421
-126,547,1.7063,-26.5276,0,0,0,0,0,0,0,-1,1098,477,1.70634,26.5276
-119,547,0.967651,-24.9351,0,0,0,0,0,0,0,-1,1105,477,0.967657,24.9351
-112,547,1.15674,-22.2276,0,0,0,0,0,0,0,-1,1112,477,1.15677,22.2276
-105,547,0.966797,-20.5777,0,0,0,0,0,0,0,-1,1119,477,0.966804,20.5777
-98,547,0.70166,-18.9755,0,0,0,0,0,0,0,-1,1126,477,0.701713,18.9755
-91,547,1.37805,-7.12024,0,0,0,0,0,0,0,-1,1133,477,1.37804,7.12025
-84,547,1.94202,-6.66241,0,0,0,0,0,0,0,-1,1140,477,1.94201,6.66241
-77,547,-2.28357,1.8588,0,0,0,0,0,0,0,-1,1147,477,-2.28356,-1.85879
-70,547,-3.70178,-0.874908,0,0,0,0,0,0,0,-1,1154,477,-3.70182,0.874918
-63,547,-5.12012,-3.60861,0,0,0,0,0,0,0,-1,1161,477,-5.12009,3.60862
-56,547,-6.01917,-6.2399,0,0,0,0,0,0,0,-1,1168,477,-6.01921,6.23991
-49,547,-6.729,-8.60349,0,0,0,0,0,0,0,-1,1175,477,-6.72899,8.60348
-42,547,-2.41736,-5.53012,0,0,0,0,0,0,0,-1,1182,477,-2.41734,5.53011
-35,547,-2.96838,-4.45734,0,0,0,0,0,0,0,-1,1189,477,-2.96839,4.45734
-28,547,-0.869141,-1.29901,0,0,0,0,0,0,0,-1,1196,477,-0.869135,1.29901
-21,547,-7.68262,-30.8089,0,0,0,0,0,0,0,-1,1203,477,-7.68256,30.8089
-14,547,19.6815,-41.2642,0,0,0,0,0,0,0,-1,1210,477,19.6816,41.2641
-7,547,19.052,-40.5492,0,0,0,0,0,0,0,-1,1217,477,19.052,40.5492
0,547,18.3995,-39.9279,0,0,0,0,0,0,0,-1,1224,477,18.3996,39.9279
7,547,5.03406,-37.4561,0,0,0,0,0,0,0,-1,1231,477,5.03407,37.4561
14,547,0,0,0,0,0,0,0,0,0,-1,1238,477,0,0
21,547,0,0,0,0,0,0,0,0,0,-1,1245,477,0,0
28,547,0,0,0,0,0,0,0,0,0,-1,1252,477,0,0
35,547,0,0,0,0,0,0,0,0,0,-1,1259,477,0,0
42,547,0,0,0,0,0,0,0,0,0,-1,1266,477,0,0
49,547,0,0,0,0,0,0,0,0,0,-1,1273,477,0,0
56,547,0,0,0,0,0,0,0,0,0,-1,1280,477,0,0
63,547,0,0,0,0,0,0,0,0,0,-1,1287,477,0,0
70,547,0,0,0,0,0,0,0,0,0,-1,1294,477,0,0
77,547,0,0,0,0,0,0,0,0,0,-1,1301,477,0,0
84,547,0,0,0,0,0,0,0,0,0,-1,1308,477,0,0
91,547,0,0,0,0,0,0,0,0,0,-1,1315,477,0,0
98,547,0,0,0,0,0,0,0,0,0,-1,1322,477,0,0
105,547,4.87244,-30.2379,0,0,0,0,0,0,0,-1,1329,477,4.87244,30.2379
112,547,5.26062,-30.8604,0,0,0,0,0,0,0,-1,1336,477,5.26066,30.8604
119,547,5.40417,-32.0759,0,0,0,0,0,0,0,-1,1343,477,5.40412,32.0759
126,547,5.70117,-32.6436,0,0,0,0,0,0,0,-1,1350,477,5.70114,32.6436
133,547,6.09009,-32.8126,0,0,0,0,0,0,0,-1,1357,477,6.09011,32.8126
140,547,6.58484,-32.7084,0,0,0,0,0,0,0,-1,1364,477,6.58479,32.7084
147,547,6.86719,-32.9517,0,0,0,0,0,0,0,-1,1371,477,6.86722,32.9517
154,547,7.1803,-33.0246,0,0,0,0,0,0,0,-1,1378,477,7.18025,33.0246
161,547,7.3363,-33.2101,0,0,0,0,0,0,0,-1,1385,477,7.33627,33.2101
168,547,-0.833862,-27.0114,0,0,0,0,0,0,0,-1,1392,477,-0.833855,27.0114
175,547,3.35034,-0.26532,0,0,0,0,0,0,0,-1,1399,477,3.3503,0.265306
182,547,4.26038,3.72672,0,0,0,0,0,0,0,-1,1406,477,4.26039,-3.7267
189,547,3.40454,1.28671,0,0,0,0,0,0,0,-1,1413,477,3.40457,-1.28673
196,547,3.53931,1.87793,0,0,0,0,0,0,0,-1,1420,477,3.53928,-1.87794
203,547,6.49414,-0.425842,0,0,0,0,0,0,0,-1,1427,477,6.4941,0.425844
210,547,4.82092,0.53595,0,0,0,0,0,0,0,-1,1434,477,4.82096,-0.535942
217,547,4.68579,0.480072,0,0,0,0,0,0,0,-1,1441,477,4.68577,-0.480069
224,547,4.55615,0.739807,0,0,0,0,0,0,0,-1,1448,477,4.55613,-0.73981
231,547,5.90869,-3.57721,0,0,0,0,0,0,0,-1,1455,477,5.90871,3.57722
238,547,5.50049,-3.15356,0,0,0,0,0,0,0,-1,1462,477,5.50045,3.15356
245,547,5.13708,-2.65213,0,0,0,0,0,0,0,-1,1469,477,5.13708,2.65212
252,547,3.73511,-0.645233,0,0,0,0,0,0,0,-1,1476,477,3.73515,0.645237
259,547,5.86816,-3.20816,0,0,0,0,0,0,0,-1,1483,477,5.86815,3.20816
266,547,5.40222,-2.45731,0,0,0,0,0,0,0,-1,1490,477,5.40221,2.45732
273,547,3.05737,0.495789,0,0,0,0,0,0,0,-1,1497,477,3.05742,-0.49578
280,547,2.0885,1.47797,0,0,0,0,0,0,0,-1,1504,477,2.08848,-1.47795
287,547,2.31177,-2.21716,0,0,0,0,0,0,0,-1,1511,477,2.31174,2.21717
294,547,2.4823,-3.03659,0,0,0,0,0,0,0,-1,1518,477,2.48229,3.0366
301,547,4.72119,-3.93454,0,0,0,0,0,0,0,-1,1525,477,4.72119,3.93453
308,547,4.07471,-5.42175,0,0,0,0,0,0,0,-1,1532,477,4.07468,5.42174
315,547,3.58496,-6.62112,0,0,0,0,0,0,0,-1,1539,477,3.58497,6.62113
322,547,5.73926,-14.1878,0,0,0,0,0,0,0,-1,1546,477,5.73926,14.1878
329,547,8.90356,-25.7729,0,0,0,0,0,0,0,-1,1553,477,8.90355,25.773
336,547,9.05652,-25.8683,0,0,0,0,0,0,0,-1,1560,477,9.05653,25.8682
343,547,9.26392,-25.426,0.00133588,-0.00891134,-0.00619968,0.00425512,-0.0118306,-0.440073,0.00962426,0.0481971,1567,477,9.26394,25.426
350,547,9.23621,-24.9128,0.000787698,-0.00737696,-0.00542581,0.00349542,-0.0100847,-0.462883,0.00814232,0.0264903,1574,477,9.23616,24.9128
357,547,9.19983,-24.46,0.00041412,-0.00573933,-0.00464812,0.00291155,-0.00823676,-0.49304,0.00667676,0.0142024,1581,477,9.19989,24.46
364,547,9.17761,-24.0238,0.000300963,-0.00433929,-0.00377325,0.00241032,-0.00644865,-0.50975,0.0052889,0.0106233,1588,477,9.17758,24.0238
371,547,9.18811,-23.5863,0.00030397,-0.00306674,-0.00289203,0.00196589,-0.00472867,-0.521575,0.00397331,0.00975691,1595,477,9.1881,23.5863
378,547,9.1825,-23.1465,0.000314195,-0.00184517,-0.00206511,0.00156483,-0.00309581,-0.544529,0.00273879,0.0108275,1602,477,9.18246,23.1465
385,547,9.18201,-22.6676,0.000369179,-0.000585853,-0.00126943,0.00124794,-0.00146461,-0.605503,0.00156776,0.0112917,1609,477,9.18203,22.6676
392,547,9.19507,-22.1906,0.000410175,0.000256681,-0.000610139,0.000948375,-0.000281518,-0.722834,0.000744059,0.0112869,1616,477,9.19511,22.1906
399,547,9.16443,-21.7083,0.000412985,0.000931208,1.38735e-05,0.00093158,0.000412613,1.54405,0.000539015,0.0123402,1623,477,9.1644,21.7083
406,547,9.16125,-21.2311,0.00033846,0.00205969,0.000626491,0.00226357,0.00013458,1.25617,0.00146624,0.0128052,1630,477,9.1613,21.2311
413,547,9.15869,-20.762,0.000194626,0.00304641,0.0010799,0.00340919,-0.000168154,1.2467,0.00233087,0.0130968,1637,477,9.15869,20.762
420,547,9.14941,-20.3241,5.96672e-05,0.00376004,0.00142213,0.00424344,-0.000423737,1.24313,0.00298026,0.0146929,1644,477,9.14939,20.3241
427,547,9.13513,-19.834,-8.98286e-05,0.00469006,0.00175059,0.00526262,-0.000662384,1.2547,0.00374876,0.0138372,1651,477,9.13512,19.8339
434,547,9.09521,-19.3454,-0.000281498,0.00572334,0.00207224,0.00636903,-0.000927187,1.26874,0.00458643,0.00944182,1658,477,9.09522,19.3454
441,547,9.07727,-18.8681,-0.000454356,0.00678088,0.00236872,0.00748738,-0.00116085,1.28093,0.00542013,0.00974531,1665,477,9.07726,18.8681
448,547,9.05713,-18.3398,-0.000595282,0.00778992,0.00261329,0.00853769,-0.00134304,1.2921,0.00618824,0.01109,1672,477,9.05715,18.3398
455,547,9.04285,-17.8145,-0.000642242,0.00865021,0.0028441,0.00945158,-0.00144361,1.29615,0.00683328,0.0112025,1679,477,9.04286,17.8145
462,547,9.0022,-17.3078,-0.000557334,0.00927065,0.00307823,0.0101552,-0.00144186,1.29099,0.00729837,0.0108437,1686,477,9.0022,17.3078
469,547,8.97498,-16.7932,-0.000384195,0.00958409,0.00321915,0.0105333,-0.0013334,1.28406,0.00750624,0.0184751,1693,477,8.97498,16.7932
476,547,9.02356,-16.2166,-0.000381605,0.00944116,0.00327327,0.010432,-0.00137242,1.27686,0.00745436,0.0336035,1700,477,9.02352,16.2166
483,547,9.11682,-15.619,0,0,0,0,0,0,0,-1,1707,477,9.11687,15.619
490,547,3.65271,-3.71707,0,0,0,0,0,0,0,-1,1714,477,3.65277,3.71708
497,547,2.55481,-3.81421,0,0,0,0,0,0,0,-1,1721,477,2.55476,3.8142
504,547,4.01953,-2.22714,0,0,0,0,0,0,0,-1,1728,477,4.0195,2.22713
511,547,5.2146,-6.9552,0,0,0,0,0,0,0,-1,1735,477,5.21464,6.95521
518,547,5.24243,-6.56122,0,0,0,0,0,0,0,-1,1742,477,5.24241,6.56121
525,547,5.89368,-5.49866,0,0,0,0,0,0,0,-1,1749,477,5.89372,5.49866
532,547,0,0,0,0,0,0,0,0,0,-1,1756,477,0,0
539,547,0,0,0,0,0,0,0,0,0,-1,1763,477,0,0
546,547,0,0,0,0,0,0,0,0,0,-1,1770,477,0,0
553,547,0,0,0,0,0,0,0,0,0,-1,1777,477,0,0
560,547,0,0,0,0,0,0,0,0,0,-1,1784,477,0,0
567,547,0,0,0,0,0,0,0,0,0,-1,1791,477,0,0
574,547,0,0,0,0,0,0,0,0,0,-1,1798,477,0,0
581,547,0,0,0,0,0,0,0,0,0,-1,1805,477,0,0
588,547,0,0,0,0,0,0,0,0,0,-1,1812,477,0,0
595,547,0,0,0,0,0,0,0,0,0,-1,1819,477,0,0
602,547,0,0,0,0,0,0,0,0,0,-1,1826,477,0,0
609,547,0,0,0,0,0,0,0,0,0,-1,1833,477,0,0
616,547,0,0,0,0,0,0,0,0,0,-1,1840,477,0,0
623,547,0,0,0,0,0,0,0,0,0,-1,1847,477,0,0
630,547,0,0,0,0,0,0,0,0,0,-1,1854,477,0,0
637,547,0,0,0,0,0,0,0,0,0,-1,1861,477,0,0
644,547,0,0,0,0,0,0,0,0,0,-1,1868,477,0,0
651,547,0,0,0,0,0,0,0,0,0,-1,1875,477,0,0
658,547,0,0,0,0,0,0,0,0,0,-1,1882,477,0,0
665,547,0,0,0,0,0,0,0,0,0,-1,1889,477,0,0
672,547,0,0,0,0,0,0,0,0,0,-1,1896,477,0,0
679,547,0,0,0,0,0,0,0,0,0,-1,1903,477,0,0
686,547,0,0,0,0,0,0,0,0,0,-1,1910,477,0,0
693,547,0,0,0,0,0,0,0,0,0,-1,1917,477,0,0
700,547,0,0,0,0,0,0,0,0,0,-1,1924,477,0,0
707,547,0,0,0,0,0,0,0,0,0,-1,1931,477,0,0
714,547,0,0,0,0,0,0,0,0,0,-1,1938,477,0,0
721,547,0,0,0,0,0,0,0,0,0,-1,1945,477,0,0
728,547,0,0,0,0,0,0,0,0,0,-1,1952,477,0,0
735,547,0,0,0,0,0,0,0,0,0,-1,1959,477,0,0
742,547,0,0,0,0,0,0,0,0,0,-1,1966,477,0,0
749,547,0,0,0,0,0,0,0,0,0,-1,1973,477,0,0
756,547,0,0,0,0,0,0,0,0,0,-1,1980,477,0,0
763,547,0,0,0,0,0,0,0,0,0,-1,1987,477,0,0
770,547,0,0,0,0,0,0,0,0,0,-1,1994,477,0,0
777,547,0,0,0,0,0,0,0,0,0,-1,2001,477,0,0
784,547,0,0,0,0,0,0,0,0,0,-1,2008,477,0,0
791,547,0,0,0,0,0,0,0,0,0,-1,2015,477,0,0
798,547,0,0,0,0,0,0,0,0,0,-1,2022,477,0,0
805,547,0,0,0,0,0,0,0,0,0,-1,2029,477,0,0
812,547,0,0,0,0,0,0,0,0,0,-1,2036,477,0,0
-700,540,0,0,0,0,0,0,0,0,0,-1,524,484,0,0
-693,540,0,0,0,0,0,0,0,0,0,-1,531,484,0,0
-686,540,0,0,0,0,0,0,0,0,0,-1,538,484,0,0
-679,540,0,0,0,0,0,0,0,0,0,-1,545,484,0,0
-672,540,0,0,0,0,0,0,0,0,0,-1,552,484,0,0
-665,540,0,0,0,0,0,0,0,0,0,-1,559,484,0,0
-658,540,0,0,0,0,0,0,0,0,0,-1,566,484,0,0
-651,540,0,0,0,0,0,0,0,0,0,-1,573,484,0,0
-644,540,0,0,0,0,0,0,0,0,0,-1,580,484,0,0
-637,540,0,0,0,0,0,0,0,0,0,-1,587,484,0,0
-630,540,0,0,0,0,0,0,0,0,0,-1,594,484,0,0
-623,540,0,0,0,0,0,0,0,0,0,-1,601,484,0,0
-616,540,0,0,0,0,0,0,0,0,0,-1,608,484,0,0
-609,540,0,0,0,0,0,0,0,0,0,-1,615,484,0,0
-602,540,0,0,0,0,0,0,0,0,0,-1,622,484,0,0
-595,540,0,0,0,0,0,0,0,0,0,-1,629,484,0,0
-588,540,0,0,0,0,0,0,0,0,0,-1,636,484,0,0
-581,540,0,0,0,0,0,0,0,0,0,-1,643,484,0,0
-574,540,0,0,0,0,0,0,0,0,0,-1,650,484,0,0
-567,540,0,0,0,0,0,0,0,0,0,-1,657,484,0,0
-560,540,0,0,0,0,0,0,0,0,0,-1,664,484,0,0
-553,540,0,0,0,0,0,0,0,0,0,-1,671,484,0,0
-546,540,0,0,0,0,0,0,0,0,0,-1,678,484,0,0
-539,540,0,0,0,0,0,0,0,0,0,-1,685,484,0,0
-532,540,0,0,0,0,0,0,0,0,0,-1,692,484,0,0
-525,540,0,0,0,0,0,0,0,0,0,-1,699,484,0,0
-518,540,0,0,0,0,0,0,0,0,0,-1,706,484,0,0
-511,540,0,0,0,0,0,0,0,0,0,-1,713,484,0,0
-504,540,0,0,0,0,0,0,0,0,0,-1,720,484,0,0
-497,540,0,0,0,0,0,0,0,0,0,-1,727,484,0,0
-490,540,0,0,0,0,0,0,0,0,0,-1,734,484,0,0
-483,540,0,0,0,0,0,0,0,0,0,-1,741,484,0,0
-476,540,0,0,0,0,0,0,0,0,0,-1,748,484,0,0
-469,540,0,0,0,0,0,0,0,0,0,-1,755,484,0,0
-462,540,0,0,0,0,0,0,0,0,0,-1,762,484,0,0
-455,540,0,0,0,0,0,0,0,0,0,-1,769,484,0,0
-448,540,0,0,0,0,0,0,0,0,0,-1,776,484,0,0
-441,540,0,0,0,0,0,0,0,0,0,-1,783,484,0,0
-434,540,0,0,0,0,0,0,0,0,0,-1,790,484,0,0
-427,540,0,0,0,0,0,0,0,0,0,-1,797,484,0,0
-420,540,0.227051,-10.0402,0,0,0,0,0,0,0,-1,804,484,0.227063,10.0402
-413,540,-0.0393677,-10.3862,0,0,0,0,0,0,0,-1,811,484,-0.0393683,10.3862
-406,540,-0.518372,-11.5288,0,0,0,0,0,0,0,-1,818,484,-0.518402,11.5288
-399,540,0.0863037,-11.3801,0,0,0,0,0,0,0,-1,825,484,0.0863201,11.3801
-392,540,-0.517395,-10.6735,0,0,0,0,0,0,0,-1,832,484,-0.517377,10.6735
-385,540,-2.29407,-5.03418,0,0,0,0,0,0,0,-1,839,484,-2.29408,5.03418
-378,540,1.06445,-10.5824,0,0,0,0,0,0,0,-1,846,484,1.06446,10.5824
-371,540,1.14825,-10.7452,0,0,0,0,0,0,0,-1,853,484,1.14827,10.7452
-364,540,0.437561,-16.2486,0,0,0,0,0,0,0,-1,860,484,0.437535,16.2486
-357,540,0.391296,-16.5615,0,0,0,0,0,0,0,-1,867,484,0.391293,16.5615
-350,540,0.3078,-17.1829,0.00169502,0.0224258,-0.00535519,0.0237274,0.000393392,-1.33236,0.0156888,0.035355,874,484,0.307777,17.1829
-343,540,0.238342,-17.9297,0.000488496,0.0195881,-0.0036315,0.0202552,-0.000178676,-1.3891,0.0135634,0.0189479,881,484,0.238337,17.9297
-336,540,0.202637,-18.5721,-0.000238002,0.0170846,-0.0024822,0.0174333,-0.000586665,-1.43124,0.0118226,0.01278,888,484,0.202663,18.572
-329,540,0.179199,-19.0359,-0.000782533,0.0142973,-0.00146448,0.0144382,-0.00092344,-1.47488,0.00994756,0.0106082,895,484,0.17919,19.0358
-322,540,0.166565,-19.5009,-0.00108037,0.0117424,-0.000880714,0.0118026,-0.00114058,-1.50254,0.00827482,0.0144667,902,484,0.166593,19.501
-315,540,0.141479,-19.9868,-0.000990899,0.00941761,-0.000596699,0.0094517,-0.00102499,-1.51372,0.00666911,0.0136783,909,484,0.141504,19.9868
-308,540,0.134949,-20.4657,-0.000724395,0.00724668,-0.00043612,0.00727047,-0.000748185,-1.5163,0.00511465,0.0135755,916,484,0.134966,20.4657
-301,540,0.108215,-20.923,-0.000427874,0.00515679,-0.000254774,0.00516838,-0.000439472,-1.5253,0.00360103,0.0134027,923,484,0.108239,20.923
-294,540,0.114868,-21.3795,-5.68155e-05,0.00328409,-1.91249e-05,0.0032842,-5.69251e-05,-1.56507,0.00220869,0.0112902,930,484,0.11486,21.3796
-287,540,0.115112,-21.8466,0.000326419,0.00173129,0.00026468,0.0017795,0.000278207,1.39062,0.00110533,0.00825049,937,484,0.115102,21.8466
-280,540,0.102051,-22.3069,0.000744484,0.000195557,0.000515172,0.00105374,-0.000113703,0.540643,0.000743301,0.00948143,944,484,0.102069,22.3069
-273,540,0.0987549,-22.7458,0.00112007,-0.00113693,0.000881487,0.00142353,-0.0014404,0.331559,0.0016535,0.0116923,951,484,0.098741,22.7459
-266,540,0.0908813,-23.1931,0.00166275,-0.00253325,0.00143262,0.00210523,-0.00297572,0.299561,0.0029478,0.0126087,958,484,0.0908535,23.1931
-259,540,0.0825806,-23.6316,0.0023913,-0.00409122,0.00199568,0.00295642,-0.00465634,0.275946,0.0044316,0.0111965,965,484,0.0825729,23.6316
-252,540,0.0928345,-24.0423,0.00298739,-0.00625183,0.00277211,0.0037553,-0.00701974,0.270237,0.00631542,0.0108666,972,484,0.0928406,24.0423
-245,540,0.0978394,-24.4628,0.00366723,-0.00845796,0.00360489,0.00465803,-0.00944876,0.268224,0.00829963,0.0101753,979,484,0.0978582,24.4628
-238,540,0.0817261,-24.8668,0.00451064,-0.0111191,0.00453068,0.00572901,-0.0123374,0.262699,0.0106607,0.00902791,986,484,0.0817189,24.8668
-231,540,0.107971,-25.2738,0.00538637,-0.0139522,0.00545293,0.00681796,-0.0153838,0.256742,0.0131324,0.0153322,993,484,0.107953,25.2738
-224,540,0.102844,-25.6458,0.00605833,-0.0172264,0.00667835,0.00783778,-0.0190058,0.2604,0.015939,0.0274813,1000,484,0.102873,25.6458
-217,540,0.118164,-25.8353,0.00674219,-0.0205741,0.00808705,0.00895683,-0.0227887,0.267297,0.0188993,0.0392396,1007,484,0.118157,25.8353
-210,540,0.342285,-26.1185,0.00825256,-0.0217797,0.00820284,0.010347,-0.0238741,0.249987,0.0202656,0.0481906,1014,484,0.342307,26.1185
-203,540,0.163696,-26.0523,0,0,0,0,0,0,0,-1,1021,484,0.163708,26.0523
-196,540,-0.143799,-26.0272,0,0,0,0,0,0,0,-1,1028,484,-0.143848,26.0272
-189,540,-0.726807,-22.826,0,0,0,0,0,0,0,-1,1035,484,-0.72684,22.8259
-182,540,0.109375,-15.2948,0,0,0,0,0,0,0,-1,1042,484,0.109331,15.2948
-175,540,1.73413,-10.728,0,0,0,0,0,0,0,-1,1049,484,1.73414,10.728
-168,540,1.18164,-7.65347,0,0,0,0,0,0,0,-1,1056,484,1.18163,7.65347
-161,540,-0.405884,-9.86481,0,0,0,0,0,0,0,-1,1063,484,-0.405886,9.8648
-154,540,1.96863,-22.0727,0,0,0,0,0,0,0,-1,1070,484,1.96859,22.0727
-147,540,1.32764,-21.9952,0,0,0,0,0,0,0,-1,1077,484,1.32762,21.9952
-140,540,1.40735,-15.6289,0,0,0,0,0,0,0,-1,1084,484,1.4073,15.6289
-133,540,2.28345,-17.6413,0,0,0,0,0,0,0,-1,1091,484,2.2835,17.6413
-126,540,1.25293,-23.9108,0,0,0,0,0,0,0,-1,1098,484,1.25288,23.9108
-119,540,1.55969,-23.0125,0,0,0,0,0,0,0,-1,1105,484,1.55968,23.0125
-112,540,1.4801,-21.6515,0,0,0,0,0,0,0,-1,1112,484,1.4801,21.6515
-105,540,1.30078,-19.8938,0,0,0,0,0,0,0,-1,1119,484,1.30077,19.8938
-98,540,1.08105,-18.1304,0,0,0,0,0,0,0,-1,1126,484,1.08101,18.1304
-91,540,1.56519,-7.48666,0,0,0,0,0,0,0,-1,1133,484,1.56514,7.48667
-84,540,-0.945923,4.43073,0,0,0,0,0,0,0,-1,1140,484,-0.945891,-4.43074
-77,540,-2.28894,2.14368,0,0,0,0,0,0,0,-1,1147,484,-2.28894,-2.14368
-70,540,-3.75244,-0.452576,0,0,0,0,0,0,0,-1,1154,484,-3.75244,0.452576
-63,540,-5.26257,-3.04767,0,0,0,0,0,0,0,-1,1161,484,-5.26262,3.04766
-56,540,-5.19055,-6.12595,0,0,0,0,0,0,0,-1,1168,484,-5.19057,6.12595
-49,540,-5.63867,-8.52298,0,0,0,0,0,0,0,-1,1175,484,-5.63871,8.52298
-42,540,0,0,0,0,0,0,0,0,0,-1,1182,484,0,0
-35,540,0,0,0,0,0,0,0,0,0,-1,1189,484,0,0
-28,540,0,0,0,0,0,0,0,0,0,-1,1196,484,0,0
-21,540,0,0,0,0,0,0,0,0,0,-1,1203,484,0,0
-14,540,0,0,0,0,0,0,0,0,0,-1,1210,484,0,0
-7,540,0,0,0,0,0,0,0,0,0,-1,1217,484,0,0
0,540,0,0,0,0,0,0,0,0,0,-1,1224,484,0,0
7,540,0,0,0,0,0,0,0,0,0,-1,1231,484,0,0
14,540,0,0,0,0,0,0,0,0,0,-1,1238,484,0,0
21,540,0,0,0,0,0,0,0,0,0,-1,1245,484,0,0
28,540,0,0,0,0,0,0,0,0,0,-1,1252,484,0,0
35,540,0,0,0,0,0,0,0,0,0,-1,1259,484,0,0
42,540,0,0,0,0,0,0,0,0,0,-1,1266,484,0,0
49,540,0,0,0,0,0,0,0,0,0,-1,1273,484,0,0
56,540,0,0,0,0,0,0,0,0,0,-1,1280,484,0,0
63,540,0,0,0,0,0,0,0,0,0,-1,1287,484,0,0
70,540,0,0,0,0,0,0,0,0,0,-1,1294,484,0,0
77,540,0,0,0,0,0,0,0,0,0,-1,1301,484,0,0
84,540,0,0,0,0,0,0,0,0,0,-1,1308,484,0,0
91,540,0,0,0,0,0,0,0,0,0,-1,1315,484,0,0
98,540,0,0,0,0,0,0,0,0,0,-1,1322,484,0,0
105,540,0,0,0,0,0,0,0,0,0,-1,1329,484,0,0
112,540,0,0,0,0,0,0,0,0,0,-1,1336,484,0,0
119,540,0,0,0,0,0,0,0,0,0,-1,1343,484,0,0
126,540,0,0,0,0,0,0,0,0,0,-1,1350,484,0,0
133,540,0,0,0,0,0,0,0,0,0,-1,1357,484,0,0
140,540,0,0,0,0,0,0,0,0,0,-1,1364,484,0,0
147,540,0,0,0,0,0,0,0,0,0,-1,1371,484,0,0
154,540,0,0,0,0,0,0,0,0,0,-1,1378,484,0,0
161,540,0,0,0,0,0,0,0,0,0,-1,1385,484,0,0
168,540,3.05078,-0.0010376,0,0,0,0,0,0,0,-1,1392,484,3.05084,0.00102554
175,540,3.37708,0.617035,0,0,0,0,0,0,0,-1,1399,484,3.37707,-0.617046
182,540,3.32678,1.23267,0,0,0,0,0,0,0,-1,1406,484,3.32678,-1.23266
189,540,3.5813,2.15619,0,0,0,0,0,0,0,-1,1413,484,3.58129,-2.1562
196,540,1.84448,-0.801483,0,0,0,0,0,0,0,-1,1420,484,1.84446,0.80148
203,540,4.14648,0.702087,0,0,0,0,0,0,0,-1,1427,484,4.14645,-0.702089
210,540,4.50671,-0.56076,0,0,0,0,0,0,0,-1,1434,484,4.50667,0.560771
217,540,5.00452,-0.278717,0,0,0,0,0,0,0,-1,1441,484,5.00452,0.278709
224,540,6.44458,-2.83527,0,0,0,0,0,0,0,-1,1448,484,6.44457,2.83525
231,540,6.9231,-3.10504,0,0,0,0,0,0,0,-1,1455,484,6.92307,3.10505
238,540,6.4823,-2.58365,0,0,0,0,0,0,0,-1,1462,484,6.48225,2.58363
245,540,6.02087,-1.97916,0,0,0,0,0,0,0,-1,1469,484,6.02088,1.97915
252,540,6.50647,-3.56006,0,0,0,0,0,0,0,-1,1476,484,6.50649,3.56006
259,540,6.01941,-2.798,0,0,0,0,0,0,0,-1,1483,484,6.01941,2.79801
266,540,5.5332,-2.02853,0,0,0,0,0,0,0,-1,1490,484,5.53323,2.02855
273,540,5.06787,-1.28137,0,0,0,0,0,0,0,-1,1497,484,5.06786,1.28136
280,540,1.62903,-2.14609,0,0,0,0,0,0,0,-1,1504,484,1.62906,2.1461
287,540,1.97156,-2.45053,0,0,0,0,0,0,0,-1,1511,484,1.97159,2.45053
294,540,2.44165,-2.6185,0,0,0,0,0,0,0,-1,1518,484,2.44167,2.6185
301,540,4.36169,-2.54272,0,0,0,0,0,0,0,-1,1525,484,4.36165,2.54272
308,540,4.2019,-4.30469,0,0,0,0,0,0,0,-1,1532,484,4.20193,4.3047
315,540,4.45923,-5.32101,0,0,0,0,0,0,0,-1,1539,484,4.45923,5.32103
322,540,4.71655,-6.33737,0,0,0,0,0,0,0,-1,1546,484,4.71653,6.33736
329,540,5.8949,-12.9383,0,0,0,0,0,0,0,-1,1553,484,5.89492,12.9383
336,540,7.16467,-17.7826,0,0,0,0,0,0,0,-1,1560,484,7.16469,17.7826
343,540,9.86487,-25.6389,0,0,0,0,0,0,0,-1,1567,484,9.86482,25.6389
350,540,9.75195,-24.3629,0.000105849,-0.00989562,-0.00750801,0.00412606,-0.0139158,-0.491609,0.0109157,0.0488441,1574,484,9.75196,24.3629
357,540,9.77271,-24.2594,-0.000146085,-0.00781709,-0.00645199,0.00352436,-0.0114875,-0.517227,0.00906448,0.0379274,1581,484,9.77267,24.2594
364,540,9.61938,-23.943,-0.000106889,-0.00603711,-0.0053247,0.00302262,-0.00916662,-0.531351,0.0073294,0.0219994,1588,484,9.61936,23.943
371,540,9.62219,-23.5536,5.34394e-05,-0.00442996,-0.00419635,0.00256932,-0.00694584,-0.540081,0.00568398,0.0150518,1595,484,9.62219,23.5536
378,540,9.63696,-23.1247,0.000210996,-0.00289794,-0.00313599,0.00215664,-0.00484359,-0.555303,0.00413964,0.0128185,1602,484,9.63693,23.1247
385,540,9.65308,-22.6522,0.000413365,-0.00139242,-0.00210008,0.00179642,-0.00277547,-0.582378,0.00265968,0.0142687,1609,484,9.65308,22.6522
392,540,9.65027,-22.1723,0.000542103,-0.000391733,-0.00130778,0.00146381,-0.00131344,-0.613935,0.00160423,0.0131092,1616,484,9.65024,22.1723
399,540,9.61609,-21.7175,0.000625018,0.000286258,-0.000640875,0.00111852,-0.000207243,-0.656205,0.000823499,0.0162787,1623,484,9.61609,21.7175
406,540,9.60522,-21.249,0.000658136,0.00142786,5.24155e-05,0.00143141,0.000654583,1.50312,0.000827428,0.0172086,1630,484,9.60522,21.249
413,540,9.59863,-20.7586,0.000641614,0.00215171,0.000572831,0.00234441,0.000448911,1.24628,0.00143687,0.0136672,1637,484,9.59862,20.7586
420,540,9.62512,-20.2678,0.000590422,0.00266669,0.000936246,0.00302651,0.0002306,1.20388,0.00194537,0.0119193,1644,484,9.62507,20.2678
427,540,9.58667,-19.7946,0.000445041,0.00339658,0.00125783,0.00385989,-1.82716e-05,1.21788,0.00257937,0.0123771,1651,484,9.58667,19.7946
434,540,9.55872,-19.308,0.000265939,0.00415817,0.00155417,0.0047026,-0.000278492,1.23385,0.0032319,0.015209,1658,484,9.55869,19.308
441,540,9.58105,-18.807,0.000125788,0.00491197,0.00183214,0.00553279,-0.000495026,1.24409,0.00386412,0.0177984,1665,484,9.5811,18.807
448,540,9.54089,-18.3366,5.18246e-05,0.00560039,0.00207734,0.00629194,-0.000639726,1.24943,0.00442332,0.0116806,1672,484,9.54083,18.3366
455,540,9.52539,-17.8132,5.07628e-05,0.00616394,0.00231559,0.00694202,-0.000727319,1.24663,0.00488852,0.0107963,1679,484,9.52539,17.8132
462,540,9.48633,-17.287,0.000137803,0.00649213,0.00256782,0.00740007,-0.00077014,1.23093,0.00520911,0.0107393,1686,484,9.48635,17.2869
469,540,9.45117,-16.7742,0.000253543,0.00657325,0.00273461,0.00759224,-0.000765452,1.21411,0.00533498,0.0136218,1693,484,9.45119,16.7742
476,540,9.47888,-16.2684,0.000157762,0.00627401,0.00281581,0.00737292,-0.000941143,1.19871,0.00525715,0.0182118,1700,484,9.47892,16.2684
483,540,9.55066,-15.7346,5.77019e-05,0.0056989,0.00285987,0.0068951,-0.00113849,1.17464,0.00501945,0.03217,1707,484,9.55063,15.7346
490,540,9.72888,-15.0727,0,0,0,0,0,0,0,-1,1714,484,9.72891,15.0727
497,540,9.5481,-14.8421,0,0,0,0,0,0,0,-1,1721,484,9.54805,14.8421
504,540,5.96704,-6.98599,0,0,0,0,0,0,0,-1,1728,484,5.96708,6.98598
511,540,5.82471,-6.83521,0,0,0,0,0,0,0,-1,1735,484,5.82465,6.83522
518,540,9.98181,-12.4608,0,0,0,0,0,0,0,-1,1742,484,9.98187,12.4608
525,540,8.64587,-13.3445,0,0,0,0,0,0,0,-1,1749,484,8.64585,13.3445
532,540,2.84265,-1.07925,0,0,0,0,0,0,0,-1,1756,484,2.84269,1.07927
539,540,0,0,0,0,0,0,0,0,0,-1,1763,484,0,0
546,540,0,0,0,0,0,0,0,0,0,-1,1770,484,0,0
553,540,0,0,0,0,0,0,0,0,0,-1,1777,484,0,0
560,540,0,0,0,0,0,0,0,0,0,-1,1784,484,0,0
567,540,0,0,0,0,0,0,0,0,0,-1,1791,484,0,0
574,540,0,0,0,0,0,0,0,0,0,-1,1798,484,0,0
581,540,0,0,0,0,0,0,0,0,0,-1,1805,484,0,0
588,540,0,0,0,0,0,0,0,0,0,-1,1812,484,0,0
595,540,0,0,0,0,0,0,0,0,0,-1,1819,484,0,0
602,540,0,0,0,0,0,0,0,0,0,-1,1826,484,0,0
609,540,0,0,0,0,0,0,0,0,0,-1,1833,484,0,0
616,540,0,0,0,0,0,0,0,0,0,-1,1840,484,0,0
623,540,0,0,0,0,0,0,0,0,0,-1,1847,484,0,0
630,540,0,0,0,0,0,0,0,0,0,-1,1854,484,0,0
637,540,0,0,0,0,0,0,0,0,0,-1,1861,484,0,0
644,540,0,0,0,0,0,0,0,0,0,-1,1868,484,0,0
651,540,0,0,0,0,0,0,0,0,0,-1,1875,484,0,0
658,540,0,0,0,0,0,0,0,0,0,-1,1882,484,0,0
665,540,0,0,0,0,0,0,0,0,0,-1,1889,484,0,0
672,540,0,0,0,0,0,0,0,0,0,-1,1896,484,0,0
679,540,0,0,0,0,0,0,0,0,0,-1,1903,484,0,0
686,540,0,0,0,0,0,0,0,0,0,-1,1910,484,0,0
693,540,0,0,0,0,0,0,0,0,0,-1,1917,484,0,0
700,540,0,0,0,0,0,0,0,0,0,-1,1924,484,0,0
707,540,0,0,0,0,0,0,0,0,0,-1,1931,484,0,0
714,540,0,0,0,0,0,0,0,0,0,-1,1938,484,0,0
721,540,0,0,0,0,0,0,0,0,0,-1,1945,484,0,0
728,540,0,0,0,0,0,0,0,0,0,-1,1952,484,0,0
735,540,0,0,0,0,0,0,0,0,0,-1,1959,484,0,0
742,540,0,0,0,0,0,0,0,0,0,-1,1966,484,0,0
749,540,0,0,0,0,0,0,0,0,0,-1,1973,484,0,0
756,540,0,0,0,0,0,0,0,0,0,-1,1980,484,0,0
763,540,0,0,0,0,0,0,0,0,0,-1,1987,484,0,0
770,540,0,0,0,0,0,0,0,0,0,-1,1994,484,0,0
777,540,0,0,0,0,0,0,0,0,0,-1,2001,484,0,0
784,540,0,0,0,0,0,0,0,0,0,-1,2008,484,0,0
791,540,0,0,0,0,0,0,0,0,0,-1,2015,484,0,0
798,540,0,0,0,0,0,0,0,0,0,-1,2022,484,0,0
805,540,0,0,0,0,0,0,0,0,0,-1,2029,484,0,0
812,540,0,0,0,0,0,0,0,0,0,-1,2036,484,0,0
-700,533,0,0,0,0,0,0,0,0,0,-1,524,491,0,0
-693,533,0,0,0,0,0,0,0,0,0,-1,531,491,0,0
-686,533,0,0,0,0,0,0,0,0,0,-1,538,491,0,0
-679,533,0,0,0,0,0,0,0,0,0,-1,545,491,0,0
-672,533,0,0,0,0,0,0,0,0,0,-1,552,491,0,0
-665,533,0,0,0,0,0,0,0,0,0,-1,559,491,0,0
-658,533,0,0,0,0,0,0,0,0,0,-1,566,491,0,0
-651,533,0,0,0,0,0,0,0,0,0,-1,573,491,0,0
-644,533,0,0,0,0,0,0,0,0,0,-1,580,491,0,0
-637,533,0,0,0,0,0,0,0,0,0,-1,587,491,0,0
-630,533,0,0,0,0,0,0,0,0,0,-1,594,491,0,0
-623,533,0,0,0,0,0,0,0,0,0,-1,601,491,0,0
-616,533,0,0,0,0,0,0,0,0,0,-1,608,491,0,0
-609,533,0,0,0,0,0,0,0,0,0,-1,615,491,0,0
-602,533,0,0,0,0,0,0,0,0,0,-1,622,491,0,0
-595,533,0,0,0,0,0,0,0,0,0,-1,629,491,0,0
-588,533,0,0,0,0,0,0,0,0,0,-1,636,491,0,0
-581,533,0,0,0,0,0,0,0,0,0,-1,643,491,0,0
-574,533,0,0,0,0,0,0,0,0,0,-1,650,491,0,0
-567,533,0,0,0,0,0,0,0,0,0,-1,657,491,0,0
-560,533,0,0,0,0,0,0,0,0,0,-1,664,491,0,0
-553,533,0,0,0,0,0,0,0,0,0,-1,671,491,0,0
-546,533,0,0,0,0,0,0,0,0,0,-1,678,491,0,0
-539,533,0,0,0,0,0,0,0,0,0,-1,685,491,0,0
-532,533,0,0,0,0,0,0,0,0,0,-1,692,491,0,0
-525,533,0,0,0,0,0,0,0,0,0,-1,699,491,0,0
-518,533,0,0,0,0,0,0,0,0,0,-1,706,491,0,0
-511,533,0,0,0,0,0,0,0,0,0,-1,713,491,0,0
-504,533,0,0,0,0,0,0,0,0,0,-1,720,491,0,0
-497,533,0,0,0,0,0,0,0,0,0,-1,727,491,0,0
-490,533,0,0,0,0,0,0,0,0,0,-1,734,491,0,0
-483,533,0,0,0,0,0,0,0,0,0,-1,741,491,0,0
-476,533,0,0,0,0,0,0,0,0,0,-1,748,491,0,0
-469,533,0,0,0,0,0,0,0,0,0,-1,755,491,0,0
-462,533,0,0,0,0,0,0,0,0,0,-1,762,491,0,0
-455,533,0,0,0,0,0,0,0,0,0,-1,769,491,0,0
-448,533,0,0,0,0,0,0,0,0,0,-1,776,491,0,0
-441,533,0,0,0,0,0,0,0,0,0,-1,783,491,0,0
-434,533,0,0,0,0,0,0,0,0,0,-1,790,491,0,0
-427,533,0.559814,-4.40222,0,0,0,0,0,0,0,-1,797,491,0.559816,4.40222
-420,533,-1.11127,-10.9054,0,0,0,0,0,0,0,-1,804,491,-1.11124,10.9054
-413,533,-0.704773,-11.0942,0,0,0,0,0,0,0,-1,811,491,-0.704742,11.0942
-406,533,-0.670898,-12.0899,0,0,0,0,0,0,0,-1,818,491,-0.670908,12.0899
-399,533,-0.455017,-12.4423,0,0,0,0,0,0,0,-1,825,491,-0.455032,12.4423
-392,533,-1.89661,-10.3905,0,0,0,0,0,0,0,-1,832,491,-1.89661,10.3905
-385,533,-1.69116,-6.64645,0,0,0,0,0,0,0,-1,839,491,-1.69115,6.64645
-378,533,-0.31012,-14.9502,0,0,0,0,0,0,0,-1,846,491,-0.310127,14.9502
-371,533,-0.20813,-15.838,0,0,0,0,0,0,0,-1,853,491,-0.208109,15.838
-364,533,-0.157959,-16.3559,0.00530286,0.0211513,-0.00970567,0.0257568,0.000697377,-1.12774,0.0169435,0.0423912,860,491,-0.157979,16.3559
-357,533,-0.160095,-16.8858,0.00336266,0.0186176,-0.00727463,0.0215304,0.000449791,-1.18993,0.0142061,0.0232677,867,491,-0.160072,16.8858
-350,533,-0.181396,-17.4865,0.00193338,0.0163347,-0.00526365,0.0180534,0.000214655,-1.25518,0.0119647,0.0137894,874,491,-0.181367,17.4864
-343,533,-0.223145,-18.035,0.000938577,0.0140113,-0.00364281,0.0149578,-7.98283e-06,-1.31658,0.00997456,0.0122881,881,491,-0.223124,18.035
-336,533,-0.255981,-18.5365,0.000310765,0.012011,-0.00248674,0.0125176,-0.000195826,-1.36983,0.00841108,0.0152347,888,491,-0.255989,18.5365
-329,533,-0.277893,-19.0103,-0.000154663,0.00978287,-0.00146199,0.0099935,-0.000365285,-1.42772,0.00678737,0.0134955,895,491,-0.277899,19.0103
-322,533,-0.299255,-19.4834,-0.00041413,0.00780969,-0.000842481,0.00789511,-0.000499549,-1.46975,0.00543758,0.011456,902,491,-0.299251,19.4834
-315,533,-0.326965,-19.9717,-0.000326672,0.00601874,-0.00047934,0.00605475,-0.000362678,-1.49582,0.00416266,0.0129051,909,491,-0.326948,19.9717
-308,533,-0.340698,-20.4378,-7.73119e-05,0.00431023,-0.000224943,0.00432173,-8.88142e-05,-1.51971,0.00291121,0.0129411,916,491,-0.340685,20.4378
-301,533,-0.363464,-20.8993,0.000173471,0.00261658,6.07872e-05,0.0026181,0.00017196,1.54594,0.00169099,0.0139686,923,491,-0.363457,20.8993
-294,533,-0.343445,-21.3625,0.000516149,0.00113204,0.000365954,0.00130237,0.000345813,1.13516,0.000778998,0.01197,930,491,-0.343419,21.3625
-287,533,-0.327454,-21.8397,0.000907905,-0.000136076,0.000706786,0.00126456,-0.000492732,0.467334,0.00104669,0.00895306,937,491,-0.327444,21.8397
-280,533,-0.342651,-22.3065,0.00133301,-0.0015448,0.00102548,0.00166104,-0.00187282,0.309593,0.0020415,0.00869436,944,491,-0.342645,22.3065
-273,533,-0.359314,-22.7349,0.00169503,-0.00259454,0.00152434,0.00218154,-0.00308105,0.308942,0.00305312,0.0119005,951,491,-0.359287,22.7349
-266,533,-0.35144,-23.1642,0.00229899,-0.00392161,0.00221465,0.00300689,-0.00462951,0.30938,0.00444193,0.0110935,958,491,-0.351451,23.1642
-259,533,-0.345215,-23.606,0.00312821,-0.00557404,0.00285877,0.00398331,-0.00642915,0.290647,0.00606667,0.0114235,965,491,-0.345229,23.6059
-252,533,-0.346069,-24.0173,0.00379699,-0.00812507,0.00372459,0.00486493,-0.00919301,0.279236,0.00824358,0.0143816,972,491,-0.346086,24.0173
-245,533,-0.406433,-24.4064,0.00461921,-0.0108041,0.00470021,0.0059387,-0.0121236,0.273685,0.0106301,0.0213684,979,491,-0.406442,24.4064
-238,533,-0.299561,-24.7618,0.00568735,-0.0140946,0.00579854,0.00726174,-0.015669,0.265122,0.0135324,0.029114,986,491,-0.299548,24.7619
-231,533,-0.115967,-24.9399,0.00680604,-0.0177013,0.00693218,0.00863099,-0.0195263,0.257417,0.0166573,0.0489893,993,491,-0.115959,24.94
-224,533,-0.25946,-25.6603,0,0,0,0,0,0,0,-1,1000,491,-0.259433,25.6603
-217,533,-0.19043,-25.803,0,0,0,0,0,0,0,-1,1007,491,-0.190403,25.803
-210,533,0.269592,-26.108,0,0,0,0,0,0,0,-1,1014,491,0.269608,26.108
-203,533,1.02856,-25.6401,0,0,0,0,0,0,0,-1,1021,491,1.02856,25.6402
-196,533,0.688354,-19.5743,0,0,0,0,0,0,0,-1,1028,491,0.688406,19.5743
-189,533,-0.169189,-15.0303,0,0,0,0,0,0,0,-1,1035,491,-0.169241,15.0303
-182,533,1.26123,-11.4969,0,0,0,0,0,0,0,-1,1042,491,1.26128,11.4969
-175,533,0.937744,-7.36966,0,0,0,0,0,0,0,-1,1049,491,0.937769,7.36965
-168,533,2.64807,-2.7543,0,0,0,0,0,0,0,-1,1056,491,2.64812,2.7543
-161,533,1.91833,-1.76553,0,0,0,0,0,0,0,-1,1063,491,1.91836,1.76554
-154,533,0.376709,-11.0633,0,0,0,0,0,0,0,-1,1070,491,0.376715,11.0632
-147,533,0.383789,-12.1586,0,0,0,0,0,0,0,-1,1077,491,0.383829,12.1586
-140,533,1.14001,-15.4608,0,0,0,0,0,0,0,-1,1084,491,1.14005,15.4608
-133,533,0.189941,-16.0795,0,0,0,0,0,0,0,-1,1091,491,0.18994,16.0795
-126,533,2.89612,-2.59003,0,0,0,0,0,0,0,-1,1098,491,2.89608,2.59003
-119,533,1.78284,-22.5394,0,0,0,0,0,0,0,-1,1105,491,1.78279,22.5394
-112,533,1.83862,-21.2401,0,0,0,0,0,0,0,-1,1112,491,1.83859,21.24
-105,533,1.67554,-19.4018,0,0,0,0,0,0,0,-1,1119,491,1.6755,19.4018
-98,533,-1.39392,-5.16367,0,0,0,0,0,0,0,-1,1126,491,-1.39394,5.16367
-91,533,0.367432,4.49753,0,0,0,0,0,0,0,-1,1133,491,0.367468,-4.49754
-84,533,-0.88623,3.03604,0,0,0,0,0,0,0,-1,1140,491,-0.886288,-3.03605
-77,533,0,0,0,0,0,0,0,0,0,-1,1147,491,0,0
-70,533,0,0,0,0,0,0,0,0,0,-1,1154,491,0,0
-63,533,0,0,0,0,0,0,0,0,0,-1,1161,491,0,0
-56,533,0,0,0,0,0,0,0,0,0,-1,1168,491,0,0
-49,533,0,0,0,0,0,0,0,0,0,-1,1175,491,0,0
-42,533,0,0,0,0,0,0,0,0,0,-1,1182,491,0,0
-35,533,0,0,0,0,0,0,0,0,0,-1,1189,491,0,0
-28,533,0,0,0,0,0,0,0,0,0,-1,1196,491,0,0
-21,533,0,0,0,0,0,0,0,0,0,-1,1203,491,0,0
-14,533,0,0,0,0,0,0,0,0,0,-1,1210,491,0,0
-7,533,0,0,0,0,0,0,0,0,0,-1,1217,491,0,0
0,533,0,0,0,0,0,0,0,0,0,-1,1224,491,0,0
7,533,0,0,0,0,0,0,0,0,0,-1,1231,491,0,0
14,533,0,0,0,0,0,0,0,0,0,-1,1238,491,0,0
21,533,0,0,0,0,0,0,0,0,0,-1,1245,491,0,0
28,533,0,0,0,0,0,0,0,0,0,-1,1252,491,0,0
35,533,0,0,0,0,0,0,0,0,0,-1,1259,491,0,0
42,533,0,0,0,0,0,0,0,0,0,-1,1266,491,0,0
49,533,0,0,0,0,0,0,0,0,0,-1,1273,491,0,0
56,533,0,0,0,0,0,0,0,0,0,-1,1280,491,0,0
63,533,0,0,0,0,0,0,0,0,0,-1,1287,491,0,0
70,533,0,0,0,0,0,0,0,0,0,-1,1294,491,0,0
77,533,0,0,0,0,0,0,0,0,0,-1,1301,491,0,0
84,533,0,0,0,0,0,0,0,0,0,-1,1308,491,0,0
91,533,0,0,0,0,0,0,0,0,0,-1,1315,491,0,0
98,533,0,0,0,0,0,0,0,0,0,-1,1322,491,0,0
105,533,0,0,0,0,0,0,0,0,0,-1,1329,491,0,0
112,533,0,0,0,0,0,0,0,0,0,-1,1336,491,0,0
119,533,0,0,0,0,0,0,0,0,0,-1,1343,491,0,0
126,533,0,0,0,0,0,0,0,0,0,-1,1350,491,0,0
133,533,0,0,0,0,0,0,0,0,0,-1,1357,491,0,0
140,533,0,0,0,0,0,0,0,0,0,-1,1364,491,0,0
147,533,0,0,0,0,0,0,0,0,0,-1,1371,491,0,0
154,533,0,0,0,0,0,0,0,0,0,-1,1378,491,0,0
161,533,0,0,0,0,0,0,0,0,0,-1,1385,491,0,0
168,533,0,0,0,0,0,0,0,0,0,-1,1392,491,0,0
175,533,0,0,0,0,0,0,0,0,0,-1,1399,491,0,0
182,533,0,0,0,0,0,0,0,0,0,-1,1406,491,0,0
189,533,0,0,0,0,0,0,0,0,0,-1,1413,491,0,0
196,533,0,0,0,0,0,0,0,0,0,-1,1420,491,0,0
203,533,3.7887,1.16193,0,0,0,0,0,0,0,-1,1427,491,3.78872,-1.16193
210,533,5.09558,-0.216034,0,0,0,0,0,0,0,-1,1434,491,5.09559,0.216028
217,533,6.91614,-2.46814,0,0,0,0,0,0,0,-1,1441,491,6.91618,2.46814
224,533,7.23621,-2.1857,0,0,0,0,0,0,0,-1,1448,491,7.23621,2.1857
231,533,7.23474,-1.92282,0,0,0,0,0,0,0,-1,1455,491,7.2347,1.92282
238,533,7.23535,-1.67258,0,0,0,0,0,0,0,-1,1462,491,7.23539,1.67258
245,533,6.86682,-1.2301,0,0,0,0,0,0,0,-1,1469,491,6.86686,1.23011
252,533,6.63354,-3.07825,0,0,0,0,0,0,0,-1,1476,491,6.6335,3.07824
259,533,6.16431,-2.35037,0,0,0,0,0,0,0,-1,1483,491,6.1643,2.35037
266,533,5.68884,-1.6214,0,0,0,0,0,0,0,-1,1490,491,5.68885,1.6214
273,533,5.21399,-0.864227,0,0,0,0,0,0,0,-1,1497,491,5.21403,0.864227
280,533,1.41089,-1.97946,0,0,0,0,0,0,0,-1,1504,491,1.41087,1.97946
287,533,1.6814,-2.44443,0,0,0,0,0,0,0,-1,1511,491,1.6814,2.44444
294,533,2.2384,-2.57626,0,0,0,0,0,0,0,-1,1518,491,2.23839,2.57625
301,533,3.39941,-4.0817,0,0,0,0,0,0,0,-1,1525,491,3.3994,4.08171
308,533,4.13733,-4.14752,0,0,0,0,0,0,0,-1,1532,491,4.13727,4.14752
315,533,4.80762,-5.29349,0,0,0,0,0,0,0,-1,1539,491,4.80762,5.29347
322,533,5.47803,-6.43942,0,0,0,0,0,0,0,-1,1546,491,5.47798,6.43943
329,533,3.88477,-3.86301,0,0,0,0,0,0,0,-1,1553,491,3.88475,3.86299
336,533,6.70923,-13.2003,0,0,0,0,0,0,0,-1,1560,491,6.70926,13.2004
343,533,7.06677,-17.1133,0,0,0,0,0,0,0,-1,1567,491,7.06673,17.1133
350,533,10.0876,-23.7254,0,0,0,0,0,0,0,-1,1574,491,10.0877,23.7254
357,533,10.2983,-24.0888,0,0,0,0,0,0,0,-1,1581,491,10.2983,24.0888
364,533,10.1903,-23.7567,-0.00068492,-0.00742257,-0.00688785,0.00361381,-0.0117213,-0.557955,0.00925701,0.0435159,1588,491,10.1903,23.7567
371,533,10.0631,-23.4893,-0.000313569,-0.00535627,-0.00542679,0.003149,-0.00881884,-0.567929,0.00716344,0.038125,1595,491,10.0631,23.4893
378,533,10.0626,-23.0703,2.9627e-05,-0.0034385,-0.0040724,0.00272178,-0.00613066,-0.58412,0.00523575,0.0279328,1602,491,10.0627,23.0702
385,533,10.1382,-22.6087,0.000419254,-0.00171911,-0.0027603,0.00231021,-0.00361007,-0.600624,0.00344543,0.02253,1609,491,10.1382,22.6087
392,533,10.1096,-22.1785,0.000650232,-0.00061852,-0.00184587,0.00196769,-0.00193598,-0.619884,0.00225381,0.0142334,1616,491,10.1096,22.1785
399,533,10.109,-21.7358,0.000814752,-1.72911e-05,-0.00116452,0.00163534,-0.000837874,-0.613841,0.00145244,0.0125599,1623,491,10.1091,21.7358
406,533,10.0917,-21.2603,0.000952153,0.0010586,-0.000416962,0.00142572,0.000585031,-0.848879,0.000827541,0.0149882,1630,491,10.0916,21.2603
413,533,10.0894,-20.7513,0.00105404,0.00149034,0.000146352,0.00153489,0.0010095,1.27534,0.000900739,0.0135871,1637,491,10.0894,20.7513
420,533,10.0955,-20.2604,0.00107321,0.00179936,0.000521359,0.00207161,0.000800959,1.08955,0.00120625,0.012024,1644,491,10.0955,20.2604
427,533,10.0699,-19.7705,0.000918414,0.00235238,0.000831649,0.00273345,0.000537352,1.14114,0.00167221,0.0120565,1651,491,10.0699,19.7705
434,533,10.0413,-19.2962,0.000734481,0.00291231,0.00110005,0.00337124,0.000275547,1.17555,0.00216151,0.0124003,1658,491,10.0412,19.2962
441,533,10.0403,-18.8066,0.000604698,0.00345444,0.00136219,0.00400081,5.83208e-05,1.18934,0.00264798,0.0148708,1665,491,10.0403,18.8066
448,533,10.0348,-18.3254,0.000562216,0.00391834,0.00160746,0.00456403,-8.34758e-05,1.18884,0.00307089,0.0168571,1672,491,10.0348,18.3254
455,533,10.0162,-17.8234,0.000566634,0.00430272,0.00184721,0.00506179,-0.000192445,1.1809,0.00344047,0.0169444,1679,491,10.0163,17.8234
462,533,9.98071,-17.2639,0.000620926,0.00447,0.00210133,0.00539492,-0.000303998,1.15615,0.00370211,0.0147074,1686,491,9.98066,17.2639
469,533,9.98132,-16.7731,0.000670663,0.00444429,0.00228282,0.00551912,-0.000404165,1.13075,0.00382126,0.0093061,1693,491,9.98133,16.7731
476,533,9.99573,-16.2446,0.000490914,0.00410222,0.00237993,0.00528394,-0.000690813,1.10992,0.00377403,0.0106927,1700,491,9.99574,16.2446
483,533,10.0171,-15.669,0.000299718,0.00356113,0.00243814,0.00486363,-0.00100279,1.08015,0.00362324,0.0176504,1707,491,10.0171,15.6691
490,533,10.0845,-15.2173,-1.71711e-05,0.00266609,0.00252487,0.00418365,-0.00153473,1.02961,0.00341754,0.0439087,1714,491,10.0845,15.2173
497,533,10.0824,-14.6015,0,0,0,0,0,0,0,-1,1721,491,10.0824,14.6015
504,533,10.0835,-13.9882,0,0,0,0,0,0,0,-1,1728,491,10.0835,13.9882
511,533,10.1285,-13.5117,0,0,0,0,0,0,0,-1,1735,491,10.1286,13.5117
518,533,10.1597,-12.9241,0,0,0,0,0,0,0,-1,1742,491,10.1597,12.9241
525,533,11.2471,-12.6219,0,0,0,0,0,0,0,-1,1749,491,11.2471,12.6219
532,533,8.45972,-12.6109,0,0,0,0,0,0,0,-1,1756,491,8.45969,12.6109
539,533,3.61609,1.62427,0,0,0,0,0,0,0,-1,1763,491,3.61606,-1.62426
546,533,3.59607,1.65799,0,0,0,0,0,0,0,-1,1770,491,3.59605,-1.658
553,533,0,0,0,0,0,0,0,0,0,-1,1777,491,0,0
560,533,0,0,0,0,0,0,0,0,0,-1,1784,491,0,0
567,533,0,0,0,0,0,0,0,0,0,-1,1791,491,0,0
574,533,0,0,0,0,0,0,0,0,0,-1,1798,491,0,0
581,533,0,0,0,0,0,0,0,0,0,-1,1805,491,0,0
588,533,0,0,0,0,0,0,0,0,0,-1,1812,491,0,0
595,533,0,0,0,0,0,0,0,0,0,-1,1819,491,0,0
602,533,0,0,0,0,0,0,0,0,0,-1,1826,491,0,0
609,533,0,0,0,0,0,0,0,0,0,-1,1833,491,0,0
616,533,0,0,0,0,0,0,0,0,0,-1,1840,491,0,0
623,533,0,0,0,0,0,0,0,0,0,-1,1847,491,0,0
630,533,0,0,0,0,0,0,0,0,0,-1,1854,491,0,0
637,533,0,0,0,0,0,0,0,0,0,-1,1861,491,0,0
644,533,0,0,0,0,0,0,0,0,0,-1,1868,491,0,0
651,533,0,0,0,0,0,0,0,0,0,-1,1875,491,0,0
658,533,0,0,0,0,0,0,0,0,0,-1,1882,491,0,0
665,533,0,0,0,0,0,0,0,0,0,-1,1889,491,0,0
672,533,0,0,0,0,0,0,0,0,0,-1,1896,491,0,0
679,533,0,0,0,0,0,0,0,0,0,-1,1903,491,0,0
686,533,0,0,0,0,0,0,0,0,0,-1,1910,491,0,0
693,533,0,0,0,0,0,0,0,0,0,-1,1917,491,0,0
700,533,0,0,0,0,0,0,0,0,0,-1,1924,491,0,0
707,533,0,0,0,0,0,0,0,0,0,-1,1931,491,0,0
714,533,0,0,0,0,0,0,0,0,0,-1,1938,491,0,0
721,533,0,0,0,0,0,0,0,0,0,-1,1945,491,0,0
728,533,0,0,0,0,0,0,0,0,0,-1,1952,491,0,0
735,533,0,0,0,0,0,0,0,0,0,-1,1959,491,0,0
742,533,0,0,0,0,0,0,0,0,0,-1,1966,491,0,0
749,533,0,0,0,0,0,0,0,0,0,-1,1973,491,0,0
756,533,0,0,0,0,0,0,0,0,0,-1,1980,491,0,0
763,533,0,0,0,0,0,0,0,0,0,-1,1987,491,0,0
770,533,0,0,0,0,0,0,0,0,0,-1,1994,491,0,0
777,533,0,0,0,0,0,0,0,0,0,-1,2001,491,0,0
784,533,0,0,0,0,0,0,0,0,0,-1,2008,491,0,0
791,533,0,0,0,0,0,0,0,0,0,-1,2015,491,0,0
798,533,0,0,0,0,0,0,0,0,0,-1,2022,491,0,0
805,533,0,0,0,0,0,0,0,0,0,-1,2029,491,0,0
812,533,0,0,0,0,0,0,0,0,0,-1,2036,491,0,0
-700,526,0,0,0,0,0,0,0,0,0,-1,524,498,0,0
-693,526,0,0,0,0,0,0,0,0,0,-1,531,498,0,0
-686,526,0,0,0,0,0,0,0,0,0,-1,538,498,0,0
-679,526,0,0,0,0,0,0,0,0,0,-1,545,498,0,0
-672,526,0,0,0,0,0,0,0,0,0,-1,552,498,0,0
-665,526,0,0,0,0,0,0,0,0,0,-1,559,498,0,0
-658,526,0,0,0,0,0,0,0,0,0,-1,566,498,0,0
-651,526,0,0,0,0,0,0,0,0,0,-1,573,498,0,0
-644,526,0,0,0,0,0,0,0,0,0,-1,580,498,0,0
-637,526,0,0,0,0,0,0,0,0,0,-1,587,498,0,0
-630,526,0,0,0,0,0,0,0,0,0,-1,594,498,0,0
-623,526,0,0,0,0,0,0,0,0,0,-1,601,498,0,0
-616,526,0,0,0,0,0,0,0,0,0,-1,608,498,0,0
-609,526,0,0,0,0,0,0,0,0,0,-1,615,498,0,0
-602,526,0,0,0,0,0,0,0,0,0,-1,622,498,0,0
-595,526,0,0,0,0,0,0,0,0,0,-1,629,498,0,0
-588,526,0,0,0,0,0,0,0,0,0,-1,636,498,0,0
-581,526,0,0,0,0,0,0,0,0,0,-1,643,498,0,0
-574,526,0,0,0,0,0,0,0,0,0,-1,650,498,0,0
-567,526,0,0,0,0,0,0,0,0,0,-1,657,498,0,0
-560,526,0,0,0,0,0,0,0,0,0,-1,664,498,0,0
-553,526,0,0,0,0,0,0,0,0,0,-1,671,498,0,0
-546,526,0,0,0,0,0,0,0,0,0,-1,678,498,0,0
-539,526,0,0,0,0,0,0,0,0,0,-1,685,498,0,0
-532,526,0,0,0,0,0,0,0,0,0,-1,692,498,0,0
-525,526,0,0,0,0,0,0,0,0,0,-1,699,498,0,0
-518,526,0,0,0,0,0,0,0,0,0,-1,706,498,0,0
-511,526,0,0,0,0,0,0,0,0,0,-1,713,498,0,0
-504,526,0,0,0,0,0,0,0,0,0,-1,720,498,0,0
-497,526,0,0,0,0,0,0,0,0,0,-1,727,498,0,0
-490,526,0,0,0,0,0,0,0,0,0,-1,734,498,0,0
-483,526,0,0,0,0,0,0,0,0,0,-1,741,498,0,0
-476,526,0,0,0,0,0,0,0,0,0,-1,748,498,0,0
-469,526,0,0,0,0,0,0,0,0,0,-1,755,498,0,0
-462,526,0,0,0,0,0,0,0,0,0,-1,762,498,0,0
-455,526,0,0,0,0,0,0,0,0,0,-1,769,498,0,0
-448,526,0,0,0,0,0,0,0,0,0,-1,776,498,0,0
-441,526,0,0,0,0,0,0,0,0,0,-1,783,498,0,0
-434,526,-0.153564,-5.96649,0,0,0,0,0,0,0,-1,790,498,-0.153589,5.9665
-427,526,1.23206,-4.59808,0,0,0,0,0,0,0,-1,797,498,1.23208,4.59809
-420,526,-1.76373,-11.6241,0,0,0,0,0,0,0,-1,804,498,-1.76373,11.6241
-413,526,-1.38965,-11.7916,0,0,0,0,0,0,0,-1,811,498,-1.38963,11.7916
-406,526,-1.35187,-12.5182,0,0,0,0,0,0,0,-1,818,498,-1.35185,12.5181
-399,526,-1.32715,-13.2116,0,0,0,0,0,0,0,-1,825,498,-1.32713,13.2116
-392,526,-2.27356,-11.5593,0,0,0,0,0,0,0,-1,832,498,-2.27357,11.5593
-385,526,-1.20795,-14.4767,0,0,0,0,0,0,0,-1,839,498,-1.20793,14.4768
-378,526,-0.85498,-15.0681,0.00826134,0.0201597,-0.0143917,0.0297834,-0.00136229,-0.981391,0.0203249,0.048262,846,498,-0.854963,15.068
-371,526,-0.645813,-15.799,0.00628164,0.0179046,-0.0111645,0.0246796,-0.000493342,-1.02537,0.0166199,0.0353909,853,498,-0.645834,15.799
-364,526,-0.675659,-16.3967,0.00453816,0.0157555,-0.00853946,0.0203635,-6.98045e-05,-1.07597,0.013599,0.0180658,860,498,-0.675678,16.3966
-357,526,-0.662231,-16.9691,0.00309404,0.0136191,-0.00647234,0.0166984,1.47959e-05,-1.12673,0.0111273,0.0124455,867,498,-0.662243,16.9691
-350,526,-0.674133,-17.5049,0.00200388,0.0116801,-0.00474568,0.013619,6.49081e-05,-1.18292,0.0090578,0.0120502,874,498,-0.674137,17.5049
-343,526,-0.727112,-18.0224,0.00122251,0.0097138,-0.00329646,0.0108433,9.30098e-05,-1.24069,0.00719806,0.0159575,881,498,-0.727101,18.0224
-336,526,-0.743713,-18.4865,0.000731476,0.00804585,-0.00223983,0.00867724,0.000100088,-1.29604,0.00575175,0.0154661,888,498,-0.743693,18.4864
-329,526,-0.743042,-18.9738,0.000389533,0.00620913,-0.00130916,0.00649007,0.000108588,-1.3594,0.00429098,0.0151025,895,498,-0.743058,18.9737
-322,526,-0.755371,-19.4427,0.000208643,0.004608,-0.000721598,0.00472334,9.33073e-05,-1.4123,0.00311825,0.0105023,902,498,-0.755365,19.4428
-315,526,-0.782227,-19.9482,0.00031388,0.00318757,-0.000338592,0.00322692,0.000274524,-1.45508,0.00206586,0.00933696,909,498,-0.7822,19.9482
-308,526,-0.796204,-20.4428,0.00056096,0.00181755,-4.34503e-05,0.00181905,0.000559459,-1.53627,0.00107585,0.00893429,916,498,-0.796228,20.4428
-301,526,-0.815552,-20.8979,0.000782588,0.000415321,0.000304978,0.00095495,0.000242959,0.51441,0.00057308,0.0107602,923,498,-0.815539,20.898
-294,526,-0.798767,-21.3375,0.00109936,-0.000749146,0.000649653,0.00130484,-0.000954625,0.306334,0.00130971,0.00969273,930,498,-0.798788,21.3375
-287,526,-0.813293,-21.7902,0.00149109,-0.00177904,0.00103407,0.00179064,-0.00207859,0.281964,0.00223596,0.00902929,937,498,-0.813316,21.7902
-280,526,-0.839172,-22.249,0.00190965,-0.00310144,0.0014326,0.00229029,-0.00348208,0.259702,0.00335628,0.012377,944,498,-0.839186,22.249
-273,526,-0.836243,-22.7053,0.00226457,-0.00388285,0.00207436,0.00289905,-0.00451733,0.29683,0.00431569,0.0107791,951,498,-0.836268,22.7052
-266,526,-0.827454,-23.1361,0.00294483,-0.0051403,0.00293674,0.00389894,-0.00609441,0.314131,0.00581589,0.0114708,958,498,-0.827453,23.1361
-259,526,-0.779907,-23.5518,0.00390395,-0.00689759,0.00370189,0.00505087,-0.00804452,0.300443,0.0076262,0.0245983,965,498,-0.779889,23.5518
-252,526,-0.866882,-23.7889,0.00466484,-0.00992388,0.00470948,0.00605305,-0.0113121,0.28665,0.0101779,0.0413183,972,498,-0.866862,23.7889
-245,526,-0.865784,-24.3531,0,0,0,0,0,0,0,-1,979,498,-0.865767,24.3532
-238,526,-0.715454,-24.7042,0,0,0,0,0,0,0,-1,986,498,-0.71543,24.7042
-231,526,-0.238098,-24.7144,0,0,0,0,0,0,0,-1,993,498,-0.238107,24.7143
-224,526,-0.292603,-23.2656,0,0,0,0,0,0,0,-1,1000,498,-0.292617,23.2656
-217,526,-0.541504,-25.9099,0,0,0,0,0,0,0,-1,1007,498,-0.541484,25.9099
-210,526,0.371399,-25.6344,0,0,0,0,0,0,0,-1,1014,498,0.371389,25.6344
-203,526,-0.659302,-18.8818,0,0,0,0,0,0,0,-1,1021,498,-0.659273,18.8818
-196,526,-0.328247,-12.179,0,0,0,0,0,0,0,-1,1028,498,-0.328238,12.179
-189,526,0.401245,-5.96826,0,0,0,0,0,0,0,-1,1035,498,0.401197,5.96826
-182,526,1.7323,-2.99405,0,0,0,0,0,0,0,-1,1042,498,1.73226,2.99404
-175,526,2.27637,-2.07983,0,0,0,0,0,0,0,-1,1049,498,2.27639,2.07984
-168,526,2.12036,-1.66049,0,0,0,0,0,0,0,-1,1056,498,2.12035,1.66048
-161,526,2.09082,-1.20572,0,0,0,0,0,0,0,-1,1063,498,2.09086,1.2057
-154,526,-1.3446,-5.37799,0,0,0,0,0,0,0,-1,1070,498,-1.34457,5.37799
-147,526,-0.472656,-6.64996,0,0,0,0,0,0,0,-1,1077,498,-0.472659,6.64997
-140,526,0.422852,-8.03339,0,0,0,0,0,0,0,-1,1084,498,0.422844,8.0334
-133,526,1.09583,-9.2215,0,0,0,0,0,0,0,-1,1091,498,1.09581,9.2215
-126,526,3.42529,-2.36053,0,0,0,0,0,0,0,-1,1098,498,3.42523,2.36052
-119,526,2.7771,-0.764099,0,0,0,0,0,0,0,-1,1105,498,2.7771,0.764107
-112,526,2.57715,-1.1893,0,0,0,0,0,0,0,-1,1112,498,2.57718,1.1893
-105,526,0,0,0,0,0,0,0,0,0,-1,1119,498,0,0
-98,526,0,0,0,0,0,0,0,0,0,-1,1126,498,0,0
-91,526,0,0,0,0,0,0,0,0,0,-1,1133,498,0,0
-84,526,0,0,0,0,0,0,0,0,0,-1,1140,498,0,0
-77,526,0,0,0,0,0,0,0,0,0,-1,1147,498,0,0
-70,526,0,0,0,0,0,0,0,0,0,-1,1154,498,0,0
-63,526,0,0,0,0,0,0,0,0,0,-1,1161,498,0,0
-56,526,0,0,0,0,0,0,0,0,0,-1,1168,498,0,0
-49,526,0,0,0,0,0,0,0,0,0,-1,1175,498,0,0
-42,526,0,0,0,0,0,0,0,0,0,-1,1182,498,0,0
-35,526,0,0,0,0,0,0,0,0,0,-1,1189,498,0,0
-28,526,0,0,0,0,0,0,0,0,0,-1,1196,498,0,0
-21,526,0,0,0,0,0,0,0,0,0,-1,1203,498,0,0
-14,526,0,0,0,0,0,0,0,0,0,-1,1210,498,0,0
-7,526,0,0,0,0,0,0,0,0,0,-1,1217,498,0,0
0,526,0,0,0,0,0,0,0,0,0,-1,1224,498,0,0
7,526,0,0,0,0,0,0,0,0,0,-1,1231,498,0,0
14,526,0,0,0,0,0,0,0,0,0,-1,1238,498,0,0
21,526,0,0,0,0,0,0,0,0,0,-1,1245,498,0,0
28,526,0,0,0,0,0,0,0,0,0,-1,1252,498,0,0
35,526,0,0,0,0,0,0,0,0,0,-1,1259,498,0,0
42,526,0,0,0,0,0,0,0,0,0,-1,1266,498,0,0
49,526,0,0,0,0,0,0,0,0,0,-1,1273,498,0,0
56,526,0,0,0,0,0,0,0,0,0,-1,1280,498,0,0
63,526,0,0,0,0,0,0,0,0,0,-1,1287,498,0,0
70,526,0,0,0,0,0,0,0,0,0,-1,1294,498,0,0
77,526,0,0,0,0,0,0,0,0,0,-1,1301,498,0,0
84,526,0,0,0,0,0,0,0,0,0,-1,1308,498,0,0
91,526,0,0,0,0,0,0,0,0,0,-1,1315,498,0,0
98,526,0,0,0,0,0,0,0,0,0,-1,1322,498,0,0
105,526,0,0,0,0,0,0,0,0,0,-1,1329,498,0,0
112,526,0,0,0,0,0,0,0,0,0,-1,1336,498,0,0
119,526,0,0,0,0,0,0,0,0,0,-1,1343,498,0,0
126,526,0,0,0,0,0,0,0,0,0,-1,1350,498,0,0
133,526,0,0,0,0,0,0,0,0,0,-1,1357,498,0,0
140,526,0,0,0,0,0,0,0,0,0,-1,1364,498,0,0
147,526,0,0,0,0,0,0,0,0,0,-1,1371,498,0,0
154,526,0,0,0,0,0,0,0,0,0,-1,1378,498,0,0
161,526,0,0,0,0,0,0,0,0,0,-1,1385,498,0,0
168,526,0,0,0,0,0,0,0,0,0,-1,1392,498,0,0
175,526,0,0,0,0,0,0,0,0,0,-1,1399,498,0,0
182,526,0,0,0,0,0,0,0,0,0,-1,1406,498,0,0
189,526,0,0,0,0,0,0,0,0,0,-1,1413,498,0,0
196,526,0,0,0,0,0,0,0,0,0,-1,1420,498,0,0
203,526,0,0,0,0,0,0,0,0,0,-1,1427,498,0,0
210,526,0,0,0,0,0,0,0,0,0,-1,1434,498,0,0
217,526,0,0,0,0,0,0,0,0,0,-1,1441,498,0,0
224,526,0,0,0,0,0,0,0,0,0,-1,1448,498,0,0
231,526,7.93237,-1.30618,0,0,0,0,0,0,0,-1,1455,498,7.93238,1.30618
238,526,7.97717,-1.08197,0,0,0,0,0,0,0,-1,1462,498,7.97723,1.08196
245,526,7.2793,-0.792938,0,0,0,0,0,0,0,-1,1469,498,7.27931,0.792926
252,526,6.73523,-2.23608,0,0,0,0,0,0,0,-1,1476,498,6.73525,2.23608
259,526,6.22949,-1.84967,0,0,0,0,0,0,0,-1,1483,498,6.22953,1.84968
266,526,5.72375,-1.46329,0,0,0,0,0,0,0,-1,1490,498,5.72381,1.46328
273,526,4.33984,0.49173,0,0,0,0,0,0,0,-1,1497,498,4.33979,-0.491727
280,526,1.4585,-1.59897,0,0,0,0,0,0,0,-1,1504,498,1.45846,1.59895
287,526,1.46411,-2.40134,0,0,0,0,0,0,0,-1,1511,498,1.46406,2.40133
294,526,5.57471,-4.59085,0,0,0,0,0,0,0,-1,1518,498,5.57466,4.59084
301,526,4.42786,-3.99677,0,0,0,0,0,0,0,-1,1525,498,4.42788,3.99676
308,526,5.79529,-4.19366,0,0,0,0,0,0,0,-1,1532,498,5.79528,4.19368
315,526,5.09851,-5.20068,0,0,0,0,0,0,0,-1,1539,498,5.09851,5.20068
322,526,5.50708,-4.72348,0,0,0,0,0,0,0,-1,1546,498,5.50713,4.72347
329,526,3.88672,-4.345,0,0,0,0,0,0,0,-1,1553,498,3.88674,4.34501
336,526,4.97876,-2.23828,0,0,0,0,0,0,0,-1,1560,498,4.97877,2.23828
343,526,3.31665,-2.69696,0,0,0,0,0,0,0,-1,1567,498,3.31667,2.69696
350,526,6.06287,-6.12015,0,0,0,0,0,0,0,-1,1574,498,6.06286,6.12014
357,526,10.6199,-25.1105,0,0,0,0,0,0,0,-1,1581,498,10.6198,25.1105
364,526,10.3878,-24.3979,0,0,0,0,0,0,0,-1,1588,498,10.3879,24.3979
371,526,10.5625,-23.7364,0,0,0,0,0,0,0,-1,1595,498,10.5624,23.7364
378,526,10.4747,-23.2759,0,0,0,0,0,0,0,-1,1602,498,10.4747,23.2759
385,526,10.5637,-22.6699,0,0,0,0,0,0,0,-1,1609,498,10.5637,22.6698
392,526,10.6548,-22.1981,0.000836744,-0.000328659,-0.00218588,0.00251626,-0.00200818,-0.65514,0.00261767,0.0430504,1616,498,10.6548,22.1981
399,526,10.547,-21.7193,0.00108573,0.000140677,-0.00148538,0.00217194,-0.000945529,-0.631401,0.00184571,0.0231058,1623,498,10.5469,21.7193
406,526,10.5983,-21.2255,0.00131788,0.00108915,-0.000694836,0.0019077,0.000499328,-0.703834,0.00114233,0.0121288,1630,498,10.5983,21.2255
413,526,10.5956,-20.7637,0.00151407,0.00120984,-0.00010903,0.00154911,0.0011748,-0.310943,0.000933333,0.0120329,1637,498,10.5956,20.7636
420,526,10.5927,-20.2736,0.00156134,0.00129721,0.000254105,0.00171565,0.0011429,0.54575,0.0010086,0.0126609,1644,498,10.5926,20.2736
427,526,10.583,-19.7751,0.00136288,0.00167775,0.000534243,0.00207727,0.000963358,0.928686,0.00120036,0.0132668,1651,498,10.583,19.7751
434,526,10.5518,-19.283,0.00113721,0.00206578,0.000754479,0.00248738,0.000715608,1.06122,0.00147861,0.0120529,1658,498,10.5518,19.283
441,526,10.5176,-18.7953,0.000981026,0.00243862,0.000985124,0.00293523,0.000484419,1.10387,0.001817,0.0111304,1665,498,10.5176,18.7953
448,526,10.5106,-18.289,0.000939639,0.00272315,0.00121045,0.00333486,0.000327928,1.10287,0.00212239,0.0110339,1672,498,10.5106,18.289
455,526,10.4908,-17.7833,0.000923297,0.00296921,0.00142804,0.00370288,0.000189631,1.0962,0.00240787,0.0143808,1679,498,10.4909,17.7833
462,526,10.4807,-17.2634,0.000933583,0.00305384,0.00167267,0.00397403,1.33868e-05,1.06785,0.0026449,0.0107223,1686,498,10.4807,17.2634
469,526,10.4969,-16.7696,0.000924573,0.0029818,0.00185872,0.00407754,-0.000171172,1.03812,0.00277718,0.00771018,1693,498,10.497,16.7696
476,526,10.4843,-16.246,0.000686486,0.00264722,0.00196062,0.00385892,-0.00052521,1.01723,0.00276437,0.00899222,1700,498,10.4842,16.246
483,526,10.4767,-15.6705,0.000429698,0.00216863,0.00201871,0.00349715,-0.000898825,0.988744,0.00268173,0.0121311,1707,498,10.4767,15.6705
490,526,10.5289,-15.0644,3.36089e-05,0.00144737,0.00209849,0.00295484,-0.00147385,0.947856,0.00260412,0.0247066,1714,498,10.5289,15.0644
497,526,10.4447,-14.7079,-0.000691433,0.00044768,0.00197841,0.00193689,-0.00218064,0.925551,0.00237864,0.0311418,1721,498,10.4447,14.7079
504,526,10.4193,-14.1334,-0.00177555,-0.000978031,0.00161496,0.000286672,-0.00304025,0.906435,0.00212884,0.0349945,1728,498,10.4193,14.1334
511,526,10.4868,-13.579,-0.00320659,-0.00281401,0.00113684,-0.00185664,-0.00416396,0.870888,0.00240875,0.0448721,1735,498,10.4868,13.579
518,526,10.4569,-13.0399,-0.00513772,-0.00522889,0.000401354,-0.00477937,-0.00558724,0.728855,0.00348687,0.0476029,1742,498,10.4569,13.0398
525,526,10.6655,-12.8946,0,0,0,0,0,0,0,-1,1749,498,10.6655,12.8946
532,526,10.5795,-12.5581,0,0,0,0,0,0,0,-1,1756,498,10.5795,12.5581
539,526,3.29407,0.932312,0,0,0,0,0,0,0,-1,1763,498,3.2941,-0.93232
546,526,3.36731,1.07721,0,0,0,0,0,0,0,-1,1770,498,3.36735,-1.07719
553,526,3.40796,1.37137,0,0,0,0,0,0,0,-1,1777,498,3.40792,-1.37138
560,526,0,0,0,0,0,0,0,0,0,-1,1784,498,0,0
567,526,0,0,0,0,0,0,0,0,0,-1,1791,498,0,0
574,526,0,0,0,0,0,0,0,0,0,-1,1798,498,0,0
581,526,0,0,0,0,0,0,0,0,0,-1,1805,498,0,0
588,526,0,0,0,0,0,0,0,0,0,-1,1812,498,0,0
595,526,0,0,0,0,0,0,0,0,0,-1,1819,498,0,0
602,526,0,0,0,0,0,0,0,0,0,-1,1826,498,0,0
609,526,0,0,0,0,0,0,0,0,0,-1,1833,498,0,0
616,526,0,0,0,0,0,0,0,0,0,-1,1840,498,0,0
623,526,0,0,0,0,0,0,0,0,0,-1,1847,498,0,0
630,526,0,0,0,0,0,0,0,0,0,-1,1854,498,0,0
637,526,0,0,0,0,0,0,0,0,0,-1,1861,498,0,0
644,526,0,0,0,0,0,0,0,0,0,-1,1868,498,0,0
651,526,0,0,0,0,0,0,0,0,0,-1,1875,498,0,0
658,526,0,0,0,0,0,0,0,0,0,-1,1882,498,0,0
665,526,0,0,0,0,0,0,0,0,0,-1,1889,498,0,0
672,526,0,0,0,0,0,0,0,0,0,-1,1896,498,0,0
679,526,0,0,0,0,0,0,0,0,0,-1,1903,498,0,0
686,526,0,0,0,0,0,0,0,0,0,-1,1910,498,0,0
693,526,0,0,0,0,0,0,0,0,0,-1,1917,498,0,0
700,526,0,0,0,0,0,0,0,0,0,-1,1924,498,0,0
707,526,0,0,0,0,0,0,0,0,0,-1,1931,498,0,0
714,526,0,0,0,0,0,0,0,0,0,-1,1938,498,0,0
721,526,0,0,0,0,0,0,0,0,0,-1,1945,498,0,0
728,526,0,0,0,0,0,0,0,0,0,-1,1952,498,0,0
735,526,0,0,0,0,0,0,0,0,0,-1,1959,498,0,0
742,526,0,0,0,0,0,0,0,0,0,-1,1966,498,0,0
749,526,0,0,0,0,0,0,0,0,0,-1,1973,498,0,0
756,526,0,0,0,0,0,0,0,0,0,-1,1980,498,0,0
763,526,0,0,0,0,0,0,0,0,0,-1,1987,498,0,0
770,526,0,0,0,0,0,0,0,0,0,-1,1994,498,0,0
777,526,0,0,0,0,0,0,0,0,0,-1,2001,498,0,0
784,526,0,0,0,0,0,0,0,0,0,-1,2008,498,0,0
791,526,0,0,0,0,0,0,0,0,0,-1,2015,498,0,0
798,526,0,0,0,0,0,0,0,0,0,-1,2022,498,0,0
805,526,0,0,0,0,0,0,0,0,0,-1,2029,498,0,0
812,526,0,0,0,0,0,0,0,0,0,-1,2036,498,0,0
-700,519,0,0,0,0,0,0,0,0,0,-1,524,505,0,0
-693,519,0,0,0,0,0,0,0,0,0,-1,531,505,0,0
-686,519,0,0,0,0,0,0,0,0,0,-1,538,505,0,0
-679,519,0,0,0,0,0,0,0,0,0,-1,545,505,0,0
-672,519,0,0,0,0,0,0,0,0,0,-1,552,505,0,0
-665,519,0,0,0,0,0,0,0,0,0,-1,559,505,0,0
-658,519,0,0,0,0,0,0,0,0,0,-1,566,505,0,0
-651,519,0,0,0,0,0,0,0,0,0,-1,573,505,0,0
-644,519,0,0,0,0,0,0,0,0,0,-1,580,505,0,0
-637,519,0,0,0,0,0,0,0,0,0,-1,587,505,0,0
-630,519,0,0,0,0,0,0,0,0,0,-1,594,505,0,0
-623,519,0,0,0,0,0,0,0,0,0,-1,601,505,0,0
-616,519,0,0,0,0,0,0,0,0,0,-1,608,505,0,0
-609,519,0,0,0,0,0,0,0,0,0,-1,615,505,0,0
-602,519,0,0,0,0,0,0,0,0,0,-1,622,505,0,0
-595,519,0,0,0,0,0,0,0,0,0,-1,629,505,0,0
-588,519,0,0,0,0,0,0,0,0,0,-1,636,505,0,0
-581,519,0,0,0,0,0,0,0,0,0,-1,643,505,0,0
-574,519,0,0,0,0,0,0,0,0,0,-1,650,505,0,0
-567,519,0,0,0,0,0,0,0,0,0,-1,657,505,0,0
-560,519,0,0,0,0,0,0,0,0,0,-1,664,505,0,0
-553,519,0,0,0,0,0,0,0,0,0,-1,671,505,0,0
-546,519,0,0,0,0,0,0,0,0,0,-1,678,505,0,0
-539,519,0,0,0,0,0,0,0,0,0,-1,685,505,0,0
-532,519,0,0,0,0,0,0,0,0,0,-1,692,505,0,0
-525,519,0,0,0,0,0,0,0,0,0,-1,699,505,0,0
-518,519,0,0,0,0,0,0,0,0,0,-1,706,505,0,0
-511,519,0,0,0,0,0,0,0,0,0,-1,713,505,0,0
-504,519,0,0,0,0,0,0,0,0,0,-1,720,505,0,0
-497,519,0,0,0,0,0,0,0,0,0,-1,727,505,0,0
-490,519,0,0,0,0,0,0,0,0,0,-1,734,505,0,0
-483,519,0,0,0,0,0,0,0,0,0,-1,741,505,0,0
-476,519,0,0,0,0,0,0,0,0,0,-1,748,505,0,0
-469,519,0,0,0,0,0,0,0,0,0,-1,755,505,0,0
-462,519,0,0,0,0,0,0,0,0,0,-1,762,505,0,0
-455,519,0,0,0,0,0,0,0,0,0,-1,769,505,0,0
-448,519,0,0,0,0,0,0,0,0,0,-1,776,505,0,0
-441,519,1.34839,-5.29346,0,0,0,0,0,0,0,-1,783,505,1.3484,5.29347
-434,519,0.949585,-5.77313,0,0,0,0,0,0,0,-1,790,505,0.949598,5.77315
-427,519,-0.0523682,-9.31567,0,0,0,0,0,0,0,-1,797,505,-0.0523854,9.31568
-420,519,-2.38867,-12.1938,0,0,0,0,0,0,0,-1,804,505,-2.38867,12.1938
-413,519,-2.2298,-12.4998,0,0,0,0,0,0,0,-1,811,505,-2.22979,12.4998
-406,519,-2.05707,-12.7883,0,0,0,0,0,0,0,-1,818,505,-2.05705,12.7882
-399,519,-1.26105,-13.5067,0,0,0,0,0,0,0,-1,825,505,-1.26104,13.5067
-392,519,-0.877625,-14.2111,0,0,0,0,0,0,0,-1,832,505,-0.877645,14.2111
-385,519,-1.50934,-14.449,0.00782206,0.0181969,-0.014526,0.028434,-0.00241501,-0.956897,0.0198101,0.0477173,839,505,-1.50931,14.449
-378,519,-1.27679,-15.1866,0.00630521,0.0159059,-0.0117511,0.0237993,-0.00158823,-0.979304,0.0164212,0.0310506,846,505,-1.2768,15.1867
-371,519,-1.13531,-15.7775,0.00503481,0.0137009,-0.00932008,0.0196459,-0.000910249,-1.00299,0.013411,0.0176192,853,505,-1.13531,15.7776
-364,519,-1.13971,-16.4055,0.00382226,0.0116719,-0.00721163,0.0159575,-0.000463392,-1.0346,0.0107961,0.0103342,860,505,-1.13972,16.4055
-357,519,-1.12909,-16.9808,0.002795,0.00983964,-0.00548761,0.0128381,-0.000203462,-1.07072,0.00862735,0.00997953,867,505,-1.12909,16.9808
-350,519,-1.15277,-17.5141,0.00200146,0.00815831,-0.00403039,0.0101514,8.32044e-06,-1.11154,0.00676486,0.0124351,874,505,-1.15279,17.5141
-343,519,-1.20691,-17.9981,0.00142053,0.00644573,-0.00276566,0.00766971,0.000196551,-1.15414,0.0050489,0.015242,881,505,-1.20691,17.9981
-336,519,-1.24304,-18.4633,0.00106435,0.00500491,-0.00182642,0.00572123,0.000348028,-1.19703,0.0037036,0.0150322,888,505,-1.24303,18.4633
-329,519,-1.2251,-18.936,0.000857908,0.00345036,-0.00102631,0.00380747,0.000500802,-1.23595,0.00238894,0.0135748,895,505,-1.22508,18.9361
-322,519,-1.22455,-19.4332,0.000776742,0.00210194,-0.000503994,0.00227183,0.000606846,-1.24566,0.00135824,0.0113583,902,505,-1.22455,19.4333
-315,519,-1.24493,-19.9442,0.00091577,0.000923776,-0.000133745,0.00105358,0.000785968,-0.800359,0.000632348,0.00911322,909,505,-1.24496,19.9441
-308,519,-1.26654,-20.4476,0.00117431,-0.00022187,0.000171246,0.001195,-0.000242567,0.120279,0.000888629,0.00764269,916,505,-1.26654,20.4476
-301,519,-1.27856,-20.8974,0.00137884,-0.00143486,0.000553985,0.00148399,-0.00154001,0.187565,0.001746,0.0124166,923,505,-1.27859,20.8974
-294,519,-1.27313,-21.3151,0.00166177,-0.00236314,0.000916944,0.00186082,-0.00256219,0.213765,0.00256431,0.0150401,930,505,-1.27314,21.3151
-287,519,-1.29761,-21.7657,0.00203321,-0.00322125,0.00132934,0.00235038,-0.00353842,0.234212,0.00342288,0.0104385,937,505,-1.29763,21.7658
-280,519,-1.31134,-22.2334,0.0024454,-0.00451561,0.00180152,0.002884,-0.00495422,0.238815,0.00457771,0.0169067,944,505,-1.31133,22.2334
-273,519,-1.26837,-22.7139,0.00278709,-0.00506385,0.0025971,0.00356845,-0.00584521,0.292244,0.00548771,0.030853,951,505,-1.26834,22.7139
-266,519,-1.3299,-23.1696,0.0035595,-0.00626963,0.00367005,0.00477863,-0.00748876,0.320715,0.00713996,0.0469854,958,505,-1.32989,23.1695
-259,519,-1.19122,-23.6101,0,0,0,0,0,0,0,-1,965,505,-1.19121,23.6101
-252,519,-1.4104,-23.5991,0,0,0,0,0,0,0,-1,972,505,-1.41037,23.5991
-245,519,-1.23254,-23.2696,0,0,0,0,0,0,0,-1,979,505,-1.23256,23.2696
-238,519,-1.06903,-23.1753,0,0,0,0,0,0,0,-1,986,505,-1.06904,23.1753
-231,519,0.337585,-11.2798,0,0,0,0,0,0,0,-1,993,505,0.337568,11.2798
-224,519,-0.0494995,-7.97394,0,0,0,0,0,0,0,-1,1000,505,-0.0495123,7.97392
-217,519,-0.283691,-23.8409,0,0,0,0,0,0,0,-1,1007,505,-0.283683,23.8409
-210,519,-2.14398,-4.74774,0,0,0,0,0,0,0,-1,1014,505,-2.14397,4.74775
-203,519,-0.513611,-5.39017,0,0,0,0,0,0,0,-1,1021,505,-0.513585,5.39017
-196,519,-0.374023,-5.41635,0,0,0,0,0,0,0,-1,1028,505,-0.374047,5.41635
-189,519,-0.234497,-5.44254,0,0,0,0,0,0,0,-1,1035,505,-0.234508,5.44253
-182,519,2.76697,-1.19659,0,0,0,0,0,0,0,-1,1042,505,2.76696,1.19661
-175,519,2.31323,-0.960938,0,0,0,0,0,0,0,-1,1049,505,2.31319,0.960941
-168,519,2.01074,-0.721405,0,0,0,0,0,0,0,-1,1056,505,2.01072,0.721407
-161,519,2.32056,-0.522339,0,0,0,0,0,0,0,-1,1063,505,2.32057,0.522328
-154,519,2.55566,0.116669,0,0,0,0,0,0,0,-1,1070,505,2.55563,-0.116661
-147,519,-0.55127,-6.14001,0,0,0,0,0,0,0,-1,1077,505,-0.551252,6.14001
-140,519,0.240601,-7.53503,0,0,0,0,0,0,0,-1,1084,505,0.240653,7.53501
-133,519,2.70911,-4.4516,0,0,0,0,0,0,0,-1,1091,505,2.70915,4.45161
-126,519,0,0,0,0,0,0,0,0,0,-1,1098,505,0,0
-119,519,0,0,0,0,0,0,0,0,0,-1,1105,505,0,0
-112,519,0,0,0,0,0,0,0,0,0,-1,1112,505,0,0
-105,519,0,0,0,0,0,0,0,0,0,-1,1119,505,0,0
-98,519,0,0,0,0,0,0,0,0,0,-1,1126,505,0,0
-91,519,0,0,0,0,0,0,0,0,0,-1,1133,505,0,0
-84,519,0,0,0,0,0,0,0,0,0,-1,1140,505,0,0
-77,519,0,0,0,0,0,0,0,0,0,-1,1147,505,0,0
-70,519,0,0,0,0,0,0,0,0,0,-1,1154,505,0,0
-63,519,0,0,0,0,0,0,0,0,0,-1,1161,505,0,0
-56,519,0,0,0,0,0,0,0,0,0,-1,1168,505,0,0
-49,519,0,0,0,0,0,0,0,0,0,-1,1175,505,0,0
-42,519,0,0,0,0,0,0,0,0,0,-1,1182,505,0,0
-35,519,0,0,0,0,0,0,0,0,0,-1,1189,505,0,0
-28,519,0,0,0,0,0,0,0,0,0,-1,1196,505,0,0
-21,519,0,0,0,0,0,0,0,0,0,-1,1203,505,0,0
-14,519,0,0,0,0,0,0,0,0,0,-1,1210,505,0,0
-7,519,0,0,0,0,0,0,0,0,0,-1,1217,505,0,0
0,519,0,0,0,0,0,0,0,0,0,-1,1224,505,0,0
7,519,0,0,0,0,0,0,0,0,0,-1,1231,505,0,0
14,519,0,0,0,0,0,0,0,0,0,-1,1238,505,0,0
21,519,0,0,0,0,0,0,0,0,0,-1,1245,505,0,0
28,519,0,0,0,0,0,0,0,0,0,-1,1252,505,0,0
35,519,0,0,0,0,0,0,0,0,0,-1,1259,505,0,0
42,519,0,0,0,0,0,0,0,0,0,-1,1266,505,0,0
49,519,0,0,0,0,0,0,0,0,0,-1,1273,505,0,0
56,519,0,0,0,0,0,0,0,0,0,-1,1280,505,0,0
63,519,0,0,0,0,0,0,0,0,0,-1,1287,505,0,0
70,519,0,0,0,0,0,0,0,0,0,-1,1294,505,0,0
77,519,0,0,0,0,0,0,0,0,0,-1,1301,505,0,0
84,519,0,0,0,0,0,0,0,0,0,-1,1308,505,0,0
91,519,0,0,0,0,0,0,0,0,0,-1,1315,505,0,0
98,519,0,0,0,0,0,0,0,0,0,-1,1322,505,0,0
105,519,0,0,0,0,0,0,0,0,0,-1,1329,505,0,0
112,519,0,0,0,0,0,0,0,0,0,-1,1336,505,0,0
119,519,0,0,0,0,0,0,0,0,0,-1,1343,505,0,0
126,519,0,0,0,0,0,0,0,0,0,-1,1350,505,0,0
133,519,0,0,0,0,0,0,0,0,0,-1,1357,505,0,0
140,519,0,0,0,0,0,0,0,0,0,-1,1364,505,0,0
147,519,0,0,0,0,0,0,0,0,0,-1,1371,505,0,0
154,519,0,0,0,0,0,0,0,0,0,-1,1378,505,0,0
161,519,0,0,0,0,0,0,0,0,0,-1,1385,505,0,0
168,519,0,0,0,0,0,0,0,0,0,-1,1392,505,0,0
175,519,0,0,0,0,0,0,0,0,0,-1,1399,505,0,0
182,519,0,0,0,0,0,0,0,0,0,-1,1406,505,0,0
189,519,0,0,0,0,0,0,0,0,0,-1,1413,505,0,0
196,519,0,0,0,0,0,0,0,0,0,-1,1420,505,0,0
203,519,0,0,0,0,0,0,0,0,0,-1,1427,505,0,0
210,519,0,0,0,0,0,0,0,0,0,-1,1434,505,0,0
217,519,0,0,0,0,0,0,0,0,0,-1,1441,505,0,0
224,519,0,0,0,0,0,0,0,0,0,-1,1448,505,0,0
231,519,0,0,0,0,0,0,0,0,0,-1,1455,505,0,0
238,519,0,0,0,0,0,0,0,0,0,-1,1462,505,0,0
245,519,0,0,0,0,0,0,0,0,0,-1,1469,505,0,0
252,519,5.26208,0.0938416,0,0,0,0,0,0,0,-1,1476,505,5.26207,-0.0938493
259,519,6.14246,-1.36441,0,0,0,0,0,0,0,-1,1483,505,6.14241,1.36441
266,519,5.31909,-0.400787,0,0,0,0,0,0,0,-1,1490,505,5.31912,0.400773
273,519,4.02393,0.325531,0,0,0,0,0,0,0,-1,1497,505,4.0239,-0.325522
280,519,4.68848,0.53006,0,0,0,0,0,0,0,-1,1504,505,4.68842,-0.530073
287,519,7.9519,-3.80801,0,0,0,0,0,0,0,-1,1511,505,7.95193,3.808
294,519,6.92273,-3.38889,0,0,0,0,0,0,0,-1,1518,505,6.92268,3.38888
301,519,5.35669,-2.92661,0,0,0,0,0,0,0,-1,1525,505,5.35675,2.9266
308,519,7.37549,-5.64529,0,0,0,0,0,0,0,-1,1532,505,7.3755,5.64529
315,519,6.30029,-4.53754,0,0,0,0,0,0,0,-1,1539,505,6.30024,4.53753
322,519,5.84302,-5.45117,0,0,0,0,0,0,0,-1,1546,505,5.84303,5.45116
329,519,4.92407,0.62384,0,0,0,0,0,0,0,-1,1553,505,4.92403,-0.623832
336,519,3.10095,-0.329285,0,0,0,0,0,0,0,-1,1560,505,3.1009,0.329283
343,519,2.49146,-2.31119,0,0,0,0,0,0,0,-1,1567,505,2.49145,2.31119
350,519,3.47729,-2.22516,0,0,0,0,0,0,0,-1,1574,505,3.47726,2.22515
357,519,9.01709,-24.3693,0,0,0,0,0,0,0,-1,1581,505,9.01713,24.3693
364,519,10.427,-25.0341,0,0,0,0,0,0,0,-1,1588,505,10.427,25.0341
371,519,8.9231,-23.3576,0,0,0,0,0,0,0,-1,1595,505,8.92307,23.3576
378,519,6.36597,-10.0967,0,0,0,0,0,0,0,-1,1602,505,6.36597,10.0967
385,519,6.24756,-9.72186,0,0,0,0,0,0,0,-1,1609,505,6.24752,9.72183
392,519,10.9615,-22.457,0,0,0,0,0,0,0,-1,1616,505,10.9615,22.457
399,519,10.9387,-21.7245,0,0,0,0,0,0,0,-1,1623,505,10.9387,21.7245
406,519,11.0393,-21.2222,0.00161215,0.00141562,-0.000893542,0.00241282,0.00061496,-0.730632,0.00144777,0.0355084,1630,505,11.0393,21.2221
413,519,11.1277,-20.7596,0.0019439,0.00122888,-0.000271747,0.00203545,0.00113732,-0.324972,0.00117787,0.0145903,1637,505,11.1277,20.7596
420,519,11.1096,-20.2308,0.00203671,0.00111081,9.02939e-05,0.00204543,0.00110209,0.0963116,0.00118211,0.0148031,1644,505,11.1097,20.2308
427,519,11.0969,-19.764,0.00183661,0.00133753,0.000356539,0.00202226,0.00115188,0.480071,0.00117132,0.013741,1651,505,11.0969,19.764
434,519,11.0717,-19.2841,0.00158044,0.00158361,0.000529798,0.00211183,0.00105223,0.786894,0.00121927,0.012579,1658,505,11.0717,19.2841
441,519,11.0291,-18.7753,0.00139211,0.00182801,0.000727086,0.00236911,0.000851014,0.931016,0.00138576,0.0121749,1665,505,11.029,18.7753
448,519,11.0165,-18.2679,0.00134587,0.001976,0.000929119,0.00264202,0.00067985,0.948865,0.00158413,0.00977808,1672,505,11.0165,18.2679
455,519,11.0078,-17.7664,0.00129303,0.00211814,0.00110851,0.00288838,0.000522787,0.963542,0.00177714,0.0111501,1679,505,11.0078,17.7664
462,519,11.0044,-17.2608,0.00123929,0.00215692,0.00131929,0.0030949,0.000301305,0.952744,0.00197052,0.0107639,1686,505,11.0044,17.2608
469,519,11.0028,-16.746,0.00116784,0.00206651,0.00149773,0.00318085,5.3498e-05,0.931132,0.00210296,0.0107136,1693,505,11.0028,16.746
476,519,10.9773,-16.2081,0.000871597,0.00176369,0.00159261,0.00297153,-0.00033625,0.921936,0.00210209,0.0123599,1700,505,10.9772,16.2081
483,519,10.9635,-15.6775,0.000529703,0.00135336,0.0016305,0.00262323,-0.00074017,0.9091,0.00204079,0.01464,1707,505,10.9635,15.6775
490,519,10.9464,-15.1077,3.27825e-05,0.000794601,0.00167809,0.00213447,-0.00130709,0.897002,0.00200603,0.0130378,1714,505,10.9464,15.1077
497,519,10.9426,-14.6297,-0.000742335,4.87024e-05,0.00158551,0.00128728,-0.00198092,0.907633,0.00190101,0.0165811,1721,505,10.9427,14.6297
504,519,10.9025,-14.0667,-0.0018407,-0.000959149,0.00131712,-1.10067e-05,-0.00278884,0.946866,0.00185557,0.0163538,1728,505,10.9024,14.0667
511,519,10.8977,-13.4634,-0.00329229,-0.00220718,0.000919417,-0.00168217,-0.0038173,1.05196,0.00220909,0.0226202,1735,505,10.8977,13.4634
518,519,10.7555,-13.0259,-0.00522518,-0.00375652,0.000283523,-0.00370369,-0.00527801,1.38656,0.00312883,0.0418664,1742,505,10.7555,13.0259
525,519,10.694,-12.6672,0,0,0,0,0,0,0,-1,1749,505,10.6939,12.6672
532,519,3.5155,-2.86511,0,0,0,0,0,0,0,-1,1756,505,3.51554,2.8651
539,519,3.30005,0.0229797,0,0,0,0,0,0,0,-1,1763,505,3.30008,-0.0229869
546,519,4.62024,-2.89774,0,0,0,0,0,0,0,-1,1770,505,4.62023,2.89775
553,519,4.14136,0.0667419,0,0,0,0,0,0,0,-1,1777,505,4.14141,-0.0667503
560,519,3.77856,0.279724,0,0,0,0,0,0,0,-1,1784,505,3.77861,-0.279731
567,519,0,0,0,0,0,0,0,0,0,-1,1791,505,0,0
574,519,0,0,0,0,0,0,0,0,0,-1,1798,505,0,0
581,519,0,0,0,0,0,0,0,0,0,-1,1805,505,0,0
588,519,0,0,0,0,0,0,0,0,0,-1,1812,505,0,0
595,519,0,0,0,0,0,0,0,0,0,-1,1819,505,0,0
602,519,0,0,0,0,0,0,0,0,0,-1,1826,505,0,0
609,519,0,0,0,0,0,0,0,0,0,-1,1833,505,0,0
616,519,0,0,0,0,0,0,0,0,0,-1,1840,505,0,0
623,519,0,0,0,0,0,0,0,0,0,-1,1847,505,0,0
630,519,0,0,0,0,0,0,0,0,0,-1,1854,505,0,0
637,519,0,0,0,0,0,0,0,0,0,-1,1861,505,0,0
644,519,0,0,0,0,0,0,0,0,0,-1,1868,505,0,0
651,519,0,0,0,0,0,0,0,0,0,-1,1875,505,0,0
658,519,0,0,0,0,0,0,0,0,0,-1,1882,505,0,0
665,519,0,0,0,0,0,0,0,0,0,-1,1889,505,0,0
672,519,0,0,0,0,0,0,0,0,0,-1,1896,505,0,0
679,519,0,0,0,0,0,0,0,0,0,-1,1903,505,0,0
686,519,0,0,0,0,0,0,0,0,0,-1,1910,505,0,0
693,519,0,0,0,0,0,0,0,0,0,-1,1917,505,0,0
700,519,0,0,0,0,0,0,0,0,0,-1,1924,505,0,0
707,519,0,0,0,0,0,0,0,0,0,-1,1931,505,0,0
714,519,0,0,0,0,0,0,0,0,0,-1,1938,505,0,0
721,519,0,0,0,0,0,0,0,0,0,-1,1945,505,0,0
728,519,0,0,0,0,0,0,0,0,0,-1,1952,505,0,0
735,519,0,0,0,0,0,0,0,0,0,-1,1959,505,0,0
742,519,0,0,0,0,0,0,0,0,0,-1,1966,505,0,0
749,519,0,0,0,0,0,0,0,0,0,-1,1973,505,0,0
756,519,0,0,0,0,0,0,0,0,0,-1,1980,505,0,0
763,519,0,0,0,0,0,0,0,0,0,-1,1987,505,0,0
770,519,0,0,0,0,0,0,0,0,0,-1,1994,505,0,0
777,519,0,0,0,0,0,0,0,0,0,-1,2001,505,0,0
784,519,0,0,0,0,0,0,0,0,0,-1,2008,505,0,0
791,519,0,0,0,0,0,0,0,0,0,-1,2015,505,0,0
798,519,0,0,0,0,0,0,0,0,0,-1,2022,505,0,0
805,519,0,0,0,0,0,0,0,0,0,-1,2029,505,0,0
812,519,0,0,0,0,0,0,0,0,0,-1,2036,505,0,0
-700,512,0,0,0,0,0,0,0,0,0,-1,524,512,0,0
-693,512,0,0,0,0,0,0,0,0,0,-1,531,512,0,0
-686,512,0,0,0,0,0,0,0,0,0,-1,538,512,0,0
-679,512,0,0,0,0,0,0,0,0,0,-1,545,512,0,0
-672,512,0,0,0,0,0,0,0,0,0,-1,552,512,0,0
-665,512,0,0,0,0,0,0,0,0,0,-1,559,512,0,0
-658,512,0,0,0,0,0,0,0,0,0,-1,566,512,0,0
-651,512,0,0,0,0,0,0,0,0,0,-1,573,512,0,0
-644,512,0,0,0,0,0,0,0,0,0,-1,580,512,0,0
-637,512,0,0,0,0,0,0,0,0,0,-1,587,512,0,0
-630,512,0,0,0,0,0,0,0,0,0,-1,594,512,0,0
-623,512,0,0,0,0,0,0,0,0,0,-1,601,512,0,0
-616,512,0,0,0,0,0,0,0,0,0,-1,608,512,0,0
-609,512,0,0,0,0,0,0,0,0,0,-1,615,512,0,0
-602,512,0,0,0,0,0,0,0,0,0,-1,622,512,0,0
-595,512,0,0,0,0,0,0,0,0,0,-1,629,512,0,0
-588,512,0,0,0,0,0,0,0,0,0,-1,636,512,0,0
-581,512,0,0,0,0,0,0,0,0,0,-1,643,512,0,0
-574,512,0,0,0,0,0,0,0,0,0,-1,650,512,0,0
-567,512,0,0,0,0,0,0,0,0,0,-1,657,512,0,0
-560,512,0,0,0,0,0,0,0,0,0,-1,664,512,0,0
-553,512,0,0,0,0,0,0,0,0,0,-1,671,512,0,0
-546,512,0,0,0,0,0,0,0,0,0,-1,678,512,0,0
-539,512,0,0,0,0,0,0,0,0,0,-1,685,512,0,0
-532,512,0,0,0,0,0,0,0,0,0,-1,692,512,0,0
-525,512,0,0,0,0,0,0,0,0,0,-1,699,512,0,0
-518,512,0,0,0,0,0,0,0,0,0,-1,706,512,0,0
-511,512,0,0,0,0,0,0,0,0,0,-1,713,512,0,0
-504,512,0,0,0,0,0,0,0,0,0,-1,720,512,0,0
-497,512,0,0,0,0,0,0,0,0,0,-1,727,512,0,0
-490,512,0,0,0,0,0,0,0,0,0,-1,734,512,0,0
-483,512,0,0,0,0,0,0,0,0,0,-1,741,512,0,0
-476,512,0,0,0,0,0,0,0,0,0,-1,748,512,0,0
-469,512,0,0,0,0,0,0,0,0,0,-1,755,512,0,0
-462,512,0,0,0,0,0,0,0,0,0,-1,762,512,0,0
-455,512,0,0,0,0,0,0,0,0,0,-1,769,512,0,0
-448,512,1.96283,-4.15674,0,0,0,0,0,0,0,-1,776,512,1.96285,4.15677
-441,512,1.78198,-4.88824,0,0,0,0,0,0,0,-1,783,512,1.78201,4.88826
-434,512,0.0726929,-9.85822,0,0,0,0,0,0,0,-1,790,512,0.0727008,9.85819
-427,512,-0.384583,-9.94824,0,0,0,0,0,0,0,-1,797,512,-0.384552,9.94823
-420,512,-2.93219,-12.4855,0,0,0,0,0,0,0,-1,804,512,-2.93219,12.4855
-413,512,-2.82507,-12.8674,0,0,0,0,0,0,0,-1,811,512,-2.82505,12.8674
-406,512,-2.5769,-12.9814,0,0,0,0,0,0,0,-1,818,512,-2.5769,12.9814
-399,512,-1.5647,-13.6349,0,0,0,0,0,0,0,-1,825,512,-1.56473,13.6349
-392,512,-1.53253,-14.2291,0.00631149,0.0175404,-0.0134205,0.0264735,-0.00262166,-0.983509,0.0185846,0.0408961,832,512,-1.53251,14.2291
-385,512,-1.57434,-14.8113,0.00548247,0.0145554,-0.0113438,0.0222362,-0.00219832,-0.975611,0.0156086,0.0202425,839,512,-1.57432,14.8113
-378,512,-1.60254,-15.3347,0.00474845,0.01217,-0.00942501,0.0185884,-0.00166998,-0.972937,0.0129848,0.0150113,846,512,-1.60253,15.3347
-371,512,-1.60809,-15.8893,0.00403809,0.00996643,-0.00764388,0.0152007,-0.00119623,-0.970364,0.0105552,0.0118111,853,512,-1.60811,15.8894
-364,512,-1.61102,-16.4688,0.00330276,0.00799154,-0.00598075,0.012071,-0.000776679,-0.972189,0.00831831,0.00985545,860,512,-1.61103,16.4688
-357,512,-1.62311,-16.9806,0.00267324,0.00633397,-0.00455594,0.00941347,-0.000406268,-0.976407,0.00641536,0.0117489,867,512,-1.62309,16.9806
-350,512,-1.65344,-17.4937,0.00216565,0.00483436,-0.0033405,0.00709715,-9.71323e-05,-0.975413,0.00476414,0.0123023,874,512,-1.65342,17.4936
-343,512,-1.69983,-17.9839,0.00177448,0.003359,-0.00225003,0.00495218,0.000181302,-0.954675,0.00324271,0.0126301,881,512,-1.69981,17.9839
-336,512,-1.7334,-18.4693,0.00153344,0.0021755,-0.00140706,0.00329768,0.000411254,-0.897558,0.002075,0.0140153,888,512,-1.73342,18.4693
-329,512,-1.7005,-18.9489,0.00143223,0.0010038,-0.000718248,0.00196753,0.000468505,-0.640473,0.00118676,0.015984,895,512,-1.70049,18.9488
-322,512,-1.70575,-19.4384,0.00140903,5.98067e-05,-0.000237788,0.00144971,1.91252e-05,-0.169442,0.000960162,0.0130825,902,512,-1.70572,19.4384
-315,512,-1.73291,-19.9287,0.00151229,-0.000700449,0.000140859,0.00152122,-0.00070938,0.0633176,0.00131596,0.0109313,909,512,-1.73292,19.9287
-308,512,-1.75348,-20.4178,0.00168983,-0.00142622,0.000471906,0.00175973,-0.00149612,0.147052,0.00188182,0.010502,916,512,-1.75347,20.4178
-301,512,-1.75177,-20.8801,0.00176585,-0.00228197,0.000898537,0.00195634,-0.00247247,0.20891,0.00256275,0.0143319,923,512,-1.75176,20.8801
-294,512,-1.75061,-21.3168,0.00186603,-0.00284926,0.00129763,0.00219955,-0.00318278,0.251572,0.00312472,0.0155709,930,512,-1.75061,21.3168
-287,512,-1.82489,-21.7064,0.00211441,-0.00347542,0.00171656,0.00259945,-0.00396047,0.275388,0.00381445,0.0235402,937,512,-1.82487,21.7064
-280,512,-1.71332,-22.2071,0.00244395,-0.00480975,0.0022557,0.00308819,-0.00545399,0.2782,0.00499448,0.0407621,944,512,-1.71331,22.2071
-273,512,-1.56897,-22.7698,0,0,0,0,0,0,0,-1,951,512,-1.56898,22.7698
-266,512,-1.76575,-23.2858,0,0,0,0,0,0,0,-1,958,512,-1.76573,23.2858
-259,512,-0.525452,-14.0815,0,0,0,0,0,0,0,-1,965,512,-0.525475,14.0815
-252,512,1.45941,-3.43475,0,0,0,0,0,0,0,-1,972,512,1.45938,3.43475
-245,512,-1.6731,-22.8959,0,0,0,0,0,0,0,-1,979,512,-1.67312,22.8959
-238,512,0.227051,-8.92969,0,0,0,0,0,0,0,-1,986,512,0.227073,8.92968
-231,512,-2.54437,-10.169,0,0,0,0,0,0,0,-1,993,512,-2.54439,10.169
-224,512,-4.84601,-7.52783,0,0,0,0,0,0,0,-1,1000,512,-4.84602,7.52786
-217,512,-7.37274,-3.89563,0,0,0,0,0,0,0,-1,1007,512,-7.37274,3.89561
-210,512,-3.76642,-1.94702,0,0,0,0,0,0,0,-1,1014,512,-3.76641,1.94702
-203,512,-2.48328,-5.19061,0,0,0,0,0,0,0,-1,1021,512,-2.48328,5.19059
-196,512,-1.14929,-4.63202,0,0,0,0,0,0,0,-1,1028,512,-1.14934,4.632
-189,512,0.197998,4.55505,0,0,0,0,0,0,0,-1,1035,512,0.197996,-4.55506
-182,512,2.73938,0.0778503,0,0,0,0,0,0,0,-1,1042,512,2.73944,-0.077852
-175,512,2.29565,0.209808,0,0,0,0,0,0,0,-1,1049,512,2.29565,-0.209813
-168,512,2.09399,-0.302856,0,0,0,0,0,0,0,-1,1056,512,2.09403,0.302826
-161,512,2.76636,0.0921021,0,0,0,0,0,0,0,-1,1063,512,2.76633,-0.0921104
-154,512,3.41382,0.466187,0,0,0,0,0,0,0,-1,1070,512,3.41382,-0.466178
-147,512,0,0,0,0,0,0,0,0,0,-1,1077,512,0,0
-140,512,0,0,0,0,0,0,0,0,0,-1,1084,512,0,0
-133,512,0,0,0,0,0,0,0,0,0,-1,1091,512,0,0
-126,512,0,0,0,0,0,0,0,0,0,-1,1098,512,0,0
-119,512,0,0,0,0,0,0,0,0,0,-1,1105,512,0,0
-112,512,0,0,0,0,0,0,0,0,0,-1,1112,512,0,0
-105,512,0,0,0,0,0,0,0,0,0,-1,1119,512,0,0
-98,512,0,0,0,0,0,0,0,0,0,-1,1126,512,0,0
-91,512,0,0,0,0,0,0,0,0,0,-1,1133,512,0,0
-84,512,0,0,0,0,0,0,0,0,0,-1,1140,512,0,0
-77,512,0,0,0,0,0,0,0,0,0,-1,1147,512,0,0
-70,512,0,0,0,0,0,0,0,0,0,-1,1154,512,0,0
-63,512,0,0,0,0,0,0,0,0,0,-1,1161,512,0,0
-56,512,0,0,0,0,0,0,0,0,0,-1,1168,512,0,0
-49,512,0,0,0,0,0,0,0,0,0,-1,1175,512,0,0
-42,512,0,0,0,0,0,0,0,0,0,-1,1182,512,0,0
-35,512,0,0,0,0,0,0,0,0,0,-1,1189,512,0,0
-28,512,0,0,0,0,0,0,0,0,0,-1,1196,512,0,0
-21,512,0,0,0,0,0,0,0,0,0,-1,1203,512,0,0
-14,512,0,0,0,0,0,0,0,0,0,-1,1210,512,0,0
-7,512,0,0,0,0,0,0,0,0,0,-1,1217,512,0,0
0,512,0,0,0,0,0,0,0,0,0,-1,1224,512,0,0
7,512,0,0,0,0,0,0,0,0,0,-1,1231,512,0,0
14,512,0,0,0,0,0,0,0,0,0,-1,1238,512,0,0
21,512,0,0,0,0,0,0,0,0,0,-1,1245,512,0,0
28,512,0,0,0,0,0,0,0,0,0,-1,1252,512,0,0
35,512,0,0,0,0,0,0,0,0,0,-1,1259,512,0,0
42,512,0,0,0,0,0,0,0,0,0,-1,1266,512,0,0
49,512,0,0,0,0,0,0,0,0,0,-1,1273,512,0,0
56,512,0,0,0,0,0,0,0,0,0,-1,1280,512,0,0
63,512,0,0,0,0,0,0,0,0,0,-1,1287,512,0,0
70,512,0,0,0,0,0,0,0,0,0,-1,1294,512,0,0
77,512,0,0,0,0,0,0,0,0,0,-1,1301,512,0,0
84,512,0,0,0,0,0,0,0,0,0,-1,1308,512,0,0
91,512,0,0,0,0,0,0,0,0,0,-1,1315,512,0,0
98,512,0,0,0,0,0,0,0,0,0,-1,1322,512,0,0
105,512,0,0,0,0,0,0,0,0,0,-1,1329,512,0,0
112,512,0,0,0,0,0,0,0,0,0,-1,1336,512,0,0
119,512,0,0,0,0,0,0,0,0,0,-1,1343,512,0,0
126,512,0,0,0,0,0,0,0,0,0,-1,1350,512,0,0
133,512,0,0,0,0,0,0,0,0,0,-1,1357,512,0,0
140,512,0,0,0,0,0,0,0,0,0,-1,1364,512,0,0
147,512,0,0,0,0,0,0,0,0,0,-1,1371,512,0,0
154,512,0,0,0,0,0,0,0,0,0,-1,1378,512,0,0
161,512,0,0,0,0,0,0,0,0,0,-1,1385,512,0,0
168,512,0,0,0,0,0,0,0,0,0,-1,1392,512,0,0
175,512,0,0,0,0,0,0,0,0,0,-1,1399,512,0,0
182,512,0,0,0,0,0,0,0,0,0,-1,1406,512,0,0
189,512,0,0,0,0,0,0,0,0,0,-1,1413,512,0,0
196,512,0,0,0,0,0,0,0,0,0,-1,1420,512,0,0
203,512,0,0,0,0,0,0,0,0,0,-1,1427,512,0,0
210,512,0,0,0,0,0,0,0,0,0,-1,1434,512,0,0
217,512,0,0,0,0,0,0,0,0,0,-1,1441,512,0,0
224,512,0,0,0,0,0,0,0,0,0,-1,1448,512,0,0
231,512,0,0,0,0,0,0,0,0,0,-1,1455,512,0,0
238,512,0,0,0,0,0,0,0,0,0,-1,1462,512,0,0
245,512,0,0,0,0,0,0,0,0,0,-1,1469,512,0,0
252,512,0,0,0,0,0,0,0,0,0,-1,1476,512,0,0
259,512,0,0,0,0,0,0,0,0,0,-1,1483,512,0,0
266,512,0,0,0,0,0,0,0,0,0,-1,1490,512,0,0
273,512,4.00745,0.618622,0,0,0,0,0,0,0,-1,1497,512,4.00747,-0.618611
280,512,4.49609,0.649841,0,0,0,0,0,0,0,-1,1504,512,4.49612,-0.649834
287,512,4.77234,0.458069,0,0,0,0,0,0,0,-1,1511,512,4.77233,-0.458083
294,512,8.54956,-2.36273,0,0,0,0,0,0,0,-1,1518,512,8.54952,2.36274
301,512,6.302,-1.69092,0,0,0,0,0,0,0,-1,1525,512,6.30196,1.69093
308,512,8.2439,-6.22754,0,0,0,0,0,0,0,-1,1532,512,8.24394,6.22757
315,512,7.53687,-6.04211,0,0,0,0,0,0,0,-1,1539,512,7.53691,6.04211
322,512,6.82983,-5.85663,0,0,0,0,0,0,0,-1,1546,512,6.82988,5.85666
329,512,4.38147,-0.329651,0,0,0,0,0,0,0,-1,1553,512,4.38144,0.329662
336,512,4.41467,-0.741455,0,0,0,0,0,0,0,-1,1560,512,4.41467,0.741442
343,512,4.44727,-1.21667,0,0,0,0,0,0,0,-1,1567,512,4.44732,1.21666
350,512,4.55469,-1.65082,0,0,0,0,0,0,0,-1,1574,512,4.5547,1.65083
357,512,5.79993,-2.67456,0,0,0,0,0,0,0,-1,1581,512,5.79991,2.67454
364,512,8.56641,-24.3753,0,0,0,0,0,0,0,-1,1588,512,8.56646,24.3753
371,512,5.28467,-7.69269,0,0,0,0,0,0,0,-1,1595,512,5.28464,7.69269
378,512,6.29407,-9.88055,0,0,0,0,0,0,0,-1,1602,512,6.29412,9.88057
385,512,6.45569,-9.32233,0,0,0,0,0,0,0,-1,1609,512,6.45565,9.3223
392,512,6.35522,-8.98425,0,0,0,0,0,0,0,-1,1616,512,6.35526,8.98422
399,512,7.5304,-12.1449,0,0,0,0,0,0,0,-1,1623,512,7.53042,12.1449
406,512,11.5531,-21.3147,0,0,0,0,0,0,0,-1,1630,512,11.5531,21.3147
413,512,11.6519,-20.7874,0,0,0,0,0,0,0,-1,1637,512,11.6518,20.7874
420,512,11.6171,-20.28,0.00253211,0.0018105,0.000332128,0.0026617,0.00168091,0.372021,0.00155435,0.0260564,1644,512,11.617,20.28
427,512,11.6019,-19.7521,0.00225524,0.00177775,0.000485792,0.00255779,0.00147521,0.557001,0.00148253,0.0148689,1651,512,11.6019,19.7521
434,512,11.5786,-19.2695,0.00191598,0.0017614,0.000511338,0.00235583,0.00132154,0.710389,0.00136351,0.0114689,1658,512,11.5786,19.2695
441,512,11.543,-18.7881,0.00166011,0.00175288,0.000590481,0.00229879,0.00111419,0.824592,0.00132742,0.0132113,1665,512,11.543,18.7881
448,512,11.5255,-18.289,0.00160585,0.00164101,0.000699713,0.00232337,0.000923498,0.797959,0.00135076,0.00938179,1672,512,11.5255,18.289
455,512,11.5121,-17.7672,0.00153555,0.00155935,0.000783252,0.00233079,0.00076411,0.792995,0.00137202,0.0089518,1679,512,11.5121,17.7672
462,512,11.5149,-17.2394,0.00145207,0.00145116,0.000921072,0.00237269,0.000530543,0.785154,0.00143795,0.00936548,1686,512,11.5149,17.2395
469,512,11.4994,-16.7253,0.00136855,0.00127623,0.00107497,0.00239835,0.000246425,0.763941,0.00152342,0.0108559,1693,512,11.4994,16.7253
476,512,11.479,-16.2017,0.00108466,0.00097144,0.00116467,0.00219409,-0.00013799,0.761114,0.00151083,0.0140916,1700,512,11.479,16.2017
483,512,11.4711,-15.6519,0.000730934,0.000609334,0.00119907,0.00187074,-0.000530475,0.760067,0.00145655,0.01347,1707,512,11.4711,15.6519
490,512,11.4578,-15.1187,0.000212254,0.000204561,0.00124282,0.00145123,-0.00103441,0.783851,0.0014418,0.0107197,1714,512,11.4578,15.1187
497,512,11.4603,-14.5852,-0.000545733,-0.000311654,0.00119364,0.000770675,-0.00162806,0.834268,0.00141409,0.0116696,1721,512,11.4603,14.5852
504,512,11.4242,-14.0273,-0.00159009,-0.000944465,0.00103632,-0.000181846,-0.00235271,0.936385,0.00151151,0.0126804,1728,512,11.4242,14.0273
511,512,11.3792,-13.4564,-0.00298241,-0.00169757,0.000737035,-0.00136228,-0.00331771,1.14386,0.00192566,0.0147009,1735,512,11.3792,13.4564
518,512,11.4169,-12.9269,-0.0047988,-0.00255582,0.000217596,-0.00253491,-0.00481972,1.47497,0.00278391,0.018736,1742,512,11.4168,12.927
525,512,11.1573,-12.5406,-0.00712023,-0.00340143,-0.000565454,-0.00331735,-0.00720431,-1.42319,0.00416374,0.044105,1749,512,11.1574,12.5406
532,512,11.0706,-11.9551,0,0,0,0,0,0,0,-1,1756,512,11.0705,11.9551
539,512,7.05908,-7.00647,0,0,0,0,0,0,0,-1,1763,512,7.05909,7.00647
546,512,2.77551,-0.66449,0,0,0,0,0,0,0,-1,1770,512,2.77548,0.664503
553,512,3.927,-0.448853,0,0,0,0,0,0,0,-1,1777,512,3.92704,0.448843
560,512,3.55762,-0.201233,0,0,0,0,0,0,0,-1,1784,512,3.55768,0.201259
567,512,3.09045,0.191193,0,0,0,0,0,0,0,-1,1791,512,3.09045,-0.191203
574,512,0,0,0,0,0,0,0,0,0,-1,1798,512,0,0
581,512,0,0,0,0,0,0,0,0,0,-1,1805,512,0,0
588,512,0,0,0,0,0,0,0,0,0,-1,1812,512,0,0
595,512,0,0,0,0,0,0,0,0,0,-1,1819,512,0,0
602,512,0,0,0,0,0,0,0,0,0,-1,1826,512,0,0
609,512,0,0,0,0,0,0,0,0,0,-1,1833,512,0,0
616,512,0,0,0,0,0,0,0,0,0,-1,1840,512,0,0
623,512,0,0,0,0,0,0,0,0,0,-1,1847,512,0,0
630,512,0,0,0,0,0,0,0,0,0,-1,1854,512,0,0
637,512,0,0,0,0,0,0,0,0,0,-1,1861,512,0,0
644,512,0,0,0,0,0,0,0,0,0,-1,1868,512,0,0
651,512,0,0,0,0,0,0,0,0,0,-1,1875,512,0,0
658,512,0,0,0,0,0,0,0,0,0,-1,1882,512,0,0
665,512,0,0,0,0,0,0,0,0,0,-1,1889,512,0,0
672,512,0,0,0,0,0,0,0,0,0,-1,1896,512,0,0
679,512,0,0,0,0,0,0,0,0,0,-1,1903,512,0,0
686,512,0,0,0,0,0,0,0,0,0,-1,1910,512,0,0
693,512,0,0,0,0,0,0,0,0,0,-1,1917,512,0,0
700,512,0,0,0,0,0,0,0,0,0,-1,1924,512,0,0
707,512,0,0,0,0,0,0,0,0,0,-1,1931,512,0,0
714,512,0,0,0,0,0,0,0,0,0,-1,1938,512,0,0
721,512,0,0,0,0,0,0,0,0,0,-1,1945,512,0,0
728,512,0,0,0,0,0,0,0,0,0,-1,1952,512,0,0
735,512,0,0,0,0,0,0,0,0,0,-1,1959,512,0,0
742,512,0,0,0,0,0,0,0,0,0,-1,1966,512,0,0
749,512,0,0,0,0,0,0,0,0,0,-1,1973,512,0,0
756,512,0,0,0,0,0,0,0,0,0,-1,1980,512,0,0
763,512,0,0,0,0,0,0,0,0,0,-1,1987,512,0,0
770,512,0,0,0,0,0,0,0,0,0,-1,1994,512,0,0
777,512,0,0,0,0,0,0,0,0,0,-1,2001,512,0,0
784,512,0,0,0,0,0,0,0,0,0,-1,2008,512,0,0
791,512,0,0,0,0,0,0,0,0,0,-1,2015,512,0,0
798,512,0,0,0,0,0,0,0,0,0,-1,2022,512,0,0
805,512,0,0,0,0,0,0,0,0,0,-1,2029,512,0,0
812,512,0,0,0,0,0,0,0,0,0,-1,2036,512,0,0
-700,505,0,0,0,0,0,0,0,0,0,-1,524,519,0,0
-693,505,0,0,0,0,0,0,0,0,0,-1,531,519,0,0
-686,505,0,0,0,0,0,0,0,0,0,-1,538,519,0,0
-679,505,0,0,0,0,0,0,0,0,0,-1,545,519,0,0
-672,505,0,0,0,0,0,0,0,0,0,-1,552,519,0,0
-665,505,0,0,0,0,0,0,0,0,0,-1,559,519,0,0
-658,505,0,0,0,0,0,0,0,0,0,-1,566,519,0,0
-651,505,0,0,0,0,0,0,0,0,0,-1,573,519,0,0
-644,505,0,0,0,0,0,0,0,0,0,-1,580,519,0,0
-637,505,0,0,0,0,0,0,0,0,0,-1,587,519,0,0
-630,505,0,0,0,0,0,0,0,0,0,-1,594,519,0,0
-623,505,0,0,0,0,0,0,0,0,0,-1,601,519,0,0
-616,505,0,0,0,0,0,0,0,0,0,-1,608,519,0,0
-609,505,0,0,0,0,0,0,0,0,0,-1,615,519,0,0
-602,505,0,0,0,0,0,0,0,0,0,-1,622,519,0,0
-595,505,0,0,0,0,0,0,0,0,0,-1,629,519,0,0
-588,505,0,0,0,0,0,0,0,0,0,-1,636,519,0,0
-581,505,0,0,0,0,0,0,0,0,0,-1,643,519,0,0
-574,505,0,0,0,0,0,0,0,0,0,-1,650,519,0,0
-567,505,0,0,0,0,0,0,0,0,0,-1,657,519,0,0
-560,505,0,0,0,0,0,0,0,0,0,-1,664,519,0,0
-553,505,0,0,0,0,0,0,0,0,0,-1,671,519,0,0
-546,505,0,0,0,0,0,0,0,0,0,-1,678,519,0,0
-539,505,0,0,0,0,0,0,0,0,0,-1,685,519,0,0
-532,505,0,0,0,0,0,0,0,0,0,-1,692,519,0,0
-525,505,0,0,0,0,0,0,0,0,0,-1,699,519,0,0
-518,505,0,0,0,0,0,0,0,0,0,-1,706,519,0,0
-511,505,0,0,0,0,0,0,0,0,0,-1,713,519,0,0
-504,505,0,0,0,0,0,0,0,0,0,-1,720,519,0,0
-497,505,0,0,0,0,0,0,0,0,0,-1,727,519,0,0
-490,505,0,0,0,0,0,0,0,0,0,-1,734,519,0,0
-483,505,0,0,0,0,0,0,0,0,0,-1,741,519,0,0
-476,505,0,0,0,0,0,0,0,0,0,-1,748,519,0,0
-469,505,0,0,0,0,0,0,0,0,0,-1,755,519,0,0
-462,505,0,0,0,0,0,0,0,0,0,-1,762,519,0,0
-455,505,2.72137,-3.26379,0,0,0,0,0,0,0,-1,769,519,2.72135,3.26377
-448,505,2.51111,-3.94989,0,0,0,0,0,0,0,-1,776,519,2.51112,3.94986
-441,505,2.80212,-6.8902,0,0,0,0,0,0,0,-1,783,519,2.80209,6.89019
-434,505,-0.155212,-10.6374,0,0,0,0,0,0,0,-1,790,519,-0.155194,10.6374
-427,505,-0.474426,-10.4702,0,0,0,0,0,0,0,-1,797,519,-0.474433,10.4702
-420,505,-0.922546,-10.1928,0,0,0,0,0,0,0,-1,804,519,-0.92257,10.1928
-413,505,-3.24561,-13.2048,0,0,0,0,0,0,0,-1,811,519,-3.24563,13.2049
-406,505,-2.16071,-12.6459,0,0,0,0,0,0,0,-1,818,519,-2.16072,12.6459
-399,505,-2.10089,-13.3824,0.00423316,0.0167533,-0.0117385,0.0237966,-0.00281018,-1.03036,0.0168793,0.0493651,825,519,-2.10088,13.3824
-392,505,-2.02429,-14.1974,0.00413113,0.0140357,-0.0102873,0.0205007,-0.00233382,-1.00973,0.0145078,0.0223312,832,519,-2.02432,14.1974
-385,505,-2.07507,-14.8497,0.00384403,0.0115131,-0.0087412,0.0172238,-0.00186672,-0.992095,0.0121527,0.00953079,839,519,-2.07505,14.8497
-378,505,-2.11682,-15.3915,0.00359897,0.0093803,-0.00735957,0.0143965,-0.00141727,-0.97253,0.0101033,0.0118739,846,519,-2.11681,15.3915
-371,505,-2.1181,-15.9526,0.0032405,0.0073703,-0.00602533,0.0116747,-0.00106393,-0.950478,0.00816095,0.0143128,853,519,-2.11807,15.9526
-364,505,-2.13739,-16.4777,0.002794,0.0055347,-0.00470959,0.00906925,-0.000740553,-0.926974,0.00630753,0.0154741,860,519,-2.13742,16.4777
-357,505,-2.1236,-16.9764,0.00242883,0.00404771,-0.00354638,0.00687585,-0.000399311,-0.897599,0.00472264,0.0138347,867,519,-2.12358,16.9764
-350,505,-2.15363,-17.4575,0.00213573,0.00271756,-0.00253845,0.00498171,-0.000128421,-0.842451,0.00336476,0.0125811,874,519,-2.15361,17.4575
-343,505,-2.18616,-17.959,0.00189911,0.00144293,-0.0016129,0.00329997,4.2072e-05,-0.715156,0.00218609,0.00956274,881,519,-2.18614,17.9591
-336,505,-2.20502,-18.4465,0.00176728,0.000431608,-0.000856998,0.00218593,1.2958e-05,-0.454411,0.00145299,0.0125947,888,519,-2.20505,18.4465
-329,505,-2.19165,-18.9226,0.00180581,-0.000452869,-0.000272876,0.00183831,-0.000485368,-0.11854,0.00141535,0.0180508,895,519,-2.19166,18.9226
-322,505,-2.19055,-19.4368,0.00191876,-0.00111512,0.00018542,0.00193005,-0.00112641,0.0608149,0.00178486,0.0199345,902,519,-2.19055,19.4368
-315,505,-2.21423,-19.9221,0.00208336,-0.0015956,0.000604402,0.00218011,-0.00169235,0.15873,0.00224167,0.0149856,909,519,-2.21423,19.9221
-308,505,-2.23553,-20.3755,0.00229014,-0.00202505,0.0010067,0.00251344,-0.00224835,0.218279,0.00275064,0.0121892,916,519,-2.23552,20.3755
-301,505,-2.22205,-20.8621,0.00236157,-0.00261804,0.00153152,0.00279489,-0.00305136,0.275729,0.00337642,0.0169762,923,519,-2.22205,20.8621
-294,505,-2.22711,-21.3099,0,0,0,0,0,0,0,-1,930,519,-2.2271,21.31
-287,505,-2.24945,-21.8063,0,0,0,0,0,0,0,-1,937,519,-2.24946,21.8064
-280,505,-2.08075,-22.4453,0,0,0,0,0,0,0,-1,944,519,-2.08075,22.4453
-273,505,-0.0680542,-9.44867,0,0,0,0,0,0,0,-1,951,519,-0.0680462,9.44866
-266,505,-0.036377,-9.07922,0,0,0,0,0,0,0,-1,958,519,-0.0364055,9.0792
-259,505,0.10321,-6.69824,0,0,0,0,0,0,0,-1,965,519,0.103235,6.69826
-252,505,6.82312,-15.6972,0,0,0,0,0,0,0,-1,972,519,6.82314,15.6972
-245,505,4.26727,-12.9861,0,0,0,0,0,0,0,-1,979,519,4.2673,12.9861
-238,505,1.67432,-11.2307,0,0,0,0,0,0,0,-1,986,519,1.67429,11.2307
-231,505,-0.958435,-8.3075,0,0,0,0,0,0,0,-1,993,519,-0.958421,8.30751
-224,505,-3.69653,-5.12732,0,0,0,0,0,0,0,-1,1000,519,-3.69653,5.12733
-217,505,-6.34302,-1.65533,0,0,0,0,0,0,0,-1,1007,519,-6.34299,1.65535
-210,505,-3.06128,-0.396301,0,0,0,0,0,0,0,-1,1014,519,-3.06129,0.396294
-203,505,-4.26465,2.03607,0,0,0,0,0,0,0,-1,1021,519,-4.26462,-2.03606
-196,505,-5.47595,4.27295,0,0,0,0,0,0,0,-1,1028,519,-5.47597,-4.27292
-189,505,1.51526,5.56207,0,0,0,0,0,0,0,-1,1035,519,1.51523,-5.56209
-182,505,2.97815,7.5097,0,0,0,0,0,0,0,-1,1042,519,2.97812,-7.5097
-175,505,-2.38416,-2.17548,0,0,0,0,0,0,0,-1,1049,519,-2.38411,2.1755
-168,505,0,0,0,0,0,0,0,0,0,-1,1056,519,0,0
-161,505,0,0,0,0,0,0,0,0,0,-1,1063,519,0,0
-154,505,0,0,0,0,0,0,0,0,0,-1,1070,519,0,0
-147,505,0,0,0,0,0,0,0,0,0,-1,1077,519,0,0
-140,505,0,0,0,0,0,0,0,0,0,-1,1084,519,0,0
-133,505,0,0,0,0,0,0,0,0,0,-1,1091,519,0,0
-126,505,0,0,0,0,0,0,0,0,0,-1,1098,519,0,0
-119,505,0,0,0,0,0,0,0,0,0,-1,1105,519,0,0
-112,505,0,0,0,0,0,0,0,0,0,-1,1112,519,0,0
-105,505,0,0,0,0,0,0,0,0,0,-1,1119,519,0,0
-98,505,0,0,0,0,0,0,0,0,0,-1,1126,519,0,0
-91,505,0,0,0,0,0,0,0,0,0,-1,1133,519,0,0
-84,505,0,0,0,0,0,0,0,0,0,-1,1140,519,0,0
-77,505,0,0,0,0,0,0,0,0,0,-1,1147,519,0,0
-70,505,0,0,0,0,0,0,0,0,0,-1,1154,519,0,0
-63,505,0,0,0,0,0,0,0,0,0,-1,1161,519,0,0
-56,505,0,0,0,0,0,0,0,0,0,-1,1168,519,0,0
-49,505,0,0,0,0,0,0,0,0,0,-1,1175,519,0,0
-42,505,0,0,0,0,0,0,0,0,0,-1,1182,519,0,0
-35,505,0,0,0,0,0,0,0,0,0,-1,1189,519,0,0
-28,505,0,0,0,0,0,0,0,0,0,-1,1196,519,0,0
-21,505,0,0,0,0,0,0,0,0,0,-1,1203,519,0,0
-14,505,0,0,0,0,0,0,0,0,0,-1,1210,519,0,0
-7,505,0,0,0,0,0,0,0,0,0,-1,1217,519,0,0
0,505,0,0,0,0,0,0,0,0,0,-1,1224,519,0,0
7,505,0,0,0,0,0,0,0,0,0,-1,1231,519,0,0
14,505,0,0,0,0,0,0,0,0,0,-1,1238,519,0,0
21,505,0,0,0,0,0,0,0,0,0,-1,1245,519,0,0
28,505,0,0,0,0,0,0,0,0,0,-1,1252,519,0,0
35,505,0,0,0,0,0,0,0,0,0,-1,1259,519,0,0
42,505,0,0,0,0,0,0,0,0,0,-1,1266,519,0,0
49,505,0,0,0,0,0,0,0,0,0,-1,1273,519,0,0
56,505,0,0,0,0,0,0,0,0,0,-1,1280,519,0,0
63,505,0,0,0,0,0,0,0,0,0,-1,1287,519,0,0
70,505,0,0,0,0,0,0,0,0,0,-1,1294,519,0,0
77,505,0,0,0,0,0,0,0,0,0,-1,1301,519,0,0
84,505,0,0,0,0,0,0,0,0,0,-1,1308,519,0,0
91,505,0,0,0,0,0,0,0,0,0,-1,1315,519,0,0
98,505,0,0,0,0,0,0,0,0,0,-1,1322,519,0,0
105,505,0,0,0,0,0,0,0,0,0,-1,1329,519,0,0
112,505,0,0,0,0,0,0,0,0,0,-1,1336,519,0,0
119,505,0,0,0,0,0,0,0,0,0,-1,1343,519,0,0
126,505,0,0,0,0,0,0,0,0,0,-1,1350,519,0,0
133,505,0,0,0,0,0,0,0,0,0,-1,1357,519,0,0
140,505,0,0,0,0,0,0,0,0,0,-1,1364,519,0,0
147,505,0,0,0,0,0,0,0,0,0,-1,1371,519,0,0
154,505,0,0,0,0,0,0,0,0,0,-1,1378,519,0,0
161,505,0,0,0,0,0,0,0,0,0,-1,1385,519,0,0
168,505,0,0,0,0,0,0,0,0,0,-1,1392,519,0,0
175,505,0,0,0,0,0,0,0,0,0,-1,1399,519,0,0
182,505,0,0,0,0,0,0,0,0,0,-1,1406,519,0,0
189,505,0,0,0,0,0,0,0,0,0,-1,1413,519,0,0
196,505,0,0,0,0,0,0,0,0,0,-1,1420,519,0,0
203,505,0,0,0,0,0,0,0,0,0,-1,1427,519,0,0
210,505,0,0,0,0,0,0,0,0,0,-1,1434,519,0,0
217,505,0,0,0,0,0,0,0,0,0,-1,1441,519,0,0
224,505,0,0,0,0,0,0,0,0,0,-1,1448,519,0,0
231,505,0,0,0,0,0,0,0,0,0,-1,1455,519,0,0
238,505,0,0,0,0,0,0,0,0,0,-1,1462,519,0,0
245,505,0,0,0,0,0,0,0,0,0,-1,1469,519,0,0
252,505,0,0,0,0,0,0,0,0,0,-1,1476,519,0,0
259,505,0,0,0,0,0,0,0,0,0,-1,1483,519,0,0
266,505,0,0,0,0,0,0,0,0,0,-1,1490,519,0,0
273,505,0,0,0,0,0,0,0,0,0,-1,1497,519,0,0
280,505,0,0,0,0,0,0,0,0,0,-1,1504,519,0,0
287,505,4.39478,0.499512,0,0,0,0,0,0,0,-1,1511,519,4.39476,-0.499506
294,505,4.88867,0.0822754,0,0,0,0,0,0,0,-1,1518,519,4.88871,-0.0822748
301,505,4.82153,-0.0704346,0,0,0,0,0,0,0,-1,1525,519,4.82156,0.0704312
308,505,4.67761,-0.29187,0,0,0,0,0,0,0,-1,1532,519,4.67762,0.291845
315,505,8.44055,-6.54352,0,0,0,0,0,0,0,-1,1539,519,8.44059,6.54349
322,505,4.78955,-0.594116,0,0,0,0,0,0,0,-1,1546,519,4.78957,0.594096
329,505,5.16321,0.434631,0,0,0,0,0,0,0,-1,1553,519,5.16316,-0.434614
336,505,4.94495,-0.920471,0,0,0,0,0,0,0,-1,1560,519,4.945,0.920495
343,505,5.01855,-1.4823,0,0,0,0,0,0,0,-1,1567,519,5.01851,1.48227
350,505,5.33154,-1.77838,0,0,0,0,0,0,0,-1,1574,519,5.33152,1.77838
357,505,5.56567,-1.9425,0,0,0,0,0,0,0,-1,1581,519,5.56562,1.94248
364,505,5.85205,-2.6579,0,0,0,0,0,0,0,-1,1588,519,5.85211,2.65788
371,505,5.88477,-7.00922,0,0,0,0,0,0,0,-1,1595,519,5.88473,7.00924
378,505,5.44104,-7.10162,0,0,0,0,0,0,0,-1,1602,519,5.44099,7.10162
385,505,6.64661,-8.65015,0,0,0,0,0,0,0,-1,1609,519,6.64662,8.65014
392,505,6.34558,-8.3429,0,0,0,0,0,0,0,-1,1616,519,6.34554,8.34288
399,505,7.45898,-9.70386,0,0,0,0,0,0,0,-1,1623,519,7.45899,9.70388
406,505,7.08679,-9.4928,0,0,0,0,0,0,0,-1,1630,519,7.08678,9.49278
413,505,8.4032,-14.0308,0,0,0,0,0,0,0,-1,1637,519,8.4032,14.0308
420,505,12.1135,-20.4979,0,0,0,0,0,0,0,-1,1644,519,12.1135,20.4979
427,505,12.0779,-19.869,0.00276317,0.00271007,0.000644034,0.0033812,0.00209204,0.764798,0.0019704,0.0304198,1651,519,12.0779,19.869
434,505,12.0643,-19.2878,0.00228816,0.00242664,0.000521038,0.00288302,0.00183178,0.851456,0.00168472,0.0125102,1658,519,12.0643,19.2878
441,505,12.0657,-18.7444,0.00191867,0.00217815,0.000502338,0.00256723,0.00152959,0.911775,0.00149124,0.0105405,1665,519,12.0657,18.7444
448,505,12.0354,-18.2391,0.00182201,0.00185366,0.000552661,0.00239072,0.00128494,0.79971,0.00138157,0.0104179,1672,519,12.0354,18.2391
455,505,12.007,-17.7308,0.00171016,0.00158465,0.000571114,0.00222195,0.00107285,0.730677,0.0012831,0.0109125,1679,519,12.007,17.7308
462,505,11.9861,-17.2108,0.00158596,0.00135639,0.000661467,0.00214252,0.00079982,0.699488,0.00125015,0.0110864,1686,519,11.9861,17.2108
469,505,11.9985,-16.7079,0.00149749,0.00111165,0.000813358,0.00214049,0.000468645,0.668955,0.00129927,0.0114371,1693,519,11.9986,16.7079
476,505,12.0011,-16.1979,0.00124933,0.000812106,0.000917677,0.00197407,8.73596e-05,0.668467,0.00128792,0.0117828,1700,519,12.0011,16.198
483,505,11.9888,-15.6614,0.000903465,0.000480496,0.000962671,0.00167761,-0.000293647,0.677273,0.00122805,0.0128186,1707,519,11.9887,15.6614
490,505,11.9703,-15.1256,0.000386607,0.000183552,0.00100692,0.00129711,-0.000726946,0.735153,0.00118394,0.0124728,1714,519,11.9703,15.1256
497,505,11.9695,-14.6022,-0.00033557,-0.000180117,0.00098137,0.0007266,-0.00124229,0.824917,0.00114966,0.0119761,1721,519,11.9694,14.6021
504,505,11.9371,-14.0521,-0.00128313,-0.000595299,0.000879732,5.35161e-06,-0.00188378,0.971731,0.00125764,0.0125745,1728,519,11.9371,14.0521
511,505,11.9023,-13.4937,-0.00253276,-0.00105464,0.000651484,-0.000808491,-0.00277891,1.20954,0.00165049,0.0151377,1735,519,11.9023,13.4937
518,505,11.9397,-12.9362,-0.00415235,-0.00156616,0.00020582,-0.00154989,-0.00416863,1.49187,0.00243299,0.0213398,1742,519,11.9397,12.9362
525,505,11.7642,-12.3662,-0.00608673,-0.00220056,-0.000447291,-0.00214975,-0.00613755,-1.45767,0.00359609,0.0332123,1749,519,11.7641,12.3662
532,505,11.7056,-11.5735,0,0,0,0,0,0,0,-1,1756,519,11.7055,11.5736
539,505,7.90369,-7.11932,0,0,0,0,0,0,0,-1,1763,519,7.90373,7.11932
546,505,7.94946,-6.64539,0,0,0,0,0,0,0,-1,1770,519,7.94947,6.64539
553,505,2.82837,0.162659,0,0,0,0,0,0,0,-1,1777,519,2.82841,-0.162672
560,505,3.66223,-0.479797,0,0,0,0,0,0,0,-1,1784,519,3.66219,0.47982
567,505,4.65271,-0.950256,0,0,0,0,0,0,0,-1,1791,519,4.65274,0.95028
574,505,5.54443,-1.19977,0,0,0,0,0,0,0,-1,1798,519,5.54443,1.19974
581,505,0,0,0,0,0,0,0,0,0,-1,1805,519,0,0
588,505,0,0,0,0,0,0,0,0,0,-1,1812,519,0,0
595,505,0,0,0,0,0,0,0,0,0,-1,1819,519,0,0
602,505,0,0,0,0,0,0,0,0,0,-1,1826,519,0,0
609,505,0,0,0,0,0,0,0,0,0,-1,1833,519,0,0
616,505,0,0,0,0,0,0,0,0,0,-1,1840,519,0,0
623,505,0,0,0,0,0,0,0,0,0,-1,1847,519,0,0
630,505,0,0,0,0,0,0,0,0,0,-1,1854,519,0,0
637,505,0,0,0,0,0,0,0,0,0,-1,1861,519,0,0
644,505,0,0,0,0,0,0,0,0,0,-1,1868,519,0,0
651,505,0,0,0,0,0,0,0,0,0,-1,1875,519,0,0
658,505,0,0,0,0,0,0,0,0,0,-1,1882,519,0,0
665,505,0,0,0,0,0,0,0,0,0,-1,1889,519,0,0
672,505,0,0,0,0,0,0,0,0,0,-1,1896,519,0,0
679,505,0,0,0,0,0,0,0,0,0,-1,1903,519,0,0
686,505,0,0,0,0,0,0,0,0,0,-1,1910,519,0,0
693,505,0,0,0,0,0,0,0,0,0,-1,1917,519,0,0
700,505,0,0,0,0,0,0,0,0,0,-1,1924,519,0,0
707,505,0,0,0,0,0,0,0,0,0,-1,1931,519,0,0
714,505,0,0,0,0,0,0,0,0,0,-1,1938,519,0,0
721,505,0,0,0,0,0,0,0,0,0,-1,1945,519,0,0
728,505,0,0,0,0,0,0,0,0,0,-1,1952,519,0,0
735,505,0,0,0,0,0,0,0,0,0,-1,1959,519,0,0
742,505,0,0,0,0,0,0,0,0,0,-1,1966,519,0,0
749,505,0,0,0,0,0,0,0,0,0,-1,1973,519,0,0
756,505,0,0,0,0,0,0,0,0,0,-1,1980,519,0,0
763,505,0,0,0,0,0,0,0,0,0,-1,1987,519,0,0
770,505,0,0,0,0,0,0,0,0,0,-1,1994,519,0,0
777,505,0,0,0,0,0,0,0,0,0,-1,2001,519,0,0
784,505,0,0,0,0,0,0,0,0,0,-1,2008,519,0,0
791,505,0,0,0,0,0,0,0,0,0,-1,2015,519,0,0
798,505,0,0,0,0,0,0,0,0,0,-1,2022,519,0,0
805,505,0,0,0,0,0,0,0,0,0,-1,2029,519,0,0
812,505,0,0,0,0,0,0,0,0,0,-1,2036,519,0,0
-700,498,0,0,0,0,0,0,0,0,0,-1,524,526,0,0
-693,498,0,0,0,0,0,0,0,0,0,-1,531,526,0,0
-686,498,0,0,0,0,0,0,0,0,0,-1,538,526,0,0
-679,498,0,0,0,0,0,0,0,0,0,-1,545,526,0,0
-672,498,0,0,0,0,0,0,0,0,0,-1,552,526,0,0
-665,498,0,0,0,0,0,0,0,0,0,-1,559,526,0,0
-658,498,0,0,0,0,0,0,0,0,0,-1,566,526,0,0
-651,498,0,0,0,0,0,0,0,0,0,-1,573,526,0,0
-644,498,0,0,0,0,0,0,0,0,0,-1,580,526,0,0
-637,498,0,0,0,0,0,0,0,0,0,-1,587,526,0,0
-630,498,0,0,0,0,0,0,0,0,0,-1,594,526,0,0
-623,498,0,0,0,0,0,0,0,0,0,-1,601,526,0,0
-616,498,0,0,0,0,0,0,0,0,0,-1,608,526,0,0
-609,498,0,0,0,0,0,0,0,0,0,-1,615,526,0,0
-602,498,0,0,0,0,0,0,0,0,0,-1,622,526,0,0
-595,498,0,0,0,0,0,0,0,0,0,-1,629,526,0,0
-588,498,0,0,0,0,0,0,0,0,0,-1,636,526,0,0
-581,498,0,0,0,0,0,0,0,0,0,-1,643,526,0,0
-574,498,0,0,0,0,0,0,0,0,0,-1,650,526,0,0
-567,498,0,0,0,0,0,0,0,0,0,-1,657,526,0,0
-560,498,0,0,0,0,0,0,0,0,0,-1,664,526,0,0
-553,498,0,0,0,0,0,0,0,0,0,-1,671,526,0,0
-546,498,0,0,0,0,0,0,0,0,0,-1,678,526,0,0
-539,498,0,0,0,0,0,0,0,0,0,-1,685,526,0,0
-532,498,0,0,0,0,0,0,0,0,0,-1,692,526,0,0
-525,498,0,0,0,0,0,0,0,0,0,-1,699,526,0,0
-518,498,0,0,0,0,0,0,0,0,0,-1,706,526,0,0
-511,498,0,0,0,0,0,0,0,0,0,-1,713,526,0,0
-504,498,0,0,0,0,0,0,0,0,0,-1,720,526,0,0
-497,498,0,0,0,0,0,0,0,0,0,-1,727,526,0,0
-490,498,0,0,0,0,0,0,0,0,0,-1,734,526,0,0
-483,498,0,0,0,0,0,0,0,0,0,-1,741,526,0,0
-476,498,0,0,0,0,0,0,0,0,0,-1,748,526,0,0
-469,498,0,0,0,0,0,0,0,0,0,-1,755,526,0,0
-462,498,6.81024,1.15515,0,0,0,0,0,0,0,-1,762,526,6.81026,-1.15514
-455,498,3.25757,-3.0592,0,0,0,0,0,0,0,-1,769,526,3.25754,3.05921
-448,498,3.05939,-3.74298,0,0,0,0,0,0,0,-1,776,526,3.05939,3.74296
-441,498,2.77191,-6.08209,0,0,0,0,0,0,0,-1,783,526,2.77189,6.08207
-434,498,2.10681,-6.95929,0,0,0,0,0,0,0,-1,790,526,2.10682,6.9593
-427,498,-0.368042,-10.7726,0,0,0,0,0,0,0,-1,797,526,-0.36807,10.7726
-420,498,-1.05035,-10.5142,0,0,0,0,0,0,0,-1,804,526,-1.05034,10.5142
-413,498,-3.02985,-11.64,0,0,0,0,0,0,0,-1,811,526,-3.02982,11.64
-406,498,-2.79742,-12.5781,0,0,0,0,0,0,0,-1,818,526,-2.7974,12.5781
-399,498,-2.51324,-13.618,0.00248199,0.0132706,-0.00871733,0.0181277,-0.00237506,-1.06246,0.0129496,0.0252147,825,526,-2.51323,13.618
-392,498,-2.57141,-14.3029,0.00264166,0.0109807,-0.00765925,0.0155318,-0.00190943,-1.03466,0.0110462,0.013304,832,526,-2.57144,14.3028
-385,498,-2.59503,-14.8534,0.00271669,0.00886908,-0.00653182,0.0130128,-0.00142707,-1.00547,0.00918793,0.00962421,839,526,-2.59503,14.8534
-378,498,-2.60126,-15.3831,0.00280681,0.00708494,-0.00550343,0.0108504,-0.00095864,-0.970753,0.00757339,0.0112964,846,526,-2.60125,15.3831
-371,498,-2.6214,-15.9128,0.00271564,0.00535274,-0.00446703,0.00869176,-0.000623378,-0.92891,0.00601308,0.0166997,853,526,-2.62143,15.9128
-364,498,-2.64722,-16.4432,0.00250572,0.00372793,-0.00339932,0.00657064,-0.000336984,-0.874334,0.00449697,0.016679,860,526,-2.64721,16.4432
-357,498,-2.62115,-16.9457,0.00236109,0.00242896,-0.00244714,0.0048424,-5.23448e-05,-0.792331,0.00324586,0.0120732,867,526,-2.62113,16.9458
-350,498,-2.64972,-17.4399,0.00225425,0.00126424,-0.00161747,0.00345077,6.77271e-05,-0.636906,0.00227827,0.0114599,874,526,-2.64973,17.4399
-343,498,-2.66656,-17.9412,0.00215575,0.000168899,-0.00086019,0.00247641,-0.000151761,-0.356821,0.00170378,0.0111938,881,526,-2.66659,17.9412
-336,498,-2.6712,-18.4404,0.00211215,-0.000749394,-0.000218663,0.00212877,-0.000766007,-0.0758276,0.00173193,0.0139778,888,526,-2.67122,18.4404
-329,498,-2.64929,-18.9152,0.00226737,-0.00146555,0.000202803,0.00227836,-0.00147653,0.054116,0.0021843,0.020691,895,526,-2.64928,18.9152
-322,498,-2.67664,-19.4219,0.00250088,-0.00201642,0.000557113,0.00256857,-0.00208411,0.120915,0.00269108,0.0226662,902,526,-2.67666,19.4219
-315,498,-2.70587,-19.8976,0.00270657,-0.00243574,0.000920865,0.0028665,-0.00259567,0.17196,0.00315488,0.0177234,909,526,-2.70588,19.8976
-308,498,-2.69891,-20.3537,0.00291708,-0.00278059,0.00128768,0.00319458,-0.00305809,0.212258,0.00361027,0.0204437,916,526,-2.69892,20.3537
-301,498,-2.66846,-20.8624,0,0,0,0,0,0,0,-1,923,526,-2.66844,20.8624
-294,498,-2.53186,-21.1682,0,0,0,0,0,0,0,-1,930,526,-2.53187,21.1681
-287,498,-0.91394,-13.4327,0,0,0,0,0,0,0,-1,937,526,-0.913935,13.4327
-280,498,-0.341614,-8.66608,0,0,0,0,0,0,0,-1,944,526,-0.341589,8.66606
-273,498,-0.988892,-8.62921,0,0,0,0,0,0,0,-1,951,526,-0.988906,8.62922
-266,498,0.362488,-6.33545,0,0,0,0,0,0,0,-1,958,526,0.362478,6.33547
-259,498,10.9454,-17.3615,0,0,0,0,0,0,0,-1,965,526,10.9454,17.3614
-252,498,8.56586,-14.6886,0,0,0,0,0,0,0,-1,972,526,8.56584,14.6886
-245,498,5.97382,-11.928,0,0,0,0,0,0,0,-1,979,526,5.97381,11.928
-238,498,2.24841,-13.8145,0,0,0,0,0,0,0,-1,986,526,2.24838,13.8145
-231,498,0.665894,-10.4898,0,0,0,0,0,0,0,-1,993,526,0.665863,10.4898
-224,498,-2.11243,-4.76312,0,0,0,0,0,0,0,-1,1000,526,-2.11245,4.76314
-217,498,-3.82239,-1.42841,0,0,0,0,0,0,0,-1,1007,526,-3.82241,1.42843
-210,498,-1.80591,-0.358215,0,0,0,0,0,0,0,-1,1014,526,-1.8059,0.3582
-203,498,-3.17316,1.06641,0,0,0,0,0,0,0,-1,1021,526,-3.17313,-1.0664
-196,498,-0.103271,5.40527,0,0,0,0,0,0,0,-1,1028,526,-0.103285,-5.40528
-189,498,3.00256,6.47137,0,0,0,0,0,0,0,-1,1035,526,3.00256,-6.47139
-182,498,0,0,0,0,0,0,0,0,0,-1,1042,526,0,0
-175,498,0,0,0,0,0,0,0,0,0,-1,1049,526,0,0
-168,498,0,0,0,0,0,0,0,0,0,-1,1056,526,0,0
-161,498,0,0,0,0,0,0,0,0,0,-1,1063,526,0,0
-154,498,0,0,0,0,0,0,0,0,0,-1,1070,526,0,0
-147,498,0,0,0,0,0,0,0,0,0,-1,1077,526,0,0
-140,498,0,0,0,0,0,0,0,0,0,-1,1084,526,0,0
-133,498,0,0,0,0,0,0,0,0,0,-1,1091,526,0,0
-126,498,0,0,0,0,0,0,0,0,0,-1,1098,526,0,0
-119,498,0,0,0,0,0,0,0,0,0,-1,1105,526,0,0
-112,498,0,0,0,0,0,0,0,0,0,-1,1112,526,0,0
-105,498,0,0,0,0,0,0,0,0,0,-1,1119,526,0,0
-98,498,0,0,0,0,0,0,0,0,0,-1,1126,526,0,0
-91,498,0,0,0,0,0,0,0,0,0,-1,1133,526,0,0
-84,498,0,0,0,0,0,0,0,0,0,-1,1140,526,0,0
-77,498,0,0,0,0,0,0,0,0,0,-1,1147,526,0,0
-70,498,0,0,0,0,0,0,0,0,0,-1,1154,526,0,0
-63,498,0,0,0,0,0,0,0,0,0,-1,1161,526,0,0
-56,498,0,0,0,0,0,0,0,0,0,-1,1168,526,0,0
-49,498,0,0,0,0,0,0,0,0,0,-1,1175,526,0,0
-42,498,0,0,0,0,0,0,0,0,0,-1,1182,526,0,0
-35,498,0,0,0,0,0,0,0,0,0,-1,1189,526,0,0
-28,498,0,0,0,0,0,0,0,0,0,-1,1196,526,0,0
-21,498,0,0,0,0,0,0,0,0,0,-1,1203,526,0,0
-14,498,0,0,0,0,0,0,0,0,0,-1,1210,526,0,0
-7,498,0,0,0,0,0,0,0,0,0,-1,1217,526,0,0
0,498,0,0,0,0,0,0,0,0,0,-1,1224,526,0,0
7,498,0,0,0,0,0,0,0,0,0,-1,1231,526,0,0
14,498,0,0,0,0,0,0,0,0,0,-1,1238,526,0,0
21,498,0,0,0,0,0,0,0,0,0,-1,1245,526,0,0
28,498,0,0,0,0,0,0,0,0,0,-1,1252,526,0,0
35,498,0,0,0,0,0,0,0,0,0,-1,1259,526,0,0
42,498,0,0,0,0,0,0,0,0,0,-1,1266,526,0,0
49,498,0,0,0,0,0,0,0,0,0,-1,1273,526,0,0
56,498,0,0,0,0,0,0,0,0,0,-1,1280,526,0,0
63,498,0,0,0,0,0,0,0,0,0,-1,1287,526,0,0
70,498,0,0,0,0,0,0,0,0,0,-1,1294,526,0,0
77,498,0,0,0,0,0,0,0,0,0,-1,1301,526,0,0
84,498,0,0,0,0,0,0,0,0,0,-1,1308,526,0,0
91,498,0,0,0,0,0,0,0,0,0,-1,1315,526,0,0
98,498,0,0,0,0,0,0,0,0,0,-1,1322,526,0,0
105,498,0,0,0,0,0,0,0,0,0,-1,1329,526,0,0
112,498,0,0,0,0,0,0,0,0,0,-1,1336,526,0,0
119,498,0,0,0,0,0,0,0,0,0,-1,1343,526,0,0
126,498,0,0,0,0,0,0,0,0,0,-1,1350,526,0,0
133,498,0,0,0,0,0,0,0,0,0,-1,1357,526,0,0
140,498,0,0,0,0,0,0,0,0,0,-1,1364,526,0,0
147,498,0,0,0,0,0,0,0,0,0,-1,1371,526,0,0
154,498,0,0,0,0,0,0,0,0,0,-1,1378,526,0,0
161,498,0,0,0,0,0,0,0,0,0,-1,1385,526,0,0
168,498,0,0,0,0,0,0,0,0,0,-1,1392,526,0,0
175,498,0,0,0,0,0,0,0,0,0,-1,1399,526,0,0
182,498,0,0,0,0,0,0,0,0,0,-1,1406,526,0,0
189,498,0,0,0,0,0,0,0,0,0,-1,1413,526,0,0
196,498,0,0,0,0,0,0,0,0,0,-1,1420,526,0,0
203,498,0,0,0,0,0,0,0,0,0,-1,1427,526,0,0
210,498,0,0,0,0,0,0,0,0,0,-1,1434,526,0,0
217,498,0,0,0,0,0,0,0,0,0,-1,1441,526,0,0
224,498,0,0,0,0,0,0,0,0,0,-1,1448,526,0,0
231,498,0,0,0,0,0,0,0,0,0,-1,1455,526,0,0
238,498,0,0,0,0,0,0,0,0,0,-1,1462,526,0,0
245,498,0,0,0,0,0,0,0,0,0,-1,1469,526,0,0
252,498,0,0,0,0,0,0,0,0,0,-1,1476,526,0,0
259,498,0,0,0,0,0,0,0,0,0,-1,1483,526,0,0
266,498,0,0,0,0,0,0,0,0,0,-1,1490,526,0,0
273,498,0,0,0,0,0,0,0,0,0,-1,1497,526,0,0
280,498,0,0,0,0,0,0,0,0,0,-1,1504,526,0,0
287,498,0,0,0,0,0,0,0,0,0,-1,1511,526,0,0
294,498,0,0,0,0,0,0,0,0,0,-1,1518,526,0,0
301,498,0,0,0,0,0,0,0,0,0,-1,1525,526,0,0
308,498,4.77942,-0.293884,0,0,0,0,0,0,0,-1,1532,526,4.77939,0.293899
315,498,4.56091,-0.564148,0,0,0,0,0,0,0,-1,1539,526,4.56097,0.564142
322,498,4.52344,-0.447266,0,0,0,0,0,0,0,-1,1546,526,4.52341,0.447295
329,498,4.63232,-0.156982,0,0,0,0,0,0,0,-1,1553,526,4.63238,0.156991
336,498,5.22644,0.0925903,0,0,0,0,0,0,0,-1,1560,526,5.22648,-0.0926188
343,498,6.22607,-1.67615,0,0,0,0,0,0,0,-1,1567,526,6.22605,1.67617
350,498,6.19373,-1.59906,0,0,0,0,0,0,0,-1,1574,526,6.19367,1.59906
357,498,6.21472,-1.58929,0,0,0,0,0,0,0,-1,1581,526,6.21476,1.58927
364,498,5.73547,-1.2019,0,0,0,0,0,0,0,-1,1588,526,5.73547,1.20192
371,498,3.27087,-4.55334,0,0,0,0,0,0,0,-1,1595,526,3.27089,4.55332
378,498,8.42944,-4.70624,0,0,0,0,0,0,0,-1,1602,526,8.42942,4.70624
385,498,4.7793,-5.15314,0,0,0,0,0,0,0,-1,1609,526,4.77935,5.15311
392,498,9.12439,-8.57953,0,0,0,0,0,0,0,-1,1616,526,9.12443,8.57955
399,498,7.98938,-9.46021,0,0,0,0,0,0,0,-1,1623,526,7.98936,9.4602
406,498,7.58081,-9.26819,0,0,0,0,0,0,0,-1,1630,526,7.58085,9.26817
413,498,7.17236,-9.07611,0,0,0,0,0,0,0,-1,1637,526,7.17234,9.07614
420,498,11.4314,-16.1147,0,0,0,0,0,0,0,-1,1644,526,11.4313,16.1147
427,498,12.4175,-19.9346,0,0,0,0,0,0,0,-1,1651,526,12.4175,19.9346
434,498,12.4678,-19.2926,0.00286076,0.00320818,0.000735259,0.00378997,0.00227897,0.901399,0.00220306,0.0379202,1658,526,12.4678,19.2926
441,498,12.566,-18.7395,0.00231181,0.00275866,0.000561126,0.0031392,0.00193126,0.974865,0.00182839,0.0138035,1665,526,12.5661,18.7395
448,498,12.5613,-18.2019,0.00212763,0.00227871,0.000504278,0.00271308,0.00169327,0.859746,0.0015824,0.0104214,1672,526,12.5613,18.2019
455,498,12.5197,-17.7006,0.00193352,0.00187707,0.000408396,0.00231466,0.00149592,0.750897,0.0013553,0.0139656,1679,526,12.5196,17.7006
462,498,12.5272,-17.2078,0.00173869,0.00156605,0.000414033,0.0020753,0.00122943,0.682627,0.00120498,0.0165408,1686,526,12.5272,17.2078
469,498,12.5353,-16.7145,0.00163148,0.00126962,0.000535931,0.0020162,0.000884901,0.622604,0.00116695,0.0141218,1693,526,12.5353,16.7145
476,498,12.5165,-16.19,0.00142238,0.000984031,0.000641694,0.0018813,0.000525115,0.620831,0.00112094,0.0100982,1700,526,12.5165,16.19
483,498,12.5033,-15.6699,0.00108536,0.000669297,0.000694957,0.00160276,0.000151903,0.63997,0.00102164,0.00863332,1707,526,12.5033,15.6699
490,498,12.4795,-15.135,0.000582125,0.000438044,0.000740699,0.00125428,-0.000234109,0.736921,0.00092416,0.0109277,1714,526,12.4795,15.135
497,498,12.4756,-14.5989,-7.85037e-05,0.000169083,0.000747331,0.000802804,-0.000712225,0.867477,0.000875223,0.0121324,1721,526,12.4756,14.5989
504,498,12.4681,-14.0549,-0.000902959,-0.000125562,0.000701174,0.000287445,-0.00131597,1.03849,0.000987175,0.0146362,1728,526,12.4682,14.0549
511,498,12.4417,-13.486,-0.00198648,-0.000422918,0.000560019,-0.000243032,-0.00216636,1.25999,0.00137043,0.0173378,1735,526,12.4416,13.486
518,498,12.4686,-12.9272,-0.00338848,-0.000762383,0.000231617,-0.000742111,-0.00340875,1.4835,0.00206996,0.0173864,1742,526,12.4686,12.9272
525,498,12.3481,-12.3764,-0.00496139,-0.0012348,-0.000250185,-0.00121808,-0.00497811,-1.50406,0.00299641,0.0256221,1749,526,12.3482,12.3764
532,498,12.1433,-11.8762,-0.00671856,-0.0016868,-0.000801206,-0.00156231,-0.00684305,-1.41664,0.0041407,0.0433302,1756,526,12.1433,11.8761
539,498,12.1433,-11.3989,0,0,0,0,0,0,0,-1,1763,526,12.1433,11.3988
546,498,10.2014,-8.47589,0,0,0,0,0,0,0,-1,1770,526,10.2014,8.47589
553,498,5.93958,-1.71448,0,0,0,0,0,0,0,-1,1777,526,5.93956,1.71447
560,498,3.69385,-0.615112,0,0,0,0,0,0,0,-1,1784,526,3.69381,0.615118
567,498,5.12695,-0.581604,0,0,0,0,0,0,0,-1,1791,526,5.12699,0.58159
574,498,3.88,0.0286255,0,0,0,0,0,0,0,-1,1798,526,3.87999,-0.0286535
581,498,10.8722,2.58551,0,0,0,0,0,0,0,-1,1805,526,10.8723,-2.58551
588,498,0,0,0,0,0,0,0,0,0,-1,1812,526,0,0
595,498,0,0,0,0,0,0,0,0,0,-1,1819,526,0,0
602,498,0,0,0,0,0,0,0,0,0,-1,1826,526,0,0
609,498,0,0,0,0,0,0,0,0,0,-1,1833,526,0,0
616,498,0,0,0,0,0,0,0,0,0,-1,1840,526,0,0
623,498,0,0,0,0,0,0,0,0,0,-1,1847,526,0,0
630,498,0,0,0,0,0,0,0,0,0,-1,1854,526,0,0
637,498,0,0,0,0,0,0,0,0,0,-1,1861,526,0,0
644,498,0,0,0,0,0,0,0,0,0,-1,1868,526,0,0
651,498,0,0,0,0,0,0,0,0,0,-1,1875,526,0,0
658,498,0,0,0,0,0,0,0,0,0,-1,1882,526,0,0
665,498,0,0,0,0,0,0,0,0,0,-1,1889,526,0,0
672,498,0,0,0,0,0,0,0,0,0,-1,1896,526,0,0
679,498,0,0,0,0,0,0,0,0,0,-1,1903,526,0,0
686,498,0,0,0,0,0,0,0,0,0,-1,1910,526,0,0
693,498,0,0,0,0,0,0,0,0,0,-1,1917,526,0,0
700,498,0,0,0,0,0,0,0,0,0,-1,1924,526,0,0
707,498,0,0,0,0,0,0,0,0,0,-1,1931,526,0,0
714,498,0,0,0,0,0,0,0,0,0,-1,1938,526,0,0
721,498,0,0,0,0,0,0,0,0,0,-1,1945,526,0,0
728,498,0,0,0,0,0,0,0,0,0,-1,1952,526,0,0
735,498,0,0,0,0,0,0,0,0,0,-1,1959,526,0,0
742,498,0,0,0,0,0,0,0,0,0,-1,1966,526,0,0
749,498,0,0,0,0,0,0,0,0,0,-1,1973,526,0,0
756,498,0,0,0,0,0,0,0,0,0,-1,1980,526,0,0
763,498,0,0,0,0,0,0,0,0,0,-1,1987,526,0,0
770,498,0,0,0,0,0,0,0,0,0,-1,1994,526,0,0
777,498,0,0,0,0,0,0,0,0,0,-1,2001,526,0,0
784,498,0,0,0,0,0,0,0,0,0,-1,2008,526,0,0
791,498,0,0,0,0,0,0,0,0,0,-1,2015,526,0,0
798,498,0,0,0,0,0,0,0,0,0,-1,2022,526,0,0
805,498,0,0,0,0,0,0,0,0,0,-1,2029,526,0,0
812,498,0,0,0,0,0,0,0,0,0,-1,2036,526,0,0
-700,491,0,0,0,0,0,0,0,0,0,-1,524,533,0,0
-693,491,0,0,0,0,0,0,0,0,0,-1,531,533,0,0
-686,491,0,0,0,0,0,0,0,0,0,-1,538,533,0,0
-679,491,0,0,0,0,0,0,0,0,0,-1,545,533,0,0
-672,491,0,0,0,0,0,0,0,0,0,-1,552,533,0,0
-665,491,0,0,0,0,0,0,0,0,0,-1,559,533,0,0
-658,491,0,0,0,0,0,0,0,0,0,-1,566,533,0,0
-651,491,0,0,0,0,0,0,0,0,0,-1,573,533,0,0
-644,491,0,0,0,0,0,0,0,0,0,-1,580,533,0,0
-637,491,0,0,0,0,0,0,0,0,0,-1,587,533,0,0
-630,491,0,0,0,0,0,0,0,0,0,-1,594,533,0,0
-623,491,0,0,0,0,0,0,0,0,0,-1,601,533,0,0
-616,491,0,0,0,0,0,0,0,0,0,-1,608,533,0,0
-609,491,0,0,0,0,0,0,0,0,0,-1,615,533,0,0
-602,491,0,0,0,0,0,0,0,0,0,-1,622,533,0,0
-595,491,0,0,0,0,0,0,0,0,0,-1,629,533,0,0
-588,491,0,0,0,0,0,0,0,0,0,-1,636,533,0,0
-581,491,0,0,0,0,0,0,0,0,0,-1,643,533,0,0
-574,491,0,0,0,0,0,0,0,0,0,-1,650,533,0,0
-567,491,0,0,0,0,0,0,0,0,0,-1,657,533,0,0
-560,491,0,0,0,0,0,0,0,0,0,-1,664,533,0,0
-553,491,0,0,0,0,0,0,0,0,0,-1,671,533,0,0
-546,491,0,0,0,0,0,0,0,0,0,-1,678,533,0,0
-539,491,0,0,0,0,0,0,0,0,0,-1,685,533,0,0
-532,491,0,0,0,0,0,0,0,0,0,-1,692,533,0,0
-525,491,0,0,0,0,0,0,0,0,0,-1,699,533,0,0
-518,491,0,0,0,0,0,0,0,0,0,-1,706,533,0,0
-511,491,0,0,0,0,0,0,0,0,0,-1,713,533,0,0
-504,491,0,0,0,0,0,0,0,0,0,-1,720,533,0,0
-497,491,0,0,0,0,0,0,0,0,0,-1,727,533,0,0
-490,491,0,0,0,0,0,0,0,0,0,-1,734,533,0,0
-483,491,0,0,0,0,0,0,0,0,0,-1,741,533,0,0
-476,491,0,0,0,0,0,0,0,0,0,-1,748,533,0,0
-469,491,-5.85913,4.55011,0,0,0,0,0,0,0,-1,755,533,-5.8591,-4.55009
-462,491,-9.93713,4.90381,0,0,0,0,0,0,0,-1,762,533,-9.93716,-4.9038
-455,491,1.9494,-0.27887,0,0,0,0,0,0,0,-1,769,533,1.94941,0.27885
-448,491,2.68909,-1.8999,0,0,0,0,0,0,0,-1,776,533,2.6891,1.89988
-441,491,3.46069,-3.51855,0,0,0,0,0,0,0,-1,783,533,3.46071,3.51854
-434,491,2.67145,-7.44061,0,0,0,0,0,0,0,-1,790,533,2.67146,7.44061
-427,491,2.27136,-8.34546,0,0,0,0,0,0,0,-1,797,533,2.27136,8.34546
-420,491,-1.52142,-8.1123,0,0,0,0,0,0,0,-1,804,533,-1.52142,8.11228
-413,491,-3.07043,-12.7731,0,0,0,0,0,0,0,-1,811,533,-3.07043,12.773
-406,491,-3.1283,-13.0814,0,0,0,0,0,0,0,-1,818,533,-3.12828,13.0814
-399,491,-3.02478,-13.8248,0.00130695,0.010245,-0.00625036,0.0134597,-0.00190772,-1.09576,0.00967193,0.0114402,825,533,-3.0248,13.8248
-392,491,-3.08716,-14.3685,0.00163816,0.00832733,-0.00549901,0.011419,-0.00145351,-1.05862,0.00814054,0.0107169,832,533,-3.08717,14.3685
-385,491,-3.1084,-14.8552,0.00194891,0.00656923,-0.00468886,0.00948613,-0.000967998,-1.01429,0.00667021,0.0098055,839,533,-3.10842,14.8552
-378,491,-3.11023,-15.3554,0.0022674,0.00507213,-0.00393791,0.00784993,-0.000510399,-0.956456,0.00541145,0.0141054,846,533,-3.11024,15.3554
-371,491,-3.11212,-15.8762,0.00237952,0.00358795,-0.00314345,0.00618473,-0.000217251,-0.880347,0.00419744,0.0150174,853,533,-3.11211,15.8762
-364,491,-3.13531,-16.4015,0.00236541,0.0021747,-0.00228803,0.00456007,-1.99645e-05,-0.764572,0.00304673,0.0138709,860,533,-3.13529,16.4015
-357,491,-3.13727,-16.9032,0.00241422,0.00105334,-0.00152661,0.00340516,6.23919e-05,-0.575753,0.0022496,0.0118947,867,533,-3.13727,16.9032
-350,491,-3.15576,-17.399,0.00248754,4.47597e-05,-0.00086687,0.0027639,-0.000231601,-0.308616,0.00192445,0.01451,874,533,-3.15573,17.399
-343,491,-3.15869,-17.9017,0.00254875,-0.000856267,-0.000289084,0.00257312,-0.000880635,-0.0840973,0.0020723,0.0222749,881,533,-3.15869,17.9018
-336,491,-3.14734,-18.4252,0.00263361,-0.00167753,0.000222408,0.00264505,-0.00168897,0.0514073,0.00252246,0.0231783,888,533,-3.14735,18.4252
-329,491,-3.12915,-18.8791,0.0029616,-0.00222211,0.000459815,0.00300207,-0.00226258,0.0877904,0.00304953,0.0252107,895,533,-3.12912,18.8791
-322,491,-3.15588,-19.372,0.00339698,-0.00265784,0.000683749,0.00347323,-0.00273409,0.111063,0.00359226,0.0227117,902,533,-3.15586,19.372
-315,491,-3.22821,-19.812,0.00372119,-0.00308324,0.000986167,0.00386123,-0.00322329,0.141064,0.00409577,0.0206815,909,533,-3.22822,19.812
-308,491,-3.21887,-20.3893,0,0,0,0,0,0,0,-1,916,533,-3.21887,20.3894
-301,491,-3.09882,-21.0473,0,0,0,0,0,0,0,-1,923,533,-3.09882,21.0473
-294,491,-0.777283,-8.60913,0,0,0,0,0,0,0,-1,930,533,-0.777288,8.6091
-287,491,-0.26123,-8.69055,0,0,0,0,0,0,0,-1,937,533,-0.261204,8.69053
-280,491,0.2948,-5.99219,0,0,0,0,0,0,0,-1,944,533,0.294811,5.99221
-273,491,0.369995,-5.33691,0,0,0,0,0,0,0,-1,951,533,0.369985,5.33693
-266,491,1.1167,-5.0321,0,0,0,0,0,0,0,-1,958,533,1.11668,5.0321
-259,491,12.0862,-16.9615,0,0,0,0,0,0,0,-1,965,533,12.0862,16.9615
-252,491,9.72443,-13.8417,0,0,0,0,0,0,0,-1,972,533,9.72444,13.8418
-245,491,5.27258,-14.3619,0,0,0,0,0,0,0,-1,979,533,5.27255,14.3619
-238,491,3.65381,-11.1472,0,0,0,0,0,0,0,-1,986,533,3.6538,11.1472
-231,491,2.17719,-7.86835,0,0,0,0,0,0,0,-1,993,533,2.17719,7.86832
-224,491,0.554626,-4.61725,0,0,0,0,0,0,0,-1,1000,533,0.554608,4.61727
-217,491,-2.92743,-1.0766,0,0,0,0,0,0,0,-1,1007,533,-2.92743,1.07659
-210,491,-0.92395,0.374512,0,0,0,0,0,0,0,-1,1014,533,-0.923959,-0.374531
-203,491,0.417419,4.77161,0,0,0,0,0,0,0,-1,1021,533,0.417446,-4.77162
-196,491,0,0,0,0,0,0,0,0,0,-1,1028,533,0,0
-189,491,0,0,0,0,0,0,0,0,0,-1,1035,533,0,0
-182,491,0,0,0,0,0,0,0,0,0,-1,1042,533,0,0
-175,491,0,0,0,0,0,0,0,0,0,-1,1049,533,0,0
-168,491,0,0,0,0,0,0,0,0,0,-1,1056,533,0,0
-161,491,0,0,0,0,0,0,0,0,0,-1,1063,533,0,0
-154,491,0,0,0,0,0,0,0,0,0,-1,1070,533,0,0
-147,491,0,0,0,0,0,0,0,0,0,-1,1077,533,0,0
-140,491,0,0,0,0,0,0,0,0,0,-1,1084,533,0,0
-133,491,0,0,0,0,0,0,0,0,0,-1,1091,533,0,0
-126,491,0,0,0,0,0,0,0,0,0,-1,1098,533,0,0
-119,491,0,0,0,0,0,0,0,0,0,-1,1105,533,0,0
-112,491,0,0,0,0,0,0,0,0,0,-1,1112,533,0,0
-105,491,0,0,0,0,0,0,0,0,0,-1,1119,533,0,0
-98,491,0,0,0,0,0,0,0,0,0,-1,1126,533,0,0
-91,491,0,0,0,0,0,0,0,0,0,-1,1133,533,0,0
-84,491,0,0,0,0,0,0,0,0,0,-1,1140,533,0,0
-77,491,0,0,0,0,0,0,0,0,0,-1,1147,533,0,0
-70,491,0,0,0,0,0,0,0,0,0,-1,1154,533,0,0
-63,491,0,0,0,0,0,0,0,0,0,-1,1161,533,0,0
-56,491,0,0,0,0,0,0,0,0,0,-1,1168,533,0,0
-49,491,0,0,0,0,0,0,0,0,0,-1,1175,533,0,0
-42,491,0,0,0,0,0,0,0,0,0,-1,1182,533,0,0
-35,491,0,0,0,0,0,0,0,0,0,-1,1189,533,0,0
-28,491,0,0,0,0,0,0,0,0,0,-1,1196,533,0,0
-21,491,0,0,0,0,0,0,0,0,0,-1,1203,533,0,0
-14,491,0,0,0,0,0,0,0,0,0,-1,1210,533,0,0
-7,491,0,0,0,0,0,0,0,0,0,-1,1217,533,0,0
0,491,0,0,0,0,0,0,0,0,0,-1,1224,533,0,0
7,491,0,0,0,0,0,0,0,0,0,-1,1231,533,0,0
14,491,0,0,0,0,0,0,0,0,0,-1,1238,533,0,0
21,491,0,0,0,0,0,0,0,0,0,-1,1245,533,0,0
28,491,0,0,0,0,0,0,0,0,0,-1,1252,533,0,0
35,491,0,0,0,0,0,0,0,0,0,-1,1259,533,0,0
42,491,0,0,0,0,0,0,0,0,0,-1,1266,533,0,0
49,491,0,0,0,0,0,0,0,0,0,-1,1273,533,0,0
56,491,0,0,0,0,0,0,0,0,0,-1,1280,533,0,0
63,491,0,0,0,0,0,0,0,0,0,-1,1287,533,0,0
70,491,0,0,0,0,0,0,0,0,0,-1,1294,533,0,0
77,491,0,0,0,0,0,0,0,0,0,-1,1301,533,0,0
84,491,0,0,0,0,0,0,0,0,0,-1,1308,533,0,0
91,491,0,0,0,0,0,0,0,0,0,-1,1315,533,0,0
98,491,0,0,0,0,0,0,0,0,0,-1,1322,533,0,0
105,491,0,0,0,0,0,0,0,0,0,-1,1329,533,0,0
112,491,0,0,0,0,0,0,0,0,0,-1,1336,533,0,0
119,491,0,0,0,0,0,0,0,0,0,-1,1343,533,0,0
126,491,0,0,0,0,0,0,0,0,0,-1,1350,533,0,0
133,491,0,0,0,0,0,0,0,0,0,-1,1357,533,0,0
140,491,0,0,0,0,0,0,0,0,0,-1,1364,533,0,0
147,491,0,0,0,0,0,0,0,0,0,-1,1371,533,0,0
154,491,0,0,0,0,0,0,0,0,0,-1,1378,533,0,0
161,491,0,0,0,0,0,0,0,0,0,-1,1385,533,0,0
168,491,0,0,0,0,0,0,0,0,0,-1,1392,533,0,0
175,491,0,0,0,0,0,0,0,0,0,-1,1399,533,0,0
182,491,0,0,0,0,0,0,0,0,0,-1,1406,533,0,0
189,491,0,0,0,0,0,0,0,0,0,-1,1413,533,0,0
196,491,0,0,0,0,0,0,0,0,0,-1,1420,533,0,0
203,491,0,0,0,0,0,0,0,0,0,-1,1427,533,0,0
210,491,0,0,0,0,0,0,0,0,0,-1,1434,533,0,0
217,491,0,0,0,0,0,0,0,0,0,-1,1441,533,0,0
224,491,0,0,0,0,0,0,0,0,0,-1,1448,533,0,0
231,491,0,0,0,0,0,0,0,0,0,-1,1455,533,0,0
238,491,0,0,0,0,0,0,0,0,0,-1,1462,533,0,0
245,491,0,0,0,0,0,0,0,0,0,-1,1469,533,0,0
252,491,0,0,0,0,0,0,0,0,0,-1,1476,533,0,0
259,491,0,0,0,0,0,0,0,0,0,-1,1483,533,0,0
266,491,0,0,0,0,0,0,0,0,0,-1,1490,533,0,0
273,491,0,0,0,0,0,0,0,0,0,-1,1497,533,0,0
280,491,0,0,0,0,0,0,0,0,0,-1,1504,533,0,0
287,491,0,0,0,0,0,0,0,0,0,-1,1511,533,0,0
294,491,0,0,0,0,0,0,0,0,0,-1,1518,533,0,0
301,491,0,0,0,0,0,0,0,0,0,-1,1525,533,0,0
308,491,0,0,0,0,0,0,0,0,0,-1,1532,533,0,0
315,491,0,0,0,0,0,0,0,0,0,-1,1539,533,0,0
322,491,4.26331,-0.734314,0,0,0,0,0,0,0,-1,1546,533,4.26326,0.734324
329,491,4.25354,-0.783752,0,0,0,0,0,0,0,-1,1553,533,4.25359,0.783734
336,491,4.81604,-0.722107,0,0,0,0,0,0,0,-1,1560,533,4.81605,0.722115
343,491,6.14478,-1.44281,0,0,0,0,0,0,0,-1,1567,533,6.14474,1.44281
350,491,6.36353,-1.30792,0,0,0,0,0,0,0,-1,1574,533,6.36352,1.3079
357,491,6.69482,-1.06018,0,0,0,0,0,0,0,-1,1581,533,6.69489,1.06018
364,491,8.01086,-1.69604,0,0,0,0,0,0,0,-1,1588,533,8.01087,1.69607
371,491,8.2135,-0.539307,0,0,0,0,0,0,0,-1,1595,533,8.21348,0.53929
378,491,13.3589,2.17267,0,0,0,0,0,0,0,-1,1602,533,13.3589,-2.17264
385,491,8.08228,-4.95471,0,0,0,0,0,0,0,-1,1609,533,8.08227,4.95474
392,491,2.88721,-4.30988,0,0,0,0,0,0,0,-1,1616,533,2.88716,4.30986
399,491,8.95862,-8.55518,0,0,0,0,0,0,0,-1,1623,533,8.95864,8.55516
406,491,8.16541,-9.00806,0,0,0,0,0,0,0,-1,1630,533,8.16535,9.00807
413,491,5.31848,-3.7124,0,0,0,0,0,0,0,-1,1637,533,5.31849,3.7124
420,491,4.86389,-3.95892,0,0,0,0,0,0,0,-1,1644,533,4.86387,3.95893
427,491,11.5096,-15.2742,0,0,0,0,0,0,0,-1,1651,533,11.5096,15.2742
434,491,12.9365,-19.301,0,0,0,0,0,0,0,-1,1658,533,12.9365,19.301
441,491,13.0126,-18.8044,0,0,0,0,0,0,0,-1,1665,533,13.0126,18.8044
448,491,13.059,-18.2283,0.00256878,0.00276395,0.000594122,0.00326845,0.00206428,0.866796,0.00190869,0.0320716,1672,533,13.059,18.2283
455,491,13.0564,-17.6953,0.0022722,0.00226129,0.00034547,0.00261226,0.00192123,0.777504,0.00156294,0.016413,1679,533,13.0564,17.6953
462,491,13.0771,-17.1926,0.00201796,0.0018805,0.000254051,0.00221242,0.00168605,0.653288,0.00133455,0.0157557,1686,533,13.0771,17.1926
469,491,13.0718,-16.706,0.00190125,0.00153556,0.000330488,0.0020961,0.00134071,0.532727,0.00122581,0.0145328,1693,533,13.0718,16.706
476,491,13.0431,-16.1665,0.00174939,0.00125708,0.000433331,0.0020016,0.00100487,0.5271,0.00115563,0.0099389,1700,533,13.0431,16.1665
483,491,13.0317,-15.6342,0.00143297,0.00093831,0.000498041,0.00174171,0.000629568,0.554933,0.00101836,0.011409,1707,533,13.0317,15.6341
490,491,13.0175,-15.1424,0.000948189,0.000733098,0.000538832,0.0013901,0.000291184,0.686897,0.000846536,0.0101444,1714,533,13.0174,15.1424
497,491,12.9976,-14.608,0.000348066,0.000512657,0.000571583,0.00100784,-0.000147116,0.856896,0.000725917,0.011382,1721,533,12.9975,14.608
504,491,13.002,-14.026,-0.000365409,0.000283318,0.000572141,0.000616645,-0.000698737,1.04327,0.000759929,0.0138985,1728,533,13.0019,14.026
511,491,12.9801,-13.4513,-0.00130439,7.42317e-05,0.00050675,0.000240459,-0.00147062,1.25383,0.00106961,0.0131368,1735,533,12.9801,13.4513
518,491,12.9602,-12.9305,-0.00252413,-0.000163433,0.000277465,-0.000131259,-0.0025563,1.45536,0.00166218,0.0102607,1742,533,12.9602,12.9305
525,491,12.948,-12.3892,-0.00381448,-0.000516005,-6.28616e-05,-0.000514808,-0.00381568,-1.55175,0.00239073,0.0101922,1749,533,12.948,12.3892
532,491,12.918,-11.8261,-0.00520261,-0.000775936,-0.000419608,-0.000736512,-0.00524203,-1.47712,0.00327689,0.0219189,1756,533,12.918,11.8261
539,491,12.9468,-11.2003,0,0,0,0,0,0,0,-1,1763,533,12.9468,11.2003
546,491,12.2318,-10.8725,0,0,0,0,0,0,0,-1,1770,533,12.2319,10.8725
553,491,10.5021,-7.77869,0,0,0,0,0,0,0,-1,1777,533,10.502,7.77871
560,491,6.28455,-1.43585,0,0,0,0,0,0,0,-1,1784,533,6.28458,1.43586
567,491,5.67651,-1.3562,0,0,0,0,0,0,0,-1,1791,533,5.67649,1.3562
574,491,8.0719,1.58325,0,0,0,0,0,0,0,-1,1798,533,8.07195,-1.58326
581,491,9.44812,1.60931,0,0,0,0,0,0,0,-1,1805,533,9.44808,-1.60933
588,491,11.0497,1.54962,0,0,0,0,0,0,0,-1,1812,533,11.0496,-1.54963
595,491,0,0,0,0,0,0,0,0,0,-1,1819,533,0,0
602,491,0,0,0,0,0,0,0,0,0,-1,1826,533,0,0
609,491,0,0,0,0,0,0,0,0,0,-1,1833,533,0,0
616,491,0,0,0,0,0,0,0,0,0,-1,1840,533,0,0
623,491,0,0,0,0,0,0,0,0,0,-1,1847,533,0,0
630,491,0,0,0,0,0,0,0,0,0,-1,1854,533,0,0
637,491,0,0,0,0,0,0,0,0,0,-1,1861,533,0,0
644,491,0,0,0,0,0,0,0,0,0,-1,1868,533,0,0
651,491,0,0,0,0,0,0,0,0,0,-1,1875,533,0,0
658,491,0,0,0,0,0,0,0,0,0,-1,1882,533,0,0
665,491,0,0,0,0,0,0,0,0,0,-1,1889,533,0,0
672,491,0,0,0,0,0,0,0,0,0,-1,1896,533,0,0
679,491,0,0,0,0,0,0,0,0,0,-1,1903,533,0,0
686,491,0,0,0,0,0,0,0,0,0,-1,1910,533,0,0
693,491,0,0,0,0,0,0,0,0,0,-1,1917,533,0,0
700,491,0,0,0,0,0,0,0,0,0,-1,1924,533,0,0
707,491,0,0,0,0,0,0,0,0,0,-1,1931,533,0,0
714,491,0,0,0,0,0,0,0,0,0,-1,1938,533,0,0
721,491,0,0,0,0,0,0,0,0,0,-1,1945,533,0,0
728,491,0,0,0,0,0,0,0,0,0,-1,1952,533,0,0
735,491,0,0,0,0,0,0,0,0,0,-1,1959,533,0,0
742,491,0,0,0,0,0,0,0,0,0,-1,1966,533,0,0
749,491,0,0,0,0,0,0,0,0,0,-1,1973,533,0,0
756,491,0,0,0,0,0,0,0,0,0,-1,1980,533,0,0
763,491,0,0,0,0,0,0,0,0,0,-1,1987,533,0,0
770,491,0,0,0,0,0,0,0,0,0,-1,1994,533,0,0
777,491,0,0,0,0,0,0,0,0,0,-1,2001,533,0,0
784,491,0,0,0,0,0,0,0,0,0,-1,2008,533,0,0
791,491,0,0,0,0,0,0,0,0,0,-1,2015,533,0,0
798,491,0,0,0,0,0,0,0,0,0,-1,2022,533,0,0
805,491,0,0,0,0,0,0,0,0,0,-1,2029,533,0,0
812,491,0,0,0,0,0,0,0,0,0,-1,2036,533,0,0
-700,484,0,0,0,0,0,0,0,0,0,-1,524,540,0,0
-693,484,0,0,0,0,0,0,0,0,0,-1,531,540,0,0
-686,484,0,0,0,0,0,0,0,0,0,-1,538,540,0,0
-679,484,0,0,0,0,0,0,0,0,0,-1,545,540,0,0
-672,484,0,0,0,0,0,0,0,0,0,-1,552,540,0,0
-665,484,0,0,0,0,0,0,0,0,0,-1,559,540,0,0
-658,484,0,0,0,0,0,0,0,0,0,-1,566,540,0,0
-651,484,0,0,0,0,0,0,0,0,0,-1,573,540,0,0
-644,484,0,0,0,0,0,0,0,0,0,-1,580,540,0,0
-637,484,0,0,0,0,0,0,0,0,0,-1,587,540,0,0
-630,484,0,0,0,0,0,0,0,0,0,-1,594,540,0,0
-623,484,0,0,0,0,0,0,0,0,0,-1,601,540,0,0
-616,484,0,0,0,0,0,0,0,0,0,-1,608,540,0,0
-609,484,0,0,0,0,0,0,0,0,0,-1,615,540,0,0
-602,484,0,0,0,0,0,0,0,0,0,-1,622,540,0,0
-595,484,0,0,0,0,0,0,0,0,0,-1,629,540,0,0
-588,484,0,0,0,0,0,0,0,0,0,-1,636,540,0,0
-581,484,0,0,0,0,0,0,0,0,0,-1,643,540,0,0
-574,484,0,0,0,0,0,0,0,0,0,-1,650,540,0,0
-567,484,0,0,0,0,0,0,0,0,0,-1,657,540,0,0
-560,484,0,0,0,0,0,0,0,0,0,-1,664,540,0,0
-553,484,0,0,0,0,0,0,0,0,0,-1,671,540,0,0
-546,484,0,0,0,0,0,0,0,0,0,-1,678,540,0,0
-539,484,0,0,0,0,0,0,0,0,0,-1,685,540,0,0
-532,484,0,0,0,0,0,0,0,0,0,-1,692,540,0,0
-525,484,0,0,0,0,0,0,0,0,0,-1,699,540,0,0
-518,484,0,0,0,0,0,0,0,0,0,-1,706,540,0,0
-511,484,0,0,0,0,0,0,0,0,0,-1,713,540,0,0
-504,484,0,0,0,0,0,0,0,0,0,-1,720,540,0,0
-497,484,0,0,0,0,0,0,0,0,0,-1,727,540,0,0
-490,484,0,0,0,0,0,0,0,0,0,-1,734,540,0,0
-483,484,0,0,0,0,0,0,0,0,0,-1,741,540,0,0
-476,484,-8.46552,1.44702,0,0,0,0,0,0,0,-1,748,540,-8.46554,-1.44702
-469,484,-7.82343,1.70355,0,0,0,0,0,0,0,-1,755,540,-7.82345,-1.70355
-462,484,-8.36987,3.08612,0,0,0,0,0,0,0,-1,762,540,-8.36988,-3.0861
-455,484,-6.77197,2.07092,0,0,0,0,0,0,0,-1,769,540,-6.77197,-2.07094
-448,484,3.54895,-1.40106,0,0,0,0,0,0,0,-1,776,540,3.54897,1.40106
-441,484,4.28906,-3.05884,0,0,0,0,0,0,0,-1,783,540,4.28905,3.05883
-434,484,-2.17548,-5.07245,0,0,0,0,0,0,0,-1,790,540,-2.17546,5.07243
-427,484,-3.44763,-11.0895,0,0,0,0,0,0,0,-1,797,540,-3.44764,11.0895
-420,484,-3.41882,-11.9235,0,0,0,0,0,0,0,-1,804,540,-3.41884,11.9234
-413,484,-3.43256,-12.6102,-0.000738799,0.0111914,-0.00518676,0.013131,-0.00267844,-1.21294,0.00976999,0.0317651,811,540,-3.43257,12.6102
-406,484,-3.50677,-13.2529,0.000147038,0.00941894,-0.00488118,0.0115149,-0.00194887,-1.16522,0.00840188,0.0162903,818,540,-3.50674,13.2529
-399,484,-3.5589,-13.8399,0.000706145,0.00771158,-0.00439048,0.00982539,-0.00140766,-1.1221,0.00706637,0.0157821,825,540,-3.55891,13.8399
-392,484,-3.58783,-14.3312,0.00112547,0.00608434,-0.00381397,0.00815396,-0.000944159,-1.07362,0.00577647,0.0177933,832,540,-3.58786,14.3312
-385,484,-3.62268,-14.845,0.00157078,0.00459826,-0.003203,0.00662721,-0.000458168,-1.00614,0.00457851,0.0132064,839,540,-3.62268,14.8451
-378,484,-3.62885,-15.3649,0.00202357,0.00331984,-0.00263123,0.00538159,-3.81789e-05,-0.906157,0.00360052,0.0150762,846,540,-3.62887,15.3648
-371,484,-3.62891,-15.8717,0.00227709,0.00204348,-0.00200686,0.00417055,0.000150027,-0.756329,0.00273173,0.016783,853,540,-3.62893,15.8717
-364,484,-3.64868,-16.3741,0.00241703,0.000834692,-0.00132547,0.0031695,8.22205e-05,-0.516332,0.00208613,0.0114823,860,540,-3.64869,16.3741
-357,484,-3.66791,-16.88,0.00262323,-0.000114244,-0.000739101,0.00281004,-0.000301049,-0.247562,0.00198135,0.0119541,867,540,-3.66793,16.88
-350,484,-3.68579,-17.3685,0.00284753,-0.00095673,-0.000249716,0.00286385,-0.000973052,-0.0652679,0.00230315,0.0138889,874,540,-3.68577,17.3685
-343,484,-3.68573,-17.8786,0.00304915,-0.00161756,0.000123433,0.00305241,-0.00162082,0.0264252,0.00273997,0.0214518,881,540,-3.68571,17.8786
-336,484,-3.66473,-18.3877,0.00324493,-0.00229903,0.000471929,0.00328481,-0.00233891,0.0843165,0.00326213,0.0255186,888,540,-3.66473,18.3877
-329,484,-3.61041,-18.8099,0.00373891,-0.00261831,0.000475958,0.00377435,-0.00265375,0.0743168,0.00373001,0.0376402,895,540,-3.6104,18.81
-322,484,-3.58936,-19.3111,0,0,0,0,0,0,0,-1,902,540,-3.58935,19.3111
-315,484,-3.52325,-19.8735,0,0,0,0,0,0,0,-1,909,540,-3.52324,19.8735
-308,484,-1.32623,-8.9317,0,0,0,0,0,0,0,-1,916,540,-1.32626,8.93173
-301,484,-1.33453,-6.52667,0,0,0,0,0,0,0,-1,923,540,-1.33454,6.5267
-294,484,-1.61224,-8.17059,0,0,0,0,0,0,0,-1,930,540,-1.61227,8.17058
-287,484,-0.715759,-5.62103,0,0,0,0,0,0,0,-1,937,540,-0.715772,5.62105
-280,484,2.66742,-1.6795,0,0,0,0,0,0,0,-1,944,540,2.6674,1.67949
-273,484,2.53125,-2.22296,0,0,0,0,0,0,0,-1,951,540,2.53128,2.22295
-266,484,2.6778,-2.72058,0,0,0,0,0,0,0,-1,958,540,2.6778,2.72061
-259,484,2.41718,-2.59894,0,0,0,0,0,0,0,-1,965,540,2.41717,2.59892
-252,484,10.6069,-11.696,0,0,0,0,0,0,0,-1,972,540,10.6069,11.696
-245,484,6.34106,-11.6107,0,0,0,0,0,0,0,-1,979,540,6.34104,11.6107
-238,484,4.89319,-8.54059,0,0,0,0,0,0,0,-1,986,540,4.89321,8.5406
-231,484,3.47675,-5.22064,0,0,0,0,0,0,0,-1,993,540,3.47676,5.22067
-224,484,1.71344,-2.03473,0,0,0,0,0,0,0,-1,1000,540,1.71342,2.03472
-217,484,-0.745056,1.17358,0,0,0,0,0,0,0,-1,1007,540,-0.745043,-1.17359
-210,484,0,0,0,0,0,0,0,0,0,-1,1014,540,0,0
-203,484,0,0,0,0,0,0,0,0,0,-1,1021,540,0,0
-196,484,0,0,0,0,0,0,0,0,0,-1,1028,540,0,0
-189,484,0,0,0,0,0,0,0,0,0,-1,1035,540,0,0
-182,484,0,0,0,0,0,0,0,0,0,-1,1042,540,0,0
-175,484,0,0,0,0,0,0,0,0,0,-1,1049,540,0,0
-168,484,0,0,0,0,0,0,0,0,0,-1,1056,540,0,0
-161,484,0,0,0,0,0,0,0,0,0,-1,1063,540,0,0
-154,484,0,0,0,0,0,0,0,0,0,-1,1070,540,0,0
-147,484,0,0,0,0,0,0,0,0,0,-1,1077,540,0,0
-140,484,0,0,0,0,0,0,0,0,0,-1,1084,540,0,0
-133,484,0,0,0,0,0,0,0,0,0,-1,1091,540,0,0
-126,484,0,0,0,0,0,0,0,0,0,-1,1098,540,0,0
-119,484,0,0,0,0,0,0,0,0,0,-1,1105,540,0,0
-112,484,0,0,0,0,0,0,0,0,0,-1,1112,540,0,0
-105,484,0,0,0,0,0,0,0,0,0,-1,1119,540,0,0
-98,484,0,0,0,0,0,0,0,0,0,-1,1126,540,0,0
-91,484,0,0,0,0,0,0,0,0,0,-1,1133,540,0,0
-84,484,0,0,0,0,0,0,0,0,0,-1,1140,540,0,0
-77,484,0,0,0,0,0,0,0,0,0,-1,1147,540,0,0
-70,484,0,0,0,0,0,0,0,0,0,-1,1154,540,0,0
-63,484,0,0,0,0,0,0,0,0,0,-1,1161,540,0,0
-56,484,0,0,0,0,0,0,0,0,0,-1,1168,540,0,0
-49,484,0,0,0,0,0,0,0,0,0,-1,1175,540,0,0
-42,484,0,0,0,0,0,0,0,0,0,-1,1182,540,0,0
-35,484,0,0,0,0,0,0,0,0,0,-1,1189,540,0,0
-28,484,0,0,0,0,0,0,0,0,0,-1,1196,540,0,0
-21,484,0,0,0,0,0,0,0,0,0,-1,1203,540,0,0
-14,484,0,0,0,0,0,0,0,0,0,-1,1210,540,0,0
-7,484,0,0,0,0,0,0,0,0,0,-1,1217,540,0,0
0,484,0,0,0,0,0,0,0,0,0,-1,1224,540,0,0
7,484,0,0,0,0,0,0,0,0,0,-1,1231,540,0,0
14,484,0,0,0,0,0,0,0,0,0,-1,1238,540,0,0
21,484,0,0,0,0,0,0,0,0,0,-1,1245,540,0,0
28,484,0,0,0,0,0,0,0,0,0,-1,1252,540,0,0
35,484,0,0,0,0,0,0,0,0,0,-1,1259,540,0,0
42,484,0,0,0,0,0,0,0,0,0,-1,1266,540,0,0
49,484,0,0,0,0,0,0,0,0,0,-1,1273,540,0,0
56,484,0,0,0,0,0,0,0,0,0,-1,1280,540,0,0
63,484,0,0,0,0,0,0,0,0,0,-1,1287,540,0,0
70,484,0,0,0,0,0,0,0,0,0,-1,1294,540,0,0
77,484,0,0,0,0,0,0,0,0,0,-1,1301,540,0,0
84,484,0,0,0,0,0,0,0,0,0,-1,1308,540,0,0
91,484,0,0,0,0,0,0,0,0,0,-1,1315,540,0,0
98,484,0,0,0,0,0,0,0,0,0,-1,1322,540,0,0
105,484,0,0,0,0,0,0,0,0,0,-1,1329,540,0,0
112,484,0,0,0,0,0,0,0,0,0,-1,1336,540,0,0
119,484,0,0,0,0,0,0,0,0,0,-1,1343,540,0,0
126,484,0,0,0,0,0,0,0,0,0,-1,1350,540,0,0
133,484,0,0,0,0,0,0,0,0,0,-1,1357,540,0,0
140,484,0,0,0,0,0,0,0,0,0,-1,1364,540,0,0
147,484,0,0,0,0,0,0,0,0,0,-1,1371,540,0,0
154,484,0,0,0,0,0,0,0,0,0,-1,1378,540,0,0
161,484,0,0,0,0,0,0,0,0,0,-1,1385,540,0,0
168,484,0,0,0,0,0,0,0,0,0,-1,1392,540,0,0
175,484,0,0,0,0,0,0,0,0,0,-1,1399,540,0,0
182,484,0,0,0,0,0,0,0,0,0,-1,1406,540,0,0
189,484,0,0,0,0,0,0,0,0,0,-1,1413,540,0,0
196,484,0,0,0,0,0,0,0,0,0,-1,1420,540,0,0
203,484,0,0,0,0,0,0,0,0,0,-1,1427,540,0,0
210,484,0,0,0,0,0,0,0,0,0,-1,1434,540,0,0
217,484,0,0,0,0,0,0,0,0,0,-1,1441,540,0,0
224,484,0,0,0,0,0,0,0,0,0,-1,1448,540,0,0
231,484,0,0,0,0,0,0,0,0,0,-1,1455,540,0,0
238,484,0,0,0,0,0,0,0,0,0,-1,1462,540,0,0
245,484,0,0,0,0,0,0,0,0,0,-1,1469,540,0,0
252,484,0,0,0,0,0,0,0,0,0,-1,1476,540,0,0
259,484,0,0,0,0,0,0,0,0,0,-1,1483,540,0,0
266,484,0,0,0,0,0,0,0,0,0,-1,1490,540,0,0
273,484,0,0,0,0,0,0,0,0,0,-1,1497,540,0,0
280,484,0,0,0,0,0,0,0,0,0,-1,1504,540,0,0
287,484,0,0,0,0,0,0,0,0,0,-1,1511,540,0,0
294,484,0,0,0,0,0,0,0,0,0,-1,1518,540,0,0
301,484,0,0,0,0,0,0,0,0,0,-1,1525,540,0,0
308,484,0,0,0,0,0,0,0,0,0,-1,1532,540,0,0
315,484,0,0,0,0,0,0,0,0,0,-1,1539,540,0,0
322,484,0,0,0,0,0,0,0,0,0,-1,1546,540,0,0
329,484,0,0,0,0,0,0,0,0,0,-1,1553,540,0,0
336,484,4.38708,-1.64136,0,0,0,0,0,0,0,-1,1560,540,4.38704,1.64138
343,484,7.57996,-1.05457,0,0,0,0,0,0,0,-1,1567,540,7.57995,1.05454
350,484,8.10425,-1.18878,0,0,0,0,0,0,0,-1,1574,540,8.1043,1.18877
357,484,7.74902,-3.80286,0,0,0,0,0,0,0,-1,1581,540,7.74901,3.80287
364,484,6.31262,-3.87213,0,0,0,0,0,0,0,-1,1588,540,6.31263,3.87215
371,484,7.21008,0.973511,0,0,0,0,0,0,0,-1,1595,540,7.21014,-0.973541
378,484,11.0563,1.5014,0,0,0,0,0,0,0,-1,1602,540,11.0563,-1.5014
385,484,14.3469,2.5545,0,0,0,0,0,0,0,-1,1609,540,14.3469,-2.55453
392,484,7.39453,-4.95026,0,0,0,0,0,0,0,-1,1616,540,7.39448,4.95023
399,484,7.14417,-2.5639,0,0,0,0,0,0,0,-1,1623,540,7.14417,2.56391
406,484,7.88953,-2.47321,0,0,0,0,0,0,0,-1,1630,540,7.88954,2.47323
413,484,4.4895,-1.08673,0,0,0,0,0,0,0,-1,1637,540,4.48952,1.08674
420,484,4.50012,-2.11255,0,0,0,0,0,0,0,-1,1644,540,4.50012,2.11256
427,484,5.28601,-3.54053,0,0,0,0,0,0,0,-1,1651,540,5.28599,3.54051
434,484,11.1488,-13.5359,0,0,0,0,0,0,0,-1,1658,540,11.1489,13.5359
441,484,13.205,-18.1697,0,0,0,0,0,0,0,-1,1665,540,13.205,18.1697
448,484,13.5277,-18.3149,0,0,0,0,0,0,0,-1,1672,540,13.5277,18.3149
455,484,13.5881,-17.7477,0,0,0,0,0,0,0,-1,1679,540,13.5881,17.7478
462,484,13.5916,-17.1766,0.00246494,0.00215865,0.000145629,0.00252313,0.00210047,0.380124,0.0015604,0.0226312,1686,540,13.5915,17.1766
469,484,13.5878,-16.6694,0.00230582,0.00179381,0.000183934,0.00236504,0.00173458,0.311509,0.00141419,0.0162516,1693,540,13.5877,16.6694
476,484,13.5862,-16.1143,0.00219863,0.00153418,0.000296585,0.00231175,0.00142105,0.36439,0.00134635,0.0150476,1700,540,13.5862,16.1143
483,484,13.5854,-15.5992,0.00188958,0.00120989,0.000386764,0.00206459,0.00103487,0.42494,0.00119199,0.0119688,1707,540,13.5854,15.5992
490,484,13.553,-15.1152,0.00140556,0.00101855,0.000421788,0.00167611,0.000747993,0.570335,0.000969563,0.0118364,1714,540,13.553,15.1153
497,484,13.5226,-14.5856,0.000846106,0.000825684,0.000475248,0.00131125,0.000360538,0.774657,0.000782195,0.0132938,1721,540,13.5226,14.5857
504,484,13.5233,-14.0269,0.000217704,0.000628623,0.000507076,0.000970283,-0.000123956,0.977882,0.000691886,0.0160223,1728,540,13.5233,14.0269
511,484,13.5054,-13.4625,-0.000595315,0.000467905,0.000498856,0.000665313,-0.000792722,1.19398,0.000842867,0.0179618,1735,540,13.5054,13.4625
518,484,13.4739,-12.9495,-0.00164321,0.00029067,0.000348142,0.000351434,-0.00170397,1.398,0.00126945,0.0151516,1742,540,13.4738,12.9495
525,484,13.4794,-12.395,-0.00269607,1.0022e-05,0.000108466,1.43626e-05,-0.00270041,1.5308,0.00180508,0.0134141,1749,540,13.4794,12.395
532,484,13.4679,-11.8089,-0.00380637,-0.000154499,-0.000132416,-0.000149704,-0.00381116,-1.5346,0.00249237,0.0157214,1756,540,13.4679,11.8089
539,484,13.412,-11.2206,-0.00505782,-0.000363879,-0.000478384,-0.000315621,-0.00510608,-1.47026,0.00330388,0.0364704,1763,540,13.412,11.2207
546,484,13.3799,-10.5382,0,0,0,0,0,0,0,-1,1770,540,13.3799,10.5382
553,484,12.4246,-8.96423,0,0,0,0,0,0,0,-1,1777,540,12.4246,8.96422
560,484,10.0549,-5.47931,0,0,0,0,0,0,0,-1,1784,540,10.055,5.47928
567,484,7.78223,-1.38312,0,0,0,0,0,0,0,-1,1791,540,7.78224,1.38311
574,484,5.74463,1.50922,0,0,0,0,0,0,0,-1,1798,540,5.74463,-1.50924
581,484,10.34,2.9491,0,0,0,0,0,0,0,-1,1805,540,10.34,-2.94912
588,484,10.6669,2.88568,0,0,0,0,0,0,0,-1,1812,540,10.6669,-2.88567
595,484,10.7233,1.04767,0,0,0,0,0,0,0,-1,1819,540,10.7233,-1.04766
602,484,0,0,0,0,0,0,0,0,0,-1,1826,540,0,0
609,484,0,0,0,0,0,0,0,0,0,-1,1833,540,0,0
616,484,0,0,0,0,0,0,0,0,0,-1,1840,540,0,0
623,484,0,0,0,0,0,0,0,0,0,-1,1847,540,0,0
630,484,0,0,0,0,0,0,0,0,0,-1,1854,540,0,0
637,484,0,0,0,0,0,0,0,0,0,-1,1861,540,0,0
644,484,0,0,0,0,0,0,0,0,0,-1,1868,540,0,0
651,484,0,0,0,0,0,0,0,0,0,-1,1875,540,0,0
658,484,0,0,0,0,0,0,0,0,0,-1,1882,540,0,0
665,484,0,0,0,0,0,0,0,0,0,-1,1889,540,0,0
672,484,0,0,0,0,0,0,0,0,0,-1,1896,540,0,0
679,484,0,0,0,0,0,0,0,0,0,-1,1903,540,0,0
686,484,0,0,0,0,0,0,0,0,0,-1,1910,540,0,0
693,484,0,0,0,0,0,0,0,0,0,-1,1917,540,0,0
700,484,0,0,0,0,0,0,0,0,0,-1,1924,540,0,0
707,484,0,0,0,0,0,0,0,0,0,-1,1931,540,0,0
714,484,0,0,0,0,0,0,0,0,0,-1,1938,540,0,0
721,484,0,0,0,0,0,0,0,0,0,-1,1945,540,0,0
728,484,0,0,0,0,0,0,0,0,0,-1,1952,540,0,0
735,484,0,0,0,0,0,0,0,0,0,-1,1959,540,0,0
742,484,0,0,0,0,0,0,0,0,0,-1,1966,540,0,0
749,484,0,0,0,0,0,0,0,0,0,-1,1973,540,0,0
756,484,0,0,0,0,0,0,0,0,0,-1,1980,540,0,0
763,484,0,0,0,0,0,0,0,0,0,-1,1987,540,0,0
770,484,0,0,0,0,0,0,0,0,0,-1,1994,540,0,0
777,484,0,0,0,0,0,0,0,0,0,-1,2001,540,0,0
784,484,0,0,0,0,0,0,0,0,0,-1,2008,540,0,0
791,484,0,0,0,0,0,0,0,0,0,-1,2015,540,0,0
798,484,0,0,0,0,0,0,0,0,0,-1,2022,540,0,0
805,484,0,0,0,0,0,0,0,0,0,-1,2029,540,0,0
812,484,0,0,0,0,0,0,0,0,0,-1,2036,540,0,0
-700,477,0,0,0,0,0,0,0,0,0,-1,524,547,0,0
-693,477,0,0,0,0,0,0,0,0,0,-1,531,547,0,0
-686,477,0,0,0,0,0,0,0,0,0,-1,538,547,0,0
-679,477,0,0,0,0,0,0,0,0,0,-1,545,547,0,0
-672,477,0,0,0,0,0,0,0,0,0,-1,552,547,0,0
-665,477,0,0,0,0,0,0,0,0,0,-1,559,547,0,0
-658,477,0,0,0,0,0,0,0,0,0,-1,566,547,0,0
-651,477,0,0,0,0,0,0,0,0,0,-1,573,547,0,0
-644,477,0,0,0,0,0,0,0,0,0,-1,580,547,0,0
-637,477,0,0,0,0,0,0,0,0,0,-1,587,547,0,0
-630,477,0,0,0,0,0,0,0,0,0,-1,594,547,0,0
-623,477,0,0,0,0,0,0,0,0,0,-1,601,547,0,0
-616,477,0,0,0,0,0,0,0,0,0,-1,608,547,0,0
-609,477,0,0,0,0,0,0,0,0,0,-1,615,547,0,0
-602,477,0,0,0,0,0,0,0,0,0,-1,622,547,0,0
-595,477,0,0,0,0,0,0,0,0,0,-1,629,547,0,0
-588,477,0,0,0,0,0,0,0,0,0,-1,636,547,0,0
-581,477,0,0,0,0,0,0,0,0,0,-1,643,547,0,0
-574,477,0,0,0,0,0,0,0,0,0,-1,650,547,0,0
-567,477,0,0,0,0,0,0,0,0,0,-1,657,547,0,0
-560,477,0,0,0,0,0,0,0,0,0,-1,664,547,0,0
-553,477,0,0,0,0,0,0,0,0,0,-1,671,547,0,0
-546,477,0,0,0,0,0,0,0,0,0,-1,678,547,0,0
-539,477,0,0,0,0,0,0,0,0,0,-1,685,547,0,0
-532,477,0,0,0,0,0,0,0,0,0,-1,692,547,0,0
-525,477,0,0,0,0,0,0,0,0,0,-1,699,547,0,0
-518,477,0,0,0,0,0,0,0,0,0,-1,706,547,0,0
-511,477,0,0,0,0,0,0,0,0,0,-1,713,547,0,0
-504,477,0,0,0,0,0,0,0,0,0,-1,720,547,0,0
-497,477,0,0,0,0,0,0,0,0,0,-1,727,547,0,0
-490,477,0,0,0,0,0,0,0,0,0,-1,734,547,0,0
-483,477,-7.73151,-0.224182,0,0,0,0,0,0,0,-1,741,547,-7.73152,0.224176
-476,477,-6.25806,-0.310547,0,0,0,0,0,0,0,-1,748,547,-6.25804,0.310549
-469,477,-7.26617,0.525085,0,0,0,0,0,0,0,-1,755,547,-7.2662,-0.525111
-462,477,-6.65143,1.06042,0,0,0,0,0,0,0,-1,762,547,-6.65143,-1.06043
-455,477,-5.31757,0.429016,0,0,0,0,0,0,0,-1,769,547,-5.31756,-0.42902
-448,477,-4.0697,0.273376,0,0,0,0,0,0,0,-1,776,547,-4.06971,-0.273363
-441,477,-2.47504,-4.76971,0,0,0,0,0,0,0,-1,783,547,-2.47505,4.76973
-434,477,-3.73352,-11.2444,0,0,0,0,0,0,0,-1,790,547,-3.73354,11.2444
-427,477,-3.96484,-11.426,-0.0029008,0.0122966,-0.0041049,0.0133345,-0.00393867,-1.32315,0.0104529,0.0424703,797,547,-3.96486,11.426
-420,477,-4.0166,-11.8136,-0.00178847,0.0103129,-0.00392521,0.0114746,-0.00295014,-1.28306,0.00879952,0.0355939,804,547,-4.01661,11.8136
-413,477,-4.0014,-12.592,-0.000950031,0.00855033,-0.00364527,0.00978782,-0.00218752,-1.24353,0.00736351,0.0204625,811,547,-4.00139,12.5921
-406,477,-4.07068,-13.2415,-0.000124528,0.00707375,-0.00337545,0.00840893,-0.0014597,-1.19413,0.00615053,0.0118778,818,547,-4.07065,13.2415
-399,477,-4.08752,-13.7881,0.000449743,0.00564914,-0.0029913,0.00701256,-0.000913674,-1.14313,0.00500746,0.0201145,825,547,-4.08753,13.7881
-392,477,-4.1214,-14.3029,0.000922748,0.0042671,-0.0025521,0.00564605,-0.000456203,-1.07541,0.00392495,0.0182212,832,547,-4.1214,14.3029
-385,477,-4.12653,-14.8126,0.00145871,0.0030192,-0.0020965,0.00447593,1.97254e-06,-0.963541,0.0029833,0.0144918,839,547,-4.1265,14.8126
-378,477,-4.15009,-15.3452,0.00200076,0.00192859,-0.00165773,0.0036228,0.000306559,-0.774516,0.00231977,0.0138939,846,547,-4.15006,15.3451
-371,477,-4.13678,-15.831,0.002372,0.000847931,-0.00116567,0.00300262,0.00021731,-0.495902,0.00193339,0.014065,853,547,-4.1368,15.831
-364,477,-4.14038,-16.3272,0.00265912,-0.000154841,-0.000630991,0.00279413,-0.000289854,-0.210791,0.00196651,0.012955,860,547,-4.1404,16.3272
-357,477,-4.17218,-16.8453,0.00301894,-0.000952549,-0.000191315,0.00302813,-0.000961743,-0.0480238,0.00240433,0.0113756,867,547,-4.17216,16.8453
-350,477,-4.19733,-17.3397,0.0033983,-0.00166515,0.000165046,0.00340368,-0.00167052,0.0325495,0.00298601,0.0102603,874,547,-4.19732,17.3396
-343,477,-4.16553,-17.8615,0.00376051,-0.00211554,0.000372311,0.00378401,-0.00213904,0.0630248,0.00346335,0.0179852,881,547,-4.16553,17.8615
-336,477,-4.08472,-18.3873,0.00409608,-0.00269648,0.00059235,0.00414735,-0.00274775,0.0863372,0.00400813,0.0393395,888,547,-4.08475,18.3872
-329,477,-3.97339,-18.8646,0,0,0,0,0,0,0,-1,895,547,-3.9734,18.8646
-322,477,-2.04822,-12.0026,0,0,0,0,0,0,0,-1,902,547,-2.04819,12.0026
-315,477,-1.67358,-9.15253,0,0,0,0,0,0,0,-1,909,547,-1.67356,9.15253
-308,477,-1.30127,-6.55188,0,0,0,0,0,0,0,-1,916,547,-1.30128,6.55185
-301,477,-1.21185,-6.28351,0,0,0,0,0,0,0,-1,923,547,-1.21184,6.28352
-294,477,-0.352905,3.27142,0,0,0,0,0,0,0,-1,930,547,-0.35292,-3.27144
-287,477,3.54364,2.15399,0,0,0,0,0,0,0,-1,937,547,3.54362,-2.15396
-280,477,1.97308,-0.954163,0,0,0,0,0,0,0,-1,944,547,1.9731,0.954178
-273,477,2.11621,-3.76709,0,0,0,0,0,0,0,-1,951,547,2.11619,3.76706
-266,477,2.04669,-3.42389,0,0,0,0,0,0,0,-1,958,547,2.04671,3.42391
-259,477,-1.33478,-3.41205,0,0,0,0,0,0,0,-1,965,547,-1.3348,3.41206
-252,477,0.597168,-5.32922,0,0,0,0,0,0,0,-1,972,547,0.597144,5.32924
-245,477,8.2309,-8.48492,0,0,0,0,0,0,0,-1,979,547,8.23091,8.48494
-238,477,6.60938,-5.64063,0,0,0,0,0,0,0,-1,986,547,6.60938,5.64063
-231,477,4.71716,-2.52484,0,0,0,0,0,0,0,-1,993,547,4.71716,2.52483
-224,477,0,0,0,0,0,0,0,0,0,-1,1000,547,0,0
-217,477,0,0,0,0,0,0,0,0,0,-1,1007,547,0,0
-210,477,0,0,0,0,0,0,0,0,0,-1,1014,547,0,0
-203,477,0,0,0,0,0,0,0,0,0,-1,1021,547,0,0
-196,477,0,0,0,0,0,0,0,0,0,-1,1028,547,0,0
-189,477,0,0,0,0,0,0,0,0,0,-1,1035,547,0,0
-182,477,0,0,0,0,0,0,0,0,0,-1,1042,547,0,0
-175,477,0,0,0,0,0,0,0,0,0,-1,1049,547,0,0
-168,477,0,0,0,0,0,0,0,0,0,-1,1056,547,0,0
-161,477,0,0,0,0,0,0,0,0,0,-1,1063,547,0,0
-154,477,0,0,0,0,0,0,0,0,0,-1,1070,547,0,0
-147,477,0,0,0,0,0,0,0,0,0,-1,1077,547,0,0
-140,477,0,0,0,0,0,0,0,0,0,-1,1084,547,0,0
-133,477,0,0,0,0,0,0,0,0,0,-1,1091,547,0,0
-126,477,0,0,0,0,0,0,0,0,0,-1,1098,547,0,0
-119,477,0,0,0,0,0,0,0,0,0,-1,1105,547,0,0
-112,477,0,0,0,0,0,0,0,0,0,-1,1112,547,0,0
-105,477,0,0,0,0,0,0,0,0,0,-1,1119,547,0,0
-98,477,0,0,0,0,0,0,0,0,0,-1,1126,547,0,0
-91,477,0,0,0,0,0,0,0,0,0,-1,1133,547,0,0
-84,477,0,0,0,0,0,0,0,0,0,-1,1140,547,0,0
-77,477,0,0,0,0,0,0,0,0,0,-1,1147,547,0,0
-70,477,0,0,0,0,0,0,0,0,0,-1,1154,547,0,0
-63,477,0,0,0,0,0,0,0,0,0,-1,1161,547,0,0
-56,477,0,0,0,0,0,0,0,0,0,-1,1168,547,0,0
-49,477,0,0,0,0,0,0,0,0,0,-1,1175,547,0,0
-42,477,0,0,0,0,0,0,0,0,0,-1,1182,547,0,0
-35,477,0,0,0,0,0,0,0,0,0,-1,1189,547,0,0
-28,477,0,0,0,0,0,0,0,0,0,-1,1196,547,0,0
-21,477,0,0,0,0,0,0,0,0,0,-1,1203,547,0,0
-14,477,0,0,0,0,0,0,0,0,0,-1,1210,547,0,0
-7,477,0,0,0,0,0,0,0,0,0,-1,1217,547,0,0
0,477,0,0,0,0,0,0,0,0,0,-1,1224,547,0,0
7,477,0,0,0,0,0,0,0,0,0,-1,1231,547,0,0
14,477,0,0,0,0,0,0,0,0,0,-1,1238,547,0,0
21,477,0,0,0,0,0,0,0,0,0,-1,1245,547,0,0
28,477,0,0,0,0,0,0,0,0,0,-1,1252,547,0,0
35,477,0,0,0,0,0,0,0,0,0,-1,1259,547,0,0
42,477,0,0,0,0,0,0,0,0,0,-1,1266,547,0,0
49,477,0,0,0,0,0,0,0,0,0,-1,1273,547,0,0
56,477,0,0,0,0,0,0,0,0,0,-1,1280,547,0,0
63,477,0,0,0,0,0,0,0,0,0,-1,1287,547,0,0
70,477,0,0,0,0,0,0,0,0,0,-1,1294,547,0,0
77,477,0,0,0,0,0,0,0,0,0,-1,1301,547,0,0
84,477,0,0,0,0,0,0,0,0,0,-1,1308,547,0,0
91,477,0,0,0,0,0,0,0,0,0,-1,1315,547,0,0
98,477,0,0,0,0,0,0,0,0,0,-1,1322,547,0,0
105,477,0,0,0,0,0,0,0,0,0,-1,1329,547,0,0
112,477,0,0,0,0,0,0,0,0,0,-1,1336,547,0,0
119,477,0,0,0,0,0,0,0,0,0,-1,1343,547,0,0
126,477,0,0,0,0,0,0,0,0,0,-1,1350,547,0,0
133,477,0,0,0,0,0,0,0,0,0,-1,1357,547,0,0
140,477,0,0,0,0,0,0,0,0,0,-1,1364,547,0,0
147,477,0,0,0,0,0,0,0,0,0,-1,1371,547,0,0
154,477,0,0,0,0,0,0,0,0,0,-1,1378,547,0,0
161,477,0,0,0,0,0,0,0,0,0,-1,1385,547,0,0
168,477,0,0,0,0,0,0,0,0,0,-1,1392,547,0,0
175,477,0,0,0,0,0,0,0,0,0,-1,1399,547,0,0
182,477,0,0,0,0,0,0,0,0,0,-1,1406,547,0,0
189,477,0,0,0,0,0,0,0,0,0,-1,1413,547,0,0
196,477,0,0,0,0,0,0,0,0,0,-1,1420,547,0,0
203,477,0,0,0,0,0,0,0,0,0,-1,1427,547,0,0
210,477,0,0,0,0,0,0,0,0,0,-1,1434,547,0,0
217,477,0,0,0,0,0,0,0,0,0,-1,1441,547,0,0
224,477,0,0,0,0,0,0,0,0,0,-1,1448,547,0,0
231,477,0,0,0,0,0,0,0,0,0,-1,1455,547,0,0
238,477,0,0,0,0,0,0,0,0,0,-1,1462,547,0,0
245,477,0,0,0,0,0,0,0,0,0,-1,1469,547,0,0
252,477,0,0,0,0,0,0,0,0,0,-1,1476,547,0,0
259,477,0,0,0,0,0,0,0,0,0,-1,1483,547,0,0
266,477,0,0,0,0,0,0,0,0,0,-1,1490,547,0,0
273,477,0,0,0,0,0,0,0,0,0,-1,1497,547,0,0
280,477,0,0,0,0,0,0,0,0,0,-1,1504,547,0,0
287,477,0,0,0,0,0,0,0,0,0,-1,1511,547,0,0
294,477,0,0,0,0,0,0,0,0,0,-1,1518,547,0,0
301,477,0,0,0,0,0,0,0,0,0,-1,1525,547,0,0
308,477,0,0,0,0,0,0,0,0,0,-1,1532,547,0,0
315,477,0,0,0,0,0,0,0,0,0,-1,1539,547,0,0
322,477,0,0,0,0,0,0,0,0,0,-1,1546,547,0,0
329,477,0,0,0,0,0,0,0,0,0,-1,1553,547,0,0
336,477,0,0,0,0,0,0,0,0,0,-1,1560,547,0,0
343,477,0,0,0,0,0,0,0,0,0,-1,1567,547,0,0
350,477,1.7699,-3.32275,0,0,0,0,0,0,0,-1,1574,547,1.7699,3.32272
357,477,3.073,-4.83313,0,0,0,0,0,0,0,-1,1581,547,3.07303,4.83316
364,477,4.30127,-4.22864,0,0,0,0,0,0,0,-1,1588,547,4.30125,4.22865
371,477,4.57703,0.283264,0,0,0,0,0,0,0,-1,1595,547,4.57706,-0.283262
378,477,8.57947,1.05969,0,0,0,0,0,0,0,-1,1602,547,8.5795,-1.05972
385,477,12.3726,2.02356,0,0,0,0,0,0,0,-1,1609,547,12.3725,-2.02355
392,477,16.4678,2.76843,0,0,0,0,0,0,0,-1,1616,547,16.4678,-2.76845
399,477,8.00037,-2.29523,0,0,0,0,0,0,0,-1,1623,547,8.00031,2.2952
406,477,4.82495,2.7475,0,0,0,0,0,0,0,-1,1630,547,4.825,-2.74752
413,477,4.88171,-0.336426,0,0,0,0,0,0,0,-1,1637,547,4.88169,0.336398
420,477,3.34875,0.102722,0,0,0,0,0,0,0,-1,1644,547,3.34871,-0.1027
427,477,1.66772,-0.373108,0,0,0,0,0,0,0,-1,1651,547,1.66768,0.373104
434,477,3.76978,-2.30798,0,0,0,0,0,0,0,-1,1658,547,3.76974,2.30801
441,477,4.05444,-2.80402,0,0,0,0,0,0,0,-1,1665,547,4.05444,2.804
448,477,10.4247,-11.7421,0,0,0,0,0,0,0,-1,1672,547,10.4247,11.7421
455,477,13.3054,-16.8109,0,0,0,0,0,0,0,-1,1679,547,13.3054,16.8109
462,477,14.0787,-17.2695,0,0,0,0,0,0,0,-1,1686,547,14.0787,17.2695
469,477,14.1483,-16.6359,0.00292972,0.00192198,0.000107517,0.00294107,0.00191064,0.105115,0.00172319,0.0398834,1693,547,14.1483,16.6359
476,477,14.1072,-16.1282,0.0028379,0.0017094,0.000225991,0.00288147,0.00166583,0.190476,0.00167037,0.0201502,1700,547,14.1072,16.1282
483,477,14.1255,-15.5974,0.00251693,0.00140682,0.000353788,0.00262009,0.00130366,0.283731,0.00151272,0.0116009,1707,547,14.1255,15.5974
490,477,14.0828,-15.0715,0.00200613,0.00124324,0.000377135,0.00216109,0.00108828,0.389858,0.00124772,0.0113241,1714,547,14.0828,15.0716
497,477,14.0469,-14.5204,0.00145551,0.00108494,0.000447043,0.00175415,0.000786305,0.588938,0.00101456,0.0137481,1721,547,14.0468,14.5204
504,477,14.0499,-14.0042,0.000875103,0.000909661,0.000494887,0.00138757,0.000397193,0.802848,0.000825155,0.0188936,1728,547,14.0499,14.0042
511,477,14.0499,-13.4866,0.000152853,0.000776634,0.000522583,0.00107332,-0.000143835,1.05444,0.000767996,0.0226701,1735,547,14.0499,13.4866
518,477,14.0271,-12.941,-0.000758189,0.000638867,0.000431577,0.000761436,-0.000880758,1.29408,0.000948955,0.0197918,1742,547,14.0272,12.941
525,477,14.0229,-12.3604,-0.00164314,0.000402903,0.000266294,0.000436993,-0.00167723,1.44347,0.00128876,0.016628,1749,547,14.023,12.3603
532,477,13.9717,-11.8163,-0.00257606,0.000269463,0.000101553,0.000273083,-0.00257968,1.53517,0.00181767,0.0195468,1756,547,13.9717,11.8163
539,477,13.9592,-11.2022,-0.003593,8.41334e-05,-0.000123771,8.82946e-05,-0.00359716,-1.53719,0.00242807,0.0178172,1763,547,13.9592,11.2022
546,477,13.8962,-10.6979,-0.00482817,-0.000149303,-0.000431018,-0.000109929,-0.00486754,-1.4797,0.00320901,0.0380012,1770,547,13.8963,10.6979
553,477,13.9174,-9.84729,0,0,0,0,0,0,0,-1,1777,547,13.9174,9.8473
560,477,13.8361,-8.98029,0,0,0,0,0,0,0,-1,1784,547,13.8361,8.98031
567,477,13.9529,-8.70972,0,0,0,0,0,0,0,-1,1791,547,13.9529,8.7097
574,477,6.82593,-0.916992,0,0,0,0,0,0,0,-1,1798,547,6.82598,0.916977
581,477,9.29321,-0.557007,0,0,0,0,0,0,0,-1,1805,547,9.29324,0.55703
588,477,9.75195,0.422729,0,0,0,0,0,0,0,-1,1812,547,9.75198,-0.42273
595,477,9.89172,1.21326,0,0,0,0,0,0,0,-1,1819,547,9.89174,-1.21328
602,477,6.5271,-0.964417,0,0,0,0,0,0,0,-1,1826,547,6.52706,0.964427
609,477,0,0,0,0,0,0,0,0,0,-1,1833,547,0,0
616,477,0,0,0,0,0,0,0,0,0,-1,1840,547,0,0
623,477,0,0,0,0,0,0,0,0,0,-1,1847,547,0,0
630,477,0,0,0,0,0,0,0,0,0,-1,1854,547,0,0
637,477,0,0,0,0,0,0,0,0,0,-1,1861,547,0,0
644,477,0,0,0,0,0,0,0,0,0,-1,1868,547,0,0
651,477,0,0,0,0,0,0,0,0,0,-1,1875,547,0,0
658,477,0,0,0,0,0,0,0,0,0,-1,1882,547,0,0
665,477,0,0,0,0,0,0,0,0,0,-1,1889,547,0,0
672,477,0,0,0,0,0,0,0,0,0,-1,1896,547,0,0
679,477,0,0,0,0,0,0,0,0,0,-1,1903,547,0,0
686,477,0,0,0,0,0,0,0,0,0,-1,1910,547,0,0
693,477,0,0,0,0,0,0,0,0,0,-1,1917,547,0,0
700,477,0,0,0,0,0,0,0,0,0,-1,1924,547,0,0
707,477,0,0,0,0,0,0,0,0,0,-1,1931,547,0,0
714,477,0,0,0,0,0,0,0,0,0,-1,1938,547,0,0
721,477,0,0,0,0,0,0,0,0,0,-1,1945,547,0,0
728,477,0,0,0,0,0,0,0,0,0,-1,1952,547,0,0
735,477,0,0,0,0,0,0,0,0,0,-1,1959,547,0,0
742,477,0,0,0,0,0,0,0,0,0,-1,1966,547,0,0
749,477,0,0,0,0,0,0,0,0,0,-1,1973,547,0,0
756,477,0,0,0,0,0,0,0,0,0,-1,1980,547,0,0
763,477,0,0,0,0,0,0,0,0,0,-1,1987,547,0,0
770,477,0,0,0,0,0,0,0,0,0,-1,1994,547,0,0
777,477,0,0,0,0,0,0,0,0,0,-1,2001,547,0,0
784,477,0,0,0,0,0,0,0,0,0,-1,2008,547,0,0
791,477,0,0,0,0,0,0,0,0,0,-1,2015,547,0,0
798,477,0,0,0,0,0,0,0,0,0,-1,2022,547,0,0
805,477,0,0,0,0,0,0,0,0,0,-1,2029,547,0,0
812,477,0,0,0,0,0,0,0,0,0,-1,2036,547,0,0
-700,470,0,0,0,0,0,0,0,0,0,-1,524,554,0,0
-693,470,0,0,0,0,0,0,0,0,0,-1,531,554,0,0
-686,470,0,0,0,0,0,0,0,0,0,-1,538,554,0,0
-679,470,0,0,0,0,0,0,0,0,0,-1,545,554,0,0
-672,470,0,0,0,0,0,0,0,0,0,-1,552,554,0,0
-665,470,0,0,0,0,0,0,0,0,0,-1,559,554,0,0
-658,470,0,0,0,0,0,0,0,0,0,-1,566,554,0,0
-651,470,0,0,0,0,0,0,0,0,0,-1,573,554,0,0
-644,470,0,0,0,0,0,0,0,0,0,-1,580,554,0,0
-637,470,0,0,0,0,0,0,0,0,0,-1,587,554,0,0
-630,470,0,0,0,0,0,0,0,0,0,-1,594,554,0,0
-623,470,0,0,0,0,0,0,0,0,0,-1,601,554,0,0
-616,470,0,0,0,0,0,0,0,0,0,-1,608,554,0,0
-609,470,0,0,0,0,0,0,0,0,0,-1,615,554,0,0
-602,470,0,0,0,0,0,0,0,0,0,-1,622,554,0,0
-595,470,0,0,0,0,0,0,0,0,0,-1,629,554,0,0
-588,470,0,0,0,0,0,0,0,0,0,-1,636,554,0,0
-581,470,0,0,0,0,0,0,0,0,0,-1,643,554,0,0
-574,470,0,0,0,0,0,0,0,0,0,-1,650,554,0,0
-567,470,0,0,0,0,0,0,0,0,0,-1,657,554,0,0
-560,470,0,0,0,0,0,0,0,0,0,-1,664,554,0,0
-553,470,0,0,0,0,0,0,0,0,0,-1,671,554,0,0
-546,470,0,0,0,0,0,0,0,0,0,-1,678,554,0,0
-539,470,0,0,0,0,0,0,0,0,0,-1,685,554,0,0
-532,470,0,0,0,0,0,0,0,0,0,-1,692,554,0,0
-525,470,0,0,0,0,0,0,0,0,0,-1,699,554,0,0
-518,470,0,0,0,0,0,0,0,0,0,-1,706,554,0,0
-511,470,0,0,0,0,0,0,0,0,0,-1,713,554,0,0
-504,470,0,0,0,0,0,0,0,0,0,-1,720,554,0,0
-497,470,0,0,0,0,0,0,0,0,0,-1,727,554,0,0
-490,470,-9.13263,-1.03125,0,0,0,0,0,0,0,-1,734,554,-9.1326,1.03127
-483,470,-7.68677,-1.03955,0,0,0,0,0,0,0,-1,741,554,-7.68678,1.03958
-476,470,-6.17969,-1.03394,0,0,0,0,0,0,0,-1,748,554,-6.17971,1.03395
-469,470,-6.23016,-0.651855,0,0,0,0,0,0,0,-1,755,554,-6.23014,0.651829
-462,470,-4.87915,-1.03705,0,0,0,0,0,0,0,-1,762,554,-4.87914,1.03702
-455,470,-4.14777,-1.37079,0,0,0,0,0,0,0,-1,769,554,-4.14779,1.37078
-448,470,-2.9314,-5.74518,0,0,0,0,0,0,0,-1,776,554,-2.93137,5.74518
-441,470,-4.26929,-10.3885,0,0,0,0,0,0,0,-1,783,554,-4.26928,10.3886
-434,470,-4.31989,-11.079,-0.00355662,0.0109594,-0.00340867,0.0117199,-0.0043172,-1.35126,0.00958222,0.0464456,790,554,-4.31991,11.079
-427,470,-4.57672,-11.533,-0.00242874,0.00940427,-0.00312328,0.0101781,-0.00320252,-1.32794,0.00806761,0.0220124,797,554,-4.57675,11.533
-420,470,-4.54474,-12.0956,-0.00156698,0.00786414,-0.00285131,0.00865916,-0.002362,-1.29888,0.00670035,0.0156695,804,554,-4.54474,12.0957
-413,470,-4.56836,-12.676,-0.000922566,0.00638713,-0.00248669,0.00715286,-0.0016883,-1.27208,0.00541971,0.012975,811,554,-4.56837,12.676
-406,470,-4.58917,-13.2258,-0.000232574,0.00516833,-0.00219608,0.00594857,-0.00101281,-1.22942,0.00434287,0.0106399,818,554,-4.58915,13.2258
-399,470,-4.60345,-13.7681,0.000299349,0.00400966,-0.00186646,0.00478609,-0.000477085,-1.17658,0.00336106,0.0152061,825,554,-4.60348,13.7681
-392,470,-4.6272,-14.2839,0.000783695,0.0028509,-0.00151493,0.00365124,-1.66418e-05,-1.08476,0.00243972,0.0155556,832,554,-4.6272,14.2839
-385,470,-4.64105,-14.7855,0.0013774,0.00181265,-0.00117396,0.00278899,0.000401067,-0.877047,0.0017411,0.0110398,839,554,-4.64103,14.7855
-378,470,-4.64551,-15.3012,0.00199358,0.000879952,-0.000836585,0.00244171,0.00043182,-0.491773,0.00150467,0.0152894,846,554,-4.64552,15.3012
-371,470,-4.63495,-15.8009,0.00250609,-2.66571e-05,-0.000464682,0.00258865,-0.000109221,-0.175843,0.0017633,0.0139915,853,554,-4.63496,15.8009
-364,470,-4.65131,-16.3065,0.00299989,-0.000834369,-9.00177e-05,0.003002,-0.000836481,-0.02346,0.00233074,0.0140821,860,554,-4.65134,16.3064
-357,470,-4.68201,-16.8221,0.00358899,-0.00152589,0.000173351,0.00359486,-0.00153176,0.0338398,0.0030387,0.0149648,867,554,-4.68203,16.8221
-350,470,-4.67029,-17.3468,0.0042039,-0.00218119,0.0003665,0.00422487,-0.00220215,0.0571492,0.0037714,0.0117079,874,554,-4.67028,17.3468
-343,470,-4.59076,-17.8282,0.00486435,-0.00248692,0.000352629,0.00488122,-0.0025038,0.0478221,0.00433676,0.0398598,881,554,-4.59077,17.8282
-336,470,-4.42047,-18.4117,0,0,0,0,0,0,0,-1,888,554,-4.42045,18.4117
-329,470,-2.78516,-12.3594,0,0,0,0,0,0,0,-1,895,554,-2.78517,12.3594
-322,470,-2.30829,-11.4527,0,0,0,0,0,0,0,-1,902,554,-2.30827,11.4527
-315,470,-1.04797,-8.29529,0,0,0,0,0,0,0,-1,909,554,-1.04797,8.29526
-308,470,-1.39368,-6.68152,0,0,0,0,0,0,0,-1,916,554,-1.39369,6.68149
-301,470,-0.0340576,3.34888,0,0,0,0,0,0,0,-1,923,554,-0.0340496,-3.3489
-294,470,-1.18378,3.22266,0,0,0,0,0,0,0,-1,930,554,-1.18376,-3.22268
-287,470,-2.15454,3.2204,0,0,0,0,0,0,0,-1,937,554,-2.15452,-3.22037
-280,470,-3.00537,3.099,0,0,0,0,0,0,0,-1,944,554,-3.00536,-3.09898
-273,470,-12.3932,3.65009,0,0,0,0,0,0,0,-1,951,554,-12.3932,-3.65011
-266,470,-11.5706,1.16028,0,0,0,0,0,0,0,-1,958,554,-11.5706,-1.16031
-259,470,-7.50415,-2.77167,0,0,0,0,0,0,0,-1,965,554,-7.50413,2.7717
-252,470,-0.371155,-5.87823,0,0,0,0,0,0,0,-1,972,554,-0.37114,5.87821
-245,470,1.33221,-6.81122,0,0,0,0,0,0,0,-1,979,554,1.33223,6.8112
-238,470,0,0,0,0,0,0,0,0,0,-1,986,554,0,0
-231,470,0,0,0,0,0,0,0,0,0,-1,993,554,0,0
-224,470,0,0,0,0,0,0,0,0,0,-1,1000,554,0,0
-217,470,0,0,0,0,0,0,0,0,0,-1,1007,554,0,0
-210,470,0,0,0,0,0,0,0,0,0,-1,1014,554,0,0
-203,470,0,0,0,0,0,0,0,0,0,-1,1021,554,0,0
-196,470,0,0,0,0,0,0,0,0,0,-1,1028,554,0,0
-189,470,0,0,0,0,0,0,0,0,0,-1,1035,554,0,0
-182,470,0,0,0,0,0,0,0,0,0,-1,1042,554,0,0
-175,470,0,0,0,0,0,0,0,0,0,-1,1049,554,0,0
-168,470,0,0,0,0,0,0,0,0,0,-1,1056,554,0,0
-161,470,0,0,0,0,0,0,0,0,0,-1,1063,554,0,0
-154,470,0,0,0,0,0,0,0,0,0,-1,1070,554,0,0
-147,470,0,0,0,0,0,0,0,0,0,-1,1077,554,0,0
-140,470,0,0,0,0,0,0,0,0,0,-1,1084,554,0,0
-133,470,0,0,0,0,0,0,0,0,0,-1,1091,554,0,0
-126,470,0,0,0,0,0,0,0,0,0,-1,1098,554,0,0
-119,470,0,0,0,0,0,0,0,0,0,-1,1105,554,0,0
-112,470,0,0,0,0,0,0,0,0,0,-1,1112,554,0,0
-105,470,0,0,0,0,0,0,0,0,0,-1,1119,554,0,0
-98,470,0,0,0,0,0,0,0,0,0,-1,1126,554,0,0
-91,470,0,0,0,0,0,0,0,0,0,-1,1133,554,0,0
-84,470,0,0,0,0,0,0,0,0,0,-1,1140,554,0,0
-77,470,0,0,0,0,0,0,0,0,0,-1,1147,554,0,0
-70,470,0,0,0,0,0,0,0,0,0,-1,1154,554,0,0
-63,470,0,0,0,0,0,0,0,0,0,-1,1161,554,0,0
-56,470,0,0,0,0,0,0,0,0,0,-1,1168,554,0,0
-49,470,0,0,0,0,0,0,0,0,0,-1,1175,554,0,0
-42,470,0,0,0,0,0,0,0,0,0,-1,1182,554,0,0
-35,470,0,0,0,0,0,0,0,0,0,-1,1189,554,0,0
-28,470,0,0,0,0,0,0,0,0,0,-1,1196,554,0,0
-21,470,0,0,0,0,0,0,0,0,0,-1,1203,554,0,0
-14,470,0,0,0,0,0,0,0,0,0,-1,1210,554,0,0
-7,470,0,0,0,0,0,0,0,0,0,-1,1217,554,0,0
0,470,0,0,0,0,0,0,0,0,0,-1,1224,554,0,0
7,470,0,0,0,0,0,0,0,0,0,-1,1231,554,0,0
14,470,0,0,0,0,0,0,0,0,0,-1,1238,554,0,0
21,470,0,0,0,0,0,0,0,0,0,-1,1245,554,0,0
28,470,0,0,0,0,0,0,0,0,0,-1,1252,554,0,0
35,470,0,0,0,0,0,0,0,0,0,-1,1259,554,0,0
42,470,0,0,0,0,0,0,0,0,0,-1,1266,554,0,0
49,470,0,0,0,0,0,0,0,0,0,-1,1273,554,0,0
56,470,0,0,0,0,0,0,0,0,0,-1,1280,554,0,0
63,470,0,0,0,0,0,0,0,0,0,-1,1287,554,0,0
70,470,0,0,0,0,0,0,0,0,0,-1,1294,554,0,0
77,470,0,0,0,0,0,0,0,0,0,-1,1301,554,0,0
84,470,0,0,0,0,0,0,0,0,0,-1,1308,554,0,0
91,470,0,0,0,0,0,0,0,0,0,-1,1315,554,0,0
98,470,0,0,0,0,0,0,0,0,0,-1,1322,554,0,0
105,470,0,0,0,0,0,0,0,0,0,-1,1329,554,0,0
112,470,0,0,0,0,0,0,0,0,0,-1,1336,554,0,0
119,470,0,0,0,0,0,0,0,0,0,-1,1343,554,0,0
126,470,0,0,0,0,0,0,0,0,0,-1,1350,554,0,0
133,470,0,0,0,0,0,0,0,0,0,-1,1357,554,0,0
140,470,0,0,0,0,0,0,0,0,0,-1,1364,554,0,0
147,470,0,0,0,0,0,0,0,0,0,-1,1371,554,0,0
154,470,0,0,0,0,0,0,0,0,0,-1,1378,554,0,0
161,470,0,0,0,0,0,0,0,0,0,-1,1385,554,0,0
168,470,0,0,0,0,0,0,0,0,0,-1,1392,554,0,0
175,470,0,0,0,0,0,0,0,0,0,-1,1399,554,0,0
182,470,0,0,0,0,0,0,0,0,0,-1,1406,554,0,0
189,470,0,0,0,0,0,0,0,0,0,-1,1413,554,0,0
196,470,0,0,0,0,0,0,0,0,0,-1,1420,554,0,0
203,470,0,0,0,0,0,0,0,0,0,-1,1427,554,0,0
210,470,0,0,0,0,0,0,0,0,0,-1,1434,554,0,0
217,470,0,0,0,0,0,0,0,0,0,-1,1441,554,0,0
224,470,0,0,0,0,0,0,0,0,0,-1,1448,554,0,0
231,470,0,0,0,0,0,0,0,0,0,-1,1455,554,0,0
238,470,0,0,0,0,0,0,0,0,0,-1,1462,554,0,0
245,470,0,0,0,0,0,0,0,0,0,-1,1469,554,0,0
252,470,0,0,0,0,0,0,0,0,0,-1,1476,554,0,0
259,470,0,0,0,0,0,0,0,0,0,-1,1483,554,0,0
266,470,0,0,0,0,0,0,0,0,0,-1,1490,554,0,0
273,470,0,0,0,0,0,0,0,0,0,-1,1497,554,0,0
280,470,0,0,0,0,0,0,0,0,0,-1,1504,554,0,0
287,470,0,0,0,0,0,0,0,0,0,-1,1511,554,0,0
294,470,0,0,0,0,0,0,0,0,0,-1,1518,554,0,0
301,470,0,0,0,0,0,0,0,0,0,-1,1525,554,0,0
308,470,0,0,0,0,0,0,0,0,0,-1,1532,554,0,0
315,470,0,0,0,0,0,0,0,0,0,-1,1539,554,0,0
322,470,0,0,0,0,0,0,0,0,0,-1,1546,554,0,0
329,470,0,0,0,0,0,0,0,0,0,-1,1553,554,0,0
336,470,0,0,0,0,0,0,0,0,0,-1,1560,554,0,0
343,470,0,0,0,0,0,0,0,0,0,-1,1567,554,0,0
350,470,0,0,0,0,0,0,0,0,0,-1,1574,554,0,0
357,470,0,0,0,0,0,0,0,0,0,-1,1581,554,0,0
364,470,1.33423,0.293335,0,0,0,0,0,0,0,-1,1588,554,1.33422,-0.293348
371,470,2.22498,-0.0305176,0,0,0,0,0,0,0,-1,1595,554,2.22494,0.0305046
378,470,6.27051,0.710083,0,0,0,0,0,0,0,-1,1602,554,6.27054,-0.710093
385,470,10.3657,1.47296,0,0,0,0,0,0,0,-1,1609,554,10.3657,-1.47299
392,470,15.3881,3.01935,0,0,0,0,0,0,0,-1,1616,554,15.388,-3.01937
399,470,18.4479,2.93793,0,0,0,0,0,0,0,-1,1623,554,18.4479,-2.93792
406,470,15.1896,1.36676,0,0,0,0,0,0,0,-1,1630,554,15.1896,-1.36679
413,470,6.55383,1.99207,0,0,0,0,0,0,0,-1,1637,554,6.5538,-1.99208
420,470,4.47095,0.845703,0,0,0,0,0,0,0,-1,1644,554,4.47098,-0.845718
427,470,3.51038,1.19684,0,0,0,0,0,0,0,-1,1651,554,3.51039,-1.19684
434,470,3.31775,-1.37427,0,0,0,0,0,0,0,-1,1658,554,3.31781,1.37426
441,470,2.55457,-2.05902,0,0,0,0,0,0,0,-1,1665,554,2.55461,2.05904
448,470,3.27258,-2.64032,0,0,0,0,0,0,0,-1,1672,554,3.27257,2.64029
455,470,10.3658,-9.82233,0,0,0,0,0,0,0,-1,1679,554,10.3659,9.82233
462,470,11.0651,-11.9958,0,0,0,0,0,0,0,-1,1686,554,11.0651,11.9958
469,470,14.3961,-16.8743,0,0,0,0,0,0,0,-1,1693,554,14.3961,16.8743
476,470,14.5492,-16.1376,0.00373228,0.00175854,0.000364722,0.00379752,0.0016933,0.177002,0.00219678,0.0499978,1700,554,14.5491,16.1376
483,470,14.6604,-15.5904,0.00344992,0.00150639,0.000531741,0.00358589,0.00137042,0.250342,0.00208939,0.017009,1707,554,14.6604,15.5904
490,470,14.6177,-15.0541,0.00290139,0.00139535,0.000508533,0.00305702,0.00123972,0.296987,0.00177544,0.0123904,1714,554,14.6177,15.0541
497,470,14.5958,-14.4966,0.00231175,0.00128488,0.000561814,0.0025594,0.00103723,0.415181,0.00148648,0.0132091,1721,554,14.5959,14.4966
504,470,14.6042,-13.986,0.00170888,0.00114065,0.000579155,0.00206986,0.000779678,0.557363,0.00120709,0.0203072,1728,554,14.6043,13.9861
511,470,14.5939,-13.4866,0.00100102,0.00103441,0.00059324,0.00161119,0.000424241,0.799469,0.000964338,0.0267859,1735,554,14.5939,13.4866
518,470,14.5922,-12.9163,0.000147676,0.000930509,0.000522315,0.00119179,-0.000113609,1.10695,0.00083498,0.0256366,1742,554,14.5922,12.9163
525,470,14.5834,-12.323,-0.000680186,0.000733686,0.000390845,0.000834536,-0.000781036,1.31827,0.000932922,0.0156492,1749,554,14.5834,12.323
532,470,14.5227,-11.7583,-0.00155844,0.000611772,0.000249871,0.00064017,-0.00158684,1.45763,0.00132392,0.0140859,1756,554,14.5227,11.7583
539,470,14.5033,-11.2069,-0.00247243,0.000431811,8.28003e-05,0.00043417,-0.00247479,1.54232,0.001812,0.0169196,1763,554,14.5033,11.2069
546,470,14.4966,-10.6558,-0.00353479,0.000177808,-0.000163239,0.000184972,-0.00354195,-1.52694,0.00242531,0.0152997,1770,554,14.4966,10.6558
553,470,14.5017,-10.0591,-0.00462314,-5.99867e-05,-0.000423872,-2.09475e-05,-0.00466218,-1.47895,0.00310116,0.0218457,1777,554,14.5017,10.0591
560,470,14.496,-9.41705,-0.00575107,-0.000450425,-0.000769082,-0.000341092,-0.0058604,-1.42958,0.00379835,0.036798,1784,554,14.496,9.41703
567,470,14.298,-8.90759,-0.00697311,-0.00105466,-0.00117732,-0.000829061,-0.00719871,-1.38147,0.00454805,0.0288124,1791,554,14.298,8.9076
574,470,14.2793,-8.07147,0,0,0,0,0,0,0,-1,1798,554,14.2793,8.07147
581,470,8.24646,-4.06317,0,0,0,0,0,0,0,-1,1805,554,8.24648,4.06318
588,470,11.1803,1.74927,0,0,0,0,0,0,0,-1,1812,554,11.1803,-1.74926
595,470,4.72192,3.44116,0,0,0,0,0,0,0,-1,1819,554,4.72191,-3.44116
602,470,14.4307,2.76141,0,0,0,0,0,0,0,-1,1826,554,14.4306,-2.76139
609,470,20.9181,4.41058,0,0,0,0,0,0,0,-1,1833,554,20.9181,-4.4106
616,470,0,0,0,0,0,0,0,0,0,-1,1840,554,0,0
623,470,0,0,0,0,0,0,0,0,0,-1,1847,554,0,0
630,470,0,0,0,0,0,0,0,0,0,-1,1854,554,0,0
637,470,0,0,0,0,0,0,0,0,0,-1,1861,554,0,0
644,470,0,0,0,0,0,0,0,0,0,-1,1868,554,0,0
651,470,0,0,0,0,0,0,0,0,0,-1,1875,554,0,0
658,470,0,0,0,0,0,0,0,0,0,-1,1882,554,0,0
665,470,0,0,0,0,0,0,0,0,0,-1,1889,554,0,0
672,470,0,0,0,0,0,0,0,0,0,-1,1896,554,0,0
679,470,0,0,0,0,0,0,0,0,0,-1,1903,554,0,0
686,470,0,0,0,0,0,0,0,0,0,-1,1910,554,0,0
693,470,0,0,0,0,0,0,0,0,0,-1,1917,554,0,0
700,470,0,0,0,0,0,0,0,0,0,-1,1924,554,0,0
707,470,0,0,0,0,0,0,0,0,0,-1,1931,554,0,0
714,470,0,0,0,0,0,0,0,0,0,-1,1938,554,0,0
721,470,0,0,0,0,0,0,0,0,0,-1,1945,554,0,0
728,470,0,0,0,0,0,0,0,0,0,-1,1952,554,0,0
735,470,0,0,0,0,0,0,0,0,0,-1,1959,554,0,0
742,470,0,0,0,0,0,0,0,0,0,-1,1966,554,0,0
749,470,0,0,0,0,0,0,0,0,0,-1,1973,554,0,0
756,470,0,0,0,0,0,0,0,0,0,-1,1980,554,0,0
763,470,0,0,0,0,0,0,0,0,0,-1,1987,554,0,0
770,470,0,0,0,0,0,0,0,0,0,-1,1994,554,0,0
777,470,0,0,0,0,0,0,0,0,0,-1,2001,554,0,0
784,470,0,0,0,0,0,0,0,0,0,-1,2008,554,0,0
791,470,0,0,0,0,0,0,0,0,0,-1,2015,554,0,0
798,470,0,0,0,0,0,0,0,0,0,-1,2022,554,0,0
805,470,0,0,0,0,0,0,0,0,0,-1,2029,554,0,0
812,470,0,0,0,0,0,0,0,0,0,-1,2036,554,0,0
-700,463,0,0,0,0,0,0,0,0,0,-1,524,561,0,0
-693,463,0,0,0,0,0,0,0,0,0,-1,531,561,0,0
-686,463,0,0,0,0,0,0,0,0,0,-1,538,561,0,0
-679,463,0,0,0,0,0,0,0,0,0,-1,545,561,0,0
-672,463,0,0,0,0,0,0,0,0,0,-1,552,561,0,0
-665,463,0,0,0,0,0,0,0,0,0,-1,559,561,0,0
-658,463,0,0,0,0,0,0,0,0,0,-1,566,561,0,0
-651,463,0,0,0,0,0,0,0,0,0,-1,573,561,0,0
-644,463,0,0,0,0,0,0,0,0,0,-1,580,561,0,0
-637,463,0,0,0,0,0,0,0,0,0,-1,587,561,0,0
-630,463,0,0,0,0,0,0,0,0,0,-1,594,561,0,0
-623,463,0,0,0,0,0,0,0,0,0,-1,601,561,0,0
-616,463,0,0,0,0,0,0,0,0,0,-1,608,561,0,0
-609,463,0,0,0,0,0,0,0,0,0,-1,615,561,0,0
-602,463,0,0,0,0,0,0,0,0,0,-1,622,561,0,0
-595,463,0,0,0,0,0,0,0,0,0,-1,629,561,0,0
-588,463,0,0,0,0,0,0,0,0,0,-1,636,561,0,0
-581,463,0,0,0,0,0,0,0,0,0,-1,643,561,0,0
-574,463,0,0,0,0,0,0,0,0,0,-1,650,561,0,0
-567,463,0,0,0,0,0,0,0,0,0,-1,657,561,0,0
-560,463,0,0,0,0,0,0,0,0,0,-1,664,561,0,0
-553,463,0,0,0,0,0,0,0,0,0,-1,671,561,0,0
-546,463,0,0,0,0,0,0,0,0,0,-1,678,561,0,0
-539,463,0,0,0,0,0,0,0,0,0,-1,685,561,0,0
-532,463,0,0,0,0,0,0,0,0,0,-1,692,561,0,0
-525,463,0,0,0,0,0,0,0,0,0,-1,699,561,0,0
-518,463,0,0,0,0,0,0,0,0,0,-1,706,561,0,0
-511,463,0,0,0,0,0,0,0,0,0,-1,713,561,0,0
-504,463,0,0,0,0,0,0,0,0,0,-1,720,561,0,0
-497,463,-9.81451,-1.67126,0,0,0,0,0,0,0,-1,727,561,-9.81452,1.67127
-490,463,-8.57043,-1.58942,0,0,0,0,0,0,0,-1,734,561,-8.57045,1.58944
-483,463,-7.29224,-1.7226,0,0,0,0,0,0,0,-1,741,561,-7.29226,1.72261
-476,463,-5.77704,-1.7312,0,0,0,0,0,0,0,-1,748,561,-5.77703,1.73121
-469,463,-5.14545,-2.138,0,0,0,0,0,0,0,-1,755,561,-5.14546,2.13799
-462,463,-3.13672,-3.07977,0,0,0,0,0,0,0,-1,762,561,-3.13672,3.07974
-455,463,-2.91406,-5.61798,0,0,0,0,0,0,0,-1,769,561,-2.91406,5.61801
-448,463,-4.00177,-8.54681,0,0,0,0,0,0,0,-1,776,561,-4.00175,8.54683
-441,463,-5.14038,-10.2439,0,0,0,0,0,0,0,-1,783,561,-5.14039,10.2439
-434,463,-5.04474,-11.0123,-0.00274225,0.00846719,-0.00278306,0.00912013,-0.00339519,-1.34035,0.00747347,0.0262968,790,561,-5.04474,11.0122
-427,463,-5.06219,-11.5756,-0.00197049,0.00710195,-0.00231133,0.00765685,-0.00252539,-1.33518,0.00612251,0.0107167,797,561,-5.06218,11.5755
-420,463,-5.04846,-12.1099,-0.00129759,0.00580579,-0.00196331,0.00631232,-0.00180412,-1.31831,0.00492108,0.00962825,804,561,-5.04847,12.1099
-413,463,-5.07666,-12.657,-0.000794488,0.00449705,-0.00153076,0.00490797,-0.0012054,-1.30854,0.00373912,0.00904117,811,561,-5.07666,12.657
-406,463,-5.10626,-13.2025,-0.000197553,0.00345732,-0.0012296,0.00383248,-0.000572714,-1.27466,0.00276573,0.00914923,818,561,-5.10626,13.2025
-399,463,-5.11853,-13.7321,0.000322946,0.00250083,-0.000955075,0.00286033,-3.65464e-05,-1.2108,0.00191918,0.0108952,825,561,-5.11854,13.7321
-392,463,-5.14099,-14.2476,0.000846048,0.0015416,-0.0006953,0.00197125,0.0004164,-1.0173,0.0011997,0.0113168,832,561,-5.141,14.2476
-385,463,-5.16516,-14.7787,0.00151877,0.00071852,-0.000481069,0.00174437,0.000492924,-0.438498,0.00103837,0.011983,839,561,-5.16514,14.7788
-378,463,-5.18158,-15.2937,0.00223054,-2.77188e-05,-0.000265038,0.00226123,-5.84075e-05,-0.115277,0.00152733,0.0123042,846,561,-5.18158,15.2937
-371,463,-5.18036,-15.8345,0.00292766,-0.000693836,-5.19362e-05,0.00292841,-0.000694581,-0.0143371,0.00222031,0.0122477,853,561,-5.18039,15.8345
-364,463,-5.16986,-16.3026,0.00369455,-0.00120331,9.98136e-05,0.00369658,-0.00120534,0.0203678,0.00294944,0.0146228,860,561,-5.16988,16.3026
-357,463,-5.18817,-16.7844,0.00458127,-0.00169439,0.00010937,0.00458317,-0.0016963,0.0174206,0.00375099,0.0204115,867,561,-5.1882,16.7844
-350,463,-5.07458,-17.3593,0.00550281,-0.00217691,6.05015e-05,0.00550328,-0.00217739,0.00787743,0.00457092,0.0385591,874,561,-5.07456,17.3593
-343,463,-4.86798,-17.7491,0,0,0,0,0,0,0,-1,881,561,-4.86798,17.7491
-336,463,-2.94928,-12.2127,0,0,0,0,0,0,0,-1,888,561,-2.94925,12.2127
-329,463,-2.64307,-12.7037,0,0,0,0,0,0,0,-1,895,561,-2.64307,12.7038
-322,463,-1.82898,-9.11957,0,0,0,0,0,0,0,-1,902,561,-1.829,9.11957
-315,463,-0.944763,-5.96234,0,0,0,0,0,0,0,-1,909,561,-0.94479,5.96237
-308,463,-1.1535,-3.17889,0,0,0,0,0,0,0,-1,916,561,-1.15352,3.17889
-301,463,-1.50366,-3.15338,0,0,0,0,0,0,0,-1,923,561,-1.50364,3.15341
-294,463,-2.35889,-3.93463,0,0,0,0,0,0,0,-1,930,561,-2.35886,3.93465
-287,463,-2.80322,2.73999,0,0,0,0,0,0,0,-1,937,561,-2.80322,-2.74
-280,463,-12.864,5.25146,0,0,0,0,0,0,0,-1,944,561,-12.864,-5.25149
-273,463,-12.4598,3.39178,0,0,0,0,0,0,0,-1,951,561,-12.4598,-3.3918
-266,463,-8.78101,-3.7356,0,0,0,0,0,0,0,-1,958,561,-8.78098,3.73562
-259,463,-6.23285,-5.68842,0,0,0,0,0,0,0,-1,965,561,-6.23288,5.68843
-252,463,0,0,0,0,0,0,0,0,0,-1,972,561,0,0
-245,463,0,0,0,0,0,0,0,0,0,-1,979,561,0,0
-238,463,0,0,0,0,0,0,0,0,0,-1,986,561,0,0
-231,463,0,0,0,0,0,0,0,0,0,-1,993,561,0,0
-224,463,0,0,0,0,0,0,0,0,0,-1,1000,561,0,0
-217,463,0,0,0,0,0,0,0,0,0,-1,1007,561,0,0
-210,463,0,0,0,0,0,0,0,0,0,-1,1014,561,0,0
-203,463,0,0,0,0,0,0,0,0,0,-1,1021,561,0,0
-196,463,0,0,0,0,0,0,0,0,0,-1,1028,561,0,0
-189,463,0,0,0,0,0,0,0,0,0,-1,1035,561,0,0
-182,463,0,0,0,0,0,0,0,0,0,-1,1042,561,0,0
-175,463,0,0,0,0,0,0,0,0,0,-1,1049,561,0,0
-168,463,0,0,0,0,0,0,0,0,0,-1,1056,561,0,0
-161,463,0,0,0,0,0,0,0,0,0,-1,1063,561,0,0
-154,463,0,0,0,0,0,0,0,0,0,-1,1070,561,0,0
-147,463,0,0,0,0,0,0,0,0,0,-1,1077,561,0,0
-140,463,0,0,0,0,0,0,0,0,0,-1,1084,561,0,0
-133,463,0,0,0,0,0,0,0,0,0,-1,1091,561,0,0
-126,463,0,0,0,0,0,0,0,0,0,-1,1098,561,0,0
-119,463,0,0,0,0,0,0,0,0,0,-1,1105,561,0,0
-112,463,0,0,0,0,0,0,0,0,0,-1,1112,561,0,0
-105,463,0,0,0,0,0,0,0,0,0,-1,1119,561,0,0
-98,463,0,0,0,0,0,0,0,0,0,-1,1126,561,0,0
-91,463,0,0,0,0,0,0,0,0,0,-1,1133,561,0,0
-84,463,0,0,0,0,0,0,0,0,0,-1,1140,561,0,0
-77,463,0,0,0,0,0,0,0,0,0,-1,1147,561,0,0
-70,463,0,0,0,0,0,0,0,0,0,-1,1154,561,0,0
-63,463,0,0,0,0,0,0,0,0,0,-1,1161,561,0,0
-56,463,0,0,0,0,0,0,0,0,0,-1,1168,561,0,0
-49,463,0,0,0,0,0,0,0,0,0,-1,1175,561,0,0
-42,463,0,0,0,0,0,0,0,0,0,-1,1182,561,0,0
-35,463,0,0,0,0,0,0,0,0,0,-1,1189,561,0,0
-28,463,0,0,0,0,0,0,0,0,0,-1,1196,561,0,0
-21,463,0,0,0,0,0,0,0,0,0,-1,1203,561,0,0
-14,463,0,0,0,0,0,0,0,0,0,-1,1210,561,0,0
-7,463,0,0,0,0,0,0,0,0,0,-1,1217,561,0,0
0,463,0,0,0,0,0,0,0,0,0,-1,1224,561,0,0
7,463,0,0,0,0,0,0,0,0,0,-1,1231,561,0,0
14,463,0,0,0,0,0,0,0,0,0,-1,1238,561,0,0
21,463,0,0,0,0,0,0,0,0,0,-1,1245,561,0,0
28,463,0,0,0,0,0,0,0,0,0,-1,1252,561,0,0
35,463,0,0,0,0,0,0,0,0,0,-1,1259,561,0,0
42,463,0,0,0,0,0,0,0,0,0,-1,1266,561,0,0
49,463,0,0,0,0,0,0,0,0,0,-1,1273,561,0,0
56,463,0,0,0,0,0,0,0,0,0,-1,1280,561,0,0
63,463,0,0,0,0,0,0,0,0,0,-1,1287,561,0,0
70,463,0,0,0,0,0,0,0,0,0,-1,1294,561,0,0
77,463,0,0,0,0,0,0,0,0,0,-1,1301,561,0,0
84,463,0,0,0,0,0,0,0,0,0,-1,1308,561,0,0
91,463,0,0,0,0,0,0,0,0,0,-1,1315,561,0,0
98,463,0,0,0,0,0,0,0,0,0,-1,1322,561,0,0
105,463,0,0,0,0,0,0,0,0,0,-1,1329,561,0,0
112,463,0,0,0,0,0,0,0,0,0,-1,1336,561,0,0
119,463,0,0,0,0,0,0,0,0,0,-1,1343,561,0,0
126,463,0,0,0,0,0,0,0,0,0,-1,1350,561,0,0
133,463,0,0,0,0,0,0,0,0,0,-1,1357,561,0,0
140,463,0,0,0,0,0,0,0,0,0,-1,1364,561,0,0
147,463,0,0,0,0,0,0,0,0,0,-1,1371,561,0,0
154,463,0,0,0,0,0,0,0,0,0,-1,1378,561,0,0
161,463,0,0,0,0,0,0,0,0,0,-1,1385,561,0,0
168,463,0,0,0,0,0,0,0,0,0,-1,1392,561,0,0
175,463,0,0,0,0,0,0,0,0,0,-1,1399,561,0,0
182,463,0,0,0,0,0,0,0,0,0,-1,1406,561,0,0
189,463,0,0,0,0,0,0,0,0,0,-1,1413,561,0,0
196,463,0,0,0,0,0,0,0,0,0,-1,1420,561,0,0
203,463,0,0,0,0,0,0,0,0,0,-1,1427,561,0,0
210,463,0,0,0,0,0,0,0,0,0,-1,1434,561,0,0
217,463,0,0,0,0,0,0,0,0,0,-1,1441,561,0,0
224,463,0,0,0,0,0,0,0,0,0,-1,1448,561,0,0
231,463,0,0,0,0,0,0,0,0,0,-1,1455,561,0,0
238,463,0,0,0,0,0,0,0,0,0,-1,1462,561,0,0
245,463,0,0,0,0,0,0,0,0,0,-1,1469,561,0,0
252,463,0,0,0,0,0,0,0,0,0,-1,1476,561,0,0
259,463,0,0,0,0,0,0,0,0,0,-1,1483,561,0,0
266,463,0,0,0,0,0,0,0,0,0,-1,1490,561,0,0
273,463,0,0,0,0,0,0,0,0,0,-1,1497,561,0,0
280,463,0,0,0,0,0,0,0,0,0,-1,1504,561,0,0
287,463,0,0,0,0,0,0,0,0,0,-1,1511,561,0,0
294,463,0,0,0,0,0,0,0,0,0,-1,1518,561,0,0
301,463,0,0,0,0,0,0,0,0,0,-1,1525,561,0,0
308,463,0,0,0,0,0,0,0,0,0,-1,1532,561,0,0
315,463,0,0,0,0,0,0,0,0,0,-1,1539,561,0,0
322,463,0,0,0,0,0,0,0,0,0,-1,1546,561,0,0
329,463,0,0,0,0,0,0,0,0,0,-1,1553,561,0,0
336,463,0,0,0,0,0,0,0,0,0,-1,1560,561,0,0
343,463,0,0,0,0,0,0,0,0,0,-1,1567,561,0,0
350,463,0,0,0,0,0,0,0,0,0,-1,1574,561,0,0
357,463,0,0,0,0,0,0,0,0,0,-1,1581,561,0,0
364,463,0,0,0,0,0,0,0,0,0,-1,1588,561,0,0
371,463,1.75842,0.152588,0,0,0,0,0,0,0,-1,1595,561,1.75844,-0.152558
378,463,4.58813,-0.0444336,0,0,0,0,0,0,0,-1,1602,561,4.58809,0.0444505
385,463,8.88574,1.65057,0,0,0,0,0,0,0,-1,1609,561,8.88575,-1.65055
392,463,14.0912,2.50513,0,0,0,0,0,0,0,-1,1616,561,14.0912,-2.5051
399,463,21.4769,2.7002,0,0,0,0,0,0,0,-1,1623,561,21.477,-2.70017
406,463,26.2987,4.32318,0,0,0,0,0,0,0,-1,1630,561,26.2987,-4.3232
413,463,26.5011,2.65222,0,0,0,0,0,0,0,-1,1637,561,26.5011,-2.65224
420,463,8.849,2.26611,0,0,0,0,0,0,0,-1,1644,561,8.84899,-2.26613
427,463,5.12207,1.69183,0,0,0,0,0,0,0,-1,1651,561,5.12206,-1.69184
434,463,4.59814,1.81995,0,0,0,0,0,0,0,-1,1658,561,4.59812,-1.81994
441,463,1.76392,-5.99225,0,0,0,0,0,0,0,-1,1665,561,1.7639,5.99225
448,463,2.49939,-4.30536,0,0,0,0,0,0,0,-1,1672,561,2.49941,4.30536
455,463,4.40295,-3.02557,0,0,0,0,0,0,0,-1,1679,561,4.40299,3.02558
462,463,5.38293,-4.06445,0,0,0,0,0,0,0,-1,1686,561,5.38289,4.06444
469,463,5.94373,-4.50647,0,0,0,0,0,0,0,-1,1693,561,5.94368,4.50646
476,463,14.9136,-16.4105,0,0,0,0,0,0,0,-1,1700,561,14.9136,16.4105
483,463,15.1835,-15.6457,0,0,0,0,0,0,0,-1,1707,561,15.1834,15.6457
490,463,15.196,-15.0854,0.00368482,0.00158054,0.000780961,0.00394299,0.00132238,0.319265,0.00231725,0.0251745,1714,561,15.196,15.0854
497,463,15.1362,-14.4749,0.0031028,0.00148662,0.000809824,0.00343874,0.00115067,0.393235,0.00202124,0.0140637,1721,561,15.1362,14.4749
504,463,15.1509,-13.9589,0.00251954,0.00134392,0.000775856,0.00290511,0.000958347,0.461216,0.00170932,0.0163433,1728,561,15.1509,13.9589
511,463,15.1448,-13.4345,0.00188421,0.00122794,0.000760248,0.00238412,0.000728038,0.581668,0.0014108,0.0217064,1735,561,15.1448,13.4345
518,463,15.1571,-12.8614,0.00114841,0.0011296,0.000706079,0.00184514,0.000432862,0.778737,0.0011142,0.0224161,1742,561,15.1571,12.8614
525,463,15.1284,-12.3251,0.00041041,0.00096452,0.000599961,0.00134831,2.66226e-05,1.00171,0.00089013,0.0184558,1749,561,15.1284,12.3251
532,463,15.1085,-11.7705,-0.000386522,0.000842965,0.000466051,0.000999657,-0.000543214,1.24646,0.000903677,0.0168717,1756,561,15.1085,11.7705
539,463,15.0663,-11.1886,-0.00119202,0.000662353,0.00032944,0.000719141,-0.00124881,1.4001,0.00114983,0.0175253,1763,561,15.0663,11.1886
546,463,15.0415,-10.6499,-0.00210216,0.00039963,0.000114307,0.000404842,-0.00210737,1.52523,0.0015575,0.0136603,1770,561,15.0415,10.6499
553,463,15.0338,-10.0682,-0.00303828,0.000141514,-0.000122728,0.000146243,-0.00304301,-1.53228,0.00207913,0.0115515,1777,561,15.0338,10.0682
560,463,15.0529,-9.39264,-0.00401688,-0.00023911,-0.000410123,-0.000195099,-0.00406089,-1.46389,0.00264463,0.0195995,1784,561,15.0528,9.39262
567,463,14.9158,-8.83954,-0.0050516,-0.000804987,-0.00074433,-0.000678303,-0.00517828,-1.40221,0.00324977,0.02689,1791,561,14.9158,8.83951
574,463,14.942,-8.31738,0,0,0,0,0,0,0,-1,1798,561,14.9421,8.31736
581,463,9.4939,-3.88245,0,0,0,0,0,0,0,-1,1805,561,9.49392,3.88245
588,463,1.97424,2.16016,0,0,0,0,0,0,0,-1,1812,561,1.97422,-2.16013
595,463,9.98657,2.99854,0,0,0,0,0,0,0,-1,1819,561,9.98662,-2.99856
602,463,17.2202,4.91302,0,0,0,0,0,0,0,-1,1826,561,17.2202,-4.91305
609,463,17.96,4.03131,0,0,0,0,0,0,0,-1,1833,561,17.96,-4.03132
616,463,20.8352,3.15131,0,0,0,0,0,0,0,-1,1840,561,20.8352,-3.1513
623,463,0,0,0,0,0,0,0,0,0,-1,1847,561,0,0
630,463,0,0,0,0,0,0,0,0,0,-1,1854,561,0,0
637,463,0,0,0,0,0,0,0,0,0,-1,1861,561,0,0
644,463,0,0,0,0,0,0,0,0,0,-1,1868,561,0,0
651,463,0,0,0,0,0,0,0,0,0,-1,1875,561,0,0
658,463,0,0,0,0,0,0,0,0,0,-1,1882,561,0,0
665,463,0,0,0,0,0,0,0,0,0,-1,1889,561,0,0
672,463,0,0,0,0,0,0,0,0,0,-1,1896,561,0,0
679,463,0,0,0,0,0,0,0,0,0,-1,1903,561,0,0
686,463,0,0,0,0,0,0,0,0,0,-1,1910,561,0,0
693,463,0,0,0,0,0,0,0,0,0,-1,1917,561,0,0
700,463,0,0,0,0,0,0,0,0,0,-1,1924,561,0,0
707,463,0,0,0,0,0,0,0,0,0,-1,1931,561,0,0
714,463,0,0,0,0,0,0,0,0,0,-1,1938,561,0,0
721,463,0,0,0,0,0,0,0,0,0,-1,1945,561,0,0
728,463,0,0,0,0,0,0,0,0,0,-1,1952,561,0,0
735,463,0,0,0,0,0,0,0,0,0,-1,1959,561,0,0
742,463,0,0,0,0,0,0,0,0,0,-1,1966,561,0,0
749,463,0,0,0,0,0,0,0,0,0,-1,1973,561,0,0
756,463,0,0,0,0,0,0,0,0,0,-1,1980,561,0,0
763,463,0,0,0,0,0,0,0,0,0,-1,1987,561,0,0
770,463,0,0,0,0,0,0,0,0,0,-1,1994,561,0,0
777,463,0,0,0,0,0,0,0,0,0,-1,2001,561,0,0
784,463,0,0,0,0,0,0,0,0,0,-1,2008,561,0,0
791,463,0,0,0,0,0,0,0,0,0,-1,2015,561,0,0
798,463,0,0,0,0,0,0,0,0,0,-1,2022,561,0,0
805,463,0,0,0,0,0,0,0,0,0,-1,2029,561,0,0
812,463,0,0,0,0,0,0,0,0,0,-1,2036,561,0,0
-700,456,0,0,0,0,0,0,0,0,0,-1,524,568,0,0
-693,456,0,0,0,0,0,0,0,0,0,-1,531,568,0,0
-686,456,0,0,0,0,0,0,0,0,0,-1,538,568,0,0
-679,456,0,0,0,0,0,0,0,0,0,-1,545,568,0,0
-672,456,0,0,0,0,0,0,0,0,0,-1,552,568,0,0
-665,456,0,0,0,0,0,0,0,0,0,-1,559,568,0,0
-658,456,0,0,0,0,0,0,0,0,0,-1,566,568,0,0
-651,456,0,0,0,0,0,0,0,0,0,-1,573,568,0,0
-644,456,0,0,0,0,0,0,0,0,0,-1,580,568,0,0
-637,456,0,0,0,0,0,0,0,0,0,-1,587,568,0,0
-630,456,0,0,0,0,0,0,0,0,0,-1,594,568,0,0
-623,456,0,0,0,0,0,0,0,0,0,-1,601,568,0,0
-616,456,0,0,0,0,0,0,0,0,0,-1,608,568,0,0
-609,456,0,0,0,0,0,0,0,0,0,-1,615,568,0,0
-602,456,0,0,0,0,0,0,0,0,0,-1,622,568,0,0
-595,456,0,0,0,0,0,0,0,0,0,-1,629,568,0,0
-588,456,0,0,0,0,0,0,0,0,0,-1,636,568,0,0
-581,456,0,0,0,0,0,0,0,0,0,-1,643,568,0,0
-574,456,0,0,0,0,0,0,0,0,0,-1,650,568,0,0
-567,456,0,0,0,0,0,0,0,0,0,-1,657,568,0,0
-560,456,0,0,0,0,0,0,0,0,0,-1,664,568,0,0
-553,456,0,0,0,0,0,0,0,0,0,-1,671,568,0,0
-546,456,0,0,0,0,0,0,0,0,0,-1,678,568,0,0
-539,456,0,0,0,0,0,0,0,0,0,-1,685,568,0,0
-532,456,0,0,0,0,0,0,0,0,0,-1,692,568,0,0
-525,456,0,0,0,0,0,0,0,0,0,-1,699,568,0,0
-518,456,0,0,0,0,0,0,0,0,0,-1,706,568,0,0
-511,456,0,0,0,0,0,0,0,0,0,-1,713,568,0,0
-504,456,-10.3994,-2.34839,0,0,0,0,0,0,0,-1,720,568,-10.3994,2.3484
-497,456,-9.21375,-2.38068,0,0,0,0,0,0,0,-1,727,568,-9.21372,2.38069
-490,456,-8.09058,-2.31824,0,0,0,0,0,0,0,-1,734,568,-8.09057,2.31821
-483,456,-6.66119,-2.24329,0,0,0,0,0,0,0,-1,741,568,-6.66121,2.24331
-476,456,-5.1499,-2.21185,0,0,0,0,0,0,0,-1,748,568,-5.14992,2.21184
-469,456,-2.81238,-3.51501,0,0,0,0,0,0,0,-1,755,568,-2.81237,3.51501
-462,456,-4.2431,-5.27478,0,0,0,0,0,0,0,-1,762,568,-4.24312,5.27476
-455,456,-5.98364,-8.72119,0,0,0,0,0,0,0,-1,769,568,-5.98364,8.72122
-448,456,-5.34216,-9.43701,0,0,0,0,0,0,0,-1,776,568,-5.34215,9.43704
-441,456,-5.50574,-10.3782,-0.00240864,0.00795549,-0.00336478,0.00895206,-0.00340521,-1.28285,0.00737017,0.0312946,783,568,-5.50577,10.3782
-434,456,-5.59796,-11.0077,-0.00180099,0.00659738,-0.00256101,0.00731672,-0.00252033,-1.29697,0.00590017,0.0163723,790,568,-5.59796,11.0077
-427,456,-5.59576,-11.5546,-0.00124762,0.005368,-0.00193587,0.00589284,-0.00177245,-1.30605,0.00463379,0.00880998,797,568,-5.59574,11.5546
-420,456,-5.59326,-12.0889,-0.000711258,0.00423889,-0.0014792,0.00464722,-0.00111959,-1.30146,0.00353101,0.00869644,804,568,-5.59325,12.0889
-413,456,-5.60754,-12.6292,-0.000328269,0.00304753,-0.000941811,0.00329251,-0.000573246,-1.31632,0.00240893,0.00842016,811,568,-5.60754,12.6292
-406,456,-5.6485,-13.1631,0.000163635,0.00212497,-0.000576209,0.00228172,6.88154e-06,-1.30518,0.00151886,0.00857968,818,568,-5.64849,13.1631
-399,456,-5.66571,-13.6934,0.000631562,0.00130427,-0.000292875,0.00141391,0.000521923,-1.21259,0.000825587,0.0102148,825,568,-5.66569,13.6934
-392,456,-5.67023,-14.22,0.00113505,0.000489147,-6.15565e-05,0.00114087,0.000483333,-0.0941728,0.000661235,0.0105106,832,568,-5.67025,14.22
-385,456,-5.68152,-14.7434,0.00179933,-0.000171495,9.42777e-05,0.00180383,-0.000175995,0.0476915,0.0012653,0.0109243,839,568,-5.6815,14.7434
-378,456,-5.70898,-15.2726,0.00249606,-0.000782505,0.000260905,0.00251669,-0.000803137,0.0789172,0.002,0.0116556,846,568,-5.709,15.2726
-371,456,-5.71417,-15.8011,0.00326133,-0.0012334,0.000380107,0.00329325,-0.00126531,0.0837745,0.00271731,0.012722,853,568,-5.7142,15.8011
-364,456,-5.67682,-16.2735,0.00419224,-0.00143235,0.00035993,0.00421518,-0.00145529,0.0636463,0.00340065,0.0222802,860,568,-5.67682,16.2735
-357,456,-5.58545,-16.8216,0,0,0,0,0,0,0,-1,867,568,-5.58543,16.8216
-350,456,-5.40295,-17.5645,0,0,0,0,0,0,0,-1,874,568,-5.40296,17.5644
-343,456,-3.39081,-12.0217,0,0,0,0,0,0,0,-1,881,568,-3.39078,12.0217
-336,456,-3.04517,-12.4623,0,0,0,0,0,0,0,-1,888,568,-3.04519,12.4624
-329,456,-1.06183,-10.7184,0,0,0,0,0,0,0,-1,895,568,-1.06184,10.7184
-322,456,-0.662537,-7.66632,0,0,0,0,0,0,0,-1,902,568,-0.662564,7.66633
-315,456,-0.675476,-3.38397,0,0,0,0,0,0,0,-1,909,568,-0.675473,3.38399
-308,456,-1.1618,-3.15314,0,0,0,0,0,0,0,-1,916,568,-1.16178,3.15314
-301,456,-1.83551,-3.26447,0,0,0,0,0,0,0,-1,923,568,-1.8355,3.26449
-294,456,-2.93414,-3.35449,0,0,0,0,0,0,0,-1,930,568,-2.93413,3.35451
-287,456,-3.7569,-3.53101,0,0,0,0,0,0,0,-1,937,568,-3.75692,3.53101
-280,456,-13.072,4.52856,0,0,0,0,0,0,0,-1,944,568,-13.072,-4.52855
-273,456,-8.26538,-6.66748,0,0,0,0,0,0,0,-1,951,568,-8.26536,6.66745
-266,456,-5.33752,-9.16571,0,0,0,0,0,0,0,-1,958,568,-5.33753,9.16571
-259,456,0,0,0,0,0,0,0,0,0,-1,965,568,0,0
-252,456,0,0,0,0,0,0,0,0,0,-1,972,568,0,0
-245,456,0,0,0,0,0,0,0,0,0,-1,979,568,0,0
-238,456,0,0,0,0,0,0,0,0,0,-1,986,568,0,0
-231,456,0,0,0,0,0,0,0,0,0,-1,993,568,0,0
-224,456,0,0,0,0,0,0,0,0,0,-1,1000,568,0,0
-217,456,0,0,0,0,0,0,0,0,0,-1,1007,568,0,0
-210,456,0,0,0,0,0,0,0,0,0,-1,1014,568,0,0
-203,456,0,0,0,0,0,0,0,0,0,-1,1021,568,0,0
-196,456,0,0,0,0,0,0,0,0,0,-1,1028,568,0,0
-189,456,0,0,0,0,0,0,0,0,0,-1,1035,568,0,0
-182,456,0,0,0,0,0,0,0,0,0,-1,1042,568,0,0
-175,456,0,0,0,0,0,0,0,0,0,-1,1049,568,0,0
-168,456,0,0,0,0,0,0,0,0,0,-1,1056,568,0,0
-161,456,0,0,0,0,0,0,0,0,0,-1,1063,568,0,0
-154,456,0,0,0,0,0,0,0,0,0,-1,1070,568,0,0
-147,456,0,0,0,0,0,0,0,0,0,-1,1077,568,0,0
-140,456,0,0,0,0,0,0,0,0,0,-1,1084,568,0,0
-133,456,0,0,0,0,0,0,0,0,0,-1,1091,568,0,0
-126,456,0,0,0,0,0,0,0,0,0,-1,1098,568,0,0
-119,456,0,0,0,0,0,0,0,0,0,-1,1105,568,0,0
-112,456,0,0,0,0,0,0,0,0,0,-1,1112,568,0,0
-105,456,0,0,0,0,0,0,0,0,0,-1,1119,568,0,0
-98,456,0,0,0,0,0,0,0,0,0,-1,1126,568,0,0
-91,456,0,0,0,0,0,0,0,0,0,-1,1133,568,0,0
-84,456,0,0,0,0,0,0,0,0,0,-1,1140,568,0,0
-77,456,0,0,0,0,0,0,0,0,0,-1,1147,568,0,0
-70,456,0,0,0,0,0,0,0,0,0,-1,1154,568,0,0
-63,456,0,0,0,0,0,0,0,0,0,-1,1161,568,0,0
-56,456,0,0,0,0,0,0,0,0,0,-1,1168,568,0,0
-49,456,0,0,0,0,0,0,0,0,0,-1,1175,568,0,0
-42,456,0,0,0,0,0,0,0,0,0,-1,1182,568,0,0
-35,456,0,0,0,0,0,0,0,0,0,-1,1189,568,0,0
-28,456,0,0,0,0,0,0,0,0,0,-1,1196,568,0,0
-21,456,0,0,0,0,0,0,0,0,0,-1,1203,568,0,0
-14,456,0,0,0,0,0,0,0,0,0,-1,1210,568,0,0
-7,456,0,0,0,0,0,0,0,0,0,-1,1217,568,0,0
0,456,0,0,0,0,0,0,0,0,0,-1,1224,568,0,0
7,456,0,0,0,0,0,0,0,0,0,-1,1231,568,0,0
14,456,0,0,0,0,0,0,0,0,0,-1,1238,568,0,0
21,456,0,0,0,0,0,0,0,0,0,-1,1245,568,0,0
28,456,0,0,0,0,0,0,0,0,0,-1,1252,568,0,0
35,456,0,0,0,0,0,0,0,0,0,-1,1259,568,0,0
42,456,0,0,0,0,0,0,0,0,0,-1,1266,568,0,0
49,456,0,0,0,0,0,0,0,0,0,-1,1273,568,0,0
56,456,0,0,0,0,0,0,0,0,0,-1,1280,568,0,0
63,456,0,0,0,0,0,0,0,0,0,-1,1287,568,0,0
70,456,0,0,0,0,0,0,0,0,0,-1,1294,568,0,0
77,456,0,0,0,0,0,0,0,0,0,-1,1301,568,0,0
84,456,0,0,0,0,0,0,0,0,0,-1,1308,568,0,0
91,456,0,0,0,0,0,0,0,0,0,-1,1315,568,0,0
98,456,0,0,0,0,0,0,0,0,0,-1,1322,568,0,0
105,456,0,0,0,0,0,0,0,0,0,-1,1329,568,0,0
112,456,0,0,0,0,0,0,0,0,0,-1,1336,568,0,0
119,456,0,0,0,0,0,0,0,0,0,-1,1343,568,0,0
126,456,0,0,0,0,0,0,0,0,0,-1,1350,568,0,0
133,456,0,0,0,0,0,0,0,0,0,-1,1357,568,0,0
140,456,0,0,0,0,0,0,0,0,0,-1,1364,568,0,0
147,456,0,0,0,0,0,0,0,0,0,-1,1371,568,0,0
154,456,0,0,0,0,0,0,0,0,0,-1,1378,568,0,0
161,456,0,0,0,0,0,0,0,0,0,-1,1385,568,0,0
168,456,0,0,0,0,0,0,0,0,0,-1,1392,568,0,0
175,456,0,0,0,0,0,0,0,0,0,-1,1399,568,0,0
182,456,0,0,0,0,0,0,0,0,0,-1,1406,568,0,0
189,456,0,0,0,0,0,0,0,0,0,-1,1413,568,0,0
196,456,0,0,0,0,0,0,0,0,0,-1,1420,568,0,0
203,456,0,0,0,0,0,0,0,0,0,-1,1427,568,0,0
210,456,0,0,0,0,0,0,0,0,0,-1,1434,568,0,0
217,456,0,0,0,0,0,0,0,0,0,-1,1441,568,0,0
224,456,0,0,0,0,0,0,0,0,0,-1,1448,568,0,0
231,456,0,0,0,0,0,0,0,0,0,-1,1455,568,0,0
238,456,0,0,0,0,0,0,0,0,0,-1,1462,568,0,0
245,456,0,0,0,0,0,0,0,0,0,-1,1469,568,0,0
252,456,0,0,0,0,0,0,0,0,0,-1,1476,568,0,0
259,456,0,0,0,0,0,0,0,0,0,-1,1483,568,0,0
266,456,0,0,0,0,0,0,0,0,0,-1,1490,568,0,0
273,456,0,0,0,0,0,0,0,0,0,-1,1497,568,0,0
280,456,0,0,0,0,0,0,0,0,0,-1,1504,568,0,0
287,456,0,0,0,0,0,0,0,0,0,-1,1511,568,0,0
294,456,0,0,0,0,0,0,0,0,0,-1,1518,568,0,0
301,456,0,0,0,0,0,0,0,0,0,-1,1525,568,0,0
308,456,0,0,0,0,0,0,0,0,0,-1,1532,568,0,0
315,456,0,0,0,0,0,0,0,0,0,-1,1539,568,0,0
322,456,0,0,0,0,0,0,0,0,0,-1,1546,568,0,0
329,456,0,0,0,0,0,0,0,0,0,-1,1553,568,0,0
336,456,0,0,0,0,0,0,0,0,0,-1,1560,568,0,0
343,456,0,0,0,0,0,0,0,0,0,-1,1567,568,0,0
350,456,0,0,0,0,0,0,0,0,0,-1,1574,568,0,0
357,456,0,0,0,0,0,0,0,0,0,-1,1581,568,0,0
364,456,0,0,0,0,0,0,0,0,0,-1,1588,568,0,0
371,456,0,0,0,0,0,0,0,0,0,-1,1595,568,0,0
378,456,0,0,0,0,0,0,0,0,0,-1,1602,568,0,0
385,456,5.66284,0.660645,0,0,0,0,0,0,0,-1,1609,568,5.66285,-0.660615
392,456,17.5027,4.32971,0,0,0,0,0,0,0,-1,1616,568,17.5026,-4.32971
399,456,24.1917,5.99652,0,0,0,0,0,0,0,-1,1623,568,24.1916,-5.99651
406,456,24.446,4.53003,0,0,0,0,0,0,0,-1,1630,568,24.446,-4.53005
413,456,24.9418,2.90521,0,0,0,0,0,0,0,-1,1637,568,24.9418,-2.90524
420,456,25.3048,1.04712,0,0,0,0,0,0,0,-1,1644,568,25.3048,-1.04713
427,456,6.21375,2.02905,0,0,0,0,0,0,0,-1,1651,568,6.21372,-2.02904
434,456,3.0719,-4.86285,0,0,0,0,0,0,0,-1,1658,568,3.07184,4.86287
441,456,2.90344,-4.70459,0,0,0,0,0,0,0,-1,1665,568,2.90346,4.7046
448,456,3.06995,-4.93689,0,0,0,0,0,0,0,-1,1672,568,3.06991,4.93687
455,456,3.46582,-3.43701,0,0,0,0,0,0,0,-1,1679,568,3.46585,3.43698
462,456,4.68445,-4.45831,0,0,0,0,0,0,0,-1,1686,568,4.68439,4.45833
469,456,4.93201,-2.289,0,0,0,0,0,0,0,-1,1693,568,4.93197,2.28903
476,456,4.8363,-2.79364,0,0,0,0,0,0,0,-1,1700,568,4.83636,2.79363
483,456,12.8522,-13.692,0,0,0,0,0,0,0,-1,1707,568,12.8522,13.6919
490,456,15.6653,-15.2852,0,0,0,0,0,0,0,-1,1714,568,15.6653,15.2852
497,456,15.681,-14.5104,0.00376238,0.00173398,0.00100433,0.00417551,0.00132085,0.390255,0.00246435,0.0456186,1721,568,15.6811,14.5104
504,456,15.6682,-13.9429,0.0031832,0.00154205,0.000928862,0.00360203,0.00112322,0.423608,0.00212816,0.0125756,1728,568,15.6682,13.9429
511,456,15.6909,-13.4014,0.00263243,0.00137459,0.000897818,0.00309969,0.000907329,0.479868,0.00184016,0.0134684,1735,568,15.6909,13.4014
518,456,15.6893,-12.8498,0.00203054,0.00126605,0.000887609,0.00261472,0.000681879,0.582076,0.00156614,0.0159884,1742,568,15.6893,12.8498
525,456,15.6641,-12.3171,0.00137313,0.0011444,0.000823423,0.00209009,0.000427438,0.716396,0.00127503,0.0163116,1749,568,15.664,12.3171
532,456,15.6467,-11.744,0.000650964,0.00102683,0.000707024,0.00157047,0.000107322,0.915299,0.0010131,0.0160851,1756,568,15.6467,11.744
539,456,15.6173,-11.1646,-5.41386e-05,0.000858409,0.00060349,0.0011587,-0.000354427,1.10908,0.000913813,0.0193741,1763,568,15.6173,11.1646
546,456,15.5848,-10.6047,-0.000832305,0.000604354,0.000420586,0.000718425,-0.000946376,1.30595,0.000964172,0.02129,1770,568,15.5849,10.6047
553,456,15.556,-10.0314,-0.00165184,0.000349681,0.000214825,0.000372479,-0.00167464,1.46507,0.00125909,0.0138326,1777,568,15.556,10.0314
560,456,15.5508,-9.46375,-0.00251934,1.75637e-06,-1.45735e-05,1.84076e-06,-0.00251943,-1.56502,0.00168023,0.0109194,1784,568,15.5508,9.46375
567,456,15.5482,-8.86346,-0.00338085,-0.000433125,-0.000246419,-0.000412668,-0.00340131,-1.48797,0.00214327,0.0173705,1791,568,15.5482,8.86347
574,456,15.5126,-8.46741,-0.00442133,-0.000998508,-0.000602231,-0.000895639,-0.0045242,-1.40162,0.00276634,0.0497719,1798,568,15.5126,8.4674
581,456,15.5509,-8.01575,0,0,0,0,0,0,0,-1,1805,568,15.5509,8.01578
588,456,5.23901,-0.0901489,0,0,0,0,0,0,0,-1,1812,568,5.23906,0.0901656
595,456,6.90063,3.14886,0,0,0,0,0,0,0,-1,1819,568,6.90066,-3.14887
602,456,16.894,4.10938,0,0,0,0,0,0,0,-1,1826,568,16.8941,-4.1094
609,456,14.9966,3.5708,0,0,0,0,0,0,0,-1,1833,568,14.9966,-3.57083
616,456,17.7407,2.6579,0,0,0,0,0,0,0,-1,1840,568,17.7408,-2.6579
623,456,20.6838,1.7121,0,0,0,0,0,0,0,-1,1847,568,20.6838,-1.71208
630,456,0,0,0,0,0,0,0,0,0,-1,1854,568,0,0
637,456,0,0,0,0,0,0,0,0,0,-1,1861,568,0,0
644,456,0,0,0,0,0,0,0,0,0,-1,1868,568,0,0
651,456,0,0,0,0,0,0,0,0,0,-1,1875,568,0,0
658,456,0,0,0,0,0,0,0,0,0,-1,1882,568,0,0
665,456,0,0,0,0,0,0,0,0,0,-1,1889,568,0,0
672,456,0,0,0,0,0,0,0,0,0,-1,1896,568,0,0
679,456,0,0,0,0,0,0,0,0,0,-1,1903,568,0,0
686,456,0,0,0,0,0,0,0,0,0,-1,1910,568,0,0
693,456,0,0,0,0,0,0,0,0,0,-1,1917,568,0,0
700,456,0,0,0,0,0,0,0,0,0,-1,1924,568,0,0
707,456,0,0,0,0,0,0,0,0,0,-1,1931,568,0,0
714,456,0,0,0,0,0,0,0,0,0,-1,1938,568,0,0
721,456,0,0,0,0,0,0,0,0,0,-1,1945,568,0,0
728,456,0,0,0,0,0,0,0,0,0,-1,1952,568,0,0
735,456,0,0,0,0,0,0,0,0,0,-1,1959,568,0,0
742,456,0,0,0,0,0,0,0,0,0,-1,1966,568,0,0
749,456,0,0,0,0,0,0,0,0,0,-1,1973,568,0,0
756,456,0,0,0,0,0,0,0,0,0,-1,1980,568,0,0
763,456,0,0,0,0,0,0,0,0,0,-1,1987,568,0,0
770,456,0,0,0,0,0,0,0,0,0,-1,1994,568,0,0
777,456,0,0,0,0,0,0,0,0,0,-1,2001,568,0,0
784,456,0,0,0,0,0,0,0,0,0,-1,2008,568,0,0
791,456,0,0,0,0,0,0,0,0,0,-1,2015,568,0,0
798,456,0,0,0,0,0,0,0,0,0,-1,2022,568,0,0
805,456,0,0,0,0,0,0,0,0,0,-1,2029,568,0,0
812,456,0,0,0,0,0,0,0,0,0,-1,2036,568,0,0
-700,449,0,0,0,0,0,0,0,0,0,-1,524,575,0,0
-693,449,0,0,0,0,0,0,0,0,0,-1,531,575,0,0
-686,449,0,0,0,0,0,0,0,0,0,-1,538,575,0,0
-679,449,0,0,0,0,0,0,0,0,0,-1,545,575,0,0
-672,449,0,0,0,0,0,0,0,0,0,-1,552,575,0,0
-665,449,0,0,0,0,0,0,0,0,0,-1,559,575,0,0
-658,449,0,0,0,0,0,0,0,0,0,-1,566,575,0,0
-651,449,0,0,0,0,0,0,0,0,0,-1,573,575,0,0
-644,449,0,0,0,0,0,0,0,0,0,-1,580,575,0,0
-637,449,0,0,0,0,0,0,0,0,0,-1,587,575,0,0
-630,449,0,0,0,0,0,0,0,0,0,-1,594,575,0,0
-623,449,0,0,0,0,0,0,0,0,0,-1,601,575,0,0
-616,449,0,0,0,0,0,0,0,0,0,-1,608,575,0,0
-609,449,0,0,0,0,0,0,0,0,0,-1,615,575,0,0
-602,449,0,0,0,0,0,0,0,0,0,-1,622,575,0,0
-595,449,0,0,0,0,0,0,0,0,0,-1,629,575,0,0
-588,449,0,0,0,0,0,0,0,0,0,-1,636,575,0,0
-581,449,0,0,0,0,0,0,0,0,0,-1,643,575,0,0
-574,449,0,0,0,0,0,0,0,0,0,-1,650,575,0,0
-567,449,0,0,0,0,0,0,0,0,0,-1,657,575,0,0
-560,449,0,0,0,0,0,0,0,0,0,-1,664,575,0,0
-553,449,0,0,0,0,0,0,0,0,0,-1,671,575,0,0
-546,449,0,0,0,0,0,0,0,0,0,-1,678,575,0,0
-539,449,0,0,0,0,0,0,0,0,0,-1,685,575,0,0
-532,449,0,0,0,0,0,0,0,0,0,-1,692,575,0,0
-525,449,0,0,0,0,0,0,0,0,0,-1,699,575,0,0
-518,449,0,0,0,0,0,0,0,0,0,-1,706,575,0,0
-511,449,-0.941345,-4.4519,0,0,0,0,0,0,0,-1,713,575,-0.941356,4.45191
-504,449,-14.1078,0.318237,0,0,0,0,0,0,0,-1,720,575,-14.1078,-0.318231
-497,449,-8.61292,-3.09009,0,0,0,0,0,0,0,-1,727,575,-8.61291,3.09011
-490,449,-7.50995,-2.96252,0,0,0,0,0,0,0,-1,734,575,-7.50995,2.96251
-483,449,-5.77789,-2.50061,0,0,0,0,0,0,0,-1,741,575,-5.77792,2.50059
-476,449,-4.1723,-2.07739,0,0,0,0,0,0,0,-1,748,575,-4.17228,2.0774
-469,449,-4.02954,-4.56329,0,0,0,0,0,0,0,-1,755,575,-4.02951,4.56329
-462,449,-6.08002,-8.61115,0,0,0,0,0,0,0,-1,762,575,-6.08003,8.61117
-455,449,-6.3299,-9.1601,0,0,0,0,0,0,0,-1,769,575,-6.3299,9.16007
-448,449,-6.07855,-9.78741,-0.00149299,0.00735365,-0.00421119,0.00903769,-0.00317704,-1.19038,0.00731775,0.0403406,776,575,-6.07858,9.78742
-441,449,-6.07031,-10.512,-0.00112942,0.00605541,-0.0031384,0.00723322,-0.00230723,-1.21177,0.00574771,0.0198426,783,575,-6.07029,10.512
-434,449,-6.13251,-11.0099,-0.000886057,0.00490544,-0.00222131,0.00565929,-0.00163991,-1.24362,0.00442205,0.0135805,790,575,-6.13251,11.0099
-427,449,-6.15442,-11.5424,-0.000674715,0.00381319,-0.00145796,0.00424523,-0.00110676,-1.2827,0.00326227,0.013042,797,575,-6.15444,11.5424
-420,449,-6.14935,-12.0887,-0.000420182,0.00284149,-0.000885505,0.00306638,-0.000645079,-1.32208,0.00228977,0.0128552,804,575,-6.14937,12.0887
-413,449,-6.14435,-12.6203,-0.000288959,0.00177742,-0.000235468,0.00180392,-0.000315451,-1.45876,0.00132038,0.00969585,811,575,-6.14434,12.6203
-406,449,-6.17126,-13.1509,-3.00782e-05,0.000969673,0.00021667,0.00101461,-7.50159e-05,1.36629,0.000702748,0.00833511,818,575,-6.17127,13.1509
-399,449,-6.19824,-13.687,0.000285586,0.000273931,0.000531517,0.000811307,-0.00025179,0.779916,0.00064149,0.00811287,825,575,-6.19825,13.687
-392,449,-6.19446,-14.2125,0.000710865,-0.000394823,0.000747992,0.00108814,-0.000772102,0.467153,0.00107917,0.00994696,832,575,-6.19444,14.2125
-385,449,-6.19867,-14.7269,0.00133402,-0.000897772,0.000853833,0.0016232,-0.00118696,0.326565,0.00162895,0.0112551,839,575,-6.1987,14.7269
-378,449,-6.23047,-15.246,0.00201911,-0.00138647,0.000975512,0.00227875,-0.00164611,0.260123,0.00227581,0.0107104,846,575,-6.23044,15.246
-371,449,-6.2276,-15.7715,0.00289518,-0.0016348,0.000998013,0.00310531,-0.00184493,0.207516,0.00288873,0.0161477,853,575,-6.22758,15.7716
-364,449,-6.17822,-16.3318,0,0,0,0,0,0,0,-1,860,575,-6.17825,16.3319
-357,449,-5.88049,-15.8704,0,0,0,0,0,0,0,-1,867,575,-5.88051,15.8704
-350,449,-2.8764,-9.90204,0,0,0,0,0,0,0,-1,874,575,-2.87638,9.90203
-343,449,-2.98492,-9.2254,0,0,0,0,0,0,0,-1,881,575,-2.98491,9.22541
-336,449,-1.29523,-9.54626,0,0,0,0,0,0,0,-1,888,575,-1.29525,9.54626
-329,449,-0.733398,-7.78937,0,0,0,0,0,0,0,-1,895,575,-0.733398,7.78937
-322,449,-0.628845,-3.16669,0,0,0,0,0,0,0,-1,902,575,-0.628861,3.16667
-315,449,-0.540344,-3.21918,0,0,0,0,0,0,0,-1,909,575,-0.540336,3.21917
-308,449,-1.04413,-2.99341,0,0,0,0,0,0,0,-1,916,575,-1.04415,2.99338
-301,449,-1.58691,-2.80725,0,0,0,0,0,0,0,-1,923,575,-1.58692,2.80728
-294,449,-3.71118,-2.76086,0,0,0,0,0,0,0,-1,930,575,-3.71119,2.76087
-287,449,-4.4082,-2.69525,0,0,0,0,0,0,0,-1,937,575,-4.40822,2.69526
-280,449,-2.53235,-9.87903,0,0,0,0,0,0,0,-1,944,575,-2.53236,9.879
-273,449,0,0,0,0,0,0,0,0,0,-1,951,575,0,0
-266,449,0,0,0,0,0,0,0,0,0,-1,958,575,0,0
-259,449,0,0,0,0,0,0,0,0,0,-1,965,575,0,0
-252,449,0,0,0,0,0,0,0,0,0,-1,972,575,0,0
-245,449,0,0,0,0,0,0,0,0,0,-1,979,575,0,0
-238,449,0,0,0,0,0,0,0,0,0,-1,986,575,0,0
-231,449,0,0,0,0,0,0,0,0,0,-1,993,575,0,0
-224,449,0,0,0,0,0,0,0,0,0,-1,1000,575,0,0
-217,449,0,0,0,0,0,0,0,0,0,-1,1007,575,0,0
-210,449,0,0,0,0,0,0,0,0,0,-1,1014,575,0,0
-203,449,0,0,0,0,0,0,0,0,0,-1,1021,575,0,0
-196,449,0,0,0,0,0,0,0,0,0,-1,1028,575,0,0
-189,449,0,0,0,0,0,0,0,0,0,-1,1035,575,0,0
-182,449,0,0,0,0,0,0,0,0,0,-1,1042,575,0,0
-175,449,0,0,0,0,0,0,0,0,0,-1,1049,575,0,0
-168,449,0,0,0,0,0,0,0,0,0,-1,1056,575,0,0
-161,449,0,0,0,0,0,0,0,0,0,-1,1063,575,0,0
-154,449,0,0,0,0,0,0,0,0,0,-1,1070,575,0,0
-147,449,0,0,0,0,0,0,0,0,0,-1,1077,575,0,0
-140,449,0,0,0,0,0,0,0,0,0,-1,1084,575,0,0
-133,449,0,0,0,0,0,0,0,0,0,-1,1091,575,0,0
-126,449,0,0,0,0,0,0,0,0,0,-1,1098,575,0,0
-119,449,0,0,0,0,0,0,0,0,0,-1,1105,575,0,0
-112,449,0,0,0,0,0,0,0,0,0,-1,1112,575,0,0
-105,449,0,0,0,0,0,0,0,0,0,-1,1119,575,0,0
-98,449,0,0,0,0,0,0,0,0,0,-1,1126,575,0,0
-91,449,0,0,0,0,0,0,0,0,0,-1,1133,575,0,0
-84,449,0,0,0,0,0,0,0,0,0,-1,1140,575,0,0
-77,449,0,0,0,0,0,0,0,0,0,-1,1147,575,0,0
-70,449,0,0,0,0,0,0,0,0,0,-1,1154,575,0,0
-63,449,0,0,0,0,0,0,0,0,0,-1,1161,575,0,0
-56,449,0,0,0,0,0,0,0,0,0,-1,1168,575,0,0
-49,449,0,0,0,0,0,0,0,0,0,-1,1175,575,0,0
-42,449,0,0,0,0,0,0,0,0,0,-1,1182,575,0,0
-35,449,0,0,0,0,0,0,0,0,0,-1,1189,575,0,0
-28,449,0,0,0,0,0,0,0,0,0,-1,1196,575,0,0
-21,449,0,0,0,0,0,0,0,0,0,-1,1203,575,0,0
-14,449,0,0,0,0,0,0,0,0,0,-1,1210,575,0,0
-7,449,0,0,0,0,0,0,0,0,0,-1,1217,575,0,0
0,449,0,0,0,0,0,0,0,0,0,-1,1224,575,0,0
7,449,0,0,0,0,0,0,0,0,0,-1,1231,575,0,0
14,449,0,0,0,0,0,0,0,0,0,-1,1238,575,0,0
21,449,0,0,0,0,0,0,0,0,0,-1,1245,575,0,0
28,449,0,0,0,0,0,0,0,0,0,-1,1252,575,0,0
35,449,0,0,0,0,0,0,0,0,0,-1,1259,575,0,0
42,449,0,0,0,0,0,0,0,0,0,-1,1266,575,0,0
49,449,0,0,0,0,0,0,0,0,0,-1,1273,575,0,0
56,449,0,0,0,0,0,0,0,0,0,-1,1280,575,0,0
63,449,0,0,0,0,0,0,0,0,0,-1,1287,575,0,0
70,449,0,0,0,0,0,0,0,0,0,-1,1294,575,0,0
77,449,0,0,0,0,0,0,0,0,0,-1,1301,575,0,0
84,449,0,0,0,0,0,0,0,0,0,-1,1308,575,0,0
91,449,0,0,0,0,0,0,0,0,0,-1,1315,575,0,0
98,449,0,0,0,0,0,0,0,0,0,-1,1322,575,0,0
105,449,0,0,0,0,0,0,0,0,0,-1,1329,575,0,0
112,449,0,0,0,0,0,0,0,0,0,-1,1336,575,0,0
119,449,0,0,0,0,0,0,0,0,0,-1,1343,575,0,0
126,449,0,0,0,0,0,0,0,0,0,-1,1350,575,0,0
133,449,0,0,0,0,0,0,0,0,0,-1,1357,575,0,0
140,449,0,0,0,0,0,0,0,0,0,-1,1364,575,0,0
147,449,0,0,0,0,0,0,0,0,0,-1,1371,575,0,0
154,449,0,0,0,0,0,0,0,0,0,-1,1378,575,0,0
161,449,0,0,0,0,0,0,0,0,0,-1,1385,575,0,0
168,449,0,0,0,0,0,0,0,0,0,-1,1392,575,0,0
175,449,0,0,0,0,0,0,0,0,0,-1,1399,575,0,0
182,449,0,0,0,0,0,0,0,0,0,-1,1406,575,0,0
189,449,0,0,0,0,0,0,0,0,0,-1,1413,575,0,0
196,449,0,0,0,0,0,0,0,0,0,-1,1420,575,0,0
203,449,0,0,0,0,0,0,0,0,0,-1,1427,575,0,0
210,449,0,0,0,0,0,0,0,0,0,-1,1434,575,0,0
217,449,0,0,0,0,0,0,0,0,0,-1,1441,575,0,0
224,449,0,0,0,0,0,0,0,0,0,-1,1448,575,0,0
231,449,0,0,0,0,0,0,0,0,0,-1,1455,575,0,0
238,449,0,0,0,0,0,0,0,0,0,-1,1462,575,0,0
245,449,0,0,0,0,0,0,0,0,0,-1,1469,575,0,0
252,449,0,0,0,0,0,0,0,0,0,-1,1476,575,0,0
259,449,0,0,0,0,0,0,0,0,0,-1,1483,575,0,0
266,449,0,0,0,0,0,0,0,0,0,-1,1490,575,0,0
273,449,0,0,0,0,0,0,0,0,0,-1,1497,575,0,0
280,449,0,0,0,0,0,0,0,0,0,-1,1504,575,0,0
287,449,0,0,0,0,0,0,0,0,0,-1,1511,575,0,0
294,449,0,0,0,0,0,0,0,0,0,-1,1518,575,0,0
301,449,0,0,0,0,0,0,0,0,0,-1,1525,575,0,0
308,449,0,0,0,0,0,0,0,0,0,-1,1532,575,0,0
315,449,0,0,0,0,0,0,0,0,0,-1,1539,575,0,0
322,449,0,0,0,0,0,0,0,0,0,-1,1546,575,0,0
329,449,0,0,0,0,0,0,0,0,0,-1,1553,575,0,0
336,449,0,0,0,0,0,0,0,0,0,-1,1560,575,0,0
343,449,0,0,0,0,0,0,0,0,0,-1,1567,575,0,0
350,449,0,0,0,0,0,0,0,0,0,-1,1574,575,0,0
357,449,0,0,0,0,0,0,0,0,0,-1,1581,575,0,0
364,449,0,0,0,0,0,0,0,0,0,-1,1588,575,0,0
371,449,0,0,0,0,0,0,0,0,0,-1,1595,575,0,0
378,449,0,0,0,0,0,0,0,0,0,-1,1602,575,0,0
385,449,0,0,0,0,0,0,0,0,0,-1,1609,575,0,0
392,449,7.95471,3.66217,0,0,0,0,0,0,0,-1,1616,575,7.95471,-3.66218
399,449,19.9791,5.565,0,0,0,0,0,0,0,-1,1623,575,19.9791,-5.56499
406,449,24.9847,4.55969,0,0,0,0,0,0,0,-1,1630,575,24.9848,-4.55968
413,449,30.4159,3.15027,0,0,0,0,0,0,0,-1,1637,575,30.4159,-3.15028
420,449,23.9675,1.29718,0,0,0,0,0,0,0,-1,1644,575,23.9675,-1.29721
427,449,24.4276,-0.596558,0,0,0,0,0,0,0,-1,1651,575,24.4277,0.596569
434,449,25.61,-2.96594,0,0,0,0,0,0,0,-1,1658,575,25.61,2.96595
441,449,3.89856,-6.06458,0,0,0,0,0,0,0,-1,1665,575,3.89855,6.06459
448,449,4.03198,-5.18207,0,0,0,0,0,0,0,-1,1672,575,4.03197,5.18207
455,449,4.21948,-4.09467,0,0,0,0,0,0,0,-1,1679,575,4.21952,4.09465
462,449,4.23181,-2.96924,0,0,0,0,0,0,0,-1,1686,575,4.23185,2.96926
469,449,4.51672,-2.95135,0,0,0,0,0,0,0,-1,1693,575,4.51672,2.95135
476,449,4.71838,-1.86688,0,0,0,0,0,0,0,-1,1700,575,4.71842,1.86689
483,449,4.87878,-1.73126,0,0,0,0,0,0,0,-1,1707,575,4.87875,1.73128
490,449,5.73279,-2.74573,0,0,0,0,0,0,0,-1,1714,575,5.73282,2.74575
497,449,16.155,-14.6093,0,0,0,0,0,0,0,-1,1721,575,16.155,14.6093
504,449,16.1926,-13.9577,0,0,0,0,0,0,0,-1,1728,575,16.1927,13.9577
511,449,16.2219,-13.3666,0.00344243,0.00167425,0.00117176,0.00402621,0.00109047,0.462211,0.00240453,0.0121449,1735,575,16.222,13.3666
518,449,16.2347,-12.824,0.00292727,0.00148322,0.00114317,0.00355734,0.000853155,0.503734,0.00214451,0.0136326,1742,575,16.2348,12.824
525,449,16.2018,-12.2912,0.00228338,0.00136591,0.00106219,0.00298166,0.000667632,0.581556,0.00180682,0.013097,1749,575,16.2018,12.2912
532,449,16.1621,-11.7358,0.00157196,0.00119912,0.000910219,0.00231465,0.000456427,0.684393,0.0014157,0.0102479,1756,575,16.1621,11.7358
539,449,16.1271,-11.1672,0.000906171,0.00100745,0.000793417,0.00175184,0.000161777,0.817266,0.00111788,0.0130517,1763,575,16.1271,11.1672
546,449,16.1362,-10.5981,0.000193376,0.000736729,0.000607549,0.00113058,-0.000200473,0.995646,0.000828666,0.0223905,1770,575,16.1362,10.5981
553,449,16.1053,-10.0469,-0.000582564,0.000463285,0.000401751,0.000599795,-0.000719073,1.24325,0.000762486,0.016662,1777,575,16.1053,10.0469
560,449,16.1162,-9.48859,-0.00141458,0.000126762,0.000185154,0.000148692,-0.00143651,1.45291,0.00101089,0.0141412,1784,575,16.1162,9.4886
567,449,16.0825,-8.89307,-0.00221832,-0.0002328,-2.18188e-05,-0.000232561,-0.00221856,-1.55981,0.00140794,0.0102598,1791,575,16.0826,8.89304
574,449,16.0885,-8.28949,-0.00315553,-0.000706627,-0.000310914,-0.00066777,-0.00319439,-1.44646,0.00194559,0.0231607,1798,575,16.0885,8.28948
581,449,16.1476,-7.52435,0,0,0,0,0,0,0,-1,1805,575,16.1476,7.52434
588,449,12.3274,-4.5672,0,0,0,0,0,0,0,-1,1812,575,12.3274,4.5672
595,449,11.2511,-2.25397,0,0,0,0,0,0,0,-1,1819,575,11.2511,2.25397
602,449,9.46167,4.17444,0,0,0,0,0,0,0,-1,1826,575,9.46164,-4.17442
609,449,12.2028,3.18652,0,0,0,0,0,0,0,-1,1833,575,12.2027,-3.18655
616,449,14.9438,2.19867,0,0,0,0,0,0,0,-1,1840,575,14.9438,-2.19867
623,449,9.83789,-0.0820313,0,0,0,0,0,0,0,-1,1847,575,9.83794,0.0820443
630,449,8.90686,4.99329,0,0,0,0,0,0,0,-1,1854,575,8.90685,-4.99327
637,449,0,0,0,0,0,0,0,0,0,-1,1861,575,0,0
644,449,0,0,0,0,0,0,0,0,0,-1,1868,575,0,0
651,449,0,0,0,0,0,0,0,0,0,-1,1875,575,0,0
658,449,0,0,0,0,0,0,0,0,0,-1,1882,575,0,0
665,449,0,0,0,0,0,0,0,0,0,-1,1889,575,0,0
672,449,0,0,0,0,0,0,0,0,0,-1,1896,575,0,0
679,449,0,0,0,0,0,0,0,0,0,-1,1903,575,0,0
686,449,0,0,0,0,0,0,0,0,0,-1,1910,575,0,0
693,449,0,0,0,0,0,0,0,0,0,-1,1917,575,0,0
700,449,0,0,0,0,0,0,0,0,0,-1,1924,575,0,0
707,449,0,0,0,0,0,0,0,0,0,-1,1931,575,0,0
714,449,0,0,0,0,0,0,0,0,0,-1,1938,575,0,0
721,449,0,0,0,0,0,0,0,0,0,-1,1945,575,0,0
728,449,0,0,0,0,0,0,0,0,0,-1,1952,575,0,0
735,449,0,0,0,0,0,0,0,0,0,-1,1959,575,0,0
742,449,0,0,0,0,0,0,0,0,0,-1,1966,575,0,0
749,449,0,0,0,0,0,0,0,0,0,-1,1973,575,0,0
756,449,0,0,0,0,0,0,0,0,0,-1,1980,575,0,0
763,449,0,0,0,0,0,0,0,0,0,-1,1987,575,0,0
770,449,0,0,0,0,0,0,0,0,0,-1,1994,575,0,0
777,449,0,0,0,0,0,0,0,0,0,-1,2001,575,0,0
784,449,0,0,0,0,0,0,0,0,0,-1,2008,575,0,0
791,449,0,0,0,0,0,0,0,0,0,-1,2015,575,0,0
798,449,0,0,0,0,0,0,0,0,0,-1,2022,575,0,0
805,449,0,0,0,0,0,0,0,0,0,-1,2029,575,0,0
812,449,0,0,0,0,0,0,0,0,0,-1,2036,575,0,0
-700,442,0,0,0,0,0,0,0,0,0,-1,524,582,0,0
-693,442,0,0,0,0,0,0,0,0,0,-1,531,582,0,0
-686,442,0,0,0,0,0,0,0,0,0,-1,538,582,0,0
-679,442,0,0,0,0,0,0,0,0,0,-1,545,582,0,0
-672,442,0,0,0,0,0,0,0,0,0,-1,552,582,0,0
-665,442,0,0,0,0,0,0,0,0,0,-1,559,582,0,0
-658,442,0,0,0,0,0,0,0,0,0,-1,566,582,0,0
-651,442,0,0,0,0,0,0,0,0,0,-1,573,582,0,0
-644,442,0,0,0,0,0,0,0,0,0,-1,580,582,0,0
-637,442,0,0,0,0,0,0,0,0,0,-1,587,582,0,0
-630,442,0,0,0,0,0,0,0,0,0,-1,594,582,0,0
-623,442,0,0,0,0,0,0,0,0,0,-1,601,582,0,0
-616,442,0,0,0,0,0,0,0,0,0,-1,608,582,0,0
-609,442,0,0,0,0,0,0,0,0,0,-1,615,582,0,0
-602,442,0,0,0,0,0,0,0,0,0,-1,622,582,0,0
-595,442,0,0,0,0,0,0,0,0,0,-1,629,582,0,0
-588,442,0,0,0,0,0,0,0,0,0,-1,636,582,0,0
-581,442,0,0,0,0,0,0,0,0,0,-1,643,582,0,0
-574,442,0,0,0,0,0,0,0,0,0,-1,650,582,0,0
-567,442,0,0,0,0,0,0,0,0,0,-1,657,582,0,0
-560,442,0,0,0,0,0,0,0,0,0,-1,664,582,0,0
-553,442,0,0,0,0,0,0,0,0,0,-1,671,582,0,0
-546,442,0,0,0,0,0,0,0,0,0,-1,678,582,0,0
-539,442,0,0,0,0,0,0,0,0,0,-1,685,582,0,0
-532,442,0,0,0,0,0,0,0,0,0,-1,692,582,0,0
-525,442,0,0,0,0,0,0,0,0,0,-1,699,582,0,0
-518,442,-0.493774,-5.72943,0,0,0,0,0,0,0,-1,706,582,-0.493791,5.72946
-511,442,-1.33008,-6.18512,0,0,0,0,0,0,0,-1,713,582,-1.33006,6.18511
-504,442,-3.20807,-6.34082,0,0,0,0,0,0,0,-1,720,582,-3.2081,6.34083
-497,442,-13.6886,-0.250122,0,0,0,0,0,0,0,-1,727,582,-13.6886,0.250143
-490,442,-9.09039,-3.64862,0,0,0,0,0,0,0,-1,734,582,-9.09037,3.64861
-483,442,-7.36499,-1.01892,0,0,0,0,0,0,0,-1,741,582,-7.365,1.01895
-476,442,-4.62225,-3.47467,0,0,0,0,0,0,0,-1,748,582,-4.62225,3.47465
-469,442,-6.23322,-7.72668,0,0,0,0,0,0,0,-1,755,582,-6.23319,7.72667
-462,442,-6.50562,-8.69092,-0.0015069,0.00817881,-0.00594609,0.0110047,-0.00433277,-1.12715,0.00913008,0.0488662,762,582,-6.50564,8.69093
-455,442,-6.72473,-9.30115,-0.000906271,0.00696052,-0.00490926,0.00931779,-0.00326354,-1.12314,0.00753896,0.0449041,769,582,-6.72471,9.30118
-448,442,-6.59375,-9.89758,-0.000716866,0.00565394,-0.003671,0.00732889,-0.00239182,-1.14274,0.00584856,0.0171659,776,582,-6.59378,9.8976
-441,442,-6.63654,-10.4636,-0.000546952,0.00447239,-0.00261924,0.00559024,-0.0016648,-1.16742,0.00438832,0.0130785,783,582,-6.63654,10.4636
-434,442,-6.65625,-10.9893,-0.00046406,0.00348141,-0.00170844,0.00411836,-0.00110101,-1.21393,0.00317682,0.0136029,790,582,-6.65624,10.9893
-427,442,-6.67877,-11.525,-0.000398979,0.00250465,-0.000923271,0.00277335,-0.000667686,-1.28758,0.00210703,0.0138527,797,582,-6.67878,11.5249
-420,442,-6.67163,-12.0706,-0.000272044,0.0016653,-0.000322126,0.00171745,-0.0003242,-1.41028,0.00126694,0.0141019,804,582,-6.67161,12.0706
-413,442,-6.66992,-12.6006,-0.000266942,0.000729136,0.000366017,0.000849168,-0.000386974,1.25391,0.000730127,0.0108081,811,582,-6.66992,12.6006
-406,442,-6.68414,-13.1393,-0.000168845,2.35657e-05,0.000866963,0.000799645,-0.000944925,0.840656,0.00100839,0.00873479,818,582,-6.68412,13.1394
-399,442,-6.70569,-13.67,2.12919e-05,-0.000569794,0.00120673,0.000968139,-0.00151664,0.665306,0.00144619,0.00775322,825,582,-6.70567,13.67
-392,442,-6.72119,-14.1788,0.000361465,-0.00110197,0.00142749,0.00123385,-0.00197435,0.548564,0.00186863,0.0102206,832,582,-6.72118,14.1788
-385,442,-6.73376,-14.6934,0.000884735,-0.0014629,0.00152814,0.00163785,-0.00221601,0.457895,0.00223336,0.0130637,839,582,-6.73378,14.6934
-378,442,-6.74048,-15.2302,0.00146569,-0.00185531,0.00167297,0.00216233,-0.00255195,0.39457,0.00272489,0.0159139,846,582,-6.74048,15.2302
-371,442,-6.69073,-15.8112,0.00236392,-0.00191941,0.00167904,0.00294363,-0.00249912,0.332451,0.00314587,0.0487819,853,582,-6.69075,15.8112
-364,442,-6.51923,-16.3763,0,0,0,0,0,0,0,-1,860,582,-6.5192,16.3763
-357,442,-4.9115,-11.2649,0,0,0,0,0,0,0,-1,867,582,-4.91147,11.2649
-350,442,-1.75372,-6.27618,0,0,0,0,0,0,0,-1,874,582,-1.75371,6.27618
-343,442,-1.4599,-4.63605,0,0,0,0,0,0,0,-1,881,582,-1.4599,4.63607
-336,442,-1.4054,-2.64313,0,0,0,0,0,0,0,-1,888,582,-1.40539,2.64315
-329,442,-0.952576,-2.76923,0,0,0,0,0,0,0,-1,895,582,-0.952571,2.7692
-322,442,-0.972534,-2.63208,0,0,0,0,0,0,0,-1,902,582,-0.972512,2.6321
-315,442,-0.445557,-2.89764,0,0,0,0,0,0,0,-1,909,582,-0.445582,2.89765
-308,442,-0.654175,-3.07831,0,0,0,0,0,0,0,-1,916,582,-0.654145,3.07832
-301,442,-1.37427,-2.41455,0,0,0,0,0,0,0,-1,923,582,-1.37425,2.41453
-294,442,-2.99963,-2.07855,0,0,0,0,0,0,0,-1,930,582,-2.99964,2.07857
-287,442,-5.62799,-2.76422,0,0,0,0,0,0,0,-1,937,582,-5.628,2.76424
-280,442,0,0,0,0,0,0,0,0,0,-1,944,582,0,0
-273,442,0,0,0,0,0,0,0,0,0,-1,951,582,0,0
-266,442,0,0,0,0,0,0,0,0,0,-1,958,582,0,0
-259,442,0,0,0,0,0,0,0,0,0,-1,965,582,0,0
-252,442,0,0,0,0,0,0,0,0,0,-1,972,582,0,0
-245,442,0,0,0,0,0,0,0,0,0,-1,979,582,0,0
-238,442,0,0,0,0,0,0,0,0,0,-1,986,582,0,0
-231,442,0,0,0,0,0,0,0,0,0,-1,993,582,0,0
-224,442,0,0,0,0,0,0,0,0,0,-1,1000,582,0,0
-217,442,0,0,0,0,0,0,0,0,0,-1,1007,582,0,0
-210,442,0,0,0,0,0,0,0,0,0,-1,1014,582,0,0
-203,442,0,0,0,0,0,0,0,0,0,-1,1021,582,0,0
-196,442,0,0,0,0,0,0,0,0,0,-1,1028,582,0,0
-189,442,0,0,0,0,0,0,0,0,0,-1,1035,582,0,0
-182,442,0,0,0,0,0,0,0,0,0,-1,1042,582,0,0
-175,442,0,0,0,0,0,0,0,0,0,-1,1049,582,0,0
-168,442,0,0,0,0,0,0,0,0,0,-1,1056,582,0,0
-161,442,0,0,0,0,0,0,0,0,0,-1,1063,582,0,0
-154,442,0,0,0,0,0,0,0,0,0,-1,1070,582,0,0
-147,442,0,0,0,0,0,0,0,0,0,-1,1077,582,0,0
-140,442,0,0,0,0,0,0,0,0,0,-1,1084,582,0,0
-133,442,0,0,0,0,0,0,0,0,0,-1,1091,582,0,0
-126,442,0,0,0,0,0,0,0,0,0,-1,1098,582,0,0
-119,442,0,0,0,0,0,0,0,0,0,-1,1105,582,0,0
-112,442,0,0,0,0,0,0,0,0,0,-1,1112,582,0,0
-105,442,0,0,0,0,0,0,0,0,0,-1,1119,582,0,0
-98,442,0,0,0,0,0,0,0,0,0,-1,1126,582,0,0
-91,442,0,0,0,0,0,0,0,0,0,-1,1133,582,0,0
-84,442,0,0,0,0,0,0,0,0,0,-1,1140,582,0,0
-77,442,0,0,0,0,0,0,0,0,0,-1,1147,582,0,0
-70,442,0,0,0,0,0,0,0,0,0,-1,1154,582,0,0
-63,442,0,0,0,0,0,0,0,0,0,-1,1161,582,0,0
-56,442,0,0,0,0,0,0,0,0,0,-1,1168,582,0,0
-49,442,0,0,0,0,0,0,0,0,0,-1,1175,582,0,0
-42,442,0,0,0,0,0,0,0,0,0,-1,1182,582,0,0
-35,442,0,0,0,0,0,0,0,0,0,-1,1189,582,0,0
-28,442,0,0,0,0,0,0,0,0,0,-1,1196,582,0,0
-21,442,0,0,0,0,0,0,0,0,0,-1,1203,582,0,0
-14,442,0,0,0,0,0,0,0,0,0,-1,1210,582,0,0
-7,442,0,0,0,0,0,0,0,0,0,-1,1217,582,0,0
0,442,0,0,0,0,0,0,0,0,0,-1,1224,582,0,0
7,442,0,0,0,0,0,0,0,0,0,-1,1231,582,0,0
14,442,0,0,0,0,0,0,0,0,0,-1,1238,582,0,0
21,442,0,0,0,0,0,0,0,0,0,-1,1245,582,0,0
28,442,0,0,0,0,0,0,0,0,0,-1,1252,582,0,0
35,442,0,0,0,0,0,0,0,0,0,-1,1259,582,0,0
42,442,0,0,0,0,0,0,0,0,0,-1,1266,582,0,0
49,442,0,0,0,0,0,0,0,0,0,-1,1273,582,0,0
56,442,0,0,0,0,0,0,0,0,0,-1,1280,582,0,0
63,442,0,0,0,0,0,0,0,0,0,-1,1287,582,0,0
70,442,0,0,0,0,0,0,0,0,0,-1,1294,582,0,0
77,442,0,0,0,0,0,0,0,0,0,-1,1301,582,0,0
84,442,0,0,0,0,0,0,0,0,0,-1,1308,582,0,0
91,442,0,0,0,0,0,0,0,0,0,-1,1315,582,0,0
98,442,0,0,0,0,0,0,0,0,0,-1,1322,582,0,0
105,442,0,0,0,0,0,0,0,0,0,-1,1329,582,0,0
112,442,0,0,0,0,0,0,0,0,0,-1,1336,582,0,0
119,442,0,0,0,0,0,0,0,0,0,-1,1343,582,0,0
126,442,0,0,0,0,0,0,0,0,0,-1,1350,582,0,0
133,442,0,0,0,0,0,0,0,0,0,-1,1357,582,0,0
140,442,0,0,0,0,0,0,0,0,0,-1,1364,582,0,0
147,442,0,0,0,0,0,0,0,0,0,-1,1371,582,0,0
154,442,0,0,0,0,0,0,0,0,0,-1,1378,582,0,0
161,442,0,0,0,0,0,0,0,0,0,-1,1385,582,0,0
168,442,0,0,0,0,0,0,0,0,0,-1,1392,582,0,0
175,442,0,0,0,0,0,0,0,0,0,-1,1399,582,0,0
182,442,0,0,0,0,0,0,0,0,0,-1,1406,582,0,0
189,442,0,0,0,0,0,0,0,0,0,-1,1413,582,0,0
196,442,0,0,0,0,0,0,0,0,0,-1,1420,582,0,0
203,442,0,0,0,0,0,0,0,0,0,-1,1427,582,0,0
210,442,0,0,0,0,0,0,0,0,0,-1,1434,582,0,0
217,442,0,0,0,0,0,0,0,0,0,-1,1441,582,0,0
224,442,0,0,0,0,0,0,0,0,0,-1,1448,582,0,0
231,442,0,0,0,0,0,0,0,0,0,-1,1455,582,0,0
238,442,0,0,0,0,0,0,0,0,0,-1,1462,582,0,0
245,442,0,0,0,0,0,0,0,0,0,-1,1469,582,0,0
252,442,0,0,0,0,0,0,0,0,0,-1,1476,582,0,0
259,442,0,0,0,0,0,0,0,0,0,-1,1483,582,0,0
266,442,0,0,0,0,0,0,0,0,0,-1,1490,582,0,0
273,442,0,0,0,0,0,0,0,0,0,-1,1497,582,0,0
280,442,0,0,0,0,0,0,0,0,0,-1,1504,582,0,0
287,442,0,0,0,0,0,0,0,0,0,-1,1511,582,0,0
294,442,0,0,0,0,0,0,0,0,0,-1,1518,582,0,0
301,442,0,0,0,0,0,0,0,0,0,-1,1525,582,0,0
308,442,0,0,0,0,0,0,0,0,0,-1,1532,582,0,0
315,442,0,0,0,0,0,0,0,0,0,-1,1539,582,0,0
322,442,0,0,0,0,0,0,0,0,0,-1,1546,582,0,0
329,442,0,0,0,0,0,0,0,0,0,-1,1553,582,0,0
336,442,0,0,0,0,0,0,0,0,0,-1,1560,582,0,0
343,442,0,0,0,0,0,0,0,0,0,-1,1567,582,0,0
350,442,0,0,0,0,0,0,0,0,0,-1,1574,582,0,0
357,442,0,0,0,0,0,0,0,0,0,-1,1581,582,0,0
364,442,0,0,0,0,0,0,0,0,0,-1,1588,582,0,0
371,442,0,0,0,0,0,0,0,0,0,-1,1595,582,0,0
378,442,0,0,0,0,0,0,0,0,0,-1,1602,582,0,0
385,442,0,0,0,0,0,0,0,0,0,-1,1609,582,0,0
392,442,0,0,0,0,0,0,0,0,0,-1,1616,582,0,0
399,442,0,0,0,0,0,0,0,0,0,-1,1623,582,0,0
406,442,17.6321,4.08295,0,0,0,0,0,0,0,-1,1630,582,17.6321,-4.08293
413,442,25.4768,2.74445,0,0,0,0,0,0,0,-1,1637,582,25.4768,-2.74444
420,442,22.7478,1.55011,0,0,0,0,0,0,0,-1,1644,582,22.7478,-1.55009
427,442,23.2969,-0.456787,0,0,0,0,0,0,0,-1,1651,582,23.2968,0.456769
434,442,23.9512,-2.49365,0,0,0,0,0,0,0,-1,1658,582,23.9512,2.49366
441,442,24.8251,-4.43958,0,0,0,0,0,0,0,-1,1665,582,24.8251,4.43956
448,442,4.7749,-5.88562,0,0,0,0,0,0,0,-1,1672,582,4.7749,5.8856
455,442,4.87024,-4.60687,0,0,0,0,0,0,0,-1,1679,582,4.87019,4.60686
462,442,5.02307,-3.72821,0,0,0,0,0,0,0,-1,1686,582,5.02311,3.7282
469,442,5.12976,-2.98834,0,0,0,0,0,0,0,-1,1693,582,5.12971,2.98834
476,442,5.4624,1.76947,0,0,0,0,0,0,0,-1,1700,582,5.46234,-1.76944
483,442,5.98486,1.87042,0,0,0,0,0,0,0,-1,1707,582,5.98492,-1.87045
490,442,5.04407,-2.35834,0,0,0,0,0,0,0,-1,1714,582,5.04411,2.35837
497,442,6.20984,-3.07831,0,0,0,0,0,0,0,-1,1721,582,6.2098,3.07833
504,442,16.6519,-13.9988,0,0,0,0,0,0,0,-1,1728,582,16.6519,13.9988
511,442,16.722,-13.3666,0.00411097,0.00220479,0.00142235,0.00487003,0.00144573,0.490216,0.00288803,0.0339513,1735,582,16.722,13.3666
518,442,16.7816,-12.7902,0.00370592,0.00187196,0.00141106,0.00447178,0.0011061,0.497262,0.00268941,0.0120177,1742,582,16.7816,12.7901
525,442,16.7509,-12.2676,0.00307414,0.00172732,0.00133694,0.00389769,0.000903768,0.552099,0.00235572,0.0105929,1749,582,16.7509,12.2676
532,442,16.7338,-11.7089,0.00237498,0.00146976,0.00116598,0.00317312,0.000671622,0.600262,0.00193087,0.010458,1756,582,16.7337,11.7089
539,442,16.7061,-11.1251,0.00175559,0.00123493,0.0010435,0.00257074,0.000419781,0.663154,0.00159245,0.0117107,1763,582,16.706,11.125
546,442,16.703,-10.5958,0.00111255,0.000938401,0.000860146,0.00189002,0.000160935,0.734953,0.00120994,0.0151842,1770,582,16.703,10.5958
553,442,16.6681,-10.0334,0.000381052,0.000634286,0.00064952,0.00116941,-0.000154077,0.881661,0.000835717,0.0161826,1777,582,16.6681,10.0334
560,442,16.667,-9.46118,-0.000408537,0.000297722,0.000428398,0.000499774,-0.000610588,1.13009,0.000642131,0.0146713,1784,582,16.667,9.46119
567,442,16.6321,-8.87866,-0.00114889,-1.73671e-05,0.000225754,2.60108e-05,-0.00119227,1.38096,0.000803659,0.0105688,1791,582,16.632,8.87865
574,442,16.6293,-8.3114,-0.00194561,-0.000396403,-6.76875e-06,-0.000396373,-0.00194564,-1.56643,0.00118723,0.0130148,1798,582,16.6292,8.3114
581,442,16.682,-7.66449,-0.0028062,-0.000827383,-0.000247117,-0.000796989,-0.00283659,-1.44842,0.00168927,0.0265661,1805,582,16.682,7.66449
588,442,16.7878,-6.99103,0,0,0,0,0,0,0,-1,1812,582,16.7879,6.991
595,442,16.5078,-6.71558,0,0,0,0,0,0,0,-1,1819,582,16.5078,6.71557
602,442,11.4385,-1.74512,0,0,0,0,0,0,0,-1,1826,582,11.4385,1.74509
609,442,12.761,2.97223,0,0,0,0,0,0,0,-1,1833,582,12.761,-2.97221
616,442,9.78345,-0.103394,0,0,0,0,0,0,0,-1,1840,582,9.78341,0.103424
623,442,9.23828,0.326721,0,0,0,0,0,0,0,-1,1847,582,9.23829,-0.326727
630,442,7.74304,2.3924,0,0,0,0,0,0,0,-1,1854,582,7.7431,-2.39238
637,442,5.87805,1.84027,0,0,0,0,0,0,0,-1,1861,582,5.87807,-1.84025
644,442,0,0,0,0,0,0,0,0,0,-1,1868,582,0,0
651,442,0,0,0,0,0,0,0,0,0,-1,1875,582,0,0
658,442,0,0,0,0,0,0,0,0,0,-1,1882,582,0,0
665,442,0,0,0,0,0,0,0,0,0,-1,1889,582,0,0
672,442,0,0,0,0,0,0,0,0,0,-1,1896,582,0,0
679,442,0,0,0,0,0,0,0,0,0,-1,1903,582,0,0
686,442,0,0,0,0,0,0,0,0,0,-1,1910,582,0,0
693,442,0,0,0,0,0,0,0,0,0,-1,1917,582,0,0
700,442,0,0,0,0,0,0,0,0,0,-1,1924,582,0,0
707,442,0,0,0,0,0,0,0,0,0,-1,1931,582,0,0
714,442,0,0,0,0,0,0,0,0,0,-1,1938,582,0,0
721,442,0,0,0,0,0,0,0,0,0,-1,1945,582,0,0
728,442,0,0,0,0,0,0,0,0,0,-1,1952,582,0,0
735,442,0,0,0,0,0,0,0,0,0,-1,1959,582,0,0
742,442,0,0,0,0,0,0,0,0,0,-1,1966,582,0,0
749,442,0,0,0,0,0,0,0,0,0,-1,1973,582,0,0
756,442,0,0,0,0,0,0,0,0,0,-1,1980,582,0,0
763,442,0,0,0,0,0,0,0,0,0,-1,1987,582,0,0
770,442,0,0,0,0,0,0,0,0,0,-1,1994,582,0,0
777,442,0,0,0,0,0,0,0,0,0,-1,2001,582,0,0
784,442,0,0,0,0,0,0,0,0,0,-1,2008,582,0,0
791,442,0,0,0,0,0,0,0,0,0,-1,2015,582,0,0
798,442,0,0,0,0,0,0,0,0,0,-1,2022,582,0,0
805,442,0,0,0,0,0,0,0,0,0,-1,2029,582,0,0
812,442,0,0,0,0,0,0,0,0,0,-1,2036,582,0,0
-700,435,0,0,0,0,0,0,0,0,0,-1,524,589,0,0
-693,435,0,0,0,0,0,0,0,0,0,-1,531,589,0,0
-686,435,0,0,0,0,0,0,0,0,0,-1,538,589,0,0
-679,435,0,0,0,0,0,0,0,0,0,-1,545,589,0,0
-672,435,0,0,0,0,0,0,0,0,0,-1,552,589,0,0
-665,435,0,0,0,0,0,0,0,0,0,-1,559,589,0,0
-658,435,0,0,0,0,0,0,0,0,0,-1,566,589,0,0
-651,435,0,0,0,0,0,0,0,0,0,-1,573,589,0,0
-644,435,0,0,0,0,0,0,0,0,0,-1,580,589,0,0
-637,435,0,0,0,0,0,0,0,0,0,-1,587,589,0,0
-630,435,0,0,0,0,0,0,0,0,0,-1,594,589,0,0
-623,435,0,0,0,0,0,0,0,0,0,-1,601,589,0,0
-616,435,0,0,0,0,0,0,0,0,0,-1,608,589,0,0
-609,435,0,0,0,0,0,0,0,0,0,-1,615,589,0,0
-602,435,0,0,0,0,0,0,0,0,0,-1,622,589,0,0
-595,435,0,0,0,0,0,0,0,0,0,-1,629,589,0,0
-588,435,0,0,0,0,0,0,0,0,0,-1,636,589,0,0
-581,435,0,0,0,0,0,0,0,0,0,-1,643,589,0,0
-574,435,0,0,0,0,0,0,0,0,0,-1,650,589,0,0
-567,435,0,0,0,0,0,0,0,0,0,-1,657,589,0,0
-560,435,0,0,0,0,0,0,0,0,0,-1,664,589,0,0
-553,435,0,0,0,0,0,0,0,0,0,-1,671,589,0,0
-546,435,0,0,0,0,0,0,0,0,0,-1,678,589,0,0
-539,435,0,0,0,0,0,0,0,0,0,-1,685,589,0,0
-532,435,0,0,0,0,0,0,0,0,0,-1,692,589,0,0
-525,435,-10.0776,10.0547,0,0,0,0,0,0,0,-1,699,589,-10.0776,-10.0547
-518,435,-1.83093,-5.82367,0,0,0,0,0,0,0,-1,706,589,-1.83093,5.8237
-511,435,-2.45154,-5.33118,0,0,0,0,0,0,0,-1,713,589,-2.45151,5.33115
-504,435,-3.07208,-4.83862,0,0,0,0,0,0,0,-1,720,589,-3.0721,4.8386
-497,435,-6.31012,-5.84698,0,0,0,0,0,0,0,-1,727,589,-6.31012,5.84697
-490,435,-5.81903,-0.458679,0,0,0,0,0,0,0,-1,734,589,-5.81902,0.458684
-483,435,-6.96503,-3.01624,0,0,0,0,0,0,0,-1,741,589,-6.96505,3.01623
-476,435,-7.48621,-7.07135,0,0,0,0,0,0,0,-1,748,589,-7.48622,7.07138
-469,435,-7.19928,-7.81995,-0.00128706,0.00799555,-0.0062411,0.011132,-0.00442349,-1.10512,0.00925515,0.0387715,755,589,-7.19927,7.81994
-462,435,-7.02179,-8.72571,-0.00083404,0.00662083,-0.0050271,0.00915162,-0.00336484,-1.10441,0.0074794,0.0240446,762,589,-7.02179,8.7257
-455,435,-7.15997,-9.25977,-0.000377317,0.00549332,-0.00412666,0.00762213,-0.00250613,-1.09454,0.00609114,0.022106,769,589,-7.15999,9.25978
-448,435,-7.14478,-9.88513,-0.000253001,0.00426386,-0.00302064,0.005777,-0.00176615,-1.1064,0.00455564,0.0122,776,589,-7.14475,9.88515
-441,435,-7.16931,-10.4406,-0.000202154,0.00318848,-0.0020316,0.0041392,-0.00115287,-1.1331,0.00321345,0.011068,783,589,-7.16929,10.4406
-434,435,-7.18634,-10.952,-0.000245278,0.00232261,-0.00115323,0.00276449,-0.000687153,-1.20489,0.00210968,0.0122222,790,589,-7.18632,10.952
-427,435,-7.19611,-11.5073,-0.000313487,0.00143002,-0.000359157,0.00150111,-0.000384574,-1.3754,0.00115056,0.0104169,797,589,-7.19612,11.5073
-420,435,-7.20294,-12.0414,-0.000329132,0.000677522,0.000280334,0.000750325,-0.000401935,1.31671,0.000675317,0.0109101,804,589,-7.20295,12.0414
-413,435,-7.20648,-12.5771,-0.000470373,-0.000155799,0.00101597,0.000714991,-0.00134116,0.862195,0.00120533,0.0110818,811,589,-7.20648,12.5771
-406,435,-7.21106,-13.1163,-0.000578649,-0.000804979,0.00160217,0.000914345,-0.00229797,0.75014,0.00191112,0.0121834,818,589,-7.21104,13.1163
-399,435,-7.24207,-13.6476,-0.000573688,-0.00135385,0.00202135,0.00109488,-0.00302242,0.690079,0.00246242,0.010141,825,589,-7.24207,13.6476
-392,435,-7.26135,-14.1583,-0.000380677,-0.00180391,0.00231746,0.00133196,-0.00351655,0.636434,0.00289245,0.0103496,832,589,-7.26133,14.1583
-385,435,-7.27148,-14.6888,-4.78202e-05,-0.00208813,0.00250696,0.0016386,-0.00377455,0.592165,0.00320536,0.0203431,839,589,-7.2715,14.6888
-378,435,-7.31024,-15.1365,0.000319185,-0.00246104,0.00279449,0.00205023,-0.00419208,0.554597,0.00367404,0.0421172,846,589,-7.31022,15.1365
-371,435,-7.18469,-15.8257,0,0,0,0,0,0,0,-1,853,589,-7.18471,15.8258
-364,435,-5.62848,-11.5937,0,0,0,0,0,0,0,-1,860,589,-5.62847,11.5937
-357,435,-5.57343,-10.9666,0,0,0,0,0,0,0,-1,867,589,-5.57342,10.9666
-350,435,-0.86676,-3.69836,0,0,0,0,0,0,0,-1,874,589,-0.866784,3.69834
-343,435,-1.60706,-2.36835,0,0,0,0,0,0,0,-1,881,589,-1.60706,2.36838
-336,435,-2.07263,-1.94012,0,0,0,0,0,0,0,-1,888,589,-2.07265,1.94014
-329,435,-2.55963,-1.5517,0,0,0,0,0,0,0,-1,895,589,-2.5596,1.55168
-322,435,-3.08545,-1.55255,0,0,0,0,0,0,0,-1,902,589,-3.08544,1.55254
-315,435,-0.404297,-2.63763,0,0,0,0,0,0,0,-1,909,589,-0.404276,2.63761
-308,435,-1.70056,-1.90369,0,0,0,0,0,0,0,-1,916,589,-1.70056,1.90367
-301,435,-1.25232,-2.05511,0,0,0,0,0,0,0,-1,923,589,-1.25234,2.05514
-294,435,-1.79974,-1.97321,0,0,0,0,0,0,0,-1,930,589,-1.79973,1.97322
-287,435,0,0,0,0,0,0,0,0,0,-1,937,589,0,0
-280,435,0,0,0,0,0,0,0,0,0,-1,944,589,0,0
-273,435,0,0,0,0,0,0,0,0,0,-1,951,589,0,0
-266,435,0,0,0,0,0,0,0,0,0,-1,958,589,0,0
-259,435,0,0,0,0,0,0,0,0,0,-1,965,589,0,0
-252,435,0,0,0,0,0,0,0,0,0,-1,972,589,0,0
-245,435,0,0,0,0,0,0,0,0,0,-1,979,589,0,0
-238,435,0,0,0,0,0,0,0,0,0,-1,986,589,0,0
-231,435,0,0,0,0,0,0,0,0,0,-1,993,589,0,0
-224,435,0,0,0,0,0,0,0,0,0,-1,1000,589,0,0
-217,435,0,0,0,0,0,0,0,0,0,-1,1007,589,0,0
-210,435,0,0,0,0,0,0,0,0,0,-1,1014,589,0,0
-203,435,0,0,0,0,0,0,0,0,0,-1,1021,589,0,0
-196,435,0,0,0,0,0,0,0,0,0,-1,1028,589,0,0
-189,435,0,0,0,0,0,0,0,0,0,-1,1035,589,0,0
-182,435,0,0,0,0,0,0,0,0,0,-1,1042,589,0,0
-175,435,0,0,0,0,0,0,0,0,0,-1,1049,589,0,0
-168,435,0,0,0,0,0,0,0,0,0,-1,1056,589,0,0
-161,435,0,0,0,0,0,0,0,0,0,-1,1063,589,0,0
-154,435,0,0,0,0,0,0,0,0,0,-1,1070,589,0,0
-147,435,0,0,0,0,0,0,0,0,0,-1,1077,589,0,0
-140,435,0,0,0,0,0,0,0,0,0,-1,1084,589,0,0
-133,435,0,0,0,0,0,0,0,0,0,-1,1091,589,0,0
-126,435,0,0,0,0,0,0,0,0,0,-1,1098,589,0,0
-119,435,0,0,0,0,0,0,0,0,0,-1,1105,589,0,0
-112,435,0,0,0,0,0,0,0,0,0,-1,1112,589,0,0
-105,435,0,0,0,0,0,0,0,0,0,-1,1119,589,0,0
-98,435,0,0,0,0,0,0,0,0,0,-1,1126,589,0,0
-91,435,0,0,0,0,0,0,0,0,0,-1,1133,589,0,0
-84,435,0,0,0,0,0,0,0,0,0,-1,1140,589,0,0
-77,435,0,0,0,0,0,0,0,0,0,-1,1147,589,0,0
-70,435,0,0,0,0,0,0,0,0,0,-1,1154,589,0,0
-63,435,0,0,0,0,0,0,0,0,0,-1,1161,589,0,0
-56,435,0,0,0,0,0,0,0,0,0,-1,1168,589,0,0
-49,435,0,0,0,0,0,0,0,0,0,-1,1175,589,0,0
-42,435,0,0,0,0,0,0,0,0,0,-1,1182,589,0,0
-35,435,0,0,0,0,0,0,0,0,0,-1,1189,589,0,0
-28,435,0,0,0,0,0,0,0,0,0,-1,1196,589,0,0
-21,435,0,0,0,0,0,0,0,0,0,-1,1203,589,0,0
-14,435,0,0,0,0,0,0,0,0,0,-1,1210,589,0,0
-7,435,0,0,0,0,0,0,0,0,0,-1,1217,589,0,0
0,435,0,0,0,0,0,0,0,0,0,-1,1224,589,0,0
7,435,0,0,0,0,0,0,0,0,0,-1,1231,589,0,0
14,435,0,0,0,0,0,0,0,0,0,-1,1238,589,0,0
21,435,0,0,0,0,0,0,0,0,0,-1,1245,589,0,0
28,435,0,0,0,0,0,0,0,0,0,-1,1252,589,0,0
35,435,0,0,0,0,0,0,0,0,0,-1,1259,589,0,0
42,435,0,0,0,0,0,0,0,0,0,-1,1266,589,0,0
49,435,0,0,0,0,0,0,0,0,0,-1,1273,589,0,0
56,435,0,0,0,0,0,0,0,0,0,-1,1280,589,0,0
63,435,0,0,0,0,0,0,0,0,0,-1,1287,589,0,0
70,435,0,0,0,0,0,0,0,0,0,-1,1294,589,0,0
77,435,0,0,0,0,0,0,0,0,0,-1,1301,589,0,0
84,435,0,0,0,0,0,0,0,0,0,-1,1308,589,0,0
91,435,0,0,0,0,0,0,0,0,0,-1,1315,589,0,0
98,435,0,0,0,0,0,0,0,0,0,-1,1322,589,0,0
105,435,0,0,0,0,0,0,0,0,0,-1,1329,589,0,0
112,435,0,0,0,0,0,0,0,0,0,-1,1336,589,0,0
119,435,0,0,0,0,0,0,0,0,0,-1,1343,589,0,0
126,435,0,0,0,0,0,0,0,0,0,-1,1350,589,0,0
133,435,0,0,0,0,0,0,0,0,0,-1,1357,589,0,0
140,435,0,0,0,0,0,0,0,0,0,-1,1364,589,0,0
147,435,0,0,0,0,0,0,0,0,0,-1,1371,589,0,0
154,435,0,0,0,0,0,0,0,0,0,-1,1378,589,0,0
161,435,0,0,0,0,0,0,0,0,0,-1,1385,589,0,0
168,435,0,0,0,0,0,0,0,0,0,-1,1392,589,0,0
175,435,0,0,0,0,0,0,0,0,0,-1,1399,589,0,0
182,435,0,0,0,0,0,0,0,0,0,-1,1406,589,0,0
189,435,0,0,0,0,0,0,0,0,0,-1,1413,589,0,0
196,435,0,0,0,0,0,0,0,0,0,-1,1420,589,0,0
203,435,0,0,0,0,0,0,0,0,0,-1,1427,589,0,0
210,435,0,0,0,0,0,0,0,0,0,-1,1434,589,0,0
217,435,0,0,0,0,0,0,0,0,0,-1,1441,589,0,0
224,435,0,0,0,0,0,0,0,0,0,-1,1448,589,0,0
231,435,0,0,0,0,0,0,0,0,0,-1,1455,589,0,0
238,435,0,0,0,0,0,0,0,0,0,-1,1462,589,0,0
245,435,0,0,0,0,0,0,0,0,0,-1,1469,589,0,0
252,435,0,0,0,0,0,0,0,0,0,-1,1476,589,0,0
259,435,0,0,0,0,0,0,0,0,0,-1,1483,589,0,0
266,435,0,0,0,0,0,0,0,0,0,-1,1490,589,0,0
273,435,0,0,0,0,0,0,0,0,0,-1,1497,589,0,0
280,435,0,0,0,0,0,0,0,0,0,-1,1504,589,0,0
287,435,0,0,0,0,0,0,0,0,0,-1,1511,589,0,0
294,435,0,0,0,0,0,0,0,0,0,-1,1518,589,0,0
301,435,0,0,0,0,0,0,0,0,0,-1,1525,589,0,0
308,435,0,0,0,0,0,0,0,0,0,-1,1532,589,0,0
315,435,0,0,0,0,0,0,0,0,0,-1,1539,589,0,0
322,435,0,0,0,0,0,0,0,0,0,-1,1546,589,0,0
329,435,0,0,0,0,0,0,0,0,0,-1,1553,589,0,0
336,435,0,0,0,0,0,0,0,0,0,-1,1560,589,0,0
343,435,0,0,0,0,0,0,0,0,0,-1,1567,589,0,0
350,435,0,0,0,0,0,0,0,0,0,-1,1574,589,0,0
357,435,0,0,0,0,0,0,0,0,0,-1,1581,589,0,0
364,435,0,0,0,0,0,0,0,0,0,-1,1588,589,0,0
371,435,0,0,0,0,0,0,0,0,0,-1,1595,589,0,0
378,435,0,0,0,0,0,0,0,0,0,-1,1602,589,0,0
385,435,0,0,0,0,0,0,0,0,0,-1,1609,589,0,0
392,435,0,0,0,0,0,0,0,0,0,-1,1616,589,0,0
399,435,0,0,0,0,0,0,0,0,0,-1,1623,589,0,0
406,435,0,0,0,0,0,0,0,0,0,-1,1630,589,0,0
413,435,20.4565,3.49835,0,0,0,0,0,0,0,-1,1637,589,20.4565,-3.49836
420,435,21.4015,1.49609,0,0,0,0,0,0,0,-1,1644,589,21.4015,-1.49609
427,435,22.0464,-0.373962,0,0,0,0,0,0,0,-1,1651,589,22.0464,0.373972
434,435,22.1863,-1.54407,0,0,0,0,0,0,0,-1,1658,589,22.1862,1.54405
441,435,22.3992,-2.38287,0,0,0,0,0,0,0,-1,1665,589,22.3992,2.38289
448,435,7.4585,-0.00292969,0,0,0,0,0,0,0,-1,1672,589,7.45848,0.00294131
455,435,5.49915,-5.047,0,0,0,0,0,0,0,-1,1679,589,5.49914,5.04703
462,435,5.60669,-4.71466,0,0,0,0,0,0,0,-1,1686,589,5.60675,4.71469
469,435,5.87708,1.22351,0,0,0,0,0,0,0,-1,1693,589,5.87703,-1.22351
476,435,6.14136,1.37714,0,0,0,0,0,0,0,-1,1700,589,6.14138,-1.37712
483,435,6.49243,1.36169,0,0,0,0,0,0,0,-1,1707,589,6.49242,-1.36171
490,435,4.38391,-1.36218,0,0,0,0,0,0,0,-1,1714,589,4.38389,1.3622
497,435,7.23499,-3.64551,0,0,0,0,0,0,0,-1,1721,589,7.23495,3.64551
504,435,7.31189,-3.75909,0,0,0,0,0,0,0,-1,1728,589,7.31184,3.75911
511,435,17.2361,-13.4114,0,0,0,0,0,0,0,-1,1735,589,17.236,13.4115
518,435,17.3462,-12.8217,0.00479538,0.0024135,0.0018399,0.00579615,0.00141273,0.498166,0.00348984,0.028215,1742,589,17.3462,12.8217
525,435,17.3143,-12.2514,0.00403132,0.00219069,0.00171036,0.00505325,0.00116877,0.538574,0.00305471,0.0121295,1749,589,17.3143,12.2514
532,435,17.3086,-11.6613,0.00323004,0.0017982,0.00146306,0.00414295,0.000885289,0.55786,0.00251927,0.0135563,1756,589,17.3085,11.6612
539,435,17.2921,-11.0686,0.00257264,0.00150324,0.00129163,0.00343586,0.000640008,0.589151,0.00210985,0.0157176,1763,589,17.2921,11.0686
546,435,17.2488,-10.556,0.00193064,0.00117488,0.00108485,0.00270154,0.00040398,0.617809,0.00168261,0.0148127,1770,589,17.2488,10.556
553,435,17.2336,-10.028,0.00118717,0.00083623,0.00085057,0.00188018,0.000143217,0.683678,0.00120854,0.0102682,1777,589,17.2336,10.028
560,435,17.2144,-9.4505,0.000398503,0.000499616,0.000613899,0.00106504,-0.000166918,0.826482,0.000771705,0.00906732,1784,589,17.2144,9.45053
567,435,17.2053,-8.85663,-0.000331354,0.000230911,0.000410124,0.000447008,-0.000547451,1.08586,0.000575127,0.00937772,1791,589,17.2053,8.85662
574,435,17.1934,-8.30255,-0.00104642,-5.92295e-05,0.000221444,-1.18316e-05,-0.00109382,1.35994,0.000725303,0.0108095,1798,589,17.1933,8.30256
581,435,17.1692,-7.75006,-0.00172814,-0.00032462,7.80675e-05,-0.000320291,-0.00173247,1.5154,0.0010644,0.0178889,1805,589,17.1692,7.75004
588,435,17.1469,-7.21759,-0.00226073,-0.000489595,7.56882e-05,-0.000486366,-0.00226395,1.52817,0.00137613,0.0397682,1812,589,17.1468,7.21757
595,435,16.9711,-6.67395,-0.00269552,-0.000332535,0.000215506,-0.000313042,-0.00271501,1.48059,0.00171521,0.047176,1819,589,16.9711,6.67397
602,435,17.0023,-6.02069,0,0,0,0,0,0,0,-1,1826,589,17.0023,6.02067
609,435,15.2611,-3.42242,0,0,0,0,0,0,0,-1,1833,589,15.2611,3.42242
616,435,5.05151,-2.75269,0,0,0,0,0,0,0,-1,1840,589,5.05157,2.7527
623,435,11.7588,3.9704,0,0,0,0,0,0,0,-1,1847,589,11.7587,-3.97043
630,435,4.72742,-0.87561,0,0,0,0,0,0,0,-1,1854,589,4.7274,0.875636
637,435,5.05286,1.48792,0,0,0,0,0,0,0,-1,1861,589,5.05291,-1.48792
644,435,0,0,0,0,0,0,0,0,0,-1,1868,589,0,0
651,435,0,0,0,0,0,0,0,0,0,-1,1875,589,0,0
658,435,0,0,0,0,0,0,0,0,0,-1,1882,589,0,0
665,435,0,0,0,0,0,0,0,0,0,-1,1889,589,0,0
672,435,0,0,0,0,0,0,0,0,0,-1,1896,589,0,0
679,435,0,0,0,0,0,0,0,0,0,-1,1903,589,0,0
686,435,0,0,0,0,0,0,0,0,0,-1,1910,589,0,0
693,435,0,0,0,0,0,0,0,0,0,-1,1917,589,0,0
700,435,0,0,0,0,0,0,0,0,0,-1,1924,589,0,0
707,435,0,0,0,0,0,0,0,0,0,-1,1931,589,0,0
714,435,0,0,0,0,0,0,0,0,0,-1,1938,589,0,0
721,435,0,0,0,0,0,0,0,0,0,-1,1945,589,0,0
728,435,0,0,0,0,0,0,0,0,0,-1,1952,589,0,0
735,435,0,0,0,0,0,0,0,0,0,-1,1959,589,0,0
742,435,0,0,0,0,0,0,0,0,0,-1,1966,589,0,0
749,435,0,0,0,0,0,0,0,0,0,-1,1973,589,0,0
756,435,0,0,0,0,0,0,0,0,0,-1,1980,589,0,0
763,435,0,0,0,0,0,0,0,0,0,-1,1987,589,0,0
770,435,0,0,0,0,0,0,0,0,0,-1,1994,589,0,0
777,435,0,0,0,0,0,0,0,0,0,-1,2001,589,0,0
784,435,0,0,0,0,0,0,0,0,0,-1,2008,589,0,0
791,435,0,0,0,0,0,0,0,0,0,-1,2015,589,0,0
798,435,0,0,0,0,0,0,0,0,0,-1,2022,589,0,0
805,435,0,0,0,0,0,0,0,0,0,-1,2029,589,0,0
812,435,0,0,0,0,0,0,0,0,0,-1,2036,589,0,0
-700,428,0,0,0,0,0,0,0,0,0,-1,524,596,0,0
-693,428,0,0,0,0,0,0,0,0,0,-1,531,596,0,0
-686,428,0,0,0,0,0,0,0,0,0,-1,538,596,0,0
-679,428,0,0,0,0,0,0,0,0,0,-1,545,596,0,0
-672,428,0,0,0,0,0,0,0,0,0,-1,552,596,0,0
-665,428,0,0,0,0,0,0,0,0,0,-1,559,596,0,0
-658,428,0,0,0,0,0,0,0,0,0,-1,566,596,0,0
-651,428,0,0,0,0,0,0,0,0,0,-1,573,596,0,0
-644,428,0,0,0,0,0,0,0,0,0,-1,580,596,0,0
-637,428,0,0,0,0,0,0,0,0,0,-1,587,596,0,0
-630,428,0,0,0,0,0,0,0,0,0,-1,594,596,0,0
-623,428,0,0,0,0,0,0,0,0,0,-1,601,596,0,0
-616,428,0,0,0,0,0,0,0,0,0,-1,608,596,0,0
-609,428,0,0,0,0,0,0,0,0,0,-1,615,596,0,0
-602,428,0,0,0,0,0,0,0,0,0,-1,622,596,0,0
-595,428,0,0,0,0,0,0,0,0,0,-1,629,596,0,0
-588,428,0,0,0,0,0,0,0,0,0,-1,636,596,0,0
-581,428,0,0,0,0,0,0,0,0,0,-1,643,596,0,0
-574,428,0,0,0,0,0,0,0,0,0,-1,650,596,0,0
-567,428,0,0,0,0,0,0,0,0,0,-1,657,596,0,0
-560,428,0,0,0,0,0,0,0,0,0,-1,664,596,0,0
-553,428,0,0,0,0,0,0,0,0,0,-1,671,596,0,0
-546,428,0,0,0,0,0,0,0,0,0,-1,678,596,0,0
-539,428,0,0,0,0,0,0,0,0,0,-1,685,596,0,0
-532,428,0,0,0,0,0,0,0,0,0,-1,692,596,0,0
-525,428,-9.59918,7.58618,0,0,0,0,0,0,0,-1,699,596,-9.59918,-7.5862
-518,428,-2.92285,-4.81854,0,0,0,0,0,0,0,-1,706,596,-2.92285,4.81856
-511,428,-3.68811,-4.79474,0,0,0,0,0,0,0,-1,713,596,-3.68811,4.79474
-504,428,-4.45337,-4.77094,0,0,0,0,0,0,0,-1,720,596,-4.45337,4.77092
-497,428,-2.98108,-3.77502,0,0,0,0,0,0,0,-1,727,596,-2.98106,3.77505
-490,428,-6.39044,-2.80481,0,0,0,0,0,0,0,-1,734,596,-6.39047,2.80483
-483,428,-7.62341,-5.64526,0,0,0,0,0,0,0,-1,741,596,-7.62344,5.64525
-476,428,-7.57349,-7.46893,0,0,0,0,0,0,0,-1,748,596,-7.5735,7.46892
-469,428,-7.51849,-8.08234,-0.000677307,0.00651444,-0.00507179,0.00913575,-0.00329862,-1.09377,0.00743799,0.025865,755,596,-7.51852,8.08235
-462,428,-7.63428,-8.62128,-0.000321414,0.00525347,-0.00407696,0.00740479,-0.00247274,-1.08525,0.00593504,0.0262029,762,596,-7.63427,8.62125
-455,428,-7.69922,-9.24707,-1.01339e-06,0.0042057,-0.00328413,0.00600229,-0.00179761,-1.07022,0.00471634,0.0155745,769,596,-7.6992,9.24705
-448,428,-7.69928,-9.82086,5.68322e-05,0.00308484,-0.00231625,0.00433801,-0.00119633,-1.07486,0.00336249,0.0116693,776,596,-7.69931,9.82085
-441,428,-7.72083,-10.3826,-1.04829e-05,0.00210591,-0.0013811,0.0027876,-0.000692174,-1.11229,0.002127,0.0135861,783,596,-7.72084,10.3826
-434,428,-7.73096,-10.9488,-0.000185747,0.00133692,-0.00051767,0.00149624,-0.000345071,-1.27222,0.00113022,0.0100563,790,596,-7.73096,10.9488
-427,428,-7.71503,-11.5059,-0.000409714,0.000505147,0.000302943,0.000596367,-0.000500934,1.27832,0.000634325,0.0103365,797,596,-7.71505,11.5058
-420,428,-7.73254,-12.0131,-0.000616959,-0.000203274,0.00101442,0.000625176,-0.00144541,0.885971,0.00122632,0.0111289,804,596,-7.73255,12.013
-413,428,-7.74652,-12.5229,-0.000962608,-0.000965524,0.00182425,0.000860185,-0.00278832,0.784999,0.00220233,0.0136386,811,596,-7.7465,12.5229
-406,428,-7.76306,-13.0622,-0.00136065,-0.00161759,0.00254085,0.00105498,-0.00403322,0.760139,0.00310088,0.017467,818,596,-7.76307,13.0622
-399,428,-7.78027,-13.6094,-0.00164475,-0.00220194,0.00309311,0.00118229,-0.00502898,0.740484,0.00380842,0.0165854,825,596,-7.7803,13.6094
-392,428,-7.7724,-14.1796,-0.00171843,-0.00265984,0.00353352,0.0013756,-0.00575387,0.719182,0.00436727,0.0251436,832,596,-7.77238,14.1795
-385,428,-7.79126,-14.722,0,0,0,0,0,0,0,-1,839,596,-7.79125,14.722
-378,428,-7.98273,-15.1047,0,0,0,0,0,0,0,-1,846,596,-7.98275,15.1047
-371,428,-5.96155,-11.0703,0,0,0,0,0,0,0,-1,853,596,-5.96154,11.0702
-364,428,-6.33643,-10.7223,0,0,0,0,0,0,0,-1,860,596,-6.33645,10.7223
-357,428,-3.20996,-4.70966,0,0,0,0,0,0,0,-1,867,596,-3.20997,4.70965
-350,428,-1.62793,-3.94055,0,0,0,0,0,0,0,-1,874,596,-1.62794,3.94055
-343,428,-0.0567017,-4.80994,0,0,0,0,0,0,0,-1,881,596,-0.0567096,4.80996
-336,428,-3.29175,-1.39569,0,0,0,0,0,0,0,-1,888,596,-3.29172,1.39568
-329,428,-3.71564,-0.791321,0,0,0,0,0,0,0,-1,895,596,-3.71564,0.791299
-322,428,-5.52863,-3.59827,0,0,0,0,0,0,0,-1,902,596,-5.52865,3.59829
-315,428,-4.57172,-1.22052,0,0,0,0,0,0,0,-1,909,596,-4.57171,1.22052
-308,428,-5.94324,-0.810791,0,0,0,0,0,0,0,-1,916,596,-5.94321,0.810803
-301,428,0,0,0,0,0,0,0,0,0,-1,923,596,0,0
-294,428,0,0,0,0,0,0,0,0,0,-1,930,596,0,0
-287,428,0,0,0,0,0,0,0,0,0,-1,937,596,0,0
-280,428,0,0,0,0,0,0,0,0,0,-1,944,596,0,0
-273,428,0,0,0,0,0,0,0,0,0,-1,951,596,0,0
-266,428,0,0,0,0,0,0,0,0,0,-1,958,596,0,0
-259,428,0,0,0,0,0,0,0,0,0,-1,965,596,0,0
-252,428,0,0,0,0,0,0,0,0,0,-1,972,596,0,0
-245,428,0,0,0,0,0,0,0,0,0,-1,979,596,0,0
-238,428,0,0,0,0,0,0,0,0,0,-1,986,596,0,0
-231,428,0,0,0,0,0,0,0,0,0,-1,993,596,0,0
-224,428,0,0,0,0,0,0,0,0,0,-1,1000,596,0,0
-217,428,0,0,0,0,0,0,0,0,0,-1,1007,596,0,0
-210,428,0,0,0,0,0,0,0,0,0,-1,1014,596,0,0
-203,428,0,0,0,0,0,0,0,0,0,-1,1021,596,0,0
-196,428,0,0,0,0,0,0,0,0,0,-1,1028,596,0,0
-189,428,0,0,0,0,0,0,0,0,0,-1,1035,596,0,0
-182,428,0,0,0,0,0,0,0,0,0,-1,1042,596,0,0
-175,428,0,0,0,0,0,0,0,0,0,-1,1049,596,0,0
-168,428,0,0,0,0,0,0,0,0,0,-1,1056,596,0,0
-161,428,0,0,0,0,0,0,0,0,0,-1,1063,596,0,0
-154,428,0,0,0,0,0,0,0,0,0,-1,1070,596,0,0
-147,428,0,0,0,0,0,0,0,0,0,-1,1077,596,0,0
-140,428,0,0,0,0,0,0,0,0,0,-1,1084,596,0,0
-133,428,0,0,0,0,0,0,0,0,0,-1,1091,596,0,0
-126,428,0,0,0,0,0,0,0,0,0,-1,1098,596,0,0
-119,428,0,0,0,0,0,0,0,0,0,-1,1105,596,0,0
-112,428,0,0,0,0,0,0,0,0,0,-1,1112,596,0,0
-105,428,0,0,0,0,0,0,0,0,0,-1,1119,596,0,0
-98,428,0,0,0,0,0,0,0,0,0,-1,1126,596,0,0
-91,428,0,0,0,0,0,0,0,0,0,-1,1133,596,0,0
-84,428,0,0,0,0,0,0,0,0,0,-1,1140,596,0,0
-77,428,0,0,0,0,0,0,0,0,0,-1,1147,596,0,0
-70,428,0,0,0,0,0,0,0,0,0,-1,1154,596,0,0
-63,428,0,0,0,0,0,0,0,0,0,-1,1161,596,0,0
-56,428,0,0,0,0,0,0,0,0,0,-1,1168,596,0,0
-49,428,0,0,0,0,0,0,0,0,0,-1,1175,596,0,0
-42,428,0,0,0,0,0,0,0,0,0,-1,1182,596,0,0
-35,428,0,0,0,0,0,0,0,0,0,-1,1189,596,0,0
-28,428,0,0,0,0,0,0,0,0,0,-1,1196,596,0,0
-21,428,0,0,0,0,0,0,0,0,0,-1,1203,596,0,0
-14,428,0,0,0,0,0,0,0,0,0,-1,1210,596,0,0
-7,428,0,0,0,0,0,0,0,0,0,-1,1217,596,0,0
0,428,0,0,0,0,0,0,0,0,0,-1,1224,596,0,0
7,428,0,0,0,0,0,0,0,0,0,-1,1231,596,0,0
14,428,0,0,0,0,0,0,0,0,0,-1,1238,596,0,0
21,428,0,0,0,0,0,0,0,0,0,-1,1245,596,0,0
28,428,0,0,0,0,0,0,0,0,0,-1,1252,596,0,0
35,428,0,0,0,0,0,0,0,0,0,-1,1259,596,0,0
42,428,0,0,0,0,0,0,0,0,0,-1,1266,596,0,0
49,428,0,0,0,0,0,0,0,0,0,-1,1273,596,0,0
56,428,0,0,0,0,0,0,0,0,0,-1,1280,596,0,0
63,428,0,0,0,0,0,0,0,0,0,-1,1287,596,0,0
70,428,0,0,0,0,0,0,0,0,0,-1,1294,596,0,0
77,428,0,0,0,0,0,0,0,0,0,-1,1301,596,0,0
84,428,0,0,0,0,0,0,0,0,0,-1,1308,596,0,0
91,428,0,0,0,0,0,0,0,0,0,-1,1315,596,0,0
98,428,0,0,0,0,0,0,0,0,0,-1,1322,596,0,0
105,428,0,0,0,0,0,0,0,0,0,-1,1329,596,0,0
112,428,0,0,0,0,0,0,0,0,0,-1,1336,596,0,0
119,428,0,0,0,0,0,0,0,0,0,-1,1343,596,0,0
126,428,0,0,0,0,0,0,0,0,0,-1,1350,596,0,0
133,428,0,0,0,0,0,0,0,0,0,-1,1357,596,0,0
140,428,0,0,0,0,0,0,0,0,0,-1,1364,596,0,0
147,428,0,0,0,0,0,0,0,0,0,-1,1371,596,0,0
154,428,0,0,0,0,0,0,0,0,0,-1,1378,596,0,0
161,428,0,0,0,0,0,0,0,0,0,-1,1385,596,0,0
168,428,0,0,0,0,0,0,0,0,0,-1,1392,596,0,0
175,428,0,0,0,0,0,0,0,0,0,-1,1399,596,0,0
182,428,0,0,0,0,0,0,0,0,0,-1,1406,596,0,0
189,428,0,0,0,0,0,0,0,0,0,-1,1413,596,0,0
196,428,0,0,0,0,0,0,0,0,0,-1,1420,596,0,0
203,428,0,0,0,0,0,0,0,0,0,-1,1427,596,0,0
210,428,0,0,0,0,0,0,0,0,0,-1,1434,596,0,0
217,428,0,0,0,0,0,0,0,0,0,-1,1441,596,0,0
224,428,0,0,0,0,0,0,0,0,0,-1,1448,596,0,0
231,428,0,0,0,0,0,0,0,0,0,-1,1455,596,0,0
238,428,0,0,0,0,0,0,0,0,0,-1,1462,596,0,0
245,428,0,0,0,0,0,0,0,0,0,-1,1469,596,0,0
252,428,0,0,0,0,0,0,0,0,0,-1,1476,596,0,0
259,428,0,0,0,0,0,0,0,0,0,-1,1483,596,0,0
266,428,0,0,0,0,0,0,0,0,0,-1,1490,596,0,0
273,428,0,0,0,0,0,0,0,0,0,-1,1497,596,0,0
280,428,0,0,0,0,0,0,0,0,0,-1,1504,596,0,0
287,428,0,0,0,0,0,0,0,0,0,-1,1511,596,0,0
294,428,0,0,0,0,0,0,0,0,0,-1,1518,596,0,0
301,428,0,0,0,0,0,0,0,0,0,-1,1525,596,0,0
308,428,0,0,0,0,0,0,0,0,0,-1,1532,596,0,0
315,428,0,0,0,0,0,0,0,0,0,-1,1539,596,0,0
322,428,0,0,0,0,0,0,0,0,0,-1,1546,596,0,0
329,428,0,0,0,0,0,0,0,0,0,-1,1553,596,0,0
336,428,0,0,0,0,0,0,0,0,0,-1,1560,596,0,0
343,428,0,0,0,0,0,0,0,0,0,-1,1567,596,0,0
350,428,0,0,0,0,0,0,0,0,0,-1,1574,596,0,0
357,428,0,0,0,0,0,0,0,0,0,-1,1581,596,0,0
364,428,0,0,0,0,0,0,0,0,0,-1,1588,596,0,0
371,428,0,0,0,0,0,0,0,0,0,-1,1595,596,0,0
378,428,0,0,0,0,0,0,0,0,0,-1,1602,596,0,0
385,428,0,0,0,0,0,0,0,0,0,-1,1609,596,0,0
392,428,0,0,0,0,0,0,0,0,0,-1,1616,596,0,0
399,428,0,0,0,0,0,0,0,0,0,-1,1623,596,0,0
406,428,0,0,0,0,0,0,0,0,0,-1,1630,596,0,0
413,428,0,0,0,0,0,0,0,0,0,-1,1637,596,0,0
420,428,19.8469,1.3399,0,0,0,0,0,0,0,-1,1644,596,19.8469,-1.33992
427,428,20.7299,-0.225281,0,0,0,0,0,0,0,-1,1651,596,20.7299,0.225262
434,428,19.8915,-0.583069,0,0,0,0,0,0,0,-1,1658,596,19.8915,0.583075
441,428,8.17993,0.607483,0,0,0,0,0,0,0,-1,1665,596,8.17997,-0.607513
448,428,7.84338,-0.385986,0,0,0,0,0,0,0,-1,1672,596,7.84336,0.385978
455,428,6.64038,2.1123,0,0,0,0,0,0,0,-1,1679,596,6.64037,-2.11229
462,428,4.84106,4.12341,0,0,0,0,0,0,0,-1,1686,596,4.84107,-4.12339
469,428,7.83789,3.10083,0,0,0,0,0,0,0,-1,1693,596,7.83785,-3.10086
476,428,7.61255,1.73956,0,0,0,0,0,0,0,-1,1700,596,7.61252,-1.73958
483,428,7.22766,1.05121,0,0,0,0,0,0,0,-1,1707,596,7.2277,-1.05121
490,428,5.4071,-3.2793,0,0,0,0,0,0,0,-1,1714,596,5.40707,3.27929
497,428,7.84106,-3.65491,0,0,0,0,0,0,0,-1,1721,596,7.84107,3.65491
504,428,6.92139,-2.83356,0,0,0,0,0,0,0,-1,1728,596,6.92137,2.83353
511,428,7.88501,-3.78723,0,0,0,0,0,0,0,-1,1735,596,7.88502,3.78722
518,428,17.858,-12.9016,0,0,0,0,0,0,0,-1,1742,596,17.858,12.9016
525,428,17.8456,-12.2217,0,0,0,0,0,0,0,-1,1749,596,17.8456,12.2217
532,428,17.8512,-11.6224,0.00436754,0.0021783,0.00188779,0.0054551,0.00109073,0.522664,0.00333319,0.021009,1756,596,17.8513,11.6224
539,428,17.8656,-11.069,0.00364442,0.00180244,0.00161508,0.00458265,0.000864207,0.526271,0.00281166,0.0210325,1763,596,17.8657,11.0689
546,428,17.8179,-10.5418,0.00296762,0.00142529,0.00134876,0.00375011,0.000642796,0.5257,0.00231574,0.0167529,1770,596,17.8179,10.5418
553,428,17.7877,-9.9942,0.00216473,0.00103798,0.00106159,0.00280317,0.000399536,0.541449,0.00175086,0.0103177,1777,596,17.7878,9.99423
560,428,17.8104,-9.42169,0.00131809,0.000689035,0.000787131,0.00185121,0.000155917,0.595323,0.00118559,0.0111846,1784,596,17.8104,9.42166
567,428,17.7966,-8.85504,0.000525244,0.000445838,0.000565228,0.00105216,-8.108e-05,0.750335,0.000729971,0.0115597,1791,596,17.7967,8.85507
574,428,17.7747,-8.28729,-0.000215041,0.000220119,0.000397213,0.00045544,-0.000450362,1.03596,0.000522968,0.0140498,1798,596,17.7747,8.28726
581,428,17.7228,-7.7005,-0.000880897,7.95934e-05,0.000318132,0.000175407,-0.00097671,1.27826,0.000716799,0.0114453,1805,596,17.7227,7.7005
588,428,17.6973,-7.1394,-0.0014004,0.000124858,0.000385858,0.000216916,-0.00149246,1.3366,0.0010746,0.0177297,1812,596,17.6973,7.13941
595,428,17.6826,-6.53528,-0.00177239,0.000471692,0.000636096,0.000639455,-0.00194015,1.31293,0.00155116,0.0227011,1819,596,17.6826,6.53526
602,428,17.4541,-5.85785,0,0,0,0,0,0,0,-1,1826,596,17.4541,5.85784
609,428,17.2073,-4.82446,0,0,0,0,0,0,0,-1,1833,596,17.2073,4.82447
616,428,15.7817,-3.09558,0,0,0,0,0,0,0,-1,1840,596,15.7817,3.09556
623,428,9.53577,1.12518,0,0,0,0,0,0,0,-1,1847,596,9.5358,-1.1252
630,428,7.07996,6.88562,0,0,0,0,0,0,0,-1,1854,596,7.0799,-6.88565
637,428,3.95435,1.90857,0,0,0,0,0,0,0,-1,1861,596,3.95439,-1.90858
644,428,5.75476,0.888977,0,0,0,0,0,0,0,-1,1868,596,5.75472,-0.888955
651,428,0,0,0,0,0,0,0,0,0,-1,1875,596,0,0
658,428,0,0,0,0,0,0,0,0,0,-1,1882,596,0,0
665,428,0,0,0,0,0,0,0,0,0,-1,1889,596,0,0
672,428,0,0,0,0,0,0,0,0,0,-1,1896,596,0,0
679,428,0,0,0,0,0,0,0,0,0,-1,1903,596,0,0
686,428,0,0,0,0,0,0,0,0,0,-1,1910,596,0,0
693,428,0,0,0,0,0,0,0,0,0,-1,1917,596,0,0
700,428,0,0,0,0,0,0,0,0,0,-1,1924,596,0,0
707,428,0,0,0,0,0,0,0,0,0,-1,1931,596,0,0
714,428,0,0,0,0,0,0,0,0,0,-1,1938,596,0,0
721,428,0,0,0,0,0,0,0,0,0,-1,1945,596,0,0
728,428,0,0,0,0,0,0,0,0,0,-1,1952,596,0,0
735,428,0,0,0,0,0,0,0,0,0,-1,1959,596,0,0
742,428,0,0,0,0,0,0,0,0,0,-1,1966,596,0,0
749,428,0,0,0,0,0,0,0,0,0,-1,1973,596,0,0
756,428,0,0,0,0,0,0,0,0,0,-1,1980,596,0,0
763,428,0,0,0,0,0,0,0,0,0,-1,1987,596,0,0
770,428,0,0,0,0,0,0,0,0,0,-1,1994,596,0,0
777,428,0,0,0,0,0,0,0,0,0,-1,2001,596,0,0
784,428,0,0,0,0,0,0,0,0,0,-1,2008,596,0,0
791,428,0,0,0,0,0,0,0,0,0,-1,2015,596,0,0
798,428,0,0,0,0,0,0,0,0,0,-1,2022,596,0,0
805,428,0,0,0,0,0,0,0,0,0,-1,2029,596,0,0
812,428,0,0,0,0,0,0,0,0,0,-1,2036,596,0,0
-700,421,0,0,0,0,0,0,0,0,0,-1,524,603,0,0
-693,421,0,0,0,0,0,0,0,0,0,-1,531,603,0,0
-686,421,0,0,0,0,0,0,0,0,0,-1,538,603,0,0
-679,421,0,0,0,0,0,0,0,0,0,-1,545,603,0,0
-672,421,0,0,0,0,0,0,0,0,0,-1,552,603,0,0
-665,421,0,0,0,0,0,0,0,0,0,-1,559,603,0,0
-658,421,0,0,0,0,0,0,0,0,0,-1,566,603,0,0
-651,421,0,0,0,0,0,0,0,0,0,-1,573,603,0,0
-644,421,0,0,0,0,0,0,0,0,0,-1,580,603,0,0
-637,421,0,0,0,0,0,0,0,0,0,-1,587,603,0,0
-630,421,0,0,0,0,0,0,0,0,0,-1,594,603,0,0
-623,421,0,0,0,0,0,0,0,0,0,-1,601,603,0,0
-616,421,0,0,0,0,0,0,0,0,0,-1,608,603,0,0
-609,421,0,0,0,0,0,0,0,0,0,-1,615,603,0,0
-602,421,0,0,0,0,0,0,0,0,0,-1,622,603,0,0
-595,421,0,0,0,0,0,0,0,0,0,-1,629,603,0,0
-588,421,0,0,0,0,0,0,0,0,0,-1,636,603,0,0
-581,421,0,0,0,0,0,0,0,0,0,-1,643,603,0,0
-574,421,0,0,0,0,0,0,0,0,0,-1,650,603,0,0
-567,421,0,0,0,0,0,0,0,0,0,-1,657,603,0,0
-560,421,0,0,0,0,0,0,0,0,0,-1,664,603,0,0
-553,421,0,0,0,0,0,0,0,0,0,-1,671,603,0,0
-546,421,0,0,0,0,0,0,0,0,0,-1,678,603,0,0
-539,421,0,0,0,0,0,0,0,0,0,-1,685,603,0,0
-532,421,-8.97382,6.95636,0,0,0,0,0,0,0,-1,692,603,-8.97384,-6.95634
-525,421,-2.11481,-8.04272,0,0,0,0,0,0,0,-1,699,603,-2.11483,8.0427
-518,421,-3.05908,-5.07233,0,0,0,0,0,0,0,-1,706,603,-3.0591,5.07235
-511,421,-4.63525,-4.08447,0,0,0,0,0,0,0,-1,713,603,-4.63524,4.08449
-504,421,-5.17029,-4.94458,0,0,0,0,0,0,0,-1,720,603,-5.17029,4.9446
-497,421,-6.63141,-2.32501,0,0,0,0,0,0,0,-1,727,603,-6.6314,2.32498
-490,421,-6.7616,-4.14783,0,0,0,0,0,0,0,-1,734,603,-6.76159,4.1478
-483,421,-7.9458,-7.19427,0,0,0,0,0,0,0,-1,741,603,-7.94578,7.19427
-476,421,-8.03784,-7.67047,-0.000180547,0.00651322,-0.005116,0.00927985,-0.00294718,-1.07506,0.00736813,0.036463,748,603,-8.03787,7.67049
-469,421,-8.19214,-8.08081,-0.000146964,0.00509468,-0.004113,0.00735089,-0.00240318,-1.06906,0.00586804,0.0270369,755,603,-8.19215,8.0808
-462,421,-8.21527,-8.71533,9.16903e-05,0.00394669,-0.00327713,0.00582114,-0.00178276,-1.05123,0.00459186,0.0200621,762,603,-8.21528,8.71534
-455,421,-8.21136,-9.28143,0.000254085,0.00297389,-0.00254165,0.00449658,-0.0012686,-1.03104,0.00349812,0.0189506,769,603,-8.21139,9.28145
-448,421,-8.22784,-9.82306,0.000222359,0.00195725,-0.00166364,0.00296602,-0.000786402,-1.02571,0.00228504,0.019057,776,603,-8.22782,9.82307
-441,421,-8.26056,-10.3589,2.16576e-05,0.00105644,-0.000747398,0.00144806,-0.000369959,-1.08815,0.00110945,0.0150611,783,603,-8.26054,10.359
-434,421,-8.28766,-10.9258,-0.000302463,0.000367511,0.00013513,0.000393739,-0.000328691,1.37908,0.000417658,0.0109079,790,603,-8.28768,10.9259
-427,421,-8.27252,-11.4861,-0.000712559,-0.000396783,0.00102393,0.000481357,-0.0015907,0.861895,0.00125215,0.00988765,797,603,-8.27252,11.4862
-420,421,-8.27924,-11.9886,-0.00117391,-0.00105585,0.00187445,0.000760493,-0.00299026,0.801138,0.0022895,0.0113091,804,603,-8.27925,11.9886
-413,421,-8.297,-12.4886,-0.00180395,-0.00171044,0.00282478,0.00106797,-0.00458236,0.793674,0.00346618,0.0139729,811,603,-8.29698,12.4886
-406,421,-8.33734,-13.0524,-0.0025984,-0.0023307,0.00376139,0.00129922,-0.00622832,0.803184,0.00464624,0.0192502,818,603,-8.33732,13.0524
-399,421,-8.26825,-13.6645,-0.00330602,-0.00291775,0.00455344,0.00144569,-0.00766946,0.806703,0.00565679,0.0288953,825,603,-8.26823,13.6645
-392,421,-8.40247,-14.0984,-0.00381971,-0.0033559,0.00528345,0.00170074,-0.00887635,0.807331,0.0065584,0.0492199,832,603,-8.40247,14.0984
-385,421,-8.51715,-14.7759,0,0,0,0,0,0,0,-1,839,603,-8.51713,14.7759
-378,421,-4.94733,-8.87909,0,0,0,0,0,0,0,-1,846,603,-4.94731,8.87906
-371,421,-5.65082,-7.01849,0,0,0,0,0,0,0,-1,853,603,-5.65082,7.0185
-364,421,-5.94189,-7.09875,0,0,0,0,0,0,0,-1,860,603,-5.94192,7.09878
-357,421,-7.62531,-8.26337,0,0,0,0,0,0,0,-1,867,603,-7.62532,8.26337
-350,421,-5.38019,-3.75024,0,0,0,0,0,0,0,-1,874,603,-5.38017,3.75026
-343,421,-6.22797,-2.57123,0,0,0,0,0,0,0,-1,881,603,-6.22798,2.57121
-336,421,-6.22882,-2.59369,0,0,0,0,0,0,0,-1,888,603,-6.22883,2.5937
-329,421,-4.50134,-1.49469,0,0,0,0,0,0,0,-1,895,603,-4.50137,1.49468
-322,421,-7.55817,1.13263,0,0,0,0,0,0,0,-1,902,603,-7.55818,-1.13263
-315,421,-4.47821,-1.26733,0,0,0,0,0,0,0,-1,909,603,-4.47824,1.26732
-308,421,0,0,0,0,0,0,0,0,0,-1,916,603,0,0
-301,421,0,0,0,0,0,0,0,0,0,-1,923,603,0,0
-294,421,0,0,0,0,0,0,0,0,0,-1,930,603,0,0
-287,421,0,0,0,0,0,0,0,0,0,-1,937,603,0,0
-280,421,0,0,0,0,0,0,0,0,0,-1,944,603,0,0
-273,421,0,0,0,0,0,0,0,0,0,-1,951,603,0,0
-266,421,0,0,0,0,0,0,0,0,0,-1,958,603,0,0
-259,421,0,0,0,0,0,0,0,0,0,-1,965,603,0,0
-252,421,0,0,0,0,0,0,0,0,0,-1,972,603,0,0
-245,421,0,0,0,0,0,0,0,0,0,-1,979,603,0,0
-238,421,0,0,0,0,0,0,0,0,0,-1,986,603,0,0
-231,421,0,0,0,0,0,0,0,0,0,-1,993,603,0,0
-224,421,0,0,0,0,0,0,0,0,0,-1,1000,603,0,0
-217,421,0,0,0,0,0,0,0,0,0,-1,1007,603,0,0
-210,421,0,0,0,0,0,0,0,0,0,-1,1014,603,0,0
-203,421,0,0,0,0,0,0,0,0,0,-1,1021,603,0,0
-196,421,0,0,0,0,0,0,0,0,0,-1,1028,603,0,0
-189,421,0,0,0,0,0,0,0,0,0,-1,1035,603,0,0
-182,421,0,0,0,0,0,0,0,0,0,-1,1042,603,0,0
-175,421,0,0,0,0,0,0,0,0,0,-1,1049,603,0,0
-168,421,0,0,0,0,0,0,0,0,0,-1,1056,603,0,0
-161,421,0,0,0,0,0,0,0,0,0,-1,1063,603,0,0
-154,421,0,0,0,0,0,0,0,0,0,-1,1070,603,0,0
-147,421,0,0,0,0,0,0,0,0,0,-1,1077,603,0,0
-140,421,0,0,0,0,0,0,0,0,0,-1,1084,603,0,0
-133,421,0,0,0,0,0,0,0,0,0,-1,1091,603,0,0
-126,421,0,0,0,0,0,0,0,0,0,-1,1098,603,0,0
-119,421,0,0,0,0,0,0,0,0,0,-1,1105,603,0,0
-112,421,0,0,0,0,0,0,0,0,0,-1,1112,603,0,0
-105,421,0,0,0,0,0,0,0,0,0,-1,1119,603,0,0
-98,421,0,0,0,0,0,0,0,0,0,-1,1126,603,0,0
-91,421,0,0,0,0,0,0,0,0,0,-1,1133,603,0,0
-84,421,0,0,0,0,0,0,0,0,0,-1,1140,603,0,0
-77,421,0,0,0,0,0,0,0,0,0,-1,1147,603,0,0
-70,421,0,0,0,0,0,0,0,0,0,-1,1154,603,0,0
-63,421,0,0,0,0,0,0,0,0,0,-1,1161,603,0,0
-56,421,0,0,0,0,0,0,0,0,0,-1,1168,603,0,0
-49,421,0,0,0,0,0,0,0,0,0,-1,1175,603,0,0
-42,421,0,0,0,0,0,0,0,0,0,-1,1182,603,0,0
-35,421,0,0,0,0,0,0,0,0,0,-1,1189,603,0,0
-28,421,0,0,0,0,0,0,0,0,0,-1,1196,603,0,0
-21,421,0,0,0,0,0,0,0,0,0,-1,1203,603,0,0
-14,421,0,0,0,0,0,0,0,0,0,-1,1210,603,0,0
-7,421,0,0,0,0,0,0,0,0,0,-1,1217,603,0,0
0,421,0,0,0,0,0,0,0,0,0,-1,1224,603,0,0
7,421,0,0,0,0,0,0,0,0,0,-1,1231,603,0,0
14,421,0,0,0,0,0,0,0,0,0,-1,1238,603,0,0
21,421,0,0,0,0,0,0,0,0,0,-1,1245,603,0,0
28,421,0,0,0,0,0,0,0,0,0,-1,1252,603,0,0
35,421,0,0,0,0,0,0,0,0,0,-1,1259,603,0,0
42,421,0,0,0,0,0,0,0,0,0,-1,1266,603,0,0
49,421,0,0,0,0,0,0,0,0,0,-1,1273,603,0,0
56,421,0,0,0,0,0,0,0,0,0,-1,1280,603,0,0
63,421,0,0,0,0,0,0,0,0,0,-1,1287,603,0,0
70,421,0,0,0,0,0,0,0,0,0,-1,1294,603,0,0
77,421,0,0,0,0,0,0,0,0,0,-1,1301,603,0,0
84,421,0,0,0,0,0,0,0,0,0,-1,1308,603,0,0
91,421,0,0,0,0,0,0,0,0,0,-1,1315,603,0,0
98,421,0,0,0,0,0,0,0,0,0,-1,1322,603,0,0
105,421,0,0,0,0,0,0,0,0,0,-1,1329,603,0,0
112,421,0,0,0,0,0,0,0,0,0,-1,1336,603,0,0
119,421,0,0,0,0,0,0,0,0,0,-1,1343,603,0,0
126,421,0,0,0,0,0,0,0,0,0,-1,1350,603,0,0
133,421,0,0,0,0,0,0,0,0,0,-1,1357,603,0,0
140,421,0,0,0,0,0,0,0,0,0,-1,1364,603,0,0
147,421,0,0,0,0,0,0,0,0,0,-1,1371,603,0,0
154,421,0,0,0,0,0,0,0,0,0,-1,1378,603,0,0
161,421,0,0,0,0,0,0,0,0,0,-1,1385,603,0,0
168,421,0,0,0,0,0,0,0,0,0,-1,1392,603,0,0
175,421,0,0,0,0,0,0,0,0,0,-1,1399,603,0,0
182,421,0,0,0,0,0,0,0,0,0,-1,1406,603,0,0
189,421,0,0,0,0,0,0,0,0,0,-1,1413,603,0,0
196,421,0,0,0,0,0,0,0,0,0,-1,1420,603,0,0
203,421,0,0,0,0,0,0,0,0,0,-1,1427,603,0,0
210,421,0,0,0,0,0,0,0,0,0,-1,1434,603,0,0
217,421,0,0,0,0,0,0,0,0,0,-1,1441,603,0,0
224,421,0,0,0,0,0,0,0,0,0,-1,1448,603,0,0
231,421,0,0,0,0,0,0,0,0,0,-1,1455,603,0,0
238,421,0,0,0,0,0,0,0,0,0,-1,1462,603,0,0
245,421,0,0,0,0,0,0,0,0,0,-1,1469,603,0,0
252,421,0,0,0,0,0,0,0,0,0,-1,1476,603,0,0
259,421,0,0,0,0,0,0,0,0,0,-1,1483,603,0,0
266,421,0,0,0,0,0,0,0,0,0,-1,1490,603,0,0
273,421,0,0,0,0,0,0,0,0,0,-1,1497,603,0,0
280,421,0,0,0,0,0,0,0,0,0,-1,1504,603,0,0
287,421,0,0,0,0,0,0,0,0,0,-1,1511,603,0,0
294,421,0,0,0,0,0,0,0,0,0,-1,1518,603,0,0
301,421,0,0,0,0,0,0,0,0,0,-1,1525,603,0,0
308,421,0,0,0,0,0,0,0,0,0,-1,1532,603,0,0
315,421,0,0,0,0,0,0,0,0,0,-1,1539,603,0,0
322,421,0,0,0,0,0,0,0,0,0,-1,1546,603,0,0
329,421,0,0,0,0,0,0,0,0,0,-1,1553,603,0,0
336,421,0,0,0,0,0,0,0,0,0,-1,1560,603,0,0
343,421,0,0,0,0,0,0,0,0,0,-1,1567,603,0,0
350,421,0,0,0,0,0,0,0,0,0,-1,1574,603,0,0
357,421,0,0,0,0,0,0,0,0,0,-1,1581,603,0,0
364,421,0,0,0,0,0,0,0,0,0,-1,1588,603,0,0
371,421,0,0,0,0,0,0,0,0,0,-1,1595,603,0,0
378,421,0,0,0,0,0,0,0,0,0,-1,1602,603,0,0
385,421,0,0,0,0,0,0,0,0,0,-1,1609,603,0,0
392,421,0,0,0,0,0,0,0,0,0,-1,1616,603,0,0
399,421,0,0,0,0,0,0,0,0,0,-1,1623,603,0,0
406,421,0,0,0,0,0,0,0,0,0,-1,1630,603,0,0
413,421,0,0,0,0,0,0,0,0,0,-1,1637,603,0,0
420,421,0,0,0,0,0,0,0,0,0,-1,1644,603,0,0
427,421,0,0,0,0,0,0,0,0,0,-1,1651,603,0,0
434,421,3.68176,-0.0327759,0,0,0,0,0,0,0,-1,1658,603,3.6818,0.0328037
441,421,8.06689,0.527832,0,0,0,0,0,0,0,-1,1665,603,8.06693,-0.527851
448,421,6.93921,0.802246,0,0,0,0,0,0,0,-1,1672,603,6.93923,-0.802251
455,421,7.29456,2.14825,0,0,0,0,0,0,0,-1,1679,603,7.29461,-2.14827
462,421,7.86902,3.53174,0,0,0,0,0,0,0,-1,1686,603,7.869,-3.53173
469,421,8.06604,2.81213,0,0,0,0,0,0,0,-1,1693,603,8.06606,-2.81212
476,421,8.26306,2.09253,0,0,0,0,0,0,0,-1,1700,603,8.26312,-2.09251
483,421,8.05322,0.798096,0,0,0,0,0,0,0,-1,1707,603,8.05323,-0.7981
490,421,7.51233,0.213074,0,0,0,0,0,0,0,-1,1714,603,7.51235,-0.213043
497,421,7.49634,-2.86688,0,0,0,0,0,0,0,-1,1721,603,7.4963,2.86688
504,421,6.90491,-2.18671,0,0,0,0,0,0,0,-1,1728,603,6.90491,2.18669
511,421,6.31348,-1.50653,0,0,0,0,0,0,0,-1,1735,603,6.31353,1.5065
518,421,6.27588,-2.49878,0,0,0,0,0,0,0,-1,1742,603,6.2759,2.4988
525,421,18.1576,-12.4898,0,0,0,0,0,0,0,-1,1749,603,18.1576,12.4898
532,421,18.285,-11.6749,0.00546877,0.00259758,0.00234575,0.00678335,0.001283,0.510801,0.00416103,0.0448988,1756,603,18.285,11.6749
539,421,18.413,-11.085,0.00464348,0.00215458,0.00196891,0.00572825,0.00106981,0.503572,0.00351689,0.0222287,1763,603,18.413,11.085
546,421,18.3842,-10.5245,0.00390721,0.00172454,0.00163846,0.00478452,0.000847227,0.491602,0.00294813,0.013724,1770,603,18.3841,10.5245
553,421,18.3724,-9.93787,0.00303714,0.00127947,0.00129226,0.00372109,0.000595518,0.486785,0.00230797,0.0116247,1777,603,18.3725,9.93789
560,421,18.3816,-9.3761,0.00214086,0.000899666,0.000971167,0.00267278,0.000367742,0.501089,0.0016728,0.0136091,1784,603,18.3816,9.37609
567,421,18.3657,-8.82385,0.0013105,0.000644535,0.000721948,0.00177255,0.000182478,0.569323,0.00112582,0.016754,1791,603,18.3658,8.82388
574,421,18.3364,-8.23041,0.000584943,0.000449468,0.000562997,0.00108426,-4.98517e-05,0.725528,0.000740019,0.0188713,1798,603,18.3364,8.23042
581,421,18.2999,-7.6145,-1.82118e-05,0.000380224,0.000519699,0.00073758,-0.000375568,0.968427,0.000653907,0.0159348,1805,603,18.2999,7.61448
588,421,18.2678,-7.11194,-0.000460734,0.000534399,0.000614094,0.000827202,-0.000753537,1.12588,0.00091297,0.0118674,1812,603,18.2678,7.11196
595,421,18.2921,-6.52692,-0.000698628,0.000952515,0.000907183,0.00135354,-0.00109966,1.15456,0.00141888,0.0179584,1819,603,18.2921,6.52689
602,421,18.3135,-5.88666,0,0,0,0,0,0,0,-1,1826,603,18.3135,5.88664
609,421,17.6451,-5.54187,0,0,0,0,0,0,0,-1,1833,603,17.6451,5.54189
616,421,17.7633,-4.72491,0,0,0,0,0,0,0,-1,1840,603,17.7633,4.7249
623,421,6.19885,0.376648,0,0,0,0,0,0,0,-1,1847,603,6.19881,-0.376624
630,421,6.54993,0.778748,0,0,0,0,0,0,0,-1,1854,603,6.54991,-0.778744
637,421,3.74512,1.65405,0,0,0,0,0,0,0,-1,1861,603,3.74517,-1.65407
644,421,3.58081,0.354675,0,0,0,0,0,0,0,-1,1868,603,3.58082,-0.354704
651,421,3.28687,3.66351,0,0,0,0,0,0,0,-1,1875,603,3.28688,-3.66353
658,421,0,0,0,0,0,0,0,0,0,-1,1882,603,0,0
665,421,0,0,0,0,0,0,0,0,0,-1,1889,603,0,0
672,421,0,0,0,0,0,0,0,0,0,-1,1896,603,0,0
679,421,0,0,0,0,0,0,0,0,0,-1,1903,603,0,0
686,421,0,0,0,0,0,0,0,0,0,-1,1910,603,0,0
693,421,0,0,0,0,0,0,0,0,0,-1,1917,603,0,0
700,421,0,0,0,0,0,0,0,0,0,-1,1924,603,0,0
707,421,0,0,0,0,0,0,0,0,0,-1,1931,603,0,0
714,421,0,0,0,0,0,0,0,0,0,-1,1938,603,0,0
721,421,0,0,0,0,0,0,0,0,0,-1,1945,603,0,0
728,421,0,0,0,0,0,0,0,0,0,-1,1952,603,0,0
735,421,0,0,0,0,0,0,0,0,0,-1,1959,603,0,0
742,421,0,0,0,0,0,0,0,0,0,-1,1966,603,0,0
749,421,0,0,0,0,0,0,0,0,0,-1,1973,603,0,0
756,421,0,0,0,0,0,0,0,0,0,-1,1980,603,0,0
763,421,0,0,0,0,0,0,0,0,0,-1,1987,603,0,0
770,421,0,0,0,0,0,0,0,0,0,-1,1994,603,0,0
777,421,0,0,0,0,0,0,0,0,0,-1,2001,603,0,0
784,421,0,0,0,0,0,0,0,0,0,-1,2008,603,0,0
791,421,0,0,0,0,0,0,0,0,0,-1,2015,603,0,0
798,421,0,0,0,0,0,0,0,0,0,-1,2022,603,0,0
805,421,0,0,0,0,0,0,0,0,0,-1,2029,603,0,0
812,421,0,0,0,0,0,0,0,0,0,-1,2036,603,0,0
-700,414,0,0,0,0,0,0,0,0,0,-1,524,610,0,0
-693,414,0,0,0,0,0,0,0,0,0,-1,531,610,0,0
-686,414,0,0,0,0,0,0,0,0,0,-1,538,610,0,0
-679,414,0,0,0,0,0,0,0,0,0,-1,545,610,0,0
-672,414,0,0,0,0,0,0,0,0,0,-1,552,610,0,0
-665,414,0,0,0,0,0,0,0,0,0,-1,559,610,0,0
-658,414,0,0,0,0,0,0,0,0,0,-1,566,610,0,0
-651,414,0,0,0,0,0,0,0,0,0,-1,573,610,0,0
-644,414,0,0,0,0,0,0,0,0,0,-1,580,610,0,0
-637,414,0,0,0,0,0,0,0,0,0,-1,587,610,0,0
-630,414,0,0,0,0,0,0,0,0,0,-1,594,610,0,0
-623,414,0,0,0,0,0,0,0,0,0,-1,601,610,0,0
-616,414,0,0,0,0,0,0,0,0,0,-1,608,610,0,0
-609,414,0,0,0,0,0,0,0,0,0,-1,615,610,0,0
-602,414,0,0,0,0,0,0,0,0,0,-1,622,610,0,0
-595,414,0,0,0,0,0,0,0,0,0,-1,629,610,0,0
-588,414,0,0,0,0,0,0,0,0,0,-1,636,610,0,0
-581,414,0,0,0,0,0,0,0,0,0,-1,643,610,0,0
-574,414,0,0,0,0,0,0,0,0,0,-1,650,610,0,0
-567,414,0,0,0,0,0,0,0,0,0,-1,657,610,0,0
-560,414,0,0,0,0,0,0,0,0,0,-1,664,610,0,0
-553,414,0,0,0,0,0,0,0,0,0,-1,671,610,0,0
-546,414,0,0,0,0,0,0,0,0,0,-1,678,610,0,0
-539,414,-7.50146,5.65619,0,0,0,0,0,0,0,-1,685,610,-7.50149,-5.65617
-532,414,-8.15204,4.01605,0,0,0,0,0,0,0,-1,692,610,-8.15206,-4.01606
-525,414,-3.47137,-3.27924,0,0,0,0,0,0,0,-1,699,610,-3.47136,3.27922
-518,414,-4.12909,-4.36908,0,0,0,0,0,0,0,-1,706,610,-4.12909,4.36909
-511,414,-3.92542,-4.97021,0,0,0,0,0,0,0,-1,713,610,-3.92542,4.97023
-504,414,-9.35394,-5.49896,0,0,0,0,0,0,0,-1,720,610,-9.35394,5.49898
-497,414,-9.17554,-6.03741,0,0,0,0,0,0,0,-1,727,610,-9.17551,6.03743
-490,414,-9.01099,-6.05676,0,0,0,0,0,0,0,-1,734,610,-9.01101,6.05677
-483,414,-8.72266,-7.01715,0.000471187,0.00690777,-0.00517416,0.00978286,-0.0024039,-1.06362,0.00745357,0.0429974,741,610,-8.72265,7.01716
-476,414,-8.71307,-7.62817,0.000291296,0.00530914,-0.00412274,0.00762636,-0.00202593,-1.05874,0.00587712,0.0238879,748,610,-8.71306,7.62818
-469,414,-8.77136,-8.11786,0.000351354,0.00403422,-0.00330986,0.00598041,-0.00159483,-1.03925,0.00461141,0.0147078,755,610,-8.77138,8.11786
-462,414,-8.75897,-8.69897,0.00052171,0.00300729,-0.00261789,0.00466241,-0.00113341,-1.00701,0.00354696,0.0220618,762,610,-8.75897,8.69898
-455,414,-8.76172,-9.276,0.000544866,0.0021066,-0.0019166,0.00339529,-0.000743832,-0.978843,0.00254793,0.0237437,769,610,-8.76173,9.27601
-448,414,-8.76526,-9.82574,0.000435487,0.00118626,-0.00111491,0.00198728,-0.000365534,-0.947786,0.00146201,0.0253656,776,610,-8.76529,9.82577
-441,414,-8.78979,-10.3565,9.96019e-05,0.000356037,-0.000211136,0.000474838,-1.91994e-05,-1.05827,0.000323149,0.0192194,783,610,-8.7898,10.3565
-434,414,-8.83093,-10.8973,-0.000401979,-0.000291621,0.000706865,0.000362216,-0.00105582,0.82435,0.00085072,0.0106679,790,610,-8.83096,10.8973
-427,414,-8.83258,-11.4503,-0.00106378,-0.00103564,0.00169954,0.000649893,-0.00274931,0.789537,0.00208357,0.0107648,797,610,-8.83258,11.4503
-420,414,-8.841,-11.9728,-0.00189662,-0.00172388,0.00276528,0.000956373,-0.00457688,0.80101,0.00341498,0.0100316,804,610,-8.84101,11.9728
-413,414,-8.86267,-12.5014,-0.00297163,-0.00234534,0.0039473,0.00130121,-0.00661818,0.824981,0.00490375,0.0110109,811,610,-8.86268,12.5014
-406,414,-8.85156,-13.1315,-0.00438406,-0.00304131,0.00523751,0.00156768,-0.00899305,0.849144,0.00658047,0.025254,818,610,-8.85158,13.1315
-399,414,-8.81836,-13.8029,0,0,0,0,0,0,0,-1,825,610,-8.81836,13.8029
-392,414,-8.90863,-14.1695,0,0,0,0,0,0,0,-1,832,610,-8.90862,14.1695
-385,414,-8.14691,-13.0653,0,0,0,0,0,0,0,-1,839,610,-8.14692,13.0653
-378,414,-8.04907,-11.3331,0,0,0,0,0,0,0,-1,846,610,-8.04905,11.3331
-371,414,-5.20886,-8.05151,0,0,0,0,0,0,0,-1,853,610,-5.20887,8.05153
-364,414,-6.76282,-6.58759,0,0,0,0,0,0,0,-1,860,610,-6.7628,6.58756
-357,414,-9.08685,-8.86188,0,0,0,0,0,0,0,-1,867,610,-9.08688,8.86187
-350,414,-6.4502,-2.41821,0,0,0,0,0,0,0,-1,874,610,-6.45021,2.41822
-343,414,-6.80249,-2.32117,0,0,0,0,0,0,0,-1,881,610,-6.80252,2.32116
-336,414,-7.11017,-2.52026,0,0,0,0,0,0,0,-1,888,610,-7.11016,2.52026
-329,414,-7.59747,-2.70313,0,0,0,0,0,0,0,-1,895,610,-7.59747,2.70315
-322,414,-4.42236,-1.29163,0,0,0,0,0,0,0,-1,902,610,-4.42238,1.2916
-315,414,0,0,0,0,0,0,0,0,0,-1,909,610,0,0
-308,414,0,0,0,0,0,0,0,0,0,-1,916,610,0,0
-301,414,0,0,0,0,0,0,0,0,0,-1,923,610,0,0
-294,414,0,0,0,0,0,0,0,0,0,-1,930,610,0,0
-287,414,0,0,0,0,0,0,0,0,0,-1,937,610,0,0
-280,414,0,0,0,0,0,0,0,0,0,-1,944,610,0,0
-273,414,0,0,0,0,0,0,0,0,0,-1,951,610,0,0
-266,414,0,0,0,0,0,0,0,0,0,-1,958,610,0,0
-259,414,0,0,0,0,0,0,0,0,0,-1,965,610,0,0
-252,414,0,0,0,0,0,0,0,0,0,-1,972,610,0,0
-245,414,0,0,0,0,0,0,0,0,0,-1,979,610,0,0
-238,414,0,0,0,0,0,0,0,0,0,-1,986,610,0,0
-231,414,0,0,0,0,0,0,0,0,0,-1,993,610,0,0
-224,414,0,0,0,0,0,0,0,0,0,-1,1000,610,0,0
-217,414,0,0,0,0,0,0,0,0,0,-1,1007,610,0,0
-210,414,0,0,0,0,0,0,0,0,0,-1,1014,610,0,0
-203,414,0,0,0,0,0,0,0,0,0,-1,1021,610,0,0
-196,414,0,0,0,0,0,0,0,0,0,-1,1028,610,0,0
-189,414,0,0,0,0,0,0,0,0,0,-1,1035,610,0,0
-182,414,0,0,0,0,0,0,0,0,0,-1,1042,610,0,0
-175,414,0,0,0,0,0,0,0,0,0,-1,1049,610,0,0
-168,414,0,0,0,0,0,0,0,0,0,-1,1056,610,0,0
-161,414,0,0,0,0,0,0,0,0,0,-1,1063,610,0,0
-154,414,0,0,0,0,0,0,0,0,0,-1,1070,610,0,0
-147,414,0,0,0,0,0,0,0,0,0,-1,1077,610,0,0
-140,414,0,0,0,0,0,0,0,0,0,-1,1084,610,0,0
-133,414,0,0,0,0,0,0,0,0,0,-1,1091,610,0,0
-126,414,0,0,0,0,0,0,0,0,0,-1,1098,610,0,0
-119,414,0,0,0,0,0,0,0,0,0,-1,1105,610,0,0
-112,414,0,0,0,0,0,0,0,0,0,-1,1112,610,0,0
-105,414,0,0,0,0,0,0,0,0,0,-1,1119,610,0,0
-98,414,0,0,0,0,0,0,0,0,0,-1,1126,610,0,0
-91,414,0,0,0,0,0,0,0,0,0,-1,1133,610,0,0
-84,414,0,0,0,0,0,0,0,0,0,-1,1140,610,0,0
-77,414,0,0,0,0,0,0,0,0,0,-1,1147,610,0,0
-70,414,0,0,0,0,0,0,0,0,0,-1,1154,610,0,0
-63,414,0,0,0,0,0,0,0,0,0,-1,1161,610,0,0
-56,414,0,0,0,0,0,0,0,0,0,-1,1168,610,0,0
-49,414,0,0,0,0,0,0,0,0,0,-1,1175,610,0,0
-42,414,0,0,0,0,0,0,0,0,0,-1,1182,610,0,0
-35,414,0,0,0,0,0,0,0,0,0,-1,1189,610,0,0
-28,414,0,0,0,0,0,0,0,0,0,-1,1196,610,0,0
-21,414,0,0,0,0,0,0,0,0,0,-1,1203,610,0,0
-14,414,0,0,0,0,0,0,0,0,0,-1,1210,610,0,0
-7,414,0,0,0,0,0,0,0,0,0,-1,1217,610,0,0
0,414,0,0,0,0,0,0,0,0,0,-1,1224,610,0,0
7,414,0,0,0,0,0,0,0,0,0,-1,1231,610,0,0
14,414,0,0,0,0,0,0,0,0,0,-1,1238,610,0,0
21,414,0,0,0,0,0,0,0,0,0,-1,1245,610,0,0
28,414,0,0,0,0,0,0,0,0,0,-1,1252,610,0,0
35,414,0,0,0,0,0,0,0,0,0,-1,1259,610,0,0
42,414,0,0,0,0,0,0,0,0,0,-1,1266,610,0,0
49,414,0,0,0,0,0,0,0,0,0,-1,1273,610,0,0
56,414,0,0,0,0,0,0,0,0,0,-1,1280,610,0,0
63,414,0,0,0,0,0,0,0,0,0,-1,1287,610,0,0
70,414,0,0,0,0,0,0,0,0,0,-1,1294,610,0,0
77,414,0,0,0,0,0,0,0,0,0,-1,1301,610,0,0
84,414,0,0,0,0,0,0,0,0,0,-1,1308,610,0,0
91,414,0,0,0,0,0,0,0,0,0,-1,1315,610,0,0
98,414,0,0,0,0,0,0,0,0,0,-1,1322,610,0,0
105,414,0,0,0,0,0,0,0,0,0,-1,1329,610,0,0
112,414,0,0,0,0,0,0,0,0,0,-1,1336,610,0,0
119,414,0,0,0,0,0,0,0,0,0,-1,1343,610,0,0
126,414,0,0,0,0,0,0,0,0,0,-1,1350,610,0,0
133,414,0,0,0,0,0,0,0,0,0,-1,1357,610,0,0
140,414,0,0,0,0,0,0,0,0,0,-1,1364,610,0,0
147,414,0,0,0,0,0,0,0,0,0,-1,1371,610,0,0
154,414,0,0,0,0,0,0,0,0,0,-1,1378,610,0,0
161,414,0,0,0,0,0,0,0,0,0,-1,1385,610,0,0
168,414,0,0,0,0,0,0,0,0,0,-1,1392,610,0,0
175,414,0,0,0,0,0,0,0,0,0,-1,1399,610,0,0
182,414,0,0,0,0,0,0,0,0,0,-1,1406,610,0,0
189,414,0,0,0,0,0,0,0,0,0,-1,1413,610,0,0
196,414,0,0,0,0,0,0,0,0,0,-1,1420,610,0,0
203,414,0,0,0,0,0,0,0,0,0,-1,1427,610,0,0
210,414,0,0,0,0,0,0,0,0,0,-1,1434,610,0,0
217,414,0,0,0,0,0,0,0,0,0,-1,1441,610,0,0
224,414,0,0,0,0,0,0,0,0,0,-1,1448,610,0,0
231,414,0,0,0,0,0,0,0,0,0,-1,1455,610,0,0
238,414,0,0,0,0,0,0,0,0,0,-1,1462,610,0,0
245,414,0,0,0,0,0,0,0,0,0,-1,1469,610,0,0
252,414,0,0,0,0,0,0,0,0,0,-1,1476,610,0,0
259,414,0,0,0,0,0,0,0,0,0,-1,1483,610,0,0
266,414,0,0,0,0,0,0,0,0,0,-1,1490,610,0,0
273,414,0,0,0,0,0,0,0,0,0,-1,1497,610,0,0
280,414,0,0,0,0,0,0,0,0,0,-1,1504,610,0,0
287,414,0,0,0,0,0,0,0,0,0,-1,1511,610,0,0
294,414,0,0,0,0,0,0,0,0,0,-1,1518,610,0,0
301,414,0,0,0,0,0,0,0,0,0,-1,1525,610,0,0
308,414,0,0,0,0,0,0,0,0,0,-1,1532,610,0,0
315,414,0,0,0,0,0,0,0,0,0,-1,1539,610,0,0
322,414,0,0,0,0,0,0,0,0,0,-1,1546,610,0,0
329,414,0,0,0,0,0,0,0,0,0,-1,1553,610,0,0
336,414,0,0,0,0,0,0,0,0,0,-1,1560,610,0,0
343,414,0,0,0,0,0,0,0,0,0,-1,1567,610,0,0
350,414,0,0,0,0,0,0,0,0,0,-1,1574,610,0,0
357,414,0,0,0,0,0,0,0,0,0,-1,1581,610,0,0
364,414,0,0,0,0,0,0,0,0,0,-1,1588,610,0,0
371,414,0,0,0,0,0,0,0,0,0,-1,1595,610,0,0
378,414,0,0,0,0,0,0,0,0,0,-1,1602,610,0,0
385,414,0,0,0,0,0,0,0,0,0,-1,1609,610,0,0
392,414,0,0,0,0,0,0,0,0,0,-1,1616,610,0,0
399,414,0,0,0,0,0,0,0,0,0,-1,1623,610,0,0
406,414,0,0,0,0,0,0,0,0,0,-1,1630,610,0,0
413,414,0,0,0,0,0,0,0,0,0,-1,1637,610,0,0
420,414,0,0,0,0,0,0,0,0,0,-1,1644,610,0,0
427,414,0,0,0,0,0,0,0,0,0,-1,1651,610,0,0
434,414,0,0,0,0,0,0,0,0,0,-1,1658,610,0,0
441,414,7.84375,0.584412,0,0,0,0,0,0,0,-1,1665,610,7.84379,-0.584394
448,414,7.40808,1.25446,0,0,0,0,0,0,0,-1,1672,610,7.40807,-1.25446
455,414,6.3512,1.73846,0,0,0,0,0,0,0,-1,1679,610,6.3512,-1.73847
462,414,8.18103,3.22113,0,0,0,0,0,0,0,-1,1686,610,8.18108,-3.22112
469,414,8.38513,2.49579,0,0,0,0,0,0,0,-1,1693,610,8.38516,-2.49576
476,414,8.64099,1.71161,0,0,0,0,0,0,0,-1,1700,610,8.64097,-1.71164
483,414,8.62744,0.687622,0,0,0,0,0,0,0,-1,1707,610,8.62749,-0.687615
490,414,8.38831,-0.0302734,0,0,0,0,0,0,0,-1,1714,610,8.38835,0.0302913
497,414,4.71094,-0.110046,0,0,0,0,0,0,0,-1,1721,610,4.71089,0.110024
504,414,7.19568,-1.43835,0,0,0,0,0,0,0,-1,1728,610,7.19563,1.43836
511,414,5.94153,-1.28772,0,0,0,0,0,0,0,-1,1735,610,5.94151,1.28769
518,414,4.53381,-0.0996704,0,0,0,0,0,0,0,-1,1742,610,4.53378,0.0996819
525,414,6.18811,-1.64056,0,0,0,0,0,0,0,-1,1749,610,6.18814,1.64055
532,414,18.8116,-11.8754,0,0,0,0,0,0,0,-1,1756,610,18.8117,11.8753
539,414,18.9231,-11.1695,0.00577365,0.00260318,0.00250628,0.00715395,0.00122288,0.503409,0.00441845,0.0473623,1763,610,18.923,11.1695
546,414,18.948,-10.4985,0.00494676,0.00209966,0.00206478,0.00603116,0.00101526,0.483595,0.00372871,0.0149173,1770,610,18.948,10.4985
553,414,18.9479,-9.93384,0.00399653,0.00157394,0.00162791,0.00481436,0.000756114,0.465549,0.00298958,0.0130284,1777,610,18.9479,9.93386
560,414,18.9624,-9.34161,0.00304469,0.00114058,0.00123237,0.00364993,0.000535346,0.456512,0.00227592,0.0145053,1784,610,18.9624,9.34161
567,414,18.9551,-8.75525,0.00216318,0.000838981,0.000926659,0.00263997,0.000362189,0.475202,0.00165253,0.0241416,1791,610,18.955,8.75524
574,414,18.887,-8.21692,0.00142611,0.000648959,0.000743582,0.00187653,0.000198544,0.544627,0.00119037,0.0212243,1798,610,18.887,8.21692
581,414,18.886,-7.64313,0.000833365,0.000616488,0.000692344,0.00142571,2.41422e-05,0.707717,0.00094253,0.0164897,1805,610,18.886,7.6431
588,414,18.822,-7.0929,0.000395231,0.00081072,0.000763027,0.00139378,-0.000187827,0.918308,0.000997705,0.0160568,1812,610,18.8221,7.09288
595,414,18.8051,-6.50214,0.000188086,0.00122582,0.00102469,0.00185552,-0.000441614,1.01976,0.0014075,0.0217666,1819,610,18.805,6.50212
602,414,18.7886,-5.92328,0.000221263,0.00187592,0.00145901,0.00272585,-0.000628668,1.04332,0.00205903,0.0231106,1826,610,18.7886,5.92329
609,414,18.8088,-5.33698,0,0,0,0,0,0,0,-1,1833,610,18.8089,5.337
616,414,19.0883,-4.54883,0,0,0,0,0,0,0,-1,1840,610,19.0882,4.54881
623,414,9.6969,0.0378418,0,0,0,0,0,0,0,-1,1847,610,9.69685,-0.0378644
630,414,5.47144,0.499329,0,0,0,0,0,0,0,-1,1854,610,5.47142,-0.499303
637,414,8.36707,4.16278,0,0,0,0,0,0,0,-1,1861,610,8.36709,-4.16278
644,414,5.87073,1.51422,0,0,0,0,0,0,0,-1,1868,610,5.87076,-1.51424
651,414,3.6377,0.820557,0,0,0,0,0,0,0,-1,1875,610,3.6377,-0.820543
658,414,2.29761,3.87323,0,0,0,0,0,0,0,-1,1882,610,2.29758,-3.87325
665,414,0,0,0,0,0,0,0,0,0,-1,1889,610,0,0
672,414,0,0,0,0,0,0,0,0,0,-1,1896,610,0,0
679,414,0,0,0,0,0,0,0,0,0,-1,1903,610,0,0
686,414,0,0,0,0,0,0,0,0,0,-1,1910,610,0,0
693,414,0,0,0,0,0,0,0,0,0,-1,1917,610,0,0
700,414,0,0,0,0,0,0,0,0,0,-1,1924,610,0,0
707,414,0,0,0,0,0,0,0,0,0,-1,1931,610,0,0
714,414,0,0,0,0,0,0,0,0,0,-1,1938,610,0,0
721,414,0,0,0,0,0,0,0,0,0,-1,1945,610,0,0
728,414,0,0,0,0,0,0,0,0,0,-1,1952,610,0,0
735,414,0,0,0,0,0,0,0,0,0,-1,1959,610,0,0
742,414,0,0,0,0,0,0,0,0,0,-1,1966,610,0,0
749,414,0,0,0,0,0,0,0,0,0,-1,1973,610,0,0
756,414,0,0,0,0,0,0,0,0,0,-1,1980,610,0,0
763,414,0,0,0,0,0,0,0,0,0,-1,1987,610,0,0
770,414,0,0,0,0,0,0,0,0,0,-1,1994,610,0,0
777,414,0,0,0,0,0,0,0,0,0,-1,2001,610,0,0
784,414,0,0,0,0,0,0,0,0,0,-1,2008,610,0,0
791,414,0,0,0,0,0,0,0,0,0,-1,2015,610,0,0
798,414,0,0,0,0,0,0,0,0,0,-1,2022,610,0,0
805,414,0,0,0,0,0,0,0,0,0,-1,2029,610,0,0
812,414,0,0,0,0,0,0,0,0,0,-1,2036,610,0,0
-700,407,0,0,0,0,0,0,0,0,0,-1,524,617,0,0
-693,407,0,0,0,0,0,0,0,0,0,-1,531,617,0,0
-686,407,0,0,0,0,0,0,0,0,0,-1,538,617,0,0
-679,407,0,0,0,0,0,0,0,0,0,-1,545,617,0,0
-672,407,0,0,0,0,0,0,0,0,0,-1,552,617,0,0
-665,407,0,0,0,0,0,0,0,0,0,-1,559,617,0,0
-658,407,0,0,0,0,0,0,0,0,0,-1,566,617,0,0
-651,407,0,0,0,0,0,0,0,0,0,-1,573,617,0,0
-644,407,0,0,0,0,0,0,0,0,0,-1,580,617,0,0
-637,407,0,0,0,0,0,0,0,0,0,-1,587,617,0,0
-630,407,0,0,0,0,0,0,0,0,0,-1,594,617,0,0
-623,407,0,0,0,0,0,0,0,0,0,-1,601,617,0,0
-616,407,0,0,0,0,0,0,0,0,0,-1,608,617,0,0
-609,407,0,0,0,0,0,0,0,0,0,-1,615,617,0,0
-602,407,0,0,0,0,0,0,0,0,0,-1,622,617,0,0
-595,407,0,0,0,0,0,0,0,0,0,-1,629,617,0,0
-588,407,0,0,0,0,0,0,0,0,0,-1,636,617,0,0
-581,407,0,0,0,0,0,0,0,0,0,-1,643,617,0,0
-574,407,0,0,0,0,0,0,0,0,0,-1,650,617,0,0
-567,407,0,0,0,0,0,0,0,0,0,-1,657,617,0,0
-560,407,0,0,0,0,0,0,0,0,0,-1,664,617,0,0
-553,407,0,0,0,0,0,0,0,0,0,-1,671,617,0,0
-546,407,-8.54517,-0.658142,0,0,0,0,0,0,0,-1,678,617,-8.54515,0.658112
-539,407,-6.09442,-1.01154,0,0,0,0,0,0,0,-1,685,617,-6.09441,1.01155
-532,407,-7.75665,1.62152,0,0,0,0,0,0,0,-1,692,617,-7.75667,-1.62154
-525,407,-3.78247,-2.67639,0,0,0,0,0,0,0,-1,699,617,-3.78246,2.67638
-518,407,-5.013,-5.87323,0,0,0,0,0,0,0,-1,706,617,-5.013,5.87324
-511,407,-9.42743,-4.94189,0,0,0,0,0,0,0,-1,713,617,-9.42745,4.94191
-504,407,-9.42578,-5.44543,0,0,0,0,0,0,0,-1,720,617,-9.42581,5.44545
-497,407,-9.32892,-5.96295,0,0,0,0,0,0,0,-1,727,617,-9.32894,5.96296
-490,407,-9.28723,-6.45801,0.000994921,0.00784978,-0.00544842,0.0108592,-0.00201446,-1.06616,0.00799597,0.0497996,734,617,-9.28722,6.45801
-483,407,-9.22882,-7.02612,0.000667446,0.00584917,-0.00424495,0.00823146,-0.00171484,-1.05939,0.0061396,0.0312584,741,617,-9.22881,7.02615
-476,407,-9.2572,-7.54242,0.00057441,0.00438172,-0.00334582,0.00632754,-0.00137141,-1.04404,0.00474206,0.0160794,748,617,-9.2572,7.54239
-469,407,-9.29022,-8.07104,0.000660609,0.00322976,-0.00265246,0.00489233,-0.00100196,-1.0109,0.00364178,0.0133929,755,617,-9.29019,8.07108
-462,407,-9.33032,-8.64154,0.000774487,0.00230195,-0.00204974,0.00372561,-0.000649181,-0.96373,0.00272603,0.020368,762,617,-9.33035,8.64154
-455,407,-9.3335,-9.22235,0.00067413,0.00145424,-0.0013434,0.00246306,-0.000334694,-0.926688,0.00176422,0.0211697,769,617,-9.33349,9.22234
-448,407,-9.30658,-9.78528,0.000503438,0.000616905,-0.000594249,0.00115712,-3.67798e-05,-0.832989,0.000783963,0.0195585,776,617,-9.30659,9.78528
-441,407,-9.336,-10.3015,6.25342e-05,-0.000148496,0.000302221,0.00027713,-0.000363091,0.617447,0.000370741,0.0157563,783,617,-9.33602,10.3015
-434,407,-9.37866,-10.8486,-0.000584703,-0.000787321,0.00126227,0.000580312,-0.00195234,0.745354,0.00153208,0.0113858,790,617,-9.37864,10.8486
-427,407,-9.38214,-11.4066,-0.00147734,-0.00155104,0.00237365,0.000859746,-0.00388812,0.777636,0.00292115,0.0109759,797,617,-9.38213,11.4066
-420,407,-9.36975,-11.949,-0.00269654,-0.00233985,0.00369672,0.00118282,-0.00621921,0.809501,0.00459148,0.0095461,804,617,-9.36978,11.949
-413,407,-9.38068,-12.4659,-0.00427339,-0.00301171,0.00517252,0.00156829,-0.0088534,0.846078,0.00648852,0.0128551,811,617,-9.38066,12.4659
-406,407,-9.44928,-12.8423,-0.00645604,-0.00392363,0.00693236,0.00185721,-0.0122369,0.875728,0.00884225,0.0388903,818,617,-9.44925,12.8423
-399,407,-9.28827,-13.2673,0,0,0,0,0,0,0,-1,825,617,-9.28825,13.2673
-392,407,-8.33612,-12.195,0,0,0,0,0,0,0,-1,832,617,-8.33611,12.195
-385,407,-7.65765,-10.7744,0,0,0,0,0,0,0,-1,839,617,-7.65767,10.7744
-378,407,-6.08655,-7.42291,0,0,0,0,0,0,0,-1,846,617,-6.08652,7.42292
-371,407,-7.4007,-5.79449,0,0,0,0,0,0,0,-1,853,617,-7.40072,5.79447
-364,407,-10.0638,-6.6228,0,0,0,0,0,0,0,-1,860,617,-10.0639,6.62279
-357,407,-6.64447,-1.83337,0,0,0,0,0,0,0,-1,867,617,-6.64446,1.8334
-350,407,-7.03351,-1.77551,0,0,0,0,0,0,0,-1,874,617,-7.03349,1.77551
-343,407,-7.40967,-1.95026,0,0,0,0,0,0,0,-1,881,617,-7.40969,1.95026
-336,407,-8.10229,-2.40662,0,0,0,0,0,0,0,-1,888,617,-8.10229,2.40664
-329,407,-8.81232,-2.76331,0,0,0,0,0,0,0,-1,895,617,-8.81235,2.76331
-322,407,0,0,0,0,0,0,0,0,0,-1,902,617,0,0
-315,407,0,0,0,0,0,0,0,0,0,-1,909,617,0,0
-308,407,0,0,0,0,0,0,0,0,0,-1,916,617,0,0
-301,407,0,0,0,0,0,0,0,0,0,-1,923,617,0,0
-294,407,0,0,0,0,0,0,0,0,0,-1,930,617,0,0
-287,407,0,0,0,0,0,0,0,0,0,-1,937,617,0,0
-280,407,0,0,0,0,0,0,0,0,0,-1,944,617,0,0
-273,407,0,0,0,0,0,0,0,0,0,-1,951,617,0,0
-266,407,0,0,0,0,0,0,0,0,0,-1,958,617,0,0
-259,407,0,0,0,0,0,0,0,0,0,-1,965,617,0,0
-252,407,0,0,0,0,0,0,0,0,0,-1,972,617,0,0
-245,407,0,0,0,0,0,0,0,0,0,-1,979,617,0,0
-238,407,0,0,0,0,0,0,0,0,0,-1,986,617,0,0
-231,407,0,0,0,0,0,0,0,0,0,-1,993,617,0,0
-224,407,0,0,0,0,0,0,0,0,0,-1,1000,617,0,0
-217,407,0,0,0,0,0,0,0,0,0,-1,1007,617,0,0
-210,407,0,0,0,0,0,0,0,0,0,-1,1014,617,0,0
-203,407,0,0,0,0,0,0,0,0,0,-1,1021,617,0,0
-196,407,0,0,0,0,0,0,0,0,0,-1,1028,617,0,0
-189,407,0,0,0,0,0,0,0,0,0,-1,1035,617,0,0
-182,407,0,0,0,0,0,0,0,0,0,-1,1042,617,0,0
-175,407,0,0,0,0,0,0,0,0,0,-1,1049,617,0,0
-168,407,0,0,0,0,0,0,0,0,0,-1,1056,617,0,0
-161,407,0,0,0,0,0,0,0,0,0,-1,1063,617,0,0
-154,407,0,0,0,0,0,0,0,0,0,-1,1070,617,0,0
-147,407,0,0,0,0,0,0,0,0,0,-1,1077,617,0,0
-140,407,0,0,0,0,0,0,0,0,0,-1,1084,617,0,0
-133,407,0,0,0,0,0,0,0,0,0,-1,1091,617,0,0
-126,407,0,0,0,0,0,0,0,0,0,-1,1098,617,0,0
-119,407,0,0,0,0,0,0,0,0,0,-1,1105,617,0,0
-112,407,0,0,0,0,0,0,0,0,0,-1,1112,617,0,0
-105,407,0,0,0,0,0,0,0,0,0,-1,1119,617,0,0
-98,407,0,0,0,0,0,0,0,0,0,-1,1126,617,0,0
-91,407,0,0,0,0,0,0,0,0,0,-1,1133,617,0,0
-84,407,0,0,0,0,0,0,0,0,0,-1,1140,617,0,0
-77,407,0,0,0,0,0,0,0,0,0,-1,1147,617,0,0
-70,407,0,0,0,0,0,0,0,0,0,-1,1154,617,0,0
-63,407,0,0,0,0,0,0,0,0,0,-1,1161,617,0,0
-56,407,0,0,0,0,0,0,0,0,0,-1,1168,617,0,0
-49,407,0,0,0,0,0,0,0,0,0,-1,1175,617,0,0
-42,407,0,0,0,0,0,0,0,0,0,-1,1182,617,0,0
-35,407,0,0,0,0,0,0,0,0,0,-1,1189,617,0,0
-28,407,0,0,0,0,0,0,0,0,0,-1,1196,617,0,0
-21,407,0,0,0,0,0,0,0,0,0,-1,1203,617,0,0
-14,407,0,0,0,0,0,0,0,0,0,-1,1210,617,0,0
-7,407,0,0,0,0,0,0,0,0,0,-1,1217,617,0,0
0,407,0,0,0,0,0,0,0,0,0,-1,1224,617,0,0
7,407,0,0,0,0,0,0,0,0,0,-1,1231,617,0,0
14,407,0,0,0,0,0,0,0,0,0,-1,1238,617,0,0
21,407,0,0,0,0,0,0,0,0,0,-1,1245,617,0,0
28,407,0,0,0,0,0,0,0,0,0,-1,1252,617,0,0
35,407,0,0,0,0,0,0,0,0,0,-1,1259,617,0,0
42,407,0,0,0,0,0,0,0,0,0,-1,1266,617,0,0
49,407,0,0,0,0,0,0,0,0,0,-1,1273,617,0,0
56,407,0,0,0,0,0,0,0,0,0,-1,1280,617,0,0
63,407,0,0,0,0,0,0,0,0,0,-1,1287,617,0,0
70,407,0,0,0,0,0,0,0,0,0,-1,1294,617,0,0
77,407,0,0,0,0,0,0,0,0,0,-1,1301,617,0,0
84,407,0,0,0,0,0,0,0,0,0,-1,1308,617,0,0
91,407,0,0,0,0,0,0,0,0,0,-1,1315,617,0,0
98,407,0,0,0,0,0,0,0,0,0,-1,1322,617,0,0
105,407,0,0,0,0,0,0,0,0,0,-1,1329,617,0,0
112,407,0,0,0,0,0,0,0,0,0,-1,1336,617,0,0
119,407,0,0,0,0,0,0,0,0,0,-1,1343,617,0,0
126,407,0,0,0,0,0,0,0,0,0,-1,1350,617,0,0
133,407,0,0,0,0,0,0,0,0,0,-1,1357,617,0,0
140,407,0,0,0,0,0,0,0,0,0,-1,1364,617,0,0
147,407,0,0,0,0,0,0,0,0,0,-1,1371,617,0,0
154,407,0,0,0,0,0,0,0,0,0,-1,1378,617,0,0
161,407,0,0,0,0,0,0,0,0,0,-1,1385,617,0,0
168,407,0,0,0,0,0,0,0,0,0,-1,1392,617,0,0
175,407,0,0,0,0,0,0,0,0,0,-1,1399,617,0,0
182,407,0,0,0,0,0,0,0,0,0,-1,1406,617,0,0
189,407,0,0,0,0,0,0,0,0,0,-1,1413,617,0,0
196,407,0,0,0,0,0,0,0,0,0,-1,1420,617,0,0
203,407,0,0,0,0,0,0,0,0,0,-1,1427,617,0,0
210,407,0,0,0,0,0,0,0,0,0,-1,1434,617,0,0
217,407,0,0,0,0,0,0,0,0,0,-1,1441,617,0,0
224,407,0,0,0,0,0,0,0,0,0,-1,1448,617,0,0
231,407,0,0,0,0,0,0,0,0,0,-1,1455,617,0,0
238,407,0,0,0,0,0,0,0,0,0,-1,1462,617,0,0
245,407,0,0,0,0,0,0,0,0,0,-1,1469,617,0,0
252,407,0,0,0,0,0,0,0,0,0,-1,1476,617,0,0
259,407,0,0,0,0,0,0,0,0,0,-1,1483,617,0,0
266,407,0,0,0,0,0,0,0,0,0,-1,1490,617,0,0
273,407,0,0,0,0,0,0,0,0,0,-1,1497,617,0,0
280,407,0,0,0,0,0,0,0,0,0,-1,1504,617,0,0
287,407,0,0,0,0,0,0,0,0,0,-1,1511,617,0,0
294,407,0,0,0,0,0,0,0,0,0,-1,1518,617,0,0
301,407,0,0,0,0,0,0,0,0,0,-1,1525,617,0,0
308,407,0,0,0,0,0,0,0,0,0,-1,1532,617,0,0
315,407,0,0,0,0,0,0,0,0,0,-1,1539,617,0,0
322,407,0,0,0,0,0,0,0,0,0,-1,1546,617,0,0
329,407,0,0,0,0,0,0,0,0,0,-1,1553,617,0,0
336,407,0,0,0,0,0,0,0,0,0,-1,1560,617,0,0
343,407,0,0,0,0,0,0,0,0,0,-1,1567,617,0,0
350,407,0,0,0,0,0,0,0,0,0,-1,1574,617,0,0
357,407,0,0,0,0,0,0,0,0,0,-1,1581,617,0,0
364,407,0,0,0,0,0,0,0,0,0,-1,1588,617,0,0
371,407,0,0,0,0,0,0,0,0,0,-1,1595,617,0,0
378,407,0,0,0,0,0,0,0,0,0,-1,1602,617,0,0
385,407,0,0,0,0,0,0,0,0,0,-1,1609,617,0,0
392,407,0,0,0,0,0,0,0,0,0,-1,1616,617,0,0
399,407,0,0,0,0,0,0,0,0,0,-1,1623,617,0,0
406,407,0,0,0,0,0,0,0,0,0,-1,1630,617,0,0
413,407,0,0,0,0,0,0,0,0,0,-1,1637,617,0,0
420,407,0,0,0,0,0,0,0,0,0,-1,1644,617,0,0
427,407,0,0,0,0,0,0,0,0,0,-1,1651,617,0,0
434,407,0,0,0,0,0,0,0,0,0,-1,1658,617,0,0
441,407,0,0,0,0,0,0,0,0,0,-1,1665,617,0,0
448,407,7.02893,2.13843,0,0,0,0,0,0,0,-1,1672,617,7.02899,-2.13844
455,407,7.55237,2.29242,0,0,0,0,0,0,0,-1,1679,617,7.55236,-2.29244
462,407,8.2926,2.46173,0,0,0,0,0,0,0,-1,1686,617,8.29261,-2.46174
469,407,8.71509,2.22681,0,0,0,0,0,0,0,-1,1693,617,8.71511,-2.22681
476,407,8.89917,1.47766,0,0,0,0,0,0,0,-1,1700,617,8.89914,-1.47768
483,407,9.02612,0.682983,0,0,0,0,0,0,0,-1,1707,617,9.02608,-0.683004
490,407,9.12659,0.000671387,0,0,0,0,0,0,0,-1,1714,617,9.12653,-0.000675931
497,407,7.76819,0.855835,0,0,0,0,0,0,0,-1,1721,617,7.7682,-0.855865
504,407,4.69336,0.160706,0,0,0,0,0,0,0,-1,1728,617,4.69337,-0.1607
511,407,4.07104,-0.00140381,0,0,0,0,0,0,0,-1,1735,617,4.07109,0.00141425
518,407,6.09534,1.9411,0,0,0,0,0,0,0,-1,1742,617,6.09532,-1.94113
525,407,5.72534,-1.35986,0,0,0,0,0,0,0,-1,1749,617,5.72529,1.35988
532,407,18.5767,-10.6388,0,0,0,0,0,0,0,-1,1756,617,18.5766,10.6388
539,407,19.3947,-11.2347,0,0,0,0,0,0,0,-1,1763,617,19.3946,11.2347
546,407,19.506,-10.4774,0.00616311,0.00248283,0.00257774,0.00749012,0.00115582,0.475415,0.00465621,0.0206548,1770,617,19.5059,10.4774
553,407,19.4886,-9.92706,0.00505983,0.00184899,0.00200708,0.00602457,0.000884243,0.448064,0.00375649,0.0165886,1777,617,19.4886,9.92707
560,407,19.5282,-9.31696,0.0039885,0.00133869,0.00149915,0.0046643,0.000662892,0.42351,0.00291382,0.0158708,1784,617,19.5282,9.31697
567,407,19.5355,-8.74152,0.00298749,0.000962064,0.00110281,0.00347203,0.000477524,0.413979,0.00217307,0.0281061,1791,617,19.5355,8.74154
574,407,19.4669,-8.2074,0.00217685,0.00076726,0.000869252,0.00259113,0.000352977,0.44475,0.00162261,0.026119,1798,617,19.4669,8.20737
581,407,19.4553,-7.65015,0.00153617,0.000762986,0.000789605,0.00202874,0.000270413,0.557752,0.00127197,0.0180953,1805,617,19.4553,7.65015
588,407,19.3966,-7.08685,0.00106489,0.000982704,0.000834057,0.00185887,0.00018873,0.760783,0.00118137,0.0124384,1812,617,19.3966,7.08683
595,407,19.4174,-6.50616,0.000869864,0.00138486,0.00107332,0.00223114,2.35912e-05,0.903128,0.00147962,0.0235355,1819,617,19.4174,6.50615
602,407,19.4225,-5.89038,0.000986201,0.00205134,0.00152983,0.00313865,-0.000101108,0.9529,0.00212694,0.0206499,1826,617,19.4225,5.8904
609,407,19.342,-5.27814,0.00150733,0.00300145,0.0022266,0.00460297,-9.41935e-05,0.947255,0.00310052,0.016797,1833,617,19.342,5.27813
616,407,19.3925,-4.6037,0.00245801,0.00435269,0.00319575,0.00673855,7.2143e-05,0.929491,0.00446852,0.0284174,1840,617,19.3925,4.60371
623,407,19.6744,-3.81964,0,0,0,0,0,0,0,-1,1847,617,19.6744,3.81961
630,407,7.06177,0.814575,0,0,0,0,0,0,0,-1,1854,617,7.06178,-0.814579
637,407,8.90479,0.219421,0,0,0,0,0,0,0,-1,1861,617,8.90474,-0.219401
644,407,5.09766,2.27747,0,0,0,0,0,0,0,-1,1868,617,5.09764,-2.27746
651,407,7.37524,0.0513916,0,0,0,0,0,0,0,-1,1875,617,7.3752,-0.0513923
658,407,3.76685,0.594177,0,0,0,0,0,0,0,-1,1882,617,3.76683,-0.594184
665,407,5.76123,0.375061,0,0,0,0,0,0,0,-1,1889,617,5.76118,-0.37509
672,407,0,0,0,0,0,0,0,0,0,-1,1896,617,0,0
679,407,0,0,0,0,0,0,0,0,0,-1,1903,617,0,0
686,407,0,0,0,0,0,0,0,0,0,-1,1910,617,0,0
693,407,0,0,0,0,0,0,0,0,0,-1,1917,617,0,0
700,407,0,0,0,0,0,0,0,0,0,-1,1924,617,0,0
707,407,0,0,0,0,0,0,0,0,0,-1,1931,617,0,0
714,407,0,0,0,0,0,0,0,0,0,-1,1938,617,0,0
721,407,0,0,0,0,0,0,0,0,0,-1,1945,617,0,0
728,407,0,0,0,0,0,0,0,0,0,-1,1952,617,0,0
735,407,0,0,0,0,0,0,0,0,0,-1,1959,617,0,0
742,407,0,0,0,0,0,0,0,0,0,-1,1966,617,0,0
749,407,0,0,0,0,0,0,0,0,0,-1,1973,617,0,0
756,407,0,0,0,0,0,0,0,0,0,-1,1980,617,0,0
763,407,0,0,0,0,0,0,0,0,0,-1,1987,617,0,0
770,407,0,0,0,0,0,0,0,0,0,-1,1994,617,0,0
777,407,0,0,0,0,0,0,0,0,0,-1,2001,617,0,0
784,407,0,0,0,0,0,0,0,0,0,-1,2008,617,0,0
791,407,0,0,0,0,0,0,0,0,0,-1,2015,617,0,0
798,407,0,0,0,0,0,0,0,0,0,-1,2022,617,0,0
805,407,0,0,0,0,0,0,0,0,0,-1,2029,617,0,0
812,407,0,0,0,0,0,0,0,0,0,-1,2036,617,0,0
-700,400,0,0,0,0,0,0,0,0,0,-1,524,624,0,0
-693,400,0,0,0,0,0,0,0,0,0,-1,531,624,0,0
-686,400,0,0,0,0,0,0,0,0,0,-1,538,624,0,0
-679,400,0,0,0,0,0,0,0,0,0,-1,545,624,0,0
-672,400,0,0,0,0,0,0,0,0,0,-1,552,624,0,0
-665,400,0,0,0,0,0,0,0,0,0,-1,559,624,0,0
-658,400,0,0,0,0,0,0,0,0,0,-1,566,624,0,0
-651,400,0,0,0,0,0,0,0,0,0,-1,573,624,0,0
-644,400,0,0,0,0,0,0,0,0,0,-1,580,624,0,0
-637,400,0,0,0,0,0,0,0,0,0,-1,587,624,0,0
-630,400,0,0,0,0,0,0,0,0,0,-1,594,624,0,0
-623,400,0,0,0,0,0,0,0,0,0,-1,601,624,0,0
-616,400,0,0,0,0,0,0,0,0,0,-1,608,624,0,0
-609,400,0,0,0,0,0,0,0,0,0,-1,615,624,0,0
-602,400,0,0,0,0,0,0,0,0,0,-1,622,624,0,0
-595,400,0,0,0,0,0,0,0,0,0,-1,629,624,0,0
-588,400,0,0,0,0,0,0,0,0,0,-1,636,624,0,0
-581,400,0,0,0,0,0,0,0,0,0,-1,643,624,0,0
-574,400,0,0,0,0,0,0,0,0,0,-1,650,624,0,0
-567,400,0,0,0,0,0,0,0,0,0,-1,657,624,0,0
-560,400,0,0,0,0,0,0,0,0,0,-1,664,624,0,0
-553,400,0,0,0,0,0,0,0,0,0,-1,671,624,0,0
-546,400,-8.41174,-1.4599,0,0,0,0,0,0,0,-1,678,624,-8.41173,1.45989
-539,400,-5.69104,-1.7337,0,0,0,0,0,0,0,-1,685,624,-5.69103,1.7337
-532,400,-3.03632,-2.03912,0,0,0,0,0,0,0,-1,692,624,-3.03632,2.03909
-525,400,-6.20813,-7.04071,0,0,0,0,0,0,0,-1,699,624,-6.20814,7.04071
-518,400,-5.26544,-1.58661,0,0,0,0,0,0,0,-1,706,624,-5.26544,1.58658
-511,400,-9.32965,-6.91058,0,0,0,0,0,0,0,-1,713,624,-9.32963,6.91059
-504,400,-9.49768,-5.39191,0,0,0,0,0,0,0,-1,720,624,-9.49768,5.39192
-497,400,-9.72083,-5.2132,0,0,0,0,0,0,0,-1,727,624,-9.7208,5.21318
-490,400,-9.78235,-6.34473,0.00118476,0.00675938,-0.00448175,0.00924986,-0.00130573,-1.06359,0.00664472,0.0290733,734,624,-9.78233,6.34473
-483,400,-9.80151,-6.98669,0.000942554,0.00494659,-0.00346467,0.00694608,-0.00105693,-1.04738,0.00502025,0.0171004,741,624,-9.80151,6.9867
-476,400,-9.81671,-7.51373,0.000901086,0.00359746,-0.00270742,0.0052738,-0.000775247,-1.01641,0.00380073,0.0137735,748,624,-9.81669,7.51372
-469,400,-9.81781,-8.07758,0.000998199,0.00254934,-0.00212353,0.0040345,-0.000486961,-0.960486,0.00286581,0.0148383,755,624,-9.81779,8.07755
-462,400,-9.84601,-8.64935,0.00105427,0.00170489,-0.00160622,0.00301841,-0.000259252,-0.885313,0.00210402,0.0194944,762,624,-9.84603,8.64933
-455,400,-9.84607,-9.19281,0.00083626,0.000907848,-0.000896549,0.00176932,-2.52092e-05,-0.80535,0.00118804,0.0196675,769,624,-9.84606,9.19281
-448,400,-9.86688,-9.76117,0.000599216,0.00016427,-0.000200752,0.000677709,8.57765e-05,-0.372719,0.000426102,0.0150885,776,624,-9.86689,9.76117
-441,400,-9.89221,-10.2874,5.2621e-05,-0.000511788,0.000673278,0.000500445,-0.000959613,0.586945,0.000856747,0.0146892,783,624,-9.89222,10.2874
-434,400,-9.9234,-10.8218,-0.00075434,-0.0011366,0.00167094,0.000736362,-0.0026273,0.728453,0.00204174,0.0118489,790,624,-9.92341,10.8218
-427,400,-9.94098,-11.3587,-0.00191884,-0.00190247,0.00291802,0.00100737,-0.00482869,0.7868,0.00360218,0.00971114,797,624,-9.94098,11.3587
-420,400,-9.88989,-11.9303,-0.0036261,-0.00278665,0.00455678,0.0013697,-0.00778245,0.831323,0.00569999,0.0145064,804,624,-9.88988,11.9303
-413,400,-9.97662,-12.3736,-0.00590326,-0.00350331,0.00643063,0.00183834,-0.0112449,0.877639,0.00817855,0.0348801,811,624,-9.97663,12.3736
-406,400,-10.5568,-12.6318,-0.00912206,-0.00466266,0.00883124,0.00221601,-0.0160007,0.909053,0.0114774,0.0494817,818,624,-10.5568,12.6319
-399,400,-10.7405,-13.0305,0,0,0,0,0,0,0,-1,825,624,-10.7405,13.0305
-392,400,-4.92285,-6.63354,0,0,0,0,0,0,0,-1,832,624,-4.92285,6.63354
-385,400,-3.68738,-5.04205,0,0,0,0,0,0,0,-1,839,624,-3.68736,5.04207
-378,400,-6.84064,-1.28662,0,0,0,0,0,0,0,-1,846,624,-6.84062,1.28662
-371,400,-6.98865,-1.2572,0,0,0,0,0,0,0,-1,853,624,-6.98865,1.25721
-364,400,-6.97247,-1.24133,0,0,0,0,0,0,0,-1,860,624,-6.97249,1.24135
-357,400,-7.18329,-1.23218,0,0,0,0,0,0,0,-1,867,624,-7.18327,1.2322
-350,400,-7.40186,-1.19409,0,0,0,0,0,0,0,-1,874,624,-7.40187,1.19407
-343,400,-8.09357,-1.51147,0,0,0,0,0,0,0,-1,881,624,-8.09355,1.51148
-336,400,0,0,0,0,0,0,0,0,0,-1,888,624,0,0
-329,400,0,0,0,0,0,0,0,0,0,-1,895,624,0,0
-322,400,0,0,0,0,0,0,0,0,0,-1,902,624,0,0
-315,400,0,0,0,0,0,0,0,0,0,-1,909,624,0,0
-308,400,0,0,0,0,0,0,0,0,0,-1,916,624,0,0
-301,400,0,0,0,0,0,0,0,0,0,-1,923,624,0,0
-294,400,0,0,0,0,0,0,0,0,0,-1,930,624,0,0
-287,400,0,0,0,0,0,0,0,0,0,-1,937,624,0,0
-280,400,0,0,0,0,0,0,0,0,0,-1,944,624,0,0
-273,400,0,0,0,0,0,0,0,0,0,-1,951,624,0,0
-266,400,0,0,0,0,0,0,0,0,0,-1,958,624,0,0
-259,400,0,0,0,0,0,0,0,0,0,-1,965,624,0,0
-252,400,0,0,0,0,0,0,0,0,0,-1,972,624,0,0
-245,400,0,0,0,0,0,0,0,0,0,-1,979,624,0,0
-238,400,0,0,0,0,0,0,0,0,0,-1,986,624,0,0
-231,400,0,0,0,0,0,0,0,0,0,-1,993,624,0,0
-224,400,0,0,0,0,0,0,0,0,0,-1,1000,624,0,0
-217,400,0,0,0,0,0,0,0,0,0,-1,1007,624,0,0
-210,400,0,0,0,0,0,0,0,0,0,-1,1014,624,0,0
-203,400,0,0,0,0,0,0,0,0,0,-1,1021,624,0,0
-196,400,0,0,0,0,0,0,0,0,0,-1,1028,624,0,0
-189,400,0,0,0,0,0,0,0,0,0,-1,1035,624,0,0
-182,400,0,0,0,0,0,0,0,0,0,-1,1042,624,0,0
-175,400,0,0,0,0,0,0,0,0,0,-1,1049,624,0,0
-168,400,0,0,0,0,0,0,0,0,0,-1,1056,624,0,0
-161,400,0,0,0,0,0,0,0,0,0,-1,1063,624,0,0
-154,400,0,0,0,0,0,0,0,0,0,-1,1070,624,0,0
-147,400,0,0,0,0,0,0,0,0,0,-1,1077,624,0,0
-140,400,0,0,0,0,0,0,0,0,0,-1,1084,624,0,0
-133,400,0,0,0,0,0,0,0,0,0,-1,1091,624,0,0
-126,400,0,0,0,0,0,0,0,0,0,-1,1098,624,0,0
-119,400,0,0,0,0,0,0,0,0,0,-1,1105,624,0,0
-112,400,0,0,0,0,0,0,0,0,0,-1,1112,624,0,0
-105,400,0,0,0,0,0,0,0,0,0,-1,1119,624,0,0
-98,400,0,0,0,0,0,0,0,0,0,-1,1126,624,0,0
-91,400,0,0,0,0,0,0,0,0,0,-1,1133,624,0,0
-84,400,0,0,0,0,0,0,0,0,0,-1,1140,624,0,0
-77,400,0,0,0,0,0,0,0,0,0,-1,1147,624,0,0
-70,400,0,0,0,0,0,0,0,0,0,-1,1154,624,0,0
-63,400,0,0,0,0,0,0,0,0,0,-1,1161,624,0,0
-56,400,0,0,0,0,0,0,0,0,0,-1,1168,624,0,0
-49,400,0,0,0,0,0,0,0,0,0,-1,1175,624,0,0
-42,400,0,0,0,0,0,0,0,0,0,-1,1182,624,0,0
-35,400,0,0,0,0,0,0,0,0,0,-1,1189,624,0,0
-28,400,0,0,0,0,0,0,0,0,0,-1,1196,624,0,0
-21,400,0,0,0,0,0,0,0,0,0,-1,1203,624,0,0
-14,400,0,0,0,0,0,0,0,0,0,-1,1210,624,0,0
-7,400,0,0,0,0,0,0,0,0,0,-1,1217,624,0,0
0,400,0,0,0,0,0,0,0,0,0,-1,1224,624,0,0
7,400,0,0,0,0,0,0,0,0,0,-1,1231,624,0,0
14,400,0,0,0,0,0,0,0,0,0,-1,1238,624,0,0
21,400,0,0,0,0,0,0,0,0,0,-1,1245,624,0,0
28,400,0,0,0,0,0,0,0,0,0,-1,1252,624,0,0
35,400,0,0,0,0,0,0,0,0,0,-1,1259,624,0,0
42,400,0,0,0,0,0,0,0,0,0,-1,1266,624,0,0
49,400,0,0,0,0,0,0,0,0,0,-1,1273,624,0,0
56,400,0,0,0,0,0,0,0,0,0,-1,1280,624,0,0
63,400,0,0,0,0,0,0,0,0,0,-1,1287,624,0,0
70,400,0,0,0,0,0,0,0,0,0,-1,1294,624,0,0
77,400,0,0,0,0,0,0,0,0,0,-1,1301,624,0,0
84,400,0,0,0,0,0,0,0,0,0,-1,1308,624,0,0
91,400,0,0,0,0,0,0,0,0,0,-1,1315,624,0,0
98,400,0,0,0,0,0,0,0,0,0,-1,1322,624,0,0
105,400,0,0,0,0,0,0,0,0,0,-1,1329,624,0,0
112,400,0,0,0,0,0,0,0,0,0,-1,1336,624,0,0
119,400,0,0,0,0,0,0,0,0,0,-1,1343,624,0,0
126,400,0,0,0,0,0,0,0,0,0,-1,1350,624,0,0
133,400,0,0,0,0,0,0,0,0,0,-1,1357,624,0,0
140,400,0,0,0,0,0,0,0,0,0,-1,1364,624,0,0
147,400,0,0,0,0,0,0,0,0,0,-1,1371,624,0,0
154,400,0,0,0,0,0,0,0,0,0,-1,1378,624,0,0
161,400,0,0,0,0,0,0,0,0,0,-1,1385,624,0,0
168,400,0,0,0,0,0,0,0,0,0,-1,1392,624,0,0
175,400,0,0,0,0,0,0,0,0,0,-1,1399,624,0,0
182,400,0,0,0,0,0,0,0,0,0,-1,1406,624,0,0
189,400,0,0,0,0,0,0,0,0,0,-1,1413,624,0,0
196,400,0,0,0,0,0,0,0,0,0,-1,1420,624,0,0
203,400,0,0,0,0,0,0,0,0,0,-1,1427,624,0,0
210,400,0,0,0,0,0,0,0,0,0,-1,1434,624,0,0
217,400,0,0,0,0,0,0,0,0,0,-1,1441,624,0,0
224,400,0,0,0,0,0,0,0,0,0,-1,1448,624,0,0
231,400,0,0,0,0,0,0,0,0,0,-1,1455,624,0,0
238,400,0,0,0,0,0,0,0,0,0,-1,1462,624,0,0
245,400,0,0,0,0,0,0,0,0,0,-1,1469,624,0,0
252,400,0,0,0,0,0,0,0,0,0,-1,1476,624,0,0
259,400,0,0,0,0,0,0,0,0,0,-1,1483,624,0,0
266,400,0,0,0,0,0,0,0,0,0,-1,1490,624,0,0
273,400,0,0,0,0,0,0,0,0,0,-1,1497,624,0,0
280,400,0,0,0,0,0,0,0,0,0,-1,1504,624,0,0
287,400,0,0,0,0,0,0,0,0,0,-1,1511,624,0,0
294,400,0,0,0,0,0,0,0,0,0,-1,1518,624,0,0
301,400,0,0,0,0,0,0,0,0,0,-1,1525,624,0,0
308,400,0,0,0,0,0,0,0,0,0,-1,1532,624,0,0
315,400,0,0,0,0,0,0,0,0,0,-1,1539,624,0,0
322,400,0,0,0,0,0,0,0,0,0,-1,1546,624,0,0
329,400,0,0,0,0,0,0,0,0,0,-1,1553,624,0,0
336,400,0,0,0,0,0,0,0,0,0,-1,1560,624,0,0
343,400,0,0,0,0,0,0,0,0,0,-1,1567,624,0,0
350,400,0,0,0,0,0,0,0,0,0,-1,1574,624,0,0
357,400,0,0,0,0,0,0,0,0,0,-1,1581,624,0,0
364,400,0,0,0,0,0,0,0,0,0,-1,1588,624,0,0
371,400,0,0,0,0,0,0,0,0,0,-1,1595,624,0,0
378,400,0,0,0,0,0,0,0,0,0,-1,1602,624,0,0
385,400,0,0,0,0,0,0,0,0,0,-1,1609,624,0,0
392,400,0,0,0,0,0,0,0,0,0,-1,1616,624,0,0
399,400,0,0,0,0,0,0,0,0,0,-1,1623,624,0,0
406,400,0,0,0,0,0,0,0,0,0,-1,1630,624,0,0
413,400,0,0,0,0,0,0,0,0,0,-1,1637,624,0,0
420,400,0,0,0,0,0,0,0,0,0,-1,1644,624,0,0
427,400,0,0,0,0,0,0,0,0,0,-1,1651,624,0,0
434,400,0,0,0,0,0,0,0,0,0,-1,1658,624,0,0
441,400,0,0,0,0,0,0,0,0,0,-1,1665,624,0,0
448,400,0,0,0,0,0,0,0,0,0,-1,1672,624,0,0
455,400,8.91309,2.75885,0,0,0,0,0,0,0,-1,1679,624,8.91312,-2.75885
462,400,8.90356,2.37878,0,0,0,0,0,0,0,-1,1686,624,8.90353,-2.37878
469,400,9.14429,1.76849,0,0,0,0,0,0,0,-1,1693,624,9.14432,-1.76847
476,400,9.23254,1.25995,0,0,0,0,0,0,0,-1,1700,624,9.23252,-1.25994
483,400,9.59766,0.562439,0,0,0,0,0,0,0,-1,1707,624,9.59771,-0.56242
490,400,9.92578,-0.213745,0,0,0,0,0,0,0,-1,1714,624,9.92579,0.21376
497,400,9.19141,0.175232,0,0,0,0,0,0,0,-1,1721,624,9.19138,-0.175209
504,400,9.23438,0.00823975,0,0,0,0,0,0,0,-1,1728,624,9.23436,-0.00823766
511,400,6.16687,3.3501,0,0,0,0,0,0,0,-1,1735,624,6.16682,-3.35007
518,400,6.55237,1.74994,0,0,0,0,0,0,0,-1,1742,624,6.55236,-1.74993
525,400,6.99731,1.08783,0,0,0,0,0,0,0,-1,1749,624,6.99736,-1.08785
532,400,6.96582,-1.74982,0,0,0,0,0,0,0,-1,1756,624,6.96585,1.74983
539,400,16.0278,-8.40637,0,0,0,0,0,0,0,-1,1763,624,16.0278,8.40635
546,400,20.0828,-10.4563,0,0,0,0,0,0,0,-1,1770,624,20.0827,10.4563
553,400,20.0018,-9.92987,0.00636615,0.00203706,0.00230483,0.00736349,0.00103972,0.408388,0.00460174,0.0362741,1777,624,20.0019,9.92988
560,400,20.0869,-9.30261,0.00508973,0.00146904,0.00170765,0.00576805,0.000790722,0.378107,0.00361077,0.0148002,1784,624,20.087,9.30259
567,400,20.083,-8.73779,0.00388246,0.00102952,0.00123549,0.00434312,0.000568862,0.35689,0.00272565,0.0174738,1791,624,20.083,8.7378
574,400,20.0409,-8.19305,0.00292475,0.000847723,0.000961427,0.00330146,0.000471015,0.373437,0.00206198,0.0206568,1798,624,20.0408,8.19305
581,400,19.9968,-7.63074,0.00217048,0.000874901,0.000856657,0.0025967,0.000448683,0.461674,0.00160265,0.0196734,1805,624,19.9969,7.63074
588,400,19.9612,-7.01544,0.00162017,0.00110751,0.000882843,0.00228314,0.000444537,0.644111,0.00139768,0.0149118,1812,624,19.9611,7.01546
595,400,19.981,-6.45526,0.00137961,0.00148685,0.00109689,0.00253143,0.000335036,0.80982,0.00158777,0.0146151,1819,624,19.981,6.45527
602,400,19.9802,-5.86578,0.00146723,0.00212814,0.00154624,0.00337884,0.00021653,0.890672,0.00218396,0.0150126,1826,624,19.9802,5.86576
609,400,19.8809,-5.27191,0.00179514,0.00296488,0.00216008,0.00461786,0.00014215,0.91761,0.0030323,0.0146604,1833,624,19.8808,5.27192
616,400,19.8879,-4.7337,0.00226434,0.00397559,0.00285601,0.00610139,0.000138536,0.930938,0.00402221,0.0181802,1840,624,19.8879,4.73369
623,400,20.0094,-4.18463,0,0,0,0,0,0,0,-1,1847,624,20.0095,4.18461
630,400,11.9432,0.09021,0,0,0,0,0,0,0,-1,1854,624,11.9432,-0.0902007
637,400,6.92896,1.01917,0,0,0,0,0,0,0,-1,1861,624,6.92899,-1.01918
644,400,8.65381,1.4599,0,0,0,0,0,0,0,-1,1868,624,8.65379,-1.45991
651,400,7.90601,0.424072,0,0,0,0,0,0,0,-1,1875,624,7.90598,-0.424097
658,400,8.69031,1.0484,0,0,0,0,0,0,0,-1,1882,624,8.6903,-1.0484
665,400,5.98438,0.522522,0,0,0,0,0,0,0,-1,1889,624,5.98442,-0.522552
672,400,0,0,0,0,0,0,0,0,0,-1,1896,624,0,0
679,400,0,0,0,0,0,0,0,0,0,-1,1903,624,0,0
686,400,0,0,0,0,0,0,0,0,0,-1,1910,624,0,0
693,400,0,0,0,0,0,0,0,0,0,-1,1917,624,0,0
700,400,0,0,0,0,0,0,0,0,0,-1,1924,624,0,0
707,400,0,0,0,0,0,0,0,0,0,-1,1931,624,0,0
714,400,0,0,0,0,0,0,0,0,0,-1,1938,624,0,0
721,400,0,0,0,0,0,0,0,0,0,-1,1945,624,0,0
728,400,0,0,0,0,0,0,0,0,0,-1,1952,624,0,0
735,400,0,0,0,0,0,0,0,0,0,-1,1959,624,0,0
742,400,0,0,0,0,0,0,0,0,0,-1,1966,624,0,0
749,400,0,0,0,0,0,0,0,0,0,-1,1973,624,0,0
756,400,0,0,0,0,0,0,0,0,0,-1,1980,624,0,0
763,400,0,0,0,0,0,0,0,0,0,-1,1987,624,0,0
770,400,0,0,0,0,0,0,0,0,0,-1,1994,624,0,0
777,400,0,0,0,0,0,0,0,0,0,-1,2001,624,0,0
784,400,0,0,0,0,0,0,0,0,0,-1,2008,624,0,0
791,400,0,0,0,0,0,0,0,0,0,-1,2015,624,0,0
798,400,0,0,0,0,0,0,0,0,0,-1,2022,624,0,0
805,400,0,0,0,0,0,0,0,0,0,-1,2029,624,0,0
812,400,0,0,0,0,0,0,0,0,0,-1,2036,624,0,0
-700,393,0,0,0,0,0,0,0,0,0,-1,524,631,0,0
-693,393,0,0,0,0,0,0,0,0,0,-1,531,631,0,0
-686,393,0,0,0,0,0,0,0,0,0,-1,538,631,0,0
-679,393,0,0,0,0,0,0,0,0,0,-1,545,631,0,0
-672,393,0,0,0,0,0,0,0,0,0,-1,552,631,0,0
-665,393,0,0,0,0,0,0,0,0,0,-1,559,631,0,0
-658,393,0,0,0,0,0,0,0,0,0,-1,566,631,0,0
-651,393,0,0,0,0,0,0,0,0,0,-1,573,631,0,0
-644,393,0,0,0,0,0,0,0,0,0,-1,580,631,0,0
-637,393,0,0,0,0,0,0,0,0,0,-1,587,631,0,0
-630,393,0,0,0,0,0,0,0,0,0,-1,594,631,0,0
-623,393,0,0,0,0,0,0,0,0,0,-1,601,631,0,0
-616,393,0,0,0,0,0,0,0,0,0,-1,608,631,0,0
-609,393,0,0,0,0,0,0,0,0,0,-1,615,631,0,0
-602,393,0,0,0,0,0,0,0,0,0,-1,622,631,0,0
-595,393,0,0,0,0,0,0,0,0,0,-1,629,631,0,0
-588,393,0,0,0,0,0,0,0,0,0,-1,636,631,0,0
-581,393,0,0,0,0,0,0,0,0,0,-1,643,631,0,0
-574,393,0,0,0,0,0,0,0,0,0,-1,650,631,0,0
-567,393,0,0,0,0,0,0,0,0,0,-1,657,631,0,0
-560,393,0,0,0,0,0,0,0,0,0,-1,664,631,0,0
-553,393,-2.35107,3.92633,0,0,0,0,0,0,0,-1,671,631,-2.35108,-3.92634
-546,393,-1.78778,2.4856,0,0,0,0,0,0,0,-1,678,631,-1.78778,-2.48557
-539,393,-5.2113,-2.20245,0,0,0,0,0,0,0,-1,685,631,-5.21128,2.20247
-532,393,-2.83643,-2.01624,0,0,0,0,0,0,0,-1,692,631,-2.83642,2.01626
-525,393,-5.9505,-0.952698,0,0,0,0,0,0,0,-1,699,631,-5.95053,0.95268
-518,393,-5.80219,-1.57739,0,0,0,0,0,0,0,-1,706,631,-5.80219,1.57738
-511,393,-6.15527,-2.09906,0,0,0,0,0,0,0,-1,713,631,-6.15526,2.09903
-504,393,-10.7067,-4.65851,0,0,0,0,0,0,0,-1,720,631,-10.7067,4.65854
-497,393,-10.3839,-5.5354,0.00161801,0.00784665,-0.00477117,0.01043,-0.000965304,-1.07455,0.00729639,0.0383019,727,631,-10.3838,5.53538
-490,393,-10.3281,-6.39117,0.00133351,0.00581815,-0.00366711,0.00787417,-0.000722507,-1.0598,0.00550611,0.0188804,734,631,-10.328,6.39117
-483,393,-10.34,-6.96783,0.0011611,0.00420261,-0.00280698,0.00587432,-0.000510604,-1.03365,0.00409703,0.0200655,741,631,-10.34,6.96783
-476,393,-10.3517,-7.48358,0.00116967,0.00298038,-0.00217553,0.00443141,-0.000281369,-0.982575,0.00305239,0.016401,748,631,-10.3518,7.4836
-469,393,-10.3674,-8.04871,0.00128539,0.00203245,-0.00168983,0.00338954,-7.17016e-05,-0.894172,0.00228397,0.012418,755,631,-10.3674,8.04869
-462,393,-10.3912,-8.63696,0.00131775,0.00128011,-0.00126432,0.00256339,3.44706e-05,-0.777957,0.00169755,0.0141914,762,631,-10.3912,8.63697
-455,393,-10.4069,-9.19757,0.00102421,0.000543267,-0.000574975,0.00140697,0.000160502,-0.587338,0.000889322,0.0141,769,631,-10.4069,9.19755
-448,393,-10.4456,-9.74615,0.000749391,-8.51054e-05,4.77196e-05,0.000752111,-8.78253e-05,0.0569363,0.000533099,0.0137815,776,631,-10.4456,9.74615
-441,393,-10.4719,-10.2874,0.000141102,-0.000641429,0.000863754,0.000698076,-0.0011984,0.572732,0.00110756,0.0129032,783,631,-10.4719,10.2874
-434,393,-10.4672,-10.7927,-0.000789142,-0.00125316,0.00187179,0.000864962,-0.00290726,0.723738,0.00228181,0.0117709,790,631,-10.4673,10.7927
-427,393,-10.423,-11.3527,-0.00221999,-0.00202288,0.00325206,0.00113212,-0.00537499,0.800546,0.00401427,0.0209662,797,631,-10.423,11.3527
-420,393,-10.4646,-11.8821,-0.00446921,-0.00303317,0.0052629,0.00156046,-0.00906284,0.853195,0.00662361,0.04677,804,631,-10.4646,11.8821
-413,393,-10.7414,-12.4227,0,0,0,0,0,0,0,-1,811,631,-10.7414,12.4227
-406,393,-11.6807,-12.6664,0,0,0,0,0,0,0,-1,818,631,-11.6806,12.6664
-399,393,-5.07343,-5.92365,0,0,0,0,0,0,0,-1,825,631,-5.07344,5.92364
-392,393,-2.08063,-3.02386,0,0,0,0,0,0,0,-1,832,631,-2.08063,3.02384
-385,393,-3.16931,-0.624756,0,0,0,0,0,0,0,-1,839,631,-3.16928,0.624764
-378,393,-7.33081,-0.872314,0,0,0,0,0,0,0,-1,846,631,-7.33081,0.872325
-371,393,-7.47858,-0.811096,0,0,0,0,0,0,0,-1,853,631,-7.47859,0.811075
-364,393,-7.64917,-0.662415,0,0,0,0,0,0,0,-1,860,631,-7.64917,0.662406
-357,393,-8.09686,-0.726013,0,0,0,0,0,0,0,-1,867,631,-8.09689,0.726029
-350,393,-8.38788,-0.511841,0,0,0,0,0,0,0,-1,874,631,-8.38785,0.511811
-343,393,0,0,0,0,0,0,0,0,0,-1,881,631,0,0
-336,393,0,0,0,0,0,0,0,0,0,-1,888,631,0,0
-329,393,0,0,0,0,0,0,0,0,0,-1,895,631,0,0
-322,393,0,0,0,0,0,0,0,0,0,-1,902,631,0,0
-315,393,0,0,0,0,0,0,0,0,0,-1,909,631,0,0
-308,393,0,0,0,0,0,0,0,0,0,-1,916,631,0,0
-301,393,0,0,0,0,0,0,0,0,0,-1,923,631,0,0
-294,393,0,0,0,0,0,0,0,0,0,-1,930,631,0,0
-287,393,0,0,0,0,0,0,0,0,0,-1,937,631,0,0
-280,393,0,0,0,0,0,0,0,0,0,-1,944,631,0,0
-273,393,0,0,0,0,0,0,0,0,0,-1,951,631,0,0
-266,393,0,0,0,0,0,0,0,0,0,-1,958,631,0,0
-259,393,0,0,0,0,0,0,0,0,0,-1,965,631,0,0
-252,393,0,0,0,0,0,0,0,0,0,-1,972,631,0,0
-245,393,0,0,0,0,0,0,0,0,0,-1,979,631,0,0
-238,393,0,0,0,0,0,0,0,0,0,-1,986,631,0,0
-231,393,0,0,0,0,0,0,0,0,0,-1,993,631,0,0
-224,393,0,0,0,0,0,0,0,0,0,-1,1000,631,0,0
-217,393,0,0,0,0,0,0,0,0,0,-1,1007,631,0,0
-210,393,0,0,0,0,0,0,0,0,0,-1,1014,631,0,0
-203,393,0,0,0,0,0,0,0,0,0,-1,1021,631,0,0
-196,393,0,0,0,0,0,0,0,0,0,-1,1028,631,0,0
-189,393,0,0,0,0,0,0,0,0,0,-1,1035,631,0,0
-182,393,0,0,0,0,0,0,0,0,0,-1,1042,631,0,0
-175,393,0,0,0,0,0,0,0,0,0,-1,1049,631,0,0
-168,393,0,0,0,0,0,0,0,0,0,-1,1056,631,0,0
-161,393,0,0,0,0,0,0,0,0,0,-1,1063,631,0,0
-154,393,0,0,0,0,0,0,0,0,0,-1,1070,631,0,0
-147,393,0,0,0,0,0,0,0,0,0,-1,1077,631,0,0
-140,393,0,0,0,0,0,0,0,0,0,-1,1084,631,0,0
-133,393,0,0,0,0,0,0,0,0,0,-1,1091,631,0,0
-126,393,0,0,0,0,0,0,0,0,0,-1,1098,631,0,0
-119,393,0,0,0,0,0,0,0,0,0,-1,1105,631,0,0
-112,393,0,0,0,0,0,0,0,0,0,-1,1112,631,0,0
-105,393,0,0,0,0,0,0,0,0,0,-1,1119,631,0,0
-98,393,0,0,0,0,0,0,0,0,0,-1,1126,631,0,0
-91,393,0,0,0,0,0,0,0,0,0,-1,1133,631,0,0
-84,393,0,0,0,0,0,0,0,0,0,-1,1140,631,0,0
-77,393,0,0,0,0,0,0,0,0,0,-1,1147,631,0,0
-70,393,0,0,0,0,0,0,0,0,0,-1,1154,631,0,0
-63,393,0,0,0,0,0,0,0,0,0,-1,1161,631,0,0
-56,393,0,0,0,0,0,0,0,0,0,-1,1168,631,0,0
-49,393,0,0,0,0,0,0,0,0,0,-1,1175,631,0,0
-42,393,0,0,0,0,0,0,0,0,0,-1,1182,631,0,0
-35,393,0,0,0,0,0,0,0,0,0,-1,1189,631,0,0
-28,393,0,0,0,0,0,0,0,0,0,-1,1196,631,0,0
-21,393,0,0,0,0,0,0,0,0,0,-1,1203,631,0,0
-14,393,0,0,0,0,0,0,0,0,0,-1,1210,631,0,0
-7,393,0,0,0,0,0,0,0,0,0,-1,1217,631,0,0
0,393,0,0,0,0,0,0,0,0,0,-1,1224,631,0,0
7,393,0,0,0,0,0,0,0,0,0,-1,1231,631,0,0
14,393,0,0,0,0,0,0,0,0,0,-1,1238,631,0,0
21,393,0,0,0,0,0,0,0,0,0,-1,1245,631,0,0
28,393,0,0,0,0,0,0,0,0,0,-1,1252,631,0,0
35,393,0,0,0,0,0,0,0,0,0,-1,1259,631,0,0
42,393,0,0,0,0,0,0,0,0,0,-1,1266,631,0,0
49,393,0,0,0,0,0,0,0,0,0,-1,1273,631,0,0
56,393,0,0,0,0,0,0,0,0,0,-1,1280,631,0,0
63,393,0,0,0,0,0,0,0,0,0,-1,1287,631,0,0
70,393,0,0,0,0,0,0,0,0,0,-1,1294,631,0,0
77,393,0,0,0,0,0,0,0,0,0,-1,1301,631,0,0
84,393,0,0,0,0,0,0,0,0,0,-1,1308,631,0,0
91,393,0,0,0,0,0,0,0,0,0,-1,1315,631,0,0
98,393,0,0,0,0,0,0,0,0,0,-1,1322,631,0,0
105,393,0,0,0,0,0,0,0,0,0,-1,1329,631,0,0
112,393,0,0,0,0,0,0,0,0,0,-1,1336,631,0,0
119,393,0,0,0,0,0,0,0,0,0,-1,1343,631,0,0
126,393,0,0,0,0,0,0,0,0,0,-1,1350,631,0,0
133,393,0,0,0,0,0,0,0,0,0,-1,1357,631,0,0
140,393,0,0,0,0,0,0,0,0,0,-1,1364,631,0,0
147,393,0,0,0,0,0,0,0,0,0,-1,1371,631,0,0
154,393,0,0,0,0,0,0,0,0,0,-1,1378,631,0,0
161,393,0,0,0,0,0,0,0,0,0,-1,1385,631,0,0
168,393,0,0,0,0,0,0,0,0,0,-1,1392,631,0,0
175,393,0,0,0,0,0,0,0,0,0,-1,1399,631,0,0
182,393,0,0,0,0,0,0,0,0,0,-1,1406,631,0,0
189,393,0,0,0,0,0,0,0,0,0,-1,1413,631,0,0
196,393,0,0,0,0,0,0,0,0,0,-1,1420,631,0,0
203,393,0,0,0,0,0,0,0,0,0,-1,1427,631,0,0
210,393,0,0,0,0,0,0,0,0,0,-1,1434,631,0,0
217,393,0,0,0,0,0,0,0,0,0,-1,1441,631,0,0
224,393,0,0,0,0,0,0,0,0,0,-1,1448,631,0,0
231,393,0,0,0,0,0,0,0,0,0,-1,1455,631,0,0
238,393,0,0,0,0,0,0,0,0,0,-1,1462,631,0,0
245,393,0,0,0,0,0,0,0,0,0,-1,1469,631,0,0
252,393,0,0,0,0,0,0,0,0,0,-1,1476,631,0,0
259,393,0,0,0,0,0,0,0,0,0,-1,1483,631,0,0
266,393,0,0,0,0,0,0,0,0,0,-1,1490,631,0,0
273,393,0,0,0,0,0,0,0,0,0,-1,1497,631,0,0
280,393,0,0,0,0,0,0,0,0,0,-1,1504,631,0,0
287,393,0,0,0,0,0,0,0,0,0,-1,1511,631,0,0
294,393,0,0,0,0,0,0,0,0,0,-1,1518,631,0,0
301,393,0,0,0,0,0,0,0,0,0,-1,1525,631,0,0
308,393,0,0,0,0,0,0,0,0,0,-1,1532,631,0,0
315,393,0,0,0,0,0,0,0,0,0,-1,1539,631,0,0
322,393,0,0,0,0,0,0,0,0,0,-1,1546,631,0,0
329,393,0,0,0,0,0,0,0,0,0,-1,1553,631,0,0
336,393,0,0,0,0,0,0,0,0,0,-1,1560,631,0,0
343,393,0,0,0,0,0,0,0,0,0,-1,1567,631,0,0
350,393,0,0,0,0,0,0,0,0,0,-1,1574,631,0,0
357,393,0,0,0,0,0,0,0,0,0,-1,1581,631,0,0
364,393,0,0,0,0,0,0,0,0,0,-1,1588,631,0,0
371,393,0,0,0,0,0,0,0,0,0,-1,1595,631,0,0
378,393,0,0,0,0,0,0,0,0,0,-1,1602,631,0,0
385,393,0,0,0,0,0,0,0,0,0,-1,1609,631,0,0
392,393,0,0,0,0,0,0,0,0,0,-1,1616,631,0,0
399,393,0,0,0,0,0,0,0,0,0,-1,1623,631,0,0
406,393,0,0,0,0,0,0,0,0,0,-1,1630,631,0,0
413,393,0,0,0,0,0,0,0,0,0,-1,1637,631,0,0
420,393,0,0,0,0,0,0,0,0,0,-1,1644,631,0,0
427,393,0,0,0,0,0,0,0,0,0,-1,1651,631,0,0
434,393,0,0,0,0,0,0,0,0,0,-1,1658,631,0,0
441,393,0,0,0,0,0,0,0,0,0,-1,1665,631,0,0
448,393,0,0,0,0,0,0,0,0,0,-1,1672,631,0,0
455,393,0,0,0,0,0,0,0,0,0,-1,1679,631,0,0
462,393,8.51099,1.89502,0,0,0,0,0,0,0,-1,1686,631,8.51103,-1.89504
469,393,9.39465,1.51703,0,0,0,0,0,0,0,-1,1693,631,9.39465,-1.51703
476,393,9.95569,1.185,0,0,0,0,0,0,0,-1,1700,631,9.95575,-1.18497
483,393,10.5267,0.887329,0,0,0,0,0,0,0,-1,1707,631,10.5267,-0.887321
490,393,10.9303,0.761414,0,0,0,0,0,0,0,-1,1714,631,10.9303,-0.761386
497,393,8.32153,1.88104,0,0,0,0,0,0,0,-1,1721,631,8.32148,-1.88103
504,393,9.46985,1.78711,0,0,0,0,0,0,0,-1,1728,631,9.46986,-1.78713
511,393,9.66565,-0.375977,0,0,0,0,0,0,0,-1,1735,631,9.66571,0.375949
518,393,7.01599,1.62482,0,0,0,0,0,0,0,-1,1742,631,7.01597,-1.62483
525,393,7.88245,-1.13422,0,0,0,0,0,0,0,-1,1749,631,7.88246,1.13423
532,393,7.06335,-1.18103,0,0,0,0,0,0,0,-1,1756,631,7.06332,1.18101
539,393,9.91626,-2.46301,0,0,0,0,0,0,0,-1,1763,631,9.91625,2.46302
546,393,16.4094,-8.04651,0,0,0,0,0,0,0,-1,1770,631,16.4094,8.04649
553,393,20.4669,-9.96515,0,0,0,0,0,0,0,-1,1777,631,20.4669,9.96518
560,393,20.6486,-9.35004,0.00626464,0.00150834,0.0019315,0.00695019,0.000822784,0.341063,0.004385,0.0357741,1784,631,20.6485,9.35003
567,393,20.6241,-8.72021,0.00475575,0.000976045,0.00131221,0.00516665,0.000565152,0.30346,0.00327235,0.0164045,1791,631,20.6241,8.72021
574,393,20.6198,-8.19269,0.00358279,0.000782165,0.000938763,0.00386834,0.000496609,0.29529,0.00243033,0.0163859,1798,631,20.6198,8.19268
581,393,20.5604,-7.59387,0.00266088,0.000813393,0.000759753,0.00293319,0.00054109,0.344146,0.00180237,0.0157742,1805,631,20.5604,7.59386
588,393,20.5283,-6.98193,0.00200956,0.00103374,0.000741075,0.00240892,0.000634382,0.494276,0.00144178,0.0178545,1812,631,20.5284,6.98196
595,393,20.5581,-6.43689,0.00171583,0.00138697,0.000917318,0.00248334,0.000619461,0.696714,0.00149255,0.0149555,1819,631,20.5581,6.43687
602,393,20.5476,-5.86115,0.00177957,0.00199693,0.0013494,0.00324202,0.00053448,0.825581,0.00200705,0.0161676,1826,631,20.5476,5.86117
609,393,20.495,-5.27545,0.00201501,0.00275891,0.00191113,0.00433395,0.000439971,0.881507,0.00275438,0.0160228,1833,631,20.495,5.27544
616,393,20.4741,-4.70953,0.00230116,0.00357464,0.00245998,0.00547895,0.000396854,0.912039,0.0035278,0.0153709,1840,631,20.4742,4.70951
623,393,20.5179,-4.05103,0.0032184,0.00451956,0.00335131,0.00728285,0.000455109,0.881269,0.00471086,0.0314422,1847,631,20.518,4.05101
630,393,20.5806,-3.24054,0,0,0,0,0,0,0,-1,1854,631,20.5806,3.24054
637,393,11.4626,0.608887,0,0,0,0,0,0,0,-1,1861,631,11.4627,-0.608904
644,393,8.97583,1.30585,0,0,0,0,0,0,0,-1,1868,631,8.97586,-1.30584
651,393,11.348,0.53302,0,0,0,0,0,0,0,-1,1875,631,11.348,-0.53305
658,393,9.21338,1.50836,0,0,0,0,0,0,0,-1,1882,631,9.21338,-1.50834
665,393,6.1001,2.32129,0,0,0,0,0,0,0,-1,1889,631,6.10012,-2.3213
672,393,7.14575,2.43225,0,0,0,0,0,0,0,-1,1896,631,7.14572,-2.43222
679,393,0,0,0,0,0,0,0,0,0,-1,1903,631,0,0
686,393,0,0,0,0,0,0,0,0,0,-1,1910,631,0,0
693,393,0,0,0,0,0,0,0,0,0,-1,1917,631,0,0
700,393,0,0,0,0,0,0,0,0,0,-1,1924,631,0,0
707,393,0,0,0,0,0,0,0,0,0,-1,1931,631,0,0
714,393,0,0,0,0,0,0,0,0,0,-1,1938,631,0,0
721,393,0,0,0,0,0,0,0,0,0,-1,1945,631,0,0
728,393,0,0,0,0,0,0,0,0,0,-1,1952,631,0,0
735,393,0,0,0,0,0,0,0,0,0,-1,1959,631,0,0
742,393,0,0,0,0,0,0,0,0,0,-1,1966,631,0,0
749,393,0,0,0,0,0,0,0,0,0,-1,1973,631,0,0
756,393,0,0,0,0,0,0,0,0,0,-1,1980,631,0,0
763,393,0,0,0,0,0,0,0,0,0,-1,1987,631,0,0
770,393,0,0,0,0,0,0,0,0,0,-1,1994,631,0,0
777,393,0,0,0,0,0,0,0,0,0,-1,2001,631,0,0
784,393,0,0,0,0,0,0,0,0,0,-1,2008,631,0,0
791,393,0,0,0,0,0,0,0,0,0,-1,2015,631,0,0
798,393,0,0,0,0,0,0,0,0,0,-1,2022,631,0,0
805,393,0,0,0,0,0,0,0,0,0,-1,2029,631,0,0
812,393,0,0,0,0,0,0,0,0,0,-1,2036,631,0,0
-700,386,0,0,0,0,0,0,0,0,0,-1,524,638,0,0
-693,386,0,0,0,0,0,0,0,0,0,-1,531,638,0,0
-686,386,0,0,0,0,0,0,0,0,0,-1,538,638,0,0
-679,386,0,0,0,0,0,0,0,0,0,-1,545,638,0,0
-672,386,0,0,0,0,0,0,0,0,0,-1,552,638,0,0
-665,386,0,0,0,0,0,0,0,0,0,-1,559,638,0,0
-658,386,0,0,0,0,0,0,0,0,0,-1,566,638,0,0
-651,386,0,0,0,0,0,0,0,0,0,-1,573,638,0,0
-644,386,0,0,0,0,0,0,0,0,0,-1,580,638,0,0
-637,386,0,0,0,0,0,0,0,0,0,-1,587,638,0,0
-630,386,0,0,0,0,0,0,0,0,0,-1,594,638,0,0
-623,386,0,0,0,0,0,0,0,0,0,-1,601,638,0,0
-616,386,0,0,0,0,0,0,0,0,0,-1,608,638,0,0
-609,386,0,0,0,0,0,0,0,0,0,-1,615,638,0,0
-602,386,0,0,0,0,0,0,0,0,0,-1,622,638,0,0
-595,386,0,0,0,0,0,0,0,0,0,-1,629,638,0,0
-588,386,0,0,0,0,0,0,0,0,0,-1,636,638,0,0
-581,386,0,0,0,0,0,0,0,0,0,-1,643,638,0,0
-574,386,0,0,0,0,0,0,0,0,0,-1,650,638,0,0
-567,386,0,0,0,0,0,0,0,0,0,-1,657,638,0,0
-560,386,-3.97229,-5.13898,0,0,0,0,0,0,0,-1,664,638,-3.97232,5.13897
-553,386,-4.94244,-5.54309,0,0,0,0,0,0,0,-1,671,638,-4.94242,5.5431
-546,386,-1.78668,1.72827,0,0,0,0,0,0,0,-1,678,638,-1.78668,-1.72829
-539,386,-0.879456,-2.90009,0,0,0,0,0,0,0,-1,685,638,-0.879442,2.90008
-532,386,-5.4884,1.73328,0,0,0,0,0,0,0,-1,692,638,-5.4884,-1.73325
-525,386,-6.64148,-1.50604,0,0,0,0,0,0,0,-1,699,638,-6.64149,1.50603
-518,386,-7.68927,-2.40173,0,0,0,0,0,0,0,-1,706,638,-7.68929,2.4017
-511,386,-10.7792,-3.83508,0,0,0,0,0,0,0,-1,713,638,-10.7793,3.83507
-504,386,-10.8118,-4.98608,0.00288359,0.0101486,-0.00616531,0.0136719,-0.000639748,-1.05161,0.00933518,0.0383936,720,638,-10.8118,4.98606
-497,386,-10.9228,-5.79047,0.00207539,0.00720825,-0.00433658,0.00968092,-0.000397274,-1.05259,0.00659036,0.0188804,727,638,-10.9228,5.79044
-490,386,-10.881,-6.43097,0.00146548,0.00490114,-0.00290859,0.0065613,-0.000194687,-1.05214,0.00444052,0.0128934,734,638,-10.8811,6.43094
-483,386,-10.8699,-7.01074,0.00140539,0.00353117,-0.00222221,0.0049316,4.95673e-06,-1.00847,0.00328608,0.0168258,741,638,-10.8699,7.01074
-476,386,-10.8911,-7.52594,0.00149396,0.00248081,-0.0017366,0.00379272,0.000182048,-0.923817,0.00247003,0.015401,748,638,-10.891,7.52594
-469,386,-10.9229,-8.04736,0.00163833,0.00166243,-0.00136334,0.00301377,0.000286986,-0.789816,0.00192068,0.0109938,755,638,-10.9228,8.04735
-462,386,-10.9487,-8.61121,0.00165408,0.00102404,-0.00104648,0.00243192,0.000246193,-0.639199,0.00154577,0.0102603,762,638,-10.9487,8.61123
-455,386,-10.9717,-9.16327,0.00129545,0.000361703,-0.000408851,0.00144917,0.000207989,-0.359618,0.000904787,0.0121359,769,638,-10.9717,9.16329
-448,386,-10.9965,-9.71118,0.000969526,-0.000126659,0.000111079,0.000980669,-0.000137802,0.0999782,0.000704222,0.0125658,776,638,-10.9964,9.71119
-441,386,-11.0148,-10.2464,0.000299838,-0.000537534,0.000820516,0.000802316,-0.00104001,0.549483,0.00106662,0.013316,783,638,-11.0148,10.2464
-434,386,-10.9472,-10.8375,-0.000760312,-0.00116034,0.0018089,0.0008596,-0.00278025,0.730336,0.00219683,0.0367254,790,638,-10.9472,10.8375
-427,386,-10.8806,-11.3895,0,0,0,0,0,0,0,-1,797,638,-10.8806,11.3895
-420,386,-11.0076,-11.9025,0,0,0,0,0,0,0,-1,804,638,-11.0076,11.9025
-413,386,-5.45691,-5.35785,0,0,0,0,0,0,0,-1,811,638,-5.45691,5.35783
-406,386,-4.51135,-4.10999,0,0,0,0,0,0,0,-1,818,638,-4.51135,4.10996
-399,386,-3.57117,-3.42126,0,0,0,0,0,0,0,-1,825,638,-3.57116,3.42129
-392,386,-4.00977,0.403625,0,0,0,0,0,0,0,-1,832,638,-4.0098,-0.403616
-385,386,-3.2406,-0.118469,0,0,0,0,0,0,0,-1,839,638,-3.24058,0.118485
-378,386,-2.55243,-1.22748,0,0,0,0,0,0,0,-1,846,638,-2.55243,1.22748
-371,386,-7.95807,-0.330261,0,0,0,0,0,0,0,-1,853,638,-7.95806,0.330284
-364,386,-8.90637,-0.665955,0,0,0,0,0,0,0,-1,860,638,-8.90635,0.665951
-357,386,-9.10364,-0.388733,0,0,0,0,0,0,0,-1,867,638,-9.10364,0.388744
-350,386,0,0,0,0,0,0,0,0,0,-1,874,638,0,0
-343,386,0,0,0,0,0,0,0,0,0,-1,881,638,0,0
-336,386,0,0,0,0,0,0,0,0,0,-1,888,638,0,0
-329,386,0,0,0,0,0,0,0,0,0,-1,895,638,0,0
-322,386,0,0,0,0,0,0,0,0,0,-1,902,638,0,0
-315,386,0,0,0,0,0,0,0,0,0,-1,909,638,0,0
-308,386,0,0,0,0,0,0,0,0,0,-1,916,638,0,0
-301,386,0,0,0,0,0,0,0,0,0,-1,923,638,0,0
-294,386,0,0,0,0,0,0,0,0,0,-1,930,638,0,0
-287,386,0,0,0,0,0,0,0,0,0,-1,937,638,0,0
-280,386,0,0,0,0,0,0,0,0,0,-1,944,638,0,0
-273,386,0,0,0,0,0,0,0,0,0,-1,951,638,0,0
-266,386,0,0,0,0,0,0,0,0,0,-1,958,638,0,0
-259,386,0,0,0,0,0,0,0,0,0,-1,965,638,0,0
-252,386,0,0,0,0,0,0,0,0,0,-1,972,638,0,0
-245,386,0,0,0,0,0,0,0,0,0,-1,979,638,0,0
-238,386,0,0,0,0,0,0,0,0,0,-1,986,638,0,0
-231,386,0,0,0,0,0,0,0,0,0,-1,993,638,0,0
-224,386,0,0,0,0,0,0,0,0,0,-1,1000,638,0,0
-217,386,0,0,0,0,0,0,0,0,0,-1,1007,638,0,0
-210,386,0,0,0,0,0,0,0,0,0,-1,1014,638,0,0
-203,386,0,0,0,0,0,0,0,0,0,-1,1021,638,0,0
-196,386,0,0,0,0,0,0,0,0,0,-1,1028,638,0,0
-189,386,0,0,0,0,0,0,0,0,0,-1,1035,638,0,0
-182,386,0,0,0,0,0,0,0,0,0,-1,1042,638,0,0
-175,386,0,0,0,0,0,0,0,0,0,-1,1049,638,0,0
-168,386,0,0,0,0,0,0,0,0,0,-1,1056,638,0,0
-161,386,0,0,0,0,0,0,0,0,0,-1,1063,638,0,0
-154,386,0,0,0,0,0,0,0,0,0,-1,1070,638,0,0
-147,386,0,0,0,0,0,0,0,0,0,-1,1077,638,0,0
-140,386,0,0,0,0,0,0,0,0,0,-1,1084,638,0,0
-133,386,0,0,0,0,0,0,0,0,0,-1,1091,638,0,0
-126,386,0,0,0,0,0,0,0,0,0,-1,1098,638,0,0
-119,386,0,0,0,0,0,0,0,0,0,-1,1105,638,0,0
-112,386,0,0,0,0,0,0,0,0,0,-1,1112,638,0,0
-105,386,0,0,0,0,0,0,0,0,0,-1,1119,638,0,0
-98,386,0,0,0,0,0,0,0,0,0,-1,1126,638,0,0
-91,386,0,0,0,0,0,0,0,0,0,-1,1133,638,0,0
-84,386,0,0,0,0,0,0,0,0,0,-1,1140,638,0,0
-77,386,0,0,0,0,0,0,0,0,0,-1,1147,638,0,0
-70,386,0,0,0,0,0,0,0,0,0,-1,1154,638,0,0
-63,386,0,0,0,0,0,0,0,0,0,-1,1161,638,0,0
-56,386,0,0,0,0,0,0,0,0,0,-1,1168,638,0,0
-49,386,0,0,0,0,0,0,0,0,0,-1,1175,638,0,0
-42,386,0,0,0,0,0,0,0,0,0,-1,1182,638,0,0
-35,386,0,0,0,0,0,0,0,0,0,-1,1189,638,0,0
-28,386,0,0,0,0,0,0,0,0,0,-1,1196,638,0,0
-21,386,0,0,0,0,0,0,0,0,0,-1,1203,638,0,0
-14,386,0,0,0,0,0,0,0,0,0,-1,1210,638,0,0
-7,386,0,0,0,0,0,0,0,0,0,-1,1217,638,0,0
0,386,0,0,0,0,0,0,0,0,0,-1,1224,638,0,0
7,386,0,0,0,0,0,0,0,0,0,-1,1231,638,0,0
14,386,0,0,0,0,0,0,0,0,0,-1,1238,638,0,0
21,386,0,0,0,0,0,0,0,0,0,-1,1245,638,0,0
28,386,0,0,0,0,0,0,0,0,0,-1,1252,638,0,0
35,386,0,0,0,0,0,0,0,0,0,-1,1259,638,0,0
42,386,0,0,0,0,0,0,0,0,0,-1,1266,638,0,0
49,386,0,0,0,0,0,0,0,0,0,-1,1273,638,0,0
56,386,0,0,0,0,0,0,0,0,0,-1,1280,638,0,0
63,386,0,0,0,0,0,0,0,0,0,-1,1287,638,0,0
70,386,0,0,0,0,0,0,0,0,0,-1,1294,638,0,0
77,386,0,0,0,0,0,0,0,0,0,-1,1301,638,0,0
84,386,0,0,0,0,0,0,0,0,0,-1,1308,638,0,0
91,386,0,0,0,0,0,0,0,0,0,-1,1315,638,0,0
98,386,0,0,0,0,0,0,0,0,0,-1,1322,638,0,0
105,386,0,0,0,0,0,0,0,0,0,-1,1329,638,0,0
112,386,0,0,0,0,0,0,0,0,0,-1,1336,638,0,0
119,386,0,0,0,0,0,0,0,0,0,-1,1343,638,0,0
126,386,0,0,0,0,0,0,0,0,0,-1,1350,638,0,0
133,386,0,0,0,0,0,0,0,0,0,-1,1357,638,0,0
140,386,0,0,0,0,0,0,0,0,0,-1,1364,638,0,0
147,386,0,0,0,0,0,0,0,0,0,-1,1371,638,0,0
154,386,0,0,0,0,0,0,0,0,0,-1,1378,638,0,0
161,386,0,0,0,0,0,0,0,0,0,-1,1385,638,0,0
168,386,0,0,0,0,0,0,0,0,0,-1,1392,638,0,0
175,386,0,0,0,0,0,0,0,0,0,-1,1399,638,0,0
182,386,0,0,0,0,0,0,0,0,0,-1,1406,638,0,0
189,386,0,0,0,0,0,0,0,0,0,-1,1413,638,0,0
196,386,0,0,0,0,0,0,0,0,0,-1,1420,638,0,0
203,386,0,0,0,0,0,0,0,0,0,-1,1427,638,0,0
210,386,0,0,0,0,0,0,0,0,0,-1,1434,638,0,0
217,386,0,0,0,0,0,0,0,0,0,-1,1441,638,0,0
224,386,0,0,0,0,0,0,0,0,0,-1,1448,638,0,0
231,386,0,0,0,0,0,0,0,0,0,-1,1455,638,0,0
238,386,0,0,0,0,0,0,0,0,0,-1,1462,638,0,0
245,386,0,0,0,0,0,0,0,0,0,-1,1469,638,0,0
252,386,0,0,0,0,0,0,0,0,0,-1,1476,638,0,0
259,386,0,0,0,0,0,0,0,0,0,-1,1483,638,0,0
266,386,0,0,0,0,0,0,0,0,0,-1,1490,638,0,0
273,386,0,0,0,0,0,0,0,0,0,-1,1497,638,0,0
280,386,0,0,0,0,0,0,0,0,0,-1,1504,638,0,0
287,386,0,0,0,0,0,0,0,0,0,-1,1511,638,0,0
294,386,0,0,0,0,0,0,0,0,0,-1,1518,638,0,0
301,386,0,0,0,0,0,0,0,0,0,-1,1525,638,0,0
308,386,0,0,0,0,0,0,0,0,0,-1,1532,638,0,0
315,386,0,0,0,0,0,0,0,0,0,-1,1539,638,0,0
322,386,0,0,0,0,0,0,0,0,0,-1,1546,638,0,0
329,386,0,0,0,0,0,0,0,0,0,-1,1553,638,0,0
336,386,0,0,0,0,0,0,0,0,0,-1,1560,638,0,0
343,386,0,0,0,0,0,0,0,0,0,-1,1567,638,0,0
350,386,0,0,0,0,0,0,0,0,0,-1,1574,638,0,0
357,386,0,0,0,0,0,0,0,0,0,-1,1581,638,0,0
364,386,0,0,0,0,0,0,0,0,0,-1,1588,638,0,0
371,386,0,0,0,0,0,0,0,0,0,-1,1595,638,0,0
378,386,0,0,0,0,0,0,0,0,0,-1,1602,638,0,0
385,386,0,0,0,0,0,0,0,0,0,-1,1609,638,0,0
392,386,0,0,0,0,0,0,0,0,0,-1,1616,638,0,0
399,386,0,0,0,0,0,0,0,0,0,-1,1623,638,0,0
406,386,0,0,0,0,0,0,0,0,0,-1,1630,638,0,0
413,386,0,0,0,0,0,0,0,0,0,-1,1637,638,0,0
420,386,0,0,0,0,0,0,0,0,0,-1,1644,638,0,0
427,386,0,0,0,0,0,0,0,0,0,-1,1651,638,0,0
434,386,0,0,0,0,0,0,0,0,0,-1,1658,638,0,0
441,386,0,0,0,0,0,0,0,0,0,-1,1665,638,0,0
448,386,0,0,0,0,0,0,0,0,0,-1,1672,638,0,0
455,386,0,0,0,0,0,0,0,0,0,-1,1679,638,0,0
462,386,0,0,0,0,0,0,0,0,0,-1,1686,638,0,0
469,386,9.84692,1.55804,0,0,0,0,0,0,0,-1,1693,638,9.84691,-1.55807
476,386,10.6145,0.986511,0,0,0,0,0,0,0,-1,1700,638,10.6145,-0.986529
483,386,11.4113,0.732971,0,0,0,0,0,0,0,-1,1707,638,11.4112,-0.732958
490,386,7.79785,1.79572,0,0,0,0,0,0,0,-1,1714,638,7.79788,-1.7957
497,386,8.96362,1.77081,0,0,0,0,0,0,0,-1,1721,638,8.96357,-1.77081
504,386,10.0555,1.69427,0,0,0,0,0,0,0,-1,1728,638,10.0555,-1.69426
511,386,11.2172,1.534,0,0,0,0,0,0,0,-1,1735,638,11.2172,-1.53398
518,386,7.41553,1.75238,0,0,0,0,0,0,0,-1,1742,638,7.41547,-1.75238
525,386,8.82422,-1.1449,0,0,0,0,0,0,0,-1,1749,638,8.82426,1.14492
532,386,10.6432,0.617371,0,0,0,0,0,0,0,-1,1756,638,10.6432,-0.617359
539,386,9.62061,-0.393616,0,0,0,0,0,0,0,-1,1763,638,9.62059,0.393634
546,386,10.7963,-2.854,0,0,0,0,0,0,0,-1,1770,638,10.7962,2.854
553,386,16.9939,-7.27942,0,0,0,0,0,0,0,-1,1777,638,16.9939,7.27944
560,386,21.1165,-9.57867,0,0,0,0,0,0,0,-1,1784,638,21.1165,9.57866
567,386,21.118,-8.67902,0.00579457,0.000967258,0.00145579,0.00619962,0.000562214,0.271366,0.003959,0.0305741,1791,638,21.1181,8.67904
574,386,21.191,-8.12012,0.00432846,0.000719608,0.000948203,0.00456242,0.000485642,0.241915,0.00289335,0.0146449,1798,638,21.191,8.12013
581,386,21.1306,-7.59546,0.00317052,0.000709229,0.000659895,0.00333628,0.000543469,0.246101,0.00206699,0.0146081,1805,638,21.1306,7.59544
588,386,21.129,-7.02533,0.00236402,0.000868444,0.000570702,0.00255692,0.000675547,0.325944,0.00152998,0.0139191,1812,638,21.129,7.02532
595,386,21.1215,-6.44183,0.00195871,0.0011682,0.000684332,0.00235373,0.000773177,0.523512,0.00138532,0.0142267,1819,638,21.1214,6.44185
602,386,21.0918,-5.85773,0.00192996,0.00171268,0.00105939,0.00288627,0.000756372,0.734301,0.00172814,0.0144677,1826,638,21.0918,5.85773
609,386,21.0956,-5.28625,0.0020356,0.00238264,0.00153809,0.00375697,0.000661273,0.841568,0.00231591,0.0144829,1833,638,21.0956,5.28627
616,386,21.0757,-4.70001,0.00214041,0.00303897,0.00194434,0.00458526,0.000594123,0.898942,0.0028793,0.0124723,1840,638,21.0757,4.7
623,386,21.0385,-4.11188,0.00271218,0.00378631,0.00259765,0.00590183,0.000596662,0.887337,0.00375152,0.0106229,1847,638,21.0384,4.1119
630,386,21.1559,-3.46924,0.00318509,0.00449447,0.00310937,0.00701733,0.000662235,0.88916,0.00447384,0.036099,1854,638,21.1559,3.46923
637,386,21.2847,-2.81146,0,0,0,0,0,0,0,-1,1861,638,21.2847,2.81148
644,386,11.6521,0.723328,0,0,0,0,0,0,0,-1,1868,638,11.6521,-0.723355
651,386,9.3866,1.31097,0,0,0,0,0,0,0,-1,1875,638,9.3866,-1.31095
658,386,12.0731,-0.00415039,0,0,0,0,0,0,0,-1,1882,638,12.0731,0.00412803
665,386,6.33167,1.78601,0,0,0,0,0,0,0,-1,1889,638,6.33171,-1.78601
672,386,7.23352,2.14435,0,0,0,0,0,0,0,-1,1896,638,7.23353,-2.14433
679,386,8.07764,2.57104,0,0,0,0,0,0,0,-1,1903,638,8.07758,-2.57103
686,386,0,0,0,0,0,0,0,0,0,-1,1910,638,0,0
693,386,0,0,0,0,0,0,0,0,0,-1,1917,638,0,0
700,386,0,0,0,0,0,0,0,0,0,-1,1924,638,0,0
707,386,0,0,0,0,0,0,0,0,0,-1,1931,638,0,0
714,386,0,0,0,0,0,0,0,0,0,-1,1938,638,0,0
721,386,0,0,0,0,0,0,0,0,0,-1,1945,638,0,0
728,386,0,0,0,0,0,0,0,0,0,-1,1952,638,0,0
735,386,0,0,0,0,0,0,0,0,0,-1,1959,638,0,0
742,386,0,0,0,0,0,0,0,0,0,-1,1966,638,0,0
749,386,0,0,0,0,0,0,0,0,0,-1,1973,638,0,0
756,386,0,0,0,0,0,0,0,0,0,-1,1980,638,0,0
763,386,0,0,0,0,0,0,0,0,0,-1,1987,638,0,0
770,386,0,0,0,0,0,0,0,0,0,-1,1994,638,0,0
777,386,0,0,0,0,0,0,0,0,0,-1,2001,638,0,0
784,386,0,0,0,0,0,0,0,0,0,-1,2008,638,0,0
791,386,0,0,0,0,0,0,0,0,0,-1,2015,638,0,0
798,386,0,0,0,0,0,0,0,0,0,-1,2022,638,0,0
805,386,0,0,0,0,0,0,0,0,0,-1,2029,638,0,0
812,386,0,0,0,0,0,0,0,0,0,-1,2036,638,0,0
-700,379,0,0,0,0,0,0,0,0,0,-1,524,645,0,0
-693,379,0,0,0,0,0,0,0,0,0,-1,531,645,0,0
-686,379,0,0,0,0,0,0,0,0,0,-1,538,645,0,0
-679,379,0,0,0,0,0,0,0,0,0,-1,545,645,0,0
-672,379,0,0,0,0,0,0,0,0,0,-1,552,645,0,0
-665,379,0,0,0,0,0,0,0,0,0,-1,559,645,0,0
-658,379,0,0,0,0,0,0,0,0,0,-1,566,645,0,0
-651,379,0,0,0,0,0,0,0,0,0,-1,573,645,0,0
-644,379,0,0,0,0,0,0,0,0,0,-1,580,645,0,0
-637,379,0,0,0,0,0,0,0,0,0,-1,587,645,0,0
-630,379,0,0,0,0,0,0,0,0,0,-1,594,645,0,0
-623,379,0,0,0,0,0,0,0,0,0,-1,601,645,0,0
-616,379,0,0,0,0,0,0,0,0,0,-1,608,645,0,0
-609,379,0,0,0,0,0,0,0,0,0,-1,615,645,0,0
-602,379,0,0,0,0,0,0,0,0,0,-1,622,645,0,0
-595,379,0,0,0,0,0,0,0,0,0,-1,629,645,0,0
-588,379,0,0,0,0,0,0,0,0,0,-1,636,645,0,0
-581,379,0,0,0,0,0,0,0,0,0,-1,643,645,0,0
-574,379,0,0,0,0,0,0,0,0,0,-1,650,645,0,0
-567,379,-8.78058,0.59668,0,0,0,0,0,0,0,-1,657,645,-8.7806,-0.596692
-560,379,-9.53485,-0.211304,0,0,0,0,0,0,0,-1,664,645,-9.53487,0.211282
-553,379,-5.17108,-4.53119,0,0,0,0,0,0,0,-1,671,645,-5.17106,4.53117
-546,379,-6.23053,-4.92102,0,0,0,0,0,0,0,-1,678,645,-6.23054,4.92105
-539,379,-0.71698,-2.19427,0,0,0,0,0,0,0,-1,685,645,-0.716959,2.19427
-532,379,-7.69611,0.217224,0,0,0,0,0,0,0,-1,692,645,-7.69614,-0.217204
-525,379,-7.09833,-1.13043,0,0,0,0,0,0,0,-1,699,645,-7.0983,1.13041
-518,379,-10.5613,-3.82849,0,0,0,0,0,0,0,-1,706,645,-10.5613,3.82849
-511,379,-11.3936,-4.64435,0,0,0,0,0,0,0,-1,713,645,-11.3936,4.64433
-504,379,-11.3555,-5.3006,0.00283919,0.0086701,-0.0051395,0.0116635,-0.000154194,-1.0434,0.00782756,0.0274305,720,645,-11.3555,5.30059
-497,379,-11.4192,-5.83539,0.00203479,0.00603693,-0.00346902,0.00804065,3.10633e-05,-1.04701,0.00535011,0.0138135,727,645,-11.4192,5.83541
-490,379,-11.4287,-6.39923,0.00141098,0.00389883,-0.00212779,0.00511962,0.000190187,-1.04991,0.00335149,0.011163,734,645,-11.4287,6.39921
-483,379,-11.4374,-6.96722,0.00144143,0.00276859,-0.00161421,0.00385029,0.000359731,-0.980412,0.00245575,0.0126522,741,645,-11.4374,6.96725
-476,379,-11.4471,-7.48914,0.0016188,0.00191004,-0.00129232,0.00306491,0.000463923,-0.841503,0.00190753,0.0131408,748,645,-11.4471,7.48915
-469,379,-11.4808,-8.01147,0.00185525,0.00126058,-0.00107926,0.00267738,0.000438448,-0.650984,0.00165821,0.0115558,755,645,-11.4808,8.01147
-462,379,-11.5013,-8.57422,0.00196439,0.000786697,-0.0009343,0.00247992,0.000271163,-0.504214,0.00157072,0.008664,762,645,-11.5013,8.57422
-455,379,-11.5118,-9.12726,0.00167627,0.000256751,-0.00043437,0.00179864,0.000134384,-0.274597,0.0011569,0.0090569,769,645,-11.5118,9.12728
-448,379,-11.5148,-9.65839,0.00142233,2.26485e-06,-0.000111538,0.00143103,-6.44248e-06,-0.0779078,0.000956177,0.0111353,776,645,-11.5148,9.6584
-441,379,-11.4933,-10.2415,0.000829599,-0.00016999,0.000371905,0.000952788,-0.000293178,0.319862,0.00075221,0.0228368,783,645,-11.4933,10.2415
-434,379,-11.3794,-10.9728,0,0,0,0,0,0,0,-1,790,645,-11.3794,10.9728
-427,379,-4.16113,-4.13452,0,0,0,0,0,0,0,-1,797,645,-4.16116,4.1345
-420,379,-4.63953,-3.46869,0,0,0,0,0,0,0,-1,804,645,-4.63953,3.46872
-413,379,-4.62543,-3.7912,0,0,0,0,0,0,0,-1,811,645,-4.62541,3.79123
-406,379,-4.64063,-4.38489,0,0,0,0,0,0,0,-1,818,645,-4.64065,4.3849
-399,379,-2.93536,-1.40118,0,0,0,0,0,0,0,-1,825,645,-2.93534,1.40119
-392,379,-4.16711,-0.466003,0,0,0,0,0,0,0,-1,832,645,-4.16714,0.465992
-385,379,-3.51862,0.441101,0,0,0,0,0,0,0,-1,839,645,-3.51859,-0.441072
-378,379,-5.3504,0.212219,0,0,0,0,0,0,0,-1,846,645,-5.35038,-0.212241
-371,379,-4.32092,-0.186707,0,0,0,0,0,0,0,-1,853,645,-4.3209,0.186707
-364,379,-3.40887,-0.549805,0,0,0,0,0,0,0,-1,860,645,-3.4089,0.549802
-357,379,0,0,0,0,0,0,0,0,0,-1,867,645,0,0
-350,379,0,0,0,0,0,0,0,0,0,-1,874,645,0,0
-343,379,0,0,0,0,0,0,0,0,0,-1,881,645,0,0
-336,379,0,0,0,0,0,0,0,0,0,-1,888,645,0,0
-329,379,0,0,0,0,0,0,0,0,0,-1,895,645,0,0
-322,379,0,0,0,0,0,0,0,0,0,-1,902,645,0,0
-315,379,0,0,0,0,0,0,0,0,0,-1,909,645,0,0
-308,379,0,0,0,0,0,0,0,0,0,-1,916,645,0,0
-301,379,0,0,0,0,0,0,0,0,0,-1,923,645,0,0
-294,379,0,0,0,0,0,0,0,0,0,-1,930,645,0,0
-287,379,0,0,0,0,0,0,0,0,0,-1,937,645,0,0
-280,379,0,0,0,0,0,0,0,0,0,-1,944,645,0,0
-273,379,0,0,0,0,0,0,0,0,0,-1,951,645,0,0
-266,379,0,0,0,0,0,0,0,0,0,-1,958,645,0,0
-259,379,0,0,0,0,0,0,0,0,0,-1,965,645,0,0
-252,379,0,0,0,0,0,0,0,0,0,-1,972,645,0,0
-245,379,0,0,0,0,0,0,0,0,0,-1,979,645,0,0
-238,379,0,0,0,0,0,0,0,0,0,-1,986,645,0,0
-231,379,0,0,0,0,0,0,0,0,0,-1,993,645,0,0
-224,379,0,0,0,0,0,0,0,0,0,-1,1000,645,0,0
-217,379,0,0,0,0,0,0,0,0,0,-1,1007,645,0,0
-210,379,0,0,0,0,0,0,0,0,0,-1,1014,645,0,0
-203,379,0,0,0,0,0,0,0,0,0,-1,1021,645,0,0
-196,379,0,0,0,0,0,0,0,0,0,-1,1028,645,0,0
-189,379,0,0,0,0,0,0,0,0,0,-1,1035,645,0,0
-182,379,0,0,0,0,0,0,0,0,0,-1,1042,645,0,0
-175,379,0,0,0,0,0,0,0,0,0,-1,1049,645,0,0
-168,379,0,0,0,0,0,0,0,0,0,-1,1056,645,0,0
-161,379,0,0,0,0,0,0,0,0,0,-1,1063,645,0,0
-154,379,0,0,0,0,0,0,0,0,0,-1,1070,645,0,0
-147,379,0,0,0,0,0,0,0,0,0,-1,1077,645,0,0
-140,379,0,0,0,0,0,0,0,0,0,-1,1084,645,0,0
-133,379,0,0,0,0,0,0,0,0,0,-1,1091,645,0,0
-126,379,0,0,0,0,0,0,0,0,0,-1,1098,645,0,0
-119,379,0,0,0,0,0,0,0,0,0,-1,1105,645,0,0
-112,379,0,0,0,0,0,0,0,0,0,-1,1112,645,0,0
-105,379,0,0,0,0,0,0,0,0,0,-1,1119,645,0,0
-98,379,0,0,0,0,0,0,0,0,0,-1,1126,645,0,0
-91,379,0,0,0,0,0,0,0,0,0,-1,1133,645,0,0
-84,379,0,0,0,0,0,0,0,0,0,-1,1140,645,0,0
-77,379,0,0,0,0,0,0,0,0,0,-1,1147,645,0,0
-70,379,0,0,0,0,0,0,0,0,0,-1,1154,645,0,0
-63,379,0,0,0,0,0,0,0,0,0,-1,1161,645,0,0
-56,379,0,0,0,0,0,0,0,0,0,-1,1168,645,0,0
-49,379,0,0,0,0,0,0,0,0,0,-1,1175,645,0,0
-42,379,0,0,0,0,0,0,0,0,0,-1,1182,645,0,0
-35,379,0,0,0,0,0,0,0,0,0,-1,1189,645,0,0
-28,379,0,0,0,0,0,0,0,0,0,-1,1196,645,0,0
-21,379,0,0,0,0,0,0,0,0,0,-1,1203,645,0,0
-14,379,0,0,0,0,0,0,0,0,0,-1,1210,645,0,0
-7,379,0,0,0,0,0,0,0,0,0,-1,1217,645,0,0
0,379,0,0,0,0,0,0,0,0,0,-1,1224,645,0,0
7,379,0,0,0,0,0,0,0,0,0,-1,1231,645,0,0
14,379,0,0,0,0,0,0,0,0,0,-1,1238,645,0,0
21,379,0,0,0,0,0,0,0,0,0,-1,1245,645,0,0
28,379,0,0,0,0,0,0,0,0,0,-1,1252,645,0,0
35,379,0,0,0,0,0,0,0,0,0,-1,1259,645,0,0
42,379,0,0,0,0,0,0,0,0,0,-1,1266,645,0,0
49,379,0,0,0,0,0,0,0,0,0,-1,1273,645,0,0
56,379,0,0,0,0,0,0,0,0,0,-1,1280,645,0,0
63,379,0,0,0,0,0,0,0,0,0,-1,1287,645,0,0
70,379,0,0,0,0,0,0,0,0,0,-1,1294,645,0,0
77,379,0,0,0,0,0,0,0,0,0,-1,1301,645,0,0
84,379,0,0,0,0,0,0,0,0,0,-1,1308,645,0,0
91,379,0,0,0,0,0,0,0,0,0,-1,1315,645,0,0
98,379,0,0,0,0,0,0,0,0,0,-1,1322,645,0,0
105,379,0,0,0,0,0,0,0,0,0,-1,1329,645,0,0
112,379,0,0,0,0,0,0,0,0,0,-1,1336,645,0,0
119,379,0,0,0,0,0,0,0,0,0,-1,1343,645,0,0
126,379,0,0,0,0,0,0,0,0,0,-1,1350,645,0,0
133,379,0,0,0,0,0,0,0,0,0,-1,1357,645,0,0
140,379,0,0,0,0,0,0,0,0,0,-1,1364,645,0,0
147,379,0,0,0,0,0,0,0,0,0,-1,1371,645,0,0
154,379,0,0,0,0,0,0,0,0,0,-1,1378,645,0,0
161,379,0,0,0,0,0,0,0,0,0,-1,1385,645,0,0
168,379,0,0,0,0,0,0,0,0,0,-1,1392,645,0,0
175,379,0,0,0,0,0,0,0,0,0,-1,1399,645,0,0
182,379,0,0,0,0,0,0,0,0,0,-1,1406,645,0,0
189,379,0,0,0,0,0,0,0,0,0,-1,1413,645,0,0
196,379,0,0,0,0,0,0,0,0,0,-1,1420,645,0,0
203,379,0,0,0,0,0,0,0,0,0,-1,1427,645,0,0
210,379,0,0,0,0,0,0,0,0,0,-1,1434,645,0,0
217,379,0,0,0,0,0,0,0,0,0,-1,1441,645,0,0
224,379,0,0,0,0,0,0,0,0,0,-1,1448,645,0,0
231,379,0,0,0,0,0,0,0,0,0,-1,1455,645,0,0
238,379,0,0,0,0,0,0,0,0,0,-1,1462,645,0,0
245,379,0,0,0,0,0,0,0,0,0,-1,1469,645,0,0
252,379,0,0,0,0,0,0,0,0,0,-1,1476,645,0,0
259,379,0,0,0,0,0,0,0,0,0,-1,1483,645,0,0
266,379,0,0,0,0,0,0,0,0,0,-1,1490,645,0,0
273,379,0,0,0,0,0,0,0,0,0,-1,1497,645,0,0
280,379,0,0,0,0,0,0,0,0,0,-1,1504,645,0,0
287,379,0,0,0,0,0,0,0,0,0,-1,1511,645,0,0
294,379,0,0,0,0,0,0,0,0,0,-1,1518,645,0,0
301,379,0,0,0,0,0,0,0,0,0,-1,1525,645,0,0
308,379,0,0,0,0,0,0,0,0,0,-1,1532,645,0,0
315,379,0,0,0,0,0,0,0,0,0,-1,1539,645,0,0
322,379,0,0,0,0,0,0,0,0,0,-1,1546,645,0,0
329,379,0,0,0,0,0,0,0,0,0,-1,1553,645,0,0
336,379,0,0,0,0,0,0,0,0,0,-1,1560,645,0,0
343,379,0,0,0,0,0,0,0,0,0,-1,1567,645,0,0
350,379,0,0,0,0,0,0,0,0,0,-1,1574,645,0,0
357,379,0,0,0,0,0,0,0,0,0,-1,1581,645,0,0
364,379,0,0,0,0,0,0,0,0,0,-1,1588,645,0,0
371,379,0,0,0,0,0,0,0,0,0,-1,1595,645,0,0
378,379,0,0,0,0,0,0,0,0,0,-1,1602,645,0,0
385,379,0,0,0,0,0,0,0,0,0,-1,1609,645,0,0
392,379,0,0,0,0,0,0,0,0,0,-1,1616,645,0,0
399,379,0,0,0,0,0,0,0,0,0,-1,1623,645,0,0
406,379,0,0,0,0,0,0,0,0,0,-1,1630,645,0,0
413,379,0,0,0,0,0,0,0,0,0,-1,1637,645,0,0
420,379,0,0,0,0,0,0,0,0,0,-1,1644,645,0,0
427,379,0,0,0,0,0,0,0,0,0,-1,1651,645,0,0
434,379,0,0,0,0,0,0,0,0,0,-1,1658,645,0,0
441,379,0,0,0,0,0,0,0,0,0,-1,1665,645,0,0
448,379,0,0,0,0,0,0,0,0,0,-1,1672,645,0,0
455,379,0,0,0,0,0,0,0,0,0,-1,1679,645,0,0
462,379,0,0,0,0,0,0,0,0,0,-1,1686,645,0,0
469,379,0,0,0,0,0,0,0,0,0,-1,1693,645,0,0
476,379,11.1787,0.830383,0,0,0,0,0,0,0,-1,1700,645,11.1787,-0.830365
483,379,7.4231,1.54321,0,0,0,0,0,0,0,-1,1707,645,7.42314,-1.54324
490,379,8.52881,1.56677,0,0,0,0,0,0,0,-1,1714,645,8.52878,-1.56677
497,379,9.63599,1.49573,0,0,0,0,0,0,0,-1,1721,645,9.63604,-1.4957
504,379,10.0833,1.35229,0,0,0,0,0,0,0,-1,1728,645,10.0832,-1.35227
511,379,8.14343,1.59912,0,0,0,0,0,0,0,-1,1735,645,8.14347,-1.59912
518,379,12.7955,-0.324097,0,0,0,0,0,0,0,-1,1742,645,12.7955,0.324101
525,379,6.03711,1.10352,0,0,0,0,0,0,0,-1,1749,645,6.03711,-1.10351
532,379,8.70947,0.887817,0,0,0,0,0,0,0,-1,1756,645,8.70953,-0.887808
539,379,9.87097,0.111389,0,0,0,0,0,0,0,-1,1763,645,9.87095,-0.111395
546,379,8.42383,-0.730652,0,0,0,0,0,0,0,-1,1770,645,8.42378,0.730638
553,379,19.2905,-7.67834,0,0,0,0,0,0,0,-1,1777,645,19.2905,7.67837
560,379,21.3346,-9.1947,0,0,0,0,0,0,0,-1,1784,645,21.3346,9.19468
567,379,21.5398,-8.62915,0.00667045,0.000746279,0.00144751,0.00700522,0.000411513,0.227275,0.0045392,0.0401242,1791,645,21.5398,8.62916
574,379,21.7715,-8.09814,0.00493501,0.000546363,0.00088398,0.00510637,0.000374999,0.19148,0.00328639,0.0139189,1798,645,21.7715,8.09812
581,379,21.7372,-7.54382,0.00360775,0.000571612,0.000548916,0.00370394,0.000475419,0.173481,0.00232706,0.0157813,1805,645,21.7372,7.54382
588,379,21.7075,-6.96899,0.00271246,0.000719197,0.0004429,0.00280644,0.000625216,0.209092,0.00170129,0.0180683,1812,645,21.7075,6.96899
595,379,21.694,-6.40668,0.00224173,0.00102071,0.00053097,0.00244032,0.000822117,0.357916,0.00143369,0.0150045,1819,645,21.694,6.40667
602,379,21.6606,-5.84741,0.00214192,0.00152123,0.00085608,0.00274217,0.000920978,0.611508,0.00161138,0.0148939,1826,645,21.6606,5.84741
609,379,21.6392,-5.28485,0.00214111,0.00210326,0.00125839,0.00338071,0.000863656,0.777878,0.00202817,0.0154829,1833,645,21.6392,5.28487
616,379,21.6243,-4.70734,0.00208728,0.00260457,0.00153989,0.00390738,0.000784467,0.868603,0.0023868,0.0129102,1840,645,21.6242,4.70736
623,379,21.6089,-4.08539,0.00229037,0.00315484,0.00197753,0.00474682,0.000698392,0.892992,0.00295935,0.0117943,1847,645,21.6088,4.08538
630,379,21.589,-3.51093,0.00225585,0.00359566,0.00224276,0.00526643,0.000585081,0.930528,0.00333309,0.0135807,1854,645,21.5889,3.51095
637,379,21.6217,-2.83026,0.00181489,0.00396034,0.00232834,0.00545119,0.000324041,1.00127,0.00353107,0.0423774,1861,645,21.6217,2.83024
644,379,21.8739,-2.03345,0,0,0,0,0,0,0,-1,1868,645,21.8739,2.03344
651,379,12.9515,0.220825,0,0,0,0,0,0,0,-1,1875,645,12.9515,-0.220814
658,379,13.7498,0.37439,0,0,0,0,0,0,0,-1,1882,645,13.7498,-0.374371
665,379,11.9719,0.353333,0,0,0,0,0,0,0,-1,1889,645,11.9719,-0.353321
672,379,7.57605,2.15326,0,0,0,0,0,0,0,-1,1896,645,7.57599,-2.15326
679,379,8.55078,2.50409,0,0,0,0,0,0,0,-1,1903,645,8.55073,-2.50406
686,379,0,0,0,0,0,0,0,0,0,-1,1910,645,0,0
693,379,0,0,0,0,0,0,0,0,0,-1,1917,645,0,0
700,379,0,0,0,0,0,0,0,0,0,-1,1924,645,0,0
707,379,0,0,0,0,0,0,0,0,0,-1,1931,645,0,0
714,379,0,0,0,0,0,0,0,0,0,-1,1938,645,0,0
721,379,0,0,0,0,0,0,0,0,0,-1,1945,645,0,0
728,379,0,0,0,0,0,0,0,0,0,-1,1952,645,0,0
735,379,0,0,0,0,0,0,0,0,0,-1,1959,645,0,0
742,379,0,0,0,0,0,0,0,0,0,-1,1966,645,0,0
749,379,0,0,0,0,0,0,0,0,0,-1,1973,645,0,0
756,379,0,0,0,0,0,0,0,0,0,-1,1980,645,0,0
763,379,0,0,0,0,0,0,0,0,0,-1,1987,645,0,0
770,379,0,0,0,0,0,0,0,0,0,-1,1994,645,0,0
777,379,0,0,0,0,0,0,0,0,0,-1,2001,645,0,0
784,379,0,0,0,0,0,0,0,0,0,-1,2008,645,0,0
791,379,0,0,0,0,0,0,0,0,0,-1,2015,645,0,0
798,379,0,0,0,0,0,0,0,0,0,-1,2022,645,0,0
805,379,0,0,0,0,0,0,0,0,0,-1,2029,645,0,0
812,379,0,0,0,0,0,0,0,0,0,-1,2036,645,0,0
-700,372,0,0,0,0,0,0,0,0,0,-1,524,652,0,0
-693,372,0,0,0,0,0,0,0,0,0,-1,531,652,0,0
-686,372,0,0,0,0,0,0,0,0,0,-1,538,652,0,0
-679,372,0,0,0,0,0,0,0,0,0,-1,545,652,0,0
-672,372,0,0,0,0,0,0,0,0,0,-1,552,652,0,0
-665,372,0,0,0,0,0,0,0,0,0,-1,559,652,0,0
-658,372,0,0,0,0,0,0,0,0,0,-1,566,652,0,0
-651,372,0,0,0,0,0,0,0,0,0,-1,573,652,0,0
-644,372,0,0,0,0,0,0,0,0,0,-1,580,652,0,0
-637,372,0,0,0,0,0,0,0,0,0,-1,587,652,0,0
-630,372,0,0,0,0,0,0,0,0,0,-1,594,652,0,0
-623,372,0,0,0,0,0,0,0,0,0,-1,601,652,0,0
-616,372,0,0,0,0,0,0,0,0,0,-1,608,652,0,0
-609,372,0,0,0,0,0,0,0,0,0,-1,615,652,0,0
-602,372,0,0,0,0,0,0,0,0,0,-1,622,652,0,0
-595,372,0,0,0,0,0,0,0,0,0,-1,629,652,0,0
-588,372,0,0,0,0,0,0,0,0,0,-1,636,652,0,0
-581,372,0,0,0,0,0,0,0,0,0,-1,643,652,0,0
-574,372,0,0,0,0,0,0,0,0,0,-1,650,652,0,0
-567,372,-7.93744,0.73407,0,0,0,0,0,0,0,-1,657,652,-7.93741,-0.734076
-560,372,-8.78552,-0.158203,0,0,0,0,0,0,0,-1,664,652,-8.78552,0.158216
-553,372,-7.95551,1.61694,0,0,0,0,0,0,0,-1,671,652,-7.95552,-1.61697
-546,372,-4.2403,-3.75372,0,0,0,0,0,0,0,-1,678,652,-4.24028,3.75369
-539,372,-7.92285,-0.0650024,0,0,0,0,0,0,0,-1,685,652,-7.92287,0.0649772
-532,372,-8.59589,-0.419556,0,0,0,0,0,0,0,-1,692,652,-8.59591,0.419539
-525,372,-8.03674,-1.36804,0,0,0,0,0,0,0,-1,699,652,-8.03676,1.36806
-518,372,-11.9701,-4.04749,0,0,0,0,0,0,0,-1,706,652,-11.9701,4.04747
-511,372,-11.941,-4.72058,0.00441364,0.0105494,-0.00657035,0.0147328,0.000230201,-1.00382,0.00974604,0.0327872,713,652,-11.941,4.72058
-504,372,-11.9678,-5.23785,0.00298076,0.00731907,-0.00433165,0.00999434,0.000305491,-1.01753,0.00656343,0.0160206,720,652,-11.9679,5.23784
-497,372,-11.9454,-5.83899,0.0022288,0.00500207,-0.0028723,0.00680493,0.000425943,-1.01028,0.00440151,0.0124059,727,652,-11.9454,5.83899
-490,372,-11.9695,-6.36798,0.00160538,0.00305086,-0.00165385,0.004133,0.000523243,-0.991394,0.00259854,0.0121117,734,652,-11.9695,6.368
-483,372,-11.999,-6.89215,0.00169841,0.00211843,-0.00127729,0.00320286,0.000613978,-0.866878,0.00196285,0.0119957,741,652,-11.999,6.89214
-476,372,-12.0112,-7.42749,0.0019187,0.00142455,-0.00106661,0.00276648,0.000576771,-0.671582,0.00168529,0.0135938,748,652,-12.0112,7.42748
-469,372,-12.0239,-7.97186,0.00218509,0.000926583,-0.00096018,0.00270383,0.000407835,-0.495335,0.00168316,0.0110687,755,652,-12.0239,7.97189
-462,372,-12.033,-8.54315,0.002328,0.000606048,-0.000928033,0.00273293,0.000201115,-0.411432,0.00175875,0.00944619,762,652,-12.033,8.54315
-455,372,-12.0566,-9.09595,0.00206455,0.000208702,-0.000519379,0.00220002,7.32365e-05,-0.255138,0.00144289,0.00989251,769,652,-12.0566,9.09594
-448,372,-12.056,-9.63538,0.00180758,0.000230702,-0.00034111,0.00187821,0.000160077,-0.204161,0.00120234,0.0122698,776,652,-12.056,9.63535
-441,372,-11.8495,-10.3375,0,0,0,0,0,0,0,-1,783,652,-11.8495,10.3375
-434,372,-9.86865,-9.68494,0,0,0,0,0,0,0,-1,790,652,-9.86863,9.68492
-427,372,-4.54248,-3.56268,0,0,0,0,0,0,0,-1,797,652,-4.54247,3.56266
-420,372,-4.66168,-2.93597,0,0,0,0,0,0,0,-1,804,652,-4.66166,2.93599
-413,372,-4.74762,-3.29541,0,0,0,0,0,0,0,-1,811,652,-4.74763,3.29542
-406,372,-0.885437,-0.583923,0,0,0,0,0,0,0,-1,818,652,-0.885437,0.5839
-399,372,-3.97357,-0.825012,0,0,0,0,0,0,0,-1,825,652,-3.97359,0.825037
-392,372,-7.64337,0.173035,0,0,0,0,0,0,0,-1,832,652,-7.64337,-0.173019
-385,372,-6.48871,-0.0271606,0,0,0,0,0,0,0,-1,839,652,-6.48874,0.0271353
-378,372,-5.33044,-0.242432,0,0,0,0,0,0,0,-1,846,652,-5.33042,0.242457
-371,372,-4.40802,-0.495667,0,0,0,0,0,0,0,-1,853,652,-4.40802,0.495661
-364,372,0,0,0,0,0,0,0,0,0,-1,860,652,0,0
-357,372,0,0,0,0,0,0,0,0,0,-1,867,652,0,0
-350,372,0,0,0,0,0,0,0,0,0,-1,874,652,0,0
-343,372,0,0,0,0,0,0,0,0,0,-1,881,652,0,0
-336,372,0,0,0,0,0,0,0,0,0,-1,888,652,0,0
-329,372,0,0,0,0,0,0,0,0,0,-1,895,652,0,0
-322,372,0,0,0,0,0,0,0,0,0,-1,902,652,0,0
-315,372,0,0,0,0,0,0,0,0,0,-1,909,652,0,0
-308,372,0,0,0,0,0,0,0,0,0,-1,916,652,0,0
-301,372,0,0,0,0,0,0,0,0,0,-1,923,652,0,0
-294,372,0,0,0,0,0,0,0,0,0,-1,930,652,0,0
-287,372,0,0,0,0,0,0,0,0,0,-1,937,652,0,0
-280,372,0,0,0,0,0,0,0,0,0,-1,944,652,0,0
-273,372,0,0,0,0,0,0,0,0,0,-1,951,652,0,0
-266,372,0,0,0,0,0,0,0,0,0,-1,958,652,0,0
-259,372,0,0,0,0,0,0,0,0,0,-1,965,652,0,0
-252,372,0,0,0,0,0,0,0,0,0,-1,972,652,0,0
-245,372,0,0,0,0,0,0,0,0,0,-1,979,652,0,0
-238,372,0,0,0,0,0,0,0,0,0,-1,986,652,0,0
-231,372,0,0,0,0,0,0,0,0,0,-1,993,652,0,0
-224,372,0,0,0,0,0,0,0,0,0,-1,1000,652,0,0
-217,372,0,0,0,0,0,0,0,0,0,-1,1007,652,0,0
-210,372,0,0,0,0,0,0,0,0,0,-1,1014,652,0,0
-203,372,0,0,0,0,0,0,0,0,0,-1,1021,652,0,0
-196,372,0,0,0,0,0,0,0,0,0,-1,1028,652,0,0
-189,372,0,0,0,0,0,0,0,0,0,-1,1035,652,0,0
-182,372,0,0,0,0,0,0,0,0,0,-1,1042,652,0,0
-175,372,0,0,0,0,0,0,0,0,0,-1,1049,652,0,0
-168,372,0,0,0,0,0,0,0,0,0,-1,1056,652,0,0
-161,372,0,0,0,0,0,0,0,0,0,-1,1063,652,0,0
-154,372,0,0,0,0,0,0,0,0,0,-1,1070,652,0,0
-147,372,0,0,0,0,0,0,0,0,0,-1,1077,652,0,0
-140,372,0,0,0,0,0,0,0,0,0,-1,1084,652,0,0
-133,372,0,0,0,0,0,0,0,0,0,-1,1091,652,0,0
-126,372,0,0,0,0,0,0,0,0,0,-1,1098,652,0,0
-119,372,0,0,0,0,0,0,0,0,0,-1,1105,652,0,0
-112,372,0,0,0,0,0,0,0,0,0,-1,1112,652,0,0
-105,372,0,0,0,0,0,0,0,0,0,-1,1119,652,0,0
-98,372,0,0,0,0,0,0,0,0,0,-1,1126,652,0,0
-91,372,0,0,0,0,0,0,0,0,0,-1,1133,652,0,0
-84,372,0,0,0,0,0,0,0,0,0,-1,1140,652,0,0
-77,372,0,0,0,0,0,0,0,0,0,-1,1147,652,0,0
-70,372,0,0,0,0,0,0,0,0,0,-1,1154,652,0,0
-63,372,0,0,0,0,0,0,0,0,0,-1,1161,652,0,0
-56,372,0,0,0,0,0,0,0,0,0,-1,1168,652,0,0
-49,372,0,0,0,0,0,0,0,0,0,-1,1175,652,0,0
-42,372,0,0,0,0,0,0,0,0,0,-1,1182,652,0,0
-35,372,0,0,0,0,0,0,0,0,0,-1,1189,652,0,0
-28,372,0,0,0,0,0,0,0,0,0,-1,1196,652,0,0
-21,372,0,0,0,0,0,0,0,0,0,-1,1203,652,0,0
-14,372,0,0,0,0,0,0,0,0,0,-1,1210,652,0,0
-7,372,0,0,0,0,0,0,0,0,0,-1,1217,652,0,0
0,372,0,0,0,0,0,0,0,0,0,-1,1224,652,0,0
7,372,0,0,0,0,0,0,0,0,0,-1,1231,652,0,0
14,372,0,0,0,0,0,0,0,0,0,-1,1238,652,0,0
21,372,0,0,0,0,0,0,0,0,0,-1,1245,652,0,0
28,372,0,0,0,0,0,0,0,0,0,-1,1252,652,0,0
35,372,0,0,0,0,0,0,0,0,0,-1,1259,652,0,0
42,372,0,0,0,0,0,0,0,0,0,-1,1266,652,0,0
49,372,0,0,0,0,0,0,0,0,0,-1,1273,652,0,0
56,372,0,0,0,0,0,0,0,0,0,-1,1280,652,0,0
63,372,0,0,0,0,0,0,0,0,0,-1,1287,652,0,0
70,372,0,0,0,0,0,0,0,0,0,-1,1294,652,0,0
77,372,0,0,0,0,0,0,0,0,0,-1,1301,652,0,0
84,372,0,0,0,0,0,0,0,0,0,-1,1308,652,0,0
91,372,0,0,0,0,0,0,0,0,0,-1,1315,652,0,0
98,372,0,0,0,0,0,0,0,0,0,-1,1322,652,0,0
105,372,0,0,0,0,0,0,0,0,0,-1,1329,652,0,0
112,372,0,0,0,0,0,0,0,0,0,-1,1336,652,0,0
119,372,0,0,0,0,0,0,0,0,0,-1,1343,652,0,0
126,372,0,0,0,0,0,0,0,0,0,-1,1350,652,0,0
133,372,0,0,0,0,0,0,0,0,0,-1,1357,652,0,0
140,372,0,0,0,0,0,0,0,0,0,-1,1364,652,0,0
147,372,0,0,0,0,0,0,0,0,0,-1,1371,652,0,0
154,372,0,0,0,0,0,0,0,0,0,-1,1378,652,0,0
161,372,0,0,0,0,0,0,0,0,0,-1,1385,652,0,0
168,372,0,0,0,0,0,0,0,0,0,-1,1392,652,0,0
175,372,0,0,0,0,0,0,0,0,0,-1,1399,652,0,0
182,372,0,0,0,0,0,0,0,0,0,-1,1406,652,0,0
189,372,0,0,0,0,0,0,0,0,0,-1,1413,652,0,0
196,372,0,0,0,0,0,0,0,0,0,-1,1420,652,0,0
203,372,0,0,0,0,0,0,0,0,0,-1,1427,652,0,0
210,372,0,0,0,0,0,0,0,0,0,-1,1434,652,0,0
217,372,0,0,0,0,0,0,0,0,0,-1,1441,652,0,0
224,372,0,0,0,0,0,0,0,0,0,-1,1448,652,0,0
231,372,0,0,0,0,0,0,0,0,0,-1,1455,652,0,0
238,372,0,0,0,0,0,0,0,0,0,-1,1462,652,0,0
245,372,0,0,0,0,0,0,0,0,0,-1,1469,652,0,0
252,372,0,0,0,0,0,0,0,0,0,-1,1476,652,0,0
259,372,0,0,0,0,0,0,0,0,0,-1,1483,652,0,0
266,372,0,0,0,0,0,0,0,0,0,-1,1490,652,0,0
273,372,0,0,0,0,0,0,0,0,0,-1,1497,652,0,0
280,372,0,0,0,0,0,0,0,0,0,-1,1504,652,0,0
287,372,0,0,0,0,0,0,0,0,0,-1,1511,652,0,0
294,372,0,0,0,0,0,0,0,0,0,-1,1518,652,0,0
301,372,0,0,0,0,0,0,0,0,0,-1,1525,652,0,0
308,372,0,0,0,0,0,0,0,0,0,-1,1532,652,0,0
315,372,0,0,0,0,0,0,0,0,0,-1,1539,652,0,0
322,372,0,0,0,0,0,0,0,0,0,-1,1546,652,0,0
329,372,0,0,0,0,0,0,0,0,0,-1,1553,652,0,0
336,372,0,0,0,0,0,0,0,0,0,-1,1560,652,0,0
343,372,0,0,0,0,0,0,0,0,0,-1,1567,652,0,0
350,372,0,0,0,0,0,0,0,0,0,-1,1574,652,0,0
357,372,0,0,0,0,0,0,0,0,0,-1,1581,652,0,0
364,372,0,0,0,0,0,0,0,0,0,-1,1588,652,0,0
371,372,0,0,0,0,0,0,0,0,0,-1,1595,652,0,0
378,372,0,0,0,0,0,0,0,0,0,-1,1602,652,0,0
385,372,0,0,0,0,0,0,0,0,0,-1,1609,652,0,0
392,372,0,0,0,0,0,0,0,0,0,-1,1616,652,0,0
399,372,0,0,0,0,0,0,0,0,0,-1,1623,652,0,0
406,372,0,0,0,0,0,0,0,0,0,-1,1630,652,0,0
413,372,0,0,0,0,0,0,0,0,0,-1,1637,652,0,0
420,372,0,0,0,0,0,0,0,0,0,-1,1644,652,0,0
427,372,0,0,0,0,0,0,0,0,0,-1,1651,652,0,0
434,372,0,0,0,0,0,0,0,0,0,-1,1658,652,0,0
441,372,0,0,0,0,0,0,0,0,0,-1,1665,652,0,0
448,372,0,0,0,0,0,0,0,0,0,-1,1672,652,0,0
455,372,0,0,0,0,0,0,0,0,0,-1,1679,652,0,0
462,372,0,0,0,0,0,0,0,0,0,-1,1686,652,0,0
469,372,0,0,0,0,0,0,0,0,0,-1,1693,652,0,0
476,372,0,0,0,0,0,0,0,0,0,-1,1700,652,0,0
483,372,8.74182,1.53125,0,0,0,0,0,0,0,-1,1707,652,8.74186,-1.53126
490,372,9.78455,1.67096,0,0,0,0,0,0,0,-1,1714,652,9.7846,-1.67093
497,372,9.97644,1.46069,0,0,0,0,0,0,0,-1,1721,652,9.97647,-1.46071
504,372,10.1216,1.28375,0,0,0,0,0,0,0,-1,1728,652,10.1216,-1.28376
511,372,11.7367,-0.0272217,0,0,0,0,0,0,0,-1,1735,652,11.7367,0.0272326
518,372,12.0657,-0.0995483,0,0,0,0,0,0,0,-1,1742,652,12.0657,0.0995285
525,372,12.3947,-0.171814,0,0,0,0,0,0,0,-1,1749,652,12.3946,0.171824
532,372,9.36597,1.72034,0,0,0,0,0,0,0,-1,1756,652,9.36597,-1.72036
539,372,7.82886,-0.0865479,0,0,0,0,0,0,0,-1,1763,652,7.82882,0.0865771
546,372,10.953,-0.187195,0,0,0,0,0,0,0,-1,1770,652,10.953,0.187181
553,372,14.1201,-4.83234,0,0,0,0,0,0,0,-1,1777,652,14.1201,4.83235
560,372,20.1057,-8.06934,0,0,0,0,0,0,0,-1,1784,652,20.1058,8.06936
567,372,21.9366,-8.6087,0,0,0,0,0,0,0,-1,1791,652,21.9366,8.60868
574,372,22.3517,-8.02155,0.00543239,0.000226053,0.000772464,0.00554458,0.00011386,0.144232,0.00365902,0.0337686,1798,652,22.3517,8.02153
581,372,22.3264,-7.51495,0.00389943,0.000314247,0.000366382,0.00393649,0.000277189,0.100805,0.00253698,0.0202054,1805,652,22.3264,7.51495
588,372,22.2721,-6.95752,0.00287542,0.000452906,0.000225201,0.00289617,0.000432149,0.0919124,0.00180407,0.0168677,1812,652,22.2721,6.95752
595,372,22.2561,-6.39258,0.00230092,0.000761197,0.000270517,0.00234706,0.000715052,0.168954,0.00138912,0.0143534,1819,652,22.2561,6.39258
602,372,22.2573,-5.8299,0.00209935,0.00120901,0.000527457,0.00234439,0.000963972,0.434899,0.00136063,0.0146208,1826,652,22.2573,5.8299
609,372,22.196,-5.26276,0.00201267,0.00170835,0.000866854,0.00274061,0.0009804,0.698518,0.0016035,0.0157168,1833,652,22.196,5.26274
616,372,22.1982,-4.66357,0.00185932,0.00209982,0.00107405,0.00306033,0.000898812,0.841146,0.00181632,0.0157384,1840,652,22.1982,4.66355
623,372,22.2037,-4.05743,0.00181189,0.00252056,0.00137349,0.00358468,0.000747765,0.911635,0.00218364,0.0136485,1847,652,22.2037,4.05743
630,372,22.1765,-3.48706,0.00151187,0.00280394,0.00150571,0.00379636,0.000519448,0.98805,0.00237676,0.018336,1854,652,22.1765,3.48708
637,372,22.1953,-2.94263,0.000876186,0.00297797,0.00144719,0.00371557,0.000138582,1.09943,0.00243217,0.026546,1861,652,22.1953,2.94263
644,372,22.1661,-2.29761,0,0,0,0,0,0,0,-1,1868,652,22.1662,2.29759
651,372,21.3998,-0.888,0,0,0,0,0,0,0,-1,1875,652,21.3998,0.887992
658,372,14.157,0.280273,0,0,0,0,0,0,0,-1,1882,652,14.157,-0.280264
665,372,15.2286,0.463867,0,0,0,0,0,0,0,-1,1889,652,15.2287,-0.463854
672,372,9.34106,1.48444,0,0,0,0,0,0,0,-1,1896,652,9.34109,-1.48444
679,372,10.7308,2.32391,0,0,0,0,0,0,0,-1,1903,652,10.7309,-2.3239
686,372,11.6295,2.52997,0,0,0,0,0,0,0,-1,1910,652,11.6296,-2.52996
693,372,0,0,0,0,0,0,0,0,0,-1,1917,652,0,0
700,372,0,0,0,0,0,0,0,0,0,-1,1924,652,0,0
707,372,0,0,0,0,0,0,0,0,0,-1,1931,652,0,0
714,372,0,0,0,0,0,0,0,0,0,-1,1938,652,0,0
721,372,0,0,0,0,0,0,0,0,0,-1,1945,652,0,0
728,372,0,0,0,0,0,0,0,0,0,-1,1952,652,0,0
735,372,0,0,0,0,0,0,0,0,0,-1,1959,652,0,0
742,372,0,0,0,0,0,0,0,0,0,-1,1966,652,0,0
749,372,0,0,0,0,0,0,0,0,0,-1,1973,652,0,0
756,372,0,0,0,0,0,0,0,0,0,-1,1980,652,0,0
763,372,0,0,0,0,0,0,0,0,0,-1,1987,652,0,0
770,372,0,0,0,0,0,0,0,0,0,-1,1994,652,0,0
777,372,0,0,0,0,0,0,0,0,0,-1,2001,652,0,0
784,372,0,0,0,0,0,0,0,0,0,-1,2008,652,0,0
791,372,0,0,0,0,0,0,0,0,0,-1,2015,652,0,0
798,372,0,0,0,0,0,0,0,0,0,-1,2022,652,0,0
805,372,0,0,0,0,0,0,0,0,0,-1,2029,652,0,0
812,372,0,0,0,0,0,0,0,0,0,-1,2036,652,0,0
-700,365,0,0,0,0,0,0,0,0,0,-1,524,659,0,0
-693,365,0,0,0,0,0,0,0,0,0,-1,531,659,0,0
-686,365,0,0,0,0,0,0,0,0,0,-1,538,659,0,0
-679,365,0,0,0,0,0,0,0,0,0,-1,545,659,0,0
-672,365,0,0,0,0,0,0,0,0,0,-1,552,659,0,0
-665,365,0,0,0,0,0,0,0,0,0,-1,559,659,0,0
-658,365,0,0,0,0,0,0,0,0,0,-1,566,659,0,0
-651,365,0,0,0,0,0,0,0,0,0,-1,573,659,0,0
-644,365,0,0,0,0,0,0,0,0,0,-1,580,659,0,0
-637,365,0,0,0,0,0,0,0,0,0,-1,587,659,0,0
-630,365,0,0,0,0,0,0,0,0,0,-1,594,659,0,0
-623,365,0,0,0,0,0,0,0,0,0,-1,601,659,0,0
-616,365,0,0,0,0,0,0,0,0,0,-1,608,659,0,0
-609,365,0,0,0,0,0,0,0,0,0,-1,615,659,0,0
-602,365,0,0,0,0,0,0,0,0,0,-1,622,659,0,0
-595,365,0,0,0,0,0,0,0,0,0,-1,629,659,0,0
-588,365,0,0,0,0,0,0,0,0,0,-1,636,659,0,0
-581,365,0,0,0,0,0,0,0,0,0,-1,643,659,0,0
-574,365,-7.69281,1.59015,0,0,0,0,0,0,0,-1,650,659,-7.69282,-1.59018
-567,365,-8.2583,1.72638,0,0,0,0,0,0,0,-1,657,659,-8.25827,-1.72637
-560,365,-7.17767,0.275757,0,0,0,0,0,0,0,-1,664,659,-7.17768,-0.27577
-553,365,-10.0349,-0.169617,0,0,0,0,0,0,0,-1,671,659,-10.0349,0.169593
-546,365,-10.6303,-1.51642,0,0,0,0,0,0,0,-1,678,659,-10.6303,1.5164
-539,365,-8.38599,1.52936,0,0,0,0,0,0,0,-1,685,659,-8.38598,-1.52935
-532,365,-8.52863,0.166504,0,0,0,0,0,0,0,-1,692,659,-8.52863,-0.166501
-525,365,-9.28229,-2.62726,0,0,0,0,0,0,0,-1,699,659,-9.28227,2.62724
-518,365,-12.5145,-4.01471,0,0,0,0,0,0,0,-1,706,659,-12.5145,4.01472
-511,365,-12.5236,-4.65143,0.00424483,0.00884615,-0.0055048,0.0125117,0.000579264,-0.983335,0.00815491,0.0329482,713,659,-12.5236,4.65144
-504,365,-12.5061,-5.203,0.00300431,0.00606624,-0.00361463,0.00846076,0.000609793,-0.985718,0.00544863,0.0128241,720,659,-12.5061,5.20302
-497,365,-12.5089,-5.80566,0.00237919,0.00410948,-0.00240734,0.00580241,0.000686263,-0.9579,0.00366102,0.013232,727,659,-12.5089,5.80569
-490,365,-12.5182,-6.35754,0.00176914,0.00234636,-0.00131012,0.00339928,0.00071622,-0.893813,0.00206919,0.0138673,734,659,-12.5182,6.35755
-483,365,-12.5557,-6.87512,0.00188747,0.00158992,-0.00103829,0.00278759,0.000689799,-0.71424,0.00167645,0.0126516,741,659,-12.5557,6.87514
-476,365,-12.5302,-7.41351,0.00212734,0.00104417,-0.00090989,0.00264463,0.000526878,-0.516949,0.00161634,0.0156763,748,659,-12.5302,7.41352
-469,365,-12.5497,-7.96283,0.00241667,0.000686862,-0.000881666,0.00278683,0.000316698,-0.397497,0.00176184,0.0159403,755,659,-12.5497,7.96282
-462,365,-12.5797,-8.51782,0.00261257,0.000509464,-0.000932202,0.00296628,0.000155754,-0.362653,0.0019277,0.0138086,762,659,-12.5797,8.51785
-455,365,-12.6007,-9.0603,0.00240785,0.000232553,-0.000588524,0.00255686,8.35368e-05,-0.247991,0.00167742,0.0160389,769,659,-12.6007,9.06032
-448,365,-12.519,-9.71716,0.00218035,0.00055669,-0.000527319,0.00233658,0.000400464,-0.288027,0.00144288,0.0369839,776,659,-12.519,9.71716
-441,365,-12.2808,-10.4828,0,0,0,0,0,0,0,-1,783,659,-12.2807,10.4828
-434,365,-5.45056,-3.98041,0,0,0,0,0,0,0,-1,790,659,-5.45055,3.98042
-427,365,-5.05377,-4.74689,0,0,0,0,0,0,0,-1,797,659,-5.05376,4.7469
-420,365,-4.58813,-3.16376,0,0,0,0,0,0,0,-1,804,659,-4.58816,3.16374
-413,365,0.141357,0.672729,0,0,0,0,0,0,0,-1,811,659,0.141365,-0.672714
-406,365,-1.75067,-0.934448,0,0,0,0,0,0,0,-1,818,659,-1.7507,0.934424
-399,365,-4.10242,-1.25439,0,0,0,0,0,0,0,-1,825,659,-4.10244,1.25438
-392,365,-7.46545,-0.779724,0,0,0,0,0,0,0,-1,832,659,-7.46543,0.779744
-385,365,-6.27875,-0.887573,0,0,0,0,0,0,0,-1,839,659,-6.27874,0.887545
-378,365,-5.34503,-0.263306,0,0,0,0,0,0,0,-1,846,659,-5.34504,0.263275
-371,365,0,0,0,0,0,0,0,0,0,-1,853,659,0,0
-364,365,0,0,0,0,0,0,0,0,0,-1,860,659,0,0
-357,365,0,0,0,0,0,0,0,0,0,-1,867,659,0,0
-350,365,0,0,0,0,0,0,0,0,0,-1,874,659,0,0
-343,365,0,0,0,0,0,0,0,0,0,-1,881,659,0,0
-336,365,0,0,0,0,0,0,0,0,0,-1,888,659,0,0
-329,365,0,0,0,0,0,0,0,0,0,-1,895,659,0,0
-322,365,0,0,0,0,0,0,0,0,0,-1,902,659,0,0
-315,365,0,0,0,0,0,0,0,0,0,-1,909,659,0,0
-308,365,0,0,0,0,0,0,0,0,0,-1,916,659,0,0
-301,365,0,0,0,0,0,0,0,0,0,-1,923,659,0,0
-294,365,0,0,0,0,0,0,0,0,0,-1,930,659,0,0
-287,365,0,0,0,0,0,0,0,0,0,-1,937,659,0,0
-280,365,0,0,0,0,0,0,0,0,0,-1,944,659,0,0
-273,365,0,0,0,0,0,0,0,0,0,-1,951,659,0,0
-266,365,0,0,0,0,0,0,0,0,0,-1,958,659,0,0
-259,365,0,0,0,0,0,0,0,0,0,-1,965,659,0,0
-252,365,0,0,0,0,0,0,0,0,0,-1,972,659,0,0
-245,365,0,0,0,0,0,0,0,0,0,-1,979,659,0,0
-238,365,0,0,0,0,0,0,0,0,0,-1,986,659,0,0
-231,365,0,0,0,0,0,0,0,0,0,-1,993,659,0,0
-224,365,0,0,0,0,0,0,0,0,0,-1,1000,659,0,0
-217,365,0,0,0,0,0,0,0,0,0,-1,1007,659,0,0
-210,365,0,0,0,0,0,0,0,0,0,-1,1014,659,0,0
-203,365,0,0,0,0,0,0,0,0,0,-1,1021,659,0,0
-196,365,0,0,0,0,0,0,0,0,0,-1,1028,659,0,0
-189,365,0,0,0,0,0,0,0,0,0,-1,1035,659,0,0
-182,365,0,0,0,0,0,0,0,0,0,-1,1042,659,0,0
-175,365,0,0,0,0,0,0,0,0,0,-1,1049,659,0,0
-168,365,0,0,0,0,0,0,0,0,0,-1,1056,659,0,0
-161,365,0,0,0,0,0,0,0,0,0,-1,1063,659,0,0
-154,365,0,0,0,0,0,0,0,0,0,-1,1070,659,0,0
-147,365,0,0,0,0,0,0,0,0,0,-1,1077,659,0,0
-140,365,0,0,0,0,0,0,0,0,0,-1,1084,659,0,0
-133,365,0,0,0,0,0,0,0,0,0,-1,1091,659,0,0
-126,365,0,0,0,0,0,0,0,0,0,-1,1098,659,0,0
-119,365,0,0,0,0,0,0,0,0,0,-1,1105,659,0,0
-112,365,0,0,0,0,0,0,0,0,0,-1,1112,659,0,0
-105,365,0,0,0,0,0,0,0,0,0,-1,1119,659,0,0
-98,365,0,0,0,0,0,0,0,0,0,-1,1126,659,0,0
-91,365,0,0,0,0,0,0,0,0,0,-1,1133,659,0,0
-84,365,0,0,0,0,0,0,0,0,0,-1,1140,659,0,0
-77,365,0,0,0,0,0,0,0,0,0,-1,1147,659,0,0
-70,365,0,0,0,0,0,0,0,0,0,-1,1154,659,0,0
-63,365,0,0,0,0,0,0,0,0,0,-1,1161,659,0,0
-56,365,0,0,0,0,0,0,0,0,0,-1,1168,659,0,0
-49,365,0,0,0,0,0,0,0,0,0,-1,1175,659,0,0
-42,365,0,0,0,0,0,0,0,0,0,-1,1182,659,0,0
-35,365,0,0,0,0,0,0,0,0,0,-1,1189,659,0,0
-28,365,0,0,0,0,0,0,0,0,0,-1,1196,659,0,0
-21,365,0,0,0,0,0,0,0,0,0,-1,1203,659,0,0
-14,365,0,0,0,0,0,0,0,0,0,-1,1210,659,0,0
-7,365,0,0,0,0,0,0,0,0,0,-1,1217,659,0,0
0,365,0,0,0,0,0,0,0,0,0,-1,1224,659,0,0
7,365,0,0,0,0,0,0,0,0,0,-1,1231,659,0,0
14,365,0,0,0,0,0,0,0,0,0,-1,1238,659,0,0
21,365,0,0,0,0,0,0,0,0,0,-1,1245,659,0,0
28,365,0,0,0,0,0,0,0,0,0,-1,1252,659,0,0
35,365,0,0,0,0,0,0,0,0,0,-1,1259,659,0,0
42,365,0,0,0,0,0,0,0,0,0,-1,1266,659,0,0
49,365,0,0,0,0,0,0,0,0,0,-1,1273,659,0,0
56,365,0,0,0,0,0,0,0,0,0,-1,1280,659,0,0
63,365,0,0,0,0,0,0,0,0,0,-1,1287,659,0,0
70,365,0,0,0,0,0,0,0,0,0,-1,1294,659,0,0
77,365,0,0,0,0,0,0,0,0,0,-1,1301,659,0,0
84,365,0,0,0,0,0,0,0,0,0,-1,1308,659,0,0
91,365,0,0,0,0,0,0,0,0,0,-1,1315,659,0,0
98,365,0,0,0,0,0,0,0,0,0,-1,1322,659,0,0
105,365,0,0,0,0,0,0,0,0,0,-1,1329,659,0,0
112,365,0,0,0,0,0,0,0,0,0,-1,1336,659,0,0
119,365,0,0,0,0,0,0,0,0,0,-1,1343,659,0,0
126,365,0,0,0,0,0,0,0,0,0,-1,1350,659,0,0
133,365,0,0,0,0,0,0,0,0,0,-1,1357,659,0,0
140,365,0,0,0,0,0,0,0,0,0,-1,1364,659,0,0
147,365,0,0,0,0,0,0,0,0,0,-1,1371,659,0,0
154,365,0,0,0,0,0,0,0,0,0,-1,1378,659,0,0
161,365,0,0,0,0,0,0,0,0,0,-1,1385,659,0,0
168,365,0,0,0,0,0,0,0,0,0,-1,1392,659,0,0
175,365,0,0,0,0,0,0,0,0,0,-1,1399,659,0,0
182,365,0,0,0,0,0,0,0,0,0,-1,1406,659,0,0
189,365,0,0,0,0,0,0,0,0,0,-1,1413,659,0,0
196,365,0,0,0,0,0,0,0,0,0,-1,1420,659,0,0
203,365,0,0,0,0,0,0,0,0,0,-1,1427,659,0,0
210,365,0,0,0,0,0,0,0,0,0,-1,1434,659,0,0
217,365,0,0,0,0,0,0,0,0,0,-1,1441,659,0,0
224,365,0,0,0,0,0,0,0,0,0,-1,1448,659,0,0
231,365,0,0,0,0,0,0,0,0,0,-1,1455,659,0,0
238,365,0,0,0,0,0,0,0,0,0,-1,1462,659,0,0
245,365,0,0,0,0,0,0,0,0,0,-1,1469,659,0,0
252,365,0,0,0,0,0,0,0,0,0,-1,1476,659,0,0
259,365,0,0,0,0,0,0,0,0,0,-1,1483,659,0,0
266,365,0,0,0,0,0,0,0,0,0,-1,1490,659,0,0
273,365,0,0,0,0,0,0,0,0,0,-1,1497,659,0,0
280,365,0,0,0,0,0,0,0,0,0,-1,1504,659,0,0
287,365,0,0,0,0,0,0,0,0,0,-1,1511,659,0,0
294,365,0,0,0,0,0,0,0,0,0,-1,1518,659,0,0
301,365,0,0,0,0,0,0,0,0,0,-1,1525,659,0,0
308,365,0,0,0,0,0,0,0,0,0,-1,1532,659,0,0
315,365,0,0,0,0,0,0,0,0,0,-1,1539,659,0,0
322,365,0,0,0,0,0,0,0,0,0,-1,1546,659,0,0
329,365,0,0,0,0,0,0,0,0,0,-1,1553,659,0,0
336,365,0,0,0,0,0,0,0,0,0,-1,1560,659,0,0
343,365,0,0,0,0,0,0,0,0,0,-1,1567,659,0,0
350,365,0,0,0,0,0,0,0,0,0,-1,1574,659,0,0
357,365,0,0,0,0,0,0,0,0,0,-1,1581,659,0,0
364,365,0,0,0,0,0,0,0,0,0,-1,1588,659,0,0
371,365,0,0,0,0,0,0,0,0,0,-1,1595,659,0,0
378,365,0,0,0,0,0,0,0,0,0,-1,1602,659,0,0
385,365,0,0,0,0,0,0,0,0,0,-1,1609,659,0,0
392,365,0,0,0,0,0,0,0,0,0,-1,1616,659,0,0
399,365,0,0,0,0,0,0,0,0,0,-1,1623,659,0,0
406,365,0,0,0,0,0,0,0,0,0,-1,1630,659,0,0
413,365,0,0,0,0,0,0,0,0,0,-1,1637,659,0,0
420,365,0,0,0,0,0,0,0,0,0,-1,1644,659,0,0
427,365,0,0,0,0,0,0,0,0,0,-1,1651,659,0,0
434,365,0,0,0,0,0,0,0,0,0,-1,1658,659,0,0
441,365,0,0,0,0,0,0,0,0,0,-1,1665,659,0,0
448,365,0,0,0,0,0,0,0,0,0,-1,1672,659,0,0
455,365,0,0,0,0,0,0,0,0,0,-1,1679,659,0,0
462,365,0,0,0,0,0,0,0,0,0,-1,1686,659,0,0
469,365,0,0,0,0,0,0,0,0,0,-1,1693,659,0,0
476,365,0,0,0,0,0,0,0,0,0,-1,1700,659,0,0
483,365,0,0,0,0,0,0,0,0,0,-1,1707,659,0,0
490,365,8.39551,0.471252,0,0,0,0,0,0,0,-1,1714,659,8.39551,-0.471241
497,365,9.89233,1.35394,0,0,0,0,0,0,0,-1,1721,659,9.89237,-1.35396
504,365,10.1414,1.18005,0,0,0,0,0,0,0,-1,1728,659,10.1413,-1.18004
511,365,10.5151,0.993896,0,0,0,0,0,0,0,-1,1735,659,10.5152,-0.993894
518,365,11.2029,0.398132,0,0,0,0,0,0,0,-1,1742,659,11.2029,-0.398136
525,365,15.5748,3.85303,0,0,0,0,0,0,0,-1,1749,659,15.5748,-3.85303
532,365,11.2446,1.00629,0,0,0,0,0,0,0,-1,1756,659,11.2446,-1.00631
539,365,12.6301,1.03204,0,0,0,0,0,0,0,-1,1763,659,12.6302,-1.03204
546,365,11.647,0.84198,0,0,0,0,0,0,0,-1,1770,659,11.6469,-0.841955
553,365,12.028,-0.558899,0,0,0,0,0,0,0,-1,1777,659,12.028,0.558873
560,365,14.5372,-4.55548,0,0,0,0,0,0,0,-1,1784,659,14.5373,4.55547
567,365,20.5676,-7.53888,0,0,0,0,0,0,0,-1,1791,659,20.5676,7.53887
574,365,23.0837,-7.96118,0,0,0,0,0,0,0,-1,1798,659,23.0838,7.96116
581,365,22.8994,-7.45404,0,0,0,0,0,0,0,-1,1805,659,22.8995,7.45404
588,365,22.8069,-7.04236,0.00298912,0.000238367,1.9739e-05,0.00298926,0.000238225,0.00717537,0.00191837,0.0225644,1812,659,22.8069,7.04234
595,365,22.823,-6.37708,0.00227738,0.000538277,3.49872e-05,0.00227809,0.000537574,0.0201071,0.00137502,0.0132848,1819,659,22.8229,6.37709
602,365,22.811,-5.79321,0.00193847,0.000900921,0.000214913,0.00198122,0.000858167,0.196374,0.00114726,0.015333,1826,659,22.8111,5.79321
609,365,22.7731,-5.19965,0.00178139,0.00130381,0.000502262,0.00209873,0.000986464,0.563501,0.00121243,0.016333,1833,659,22.7731,5.19966
616,365,22.7888,-4.60431,0.00157268,0.00160313,0.000669596,0.00225767,0.000918137,0.796767,0.00131102,0.0180563,1840,659,22.7888,4.60431
623,365,22.8054,-4.03662,0.00134782,0.00190615,0.000860122,0.00253128,0.000722692,0.942318,0.00150559,0.0124576,1847,659,22.8054,4.03662
630,365,22.7385,-3.47772,0.000847892,0.00206794,0.000897493,0.0025431,0.000372732,1.08388,0.00158582,0.016513,1854,659,22.7385,3.47773
637,365,22.7136,-2.94861,-3.06798e-05,0.00208313,0.000697777,0.00229269,-0.000240243,1.27904,0.00161451,0.0221536,1861,659,22.7137,2.94862
644,365,22.7147,-2.36334,-0.00142085,0.00200489,0.000256779,0.00202403,-0.00143999,1.49639,0.00200941,0.0218731,1868,659,22.7147,2.36332
651,365,22.8419,-1.65924,0,0,0,0,0,0,0,-1,1875,659,22.8419,1.65924
658,365,21.6173,-1.22028,0,0,0,0,0,0,0,-1,1882,659,21.6173,1.22025
665,365,14.0961,0.769043,0,0,0,0,0,0,0,-1,1889,659,14.0961,-0.769063
672,365,10.0579,2.15088,0,0,0,0,0,0,0,-1,1896,659,10.0579,-2.15088
679,365,10.9718,2.19208,0,0,0,0,0,0,0,-1,1903,659,10.9718,-2.19211
686,365,12.2134,2.17108,0,0,0,0,0,0,0,-1,1910,659,12.2134,-2.17109
693,365,13.7141,1.98279,0,0,0,0,0,0,0,-1,1917,659,13.7141,-1.98278
700,365,0,0,0,0,0,0,0,0,0,-1,1924,659,0,0
707,365,0,0,0,0,0,0,0,0,0,-1,1931,659,0,0
714,365,0,0,0,0,0,0,0,0,0,-1,1938,659,0,0
721,365,0,0,0,0,0,0,0,0,0,-1,1945,659,0,0
728,365,0,0,0,0,0,0,0,0,0,-1,1952,659,0,0
735,365,0,0,0,0,0,0,0,0,0,-1,1959,659,0,0
742,365,0,0,0,0,0,0,0,0,0,-1,1966,659,0,0
749,365,0,0,0,0,0,0,0,0,0,-1,1973,659,0,0
756,365,0,0,0,0,0,0,0,0,0,-1,1980,659,0,0
763,365,0,0,0,0,0,0,0,0,0,-1,1987,659,0,0
770,365,0,0,0,0,0,0,0,0,0,-1,1994,659,0,0
777,365,0,0,0,0,0,0,0,0,0,-1,2001,659,0,0
784,365,0,0,0,0,0,0,0,0,0,-1,2008,659,0,0
791,365,0,0,0,0,0,0,0,0,0,-1,2015,659,0,0
798,365,0,0,0,0,0,0,0,0,0,-1,2022,659,0,0
805,365,0,0,0,0,0,0,0,0,0,-1,2029,659,0,0
812,365,0,0,0,0,0,0,0,0,0,-1,2036,659,0,0
-700,358,0,0,0,0,0,0,0,0,0,-1,524,666,0,0
-693,358,0,0,0,0,0,0,0,0,0,-1,531,666,0,0
-686,358,0,0,0,0,0,0,0,0,0,-1,538,666,0,0
-679,358,0,0,0,0,0,0,0,0,0,-1,545,666,0,0
-672,358,0,0,0,0,0,0,0,0,0,-1,552,666,0,0
-665,358,0,0,0,0,0,0,0,0,0,-1,559,666,0,0
-658,358,0,0,0,0,0,0,0,0,0,-1,566,666,0,0
-651,358,0,0,0,0,0,0,0,0,0,-1,573,666,0,0
-644,358,0,0,0,0,0,0,0,0,0,-1,580,666,0,0
-637,358,0,0,0,0,0,0,0,0,0,-1,587,666,0,0
-630,358,0,0,0,0,0,0,0,0,0,-1,594,666,0,0
-623,358,0,0,0,0,0,0,0,0,0,-1,601,666,0,0
-616,358,0,0,0,0,0,0,0,0,0,-1,608,666,0,0
-609,358,0,0,0,0,0,0,0,0,0,-1,615,666,0,0
-602,358,0,0,0,0,0,0,0,0,0,-1,622,666,0,0
-595,358,0,0,0,0,0,0,0,0,0,-1,629,666,0,0
-588,358,0,0,0,0,0,0,0,0,0,-1,636,666,0,0
-581,358,-8.31616,1.61993,0,0,0,0,0,0,0,-1,643,666,-8.31614,-1.61993
-574,358,-8.22406,1.75385,0,0,0,0,0,0,0,-1,650,666,-8.22408,-1.75383
-567,358,-8.14215,1.91577,0,0,0,0,0,0,0,-1,657,666,-8.14214,-1.91579
-560,358,-10.6086,2.18872,0,0,0,0,0,0,0,-1,664,666,-10.6086,-2.18873
-553,358,-13.4767,1.09552,0,0,0,0,0,0,0,-1,671,666,-13.4767,-1.09551
-546,358,-13.3743,-0.185059,0,0,0,0,0,0,0,-1,678,666,-13.3743,0.185037
-539,358,-9.43884,-2.04785,0,0,0,0,0,0,0,-1,685,666,-9.43884,2.04785
-532,358,-12.4141,-2.36572,0,0,0,0,0,0,0,-1,692,666,-12.4141,2.3657
-525,358,-12.731,-3.88031,0,0,0,0,0,0,0,-1,699,666,-12.731,3.88029
-518,358,-13.0421,-4.03485,0,0,0,0,0,0,0,-1,706,666,-13.0421,4.03485
-511,358,-13.0526,-4.64392,0.00388486,0.0073302,-0.00448981,0.0104165,0.000798577,-0.968579,0.00669402,0.0162483,713,666,-13.0525,4.64391
-504,358,-13.0601,-5.18402,0.00284538,0.00493842,-0.00288112,0.00695719,0.000826602,-0.959606,0.00438862,0.0116043,720,666,-13.0601,5.18404
-497,358,-13.0574,-5.77075,0.00236011,0.00329676,-0.00188686,0.00477254,0.000884323,-0.907043,0.00293172,0.0118441,727,666,-13.0574,5.77074
-490,358,-13.0555,-6.33051,0.00184346,0.00174716,-0.000947259,0.0027438,0.000846832,-0.760004,0.00162235,0.0112255,734,666,-13.0555,6.33053
-483,358,-13.0903,-6.86578,0.0020287,0.00114918,-0.000790774,0.00249377,0.000684111,-0.531634,0.00148786,0.00999891,741,666,-13.0903,6.86579
-476,358,-13.0782,-7.37769,0.00233382,0.000734049,-0.000767588,0.00264254,0.000425329,-0.382397,0.00163843,0.012782,748,666,-13.0782,7.37767
-469,358,-13.1189,-7.92596,0.00271318,0.000503351,-0.000862067,0.00300969,0.000206839,-0.331279,0.00194119,0.0165095,755,666,-13.1189,7.92594
-462,358,-13.168,-8.49585,0.00304921,0.000445983,-0.00104179,0.00341479,8.04059e-05,-0.337487,0.0022502,0.018131,762,666,-13.1679,8.49584
-455,358,-13.0694,-9.07166,0.00301713,0.000290871,-0.000821422,0.0032455,6.25054e-05,-0.271164,0.00214313,0.0412635,769,666,-13.0694,9.07164
-448,358,-12.9009,-9.9231,0,0,0,0,0,0,0,-1,776,666,-12.901,9.92308
-441,358,-5.56293,-3.98041,0,0,0,0,0,0,0,-1,783,666,-5.56291,3.98043
-434,358,-5.21558,-4.43127,0,0,0,0,0,0,0,-1,790,666,-5.21559,4.43125
-427,358,-3.56189,-3.15729,0,0,0,0,0,0,0,-1,797,666,-3.56192,3.15729
-420,358,0.200195,1.08234,0,0,0,0,0,0,0,-1,804,666,0.200174,-1.08231
-413,358,0.0325317,0.161072,0,0,0,0,0,0,0,-1,811,666,0.0325501,-0.161098
-406,358,-3.85846,0.753113,0,0,0,0,0,0,0,-1,818,666,-3.85846,-0.753129
-399,358,-1.31213,0.190735,0,0,0,0,0,0,0,-1,825,666,-1.31215,-0.190763
-392,358,-3.73914,-0.832214,0,0,0,0,0,0,0,-1,832,666,-3.73915,0.832202
-385,358,-5.95178,-1.69141,0,0,0,0,0,0,0,-1,839,666,-5.9518,1.69143
-378,358,0,0,0,0,0,0,0,0,0,-1,846,666,0,0
-371,358,0,0,0,0,0,0,0,0,0,-1,853,666,0,0
-364,358,0,0,0,0,0,0,0,0,0,-1,860,666,0,0
-357,358,0,0,0,0,0,0,0,0,0,-1,867,666,0,0
-350,358,0,0,0,0,0,0,0,0,0,-1,874,666,0,0
-343,358,0,0,0,0,0,0,0,0,0,-1,881,666,0,0
-336,358,0,0,0,0,0,0,0,0,0,-1,888,666,0,0
-329,358,0,0,0,0,0,0,0,0,0,-1,895,666,0,0
-322,358,0,0,0,0,0,0,0,0,0,-1,902,666,0,0
-315,358,0,0,0,0,0,0,0,0,0,-1,909,666,0,0
-308,358,0,0,0,0,0,0,0,0,0,-1,916,666,0,0
-301,358,0,0,0,0,0,0,0,0,0,-1,923,666,0,0
-294,358,0,0,0,0,0,0,0,0,0,-1,930,666,0,0
-287,358,0,0,0,0,0,0,0,0,0,-1,937,666,0,0
-280,358,0,0,0,0,0,0,0,0,0,-1,944,666,0,0
-273,358,0,0,0,0,0,0,0,0,0,-1,951,666,0,0
-266,358,0,0,0,0,0,0,0,0,0,-1,958,666,0,0
-259,358,0,0,0,0,0,0,0,0,0,-1,965,666,0,0
-252,358,0,0,0,0,0,0,0,0,0,-1,972,666,0,0
-245,358,0,0,0,0,0,0,0,0,0,-1,979,666,0,0
-238,358,0,0,0,0,0,0,0,0,0,-1,986,666,0,0
-231,358,0,0,0,0,0,0,0,0,0,-1,993,666,0,0
-224,358,0,0,0,0,0,0,0,0,0,-1,1000,666,0,0
-217,358,0,0,0,0,0,0,0,0,0,-1,1007,666,0,0
-210,358,0,0,0,0,0,0,0,0,0,-1,1014,666,0,0
-203,358,0,0,0,0,0,0,0,0,0,-1,1021,666,0,0
-196,358,0,0,0,0,0,0,0,0,0,-1,1028,666,0,0
-189,358,0,0,0,0,0,0,0,0,0,-1,1035,666,0,0
-182,358,0,0,0,0,0,0,0,0,0,-1,1042,666,0,0
-175,358,0,0,0,0,0,0,0,0,0,-1,1049,666,0,0
-168,358,0,0,0,0,0,0,0,0,0,-1,1056,666,0,0
-161,358,0,0,0,0,0,0,0,0,0,-1,1063,666,0,0
-154,358,0,0,0,0,0,0,0,0,0,-1,1070,666,0,0
-147,358,0,0,0,0,0,0,0,0,0,-1,1077,666,0,0
-140,358,0,0,0,0,0,0,0,0,0,-1,1084,666,0,0
-133,358,0,0,0,0,0,0,0,0,0,-1,1091,666,0,0
-126,358,0,0,0,0,0,0,0,0,0,-1,1098,666,0,0
-119,358,0,0,0,0,0,0,0,0,0,-1,1105,666,0,0
-112,358,0,0,0,0,0,0,0,0,0,-1,1112,666,0,0
-105,358,0,0,0,0,0,0,0,0,0,-1,1119,666,0,0
-98,358,0,0,0,0,0,0,0,0,0,-1,1126,666,0,0
-91,358,0,0,0,0,0,0,0,0,0,-1,1133,666,0,0
-84,358,0,0,0,0,0,0,0,0,0,-1,1140,666,0,0
-77,358,0,0,0,0,0,0,0,0,0,-1,1147,666,0,0
-70,358,0,0,0,0,0,0,0,0,0,-1,1154,666,0,0
-63,358,0,0,0,0,0,0,0,0,0,-1,1161,666,0,0
-56,358,0,0,0,0,0,0,0,0,0,-1,1168,666,0,0
-49,358,0,0,0,0,0,0,0,0,0,-1,1175,666,0,0
-42,358,0,0,0,0,0,0,0,0,0,-1,1182,666,0,0
-35,358,0,0,0,0,0,0,0,0,0,-1,1189,666,0,0
-28,358,0,0,0,0,0,0,0,0,0,-1,1196,666,0,0
-21,358,0,0,0,0,0,0,0,0,0,-1,1203,666,0,0
-14,358,0,0,0,0,0,0,0,0,0,-1,1210,666,0,0
-7,358,0,0,0,0,0,0,0,0,0,-1,1217,666,0,0
0,358,0,0,0,0,0,0,0,0,0,-1,1224,666,0,0
7,358,0,0,0,0,0,0,0,0,0,-1,1231,666,0,0
14,358,0,0,0,0,0,0,0,0,0,-1,1238,666,0,0
21,358,0,0,0,0,0,0,0,0,0,-1,1245,666,0,0
28,358,0,0,0,0,0,0,0,0,0,-1,1252,666,0,0
35,358,0,0,0,0,0,0,0,0,0,-1,1259,666,0,0
42,358,0,0,0,0,0,0,0,0,0,-1,1266,666,0,0
49,358,0,0,0,0,0,0,0,0,0,-1,1273,666,0,0
56,358,0,0,0,0,0,0,0,0,0,-1,1280,666,0,0
63,358,0,0,0,0,0,0,0,0,0,-1,1287,666,0,0
70,358,0,0,0,0,0,0,0,0,0,-1,1294,666,0,0
77,358,0,0,0,0,0,0,0,0,0,-1,1301,666,0,0
84,358,0,0,0,0,0,0,0,0,0,-1,1308,666,0,0
91,358,0,0,0,0,0,0,0,0,0,-1,1315,666,0,0
98,358,0,0,0,0,0,0,0,0,0,-1,1322,666,0,0
105,358,0,0,0,0,0,0,0,0,0,-1,1329,666,0,0
112,358,0,0,0,0,0,0,0,0,0,-1,1336,666,0,0
119,358,0,0,0,0,0,0,0,0,0,-1,1343,666,0,0
126,358,0,0,0,0,0,0,0,0,0,-1,1350,666,0,0
133,358,0,0,0,0,0,0,0,0,0,-1,1357,666,0,0
140,358,0,0,0,0,0,0,0,0,0,-1,1364,666,0,0
147,358,0,0,0,0,0,0,0,0,0,-1,1371,666,0,0
154,358,0,0,0,0,0,0,0,0,0,-1,1378,666,0,0
161,358,0,0,0,0,0,0,0,0,0,-1,1385,666,0,0
168,358,0,0,0,0,0,0,0,0,0,-1,1392,666,0,0
175,358,0,0,0,0,0,0,0,0,0,-1,1399,666,0,0
182,358,0,0,0,0,0,0,0,0,0,-1,1406,666,0,0
189,358,0,0,0,0,0,0,0,0,0,-1,1413,666,0,0
196,358,0,0,0,0,0,0,0,0,0,-1,1420,666,0,0
203,358,0,0,0,0,0,0,0,0,0,-1,1427,666,0,0
210,358,0,0,0,0,0,0,0,0,0,-1,1434,666,0,0
217,358,0,0,0,0,0,0,0,0,0,-1,1441,666,0,0
224,358,0,0,0,0,0,0,0,0,0,-1,1448,666,0,0
231,358,0,0,0,0,0,0,0,0,0,-1,1455,666,0,0
238,358,0,0,0,0,0,0,0,0,0,-1,1462,666,0,0
245,358,0,0,0,0,0,0,0,0,0,-1,1469,666,0,0
252,358,0,0,0,0,0,0,0,0,0,-1,1476,666,0,0
259,358,0,0,0,0,0,0,0,0,0,-1,1483,666,0,0
266,358,0,0,0,0,0,0,0,0,0,-1,1490,666,0,0
273,358,0,0,0,0,0,0,0,0,0,-1,1497,666,0,0
280,358,0,0,0,0,0,0,0,0,0,-1,1504,666,0,0
287,358,0,0,0,0,0,0,0,0,0,-1,1511,666,0,0
294,358,0,0,0,0,0,0,0,0,0,-1,1518,666,0,0
301,358,0,0,0,0,0,0,0,0,0,-1,1525,666,0,0
308,358,0,0,0,0,0,0,0,0,0,-1,1532,666,0,0
315,358,0,0,0,0,0,0,0,0,0,-1,1539,666,0,0
322,358,0,0,0,0,0,0,0,0,0,-1,1546,666,0,0
329,358,0,0,0,0,0,0,0,0,0,-1,1553,666,0,0
336,358,0,0,0,0,0,0,0,0,0,-1,1560,666,0,0
343,358,0,0,0,0,0,0,0,0,0,-1,1567,666,0,0
350,358,0,0,0,0,0,0,0,0,0,-1,1574,666,0,0
357,358,0,0,0,0,0,0,0,0,0,-1,1581,666,0,0
364,358,0,0,0,0,0,0,0,0,0,-1,1588,666,0,0
371,358,0,0,0,0,0,0,0,0,0,-1,1595,666,0,0
378,358,0,0,0,0,0,0,0,0,0,-1,1602,666,0,0
385,358,0,0,0,0,0,0,0,0,0,-1,1609,666,0,0
392,358,0,0,0,0,0,0,0,0,0,-1,1616,666,0,0
399,358,0,0,0,0,0,0,0,0,0,-1,1623,666,0,0
406,358,0,0,0,0,0,0,0,0,0,-1,1630,666,0,0
413,358,0,0,0,0,0,0,0,0,0,-1,1637,666,0,0
420,358,0,0,0,0,0,0,0,0,0,-1,1644,666,0,0
427,358,0,0,0,0,0,0,0,0,0,-1,1651,666,0,0
434,358,0,0,0,0,0,0,0,0,0,-1,1658,666,0,0
441,358,0,0,0,0,0,0,0,0,0,-1,1665,666,0,0
448,358,0,0,0,0,0,0,0,0,0,-1,1672,666,0,0
455,358,0,0,0,0,0,0,0,0,0,-1,1679,666,0,0
462,358,0,0,0,0,0,0,0,0,0,-1,1686,666,0,0
469,358,0,0,0,0,0,0,0,0,0,-1,1693,666,0,0
476,358,0,0,0,0,0,0,0,0,0,-1,1700,666,0,0
483,358,0,0,0,0,0,0,0,0,0,-1,1707,666,0,0
490,358,0,0,0,0,0,0,0,0,0,-1,1714,666,0,0
497,358,8.57239,1.1322,0,0,0,0,0,0,0,-1,1721,666,8.57234,-1.13219
504,358,10.5972,0.832947,0,0,0,0,0,0,0,-1,1728,666,10.5972,-0.832968
511,358,10.6873,0.868469,0,0,0,0,0,0,0,-1,1735,666,10.6872,-0.868484
518,358,16.5884,2.34894,0,0,0,0,0,0,0,-1,1742,666,16.5884,-2.34894
525,358,15.7626,3.65344,0,0,0,0,0,0,0,-1,1749,666,15.7626,-3.65342
532,358,14.9368,4.95789,0,0,0,0,0,0,0,-1,1756,666,14.9367,-4.9579
539,358,15.1597,3.42694,0,0,0,0,0,0,0,-1,1763,666,15.1597,-3.42692
546,358,12.3792,1.53558,0,0,0,0,0,0,0,-1,1770,666,12.3792,-1.5356
553,358,11.6584,1.26172,0,0,0,0,0,0,0,-1,1777,666,11.6585,-1.26175
560,358,10.8234,1.43042,0,0,0,0,0,0,0,-1,1784,666,10.8233,-1.43041
567,358,10.1333,-0.955139,0,0,0,0,0,0,0,-1,1791,666,10.1333,0.955132
574,358,14.7886,-2.69293,0,0,0,0,0,0,0,-1,1798,666,14.7885,2.6929
581,358,20.1738,-6.76135,0,0,0,0,0,0,0,-1,1805,666,20.1738,6.76137
588,358,23.2565,-7.13989,0,0,0,0,0,0,0,-1,1812,666,23.2564,7.13988
595,358,23.3859,-6.34393,0.00225687,0.000410108,-8.69937e-05,0.00226096,0.000406019,-0.0469674,0.00139185,0.0158189,1819,666,23.3859,6.34396
602,358,23.3752,-5.73376,0.00180729,0.000678484,1.24878e-05,0.00180743,0.000678346,0.011061,0.00105428,0.0138005,1826,666,23.3752,5.73376
609,358,23.3467,-5.17206,0.00163457,0.000989107,0.000260008,0.00172628,0.000897399,0.339088,0.000996928,0.0168208,1833,666,23.3467,5.17208
616,358,23.3364,-4.60431,0.00142652,0.00122464,0.000422656,0.00176012,0.000891039,0.668186,0.00101623,0.0160295,1840,666,23.3364,4.60432
623,358,23.3535,-4.03699,0.00107718,0.00142727,0.00052448,0.00180515,0.000699307,0.94646,0.00105097,0.0139523,1847,666,23.3535,4.03702
630,358,23.3053,-3.48474,0.00045444,0.00149788,0.000490096,0.00169197,0.000260348,1.19372,0.00105199,0.0169099,1854,666,23.3053,3.48475
637,358,23.2451,-2.94635,-0.000543513,0.00142023,0.000203453,0.00144108,-0.00056437,1.46864,0.00119416,0.0255269,1861,666,23.2451,2.94632
644,358,23.2822,-2.36127,-0.00201273,0.00121256,-0.000320224,0.00124404,-0.00204422,-1.47279,0.00191712,0.020198,1868,666,23.2822,2.36126
651,358,23.4078,-1.65265,-0.00416147,0.000785762,-0.00118339,0.00105426,-0.00442997,-1.34769,0.00336032,0.0339643,1875,666,23.4079,1.65263
658,358,23.3949,-0.790283,0,0,0,0,0,0,0,-1,1882,666,23.3949,0.790266
665,358,22.4215,-0.503967,0,0,0,0,0,0,0,-1,1889,666,22.4215,0.503976
672,358,12.4299,1.47272,0,0,0,0,0,0,0,-1,1896,666,12.4299,-1.4727
679,358,12.1294,2.19702,0,0,0,0,0,0,0,-1,1903,666,12.1294,-2.19703
686,358,11.9557,2.2002,0,0,0,0,0,0,0,-1,1910,666,11.9557,-2.20021
693,358,13.188,2.52203,0,0,0,0,0,0,0,-1,1917,666,13.188,-2.52202
700,358,0,0,0,0,0,0,0,0,0,-1,1924,666,0,0
707,358,0,0,0,0,0,0,0,0,0,-1,1931,666,0,0
714,358,0,0,0,0,0,0,0,0,0,-1,1938,666,0,0
721,358,0,0,0,0,0,0,0,0,0,-1,1945,666,0,0
728,358,0,0,0,0,0,0,0,0,0,-1,1952,666,0,0
735,358,0,0,0,0,0,0,0,0,0,-1,1959,666,0,0
742,358,0,0,0,0,0,0,0,0,0,-1,1966,666,0,0
749,358,0,0,0,0,0,0,0,0,0,-1,1973,666,0,0
756,358,0,0,0,0,0,0,0,0,0,-1,1980,666,0,0
763,358,0,0,0,0,0,0,0,0,0,-1,1987,666,0,0
770,358,0,0,0,0,0,0,0,0,0,-1,1994,666,0,0
777,358,0,0,0,0,0,0,0,0,0,-1,2001,666,0,0
784,358,0,0,0,0,0,0,0,0,0,-1,2008,666,0,0
791,358,0,0,0,0,0,0,0,0,0,-1,2015,666,0,0
798,358,0,0,0,0,0,0,0,0,0,-1,2022,666,0,0
805,358,0,0,0,0,0,0,0,0,0,-1,2029,666,0,0
812,358,0,0,0,0,0,0,0,0,0,-1,2036,666,0,0
-700,351,0,0,0,0,0,0,0,0,0,-1,524,673,0,0
-693,351,0,0,0,0,0,0,0,0,0,-1,531,673,0,0
-686,351,0,0,0,0,0,0,0,0,0,-1,538,673,0,0
-679,351,0,0,0,0,0,0,0,0,0,-1,545,673,0,0
-672,351,0,0,0,0,0,0,0,0,0,-1,552,673,0,0
-665,351,0,0,0,0,0,0,0,0,0,-1,559,673,0,0
-658,351,0,0,0,0,0,0,0,0,0,-1,566,673,0,0
-651,351,0,0,0,0,0,0,0,0,0,-1,573,673,0,0
-644,351,0,0,0,0,0,0,0,0,0,-1,580,673,0,0
-637,351,0,0,0,0,0,0,0,0,0,-1,587,673,0,0
-630,351,0,0,0,0,0,0,0,0,0,-1,594,673,0,0
-623,351,0,0,0,0,0,0,0,0,0,-1,601,673,0,0
-616,351,0,0,0,0,0,0,0,0,0,-1,608,673,0,0
-609,351,0,0,0,0,0,0,0,0,0,-1,615,673,0,0
-602,351,0,0,0,0,0,0,0,0,0,-1,622,673,0,0
-595,351,0,0,0,0,0,0,0,0,0,-1,629,673,0,0
-588,351,0,0,0,0,0,0,0,0,0,-1,636,673,0,0
-581,351,-9.0647,1.71906,0,0,0,0,0,0,0,-1,643,673,-9.06472,-1.71908
-574,351,-8.23584,2.64764,0,0,0,0,0,0,0,-1,650,673,-8.23584,-2.64764
-567,351,-10.8027,4.56836,0,0,0,0,0,0,0,-1,657,673,-10.8027,-4.56839
-560,351,-14.2001,2.17084,0,0,0,0,0,0,0,-1,664,673,-14.2002,-2.17086
-553,351,-13.4979,0.779541,0,0,0,0,0,0,0,-1,671,673,-13.4978,-0.779519
-546,351,-14.0065,0.73645,0,0,0,0,0,0,0,-1,678,673,-14.0065,-0.736473
-539,351,-12.8123,-1.46393,0,0,0,0,0,0,0,-1,685,673,-12.8123,1.46395
-532,351,-13.1417,-3.13611,0,0,0,0,0,0,0,-1,692,673,-13.1416,3.13611
-525,351,-13.6776,-3.51953,0,0,0,0,0,0,0,-1,699,673,-13.6776,3.51955
-518,351,-13.5978,-4.04333,0.00499404,0.00896793,-0.00567394,0.0129928,0.000969201,-0.953819,0.00835753,0.0185488,706,673,-13.5978,4.04332
-511,351,-13.5714,-4.61725,0.00357297,0.00605543,-0.00364636,0.00866603,0.000962374,-0.949448,0.00548478,0.0111006,713,673,-13.5714,4.61728
-504,351,-13.5944,-5.18158,0.00266649,0.00393888,-0.00224866,0.00563961,0.000965766,-0.923256,0.00348274,0.0100159,720,673,-13.5944,5.18156
-497,351,-13.6117,-5.72906,0.00226237,0.00250684,-0.00140511,0.00379503,0.000974189,-0.828785,0.00227588,0.0103836,727,673,-13.6117,5.72904
-490,351,-13.6168,-6.28241,0.00186647,0.00117225,-0.000642395,0.00224954,0.000789183,-0.5377,0.0013179,0.0100827,734,673,-13.6168,6.28241
-483,351,-13.6403,-6.82556,0.00210329,0.000674445,-0.000567781,0.00230143,0.000476303,-0.335763,0.00140274,0.0117104,741,673,-13.6403,6.82554
-476,351,-13.6769,-7.35577,0.00245768,0.000345644,-0.000627364,0.00262997,0.000173346,-0.26803,0.00169849,0.0111548,748,673,-13.6769,7.35575
-469,351,-13.6858,-7.89789,0.00293157,0.000220136,-0.000848864,0.00317539,-2.36904e-05,-0.279708,0.00212487,0.0141643,755,673,-13.6858,7.89791
-462,351,-13.7011,-8.50195,0.00345257,0.000275721,-0.00120004,0.00385492,-0.000126629,-0.323502,0.00261318,0.0299932,762,673,-13.7011,8.50198
-455,351,-13.4336,-9.18506,0,0,0,0,0,0,0,-1,769,673,-13.4336,9.18505
-448,351,-6.61456,-4.38654,0,0,0,0,0,0,0,-1,776,673,-6.61456,4.38654
-441,351,-4.31567,-2.3009,0,0,0,0,0,0,0,-1,783,673,-4.31565,2.30089
-434,351,-3.81708,-2.28003,0,0,0,0,0,0,0,-1,790,673,-3.81706,2.28006
-427,351,-2.05157,-2.7785,0,0,0,0,0,0,0,-1,797,673,-2.05157,2.77848
-420,351,-1.06989,-2.43665,0,0,0,0,0,0,0,-1,804,673,-1.06991,2.43663
-413,351,-0.392334,-2.06671,0,0,0,0,0,0,0,-1,811,673,-0.392363,2.06672
-406,351,-1.86316,-2.58105,0,0,0,0,0,0,0,-1,818,673,-1.86313,2.58106
-399,351,1.00952,-1.53455,0,0,0,0,0,0,0,-1,825,673,1.00954,1.53457
-392,351,-1.02197,0.877136,0,0,0,0,0,0,0,-1,832,673,-1.02195,-0.877143
-385,351,-1.47205,1.04437,0,0,0,0,0,0,0,-1,839,673,-1.47207,-1.04435
-378,351,0,0,0,0,0,0,0,0,0,-1,846,673,0,0
-371,351,0,0,0,0,0,0,0,0,0,-1,853,673,0,0
-364,351,0,0,0,0,0,0,0,0,0,-1,860,673,0,0
-357,351,0,0,0,0,0,0,0,0,0,-1,867,673,0,0
-350,351,0,0,0,0,0,0,0,0,0,-1,874,673,0,0
-343,351,0,0,0,0,0,0,0,0,0,-1,881,673,0,0
-336,351,0,0,0,0,0,0,0,0,0,-1,888,673,0,0
-329,351,0,0,0,0,0,0,0,0,0,-1,895,673,0,0
-322,351,0,0,0,0,0,0,0,0,0,-1,902,673,0,0
-315,351,0,0,0,0,0,0,0,0,0,-1,909,673,0,0
-308,351,0,0,0,0,0,0,0,0,0,-1,916,673,0,0
-301,351,0,0,0,0,0,0,0,0,0,-1,923,673,0,0
-294,351,0,0,0,0,0,0,0,0,0,-1,930,673,0,0
-287,351,0,0,0,0,0,0,0,0,0,-1,937,673,0,0
-280,351,0,0,0,0,0,0,0,0,0,-1,944,673,0,0
-273,351,0,0,0,0,0,0,0,0,0,-1,951,673,0,0
-266,351,0,0,0,0,0,0,0,0,0,-1,958,673,0,0
-259,351,0,0,0,0,0,0,0,0,0,-1,965,673,0,0
-252,351,0,0,0,0,0,0,0,0,0,-1,972,673,0,0
-245,351,0,0,0,0,0,0,0,0,0,-1,979,673,0,0
-238,351,0,0,0,0,0,0,0,0,0,-1,986,673,0,0
-231,351,0,0,0,0,0,0,0,0,0,-1,993,673,0,0
-224,351,0,0,0,0,0,0,0,0,0,-1,1000,673,0,0
-217,351,0,0,0,0,0,0,0,0,0,-1,1007,673,0,0
-210,351,0,0,0,0,0,0,0,0,0,-1,1014,673,0,0
-203,351,0,0,0,0,0,0,0,0,0,-1,1021,673,0,0
-196,351,0,0,0,0,0,0,0,0,0,-1,1028,673,0,0
-189,351,0,0,0,0,0,0,0,0,0,-1,1035,673,0,0
-182,351,0,0,0,0,0,0,0,0,0,-1,1042,673,0,0
-175,351,0,0,0,0,0,0,0,0,0,-1,1049,673,0,0
-168,351,0,0,0,0,0,0,0,0,0,-1,1056,673,0,0
-161,351,0,0,0,0,0,0,0,0,0,-1,1063,673,0,0
-154,351,0,0,0,0,0,0,0,0,0,-1,1070,673,0,0
-147,351,0,0,0,0,0,0,0,0,0,-1,1077,673,0,0
-140,351,0,0,0,0,0,0,0,0,0,-1,1084,673,0,0
-133,351,0,0,0,0,0,0,0,0,0,-1,1091,673,0,0
-126,351,0,0,0,0,0,0,0,0,0,-1,1098,673,0,0
-119,351,0,0,0,0,0,0,0,0,0,-1,1105,673,0,0
-112,351,0,0,0,0,0,0,0,0,0,-1,1112,673,0,0
-105,351,0,0,0,0,0,0,0,0,0,-1,1119,673,0,0
-98,351,0,0,0,0,0,0,0,0,0,-1,1126,673,0,0
-91,351,0,0,0,0,0,0,0,0,0,-1,1133,673,0,0
-84,351,0,0,0,0,0,0,0,0,0,-1,1140,673,0,0
-77,351,0,0,0,0,0,0,0,0,0,-1,1147,673,0,0
-70,351,0,0,0,0,0,0,0,0,0,-1,1154,673,0,0
-63,351,0,0,0,0,0,0,0,0,0,-1,1161,673,0,0
-56,351,0,0,0,0,0,0,0,0,0,-1,1168,673,0,0
-49,351,0,0,0,0,0,0,0,0,0,-1,1175,673,0,0
-42,351,0,0,0,0,0,0,0,0,0,-1,1182,673,0,0
-35,351,0,0,0,0,0,0,0,0,0,-1,1189,673,0,0
-28,351,0,0,0,0,0,0,0,0,0,-1,1196,673,0,0
-21,351,0,0,0,0,0,0,0,0,0,-1,1203,673,0,0
-14,351,0,0,0,0,0,0,0,0,0,-1,1210,673,0,0
-7,351,0,0,0,0,0,0,0,0,0,-1,1217,673,0,0
0,351,0,0,0,0,0,0,0,0,0,-1,1224,673,0,0
7,351,0,0,0,0,0,0,0,0,0,-1,1231,673,0,0
14,351,0,0,0,0,0,0,0,0,0,-1,1238,673,0,0
21,351,0,0,0,0,0,0,0,0,0,-1,1245,673,0,0
28,351,0,0,0,0,0,0,0,0,0,-1,1252,673,0,0
35,351,0,0,0,0,0,0,0,0,0,-1,1259,673,0,0
42,351,0,0,0,0,0,0,0,0,0,-1,1266,673,0,0
49,351,0,0,0,0,0,0,0,0,0,-1,1273,673,0,0
56,351,0,0,0,0,0,0,0,0,0,-1,1280,673,0,0
63,351,0,0,0,0,0,0,0,0,0,-1,1287,673,0,0
70,351,0,0,0,0,0,0,0,0,0,-1,1294,673,0,0
77,351,0,0,0,0,0,0,0,0,0,-1,1301,673,0,0
84,351,0,0,0,0,0,0,0,0,0,-1,1308,673,0,0
91,351,0,0,0,0,0,0,0,0,0,-1,1315,673,0,0
98,351,0,0,0,0,0,0,0,0,0,-1,1322,673,0,0
105,351,0,0,0,0,0,0,0,0,0,-1,1329,673,0,0
112,351,0,0,0,0,0,0,0,0,0,-1,1336,673,0,0
119,351,0,0,0,0,0,0,0,0,0,-1,1343,673,0,0
126,351,0,0,0,0,0,0,0,0,0,-1,1350,673,0,0
133,351,0,0,0,0,0,0,0,0,0,-1,1357,673,0,0
140,351,0,0,0,0,0,0,0,0,0,-1,1364,673,0,0
147,351,0,0,0,0,0,0,0,0,0,-1,1371,673,0,0
154,351,0,0,0,0,0,0,0,0,0,-1,1378,673,0,0
161,351,0,0,0,0,0,0,0,0,0,-1,1385,673,0,0
168,351,0,0,0,0,0,0,0,0,0,-1,1392,673,0,0
175,351,0,0,0,0,0,0,0,0,0,-1,1399,673,0,0
182,351,0,0,0,0,0,0,0,0,0,-1,1406,673,0,0
189,351,0,0,0,0,0,0,0,0,0,-1,1413,673,0,0
196,351,0,0,0,0,0,0,0,0,0,-1,1420,673,0,0
203,351,0,0,0,0,0,0,0,0,0,-1,1427,673,0,0
210,351,0,0,0,0,0,0,0,0,0,-1,1434,673,0,0
217,351,0,0,0,0,0,0,0,0,0,-1,1441,673,0,0
224,351,0,0,0,0,0,0,0,0,0,-1,1448,673,0,0
231,351,0,0,0,0,0,0,0,0,0,-1,1455,673,0,0
238,351,0,0,0,0,0,0,0,0,0,-1,1462,673,0,0
245,351,0,0,0,0,0,0,0,0,0,-1,1469,673,0,0
252,351,0,0,0,0,0,0,0,0,0,-1,1476,673,0,0
259,351,0,0,0,0,0,0,0,0,0,-1,1483,673,0,0
266,351,0,0,0,0,0,0,0,0,0,-1,1490,673,0,0
273,351,0,0,0,0,0,0,0,0,0,-1,1497,673,0,0
280,351,0,0,0,0,0,0,0,0,0,-1,1504,673,0,0
287,351,0,0,0,0,0,0,0,0,0,-1,1511,673,0,0
294,351,0,0,0,0,0,0,0,0,0,-1,1518,673,0,0
301,351,0,0,0,0,0,0,0,0,0,-1,1525,673,0,0
308,351,0,0,0,0,0,0,0,0,0,-1,1532,673,0,0
315,351,0,0,0,0,0,0,0,0,0,-1,1539,673,0,0
322,351,0,0,0,0,0,0,0,0,0,-1,1546,673,0,0
329,351,0,0,0,0,0,0,0,0,0,-1,1553,673,0,0
336,351,0,0,0,0,0,0,0,0,0,-1,1560,673,0,0
343,351,0,0,0,0,0,0,0,0,0,-1,1567,673,0,0
350,351,0,0,0,0,0,0,0,0,0,-1,1574,673,0,0
357,351,0,0,0,0,0,0,0,0,0,-1,1581,673,0,0
364,351,0,0,0,0,0,0,0,0,0,-1,1588,673,0,0
371,351,0,0,0,0,0,0,0,0,0,-1,1595,673,0,0
378,351,0,0,0,0,0,0,0,0,0,-1,1602,673,0,0
385,351,0,0,0,0,0,0,0,0,0,-1,1609,673,0,0
392,351,0,0,0,0,0,0,0,0,0,-1,1616,673,0,0
399,351,0,0,0,0,0,0,0,0,0,-1,1623,673,0,0
406,351,0,0,0,0,0,0,0,0,0,-1,1630,673,0,0
413,351,0,0,0,0,0,0,0,0,0,-1,1637,673,0,0
420,351,0,0,0,0,0,0,0,0,0,-1,1644,673,0,0
427,351,0,0,0,0,0,0,0,0,0,-1,1651,673,0,0
434,351,0,0,0,0,0,0,0,0,0,-1,1658,673,0,0
441,351,0,0,0,0,0,0,0,0,0,-1,1665,673,0,0
448,351,0,0,0,0,0,0,0,0,0,-1,1672,673,0,0
455,351,0,0,0,0,0,0,0,0,0,-1,1679,673,0,0
462,351,0,0,0,0,0,0,0,0,0,-1,1686,673,0,0
469,351,0,0,0,0,0,0,0,0,0,-1,1693,673,0,0
476,351,0,0,0,0,0,0,0,0,0,-1,1700,673,0,0
483,351,0,0,0,0,0,0,0,0,0,-1,1707,673,0,0
490,351,0,0,0,0,0,0,0,0,0,-1,1714,673,0,0
497,351,0,0,0,0,0,0,0,0,0,-1,1721,673,0,0
504,351,10.8842,1.61615,0,0,0,0,0,0,0,-1,1728,673,10.8842,-1.61618
511,351,15.4548,0.0236816,0,0,0,0,0,0,0,-1,1735,673,15.4549,-0.0236664
518,351,16.7448,2.49268,0,0,0,0,0,0,0,-1,1742,673,16.7448,-2.49269
525,351,16.0701,3.43225,0,0,0,0,0,0,0,-1,1749,673,16.07,-3.43227
532,351,32.3822,3.03021,0,0,0,0,0,0,0,-1,1756,673,32.3822,-3.03019
539,351,15.3387,3.54486,0,0,0,0,0,0,0,-1,1763,673,15.3387,-3.54485
546,351,13.9387,4.59357,0,0,0,0,0,0,0,-1,1770,673,13.9388,-4.59359
553,351,12.0682,2.02832,0,0,0,0,0,0,0,-1,1777,673,12.0683,-2.02831
560,351,12.0173,0.55304,0,0,0,0,0,0,0,-1,1784,673,12.0174,-0.553028
567,351,10.7827,0.130188,0,0,0,0,0,0,0,-1,1791,673,10.7827,-0.130183
574,351,13.405,-1.09204,0,0,0,0,0,0,0,-1,1798,673,13.405,1.09207
581,351,15.2351,-3.06049,0,0,0,0,0,0,0,-1,1805,673,15.2351,3.06046
588,351,23.8409,-7.01544,0,0,0,0,0,0,0,-1,1812,673,23.841,7.01543
595,351,23.943,-6.36072,0.00225676,0.000420543,-5.82309e-05,0.0022586,0.000418698,-0.03167,0.00138739,0.0396122,1819,673,23.9429,6.36071
602,351,23.9607,-5.73962,0.00165763,0.000554152,-0.000117699,0.00167004,0.000541737,-0.105087,0.000983822,0.0194581,1826,673,23.9606,5.73963
609,351,23.9684,-5.19977,0.00149766,0.000744347,6.90698e-05,0.00150394,0.000738067,0.0906805,0.000868351,0.017583,1833,673,23.9684,5.19975
616,351,23.9517,-4.63025,0.00133123,0.000918757,0.00024384,0.00144435,0.000805633,0.434378,0.000835751,0.0152808,1840,673,23.9516,4.63026
623,351,23.9484,-4.05096,0.000909228,0.00103111,0.000273281,0.00125016,0.000690174,0.8951,0.000723084,0.0152041,1847,673,23.9484,4.05097
630,351,23.8754,-3.49432,0.000238559,0.00103185,0.00019191,0.00107584,0.000194572,1.34548,0.00066197,0.0236542,1854,673,23.8753,3.49431
637,351,23.8088,-2.90729,-0.000789284,0.00090893,-0.00013238,0.000919187,-0.000799541,-1.49347,0.000993109,0.0291927,1861,673,23.8088,2.90728
644,351,23.8331,-2.31958,-0.00224353,0.000650105,-0.000672614,0.000798809,-0.00239224,-1.35321,0.00191739,0.0216463,1868,673,23.8332,2.31958
651,351,23.8687,-1.70111,-0.00428669,0.000244932,-0.00149712,0.000694863,-0.00473663,-1.27885,0.00341303,0.0159599,1875,673,23.8686,1.70109
658,351,23.7894,-1.06079,-0.00714418,-0.000432434,-0.00281552,0.000592222,-0.00816884,-1.22176,0.00565365,0.0330914,1882,673,23.7894,1.06077
665,351,23.3337,-0.727417,-0.0109451,-0.0013176,-0.00456021,0.000499476,-0.0127621,-1.19162,0.00867937,0.0451808,1889,673,23.3337,0.72739
672,351,23.0483,-0.175049,0,0,0,0,0,0,0,-1,1896,673,23.0483,0.175055
679,351,14.1252,1.85681,0,0,0,0,0,0,0,-1,1903,673,14.1253,-1.85682
686,351,13.0294,2.1189,0,0,0,0,0,0,0,-1,1910,673,13.0294,-2.11892
693,351,13.5187,2.34595,0,0,0,0,0,0,0,-1,1917,673,13.5187,-2.34596
700,351,14.5629,-2.40173,0,0,0,0,0,0,0,-1,1924,673,14.5629,2.40172
707,351,0,0,0,0,0,0,0,0,0,-1,1931,673,0,0
714,351,0,0,0,0,0,0,0,0,0,-1,1938,673,0,0
721,351,0,0,0,0,0,0,0,0,0,-1,1945,673,0,0
728,351,0,0,0,0,0,0,0,0,0,-1,1952,673,0,0
735,351,0,0,0,0,0,0,0,0,0,-1,1959,673,0,0
742,351,0,0,0,0,0,0,0,0,0,-1,1966,673,0,0
749,351,0,0,0,0,0,0,0,0,0,-1,1973,673,0,0
756,351,0,0,0,0,0,0,0,0,0,-1,1980,673,0,0
763,351,0,0,0,0,0,0,0,0,0,-1,1987,673,0,0
770,351,0,0,0,0,0,0,0,0,0,-1,1994,673,0,0
777,351,0,0,0,0,0,0,0,0,0,-1,2001,673,0,0
784,351,0,0,0,0,0,0,0,0,0,-1,2008,673,0,0
791,351,0,0,0,0,0,0,0,0,0,-1,2015,673,0,0
798,351,0,0,0,0,0,0,0,0,0,-1,2022,673,0,0
805,351,0,0,0,0,0,0,0,0,0,-1,2029,673,0,0
812,351,0,0,0,0,0,0,0,0,0,-1,2036,673,0,0
-700,344,0,0,0,0,0,0,0,0,0,-1,524,680,0,0
-693,344,0,0,0,0,0,0,0,0,0,-1,531,680,0,0
-686,344,0,0,0,0,0,0,0,0,0,-1,538,680,0,0
-679,344,0,0,0,0,0,0,0,0,0,-1,545,680,0,0
-672,344,0,0,0,0,0,0,0,0,0,-1,552,680,0,0
-665,344,0,0,0,0,0,0,0,0,0,-1,559,680,0,0
-658,344,0,0,0,0,0,0,0,0,0,-1,566,680,0,0
-651,344,0,0,0,0,0,0,0,0,0,-1,573,680,0,0
-644,344,0,0,0,0,0,0,0,0,0,-1,580,680,0,0
-637,344,0,0,0,0,0,0,0,0,0,-1,587,680,0,0
-630,344,0,0,0,0,0,0,0,0,0,-1,594,680,0,0
-623,344,0,0,0,0,0,0,0,0,0,-1,601,680,0,0
-616,344,0,0,0,0,0,0,0,0,0,-1,608,680,0,0
-609,344,0,0,0,0,0,0,0,0,0,-1,615,680,0,0
-602,344,0,0,0,0,0,0,0,0,0,-1,622,680,0,0
-595,344,0,0,0,0,0,0,0,0,0,-1,629,680,0,0
-588,344,-9.27826,1.47302,0,0,0,0,0,0,0,-1,636,680,-9.27829,-1.473
-581,344,-10.0098,1.71753,0,0,0,0,0,0,0,-1,643,680,-10.0098,-1.7175
-574,344,-10.2208,3.04871,0,0,0,0,0,0,0,-1,650,680,-10.2208,-3.04869
-567,344,-14.3779,2.29016,0,0,0,0,0,0,0,-1,657,680,-14.3779,-2.29014
-560,344,-14.1238,1.8374,0,0,0,0,0,0,0,-1,664,680,-14.1238,-1.83743
-553,344,-14.7884,2.00116,0,0,0,0,0,0,0,-1,671,680,-14.7884,-2.00115
-546,344,-15.0997,0.102905,0,0,0,0,0,0,0,-1,678,680,-15.0997,-0.102935
-539,344,-14.1099,-1.83087,0,0,0,0,0,0,0,-1,685,680,-14.1099,1.83087
-532,344,-14.0872,-2.7749,0,0,0,0,0,0,0,-1,692,680,-14.0872,2.77489
-525,344,-14.1973,-3.4057,0.00618373,0.0105669,-0.0068331,0.0155513,0.00119938,-0.940582,0.00999176,0.0384964,699,680,-14.1973,3.40567
-518,344,-14.1662,-4.07092,0.00444054,0.00721821,-0.00449197,0.0105311,0.00112761,-0.935328,0.00667671,0.0204992,706,680,-14.1662,4.07091
-511,344,-14.1626,-4.63904,0.00322318,0.00469448,-0.00278984,0.00684403,0.00107362,-0.914308,0.00425026,0.0170024,713,680,-14.1626,4.63904
-504,344,-14.1599,-5.19873,0.00244655,0.00281632,-0.00160582,0.00424786,0.00101501,-0.842713,0.0025615,0.0167239,720,680,-14.1599,5.19874
-497,344,-14.1746,-5.74792,0.00209928,0.00155178,-0.000898596,0.0027649,0.000886163,-0.637543,0.00163024,0.0150376,727,680,-14.1746,5.74791
-490,344,-14.2046,-6.28809,0.00176179,0.000368367,-0.000446178,0.00189241,0.000237744,-0.2848,0.0011903,0.0135875,734,680,-14.2046,6.28808
-483,344,-14.2011,-6.80194,0.00174886,-0.000150953,-0.000805699,0.00204454,-0.000446627,-0.35172,0.00153373,0.0134362,741,680,-14.2011,6.80193
-476,344,-14.2213,-7.33569,0.00174396,-0.000622544,-0.00138277,0.00238063,-0.00125922,-0.431498,0.00213446,0.0141824,748,680,-14.2213,7.3357
-469,344,-14.2207,-7.901,0.00167998,-0.00100073,-0.00245014,0.00313243,-0.00245318,-0.53511,0.00323279,0.018243,755,680,-14.2207,7.90097
-462,344,-14.226,-8.4743,0,0,0,0,0,0,0,-1,762,680,-14.2259,8.47433
-455,344,-12.1653,-7.99176,0,0,0,0,0,0,0,-1,769,680,-12.1653,7.99174
-448,344,-5.67657,-2.72864,0,0,0,0,0,0,0,-1,776,680,-5.6766,2.72863
-441,344,-5.09229,-2.34167,0,0,0,0,0,0,0,-1,783,680,-5.09229,2.34168
-434,344,-4.28778,-2.08807,0,0,0,0,0,0,0,-1,790,680,-4.28778,2.08809
-427,344,-3.06506,-1.45404,0,0,0,0,0,0,0,-1,797,680,-3.06505,1.45402
-420,344,-1.96582,-1.57574,0,0,0,0,0,0,0,-1,804,680,-1.96579,1.57574
-413,344,-0.817993,-1.4751,0,0,0,0,0,0,0,-1,811,680,-0.818017,1.47511
-406,344,-0.00714111,-1.25189,0,0,0,0,0,0,0,-1,818,680,-0.00714956,1.25191
-399,344,0.240051,-1.75769,0,0,0,0,0,0,0,-1,825,680,0.240079,1.75767
-392,344,1.11353,-2.05615,0,0,0,0,0,0,0,-1,832,680,1.11351,2.05616
-385,344,0,0,0,0,0,0,0,0,0,-1,839,680,0,0
-378,344,0,0,0,0,0,0,0,0,0,-1,846,680,0,0
-371,344,0,0,0,0,0,0,0,0,0,-1,853,680,0,0
-364,344,0,0,0,0,0,0,0,0,0,-1,860,680,0,0
-357,344,0,0,0,0,0,0,0,0,0,-1,867,680,0,0
-350,344,0,0,0,0,0,0,0,0,0,-1,874,680,0,0
-343,344,0,0,0,0,0,0,0,0,0,-1,881,680,0,0
-336,344,0,0,0,0,0,0,0,0,0,-1,888,680,0,0
-329,344,0,0,0,0,0,0,0,0,0,-1,895,680,0,0
-322,344,0,0,0,0,0,0,0,0,0,-1,902,680,0,0
-315,344,0,0,0,0,0,0,0,0,0,-1,909,680,0,0
-308,344,0,0,0,0,0,0,0,0,0,-1,916,680,0,0
-301,344,0,0,0,0,0,0,0,0,0,-1,923,680,0,0
-294,344,0,0,0,0,0,0,0,0,0,-1,930,680,0,0
-287,344,0,0,0,0,0,0,0,0,0,-1,937,680,0,0
-280,344,0,0,0,0,0,0,0,0,0,-1,944,680,0,0
-273,344,0,0,0,0,0,0,0,0,0,-1,951,680,0,0
-266,344,0,0,0,0,0,0,0,0,0,-1,958,680,0,0
-259,344,0,0,0,0,0,0,0,0,0,-1,965,680,0,0
-252,344,0,0,0,0,0,0,0,0,0,-1,972,680,0,0
-245,344,0,0,0,0,0,0,0,0,0,-1,979,680,0,0
-238,344,0,0,0,0,0,0,0,0,0,-1,986,680,0,0
-231,344,0,0,0,0,0,0,0,0,0,-1,993,680,0,0
-224,344,0,0,0,0,0,0,0,0,0,-1,1000,680,0,0
-217,344,0,0,0,0,0,0,0,0,0,-1,1007,680,0,0
-210,344,0,0,0,0,0,0,0,0,0,-1,1014,680,0,0
-203,344,0,0,0,0,0,0,0,0,0,-1,1021,680,0,0
-196,344,0,0,0,0,0,0,0,0,0,-1,1028,680,0,0
-189,344,0,0,0,0,0,0,0,0,0,-1,1035,680,0,0
-182,344,0,0,0,0,0,0,0,0,0,-1,1042,680,0,0
-175,344,0,0,0,0,0,0,0,0,0,-1,1049,680,0,0
-168,344,0,0,0,0,0,0,0,0,0,-1,1056,680,0,0
-161,344,0,0,0,0,0,0,0,0,0,-1,1063,680,0,0
-154,344,0,0,0,0,0,0,0,0,0,-1,1070,680,0,0
-147,344,0,0,0,0,0,0,0,0,0,-1,1077,680,0,0
-140,344,0,0,0,0,0,0,0,0,0,-1,1084,680,0,0
-133,344,0,0,0,0,0,0,0,0,0,-1,1091,680,0,0
-126,344,0,0,0,0,0,0,0,0,0,-1,1098,680,0,0
-119,344,0,0,0,0,0,0,0,0,0,-1,1105,680,0,0
-112,344,0,0,0,0,0,0,0,0,0,-1,1112,680,0,0
-105,344,0,0,0,0,0,0,0,0,0,-1,1119,680,0,0
-98,344,0,0,0,0,0,0,0,0,0,-1,1126,680,0,0
-91,344,0,0,0,0,0,0,0,0,0,-1,1133,680,0,0
-84,344,0,0,0,0,0,0,0,0,0,-1,1140,680,0,0
-77,344,0,0,0,0,0,0,0,0,0,-1,1147,680,0,0
-70,344,0,0,0,0,0,0,0,0,0,-1,1154,680,0,0
-63,344,0,0,0,0,0,0,0,0,0,-1,1161,680,0,0
-56,344,0,0,0,0,0,0,0,0,0,-1,1168,680,0,0
-49,344,0,0,0,0,0,0,0,0,0,-1,1175,680,0,0
-42,344,0,0,0,0,0,0,0,0,0,-1,1182,680,0,0
-35,344,0,0,0,0,0,0,0,0,0,-1,1189,680,0,0
-28,344,0,0,0,0,0,0,0,0,0,-1,1196,680,0,0
-21,344,0,0,0,0,0,0,0,0,0,-1,1203,680,0,0
-14,344,0,0,0,0,0,0,0,0,0,-1,1210,680,0,0
-7,344,0,0,0,0,0,0,0,0,0,-1,1217,680,0,0
0,344,0,0,0,0,0,0,0,0,0,-1,1224,680,0,0
7,344,0,0,0,0,0,0,0,0,0,-1,1231,680,0,0
14,344,0,0,0,0,0,0,0,0,0,-1,1238,680,0,0
21,344,0,0,0,0,0,0,0,0,0,-1,1245,680,0,0
28,344,0,0,0,0,0,0,0,0,0,-1,1252,680,0,0
35,344,0,0,0,0,0,0,0,0,0,-1,1259,680,0,0
42,344,0,0,0,0,0,0,0,0,0,-1,1266,680,0,0
49,344,0,0,0,0,0,0,0,0,0,-1,1273,680,0,0
56,344,0,0,0,0,0,0,0,0,0,-1,1280,680,0,0
63,344,0,0,0,0,0,0,0,0,0,-1,1287,680,0,0
70,344,0,0,0,0,0,0,0,0,0,-1,1294,680,0,0
77,344,0,0,0,0,0,0,0,0,0,-1,1301,680,0,0
84,344,0,0,0,0,0,0,0,0,0,-1,1308,680,0,0
91,344,0,0,0,0,0,0,0,0,0,-1,1315,680,0,0
98,344,0,0,0,0,0,0,0,0,0,-1,1322,680,0,0
105,344,0,0,0,0,0,0,0,0,0,-1,1329,680,0,0
112,344,0,0,0,0,0,0,0,0,0,-1,1336,680,0,0
119,344,0,0,0,0,0,0,0,0,0,-1,1343,680,0,0
126,344,0,0,0,0,0,0,0,0,0,-1,1350,680,0,0
133,344,0,0,0,0,0,0,0,0,0,-1,1357,680,0,0
140,344,0,0,0,0,0,0,0,0,0,-1,1364,680,0,0
147,344,0,0,0,0,0,0,0,0,0,-1,1371,680,0,0
154,344,0,0,0,0,0,0,0,0,0,-1,1378,680,0,0
161,344,0,0,0,0,0,0,0,0,0,-1,1385,680,0,0
168,344,0,0,0,0,0,0,0,0,0,-1,1392,680,0,0
175,344,0,0,0,0,0,0,0,0,0,-1,1399,680,0,0
182,344,0,0,0,0,0,0,0,0,0,-1,1406,680,0,0
189,344,0,0,0,0,0,0,0,0,0,-1,1413,680,0,0
196,344,0,0,0,0,0,0,0,0,0,-1,1420,680,0,0
203,344,0,0,0,0,0,0,0,0,0,-1,1427,680,0,0
210,344,0,0,0,0,0,0,0,0,0,-1,1434,680,0,0
217,344,0,0,0,0,0,0,0,0,0,-1,1441,680,0,0
224,344,0,0,0,0,0,0,0,0,0,-1,1448,680,0,0
231,344,0,0,0,0,0,0,0,0,0,-1,1455,680,0,0
238,344,0,0,0,0,0,0,0,0,0,-1,1462,680,0,0
245,344,0,0,0,0,0,0,0,0,0,-1,1469,680,0,0
252,344,0,0,0,0,0,0,0,0,0,-1,1476,680,0,0
259,344,0,0,0,0,0,0,0,0,0,-1,1483,680,0,0
266,344,0,0,0,0,0,0,0,0,0,-1,1490,680,0,0
273,344,0,0,0,0,0,0,0,0,0,-1,1497,680,0,0
280,344,0,0,0,0,0,0,0,0,0,-1,1504,680,0,0
287,344,0,0,0,0,0,0,0,0,0,-1,1511,680,0,0
294,344,0,0,0,0,0,0,0,0,0,-1,1518,680,0,0
301,344,0,0,0,0,0,0,0,0,0,-1,1525,680,0,0
308,344,0,0,0,0,0,0,0,0,0,-1,1532,680,0,0
315,344,0,0,0,0,0,0,0,0,0,-1,1539,680,0,0
322,344,0,0,0,0,0,0,0,0,0,-1,1546,680,0,0
329,344,0,0,0,0,0,0,0,0,0,-1,1553,680,0,0
336,344,0,0,0,0,0,0,0,0,0,-1,1560,680,0,0
343,344,0,0,0,0,0,0,0,0,0,-1,1567,680,0,0
350,344,0,0,0,0,0,0,0,0,0,-1,1574,680,0,0
357,344,0,0,0,0,0,0,0,0,0,-1,1581,680,0,0
364,344,0,0,0,0,0,0,0,0,0,-1,1588,680,0,0
371,344,0,0,0,0,0,0,0,0,0,-1,1595,680,0,0
378,344,0,0,0,0,0,0,0,0,0,-1,1602,680,0,0
385,344,0,0,0,0,0,0,0,0,0,-1,1609,680,0,0
392,344,0,0,0,0,0,0,0,0,0,-1,1616,680,0,0
399,344,0,0,0,0,0,0,0,0,0,-1,1623,680,0,0
406,344,0,0,0,0,0,0,0,0,0,-1,1630,680,0,0
413,344,0,0,0,0,0,0,0,0,0,-1,1637,680,0,0
420,344,0,0,0,0,0,0,0,0,0,-1,1644,680,0,0
427,344,0,0,0,0,0,0,0,0,0,-1,1651,680,0,0
434,344,0,0,0,0,0,0,0,0,0,-1,1658,680,0,0
441,344,0,0,0,0,0,0,0,0,0,-1,1665,680,0,0
448,344,0,0,0,0,0,0,0,0,0,-1,1672,680,0,0
455,344,0,0,0,0,0,0,0,0,0,-1,1679,680,0,0
462,344,0,0,0,0,0,0,0,0,0,-1,1686,680,0,0
469,344,0,0,0,0,0,0,0,0,0,-1,1693,680,0,0
476,344,0,0,0,0,0,0,0,0,0,-1,1700,680,0,0
483,344,0,0,0,0,0,0,0,0,0,-1,1707,680,0,0
490,344,0,0,0,0,0,0,0,0,0,-1,1714,680,0,0
497,344,0,0,0,0,0,0,0,0,0,-1,1721,680,0,0
504,344,0,0,0,0,0,0,0,0,0,-1,1728,680,0,0
511,344,15.4819,0.452637,0,0,0,0,0,0,0,-1,1735,680,15.4819,-0.452656
518,344,17.1357,2.31207,0,0,0,0,0,0,0,-1,1742,680,17.1358,-2.31207
525,344,31.5201,2.6217,0,0,0,0,0,0,0,-1,1749,680,31.5201,-2.62168
532,344,31.9766,2.61047,0,0,0,0,0,0,0,-1,1756,680,31.9765,-2.6105
539,344,32.4379,2.65314,0,0,0,0,0,0,0,-1,1763,680,32.4378,-2.65316
546,344,14.6722,4.30243,0,0,0,0,0,0,0,-1,1770,680,14.6722,-4.30241
553,344,14.8136,4.35681,0,0,0,0,0,0,0,-1,1777,680,14.8136,-4.35679
560,344,11.9363,2.14185,0,0,0,0,0,0,0,-1,1784,680,11.9362,-2.14182
567,344,11.397,0.925842,0,0,0,0,0,0,0,-1,1791,680,11.397,-0.92583
574,344,10.0004,0.504639,0,0,0,0,0,0,0,-1,1798,680,10.0004,-0.504645
581,344,13.6709,-0.969604,0,0,0,0,0,0,0,-1,1805,680,13.6709,0.969629
588,344,16.1447,-3.15948,0,0,0,0,0,0,0,-1,1812,680,16.1447,3.15946
595,344,24.4401,-6.46851,0,0,0,0,0,0,0,-1,1819,680,24.4401,6.46848
602,344,24.6731,-5.70001,0.00153591,0.000479381,-0.000217329,0.00157886,0.000436422,-0.195149,0.000941446,0.045754,1826,680,24.6731,5.70001
609,344,24.5625,-5.17145,0.00146794,0.000565694,-2.99209e-05,0.00146893,0.000564703,-0.0331142,0.000855605,0.0155402,1833,680,24.5625,5.17143
616,344,24.5514,-4.61273,0.00138006,0.000711207,0.0002119,0.00144154,0.000649726,0.282388,0.000833621,0.0225462,1840,680,24.5514,4.61274
623,344,24.5757,-4.02655,0.000927198,0.000761228,0.000206039,0.00106634,0.000622089,0.593956,0.000618497,0.019982,1847,680,24.5757,4.02658
630,344,24.4966,-3.45917,0.000256249,0.000721184,0.000108047,0.000745067,0.000232366,1.35326,0.000440197,0.0246533,1854,680,24.4966,3.45917
637,344,24.4337,-2.86029,-0.000773228,0.000581787,-0.000221244,0.000616997,-0.000808437,-1.41298,0.000825445,0.0236163,1861,680,24.4337,2.8603
644,344,24.431,-2.29102,-0.00217017,0.000319447,-0.000741762,0.000523694,-0.00237442,-1.3021,0.00178333,0.016388,1868,680,24.431,2.29101
651,344,24.4241,-1.69269,-0.00407071,-3.26697e-05,-0.00149566,0.000460964,-0.00456434,-1.25201,0.00320761,0.0115269,1875,680,24.4241,1.69266
658,344,24.4091,-1.01929,-0.00662193,-0.000571004,-0.00260214,0.000394089,-0.00758702,-1.21564,0.00519436,0.023256,1882,680,24.4091,1.01932
665,344,24.2694,-0.469788,-0.00993574,-0.00126127,-0.00405291,0.000337629,-0.0115346,-1.19504,0.00780474,0.0378073,1889,680,24.2694,0.469813
672,344,24.2872,0.0505981,0,0,0,0,0,0,0,-1,1896,680,24.2872,-0.0505831
679,344,24.3424,-0.113159,0,0,0,0,0,0,0,-1,1903,680,24.3425,0.113166
686,344,15.024,1.82709,0,0,0,0,0,0,0,-1,1910,680,15.024,-1.82706
693,344,12.4362,-1.42346,0,0,0,0,0,0,0,-1,1917,680,12.4361,1.42348
700,344,17.5396,2.61206,0,0,0,0,0,0,0,-1,1924,680,17.5396,-2.61204
707,344,18.5829,3.29352,0,0,0,0,0,0,0,-1,1931,680,18.5828,-3.2935
714,344,0,0,0,0,0,0,0,0,0,-1,1938,680,0,0
721,344,0,0,0,0,0,0,0,0,0,-1,1945,680,0,0
728,344,0,0,0,0,0,0,0,0,0,-1,1952,680,0,0
735,344,0,0,0,0,0,0,0,0,0,-1,1959,680,0,0
742,344,0,0,0,0,0,0,0,0,0,-1,1966,680,0,0
749,344,0,0,0,0,0,0,0,0,0,-1,1973,680,0,0
756,344,0,0,0,0,0,0,0,0,0,-1,1980,680,0,0
763,344,0,0,0,0,0,0,0,0,0,-1,1987,680,0,0
770,344,0,0,0,0,0,0,0,0,0,-1,1994,680,0,0
777,344,0,0,0,0,0,0,0,0,0,-1,2001,680,0,0
784,344,0,0,0,0,0,0,0,0,0,-1,2008,680,0,0
791,344,0,0,0,0,0,0,0,0,0,-1,2015,680,0,0
798,344,0,0,0,0,0,0,0,0,0,-1,2022,680,0,0
805,344,0,0,0,0,0,0,0,0,0,-1,2029,680,0,0
812,344,0,0,0,0,0,0,0,0,0,-1,2036,680,0,0
-700,337,0,0,0,0,0,0,0,0,0,-1,524,687,0,0
-693,337,0,0,0,0,0,0,0,0,0,-1,531,687,0,0
-686,337,0,0,0,0,0,0,0,0,0,-1,538,687,0,0
-679,337,0,0,0,0,0,0,0,0,0,-1,545,687,0,0
-672,337,0,0,0,0,0,0,0,0,0,-1,552,687,0,0
-665,337,0,0,0,0,0,0,0,0,0,-1,559,687,0,0
-658,337,0,0,0,0,0,0,0,0,0,-1,566,687,0,0
-651,337,0,0,0,0,0,0,0,0,0,-1,573,687,0,0
-644,337,0,0,0,0,0,0,0,0,0,-1,580,687,0,0
-637,337,0,0,0,0,0,0,0,0,0,-1,587,687,0,0
-630,337,0,0,0,0,0,0,0,0,0,-1,594,687,0,0
-623,337,0,0,0,0,0,0,0,0,0,-1,601,687,0,0
-616,337,0,0,0,0,0,0,0,0,0,-1,608,687,0,0
-609,337,0,0,0,0,0,0,0,0,0,-1,615,687,0,0
-602,337,0,0,0,0,0,0,0,0,0,-1,622,687,0,0
-595,337,0,0,0,0,0,0,0,0,0,-1,629,687,0,0
-588,337,-10.8413,1.27863,0,0,0,0,0,0,0,-1,636,687,-10.8413,-1.27861
-581,337,-11.2157,1.31567,0,0,0,0,0,0,0,-1,643,687,-11.2157,-1.3157
-574,337,-6.03339,2.0321,0,0,0,0,0,0,0,-1,650,687,-6.03337,-2.03213
-567,337,-13.8102,1.56787,0,0,0,0,0,0,0,-1,657,687,-13.8102,-1.56789
-560,337,-15.5435,2.34247,0,0,0,0,0,0,0,-1,664,687,-15.5435,-2.34247
-553,337,-15.6719,0.915894,0,0,0,0,0,0,0,-1,671,687,-15.6719,-0.915907
-546,337,-15.1715,-0.593384,0.0123105,0.0215109,-0.0149324,0.0325357,0.00128575,-0.934819,0.0212748,0.0461709,678,687,-15.1715,0.593385
-539,337,-14.575,-2.13239,0,0,0,0,0,0,0,-1,685,687,-14.575,2.13239
-532,337,-14.6141,-2.89685,0.0066876,0.0114005,-0.00753146,0.0169355,0.00115256,-0.937014,0.0109265,0.0302479,692,687,-14.6142,2.89687
-525,337,-14.7256,-3.48779,0.00493147,0.00794288,-0.00512922,0.0117828,0.00109151,-0.928165,0.00751784,0.0158437,699,687,-14.7256,3.48782
-518,337,-14.7415,-4.07697,0.00361254,0.00526263,-0.0032692,0.00780928,0.00106589,-0.909001,0.00488977,0.022591,706,687,-14.7415,4.07694
-511,337,-14.7579,-4.633,0.00269373,0.0032037,-0.00188754,0.0048534,0.00104403,-0.852536,0.00294983,0.0241573,713,687,-14.7579,4.63298
-504,337,-14.7635,-5.21271,0.00208269,0.0016426,-0.000897724,0.00278695,0.000938348,-0.66521,0.0016374,0.0240121,720,687,-14.7635,5.21273
-497,337,-14.7361,-5.72986,0.00180405,0.000607818,-0.000307869,0.00187864,0.000533233,-0.237681,0.00111791,0.0174367,727,687,-14.7361,5.72985
-490,337,-14.7507,-6.26959,0.00171686,-0.000589537,-0.000396492,0.00178312,-0.000655795,-0.165579,0.00145738,0.0145592,734,687,-14.7507,6.26961
-483,337,-14.7538,-6.82581,0.00185367,-0.00127,-0.00174666,0.00263494,-0.00205128,-0.420603,0.00271258,0.0139361,741,687,-14.7538,6.82579
-476,337,-14.7642,-7.38208,0.0020334,-0.00219905,-0.00342643,0.00394443,-0.00411008,-0.508761,0.0046506,0.0151079,748,687,-14.7642,7.38208
-469,337,-14.7551,-7.91779,0,0,0,0,0,0,0,-1,755,687,-14.7551,7.91781
-462,337,-14.186,-8.89264,0,0,0,0,0,0,0,-1,762,687,-14.186,8.89266
-455,337,-6.00574,-3.12933,0,0,0,0,0,0,0,-1,769,687,-6.00576,3.12934
-448,337,-5.30627,-2.07202,0,0,0,0,0,0,0,-1,776,687,-5.30628,2.07205
-441,337,-4.24762,-1.49597,0,0,0,0,0,0,0,-1,783,687,-4.24762,1.49598
-434,337,-6.86908,1.37531,0,0,0,0,0,0,0,-1,790,687,-6.86908,-1.3753
-427,337,-9.92004,2.487,0,0,0,0,0,0,0,-1,797,687,-9.92002,-2.48701
-420,337,-2.95996,-1.76697,0,0,0,0,0,0,0,-1,804,687,-2.95998,1.76696
-413,337,-1.29169,-1.99487,0,0,0,0,0,0,0,-1,811,687,-1.29171,1.9949
-406,337,-1.02356,-1.89563,0,0,0,0,0,0,0,-1,818,687,-1.02357,1.89564
-399,337,-0.472839,-2.21338,0,0,0,0,0,0,0,-1,825,687,-0.472837,2.2134
-392,337,0,0,0,0,0,0,0,0,0,-1,832,687,0,0
-385,337,0,0,0,0,0,0,0,0,0,-1,839,687,0,0
-378,337,0,0,0,0,0,0,0,0,0,-1,846,687,0,0
-371,337,0,0,0,0,0,0,0,0,0,-1,853,687,0,0
-364,337,0,0,0,0,0,0,0,0,0,-1,860,687,0,0
-357,337,0,0,0,0,0,0,0,0,0,-1,867,687,0,0
-350,337,0,0,0,0,0,0,0,0,0,-1,874,687,0,0
-343,337,0,0,0,0,0,0,0,0,0,-1,881,687,0,0
-336,337,0,0,0,0,0,0,0,0,0,-1,888,687,0,0
-329,337,0,0,0,0,0,0,0,0,0,-1,895,687,0,0
-322,337,0,0,0,0,0,0,0,0,0,-1,902,687,0,0
-315,337,0,0,0,0,0,0,0,0,0,-1,909,687,0,0
-308,337,0,0,0,0,0,0,0,0,0,-1,916,687,0,0
-301,337,0,0,0,0,0,0,0,0,0,-1,923,687,0,0
-294,337,0,0,0,0,0,0,0,0,0,-1,930,687,0,0
-287,337,0,0,0,0,0,0,0,0,0,-1,937,687,0,0
-280,337,0,0,0,0,0,0,0,0,0,-1,944,687,0,0
-273,337,0,0,0,0,0,0,0,0,0,-1,951,687,0,0
-266,337,0,0,0,0,0,0,0,0,0,-1,958,687,0,0
-259,337,0,0,0,0,0,0,0,0,0,-1,965,687,0,0
-252,337,0,0,0,0,0,0,0,0,0,-1,972,687,0,0
-245,337,0,0,0,0,0,0,0,0,0,-1,979,687,0,0
-238,337,0,0,0,0,0,0,0,0,0,-1,986,687,0,0
-231,337,0,0,0,0,0,0,0,0,0,-1,993,687,0,0
-224,337,0,0,0,0,0,0,0,0,0,-1,1000,687,0,0
-217,337,0,0,0,0,0,0,0,0,0,-1,1007,687,0,0
-210,337,0,0,0,0,0,0,0,0,0,-1,1014,687,0,0
-203,337,0,0,0,0,0,0,0,0,0,-1,1021,687,0,0
-196,337,0,0,0,0,0,0,0,0,0,-1,1028,687,0,0
-189,337,0,0,0,0,0,0,0,0,0,-1,1035,687,0,0
-182,337,0,0,0,0,0,0,0,0,0,-1,1042,687,0,0
-175,337,0,0,0,0,0,0,0,0,0,-1,1049,687,0,0
-168,337,0,0,0,0,0,0,0,0,0,-1,1056,687,0,0
-161,337,0,0,0,0,0,0,0,0,0,-1,1063,687,0,0
-154,337,0,0,0,0,0,0,0,0,0,-1,1070,687,0,0
-147,337,0,0,0,0,0,0,0,0,0,-1,1077,687,0,0
-140,337,0,0,0,0,0,0,0,0,0,-1,1084,687,0,0
-133,337,0,0,0,0,0,0,0,0,0,-1,1091,687,0,0
-126,337,0,0,0,0,0,0,0,0,0,-1,1098,687,0,0
-119,337,0,0,0,0,0,0,0,0,0,-1,1105,687,0,0
-112,337,0,0,0,0,0,0,0,0,0,-1,1112,687,0,0
-105,337,0,0,0,0,0,0,0,0,0,-1,1119,687,0,0
-98,337,0,0,0,0,0,0,0,0,0,-1,1126,687,0,0
-91,337,0,0,0,0,0,0,0,0,0,-1,1133,687,0,0
-84,337,0,0,0,0,0,0,0,0,0,-1,1140,687,0,0
-77,337,0,0,0,0,0,0,0,0,0,-1,1147,687,0,0
-70,337,0,0,0,0,0,0,0,0,0,-1,1154,687,0,0
-63,337,0,0,0,0,0,0,0,0,0,-1,1161,687,0,0
-56,337,0,0,0,0,0,0,0,0,0,-1,1168,687,0,0
-49,337,0,0,0,0,0,0,0,0,0,-1,1175,687,0,0
-42,337,0,0,0,0,0,0,0,0,0,-1,1182,687,0,0
-35,337,0,0,0,0,0,0,0,0,0,-1,1189,687,0,0
-28,337,0,0,0,0,0,0,0,0,0,-1,1196,687,0,0
-21,337,0,0,0,0,0,0,0,0,0,-1,1203,687,0,0
-14,337,0,0,0,0,0,0,0,0,0,-1,1210,687,0,0
-7,337,0,0,0,0,0,0,0,0,0,-1,1217,687,0,0
0,337,0,0,0,0,0,0,0,0,0,-1,1224,687,0,0
7,337,0,0,0,0,0,0,0,0,0,-1,1231,687,0,0
14,337,0,0,0,0,0,0,0,0,0,-1,1238,687,0,0
21,337,0,0,0,0,0,0,0,0,0,-1,1245,687,0,0
28,337,0,0,0,0,0,0,0,0,0,-1,1252,687,0,0
35,337,0,0,0,0,0,0,0,0,0,-1,1259,687,0,0
42,337,0,0,0,0,0,0,0,0,0,-1,1266,687,0,0
49,337,0,0,0,0,0,0,0,0,0,-1,1273,687,0,0
56,337,0,0,0,0,0,0,0,0,0,-1,1280,687,0,0
63,337,0,0,0,0,0,0,0,0,0,-1,1287,687,0,0
70,337,0,0,0,0,0,0,0,0,0,-1,1294,687,0,0
77,337,0,0,0,0,0,0,0,0,0,-1,1301,687,0,0
84,337,0,0,0,0,0,0,0,0,0,-1,1308,687,0,0
91,337,0,0,0,0,0,0,0,0,0,-1,1315,687,0,0
98,337,0,0,0,0,0,0,0,0,0,-1,1322,687,0,0
105,337,0,0,0,0,0,0,0,0,0,-1,1329,687,0,0
112,337,0,0,0,0,0,0,0,0,0,-1,1336,687,0,0
119,337,0,0,0,0,0,0,0,0,0,-1,1343,687,0,0
126,337,0,0,0,0,0,0,0,0,0,-1,1350,687,0,0
133,337,0,0,0,0,0,0,0,0,0,-1,1357,687,0,0
140,337,0,0,0,0,0,0,0,0,0,-1,1364,687,0,0
147,337,0,0,0,0,0,0,0,0,0,-1,1371,687,0,0
154,337,0,0,0,0,0,0,0,0,0,-1,1378,687,0,0
161,337,0,0,0,0,0,0,0,0,0,-1,1385,687,0,0
168,337,0,0,0,0,0,0,0,0,0,-1,1392,687,0,0
175,337,0,0,0,0,0,0,0,0,0,-1,1399,687,0,0
182,337,0,0,0,0,0,0,0,0,0,-1,1406,687,0,0
189,337,0,0,0,0,0,0,0,0,0,-1,1413,687,0,0
196,337,0,0,0,0,0,0,0,0,0,-1,1420,687,0,0
203,337,0,0,0,0,0,0,0,0,0,-1,1427,687,0,0
210,337,0,0,0,0,0,0,0,0,0,-1,1434,687,0,0
217,337,0,0,0,0,0,0,0,0,0,-1,1441,687,0,0
224,337,0,0,0,0,0,0,0,0,0,-1,1448,687,0,0
231,337,0,0,0,0,0,0,0,0,0,-1,1455,687,0,0
238,337,0,0,0,0,0,0,0,0,0,-1,1462,687,0,0
245,337,0,0,0,0,0,0,0,0,0,-1,1469,687,0,0
252,337,0,0,0,0,0,0,0,0,0,-1,1476,687,0,0
259,337,0,0,0,0,0,0,0,0,0,-1,1483,687,0,0
266,337,0,0,0,0,0,0,0,0,0,-1,1490,687,0,0
273,337,0,0,0,0,0,0,0,0,0,-1,1497,687,0,0
280,337,0,0,0,0,0,0,0,0,0,-1,1504,687,0,0
287,337,0,0,0,0,0,0,0,0,0,-1,1511,687,0,0
294,337,0,0,0,0,0,0,0,0,0,-1,1518,687,0,0
301,337,0,0,0,0,0,0,0,0,0,-1,1525,687,0,0
308,337,0,0,0,0,0,0,0,0,0,-1,1532,687,0,0
315,337,0,0,0,0,0,0,0,0,0,-1,1539,687,0,0
322,337,0,0,0,0,0,0,0,0,0,-1,1546,687,0,0
329,337,0,0,0,0,0,0,0,0,0,-1,1553,687,0,0
336,337,0,0,0,0,0,0,0,0,0,-1,1560,687,0,0
343,337,0,0,0,0,0,0,0,0,0,-1,1567,687,0,0
350,337,0,0,0,0,0,0,0,0,0,-1,1574,687,0,0
357,337,0,0,0,0,0,0,0,0,0,-1,1581,687,0,0
364,337,0,0,0,0,0,0,0,0,0,-1,1588,687,0,0
371,337,0,0,0,0,0,0,0,0,0,-1,1595,687,0,0
378,337,0,0,0,0,0,0,0,0,0,-1,1602,687,0,0
385,337,0,0,0,0,0,0,0,0,0,-1,1609,687,0,0
392,337,0,0,0,0,0,0,0,0,0,-1,1616,687,0,0
399,337,0,0,0,0,0,0,0,0,0,-1,1623,687,0,0
406,337,0,0,0,0,0,0,0,0,0,-1,1630,687,0,0
413,337,0,0,0,0,0,0,0,0,0,-1,1637,687,0,0
420,337,0,0,0,0,0,0,0,0,0,-1,1644,687,0,0
427,337,0,0,0,0,0,0,0,0,0,-1,1651,687,0,0
434,337,0,0,0,0,0,0,0,0,0,-1,1658,687,0,0
441,337,0,0,0,0,0,0,0,0,0,-1,1665,687,0,0
448,337,0,0,0,0,0,0,0,0,0,-1,1672,687,0,0
455,337,0,0,0,0,0,0,0,0,0,-1,1679,687,0,0
462,337,0,0,0,0,0,0,0,0,0,-1,1686,687,0,0
469,337,0,0,0,0,0,0,0,0,0,-1,1693,687,0,0
476,337,0,0,0,0,0,0,0,0,0,-1,1700,687,0,0
483,337,0,0,0,0,0,0,0,0,0,-1,1707,687,0,0
490,337,0,0,0,0,0,0,0,0,0,-1,1714,687,0,0
497,337,0,0,0,0,0,0,0,0,0,-1,1721,687,0,0
504,337,0,0,0,0,0,0,0,0,0,-1,1728,687,0,0
511,337,0,0,0,0,0,0,0,0,0,-1,1735,687,0,0
518,337,18.0369,1.64581,0,0,0,0,0,0,0,-1,1742,687,18.0368,-1.64581
525,337,31.0717,2.13745,0,0,0,0,0,0,0,-1,1749,687,31.0717,-2.13747
532,337,31.5126,2.13904,0,0,0,0,0,0,0,-1,1756,687,31.5125,-2.13905
539,337,31.9684,2.15594,0,0,0,0,0,0,0,-1,1763,687,31.9684,-2.15596
546,337,32.3584,1.43719,0,0,0,0,0,0,0,-1,1770,687,32.3585,-1.43722
553,337,32.1809,1.36395,0,0,0,0,0,0,0,-1,1777,687,32.181,-1.36396
560,337,18.4053,3.62793,0,0,0,0,0,0,0,-1,1784,687,18.4052,-3.6279
567,337,11.9288,1.38776,0,0,0,0,0,0,0,-1,1791,687,11.9288,-1.38777
574,337,10.704,1.19476,0,0,0,0,0,0,0,-1,1798,687,10.704,-1.19478
581,337,8.50427,0.561768,0,0,0,0,0,0,0,-1,1805,687,8.5043,-0.561754
588,337,8.5885,-0.0536499,0,0,0,0,0,0,0,-1,1812,687,8.58844,0.0536788
595,337,13.8816,-1.70703,0,0,0,0,0,0,0,-1,1819,687,13.8816,1.70702
602,337,25.1042,-5.74988,0,0,0,0,0,0,0,-1,1826,687,25.1043,5.74989
609,337,25.1219,-5.08893,0.0016079,0.000411838,-6.44887e-05,0.00161137,0.000408371,-0.0537098,0.000967297,0.0263562,1833,687,25.122,5.08893
616,337,25.1143,-4.55682,0.00154634,0.000536075,0.000246128,0.00160311,0.000479302,0.2267,0.000950162,0.0172213,1840,687,25.1142,4.55681
623,337,25.1442,-4.00403,0.00106136,0.000535681,0.000201492,0.00112971,0.000467336,0.32702,0.000655468,0.0154545,1847,687,25.1441,4.00404
630,337,25.1051,-3.40076,0.000411419,0.000477984,9.05078e-05,0.000541135,0.000348268,0.96159,0.00031669,0.0196484,1854,687,25.1051,3.40075
637,337,25.0564,-2.82605,-0.000601679,0.000353494,-0.000230706,0.000406298,-0.000654483,-1.34579,0.000618004,0.0171515,1861,687,25.0564,2.82604
644,337,25.0247,-2.2359,-0.00192985,0.000136996,-0.000704079,0.000354049,-0.00214691,-1.27176,0.00156271,0.0114876,1868,687,25.0247,2.23588
651,337,24.9963,-1.65839,-0.00368048,-8.85897e-05,-0.00134116,0.000356923,-0.004126,-1.25008,0.00287703,0.0108375,1875,687,24.9964,1.65838
658,337,24.9973,-1.08466,-0.005942,-0.000443961,-0.00222088,0.000341058,-0.00672702,-1.23103,0.00460258,0.0128998,1882,687,24.9974,1.08467
665,337,24.994,-0.515503,-0.00881137,-0.000883786,-0.00335431,0.000345016,-0.0100402,-1.21964,0.00681137,0.0167773,1889,687,24.9941,0.515495
672,337,24.9525,0.000610352,-0.0125587,-0.00155731,-0.00488583,0.00029924,-0.0144152,-1.20766,0.00971145,0.0326315,1896,687,24.9525,-0.000604183
679,337,25.223,0.474182,0,0,0,0,0,0,0,-1,1903,687,25.2231,-0.474198
686,337,18.5614,1.68597,0,0,0,0,0,0,0,-1,1910,687,18.5614,-1.68598
693,337,16.5415,2.21411,0,0,0,0,0,0,0,-1,1917,687,16.5415,-2.2141
700,337,17.2661,2.44379,0,0,0,0,0,0,0,-1,1924,687,17.2661,-2.44378
707,337,17.3544,5.61853,0,0,0,0,0,0,0,-1,1931,687,17.3543,-5.61851
714,337,0,0,0,0,0,0,0,0,0,-1,1938,687,0,0
721,337,0,0,0,0,0,0,0,0,0,-1,1945,687,0,0
728,337,0,0,0,0,0,0,0,0,0,-1,1952,687,0,0
735,337,0,0,0,0,0,0,0,0,0,-1,1959,687,0,0
742,337,0,0,0,0,0,0,0,0,0,-1,1966,687,0,0
749,337,0,0,0,0,0,0,0,0,0,-1,1973,687,0,0
756,337,0,0,0,0,0,0,0,0,0,-1,1980,687,0,0
763,337,0,0,0,0,0,0,0,0,0,-1,1987,687,0,0
770,337,0,0,0,0,0,0,0,0,0,-1,1994,687,0,0
777,337,0,0,0,0,0,0,0,0,0,-1,2001,687,0,0
784,337,0,0,0,0,0,0,0,0,0,-1,2008,687,0,0
791,337,0,0,0,0,0,0,0,0,0,-1,2015,687,0,0
798,337,0,0,0,0,0,0,0,0,0,-1,2022,687,0,0
805,337,0,0,0,0,0,0,0,0,0,-1,2029,687,0,0
812,337,0,0,0,0,0,0,0,0,0,-1,2036,687,0,0
-700,330,0,0,0,0,0,0,0,0,0,-1,524,694,0,0
-693,330,0,0,0,0,0,0,0,0,0,-1,531,694,0,0
-686,330,0,0,0,0,0,0,0,0,0,-1,538,694,0,0
-679,330,0,0,0,0,0,0,0,0,0,-1,545,694,0,0
-672,330,0,0,0,0,0,0,0,0,0,-1,552,694,0,0
-665,330,0,0,0,0,0,0,0,0,0,-1,559,694,0,0
-658,330,0,0,0,0,0,0,0,0,0,-1,566,694,0,0
-651,330,0,0,0,0,0,0,0,0,0,-1,573,694,0,0
-644,330,0,0,0,0,0,0,0,0,0,-1,580,694,0,0
-637,330,0,0,0,0,0,0,0,0,0,-1,587,694,0,0
-630,330,0,0,0,0,0,0,0,0,0,-1,594,694,0,0
-623,330,0,0,0,0,0,0,0,0,0,-1,601,694,0,0
-616,330,0,0,0,0,0,0,0,0,0,-1,608,694,0,0
-609,330,0,0,0,0,0,0,0,0,0,-1,615,694,0,0
-602,330,0,0,0,0,0,0,0,0,0,-1,622,694,0,0
-595,330,-4.67883,1.65515,0,0,0,0,0,0,0,-1,629,694,-4.67881,-1.65515
-588,330,-8.5047,2.67346,0,0,0,0,0,0,0,-1,636,694,-8.50469,-2.67348
-581,330,-12.4227,0.947083,0,0,0,0,0,0,0,-1,643,694,-12.4227,-0.947109
-574,330,-9.02118,1.87952,0,0,0,0,0,0,0,-1,650,694,-9.02115,-1.87953
-567,330,-8.35577,0.909973,0,0,0,0,0,0,0,-1,657,694,-8.35575,-0.909945
-560,330,-13.1036,-0.584656,0,0,0,0,0,0,0,-1,664,694,-13.1035,0.584658
-553,330,-15.156,-0.831909,0,0,0,0,0,0,0,-1,671,694,-15.156,0.831909
-546,330,-15.0923,-1.60706,0,0,0,0,0,0,0,-1,678,694,-15.0924,1.60703
-539,330,-15.307,-2.24243,0,0,0,0,0,0,0,-1,685,694,-15.307,2.24245
-532,330,-15.2729,-2.88171,0.00498445,0.00807537,-0.00532082,0.0120706,0.000989191,-0.926737,0.00773846,0.0151239,692,694,-15.2729,2.8817
-525,330,-15.2562,-3.49158,0.00383747,0.00552429,-0.00356439,0.00834369,0.00101806,-0.901572,0.00525607,0.0101556,699,694,-15.2562,3.49155
-518,330,-15.2552,-4.0188,0.00295801,0.00350217,-0.00216302,0.00541015,0.00105003,-0.847962,0.0033127,0.0142124,706,694,-15.2552,4.01882
-511,330,-15.2988,-4.57745,0.00233051,0.00193197,-0.00109906,0.00324822,0.00101427,-0.695719,0.00191892,0.0205059,713,694,-15.2988,4.57745
-504,330,-15.3046,-5.17029,0.00180506,0.000714296,-0.000377168,0.00192277,0.000596581,-0.302523,0.00113644,0.0196294,720,694,-15.3046,5.1703
-497,330,-15.2949,-5.68036,0.00132042,-0.000206888,-0.000134467,0.00133216,-0.000218636,-0.0871489,0.000969244,0.0144692,727,694,-15.2949,5.68036
-490,330,-15.2822,-6.23669,0.000943005,-0.00207671,-0.00113026,0.00131919,-0.00245289,-0.321299,0.00221036,0.0141269,734,694,-15.2822,6.23671
-483,330,-15.2966,-6.82733,0.000447511,-0.00352581,-0.00355776,0.00253571,-0.00561401,-0.530763,0.00481583,0.013382,741,694,-15.2966,6.82731
-476,330,-15.3315,-7.4118,0,0,0,0,0,0,0,-1,748,694,-15.3316,7.41182
-469,330,-14.9962,-8.27765,0,0,0,0,0,0,0,-1,755,694,-14.9962,8.27767
-462,330,-7.26733,-3.84833,0,0,0,0,0,0,0,-1,762,694,-7.26731,3.84832
-455,330,-5.04254,-1.79303,0,0,0,0,0,0,0,-1,769,694,-5.04252,1.79305
-448,330,-4.89886,-1.66156,0,0,0,0,0,0,0,-1,776,694,-4.89886,1.66157
-441,330,-5.30676,-2.34045,0,0,0,0,0,0,0,-1,783,694,-5.30679,2.34048
-434,330,-7.20428,1.00024,0,0,0,0,0,0,0,-1,790,694,-7.20431,-1.00027
-427,330,-16.0428,2.89258,0,0,0,0,0,0,0,-1,797,694,-16.0428,-2.89259
-420,330,-29.0331,0.271606,0,0,0,0,0,0,0,-1,804,694,-29.0331,-0.27158
-413,330,-29.0896,0.56366,0,0,0,0,0,0,0,-1,811,694,-29.0896,-0.563671
-406,330,-1.65375,-1.74371,0,0,0,0,0,0,0,-1,818,694,-1.65375,1.74371
-399,330,0,0,0,0,0,0,0,0,0,-1,825,694,0,0
-392,330,0,0,0,0,0,0,0,0,0,-1,832,694,0,0
-385,330,0,0,0,0,0,0,0,0,0,-1,839,694,0,0
-378,330,0,0,0,0,0,0,0,0,0,-1,846,694,0,0
-371,330,0,0,0,0,0,0,0,0,0,-1,853,694,0,0
-364,330,0,0,0,0,0,0,0,0,0,-1,860,694,0,0
-357,330,0,0,0,0,0,0,0,0,0,-1,867,694,0,0
-350,330,0,0,0,0,0,0,0,0,0,-1,874,694,0,0
-343,330,0,0,0,0,0,0,0,0,0,-1,881,694,0,0
-336,330,0,0,0,0,0,0,0,0,0,-1,888,694,0,0
-329,330,0,0,0,0,0,0,0,0,0,-1,895,694,0,0
-322,330,0,0,0,0,0,0,0,0,0,-1,902,694,0,0
-315,330,0,0,0,0,0,0,0,0,0,-1,909,694,0,0
-308,330,0,0,0,0,0,0,0,0,0,-1,916,694,0,0
-301,330,0,0,0,0,0,0,0,0,0,-1,923,694,0,0
-294,330,0,0,0,0,0,0,0,0,0,-1,930,694,0,0
-287,330,0,0,0,0,0,0,0,0,0,-1,937,694,0,0
-280,330,0,0,0,0,0,0,0,0,0,-1,944,694,0,0
-273,330,0,0,0,0,0,0,0,0,0,-1,951,694,0,0
-266,330,0,0,0,0,0,0,0,0,0,-1,958,694,0,0
-259,330,0,0,0,0,0,0,0,0,0,-1,965,694,0,0
-252,330,0,0,0,0,0,0,0,0,0,-1,972,694,0,0
-245,330,0,0,0,0,0,0,0,0,0,-1,979,694,0,0
-238,330,0,0,0,0,0,0,0,0,0,-1,986,694,0,0
-231,330,0,0,0,0,0,0,0,0,0,-1,993,694,0,0
-224,330,0,0,0,0,0,0,0,0,0,-1,1000,694,0,0
-217,330,0,0,0,0,0,0,0,0,0,-1,1007,694,0,0
-210,330,0,0,0,0,0,0,0,0,0,-1,1014,694,0,0
-203,330,0,0,0,0,0,0,0,0,0,-1,1021,694,0,0
-196,330,0,0,0,0,0,0,0,0,0,-1,1028,694,0,0
-189,330,0,0,0,0,0,0,0,0,0,-1,1035,694,0,0
-182,330,0,0,0,0,0,0,0,0,0,-1,1042,694,0,0
-175,330,0,0,0,0,0,0,0,0,0,-1,1049,694,0,0
-168,330,0,0,0,0,0,0,0,0,0,-1,1056,694,0,0
-161,330,0,0,0,0,0,0,0,0,0,-1,1063,694,0,0
-154,330,0,0,0,0,0,0,0,0,0,-1,1070,694,0,0
-147,330,0,0,0,0,0,0,0,0,0,-1,1077,694,0,0
-140,330,0,0,0,0,0,0,0,0,0,-1,1084,694,0,0
-133,330,0,0,0,0,0,0,0,0,0,-1,1091,694,0,0
-126,330,0,0,0,0,0,0,0,0,0,-1,1098,694,0,0
-119,330,0,0,0,0,0,0,0,0,0,-1,1105,694,0,0
-112,330,0,0,0,0,0,0,0,0,0,-1,1112,694,0,0
-105,330,0,0,0,0,0,0,0,0,0,-1,1119,694,0,0
-98,330,0,0,0,0,0,0,0,0,0,-1,1126,694,0,0
-91,330,0,0,0,0,0,0,0,0,0,-1,1133,694,0,0
-84,330,0,0,0,0,0,0,0,0,0,-1,1140,694,0,0
-77,330,0,0,0,0,0,0,0,0,0,-1,1147,694,0,0
-70,330,0,0,0,0,0,0,0,0,0,-1,1154,694,0,0
-63,330,0,0,0,0,0,0,0,0,0,-1,1161,694,0,0
-56,330,0,0,0,0,0,0,0,0,0,-1,1168,694,0,0
-49,330,0,0,0,0,0,0,0,0,0,-1,1175,694,0,0
-42,330,0,0,0,0,0,0,0,0,0,-1,1182,694,0,0
-35,330,0,0,0,0,0,0,0,0,0,-1,1189,694,0,0
-28,330,0,0,0,0,0,0,0,0,0,-1,1196,694,0,0
-21,330,0,0,0,0,0,0,0,0,0,-1,1203,694,0,0
-14,330,0,0,0,0,0,0,0,0,0,-1,1210,694,0,0
-7,330,0,0,0,0,0,0,0,0,0,-1,1217,694,0,0
0,330,0,0,0,0,0,0,0,0,0,-1,1224,694,0,0
7,330,0,0,0,0,0,0,0,0,0,-1,1231,694,0,0
14,330,0,0,0,0,0,0,0,0,0,-1,1238,694,0,0
21,330,0,0,0,0,0,0,0,0,0,-1,1245,694,0,0
28,330,0,0,0,0,0,0,0,0,0,-1,1252,694,0,0
35,330,0,0,0,0,0,0,0,0,0,-1,1259,694,0,0
42,330,0,0,0,0,0,0,0,0,0,-1,1266,694,0,0
49,330,0,0,0,0,0,0,0,0,0,-1,1273,694,0,0
56,330,0,0,0,0,0,0,0,0,0,-1,1280,694,0,0
63,330,0,0,0,0,0,0,0,0,0,-1,1287,694,0,0
70,330,0,0,0,0,0,0,0,0,0,-1,1294,694,0,0
77,330,0,0,0,0,0,0,0,0,0,-1,1301,694,0,0
84,330,0,0,0,0,0,0,0,0,0,-1,1308,694,0,0
91,330,0,0,0,0,0,0,0,0,0,-1,1315,694,0,0
98,330,0,0,0,0,0,0,0,0,0,-1,1322,694,0,0
105,330,0,0,0,0,0,0,0,0,0,-1,1329,694,0,0
112,330,0,0,0,0,0,0,0,0,0,-1,1336,694,0,0
119,330,0,0,0,0,0,0,0,0,0,-1,1343,694,0,0
126,330,0,0,0,0,0,0,0,0,0,-1,1350,694,0,0
133,330,0,0,0,0,0,0,0,0,0,-1,1357,694,0,0
140,330,0,0,0,0,0,0,0,0,0,-1,1364,694,0,0
147,330,0,0,0,0,0,0,0,0,0,-1,1371,694,0,0
154,330,0,0,0,0,0,0,0,0,0,-1,1378,694,0,0
161,330,0,0,0,0,0,0,0,0,0,-1,1385,694,0,0
168,330,0,0,0,0,0,0,0,0,0,-1,1392,694,0,0
175,330,0,0,0,0,0,0,0,0,0,-1,1399,694,0,0
182,330,0,0,0,0,0,0,0,0,0,-1,1406,694,0,0
189,330,0,0,0,0,0,0,0,0,0,-1,1413,694,0,0
196,330,0,0,0,0,0,0,0,0,0,-1,1420,694,0,0
203,330,0,0,0,0,0,0,0,0,0,-1,1427,694,0,0
210,330,0,0,0,0,0,0,0,0,0,-1,1434,694,0,0
217,330,0,0,0,0,0,0,0,0,0,-1,1441,694,0,0
224,330,0,0,0,0,0,0,0,0,0,-1,1448,694,0,0
231,330,0,0,0,0,0,0,0,0,0,-1,1455,694,0,0
238,330,0,0,0,0,0,0,0,0,0,-1,1462,694,0,0
245,330,0,0,0,0,0,0,0,0,0,-1,1469,694,0,0
252,330,0,0,0,0,0,0,0,0,0,-1,1476,694,0,0
259,330,0,0,0,0,0,0,0,0,0,-1,1483,694,0,0
266,330,0,0,0,0,0,0,0,0,0,-1,1490,694,0,0
273,330,0,0,0,0,0,0,0,0,0,-1,1497,694,0,0
280,330,0,0,0,0,0,0,0,0,0,-1,1504,694,0,0
287,330,0,0,0,0,0,0,0,0,0,-1,1511,694,0,0
294,330,0,0,0,0,0,0,0,0,0,-1,1518,694,0,0
301,330,0,0,0,0,0,0,0,0,0,-1,1525,694,0,0
308,330,0,0,0,0,0,0,0,0,0,-1,1532,694,0,0
315,330,0,0,0,0,0,0,0,0,0,-1,1539,694,0,0
322,330,0,0,0,0,0,0,0,0,0,-1,1546,694,0,0
329,330,0,0,0,0,0,0,0,0,0,-1,1553,694,0,0
336,330,0,0,0,0,0,0,0,0,0,-1,1560,694,0,0
343,330,0,0,0,0,0,0,0,0,0,-1,1567,694,0,0
350,330,0,0,0,0,0,0,0,0,0,-1,1574,694,0,0
357,330,0,0,0,0,0,0,0,0,0,-1,1581,694,0,0
364,330,0,0,0,0,0,0,0,0,0,-1,1588,694,0,0
371,330,0,0,0,0,0,0,0,0,0,-1,1595,694,0,0
378,330,0,0,0,0,0,0,0,0,0,-1,1602,694,0,0
385,330,0,0,0,0,0,0,0,0,0,-1,1609,694,0,0
392,330,0,0,0,0,0,0,0,0,0,-1,1616,694,0,0
399,330,0,0,0,0,0,0,0,0,0,-1,1623,694,0,0
406,330,0,0,0,0,0,0,0,0,0,-1,1630,694,0,0
413,330,0,0,0,0,0,0,0,0,0,-1,1637,694,0,0
420,330,0,0,0,0,0,0,0,0,0,-1,1644,694,0,0
427,330,0,0,0,0,0,0,0,0,0,-1,1651,694,0,0
434,330,0,0,0,0,0,0,0,0,0,-1,1658,694,0,0
441,330,0,0,0,0,0,0,0,0,0,-1,1665,694,0,0
448,330,0,0,0,0,0,0,0,0,0,-1,1672,694,0,0
455,330,0,0,0,0,0,0,0,0,0,-1,1679,694,0,0
462,330,0,0,0,0,0,0,0,0,0,-1,1686,694,0,0
469,330,0,0,0,0,0,0,0,0,0,-1,1693,694,0,0
476,330,0,0,0,0,0,0,0,0,0,-1,1700,694,0,0
483,330,0,0,0,0,0,0,0,0,0,-1,1707,694,0,0
490,330,0,0,0,0,0,0,0,0,0,-1,1714,694,0,0
497,330,0,0,0,0,0,0,0,0,0,-1,1721,694,0,0
504,330,0,0,0,0,0,0,0,0,0,-1,1728,694,0,0
511,330,0,0,0,0,0,0,0,0,0,-1,1735,694,0,0
518,330,0,0,0,0,0,0,0,0,0,-1,1742,694,0,0
525,330,30.6694,0.69519,0,0,0,0,0,0,0,-1,1749,694,30.6694,-0.695206
532,330,30.9469,1.32501,0,0,0,0,0,0,0,-1,1756,694,30.9469,-1.32501
539,330,31.5155,1.62506,0,0,0,0,0,0,0,-1,1763,694,31.5155,-1.62507
546,330,31.4187,1.85651,0,0,0,0,0,0,0,-1,1770,694,31.4187,-1.85651
553,330,31.8452,1.81476,0,0,0,0,0,0,0,-1,1777,694,31.8452,-1.81475
560,330,32.2401,2.43225,0,0,0,0,0,0,0,-1,1784,694,32.2401,-2.43227
567,330,18.0321,3.98578,0,0,0,0,0,0,0,-1,1791,694,18.0321,-3.98576
574,330,12.0454,2.1662,0,0,0,0,0,0,0,-1,1798,694,12.0455,-2.16618
581,330,11.4215,4.50836,0,0,0,0,0,0,0,-1,1805,694,11.4215,-4.50837
588,330,6.45667,-0.0630493,0,0,0,0,0,0,0,-1,1812,694,6.45661,0.0630695
595,330,8.23193,-0.258484,0,0,0,0,0,0,0,-1,1819,694,8.23188,0.258459
602,330,25.4513,-5.98596,0,0,0,0,0,0,0,-1,1826,694,25.4513,5.98594
609,330,25.6162,-5.18005,0.00189184,0.000359901,-2.26818e-05,0.00189218,0.000359565,-0.0148016,0.00116032,0.0411714,1833,694,25.6162,5.18005
616,330,25.6819,-4.53125,0.00182778,0.000417725,0.000310809,0.00189325,0.000352255,0.207608,0.00116267,0.0110813,1840,694,25.6818,4.53124
623,330,25.6721,-3.96198,0.00131745,0.00036671,0.000217171,0.00136471,0.000319452,0.214266,0.000824223,0.0128986,1847,694,25.6721,3.962
630,330,25.6559,-3.37781,0.000700228,0.000302374,9.49254e-05,0.000721716,0.000280886,0.222615,0.00042008,0.0140196,1854,694,25.6559,3.37783
637,330,25.6431,-2.81042,-0.000288519,0.000205744,-0.000207713,0.000281442,-0.000364217,-1.22132,0.000373791,0.0135931,1861,694,25.6431,2.81042
644,330,25.603,-2.22614,-0.00154582,5.36127e-05,-0.000622831,0.000267535,-0.00175974,-1.23995,0.00127176,0.00872988,1868,694,25.603,2.22611
651,330,25.5807,-1.63702,-0.00314137,-5.29595e-05,-0.00114473,0.000325068,-0.0035194,-1.25184,0.00246179,0.011809,1875,694,25.5807,1.63701
658,330,25.5509,-1.06183,-0.00512729,-0.000242943,-0.00182748,0.000365112,-0.00573535,-1.24959,0.0039509,0.0126691,1882,694,25.5509,1.06183
665,330,25.528,-0.488159,-0.00758517,-0.000472099,-0.00269441,0.000433292,-0.00849056,-1.24662,0.00581019,0.0119474,1889,694,25.528,0.488147
672,330,25.5579,0.103088,-0.0106803,-0.000793138,-0.00379506,0.000495579,-0.011969,-1.24344,0.00814954,0.0252962,1896,694,25.5578,-0.103107
679,330,25.1901,0.608215,-0.0147927,-0.00130444,-0.00521426,0.000476209,-0.0165733,-1.24172,0.011211,0.0411869,1903,694,25.1901,-0.608204
686,330,24.8857,1.25934,0,0,0,0,0,0,0,-1,1910,694,24.8857,-1.25933
693,330,17.3999,2.5976,0,0,0,0,0,0,0,-1,1917,694,17.4,-2.59759
700,330,17.1072,4.13,0,0,0,0,0,0,0,-1,1924,694,17.1071,-4.13002
707,330,16.663,4.88672,0,0,0,0,0,0,0,-1,1931,694,16.6629,-4.88673
714,330,16.5454,5.80896,0,0,0,0,0,0,0,-1,1938,694,16.5454,-5.80899
721,330,0,0,0,0,0,0,0,0,0,-1,1945,694,0,0
728,330,0,0,0,0,0,0,0,0,0,-1,1952,694,0,0
735,330,0,0,0,0,0,0,0,0,0,-1,1959,694,0,0
742,330,0,0,0,0,0,0,0,0,0,-1,1966,694,0,0
749,330,0,0,0,0,0,0,0,0,0,-1,1973,694,0,0
756,330,0,0,0,0,0,0,0,0,0,-1,1980,694,0,0
763,330,0,0,0,0,0,0,0,0,0,-1,1987,694,0,0
770,330,0,0,0,0,0,0,0,0,0,-1,1994,694,0,0
777,330,0,0,0,0,0,0,0,0,0,-1,2001,694,0,0
784,330,0,0,0,0,0,0,0,0,0,-1,2008,694,0,0
791,330,0,0,0,0,0,0,0,0,0,-1,2015,694,0,0
798,330,0,0,0,0,0,0,0,0,0,-1,2022,694,0,0
805,330,0,0,0,0,0,0,0,0,0,-1,2029,694,0,0
812,330,0,0,0,0,0,0,0,0,0,-1,2036,694,0,0
-700,323,0,0,0,0,0,0,0,0,0,-1,524,701,0,0
-693,323,0,0,0,0,0,0,0,0,0,-1,531,701,0,0
-686,323,0,0,0,0,0,0,0,0,0,-1,538,701,0,0
-679,323,0,0,0,0,0,0,0,0,0,-1,545,701,0,0
-672,323,0,0,0,0,0,0,0,0,0,-1,552,701,0,0
-665,323,0,0,0,0,0,0,0,0,0,-1,559,701,0,0
-658,323,0,0,0,0,0,0,0,0,0,-1,566,701,0,0
-651,323,0,0,0,0,0,0,0,0,0,-1,573,701,0,0
-644,323,0,0,0,0,0,0,0,0,0,-1,580,701,0,0
-637,323,0,0,0,0,0,0,0,0,0,-1,587,701,0,0
-630,323,0,0,0,0,0,0,0,0,0,-1,594,701,0,0
-623,323,0,0,0,0,0,0,0,0,0,-1,601,701,0,0
-616,323,0,0,0,0,0,0,0,0,0,-1,608,701,0,0
-609,323,0,0,0,0,0,0,0,0,0,-1,615,701,0,0
-602,323,-4.15833,2.12256,0,0,0,0,0,0,0,-1,622,701,-4.1583,-2.12257
-595,323,-4.052,1.79156,0,0,0,0,0,0,0,-1,629,701,-4.05198,-1.79158
-588,323,-4.07019,1.94543,0,0,0,0,0,0,0,-1,636,701,-4.07019,-1.94542
-581,323,-6.63727,0.562805,0,0,0,0,0,0,0,-1,643,701,-6.63728,-0.56279
-574,323,-6.15887,0.426697,0,0,0,0,0,0,0,-1,650,701,-6.15887,-0.426727
-567,323,-10.0015,0.0371094,0,0,0,0,0,0,0,-1,657,701,-10.0015,-0.037126
-560,323,-15.6854,-1.24249,0,0,0,0,0,0,0,-1,664,701,-15.6854,1.24249
-553,323,-15.7708,-1.37646,0,0,0,0,0,0,0,-1,671,701,-15.7707,1.37648
-546,323,-15.7397,-1.82471,0.00528004,0.0106777,-0.00699716,0.0154785,0.000479282,-0.96946,0.010163,0.0226677,678,701,-15.7397,1.8247
-539,323,-15.7161,-2.29547,0.00435484,0.00801095,-0.00517643,0.0116726,0.000693149,-0.955137,0.0075613,0.0193462,685,701,-15.7161,2.29548
-532,323,-15.7676,-2.87921,0.00356606,0.00577821,-0.00369726,0.0085313,0.000812972,-0.930741,0.00543684,0.0109642,692,701,-15.7676,2.87922
-525,323,-15.8042,-3.45563,0.00289289,0.0038606,-0.00242792,0.00585241,0.00090108,-0.883753,0.00363863,0.00750982,699,701,-15.8042,3.45563
-518,323,-15.7839,-3.97192,0.0023521,0.00229853,-0.00138224,0.00370781,0.000942821,-0.775711,0.00222521,0.00992845,706,701,-15.7839,3.9719
-511,323,-15.8263,-4.52832,0.00194204,0.00103843,-0.000559765,0.00220959,0.000770887,-0.445862,0.00129498,0.0141853,713,701,-15.8263,4.52833
-504,323,-15.8633,-5.0943,0.00133647,-6.36864e-05,-0.000118407,0.00134641,-7.36292e-05,-0.0837745,0.00092313,0.0149163,720,701,-15.8633,5.09429
-497,323,-15.8488,-5.63934,0.000431014,-0.00119616,-0.000321779,0.000492336,-0.00125748,-0.188314,0.00104195,0.0122292,727,701,-15.8488,5.63933
-490,323,-15.8643,-6.19751,-0.000340455,-0.00389868,-0.00216387,0.000681787,-0.00492092,-0.441336,0.00352989,0.0136262,734,701,-15.8643,6.19749
-483,323,-15.8727,-6.74396,-0.00139955,-0.00596159,-0.00560541,0.00237118,-0.00973232,-0.592164,0.00740623,0.0273205,741,701,-15.8727,6.74395
-476,323,-15.8369,-7.31915,0,0,0,0,0,0,0,-1,748,701,-15.8369,7.31912
-469,323,-8.33301,-3.64001,0,0,0,0,0,0,0,-1,755,701,-8.33298,3.64
-462,323,-5.29431,-1.45697,0,0,0,0,0,0,0,-1,762,701,-5.29431,1.45699
-455,323,-5.0658,-1.36639,0,0,0,0,0,0,0,-1,769,701,-5.06578,1.3664
-448,323,-4.91608,-1.59601,0,0,0,0,0,0,0,-1,776,701,-4.91606,1.59604
-441,323,-14.4006,0.535217,0,0,0,0,0,0,0,-1,783,701,-14.4006,-0.535203
-434,323,-15.3158,2.479,0,0,0,0,0,0,0,-1,790,701,-15.3158,-2.47898
-427,323,-28.3923,1.16797,0,0,0,0,0,0,0,-1,797,701,-28.3923,-1.16796
-420,323,-28.7292,1.09302,0,0,0,0,0,0,0,-1,804,701,-28.7292,-1.09304
-413,323,-28.7955,1.22418,0,0,0,0,0,0,0,-1,811,701,-28.7956,-1.22419
-406,323,0,0,0,0,0,0,0,0,0,-1,818,701,0,0
-399,323,0,0,0,0,0,0,0,0,0,-1,825,701,0,0
-392,323,0,0,0,0,0,0,0,0,0,-1,832,701,0,0
-385,323,0,0,0,0,0,0,0,0,0,-1,839,701,0,0
-378,323,0,0,0,0,0,0,0,0,0,-1,846,701,0,0
-371,323,0,0,0,0,0,0,0,0,0,-1,853,701,0,0
-364,323,0,0,0,0,0,0,0,0,0,-1,860,701,0,0
-357,323,0,0,0,0,0,0,0,0,0,-1,867,701,0,0
-350,323,0,0,0,0,0,0,0,0,0,-1,874,701,0,0
-343,323,0,0,0,0,0,0,0,0,0,-1,881,701,0,0
-336,323,0,0,0,0,0,0,0,0,0,-1,888,701,0,0
-329,323,0,0,0,0,0,0,0,0,0,-1,895,701,0,0
-322,323,0,0,0,0,0,0,0,0,0,-1,902,701,0,0
-315,323,0,0,0,0,0,0,0,0,0,-1,909,701,0,0
-308,323,0,0,0,0,0,0,0,0,0,-1,916,701,0,0
-301,323,0,0,0,0,0,0,0,0,0,-1,923,701,0,0
-294,323,0,0,0,0,0,0,0,0,0,-1,930,701,0,0
-287,323,0,0,0,0,0,0,0,0,0,-1,937,701,0,0
-280,323,0,0,0,0,0,0,0,0,0,-1,944,701,0,0
-273,323,0,0,0,0,0,0,0,0,0,-1,951,701,0,0
-266,323,0,0,0,0,0,0,0,0,0,-1,958,701,0,0
-259,323,0,0,0,0,0,0,0,0,0,-1,965,701,0,0
-252,323,0,0,0,0,0,0,0,0,0,-1,972,701,0,0
-245,323,0,0,0,0,0,0,0,0,0,-1,979,701,0,0
-238,323,0,0,0,0,0,0,0,0,0,-1,986,701,0,0
-231,323,0,0,0,0,0,0,0,0,0,-1,993,701,0,0
-224,323,0,0,0,0,0,0,0,0,0,-1,1000,701,0,0
-217,323,0,0,0,0,0,0,0,0,0,-1,1007,701,0,0
-210,323,0,0,0,0,0,0,0,0,0,-1,1014,701,0,0
-203,323,0,0,0,0,0,0,0,0,0,-1,1021,701,0,0
-196,323,0,0,0,0,0,0,0,0,0,-1,1028,701,0,0
-189,323,0,0,0,0,0,0,0,0,0,-1,1035,701,0,0
-182,323,0,0,0,0,0,0,0,0,0,-1,1042,701,0,0
-175,323,0,0,0,0,0,0,0,0,0,-1,1049,701,0,0
-168,323,0,0,0,0,0,0,0,0,0,-1,1056,701,0,0
-161,323,0,0,0,0,0,0,0,0,0,-1,1063,701,0,0
-154,323,0,0,0,0,0,0,0,0,0,-1,1070,701,0,0
-147,323,0,0,0,0,0,0,0,0,0,-1,1077,701,0,0
-140,323,0,0,0,0,0,0,0,0,0,-1,1084,701,0,0
-133,323,0,0,0,0,0,0,0,0,0,-1,1091,701,0,0
-126,323,0,0,0,0,0,0,0,0,0,-1,1098,701,0,0
-119,323,0,0,0,0,0,0,0,0,0,-1,1105,701,0,0
-112,323,0,0,0,0,0,0,0,0,0,-1,1112,701,0,0
-105,323,0,0,0,0,0,0,0,0,0,-1,1119,701,0,0
-98,323,0,0,0,0,0,0,0,0,0,-1,1126,701,0,0
-91,323,0,0,0,0,0,0,0,0,0,-1,1133,701,0,0
-84,323,0,0,0,0,0,0,0,0,0,-1,1140,701,0,0
-77,323,0,0,0,0,0,0,0,0,0,-1,1147,701,0,0
-70,323,0,0,0,0,0,0,0,0,0,-1,1154,701,0,0
-63,323,0,0,0,0,0,0,0,0,0,-1,1161,701,0,0
-56,323,0,0,0,0,0,0,0,0,0,-1,1168,701,0,0
-49,323,0,0,0,0,0,0,0,0,0,-1,1175,701,0,0
-42,323,0,0,0,0,0,0,0,0,0,-1,1182,701,0,0
-35,323,0,0,0,0,0,0,0,0,0,-1,1189,701,0,0
-28,323,0,0,0,0,0,0,0,0,0,-1,1196,701,0,0
-21,323,0,0,0,0,0,0,0,0,0,-1,1203,701,0,0
-14,323,0,0,0,0,0,0,0,0,0,-1,1210,701,0,0
-7,323,0,0,0,0,0,0,0,0,0,-1,1217,701,0,0
0,323,0,0,0,0,0,0,0,0,0,-1,1224,701,0,0
7,323,0,0,0,0,0,0,0,0,0,-1,1231,701,0,0
14,323,0,0,0,0,0,0,0,0,0,-1,1238,701,0,0
21,323,0,0,0,0,0,0,0,0,0,-1,1245,701,0,0
28,323,0,0,0,0,0,0,0,0,0,-1,1252,701,0,0
35,323,0,0,0,0,0,0,0,0,0,-1,1259,701,0,0
42,323,0,0,0,0,0,0,0,0,0,-1,1266,701,0,0
49,323,0,0,0,0,0,0,0,0,0,-1,1273,701,0,0
56,323,0,0,0,0,0,0,0,0,0,-1,1280,701,0,0
63,323,0,0,0,0,0,0,0,0,0,-1,1287,701,0,0
70,323,0,0,0,0,0,0,0,0,0,-1,1294,701,0,0
77,323,0,0,0,0,0,0,0,0,0,-1,1301,701,0,0
84,323,0,0,0,0,0,0,0,0,0,-1,1308,701,0,0
91,323,0,0,0,0,0,0,0,0,0,-1,1315,701,0,0
98,323,0,0,0,0,0,0,0,0,0,-1,1322,701,0,0
105,323,0,0,0,0,0,0,0,0,0,-1,1329,701,0,0
112,323,0,0,0,0,0,0,0,0,0,-1,1336,701,0,0
119,323,0,0,0,0,0,0,0,0,0,-1,1343,701,0,0
126,323,0,0,0,0,0,0,0,0,0,-1,1350,701,0,0
133,323,0,0,0,0,0,0,0,0,0,-1,1357,701,0,0
140,323,0,0,0,0,0,0,0,0,0,-1,1364,701,0,0
147,323,0,0,0,0,0,0,0,0,0,-1,1371,701,0,0
154,323,0,0,0,0,0,0,0,0,0,-1,1378,701,0,0
161,323,0,0,0,0,0,0,0,0,0,-1,1385,701,0,0
168,323,0,0,0,0,0,0,0,0,0,-1,1392,701,0,0
175,323,0,0,0,0,0,0,0,0,0,-1,1399,701,0,0
182,323,0,0,0,0,0,0,0,0,0,-1,1406,701,0,0
189,323,0,0,0,0,0,0,0,0,0,-1,1413,701,0,0
196,323,0,0,0,0,0,0,0,0,0,-1,1420,701,0,0
203,323,0,0,0,0,0,0,0,0,0,-1,1427,701,0,0
210,323,0,0,0,0,0,0,0,0,0,-1,1434,701,0,0
217,323,0,0,0,0,0,0,0,0,0,-1,1441,701,0,0
224,323,0,0,0,0,0,0,0,0,0,-1,1448,701,0,0
231,323,0,0,0,0,0,0,0,0,0,-1,1455,701,0,0
238,323,0,0,0,0,0,0,0,0,0,-1,1462,701,0,0
245,323,0,0,0,0,0,0,0,0,0,-1,1469,701,0,0
252,323,0,0,0,0,0,0,0,0,0,-1,1476,701,0,0
259,323,0,0,0,0,0,0,0,0,0,-1,1483,701,0,0
266,323,0,0,0,0,0,0,0,0,0,-1,1490,701,0,0
273,323,0,0,0,0,0,0,0,0,0,-1,1497,701,0,0
280,323,0,0,0,0,0,0,0,0,0,-1,1504,701,0,0
287,323,0,0,0,0,0,0,0,0,0,-1,1511,701,0,0
294,323,0,0,0,0,0,0,0,0,0,-1,1518,701,0,0
301,323,0,0,0,0,0,0,0,0,0,-1,1525,701,0,0
308,323,0,0,0,0,0,0,0,0,0,-1,1532,701,0,0
315,323,0,0,0,0,0,0,0,0,0,-1,1539,701,0,0
322,323,0,0,0,0,0,0,0,0,0,-1,1546,701,0,0
329,323,0,0,0,0,0,0,0,0,0,-1,1553,701,0,0
336,323,0,0,0,0,0,0,0,0,0,-1,1560,701,0,0
343,323,0,0,0,0,0,0,0,0,0,-1,1567,701,0,0
350,323,0,0,0,0,0,0,0,0,0,-1,1574,701,0,0
357,323,0,0,0,0,0,0,0,0,0,-1,1581,701,0,0
364,323,0,0,0,0,0,0,0,0,0,-1,1588,701,0,0
371,323,0,0,0,0,0,0,0,0,0,-1,1595,701,0,0
378,323,0,0,0,0,0,0,0,0,0,-1,1602,701,0,0
385,323,0,0,0,0,0,0,0,0,0,-1,1609,701,0,0
392,323,0,0,0,0,0,0,0,0,0,-1,1616,701,0,0
399,323,0,0,0,0,0,0,0,0,0,-1,1623,701,0,0
406,323,0,0,0,0,0,0,0,0,0,-1,1630,701,0,0
413,323,0,0,0,0,0,0,0,0,0,-1,1637,701,0,0
420,323,0,0,0,0,0,0,0,0,0,-1,1644,701,0,0
427,323,0,0,0,0,0,0,0,0,0,-1,1651,701,0,0
434,323,0,0,0,0,0,0,0,0,0,-1,1658,701,0,0
441,323,0,0,0,0,0,0,0,0,0,-1,1665,701,0,0
448,323,0,0,0,0,0,0,0,0,0,-1,1672,701,0,0
455,323,0,0,0,0,0,0,0,0,0,-1,1679,701,0,0
462,323,0,0,0,0,0,0,0,0,0,-1,1686,701,0,0
469,323,0,0,0,0,0,0,0,0,0,-1,1693,701,0,0
476,323,0,0,0,0,0,0,0,0,0,-1,1700,701,0,0
483,323,0,0,0,0,0,0,0,0,0,-1,1707,701,0,0
490,323,0,0,0,0,0,0,0,0,0,-1,1714,701,0,0
497,323,0,0,0,0,0,0,0,0,0,-1,1721,701,0,0
504,323,0,0,0,0,0,0,0,0,0,-1,1728,701,0,0
511,323,0,0,0,0,0,0,0,0,0,-1,1735,701,0,0
518,323,0,0,0,0,0,0,0,0,0,-1,1742,701,0,0
525,323,0,0,0,0,0,0,0,0,0,-1,1749,701,0,0
532,323,33.6193,1.69446,0,0,0,0,0,0,0,-1,1756,701,33.6193,-1.69444
539,323,32.2698,2.44037,0,0,0,0,0,0,0,-1,1763,701,32.2697,-2.44036
546,323,31.1644,3.9444,0,0,0,0,0,0,0,-1,1770,701,31.1644,-3.94438
553,323,30.2488,5.8775,0,0,0,0,0,0,0,-1,1777,701,30.2487,-5.87752
560,323,40.6711,1.25153,0,0,0,0,0,0,0,-1,1784,701,40.6711,-1.25154
567,323,42.1637,2.01208,0,0,0,0,0,0,0,-1,1791,701,42.1637,-2.01207
574,323,12.514,5.89685,0,0,0,0,0,0,0,-1,1798,701,12.5141,-5.89683
581,323,11.821,5.3476,0,0,0,0,0,0,0,-1,1805,701,11.821,-5.34762
588,323,11.7933,7.00818,0,0,0,0,0,0,0,-1,1812,701,11.7933,-7.00819
595,323,6.67847,0.06604,0,0,0,0,0,0,0,-1,1819,701,6.67841,-0.0660418
602,323,11.2856,-0.595459,0,0,0,0,0,0,0,-1,1826,701,11.2856,0.595433
609,323,26.0887,-5.30658,0,0,0,0,0,0,0,-1,1833,701,26.0887,5.30661
616,323,26.2545,-4.49518,0.00307417,0.000861576,-0.00061563,0.00323393,0.000701818,-0.253901,0.00196426,0.0134554,1840,701,26.2545,4.49515
623,323,26.2318,-3.91248,0.00211471,0.000468533,-0.000206491,0.00214022,0.000443027,-0.1229,0.00130446,0.0130731,1847,701,26.2318,3.91248
630,323,26.207,-3.34113,0.00123116,0.0001564,7.53288e-05,0.00123642,0.000151146,0.0696349,0.000778802,0.0139045,1854,701,26.207,3.34115
637,323,26.2122,-2.77716,0.00018189,7.9318e-05,-9.55194e-05,0.000239021,2.21871e-05,-0.539027,0.00015249,0.0113286,1861,701,26.2122,2.77715
644,323,26.1801,-2.21375,-0.000986508,-1.12829e-05,-0.000460017,0.000171464,-0.00116925,-1.19265,0.000842494,0.0087303,1868,701,26.1801,2.21373
651,323,26.1639,-1.62311,-0.00242204,-1.45085e-05,-0.000885431,0.000276062,-0.00271261,-1.2537,0.0019071,0.0103903,1875,701,26.1639,1.62309
658,323,26.0989,-1.03033,-0.00414468,-4.33538e-05,-0.0014075,0.000393208,-0.00458124,-1.27004,0.00319331,0.01452,1882,701,26.0989,1.03031
665,323,26.0647,-0.461304,-0.0062345,-8.30813e-05,-0.00206138,0.000543812,-0.0068614,-1.27557,0.00476589,0.0129637,1889,701,26.0647,0.461279
672,323,26.0947,0.150208,-0.00876674,-0.000110416,-0.00283648,0.000736224,-0.00961338,-1.28073,0.00666789,0.0140954,1896,701,26.0947,-0.150228
679,323,25.9733,0.725464,-0.0119868,-0.000184736,-0.0037845,0.000924552,-0.0130961,-1.28567,0.00905467,0.035642,1903,701,25.9732,-0.725455
686,323,25.8518,1.16309,0,0,0,0,0,0,0,-1,1910,701,25.8518,-1.16308
693,323,23.8806,1.08844,0,0,0,0,0,0,0,-1,1917,701,23.8806,-1.08845
700,323,10.7705,0.828613,0,0,0,0,0,0,0,-1,1924,701,10.7705,-0.828591
707,323,16.9005,4.79193,0,0,0,0,0,0,0,-1,1931,701,16.9005,-4.7919
714,323,16.2346,6.25958,0,0,0,0,0,0,0,-1,1938,701,16.2346,-6.25956
721,323,0,0,0,0,0,0,0,0,0,-1,1945,701,0,0
728,323,0,0,0,0,0,0,0,0,0,-1,1952,701,0,0
735,323,0,0,0,0,0,0,0,0,0,-1,1959,701,0,0
742,323,0,0,0,0,0,0,0,0,0,-1,1966,701,0,0
749,323,0,0,0,0,0,0,0,0,0,-1,1973,701,0,0
756,323,0,0,0,0,0,0,0,0,0,-1,1980,701,0,0
763,323,0,0,0,0,0,0,0,0,0,-1,1987,701,0,0
770,323,0,0,0,0,0,0,0,0,0,-1,1994,701,0,0
777,323,0,0,0,0,0,0,0,0,0,-1,2001,701,0,0
784,323,0,0,0,0,0,0,0,0,0,-1,2008,701,0,0
791,323,0,0,0,0,0,0,0,0,0,-1,2015,701,0,0
798,323,0,0,0,0,0,0,0,0,0,-1,2022,701,0,0
805,323,0,0,0,0,0,0,0,0,0,-1,2029,701,0,0
812,323,0,0,0,0,0,0,0,0,0,-1,2036,701,0,0
-700,316,0,0,0,0,0,0,0,0,0,-1,524,708,0,0
-693,316,0,0,0,0,0,0,0,0,0,-1,531,708,0,0
-686,316,0,0,0,0,0,0,0,0,0,-1,538,708,0,0
-679,316,0,0,0,0,0,0,0,0,0,-1,545,708,0,0
-672,316,0,0,0,0,0,0,0,0,0,-1,552,708,0,0
-665,316,0,0,0,0,0,0,0,0,0,-1,559,708,0,0
-658,316,0,0,0,0,0,0,0,0,0,-1,566,708,0,0
-651,316,0,0,0,0,0,0,0,0,0,-1,573,708,0,0
-644,316,0,0,0,0,0,0,0,0,0,-1,580,708,0,0
-637,316,0,0,0,0,0,0,0,0,0,-1,587,708,0,0
-630,316,0,0,0,0,0,0,0,0,0,-1,594,708,0,0
-623,316,0,0,0,0,0,0,0,0,0,-1,601,708,0,0
-616,316,0,0,0,0,0,0,0,0,0,-1,608,708,0,0
-609,316,0,0,0,0,0,0,0,0,0,-1,615,708,0,0
-602,316,-0.451782,-0.0494995,0,0,0,0,0,0,0,-1,622,708,-0.451768,0.0495022
-595,316,-3.3761,2.17188,0,0,0,0,0,0,0,-1,629,708,-3.37609,-2.17189
-588,316,-5.00177,2.60675,0,0,0,0,0,0,0,-1,636,708,-5.00175,-2.60676
-581,316,-3.94653,0.393433,0,0,0,0,0,0,0,-1,643,708,-3.94655,-0.39342
-574,316,-9.67395,1.06067,0,0,0,0,0,0,0,-1,650,708,-9.67396,-1.06065
-567,316,-10.1962,0.448425,0,0,0,0,0,0,0,-1,657,708,-10.1962,-0.448411
-560,316,-16.1115,-1.10376,0,0,0,0,0,0,0,-1,664,708,-16.1114,1.10376
-553,316,-16.1835,-1.39679,0.0032577,0.0108771,-0.00584078,0.0140408,9.39909e-05,-1.07438,0.00932939,0.0439549,671,708,-16.1835,1.39682
-546,316,-16.3693,-1.74548,0.00300539,0.00813779,-0.00459434,0.010834,0.000309148,-1.04009,0.00712188,0.027058,678,708,-16.3692,1.74549
-539,316,-16.2795,-2.33221,0.00271359,0.00601171,-0.00344015,0.00817763,0.000547677,-1.0089,0.00527867,0.0142587,685,708,-16.2795,2.33223
-532,316,-16.3238,-2.86932,0.00240118,0.00408708,-0.00244552,0.00583086,0.000657403,-0.951367,0.00368769,0.0118174,692,708,-16.3238,2.8693
-525,316,-16.3422,-3.41431,0.00207849,0.00258245,-0.00150733,0.00385872,0.000802222,-0.868217,0.00235114,0.00949311,699,708,-16.3421,3.4143
-518,316,-16.3545,-3.96191,0.0017971,0.00132297,-0.000710152,0.00230871,0.000811357,-0.624304,0.0013524,0.00958984,706,708,-16.3545,3.96192
-511,316,-16.3857,-4.51233,0.001557,0.000241161,-3.48579e-05,0.00155793,0.000240239,-0.0264662,0.000968521,0.0107164,713,708,-16.3857,4.5123
-504,316,-16.3968,-5.08844,0.000817944,-0.00087447,0.000188031,0.000838583,-0.000895109,0.109326,0.00100112,0.0137639,720,708,-16.3968,5.08842
-497,316,-16.3762,-5.62396,-0.000490497,-0.00232127,-0.000364963,-0.000420424,-0.00239134,-0.189692,0.00147421,0.0129611,727,708,-16.3762,5.62394
-490,316,-16.421,-6.16522,-0.00154363,-0.00606906,-0.00303402,-2.14861e-05,-0.00759121,-0.465,0.00505366,0.0176467,734,708,-16.421,6.16523
-483,316,-16.3553,-6.70135,0,0,0,0,0,0,0,-1,741,708,-16.3553,6.70136
-476,316,-8.90894,-3.31207,0,0,0,0,0,0,0,-1,748,708,-8.90896,3.31206
-469,316,-6.24194,-1.42725,0,0,0,0,0,0,0,-1,755,708,-6.24192,1.42725
-462,316,-5.74237,-1.40039,0,0,0,0,0,0,0,-1,762,708,-5.74238,1.40039
-455,316,-5.44745,-1.21899,0,0,0,0,0,0,0,-1,769,708,-5.44746,1.21898
-448,316,-14.8945,0.655396,0,0,0,0,0,0,0,-1,776,708,-14.8946,-0.655396
-441,316,-14.9626,0.576111,0,0,0,0,0,0,0,-1,783,708,-14.9626,-0.576115
-434,316,-27.7723,1.15576,0,0,0,0,0,0,0,-1,790,708,-27.7723,-1.15579
-427,316,-28.0504,1.31427,0,0,0,0,0,0,0,-1,797,708,-28.0504,-1.31427
-420,316,-28.198,1.62891,0,0,0,0,0,0,0,-1,804,708,-28.198,-1.62889
-413,316,0,0,0,0,0,0,0,0,0,-1,811,708,0,0
-406,316,0,0,0,0,0,0,0,0,0,-1,818,708,0,0
-399,316,0,0,0,0,0,0,0,0,0,-1,825,708,0,0
-392,316,0,0,0,0,0,0,0,0,0,-1,832,708,0,0
-385,316,0,0,0,0,0,0,0,0,0,-1,839,708,0,0
-378,316,0,0,0,0,0,0,0,0,0,-1,846,708,0,0
-371,316,0,0,0,0,0,0,0,0,0,-1,853,708,0,0
-364,316,0,0,0,0,0,0,0,0,0,-1,860,708,0,0
-357,316,0,0,0,0,0,0,0,0,0,-1,867,708,0,0
-350,316,0,0,0,0,0,0,0,0,0,-1,874,708,0,0
-343,316,0,0,0,0,0,0,0,0,0,-1,881,708,0,0
-336,316,0,0,0,0,0,0,0,0,0,-1,888,708,0,0
-329,316,0,0,0,0,0,0,0,0,0,-1,895,708,0,0
-322,316,0,0,0,0,0,0,0,0,0,-1,902,708,0,0
-315,316,0,0,0,0,0,0,0,0,0,-1,909,708,0,0
-308,316,0,0,0,0,0,0,0,0,0,-1,916,708,0,0
-301,316,0,0,0,0,0,0,0,0,0,-1,923,708,0,0
-294,316,0,0,0,0,0,0,0,0,0,-1,930,708,0,0
-287,316,0,0,0,0,0,0,0,0,0,-1,937,708,0,0
-280,316,0,0,0,0,0,0,0,0,0,-1,944,708,0,0
-273,316,0,0,0,0,0,0,0,0,0,-1,951,708,0,0
-266,316,0,0,0,0,0,0,0,0,0,-1,958,708,0,0
-259,316,0,0,0,0,0,0,0,0,0,-1,965,708,0,0
-252,316,0,0,0,0,0,0,0,0,0,-1,972,708,0,0
-245,316,0,0,0,0,0,0,0,0,0,-1,979,708,0,0
-238,316,0,0,0,0,0,0,0,0,0,-1,986,708,0,0
-231,316,0,0,0,0,0,0,0,0,0,-1,993,708,0,0
-224,316,0,0,0,0,0,0,0,0,0,-1,1000,708,0,0
-217,316,0,0,0,0,0,0,0,0,0,-1,1007,708,0,0
-210,316,0,0,0,0,0,0,0,0,0,-1,1014,708,0,0
-203,316,0,0,0,0,0,0,0,0,0,-1,1021,708,0,0
-196,316,0,0,0,0,0,0,0,0,0,-1,1028,708,0,0
-189,316,0,0,0,0,0,0,0,0,0,-1,1035,708,0,0
-182,316,0,0,0,0,0,0,0,0,0,-1,1042,708,0,0
-175,316,0,0,0,0,0,0,0,0,0,-1,1049,708,0,0
-168,316,0,0,0,0,0,0,0,0,0,-1,1056,708,0,0
-161,316,0,0,0,0,0,0,0,0,0,-1,1063,708,0,0
-154,316,0,0,0,0,0,0,0,0,0,-1,1070,708,0,0
-147,316,0,0,0,0,0,0,0,0,0,-1,1077,708,0,0
-140,316,0,0,0,0,0,0,0,0,0,-1,1084,708,0,0
-133,316,0,0,0,0,0,0,0,0,0,-1,1091,708,0,0
-126,316,0,0,0,0,0,0,0,0,0,-1,1098,708,0,0
-119,316,0,0,0,0,0,0,0,0,0,-1,1105,708,0,0
-112,316,0,0,0,0,0,0,0,0,0,-1,1112,708,0,0
-105,316,0,0,0,0,0,0,0,0,0,-1,1119,708,0,0
-98,316,0,0,0,0,0,0,0,0,0,-1,1126,708,0,0
-91,316,0,0,0,0,0,0,0,0,0,-1,1133,708,0,0
-84,316,0,0,0,0,0,0,0,0,0,-1,1140,708,0,0
-77,316,0,0,0,0,0,0,0,0,0,-1,1147,708,0,0
-70,316,0,0,0,0,0,0,0,0,0,-1,1154,708,0,0
-63,316,0,0,0,0,0,0,0,0,0,-1,1161,708,0,0
-56,316,0,0,0,0,0,0,0,0,0,-1,1168,708,0,0
-49,316,0,0,0,0,0,0,0,0,0,-1,1175,708,0,0
-42,316,0,0,0,0,0,0,0,0,0,-1,1182,708,0,0
-35,316,0,0,0,0,0,0,0,0,0,-1,1189,708,0,0
-28,316,0,0,0,0,0,0,0,0,0,-1,1196,708,0,0
-21,316,0,0,0,0,0,0,0,0,0,-1,1203,708,0,0
-14,316,0,0,0,0,0,0,0,0,0,-1,1210,708,0,0
-7,316,0,0,0,0,0,0,0,0,0,-1,1217,708,0,0
0,316,0,0,0,0,0,0,0,0,0,-1,1224,708,0,0
7,316,0,0,0,0,0,0,0,0,0,-1,1231,708,0,0
14,316,0,0,0,0,0,0,0,0,0,-1,1238,708,0,0
21,316,0,0,0,0,0,0,0,0,0,-1,1245,708,0,0
28,316,0,0,0,0,0,0,0,0,0,-1,1252,708,0,0
35,316,0,0,0,0,0,0,0,0,0,-1,1259,708,0,0
42,316,0,0,0,0,0,0,0,0,0,-1,1266,708,0,0
49,316,0,0,0,0,0,0,0,0,0,-1,1273,708,0,0
56,316,0,0,0,0,0,0,0,0,0,-1,1280,708,0,0
63,316,0,0,0,0,0,0,0,0,0,-1,1287,708,0,0
70,316,0,0,0,0,0,0,0,0,0,-1,1294,708,0,0
77,316,0,0,0,0,0,0,0,0,0,-1,1301,708,0,0
84,316,0,0,0,0,0,0,0,0,0,-1,1308,708,0,0
91,316,0,0,0,0,0,0,0,0,0,-1,1315,708,0,0
98,316,0,0,0,0,0,0,0,0,0,-1,1322,708,0,0
105,316,0,0,0,0,0,0,0,0,0,-1,1329,708,0,0
112,316,0,0,0,0,0,0,0,0,0,-1,1336,708,0,0
119,316,0,0,0,0,0,0,0,0,0,-1,1343,708,0,0
126,316,0,0,0,0,0,0,0,0,0,-1,1350,708,0,0
133,316,0,0,0,0,0,0,0,0,0,-1,1357,708,0,0
140,316,0,0,0,0,0,0,0,0,0,-1,1364,708,0,0
147,316,0,0,0,0,0,0,0,0,0,-1,1371,708,0,0
154,316,0,0,0,0,0,0,0,0,0,-1,1378,708,0,0
161,316,0,0,0,0,0,0,0,0,0,-1,1385,708,0,0
168,316,0,0,0,0,0,0,0,0,0,-1,1392,708,0,0
175,316,0,0,0,0,0,0,0,0,0,-1,1399,708,0,0
182,316,0,0,0,0,0,0,0,0,0,-1,1406,708,0,0
189,316,0,0,0,0,0,0,0,0,0,-1,1413,708,0,0
196,316,0,0,0,0,0,0,0,0,0,-1,1420,708,0,0
203,316,0,0,0,0,0,0,0,0,0,-1,1427,708,0,0
210,316,0,0,0,0,0,0,0,0,0,-1,1434,708,0,0
217,316,0,0,0,0,0,0,0,0,0,-1,1441,708,0,0
224,316,0,0,0,0,0,0,0,0,0,-1,1448,708,0,0
231,316,0,0,0,0,0,0,0,0,0,-1,1455,708,0,0
238,316,0,0,0,0,0,0,0,0,0,-1,1462,708,0,0
245,316,0,0,0,0,0,0,0,0,0,-1,1469,708,0,0
252,316,0,0,0,0,0,0,0,0,0,-1,1476,708,0,0
259,316,0,0,0,0,0,0,0,0,0,-1,1483,708,0,0
266,316,0,0,0,0,0,0,0,0,0,-1,1490,708,0,0
273,316,0,0,0,0,0,0,0,0,0,-1,1497,708,0,0
280,316,0,0,0,0,0,0,0,0,0,-1,1504,708,0,0
287,316,0,0,0,0,0,0,0,0,0,-1,1511,708,0,0
294,316,0,0,0,0,0,0,0,0,0,-1,1518,708,0,0
301,316,0,0,0,0,0,0,0,0,0,-1,1525,708,0,0
308,316,0,0,0,0,0,0,0,0,0,-1,1532,708,0,0
315,316,0,0,0,0,0,0,0,0,0,-1,1539,708,0,0
322,316,0,0,0,0,0,0,0,0,0,-1,1546,708,0,0
329,316,0,0,0,0,0,0,0,0,0,-1,1553,708,0,0
336,316,0,0,0,0,0,0,0,0,0,-1,1560,708,0,0
343,316,0,0,0,0,0,0,0,0,0,-1,1567,708,0,0
350,316,0,0,0,0,0,0,0,0,0,-1,1574,708,0,0
357,316,0,0,0,0,0,0,0,0,0,-1,1581,708,0,0
364,316,0,0,0,0,0,0,0,0,0,-1,1588,708,0,0
371,316,0,0,0,0,0,0,0,0,0,-1,1595,708,0,0
378,316,0,0,0,0,0,0,0,0,0,-1,1602,708,0,0
385,316,0,0,0,0,0,0,0,0,0,-1,1609,708,0,0
392,316,0,0,0,0,0,0,0,0,0,-1,1616,708,0,0
399,316,0,0,0,0,0,0,0,0,0,-1,1623,708,0,0
406,316,0,0,0,0,0,0,0,0,0,-1,1630,708,0,0
413,316,0,0,0,0,0,0,0,0,0,-1,1637,708,0,0
420,316,0,0,0,0,0,0,0,0,0,-1,1644,708,0,0
427,316,0,0,0,0,0,0,0,0,0,-1,1651,708,0,0
434,316,0,0,0,0,0,0,0,0,0,-1,1658,708,0,0
441,316,0,0,0,0,0,0,0,0,0,-1,1665,708,0,0
448,316,0,0,0,0,0,0,0,0,0,-1,1672,708,0,0
455,316,0,0,0,0,0,0,0,0,0,-1,1679,708,0,0
462,316,0,0,0,0,0,0,0,0,0,-1,1686,708,0,0
469,316,0,0,0,0,0,0,0,0,0,-1,1693,708,0,0
476,316,0,0,0,0,0,0,0,0,0,-1,1700,708,0,0
483,316,0,0,0,0,0,0,0,0,0,-1,1707,708,0,0
490,316,0,0,0,0,0,0,0,0,0,-1,1714,708,0,0
497,316,0,0,0,0,0,0,0,0,0,-1,1721,708,0,0
504,316,0,0,0,0,0,0,0,0,0,-1,1728,708,0,0
511,316,0,0,0,0,0,0,0,0,0,-1,1735,708,0,0
518,316,0,0,0,0,0,0,0,0,0,-1,1742,708,0,0
525,316,0,0,0,0,0,0,0,0,0,-1,1749,708,0,0
532,316,33.8604,0.531128,0,0,0,0,0,0,0,-1,1756,708,33.8604,-0.531151
539,316,44.4543,2.73468,0,0,0,0,0,0,0,-1,1763,708,44.4543,-2.7347
546,316,44.713,3.35498,0,0,0,0,0,0,0,-1,1770,708,44.7131,-3.35501
553,316,39.9031,6.57275,0,0,0,0,0,0,0,-1,1777,708,39.9031,-6.57274
560,316,39.1196,1.10046,0,0,0,0,0,0,0,-1,1784,708,39.1197,-1.10048
567,316,40.3279,1.98065,0,0,0,0,0,0,0,-1,1791,708,40.3279,-1.98067
574,316,40.1323,2.25415,0,0,0,0,0,0,0,-1,1798,708,40.1324,-2.25415
581,316,24.6815,7.77496,0,0,0,0,0,0,0,-1,1805,708,24.6815,-7.77499
588,316,19.7659,2.90198,0,0,0,0,0,0,0,-1,1812,708,19.7659,-2.902
595,316,12.5363,1.50702,0,0,0,0,0,0,0,-1,1819,708,12.5363,-1.50701
602,316,7.79919,0.0422363,0,0,0,0,0,0,0,-1,1826,708,7.79923,-0.0422066
609,316,26.8297,-5.06616,0,0,0,0,0,0,0,-1,1833,708,26.8297,5.06617
616,316,26.8546,-4.45697,0.00361865,0.00142685,-0.00164144,0.00449641,0.000549086,-0.491059,0.00283237,0.0162264,1840,708,26.8546,4.45696
623,316,26.8276,-3.87854,0.00247841,0.00062394,-0.000786488,0.00276704,0.00033531,-0.351726,0.00174371,0.0109085,1847,708,26.8277,3.87856
630,316,26.7681,-3.32104,0.00156556,-5.48003e-05,-6.4418e-05,0.00156812,-5.73572e-05,-0.0396718,0.00106505,0.0126283,1854,708,26.768,3.32102
637,316,26.7688,-2.72699,0.000587834,-8.99304e-05,-4.39113e-05,0.000590667,-9.27635e-05,-0.0644295,0.000428063,0.0127262,1861,708,26.7687,2.72698
644,316,26.7897,-2.16058,-0.000448868,-7.11334e-05,-0.000314835,0.000107139,-0.000627141,-1.05557,0.000458004,0.0127898,1868,708,26.7896,2.16056
651,316,26.7451,-1.60498,-0.0016834,5.52231e-05,-0.000611365,0.000248677,-0.00187685,-1.26434,0.00134183,0.0142193,1875,708,26.7451,1.60498
658,316,26.6805,-1.01727,-0.00310005,0.000196811,-0.000961542,0.000456752,-0.00335999,-1.30677,0.00240674,0.0242085,1882,708,26.6806,1.01729
665,316,26.6312,-0.448486,-0.00472546,0.000352602,-0.00137924,0.000703032,-0.00507589,-1.32199,0.00364097,0.0188255,1889,708,26.6312,0.448496
672,316,26.6606,0.126404,-0.00663909,0.000581028,-0.00185272,0.00102869,-0.00708676,-1.33372,0.00510209,0.0136213,1896,708,26.6607,-0.126421
679,316,26.662,0.792664,-0.00891707,0.000860618,-0.00238712,0.00141228,-0.00946874,-1.34368,0.00683208,0.0315234,1903,708,26.662,-0.792641
686,316,26.2404,1.30524,-0.0115613,0.00112326,-0.00303641,0.00181264,-0.0122507,-1.34754,0.00883353,0.0446468,1910,708,26.2404,-1.30526
693,316,25.7563,1.87103,0,0,0,0,0,0,0,-1,1917,708,25.7564,-1.87105
700,316,12.8749,2.89136,0,0,0,0,0,0,0,-1,1924,708,12.8748,-2.89137
707,316,15.7089,5.41486,0,0,0,0,0,0,0,-1,1931,708,15.7088,-5.41487
714,316,16.1727,5.52045,0,0,0,0,0,0,0,-1,1938,708,16.1728,-5.52042
721,316,16.7094,6.53351,0,0,0,0,0,0,0,-1,1945,708,16.7094,-6.5335
728,316,0,0,0,0,0,0,0,0,0,-1,1952,708,0,0
735,316,0,0,0,0,0,0,0,0,0,-1,1959,708,0,0
742,316,0,0,0,0,0,0,0,0,0,-1,1966,708,0,0
749,316,0,0,0,0,0,0,0,0,0,-1,1973,708,0,0
756,316,0,0,0,0,0,0,0,0,0,-1,1980,708,0,0
763,316,0,0,0,0,0,0,0,0,0,-1,1987,708,0,0
770,316,0,0,0,0,0,0,0,0,0,-1,1994,708,0,0
777,316,0,0,0,0,0,0,0,0,0,-1,2001,708,0,0
784,316,0,0,0,0,0,0,0,0,0,-1,2008,708,0,0
791,316,0,0,0,0,0,0,0,0,0,-1,2015,708,0,0
798,316,0,0,0,0,0,0,0,0,0,-1,2022,708,0,0
805,316,0,0,0,0,0,0,0,0,0,-1,2029,708,0,0
812,316,0,0,0,0,0,0,0,0,0,-1,2036,708,0,0
-700,309,0,0,0,0,0,0,0,0,0,-1,524,715,0,0
-693,309,0,0,0,0,0,0,0,0,0,-1,531,715,0,0
-686,309,0,0,0,0,0,0,0,0,0,-1,538,715,0,0
-679,309,0,0,0,0,0,0,0,0,0,-1,545,715,0,0
-672,309,0,0,0,0,0,0,0,0,0,-1,552,715,0,0
-665,309,0,0,0,0,0,0,0,0,0,-1,559,715,0,0
-658,309,0,0,0,0,0,0,0,0,0,-1,566,715,0,0
-651,309,0,0,0,0,0,0,0,0,0,-1,573,715,0,0
-644,309,0,0,0,0,0,0,0,0,0,-1,580,715,0,0
-637,309,0,0,0,0,0,0,0,0,0,-1,587,715,0,0
-630,309,0,0,0,0,0,0,0,0,0,-1,594,715,0,0
-623,309,0,0,0,0,0,0,0,0,0,-1,601,715,0,0
-616,309,0,0,0,0,0,0,0,0,0,-1,608,715,0,0
-609,309,-5.95392,-3.93689,0,0,0,0,0,0,0,-1,615,715,-5.95392,3.93686
-602,309,-4.99786,-3.31287,0,0,0,0,0,0,0,-1,622,715,-4.99786,3.31284
-595,309,-6.80847,2.4046,0,0,0,0,0,0,0,-1,629,715,-6.80845,-2.40458
-588,309,-6.08795,2.19324,0,0,0,0,0,0,0,-1,636,715,-6.08793,-2.19325
-581,309,-5.97552,1.3277,0,0,0,0,0,0,0,-1,643,715,-5.97552,-1.32769
-574,309,-8.73602,0.208435,0,0,0,0,0,0,0,-1,650,715,-8.73604,-0.208437
-567,309,-10.3909,0.85968,0,0,0,0,0,0,0,-1,657,715,-10.3909,-0.859696
-560,309,-16.7155,-1.11542,0,0,0,0,0,0,0,-1,664,715,-16.7155,1.11544
-553,309,-16.7889,-1.24652,0.00182232,0.00844209,-0.00331327,0.00981548,0.000448929,-1.17784,0.00639926,0.0446269,671,715,-16.7889,1.24653
-546,309,-16.8889,-1.72559,0.00177463,0.00613479,-0.00266309,0.00739634,0.000513081,-1.1284,0.00476907,0.0229445,678,715,-16.8889,1.72558
-539,309,-16.8468,-2.3017,0.00169978,0.00436784,-0.00198307,0.00542384,0.000643783,-1.08149,0.00342155,0.0161038,685,715,-16.8468,2.3017
-532,309,-16.8763,-2.85779,0.00153242,0.00266067,-0.00135836,0.00356739,0.000625698,-0.98221,0.00219956,0.0133496,692,715,-16.8763,2.85779
-525,309,-16.8815,-3.4364,0.00141245,0.00146494,-0.000685194,0.00212439,0.000752996,-0.804542,0.00124372,0.0161558,699,715,-16.8815,3.4364
-518,309,-16.9097,-3.96124,0.00129644,0.000434303,-0.000112228,0.00131081,0.000419933,-0.127346,0.000772909,0.0158028,706,715,-16.9097,3.96126
-511,309,-16.9373,-4.48956,0.00109377,-0.000553536,0.00037905,0.00117681,-0.000636571,0.215654,0.00106233,0.0116834,713,715,-16.9373,4.48956
-504,309,-16.9322,-5.06683,2.58786e-05,-0.00176467,0.000349663,9.17395e-05,-0.00183053,0.186174,0.00125205,0.00981473,720,715,-16.9322,5.06683
-497,309,-16.9289,-5.59619,-0.00186563,-0.00362212,-0.000575641,-0.00169379,-0.00379396,-0.290097,0.00219463,0.0154998,727,715,-16.9289,5.59618
-490,309,-16.8845,-6.15509,-0.00335916,-0.00833176,-0.0037013,-0.00138661,-0.0103043,-0.489646,0.00645715,0.048243,734,715,-16.8845,6.15508
-483,309,-16.6097,-6.91754,0,0,0,0,0,0,0,-1,741,715,-16.6097,6.91756
-476,309,-5.29486,-1.2262,0,0,0,0,0,0,0,-1,748,715,-5.29484,1.22622
-469,309,-4.22717,-0.592896,0,0,0,0,0,0,0,-1,755,715,-4.2272,0.592905
-462,309,-10.428,2.46948,0,0,0,0,0,0,0,-1,762,715,-10.428,-2.46947
-455,309,-15.8216,0.00915527,0,0,0,0,0,0,0,-1,769,715,-15.8216,-0.00913359
-448,309,-37.3543,-1.02441,0,0,0,0,0,0,0,-1,776,715,-37.3543,1.02444
-441,309,-19.8181,1.4425,0,0,0,0,0,0,0,-1,783,715,-19.8181,-1.44249
-434,309,-28.3196,0.95105,0,0,0,0,0,0,0,-1,790,715,-28.3196,-0.951068
-427,309,-27.8553,1.40332,0,0,0,0,0,0,0,-1,797,715,-27.8553,-1.40334
-420,309,-27.3148,1.90747,0,0,0,0,0,0,0,-1,804,715,-27.3148,-1.90745
-413,309,0,0,0,0,0,0,0,0,0,-1,811,715,0,0
-406,309,0,0,0,0,0,0,0,0,0,-1,818,715,0,0
-399,309,0,0,0,0,0,0,0,0,0,-1,825,715,0,0
-392,309,0,0,0,0,0,0,0,0,0,-1,832,715,0,0
-385,309,0,0,0,0,0,0,0,0,0,-1,839,715,0,0
-378,309,0,0,0,0,0,0,0,0,0,-1,846,715,0,0
-371,309,0,0,0,0,0,0,0,0,0,-1,853,715,0,0
-364,309,0,0,0,0,0,0,0,0,0,-1,860,715,0,0
-357,309,0,0,0,0,0,0,0,0,0,-1,867,715,0,0
-350,309,0,0,0,0,0,0,0,0,0,-1,874,715,0,0
-343,309,0,0,0,0,0,0,0,0,0,-1,881,715,0,0
-336,309,0,0,0,0,0,0,0,0,0,-1,888,715,0,0
-329,309,0,0,0,0,0,0,0,0,0,-1,895,715,0,0
-322,309,0,0,0,0,0,0,0,0,0,-1,902,715,0,0
-315,309,0,0,0,0,0,0,0,0,0,-1,909,715,0,0
-308,309,0,0,0,0,0,0,0,0,0,-1,916,715,0,0
-301,309,0,0,0,0,0,0,0,0,0,-1,923,715,0,0
-294,309,0,0,0,0,0,0,0,0,0,-1,930,715,0,0
-287,309,0,0,0,0,0,0,0,0,0,-1,937,715,0,0
-280,309,0,0,0,0,0,0,0,0,0,-1,944,715,0,0
-273,309,0,0,0,0,0,0,0,0,0,-1,951,715,0,0
-266,309,0,0,0,0,0,0,0,0,0,-1,958,715,0,0
-259,309,0,0,0,0,0,0,0,0,0,-1,965,715,0,0
-252,309,0,0,0,0,0,0,0,0,0,-1,972,715,0,0
-245,309,0,0,0,0,0,0,0,0,0,-1,979,715,0,0
-238,309,0,0,0,0,0,0,0,0,0,-1,986,715,0,0
-231,309,0,0,0,0,0,0,0,0,0,-1,993,715,0,0
-224,309,0,0,0,0,0,0,0,0,0,-1,1000,715,0,0
-217,309,0,0,0,0,0,0,0,0,0,-1,1007,715,0,0
-210,309,0,0,0,0,0,0,0,0,0,-1,1014,715,0,0
-203,309,0,0,0,0,0,0,0,0,0,-1,1021,715,0,0
-196,309,0,0,0,0,0,0,0,0,0,-1,1028,715,0,0
-189,309,0,0,0,0,0,0,0,0,0,-1,1035,715,0,0
-182,309,0,0,0,0,0,0,0,0,0,-1,1042,715,0,0
-175,309,0,0,0,0,0,0,0,0,0,-1,1049,715,0,0
-168,309,0,0,0,0,0,0,0,0,0,-1,1056,715,0,0
-161,309,0,0,0,0,0,0,0,0,0,-1,1063,715,0,0
-154,309,0,0,0,0,0,0,0,0,0,-1,1070,715,0,0
-147,309,0,0,0,0,0,0,0,0,0,-1,1077,715,0,0
-140,309,0,0,0,0,0,0,0,0,0,-1,1084,715,0,0
-133,309,0,0,0,0,0,0,0,0,0,-1,1091,715,0,0
-126,309,0,0,0,0,0,0,0,0,0,-1,1098,715,0,0
-119,309,0,0,0,0,0,0,0,0,0,-1,1105,715,0,0
-112,309,0,0,0,0,0,0,0,0,0,-1,1112,715,0,0
-105,309,0,0,0,0,0,0,0,0,0,-1,1119,715,0,0
-98,309,0,0,0,0,0,0,0,0,0,-1,1126,715,0,0
-91,309,0,0,0,0,0,0,0,0,0,-1,1133,715,0,0
-84,309,0,0,0,0,0,0,0,0,0,-1,1140,715,0,0
-77,309,0,0,0,0,0,0,0,0,0,-1,1147,715,0,0
-70,309,0,0,0,0,0,0,0,0,0,-1,1154,715,0,0
-63,309,0,0,0,0,0,0,0,0,0,-1,1161,715,0,0
-56,309,0,0,0,0,0,0,0,0,0,-1,1168,715,0,0
-49,309,0,0,0,0,0,0,0,0,0,-1,1175,715,0,0
-42,309,0,0,0,0,0,0,0,0,0,-1,1182,715,0,0
-35,309,0,0,0,0,0,0,0,0,0,-1,1189,715,0,0
-28,309,0,0,0,0,0,0,0,0,0,-1,1196,715,0,0
-21,309,0,0,0,0,0,0,0,0,0,-1,1203,715,0,0
-14,309,0,0,0,0,0,0,0,0,0,-1,1210,715,0,0
-7,309,0,0,0,0,0,0,0,0,0,-1,1217,715,0,0
0,309,0,0,0,0,0,0,0,0,0,-1,1224,715,0,0
7,309,0,0,0,0,0,0,0,0,0,-1,1231,715,0,0
14,309,0,0,0,0,0,0,0,0,0,-1,1238,715,0,0
21,309,0,0,0,0,0,0,0,0,0,-1,1245,715,0,0
28,309,0,0,0,0,0,0,0,0,0,-1,1252,715,0,0
35,309,0,0,0,0,0,0,0,0,0,-1,1259,715,0,0
42,309,0,0,0,0,0,0,0,0,0,-1,1266,715,0,0
49,309,0,0,0,0,0,0,0,0,0,-1,1273,715,0,0
56,309,0,0,0,0,0,0,0,0,0,-1,1280,715,0,0
63,309,0,0,0,0,0,0,0,0,0,-1,1287,715,0,0
70,309,0,0,0,0,0,0,0,0,0,-1,1294,715,0,0
77,309,0,0,0,0,0,0,0,0,0,-1,1301,715,0,0
84,309,0,0,0,0,0,0,0,0,0,-1,1308,715,0,0
91,309,0,0,0,0,0,0,0,0,0,-1,1315,715,0,0
98,309,0,0,0,0,0,0,0,0,0,-1,1322,715,0,0
105,309,0,0,0,0,0,0,0,0,0,-1,1329,715,0,0
112,309,0,0,0,0,0,0,0,0,0,-1,1336,715,0,0
119,309,0,0,0,0,0,0,0,0,0,-1,1343,715,0,0
126,309,0,0,0,0,0,0,0,0,0,-1,1350,715,0,0
133,309,0,0,0,0,0,0,0,0,0,-1,1357,715,0,0
140,309,0,0,0,0,0,0,0,0,0,-1,1364,715,0,0
147,309,0,0,0,0,0,0,0,0,0,-1,1371,715,0,0
154,309,0,0,0,0,0,0,0,0,0,-1,1378,715,0,0
161,309,0,0,0,0,0,0,0,0,0,-1,1385,715,0,0
168,309,0,0,0,0,0,0,0,0,0,-1,1392,715,0,0
175,309,0,0,0,0,0,0,0,0,0,-1,1399,715,0,0
182,309,0,0,0,0,0,0,0,0,0,-1,1406,715,0,0
189,309,0,0,0,0,0,0,0,0,0,-1,1413,715,0,0
196,309,0,0,0,0,0,0,0,0,0,-1,1420,715,0,0
203,309,0,0,0,0,0,0,0,0,0,-1,1427,715,0,0
210,309,0,0,0,0,0,0,0,0,0,-1,1434,715,0,0
217,309,0,0,0,0,0,0,0,0,0,-1,1441,715,0,0
224,309,0,0,0,0,0,0,0,0,0,-1,1448,715,0,0
231,309,0,0,0,0,0,0,0,0,0,-1,1455,715,0,0
238,309,0,0,0,0,0,0,0,0,0,-1,1462,715,0,0
245,309,0,0,0,0,0,0,0,0,0,-1,1469,715,0,0
252,309,0,0,0,0,0,0,0,0,0,-1,1476,715,0,0
259,309,0,0,0,0,0,0,0,0,0,-1,1483,715,0,0
266,309,0,0,0,0,0,0,0,0,0,-1,1490,715,0,0
273,309,0,0,0,0,0,0,0,0,0,-1,1497,715,0,0
280,309,0,0,0,0,0,0,0,0,0,-1,1504,715,0,0
287,309,0,0,0,0,0,0,0,0,0,-1,1511,715,0,0
294,309,0,0,0,0,0,0,0,0,0,-1,1518,715,0,0
301,309,0,0,0,0,0,0,0,0,0,-1,1525,715,0,0
308,309,0,0,0,0,0,0,0,0,0,-1,1532,715,0,0
315,309,0,0,0,0,0,0,0,0,0,-1,1539,715,0,0
322,309,0,0,0,0,0,0,0,0,0,-1,1546,715,0,0
329,309,0,0,0,0,0,0,0,0,0,-1,1553,715,0,0
336,309,0,0,0,0,0,0,0,0,0,-1,1560,715,0,0
343,309,0,0,0,0,0,0,0,0,0,-1,1567,715,0,0
350,309,0,0,0,0,0,0,0,0,0,-1,1574,715,0,0
357,309,0,0,0,0,0,0,0,0,0,-1,1581,715,0,0
364,309,0,0,0,0,0,0,0,0,0,-1,1588,715,0,0
371,309,0,0,0,0,0,0,0,0,0,-1,1595,715,0,0
378,309,0,0,0,0,0,0,0,0,0,-1,1602,715,0,0
385,309,0,0,0,0,0,0,0,0,0,-1,1609,715,0,0
392,309,0,0,0,0,0,0,0,0,0,-1,1616,715,0,0
399,309,0,0,0,0,0,0,0,0,0,-1,1623,715,0,0
406,309,0,0,0,0,0,0,0,0,0,-1,1630,715,0,0
413,309,0,0,0,0,0,0,0,0,0,-1,1637,715,0,0
420,309,0,0,0,0,0,0,0,0,0,-1,1644,715,0,0
427,309,0,0,0,0,0,0,0,0,0,-1,1651,715,0,0
434,309,0,0,0,0,0,0,0,0,0,-1,1658,715,0,0
441,309,0,0,0,0,0,0,0,0,0,-1,1665,715,0,0
448,309,0,0,0,0,0,0,0,0,0,-1,1672,715,0,0
455,309,0,0,0,0,0,0,0,0,0,-1,1679,715,0,0
462,309,0,0,0,0,0,0,0,0,0,-1,1686,715,0,0
469,309,0,0,0,0,0,0,0,0,0,-1,1693,715,0,0
476,309,0,0,0,0,0,0,0,0,0,-1,1700,715,0,0
483,309,0,0,0,0,0,0,0,0,0,-1,1707,715,0,0
490,309,0,0,0,0,0,0,0,0,0,-1,1714,715,0,0
497,309,0,0,0,0,0,0,0,0,0,-1,1721,715,0,0
504,309,0,0,0,0,0,0,0,0,0,-1,1728,715,0,0
511,309,0,0,0,0,0,0,0,0,0,-1,1735,715,0,0
518,309,0,0,0,0,0,0,0,0,0,-1,1742,715,0,0
525,309,0,0,0,0,0,0,0,0,0,-1,1749,715,0,0
532,309,0,0,0,0,0,0,0,0,0,-1,1756,715,0,0
539,309,44.2073,2.66235,0,0,0,0,0,0,0,-1,1763,715,44.2073,-2.66238
546,309,44.4976,3.25531,0,0,0,0,0,0,0,-1,1770,715,44.4976,-3.25533
553,309,44.7058,3.60016,0,0,0,0,0,0,0,-1,1777,715,44.7058,-3.60018
560,309,44.7665,4.18518,0,0,0,0,0,0,0,-1,1784,715,44.7665,-4.18518
567,309,38.2872,1.72437,0,0,0,0,0,0,0,-1,1791,715,38.2872,-1.72434
574,309,39.0372,2.01044,0,0,0,0,0,0,0,-1,1798,715,39.0372,-2.01045
581,309,39.9871,2.35028,0,0,0,0,0,0,0,-1,1805,715,39.9871,-2.3503
588,309,26.2064,7.76422,0,0,0,0,0,0,0,-1,1812,715,26.2064,-7.7642
595,309,19.585,3.71558,0,0,0,0,0,0,0,-1,1819,715,19.5849,-3.71555
602,309,11.0811,3.47772,0,0,0,0,0,0,0,-1,1826,715,11.0811,-3.47772
609,309,27.348,-5.10468,0,0,0,0,0,0,0,-1,1833,715,27.348,5.10469
616,309,27.396,-4.46387,0.00219665,0.00173349,-0.00162968,0.00361113,0.000319016,-0.714821,0.00230844,0.0261291,1840,715,27.396,4.46386
623,309,27.4008,-3.85547,0.00156271,0.000693762,-0.00082894,0.00206414,0.000192336,-0.544014,0.00131667,0.0112793,1847,715,27.4007,3.85545
630,309,27.3311,-3.30402,0.00104203,-0.00028725,-3.15484e-06,0.00104204,-0.000287257,-0.00237332,0.000807658,0.0108865,1854,715,27.3311,3.30403
637,309,27.3247,-2.72357,0.000463241,-0.000332771,7.96794e-05,0.000471139,-0.000340669,0.0987922,0.000470711,0.013696,1861,715,27.3246,2.72357
644,309,27.304,-2.14209,-0.000213232,-0.000199851,-0.000163421,-4.2984e-05,-0.000370099,-0.805857,0.000233726,0.0148384,1868,715,27.304,2.14208
651,309,27.2903,-1.57245,-0.00110147,3.72582e-05,-0.000384852,0.000155125,-0.00121934,-1.2736,0.000869229,0.0138154,1875,715,27.2902,1.57246
658,309,27.2837,-0.991455,-0.00217941,0.00032602,-0.000618312,0.000470303,-0.00232369,-1.34155,0.00172737,0.0202493,1882,715,27.2837,0.991444
665,309,27.2834,-0.432922,-0.00341561,0.000642038,-0.000851482,0.000813475,-0.00358705,-1.37211,0.00270363,0.0181338,1889,715,27.2835,0.432936
672,309,27.2577,0.134155,-0.00484623,0.00105952,-0.00110234,0.00125857,-0.00504528,-1.39215,0.0038522,0.0155443,1896,715,27.2577,-0.134155
679,309,27.2378,0.802551,-0.00643497,0.00158425,-0.00134945,0.00180524,-0.00665596,-1.40847,0.00514572,0.0193189,1903,715,27.2378,-0.802576
686,309,27.0802,1.44336,-0.00812191,0.00217339,-0.00161754,0.00242154,-0.00837007,-1.41857,0.00653845,0.0324742,1910,715,27.0801,-1.44336
693,309,26.6451,2.01495,0,0,0,0,0,0,0,-1,1917,715,26.6451,-2.01497
700,309,23.0179,3.08337,0,0,0,0,0,0,0,-1,1924,715,23.018,-3.08336
707,309,15.6318,4.58655,0,0,0,0,0,0,0,-1,1931,715,15.6318,-4.58657
714,309,16.7573,6.68286,0,0,0,0,0,0,0,-1,1938,715,16.7574,-6.68284
721,309,16.8337,5.4458,0,0,0,0,0,0,0,-1,1945,715,16.8338,-5.44582
728,309,0,0,0,0,0,0,0,0,0,-1,1952,715,0,0
735,309,0,0,0,0,0,0,0,0,0,-1,1959,715,0,0
742,309,0,0,0,0,0,0,0,0,0,-1,1966,715,0,0
749,309,0,0,0,0,0,0,0,0,0,-1,1973,715,0,0
756,309,0,0,0,0,0,0,0,0,0,-1,1980,715,0,0
763,309,0,0,0,0,0,0,0,0,0,-1,1987,715,0,0
770,309,0,0,0,0,0,0,0,0,0,-1,1994,715,0,0
777,309,0,0,0,0,0,0,0,0,0,-1,2001,715,0,0
784,309,0,0,0,0,0,0,0,0,0,-1,2008,715,0,0
791,309,0,0,0,0,0,0,0,0,0,-1,2015,715,0,0
798,309,0,0,0,0,0,0,0,0,0,-1,2022,715,0,0
805,309,0,0,0,0,0,0,0,0,0,-1,2029,715,0,0
812,309,0,0,0,0,0,0,0,0,0,-1,2036,715,0,0
-700,302,0,0,0,0,0,0,0,0,0,-1,524,722,0,0
-693,302,0,0,0,0,0,0,0,0,0,-1,531,722,0,0
-686,302,0,0,0,0,0,0,0,0,0,-1,538,722,0,0
-679,302,0,0,0,0,0,0,0,0,0,-1,545,722,0,0
-672,302,0,0,0,0,0,0,0,0,0,-1,552,722,0,0
-665,302,0,0,0,0,0,0,0,0,0,-1,559,722,0,0
-658,302,0,0,0,0,0,0,0,0,0,-1,566,722,0,0
-651,302,0,0,0,0,0,0,0,0,0,-1,573,722,0,0
-644,302,0,0,0,0,0,0,0,0,0,-1,580,722,0,0
-637,302,0,0,0,0,0,0,0,0,0,-1,587,722,0,0
-630,302,0,0,0,0,0,0,0,0,0,-1,594,722,0,0
-623,302,0,0,0,0,0,0,0,0,0,-1,601,722,0,0
-616,302,0,0,0,0,0,0,0,0,0,-1,608,722,0,0
-609,302,-7.79266,-3.71649,0,0,0,0,0,0,0,-1,615,722,-7.79267,3.7165
-602,302,0.92865,-1.99158,0,0,0,0,0,0,0,-1,622,722,0.928637,1.99157
-595,302,-7.89941,2.13641,0,0,0,0,0,0,0,-1,629,722,-7.89939,-2.13639
-588,302,-7.10895,1.79163,0,0,0,0,0,0,0,-1,636,722,-7.10896,-1.79163
-581,302,-9.17566,1.09448,0,0,0,0,0,0,0,-1,643,722,-9.17569,-1.09445
-574,302,-11.5183,-0.344543,0,0,0,0,0,0,0,-1,650,722,-11.5183,0.344557
-567,302,-12.1534,-0.672241,0,0,0,0,0,0,0,-1,657,722,-12.1535,0.672246
-560,302,-17.5055,-0.567078,0,0,0,0,0,0,0,-1,664,722,-17.5055,0.567069
-553,302,-17.3994,-1.14038,0.00121325,0.00599195,-0.00179468,0.00659089,0.000614314,-1.24869,0.00420414,0.0245251,671,722,-17.3993,1.14038
-546,302,-17.3931,-1.72614,0.00112569,0.00427705,-0.00139561,0.00480624,0.000596495,-1.20836,0.003025,0.0160871,678,722,-17.3931,1.72611
-539,302,-17.4168,-2.25647,0.00102428,0.0030526,-0.000940039,0.00342126,0.000655616,-1.19705,0.00209675,0.0149316,685,722,-17.4168,2.25644
-532,302,-17.4229,-2.83478,0.000919639,0.00152838,-0.000528026,0.00183348,0.000614539,-1.04685,0.00107756,0.0149827,692,722,-17.4229,2.83476
-525,302,-17.4291,-3.42548,0.000926597,0.000538899,-3.42754e-05,0.000929604,0.000535892,-0.087503,0.000538796,0.0203411,699,722,-17.4291,3.42549
-518,302,-17.4471,-3.94757,0.00082297,-0.00035623,0.000353158,0.000920647,-0.000453907,0.269834,0.000808705,0.0211586,706,722,-17.4471,3.94754
-511,302,-17.4727,-4.46906,0.000430368,-0.00130049,0.000680447,0.000665836,-0.00153596,0.333151,0.00130388,0.0108951,713,722,-17.4727,4.46907
-504,302,-17.461,-5.0451,-0.00127339,-0.00260074,0.000398131,-0.00116313,-0.002711,0.270169,0.00157044,0.0102199,720,722,-17.461,5.04508
-497,302,-17.5184,-5.54694,-0.00391451,-0.00472945,-0.000923599,-0.00331249,-0.00533147,-0.577652,0.00310818,0.016788,727,722,-17.5184,5.54692
-490,302,-17.5849,-6.04156,0,0,0,0,0,0,0,-1,734,722,-17.5849,6.04155
-483,302,-9.53412,-3.1673,0,0,0,0,0,0,0,-1,741,722,-9.53411,3.1673
-476,302,-4.29749,-0.203491,0,0,0,0,0,0,0,-1,748,722,-4.29751,0.203464
-469,302,-12.369,1.42859,0,0,0,0,0,0,0,-1,755,722,-12.3689,-1.42857
-462,302,-17.4766,0.310791,0,0,0,0,0,0,0,-1,762,722,-17.4766,-0.310788
-455,302,-36.7368,-2.97418,0,0,0,0,0,0,0,-1,769,722,-36.7368,2.97416
-448,302,-37.3755,-1.21204,0,0,0,0,0,0,0,-1,776,722,-37.3755,1.21201
-441,302,-38.1774,-1.19635,0,0,0,0,0,0,0,-1,783,722,-38.1774,1.19636
-434,302,-38.5441,-0.682678,0,0,0,0,0,0,0,-1,790,722,-38.5441,0.682664
-427,302,-27.1735,1.81506,0,0,0,0,0,0,0,-1,797,722,-27.1735,-1.81504
-420,302,0,0,0,0,0,0,0,0,0,-1,804,722,0,0
-413,302,0,0,0,0,0,0,0,0,0,-1,811,722,0,0
-406,302,0,0,0,0,0,0,0,0,0,-1,818,722,0,0
-399,302,0,0,0,0,0,0,0,0,0,-1,825,722,0,0
-392,302,0,0,0,0,0,0,0,0,0,-1,832,722,0,0
-385,302,0,0,0,0,0,0,0,0,0,-1,839,722,0,0
-378,302,0,0,0,0,0,0,0,0,0,-1,846,722,0,0
-371,302,0,0,0,0,0,0,0,0,0,-1,853,722,0,0
-364,302,0,0,0,0,0,0,0,0,0,-1,860,722,0,0
-357,302,0,0,0,0,0,0,0,0,0,-1,867,722,0,0
-350,302,0,0,0,0,0,0,0,0,0,-1,874,722,0,0
-343,302,0,0,0,0,0,0,0,0,0,-1,881,722,0,0
-336,302,0,0,0,0,0,0,0,0,0,-1,888,722,0,0
-329,302,0,0,0,0,0,0,0,0,0,-1,895,722,0,0
-322,302,0,0,0,0,0,0,0,0,0,-1,902,722,0,0
-315,302,0,0,0,0,0,0,0,0,0,-1,909,722,0,0
-308,302,0,0,0,0,0,0,0,0,0,-1,916,722,0,0
-301,302,0,0,0,0,0,0,0,0,0,-1,923,722,0,0
-294,302,0,0,0,0,0,0,0,0,0,-1,930,722,0,0
-287,302,0,0,0,0,0,0,0,0,0,-1,937,722,0,0
-280,302,0,0,0,0,0,0,0,0,0,-1,944,722,0,0
-273,302,0,0,0,0,0,0,0,0,0,-1,951,722,0,0
-266,302,0,0,0,0,0,0,0,0,0,-1,958,722,0,0
-259,302,0,0,0,0,0,0,0,0,0,-1,965,722,0,0
-252,302,0,0,0,0,0,0,0,0,0,-1,972,722,0,0
-245,302,0,0,0,0,0,0,0,0,0,-1,979,722,0,0
-238,302,0,0,0,0,0,0,0,0,0,-1,986,722,0,0
-231,302,0,0,0,0,0,0,0,0,0,-1,993,722,0,0
-224,302,0,0,0,0,0,0,0,0,0,-1,1000,722,0,0
-217,302,0,0,0,0,0,0,0,0,0,-1,1007,722,0,0
-210,302,0,0,0,0,0,0,0,0,0,-1,1014,722,0,0
-203,302,0,0,0,0,0,0,0,0,0,-1,1021,722,0,0
-196,302,0,0,0,0,0,0,0,0,0,-1,1028,722,0,0
-189,302,0,0,0,0,0,0,0,0,0,-1,1035,722,0,0
-182,302,0,0,0,0,0,0,0,0,0,-1,1042,722,0,0
-175,302,0,0,0,0,0,0,0,0,0,-1,1049,722,0,0
-168,302,0,0,0,0,0,0,0,0,0,-1,1056,722,0,0
-161,302,0,0,0,0,0,0,0,0,0,-1,1063,722,0,0
-154,302,0,0,0,0,0,0,0,0,0,-1,1070,722,0,0
-147,302,0,0,0,0,0,0,0,0,0,-1,1077,722,0,0
-140,302,0,0,0,0,0,0,0,0,0,-1,1084,722,0,0
-133,302,0,0,0,0,0,0,0,0,0,-1,1091,722,0,0
-126,302,0,0,0,0,0,0,0,0,0,-1,1098,722,0,0
-119,302,0,0,0,0,0,0,0,0,0,-1,1105,722,0,0
-112,302,0,0,0,0,0,0,0,0,0,-1,1112,722,0,0
-105,302,0,0,0,0,0,0,0,0,0,-1,1119,722,0,0
-98,302,0,0,0,0,0,0,0,0,0,-1,1126,722,0,0
-91,302,0,0,0,0,0,0,0,0,0,-1,1133,722,0,0
-84,302,0,0,0,0,0,0,0,0,0,-1,1140,722,0,0
-77,302,0,0,0,0,0,0,0,0,0,-1,1147,722,0,0
-70,302,0,0,0,0,0,0,0,0,0,-1,1154,722,0,0
-63,302,0,0,0,0,0,0,0,0,0,-1,1161,722,0,0
-56,302,0,0,0,0,0,0,0,0,0,-1,1168,722,0,0
-49,302,0,0,0,0,0,0,0,0,0,-1,1175,722,0,0
-42,302,0,0,0,0,0,0,0,0,0,-1,1182,722,0,0
-35,302,0,0,0,0,0,0,0,0,0,-1,1189,722,0,0
-28,302,0,0,0,0,0,0,0,0,0,-1,1196,722,0,0
-21,302,0,0,0,0,0,0,0,0,0,-1,1203,722,0,0
-14,302,0,0,0,0,0,0,0,0,0,-1,1210,722,0,0
-7,302,0,0,0,0,0,0,0,0,0,-1,1217,722,0,0
0,302,0,0,0,0,0,0,0,0,0,-1,1224,722,0,0
7,302,0,0,0,0,0,0,0,0,0,-1,1231,722,0,0
14,302,0,0,0,0,0,0,0,0,0,-1,1238,722,0,0
21,302,0,0,0,0,0,0,0,0,0,-1,1245,722,0,0
28,302,0,0,0,0,0,0,0,0,0,-1,1252,722,0,0
35,302,0,0,0,0,0,0,0,0,0,-1,1259,722,0,0
42,302,0,0,0,0,0,0,0,0,0,-1,1266,722,0,0
49,302,0,0,0,0,0,0,0,0,0,-1,1273,722,0,0
56,302,0,0,0,0,0,0,0,0,0,-1,1280,722,0,0
63,302,0,0,0,0,0,0,0,0,0,-1,1287,722,0,0
70,302,0,0,0,0,0,0,0,0,0,-1,1294,722,0,0
77,302,0,0,0,0,0,0,0,0,0,-1,1301,722,0,0
84,302,0,0,0,0,0,0,0,0,0,-1,1308,722,0,0
91,302,0,0,0,0,0,0,0,0,0,-1,1315,722,0,0
98,302,0,0,0,0,0,0,0,0,0,-1,1322,722,0,0
105,302,0,0,0,0,0,0,0,0,0,-1,1329,722,0,0
112,302,0,0,0,0,0,0,0,0,0,-1,1336,722,0,0
119,302,0,0,0,0,0,0,0,0,0,-1,1343,722,0,0
126,302,0,0,0,0,0,0,0,0,0,-1,1350,722,0,0
133,302,0,0,0,0,0,0,0,0,0,-1,1357,722,0,0
140,302,0,0,0,0,0,0,0,0,0,-1,1364,722,0,0
147,302,0,0,0,0,0,0,0,0,0,-1,1371,722,0,0
154,302,0,0,0,0,0,0,0,0,0,-1,1378,722,0,0
161,302,0,0,0,0,0,0,0,0,0,-1,1385,722,0,0
168,302,0,0,0,0,0,0,0,0,0,-1,1392,722,0,0
175,302,0,0,0,0,0,0,0,0,0,-1,1399,722,0,0
182,302,0,0,0,0,0,0,0,0,0,-1,1406,722,0,0
189,302,0,0,0,0,0,0,0,0,0,-1,1413,722,0,0
196,302,0,0,0,0,0,0,0,0,0,-1,1420,722,0,0
203,302,0,0,0,0,0,0,0,0,0,-1,1427,722,0,0
210,302,0,0,0,0,0,0,0,0,0,-1,1434,722,0,0
217,302,0,0,0,0,0,0,0,0,0,-1,1441,722,0,0
224,302,0,0,0,0,0,0,0,0,0,-1,1448,722,0,0
231,302,0,0,0,0,0,0,0,0,0,-1,1455,722,0,0
238,302,0,0,0,0,0,0,0,0,0,-1,1462,722,0,0
245,302,0,0,0,0,0,0,0,0,0,-1,1469,722,0,0
252,302,0,0,0,0,0,0,0,0,0,-1,1476,722,0,0
259,302,0,0,0,0,0,0,0,0,0,-1,1483,722,0,0
266,302,0,0,0,0,0,0,0,0,0,-1,1490,722,0,0
273,302,0,0,0,0,0,0,0,0,0,-1,1497,722,0,0
280,302,0,0,0,0,0,0,0,0,0,-1,1504,722,0,0
287,302,0,0,0,0,0,0,0,0,0,-1,1511,722,0,0
294,302,0,0,0,0,0,0,0,0,0,-1,1518,722,0,0
301,302,0,0,0,0,0,0,0,0,0,-1,1525,722,0,0
308,302,0,0,0,0,0,0,0,0,0,-1,1532,722,0,0
315,302,0,0,0,0,0,0,0,0,0,-1,1539,722,0,0
322,302,0,0,0,0,0,0,0,0,0,-1,1546,722,0,0
329,302,0,0,0,0,0,0,0,0,0,-1,1553,722,0,0
336,302,0,0,0,0,0,0,0,0,0,-1,1560,722,0,0
343,302,0,0,0,0,0,0,0,0,0,-1,1567,722,0,0
350,302,0,0,0,0,0,0,0,0,0,-1,1574,722,0,0
357,302,0,0,0,0,0,0,0,0,0,-1,1581,722,0,0
364,302,0,0,0,0,0,0,0,0,0,-1,1588,722,0,0
371,302,0,0,0,0,0,0,0,0,0,-1,1595,722,0,0
378,302,0,0,0,0,0,0,0,0,0,-1,1602,722,0,0
385,302,0,0,0,0,0,0,0,0,0,-1,1609,722,0,0
392,302,0,0,0,0,0,0,0,0,0,-1,1616,722,0,0
399,302,0,0,0,0,0,0,0,0,0,-1,1623,722,0,0
406,302,0,0,0,0,0,0,0,0,0,-1,1630,722,0,0
413,302,0,0,0,0,0,0,0,0,0,-1,1637,722,0,0
420,302,0,0,0,0,0,0,0,0,0,-1,1644,722,0,0
427,302,0,0,0,0,0,0,0,0,0,-1,1651,722,0,0
434,302,0,0,0,0,0,0,0,0,0,-1,1658,722,0,0
441,302,0,0,0,0,0,0,0,0,0,-1,1665,722,0,0
448,302,0,0,0,0,0,0,0,0,0,-1,1672,722,0,0
455,302,0,0,0,0,0,0,0,0,0,-1,1679,722,0,0
462,302,0,0,0,0,0,0,0,0,0,-1,1686,722,0,0
469,302,0,0,0,0,0,0,0,0,0,-1,1693,722,0,0
476,302,0,0,0,0,0,0,0,0,0,-1,1700,722,0,0
483,302,0,0,0,0,0,0,0,0,0,-1,1707,722,0,0
490,302,0,0,0,0,0,0,0,0,0,-1,1714,722,0,0
497,302,0,0,0,0,0,0,0,0,0,-1,1721,722,0,0
504,302,0,0,0,0,0,0,0,0,0,-1,1728,722,0,0
511,302,0,0,0,0,0,0,0,0,0,-1,1735,722,0,0
518,302,0,0,0,0,0,0,0,0,0,-1,1742,722,0,0
525,302,0,0,0,0,0,0,0,0,0,-1,1749,722,0,0
532,302,0,0,0,0,0,0,0,0,0,-1,1756,722,0,0
539,302,0,0,0,0,0,0,0,0,0,-1,1763,722,0,0
546,302,44.5226,3.35297,0,0,0,0,0,0,0,-1,1770,722,44.5226,-3.35296
553,302,44.6987,3.58752,0,0,0,0,0,0,0,-1,1777,722,44.6988,-3.58755
560,302,44.5889,3.88361,0,0,0,0,0,0,0,-1,1784,722,44.5889,-3.88359
567,302,44.1815,4.22626,0,0,0,0,0,0,0,-1,1791,722,44.1815,-4.22627
574,302,37.9297,1.69781,0,0,0,0,0,0,0,-1,1798,722,37.9297,-1.69781
581,302,38.2401,2.2843,0,0,0,0,0,0,0,-1,1805,722,38.2402,-2.28431
588,302,26.9731,7.19983,0,0,0,0,0,0,0,-1,1812,722,26.9732,-7.19981
595,302,27.3826,8.13104,0,0,0,0,0,0,0,-1,1819,722,27.3825,-8.13102
602,302,14.7349,5.21246,0,0,0,0,0,0,0,-1,1826,722,14.7349,-5.21247
609,302,11.1578,-0.125854,0,0,0,0,0,0,0,-1,1833,722,11.1579,0.125839
616,302,27.9153,-4.45685,0,0,0,0,0,0,0,-1,1840,722,27.9153,4.45684
623,302,27.9525,-3.82574,0.000267302,0.000452675,-0.00117492,0.00153856,-0.000818584,-0.82476,0.0013819,0.0156509,1847,722,27.9525,3.82575
630,302,27.9116,-3.27319,-6.27574e-07,-0.000708869,-0.000245801,7.63198e-05,-0.000785816,-0.303383,0.000551082,0.011255,1854,722,27.9116,3.27317
637,302,27.8818,-2.69562,-0.000166683,-0.000767373,-3.14521e-05,-0.000165041,-0.000769015,-0.0521698,0.000467477,0.0142314,1861,722,27.8819,2.6956
644,302,27.8638,-2.12927,-0.000363982,-0.000519855,-0.000198512,-0.000228656,-0.000655181,-0.598342,0.000383976,0.0156748,1868,722,27.8638,2.1293
651,302,27.8528,-1.54797,-0.000796628,-0.00017576,-0.000320534,-3.9975e-05,-0.000932413,-1.17009,0.000608722,0.015132,1875,722,27.8528,1.54797
658,302,27.8619,-0.973755,-0.00150243,0.000265284,-0.000435415,0.000366713,-0.00160386,-1.34193,0.00121014,0.0165153,1882,722,27.862,0.973766
665,302,27.8488,-0.421936,-0.00236663,0.000738927,-0.000506639,0.00081949,-0.00244719,-1.4131,0.00196251,0.0154877,1889,722,27.8487,0.421943
672,302,27.8225,0.150452,-0.00336631,0.00132617,-0.000563711,0.00139294,-0.00343308,-1.4529,0.00286809,0.0116444,1896,722,27.8225,-0.15048
679,302,27.7859,0.760925,-0.00438924,0.00203848,-0.000582921,0.00209092,-0.00444168,-1.48108,0.00385214,0.00954737,1903,722,27.7859,-0.760903
686,302,27.7991,1.3504,-0.0053305,0.00287753,-0.000542049,0.00291317,-0.00536614,-1.50514,0.00484949,0.0189272,1910,722,27.799,-1.35042
693,302,27.7826,1.93457,0,0,0,0,0,0,0,-1,1917,722,27.7826,-1.93458
700,302,25.4069,1.97308,0,0,0,0,0,0,0,-1,1924,722,25.4068,-1.97311
707,302,16.7321,4.76685,0,0,0,0,0,0,0,-1,1931,722,16.7321,-4.76687
714,302,17.2,5.77594,0,0,0,0,0,0,0,-1,1938,722,17.2,-5.77595
721,302,17.7914,6.60394,0,0,0,0,0,0,0,-1,1945,722,17.7914,-6.60395
728,302,17.2798,4.81702,0,0,0,0,0,0,0,-1,1952,722,17.2798,-4.81703
735,302,0,0,0,0,0,0,0,0,0,-1,1959,722,0,0
742,302,0,0,0,0,0,0,0,0,0,-1,1966,722,0,0
749,302,0,0,0,0,0,0,0,0,0,-1,1973,722,0,0
756,302,0,0,0,0,0,0,0,0,0,-1,1980,722,0,0
763,302,0,0,0,0,0,0,0,0,0,-1,1987,722,0,0
770,302,0,0,0,0,0,0,0,0,0,-1,1994,722,0,0
777,302,0,0,0,0,0,0,0,0,0,-1,2001,722,0,0
784,302,0,0,0,0,0,0,0,0,0,-1,2008,722,0,0
791,302,0,0,0,0,0,0,0,0,0,-1,2015,722,0,0
798,302,0,0,0,0,0,0,0,0,0,-1,2022,722,0,0
805,302,0,0,0,0,0,0,0,0,0,-1,2029,722,0,0
812,302,0,0,0,0,0,0,0,0,0,-1,2036,722,0,0
-700,295,0,0,0,0,0,0,0,0,0,-1,524,729,0,0
-693,295,0,0,0,0,0,0,0,0,0,-1,531,729,0,0
-686,295,0,0,0,0,0,0,0,0,0,-1,538,729,0,0
-679,295,0,0,0,0,0,0,0,0,0,-1,545,729,0,0
-672,295,0,0,0,0,0,0,0,0,0,-1,552,729,0,0
-665,295,0,0,0,0,0,0,0,0,0,-1,559,729,0,0
-658,295,0,0,0,0,0,0,0,0,0,-1,566,729,0,0
-651,295,0,0,0,0,0,0,0,0,0,-1,573,729,0,0
-644,295,0,0,0,0,0,0,0,0,0,-1,580,729,0,0
-637,295,0,0,0,0,0,0,0,0,0,-1,587,729,0,0
-630,295,0,0,0,0,0,0,0,0,0,-1,594,729,0,0
-623,295,0,0,0,0,0,0,0,0,0,-1,601,729,0,0
-616,295,-13.4911,1.31738,0,0,0,0,0,0,0,-1,608,729,-13.4911,-1.3174
-609,295,-10.2864,0.832031,0,0,0,0,0,0,0,-1,615,729,-10.2863,-0.832034
-602,295,-8.19006,3.01587,0,0,0,0,0,0,0,-1,622,729,-8.19005,-3.01588
-595,295,-0.615479,-1.95447,0,0,0,0,0,0,0,-1,629,729,-0.615481,1.95445
-588,295,-7.98999,1.56903,0,0,0,0,0,0,0,-1,636,729,-7.98997,-1.56905
-581,295,-12.0404,0.150574,0,0,0,0,0,0,0,-1,643,729,-12.0404,-0.150604
-574,295,-12.1605,-0.0739746,0,0,0,0,0,0,0,-1,650,729,-12.1605,0.0739856
-567,295,-17.7126,0.0133667,0,0,0,0,0,0,0,-1,657,729,-17.7127,-0.0133385
-560,295,-17.9015,-0.649658,0.00129566,0.00592368,-0.00160435,0.00642544,0.0007939,-1.26768,0.00404505,0.0350131,664,729,-17.9015,0.649661
-553,295,-17.9,-1.20959,0.000964388,0.00435965,-0.00116396,0.00472035,0.000603682,-1.27029,0.00296622,0.0194869,671,729,-17.9,1.20961
-546,295,-17.954,-1.73395,0.00076899,0.00295086,-0.000736765,0.00317635,0.000543505,-1.2738,0.00196166,0.021109,678,729,-17.954,1.73396
-539,295,-17.9764,-2.23303,0.000568388,0.00200787,-0.000254342,0.00205148,0.000524769,-1.40095,0.00123061,0.0181562,685,729,-17.9764,2.23305
-532,295,-17.9777,-2.77661,0.000444528,0.000573668,0.000106072,0.000633278,0.000384918,1.05881,0.000368446,0.016218,692,729,-17.9777,2.7766
-525,295,-17.9744,-3.34625,0.000481112,-0.000298838,0.000546345,0.000762384,-0.000580111,0.475438,0.000777467,0.0153367,699,729,-17.9744,3.34627
-518,295,-17.9988,-3.89105,0.000236334,-0.00108006,0.000874355,0.000672541,-0.00151626,0.46276,0.00129462,0.0114812,706,729,-17.9988,3.89104
-511,295,-17.9918,-4.4422,-0.000518067,-0.00191687,0.00117193,0.000147296,-0.00258223,0.516369,0.00177263,0.0097165,713,729,-17.9918,4.44221
-504,295,-18.0063,-4.98499,-0.00276665,-0.00317412,0.000776193,-0.0021679,-0.00377287,0.657053,0.00218634,0.011554,720,729,-18.0064,4.98498
-497,295,-18.0874,-5.43506,-0.00593007,-0.00531057,-0.000745923,-0.00481264,-0.006428,-0.982194,0.0038612,0.0231163,727,729,-18.0874,5.43504
-490,295,-18.176,-5.84979,0,0,0,0,0,0,0,-1,734,729,-18.176,5.8498
-483,295,-6.84503,-0.454651,0,0,0,0,0,0,0,-1,741,729,-6.84505,0.454639
-476,295,-13.1738,-0.836243,0,0,0,0,0,0,0,-1,748,729,-13.1738,0.836223
-469,295,-26.5608,-0.466187,0,0,0,0,0,0,0,-1,755,729,-26.5608,0.466162
-462,295,-29.7701,-0.792664,0,0,0,0,0,0,0,-1,762,729,-29.7701,0.792642
-455,295,-37.14,-1.6676,0,0,0,0,0,0,0,-1,769,729,-37.14,1.66761
-448,295,-37.1309,-1.22095,0,0,0,0,0,0,0,-1,776,729,-37.1308,1.22097
-441,295,-37.28,-1.02405,-0.0105536,-0.0467488,-0.0575384,0.0316662,-0.0889686,-0.633031,0.0722202,0.0490184,783,729,-37.28,1.02408
-434,295,-37.5234,-0.676086,-0.00486295,-0.0519457,-0.071396,0.0467726,-0.103581,-0.626146,0.0888483,0.0490014,790,729,-37.5234,0.676077
-427,295,0,0,0,0,0,0,0,0,0,-1,797,729,0,0
-420,295,0,0,0,0,0,0,0,0,0,-1,804,729,0,0
-413,295,0,0,0,0,0,0,0,0,0,-1,811,729,0,0
-406,295,0,0,0,0,0,0,0,0,0,-1,818,729,0,0
-399,295,0,0,0,0,0,0,0,0,0,-1,825,729,0,0
-392,295,0,0,0,0,0,0,0,0,0,-1,832,729,0,0
-385,295,0,0,0,0,0,0,0,0,0,-1,839,729,0,0
-378,295,0,0,0,0,0,0,0,0,0,-1,846,729,0,0
-371,295,0,0,0,0,0,0,0,0,0,-1,853,729,0,0
-364,295,0,0,0,0,0,0,0,0,0,-1,860,729,0,0
-357,295,0,0,0,0,0,0,0,0,0,-1,867,729,0,0
-350,295,0,0,0,0,0,0,0,0,0,-1,874,729,0,0
-343,295,0,0,0,0,0,0,0,0,0,-1,881,729,0,0
-336,295,0,0,0,0,0,0,0,0,0,-1,888,729,0,0
-329,295,0,0,0,0,0,0,0,0,0,-1,895,729,0,0
-322,295,0,0,0,0,0,0,0,0,0,-1,902,729,0,0
-315,295,0,0,0,0,0,0,0,0,0,-1,909,729,0,0
-308,295,0,0,0,0,0,0,0,0,0,-1,916,729,0,0
-301,295,0,0,0,0,0,0,0,0,0,-1,923,729,0,0
-294,295,0,0,0,0,0,0,0,0,0,-1,930,729,0,0
-287,295,0,0,0,0,0,0,0,0,0,-1,937,729,0,0
-280,295,0,0,0,0,0,0,0,0,0,-1,944,729,0,0
-273,295,0,0,0,0,0,0,0,0,0,-1,951,729,0,0
-266,295,0,0,0,0,0,0,0,0,0,-1,958,729,0,0
-259,295,0,0,0,0,0,0,0,0,0,-1,965,729,0,0
-252,295,0,0,0,0,0,0,0,0,0,-1,972,729,0,0
-245,295,0,0,0,0,0,0,0,0,0,-1,979,729,0,0
-238,295,0,0,0,0,0,0,0,0,0,-1,986,729,0,0
-231,295,0,0,0,0,0,0,0,0,0,-1,993,729,0,0
-224,295,0,0,0,0,0,0,0,0,0,-1,1000,729,0,0
-217,295,0,0,0,0,0,0,0,0,0,-1,1007,729,0,0
-210,295,0,0,0,0,0,0,0,0,0,-1,1014,729,0,0
-203,295,0,0,0,0,0,0,0,0,0,-1,1021,729,0,0
-196,295,0,0,0,0,0,0,0,0,0,-1,1028,729,0,0
-189,295,0,0,0,0,0,0,0,0,0,-1,1035,729,0,0
-182,295,0,0,0,0,0,0,0,0,0,-1,1042,729,0,0
-175,295,0,0,0,0,0,0,0,0,0,-1,1049,729,0,0
-168,295,0,0,0,0,0,0,0,0,0,-1,1056,729,0,0
-161,295,0,0,0,0,0,0,0,0,0,-1,1063,729,0,0
-154,295,0,0,0,0,0,0,0,0,0,-1,1070,729,0,0
-147,295,0,0,0,0,0,0,0,0,0,-1,1077,729,0,0
-140,295,0,0,0,0,0,0,0,0,0,-1,1084,729,0,0
-133,295,0,0,0,0,0,0,0,0,0,-1,1091,729,0,0
-126,295,0,0,0,0,0,0,0,0,0,-1,1098,729,0,0
-119,295,0,0,0,0,0,0,0,0,0,-1,1105,729,0,0
-112,295,0,0,0,0,0,0,0,0,0,-1,1112,729,0,0
-105,295,0,0,0,0,0,0,0,0,0,-1,1119,729,0,0
-98,295,0,0,0,0,0,0,0,0,0,-1,1126,729,0,0
-91,295,0,0,0,0,0,0,0,0,0,-1,1133,729,0,0
-84,295,0,0,0,0,0,0,0,0,0,-1,1140,729,0,0
-77,295,0,0,0,0,0,0,0,0,0,-1,1147,729,0,0
-70,295,0,0,0,0,0,0,0,0,0,-1,1154,729,0,0
-63,295,0,0,0,0,0,0,0,0,0,-1,1161,729,0,0
-56,295,0,0,0,0,0,0,0,0,0,-1,1168,729,0,0
-49,295,0,0,0,0,0,0,0,0,0,-1,1175,729,0,0
-42,295,0,0,0,0,0,0,0,0,0,-1,1182,729,0,0
-35,295,0,0,0,0,0,0,0,0,0,-1,1189,729,0,0
-28,295,0,0,0,0,0,0,0,0,0,-1,1196,729,0,0
-21,295,0,0,0,0,0,0,0,0,0,-1,1203,729,0,0
-14,295,0,0,0,0,0,0,0,0,0,-1,1210,729,0,0
-7,295,0,0,0,0,0,0,0,0,0,-1,1217,729,0,0
0,295,0,0,0,0,0,0,0,0,0,-1,1224,729,0,0
7,295,0,0,0,0,0,0,0,0,0,-1,1231,729,0,0
14,295,0,0,0,0,0,0,0,0,0,-1,1238,729,0,0
21,295,0,0,0,0,0,0,0,0,0,-1,1245,729,0,0
28,295,0,0,0,0,0,0,0,0,0,-1,1252,729,0,0
35,295,0,0,0,0,0,0,0,0,0,-1,1259,729,0,0
42,295,0,0,0,0,0,0,0,0,0,-1,1266,729,0,0
49,295,0,0,0,0,0,0,0,0,0,-1,1273,729,0,0
56,295,0,0,0,0,0,0,0,0,0,-1,1280,729,0,0
63,295,0,0,0,0,0,0,0,0,0,-1,1287,729,0,0
70,295,0,0,0,0,0,0,0,0,0,-1,1294,729,0,0
77,295,0,0,0,0,0,0,0,0,0,-1,1301,729,0,0
84,295,0,0,0,0,0,0,0,0,0,-1,1308,729,0,0
91,295,0,0,0,0,0,0,0,0,0,-1,1315,729,0,0
98,295,0,0,0,0,0,0,0,0,0,-1,1322,729,0,0
105,295,0,0,0,0,0,0,0,0,0,-1,1329,729,0,0
112,295,0,0,0,0,0,0,0,0,0,-1,1336,729,0,0
119,295,0,0,0,0,0,0,0,0,0,-1,1343,729,0,0
126,295,0,0,0,0,0,0,0,0,0,-1,1350,729,0,0
133,295,0,0,0,0,0,0,0,0,0,-1,1357,729,0,0
140,295,0,0,0,0,0,0,0,0,0,-1,1364,729,0,0
147,295,0,0,0,0,0,0,0,0,0,-1,1371,729,0,0
154,295,0,0,0,0,0,0,0,0,0,-1,1378,729,0,0
161,295,0,0,0,0,0,0,0,0,0,-1,1385,729,0,0
168,295,0,0,0,0,0,0,0,0,0,-1,1392,729,0,0
175,295,0,0,0,0,0,0,0,0,0,-1,1399,729,0,0
182,295,0,0,0,0,0,0,0,0,0,-1,1406,729,0,0
189,295,0,0,0,0,0,0,0,0,0,-1,1413,729,0,0
196,295,0,0,0,0,0,0,0,0,0,-1,1420,729,0,0
203,295,0,0,0,0,0,0,0,0,0,-1,1427,729,0,0
210,295,0,0,0,0,0,0,0,0,0,-1,1434,729,0,0
217,295,0,0,0,0,0,0,0,0,0,-1,1441,729,0,0
224,295,0,0,0,0,0,0,0,0,0,-1,1448,729,0,0
231,295,0,0,0,0,0,0,0,0,0,-1,1455,729,0,0
238,295,0,0,0,0,0,0,0,0,0,-1,1462,729,0,0
245,295,0,0,0,0,0,0,0,0,0,-1,1469,729,0,0
252,295,0,0,0,0,0,0,0,0,0,-1,1476,729,0,0
259,295,0,0,0,0,0,0,0,0,0,-1,1483,729,0,0
266,295,0,0,0,0,0,0,0,0,0,-1,1490,729,0,0
273,295,0,0,0,0,0,0,0,0,0,-1,1497,729,0,0
280,295,0,0,0,0,0,0,0,0,0,-1,1504,729,0,0
287,295,0,0,0,0,0,0,0,0,0,-1,1511,729,0,0
294,295,0,0,0,0,0,0,0,0,0,-1,1518,729,0,0
301,295,0,0,0,0,0,0,0,0,0,-1,1525,729,0,0
308,295,0,0,0,0,0,0,0,0,0,-1,1532,729,0,0
315,295,0,0,0,0,0,0,0,0,0,-1,1539,729,0,0
322,295,0,0,0,0,0,0,0,0,0,-1,1546,729,0,0
329,295,0,0,0,0,0,0,0,0,0,-1,1553,729,0,0
336,295,0,0,0,0,0,0,0,0,0,-1,1560,729,0,0
343,295,0,0,0,0,0,0,0,0,0,-1,1567,729,0,0
350,295,0,0,0,0,0,0,0,0,0,-1,1574,729,0,0
357,295,0,0,0,0,0,0,0,0,0,-1,1581,729,0,0
364,295,0,0,0,0,0,0,0,0,0,-1,1588,729,0,0
371,295,0,0,0,0,0,0,0,0,0,-1,1595,729,0,0
378,295,0,0,0,0,0,0,0,0,0,-1,1602,729,0,0
385,295,0,0,0,0,0,0,0,0,0,-1,1609,729,0,0
392,295,0,0,0,0,0,0,0,0,0,-1,1616,729,0,0
399,295,0,0,0,0,0,0,0,0,0,-1,1623,729,0,0
406,295,0,0,0,0,0,0,0,0,0,-1,1630,729,0,0
413,295,0,0,0,0,0,0,0,0,0,-1,1637,729,0,0
420,295,0,0,0,0,0,0,0,0,0,-1,1644,729,0,0
427,295,0,0,0,0,0,0,0,0,0,-1,1651,729,0,0
434,295,0,0,0,0,0,0,0,0,0,-1,1658,729,0,0
441,295,0,0,0,0,0,0,0,0,0,-1,1665,729,0,0
448,295,0,0,0,0,0,0,0,0,0,-1,1672,729,0,0
455,295,0,0,0,0,0,0,0,0,0,-1,1679,729,0,0
462,295,0,0,0,0,0,0,0,0,0,-1,1686,729,0,0
469,295,0,0,0,0,0,0,0,0,0,-1,1693,729,0,0
476,295,0,0,0,0,0,0,0,0,0,-1,1700,729,0,0
483,295,0,0,0,0,0,0,0,0,0,-1,1707,729,0,0
490,295,0,0,0,0,0,0,0,0,0,-1,1714,729,0,0
497,295,0,0,0,0,0,0,0,0,0,-1,1721,729,0,0
504,295,0,0,0,0,0,0,0,0,0,-1,1728,729,0,0
511,295,0,0,0,0,0,0,0,0,0,-1,1735,729,0,0
518,295,0,0,0,0,0,0,0,0,0,-1,1742,729,0,0
525,295,0,0,0,0,0,0,0,0,0,-1,1749,729,0,0
532,295,0,0,0,0,0,0,0,0,0,-1,1756,729,0,0
539,295,0,0,0,0,0,0,0,0,0,-1,1763,729,0,0
546,295,45.0194,2.68616,0,0,0,0,0,0,0,-1,1770,729,45.0194,-2.68618
553,295,44.8136,3.06067,0,0,0,0,0,0,0,-1,1777,729,44.8136,-3.06068
560,295,44.6329,3.6228,0,0,0,0,0,0,0,-1,1784,729,44.6329,-3.62281
567,295,43.2754,3.1236,0,0,0,0,0,0,0,-1,1791,729,43.2754,-3.1236
574,295,43.2974,4.64819,0,0,0,0,0,0,0,-1,1798,729,43.2974,-4.64822
581,295,37.8191,2.19592,0,0,0,0,0,0,0,-1,1805,729,37.8191,-2.19594
588,295,39.0542,2.45679,0,0,0,0,0,0,0,-1,1812,729,39.0542,-2.45676
595,295,27.2102,6.99121,0,0,0,0,0,0,0,-1,1819,729,27.2103,-6.99121
602,295,26.9065,7.82141,0,0,0,0,0,0,0,-1,1826,729,26.9064,-7.8214
609,295,11.7737,2.19989,0,0,0,0,0,0,0,-1,1833,729,11.7736,-2.19988
616,295,28.5283,-4.32013,0,0,0,0,0,0,0,-1,1840,729,28.5283,4.32011
623,295,28.4948,-3.79382,4.01887e-05,0.000211452,-0.0012864,0.00141507,-0.00116342,-0.818633,0.00149105,0.0338017,1847,729,28.4947,3.79383
630,295,28.4788,-3.23779,-0.000314263,-0.00106659,-0.000338558,-0.000184343,-0.00119651,-0.366415,0.00074388,0.0132391,1854,729,28.4787,3.23778
637,295,28.4763,-2.65826,-0.000421939,-0.00113629,-2.74364e-05,-0.000420887,-0.00113734,-0.0383324,0.000663993,0.0140447,1861,729,28.4763,2.65828
644,295,28.4675,-2.09497,-0.00028568,-0.000762666,-0.00013997,-0.00024764,-0.000800706,-0.265362,0.000473366,0.0131897,1868,729,28.4675,2.09494
651,295,28.448,-1.52863,-0.000294842,-0.000360694,-0.000187584,-0.000137316,-0.000518219,-0.69852,0.000310016,0.0138771,1875,729,28.4479,1.5286
658,295,28.4131,-0.945068,-0.000607073,0.00019414,-0.000189203,0.000236572,-0.000649505,-1.35018,0.000529771,0.0137306,1882,729,28.4131,0.945064
665,295,28.3866,-0.390564,-0.00112364,0.000802467,-0.000106958,0.000808389,-0.00112956,-1.51549,0.00112399,0.0120122,1889,729,28.3866,0.390561
672,295,28.3787,0.16333,-0.00175449,0.00153783,1.9688e-05,0.00153795,-0.0017546,1.56482,0.00190233,0.013154,1896,729,28.3786,-0.163304
679,295,28.3529,0.754944,-0.00229511,0.00238703,0.000212347,0.00239664,-0.00230472,1.52557,0.00271451,0.010364,1903,729,28.3529,-0.754965
686,295,28.3655,1.3194,-0.00269967,0.00337619,0.000485083,0.00341467,-0.00273816,1.49163,0.00355949,0.0113739,1910,729,28.3655,-1.31941
693,295,28.3373,1.87921,-0.00286932,0.00463872,0.000888222,0.00474237,-0.00297297,1.45463,0.00449333,0.0467765,1917,729,28.3373,-1.87921
700,295,28.3793,2.44183,0,0,0,0,0,0,0,-1,1924,729,28.3792,-2.44182
707,295,22.2661,3.05206,0,0,0,0,0,0,0,-1,1931,729,22.2662,-3.05207
714,295,17.4906,4.63068,0,0,0,0,0,0,0,-1,1938,729,17.4906,-4.63066
721,295,18.3792,5.32281,0,0,0,0,0,0,0,-1,1945,729,18.3791,-5.32283
728,295,17.379,3.74866,0,0,0,0,0,0,0,-1,1952,729,17.379,-3.74863
735,295,0,0,0,0,0,0,0,0,0,-1,1959,729,0,0
742,295,0,0,0,0,0,0,0,0,0,-1,1966,729,0,0
749,295,0,0,0,0,0,0,0,0,0,-1,1973,729,0,0
756,295,0,0,0,0,0,0,0,0,0,-1,1980,729,0,0
763,295,0,0,0,0,0,0,0,0,0,-1,1987,729,0,0
770,295,0,0,0,0,0,0,0,0,0,-1,1994,729,0,0
777,295,0,0,0,0,0,0,0,0,0,-1,2001,729,0,0
784,295,0,0,0,0,0,0,0,0,0,-1,2008,729,0,0
791,295,0,0,0,0,0,0,0,0,0,-1,2015,729,0,0
798,295,0,0,0,0,0,0,0,0,0,-1,2022,729,0,0
805,295,0,0,0,0,0,0,0,0,0,-1,2029,729,0,0
812,295,0,0,0,0,0,0,0,0,0,-1,2036,729,0,0
-700,288,0,0,0,0,0,0,0,0,0,-1,524,736,0,0
-693,288,0,0,0,0,0,0,0,0,0,-1,531,736,0,0
-686,288,0,0,0,0,0,0,0,0,0,-1,538,736,0,0
-679,288,0,0,0,0,0,0,0,0,0,-1,545,736,0,0
-672,288,0,0,0,0,0,0,0,0,0,-1,552,736,0,0
-665,288,0,0,0,0,0,0,0,0,0,-1,559,736,0,0
-658,288,0,0,0,0,0,0,0,0,0,-1,566,736,0,0
-651,288,0,0,0,0,0,0,0,0,0,-1,573,736,0,0
-644,288,0,0,0,0,0,0,0,0,0,-1,580,736,0,0
-637,288,0,0,0,0,0,0,0,0,0,-1,587,736,0,0
-630,288,0,0,0,0,0,0,0,0,0,-1,594,736,0,0
-623,288,0,0,0,0,0,0,0,0,0,-1,601,736,0,0
-616,288,-11.7584,2.4425,0,0,0,0,0,0,0,-1,608,736,-11.7584,-2.44251
-609,288,-10.3007,2.32178,0,0,0,0,0,0,0,-1,615,736,-10.3007,-2.32178
-602,288,-10.1458,-1.85559,0,0,0,0,0,0,0,-1,622,736,-10.1458,1.85556
-595,288,-7.63208,1.81769,0,0,0,0,0,0,0,-1,629,736,-7.63205,-1.81766
-588,288,-8.19269,1.50598,0,0,0,0,0,0,0,-1,636,736,-8.19268,-1.50601
-581,288,-13.1915,0.659241,0,0,0,0,0,0,0,-1,643,736,-13.1915,-0.659228
-574,288,-18.1013,0.401489,0,0,0,0,0,0,0,-1,650,736,-18.1013,-0.401482
-567,288,-18.2356,-0.132568,0.00226469,0.00641331,-0.00215504,0.00733015,0.00134785,-1.16855,0.0045052,0.0395075,657,736,-18.2356,0.132598
-560,288,-18.4669,-0.698364,0.00134815,0.00465198,-0.00134607,0.00513096,0.000869161,-1.22893,0.00317088,0.0180869,664,736,-18.4669,0.698361
-553,288,-18.4366,-1.18188,0.000839712,0.00325225,-0.000770462,0.00347731,0.000614654,-1.2866,0.00214291,0.0191669,671,736,-18.4366,1.18191
-546,288,-18.4698,-1.71704,0.000540486,0.00197671,-0.000263673,0.00202358,0.000493608,-1.39485,0.00121832,0.020367,678,736,-18.4699,1.71706
-539,288,-18.4935,-2.23584,0.000249143,0.00114219,0.000294083,0.00123033,0.000161,1.2796,0.000772169,0.0178009,685,736,-18.4935,2.23583
-532,288,-18.4806,-2.77258,0.000122506,-0.000231266,0.000653837,0.000622962,-0.000731722,0.653293,0.000782967,0.0146217,692,736,-18.4806,2.77258
-525,288,-18.5109,-3.32397,0.000226982,-0.000962089,0.00109466,0.000878142,-0.00161325,0.536624,0.00145913,0.0134059,699,736,-18.5109,3.32396
-518,288,-18.5541,-3.86731,-0.000148541,-0.00156142,0.0013901,0.00070433,-0.00241429,0.550309,0.0018886,0.0130449,706,736,-18.5541,3.86732
-511,288,-18.5611,-4.41278,-0.00115711,-0.00218194,0.00166254,7.01882e-05,-0.00340924,0.635911,0.00229658,0.00951709,713,736,-18.5611,4.41281
-504,288,-18.5757,-4.93524,-0.00367351,-0.00327408,0.00121411,-0.00224337,-0.00470423,0.866915,0.00271695,0.0106795,720,736,-18.5757,4.93527
-497,288,-18.6061,-5.26599,-0.00696871,-0.00523326,-0.000372051,-0.00515686,-0.00704511,-1.36827,0.00421089,0.0320644,727,736,-18.6061,5.266
-490,288,-18.5333,-5.53894,0,0,0,0,0,0,0,-1,734,736,-18.5333,5.53896
-483,288,-17.3287,0.564758,0,0,0,0,0,0,0,-1,741,736,-17.3287,-0.56477
-476,288,-26.136,0.452148,0,0,0,0,0,0,0,-1,748,736,-26.136,-0.452177
-469,288,-27.7904,0.649841,0,0,0,0,0,0,0,-1,755,736,-27.7904,-0.649854
-462,288,-34.9476,1.23218,0,0,0,0,0,0,0,-1,762,736,-34.9476,-1.23219
-455,288,-35.3354,0.743347,0,0,0,0,0,0,0,-1,769,736,-35.3354,-0.743378
-448,288,-36.1013,0.106995,0,0,0,0,0,0,0,-1,776,736,-36.1013,-0.106975
-441,288,-36.4864,-0.569519,-0.0165556,-0.0497299,-0.055222,0.0245167,-0.0908021,-0.639499,0.0701499,0.0441983,783,736,-36.4864,0.569532
-434,288,-36.2269,-0.579102,-0.0108778,-0.0552876,-0.068055,0.0385031,-0.104669,-0.627704,0.085552,0.0437369,790,736,-36.2268,0.579116
-427,288,0,0,0,0,0,0,0,0,0,-1,797,736,0,0
-420,288,0,0,0,0,0,0,0,0,0,-1,804,736,0,0
-413,288,0,0,0,0,0,0,0,0,0,-1,811,736,0,0
-406,288,0,0,0,0,0,0,0,0,0,-1,818,736,0,0
-399,288,0,0,0,0,0,0,0,0,0,-1,825,736,0,0
-392,288,0,0,0,0,0,0,0,0,0,-1,832,736,0,0
-385,288,0,0,0,0,0,0,0,0,0,-1,839,736,0,0
-378,288,0,0,0,0,0,0,0,0,0,-1,846,736,0,0
-371,288,0,0,0,0,0,0,0,0,0,-1,853,736,0,0
-364,288,0,0,0,0,0,0,0,0,0,-1,860,736,0,0
-357,288,0,0,0,0,0,0,0,0,0,-1,867,736,0,0
-350,288,0,0,0,0,0,0,0,0,0,-1,874,736,0,0
-343,288,0,0,0,0,0,0,0,0,0,-1,881,736,0,0
-336,288,0,0,0,0,0,0,0,0,0,-1,888,736,0,0
-329,288,0,0,0,0,0,0,0,0,0,-1,895,736,0,0
-322,288,0,0,0,0,0,0,0,0,0,-1,902,736,0,0
-315,288,0,0,0,0,0,0,0,0,0,-1,909,736,0,0
-308,288,0,0,0,0,0,0,0,0,0,-1,916,736,0,0
-301,288,0,0,0,0,0,0,0,0,0,-1,923,736,0,0
-294,288,0,0,0,0,0,0,0,0,0,-1,930,736,0,0
-287,288,0,0,0,0,0,0,0,0,0,-1,937,736,0,0
-280,288,0,0,0,0,0,0,0,0,0,-1,944,736,0,0
-273,288,0,0,0,0,0,0,0,0,0,-1,951,736,0,0
-266,288,0,0,0,0,0,0,0,0,0,-1,958,736,0,0
-259,288,0,0,0,0,0,0,0,0,0,-1,965,736,0,0
-252,288,0,0,0,0,0,0,0,0,0,-1,972,736,0,0
-245,288,0,0,0,0,0,0,0,0,0,-1,979,736,0,0
-238,288,0,0,0,0,0,0,0,0,0,-1,986,736,0,0
-231,288,0,0,0,0,0,0,0,0,0,-1,993,736,0,0
-224,288,0,0,0,0,0,0,0,0,0,-1,1000,736,0,0
-217,288,0,0,0,0,0,0,0,0,0,-1,1007,736,0,0
-210,288,0,0,0,0,0,0,0,0,0,-1,1014,736,0,0
-203,288,0,0,0,0,0,0,0,0,0,-1,1021,736,0,0
-196,288,0,0,0,0,0,0,0,0,0,-1,1028,736,0,0
-189,288,0,0,0,0,0,0,0,0,0,-1,1035,736,0,0
-182,288,0,0,0,0,0,0,0,0,0,-1,1042,736,0,0
-175,288,0,0,0,0,0,0,0,0,0,-1,1049,736,0,0
-168,288,0,0,0,0,0,0,0,0,0,-1,1056,736,0,0
-161,288,0,0,0,0,0,0,0,0,0,-1,1063,736,0,0
-154,288,0,0,0,0,0,0,0,0,0,-1,1070,736,0,0
-147,288,0,0,0,0,0,0,0,0,0,-1,1077,736,0,0
-140,288,0,0,0,0,0,0,0,0,0,-1,1084,736,0,0
-133,288,0,0,0,0,0,0,0,0,0,-1,1091,736,0,0
-126,288,0,0,0,0,0,0,0,0,0,-1,1098,736,0,0
-119,288,0,0,0,0,0,0,0,0,0,-1,1105,736,0,0
-112,288,0,0,0,0,0,0,0,0,0,-1,1112,736,0,0
-105,288,0,0,0,0,0,0,0,0,0,-1,1119,736,0,0
-98,288,0,0,0,0,0,0,0,0,0,-1,1126,736,0,0
-91,288,0,0,0,0,0,0,0,0,0,-1,1133,736,0,0
-84,288,0,0,0,0,0,0,0,0,0,-1,1140,736,0,0
-77,288,0,0,0,0,0,0,0,0,0,-1,1147,736,0,0
-70,288,0,0,0,0,0,0,0,0,0,-1,1154,736,0,0
-63,288,0,0,0,0,0,0,0,0,0,-1,1161,736,0,0
-56,288,0,0,0,0,0,0,0,0,0,-1,1168,736,0,0
-49,288,0,0,0,0,0,0,0,0,0,-1,1175,736,0,0
-42,288,0,0,0,0,0,0,0,0,0,-1,1182,736,0,0
-35,288,0,0,0,0,0,0,0,0,0,-1,1189,736,0,0
-28,288,0,0,0,0,0,0,0,0,0,-1,1196,736,0,0
-21,288,0,0,0,0,0,0,0,0,0,-1,1203,736,0,0
-14,288,0,0,0,0,0,0,0,0,0,-1,1210,736,0,0
-7,288,0,0,0,0,0,0,0,0,0,-1,1217,736,0,0
0,288,0,0,0,0,0,0,0,0,0,-1,1224,736,0,0
7,288,0,0,0,0,0,0,0,0,0,-1,1231,736,0,0
14,288,0,0,0,0,0,0,0,0,0,-1,1238,736,0,0
21,288,0,0,0,0,0,0,0,0,0,-1,1245,736,0,0
28,288,0,0,0,0,0,0,0,0,0,-1,1252,736,0,0
35,288,0,0,0,0,0,0,0,0,0,-1,1259,736,0,0
42,288,0,0,0,0,0,0,0,0,0,-1,1266,736,0,0
49,288,0,0,0,0,0,0,0,0,0,-1,1273,736,0,0
56,288,0,0,0,0,0,0,0,0,0,-1,1280,736,0,0
63,288,0,0,0,0,0,0,0,0,0,-1,1287,736,0,0
70,288,0,0,0,0,0,0,0,0,0,-1,1294,736,0,0
77,288,0,0,0,0,0,0,0,0,0,-1,1301,736,0,0
84,288,0,0,0,0,0,0,0,0,0,-1,1308,736,0,0
91,288,0,0,0,0,0,0,0,0,0,-1,1315,736,0,0
98,288,0,0,0,0,0,0,0,0,0,-1,1322,736,0,0
105,288,0,0,0,0,0,0,0,0,0,-1,1329,736,0,0
112,288,0,0,0,0,0,0,0,0,0,-1,1336,736,0,0
119,288,0,0,0,0,0,0,0,0,0,-1,1343,736,0,0
126,288,0,0,0,0,0,0,0,0,0,-1,1350,736,0,0
133,288,0,0,0,0,0,0,0,0,0,-1,1357,736,0,0
140,288,0,0,0,0,0,0,0,0,0,-1,1364,736,0,0
147,288,0,0,0,0,0,0,0,0,0,-1,1371,736,0,0
154,288,0,0,0,0,0,0,0,0,0,-1,1378,736,0,0
161,288,0,0,0,0,0,0,0,0,0,-1,1385,736,0,0
168,288,0,0,0,0,0,0,0,0,0,-1,1392,736,0,0
175,288,0,0,0,0,0,0,0,0,0,-1,1399,736,0,0
182,288,0,0,0,0,0,0,0,0,0,-1,1406,736,0,0
189,288,0,0,0,0,0,0,0,0,0,-1,1413,736,0,0
196,288,0,0,0,0,0,0,0,0,0,-1,1420,736,0,0
203,288,0,0,0,0,0,0,0,0,0,-1,1427,736,0,0
210,288,0,0,0,0,0,0,0,0,0,-1,1434,736,0,0
217,288,0,0,0,0,0,0,0,0,0,-1,1441,736,0,0
224,288,0,0,0,0,0,0,0,0,0,-1,1448,736,0,0
231,288,0,0,0,0,0,0,0,0,0,-1,1455,736,0,0
238,288,0,0,0,0,0,0,0,0,0,-1,1462,736,0,0
245,288,0,0,0,0,0,0,0,0,0,-1,1469,736,0,0
252,288,0,0,0,0,0,0,0,0,0,-1,1476,736,0,0
259,288,0,0,0,0,0,0,0,0,0,-1,1483,736,0,0
266,288,0,0,0,0,0,0,0,0,0,-1,1490,736,0,0
273,288,0,0,0,0,0,0,0,0,0,-1,1497,736,0,0
280,288,0,0,0,0,0,0,0,0,0,-1,1504,736,0,0
287,288,0,0,0,0,0,0,0,0,0,-1,1511,736,0,0
294,288,0,0,0,0,0,0,0,0,0,-1,1518,736,0,0
301,288,0,0,0,0,0,0,0,0,0,-1,1525,736,0,0
308,288,0,0,0,0,0,0,0,0,0,-1,1532,736,0,0
315,288,0,0,0,0,0,0,0,0,0,-1,1539,736,0,0
322,288,0,0,0,0,0,0,0,0,0,-1,1546,736,0,0
329,288,0,0,0,0,0,0,0,0,0,-1,1553,736,0,0
336,288,0,0,0,0,0,0,0,0,0,-1,1560,736,0,0
343,288,0,0,0,0,0,0,0,0,0,-1,1567,736,0,0
350,288,0,0,0,0,0,0,0,0,0,-1,1574,736,0,0
357,288,0,0,0,0,0,0,0,0,0,-1,1581,736,0,0
364,288,0,0,0,0,0,0,0,0,0,-1,1588,736,0,0
371,288,0,0,0,0,0,0,0,0,0,-1,1595,736,0,0
378,288,0,0,0,0,0,0,0,0,0,-1,1602,736,0,0
385,288,0,0,0,0,0,0,0,0,0,-1,1609,736,0,0
392,288,0,0,0,0,0,0,0,0,0,-1,1616,736,0,0
399,288,0,0,0,0,0,0,0,0,0,-1,1623,736,0,0
406,288,0,0,0,0,0,0,0,0,0,-1,1630,736,0,0
413,288,0,0,0,0,0,0,0,0,0,-1,1637,736,0,0
420,288,0,0,0,0,0,0,0,0,0,-1,1644,736,0,0
427,288,0,0,0,0,0,0,0,0,0,-1,1651,736,0,0
434,288,0,0,0,0,0,0,0,0,0,-1,1658,736,0,0
441,288,0,0,0,0,0,0,0,0,0,-1,1665,736,0,0
448,288,0,0,0,0,0,0,0,0,0,-1,1672,736,0,0
455,288,0,0,0,0,0,0,0,0,0,-1,1679,736,0,0
462,288,0,0,0,0,0,0,0,0,0,-1,1686,736,0,0
469,288,0,0,0,0,0,0,0,0,0,-1,1693,736,0,0
476,288,0,0,0,0,0,0,0,0,0,-1,1700,736,0,0
483,288,0,0,0,0,0,0,0,0,0,-1,1707,736,0,0
490,288,0,0,0,0,0,0,0,0,0,-1,1714,736,0,0
497,288,0,0,0,0,0,0,0,0,0,-1,1721,736,0,0
504,288,0,0,0,0,0,0,0,0,0,-1,1728,736,0,0
511,288,0,0,0,0,0,0,0,0,0,-1,1735,736,0,0
518,288,0,0,0,0,0,0,0,0,0,-1,1742,736,0,0
525,288,0,0,0,0,0,0,0,0,0,-1,1749,736,0,0
532,288,0,0,0,0,0,0,0,0,0,-1,1756,736,0,0
539,288,0,0,0,0,0,0,0,0,0,-1,1763,736,0,0
546,288,0,0,0,0,0,0,0,0,0,-1,1770,736,0,0
553,288,44.6665,2.66455,0,0,0,0,0,0,0,-1,1777,736,44.6665,-2.66458
560,288,43.9017,2.60944,0,0,0,0,0,0,0,-1,1784,736,43.9018,-2.60942
567,288,43.8512,3.20886,0,0,0,0,0,0,0,-1,1791,736,43.8513,-3.20884
574,288,44.5402,4.56,0,0,0,0,0,0,0,-1,1798,736,44.5402,-4.55998
581,288,45.3121,3.33099,0,0,0,0,0,0,0,-1,1805,736,45.3121,-3.33101
588,288,45.3058,4.14844,0,0,0,0,0,0,0,-1,1812,736,45.3057,-4.14844
595,288,40.1831,2.50763,0,0,0,0,0,0,0,-1,1819,736,40.1831,-2.50762
602,288,26.7634,7.61279,0,0,0,0,0,0,0,-1,1826,736,26.7635,-7.61279
609,288,17.5223,4.86414,0,0,0,0,0,0,0,-1,1833,736,17.5223,-4.86412
616,288,13.4886,0.801331,0,0,0,0,0,0,0,-1,1840,736,13.4886,-0.80132
623,288,29.0449,-3.7951,0,0,0,0,0,0,0,-1,1847,736,29.0449,3.7951
630,288,29.0229,-3.15631,-0.000570538,-0.00108666,-0.000354735,-0.000389929,-0.00126727,-0.470932,0.000749482,0.0256428,1854,736,29.023,3.15631
637,288,29.0577,-2.62671,-0.000721674,-0.0012904,-7.33058e-06,-0.00072158,-0.00129049,-0.0128867,0.000746802,0.0112181,1861,736,29.0577,2.62673
644,288,29.0508,-2.07178,-0.000374231,-0.000939392,-9.96311e-05,-0.000357181,-0.000956442,-0.169484,0.000558067,0.00978373,1868,736,29.0508,2.07178
651,288,29.0276,-1.52197,-4.84514e-05,-0.000597129,-0.000135574,-1.67801e-05,-0.0006288,-0.229493,0.00041372,0.0112614,1875,736,29.0276,1.52198
658,288,28.9983,-0.931274,-4.72035e-05,-3.50744e-05,-9.83912e-05,5.7439e-05,-0.000139717,-0.816178,0.000117085,0.0170453,1882,736,28.9982,0.931286
665,288,28.958,-0.364685,-0.000321749,0.000633436,6.91058e-05,0.00063841,-0.000326723,1.49895,0.000566823,0.0169476,1889,736,28.958,0.364697
672,288,28.9562,0.180664,-0.000745216,0.00146434,0.000321197,0.00151008,-0.000790961,1.42933,0.00134996,0.0156609,1896,736,28.9562,-0.180668
679,288,28.9458,0.769104,-0.00103425,0.0023747,0.000615518,0.00248244,-0.00114198,1.39752,0.00213973,0.0134338,1903,736,28.9458,-0.769099
686,288,28.9063,1.2995,-0.00116719,0.00342294,0.000991899,0.00362812,-0.00137236,1.36682,0.00298334,0.0105834,1910,736,28.9063,-1.2995
693,288,28.9189,1.92957,-0.00103729,0.00471355,0.00151152,0.00508663,-0.00141037,1.32881,0.00394614,0.0212743,1917,736,28.919,-1.92957
700,288,28.8093,2.67627,-0.000501116,0.0064624,0.00231909,0.00716404,-0.00120276,1.277,0.00522331,0.0463775,1924,736,28.8093,-2.67628
707,288,28.8848,3.48322,0,0,0,0,0,0,0,-1,1931,736,28.8848,-3.48322
714,288,23.0149,3.82544,0,0,0,0,0,0,0,-1,1938,736,23.0149,-3.82541
721,288,18.0732,3.69385,0,0,0,0,0,0,0,-1,1945,736,18.0732,-3.69387
728,288,19.3208,3.91455,0,0,0,0,0,0,0,-1,1952,736,19.3209,-3.91455
735,288,18.7712,3.51312,0,0,0,0,0,0,0,-1,1959,736,18.7713,-3.51309
742,288,0,0,0,0,0,0,0,0,0,-1,1966,736,0,0
749,288,0,0,0,0,0,0,0,0,0,-1,1973,736,0,0
756,288,0,0,0,0,0,0,0,0,0,-1,1980,736,0,0
763,288,0,0,0,0,0,0,0,0,0,-1,1987,736,0,0
770,288,0,0,0,0,0,0,0,0,0,-1,1994,736,0,0
777,288,0,0,0,0,0,0,0,0,0,-1,2001,736,0,0
784,288,0,0,0,0,0,0,0,0,0,-1,2008,736,0,0
791,288,0,0,0,0,0,0,0,0,0,-1,2015,736,0,0
798,288,0,0,0,0,0,0,0,0,0,-1,2022,736,0,0
805,288,0,0,0,0,0,0,0,0,0,-1,2029,736,0,0
812,288,0,0,0,0,0,0,0,0,0,-1,2036,736,0,0
-700,281,0,0,0,0,0,0,0,0,0,-1,524,743,0,0
-693,281,0,0,0,0,0,0,0,0,0,-1,531,743,0,0
-686,281,0,0,0,0,0,0,0,0,0,-1,538,743,0,0
-679,281,0,0,0,0,0,0,0,0,0,-1,545,743,0,0
-672,281,0,0,0,0,0,0,0,0,0,-1,552,743,0,0
-665,281,0,0,0,0,0,0,0,0,0,-1,559,743,0,0
-658,281,0,0,0,0,0,0,0,0,0,-1,566,743,0,0
-651,281,0,0,0,0,0,0,0,0,0,-1,573,743,0,0
-644,281,0,0,0,0,0,0,0,0,0,-1,580,743,0,0
-637,281,0,0,0,0,0,0,0,0,0,-1,587,743,0,0
-630,281,0,0,0,0,0,0,0,0,0,-1,594,743,0,0
-623,281,-19.1697,5.67017,0,0,0,0,0,0,0,-1,601,743,-19.1697,-5.67019
-616,281,-11.5906,2.6853,0,0,0,0,0,0,0,-1,608,743,-11.5906,-2.68529
-609,281,-16.1972,4.14838,0,0,0,0,0,0,0,-1,615,743,-16.1972,-4.14837
-602,281,-12.7697,3.94086,0,0,0,0,0,0,0,-1,622,743,-12.7697,-3.94086
-595,281,-10.4797,-1.07404,0,0,0,0,0,0,0,-1,629,743,-10.4798,1.07402
-588,281,-13.277,1.49817,0,0,0,0,0,0,0,-1,636,743,-13.2771,-1.49817
-581,281,-18.9448,0.978699,0,0,0,0,0,0,0,-1,643,743,-18.9448,-0.978669
-574,281,-18.8524,0.427368,0.0037432,0.0060755,-0.00263791,0.00779353,0.00202518,-0.99352,0.00466939,0.0419315,650,743,-18.8524,-0.427389
-567,281,-18.968,-0.0971069,0.00215043,0.00441532,-0.00143688,0.00511237,0.00145338,-1.11913,0.00304181,0.0200763,657,743,-18.968,0.0970844
-560,281,-19.0284,-0.637512,0.00106536,0.00297328,-0.000580343,0.00313594,0.000902698,-1.29753,0.00186407,0.00915535,664,743,-19.0284,0.637527
-553,281,-19.0038,-1.17432,0.000441951,0.00178342,1.55503e-05,0.0017836,0.000441771,1.55921,0.00107258,0.0132726,671,743,-19.0038,1.17434
-546,281,-19.0083,-1.68359,9.75271e-05,0.000724809,0.000486199,0.000989753,-0.000167416,1.07186,0.000722139,0.0153989,678,743,-19.0083,1.68361
-539,281,-19.032,-2.22644,-0.000221799,6.8404e-05,0.00101708,0.000950677,-0.00110407,0.856253,0.00118741,0.0146469,685,743,-19.032,2.22645
-532,281,-19.0557,-2.75696,-0.000301487,-0.00108853,0.00130394,0.000667023,-0.00205704,0.638848,0.00163957,0.0145273,692,743,-19.0557,2.75697
-525,281,-19.0916,-3.32166,-0.000136471,-0.00155599,0.00171016,0.00100536,-0.00269783,0.588702,0.00221121,0.0167277,699,743,-19.0915,3.32163
-518,281,-19.1099,-3.86841,-0.000689267,-0.00191397,0.00196248,0.000754181,-0.00335742,0.63417,0.00252746,0.0143253,706,743,-19.1099,3.86843
-511,281,-19.1234,-4.41211,-0.00193637,-0.0023497,0.0022232,8.97534e-05,-0.00437582,0.739052,0.00294759,0.0121913,713,743,-19.1234,4.41212
-504,281,-19.1576,-4.9375,-0.00458382,-0.0033049,0.00181189,-0.00202294,-0.00586578,0.955038,0.00344051,0.0151564,720,743,-19.1576,4.93749
-497,281,-19.0208,-5.40021,-0.00786246,-0.00509358,0.000290216,-0.00506349,-0.00789255,1.46748,0.00461723,0.0469866,727,743,-19.0208,5.4002
-490,281,-18.8088,-5.75317,0,0,0,0,0,0,0,-1,734,743,-18.8088,5.75319
-483,281,-22.1078,-2.34973,0,0,0,0,0,0,0,-1,741,743,-22.1078,2.3497
-476,281,-28.0016,2.17786,0,0,0,0,0,0,0,-1,748,743,-28.0016,-2.17786
-469,281,-34.6448,0.171692,0,0,0,0,0,0,0,-1,755,743,-34.6448,-0.171685
-462,281,-34.2302,1.18732,0,0,0,0,0,0,0,-1,762,743,-34.2302,-1.1873
-455,281,-35.0367,0.741882,-0.0217565,-0.0350687,-0.0313069,0.00359406,-0.0604193,-0.680654,0.0415294,0.0405017,769,743,-35.0367,-0.741898
-448,281,-35.6111,0.471985,-0.0224161,-0.0420768,-0.0402555,0.00919199,-0.0736849,-0.665642,0.0524564,0.0423826,776,743,-35.6111,-0.47201
-441,281,-35.7243,0.524963,-0.0205321,-0.0488497,-0.0506687,0.0179188,-0.0873007,-0.649154,0.0650019,0.0458052,783,743,-35.7243,-0.524959
-434,281,0,0,0,0,0,0,0,0,0,-1,790,743,0,0
-427,281,0,0,0,0,0,0,0,0,0,-1,797,743,0,0
-420,281,0,0,0,0,0,0,0,0,0,-1,804,743,0,0
-413,281,0,0,0,0,0,0,0,0,0,-1,811,743,0,0
-406,281,0,0,0,0,0,0,0,0,0,-1,818,743,0,0
-399,281,0,0,0,0,0,0,0,0,0,-1,825,743,0,0
-392,281,0,0,0,0,0,0,0,0,0,-1,832,743,0,0
-385,281,0,0,0,0,0,0,0,0,0,-1,839,743,0,0
-378,281,0,0,0,0,0,0,0,0,0,-1,846,743,0,0
-371,281,0,0,0,0,0,0,0,0,0,-1,853,743,0,0
-364,281,0,0,0,0,0,0,0,0,0,-1,860,743,0,0
-357,281,0,0,0,0,0,0,0,0,0,-1,867,743,0,0
-350,281,0,0,0,0,0,0,0,0,0,-1,874,743,0,0
-343,281,0,0,0,0,0,0,0,0,0,-1,881,743,0,0
-336,281,0,0,0,0,0,0,0,0,0,-1,888,743,0,0
-329,281,0,0,0,0,0,0,0,0,0,-1,895,743,0,0
-322,281,0,0,0,0,0,0,0,0,0,-1,902,743,0,0
-315,281,0,0,0,0,0,0,0,0,0,-1,909,743,0,0
-308,281,0,0,0,0,0,0,0,0,0,-1,916,743,0,0
-301,281,0,0,0,0,0,0,0,0,0,-1,923,743,0,0
-294,281,0,0,0,0,0,0,0,0,0,-1,930,743,0,0
-287,281,0,0,0,0,0,0,0,0,0,-1,937,743,0,0
-280,281,0,0,0,0,0,0,0,0,0,-1,944,743,0,0
-273,281,0,0,0,0,0,0,0,0,0,-1,951,743,0,0
-266,281,0,0,0,0,0,0,0,0,0,-1,958,743,0,0
-259,281,0,0,0,0,0,0,0,0,0,-1,965,743,0,0
-252,281,0,0,0,0,0,0,0,0,0,-1,972,743,0,0
-245,281,0,0,0,0,0,0,0,0,0,-1,979,743,0,0
-238,281,0,0,0,0,0,0,0,0,0,-1,986,743,0,0
-231,281,0,0,0,0,0,0,0,0,0,-1,993,743,0,0
-224,281,0,0,0,0,0,0,0,0,0,-1,1000,743,0,0
-217,281,0,0,0,0,0,0,0,0,0,-1,1007,743,0,0
-210,281,0,0,0,0,0,0,0,0,0,-1,1014,743,0,0
-203,281,0,0,0,0,0,0,0,0,0,-1,1021,743,0,0
-196,281,0,0,0,0,0,0,0,0,0,-1,1028,743,0,0
-189,281,0,0,0,0,0,0,0,0,0,-1,1035,743,0,0
-182,281,0,0,0,0,0,0,0,0,0,-1,1042,743,0,0
-175,281,0,0,0,0,0,0,0,0,0,-1,1049,743,0,0
-168,281,0,0,0,0,0,0,0,0,0,-1,1056,743,0,0
-161,281,0,0,0,0,0,0,0,0,0,-1,1063,743,0,0
-154,281,0,0,0,0,0,0,0,0,0,-1,1070,743,0,0
-147,281,0,0,0,0,0,0,0,0,0,-1,1077,743,0,0
-140,281,0,0,0,0,0,0,0,0,0,-1,1084,743,0,0
-133,281,0,0,0,0,0,0,0,0,0,-1,1091,743,0,0
-126,281,0,0,0,0,0,0,0,0,0,-1,1098,743,0,0
-119,281,0,0,0,0,0,0,0,0,0,-1,1105,743,0,0
-112,281,0,0,0,0,0,0,0,0,0,-1,1112,743,0,0
-105,281,0,0,0,0,0,0,0,0,0,-1,1119,743,0,0
-98,281,0,0,0,0,0,0,0,0,0,-1,1126,743,0,0
-91,281,0,0,0,0,0,0,0,0,0,-1,1133,743,0,0
-84,281,0,0,0,0,0,0,0,0,0,-1,1140,743,0,0
-77,281,0,0,0,0,0,0,0,0,0,-1,1147,743,0,0
-70,281,0,0,0,0,0,0,0,0,0,-1,1154,743,0,0
-63,281,0,0,0,0,0,0,0,0,0,-1,1161,743,0,0
-56,281,0,0,0,0,0,0,0,0,0,-1,1168,743,0,0
-49,281,0,0,0,0,0,0,0,0,0,-1,1175,743,0,0
-42,281,0,0,0,0,0,0,0,0,0,-1,1182,743,0,0
-35,281,0,0,0,0,0,0,0,0,0,-1,1189,743,0,0
-28,281,0,0,0,0,0,0,0,0,0,-1,1196,743,0,0
-21,281,0,0,0,0,0,0,0,0,0,-1,1203,743,0,0
-14,281,0,0,0,0,0,0,0,0,0,-1,1210,743,0,0
-7,281,0,0,0,0,0,0,0,0,0,-1,1217,743,0,0
0,281,0,0,0,0,0,0,0,0,0,-1,1224,743,0,0
7,281,0,0,0,0,0,0,0,0,0,-1,1231,743,0,0
14,281,0,0,0,0,0,0,0,0,0,-1,1238,743,0,0
21,281,0,0,0,0,0,0,0,0,0,-1,1245,743,0,0
28,281,0,0,0,0,0,0,0,0,0,-1,1252,743,0,0
35,281,0,0,0,0,0,0,0,0,0,-1,1259,743,0,0
42,281,0,0,0,0,0,0,0,0,0,-1,1266,743,0,0
49,281,0,0,0,0,0,0,0,0,0,-1,1273,743,0,0
56,281,0,0,0,0,0,0,0,0,0,-1,1280,743,0,0
63,281,0,0,0,0,0,0,0,0,0,-1,1287,743,0,0
70,281,0,0,0,0,0,0,0,0,0,-1,1294,743,0,0
77,281,0,0,0,0,0,0,0,0,0,-1,1301,743,0,0
84,281,0,0,0,0,0,0,0,0,0,-1,1308,743,0,0
91,281,0,0,0,0,0,0,0,0,0,-1,1315,743,0,0
98,281,0,0,0,0,0,0,0,0,0,-1,1322,743,0,0
105,281,0,0,0,0,0,0,0,0,0,-1,1329,743,0,0
112,281,0,0,0,0,0,0,0,0,0,-1,1336,743,0,0
119,281,0,0,0,0,0,0,0,0,0,-1,1343,743,0,0
126,281,0,0,0,0,0,0,0,0,0,-1,1350,743,0,0
133,281,0,0,0,0,0,0,0,0,0,-1,1357,743,0,0
140,281,0,0,0,0,0,0,0,0,0,-1,1364,743,0,0
147,281,0,0,0,0,0,0,0,0,0,-1,1371,743,0,0
154,281,0,0,0,0,0,0,0,0,0,-1,1378,743,0,0
161,281,0,0,0,0,0,0,0,0,0,-1,1385,743,0,0
168,281,0,0,0,0,0,0,0,0,0,-1,1392,743,0,0
175,281,0,0,0,0,0,0,0,0,0,-1,1399,743,0,0
182,281,0,0,0,0,0,0,0,0,0,-1,1406,743,0,0
189,281,0,0,0,0,0,0,0,0,0,-1,1413,743,0,0
196,281,0,0,0,0,0,0,0,0,0,-1,1420,743,0,0
203,281,0,0,0,0,0,0,0,0,0,-1,1427,743,0,0
210,281,0,0,0,0,0,0,0,0,0,-1,1434,743,0,0
217,281,0,0,0,0,0,0,0,0,0,-1,1441,743,0,0
224,281,0,0,0,0,0,0,0,0,0,-1,1448,743,0,0
231,281,0,0,0,0,0,0,0,0,0,-1,1455,743,0,0
238,281,0,0,0,0,0,0,0,0,0,-1,1462,743,0,0
245,281,0,0,0,0,0,0,0,0,0,-1,1469,743,0,0
252,281,0,0,0,0,0,0,0,0,0,-1,1476,743,0,0
259,281,0,0,0,0,0,0,0,0,0,-1,1483,743,0,0
266,281,0,0,0,0,0,0,0,0,0,-1,1490,743,0,0
273,281,0,0,0,0,0,0,0,0,0,-1,1497,743,0,0
280,281,0,0,0,0,0,0,0,0,0,-1,1504,743,0,0
287,281,0,0,0,0,0,0,0,0,0,-1,1511,743,0,0
294,281,0,0,0,0,0,0,0,0,0,-1,1518,743,0,0
301,281,0,0,0,0,0,0,0,0,0,-1,1525,743,0,0
308,281,0,0,0,0,0,0,0,0,0,-1,1532,743,0,0
315,281,0,0,0,0,0,0,0,0,0,-1,1539,743,0,0
322,281,0,0,0,0,0,0,0,0,0,-1,1546,743,0,0
329,281,0,0,0,0,0,0,0,0,0,-1,1553,743,0,0
336,281,0,0,0,0,0,0,0,0,0,-1,1560,743,0,0
343,281,0,0,0,0,0,0,0,0,0,-1,1567,743,0,0
350,281,0,0,0,0,0,0,0,0,0,-1,1574,743,0,0
357,281,0,0,0,0,0,0,0,0,0,-1,1581,743,0,0
364,281,0,0,0,0,0,0,0,0,0,-1,1588,743,0,0
371,281,0,0,0,0,0,0,0,0,0,-1,1595,743,0,0
378,281,0,0,0,0,0,0,0,0,0,-1,1602,743,0,0
385,281,0,0,0,0,0,0,0,0,0,-1,1609,743,0,0
392,281,0,0,0,0,0,0,0,0,0,-1,1616,743,0,0
399,281,0,0,0,0,0,0,0,0,0,-1,1623,743,0,0
406,281,0,0,0,0,0,0,0,0,0,-1,1630,743,0,0
413,281,0,0,0,0,0,0,0,0,0,-1,1637,743,0,0
420,281,0,0,0,0,0,0,0,0,0,-1,1644,743,0,0
427,281,0,0,0,0,0,0,0,0,0,-1,1651,743,0,0
434,281,0,0,0,0,0,0,0,0,0,-1,1658,743,0,0
441,281,0,0,0,0,0,0,0,0,0,-1,1665,743,0,0
448,281,0,0,0,0,0,0,0,0,0,-1,1672,743,0,0
455,281,0,0,0,0,0,0,0,0,0,-1,1679,743,0,0
462,281,0,0,0,0,0,0,0,0,0,-1,1686,743,0,0
469,281,0,0,0,0,0,0,0,0,0,-1,1693,743,0,0
476,281,0,0,0,0,0,0,0,0,0,-1,1700,743,0,0
483,281,0,0,0,0,0,0,0,0,0,-1,1707,743,0,0
490,281,0,0,0,0,0,0,0,0,0,-1,1714,743,0,0
497,281,0,0,0,0,0,0,0,0,0,-1,1721,743,0,0
504,281,0,0,0,0,0,0,0,0,0,-1,1728,743,0,0
511,281,0,0,0,0,0,0,0,0,0,-1,1735,743,0,0
518,281,0,0,0,0,0,0,0,0,0,-1,1742,743,0,0
525,281,0,0,0,0,0,0,0,0,0,-1,1749,743,0,0
532,281,0,0,0,0,0,0,0,0,0,-1,1756,743,0,0
539,281,0,0,0,0,0,0,0,0,0,-1,1763,743,0,0
546,281,0,0,0,0,0,0,0,0,0,-1,1770,743,0,0
553,281,0,0,0,0,0,0,0,0,0,-1,1777,743,0,0
560,281,44.7529,2.8783,0,0,0,0,0,0,0,-1,1784,743,44.7529,-2.8783
567,281,44.8447,4.50818,0,0,0,0,0,0,0,-1,1791,743,44.8448,-4.50815
574,281,45.1471,4.18604,0,0,0,0,0,0,0,-1,1798,743,45.1471,-4.18603
581,281,46.0685,3.34674,0,0,0,0,0,0,0,-1,1805,743,46.0685,-3.34672
588,281,45.2322,3.78308,0,0,0,0,0,0,0,-1,1812,743,45.2322,-3.78305
595,281,44.9331,4.37634,0,0,0,0,0,0,0,-1,1819,743,44.9331,-4.37636
602,281,43.4924,3.27167,0,0,0,0,0,0,0,-1,1826,743,43.4925,-3.27166
609,281,32.7925,1.28723,0,0,0,0,0,0,0,-1,1833,743,32.7925,-1.28722
616,281,21.3191,-0.253906,0,0,0,0,0,0,0,-1,1840,743,21.3191,0.253931
623,281,29.4596,-3.48029,0,0,0,0,0,0,0,-1,1847,743,29.4596,3.48027
630,281,29.5524,-3.07916,-0.000758902,-0.00101188,-3.13612e-05,-0.000755072,-0.00101571,-0.121518,0.00060914,0.0487901,1854,743,29.5524,3.07913
637,281,29.594,-2.62537,-0.00097522,-0.00132439,0.000312094,-0.000792197,-0.00150741,0.530385,0.000870682,0.0159853,1861,743,29.594,2.62536
644,281,29.6039,-2.05438,-0.000567929,-0.0011292,0.000174302,-0.000518205,-0.00117893,0.277893,0.00068231,0.0103295,1868,743,29.6039,2.0544
651,281,29.61,-1.50751,-1.6277e-05,-0.000927713,4.66751e-05,-1.38929e-05,-0.000930097,0.0510325,0.000615486,0.0111304,1875,743,29.61,1.50751
658,281,29.577,-0.951355,0.000251549,-0.000431781,1.07066e-05,0.000251717,-0.000431949,0.0156631,0.00039926,0.0201733,1882,743,29.577,0.951382
665,281,29.5339,-0.37738,0.000183218,0.000261881,0.00015272,0.000380253,6.48463e-05,0.91143,0.000234889,0.0210274,1889,743,29.534,0.377391
672,281,29.5338,0.203247,-6.69276e-05,0.00117913,0.00045952,0.00133026,-0.000218059,1.25305,0.000967749,0.0132944,1896,743,29.5338,-0.203262
679,281,29.5338,0.738586,-0.000132384,0.00214278,0.000802054,0.0023971,-0.000386701,1.26374,0.00174134,0.0203858,1903,743,29.5338,-0.738569
686,281,29.4564,1.28607,-3.4427e-05,0.00325383,0.00124371,0.00367125,-0.000451844,1.24699,0.00261118,0.0160236,1910,743,29.4564,-1.28609
693,281,29.4397,1.86536,0.000343694,0.00457735,0.00182569,0.0052559,-0.000334849,1.21495,0.00362071,0.0121226,1917,743,29.4397,-1.86535
700,281,29.4117,2.49988,0.00111771,0.00629277,0.00266307,0.00741836,-7.87759e-06,1.1709,0.0049482,0.0304368,1924,743,29.4118,-2.49991
707,281,29.4548,3.12775,0,0,0,0,0,0,0,-1,1931,743,29.4548,-3.12777
714,281,25.0125,2.5105,0,0,0,0,0,0,0,-1,1938,743,25.0124,-2.51053
721,281,16.9656,3.22174,0,0,0,0,0,0,0,-1,1945,743,16.9656,-3.22172
728,281,19.0251,3.63934,0,0,0,0,0,0,0,-1,1952,743,19.0252,-3.63932
735,281,19.0869,2.50311,0,0,0,0,0,0,0,-1,1959,743,19.0869,-2.5031
742,281,0,0,0,0,0,0,0,0,0,-1,1966,743,0,0
749,281,0,0,0,0,0,0,0,0,0,-1,1973,743,0,0
756,281,0,0,0,0,0,0,0,0,0,-1,1980,743,0,0
763,281,0,0,0,0,0,0,0,0,0,-1,1987,743,0,0
770,281,0,0,0,0,0,0,0,0,0,-1,1994,743,0,0
777,281,0,0,0,0,0,0,0,0,0,-1,2001,743,0,0
784,281,0,0,0,0,0,0,0,0,0,-1,2008,743,0,0
791,281,0,0,0,0,0,0,0,0,0,-1,2015,743,0,0
798,281,0,0,0,0,0,0,0,0,0,-1,2022,743,0,0
805,281,0,0,0,0,0,0,0,0,0,-1,2029,743,0,0
812,281,0,0,0,0,0,0,0,0,0,-1,2036,743,0,0
-700,274,0,0,0,0,0,0,0,0,0,-1,524,750,0,0
-693,274,0,0,0,0,0,0,0,0,0,-1,531,750,0,0
-686,274,0,0,0,0,0,0,0,0,0,-1,538,750,0,0
-679,274,0,0,0,0,0,0,0,0,0,-1,545,750,0,0
-672,274,0,0,0,0,0,0,0,0,0,-1,552,750,0,0
-665,274,0,0,0,0,0,0,0,0,0,-1,559,750,0,0
-658,274,0,0,0,0,0,0,0,0,0,-1,566,750,0,0
-651,274,0,0,0,0,0,0,0,0,0,-1,573,750,0,0
-644,274,0,0,0,0,0,0,0,0,0,-1,580,750,0,0
-637,274,0,0,0,0,0,0,0,0,0,-1,587,750,0,0
-630,274,0,0,0,0,0,0,0,0,0,-1,594,750,0,0
-623,274,-19.6909,5.12701,0,0,0,0,0,0,0,-1,601,750,-19.6908,-5.12703
-616,274,-17.9133,3.9024,0,0,0,0,0,0,0,-1,608,750,-17.9133,-3.90239
-609,274,-18.6586,4.92523,0,0,0,0,0,0,0,-1,615,750,-18.6586,-4.92526
-602,274,-18.191,4.28918,0,0,0,0,0,0,0,-1,622,750,-18.191,-4.28919
-595,274,-18.4185,1.95624,0,0,0,0,0,0,0,-1,629,750,-18.4185,-1.95626
-588,274,-19.2165,1.98926,0,0,0,0,0,0,0,-1,636,750,-19.2165,-1.98923
-581,274,-19.2975,1.23755,0.00808848,0.00686993,-0.00547141,0.0129844,0.00197398,-0.729948,0.00807908,0.0459221,643,750,-19.2975,-1.23753
-574,274,-19.3593,0.43103,0.00515935,0.00535155,-0.00340333,0.00866014,0.00185076,-0.799512,0.00526606,0.0252725,650,750,-19.3593,-0.431041
-567,274,-19.5193,-0.0928955,0.00314836,0.00396433,-0.00196122,0.00555955,0.00155314,-0.887949,0.00331234,0.0239666,657,750,-19.5194,0.0928705
-560,274,-19.5473,-0.592346,0.00172282,0.00266647,-0.000903904,0.00321429,0.00117501,-1.02594,0.001878,0.0149755,664,750,-19.5473,0.592364
-553,274,-19.5616,-1.16827,0.000788265,0.00149873,-0.000118526,0.00151799,0.000769013,-1.40978,0.000876435,0.00954808,671,750,-19.5616,1.16828
-546,274,-19.5816,-1.69421,0.000184258,0.000433705,0.000502392,0.000826624,-0.00020866,0.907068,0.00063222,0.0115142,678,750,-19.5816,1.69424
-539,274,-19.5949,-2.22009,-0.000390338,-0.000343633,0.00119164,0.000824887,-0.00155886,0.795195,0.00139783,0.0124157,685,750,-19.5949,2.22007
-532,274,-19.6178,-2.7439,-0.000607946,-0.00151495,0.00159314,0.000594986,-0.00271788,0.646737,0.00203939,0.0132267,692,750,-19.6178,2.74388
-525,274,-19.6337,-3.28845,-0.000556308,-0.0019989,0.00212334,0.000964898,-0.00352011,0.621663,0.0027259,0.0138574,699,750,-19.6337,3.28845
-518,274,-19.6379,-3.84155,-0.00135138,-0.00235901,0.00241415,0.000610963,-0.00432135,0.682529,0.00310466,0.0138668,706,750,-19.6379,3.84156
-511,274,-19.6588,-4.38568,-0.00277786,-0.00279255,0.00269267,-9.25248e-05,-0.00547789,0.784035,0.00362148,0.013818,713,750,-19.6588,4.38565
-504,274,-19.7096,-4.95026,-0.0053499,-0.00363734,0.00236759,-0.00197594,-0.0070113,0.958914,0.00417446,0.0256601,720,750,-19.7096,4.95027
-497,274,-19.8076,-5.5332,0,0,0,0,0,0,0,-1,727,750,-19.8076,5.53323
-490,274,-13.6545,-3.58826,0,0,0,0,0,0,0,-1,734,750,-13.6546,3.58825
-483,274,-27.8608,1.30981,0,0,0,0,0,0,0,-1,741,750,-27.8608,-1.30979
-476,274,-33.7561,-0.508606,0,0,0,0,0,0,0,-1,748,750,-33.7561,0.508636
-469,274,-34.4943,0.574036,0,0,0,0,0,0,0,-1,755,750,-34.4943,-0.574017
-462,274,-34.4627,1.29321,0,0,0,0,0,0,0,-1,762,750,-34.4627,-1.2932
-455,274,-34.7192,1.02307,-0.0239589,-0.0326536,-0.0273144,-0.00064802,-0.0559644,-0.706481,0.0370955,0.0393449,769,750,-34.7192,-1.02304
-448,274,-35.0747,0.840027,-0.0250777,-0.0393466,-0.0354754,0.00397349,-0.0683978,-0.686167,0.0469791,0.0420681,776,750,-35.0747,-0.840005
-441,274,0,0,0,0,0,0,0,0,0,-1,783,750,0,0
-434,274,0,0,0,0,0,0,0,0,0,-1,790,750,0,0
-427,274,0,0,0,0,0,0,0,0,0,-1,797,750,0,0
-420,274,0,0,0,0,0,0,0,0,0,-1,804,750,0,0
-413,274,0,0,0,0,0,0,0,0,0,-1,811,750,0,0
-406,274,0,0,0,0,0,0,0,0,0,-1,818,750,0,0
-399,274,0,0,0,0,0,0,0,0,0,-1,825,750,0,0
-392,274,0,0,0,0,0,0,0,0,0,-1,832,750,0,0
-385,274,0,0,0,0,0,0,0,0,0,-1,839,750,0,0
-378,274,0,0,0,0,0,0,0,0,0,-1,846,750,0,0
-371,274,0,0,0,0,0,0,0,0,0,-1,853,750,0,0
-364,274,0,0,0,0,0,0,0,0,0,-1,860,750,0,0
-357,274,0,0,0,0,0,0,0,0,0,-1,867,750,0,0
-350,274,0,0,0,0,0,0,0,0,0,-1,874,750,0,0
-343,274,0,0,0,0,0,0,0,0,0,-1,881,750,0,0
-336,274,0,0,0,0,0,0,0,0,0,-1,888,750,0,0
-329,274,0,0,0,0,0,0,0,0,0,-1,895,750,0,0
-322,274,0,0,0,0,0,0,0,0,0,-1,902,750,0,0
-315,274,0,0,0,0,0,0,0,0,0,-1,909,750,0,0
-308,274,0,0,0,0,0,0,0,0,0,-1,916,750,0,0
-301,274,0,0,0,0,0,0,0,0,0,-1,923,750,0,0
-294,274,0,0,0,0,0,0,0,0,0,-1,930,750,0,0
-287,274,0,0,0,0,0,0,0,0,0,-1,937,750,0,0
-280,274,0,0,0,0,0,0,0,0,0,-1,944,750,0,0
-273,274,0,0,0,0,0,0,0,0,0,-1,951,750,0,0
-266,274,0,0,0,0,0,0,0,0,0,-1,958,750,0,0
-259,274,0,0,0,0,0,0,0,0,0,-1,965,750,0,0
-252,274,0,0,0,0,0,0,0,0,0,-1,972,750,0,0
-245,274,0,0,0,0,0,0,0,0,0,-1,979,750,0,0
-238,274,0,0,0,0,0,0,0,0,0,-1,986,750,0,0
-231,274,0,0,0,0,0,0,0,0,0,-1,993,750,0,0
-224,274,0,0,0,0,0,0,0,0,0,-1,1000,750,0,0
-217,274,0,0,0,0,0,0,0,0,0,-1,1007,750,0,0
-210,274,0,0,0,0,0,0,0,0,0,-1,1014,750,0,0
-203,274,0,0,0,0,0,0,0,0,0,-1,1021,750,0,0
-196,274,0,0,0,0,0,0,0,0,0,-1,1028,750,0,0
-189,274,0,0,0,0,0,0,0,0,0,-1,1035,750,0,0
-182,274,0,0,0,0,0,0,0,0,0,-1,1042,750,0,0
-175,274,0,0,0,0,0,0,0,0,0,-1,1049,750,0,0
-168,274,0,0,0,0,0,0,0,0,0,-1,1056,750,0,0
-161,274,0,0,0,0,0,0,0,0,0,-1,1063,750,0,0
-154,274,0,0,0,0,0,0,0,0,0,-1,1070,750,0,0
-147,274,0,0,0,0,0,0,0,0,0,-1,1077,750,0,0
-140,274,0,0,0,0,0,0,0,0,0,-1,1084,750,0,0
-133,274,0,0,0,0,0,0,0,0,0,-1,1091,750,0,0
-126,274,0,0,0,0,0,0,0,0,0,-1,1098,750,0,0
-119,274,0,0,0,0,0,0,0,0,0,-1,1105,750,0,0
-112,274,0,0,0,0,0,0,0,0,0,-1,1112,750,0,0
-105,274,0,0,0,0,0,0,0,0,0,-1,1119,750,0,0
-98,274,0,0,0,0,0,0,0,0,0,-1,1126,750,0,0
-91,274,0,0,0,0,0,0,0,0,0,-1,1133,750,0,0
-84,274,0,0,0,0,0,0,0,0,0,-1,1140,750,0,0
-77,274,0,0,0,0,0,0,0,0,0,-1,1147,750,0,0
-70,274,0,0,0,0,0,0,0,0,0,-1,1154,750,0,0
-63,274,0,0,0,0,0,0,0,0,0,-1,1161,750,0,0
-56,274,0,0,0,0,0,0,0,0,0,-1,1168,750,0,0
-49,274,0,0,0,0,0,0,0,0,0,-1,1175,750,0,0
-42,274,0,0,0,0,0,0,0,0,0,-1,1182,750,0,0
-35,274,0,0,0,0,0,0,0,0,0,-1,1189,750,0,0
-28,274,0,0,0,0,0,0,0,0,0,-1,1196,750,0,0
-21,274,0,0,0,0,0,0,0,0,0,-1,1203,750,0,0
-14,274,0,0,0,0,0,0,0,0,0,-1,1210,750,0,0
-7,274,0,0,0,0,0,0,0,0,0,-1,1217,750,0,0
0,274,0,0,0,0,0,0,0,0,0,-1,1224,750,0,0
7,274,0,0,0,0,0,0,0,0,0,-1,1231,750,0,0
14,274,0,0,0,0,0,0,0,0,0,-1,1238,750,0,0
21,274,0,0,0,0,0,0,0,0,0,-1,1245,750,0,0
28,274,0,0,0,0,0,0,0,0,0,-1,1252,750,0,0
35,274,0,0,0,0,0,0,0,0,0,-1,1259,750,0,0
42,274,0,0,0,0,0,0,0,0,0,-1,1266,750,0,0
49,274,0,0,0,0,0,0,0,0,0,-1,1273,750,0,0
56,274,0,0,0,0,0,0,0,0,0,-1,1280,750,0,0
63,274,0,0,0,0,0,0,0,0,0,-1,1287,750,0,0
70,274,0,0,0,0,0,0,0,0,0,-1,1294,750,0,0
77,274,0,0,0,0,0,0,0,0,0,-1,1301,750,0,0
84,274,0,0,0,0,0,0,0,0,0,-1,1308,750,0,0
91,274,0,0,0,0,0,0,0,0,0,-1,1315,750,0,0
98,274,0,0,0,0,0,0,0,0,0,-1,1322,750,0,0
105,274,0,0,0,0,0,0,0,0,0,-1,1329,750,0,0
112,274,0,0,0,0,0,0,0,0,0,-1,1336,750,0,0
119,274,0,0,0,0,0,0,0,0,0,-1,1343,750,0,0
126,274,0,0,0,0,0,0,0,0,0,-1,1350,750,0,0
133,274,0,0,0,0,0,0,0,0,0,-1,1357,750,0,0
140,274,0,0,0,0,0,0,0,0,0,-1,1364,750,0,0
147,274,0,0,0,0,0,0,0,0,0,-1,1371,750,0,0
154,274,0,0,0,0,0,0,0,0,0,-1,1378,750,0,0
161,274,0,0,0,0,0,0,0,0,0,-1,1385,750,0,0
168,274,0,0,0,0,0,0,0,0,0,-1,1392,750,0,0
175,274,0,0,0,0,0,0,0,0,0,-1,1399,750,0,0
182,274,0,0,0,0,0,0,0,0,0,-1,1406,750,0,0
189,274,0,0,0,0,0,0,0,0,0,-1,1413,750,0,0
196,274,0,0,0,0,0,0,0,0,0,-1,1420,750,0,0
203,274,0,0,0,0,0,0,0,0,0,-1,1427,750,0,0
210,274,0,0,0,0,0,0,0,0,0,-1,1434,750,0,0
217,274,0,0,0,0,0,0,0,0,0,-1,1441,750,0,0
224,274,0,0,0,0,0,0,0,0,0,-1,1448,750,0,0
231,274,0,0,0,0,0,0,0,0,0,-1,1455,750,0,0
238,274,0,0,0,0,0,0,0,0,0,-1,1462,750,0,0
245,274,0,0,0,0,0,0,0,0,0,-1,1469,750,0,0
252,274,0,0,0,0,0,0,0,0,0,-1,1476,750,0,0
259,274,0,0,0,0,0,0,0,0,0,-1,1483,750,0,0
266,274,0,0,0,0,0,0,0,0,0,-1,1490,750,0,0
273,274,0,0,0,0,0,0,0,0,0,-1,1497,750,0,0
280,274,0,0,0,0,0,0,0,0,0,-1,1504,750,0,0
287,274,0,0,0,0,0,0,0,0,0,-1,1511,750,0,0
294,274,0,0,0,0,0,0,0,0,0,-1,1518,750,0,0
301,274,0,0,0,0,0,0,0,0,0,-1,1525,750,0,0
308,274,0,0,0,0,0,0,0,0,0,-1,1532,750,0,0
315,274,0,0,0,0,0,0,0,0,0,-1,1539,750,0,0
322,274,0,0,0,0,0,0,0,0,0,-1,1546,750,0,0
329,274,0,0,0,0,0,0,0,0,0,-1,1553,750,0,0
336,274,0,0,0,0,0,0,0,0,0,-1,1560,750,0,0
343,274,0,0,0,0,0,0,0,0,0,-1,1567,750,0,0
350,274,0,0,0,0,0,0,0,0,0,-1,1574,750,0,0
357,274,0,0,0,0,0,0,0,0,0,-1,1581,750,0,0
364,274,0,0,0,0,0,0,0,0,0,-1,1588,750,0,0
371,274,0,0,0,0,0,0,0,0,0,-1,1595,750,0,0
378,274,0,0,0,0,0,0,0,0,0,-1,1602,750,0,0
385,274,0,0,0,0,0,0,0,0,0,-1,1609,750,0,0
392,274,0,0,0,0,0,0,0,0,0,-1,1616,750,0,0
399,274,0,0,0,0,0,0,0,0,0,-1,1623,750,0,0
406,274,0,0,0,0,0,0,0,0,0,-1,1630,750,0,0
413,274,0,0,0,0,0,0,0,0,0,-1,1637,750,0,0
420,274,0,0,0,0,0,0,0,0,0,-1,1644,750,0,0
427,274,0,0,0,0,0,0,0,0,0,-1,1651,750,0,0
434,274,0,0,0,0,0,0,0,0,0,-1,1658,750,0,0
441,274,0,0,0,0,0,0,0,0,0,-1,1665,750,0,0
448,274,0,0,0,0,0,0,0,0,0,-1,1672,750,0,0
455,274,0,0,0,0,0,0,0,0,0,-1,1679,750,0,0
462,274,0,0,0,0,0,0,0,0,0,-1,1686,750,0,0
469,274,0,0,0,0,0,0,0,0,0,-1,1693,750,0,0
476,274,0,0,0,0,0,0,0,0,0,-1,1700,750,0,0
483,274,0,0,0,0,0,0,0,0,0,-1,1707,750,0,0
490,274,0,0,0,0,0,0,0,0,0,-1,1714,750,0,0
497,274,0,0,0,0,0,0,0,0,0,-1,1721,750,0,0
504,274,0,0,0,0,0,0,0,0,0,-1,1728,750,0,0
511,274,0,0,0,0,0,0,0,0,0,-1,1735,750,0,0
518,274,0,0,0,0,0,0,0,0,0,-1,1742,750,0,0
525,274,0,0,0,0,0,0,0,0,0,-1,1749,750,0,0
532,274,0,0,0,0,0,0,0,0,0,-1,1756,750,0,0
539,274,0,0,0,0,0,0,0,0,0,-1,1763,750,0,0
546,274,0,0,0,0,0,0,0,0,0,-1,1770,750,0,0
553,274,0,0,0,0,0,0,0,0,0,-1,1777,750,0,0
560,274,45.5785,2.98889,0,0,0,0,0,0,0,-1,1784,750,45.5785,-2.98888
567,274,45.6566,4.0636,0,0,0,0,0,0,0,-1,1791,750,45.6566,-4.06358
574,274,45.8531,3.61652,0.0170483,0.020872,-0.0214627,0.0405078,-0.00258752,-0.82982,0.0279077,0.04551,1798,750,45.8532,-3.61649
581,274,46.2239,3.29779,0.0119399,0.0163234,-0.0164019,0.0306793,-0.00241605,-0.851819,0.0213039,0.0437331,1805,750,46.2239,-3.29777
588,274,46.2826,3.40179,0,0,0,0,0,0,0,-1,1812,750,46.2826,-3.40178
595,274,44.8324,2.5434,0,0,0,0,0,0,0,-1,1819,750,44.8324,-2.54338
602,274,44.9222,2.88867,0,0,0,0,0,0,0,-1,1826,750,44.9222,-2.88866
609,274,44.6676,3.10461,0,0,0,0,0,0,0,-1,1833,750,44.6676,-3.1046
616,274,32.7869,1.78436,0,0,0,0,0,0,0,-1,1840,750,32.7868,-1.78437
623,274,24.8231,-1.80353,0,0,0,0,0,0,0,-1,1847,750,24.8232,1.80351
630,274,30.1029,-3.17365,0,0,0,0,0,0,0,-1,1854,750,30.103,3.17365
637,274,30.1416,-2.64136,-0.00140828,-0.00132723,0.000547482,-0.000818775,-0.00191673,0.822342,0.00111053,0.017801,1861,750,30.1416,2.64136
644,274,30.1403,-2.04285,-0.0009803,-0.00131074,0.000377855,-0.000733123,-0.00155792,0.579293,0.000899984,0.012299,1868,750,30.1402,2.04284
651,274,30.1471,-1.48407,-0.000249431,-0.00127032,0.000136929,-0.000231383,-0.00128836,0.131043,0.000793113,0.0130474,1875,750,30.1471,1.4841
658,274,30.135,-0.937134,0.000294339,-0.000904085,-1.21739e-05,0.000294463,-0.000904209,-0.0101568,0.000721282,0.0158721,1882,750,30.135,0.937162
665,274,30.1146,-0.370422,0.000462104,-0.000223996,7.15472e-05,0.000469485,-0.000231377,0.102807,0.000412354,0.0162401,1889,750,30.1147,0.370441
672,274,30.0895,0.225952,0.000420973,0.000775116,0.000417419,0.00105147,0.000144621,0.985997,0.00065809,0.014011,1896,750,30.0895,-0.225934
679,274,30.078,0.774597,0.000622945,0.0017607,0.000787358,0.00216319,0.000220455,1.09824,0.00137455,0.0153429,1903,750,30.078,-0.774567
686,274,30.0403,1.32672,0.000979841,0.00292883,0.00130703,0.00358467,0.000324005,1.10573,0.00228943,0.0164115,1910,750,30.0402,-1.32674
693,274,30.0001,1.90302,0.00160435,0.00426624,0.00196209,0.00530621,0.000564382,1.08341,0.00336516,0.0125654,1917,750,30.0001,-1.90298
700,274,29.9857,2.51837,0.00258057,0.00591056,0.00283651,0.00753463,0.000956499,1.0508,0.00473656,0.015661,1924,750,29.9857,-2.51838
707,274,29.9568,3.12769,0.00400007,0.00786494,0.00407383,0.0104414,0.00142358,1.00686,0.00653829,0.0278696,1931,750,29.9568,-3.12768
714,274,29.9326,3.74829,0,0,0,0,0,0,0,-1,1938,750,29.9326,-3.74828
721,274,25.6215,3.91144,0,0,0,0,0,0,0,-1,1945,750,25.6214,-3.91141
728,274,19.2209,3.95154,0,0,0,0,0,0,0,-1,1952,750,19.221,-3.95151
735,274,20.6608,4.10931,0,0,0,0,0,0,0,-1,1959,750,20.6607,-4.10932
742,274,11.7815,-0.740234,0,0,0,0,0,0,0,-1,1966,750,11.7815,0.740253
749,274,0,0,0,0,0,0,0,0,0,-1,1973,750,0,0
756,274,0,0,0,0,0,0,0,0,0,-1,1980,750,0,0
763,274,0,0,0,0,0,0,0,0,0,-1,1987,750,0,0
770,274,0,0,0,0,0,0,0,0,0,-1,1994,750,0,0
777,274,0,0,0,0,0,0,0,0,0,-1,2001,750,0,0
784,274,0,0,0,0,0,0,0,0,0,-1,2008,750,0,0
791,274,0,0,0,0,0,0,0,0,0,-1,2015,750,0,0
798,274,0,0,0,0,0,0,0,0,0,-1,2022,750,0,0
805,274,0,0,0,0,0,0,0,0,0,-1,2029,750,0,0
812,274,0,0,0,0,0,0,0,0,0,-1,2036,750,0,0
-700,267,0,0,0,0,0,0,0,0,0,-1,524,757,0,0
-693,267,0,0,0,0,0,0,0,0,0,-1,531,757,0,0
-686,267,0,0,0,0,0,0,0,0,0,-1,538,757,0,0
-679,267,0,0,0,0,0,0,0,0,0,-1,545,757,0,0
-672,267,0,0,0,0,0,0,0,0,0,-1,552,757,0,0
-665,267,0,0,0,0,0,0,0,0,0,-1,559,757,0,0
-658,267,0,0,0,0,0,0,0,0,0,-1,566,757,0,0
-651,267,0,0,0,0,0,0,0,0,0,-1,573,757,0,0
-644,267,0,0,0,0,0,0,0,0,0,-1,580,757,0,0
-637,267,0,0,0,0,0,0,0,0,0,-1,587,757,0,0
-630,267,-21.3979,5.17529,0,0,0,0,0,0,0,-1,594,757,-21.3979,-5.17529
-623,267,-20.043,4.43115,0,0,0,0,0,0,0,-1,601,757,-20.043,-4.43116
-616,267,-18.6576,5.19214,0,0,0,0,0,0,0,-1,608,757,-18.6576,-5.19215
-609,267,-18.6078,4.34973,0,0,0,0,0,0,0,-1,615,757,-18.6078,-4.34976
-602,267,-19.3658,2.84296,0,0,0,0,0,0,0,-1,622,757,-19.3658,-2.84295
-595,267,-19.9602,3.14722,0,0,0,0,0,0,0,-1,629,757,-19.9602,-3.14721
-588,267,-19.8094,2.1936,0.0133792,0.00672858,-0.00934018,0.0199683,0.000139402,-0.614385,0.013266,0.0481341,636,757,-19.8095,-2.1936
-581,267,-19.9327,1.13995,0.00898331,0.00564561,-0.00624493,0.0137785,0.000850397,-0.654833,0.00891575,0.0367176,643,757,-19.9328,-1.13995
-574,267,-19.9658,0.491882,0.00591807,0.00452927,-0.004004,0.00928743,0.0011599,-0.699539,0.00584349,0.0209922,650,757,-19.9658,-0.491875
-567,267,-20.0536,-0.0101318,0.00369823,0.00337371,-0.00236873,0.00591025,0.00116169,-0.751201,0.00361569,0.0258725,657,757,-20.0536,0.0101083
-560,267,-20.0671,-0.532043,0.00206306,0.00220896,-0.00112999,0.00326835,0.00100367,-0.817634,0.00193323,0.0226781,664,757,-20.0671,0.532046
-553,267,-20.0793,-1.12006,0.000912193,0.00106414,-0.000154249,0.00116011,0.000816223,-1.01423,0.000688046,0.018675,671,757,-20.0793,1.12007
-546,267,-20.1152,-1.66284,0.000198485,-7.61968e-05,0.000668854,0.000743953,-0.000621665,0.684137,0.000789493,0.0127835,678,757,-20.1152,1.66282
-539,267,-20.1186,-2.20422,-0.000447177,-0.00105111,0.00156936,0.000848999,-0.00234729,0.690352,0.00191177,0.0118724,685,757,-20.1186,2.20425
-532,267,-20.1135,-2.74268,-0.000588327,-0.0022765,0.00215198,0.000879192,-0.00374401,0.598501,0.00283489,0.0118771,692,757,-20.1135,2.74269
-525,267,-20.1574,-3.25787,-0.000430742,-0.00285964,0.00286006,0.00146203,-0.00475241,0.584622,0.00375181,0.0115741,699,757,-20.1574,3.25788
-518,267,-20.1931,-3.79883,-0.00125776,-0.00325885,0.00321484,0.00110864,-0.00562525,0.634537,0.00416914,0.0116247,706,757,-20.1931,3.79883
-511,267,-20.1885,-4.32306,-0.0027121,-0.00369788,0.00349976,0.0003293,-0.00673929,0.71544,0.00460655,0.017537,713,757,-20.1885,4.32304
-504,267,-20.2415,-4.71167,-0.00516317,-0.0044015,0.00325207,-0.00150804,-0.00805664,0.843685,0.00494565,0.0320097,720,757,-20.2415,4.71166
-497,267,-20.3372,-5.10205,0,0,0,0,0,0,0,-1,727,757,-20.3372,5.10205
-490,267,-23.4949,-0.494995,0,0,0,0,0,0,0,-1,734,757,-23.4949,0.494981
-483,267,-33.2785,-0.448425,0,0,0,0,0,0,0,-1,741,757,-33.2785,0.448407
-476,267,-33.7904,1.32043,0,0,0,0,0,0,0,-1,748,757,-33.7904,-1.32042
-469,267,-34.3151,0.902344,0,0,0,0,0,0,0,-1,755,757,-34.3151,-0.902354
-462,267,-34.8398,0.484314,0,0,0,0,0,0,0,-1,762,757,-34.8398,-0.484287
-455,267,-34.4745,1.24573,0,0,0,0,0,0,0,-1,769,757,-34.4745,-1.24571
-448,267,-34.5133,1.39307,0,0,0,0,0,0,0,-1,776,757,-34.5133,-1.39305
-441,267,0,0,0,0,0,0,0,0,0,-1,783,757,0,0
-434,267,0,0,0,0,0,0,0,0,0,-1,790,757,0,0
-427,267,0,0,0,0,0,0,0,0,0,-1,797,757,0,0
-420,267,0,0,0,0,0,0,0,0,0,-1,804,757,0,0
-413,267,0,0,0,0,0,0,0,0,0,-1,811,757,0,0
-406,267,0,0,0,0,0,0,0,0,0,-1,818,757,0,0
-399,267,0,0,0,0,0,0,0,0,0,-1,825,757,0,0
-392,267,0,0,0,0,0,0,0,0,0,-1,832,757,0,0
-385,267,0,0,0,0,0,0,0,0,0,-1,839,757,0,0
-378,267,0,0,0,0,0,0,0,0,0,-1,846,757,0,0
-371,267,0,0,0,0,0,0,0,0,0,-1,853,757,0,0
-364,267,0,0,0,0,0,0,0,0,0,-1,860,757,0,0
-357,267,0,0,0,0,0,0,0,0,0,-1,867,757,0,0
-350,267,0,0,0,0,0,0,0,0,0,-1,874,757,0,0
-343,267,0,0,0,0,0,0,0,0,0,-1,881,757,0,0
-336,267,0,0,0,0,0,0,0,0,0,-1,888,757,0,0
-329,267,0,0,0,0,0,0,0,0,0,-1,895,757,0,0
-322,267,0,0,0,0,0,0,0,0,0,-1,902,757,0,0
-315,267,0,0,0,0,0,0,0,0,0,-1,909,757,0,0
-308,267,0,0,0,0,0,0,0,0,0,-1,916,757,0,0
-301,267,0,0,0,0,0,0,0,0,0,-1,923,757,0,0
-294,267,0,0,0,0,0,0,0,0,0,-1,930,757,0,0
-287,267,0,0,0,0,0,0,0,0,0,-1,937,757,0,0
-280,267,0,0,0,0,0,0,0,0,0,-1,944,757,0,0
-273,267,0,0,0,0,0,0,0,0,0,-1,951,757,0,0
-266,267,0,0,0,0,0,0,0,0,0,-1,958,757,0,0
-259,267,0,0,0,0,0,0,0,0,0,-1,965,757,0,0
-252,267,0,0,0,0,0,0,0,0,0,-1,972,757,0,0
-245,267,0,0,0,0,0,0,0,0,0,-1,979,757,0,0
-238,267,0,0,0,0,0,0,0,0,0,-1,986,757,0,0
-231,267,0,0,0,0,0,0,0,0,0,-1,993,757,0,0
-224,267,0,0,0,0,0,0,0,0,0,-1,1000,757,0,0
-217,267,0,0,0,0,0,0,0,0,0,-1,1007,757,0,0
-210,267,0,0,0,0,0,0,0,0,0,-1,1014,757,0,0
-203,267,0,0,0,0,0,0,0,0,0,-1,1021,757,0,0
-196,267,0,0,0,0,0,0,0,0,0,-1,1028,757,0,0
-189,267,0,0,0,0,0,0,0,0,0,-1,1035,757,0,0
-182,267,0,0,0,0,0,0,0,0,0,-1,1042,757,0,0
-175,267,0,0,0,0,0,0,0,0,0,-1,1049,757,0,0
-168,267,0,0,0,0,0,0,0,0,0,-1,1056,757,0,0
-161,267,0,0,0,0,0,0,0,0,0,-1,1063,757,0,0
-154,267,0,0,0,0,0,0,0,0,0,-1,1070,757,0,0
-147,267,0,0,0,0,0,0,0,0,0,-1,1077,757,0,0
-140,267,0,0,0,0,0,0,0,0,0,-1,1084,757,0,0
-133,267,0,0,0,0,0,0,0,0,0,-1,1091,757,0,0
-126,267,0,0,0,0,0,0,0,0,0,-1,1098,757,0,0
-119,267,0,0,0,0,0,0,0,0,0,-1,1105,757,0,0
-112,267,0,0,0,0,0,0,0,0,0,-1,1112,757,0,0
-105,267,0,0,0,0,0,0,0,0,0,-1,1119,757,0,0
-98,267,0,0,0,0,0,0,0,0,0,-1,1126,757,0,0
-91,267,0,0,0,0,0,0,0,0,0,-1,1133,757,0,0
-84,267,0,0,0,0,0,0,0,0,0,-1,1140,757,0,0
-77,267,0,0,0,0,0,0,0,0,0,-1,1147,757,0,0
-70,267,0,0,0,0,0,0,0,0,0,-1,1154,757,0,0
-63,267,0,0,0,0,0,0,0,0,0,-1,1161,757,0,0
-56,267,0,0,0,0,0,0,0,0,0,-1,1168,757,0,0
-49,267,0,0,0,0,0,0,0,0,0,-1,1175,757,0,0
-42,267,0,0,0,0,0,0,0,0,0,-1,1182,757,0,0
-35,267,0,0,0,0,0,0,0,0,0,-1,1189,757,0,0
-28,267,0,0,0,0,0,0,0,0,0,-1,1196,757,0,0
-21,267,0,0,0,0,0,0,0,0,0,-1,1203,757,0,0
-14,267,0,0,0,0,0,0,0,0,0,-1,1210,757,0,0
-7,267,0,0,0,0,0,0,0,0,0,-1,1217,757,0,0
0,267,0,0,0,0,0,0,0,0,0,-1,1224,757,0,0
7,267,0,0,0,0,0,0,0,0,0,-1,1231,757,0,0
14,267,0,0,0,0,0,0,0,0,0,-1,1238,757,0,0
21,267,0,0,0,0,0,0,0,0,0,-1,1245,757,0,0
28,267,0,0,0,0,0,0,0,0,0,-1,1252,757,0,0
35,267,0,0,0,0,0,0,0,0,0,-1,1259,757,0,0
42,267,0,0,0,0,0,0,0,0,0,-1,1266,757,0,0
49,267,0,0,0,0,0,0,0,0,0,-1,1273,757,0,0
56,267,0,0,0,0,0,0,0,0,0,-1,1280,757,0,0
63,267,0,0,0,0,0,0,0,0,0,-1,1287,757,0,0
70,267,0,0,0,0,0,0,0,0,0,-1,1294,757,0,0
77,267,0,0,0,0,0,0,0,0,0,-1,1301,757,0,0
84,267,0,0,0,0,0,0,0,0,0,-1,1308,757,0,0
91,267,0,0,0,0,0,0,0,0,0,-1,1315,757,0,0
98,267,0,0,0,0,0,0,0,0,0,-1,1322,757,0,0
105,267,0,0,0,0,0,0,0,0,0,-1,1329,757,0,0
112,267,0,0,0,0,0,0,0,0,0,-1,1336,757,0,0
119,267,0,0,0,0,0,0,0,0,0,-1,1343,757,0,0
126,267,0,0,0,0,0,0,0,0,0,-1,1350,757,0,0
133,267,0,0,0,0,0,0,0,0,0,-1,1357,757,0,0
140,267,0,0,0,0,0,0,0,0,0,-1,1364,757,0,0
147,267,0,0,0,0,0,0,0,0,0,-1,1371,757,0,0
154,267,0,0,0,0,0,0,0,0,0,-1,1378,757,0,0
161,267,0,0,0,0,0,0,0,0,0,-1,1385,757,0,0
168,267,0,0,0,0,0,0,0,0,0,-1,1392,757,0,0
175,267,0,0,0,0,0,0,0,0,0,-1,1399,757,0,0
182,267,0,0,0,0,0,0,0,0,0,-1,1406,757,0,0
189,267,0,0,0,0,0,0,0,0,0,-1,1413,757,0,0
196,267,0,0,0,0,0,0,0,0,0,-1,1420,757,0,0
203,267,0,0,0,0,0,0,0,0,0,-1,1427,757,0,0
210,267,0,0,0,0,0,0,0,0,0,-1,1434,757,0,0
217,267,0,0,0,0,0,0,0,0,0,-1,1441,757,0,0
224,267,0,0,0,0,0,0,0,0,0,-1,1448,757,0,0
231,267,0,0,0,0,0,0,0,0,0,-1,1455,757,0,0
238,267,0,0,0,0,0,0,0,0,0,-1,1462,757,0,0
245,267,0,0,0,0,0,0,0,0,0,-1,1469,757,0,0
252,267,0,0,0,0,0,0,0,0,0,-1,1476,757,0,0
259,267,0,0,0,0,0,0,0,0,0,-1,1483,757,0,0
266,267,0,0,0,0,0,0,0,0,0,-1,1490,757,0,0
273,267,0,0,0,0,0,0,0,0,0,-1,1497,757,0,0
280,267,0,0,0,0,0,0,0,0,0,-1,1504,757,0,0
287,267,0,0,0,0,0,0,0,0,0,-1,1511,757,0,0
294,267,0,0,0,0,0,0,0,0,0,-1,1518,757,0,0
301,267,0,0,0,0,0,0,0,0,0,-1,1525,757,0,0
308,267,0,0,0,0,0,0,0,0,0,-1,1532,757,0,0
315,267,0,0,0,0,0,0,0,0,0,-1,1539,757,0,0
322,267,0,0,0,0,0,0,0,0,0,-1,1546,757,0,0
329,267,0,0,0,0,0,0,0,0,0,-1,1553,757,0,0
336,267,0,0,0,0,0,0,0,0,0,-1,1560,757,0,0
343,267,0,0,0,0,0,0,0,0,0,-1,1567,757,0,0
350,267,0,0,0,0,0,0,0,0,0,-1,1574,757,0,0
357,267,0,0,0,0,0,0,0,0,0,-1,1581,757,0,0
364,267,0,0,0,0,0,0,0,0,0,-1,1588,757,0,0
371,267,0,0,0,0,0,0,0,0,0,-1,1595,757,0,0
378,267,0,0,0,0,0,0,0,0,0,-1,1602,757,0,0
385,267,0,0,0,0,0,0,0,0,0,-1,1609,757,0,0
392,267,0,0,0,0,0,0,0,0,0,-1,1616,757,0,0
399,267,0,0,0,0,0,0,0,0,0,-1,1623,757,0,0
406,267,0,0,0,0,0,0,0,0,0,-1,1630,757,0,0
413,267,0,0,0,0,0,0,0,0,0,-1,1637,757,0,0
420,267,0,0,0,0,0,0,0,0,0,-1,1644,757,0,0
427,267,0,0,0,0,0,0,0,0,0,-1,1651,757,0,0
434,267,0,0,0,0,0,0,0,0,0,-1,1658,757,0,0
441,267,0,0,0,0,0,0,0,0,0,-1,1665,757,0,0
448,267,0,0,0,0,0,0,0,0,0,-1,1672,757,0,0
455,267,0,0,0,0,0,0,0,0,0,-1,1679,757,0,0
462,267,0,0,0,0,0,0,0,0,0,-1,1686,757,0,0
469,267,0,0,0,0,0,0,0,0,0,-1,1693,757,0,0
476,267,0,0,0,0,0,0,0,0,0,-1,1700,757,0,0
483,267,0,0,0,0,0,0,0,0,0,-1,1707,757,0,0
490,267,0,0,0,0,0,0,0,0,0,-1,1714,757,0,0
497,267,0,0,0,0,0,0,0,0,0,-1,1721,757,0,0
504,267,0,0,0,0,0,0,0,0,0,-1,1728,757,0,0
511,267,0,0,0,0,0,0,0,0,0,-1,1735,757,0,0
518,267,0,0,0,0,0,0,0,0,0,-1,1742,757,0,0
525,267,0,0,0,0,0,0,0,0,0,-1,1749,757,0,0
532,267,0,0,0,0,0,0,0,0,0,-1,1756,757,0,0
539,267,0,0,0,0,0,0,0,0,0,-1,1763,757,0,0
546,267,0,0,0,0,0,0,0,0,0,-1,1770,757,0,0
553,267,0,0,0,0,0,0,0,0,0,-1,1777,757,0,0
560,267,0,0,0,0,0,0,0,0,0,-1,1784,757,0,0
567,267,46.4978,3.23999,0,0,0,0,0,0,0,-1,1791,757,46.4978,-3.23997
574,267,46.4069,3.28497,0.0132273,0.0181758,-0.0171466,0.0330258,-0.00162268,-0.857054,0.0225775,0.0446771,1798,757,46.4068,-3.28495
581,267,46.3899,3.28821,0.00838644,0.0141437,-0.0129214,0.0245032,-0.00197306,-0.894999,0.0170313,0.0472305,1805,757,46.3898,-3.28822
588,267,46.4692,3.37909,0,0,0,0,0,0,0,-1,1812,757,46.4693,-3.37911
595,267,47.0707,3.24695,0,0,0,0,0,0,0,-1,1819,757,47.0706,-3.24695
602,267,46.8976,3.14844,0,0,0,0,0,0,0,-1,1826,757,46.8976,-3.14842
609,267,46.7391,3.2149,0,0,0,0,0,0,0,-1,1833,757,46.7391,-3.2149
616,267,44.2543,3.28918,0,0,0,0,0,0,0,-1,1840,757,44.2542,-3.28918
623,267,24.1475,-1.1391,0,0,0,0,0,0,0,-1,1847,757,24.1475,1.13913
630,267,31.0118,-2.92181,0,0,0,0,0,0,0,-1,1854,757,31.0119,2.92184
637,267,30.7899,-2.50134,-0.00121363,-0.00170828,0.000632182,-0.000782113,-0.0021398,0.598936,0.00125022,0.0365906,1861,757,30.7899,2.50134
644,267,30.6932,-2.03265,-0.000859397,-0.00178464,0.000426898,-0.000692527,-0.00195151,0.372629,0.00114242,0.0131889,1868,757,30.6932,2.03267
651,267,30.6819,-1.46039,-0.000135656,-0.00182375,9.77758e-05,-0.000130012,-0.0018294,0.0576638,0.00117865,0.0146363,1875,757,30.6819,1.46037
658,267,30.6741,-0.929626,0.00045878,-0.00155848,-0.000149791,0.000469842,-0.00156954,-0.0737162,0.00123318,0.0141545,1882,757,30.6741,0.929655
665,267,30.6415,-0.353271,0.000622756,-0.000897251,-0.000150101,0.000637436,-0.000911932,-0.0974955,0.000899195,0.0148405,1889,757,30.6414,0.353293
672,267,30.624,0.247437,0.000560972,0.000188051,0.000203246,0.000650331,9.86925e-05,0.414221,0.000404688,0.0138136,1896,757,30.624,-0.247459
679,267,30.6172,0.802429,0.000850463,0.00116162,0.000568674,0.00159561,0.000416469,0.91892,0.00095566,0.0131873,1903,757,30.6171,-0.802422
686,267,30.6008,1.37256,0.001343,0.00238162,0.00115838,0.00313177,0.000592851,0.996121,0.00192097,0.0136255,1910,757,30.6009,-1.37255
693,267,30.5642,1.90643,0.00211943,0.00368664,0.00186783,0.00492858,0.000877492,0.984011,0.00303579,0.0135036,1917,757,30.5643,-1.90645
700,267,30.5504,2.47894,0.00320635,0.00523215,0.00276728,0.00716608,0.00127242,0.960838,0.0044148,0.0144511,1924,757,30.5504,-2.47896
707,267,30.5428,3.05365,0.00467345,0.00703815,0.0039746,0.0100025,0.00170907,0.929968,0.00617798,0.0145807,1931,757,30.5428,-3.05365
714,267,30.7849,3.65839,0.00671695,0.00937473,0.00575499,0.0139523,0.00213941,0.898865,0.00867674,0.0346875,1938,757,30.7849,-3.6584
721,267,31.1268,4.2879,0,0,0,0,0,0,0,-1,1945,757,31.1268,-4.2879
728,267,26.7886,3.90027,0,0,0,0,0,0,0,-1,1952,757,26.7886,-3.90028
735,267,24.6713,2.82483,0,0,0,0,0,0,0,-1,1959,757,24.6713,-2.82483
742,267,18.1177,3.56561,0,0,0,0,0,0,0,-1,1966,757,18.1176,-3.56564
749,267,0,0,0,0,0,0,0,0,0,-1,1973,757,0,0
756,267,0,0,0,0,0,0,0,0,0,-1,1980,757,0,0
763,267,0,0,0,0,0,0,0,0,0,-1,1987,757,0,0
770,267,0,0,0,0,0,0,0,0,0,-1,1994,757,0,0
777,267,0,0,0,0,0,0,0,0,0,-1,2001,757,0,0
784,267,0,0,0,0,0,0,0,0,0,-1,2008,757,0,0
791,267,0,0,0,0,0,0,0,0,0,-1,2015,757,0,0
798,267,0,0,0,0,0,0,0,0,0,-1,2022,757,0,0
805,267,0,0,0,0,0,0,0,0,0,-1,2029,757,0,0
812,267,0,0,0,0,0,0,0,0,0,-1,2036,757,0,0
-700,260,0,0,0,0,0,0,0,0,0,-1,524,764,0,0
-693,260,0,0,0,0,0,0,0,0,0,-1,531,764,0,0
-686,260,0,0,0,0,0,0,0,0,0,-1,538,764,0,0
-679,260,0,0,0,0,0,0,0,0,0,-1,545,764,0,0
-672,260,0,0,0,0,0,0,0,0,0,-1,552,764,0,0
-665,260,0,0,0,0,0,0,0,0,0,-1,559,764,0,0
-658,260,0,0,0,0,0,0,0,0,0,-1,566,764,0,0
-651,260,0,0,0,0,0,0,0,0,0,-1,573,764,0,0
-644,260,0,0,0,0,0,0,0,0,0,-1,580,764,0,0
-637,260,0,0,0,0,0,0,0,0,0,-1,587,764,0,0
-630,260,-21.8905,4.49341,0,0,0,0,0,0,0,-1,594,764,-21.8905,-4.49342
-623,260,-20.3127,3.53546,0,0,0,0,0,0,0,-1,601,764,-20.3127,-3.53544
-616,260,-23.4346,3.65009,0,0,0,0,0,0,0,-1,608,764,-23.4345,-3.65008
-609,260,-18.557,3.77429,0,0,0,0,0,0,0,-1,615,764,-18.557,-3.77426
-602,260,-20.5432,2.90839,0,0,0,0,0,0,0,-1,622,764,-20.5432,-2.90838
-595,260,-21.4155,2.23834,0,0,0,0,0,0,0,-1,629,764,-21.4155,-2.23833
-588,260,-21.0309,1.53949,0.0131006,0.00543239,-0.00947484,0.0194877,-0.000954699,-0.593138,0.0133215,0.045803,636,764,-21.031,-1.53948
-581,260,-20.6024,0.960205,0.00913282,0.00473527,-0.00649456,0.0137907,7.73799e-05,-0.622176,0.00916812,0.0294826,643,764,-20.6024,-0.960184
-574,260,-20.5856,0.474792,0.00618622,0.00385198,-0.00424887,0.00942535,0.000612847,-0.651359,0.00608957,0.0192728,650,764,-20.5855,-0.474776
-567,260,-20.6064,0.00695801,0.00392982,0.00281878,-0.00253298,0.00596748,0.000781115,-0.67745,0.0037452,0.0180108,657,764,-20.6064,-0.00696961
-560,260,-20.591,-0.529907,0.00219298,0.00171126,-0.00118839,0.00316467,0.00073957,-0.685414,0.00191156,0.0202585,664,764,-20.591,0.529885
-553,260,-20.6021,-1.09363,0.000907667,0.000473606,-5.72032e-05,0.000915079,0.000466194,-0.128855,0.000528353,0.018387,671,764,-20.602,1.09362
-546,260,-20.6387,-1.62604,1.86412e-05,-0.000870857,0.000933629,0.000608042,-0.00146026,0.563117,0.00122746,0.0127711,678,764,-20.6387,1.62606
-539,260,-20.64,-2.16205,-0.00083992,-0.0021404,0.00197932,0.000593229,-0.00357355,0.626693,0.00260274,0.0130724,685,764,-20.64,2.16206
-532,260,-20.6335,-2.68982,-0.00110337,-0.00341936,0.00267578,0.00065424,-0.00517697,0.581182,0.00368879,0.0163569,692,764,-20.6335,2.6898
-525,260,-20.6913,-3.245,-0.00105675,-0.00408748,0.00350357,0.00124512,-0.00638936,0.581287,0.00472956,0.0141637,699,764,-20.6913,3.24497
-518,260,-20.7608,-3.75403,-0.00200424,-0.0044572,0.00388934,0.000847422,-0.00730886,0.632661,0.00517821,0.0163647,706,764,-20.7608,3.75402
-511,260,-20.7507,-4.24219,-0.00347753,-0.00482865,0.00417852,7.96923e-05,-0.00838587,0.705254,0.00561733,0.0301129,713,764,-20.7507,4.24218
-504,260,-20.8159,-4.72382,0,0,0,0,0,0,0,-1,720,764,-20.8159,4.7238
-497,260,-16.6542,-3.67334,0,0,0,0,0,0,0,-1,727,764,-16.6542,3.67331
-490,260,-29.4557,0.921387,0,0,0,0,0,0,0,-1,734,764,-29.4557,-0.921369
-483,260,-33.0483,2.17987,0,0,0,0,0,0,0,-1,741,764,-33.0483,-2.17985
-476,260,-33.6138,1.70374,0,0,0,0,0,0,0,-1,748,764,-33.6138,-1.70373
-469,260,-34.1215,1.25769,-0.0200853,-0.0168015,-0.00791629,-0.0103586,-0.0265281,-0.88765,0.015438,0.0433954,755,764,-34.1215,-1.25771
-462,260,-34.4127,1.05493,-0.0234881,-0.0209617,-0.0125204,-0.00964099,-0.0348088,-0.835675,0.0207526,0.0418536,762,764,-34.4127,-1.05495
-455,260,-34.4651,1.13965,-0.0264986,-0.0257466,-0.0180635,-0.00805516,-0.0441901,-0.795804,0.0271759,0.0451648,769,764,-34.4651,-1.13966
-448,260,0,0,0,0,0,0,0,0,0,-1,776,764,0,0
-441,260,0,0,0,0,0,0,0,0,0,-1,783,764,0,0
-434,260,0,0,0,0,0,0,0,0,0,-1,790,764,0,0
-427,260,0,0,0,0,0,0,0,0,0,-1,797,764,0,0
-420,260,0,0,0,0,0,0,0,0,0,-1,804,764,0,0
-413,260,0,0,0,0,0,0,0,0,0,-1,811,764,0,0
-406,260,0,0,0,0,0,0,0,0,0,-1,818,764,0,0
-399,260,0,0,0,0,0,0,0,0,0,-1,825,764,0,0
-392,260,0,0,0,0,0,0,0,0,0,-1,832,764,0,0
-385,260,0,0,0,0,0,0,0,0,0,-1,839,764,0,0
-378,260,0,0,0,0,0,0,0,0,0,-1,846,764,0,0
-371,260,0,0,0,0,0,0,0,0,0,-1,853,764,0,0
-364,260,0,0,0,0,0,0,0,0,0,-1,860,764,0,0
-357,260,0,0,0,0,0,0,0,0,0,-1,867,764,0,0
-350,260,0,0,0,0,0,0,0,0,0,-1,874,764,0,0
-343,260,0,0,0,0,0,0,0,0,0,-1,881,764,0,0
-336,260,0,0,0,0,0,0,0,0,0,-1,888,764,0,0
-329,260,0,0,0,0,0,0,0,0,0,-1,895,764,0,0
-322,260,0,0,0,0,0,0,0,0,0,-1,902,764,0,0
-315,260,0,0,0,0,0,0,0,0,0,-1,909,764,0,0
-308,260,0,0,0,0,0,0,0,0,0,-1,916,764,0,0
-301,260,0,0,0,0,0,0,0,0,0,-1,923,764,0,0
-294,260,0,0,0,0,0,0,0,0,0,-1,930,764,0,0
-287,260,0,0,0,0,0,0,0,0,0,-1,937,764,0,0
-280,260,0,0,0,0,0,0,0,0,0,-1,944,764,0,0
-273,260,0,0,0,0,0,0,0,0,0,-1,951,764,0,0
-266,260,0,0,0,0,0,0,0,0,0,-1,958,764,0,0
-259,260,0,0,0,0,0,0,0,0,0,-1,965,764,0,0
-252,260,0,0,0,0,0,0,0,0,0,-1,972,764,0,0
-245,260,0,0,0,0,0,0,0,0,0,-1,979,764,0,0
-238,260,0,0,0,0,0,0,0,0,0,-1,986,764,0,0
-231,260,0,0,0,0,0,0,0,0,0,-1,993,764,0,0
-224,260,0,0,0,0,0,0,0,0,0,-1,1000,764,0,0
-217,260,0,0,0,0,0,0,0,0,0,-1,1007,764,0,0
-210,260,0,0,0,0,0,0,0,0,0,-1,1014,764,0,0
-203,260,0,0,0,0,0,0,0,0,0,-1,1021,764,0,0
-196,260,0,0,0,0,0,0,0,0,0,-1,1028,764,0,0
-189,260,0,0,0,0,0,0,0,0,0,-1,1035,764,0,0
-182,260,0,0,0,0,0,0,0,0,0,-1,1042,764,0,0
-175,260,0,0,0,0,0,0,0,0,0,-1,1049,764,0,0
-168,260,0,0,0,0,0,0,0,0,0,-1,1056,764,0,0
-161,260,0,0,0,0,0,0,0,0,0,-1,1063,764,0,0
-154,260,0,0,0,0,0,0,0,0,0,-1,1070,764,0,0
-147,260,0,0,0,0,0,0,0,0,0,-1,1077,764,0,0
-140,260,0,0,0,0,0,0,0,0,0,-1,1084,764,0,0
-133,260,0,0,0,0,0,0,0,0,0,-1,1091,764,0,0
-126,260,0,0,0,0,0,0,0,0,0,-1,1098,764,0,0
-119,260,0,0,0,0,0,0,0,0,0,-1,1105,764,0,0
-112,260,0,0,0,0,0,0,0,0,0,-1,1112,764,0,0
-105,260,0,0,0,0,0,0,0,0,0,-1,1119,764,0,0
-98,260,0,0,0,0,0,0,0,0,0,-1,1126,764,0,0
-91,260,0,0,0,0,0,0,0,0,0,-1,1133,764,0,0
-84,260,0,0,0,0,0,0,0,0,0,-1,1140,764,0,0
-77,260,0,0,0,0,0,0,0,0,0,-1,1147,764,0,0
-70,260,0,0,0,0,0,0,0,0,0,-1,1154,764,0,0
-63,260,0,0,0,0,0,0,0,0,0,-1,1161,764,0,0
-56,260,0,0,0,0,0,0,0,0,0,-1,1168,764,0,0
-49,260,0,0,0,0,0,0,0,0,0,-1,1175,764,0,0
-42,260,0,0,0,0,0,0,0,0,0,-1,1182,764,0,0
-35,260,0,0,0,0,0,0,0,0,0,-1,1189,764,0,0
-28,260,0,0,0,0,0,0,0,0,0,-1,1196,764,0,0
-21,260,0,0,0,0,0,0,0,0,0,-1,1203,764,0,0
-14,260,0,0,0,0,0,0,0,0,0,-1,1210,764,0,0
-7,260,0,0,0,0,0,0,0,0,0,-1,1217,764,0,0
0,260,0,0,0,0,0,0,0,0,0,-1,1224,764,0,0
7,260,0,0,0,0,0,0,0,0,0,-1,1231,764,0,0
14,260,0,0,0,0,0,0,0,0,0,-1,1238,764,0,0
21,260,0,0,0,0,0,0,0,0,0,-1,1245,764,0,0
28,260,0,0,0,0,0,0,0,0,0,-1,1252,764,0,0
35,260,0,0,0,0,0,0,0,0,0,-1,1259,764,0,0
42,260,0,0,0,0,0,0,0,0,0,-1,1266,764,0,0
49,260,0,0,0,0,0,0,0,0,0,-1,1273,764,0,0
56,260,0,0,0,0,0,0,0,0,0,-1,1280,764,0,0
63,260,0,0,0,0,0,0,0,0,0,-1,1287,764,0,0
70,260,0,0,0,0,0,0,0,0,0,-1,1294,764,0,0
77,260,0,0,0,0,0,0,0,0,0,-1,1301,764,0,0
84,260,0,0,0,0,0,0,0,0,0,-1,1308,764,0,0
91,260,0,0,0,0,0,0,0,0,0,-1,1315,764,0,0
98,260,0,0,0,0,0,0,0,0,0,-1,1322,764,0,0
105,260,0,0,0,0,0,0,0,0,0,-1,1329,764,0,0
112,260,0,0,0,0,0,0,0,0,0,-1,1336,764,0,0
119,260,0,0,0,0,0,0,0,0,0,-1,1343,764,0,0
126,260,0,0,0,0,0,0,0,0,0,-1,1350,764,0,0
133,260,0,0,0,0,0,0,0,0,0,-1,1357,764,0,0
140,260,0,0,0,0,0,0,0,0,0,-1,1364,764,0,0
147,260,0,0,0,0,0,0,0,0,0,-1,1371,764,0,0
154,260,0,0,0,0,0,0,0,0,0,-1,1378,764,0,0
161,260,0,0,0,0,0,0,0,0,0,-1,1385,764,0,0
168,260,0,0,0,0,0,0,0,0,0,-1,1392,764,0,0
175,260,0,0,0,0,0,0,0,0,0,-1,1399,764,0,0
182,260,0,0,0,0,0,0,0,0,0,-1,1406,764,0,0
189,260,0,0,0,0,0,0,0,0,0,-1,1413,764,0,0
196,260,0,0,0,0,0,0,0,0,0,-1,1420,764,0,0
203,260,0,0,0,0,0,0,0,0,0,-1,1427,764,0,0
210,260,0,0,0,0,0,0,0,0,0,-1,1434,764,0,0
217,260,0,0,0,0,0,0,0,0,0,-1,1441,764,0,0
224,260,0,0,0,0,0,0,0,0,0,-1,1448,764,0,0
231,260,0,0,0,0,0,0,0,0,0,-1,1455,764,0,0
238,260,0,0,0,0,0,0,0,0,0,-1,1462,764,0,0
245,260,0,0,0,0,0,0,0,0,0,-1,1469,764,0,0
252,260,0,0,0,0,0,0,0,0,0,-1,1476,764,0,0
259,260,0,0,0,0,0,0,0,0,0,-1,1483,764,0,0
266,260,0,0,0,0,0,0,0,0,0,-1,1490,764,0,0
273,260,0,0,0,0,0,0,0,0,0,-1,1497,764,0,0
280,260,0,0,0,0,0,0,0,0,0,-1,1504,764,0,0
287,260,0,0,0,0,0,0,0,0,0,-1,1511,764,0,0
294,260,0,0,0,0,0,0,0,0,0,-1,1518,764,0,0
301,260,0,0,0,0,0,0,0,0,0,-1,1525,764,0,0
308,260,0,0,0,0,0,0,0,0,0,-1,1532,764,0,0
315,260,0,0,0,0,0,0,0,0,0,-1,1539,764,0,0
322,260,0,0,0,0,0,0,0,0,0,-1,1546,764,0,0
329,260,0,0,0,0,0,0,0,0,0,-1,1553,764,0,0
336,260,0,0,0,0,0,0,0,0,0,-1,1560,764,0,0
343,260,0,0,0,0,0,0,0,0,0,-1,1567,764,0,0
350,260,0,0,0,0,0,0,0,0,0,-1,1574,764,0,0
357,260,0,0,0,0,0,0,0,0,0,-1,1581,764,0,0
364,260,0,0,0,0,0,0,0,0,0,-1,1588,764,0,0
371,260,0,0,0,0,0,0,0,0,0,-1,1595,764,0,0
378,260,0,0,0,0,0,0,0,0,0,-1,1602,764,0,0
385,260,0,0,0,0,0,0,0,0,0,-1,1609,764,0,0
392,260,0,0,0,0,0,0,0,0,0,-1,1616,764,0,0
399,260,0,0,0,0,0,0,0,0,0,-1,1623,764,0,0
406,260,0,0,0,0,0,0,0,0,0,-1,1630,764,0,0
413,260,0,0,0,0,0,0,0,0,0,-1,1637,764,0,0
420,260,0,0,0,0,0,0,0,0,0,-1,1644,764,0,0
427,260,0,0,0,0,0,0,0,0,0,-1,1651,764,0,0
434,260,0,0,0,0,0,0,0,0,0,-1,1658,764,0,0
441,260,0,0,0,0,0,0,0,0,0,-1,1665,764,0,0
448,260,0,0,0,0,0,0,0,0,0,-1,1672,764,0,0
455,260,0,0,0,0,0,0,0,0,0,-1,1679,764,0,0
462,260,0,0,0,0,0,0,0,0,0,-1,1686,764,0,0
469,260,0,0,0,0,0,0,0,0,0,-1,1693,764,0,0
476,260,0,0,0,0,0,0,0,0,0,-1,1700,764,0,0
483,260,0,0,0,0,0,0,0,0,0,-1,1707,764,0,0
490,260,0,0,0,0,0,0,0,0,0,-1,1714,764,0,0
497,260,0,0,0,0,0,0,0,0,0,-1,1721,764,0,0
504,260,0,0,0,0,0,0,0,0,0,-1,1728,764,0,0
511,260,0,0,0,0,0,0,0,0,0,-1,1735,764,0,0
518,260,0,0,0,0,0,0,0,0,0,-1,1742,764,0,0
525,260,0,0,0,0,0,0,0,0,0,-1,1749,764,0,0
532,260,0,0,0,0,0,0,0,0,0,-1,1756,764,0,0
539,260,0,0,0,0,0,0,0,0,0,-1,1763,764,0,0
546,260,0,0,0,0,0,0,0,0,0,-1,1770,764,0,0
553,260,0,0,0,0,0,0,0,0,0,-1,1777,764,0,0
560,260,0,0,0,0,0,0,0,0,0,-1,1784,764,0,0
567,260,0,0,0,0,0,0,0,0,0,-1,1791,764,0,0
574,260,46.575,3.02545,0.0110198,0.0156531,-0.013256,0.0267934,-0.000120424,-0.871907,0.0179025,0.041106,1798,764,46.575,-3.02544
581,260,46.5098,3.20477,0.00609511,0.0121888,-0.00978666,0.0193919,-0.00110803,-0.936305,0.0133127,0.0485319,1805,764,46.5098,-3.20474
588,260,46.5648,3.25305,0,0,0,0,0,0,0,-1,1812,764,46.5648,-3.25303
595,260,46.8933,3.10767,0.000920906,0.00616335,-0.0044179,0.00867912,-0.00159486,-1.05314,0.00638445,0.0487914,1819,764,46.8933,-3.10769
602,260,46.7484,3.13403,-0.000217646,0.00375909,-0.00262325,0.00506238,-0.00152094,-1.10969,0.00397998,0.0462085,1826,764,46.7484,-3.13405
609,260,46.5256,3.18799,-0.000754488,0.00185263,-0.00130464,0.00239334,-0.00129521,-1.17789,0.00216082,0.0458248,1833,764,46.5256,-3.18801
616,260,46.4113,3.17505,0,0,0,0,0,0,0,-1,1840,764,46.4113,-3.17507
623,260,32.2268,3.25836,0,0,0,0,0,0,0,-1,1847,764,32.2268,-3.25833
630,260,24.3739,-0.536316,0,0,0,0,0,0,0,-1,1854,764,24.3739,0.536343
637,260,31.3495,-2.49323,0,0,0,0,0,0,0,-1,1861,764,31.3495,2.49323
644,260,31.3369,-1.98438,-0.000656412,-0.00225518,0.000561361,-0.000478995,-0.0024326,0.306114,0.00148799,0.0326483,1868,764,31.337,1.98438
651,260,31.2944,-1.43451,-4.07328e-05,-0.0023368,0.000158336,-2.98654e-05,-0.00234767,0.0685272,0.00155525,0.0160508,1875,764,31.2944,1.43448
658,260,31.2268,-0.888794,0.000508957,-0.0021686,-0.000189148,0.000522253,-0.00218189,-0.0701776,0.00165636,0.0158167,1882,764,31.2268,0.888785
665,260,31.153,-0.332214,0.000612847,-0.00155032,-0.000316338,0.000658159,-0.00159563,-0.142271,0.00133822,0.0153977,1889,764,31.153,0.33223
672,260,31.163,0.267212,0.000500126,-0.000421259,-2.84724e-05,0.000501005,-0.000422138,-0.0308625,0.000533625,0.013472,1896,764,31.163,-0.267192
679,260,31.15,0.845276,0.000864992,0.000513515,0.000270034,0.00101144,0.00036707,0.496929,0.000591224,0.0126965,1903,764,31.1501,-0.845283
686,260,31.1283,1.40143,0.00150309,0.00177923,0.000903859,0.0025555,0.000726815,0.861189,0.00152045,0.0158906,1910,764,31.1283,-1.40144
693,260,31.1093,1.90631,0.00244964,0.00307519,0.00165721,0.00444888,0.00107595,0.878669,0.00268025,0.0159509,1917,764,31.1092,-1.9063
700,260,31.0929,2.46631,0.00366216,0.00452118,0.00256161,0.00668904,0.00149429,0.868462,0.00405412,0.0143402,1924,764,31.0929,-2.46628
707,260,31.0835,3.02545,0.00516179,0.00618246,0.0037063,0.00941339,0.00193086,0.853815,0.00574124,0.0148189,1931,764,31.0835,-3.02544
714,260,31.1653,3.6153,0.00711086,0.00824944,0.00529704,0.0130077,0.0023526,0.838929,0.00800369,0.0274145,1938,764,31.1653,-3.6153
721,260,31.308,4.20862,0,0,0,0,0,0,0,-1,1945,764,31.3079,-4.20865
728,260,30.0559,5.07568,0,0,0,0,0,0,0,-1,1952,764,30.0559,-5.07567
735,260,26.9788,4.85681,0,0,0,0,0,0,0,-1,1959,764,26.9787,-4.85678
742,260,32.1443,1.73688,0,0,0,0,0,0,0,-1,1966,764,32.1442,-1.73688
749,260,33.6013,2.94733,0,0,0,0,0,0,0,-1,1973,764,33.6013,-2.9473
756,260,0,0,0,0,0,0,0,0,0,-1,1980,764,0,0
763,260,0,0,0,0,0,0,0,0,0,-1,1987,764,0,0
770,260,0,0,0,0,0,0,0,0,0,-1,1994,764,0,0
777,260,0,0,0,0,0,0,0,0,0,-1,2001,764,0,0
784,260,0,0,0,0,0,0,0,0,0,-1,2008,764,0,0
791,260,0,0,0,0,0,0,0,0,0,-1,2015,764,0,0
798,260,0,0,0,0,0,0,0,0,0,-1,2022,764,0,0
805,260,0,0,0,0,0,0,0,0,0,-1,2029,764,0,0
812,260,0,0,0,0,0,0,0,0,0,-1,2036,764,0,0
-700,253,0,0,0,0,0,0,0,0,0,-1,524,771,0,0
-693,253,0,0,0,0,0,0,0,0,0,-1,531,771,0,0
-686,253,0,0,0,0,0,0,0,0,0,-1,538,771,0,0
-679,253,0,0,0,0,0,0,0,0,0,-1,545,771,0,0
-672,253,0,0,0,0,0,0,0,0,0,-1,552,771,0,0
-665,253,0,0,0,0,0,0,0,0,0,-1,559,771,0,0
-658,253,0,0,0,0,0,0,0,0,0,-1,566,771,0,0
-651,253,0,0,0,0,0,0,0,0,0,-1,573,771,0,0
-644,253,0,0,0,0,0,0,0,0,0,-1,580,771,0,0
-637,253,-24.7979,-0.491394,0,0,0,0,0,0,0,-1,587,771,-24.7978,0.491371
-630,253,-25.156,0.540405,0,0,0,0,0,0,0,-1,594,771,-25.156,-0.540421
-623,253,-20.808,2.84314,0,0,0,0,0,0,0,-1,601,771,-20.8081,-2.84312
-616,253,-25.0877,2.96875,0,0,0,0,0,0,0,-1,608,771,-25.0877,-2.96876
-609,253,-24.28,2.08228,0,0,0,0,0,0,0,-1,615,771,-24.2801,-2.08227
-602,253,-21.8885,2.29767,0,0,0,0,0,0,0,-1,622,771,-21.8886,-2.29768
-595,253,-21.7506,1.7431,0.0168685,0.00306597,-0.0116973,0.0235486,-0.00361418,-0.518886,0.0170321,0.0497588,629,771,-21.7506,-1.74309
-588,253,-21.3457,1.31299,0.0121393,0.00365864,-0.00850591,0.0174032,-0.0016053,-0.554169,0.0121726,0.0404676,636,771,-21.3457,-1.31298
-581,253,-21.1193,0.937622,0.0087034,0.00351501,-0.00604975,0.0126917,-0.00047329,-0.582851,0.00862323,0.0268785,643,771,-21.1193,-0.937639
-574,253,-21.1256,0.465698,0.00597821,0.00301959,-0.00407458,0.00883371,0.0001641,-0.611268,0.00583521,0.0224915,650,771,-21.1256,-0.465723
-567,253,-21.1656,-0.069397,0.00377247,0.00217523,-0.00240652,0.00550942,0.000438282,-0.625188,0.00353592,0.0185688,657,771,-21.1656,0.0694148
-560,253,-21.1299,-0.520264,0.00199652,0.00109056,-0.000989508,0.0026318,0.000455276,-0.570744,0.00162419,0.0138015,664,771,-21.1299,0.520261
-553,253,-21.1397,-1.0564,0.000680975,-0.000223211,0.000255094,0.000747978,-0.000290215,0.256859,0.000618518,0.0117603,671,771,-21.1397,1.05639
-546,253,-21.1977,-1.57904,-0.000264258,-0.0017548,0.00134129,0.000524905,-0.00254397,0.531817,0.00189533,0.010468,678,771,-21.1977,1.57907
-539,253,-21.2167,-2.1308,-0.00119687,-0.00323473,0.00242744,0.000416816,-0.00484842,0.586688,0.0033798,0.0120107,685,771,-21.2167,2.13082
-532,253,-21.1968,-2.69763,-0.00144903,-0.00441572,0.00310939,0.000512712,-0.00637746,0.562837,0.00443244,0.0167506,692,771,-21.1969,2.69761
-525,253,-21.1985,-3.22339,-0.00143076,-0.00505581,0.00395643,0.00110856,-0.00759514,0.570605,0.00547051,0.0149616,699,771,-21.1986,3.2234
-518,253,-21.2838,-3.74011,-0.00242598,-0.00534635,0.00432745,0.000680998,-0.00845333,0.622685,0.00587572,0.0243684,706,771,-21.2838,3.74013
-511,253,-21.4527,-4.20905,0,0,0,0,0,0,0,-1,713,771,-21.4527,4.20905
-504,253,-19.317,-4.1723,0,0,0,0,0,0,0,-1,720,771,-19.317,4.1723
-497,253,-21.7737,-1.76837,0,0,0,0,0,0,0,-1,727,771,-21.7738,1.7684
-490,253,-29.7674,0.438354,0,0,0,0,0,0,0,-1,734,771,-29.7674,-0.438339
-483,253,-34.5657,0.00939941,0,0,0,0,0,0,0,-1,741,771,-34.5658,-0.00937104
-476,253,-34.0281,1.44031,0,0,0,0,0,0,0,-1,748,771,-34.0281,-1.44029
-469,253,-34.0706,1.50769,-0.0198566,-0.0143131,-0.00471093,-0.011619,-0.0225507,-1.05131,0.0130217,0.0445417,755,771,-34.0706,-1.50767
-462,253,-34.4699,1.26477,-0.0235167,-0.017586,-0.00865424,-0.0114032,-0.0296995,-0.950452,0.0173003,0.044352,762,771,-34.4699,-1.26476
-455,253,-34.7318,1.17981,-0.026722,-0.0212817,-0.0134192,-0.0103097,-0.037694,-0.885395,0.0224946,0.0347232,769,771,-34.7318,-1.17981
-448,253,0,0,0,0,0,0,0,0,0,-1,776,771,0,0
-441,253,0,0,0,0,0,0,0,0,0,-1,783,771,0,0
-434,253,0,0,0,0,0,0,0,0,0,-1,790,771,0,0
-427,253,0,0,0,0,0,0,0,0,0,-1,797,771,0,0
-420,253,0,0,0,0,0,0,0,0,0,-1,804,771,0,0
-413,253,0,0,0,0,0,0,0,0,0,-1,811,771,0,0
-406,253,0,0,0,0,0,0,0,0,0,-1,818,771,0,0
-399,253,0,0,0,0,0,0,0,0,0,-1,825,771,0,0
-392,253,0,0,0,0,0,0,0,0,0,-1,832,771,0,0
-385,253,0,0,0,0,0,0,0,0,0,-1,839,771,0,0
-378,253,0,0,0,0,0,0,0,0,0,-1,846,771,0,0
-371,253,0,0,0,0,0,0,0,0,0,-1,853,771,0,0
-364,253,0,0,0,0,0,0,0,0,0,-1,860,771,0,0
-357,253,0,0,0,0,0,0,0,0,0,-1,867,771,0,0
-350,253,0,0,0,0,0,0,0,0,0,-1,874,771,0,0
-343,253,0,0,0,0,0,0,0,0,0,-1,881,771,0,0
-336,253,0,0,0,0,0,0,0,0,0,-1,888,771,0,0
-329,253,0,0,0,0,0,0,0,0,0,-1,895,771,0,0
-322,253,0,0,0,0,0,0,0,0,0,-1,902,771,0,0
-315,253,0,0,0,0,0,0,0,0,0,-1,909,771,0,0
-308,253,0,0,0,0,0,0,0,0,0,-1,916,771,0,0
-301,253,0,0,0,0,0,0,0,0,0,-1,923,771,0,0
-294,253,0,0,0,0,0,0,0,0,0,-1,930,771,0,0
-287,253,0,0,0,0,0,0,0,0,0,-1,937,771,0,0
-280,253,0,0,0,0,0,0,0,0,0,-1,944,771,0,0
-273,253,0,0,0,0,0,0,0,0,0,-1,951,771,0,0
-266,253,0,0,0,0,0,0,0,0,0,-1,958,771,0,0
-259,253,0,0,0,0,0,0,0,0,0,-1,965,771,0,0
-252,253,0,0,0,0,0,0,0,0,0,-1,972,771,0,0
-245,253,0,0,0,0,0,0,0,0,0,-1,979,771,0,0
-238,253,0,0,0,0,0,0,0,0,0,-1,986,771,0,0
-231,253,0,0,0,0,0,0,0,0,0,-1,993,771,0,0
-224,253,0,0,0,0,0,0,0,0,0,-1,1000,771,0,0
-217,253,0,0,0,0,0,0,0,0,0,-1,1007,771,0,0
-210,253,0,0,0,0,0,0,0,0,0,-1,1014,771,0,0
-203,253,0,0,0,0,0,0,0,0,0,-1,1021,771,0,0
-196,253,0,0,0,0,0,0,0,0,0,-1,1028,771,0,0
-189,253,0,0,0,0,0,0,0,0,0,-1,1035,771,0,0
-182,253,0,0,0,0,0,0,0,0,0,-1,1042,771,0,0
-175,253,0,0,0,0,0,0,0,0,0,-1,1049,771,0,0
-168,253,0,0,0,0,0,0,0,0,0,-1,1056,771,0,0
-161,253,0,0,0,0,0,0,0,0,0,-1,1063,771,0,0
-154,253,0,0,0,0,0,0,0,0,0,-1,1070,771,0,0
-147,253,0,0,0,0,0,0,0,0,0,-1,1077,771,0,0
-140,253,0,0,0,0,0,0,0,0,0,-1,1084,771,0,0
-133,253,0,0,0,0,0,0,0,0,0,-1,1091,771,0,0
-126,253,0,0,0,0,0,0,0,0,0,-1,1098,771,0,0
-119,253,0,0,0,0,0,0,0,0,0,-1,1105,771,0,0
-112,253,0,0,0,0,0,0,0,0,0,-1,1112,771,0,0
-105,253,0,0,0,0,0,0,0,0,0,-1,1119,771,0,0
-98,253,0,0,0,0,0,0,0,0,0,-1,1126,771,0,0
-91,253,0,0,0,0,0,0,0,0,0,-1,1133,771,0,0
-84,253,0,0,0,0,0,0,0,0,0,-1,1140,771,0,0
-77,253,0,0,0,0,0,0,0,0,0,-1,1147,771,0,0
-70,253,0,0,0,0,0,0,0,0,0,-1,1154,771,0,0
-63,253,0,0,0,0,0,0,0,0,0,-1,1161,771,0,0
-56,253,0,0,0,0,0,0,0,0,0,-1,1168,771,0,0
-49,253,0,0,0,0,0,0,0,0,0,-1,1175,771,0,0
-42,253,0,0,0,0,0,0,0,0,0,-1,1182,771,0,0
-35,253,0,0,0,0,0,0,0,0,0,-1,1189,771,0,0
-28,253,0,0,0,0,0,0,0,0,0,-1,1196,771,0,0
-21,253,0,0,0,0,0,0,0,0,0,-1,1203,771,0,0
-14,253,0,0,0,0,0,0,0,0,0,-1,1210,771,0,0
-7,253,0,0,0,0,0,0,0,0,0,-1,1217,771,0,0
0,253,0,0,0,0,0,0,0,0,0,-1,1224,771,0,0
7,253,0,0,0,0,0,0,0,0,0,-1,1231,771,0,0
14,253,0,0,0,0,0,0,0,0,0,-1,1238,771,0,0
21,253,0,0,0,0,0,0,0,0,0,-1,1245,771,0,0
28,253,0,0,0,0,0,0,0,0,0,-1,1252,771,0,0
35,253,0,0,0,0,0,0,0,0,0,-1,1259,771,0,0
42,253,0,0,0,0,0,0,0,0,0,-1,1266,771,0,0
49,253,0,0,0,0,0,0,0,0,0,-1,1273,771,0,0
56,253,0,0,0,0,0,0,0,0,0,-1,1280,771,0,0
63,253,0,0,0,0,0,0,0,0,0,-1,1287,771,0,0
70,253,0,0,0,0,0,0,0,0,0,-1,1294,771,0,0
77,253,0,0,0,0,0,0,0,0,0,-1,1301,771,0,0
84,253,0,0,0,0,0,0,0,0,0,-1,1308,771,0,0
91,253,0,0,0,0,0,0,0,0,0,-1,1315,771,0,0
98,253,0,0,0,0,0,0,0,0,0,-1,1322,771,0,0
105,253,0,0,0,0,0,0,0,0,0,-1,1329,771,0,0
112,253,0,0,0,0,0,0,0,0,0,-1,1336,771,0,0
119,253,0,0,0,0,0,0,0,0,0,-1,1343,771,0,0
126,253,0,0,0,0,0,0,0,0,0,-1,1350,771,0,0
133,253,0,0,0,0,0,0,0,0,0,-1,1357,771,0,0
140,253,0,0,0,0,0,0,0,0,0,-1,1364,771,0,0
147,253,0,0,0,0,0,0,0,0,0,-1,1371,771,0,0
154,253,0,0,0,0,0,0,0,0,0,-1,1378,771,0,0
161,253,0,0,0,0,0,0,0,0,0,-1,1385,771,0,0
168,253,0,0,0,0,0,0,0,0,0,-1,1392,771,0,0
175,253,0,0,0,0,0,0,0,0,0,-1,1399,771,0,0
182,253,0,0,0,0,0,0,0,0,0,-1,1406,771,0,0
189,253,0,0,0,0,0,0,0,0,0,-1,1413,771,0,0
196,253,0,0,0,0,0,0,0,0,0,-1,1420,771,0,0
203,253,0,0,0,0,0,0,0,0,0,-1,1427,771,0,0
210,253,0,0,0,0,0,0,0,0,0,-1,1434,771,0,0
217,253,0,0,0,0,0,0,0,0,0,-1,1441,771,0,0
224,253,0,0,0,0,0,0,0,0,0,-1,1448,771,0,0
231,253,0,0,0,0,0,0,0,0,0,-1,1455,771,0,0
238,253,0,0,0,0,0,0,0,0,0,-1,1462,771,0,0
245,253,0,0,0,0,0,0,0,0,0,-1,1469,771,0,0
252,253,0,0,0,0,0,0,0,0,0,-1,1476,771,0,0
259,253,0,0,0,0,0,0,0,0,0,-1,1483,771,0,0
266,253,0,0,0,0,0,0,0,0,0,-1,1490,771,0,0
273,253,0,0,0,0,0,0,0,0,0,-1,1497,771,0,0
280,253,0,0,0,0,0,0,0,0,0,-1,1504,771,0,0
287,253,0,0,0,0,0,0,0,0,0,-1,1511,771,0,0
294,253,0,0,0,0,0,0,0,0,0,-1,1518,771,0,0
301,253,0,0,0,0,0,0,0,0,0,-1,1525,771,0,0
308,253,0,0,0,0,0,0,0,0,0,-1,1532,771,0,0
315,253,0,0,0,0,0,0,0,0,0,-1,1539,771,0,0
322,253,0,0,0,0,0,0,0,0,0,-1,1546,771,0,0
329,253,0,0,0,0,0,0,0,0,0,-1,1553,771,0,0
336,253,0,0,0,0,0,0,0,0,0,-1,1560,771,0,0
343,253,0,0,0,0,0,0,0,0,0,-1,1567,771,0,0
350,253,0,0,0,0,0,0,0,0,0,-1,1574,771,0,0
357,253,0,0,0,0,0,0,0,0,0,-1,1581,771,0,0
364,253,0,0,0,0,0,0,0,0,0,-1,1588,771,0,0
371,253,0,0,0,0,0,0,0,0,0,-1,1595,771,0,0
378,253,0,0,0,0,0,0,0,0,0,-1,1602,771,0,0
385,253,0,0,0,0,0,0,0,0,0,-1,1609,771,0,0
392,253,0,0,0,0,0,0,0,0,0,-1,1616,771,0,0
399,253,0,0,0,0,0,0,0,0,0,-1,1623,771,0,0
406,253,0,0,0,0,0,0,0,0,0,-1,1630,771,0,0
413,253,0,0,0,0,0,0,0,0,0,-1,1637,771,0,0
420,253,0,0,0,0,0,0,0,0,0,-1,1644,771,0,0
427,253,0,0,0,0,0,0,0,0,0,-1,1651,771,0,0
434,253,0,0,0,0,0,0,0,0,0,-1,1658,771,0,0
441,253,0,0,0,0,0,0,0,0,0,-1,1665,771,0,0
448,253,0,0,0,0,0,0,0,0,0,-1,1672,771,0,0
455,253,0,0,0,0,0,0,0,0,0,-1,1679,771,0,0
462,253,0,0,0,0,0,0,0,0,0,-1,1686,771,0,0
469,253,0,0,0,0,0,0,0,0,0,-1,1693,771,0,0
476,253,0,0,0,0,0,0,0,0,0,-1,1700,771,0,0
483,253,0,0,0,0,0,0,0,0,0,-1,1707,771,0,0
490,253,0,0,0,0,0,0,0,0,0,-1,1714,771,0,0
497,253,0,0,0,0,0,0,0,0,0,-1,1721,771,0,0
504,253,0,0,0,0,0,0,0,0,0,-1,1728,771,0,0
511,253,0,0,0,0,0,0,0,0,0,-1,1735,771,0,0
518,253,0,0,0,0,0,0,0,0,0,-1,1742,771,0,0
525,253,0,0,0,0,0,0,0,0,0,-1,1749,771,0,0
532,253,0,0,0,0,0,0,0,0,0,-1,1756,771,0,0
539,253,0,0,0,0,0,0,0,0,0,-1,1763,771,0,0
546,253,0,0,0,0,0,0,0,0,0,-1,1770,771,0,0
553,253,0,0,0,0,0,0,0,0,0,-1,1777,771,0,0
560,253,0,0,0,0,0,0,0,0,0,-1,1784,771,0,0
567,253,0,0,0,0,0,0,0,0,0,-1,1791,771,0,0
574,253,46.4644,3.08661,0.0103865,0.0133542,-0.0102143,0.0221918,0.00154885,-0.857531,0.0143062,0.0383687,1798,771,46.4644,-3.08661
581,253,46.5076,3.06775,0.005108,0.0104144,-0.00723515,0.0154675,5.49108e-05,-0.96114,0.0102934,0.0419151,1805,771,46.5076,-3.06777
588,253,46.8336,2.78882,0,0,0,0,0,0,0,-1,1812,771,46.8337,-2.78881
595,253,46.9126,3.07935,0.000175223,0.00494812,-0.00283822,0.00626986,-0.00114651,-1.13497,0.00460985,0.0470108,1819,771,46.9126,-3.07934
602,253,46.6067,3.15106,-0.000667005,0.00283155,-0.00148525,0.00337704,-0.00121249,-1.21882,0.00274624,0.0436434,1826,771,46.6067,-3.15104
609,253,46.3195,3.24451,-0.000930939,0.00124321,-0.000490721,0.00134884,-0.00103657,-1.35878,0.00138114,0.0420688,1833,771,46.3195,-3.24448
616,253,46.3052,3.13489,-0.000885421,1.80861e-05,0.000126804,3.55453e-05,-0.00090288,1.43397,0.000614111,0.0464917,1840,771,46.3051,-3.13487
623,253,46.1421,3.28015,0,0,0,0,0,0,0,-1,1847,771,46.142,-3.28016
630,253,33.561,2.96838,0,0,0,0,0,0,0,-1,1854,771,33.561,-2.96836
637,253,22.3192,-0.604004,0,0,0,0,0,0,0,-1,1861,771,22.3192,0.603986
644,253,31.9976,-1.93597,0,0,0,0,0,0,0,-1,1868,771,31.9975,1.93596
651,253,31.8136,-1.35022,-7.78088e-06,-0.00239328,0.000268544,2.20763e-05,-0.00242314,0.110727,0.00162284,0.0286012,1875,771,31.8136,1.3502
658,253,31.7761,-0.822388,0.000503304,-0.00236285,-0.00012734,0.00050895,-0.00236849,-0.0443125,0.00177316,0.0192232,1882,771,31.7761,0.822416
665,253,31.6758,-0.282288,0.000526714,-0.00190071,-0.000363258,0.000579909,-0.00195391,-0.145405,0.00153292,0.0206369,1889,771,31.6758,0.282302
672,253,31.6438,0.284363,0.000288931,-0.000879589,-0.000202374,0.000322987,-0.000913645,-0.166722,0.00074062,0.0159125,1896,771,31.6438,-0.284388
679,253,31.7119,0.901855,0.000570328,-0.000116743,-6.48552e-05,0.000576396,-0.000122811,-0.0932958,0.000431073,0.0130191,1903,771,31.712,-0.901829
686,253,31.7089,1.42645,0.00117333,0.00110786,0.000517143,0.00165877,0.000622415,0.753788,0.000967581,0.0194595,1910,771,31.7089,-1.42643
693,253,31.6899,1.95135,0.00211143,0.00234789,0.00121345,0.00344885,0.00101046,0.833961,0.00204729,0.0190923,1917,771,31.6899,-1.95136
700,253,31.6759,2.47662,0.00325582,0.00359054,0.00206179,0.00549175,0.00135461,0.825895,0.00330354,0.0160013,1924,771,31.6759,-2.47659
707,253,31.6499,3.02136,0.00464355,0.00500268,0.0030459,0.00787431,0.00177192,0.814841,0.00476989,0.015228,1931,771,31.6499,-3.02135
714,253,31.657,3.60345,0.00668217,0.0066607,0.00449667,0.0111681,0.00217475,0.784205,0.00683678,0.0211573,1938,771,31.657,-3.60344
721,253,31.7679,4.32849,0.00882347,0.00833117,0.00616219,0.0147444,0.00241021,0.765436,0.00913285,0.0375432,1945,771,31.7679,-4.32848
728,253,31.9104,5.04205,0,0,0,0,0,0,0,-1,1952,771,31.9104,-5.04205
735,253,30.9088,5.36432,0,0,0,0,0,0,0,-1,1959,771,30.9088,-5.36435
742,253,31.0571,5.7337,0,0,0,0,0,0,0,-1,1966,771,31.0571,-5.73373
749,253,33.7754,3.21533,0,0,0,0,0,0,0,-1,1973,771,33.7754,-3.21533
756,253,0,0,0,0,0,0,0,0,0,-1,1980,771,0,0
763,253,0,0,0,0,0,0,0,0,0,-1,1987,771,0,0
770,253,0,0,0,0,0,0,0,0,0,-1,1994,771,0,0
777,253,0,0,0,0,0,0,0,0,0,-1,2001,771,0,0
784,253,0,0,0,0,0,0,0,0,0,-1,2008,771,0,0
791,253,0,0,0,0,0,0,0,0,0,-1,2015,771,0,0
798,253,0,0,0,0,0,0,0,0,0,-1,2022,771,0,0
805,253,0,0,0,0,0,0,0,0,0,-1,2029,771,0,0
812,253,0,0,0,0,0,0,0,0,0,-1,2036,771,0,0
-700,246,0,0,0,0,0,0,0,0,0,-1,524,778,0,0
-693,246,0,0,0,0,0,0,0,0,0,-1,531,778,0,0
-686,246,0,0,0,0,0,0,0,0,0,-1,538,778,0,0
-679,246,0,0,0,0,0,0,0,0,0,-1,545,778,0,0
-672,246,0,0,0,0,0,0,0,0,0,-1,552,778,0,0
-665,246,0,0,0,0,0,0,0,0,0,-1,559,778,0,0
-658,246,0,0,0,0,0,0,0,0,0,-1,566,778,0,0
-651,246,0,0,0,0,0,0,0,0,0,-1,573,778,0,0
-644,246,0,0,0,0,0,0,0,0,0,-1,580,778,0,0
-637,246,-24.1234,0.130432,0,0,0,0,0,0,0,-1,587,778,-24.1234,-0.130438
-630,246,-24.0781,1.38916,0,0,0,0,0,0,0,-1,594,778,-24.0781,-1.38913
-623,246,-23.9183,2.49573,0,0,0,0,0,0,0,-1,601,778,-23.9183,-2.49575
-616,246,-26.8182,2.0705,0,0,0,0,0,0,0,-1,608,778,-26.8182,-2.07052
-609,246,-26.0615,1.16388,0,0,0,0,0,0,0,-1,615,778,-26.0615,-1.16388
-602,246,-21.8865,3.75995,0,0,0,0,0,0,0,-1,622,778,-21.8865,-3.75995
-595,246,-21.8228,2.72229,0.0147587,0.000938372,-0.00942263,0.0195334,-0.00383634,-0.469016,0.0144716,0.046297,629,778,-21.8228,-2.7223
-588,246,-21.6317,1.54236,0.0108465,0.00212825,-0.00721831,0.0149198,-0.00194505,-0.513758,0.0106542,0.0307303,636,778,-21.6317,-1.54238
-581,246,-21.6493,1.04559,0.00788072,0.00237846,-0.00529066,0.0110928,-0.000833616,-0.545639,0.00768815,0.0179603,643,778,-21.6493,-1.04561
-574,246,-21.6232,0.458008,0.00538858,0.00220465,-0.0036372,0.00776695,-0.00017372,-0.579114,0.00523683,0.0191412,650,778,-21.6232,-0.458015
-567,246,-21.6575,-0.0551147,0.00327814,0.00153212,-0.00207413,0.0046555,0.000154755,-0.5862,0.00305339,0.0225489,657,778,-21.6575,0.055119
-560,246,-21.6824,-0.544739,0.00150136,0.000446876,-0.000612553,0.00178233,0.000165907,-0.430053,0.00113696,0.0169041,664,778,-21.6824,0.544725
-553,246,-21.6871,-1.02686,0.00020448,-0.00094888,0.000733296,0.00056069,-0.00130509,0.452195,0.00110542,0.0129655,671,778,-21.687,1.02684
-546,246,-21.7276,-1.54633,-0.000756752,-0.0026754,0.00190638,0.000418071,-0.00385022,0.552289,0.00271691,0.0107418,678,778,-21.7276,1.5463
-539,246,-21.7413,-2.1048,-0.00172268,-0.00436315,0.00300756,0.000241664,-0.00632749,0.578576,0.00430115,0.0110837,685,778,-21.7413,2.10478
-532,246,-21.726,-2.66144,-0.00194533,-0.00547936,0.00369788,0.000386028,-0.00781071,0.562514,0.00534047,0.0133717,692,778,-21.726,2.66146
-525,246,-21.7499,-3.15839,-0.00192166,-0.00613518,0.00457202,0.00100565,-0.00906249,0.569501,0.00640325,0.0221332,699,778,-21.7499,3.15841
-518,246,-21.9265,-3.52917,-0.00288328,-0.00640484,0.00494977,0.000609564,-0.00989768,0.614513,0.00681074,0.0354067,706,778,-21.9264,3.52917
-511,246,-22.2141,-3.79749,0,0,0,0,0,0,0,-1,713,778,-22.2141,3.79746
-504,246,-20.0047,-2.88214,0,0,0,0,0,0,0,-1,720,778,-20.0047,2.88216
-497,246,-29.4669,1.82684,0,0,0,0,0,0,0,-1,727,778,-29.4669,-1.82687
-490,246,-35.2386,-0.918579,0,0,0,0,0,0,0,-1,734,778,-35.2386,0.91859
-483,246,-34.1893,1.32922,0,0,0,0,0,0,0,-1,741,778,-34.1893,-1.3292
-476,246,-34.2305,1.40686,-0.0153383,-0.0102025,0.00098337,-0.0100206,-0.0155202,1.38794,0.00908642,0.048123,748,778,-34.2306,-1.40689
-469,246,-34.3029,1.43878,-0.0189368,-0.0117641,-0.00154944,-0.0114437,-0.0192572,-1.36689,0.0111838,0.0426821,755,778,-34.3028,-1.43878
-462,246,-34.6991,1.30023,-0.0229416,-0.0139003,-0.00483052,-0.011805,-0.0250368,-1.16153,0.0144628,0.0462658,762,778,-34.6991,-1.30022
-455,246,0,0,0,0,0,0,0,0,0,-1,769,778,0,0
-448,246,0,0,0,0,0,0,0,0,0,-1,776,778,0,0
-441,246,0,0,0,0,0,0,0,0,0,-1,783,778,0,0
-434,246,0,0,0,0,0,0,0,0,0,-1,790,778,0,0
-427,246,0,0,0,0,0,0,0,0,0,-1,797,778,0,0
-420,246,0,0,0,0,0,0,0,0,0,-1,804,778,0,0
-413,246,0,0,0,0,0,0,0,0,0,-1,811,778,0,0
-406,246,0,0,0,0,0,0,0,0,0,-1,818,778,0,0
-399,246,0,0,0,0,0,0,0,0,0,-1,825,778,0,0
-392,246,0,0,0,0,0,0,0,0,0,-1,832,778,0,0
-385,246,0,0,0,0,0,0,0,0,0,-1,839,778,0,0
-378,246,0,0,0,0,0,0,0,0,0,-1,846,778,0,0
-371,246,0,0,0,0,0,0,0,0,0,-1,853,778,0,0
-364,246,0,0,0,0,0,0,0,0,0,-1,860,778,0,0
-357,246,0,0,0,0,0,0,0,0,0,-1,867,778,0,0
-350,246,0,0,0,0,0,0,0,0,0,-1,874,778,0,0
-343,246,0,0,0,0,0,0,0,0,0,-1,881,778,0,0
-336,246,0,0,0,0,0,0,0,0,0,-1,888,778,0,0
-329,246,0,0,0,0,0,0,0,0,0,-1,895,778,0,0
-322,246,0,0,0,0,0,0,0,0,0,-1,902,778,0,0
-315,246,0,0,0,0,0,0,0,0,0,-1,909,778,0,0
-308,246,0,0,0,0,0,0,0,0,0,-1,916,778,0,0
-301,246,0,0,0,0,0,0,0,0,0,-1,923,778,0,0
-294,246,0,0,0,0,0,0,0,0,0,-1,930,778,0,0
-287,246,0,0,0,0,0,0,0,0,0,-1,937,778,0,0
-280,246,0,0,0,0,0,0,0,0,0,-1,944,778,0,0
-273,246,0,0,0,0,0,0,0,0,0,-1,951,778,0,0
-266,246,0,0,0,0,0,0,0,0,0,-1,958,778,0,0
-259,246,0,0,0,0,0,0,0,0,0,-1,965,778,0,0
-252,246,0,0,0,0,0,0,0,0,0,-1,972,778,0,0
-245,246,0,0,0,0,0,0,0,0,0,-1,979,778,0,0
-238,246,0,0,0,0,0,0,0,0,0,-1,986,778,0,0
-231,246,0,0,0,0,0,0,0,0,0,-1,993,778,0,0
-224,246,0,0,0,0,0,0,0,0,0,-1,1000,778,0,0
-217,246,0,0,0,0,0,0,0,0,0,-1,1007,778,0,0
-210,246,0,0,0,0,0,0,0,0,0,-1,1014,778,0,0
-203,246,0,0,0,0,0,0,0,0,0,-1,1021,778,0,0
-196,246,0,0,0,0,0,0,0,0,0,-1,1028,778,0,0
-189,246,0,0,0,0,0,0,0,0,0,-1,1035,778,0,0
-182,246,0,0,0,0,0,0,0,0,0,-1,1042,778,0,0
-175,246,0,0,0,0,0,0,0,0,0,-1,1049,778,0,0
-168,246,0,0,0,0,0,0,0,0,0,-1,1056,778,0,0
-161,246,0,0,0,0,0,0,0,0,0,-1,1063,778,0,0
-154,246,0,0,0,0,0,0,0,0,0,-1,1070,778,0,0
-147,246,0,0,0,0,0,0,0,0,0,-1,1077,778,0,0
-140,246,0,0,0,0,0,0,0,0,0,-1,1084,778,0,0
-133,246,0,0,0,0,0,0,0,0,0,-1,1091,778,0,0
-126,246,0,0,0,0,0,0,0,0,0,-1,1098,778,0,0
-119,246,0,0,0,0,0,0,0,0,0,-1,1105,778,0,0
-112,246,0,0,0,0,0,0,0,0,0,-1,1112,778,0,0
-105,246,0,0,0,0,0,0,0,0,0,-1,1119,778,0,0
-98,246,0,0,0,0,0,0,0,0,0,-1,1126,778,0,0
-91,246,0,0,0,0,0,0,0,0,0,-1,1133,778,0,0
-84,246,0,0,0,0,0,0,0,0,0,-1,1140,778,0,0
-77,246,0,0,0,0,0,0,0,0,0,-1,1147,778,0,0
-70,246,0,0,0,0,0,0,0,0,0,-1,1154,778,0,0
-63,246,0,0,0,0,0,0,0,0,0,-1,1161,778,0,0
-56,246,0,0,0,0,0,0,0,0,0,-1,1168,778,0,0
-49,246,0,0,0,0,0,0,0,0,0,-1,1175,778,0,0
-42,246,0,0,0,0,0,0,0,0,0,-1,1182,778,0,0
-35,246,0,0,0,0,0,0,0,0,0,-1,1189,778,0,0
-28,246,0,0,0,0,0,0,0,0,0,-1,1196,778,0,0
-21,246,0,0,0,0,0,0,0,0,0,-1,1203,778,0,0
-14,246,0,0,0,0,0,0,0,0,0,-1,1210,778,0,0
-7,246,0,0,0,0,0,0,0,0,0,-1,1217,778,0,0
0,246,0,0,0,0,0,0,0,0,0,-1,1224,778,0,0
7,246,0,0,0,0,0,0,0,0,0,-1,1231,778,0,0
14,246,0,0,0,0,0,0,0,0,0,-1,1238,778,0,0
21,246,0,0,0,0,0,0,0,0,0,-1,1245,778,0,0
28,246,0,0,0,0,0,0,0,0,0,-1,1252,778,0,0
35,246,0,0,0,0,0,0,0,0,0,-1,1259,778,0,0
42,246,0,0,0,0,0,0,0,0,0,-1,1266,778,0,0
49,246,0,0,0,0,0,0,0,0,0,-1,1273,778,0,0
56,246,0,0,0,0,0,0,0,0,0,-1,1280,778,0,0
63,246,0,0,0,0,0,0,0,0,0,-1,1287,778,0,0
70,246,0,0,0,0,0,0,0,0,0,-1,1294,778,0,0
77,246,0,0,0,0,0,0,0,0,0,-1,1301,778,0,0
84,246,0,0,0,0,0,0,0,0,0,-1,1308,778,0,0
91,246,0,0,0,0,0,0,0,0,0,-1,1315,778,0,0
98,246,0,0,0,0,0,0,0,0,0,-1,1322,778,0,0
105,246,0,0,0,0,0,0,0,0,0,-1,1329,778,0,0
112,246,0,0,0,0,0,0,0,0,0,-1,1336,778,0,0
119,246,0,0,0,0,0,0,0,0,0,-1,1343,778,0,0
126,246,0,0,0,0,0,0,0,0,0,-1,1350,778,0,0
133,246,0,0,0,0,0,0,0,0,0,-1,1357,778,0,0
140,246,0,0,0,0,0,0,0,0,0,-1,1364,778,0,0
147,246,0,0,0,0,0,0,0,0,0,-1,1371,778,0,0
154,246,0,0,0,0,0,0,0,0,0,-1,1378,778,0,0
161,246,0,0,0,0,0,0,0,0,0,-1,1385,778,0,0
168,246,0,0,0,0,0,0,0,0,0,-1,1392,778,0,0
175,246,0,0,0,0,0,0,0,0,0,-1,1399,778,0,0
182,246,0,0,0,0,0,0,0,0,0,-1,1406,778,0,0
189,246,0,0,0,0,0,0,0,0,0,-1,1413,778,0,0
196,246,0,0,0,0,0,0,0,0,0,-1,1420,778,0,0
203,246,0,0,0,0,0,0,0,0,0,-1,1427,778,0,0
210,246,0,0,0,0,0,0,0,0,0,-1,1434,778,0,0
217,246,0,0,0,0,0,0,0,0,0,-1,1441,778,0,0
224,246,0,0,0,0,0,0,0,0,0,-1,1448,778,0,0
231,246,0,0,0,0,0,0,0,0,0,-1,1455,778,0,0
238,246,0,0,0,0,0,0,0,0,0,-1,1462,778,0,0
245,246,0,0,0,0,0,0,0,0,0,-1,1469,778,0,0
252,246,0,0,0,0,0,0,0,0,0,-1,1476,778,0,0
259,246,0,0,0,0,0,0,0,0,0,-1,1483,778,0,0
266,246,0,0,0,0,0,0,0,0,0,-1,1490,778,0,0
273,246,0,0,0,0,0,0,0,0,0,-1,1497,778,0,0
280,246,0,0,0,0,0,0,0,0,0,-1,1504,778,0,0
287,246,0,0,0,0,0,0,0,0,0,-1,1511,778,0,0
294,246,0,0,0,0,0,0,0,0,0,-1,1518,778,0,0
301,246,0,0,0,0,0,0,0,0,0,-1,1525,778,0,0
308,246,0,0,0,0,0,0,0,0,0,-1,1532,778,0,0
315,246,0,0,0,0,0,0,0,0,0,-1,1539,778,0,0
322,246,0,0,0,0,0,0,0,0,0,-1,1546,778,0,0
329,246,0,0,0,0,0,0,0,0,0,-1,1553,778,0,0
336,246,0,0,0,0,0,0,0,0,0,-1,1560,778,0,0
343,246,0,0,0,0,0,0,0,0,0,-1,1567,778,0,0
350,246,0,0,0,0,0,0,0,0,0,-1,1574,778,0,0
357,246,0,0,0,0,0,0,0,0,0,-1,1581,778,0,0
364,246,0,0,0,0,0,0,0,0,0,-1,1588,778,0,0
371,246,0,0,0,0,0,0,0,0,0,-1,1595,778,0,0
378,246,0,0,0,0,0,0,0,0,0,-1,1602,778,0,0
385,246,0,0,0,0,0,0,0,0,0,-1,1609,778,0,0
392,246,0,0,0,0,0,0,0,0,0,-1,1616,778,0,0
399,246,0,0,0,0,0,0,0,0,0,-1,1623,778,0,0
406,246,0,0,0,0,0,0,0,0,0,-1,1630,778,0,0
413,246,0,0,0,0,0,0,0,0,0,-1,1637,778,0,0
420,246,0,0,0,0,0,0,0,0,0,-1,1644,778,0,0
427,246,0,0,0,0,0,0,0,0,0,-1,1651,778,0,0
434,246,0,0,0,0,0,0,0,0,0,-1,1658,778,0,0
441,246,0,0,0,0,0,0,0,0,0,-1,1665,778,0,0
448,246,0,0,0,0,0,0,0,0,0,-1,1672,778,0,0
455,246,0,0,0,0,0,0,0,0,0,-1,1679,778,0,0
462,246,0,0,0,0,0,0,0,0,0,-1,1686,778,0,0
469,246,0,0,0,0,0,0,0,0,0,-1,1693,778,0,0
476,246,0,0,0,0,0,0,0,0,0,-1,1700,778,0,0
483,246,0,0,0,0,0,0,0,0,0,-1,1707,778,0,0
490,246,0,0,0,0,0,0,0,0,0,-1,1714,778,0,0
497,246,0,0,0,0,0,0,0,0,0,-1,1721,778,0,0
504,246,0,0,0,0,0,0,0,0,0,-1,1728,778,0,0
511,246,0,0,0,0,0,0,0,0,0,-1,1735,778,0,0
518,246,0,0,0,0,0,0,0,0,0,-1,1742,778,0,0
525,246,0,0,0,0,0,0,0,0,0,-1,1749,778,0,0
532,246,0,0,0,0,0,0,0,0,0,-1,1756,778,0,0
539,246,0,0,0,0,0,0,0,0,0,-1,1763,778,0,0
546,246,0,0,0,0,0,0,0,0,0,-1,1770,778,0,0
553,246,0,0,0,0,0,0,0,0,0,-1,1777,778,0,0
560,246,0,0,0,0,0,0,0,0,0,-1,1784,778,0,0
567,246,0,0,0,0,0,0,0,0,0,-1,1791,778,0,0
574,246,0,0,0,0,0,0,0,0,0,-1,1798,778,0,0
581,246,46.5317,3.16229,0.00483077,0.00937937,-0.00543941,0.0130008,0.00120934,-0.983411,0.00829353,0.039098,1805,778,46.5318,-3.16226
588,246,46.7162,2.94116,0.0015446,0.00680784,-0.00300587,0.0081713,0.000181144,-1.14495,0.00538816,0.0438092,1812,778,46.7161,-2.94114
595,246,46.8397,2.93005,-3.70585e-05,0.00423918,-0.00141658,0.00466588,-0.000463751,-1.27823,0.00327613,0.0422564,1819,778,46.8397,-2.93004
602,246,46.6462,3.10718,-0.000705664,0.00220685,-0.000353791,0.00224921,-0.000748024,-1.45163,0.00180135,0.0444424,1826,778,46.6462,-3.10718
609,246,46.4338,3.14453,-0.000783542,0.000745151,0.000388078,0.000838027,-0.000876418,1.33589,0.000989918,0.0471452,1833,778,46.4338,-3.14451
616,246,46.676,3.38776,-0.000666748,-0.00039058,0.000758056,0.000241865,-0.00129919,0.875488,0.000956994,0.0474134,1840,778,46.676,-3.38776
623,246,47.017,3.65509,0,0,0,0,0,0,0,-1,1847,778,47.0169,-3.6551
630,246,45.7892,2.75171,0,0,0,0,0,0,0,-1,1854,778,45.7892,-2.75171
637,246,29.5785,0.837585,0,0,0,0,0,0,0,-1,1861,778,29.5785,-0.837606
644,246,28.1232,-1.43188,0,0,0,0,0,0,0,-1,1868,778,28.1232,1.43188
651,246,32.3124,-1.25934,0,0,0,0,0,0,0,-1,1875,778,32.3123,1.25934
658,246,32.2377,-0.807861,0.000498013,-0.0025994,-9.72531e-05,0.000501064,-0.00260245,-0.031357,0.00192387,0.0319979,1882,778,32.2377,0.807845
665,246,32.2319,-0.241028,0.000433621,-0.0022677,-0.000422013,0.000498015,-0.0023321,-0.151419,0.00174459,0.0224344,1889,778,32.2319,0.24102
672,246,32.2324,0.330383,5.0928e-05,-0.00137752,-0.000418045,0.000164277,-0.00149087,-0.264775,0.00105295,0.0213611,1896,778,32.2325,-0.330398
679,246,32.2474,0.906799,0.000144597,-0.000787921,-0.000470568,0.000340782,-0.000984106,-0.394999,0.000794414,0.0211985,1903,778,32.2474,-0.906774
686,246,32.2947,1.48871,0.000602965,0.000393939,3.87823e-05,0.000609929,0.000386975,0.177663,0.000356362,0.0224159,1910,778,32.2947,-1.48873
693,246,32.2816,1.99432,0.00145292,0.00161548,0.000681559,0.00222059,0.000847815,0.844747,0.00129395,0.0175623,1917,778,32.2816,-1.99432
700,246,32.2455,2.5,0.00252349,0.00271827,0.00148864,0.0041127,0.00112906,0.818062,0.00245362,0.0145837,1924,778,32.2455,-2.5
707,246,32.1984,3.05255,0.00376839,0.00396925,0.00235033,0.00622129,0.00151634,0.80675,0.00374582,0.0135681,1931,778,32.1984,-3.05257
714,246,32.187,3.63446,0.00557356,0.00538072,0.00368166,0.00916007,0.00179422,0.772307,0.00560519,0.0133751,1938,778,32.187,-3.63446
721,246,32.1841,4.17267,0.00734022,0.00673479,0.00513021,0.0121766,0.00189838,0.755929,0.00756479,0.0193283,1945,778,32.1841,-4.17268
728,246,32.3816,4.78082,0.00943671,0.00816872,0.00689111,0.0157229,0.0018825,0.739526,0.00991421,0.0447318,1952,778,32.3816,-4.7808
735,246,32.8369,5.48053,0,0,0,0,0,0,0,-1,1959,778,32.8369,-5.4805
742,246,31.7356,6.70013,0,0,0,0,0,0,0,-1,1966,778,31.7356,-6.70011
749,246,32.3883,7.69324,0,0,0,0,0,0,0,-1,1973,778,32.3883,-7.69322
756,246,33.6919,3.45264,0,0,0,0,0,0,0,-1,1980,778,33.6919,-3.45262
763,246,0,0,0,0,0,0,0,0,0,-1,1987,778,0,0
770,246,0,0,0,0,0,0,0,0,0,-1,1994,778,0,0
777,246,0,0,0,0,0,0,0,0,0,-1,2001,778,0,0
784,246,0,0,0,0,0,0,0,0,0,-1,2008,778,0,0
791,246,0,0,0,0,0,0,0,0,0,-1,2015,778,0,0
798,246,0,0,0,0,0,0,0,0,0,-1,2022,778,0,0
805,246,0,0,0,0,0,0,0,0,0,-1,2029,778,0,0
812,246,0,0,0,0,0,0,0,0,0,-1,2036,778,0,0
-700,239,0,0,0,0,0,0,0,0,0,-1,524,785,0,0
-693,239,0,0,0,0,0,0,0,0,0,-1,531,785,0,0
-686,239,0,0,0,0,0,0,0,0,0,-1,538,785,0,0
-679,239,0,0,0,0,0,0,0,0,0,-1,545,785,0,0
-672,239,0,0,0,0,0,0,0,0,0,-1,552,785,0,0
-665,239,0,0,0,0,0,0,0,0,0,-1,559,785,0,0
-658,239,0,0,0,0,0,0,0,0,0,-1,566,785,0,0
-651,239,0,0,0,0,0,0,0,0,0,-1,573,785,0,0
-644,239,0,0,0,0,0,0,0,0,0,-1,580,785,0,0
-637,239,-23.2709,0.465088,0,0,0,0,0,0,0,-1,587,785,-23.271,-0.465116
-630,239,-23.4006,0.956299,0,0,0,0,0,0,0,-1,594,785,-23.4005,-0.956285
-623,239,-30.6328,2.52185,0,0,0,0,0,0,0,-1,601,785,-30.6328,-2.52183
-616,239,-29.1425,1.42139,0,0,0,0,0,0,0,-1,608,785,-29.1425,-1.42139
-609,239,-27.8569,0.322937,0,0,0,0,0,0,0,-1,615,785,-27.857,-0.322963
-602,239,-22.1119,3.67889,0,0,0,0,0,0,0,-1,622,785,-22.1119,-3.67888
-595,239,-22.0991,2.6524,0.0131558,-5.97122e-05,-0.00749552,0.0165403,-0.00344422,-0.424132,0.0123363,0.0408516,629,785,-22.0991,-2.65243
-588,239,-22.0881,1.67169,0.00932871,0.00127484,-0.00599111,0.0125205,-0.00191692,-0.489503,0.00905385,0.0203747,636,785,-22.0881,-1.67166
-581,239,-22.1906,1.05579,0.00680625,0.00163621,-0.00446856,0.00938363,-0.000941167,-0.523172,0.00659191,0.011031,643,785,-22.1906,-1.0558
-574,239,-22.1736,0.494263,0.00456948,0.00158041,-0.00307799,0.00649659,-0.000346695,-0.559386,0.00445113,0.0114065,650,785,-22.1736,-0.49425
-567,239,-22.1907,-0.0413208,0.00259453,0.00097531,-0.00163499,0.00360939,-3.95456e-05,-0.555508,0.00241955,0.0162681,657,785,-22.1907,0.0413056
-560,239,-22.213,-0.527771,0.000869427,-0.000137218,-0.000165537,0.00089595,-0.00016374,-0.158872,0.000658699,0.0166043,664,785,-22.213,0.527742
-553,239,-22.2291,-1.01904,-0.000340825,-0.00161083,0.00126811,0.000442382,-0.00239404,0.553275,0.0017621,0.0147149,671,785,-22.2291,1.01903
-546,239,-22.278,-1.53082,-0.00125394,-0.00351755,0.00253235,0.000388017,-0.00515951,0.575246,0.00357604,0.0151539,678,785,-22.278,1.53084
-539,239,-22.3124,-2.06952,-0.00220062,-0.005358,0.00365022,0.00019767,-0.00775628,0.581298,0.00523799,0.0163429,685,785,-22.3124,2.06953
-532,239,-22.2932,-2.59509,-0.00237197,-0.00638962,0.00435917,0.000418968,-0.00918056,0.569488,0.0062647,0.0177316,692,785,-22.2932,2.59507
-525,239,-22.3425,-2.99438,-0.00232992,-0.00707321,0.00526189,0.0010701,-0.0104732,0.573672,0.00736482,0.0283482,699,785,-22.3425,2.99439
-518,239,-22.5422,-3.34216,0,0,0,0,0,0,0,-1,706,785,-22.5423,3.34218
-511,239,-20.9849,-2.09235,0,0,0,0,0,0,0,-1,713,785,-20.9848,2.09234
-504,239,-25.5015,2.00421,0,0,0,0,0,0,0,-1,720,785,-25.5015,-2.00422
-497,239,-35.1436,-0.86853,0,0,0,0,0,0,0,-1,727,785,-35.1436,0.868547
-490,239,-34.6187,0.709412,0,0,0,0,0,0,0,-1,734,785,-34.6187,-0.709406
-483,239,-34.7801,1.31793,-0.011195,-0.00872353,0.00474494,-0.00505607,-0.0148625,0.912787,0.00872575,0.048935,741,785,-34.7801,-1.31793
-476,239,-34.5192,1.29291,-0.0140849,-0.00887699,0.00338309,-0.00721177,-0.0157501,1.11339,0.00910409,0.0438746,748,785,-34.5192,-1.29293
-469,239,-34.65,1.29504,-0.0177629,-0.00928864,0.00141348,-0.00905909,-0.0179925,1.4098,0.010388,0.0439259,755,785,-34.65,-1.29505
-462,239,-34.847,1.2865,-0.0222109,-0.0100935,-0.00108455,-0.00999721,-0.0223072,-1.48223,0.0129021,0.0449748,762,785,-34.847,-1.28648
-455,239,0,0,0,0,0,0,0,0,0,-1,769,785,0,0
-448,239,0,0,0,0,0,0,0,0,0,-1,776,785,0,0
-441,239,0,0,0,0,0,0,0,0,0,-1,783,785,0,0
-434,239,0,0,0,0,0,0,0,0,0,-1,790,785,0,0
-427,239,0,0,0,0,0,0,0,0,0,-1,797,785,0,0
-420,239,0,0,0,0,0,0,0,0,0,-1,804,785,0,0
-413,239,0,0,0,0,0,0,0,0,0,-1,811,785,0,0
-406,239,0,0,0,0,0,0,0,0,0,-1,818,785,0,0
-399,239,0,0,0,0,0,0,0,0,0,-1,825,785,0,0
-392,239,0,0,0,0,0,0,0,0,0,-1,832,785,0,0
-385,239,0,0,0,0,0,0,0,0,0,-1,839,785,0,0
-378,239,0,0,0,0,0,0,0,0,0,-1,846,785,0,0
-371,239,0,0,0,0,0,0,0,0,0,-1,853,785,0,0
-364,239,0,0,0,0,0,0,0,0,0,-1,860,785,0,0
-357,239,0,0,0,0,0,0,0,0,0,-1,867,785,0,0
-350,239,0,0,0,0,0,0,0,0,0,-1,874,785,0,0
-343,239,0,0,0,0,0,0,0,0,0,-1,881,785,0,0
-336,239,0,0,0,0,0,0,0,0,0,-1,888,785,0,0
-329,239,0,0,0,0,0,0,0,0,0,-1,895,785,0,0
-322,239,0,0,0,0,0,0,0,0,0,-1,902,785,0,0
-315,239,0,0,0,0,0,0,0,0,0,-1,909,785,0,0
-308,239,0,0,0,0,0,0,0,0,0,-1,916,785,0,0
-301,239,0,0,0,0,0,0,0,0,0,-1,923,785,0,0
-294,239,0,0,0,0,0,0,0,0,0,-1,930,785,0,0
-287,239,0,0,0,0,0,0,0,0,0,-1,937,785,0,0
-280,239,0,0,0,0,0,0,0,0,0,-1,944,785,0,0
-273,239,0,0,0,0,0,0,0,0,0,-1,951,785,0,0
-266,239,0,0,0,0,0,0,0,0,0,-1,958,785,0,0
-259,239,0,0,0,0,0,0,0,0,0,-1,965,785,0,0
-252,239,0,0,0,0,0,0,0,0,0,-1,972,785,0,0
-245,239,0,0,0,0,0,0,0,0,0,-1,979,785,0,0
-238,239,0,0,0,0,0,0,0,0,0,-1,986,785,0,0
-231,239,0,0,0,0,0,0,0,0,0,-1,993,785,0,0
-224,239,0,0,0,0,0,0,0,0,0,-1,1000,785,0,0
-217,239,0,0,0,0,0,0,0,0,0,-1,1007,785,0,0
-210,239,0,0,0,0,0,0,0,0,0,-1,1014,785,0,0
-203,239,0,0,0,0,0,0,0,0,0,-1,1021,785,0,0
-196,239,0,0,0,0,0,0,0,0,0,-1,1028,785,0,0
-189,239,0,0,0,0,0,0,0,0,0,-1,1035,785,0,0
-182,239,0,0,0,0,0,0,0,0,0,-1,1042,785,0,0
-175,239,0,0,0,0,0,0,0,0,0,-1,1049,785,0,0
-168,239,0,0,0,0,0,0,0,0,0,-1,1056,785,0,0
-161,239,0,0,0,0,0,0,0,0,0,-1,1063,785,0,0
-154,239,0,0,0,0,0,0,0,0,0,-1,1070,785,0,0
-147,239,0,0,0,0,0,0,0,0,0,-1,1077,785,0,0
-140,239,0,0,0,0,0,0,0,0,0,-1,1084,785,0,0
-133,239,0,0,0,0,0,0,0,0,0,-1,1091,785,0,0
-126,239,0,0,0,0,0,0,0,0,0,-1,1098,785,0,0
-119,239,0,0,0,0,0,0,0,0,0,-1,1105,785,0,0
-112,239,0,0,0,0,0,0,0,0,0,-1,1112,785,0,0
-105,239,0,0,0,0,0,0,0,0,0,-1,1119,785,0,0
-98,239,0,0,0,0,0,0,0,0,0,-1,1126,785,0,0
-91,239,0,0,0,0,0,0,0,0,0,-1,1133,785,0,0
-84,239,0,0,0,0,0,0,0,0,0,-1,1140,785,0,0
-77,239,0,0,0,0,0,0,0,0,0,-1,1147,785,0,0
-70,239,0,0,0,0,0,0,0,0,0,-1,1154,785,0,0
-63,239,0,0,0,0,0,0,0,0,0,-1,1161,785,0,0
-56,239,0,0,0,0,0,0,0,0,0,-1,1168,785,0,0
-49,239,0,0,0,0,0,0,0,0,0,-1,1175,785,0,0
-42,239,0,0,0,0,0,0,0,0,0,-1,1182,785,0,0
-35,239,0,0,0,0,0,0,0,0,0,-1,1189,785,0,0
-28,239,0,0,0,0,0,0,0,0,0,-1,1196,785,0,0
-21,239,0,0,0,0,0,0,0,0,0,-1,1203,785,0,0
-14,239,0,0,0,0,0,0,0,0,0,-1,1210,785,0,0
-7,239,0,0,0,0,0,0,0,0,0,-1,1217,785,0,0
0,239,0,0,0,0,0,0,0,0,0,-1,1224,785,0,0
7,239,0,0,0,0,0,0,0,0,0,-1,1231,785,0,0
14,239,0,0,0,0,0,0,0,0,0,-1,1238,785,0,0
21,239,0,0,0,0,0,0,0,0,0,-1,1245,785,0,0
28,239,0,0,0,0,0,0,0,0,0,-1,1252,785,0,0
35,239,0,0,0,0,0,0,0,0,0,-1,1259,785,0,0
42,239,0,0,0,0,0,0,0,0,0,-1,1266,785,0,0
49,239,0,0,0,0,0,0,0,0,0,-1,1273,785,0,0
56,239,0,0,0,0,0,0,0,0,0,-1,1280,785,0,0
63,239,0,0,0,0,0,0,0,0,0,-1,1287,785,0,0
70,239,0,0,0,0,0,0,0,0,0,-1,1294,785,0,0
77,239,0,0,0,0,0,0,0,0,0,-1,1301,785,0,0
84,239,0,0,0,0,0,0,0,0,0,-1,1308,785,0,0
91,239,0,0,0,0,0,0,0,0,0,-1,1315,785,0,0
98,239,0,0,0,0,0,0,0,0,0,-1,1322,785,0,0
105,239,0,0,0,0,0,0,0,0,0,-1,1329,785,0,0
112,239,0,0,0,0,0,0,0,0,0,-1,1336,785,0,0
119,239,0,0,0,0,0,0,0,0,0,-1,1343,785,0,0
126,239,0,0,0,0,0,0,0,0,0,-1,1350,785,0,0
133,239,0,0,0,0,0,0,0,0,0,-1,1357,785,0,0
140,239,0,0,0,0,0,0,0,0,0,-1,1364,785,0,0
147,239,0,0,0,0,0,0,0,0,0,-1,1371,785,0,0
154,239,0,0,0,0,0,0,0,0,0,-1,1378,785,0,0
161,239,0,0,0,0,0,0,0,0,0,-1,1385,785,0,0
168,239,0,0,0,0,0,0,0,0,0,-1,1392,785,0,0
175,239,0,0,0,0,0,0,0,0,0,-1,1399,785,0,0
182,239,0,0,0,0,0,0,0,0,0,-1,1406,785,0,0
189,239,0,0,0,0,0,0,0,0,0,-1,1413,785,0,0
196,239,0,0,0,0,0,0,0,0,0,-1,1420,785,0,0
203,239,0,0,0,0,0,0,0,0,0,-1,1427,785,0,0
210,239,0,0,0,0,0,0,0,0,0,-1,1434,785,0,0
217,239,0,0,0,0,0,0,0,0,0,-1,1441,785,0,0
224,239,0,0,0,0,0,0,0,0,0,-1,1448,785,0,0
231,239,0,0,0,0,0,0,0,0,0,-1,1455,785,0,0
238,239,0,0,0,0,0,0,0,0,0,-1,1462,785,0,0
245,239,0,0,0,0,0,0,0,0,0,-1,1469,785,0,0
252,239,0,0,0,0,0,0,0,0,0,-1,1476,785,0,0
259,239,0,0,0,0,0,0,0,0,0,-1,1483,785,0,0
266,239,0,0,0,0,0,0,0,0,0,-1,1490,785,0,0
273,239,0,0,0,0,0,0,0,0,0,-1,1497,785,0,0
280,239,0,0,0,0,0,0,0,0,0,-1,1504,785,0,0
287,239,0,0,0,0,0,0,0,0,0,-1,1511,785,0,0
294,239,0,0,0,0,0,0,0,0,0,-1,1518,785,0,0
301,239,0,0,0,0,0,0,0,0,0,-1,1525,785,0,0
308,239,0,0,0,0,0,0,0,0,0,-1,1532,785,0,0
315,239,0,0,0,0,0,0,0,0,0,-1,1539,785,0,0
322,239,0,0,0,0,0,0,0,0,0,-1,1546,785,0,0
329,239,0,0,0,0,0,0,0,0,0,-1,1553,785,0,0
336,239,0,0,0,0,0,0,0,0,0,-1,1560,785,0,0
343,239,0,0,0,0,0,0,0,0,0,-1,1567,785,0,0
350,239,0,0,0,0,0,0,0,0,0,-1,1574,785,0,0
357,239,0,0,0,0,0,0,0,0,0,-1,1581,785,0,0
364,239,0,0,0,0,0,0,0,0,0,-1,1588,785,0,0
371,239,0,0,0,0,0,0,0,0,0,-1,1595,785,0,0
378,239,0,0,0,0,0,0,0,0,0,-1,1602,785,0,0
385,239,0,0,0,0,0,0,0,0,0,-1,1609,785,0,0
392,239,0,0,0,0,0,0,0,0,0,-1,1616,785,0,0
399,239,0,0,0,0,0,0,0,0,0,-1,1623,785,0,0
406,239,0,0,0,0,0,0,0,0,0,-1,1630,785,0,0
413,239,0,0,0,0,0,0,0,0,0,-1,1637,785,0,0
420,239,0,0,0,0,0,0,0,0,0,-1,1644,785,0,0
427,239,0,0,0,0,0,0,0,0,0,-1,1651,785,0,0
434,239,0,0,0,0,0,0,0,0,0,-1,1658,785,0,0
441,239,0,0,0,0,0,0,0,0,0,-1,1665,785,0,0
448,239,0,0,0,0,0,0,0,0,0,-1,1672,785,0,0
455,239,0,0,0,0,0,0,0,0,0,-1,1679,785,0,0
462,239,0,0,0,0,0,0,0,0,0,-1,1686,785,0,0
469,239,0,0,0,0,0,0,0,0,0,-1,1693,785,0,0
476,239,0,0,0,0,0,0,0,0,0,-1,1700,785,0,0
483,239,0,0,0,0,0,0,0,0,0,-1,1707,785,0,0
490,239,0,0,0,0,0,0,0,0,0,-1,1714,785,0,0
497,239,0,0,0,0,0,0,0,0,0,-1,1721,785,0,0
504,239,0,0,0,0,0,0,0,0,0,-1,1728,785,0,0
511,239,0,0,0,0,0,0,0,0,0,-1,1735,785,0,0
518,239,0,0,0,0,0,0,0,0,0,-1,1742,785,0,0
525,239,0,0,0,0,0,0,0,0,0,-1,1749,785,0,0
532,239,0,0,0,0,0,0,0,0,0,-1,1756,785,0,0
539,239,0,0,0,0,0,0,0,0,0,-1,1763,785,0,0
546,239,0,0,0,0,0,0,0,0,0,-1,1770,785,0,0
553,239,0,0,0,0,0,0,0,0,0,-1,1777,785,0,0
560,239,0,0,0,0,0,0,0,0,0,-1,1784,785,0,0
567,239,0,0,0,0,0,0,0,0,0,-1,1791,785,0,0
574,239,0,0,0,0,0,0,0,0,0,-1,1798,785,0,0
581,239,46.5236,3.15198,0.00459673,0.00828931,-0.00423855,0.0110662,0.0018198,-0.990803,0.00685192,0.0370604,1805,785,46.5236,-3.15197
588,239,46.5918,3.10565,0.00139353,0.00617294,-0.00179918,0.00677451,0.000791953,-1.24812,0.00427687,0.0382333,1812,785,46.5919,-3.10568
595,239,46.6941,2.94434,-4.46783e-05,0.00366425,-0.000327758,0.00369299,-7.34195e-05,-1.48333,0.00248683,0.0345018,1819,785,46.6941,-2.94432
602,239,46.6774,2.96985,-0.000567675,0.0016318,0.000555925,0.00176433,-0.000700201,1.33677,0.00146644,0.039858,1826,785,46.6773,-2.96984
609,239,46.9169,2.79688,0,0,0,0,0,0,0,-1,1833,785,46.9169,-2.79688
616,239,46.6873,3.47754,0,0,0,0,0,0,0,-1,1840,785,46.6872,-3.47754
623,239,47.0734,3.33441,0,0,0,0,0,0,0,-1,1847,785,47.0733,-3.33443
630,239,47.0922,3.43616,0,0,0,0,0,0,0,-1,1854,785,47.0922,-3.43616
637,239,39.5542,2.54114,0,0,0,0,0,0,0,-1,1861,785,39.5543,-2.54114
644,239,18.3466,0.735413,0,0,0,0,0,0,0,-1,1868,785,18.3465,-0.735414
651,239,32.5656,-1.49048,0,0,0,0,0,0,0,-1,1875,785,32.5655,1.49047
658,239,32.7603,-0.823547,0.000565935,-0.00291227,-0.000128874,0.000570703,-0.00291704,-0.0369843,0.0021602,0.0444146,1882,785,32.7602,0.82352
665,239,32.8599,-0.204651,0.000454847,-0.00257874,-0.000515466,0.000540042,-0.00266394,-0.163797,0.00198067,0.0179931,1889,785,32.8599,0.204655
672,239,32.8015,0.317627,-1.69332e-05,-0.00175088,-0.000653156,0.000201568,-0.00196938,-0.322828,0.00138501,0.0215257,1896,785,32.8015,-0.317642
679,239,32.777,0.899597,-0.000141786,-0.00129052,-0.0008602,0.000318179,-0.00175048,-0.491035,0.00128623,0.0226219,1903,785,32.777,-0.899574
686,239,32.7916,1.50922,9.55636e-05,-0.000165213,-0.000435434,0.000419712,-0.000489362,-0.639925,0.000525367,0.0225109,1910,785,32.7917,-1.5092
693,239,32.8068,2.01227,0.000795511,0.00104128,0.000133876,0.00110012,0.000736671,1.1567,0.000647222,0.0149418,1917,785,32.8068,-2.0123
700,239,32.774,2.52795,0.00175432,0.00202545,0.00089723,0.0027973,0.000982473,0.860377,0.00163868,0.011863,1924,785,32.7741,-2.52796
707,239,32.7532,3.08264,0.00283827,0.00312484,0.00169021,0.00467783,0.00128528,0.827684,0.0027906,0.0110012,1931,785,32.7531,-3.08266
714,239,32.7437,3.62463,0.00443911,0.00432169,0.00292368,0.00730466,0.00145613,0.775359,0.00446427,0.0101995,1938,785,32.7437,-3.62466
721,239,32.6919,4.15472,0.00589996,0.00542026,0.0042235,0.00989042,0.00142981,0.757034,0.00617246,0.0240212,1945,785,32.6919,-4.15471
728,239,32.5991,4.64276,0.0075203,0.00648104,0.00574746,0.0127716,0.00122977,0.740316,0.00813551,0.0465503,1952,785,32.5991,-4.64276
735,239,32.7625,5.21985,0,0,0,0,0,0,0,-1,1959,785,32.7625,-5.21984
742,239,32.4141,7.6665,0,0,0,0,0,0,0,-1,1966,785,32.4141,-7.6665
749,239,32.1489,3.4411,0,0,0,0,0,0,0,-1,1973,785,32.149,-3.44109
756,239,32.9064,3.6687,0,0,0,0,0,0,0,-1,1980,785,32.9063,-3.66873
763,239,0,0,0,0,0,0,0,0,0,-1,1987,785,0,0
770,239,0,0,0,0,0,0,0,0,0,-1,1994,785,0,0
777,239,0,0,0,0,0,0,0,0,0,-1,2001,785,0,0
784,239,0,0,0,0,0,0,0,0,0,-1,2008,785,0,0
791,239,0,0,0,0,0,0,0,0,0,-1,2015,785,0,0
798,239,0,0,0,0,0,0,0,0,0,-1,2022,785,0,0
805,239,0,0,0,0,0,0,0,0,0,-1,2029,785,0,0
812,239,0,0,0,0,0,0,0,0,0,-1,2036,785,0,0
-700,232,0,0,0,0,0,0,0,0,0,-1,524,792,0,0
-693,232,0,0,0,0,0,0,0,0,0,-1,531,792,0,0
-686,232,0,0,0,0,0,0,0,0,0,-1,538,792,0,0
-679,232,0,0,0,0,0,0,0,0,0,-1,545,792,0,0
-672,232,0,0,0,0,0,0,0,0,0,-1,552,792,0,0
-665,232,0,0,0,0,0,0,0,0,0,-1,559,792,0,0
-658,232,0,0,0,0,0,0,0,0,0,-1,566,792,0,0
-651,232,0,0,0,0,0,0,0,0,0,-1,573,792,0,0
-644,232,-22.5826,0.269348,0,0,0,0,0,0,0,-1,580,792,-22.5826,-0.269357
-637,232,-30.1556,5.06824,0,0,0,0,0,0,0,-1,587,792,-30.1556,-5.06823
-630,232,-32.2345,1.80212,0,0,0,0,0,0,0,-1,594,792,-32.2345,-1.80211
-623,232,-31.5665,1.05115,0,0,0,0,0,0,0,-1,601,792,-31.5664,-1.05112
-616,232,-30.6812,0.432861,0,0,0,0,0,0,0,-1,608,792,-30.6812,-0.432881
-609,232,-29.7142,-0.478943,0,0,0,0,0,0,0,-1,615,792,-29.7142,0.478965
-602,232,-22.58,3.6983,0,0,0,0,0,0,0,-1,622,792,-22.58,-3.69829
-595,232,-22.5831,2.66187,0.0122737,-0.000669499,-0.00587461,0.0145424,-0.00293819,-0.368542,0.0108083,0.0384088,629,792,-22.5831,-2.66186
-588,232,-22.6669,1.63397,0.00813559,0.000701962,-0.00481449,0.010501,-0.00166349,-0.45668,0.007616,0.0147773,636,792,-22.6669,-1.634
-581,232,-22.6925,1.05017,0.00582126,0.0011143,-0.00355981,0.00773523,-0.000799668,-0.49332,0.00544299,0.00865808,643,792,-22.6925,-1.05017
-574,232,-22.692,0.534302,0.00386269,0.00108827,-0.00242254,0.00526708,-0.000316124,-0.525374,0.00362137,0.00813686,650,792,-22.6919,-0.5343
-567,232,-22.7154,0.0146484,0.00205543,0.000473925,-0.00110648,0.00262467,-9.53171e-05,-0.47515,0.00178241,0.0105761,657,792,-22.7154,-0.0146573
-560,232,-22.7463,-0.505005,0.000472659,-0.000698392,0.000388541,0.000589845,-0.000815578,0.29293,0.000814903,0.0143478,664,792,-22.7463,0.505008
-553,232,-22.7792,-1.02686,-0.000460168,-0.00219124,0.00197673,0.000832214,-0.00348362,0.579041,0.00264384,0.0142205,671,792,-22.7792,1.02683
-546,232,-22.7978,-1.54181,-0.00116836,-0.00421794,0.00338514,0.00101955,-0.00640586,0.57379,0.00464785,0.0201082,678,792,-22.7978,1.54183
-539,232,-22.8717,-2.01801,-0.00195854,-0.0060753,0.004566,0.000991604,-0.00902545,0.573637,0.00637327,0.0286265,685,792,-22.8717,2.01803
-532,232,-22.9492,-2.52209,-0.0020077,-0.00694562,0.00533323,0.00140034,-0.0103537,0.568617,0.00741343,0.0305631,692,792,-22.9492,2.52212
-525,232,-22.9043,-2.76685,0,0,0,0,0,0,0,-1,699,792,-22.9043,2.76687
-518,232,-20.8098,-3.08154,0,0,0,0,0,0,0,-1,706,792,-20.8098,3.08155
-511,232,-21.6708,-0.962708,0,0,0,0,0,0,0,-1,713,792,-21.6708,0.962731
-504,232,-32.8537,0.218201,0,0,0,0,0,0,0,-1,720,792,-32.8537,-0.218198
-497,232,-34.7998,0.502502,0,0,0,0,0,0,0,-1,727,792,-34.7998,-0.502518
-490,232,-34.734,0.890015,-0.0074333,-0.00875785,0.00726262,-0.000802825,-0.0153883,0.739929,0.010002,0.0470518,734,792,-34.734,-0.889995
-483,232,-34.7865,1.12152,-0.00964235,-0.00824901,0.00675668,-0.00215317,-0.0157382,0.836771,0.00985313,0.0438283,741,792,-34.7865,-1.12153
-476,232,-34.7527,1.16931,-0.0126289,-0.00738689,0.00571018,-0.00372491,-0.0162909,1.00056,0.00985641,0.0354284,748,792,-34.7527,-1.16933
-469,232,-34.8002,1.22845,-0.0167434,-0.00626608,0.00433088,-0.00470768,-0.0183018,1.22539,0.0109739,0.0344849,755,792,-34.8002,-1.22843
-462,232,0,0,0,0,0,0,0,0,0,-1,762,792,0,0
-455,232,0,0,0,0,0,0,0,0,0,-1,769,792,0,0
-448,232,0,0,0,0,0,0,0,0,0,-1,776,792,0,0
-441,232,0,0,0,0,0,0,0,0,0,-1,783,792,0,0
-434,232,0,0,0,0,0,0,0,0,0,-1,790,792,0,0
-427,232,0,0,0,0,0,0,0,0,0,-1,797,792,0,0
-420,232,0,0,0,0,0,0,0,0,0,-1,804,792,0,0
-413,232,0,0,0,0,0,0,0,0,0,-1,811,792,0,0
-406,232,0,0,0,0,0,0,0,0,0,-1,818,792,0,0
-399,232,0,0,0,0,0,0,0,0,0,-1,825,792,0,0
-392,232,0,0,0,0,0,0,0,0,0,-1,832,792,0,0
-385,232,0,0,0,0,0,0,0,0,0,-1,839,792,0,0
-378,232,0,0,0,0,0,0,0,0,0,-1,846,792,0,0
-371,232,0,0,0,0,0,0,0,0,0,-1,853,792,0,0
-364,232,0,0,0,0,0,0,0,0,0,-1,860,792,0,0
-357,232,0,0,0,0,0,0,0,0,0,-1,867,792,0,0
-350,232,0,0,0,0,0,0,0,0,0,-1,874,792,0,0
-343,232,0,0,0,0,0,0,0,0,0,-1,881,792,0,0
-336,232,0,0,0,0,0,0,0,0,0,-1,888,792,0,0
-329,232,0,0,0,0,0,0,0,0,0,-1,895,792,0,0
-322,232,0,0,0,0,0,0,0,0,0,-1,902,792,0,0
-315,232,0,0,0,0,0,0,0,0,0,-1,909,792,0,0
-308,232,0,0,0,0,0,0,0,0,0,-1,916,792,0,0
-301,232,0,0,0,0,0,0,0,0,0,-1,923,792,0,0
-294,232,0,0,0,0,0,0,0,0,0,-1,930,792,0,0
-287,232,0,0,0,0,0,0,0,0,0,-1,937,792,0,0
-280,232,0,0,0,0,0,0,0,0,0,-1,944,792,0,0
-273,232,0,0,0,0,0,0,0,0,0,-1,951,792,0,0
-266,232,0,0,0,0,0,0,0,0,0,-1,958,792,0,0
-259,232,0,0,0,0,0,0,0,0,0,-1,965,792,0,0
-252,232,0,0,0,0,0,0,0,0,0,-1,972,792,0,0
-245,232,0,0,0,0,0,0,0,0,0,-1,979,792,0,0
-238,232,0,0,0,0,0,0,0,0,0,-1,986,792,0,0
-231,232,0,0,0,0,0,0,0,0,0,-1,993,792,0,0
-224,232,0,0,0,0,0,0,0,0,0,-1,1000,792,0,0
-217,232,0,0,0,0,0,0,0,0,0,-1,1007,792,0,0
-210,232,0,0,0,0,0,0,0,0,0,-1,1014,792,0,0
-203,232,0,0,0,0,0,0,0,0,0,-1,1021,792,0,0
-196,232,0,0,0,0,0,0,0,0,0,-1,1028,792,0,0
-189,232,0,0,0,0,0,0,0,0,0,-1,1035,792,0,0
-182,232,0,0,0,0,0,0,0,0,0,-1,1042,792,0,0
-175,232,0,0,0,0,0,0,0,0,0,-1,1049,792,0,0
-168,232,0,0,0,0,0,0,0,0,0,-1,1056,792,0,0
-161,232,0,0,0,0,0,0,0,0,0,-1,1063,792,0,0
-154,232,0,0,0,0,0,0,0,0,0,-1,1070,792,0,0
-147,232,0,0,0,0,0,0,0,0,0,-1,1077,792,0,0
-140,232,0,0,0,0,0,0,0,0,0,-1,1084,792,0,0
-133,232,0,0,0,0,0,0,0,0,0,-1,1091,792,0,0
-126,232,0,0,0,0,0,0,0,0,0,-1,1098,792,0,0
-119,232,0,0,0,0,0,0,0,0,0,-1,1105,792,0,0
-112,232,0,0,0,0,0,0,0,0,0,-1,1112,792,0,0
-105,232,0,0,0,0,0,0,0,0,0,-1,1119,792,0,0
-98,232,0,0,0,0,0,0,0,0,0,-1,1126,792,0,0
-91,232,0,0,0,0,0,0,0,0,0,-1,1133,792,0,0
-84,232,0,0,0,0,0,0,0,0,0,-1,1140,792,0,0
-77,232,0,0,0,0,0,0,0,0,0,-1,1147,792,0,0
-70,232,0,0,0,0,0,0,0,0,0,-1,1154,792,0,0
-63,232,0,0,0,0,0,0,0,0,0,-1,1161,792,0,0
-56,232,0,0,0,0,0,0,0,0,0,-1,1168,792,0,0
-49,232,0,0,0,0,0,0,0,0,0,-1,1175,792,0,0
-42,232,0,0,0,0,0,0,0,0,0,-1,1182,792,0,0
-35,232,0,0,0,0,0,0,0,0,0,-1,1189,792,0,0
-28,232,0,0,0,0,0,0,0,0,0,-1,1196,792,0,0
-21,232,0,0,0,0,0,0,0,0,0,-1,1203,792,0,0
-14,232,0,0,0,0,0,0,0,0,0,-1,1210,792,0,0
-7,232,0,0,0,0,0,0,0,0,0,-1,1217,792,0,0
0,232,0,0,0,0,0,0,0,0,0,-1,1224,792,0,0
7,232,0,0,0,0,0,0,0,0,0,-1,1231,792,0,0
14,232,0,0,0,0,0,0,0,0,0,-1,1238,792,0,0
21,232,0,0,0,0,0,0,0,0,0,-1,1245,792,0,0
28,232,0,0,0,0,0,0,0,0,0,-1,1252,792,0,0
35,232,0,0,0,0,0,0,0,0,0,-1,1259,792,0,0
42,232,0,0,0,0,0,0,0,0,0,-1,1266,792,0,0
49,232,0,0,0,0,0,0,0,0,0,-1,1273,792,0,0
56,232,0,0,0,0,0,0,0,0,0,-1,1280,792,0,0
63,232,0,0,0,0,0,0,0,0,0,-1,1287,792,0,0
70,232,0,0,0,0,0,0,0,0,0,-1,1294,792,0,0
77,232,0,0,0,0,0,0,0,0,0,-1,1301,792,0,0
84,232,0,0,0,0,0,0,0,0,0,-1,1308,792,0,0
91,232,0,0,0,0,0,0,0,0,0,-1,1315,792,0,0
98,232,0,0,0,0,0,0,0,0,0,-1,1322,792,0,0
105,232,0,0,0,0,0,0,0,0,0,-1,1329,792,0,0
112,232,0,0,0,0,0,0,0,0,0,-1,1336,792,0,0
119,232,0,0,0,0,0,0,0,0,0,-1,1343,792,0,0
126,232,0,0,0,0,0,0,0,0,0,-1,1350,792,0,0
133,232,0,0,0,0,0,0,0,0,0,-1,1357,792,0,0
140,232,0,0,0,0,0,0,0,0,0,-1,1364,792,0,0
147,232,0,0,0,0,0,0,0,0,0,-1,1371,792,0,0
154,232,0,0,0,0,0,0,0,0,0,-1,1378,792,0,0
161,232,0,0,0,0,0,0,0,0,0,-1,1385,792,0,0
168,232,0,0,0,0,0,0,0,0,0,-1,1392,792,0,0
175,232,0,0,0,0,0,0,0,0,0,-1,1399,792,0,0
182,232,0,0,0,0,0,0,0,0,0,-1,1406,792,0,0
189,232,0,0,0,0,0,0,0,0,0,-1,1413,792,0,0
196,232,0,0,0,0,0,0,0,0,0,-1,1420,792,0,0
203,232,0,0,0,0,0,0,0,0,0,-1,1427,792,0,0
210,232,0,0,0,0,0,0,0,0,0,-1,1434,792,0,0
217,232,0,0,0,0,0,0,0,0,0,-1,1441,792,0,0
224,232,0,0,0,0,0,0,0,0,0,-1,1448,792,0,0
231,232,0,0,0,0,0,0,0,0,0,-1,1455,792,0,0
238,232,0,0,0,0,0,0,0,0,0,-1,1462,792,0,0
245,232,0,0,0,0,0,0,0,0,0,-1,1469,792,0,0
252,232,0,0,0,0,0,0,0,0,0,-1,1476,792,0,0
259,232,0,0,0,0,0,0,0,0,0,-1,1483,792,0,0
266,232,0,0,0,0,0,0,0,0,0,-1,1490,792,0,0
273,232,0,0,0,0,0,0,0,0,0,-1,1497,792,0,0
280,232,0,0,0,0,0,0,0,0,0,-1,1504,792,0,0
287,232,0,0,0,0,0,0,0,0,0,-1,1511,792,0,0
294,232,0,0,0,0,0,0,0,0,0,-1,1518,792,0,0
301,232,0,0,0,0,0,0,0,0,0,-1,1525,792,0,0
308,232,0,0,0,0,0,0,0,0,0,-1,1532,792,0,0
315,232,0,0,0,0,0,0,0,0,0,-1,1539,792,0,0
322,232,0,0,0,0,0,0,0,0,0,-1,1546,792,0,0
329,232,0,0,0,0,0,0,0,0,0,-1,1553,792,0,0
336,232,0,0,0,0,0,0,0,0,0,-1,1560,792,0,0
343,232,0,0,0,0,0,0,0,0,0,-1,1567,792,0,0
350,232,0,0,0,0,0,0,0,0,0,-1,1574,792,0,0
357,232,0,0,0,0,0,0,0,0,0,-1,1581,792,0,0
364,232,0,0,0,0,0,0,0,0,0,-1,1588,792,0,0
371,232,0,0,0,0,0,0,0,0,0,-1,1595,792,0,0
378,232,0,0,0,0,0,0,0,0,0,-1,1602,792,0,0
385,232,0,0,0,0,0,0,0,0,0,-1,1609,792,0,0
392,232,0,0,0,0,0,0,0,0,0,-1,1616,792,0,0
399,232,0,0,0,0,0,0,0,0,0,-1,1623,792,0,0
406,232,0,0,0,0,0,0,0,0,0,-1,1630,792,0,0
413,232,0,0,0,0,0,0,0,0,0,-1,1637,792,0,0
420,232,0,0,0,0,0,0,0,0,0,-1,1644,792,0,0
427,232,0,0,0,0,0,0,0,0,0,-1,1651,792,0,0
434,232,0,0,0,0,0,0,0,0,0,-1,1658,792,0,0
441,232,0,0,0,0,0,0,0,0,0,-1,1665,792,0,0
448,232,0,0,0,0,0,0,0,0,0,-1,1672,792,0,0
455,232,0,0,0,0,0,0,0,0,0,-1,1679,792,0,0
462,232,0,0,0,0,0,0,0,0,0,-1,1686,792,0,0
469,232,0,0,0,0,0,0,0,0,0,-1,1693,792,0,0
476,232,0,0,0,0,0,0,0,0,0,-1,1700,792,0,0
483,232,0,0,0,0,0,0,0,0,0,-1,1707,792,0,0
490,232,0,0,0,0,0,0,0,0,0,-1,1714,792,0,0
497,232,0,0,0,0,0,0,0,0,0,-1,1721,792,0,0
504,232,0,0,0,0,0,0,0,0,0,-1,1728,792,0,0
511,232,0,0,0,0,0,0,0,0,0,-1,1735,792,0,0
518,232,0,0,0,0,0,0,0,0,0,-1,1742,792,0,0
525,232,0,0,0,0,0,0,0,0,0,-1,1749,792,0,0
532,232,0,0,0,0,0,0,0,0,0,-1,1756,792,0,0
539,232,0,0,0,0,0,0,0,0,0,-1,1763,792,0,0
546,232,0,0,0,0,0,0,0,0,0,-1,1770,792,0,0
553,232,0,0,0,0,0,0,0,0,0,-1,1777,792,0,0
560,232,0,0,0,0,0,0,0,0,0,-1,1784,792,0,0
567,232,0,0,0,0,0,0,0,0,0,-1,1791,792,0,0
574,232,0,0,0,0,0,0,0,0,0,-1,1798,792,0,0
581,232,0,0,0,0,0,0,0,0,0,-1,1805,792,0,0
588,232,46.6315,2.94543,0.00134003,0.0056966,-0.00122104,0.00601548,0.00102114,-1.31534,0.00371699,0.0384415,1812,792,46.6315,-2.94543
595,232,46.6432,2.91089,0.00014257,0.00335203,0.000256614,0.00337242,0.000122182,1.49151,0.00220868,0.0373605,1819,792,46.6432,-2.91087
602,232,46.6113,2.9444,-0.000224538,0.00139472,0.00108785,0.00194116,-0.000770977,1.1053,0.0016137,0.0365698,1826,792,46.6113,-2.94441
609,232,46.7452,2.87921,-3.00458e-05,-9.641e-05,0.00154457,0.00148169,-0.00160815,0.774658,0.00178442,0.0411709,1833,792,46.7452,-2.8792
616,232,46.8201,2.89178,0.0001924,-0.00125065,0.00159187,0.00121863,-0.00227688,0.572618,0.00204873,0.0465563,1840,792,46.8201,-2.89177
623,232,46.8411,3.19702,0.000284288,-0.00203547,0.00133452,0.000892532,-0.00264372,0.427648,0.00212346,0.0436094,1847,792,46.8411,-3.19702
630,232,46.8175,3.35712,0,0,0,0,0,0,0,-1,1854,792,46.8175,-3.35715
637,232,44.7451,3.55951,0,0,0,0,0,0,0,-1,1861,792,44.7451,-3.5595
644,232,30.7756,4.24139,0,0,0,0,0,0,0,-1,1868,792,30.7757,-4.24141
651,232,31.6797,-0.564087,0,0,0,0,0,0,0,-1,1875,792,31.6797,0.564059
658,232,33.5649,-0.72522,0,0,0,0,0,0,0,-1,1882,792,33.5649,0.725242
665,232,33.4426,-0.167786,0.000370169,-0.00258148,-0.000673003,0.000516377,-0.00272769,-0.213924,0.00201278,0.0207822,1889,792,33.4426,0.167759
672,232,33.3389,0.378052,-0.000180107,-0.00189611,-0.000894189,0.000201141,-0.00227736,-0.403024,0.00158954,0.0228162,1896,792,33.3388,-0.378026
679,232,33.3209,0.92041,-0.000508812,-0.00165758,-0.00120434,0.000251103,-0.0024175,-0.562888,0.00170155,0.020684,1903,792,33.3209,-0.92041
686,232,33.3442,1.50977,-0.000463187,-0.000685621,-0.000888342,0.000320872,-0.00146968,-0.723124,0.00110242,0.0180408,1910,792,33.3443,-1.50976
693,232,33.3375,2.02112,0.000101513,0.0004582,-0.000423504,0.00073938,-0.000179667,-0.984686,0.000562457,0.0101689,1917,792,33.3375,-2.02109
700,232,33.3196,2.54797,0.00098086,0.00130628,0.000279801,0.00146724,0.0008199,1.04876,0.000849064,0.0123762,1924,792,33.3195,-2.54797
707,232,33.3152,3.10498,0.00196703,0.00224286,0.00101668,0.00313093,0.00107895,0.852812,0.00183651,0.0123859,1931,792,33.3152,-3.10495
714,232,33.2971,3.6424,0.00344653,0.0032562,0.00218662,0.00554005,0.00116268,0.763651,0.00337327,0.0129486,1938,792,33.2971,-3.6424
721,232,33.2629,4.15552,0.00473928,0.00416226,0.00339954,0.00786253,0.00103901,0.743066,0.00493196,0.0228551,1945,792,33.2629,-4.15551
728,232,33.214,4.60162,0.0061113,0.00496327,0.00479055,0.0103621,0.000712468,0.725771,0.00668325,0.0471999,1952,792,33.214,-4.60164
735,232,33.4143,5.27808,0,0,0,0,0,0,0,-1,1959,792,33.4144,-5.27806
742,232,25.6461,6.00684,0,0,0,0,0,0,0,-1,1966,792,25.6461,-6.00684
749,232,31.2874,3.74713,0,0,0,0,0,0,0,-1,1973,792,31.2874,-3.74713
756,232,32.1207,3.896,0,0,0,0,0,0,0,-1,1980,792,32.1207,-3.89597
763,232,32.7255,4.05878,0,0,0,0,0,0,0,-1,1987,792,32.7255,-4.05881
770,232,0,0,0,0,0,0,0,0,0,-1,1994,792,0,0
777,232,0,0,0,0,0,0,0,0,0,-1,2001,792,0,0
784,232,0,0,0,0,0,0,0,0,0,-1,2008,792,0,0
791,232,0,0,0,0,0,0,0,0,0,-1,2015,792,0,0
798,232,0,0,0,0,0,0,0,0,0,-1,2022,792,0,0
805,232,0,0,0,0,0,0,0,0,0,-1,2029,792,0,0
812,232,0,0,0,0,0,0,0,0,0,-1,2036,792,0,0
-700,225,0,0,0,0,0,0,0,0,0,-1,524,799,0,0
-693,225,0,0,0,0,0,0,0,0,0,-1,531,799,0,0
-686,225,0,0,0,0,0,0,0,0,0,-1,538,799,0,0
-679,225,0,0,0,0,0,0,0,0,0,-1,545,799,0,0
-672,225,0,0,0,0,0,0,0,0,0,-1,552,799,0,0
-665,225,0,0,0,0,0,0,0,0,0,-1,559,799,0,0
-658,225,0,0,0,0,0,0,0,0,0,-1,566,799,0,0
-651,225,0,0,0,0,0,0,0,0,0,-1,573,799,0,0
-644,225,-28.9417,3.77637,0,0,0,0,0,0,0,-1,580,799,-28.9416,-3.77637
-637,225,-29.6128,3.23175,0,0,0,0,0,0,0,-1,587,799,-29.6128,-3.23173
-630,225,-29.8912,5.02606,0,0,0,0,0,0,0,-1,594,799,-29.8912,-5.02606
-623,225,-32.8276,-0.00836182,0,0,0,0,0,0,0,-1,601,799,-32.8276,0.00837668
-616,225,-32.0569,-0.549255,0,0,0,0,0,0,0,-1,608,799,-32.0569,0.549265
-609,225,-23.7599,3.40924,0,0,0,0,0,0,0,-1,615,799,-23.76,-3.40926
-602,225,-23.3687,2.85101,0,0,0,0,0,0,0,-1,622,799,-23.3686,-2.85099
-595,225,-23.2825,2.19946,0.0108333,-0.000890804,-0.00425771,0.0122164,-0.00227387,-0.314085,0.0089985,0.0322453,629,799,-23.2825,-2.19945
-588,225,-23.2143,1.57062,0.00685974,0.000382951,-0.00353048,0.00841212,-0.00116942,-0.414261,0.00603577,0.0134986,636,799,-23.2143,-1.57065
-581,225,-23.2115,1.06067,0.00479208,0.000742551,-0.00251764,0.00599813,-0.000463499,-0.44674,0.00416186,0.0110541,643,799,-23.2115,-1.06068
-574,225,-23.2057,0.544495,0.0030571,0.000688109,-0.0015895,0.00385492,-0.000109705,-0.465187,0.00260728,0.00886732,650,799,-23.2057,-0.544478
-567,225,-23.221,0.0280151,0.0014092,-1.38053e-06,-0.00042155,0.00152558,-0.000117758,-0.269362,0.00105849,0.0116785,657,799,-23.221,-0.0280043
-560,225,-23.2577,-0.465332,2.89232e-05,-0.00129832,0.00102503,0.0005864,-0.0018558,0.498119,0.00147213,0.0126823,664,799,-23.2577,0.465361
-553,225,-23.2693,-1.02008,-0.000518469,-0.00283199,0.00270265,0.00126457,-0.00461503,0.583189,0.00357359,0.0117868,671,799,-23.2694,1.02006
-546,225,-23.2898,-1.5202,-0.000982388,-0.00500995,0.00415598,0.001622,-0.00761434,0.559792,0.00569442,0.0201584,678,799,-23.2898,1.52022
-539,225,-23.3109,-1.99982,-0.00159467,-0.00688172,0.00531667,0.00169941,-0.0101758,0.55469,0.00741553,0.0406237,685,799,-23.3109,1.99983
-532,225,-23.4697,-2.4361,-0.00155016,-0.0076802,0.00609146,0.00220393,-0.0114343,0.552309,0.00845382,0.0414999,692,799,-23.4697,2.43608
-525,225,-23.7052,-2.67218,0,0,0,0,0,0,0,-1,699,799,-23.7052,2.67217
-518,225,-21.963,0.171326,0,0,0,0,0,0,0,-1,706,799,-21.9629,-0.171319
-511,225,-33.0002,0.660217,0,0,0,0,0,0,0,-1,713,799,-33.0002,-0.660239
-504,225,-34.3934,0.942932,0,0,0,0,0,0,0,-1,720,799,-34.3933,-0.942905
-497,225,-34.6345,0.828369,-0.00417659,-0.00955446,0.00878519,0.00232196,-0.016053,0.636887,0.011554,0.0460991,727,799,-34.6344,-0.828375
-490,225,-34.777,0.983704,-0.00539742,-0.00895431,0.00872993,0.00173338,-0.0160851,0.684914,0.0113454,0.0382971,734,799,-34.7771,-0.983708
-483,225,-34.755,1.11945,-0.00720391,-0.00765971,0.00829357,0.000864893,-0.0157285,0.771662,0.0107855,0.0329101,741,799,-34.755,-1.11944
-476,225,-34.7428,1.18109,-0.00976962,-0.00528981,0.00731219,0.000117857,-0.0151773,0.934023,0.0101577,0.0309481,748,799,-34.7428,-1.18111
-469,225,-34.7368,1.2381,-0.0133182,-0.00182428,0.00603242,0.000760488,-0.0159029,1.16598,0.0108643,0.0345219,755,799,-34.7368,-1.23812
-462,225,0,0,0,0,0,0,0,0,0,-1,762,799,0,0
-455,225,0,0,0,0,0,0,0,0,0,-1,769,799,0,0
-448,225,0,0,0,0,0,0,0,0,0,-1,776,799,0,0
-441,225,0,0,0,0,0,0,0,0,0,-1,783,799,0,0
-434,225,0,0,0,0,0,0,0,0,0,-1,790,799,0,0
-427,225,0,0,0,0,0,0,0,0,0,-1,797,799,0,0
-420,225,0,0,0,0,0,0,0,0,0,-1,804,799,0,0
-413,225,0,0,0,0,0,0,0,0,0,-1,811,799,0,0
-406,225,0,0,0,0,0,0,0,0,0,-1,818,799,0,0
-399,225,0,0,0,0,0,0,0,0,0,-1,825,799,0,0
-392,225,0,0,0,0,0,0,0,0,0,-1,832,799,0,0
-385,225,0,0,0,0,0,0,0,0,0,-1,839,799,0,0
-378,225,0,0,0,0,0,0,0,0,0,-1,846,799,0,0
-371,225,0,0,0,0,0,0,0,0,0,-1,853,799,0,0
-364,225,0,0,0,0,0,0,0,0,0,-1,860,799,0,0
-357,225,0,0,0,0,0,0,0,0,0,-1,867,799,0,0
-350,225,0,0,0,0,0,0,0,0,0,-1,874,799,0,0
-343,225,0,0,0,0,0,0,0,0,0,-1,881,799,0,0
-336,225,0,0,0,0,0,0,0,0,0,-1,888,799,0,0
-329,225,0,0,0,0,0,0,0,0,0,-1,895,799,0,0
-322,225,0,0,0,0,0,0,0,0,0,-1,902,799,0,0
-315,225,0,0,0,0,0,0,0,0,0,-1,909,799,0,0
-308,225,0,0,0,0,0,0,0,0,0,-1,916,799,0,0
-301,225,0,0,0,0,0,0,0,0,0,-1,923,799,0,0
-294,225,0,0,0,0,0,0,0,0,0,-1,930,799,0,0
-287,225,0,0,0,0,0,0,0,0,0,-1,937,799,0,0
-280,225,0,0,0,0,0,0,0,0,0,-1,944,799,0,0
-273,225,0,0,0,0,0,0,0,0,0,-1,951,799,0,0
-266,225,0,0,0,0,0,0,0,0,0,-1,958,799,0,0
-259,225,0,0,0,0,0,0,0,0,0,-1,965,799,0,0
-252,225,0,0,0,0,0,0,0,0,0,-1,972,799,0,0
-245,225,0,0,0,0,0,0,0,0,0,-1,979,799,0,0
-238,225,0,0,0,0,0,0,0,0,0,-1,986,799,0,0
-231,225,0,0,0,0,0,0,0,0,0,-1,993,799,0,0
-224,225,0,0,0,0,0,0,0,0,0,-1,1000,799,0,0
-217,225,0,0,0,0,0,0,0,0,0,-1,1007,799,0,0
-210,225,0,0,0,0,0,0,0,0,0,-1,1014,799,0,0
-203,225,0,0,0,0,0,0,0,0,0,-1,1021,799,0,0
-196,225,0,0,0,0,0,0,0,0,0,-1,1028,799,0,0
-189,225,0,0,0,0,0,0,0,0,0,-1,1035,799,0,0
-182,225,0,0,0,0,0,0,0,0,0,-1,1042,799,0,0
-175,225,0,0,0,0,0,0,0,0,0,-1,1049,799,0,0
-168,225,0,0,0,0,0,0,0,0,0,-1,1056,799,0,0
-161,225,0,0,0,0,0,0,0,0,0,-1,1063,799,0,0
-154,225,0,0,0,0,0,0,0,0,0,-1,1070,799,0,0
-147,225,0,0,0,0,0,0,0,0,0,-1,1077,799,0,0
-140,225,0,0,0,0,0,0,0,0,0,-1,1084,799,0,0
-133,225,0,0,0,0,0,0,0,0,0,-1,1091,799,0,0
-126,225,0,0,0,0,0,0,0,0,0,-1,1098,799,0,0
-119,225,0,0,0,0,0,0,0,0,0,-1,1105,799,0,0
-112,225,0,0,0,0,0,0,0,0,0,-1,1112,799,0,0
-105,225,0,0,0,0,0,0,0,0,0,-1,1119,799,0,0
-98,225,0,0,0,0,0,0,0,0,0,-1,1126,799,0,0
-91,225,0,0,0,0,0,0,0,0,0,-1,1133,799,0,0
-84,225,0,0,0,0,0,0,0,0,0,-1,1140,799,0,0
-77,225,0,0,0,0,0,0,0,0,0,-1,1147,799,0,0
-70,225,0,0,0,0,0,0,0,0,0,-1,1154,799,0,0
-63,225,0,0,0,0,0,0,0,0,0,-1,1161,799,0,0
-56,225,0,0,0,0,0,0,0,0,0,-1,1168,799,0,0
-49,225,0,0,0,0,0,0,0,0,0,-1,1175,799,0,0
-42,225,0,0,0,0,0,0,0,0,0,-1,1182,799,0,0
-35,225,0,0,0,0,0,0,0,0,0,-1,1189,799,0,0
-28,225,0,0,0,0,0,0,0,0,0,-1,1196,799,0,0
-21,225,0,0,0,0,0,0,0,0,0,-1,1203,799,0,0
-14,225,0,0,0,0,0,0,0,0,0,-1,1210,799,0,0
-7,225,0,0,0,0,0,0,0,0,0,-1,1217,799,0,0
0,225,0,0,0,0,0,0,0,0,0,-1,1224,799,0,0
7,225,0,0,0,0,0,0,0,0,0,-1,1231,799,0,0
14,225,0,0,0,0,0,0,0,0,0,-1,1238,799,0,0
21,225,0,0,0,0,0,0,0,0,0,-1,1245,799,0,0
28,225,0,0,0,0,0,0,0,0,0,-1,1252,799,0,0
35,225,0,0,0,0,0,0,0,0,0,-1,1259,799,0,0
42,225,0,0,0,0,0,0,0,0,0,-1,1266,799,0,0
49,225,0,0,0,0,0,0,0,0,0,-1,1273,799,0,0
56,225,0,0,0,0,0,0,0,0,0,-1,1280,799,0,0
63,225,0,0,0,0,0,0,0,0,0,-1,1287,799,0,0
70,225,0,0,0,0,0,0,0,0,0,-1,1294,799,0,0
77,225,0,0,0,0,0,0,0,0,0,-1,1301,799,0,0
84,225,0,0,0,0,0,0,0,0,0,-1,1308,799,0,0
91,225,0,0,0,0,0,0,0,0,0,-1,1315,799,0,0
98,225,0,0,0,0,0,0,0,0,0,-1,1322,799,0,0
105,225,0,0,0,0,0,0,0,0,0,-1,1329,799,0,0
112,225,0,0,0,0,0,0,0,0,0,-1,1336,799,0,0
119,225,0,0,0,0,0,0,0,0,0,-1,1343,799,0,0
126,225,0,0,0,0,0,0,0,0,0,-1,1350,799,0,0
133,225,0,0,0,0,0,0,0,0,0,-1,1357,799,0,0
140,225,0,0,0,0,0,0,0,0,0,-1,1364,799,0,0
147,225,0,0,0,0,0,0,0,0,0,-1,1371,799,0,0
154,225,0,0,0,0,0,0,0,0,0,-1,1378,799,0,0
161,225,0,0,0,0,0,0,0,0,0,-1,1385,799,0,0
168,225,0,0,0,0,0,0,0,0,0,-1,1392,799,0,0
175,225,0,0,0,0,0,0,0,0,0,-1,1399,799,0,0
182,225,0,0,0,0,0,0,0,0,0,-1,1406,799,0,0
189,225,0,0,0,0,0,0,0,0,0,-1,1413,799,0,0
196,225,0,0,0,0,0,0,0,0,0,-1,1420,799,0,0
203,225,0,0,0,0,0,0,0,0,0,-1,1427,799,0,0
210,225,0,0,0,0,0,0,0,0,0,-1,1434,799,0,0
217,225,0,0,0,0,0,0,0,0,0,-1,1441,799,0,0
224,225,0,0,0,0,0,0,0,0,0,-1,1448,799,0,0
231,225,0,0,0,0,0,0,0,0,0,-1,1455,799,0,0
238,225,0,0,0,0,0,0,0,0,0,-1,1462,799,0,0
245,225,0,0,0,0,0,0,0,0,0,-1,1469,799,0,0
252,225,0,0,0,0,0,0,0,0,0,-1,1476,799,0,0
259,225,0,0,0,0,0,0,0,0,0,-1,1483,799,0,0
266,225,0,0,0,0,0,0,0,0,0,-1,1490,799,0,0
273,225,0,0,0,0,0,0,0,0,0,-1,1497,799,0,0
280,225,0,0,0,0,0,0,0,0,0,-1,1504,799,0,0
287,225,0,0,0,0,0,0,0,0,0,-1,1511,799,0,0
294,225,0,0,0,0,0,0,0,0,0,-1,1518,799,0,0
301,225,0,0,0,0,0,0,0,0,0,-1,1525,799,0,0
308,225,0,0,0,0,0,0,0,0,0,-1,1532,799,0,0
315,225,0,0,0,0,0,0,0,0,0,-1,1539,799,0,0
322,225,0,0,0,0,0,0,0,0,0,-1,1546,799,0,0
329,225,0,0,0,0,0,0,0,0,0,-1,1553,799,0,0
336,225,0,0,0,0,0,0,0,0,0,-1,1560,799,0,0
343,225,0,0,0,0,0,0,0,0,0,-1,1567,799,0,0
350,225,0,0,0,0,0,0,0,0,0,-1,1574,799,0,0
357,225,0,0,0,0,0,0,0,0,0,-1,1581,799,0,0
364,225,0,0,0,0,0,0,0,0,0,-1,1588,799,0,0
371,225,0,0,0,0,0,0,0,0,0,-1,1595,799,0,0
378,225,0,0,0,0,0,0,0,0,0,-1,1602,799,0,0
385,225,0,0,0,0,0,0,0,0,0,-1,1609,799,0,0
392,225,0,0,0,0,0,0,0,0,0,-1,1616,799,0,0
399,225,0,0,0,0,0,0,0,0,0,-1,1623,799,0,0
406,225,0,0,0,0,0,0,0,0,0,-1,1630,799,0,0
413,225,0,0,0,0,0,0,0,0,0,-1,1637,799,0,0
420,225,0,0,0,0,0,0,0,0,0,-1,1644,799,0,0
427,225,0,0,0,0,0,0,0,0,0,-1,1651,799,0,0
434,225,0,0,0,0,0,0,0,0,0,-1,1658,799,0,0
441,225,0,0,0,0,0,0,0,0,0,-1,1665,799,0,0
448,225,0,0,0,0,0,0,0,0,0,-1,1672,799,0,0
455,225,0,0,0,0,0,0,0,0,0,-1,1679,799,0,0
462,225,0,0,0,0,0,0,0,0,0,-1,1686,799,0,0
469,225,0,0,0,0,0,0,0,0,0,-1,1693,799,0,0
476,225,0,0,0,0,0,0,0,0,0,-1,1700,799,0,0
483,225,0,0,0,0,0,0,0,0,0,-1,1707,799,0,0
490,225,0,0,0,0,0,0,0,0,0,-1,1714,799,0,0
497,225,0,0,0,0,0,0,0,0,0,-1,1721,799,0,0
504,225,0,0,0,0,0,0,0,0,0,-1,1728,799,0,0
511,225,0,0,0,0,0,0,0,0,0,-1,1735,799,0,0
518,225,0,0,0,0,0,0,0,0,0,-1,1742,799,0,0
525,225,0,0,0,0,0,0,0,0,0,-1,1749,799,0,0
532,225,0,0,0,0,0,0,0,0,0,-1,1756,799,0,0
539,225,0,0,0,0,0,0,0,0,0,-1,1763,799,0,0
546,225,0,0,0,0,0,0,0,0,0,-1,1770,799,0,0
553,225,0,0,0,0,0,0,0,0,0,-1,1777,799,0,0
560,225,0,0,0,0,0,0,0,0,0,-1,1784,799,0,0
567,225,0,0,0,0,0,0,0,0,0,-1,1791,799,0,0
574,225,0,0,0,0,0,0,0,0,0,-1,1798,799,0,0
581,225,0,0,0,0,0,0,0,0,0,-1,1805,799,0,0
588,225,46.7421,2.76978,0.00116639,0.00582494,-0.00144649,0.00623754,0.000753795,-1.29294,0.00393126,0.0377393,1812,799,46.742,-2.76977
595,225,46.7229,2.80988,0.000317075,0.00359897,0.000164626,0.00360721,0.000308838,1.5208,0.00230876,0.0360047,1819,799,46.7229,-2.80987
602,225,46.6516,2.92407,0.000137299,0.00167291,0.00110967,0.00225451,-0.000444296,1.08804,0.00167091,0.0338528,1826,799,46.6516,-2.92406
609,225,46.6475,2.97546,0.000443546,9.83189e-05,0.00162103,0.00190112,-0.00135926,0.732356,0.00189103,0.0313031,1833,799,46.6475,-2.97546
616,225,46.6791,2.92462,0.000738029,-0.00110948,0.00166987,0.00172262,-0.00209407,0.532753,0.00220704,0.0364633,1840,799,46.6791,-2.92459
623,225,46.642,3.07397,0.000766721,-0.00192383,0.00132742,0.00131137,-0.00246848,0.389359,0.00221612,0.0403772,1847,799,46.6419,-3.07396
630,225,46.8552,2.72601,0,0,0,0,0,0,0,-1,1854,799,46.8552,-2.72601
637,225,47.0702,2.21588,0,0,0,0,0,0,0,-1,1861,799,47.0702,-2.21589
644,225,42.0298,2.46411,0,0,0,0,0,0,0,-1,1868,799,42.0298,-2.4641
651,225,27.9657,0.579529,0,0,0,0,0,0,0,-1,1875,799,27.9657,-0.579541
658,225,34.5118,-0.336243,0,0,0,0,0,0,0,-1,1882,799,34.5119,0.336222
665,225,34.1371,0.0211792,0.00024486,-0.00236511,-0.000792841,0.000466828,-0.00258708,-0.272976,0.00189955,0.0268518,1889,799,34.137,-0.0211521
672,225,33.938,0.516602,-0.000355449,-0.0018485,-0.00102982,0.000169962,-0.00237391,-0.471772,0.0016422,0.0239177,1896,799,33.938,-0.516596
679,225,33.9071,1.02405,-0.000874989,-0.00181429,-0.00139187,0.000124333,-0.00281361,-0.622685,0.00191853,0.0195238,1903,799,33.9071,-1.02406
686,225,33.9063,1.51074,-0.00104226,-0.00102772,-0.00120217,0.000167202,-0.00223718,-0.788421,0.00155019,0.0108975,1910,799,33.9062,-1.51077
693,225,33.8804,2.02557,-0.000639889,2.74752e-05,-0.000857565,0.000613989,-0.0012264,-0.970937,0.00108198,0.00978631,1917,799,33.8804,-2.02556
700,225,33.8591,2.56219,0.000142327,0.000752227,-0.000235918,0.000832831,6.1723e-05,-1.24157,0.000535833,0.0109468,1924,799,33.8591,-2.5622
707,225,33.8384,3.11444,0.001043,0.00157225,0.000434193,0.0018161,0.000799151,1.05907,0.00105104,0.0112922,1931,799,33.8384,-3.11446
714,225,33.8209,3.67194,0.00245061,0.00247399,0.00154635,0.0040087,0.000915904,0.789179,0.00242551,0.0127723,1938,799,33.8209,-3.67191
721,225,33.8347,4.20502,0.00366146,0.00327991,0.00268954,0.00616698,0.000774388,0.749991,0.00387904,0.0165992,1945,799,33.8347,-4.20502
728,225,33.7678,4.58899,0.00491204,0.00395058,0.00398682,0.008447,0.00041561,0.725398,0.00549804,0.0347252,1952,799,33.7679,-4.58897
735,225,33.9584,5.19281,0,0,0,0,0,0,0,-1,1959,799,33.9584,-5.19281
742,225,29.0922,3.2132,0,0,0,0,0,0,0,-1,1966,799,29.0921,-3.21322
749,225,29.9529,4.45538,0,0,0,0,0,0,0,-1,1973,799,29.9529,-4.45537
756,225,31.8855,3.83466,0,0,0,0,0,0,0,-1,1980,799,31.8855,-3.83463
763,225,28.3649,5.54443,0,0,0,0,0,0,0,-1,1987,799,28.3649,-5.54444
770,225,0,0,0,0,0,0,0,0,0,-1,1994,799,0,0
777,225,0,0,0,0,0,0,0,0,0,-1,2001,799,0,0
784,225,0,0,0,0,0,0,0,0,0,-1,2008,799,0,0
791,225,0,0,0,0,0,0,0,0,0,-1,2015,799,0,0
798,225,0,0,0,0,0,0,0,0,0,-1,2022,799,0,0
805,225,0,0,0,0,0,0,0,0,0,-1,2029,799,0,0
812,225,0,0,0,0,0,0,0,0,0,-1,2036,799,0,0
-700,218,0,0,0,0,0,0,0,0,0,-1,524,806,0,0
-693,218,0,0,0,0,0,0,0,0,0,-1,531,806,0,0
-686,218,0,0,0,0,0,0,0,0,0,-1,538,806,0,0
-679,218,0,0,0,0,0,0,0,0,0,-1,545,806,0,0
-672,218,0,0,0,0,0,0,0,0,0,-1,552,806,0,0
-665,218,0,0,0,0,0,0,0,0,0,-1,559,806,0,0
-658,218,0,0,0,0,0,0,0,0,0,-1,566,806,0,0
-651,218,-26.2643,2.93054,0,0,0,0,0,0,0,-1,573,806,-26.2643,-2.93053
-644,218,-28.7305,4.12079,0,0,0,0,0,0,0,-1,580,806,-28.7305,-4.12076
-637,218,-29.3349,3.56067,0,0,0,0,0,0,0,-1,587,806,-29.3349,-3.56068
-630,218,-29.7347,3.06238,0,0,0,0,0,0,0,-1,594,806,-29.7347,-3.06238
-623,218,-29.4469,4.34161,0,0,0,0,0,0,0,-1,601,806,-29.4469,-4.34164
-616,218,-20.0258,1.87585,0,0,0,0,0,0,0,-1,608,806,-20.0258,-1.87585
-609,218,-23.6225,3.1748,0,0,0,0,0,0,0,-1,615,806,-23.6225,-3.17479
-602,218,-23.7059,2.61536,0.0177442,-0.00362678,-0.00165855,0.0178722,-0.00375473,-0.0769932,0.0133436,0.0391772,622,806,-23.7059,-2.61536
-595,218,-23.7768,2.08105,0.00987927,-0.000737928,-0.00280077,0.0105728,-0.00143146,-0.242738,0.00757093,0.0179043,629,806,-23.7768,-2.08104
-588,218,-23.7514,1.56848,0.00571464,0.00012307,-0.00219536,0.00647358,-0.000635864,-0.332838,0.00454253,0.0113491,636,806,-23.7514,-1.56845
-581,218,-23.7484,1.08539,0.00385875,0.000450599,-0.0013357,0.00431985,-1.04976e-05,-0.332401,0.00288341,0.0109666,643,806,-23.7484,-1.0854
-574,218,-23.7564,0.586182,0.00235245,0.000373339,-0.000564614,0.0025022,0.000223593,-0.25925,0.00159882,0.0109179,650,806,-23.7564,-0.586181
-567,218,-23.747,0.0646362,0.000896198,-0.000392789,0.000461826,0.00104458,-0.000541173,0.310881,0.000930787,0.0179045,657,806,-23.747,-0.0646339
-560,218,-23.7737,-0.424255,-0.000226142,-0.00179583,0.00182287,0.000973666,-0.00299564,0.582116,0.00238874,0.0175142,664,806,-23.7737,0.42428
-553,218,-23.7493,-1.00116,-0.000395341,-0.00328999,0.00349492,0.00194009,-0.00562542,0.589088,0.0045374,0.0186392,671,806,-23.7493,1.00119
-546,218,-23.8416,-1.64893,-0.000615537,-0.00541516,0.00484477,0.00239121,-0.00842191,0.555442,0.00655862,0.021527,678,806,-23.8416,1.64892
-539,218,-23.8663,-2.15576,-0.00109598,-0.00717376,0.00592061,0.00252009,-0.0107898,0.548293,0.00816394,0.0337445,685,806,-23.8663,2.15576
-532,218,-24.0105,-2.37274,-0.00102918,-0.00792047,0.00665843,0.00302232,-0.011972,0.546629,0.00915655,0.0421951,692,806,-24.0105,2.37271
-525,218,-24.4328,-2.50769,0,0,0,0,0,0,0,-1,699,806,-24.4328,2.5077
-518,218,-23.61,2.54181,0,0,0,0,0,0,0,-1,706,806,-23.61,-2.54183
-511,218,-34.6758,0.122253,0,0,0,0,0,0,0,-1,713,806,-34.6758,-0.12225
-504,218,-35.0777,0.382324,-0.0022137,-0.00990769,0.00928523,0.00398992,-0.0161113,0.589006,0.0122887,0.0480885,720,806,-35.0777,-0.382354
-497,218,-34.4635,1.20874,-0.00263608,-0.0097409,0.00953601,0.00398771,-0.0163647,0.607098,0.0124537,0.0486029,727,806,-34.4635,-1.20874
-490,218,-34.6702,1.12268,-0.0035797,-0.00882538,0.00942754,0.00358305,-0.0159881,0.649724,0.0120323,0.0350309,734,806,-34.6702,-1.1227
-483,218,-34.8201,1.15399,-0.00501124,-0.0068622,0.00878376,0.00289566,-0.0147691,0.732911,0.0109398,0.0337487,741,806,-34.8201,-1.154
-476,218,-34.8171,1.25629,-0.00727468,-0.00320171,0.0074732,0.00250751,-0.0129839,0.918421,0.00960154,0.0370596,748,806,-34.8171,-1.25627
-469,218,0,0,0,0,0,0,0,0,0,-1,755,806,0,0
-462,218,0,0,0,0,0,0,0,0,0,-1,762,806,0,0
-455,218,0,0,0,0,0,0,0,0,0,-1,769,806,0,0
-448,218,0,0,0,0,0,0,0,0,0,-1,776,806,0,0
-441,218,0,0,0,0,0,0,0,0,0,-1,783,806,0,0
-434,218,0,0,0,0,0,0,0,0,0,-1,790,806,0,0
-427,218,0,0,0,0,0,0,0,0,0,-1,797,806,0,0
-420,218,0,0,0,0,0,0,0,0,0,-1,804,806,0,0
-413,218,0,0,0,0,0,0,0,0,0,-1,811,806,0,0
-406,218,0,0,0,0,0,0,0,0,0,-1,818,806,0,0
-399,218,0,0,0,0,0,0,0,0,0,-1,825,806,0,0
-392,218,0,0,0,0,0,0,0,0,0,-1,832,806,0,0
-385,218,0,0,0,0,0,0,0,0,0,-1,839,806,0,0
-378,218,0,0,0,0,0,0,0,0,0,-1,846,806,0,0
-371,218,0,0,0,0,0,0,0,0,0,-1,853,806,0,0
-364,218,0,0,0,0,0,0,0,0,0,-1,860,806,0,0
-357,218,0,0,0,0,0,0,0,0,0,-1,867,806,0,0
-350,218,0,0,0,0,0,0,0,0,0,-1,874,806,0,0
-343,218,0,0,0,0,0,0,0,0,0,-1,881,806,0,0
-336,218,0,0,0,0,0,0,0,0,0,-1,888,806,0,0
-329,218,0,0,0,0,0,0,0,0,0,-1,895,806,0,0
-322,218,0,0,0,0,0,0,0,0,0,-1,902,806,0,0
-315,218,0,0,0,0,0,0,0,0,0,-1,909,806,0,0
-308,218,0,0,0,0,0,0,0,0,0,-1,916,806,0,0
-301,218,0,0,0,0,0,0,0,0,0,-1,923,806,0,0
-294,218,0,0,0,0,0,0,0,0,0,-1,930,806,0,0
-287,218,0,0,0,0,0,0,0,0,0,-1,937,806,0,0
-280,218,0,0,0,0,0,0,0,0,0,-1,944,806,0,0
-273,218,0,0,0,0,0,0,0,0,0,-1,951,806,0,0
-266,218,0,0,0,0,0,0,0,0,0,-1,958,806,0,0
-259,218,0,0,0,0,0,0,0,0,0,-1,965,806,0,0
-252,218,0,0,0,0,0,0,0,0,0,-1,972,806,0,0
-245,218,0,0,0,0,0,0,0,0,0,-1,979,806,0,0
-238,218,0,0,0,0,0,0,0,0,0,-1,986,806,0,0
-231,218,0,0,0,0,0,0,0,0,0,-1,993,806,0,0
-224,218,0,0,0,0,0,0,0,0,0,-1,1000,806,0,0
-217,218,0,0,0,0,0,0,0,0,0,-1,1007,806,0,0
-210,218,0,0,0,0,0,0,0,0,0,-1,1014,806,0,0
-203,218,0,0,0,0,0,0,0,0,0,-1,1021,806,0,0
-196,218,0,0,0,0,0,0,0,0,0,-1,1028,806,0,0
-189,218,0,0,0,0,0,0,0,0,0,-1,1035,806,0,0
-182,218,0,0,0,0,0,0,0,0,0,-1,1042,806,0,0
-175,218,0,0,0,0,0,0,0,0,0,-1,1049,806,0,0
-168,218,0,0,0,0,0,0,0,0,0,-1,1056,806,0,0
-161,218,0,0,0,0,0,0,0,0,0,-1,1063,806,0,0
-154,218,0,0,0,0,0,0,0,0,0,-1,1070,806,0,0
-147,218,0,0,0,0,0,0,0,0,0,-1,1077,806,0,0
-140,218,0,0,0,0,0,0,0,0,0,-1,1084,806,0,0
-133,218,0,0,0,0,0,0,0,0,0,-1,1091,806,0,0
-126,218,0,0,0,0,0,0,0,0,0,-1,1098,806,0,0
-119,218,0,0,0,0,0,0,0,0,0,-1,1105,806,0,0
-112,218,0,0,0,0,0,0,0,0,0,-1,1112,806,0,0
-105,218,0,0,0,0,0,0,0,0,0,-1,1119,806,0,0
-98,218,0,0,0,0,0,0,0,0,0,-1,1126,806,0,0
-91,218,0,0,0,0,0,0,0,0,0,-1,1133,806,0,0
-84,218,0,0,0,0,0,0,0,0,0,-1,1140,806,0,0
-77,218,0,0,0,0,0,0,0,0,0,-1,1147,806,0,0
-70,218,0,0,0,0,0,0,0,0,0,-1,1154,806,0,0
-63,218,0,0,0,0,0,0,0,0,0,-1,1161,806,0,0
-56,218,0,0,0,0,0,0,0,0,0,-1,1168,806,0,0
-49,218,0,0,0,0,0,0,0,0,0,-1,1175,806,0,0
-42,218,0,0,0,0,0,0,0,0,0,-1,1182,806,0,0
-35,218,0,0,0,0,0,0,0,0,0,-1,1189,806,0,0
-28,218,0,0,0,0,0,0,0,0,0,-1,1196,806,0,0
-21,218,0,0,0,0,0,0,0,0,0,-1,1203,806,0,0
-14,218,0,0,0,0,0,0,0,0,0,-1,1210,806,0,0
-7,218,0,0,0,0,0,0,0,0,0,-1,1217,806,0,0
0,218,0,0,0,0,0,0,0,0,0,-1,1224,806,0,0
7,218,0,0,0,0,0,0,0,0,0,-1,1231,806,0,0
14,218,0,0,0,0,0,0,0,0,0,-1,1238,806,0,0
21,218,0,0,0,0,0,0,0,0,0,-1,1245,806,0,0
28,218,0,0,0,0,0,0,0,0,0,-1,1252,806,0,0
35,218,0,0,0,0,0,0,0,0,0,-1,1259,806,0,0
42,218,0,0,0,0,0,0,0,0,0,-1,1266,806,0,0
49,218,0,0,0,0,0,0,0,0,0,-1,1273,806,0,0
56,218,0,0,0,0,0,0,0,0,0,-1,1280,806,0,0
63,218,0,0,0,0,0,0,0,0,0,-1,1287,806,0,0
70,218,0,0,0,0,0,0,0,0,0,-1,1294,806,0,0
77,218,0,0,0,0,0,0,0,0,0,-1,1301,806,0,0
84,218,0,0,0,0,0,0,0,0,0,-1,1308,806,0,0
91,218,0,0,0,0,0,0,0,0,0,-1,1315,806,0,0
98,218,0,0,0,0,0,0,0,0,0,-1,1322,806,0,0
105,218,0,0,0,0,0,0,0,0,0,-1,1329,806,0,0
112,218,0,0,0,0,0,0,0,0,0,-1,1336,806,0,0
119,218,0,0,0,0,0,0,0,0,0,-1,1343,806,0,0
126,218,0,0,0,0,0,0,0,0,0,-1,1350,806,0,0
133,218,0,0,0,0,0,0,0,0,0,-1,1357,806,0,0
140,218,0,0,0,0,0,0,0,0,0,-1,1364,806,0,0
147,218,0,0,0,0,0,0,0,0,0,-1,1371,806,0,0
154,218,0,0,0,0,0,0,0,0,0,-1,1378,806,0,0
161,218,0,0,0,0,0,0,0,0,0,-1,1385,806,0,0
168,218,0,0,0,0,0,0,0,0,0,-1,1392,806,0,0
175,218,0,0,0,0,0,0,0,0,0,-1,1399,806,0,0
182,218,0,0,0,0,0,0,0,0,0,-1,1406,806,0,0
189,218,0,0,0,0,0,0,0,0,0,-1,1413,806,0,0
196,218,0,0,0,0,0,0,0,0,0,-1,1420,806,0,0
203,218,0,0,0,0,0,0,0,0,0,-1,1427,806,0,0
210,218,0,0,0,0,0,0,0,0,0,-1,1434,806,0,0
217,218,0,0,0,0,0,0,0,0,0,-1,1441,806,0,0
224,218,0,0,0,0,0,0,0,0,0,-1,1448,806,0,0
231,218,0,0,0,0,0,0,0,0,0,-1,1455,806,0,0
238,218,0,0,0,0,0,0,0,0,0,-1,1462,806,0,0
245,218,0,0,0,0,0,0,0,0,0,-1,1469,806,0,0
252,218,0,0,0,0,0,0,0,0,0,-1,1476,806,0,0
259,218,0,0,0,0,0,0,0,0,0,-1,1483,806,0,0
266,218,0,0,0,0,0,0,0,0,0,-1,1490,806,0,0
273,218,0,0,0,0,0,0,0,0,0,-1,1497,806,0,0
280,218,0,0,0,0,0,0,0,0,0,-1,1504,806,0,0
287,218,0,0,0,0,0,0,0,0,0,-1,1511,806,0,0
294,218,0,0,0,0,0,0,0,0,0,-1,1518,806,0,0
301,218,0,0,0,0,0,0,0,0,0,-1,1525,806,0,0
308,218,0,0,0,0,0,0,0,0,0,-1,1532,806,0,0
315,218,0,0,0,0,0,0,0,0,0,-1,1539,806,0,0
322,218,0,0,0,0,0,0,0,0,0,-1,1546,806,0,0
329,218,0,0,0,0,0,0,0,0,0,-1,1553,806,0,0
336,218,0,0,0,0,0,0,0,0,0,-1,1560,806,0,0
343,218,0,0,0,0,0,0,0,0,0,-1,1567,806,0,0
350,218,0,0,0,0,0,0,0,0,0,-1,1574,806,0,0
357,218,0,0,0,0,0,0,0,0,0,-1,1581,806,0,0
364,218,0,0,0,0,0,0,0,0,0,-1,1588,806,0,0
371,218,0,0,0,0,0,0,0,0,0,-1,1595,806,0,0
378,218,0,0,0,0,0,0,0,0,0,-1,1602,806,0,0
385,218,0,0,0,0,0,0,0,0,0,-1,1609,806,0,0
392,218,0,0,0,0,0,0,0,0,0,-1,1616,806,0,0
399,218,0,0,0,0,0,0,0,0,0,-1,1623,806,0,0
406,218,0,0,0,0,0,0,0,0,0,-1,1630,806,0,0
413,218,0,0,0,0,0,0,0,0,0,-1,1637,806,0,0
420,218,0,0,0,0,0,0,0,0,0,-1,1644,806,0,0
427,218,0,0,0,0,0,0,0,0,0,-1,1651,806,0,0
434,218,0,0,0,0,0,0,0,0,0,-1,1658,806,0,0
441,218,0,0,0,0,0,0,0,0,0,-1,1665,806,0,0
448,218,0,0,0,0,0,0,0,0,0,-1,1672,806,0,0
455,218,0,0,0,0,0,0,0,0,0,-1,1679,806,0,0
462,218,0,0,0,0,0,0,0,0,0,-1,1686,806,0,0
469,218,0,0,0,0,0,0,0,0,0,-1,1693,806,0,0
476,218,0,0,0,0,0,0,0,0,0,-1,1700,806,0,0
483,218,0,0,0,0,0,0,0,0,0,-1,1707,806,0,0
490,218,0,0,0,0,0,0,0,0,0,-1,1714,806,0,0
497,218,0,0,0,0,0,0,0,0,0,-1,1721,806,0,0
504,218,0,0,0,0,0,0,0,0,0,-1,1728,806,0,0
511,218,0,0,0,0,0,0,0,0,0,-1,1735,806,0,0
518,218,0,0,0,0,0,0,0,0,0,-1,1742,806,0,0
525,218,0,0,0,0,0,0,0,0,0,-1,1749,806,0,0
532,218,0,0,0,0,0,0,0,0,0,-1,1756,806,0,0
539,218,0,0,0,0,0,0,0,0,0,-1,1763,806,0,0
546,218,0,0,0,0,0,0,0,0,0,-1,1770,806,0,0
553,218,0,0,0,0,0,0,0,0,0,-1,1777,806,0,0
560,218,0,0,0,0,0,0,0,0,0,-1,1784,806,0,0
567,218,0,0,0,0,0,0,0,0,0,-1,1791,806,0,0
574,218,0,0,0,0,0,0,0,0,0,-1,1798,806,0,0
581,218,0,0,0,0,0,0,0,0,0,-1,1805,806,0,0
588,218,0,0,0,0,0,0,0,0,0,-1,1812,806,0,0
595,218,46.6594,2.91937,-0.000358646,0.00355441,0.000228734,0.00356774,-0.000371971,1.51261,0.00251168,0.037832,1819,806,46.6594,-2.91939
602,218,46.5941,2.93304,-0.000107822,0.00182759,0.00111714,0.00233787,-0.000618106,1.14232,0.00180034,0.0337159,1826,806,46.5941,-2.93306
609,218,46.5679,2.95831,0.000490798,0.00024513,0.00162799,0.00200058,-0.00126466,0.747744,0.00190108,0.0295461,1833,806,46.5679,-2.95833
616,218,46.5709,2.97668,0.00103623,-0.00100679,0.00170052,0.00199847,-0.00196903,0.514929,0.00229066,0.0319806,1840,806,46.5709,-2.9767
623,218,46.6301,2.91858,0.00112863,-0.00188965,0.00129806,0.00161008,-0.0023711,0.355173,0.00231249,0.0384087,1847,806,46.6301,-2.9186
630,218,46.7893,2.80225,0.00108211,-0.00221549,0.000907969,0.00131558,-0.00244896,0.251685,0.00220605,0.0413126,1854,806,46.7893,-2.80224
637,218,46.9279,2.50262,0.00080821,-0.00237611,0.000526156,0.000892896,-0.0024608,0.159584,0.00200555,0.0437931,1861,806,46.9279,-2.50261
644,218,46.9768,2.42731,0,0,0,0,0,0,0,-1,1868,806,46.9769,-2.42732
651,218,41.7338,1.99164,0,0,0,0,0,0,0,-1,1875,806,41.7338,-1.99162
658,218,28.41,0.514954,0,0,0,0,0,0,0,-1,1882,806,28.41,-0.514983
665,218,34.8912,0.323853,0,0,0,0,0,0,0,-1,1889,806,34.8912,-0.323833
672,218,34.6464,0.59198,-0.000492543,-0.00181529,-0.00108803,0.00011936,-0.00242719,-0.512308,0.00165935,0.0212503,1896,806,34.6464,-0.591989
679,218,34.5076,1.03949,-0.00112923,-0.00185844,-0.00144254,-5.92682e-06,-0.00298174,-0.661615,0.00198586,0.0167805,1903,806,34.5076,-1.03952
686,218,34.4583,1.50897,-0.00147343,-0.001207,-0.00136658,3.28454e-05,-0.00271327,-0.833985,0.0018199,0.0118256,1910,806,34.4583,-1.50898
693,218,34.4479,2.03503,-0.00123438,-0.00025315,-0.00115162,0.00050801,-0.00199554,-0.986765,0.00152811,0.0117011,1917,806,34.4479,-2.03506
700,218,34.4152,2.5705,-0.00058147,0.000347856,-0.000639472,0.000673659,-0.000907273,-1.09959,0.000916067,0.00929253,1924,806,34.4152,-2.5705
707,218,34.3752,3.1217,0.000195348,0.00104339,-5.83174e-05,0.00104738,0.000191357,-1.50246,0.000644014,0.00770352,1931,806,34.3753,-3.12172
714,218,34.3589,3.6806,0.00148813,0.00182694,0.000975578,0.00264771,0.000667361,0.871363,0.00159008,0.0102919,1938,806,34.3589,-3.68061
721,218,34.387,4.19666,0.00260468,0.00252544,0.00204944,0.00461488,0.000515242,0.775734,0.00292003,0.0142993,1945,806,34.3869,-4.19666
728,218,34.3914,4.73975,0.00373712,0.0030724,0.00326751,0.00668913,0.000120386,0.734714,0.00441984,0.0268221,1952,806,34.3914,-4.73975
735,218,34.4656,5.44086,0.00513483,0.00364732,0.00485329,0.00930103,-0.000518874,0.709366,0.00638068,0.0462359,1959,806,34.4656,-5.44088
742,218,34.6603,6.19464,0,0,0,0,0,0,0,-1,1966,806,34.6603,-6.19464
749,218,32.3662,5.508,0,0,0,0,0,0,0,-1,1973,806,32.3662,-5.50799
756,218,33.6448,7.09839,0,0,0,0,0,0,0,-1,1980,806,33.6448,-7.09841
763,218,32.4478,4.90558,0,0,0,0,0,0,0,-1,1987,806,32.4478,-4.90556
770,218,0,0,0,0,0,0,0,0,0,-1,1994,806,0,0
777,218,0,0,0,0,0,0,0,0,0,-1,2001,806,0,0
784,218,0,0,0,0,0,0,0,0,0,-1,2008,806,0,0
791,218,0,0,0,0,0,0,0,0,0,-1,2015,806,0,0
798,218,0,0,0,0,0,0,0,0,0,-1,2022,806,0,0
805,218,0,0,0,0,0,0,0,0,0,-1,2029,806,0,0
812,218,0,0,0,0,0,0,0,0,0,-1,2036,806,0,0
-700,211,0,0,0,0,0,0,0,0,0,-1,524,813,0,0
-693,211,0,0,0,0,0,0,0,0,0,-1,531,813,0,0
-686,211,0,0,0,0,0,0,0,0,0,-1,538,813,0,0
-679,211,0,0,0,0,0,0,0,0,0,-1,545,813,0,0
-672,211,0,0,0,0,0,0,0,0,0,-1,552,813,0,0
-665,211,0,0,0,0,0,0,0,0,0,-1,559,813,0,0
-658,211,0,0,0,0,0,0,0,0,0,-1,566,813,0,0
-651,211,-26.5805,4.03448,0,0,0,0,0,0,0,-1,573,813,-26.5805,-4.03446
-644,211,-25.6163,4.17889,0,0,0,0,0,0,0,-1,580,813,-25.6163,-4.17889
-637,211,-29.3029,4.28766,0,0,0,0,0,0,0,-1,587,813,-29.3029,-4.28766
-630,211,-26.2802,6.70776,0,0,0,0,0,0,0,-1,594,813,-26.2802,-6.70775
-623,211,-26.2827,6.96381,0,0,0,0,0,0,0,-1,601,813,-26.2827,-6.96378
-616,211,-24.1574,3.57129,0,0,0,0,0,0,0,-1,608,813,-24.1574,-3.57131
-609,211,-24.1115,3.09155,0.0268949,-0.0102238,0.00254453,0.0270685,-0.0103974,0.0681267,0.0223333,0.0413773,615,813,-24.1115,-3.09155
-602,211,-24.1545,2.59308,0.0164957,-0.00384474,-0.000282323,0.0164996,-0.00384865,-0.0138763,0.012482,0.0215151,622,813,-24.1546,-2.59307
-595,211,-24.2397,2.07391,0.00872135,-0.00124028,-0.00151403,0.00894638,-0.00146531,-0.147549,0.00650791,0.0109424,629,813,-24.2398,-2.07391
-588,211,-24.2568,1.57318,0.00463422,-0.000525558,-0.00105342,0.004841,-0.000732339,-0.19383,0.0034971,0.010667,636,813,-24.2568,-1.57317
-581,211,-24.2678,1.09015,0.00301754,-0.000172981,-0.000331845,0.00305169,-0.000207131,-0.102547,0.0021069,0.0114326,643,813,-24.2678,-1.09012
-574,211,-24.3052,0.615784,0.00180502,-0.00020599,0.000286236,0.00184497,-0.000245937,0.138667,0.00131962,0.0140281,650,813,-24.3052,-0.615778
-567,211,-24.2886,0.0962524,0.000616897,-0.00095338,0.00115707,0.00123006,-0.00156654,0.487303,0.00161851,0.021426,657,813,-24.2886,-0.0962333
-560,211,-24.2961,-0.413452,-0.000189441,-0.00223331,0.00241707,0.00141285,-0.00383561,0.585396,0.00313597,0.0239966,664,813,-24.2961,0.413425
-553,211,-24.1886,-0.950989,4.2623e-07,-0.00344532,0.00403619,0.00266607,-0.00611097,0.583677,0.0051959,0.0336614,671,813,-24.1886,0.950968
-546,211,-24.5015,-1.39587,-1.40875e-05,-0.00524778,0.00525387,0.00323856,-0.00850043,0.554343,0.00700079,0.0433483,678,813,-24.5015,1.39588
-539,211,-24.4418,-1.95648,-0.000394931,-0.00672441,0.00627872,0.00347153,-0.0105909,0.55196,0.00845865,0.0296115,685,813,-24.4418,1.95648
-532,211,-24.3134,-2.63019,0,0,0,0,0,0,0,-1,692,813,-24.3134,2.63021
-525,211,-14.3009,2.3233,0,0,0,0,0,0,0,-1,699,813,-14.3009,-2.3233
-518,211,-34.4623,0.221863,0,0,0,0,0,0,0,-1,706,813,-34.4622,-0.221874
-511,211,-34.6883,0.391907,-0.000808648,-0.00901754,0.00921861,0.00517795,-0.0150041,0.575956,0.0121037,0.0450664,713,813,-34.6883,-0.39189
-504,211,-34.9825,0.681641,-0.000969676,-0.00916023,0.00969976,0.0054639,-0.0155938,0.585648,0.0126179,0.0481793,720,813,-34.9825,-0.681655
-497,211,-34.9568,0.964294,0,0,0,0,0,0,0,-1,727,813,-34.9569,-0.964297
-490,211,-34.6693,1.32465,-0.00186266,-0.00758804,0.00955124,0.00524567,-0.0146964,0.639799,0.0119367,0.0355944,734,813,-34.6693,-1.32467
-483,211,-34.8541,1.17053,-0.00290062,-0.0048712,0.00839972,0.0045714,-0.0123432,0.727015,0.0101034,0.0341359,741,813,-34.8542,-1.17052
-476,211,-34.8293,1.43506,-0.0049316,0.000286604,0.00636966,0.00456081,-0.00920581,0.979782,0.00809757,0.0388403,748,813,-34.8293,-1.43507
-469,211,0,0,0,0,0,0,0,0,0,-1,755,813,0,0
-462,211,0,0,0,0,0,0,0,0,0,-1,762,813,0,0
-455,211,0,0,0,0,0,0,0,0,0,-1,769,813,0,0
-448,211,0,0,0,0,0,0,0,0,0,-1,776,813,0,0
-441,211,0,0,0,0,0,0,0,0,0,-1,783,813,0,0
-434,211,0,0,0,0,0,0,0,0,0,-1,790,813,0,0
-427,211,0,0,0,0,0,0,0,0,0,-1,797,813,0,0
-420,211,0,0,0,0,0,0,0,0,0,-1,804,813,0,0
-413,211,0,0,0,0,0,0,0,0,0,-1,811,813,0,0
-406,211,0,0,0,0,0,0,0,0,0,-1,818,813,0,0
-399,211,0,0,0,0,0,0,0,0,0,-1,825,813,0,0
-392,211,0,0,0,0,0,0,0,0,0,-1,832,813,0,0
-385,211,0,0,0,0,0,0,0,0,0,-1,839,813,0,0
-378,211,0,0,0,0,0,0,0,0,0,-1,846,813,0,0
-371,211,0,0,0,0,0,0,0,0,0,-1,853,813,0,0
-364,211,0,0,0,0,0,0,0,0,0,-1,860,813,0,0
-357,211,0,0,0,0,0,0,0,0,0,-1,867,813,0,0
-350,211,0,0,0,0,0,0,0,0,0,-1,874,813,0,0
-343,211,0,0,0,0,0,0,0,0,0,-1,881,813,0,0
-336,211,0,0,0,0,0,0,0,0,0,-1,888,813,0,0
-329,211,0,0,0,0,0,0,0,0,0,-1,895,813,0,0
-322,211,0,0,0,0,0,0,0,0,0,-1,902,813,0,0
-315,211,0,0,0,0,0,0,0,0,0,-1,909,813,0,0
-308,211,0,0,0,0,0,0,0,0,0,-1,916,813,0,0
-301,211,0,0,0,0,0,0,0,0,0,-1,923,813,0,0
-294,211,0,0,0,0,0,0,0,0,0,-1,930,813,0,0
-287,211,0,0,0,0,0,0,0,0,0,-1,937,813,0,0
-280,211,0,0,0,0,0,0,0,0,0,-1,944,813,0,0
-273,211,0,0,0,0,0,0,0,0,0,-1,951,813,0,0
-266,211,0,0,0,0,0,0,0,0,0,-1,958,813,0,0
-259,211,0,0,0,0,0,0,0,0,0,-1,965,813,0,0
-252,211,0,0,0,0,0,0,0,0,0,-1,972,813,0,0
-245,211,0,0,0,0,0,0,0,0,0,-1,979,813,0,0
-238,211,0,0,0,0,0,0,0,0,0,-1,986,813,0,0
-231,211,0,0,0,0,0,0,0,0,0,-1,993,813,0,0
-224,211,0,0,0,0,0,0,0,0,0,-1,1000,813,0,0
-217,211,0,0,0,0,0,0,0,0,0,-1,1007,813,0,0
-210,211,0,0,0,0,0,0,0,0,0,-1,1014,813,0,0
-203,211,0,0,0,0,0,0,0,0,0,-1,1021,813,0,0
-196,211,0,0,0,0,0,0,0,0,0,-1,1028,813,0,0
-189,211,0,0,0,0,0,0,0,0,0,-1,1035,813,0,0
-182,211,0,0,0,0,0,0,0,0,0,-1,1042,813,0,0
-175,211,0,0,0,0,0,0,0,0,0,-1,1049,813,0,0
-168,211,0,0,0,0,0,0,0,0,0,-1,1056,813,0,0
-161,211,0,0,0,0,0,0,0,0,0,-1,1063,813,0,0
-154,211,0,0,0,0,0,0,0,0,0,-1,1070,813,0,0
-147,211,0,0,0,0,0,0,0,0,0,-1,1077,813,0,0
-140,211,0,0,0,0,0,0,0,0,0,-1,1084,813,0,0
-133,211,0,0,0,0,0,0,0,0,0,-1,1091,813,0,0
-126,211,0,0,0,0,0,0,0,0,0,-1,1098,813,0,0
-119,211,0,0,0,0,0,0,0,0,0,-1,1105,813,0,0
-112,211,0,0,0,0,0,0,0,0,0,-1,1112,813,0,0
-105,211,0,0,0,0,0,0,0,0,0,-1,1119,813,0,0
-98,211,0,0,0,0,0,0,0,0,0,-1,1126,813,0,0
-91,211,0,0,0,0,0,0,0,0,0,-1,1133,813,0,0
-84,211,0,0,0,0,0,0,0,0,0,-1,1140,813,0,0
-77,211,0,0,0,0,0,0,0,0,0,-1,1147,813,0,0
-70,211,0,0,0,0,0,0,0,0,0,-1,1154,813,0,0
-63,211,0,0,0,0,0,0,0,0,0,-1,1161,813,0,0
-56,211,0,0,0,0,0,0,0,0,0,-1,1168,813,0,0
-49,211,0,0,0,0,0,0,0,0,0,-1,1175,813,0,0
-42,211,0,0,0,0,0,0,0,0,0,-1,1182,813,0,0
-35,211,0,0,0,0,0,0,0,0,0,-1,1189,813,0,0
-28,211,0,0,0,0,0,0,0,0,0,-1,1196,813,0,0
-21,211,0,0,0,0,0,0,0,0,0,-1,1203,813,0,0
-14,211,0,0,0,0,0,0,0,0,0,-1,1210,813,0,0
-7,211,0,0,0,0,0,0,0,0,0,-1,1217,813,0,0
0,211,0,0,0,0,0,0,0,0,0,-1,1224,813,0,0
7,211,0,0,0,0,0,0,0,0,0,-1,1231,813,0,0
14,211,0,0,0,0,0,0,0,0,0,-1,1238,813,0,0
21,211,0,0,0,0,0,0,0,0,0,-1,1245,813,0,0
28,211,0,0,0,0,0,0,0,0,0,-1,1252,813,0,0
35,211,0,0,0,0,0,0,0,0,0,-1,1259,813,0,0
42,211,0,0,0,0,0,0,0,0,0,-1,1266,813,0,0
49,211,0,0,0,0,0,0,0,0,0,-1,1273,813,0,0
56,211,0,0,0,0,0,0,0,0,0,-1,1280,813,0,0
63,211,0,0,0,0,0,0,0,0,0,-1,1287,813,0,0
70,211,0,0,0,0,0,0,0,0,0,-1,1294,813,0,0
77,211,0,0,0,0,0,0,0,0,0,-1,1301,813,0,0
84,211,0,0,0,0,0,0,0,0,0,-1,1308,813,0,0
91,211,0,0,0,0,0,0,0,0,0,-1,1315,813,0,0
98,211,0,0,0,0,0,0,0,0,0,-1,1322,813,0,0
105,211,0,0,0,0,0,0,0,0,0,-1,1329,813,0,0
112,211,0,0,0,0,0,0,0,0,0,-1,1336,813,0,0
119,211,0,0,0,0,0,0,0,0,0,-1,1343,813,0,0
126,211,0,0,0,0,0,0,0,0,0,-1,1350,813,0,0
133,211,0,0,0,0,0,0,0,0,0,-1,1357,813,0,0
140,211,0,0,0,0,0,0,0,0,0,-1,1364,813,0,0
147,211,0,0,0,0,0,0,0,0,0,-1,1371,813,0,0
154,211,0,0,0,0,0,0,0,0,0,-1,1378,813,0,0
161,211,0,0,0,0,0,0,0,0,0,-1,1385,813,0,0
168,211,0,0,0,0,0,0,0,0,0,-1,1392,813,0,0
175,211,0,0,0,0,0,0,0,0,0,-1,1399,813,0,0
182,211,0,0,0,0,0,0,0,0,0,-1,1406,813,0,0
189,211,0,0,0,0,0,0,0,0,0,-1,1413,813,0,0
196,211,0,0,0,0,0,0,0,0,0,-1,1420,813,0,0
203,211,0,0,0,0,0,0,0,0,0,-1,1427,813,0,0
210,211,0,0,0,0,0,0,0,0,0,-1,1434,813,0,0
217,211,0,0,0,0,0,0,0,0,0,-1,1441,813,0,0
224,211,0,0,0,0,0,0,0,0,0,-1,1448,813,0,0
231,211,0,0,0,0,0,0,0,0,0,-1,1455,813,0,0
238,211,0,0,0,0,0,0,0,0,0,-1,1462,813,0,0
245,211,0,0,0,0,0,0,0,0,0,-1,1469,813,0,0
252,211,0,0,0,0,0,0,0,0,0,-1,1476,813,0,0
259,211,0,0,0,0,0,0,0,0,0,-1,1483,813,0,0
266,211,0,0,0,0,0,0,0,0,0,-1,1490,813,0,0
273,211,0,0,0,0,0,0,0,0,0,-1,1497,813,0,0
280,211,0,0,0,0,0,0,0,0,0,-1,1504,813,0,0
287,211,0,0,0,0,0,0,0,0,0,-1,1511,813,0,0
294,211,0,0,0,0,0,0,0,0,0,-1,1518,813,0,0
301,211,0,0,0,0,0,0,0,0,0,-1,1525,813,0,0
308,211,0,0,0,0,0,0,0,0,0,-1,1532,813,0,0
315,211,0,0,0,0,0,0,0,0,0,-1,1539,813,0,0
322,211,0,0,0,0,0,0,0,0,0,-1,1546,813,0,0
329,211,0,0,0,0,0,0,0,0,0,-1,1553,813,0,0
336,211,0,0,0,0,0,0,0,0,0,-1,1560,813,0,0
343,211,0,0,0,0,0,0,0,0,0,-1,1567,813,0,0
350,211,0,0,0,0,0,0,0,0,0,-1,1574,813,0,0
357,211,0,0,0,0,0,0,0,0,0,-1,1581,813,0,0
364,211,0,0,0,0,0,0,0,0,0,-1,1588,813,0,0
371,211,0,0,0,0,0,0,0,0,0,-1,1595,813,0,0
378,211,0,0,0,0,0,0,0,0,0,-1,1602,813,0,0
385,211,0,0,0,0,0,0,0,0,0,-1,1609,813,0,0
392,211,0,0,0,0,0,0,0,0,0,-1,1616,813,0,0
399,211,0,0,0,0,0,0,0,0,0,-1,1623,813,0,0
406,211,0,0,0,0,0,0,0,0,0,-1,1630,813,0,0
413,211,0,0,0,0,0,0,0,0,0,-1,1637,813,0,0
420,211,0,0,0,0,0,0,0,0,0,-1,1644,813,0,0
427,211,0,0,0,0,0,0,0,0,0,-1,1651,813,0,0
434,211,0,0,0,0,0,0,0,0,0,-1,1658,813,0,0
441,211,0,0,0,0,0,0,0,0,0,-1,1665,813,0,0
448,211,0,0,0,0,0,0,0,0,0,-1,1672,813,0,0
455,211,0,0,0,0,0,0,0,0,0,-1,1679,813,0,0
462,211,0,0,0,0,0,0,0,0,0,-1,1686,813,0,0
469,211,0,0,0,0,0,0,0,0,0,-1,1693,813,0,0
476,211,0,0,0,0,0,0,0,0,0,-1,1700,813,0,0
483,211,0,0,0,0,0,0,0,0,0,-1,1707,813,0,0
490,211,0,0,0,0,0,0,0,0,0,-1,1714,813,0,0
497,211,0,0,0,0,0,0,0,0,0,-1,1721,813,0,0
504,211,0,0,0,0,0,0,0,0,0,-1,1728,813,0,0
511,211,0,0,0,0,0,0,0,0,0,-1,1735,813,0,0
518,211,0,0,0,0,0,0,0,0,0,-1,1742,813,0,0
525,211,0,0,0,0,0,0,0,0,0,-1,1749,813,0,0
532,211,0,0,0,0,0,0,0,0,0,-1,1756,813,0,0
539,211,0,0,0,0,0,0,0,0,0,-1,1763,813,0,0
546,211,0,0,0,0,0,0,0,0,0,-1,1770,813,0,0
553,211,0,0,0,0,0,0,0,0,0,-1,1777,813,0,0
560,211,0,0,0,0,0,0,0,0,0,-1,1784,813,0,0
567,211,0,0,0,0,0,0,0,0,0,-1,1791,813,0,0
574,211,0,0,0,0,0,0,0,0,0,-1,1798,813,0,0
581,211,0,0,0,0,0,0,0,0,0,-1,1805,813,0,0
588,211,0,0,0,0,0,0,0,0,0,-1,1812,813,0,0
595,211,46.5465,3.00287,-0.000786091,0.0034029,-0.000331934,0.00342904,-0.00081223,-1.49221,0.00259942,0.0380858,1819,813,46.5465,-3.00288
602,211,46.5829,2.98785,-0.000197714,0.00196912,0.000548532,0.00210006,-0.000328661,1.33646,0.00152147,0.0377242,1826,813,46.5829,-2.98783
609,211,46.6061,3.05048,0.000637298,0.000485306,0.00120437,0.00176806,-0.000645459,0.75389,0.00144282,0.0382377,1833,813,46.606,-3.0505
616,211,46.5842,3.01752,0.0014259,-0.000758664,0.00150617,0.00219416,-0.00152692,0.471676,0.00215985,0.0329667,1840,813,46.5842,-3.01751
623,211,46.599,2.97607,0.00160198,-0.00172529,0.00122464,0.00200412,-0.00212743,0.31728,0.0023857,0.0344227,1847,813,46.599,-2.97609
630,211,46.6506,2.91235,0.00147966,-0.0020726,0.000834162,0.00166579,-0.00225873,0.219538,0.00227442,0.0373078,1854,813,46.6506,-2.91235
637,211,46.7847,2.85474,0.00109366,-0.00225016,0.000423463,0.00114646,-0.00230295,0.124032,0.00202848,0.0394974,1861,813,46.7847,-2.85474
644,211,46.5844,3.00531,0,0,0,0,0,0,0,-1,1868,813,46.5844,-3.00534
651,211,45.1924,2.85034,0,0,0,0,0,0,0,-1,1875,813,45.1924,-2.85033
658,211,27.7909,1.52234,0,0,0,0,0,0,0,-1,1882,813,27.7909,-1.52234
665,211,35.4882,0.338135,0,0,0,0,0,0,0,-1,1889,813,35.4882,-0.338138
672,211,35.3055,0.659729,-0.000609014,-0.00184341,-0.00112843,5.99795e-05,-0.00251241,-0.535148,0.00169528,0.039074,1896,813,35.3056,-0.659728
679,211,35.132,1.05975,-0.00131009,-0.00191354,-0.00147144,-0.000109751,-0.00311387,-0.684273,0.00204031,0.021636,1903,813,35.132,-1.05977
686,211,34.9879,1.54175,-0.00179996,-0.0013819,-0.00150249,-7.39711e-05,-0.00310789,-0.854516,0.00204771,0.01234,1910,813,34.9879,-1.54177
693,211,34.9629,2.05475,-0.00175009,-0.000556105,-0.00142688,0.000393633,-0.00269983,-0.983528,0.00194442,0.0118167,1917,813,34.9628,-2.05477
700,211,34.8774,2.57678,-0.00128663,-6.07132e-05,-0.0010375,0.000531372,-0.00187871,-1.05221,0.00146215,0.0135373,1924,813,34.8775,-2.57681
707,211,34.8898,3.15814,-0.000685987,0.000526523,-0.000546855,0.000736721,-0.000896185,-1.20383,0.000944256,0.0207594,1931,813,34.8897,-3.15817
714,211,34.9155,3.71765,0.000434151,0.00121585,0.000407137,0.00138938,0.000260621,1.16789,0.00085276,0.0222153,1938,813,34.9155,-3.71764
721,211,34.9313,4.1983,0.0014422,0.00183989,0.00143083,0.00308563,0.000196463,0.854441,0.00199482,0.0170656,1945,813,34.9313,-4.19832
728,211,34.9457,4.68549,0.00246349,0.00231309,0.00259524,0.00498463,-0.000208036,0.770914,0.00339455,0.0176382,1952,813,34.9457,-4.68551
735,211,34.9563,5.30371,0.00366108,0.0027441,0.0040448,0.0072733,-0.000868111,0.728963,0.00516262,0.0309216,1959,813,34.9563,-5.3037
742,211,35.0504,5.93402,0,0,0,0,0,0,0,-1,1966,813,35.0505,-5.93405
749,211,32.9436,6.63318,0,0,0,0,0,0,0,-1,1973,813,32.9436,-6.63315
756,211,34.326,6.86194,0,0,0,0,0,0,0,-1,1980,813,34.326,-6.86194
763,211,35.4297,7.5744,0,0,0,0,0,0,0,-1,1987,813,35.4297,-7.57443
770,211,36.4148,8.47723,0,0,0,0,0,0,0,-1,1994,813,36.4148,-8.47724
777,211,0,0,0,0,0,0,0,0,0,-1,2001,813,0,0
784,211,0,0,0,0,0,0,0,0,0,-1,2008,813,0,0
791,211,0,0,0,0,0,0,0,0,0,-1,2015,813,0,0
798,211,0,0,0,0,0,0,0,0,0,-1,2022,813,0,0
805,211,0,0,0,0,0,0,0,0,0,-1,2029,813,0,0
812,211,0,0,0,0,0,0,0,0,0,-1,2036,813,0,0
-700,204,0,0,0,0,0,0,0,0,0,-1,524,820,0,0
-693,204,0,0,0,0,0,0,0,0,0,-1,531,820,0,0
-686,204,0,0,0,0,0,0,0,0,0,-1,538,820,0,0
-679,204,0,0,0,0,0,0,0,0,0,-1,545,820,0,0
-672,204,0,0,0,0,0,0,0,0,0,-1,552,820,0,0
-665,204,0,0,0,0,0,0,0,0,0,-1,559,820,0,0
-658,204,0,0,0,0,0,0,0,0,0,-1,566,820,0,0
-651,204,-26.9496,5.22046,0,0,0,0,0,0,0,-1,573,820,-26.9496,-5.22048
-644,204,-26.0089,5.32202,0,0,0,0,0,0,0,-1,580,820,-26.0089,-5.32201
-637,204,-26.352,7.71545,0,0,0,0,0,0,0,-1,587,820,-26.352,-7.71546
-630,204,-26.5369,7.09045,0.0723236,-0.0299096,0.0147106,0.0743982,-0.0319842,0.140106,0.0630261,0.0442969,594,820,-26.5369,-7.09043
-623,204,-26.4147,7.32642,0.0540036,-0.0208055,0.00958737,0.0552128,-0.0220147,0.125457,0.04594,0.0477518,601,820,-26.4147,-7.32645
-616,204,-24.933,3.53748,0,0,0,0,0,0,0,-1,608,820,-24.9331,-3.53749
-609,204,-24.7787,3.07208,0.0255311,-0.00844814,0.0030386,0.0258007,-0.00871773,0.0884896,0.0207268,0.0374324,615,820,-24.7788,-3.0721
-602,204,-24.7102,2.59326,0.0150487,-0.00318817,0.000527758,0.015064,-0.00320343,0.0289068,0.0112633,0.0171861,622,820,-24.7102,-2.59323
-595,204,-24.7564,2.06842,0.00721145,-0.00121244,-0.000565774,0.00724928,-0.00125026,-0.0667634,0.00529901,0.0159055,629,820,-24.7564,-2.06841
-588,204,-24.7739,1.56189,0.00332302,-0.000785301,-0.0002141,0.00333414,-0.000796428,-0.0519262,0.00253037,0.0135632,636,820,-24.7739,-1.56188
-581,204,-24.7811,1.07343,0.00205707,-0.000542154,0.000377706,0.00211084,-0.000595928,0.141419,0.00164232,0.013073,643,820,-24.7811,-1.07341
-574,204,-24.7991,0.597046,0.0012552,-0.000663347,0.00085862,0.00158334,-0.000991487,0.365043,0.00149961,0.0146487,650,820,-24.7991,-0.597066
-567,204,-24.7785,0.116821,0.000414159,-0.00147338,0.00155833,0.00129223,-0.00235145,0.513125,0.0021331,0.0151455,657,820,-24.7785,-0.116826
-560,204,-24.7675,-0.420471,-5.4365e-05,-0.00264327,0.00271147,0.00165579,-0.00435343,0.562696,0.00358406,0.0171391,664,820,-24.7675,0.420474
-553,204,-24.835,-0.839172,0.000405808,-0.00361095,0.00428863,0.00313303,-0.00633817,0.566413,0.00557159,0.0199353,671,820,-24.835,0.839181
-546,204,-24.9782,-1.26526,0.00050655,-0.00512552,0.00541917,0.00379768,-0.00841664,0.545779,0.00721806,0.0248011,678,820,-24.9782,1.26528
-539,204,-24.868,-1.81354,0.000196052,-0.00636427,0.0064383,0.00414162,-0.0103098,0.549798,0.00859316,0.0462324,685,820,-24.868,1.81354
-532,204,-24.7443,-2.60193,0,0,0,0,0,0,0,-1,692,820,-24.7443,2.60196
-525,204,-25.7137,1.52496,0,0,0,0,0,0,0,-1,699,820,-25.7137,-1.52496
-518,204,-34.6855,0.6922,0,0,0,0,0,0,0,-1,706,820,-34.6855,-0.692204
-511,204,-34.7985,0.784363,0,0,0,0,0,0,0,-1,713,820,-34.7984,-0.784356
-504,204,-34.9114,0.876526,0,0,0,0,0,0,0,-1,720,820,-34.9114,-0.876508
-497,204,-34.6517,1.30841,0.000113538,-0.00773097,0.0101802,0.00710092,-0.0147184,0.60152,0.0128507,0.0401173,727,820,-34.6517,-1.30843
-490,204,-34.7402,1.2796,-0.000336781,-0.0058273,0.00954529,0.00685018,-0.0130143,0.645375,0.0116513,0.0369692,734,820,-34.7402,-1.27962
-483,204,-34.7766,1.11658,-0.00101009,-0.00184395,0.00761645,0.00620083,-0.00905488,0.758055,0.00885912,0.041402,741,820,-34.7766,-1.1166
-476,204,0,0,0,0,0,0,0,0,0,-1,748,820,0,0
-469,204,0,0,0,0,0,0,0,0,0,-1,755,820,0,0
-462,204,0,0,0,0,0,0,0,0,0,-1,762,820,0,0
-455,204,0,0,0,0,0,0,0,0,0,-1,769,820,0,0
-448,204,0,0,0,0,0,0,0,0,0,-1,776,820,0,0
-441,204,0,0,0,0,0,0,0,0,0,-1,783,820,0,0
-434,204,0,0,0,0,0,0,0,0,0,-1,790,820,0,0
-427,204,0,0,0,0,0,0,0,0,0,-1,797,820,0,0
-420,204,0,0,0,0,0,0,0,0,0,-1,804,820,0,0
-413,204,0,0,0,0,0,0,0,0,0,-1,811,820,0,0
-406,204,0,0,0,0,0,0,0,0,0,-1,818,820,0,0
-399,204,0,0,0,0,0,0,0,0,0,-1,825,820,0,0
-392,204,0,0,0,0,0,0,0,0,0,-1,832,820,0,0
-385,204,0,0,0,0,0,0,0,0,0,-1,839,820,0,0
-378,204,0,0,0,0,0,0,0,0,0,-1,846,820,0,0
-371,204,0,0,0,0,0,0,0,0,0,-1,853,820,0,0
-364,204,0,0,0,0,0,0,0,0,0,-1,860,820,0,0
-357,204,0,0,0,0,0,0,0,0,0,-1,867,820,0,0
-350,204,0,0,0,0,0,0,0,0,0,-1,874,820,0,0
-343,204,0,0,0,0,0,0,0,0,0,-1,881,820,0,0
-336,204,0,0,0,0,0,0,0,0,0,-1,888,820,0,0
-329,204,0,0,0,0,0,0,0,0,0,-1,895,820,0,0
-322,204,0,0,0,0,0,0,0,0,0,-1,902,820,0,0
-315,204,0,0,0,0,0,0,0,0,0,-1,909,820,0,0
-308,204,0,0,0,0,0,0,0,0,0,-1,916,820,0,0
-301,204,0,0,0,0,0,0,0,0,0,-1,923,820,0,0
-294,204,0,0,0,0,0,0,0,0,0,-1,930,820,0,0
-287,204,0,0,0,0,0,0,0,0,0,-1,937,820,0,0
-280,204,0,0,0,0,0,0,0,0,0,-1,944,820,0,0
-273,204,0,0,0,0,0,0,0,0,0,-1,951,820,0,0
-266,204,0,0,0,0,0,0,0,0,0,-1,958,820,0,0
-259,204,0,0,0,0,0,0,0,0,0,-1,965,820,0,0
-252,204,0,0,0,0,0,0,0,0,0,-1,972,820,0,0
-245,204,0,0,0,0,0,0,0,0,0,-1,979,820,0,0
-238,204,0,0,0,0,0,0,0,0,0,-1,986,820,0,0
-231,204,0,0,0,0,0,0,0,0,0,-1,993,820,0,0
-224,204,0,0,0,0,0,0,0,0,0,-1,1000,820,0,0
-217,204,0,0,0,0,0,0,0,0,0,-1,1007,820,0,0
-210,204,0,0,0,0,0,0,0,0,0,-1,1014,820,0,0
-203,204,0,0,0,0,0,0,0,0,0,-1,1021,820,0,0
-196,204,0,0,0,0,0,0,0,0,0,-1,1028,820,0,0
-189,204,0,0,0,0,0,0,0,0,0,-1,1035,820,0,0
-182,204,0,0,0,0,0,0,0,0,0,-1,1042,820,0,0
-175,204,0,0,0,0,0,0,0,0,0,-1,1049,820,0,0
-168,204,0,0,0,0,0,0,0,0,0,-1,1056,820,0,0
-161,204,0,0,0,0,0,0,0,0,0,-1,1063,820,0,0
-154,204,0,0,0,0,0,0,0,0,0,-1,1070,820,0,0
-147,204,0,0,0,0,0,0,0,0,0,-1,1077,820,0,0
-140,204,0,0,0,0,0,0,0,0,0,-1,1084,820,0,0
-133,204,0,0,0,0,0,0,0,0,0,-1,1091,820,0,0
-126,204,0,0,0,0,0,0,0,0,0,-1,1098,820,0,0
-119,204,0,0,0,0,0,0,0,0,0,-1,1105,820,0,0
-112,204,0,0,0,0,0,0,0,0,0,-1,1112,820,0,0
-105,204,0,0,0,0,0,0,0,0,0,-1,1119,820,0,0
-98,204,0,0,0,0,0,0,0,0,0,-1,1126,820,0,0
-91,204,0,0,0,0,0,0,0,0,0,-1,1133,820,0,0
-84,204,0,0,0,0,0,0,0,0,0,-1,1140,820,0,0
-77,204,0,0,0,0,0,0,0,0,0,-1,1147,820,0,0
-70,204,0,0,0,0,0,0,0,0,0,-1,1154,820,0,0
-63,204,0,0,0,0,0,0,0,0,0,-1,1161,820,0,0
-56,204,0,0,0,0,0,0,0,0,0,-1,1168,820,0,0
-49,204,0,0,0,0,0,0,0,0,0,-1,1175,820,0,0
-42,204,0,0,0,0,0,0,0,0,0,-1,1182,820,0,0
-35,204,0,0,0,0,0,0,0,0,0,-1,1189,820,0,0
-28,204,0,0,0,0,0,0,0,0,0,-1,1196,820,0,0
-21,204,0,0,0,0,0,0,0,0,0,-1,1203,820,0,0
-14,204,0,0,0,0,0,0,0,0,0,-1,1210,820,0,0
-7,204,0,0,0,0,0,0,0,0,0,-1,1217,820,0,0
0,204,0,0,0,0,0,0,0,0,0,-1,1224,820,0,0
7,204,0,0,0,0,0,0,0,0,0,-1,1231,820,0,0
14,204,0,0,0,0,0,0,0,0,0,-1,1238,820,0,0
21,204,0,0,0,0,0,0,0,0,0,-1,1245,820,0,0
28,204,0,0,0,0,0,0,0,0,0,-1,1252,820,0,0
35,204,0,0,0,0,0,0,0,0,0,-1,1259,820,0,0
42,204,0,0,0,0,0,0,0,0,0,-1,1266,820,0,0
49,204,0,0,0,0,0,0,0,0,0,-1,1273,820,0,0
56,204,0,0,0,0,0,0,0,0,0,-1,1280,820,0,0
63,204,0,0,0,0,0,0,0,0,0,-1,1287,820,0,0
70,204,0,0,0,0,0,0,0,0,0,-1,1294,820,0,0
77,204,0,0,0,0,0,0,0,0,0,-1,1301,820,0,0
84,204,0,0,0,0,0,0,0,0,0,-1,1308,820,0,0
91,204,0,0,0,0,0,0,0,0,0,-1,1315,820,0,0
98,204,0,0,0,0,0,0,0,0,0,-1,1322,820,0,0
105,204,0,0,0,0,0,0,0,0,0,-1,1329,820,0,0
112,204,0,0,0,0,0,0,0,0,0,-1,1336,820,0,0
119,204,0,0,0,0,0,0,0,0,0,-1,1343,820,0,0
126,204,0,0,0,0,0,0,0,0,0,-1,1350,820,0,0
133,204,0,0,0,0,0,0,0,0,0,-1,1357,820,0,0
140,204,0,0,0,0,0,0,0,0,0,-1,1364,820,0,0
147,204,0,0,0,0,0,0,0,0,0,-1,1371,820,0,0
154,204,0,0,0,0,0,0,0,0,0,-1,1378,820,0,0
161,204,0,0,0,0,0,0,0,0,0,-1,1385,820,0,0
168,204,0,0,0,0,0,0,0,0,0,-1,1392,820,0,0
175,204,0,0,0,0,0,0,0,0,0,-1,1399,820,0,0
182,204,0,0,0,0,0,0,0,0,0,-1,1406,820,0,0
189,204,0,0,0,0,0,0,0,0,0,-1,1413,820,0,0
196,204,0,0,0,0,0,0,0,0,0,-1,1420,820,0,0
203,204,0,0,0,0,0,0,0,0,0,-1,1427,820,0,0
210,204,0,0,0,0,0,0,0,0,0,-1,1434,820,0,0
217,204,0,0,0,0,0,0,0,0,0,-1,1441,820,0,0
224,204,0,0,0,0,0,0,0,0,0,-1,1448,820,0,0
231,204,0,0,0,0,0,0,0,0,0,-1,1455,820,0,0
238,204,0,0,0,0,0,0,0,0,0,-1,1462,820,0,0
245,204,0,0,0,0,0,0,0,0,0,-1,1469,820,0,0
252,204,0,0,0,0,0,0,0,0,0,-1,1476,820,0,0
259,204,0,0,0,0,0,0,0,0,0,-1,1483,820,0,0
266,204,0,0,0,0,0,0,0,0,0,-1,1490,820,0,0
273,204,0,0,0,0,0,0,0,0,0,-1,1497,820,0,0
280,204,0,0,0,0,0,0,0,0,0,-1,1504,820,0,0
287,204,0,0,0,0,0,0,0,0,0,-1,1511,820,0,0
294,204,0,0,0,0,0,0,0,0,0,-1,1518,820,0,0
301,204,0,0,0,0,0,0,0,0,0,-1,1525,820,0,0
308,204,0,0,0,0,0,0,0,0,0,-1,1532,820,0,0
315,204,0,0,0,0,0,0,0,0,0,-1,1539,820,0,0
322,204,0,0,0,0,0,0,0,0,0,-1,1546,820,0,0
329,204,0,0,0,0,0,0,0,0,0,-1,1553,820,0,0
336,204,0,0,0,0,0,0,0,0,0,-1,1560,820,0,0
343,204,0,0,0,0,0,0,0,0,0,-1,1567,820,0,0
350,204,0,0,0,0,0,0,0,0,0,-1,1574,820,0,0
357,204,0,0,0,0,0,0,0,0,0,-1,1581,820,0,0
364,204,0,0,0,0,0,0,0,0,0,-1,1588,820,0,0
371,204,0,0,0,0,0,0,0,0,0,-1,1595,820,0,0
378,204,0,0,0,0,0,0,0,0,0,-1,1602,820,0,0
385,204,0,0,0,0,0,0,0,0,0,-1,1609,820,0,0
392,204,0,0,0,0,0,0,0,0,0,-1,1616,820,0,0
399,204,0,0,0,0,0,0,0,0,0,-1,1623,820,0,0
406,204,0,0,0,0,0,0,0,0,0,-1,1630,820,0,0
413,204,0,0,0,0,0,0,0,0,0,-1,1637,820,0,0
420,204,0,0,0,0,0,0,0,0,0,-1,1644,820,0,0
427,204,0,0,0,0,0,0,0,0,0,-1,1651,820,0,0
434,204,0,0,0,0,0,0,0,0,0,-1,1658,820,0,0
441,204,0,0,0,0,0,0,0,0,0,-1,1665,820,0,0
448,204,0,0,0,0,0,0,0,0,0,-1,1672,820,0,0
455,204,0,0,0,0,0,0,0,0,0,-1,1679,820,0,0
462,204,0,0,0,0,0,0,0,0,0,-1,1686,820,0,0
469,204,0,0,0,0,0,0,0,0,0,-1,1693,820,0,0
476,204,0,0,0,0,0,0,0,0,0,-1,1700,820,0,0
483,204,0,0,0,0,0,0,0,0,0,-1,1707,820,0,0
490,204,0,0,0,0,0,0,0,0,0,-1,1714,820,0,0
497,204,0,0,0,0,0,0,0,0,0,-1,1721,820,0,0
504,204,0,0,0,0,0,0,0,0,0,-1,1728,820,0,0
511,204,0,0,0,0,0,0,0,0,0,-1,1735,820,0,0
518,204,0,0,0,0,0,0,0,0,0,-1,1742,820,0,0
525,204,0,0,0,0,0,0,0,0,0,-1,1749,820,0,0
532,204,0,0,0,0,0,0,0,0,0,-1,1756,820,0,0
539,204,0,0,0,0,0,0,0,0,0,-1,1763,820,0,0
546,204,0,0,0,0,0,0,0,0,0,-1,1770,820,0,0
553,204,0,0,0,0,0,0,0,0,0,-1,1777,820,0,0
560,204,0,0,0,0,0,0,0,0,0,-1,1784,820,0,0
567,204,0,0,0,0,0,0,0,0,0,-1,1791,820,0,0
574,204,0,0,0,0,0,0,0,0,0,-1,1798,820,0,0
581,204,0,0,0,0,0,0,0,0,0,-1,1805,820,0,0
588,204,0,0,0,0,0,0,0,0,0,-1,1812,820,0,0
595,204,0,0,0,0,0,0,0,0,0,-1,1819,820,0,0
602,204,46.6642,2.99677,-0.000720177,0.00218391,-0.000141032,0.00219074,-0.00072701,-1.52238,0.0017538,0.0396435,1826,820,46.6642,-2.99678
609,204,46.6088,3.03027,0.000471804,0.000843672,0.000551193,0.00123945,7.60296e-05,0.94807,0.000802157,0.0415127,1833,820,46.6088,-3.03026
616,204,46.5956,2.97485,0.00161176,-0.000339034,0.00105265,0.00207144,-0.000798721,0.411736,0.00171053,0.0388276,1840,820,46.5956,-2.97483
623,204,46.5487,2.9848,0.00198683,-0.00136915,0.00097415,0.0022491,-0.00163142,0.262996,0.00224986,0.0291476,1847,820,46.5487,-2.98483
630,204,46.5452,2.99615,0.00182935,-0.00179967,0.000681672,0.00195317,-0.00192349,0.179683,0.00223821,0.0271278,1854,820,46.5452,-2.99615
637,204,46.6047,2.94977,0.00133148,-0.00201194,0.000300988,0.00135836,-0.00203882,0.0890695,0.00197444,0.0323275,1861,820,46.6047,-2.94975
644,204,46.613,2.90521,0.000741524,-0.0021659,-6.11731e-05,0.00074281,-0.00216719,-0.0210279,0.00174589,0.0386779,1868,820,46.613,-2.90522
651,204,46.6765,2.8078,0,0,0,0,0,0,0,-1,1875,820,46.6765,-2.80778
658,204,34.9631,1.64844,0,0,0,0,0,0,0,-1,1882,820,34.9631,-1.64842
665,204,21.8292,1.51099,0,0,0,0,0,0,0,-1,1889,820,21.8292,-1.51099
672,204,35.609,0.365906,0,0,0,0,0,0,0,-1,1896,820,35.609,-0.365879
679,204,35.5662,0.927246,-0.00142092,-0.00191441,-0.00145082,-0.000196008,-0.00313932,-0.701167,0.0020307,0.0376027,1903,820,35.5661,-0.927248
686,204,35.5161,1.5293,-0.00196025,-0.0015116,-0.00157093,-0.000149058,-0.0033228,-0.856317,0.00216722,0.0178383,1910,820,35.5161,-1.52931
693,204,35.4297,2.04865,-0.00202927,-0.000837826,-0.0016211,0.000293541,-0.00316064,-0.961479,0.00221144,0.0157806,1917,820,35.4297,-2.04866
700,204,35.4371,2.59491,-0.00173239,-0.000454364,-0.00136625,0.000414924,-0.00260168,-1.00414,0.00188802,0.0165577,1924,820,35.4371,-2.59489
707,204,35.4454,3.14886,-0.0012849,3.74194e-05,-0.000961002,0.000542731,-0.00179022,-1.08671,0.00140965,0.0153092,1931,820,35.4454,-3.14884
714,204,35.4482,3.73206,-0.00031926,0.000664633,-8.25746e-05,0.000671515,-0.000326142,-1.48765,0.00058739,0.0237156,1938,820,35.4483,-3.73207
721,204,35.4298,4.19489,0.000602049,0.00126102,0.000906889,0.00189642,-3.33531e-05,0.959641,0.00127554,0.0213225,1945,820,35.4299,-4.19488
728,204,35.4039,4.69287,0.00159539,0.00214094,0.00192145,0.00380887,-7.25507e-05,0.855909,0.00256377,0.0136901,1952,820,35.4039,-4.69287
735,204,35.353,5.24335,0.00275844,0.00353297,0.00297194,0.00614277,0.00014864,0.850187,0.00404654,0.0159423,1959,820,35.353,-5.24335
742,204,35.3765,5.70654,0.00432345,0.00499487,0.00434541,0.00901752,0.000300808,0.823949,0.00591396,0.0311548,1966,820,35.3765,-5.70657
749,204,35.424,6.11926,0.00664217,0.00717847,0.0059628,0.0128791,0.000941494,0.807868,0.0082901,0.0487113,1973,820,35.4239,-6.11925
756,204,34.91,6.93634,0.0101911,0.010726,0.00771525,0.0181784,0.00273866,0.802723,0.0113171,0.0486036,1980,820,34.9101,-6.93632
763,204,35.64,7.40845,0.0157664,0.0167577,0.00933656,0.0256117,0.00691233,0.811916,0.0153,0.0474702,1987,820,35.6401,-7.40843
770,204,36.3516,8.1601,0,0,0,0,0,0,0,-1,1994,820,36.3515,-8.1601
777,204,0,0,0,0,0,0,0,0,0,-1,2001,820,0,0
784,204,0,0,0,0,0,0,0,0,0,-1,2008,820,0,0
791,204,0,0,0,0,0,0,0,0,0,-1,2015,820,0,0
798,204,0,0,0,0,0,0,0,0,0,-1,2022,820,0,0
805,204,0,0,0,0,0,0,0,0,0,-1,2029,820,0,0
812,204,0,0,0,0,0,0,0,0,0,-1,2036,820,0,0
-700,197,0,0,0,0,0,0,0,0,0,-1,524,827,0,0
-693,197,0,0,0,0,0,0,0,0,0,-1,531,827,0,0
-686,197,0,0,0,0,0,0,0,0,0,-1,538,827,0,0
-679,197,0,0,0,0,0,0,0,0,0,-1,545,827,0,0
-672,197,0,0,0,0,0,0,0,0,0,-1,552,827,0,0
-665,197,0,0,0,0,0,0,0,0,0,-1,559,827,0,0
-658,197,-28.2596,6.08923,0.165825,-0.0677817,0.0432186,0.173565,-0.0755209,0.177195,0.147476,0.0458175,566,827,-28.2596,-6.08923
-651,197,-27.4594,6.21869,0.138339,-0.0544573,0.0341908,0.144223,-0.0603412,0.170421,0.12137,0.0483949,573,827,-27.4593,-6.21868
-644,197,-26.6991,6.16089,0,0,0,0,0,0,0,-1,580,827,-26.6991,-6.16091
-637,197,-27.0466,7.04468,0,0,0,0,0,0,0,-1,587,827,-27.0466,-7.04469
-630,197,-26.6761,7.41974,0.0735549,-0.0210733,0.0125506,0.0751912,-0.0227096,0.129645,0.0591683,0.0416669,594,827,-26.6761,-7.41974
-623,197,-26.5325,7.68707,0.0544691,-0.0143322,0.00841234,0.0554827,-0.0153459,0.119917,0.0430259,0.0453078,601,827,-26.5325,-7.68705
-616,197,-25.4054,3.35321,0,0,0,0,0,0,0,-1,608,827,-25.4054,-3.35324
-609,197,-25.2552,3.01794,0.0249203,-0.00558237,0.00317089,0.0252465,-0.00590851,0.102494,0.0191075,0.0348334,615,827,-25.2552,-3.01796
-602,197,-25.2167,2.60266,0.0140112,-0.00148308,0.00107882,0.014086,-0.00155784,0.0691822,0.00995066,0.0183815,622,827,-25.2167,-2.60265
-595,197,-25.2763,2.10181,0.00599441,-0.000229782,0.000264728,0.00600565,-0.000241021,0.04243,0.00408648,0.0187467,629,827,-25.2763,-2.1018
-588,197,-25.2974,1.5874,0.00243419,-0.000229649,0.000597226,0.00256196,-0.000357418,0.210759,0.00183873,0.0211592,636,827,-25.2974,-1.58742
-581,197,-25.2918,1.07397,0.00158699,-0.000290947,0.00111422,0.00210512,-0.000809079,0.435273,0.00173709,0.0124408,643,827,-25.2918,-1.07396
-574,197,-25.2846,0.591003,0.00119449,-0.000672612,0.00150281,0.0020301,-0.00150823,0.507466,0.00205025,0.0134313,650,827,-25.2846,-0.591014
-567,197,-25.2552,0.121399,0.000622612,-0.00163604,0.00204982,0.00183361,-0.00284704,0.533616,0.00272341,0.0154822,657,827,-25.2552,-0.121409
-560,197,-25.2333,-0.360779,0.000393516,-0.00277421,0.00309976,0.00229062,-0.00467131,0.549208,0.00409706,0.0244609,664,827,-25.2333,0.360778
-553,197,-25.5577,-0.776367,0.00098902,-0.0035585,0.00457784,0.00382667,-0.00639616,0.554901,0.00596398,0.0255926,671,827,-25.5577,0.776346
-546,197,-25.4664,-1.22577,0.00112287,-0.0048317,0.00559275,0.00448144,-0.00819027,0.540803,0.00741973,0.0401871,678,827,-25.4664,1.22579
-539,197,-25.4001,-1.61884,0,0,0,0,0,0,0,-1,685,827,-25.4001,1.61886
-532,197,-16.0519,0.0410156,0,0,0,0,0,0,0,-1,692,827,-16.0519,-0.0410415
-525,197,-34.4382,0.7099,0,0,0,0,0,0,0,-1,699,827,-34.4382,-0.709895
-518,197,-34.5453,0.938782,0.00118523,-0.0075721,0.00918598,0.00698276,-0.0133696,0.562994,0.0119418,0.0476007,706,827,-34.5453,-0.938803
-511,197,-34.712,1.06494,0.00109782,-0.00788062,0.00993938,0.00751476,-0.0142976,0.573281,0.0127947,0.0431918,713,827,-34.712,-1.06494
-504,197,-34.7064,1.29944,0,0,0,0,0,0,0,-1,720,827,-34.7064,-1.29944
-497,197,-34.6523,1.47729,0,0,0,0,0,0,0,-1,727,827,-34.6523,-1.47732
-490,197,-34.7761,1.45251,0,0,0,0,0,0,0,-1,734,827,-34.7761,-1.45249
-483,197,-34.6967,1.10522,0,0,0,0,0,0,0,-1,741,827,-34.6966,-1.10525
-476,197,0,0,0,0,0,0,0,0,0,-1,748,827,0,0
-469,197,0,0,0,0,0,0,0,0,0,-1,755,827,0,0
-462,197,0,0,0,0,0,0,0,0,0,-1,762,827,0,0
-455,197,0,0,0,0,0,0,0,0,0,-1,769,827,0,0
-448,197,0,0,0,0,0,0,0,0,0,-1,776,827,0,0
-441,197,0,0,0,0,0,0,0,0,0,-1,783,827,0,0
-434,197,0,0,0,0,0,0,0,0,0,-1,790,827,0,0
-427,197,0,0,0,0,0,0,0,0,0,-1,797,827,0,0
-420,197,0,0,0,0,0,0,0,0,0,-1,804,827,0,0
-413,197,0,0,0,0,0,0,0,0,0,-1,811,827,0,0
-406,197,0,0,0,0,0,0,0,0,0,-1,818,827,0,0
-399,197,0,0,0,0,0,0,0,0,0,-1,825,827,0,0
-392,197,0,0,0,0,0,0,0,0,0,-1,832,827,0,0
-385,197,0,0,0,0,0,0,0,0,0,-1,839,827,0,0
-378,197,0,0,0,0,0,0,0,0,0,-1,846,827,0,0
-371,197,0,0,0,0,0,0,0,0,0,-1,853,827,0,0
-364,197,0,0,0,0,0,0,0,0,0,-1,860,827,0,0
-357,197,0,0,0,0,0,0,0,0,0,-1,867,827,0,0
-350,197,0,0,0,0,0,0,0,0,0,-1,874,827,0,0
-343,197,0,0,0,0,0,0,0,0,0,-1,881,827,0,0
-336,197,0,0,0,0,0,0,0,0,0,-1,888,827,0,0
-329,197,0,0,0,0,0,0,0,0,0,-1,895,827,0,0
-322,197,0,0,0,0,0,0,0,0,0,-1,902,827,0,0
-315,197,0,0,0,0,0,0,0,0,0,-1,909,827,0,0
-308,197,0,0,0,0,0,0,0,0,0,-1,916,827,0,0
-301,197,0,0,0,0,0,0,0,0,0,-1,923,827,0,0
-294,197,0,0,0,0,0,0,0,0,0,-1,930,827,0,0
-287,197,0,0,0,0,0,0,0,0,0,-1,937,827,0,0
-280,197,0,0,0,0,0,0,0,0,0,-1,944,827,0,0
-273,197,0,0,0,0,0,0,0,0,0,-1,951,827,0,0
-266,197,0,0,0,0,0,0,0,0,0,-1,958,827,0,0
-259,197,0,0,0,0,0,0,0,0,0,-1,965,827,0,0
-252,197,0,0,0,0,0,0,0,0,0,-1,972,827,0,0
-245,197,0,0,0,0,0,0,0,0,0,-1,979,827,0,0
-238,197,0,0,0,0,0,0,0,0,0,-1,986,827,0,0
-231,197,0,0,0,0,0,0,0,0,0,-1,993,827,0,0
-224,197,0,0,0,0,0,0,0,0,0,-1,1000,827,0,0
-217,197,0,0,0,0,0,0,0,0,0,-1,1007,827,0,0
-210,197,0,0,0,0,0,0,0,0,0,-1,1014,827,0,0
-203,197,0,0,0,0,0,0,0,0,0,-1,1021,827,0,0
-196,197,0,0,0,0,0,0,0,0,0,-1,1028,827,0,0
-189,197,0,0,0,0,0,0,0,0,0,-1,1035,827,0,0
-182,197,0,0,0,0,0,0,0,0,0,-1,1042,827,0,0
-175,197,0,0,0,0,0,0,0,0,0,-1,1049,827,0,0
-168,197,0,0,0,0,0,0,0,0,0,-1,1056,827,0,0
-161,197,0,0,0,0,0,0,0,0,0,-1,1063,827,0,0
-154,197,0,0,0,0,0,0,0,0,0,-1,1070,827,0,0
-147,197,0,0,0,0,0,0,0,0,0,-1,1077,827,0,0
-140,197,0,0,0,0,0,0,0,0,0,-1,1084,827,0,0
-133,197,0,0,0,0,0,0,0,0,0,-1,1091,827,0,0
-126,197,0,0,0,0,0,0,0,0,0,-1,1098,827,0,0
-119,197,0,0,0,0,0,0,0,0,0,-1,1105,827,0,0
-112,197,0,0,0,0,0,0,0,0,0,-1,1112,827,0,0
-105,197,0,0,0,0,0,0,0,0,0,-1,1119,827,0,0
-98,197,0,0,0,0,0,0,0,0,0,-1,1126,827,0,0
-91,197,0,0,0,0,0,0,0,0,0,-1,1133,827,0,0
-84,197,0,0,0,0,0,0,0,0,0,-1,1140,827,0,0
-77,197,0,0,0,0,0,0,0,0,0,-1,1147,827,0,0
-70,197,0,0,0,0,0,0,0,0,0,-1,1154,827,0,0
-63,197,0,0,0,0,0,0,0,0,0,-1,1161,827,0,0
-56,197,0,0,0,0,0,0,0,0,0,-1,1168,827,0,0
-49,197,0,0,0,0,0,0,0,0,0,-1,1175,827,0,0
-42,197,0,0,0,0,0,0,0,0,0,-1,1182,827,0,0
-35,197,0,0,0,0,0,0,0,0,0,-1,1189,827,0,0
-28,197,0,0,0,0,0,0,0,0,0,-1,1196,827,0,0
-21,197,0,0,0,0,0,0,0,0,0,-1,1203,827,0,0
-14,197,0,0,0,0,0,0,0,0,0,-1,1210,827,0,0
-7,197,0,0,0,0,0,0,0,0,0,-1,1217,827,0,0
0,197,0,0,0,0,0,0,0,0,0,-1,1224,827,0,0
7,197,0,0,0,0,0,0,0,0,0,-1,1231,827,0,0
14,197,0,0,0,0,0,0,0,0,0,-1,1238,827,0,0
21,197,0,0,0,0,0,0,0,0,0,-1,1245,827,0,0
28,197,0,0,0,0,0,0,0,0,0,-1,1252,827,0,0
35,197,0,0,0,0,0,0,0,0,0,-1,1259,827,0,0
42,197,0,0,0,0,0,0,0,0,0,-1,1266,827,0,0
49,197,0,0,0,0,0,0,0,0,0,-1,1273,827,0,0
56,197,0,0,0,0,0,0,0,0,0,-1,1280,827,0,0
63,197,0,0,0,0,0,0,0,0,0,-1,1287,827,0,0
70,197,0,0,0,0,0,0,0,0,0,-1,1294,827,0,0
77,197,0,0,0,0,0,0,0,0,0,-1,1301,827,0,0
84,197,0,0,0,0,0,0,0,0,0,-1,1308,827,0,0
91,197,0,0,0,0,0,0,0,0,0,-1,1315,827,0,0
98,197,0,0,0,0,0,0,0,0,0,-1,1322,827,0,0
105,197,0,0,0,0,0,0,0,0,0,-1,1329,827,0,0
112,197,0,0,0,0,0,0,0,0,0,-1,1336,827,0,0
119,197,0,0,0,0,0,0,0,0,0,-1,1343,827,0,0
126,197,0,0,0,0,0,0,0,0,0,-1,1350,827,0,0
133,197,0,0,0,0,0,0,0,0,0,-1,1357,827,0,0
140,197,0,0,0,0,0,0,0,0,0,-1,1364,827,0,0
147,197,0,0,0,0,0,0,0,0,0,-1,1371,827,0,0
154,197,0,0,0,0,0,0,0,0,0,-1,1378,827,0,0
161,197,0,0,0,0,0,0,0,0,0,-1,1385,827,0,0
168,197,0,0,0,0,0,0,0,0,0,-1,1392,827,0,0
175,197,0,0,0,0,0,0,0,0,0,-1,1399,827,0,0
182,197,0,0,0,0,0,0,0,0,0,-1,1406,827,0,0
189,197,0,0,0,0,0,0,0,0,0,-1,1413,827,0,0
196,197,0,0,0,0,0,0,0,0,0,-1,1420,827,0,0
203,197,0,0,0,0,0,0,0,0,0,-1,1427,827,0,0
210,197,0,0,0,0,0,0,0,0,0,-1,1434,827,0,0
217,197,0,0,0,0,0,0,0,0,0,-1,1441,827,0,0
224,197,0,0,0,0,0,0,0,0,0,-1,1448,827,0,0
231,197,0,0,0,0,0,0,0,0,0,-1,1455,827,0,0
238,197,0,0,0,0,0,0,0,0,0,-1,1462,827,0,0
245,197,0,0,0,0,0,0,0,0,0,-1,1469,827,0,0
252,197,0,0,0,0,0,0,0,0,0,-1,1476,827,0,0
259,197,0,0,0,0,0,0,0,0,0,-1,1483,827,0,0
266,197,0,0,0,0,0,0,0,0,0,-1,1490,827,0,0
273,197,0,0,0,0,0,0,0,0,0,-1,1497,827,0,0
280,197,0,0,0,0,0,0,0,0,0,-1,1504,827,0,0
287,197,0,0,0,0,0,0,0,0,0,-1,1511,827,0,0
294,197,0,0,0,0,0,0,0,0,0,-1,1518,827,0,0
301,197,0,0,0,0,0,0,0,0,0,-1,1525,827,0,0
308,197,0,0,0,0,0,0,0,0,0,-1,1532,827,0,0
315,197,0,0,0,0,0,0,0,0,0,-1,1539,827,0,0
322,197,0,0,0,0,0,0,0,0,0,-1,1546,827,0,0
329,197,0,0,0,0,0,0,0,0,0,-1,1553,827,0,0
336,197,0,0,0,0,0,0,0,0,0,-1,1560,827,0,0
343,197,0,0,0,0,0,0,0,0,0,-1,1567,827,0,0
350,197,0,0,0,0,0,0,0,0,0,-1,1574,827,0,0
357,197,0,0,0,0,0,0,0,0,0,-1,1581,827,0,0
364,197,0,0,0,0,0,0,0,0,0,-1,1588,827,0,0
371,197,0,0,0,0,0,0,0,0,0,-1,1595,827,0,0
378,197,0,0,0,0,0,0,0,0,0,-1,1602,827,0,0
385,197,0,0,0,0,0,0,0,0,0,-1,1609,827,0,0
392,197,0,0,0,0,0,0,0,0,0,-1,1616,827,0,0
399,197,0,0,0,0,0,0,0,0,0,-1,1623,827,0,0
406,197,0,0,0,0,0,0,0,0,0,-1,1630,827,0,0
413,197,0,0,0,0,0,0,0,0,0,-1,1637,827,0,0
420,197,0,0,0,0,0,0,0,0,0,-1,1644,827,0,0
427,197,0,0,0,0,0,0,0,0,0,-1,1651,827,0,0
434,197,0,0,0,0,0,0,0,0,0,-1,1658,827,0,0
441,197,0,0,0,0,0,0,0,0,0,-1,1665,827,0,0
448,197,0,0,0,0,0,0,0,0,0,-1,1672,827,0,0
455,197,0,0,0,0,0,0,0,0,0,-1,1679,827,0,0
462,197,0,0,0,0,0,0,0,0,0,-1,1686,827,0,0
469,197,0,0,0,0,0,0,0,0,0,-1,1693,827,0,0
476,197,0,0,0,0,0,0,0,0,0,-1,1700,827,0,0
483,197,0,0,0,0,0,0,0,0,0,-1,1707,827,0,0
490,197,0,0,0,0,0,0,0,0,0,-1,1714,827,0,0
497,197,0,0,0,0,0,0,0,0,0,-1,1721,827,0,0
504,197,0,0,0,0,0,0,0,0,0,-1,1728,827,0,0
511,197,0,0,0,0,0,0,0,0,0,-1,1735,827,0,0
518,197,0,0,0,0,0,0,0,0,0,-1,1742,827,0,0
525,197,0,0,0,0,0,0,0,0,0,-1,1749,827,0,0
532,197,0,0,0,0,0,0,0,0,0,-1,1756,827,0,0
539,197,0,0,0,0,0,0,0,0,0,-1,1763,827,0,0
546,197,0,0,0,0,0,0,0,0,0,-1,1770,827,0,0
553,197,0,0,0,0,0,0,0,0,0,-1,1777,827,0,0
560,197,0,0,0,0,0,0,0,0,0,-1,1784,827,0,0
567,197,0,0,0,0,0,0,0,0,0,-1,1791,827,0,0
574,197,0,0,0,0,0,0,0,0,0,-1,1798,827,0,0
581,197,0,0,0,0,0,0,0,0,0,-1,1805,827,0,0
588,197,0,0,0,0,0,0,0,0,0,-1,1812,827,0,0
595,197,0,0,0,0,0,0,0,0,0,-1,1819,827,0,0
602,197,46.6593,2.85168,-0.0015427,0.00221775,-0.000955333,0.00244653,-0.00177148,-1.33574,0.00244564,0.0394215,1826,827,46.6593,-2.85166
609,197,46.6223,2.8288,-4.7831e-05,0.00110647,-0.000130898,0.00112112,-6.24887e-05,-1.45928,0.000769092,0.0395909,1833,827,46.6223,-2.82882
616,197,46.5166,2.77954,0.0014227,0.00011731,0.000600998,0.00165725,-0.000117243,0.372093,0.00114592,0.0385511,1840,827,46.5166,-2.77952
623,197,46.4274,2.81848,0.00211455,-0.000875587,0.000781314,0.00230639,-0.00106743,0.24078,0.00199118,0.034475,1847,827,46.4274,-2.81846
630,197,46.5381,2.90759,0.00204872,-0.00141162,0.000603927,0.0021511,-0.001514,0.167917,0.00212667,0.029488,1854,827,46.5381,-2.90758
637,197,46.6063,2.93512,0.00151272,-0.0016887,0.000254838,0.00153288,-0.00170886,0.0789393,0.00187254,0.0274106,1861,827,46.6063,-2.9351
644,197,46.6187,2.90143,0.000846119,-0.00188919,-9.82068e-05,0.00084964,-0.00189271,-0.0358418,0.00162103,0.0332607,1868,827,46.6186,-2.90145
651,197,46.7811,2.82391,0,0,0,0,0,0,0,-1,1875,827,46.7811,-2.8239
658,197,40.4694,3.05927,0,0,0,0,0,0,0,-1,1882,827,40.4694,-3.05926
665,197,14.0618,1.80304,0,0,0,0,0,0,0,-1,1889,827,14.0617,-1.80303
672,197,33.3518,0.135193,0,0,0,0,0,0,0,-1,1896,827,33.3518,-0.135171
679,197,35.9591,0.78009,0,0,0,0,0,0,0,-1,1903,827,35.9591,-0.780096
686,197,36.0562,1.60345,-0.00196312,-0.00157838,-0.00155408,-0.000204813,-0.00333669,-0.846977,0.00215943,0.0304351,1910,827,36.0562,-1.60343
693,197,35.9778,2.14209,-0.00212779,-0.00104401,-0.00168154,0.000180798,-0.0033526,-0.941273,0.00229771,0.0166369,1917,827,35.9778,-2.14211
700,197,35.9448,2.64221,-0.00202729,-0.000775516,-0.00153691,0.000258059,-0.00306087,-0.978764,0.00213181,0.0207444,1924,827,35.9448,-2.6422
707,197,35.9912,3.16418,-0.00176145,-0.000388159,-0.0012316,0.000335273,-0.00248489,-1.0397,0.00177891,0.0093664,1931,827,35.9912,-3.16417
714,197,35.9692,3.68793,-0.000958379,0.000190556,-0.000465434,0.00035544,-0.00112326,-1.23033,0.000891269,0.0115731,1938,827,35.9693,-3.6879
721,197,35.9386,4.20917,-0.00013196,0.000774665,0.000445811,0.000957151,-0.000314446,1.18227,0.000764776,0.012125,1945,827,35.9386,-4.20918
728,197,35.9183,4.72198,0.000899537,0.0021526,0.00122784,0.00290452,0.000147614,1.02131,0.00188907,0.0109528,1952,827,35.9184,-4.72196
735,197,35.881,5.23755,0.00217295,0.00465886,0.00178813,0.0055936,0.00123821,1.08912,0.00339251,0.0116304,1959,827,35.8809,-5.23753
742,197,35.8784,5.76758,0.00379896,0.00747969,0.00254255,0.00877803,0.00250062,1.09867,0.00522202,0.020847,1966,827,35.8784,-5.76756
749,197,35.7827,6.36426,0.00618631,0.0119773,0.00313089,0.0133464,0.00481726,1.15858,0.00780422,0.0442205,1973,827,35.7827,-6.36424
756,197,35.6603,6.93237,0.00985415,0.0193232,0.00327177,0.0203437,0.00883366,1.26845,0.0117793,0.0493113,1980,827,35.6603,-6.93239
763,197,35.6322,7.31354,0.015368,0.0312386,0.00232599,0.0315725,0.0150341,1.42823,0.0182353,0.0471393,1987,827,35.6322,-7.31351
770,197,35.5985,7.97974,0,0,0,0,0,0,0,-1,1994,827,35.5985,-7.97976
777,197,0,0,0,0,0,0,0,0,0,-1,2001,827,0,0
784,197,0,0,0,0,0,0,0,0,0,-1,2008,827,0,0
791,197,0,0,0,0,0,0,0,0,0,-1,2015,827,0,0
798,197,0,0,0,0,0,0,0,0,0,-1,2022,827,0,0
805,197,0,0,0,0,0,0,0,0,0,-1,2029,827,0,0
812,197,0,0,0,0,0,0,0,0,0,-1,2036,827,0,0
-700,190,0,0,0,0,0,0,0,0,0,-1,524,834,0,0
-693,190,0,0,0,0,0,0,0,0,0,-1,531,834,0,0
-686,190,0,0,0,0,0,0,0,0,0,-1,538,834,0,0
-679,190,0,0,0,0,0,0,0,0,0,-1,545,834,0,0
-672,190,0,0,0,0,0,0,0,0,0,-1,552,834,0,0
-665,190,0,0,0,0,0,0,0,0,0,-1,559,834,0,0
-658,190,-29.1063,7.16138,0.179396,-0.0405168,0.0318962,0.183929,-0.0450496,0.141166,0.140072,0.0498122,566,834,-29.1063,-7.16139
-651,190,-28.1594,6.76904,0.147748,-0.0338405,0.025142,0.151165,-0.0372573,0.135071,0.115221,0.0480198,573,834,-28.1593,-6.76905
-644,190,-27.2538,6.23187,0.120524,-0.0261837,0.0191521,0.122983,-0.0286427,0.127695,0.093018,0.0465413,580,834,-27.2538,-6.23189
-637,190,-26.2308,5.63983,0,0,0,0,0,0,0,-1,587,834,-26.2308,-5.63981
-630,190,-25.6833,5.11017,0,0,0,0,0,0,0,-1,594,834,-25.6833,-5.11014
-623,190,-25.8128,2.62866,0,0,0,0,0,0,0,-1,601,834,-25.8128,-2.62869
-616,190,-25.7593,2.76807,0,0,0,0,0,0,0,-1,608,834,-25.7593,-2.76807
-609,190,-25.6934,3.00885,0.0237633,-0.0035888,0.00325293,0.0241448,-0.00397034,0.116758,0.0175702,0.0257616,615,834,-25.6934,-3.00886
-602,190,-25.7324,2.61938,0.0128976,-0.000474683,0.00162435,0.0130921,-0.000669166,0.119163,0.00895945,0.0167145,622,834,-25.7324,-2.61936
-595,190,-25.7746,2.1051,0.00513189,0.000221715,0.00110431,0.00536882,-1.52125e-05,0.211345,0.00358429,0.0191085,629,834,-25.7746,-2.10512
-588,190,-25.7985,1.60638,0.00197637,-9.20624e-05,0.0014422,0.00271685,-0.000832546,0.474341,0.00214334,0.0186946,636,834,-25.7985,-1.60637
-581,190,-25.7894,1.10834,0.00149753,-0.000330878,0.00187484,0.00266918,-0.00150253,0.558552,0.00243973,0.0131193,643,834,-25.7894,-1.10834
-574,190,-25.7681,0.617065,0.00139172,-0.000807886,0.0021607,0.00271641,-0.00213258,0.549986,0.00280632,0.0118884,650,834,-25.7681,-0.617092
-567,190,-25.7021,0.0829468,0.000962421,-0.00174816,0.00253691,0.00248336,-0.0032691,0.540071,0.0033315,0.0217365,657,834,-25.7022,-0.0829488
-560,190,-25.8229,-0.328064,0.000888075,-0.00272511,0.00347095,0.00299445,-0.00483148,0.545446,0.00455961,0.0447246,664,834,-25.8229,0.328078
-553,190,-25.9235,-0.806091,0.0015612,-0.00327133,0.00480563,0.00452382,-0.00623395,0.552456,0.00623711,0.0373036,671,834,-25.9235,0.806062
-546,190,-25.9982,-1.28473,0,0,0,0,0,0,0,-1,678,834,-25.9981,1.28471
-539,190,-16.4624,-0.542542,0,0,0,0,0,0,0,-1,685,834,-16.4624,0.542527
-532,190,-21.6292,2.06122,0,0,0,0,0,0,0,-1,692,834,-21.6292,-2.06123
-525,190,-34.6235,0.742004,0,0,0,0,0,0,0,-1,699,834,-34.6235,-0.742029
-518,190,-34.66,1.00757,0.00200847,-0.00678336,0.00917153,0.00778315,-0.012558,0.561922,0.0118514,0.0476227,706,834,-34.66,-1.00757
-511,190,-34.6737,1.27783,0.00217592,-0.00708458,0.00995493,0.00852473,-0.0134334,0.567719,0.0127827,0.0419515,713,834,-34.6737,-1.27783
-504,190,-34.5204,2.06067,0,0,0,0,0,0,0,-1,720,834,-34.5205,-2.06067
-497,190,-34.7316,1.64587,0,0,0,0,0,0,0,-1,727,834,-34.7315,-1.6459
-490,190,-34.9933,1.15674,0,0,0,0,0,0,0,-1,734,834,-34.9934,-1.15675
-483,190,0,0,0,0,0,0,0,0,0,-1,741,834,0,0
-476,190,0,0,0,0,0,0,0,0,0,-1,748,834,0,0
-469,190,0,0,0,0,0,0,0,0,0,-1,755,834,0,0
-462,190,0,0,0,0,0,0,0,0,0,-1,762,834,0,0
-455,190,0,0,0,0,0,0,0,0,0,-1,769,834,0,0
-448,190,0,0,0,0,0,0,0,0,0,-1,776,834,0,0
-441,190,0,0,0,0,0,0,0,0,0,-1,783,834,0,0
-434,190,0,0,0,0,0,0,0,0,0,-1,790,834,0,0
-427,190,0,0,0,0,0,0,0,0,0,-1,797,834,0,0
-420,190,0,0,0,0,0,0,0,0,0,-1,804,834,0,0
-413,190,0,0,0,0,0,0,0,0,0,-1,811,834,0,0
-406,190,0,0,0,0,0,0,0,0,0,-1,818,834,0,0
-399,190,0,0,0,0,0,0,0,0,0,-1,825,834,0,0
-392,190,0,0,0,0,0,0,0,0,0,-1,832,834,0,0
-385,190,0,0,0,0,0,0,0,0,0,-1,839,834,0,0
-378,190,0,0,0,0,0,0,0,0,0,-1,846,834,0,0
-371,190,0,0,0,0,0,0,0,0,0,-1,853,834,0,0
-364,190,0,0,0,0,0,0,0,0,0,-1,860,834,0,0
-357,190,0,0,0,0,0,0,0,0,0,-1,867,834,0,0
-350,190,0,0,0,0,0,0,0,0,0,-1,874,834,0,0
-343,190,0,0,0,0,0,0,0,0,0,-1,881,834,0,0
-336,190,0,0,0,0,0,0,0,0,0,-1,888,834,0,0
-329,190,0,0,0,0,0,0,0,0,0,-1,895,834,0,0
-322,190,0,0,0,0,0,0,0,0,0,-1,902,834,0,0
-315,190,0,0,0,0,0,0,0,0,0,-1,909,834,0,0
-308,190,0,0,0,0,0,0,0,0,0,-1,916,834,0,0
-301,190,0,0,0,0,0,0,0,0,0,-1,923,834,0,0
-294,190,0,0,0,0,0,0,0,0,0,-1,930,834,0,0
-287,190,0,0,0,0,0,0,0,0,0,-1,937,834,0,0
-280,190,0,0,0,0,0,0,0,0,0,-1,944,834,0,0
-273,190,0,0,0,0,0,0,0,0,0,-1,951,834,0,0
-266,190,0,0,0,0,0,0,0,0,0,-1,958,834,0,0
-259,190,0,0,0,0,0,0,0,0,0,-1,965,834,0,0
-252,190,0,0,0,0,0,0,0,0,0,-1,972,834,0,0
-245,190,0,0,0,0,0,0,0,0,0,-1,979,834,0,0
-238,190,0,0,0,0,0,0,0,0,0,-1,986,834,0,0
-231,190,0,0,0,0,0,0,0,0,0,-1,993,834,0,0
-224,190,0,0,0,0,0,0,0,0,0,-1,1000,834,0,0
-217,190,0,0,0,0,0,0,0,0,0,-1,1007,834,0,0
-210,190,0,0,0,0,0,0,0,0,0,-1,1014,834,0,0
-203,190,0,0,0,0,0,0,0,0,0,-1,1021,834,0,0
-196,190,0,0,0,0,0,0,0,0,0,-1,1028,834,0,0
-189,190,0,0,0,0,0,0,0,0,0,-1,1035,834,0,0
-182,190,0,0,0,0,0,0,0,0,0,-1,1042,834,0,0
-175,190,0,0,0,0,0,0,0,0,0,-1,1049,834,0,0
-168,190,0,0,0,0,0,0,0,0,0,-1,1056,834,0,0
-161,190,0,0,0,0,0,0,0,0,0,-1,1063,834,0,0
-154,190,0,0,0,0,0,0,0,0,0,-1,1070,834,0,0
-147,190,0,0,0,0,0,0,0,0,0,-1,1077,834,0,0
-140,190,0,0,0,0,0,0,0,0,0,-1,1084,834,0,0
-133,190,0,0,0,0,0,0,0,0,0,-1,1091,834,0,0
-126,190,0,0,0,0,0,0,0,0,0,-1,1098,834,0,0
-119,190,0,0,0,0,0,0,0,0,0,-1,1105,834,0,0
-112,190,0,0,0,0,0,0,0,0,0,-1,1112,834,0,0
-105,190,0,0,0,0,0,0,0,0,0,-1,1119,834,0,0
-98,190,0,0,0,0,0,0,0,0,0,-1,1126,834,0,0
-91,190,0,0,0,0,0,0,0,0,0,-1,1133,834,0,0
-84,190,0,0,0,0,0,0,0,0,0,-1,1140,834,0,0
-77,190,0,0,0,0,0,0,0,0,0,-1,1147,834,0,0
-70,190,0,0,0,0,0,0,0,0,0,-1,1154,834,0,0
-63,190,0,0,0,0,0,0,0,0,0,-1,1161,834,0,0
-56,190,0,0,0,0,0,0,0,0,0,-1,1168,834,0,0
-49,190,0,0,0,0,0,0,0,0,0,-1,1175,834,0,0
-42,190,0,0,0,0,0,0,0,0,0,-1,1182,834,0,0
-35,190,0,0,0,0,0,0,0,0,0,-1,1189,834,0,0
-28,190,0,0,0,0,0,0,0,0,0,-1,1196,834,0,0
-21,190,0,0,0,0,0,0,0,0,0,-1,1203,834,0,0
-14,190,0,0,0,0,0,0,0,0,0,-1,1210,834,0,0
-7,190,0,0,0,0,0,0,0,0,0,-1,1217,834,0,0
0,190,0,0,0,0,0,0,0,0,0,-1,1224,834,0,0
7,190,0,0,0,0,0,0,0,0,0,-1,1231,834,0,0
14,190,0,0,0,0,0,0,0,0,0,-1,1238,834,0,0
21,190,0,0,0,0,0,0,0,0,0,-1,1245,834,0,0
28,190,0,0,0,0,0,0,0,0,0,-1,1252,834,0,0
35,190,0,0,0,0,0,0,0,0,0,-1,1259,834,0,0
42,190,0,0,0,0,0,0,0,0,0,-1,1266,834,0,0
49,190,0,0,0,0,0,0,0,0,0,-1,1273,834,0,0
56,190,0,0,0,0,0,0,0,0,0,-1,1280,834,0,0
63,190,0,0,0,0,0,0,0,0,0,-1,1287,834,0,0
70,190,0,0,0,0,0,0,0,0,0,-1,1294,834,0,0
77,190,0,0,0,0,0,0,0,0,0,-1,1301,834,0,0
84,190,0,0,0,0,0,0,0,0,0,-1,1308,834,0,0
91,190,0,0,0,0,0,0,0,0,0,-1,1315,834,0,0
98,190,0,0,0,0,0,0,0,0,0,-1,1322,834,0,0
105,190,0,0,0,0,0,0,0,0,0,-1,1329,834,0,0
112,190,0,0,0,0,0,0,0,0,0,-1,1336,834,0,0
119,190,0,0,0,0,0,0,0,0,0,-1,1343,834,0,0
126,190,0,0,0,0,0,0,0,0,0,-1,1350,834,0,0
133,190,0,0,0,0,0,0,0,0,0,-1,1357,834,0,0
140,190,0,0,0,0,0,0,0,0,0,-1,1364,834,0,0
147,190,0,0,0,0,0,0,0,0,0,-1,1371,834,0,0
154,190,0,0,0,0,0,0,0,0,0,-1,1378,834,0,0
161,190,0,0,0,0,0,0,0,0,0,-1,1385,834,0,0
168,190,0,0,0,0,0,0,0,0,0,-1,1392,834,0,0
175,190,0,0,0,0,0,0,0,0,0,-1,1399,834,0,0
182,190,0,0,0,0,0,0,0,0,0,-1,1406,834,0,0
189,190,0,0,0,0,0,0,0,0,0,-1,1413,834,0,0
196,190,0,0,0,0,0,0,0,0,0,-1,1420,834,0,0
203,190,0,0,0,0,0,0,0,0,0,-1,1427,834,0,0
210,190,0,0,0,0,0,0,0,0,0,-1,1434,834,0,0
217,190,0,0,0,0,0,0,0,0,0,-1,1441,834,0,0
224,190,0,0,0,0,0,0,0,0,0,-1,1448,834,0,0
231,190,0,0,0,0,0,0,0,0,0,-1,1455,834,0,0
238,190,0,0,0,0,0,0,0,0,0,-1,1462,834,0,0
245,190,0,0,0,0,0,0,0,0,0,-1,1469,834,0,0
252,190,0,0,0,0,0,0,0,0,0,-1,1476,834,0,0
259,190,0,0,0,0,0,0,0,0,0,-1,1483,834,0,0
266,190,0,0,0,0,0,0,0,0,0,-1,1490,834,0,0
273,190,0,0,0,0,0,0,0,0,0,-1,1497,834,0,0
280,190,0,0,0,0,0,0,0,0,0,-1,1504,834,0,0
287,190,0,0,0,0,0,0,0,0,0,-1,1511,834,0,0
294,190,0,0,0,0,0,0,0,0,0,-1,1518,834,0,0
301,190,0,0,0,0,0,0,0,0,0,-1,1525,834,0,0
308,190,0,0,0,0,0,0,0,0,0,-1,1532,834,0,0
315,190,0,0,0,0,0,0,0,0,0,-1,1539,834,0,0
322,190,0,0,0,0,0,0,0,0,0,-1,1546,834,0,0
329,190,0,0,0,0,0,0,0,0,0,-1,1553,834,0,0
336,190,0,0,0,0,0,0,0,0,0,-1,1560,834,0,0
343,190,0,0,0,0,0,0,0,0,0,-1,1567,834,0,0
350,190,0,0,0,0,0,0,0,0,0,-1,1574,834,0,0
357,190,0,0,0,0,0,0,0,0,0,-1,1581,834,0,0
364,190,0,0,0,0,0,0,0,0,0,-1,1588,834,0,0
371,190,0,0,0,0,0,0,0,0,0,-1,1595,834,0,0
378,190,0,0,0,0,0,0,0,0,0,-1,1602,834,0,0
385,190,0,0,0,0,0,0,0,0,0,-1,1609,834,0,0
392,190,0,0,0,0,0,0,0,0,0,-1,1616,834,0,0
399,190,0,0,0,0,0,0,0,0,0,-1,1623,834,0,0
406,190,0,0,0,0,0,0,0,0,0,-1,1630,834,0,0
413,190,0,0,0,0,0,0,0,0,0,-1,1637,834,0,0
420,190,0,0,0,0,0,0,0,0,0,-1,1644,834,0,0
427,190,0,0,0,0,0,0,0,0,0,-1,1651,834,0,0
434,190,0,0,0,0,0,0,0,0,0,-1,1658,834,0,0
441,190,0,0,0,0,0,0,0,0,0,-1,1665,834,0,0
448,190,0,0,0,0,0,0,0,0,0,-1,1672,834,0,0
455,190,0,0,0,0,0,0,0,0,0,-1,1679,834,0,0
462,190,0,0,0,0,0,0,0,0,0,-1,1686,834,0,0
469,190,0,0,0,0,0,0,0,0,0,-1,1693,834,0,0
476,190,0,0,0,0,0,0,0,0,0,-1,1700,834,0,0
483,190,0,0,0,0,0,0,0,0,0,-1,1707,834,0,0
490,190,0,0,0,0,0,0,0,0,0,-1,1714,834,0,0
497,190,0,0,0,0,0,0,0,0,0,-1,1721,834,0,0
504,190,0,0,0,0,0,0,0,0,0,-1,1728,834,0,0
511,190,0,0,0,0,0,0,0,0,0,-1,1735,834,0,0
518,190,0,0,0,0,0,0,0,0,0,-1,1742,834,0,0
525,190,0,0,0,0,0,0,0,0,0,-1,1749,834,0,0
532,190,0,0,0,0,0,0,0,0,0,-1,1756,834,0,0
539,190,0,0,0,0,0,0,0,0,0,-1,1763,834,0,0
546,190,0,0,0,0,0,0,0,0,0,-1,1770,834,0,0
553,190,0,0,0,0,0,0,0,0,0,-1,1777,834,0,0
560,190,0,0,0,0,0,0,0,0,0,-1,1784,834,0,0
567,190,0,0,0,0,0,0,0,0,0,-1,1791,834,0,0
574,190,0,0,0,0,0,0,0,0,0,-1,1798,834,0,0
581,190,0,0,0,0,0,0,0,0,0,-1,1805,834,0,0
588,190,0,0,0,0,0,0,0,0,0,-1,1812,834,0,0
595,190,0,0,0,0,0,0,0,0,0,-1,1819,834,0,0
602,190,46.6304,2.87793,-0.00276777,0.00230804,-0.00146958,0.00270282,-0.00316255,-1.30836,0.00338984,0.0421155,1826,834,46.6303,-2.87792
609,190,46.5931,2.9433,-0.00111932,0.00131986,-0.000721837,0.00151747,-0.00131693,-1.30359,0.0016378,0.0394137,1833,834,46.5931,-2.94331
616,190,46.4828,2.94629,0.000512241,0.000456988,4.29789e-05,0.000535706,0.000433522,0.499753,0.000328418,0.0383911,1840,834,46.4828,-2.94628
623,190,46.4296,3.08185,0.00151255,-0.000479408,0.00042527,0.00159955,-0.000566401,0.201776,0.00129706,0.0364749,1847,834,46.4295,-3.08182
630,190,46.6078,3.01483,0.00167958,-0.00112344,0.000395379,0.00173428,-0.00117815,0.137482,0.00169168,0.0395505,1854,834,46.6078,-3.01483
637,190,46.6506,2.89709,0.00125163,-0.00148649,0.000125727,0.00125739,-0.00149225,0.0457889,0.00158943,0.033098,1861,834,46.6506,-2.89707
644,190,46.5978,2.94861,0.000614457,-0.0017551,-0.000181789,0.000628323,-0.00176897,-0.0761246,0.00143535,0.0270234,1868,834,46.5978,-2.94863
651,190,46.6678,2.9469,8.72996e-05,-0.00182668,-0.000479318,0.000200625,-0.00194001,-0.232168,0.00136513,0.0396059,1875,834,46.6678,-2.94691
658,190,46.7513,2.93738,0,0,0,0,0,0,0,-1,1882,834,46.7514,-2.93737
665,190,25.9916,3.05157,0,0,0,0,0,0,0,-1,1889,834,25.9916,-3.05156
672,190,27.2662,1.70862,0,0,0,0,0,0,0,-1,1896,834,27.2662,-1.70861
679,190,36.6208,1.29443,0,0,0,0,0,0,0,-1,1903,834,36.6209,-1.29445
686,190,36.5568,1.71777,-0.00207691,-0.00155142,-0.00144346,-0.000346988,-0.00328134,-0.875426,0.00208156,0.0253955,1910,834,36.5568,-1.71776
693,190,36.5863,2.18799,-0.00228228,-0.00107013,-0.00158474,2.0483e-05,-0.00337289,-0.968039,0.00225545,0.0167051,1917,834,36.5863,-2.18798
700,190,36.4857,2.68365,-0.00234017,-0.000852037,-0.00149301,7.20434e-05,-0.00326425,-1.01657,0.00220058,0.012612,1924,834,36.4858,-2.68363
707,190,36.5015,3.20081,-0.00220483,-0.000529337,-0.00129238,0.000173065,-0.00290723,-1.07296,0.00199834,0.0134537,1931,834,36.5015,-3.20083
714,190,36.5012,3.703,-0.00151836,-3.9976e-06,-0.000677323,0.000254739,-0.0017771,-1.2059,0.00127814,0.0114746,1938,834,36.5012,-3.70303
721,190,36.4908,4.22272,-0.000779114,0.000527093,9.60215e-05,0.000534114,-0.000786135,1.49781,0.000766861,0.0105998,1945,834,36.4908,-4.22275
728,190,36.4589,4.71716,0.000221409,0.00212739,0.000670037,0.00233937,9.43628e-06,1.2644,0.00155644,0.0129274,1952,834,36.4588,-4.71714
735,190,36.4432,5.20593,0.00150152,0.00519643,0.000892821,0.00540086,0.0012971,1.34571,0.00325551,0.0126862,1959,834,36.4433,-5.20594
742,190,36.4037,5.76715,0.00308788,0.00872697,0.00122985,0.00898352,0.00283133,1.36514,0.00530345,0.0168808,1966,834,36.4036,-5.76714
749,190,36.3387,6.40009,0.00539095,0.0144434,0.00117853,0.0145943,0.00524003,1.44344,0.00853692,0.0385426,1973,834,36.3387,-6.40011
756,190,36.1564,6.96741,0.00890948,0.0238154,0.000392305,0.0238257,0.00889917,1.5445,0.0139017,0.0482155,1980,834,36.1563,-6.96742
763,190,36.0048,7.46472,0,0,0,0,0,0,0,-1,1987,834,36.0048,-7.46472
770,190,36.8949,7.85333,0,0,0,0,0,0,0,-1,1994,834,36.8949,-7.85333
777,190,37.3125,9.35968,0,0,0,0,0,0,0,-1,2001,834,37.3125,-9.3597
784,190,0,0,0,0,0,0,0,0,0,-1,2008,834,0,0
791,190,0,0,0,0,0,0,0,0,0,-1,2015,834,0,0
798,190,0,0,0,0,0,0,0,0,0,-1,2022,834,0,0
805,190,0,0,0,0,0,0,0,0,0,-1,2029,834,0,0
812,190,0,0,0,0,0,0,0,0,0,-1,2036,834,0,0
-700,183,0,0,0,0,0,0,0,0,0,-1,524,841,0,0
-693,183,0,0,0,0,0,0,0,0,0,-1,531,841,0,0
-686,183,0,0,0,0,0,0,0,0,0,-1,538,841,0,0
-679,183,0,0,0,0,0,0,0,0,0,-1,545,841,0,0
-672,183,0,0,0,0,0,0,0,0,0,-1,552,841,0,0
-665,183,0,0,0,0,0,0,0,0,0,-1,559,841,0,0
-658,183,-30.1744,7.10822,0,0,0,0,0,0,0,-1,566,841,-30.1744,-7.10823
-651,183,-28.938,6.80054,0.153961,-0.0125409,0.0183046,0.15595,-0.0145295,0.108214,0.109133,0.0496458,573,841,-28.9381,-6.80054
-644,183,-27.7053,6.30536,0.124217,-0.0107518,0.0139278,0.125639,-0.012174,0.101764,0.0880983,0.0469981,580,841,-27.7053,-6.30539
-637,183,-26.7775,5.66083,0.0976278,-0.0086313,0.0103408,0.0986248,-0.00962827,0.0961151,0.069183,0.0489136,587,841,-26.7775,-5.66081
-630,183,-26.4843,4.96722,0,0,0,0,0,0,0,-1,594,841,-26.4842,-4.96722
-623,183,-26.3409,4.21472,0,0,0,0,0,0,0,-1,601,841,-26.3409,-4.21474
-616,183,-26.3285,2.95642,0,0,0,0,0,0,0,-1,608,841,-26.3285,-2.95639
-609,183,-26.2393,3.08484,0.0224536,-0.0019366,0.00278681,0.0227679,-0.00225097,0.112331,0.0159819,0.0171054,615,841,-26.2393,-3.08487
-602,183,-26.2557,2.60162,0.0116097,0.000125302,0.00167357,0.0118486,-0.000113611,0.141798,0.0079372,0.0115521,622,841,-26.2557,-2.60164
-595,183,-26.2762,2.07788,0.00417014,0.000266061,0.00151715,0.00469039,-0.000254184,0.330345,0.003215,0.0116082,629,841,-26.2762,-2.07786
-588,183,-26.2653,1.59149,0.00148511,-0.000287583,0.001911,0.00270531,-0.00150778,0.568257,0.00246496,0.0131247,636,841,-26.2652,-1.59151
-581,183,-26.2885,1.13104,0.00132211,-0.000607279,0.00230574,0.00285683,-0.002142,0.58727,0.0028959,0.01376,643,841,-26.2885,-1.13103
-574,183,-26.2762,0.675964,0.00140949,-0.00108108,0.00252662,0.00298103,-0.00265262,0.556437,0.00325444,0.0140138,650,841,-26.2762,-0.675937
-567,183,-26.1015,0.147827,0.00105574,-0.00198968,0.0027785,0.00270142,-0.00363536,0.534732,0.00367176,0.0431439,657,841,-26.1015,-0.147835
-560,183,-26.4505,-0.397461,0,0,0,0,0,0,0,-1,664,841,-26.4505,0.397479
-553,183,-26.2211,-0.93512,0,0,0,0,0,0,0,-1,671,841,-26.2211,0.935131
-546,183,-25.3422,-1.36676,0,0,0,0,0,0,0,-1,678,841,-25.3422,1.36677
-539,183,-16.8032,-0.417297,0,0,0,0,0,0,0,-1,685,841,-16.8032,0.41732
-532,183,-29.9686,0.953613,0,0,0,0,0,0,0,-1,692,841,-29.9686,-0.953627
-525,183,-33.5478,1.25665,0,0,0,0,0,0,0,-1,699,841,-33.5478,-1.25664
-518,183,-34.9722,0.671814,0,0,0,0,0,0,0,-1,706,841,-34.9721,-0.671827
-511,183,-34.8526,1.04504,0.00262099,-0.00659193,0.00996603,0.00899366,-0.0129646,0.568915,0.0127465,0.04026,713,841,-34.8526,-1.04506
-504,183,-34.4653,1.68073,0.00346152,-0.00630049,0.0104269,0.0100933,-0.0129323,0.56649,0.0133275,0.040985,720,841,-34.4653,-1.68073
-497,183,-34.4457,2.10858,0,0,0,0,0,0,0,-1,727,841,-34.4457,-2.10856
-490,183,-34.6654,1.10541,0,0,0,0,0,0,0,-1,734,841,-34.6654,-1.10539
-483,183,0,0,0,0,0,0,0,0,0,-1,741,841,0,0
-476,183,0,0,0,0,0,0,0,0,0,-1,748,841,0,0
-469,183,0,0,0,0,0,0,0,0,0,-1,755,841,0,0
-462,183,0,0,0,0,0,0,0,0,0,-1,762,841,0,0
-455,183,0,0,0,0,0,0,0,0,0,-1,769,841,0,0
-448,183,0,0,0,0,0,0,0,0,0,-1,776,841,0,0
-441,183,0,0,0,0,0,0,0,0,0,-1,783,841,0,0
-434,183,0,0,0,0,0,0,0,0,0,-1,790,841,0,0
-427,183,0,0,0,0,0,0,0,0,0,-1,797,841,0,0
-420,183,0,0,0,0,0,0,0,0,0,-1,804,841,0,0
-413,183,0,0,0,0,0,0,0,0,0,-1,811,841,0,0
-406,183,0,0,0,0,0,0,0,0,0,-1,818,841,0,0
-399,183,0,0,0,0,0,0,0,0,0,-1,825,841,0,0
-392,183,0,0,0,0,0,0,0,0,0,-1,832,841,0,0
-385,183,0,0,0,0,0,0,0,0,0,-1,839,841,0,0
-378,183,0,0,0,0,0,0,0,0,0,-1,846,841,0,0
-371,183,0,0,0,0,0,0,0,0,0,-1,853,841,0,0
-364,183,0,0,0,0,0,0,0,0,0,-1,860,841,0,0
-357,183,0,0,0,0,0,0,0,0,0,-1,867,841,0,0
-350,183,0,0,0,0,0,0,0,0,0,-1,874,841,0,0
-343,183,0,0,0,0,0,0,0,0,0,-1,881,841,0,0
-336,183,0,0,0,0,0,0,0,0,0,-1,888,841,0,0
-329,183,0,0,0,0,0,0,0,0,0,-1,895,841,0,0
-322,183,0,0,0,0,0,0,0,0,0,-1,902,841,0,0
-315,183,0,0,0,0,0,0,0,0,0,-1,909,841,0,0
-308,183,0,0,0,0,0,0,0,0,0,-1,916,841,0,0
-301,183,0,0,0,0,0,0,0,0,0,-1,923,841,0,0
-294,183,0,0,0,0,0,0,0,0,0,-1,930,841,0,0
-287,183,0,0,0,0,0,0,0,0,0,-1,937,841,0,0
-280,183,0,0,0,0,0,0,0,0,0,-1,944,841,0,0
-273,183,0,0,0,0,0,0,0,0,0,-1,951,841,0,0
-266,183,0,0,0,0,0,0,0,0,0,-1,958,841,0,0
-259,183,0,0,0,0,0,0,0,0,0,-1,965,841,0,0
-252,183,0,0,0,0,0,0,0,0,0,-1,972,841,0,0
-245,183,0,0,0,0,0,0,0,0,0,-1,979,841,0,0
-238,183,0,0,0,0,0,0,0,0,0,-1,986,841,0,0
-231,183,0,0,0,0,0,0,0,0,0,-1,993,841,0,0
-224,183,0,0,0,0,0,0,0,0,0,-1,1000,841,0,0
-217,183,0,0,0,0,0,0,0,0,0,-1,1007,841,0,0
-210,183,0,0,0,0,0,0,0,0,0,-1,1014,841,0,0
-203,183,0,0,0,0,0,0,0,0,0,-1,1021,841,0,0
-196,183,0,0,0,0,0,0,0,0,0,-1,1028,841,0,0
-189,183,0,0,0,0,0,0,0,0,0,-1,1035,841,0,0
-182,183,0,0,0,0,0,0,0,0,0,-1,1042,841,0,0
-175,183,0,0,0,0,0,0,0,0,0,-1,1049,841,0,0
-168,183,0,0,0,0,0,0,0,0,0,-1,1056,841,0,0
-161,183,0,0,0,0,0,0,0,0,0,-1,1063,841,0,0
-154,183,0,0,0,0,0,0,0,0,0,-1,1070,841,0,0
-147,183,0,0,0,0,0,0,0,0,0,-1,1077,841,0,0
-140,183,0,0,0,0,0,0,0,0,0,-1,1084,841,0,0
-133,183,0,0,0,0,0,0,0,0,0,-1,1091,841,0,0
-126,183,0,0,0,0,0,0,0,0,0,-1,1098,841,0,0
-119,183,0,0,0,0,0,0,0,0,0,-1,1105,841,0,0
-112,183,0,0,0,0,0,0,0,0,0,-1,1112,841,0,0
-105,183,0,0,0,0,0,0,0,0,0,-1,1119,841,0,0
-98,183,0,0,0,0,0,0,0,0,0,-1,1126,841,0,0
-91,183,0,0,0,0,0,0,0,0,0,-1,1133,841,0,0
-84,183,0,0,0,0,0,0,0,0,0,-1,1140,841,0,0
-77,183,0,0,0,0,0,0,0,0,0,-1,1147,841,0,0
-70,183,0,0,0,0,0,0,0,0,0,-1,1154,841,0,0
-63,183,0,0,0,0,0,0,0,0,0,-1,1161,841,0,0
-56,183,0,0,0,0,0,0,0,0,0,-1,1168,841,0,0
-49,183,0,0,0,0,0,0,0,0,0,-1,1175,841,0,0
-42,183,0,0,0,0,0,0,0,0,0,-1,1182,841,0,0
-35,183,0,0,0,0,0,0,0,0,0,-1,1189,841,0,0
-28,183,0,0,0,0,0,0,0,0,0,-1,1196,841,0,0
-21,183,0,0,0,0,0,0,0,0,0,-1,1203,841,0,0
-14,183,0,0,0,0,0,0,0,0,0,-1,1210,841,0,0
-7,183,0,0,0,0,0,0,0,0,0,-1,1217,841,0,0
0,183,0,0,0,0,0,0,0,0,0,-1,1224,841,0,0
7,183,0,0,0,0,0,0,0,0,0,-1,1231,841,0,0
14,183,0,0,0,0,0,0,0,0,0,-1,1238,841,0,0
21,183,0,0,0,0,0,0,0,0,0,-1,1245,841,0,0
28,183,0,0,0,0,0,0,0,0,0,-1,1252,841,0,0
35,183,0,0,0,0,0,0,0,0,0,-1,1259,841,0,0
42,183,0,0,0,0,0,0,0,0,0,-1,1266,841,0,0
49,183,0,0,0,0,0,0,0,0,0,-1,1273,841,0,0
56,183,0,0,0,0,0,0,0,0,0,-1,1280,841,0,0
63,183,0,0,0,0,0,0,0,0,0,-1,1287,841,0,0
70,183,0,0,0,0,0,0,0,0,0,-1,1294,841,0,0
77,183,0,0,0,0,0,0,0,0,0,-1,1301,841,0,0
84,183,0,0,0,0,0,0,0,0,0,-1,1308,841,0,0
91,183,0,0,0,0,0,0,0,0,0,-1,1315,841,0,0
98,183,0,0,0,0,0,0,0,0,0,-1,1322,841,0,0
105,183,0,0,0,0,0,0,0,0,0,-1,1329,841,0,0
112,183,0,0,0,0,0,0,0,0,0,-1,1336,841,0,0
119,183,0,0,0,0,0,0,0,0,0,-1,1343,841,0,0
126,183,0,0,0,0,0,0,0,0,0,-1,1350,841,0,0
133,183,0,0,0,0,0,0,0,0,0,-1,1357,841,0,0
140,183,0,0,0,0,0,0,0,0,0,-1,1364,841,0,0
147,183,0,0,0,0,0,0,0,0,0,-1,1371,841,0,0
154,183,0,0,0,0,0,0,0,0,0,-1,1378,841,0,0
161,183,0,0,0,0,0,0,0,0,0,-1,1385,841,0,0
168,183,0,0,0,0,0,0,0,0,0,-1,1392,841,0,0
175,183,0,0,0,0,0,0,0,0,0,-1,1399,841,0,0
182,183,0,0,0,0,0,0,0,0,0,-1,1406,841,0,0
189,183,0,0,0,0,0,0,0,0,0,-1,1413,841,0,0
196,183,0,0,0,0,0,0,0,0,0,-1,1420,841,0,0
203,183,0,0,0,0,0,0,0,0,0,-1,1427,841,0,0
210,183,0,0,0,0,0,0,0,0,0,-1,1434,841,0,0
217,183,0,0,0,0,0,0,0,0,0,-1,1441,841,0,0
224,183,0,0,0,0,0,0,0,0,0,-1,1448,841,0,0
231,183,0,0,0,0,0,0,0,0,0,-1,1455,841,0,0
238,183,0,0,0,0,0,0,0,0,0,-1,1462,841,0,0
245,183,0,0,0,0,0,0,0,0,0,-1,1469,841,0,0
252,183,0,0,0,0,0,0,0,0,0,-1,1476,841,0,0
259,183,0,0,0,0,0,0,0,0,0,-1,1483,841,0,0
266,183,0,0,0,0,0,0,0,0,0,-1,1490,841,0,0
273,183,0,0,0,0,0,0,0,0,0,-1,1497,841,0,0
280,183,0,0,0,0,0,0,0,0,0,-1,1504,841,0,0
287,183,0,0,0,0,0,0,0,0,0,-1,1511,841,0,0
294,183,0,0,0,0,0,0,0,0,0,-1,1518,841,0,0
301,183,0,0,0,0,0,0,0,0,0,-1,1525,841,0,0
308,183,0,0,0,0,0,0,0,0,0,-1,1532,841,0,0
315,183,0,0,0,0,0,0,0,0,0,-1,1539,841,0,0
322,183,0,0,0,0,0,0,0,0,0,-1,1546,841,0,0
329,183,0,0,0,0,0,0,0,0,0,-1,1553,841,0,0
336,183,0,0,0,0,0,0,0,0,0,-1,1560,841,0,0
343,183,0,0,0,0,0,0,0,0,0,-1,1567,841,0,0
350,183,0,0,0,0,0,0,0,0,0,-1,1574,841,0,0
357,183,0,0,0,0,0,0,0,0,0,-1,1581,841,0,0
364,183,0,0,0,0,0,0,0,0,0,-1,1588,841,0,0
371,183,0,0,0,0,0,0,0,0,0,-1,1595,841,0,0
378,183,0,0,0,0,0,0,0,0,0,-1,1602,841,0,0
385,183,0,0,0,0,0,0,0,0,0,-1,1609,841,0,0
392,183,0,0,0,0,0,0,0,0,0,-1,1616,841,0,0
399,183,0,0,0,0,0,0,0,0,0,-1,1623,841,0,0
406,183,0,0,0,0,0,0,0,0,0,-1,1630,841,0,0
413,183,0,0,0,0,0,0,0,0,0,-1,1637,841,0,0
420,183,0,0,0,0,0,0,0,0,0,-1,1644,841,0,0
427,183,0,0,0,0,0,0,0,0,0,-1,1651,841,0,0
434,183,0,0,0,0,0,0,0,0,0,-1,1658,841,0,0
441,183,0,0,0,0,0,0,0,0,0,-1,1665,841,0,0
448,183,0,0,0,0,0,0,0,0,0,-1,1672,841,0,0
455,183,0,0,0,0,0,0,0,0,0,-1,1679,841,0,0
462,183,0,0,0,0,0,0,0,0,0,-1,1686,841,0,0
469,183,0,0,0,0,0,0,0,0,0,-1,1693,841,0,0
476,183,0,0,0,0,0,0,0,0,0,-1,1700,841,0,0
483,183,0,0,0,0,0,0,0,0,0,-1,1707,841,0,0
490,183,0,0,0,0,0,0,0,0,0,-1,1714,841,0,0
497,183,0,0,0,0,0,0,0,0,0,-1,1721,841,0,0
504,183,0,0,0,0,0,0,0,0,0,-1,1728,841,0,0
511,183,0,0,0,0,0,0,0,0,0,-1,1735,841,0,0
518,183,0,0,0,0,0,0,0,0,0,-1,1742,841,0,0
525,183,0,0,0,0,0,0,0,0,0,-1,1749,841,0,0
532,183,0,0,0,0,0,0,0,0,0,-1,1756,841,0,0
539,183,0,0,0,0,0,0,0,0,0,-1,1763,841,0,0
546,183,0,0,0,0,0,0,0,0,0,-1,1770,841,0,0
553,183,0,0,0,0,0,0,0,0,0,-1,1777,841,0,0
560,183,0,0,0,0,0,0,0,0,0,-1,1784,841,0,0
567,183,0,0,0,0,0,0,0,0,0,-1,1791,841,0,0
574,183,0,0,0,0,0,0,0,0,0,-1,1798,841,0,0
581,183,0,0,0,0,0,0,0,0,0,-1,1805,841,0,0
588,183,0,0,0,0,0,0,0,0,0,-1,1812,841,0,0
595,183,0,0,0,0,0,0,0,0,0,-1,1819,841,0,0
602,183,0,0,0,0,0,0,0,0,0,-1,1826,841,0,0
609,183,46.3738,3.27582,-0.00262118,0.00147152,-0.0010654,0.00173225,-0.00288191,-1.33079,0.00269141,0.0426247,1833,841,46.3738,-3.27584
616,183,46.3859,3.1925,-0.00077204,0.000753895,-0.000347368,0.00082925,-0.000847395,-1.35718,0.00096803,0.0407172,1840,841,46.3858,-3.19252
623,183,46.6561,3.0351,0.000571965,-4.47494e-05,0.000152164,0.000607466,-8.025e-05,0.229204,0.000434206,0.0425703,1847,841,46.6561,-3.03511
630,183,46.7386,2.94202,0.0010932,-0.000705727,0.000252816,0.00112805,-0.000740582,0.137002,0.00108656,0.0394966,1854,841,46.7386,-2.94204
637,183,46.6563,2.89331,0.000879193,-0.00110045,8.94118e-05,0.000883223,-0.00110448,0.0450434,0.00114997,0.0323194,1861,841,46.6563,-2.89329
644,183,46.5593,2.95703,0.000334177,-0.00140474,-0.00016904,0.000350457,-0.00142102,-0.0960122,0.00108323,0.0262609,1868,841,46.5594,-2.95701
651,183,46.5765,2.99805,-0.000153336,-0.00153506,-0.000433397,-2.86472e-05,-0.00165974,-0.280136,0.00109707,0.0251202,1875,841,46.5765,-2.99803
658,183,46.6721,2.92883,0,0,0,0,0,0,0,-1,1882,841,46.6721,-2.92883
665,183,38.4337,2.66992,0,0,0,0,0,0,0,-1,1889,841,38.4337,-2.6699
672,183,29.168,1.54572,0,0,0,0,0,0,0,-1,1896,841,29.168,-1.54574
679,183,37.2708,1.2951,0,0,0,0,0,0,0,-1,1903,841,37.2708,-1.29511
686,183,37.2085,1.73352,-0.0019648,-0.00129835,-0.0012816,-0.00030736,-0.00295579,-0.912585,0.00187648,0.0268968,1910,841,37.2085,-1.73353
693,183,37.173,2.20068,-0.00216136,-0.000904369,-0.00141293,1.35403e-05,-0.00307927,-0.994666,0.00205737,0.0232147,1917,841,37.1729,-2.20067
700,183,37.0798,2.72455,-0.00229768,-0.000761798,-0.00133615,1.13708e-05,-0.00307085,-1.04622,0.00205104,0.0211888,1924,841,37.0798,-2.72452
707,183,36.9999,3.21997,-0.00221675,-0.000535401,-0.00121695,0.000103011,-0.00285516,-1.08766,0.00193869,0.0129298,1931,841,36.9999,-3.21998
714,183,37.0359,3.70959,-0.00161248,-4.79572e-05,-0.000731326,0.000240654,-0.0019011,-1.19492,0.00135476,0.0157288,1938,841,37.0358,-3.70959
721,183,37.012,4.21606,-0.000966163,0.00045448,-7.47466e-05,0.000458402,-0.000970085,-1.51837,0.000842189,0.0145611,1945,841,37.012,-4.21606
728,183,36.9702,4.71893,-1.7428e-05,0.00230521,0.000301648,0.00234374,-5.59648e-05,1.44373,0.00158148,0.0130097,1952,841,36.9702,-4.71894
735,183,36.9551,5.21417,0.00125804,0.00599305,0.000197459,0.00600127,0.00124982,1.52919,0.00365615,0.0123351,1959,841,36.9551,-5.21419
742,183,36.9349,5.75781,0.00280054,0.0102892,0.00012867,0.0102915,0.00279833,1.55362,0.00614441,0.0110835,1966,841,36.9349,-5.75782
749,183,36.863,6.43237,0.00501454,0.0172496,-0.000537427,0.0172732,0.00499097,-1.52698,0.0102646,0.0310951,1973,841,36.863,-6.43237
756,183,36.7815,7.1283,0.00835517,0.0285507,-0.00223761,0.0287957,0.00811022,-1.46176,0.0171455,0.048972,1980,841,36.7815,-7.12827
763,183,36.8102,7.72424,0,0,0,0,0,0,0,-1,1987,841,36.8101,-7.72424
770,183,37.5458,7.45435,0,0,0,0,0,0,0,-1,1994,841,37.5457,-7.45432
777,183,38.3298,9.43518,0,0,0,0,0,0,0,-1,2001,841,38.3299,-9.43516
784,183,0,0,0,0,0,0,0,0,0,-1,2008,841,0,0
791,183,0,0,0,0,0,0,0,0,0,-1,2015,841,0,0
798,183,0,0,0,0,0,0,0,0,0,-1,2022,841,0,0
805,183,0,0,0,0,0,0,0,0,0,-1,2029,841,0,0
812,183,0,0,0,0,0,0,0,0,0,-1,2036,841,0,0
-700,176,0,0,0,0,0,0,0,0,0,-1,524,848,0,0
-693,176,0,0,0,0,0,0,0,0,0,-1,531,848,0,0
-686,176,0,0,0,0,0,0,0,0,0,-1,538,848,0,0
-679,176,0,0,0,0,0,0,0,0,0,-1,545,848,0,0
-672,176,0,0,0,0,0,0,0,0,0,-1,552,848,0,0
-665,176,-30.6628,7.13092,0,0,0,0,0,0,0,-1,559,848,-30.6628,-7.13094
-658,176,-30.1987,7.14496,0,0,0,0,0,0,0,-1,566,848,-30.1987,-7.14499
-651,176,-29.4669,6.72235,0,0,0,0,0,0,0,-1,573,848,-29.4669,-6.72234
-644,176,-28.1169,6.43469,0,0,0,0,0,0,0,-1,580,848,-28.1169,-6.43471
-637,176,-26.8509,5.78748,0,0,0,0,0,0,0,-1,587,848,-26.8509,-5.7875
-630,176,-26.9143,4.73126,0,0,0,0,0,0,0,-1,594,848,-26.9143,-4.73126
-623,176,-26.8354,4.14117,0.0518729,-0.000194389,0.00382155,0.0521519,-0.000473382,0.0728758,0.0349268,0.0427649,601,848,-26.8354,-4.14117
-616,176,-26.7386,3.61499,0.0334086,-0.00135539,0.00277769,0.0336291,-0.00157593,0.0792316,0.0229627,0.0282399,608,848,-26.7386,-3.61496
-609,176,-26.7108,3.11066,0.0207088,-0.000571824,0.00232095,0.020959,-0.000822015,0.107382,0.0142546,0.0116581,615,848,-26.7108,-3.11068
-602,176,-26.7402,2.59564,0.0100656,0.00047732,0.00166965,0.0103481,0.000194896,0.167566,0.00683467,0.0121162,622,848,-26.7402,-2.59565
-595,176,-26.7831,2.073,0.00320592,0.000132188,0.00182519,0.00405512,-0.000717007,0.435474,0.00297139,0.0119902,629,848,-26.7831,-2.07297
-588,176,-26.7698,1.59607,0.00117823,-0.000573466,0.00222368,0.00269233,-0.00208756,0.597791,0.00276703,0.0130975,636,848,-26.7698,-1.59606
-581,176,-26.7919,1.16986,0.001368,-0.000928965,0.00257155,0.00303588,-0.00259685,0.575382,0.00325535,0.0119785,643,848,-26.7919,-1.16984
-574,176,-26.822,0.711914,0.00159487,-0.00140703,0.00277199,0.00324619,-0.00305835,0.537263,0.00364046,0.0197094,650,848,-26.822,-0.71193
-567,176,-26.6415,0.351685,0.00128525,-0.00231694,0.00294352,0.00293499,-0.00396668,0.510842,0.00399949,0.0499619,657,848,-26.6415,-0.351693
-560,176,-26.8085,-0.259705,0,0,0,0,0,0,0,-1,664,848,-26.8085,0.259699
-553,176,-26.3241,-0.921509,0,0,0,0,0,0,0,-1,671,848,-26.3241,0.921515
-546,176,-16.657,-0.403198,0,0,0,0,0,0,0,-1,678,848,-16.657,0.403182
-539,176,-22.7061,1.48657,0,0,0,0,0,0,0,-1,685,848,-22.7061,-1.48657
-532,176,-33.3401,1.53455,0,0,0,0,0,0,0,-1,692,848,-33.3401,-1.53456
-525,176,-34.5406,1.24286,0,0,0,0,0,0,0,-1,699,848,-34.5406,-1.24283
-518,176,-34.8275,0.937317,0.00266342,-0.00587888,0.00878949,0.00816457,-0.01138,0.55923,0.0113349,0.0440704,706,848,-34.8274,-0.937311
-511,176,-34.8576,0.832031,0.00317378,-0.00600655,0.00969138,0.00930707,-0.0121398,0.564232,0.0124183,0.0400935,713,848,-34.8576,-0.832041
-504,176,-34.4933,1.41986,0.00430461,-0.00553887,0.0101232,0.0106391,-0.0118733,0.559131,0.0130041,0.0398455,720,848,-34.4934,-1.41987
-497,176,-34.3702,1.80878,0,0,0,0,0,0,0,-1,727,848,-34.3702,-1.80878
-490,176,-34.5192,0.989685,0,0,0,0,0,0,0,-1,734,848,-34.5192,-0.989677
-483,176,0,0,0,0,0,0,0,0,0,-1,741,848,0,0
-476,176,0,0,0,0,0,0,0,0,0,-1,748,848,0,0
-469,176,0,0,0,0,0,0,0,0,0,-1,755,848,0,0
-462,176,0,0,0,0,0,0,0,0,0,-1,762,848,0,0
-455,176,0,0,0,0,0,0,0,0,0,-1,769,848,0,0
-448,176,0,0,0,0,0,0,0,0,0,-1,776,848,0,0
-441,176,0,0,0,0,0,0,0,0,0,-1,783,848,0,0
-434,176,0,0,0,0,0,0,0,0,0,-1,790,848,0,0
-427,176,0,0,0,0,0,0,0,0,0,-1,797,848,0,0
-420,176,0,0,0,0,0,0,0,0,0,-1,804,848,0,0
-413,176,0,0,0,0,0,0,0,0,0,-1,811,848,0,0
-406,176,0,0,0,0,0,0,0,0,0,-1,818,848,0,0
-399,176,0,0,0,0,0,0,0,0,0,-1,825,848,0,0
-392,176,0,0,0,0,0,0,0,0,0,-1,832,848,0,0
-385,176,0,0,0,0,0,0,0,0,0,-1,839,848,0,0
-378,176,0,0,0,0,0,0,0,0,0,-1,846,848,0,0
-371,176,0,0,0,0,0,0,0,0,0,-1,853,848,0,0
-364,176,0,0,0,0,0,0,0,0,0,-1,860,848,0,0
-357,176,0,0,0,0,0,0,0,0,0,-1,867,848,0,0
-350,176,0,0,0,0,0,0,0,0,0,-1,874,848,0,0
-343,176,0,0,0,0,0,0,0,0,0,-1,881,848,0,0
-336,176,0,0,0,0,0,0,0,0,0,-1,888,848,0,0
-329,176,0,0,0,0,0,0,0,0,0,-1,895,848,0,0
-322,176,0,0,0,0,0,0,0,0,0,-1,902,848,0,0
-315,176,0,0,0,0,0,0,0,0,0,-1,909,848,0,0
-308,176,0,0,0,0,0,0,0,0,0,-1,916,848,0,0
-301,176,0,0,0,0,0,0,0,0,0,-1,923,848,0,0
-294,176,0,0,0,0,0,0,0,0,0,-1,930,848,0,0
-287,176,0,0,0,0,0,0,0,0,0,-1,937,848,0,0
-280,176,0,0,0,0,0,0,0,0,0,-1,944,848,0,0
-273,176,0,0,0,0,0,0,0,0,0,-1,951,848,0,0
-266,176,0,0,0,0,0,0,0,0,0,-1,958,848,0,0
-259,176,0,0,0,0,0,0,0,0,0,-1,965,848,0,0
-252,176,0,0,0,0,0,0,0,0,0,-1,972,848,0,0
-245,176,0,0,0,0,0,0,0,0,0,-1,979,848,0,0
-238,176,0,0,0,0,0,0,0,0,0,-1,986,848,0,0
-231,176,0,0,0,0,0,0,0,0,0,-1,993,848,0,0
-224,176,0,0,0,0,0,0,0,0,0,-1,1000,848,0,0
-217,176,0,0,0,0,0,0,0,0,0,-1,1007,848,0,0
-210,176,0,0,0,0,0,0,0,0,0,-1,1014,848,0,0
-203,176,0,0,0,0,0,0,0,0,0,-1,1021,848,0,0
-196,176,0,0,0,0,0,0,0,0,0,-1,1028,848,0,0
-189,176,0,0,0,0,0,0,0,0,0,-1,1035,848,0,0
-182,176,0,0,0,0,0,0,0,0,0,-1,1042,848,0,0
-175,176,0,0,0,0,0,0,0,0,0,-1,1049,848,0,0
-168,176,0,0,0,0,0,0,0,0,0,-1,1056,848,0,0
-161,176,0,0,0,0,0,0,0,0,0,-1,1063,848,0,0
-154,176,0,0,0,0,0,0,0,0,0,-1,1070,848,0,0
-147,176,0,0,0,0,0,0,0,0,0,-1,1077,848,0,0
-140,176,0,0,0,0,0,0,0,0,0,-1,1084,848,0,0
-133,176,0,0,0,0,0,0,0,0,0,-1,1091,848,0,0
-126,176,0,0,0,0,0,0,0,0,0,-1,1098,848,0,0
-119,176,0,0,0,0,0,0,0,0,0,-1,1105,848,0,0
-112,176,0,0,0,0,0,0,0,0,0,-1,1112,848,0,0
-105,176,0,0,0,0,0,0,0,0,0,-1,1119,848,0,0
-98,176,0,0,0,0,0,0,0,0,0,-1,1126,848,0,0
-91,176,0,0,0,0,0,0,0,0,0,-1,1133,848,0,0
-84,176,0,0,0,0,0,0,0,0,0,-1,1140,848,0,0
-77,176,0,0,0,0,0,0,0,0,0,-1,1147,848,0,0
-70,176,0,0,0,0,0,0,0,0,0,-1,1154,848,0,0
-63,176,0,0,0,0,0,0,0,0,0,-1,1161,848,0,0
-56,176,0,0,0,0,0,0,0,0,0,-1,1168,848,0,0
-49,176,0,0,0,0,0,0,0,0,0,-1,1175,848,0,0
-42,176,0,0,0,0,0,0,0,0,0,-1,1182,848,0,0
-35,176,0,0,0,0,0,0,0,0,0,-1,1189,848,0,0
-28,176,0,0,0,0,0,0,0,0,0,-1,1196,848,0,0
-21,176,0,0,0,0,0,0,0,0,0,-1,1203,848,0,0
-14,176,0,0,0,0,0,0,0,0,0,-1,1210,848,0,0
-7,176,0,0,0,0,0,0,0,0,0,-1,1217,848,0,0
0,176,0,0,0,0,0,0,0,0,0,-1,1224,848,0,0
7,176,0,0,0,0,0,0,0,0,0,-1,1231,848,0,0
14,176,0,0,0,0,0,0,0,0,0,-1,1238,848,0,0
21,176,0,0,0,0,0,0,0,0,0,-1,1245,848,0,0
28,176,0,0,0,0,0,0,0,0,0,-1,1252,848,0,0
35,176,0,0,0,0,0,0,0,0,0,-1,1259,848,0,0
42,176,0,0,0,0,0,0,0,0,0,-1,1266,848,0,0
49,176,0,0,0,0,0,0,0,0,0,-1,1273,848,0,0
56,176,0,0,0,0,0,0,0,0,0,-1,1280,848,0,0
63,176,0,0,0,0,0,0,0,0,0,-1,1287,848,0,0
70,176,0,0,0,0,0,0,0,0,0,-1,1294,848,0,0
77,176,0,0,0,0,0,0,0,0,0,-1,1301,848,0,0
84,176,0,0,0,0,0,0,0,0,0,-1,1308,848,0,0
91,176,0,0,0,0,0,0,0,0,0,-1,1315,848,0,0
98,176,0,0,0,0,0,0,0,0,0,-1,1322,848,0,0
105,176,0,0,0,0,0,0,0,0,0,-1,1329,848,0,0
112,176,0,0,0,0,0,0,0,0,0,-1,1336,848,0,0
119,176,0,0,0,0,0,0,0,0,0,-1,1343,848,0,0
126,176,0,0,0,0,0,0,0,0,0,-1,1350,848,0,0
133,176,0,0,0,0,0,0,0,0,0,-1,1357,848,0,0
140,176,0,0,0,0,0,0,0,0,0,-1,1364,848,0,0
147,176,0,0,0,0,0,0,0,0,0,-1,1371,848,0,0
154,176,0,0,0,0,0,0,0,0,0,-1,1378,848,0,0
161,176,0,0,0,0,0,0,0,0,0,-1,1385,848,0,0
168,176,0,0,0,0,0,0,0,0,0,-1,1392,848,0,0
175,176,0,0,0,0,0,0,0,0,0,-1,1399,848,0,0
182,176,0,0,0,0,0,0,0,0,0,-1,1406,848,0,0
189,176,0,0,0,0,0,0,0,0,0,-1,1413,848,0,0
196,176,0,0,0,0,0,0,0,0,0,-1,1420,848,0,0
203,176,0,0,0,0,0,0,0,0,0,-1,1427,848,0,0
210,176,0,0,0,0,0,0,0,0,0,-1,1434,848,0,0
217,176,0,0,0,0,0,0,0,0,0,-1,1441,848,0,0
224,176,0,0,0,0,0,0,0,0,0,-1,1448,848,0,0
231,176,0,0,0,0,0,0,0,0,0,-1,1455,848,0,0
238,176,0,0,0,0,0,0,0,0,0,-1,1462,848,0,0
245,176,0,0,0,0,0,0,0,0,0,-1,1469,848,0,0
252,176,0,0,0,0,0,0,0,0,0,-1,1476,848,0,0
259,176,0,0,0,0,0,0,0,0,0,-1,1483,848,0,0
266,176,0,0,0,0,0,0,0,0,0,-1,1490,848,0,0
273,176,0,0,0,0,0,0,0,0,0,-1,1497,848,0,0
280,176,0,0,0,0,0,0,0,0,0,-1,1504,848,0,0
287,176,0,0,0,0,0,0,0,0,0,-1,1511,848,0,0
294,176,0,0,0,0,0,0,0,0,0,-1,1518,848,0,0
301,176,0,0,0,0,0,0,0,0,0,-1,1525,848,0,0
308,176,0,0,0,0,0,0,0,0,0,-1,1532,848,0,0
315,176,0,0,0,0,0,0,0,0,0,-1,1539,848,0,0
322,176,0,0,0,0,0,0,0,0,0,-1,1546,848,0,0
329,176,0,0,0,0,0,0,0,0,0,-1,1553,848,0,0
336,176,0,0,0,0,0,0,0,0,0,-1,1560,848,0,0
343,176,0,0,0,0,0,0,0,0,0,-1,1567,848,0,0
350,176,0,0,0,0,0,0,0,0,0,-1,1574,848,0,0
357,176,0,0,0,0,0,0,0,0,0,-1,1581,848,0,0
364,176,0,0,0,0,0,0,0,0,0,-1,1588,848,0,0
371,176,0,0,0,0,0,0,0,0,0,-1,1595,848,0,0
378,176,0,0,0,0,0,0,0,0,0,-1,1602,848,0,0
385,176,0,0,0,0,0,0,0,0,0,-1,1609,848,0,0
392,176,0,0,0,0,0,0,0,0,0,-1,1616,848,0,0
399,176,0,0,0,0,0,0,0,0,0,-1,1623,848,0,0
406,176,0,0,0,0,0,0,0,0,0,-1,1630,848,0,0
413,176,0,0,0,0,0,0,0,0,0,-1,1637,848,0,0
420,176,0,0,0,0,0,0,0,0,0,-1,1644,848,0,0
427,176,0,0,0,0,0,0,0,0,0,-1,1651,848,0,0
434,176,0,0,0,0,0,0,0,0,0,-1,1658,848,0,0
441,176,0,0,0,0,0,0,0,0,0,-1,1665,848,0,0
448,176,0,0,0,0,0,0,0,0,0,-1,1672,848,0,0
455,176,0,0,0,0,0,0,0,0,0,-1,1679,848,0,0
462,176,0,0,0,0,0,0,0,0,0,-1,1686,848,0,0
469,176,0,0,0,0,0,0,0,0,0,-1,1693,848,0,0
476,176,0,0,0,0,0,0,0,0,0,-1,1700,848,0,0
483,176,0,0,0,0,0,0,0,0,0,-1,1707,848,0,0
490,176,0,0,0,0,0,0,0,0,0,-1,1714,848,0,0
497,176,0,0,0,0,0,0,0,0,0,-1,1721,848,0,0
504,176,0,0,0,0,0,0,0,0,0,-1,1728,848,0,0
511,176,0,0,0,0,0,0,0,0,0,-1,1735,848,0,0
518,176,0,0,0,0,0,0,0,0,0,-1,1742,848,0,0
525,176,0,0,0,0,0,0,0,0,0,-1,1749,848,0,0
532,176,0,0,0,0,0,0,0,0,0,-1,1756,848,0,0
539,176,0,0,0,0,0,0,0,0,0,-1,1763,848,0,0
546,176,0,0,0,0,0,0,0,0,0,-1,1770,848,0,0
553,176,0,0,0,0,0,0,0,0,0,-1,1777,848,0,0
560,176,0,0,0,0,0,0,0,0,0,-1,1784,848,0,0
567,176,0,0,0,0,0,0,0,0,0,-1,1791,848,0,0
574,176,0,0,0,0,0,0,0,0,0,-1,1798,848,0,0
581,176,0,0,0,0,0,0,0,0,0,-1,1805,848,0,0
588,176,0,0,0,0,0,0,0,0,0,-1,1812,848,0,0
595,176,0,0,0,0,0,0,0,0,0,-1,1819,848,0,0
602,176,0,0,0,0,0,0,0,0,0,-1,1826,848,0,0
609,176,46.3893,3.17755,-0.00360182,0.00193671,-0.00171361,0.00242402,-0.00408913,-1.29373,0.00380111,0.0410631,1833,848,46.3893,-3.17757
616,176,46.4521,3.00647,-0.00176532,0.00135333,-0.00105327,0.00167572,-0.00208771,-1.27376,0.00217716,0.0410302,1840,848,46.4521,-3.00644
623,176,46.6405,2.68347,-0.000268127,0.000679455,-0.000453729,0.000861673,-0.000450345,-1.18891,0.000769803,0.0443741,1847,848,46.6406,-2.68345
630,176,46.7467,2.75153,0.00057169,2.52916e-05,-0.00016656,0.00061846,-2.14777e-05,-0.273747,0.000419649,0.0385084,1854,848,46.7467,-2.75155
637,176,46.6677,2.88751,0.000669933,-0.000391491,-0.000117769,0.000682843,-0.0004044,-0.109184,0.000634545,0.0287982,1861,848,46.6678,-2.88753
644,176,46.5481,2.93732,0.000305479,-0.000725598,-0.000237682,0.000357631,-0.000777751,-0.215997,0.000670305,0.0292626,1868,848,46.548,-2.93732
651,176,46.5818,2.93054,-9.34634e-05,-0.000926678,-0.000408996,7.37441e-05,-0.00109389,-0.38809,0.00075504,0.0319458,1875,848,46.5818,-2.93057
658,176,46.6525,2.90936,-0.000384575,-0.00105669,-0.00058452,-4.63944e-05,-0.00139487,-0.524507,0.000914844,0.0409008,1882,848,46.6525,-2.90935
665,176,46.6868,2.84534,0,0,0,0,0,0,0,-1,1889,848,46.6868,-2.84536
672,176,16.9304,2.80719,0,0,0,0,0,0,0,-1,1896,848,16.9305,-2.80719
679,176,38.0018,1.25659,0,0,0,0,0,0,0,-1,1903,848,38.0018,-1.25658
686,176,37.8645,1.81049,-0.00155035,-0.000986262,-0.00102804,-0.000202275,-0.00233433,-0.919279,0.00149337,0.0377763,1910,848,37.8644,-1.81047
693,176,37.7095,2.3089,-0.00173495,-0.00075332,-0.00114014,-2.83937e-06,-0.00248543,-0.988653,0.00165601,0.0202333,1917,848,37.7094,-2.30889
700,176,37.5665,2.81512,-0.001926,-0.000725052,-0.0010838,-8.64969e-05,-0.00256455,-1.03837,0.00168161,0.0228753,1924,848,37.5666,-2.8151
707,176,37.5634,3.26318,-0.00188424,-0.000624955,-0.00105985,-2.18283e-05,-0.00248737,-1.05343,0.00165102,0.014726,1931,848,37.5633,-3.26319
714,176,37.5364,3.74432,-0.00141103,-0.000189936,-0.000723686,0.000146348,-0.00174732,-1.1358,0.0012166,0.0116877,1938,848,37.5364,-3.74435
721,176,37.5323,4.22583,-0.000945098,0.000322686,-0.00018729,0.000349776,-0.000972188,-1.42715,0.000790932,0.0122375,1945,848,37.5323,-4.2258
728,176,37.4757,4.74689,-0.000132368,0.00245012,1.01568e-06,0.00245012,-0.000132369,1.5704,0.00167928,0.0144921,1952,848,37.4757,-4.74689
735,176,37.4437,5.25702,0.00107823,0.00677282,-0.000397434,0.00680043,0.00105063,-1.50145,0.00422716,0.0138641,1959,848,37.4437,-5.257
742,176,37.4467,5.75134,0.00255824,0.0118514,-0.000826003,0.0119242,0.0024854,-1.48283,0.00726414,0.0168328,1966,848,37.4466,-5.75134
749,176,37.4531,6.28723,0.00469073,0.019982,-0.0020188,0.0202441,0.00442869,-1.44172,0.0122888,0.0291634,1973,848,37.4531,-6.28722
756,176,37.495,6.86011,0,0,0,0,0,0,0,-1,1980,848,37.495,-6.86009
763,176,37.2877,6.21594,0,0,0,0,0,0,0,-1,1987,848,37.2878,-6.21596
770,176,36.4186,4.25641,0,0,0,0,0,0,0,-1,1994,848,36.4186,-4.25639
777,176,39.6573,9.50757,0,0,0,0,0,0,0,-1,2001,848,39.6574,-9.50755
784,176,0,0,0,0,0,0,0,0,0,-1,2008,848,0,0
791,176,0,0,0,0,0,0,0,0,0,-1,2015,848,0,0
798,176,0,0,0,0,0,0,0,0,0,-1,2022,848,0,0
805,176,0,0,0,0,0,0,0,0,0,-1,2029,848,0,0
812,176,0,0,0,0,0,0,0,0,0,-1,2036,848,0,0
-700,169,0,0,0,0,0,0,0,0,0,-1,524,855,0,0
-693,169,0,0,0,0,0,0,0,0,0,-1,531,855,0,0
-686,169,0,0,0,0,0,0,0,0,0,-1,538,855,0,0
-679,169,0,0,0,0,0,0,0,0,0,-1,545,855,0,0
-672,169,0,0,0,0,0,0,0,0,0,-1,552,855,0,0
-665,169,-30.2144,8.11469,0,0,0,0,0,0,0,-1,559,855,-30.2144,-8.11467
-658,169,-29.8616,7.25787,0,0,0,0,0,0,0,-1,566,855,-29.8616,-7.25785
-651,169,-28.9119,6.29462,0,0,0,0,0,0,0,-1,573,855,-28.9119,-6.29461
-644,169,-27.6321,6.00061,0.129175,0.0145383,0.00561484,0.12945,0.014264,0.0488235,0.08196,0.0458614,580,855,-27.6322,-6.00062
-637,169,-26.6955,5.88751,0,0,0,0,0,0,0,-1,587,855,-26.6955,-5.88754
-630,169,-27.3045,4.66437,0,0,0,0,0,0,0,-1,594,855,-27.3045,-4.6644
-623,169,-27.2766,4.09204,0.0501845,0.00370823,0.00217299,0.0502859,0.00360686,0.0466191,0.0323887,0.0409417,601,855,-27.2766,-4.09206
-616,169,-27.2175,3.57196,0.0312508,0.000849988,0.00158595,0.0313333,0.000767476,0.0519801,0.0206378,0.0224138,608,855,-27.2175,-3.57196
-609,169,-27.2067,3.10736,0.0187233,0.00068586,0.00159967,0.0188641,0.000545089,0.0877734,0.0123983,0.013159,615,855,-27.2066,-3.10739
-602,169,-27.2401,2.60846,0.00841886,0.000790938,0.00139916,0.00866741,0.000542392,0.175805,0.00560623,0.0130969,622,855,-27.2401,-2.60847
-595,169,-27.2847,2.09271,0.00231904,-5.12678e-06,0.00185956,0.00334976,-0.00103585,0.506127,0.00264691,0.0122882,629,855,-27.2847,-2.09272
-588,169,-27.2704,1.62659,0.0010105,-0.000867127,0.00229039,0.00254702,-0.00240364,0.590895,0.00285866,0.0101533,636,855,-27.2704,-1.62661
-581,169,-27.2993,1.18799,0.00149324,-0.00130101,0.00264726,0.00308943,-0.0028972,0.542593,0.00345698,0.0146901,643,855,-27.2993,-1.18799
-574,169,-27.4897,0.71228,0.00181841,-0.0017786,0.0028558,0.00339485,-0.00335503,0.504386,0.00389707,0.026806,650,855,-27.4897,-0.712303
-567,169,-27.305,0.348999,0.0015694,-0.00260349,0.00294713,0.00309388,-0.00412798,0.477375,0.00418377,0.0385218,657,855,-27.305,-0.349002
-560,169,-27.0092,-0.213806,0,0,0,0,0,0,0,-1,664,855,-27.0091,0.213782
-553,169,-26.4789,-0.650208,0,0,0,0,0,0,0,-1,671,855,-26.4789,0.650229
-546,169,-19.0852,-1.05609,0,0,0,0,0,0,0,-1,678,855,-19.0852,1.05612
-539,169,-33.2307,1.10706,0,0,0,0,0,0,0,-1,685,855,-33.2307,-1.10708
-532,169,-34.5129,1.21259,0,0,0,0,0,0,0,-1,692,855,-34.5129,-1.21258
-525,169,-34.5798,1.20111,0.00307344,-0.00479805,0.00729921,0.00743038,-0.00915498,0.538141,0.0095928,0.0481994,699,855,-34.5798,-1.20113
-518,169,-34.627,1.21814,0.0031676,-0.00482829,0.00835225,0.00842944,-0.0100901,0.56218,0.0107066,0.0430096,706,855,-34.627,-1.21816
-511,169,-34.6151,1.33484,0.00386966,-0.00451123,0.00933794,0.0099143,-0.0105559,0.574489,0.0118204,0.041149,713,855,-34.6151,-1.33483
-504,169,-34.5806,1.38623,0.00534188,-0.00355495,0.00980437,0.0116598,-0.00987287,0.572428,0.0124462,0.0419924,720,855,-34.5806,-1.38622
-497,169,-34.5599,1.39539,0.0062573,-0.00139896,0.0091921,0.0123865,-0.0075282,0.588091,0.0116113,0.0440738,727,855,-34.5599,-1.3954
-490,169,0,0,0,0,0,0,0,0,0,-1,734,855,0,0
-483,169,0,0,0,0,0,0,0,0,0,-1,741,855,0,0
-476,169,0,0,0,0,0,0,0,0,0,-1,748,855,0,0
-469,169,0,0,0,0,0,0,0,0,0,-1,755,855,0,0
-462,169,0,0,0,0,0,0,0,0,0,-1,762,855,0,0
-455,169,0,0,0,0,0,0,0,0,0,-1,769,855,0,0
-448,169,0,0,0,0,0,0,0,0,0,-1,776,855,0,0
-441,169,0,0,0,0,0,0,0,0,0,-1,783,855,0,0
-434,169,0,0,0,0,0,0,0,0,0,-1,790,855,0,0
-427,169,0,0,0,0,0,0,0,0,0,-1,797,855,0,0
-420,169,0,0,0,0,0,0,0,0,0,-1,804,855,0,0
-413,169,0,0,0,0,0,0,0,0,0,-1,811,855,0,0
-406,169,0,0,0,0,0,0,0,0,0,-1,818,855,0,0
-399,169,0,0,0,0,0,0,0,0,0,-1,825,855,0,0
-392,169,0,0,0,0,0,0,0,0,0,-1,832,855,0,0
-385,169,0,0,0,0,0,0,0,0,0,-1,839,855,0,0
-378,169,0,0,0,0,0,0,0,0,0,-1,846,855,0,0
-371,169,0,0,0,0,0,0,0,0,0,-1,853,855,0,0
-364,169,0,0,0,0,0,0,0,0,0,-1,860,855,0,0
-357,169,0,0,0,0,0,0,0,0,0,-1,867,855,0,0
-350,169,0,0,0,0,0,0,0,0,0,-1,874,855,0,0
-343,169,0,0,0,0,0,0,0,0,0,-1,881,855,0,0
-336,169,0,0,0,0,0,0,0,0,0,-1,888,855,0,0
-329,169,0,0,0,0,0,0,0,0,0,-1,895,855,0,0
-322,169,0,0,0,0,0,0,0,0,0,-1,902,855,0,0
-315,169,0,0,0,0,0,0,0,0,0,-1,909,855,0,0
-308,169,0,0,0,0,0,0,0,0,0,-1,916,855,0,0
-301,169,0,0,0,0,0,0,0,0,0,-1,923,855,0,0
-294,169,0,0,0,0,0,0,0,0,0,-1,930,855,0,0
-287,169,0,0,0,0,0,0,0,0,0,-1,937,855,0,0
-280,169,0,0,0,0,0,0,0,0,0,-1,944,855,0,0
-273,169,0,0,0,0,0,0,0,0,0,-1,951,855,0,0
-266,169,0,0,0,0,0,0,0,0,0,-1,958,855,0,0
-259,169,0,0,0,0,0,0,0,0,0,-1,965,855,0,0
-252,169,0,0,0,0,0,0,0,0,0,-1,972,855,0,0
-245,169,0,0,0,0,0,0,0,0,0,-1,979,855,0,0
-238,169,0,0,0,0,0,0,0,0,0,-1,986,855,0,0
-231,169,0,0,0,0,0,0,0,0,0,-1,993,855,0,0
-224,169,0,0,0,0,0,0,0,0,0,-1,1000,855,0,0
-217,169,0,0,0,0,0,0,0,0,0,-1,1007,855,0,0
-210,169,0,0,0,0,0,0,0,0,0,-1,1014,855,0,0
-203,169,0,0,0,0,0,0,0,0,0,-1,1021,855,0,0
-196,169,0,0,0,0,0,0,0,0,0,-1,1028,855,0,0
-189,169,0,0,0,0,0,0,0,0,0,-1,1035,855,0,0
-182,169,0,0,0,0,0,0,0,0,0,-1,1042,855,0,0
-175,169,0,0,0,0,0,0,0,0,0,-1,1049,855,0,0
-168,169,0,0,0,0,0,0,0,0,0,-1,1056,855,0,0
-161,169,0,0,0,0,0,0,0,0,0,-1,1063,855,0,0
-154,169,0,0,0,0,0,0,0,0,0,-1,1070,855,0,0
-147,169,0,0,0,0,0,0,0,0,0,-1,1077,855,0,0
-140,169,0,0,0,0,0,0,0,0,0,-1,1084,855,0,0
-133,169,0,0,0,0,0,0,0,0,0,-1,1091,855,0,0
-126,169,0,0,0,0,0,0,0,0,0,-1,1098,855,0,0
-119,169,0,0,0,0,0,0,0,0,0,-1,1105,855,0,0
-112,169,0,0,0,0,0,0,0,0,0,-1,1112,855,0,0
-105,169,0,0,0,0,0,0,0,0,0,-1,1119,855,0,0
-98,169,0,0,0,0,0,0,0,0,0,-1,1126,855,0,0
-91,169,0,0,0,0,0,0,0,0,0,-1,1133,855,0,0
-84,169,0,0,0,0,0,0,0,0,0,-1,1140,855,0,0
-77,169,0,0,0,0,0,0,0,0,0,-1,1147,855,0,0
-70,169,0,0,0,0,0,0,0,0,0,-1,1154,855,0,0
-63,169,0,0,0,0,0,0,0,0,0,-1,1161,855,0,0
-56,169,0,0,0,0,0,0,0,0,0,-1,1168,855,0,0
-49,169,0,0,0,0,0,0,0,0,0,-1,1175,855,0,0
-42,169,0,0,0,0,0,0,0,0,0,-1,1182,855,0,0
-35,169,0,0,0,0,0,0,0,0,0,-1,1189,855,0,0
-28,169,0,0,0,0,0,0,0,0,0,-1,1196,855,0,0
-21,169,0,0,0,0,0,0,0,0,0,-1,1203,855,0,0
-14,169,0,0,0,0,0,0,0,0,0,-1,1210,855,0,0
-7,169,0,0,0,0,0,0,0,0,0,-1,1217,855,0,0
0,169,0,0,0,0,0,0,0,0,0,-1,1224,855,0,0
7,169,0,0,0,0,0,0,0,0,0,-1,1231,855,0,0
14,169,0,0,0,0,0,0,0,0,0,-1,1238,855,0,0
21,169,0,0,0,0,0,0,0,0,0,-1,1245,855,0,0
28,169,0,0,0,0,0,0,0,0,0,-1,1252,855,0,0
35,169,0,0,0,0,0,0,0,0,0,-1,1259,855,0,0
42,169,0,0,0,0,0,0,0,0,0,-1,1266,855,0,0
49,169,0,0,0,0,0,0,0,0,0,-1,1273,855,0,0
56,169,0,0,0,0,0,0,0,0,0,-1,1280,855,0,0
63,169,0,0,0,0,0,0,0,0,0,-1,1287,855,0,0
70,169,0,0,0,0,0,0,0,0,0,-1,1294,855,0,0
77,169,0,0,0,0,0,0,0,0,0,-1,1301,855,0,0
84,169,0,0,0,0,0,0,0,0,0,-1,1308,855,0,0
91,169,0,0,0,0,0,0,0,0,0,-1,1315,855,0,0
98,169,0,0,0,0,0,0,0,0,0,-1,1322,855,0,0
105,169,0,0,0,0,0,0,0,0,0,-1,1329,855,0,0
112,169,0,0,0,0,0,0,0,0,0,-1,1336,855,0,0
119,169,0,0,0,0,0,0,0,0,0,-1,1343,855,0,0
126,169,0,0,0,0,0,0,0,0,0,-1,1350,855,0,0
133,169,0,0,0,0,0,0,0,0,0,-1,1357,855,0,0
140,169,0,0,0,0,0,0,0,0,0,-1,1364,855,0,0
147,169,0,0,0,0,0,0,0,0,0,-1,1371,855,0,0
154,169,0,0,0,0,0,0,0,0,0,-1,1378,855,0,0
161,169,0,0,0,0,0,0,0,0,0,-1,1385,855,0,0
168,169,0,0,0,0,0,0,0,0,0,-1,1392,855,0,0
175,169,0,0,0,0,0,0,0,0,0,-1,1399,855,0,0
182,169,0,0,0,0,0,0,0,0,0,-1,1406,855,0,0
189,169,0,0,0,0,0,0,0,0,0,-1,1413,855,0,0
196,169,0,0,0,0,0,0,0,0,0,-1,1420,855,0,0
203,169,0,0,0,0,0,0,0,0,0,-1,1427,855,0,0
210,169,0,0,0,0,0,0,0,0,0,-1,1434,855,0,0
217,169,0,0,0,0,0,0,0,0,0,-1,1441,855,0,0
224,169,0,0,0,0,0,0,0,0,0,-1,1448,855,0,0
231,169,0,0,0,0,0,0,0,0,0,-1,1455,855,0,0
238,169,0,0,0,0,0,0,0,0,0,-1,1462,855,0,0
245,169,0,0,0,0,0,0,0,0,0,-1,1469,855,0,0
252,169,0,0,0,0,0,0,0,0,0,-1,1476,855,0,0
259,169,0,0,0,0,0,0,0,0,0,-1,1483,855,0,0
266,169,0,0,0,0,0,0,0,0,0,-1,1490,855,0,0
273,169,0,0,0,0,0,0,0,0,0,-1,1497,855,0,0
280,169,0,0,0,0,0,0,0,0,0,-1,1504,855,0,0
287,169,0,0,0,0,0,0,0,0,0,-1,1511,855,0,0
294,169,0,0,0,0,0,0,0,0,0,-1,1518,855,0,0
301,169,0,0,0,0,0,0,0,0,0,-1,1525,855,0,0
308,169,0,0,0,0,0,0,0,0,0,-1,1532,855,0,0
315,169,0,0,0,0,0,0,0,0,0,-1,1539,855,0,0
322,169,0,0,0,0,0,0,0,0,0,-1,1546,855,0,0
329,169,0,0,0,0,0,0,0,0,0,-1,1553,855,0,0
336,169,0,0,0,0,0,0,0,0,0,-1,1560,855,0,0
343,169,0,0,0,0,0,0,0,0,0,-1,1567,855,0,0
350,169,0,0,0,0,0,0,0,0,0,-1,1574,855,0,0
357,169,0,0,0,0,0,0,0,0,0,-1,1581,855,0,0
364,169,0,0,0,0,0,0,0,0,0,-1,1588,855,0,0
371,169,0,0,0,0,0,0,0,0,0,-1,1595,855,0,0
378,169,0,0,0,0,0,0,0,0,0,-1,1602,855,0,0
385,169,0,0,0,0,0,0,0,0,0,-1,1609,855,0,0
392,169,0,0,0,0,0,0,0,0,0,-1,1616,855,0,0
399,169,0,0,0,0,0,0,0,0,0,-1,1623,855,0,0
406,169,0,0,0,0,0,0,0,0,0,-1,1630,855,0,0
413,169,0,0,0,0,0,0,0,0,0,-1,1637,855,0,0
420,169,0,0,0,0,0,0,0,0,0,-1,1644,855,0,0
427,169,0,0,0,0,0,0,0,0,0,-1,1651,855,0,0
434,169,0,0,0,0,0,0,0,0,0,-1,1658,855,0,0
441,169,0,0,0,0,0,0,0,0,0,-1,1665,855,0,0
448,169,0,0,0,0,0,0,0,0,0,-1,1672,855,0,0
455,169,0,0,0,0,0,0,0,0,0,-1,1679,855,0,0
462,169,0,0,0,0,0,0,0,0,0,-1,1686,855,0,0
469,169,0,0,0,0,0,0,0,0,0,-1,1693,855,0,0
476,169,0,0,0,0,0,0,0,0,0,-1,1700,855,0,0
483,169,0,0,0,0,0,0,0,0,0,-1,1707,855,0,0
490,169,0,0,0,0,0,0,0,0,0,-1,1714,855,0,0
497,169,0,0,0,0,0,0,0,0,0,-1,1721,855,0,0
504,169,0,0,0,0,0,0,0,0,0,-1,1728,855,0,0
511,169,0,0,0,0,0,0,0,0,0,-1,1735,855,0,0
518,169,0,0,0,0,0,0,0,0,0,-1,1742,855,0,0
525,169,0,0,0,0,0,0,0,0,0,-1,1749,855,0,0
532,169,0,0,0,0,0,0,0,0,0,-1,1756,855,0,0
539,169,0,0,0,0,0,0,0,0,0,-1,1763,855,0,0
546,169,0,0,0,0,0,0,0,0,0,-1,1770,855,0,0
553,169,0,0,0,0,0,0,0,0,0,-1,1777,855,0,0
560,169,0,0,0,0,0,0,0,0,0,-1,1784,855,0,0
567,169,0,0,0,0,0,0,0,0,0,-1,1791,855,0,0
574,169,0,0,0,0,0,0,0,0,0,-1,1798,855,0,0
581,169,0,0,0,0,0,0,0,0,0,-1,1805,855,0,0
588,169,0,0,0,0,0,0,0,0,0,-1,1812,855,0,0
595,169,0,0,0,0,0,0,0,0,0,-1,1819,855,0,0
602,169,0,0,0,0,0,0,0,0,0,-1,1826,855,0,0
609,169,0,0,0,0,0,0,0,0,0,-1,1833,855,0,0
616,169,46.5538,2.89453,-0.00336748,0.00194213,-0.00168798,0.00243332,-0.00385867,-1.28762,0.00366362,0.0443697,1840,855,46.5539,-2.89456
623,169,46.6483,2.5946,-0.00162738,0.00131178,-0.000960749,0.00159796,-0.00191356,-1.28129,0.00203011,0.0446754,1847,855,46.6483,-2.59458
630,169,46.705,2.71997,-0.000344016,0.000622266,-0.000483144,0.000822392,-0.000544142,-1.1781,0.000794402,0.0403495,1854,855,46.705,-2.71995
637,169,46.6725,2.89496,0.000242141,0.000166738,-0.000206893,0.00041474,-5.86091e-06,-0.695273,0.000278467,0.0335863,1861,855,46.6725,-2.89496
644,169,46.6083,2.88367,0.000198117,-0.000199446,-0.000169001,0.000260248,-0.000261577,-0.3523,0.000301276,0.033525,1868,855,46.6083,-2.88366
651,169,46.5994,2.88483,-2.65558e-05,-0.000466414,-0.000238805,7.81633e-05,-0.000571134,-0.413261,0.000409306,0.0364099,1875,855,46.5994,-2.88483
658,169,46.6168,2.9259,-0.000192454,-0.000666614,-0.000357528,-5.43048e-07,-0.000858525,-0.492631,0.000572169,0.0373673,1882,855,46.6168,-2.92591
665,169,46.6643,2.89502,0,0,0,0,0,0,0,-1,1889,855,46.6643,-2.89503
672,169,31.2465,2.96387,0,0,0,0,0,0,0,-1,1896,855,31.2464,-2.9639
679,169,38.2355,1.2749,0,0,0,0,0,0,0,-1,1903,855,38.2355,-1.27493
686,169,38.2642,1.81116,-0.00101146,-0.000802309,-0.000729654,-0.000169774,-0.00164399,-0.856574,0.00104402,0.0492622,1910,855,38.2641,-1.81119
693,169,38.2371,2.33099,-0.00116462,-0.000671792,-0.000827769,-5.45374e-05,-0.00178187,-0.930063,0.00117016,0.0208148,1917,855,38.237,-2.33099
700,169,38.2061,2.85846,-0.00139443,-0.000691152,-0.000795138,-0.00017337,-0.00191222,-0.993589,0.00122113,0.0186456,1924,855,38.2061,-2.85844
707,169,38.1212,3.33521,-0.00138468,-0.000652718,-0.000845548,-9.7343e-05,-0.00194005,-0.98964,0.00126217,0.0184682,1931,855,38.1212,-3.33521
714,169,38.0228,3.7594,-0.00102574,-0.000274816,-0.000636271,8.85123e-05,-0.00138907,-1.05195,0.000956917,0.0138061,1938,855,38.0229,-3.7594
721,169,38.0348,4.25293,-0.000747158,0.000228428,-0.000233415,0.000281398,-0.000800127,-1.34764,0.000647917,0.0153955,1945,855,38.0348,-4.25294
728,169,38.0128,4.75989,-0.000104928,0.00254736,-0.000233217,0.00256771,-0.000125278,-1.48376,0.00175506,0.0124145,1952,855,38.0128,-4.75987
735,169,37.9534,5.25226,0.000998664,0.00734727,-0.000896992,0.00747157,0.000874362,-1.4331,0.00471669,0.0180344,1959,855,37.9534,-5.25224
742,169,37.9487,5.73816,0.00238407,0.0130607,-0.00164432,0.0133082,0.00213656,-1.4214,0.00825264,0.0150606,1966,855,37.9487,-5.73814
749,169,37.9238,6.1861,0.00441975,0.0220833,-0.0032639,0.0226671,0.00383594,-1.3938,0.0140089,0.0266068,1973,855,37.9238,-6.18612
756,169,38.0269,6.62695,0,0,0,0,0,0,0,-1,1980,855,38.0269,-6.62697
763,169,37.6863,6.83917,0,0,0,0,0,0,0,-1,1987,855,37.6863,-6.83918
770,169,37.2059,3.97021,0,0,0,0,0,0,0,-1,1994,855,37.2059,-3.97022
777,169,37.9381,9.14392,0,0,0,0,0,0,0,-1,2001,855,37.9381,-9.1439
784,169,37.6997,9.83215,0,0,0,0,0,0,0,-1,2008,855,37.6997,-9.83216
791,169,0,0,0,0,0,0,0,0,0,-1,2015,855,0,0
798,169,0,0,0,0,0,0,0,0,0,-1,2022,855,0,0
805,169,0,0,0,0,0,0,0,0,0,-1,2029,855,0,0
812,169,0,0,0,0,0,0,0,0,0,-1,2036,855,0,0
-700,162,0,0,0,0,0,0,0,0,0,-1,524,862,0,0
-693,162,0,0,0,0,0,0,0,0,0,-1,531,862,0,0
-686,162,0,0,0,0,0,0,0,0,0,-1,538,862,0,0
-679,162,0,0,0,0,0,0,0,0,0,-1,545,862,0,0
-672,162,0,0,0,0,0,0,0,0,0,-1,552,862,0,0
-665,162,-30.4434,8.53278,0,0,0,0,0,0,0,-1,559,862,-30.4434,-8.53277
-658,162,-29.1797,6.28192,0,0,0,0,0,0,0,-1,566,862,-29.1797,-6.2819
-651,162,-28.7773,5.38464,0,0,0,0,0,0,0,-1,573,862,-28.7773,-5.38465
-644,162,-27.3831,5.2135,0,0,0,0,0,0,0,-1,580,862,-27.383,-5.21352
-637,162,-27.3046,4.89026,0,0,0,0,0,0,0,-1,587,862,-27.3047,-4.89029
-630,162,-27.4696,4.48761,0,0,0,0,0,0,0,-1,594,862,-27.4696,-4.4876
-623,162,-27.5973,4.0498,0.0475883,0.00690961,0.000983285,0.047612,0.00688585,0.0241532,0.0297132,0.033993,601,862,-27.5973,-4.04982
-616,162,-27.6781,3.56592,0.0285273,0.00267227,0.000745418,0.0285488,0.00265079,0.0287987,0.0182134,0.0192175,608,862,-27.6781,-3.56594
-609,162,-27.72,3.0708,0.0164204,0.00176229,0.00114635,0.0165095,0.00167318,0.0775773,0.0104931,0.0131464,615,862,-27.72,-3.07081
-602,162,-27.7504,2.58942,0.0066923,0.00112069,0.00131921,0.00698886,0.000824122,0.221131,0.00441028,0.0115631,622,862,-27.7503,-2.58943
-595,162,-27.7662,2.13293,0.00149841,1.75668e-05,0.00197581,0.00286798,-0.001352,0.606126,0.00248826,0.0111907,629,862,-27.7662,-2.13296
-588,162,-27.7532,1.68353,0.000837882,-0.000909225,0.00237108,0.00249121,-0.00256255,0.608903,0.00291788,0.0116905,636,862,-27.7532,-1.68351
-581,162,-27.9135,1.22375,0.00149138,-0.00137621,0.00269024,0.00310605,-0.00299088,0.540564,0.00352028,0.0236828,643,862,-27.9135,-1.22374
-574,162,-28.1578,0.71759,0.00180423,-0.00179253,0.0028652,0.00338868,-0.00337698,0.505142,0.00390616,0.0355534,650,862,-28.1578,-0.71758
-567,162,-28.1014,0.244263,0.00159904,-0.00249424,0.00287024,0.0030776,-0.0039728,0.475681,0.00408147,0.0437704,657,862,-28.1014,-0.244255
-560,162,-27.8644,-0.354126,0.00181767,-0.00286503,0.00327667,0.00350354,-0.00455089,0.475185,0.00466332,0.0400606,664,862,-27.8644,0.354116
-553,162,-27.5086,-0.969177,0,0,0,0,0,0,0,-1,671,862,-27.5086,0.969151
-546,162,-22.8181,-1.51154,0,0,0,0,0,0,0,-1,678,862,-22.8181,1.51155
-539,162,-34.5697,1.13617,0,0,0,0,0,0,0,-1,685,862,-34.5697,-1.13615
-532,162,-34.5741,1.20306,0.00276851,-0.00362535,0.00560238,0.00602193,-0.00687878,0.526123,0.0074537,0.0421464,692,862,-34.5741,-1.20309
-525,162,-34.6019,1.2467,0.00280131,-0.00364105,0.00635896,0.00670841,-0.00754815,0.550958,0.00823578,0.0436231,699,862,-34.6019,-1.24672
-518,162,-34.6526,1.27502,0.00273811,-0.00326445,0.00732685,0.00765456,-0.00818089,0.591009,0.00914428,0.0428543,706,862,-34.6527,-1.27504
-511,162,-34.7018,1.33087,0.00350376,-0.00234016,0.0082235,0.00930898,-0.00814538,0.614696,0.0100847,0.043372,713,862,-34.7018,-1.33086
-504,162,-34.6956,1.34912,0.0053904,-0.000724199,0.00858116,0.0114426,-0.00677642,0.614269,0.0106331,0.0436852,720,862,-34.6956,-1.3491
-497,162,-34.6003,1.33466,0.00691844,0.00201848,0.00802653,0.0128606,-0.00392365,0.637272,0.0101379,0.0440872,727,862,-34.6003,-1.33466
-490,162,0,0,0,0,0,0,0,0,0,-1,734,862,0,0
-483,162,0,0,0,0,0,0,0,0,0,-1,741,862,0,0
-476,162,0,0,0,0,0,0,0,0,0,-1,748,862,0,0
-469,162,0,0,0,0,0,0,0,0,0,-1,755,862,0,0
-462,162,0,0,0,0,0,0,0,0,0,-1,762,862,0,0
-455,162,0,0,0,0,0,0,0,0,0,-1,769,862,0,0
-448,162,0,0,0,0,0,0,0,0,0,-1,776,862,0,0
-441,162,0,0,0,0,0,0,0,0,0,-1,783,862,0,0
-434,162,0,0,0,0,0,0,0,0,0,-1,790,862,0,0
-427,162,0,0,0,0,0,0,0,0,0,-1,797,862,0,0
-420,162,0,0,0,0,0,0,0,0,0,-1,804,862,0,0
-413,162,0,0,0,0,0,0,0,0,0,-1,811,862,0,0
-406,162,0,0,0,0,0,0,0,0,0,-1,818,862,0,0
-399,162,0,0,0,0,0,0,0,0,0,-1,825,862,0,0
-392,162,0,0,0,0,0,0,0,0,0,-1,832,862,0,0
-385,162,0,0,0,0,0,0,0,0,0,-1,839,862,0,0
-378,162,0,0,0,0,0,0,0,0,0,-1,846,862,0,0
-371,162,0,0,0,0,0,0,0,0,0,-1,853,862,0,0
-364,162,0,0,0,0,0,0,0,0,0,-1,860,862,0,0
-357,162,0,0,0,0,0,0,0,0,0,-1,867,862,0,0
-350,162,0,0,0,0,0,0,0,0,0,-1,874,862,0,0
-343,162,0,0,0,0,0,0,0,0,0,-1,881,862,0,0
-336,162,0,0,0,0,0,0,0,0,0,-1,888,862,0,0
-329,162,0,0,0,0,0,0,0,0,0,-1,895,862,0,0
-322,162,0,0,0,0,0,0,0,0,0,-1,902,862,0,0
-315,162,0,0,0,0,0,0,0,0,0,-1,909,862,0,0
-308,162,0,0,0,0,0,0,0,0,0,-1,916,862,0,0
-301,162,0,0,0,0,0,0,0,0,0,-1,923,862,0,0
-294,162,0,0,0,0,0,0,0,0,0,-1,930,862,0,0
-287,162,0,0,0,0,0,0,0,0,0,-1,937,862,0,0
-280,162,0,0,0,0,0,0,0,0,0,-1,944,862,0,0
-273,162,0,0,0,0,0,0,0,0,0,-1,951,862,0,0
-266,162,0,0,0,0,0,0,0,0,0,-1,958,862,0,0
-259,162,0,0,0,0,0,0,0,0,0,-1,965,862,0,0
-252,162,0,0,0,0,0,0,0,0,0,-1,972,862,0,0
-245,162,0,0,0,0,0,0,0,0,0,-1,979,862,0,0
-238,162,0,0,0,0,0,0,0,0,0,-1,986,862,0,0
-231,162,0,0,0,0,0,0,0,0,0,-1,993,862,0,0
-224,162,0,0,0,0,0,0,0,0,0,-1,1000,862,0,0
-217,162,0,0,0,0,0,0,0,0,0,-1,1007,862,0,0
-210,162,0,0,0,0,0,0,0,0,0,-1,1014,862,0,0
-203,162,0,0,0,0,0,0,0,0,0,-1,1021,862,0,0
-196,162,0,0,0,0,0,0,0,0,0,-1,1028,862,0,0
-189,162,0,0,0,0,0,0,0,0,0,-1,1035,862,0,0
-182,162,0,0,0,0,0,0,0,0,0,-1,1042,862,0,0
-175,162,0,0,0,0,0,0,0,0,0,-1,1049,862,0,0
-168,162,0,0,0,0,0,0,0,0,0,-1,1056,862,0,0
-161,162,0,0,0,0,0,0,0,0,0,-1,1063,862,0,0
-154,162,0,0,0,0,0,0,0,0,0,-1,1070,862,0,0
-147,162,0,0,0,0,0,0,0,0,0,-1,1077,862,0,0
-140,162,0,0,0,0,0,0,0,0,0,-1,1084,862,0,0
-133,162,0,0,0,0,0,0,0,0,0,-1,1091,862,0,0
-126,162,0,0,0,0,0,0,0,0,0,-1,1098,862,0,0
-119,162,0,0,0,0,0,0,0,0,0,-1,1105,862,0,0
-112,162,0,0,0,0,0,0,0,0,0,-1,1112,862,0,0
-105,162,0,0,0,0,0,0,0,0,0,-1,1119,862,0,0
-98,162,0,0,0,0,0,0,0,0,0,-1,1126,862,0,0
-91,162,0,0,0,0,0,0,0,0,0,-1,1133,862,0,0
-84,162,0,0,0,0,0,0,0,0,0,-1,1140,862,0,0
-77,162,0,0,0,0,0,0,0,0,0,-1,1147,862,0,0
-70,162,0,0,0,0,0,0,0,0,0,-1,1154,862,0,0
-63,162,0,0,0,0,0,0,0,0,0,-1,1161,862,0,0
-56,162,0,0,0,0,0,0,0,0,0,-1,1168,862,0,0
-49,162,0,0,0,0,0,0,0,0,0,-1,1175,862,0,0
-42,162,0,0,0,0,0,0,0,0,0,-1,1182,862,0,0
-35,162,0,0,0,0,0,0,0,0,0,-1,1189,862,0,0
-28,162,0,0,0,0,0,0,0,0,0,-1,1196,862,0,0
-21,162,0,0,0,0,0,0,0,0,0,-1,1203,862,0,0
-14,162,0,0,0,0,0,0,0,0,0,-1,1210,862,0,0
-7,162,0,0,0,0,0,0,0,0,0,-1,1217,862,0,0
0,162,0,0,0,0,0,0,0,0,0,-1,1224,862,0,0
7,162,0,0,0,0,0,0,0,0,0,-1,1231,862,0,0
14,162,0,0,0,0,0,0,0,0,0,-1,1238,862,0,0
21,162,0,0,0,0,0,0,0,0,0,-1,1245,862,0,0
28,162,0,0,0,0,0,0,0,0,0,-1,1252,862,0,0
35,162,0,0,0,0,0,0,0,0,0,-1,1259,862,0,0
42,162,0,0,0,0,0,0,0,0,0,-1,1266,862,0,0
49,162,0,0,0,0,0,0,0,0,0,-1,1273,862,0,0
56,162,0,0,0,0,0,0,0,0,0,-1,1280,862,0,0
63,162,0,0,0,0,0,0,0,0,0,-1,1287,862,0,0
70,162,0,0,0,0,0,0,0,0,0,-1,1294,862,0,0
77,162,0,0,0,0,0,0,0,0,0,-1,1301,862,0,0
84,162,0,0,0,0,0,0,0,0,0,-1,1308,862,0,0
91,162,0,0,0,0,0,0,0,0,0,-1,1315,862,0,0
98,162,0,0,0,0,0,0,0,0,0,-1,1322,862,0,0
105,162,0,0,0,0,0,0,0,0,0,-1,1329,862,0,0
112,162,0,0,0,0,0,0,0,0,0,-1,1336,862,0,0
119,162,0,0,0,0,0,0,0,0,0,-1,1343,862,0,0
126,162,0,0,0,0,0,0,0,0,0,-1,1350,862,0,0
133,162,0,0,0,0,0,0,0,0,0,-1,1357,862,0,0
140,162,0,0,0,0,0,0,0,0,0,-1,1364,862,0,0
147,162,0,0,0,0,0,0,0,0,0,-1,1371,862,0,0
154,162,0,0,0,0,0,0,0,0,0,-1,1378,862,0,0
161,162,0,0,0,0,0,0,0,0,0,-1,1385,862,0,0
168,162,0,0,0,0,0,0,0,0,0,-1,1392,862,0,0
175,162,0,0,0,0,0,0,0,0,0,-1,1399,862,0,0
182,162,0,0,0,0,0,0,0,0,0,-1,1406,862,0,0
189,162,0,0,0,0,0,0,0,0,0,-1,1413,862,0,0
196,162,0,0,0,0,0,0,0,0,0,-1,1420,862,0,0
203,162,0,0,0,0,0,0,0,0,0,-1,1427,862,0,0
210,162,0,0,0,0,0,0,0,0,0,-1,1434,862,0,0
217,162,0,0,0,0,0,0,0,0,0,-1,1441,862,0,0
224,162,0,0,0,0,0,0,0,0,0,-1,1448,862,0,0
231,162,0,0,0,0,0,0,0,0,0,-1,1455,862,0,0
238,162,0,0,0,0,0,0,0,0,0,-1,1462,862,0,0
245,162,0,0,0,0,0,0,0,0,0,-1,1469,862,0,0
252,162,0,0,0,0,0,0,0,0,0,-1,1476,862,0,0
259,162,0,0,0,0,0,0,0,0,0,-1,1483,862,0,0
266,162,0,0,0,0,0,0,0,0,0,-1,1490,862,0,0
273,162,0,0,0,0,0,0,0,0,0,-1,1497,862,0,0
280,162,0,0,0,0,0,0,0,0,0,-1,1504,862,0,0
287,162,0,0,0,0,0,0,0,0,0,-1,1511,862,0,0
294,162,0,0,0,0,0,0,0,0,0,-1,1518,862,0,0
301,162,0,0,0,0,0,0,0,0,0,-1,1525,862,0,0
308,162,0,0,0,0,0,0,0,0,0,-1,1532,862,0,0
315,162,0,0,0,0,0,0,0,0,0,-1,1539,862,0,0
322,162,0,0,0,0,0,0,0,0,0,-1,1546,862,0,0
329,162,0,0,0,0,0,0,0,0,0,-1,1553,862,0,0
336,162,0,0,0,0,0,0,0,0,0,-1,1560,862,0,0
343,162,0,0,0,0,0,0,0,0,0,-1,1567,862,0,0
350,162,0,0,0,0,0,0,0,0,0,-1,1574,862,0,0
357,162,0,0,0,0,0,0,0,0,0,-1,1581,862,0,0
364,162,0,0,0,0,0,0,0,0,0,-1,1588,862,0,0
371,162,0,0,0,0,0,0,0,0,0,-1,1595,862,0,0
378,162,0,0,0,0,0,0,0,0,0,-1,1602,862,0,0
385,162,0,0,0,0,0,0,0,0,0,-1,1609,862,0,0
392,162,0,0,0,0,0,0,0,0,0,-1,1616,862,0,0
399,162,0,0,0,0,0,0,0,0,0,-1,1623,862,0,0
406,162,0,0,0,0,0,0,0,0,0,-1,1630,862,0,0
413,162,0,0,0,0,0,0,0,0,0,-1,1637,862,0,0
420,162,0,0,0,0,0,0,0,0,0,-1,1644,862,0,0
427,162,0,0,0,0,0,0,0,0,0,-1,1651,862,0,0
434,162,0,0,0,0,0,0,0,0,0,-1,1658,862,0,0
441,162,0,0,0,0,0,0,0,0,0,-1,1665,862,0,0
448,162,0,0,0,0,0,0,0,0,0,-1,1672,862,0,0
455,162,0,0,0,0,0,0,0,0,0,-1,1679,862,0,0
462,162,0,0,0,0,0,0,0,0,0,-1,1686,862,0,0
469,162,0,0,0,0,0,0,0,0,0,-1,1693,862,0,0
476,162,0,0,0,0,0,0,0,0,0,-1,1700,862,0,0
483,162,0,0,0,0,0,0,0,0,0,-1,1707,862,0,0
490,162,0,0,0,0,0,0,0,0,0,-1,1714,862,0,0
497,162,0,0,0,0,0,0,0,0,0,-1,1721,862,0,0
504,162,0,0,0,0,0,0,0,0,0,-1,1728,862,0,0
511,162,0,0,0,0,0,0,0,0,0,-1,1735,862,0,0
518,162,0,0,0,0,0,0,0,0,0,-1,1742,862,0,0
525,162,0,0,0,0,0,0,0,0,0,-1,1749,862,0,0
532,162,0,0,0,0,0,0,0,0,0,-1,1756,862,0,0
539,162,0,0,0,0,0,0,0,0,0,-1,1763,862,0,0
546,162,0,0,0,0,0,0,0,0,0,-1,1770,862,0,0
553,162,0,0,0,0,0,0,0,0,0,-1,1777,862,0,0
560,162,0,0,0,0,0,0,0,0,0,-1,1784,862,0,0
567,162,0,0,0,0,0,0,0,0,0,-1,1791,862,0,0
574,162,0,0,0,0,0,0,0,0,0,-1,1798,862,0,0
581,162,0,0,0,0,0,0,0,0,0,-1,1805,862,0,0
588,162,0,0,0,0,0,0,0,0,0,-1,1812,862,0,0
595,162,0,0,0,0,0,0,0,0,0,-1,1819,862,0,0
602,162,0,0,0,0,0,0,0,0,0,-1,1826,862,0,0
609,162,0,0,0,0,0,0,0,0,0,-1,1833,862,0,0
616,162,46.6249,2.77112,-0.00504448,0.00201461,-0.00241915,0.00276409,-0.00579395,-1.27037,0.00504315,0.0442028,1840,862,46.6249,-2.7711
623,162,46.564,2.82373,-0.00319575,0.00154245,-0.00154713,0.00200288,-0.00365618,-1.28154,0.00331341,0.0442365,1847,862,46.564,-2.82375
630,162,46.6041,2.88281,-0.00161812,0.000980283,-0.000896117,0.00125936,-0.00189719,-1.26889,0.00183479,0.0411183,1854,862,46.6042,-2.8828
637,162,46.6141,2.95447,-0.000581414,0.000613054,-0.000418391,0.000745025,-0.000713385,-1.26525,0.000842079,0.0392804,1861,862,46.6141,-2.95448
644,162,46.6453,2.9079,-0.000239194,0.000262971,-0.000228317,0.000351257,-0.00032748,-1.20182,0.000391949,0.0369442,1868,862,46.6453,-2.90788
651,162,46.6548,2.9433,-0.000209015,-4.84146e-05,-0.00020213,8.8781e-05,-0.000346211,-0.974474,0.000265398,0.0354122,1875,862,46.6548,-2.9433
658,162,46.5974,2.9967,-0.000203106,-0.000293286,-0.000255183,1.09397e-05,-0.000507332,-0.697952,0.000341926,0.0371029,1882,862,46.5974,-2.9967
665,162,46.6324,2.8786,-0.00038396,-0.000404599,-0.000353124,-4.10044e-05,-0.000747554,-0.77079,0.000485279,0.0487637,1889,862,46.6325,-2.87858
672,162,46.7415,2.70526,0,0,0,0,0,0,0,-1,1896,862,46.7415,-2.70529
679,162,26.5077,2.54785,0,0,0,0,0,0,0,-1,1903,862,26.5077,-2.54787
686,162,38.6863,1.73792,0,0,0,0,0,0,0,-1,1910,862,38.6862,-1.73794
693,162,38.7288,2.39783,-0.000693844,-0.000538683,-0.000652366,4.07e-05,-0.00127323,-0.844581,0.000862704,0.025164,1917,862,38.7288,-2.39785
700,162,38.7163,2.85822,-0.000952382,-0.000545237,-0.000608256,-0.000107392,-0.00139023,-0.946881,0.000893176,0.0227532,1924,862,38.7163,-2.8582
707,162,38.6421,3.30664,-0.000966344,-0.000532122,-0.000686237,-2.94698e-05,-0.001469,-0.938606,0.000969656,0.01624,1931,862,38.6421,-3.30662
714,162,38.5508,3.7569,-0.000694914,-0.000205558,-0.000567294,0.000167575,-0.00106805,-0.988999,0.00077396,0.019145,1938,862,38.5507,-3.75692
721,162,38.4626,4.32013,-0.000563207,0.00025713,-0.000279443,0.000343274,-0.000649352,-1.27177,0.000582104,0.0270257,1945,862,38.4627,-4.32011
728,162,38.4718,4.7868,-0.000101651,0.002618,-0.000442884,0.0026883,-0.000171955,-1.41337,0.00185218,0.0214647,1952,862,38.4718,-4.78682
735,162,38.4805,5.24982,0.000860829,0.00762896,-0.00131554,0.00787568,0.000614117,-1.38541,0.00505819,0.0108982,1959,862,38.4805,-5.24984
742,162,38.459,5.73706,0.00212135,0.0137251,-0.00232173,0.0141724,0.00167405,-1.38047,0.00894262,0.0126342,1966,862,38.459,-5.73707
749,162,38.4247,6.21466,0.0040338,0.0232742,-0.00424163,0.0241677,0.00314021,-1.36316,0.0151738,0.0190705,1973,862,38.4247,-6.21465
756,162,38.4163,6.68933,0.00695516,0.0380868,-0.00761433,0.0398493,0.0051926,-1.34332,0.0250157,0.044716,1980,862,38.4163,-6.68933
763,162,38.4452,7.19769,0,0,0,0,0,0,0,-1,1987,862,38.4452,-7.19768
770,162,38.6844,8.521,0,0,0,0,0,0,0,-1,1994,862,38.6845,-8.52099
777,162,37.0981,11.5123,0,0,0,0,0,0,0,-1,2001,862,37.0981,-11.5123
784,162,37.2179,12.1003,0,0,0,0,0,0,0,-1,2008,862,37.2179,-12.1003
791,162,0,0,0,0,0,0,0,0,0,-1,2015,862,0,0
798,162,0,0,0,0,0,0,0,0,0,-1,2022,862,0,0
805,162,0,0,0,0,0,0,0,0,0,-1,2029,862,0,0
812,162,0,0,0,0,0,0,0,0,0,-1,2036,862,0,0
-700,155,0,0,0,0,0,0,0,0,0,-1,524,869,0,0
-693,155,0,0,0,0,0,0,0,0,0,-1,531,869,0,0
-686,155,0,0,0,0,0,0,0,0,0,-1,538,869,0,0
-679,155,0,0,0,0,0,0,0,0,0,-1,545,869,0,0
-672,155,0,0,0,0,0,0,0,0,0,-1,552,869,0,0
-665,155,-30.4153,5.89862,0,0,0,0,0,0,0,-1,559,869,-30.4153,-5.89862
-658,155,-29.1426,5.48254,0.17961,0.0460538,0.00150392,0.179627,0.0460368,0.0112586,0.107736,0.0498294,566,869,-29.1426,-5.48252
-651,155,-27.9535,5.12891,0.147456,0.034869,0.000189162,0.147456,0.0348687,0.00168013,0.0889884,0.0465187,573,869,-27.9535,-5.12888
-644,155,-26.8467,4.66711,0,0,0,0,0,0,0,-1,580,869,-26.8467,-4.66713
-637,155,-25.7261,4.18903,0,0,0,0,0,0,0,-1,587,869,-25.7261,-4.18901
-630,155,-27.9088,4.33105,0,0,0,0,0,0,0,-1,594,869,-27.9088,-4.33108
-623,155,-28.0823,4.03577,0.0429417,0.00861393,-0.000154426,0.0429424,0.00861324,-0.00449845,0.0262329,0.0267013,601,869,-28.0823,-4.03579
-616,155,-28.1517,3.55005,0.0249689,0.00386541,1.18564e-05,0.0249689,0.0038654,0.00056182,0.0155188,0.0146248,608,869,-28.1518,-3.55004
-609,155,-28.2083,3.0379,0.0137176,0.00241803,0.000758623,0.0137683,0.00236732,0.0667384,0.00850033,0.0134613,615,869,-28.2082,-3.03793
-602,155,-28.23,2.57477,0.00495051,0.00124747,0.00125144,0.00533376,0.000864218,0.297184,0.00330564,0.0126594,622,869,-28.23,-2.57475
-595,155,-28.2574,2.12921,0.000882151,2.80977e-07,0.00201688,0.00250573,-0.0016233,0.67778,0.00240198,0.0123021,629,869,-28.2574,-2.12924
-588,155,-28.2266,1.71277,0.000820674,-0.000891663,0.00238204,0.00249574,-0.00256673,0.612874,0.00292291,0.0157022,636,869,-28.2266,-1.71276
-581,155,-28.4364,1.37396,0.00155337,-0.00132242,0.00267687,0.00315409,-0.00292314,0.538934,0.00350953,0.0297766,643,869,-28.4364,-1.37398
-574,155,-28.5641,0.984192,0.00180758,-0.00163421,0.00281257,0.00338396,-0.00321059,0.510851,0.00380781,0.0361947,650,869,-28.5641,-0.984218
-567,155,-28.5258,0.319336,0.00162805,-0.00221517,0.0027594,0.00306901,-0.00365613,0.481249,0.00388769,0.0429405,657,869,-28.5258,-0.319334
-560,155,-28.3848,-0.221802,0.00189343,-0.00244321,0.00301608,0.00343972,-0.0039895,0.473742,0.00429317,0.0357686,664,869,-28.3848,0.221813
-553,155,-28.1127,-0.998291,0,0,0,0,0,0,0,-1,671,869,-28.1127,0.998305
-546,155,-22.7988,0.873657,0,0,0,0,0,0,0,-1,678,869,-22.7988,-0.873645
-539,155,-34.6982,0.933228,0,0,0,0,0,0,0,-1,685,869,-34.6982,-0.933241
-532,155,-34.6265,1.11578,0.00304742,-0.00275487,0.00488309,0.00582617,-0.00553362,0.517356,0.0065593,0.0375229,692,869,-34.6265,-1.1158
-525,155,-34.6035,1.24579,0.00306824,-0.00253607,0.0055062,0.00644429,-0.00591213,0.550023,0.00713619,0.0395587,699,869,-34.6035,-1.2458
-518,155,-34.6763,1.28784,0.00308751,-0.00186828,0.00633294,0.00741007,-0.00619084,0.598919,0.007863,0.0430501,706,869,-34.6763,-1.28783
-511,155,-34.7335,1.00861,0.00411405,-0.000582996,0.00699767,0.00914679,-0.00561573,0.623497,0.00860403,0.0434174,713,869,-34.7335,-1.00863
-504,155,-34.8121,1.31079,0.00636256,0.00121236,0.00707367,0.0113153,-0.00374035,0.610835,0.00905167,0.0415202,720,869,-34.8121,-1.31079
-497,155,0,0,0,0,0,0,0,0,0,-1,727,869,0,0
-490,155,0,0,0,0,0,0,0,0,0,-1,734,869,0,0
-483,155,0,0,0,0,0,0,0,0,0,-1,741,869,0,0
-476,155,0,0,0,0,0,0,0,0,0,-1,748,869,0,0
-469,155,0,0,0,0,0,0,0,0,0,-1,755,869,0,0
-462,155,0,0,0,0,0,0,0,0,0,-1,762,869,0,0
-455,155,0,0,0,0,0,0,0,0,0,-1,769,869,0,0
-448,155,0,0,0,0,0,0,0,0,0,-1,776,869,0,0
-441,155,0,0,0,0,0,0,0,0,0,-1,783,869,0,0
-434,155,0,0,0,0,0,0,0,0,0,-1,790,869,0,0
-427,155,0,0,0,0,0,0,0,0,0,-1,797,869,0,0
-420,155,0,0,0,0,0,0,0,0,0,-1,804,869,0,0
-413,155,0,0,0,0,0,0,0,0,0,-1,811,869,0,0
-406,155,0,0,0,0,0,0,0,0,0,-1,818,869,0,0
-399,155,0,0,0,0,0,0,0,0,0,-1,825,869,0,0
-392,155,0,0,0,0,0,0,0,0,0,-1,832,869,0,0
-385,155,0,0,0,0,0,0,0,0,0,-1,839,869,0,0
-378,155,0,0,0,0,0,0,0,0,0,-1,846,869,0,0
-371,155,0,0,0,0,0,0,0,0,0,-1,853,869,0,0
-364,155,0,0,0,0,0,0,0,0,0,-1,860,869,0,0
-357,155,0,0,0,0,0,0,0,0,0,-1,867,869,0,0
-350,155,0,0,0,0,0,0,0,0,0,-1,874,869,0,0
-343,155,0,0,0,0,0,0,0,0,0,-1,881,869,0,0
-336,155,0,0,0,0,0,0,0,0,0,-1,888,869,0,0
-329,155,0,0,0,0,0,0,0,0,0,-1,895,869,0,0
-322,155,0,0,0,0,0,0,0,0,0,-1,902,869,0,0
-315,155,0,0,0,0,0,0,0,0,0,-1,909,869,0,0
-308,155,0,0,0,0,0,0,0,0,0,-1,916,869,0,0
-301,155,0,0,0,0,0,0,0,0,0,-1,923,869,0,0
-294,155,0,0,0,0,0,0,0,0,0,-1,930,869,0,0
-287,155,0,0,0,0,0,0,0,0,0,-1,937,869,0,0
-280,155,0,0,0,0,0,0,0,0,0,-1,944,869,0,0
-273,155,0,0,0,0,0,0,0,0,0,-1,951,869,0,0
-266,155,0,0,0,0,0,0,0,0,0,-1,958,869,0,0
-259,155,0,0,0,0,0,0,0,0,0,-1,965,869,0,0
-252,155,0,0,0,0,0,0,0,0,0,-1,972,869,0,0
-245,155,0,0,0,0,0,0,0,0,0,-1,979,869,0,0
-238,155,0,0,0,0,0,0,0,0,0,-1,986,869,0,0
-231,155,0,0,0,0,0,0,0,0,0,-1,993,869,0,0
-224,155,0,0,0,0,0,0,0,0,0,-1,1000,869,0,0
-217,155,0,0,0,0,0,0,0,0,0,-1,1007,869,0,0
-210,155,0,0,0,0,0,0,0,0,0,-1,1014,869,0,0
-203,155,0,0,0,0,0,0,0,0,0,-1,1021,869,0,0
-196,155,0,0,0,0,0,0,0,0,0,-1,1028,869,0,0
-189,155,0,0,0,0,0,0,0,0,0,-1,1035,869,0,0
-182,155,0,0,0,0,0,0,0,0,0,-1,1042,869,0,0
-175,155,0,0,0,0,0,0,0,0,0,-1,1049,869,0,0
-168,155,0,0,0,0,0,0,0,0,0,-1,1056,869,0,0
-161,155,0,0,0,0,0,0,0,0,0,-1,1063,869,0,0
-154,155,0,0,0,0,0,0,0,0,0,-1,1070,869,0,0
-147,155,0,0,0,0,0,0,0,0,0,-1,1077,869,0,0
-140,155,0,0,0,0,0,0,0,0,0,-1,1084,869,0,0
-133,155,0,0,0,0,0,0,0,0,0,-1,1091,869,0,0
-126,155,0,0,0,0,0,0,0,0,0,-1,1098,869,0,0
-119,155,0,0,0,0,0,0,0,0,0,-1,1105,869,0,0
-112,155,0,0,0,0,0,0,0,0,0,-1,1112,869,0,0
-105,155,0,0,0,0,0,0,0,0,0,-1,1119,869,0,0
-98,155,0,0,0,0,0,0,0,0,0,-1,1126,869,0,0
-91,155,0,0,0,0,0,0,0,0,0,-1,1133,869,0,0
-84,155,0,0,0,0,0,0,0,0,0,-1,1140,869,0,0
-77,155,0,0,0,0,0,0,0,0,0,-1,1147,869,0,0
-70,155,0,0,0,0,0,0,0,0,0,-1,1154,869,0,0
-63,155,0,0,0,0,0,0,0,0,0,-1,1161,869,0,0
-56,155,0,0,0,0,0,0,0,0,0,-1,1168,869,0,0
-49,155,0,0,0,0,0,0,0,0,0,-1,1175,869,0,0
-42,155,0,0,0,0,0,0,0,0,0,-1,1182,869,0,0
-35,155,0,0,0,0,0,0,0,0,0,-1,1189,869,0,0
-28,155,0,0,0,0,0,0,0,0,0,-1,1196,869,0,0
-21,155,0,0,0,0,0,0,0,0,0,-1,1203,869,0,0
-14,155,0,0,0,0,0,0,0,0,0,-1,1210,869,0,0
-7,155,0,0,0,0,0,0,0,0,0,-1,1217,869,0,0
0,155,0,0,0,0,0,0,0,0,0,-1,1224,869,0,0
7,155,0,0,0,0,0,0,0,0,0,-1,1231,869,0,0
14,155,0,0,0,0,0,0,0,0,0,-1,1238,869,0,0
21,155,0,0,0,0,0,0,0,0,0,-1,1245,869,0,0
28,155,0,0,0,0,0,0,0,0,0,-1,1252,869,0,0
35,155,0,0,0,0,0,0,0,0,0,-1,1259,869,0,0
42,155,0,0,0,0,0,0,0,0,0,-1,1266,869,0,0
49,155,0,0,0,0,0,0,0,0,0,-1,1273,869,0,0
56,155,0,0,0,0,0,0,0,0,0,-1,1280,869,0,0
63,155,0,0,0,0,0,0,0,0,0,-1,1287,869,0,0
70,155,0,0,0,0,0,0,0,0,0,-1,1294,869,0,0
77,155,0,0,0,0,0,0,0,0,0,-1,1301,869,0,0
84,155,0,0,0,0,0,0,0,0,0,-1,1308,869,0,0
91,155,0,0,0,0,0,0,0,0,0,-1,1315,869,0,0
98,155,0,0,0,0,0,0,0,0,0,-1,1322,869,0,0
105,155,0,0,0,0,0,0,0,0,0,-1,1329,869,0,0
112,155,0,0,0,0,0,0,0,0,0,-1,1336,869,0,0
119,155,0,0,0,0,0,0,0,0,0,-1,1343,869,0,0
126,155,0,0,0,0,0,0,0,0,0,-1,1350,869,0,0
133,155,0,0,0,0,0,0,0,0,0,-1,1357,869,0,0
140,155,0,0,0,0,0,0,0,0,0,-1,1364,869,0,0
147,155,0,0,0,0,0,0,0,0,0,-1,1371,869,0,0
154,155,0,0,0,0,0,0,0,0,0,-1,1378,869,0,0
161,155,0,0,0,0,0,0,0,0,0,-1,1385,869,0,0
168,155,0,0,0,0,0,0,0,0,0,-1,1392,869,0,0
175,155,0,0,0,0,0,0,0,0,0,-1,1399,869,0,0
182,155,0,0,0,0,0,0,0,0,0,-1,1406,869,0,0
189,155,0,0,0,0,0,0,0,0,0,-1,1413,869,0,0
196,155,0,0,0,0,0,0,0,0,0,-1,1420,869,0,0
203,155,0,0,0,0,0,0,0,0,0,-1,1427,869,0,0
210,155,0,0,0,0,0,0,0,0,0,-1,1434,869,0,0
217,155,0,0,0,0,0,0,0,0,0,-1,1441,869,0,0
224,155,0,0,0,0,0,0,0,0,0,-1,1448,869,0,0
231,155,0,0,0,0,0,0,0,0,0,-1,1455,869,0,0
238,155,0,0,0,0,0,0,0,0,0,-1,1462,869,0,0
245,155,0,0,0,0,0,0,0,0,0,-1,1469,869,0,0
252,155,0,0,0,0,0,0,0,0,0,-1,1476,869,0,0
259,155,0,0,0,0,0,0,0,0,0,-1,1483,869,0,0
266,155,0,0,0,0,0,0,0,0,0,-1,1490,869,0,0
273,155,0,0,0,0,0,0,0,0,0,-1,1497,869,0,0
280,155,0,0,0,0,0,0,0,0,0,-1,1504,869,0,0
287,155,0,0,0,0,0,0,0,0,0,-1,1511,869,0,0
294,155,0,0,0,0,0,0,0,0,0,-1,1518,869,0,0
301,155,0,0,0,0,0,0,0,0,0,-1,1525,869,0,0
308,155,0,0,0,0,0,0,0,0,0,-1,1532,869,0,0
315,155,0,0,0,0,0,0,0,0,0,-1,1539,869,0,0
322,155,0,0,0,0,0,0,0,0,0,-1,1546,869,0,0
329,155,0,0,0,0,0,0,0,0,0,-1,1553,869,0,0
336,155,0,0,0,0,0,0,0,0,0,-1,1560,869,0,0
343,155,0,0,0,0,0,0,0,0,0,-1,1567,869,0,0
350,155,0,0,0,0,0,0,0,0,0,-1,1574,869,0,0
357,155,0,0,0,0,0,0,0,0,0,-1,1581,869,0,0
364,155,0,0,0,0,0,0,0,0,0,-1,1588,869,0,0
371,155,0,0,0,0,0,0,0,0,0,-1,1595,869,0,0
378,155,0,0,0,0,0,0,0,0,0,-1,1602,869,0,0
385,155,0,0,0,0,0,0,0,0,0,-1,1609,869,0,0
392,155,0,0,0,0,0,0,0,0,0,-1,1616,869,0,0
399,155,0,0,0,0,0,0,0,0,0,-1,1623,869,0,0
406,155,0,0,0,0,0,0,0,0,0,-1,1630,869,0,0
413,155,0,0,0,0,0,0,0,0,0,-1,1637,869,0,0
420,155,0,0,0,0,0,0,0,0,0,-1,1644,869,0,0
427,155,0,0,0,0,0,0,0,0,0,-1,1651,869,0,0
434,155,0,0,0,0,0,0,0,0,0,-1,1658,869,0,0
441,155,0,0,0,0,0,0,0,0,0,-1,1665,869,0,0
448,155,0,0,0,0,0,0,0,0,0,-1,1672,869,0,0
455,155,0,0,0,0,0,0,0,0,0,-1,1679,869,0,0
462,155,0,0,0,0,0,0,0,0,0,-1,1686,869,0,0
469,155,0,0,0,0,0,0,0,0,0,-1,1693,869,0,0
476,155,0,0,0,0,0,0,0,0,0,-1,1700,869,0,0
483,155,0,0,0,0,0,0,0,0,0,-1,1707,869,0,0
490,155,0,0,0,0,0,0,0,0,0,-1,1714,869,0,0
497,155,0,0,0,0,0,0,0,0,0,-1,1721,869,0,0
504,155,0,0,0,0,0,0,0,0,0,-1,1728,869,0,0
511,155,0,0,0,0,0,0,0,0,0,-1,1735,869,0,0
518,155,0,0,0,0,0,0,0,0,0,-1,1742,869,0,0
525,155,0,0,0,0,0,0,0,0,0,-1,1749,869,0,0
532,155,0,0,0,0,0,0,0,0,0,-1,1756,869,0,0
539,155,0,0,0,0,0,0,0,0,0,-1,1763,869,0,0
546,155,0,0,0,0,0,0,0,0,0,-1,1770,869,0,0
553,155,0,0,0,0,0,0,0,0,0,-1,1777,869,0,0
560,155,0,0,0,0,0,0,0,0,0,-1,1784,869,0,0
567,155,0,0,0,0,0,0,0,0,0,-1,1791,869,0,0
574,155,0,0,0,0,0,0,0,0,0,-1,1798,869,0,0
581,155,0,0,0,0,0,0,0,0,0,-1,1805,869,0,0
588,155,0,0,0,0,0,0,0,0,0,-1,1812,869,0,0
595,155,0,0,0,0,0,0,0,0,0,-1,1819,869,0,0
602,155,0,0,0,0,0,0,0,0,0,-1,1826,869,0,0
609,155,0,0,0,0,0,0,0,0,0,-1,1833,869,0,0
616,155,46.7534,2.68518,-0.00658579,0.0021818,-0.00304913,0.00313793,-0.00754193,-1.26693,0.00633836,0.043121,1840,869,46.7534,-2.68516
623,155,46.5883,2.91266,-0.00457609,0.00182001,-0.0021709,0.00248724,-0.00524331,-1.27261,0.0045568,0.0427958,1847,869,46.5883,-2.91264
630,155,46.5164,2.93402,-0.00274943,0.0013677,-0.00146417,0.00183529,-0.00321702,-1.26168,0.00295309,0.0431496,1854,869,46.5163,-2.93401
637,155,46.5302,2.93762,-0.00133572,0.00108005,-0.000876273,0.00136443,-0.0016201,-1.25699,0.00172522,0.042744,1861,869,46.5301,-2.93762
644,155,46.6079,2.97992,-0.000622753,0.000746793,-0.000547691,0.000938878,-0.000814838,-1.23348,0.00101335,0.0389285,1868,869,46.6079,-2.97994
651,155,46.6785,3.03223,-0.000319233,0.000400547,-0.000404112,0.000581792,-0.000500478,-1.14919,0.000625437,0.035267,1875,869,46.6785,-3.0322
658,155,46.5955,2.99738,-0.000126205,0.000106614,-0.000356751,0.000365467,-0.000385058,-0.943104,0.000433365,0.0303086,1882,869,46.5955,-2.99738
665,155,46.5562,2.87817,-0.000175673,-7.05617e-05,-0.000380113,0.000260611,-0.000506846,-0.854094,0.00045063,0.0360582,1889,869,46.5561,-2.87819
672,155,46.598,2.7851,0,0,0,0,0,0,0,-1,1896,869,46.598,-2.7851
679,155,35.1565,2.78528,0,0,0,0,0,0,0,-1,1903,869,35.1565,-2.7853
686,155,39.3196,2.08014,0,0,0,0,0,0,0,-1,1910,869,39.3195,-2.08017
693,155,39.1943,2.44183,-0.000214338,-0.000385048,-0.00052715,0.000234322,-0.000833708,-0.705136,0.000648188,0.0409993,1917,869,39.1943,-2.44183
700,155,39.2327,2.93994,-0.000475346,-0.000408969,-0.000454515,1.35681e-05,-0.000897882,-0.821843,0.000603162,0.0293599,1924,869,39.2326,-2.93996
707,155,39.2701,3.44678,-0.000485475,-0.000422307,-0.000530512,7.75604e-05,-0.000985342,-0.81513,0.000684215,0.0211591,1931,869,39.2701,-3.44676
714,155,39.2614,3.85144,-0.000260268,-0.000120838,-0.000465692,0.000280328,-0.000661434,-0.859697,0.00055837,0.0391207,1938,869,39.2613,-3.85142
721,155,39.0135,4.32764,-0.000247866,0.00030447,-0.000279169,0.00042099,-0.000364386,-1.1754,0.00045383,0.030469,1945,869,39.0135,-4.32765
728,155,38.9543,4.81927,2.63944e-05,0.00262015,-0.00056873,0.00273938,-9.28302e-05,-1.36416,0.00185797,0.0196922,1952,869,38.9544,-4.81926
735,155,38.9719,5.2691,0.000796781,0.00758506,-0.0015765,0.00793332,0.000448523,-1.35338,0.00514589,0.0152539,1959,869,38.9719,-5.26912
742,155,38.9662,5.7478,0.00185645,0.0137687,-0.00277419,0.0143831,0.00124207,-1.35285,0.0092027,0.0167441,1966,869,38.9661,-5.74777
749,155,38.9196,6.21228,0.00354075,0.0233821,-0.00487552,0.0245155,0.00240745,-1.3424,0.0156032,0.0160617,1973,869,38.9196,-6.21227
756,155,38.9341,6.76569,0.00617565,0.0380794,-0.00839395,0.0401531,0.00410197,-1.3286,0.0255116,0.0278132,1980,869,38.9341,-6.76566
763,155,39.007,7.40308,0.0102967,0.060492,-0.0141015,0.0641822,0.00660644,-1.31484,0.0407648,0.0470496,1987,869,39.0069,-7.40309
770,155,39.067,8.04114,0,0,0,0,0,0,0,-1,1994,869,39.067,-8.04112
777,155,38.4683,10.1563,0.023692,0.140575,-0.0364845,0.151028,0.0132384,-1.29175,0.0965756,0.0469671,2001,869,38.4683,-10.1563
784,155,38.639,10.7643,0.0337307,0.204138,-0.0555565,0.22065,0.0172181,-1.28189,0.14171,0.0490257,2008,869,38.6391,-10.7643
791,155,0,0,0,0,0,0,0,0,0,-1,2015,869,0,0
798,155,0,0,0,0,0,0,0,0,0,-1,2022,869,0,0
805,155,0,0,0,0,0,0,0,0,0,-1,2029,869,0,0
812,155,0,0,0,0,0,0,0,0,0,-1,2036,869,0,0
-700,148,0,0,0,0,0,0,0,0,0,-1,524,876,0,0
-693,148,0,0,0,0,0,0,0,0,0,-1,531,876,0,0
-686,148,0,0,0,0,0,0,0,0,0,-1,538,876,0,0
-679,148,0,0,0,0,0,0,0,0,0,-1,545,876,0,0
-672,148,-33.704,5.52612,0.194038,0.0536526,-0.00162456,0.194057,0.0536338,-0.01157,0.115714,0.0440731,552,876,-33.704,-5.52614
-665,148,-31.6592,5.44788,0,0,0,0,0,0,0,-1,559,876,-31.6592,-5.4479
-658,148,-29.5147,5.00378,0.148758,0.0366091,-0.00435353,0.148927,0.0364404,-0.0387415,0.0896416,0.0491657,566,876,-29.5147,-5.00379
-651,148,-27.7159,4.57452,0.123787,0.0295483,-0.00433965,0.123986,0.0293489,-0.04592,0.0748186,0.0484387,573,876,-27.716,-4.57451
-644,148,-26.6522,4.02692,0,0,0,0,0,0,0,-1,580,876,-26.6522,-4.02692
-637,148,-27.6625,2.17377,0,0,0,0,0,0,0,-1,587,876,-27.6625,-2.17374
-630,148,-28.3298,4.828,0,0,0,0,0,0,0,-1,594,876,-28.3298,-4.82802
-623,148,-28.4769,4.1601,0.0366611,0.00941725,-0.00122608,0.0367162,0.00936219,-0.0448832,0.0220301,0.0254397,601,876,-28.4768,-4.16009
-616,148,-28.6093,3.55066,0.0205897,0.00473608,-0.000628875,0.0206146,0.00471118,-0.0395846,0.0124729,0.0129867,608,876,-28.6093,-3.55065
-609,148,-28.6896,3.04523,0.0107704,0.00306391,0.000478577,0.0108,0.00303431,0.0617843,0.00643174,0.0125525,615,876,-28.6896,-3.04521
-602,148,-28.7425,2.5849,0.00318875,0.00144727,0.0012127,0.00381094,0.00082508,0.474041,0.00231514,0.0146382,622,876,-28.7425,-2.58489
-595,148,-28.7521,2.146,0.000247353,8.69751e-05,0.00201266,0.00218142,-0.0018471,0.765488,0.00232854,0.0129787,629,876,-28.7521,-2.14597
-588,148,-28.7382,1.65314,0.000636751,-0.000793957,0.00235088,0.0023787,-0.00253591,0.637703,0.00283794,0.0224981,636,876,-28.7382,-1.65311
-581,148,-28.8975,1.32532,0.00137717,-0.00118331,0.00263481,0.00302631,-0.00283244,0.559248,0.00338317,0.0375375,643,876,-28.8975,-1.32531
-574,148,-28.6074,1.00928,0.00156214,-0.00140851,0.00274951,0.00320187,-0.00304824,0.537749,0.00360887,0.0426747,650,876,-28.6074,-1.00931
-567,148,-28.2633,0.809631,0,0,0,0,0,0,0,-1,657,876,-28.2633,-0.809656
-560,148,-28.9391,-0.0960693,0,0,0,0,0,0,0,-1,664,876,-28.9392,0.0960732
-553,148,-18.3896,-0.00280762,0,0,0,0,0,0,0,-1,671,876,-18.3897,0.00278524
-546,148,-34.653,0.937134,0,0,0,0,0,0,0,-1,678,876,-34.6529,-0.937153
-539,148,-34.64,0.966431,0.0024366,-0.00239094,0.00385673,0.00457263,-0.00452696,0.505789,0.00525367,0.0396333,685,876,-34.6399,-0.966461
-532,148,-34.6302,1.07166,0.00269675,-0.00229368,0.0042395,0.00512083,-0.00471776,0.519414,0.0056819,0.0378691,692,876,-34.6302,-1.07164
-525,148,-34.5566,1.2594,0.00250315,-0.00199195,0.00466521,0.00543399,-0.00492279,0.56092,0.00598191,0.0388624,699,876,-34.5566,-1.25938
-518,148,-34.6744,1.30219,0.00240207,-0.00116217,0.00522314,0.00613876,-0.00489885,0.620993,0.00638596,0.0434791,706,876,-34.6744,-1.30217
-511,148,-34.7369,1.30634,0.00347683,0.00038285,0.00546688,0.00761138,-0.00375171,0.647516,0.00668544,0.0410358,713,876,-34.737,-1.30631
-504,148,-34.7048,1.53033,0.00593411,0.00228513,0.00519942,0.00961986,-0.00140061,0.616659,0.00692747,0.0425803,720,876,-34.7048,-1.53036
-497,148,0,0,0,0,0,0,0,0,0,-1,727,876,0,0
-490,148,0,0,0,0,0,0,0,0,0,-1,734,876,0,0
-483,148,0,0,0,0,0,0,0,0,0,-1,741,876,0,0
-476,148,0,0,0,0,0,0,0,0,0,-1,748,876,0,0
-469,148,0,0,0,0,0,0,0,0,0,-1,755,876,0,0
-462,148,0,0,0,0,0,0,0,0,0,-1,762,876,0,0
-455,148,0,0,0,0,0,0,0,0,0,-1,769,876,0,0
-448,148,0,0,0,0,0,0,0,0,0,-1,776,876,0,0
-441,148,0,0,0,0,0,0,0,0,0,-1,783,876,0,0
-434,148,0,0,0,0,0,0,0,0,0,-1,790,876,0,0
-427,148,0,0,0,0,0,0,0,0,0,-1,797,876,0,0
-420,148,0,0,0,0,0,0,0,0,0,-1,804,876,0,0
-413,148,0,0,0,0,0,0,0,0,0,-1,811,876,0,0
-406,148,0,0,0,0,0,0,0,0,0,-1,818,876,0,0
-399,148,0,0,0,0,0,0,0,0,0,-1,825,876,0,0
-392,148,0,0,0,0,0,0,0,0,0,-1,832,876,0,0
-385,148,0,0,0,0,0,0,0,0,0,-1,839,876,0,0
-378,148,0,0,0,0,0,0,0,0,0,-1,846,876,0,0
-371,148,0,0,0,0,0,0,0,0,0,-1,853,876,0,0
-364,148,0,0,0,0,0,0,0,0,0,-1,860,876,0,0
-357,148,0,0,0,0,0,0,0,0,0,-1,867,876,0,0
-350,148,0,0,0,0,0,0,0,0,0,-1,874,876,0,0
-343,148,0,0,0,0,0,0,0,0,0,-1,881,876,0,0
-336,148,0,0,0,0,0,0,0,0,0,-1,888,876,0,0
-329,148,0,0,0,0,0,0,0,0,0,-1,895,876,0,0
-322,148,0,0,0,0,0,0,0,0,0,-1,902,876,0,0
-315,148,0,0,0,0,0,0,0,0,0,-1,909,876,0,0
-308,148,0,0,0,0,0,0,0,0,0,-1,916,876,0,0
-301,148,0,0,0,0,0,0,0,0,0,-1,923,876,0,0
-294,148,0,0,0,0,0,0,0,0,0,-1,930,876,0,0
-287,148,0,0,0,0,0,0,0,0,0,-1,937,876,0,0
-280,148,0,0,0,0,0,0,0,0,0,-1,944,876,0,0
-273,148,0,0,0,0,0,0,0,0,0,-1,951,876,0,0
-266,148,0,0,0,0,0,0,0,0,0,-1,958,876,0,0
-259,148,0,0,0,0,0,0,0,0,0,-1,965,876,0,0
-252,148,0,0,0,0,0,0,0,0,0,-1,972,876,0,0
-245,148,0,0,0,0,0,0,0,0,0,-1,979,876,0,0
-238,148,0,0,0,0,0,0,0,0,0,-1,986,876,0,0
-231,148,0,0,0,0,0,0,0,0,0,-1,993,876,0,0
-224,148,0,0,0,0,0,0,0,0,0,-1,1000,876,0,0
-217,148,0,0,0,0,0,0,0,0,0,-1,1007,876,0,0
-210,148,0,0,0,0,0,0,0,0,0,-1,1014,876,0,0
-203,148,0,0,0,0,0,0,0,0,0,-1,1021,876,0,0
-196,148,0,0,0,0,0,0,0,0,0,-1,1028,876,0,0
-189,148,0,0,0,0,0,0,0,0,0,-1,1035,876,0,0
-182,148,0,0,0,0,0,0,0,0,0,-1,1042,876,0,0
-175,148,0,0,0,0,0,0,0,0,0,-1,1049,876,0,0
-168,148,0,0,0,0,0,0,0,0,0,-1,1056,876,0,0
-161,148,0,0,0,0,0,0,0,0,0,-1,1063,876,0,0
-154,148,0,0,0,0,0,0,0,0,0,-1,1070,876,0,0
-147,148,0,0,0,0,0,0,0,0,0,-1,1077,876,0,0
-140,148,0,0,0,0,0,0,0,0,0,-1,1084,876,0,0
-133,148,0,0,0,0,0,0,0,0,0,-1,1091,876,0,0
-126,148,0,0,0,0,0,0,0,0,0,-1,1098,876,0,0
-119,148,0,0,0,0,0,0,0,0,0,-1,1105,876,0,0
-112,148,0,0,0,0,0,0,0,0,0,-1,1112,876,0,0
-105,148,0,0,0,0,0,0,0,0,0,-1,1119,876,0,0
-98,148,0,0,0,0,0,0,0,0,0,-1,1126,876,0,0
-91,148,0,0,0,0,0,0,0,0,0,-1,1133,876,0,0
-84,148,0,0,0,0,0,0,0,0,0,-1,1140,876,0,0
-77,148,0,0,0,0,0,0,0,0,0,-1,1147,876,0,0
-70,148,0,0,0,0,0,0,0,0,0,-1,1154,876,0,0
-63,148,0,0,0,0,0,0,0,0,0,-1,1161,876,0,0
-56,148,0,0,0,0,0,0,0,0,0,-1,1168,876,0,0
-49,148,0,0,0,0,0,0,0,0,0,-1,1175,876,0,0
-42,148,0,0,0,0,0,0,0,0,0,-1,1182,876,0,0
-35,148,0,0,0,0,0,0,0,0,0,-1,1189,876,0,0
-28,148,0,0,0,0,0,0,0,0,0,-1,1196,876,0,0
-21,148,0,0,0,0,0,0,0,0,0,-1,1203,876,0,0
-14,148,0,0,0,0,0,0,0,0,0,-1,1210,876,0,0
-7,148,0,0,0,0,0,0,0,0,0,-1,1217,876,0,0
0,148,0,0,0,0,0,0,0,0,0,-1,1224,876,0,0
7,148,0,0,0,0,0,0,0,0,0,-1,1231,876,0,0
14,148,0,0,0,0,0,0,0,0,0,-1,1238,876,0,0
21,148,0,0,0,0,0,0,0,0,0,-1,1245,876,0,0
28,148,0,0,0,0,0,0,0,0,0,-1,1252,876,0,0
35,148,0,0,0,0,0,0,0,0,0,-1,1259,876,0,0
42,148,0,0,0,0,0,0,0,0,0,-1,1266,876,0,0
49,148,0,0,0,0,0,0,0,0,0,-1,1273,876,0,0
56,148,0,0,0,0,0,0,0,0,0,-1,1280,876,0,0
63,148,0,0,0,0,0,0,0,0,0,-1,1287,876,0,0
70,148,0,0,0,0,0,0,0,0,0,-1,1294,876,0,0
77,148,0,0,0,0,0,0,0,0,0,-1,1301,876,0,0
84,148,0,0,0,0,0,0,0,0,0,-1,1308,876,0,0
91,148,0,0,0,0,0,0,0,0,0,-1,1315,876,0,0
98,148,0,0,0,0,0,0,0,0,0,-1,1322,876,0,0
105,148,0,0,0,0,0,0,0,0,0,-1,1329,876,0,0
112,148,0,0,0,0,0,0,0,0,0,-1,1336,876,0,0
119,148,0,0,0,0,0,0,0,0,0,-1,1343,876,0,0
126,148,0,0,0,0,0,0,0,0,0,-1,1350,876,0,0
133,148,0,0,0,0,0,0,0,0,0,-1,1357,876,0,0
140,148,0,0,0,0,0,0,0,0,0,-1,1364,876,0,0
147,148,0,0,0,0,0,0,0,0,0,-1,1371,876,0,0
154,148,0,0,0,0,0,0,0,0,0,-1,1378,876,0,0
161,148,0,0,0,0,0,0,0,0,0,-1,1385,876,0,0
168,148,0,0,0,0,0,0,0,0,0,-1,1392,876,0,0
175,148,0,0,0,0,0,0,0,0,0,-1,1399,876,0,0
182,148,0,0,0,0,0,0,0,0,0,-1,1406,876,0,0
189,148,0,0,0,0,0,0,0,0,0,-1,1413,876,0,0
196,148,0,0,0,0,0,0,0,0,0,-1,1420,876,0,0
203,148,0,0,0,0,0,0,0,0,0,-1,1427,876,0,0
210,148,0,0,0,0,0,0,0,0,0,-1,1434,876,0,0
217,148,0,0,0,0,0,0,0,0,0,-1,1441,876,0,0
224,148,0,0,0,0,0,0,0,0,0,-1,1448,876,0,0
231,148,0,0,0,0,0,0,0,0,0,-1,1455,876,0,0
238,148,0,0,0,0,0,0,0,0,0,-1,1462,876,0,0
245,148,0,0,0,0,0,0,0,0,0,-1,1469,876,0,0
252,148,0,0,0,0,0,0,0,0,0,-1,1476,876,0,0
259,148,0,0,0,0,0,0,0,0,0,-1,1483,876,0,0
266,148,0,0,0,0,0,0,0,0,0,-1,1490,876,0,0
273,148,0,0,0,0,0,0,0,0,0,-1,1497,876,0,0
280,148,0,0,0,0,0,0,0,0,0,-1,1504,876,0,0
287,148,0,0,0,0,0,0,0,0,0,-1,1511,876,0,0
294,148,0,0,0,0,0,0,0,0,0,-1,1518,876,0,0
301,148,0,0,0,0,0,0,0,0,0,-1,1525,876,0,0
308,148,0,0,0,0,0,0,0,0,0,-1,1532,876,0,0
315,148,0,0,0,0,0,0,0,0,0,-1,1539,876,0,0
322,148,0,0,0,0,0,0,0,0,0,-1,1546,876,0,0
329,148,0,0,0,0,0,0,0,0,0,-1,1553,876,0,0
336,148,0,0,0,0,0,0,0,0,0,-1,1560,876,0,0
343,148,0,0,0,0,0,0,0,0,0,-1,1567,876,0,0
350,148,0,0,0,0,0,0,0,0,0,-1,1574,876,0,0
357,148,0,0,0,0,0,0,0,0,0,-1,1581,876,0,0
364,148,0,0,0,0,0,0,0,0,0,-1,1588,876,0,0
371,148,0,0,0,0,0,0,0,0,0,-1,1595,876,0,0
378,148,0,0,0,0,0,0,0,0,0,-1,1602,876,0,0
385,148,0,0,0,0,0,0,0,0,0,-1,1609,876,0,0
392,148,0,0,0,0,0,0,0,0,0,-1,1616,876,0,0
399,148,0,0,0,0,0,0,0,0,0,-1,1623,876,0,0
406,148,0,0,0,0,0,0,0,0,0,-1,1630,876,0,0
413,148,0,0,0,0,0,0,0,0,0,-1,1637,876,0,0
420,148,0,0,0,0,0,0,0,0,0,-1,1644,876,0,0
427,148,0,0,0,0,0,0,0,0,0,-1,1651,876,0,0
434,148,0,0,0,0,0,0,0,0,0,-1,1658,876,0,0
441,148,0,0,0,0,0,0,0,0,0,-1,1665,876,0,0
448,148,0,0,0,0,0,0,0,0,0,-1,1672,876,0,0
455,148,0,0,0,0,0,0,0,0,0,-1,1679,876,0,0
462,148,0,0,0,0,0,0,0,0,0,-1,1686,876,0,0
469,148,0,0,0,0,0,0,0,0,0,-1,1693,876,0,0
476,148,0,0,0,0,0,0,0,0,0,-1,1700,876,0,0
483,148,0,0,0,0,0,0,0,0,0,-1,1707,876,0,0
490,148,0,0,0,0,0,0,0,0,0,-1,1714,876,0,0
497,148,0,0,0,0,0,0,0,0,0,-1,1721,876,0,0
504,148,0,0,0,0,0,0,0,0,0,-1,1728,876,0,0
511,148,0,0,0,0,0,0,0,0,0,-1,1735,876,0,0
518,148,0,0,0,0,0,0,0,0,0,-1,1742,876,0,0
525,148,0,0,0,0,0,0,0,0,0,-1,1749,876,0,0
532,148,0,0,0,0,0,0,0,0,0,-1,1756,876,0,0
539,148,0,0,0,0,0,0,0,0,0,-1,1763,876,0,0
546,148,0,0,0,0,0,0,0,0,0,-1,1770,876,0,0
553,148,0,0,0,0,0,0,0,0,0,-1,1777,876,0,0
560,148,0,0,0,0,0,0,0,0,0,-1,1784,876,0,0
567,148,0,0,0,0,0,0,0,0,0,-1,1791,876,0,0
574,148,0,0,0,0,0,0,0,0,0,-1,1798,876,0,0
581,148,0,0,0,0,0,0,0,0,0,-1,1805,876,0,0
588,148,0,0,0,0,0,0,0,0,0,-1,1812,876,0,0
595,148,0,0,0,0,0,0,0,0,0,-1,1819,876,0,0
602,148,0,0,0,0,0,0,0,0,0,-1,1826,876,0,0
609,148,0,0,0,0,0,0,0,0,0,-1,1833,876,0,0
616,148,0,0,0,0,0,0,0,0,0,-1,1840,876,0,0
623,148,46.6033,3.00952,-0.00578,0.0021503,-0.00278996,0.00303348,-0.00666318,-1.26422,0.00572762,0.0421178,1847,876,46.6032,-3.00954
630,148,46.3878,3.03113,-0.00367837,0.00177846,-0.00200857,0.00243805,-0.00433797,-1.2535,0.00396307,0.0419887,1854,876,46.3879,-3.03114
637,148,46.3882,2.9881,-0.00200497,0.00150124,-0.00134942,0.00196045,-0.00246418,-1.24279,0.00256007,0.0377059,1861,876,46.3882,-2.9881
644,148,46.5067,2.98181,-0.00103255,0.00116774,-0.000893065,0.00148459,-0.00134941,-1.22986,0.00163683,0.0366421,1868,876,46.5067,-2.98181
651,148,46.6388,2.92944,-0.000535019,0.00080796,-0.000625455,0.00105413,-0.000781185,-1.19584,0.00106352,0.0397287,1875,876,46.6388,-2.92944
658,148,46.5811,2.9339,-0.000190546,0.000485555,-0.000457709,0.000716518,-0.000421509,-1.10347,0.000664358,0.0366314,1882,876,46.581,-2.93393
665,148,46.5206,2.97522,-0.000108013,0.000259675,-0.000387794,0.000504996,-0.000353335,-1.00675,0.00049813,0.027293,1889,876,46.5206,-2.97524
672,148,46.5999,2.83612,-6.95502e-05,-3.7991e-05,-0.000289788,0.000236446,-0.000343988,-0.812597,0.000337026,0.0333794,1896,876,46.5999,-2.83611
679,148,46.6284,2.66492,0,0,0,0,0,0,0,-1,1903,876,46.6285,-2.6649
686,148,21.6195,2.40845,0,0,0,0,0,0,0,-1,1910,876,21.6196,-2.40846
693,148,39.1993,2.34967,0,0,0,0,0,0,0,-1,1917,876,39.1993,-2.34969
700,148,39.7556,3.00146,-9.64445e-05,-0.00025207,-0.000223078,6.20024e-05,-0.000410517,-0.617589,0.000296514,0.0318493,1924,876,39.7557,-3.00147
707,148,39.8557,3.62036,-8.12082e-05,-0.00028818,-0.000302775,0.000135278,-0.000504667,-0.620726,0.000389449,0.0266002,1931,876,39.8557,-3.62039
714,148,39.754,3.94287,8.94419e-05,-2.03206e-06,-0.000302356,0.000349501,-0.000262091,-0.710333,0.000354303,0.0261889,1938,876,39.754,-3.94288
721,148,39.5,4.34192,2.09849e-05,0.000395188,-0.000218305,0.0004956,-7.94273e-05,-1.13969,0.00035981,0.0220809,1945,876,39.5,-4.34193
728,148,39.4747,4.80579,0.000145321,0.00261449,-0.000602706,0.00275375,6.05872e-06,-1.34372,0.00183382,0.0217824,1952,876,39.4747,-4.80576
735,148,39.4917,5.2926,0.000682728,0.00738634,-0.00169612,0.00779105,0.000278018,-1.33657,0.00510389,0.0195287,1959,876,39.4918,-5.29262
742,148,39.4346,5.75781,0.00144435,0.0135129,-0.00304004,0.0142354,0.000721827,-1.33746,0.00925904,0.0198002,1966,876,39.4346,-5.75779
749,148,39.3788,6.19696,0.00278595,0.0229753,-0.00523786,0.0242533,0.00150796,-1.33148,0.0156904,0.019394,1973,876,39.3788,-6.19699
756,148,39.3893,6.73663,0.00502243,0.0371436,-0.00873606,0.0393659,0.00280021,-1.32171,0.0253621,0.0243318,1980,876,39.3893,-6.73663
763,148,39.5126,7.44214,0.00870129,0.0584337,-0.0142276,0.0622163,0.00491872,-1.31095,0.039939,0.0422177,1987,876,39.5125,-7.44216
770,148,39.8549,8.28827,0,0,0,0,0,0,0,-1,1994,876,39.8548,-8.28829
777,148,40.1067,8.73126,0.0212608,0.133891,-0.0353865,0.144086,0.0110658,-1.29029,0.0925892,0.0414769,2001,876,40.1067,-8.73126
784,148,40.4189,9.19659,0.0309211,0.19374,-0.0533282,0.209651,0.0150094,-1.28083,0.135043,0.0470473,2008,876,40.4189,-9.19662
791,148,40.6108,9.98114,0,0,0,0,0,0,0,-1,2015,876,40.6108,-9.98111
798,148,0,0,0,0,0,0,0,0,0,-1,2022,876,0,0
805,148,0,0,0,0,0,0,0,0,0,-1,2029,876,0,0
812,148,0,0,0,0,0,0,0,0,0,-1,2036,876,0,0
-700,141,0,0,0,0,0,0,0,0,0,-1,524,883,0,0
-693,141,0,0,0,0,0,0,0,0,0,-1,531,883,0,0
-686,141,0,0,0,0,0,0,0,0,0,-1,538,883,0,0
-679,141,0,0,0,0,0,0,0,0,0,-1,545,883,0,0
-672,141,-33.8053,4.2785,0,0,0,0,0,0,0,-1,552,883,-33.8053,-4.27851
-665,141,-31.6146,5.25293,0,0,0,0,0,0,0,-1,559,883,-31.6146,-5.25291
-658,141,-29.4955,4.8045,0,0,0,0,0,0,0,-1,566,883,-29.4955,-4.80449
-651,141,-27.5794,4.11786,0,0,0,0,0,0,0,-1,573,883,-27.5794,-4.11785
-644,141,-34.8275,0.190125,0,0,0,0,0,0,0,-1,580,883,-34.8274,-0.190102
-637,141,-28.5857,5.26941,0,0,0,0,0,0,0,-1,587,883,-28.5857,-5.2694
-630,141,-28.8211,4.79248,0,0,0,0,0,0,0,-1,594,883,-28.8211,-4.79245
-623,141,-28.9034,4.08502,0.0285821,0.0105999,-0.00239835,0.0288965,0.0102855,-0.130339,0.0169126,0.0284909,601,883,-28.9034,-4.08503
-616,141,-29.089,3.51404,0.0151729,0.00593636,-0.00127815,0.0153465,0.00576275,-0.135,0.00895141,0.0133308,608,883,-29.089,-3.51406
-609,141,-29.1625,3.06586,0.00733593,0.00385285,0.000236858,0.00735197,0.00383682,0.0675878,0.00424601,0.0138059,615,883,-29.1625,-3.06585
-602,141,-29.1968,2.6156,0.00120123,0.00166762,0.00121568,0.00267227,0.00019658,0.880158,0.00171974,0.0147289,622,883,-29.1968,-2.6156
-595,141,-29.1871,2.15533,-0.000809284,0.00017684,0.00197031,0.00171485,-0.00234729,0.908003,0.00235473,0.014168,629,883,-29.1871,-2.15535
-588,141,-29.465,1.69177,-0.000286775,-0.000665268,0.00223395,0.00176593,-0.00271798,0.743142,0.00260816,0.0267465,636,883,-29.465,-1.69178
-581,141,-29.4416,1.28955,0.000402768,-0.00101367,0.00249437,0.00228751,-0.00289841,0.647075,0.00300101,0.0365645,643,883,-29.4416,-1.28956
-574,141,-29.102,1.0285,0.000602828,-0.00115123,0.00259257,0.00246269,-0.00301109,0.622297,0.00316557,0.048856,650,883,-29.102,-1.02853
-567,141,-29.1225,0.591003,0,0,0,0,0,0,0,-1,657,883,-29.1225,-0.591017
-560,141,-29.1035,0.260315,0,0,0,0,0,0,0,-1,664,883,-29.1034,-0.260303
-553,141,-32.0876,1.39459,0,0,0,0,0,0,0,-1,671,883,-32.0876,-1.3946
-546,141,-34.6065,1.00989,0,0,0,0,0,0,0,-1,678,883,-34.6065,-1.00987
-539,141,-34.5968,1.04633,0.00190982,-0.00182096,0.00322078,0.0037664,-0.00367754,0.522915,0.00429787,0.0335048,685,883,-34.5968,-1.04632
-532,141,-34.633,1.09082,0.00222071,-0.00159657,0.00342069,0.00422921,-0.00360507,0.530928,0.00452791,0.0332788,692,883,-34.633,-1.09085
-525,141,-34.628,1.16724,0.00195539,-0.00109242,0.00354355,0.00428882,-0.00342584,0.582328,0.00446334,0.0397889,699,883,-34.628,-1.16725
-518,141,-34.7502,1.2887,0.00176706,5.45779e-05,0.00363638,0.00464664,-0.00282501,0.669772,0.00435629,0.0433862,706,883,-34.7502,-1.28872
-511,141,-34.7629,1.46204,0.00265249,0.00200609,0.00324146,0.00558682,-0.000928242,0.735709,0.0040694,0.0395573,713,883,-34.7629,-1.46203
-504,141,-34.5942,1.57556,0.00476999,0.00414484,0.00234354,0.00682171,0.00209312,0.719101,0.0040353,0.0407026,720,883,-34.5943,-1.57554
-497,141,0,0,0,0,0,0,0,0,0,-1,727,883,0,0
-490,141,0,0,0,0,0,0,0,0,0,-1,734,883,0,0
-483,141,0,0,0,0,0,0,0,0,0,-1,741,883,0,0
-476,141,0,0,0,0,0,0,0,0,0,-1,748,883,0,0
-469,141,0,0,0,0,0,0,0,0,0,-1,755,883,0,0
-462,141,0,0,0,0,0,0,0,0,0,-1,762,883,0,0
-455,141,0,0,0,0,0,0,0,0,0,-1,769,883,0,0
-448,141,0,0,0,0,0,0,0,0,0,-1,776,883,0,0
-441,141,0,0,0,0,0,0,0,0,0,-1,783,883,0,0
-434,141,0,0,0,0,0,0,0,0,0,-1,790,883,0,0
-427,141,0,0,0,0,0,0,0,0,0,-1,797,883,0,0
-420,141,0,0,0,0,0,0,0,0,0,-1,804,883,0,0
-413,141,0,0,0,0,0,0,0,0,0,-1,811,883,0,0
-406,141,0,0,0,0,0,0,0,0,0,-1,818,883,0,0
-399,141,0,0,0,0,0,0,0,0,0,-1,825,883,0,0
-392,141,0,0,0,0,0,0,0,0,0,-1,832,883,0,0
-385,141,0,0,0,0,0,0,0,0,0,-1,839,883,0,0
-378,141,0,0,0,0,0,0,0,0,0,-1,846,883,0,0
-371,141,0,0,0,0,0,0,0,0,0,-1,853,883,0,0
-364,141,0,0,0,0,0,0,0,0,0,-1,860,883,0,0
-357,141,0,0,0,0,0,0,0,0,0,-1,867,883,0,0
-350,141,0,0,0,0,0,0,0,0,0,-1,874,883,0,0
-343,141,0,0,0,0,0,0,0,0,0,-1,881,883,0,0
-336,141,0,0,0,0,0,0,0,0,0,-1,888,883,0,0
-329,141,0,0,0,0,0,0,0,0,0,-1,895,883,0,0
-322,141,0,0,0,0,0,0,0,0,0,-1,902,883,0,0
-315,141,0,0,0,0,0,0,0,0,0,-1,909,883,0,0
-308,141,0,0,0,0,0,0,0,0,0,-1,916,883,0,0
-301,141,0,0,0,0,0,0,0,0,0,-1,923,883,0,0
-294,141,0,0,0,0,0,0,0,0,0,-1,930,883,0,0
-287,141,0,0,0,0,0,0,0,0,0,-1,937,883,0,0
-280,141,0,0,0,0,0,0,0,0,0,-1,944,883,0,0
-273,141,0,0,0,0,0,0,0,0,0,-1,951,883,0,0
-266,141,0,0,0,0,0,0,0,0,0,-1,958,883,0,0
-259,141,0,0,0,0,0,0,0,0,0,-1,965,883,0,0
-252,141,0,0,0,0,0,0,0,0,0,-1,972,883,0,0
-245,141,0,0,0,0,0,0,0,0,0,-1,979,883,0,0
-238,141,0,0,0,0,0,0,0,0,0,-1,986,883,0,0
-231,141,0,0,0,0,0,0,0,0,0,-1,993,883,0,0
-224,141,0,0,0,0,0,0,0,0,0,-1,1000,883,0,0
-217,141,0,0,0,0,0,0,0,0,0,-1,1007,883,0,0
-210,141,0,0,0,0,0,0,0,0,0,-1,1014,883,0,0
-203,141,0,0,0,0,0,0,0,0,0,-1,1021,883,0,0
-196,141,0,0,0,0,0,0,0,0,0,-1,1028,883,0,0
-189,141,0,0,0,0,0,0,0,0,0,-1,1035,883,0,0
-182,141,0,0,0,0,0,0,0,0,0,-1,1042,883,0,0
-175,141,0,0,0,0,0,0,0,0,0,-1,1049,883,0,0
-168,141,0,0,0,0,0,0,0,0,0,-1,1056,883,0,0
-161,141,0,0,0,0,0,0,0,0,0,-1,1063,883,0,0
-154,141,0,0,0,0,0,0,0,0,0,-1,1070,883,0,0
-147,141,0,0,0,0,0,0,0,0,0,-1,1077,883,0,0
-140,141,0,0,0,0,0,0,0,0,0,-1,1084,883,0,0
-133,141,0,0,0,0,0,0,0,0,0,-1,1091,883,0,0
-126,141,0,0,0,0,0,0,0,0,0,-1,1098,883,0,0
-119,141,0,0,0,0,0,0,0,0,0,-1,1105,883,0,0
-112,141,0,0,0,0,0,0,0,0,0,-1,1112,883,0,0
-105,141,0,0,0,0,0,0,0,0,0,-1,1119,883,0,0
-98,141,0,0,0,0,0,0,0,0,0,-1,1126,883,0,0
-91,141,0,0,0,0,0,0,0,0,0,-1,1133,883,0,0
-84,141,0,0,0,0,0,0,0,0,0,-1,1140,883,0,0
-77,141,0,0,0,0,0,0,0,0,0,-1,1147,883,0,0
-70,141,0,0,0,0,0,0,0,0,0,-1,1154,883,0,0
-63,141,0,0,0,0,0,0,0,0,0,-1,1161,883,0,0
-56,141,0,0,0,0,0,0,0,0,0,-1,1168,883,0,0
-49,141,0,0,0,0,0,0,0,0,0,-1,1175,883,0,0
-42,141,0,0,0,0,0,0,0,0,0,-1,1182,883,0,0
-35,141,0,0,0,0,0,0,0,0,0,-1,1189,883,0,0
-28,141,0,0,0,0,0,0,0,0,0,-1,1196,883,0,0
-21,141,0,0,0,0,0,0,0,0,0,-1,1203,883,0,0
-14,141,0,0,0,0,0,0,0,0,0,-1,1210,883,0,0
-7,141,0,0,0,0,0,0,0,0,0,-1,1217,883,0,0
0,141,0,0,0,0,0,0,0,0,0,-1,1224,883,0,0
7,141,0,0,0,0,0,0,0,0,0,-1,1231,883,0,0
14,141,0,0,0,0,0,0,0,0,0,-1,1238,883,0,0
21,141,0,0,0,0,0,0,0,0,0,-1,1245,883,0,0
28,141,0,0,0,0,0,0,0,0,0,-1,1252,883,0,0
35,141,0,0,0,0,0,0,0,0,0,-1,1259,883,0,0
42,141,0,0,0,0,0,0,0,0,0,-1,1266,883,0,0
49,141,0,0,0,0,0,0,0,0,0,-1,1273,883,0,0
56,141,0,0,0,0,0,0,0,0,0,-1,1280,883,0,0
63,141,0,0,0,0,0,0,0,0,0,-1,1287,883,0,0
70,141,0,0,0,0,0,0,0,0,0,-1,1294,883,0,0
77,141,0,0,0,0,0,0,0,0,0,-1,1301,883,0,0
84,141,0,0,0,0,0,0,0,0,0,-1,1308,883,0,0
91,141,0,0,0,0,0,0,0,0,0,-1,1315,883,0,0
98,141,0,0,0,0,0,0,0,0,0,-1,1322,883,0,0
105,141,0,0,0,0,0,0,0,0,0,-1,1329,883,0,0
112,141,0,0,0,0,0,0,0,0,0,-1,1336,883,0,0
119,141,0,0,0,0,0,0,0,0,0,-1,1343,883,0,0
126,141,0,0,0,0,0,0,0,0,0,-1,1350,883,0,0
133,141,0,0,0,0,0,0,0,0,0,-1,1357,883,0,0
140,141,0,0,0,0,0,0,0,0,0,-1,1364,883,0,0
147,141,0,0,0,0,0,0,0,0,0,-1,1371,883,0,0
154,141,0,0,0,0,0,0,0,0,0,-1,1378,883,0,0
161,141,0,0,0,0,0,0,0,0,0,-1,1385,883,0,0
168,141,0,0,0,0,0,0,0,0,0,-1,1392,883,0,0
175,141,0,0,0,0,0,0,0,0,0,-1,1399,883,0,0
182,141,0,0,0,0,0,0,0,0,0,-1,1406,883,0,0
189,141,0,0,0,0,0,0,0,0,0,-1,1413,883,0,0
196,141,0,0,0,0,0,0,0,0,0,-1,1420,883,0,0
203,141,0,0,0,0,0,0,0,0,0,-1,1427,883,0,0
210,141,0,0,0,0,0,0,0,0,0,-1,1434,883,0,0
217,141,0,0,0,0,0,0,0,0,0,-1,1441,883,0,0
224,141,0,0,0,0,0,0,0,0,0,-1,1448,883,0,0
231,141,0,0,0,0,0,0,0,0,0,-1,1455,883,0,0
238,141,0,0,0,0,0,0,0,0,0,-1,1462,883,0,0
245,141,0,0,0,0,0,0,0,0,0,-1,1469,883,0,0
252,141,0,0,0,0,0,0,0,0,0,-1,1476,883,0,0
259,141,0,0,0,0,0,0,0,0,0,-1,1483,883,0,0
266,141,0,0,0,0,0,0,0,0,0,-1,1490,883,0,0
273,141,0,0,0,0,0,0,0,0,0,-1,1497,883,0,0
280,141,0,0,0,0,0,0,0,0,0,-1,1504,883,0,0
287,141,0,0,0,0,0,0,0,0,0,-1,1511,883,0,0
294,141,0,0,0,0,0,0,0,0,0,-1,1518,883,0,0
301,141,0,0,0,0,0,0,0,0,0,-1,1525,883,0,0
308,141,0,0,0,0,0,0,0,0,0,-1,1532,883,0,0
315,141,0,0,0,0,0,0,0,0,0,-1,1539,883,0,0
322,141,0,0,0,0,0,0,0,0,0,-1,1546,883,0,0
329,141,0,0,0,0,0,0,0,0,0,-1,1553,883,0,0
336,141,0,0,0,0,0,0,0,0,0,-1,1560,883,0,0
343,141,0,0,0,0,0,0,0,0,0,-1,1567,883,0,0
350,141,0,0,0,0,0,0,0,0,0,-1,1574,883,0,0
357,141,0,0,0,0,0,0,0,0,0,-1,1581,883,0,0
364,141,0,0,0,0,0,0,0,0,0,-1,1588,883,0,0
371,141,0,0,0,0,0,0,0,0,0,-1,1595,883,0,0
378,141,0,0,0,0,0,0,0,0,0,-1,1602,883,0,0
385,141,0,0,0,0,0,0,0,0,0,-1,1609,883,0,0
392,141,0,0,0,0,0,0,0,0,0,-1,1616,883,0,0
399,141,0,0,0,0,0,0,0,0,0,-1,1623,883,0,0
406,141,0,0,0,0,0,0,0,0,0,-1,1630,883,0,0
413,141,0,0,0,0,0,0,0,0,0,-1,1637,883,0,0
420,141,0,0,0,0,0,0,0,0,0,-1,1644,883,0,0
427,141,0,0,0,0,0,0,0,0,0,-1,1651,883,0,0
434,141,0,0,0,0,0,0,0,0,0,-1,1658,883,0,0
441,141,0,0,0,0,0,0,0,0,0,-1,1665,883,0,0
448,141,0,0,0,0,0,0,0,0,0,-1,1672,883,0,0
455,141,0,0,0,0,0,0,0,0,0,-1,1679,883,0,0
462,141,0,0,0,0,0,0,0,0,0,-1,1686,883,0,0
469,141,0,0,0,0,0,0,0,0,0,-1,1693,883,0,0
476,141,0,0,0,0,0,0,0,0,0,-1,1700,883,0,0
483,141,0,0,0,0,0,0,0,0,0,-1,1707,883,0,0
490,141,0,0,0,0,0,0,0,0,0,-1,1714,883,0,0
497,141,0,0,0,0,0,0,0,0,0,-1,1721,883,0,0
504,141,0,0,0,0,0,0,0,0,0,-1,1728,883,0,0
511,141,0,0,0,0,0,0,0,0,0,-1,1735,883,0,0
518,141,0,0,0,0,0,0,0,0,0,-1,1742,883,0,0
525,141,0,0,0,0,0,0,0,0,0,-1,1749,883,0,0
532,141,0,0,0,0,0,0,0,0,0,-1,1756,883,0,0
539,141,0,0,0,0,0,0,0,0,0,-1,1763,883,0,0
546,141,0,0,0,0,0,0,0,0,0,-1,1770,883,0,0
553,141,0,0,0,0,0,0,0,0,0,-1,1777,883,0,0
560,141,0,0,0,0,0,0,0,0,0,-1,1784,883,0,0
567,141,0,0,0,0,0,0,0,0,0,-1,1791,883,0,0
574,141,0,0,0,0,0,0,0,0,0,-1,1798,883,0,0
581,141,0,0,0,0,0,0,0,0,0,-1,1805,883,0,0
588,141,0,0,0,0,0,0,0,0,0,-1,1812,883,0,0
595,141,0,0,0,0,0,0,0,0,0,-1,1819,883,0,0
602,141,0,0,0,0,0,0,0,0,0,-1,1826,883,0,0
609,141,0,0,0,0,0,0,0,0,0,-1,1833,883,0,0
616,141,0,0,0,0,0,0,0,0,0,-1,1840,883,0,0
623,141,46.6567,3.00653,-0.00644362,0.00243864,-0.00336932,0.00357209,-0.00757707,-1.24629,0.00657395,0.0462567,1847,883,46.6568,-3.00655
630,141,46.4525,3.12207,-0.0041298,0.0020664,-0.00250813,0.0029544,-0.00501779,-1.23052,0.00465385,0.0473324,1854,883,46.4525,-3.12204
637,141,46.3831,3.09644,-0.00237723,0.00181249,-0.00179135,0.00247396,-0.0030387,-1.21707,0.0031883,0.0422767,1861,883,46.3831,-3.09646
644,141,46.4919,2.9433,-0.00129613,0.00151515,-0.00120085,0.00195826,-0.00173924,-1.2173,0.002136,0.0392786,1868,883,46.4919,-2.94332
651,141,46.7578,2.87433,-0.000686668,0.00117085,-0.000778216,0.00145379,-0.000969607,-1.22208,0.00140843,0.0411663,1875,883,46.7578,-2.8743
658,141,46.6842,2.88751,-0.000226085,0.000842228,-0.00045656,0.00101076,-0.000394616,-1.21718,0.000836983,0.0397399,1882,883,46.6842,-2.88749
665,141,46.5253,2.96631,-8.67278e-06,0.000583057,-0.000261486,0.000682048,-0.000107663,-1.2089,0.000494508,0.0304945,1889,883,46.5253,-2.96634
672,141,46.5229,2.95276,0.000134417,0.000257017,-9.19757e-05,0.000306249,8.51856e-05,-1.07933,0.000182522,0.0267355,1896,883,46.5229,-2.95276
679,141,46.4867,2.93243,0.000402211,8.59494e-05,-6.47355e-05,0.000414949,7.32118e-05,-0.194283,0.000255746,0.0463897,1903,883,46.4867,-2.93246
686,141,46.491,2.85907,0,0,0,0,0,0,0,-1,1910,883,46.4909,-2.85908
693,141,39.7587,2.32214,0,0,0,0,0,0,0,-1,1917,883,39.7586,-2.32217
700,141,40.1844,2.99182,0.000233307,-0.000124892,0.000119094,0.000269289,-0.000160874,0.293411,0.00025097,0.0311591,1924,883,40.1845,-2.99184
707,141,40.1672,3.57843,0.000262055,-0.00017041,1.55751e-05,0.000262616,-0.00017097,0.0359527,0.000252188,0.0267128,1931,883,40.1672,-3.57845
714,141,39.952,3.91827,0.000420236,9.69985e-05,-5.05095e-05,0.000427945,8.92896e-05,-0.151453,0.000260681,0.0253022,1938,883,39.9521,-3.9183
721,141,39.9236,4.34277,0.000330454,0.00045263,-6.27024e-05,0.000479083,0.000304002,-1.17158,0.000279917,0.0160952,1945,883,39.9235,-4.34279
728,141,39.9773,4.78943,0.000414919,0.00245183,-0.000496892,0.00256658,0.00030017,-1.34384,0.00162029,0.0168592,1952,883,39.9773,-4.78941
735,141,39.9568,5.31555,0.000852185,0.00674668,-0.00157266,0.00714002,0.000458845,-1.32571,0.00461468,0.0174748,1959,883,39.9567,-5.31556
742,141,39.9126,5.7757,0.00153242,0.0126156,-0.00292702,0.0133412,0.000806902,-1.32782,0.00863772,0.0172843,1966,883,39.9125,-5.77569
749,141,39.9146,6.19275,0.00280761,0.0217076,-0.00497897,0.022939,0.00157619,-1.32834,0.0147953,0.0145228,1973,883,39.9145,-6.19277
756,141,39.9116,6.67657,0.00494879,0.0349192,-0.00811214,0.036974,0.00289395,-1.32271,0.0237436,0.0218557,1980,883,39.9117,-6.67655
763,141,39.9301,7.22821,0.00847759,0.0542429,-0.0128124,0.0575857,0.00513481,-1.31558,0.0367985,0.0449952,1987,883,39.9301,-7.22823
770,141,39.9393,7.77008,0,0,0,0,0,0,0,-1,1994,883,39.9393,-7.77009
777,141,41.9054,7.27954,0,0,0,0,0,0,0,-1,2001,883,41.9054,-7.27954
784,141,42.7319,7.87225,0,0,0,0,0,0,0,-1,2008,883,42.7319,-7.87224
791,141,42.5815,7.74707,0,0,0,0,0,0,0,-1,2015,883,42.5815,-7.74706
798,141,0,0,0,0,0,0,0,0,0,-1,2022,883,0,0
805,141,0,0,0,0,0,0,0,0,0,-1,2029,883,0,0
812,141,0,0,0,0,0,0,0,0,0,-1,2036,883,0,0
-700,134,0,0,0,0,0,0,0,0,0,-1,524,890,0,0
-693,134,0,0,0,0,0,0,0,0,0,-1,531,890,0,0
-686,134,0,0,0,0,0,0,0,0,0,-1,538,890,0,0
-679,134,0,0,0,0,0,0,0,0,0,-1,545,890,0,0
-672,134,-34.0826,3.20721,0.130383,0.0339612,-0.0121396,0.131887,0.0324563,-0.123337,0.0793505,0.0457682,552,890,-34.0826,-3.20724
-665,134,-33.0983,3.97418,0,0,0,0,0,0,0,-1,559,890,-33.0983,-3.97417
-658,134,-32.1754,4.45782,0,0,0,0,0,0,0,-1,566,890,-32.1754,-4.45781
-651,134,-31.2482,4.62518,0,0,0,0,0,0,0,-1,573,890,-31.2482,-4.62519
-644,134,-34.261,0.630066,0,0,0,0,0,0,0,-1,580,890,-34.261,-0.630096
-637,134,-28.7275,0.339355,0,0,0,0,0,0,0,-1,587,890,-28.7275,-0.339377
-630,134,-29.5172,3.56653,0,0,0,0,0,0,0,-1,594,890,-29.5172,-3.56652
-623,134,-29.413,3.927,0.0190032,0.00931768,-0.00200758,0.0194028,0.00891804,-0.196495,0.0112144,0.0268011,601,890,-29.4129,-3.92701
-616,134,-29.5699,3.5166,0.00897001,0.00555494,-0.000807707,0.00915141,0.00537354,-0.220918,0.00531027,0.0127365,608,890,-29.5699,-3.51663
-609,134,-29.6434,3.08435,0.00366609,0.00370729,0.000608024,0.00429506,0.00307832,0.802332,0.00255621,0.0119961,615,890,-29.6434,-3.08437
-602,134,-29.6389,2.62701,-0.000711924,0.0015042,0.0014373,0.00221097,-0.0014187,1.11378,0.00211216,0.0130822,622,890,-29.6389,-2.62701
-595,134,-29.5872,2.21222,-0.00194722,0.000106293,0.00194439,0.00127837,-0.0031193,1.02832,0.0026121,0.0195647,629,890,-29.5872,-2.2122
-588,134,-30.0134,1.84985,-0.00135687,-0.000642741,0.00209633,0.00112671,-0.00312632,0.869753,0.00254435,0.0336869,636,890,-30.0134,-1.84987
-581,134,-30.1733,1.38916,0,0,0,0,0,0,0,-1,643,890,-30.1733,-1.38919
-574,134,-29.7053,0.890076,0,0,0,0,0,0,0,-1,650,890,-29.7053,-0.89006
-567,134,-29.447,0.472961,0,0,0,0,0,0,0,-1,657,890,-29.447,-0.472986
-560,134,-22.9123,0.106567,0,0,0,0,0,0,0,-1,664,890,-22.9123,-0.106594
-553,134,-34.5414,1.05975,0,0,0,0,0,0,0,-1,671,890,-34.5414,-1.05974
-546,134,-34.6194,1.05322,0.000834822,-0.00131058,0.00237936,0.00237211,-0.00284786,0.573624,0.00301792,0.0307629,678,890,-34.6194,-1.05323
-539,134,-34.6102,1.08112,0.00110123,-0.00110441,0.00242052,0.00265832,-0.0026615,0.571642,0.0030714,0.0219542,685,890,-34.6102,-1.08114
-532,134,-34.5793,1.12378,0.00146528,-0.000658968,0.00242293,0.00304866,-0.00224235,0.578831,0.00306657,0.0261947,692,890,-34.5793,-1.12378
-525,134,-34.6253,1.07544,0.00125056,0.000210716,0.00223295,0.00302332,-0.00156205,0.671016,0.0026918,0.0352669,699,890,-34.6253,-1.07547
-518,134,-34.7261,1.13916,0.00113034,0.00187279,0.00185478,0.00339312,-0.000389996,0.884166,0.00240266,0.0425141,706,890,-34.7262,-1.13917
-511,134,-34.7722,1.43164,0.00200171,0.00443723,0.000993527,0.00479111,0.00164784,1.22863,0.0028107,0.0426775,713,890,-34.7721,-1.43166
-504,134,0,0,0,0,0,0,0,0,0,-1,720,890,0,0
-497,134,0,0,0,0,0,0,0,0,0,-1,727,890,0,0
-490,134,0,0,0,0,0,0,0,0,0,-1,734,890,0,0
-483,134,0,0,0,0,0,0,0,0,0,-1,741,890,0,0
-476,134,0,0,0,0,0,0,0,0,0,-1,748,890,0,0
-469,134,0,0,0,0,0,0,0,0,0,-1,755,890,0,0
-462,134,0,0,0,0,0,0,0,0,0,-1,762,890,0,0
-455,134,0,0,0,0,0,0,0,0,0,-1,769,890,0,0
-448,134,0,0,0,0,0,0,0,0,0,-1,776,890,0,0
-441,134,0,0,0,0,0,0,0,0,0,-1,783,890,0,0
-434,134,0,0,0,0,0,0,0,0,0,-1,790,890,0,0
-427,134,0,0,0,0,0,0,0,0,0,-1,797,890,0,0
-420,134,0,0,0,0,0,0,0,0,0,-1,804,890,0,0
-413,134,0,0,0,0,0,0,0,0,0,-1,811,890,0,0
-406,134,0,0,0,0,0,0,0,0,0,-1,818,890,0,0
-399,134,0,0,0,0,0,0,0,0,0,-1,825,890,0,0
-392,134,0,0,0,0,0,0,0,0,0,-1,832,890,0,0
-385,134,0,0,0,0,0,0,0,0,0,-1,839,890,0,0
-378,134,0,0,0,0,0,0,0,0,0,-1,846,890,0,0
-371,134,0,0,0,0,0,0,0,0,0,-1,853,890,0,0
-364,134,0,0,0,0,0,0,0,0,0,-1,860,890,0,0
-357,134,0,0,0,0,0,0,0,0,0,-1,867,890,0,0
-350,134,0,0,0,0,0,0,0,0,0,-1,874,890,0,0
-343,134,0,0,0,0,0,0,0,0,0,-1,881,890,0,0
-336,134,0,0,0,0,0,0,0,0,0,-1,888,890,0,0
-329,134,0,0,0,0,0,0,0,0,0,-1,895,890,0,0
-322,134,0,0,0,0,0,0,0,0,0,-1,902,890,0,0
-315,134,0,0,0,0,0,0,0,0,0,-1,909,890,0,0
-308,134,0,0,0,0,0,0,0,0,0,-1,916,890,0,0
-301,134,0,0,0,0,0,0,0,0,0,-1,923,890,0,0
-294,134,0,0,0,0,0,0,0,0,0,-1,930,890,0,0
-287,134,0,0,0,0,0,0,0,0,0,-1,937,890,0,0
-280,134,0,0,0,0,0,0,0,0,0,-1,944,890,0,0
-273,134,0,0,0,0,0,0,0,0,0,-1,951,890,0,0
-266,134,0,0,0,0,0,0,0,0,0,-1,958,890,0,0
-259,134,0,0,0,0,0,0,0,0,0,-1,965,890,0,0
-252,134,0,0,0,0,0,0,0,0,0,-1,972,890,0,0
-245,134,0,0,0,0,0,0,0,0,0,-1,979,890,0,0
-238,134,0,0,0,0,0,0,0,0,0,-1,986,890,0,0
-231,134,0,0,0,0,0,0,0,0,0,-1,993,890,0,0
-224,134,0,0,0,0,0,0,0,0,0,-1,1000,890,0,0
-217,134,0,0,0,0,0,0,0,0,0,-1,1007,890,0,0
-210,134,0,0,0,0,0,0,0,0,0,-1,1014,890,0,0
-203,134,0,0,0,0,0,0,0,0,0,-1,1021,890,0,0
-196,134,0,0,0,0,0,0,0,0,0,-1,1028,890,0,0
-189,134,0,0,0,0,0,0,0,0,0,-1,1035,890,0,0
-182,134,0,0,0,0,0,0,0,0,0,-1,1042,890,0,0
-175,134,0,0,0,0,0,0,0,0,0,-1,1049,890,0,0
-168,134,0,0,0,0,0,0,0,0,0,-1,1056,890,0,0
-161,134,0,0,0,0,0,0,0,0,0,-1,1063,890,0,0
-154,134,0,0,0,0,0,0,0,0,0,-1,1070,890,0,0
-147,134,0,0,0,0,0,0,0,0,0,-1,1077,890,0,0
-140,134,0,0,0,0,0,0,0,0,0,-1,1084,890,0,0
-133,134,0,0,0,0,0,0,0,0,0,-1,1091,890,0,0
-126,134,0,0,0,0,0,0,0,0,0,-1,1098,890,0,0
-119,134,0,0,0,0,0,0,0,0,0,-1,1105,890,0,0
-112,134,0,0,0,0,0,0,0,0,0,-1,1112,890,0,0
-105,134,0,0,0,0,0,0,0,0,0,-1,1119,890,0,0
-98,134,0,0,0,0,0,0,0,0,0,-1,1126,890,0,0
-91,134,0,0,0,0,0,0,0,0,0,-1,1133,890,0,0
-84,134,0,0,0,0,0,0,0,0,0,-1,1140,890,0,0
-77,134,0,0,0,0,0,0,0,0,0,-1,1147,890,0,0
-70,134,0,0,0,0,0,0,0,0,0,-1,1154,890,0,0
-63,134,0,0,0,0,0,0,0,0,0,-1,1161,890,0,0
-56,134,0,0,0,0,0,0,0,0,0,-1,1168,890,0,0
-49,134,0,0,0,0,0,0,0,0,0,-1,1175,890,0,0
-42,134,0,0,0,0,0,0,0,0,0,-1,1182,890,0,0
-35,134,0,0,0,0,0,0,0,0,0,-1,1189,890,0,0
-28,134,0,0,0,0,0,0,0,0,0,-1,1196,890,0,0
-21,134,0,0,0,0,0,0,0,0,0,-1,1203,890,0,0
-14,134,0,0,0,0,0,0,0,0,0,-1,1210,890,0,0
-7,134,0,0,0,0,0,0,0,0,0,-1,1217,890,0,0
0,134,0,0,0,0,0,0,0,0,0,-1,1224,890,0,0
7,134,0,0,0,0,0,0,0,0,0,-1,1231,890,0,0
14,134,0,0,0,0,0,0,0,0,0,-1,1238,890,0,0
21,134,0,0,0,0,0,0,0,0,0,-1,1245,890,0,0
28,134,0,0,0,0,0,0,0,0,0,-1,1252,890,0,0
35,134,0,0,0,0,0,0,0,0,0,-1,1259,890,0,0
42,134,0,0,0,0,0,0,0,0,0,-1,1266,890,0,0
49,134,0,0,0,0,0,0,0,0,0,-1,1273,890,0,0
56,134,0,0,0,0,0,0,0,0,0,-1,1280,890,0,0
63,134,0,0,0,0,0,0,0,0,0,-1,1287,890,0,0
70,134,0,0,0,0,0,0,0,0,0,-1,1294,890,0,0
77,134,0,0,0,0,0,0,0,0,0,-1,1301,890,0,0
84,134,0,0,0,0,0,0,0,0,0,-1,1308,890,0,0
91,134,0,0,0,0,0,0,0,0,0,-1,1315,890,0,0
98,134,0,0,0,0,0,0,0,0,0,-1,1322,890,0,0
105,134,0,0,0,0,0,0,0,0,0,-1,1329,890,0,0
112,134,0,0,0,0,0,0,0,0,0,-1,1336,890,0,0
119,134,0,0,0,0,0,0,0,0,0,-1,1343,890,0,0
126,134,0,0,0,0,0,0,0,0,0,-1,1350,890,0,0
133,134,0,0,0,0,0,0,0,0,0,-1,1357,890,0,0
140,134,0,0,0,0,0,0,0,0,0,-1,1364,890,0,0
147,134,0,0,0,0,0,0,0,0,0,-1,1371,890,0,0
154,134,0,0,0,0,0,0,0,0,0,-1,1378,890,0,0
161,134,0,0,0,0,0,0,0,0,0,-1,1385,890,0,0
168,134,0,0,0,0,0,0,0,0,0,-1,1392,890,0,0
175,134,0,0,0,0,0,0,0,0,0,-1,1399,890,0,0
182,134,0,0,0,0,0,0,0,0,0,-1,1406,890,0,0
189,134,0,0,0,0,0,0,0,0,0,-1,1413,890,0,0
196,134,0,0,0,0,0,0,0,0,0,-1,1420,890,0,0
203,134,0,0,0,0,0,0,0,0,0,-1,1427,890,0,0
210,134,0,0,0,0,0,0,0,0,0,-1,1434,890,0,0
217,134,0,0,0,0,0,0,0,0,0,-1,1441,890,0,0
224,134,0,0,0,0,0,0,0,0,0,-1,1448,890,0,0
231,134,0,0,0,0,0,0,0,0,0,-1,1455,890,0,0
238,134,0,0,0,0,0,0,0,0,0,-1,1462,890,0,0
245,134,0,0,0,0,0,0,0,0,0,-1,1469,890,0,0
252,134,0,0,0,0,0,0,0,0,0,-1,1476,890,0,0
259,134,0,0,0,0,0,0,0,0,0,-1,1483,890,0,0
266,134,0,0,0,0,0,0,0,0,0,-1,1490,890,0,0
273,134,0,0,0,0,0,0,0,0,0,-1,1497,890,0,0
280,134,0,0,0,0,0,0,0,0,0,-1,1504,890,0,0
287,134,0,0,0,0,0,0,0,0,0,-1,1511,890,0,0
294,134,0,0,0,0,0,0,0,0,0,-1,1518,890,0,0
301,134,0,0,0,0,0,0,0,0,0,-1,1525,890,0,0
308,134,0,0,0,0,0,0,0,0,0,-1,1532,890,0,0
315,134,0,0,0,0,0,0,0,0,0,-1,1539,890,0,0
322,134,0,0,0,0,0,0,0,0,0,-1,1546,890,0,0
329,134,0,0,0,0,0,0,0,0,0,-1,1553,890,0,0
336,134,0,0,0,0,0,0,0,0,0,-1,1560,890,0,0
343,134,0,0,0,0,0,0,0,0,0,-1,1567,890,0,0
350,134,0,0,0,0,0,0,0,0,0,-1,1574,890,0,0
357,134,0,0,0,0,0,0,0,0,0,-1,1581,890,0,0
364,134,0,0,0,0,0,0,0,0,0,-1,1588,890,0,0
371,134,0,0,0,0,0,0,0,0,0,-1,1595,890,0,0
378,134,0,0,0,0,0,0,0,0,0,-1,1602,890,0,0
385,134,0,0,0,0,0,0,0,0,0,-1,1609,890,0,0
392,134,0,0,0,0,0,0,0,0,0,-1,1616,890,0,0
399,134,0,0,0,0,0,0,0,0,0,-1,1623,890,0,0
406,134,0,0,0,0,0,0,0,0,0,-1,1630,890,0,0
413,134,0,0,0,0,0,0,0,0,0,-1,1637,890,0,0
420,134,0,0,0,0,0,0,0,0,0,-1,1644,890,0,0
427,134,0,0,0,0,0,0,0,0,0,-1,1651,890,0,0
434,134,0,0,0,0,0,0,0,0,0,-1,1658,890,0,0
441,134,0,0,0,0,0,0,0,0,0,-1,1665,890,0,0
448,134,0,0,0,0,0,0,0,0,0,-1,1672,890,0,0
455,134,0,0,0,0,0,0,0,0,0,-1,1679,890,0,0
462,134,0,0,0,0,0,0,0,0,0,-1,1686,890,0,0
469,134,0,0,0,0,0,0,0,0,0,-1,1693,890,0,0
476,134,0,0,0,0,0,0,0,0,0,-1,1700,890,0,0
483,134,0,0,0,0,0,0,0,0,0,-1,1707,890,0,0
490,134,0,0,0,0,0,0,0,0,0,-1,1714,890,0,0
497,134,0,0,0,0,0,0,0,0,0,-1,1721,890,0,0
504,134,0,0,0,0,0,0,0,0,0,-1,1728,890,0,0
511,134,0,0,0,0,0,0,0,0,0,-1,1735,890,0,0
518,134,0,0,0,0,0,0,0,0,0,-1,1742,890,0,0
525,134,0,0,0,0,0,0,0,0,0,-1,1749,890,0,0
532,134,0,0,0,0,0,0,0,0,0,-1,1756,890,0,0
539,134,0,0,0,0,0,0,0,0,0,-1,1763,890,0,0
546,134,0,0,0,0,0,0,0,0,0,-1,1770,890,0,0
553,134,0,0,0,0,0,0,0,0,0,-1,1777,890,0,0
560,134,0,0,0,0,0,0,0,0,0,-1,1784,890,0,0
567,134,0,0,0,0,0,0,0,0,0,-1,1791,890,0,0
574,134,0,0,0,0,0,0,0,0,0,-1,1798,890,0,0
581,134,0,0,0,0,0,0,0,0,0,-1,1805,890,0,0
588,134,0,0,0,0,0,0,0,0,0,-1,1812,890,0,0
595,134,0,0,0,0,0,0,0,0,0,-1,1819,890,0,0
602,134,0,0,0,0,0,0,0,0,0,-1,1826,890,0,0
609,134,0,0,0,0,0,0,0,0,0,-1,1833,890,0,0
616,134,0,0,0,0,0,0,0,0,0,-1,1840,890,0,0
623,134,46.8069,2.94159,-0.00716677,0.00309186,-0.00414307,0.00455609,-0.00863101,-1.23108,0.00773379,0.0485251,1847,890,46.8069,-2.94158
630,134,46.4674,3.15027,-0.00457488,0.00257827,-0.00309084,0.00372877,-0.00572538,-1.21446,0.00549878,0.0470533,1854,890,46.4674,-3.15028
637,134,46.4706,3.24927,-0.0027159,0.00228783,-0.0022745,0.00316719,-0.00359526,-1.20188,0.00390691,0.0436924,1861,890,46.4706,-3.24929
644,134,46.6727,2.9386,-0.00157617,0.00199597,-0.0015275,0.00256007,-0.00214027,-1.21704,0.00271735,0.0402734,1868,890,46.6727,-2.9386
651,134,46.6311,2.97882,-0.000909135,0.00165688,-0.000919061,0.00195209,-0.00120435,-1.25999,0.00183934,0.0420455,1875,890,46.6311,-2.97883
658,134,46.5421,3.01514,-0.000374998,0.00130614,-0.000416158,0.00140352,-0.000472376,-1.34094,0.00112664,0.0403863,1882,890,46.5421,-3.01516
665,134,46.4899,2.93762,-4.05245e-05,0.00100414,-6.72094e-05,0.00100844,-4.48307e-05,-1.50681,0.000687725,0.0356213,1889,890,46.4898,-2.93762
672,134,46.5475,2.92944,0.000192185,0.000641716,0.000204574,0.000720875,0.000113026,1.20159,0.000447689,0.0277238,1896,890,46.5475,-2.92946
679,134,46.542,2.90057,0.000515646,0.00040789,0.000299329,0.000765907,0.000157628,0.696354,0.000467015,0.0252034,1903,890,46.542,-2.90055
686,134,46.5507,2.86334,0,0,0,0,0,0,0,-1,1910,890,46.5507,-2.86334
693,134,34.5778,2.48096,0,0,0,0,0,0,0,-1,1917,890,34.5777,-2.48099
700,134,40.385,2.83185,0,0,0,0,0,0,0,-1,1924,890,40.385,-2.83186
707,134,40.2238,3.18951,0.000453332,5.64335e-05,0.00039827,0.000699856,-0.00019009,0.554263,0.000541179,0.0225842,1931,890,40.2238,-3.18953
714,134,40.259,3.73969,0.000601181,0.000293221,0.000270911,0.000758814,0.000135587,0.526977,0.000467284,0.0230823,1938,890,40.259,-3.73967
721,134,40.441,4.30438,0.000512755,0.000581596,0.000176978,0.000727469,0.000366882,0.881445,0.00042001,0.0198441,1945,890,40.4411,-4.30441
728,134,40.4873,4.76056,0.000584769,0.0023133,-0.000258593,0.00235116,0.000546912,-1.42543,0.00142067,0.0174875,1952,890,40.4873,-4.76057
735,134,40.4471,5.29462,0.000936451,0.00596507,-0.00124295,0.00625552,0.000646003,-1.34124,0.00397256,0.0232945,1959,890,40.4471,-5.29461
742,134,40.4171,5.80743,0.00149137,0.0113202,-0.00249724,0.0119182,0.000893285,-1.33572,0.0076651,0.0158637,1966,890,40.4171,-5.80743
749,134,40.4286,6.21655,0.00256078,0.019739,-0.00423311,0.0207255,0.0015743,-1.34184,0.0133233,0.0130301,1973,890,40.4286,-6.21658
756,134,40.3989,6.64685,0.00442536,0.0317122,-0.00679672,0.0333114,0.00282613,-1.33971,0.0213281,0.0175705,1980,890,40.3989,-6.64686
763,134,40.3536,7.10175,0.00748684,0.0487144,-0.0104789,0.051225,0.00497626,-1.33565,0.032618,0.0383332,1987,890,40.3536,-7.10177
770,134,40.3112,7.55145,0,0,0,0,0,0,0,-1,1994,890,40.3111,-7.55148
777,134,43.6969,5.94574,0,0,0,0,0,0,0,-1,2001,890,43.697,-5.94577
784,134,42.3352,7.4964,0,0,0,0,0,0,0,-1,2008,890,42.3352,-7.49641
791,134,42.2061,9.63593,0,0,0,0,0,0,0,-1,2015,890,42.2061,-9.63591
798,134,0,0,0,0,0,0,0,0,0,-1,2022,890,0,0
805,134,0,0,0,0,0,0,0,0,0,-1,2029,890,0,0
812,134,0,0,0,0,0,0,0,0,0,-1,2036,890,0,0
-700,127,0,0,0,0,0,0,0,0,0,-1,524,897,0,0
-693,127,0,0,0,0,0,0,0,0,0,-1,531,897,0,0
-686,127,0,0,0,0,0,0,0,0,0,-1,538,897,0,0
-679,127,-34.5961,1.51733,0,0,0,0,0,0,0,-1,545,897,-34.5961,-1.51734
-672,127,-34.033,2.18512,0,0,0,0,0,0,0,-1,552,897,-34.033,-2.18513
-665,127,-33.0739,3.02075,0,0,0,0,0,0,0,-1,559,897,-33.0739,-3.02077
-658,127,-32.4678,2.85815,0,0,0,0,0,0,0,-1,566,897,-32.4678,-2.85815
-651,127,-32.9246,2.88531,0,0,0,0,0,0,0,-1,573,897,-32.9246,-2.88534
-644,127,-31.2908,5.16144,0,0,0,0,0,0,0,-1,580,897,-31.2907,-5.16147
-637,127,-30.2687,3.43494,0,0,0,0,0,0,0,-1,587,897,-30.2688,-3.43492
-630,127,-30.0763,3.71259,0.0155879,0.00707402,-0.00267491,0.0163586,0.00630337,-0.280507,0.00952708,0.0444717,594,897,-30.0763,-3.71259
-623,127,-29.9982,3.82532,0.00973464,0.00688295,-0.001055,0.0100825,0.00653508,-0.318507,0.00590571,0.0157798,601,897,-29.9982,-3.82531
-616,127,-30.0549,3.48645,0.00309541,0.00451736,-1.22891e-05,0.00451747,0.0030953,-1.56215,0.00266712,0.0104045,608,897,-30.0549,-3.48645
-609,127,-30.0999,3.0719,0.000178417,0.00327982,0.00108316,0.00362066,-0.000162418,1.26594,0.00246969,0.0142277,615,897,-30.0999,-3.0719
-602,127,-30.1068,2.64673,-0.00271813,0.00140573,0.00159267,0.00194921,-0.0032616,1.24195,0.0030401,0.0160552,622,897,-30.1068,-2.64673
-595,127,-30.0508,2.26367,-0.003425,0.000140135,0.00184963,0.000926356,-0.00421122,1.16887,0.00316183,0.0252476,629,897,-30.0508,-2.26365
-588,127,-30.1653,1.77899,-0.00281375,-0.000512616,0.00188682,0.000546766,-0.00387314,1.05919,0.00278231,0.032467,636,897,-30.1653,-1.779
-581,127,-29.9479,1.33691,0,0,0,0,0,0,0,-1,643,897,-29.9479,-1.33693
-574,127,-25.2603,0.511169,0,0,0,0,0,0,0,-1,650,897,-25.2603,-0.51117
-567,127,-24.5417,-0.0447388,0,0,0,0,0,0,0,-1,657,897,-24.5417,0.0447226
-560,127,-18.9678,1.21667,0,0,0,0,0,0,0,-1,664,897,-18.9677,-1.2167
-553,127,-34.5694,1.11047,0,0,0,0,0,0,0,-1,671,897,-34.5694,-1.11046
-546,127,-34.633,1.11053,-0.000598221,-0.000591136,0.00153569,0.000941012,-0.00213037,0.786552,0.00181704,0.0228734,678,897,-34.633,-1.11054
-539,127,-34.6277,1.09271,-0.000248625,-0.00020334,0.00140031,0.00117451,-0.00162647,0.793482,0.00162415,0.0234334,685,897,-34.6277,-1.09272
-532,127,-34.4924,1.10657,0.000229752,0.000507267,0.00118454,0.00156115,-0.000824134,0.843702,0.00139889,0.0192755,692,897,-34.4924,-1.10657
-525,127,-34.5551,1.32318,0.000291277,0.0017709,0.0006846,0.00203906,2.31209e-05,1.19747,0.00135173,0.0333116,699,897,-34.5551,-1.32319
-518,127,-34.6218,1.63751,0.00037078,0.00385971,-0.000120757,0.00386389,0.000366605,-1.53624,0.00246284,0.0419342,706,897,-34.6218,-1.63753
-511,127,-34.678,1.39929,0.00122479,0.00682152,-0.00128726,0.0071034,0.000942915,-1.35523,0.00445468,0.0415851,713,897,-34.678,-1.39931
-504,127,0,0,0,0,0,0,0,0,0,-1,720,897,0,0
-497,127,0,0,0,0,0,0,0,0,0,-1,727,897,0,0
-490,127,0,0,0,0,0,0,0,0,0,-1,734,897,0,0
-483,127,0,0,0,0,0,0,0,0,0,-1,741,897,0,0
-476,127,0,0,0,0,0,0,0,0,0,-1,748,897,0,0
-469,127,0,0,0,0,0,0,0,0,0,-1,755,897,0,0
-462,127,0,0,0,0,0,0,0,0,0,-1,762,897,0,0
-455,127,0,0,0,0,0,0,0,0,0,-1,769,897,0,0
-448,127,0,0,0,0,0,0,0,0,0,-1,776,897,0,0
-441,127,0,0,0,0,0,0,0,0,0,-1,783,897,0,0
-434,127,0,0,0,0,0,0,0,0,0,-1,790,897,0,0
-427,127,0,0,0,0,0,0,0,0,0,-1,797,897,0,0
-420,127,0,0,0,0,0,0,0,0,0,-1,804,897,0,0
-413,127,0,0,0,0,0,0,0,0,0,-1,811,897,0,0
-406,127,0,0,0,0,0,0,0,0,0,-1,818,897,0,0
-399,127,0,0,0,0,0,0,0,0,0,-1,825,897,0,0
-392,127,0,0,0,0,0,0,0,0,0,-1,832,897,0,0
-385,127,0,0,0,0,0,0,0,0,0,-1,839,897,0,0
-378,127,0,0,0,0,0,0,0,0,0,-1,846,897,0,0
-371,127,0,0,0,0,0,0,0,0,0,-1,853,897,0,0
-364,127,0,0,0,0,0,0,0,0,0,-1,860,897,0,0
-357,127,0,0,0,0,0,0,0,0,0,-1,867,897,0,0
-350,127,0,0,0,0,0,0,0,0,0,-1,874,897,0,0
-343,127,0,0,0,0,0,0,0,0,0,-1,881,897,0,0
-336,127,0,0,0,0,0,0,0,0,0,-1,888,897,0,0
-329,127,0,0,0,0,0,0,0,0,0,-1,895,897,0,0
-322,127,0,0,0,0,0,0,0,0,0,-1,902,897,0,0
-315,127,0,0,0,0,0,0,0,0,0,-1,909,897,0,0
-308,127,0,0,0,0,0,0,0,0,0,-1,916,897,0,0
-301,127,0,0,0,0,0,0,0,0,0,-1,923,897,0,0
-294,127,0,0,0,0,0,0,0,0,0,-1,930,897,0,0
-287,127,0,0,0,0,0,0,0,0,0,-1,937,897,0,0
-280,127,0,0,0,0,0,0,0,0,0,-1,944,897,0,0
-273,127,0,0,0,0,0,0,0,0,0,-1,951,897,0,0
-266,127,0,0,0,0,0,0,0,0,0,-1,958,897,0,0
-259,127,0,0,0,0,0,0,0,0,0,-1,965,897,0,0
-252,127,0,0,0,0,0,0,0,0,0,-1,972,897,0,0
-245,127,0,0,0,0,0,0,0,0,0,-1,979,897,0,0
-238,127,0,0,0,0,0,0,0,0,0,-1,986,897,0,0
-231,127,0,0,0,0,0,0,0,0,0,-1,993,897,0,0
-224,127,0,0,0,0,0,0,0,0,0,-1,1000,897,0,0
-217,127,0,0,0,0,0,0,0,0,0,-1,1007,897,0,0
-210,127,0,0,0,0,0,0,0,0,0,-1,1014,897,0,0
-203,127,0,0,0,0,0,0,0,0,0,-1,1021,897,0,0
-196,127,0,0,0,0,0,0,0,0,0,-1,1028,897,0,0
-189,127,0,0,0,0,0,0,0,0,0,-1,1035,897,0,0
-182,127,0,0,0,0,0,0,0,0,0,-1,1042,897,0,0
-175,127,0,0,0,0,0,0,0,0,0,-1,1049,897,0,0
-168,127,0,0,0,0,0,0,0,0,0,-1,1056,897,0,0
-161,127,0,0,0,0,0,0,0,0,0,-1,1063,897,0,0
-154,127,0,0,0,0,0,0,0,0,0,-1,1070,897,0,0
-147,127,0,0,0,0,0,0,0,0,0,-1,1077,897,0,0
-140,127,0,0,0,0,0,0,0,0,0,-1,1084,897,0,0
-133,127,0,0,0,0,0,0,0,0,0,-1,1091,897,0,0
-126,127,0,0,0,0,0,0,0,0,0,-1,1098,897,0,0
-119,127,0,0,0,0,0,0,0,0,0,-1,1105,897,0,0
-112,127,0,0,0,0,0,0,0,0,0,-1,1112,897,0,0
-105,127,0,0,0,0,0,0,0,0,0,-1,1119,897,0,0
-98,127,0,0,0,0,0,0,0,0,0,-1,1126,897,0,0
-91,127,0,0,0,0,0,0,0,0,0,-1,1133,897,0,0
-84,127,0,0,0,0,0,0,0,0,0,-1,1140,897,0,0
-77,127,0,0,0,0,0,0,0,0,0,-1,1147,897,0,0
-70,127,0,0,0,0,0,0,0,0,0,-1,1154,897,0,0
-63,127,0,0,0,0,0,0,0,0,0,-1,1161,897,0,0
-56,127,0,0,0,0,0,0,0,0,0,-1,1168,897,0,0
-49,127,0,0,0,0,0,0,0,0,0,-1,1175,897,0,0
-42,127,0,0,0,0,0,0,0,0,0,-1,1182,897,0,0
-35,127,0,0,0,0,0,0,0,0,0,-1,1189,897,0,0
-28,127,0,0,0,0,0,0,0,0,0,-1,1196,897,0,0
-21,127,0,0,0,0,0,0,0,0,0,-1,1203,897,0,0
-14,127,0,0,0,0,0,0,0,0,0,-1,1210,897,0,0
-7,127,0,0,0,0,0,0,0,0,0,-1,1217,897,0,0
0,127,0,0,0,0,0,0,0,0,0,-1,1224,897,0,0
7,127,0,0,0,0,0,0,0,0,0,-1,1231,897,0,0
14,127,0,0,0,0,0,0,0,0,0,-1,1238,897,0,0
21,127,0,0,0,0,0,0,0,0,0,-1,1245,897,0,0
28,127,0,0,0,0,0,0,0,0,0,-1,1252,897,0,0
35,127,0,0,0,0,0,0,0,0,0,-1,1259,897,0,0
42,127,0,0,0,0,0,0,0,0,0,-1,1266,897,0,0
49,127,0,0,0,0,0,0,0,0,0,-1,1273,897,0,0
56,127,0,0,0,0,0,0,0,0,0,-1,1280,897,0,0
63,127,0,0,0,0,0,0,0,0,0,-1,1287,897,0,0
70,127,0,0,0,0,0,0,0,0,0,-1,1294,897,0,0
77,127,0,0,0,0,0,0,0,0,0,-1,1301,897,0,0
84,127,0,0,0,0,0,0,0,0,0,-1,1308,897,0,0
91,127,0,0,0,0,0,0,0,0,0,-1,1315,897,0,0
98,127,0,0,0,0,0,0,0,0,0,-1,1322,897,0,0
105,127,0,0,0,0,0,0,0,0,0,-1,1329,897,0,0
112,127,0,0,0,0,0,0,0,0,0,-1,1336,897,0,0
119,127,0,0,0,0,0,0,0,0,0,-1,1343,897,0,0
126,127,0,0,0,0,0,0,0,0,0,-1,1350,897,0,0
133,127,0,0,0,0,0,0,0,0,0,-1,1357,897,0,0
140,127,0,0,0,0,0,0,0,0,0,-1,1364,897,0,0
147,127,0,0,0,0,0,0,0,0,0,-1,1371,897,0,0
154,127,0,0,0,0,0,0,0,0,0,-1,1378,897,0,0
161,127,0,0,0,0,0,0,0,0,0,-1,1385,897,0,0
168,127,0,0,0,0,0,0,0,0,0,-1,1392,897,0,0
175,127,0,0,0,0,0,0,0,0,0,-1,1399,897,0,0
182,127,0,0,0,0,0,0,0,0,0,-1,1406,897,0,0
189,127,0,0,0,0,0,0,0,0,0,-1,1413,897,0,0
196,127,0,0,0,0,0,0,0,0,0,-1,1420,897,0,0
203,127,0,0,0,0,0,0,0,0,0,-1,1427,897,0,0
210,127,0,0,0,0,0,0,0,0,0,-1,1434,897,0,0
217,127,0,0,0,0,0,0,0,0,0,-1,1441,897,0,0
224,127,0,0,0,0,0,0,0,0,0,-1,1448,897,0,0
231,127,0,0,0,0,0,0,0,0,0,-1,1455,897,0,0
238,127,0,0,0,0,0,0,0,0,0,-1,1462,897,0,0
245,127,0,0,0,0,0,0,0,0,0,-1,1469,897,0,0
252,127,0,0,0,0,0,0,0,0,0,-1,1476,897,0,0
259,127,0,0,0,0,0,0,0,0,0,-1,1483,897,0,0
266,127,0,0,0,0,0,0,0,0,0,-1,1490,897,0,0
273,127,0,0,0,0,0,0,0,0,0,-1,1497,897,0,0
280,127,0,0,0,0,0,0,0,0,0,-1,1504,897,0,0
287,127,0,0,0,0,0,0,0,0,0,-1,1511,897,0,0
294,127,0,0,0,0,0,0,0,0,0,-1,1518,897,0,0
301,127,0,0,0,0,0,0,0,0,0,-1,1525,897,0,0
308,127,0,0,0,0,0,0,0,0,0,-1,1532,897,0,0
315,127,0,0,0,0,0,0,0,0,0,-1,1539,897,0,0
322,127,0,0,0,0,0,0,0,0,0,-1,1546,897,0,0
329,127,0,0,0,0,0,0,0,0,0,-1,1553,897,0,0
336,127,0,0,0,0,0,0,0,0,0,-1,1560,897,0,0
343,127,0,0,0,0,0,0,0,0,0,-1,1567,897,0,0
350,127,0,0,0,0,0,0,0,0,0,-1,1574,897,0,0
357,127,0,0,0,0,0,0,0,0,0,-1,1581,897,0,0
364,127,0,0,0,0,0,0,0,0,0,-1,1588,897,0,0
371,127,0,0,0,0,0,0,0,0,0,-1,1595,897,0,0
378,127,0,0,0,0,0,0,0,0,0,-1,1602,897,0,0
385,127,0,0,0,0,0,0,0,0,0,-1,1609,897,0,0
392,127,0,0,0,0,0,0,0,0,0,-1,1616,897,0,0
399,127,0,0,0,0,0,0,0,0,0,-1,1623,897,0,0
406,127,0,0,0,0,0,0,0,0,0,-1,1630,897,0,0
413,127,0,0,0,0,0,0,0,0,0,-1,1637,897,0,0
420,127,0,0,0,0,0,0,0,0,0,-1,1644,897,0,0
427,127,0,0,0,0,0,0,0,0,0,-1,1651,897,0,0
434,127,0,0,0,0,0,0,0,0,0,-1,1658,897,0,0
441,127,0,0,0,0,0,0,0,0,0,-1,1665,897,0,0
448,127,0,0,0,0,0,0,0,0,0,-1,1672,897,0,0
455,127,0,0,0,0,0,0,0,0,0,-1,1679,897,0,0
462,127,0,0,0,0,0,0,0,0,0,-1,1686,897,0,0
469,127,0,0,0,0,0,0,0,0,0,-1,1693,897,0,0
476,127,0,0,0,0,0,0,0,0,0,-1,1700,897,0,0
483,127,0,0,0,0,0,0,0,0,0,-1,1707,897,0,0
490,127,0,0,0,0,0,0,0,0,0,-1,1714,897,0,0
497,127,0,0,0,0,0,0,0,0,0,-1,1721,897,0,0
504,127,0,0,0,0,0,0,0,0,0,-1,1728,897,0,0
511,127,0,0,0,0,0,0,0,0,0,-1,1735,897,0,0
518,127,0,0,0,0,0,0,0,0,0,-1,1742,897,0,0
525,127,0,0,0,0,0,0,0,0,0,-1,1749,897,0,0
532,127,0,0,0,0,0,0,0,0,0,-1,1756,897,0,0
539,127,0,0,0,0,0,0,0,0,0,-1,1763,897,0,0
546,127,0,0,0,0,0,0,0,0,0,-1,1770,897,0,0
553,127,0,0,0,0,0,0,0,0,0,-1,1777,897,0,0
560,127,0,0,0,0,0,0,0,0,0,-1,1784,897,0,0
567,127,0,0,0,0,0,0,0,0,0,-1,1791,897,0,0
574,127,0,0,0,0,0,0,0,0,0,-1,1798,897,0,0
581,127,0,0,0,0,0,0,0,0,0,-1,1805,897,0,0
588,127,0,0,0,0,0,0,0,0,0,-1,1812,897,0,0
595,127,0,0,0,0,0,0,0,0,0,-1,1819,897,0,0
602,127,0,0,0,0,0,0,0,0,0,-1,1826,897,0,0
609,127,0,0,0,0,0,0,0,0,0,-1,1833,897,0,0
616,127,0,0,0,0,0,0,0,0,0,-1,1840,897,0,0
623,127,0,0,0,0,0,0,0,0,0,-1,1847,897,0,0
630,127,46.4128,3.3208,-0.00490566,0.00335854,-0.0040078,0.00498289,-0.00653,-1.18573,0.00666695,0.0413818,1854,897,46.4129,-3.32077
637,127,46.4976,3.01947,-0.00291327,0.00294851,-0.00306014,0.0042549,-0.00421966,-1.16731,0.0048928,0.0405305,1861,897,46.4975,-3.01945
644,127,46.6418,2.67523,-0.00172515,0.00257188,-0.00210625,0.00343209,-0.00258535,-1.18306,0.00348561,0.0387048,1868,897,46.6419,-2.67524
651,127,46.5277,2.45618,-0.00102874,0.00218719,-0.00125794,0.00262079,-0.00146234,-1.23886,0.00238881,0.0409986,1875,897,46.5278,-2.45616
658,127,46.3191,2.8667,-0.000457598,0.0018088,-0.000526464,0.00192513,-0.000573921,-1.35334,0.00151149,0.041487,1882,897,46.3191,-2.8667
665,127,46.429,2.89435,-3.07374e-05,0.00148244,1.77479e-05,0.00148265,-3.09455e-05,1.55907,0.000998907,0.0402475,1889,897,46.4289,-2.89438
672,127,46.473,2.84619,0.000286932,0.00109415,0.000414309,0.00126894,0.000112136,1.17156,0.000811172,0.0362587,1896,897,46.473,-2.84616
679,127,46.5471,2.88617,0.000651453,0.000813324,0.000592206,0.0013301,0.000134678,0.853311,0.000845424,0.0278766,1903,897,46.5471,-2.88616
686,127,46.5806,2.84735,0.000856373,0.00063282,0.000698796,0.00145228,3.69179e-05,0.706092,0.000956115,0.0472888,1910,897,46.5805,-2.84738
693,127,46.6448,2.66431,0,0,0,0,0,0,0,-1,1917,897,46.6448,-2.66429
700,127,40.7596,2.74933,0,0,0,0,0,0,0,-1,1924,897,40.7596,-2.74934
707,127,40.6409,3.22198,0.000609068,0.000319991,0.000704827,0.00118402,-0.000254966,0.684266,0.000886643,0.025732,1931,897,40.6408,-3.22201
714,127,40.848,3.76538,0.000727128,0.000518461,0.000518514,0.0011517,9.3888e-05,0.686116,0.000738497,0.0217726,1938,897,40.848,-3.76538
721,127,41.0431,4.40906,0.000627638,0.000734527,0.000342016,0.00102725,0.000334916,0.862903,0.000604931,0.0177835,1945,897,41.0431,-4.40906
728,127,40.985,4.80927,0.000643944,0.00219779,-9.54789e-05,0.00220364,0.000638099,-1.50966,0.00130929,0.0153879,1952,897,40.985,-4.80925
735,127,40.9375,5.29218,0.000847608,0.00517997,-0.000980982,0.00539174,0.000635835,-1.35818,0.00340241,0.0199471,1959,897,40.9375,-5.29215
742,127,40.9143,5.78052,0.00110238,0.00992242,-0.00212652,0.0104084,0.000616449,-1.34614,0.00674282,0.018242,1966,897,40.9144,-5.78053
749,127,40.8905,6.20581,0.00172732,0.0175803,-0.00355982,0.018343,0.000964649,-1.35974,0.0119201,0.0131662,1973,897,40.8905,-6.2058
756,127,40.8485,6.6156,0.00301622,0.0282998,-0.00560843,0.029488,0.00182799,-1.36202,0.0190786,0.0155107,1980,897,40.8485,-6.61563
763,127,40.8043,7.04645,0.00520949,0.0431059,-0.00842859,0.044896,0.00341943,-1.36153,0.0288584,0.0246776,1987,897,40.8043,-7.04643
770,127,40.7848,7.47601,0,0,0,0,0,0,0,-1,1994,897,40.7847,-7.47602
777,127,42.703,5.33789,0,0,0,0,0,0,0,-1,2001,897,42.7031,-5.33791
784,127,42.6145,8.47131,0,0,0,0,0,0,0,-1,2008,897,42.6146,-8.47131
791,127,42.238,8.97205,0,0,0,0,0,0,0,-1,2015,897,42.2381,-8.97204
798,127,0,0,0,0,0,0,0,0,0,-1,2022,897,0,0
805,127,0,0,0,0,0,0,0,0,0,-1,2029,897,0,0
812,127,0,0,0,0,0,0,0,0,0,-1,2036,897,0,0
-700,120,0,0,0,0,0,0,0,0,0,-1,524,904,0,0
-693,120,0,0,0,0,0,0,0,0,0,-1,531,904,0,0
-686,120,0,0,0,0,0,0,0,0,0,-1,538,904,0,0
-679,120,-29.9805,2.74487,0,0,0,0,0,0,0,-1,545,904,-29.9805,-2.74486
-672,120,-34.0113,0.702393,0,0,0,0,0,0,0,-1,552,904,-34.0113,-0.70237
-665,120,-33.0872,1.02594,0,0,0,0,0,0,0,-1,559,904,-33.0871,-1.02595
-658,120,-32.4199,1.33679,0,0,0,0,0,0,0,-1,566,904,-32.4199,-1.33677
-651,120,-31.6302,4.95129,0,0,0,0,0,0,0,-1,573,904,-31.6302,-4.95127
-644,120,-31.3969,4.862,0,0,0,0,0,0,0,-1,580,904,-31.3969,-4.86203
-637,120,-30.9128,4.55469,0.0117213,0.00311165,-0.00302876,0.01268,0.00215293,-0.30656,0.00783494,0.0472554,587,904,-30.9128,-4.55467
-630,120,-30.4615,4.17657,0.00618705,0.0034296,-0.00146864,0.00682272,0.00279393,-0.408482,0.00396054,0.026368,594,904,-30.4615,-4.17659
-623,120,-30.4956,3.81793,0.00322335,0.00460382,-0.000133173,0.00461655,0.00321062,-1.4755,0.00273241,0.0110498,601,904,-30.4956,-3.81794
-616,120,-30.5052,3.43933,-0.000719703,0.00356186,0.000683305,0.00366827,-0.000826109,1.41631,0.00276237,0.0101851,608,904,-30.5052,-3.43935
-609,120,-30.5309,3.04596,-0.00223103,0.00286108,0.00137935,0.00321071,-0.00258066,1.32255,0.00335024,0.0136634,615,904,-30.5309,-3.04594
-602,120,-30.5638,2.6369,-0.00432972,0.0012846,0.00155368,0.00168587,-0.004731,1.31805,0.00384132,0.0152608,622,904,-30.5638,-2.63689
-595,120,-30.4796,2.27747,-0.00491799,0.000131503,0.00156632,0.000577901,-0.00536438,1.29316,0.00378363,0.027086,629,904,-30.4796,-2.27745
-588,120,-30.455,1.80255,-0.0043691,-0.000453187,0.00149422,5.18402e-05,-0.00487412,1.24486,0.00326683,0.037283,636,904,-30.455,-1.80255
-581,120,-30.2418,1.22369,0,0,0,0,0,0,0,-1,643,904,-30.2418,-1.22367
-574,120,-27.5438,0.505066,0,0,0,0,0,0,0,-1,650,904,-27.5438,-0.505085
-567,120,-25.2822,-0.410645,0,0,0,0,0,0,0,-1,657,904,-25.2821,0.410629
-560,120,-27.3358,1.10327,0,0,0,0,0,0,0,-1,664,904,-27.3358,-1.10324
-553,120,-34.5164,1.22498,0,0,0,0,0,0,0,-1,671,904,-34.5163,-1.22495
-546,120,-34.5904,1.20215,-0.00191051,0.00017379,0.000731306,0.000404781,-0.0021415,1.26485,0.00157997,0.033458,678,904,-34.5904,-1.20213
-539,120,-34.5564,1.1629,-0.00133599,0.000824205,0.000511718,0.000939292,-0.00145107,1.34957,0.00139058,0.028368,685,904,-34.5564,-1.16293
-532,120,-34.449,1.23761,-0.000549953,0.00188957,0.000187068,0.00190384,-0.000564214,1.49471,0.00149326,0.0292281,692,904,-34.449,-1.23761
-525,120,-34.7205,1.73956,0,0,0,0,0,0,0,-1,699,904,-34.7205,-1.73957
-518,120,-34.6331,1.5061,0.000168477,0.0061238,-0.00160354,0.00652812,-0.000235844,-1.3238,0.00443279,0.0387367,706,904,-34.6331,-1.50611
-511,120,-34.5934,1.27576,0.000926061,0.0092697,-0.00306226,0.010273,-7.72034e-05,-1.25419,0.00687452,0.0386673,713,904,-34.5935,-1.27578
-504,120,0,0,0,0,0,0,0,0,0,-1,720,904,0,0
-497,120,0,0,0,0,0,0,0,0,0,-1,727,904,0,0
-490,120,0,0,0,0,0,0,0,0,0,-1,734,904,0,0
-483,120,0,0,0,0,0,0,0,0,0,-1,741,904,0,0
-476,120,0,0,0,0,0,0,0,0,0,-1,748,904,0,0
-469,120,0,0,0,0,0,0,0,0,0,-1,755,904,0,0
-462,120,0,0,0,0,0,0,0,0,0,-1,762,904,0,0
-455,120,0,0,0,0,0,0,0,0,0,-1,769,904,0,0
-448,120,0,0,0,0,0,0,0,0,0,-1,776,904,0,0
-441,120,0,0,0,0,0,0,0,0,0,-1,783,904,0,0
-434,120,0,0,0,0,0,0,0,0,0,-1,790,904,0,0
-427,120,0,0,0,0,0,0,0,0,0,-1,797,904,0,0
-420,120,0,0,0,0,0,0,0,0,0,-1,804,904,0,0
-413,120,0,0,0,0,0,0,0,0,0,-1,811,904,0,0
-406,120,0,0,0,0,0,0,0,0,0,-1,818,904,0,0
-399,120,0,0,0,0,0,0,0,0,0,-1,825,904,0,0
-392,120,0,0,0,0,0,0,0,0,0,-1,832,904,0,0
-385,120,0,0,0,0,0,0,0,0,0,-1,839,904,0,0
-378,120,0,0,0,0,0,0,0,0,0,-1,846,904,0,0
-371,120,0,0,0,0,0,0,0,0,0,-1,853,904,0,0
-364,120,0,0,0,0,0,0,0,0,0,-1,860,904,0,0
-357,120,0,0,0,0,0,0,0,0,0,-1,867,904,0,0
-350,120,0,0,0,0,0,0,0,0,0,-1,874,904,0,0
-343,120,0,0,0,0,0,0,0,0,0,-1,881,904,0,0
-336,120,0,0,0,0,0,0,0,0,0,-1,888,904,0,0
-329,120,0,0,0,0,0,0,0,0,0,-1,895,904,0,0
-322,120,0,0,0,0,0,0,0,0,0,-1,902,904,0,0
-315,120,0,0,0,0,0,0,0,0,0,-1,909,904,0,0
-308,120,0,0,0,0,0,0,0,0,0,-1,916,904,0,0
-301,120,0,0,0,0,0,0,0,0,0,-1,923,904,0,0
-294,120,0,0,0,0,0,0,0,0,0,-1,930,904,0,0
-287,120,0,0,0,0,0,0,0,0,0,-1,937,904,0,0
-280,120,0,0,0,0,0,0,0,0,0,-1,944,904,0,0
-273,120,0,0,0,0,0,0,0,0,0,-1,951,904,0,0
-266,120,0,0,0,0,0,0,0,0,0,-1,958,904,0,0
-259,120,0,0,0,0,0,0,0,0,0,-1,965,904,0,0
-252,120,0,0,0,0,0,0,0,0,0,-1,972,904,0,0
-245,120,0,0,0,0,0,0,0,0,0,-1,979,904,0,0
-238,120,0,0,0,0,0,0,0,0,0,-1,986,904,0,0
-231,120,0,0,0,0,0,0,0,0,0,-1,993,904,0,0
-224,120,0,0,0,0,0,0,0,0,0,-1,1000,904,0,0
-217,120,0,0,0,0,0,0,0,0,0,-1,1007,904,0,0
-210,120,0,0,0,0,0,0,0,0,0,-1,1014,904,0,0
-203,120,0,0,0,0,0,0,0,0,0,-1,1021,904,0,0
-196,120,0,0,0,0,0,0,0,0,0,-1,1028,904,0,0
-189,120,0,0,0,0,0,0,0,0,0,-1,1035,904,0,0
-182,120,0,0,0,0,0,0,0,0,0,-1,1042,904,0,0
-175,120,0,0,0,0,0,0,0,0,0,-1,1049,904,0,0
-168,120,0,0,0,0,0,0,0,0,0,-1,1056,904,0,0
-161,120,0,0,0,0,0,0,0,0,0,-1,1063,904,0,0
-154,120,0,0,0,0,0,0,0,0,0,-1,1070,904,0,0
-147,120,0,0,0,0,0,0,0,0,0,-1,1077,904,0,0
-140,120,0,0,0,0,0,0,0,0,0,-1,1084,904,0,0
-133,120,0,0,0,0,0,0,0,0,0,-1,1091,904,0,0
-126,120,0,0,0,0,0,0,0,0,0,-1,1098,904,0,0
-119,120,0,0,0,0,0,0,0,0,0,-1,1105,904,0,0
-112,120,0,0,0,0,0,0,0,0,0,-1,1112,904,0,0
-105,120,0,0,0,0,0,0,0,0,0,-1,1119,904,0,0
-98,120,0,0,0,0,0,0,0,0,0,-1,1126,904,0,0
-91,120,0,0,0,0,0,0,0,0,0,-1,1133,904,0,0
-84,120,0,0,0,0,0,0,0,0,0,-1,1140,904,0,0
-77,120,0,0,0,0,0,0,0,0,0,-1,1147,904,0,0
-70,120,0,0,0,0,0,0,0,0,0,-1,1154,904,0,0
-63,120,0,0,0,0,0,0,0,0,0,-1,1161,904,0,0
-56,120,0,0,0,0,0,0,0,0,0,-1,1168,904,0,0
-49,120,0,0,0,0,0,0,0,0,0,-1,1175,904,0,0
-42,120,0,0,0,0,0,0,0,0,0,-1,1182,904,0,0
-35,120,0,0,0,0,0,0,0,0,0,-1,1189,904,0,0
-28,120,0,0,0,0,0,0,0,0,0,-1,1196,904,0,0
-21,120,0,0,0,0,0,0,0,0,0,-1,1203,904,0,0
-14,120,0,0,0,0,0,0,0,0,0,-1,1210,904,0,0
-7,120,0,0,0,0,0,0,0,0,0,-1,1217,904,0,0
0,120,0,0,0,0,0,0,0,0,0,-1,1224,904,0,0
7,120,0,0,0,0,0,0,0,0,0,-1,1231,904,0,0
14,120,0,0,0,0,0,0,0,0,0,-1,1238,904,0,0
21,120,0,0,0,0,0,0,0,0,0,-1,1245,904,0,0
28,120,0,0,0,0,0,0,0,0,0,-1,1252,904,0,0
35,120,0,0,0,0,0,0,0,0,0,-1,1259,904,0,0
42,120,0,0,0,0,0,0,0,0,0,-1,1266,904,0,0
49,120,0,0,0,0,0,0,0,0,0,-1,1273,904,0,0
56,120,0,0,0,0,0,0,0,0,0,-1,1280,904,0,0
63,120,0,0,0,0,0,0,0,0,0,-1,1287,904,0,0
70,120,0,0,0,0,0,0,0,0,0,-1,1294,904,0,0
77,120,0,0,0,0,0,0,0,0,0,-1,1301,904,0,0
84,120,0,0,0,0,0,0,0,0,0,-1,1308,904,0,0
91,120,0,0,0,0,0,0,0,0,0,-1,1315,904,0,0
98,120,0,0,0,0,0,0,0,0,0,-1,1322,904,0,0
105,120,0,0,0,0,0,0,0,0,0,-1,1329,904,0,0
112,120,0,0,0,0,0,0,0,0,0,-1,1336,904,0,0
119,120,0,0,0,0,0,0,0,0,0,-1,1343,904,0,0
126,120,0,0,0,0,0,0,0,0,0,-1,1350,904,0,0
133,120,0,0,0,0,0,0,0,0,0,-1,1357,904,0,0
140,120,0,0,0,0,0,0,0,0,0,-1,1364,904,0,0
147,120,0,0,0,0,0,0,0,0,0,-1,1371,904,0,0
154,120,0,0,0,0,0,0,0,0,0,-1,1378,904,0,0
161,120,0,0,0,0,0,0,0,0,0,-1,1385,904,0,0
168,120,0,0,0,0,0,0,0,0,0,-1,1392,904,0,0
175,120,0,0,0,0,0,0,0,0,0,-1,1399,904,0,0
182,120,0,0,0,0,0,0,0,0,0,-1,1406,904,0,0
189,120,0,0,0,0,0,0,0,0,0,-1,1413,904,0,0
196,120,0,0,0,0,0,0,0,0,0,-1,1420,904,0,0
203,120,0,0,0,0,0,0,0,0,0,-1,1427,904,0,0
210,120,0,0,0,0,0,0,0,0,0,-1,1434,904,0,0
217,120,0,0,0,0,0,0,0,0,0,-1,1441,904,0,0
224,120,0,0,0,0,0,0,0,0,0,-1,1448,904,0,0
231,120,0,0,0,0,0,0,0,0,0,-1,1455,904,0,0
238,120,0,0,0,0,0,0,0,0,0,-1,1462,904,0,0
245,120,0,0,0,0,0,0,0,0,0,-1,1469,904,0,0
252,120,0,0,0,0,0,0,0,0,0,-1,1476,904,0,0
259,120,0,0,0,0,0,0,0,0,0,-1,1483,904,0,0
266,120,0,0,0,0,0,0,0,0,0,-1,1490,904,0,0
273,120,0,0,0,0,0,0,0,0,0,-1,1497,904,0,0
280,120,0,0,0,0,0,0,0,0,0,-1,1504,904,0,0
287,120,0,0,0,0,0,0,0,0,0,-1,1511,904,0,0
294,120,0,0,0,0,0,0,0,0,0,-1,1518,904,0,0
301,120,0,0,0,0,0,0,0,0,0,-1,1525,904,0,0
308,120,0,0,0,0,0,0,0,0,0,-1,1532,904,0,0
315,120,0,0,0,0,0,0,0,0,0,-1,1539,904,0,0
322,120,0,0,0,0,0,0,0,0,0,-1,1546,904,0,0
329,120,0,0,0,0,0,0,0,0,0,-1,1553,904,0,0
336,120,0,0,0,0,0,0,0,0,0,-1,1560,904,0,0
343,120,0,0,0,0,0,0,0,0,0,-1,1567,904,0,0
350,120,0,0,0,0,0,0,0,0,0,-1,1574,904,0,0
357,120,0,0,0,0,0,0,0,0,0,-1,1581,904,0,0
364,120,0,0,0,0,0,0,0,0,0,-1,1588,904,0,0
371,120,0,0,0,0,0,0,0,0,0,-1,1595,904,0,0
378,120,0,0,0,0,0,0,0,0,0,-1,1602,904,0,0
385,120,0,0,0,0,0,0,0,0,0,-1,1609,904,0,0
392,120,0,0,0,0,0,0,0,0,0,-1,1616,904,0,0
399,120,0,0,0,0,0,0,0,0,0,-1,1623,904,0,0
406,120,0,0,0,0,0,0,0,0,0,-1,1630,904,0,0
413,120,0,0,0,0,0,0,0,0,0,-1,1637,904,0,0
420,120,0,0,0,0,0,0,0,0,0,-1,1644,904,0,0
427,120,0,0,0,0,0,0,0,0,0,-1,1651,904,0,0
434,120,0,0,0,0,0,0,0,0,0,-1,1658,904,0,0
441,120,0,0,0,0,0,0,0,0,0,-1,1665,904,0,0
448,120,0,0,0,0,0,0,0,0,0,-1,1672,904,0,0
455,120,0,0,0,0,0,0,0,0,0,-1,1679,904,0,0
462,120,0,0,0,0,0,0,0,0,0,-1,1686,904,0,0
469,120,0,0,0,0,0,0,0,0,0,-1,1693,904,0,0
476,120,0,0,0,0,0,0,0,0,0,-1,1700,904,0,0
483,120,0,0,0,0,0,0,0,0,0,-1,1707,904,0,0
490,120,0,0,0,0,0,0,0,0,0,-1,1714,904,0,0
497,120,0,0,0,0,0,0,0,0,0,-1,1721,904,0,0
504,120,0,0,0,0,0,0,0,0,0,-1,1728,904,0,0
511,120,0,0,0,0,0,0,0,0,0,-1,1735,904,0,0
518,120,0,0,0,0,0,0,0,0,0,-1,1742,904,0,0
525,120,0,0,0,0,0,0,0,0,0,-1,1749,904,0,0
532,120,0,0,0,0,0,0,0,0,0,-1,1756,904,0,0
539,120,0,0,0,0,0,0,0,0,0,-1,1763,904,0,0
546,120,0,0,0,0,0,0,0,0,0,-1,1770,904,0,0
553,120,0,0,0,0,0,0,0,0,0,-1,1777,904,0,0
560,120,0,0,0,0,0,0,0,0,0,-1,1784,904,0,0
567,120,0,0,0,0,0,0,0,0,0,-1,1791,904,0,0
574,120,0,0,0,0,0,0,0,0,0,-1,1798,904,0,0
581,120,0,0,0,0,0,0,0,0,0,-1,1805,904,0,0
588,120,0,0,0,0,0,0,0,0,0,-1,1812,904,0,0
595,120,0,0,0,0,0,0,0,0,0,-1,1819,904,0,0
602,120,0,0,0,0,0,0,0,0,0,-1,1826,904,0,0
609,120,0,0,0,0,0,0,0,0,0,-1,1833,904,0,0
616,120,0,0,0,0,0,0,0,0,0,-1,1840,904,0,0
623,120,0,0,0,0,0,0,0,0,0,-1,1847,904,0,0
630,120,46.6219,2.8028,-0.00504867,0.00423276,-0.00485466,0.00630799,-0.0071239,-1.16683,0.00775967,0.0423529,1854,904,46.6219,-2.80281
637,120,46.3911,2.68793,-0.00300005,0.00367518,-0.00380428,0.00539841,-0.00472328,-1.14547,0.00584809,0.0436706,1861,904,46.3911,-2.68793
644,120,46.391,2.63226,-0.00182993,0.0031508,-0.00270195,0.00433501,-0.00301414,-1.15773,0.00426581,0.0416083,1868,904,46.391,-2.63225
651,120,46.3833,2.66162,-0.001155,0.00263763,-0.00166288,0.00326346,-0.00178082,-1.21084,0.00295395,0.0421661,1875,904,46.3833,-2.66159
658,120,46.4143,2.84631,-0.000595912,0.00217782,-0.00073066,0.00235852,-0.000776612,-1.32835,0.00188531,0.0416538,1882,904,46.4144,-2.84632
665,120,46.4878,2.93915,-0.000103915,0.00180901,-7.18036e-06,0.00180903,-0.000103942,-1.56704,0.00124212,0.0394338,1889,904,46.4878,-2.93917
672,120,46.5079,2.85638,0.000256815,0.00138398,0.000499708,0.00157361,6.71821e-05,1.2081,0.00102741,0.0379244,1896,904,46.508,-2.85637
679,120,46.5302,2.81036,0.000633311,0.00104623,0.000763664,0.00163085,4.86902e-05,0.917419,0.00107137,0.0337292,1903,904,46.5301,-2.81035
686,120,46.5223,2.89801,0.000853487,0.000809647,0.00090878,0.00174061,-7.7477e-05,0.77334,0.00118708,0.0285253,1910,904,46.5224,-2.898
693,120,46.5226,2.83832,0,0,0,0,0,0,0,-1,1917,904,46.5226,-2.8383
700,120,41.4242,3.08221,0,0,0,0,0,0,0,-1,1924,904,41.4242,-3.0822
707,120,41.234,3.44769,0.000570638,0.000408371,0.000876594,0.00136984,-0.000390836,0.739252,0.00106763,0.0431706,1931,904,41.234,-3.4477
714,120,41.5042,4.01917,0.000639162,0.000595947,0.000649418,0.00126733,-3.22225e-05,0.768768,0.000855831,0.0216442,1938,904,41.5042,-4.01916
721,120,41.5131,4.48395,0.000507574,0.000783118,0.000423153,0.00109036,0.00020033,0.942778,0.000670188,0.016914,1945,904,41.513,-4.48395
728,120,41.4644,4.93152,0.000440191,0.00199175,1.9886e-05,0.001992,0.000439936,1.55798,0.00120835,0.0119185,1952,904,41.4643,-4.93153
735,120,41.4081,5.29944,0.000455706,0.00420806,-0.000736356,0.00434739,0.000316378,-1.38379,0.00279877,0.0130132,1959,904,41.4081,-5.29943
742,120,41.3772,5.75903,0.000442795,0.00809607,-0.00171053,0.00846098,7.78865e-05,-1.36062,0.00561487,0.0136475,1966,904,41.3772,-5.75905
749,120,41.3563,6.1806,0.000680455,0.0145911,-0.00280781,0.0151365,0.00013509,-1.37895,0.0100463,0.0109612,1973,904,41.3563,-6.18058
756,120,41.306,6.60736,0.0014533,0.0236185,-0.00432311,0.0244318,0.000639965,-1.38483,0.0160788,0.014277,1980,904,41.3061,-6.60735
763,120,41.223,7.03857,0.00292647,0.0358522,-0.00633224,0.037028,0.00175066,-1.3872,0.024123,0.029633,1987,904,41.2231,-7.03859
770,120,41.1685,7.48981,0,0,0,0,0,0,0,-1,1994,904,41.1685,-7.48982
777,120,41.3512,6.78638,0,0,0,0,0,0,0,-1,2001,904,41.3512,-6.78635
784,120,42.5986,7.98151,0,0,0,0,0,0,0,-1,2008,904,42.5987,-7.98152
791,120,42.2488,7.85376,0,0,0,0,0,0,0,-1,2015,904,42.2489,-7.85375
798,120,42.8147,7.98224,0,0,0,0,0,0,0,-1,2022,904,42.8147,-7.98223
805,120,0,0,0,0,0,0,0,0,0,-1,2029,904,0,0
812,120,0,0,0,0,0,0,0,0,0,-1,2036,904,0,0
-700,113,0,0,0,0,0,0,0,0,0,-1,524,911,0,0
-693,113,0,0,0,0,0,0,0,0,0,-1,531,911,0,0
-686,113,0,0,0,0,0,0,0,0,0,-1,538,911,0,0
-679,113,-29.7403,2.8996,0,0,0,0,0,0,0,-1,545,911,-29.7403,-2.89963
-672,113,-30.002,2.09918,0,0,0,0,0,0,0,-1,552,911,-30.002,-2.09921
-665,113,-32.9369,-0.223633,0,0,0,0,0,0,0,-1,559,911,-32.9369,0.22363
-658,113,-32.3231,0.133789,0,0,0,0,0,0,0,-1,566,911,-32.3232,-0.133818
-651,113,-30.0552,4.98279,0,0,0,0,0,0,0,-1,573,911,-30.0552,-4.98278
-644,113,-31.5031,4.56256,0,0,0,0,0,0,0,-1,580,911,-31.503,-4.56259
-637,113,-30.9639,4.49121,-0.000308048,-0.00176053,-0.0015478,0.000675421,-0.002744,-0.566042,0.00209116,0.0393764,587,911,-30.9639,-4.49119
-630,113,-30.8808,4.17834,-0.00221204,0.000328585,-0.000257634,0.000354447,-0.00223791,-1.47075,0.00162304,0.018394,594,911,-30.8808,-4.17835
-623,113,-30.9434,3.79962,-0.00262184,0.00271398,0.000749015,0.00281713,-0.00272499,1.43394,0.00319989,0.0111232,601,911,-30.9434,-3.79964
-616,113,-30.9366,3.42108,-0.0041873,0.00277062,0.00129201,0.00300279,-0.00441947,1.393,0.00431118,0.0101915,608,911,-30.9366,-3.42108
-609,113,-30.9379,3.05768,-0.00446594,0.00248342,0.00158524,0.00282795,-0.00481047,1.35679,0.00445928,0.0114494,615,911,-30.9379,-3.05769
-602,113,-30.9832,2.64697,-0.00584917,0.00112235,0.00141686,0.0013993,-0.00612613,1.37776,0.00462168,0.0172689,622,911,-30.9832,-2.64697
-595,113,-30.9596,2.34613,-0.00628485,5.77948e-05,0.00120639,0.000279502,-0.00650656,1.38905,0.00443381,0.02353,629,911,-30.9596,-2.34615
-588,113,-30.923,1.96094,-0.00572617,-0.000442952,0.00102086,-0.000252557,-0.00591656,1.38641,0.00386294,0.0287149,636,911,-30.923,-1.96096
-581,113,-30.9445,1.5213,-0.00524181,-0.000579877,0.000994314,-0.000376664,-0.00544502,1.3692,0.0035112,0.0300135,643,911,-30.9444,-1.52131
-574,113,-30.9373,0.93866,0,0,0,0,0,0,0,-1,650,911,-30.9373,-0.938679
-567,113,-21.8396,0.437378,0,0,0,0,0,0,0,-1,657,911,-21.8396,-0.437351
-560,113,-34.5012,1.19324,0,0,0,0,0,0,0,-1,664,911,-34.5012,-1.19325
-553,113,-34.5248,1.24133,-0.0035392,0.00024909,0.000114161,0.000252527,-0.00354264,1.5407,0.00245027,0.0412573,671,911,-34.5248,-1.24131
-546,113,-34.5521,1.26575,-0.00296393,0.000824296,-0.000108823,0.00082742,-0.00296705,-1.5421,0.00230391,0.0383508,678,911,-34.552,-1.26575
-539,113,-34.5541,1.18451,-0.00205186,0.00173507,-0.000375775,0.001772,-0.00208879,-1.47284,0.00223153,0.0406497,685,911,-34.5542,-1.1845
-532,113,-34.5003,1.2821,-0.000779488,0.00313961,-0.000752665,0.00327919,-0.000919066,-1.38743,0.00254834,0.0402569,692,911,-34.5003,-1.28209
-525,113,-34.5951,1.39624,0.000395224,0.00528065,-0.00148774,0.00569804,-2.21718e-05,-1.29727,0.00380611,0.0369076,699,911,-34.5951,-1.39621
-518,113,-34.6448,1.31085,0.00056912,0.00802031,-0.00275875,0.00893052,-0.000341095,-1.2521,0.00607057,0.0386861,706,911,-34.6448,-1.31088
-511,113,-34.5327,0.957275,0.00120516,0.0111428,-0.00434778,0.0127764,-0.000428476,-1.21138,0.00866398,0.0405592,713,911,-34.5327,-0.957305
-504,113,0,0,0,0,0,0,0,0,0,-1,720,911,0,0
-497,113,0,0,0,0,0,0,0,0,0,-1,727,911,0,0
-490,113,0,0,0,0,0,0,0,0,0,-1,734,911,0,0
-483,113,0,0,0,0,0,0,0,0,0,-1,741,911,0,0
-476,113,0,0,0,0,0,0,0,0,0,-1,748,911,0,0
-469,113,0,0,0,0,0,0,0,0,0,-1,755,911,0,0
-462,113,0,0,0,0,0,0,0,0,0,-1,762,911,0,0
-455,113,0,0,0,0,0,0,0,0,0,-1,769,911,0,0
-448,113,0,0,0,0,0,0,0,0,0,-1,776,911,0,0
-441,113,0,0,0,0,0,0,0,0,0,-1,783,911,0,0
-434,113,0,0,0,0,0,0,0,0,0,-1,790,911,0,0
-427,113,0,0,0,0,0,0,0,0,0,-1,797,911,0,0
-420,113,0,0,0,0,0,0,0,0,0,-1,804,911,0,0
-413,113,0,0,0,0,0,0,0,0,0,-1,811,911,0,0
-406,113,0,0,0,0,0,0,0,0,0,-1,818,911,0,0
-399,113,0,0,0,0,0,0,0,0,0,-1,825,911,0,0
-392,113,0,0,0,0,0,0,0,0,0,-1,832,911,0,0
-385,113,0,0,0,0,0,0,0,0,0,-1,839,911,0,0
-378,113,0,0,0,0,0,0,0,0,0,-1,846,911,0,0
-371,113,0,0,0,0,0,0,0,0,0,-1,853,911,0,0
-364,113,0,0,0,0,0,0,0,0,0,-1,860,911,0,0
-357,113,0,0,0,0,0,0,0,0,0,-1,867,911,0,0
-350,113,0,0,0,0,0,0,0,0,0,-1,874,911,0,0
-343,113,0,0,0,0,0,0,0,0,0,-1,881,911,0,0
-336,113,0,0,0,0,0,0,0,0,0,-1,888,911,0,0
-329,113,0,0,0,0,0,0,0,0,0,-1,895,911,0,0
-322,113,0,0,0,0,0,0,0,0,0,-1,902,911,0,0
-315,113,0,0,0,0,0,0,0,0,0,-1,909,911,0,0
-308,113,0,0,0,0,0,0,0,0,0,-1,916,911,0,0
-301,113,0,0,0,0,0,0,0,0,0,-1,923,911,0,0
-294,113,0,0,0,0,0,0,0,0,0,-1,930,911,0,0
-287,113,0,0,0,0,0,0,0,0,0,-1,937,911,0,0
-280,113,0,0,0,0,0,0,0,0,0,-1,944,911,0,0
-273,113,0,0,0,0,0,0,0,0,0,-1,951,911,0,0
-266,113,0,0,0,0,0,0,0,0,0,-1,958,911,0,0
-259,113,0,0,0,0,0,0,0,0,0,-1,965,911,0,0
-252,113,0,0,0,0,0,0,0,0,0,-1,972,911,0,0
-245,113,0,0,0,0,0,0,0,0,0,-1,979,911,0,0
-238,113,0,0,0,0,0,0,0,0,0,-1,986,911,0,0
-231,113,0,0,0,0,0,0,0,0,0,-1,993,911,0,0
-224,113,0,0,0,0,0,0,0,0,0,-1,1000,911,0,0
-217,113,0,0,0,0,0,0,0,0,0,-1,1007,911,0,0
-210,113,0,0,0,0,0,0,0,0,0,-1,1014,911,0,0
-203,113,0,0,0,0,0,0,0,0,0,-1,1021,911,0,0
-196,113,0,0,0,0,0,0,0,0,0,-1,1028,911,0,0
-189,113,0,0,0,0,0,0,0,0,0,-1,1035,911,0,0
-182,113,0,0,0,0,0,0,0,0,0,-1,1042,911,0,0
-175,113,0,0,0,0,0,0,0,0,0,-1,1049,911,0,0
-168,113,0,0,0,0,0,0,0,0,0,-1,1056,911,0,0
-161,113,0,0,0,0,0,0,0,0,0,-1,1063,911,0,0
-154,113,0,0,0,0,0,0,0,0,0,-1,1070,911,0,0
-147,113,0,0,0,0,0,0,0,0,0,-1,1077,911,0,0
-140,113,0,0,0,0,0,0,0,0,0,-1,1084,911,0,0
-133,113,0,0,0,0,0,0,0,0,0,-1,1091,911,0,0
-126,113,0,0,0,0,0,0,0,0,0,-1,1098,911,0,0
-119,113,0,0,0,0,0,0,0,0,0,-1,1105,911,0,0
-112,113,0,0,0,0,0,0,0,0,0,-1,1112,911,0,0
-105,113,0,0,0,0,0,0,0,0,0,-1,1119,911,0,0
-98,113,0,0,0,0,0,0,0,0,0,-1,1126,911,0,0
-91,113,0,0,0,0,0,0,0,0,0,-1,1133,911,0,0
-84,113,0,0,0,0,0,0,0,0,0,-1,1140,911,0,0
-77,113,0,0,0,0,0,0,0,0,0,-1,1147,911,0,0
-70,113,0,0,0,0,0,0,0,0,0,-1,1154,911,0,0
-63,113,0,0,0,0,0,0,0,0,0,-1,1161,911,0,0
-56,113,0,0,0,0,0,0,0,0,0,-1,1168,911,0,0
-49,113,0,0,0,0,0,0,0,0,0,-1,1175,911,0,0
-42,113,0,0,0,0,0,0,0,0,0,-1,1182,911,0,0
-35,113,0,0,0,0,0,0,0,0,0,-1,1189,911,0,0
-28,113,0,0,0,0,0,0,0,0,0,-1,1196,911,0,0
-21,113,0,0,0,0,0,0,0,0,0,-1,1203,911,0,0
-14,113,0,0,0,0,0,0,0,0,0,-1,1210,911,0,0
-7,113,0,0,0,0,0,0,0,0,0,-1,1217,911,0,0
0,113,0,0,0,0,0,0,0,0,0,-1,1224,911,0,0
7,113,0,0,0,0,0,0,0,0,0,-1,1231,911,0,0
14,113,0,0,0,0,0,0,0,0,0,-1,1238,911,0,0
21,113,0,0,0,0,0,0,0,0,0,-1,1245,911,0,0
28,113,0,0,0,0,0,0,0,0,0,-1,1252,911,0,0
35,113,0,0,0,0,0,0,0,0,0,-1,1259,911,0,0
42,113,0,0,0,0,0,0,0,0,0,-1,1266,911,0,0
49,113,0,0,0,0,0,0,0,0,0,-1,1273,911,0,0
56,113,0,0,0,0,0,0,0,0,0,-1,1280,911,0,0
63,113,0,0,0,0,0,0,0,0,0,-1,1287,911,0,0
70,113,0,0,0,0,0,0,0,0,0,-1,1294,911,0,0
77,113,0,0,0,0,0,0,0,0,0,-1,1301,911,0,0
84,113,0,0,0,0,0,0,0,0,0,-1,1308,911,0,0
91,113,0,0,0,0,0,0,0,0,0,-1,1315,911,0,0
98,113,0,0,0,0,0,0,0,0,0,-1,1322,911,0,0
105,113,0,0,0,0,0,0,0,0,0,-1,1329,911,0,0
112,113,0,0,0,0,0,0,0,0,0,-1,1336,911,0,0
119,113,0,0,0,0,0,0,0,0,0,-1,1343,911,0,0
126,113,0,0,0,0,0,0,0,0,0,-1,1350,911,0,0
133,113,0,0,0,0,0,0,0,0,0,-1,1357,911,0,0
140,113,0,0,0,0,0,0,0,0,0,-1,1364,911,0,0
147,113,0,0,0,0,0,0,0,0,0,-1,1371,911,0,0
154,113,0,0,0,0,0,0,0,0,0,-1,1378,911,0,0
161,113,0,0,0,0,0,0,0,0,0,-1,1385,911,0,0
168,113,0,0,0,0,0,0,0,0,0,-1,1392,911,0,0
175,113,0,0,0,0,0,0,0,0,0,-1,1399,911,0,0
182,113,0,0,0,0,0,0,0,0,0,-1,1406,911,0,0
189,113,0,0,0,0,0,0,0,0,0,-1,1413,911,0,0
196,113,0,0,0,0,0,0,0,0,0,-1,1420,911,0,0
203,113,0,0,0,0,0,0,0,0,0,-1,1427,911,0,0
210,113,0,0,0,0,0,0,0,0,0,-1,1434,911,0,0
217,113,0,0,0,0,0,0,0,0,0,-1,1441,911,0,0
224,113,0,0,0,0,0,0,0,0,0,-1,1448,911,0,0
231,113,0,0,0,0,0,0,0,0,0,-1,1455,911,0,0
238,113,0,0,0,0,0,0,0,0,0,-1,1462,911,0,0
245,113,0,0,0,0,0,0,0,0,0,-1,1469,911,0,0
252,113,0,0,0,0,0,0,0,0,0,-1,1476,911,0,0
259,113,0,0,0,0,0,0,0,0,0,-1,1483,911,0,0
266,113,0,0,0,0,0,0,0,0,0,-1,1490,911,0,0
273,113,0,0,0,0,0,0,0,0,0,-1,1497,911,0,0
280,113,0,0,0,0,0,0,0,0,0,-1,1504,911,0,0
287,113,0,0,0,0,0,0,0,0,0,-1,1511,911,0,0
294,113,0,0,0,0,0,0,0,0,0,-1,1518,911,0,0
301,113,0,0,0,0,0,0,0,0,0,-1,1525,911,0,0
308,113,0,0,0,0,0,0,0,0,0,-1,1532,911,0,0
315,113,0,0,0,0,0,0,0,0,0,-1,1539,911,0,0
322,113,0,0,0,0,0,0,0,0,0,-1,1546,911,0,0
329,113,0,0,0,0,0,0,0,0,0,-1,1553,911,0,0
336,113,0,0,0,0,0,0,0,0,0,-1,1560,911,0,0
343,113,0,0,0,0,0,0,0,0,0,-1,1567,911,0,0
350,113,0,0,0,0,0,0,0,0,0,-1,1574,911,0,0
357,113,0,0,0,0,0,0,0,0,0,-1,1581,911,0,0
364,113,0,0,0,0,0,0,0,0,0,-1,1588,911,0,0
371,113,0,0,0,0,0,0,0,0,0,-1,1595,911,0,0
378,113,0,0,0,0,0,0,0,0,0,-1,1602,911,0,0
385,113,0,0,0,0,0,0,0,0,0,-1,1609,911,0,0
392,113,0,0,0,0,0,0,0,0,0,-1,1616,911,0,0
399,113,0,0,0,0,0,0,0,0,0,-1,1623,911,0,0
406,113,0,0,0,0,0,0,0,0,0,-1,1630,911,0,0
413,113,0,0,0,0,0,0,0,0,0,-1,1637,911,0,0
420,113,0,0,0,0,0,0,0,0,0,-1,1644,911,0,0
427,113,0,0,0,0,0,0,0,0,0,-1,1651,911,0,0
434,113,0,0,0,0,0,0,0,0,0,-1,1658,911,0,0
441,113,0,0,0,0,0,0,0,0,0,-1,1665,911,0,0
448,113,0,0,0,0,0,0,0,0,0,-1,1672,911,0,0
455,113,0,0,0,0,0,0,0,0,0,-1,1679,911,0,0
462,113,0,0,0,0,0,0,0,0,0,-1,1686,911,0,0
469,113,0,0,0,0,0,0,0,0,0,-1,1693,911,0,0
476,113,0,0,0,0,0,0,0,0,0,-1,1700,911,0,0
483,113,0,0,0,0,0,0,0,0,0,-1,1707,911,0,0
490,113,0,0,0,0,0,0,0,0,0,-1,1714,911,0,0
497,113,0,0,0,0,0,0,0,0,0,-1,1721,911,0,0
504,113,0,0,0,0,0,0,0,0,0,-1,1728,911,0,0
511,113,0,0,0,0,0,0,0,0,0,-1,1735,911,0,0
518,113,0,0,0,0,0,0,0,0,0,-1,1742,911,0,0
525,113,0,0,0,0,0,0,0,0,0,-1,1749,911,0,0
532,113,0,0,0,0,0,0,0,0,0,-1,1756,911,0,0
539,113,0,0,0,0,0,0,0,0,0,-1,1763,911,0,0
546,113,0,0,0,0,0,0,0,0,0,-1,1770,911,0,0
553,113,0,0,0,0,0,0,0,0,0,-1,1777,911,0,0
560,113,0,0,0,0,0,0,0,0,0,-1,1784,911,0,0
567,113,0,0,0,0,0,0,0,0,0,-1,1791,911,0,0
574,113,0,0,0,0,0,0,0,0,0,-1,1798,911,0,0
581,113,0,0,0,0,0,0,0,0,0,-1,1805,911,0,0
588,113,0,0,0,0,0,0,0,0,0,-1,1812,911,0,0
595,113,0,0,0,0,0,0,0,0,0,-1,1819,911,0,0
602,113,0,0,0,0,0,0,0,0,0,-1,1826,911,0,0
609,113,0,0,0,0,0,0,0,0,0,-1,1833,911,0,0
616,113,0,0,0,0,0,0,0,0,0,-1,1840,911,0,0
623,113,0,0,0,0,0,0,0,0,0,-1,1847,911,0,0
630,113,46.5951,2.86578,-0.00453334,0.00505204,-0.00573788,0.00773552,-0.00721682,-1.13334,0.00863447,0.0406195,1854,911,46.595,-2.86578
637,113,46.4508,2.79205,-0.00259093,0.00428053,-0.00450227,0.00650825,-0.00481865,-1.11132,0.00656379,0.0397268,1861,911,46.4508,-2.79207
644,113,46.3873,2.77039,-0.00158751,0.00359791,-0.00324918,0.00516204,-0.00315164,-1.12215,0.00484646,0.0395042,1868,911,46.3874,-2.77039
651,113,46.4409,2.79602,-0.00108642,0.0029533,-0.00204083,0.00380482,-0.00193794,-1.17552,0.00337347,0.0420152,1875,911,46.441,-2.79604
658,113,46.5659,2.85028,-0.00070314,0.00240001,-0.000908544,0.00264645,-0.000949574,-1.30593,0.00215183,0.0422703,1882,911,46.5659,-2.85029
665,113,46.6017,2.9209,-0.000286422,0.00196049,1.24977e-05,0.00196056,-0.000286491,1.56523,0.00141226,0.0390179,1889,911,46.6017,-2.92091
672,113,46.5604,2.8299,3.62347e-05,0.00149966,0.000654424,0.00174962,-0.000213722,1.20595,0.00124379,0.0378507,1896,911,46.5604,-2.82992
679,113,46.5818,2.74585,0.000375059,0.00109323,0.00102211,0.0018175,-0.000349207,0.954323,0.00134328,0.030846,1903,911,46.5818,-2.74585
686,113,46.5464,2.81573,0.00060092,0.000798199,0.00121025,0.00191383,-0.000514705,0.82606,0.00147764,0.0304368,1910,911,46.5464,-2.81572
693,113,46.4027,2.96112,0,0,0,0,0,0,0,-1,1917,911,46.4028,-2.96114
700,113,43.897,2.79669,0,0,0,0,0,0,0,-1,1924,911,43.897,-2.79671
707,113,41.9446,3.56531,0,0,0,0,0,0,0,-1,1931,911,41.9446,-3.5653
714,113,41.8643,3.95483,0.000333066,0.00059631,0.000893284,0.00136762,-0.000438241,0.858545,0.00108766,0.0222082,1938,911,41.8643,-3.95481
721,113,41.8722,4.42157,0.000203504,0.000791401,0.000626138,0.00118916,-0.000194251,1.00486,0.000864824,0.0212093,1945,911,41.8722,-4.42159
728,113,41.9229,4.94116,9.84287e-05,0.00182135,0.000261914,0.00186029,5.94931e-05,1.42322,0.00122084,0.0210819,1952,911,41.9228,-4.94114
735,113,41.8669,5.35846,-3.65563e-06,0.0034452,-0.000373396,0.00348517,-4.3619e-05,-1.46418,0.00233812,0.0186284,1959,911,41.8669,-5.35845
742,113,41.8307,5.7605,-0.00020689,0.00662528,-0.00119561,0.00682846,-0.000410075,-1.40246,0.00469497,0.0122031,1966,911,41.8306,-5.7605
749,113,41.8405,6.16956,-0.000313695,0.0121,-0.00199355,0.0124123,-0.000625989,-1.41541,0.00849122,0.00903461,1973,911,41.8405,-6.16959
756,113,41.7858,6.60455,-4.20491e-05,0.0196666,-0.00299579,0.0201119,-0.000487358,-1.42323,0.0135733,0.0137139,1980,911,41.7858,-6.60453
763,113,41.6376,7.11401,0.000727866,0.0298514,-0.00423866,0.0304558,0.000123508,-1.42917,0.0202628,0.02986,1987,911,41.6375,-7.11404
770,113,41.6261,7.46893,0,0,0,0,0,0,0,-1,1994,911,41.6261,-7.46895
777,113,41.6749,6.92761,0,0,0,0,0,0,0,-1,2001,911,41.6749,-6.92759
784,113,42.5828,7.4917,0,0,0,0,0,0,0,-1,2008,911,42.5828,-7.49173
791,113,42.229,7.76093,0,0,0,0,0,0,0,-1,2015,911,42.229,-7.76093
798,113,42.8308,7.89142,0,0,0,0,0,0,0,-1,2022,911,42.8307,-7.89141
805,113,0,0,0,0,0,0,0,0,0,-1,2029,911,0,0
812,113,0,0,0,0,0,0,0,0,0,-1,2036,911,0,0
-700,106,0,0,0,0,0,0,0,0,0,-1,524,918,0,0
-693,106,0,0,0,0,0,0,0,0,0,-1,531,918,0,0
-686,106,0,0,0,0,0,0,0,0,0,-1,538,918,0,0
-679,106,-29.4818,3.35242,-0.0113929,-0.0607497,-0.0105709,-0.00922417,-0.0629185,-0.202351,0.039234,0.0492727,545,918,-29.4817,-3.35241
-672,106,-29.9342,2.85651,-0.00853196,-0.0447086,-0.00883927,-0.00648773,-0.0467529,-0.227272,0.0292469,0.0495641,552,918,-29.9342,-2.85651
-665,106,-30.3611,2.02899,0,0,0,0,0,0,0,-1,559,918,-30.3611,-2.02899
-658,106,-31.0652,1.17328,0,0,0,0,0,0,0,-1,566,918,-31.0652,-1.17328
-651,106,-30.6995,5.78986,0,0,0,0,0,0,0,-1,573,918,-30.6995,-5.78984
-644,106,-30.8924,5.133,-0.00943717,-0.00875004,-0.00150363,-0.00755123,-0.010636,-0.897716,0.0063186,0.0451685,580,918,-30.8924,-5.133
-637,106,-31.0049,4.63788,-0.00906686,-0.00413121,-0.000244269,-0.00411915,-0.00907892,-1.52147,0.0052492,0.0312554,587,918,-31.005,-4.6379
-630,106,-31.2607,4.23706,-0.00807903,-0.000963649,0.000714808,-0.000892551,-0.00815013,1.47166,0.00516169,0.0141845,594,918,-31.2607,-4.23707
-623,106,-31.3727,3.75256,-0.00666647,0.00205741,0.00136991,0.00226747,-0.00687653,1.41864,0.0054983,0.0135064,601,918,-31.3727,-3.75255
-616,106,-31.3872,3.37439,-0.00647694,0.00275261,0.00165616,0.00304079,-0.00676512,1.39851,0.00579596,0.013626,608,918,-31.3872,-3.37438
-609,106,-31.3666,3.02875,-0.00607518,0.00261861,0.00163484,0.00291587,-0.00637245,1.39093,0.00548499,0.012426,615,918,-31.3666,-3.02874
-602,106,-31.3881,2.64709,-0.00705227,0.00139793,0.00122457,0.00157181,-0.00722616,1.42975,0.00541792,0.0180757,622,918,-31.3881,-2.64707
-595,106,-31.4925,2.31055,-0.0074178,0.000394924,0.000864026,0.000489337,-0.00751221,1.46196,0.00517897,0.0223184,629,918,-31.4925,-2.31058
-588,106,-31.4598,1.8952,-0.00694339,-5.97956e-05,0.000623768,-3.72855e-06,-0.00699946,1.48115,0.00466506,0.0263293,636,918,-31.4599,-1.89523
-581,106,-31.2916,1.44299,-0.00653305,-0.000181121,0.00052844,-0.000137459,-0.00657671,1.48836,0.00433938,0.0162838,643,918,-31.2916,-1.44301
-574,106,-31.257,1.0188,0,0,0,0,0,0,0,-1,650,918,-31.257,-1.01883
-567,106,-31.5134,0.533264,0,0,0,0,0,0,0,-1,657,918,-31.5134,-0.533291
-560,106,-34.5114,1.07043,0,0,0,0,0,0,0,-1,664,918,-34.5114,-1.07046
-553,106,-34.5654,1.25287,-0.00472576,0.000942205,-0.000605906,0.00100625,-0.0047898,-1.46548,0.00357613,0.035722,671,918,-34.5654,-1.2529
-546,106,-34.5421,1.26599,-0.00389139,0.0016371,-0.000891547,0.00177732,-0.00403161,-1.4148,0.00343694,0.0394821,678,918,-34.542,-1.26596
-539,106,-34.5226,1.11511,-0.00255803,0.00267772,-0.00123214,0.00295319,-0.0028335,-1.35084,0.00334118,0.0434741,685,918,-34.5227,-1.11511
-532,106,-34.518,1.34546,-0.000683256,0.00420258,-0.00170418,0.00473826,-0.00121894,-1.26624,0.00363395,0.042075,692,918,-34.518,-1.34548
-525,106,-34.6043,1.27179,0.00111234,0.00643845,-0.00257119,0.00747714,7.36546e-05,-1.18687,0.00496039,0.0390603,699,918,-34.6043,-1.27179
-518,106,-34.607,1.13568,0.00110844,0.00920311,-0.00403797,0.010873,-0.000561396,-1.17868,0.00744283,0.0393641,706,918,-34.607,-1.13566
-511,106,0,0,0,0,0,0,0,0,0,-1,713,918,0,0
-504,106,0,0,0,0,0,0,0,0,0,-1,720,918,0,0
-497,106,0,0,0,0,0,0,0,0,0,-1,727,918,0,0
-490,106,0,0,0,0,0,0,0,0,0,-1,734,918,0,0
-483,106,0,0,0,0,0,0,0,0,0,-1,741,918,0,0
-476,106,0,0,0,0,0,0,0,0,0,-1,748,918,0,0
-469,106,0,0,0,0,0,0,0,0,0,-1,755,918,0,0
-462,106,0,0,0,0,0,0,0,0,0,-1,762,918,0,0
-455,106,0,0,0,0,0,0,0,0,0,-1,769,918,0,0
-448,106,0,0,0,0,0,0,0,0,0,-1,776,918,0,0
-441,106,0,0,0,0,0,0,0,0,0,-1,783,918,0,0
-434,106,0,0,0,0,0,0,0,0,0,-1,790,918,0,0
-427,106,0,0,0,0,0,0,0,0,0,-1,797,918,0,0
-420,106,0,0,0,0,0,0,0,0,0,-1,804,918,0,0
-413,106,0,0,0,0,0,0,0,0,0,-1,811,918,0,0
-406,106,0,0,0,0,0,0,0,0,0,-1,818,918,0,0
-399,106,0,0,0,0,0,0,0,0,0,-1,825,918,0,0
-392,106,0,0,0,0,0,0,0,0,0,-1,832,918,0,0
-385,106,0,0,0,0,0,0,0,0,0,-1,839,918,0,0
-378,106,0,0,0,0,0,0,0,0,0,-1,846,918,0,0
-371,106,0,0,0,0,0,0,0,0,0,-1,853,918,0,0
-364,106,0,0,0,0,0,0,0,0,0,-1,860,918,0,0
-357,106,0,0,0,0,0,0,0,0,0,-1,867,918,0,0
-350,106,0,0,0,0,0,0,0,0,0,-1,874,918,0,0
-343,106,0,0,0,0,0,0,0,0,0,-1,881,918,0,0
-336,106,0,0,0,0,0,0,0,0,0,-1,888,918,0,0
-329,106,0,0,0,0,0,0,0,0,0,-1,895,918,0,0
-322,106,0,0,0,0,0,0,0,0,0,-1,902,918,0,0
-315,106,0,0,0,0,0,0,0,0,0,-1,909,918,0,0
-308,106,0,0,0,0,0,0,0,0,0,-1,916,918,0,0
-301,106,0,0,0,0,0,0,0,0,0,-1,923,918,0,0
-294,106,0,0,0,0,0,0,0,0,0,-1,930,918,0,0
-287,106,0,0,0,0,0,0,0,0,0,-1,937,918,0,0
-280,106,0,0,0,0,0,0,0,0,0,-1,944,918,0,0
-273,106,0,0,0,0,0,0,0,0,0,-1,951,918,0,0
-266,106,0,0,0,0,0,0,0,0,0,-1,958,918,0,0
-259,106,0,0,0,0,0,0,0,0,0,-1,965,918,0,0
-252,106,0,0,0,0,0,0,0,0,0,-1,972,918,0,0
-245,106,0,0,0,0,0,0,0,0,0,-1,979,918,0,0
-238,106,0,0,0,0,0,0,0,0,0,-1,986,918,0,0
-231,106,0,0,0,0,0,0,0,0,0,-1,993,918,0,0
-224,106,0,0,0,0,0,0,0,0,0,-1,1000,918,0,0
-217,106,0,0,0,0,0,0,0,0,0,-1,1007,918,0,0
-210,106,0,0,0,0,0,0,0,0,0,-1,1014,918,0,0
-203,106,0,0,0,0,0,0,0,0,0,-1,1021,918,0,0
-196,106,0,0,0,0,0,0,0,0,0,-1,1028,918,0,0
-189,106,0,0,0,0,0,0,0,0,0,-1,1035,918,0,0
-182,106,0,0,0,0,0,0,0,0,0,-1,1042,918,0,0
-175,106,0,0,0,0,0,0,0,0,0,-1,1049,918,0,0
-168,106,0,0,0,0,0,0,0,0,0,-1,1056,918,0,0
-161,106,0,0,0,0,0,0,0,0,0,-1,1063,918,0,0
-154,106,0,0,0,0,0,0,0,0,0,-1,1070,918,0,0
-147,106,0,0,0,0,0,0,0,0,0,-1,1077,918,0,0
-140,106,0,0,0,0,0,0,0,0,0,-1,1084,918,0,0
-133,106,0,0,0,0,0,0,0,0,0,-1,1091,918,0,0
-126,106,0,0,0,0,0,0,0,0,0,-1,1098,918,0,0
-119,106,0,0,0,0,0,0,0,0,0,-1,1105,918,0,0
-112,106,0,0,0,0,0,0,0,0,0,-1,1112,918,0,0
-105,106,0,0,0,0,0,0,0,0,0,-1,1119,918,0,0
-98,106,0,0,0,0,0,0,0,0,0,-1,1126,918,0,0
-91,106,0,0,0,0,0,0,0,0,0,-1,1133,918,0,0
-84,106,0,0,0,0,0,0,0,0,0,-1,1140,918,0,0
-77,106,0,0,0,0,0,0,0,0,0,-1,1147,918,0,0
-70,106,0,0,0,0,0,0,0,0,0,-1,1154,918,0,0
-63,106,0,0,0,0,0,0,0,0,0,-1,1161,918,0,0
-56,106,0,0,0,0,0,0,0,0,0,-1,1168,918,0,0
-49,106,0,0,0,0,0,0,0,0,0,-1,1175,918,0,0
-42,106,0,0,0,0,0,0,0,0,0,-1,1182,918,0,0
-35,106,0,0,0,0,0,0,0,0,0,-1,1189,918,0,0
-28,106,0,0,0,0,0,0,0,0,0,-1,1196,918,0,0
-21,106,0,0,0,0,0,0,0,0,0,-1,1203,918,0,0
-14,106,0,0,0,0,0,0,0,0,0,-1,1210,918,0,0
-7,106,0,0,0,0,0,0,0,0,0,-1,1217,918,0,0
0,106,0,0,0,0,0,0,0,0,0,-1,1224,918,0,0
7,106,0,0,0,0,0,0,0,0,0,-1,1231,918,0,0
14,106,0,0,0,0,0,0,0,0,0,-1,1238,918,0,0
21,106,0,0,0,0,0,0,0,0,0,-1,1245,918,0,0
28,106,0,0,0,0,0,0,0,0,0,-1,1252,918,0,0
35,106,0,0,0,0,0,0,0,0,0,-1,1259,918,0,0
42,106,0,0,0,0,0,0,0,0,0,-1,1266,918,0,0
49,106,0,0,0,0,0,0,0,0,0,-1,1273,918,0,0
56,106,0,0,0,0,0,0,0,0,0,-1,1280,918,0,0
63,106,0,0,0,0,0,0,0,0,0,-1,1287,918,0,0
70,106,0,0,0,0,0,0,0,0,0,-1,1294,918,0,0
77,106,0,0,0,0,0,0,0,0,0,-1,1301,918,0,0
84,106,0,0,0,0,0,0,0,0,0,-1,1308,918,0,0
91,106,0,0,0,0,0,0,0,0,0,-1,1315,918,0,0
98,106,0,0,0,0,0,0,0,0,0,-1,1322,918,0,0
105,106,0,0,0,0,0,0,0,0,0,-1,1329,918,0,0
112,106,0,0,0,0,0,0,0,0,0,-1,1336,918,0,0
119,106,0,0,0,0,0,0,0,0,0,-1,1343,918,0,0
126,106,0,0,0,0,0,0,0,0,0,-1,1350,918,0,0
133,106,0,0,0,0,0,0,0,0,0,-1,1357,918,0,0
140,106,0,0,0,0,0,0,0,0,0,-1,1364,918,0,0
147,106,0,0,0,0,0,0,0,0,0,-1,1371,918,0,0
154,106,0,0,0,0,0,0,0,0,0,-1,1378,918,0,0
161,106,0,0,0,0,0,0,0,0,0,-1,1385,918,0,0
168,106,0,0,0,0,0,0,0,0,0,-1,1392,918,0,0
175,106,0,0,0,0,0,0,0,0,0,-1,1399,918,0,0
182,106,0,0,0,0,0,0,0,0,0,-1,1406,918,0,0
189,106,0,0,0,0,0,0,0,0,0,-1,1413,918,0,0
196,106,0,0,0,0,0,0,0,0,0,-1,1420,918,0,0
203,106,0,0,0,0,0,0,0,0,0,-1,1427,918,0,0
210,106,0,0,0,0,0,0,0,0,0,-1,1434,918,0,0
217,106,0,0,0,0,0,0,0,0,0,-1,1441,918,0,0
224,106,0,0,0,0,0,0,0,0,0,-1,1448,918,0,0
231,106,0,0,0,0,0,0,0,0,0,-1,1455,918,0,0
238,106,0,0,0,0,0,0,0,0,0,-1,1462,918,0,0
245,106,0,0,0,0,0,0,0,0,0,-1,1469,918,0,0
252,106,0,0,0,0,0,0,0,0,0,-1,1476,918,0,0
259,106,0,0,0,0,0,0,0,0,0,-1,1483,918,0,0
266,106,0,0,0,0,0,0,0,0,0,-1,1490,918,0,0
273,106,0,0,0,0,0,0,0,0,0,-1,1497,918,0,0
280,106,0,0,0,0,0,0,0,0,0,-1,1504,918,0,0
287,106,0,0,0,0,0,0,0,0,0,-1,1511,918,0,0
294,106,0,0,0,0,0,0,0,0,0,-1,1518,918,0,0
301,106,0,0,0,0,0,0,0,0,0,-1,1525,918,0,0
308,106,0,0,0,0,0,0,0,0,0,-1,1532,918,0,0
315,106,0,0,0,0,0,0,0,0,0,-1,1539,918,0,0
322,106,0,0,0,0,0,0,0,0,0,-1,1546,918,0,0
329,106,0,0,0,0,0,0,0,0,0,-1,1553,918,0,0
336,106,0,0,0,0,0,0,0,0,0,-1,1560,918,0,0
343,106,0,0,0,0,0,0,0,0,0,-1,1567,918,0,0
350,106,0,0,0,0,0,0,0,0,0,-1,1574,918,0,0
357,106,0,0,0,0,0,0,0,0,0,-1,1581,918,0,0
364,106,0,0,0,0,0,0,0,0,0,-1,1588,918,0,0
371,106,0,0,0,0,0,0,0,0,0,-1,1595,918,0,0
378,106,0,0,0,0,0,0,0,0,0,-1,1602,918,0,0
385,106,0,0,0,0,0,0,0,0,0,-1,1609,918,0,0
392,106,0,0,0,0,0,0,0,0,0,-1,1616,918,0,0
399,106,0,0,0,0,0,0,0,0,0,-1,1623,918,0,0
406,106,0,0,0,0,0,0,0,0,0,-1,1630,918,0,0
413,106,0,0,0,0,0,0,0,0,0,-1,1637,918,0,0
420,106,0,0,0,0,0,0,0,0,0,-1,1644,918,0,0
427,106,0,0,0,0,0,0,0,0,0,-1,1651,918,0,0
434,106,0,0,0,0,0,0,0,0,0,-1,1658,918,0,0
441,106,0,0,0,0,0,0,0,0,0,-1,1665,918,0,0
448,106,0,0,0,0,0,0,0,0,0,-1,1672,918,0,0
455,106,0,0,0,0,0,0,0,0,0,-1,1679,918,0,0
462,106,0,0,0,0,0,0,0,0,0,-1,1686,918,0,0
469,106,0,0,0,0,0,0,0,0,0,-1,1693,918,0,0
476,106,0,0,0,0,0,0,0,0,0,-1,1700,918,0,0
483,106,0,0,0,0,0,0,0,0,0,-1,1707,918,0,0
490,106,0,0,0,0,0,0,0,0,0,-1,1714,918,0,0
497,106,0,0,0,0,0,0,0,0,0,-1,1721,918,0,0
504,106,0,0,0,0,0,0,0,0,0,-1,1728,918,0,0
511,106,0,0,0,0,0,0,0,0,0,-1,1735,918,0,0
518,106,0,0,0,0,0,0,0,0,0,-1,1742,918,0,0
525,106,0,0,0,0,0,0,0,0,0,-1,1749,918,0,0
532,106,0,0,0,0,0,0,0,0,0,-1,1756,918,0,0
539,106,0,0,0,0,0,0,0,0,0,-1,1763,918,0,0
546,106,0,0,0,0,0,0,0,0,0,-1,1770,918,0,0
553,106,0,0,0,0,0,0,0,0,0,-1,1777,918,0,0
560,106,0,0,0,0,0,0,0,0,0,-1,1784,918,0,0
567,106,0,0,0,0,0,0,0,0,0,-1,1791,918,0,0
574,106,0,0,0,0,0,0,0,0,0,-1,1798,918,0,0
581,106,0,0,0,0,0,0,0,0,0,-1,1805,918,0,0
588,106,0,0,0,0,0,0,0,0,0,-1,1812,918,0,0
595,106,0,0,0,0,0,0,0,0,0,-1,1819,918,0,0
602,106,0,0,0,0,0,0,0,0,0,-1,1826,918,0,0
609,106,0,0,0,0,0,0,0,0,0,-1,1833,918,0,0
616,106,0,0,0,0,0,0,0,0,0,-1,1840,918,0,0
623,106,0,0,0,0,0,0,0,0,0,-1,1847,918,0,0
630,106,46.5725,2.97491,-0.00340965,0.00597614,-0.0069485,0.00966804,-0.00710156,-1.0824,0.00971965,0.0384346,1854,918,46.5725,-2.97492
637,106,46.6946,2.96887,-0.00178053,0.00488353,-0.00533458,0.00784119,-0.00473819,-1.06456,0.007336,0.0388082,1861,918,46.6946,-2.96887
644,106,46.6074,2.94476,-0.00108286,0.00399443,-0.0038288,0.00604974,-0.00313817,-1.07814,0.00539269,0.0390137,1868,918,46.6075,-2.94478
651,106,46.653,2.89899,-0.000846382,0.00321134,-0.00239937,0.00432466,-0.00195969,-1.13636,0.00371292,0.0409348,1875,918,46.6529,-2.899
658,106,46.6707,2.85889,-0.000726152,0.00260203,-0.00103574,0.00289803,-0.00102215,-1.29243,0.00234811,0.0414014,1882,918,46.6707,-2.85888
665,106,46.6439,2.80164,-0.000475277,0.00213015,0.000118763,0.00213555,-0.00048068,1.52534,0.00160805,0.0413534,1889,918,46.6439,-2.80162
672,106,46.6566,2.77094,-0.000256967,0.00165978,0.000937747,0.00204224,-0.000639432,1.18354,0.00161734,0.0420969,1896,918,46.6567,-2.77093
679,106,46.6775,2.77771,1.39125e-05,0.00121312,0.00142339,0.00215804,-0.000931007,0.984744,0.00182976,0.0350531,1903,918,46.6775,-2.77771
686,106,46.5526,2.86639,0.000239987,0.000882471,0.00164453,0.00223684,-0.00111438,0.881853,0.00197067,0.0326579,1910,918,46.5526,-2.86639
693,106,46.4847,2.87189,0.000215902,0.000508353,0.00178708,0.00215518,-0.00143092,0.826219,0.00208446,0.0363188,1917,918,46.4848,-2.87191
700,106,46.6643,2.64575,0,0,0,0,0,0,0,-1,1924,918,46.6643,-2.64574
707,106,42.2072,3.49255,0,0,0,0,0,0,0,-1,1931,918,42.2071,-3.49257
714,106,42.3284,3.94043,-6.98125e-05,0.000725495,0.00121139,0.00160283,-0.000947144,0.943988,0.00148836,0.0318057,1938,918,42.3284,-3.94045
721,106,42.3837,4.44257,-0.000193004,0.00093708,0.000888227,0.00142476,-0.000680682,1.06869,0.00124062,0.0256157,1945,918,42.3836,-4.4426
728,106,42.4294,4.96674,-0.00030519,0.00183712,0.000547547,0.00196895,-0.000437024,1.33452,0.00147998,0.0246913,1952,918,42.4294,-4.96671
735,106,42.3597,5.36444,-0.000435278,0.00307664,-1.43828e-05,0.0030767,-0.000435336,-1.5667,0.00221058,0.0216113,1959,918,42.3597,-5.36447
742,106,42.2987,5.74146,-0.000691558,0.00576023,-0.000728073,0.00584137,-0.000772699,-1.45981,0.00417571,0.0124455,1966,918,42.2987,-5.74143
749,106,42.2815,6.14386,-0.000988233,0.0104672,-0.00129966,0.0106128,-0.00113383,-1.45923,0.00748182,0.00963829,1973,918,42.2815,-6.14385
756,106,42.2291,6.54346,-0.0010159,0.0169434,-0.001877,0.0171375,-0.00120997,-1.46777,0.0118489,0.0125263,1980,918,42.2292,-6.54347
763,106,42.1252,7.05481,-0.000690703,0.0256603,-0.00248591,0.0258928,-0.000923169,-1.47755,0.0175776,0.0238172,1987,918,42.1253,-7.0548
770,106,42.0485,7.35181,2.58969e-05,0.0369195,-0.00332267,0.0372164,-0.000270955,-1.48169,0.0249017,0.0438368,1994,918,42.0484,-7.35181
777,106,42.0885,7.57983,0,0,0,0,0,0,0,-1,2001,918,42.0885,-7.57985
784,106,42.3171,8.59247,0,0,0,0,0,0,0,-1,2008,918,42.3171,-8.59247
791,106,42.4783,9.17908,0,0,0,0,0,0,0,-1,2015,918,42.4782,-9.17907
798,106,42.5476,8.06757,0,0,0,0,0,0,0,-1,2022,918,42.5476,-8.06759
805,106,0,0,0,0,0,0,0,0,0,-1,2029,918,0,0
812,106,0,0,0,0,0,0,0,0,0,-1,2036,918,0,0
-700,99,0,0,0,0,0,0,0,0,0,-1,524,925,0,0
-693,99,0,0,0,0,0,0,0,0,0,-1,531,925,0,0
-686,99,0,0,0,0,0,0,0,0,0,-1,538,925,0,0
-679,99,-29.2908,4.06067,-0.0395322,-0.0751781,-0.00690816,-0.0382402,-0.0764701,-0.184885,0.04415,0.0493644,545,925,-29.2909,-4.06069
-672,99,-29.7535,3.71478,-0.0345293,-0.0568235,-0.00554812,-0.0332249,-0.0581279,-0.23091,0.0336746,0.0471767,552,925,-29.7534,-3.71478
-665,99,-30.4446,2.88147,-0.0308293,-0.0420587,-0.00380259,-0.0296628,-0.0432252,-0.29765,0.0255266,0.048642,559,925,-30.4446,-2.88148
-658,99,-31.1937,2.0235,0,0,0,0,0,0,0,-1,566,925,-31.1937,-2.02353
-651,99,-31.895,1.17883,0,0,0,0,0,0,0,-1,573,925,-31.895,-1.17885
-644,99,-31.0007,5.04346,-0.0202669,-0.011764,0.000541819,-0.0117296,-0.0203013,1.50742,0.0117681,0.0462254,580,925,-31.0007,-5.04347
-637,99,-31.4442,4.58337,-0.0167022,-0.00591676,0.00138951,-0.00574063,-0.0168783,1.44471,0.00990936,0.030702,587,925,-31.4441,-4.5834
-630,99,-31.6504,4.18817,-0.0132785,-0.00193296,0.00189618,-0.00162444,-0.0135871,1.4095,0.00856804,0.0152735,594,925,-31.6504,-4.18815
-623,99,-31.7977,3.76105,-0.0103758,0.00154498,0.00210838,0.00190689,-0.0107377,1.4008,0.00787146,0.00994858,601,925,-31.7977,-3.76105
-616,99,-31.8044,3.37378,-0.00873706,0.00274001,0.00204481,0.00309344,-0.00909049,1.39964,0.00731292,0.0113731,608,925,-31.8045,-3.37376
-609,99,-31.7996,3.03674,-0.00774319,0.00279047,0.00166952,0.00304874,-0.00800147,1.41731,0.00658998,0.0122636,615,925,-31.7996,-3.03675
-602,99,-31.7994,2.70959,-0.00827339,0.00175355,0.00100044,0.0018524,-0.00837224,1.47231,0.00629054,0.0155129,622,925,-31.7994,-2.70958
-595,99,-31.8914,2.37354,-0.008467,0.000815456,0.000471053,0.0008393,-0.00849084,1.52022,0.00596006,0.0205644,629,925,-31.8914,-2.37352
-588,99,-31.8644,1.97345,-0.00805632,0.000373233,0.000188242,0.000377435,-0.00806052,1.54848,0.00550381,0.0215721,636,925,-31.8644,-1.97348
-581,99,-31.7824,1.49622,-0.00773373,0.000258044,2.14046e-05,0.000258102,-0.00773378,1.56812,0.00524401,0.0147465,643,925,-31.7824,-1.49623
-574,99,-31.7869,1.0293,0,0,0,0,0,0,0,-1,650,925,-31.7869,-1.02928
-567,99,-34.4403,0.962585,0,0,0,0,0,0,0,-1,657,925,-34.4403,-0.962595
-560,99,-34.5143,1.07568,-0.00652067,0.00118538,-0.00101556,0.00131697,-0.00665226,-1.44194,0.00493279,0.0433877,664,925,-34.5143,-1.07569
-553,99,-34.64,1.255,-0.00573802,0.00169454,-0.00132778,0.00192461,-0.00596809,-1.39922,0.00475201,0.0393005,671,925,-34.64,-1.25498
-546,99,-34.6052,1.19373,-0.00455784,0.0025153,-0.00166819,0.00288899,-0.00493153,-1.35042,0.00456623,0.0419382,678,925,-34.6052,-1.1937
-539,99,-34.5454,1.12238,-0.00271778,0.00365906,-0.00206695,0.00427042,-0.00332914,-1.28322,0.00439881,0.0399982,685,925,-34.5454,-1.12238
-532,99,-34.4592,1.24609,-0.000191932,0.00521766,-0.00261597,0.00627573,-0.00125001,-1.18644,0.00465676,0.0430857,692,925,-34.4592,-1.2461
-525,99,-34.5629,1.18146,0.00210443,0.00742409,-0.00362323,0.00925898,0.000269545,-1.10202,0.0060848,0.0418627,699,925,-34.5629,-1.18146
-518,99,-34.6159,1.16071,0.00175431,0.0101505,-0.00523957,0.0126664,-0.000761546,-1.12314,0.0087092,0.0407325,706,925,-34.6159,-1.16073
-511,99,0,0,0,0,0,0,0,0,0,-1,713,925,0,0
-504,99,0,0,0,0,0,0,0,0,0,-1,720,925,0,0
-497,99,0,0,0,0,0,0,0,0,0,-1,727,925,0,0
-490,99,0,0,0,0,0,0,0,0,0,-1,734,925,0,0
-483,99,0,0,0,0,0,0,0,0,0,-1,741,925,0,0
-476,99,0,0,0,0,0,0,0,0,0,-1,748,925,0,0
-469,99,0,0,0,0,0,0,0,0,0,-1,755,925,0,0
-462,99,0,0,0,0,0,0,0,0,0,-1,762,925,0,0
-455,99,0,0,0,0,0,0,0,0,0,-1,769,925,0,0
-448,99,0,0,0,0,0,0,0,0,0,-1,776,925,0,0
-441,99,0,0,0,0,0,0,0,0,0,-1,783,925,0,0
-434,99,0,0,0,0,0,0,0,0,0,-1,790,925,0,0
-427,99,0,0,0,0,0,0,0,0,0,-1,797,925,0,0
-420,99,0,0,0,0,0,0,0,0,0,-1,804,925,0,0
-413,99,0,0,0,0,0,0,0,0,0,-1,811,925,0,0
-406,99,0,0,0,0,0,0,0,0,0,-1,818,925,0,0
-399,99,0,0,0,0,0,0,0,0,0,-1,825,925,0,0
-392,99,0,0,0,0,0,0,0,0,0,-1,832,925,0,0
-385,99,0,0,0,0,0,0,0,0,0,-1,839,925,0,0
-378,99,0,0,0,0,0,0,0,0,0,-1,846,925,0,0
-371,99,0,0,0,0,0,0,0,0,0,-1,853,925,0,0
-364,99,0,0,0,0,0,0,0,0,0,-1,860,925,0,0
-357,99,0,0,0,0,0,0,0,0,0,-1,867,925,0,0
-350,99,0,0,0,0,0,0,0,0,0,-1,874,925,0,0
-343,99,0,0,0,0,0,0,0,0,0,-1,881,925,0,0
-336,99,0,0,0,0,0,0,0,0,0,-1,888,925,0,0
-329,99,0,0,0,0,0,0,0,0,0,-1,895,925,0,0
-322,99,0,0,0,0,0,0,0,0,0,-1,902,925,0,0
-315,99,0,0,0,0,0,0,0,0,0,-1,909,925,0,0
-308,99,0,0,0,0,0,0,0,0,0,-1,916,925,0,0
-301,99,0,0,0,0,0,0,0,0,0,-1,923,925,0,0
-294,99,0,0,0,0,0,0,0,0,0,-1,930,925,0,0
-287,99,0,0,0,0,0,0,0,0,0,-1,937,925,0,0
-280,99,0,0,0,0,0,0,0,0,0,-1,944,925,0,0
-273,99,0,0,0,0,0,0,0,0,0,-1,951,925,0,0
-266,99,0,0,0,0,0,0,0,0,0,-1,958,925,0,0
-259,99,0,0,0,0,0,0,0,0,0,-1,965,925,0,0
-252,99,0,0,0,0,0,0,0,0,0,-1,972,925,0,0
-245,99,0,0,0,0,0,0,0,0,0,-1,979,925,0,0
-238,99,0,0,0,0,0,0,0,0,0,-1,986,925,0,0
-231,99,0,0,0,0,0,0,0,0,0,-1,993,925,0,0
-224,99,0,0,0,0,0,0,0,0,0,-1,1000,925,0,0
-217,99,0,0,0,0,0,0,0,0,0,-1,1007,925,0,0
-210,99,0,0,0,0,0,0,0,0,0,-1,1014,925,0,0
-203,99,0,0,0,0,0,0,0,0,0,-1,1021,925,0,0
-196,99,0,0,0,0,0,0,0,0,0,-1,1028,925,0,0
-189,99,0,0,0,0,0,0,0,0,0,-1,1035,925,0,0
-182,99,0,0,0,0,0,0,0,0,0,-1,1042,925,0,0
-175,99,0,0,0,0,0,0,0,0,0,-1,1049,925,0,0
-168,99,0,0,0,0,0,0,0,0,0,-1,1056,925,0,0
-161,99,0,0,0,0,0,0,0,0,0,-1,1063,925,0,0
-154,99,0,0,0,0,0,0,0,0,0,-1,1070,925,0,0
-147,99,0,0,0,0,0,0,0,0,0,-1,1077,925,0,0
-140,99,0,0,0,0,0,0,0,0,0,-1,1084,925,0,0
-133,99,0,0,0,0,0,0,0,0,0,-1,1091,925,0,0
-126,99,0,0,0,0,0,0,0,0,0,-1,1098,925,0,0
-119,99,0,0,0,0,0,0,0,0,0,-1,1105,925,0,0
-112,99,0,0,0,0,0,0,0,0,0,-1,1112,925,0,0
-105,99,0,0,0,0,0,0,0,0,0,-1,1119,925,0,0
-98,99,0,0,0,0,0,0,0,0,0,-1,1126,925,0,0
-91,99,0,0,0,0,0,0,0,0,0,-1,1133,925,0,0
-84,99,0,0,0,0,0,0,0,0,0,-1,1140,925,0,0
-77,99,0,0,0,0,0,0,0,0,0,-1,1147,925,0,0
-70,99,0,0,0,0,0,0,0,0,0,-1,1154,925,0,0
-63,99,0,0,0,0,0,0,0,0,0,-1,1161,925,0,0
-56,99,0,0,0,0,0,0,0,0,0,-1,1168,925,0,0
-49,99,0,0,0,0,0,0,0,0,0,-1,1175,925,0,0
-42,99,0,0,0,0,0,0,0,0,0,-1,1182,925,0,0
-35,99,0,0,0,0,0,0,0,0,0,-1,1189,925,0,0
-28,99,0,0,0,0,0,0,0,0,0,-1,1196,925,0,0
-21,99,0,0,0,0,0,0,0,0,0,-1,1203,925,0,0
-14,99,0,0,0,0,0,0,0,0,0,-1,1210,925,0,0
-7,99,0,0,0,0,0,0,0,0,0,-1,1217,925,0,0
0,99,0,0,0,0,0,0,0,0,0,-1,1224,925,0,0
7,99,0,0,0,0,0,0,0,0,0,-1,1231,925,0,0
14,99,0,0,0,0,0,0,0,0,0,-1,1238,925,0,0
21,99,0,0,0,0,0,0,0,0,0,-1,1245,925,0,0
28,99,0,0,0,0,0,0,0,0,0,-1,1252,925,0,0
35,99,0,0,0,0,0,0,0,0,0,-1,1259,925,0,0
42,99,0,0,0,0,0,0,0,0,0,-1,1266,925,0,0
49,99,0,0,0,0,0,0,0,0,0,-1,1273,925,0,0
56,99,0,0,0,0,0,0,0,0,0,-1,1280,925,0,0
63,99,0,0,0,0,0,0,0,0,0,-1,1287,925,0,0
70,99,0,0,0,0,0,0,0,0,0,-1,1294,925,0,0
77,99,0,0,0,0,0,0,0,0,0,-1,1301,925,0,0
84,99,0,0,0,0,0,0,0,0,0,-1,1308,925,0,0
91,99,0,0,0,0,0,0,0,0,0,-1,1315,925,0,0
98,99,0,0,0,0,0,0,0,0,0,-1,1322,925,0,0
105,99,0,0,0,0,0,0,0,0,0,-1,1329,925,0,0
112,99,0,0,0,0,0,0,0,0,0,-1,1336,925,0,0
119,99,0,0,0,0,0,0,0,0,0,-1,1343,925,0,0
126,99,0,0,0,0,0,0,0,0,0,-1,1350,925,0,0
133,99,0,0,0,0,0,0,0,0,0,-1,1357,925,0,0
140,99,0,0,0,0,0,0,0,0,0,-1,1364,925,0,0
147,99,0,0,0,0,0,0,0,0,0,-1,1371,925,0,0
154,99,0,0,0,0,0,0,0,0,0,-1,1378,925,0,0
161,99,0,0,0,0,0,0,0,0,0,-1,1385,925,0,0
168,99,0,0,0,0,0,0,0,0,0,-1,1392,925,0,0
175,99,0,0,0,0,0,0,0,0,0,-1,1399,925,0,0
182,99,0,0,0,0,0,0,0,0,0,-1,1406,925,0,0
189,99,0,0,0,0,0,0,0,0,0,-1,1413,925,0,0
196,99,0,0,0,0,0,0,0,0,0,-1,1420,925,0,0
203,99,0,0,0,0,0,0,0,0,0,-1,1427,925,0,0
210,99,0,0,0,0,0,0,0,0,0,-1,1434,925,0,0
217,99,0,0,0,0,0,0,0,0,0,-1,1441,925,0,0
224,99,0,0,0,0,0,0,0,0,0,-1,1448,925,0,0
231,99,0,0,0,0,0,0,0,0,0,-1,1455,925,0,0
238,99,0,0,0,0,0,0,0,0,0,-1,1462,925,0,0
245,99,0,0,0,0,0,0,0,0,0,-1,1469,925,0,0
252,99,0,0,0,0,0,0,0,0,0,-1,1476,925,0,0
259,99,0,0,0,0,0,0,0,0,0,-1,1483,925,0,0
266,99,0,0,0,0,0,0,0,0,0,-1,1490,925,0,0
273,99,0,0,0,0,0,0,0,0,0,-1,1497,925,0,0
280,99,0,0,0,0,0,0,0,0,0,-1,1504,925,0,0
287,99,0,0,0,0,0,0,0,0,0,-1,1511,925,0,0
294,99,0,0,0,0,0,0,0,0,0,-1,1518,925,0,0
301,99,0,0,0,0,0,0,0,0,0,-1,1525,925,0,0
308,99,0,0,0,0,0,0,0,0,0,-1,1532,925,0,0
315,99,0,0,0,0,0,0,0,0,0,-1,1539,925,0,0
322,99,0,0,0,0,0,0,0,0,0,-1,1546,925,0,0
329,99,0,0,0,0,0,0,0,0,0,-1,1553,925,0,0
336,99,0,0,0,0,0,0,0,0,0,-1,1560,925,0,0
343,99,0,0,0,0,0,0,0,0,0,-1,1567,925,0,0
350,99,0,0,0,0,0,0,0,0,0,-1,1574,925,0,0
357,99,0,0,0,0,0,0,0,0,0,-1,1581,925,0,0
364,99,0,0,0,0,0,0,0,0,0,-1,1588,925,0,0
371,99,0,0,0,0,0,0,0,0,0,-1,1595,925,0,0
378,99,0,0,0,0,0,0,0,0,0,-1,1602,925,0,0
385,99,0,0,0,0,0,0,0,0,0,-1,1609,925,0,0
392,99,0,0,0,0,0,0,0,0,0,-1,1616,925,0,0
399,99,0,0,0,0,0,0,0,0,0,-1,1623,925,0,0
406,99,0,0,0,0,0,0,0,0,0,-1,1630,925,0,0
413,99,0,0,0,0,0,0,0,0,0,-1,1637,925,0,0
420,99,0,0,0,0,0,0,0,0,0,-1,1644,925,0,0
427,99,0,0,0,0,0,0,0,0,0,-1,1651,925,0,0
434,99,0,0,0,0,0,0,0,0,0,-1,1658,925,0,0
441,99,0,0,0,0,0,0,0,0,0,-1,1665,925,0,0
448,99,0,0,0,0,0,0,0,0,0,-1,1672,925,0,0
455,99,0,0,0,0,0,0,0,0,0,-1,1679,925,0,0
462,99,0,0,0,0,0,0,0,0,0,-1,1686,925,0,0
469,99,0,0,0,0,0,0,0,0,0,-1,1693,925,0,0
476,99,0,0,0,0,0,0,0,0,0,-1,1700,925,0,0
483,99,0,0,0,0,0,0,0,0,0,-1,1707,925,0,0
490,99,0,0,0,0,0,0,0,0,0,-1,1714,925,0,0
497,99,0,0,0,0,0,0,0,0,0,-1,1721,925,0,0
504,99,0,0,0,0,0,0,0,0,0,-1,1728,925,0,0
511,99,0,0,0,0,0,0,0,0,0,-1,1735,925,0,0
518,99,0,0,0,0,0,0,0,0,0,-1,1742,925,0,0
525,99,0,0,0,0,0,0,0,0,0,-1,1749,925,0,0
532,99,0,0,0,0,0,0,0,0,0,-1,1756,925,0,0
539,99,0,0,0,0,0,0,0,0,0,-1,1763,925,0,0
546,99,0,0,0,0,0,0,0,0,0,-1,1770,925,0,0
553,99,0,0,0,0,0,0,0,0,0,-1,1777,925,0,0
560,99,0,0,0,0,0,0,0,0,0,-1,1784,925,0,0
567,99,0,0,0,0,0,0,0,0,0,-1,1791,925,0,0
574,99,0,0,0,0,0,0,0,0,0,-1,1798,925,0,0
581,99,0,0,0,0,0,0,0,0,0,-1,1805,925,0,0
588,99,0,0,0,0,0,0,0,0,0,-1,1812,925,0,0
595,99,0,0,0,0,0,0,0,0,0,-1,1819,925,0,0
602,99,0,0,0,0,0,0,0,0,0,-1,1826,925,0,0
609,99,0,0,0,0,0,0,0,0,0,-1,1833,925,0,0
616,99,0,0,0,0,0,0,0,0,0,-1,1840,925,0,0
623,99,0,0,0,0,0,0,0,0,0,-1,1847,925,0,0
630,99,0,0,0,0,0,0,0,0,0,-1,1854,925,0,0
637,99,46.6324,2.8515,-0.00072239,0.00559265,-0.0061436,0.00934264,-0.00447238,-1.02277,0.00813964,0.0447306,1861,925,46.6324,-2.85147
644,99,46.7191,2.68256,-0.000418231,0.00444276,-0.0043801,0.00702151,-0.00299698,-1.0387,0.00593771,0.0404301,1868,925,46.7191,-2.68254
651,99,46.7006,2.729,-0.000475799,0.00348092,-0.00276653,0.00490368,-0.00189856,-1.09579,0.00405301,0.0400184,1875,925,46.7005,-2.72901
658,99,46.8059,2.59247,0,0,0,0,0,0,0,-1,1882,925,46.8059,-2.59249
665,99,46.7352,2.60693,-0.000616546,0.00233026,0.000120818,0.0023352,-0.000621491,1.52989,0.00180009,0.0414049,1889,925,46.7353,-2.60695
672,99,46.7928,2.72742,-0.000545766,0.00187237,0.00111271,0.00230646,-0.000979859,1.19884,0.00194821,0.0428306,1896,925,46.7929,-2.72739
679,99,46.7069,2.82684,-0.000360185,0.00142182,0.00170611,0.00245557,-0.00139394,1.02604,0.00225051,0.0381185,1903,925,46.7069,-2.82683
686,99,46.5062,2.86444,-0.000139802,0.00108003,0.00195751,0.00252044,-0.00158021,0.936421,0.00238816,0.0316938,1910,925,46.5063,-2.86447
693,99,46.4708,3.00116,-0.000130392,0.000681872,0.00209156,0.00240636,-0.00185488,0.881293,0.00246709,0.035319,1917,925,46.4708,-3.00117
700,99,46.4851,3.0163,0,0,0,0,0,0,0,-1,1924,925,46.4851,-3.01633
707,99,42.2848,3.14832,0,0,0,0,0,0,0,-1,1931,925,42.2847,-3.1483
714,99,42.8521,3.94012,0,0,0,0,0,0,0,-1,1938,925,42.8521,-3.94012
721,99,42.8085,4.42773,-0.000599468,0.00118762,0.00103167,0.0016589,-0.00107075,1.14229,0.00158812,0.0299952,1945,925,42.8085,-4.42774
728,99,42.8571,4.90247,-0.000705377,0.00188367,0.000740793,0.00208065,-0.000902351,1.31091,0.00176645,0.0235856,1952,925,42.8571,-4.90248
735,99,42.8253,5.3371,-0.000823663,0.00265166,0.000285884,0.00267502,-0.000847023,1.48927,0.00212278,0.0190778,1959,925,42.8253,-5.33707
742,99,42.765,5.74408,-0.00107655,0.00477169,-0.000263824,0.00478356,-0.00108843,-1.52581,0.00360701,0.013481,1966,925,42.765,-5.74407
749,99,42.7141,6.13141,-0.00143682,0.00853324,-0.000526242,0.00856094,-0.00146451,-1.51821,0.0062529,0.0116201,1973,925,42.7141,-6.1314
756,99,42.6705,6.49738,-0.00162623,0.0135592,-0.000552596,0.0135793,-0.00164631,-1.53447,0.00964856,0.0127705,1980,925,42.6706,-6.49741
763,99,42.6223,6.89801,-0.00155787,0.0203965,-0.000356335,0.0204023,-0.00156365,-1.55457,0.0141516,0.0158243,1987,925,42.6223,-6.89798
770,99,42.5548,7.40619,-0.00116154,0.0290898,-0.000155365,0.0290906,-0.00116234,-1.56566,0.0197926,0.0294358,1994,925,42.5548,-7.40619
777,99,42.8871,8.00458,-0.000660132,0.0405305,2.72477e-06,0.0405305,-0.000660133,1.57073,0.027243,0.0416865,2001,925,42.8871,-8.00458
784,99,42.969,8.64313,0,0,0,0,0,0,0,-1,2008,925,42.9689,-8.64313
791,99,43.1284,9.19104,0,0,0,0,0,0,0,-1,2015,925,43.1285,-9.19106
798,99,43.3247,9.76544,0,0,0,0,0,0,0,-1,2022,925,43.3247,-9.76544
805,99,0,0,0,0,0,0,0,0,0,-1,2029,925,0,0
812,99,0,0,0,0,0,0,0,0,0,-1,2036,925,0,0
-700,92,0,0,0,0,0,0,0,0,0,-1,524,932,0,0
-693,92,0,0,0,0,0,0,0,0,0,-1,531,932,0,0
-686,92,-27.7053,5.18408,0,0,0,0,0,0,0,-1,538,932,-27.7053,-5.18409
-679,92,-28.6075,4.6665,-0.0617775,-0.08521,-0.00135109,-0.0616999,-0.0852876,-0.0574052,0.0508533,0.0463178,545,932,-28.6075,-4.66653
-672,92,-29.5694,4.37549,-0.0565794,-0.0655326,-0.00103009,-0.0564624,-0.0656495,-0.113085,0.0410481,0.0439325,552,932,-29.5694,-4.37549
-665,92,-30.5266,3.72601,-0.050164,-0.0486382,-1.20341e-05,-0.0486381,-0.0501641,-1.56291,0.0329458,0.0480877,559,932,-30.5266,-3.726
-658,92,-30.9645,3.84955,0,0,0,0,0,0,0,-1,566,932,-30.9645,-3.84956
-651,92,-30.9994,5.31293,-0.0359846,-0.0225015,0.00191999,-0.0222334,-0.0362527,1.43207,0.0211088,0.0486396,573,932,-30.9994,-5.31295
-644,92,-31.49,4.87689,-0.0290421,-0.013294,0.0025421,-0.0128938,-0.0294423,1.41466,0.0170421,0.0434982,580,932,-31.49,-4.87688
-637,92,-32.0251,4.466,-0.0226619,-0.0066206,0.00288283,-0.00611825,-0.0231643,1.39827,0.0138611,0.0266323,587,932,-32.0251,-4.46602
-630,92,-32.0788,4.08472,-0.0173046,-0.00218759,0.00287832,-0.0016581,-0.0178341,1.38887,0.0113771,0.0136738,594,932,-32.0788,-4.0847
-623,92,-32.1694,3.75714,-0.0133807,0.00141894,0.00260325,0.0018635,-0.0138252,1.40166,0.00989665,0.00930823,601,932,-32.1694,-3.75716
-616,92,-32.1863,3.40363,-0.0105229,0.00295175,0.00216296,0.00329044,-0.0108616,1.41547,0.00855155,0.0087411,608,932,-32.1864,-3.4036
-609,92,-32.2117,3.04889,-0.00922818,0.00304264,0.00147192,0.00321673,-0.00940228,1.45307,0.00757172,0.00958687,615,932,-32.2117,-3.0489
-602,92,-32.1902,2.70599,-0.0094098,0.00209619,0.000549502,0.00212238,-0.00943598,1.52318,0.00710458,0.0112343,622,932,-32.1902,-2.70598
-595,92,-32.1078,2.29028,-0.0094326,0.0011351,-0.000169979,0.00113783,-0.00943533,-1.55472,0.00670177,0.0211928,629,932,-32.1078,-2.29027
-588,92,-32.136,1.95618,-0.00911335,0.000638296,-0.000540059,0.000668114,-0.00914317,-1.51564,0.00632992,0.0239314,636,932,-32.136,-1.95616
-581,92,-32.3647,1.57568,-0.00890636,0.000486909,-0.000805925,0.000555555,-0.008975,-1.48583,0.00617685,0.0230166,643,932,-32.3648,-1.57568
-574,92,-32.9778,1.18329,-0.00868483,0.000722728,-0.00118586,0.000869908,-0.00883201,-1.44732,0.00619836,0.0425621,650,932,-32.9778,-1.18329
-567,92,-33.8839,0.811829,0,0,0,0,0,0,0,-1,657,932,-33.8839,-0.811806
-560,92,-34.4896,1.05676,-0.00763635,0.00153144,-0.00197958,0.00194062,-0.00804553,-1.36697,0.0061141,0.0405002,664,932,-34.4896,-1.05679
-553,92,-34.7142,1.1333,-0.006577,0.00217703,-0.0022965,0.0027429,-0.00714287,-1.3292,0.00589299,0.0416897,671,932,-34.7142,-1.13329
-546,92,-34.7331,1.03906,-0.0049545,0.0030979,-0.00259491,0.00386168,-0.00571827,-1.28454,0.0055655,0.0428816,678,932,-34.7331,-1.03906
-539,92,-34.6346,1.17535,-0.00256547,0.00428636,-0.00290212,0.00535035,-0.00362945,-1.21939,0.00521613,0.039675,685,932,-34.6347,-1.17536
-532,92,-34.5738,1.17462,0.000498961,0.00577475,-0.00332496,0.00738113,-0.00110742,-1.12074,0.00532839,0.0423724,692,932,-34.5738,-1.17459
-525,92,-34.5542,1.12067,0.00292897,0.00781804,-0.00425051,0.0102768,0.00047018,-1.04636,0.00669999,0.0403337,699,932,-34.5542,-1.12068
-518,92,-34.5428,1.32434,0.00183224,0.0103977,-0.00583636,0.0133541,-0.00112415,-1.10193,0.00930013,0.0404029,706,932,-34.5428,-1.32434
-511,92,0,0,0,0,0,0,0,0,0,-1,713,932,0,0
-504,92,0,0,0,0,0,0,0,0,0,-1,720,932,0,0
-497,92,0,0,0,0,0,0,0,0,0,-1,727,932,0,0
-490,92,0,0,0,0,0,0,0,0,0,-1,734,932,0,0
-483,92,0,0,0,0,0,0,0,0,0,-1,741,932,0,0
-476,92,0,0,0,0,0,0,0,0,0,-1,748,932,0,0
-469,92,0,0,0,0,0,0,0,0,0,-1,755,932,0,0
-462,92,0,0,0,0,0,0,0,0,0,-1,762,932,0,0
-455,92,0,0,0,0,0,0,0,0,0,-1,769,932,0,0
-448,92,0,0,0,0,0,0,0,0,0,-1,776,932,0,0
-441,92,0,0,0,0,0,0,0,0,0,-1,783,932,0,0
-434,92,0,0,0,0,0,0,0,0,0,-1,790,932,0,0
-427,92,0,0,0,0,0,0,0,0,0,-1,797,932,0,0
-420,92,0,0,0,0,0,0,0,0,0,-1,804,932,0,0
-413,92,0,0,0,0,0,0,0,0,0,-1,811,932,0,0
-406,92,0,0,0,0,0,0,0,0,0,-1,818,932,0,0
-399,92,0,0,0,0,0,0,0,0,0,-1,825,932,0,0
-392,92,0,0,0,0,0,0,0,0,0,-1,832,932,0,0
-385,92,0,0,0,0,0,0,0,0,0,-1,839,932,0,0
-378,92,0,0,0,0,0,0,0,0,0,-1,846,932,0,0
-371,92,0,0,0,0,0,0,0,0,0,-1,853,932,0,0
-364,92,0,0,0,0,0,0,0,0,0,-1,860,932,0,0
-357,92,0,0,0,0,0,0,0,0,0,-1,867,932,0,0
-350,92,0,0,0,0,0,0,0,0,0,-1,874,932,0,0
-343,92,0,0,0,0,0,0,0,0,0,-1,881,932,0,0
-336,92,0,0,0,0,0,0,0,0,0,-1,888,932,0,0
-329,92,0,0,0,0,0,0,0,0,0,-1,895,932,0,0
-322,92,0,0,0,0,0,0,0,0,0,-1,902,932,0,0
-315,92,0,0,0,0,0,0,0,0,0,-1,909,932,0,0
-308,92,0,0,0,0,0,0,0,0,0,-1,916,932,0,0
-301,92,0,0,0,0,0,0,0,0,0,-1,923,932,0,0
-294,92,0,0,0,0,0,0,0,0,0,-1,930,932,0,0
-287,92,0,0,0,0,0,0,0,0,0,-1,937,932,0,0
-280,92,0,0,0,0,0,0,0,0,0,-1,944,932,0,0
-273,92,0,0,0,0,0,0,0,0,0,-1,951,932,0,0
-266,92,0,0,0,0,0,0,0,0,0,-1,958,932,0,0
-259,92,0,0,0,0,0,0,0,0,0,-1,965,932,0,0
-252,92,0,0,0,0,0,0,0,0,0,-1,972,932,0,0
-245,92,0,0,0,0,0,0,0,0,0,-1,979,932,0,0
-238,92,0,0,0,0,0,0,0,0,0,-1,986,932,0,0
-231,92,0,0,0,0,0,0,0,0,0,-1,993,932,0,0
-224,92,0,0,0,0,0,0,0,0,0,-1,1000,932,0,0
-217,92,0,0,0,0,0,0,0,0,0,-1,1007,932,0,0
-210,92,0,0,0,0,0,0,0,0,0,-1,1014,932,0,0
-203,92,0,0,0,0,0,0,0,0,0,-1,1021,932,0,0
-196,92,0,0,0,0,0,0,0,0,0,-1,1028,932,0,0
-189,92,0,0,0,0,0,0,0,0,0,-1,1035,932,0,0
-182,92,0,0,0,0,0,0,0,0,0,-1,1042,932,0,0
-175,92,0,0,0,0,0,0,0,0,0,-1,1049,932,0,0
-168,92,0,0,0,0,0,0,0,0,0,-1,1056,932,0,0
-161,92,0,0,0,0,0,0,0,0,0,-1,1063,932,0,0
-154,92,0,0,0,0,0,0,0,0,0,-1,1070,932,0,0
-147,92,0,0,0,0,0,0,0,0,0,-1,1077,932,0,0
-140,92,0,0,0,0,0,0,0,0,0,-1,1084,932,0,0
-133,92,0,0,0,0,0,0,0,0,0,-1,1091,932,0,0
-126,92,0,0,0,0,0,0,0,0,0,-1,1098,932,0,0
-119,92,0,0,0,0,0,0,0,0,0,-1,1105,932,0,0
-112,92,0,0,0,0,0,0,0,0,0,-1,1112,932,0,0
-105,92,0,0,0,0,0,0,0,0,0,-1,1119,932,0,0
-98,92,0,0,0,0,0,0,0,0,0,-1,1126,932,0,0
-91,92,0,0,0,0,0,0,0,0,0,-1,1133,932,0,0
-84,92,0,0,0,0,0,0,0,0,0,-1,1140,932,0,0
-77,92,0,0,0,0,0,0,0,0,0,-1,1147,932,0,0
-70,92,0,0,0,0,0,0,0,0,0,-1,1154,932,0,0
-63,92,0,0,0,0,0,0,0,0,0,-1,1161,932,0,0
-56,92,0,0,0,0,0,0,0,0,0,-1,1168,932,0,0
-49,92,0,0,0,0,0,0,0,0,0,-1,1175,932,0,0
-42,92,0,0,0,0,0,0,0,0,0,-1,1182,932,0,0
-35,92,0,0,0,0,0,0,0,0,0,-1,1189,932,0,0
-28,92,0,0,0,0,0,0,0,0,0,-1,1196,932,0,0
-21,92,0,0,0,0,0,0,0,0,0,-1,1203,932,0,0
-14,92,0,0,0,0,0,0,0,0,0,-1,1210,932,0,0
-7,92,0,0,0,0,0,0,0,0,0,-1,1217,932,0,0
0,92,0,0,0,0,0,0,0,0,0,-1,1224,932,0,0
7,92,0,0,0,0,0,0,0,0,0,-1,1231,932,0,0
14,92,0,0,0,0,0,0,0,0,0,-1,1238,932,0,0
21,92,0,0,0,0,0,0,0,0,0,-1,1245,932,0,0
28,92,0,0,0,0,0,0,0,0,0,-1,1252,932,0,0
35,92,0,0,0,0,0,0,0,0,0,-1,1259,932,0,0
42,92,0,0,0,0,0,0,0,0,0,-1,1266,932,0,0
49,92,0,0,0,0,0,0,0,0,0,-1,1273,932,0,0
56,92,0,0,0,0,0,0,0,0,0,-1,1280,932,0,0
63,92,0,0,0,0,0,0,0,0,0,-1,1287,932,0,0
70,92,0,0,0,0,0,0,0,0,0,-1,1294,932,0,0
77,92,0,0,0,0,0,0,0,0,0,-1,1301,932,0,0
84,92,0,0,0,0,0,0,0,0,0,-1,1308,932,0,0
91,92,0,0,0,0,0,0,0,0,0,-1,1315,932,0,0
98,92,0,0,0,0,0,0,0,0,0,-1,1322,932,0,0
105,92,0,0,0,0,0,0,0,0,0,-1,1329,932,0,0
112,92,0,0,0,0,0,0,0,0,0,-1,1336,932,0,0
119,92,0,0,0,0,0,0,0,0,0,-1,1343,932,0,0
126,92,0,0,0,0,0,0,0,0,0,-1,1350,932,0,0
133,92,0,0,0,0,0,0,0,0,0,-1,1357,932,0,0
140,92,0,0,0,0,0,0,0,0,0,-1,1364,932,0,0
147,92,0,0,0,0,0,0,0,0,0,-1,1371,932,0,0
154,92,0,0,0,0,0,0,0,0,0,-1,1378,932,0,0
161,92,0,0,0,0,0,0,0,0,0,-1,1385,932,0,0
168,92,0,0,0,0,0,0,0,0,0,-1,1392,932,0,0
175,92,0,0,0,0,0,0,0,0,0,-1,1399,932,0,0
182,92,0,0,0,0,0,0,0,0,0,-1,1406,932,0,0
189,92,0,0,0,0,0,0,0,0,0,-1,1413,932,0,0
196,92,0,0,0,0,0,0,0,0,0,-1,1420,932,0,0
203,92,0,0,0,0,0,0,0,0,0,-1,1427,932,0,0
210,92,0,0,0,0,0,0,0,0,0,-1,1434,932,0,0
217,92,0,0,0,0,0,0,0,0,0,-1,1441,932,0,0
224,92,0,0,0,0,0,0,0,0,0,-1,1448,932,0,0
231,92,0,0,0,0,0,0,0,0,0,-1,1455,932,0,0
238,92,0,0,0,0,0,0,0,0,0,-1,1462,932,0,0
245,92,0,0,0,0,0,0,0,0,0,-1,1469,932,0,0
252,92,0,0,0,0,0,0,0,0,0,-1,1476,932,0,0
259,92,0,0,0,0,0,0,0,0,0,-1,1483,932,0,0
266,92,0,0,0,0,0,0,0,0,0,-1,1490,932,0,0
273,92,0,0,0,0,0,0,0,0,0,-1,1497,932,0,0
280,92,0,0,0,0,0,0,0,0,0,-1,1504,932,0,0
287,92,0,0,0,0,0,0,0,0,0,-1,1511,932,0,0
294,92,0,0,0,0,0,0,0,0,0,-1,1518,932,0,0
301,92,0,0,0,0,0,0,0,0,0,-1,1525,932,0,0
308,92,0,0,0,0,0,0,0,0,0,-1,1532,932,0,0
315,92,0,0,0,0,0,0,0,0,0,-1,1539,932,0,0
322,92,0,0,0,0,0,0,0,0,0,-1,1546,932,0,0
329,92,0,0,0,0,0,0,0,0,0,-1,1553,932,0,0
336,92,0,0,0,0,0,0,0,0,0,-1,1560,932,0,0
343,92,0,0,0,0,0,0,0,0,0,-1,1567,932,0,0
350,92,0,0,0,0,0,0,0,0,0,-1,1574,932,0,0
357,92,0,0,0,0,0,0,0,0,0,-1,1581,932,0,0
364,92,0,0,0,0,0,0,0,0,0,-1,1588,932,0,0
371,92,0,0,0,0,0,0,0,0,0,-1,1595,932,0,0
378,92,0,0,0,0,0,0,0,0,0,-1,1602,932,0,0
385,92,0,0,0,0,0,0,0,0,0,-1,1609,932,0,0
392,92,0,0,0,0,0,0,0,0,0,-1,1616,932,0,0
399,92,0,0,0,0,0,0,0,0,0,-1,1623,932,0,0
406,92,0,0,0,0,0,0,0,0,0,-1,1630,932,0,0
413,92,0,0,0,0,0,0,0,0,0,-1,1637,932,0,0
420,92,0,0,0,0,0,0,0,0,0,-1,1644,932,0,0
427,92,0,0,0,0,0,0,0,0,0,-1,1651,932,0,0
434,92,0,0,0,0,0,0,0,0,0,-1,1658,932,0,0
441,92,0,0,0,0,0,0,0,0,0,-1,1665,932,0,0
448,92,0,0,0,0,0,0,0,0,0,-1,1672,932,0,0
455,92,0,0,0,0,0,0,0,0,0,-1,1679,932,0,0
462,92,0,0,0,0,0,0,0,0,0,-1,1686,932,0,0
469,92,0,0,0,0,0,0,0,0,0,-1,1693,932,0,0
476,92,0,0,0,0,0,0,0,0,0,-1,1700,932,0,0
483,92,0,0,0,0,0,0,0,0,0,-1,1707,932,0,0
490,92,0,0,0,0,0,0,0,0,0,-1,1714,932,0,0
497,92,0,0,0,0,0,0,0,0,0,-1,1721,932,0,0
504,92,0,0,0,0,0,0,0,0,0,-1,1728,932,0,0
511,92,0,0,0,0,0,0,0,0,0,-1,1735,932,0,0
518,92,0,0,0,0,0,0,0,0,0,-1,1742,932,0,0
525,92,0,0,0,0,0,0,0,0,0,-1,1749,932,0,0
532,92,0,0,0,0,0,0,0,0,0,-1,1756,932,0,0
539,92,0,0,0,0,0,0,0,0,0,-1,1763,932,0,0
546,92,0,0,0,0,0,0,0,0,0,-1,1770,932,0,0
553,92,0,0,0,0,0,0,0,0,0,-1,1777,932,0,0
560,92,0,0,0,0,0,0,0,0,0,-1,1784,932,0,0
567,92,0,0,0,0,0,0,0,0,0,-1,1791,932,0,0
574,92,0,0,0,0,0,0,0,0,0,-1,1798,932,0,0
581,92,0,0,0,0,0,0,0,0,0,-1,1805,932,0,0
588,92,0,0,0,0,0,0,0,0,0,-1,1812,932,0,0
595,92,0,0,0,0,0,0,0,0,0,-1,1819,932,0,0
602,92,0,0,0,0,0,0,0,0,0,-1,1826,932,0,0
609,92,0,0,0,0,0,0,0,0,0,-1,1833,932,0,0
616,92,0,0,0,0,0,0,0,0,0,-1,1840,932,0,0
623,92,0,0,0,0,0,0,0,0,0,-1,1847,932,0,0
630,92,0,0,0,0,0,0,0,0,0,-1,1854,932,0,0
637,92,46.4969,2.77728,0.000657933,0.00605842,-0.00661278,0.010501,-0.00378467,-0.979234,0.00854629,0.0490061,1861,932,46.4969,-2.7773
644,92,46.6689,2.64392,0.000462369,0.00459001,-0.00468052,0.00764151,-0.00258914,-0.993044,0.00614207,0.0399073,1868,932,46.669,-2.64389
651,92,46.7948,2.68768,6.80404e-05,0.00345093,-0.00297483,0.00518156,-0.00166259,-1.0439,0.0041219,0.0377872,1875,932,46.7948,-2.6877
658,92,46.697,2.80273,-0.000414708,0.00273504,-0.00137218,0.00324896,-0.000928636,-1.21243,0.00253292,0.0420963,1882,932,46.697,-2.80272
665,92,46.6649,2.73773,-0.000668373,0.0022683,6.98961e-05,0.00226997,-0.000670036,1.54701,0.00177922,0.0401078,1889,932,46.665,-2.73773
672,92,46.6621,2.82153,-0.000790013,0.00185129,0.00116099,0.00228905,-0.00122778,1.21022,0.00206103,0.0392902,1896,932,46.6621,-2.82152
679,92,46.5991,2.90302,-0.000737383,0.00143155,0.00182355,0.00246874,-0.00177456,1.05366,0.00246077,0.0386597,1903,932,46.5991,-2.90299
686,92,46.5251,2.79419,-0.00055328,0.00109666,0.00208841,0.00251714,-0.00197376,0.973503,0.00259914,0.031413,1910,932,46.5251,-2.79419
693,92,46.5065,2.98969,-0.000523824,0.00068873,0.00220576,0.00237001,-0.00220511,0.919517,0.00264202,0.0294413,1917,932,46.5065,-2.98967
700,92,46.5085,3.10919,0,0,0,0,0,0,0,-1,1924,932,46.5086,-3.10919
707,92,32.9893,3.26874,0,0,0,0,0,0,0,-1,1931,932,32.9893,-3.26874
714,92,43.4171,4.04376,0,0,0,0,0,0,0,-1,1938,932,43.4171,-4.04378
721,92,43.3291,4.57031,-0.00108894,0.00132812,0.00102453,0.00170395,-0.00146477,1.2192,0.0018312,0.0316803,1945,932,43.3291,-4.57028
728,92,43.2211,5.01147,-0.00115978,0.00188034,0.000802519,0.00207918,-0.00135863,1.32792,0.0019993,0.0236696,1952,932,43.221,-5.01147
735,92,43.1965,5.3692,-0.0012046,0.00231001,0.000507463,0.00238181,-0.0012764,1.43023,0.00214397,0.0182861,1959,932,43.1965,-5.36922
742,92,43.2373,5.73389,-0.00139003,0.00407567,0.000143678,0.00407945,-0.0013938,1.54453,0.00328434,0.018067,1966,932,43.2374,-5.73388
749,92,43.1819,6.11353,-0.00166539,0.00717494,0.000191739,0.0071791,-0.00166954,1.54912,0.00542884,0.0162361,1973,932,43.1818,-6.11354
756,92,43.1067,6.47552,-0.00184112,0.0111588,0.000672346,0.0111935,-0.0018758,1.51926,0.00815978,0.0145066,1980,932,43.1067,-6.47553
763,92,43.0837,6.87323,-0.00186085,0.0166335,0.00159585,0.0167702,-0.00199754,1.48535,0.011902,0.016765,1987,932,43.0838,-6.87326
770,92,43.032,7.35931,-0.00163344,0.0234987,0.00270648,0.0237868,-0.0019216,1.46473,0.0165357,0.026489,1994,932,43.032,-7.3593
777,92,43.292,7.9447,-0.00137057,0.0323578,0.00399052,0.0328235,-0.00183627,1.45462,0.0225194,0.0439713,2001,932,43.292,-7.94468
784,92,43.6565,8.56567,0,0,0,0,0,0,0,-1,2008,932,43.6565,-8.5657
791,92,43.9333,8.47614,-0.000623323,0.0593209,0.00582149,0.059881,-0.00118344,1.47488,0.040321,0.0453043,2015,932,43.9333,-8.47612
798,92,44.0271,8.73401,-0.00099617,0.0789965,0.00543586,0.0793642,-0.00136387,1.50326,0.0533699,0.0442278,2022,932,44.027,-8.73399
805,92,0,0,0,0,0,0,0,0,0,-1,2029,932,0,0
812,92,0,0,0,0,0,0,0,0,0,-1,2036,932,0,0
-700,85,0,0,0,0,0,0,0,0,0,-1,524,939,0,0
-693,85,0,0,0,0,0,0,0,0,0,-1,531,939,0,0
-686,85,-30.5938,5.77643,0,0,0,0,0,0,0,-1,538,939,-30.5938,-5.77643
-679,85,-29.9343,5.75616,-0.0582589,-0.0799401,0.00623119,-0.0565956,-0.0816033,0.260843,0.0482759,0.046382,545,939,-29.9343,-5.75617
-672,85,-30.0721,5.0531,-0.0541418,-0.0602292,0.00476762,-0.0515291,-0.0628419,0.501303,0.0386791,0.0424652,552,939,-30.0721,-5.05309
-665,85,-30.8035,4.57837,-0.048245,-0.0435155,0.00436277,-0.0409178,-0.0508427,1.03375,0.031119,0.043222,559,939,-30.8035,-4.57837
-658,85,-31.2357,4.44434,-0.0415044,-0.0296331,0.00428018,-0.0282509,-0.0428867,1.25842,0.0251731,0.0462086,566,939,-31.2357,-4.44432
-651,85,-31.4127,4.6593,-0.0345218,-0.0185088,0.00426201,-0.0174451,-0.0355856,1.32621,0.0205466,0.0417527,573,939,-31.4127,-4.6593
-644,85,-32.1214,4.67377,-0.0277412,-0.0101014,0.00418882,-0.00915724,-0.0286853,1.3491,0.0169184,0.0353418,580,939,-32.1214,-4.67377
-637,85,-32.408,4.35858,-0.0215365,-0.00418846,0.00396274,-0.00332613,-0.0223988,1.35653,0.0139566,0.020519,587,939,-32.4079,-4.35859
-630,85,-32.4892,4.00848,-0.0166027,-0.000459612,0.00345116,0.000247246,-0.0173095,1.36877,0.011623,0.0129639,594,939,-32.4892,-4.00851
-623,85,-32.5566,3.69531,-0.013204,0.00248061,0.00272076,0.00293916,-0.0136626,1.40383,0.0102298,0.0100749,601,939,-32.5566,-3.69533
-616,85,-32.5648,3.3786,-0.0106124,0.0036191,0.00195509,0.0038828,-0.0108761,1.43673,0.00883417,0.00998758,608,939,-32.5648,-3.37863
-609,85,-32.5846,3.04346,-0.00956805,0.00354241,0.00102725,0.00362241,-0.00964805,1.49308,0.0079206,0.0126256,615,939,-32.5846,-3.04343
-602,85,-32.5863,2.71509,-0.00980587,0.00257076,-8.09027e-05,0.00257128,-0.0098064,-1.56426,0.00754224,0.0170854,622,939,-32.5863,-2.71509
-595,85,-32.5044,2.37115,-0.0098667,0.00153016,-0.0009296,0.00160549,-0.00994203,-1.48994,0.0072229,0.0192841,629,939,-32.5044,-2.37118
-588,85,-32.5245,2.01733,-0.00963396,0.000958883,-0.00138336,0.00113656,-0.00981164,-1.44306,0.00695099,0.0189759,636,939,-32.5245,-2.01736
-581,85,-32.7274,1.6701,-0.00952429,0.000752633,-0.00172391,0.0010341,-0.00980576,-1.40895,0.00690772,0.0264482,643,939,-32.7274,-1.67008
-574,85,-33.3495,1.33789,-0.00935395,0.000886802,-0.00213651,0.00131466,-0.00978181,-1.37315,0.0070007,0.0428583,650,939,-33.3495,-1.33791
-567,85,-34.2201,1.04254,0,0,0,0,0,0,0,-1,657,939,-34.2201,-1.04255
-560,85,-34.4492,1.03687,-0.00817873,0.0017401,-0.00287971,0.00251554,-0.00895417,-1.30776,0.00696115,0.0378824,664,939,-34.4492,-1.03688
-553,85,-34.6755,0.956482,-0.0068572,0.00239444,-0.00309369,0.00333361,-0.00779637,-1.27606,0.00659584,0.044634,671,939,-34.6754,-0.956497
-546,85,-34.6865,0.919128,-0.00483654,0.00325092,-0.00321664,0.00437425,-0.00595988,-1.23481,0.00598978,0.0440147,678,939,-34.6865,-0.91915
-539,85,-34.6038,1.09973,-0.00201517,0.0042586,-0.00325684,0.00564356,-0.00340012,-1.16872,0.00527465,0.0399225,685,939,-34.6038,-1.0997
-532,85,-34.5189,1.11969,0.0013933,0.00540016,-0.00335994,0.00730863,-0.000515169,-1.05423,0.0050529,0.0404472,692,939,-34.5189,-1.11969
-525,85,-34.5087,0.91217,0.00367931,0.00694948,-0.00402639,0.00966012,0.000968668,-0.978271,0.0061427,0.0388877,699,939,-34.5087,-0.912188
-518,85,-34.5147,1.10773,0.00177247,0.00905216,-0.00547314,0.0119853,-0.00116064,-1.07884,0.00840382,0.0377191,706,939,-34.5147,-1.10775
-511,85,0,0,0,0,0,0,0,0,0,-1,713,939,0,0
-504,85,0,0,0,0,0,0,0,0,0,-1,720,939,0,0
-497,85,0,0,0,0,0,0,0,0,0,-1,727,939,0,0
-490,85,0,0,0,0,0,0,0,0,0,-1,734,939,0,0
-483,85,0,0,0,0,0,0,0,0,0,-1,741,939,0,0
-476,85,0,0,0,0,0,0,0,0,0,-1,748,939,0,0
-469,85,0,0,0,0,0,0,0,0,0,-1,755,939,0,0
-462,85,0,0,0,0,0,0,0,0,0,-1,762,939,0,0
-455,85,0,0,0,0,0,0,0,0,0,-1,769,939,0,0
-448,85,0,0,0,0,0,0,0,0,0,-1,776,939,0,0
-441,85,0,0,0,0,0,0,0,0,0,-1,783,939,0,0
-434,85,0,0,0,0,0,0,0,0,0,-1,790,939,0,0
-427,85,0,0,0,0,0,0,0,0,0,-1,797,939,0,0
-420,85,0,0,0,0,0,0,0,0,0,-1,804,939,0,0
-413,85,0,0,0,0,0,0,0,0,0,-1,811,939,0,0
-406,85,0,0,0,0,0,0,0,0,0,-1,818,939,0,0
-399,85,0,0,0,0,0,0,0,0,0,-1,825,939,0,0
-392,85,0,0,0,0,0,0,0,0,0,-1,832,939,0,0
-385,85,0,0,0,0,0,0,0,0,0,-1,839,939,0,0
-378,85,0,0,0,0,0,0,0,0,0,-1,846,939,0,0
-371,85,0,0,0,0,0,0,0,0,0,-1,853,939,0,0
-364,85,0,0,0,0,0,0,0,0,0,-1,860,939,0,0
-357,85,0,0,0,0,0,0,0,0,0,-1,867,939,0,0
-350,85,0,0,0,0,0,0,0,0,0,-1,874,939,0,0
-343,85,0,0,0,0,0,0,0,0,0,-1,881,939,0,0
-336,85,0,0,0,0,0,0,0,0,0,-1,888,939,0,0
-329,85,0,0,0,0,0,0,0,0,0,-1,895,939,0,0
-322,85,0,0,0,0,0,0,0,0,0,-1,902,939,0,0
-315,85,0,0,0,0,0,0,0,0,0,-1,909,939,0,0
-308,85,0,0,0,0,0,0,0,0,0,-1,916,939,0,0
-301,85,0,0,0,0,0,0,0,0,0,-1,923,939,0,0
-294,85,0,0,0,0,0,0,0,0,0,-1,930,939,0,0
-287,85,0,0,0,0,0,0,0,0,0,-1,937,939,0,0
-280,85,0,0,0,0,0,0,0,0,0,-1,944,939,0,0
-273,85,0,0,0,0,0,0,0,0,0,-1,951,939,0,0
-266,85,0,0,0,0,0,0,0,0,0,-1,958,939,0,0
-259,85,0,0,0,0,0,0,0,0,0,-1,965,939,0,0
-252,85,0,0,0,0,0,0,0,0,0,-1,972,939,0,0
-245,85,0,0,0,0,0,0,0,0,0,-1,979,939,0,0
-238,85,0,0,0,0,0,0,0,0,0,-1,986,939,0,0
-231,85,0,0,0,0,0,0,0,0,0,-1,993,939,0,0
-224,85,0,0,0,0,0,0,0,0,0,-1,1000,939,0,0
-217,85,0,0,0,0,0,0,0,0,0,-1,1007,939,0,0
-210,85,0,0,0,0,0,0,0,0,0,-1,1014,939,0,0
-203,85,0,0,0,0,0,0,0,0,0,-1,1021,939,0,0
-196,85,0,0,0,0,0,0,0,0,0,-1,1028,939,0,0
-189,85,0,0,0,0,0,0,0,0,0,-1,1035,939,0,0
-182,85,0,0,0,0,0,0,0,0,0,-1,1042,939,0,0
-175,85,0,0,0,0,0,0,0,0,0,-1,1049,939,0,0
-168,85,0,0,0,0,0,0,0,0,0,-1,1056,939,0,0
-161,85,0,0,0,0,0,0,0,0,0,-1,1063,939,0,0
-154,85,0,0,0,0,0,0,0,0,0,-1,1070,939,0,0
-147,85,0,0,0,0,0,0,0,0,0,-1,1077,939,0,0
-140,85,0,0,0,0,0,0,0,0,0,-1,1084,939,0,0
-133,85,0,0,0,0,0,0,0,0,0,-1,1091,939,0,0
-126,85,0,0,0,0,0,0,0,0,0,-1,1098,939,0,0
-119,85,0,0,0,0,0,0,0,0,0,-1,1105,939,0,0
-112,85,0,0,0,0,0,0,0,0,0,-1,1112,939,0,0
-105,85,0,0,0,0,0,0,0,0,0,-1,1119,939,0,0
-98,85,0,0,0,0,0,0,0,0,0,-1,1126,939,0,0
-91,85,0,0,0,0,0,0,0,0,0,-1,1133,939,0,0
-84,85,0,0,0,0,0,0,0,0,0,-1,1140,939,0,0
-77,85,0,0,0,0,0,0,0,0,0,-1,1147,939,0,0
-70,85,0,0,0,0,0,0,0,0,0,-1,1154,939,0,0
-63,85,0,0,0,0,0,0,0,0,0,-1,1161,939,0,0
-56,85,0,0,0,0,0,0,0,0,0,-1,1168,939,0,0
-49,85,0,0,0,0,0,0,0,0,0,-1,1175,939,0,0
-42,85,0,0,0,0,0,0,0,0,0,-1,1182,939,0,0
-35,85,0,0,0,0,0,0,0,0,0,-1,1189,939,0,0
-28,85,0,0,0,0,0,0,0,0,0,-1,1196,939,0,0
-21,85,0,0,0,0,0,0,0,0,0,-1,1203,939,0,0
-14,85,0,0,0,0,0,0,0,0,0,-1,1210,939,0,0
-7,85,0,0,0,0,0,0,0,0,0,-1,1217,939,0,0
0,85,0,0,0,0,0,0,0,0,0,-1,1224,939,0,0
7,85,0,0,0,0,0,0,0,0,0,-1,1231,939,0,0
14,85,0,0,0,0,0,0,0,0,0,-1,1238,939,0,0
21,85,0,0,0,0,0,0,0,0,0,-1,1245,939,0,0
28,85,0,0,0,0,0,0,0,0,0,-1,1252,939,0,0
35,85,0,0,0,0,0,0,0,0,0,-1,1259,939,0,0
42,85,0,0,0,0,0,0,0,0,0,-1,1266,939,0,0
49,85,0,0,0,0,0,0,0,0,0,-1,1273,939,0,0
56,85,0,0,0,0,0,0,0,0,0,-1,1280,939,0,0
63,85,0,0,0,0,0,0,0,0,0,-1,1287,939,0,0
70,85,0,0,0,0,0,0,0,0,0,-1,1294,939,0,0
77,85,0,0,0,0,0,0,0,0,0,-1,1301,939,0,0
84,85,0,0,0,0,0,0,0,0,0,-1,1308,939,0,0
91,85,0,0,0,0,0,0,0,0,0,-1,1315,939,0,0
98,85,0,0,0,0,0,0,0,0,0,-1,1322,939,0,0
105,85,0,0,0,0,0,0,0,0,0,-1,1329,939,0,0
112,85,0,0,0,0,0,0,0,0,0,-1,1336,939,0,0
119,85,0,0,0,0,0,0,0,0,0,-1,1343,939,0,0
126,85,0,0,0,0,0,0,0,0,0,-1,1350,939,0,0
133,85,0,0,0,0,0,0,0,0,0,-1,1357,939,0,0
140,85,0,0,0,0,0,0,0,0,0,-1,1364,939,0,0
147,85,0,0,0,0,0,0,0,0,0,-1,1371,939,0,0
154,85,0,0,0,0,0,0,0,0,0,-1,1378,939,0,0
161,85,0,0,0,0,0,0,0,0,0,-1,1385,939,0,0
168,85,0,0,0,0,0,0,0,0,0,-1,1392,939,0,0
175,85,0,0,0,0,0,0,0,0,0,-1,1399,939,0,0
182,85,0,0,0,0,0,0,0,0,0,-1,1406,939,0,0
189,85,0,0,0,0,0,0,0,0,0,-1,1413,939,0,0
196,85,0,0,0,0,0,0,0,0,0,-1,1420,939,0,0
203,85,0,0,0,0,0,0,0,0,0,-1,1427,939,0,0
210,85,0,0,0,0,0,0,0,0,0,-1,1434,939,0,0
217,85,0,0,0,0,0,0,0,0,0,-1,1441,939,0,0
224,85,0,0,0,0,0,0,0,0,0,-1,1448,939,0,0
231,85,0,0,0,0,0,0,0,0,0,-1,1455,939,0,0
238,85,0,0,0,0,0,0,0,0,0,-1,1462,939,0,0
245,85,0,0,0,0,0,0,0,0,0,-1,1469,939,0,0
252,85,0,0,0,0,0,0,0,0,0,-1,1476,939,0,0
259,85,0,0,0,0,0,0,0,0,0,-1,1483,939,0,0
266,85,0,0,0,0,0,0,0,0,0,-1,1490,939,0,0
273,85,0,0,0,0,0,0,0,0,0,-1,1497,939,0,0
280,85,0,0,0,0,0,0,0,0,0,-1,1504,939,0,0
287,85,0,0,0,0,0,0,0,0,0,-1,1511,939,0,0
294,85,0,0,0,0,0,0,0,0,0,-1,1518,939,0,0
301,85,0,0,0,0,0,0,0,0,0,-1,1525,939,0,0
308,85,0,0,0,0,0,0,0,0,0,-1,1532,939,0,0
315,85,0,0,0,0,0,0,0,0,0,-1,1539,939,0,0
322,85,0,0,0,0,0,0,0,0,0,-1,1546,939,0,0
329,85,0,0,0,0,0,0,0,0,0,-1,1553,939,0,0
336,85,0,0,0,0,0,0,0,0,0,-1,1560,939,0,0
343,85,0,0,0,0,0,0,0,0,0,-1,1567,939,0,0
350,85,0,0,0,0,0,0,0,0,0,-1,1574,939,0,0
357,85,0,0,0,0,0,0,0,0,0,-1,1581,939,0,0
364,85,0,0,0,0,0,0,0,0,0,-1,1588,939,0,0
371,85,0,0,0,0,0,0,0,0,0,-1,1595,939,0,0
378,85,0,0,0,0,0,0,0,0,0,-1,1602,939,0,0
385,85,0,0,0,0,0,0,0,0,0,-1,1609,939,0,0
392,85,0,0,0,0,0,0,0,0,0,-1,1616,939,0,0
399,85,0,0,0,0,0,0,0,0,0,-1,1623,939,0,0
406,85,0,0,0,0,0,0,0,0,0,-1,1630,939,0,0
413,85,0,0,0,0,0,0,0,0,0,-1,1637,939,0,0
420,85,0,0,0,0,0,0,0,0,0,-1,1644,939,0,0
427,85,0,0,0,0,0,0,0,0,0,-1,1651,939,0,0
434,85,0,0,0,0,0,0,0,0,0,-1,1658,939,0,0
441,85,0,0,0,0,0,0,0,0,0,-1,1665,939,0,0
448,85,0,0,0,0,0,0,0,0,0,-1,1672,939,0,0
455,85,0,0,0,0,0,0,0,0,0,-1,1679,939,0,0
462,85,0,0,0,0,0,0,0,0,0,-1,1686,939,0,0
469,85,0,0,0,0,0,0,0,0,0,-1,1693,939,0,0
476,85,0,0,0,0,0,0,0,0,0,-1,1700,939,0,0
483,85,0,0,0,0,0,0,0,0,0,-1,1707,939,0,0
490,85,0,0,0,0,0,0,0,0,0,-1,1714,939,0,0
497,85,0,0,0,0,0,0,0,0,0,-1,1721,939,0,0
504,85,0,0,0,0,0,0,0,0,0,-1,1728,939,0,0
511,85,0,0,0,0,0,0,0,0,0,-1,1735,939,0,0
518,85,0,0,0,0,0,0,0,0,0,-1,1742,939,0,0
525,85,0,0,0,0,0,0,0,0,0,-1,1749,939,0,0
532,85,0,0,0,0,0,0,0,0,0,-1,1756,939,0,0
539,85,0,0,0,0,0,0,0,0,0,-1,1763,939,0,0
546,85,0,0,0,0,0,0,0,0,0,-1,1770,939,0,0
553,85,0,0,0,0,0,0,0,0,0,-1,1777,939,0,0
560,85,0,0,0,0,0,0,0,0,0,-1,1784,939,0,0
567,85,0,0,0,0,0,0,0,0,0,-1,1791,939,0,0
574,85,0,0,0,0,0,0,0,0,0,-1,1798,939,0,0
581,85,0,0,0,0,0,0,0,0,0,-1,1805,939,0,0
588,85,0,0,0,0,0,0,0,0,0,-1,1812,939,0,0
595,85,0,0,0,0,0,0,0,0,0,-1,1819,939,0,0
602,85,0,0,0,0,0,0,0,0,0,-1,1826,939,0,0
609,85,0,0,0,0,0,0,0,0,0,-1,1833,939,0,0
616,85,0,0,0,0,0,0,0,0,0,-1,1840,939,0,0
623,85,0,0,0,0,0,0,0,0,0,-1,1847,939,0,0
630,85,0,0,0,0,0,0,0,0,0,-1,1854,939,0,0
637,85,46.519,3.36993,0,0,0,0,0,0,0,-1,1861,939,46.519,-3.36995
644,85,46.6664,2.84033,0.00139248,0.00441114,-0.00464726,0.00778802,-0.00198441,-0.942414,0.00596455,0.0413821,1868,939,46.6664,-2.84033
651,85,46.751,2.67291,0.000714783,0.00307092,-0.00293623,0.00505659,-0.00127089,-0.976176,0.00386498,0.0370451,1875,939,46.7509,-2.67289
658,85,46.6257,2.88477,-3.86728e-06,0.00230088,-0.00135283,0.00292562,-0.000628599,-1.13818,0.00219022,0.0388221,1882,939,46.6257,-2.88474
665,85,46.5055,2.93878,-0.000490363,0.0018313,0.000108721,0.00183638,-0.000495443,1.5241,0.00141854,0.0398715,1889,939,46.5054,-2.9388
672,85,46.594,2.83698,-0.000811628,0.00144569,0.00125817,0.00200726,-0.00137319,1.15099,0.00196311,0.0394383,1896,939,46.594,-2.837
679,85,46.6235,2.85022,-0.000912699,0.00105924,0.00197955,0.00228478,-0.00213823,1.01645,0.0025541,0.0403661,1903,939,46.6235,-2.85025
686,85,46.5364,2.82013,-0.000802482,0.000735817,0.00226591,0.00235956,-0.00242622,0.949018,0.00276316,0.0362203,1910,939,46.5363,-2.82014
693,85,46.4885,2.94757,-0.000796708,0.000325653,0.0023776,0.00220741,-0.00267846,0.901291,0.00282522,0.0319465,1917,939,46.4885,-2.94755
700,85,46.4794,3.04266,-0.000995941,0.000350756,0.00229436,0.00206853,-0.00271372,0.92813,0.0027694,0.0434671,1924,939,46.4793,-3.04267
707,85,46.5114,3.12677,0,0,0,0,0,0,0,-1,1931,939,46.5113,-3.12675
714,85,43.7922,4.11176,0,0,0,0,0,0,0,-1,1938,939,43.7922,-4.11178
721,85,43.6934,4.60742,-0.00152901,0.00117179,0.00116054,0.00160196,-0.00195918,1.21583,0.00205947,0.030371,1945,939,43.6934,-4.60743
728,85,43.5692,5.12366,-0.00159469,0.00178576,0.000970172,0.00204441,-0.00185333,1.31026,0.00225126,0.0260347,1952,939,43.5693,-5.12363
735,85,43.5912,5.40137,-0.00160049,0.00224904,0.000744786,0.00238812,-0.00173957,1.38619,0.0023929,0.0241324,1959,939,43.5912,-5.40137
742,85,43.6794,5.74231,-0.00172705,0.00401824,0.000442837,0.00405218,-0.00176098,1.49432,0.00344203,0.017893,1966,939,43.6794,-5.74233
749,85,43.6025,6.10126,-0.00190939,0.00701738,0.000548122,0.00705091,-0.00194292,1.5097,0.00546462,0.0143126,1973,939,43.6025,-6.10127
756,85,43.4935,6.43915,-0.00196073,0.0108984,0.00111913,0.010995,-0.0020574,1.48463,0.00810335,0.0133329,1980,939,43.4935,-6.43917
763,85,43.4735,6.80206,-0.00185055,0.0162793,0.00221466,0.0165459,-0.00211717,1.45099,0.0117998,0.0136939,1987,939,43.4735,-6.80204
770,85,43.4403,7.19763,-0.00148656,0.022962,0.00359996,0.0234811,-0.00200562,1.4276,0.0163636,0.0210379,1994,939,43.4404,-7.19763
777,85,43.6918,7.83118,-0.000982009,0.0313282,0.00516581,0.032134,-0.00178783,1.41605,0.0220428,0.0441762,2001,939,43.6918,-7.83116
784,85,44.0544,8.48218,0,0,0,0,0,0,0,-1,2008,939,44.0545,-8.48218
791,85,44.3481,7.75421,0.000677176,0.0561767,0.00800244,0.0573076,-0.000453649,1.43042,0.0383572,0.0477466,2015,939,44.3482,-7.75421
798,85,44.2014,8.06665,0.0012919,0.0740764,0.00842305,0.0750384,0.000329852,1.45707,0.049916,0.047488,2022,939,44.2014,-8.06668
805,85,44.2192,8.38947,0,0,0,0,0,0,0,-1,2029,939,44.2193,-8.38946
812,85,0,0,0,0,0,0,0,0,0,-1,2036,939,0,0
-700,78,0,0,0,0,0,0,0,0,0,-1,524,946,0,0
-693,78,0,0,0,0,0,0,0,0,0,-1,531,946,0,0
-686,78,-31.2743,6.33441,0,0,0,0,0,0,0,-1,538,946,-31.2743,-6.33443
-679,78,-31.1563,6.16382,-0.0522242,-0.0737109,0.012637,-0.046381,-0.0795541,0.433107,0.0461411,0.0479206,545,946,-31.1563,-6.16382
-672,78,-31.0933,5.91083,-0.0501932,-0.0549192,0.00958895,-0.0426804,-0.062432,0.664589,0.0368465,0.0457077,552,946,-31.0933,-5.91081
-665,78,-31.2272,5.45343,-0.0453796,-0.0387307,0.00797163,-0.0334181,-0.0506922,0.982952,0.0297578,0.0447729,559,946,-31.2273,-5.45341
-658,78,-31.4952,5.05499,-0.039216,-0.025343,0.006957,-0.0224553,-0.0421037,1.17736,0.0243266,0.0443276,566,946,-31.4952,-5.05501
-651,78,-32.0169,4.84778,-0.0326042,-0.0148163,0.00621446,-0.0128603,-0.0345602,1.26586,0.0201697,0.0410804,573,946,-32.0169,-4.84778
-644,78,-32.5845,4.56409,-0.0260943,-0.0070714,0.00558544,-0.00555268,-0.0276131,1.30531,0.0168653,0.0286418,580,946,-32.5845,-4.56411
-637,78,-32.7703,4.24524,-0.0201225,-0.00183811,0.00487731,-0.00061846,-0.0213422,1.32576,0.0140265,0.0173725,587,946,-32.7703,-4.24524
-630,78,-32.8836,3.94116,-0.01554,0.0012521,0.0039179,0.00212123,-0.0164092,1.3525,0.0117107,0.0157348,594,946,-32.8836,-3.94114
-623,78,-32.9169,3.64606,-0.0125589,0.00355753,0.00277782,0.00402288,-0.0130243,1.40482,0.0102894,0.0132268,601,946,-32.9169,-3.64606
-616,78,-32.9215,3.34418,-0.010157,0.00435318,0.00170978,0.00455193,-0.0103557,1.45507,0.00882169,0.0112584,608,946,-32.9215,-3.3442
-609,78,-32.8953,3.05164,-0.00930025,0.0040885,0.000542026,0.00411041,-0.00932216,1.5304,0.00794749,0.0119338,615,946,-32.8953,-3.05162
-602,78,-32.8956,2.72375,-0.00950254,0.00307567,-0.000747441,0.00311993,-0.0095468,-1.51165,0.00762046,0.016978,622,946,-32.8956,-2.72374
-595,78,-32.8517,2.35944,-0.0095768,0.00194458,-0.00172412,0.00219705,-0.00982927,-1.42539,0.0073948,0.0155733,629,946,-32.8517,-2.35946
-588,78,-32.8561,2.1015,-0.00941959,0.00126686,-0.00225842,0.00172454,-0.00987727,-1.37085,0.0072286,0.0135898,636,946,-32.8561,-2.10152
-581,78,-33.0099,1.81989,-0.00938314,0.000981619,-0.00265235,0.00162093,-0.0100224,-1.33427,0.00728232,0.0308947,643,946,-33.01,-1.81986
-574,78,-33.7191,1.40253,-0.00925112,0.00100036,-0.00304339,0.00183578,-0.0100865,-1.30289,0.00741246,0.0375203,650,946,-33.7191,-1.40252
-567,78,-34.5172,1.07904,0,0,0,0,0,0,0,-1,657,946,-34.5172,-1.07902
-560,78,-34.4114,1.09406,-0.00797182,0.00181098,-0.00356338,0.00297132,-0.00913215,-1.256,0.00728345,0.0349457,664,946,-34.4114,-1.09404
-553,78,-34.5522,0.909363,-0.00645596,0.00238696,-0.00357088,0.00364885,-0.00771785,-1.23111,0.00670126,0.0444418,671,946,-34.5522,-0.909359
-546,78,-34.5784,0.947876,-0.00418427,0.00307526,-0.0033981,0.00441764,-0.00552666,-1.19457,0.00575323,0.0437305,678,946,-34.5784,-0.947847
-539,78,-34.4195,1.06433,-0.00113326,0.00377768,-0.00304365,0.00523285,-0.00258844,-1.12482,0.00460086,0.0390164,685,946,-34.4195,-1.06431
-532,78,-34.3625,0.937134,0.00243025,0.00445001,-0.00271883,0.00634045,0.000539807,-0.96322,0.00405901,0.0402284,692,946,-34.3625,-0.937126
-525,78,-34.3608,0.770569,0.00465083,0.00535893,-0.00300787,0.00803351,0.00197624,-0.843983,0.00483352,0.0402502,699,946,-34.3609,-0.770563
-518,78,-34.3891,0.872925,0.00250586,0.0067952,-0.00417458,0.00934379,-4.27421e-05,-1.02269,0.00624349,0.0413415,706,946,-34.3891,-0.872904
-511,78,0,0,0,0,0,0,0,0,0,-1,713,946,0,0
-504,78,0,0,0,0,0,0,0,0,0,-1,720,946,0,0
-497,78,0,0,0,0,0,0,0,0,0,-1,727,946,0,0
-490,78,0,0,0,0,0,0,0,0,0,-1,734,946,0,0
-483,78,0,0,0,0,0,0,0,0,0,-1,741,946,0,0
-476,78,0,0,0,0,0,0,0,0,0,-1,748,946,0,0
-469,78,0,0,0,0,0,0,0,0,0,-1,755,946,0,0
-462,78,0,0,0,0,0,0,0,0,0,-1,762,946,0,0
-455,78,0,0,0,0,0,0,0,0,0,-1,769,946,0,0
-448,78,0,0,0,0,0,0,0,0,0,-1,776,946,0,0
-441,78,0,0,0,0,0,0,0,0,0,-1,783,946,0,0
-434,78,0,0,0,0,0,0,0,0,0,-1,790,946,0,0
-427,78,0,0,0,0,0,0,0,0,0,-1,797,946,0,0
-420,78,0,0,0,0,0,0,0,0,0,-1,804,946,0,0
-413,78,0,0,0,0,0,0,0,0,0,-1,811,946,0,0
-406,78,0,0,0,0,0,0,0,0,0,-1,818,946,0,0
-399,78,0,0,0,0,0,0,0,0,0,-1,825,946,0,0
-392,78,0,0,0,0,0,0,0,0,0,-1,832,946,0,0
-385,78,0,0,0,0,0,0,0,0,0,-1,839,946,0,0
-378,78,0,0,0,0,0,0,0,0,0,-1,846,946,0,0
-371,78,0,0,0,0,0,0,0,0,0,-1,853,946,0,0
-364,78,0,0,0,0,0,0,0,0,0,-1,860,946,0,0
-357,78,0,0,0,0,0,0,0,0,0,-1,867,946,0,0
-350,78,0,0,0,0,0,0,0,0,0,-1,874,946,0,0
-343,78,0,0,0,0,0,0,0,0,0,-1,881,946,0,0
-336,78,0,0,0,0,0,0,0,0,0,-1,888,946,0,0
-329,78,0,0,0,0,0,0,0,0,0,-1,895,946,0,0
-322,78,0,0,0,0,0,0,0,0,0,-1,902,946,0,0
-315,78,0,0,0,0,0,0,0,0,0,-1,909,946,0,0
-308,78,0,0,0,0,0,0,0,0,0,-1,916,946,0,0
-301,78,0,0,0,0,0,0,0,0,0,-1,923,946,0,0
-294,78,0,0,0,0,0,0,0,0,0,-1,930,946,0,0
-287,78,0,0,0,0,0,0,0,0,0,-1,937,946,0,0
-280,78,0,0,0,0,0,0,0,0,0,-1,944,946,0,0
-273,78,0,0,0,0,0,0,0,0,0,-1,951,946,0,0
-266,78,0,0,0,0,0,0,0,0,0,-1,958,946,0,0
-259,78,0,0,0,0,0,0,0,0,0,-1,965,946,0,0
-252,78,0,0,0,0,0,0,0,0,0,-1,972,946,0,0
-245,78,0,0,0,0,0,0,0,0,0,-1,979,946,0,0
-238,78,0,0,0,0,0,0,0,0,0,-1,986,946,0,0
-231,78,0,0,0,0,0,0,0,0,0,-1,993,946,0,0
-224,78,0,0,0,0,0,0,0,0,0,-1,1000,946,0,0
-217,78,0,0,0,0,0,0,0,0,0,-1,1007,946,0,0
-210,78,0,0,0,0,0,0,0,0,0,-1,1014,946,0,0
-203,78,0,0,0,0,0,0,0,0,0,-1,1021,946,0,0
-196,78,0,0,0,0,0,0,0,0,0,-1,1028,946,0,0
-189,78,0,0,0,0,0,0,0,0,0,-1,1035,946,0,0
-182,78,0,0,0,0,0,0,0,0,0,-1,1042,946,0,0
-175,78,0,0,0,0,0,0,0,0,0,-1,1049,946,0,0
-168,78,0,0,0,0,0,0,0,0,0,-1,1056,946,0,0
-161,78,0,0,0,0,0,0,0,0,0,-1,1063,946,0,0
-154,78,0,0,0,0,0,0,0,0,0,-1,1070,946,0,0
-147,78,0,0,0,0,0,0,0,0,0,-1,1077,946,0,0
-140,78,0,0,0,0,0,0,0,0,0,-1,1084,946,0,0
-133,78,0,0,0,0,0,0,0,0,0,-1,1091,946,0,0
-126,78,0,0,0,0,0,0,0,0,0,-1,1098,946,0,0
-119,78,0,0,0,0,0,0,0,0,0,-1,1105,946,0,0
-112,78,0,0,0,0,0,0,0,0,0,-1,1112,946,0,0
-105,78,0,0,0,0,0,0,0,0,0,-1,1119,946,0,0
-98,78,0,0,0,0,0,0,0,0,0,-1,1126,946,0,0
-91,78,0,0,0,0,0,0,0,0,0,-1,1133,946,0,0
-84,78,0,0,0,0,0,0,0,0,0,-1,1140,946,0,0
-77,78,0,0,0,0,0,0,0,0,0,-1,1147,946,0,0
-70,78,0,0,0,0,0,0,0,0,0,-1,1154,946,0,0
-63,78,0,0,0,0,0,0,0,0,0,-1,1161,946,0,0
-56,78,0,0,0,0,0,0,0,0,0,-1,1168,946,0,0
-49,78,0,0,0,0,0,0,0,0,0,-1,1175,946,0,0
-42,78,0,0,0,0,0,0,0,0,0,-1,1182,946,0,0
-35,78,0,0,0,0,0,0,0,0,0,-1,1189,946,0,0
-28,78,0,0,0,0,0,0,0,0,0,-1,1196,946,0,0
-21,78,0,0,0,0,0,0,0,0,0,-1,1203,946,0,0
-14,78,0,0,0,0,0,0,0,0,0,-1,1210,946,0,0
-7,78,0,0,0,0,0,0,0,0,0,-1,1217,946,0,0
0,78,0,0,0,0,0,0,0,0,0,-1,1224,946,0,0
7,78,0,0,0,0,0,0,0,0,0,-1,1231,946,0,0
14,78,0,0,0,0,0,0,0,0,0,-1,1238,946,0,0
21,78,0,0,0,0,0,0,0,0,0,-1,1245,946,0,0
28,78,0,0,0,0,0,0,0,0,0,-1,1252,946,0,0
35,78,0,0,0,0,0,0,0,0,0,-1,1259,946,0,0
42,78,0,0,0,0,0,0,0,0,0,-1,1266,946,0,0
49,78,0,0,0,0,0,0,0,0,0,-1,1273,946,0,0
56,78,0,0,0,0,0,0,0,0,0,-1,1280,946,0,0
63,78,0,0,0,0,0,0,0,0,0,-1,1287,946,0,0
70,78,0,0,0,0,0,0,0,0,0,-1,1294,946,0,0
77,78,0,0,0,0,0,0,0,0,0,-1,1301,946,0,0
84,78,0,0,0,0,0,0,0,0,0,-1,1308,946,0,0
91,78,0,0,0,0,0,0,0,0,0,-1,1315,946,0,0
98,78,0,0,0,0,0,0,0,0,0,-1,1322,946,0,0
105,78,0,0,0,0,0,0,0,0,0,-1,1329,946,0,0
112,78,0,0,0,0,0,0,0,0,0,-1,1336,946,0,0
119,78,0,0,0,0,0,0,0,0,0,-1,1343,946,0,0
126,78,0,0,0,0,0,0,0,0,0,-1,1350,946,0,0
133,78,0,0,0,0,0,0,0,0,0,-1,1357,946,0,0
140,78,0,0,0,0,0,0,0,0,0,-1,1364,946,0,0
147,78,0,0,0,0,0,0,0,0,0,-1,1371,946,0,0
154,78,0,0,0,0,0,0,0,0,0,-1,1378,946,0,0
161,78,0,0,0,0,0,0,0,0,0,-1,1385,946,0,0
168,78,0,0,0,0,0,0,0,0,0,-1,1392,946,0,0
175,78,0,0,0,0,0,0,0,0,0,-1,1399,946,0,0
182,78,0,0,0,0,0,0,0,0,0,-1,1406,946,0,0
189,78,0,0,0,0,0,0,0,0,0,-1,1413,946,0,0
196,78,0,0,0,0,0,0,0,0,0,-1,1420,946,0,0
203,78,0,0,0,0,0,0,0,0,0,-1,1427,946,0,0
210,78,0,0,0,0,0,0,0,0,0,-1,1434,946,0,0
217,78,0,0,0,0,0,0,0,0,0,-1,1441,946,0,0
224,78,0,0,0,0,0,0,0,0,0,-1,1448,946,0,0
231,78,0,0,0,0,0,0,0,0,0,-1,1455,946,0,0
238,78,0,0,0,0,0,0,0,0,0,-1,1462,946,0,0
245,78,0,0,0,0,0,0,0,0,0,-1,1469,946,0,0
252,78,0,0,0,0,0,0,0,0,0,-1,1476,946,0,0
259,78,0,0,0,0,0,0,0,0,0,-1,1483,946,0,0
266,78,0,0,0,0,0,0,0,0,0,-1,1490,946,0,0
273,78,0,0,0,0,0,0,0,0,0,-1,1497,946,0,0
280,78,0,0,0,0,0,0,0,0,0,-1,1504,946,0,0
287,78,0,0,0,0,0,0,0,0,0,-1,1511,946,0,0
294,78,0,0,0,0,0,0,0,0,0,-1,1518,946,0,0
301,78,0,0,0,0,0,0,0,0,0,-1,1525,946,0,0
308,78,0,0,0,0,0,0,0,0,0,-1,1532,946,0,0
315,78,0,0,0,0,0,0,0,0,0,-1,1539,946,0,0
322,78,0,0,0,0,0,0,0,0,0,-1,1546,946,0,0
329,78,0,0,0,0,0,0,0,0,0,-1,1553,946,0,0
336,78,0,0,0,0,0,0,0,0,0,-1,1560,946,0,0
343,78,0,0,0,0,0,0,0,0,0,-1,1567,946,0,0
350,78,0,0,0,0,0,0,0,0,0,-1,1574,946,0,0
357,78,0,0,0,0,0,0,0,0,0,-1,1581,946,0,0
364,78,0,0,0,0,0,0,0,0,0,-1,1588,946,0,0
371,78,0,0,0,0,0,0,0,0,0,-1,1595,946,0,0
378,78,0,0,0,0,0,0,0,0,0,-1,1602,946,0,0
385,78,0,0,0,0,0,0,0,0,0,-1,1609,946,0,0
392,78,0,0,0,0,0,0,0,0,0,-1,1616,946,0,0
399,78,0,0,0,0,0,0,0,0,0,-1,1623,946,0,0
406,78,0,0,0,0,0,0,0,0,0,-1,1630,946,0,0
413,78,0,0,0,0,0,0,0,0,0,-1,1637,946,0,0
420,78,0,0,0,0,0,0,0,0,0,-1,1644,946,0,0
427,78,0,0,0,0,0,0,0,0,0,-1,1651,946,0,0
434,78,0,0,0,0,0,0,0,0,0,-1,1658,946,0,0
441,78,0,0,0,0,0,0,0,0,0,-1,1665,946,0,0
448,78,0,0,0,0,0,0,0,0,0,-1,1672,946,0,0
455,78,0,0,0,0,0,0,0,0,0,-1,1679,946,0,0
462,78,0,0,0,0,0,0,0,0,0,-1,1686,946,0,0
469,78,0,0,0,0,0,0,0,0,0,-1,1693,946,0,0
476,78,0,0,0,0,0,0,0,0,0,-1,1700,946,0,0
483,78,0,0,0,0,0,0,0,0,0,-1,1707,946,0,0
490,78,0,0,0,0,0,0,0,0,0,-1,1714,946,0,0
497,78,0,0,0,0,0,0,0,0,0,-1,1721,946,0,0
504,78,0,0,0,0,0,0,0,0,0,-1,1728,946,0,0
511,78,0,0,0,0,0,0,0,0,0,-1,1735,946,0,0
518,78,0,0,0,0,0,0,0,0,0,-1,1742,946,0,0
525,78,0,0,0,0,0,0,0,0,0,-1,1749,946,0,0
532,78,0,0,0,0,0,0,0,0,0,-1,1756,946,0,0
539,78,0,0,0,0,0,0,0,0,0,-1,1763,946,0,0
546,78,0,0,0,0,0,0,0,0,0,-1,1770,946,0,0
553,78,0,0,0,0,0,0,0,0,0,-1,1777,946,0,0
560,78,0,0,0,0,0,0,0,0,0,-1,1784,946,0,0
567,78,0,0,0,0,0,0,0,0,0,-1,1791,946,0,0
574,78,0,0,0,0,0,0,0,0,0,-1,1798,946,0,0
581,78,0,0,0,0,0,0,0,0,0,-1,1805,946,0,0
588,78,0,0,0,0,0,0,0,0,0,-1,1812,946,0,0
595,78,0,0,0,0,0,0,0,0,0,-1,1819,946,0,0
602,78,0,0,0,0,0,0,0,0,0,-1,1826,946,0,0
609,78,0,0,0,0,0,0,0,0,0,-1,1833,946,0,0
616,78,0,0,0,0,0,0,0,0,0,-1,1840,946,0,0
623,78,0,0,0,0,0,0,0,0,0,-1,1847,946,0,0
630,78,0,0,0,0,0,0,0,0,0,-1,1854,946,0,0
637,78,46.5732,3.36877,0.00365621,0.00616922,-0.00639234,0.0114274,-0.00160194,-0.882443,0.00820453,0.0482863,1861,946,46.5733,-3.3688
644,78,46.5698,2.96338,0.00245142,0.00388657,-0.00436778,0.00759532,-0.00125734,-0.866815,0.00553051,0.0418178,1868,946,46.5699,-2.9634
651,78,46.595,2.74805,0.0014657,0.00234628,-0.00274715,0.0046882,-0.000876218,-0.864857,0.00345478,0.0390259,1875,946,46.595,-2.74804
658,78,46.5188,2.74573,0.000522307,0.00152523,-0.00126276,0.00238246,-0.000334919,-0.974407,0.00171091,0.0373206,1882,946,46.5187,-2.74574
665,78,46.4124,2.65265,-0.000219904,0.00111039,0.000161737,0.00112977,-0.000239286,1.45153,0.000844321,0.0393799,1889,946,46.4124,-2.65263
672,78,46.432,2.69067,-0.000792355,0.000835166,0.00135122,0.00159875,-0.00155594,1.05643,0.00182142,0.040474,1896,946,46.432,-2.6907
679,78,46.4972,2.77875,-0.00109731,0.000580594,0.00214265,0.00204268,-0.0025594,0.971998,0.00266259,0.0409627,1903,946,46.4972,-2.77876
686,78,46.4685,2.83478,-0.00110842,0.00034335,0.00248227,0.00220369,-0.00296877,0.927646,0.00299719,0.0396432,1910,946,46.4685,-2.83476
693,78,46.4966,2.84369,-0.00115623,2.46863e-06,0.002611,0.00209763,-0.00325139,0.894573,0.00311211,0.0341509,1917,946,46.4965,-2.8437
700,78,46.4615,2.89374,-0.00138835,9.06831e-05,0.00252461,0.00198186,-0.00327953,0.927874,0.00306831,0.0309122,1924,946,46.4616,-2.89373
707,78,46.4855,3.04004,0,0,0,0,0,0,0,-1,1931,946,46.4855,-3.04007
714,78,43.9901,4.28516,0,0,0,0,0,0,0,-1,1938,946,43.9901,-4.28516
721,78,43.9716,4.65088,-0.00203982,0.00117069,0.0013974,0.00169372,-0.00256285,1.21265,0.00247455,0.0301021,1945,946,43.9716,-4.65087
728,78,43.9528,5.12177,-0.00208144,0.00187536,0.00124976,0.00223703,-0.00244312,1.28909,0.00270296,0.0309199,1952,946,43.9527,-5.12178
735,78,44.042,5.45831,-0.00200806,0.00240085,0.00107808,0.00265034,-0.00225756,1.34337,0.0028366,0.0224446,1959,946,44.042,-5.45831
742,78,44.0659,5.7583,-0.00203706,0.00423209,0.000819249,0.00433738,-0.00214235,1.44298,0.00381196,0.0177636,1966,946,44.066,-5.75827
749,78,43.9614,6.09222,-0.00206969,0.00714406,0.000951764,0.00724135,-0.00216698,1.46893,0.00568916,0.0150547,1973,946,43.9614,-6.09225
756,78,43.9208,6.40308,-0.00190438,0.010912,0.00155618,0.0110983,-0.00209063,1.45168,0.00818521,0.0153807,1980,946,43.9208,-6.40307
763,78,43.8502,6.70563,-0.00152133,0.0161888,0.00278918,0.0166177,-0.00195022,1.41822,0.0117825,0.0161382,1987,946,43.8503,-6.70563
770,78,43.8016,7.00659,-0.000849766,0.0227587,0.00445018,0.0235697,-0.00166076,1.39054,0.0162949,0.0232274,1994,946,43.8017,-7.00658
777,78,43.7532,7.33429,7.08961e-05,0.0307656,0.00633876,0.0320231,-0.0011866,1.37496,0.0217551,0.0456263,2001,946,43.7531,-7.33428
784,78,43.7483,7.66815,0,0,0,0,0,0,0,-1,2008,946,43.7482,-7.66814
791,78,45.0786,7.16174,0.00315355,0.0539538,0.0103879,0.0559959,0.00111146,1.37669,0.0369657,0.0460434,2015,946,45.0787,-7.16177
798,78,44.5208,7.38416,0.00507574,0.0704309,0.0117926,0.0724936,0.00301299,1.39763,0.0473567,0.0472681,2022,946,44.5207,-7.38413
805,78,44.4521,7.54877,0,0,0,0,0,0,0,-1,2029,946,44.4522,-7.54875
812,78,0,0,0,0,0,0,0,0,0,-1,2036,946,0,0
-700,71,0,0,0,0,0,0,0,0,0,-1,524,953,0,0
-693,71,0,0,0,0,0,0,0,0,0,-1,531,953,0,0
-686,71,-32.3492,3.24738,0,0,0,0,0,0,0,-1,538,953,-32.3492,-3.24738
-679,71,-32.621,6.5766,0,0,0,0,0,0,0,-1,545,953,-32.621,-6.57659
-672,71,-31.7975,5.97095,-0.0421081,-0.0468569,0.0146088,-0.029682,-0.059283,0.704836,0.0342271,0.0479923,552,953,-31.7975,-5.97094
-665,71,-32.0181,5.57379,-0.0390088,-0.0314644,0.0117727,-0.0228743,-0.0475988,0.940439,0.0274881,0.0469823,559,953,-32.0181,-5.57382
-658,71,-32.3189,5.26929,-0.0342128,-0.0190808,0.00974627,-0.0143084,-0.0389851,1.11546,0.0227718,0.049285,566,953,-32.3189,-5.26926
-651,71,-32.6931,4.9115,-0.0287252,-0.00968064,0.00820094,-0.00663594,-0.0317699,1.21531,0.019351,0.0429411,573,953,-32.693,-4.91153
-644,71,-32.9369,4.51721,-0.0231325,-0.0030367,0.00694887,-0.000867928,-0.0253012,1.26827,0.0165858,0.0320803,580,953,-32.9369,-4.51723
-637,71,-33.1308,4.18109,-0.0179104,0.00116431,0.00570372,0.00273972,-0.0194858,1.30131,0.0139935,0.0164223,587,953,-33.1308,-4.1811
-630,71,-33.2282,3.90161,-0.0139489,0.00340916,0.00426514,0.00440055,-0.0149403,1.34241,0.0117061,0.0152523,594,953,-33.2282,-3.90164
-623,71,-33.2672,3.61096,-0.0114974,0.00496906,0.00271125,0.00540398,-0.0119323,1.41174,0.0102429,0.0145146,601,953,-33.2672,-3.61099
-616,71,-33.2755,3.28412,-0.00953492,0.00525075,0.00130858,0.00536567,-0.00964984,1.4832,0.00878604,0.0143022,608,953,-33.2755,-3.2841
-609,71,-33.2212,3.03156,-0.00886497,0.00477964,-8.77697e-05,0.0047802,-0.00886554,-1.56436,0.0079952,0.0146523,615,953,-33.2212,-3.03153
-602,71,-33.1695,2.73529,-0.00901924,0.00370524,-0.00153512,0.00388783,-0.00920183,-1.45242,0.00776213,0.0167192,622,953,-33.1695,-2.73529
-595,71,-33.1943,2.42828,-0.00908328,0.00250342,-0.00260835,0.00306352,-0.00964339,-1.35927,0.00765718,0.0178082,629,953,-33.1943,-2.42831
-588,71,-32.813,2.31128,0,0,0,0,0,0,0,-1,636,953,-32.813,-2.31127
-581,71,-33.4459,1.78571,-0.00894667,0.00135878,-0.00369667,0.00254766,-0.0101355,-1.25964,0.00774717,0.0390486,643,953,-33.4458,-1.78573
-574,71,-34.1912,1.27905,-0.00881251,0.00123107,-0.00405778,0.00266559,-0.010247,-1.23099,0.00787179,0.042743,650,953,-34.1912,-1.27902
-567,71,-34.7932,0.939148,0,0,0,0,0,0,0,-1,657,953,-34.7932,-0.93914
-560,71,-34.4641,1.17731,-0.00738343,0.00190351,-0.00425446,0.00355784,-0.00903776,-1.19994,0.00749798,0.029425,664,953,-34.4641,-1.17729
-553,71,-34.5176,1.02765,-0.00571457,0.0023446,-0.00400252,0.0039946,-0.00736457,-1.17978,0.00665373,0.0390519,671,953,-34.5177,-1.02765
-546,71,-34.4501,1.09094,-0.00327425,0.00279867,-0.00348682,0.00438584,-0.00486143,-1.14363,0.00534127,0.0407593,678,953,-34.45,-1.09095
-539,71,-34.3609,0.899231,-0.000105164,0.00313017,-0.00271151,0.0046699,-0.00164489,-1.05435,0.00378272,0.0402619,685,953,-34.3609,-0.899241
-532,71,-34.3901,0.74469,0.00345904,0.00329674,-0.00198429,0.00536384,0.00139194,-0.764962,0.00321401,0.0431692,692,953,-34.3901,-0.74467
-525,71,-34.3842,0.679871,0.00546087,0.0035798,-0.00196251,0.00669658,0.00234409,-0.561943,0.00392381,0.0427624,699,953,-34.3842,-0.679855
-518,71,0,0,0,0,0,0,0,0,0,-1,706,953,0,0
-511,71,0,0,0,0,0,0,0,0,0,-1,713,953,0,0
-504,71,0,0,0,0,0,0,0,0,0,-1,720,953,0,0
-497,71,0,0,0,0,0,0,0,0,0,-1,727,953,0,0
-490,71,0,0,0,0,0,0,0,0,0,-1,734,953,0,0
-483,71,0,0,0,0,0,0,0,0,0,-1,741,953,0,0
-476,71,0,0,0,0,0,0,0,0,0,-1,748,953,0,0
-469,71,0,0,0,0,0,0,0,0,0,-1,755,953,0,0
-462,71,0,0,0,0,0,0,0,0,0,-1,762,953,0,0
-455,71,0,0,0,0,0,0,0,0,0,-1,769,953,0,0
-448,71,0,0,0,0,0,0,0,0,0,-1,776,953,0,0
-441,71,0,0,0,0,0,0,0,0,0,-1,783,953,0,0
-434,71,0,0,0,0,0,0,0,0,0,-1,790,953,0,0
-427,71,0,0,0,0,0,0,0,0,0,-1,797,953,0,0
-420,71,0,0,0,0,0,0,0,0,0,-1,804,953,0,0
-413,71,0,0,0,0,0,0,0,0,0,-1,811,953,0,0
-406,71,0,0,0,0,0,0,0,0,0,-1,818,953,0,0
-399,71,0,0,0,0,0,0,0,0,0,-1,825,953,0,0
-392,71,0,0,0,0,0,0,0,0,0,-1,832,953,0,0
-385,71,0,0,0,0,0,0,0,0,0,-1,839,953,0,0
-378,71,0,0,0,0,0,0,0,0,0,-1,846,953,0,0
-371,71,0,0,0,0,0,0,0,0,0,-1,853,953,0,0
-364,71,0,0,0,0,0,0,0,0,0,-1,860,953,0,0
-357,71,0,0,0,0,0,0,0,0,0,-1,867,953,0,0
-350,71,0,0,0,0,0,0,0,0,0,-1,874,953,0,0
-343,71,0,0,0,0,0,0,0,0,0,-1,881,953,0,0
-336,71,0,0,0,0,0,0,0,0,0,-1,888,953,0,0
-329,71,0,0,0,0,0,0,0,0,0,-1,895,953,0,0
-322,71,0,0,0,0,0,0,0,0,0,-1,902,953,0,0
-315,71,0,0,0,0,0,0,0,0,0,-1,909,953,0,0
-308,71,0,0,0,0,0,0,0,0,0,-1,916,953,0,0
-301,71,0,0,0,0,0,0,0,0,0,-1,923,953,0,0
-294,71,0,0,0,0,0,0,0,0,0,-1,930,953,0,0
-287,71,0,0,0,0,0,0,0,0,0,-1,937,953,0,0
-280,71,0,0,0,0,0,0,0,0,0,-1,944,953,0,0
-273,71,0,0,0,0,0,0,0,0,0,-1,951,953,0,0
-266,71,0,0,0,0,0,0,0,0,0,-1,958,953,0,0
-259,71,0,0,0,0,0,0,0,0,0,-1,965,953,0,0
-252,71,0,0,0,0,0,0,0,0,0,-1,972,953,0,0
-245,71,0,0,0,0,0,0,0,0,0,-1,979,953,0,0
-238,71,0,0,0,0,0,0,0,0,0,-1,986,953,0,0
-231,71,0,0,0,0,0,0,0,0,0,-1,993,953,0,0
-224,71,0,0,0,0,0,0,0,0,0,-1,1000,953,0,0
-217,71,0,0,0,0,0,0,0,0,0,-1,1007,953,0,0
-210,71,0,0,0,0,0,0,0,0,0,-1,1014,953,0,0
-203,71,0,0,0,0,0,0,0,0,0,-1,1021,953,0,0
-196,71,0,0,0,0,0,0,0,0,0,-1,1028,953,0,0
-189,71,0,0,0,0,0,0,0,0,0,-1,1035,953,0,0
-182,71,0,0,0,0,0,0,0,0,0,-1,1042,953,0,0
-175,71,0,0,0,0,0,0,0,0,0,-1,1049,953,0,0
-168,71,0,0,0,0,0,0,0,0,0,-1,1056,953,0,0
-161,71,0,0,0,0,0,0,0,0,0,-1,1063,953,0,0
-154,71,0,0,0,0,0,0,0,0,0,-1,1070,953,0,0
-147,71,0,0,0,0,0,0,0,0,0,-1,1077,953,0,0
-140,71,0,0,0,0,0,0,0,0,0,-1,1084,953,0,0
-133,71,0,0,0,0,0,0,0,0,0,-1,1091,953,0,0
-126,71,0,0,0,0,0,0,0,0,0,-1,1098,953,0,0
-119,71,0,0,0,0,0,0,0,0,0,-1,1105,953,0,0
-112,71,0,0,0,0,0,0,0,0,0,-1,1112,953,0,0
-105,71,0,0,0,0,0,0,0,0,0,-1,1119,953,0,0
-98,71,0,0,0,0,0,0,0,0,0,-1,1126,953,0,0
-91,71,0,0,0,0,0,0,0,0,0,-1,1133,953,0,0
-84,71,0,0,0,0,0,0,0,0,0,-1,1140,953,0,0
-77,71,0,0,0,0,0,0,0,0,0,-1,1147,953,0,0
-70,71,0,0,0,0,0,0,0,0,0,-1,1154,953,0,0
-63,71,0,0,0,0,0,0,0,0,0,-1,1161,953,0,0
-56,71,0,0,0,0,0,0,0,0,0,-1,1168,953,0,0
-49,71,0,0,0,0,0,0,0,0,0,-1,1175,953,0,0
-42,71,0,0,0,0,0,0,0,0,0,-1,1182,953,0,0
-35,71,0,0,0,0,0,0,0,0,0,-1,1189,953,0,0
-28,71,0,0,0,0,0,0,0,0,0,-1,1196,953,0,0
-21,71,0,0,0,0,0,0,0,0,0,-1,1203,953,0,0
-14,71,0,0,0,0,0,0,0,0,0,-1,1210,953,0,0
-7,71,0,0,0,0,0,0,0,0,0,-1,1217,953,0,0
0,71,0,0,0,0,0,0,0,0,0,-1,1224,953,0,0
7,71,0,0,0,0,0,0,0,0,0,-1,1231,953,0,0
14,71,0,0,0,0,0,0,0,0,0,-1,1238,953,0,0
21,71,0,0,0,0,0,0,0,0,0,-1,1245,953,0,0
28,71,0,0,0,0,0,0,0,0,0,-1,1252,953,0,0
35,71,0,0,0,0,0,0,0,0,0,-1,1259,953,0,0
42,71,0,0,0,0,0,0,0,0,0,-1,1266,953,0,0
49,71,0,0,0,0,0,0,0,0,0,-1,1273,953,0,0
56,71,0,0,0,0,0,0,0,0,0,-1,1280,953,0,0
63,71,0,0,0,0,0,0,0,0,0,-1,1287,953,0,0
70,71,0,0,0,0,0,0,0,0,0,-1,1294,953,0,0
77,71,0,0,0,0,0,0,0,0,0,-1,1301,953,0,0
84,71,0,0,0,0,0,0,0,0,0,-1,1308,953,0,0
91,71,0,0,0,0,0,0,0,0,0,-1,1315,953,0,0
98,71,0,0,0,0,0,0,0,0,0,-1,1322,953,0,0
105,71,0,0,0,0,0,0,0,0,0,-1,1329,953,0,0
112,71,0,0,0,0,0,0,0,0,0,-1,1336,953,0,0
119,71,0,0,0,0,0,0,0,0,0,-1,1343,953,0,0
126,71,0,0,0,0,0,0,0,0,0,-1,1350,953,0,0
133,71,0,0,0,0,0,0,0,0,0,-1,1357,953,0,0
140,71,0,0,0,0,0,0,0,0,0,-1,1364,953,0,0
147,71,0,0,0,0,0,0,0,0,0,-1,1371,953,0,0
154,71,0,0,0,0,0,0,0,0,0,-1,1378,953,0,0
161,71,0,0,0,0,0,0,0,0,0,-1,1385,953,0,0
168,71,0,0,0,0,0,0,0,0,0,-1,1392,953,0,0
175,71,0,0,0,0,0,0,0,0,0,-1,1399,953,0,0
182,71,0,0,0,0,0,0,0,0,0,-1,1406,953,0,0
189,71,0,0,0,0,0,0,0,0,0,-1,1413,953,0,0
196,71,0,0,0,0,0,0,0,0,0,-1,1420,953,0,0
203,71,0,0,0,0,0,0,0,0,0,-1,1427,953,0,0
210,71,0,0,0,0,0,0,0,0,0,-1,1434,953,0,0
217,71,0,0,0,0,0,0,0,0,0,-1,1441,953,0,0
224,71,0,0,0,0,0,0,0,0,0,-1,1448,953,0,0
231,71,0,0,0,0,0,0,0,0,0,-1,1455,953,0,0
238,71,0,0,0,0,0,0,0,0,0,-1,1462,953,0,0
245,71,0,0,0,0,0,0,0,0,0,-1,1469,953,0,0
252,71,0,0,0,0,0,0,0,0,0,-1,1476,953,0,0
259,71,0,0,0,0,0,0,0,0,0,-1,1483,953,0,0
266,71,0,0,0,0,0,0,0,0,0,-1,1490,953,0,0
273,71,0,0,0,0,0,0,0,0,0,-1,1497,953,0,0
280,71,0,0,0,0,0,0,0,0,0,-1,1504,953,0,0
287,71,0,0,0,0,0,0,0,0,0,-1,1511,953,0,0
294,71,0,0,0,0,0,0,0,0,0,-1,1518,953,0,0
301,71,0,0,0,0,0,0,0,0,0,-1,1525,953,0,0
308,71,0,0,0,0,0,0,0,0,0,-1,1532,953,0,0
315,71,0,0,0,0,0,0,0,0,0,-1,1539,953,0,0
322,71,0,0,0,0,0,0,0,0,0,-1,1546,953,0,0
329,71,0,0,0,0,0,0,0,0,0,-1,1553,953,0,0
336,71,0,0,0,0,0,0,0,0,0,-1,1560,953,0,0
343,71,0,0,0,0,0,0,0,0,0,-1,1567,953,0,0
350,71,0,0,0,0,0,0,0,0,0,-1,1574,953,0,0
357,71,0,0,0,0,0,0,0,0,0,-1,1581,953,0,0
364,71,0,0,0,0,0,0,0,0,0,-1,1588,953,0,0
371,71,0,0,0,0,0,0,0,0,0,-1,1595,953,0,0
378,71,0,0,0,0,0,0,0,0,0,-1,1602,953,0,0
385,71,0,0,0,0,0,0,0,0,0,-1,1609,953,0,0
392,71,0,0,0,0,0,0,0,0,0,-1,1616,953,0,0
399,71,0,0,0,0,0,0,0,0,0,-1,1623,953,0,0
406,71,0,0,0,0,0,0,0,0,0,-1,1630,953,0,0
413,71,0,0,0,0,0,0,0,0,0,-1,1637,953,0,0
420,71,0,0,0,0,0,0,0,0,0,-1,1644,953,0,0
427,71,0,0,0,0,0,0,0,0,0,-1,1651,953,0,0
434,71,0,0,0,0,0,0,0,0,0,-1,1658,953,0,0
441,71,0,0,0,0,0,0,0,0,0,-1,1665,953,0,0
448,71,0,0,0,0,0,0,0,0,0,-1,1672,953,0,0
455,71,0,0,0,0,0,0,0,0,0,-1,1679,953,0,0
462,71,0,0,0,0,0,0,0,0,0,-1,1686,953,0,0
469,71,0,0,0,0,0,0,0,0,0,-1,1693,953,0,0
476,71,0,0,0,0,0,0,0,0,0,-1,1700,953,0,0
483,71,0,0,0,0,0,0,0,0,0,-1,1707,953,0,0
490,71,0,0,0,0,0,0,0,0,0,-1,1714,953,0,0
497,71,0,0,0,0,0,0,0,0,0,-1,1721,953,0,0
504,71,0,0,0,0,0,0,0,0,0,-1,1728,953,0,0
511,71,0,0,0,0,0,0,0,0,0,-1,1735,953,0,0
518,71,0,0,0,0,0,0,0,0,0,-1,1742,953,0,0
525,71,0,0,0,0,0,0,0,0,0,-1,1749,953,0,0
532,71,0,0,0,0,0,0,0,0,0,-1,1756,953,0,0
539,71,0,0,0,0,0,0,0,0,0,-1,1763,953,0,0
546,71,0,0,0,0,0,0,0,0,0,-1,1770,953,0,0
553,71,0,0,0,0,0,0,0,0,0,-1,1777,953,0,0
560,71,0,0,0,0,0,0,0,0,0,-1,1784,953,0,0
567,71,0,0,0,0,0,0,0,0,0,-1,1791,953,0,0
574,71,0,0,0,0,0,0,0,0,0,-1,1798,953,0,0
581,71,0,0,0,0,0,0,0,0,0,-1,1805,953,0,0
588,71,0,0,0,0,0,0,0,0,0,-1,1812,953,0,0
595,71,0,0,0,0,0,0,0,0,0,-1,1819,953,0,0
602,71,0,0,0,0,0,0,0,0,0,-1,1826,953,0,0
609,71,0,0,0,0,0,0,0,0,0,-1,1833,953,0,0
616,71,0,0,0,0,0,0,0,0,0,-1,1840,953,0,0
623,71,0,0,0,0,0,0,0,0,0,-1,1847,953,0,0
630,71,0,0,0,0,0,0,0,0,0,-1,1854,953,0,0
637,71,46.6379,2.95447,0.00446497,0.00514256,-0.00511205,0.00992704,-0.000319501,-0.818486,0.00672705,0.0417808,1861,953,46.638,-2.95445
644,71,46.6007,2.74542,0.00305455,0.00284652,-0.00349357,0.00644566,-0.000544582,-0.770516,0.00448965,0.040343,1868,953,46.6007,-2.74545
651,71,46.592,2.72284,0.00196622,0.00139561,-0.00221966,0.00391883,-0.000557008,-0.721481,0.00281664,0.0414586,1875,953,46.592,-2.72287
658,71,46.4994,2.69794,0.000935909,0.000700081,-0.00101352,0.00183835,-0.000202362,-0.727488,0.00129829,0.0399398,1882,953,46.4994,-2.69794
665,71,46.3459,2.73029,2.325e-05,0.000512009,0.000246653,0.000614845,-7.95865e-05,1.17578,0.000438838,0.0402526,1889,953,46.3459,-2.73027
672,71,46.342,2.75067,-0.000752587,0.000501372,0.00139318,0.00140215,-0.00165337,0.996839,0.00176609,0.0414746,1896,953,46.3421,-2.75066
679,71,46.462,2.84045,-0.00121277,0.000506246,0.00223996,0.00204594,-0.00275246,0.968593,0.00278035,0.0409426,1903,953,46.462,-2.84046
686,71,46.5078,2.79706,-0.00133414,0.000450181,0.00265079,0.00235492,-0.00323887,0.947726,0.00324299,0.0395174,1910,953,46.5078,-2.79706
693,71,46.5327,2.71191,-0.00144148,0.000228586,0.00283197,0.00234607,-0.00355896,0.928765,0.00343316,0.035769,1917,953,46.5327,-2.71188
700,71,46.4872,2.76306,-0.00170198,0.000385503,0.00277403,0.00230565,-0.00362213,0.965333,0.00345043,0.037449,1924,953,46.4872,-2.76304
707,71,46.4882,2.97711,0,0,0,0,0,0,0,-1,1931,953,46.4882,-2.97713
714,71,44.7057,4.42841,0,0,0,0,0,0,0,-1,1938,953,44.7057,-4.42838
721,71,44.4839,4.74005,-0.00243723,0.0016458,0.00173097,0.00228086,-0.00307229,1.21916,0.00310188,0.0391008,1945,953,44.4839,-4.74002
728,71,44.3304,5.16016,-0.00246954,0.00239327,0.00163311,0.00289082,-0.00296709,1.27507,0.00338217,0.0261936,1952,953,44.3304,-5.16013
735,71,44.37,5.50256,-0.00233088,0.0029242,0.00153137,0.00333789,-0.00274457,1.30695,0.00351727,0.0195188,1959,953,44.37,-5.50255
742,71,44.3936,5.78363,-0.0022893,0.00475656,0.00130664,0.00499107,-0.00252381,1.39321,0.00441598,0.0189476,1966,953,44.3936,-5.78361
749,71,44.3663,6.09808,-0.00220586,0.00750398,0.00146439,0.00772002,-0.00242191,1.42432,0.00611597,0.0178209,1973,953,44.3663,-6.09806
756,71,44.3157,6.37354,-0.00187032,0.0110735,0.00206701,0.0113956,-0.00219239,1.41623,0.0084235,0.0172375,1980,953,44.3157,-6.37353
763,71,44.2545,6.67413,-0.00122132,0.0161262,0.00337473,0.0167596,-0.0018547,1.38527,0.0118398,0.0201788,1987,953,44.2546,-6.67414
770,71,44.0587,6.88196,-0.000210453,0.0225172,0.00526635,0.0236782,-0.00137144,1.35381,0.0162619,0.0254118,1994,953,44.0587,-6.88196
777,71,43.8186,7.16284,0.00117166,0.0301686,0.00747043,0.03198,-0.000639772,1.33291,0.0215364,0.0477743,2001,953,43.8186,-7.16285
784,71,43.5637,7.37201,0.00314349,0.039832,0.0101086,0.0424328,0.00054267,1.31897,0.0281094,0.0476774,2008,953,43.5637,-7.37199
791,71,43.2256,7.33563,0,0,0,0,0,0,0,-1,2015,953,43.2257,-7.33564
798,71,45.0645,6.52448,0,0,0,0,0,0,0,-1,2022,953,45.0644,-6.52449
805,71,45.0161,6.63287,0,0,0,0,0,0,0,-1,2029,953,45.0161,-6.63289
812,71,0,0,0,0,0,0,0,0,0,-1,2036,953,0,0
-700,64,0,0,0,0,0,0,0,0,0,-1,524,960,0,0
-693,64,0,0,0,0,0,0,0,0,0,-1,531,960,0,0
-686,64,-32.9061,2.09534,0,0,0,0,0,0,0,-1,538,960,-32.9061,-2.09536
-679,64,-32.814,2.79431,0,0,0,0,0,0,0,-1,545,960,-32.814,-2.79433
-672,64,-32.5446,5.71021,0,0,0,0,0,0,0,-1,552,960,-32.5446,-5.7102
-665,64,-32.7839,5.21436,0,0,0,0,0,0,0,-1,559,960,-32.7839,-5.21436
-658,64,-33.0695,4.92816,-0.0256784,-0.0113319,0.00925053,-0.00679923,-0.030211,1.11519,0.0183002,0.0483234,566,960,-33.0695,-4.92815
-651,64,-33.2589,4.65735,-0.0223955,-0.0040821,0.00839688,-0.000814922,-0.0256626,1.19973,0.0168434,0.0424008,573,960,-33.2589,-4.65733
-644,64,-33.338,4.37268,-0.0185639,0.000951902,0.00737881,0.0034277,-0.0210397,1.24707,0.0152976,0.0308136,580,960,-33.3379,-4.37269
-637,64,-33.4876,4.02875,-0.014724,0.00382962,0.00621525,0.00571922,-0.0166136,1.27565,0.0133955,0.0164395,587,960,-33.4876,-4.02872
-630,64,-33.5469,3.82599,-0.0117234,0.00520199,0.00458837,0.00636584,-0.0128873,1.32238,0.0113264,0.0143403,594,960,-33.5469,-3.82596
-623,64,-33.5699,3.58093,-0.00993043,0.00612364,0.00271089,0.00656904,-0.0103758,1.40795,0.00986508,0.0147701,601,960,-33.57,-3.58093
-616,64,-33.5819,3.27374,-0.00851482,0.0059972,0.00101395,0.0060677,-0.00858532,1.50138,0.00850145,0.0179641,608,960,-33.5819,-3.27375
-609,64,-33.534,3.04401,-0.00813046,0.00539329,-0.000585478,0.00541858,-0.00815576,-1.52761,0.00789008,0.0172059,615,960,-33.534,-3.04403
-602,64,-33.5043,2.80334,-0.00827879,0.00433296,-0.00220861,0.00470855,-0.00865439,-1.40235,0.00782641,0.0167164,622,960,-33.5043,-2.80336
-595,64,-33.5223,2.5448,-0.00831389,0.00314515,-0.00337359,0.00406458,-0.00923332,-1.30472,0.00786849,0.0196262,629,960,-33.5223,-2.54482
-588,64,-33.5109,2.34296,-0.00815526,0.00230582,-0.0040965,0.00371907,-0.0095685,-1.23859,0.00791549,0.0313255,636,960,-33.5109,-2.34298
-581,64,-33.8014,1.77307,-0.00809982,0.0018693,-0.00460943,0.0036739,-0.00990442,-1.19764,0.00810988,0.0436419,643,960,-33.8014,-1.77306
-574,64,-34.3619,1.21271,-0.00793805,0.00159436,-0.00492211,0.00367972,-0.0100234,-1.17005,0.00818921,0.0469226,650,960,-34.3619,-1.21272
-567,64,-34.428,1.01123,-0.00747854,0.00174443,-0.00494454,0.00389417,-0.00962829,-1.16068,0.00803777,0.0293096,657,960,-34.428,-1.01124
-560,64,-34.4411,1.23688,-0.00649598,0.00192457,-0.00468776,0.00401521,-0.00858662,-1.15129,0.00743353,0.0351784,664,960,-34.4411,-1.23685
-553,64,-34.4427,1.22443,-0.00482577,0.00208786,-0.0040892,0.00398559,-0.00672349,-1.13629,0.00624988,0.0348111,671,960,-34.4427,-1.2244
-546,64,-34.2986,1.11304,-0.00243386,0.00213252,-0.00313851,0.00373046,-0.0040318,-1.09986,0.00448267,0.037546,678,960,-34.2986,-1.11303
-539,64,-34.3858,1.10999,0.000587898,0.00188792,-0.0018741,0.00322153,-0.000745716,-0.952326,0.00243463,0.0409948,685,960,-34.3858,-1.11
-532,64,-34.5031,0.894836,0.0038501,0.00135512,-0.000727103,0.00404654,0.00115868,-0.263857,0.00240632,0.0417276,692,960,-34.5031,-0.894858
-525,64,-34.4633,0.805481,0.00536837,0.000801868,-0.000375862,0.0053991,0.000771139,-0.0815768,0.00337188,0.0410351,699,960,-34.4633,-0.805456
-518,64,0,0,0,0,0,0,0,0,0,-1,706,960,0,0
-511,64,0,0,0,0,0,0,0,0,0,-1,713,960,0,0
-504,64,0,0,0,0,0,0,0,0,0,-1,720,960,0,0
-497,64,0,0,0,0,0,0,0,0,0,-1,727,960,0,0
-490,64,0,0,0,0,0,0,0,0,0,-1,734,960,0,0
-483,64,0,0,0,0,0,0,0,0,0,-1,741,960,0,0
-476,64,0,0,0,0,0,0,0,0,0,-1,748,960,0,0
-469,64,0,0,0,0,0,0,0,0,0,-1,755,960,0,0
-462,64,0,0,0,0,0,0,0,0,0,-1,762,960,0,0
-455,64,0,0,0,0,0,0,0,0,0,-1,769,960,0,0
-448,64,0,0,0,0,0,0,0,0,0,-1,776,960,0,0
-441,64,0,0,0,0,0,0,0,0,0,-1,783,960,0,0
-434,64,0,0,0,0,0,0,0,0,0,-1,790,960,0,0
-427,64,0,0,0,0,0,0,0,0,0,-1,797,960,0,0
-420,64,0,0,0,0,0,0,0,0,0,-1,804,960,0,0
-413,64,0,0,0,0,0,0,0,0,0,-1,811,960,0,0
-406,64,0,0,0,0,0,0,0,0,0,-1,818,960,0,0
-399,64,0,0,0,0,0,0,0,0,0,-1,825,960,0,0
-392,64,0,0,0,0,0,0,0,0,0,-1,832,960,0,0
-385,64,0,0,0,0,0,0,0,0,0,-1,839,960,0,0
-378,64,0,0,0,0,0,0,0,0,0,-1,846,960,0,0
-371,64,0,0,0,0,0,0,0,0,0,-1,853,960,0,0
-364,64,0,0,0,0,0,0,0,0,0,-1,860,960,0,0
-357,64,0,0,0,0,0,0,0,0,0,-1,867,960,0,0
-350,64,0,0,0,0,0,0,0,0,0,-1,874,960,0,0
-343,64,0,0,0,0,0,0,0,0,0,-1,881,960,0,0
-336,64,0,0,0,0,0,0,0,0,0,-1,888,960,0,0
-329,64,0,0,0,0,0,0,0,0,0,-1,895,960,0,0
-322,64,0,0,0,0,0,0,0,0,0,-1,902,960,0,0
-315,64,0,0,0,0,0,0,0,0,0,-1,909,960,0,0
-308,64,0,0,0,0,0,0,0,0,0,-1,916,960,0,0
-301,64,0,0,0,0,0,0,0,0,0,-1,923,960,0,0
-294,64,0,0,0,0,0,0,0,0,0,-1,930,960,0,0
-287,64,0,0,0,0,0,0,0,0,0,-1,937,960,0,0
-280,64,0,0,0,0,0,0,0,0,0,-1,944,960,0,0
-273,64,0,0,0,0,0,0,0,0,0,-1,951,960,0,0
-266,64,0,0,0,0,0,0,0,0,0,-1,958,960,0,0
-259,64,0,0,0,0,0,0,0,0,0,-1,965,960,0,0
-252,64,0,0,0,0,0,0,0,0,0,-1,972,960,0,0
-245,64,0,0,0,0,0,0,0,0,0,-1,979,960,0,0
-238,64,0,0,0,0,0,0,0,0,0,-1,986,960,0,0
-231,64,0,0,0,0,0,0,0,0,0,-1,993,960,0,0
-224,64,0,0,0,0,0,0,0,0,0,-1,1000,960,0,0
-217,64,0,0,0,0,0,0,0,0,0,-1,1007,960,0,0
-210,64,0,0,0,0,0,0,0,0,0,-1,1014,960,0,0
-203,64,0,0,0,0,0,0,0,0,0,-1,1021,960,0,0
-196,64,0,0,0,0,0,0,0,0,0,-1,1028,960,0,0
-189,64,0,0,0,0,0,0,0,0,0,-1,1035,960,0,0
-182,64,0,0,0,0,0,0,0,0,0,-1,1042,960,0,0
-175,64,0,0,0,0,0,0,0,0,0,-1,1049,960,0,0
-168,64,0,0,0,0,0,0,0,0,0,-1,1056,960,0,0
-161,64,0,0,0,0,0,0,0,0,0,-1,1063,960,0,0
-154,64,0,0,0,0,0,0,0,0,0,-1,1070,960,0,0
-147,64,0,0,0,0,0,0,0,0,0,-1,1077,960,0,0
-140,64,0,0,0,0,0,0,0,0,0,-1,1084,960,0,0
-133,64,0,0,0,0,0,0,0,0,0,-1,1091,960,0,0
-126,64,0,0,0,0,0,0,0,0,0,-1,1098,960,0,0
-119,64,0,0,0,0,0,0,0,0,0,-1,1105,960,0,0
-112,64,0,0,0,0,0,0,0,0,0,-1,1112,960,0,0
-105,64,0,0,0,0,0,0,0,0,0,-1,1119,960,0,0
-98,64,0,0,0,0,0,0,0,0,0,-1,1126,960,0,0
-91,64,0,0,0,0,0,0,0,0,0,-1,1133,960,0,0
-84,64,0,0,0,0,0,0,0,0,0,-1,1140,960,0,0
-77,64,0,0,0,0,0,0,0,0,0,-1,1147,960,0,0
-70,64,0,0,0,0,0,0,0,0,0,-1,1154,960,0,0
-63,64,0,0,0,0,0,0,0,0,0,-1,1161,960,0,0
-56,64,0,0,0,0,0,0,0,0,0,-1,1168,960,0,0
-49,64,0,0,0,0,0,0,0,0,0,-1,1175,960,0,0
-42,64,0,0,0,0,0,0,0,0,0,-1,1182,960,0,0
-35,64,0,0,0,0,0,0,0,0,0,-1,1189,960,0,0
-28,64,0,0,0,0,0,0,0,0,0,-1,1196,960,0,0
-21,64,0,0,0,0,0,0,0,0,0,-1,1203,960,0,0
-14,64,0,0,0,0,0,0,0,0,0,-1,1210,960,0,0
-7,64,0,0,0,0,0,0,0,0,0,-1,1217,960,0,0
0,64,0,0,0,0,0,0,0,0,0,-1,1224,960,0,0
7,64,0,0,0,0,0,0,0,0,0,-1,1231,960,0,0
14,64,0,0,0,0,0,0,0,0,0,-1,1238,960,0,0
21,64,0,0,0,0,0,0,0,0,0,-1,1245,960,0,0
28,64,0,0,0,0,0,0,0,0,0,-1,1252,960,0,0
35,64,0,0,0,0,0,0,0,0,0,-1,1259,960,0,0
42,64,0,0,0,0,0,0,0,0,0,-1,1266,960,0,0
49,64,0,0,0,0,0,0,0,0,0,-1,1273,960,0,0
56,64,0,0,0,0,0,0,0,0,0,-1,1280,960,0,0
63,64,0,0,0,0,0,0,0,0,0,-1,1287,960,0,0
70,64,0,0,0,0,0,0,0,0,0,-1,1294,960,0,0
77,64,0,0,0,0,0,0,0,0,0,-1,1301,960,0,0
84,64,0,0,0,0,0,0,0,0,0,-1,1308,960,0,0
91,64,0,0,0,0,0,0,0,0,0,-1,1315,960,0,0
98,64,0,0,0,0,0,0,0,0,0,-1,1322,960,0,0
105,64,0,0,0,0,0,0,0,0,0,-1,1329,960,0,0
112,64,0,0,0,0,0,0,0,0,0,-1,1336,960,0,0
119,64,0,0,0,0,0,0,0,0,0,-1,1343,960,0,0
126,64,0,0,0,0,0,0,0,0,0,-1,1350,960,0,0
133,64,0,0,0,0,0,0,0,0,0,-1,1357,960,0,0
140,64,0,0,0,0,0,0,0,0,0,-1,1364,960,0,0
147,64,0,0,0,0,0,0,0,0,0,-1,1371,960,0,0
154,64,0,0,0,0,0,0,0,0,0,-1,1378,960,0,0
161,64,0,0,0,0,0,0,0,0,0,-1,1385,960,0,0
168,64,0,0,0,0,0,0,0,0,0,-1,1392,960,0,0
175,64,0,0,0,0,0,0,0,0,0,-1,1399,960,0,0
182,64,0,0,0,0,0,0,0,0,0,-1,1406,960,0,0
189,64,0,0,0,0,0,0,0,0,0,-1,1413,960,0,0
196,64,0,0,0,0,0,0,0,0,0,-1,1420,960,0,0
203,64,0,0,0,0,0,0,0,0,0,-1,1427,960,0,0
210,64,0,0,0,0,0,0,0,0,0,-1,1434,960,0,0
217,64,0,0,0,0,0,0,0,0,0,-1,1441,960,0,0
224,64,0,0,0,0,0,0,0,0,0,-1,1448,960,0,0
231,64,0,0,0,0,0,0,0,0,0,-1,1455,960,0,0
238,64,0,0,0,0,0,0,0,0,0,-1,1462,960,0,0
245,64,0,0,0,0,0,0,0,0,0,-1,1469,960,0,0
252,64,0,0,0,0,0,0,0,0,0,-1,1476,960,0,0
259,64,0,0,0,0,0,0,0,0,0,-1,1483,960,0,0
266,64,0,0,0,0,0,0,0,0,0,-1,1490,960,0,0
273,64,0,0,0,0,0,0,0,0,0,-1,1497,960,0,0
280,64,0,0,0,0,0,0,0,0,0,-1,1504,960,0,0
287,64,0,0,0,0,0,0,0,0,0,-1,1511,960,0,0
294,64,0,0,0,0,0,0,0,0,0,-1,1518,960,0,0
301,64,0,0,0,0,0,0,0,0,0,-1,1525,960,0,0
308,64,0,0,0,0,0,0,0,0,0,-1,1532,960,0,0
315,64,0,0,0,0,0,0,0,0,0,-1,1539,960,0,0
322,64,0,0,0,0,0,0,0,0,0,-1,1546,960,0,0
329,64,0,0,0,0,0,0,0,0,0,-1,1553,960,0,0
336,64,0,0,0,0,0,0,0,0,0,-1,1560,960,0,0
343,64,0,0,0,0,0,0,0,0,0,-1,1567,960,0,0
350,64,0,0,0,0,0,0,0,0,0,-1,1574,960,0,0
357,64,0,0,0,0,0,0,0,0,0,-1,1581,960,0,0
364,64,0,0,0,0,0,0,0,0,0,-1,1588,960,0,0
371,64,0,0,0,0,0,0,0,0,0,-1,1595,960,0,0
378,64,0,0,0,0,0,0,0,0,0,-1,1602,960,0,0
385,64,0,0,0,0,0,0,0,0,0,-1,1609,960,0,0
392,64,0,0,0,0,0,0,0,0,0,-1,1616,960,0,0
399,64,0,0,0,0,0,0,0,0,0,-1,1623,960,0,0
406,64,0,0,0,0,0,0,0,0,0,-1,1630,960,0,0
413,64,0,0,0,0,0,0,0,0,0,-1,1637,960,0,0
420,64,0,0,0,0,0,0,0,0,0,-1,1644,960,0,0
427,64,0,0,0,0,0,0,0,0,0,-1,1651,960,0,0
434,64,0,0,0,0,0,0,0,0,0,-1,1658,960,0,0
441,64,0,0,0,0,0,0,0,0,0,-1,1665,960,0,0
448,64,0,0,0,0,0,0,0,0,0,-1,1672,960,0,0
455,64,0,0,0,0,0,0,0,0,0,-1,1679,960,0,0
462,64,0,0,0,0,0,0,0,0,0,-1,1686,960,0,0
469,64,0,0,0,0,0,0,0,0,0,-1,1693,960,0,0
476,64,0,0,0,0,0,0,0,0,0,-1,1700,960,0,0
483,64,0,0,0,0,0,0,0,0,0,-1,1707,960,0,0
490,64,0,0,0,0,0,0,0,0,0,-1,1714,960,0,0
497,64,0,0,0,0,0,0,0,0,0,-1,1721,960,0,0
504,64,0,0,0,0,0,0,0,0,0,-1,1728,960,0,0
511,64,0,0,0,0,0,0,0,0,0,-1,1735,960,0,0
518,64,0,0,0,0,0,0,0,0,0,-1,1742,960,0,0
525,64,0,0,0,0,0,0,0,0,0,-1,1749,960,0,0
532,64,0,0,0,0,0,0,0,0,0,-1,1756,960,0,0
539,64,0,0,0,0,0,0,0,0,0,-1,1763,960,0,0
546,64,0,0,0,0,0,0,0,0,0,-1,1770,960,0,0
553,64,0,0,0,0,0,0,0,0,0,-1,1777,960,0,0
560,64,0,0,0,0,0,0,0,0,0,-1,1784,960,0,0
567,64,0,0,0,0,0,0,0,0,0,-1,1791,960,0,0
574,64,0,0,0,0,0,0,0,0,0,-1,1798,960,0,0
581,64,0,0,0,0,0,0,0,0,0,-1,1805,960,0,0
588,64,0,0,0,0,0,0,0,0,0,-1,1812,960,0,0
595,64,0,0,0,0,0,0,0,0,0,-1,1819,960,0,0
602,64,0,0,0,0,0,0,0,0,0,-1,1826,960,0,0
609,64,0,0,0,0,0,0,0,0,0,-1,1833,960,0,0
616,64,0,0,0,0,0,0,0,0,0,-1,1840,960,0,0
623,64,0,0,0,0,0,0,0,0,0,-1,1847,960,0,0
630,64,0,0,0,0,0,0,0,0,0,-1,1854,960,0,0
637,64,0,0,0,0,0,0,0,0,0,-1,1861,960,0,0
644,64,46.5718,2.73279,0.00417848,0.00271876,-0.00270519,0.00625054,0.0006467,-0.653636,0.00396906,0.0407613,1868,960,46.5717,-2.7328
651,64,46.6069,2.62,0.00281714,0.00127681,-0.00176187,0.00396982,0.000124134,-0.579348,0.00260615,0.0412683,1875,960,46.607,-2.62
658,64,46.5559,2.72992,0.00161144,0.000564475,-0.0008212,0.00206182,0.000114097,-0.501644,0.00133813,0.040055,1882,960,46.5559,-2.72995
665,64,46.4233,2.81708,0.000502551,0.000427667,0.00027027,0.00073796,0.000192258,0.716569,0.00044205,0.0419841,1889,960,46.4233,-2.81708
672,64,46.4647,2.84918,-0.000471702,0.000512402,0.00135227,0.00145936,-0.00141866,0.959888,0.00166168,0.0435459,1896,960,46.4647,-2.84919
679,64,46.5828,2.90796,-0.00109112,0.00062727,0.00223074,0.00215857,-0.00262241,0.969222,0.00276463,0.0410228,1903,960,46.5828,-2.90795
686,64,46.5228,2.78027,-0.00134605,0.000658798,0.00272144,0.00255656,-0.00324381,0.961859,0.00335667,0.0362312,1910,960,46.5228,-2.78029
693,64,46.5187,2.71686,-0.00152514,0.000482859,0.00296718,0.0026113,-0.00365358,0.948536,0.00363367,0.0333248,1917,960,46.5187,-2.71688
700,64,46.5164,2.79175,-0.00180907,0.000647566,0.00294004,0.00260556,-0.00376706,0.983272,0.00369955,0.0335248,1924,960,46.5164,-2.79173
707,64,46.3712,3.27667,-0.00204321,0.000944606,0.00265004,0.00249281,-0.00359142,1.04206,0.00353177,0.0465784,1931,960,46.3713,-3.2767
714,64,46.1738,4.13196,0,0,0,0,0,0,0,-1,1938,960,46.1738,-4.13199
721,64,44.7482,4.80652,0,0,0,0,0,0,0,-1,1945,960,44.7482,-4.80654
728,64,44.6481,5.18439,-0.00270116,0.00277404,0.00192972,0.00338581,-0.00331293,1.26379,0.0038676,0.0200847,1952,960,44.6481,-5.18436
735,64,44.6389,5.52057,-0.00252419,0.00335195,0.00191559,0.00392126,-0.0030935,1.28191,0.00405936,0.0274013,1959,960,44.6389,-5.52056
742,64,44.7133,5.77063,-0.00243359,0.0051938,0.00173803,0.00557117,-0.00281096,1.35699,0.00492611,0.0233465,1966,960,44.7132,-5.77061
749,64,44.6947,6.06079,-0.0022726,0.00780269,0.00190469,0.00815074,-0.00262065,1.39006,0.00648631,0.0147416,1973,960,44.6947,-6.06077
756,64,44.6506,6.33832,-0.00182325,0.0111727,0.00248208,0.0116306,-0.00228116,1.38836,0.00861537,0.0149804,1980,960,44.6506,-6.33833
763,64,44.6268,6.61499,-0.000931237,0.0159292,0.00382277,0.0167555,-0.00175748,1.35793,0.0117998,0.0171862,1987,960,44.6269,-6.61499
770,64,44.4316,6.849,0.000406192,0.0220233,0.00586105,0.0235102,-0.00108065,1.32236,0.0160458,0.0191303,1994,960,44.4316,-6.84901
777,64,44.1696,7.26953,0.00222756,0.029157,0.00826094,0.0314891,-0.000104621,1.29564,0.0210277,0.0361754,2001,960,44.1695,-7.26951
784,64,43.8086,8.28894,0.00479936,0.0378481,0.0111348,0.0412496,0.00139791,1.27432,0.0270458,0.042998,2008,960,43.8087,-8.28895
791,64,43.6431,9.26758,0,0,0,0,0,0,0,-1,2015,960,43.643,-9.26758
798,64,44.741,6.03583,0,0,0,0,0,0,0,-1,2022,960,44.7409,-6.0358
805,64,45.2212,5.37988,0,0,0,0,0,0,0,-1,2029,960,45.2211,-5.37991
812,64,0,0,0,0,0,0,0,0,0,-1,2036,960,0,0
-700,57,0,0,0,0,0,0,0,0,0,-1,524,967,0,0
-693,57,0,0,0,0,0,0,0,0,0,-1,531,967,0,0
-686,57,-34.639,1.08398,0,0,0,0,0,0,0,-1,538,967,-34.639,-1.08396
-679,57,-34.2581,1.68073,0,0,0,0,0,0,0,-1,545,967,-34.2581,-1.68072
-672,57,-33.716,2.20715,0,0,0,0,0,0,0,-1,552,967,-33.716,-2.20715
-665,57,-33.3383,2.66949,0,0,0,0,0,0,0,-1,559,967,-33.3383,-2.66948
-658,57,-33.7637,4.61859,0,0,0,0,0,0,0,-1,566,967,-33.7637,-4.61859
-651,57,-33.8534,4.36493,-0.0151421,0.00544245,0.00387134,0.00614646,-0.0158461,1.39091,0.0131026,0.0469088,573,967,-33.8534,-4.36491
-644,57,-33.7879,4.159,-0.0130612,0.00719456,0.00476021,0.00825746,-0.0141241,1.35111,0.0130691,0.0304253,580,967,-33.7879,-4.15903
-637,57,-33.779,3.87469,-0.0107219,0.00767036,0.00486167,0.00887637,-0.0119279,1.32764,0.0120544,0.0173033,587,967,-33.779,-3.87469
-630,57,-33.8422,3.72229,-0.00878503,0.00748772,0.00384502,0.0083505,-0.00964781,1.35006,0.0104003,0.0148583,594,967,-33.8422,-3.72228
-623,57,-33.8562,3.53424,-0.00768847,0.00737605,0.00216794,0.00768183,-0.00799425,1.43067,0.00905119,0.0137226,601,967,-33.8562,-3.53426
-616,57,-33.8461,3.28149,-0.00700911,0.00645094,0.000577295,0.00647565,-0.00703383,1.52801,0.00780192,0.0151122,608,967,-33.8461,-3.28148
-609,57,-33.839,3.03619,-0.0070006,0.00570049,-0.00113615,0.00580132,-0.00710143,-1.48228,0.007462,0.0151835,615,967,-33.839,-3.03619
-602,57,-33.8085,2.82654,-0.00712602,0.0046476,-0.00289917,0.00532278,-0.0078012,-1.34199,0.00762204,0.010884,622,967,-33.8085,-2.82651
-595,57,-33.8002,2.60767,-0.00714764,0.00347055,-0.00410052,0.00486971,-0.00854681,-1.24197,0.00784241,0.0135576,629,967,-33.8002,-2.60768
-588,57,-33.8124,2.43597,-0.00694881,0.00257475,-0.00486388,0.00461973,-0.00899378,-1.17279,0.00799385,0.0227547,636,967,-33.8125,-2.43598
-581,57,-34.0549,1.77954,-0.00683396,0.00207016,-0.00537803,0.00459979,-0.00936359,-1.13114,0.00821666,0.0367009,643,967,-34.0549,-1.77956
-574,57,-34.4162,1.09424,-0.00664812,0.00167294,-0.00560929,0.00449625,-0.00947144,-1.10449,0.00823301,0.0369244,650,967,-34.4162,-1.09422
-567,57,-34.4034,1.03113,-0.00619311,0.00168423,-0.00544161,0.00446301,-0.0089719,-1.09866,0.00790092,0.0342896,657,967,-34.4034,-1.03112
-560,57,-34.3943,1.08118,-0.00524848,0.00165292,-0.00486282,0.00416497,-0.00776053,-1.09397,0.00698873,0.0389811,664,967,-34.3943,-1.08116
-553,57,-34.4329,1.07367,-0.0036565,0.00153573,-0.00385928,0.00359083,-0.0057116,-1.08148,0.00541709,0.0380623,671,967,-34.4329,-1.07366
-546,57,-34.283,0.992737,-0.00141217,0.00117481,-0.00240726,0.00261409,-0.00285145,-1.03193,0.00315652,0.0382355,678,967,-34.2829,-0.992754
-539,57,-34.3331,1.1604,0.0013449,0.000378857,-0.000583174,0.00161911,0.000104645,-0.43953,0.00104627,0.0413387,685,967,-34.3331,-1.16038
-532,57,-34.4835,1.06219,0.00424016,-0.000794943,0.001016,0.00443744,-0.000992225,0.191788,0.00333855,0.0402909,692,967,-34.4835,-1.06218
-525,57,-34.4219,0.891602,0.00523474,-0.00209762,0.00173485,0.00562449,-0.00248737,0.22099,0.00479871,0.0409275,699,967,-34.4219,-0.891606
-518,57,0,0,0,0,0,0,0,0,0,-1,706,967,0,0
-511,57,0,0,0,0,0,0,0,0,0,-1,713,967,0,0
-504,57,0,0,0,0,0,0,0,0,0,-1,720,967,0,0
-497,57,0,0,0,0,0,0,0,0,0,-1,727,967,0,0
-490,57,0,0,0,0,0,0,0,0,0,-1,734,967,0,0
-483,57,0,0,0,0,0,0,0,0,0,-1,741,967,0,0
-476,57,0,0,0,0,0,0,0,0,0,-1,748,967,0,0
-469,57,0,0,0,0,0,0,0,0,0,-1,755,967,0,0
-462,57,0,0,0,0,0,0,0,0,0,-1,762,967,0,0
-455,57,0,0,0,0,0,0,0,0,0,-1,769,967,0,0
-448,57,0,0,0,0,0,0,0,0,0,-1,776,967,0,0
-441,57,0,0,0,0,0,0,0,0,0,-1,783,967,0,0
-434,57,0,0,0,0,0,0,0,0,0,-1,790,967,0,0
-427,57,0,0,0,0,0,0,0,0,0,-1,797,967,0,0
-420,57,0,0,0,0,0,0,0,0,0,-1,804,967,0,0
-413,57,0,0,0,0,0,0,0,0,0,-1,811,967,0,0
-406,57,0,0,0,0,0,0,0,0,0,-1,818,967,0,0
-399,57,0,0,0,0,0,0,0,0,0,-1,825,967,0,0
-392,57,0,0,0,0,0,0,0,0,0,-1,832,967,0,0
-385,57,0,0,0,0,0,0,0,0,0,-1,839,967,0,0
-378,57,0,0,0,0,0,0,0,0,0,-1,846,967,0,0
-371,57,0,0,0,0,0,0,0,0,0,-1,853,967,0,0
-364,57,0,0,0,0,0,0,0,0,0,-1,860,967,0,0
-357,57,0,0,0,0,0,0,0,0,0,-1,867,967,0,0
-350,57,0,0,0,0,0,0,0,0,0,-1,874,967,0,0
-343,57,0,0,0,0,0,0,0,0,0,-1,881,967,0,0
-336,57,0,0,0,0,0,0,0,0,0,-1,888,967,0,0
-329,57,0,0,0,0,0,0,0,0,0,-1,895,967,0,0
-322,57,0,0,0,0,0,0,0,0,0,-1,902,967,0,0
-315,57,0,0,0,0,0,0,0,0,0,-1,909,967,0,0
-308,57,0,0,0,0,0,0,0,0,0,-1,916,967,0,0
-301,57,0,0,0,0,0,0,0,0,0,-1,923,967,0,0
-294,57,0,0,0,0,0,0,0,0,0,-1,930,967,0,0
-287,57,0,0,0,0,0,0,0,0,0,-1,937,967,0,0
-280,57,0,0,0,0,0,0,0,0,0,-1,944,967,0,0
-273,57,0,0,0,0,0,0,0,0,0,-1,951,967,0,0
-266,57,0,0,0,0,0,0,0,0,0,-1,958,967,0,0
-259,57,0,0,0,0,0,0,0,0,0,-1,965,967,0,0
-252,57,0,0,0,0,0,0,0,0,0,-1,972,967,0,0
-245,57,0,0,0,0,0,0,0,0,0,-1,979,967,0,0
-238,57,0,0,0,0,0,0,0,0,0,-1,986,967,0,0
-231,57,0,0,0,0,0,0,0,0,0,-1,993,967,0,0
-224,57,0,0,0,0,0,0,0,0,0,-1,1000,967,0,0
-217,57,0,0,0,0,0,0,0,0,0,-1,1007,967,0,0
-210,57,0,0,0,0,0,0,0,0,0,-1,1014,967,0,0
-203,57,0,0,0,0,0,0,0,0,0,-1,1021,967,0,0
-196,57,0,0,0,0,0,0,0,0,0,-1,1028,967,0,0
-189,57,0,0,0,0,0,0,0,0,0,-1,1035,967,0,0
-182,57,0,0,0,0,0,0,0,0,0,-1,1042,967,0,0
-175,57,0,0,0,0,0,0,0,0,0,-1,1049,967,0,0
-168,57,0,0,0,0,0,0,0,0,0,-1,1056,967,0,0
-161,57,0,0,0,0,0,0,0,0,0,-1,1063,967,0,0
-154,57,0,0,0,0,0,0,0,0,0,-1,1070,967,0,0
-147,57,0,0,0,0,0,0,0,0,0,-1,1077,967,0,0
-140,57,0,0,0,0,0,0,0,0,0,-1,1084,967,0,0
-133,57,0,0,0,0,0,0,0,0,0,-1,1091,967,0,0
-126,57,0,0,0,0,0,0,0,0,0,-1,1098,967,0,0
-119,57,0,0,0,0,0,0,0,0,0,-1,1105,967,0,0
-112,57,0,0,0,0,0,0,0,0,0,-1,1112,967,0,0
-105,57,0,0,0,0,0,0,0,0,0,-1,1119,967,0,0
-98,57,0,0,0,0,0,0,0,0,0,-1,1126,967,0,0
-91,57,0,0,0,0,0,0,0,0,0,-1,1133,967,0,0
-84,57,0,0,0,0,0,0,0,0,0,-1,1140,967,0,0
-77,57,0,0,0,0,0,0,0,0,0,-1,1147,967,0,0
-70,57,0,0,0,0,0,0,0,0,0,-1,1154,967,0,0
-63,57,0,0,0,0,0,0,0,0,0,-1,1161,967,0,0
-56,57,0,0,0,0,0,0,0,0,0,-1,1168,967,0,0
-49,57,0,0,0,0,0,0,0,0,0,-1,1175,967,0,0
-42,57,0,0,0,0,0,0,0,0,0,-1,1182,967,0,0
-35,57,0,0,0,0,0,0,0,0,0,-1,1189,967,0,0
-28,57,0,0,0,0,0,0,0,0,0,-1,1196,967,0,0
-21,57,0,0,0,0,0,0,0,0,0,-1,1203,967,0,0
-14,57,0,0,0,0,0,0,0,0,0,-1,1210,967,0,0
-7,57,0,0,0,0,0,0,0,0,0,-1,1217,967,0,0
0,57,0,0,0,0,0,0,0,0,0,-1,1224,967,0,0
7,57,0,0,0,0,0,0,0,0,0,-1,1231,967,0,0
14,57,0,0,0,0,0,0,0,0,0,-1,1238,967,0,0
21,57,0,0,0,0,0,0,0,0,0,-1,1245,967,0,0
28,57,0,0,0,0,0,0,0,0,0,-1,1252,967,0,0
35,57,0,0,0,0,0,0,0,0,0,-1,1259,967,0,0
42,57,0,0,0,0,0,0,0,0,0,-1,1266,967,0,0
49,57,0,0,0,0,0,0,0,0,0,-1,1273,967,0,0
56,57,0,0,0,0,0,0,0,0,0,-1,1280,967,0,0
63,57,0,0,0,0,0,0,0,0,0,-1,1287,967,0,0
70,57,0,0,0,0,0,0,0,0,0,-1,1294,967,0,0
77,57,0,0,0,0,0,0,0,0,0,-1,1301,967,0,0
84,57,0,0,0,0,0,0,0,0,0,-1,1308,967,0,0
91,57,0,0,0,0,0,0,0,0,0,-1,1315,967,0,0
98,57,0,0,0,0,0,0,0,0,0,-1,1322,967,0,0
105,57,0,0,0,0,0,0,0,0,0,-1,1329,967,0,0
112,57,0,0,0,0,0,0,0,0,0,-1,1336,967,0,0
119,57,0,0,0,0,0,0,0,0,0,-1,1343,967,0,0
126,57,0,0,0,0,0,0,0,0,0,-1,1350,967,0,0
133,57,0,0,0,0,0,0,0,0,0,-1,1357,967,0,0
140,57,0,0,0,0,0,0,0,0,0,-1,1364,967,0,0
147,57,0,0,0,0,0,0,0,0,0,-1,1371,967,0,0
154,57,0,0,0,0,0,0,0,0,0,-1,1378,967,0,0
161,57,0,0,0,0,0,0,0,0,0,-1,1385,967,0,0
168,57,0,0,0,0,0,0,0,0,0,-1,1392,967,0,0
175,57,0,0,0,0,0,0,0,0,0,-1,1399,967,0,0
182,57,0,0,0,0,0,0,0,0,0,-1,1406,967,0,0
189,57,0,0,0,0,0,0,0,0,0,-1,1413,967,0,0
196,57,0,0,0,0,0,0,0,0,0,-1,1420,967,0,0
203,57,0,0,0,0,0,0,0,0,0,-1,1427,967,0,0
210,57,0,0,0,0,0,0,0,0,0,-1,1434,967,0,0
217,57,0,0,0,0,0,0,0,0,0,-1,1441,967,0,0
224,57,0,0,0,0,0,0,0,0,0,-1,1448,967,0,0
231,57,0,0,0,0,0,0,0,0,0,-1,1455,967,0,0
238,57,0,0,0,0,0,0,0,0,0,-1,1462,967,0,0
245,57,0,0,0,0,0,0,0,0,0,-1,1469,967,0,0
252,57,0,0,0,0,0,0,0,0,0,-1,1476,967,0,0
259,57,0,0,0,0,0,0,0,0,0,-1,1483,967,0,0
266,57,0,0,0,0,0,0,0,0,0,-1,1490,967,0,0
273,57,0,0,0,0,0,0,0,0,0,-1,1497,967,0,0
280,57,0,0,0,0,0,0,0,0,0,-1,1504,967,0,0
287,57,0,0,0,0,0,0,0,0,0,-1,1511,967,0,0
294,57,0,0,0,0,0,0,0,0,0,-1,1518,967,0,0
301,57,0,0,0,0,0,0,0,0,0,-1,1525,967,0,0
308,57,0,0,0,0,0,0,0,0,0,-1,1532,967,0,0
315,57,0,0,0,0,0,0,0,0,0,-1,1539,967,0,0
322,57,0,0,0,0,0,0,0,0,0,-1,1546,967,0,0
329,57,0,0,0,0,0,0,0,0,0,-1,1553,967,0,0
336,57,0,0,0,0,0,0,0,0,0,-1,1560,967,0,0
343,57,0,0,0,0,0,0,0,0,0,-1,1567,967,0,0
350,57,0,0,0,0,0,0,0,0,0,-1,1574,967,0,0
357,57,0,0,0,0,0,0,0,0,0,-1,1581,967,0,0
364,57,0,0,0,0,0,0,0,0,0,-1,1588,967,0,0
371,57,0,0,0,0,0,0,0,0,0,-1,1595,967,0,0
378,57,0,0,0,0,0,0,0,0,0,-1,1602,967,0,0
385,57,0,0,0,0,0,0,0,0,0,-1,1609,967,0,0
392,57,0,0,0,0,0,0,0,0,0,-1,1616,967,0,0
399,57,0,0,0,0,0,0,0,0,0,-1,1623,967,0,0
406,57,0,0,0,0,0,0,0,0,0,-1,1630,967,0,0
413,57,0,0,0,0,0,0,0,0,0,-1,1637,967,0,0
420,57,0,0,0,0,0,0,0,0,0,-1,1644,967,0,0
427,57,0,0,0,0,0,0,0,0,0,-1,1651,967,0,0
434,57,0,0,0,0,0,0,0,0,0,-1,1658,967,0,0
441,57,0,0,0,0,0,0,0,0,0,-1,1665,967,0,0
448,57,0,0,0,0,0,0,0,0,0,-1,1672,967,0,0
455,57,0,0,0,0,0,0,0,0,0,-1,1679,967,0,0
462,57,0,0,0,0,0,0,0,0,0,-1,1686,967,0,0
469,57,0,0,0,0,0,0,0,0,0,-1,1693,967,0,0
476,57,0,0,0,0,0,0,0,0,0,-1,1700,967,0,0
483,57,0,0,0,0,0,0,0,0,0,-1,1707,967,0,0
490,57,0,0,0,0,0,0,0,0,0,-1,1714,967,0,0
497,57,0,0,0,0,0,0,0,0,0,-1,1721,967,0,0
504,57,0,0,0,0,0,0,0,0,0,-1,1728,967,0,0
511,57,0,0,0,0,0,0,0,0,0,-1,1735,967,0,0
518,57,0,0,0,0,0,0,0,0,0,-1,1742,967,0,0
525,57,0,0,0,0,0,0,0,0,0,-1,1749,967,0,0
532,57,0,0,0,0,0,0,0,0,0,-1,1756,967,0,0
539,57,0,0,0,0,0,0,0,0,0,-1,1763,967,0,0
546,57,0,0,0,0,0,0,0,0,0,-1,1770,967,0,0
553,57,0,0,0,0,0,0,0,0,0,-1,1777,967,0,0
560,57,0,0,0,0,0,0,0,0,0,-1,1784,967,0,0
567,57,0,0,0,0,0,0,0,0,0,-1,1791,967,0,0
574,57,0,0,0,0,0,0,0,0,0,-1,1798,967,0,0
581,57,0,0,0,0,0,0,0,0,0,-1,1805,967,0,0
588,57,0,0,0,0,0,0,0,0,0,-1,1812,967,0,0
595,57,0,0,0,0,0,0,0,0,0,-1,1819,967,0,0
602,57,0,0,0,0,0,0,0,0,0,-1,1826,967,0,0
609,57,0,0,0,0,0,0,0,0,0,-1,1833,967,0,0
616,57,0,0,0,0,0,0,0,0,0,-1,1840,967,0,0
623,57,0,0,0,0,0,0,0,0,0,-1,1847,967,0,0
630,57,0,0,0,0,0,0,0,0,0,-1,1854,967,0,0
637,57,0,0,0,0,0,0,0,0,0,-1,1861,967,0,0
644,57,46.4891,2.89447,0.00546891,0.0035715,-0.00158045,0.00636354,0.00267688,-0.515087,0.00368938,0.0421674,1868,967,46.4891,-2.89448
651,57,46.5305,2.789,0.00382401,0.00180126,-0.00104252,0.00426512,0.00136014,-0.400279,0.00251574,0.0355814,1875,967,46.5306,-2.789
658,57,46.5367,2.82892,0.00241746,0.000816831,-0.000429366,0.00252536,0.000708928,-0.246209,0.00150403,0.0355624,1882,967,46.5368,-2.82894
665,57,46.4744,2.86688,0.00115284,0.000488078,0.000418931,0.00135523,0.000285687,0.450047,0.000824914,0.0431972,1889,967,46.4743,-2.8669
672,57,46.563,2.88824,3.35453e-05,0.000457469,0.00135084,0.00161287,-0.00112186,0.863219,0.00158736,0.0445258,1896,967,46.563,-2.88823
679,57,46.5758,2.87,-0.00071203,0.000543735,0.00219314,0.00219711,-0.0023654,0.924816,0.00263476,0.0408741,1903,967,46.5759,-2.86999
686,57,46.4357,2.7677,-0.00107722,0.00057099,0.00272917,0.00259776,-0.003104,0.932026,0.00329623,0.0357954,1910,967,46.4356,-2.76773
693,57,46.4767,2.72021,-0.00132258,0.000421796,0.00302106,0.00269405,-0.00359483,0.925929,0.00364328,0.0301457,1917,967,46.4767,-2.72022
700,57,46.4868,2.80573,-0.00164863,0.000586261,0.00300876,0.00267838,-0.00374075,0.963202,0.00372297,0.026625,1924,967,46.4869,-2.80574
707,57,46.3984,3.26849,-0.00192109,0.000899418,0.00274055,0.00257128,-0.00359294,1.02302,0.00357517,0.0498833,1931,967,46.3985,-3.26847
714,57,46.2699,3.87323,0,0,0,0,0,0,0,-1,1938,967,46.2699,-3.87324
721,57,45.0967,4.95673,0,0,0,0,0,0,0,-1,1945,967,45.0967,-4.95675
728,57,44.9493,5.28345,-0.00279826,0.0029152,0.0021358,0.00362534,-0.0035084,1.2498,0.00411885,0.0227167,1952,967,44.9493,-5.28342
735,57,44.9869,5.58282,-0.00261723,0.00362697,0.00221403,0.00433232,-0.00332258,1.26238,0.00443236,0.0275129,1959,967,44.987,-5.58283
742,57,45.0283,5.75342,-0.00252894,0.00556125,0.00208025,0.00606481,-0.00303249,1.3333,0.0053487,0.0200191,1966,967,45.0284,-5.7534
749,57,44.9962,6.03149,-0.00235727,0.00808602,0.00226724,0.008557,-0.00282825,1.36598,0.00684503,0.0138819,1973,967,44.9963,-6.03151
756,57,44.9426,6.28113,-0.00190208,0.0112855,0.00279367,0.0118529,-0.00246948,1.37042,0.00884084,0.0113107,1980,967,44.9426,-6.28114
763,57,44.8782,6.53815,-0.000958414,0.0157452,0.00408911,0.0166925,-0.00190572,1.34315,0.0118149,0.0118276,1987,967,44.8782,-6.53817
770,57,44.7996,6.77643,0.000540294,0.0215289,0.00616713,0.0232068,-0.00113766,1.30515,0.015864,0.0119491,1994,967,44.7996,-6.77645
777,57,44.7218,7.12341,0.00257304,0.0281727,0.0086505,0.0308217,-7.59736e-05,1.27364,0.0205732,0.0282013,2001,967,44.7217,-7.12342
784,57,44.6262,8.32153,0.0053548,0.0359473,0.0115889,0.0398416,0.00146049,1.24661,0.0260879,0.0432674,2008,967,44.6263,-8.32151
791,57,44.7454,9.42889,0.00908841,0.0448364,0.0146991,0.0501043,0.00382057,1.22668,0.032205,0.0489093,2015,967,44.7454,-9.42887
798,57,45.0391,10.601,0,0,0,0,0,0,0,-1,2022,967,45.0391,-10.601
805,57,45.5159,5.47119,0,0,0,0,0,0,0,-1,2029,967,45.5159,-5.47119
812,57,0,0,0,0,0,0,0,0,0,-1,2036,967,0,0
-700,50,0,0,0,0,0,0,0,0,0,-1,524,974,0,0
-693,50,-35.3916,-0.309998,0,0,0,0,0,0,0,-1,531,974,-35.3916,0.309996
-686,50,-35.0481,0.424316,0,0,0,0,0,0,0,-1,538,974,-35.0481,-0.424296
-679,50,-34.4856,1.35242,0,0,0,0,0,0,0,-1,545,974,-34.4856,-1.35245
-672,50,-34.1533,1.75336,0,0,0,0,0,0,0,-1,552,974,-34.1532,-1.75337
-665,50,-34.1161,2.03546,0,0,0,0,0,0,0,-1,559,974,-34.1161,-2.03546
-658,50,-34.8935,3.49847,0,0,0,0,0,0,0,-1,566,974,-34.8935,-3.49847
-651,50,-34.4466,3.63538,-0.00903451,0.0137827,0.000296027,0.0137866,-0.00903834,1.55783,0.0132727,0.0452952,573,974,-34.4466,-3.63537
-644,50,-33.9319,3.87683,-0.00809572,0.0127252,0.00255151,0.0130333,-0.00840384,1.45062,0.0124726,0.0305156,580,974,-33.9319,-3.87681
-637,50,-34.0208,3.77032,-0.00686328,0.0109795,0.00367539,0.0117069,-0.00759071,1.3754,0.0112256,0.0175032,587,974,-34.0208,-3.77032
-630,50,-34.0797,3.63422,-0.00580486,0.00930404,0.00318244,0.009947,-0.00644783,1.37144,0.00953715,0.0114462,594,974,-34.0797,-3.6342
-623,50,-34.1,3.48993,-0.00535844,0.00821655,0.00170081,0.0084264,-0.00556829,1.44803,0.00813581,0.0119766,601,974,-34.1,-3.48994
-616,50,-34.1135,3.29657,-0.00524672,0.00664747,0.000122307,0.00664873,-0.00524798,1.56051,0.00688442,0.0118475,608,974,-34.1135,-3.29658
-609,50,-34.1045,3.03729,-0.00549013,0.00579034,-0.00180492,0.0060721,-0.00577188,-1.41594,0.00683886,0.0107331,615,974,-34.1045,-3.03728
-602,50,-34.0912,2.83398,-0.00561713,0.00477116,-0.00373301,0.00597346,-0.00681944,-1.25921,0.00739136,0.0105316,622,974,-34.0912,-2.83396
-595,50,-34.084,2.64581,-0.00562547,0.00361473,-0.00498795,0.00579353,-0.00780426,-1.15896,0.00787925,0.011663,629,974,-34.084,-2.64582
-588,50,-34.1128,2.32581,-0.00537736,0.00267781,-0.00579657,0.00570867,-0.00840822,-1.08902,0.00819992,0.0185367,636,974,-34.1128,-2.32579
-581,50,-34.2897,1.55731,-0.00522398,0.00211822,-0.00626368,0.00570733,-0.00881309,-1.05046,0.00844705,0.0281265,643,974,-34.2896,-1.5573
-574,50,-34.4116,1.05243,-0.00505561,0.00161724,-0.0063743,0.00547549,-0.00891387,-1.0265,0.00838639,0.0314509,650,974,-34.4115,-1.05242
-567,50,-34.395,0.969971,-0.00467021,0.00148942,-0.0059722,0.00512916,-0.00830995,-1.02346,0.00783118,0.0360812,657,974,-34.3949,-0.969959
-560,50,-34.3956,0.876099,-0.00384525,0.00128243,-0.00503048,0.00436474,-0.00692756,-1.02107,0.00657534,0.0407108,664,974,-34.3956,-0.876104
-553,50,-34.4554,0.808777,-0.00246702,0.000911718,-0.00355137,0.00315506,-0.00471036,-1.00741,0.0045706,0.0421559,671,974,-34.4555,-0.808789
-546,50,-34.3261,0.889954,-0.000522818,0.000191441,-0.00152566,0.00140121,-0.00173259,-0.900369,0.00181267,0.0404934,678,974,-34.3261,-0.889931
-539,50,-34.1743,1.1286,0.00183063,-0.00105316,0.000901724,0.00208937,-0.0013119,0.279435,0.00198075,0.0429358,685,974,-34.1743,-1.12859
-532,50,-34.3539,1.14392,0.00430274,-0.0026958,0.00292063,0.00536142,-0.00375449,0.347754,0.00529026,0.0421905,692,974,-34.354,-1.14391
-525,50,-34.357,0.954468,0.00487663,-0.00445762,0.00390995,0.006298,-0.00587899,0.348674,0.00703178,0.0427979,699,974,-34.357,-0.954441
-518,50,0,0,0,0,0,0,0,0,0,-1,706,974,0,0
-511,50,0,0,0,0,0,0,0,0,0,-1,713,974,0,0
-504,50,0,0,0,0,0,0,0,0,0,-1,720,974,0,0
-497,50,0,0,0,0,0,0,0,0,0,-1,727,974,0,0
-490,50,0,0,0,0,0,0,0,0,0,-1,734,974,0,0
-483,50,0,0,0,0,0,0,0,0,0,-1,741,974,0,0
-476,50,0,0,0,0,0,0,0,0,0,-1,748,974,0,0
-469,50,0,0,0,0,0,0,0,0,0,-1,755,974,0,0
-462,50,0,0,0,0,0,0,0,0,0,-1,762,974,0,0
-455,50,0,0,0,0,0,0,0,0,0,-1,769,974,0,0
-448,50,0,0,0,0,0,0,0,0,0,-1,776,974,0,0
-441,50,0,0,0,0,0,0,0,0,0,-1,783,974,0,0
-434,50,0,0,0,0,0,0,0,0,0,-1,790,974,0,0
-427,50,0,0,0,0,0,0,0,0,0,-1,797,974,0,0
-420,50,0,0,0,0,0,0,0,0,0,-1,804,974,0,0
-413,50,0,0,0,0,0,0,0,0,0,-1,811,974,0,0
-406,50,0,0,0,0,0,0,0,0,0,-1,818,974,0,0
-399,50,0,0,0,0,0,0,0,0,0,-1,825,974,0,0
-392,50,0,0,0,0,0,0,0,0,0,-1,832,974,0,0
-385,50,0,0,0,0,0,0,0,0,0,-1,839,974,0,0
-378,50,0,0,0,0,0,0,0,0,0,-1,846,974,0,0
-371,50,0,0,0,0,0,0,0,0,0,-1,853,974,0,0
-364,50,0,0,0,0,0,0,0,0,0,-1,860,974,0,0
-357,50,0,0,0,0,0,0,0,0,0,-1,867,974,0,0
-350,50,0,0,0,0,0,0,0,0,0,-1,874,974,0,0
-343,50,0,0,0,0,0,0,0,0,0,-1,881,974,0,0
-336,50,0,0,0,0,0,0,0,0,0,-1,888,974,0,0
-329,50,0,0,0,0,0,0,0,0,0,-1,895,974,0,0
-322,50,0,0,0,0,0,0,0,0,0,-1,902,974,0,0
-315,50,0,0,0,0,0,0,0,0,0,-1,909,974,0,0
-308,50,0,0,0,0,0,0,0,0,0,-1,916,974,0,0
-301,50,0,0,0,0,0,0,0,0,0,-1,923,974,0,0
-294,50,0,0,0,0,0,0,0,0,0,-1,930,974,0,0
-287,50,0,0,0,0,0,0,0,0,0,-1,937,974,0,0
-280,50,0,0,0,0,0,0,0,0,0,-1,944,974,0,0
-273,50,0,0,0,0,0,0,0,0,0,-1,951,974,0,0
-266,50,0,0,0,0,0,0,0,0,0,-1,958,974,0,0
-259,50,0,0,0,0,0,0,0,0,0,-1,965,974,0,0
-252,50,0,0,0,0,0,0,0,0,0,-1,972,974,0,0
-245,50,0,0,0,0,0,0,0,0,0,-1,979,974,0,0
-238,50,0,0,0,0,0,0,0,0,0,-1,986,974,0,0
-231,50,0,0,0,0,0,0,0,0,0,-1,993,974,0,0
-224,50,0,0,0,0,0,0,0,0,0,-1,1000,974,0,0
-217,50,0,0,0,0,0,0,0,0,0,-1,1007,974,0,0
-210,50,0,0,0,0,0,0,0,0,0,-1,1014,974,0,0
-203,50,0,0,0,0,0,0,0,0,0,-1,1021,974,0,0
-196,50,0,0,0,0,0,0,0,0,0,-1,1028,974,0,0
-189,50,0,0,0,0,0,0,0,0,0,-1,1035,974,0,0
-182,50,0,0,0,0,0,0,0,0,0,-1,1042,974,0,0
-175,50,0,0,0,0,0,0,0,0,0,-1,1049,974,0,0
-168,50,0,0,0,0,0,0,0,0,0,-1,1056,974,0,0
-161,50,0,0,0,0,0,0,0,0,0,-1,1063,974,0,0
-154,50,0,0,0,0,0,0,0,0,0,-1,1070,974,0,0
-147,50,0,0,0,0,0,0,0,0,0,-1,1077,974,0,0
-140,50,0,0,0,0,0,0,0,0,0,-1,1084,974,0,0
-133,50,0,0,0,0,0,0,0,0,0,-1,1091,974,0,0
-126,50,0,0,0,0,0,0,0,0,0,-1,1098,974,0,0
-119,50,0,0,0,0,0,0,0,0,0,-1,1105,974,0,0
-112,50,0,0,0,0,0,0,0,0,0,-1,1112,974,0,0
-105,50,0,0,0,0,0,0,0,0,0,-1,1119,974,0,0
-98,50,0,0,0,0,0,0,0,0,0,-1,1126,974,0,0
-91,50,0,0,0,0,0,0,0,0,0,-1,1133,974,0,0
-84,50,0,0,0,0,0,0,0,0,0,-1,1140,974,0,0
-77,50,0,0,0,0,0,0,0,0,0,-1,1147,974,0,0
-70,50,0,0,0,0,0,0,0,0,0,-1,1154,974,0,0
-63,50,0,0,0,0,0,0,0,0,0,-1,1161,974,0,0
-56,50,0,0,0,0,0,0,0,0,0,-1,1168,974,0,0
-49,50,0,0,0,0,0,0,0,0,0,-1,1175,974,0,0
-42,50,0,0,0,0,0,0,0,0,0,-1,1182,974,0,0
-35,50,0,0,0,0,0,0,0,0,0,-1,1189,974,0,0
-28,50,0,0,0,0,0,0,0,0,0,-1,1196,974,0,0
-21,50,0,0,0,0,0,0,0,0,0,-1,1203,974,0,0
-14,50,0,0,0,0,0,0,0,0,0,-1,1210,974,0,0
-7,50,0,0,0,0,0,0,0,0,0,-1,1217,974,0,0
0,50,0,0,0,0,0,0,0,0,0,-1,1224,974,0,0
7,50,0,0,0,0,0,0,0,0,0,-1,1231,974,0,0
14,50,0,0,0,0,0,0,0,0,0,-1,1238,974,0,0
21,50,0,0,0,0,0,0,0,0,0,-1,1245,974,0,0
28,50,0,0,0,0,0,0,0,0,0,-1,1252,974,0,0
35,50,0,0,0,0,0,0,0,0,0,-1,1259,974,0,0
42,50,0,0,0,0,0,0,0,0,0,-1,1266,974,0,0
49,50,0,0,0,0,0,0,0,0,0,-1,1273,974,0,0
56,50,0,0,0,0,0,0,0,0,0,-1,1280,974,0,0
63,50,0,0,0,0,0,0,0,0,0,-1,1287,974,0,0
70,50,0,0,0,0,0,0,0,0,0,-1,1294,974,0,0
77,50,0,0,0,0,0,0,0,0,0,-1,1301,974,0,0
84,50,0,0,0,0,0,0,0,0,0,-1,1308,974,0,0
91,50,0,0,0,0,0,0,0,0,0,-1,1315,974,0,0
98,50,0,0,0,0,0,0,0,0,0,-1,1322,974,0,0
105,50,0,0,0,0,0,0,0,0,0,-1,1329,974,0,0
112,50,0,0,0,0,0,0,0,0,0,-1,1336,974,0,0
119,50,0,0,0,0,0,0,0,0,0,-1,1343,974,0,0
126,50,0,0,0,0,0,0,0,0,0,-1,1350,974,0,0
133,50,0,0,0,0,0,0,0,0,0,-1,1357,974,0,0
140,50,0,0,0,0,0,0,0,0,0,-1,1364,974,0,0
147,50,0,0,0,0,0,0,0,0,0,-1,1371,974,0,0
154,50,0,0,0,0,0,0,0,0,0,-1,1378,974,0,0
161,50,0,0,0,0,0,0,0,0,0,-1,1385,974,0,0
168,50,0,0,0,0,0,0,0,0,0,-1,1392,974,0,0
175,50,0,0,0,0,0,0,0,0,0,-1,1399,974,0,0
182,50,0,0,0,0,0,0,0,0,0,-1,1406,974,0,0
189,50,0,0,0,0,0,0,0,0,0,-1,1413,974,0,0
196,50,0,0,0,0,0,0,0,0,0,-1,1420,974,0,0
203,50,0,0,0,0,0,0,0,0,0,-1,1427,974,0,0
210,50,0,0,0,0,0,0,0,0,0,-1,1434,974,0,0
217,50,0,0,0,0,0,0,0,0,0,-1,1441,974,0,0
224,50,0,0,0,0,0,0,0,0,0,-1,1448,974,0,0
231,50,0,0,0,0,0,0,0,0,0,-1,1455,974,0,0
238,50,0,0,0,0,0,0,0,0,0,-1,1462,974,0,0
245,50,0,0,0,0,0,0,0,0,0,-1,1469,974,0,0
252,50,0,0,0,0,0,0,0,0,0,-1,1476,974,0,0
259,50,0,0,0,0,0,0,0,0,0,-1,1483,974,0,0
266,50,0,0,0,0,0,0,0,0,0,-1,1490,974,0,0
273,50,0,0,0,0,0,0,0,0,0,-1,1497,974,0,0
280,50,0,0,0,0,0,0,0,0,0,-1,1504,974,0,0
287,50,0,0,0,0,0,0,0,0,0,-1,1511,974,0,0
294,50,0,0,0,0,0,0,0,0,0,-1,1518,974,0,0
301,50,0,0,0,0,0,0,0,0,0,-1,1525,974,0,0
308,50,0,0,0,0,0,0,0,0,0,-1,1532,974,0,0
315,50,0,0,0,0,0,0,0,0,0,-1,1539,974,0,0
322,50,0,0,0,0,0,0,0,0,0,-1,1546,974,0,0
329,50,0,0,0,0,0,0,0,0,0,-1,1553,974,0,0
336,50,0,0,0,0,0,0,0,0,0,-1,1560,974,0,0
343,50,0,0,0,0,0,0,0,0,0,-1,1567,974,0,0
350,50,0,0,0,0,0,0,0,0,0,-1,1574,974,0,0
357,50,0,0,0,0,0,0,0,0,0,-1,1581,974,0,0
364,50,0,0,0,0,0,0,0,0,0,-1,1588,974,0,0
371,50,0,0,0,0,0,0,0,0,0,-1,1595,974,0,0
378,50,0,0,0,0,0,0,0,0,0,-1,1602,974,0,0
385,50,0,0,0,0,0,0,0,0,0,-1,1609,974,0,0
392,50,0,0,0,0,0,0,0,0,0,-1,1616,974,0,0
399,50,0,0,0,0,0,0,0,0,0,-1,1623,974,0,0
406,50,0,0,0,0,0,0,0,0,0,-1,1630,974,0,0
413,50,0,0,0,0,0,0,0,0,0,-1,1637,974,0,0
420,50,0,0,0,0,0,0,0,0,0,-1,1644,974,0,0
427,50,0,0,0,0,0,0,0,0,0,-1,1651,974,0,0
434,50,0,0,0,0,0,0,0,0,0,-1,1658,974,0,0
441,50,0,0,0,0,0,0,0,0,0,-1,1665,974,0,0
448,50,0,0,0,0,0,0,0,0,0,-1,1672,974,0,0
455,50,0,0,0,0,0,0,0,0,0,-1,1679,974,0,0
462,50,0,0,0,0,0,0,0,0,0,-1,1686,974,0,0
469,50,0,0,0,0,0,0,0,0,0,-1,1693,974,0,0
476,50,0,0,0,0,0,0,0,0,0,-1,1700,974,0,0
483,50,0,0,0,0,0,0,0,0,0,-1,1707,974,0,0
490,50,0,0,0,0,0,0,0,0,0,-1,1714,974,0,0
497,50,0,0,0,0,0,0,0,0,0,-1,1721,974,0,0
504,50,0,0,0,0,0,0,0,0,0,-1,1728,974,0,0
511,50,0,0,0,0,0,0,0,0,0,-1,1735,974,0,0
518,50,0,0,0,0,0,0,0,0,0,-1,1742,974,0,0
525,50,0,0,0,0,0,0,0,0,0,-1,1749,974,0,0
532,50,0,0,0,0,0,0,0,0,0,-1,1756,974,0,0
539,50,0,0,0,0,0,0,0,0,0,-1,1763,974,0,0
546,50,0,0,0,0,0,0,0,0,0,-1,1770,974,0,0
553,50,0,0,0,0,0,0,0,0,0,-1,1777,974,0,0
560,50,0,0,0,0,0,0,0,0,0,-1,1784,974,0,0
567,50,0,0,0,0,0,0,0,0,0,-1,1791,974,0,0
574,50,0,0,0,0,0,0,0,0,0,-1,1798,974,0,0
581,50,0,0,0,0,0,0,0,0,0,-1,1805,974,0,0
588,50,0,0,0,0,0,0,0,0,0,-1,1812,974,0,0
595,50,0,0,0,0,0,0,0,0,0,-1,1819,974,0,0
602,50,0,0,0,0,0,0,0,0,0,-1,1826,974,0,0
609,50,0,0,0,0,0,0,0,0,0,-1,1833,974,0,0
616,50,0,0,0,0,0,0,0,0,0,-1,1840,974,0,0
623,50,0,0,0,0,0,0,0,0,0,-1,1847,974,0,0
630,50,0,0,0,0,0,0,0,0,0,-1,1854,974,0,0
637,50,0,0,0,0,0,0,0,0,0,-1,1861,974,0,0
644,50,46.4417,2.8739,0.00642196,0.00349648,-0.000420567,0.00648122,0.00343722,-0.139984,0.00374423,0.0403182,1868,974,46.4417,-2.87388
651,50,46.4468,2.89606,0.0046554,0.00170952,-0.000302417,0.00468612,0.0016788,-0.101251,0.00274154,0.0326454,1875,974,46.4468,-2.89607
658,50,46.4521,2.87567,0.00313252,0.00070956,-3.08662e-05,0.00313292,0.000709167,-0.0127363,0.00189694,0.0366502,1882,974,46.4521,-2.87568
665,50,46.5211,2.79681,0.00176886,0.000391969,0.000560798,0.00196836,0.000192466,0.341786,0.00125302,0.0415589,1889,974,46.5212,-2.7968
672,50,46.5983,2.7533,0.000540553,0.000405998,0.00132131,0.0017963,-0.000849751,0.759962,0.00155994,0.0434551,1896,974,46.5983,-2.75331
679,50,46.4441,2.84808,-0.000316505,0.000563491,0.0021038,0.00227281,-0.00202582,0.888485,0.00248318,0.0417063,1903,974,46.444,-2.84809
686,50,46.3201,2.76117,-0.00075965,0.000646052,0.00266433,0.00269868,-0.00281228,0.91436,0.00318197,0.0397408,1910,974,46.3201,-2.76118
693,50,46.3721,2.72369,-0.00105473,0.000559456,0.00299778,0.00285689,-0.00335217,0.916895,0.0035886,0.037029,1917,974,46.3721,-2.72371
700,50,46.4209,2.88715,-0.00140423,0.000738674,0.00301766,0.00286945,-0.00353501,0.955986,0.00370426,0.0236001,1924,974,46.4208,-2.88716
707,50,46.4644,3.0163,-0.00171903,0.00106741,0.00279085,0.00279347,-0.00344509,1.01691,0.00360838,0.0397448,1931,974,46.4644,-3.01629
714,50,46.3975,3.20123,0,0,0,0,0,0,0,-1,1938,974,46.3975,-3.20124
721,50,45.2543,4.97583,0,0,0,0,0,0,0,-1,1945,974,45.2543,-4.9758
728,50,45.2496,5.30127,-0.00277062,0.00315841,0.00232942,0.00396411,-0.00357632,1.2378,0.00435539,0.0224857,1952,974,45.2497,-5.30127
735,50,45.2947,5.55035,-0.00259954,0.00396871,0.002489,0.00480533,-0.00343616,1.24653,0.00478007,0.0208083,1959,974,45.2947,-5.55037
742,50,45.3182,5.77631,-0.00254141,0.00595558,0.00238871,0.00658106,-0.00316689,1.3147,0.0057419,0.0156916,1966,974,45.3183,-5.77632
749,50,45.275,5.99225,-0.00238987,0.00841086,0.00259739,0.00900302,-0.00298204,1.34664,0.00720476,0.016331,1973,974,45.275,-5.99226
756,50,45.2339,6.23907,-0.00197279,0.0115037,0.00308737,0.0121773,-0.00264641,1.35598,0.00912912,0.0135167,1980,974,45.2338,-6.23908
763,50,45.158,6.47491,-0.00104281,0.0157714,0.00432403,0.0168183,-0.00208962,1.33327,0.0119697,0.0129983,1987,974,45.1579,-6.47494
770,50,45.0885,6.67035,0.000535053,0.0213514,0.00638441,0.0231535,-0.00126705,1.29569,0.0158749,0.0125612,1994,974,45.0885,-6.67034
777,50,45.1068,6.92035,0.00274236,0.0276961,0.00891828,0.0305557,-0.000117267,1.26051,0.0204097,0.0253822,2001,974,45.1068,-6.92036
784,50,45.4724,7.565,0.00575526,0.0348582,0.0118984,0.0391035,0.00151001,1.22808,0.0255805,0.0405088,2008,974,45.4725,-7.56502
791,50,45.7268,9.33978,0.00983602,0.0427279,0.0151216,0.0486232,0.00394071,1.19906,0.031185,0.0421262,2015,974,45.7269,-9.33977
798,50,45.9495,10.574,0.0147117,0.0511332,0.0182012,0.0586696,0.00717539,1.17823,0.0369542,0.0471813,2022,974,45.9494,-10.5741
805,50,46.2466,11.8417,0,0,0,0,0,0,0,-1,2029,974,46.2466,-11.8417
812,50,0,0,0,0,0,0,0,0,0,-1,2036,974,0,0
-700,43,0,0,0,0,0,0,0,0,0,-1,524,981,0,0
-693,43,-37.6123,11.1312,0,0,0,0,0,0,0,-1,531,981,-37.6123,-11.1312
-686,43,-35.3134,-0.221863,0,0,0,0,0,0,0,-1,538,981,-35.3134,0.221891
-679,43,-34.6898,0.998291,0,0,0,0,0,0,0,-1,545,981,-34.6897,-0.998271
-672,43,-34.6173,1.2785,0,0,0,0,0,0,0,-1,552,981,-34.6173,-1.2785
-665,43,-35.0051,1.33716,0,0,0,0,0,0,0,-1,559,981,-35.005,-1.33716
-658,43,-35.0591,4.48358,0,0,0,0,0,0,0,-1,566,981,-35.0591,-4.48357
-651,43,-34.5876,4.16168,-0.00305753,0.0202037,-0.00274022,0.0205221,-0.00337598,-1.4551,0.0149345,0.0413615,573,981,-34.5877,-4.16168
-644,43,-34.1877,3.86163,-0.00315656,0.0169091,0.000339035,0.0169148,-0.00316229,1.55391,0.0124651,0.0255467,580,981,-34.1877,-3.8616
-637,43,-34.2808,3.71136,-0.00295855,0.0132819,0.00222943,0.0135824,-0.00325903,1.43682,0.0103144,0.018695,587,981,-34.2807,-3.71134
-630,43,-34.3096,3.53662,-0.00278376,0.010381,0.00223124,0.0107489,-0.00315164,1.40739,0.00841557,0.0145477,594,981,-34.3096,-3.5366
-623,43,-34.3148,3.41077,-0.00297575,0.00855976,0.000970169,0.00864078,-0.00305677,1.48747,0.00700539,0.0123936,601,981,-34.3147,-3.41074
-616,43,-34.3176,3.23175,-0.00339898,0.00671132,-0.000533746,0.00673941,-0.00342708,-1.5182,0.00597257,0.0108918,608,981,-34.3175,-3.23176
-609,43,-34.322,3.02863,-0.00388947,0.00575548,-0.00260685,0.00641497,-0.00454896,-1.32301,0.00636052,0.0130222,615,981,-34.322,-3.02864
-602,43,-34.3024,2.85681,-0.00400961,0.00483538,-0.00463585,0.00681988,-0.00599411,-1.16632,0.00740328,0.0155125,622,981,-34.3023,-2.85681
-595,43,-34.381,3.01563,0,0,0,0,0,0,0,-1,629,981,-34.381,-3.01565
-588,43,-34.3356,2.198,-0.00370623,0.00277222,-0.0066712,0.00694902,-0.00788304,-1.01141,0.00856895,0.0221072,636,981,-34.3356,-2.19801
-581,43,-34.3841,1.3324,-0.00353931,0.00217399,-0.00703302,0.00690837,-0.00827369,-0.978308,0.00877718,0.0305241,643,981,-34.3841,-1.3324
-574,43,-34.4283,1.02374,-0.00340958,0.00159584,-0.00699012,0.00651777,-0.00833151,-0.957306,0.00859453,0.0323265,650,981,-34.4283,-1.02374
-567,43,-34.3754,1.02863,-0.00316072,0.00133934,-0.00633349,0.0058106,-0.00763198,-0.956074,0.00778478,0.0370257,657,981,-34.3754,-1.02864
-560,43,-34.3393,1.0166,-0.0025693,0.000963059,-0.00501054,0.00450959,-0.00611584,-0.954845,0.00615791,0.0403271,664,981,-34.3393,-1.01659
-553,43,-34.426,0.875977,-0.00156367,0.000349126,-0.00303263,0.0025726,-0.00378714,-0.938146,0.00369405,0.0425873,671,981,-34.426,-0.875984
-546,43,-34.4044,0.89624,-0.000115604,-0.00071155,-0.000406517,9.04507e-05,-0.000917605,-0.469135,0.000644008,0.0437014,678,981,-34.4044,-0.896233
-539,43,-34.1234,0.9151,0.00161125,-0.00234624,0.0026332,0.00292632,-0.0036613,0.463181,0.00381125,0.0448767,685,981,-34.1233,-0.915075
-532,43,-34.1113,1.06274,0.00349174,-0.00437077,0.00505625,0.00596521,-0.00684424,0.454962,0.00740134,0.044825,692,981,-34.1113,-1.06275
-525,43,-34.23,1.10651,0.00357644,-0.00644088,0.00630471,0.00661986,-0.0094843,0.44973,0.00934664,0.0446676,699,981,-34.23,-1.10648
-518,43,0,0,0,0,0,0,0,0,0,-1,706,981,0,0
-511,43,0,0,0,0,0,0,0,0,0,-1,713,981,0,0
-504,43,0,0,0,0,0,0,0,0,0,-1,720,981,0,0
-497,43,0,0,0,0,0,0,0,0,0,-1,727,981,0,0
-490,43,0,0,0,0,0,0,0,0,0,-1,734,981,0,0
-483,43,0,0,0,0,0,0,0,0,0,-1,741,981,0,0
-476,43,0,0,0,0,0,0,0,0,0,-1,748,981,0,0
-469,43,0,0,0,0,0,0,0,0,0,-1,755,981,0,0
-462,43,0,0,0,0,0,0,0,0,0,-1,762,981,0,0
-455,43,0,0,0,0,0,0,0,0,0,-1,769,981,0,0
-448,43,0,0,0,0,0,0,0,0,0,-1,776,981,0,0
-441,43,0,0,0,0,0,0,0,0,0,-1,783,981,0,0
-434,43,0,0,0,0,0,0,0,0,0,-1,790,981,0,0
-427,43,0,0,0,0,0,0,0,0,0,-1,797,981,0,0
-420,43,0,0,0,0,0,0,0,0,0,-1,804,981,0,0
-413,43,0,0,0,0,0,0,0,0,0,-1,811,981,0,0
-406,43,0,0,0,0,0,0,0,0,0,-1,818,981,0,0
-399,43,0,0,0,0,0,0,0,0,0,-1,825,981,0,0
-392,43,0,0,0,0,0,0,0,0,0,-1,832,981,0,0
-385,43,0,0,0,0,0,0,0,0,0,-1,839,981,0,0
-378,43,0,0,0,0,0,0,0,0,0,-1,846,981,0,0
-371,43,0,0,0,0,0,0,0,0,0,-1,853,981,0,0
-364,43,0,0,0,0,0,0,0,0,0,-1,860,981,0,0
-357,43,0,0,0,0,0,0,0,0,0,-1,867,981,0,0
-350,43,0,0,0,0,0,0,0,0,0,-1,874,981,0,0
-343,43,0,0,0,0,0,0,0,0,0,-1,881,981,0,0
-336,43,0,0,0,0,0,0,0,0,0,-1,888,981,0,0
-329,43,0,0,0,0,0,0,0,0,0,-1,895,981,0,0
-322,43,0,0,0,0,0,0,0,0,0,-1,902,981,0,0
-315,43,0,0,0,0,0,0,0,0,0,-1,909,981,0,0
-308,43,0,0,0,0,0,0,0,0,0,-1,916,981,0,0
-301,43,0,0,0,0,0,0,0,0,0,-1,923,981,0,0
-294,43,0,0,0,0,0,0,0,0,0,-1,930,981,0,0
-287,43,0,0,0,0,0,0,0,0,0,-1,937,981,0,0
-280,43,0,0,0,0,0,0,0,0,0,-1,944,981,0,0
-273,43,0,0,0,0,0,0,0,0,0,-1,951,981,0,0
-266,43,0,0,0,0,0,0,0,0,0,-1,958,981,0,0
-259,43,0,0,0,0,0,0,0,0,0,-1,965,981,0,0
-252,43,0,0,0,0,0,0,0,0,0,-1,972,981,0,0
-245,43,0,0,0,0,0,0,0,0,0,-1,979,981,0,0
-238,43,0,0,0,0,0,0,0,0,0,-1,986,981,0,0
-231,43,0,0,0,0,0,0,0,0,0,-1,993,981,0,0
-224,43,0,0,0,0,0,0,0,0,0,-1,1000,981,0,0
-217,43,0,0,0,0,0,0,0,0,0,-1,1007,981,0,0
-210,43,0,0,0,0,0,0,0,0,0,-1,1014,981,0,0
-203,43,0,0,0,0,0,0,0,0,0,-1,1021,981,0,0
-196,43,0,0,0,0,0,0,0,0,0,-1,1028,981,0,0
-189,43,0,0,0,0,0,0,0,0,0,-1,1035,981,0,0
-182,43,0,0,0,0,0,0,0,0,0,-1,1042,981,0,0
-175,43,0,0,0,0,0,0,0,0,0,-1,1049,981,0,0
-168,43,0,0,0,0,0,0,0,0,0,-1,1056,981,0,0
-161,43,0,0,0,0,0,0,0,0,0,-1,1063,981,0,0
-154,43,0,0,0,0,0,0,0,0,0,-1,1070,981,0,0
-147,43,0,0,0,0,0,0,0,0,0,-1,1077,981,0,0
-140,43,0,0,0,0,0,0,0,0,0,-1,1084,981,0,0
-133,43,0,0,0,0,0,0,0,0,0,-1,1091,981,0,0
-126,43,0,0,0,0,0,0,0,0,0,-1,1098,981,0,0
-119,43,0,0,0,0,0,0,0,0,0,-1,1105,981,0,0
-112,43,0,0,0,0,0,0,0,0,0,-1,1112,981,0,0
-105,43,0,0,0,0,0,0,0,0,0,-1,1119,981,0,0
-98,43,0,0,0,0,0,0,0,0,0,-1,1126,981,0,0
-91,43,0,0,0,0,0,0,0,0,0,-1,1133,981,0,0
-84,43,0,0,0,0,0,0,0,0,0,-1,1140,981,0,0
-77,43,0,0,0,0,0,0,0,0,0,-1,1147,981,0,0
-70,43,0,0,0,0,0,0,0,0,0,-1,1154,981,0,0
-63,43,0,0,0,0,0,0,0,0,0,-1,1161,981,0,0
-56,43,0,0,0,0,0,0,0,0,0,-1,1168,981,0,0
-49,43,0,0,0,0,0,0,0,0,0,-1,1175,981,0,0
-42,43,0,0,0,0,0,0,0,0,0,-1,1182,981,0,0
-35,43,0,0,0,0,0,0,0,0,0,-1,1189,981,0,0
-28,43,0,0,0,0,0,0,0,0,0,-1,1196,981,0,0
-21,43,0,0,0,0,0,0,0,0,0,-1,1203,981,0,0
-14,43,0,0,0,0,0,0,0,0,0,-1,1210,981,0,0
-7,43,0,0,0,0,0,0,0,0,0,-1,1217,981,0,0
0,43,0,0,0,0,0,0,0,0,0,-1,1224,981,0,0
7,43,0,0,0,0,0,0,0,0,0,-1,1231,981,0,0
14,43,0,0,0,0,0,0,0,0,0,-1,1238,981,0,0
21,43,0,0,0,0,0,0,0,0,0,-1,1245,981,0,0
28,43,0,0,0,0,0,0,0,0,0,-1,1252,981,0,0
35,43,0,0,0,0,0,0,0,0,0,-1,1259,981,0,0
42,43,0,0,0,0,0,0,0,0,0,-1,1266,981,0,0
49,43,0,0,0,0,0,0,0,0,0,-1,1273,981,0,0
56,43,0,0,0,0,0,0,0,0,0,-1,1280,981,0,0
63,43,0,0,0,0,0,0,0,0,0,-1,1287,981,0,0
70,43,0,0,0,0,0,0,0,0,0,-1,1294,981,0,0
77,43,0,0,0,0,0,0,0,0,0,-1,1301,981,0,0
84,43,0,0,0,0,0,0,0,0,0,-1,1308,981,0,0
91,43,0,0,0,0,0,0,0,0,0,-1,1315,981,0,0
98,43,0,0,0,0,0,0,0,0,0,-1,1322,981,0,0
105,43,0,0,0,0,0,0,0,0,0,-1,1329,981,0,0
112,43,0,0,0,0,0,0,0,0,0,-1,1336,981,0,0
119,43,0,0,0,0,0,0,0,0,0,-1,1343,981,0,0
126,43,0,0,0,0,0,0,0,0,0,-1,1350,981,0,0
133,43,0,0,0,0,0,0,0,0,0,-1,1357,981,0,0
140,43,0,0,0,0,0,0,0,0,0,-1,1364,981,0,0
147,43,0,0,0,0,0,0,0,0,0,-1,1371,981,0,0
154,43,0,0,0,0,0,0,0,0,0,-1,1378,981,0,0
161,43,0,0,0,0,0,0,0,0,0,-1,1385,981,0,0
168,43,0,0,0,0,0,0,0,0,0,-1,1392,981,0,0
175,43,0,0,0,0,0,0,0,0,0,-1,1399,981,0,0
182,43,0,0,0,0,0,0,0,0,0,-1,1406,981,0,0
189,43,0,0,0,0,0,0,0,0,0,-1,1413,981,0,0
196,43,0,0,0,0,0,0,0,0,0,-1,1420,981,0,0
203,43,0,0,0,0,0,0,0,0,0,-1,1427,981,0,0
210,43,0,0,0,0,0,0,0,0,0,-1,1434,981,0,0
217,43,0,0,0,0,0,0,0,0,0,-1,1441,981,0,0
224,43,0,0,0,0,0,0,0,0,0,-1,1448,981,0,0
231,43,0,0,0,0,0,0,0,0,0,-1,1455,981,0,0
238,43,0,0,0,0,0,0,0,0,0,-1,1462,981,0,0
245,43,0,0,0,0,0,0,0,0,0,-1,1469,981,0,0
252,43,0,0,0,0,0,0,0,0,0,-1,1476,981,0,0
259,43,0,0,0,0,0,0,0,0,0,-1,1483,981,0,0
266,43,0,0,0,0,0,0,0,0,0,-1,1490,981,0,0
273,43,0,0,0,0,0,0,0,0,0,-1,1497,981,0,0
280,43,0,0,0,0,0,0,0,0,0,-1,1504,981,0,0
287,43,0,0,0,0,0,0,0,0,0,-1,1511,981,0,0
294,43,0,0,0,0,0,0,0,0,0,-1,1518,981,0,0
301,43,0,0,0,0,0,0,0,0,0,-1,1525,981,0,0
308,43,0,0,0,0,0,0,0,0,0,-1,1532,981,0,0
315,43,0,0,0,0,0,0,0,0,0,-1,1539,981,0,0
322,43,0,0,0,0,0,0,0,0,0,-1,1546,981,0,0
329,43,0,0,0,0,0,0,0,0,0,-1,1553,981,0,0
336,43,0,0,0,0,0,0,0,0,0,-1,1560,981,0,0
343,43,0,0,0,0,0,0,0,0,0,-1,1567,981,0,0
350,43,0,0,0,0,0,0,0,0,0,-1,1574,981,0,0
357,43,0,0,0,0,0,0,0,0,0,-1,1581,981,0,0
364,43,0,0,0,0,0,0,0,0,0,-1,1588,981,0,0
371,43,0,0,0,0,0,0,0,0,0,-1,1595,981,0,0
378,43,0,0,0,0,0,0,0,0,0,-1,1602,981,0,0
385,43,0,0,0,0,0,0,0,0,0,-1,1609,981,0,0
392,43,0,0,0,0,0,0,0,0,0,-1,1616,981,0,0
399,43,0,0,0,0,0,0,0,0,0,-1,1623,981,0,0
406,43,0,0,0,0,0,0,0,0,0,-1,1630,981,0,0
413,43,0,0,0,0,0,0,0,0,0,-1,1637,981,0,0
420,43,0,0,0,0,0,0,0,0,0,-1,1644,981,0,0
427,43,0,0,0,0,0,0,0,0,0,-1,1651,981,0,0
434,43,0,0,0,0,0,0,0,0,0,-1,1658,981,0,0
441,43,0,0,0,0,0,0,0,0,0,-1,1665,981,0,0
448,43,0,0,0,0,0,0,0,0,0,-1,1672,981,0,0
455,43,0,0,0,0,0,0,0,0,0,-1,1679,981,0,0
462,43,0,0,0,0,0,0,0,0,0,-1,1686,981,0,0
469,43,0,0,0,0,0,0,0,0,0,-1,1693,981,0,0
476,43,0,0,0,0,0,0,0,0,0,-1,1700,981,0,0
483,43,0,0,0,0,0,0,0,0,0,-1,1707,981,0,0
490,43,0,0,0,0,0,0,0,0,0,-1,1714,981,0,0
497,43,0,0,0,0,0,0,0,0,0,-1,1721,981,0,0
504,43,0,0,0,0,0,0,0,0,0,-1,1728,981,0,0
511,43,0,0,0,0,0,0,0,0,0,-1,1735,981,0,0
518,43,0,0,0,0,0,0,0,0,0,-1,1742,981,0,0
525,43,0,0,0,0,0,0,0,0,0,-1,1749,981,0,0
532,43,0,0,0,0,0,0,0,0,0,-1,1756,981,0,0
539,43,0,0,0,0,0,0,0,0,0,-1,1763,981,0,0
546,43,0,0,0,0,0,0,0,0,0,-1,1770,981,0,0
553,43,0,0,0,0,0,0,0,0,0,-1,1777,981,0,0
560,43,0,0,0,0,0,0,0,0,0,-1,1784,981,0,0
567,43,0,0,0,0,0,0,0,0,0,-1,1791,981,0,0
574,43,0,0,0,0,0,0,0,0,0,-1,1798,981,0,0
581,43,0,0,0,0,0,0,0,0,0,-1,1805,981,0,0
588,43,0,0,0,0,0,0,0,0,0,-1,1812,981,0,0
595,43,0,0,0,0,0,0,0,0,0,-1,1819,981,0,0
602,43,0,0,0,0,0,0,0,0,0,-1,1826,981,0,0
609,43,0,0,0,0,0,0,0,0,0,-1,1833,981,0,0
616,43,0,0,0,0,0,0,0,0,0,-1,1840,981,0,0
623,43,0,0,0,0,0,0,0,0,0,-1,1847,981,0,0
630,43,0,0,0,0,0,0,0,0,0,-1,1854,981,0,0
637,43,0,0,0,0,0,0,0,0,0,-1,1861,981,0,0
644,43,46.3289,2.91138,0.00741381,0.00298715,0.000698908,0.00752154,0.00287942,0.152931,0.00438213,0.0397389,1868,981,46.3289,-2.91136
651,43,46.3695,2.91736,0.0054483,0.00148985,0.000324917,0.00547479,0.00146336,0.0813564,0.003273,0.0365306,1875,981,46.3695,-2.91737
658,43,46.4865,2.79095,0.00377015,0.000662546,0.000221612,0.00378588,0.000646822,0.070835,0.00233832,0.0369166,1882,981,46.4865,-2.79096
665,43,46.7379,2.64447,0.0022996,0.000450568,0.000533725,0.00244261,0.000307567,0.261781,0.00153618,0.0359153,1889,981,46.7379,-2.64449
672,43,46.8502,2.60498,0.000985978,0.000551104,0.0011,0.00188982,-0.00035274,0.687821,0.00139244,0.0399991,1896,981,46.8502,-2.60498
679,43,46.4989,2.72089,3.8863e-05,0.000798956,0.00180559,0.00226407,-0.00142625,0.889126,0.00214883,0.0413503,1903,981,46.499,-2.72089
686,43,46.368,2.82166,-0.00046559,0.000935489,0.00238024,0.00271614,-0.00224624,0.928514,0.00286931,0.0410762,1910,981,46.3681,-2.82168
693,43,46.444,2.88025,-0.00077364,0.000900046,0.00276394,0.00295106,-0.00282465,0.932397,0.00333487,0.0381006,1917,981,46.444,-2.88026
700,43,46.4255,2.91077,-0.001124,0.00107303,0.00283762,0.00301735,-0.00306831,0.970077,0.0035136,0.0358461,1924,981,46.4255,-2.91079
707,43,46.4803,2.87292,-0.00147621,0.00140005,0.00268494,0.00300776,-0.00308392,1.03127,0.00351712,0.0341459,1931,981,46.4803,-2.87295
714,43,46.4723,2.86969,0,0,0,0,0,0,0,-1,1938,981,46.4723,-2.86969
721,43,45.681,4.94379,0,0,0,0,0,0,0,-1,1945,981,45.681,-4.94381
728,43,45.6245,5.26764,-0.00273677,0.00347951,0.00239229,0.00429357,-0.00355082,1.24281,0.00453572,0.0204222,1952,981,45.6245,-5.26763
735,43,45.5881,5.55597,-0.00261143,0.0043763,0.00261979,0.00524941,-0.00348453,1.2491,0.00507674,0.0150235,1959,981,45.5881,-5.55597
742,43,45.5498,5.75415,-0.00262491,0.0064008,0.00252672,0.00706,-0.00328411,1.31559,0.00610336,0.0163378,1966,981,45.5498,-5.75417
749,43,45.5135,5.96875,-0.00256714,0.00876588,0.0027234,0.00938636,-0.00318762,1.34679,0.00754792,0.0184998,1973,981,45.5136,-5.96874
756,43,45.5186,6.16736,-0.00228817,0.0117404,0.00314075,0.0124114,-0.00295923,1.3603,0.00941698,0.0202163,1980,981,45.5185,-6.16737
763,43,45.4728,6.3537,-0.00150383,0.0158254,0.00425843,0.0168153,-0.00249374,1.34239,0.0121272,0.0229567,1987,981,45.4727,-6.35369
770,43,45.3726,6.61816,-2.94431e-05,0.0212016,0.00618643,0.0228727,-0.00170055,1.30697,0.0158457,0.0198655,1994,981,45.3725,-6.61815
777,43,45.3771,6.83276,0.00215185,0.0272725,0.00864556,0.0299604,-0.000536017,1.26937,0.0201546,0.0258999,2001,981,45.3771,-6.83278
784,43,46.1697,7.79041,0.00515505,0.0338825,0.011523,0.0379333,0.00110424,1.23275,0.024929,0.0441051,2008,981,46.1696,-7.79038
791,43,46.6243,8.95245,0.00928651,0.0408212,0.0146834,0.0465994,0.00350831,1.19589,0.0299653,0.0465614,2015,981,46.6243,-8.95245
798,43,46.8081,10.2055,0.0143174,0.0477423,0.0177929,0.0554407,0.00661894,1.16245,0.0349636,0.0466124,2022,981,46.808,-10.2055
805,43,47.5466,12.0261,0,0,0,0,0,0,0,-1,2029,981,47.5467,-12.0261
812,43,48.6609,13.8168,0,0,0,0,0,0,0,-1,2036,981,48.6609,-13.8168
-700,36,0,0,0,0,0,0,0,0,0,-1,524,988,0,0
-693,36,-37.2856,10.0479,0,0,0,0,0,0,0,-1,531,988,-37.2856,-10.0478
-686,36,-36.4701,9.85272,0,0,0,0,0,0,0,-1,538,988,-36.4701,-9.85273
-679,36,-34.8585,0.663086,0,0,0,0,0,0,0,-1,545,988,-34.8585,-0.66307
-672,36,-31.6889,3.40228,0,0,0,0,0,0,0,-1,552,988,-31.6889,-3.4023
-665,36,-32.6341,-0.29657,0,0,0,0,0,0,0,-1,559,988,-32.6341,0.296552
-658,36,-34.3322,4.13678,0,0,0,0,0,0,0,-1,566,988,-34.3322,-4.13679
-651,36,-34.3549,3.87634,0.00426555,0.028889,-0.00783659,0.0311715,0.00198307,-1.28738,0.0201525,0.0406316,573,988,-34.3549,-3.87635
-644,36,-34.4034,3.70691,0.00274481,0.0229106,-0.00362649,0.0235429,0.00211247,-1.39817,0.0150407,0.0266682,580,988,-34.4034,-3.70694
-637,36,-34.4992,3.55829,0.00166691,0.0170688,-0.000671294,0.017098,0.00163771,-1.52732,0.0108939,0.0214452,587,988,-34.4992,-3.5583
-630,36,-34.5078,3.47449,0.000695082,0.0124947,0.00023604,0.0124994,0.000690361,1.5508,0.00811262,0.0159532,594,988,-34.5078,-3.47446
-623,36,-34.5268,3.36737,-0.000361175,0.0095277,-0.000359486,0.00954075,-0.000374226,-1.53451,0.00648884,0.0132192,601,988,-34.5268,-3.36739
-616,36,-34.5097,3.2251,-0.00141568,0.00705544,-0.00147824,0.00730599,-0.00166623,-1.4029,0.00551069,0.010841,608,988,-34.5097,-3.22511
-609,36,-34.4816,3.09167,-0.00226522,0.00563536,-0.00332404,0.00684783,-0.00347768,-1.22104,0.00606636,0.0149354,615,988,-34.4816,-3.0917
-602,36,-34.499,2.90552,-0.00242456,0.00472136,-0.00528046,0.00752408,-0.00522728,-1.08284,0.0074017,0.0184877,622,988,-34.499,-2.90553
-595,36,-34.6339,2.96985,0,0,0,0,0,0,0,-1,629,988,-34.6339,-2.96982
-588,36,-34.5194,2.05524,-0.00198228,0.00263547,-0.00715237,0.0078424,-0.0071892,-0.941524,0.00868123,0.0298125,636,988,-34.5194,-2.05524
-581,36,-34.4047,1.22949,-0.00176005,0.00197624,-0.00740625,0.00774633,-0.00753013,-0.90894,0.00882016,0.034597,643,988,-34.4046,-1.2295
-574,36,-34.3952,1.04962,-0.0016635,0.0013098,-0.00721527,0.00718998,-0.00754369,-0.886998,0.0085073,0.0331623,650,988,-34.3952,-1.04963
-567,36,-34.4075,1.0448,-0.00158083,0.00090808,-0.00634447,0.00612899,-0.00680174,-0.882243,0.00746893,0.0365517,657,988,-34.4075,-1.04479
-560,36,-34.4045,0.981506,-0.00129146,0.000360577,-0.00471099,0.00431742,-0.0052483,-0.872185,0.00553148,0.0395177,664,988,-34.4046,-0.981537
-553,36,-34.4099,0.931824,-0.000768127,-0.000483008,-0.00232952,0.00170831,-0.00295945,-0.815958,0.00272701,0.0440574,671,988,-34.4099,-0.931827
-546,36,-34.4045,0.882019,3.45578e-05,-0.00185206,0.000778201,0.000314126,-0.00213162,0.344891,0.00153653,0.0451976,678,988,-34.4045,-0.882041
-539,36,-34.2482,0.93457,0.000970553,-0.00379304,0.00424955,0.00346027,-0.00628276,0.529971,0.00570328,0.0423504,685,988,-34.2482,-0.934556
-532,36,-34.0826,1.11902,0.00214096,-0.00608902,0.00686068,0.0060261,-0.00997416,0.515264,0.00933102,0.0445061,692,988,-34.0826,-1.11901
-525,36,-34.1179,1.35022,0.00177301,-0.00828811,0.00816739,0.00633478,-0.0128499,0.509372,0.0112872,0.0477897,699,988,-34.1179,-1.35021
-518,36,0,0,0,0,0,0,0,0,0,-1,706,988,0,0
-511,36,0,0,0,0,0,0,0,0,0,-1,713,988,0,0
-504,36,0,0,0,0,0,0,0,0,0,-1,720,988,0,0
-497,36,0,0,0,0,0,0,0,0,0,-1,727,988,0,0
-490,36,0,0,0,0,0,0,0,0,0,-1,734,988,0,0
-483,36,0,0,0,0,0,0,0,0,0,-1,741,988,0,0
-476,36,0,0,0,0,0,0,0,0,0,-1,748,988,0,0
-469,36,0,0,0,0,0,0,0,0,0,-1,755,988,0,0
-462,36,0,0,0,0,0,0,0,0,0,-1,762,988,0,0
-455,36,0,0,0,0,0,0,0,0,0,-1,769,988,0,0
-448,36,0,0,0,0,0,0,0,0,0,-1,776,988,0,0
-441,36,0,0,0,0,0,0,0,0,0,-1,783,988,0,0
-434,36,0,0,0,0,0,0,0,0,0,-1,790,988,0,0
-427,36,0,0,0,0,0,0,0,0,0,-1,797,988,0,0
-420,36,0,0,0,0,0,0,0,0,0,-1,804,988,0,0
-413,36,0,0,0,0,0,0,0,0,0,-1,811,988,0,0
-406,36,0,0,0,0,0,0,0,0,0,-1,818,988,0,0
-399,36,0,0,0,0,0,0,0,0,0,-1,825,988,0,0
-392,36,0,0,0,0,0,0,0,0,0,-1,832,988,0,0
-385,36,0,0,0,0,0,0,0,0,0,-1,839,988,0,0
-378,36,0,0,0,0,0,0,0,0,0,-1,846,988,0,0
-371,36,0,0,0,0,0,0,0,0,0,-1,853,988,0,0
-364,36,0,0,0,0,0,0,0,0,0,-1,860,988,0,0
-357,36,0,0,0,0,0,0,0,0,0,-1,867,988,0,0
-350,36,0,0,0,0,0,0,0,0,0,-1,874,988,0,0
-343,36,0,0,0,0,0,0,0,0,0,-1,881,988,0,0
-336,36,0,0,0,0,0,0,0,0,0,-1,888,988,0,0
-329,36,0,0,0,0,0,0,0,0,0,-1,895,988,0,0
-322,36,0,0,0,0,0,0,0,0,0,-1,902,988,0,0
-315,36,0,0,0,0,0,0,0,0,0,-1,909,988,0,0
-308,36,0,0,0,0,0,0,0,0,0,-1,916,988,0,0
-301,36,0,0,0,0,0,0,0,0,0,-1,923,988,0,0
-294,36,0,0,0,0,0,0,0,0,0,-1,930,988,0,0
-287,36,0,0,0,0,0,0,0,0,0,-1,937,988,0,0
-280,36,0,0,0,0,0,0,0,0,0,-1,944,988,0,0
-273,36,0,0,0,0,0,0,0,0,0,-1,951,988,0,0
-266,36,0,0,0,0,0,0,0,0,0,-1,958,988,0,0
-259,36,0,0,0,0,0,0,0,0,0,-1,965,988,0,0
-252,36,0,0,0,0,0,0,0,0,0,-1,972,988,0,0
-245,36,0,0,0,0,0,0,0,0,0,-1,979,988,0,0
-238,36,0,0,0,0,0,0,0,0,0,-1,986,988,0,0
-231,36,0,0,0,0,0,0,0,0,0,-1,993,988,0,0
-224,36,0,0,0,0,0,0,0,0,0,-1,1000,988,0,0
-217,36,0,0,0,0,0,0,0,0,0,-1,1007,988,0,0
-210,36,0,0,0,0,0,0,0,0,0,-1,1014,988,0,0
-203,36,0,0,0,0,0,0,0,0,0,-1,1021,988,0,0
-196,36,0,0,0,0,0,0,0,0,0,-1,1028,988,0,0
-189,36,0,0,0,0,0,0,0,0,0,-1,1035,988,0,0
-182,36,0,0,0,0,0,0,0,0,0,-1,1042,988,0,0
-175,36,0,0,0,0,0,0,0,0,0,-1,1049,988,0,0
-168,36,0,0,0,0,0,0,0,0,0,-1,1056,988,0,0
-161,36,0,0,0,0,0,0,0,0,0,-1,1063,988,0,0
-154,36,0,0,0,0,0,0,0,0,0,-1,1070,988,0,0
-147,36,0,0,0,0,0,0,0,0,0,-1,1077,988,0,0
-140,36,0,0,0,0,0,0,0,0,0,-1,1084,988,0,0
-133,36,0,0,0,0,0,0,0,0,0,-1,1091,988,0,0
-126,36,0,0,0,0,0,0,0,0,0,-1,1098,988,0,0
-119,36,0,0,0,0,0,0,0,0,0,-1,1105,988,0,0
-112,36,0,0,0,0,0,0,0,0,0,-1,1112,988,0,0
-105,36,0,0,0,0,0,0,0,0,0,-1,1119,988,0,0
-98,36,0,0,0,0,0,0,0,0,0,-1,1126,988,0,0
-91,36,0,0,0,0,0,0,0,0,0,-1,1133,988,0,0
-84,36,0,0,0,0,0,0,0,0,0,-1,1140,988,0,0
-77,36,0,0,0,0,0,0,0,0,0,-1,1147,988,0,0
-70,36,0,0,0,0,0,0,0,0,0,-1,1154,988,0,0
-63,36,0,0,0,0,0,0,0,0,0,-1,1161,988,0,0
-56,36,0,0,0,0,0,0,0,0,0,-1,1168,988,0,0
-49,36,0,0,0,0,0,0,0,0,0,-1,1175,988,0,0
-42,36,0,0,0,0,0,0,0,0,0,-1,1182,988,0,0
-35,36,0,0,0,0,0,0,0,0,0,-1,1189,988,0,0
-28,36,0,0,0,0,0,0,0,0,0,-1,1196,988,0,0
-21,36,0,0,0,0,0,0,0,0,0,-1,1203,988,0,0
-14,36,0,0,0,0,0,0,0,0,0,-1,1210,988,0,0
-7,36,0,0,0,0,0,0,0,0,0,-1,1217,988,0,0
0,36,0,0,0,0,0,0,0,0,0,-1,1224,988,0,0
7,36,0,0,0,0,0,0,0,0,0,-1,1231,988,0,0
14,36,0,0,0,0,0,0,0,0,0,-1,1238,988,0,0
21,36,0,0,0,0,0,0,0,0,0,-1,1245,988,0,0
28,36,0,0,0,0,0,0,0,0,0,-1,1252,988,0,0
35,36,0,0,0,0,0,0,0,0,0,-1,1259,988,0,0
42,36,0,0,0,0,0,0,0,0,0,-1,1266,988,0,0
49,36,0,0,0,0,0,0,0,0,0,-1,1273,988,0,0
56,36,0,0,0,0,0,0,0,0,0,-1,1280,988,0,0
63,36,0,0,0,0,0,0,0,0,0,-1,1287,988,0,0
70,36,0,0,0,0,0,0,0,0,0,-1,1294,988,0,0
77,36,0,0,0,0,0,0,0,0,0,-1,1301,988,0,0
84,36,0,0,0,0,0,0,0,0,0,-1,1308,988,0,0
91,36,0,0,0,0,0,0,0,0,0,-1,1315,988,0,0
98,36,0,0,0,0,0,0,0,0,0,-1,1322,988,0,0
105,36,0,0,0,0,0,0,0,0,0,-1,1329,988,0,0
112,36,0,0,0,0,0,0,0,0,0,-1,1336,988,0,0
119,36,0,0,0,0,0,0,0,0,0,-1,1343,988,0,0
126,36,0,0,0,0,0,0,0,0,0,-1,1350,988,0,0
133,36,0,0,0,0,0,0,0,0,0,-1,1357,988,0,0
140,36,0,0,0,0,0,0,0,0,0,-1,1364,988,0,0
147,36,0,0,0,0,0,0,0,0,0,-1,1371,988,0,0
154,36,0,0,0,0,0,0,0,0,0,-1,1378,988,0,0
161,36,0,0,0,0,0,0,0,0,0,-1,1385,988,0,0
168,36,0,0,0,0,0,0,0,0,0,-1,1392,988,0,0
175,36,0,0,0,0,0,0,0,0,0,-1,1399,988,0,0
182,36,0,0,0,0,0,0,0,0,0,-1,1406,988,0,0
189,36,0,0,0,0,0,0,0,0,0,-1,1413,988,0,0
196,36,0,0,0,0,0,0,0,0,0,-1,1420,988,0,0
203,36,0,0,0,0,0,0,0,0,0,-1,1427,988,0,0
210,36,0,0,0,0,0,0,0,0,0,-1,1434,988,0,0
217,36,0,0,0,0,0,0,0,0,0,-1,1441,988,0,0
224,36,0,0,0,0,0,0,0,0,0,-1,1448,988,0,0
231,36,0,0,0,0,0,0,0,0,0,-1,1455,988,0,0
238,36,0,0,0,0,0,0,0,0,0,-1,1462,988,0,0
245,36,0,0,0,0,0,0,0,0,0,-1,1469,988,0,0
252,36,0,0,0,0,0,0,0,0,0,-1,1476,988,0,0
259,36,0,0,0,0,0,0,0,0,0,-1,1483,988,0,0
266,36,0,0,0,0,0,0,0,0,0,-1,1490,988,0,0
273,36,0,0,0,0,0,0,0,0,0,-1,1497,988,0,0
280,36,0,0,0,0,0,0,0,0,0,-1,1504,988,0,0
287,36,0,0,0,0,0,0,0,0,0,-1,1511,988,0,0
294,36,0,0,0,0,0,0,0,0,0,-1,1518,988,0,0
301,36,0,0,0,0,0,0,0,0,0,-1,1525,988,0,0
308,36,0,0,0,0,0,0,0,0,0,-1,1532,988,0,0
315,36,0,0,0,0,0,0,0,0,0,-1,1539,988,0,0
322,36,0,0,0,0,0,0,0,0,0,-1,1546,988,0,0
329,36,0,0,0,0,0,0,0,0,0,-1,1553,988,0,0
336,36,0,0,0,0,0,0,0,0,0,-1,1560,988,0,0
343,36,0,0,0,0,0,0,0,0,0,-1,1567,988,0,0
350,36,0,0,0,0,0,0,0,0,0,-1,1574,988,0,0
357,36,0,0,0,0,0,0,0,0,0,-1,1581,988,0,0
364,36,0,0,0,0,0,0,0,0,0,-1,1588,988,0,0
371,36,0,0,0,0,0,0,0,0,0,-1,1595,988,0,0
378,36,0,0,0,0,0,0,0,0,0,-1,1602,988,0,0
385,36,0,0,0,0,0,0,0,0,0,-1,1609,988,0,0
392,36,0,0,0,0,0,0,0,0,0,-1,1616,988,0,0
399,36,0,0,0,0,0,0,0,0,0,-1,1623,988,0,0
406,36,0,0,0,0,0,0,0,0,0,-1,1630,988,0,0
413,36,0,0,0,0,0,0,0,0,0,-1,1637,988,0,0
420,36,0,0,0,0,0,0,0,0,0,-1,1644,988,0,0
427,36,0,0,0,0,0,0,0,0,0,-1,1651,988,0,0
434,36,0,0,0,0,0,0,0,0,0,-1,1658,988,0,0
441,36,0,0,0,0,0,0,0,0,0,-1,1665,988,0,0
448,36,0,0,0,0,0,0,0,0,0,-1,1672,988,0,0
455,36,0,0,0,0,0,0,0,0,0,-1,1679,988,0,0
462,36,0,0,0,0,0,0,0,0,0,-1,1686,988,0,0
469,36,0,0,0,0,0,0,0,0,0,-1,1693,988,0,0
476,36,0,0,0,0,0,0,0,0,0,-1,1700,988,0,0
483,36,0,0,0,0,0,0,0,0,0,-1,1707,988,0,0
490,36,0,0,0,0,0,0,0,0,0,-1,1714,988,0,0
497,36,0,0,0,0,0,0,0,0,0,-1,1721,988,0,0
504,36,0,0,0,0,0,0,0,0,0,-1,1728,988,0,0
511,36,0,0,0,0,0,0,0,0,0,-1,1735,988,0,0
518,36,0,0,0,0,0,0,0,0,0,-1,1742,988,0,0
525,36,0,0,0,0,0,0,0,0,0,-1,1749,988,0,0
532,36,0,0,0,0,0,0,0,0,0,-1,1756,988,0,0
539,36,0,0,0,0,0,0,0,0,0,-1,1763,988,0,0
546,36,0,0,0,0,0,0,0,0,0,-1,1770,988,0,0
553,36,0,0,0,0,0,0,0,0,0,-1,1777,988,0,0
560,36,0,0,0,0,0,0,0,0,0,-1,1784,988,0,0
567,36,0,0,0,0,0,0,0,0,0,-1,1791,988,0,0
574,36,0,0,0,0,0,0,0,0,0,-1,1798,988,0,0
581,36,0,0,0,0,0,0,0,0,0,-1,1805,988,0,0
588,36,0,0,0,0,0,0,0,0,0,-1,1812,988,0,0
595,36,0,0,0,0,0,0,0,0,0,-1,1819,988,0,0
602,36,0,0,0,0,0,0,0,0,0,-1,1826,988,0,0
609,36,0,0,0,0,0,0,0,0,0,-1,1833,988,0,0
616,36,0,0,0,0,0,0,0,0,0,-1,1840,988,0,0
623,36,0,0,0,0,0,0,0,0,0,-1,1847,988,0,0
630,36,0,0,0,0,0,0,0,0,0,-1,1854,988,0,0
637,36,0,0,0,0,0,0,0,0,0,-1,1861,988,0,0
644,36,46.2941,2.92163,0.00811027,0.0033612,0.00168447,0.00864707,0.0028244,0.3085,0.00509144,0.0423837,1868,988,46.2941,-2.9216
651,36,46.3333,2.96814,0.00603739,0.00200131,0.000886557,0.00622355,0.00181515,0.206966,0.00369568,0.0404661,1875,988,46.3333,-2.96813
658,36,46.5095,3.03918,0.00426342,0.0011903,0.000448995,0.00432768,0.00112604,0.142146,0.00259261,0.0394189,1882,988,46.5095,-3.0392
665,36,46.7083,2.99475,0.00272061,0.00093308,0.000510288,0.00285603,0.000797667,0.259389,0.00170163,0.0367155,1889,988,46.7082,-2.99476
672,36,46.6084,2.78662,0.00135162,0.000975523,0.000895594,0.0020787,0.000248449,0.681915,0.00131085,0.0372625,1896,988,46.6084,-2.78661
679,36,46.4923,2.71161,0.000334707,0.00120151,0.00151702,0.00234582,-0.000809608,0.924537,0.00189239,0.0400562,1903,988,46.4923,-2.7116
686,36,46.4785,2.80048,-0.000231507,0.00131228,0.00208887,0.00276731,-0.00168653,0.96238,0.00259654,0.0383912,1910,988,46.4786,-2.80048
693,36,46.5612,2.83673,-0.000561726,0.00127191,0.00251707,0.00303393,-0.00232375,0.96005,0.00310231,0.0397149,1917,988,46.5611,-2.83673
700,36,46.5334,2.85992,-0.000906806,0.00140062,0.00264421,0.00313185,-0.00263804,0.991107,0.00333531,0.038031,1924,988,46.5335,-2.85993
707,36,46.48,2.84253,-0.00127385,0.00169192,0.0025649,0.00317175,-0.00275368,1.0475,0.00342388,0.0295244,1931,988,46.48,-2.84255
714,36,46.4296,3.23962,-0.00175261,0.00212918,0.00238994,0.00326707,-0.0028905,1.12644,0.00355729,0.0418872,1938,988,46.4296,-3.23964
721,36,45.9375,4.97345,0,0,0,0,0,0,0,-1,1945,988,45.9375,-4.97346
728,36,45.8564,5.30969,-0.00273839,0.00369495,0.00240047,0.00449191,-0.00353535,1.25025,0.0046455,0.0212075,1952,988,45.8565,-5.30971
735,36,45.8015,5.61633,-0.00265607,0.00466202,0.00265646,0.00552463,-0.00351868,1.25682,0.0052638,0.0190486,1959,988,45.8015,-5.61633
742,36,45.7621,5.75464,-0.0027253,0.0066391,0.00256249,0.00729444,-0.00338064,1.32042,0.00629982,0.0157982,1966,988,45.762,-5.75462
749,36,45.7506,5.95569,-0.00277931,0.0088394,0.00272774,0.00944793,-0.00338784,1.3513,0.00768111,0.0167851,1973,988,45.7506,-5.95566
756,36,45.7261,6.12836,-0.00264399,0.01162,0.00305418,0.0122464,-0.00327043,1.36849,0.00944508,0.0159939,1980,988,45.726,-6.12834
763,36,45.6597,6.28613,-0.00202565,0.0154158,0.00402265,0.0162989,-0.00290872,1.3547,0.011954,0.0185997,1987,988,45.6596,-6.28615
770,36,45.5952,6.48779,-0.000713638,0.0204104,0.00576431,0.021881,-0.00218422,1.32101,0.0153673,0.0165028,1994,988,45.5952,-6.4878
777,36,45.5325,6.77307,0.00135303,0.0260101,0.00809132,0.0284282,-0.00106504,1.2804,0.0193169,0.0261358,2001,988,45.5325,-6.77305
784,36,45.3689,7.27191,0.00423144,0.0319001,0.0108211,0.0356295,0.000502033,1.2389,0.0235875,0.046638,2008,988,45.3689,-7.27189
791,36,47.3997,8.64972,0,0,0,0,0,0,0,-1,2015,988,47.3996,-8.64975
798,36,47.603,9.95135,0,0,0,0,0,0,0,-1,2022,988,47.603,-9.95136
805,36,48.0229,12.2865,0,0,0,0,0,0,0,-1,2029,988,48.0229,-12.2865
812,36,47.6707,4.40308,0,0,0,0,0,0,0,-1,2036,988,47.6707,-4.40309
-700,29,0,0,0,0,0,0,0,0,0,-1,524,995,0,0
-693,29,-37.1563,8.74213,0,0,0,0,0,0,0,-1,531,995,-37.1562,-8.7421
-686,29,-36.5555,8.54102,0,0,0,0,0,0,0,-1,538,995,-36.5555,-8.54102
-679,29,-30.5887,-0.430847,0,0,0,0,0,0,0,-1,545,995,-30.5887,0.43085
-672,29,-30.1542,-0.506958,0,0,0,0,0,0,0,-1,552,995,-30.1542,0.50693
-665,29,-35.4118,1.4118,0,0,0,0,0,0,0,-1,559,995,-35.4118,-1.41181
-658,29,-33.002,-0.00506592,0,0,0,0,0,0,0,-1,566,995,-33.002,0.00505976
-651,29,-34.0811,2.90247,0,0,0,0,0,0,0,-1,573,995,-34.0811,-2.90244
-644,29,-34.4521,3.23633,0.00569557,0.0288522,-0.00723099,0.0309247,0.00362308,-1.29167,0.0195212,0.0437767,580,995,-34.4521,-3.23636
-637,29,-34.6563,3.40155,0.00417588,0.0210657,-0.0034157,0.0217303,0.00351126,-1.37862,0.0134699,0.0252176,587,995,-34.6563,-3.40152
-630,29,-34.6549,3.39014,0.00271874,0.0148572,-0.00170965,0.0150934,0.00248254,-1.43351,0.00934535,0.0136673,594,995,-34.6549,-3.39013
-623,29,-34.649,3.34271,0.0013145,0.0106572,-0.00162583,0.010932,0.00103966,-1.40333,0.00696736,0.0125407,601,995,-34.649,-3.34271
-616,29,-34.6793,3.23224,-3.17957e-05,0.00741691,-0.00230129,0.00807055,-0.000685427,-1.29406,0.00562278,0.0141749,608,995,-34.6793,-3.23223
-609,29,-34.7059,3.12878,-0.00103179,0.00545237,-0.00390574,0.0072863,-0.00286572,-1.13181,0.00604365,0.0195138,615,995,-34.706,-3.1288
-602,29,-34.7307,2.97736,-0.00118585,0.00436429,-0.00575042,0.00797423,-0.00479578,-1.01021,0.00744851,0.0199852,622,995,-34.7307,-2.97737
-595,29,-34.7309,3.04803,0,0,0,0,0,0,0,-1,629,995,-34.7309,-3.04802
-588,29,-34.5468,2.12689,-0.000586622,0.0021731,-0.00738008,0.00830121,-0.00671472,-0.877817,0.00868557,0.0367988,636,995,-34.5467,-2.12687
-581,29,-34.3373,1.4314,-0.00031106,0.00145591,-0.00752084,0.00814498,-0.00700013,-0.843866,0.00875235,0.0491997,643,995,-34.3373,-1.43137
-574,29,-34.3515,1.05798,-0.000261341,0.00071419,-0.00718063,0.0074236,-0.00697075,-0.81931,0.00831195,0.0370972,650,995,-34.3515,-1.05796
-567,29,-34.3947,0.953918,-0.000346656,0.000184486,-0.00611284,0.00603752,-0.0061997,-0.807107,0.00706537,0.0349375,657,995,-34.3947,-0.953907
-560,29,-34.522,0.876709,-0.000362873,-0.000498345,-0.00421194,0.00378188,-0.00464309,-0.777358,0.00487262,0.0386294,664,995,-34.522,-0.876737
-553,29,-34.5771,0.826782,-0.000319068,-0.00151739,-0.00149154,0.000689156,-0.00252562,-0.59441,0.00195439,0.0431042,671,995,-34.5771,-0.826799
-546,29,-34.4849,0.840576,-0.000140489,-0.00312266,0.00201313,0.000873622,-0.00413677,0.466643,0.00309049,0.04522,678,995,-34.4849,-0.840547
-539,29,-34.4514,1.11224,8.65763e-05,-0.00527436,0.00578099,0.0037783,-0.00896608,0.568317,0.00755844,0.0426142,685,995,-34.4513,-1.11227
-532,29,-34.4142,1.27679,0.000683422,-0.00774117,0.00842732,0.00589254,-0.0129503,0.553639,0.0111304,0.0452593,692,995,-34.4142,-1.27679
-525,29,-34.2883,1.48804,7.65082e-05,-0.00997577,0.00971273,0.00598651,-0.0158858,0.546632,0.013052,0.0457008,699,995,-34.2883,-1.48803
-518,29,0,0,0,0,0,0,0,0,0,-1,706,995,0,0
-511,29,0,0,0,0,0,0,0,0,0,-1,713,995,0,0
-504,29,0,0,0,0,0,0,0,0,0,-1,720,995,0,0
-497,29,0,0,0,0,0,0,0,0,0,-1,727,995,0,0
-490,29,0,0,0,0,0,0,0,0,0,-1,734,995,0,0
-483,29,0,0,0,0,0,0,0,0,0,-1,741,995,0,0
-476,29,0,0,0,0,0,0,0,0,0,-1,748,995,0,0
-469,29,0,0,0,0,0,0,0,0,0,-1,755,995,0,0
-462,29,0,0,0,0,0,0,0,0,0,-1,762,995,0,0
-455,29,0,0,0,0,0,0,0,0,0,-1,769,995,0,0
-448,29,0,0,0,0,0,0,0,0,0,-1,776,995,0,0
-441,29,0,0,0,0,0,0,0,0,0,-1,783,995,0,0
-434,29,0,0,0,0,0,0,0,0,0,-1,790,995,0,0
-427,29,0,0,0,0,0,0,0,0,0,-1,797,995,0,0
-420,29,0,0,0,0,0,0,0,0,0,-1,804,995,0,0
-413,29,0,0,0,0,0,0,0,0,0,-1,811,995,0,0
-406,29,0,0,0,0,0,0,0,0,0,-1,818,995,0,0
-399,29,0,0,0,0,0,0,0,0,0,-1,825,995,0,0
-392,29,0,0,0,0,0,0,0,0,0,-1,832,995,0,0
-385,29,0,0,0,0,0,0,0,0,0,-1,839,995,0,0
-378,29,0,0,0,0,0,0,0,0,0,-1,846,995,0,0
-371,29,0,0,0,0,0,0,0,0,0,-1,853,995,0,0
-364,29,0,0,0,0,0,0,0,0,0,-1,860,995,0,0
-357,29,0,0,0,0,0,0,0,0,0,-1,867,995,0,0
-350,29,0,0,0,0,0,0,0,0,0,-1,874,995,0,0
-343,29,0,0,0,0,0,0,0,0,0,-1,881,995,0,0
-336,29,0,0,0,0,0,0,0,0,0,-1,888,995,0,0
-329,29,0,0,0,0,0,0,0,0,0,-1,895,995,0,0
-322,29,0,0,0,0,0,0,0,0,0,-1,902,995,0,0
-315,29,0,0,0,0,0,0,0,0,0,-1,909,995,0,0
-308,29,0,0,0,0,0,0,0,0,0,-1,916,995,0,0
-301,29,0,0,0,0,0,0,0,0,0,-1,923,995,0,0
-294,29,0,0,0,0,0,0,0,0,0,-1,930,995,0,0
-287,29,0,0,0,0,0,0,0,0,0,-1,937,995,0,0
-280,29,0,0,0,0,0,0,0,0,0,-1,944,995,0,0
-273,29,0,0,0,0,0,0,0,0,0,-1,951,995,0,0
-266,29,0,0,0,0,0,0,0,0,0,-1,958,995,0,0
-259,29,0,0,0,0,0,0,0,0,0,-1,965,995,0,0
-252,29,0,0,0,0,0,0,0,0,0,-1,972,995,0,0
-245,29,0,0,0,0,0,0,0,0,0,-1,979,995,0,0
-238,29,0,0,0,0,0,0,0,0,0,-1,986,995,0,0
-231,29,0,0,0,0,0,0,0,0,0,-1,993,995,0,0
-224,29,0,0,0,0,0,0,0,0,0,-1,1000,995,0,0
-217,29,0,0,0,0,0,0,0,0,0,-1,1007,995,0,0
-210,29,0,0,0,0,0,0,0,0,0,-1,1014,995,0,0
-203,29,0,0,0,0,0,0,0,0,0,-1,1021,995,0,0
-196,29,0,0,0,0,0,0,0,0,0,-1,1028,995,0,0
-189,29,0,0,0,0,0,0,0,0,0,-1,1035,995,0,0
-182,29,0,0,0,0,0,0,0,0,0,-1,1042,995,0,0
-175,29,0,0,0,0,0,0,0,0,0,-1,1049,995,0,0
-168,29,0,0,0,0,0,0,0,0,0,-1,1056,995,0,0
-161,29,0,0,0,0,0,0,0,0,0,-1,1063,995,0,0
-154,29,0,0,0,0,0,0,0,0,0,-1,1070,995,0,0
-147,29,0,0,0,0,0,0,0,0,0,-1,1077,995,0,0
-140,29,0,0,0,0,0,0,0,0,0,-1,1084,995,0,0
-133,29,0,0,0,0,0,0,0,0,0,-1,1091,995,0,0
-126,29,0,0,0,0,0,0,0,0,0,-1,1098,995,0,0
-119,29,0,0,0,0,0,0,0,0,0,-1,1105,995,0,0
-112,29,0,0,0,0,0,0,0,0,0,-1,1112,995,0,0
-105,29,0,0,0,0,0,0,0,0,0,-1,1119,995,0,0
-98,29,0,0,0,0,0,0,0,0,0,-1,1126,995,0,0
-91,29,0,0,0,0,0,0,0,0,0,-1,1133,995,0,0
-84,29,0,0,0,0,0,0,0,0,0,-1,1140,995,0,0
-77,29,0,0,0,0,0,0,0,0,0,-1,1147,995,0,0
-70,29,0,0,0,0,0,0,0,0,0,-1,1154,995,0,0
-63,29,0,0,0,0,0,0,0,0,0,-1,1161,995,0,0
-56,29,0,0,0,0,0,0,0,0,0,-1,1168,995,0,0
-49,29,0,0,0,0,0,0,0,0,0,-1,1175,995,0,0
-42,29,0,0,0,0,0,0,0,0,0,-1,1182,995,0,0
-35,29,0,0,0,0,0,0,0,0,0,-1,1189,995,0,0
-28,29,0,0,0,0,0,0,0,0,0,-1,1196,995,0,0
-21,29,0,0,0,0,0,0,0,0,0,-1,1203,995,0,0
-14,29,0,0,0,0,0,0,0,0,0,-1,1210,995,0,0
-7,29,0,0,0,0,0,0,0,0,0,-1,1217,995,0,0
0,29,0,0,0,0,0,0,0,0,0,-1,1224,995,0,0
7,29,0,0,0,0,0,0,0,0,0,-1,1231,995,0,0
14,29,0,0,0,0,0,0,0,0,0,-1,1238,995,0,0
21,29,0,0,0,0,0,0,0,0,0,-1,1245,995,0,0
28,29,0,0,0,0,0,0,0,0,0,-1,1252,995,0,0
35,29,0,0,0,0,0,0,0,0,0,-1,1259,995,0,0
42,29,0,0,0,0,0,0,0,0,0,-1,1266,995,0,0
49,29,0,0,0,0,0,0,0,0,0,-1,1273,995,0,0
56,29,0,0,0,0,0,0,0,0,0,-1,1280,995,0,0
63,29,0,0,0,0,0,0,0,0,0,-1,1287,995,0,0
70,29,0,0,0,0,0,0,0,0,0,-1,1294,995,0,0
77,29,0,0,0,0,0,0,0,0,0,-1,1301,995,0,0
84,29,0,0,0,0,0,0,0,0,0,-1,1308,995,0,0
91,29,0,0,0,0,0,0,0,0,0,-1,1315,995,0,0
98,29,0,0,0,0,0,0,0,0,0,-1,1322,995,0,0
105,29,0,0,0,0,0,0,0,0,0,-1,1329,995,0,0
112,29,0,0,0,0,0,0,0,0,0,-1,1336,995,0,0
119,29,0,0,0,0,0,0,0,0,0,-1,1343,995,0,0
126,29,0,0,0,0,0,0,0,0,0,-1,1350,995,0,0
133,29,0,0,0,0,0,0,0,0,0,-1,1357,995,0,0
140,29,0,0,0,0,0,0,0,0,0,-1,1364,995,0,0
147,29,0,0,0,0,0,0,0,0,0,-1,1371,995,0,0
154,29,0,0,0,0,0,0,0,0,0,-1,1378,995,0,0
161,29,0,0,0,0,0,0,0,0,0,-1,1385,995,0,0
168,29,0,0,0,0,0,0,0,0,0,-1,1392,995,0,0
175,29,0,0,0,0,0,0,0,0,0,-1,1399,995,0,0
182,29,0,0,0,0,0,0,0,0,0,-1,1406,995,0,0
189,29,0,0,0,0,0,0,0,0,0,-1,1413,995,0,0
196,29,0,0,0,0,0,0,0,0,0,-1,1420,995,0,0
203,29,0,0,0,0,0,0,0,0,0,-1,1427,995,0,0
210,29,0,0,0,0,0,0,0,0,0,-1,1434,995,0,0
217,29,0,0,0,0,0,0,0,0,0,-1,1441,995,0,0
224,29,0,0,0,0,0,0,0,0,0,-1,1448,995,0,0
231,29,0,0,0,0,0,0,0,0,0,-1,1455,995,0,0
238,29,0,0,0,0,0,0,0,0,0,-1,1462,995,0,0
245,29,0,0,0,0,0,0,0,0,0,-1,1469,995,0,0
252,29,0,0,0,0,0,0,0,0,0,-1,1476,995,0,0
259,29,0,0,0,0,0,0,0,0,0,-1,1483,995,0,0
266,29,0,0,0,0,0,0,0,0,0,-1,1490,995,0,0
273,29,0,0,0,0,0,0,0,0,0,-1,1497,995,0,0
280,29,0,0,0,0,0,0,0,0,0,-1,1504,995,0,0
287,29,0,0,0,0,0,0,0,0,0,-1,1511,995,0,0
294,29,0,0,0,0,0,0,0,0,0,-1,1518,995,0,0
301,29,0,0,0,0,0,0,0,0,0,-1,1525,995,0,0
308,29,0,0,0,0,0,0,0,0,0,-1,1532,995,0,0
315,29,0,0,0,0,0,0,0,0,0,-1,1539,995,0,0
322,29,0,0,0,0,0,0,0,0,0,-1,1546,995,0,0
329,29,0,0,0,0,0,0,0,0,0,-1,1553,995,0,0
336,29,0,0,0,0,0,0,0,0,0,-1,1560,995,0,0
343,29,0,0,0,0,0,0,0,0,0,-1,1567,995,0,0
350,29,0,0,0,0,0,0,0,0,0,-1,1574,995,0,0
357,29,0,0,0,0,0,0,0,0,0,-1,1581,995,0,0
364,29,0,0,0,0,0,0,0,0,0,-1,1588,995,0,0
371,29,0,0,0,0,0,0,0,0,0,-1,1595,995,0,0
378,29,0,0,0,0,0,0,0,0,0,-1,1602,995,0,0
385,29,0,0,0,0,0,0,0,0,0,-1,1609,995,0,0
392,29,0,0,0,0,0,0,0,0,0,-1,1616,995,0,0
399,29,0,0,0,0,0,0,0,0,0,-1,1623,995,0,0
406,29,0,0,0,0,0,0,0,0,0,-1,1630,995,0,0
413,29,0,0,0,0,0,0,0,0,0,-1,1637,995,0,0
420,29,0,0,0,0,0,0,0,0,0,-1,1644,995,0,0
427,29,0,0,0,0,0,0,0,0,0,-1,1651,995,0,0
434,29,0,0,0,0,0,0,0,0,0,-1,1658,995,0,0
441,29,0,0,0,0,0,0,0,0,0,-1,1665,995,0,0
448,29,0,0,0,0,0,0,0,0,0,-1,1672,995,0,0
455,29,0,0,0,0,0,0,0,0,0,-1,1679,995,0,0
462,29,0,0,0,0,0,0,0,0,0,-1,1686,995,0,0
469,29,0,0,0,0,0,0,0,0,0,-1,1693,995,0,0
476,29,0,0,0,0,0,0,0,0,0,-1,1700,995,0,0
483,29,0,0,0,0,0,0,0,0,0,-1,1707,995,0,0
490,29,0,0,0,0,0,0,0,0,0,-1,1714,995,0,0
497,29,0,0,0,0,0,0,0,0,0,-1,1721,995,0,0
504,29,0,0,0,0,0,0,0,0,0,-1,1728,995,0,0
511,29,0,0,0,0,0,0,0,0,0,-1,1735,995,0,0
518,29,0,0,0,0,0,0,0,0,0,-1,1742,995,0,0
525,29,0,0,0,0,0,0,0,0,0,-1,1749,995,0,0
532,29,0,0,0,0,0,0,0,0,0,-1,1756,995,0,0
539,29,0,0,0,0,0,0,0,0,0,-1,1763,995,0,0
546,29,0,0,0,0,0,0,0,0,0,-1,1770,995,0,0
553,29,0,0,0,0,0,0,0,0,0,-1,1777,995,0,0
560,29,0,0,0,0,0,0,0,0,0,-1,1784,995,0,0
567,29,0,0,0,0,0,0,0,0,0,-1,1791,995,0,0
574,29,0,0,0,0,0,0,0,0,0,-1,1798,995,0,0
581,29,0,0,0,0,0,0,0,0,0,-1,1805,995,0,0
588,29,0,0,0,0,0,0,0,0,0,-1,1812,995,0,0
595,29,0,0,0,0,0,0,0,0,0,-1,1819,995,0,0
602,29,0,0,0,0,0,0,0,0,0,-1,1826,995,0,0
609,29,0,0,0,0,0,0,0,0,0,-1,1833,995,0,0
616,29,0,0,0,0,0,0,0,0,0,-1,1840,995,0,0
623,29,0,0,0,0,0,0,0,0,0,-1,1847,995,0,0
630,29,0,0,0,0,0,0,0,0,0,-1,1854,995,0,0
637,29,0,0,0,0,0,0,0,0,0,-1,1861,995,0,0
644,29,46.3206,2.7832,0.00900989,0.00401713,0.002477,0.0100302,0.00299677,0.390751,0.00594524,0.0422759,1868,995,46.3205,-2.78322
651,29,46.3458,2.92578,0.0067573,0.0026414,0.00135325,0.00716237,0.00223633,0.29084,0.00423127,0.0424117,1875,995,46.3458,-2.9258
658,29,46.4037,3.32355,0.00481755,0.00172494,0.000645948,0.00494704,0.00159545,0.197851,0.00291555,0.043495,1882,995,46.4037,-3.32354
665,29,46.543,3.19104,0.00315392,0.00134394,0.000504502,0.00328504,0.00121282,0.25428,0.00191813,0.0407348,1889,995,46.543,-3.19104
672,29,46.5066,2.91663,0.00169431,0.00127457,0.000737137,0.00225087,0.000718007,0.646711,0.00132762,0.0387791,1896,995,46.5066,-2.91664
679,29,46.4683,2.789,0.000577842,0.00143782,0.00127244,0.00235096,-0.000335298,0.948337,0.0016902,0.0395553,1903,995,46.4683,-2.78898
686,29,46.4358,2.8847,-8.74104e-05,0.00150776,0.00182524,0.00270207,-0.00128172,0.991382,0.00234827,0.0383434,1910,995,46.4358,-2.8847
693,29,46.5466,2.84003,-0.00047667,0.00145105,0.00227734,0.0029601,-0.00198572,0.985587,0.00287389,0.0376534,1917,995,46.5467,-2.84005
700,29,46.504,2.9151,-0.000832403,0.00153949,0.00244555,0.00307148,-0.0023644,1.01116,0.00314724,0.0347237,1924,995,46.504,-2.9151
707,29,46.4377,2.90045,-0.00122248,0.00179908,0.00243328,0.00315245,-0.00257584,1.06321,0.00331281,0.0244465,1931,995,46.4378,-2.90044
714,29,46.4115,3.30316,-0.00173305,0.00220749,0.00232036,0.00328124,-0.0028068,1.13739,0.00351849,0.0421701,1938,995,46.4115,-3.30315
721,29,45.9526,5.16101,0,0,0,0,0,0,0,-1,1945,995,45.9526,-5.16101
728,29,45.9917,5.41608,-0.0028797,0.00375668,0.00235006,0.00450459,-0.0036276,1.26268,0.00470422,0.0266153,1952,995,45.9917,-5.41609
735,29,45.9789,5.66199,-0.00287473,0.00476732,0.00260839,0.00557273,-0.00368014,1.27131,0.00537927,0.0159414,1959,995,45.9788,-5.66197
742,29,45.9569,5.77875,-0.00302196,0.00666635,0.00250104,0.0072739,-0.00362951,1.33249,0.00641123,0.0135014,1966,995,45.9569,-5.77877
749,29,45.9323,5.94092,-0.00318005,0.0086995,0.00259203,0.00924043,-0.00372098,1.36506,0.00770612,0.013873,1973,995,45.9322,-5.94091
756,29,45.9121,6.10614,-0.00317363,0.0113042,0.00279417,0.0118247,-0.00369418,1.38661,0.00936075,0.0132802,1980,995,45.9122,-6.10616
763,29,45.868,6.21692,-0.00272877,0.014826,0.00355604,0.015519,-0.00342176,1.37833,0.0116552,0.0123961,1987,995,45.868,-6.21694
770,29,45.783,6.32391,-0.00161679,0.0194454,0.00500191,0.0205729,-0.0027443,1.34909,0.0147156,0.0153246,1994,995,45.783,-6.32393
777,29,45.7053,6.56207,0.00027567,0.0246069,0.00704986,0.026502,-0.00161939,1.3082,0.0182318,0.0263712,2001,995,45.7053,-6.56208
784,29,45.7485,6.87689,0.00294075,0.0298663,0.00946084,0.0328582,-5.10644e-05,1.26452,0.0219225,0.0452982,2008,995,45.7486,-6.87687
791,29,45.8108,7.15308,0.00667038,0.0348858,0.012213,0.0394377,0.0021184,1.21403,0.0256149,0.0470244,2015,995,45.8107,-7.1531
798,29,45.8738,7.35327,0,0,0,0,0,0,0,-1,2022,995,45.8738,-7.35326
805,29,46.8127,6.02765,0,0,0,0,0,0,0,-1,2029,995,46.8127,-6.02767
812,29,47.155,4.62274,0,0,0,0,0,0,0,-1,2036,995,47.1551,-4.62272
-700,22,0,0,0,0,0,0,0,0,0,-1,524,1002,0,0
-693,22,-36.7714,7.24072,0,0,0,0,0,0,0,-1,531,1002,-36.7714,-7.24073
-686,22,-36.9096,6.78827,0,0,0,0,0,0,0,-1,538,1002,-36.9096,-6.78824
-679,22,-31.8327,-0.319458,0,0,0,0,0,0,0,-1,545,1002,-31.8327,0.319487
-672,22,-36.0067,1.49127,0,0,0,0,0,0,0,-1,552,1002,-36.0066,-1.4913
-665,22,-35.4102,1.71545,0,0,0,0,0,0,0,-1,559,1002,-35.4102,-1.71545
-658,22,-34.7573,2.0141,0,0,0,0,0,0,0,-1,566,1002,-34.7573,-2.01412
-651,22,-33.9022,2.52057,0,0,0,0,0,0,0,-1,573,1002,-33.9022,-2.52057
-644,22,-34.4483,2.96143,0.00749111,0.0325573,-0.0100041,0.0360605,0.00398797,-1.23397,0.0228274,0.0391955,580,1002,-34.4483,-2.96145
-637,22,-34.79,3.27814,0.00578897,0.0234742,-0.0056053,0.0251011,0.00416204,-1.28831,0.0155337,0.0237388,587,1002,-34.7901,-3.27816
-630,22,-34.7563,3.3075,0.00412223,0.0161845,-0.00330685,0.0170316,0.00327514,-1.32003,0.0104354,0.0135175,594,1002,-34.7563,-3.30749
-623,22,-34.7693,3.26019,0.00256177,0.0111427,-0.00264232,0.0118911,0.0018134,-1.2948,0.00739741,0.0121106,601,1002,-34.7694,-3.26022
-616,22,-34.807,3.17719,0.00104838,0.00743244,-0.00290245,0.00855472,-7.39009e-05,-1.20184,0.00572794,0.0185231,608,1002,-34.807,-3.17717
-609,22,-34.8755,3.13391,-6.88284e-05,0.00514461,-0.00425032,0.0075239,-0.00244811,-1.06047,0.0060008,0.0268783,615,1002,-34.8755,-3.13388
-602,22,-34.9323,3.04144,-0.000269294,0.00399233,-0.00596351,0.00819428,-0.00447124,-0.956984,0.007417,0.0262912,622,1002,-34.9323,-3.04146
-595,22,-34.9264,2.56573,0,0,0,0,0,0,0,-1,629,1002,-34.9264,-2.56571
-588,22,-34.5609,2.12524,0.000483081,0.00177375,-0.00735677,0.00851343,-0.0062566,-0.829146,0.0085606,0.0434162,636,1002,-34.5609,-2.12524
-581,22,-34.2928,1.57733,0.000809244,0.00107882,-0.007391,0.00833626,-0.0064482,-0.794515,0.00855898,0.0490208,643,1002,-34.2929,-1.57735
-574,22,-34.358,1.01477,0.000816043,0.000358276,-0.00691814,0.00750908,-0.00633476,-0.768862,0.00800233,0.0373378,650,1002,-34.3579,-1.0148
-567,22,-34.3766,0.904846,0.00058779,-0.000173235,-0.00569504,0.00591501,-0.00550046,-0.75204,0.00659217,0.0332599,657,1002,-34.3766,-0.904867
-560,22,-34.4949,0.892273,0.000310955,-0.000835444,-0.00361101,0.00339398,-0.00391846,-0.706686,0.00422546,0.0374452,664,1002,-34.4949,-0.892267
-553,22,-34.5909,0.898193,-5.25707e-05,-0.00184125,-0.00067487,0.000173488,-0.00206731,-0.32322,0.00143952,0.0414801,671,1002,-34.5909,-0.898176
-546,22,-34.4252,1.15045,-0.000389537,-0.00346165,0.00306937,0.00150668,-0.00535787,0.553395,0.00416597,0.0431124,678,1002,-34.4252,-1.15043
-539,22,-34.6777,1.047,0,0,0,0,0,0,0,-1,685,1002,-34.6777,-1.04699
-532,22,-34.5773,1.27515,0,0,0,0,0,0,0,-1,692,1002,-34.5774,-1.27516
-525,22,0,0,0,0,0,0,0,0,0,-1,699,1002,0,0
-518,22,0,0,0,0,0,0,0,0,0,-1,706,1002,0,0
-511,22,0,0,0,0,0,0,0,0,0,-1,713,1002,0,0
-504,22,0,0,0,0,0,0,0,0,0,-1,720,1002,0,0
-497,22,0,0,0,0,0,0,0,0,0,-1,727,1002,0,0
-490,22,0,0,0,0,0,0,0,0,0,-1,734,1002,0,0
-483,22,0,0,0,0,0,0,0,0,0,-1,741,1002,0,0
-476,22,0,0,0,0,0,0,0,0,0,-1,748,1002,0,0
-469,22,0,0,0,0,0,0,0,0,0,-1,755,1002,0,0
-462,22,0,0,0,0,0,0,0,0,0,-1,762,1002,0,0
-455,22,0,0,0,0,0,0,0,0,0,-1,769,1002,0,0
-448,22,0,0,0,0,0,0,0,0,0,-1,776,1002,0,0
-441,22,0,0,0,0,0,0,0,0,0,-1,783,1002,0,0
-434,22,0,0,0,0,0,0,0,0,0,-1,790,1002,0,0
-427,22,0,0,0,0,0,0,0,0,0,-1,797,1002,0,0
-420,22,0,0,0,0,0,0,0,0,0,-1,804,1002,0,0
-413,22,0,0,0,0,0,0,0,0,0,-1,811,1002,0,0
-406,22,0,0,0,0,0,0,0,0,0,-1,818,1002,0,0
-399,22,0,0,0,0,0,0,0,0,0,-1,825,1002,0,0
-392,22,0,0,0,0,0,0,0,0,0,-1,832,1002,0,0
-385,22,0,0,0,0,0,0,0,0,0,-1,839,1002,0,0
-378,22,0,0,0,0,0,0,0,0,0,-1,846,1002,0,0
-371,22,0,0,0,0,0,0,0,0,0,-1,853,1002,0,0
-364,22,0,0,0,0,0,0,0,0,0,-1,860,1002,0,0
-357,22,0,0,0,0,0,0,0,0,0,-1,867,1002,0,0
-350,22,0,0,0,0,0,0,0,0,0,-1,874,1002,0,0
-343,22,0,0,0,0,0,0,0,0,0,-1,881,1002,0,0
-336,22,0,0,0,0,0,0,0,0,0,-1,888,1002,0,0
-329,22,0,0,0,0,0,0,0,0,0,-1,895,1002,0,0
-322,22,0,0,0,0,0,0,0,0,0,-1,902,1002,0,0
-315,22,0,0,0,0,0,0,0,0,0,-1,909,1002,0,0
-308,22,0,0,0,0,0,0,0,0,0,-1,916,1002,0,0
-301,22,0,0,0,0,0,0,0,0,0,-1,923,1002,0,0
-294,22,0,0,0,0,0,0,0,0,0,-1,930,1002,0,0
-287,22,0,0,0,0,0,0,0,0,0,-1,937,1002,0,0
-280,22,0,0,0,0,0,0,0,0,0,-1,944,1002,0,0
-273,22,0,0,0,0,0,0,0,0,0,-1,951,1002,0,0
-266,22,0,0,0,0,0,0,0,0,0,-1,958,1002,0,0
-259,22,0,0,0,0,0,0,0,0,0,-1,965,1002,0,0
-252,22,0,0,0,0,0,0,0,0,0,-1,972,1002,0,0
-245,22,0,0,0,0,0,0,0,0,0,-1,979,1002,0,0
-238,22,0,0,0,0,0,0,0,0,0,-1,986,1002,0,0
-231,22,0,0,0,0,0,0,0,0,0,-1,993,1002,0,0
-224,22,0,0,0,0,0,0,0,0,0,-1,1000,1002,0,0
-217,22,0,0,0,0,0,0,0,0,0,-1,1007,1002,0,0
-210,22,0,0,0,0,0,0,0,0,0,-1,1014,1002,0,0
-203,22,0,0,0,0,0,0,0,0,0,-1,1021,1002,0,0
-196,22,0,0,0,0,0,0,0,0,0,-1,1028,1002,0,0
-189,22,0,0,0,0,0,0,0,0,0,-1,1035,1002,0,0
-182,22,0,0,0,0,0,0,0,0,0,-1,1042,1002,0,0
-175,22,0,0,0,0,0,0,0,0,0,-1,1049,1002,0,0
-168,22,0,0,0,0,0,0,0,0,0,-1,1056,1002,0,0
-161,22,0,0,0,0,0,0,0,0,0,-1,1063,1002,0,0
-154,22,0,0,0,0,0,0,0,0,0,-1,1070,1002,0,0
-147,22,0,0,0,0,0,0,0,0,0,-1,1077,1002,0,0
-140,22,0,0,0,0,0,0,0,0,0,-1,1084,1002,0,0
-133,22,0,0,0,0,0,0,0,0,0,-1,1091,1002,0,0
-126,22,0,0,0,0,0,0,0,0,0,-1,1098,1002,0,0
-119,22,0,0,0,0,0,0,0,0,0,-1,1105,1002,0,0
-112,22,0,0,0,0,0,0,0,0,0,-1,1112,1002,0,0
-105,22,0,0,0,0,0,0,0,0,0,-1,1119,1002,0,0
-98,22,0,0,0,0,0,0,0,0,0,-1,1126,1002,0,0
-91,22,0,0,0,0,0,0,0,0,0,-1,1133,1002,0,0
-84,22,0,0,0,0,0,0,0,0,0,-1,1140,1002,0,0
-77,22,0,0,0,0,0,0,0,0,0,-1,1147,1002,0,0
-70,22,0,0,0,0,0,0,0,0,0,-1,1154,1002,0,0
-63,22,0,0,0,0,0,0,0,0,0,-1,1161,1002,0,0
-56,22,0,0,0,0,0,0,0,0,0,-1,1168,1002,0,0
-49,22,0,0,0,0,0,0,0,0,0,-1,1175,1002,0,0
-42,22,0,0,0,0,0,0,0,0,0,-1,1182,1002,0,0
-35,22,0,0,0,0,0,0,0,0,0,-1,1189,1002,0,0
-28,22,0,0,0,0,0,0,0,0,0,-1,1196,1002,0,0
-21,22,0,0,0,0,0,0,0,0,0,-1,1203,1002,0,0
-14,22,0,0,0,0,0,0,0,0,0,-1,1210,1002,0,0
-7,22,0,0,0,0,0,0,0,0,0,-1,1217,1002,0,0
0,22,0,0,0,0,0,0,0,0,0,-1,1224,1002,0,0
7,22,0,0,0,0,0,0,0,0,0,-1,1231,1002,0,0
14,22,0,0,0,0,0,0,0,0,0,-1,1238,1002,0,0
21,22,0,0,0,0,0,0,0,0,0,-1,1245,1002,0,0
28,22,0,0,0,0,0,0,0,0,0,-1,1252,1002,0,0
35,22,0,0,0,0,0,0,0,0,0,-1,1259,1002,0,0
42,22,0,0,0,0,0,0,0,0,0,-1,1266,1002,0,0
49,22,0,0,0,0,0,0,0,0,0,-1,1273,1002,0,0
56,22,0,0,0,0,0,0,0,0,0,-1,1280,1002,0,0
63,22,0,0,0,0,0,0,0,0,0,-1,1287,1002,0,0
70,22,0,0,0,0,0,0,0,0,0,-1,1294,1002,0,0
77,22,0,0,0,0,0,0,0,0,0,-1,1301,1002,0,0
84,22,0,0,0,0,0,0,0,0,0,-1,1308,1002,0,0
91,22,0,0,0,0,0,0,0,0,0,-1,1315,1002,0,0
98,22,0,0,0,0,0,0,0,0,0,-1,1322,1002,0,0
105,22,0,0,0,0,0,0,0,0,0,-1,1329,1002,0,0
112,22,0,0,0,0,0,0,0,0,0,-1,1336,1002,0,0
119,22,0,0,0,0,0,0,0,0,0,-1,1343,1002,0,0
126,22,0,0,0,0,0,0,0,0,0,-1,1350,1002,0,0
133,22,0,0,0,0,0,0,0,0,0,-1,1357,1002,0,0
140,22,0,0,0,0,0,0,0,0,0,-1,1364,1002,0,0
147,22,0,0,0,0,0,0,0,0,0,-1,1371,1002,0,0
154,22,0,0,0,0,0,0,0,0,0,-1,1378,1002,0,0
161,22,0,0,0,0,0,0,0,0,0,-1,1385,1002,0,0
168,22,0,0,0,0,0,0,0,0,0,-1,1392,1002,0,0
175,22,0,0,0,0,0,0,0,0,0,-1,1399,1002,0,0
182,22,0,0,0,0,0,0,0,0,0,-1,1406,1002,0,0
189,22,0,0,0,0,0,0,0,0,0,-1,1413,1002,0,0
196,22,0,0,0,0,0,0,0,0,0,-1,1420,1002,0,0
203,22,0,0,0,0,0,0,0,0,0,-1,1427,1002,0,0
210,22,0,0,0,0,0,0,0,0,0,-1,1434,1002,0,0
217,22,0,0,0,0,0,0,0,0,0,-1,1441,1002,0,0
224,22,0,0,0,0,0,0,0,0,0,-1,1448,1002,0,0
231,22,0,0,0,0,0,0,0,0,0,-1,1455,1002,0,0
238,22,0,0,0,0,0,0,0,0,0,-1,1462,1002,0,0
245,22,0,0,0,0,0,0,0,0,0,-1,1469,1002,0,0
252,22,0,0,0,0,0,0,0,0,0,-1,1476,1002,0,0
259,22,0,0,0,0,0,0,0,0,0,-1,1483,1002,0,0
266,22,0,0,0,0,0,0,0,0,0,-1,1490,1002,0,0
273,22,0,0,0,0,0,0,0,0,0,-1,1497,1002,0,0
280,22,0,0,0,0,0,0,0,0,0,-1,1504,1002,0,0
287,22,0,0,0,0,0,0,0,0,0,-1,1511,1002,0,0
294,22,0,0,0,0,0,0,0,0,0,-1,1518,1002,0,0
301,22,0,0,0,0,0,0,0,0,0,-1,1525,1002,0,0
308,22,0,0,0,0,0,0,0,0,0,-1,1532,1002,0,0
315,22,0,0,0,0,0,0,0,0,0,-1,1539,1002,0,0
322,22,0,0,0,0,0,0,0,0,0,-1,1546,1002,0,0
329,22,0,0,0,0,0,0,0,0,0,-1,1553,1002,0,0
336,22,0,0,0,0,0,0,0,0,0,-1,1560,1002,0,0
343,22,0,0,0,0,0,0,0,0,0,-1,1567,1002,0,0
350,22,0,0,0,0,0,0,0,0,0,-1,1574,1002,0,0
357,22,0,0,0,0,0,0,0,0,0,-1,1581,1002,0,0
364,22,0,0,0,0,0,0,0,0,0,-1,1588,1002,0,0
371,22,0,0,0,0,0,0,0,0,0,-1,1595,1002,0,0
378,22,0,0,0,0,0,0,0,0,0,-1,1602,1002,0,0
385,22,0,0,0,0,0,0,0,0,0,-1,1609,1002,0,0
392,22,0,0,0,0,0,0,0,0,0,-1,1616,1002,0,0
399,22,0,0,0,0,0,0,0,0,0,-1,1623,1002,0,0
406,22,0,0,0,0,0,0,0,0,0,-1,1630,1002,0,0
413,22,0,0,0,0,0,0,0,0,0,-1,1637,1002,0,0
420,22,0,0,0,0,0,0,0,0,0,-1,1644,1002,0,0
427,22,0,0,0,0,0,0,0,0,0,-1,1651,1002,0,0
434,22,0,0,0,0,0,0,0,0,0,-1,1658,1002,0,0
441,22,0,0,0,0,0,0,0,0,0,-1,1665,1002,0,0
448,22,0,0,0,0,0,0,0,0,0,-1,1672,1002,0,0
455,22,0,0,0,0,0,0,0,0,0,-1,1679,1002,0,0
462,22,0,0,0,0,0,0,0,0,0,-1,1686,1002,0,0
469,22,0,0,0,0,0,0,0,0,0,-1,1693,1002,0,0
476,22,0,0,0,0,0,0,0,0,0,-1,1700,1002,0,0
483,22,0,0,0,0,0,0,0,0,0,-1,1707,1002,0,0
490,22,0,0,0,0,0,0,0,0,0,-1,1714,1002,0,0
497,22,0,0,0,0,0,0,0,0,0,-1,1721,1002,0,0
504,22,0,0,0,0,0,0,0,0,0,-1,1728,1002,0,0
511,22,0,0,0,0,0,0,0,0,0,-1,1735,1002,0,0
518,22,0,0,0,0,0,0,0,0,0,-1,1742,1002,0,0
525,22,0,0,0,0,0,0,0,0,0,-1,1749,1002,0,0
532,22,0,0,0,0,0,0,0,0,0,-1,1756,1002,0,0
539,22,0,0,0,0,0,0,0,0,0,-1,1763,1002,0,0
546,22,0,0,0,0,0,0,0,0,0,-1,1770,1002,0,0
553,22,0,0,0,0,0,0,0,0,0,-1,1777,1002,0,0
560,22,0,0,0,0,0,0,0,0,0,-1,1784,1002,0,0
567,22,0,0,0,0,0,0,0,0,0,-1,1791,1002,0,0
574,22,0,0,0,0,0,0,0,0,0,-1,1798,1002,0,0
581,22,0,0,0,0,0,0,0,0,0,-1,1805,1002,0,0
588,22,0,0,0,0,0,0,0,0,0,-1,1812,1002,0,0
595,22,0,0,0,0,0,0,0,0,0,-1,1819,1002,0,0
602,22,0,0,0,0,0,0,0,0,0,-1,1826,1002,0,0
609,22,0,0,0,0,0,0,0,0,0,-1,1833,1002,0,0
616,22,0,0,0,0,0,0,0,0,0,-1,1840,1002,0,0
623,22,0,0,0,0,0,0,0,0,0,-1,1847,1002,0,0
630,22,0,0,0,0,0,0,0,0,0,-1,1854,1002,0,0
637,22,0,0,0,0,0,0,0,0,0,-1,1861,1002,0,0
644,22,46.3091,2.83911,0.00965536,0.00381209,0.00354053,0.0113241,0.00214338,0.440439,0.00694604,0.0388785,1868,1002,46.3091,-2.83911
651,22,46.3914,2.99396,0.00726092,0.00263134,0.00203468,0.00802804,0.00186422,0.360542,0.00485152,0.040389,1875,1002,46.3913,-2.99398
658,22,46.4554,3.26074,0.0051834,0.00177731,0.00103102,0.00547118,0.00148953,0.272191,0.00326619,0.0409673,1882,1002,46.4554,-3.26071
665,22,46.4071,3.25323,0.00342429,0.00138494,0.000666732,0.00362292,0.00118631,0.289545,0.00213281,0.0389434,1889,1002,46.4071,-3.25321
672,22,46.4326,2.96887,0.00189745,0.00129075,0.00073854,0.00239252,0.000795688,0.59053,0.0014069,0.0386302,1896,1002,46.4326,-2.96884
679,22,46.446,2.89362,0.000686583,0.00143528,0.00116684,0.00228635,-0.000164485,0.940623,0.00158191,0.0393226,1903,1002,46.446,-2.89363
686,22,46.5214,2.92163,-7.78417e-05,0.00148905,0.00168376,0.00256271,-0.0011515,1.00315,0.00219539,0.0399386,1910,1002,46.5214,-2.92164
693,22,46.5188,2.97913,-0.000522209,0.0014357,0.00213697,0.00280727,-0.00189378,1.00018,0.00273118,0.0380491,1917,1002,46.5188,-2.9791
700,22,46.4751,2.86664,-0.000891993,0.00149103,0.00234325,0.00292831,-0.00232927,1.0206,0.00304203,0.0330315,1924,1002,46.4751,-2.86663
707,22,46.4152,2.88635,-0.00129813,0.00171806,0.00239033,0.00303627,-0.00261635,1.06682,0.00326654,0.0311156,1931,1002,46.4152,-2.88634
714,22,46.4141,2.99054,-0.00181834,0.00210188,0.00232491,0.0031827,-0.00289916,1.13563,0.00351263,0.0392995,1938,1002,46.4141,-2.99053
721,22,46.161,4.42657,0,0,0,0,0,0,0,-1,1945,1002,46.161,-4.42657
728,22,46.0725,5.21857,-0.00305872,0.00365014,0.00237174,0.00440392,-0.0038125,1.26308,0.00474784,0.0447522,1952,1002,46.0725,-5.21858
735,22,46.1172,5.72644,-0.00311827,0.00468756,0.00262203,0.00548654,-0.00391725,1.27502,0.00545442,0.0164204,1959,1002,46.1171,-5.72642
742,22,46.1116,5.81757,-0.00327885,0.00651425,0.002494,0.00711281,-0.00387741,1.33525,0.00643621,0.0164161,1966,1002,46.1116,-5.81757
749,22,46.0697,5.93512,-0.00345362,0.00841011,0.00248442,0.00890937,-0.00395288,1.37248,0.0076076,0.0123514,1973,1002,46.0697,-5.93509
756,22,46.0648,6.02533,-0.00347825,0.0108507,0.00255163,0.0112915,-0.00391908,1.39972,0.00911919,0.0176959,1980,1002,46.0648,-6.02532
763,22,46.0187,6.15448,-0.00310306,0.0141458,0.00309647,0.0146848,-0.00364209,1.39845,0.011203,0.0194696,1987,1002,46.0187,-6.15449
770,22,45.8883,6.25244,-0.00207465,0.0184378,0.00420971,0.0192681,-0.00290498,1.37605,0.0139152,0.016888,1994,1002,45.8883,-6.25242
777,22,45.6686,6.2616,-0.000252111,0.0232247,0.00591117,0.0246291,-0.00165646,1.33754,0.0169985,0.0351661,2001,1002,45.6686,-6.2616
784,22,45.4912,6.2962,0,0,0,0,0,0,0,-1,2008,1002,45.4913,-6.29623
791,22,46.1748,6.34235,0.00579686,0.0323197,0.0102632,0.0358273,0.00228929,1.24148,0.0231595,0.0472866,2015,1002,46.1748,-6.34235
798,22,46.1677,6.34766,0.0101963,0.0357654,0.0127793,0.0410573,0.00490443,1.1782,0.025892,0.0447248,2022,1002,46.1677,-6.34763
805,22,46.4507,6.20691,0,0,0,0,0,0,0,-1,2029,1002,46.4506,-6.2069
812,22,46.6714,4.56311,0,0,0,0,0,0,0,-1,2036,1002,46.6713,-4.56312
-700,15,0,0,0,0,0,0,0,0,0,-1,524,1009,0,0
-693,15,-36.3713,6.17218,-0.00669076,0.127451,-0.0853426,0.168925,-0.0481641,-1.11844,0.131642,0.0461705,531,1009,-36.3713,-6.17215
-686,15,-36.2427,6.05475,0.00633319,0.112955,-0.073107,0.150124,-0.0308362,-1.10043,0.111788,0.0449648,538,1009,-36.2427,-6.05475
-679,15,-36.3231,5.87714,0,0,0,0,0,0,0,-1,545,1009,-36.3231,-5.87711
-672,15,-37.5498,4.69745,0,0,0,0,0,0,0,-1,552,1009,-37.5498,-4.69742
-665,15,-35.3936,2.03656,0.015386,0.0695909,-0.0364477,0.0879085,-0.00293157,-1.10509,0.0596069,0.0478079,559,1009,-35.3936,-2.03659
-658,15,-34.7065,2.34595,0.0139818,0.0566422,-0.0265928,0.0694024,0.00122154,-1.12341,0.0458665,0.0473344,566,1009,-34.7066,-2.34594
-651,15,-34.0223,2.06744,0,0,0,0,0,0,0,-1,573,1009,-34.0223,-2.06743
-644,15,-34.4837,2.82306,0.00871748,0.034102,-0.0117448,0.0387023,0.00411715,-1.19747,0.0245446,0.0453829,580,1009,-34.4837,-2.82308
-637,15,-34.7609,3.22986,0.00680704,0.0245097,-0.00708501,0.0269961,0.00432067,-1.23329,0.016744,0.026873,587,1009,-34.7609,-3.22985
-630,15,-34.7852,3.22101,0.00500281,0.0167579,-0.00446765,0.0182631,0.00349758,-1.24582,0.0111932,0.0146169,594,1009,-34.7852,-3.22099
-623,15,-34.8295,3.18683,0.00335851,0.0113034,-0.00341951,0.0125725,0.00208945,-1.21543,0.00777927,0.0102201,601,1009,-34.8295,-3.18682
-616,15,-34.8425,3.16718,0.00175463,0.00731791,-0.00335455,0.00889408,0.000178454,-1.13155,0.00587081,0.0154049,608,1009,-34.8424,-3.16716
-609,15,-34.9055,3.15936,0.000583661,0.00473352,-0.00445124,0.00756969,-0.0022525,-1.0035,0.00594137,0.0216698,615,1009,-34.9055,-3.15938
-602,15,-34.9065,3.09021,0.000361593,0.00356364,-0.00600162,0.00817411,-0.00424888,-0.915746,0.00729078,0.0226498,622,1009,-34.9065,-3.09023
-595,15,-34.692,2.45685,0,0,0,0,0,0,0,-1,629,1009,-34.692,-2.45688
-588,15,-34.3198,1.14984,0,0,0,0,0,0,0,-1,636,1009,-34.3198,-1.14983
-581,15,-34.3383,1.04065,0.00160317,0.000829346,-0.0071044,0.00833118,-0.00589867,-0.758195,0.00825553,0.0396811,643,1009,-34.3382,-1.04068
-574,15,-34.3725,0.964966,0.00155154,0.000229248,-0.00655027,0.00747394,-0.00569315,-0.735101,0.00762516,0.034247,650,1009,-34.3725,-0.964948
-567,15,-34.4028,0.859253,0.00119026,-0.000149868,-0.00527082,0.00583344,-0.00479305,-0.722174,0.006145,0.033552,657,1009,-34.4027,-0.859255
-560,15,-34.41,0.863342,0.000687627,-0.000584194,-0.00315841,0.0032735,-0.00317007,-0.686057,0.00372036,0.0377418,664,1009,-34.41,-0.863313
-553,15,-34.3956,0.908203,-1.51049e-05,-0.0012852,-0.000226826,2.41882e-05,-0.00132449,-0.171528,0.000891169,0.0406163,671,1009,-34.3956,-0.908229
-546,15,-34.296,0.898376,-0.000765616,-0.00251929,0.00346366,0.00193047,-0.00521537,0.661426,0.00426849,0.0423329,678,1009,-34.2959,-0.89838
-539,15,-34.2288,1.07001,-0.00145478,-0.00413261,0.00717844,0.00450854,-0.0100959,0.693198,0.00863514,0.0416997,685,1009,-34.2289,-1.07
-532,15,-34.444,1.20184,-0.00146682,-0.00585289,0.0093076,0.00590262,-0.0132223,0.6697,0.0113082,0.0418058,692,1009,-34.444,-1.20185
-525,15,0,0,0,0,0,0,0,0,0,-1,699,1009,0,0
-518,15,0,0,0,0,0,0,0,0,0,-1,706,1009,0,0
-511,15,0,0,0,0,0,0,0,0,0,-1,713,1009,0,0
-504,15,0,0,0,0,0,0,0,0,0,-1,720,1009,0,0
-497,15,0,0,0,0,0,0,0,0,0,-1,727,1009,0,0
-490,15,0,0,0,0,0,0,0,0,0,-1,734,1009,0,0
-483,15,0,0,0,0,0,0,0,0,0,-1,741,1009,0,0
-476,15,0,0,0,0,0,0,0,0,0,-1,748,1009,0,0
-469,15,0,0,0,0,0,0,0,0,0,-1,755,1009,0,0
-462,15,0,0,0,0,0,0,0,0,0,-1,762,1009,0,0
-455,15,0,0,0,0,0,0,0,0,0,-1,769,1009,0,0
-448,15,0,0,0,0,0,0,0,0,0,-1,776,1009,0,0
-441,15,0,0,0,0,0,0,0,0,0,-1,783,1009,0,0
-434,15,0,0,0,0,0,0,0,0,0,-1,790,1009,0,0
-427,15,0,0,0,0,0,0,0,0,0,-1,797,1009,0,0
-420,15,0,0,0,0,0,0,0,0,0,-1,804,1009,0,0
-413,15,0,0,0,0,0,0,0,0,0,-1,811,1009,0,0
-406,15,0,0,0,0,0,0,0,0,0,-1,818,1009,0,0
-399,15,0,0,0,0,0,0,0,0,0,-1,825,1009,0,0
-392,15,0,0,0,0,0,0,0,0,0,-1,832,1009,0,0
-385,15,0,0,0,0,0,0,0,0,0,-1,839,1009,0,0
-378,15,0,0,0,0,0,0,0,0,0,-1,846,1009,0,0
-371,15,0,0,0,0,0,0,0,0,0,-1,853,1009,0,0
-364,15,0,0,0,0,0,0,0,0,0,-1,860,1009,0,0
-357,15,0,0,0,0,0,0,0,0,0,-1,867,1009,0,0
-350,15,0,0,0,0,0,0,0,0,0,-1,874,1009,0,0
-343,15,0,0,0,0,0,0,0,0,0,-1,881,1009,0,0
-336,15,0,0,0,0,0,0,0,0,0,-1,888,1009,0,0
-329,15,0,0,0,0,0,0,0,0,0,-1,895,1009,0,0
-322,15,0,0,0,0,0,0,0,0,0,-1,902,1009,0,0
-315,15,0,0,0,0,0,0,0,0,0,-1,909,1009,0,0
-308,15,0,0,0,0,0,0,0,0,0,-1,916,1009,0,0
-301,15,0,0,0,0,0,0,0,0,0,-1,923,1009,0,0
-294,15,0,0,0,0,0,0,0,0,0,-1,930,1009,0,0
-287,15,0,0,0,0,0,0,0,0,0,-1,937,1009,0,0
-280,15,0,0,0,0,0,0,0,0,0,-1,944,1009,0,0
-273,15,0,0,0,0,0,0,0,0,0,-1,951,1009,0,0
-266,15,0,0,0,0,0,0,0,0,0,-1,958,1009,0,0
-259,15,0,0,0,0,0,0,0,0,0,-1,965,1009,0,0
-252,15,0,0,0,0,0,0,0,0,0,-1,972,1009,0,0
-245,15,0,0,0,0,0,0,0,0,0,-1,979,1009,0,0
-238,15,0,0,0,0,0,0,0,0,0,-1,986,1009,0,0
-231,15,0,0,0,0,0,0,0,0,0,-1,993,1009,0,0
-224,15,0,0,0,0,0,0,0,0,0,-1,1000,1009,0,0
-217,15,0,0,0,0,0,0,0,0,0,-1,1007,1009,0,0
-210,15,0,0,0,0,0,0,0,0,0,-1,1014,1009,0,0
-203,15,0,0,0,0,0,0,0,0,0,-1,1021,1009,0,0
-196,15,0,0,0,0,0,0,0,0,0,-1,1028,1009,0,0
-189,15,0,0,0,0,0,0,0,0,0,-1,1035,1009,0,0
-182,15,0,0,0,0,0,0,0,0,0,-1,1042,1009,0,0
-175,15,0,0,0,0,0,0,0,0,0,-1,1049,1009,0,0
-168,15,0,0,0,0,0,0,0,0,0,-1,1056,1009,0,0
-161,15,0,0,0,0,0,0,0,0,0,-1,1063,1009,0,0
-154,15,0,0,0,0,0,0,0,0,0,-1,1070,1009,0,0
-147,15,0,0,0,0,0,0,0,0,0,-1,1077,1009,0,0
-140,15,0,0,0,0,0,0,0,0,0,-1,1084,1009,0,0
-133,15,0,0,0,0,0,0,0,0,0,-1,1091,1009,0,0
-126,15,0,0,0,0,0,0,0,0,0,-1,1098,1009,0,0
-119,15,0,0,0,0,0,0,0,0,0,-1,1105,1009,0,0
-112,15,0,0,0,0,0,0,0,0,0,-1,1112,1009,0,0
-105,15,0,0,0,0,0,0,0,0,0,-1,1119,1009,0,0
-98,15,0,0,0,0,0,0,0,0,0,-1,1126,1009,0,0
-91,15,0,0,0,0,0,0,0,0,0,-1,1133,1009,0,0
-84,15,0,0,0,0,0,0,0,0,0,-1,1140,1009,0,0
-77,15,0,0,0,0,0,0,0,0,0,-1,1147,1009,0,0
-70,15,0,0,0,0,0,0,0,0,0,-1,1154,1009,0,0
-63,15,0,0,0,0,0,0,0,0,0,-1,1161,1009,0,0
-56,15,0,0,0,0,0,0,0,0,0,-1,1168,1009,0,0
-49,15,0,0,0,0,0,0,0,0,0,-1,1175,1009,0,0
-42,15,0,0,0,0,0,0,0,0,0,-1,1182,1009,0,0
-35,15,0,0,0,0,0,0,0,0,0,-1,1189,1009,0,0
-28,15,0,0,0,0,0,0,0,0,0,-1,1196,1009,0,0
-21,15,0,0,0,0,0,0,0,0,0,-1,1203,1009,0,0
-14,15,0,0,0,0,0,0,0,0,0,-1,1210,1009,0,0
-7,15,0,0,0,0,0,0,0,0,0,-1,1217,1009,0,0
0,15,0,0,0,0,0,0,0,0,0,-1,1224,1009,0,0
7,15,0,0,0,0,0,0,0,0,0,-1,1231,1009,0,0
14,15,0,0,0,0,0,0,0,0,0,-1,1238,1009,0,0
21,15,0,0,0,0,0,0,0,0,0,-1,1245,1009,0,0
28,15,0,0,0,0,0,0,0,0,0,-1,1252,1009,0,0
35,15,0,0,0,0,0,0,0,0,0,-1,1259,1009,0,0
42,15,0,0,0,0,0,0,0,0,0,-1,1266,1009,0,0
49,15,0,0,0,0,0,0,0,0,0,-1,1273,1009,0,0
56,15,0,0,0,0,0,0,0,0,0,-1,1280,1009,0,0
63,15,0,0,0,0,0,0,0,0,0,-1,1287,1009,0,0
70,15,0,0,0,0,0,0,0,0,0,-1,1294,1009,0,0
77,15,0,0,0,0,0,0,0,0,0,-1,1301,1009,0,0
84,15,0,0,0,0,0,0,0,0,0,-1,1308,1009,0,0
91,15,0,0,0,0,0,0,0,0,0,-1,1315,1009,0,0
98,15,0,0,0,0,0,0,0,0,0,-1,1322,1009,0,0
105,15,0,0,0,0,0,0,0,0,0,-1,1329,1009,0,0
112,15,0,0,0,0,0,0,0,0,0,-1,1336,1009,0,0
119,15,0,0,0,0,0,0,0,0,0,-1,1343,1009,0,0
126,15,0,0,0,0,0,0,0,0,0,-1,1350,1009,0,0
133,15,0,0,0,0,0,0,0,0,0,-1,1357,1009,0,0
140,15,0,0,0,0,0,0,0,0,0,-1,1364,1009,0,0
147,15,0,0,0,0,0,0,0,0,0,-1,1371,1009,0,0
154,15,0,0,0,0,0,0,0,0,0,-1,1378,1009,0,0
161,15,0,0,0,0,0,0,0,0,0,-1,1385,1009,0,0
168,15,0,0,0,0,0,0,0,0,0,-1,1392,1009,0,0
175,15,0,0,0,0,0,0,0,0,0,-1,1399,1009,0,0
182,15,0,0,0,0,0,0,0,0,0,-1,1406,1009,0,0
189,15,0,0,0,0,0,0,0,0,0,-1,1413,1009,0,0
196,15,0,0,0,0,0,0,0,0,0,-1,1420,1009,0,0
203,15,0,0,0,0,0,0,0,0,0,-1,1427,1009,0,0
210,15,0,0,0,0,0,0,0,0,0,-1,1434,1009,0,0
217,15,0,0,0,0,0,0,0,0,0,-1,1441,1009,0,0
224,15,0,0,0,0,0,0,0,0,0,-1,1448,1009,0,0
231,15,0,0,0,0,0,0,0,0,0,-1,1455,1009,0,0
238,15,0,0,0,0,0,0,0,0,0,-1,1462,1009,0,0
245,15,0,0,0,0,0,0,0,0,0,-1,1469,1009,0,0
252,15,0,0,0,0,0,0,0,0,0,-1,1476,1009,0,0
259,15,0,0,0,0,0,0,0,0,0,-1,1483,1009,0,0
266,15,0,0,0,0,0,0,0,0,0,-1,1490,1009,0,0
273,15,0,0,0,0,0,0,0,0,0,-1,1497,1009,0,0
280,15,0,0,0,0,0,0,0,0,0,-1,1504,1009,0,0
287,15,0,0,0,0,0,0,0,0,0,-1,1511,1009,0,0
294,15,0,0,0,0,0,0,0,0,0,-1,1518,1009,0,0
301,15,0,0,0,0,0,0,0,0,0,-1,1525,1009,0,0
308,15,0,0,0,0,0,0,0,0,0,-1,1532,1009,0,0
315,15,0,0,0,0,0,0,0,0,0,-1,1539,1009,0,0
322,15,0,0,0,0,0,0,0,0,0,-1,1546,1009,0,0
329,15,0,0,0,0,0,0,0,0,0,-1,1553,1009,0,0
336,15,0,0,0,0,0,0,0,0,0,-1,1560,1009,0,0
343,15,0,0,0,0,0,0,0,0,0,-1,1567,1009,0,0
350,15,0,0,0,0,0,0,0,0,0,-1,1574,1009,0,0
357,15,0,0,0,0,0,0,0,0,0,-1,1581,1009,0,0
364,15,0,0,0,0,0,0,0,0,0,-1,1588,1009,0,0
371,15,0,0,0,0,0,0,0,0,0,-1,1595,1009,0,0
378,15,0,0,0,0,0,0,0,0,0,-1,1602,1009,0,0
385,15,0,0,0,0,0,0,0,0,0,-1,1609,1009,0,0
392,15,0,0,0,0,0,0,0,0,0,-1,1616,1009,0,0
399,15,0,0,0,0,0,0,0,0,0,-1,1623,1009,0,0
406,15,0,0,0,0,0,0,0,0,0,-1,1630,1009,0,0
413,15,0,0,0,0,0,0,0,0,0,-1,1637,1009,0,0
420,15,0,0,0,0,0,0,0,0,0,-1,1644,1009,0,0
427,15,0,0,0,0,0,0,0,0,0,-1,1651,1009,0,0
434,15,0,0,0,0,0,0,0,0,0,-1,1658,1009,0,0
441,15,0,0,0,0,0,0,0,0,0,-1,1665,1009,0,0
448,15,0,0,0,0,0,0,0,0,0,-1,1672,1009,0,0
455,15,0,0,0,0,0,0,0,0,0,-1,1679,1009,0,0
462,15,0,0,0,0,0,0,0,0,0,-1,1686,1009,0,0
469,15,0,0,0,0,0,0,0,0,0,-1,1693,1009,0,0
476,15,0,0,0,0,0,0,0,0,0,-1,1700,1009,0,0
483,15,0,0,0,0,0,0,0,0,0,-1,1707,1009,0,0
490,15,0,0,0,0,0,0,0,0,0,-1,1714,1009,0,0
497,15,0,0,0,0,0,0,0,0,0,-1,1721,1009,0,0
504,15,0,0,0,0,0,0,0,0,0,-1,1728,1009,0,0
511,15,0,0,0,0,0,0,0,0,0,-1,1735,1009,0,0
518,15,0,0,0,0,0,0,0,0,0,-1,1742,1009,0,0
525,15,0,0,0,0,0,0,0,0,0,-1,1749,1009,0,0
532,15,0,0,0,0,0,0,0,0,0,-1,1756,1009,0,0
539,15,0,0,0,0,0,0,0,0,0,-1,1763,1009,0,0
546,15,0,0,0,0,0,0,0,0,0,-1,1770,1009,0,0
553,15,0,0,0,0,0,0,0,0,0,-1,1777,1009,0,0
560,15,0,0,0,0,0,0,0,0,0,-1,1784,1009,0,0
567,15,0,0,0,0,0,0,0,0,0,-1,1791,1009,0,0
574,15,0,0,0,0,0,0,0,0,0,-1,1798,1009,0,0
581,15,0,0,0,0,0,0,0,0,0,-1,1805,1009,0,0
588,15,0,0,0,0,0,0,0,0,0,-1,1812,1009,0,0
595,15,0,0,0,0,0,0,0,0,0,-1,1819,1009,0,0
602,15,0,0,0,0,0,0,0,0,0,-1,1826,1009,0,0
609,15,0,0,0,0,0,0,0,0,0,-1,1833,1009,0,0
616,15,0,0,0,0,0,0,0,0,0,-1,1840,1009,0,0
623,15,0,0,0,0,0,0,0,0,0,-1,1847,1009,0,0
630,15,0,0,0,0,0,0,0,0,0,-1,1854,1009,0,0
637,15,0,0,0,0,0,0,0,0,0,-1,1861,1009,0,0
644,15,46.3484,2.87653,0.0100354,0.00383904,0.00392365,0.0119366,0.00193783,0.451211,0.00739687,0.0385906,1868,1009,46.3484,-2.87652
651,15,46.4296,2.95587,0.0075143,0.00286768,0.00235035,0.00849583,0.00188615,0.395592,0.00515158,0.0361848,1875,1009,46.4296,-2.95585
658,15,46.5104,3.08398,0.0053249,0.00208289,0.00126454,0.00575979,0.00164799,0.331242,0.00342533,0.0371644,1882,1009,46.5104,-3.08397
665,15,46.4164,3.19556,0.00349429,0.00165992,0.000813104,0.00380282,0.00135139,0.362658,0.00222597,0.0379564,1889,1009,46.4163,-3.19553
672,15,46.4181,2.99243,0.00193687,0.00151119,0.000823839,0.00257492,0.000873144,0.658985,0.00151207,0.0373851,1896,1009,46.4181,-2.99241
679,15,46.4795,2.70319,0.00068061,0.00158327,0.00119778,0.00241193,-0.000148053,0.965574,0.00165951,0.0390595,1903,1009,46.4794,-2.70318
686,15,46.5803,2.57501,-0.000129511,0.00157157,0.00168837,0.00261154,-0.00116948,1.01873,0.00223527,0.0445147,1910,1009,46.5804,-2.57504
693,15,46.4037,2.76556,-0.000587678,0.00147404,0.00214366,0.00282182,-0.00193546,1.00952,0.00276247,0.0427639,1917,1009,46.4037,-2.76557
700,15,46.4614,2.802,-0.000936511,0.00147526,0.00238229,0.00293948,-0.00240073,1.01969,0.0030884,0.033855,1924,1009,46.4614,-2.80201
707,15,46.4404,2.83807,-0.00132567,0.0016519,0.00246864,0.00304593,-0.0027197,1.05674,0.00333057,0.0315557,1931,1009,46.4405,-2.83808
714,15,46.4348,2.8689,-0.00182551,0.00199364,0.00243025,0.0031748,-0.00300667,1.11839,0.00356931,0.0361183,1938,1009,46.4348,-2.86888
721,15,46.4575,2.82593,0,0,0,0,0,0,0,-1,1945,1009,46.4575,-2.82592
728,15,46.233,5.62402,0,0,0,0,0,0,0,-1,1952,1009,46.233,-5.62405
735,15,46.1749,5.75372,-0.00318166,0.004637,0.00268421,0.0054698,-0.00401446,1.26995,0.00549719,0.0193602,1959,1009,46.175,-5.75371
742,15,46.1602,5.92419,-0.0033515,0.00644805,0.00251856,0.00705745,-0.00396089,1.3334,0.00644463,0.0315345,1966,1009,46.1602,-5.92417
749,15,46.1681,5.97113,-0.00357758,0.00830866,0.00241228,0.00877957,-0.00404849,1.37801,0.00757232,0.0192736,1973,1009,46.1681,-5.97115
756,15,46.1835,5.94476,-0.00366791,0.0107153,0.00234937,0.0110893,-0.00404193,1.41292,0.00904635,0.0163617,1980,1009,46.1835,-5.94477
763,15,46.1344,6.04724,-0.003436,0.0139739,0.00267002,0.0143742,-0.00383628,1.42199,0.0110851,0.0144887,1987,1009,46.1344,-6.04723
770,15,46.0126,6.10199,-0.00263999,0.0182042,0.00341252,0.0187486,-0.00318445,1.41258,0.0136846,0.0182745,1994,1009,46.0126,-6.102
777,15,45.7363,6.12402,-0.00111215,0.0229352,0.00469091,0.0238179,-0.0019948,1.38481,0.0165836,0.040757,2001,1009,45.7363,-6.12401
784,15,45.5122,6.12244,0,0,0,0,0,0,0,-1,2008,1009,45.5122,-6.12242
791,15,46.2725,5.78833,0,0,0,0,0,0,0,-1,2015,1009,46.2726,-5.78836
798,15,45.7222,6.36523,0.00756668,0.0346567,0.00984223,0.037855,0.00436844,1.25661,0.0239139,0.0475375,2022,1009,45.7223,-6.36523
805,15,45.5293,5.44189,0.0114809,0.0364381,0.0116982,0.041064,0.00685498,1.19423,0.0254012,0.0464584,2029,1009,45.5292,-5.44192
812,15,45.6838,4.67194,0.0151766,0.0362444,0.0134019,0.0427568,0.00866429,1.11847,0.0261003,0.0449178,2036,1009,45.6837,-4.67196
-700,8,0,0,0,0,0,0,0,0,0,-1,524,1016,0,0
-693,8,-35.5072,5.55432,-0.00658144,0.129441,-0.086962,0.171829,-0.0489691,-1.11726,0.133894,0.0467529,531,1016,-35.5072,-5.55434
-686,8,-35.5389,5.41418,0.00648702,0.114337,-0.0744766,0.152361,-0.0315373,-1.09874,0.113556,0.0460622,538,1016,-35.5389,-5.41416
-679,8,-36.4135,4.55823,0.0126444,0.0992528,-0.0613413,0.131035,-0.0191381,-1.09275,0.0943852,0.0459821,545,1016,-36.4135,-4.55823
-672,8,-37.0735,3.97803,0.0152115,0.0845977,-0.0487831,0.109766,-0.00995686,-1.09449,0.076712,0.0468664,552,1016,-37.0735,-3.97802
-665,8,-34.6973,2.14465,0.0155001,0.0706845,-0.0373604,0.0895372,-0.00335259,-1.10346,0.0608398,0.0441544,559,1016,-34.6973,-2.14466
-658,8,-34.8135,2.46765,0.0141635,0.0576998,-0.0274257,0.0709463,0.00091701,-1.12085,0.0469948,0.0398207,566,1016,-34.8135,-2.46767
-651,8,-34.3347,2.92297,0,0,0,0,0,0,0,-1,573,1016,-34.3347,-2.92297
-644,8,-34.2787,2.86731,0,0,0,0,0,0,0,-1,580,1016,-34.2788,-2.86728
-637,8,-34.6305,3.02057,0.0072264,0.0250003,-0.00777455,0.0279211,0.00430566,-1.21143,0.0173577,0.0380718,587,1016,-34.6305,-3.0206
-630,8,-34.8152,3.15637,0.00549583,0.0170825,-0.00509884,0.0190068,0.0035716,-1.20994,0.0116644,0.0220653,594,1016,-34.8152,-3.15634
-623,8,-34.796,3.20428,0.00387943,0.0113998,-0.00386836,0.0130343,0.00224487,-1.17101,0.00804633,0.0153877,601,1016,-34.796,-3.20429
-616,8,-34.8389,3.17511,0.00229429,0.00727881,-0.00361821,0.00918004,0.000393057,-1.08699,0.00599331,0.0151313,608,1016,-34.8389,-3.17511
-609,8,-34.8574,3.12305,0.00106406,0.00436957,-0.00455072,0.00755837,-0.00212474,-0.959584,0.00587662,0.0172424,615,1016,-34.8574,-3.12304
-602,8,-34.84,3.13043,0.00074944,0.00311819,-0.00596689,0.00801711,-0.00414948,-0.88337,0.00714171,0.0212039,622,1016,-34.84,-3.13043
-595,8,-34.4576,2.34802,0,0,0,0,0,0,0,-1,629,1016,-34.4576,-2.34804
-588,8,-34.3242,0.898315,0,0,0,0,0,0,0,-1,636,1016,-34.3242,-0.898303
-581,8,-34.3358,0.903748,0.00200708,0.00046368,-0.00679666,0.00807571,-0.00560495,-0.72887,0.00794135,0.0319116,643,1016,-34.3357,-0.903723
-574,8,-34.3745,0.875671,0.00188971,-5.66717e-05,-0.00621303,0.0072053,-0.00537227,-0.707711,0.00728732,0.0364197,650,1016,-34.3745,-0.875678
-567,8,-34.3819,0.821411,0.0014089,-0.000336272,-0.0049624,0.00557485,-0.00450222,-0.698368,0.00582898,0.0390818,657,1016,-34.3819,-0.821401
-560,8,-34.3461,0.861389,0.000727125,-0.000591262,-0.00292917,0.00307036,-0.00293449,-0.67472,0.0034672,0.0385274,664,1016,-34.3461,-0.861415
-553,8,-34.3119,0.810425,-0.000234982,-0.0010083,-0.000124105,-0.000215553,-0.00102773,-0.15529,0.000625803,0.0405671,671,1016,-34.3119,-0.810442
-546,8,-34.3167,0.833069,-0.00129912,-0.0018364,0.00338699,0.00182987,-0.00496539,0.745823,0.00406008,0.04192,678,1016,-34.3167,-0.833056
-539,8,-34.2969,1.12573,-0.00227853,-0.00292081,0.00685818,0.00426602,-0.00946537,0.762002,0.00811505,0.0412658,685,1016,-34.2969,-1.12575
-532,8,-34.3602,1.26453,-0.00245977,-0.00390111,0.00858321,0.00543297,-0.0117939,0.743515,0.0101694,0.0416199,692,1016,-34.3602,-1.26452
-525,8,0,0,0,0,0,0,0,0,0,-1,699,1016,0,0
-518,8,0,0,0,0,0,0,0,0,0,-1,706,1016,0,0
-511,8,0,0,0,0,0,0,0,0,0,-1,713,1016,0,0
-504,8,0,0,0,0,0,0,0,0,0,-1,720,1016,0,0
-497,8,0,0,0,0,0,0,0,0,0,-1,727,1016,0,0
-490,8,0,0,0,0,0,0,0,0,0,-1,734,1016,0,0
-483,8,0,0,0,0,0,0,0,0,0,-1,741,1016,0,0
-476,8,0,0,0,0,0,0,0,0,0,-1,748,1016,0,0
-469,8,0,0,0,0,0,0,0,0,0,-1,755,1016,0,0
-462,8,0,0,0,0,0,0,0,0,0,-1,762,1016,0,0
-455,8,0,0,0,0,0,0,0,0,0,-1,769,1016,0,0
-448,8,0,0,0,0,0,0,0,0,0,-1,776,1016,0,0
-441,8,0,0,0,0,0,0,0,0,0,-1,783,1016,0,0
-434,8,0,0,0,0,0,0,0,0,0,-1,790,1016,0,0
-427,8,0,0,0,0,0,0,0,0,0,-1,797,1016,0,0
-420,8,0,0,0,0,0,0,0,0,0,-1,804,1016,0,0
-413,8,0,0,0,0,0,0,0,0,0,-1,811,1016,0,0
-406,8,0,0,0,0,0,0,0,0,0,-1,818,1016,0,0
-399,8,0,0,0,0,0,0,0,0,0,-1,825,1016,0,0
-392,8,0,0,0,0,0,0,0,0,0,-1,832,1016,0,0
-385,8,0,0,0,0,0,0,0,0,0,-1,839,1016,0,0
-378,8,0,0,0,0,0,0,0,0,0,-1,846,1016,0,0
-371,8,0,0,0,0,0,0,0,0,0,-1,853,1016,0,0
-364,8,0,0,0,0,0,0,0,0,0,-1,860,1016,0,0
-357,8,0,0,0,0,0,0,0,0,0,-1,867,1016,0,0
-350,8,0,0,0,0,0,0,0,0,0,-1,874,1016,0,0
-343,8,0,0,0,0,0,0,0,0,0,-1,881,1016,0,0
-336,8,0,0,0,0,0,0,0,0,0,-1,888,1016,0,0
-329,8,0,0,0,0,0,0,0,0,0,-1,895,1016,0,0
-322,8,0,0,0,0,0,0,0,0,0,-1,902,1016,0,0
-315,8,0,0,0,0,0,0,0,0,0,-1,909,1016,0,0
-308,8,0,0,0,0,0,0,0,0,0,-1,916,1016,0,0
-301,8,0,0,0,0,0,0,0,0,0,-1,923,1016,0,0
-294,8,0,0,0,0,0,0,0,0,0,-1,930,1016,0,0
-287,8,0,0,0,0,0,0,0,0,0,-1,937,1016,0,0
-280,8,0,0,0,0,0,0,0,0,0,-1,944,1016,0,0
-273,8,0,0,0,0,0,0,0,0,0,-1,951,1016,0,0
-266,8,0,0,0,0,0,0,0,0,0,-1,958,1016,0,0
-259,8,0,0,0,0,0,0,0,0,0,-1,965,1016,0,0
-252,8,0,0,0,0,0,0,0,0,0,-1,972,1016,0,0
-245,8,0,0,0,0,0,0,0,0,0,-1,979,1016,0,0
-238,8,0,0,0,0,0,0,0,0,0,-1,986,1016,0,0
-231,8,0,0,0,0,0,0,0,0,0,-1,993,1016,0,0
-224,8,0,0,0,0,0,0,0,0,0,-1,1000,1016,0,0
-217,8,0,0,0,0,0,0,0,0,0,-1,1007,1016,0,0
-210,8,0,0,0,0,0,0,0,0,0,-1,1014,1016,0,0
-203,8,0,0,0,0,0,0,0,0,0,-1,1021,1016,0,0
-196,8,0,0,0,0,0,0,0,0,0,-1,1028,1016,0,0
-189,8,0,0,0,0,0,0,0,0,0,-1,1035,1016,0,0
-182,8,0,0,0,0,0,0,0,0,0,-1,1042,1016,0,0
-175,8,0,0,0,0,0,0,0,0,0,-1,1049,1016,0,0
-168,8,0,0,0,0,0,0,0,0,0,-1,1056,1016,0,0
-161,8,0,0,0,0,0,0,0,0,0,-1,1063,1016,0,0
-154,8,0,0,0,0,0,0,0,0,0,-1,1070,1016,0,0
-147,8,0,0,0,0,0,0,0,0,0,-1,1077,1016,0,0
-140,8,0,0,0,0,0,0,0,0,0,-1,1084,1016,0,0
-133,8,0,0,0,0,0,0,0,0,0,-1,1091,1016,0,0
-126,8,0,0,0,0,0,0,0,0,0,-1,1098,1016,0,0
-119,8,0,0,0,0,0,0,0,0,0,-1,1105,1016,0,0
-112,8,0,0,0,0,0,0,0,0,0,-1,1112,1016,0,0
-105,8,0,0,0,0,0,0,0,0,0,-1,1119,1016,0,0
-98,8,0,0,0,0,0,0,0,0,0,-1,1126,1016,0,0
-91,8,0,0,0,0,0,0,0,0,0,-1,1133,1016,0,0
-84,8,0,0,0,0,0,0,0,0,0,-1,1140,1016,0,0
-77,8,0,0,0,0,0,0,0,0,0,-1,1147,1016,0,0
-70,8,0,0,0,0,0,0,0,0,0,-1,1154,1016,0,0
-63,8,0,0,0,0,0,0,0,0,0,-1,1161,1016,0,0
-56,8,0,0,0,0,0,0,0,0,0,-1,1168,1016,0,0
-49,8,0,0,0,0,0,0,0,0,0,-1,1175,1016,0,0
-42,8,0,0,0,0,0,0,0,0,0,-1,1182,1016,0,0
-35,8,0,0,0,0,0,0,0,0,0,-1,1189,1016,0,0
-28,8,0,0,0,0,0,0,0,0,0,-1,1196,1016,0,0
-21,8,0,0,0,0,0,0,0,0,0,-1,1203,1016,0,0
-14,8,0,0,0,0,0,0,0,0,0,-1,1210,1016,0,0
-7,8,0,0,0,0,0,0,0,0,0,-1,1217,1016,0,0
0,8,0,0,0,0,0,0,0,0,0,-1,1224,1016,0,0
7,8,0,0,0,0,0,0,0,0,0,-1,1231,1016,0,0
14,8,0,0,0,0,0,0,0,0,0,-1,1238,1016,0,0
21,8,0,0,0,0,0,0,0,0,0,-1,1245,1016,0,0
28,8,0,0,0,0,0,0,0,0,0,-1,1252,1016,0,0
35,8,0,0,0,0,0,0,0,0,0,-1,1259,1016,0,0
42,8,0,0,0,0,0,0,0,0,0,-1,1266,1016,0,0
49,8,0,0,0,0,0,0,0,0,0,-1,1273,1016,0,0
56,8,0,0,0,0,0,0,0,0,0,-1,1280,1016,0,0
63,8,0,0,0,0,0,0,0,0,0,-1,1287,1016,0,0
70,8,0,0,0,0,0,0,0,0,0,-1,1294,1016,0,0
77,8,0,0,0,0,0,0,0,0,0,-1,1301,1016,0,0
84,8,0,0,0,0,0,0,0,0,0,-1,1308,1016,0,0
91,8,0,0,0,0,0,0,0,0,0,-1,1315,1016,0,0
98,8,0,0,0,0,0,0,0,0,0,-1,1322,1016,0,0
105,8,0,0,0,0,0,0,0,0,0,-1,1329,1016,0,0
112,8,0,0,0,0,0,0,0,0,0,-1,1336,1016,0,0
119,8,0,0,0,0,0,0,0,0,0,-1,1343,1016,0,0
126,8,0,0,0,0,0,0,0,0,0,-1,1350,1016,0,0
133,8,0,0,0,0,0,0,0,0,0,-1,1357,1016,0,0
140,8,0,0,0,0,0,0,0,0,0,-1,1364,1016,0,0
147,8,0,0,0,0,0,0,0,0,0,-1,1371,1016,0,0
154,8,0,0,0,0,0,0,0,0,0,-1,1378,1016,0,0
161,8,0,0,0,0,0,0,0,0,0,-1,1385,1016,0,0
168,8,0,0,0,0,0,0,0,0,0,-1,1392,1016,0,0
175,8,0,0,0,0,0,0,0,0,0,-1,1399,1016,0,0
182,8,0,0,0,0,0,0,0,0,0,-1,1406,1016,0,0
189,8,0,0,0,0,0,0,0,0,0,-1,1413,1016,0,0
196,8,0,0,0,0,0,0,0,0,0,-1,1420,1016,0,0
203,8,0,0,0,0,0,0,0,0,0,-1,1427,1016,0,0
210,8,0,0,0,0,0,0,0,0,0,-1,1434,1016,0,0
217,8,0,0,0,0,0,0,0,0,0,-1,1441,1016,0,0
224,8,0,0,0,0,0,0,0,0,0,-1,1448,1016,0,0
231,8,0,0,0,0,0,0,0,0,0,-1,1455,1016,0,0
238,8,0,0,0,0,0,0,0,0,0,-1,1462,1016,0,0
245,8,0,0,0,0,0,0,0,0,0,-1,1469,1016,0,0
252,8,0,0,0,0,0,0,0,0,0,-1,1476,1016,0,0
259,8,0,0,0,0,0,0,0,0,0,-1,1483,1016,0,0
266,8,0,0,0,0,0,0,0,0,0,-1,1490,1016,0,0
273,8,0,0,0,0,0,0,0,0,0,-1,1497,1016,0,0
280,8,0,0,0,0,0,0,0,0,0,-1,1504,1016,0,0
287,8,0,0,0,0,0,0,0,0,0,-1,1511,1016,0,0
294,8,0,0,0,0,0,0,0,0,0,-1,1518,1016,0,0
301,8,0,0,0,0,0,0,0,0,0,-1,1525,1016,0,0
308,8,0,0,0,0,0,0,0,0,0,-1,1532,1016,0,0
315,8,0,0,0,0,0,0,0,0,0,-1,1539,1016,0,0
322,8,0,0,0,0,0,0,0,0,0,-1,1546,1016,0,0
329,8,0,0,0,0,0,0,0,0,0,-1,1553,1016,0,0
336,8,0,0,0,0,0,0,0,0,0,-1,1560,1016,0,0
343,8,0,0,0,0,0,0,0,0,0,-1,1567,1016,0,0
350,8,0,0,0,0,0,0,0,0,0,-1,1574,1016,0,0
357,8,0,0,0,0,0,0,0,0,0,-1,1581,1016,0,0
364,8,0,0,0,0,0,0,0,0,0,-1,1588,1016,0,0
371,8,0,0,0,0,0,0,0,0,0,-1,1595,1016,0,0
378,8,0,0,0,0,0,0,0,0,0,-1,1602,1016,0,0
385,8,0,0,0,0,0,0,0,0,0,-1,1609,1016,0,0
392,8,0,0,0,0,0,0,0,0,0,-1,1616,1016,0,0
399,8,0,0,0,0,0,0,0,0,0,-1,1623,1016,0,0
406,8,0,0,0,0,0,0,0,0,0,-1,1630,1016,0,0
413,8,0,0,0,0,0,0,0,0,0,-1,1637,1016,0,0
420,8,0,0,0,0,0,0,0,0,0,-1,1644,1016,0,0
427,8,0,0,0,0,0,0,0,0,0,-1,1651,1016,0,0
434,8,0,0,0,0,0,0,0,0,0,-1,1658,1016,0,0
441,8,0,0,0,0,0,0,0,0,0,-1,1665,1016,0,0
448,8,0,0,0,0,0,0,0,0,0,-1,1672,1016,0,0
455,8,0,0,0,0,0,0,0,0,0,-1,1679,1016,0,0
462,8,0,0,0,0,0,0,0,0,0,-1,1686,1016,0,0
469,8,0,0,0,0,0,0,0,0,0,-1,1693,1016,0,0
476,8,0,0,0,0,0,0,0,0,0,-1,1700,1016,0,0
483,8,0,0,0,0,0,0,0,0,0,-1,1707,1016,0,0
490,8,0,0,0,0,0,0,0,0,0,-1,1714,1016,0,0
497,8,0,0,0,0,0,0,0,0,0,-1,1721,1016,0,0
504,8,0,0,0,0,0,0,0,0,0,-1,1728,1016,0,0
511,8,0,0,0,0,0,0,0,0,0,-1,1735,1016,0,0
518,8,0,0,0,0,0,0,0,0,0,-1,1742,1016,0,0
525,8,0,0,0,0,0,0,0,0,0,-1,1749,1016,0,0
532,8,0,0,0,0,0,0,0,0,0,-1,1756,1016,0,0
539,8,0,0,0,0,0,0,0,0,0,-1,1763,1016,0,0
546,8,0,0,0,0,0,0,0,0,0,-1,1770,1016,0,0
553,8,0,0,0,0,0,0,0,0,0,-1,1777,1016,0,0
560,8,0,0,0,0,0,0,0,0,0,-1,1784,1016,0,0
567,8,0,0,0,0,0,0,0,0,0,-1,1791,1016,0,0
574,8,0,0,0,0,0,0,0,0,0,-1,1798,1016,0,0
581,8,0,0,0,0,0,0,0,0,0,-1,1805,1016,0,0
588,8,0,0,0,0,0,0,0,0,0,-1,1812,1016,0,0
595,8,0,0,0,0,0,0,0,0,0,-1,1819,1016,0,0
602,8,0,0,0,0,0,0,0,0,0,-1,1826,1016,0,0
609,8,0,0,0,0,0,0,0,0,0,-1,1833,1016,0,0
616,8,0,0,0,0,0,0,0,0,0,-1,1840,1016,0,0
623,8,0,0,0,0,0,0,0,0,0,-1,1847,1016,0,0
630,8,0,0,0,0,0,0,0,0,0,-1,1854,1016,0,0
637,8,0,0,0,0,0,0,0,0,0,-1,1861,1016,0,0
644,8,46.2213,2.75537,0.00960879,0.0047387,0.00398641,0.011845,0.00250246,0.511223,0.0072088,0.0451496,1868,1016,46.2213,-2.75538
651,8,46.3959,2.74988,0.00717074,0.0036439,0.00257985,0.00853227,0.00228237,0.485603,0.00510054,0.0396797,1875,1016,46.3959,-2.74989
658,8,46.5511,2.84204,0.00503858,0.00273807,0.00154882,0.00581755,0.0019591,0.466003,0.00341792,0.0395358,1882,1016,46.5512,-2.84207
665,8,46.5496,2.91962,0.00327453,0.00216282,0.00104361,0.00390108,0.00153626,0.540694,0.00226916,0.0403345,1889,1016,46.5495,-2.91962
672,8,46.5133,2.93311,0.0017914,0.00187947,0.000978055,0.00281448,0.000856386,0.807894,0.00166592,0.0387831,1896,1016,46.5133,-2.93312
679,8,46.4784,2.75189,0.000570656,0.00181565,0.00124813,0.00258791,-0.0002016,1.01672,0.00179625,0.0383854,1903,1016,46.4785,-2.75188
686,8,46.4343,2.75317,-0.000247975,0.00169591,0.0016499,0.00263887,-0.00119093,1.05158,0.0022632,0.0410027,1910,1016,46.4343,-2.75317
693,8,46.4211,2.85333,-0.000709999,0.00151042,0.00205949,0.00273988,-0.00193946,1.0326,0.00271476,0.0402503,1917,1016,46.4211,-2.85336
700,8,46.4698,2.83997,-0.001037,0.00144739,0.00229418,0.00281409,-0.00240369,1.03353,0.00301559,0.0323666,1924,1016,46.4699,-2.83997
707,8,46.4587,2.83789,-0.00141656,0.00156816,0.0023981,0.00290034,-0.00274874,1.06373,0.00326189,0.0281704,1931,1016,46.4588,-2.83789
714,8,46.4546,2.81281,-0.0019072,0.0018662,0.00237709,0.00301432,-0.00305533,1.12084,0.00350434,0.0347952,1938,1016,46.4546,-2.81278
721,8,46.5369,2.75446,0,0,0,0,0,0,0,-1,1945,1016,46.5369,-2.75444
728,8,46.1465,5.67944,0,0,0,0,0,0,0,-1,1952,1016,46.1465,-5.67943
735,8,46.1056,5.7522,0,0,0,0,0,0,0,-1,1959,1016,46.1055,-5.75221
742,8,46.2223,5.75031,0,0,0,0,0,0,0,-1,1966,1016,46.2222,-5.75028
749,8,46.3026,5.92371,-0.00373663,0.00798894,0.00217934,0.0083809,-0.00412859,1.39285,0.00736013,0.0405397,1973,1016,46.3027,-5.9237
756,8,46.2211,5.87244,-0.00385548,0.0103207,0.00200413,0.0105986,-0.00413336,1.43302,0.00877429,0.0252113,1980,1016,46.2211,-5.87246
763,8,46.2144,5.95367,-0.00370469,0.013482,0.00211214,0.0137377,-0.00396045,1.45029,0.0107252,0.0154639,1987,1016,46.2144,-5.9537
770,8,46.1289,5.94299,-0.00303624,0.017559,0.00247695,0.0178527,-0.00332995,1.45277,0.013153,0.0196685,1994,1016,46.1289,-5.943
777,8,45.8097,5.94995,-0.0016956,0.022124,0.00330455,0.0225739,-0.00214555,1.43547,0.0158131,0.0341658,2001,1016,45.8097,-5.94996
784,8,45.4829,5.93915,0,0,0,0,0,0,0,-1,2008,1016,45.4829,-5.93912
791,8,45.1006,7.12347,0,0,0,0,0,0,0,-1,2015,1016,45.1005,-7.12346
798,8,44.9351,6.32819,0.00586685,0.03296,0.00690648,0.034619,0.00420786,1.33505,0.0218124,0.0492438,2022,1016,44.935,-6.32821
805,8,44.7412,5.46509,0.00921245,0.0342907,0.00824792,0.0367602,0.00674298,1.27989,0.022597,0.0463726,2029,1016,44.7413,-5.46511
812,8,44.4724,4.56818,0.0120682,0.0334736,0.00943992,0.0370418,0.00849997,1.2094,0.0224053,0.0415592,2036,1016,44.4725,-4.56816
-700,1,0,0,0,0,0,0,0,0,0,-1,524,1023,0,0
-693,1,-34.9127,4.89252,-0.0108456,0.133882,-0.0833794,0.17192,-0.048884,-1.14279,0.133916,0.042006,531,1023,-34.9127,-4.89252
-686,1,-35.1791,4.56122,0.00381995,0.116941,-0.0714718,0.151525,-0.0307639,-1.12013,0.11268,0.0443559,538,1023,-35.1791,-4.56124
-679,1,-35.7451,3.92004,0.0109301,0.100545,-0.0588176,0.129678,-0.018203,-1.11091,0.0931149,0.0472866,545,1023,-35.7452,-3.92007
-672,1,-35.217,1.77997,0.0141307,0.0850534,-0.0467197,0.108246,-0.00906147,-1.11002,0.075366,0.0472943,552,1023,-35.217,-1.77999
-665,1,-34.9872,2.13513,0.014829,0.0706585,-0.0357485,0.0881,-0.00261246,-1.11688,0.0596232,0.0440928,559,1023,-34.9872,-2.13511
-658,1,-34.7689,2.62073,0.0138267,0.0574517,-0.0262408,0.069762,0.00151647,-1.13215,0.0460108,0.0338632,566,1023,-34.7689,-2.62071
-651,1,-34.6083,2.89642,0.0118438,0.0455049,-0.0184433,0.0536428,0.00370593,-1.15525,0.0345928,0.0270677,573,1023,-34.6084,-2.89644
-644,1,-34.252,3.1073,0,0,0,0,0,0,0,-1,580,1023,-34.252,-3.10727
-637,1,-34.6266,3.00983,0.00743513,0.0246217,-0.00760484,0.0275035,0.00455331,-1.20857,0.0170221,0.0350364,587,1023,-34.6266,-3.00984
-630,1,-34.8522,3.02802,0.0057943,0.016785,-0.00511385,0.0187963,0.00378296,-1.19607,0.0114796,0.0305001,594,1023,-34.8521,-3.02803
-623,1,-34.7458,3.19818,0.00422656,0.0110988,-0.0039016,0.0128617,0.0024637,-1.14642,0.00788262,0.0163266,601,1023,-34.7459,-3.19818
-616,1,-34.8454,3.15295,0.00262542,0.0071935,-0.00361775,0.00918789,0.000631031,-1.06697,0.00592612,0.0187859,608,1023,-34.8454,-3.15293
-609,1,-34.853,3.19415,0.00133026,0.00395266,-0.00443034,0.00726177,-0.00197884,-0.929271,0.00561818,0.0196895,615,1023,-34.8529,-3.19413
-602,1,-34.7123,3.24188,0.000923333,0.00254917,-0.00573026,0.00752388,-0.00405138,-0.85586,0.00678248,0.0138096,622,1023,-34.7123,-3.2419
-595,1,-34.6777,3.29932,0,0,0,0,0,0,0,-1,629,1023,-34.6777,-3.29932
-588,1,-34.4792,2.08533,0.00179529,0.000375498,-0.00646548,0.00758973,-0.00541894,-0.730718,0.00754534,0.048616,636,1023,-34.4792,-2.08533
-581,1,-34.3303,0.969727,0.00211503,-0.000158069,-0.00632715,0.0074069,-0.00544993,-0.69653,0.0074515,0.0312233,643,1023,-34.3302,-0.969726
-574,1,-34.3625,0.95105,0.00194119,-0.000646802,-0.00572829,0.00651982,-0.00522543,-0.674315,0.00679484,0.0384872,650,1023,-34.3625,-0.951041
-567,1,-34.2637,0.946228,0.0013697,-0.000891102,-0.00454632,0.00492405,-0.00444545,-0.663549,0.00541183,0.0442482,657,1023,-34.2636,-0.946251
-560,1,-34.0612,1.01263,0.000553956,-0.00105524,-0.0026708,0.00253872,-0.00304,-0.639093,0.00322521,0.0409466,664,1023,-34.0612,-1.01261
-553,1,-34.3265,0.937744,-0.000586755,-0.00129195,-0.000116142,-0.00056812,-0.00131059,-0.159098,0.000758897,0.0386524,671,1023,-34.3265,-0.937724
-546,1,-34.475,0.977722,-0.00186839,-0.00182738,0.00304599,0.00119818,-0.00489394,0.788764,0.00372679,0.0413116,678,1023,-34.475,-0.977741
-539,1,-34.3849,0.995178,-0.00306723,-0.00255108,0.00613957,0.00333584,-0.00895414,0.806403,0.0073386,0.0419671,685,1023,-34.3849,-0.995167
-532,1,-34.4604,1.15521,-0.00339052,-0.00300222,0.00741273,0.0042189,-0.0106116,0.798491,0.00882359,0.0417791,692,1023,-34.4604,-1.15523
-525,1,0,0,0,0,0,0,0,0,0,-1,699,1023,0,0
-518,1,0,0,0,0,0,0,0,0,0,-1,706,1023,0,0
-511,1,0,0,0,0,0,0,0,0,0,-1,713,1023,0,0
-504,1,0,0,0,0,0,0,0,0,0,-1,720,1023,0,0
-497,1,0,0,0,0,0,0,0,0,0,-1,727,1023,0,0
-490,1,0,0,0,0,0,0,0,0,0,-1,734,1023,0,0
-483,1,0,0,0,0,0,0,0,0,0,-1,741,1023,0,0
-476,1,0,0,0,0,0,0,0,0,0,-1,748,1023,0,0
-469,1,0,0,0,0,0,0,0,0,0,-1,755,1023,0,0
-462,1,0,0,0,0,0,0,0,0,0,-1,762,1023,0,0
-455,1,0,0,0,0,0,0,0,0,0,-1,769,1023,0,0
-448,1,0,0,0,0,0,0,0,0,0,-1,776,1023,0,0
-441,1,0,0,0,0,0,0,0,0,0,-1,783,1023,0,0
-434,1,0,0,0,0,0,0,0,0,0,-1,790,1023,0,0
-427,1,0,0,0,0,0,0,0,0,0,-1,797,1023,0,0
-420,1,0,0,0,0,0,0,0,0,0,-1,804,1023,0,0
-413,1,0,0,0,0,0,0,0,0,0,-1,811,1023,0,0
-406,1,0,0,0,0,0,0,0,0,0,-1,818,1023,0,0
-399,1,0,0,0,0,0,0,0,0,0,-1,825,1023,0,0
-392,1,0,0,0,0,0,0,0,0,0,-1,832,1023,0,0
-385,1,0,0,0,0,0,0,0,0,0,-1,839,1023,0,0
-378,1,0,0,0,0,0,0,0,0,0,-1,846,1023,0,0
-371,1,0,0,0,0,0,0,0,0,0,-1,853,1023,0,0
-364,1,0,0,0,0,0,0,0,0,0,-1,860,1023,0,0
-357,1,0,0,0,0,0,0,0,0,0,-1,867,1023,0,0
-350,1,0,0,0,0,0,0,0,0,0,-1,874,1023,0,0
-343,1,0,0,0,0,0,0,0,0,0,-1,881,1023,0,0
-336,1,0,0,0,0,0,0,0,0,0,-1,888,1023,0,0
-329,1,0,0,0,0,0,0,0,0,0,-1,895,1023,0,0
-322,1,0,0,0,0,0,0,0,0,0,-1,902,1023,0,0
-315,1,0,0,0,0,0,0,0,0,0,-1,909,1023,0,0
-308,1,0,0,0,0,0,0,0,0,0,-1,916,1023,0,0
-301,1,0,0,0,0,0,0,0,0,0,-1,923,1023,0,0
-294,1,0,0,0,0,0,0,0,0,0,-1,930,1023,0,0
-287,1,0,0,0,0,0,0,0,0,0,-1,937,1023,0,0
-280,1,0,0,0,0,0,0,0,0,0,-1,944,1023,0,0
-273,1,0,0,0,0,0,0,0,0,0,-1,951,1023,0,0
-266,1,0,0,0,0,0,0,0,0,0,-1,958,1023,0,0
-259,1,0,0,0,0,0,0,0,0,0,-1,965,1023,0,0
-252,1,0,0,0,0,0,0,0,0,0,-1,972,1023,0,0
-245,1,0,0,0,0,0,0,0,0,0,-1,979,1023,0,0
-238,1,0,0,0,0,0,0,0,0,0,-1,986,1023,0,0
-231,1,0,0,0,0,0,0,0,0,0,-1,993,1023,0,0
-224,1,0,0,0,0,0,0,0,0,0,-1,1000,1023,0,0
-217,1,0,0,0,0,0,0,0,0,0,-1,1007,1023,0,0
-210,1,0,0,0,0,0,0,0,0,0,-1,1014,1023,0,0
-203,1,0,0,0,0,0,0,0,0,0,-1,1021,1023,0,0
-196,1,0,0,0,0,0,0,0,0,0,-1,1028,1023,0,0
-189,1,0,0,0,0,0,0,0,0,0,-1,1035,1023,0,0
-182,1,0,0,0,0,0,0,0,0,0,-1,1042,1023,0,0
-175,1,0,0,0,0,0,0,0,0,0,-1,1049,1023,0,0
-168,1,0,0,0,0,0,0,0,0,0,-1,1056,1023,0,0
-161,1,0,0,0,0,0,0,0,0,0,-1,1063,1023,0,0
-154,1,0,0,0,0,0,0,0,0,0,-1,1070,1023,0,0
-147,1,0,0,0,0,0,0,0,0,0,-1,1077,1023,0,0
-140,1,0,0,0,0,0,0,0,0,0,-1,1084,1023,0,0
-133,1,0,0,0,0,0,0,0,0,0,-1,1091,1023,0,0
-126,1,0,0,0,0,0,0,0,0,0,-1,1098,1023,0,0
-119,1,0,0,0,0,0,0,0,0,0,-1,1105,1023,0,0
-112,1,0,0,0,0,0,0,0,0,0,-1,1112,1023,0,0
-105,1,0,0,0,0,0,0,0,0,0,-1,1119,1023,0,0
-98,1,0,0,0,0,0,0,0,0,0,-1,1126,1023,0,0
-91,1,0,0,0,0,0,0,0,0,0,-1,1133,1023,0,0
-84,1,0,0,0,0,0,0,0,0,0,-1,1140,1023,0,0
-77,1,0,0,0,0,0,0,0,0,0,-1,1147,1023,0,0
-70,1,0,0,0,0,0,0,0,0,0,-1,1154,1023,0,0
-63,1,0,0,0,0,0,0,0,0,0,-1,1161,1023,0,0
-56,1,0,0,0,0,0,0,0,0,0,-1,1168,1023,0,0
-49,1,0,0,0,0,0,0,0,0,0,-1,1175,1023,0,0
-42,1,0,0,0,0,0,0,0,0,0,-1,1182,1023,0,0
-35,1,0,0,0,0,0,0,0,0,0,-1,1189,1023,0,0
-28,1,0,0,0,0,0,0,0,0,0,-1,1196,1023,0,0
-21,1,0,0,0,0,0,0,0,0,0,-1,1203,1023,0,0
-14,1,0,0,0,0,0,0,0,0,0,-1,1210,1023,0,0
-7,1,0,0,0,0,0,0,0,0,0,-1,1217,1023,0,0
0,1,0,0,0,0,0,0,0,0,0,-1,1224,1023,0,0
7,1,0,0,0,0,0,0,0,0,0,-1,1231,1023,0,0
14,1,0,0,0,0,0,0,0,0,0,-1,1238,1023,0,0
21,1,0,0,0,0,0,0,0,0,0,-1,1245,1023,0,0
28,1,0,0,0,0,0,0,0,0,0,-1,1252,1023,0,0
35,1,0,0,0,0,0,0,0,0,0,-1,1259,1023,0,0
42,1,0,0,0,0,0,0,0,0,0,-1,1266,1023,0,0
49,1,0,0,0,0,0,0,0,0,0,-1,1273,1023,0,0
56,1,0,0,0,0,0,0,0,0,0,-1,1280,1023,0,0
63,1,0,0,0,0,0,0,0,0,0,-1,1287,1023,0,0
70,1,0,0,0,0,0,0,0,0,0,-1,1294,1023,0,0
77,1,0,0,0,0,0,0,0,0,0,-1,1301,1023,0,0
84,1,0,0,0,0,0,0,0,0,0,-1,1308,1023,0,0
91,1,0,0,0,0,0,0,0,0,0,-1,1315,1023,0,0
98,1,0,0,0,0,0,0,0,0,0,-1,1322,1023,0,0
105,1,0,0,0,0,0,0,0,0,0,-1,1329,1023,0,0
112,1,0,0,0,0,0,0,0,0,0,-1,1336,1023,0,0
119,1,0,0,0,0,0,0,0,0,0,-1,1343,1023,0,0
126,1,0,0,0,0,0,0,0,0,0,-1,1350,1023,0,0
133,1,0,0,0,0,0,0,0,0,0,-1,1357,1023,0,0
140,1,0,0,0,0,0,0,0,0,0,-1,1364,1023,0,0
147,1,0,0,0,0,0,0,0,0,0,-1,1371,1023,0,0
154,1,0,0,0,0,0,0,0,0,0,-1,1378,1023,0,0
161,1,0,0,0,0,0,0,0,0,0,-1,1385,1023,0,0
168,1,0,0,0,0,0,0,0,0,0,-1,1392,1023,0,0
175,1,0,0,0,0,0,0,0,0,0,-1,1399,1023,0,0
182,1,0,0,0,0,0,0,0,0,0,-1,1406,1023,0,0
189,1,0,0,0,0,0,0,0,0,0,-1,1413,1023,0,0
196,1,0,0,0,0,0,0,0,0,0,-1,1420,1023,0,0
203,1,0,0,0,0,0,0,0,0,0,-1,1427,1023,0,0
210,1,0,0,0,0,0,0,0,0,0,-1,1434,1023,0,0
217,1,0,0,0,0,0,0,0,0,0,-1,1441,1023,0,0
224,1,0,0,0,0,0,0,0,0,0,-1,1448,1023,0,0
231,1,0,0,0,0,0,0,0,0,0,-1,1455,1023,0,0
238,1,0,0,0,0,0,0,0,0,0,-1,1462,1023,0,0
245,1,0,0,0,0,0,0,0,0,0,-1,1469,1023,0,0
252,1,0,0,0,0,0,0,0,0,0,-1,1476,1023,0,0
259,1,0,0,0,0,0,0,0,0,0,-1,1483,1023,0,0
266,1,0,0,0,0,0,0,0,0,0,-1,1490,1023,0,0
273,1,0,0,0,0,0,0,0,0,0,-1,1497,1023,0,0
280,1,0,0,0,0,0,0,0,0,0,-1,1504,1023,0,0
287,1,0,0,0,0,0,0,0,0,0,-1,1511,1023,0,0
294,1,0,0,0,0,0,0,0,0,0,-1,1518,1023,0,0
301,1,0,0,0,0,0,0,0,0,0,-1,1525,1023,0,0
308,1,0,0,0,0,0,0,0,0,0,-1,1532,1023,0,0
315,1,0,0,0,0,0,0,0,0,0,-1,1539,1023,0,0
322,1,0,0,0,0,0,0,0,0,0,-1,1546,1023,0,0
329,1,0,0,0,0,0,0,0,0,0,-1,1553,1023,0,0
336,1,0,0,0,0,0,0,0,0,0,-1,1560,1023,0,0
343,1,0,0,0,0,0,0,0,0,0,-1,1567,1023,0,0
350,1,0,0,0,0,0,0,0,0,0,-1,1574,1023,0,0
357,1,0,0,0,0,0,0,0,0,0,-1,1581,1023,0,0
364,1,0,0,0,0,0,0,0,0,0,-1,1588,1023,0,0
371,1,0,0,0,0,0,0,0,0,0,-1,1595,1023,0,0
378,1,0,0,0,0,0,0,0,0,0,-1,1602,1023,0,0
385,1,0,0,0,0,0,0,0,0,0,-1,1609,1023,0,0
392,1,0,0,0,0,0,0,0,0,0,-1,1616,1023,0,0
399,1,0,0,0,0,0,0,0,0,0,-1,1623,1023,0,0
406,1,0,0,0,0,0,0,0,0,0,-1,1630,1023,0,0
413,1,0,0,0,0,0,0,0,0,0,-1,1637,1023,0,0
420,1,0,0,0,0,0,0,0,0,0,-1,1644,1023,0,0
427,1,0,0,0,0,0,0,0,0,0,-1,1651,1023,0,0
434,1,0,0,0,0,0,0,0,0,0,-1,1658,1023,0,0
441,1,0,0,0,0,0,0,0,0,0,-1,1665,1023,0,0
448,1,0,0,0,0,0,0,0,0,0,-1,1672,1023,0,0
455,1,0,0,0,0,0,0,0,0,0,-1,1679,1023,0,0
462,1,0,0,0,0,0,0,0,0,0,-1,1686,1023,0,0
469,1,0,0,0,0,0,0,0,0,0,-1,1693,1023,0,0
476,1,0,0,0,0,0,0,0,0,0,-1,1700,1023,0,0
483,1,0,0,0,0,0,0,0,0,0,-1,1707,1023,0,0
490,1,0,0,0,0,0,0,0,0,0,-1,1714,1023,0,0
497,1,0,0,0,0,0,0,0,0,0,-1,1721,1023,0,0
504,1,0,0,0,0,0,0,0,0,0,-1,1728,1023,0,0
511,1,0,0,0,0,0,0,0,0,0,-1,1735,1023,0,0
518,1,0,0,0,0,0,0,0,0,0,-1,1742,1023,0,0
525,1,0,0,0,0,0,0,0,0,0,-1,1749,1023,0,0
532,1,0,0,0,0,0,0,0,0,0,-1,1756,1023,0,0
539,1,0,0,0,0,0,0,0,0,0,-1,1763,1023,0,0
546,1,0,0,0,0,0,0,0,0,0,-1,1770,1023,0,0
553,1,0,0,0,0,0,0,0,0,0,-1,1777,1023,0,0
560,1,0,0,0,0,0,0,0,0,0,-1,1784,1023,0,0
567,1,0,0,0,0,0,0,0,0,0,-1,1791,1023,0,0
574,1,0,0,0,0,0,0,0,0,0,-1,1798,1023,0,0
581,1,0,0,0,0,0,0,0,0,0,-1,1805,1023,0,0
588,1,0,0,0,0,0,0,0,0,0,-1,1812,1023,0,0
595,1,0,0,0,0,0,0,0,0,0,-1,1819,1023,0,0
602,1,0,0,0,0,0,0,0,0,0,-1,1826,1023,0,0
609,1,0,0,0,0,0,0,0,0,0,-1,1833,1023,0,0
616,1,0,0,0,0,0,0,0,0,0,-1,1840,1023,0,0
623,1,0,0,0,0,0,0,0,0,0,-1,1847,1023,0,0
630,1,0,0,0,0,0,0,0,0,0,-1,1854,1023,0,0
637,1,0,0,0,0,0,0,0,0,0,-1,1861,1023,0,0
644,1,0,0,0,0,0,0,0,0,0,-1,1868,1023,0,0
651,1,46.4969,2.67645,0.00655293,0.00359592,0.00282473,0.00826269,0.00188616,0.544297,0.00499977,0.0405021,1875,1023,46.497,-2.67646
658,1,46.712,2.6629,0.00456731,0.00275462,0.00181639,0.00569093,0.001631,0.553982,0.00338395,0.0403005,1882,1023,46.712,-2.66291
665,1,46.6643,2.79944,0.00293753,0.00216234,0.00124626,0.00385508,0.00124479,0.634638,0.0022718,0.041455,1889,1023,46.6643,-2.79946
672,1,46.5314,2.93689,0.0015777,0.00185,0.00110682,0.00282901,0.000598693,0.846596,0.0017215,0.0404126,1896,1023,46.5313,-2.93687
679,1,46.4834,2.91571,0.00043571,0.00173023,0.00127582,0.00251358,-0.000347646,1.02014,0.00180281,0.0394753,1903,1023,46.4834,-2.91572
686,1,46.431,2.89032,-0.000378394,0.00155333,0.00159546,0.00245251,-0.00127757,1.05758,0.00218889,0.0393227,1910,1023,46.4311,-2.8903
693,1,46.5427,2.96735,-0.000841693,0.00132067,0.00196018,0.00247807,-0.00199909,1.03742,0.00258982,0.035886,1917,1023,46.5428,-2.96734
700,1,46.4437,2.86743,-0.00114683,0.0012187,0.00219224,0.00252688,-0.00245502,1.03278,0.0028764,0.0319568,1924,1023,46.4437,-2.86743
707,1,46.4296,2.81738,-0.00151758,0.001312,0.00231642,0.00261151,-0.00281709,1.05955,0.00313495,0.0289952,1931,1023,46.4295,-2.81736
714,1,46.4219,2.81934,-0.0019988,0.00158846,0.00231525,0.00272356,-0.00313391,1.11496,0.00338458,0.0331654,1938,1023,46.4219,-2.81935
721,1,46.5106,2.85339,0,0,0,0,0,0,0,-1,1945,1023,46.5106,-2.85339
728,1,46.0784,5.99091,0,0,0,0,0,0,0,-1,1952,1023,46.0784,-5.99093
735,1,46.078,5.87665,-0.00350943,0.00405278,0.00241683,0.00475919,-0.00421585,1.28643,0.0051849,0.0389303,1959,1023,46.078,-5.87664
742,1,46.2141,5.849,-0.00369713,0.00569051,0.00225034,0.00620206,-0.00420869,1.34727,0.00604727,0.0481351,1966,1023,46.2141,-5.84899
749,1,46.2185,5.90387,-0.00398509,0.00739116,0.00200382,0.00773379,-0.00432772,1.40144,0.00705567,0.0457593,1973,1023,46.2186,-5.90389
756,1,46.2549,5.9245,-0.00412973,0.00957487,0.00174218,0.00979287,-0.00434773,1.44631,0.00836341,0.0241488,1980,1023,46.2549,-5.9245
763,1,46.1843,5.8847,-0.0040647,0.0125692,0.00167153,0.0127355,-0.00423101,1.47163,0.0101976,0.0155774,1987,1023,46.1844,-5.88471
770,1,46.149,5.87311,-0.00350882,0.0163925,0.00172867,0.0165415,-0.00365786,1.48479,0.0124277,0.0175827,1994,1023,46.149,-5.87312
777,1,45.8944,5.80688,-0.0023034,0.0206973,0.0021948,0.0209049,-0.00251097,1.47651,0.0148445,0.0245792,2001,1023,45.8945,-5.80686
784,1,45.551,5.82458,0,0,0,0,0,0,0,-1,2008,1023,45.551,-5.82458
791,1,45.217,5.91315,0,0,0,0,0,0,0,-1,2015,1023,45.2171,-5.91313
798,1,44.1526,6.27478,0,0,0,0,0,0,0,-1,2022,1023,44.1527,-6.27475
805,1,43.9661,5.40808,0,0,0,0,0,0,0,-1,2029,1023,43.9662,-5.4081
812,1,43.2859,4.20001,0,0,0,0,0,0,0,-1,2036,1023,43.2859,-4.2
-700,-6,0,0,0,0,0,0,0,0,0,-1,524,1030,0,0
-693,-6,-34.8475,4.02258,-0.0143308,0.135071,-0.0754697,0.166558,-0.0458179,-1.17554,0.129052,0.0412449,531,1030,-34.8475,-4.02256
-686,-6,-35.043,3.64832,0.0014162,0.118006,-0.0649724,0.147002,-0.0275798,-1.15104,0.108371,0.0442068,538,1030,-35.043,-3.64828
-679,-6,-35.1896,3.29272,0.00909125,0.101426,-0.0536426,0.126033,-0.0155153,-1.14072,0.0896423,0.0459603,545,1030,-35.1896,-3.29267
-672,-6,-34.8886,3.16382,0.0126337,0.0857886,-0.0427539,0.105477,-0.00705442,-1.13925,0.0727833,0.0439793,552,1030,-34.8886,-3.16381
-665,-6,-35.1937,2.40601,0,0,0,0,0,0,0,-1,559,1030,-35.1937,-2.40599
-658,-6,-34.9175,2.63806,0.0127994,0.0579843,-0.024299,0.0685711,0.00221261,-1.15991,0.0449946,0.0377646,566,1030,-34.9175,-2.63804
-651,-6,-34.6866,2.7489,0.0110609,0.0459507,-0.0172618,0.0530475,0.00396416,-1.18073,0.0341205,0.0400613,573,1030,-34.6866,-2.74895
-644,-6,-34.3873,3.30396,0,0,0,0,0,0,0,-1,580,1030,-34.3873,-3.30398
-637,-6,-34.6289,3.14124,0.00705128,0.0247381,-0.00738854,0.0274185,0.00437096,-1.22279,0.0170102,0.0388168,587,1030,-34.6289,-3.1412
-630,-6,-34.7639,3.01721,0.00556647,0.0167587,-0.00507179,0.018715,0.00361012,-1.20265,0.0114644,0.0216302,594,1030,-34.7638,-3.01725
-623,-6,-34.6969,3.11694,0.00415297,0.0109026,-0.00387003,0.0126626,0.00239295,-1.14397,0.00776795,0.0170533,601,1030,-34.6969,-3.11695
-616,-6,-34.7397,3.1488,0.00267641,0.00699918,-0.0035122,0.00896176,0.000713823,-1.06123,0.00575135,0.018414,608,1030,-34.7397,-3.14877
-609,-6,-34.7264,3.22388,0.00141324,0.00349502,-0.00413945,0.00672244,-0.00181419,-0.908572,0.00519308,0.0187271,615,1030,-34.7264,-3.22382
-602,-6,-34.6475,3.29871,0.00096914,0.00196745,-0.00527237,0.00676424,-0.00382765,-0.832594,0.00619308,0.0134911,622,1030,-34.6474,-3.29867
-595,-6,-34.5082,3.26501,0,0,0,0,0,0,0,-1,629,1030,-34.5083,-3.265
-588,-6,-34.4428,2.05786,0.00177311,-0.000180769,-0.00577238,0.00665064,-0.0050583,-0.701571,0.00678097,0.0286699,636,1030,-34.4428,-2.05781
-581,-6,-34.3254,1.00684,0.00203479,-0.000655977,-0.00559867,0.00644746,-0.00506865,-0.667482,0.0066647,0.0259324,643,1030,-34.3254,-1.00684
-574,-6,-34.3359,0.890137,0.00180616,-0.00103773,-0.00501858,0.00560035,-0.00483192,-0.647349,0.00602851,0.033081,650,1030,-34.3359,-0.890142
-567,-6,-34.2311,0.899658,0.0011645,-0.00115819,-0.00395886,0.00412884,-0.00412253,-0.642725,0.00476394,0.0436043,657,1030,-34.2312,-0.899636
-560,-6,-34.0571,1.07751,0.000263503,-0.00114132,-0.00233027,0.00199493,-0.00287274,-0.639015,0.00282554,0.0422469,664,1030,-34.0572,-1.07748
-553,-6,-34.1721,0.831543,-0.000965092,-0.00112585,-0.000155898,-0.000870073,-0.00122087,-0.547372,0.000725813,0.0397176,671,1030,-34.1721,-0.831593
-546,-6,-34.397,0.971436,-0.00233326,-0.00132058,0.00249231,0.000716301,-0.00437014,0.885616,0.00317921,0.0425965,678,1030,-34.397,-0.971419
-539,-6,-34.4119,1.14209,-0.00360552,-0.00170725,0.00507088,0.00250255,-0.00781532,0.877915,0.00621469,0.0435615,685,1030,-34.4119,-1.14208
-532,-6,-34.6553,1.35815,-0.0039597,-0.00172571,0.00587118,0.00313378,-0.0088192,0.8794,0.00715655,0.0437324,692,1030,-34.6553,-1.35821
-525,-6,0,0,0,0,0,0,0,0,0,-1,699,1030,0,0
-518,-6,0,0,0,0,0,0,0,0,0,-1,706,1030,0,0
-511,-6,0,0,0,0,0,0,0,0,0,-1,713,1030,0,0
-504,-6,0,0,0,0,0,0,0,0,0,-1,720,1030,0,0
-497,-6,0,0,0,0,0,0,0,0,0,-1,727,1030,0,0
-490,-6,0,0,0,0,0,0,0,0,0,-1,734,1030,0,0
-483,-6,0,0,0,0,0,0,0,0,0,-1,741,1030,0,0
-476,-6,0,0,0,0,0,0,0,0,0,-1,748,1030,0,0
-469,-6,0,0,0,0,0,0,0,0,0,-1,755,1030,0,0
-462,-6,0,0,0,0,0,0,0,0,0,-1,762,1030,0,0
-455,-6,0,0,0,0,0,0,0,0,0,-1,769,1030,0,0
-448,-6,0,0,0,0,0,0,0,0,0,-1,776,1030,0,0
-441,-6,0,0,0,0,0,0,0,0,0,-1,783,1030,0,0
-434,-6,0,0,0,0,0,0,0,0,0,-1,790,1030,0,0
-427,-6,0,0,0,0,0,0,0,0,0,-1,797,1030,0,0
-420,-6,0,0,0,0,0,0,0,0,0,-1,804,1030,0,0
-413,-6,0,0,0,0,0,0,0,0,0,-1,811,1030,0,0
-406,-6,0,0,0,0,0,0,0,0,0,-1,818,1030,0,0
-399,-6,0,0,0,0,0,0,0,0,0,-1,825,1030,0,0
-392,-6,0,0,0,0,0,0,0,0,0,-1,832,1030,0,0
-385,-6,0,0,0,0,0,0,0,0,0,-1,839,1030,0,0
-378,-6,0,0,0,0,0,0,0,0,0,-1,846,1030,0,0
-371,-6,0,0,0,0,0,0,0,0,0,-1,853,1030,0,0
-364,-6,0,0,0,0,0,0,0,0,0,-1,860,1030,0,0
-357,-6,0,0,0,0,0,0,0,0,0,-1,867,1030,0,0
-350,-6,0,0,0,0,0,0,0,0,0,-1,874,1030,0,0
-343,-6,0,0,0,0,0,0,0,0,0,-1,881,1030,0,0
-336,-6,0,0,0,0,0,0,0,0,0,-1,888,1030,0,0
-329,-6,0,0,0,0,0,0,0,0,0,-1,895,1030,0,0
-322,-6,0,0,0,0,0,0,0,0,0,-1,902,1030,0,0
-315,-6,0,0,0,0,0,0,0,0,0,-1,909,1030,0,0
-308,-6,0,0,0,0,0,0,0,0,0,-1,916,1030,0,0
-301,-6,0,0,0,0,0,0,0,0,0,-1,923,1030,0,0
-294,-6,0,0,0,0,0,0,0,0,0,-1,930,1030,0,0
-287,-6,0,0,0,0,0,0,0,0,0,-1,937,1030,0,0
-280,-6,0,0,0,0,0,0,0,0,0,-1,944,1030,0,0
-273,-6,0,0,0,0,0,0,0,0,0,-1,951,1030,0,0
-266,-6,0,0,0,0,0,0,0,0,0,-1,958,1030,0,0
-259,-6,0,0,0,0,0,0,0,0,0,-1,965,1030,0,0
-252,-6,0,0,0,0,0,0,0,0,0,-1,972,1030,0,0
-245,-6,0,0,0,0,0,0,0,0,0,-1,979,1030,0,0
-238,-6,0,0,0,0,0,0,0,0,0,-1,986,1030,0,0
-231,-6,0,0,0,0,0,0,0,0,0,-1,993,1030,0,0
-224,-6,0,0,0,0,0,0,0,0,0,-1,1000,1030,0,0
-217,-6,0,0,0,0,0,0,0,0,0,-1,1007,1030,0,0
-210,-6,0,0,0,0,0,0,0,0,0,-1,1014,1030,0,0
-203,-6,0,0,0,0,0,0,0,0,0,-1,1021,1030,0,0
-196,-6,0,0,0,0,0,0,0,0,0,-1,1028,1030,0,0
-189,-6,0,0,0,0,0,0,0,0,0,-1,1035,1030,0,0
-182,-6,0,0,0,0,0,0,0,0,0,-1,1042,1030,0,0
-175,-6,0,0,0,0,0,0,0,0,0,-1,1049,1030,0,0
-168,-6,0,0,0,0,0,0,0,0,0,-1,1056,1030,0,0
-161,-6,0,0,0,0,0,0,0,0,0,-1,1063,1030,0,0
-154,-6,0,0,0,0,0,0,0,0,0,-1,1070,1030,0,0
-147,-6,0,0,0,0,0,0,0,0,0,-1,1077,1030,0,0
-140,-6,0,0,0,0,0,0,0,0,0,-1,1084,1030,0,0
-133,-6,0,0,0,0,0,0,0,0,0,-1,1091,1030,0,0
-126,-6,0,0,0,0,0,0,0,0,0,-1,1098,1030,0,0
-119,-6,0,0,0,0,0,0,0,0,0,-1,1105,1030,0,0
-112,-6,0,0,0,0,0,0,0,0,0,-1,1112,1030,0,0
-105,-6,0,0,0,0,0,0,0,0,0,-1,1119,1030,0,0
-98,-6,0,0,0,0,0,0,0,0,0,-1,1126,1030,0,0
-91,-6,0,0,0,0,0,0,0,0,0,-1,1133,1030,0,0
-84,-6,0,0,0,0,0,0,0,0,0,-1,1140,1030,0,0
-77,-6,0,0,0,0,0,0,0,0,0,-1,1147,1030,0,0
-70,-6,0,0,0,0,0,0,0,0,0,-1,1154,1030,0,0
-63,-6,0,0,0,0,0,0,0,0,0,-1,1161,1030,0,0
-56,-6,0,0,0,0,0,0,0,0,0,-1,1168,1030,0,0
-49,-6,0,0,0,0,0,0,0,0,0,-1,1175,1030,0,0
-42,-6,0,0,0,0,0,0,0,0,0,-1,1182,1030,0,0
-35,-6,0,0,0,0,0,0,0,0,0,-1,1189,1030,0,0
-28,-6,0,0,0,0,0,0,0,0,0,-1,1196,1030,0,0
-21,-6,0,0,0,0,0,0,0,0,0,-1,1203,1030,0,0
-14,-6,0,0,0,0,0,0,0,0,0,-1,1210,1030,0,0
-7,-6,0,0,0,0,0,0,0,0,0,-1,1217,1030,0,0
0,-6,0,0,0,0,0,0,0,0,0,-1,1224,1030,0,0
7,-6,0,0,0,0,0,0,0,0,0,-1,1231,1030,0,0
14,-6,0,0,0,0,0,0,0,0,0,-1,1238,1030,0,0
21,-6,0,0,0,0,0,0,0,0,0,-1,1245,1030,0,0
28,-6,0,0,0,0,0,0,0,0,0,-1,1252,1030,0,0
35,-6,0,0,0,0,0,0,0,0,0,-1,1259,1030,0,0
42,-6,0,0,0,0,0,0,0,0,0,-1,1266,1030,0,0
49,-6,0,0,0,0,0,0,0,0,0,-1,1273,1030,0,0
56,-6,0,0,0,0,0,0,0,0,0,-1,1280,1030,0,0
63,-6,0,0,0,0,0,0,0,0,0,-1,1287,1030,0,0
70,-6,0,0,0,0,0,0,0,0,0,-1,1294,1030,0,0
77,-6,0,0,0,0,0,0,0,0,0,-1,1301,1030,0,0
84,-6,0,0,0,0,0,0,0,0,0,-1,1308,1030,0,0
91,-6,0,0,0,0,0,0,0,0,0,-1,1315,1030,0,0
98,-6,0,0,0,0,0,0,0,0,0,-1,1322,1030,0,0
105,-6,0,0,0,0,0,0,0,0,0,-1,1329,1030,0,0
112,-6,0,0,0,0,0,0,0,0,0,-1,1336,1030,0,0
119,-6,0,0,0,0,0,0,0,0,0,-1,1343,1030,0,0
126,-6,0,0,0,0,0,0,0,0,0,-1,1350,1030,0,0
133,-6,0,0,0,0,0,0,0,0,0,-1,1357,1030,0,0
140,-6,0,0,0,0,0,0,0,0,0,-1,1364,1030,0,0
147,-6,0,0,0,0,0,0,0,0,0,-1,1371,1030,0,0
154,-6,0,0,0,0,0,0,0,0,0,-1,1378,1030,0,0
161,-6,0,0,0,0,0,0,0,0,0,-1,1385,1030,0,0
168,-6,0,0,0,0,0,0,0,0,0,-1,1392,1030,0,0
175,-6,0,0,0,0,0,0,0,0,0,-1,1399,1030,0,0
182,-6,0,0,0,0,0,0,0,0,0,-1,1406,1030,0,0
189,-6,0,0,0,0,0,0,0,0,0,-1,1413,1030,0,0
196,-6,0,0,0,0,0,0,0,0,0,-1,1420,1030,0,0
203,-6,0,0,0,0,0,0,0,0,0,-1,1427,1030,0,0
210,-6,0,0,0,0,0,0,0,0,0,-1,1434,1030,0,0
217,-6,0,0,0,0,0,0,0,0,0,-1,1441,1030,0,0
224,-6,0,0,0,0,0,0,0,0,0,-1,1448,1030,0,0
231,-6,0,0,0,0,0,0,0,0,0,-1,1455,1030,0,0
238,-6,0,0,0,0,0,0,0,0,0,-1,1462,1030,0,0
245,-6,0,0,0,0,0,0,0,0,0,-1,1469,1030,0,0
252,-6,0,0,0,0,0,0,0,0,0,-1,1476,1030,0,0
259,-6,0,0,0,0,0,0,0,0,0,-1,1483,1030,0,0
266,-6,0,0,0,0,0,0,0,0,0,-1,1490,1030,0,0
273,-6,0,0,0,0,0,0,0,0,0,-1,1497,1030,0,0
280,-6,0,0,0,0,0,0,0,0,0,-1,1504,1030,0,0
287,-6,0,0,0,0,0,0,0,0,0,-1,1511,1030,0,0
294,-6,0,0,0,0,0,0,0,0,0,-1,1518,1030,0,0
301,-6,0,0,0,0,0,0,0,0,0,-1,1525,1030,0,0
308,-6,0,0,0,0,0,0,0,0,0,-1,1532,1030,0,0
315,-6,0,0,0,0,0,0,0,0,0,-1,1539,1030,0,0
322,-6,0,0,0,0,0,0,0,0,0,-1,1546,1030,0,0
329,-6,0,0,0,0,0,0,0,0,0,-1,1553,1030,0,0
336,-6,0,0,0,0,0,0,0,0,0,-1,1560,1030,0,0
343,-6,0,0,0,0,0,0,0,0,0,-1,1567,1030,0,0
350,-6,0,0,0,0,0,0,0,0,0,-1,1574,1030,0,0
357,-6,0,0,0,0,0,0,0,0,0,-1,1581,1030,0,0
364,-6,0,0,0,0,0,0,0,0,0,-1,1588,1030,0,0
371,-6,0,0,0,0,0,0,0,0,0,-1,1595,1030,0,0
378,-6,0,0,0,0,0,0,0,0,0,-1,1602,1030,0,0
385,-6,0,0,0,0,0,0,0,0,0,-1,1609,1030,0,0
392,-6,0,0,0,0,0,0,0,0,0,-1,1616,1030,0,0
399,-6,0,0,0,0,0,0,0,0,0,-1,1623,1030,0,0
406,-6,0,0,0,0,0,0,0,0,0,-1,1630,1030,0,0
413,-6,0,0,0,0,0,0,0,0,0,-1,1637,1030,0,0
420,-6,0,0,0,0,0,0,0,0,0,-1,1644,1030,0,0
427,-6,0,0,0,0,0,0,0,0,0,-1,1651,1030,0,0
434,-6,0,0,0,0,0,0,0,0,0,-1,1658,1030,0,0
441,-6,0,0,0,0,0,0,0,0,0,-1,1665,1030,0,0
448,-6,0,0,0,0,0,0,0,0,0,-1,1672,1030,0,0
455,-6,0,0,0,0,0,0,0,0,0,-1,1679,1030,0,0
462,-6,0,0,0,0,0,0,0,0,0,-1,1686,1030,0,0
469,-6,0,0,0,0,0,0,0,0,0,-1,1693,1030,0,0
476,-6,0,0,0,0,0,0,0,0,0,-1,1700,1030,0,0
483,-6,0,0,0,0,0,0,0,0,0,-1,1707,1030,0,0
490,-6,0,0,0,0,0,0,0,0,0,-1,1714,1030,0,0
497,-6,0,0,0,0,0,0,0,0,0,-1,1721,1030,0,0
504,-6,0,0,0,0,0,0,0,0,0,-1,1728,1030,0,0
511,-6,0,0,0,0,0,0,0,0,0,-1,1735,1030,0,0
518,-6,0,0,0,0,0,0,0,0,0,-1,1742,1030,0,0
525,-6,0,0,0,0,0,0,0,0,0,-1,1749,1030,0,0
532,-6,0,0,0,0,0,0,0,0,0,-1,1756,1030,0,0
539,-6,0,0,0,0,0,0,0,0,0,-1,1763,1030,0,0
546,-6,0,0,0,0,0,0,0,0,0,-1,1770,1030,0,0
553,-6,0,0,0,0,0,0,0,0,0,-1,1777,1030,0,0
560,-6,0,0,0,0,0,0,0,0,0,-1,1784,1030,0,0
567,-6,0,0,0,0,0,0,0,0,0,-1,1791,1030,0,0
574,-6,0,0,0,0,0,0,0,0,0,-1,1798,1030,0,0
581,-6,0,0,0,0,0,0,0,0,0,-1,1805,1030,0,0
588,-6,0,0,0,0,0,0,0,0,0,-1,1812,1030,0,0
595,-6,0,0,0,0,0,0,0,0,0,-1,1819,1030,0,0
602,-6,0,0,0,0,0,0,0,0,0,-1,1826,1030,0,0
609,-6,0,0,0,0,0,0,0,0,0,-1,1833,1030,0,0
616,-6,0,0,0,0,0,0,0,0,0,-1,1840,1030,0,0
623,-6,0,0,0,0,0,0,0,0,0,-1,1847,1030,0,0
630,-6,0,0,0,0,0,0,0,0,0,-1,1854,1030,0,0
637,-6,0,0,0,0,0,0,0,0,0,-1,1861,1030,0,0
644,-6,0,0,0,0,0,0,0,0,0,-1,1868,1030,0,0
651,-6,46.6023,2.828,0.00609095,0.00285635,0.00266114,0.00758771,0.0013596,0.51235,0.00467169,0.0373325,1875,1030,46.6023,-2.82801
658,-6,46.6704,2.68982,0.00421244,0.00219981,0.00179201,0.00526135,0.00115089,0.529562,0.00319382,0.0387402,1882,1030,46.6704,-2.68982
665,-6,46.6666,2.71289,0.00267107,0.00170591,0.00127617,0.00355285,0.000824126,0.604634,0.00214724,0.0409565,1889,1030,46.6666,-2.71291
672,-6,46.5981,2.81665,0.00139352,0.00146978,0.00116562,0.00259789,0.000265405,0.801747,0.00165059,0.0407644,1896,1030,46.5982,-2.81669
679,-6,46.4916,2.72852,0.000300388,0.0013929,0.00131948,0.00227472,-0.00058144,0.981653,0.00174293,0.041578,1903,1030,46.4916,-2.72853
686,-6,46.3416,2.7041,-0.000524575,0.00123761,0.00161288,0.00219437,-0.00148134,1.03539,0.00213544,0.0394866,1910,1030,46.3415,-2.70411
693,-6,46.4307,2.82275,-0.00099794,0.00101826,0.00196009,0.0022143,-0.00219398,1.02291,0.00254513,0.0368203,1917,1030,46.4306,-2.82276
700,-6,46.4553,2.74207,-0.00129033,0.000918646,0.00220404,0.00227945,-0.00265114,1.01767,0.00284937,0.0328004,1924,1030,46.4553,-2.74205
707,-6,46.4221,2.74036,-0.00165923,0.00101345,0.00235338,0.00238344,-0.00302922,1.04362,0.0031324,0.0305916,1931,1030,46.4221,-2.74038
714,-6,46.3918,3.01917,0,0,0,0,0,0,0,-1,1938,1030,46.3918,-3.01912
721,-6,45.7863,1.99048,0,0,0,0,0,0,0,-1,1945,1030,45.7863,-1.99052
728,-6,45.9968,5.90723,0,0,0,0,0,0,0,-1,1952,1030,45.9968,-5.90722
735,-6,46.0896,5.83142,-0.00370047,0.00364357,0.00241252,0.00436518,-0.00442208,1.28016,0.00507336,0.0357007,1959,1030,46.0896,-5.83147
742,-6,46.2253,5.82764,-0.00390887,0.00516935,0.00224089,0.00569237,-0.00443188,1.34151,0.00586032,0.0362993,1966,1030,46.2253,-5.82761
749,-6,46.166,6.02686,0,0,0,0,0,0,0,-1,1973,1030,46.166,-6.02685
756,-6,46.2448,5.82043,-0.00449302,0.0088411,0.00158236,0.0090263,-0.00467823,1.45428,0.00804397,0.0187058,1980,1030,46.2448,-5.82042
763,-6,46.1454,5.74512,-0.00457679,0.0116838,0.00130773,0.0117883,-0.00468129,1.49106,0.0097994,0.0178533,1987,1030,46.1454,-5.74506
770,-6,46.0648,5.71985,-0.00427447,0.015285,0.00105384,0.0153416,-0.00433109,1.51712,0.0119363,0.0162468,1994,1030,46.0648,-5.71988
777,-6,45.9821,5.72046,-0.00339457,0.0193787,0.00113245,0.0194349,-0.00345074,1.52123,0.0142468,0.0198994,2001,1030,45.982,-5.72052
784,-6,46.0049,5.67285,0,0,0,0,0,0,0,-1,2008,1030,46.005,-5.67282
791,-6,46.4966,5.59802,0,0,0,0,0,0,0,-1,2015,1030,46.4966,-5.59801
798,-6,44.1399,5.26196,0,0,0,0,0,0,0,-1,2022,1030,44.1399,-5.26196
805,-6,43.8652,5.31262,0,0,0,0,0,0,0,-1,2029,1030,43.8652,-5.31265
812,-6,45.4619,4.9043,0,0,0,0,0,0,0,-1,2036,1030,45.4619,-4.90434
-700,-13,0,0,0,0,0,0,0,0,0,-1,524,1037,0,0
-693,-13,-34.6542,2.96643,-0.0137968,0.133141,-0.0669876,0.159096,-0.0397513,-1.20115,0.121501,0.0474718,531,1037,-34.6542,-2.96643
-686,-13,-34.657,2.74268,0.00183793,0.116666,-0.057366,0.140414,-0.0219097,-1.17831,0.101702,0.0452245,538,1037,-34.657,-2.74265
-679,-13,-34.5594,2.56335,0.00946322,0.100429,-0.0472115,0.120502,-0.0106102,-1.16877,0.0840948,0.0476575,545,1037,-34.5594,-2.56338
-672,-13,-34.2806,2.48132,0,0,0,0,0,0,0,-1,552,1037,-34.2806,-2.48138
-665,-13,-36.0585,3.72485,0.0138016,0.0706901,-0.0288313,0.0827467,0.00174494,-1.17472,0.0545921,0.0453523,559,1037,-36.0585,-3.7248
-658,-13,-35.2569,3.19812,0.0129833,0.0575334,-0.0213253,0.0660957,0.00442097,-1.18899,0.0426666,0.0423503,566,1037,-35.2569,-3.19808
-651,-13,-34.5938,2.69263,0.011223,0.0456159,-0.0151982,0.0513694,0.00546941,-1.2089,0.0325766,0.0391722,573,1037,-34.5938,-2.69266
-644,-13,-34.382,2.75537,0.00878642,0.0346168,-0.0102241,0.0381738,0.00522938,-1.23599,0.0238976,0.0314086,580,1037,-34.382,-2.75538
-637,-13,-34.4916,2.91492,0.00717677,0.0245163,-0.00660697,0.0267468,0.00494622,-1.24521,0.0164325,0.0245767,587,1037,-34.4916,-2.91488
-630,-13,-34.6189,2.94348,0.00562874,0.0165303,-0.00456805,0.0181914,0.0039677,-1.22204,0.0110452,0.0150383,594,1037,-34.6189,-2.94344
-623,-13,-34.6037,3.05115,0.00424209,0.010633,-0.003529,0.0121983,0.0026768,-1.15332,0.00740307,0.013485,601,1037,-34.6037,-3.05115
-616,-13,-34.591,3.16602,0.00275627,0.00682233,-0.00319885,0.00857954,0.000999065,-1.06847,0.00541746,0.0130678,608,1037,-34.591,-3.16596
-609,-13,-34.5823,3.24976,0.00150305,0.00317112,-0.00371905,0.00614851,-0.00147434,-0.895703,0.00466871,0.017759,615,1037,-34.5823,-3.24982
-602,-13,-34.5427,3.33105,0.000978081,0.00157913,-0.00466957,0.00595784,-0.00340062,-0.817533,0.00546994,0.0131105,622,1037,-34.5427,-3.33101
-595,-13,-34.5535,3.40979,0,0,0,0,0,0,0,-1,629,1037,-34.5535,-3.40974
-588,-13,-34.263,1.24207,0,0,0,0,0,0,0,-1,636,1037,-34.263,-1.24208
-581,-13,-34.3408,0.878784,0.00179845,-0.000790778,-0.00488877,0.00556112,-0.00455345,-0.655962,0.0058493,0.0251292,643,1037,-34.3408,-0.878739
-574,-13,-34.303,0.800415,0.00153509,-0.00101289,-0.00438844,0.00483073,-0.00430853,-0.644128,0.00527942,0.0331621,650,1037,-34.303,-0.80036
-567,-13,-34.2936,0.916504,0.000863674,-0.000959823,-0.00351568,0.0035839,-0.00368005,-0.658524,0.00419397,0.040766,657,1037,-34.2936,-0.916528
-560,-13,-34.3336,1.02893,-5.35218e-05,-0.000720012,-0.002217,0.00185514,-0.00262867,-0.7108,0.00260153,0.0425491,664,1037,-34.3336,-1.02895
-553,-13,-34.3263,1.00537,-0.00126267,-0.000428943,-0.000531539,-0.000170301,-0.00152132,-1.11793,0.000962479,0.0414425,671,1037,-34.3263,-1.00534
-546,-13,-34.3892,0.990845,-0.00257843,-0.000284984,0.00145843,0.000423556,-0.00328697,1.11855,0.00234528,0.0408451,678,1037,-34.3892,-0.990894
-539,-13,-34.4075,1.26184,-0.00379195,-0.000376195,0.00337035,0.0016943,-0.00586244,1.01991,0.00457877,0.0427623,685,1037,-34.4075,-1.26178
-532,-13,-34.4797,1.21533,-0.00409868,-6.65433e-05,0.00364547,0.0020832,-0.00624842,1.03798,0.00500662,0.043628,692,1037,-34.4797,-1.21529
-525,-13,0,0,0,0,0,0,0,0,0,-1,699,1037,0,0
-518,-13,0,0,0,0,0,0,0,0,0,-1,706,1037,0,0
-511,-13,0,0,0,0,0,0,0,0,0,-1,713,1037,0,0
-504,-13,0,0,0,0,0,0,0,0,0,-1,720,1037,0,0
-497,-13,0,0,0,0,0,0,0,0,0,-1,727,1037,0,0
-490,-13,0,0,0,0,0,0,0,0,0,-1,734,1037,0,0
-483,-13,0,0,0,0,0,0,0,0,0,-1,741,1037,0,0
-476,-13,0,0,0,0,0,0,0,0,0,-1,748,1037,0,0
-469,-13,0,0,0,0,0,0,0,0,0,-1,755,1037,0,0
-462,-13,0,0,0,0,0,0,0,0,0,-1,762,1037,0,0
-455,-13,0,0,0,0,0,0,0,0,0,-1,769,1037,0,0
-448,-13,0,0,0,0,0,0,0,0,0,-1,776,1037,0,0
-441,-13,0,0,0,0,0,0,0,0,0,-1,783,1037,0,0
-434,-13,0,0,0,0,0,0,0,0,0,-1,790,1037,0,0
-427,-13,0,0,0,0,0,0,0,0,0,-1,797,1037,0,0
-420,-13,0,0,0,0,0,0,0,0,0,-1,804,1037,0,0
-413,-13,0,0,0,0,0,0,0,0,0,-1,811,1037,0,0
-406,-13,0,0,0,0,0,0,0,0,0,-1,818,1037,0,0
-399,-13,0,0,0,0,0,0,0,0,0,-1,825,1037,0,0
-392,-13,0,0,0,0,0,0,0,0,0,-1,832,1037,0,0
-385,-13,0,0,0,0,0,0,0,0,0,-1,839,1037,0,0
-378,-13,0,0,0,0,0,0,0,0,0,-1,846,1037,0,0
-371,-13,0,0,0,0,0,0,0,0,0,-1,853,1037,0,0
-364,-13,0,0,0,0,0,0,0,0,0,-1,860,1037,0,0
-357,-13,0,0,0,0,0,0,0,0,0,-1,867,1037,0,0
-350,-13,0,0,0,0,0,0,0,0,0,-1,874,1037,0,0
-343,-13,0,0,0,0,0,0,0,0,0,-1,881,1037,0,0
-336,-13,0,0,0,0,0,0,0,0,0,-1,888,1037,0,0
-329,-13,0,0,0,0,0,0,0,0,0,-1,895,1037,0,0
-322,-13,0,0,0,0,0,0,0,0,0,-1,902,1037,0,0
-315,-13,0,0,0,0,0,0,0,0,0,-1,909,1037,0,0
-308,-13,0,0,0,0,0,0,0,0,0,-1,916,1037,0,0
-301,-13,0,0,0,0,0,0,0,0,0,-1,923,1037,0,0
-294,-13,0,0,0,0,0,0,0,0,0,-1,930,1037,0,0
-287,-13,0,0,0,0,0,0,0,0,0,-1,937,1037,0,0
-280,-13,0,0,0,0,0,0,0,0,0,-1,944,1037,0,0
-273,-13,0,0,0,0,0,0,0,0,0,-1,951,1037,0,0
-266,-13,0,0,0,0,0,0,0,0,0,-1,958,1037,0,0
-259,-13,0,0,0,0,0,0,0,0,0,-1,965,1037,0,0
-252,-13,0,0,0,0,0,0,0,0,0,-1,972,1037,0,0
-245,-13,0,0,0,0,0,0,0,0,0,-1,979,1037,0,0
-238,-13,0,0,0,0,0,0,0,0,0,-1,986,1037,0,0
-231,-13,0,0,0,0,0,0,0,0,0,-1,993,1037,0,0
-224,-13,0,0,0,0,0,0,0,0,0,-1,1000,1037,0,0
-217,-13,0,0,0,0,0,0,0,0,0,-1,1007,1037,0,0
-210,-13,0,0,0,0,0,0,0,0,0,-1,1014,1037,0,0
-203,-13,0,0,0,0,0,0,0,0,0,-1,1021,1037,0,0
-196,-13,0,0,0,0,0,0,0,0,0,-1,1028,1037,0,0
-189,-13,0,0,0,0,0,0,0,0,0,-1,1035,1037,0,0
-182,-13,0,0,0,0,0,0,0,0,0,-1,1042,1037,0,0
-175,-13,0,0,0,0,0,0,0,0,0,-1,1049,1037,0,0
-168,-13,0,0,0,0,0,0,0,0,0,-1,1056,1037,0,0
-161,-13,0,0,0,0,0,0,0,0,0,-1,1063,1037,0,0
-154,-13,0,0,0,0,0,0,0,0,0,-1,1070,1037,0,0
-147,-13,0,0,0,0,0,0,0,0,0,-1,1077,1037,0,0
-140,-13,0,0,0,0,0,0,0,0,0,-1,1084,1037,0,0
-133,-13,0,0,0,0,0,0,0,0,0,-1,1091,1037,0,0
-126,-13,0,0,0,0,0,0,0,0,0,-1,1098,1037,0,0
-119,-13,0,0,0,0,0,0,0,0,0,-1,1105,1037,0,0
-112,-13,0,0,0,0,0,0,0,0,0,-1,1112,1037,0,0
-105,-13,0,0,0,0,0,0,0,0,0,-1,1119,1037,0,0
-98,-13,0,0,0,0,0,0,0,0,0,-1,1126,1037,0,0
-91,-13,0,0,0,0,0,0,0,0,0,-1,1133,1037,0,0
-84,-13,0,0,0,0,0,0,0,0,0,-1,1140,1037,0,0
-77,-13,0,0,0,0,0,0,0,0,0,-1,1147,1037,0,0
-70,-13,0,0,0,0,0,0,0,0,0,-1,1154,1037,0,0
-63,-13,0,0,0,0,0,0,0,0,0,-1,1161,1037,0,0
-56,-13,0,0,0,0,0,0,0,0,0,-1,1168,1037,0,0
-49,-13,0,0,0,0,0,0,0,0,0,-1,1175,1037,0,0
-42,-13,0,0,0,0,0,0,0,0,0,-1,1182,1037,0,0
-35,-13,0,0,0,0,0,0,0,0,0,-1,1189,1037,0,0
-28,-13,0,0,0,0,0,0,0,0,0,-1,1196,1037,0,0
-21,-13,0,0,0,0,0,0,0,0,0,-1,1203,1037,0,0
-14,-13,0,0,0,0,0,0,0,0,0,-1,1210,1037,0,0
-7,-13,0,0,0,0,0,0,0,0,0,-1,1217,1037,0,0
0,-13,0,0,0,0,0,0,0,0,0,-1,1224,1037,0,0
7,-13,0,0,0,0,0,0,0,0,0,-1,1231,1037,0,0
14,-13,0,0,0,0,0,0,0,0,0,-1,1238,1037,0,0
21,-13,0,0,0,0,0,0,0,0,0,-1,1245,1037,0,0
28,-13,0,0,0,0,0,0,0,0,0,-1,1252,1037,0,0
35,-13,0,0,0,0,0,0,0,0,0,-1,1259,1037,0,0
42,-13,0,0,0,0,0,0,0,0,0,-1,1266,1037,0,0
49,-13,0,0,0,0,0,0,0,0,0,-1,1273,1037,0,0
56,-13,0,0,0,0,0,0,0,0,0,-1,1280,1037,0,0
63,-13,0,0,0,0,0,0,0,0,0,-1,1287,1037,0,0
70,-13,0,0,0,0,0,0,0,0,0,-1,1294,1037,0,0
77,-13,0,0,0,0,0,0,0,0,0,-1,1301,1037,0,0
84,-13,0,0,0,0,0,0,0,0,0,-1,1308,1037,0,0
91,-13,0,0,0,0,0,0,0,0,0,-1,1315,1037,0,0
98,-13,0,0,0,0,0,0,0,0,0,-1,1322,1037,0,0
105,-13,0,0,0,0,0,0,0,0,0,-1,1329,1037,0,0
112,-13,0,0,0,0,0,0,0,0,0,-1,1336,1037,0,0
119,-13,0,0,0,0,0,0,0,0,0,-1,1343,1037,0,0
126,-13,0,0,0,0,0,0,0,0,0,-1,1350,1037,0,0
133,-13,0,0,0,0,0,0,0,0,0,-1,1357,1037,0,0
140,-13,0,0,0,0,0,0,0,0,0,-1,1364,1037,0,0
147,-13,0,0,0,0,0,0,0,0,0,-1,1371,1037,0,0
154,-13,0,0,0,0,0,0,0,0,0,-1,1378,1037,0,0
161,-13,0,0,0,0,0,0,0,0,0,-1,1385,1037,0,0
168,-13,0,0,0,0,0,0,0,0,0,-1,1392,1037,0,0
175,-13,0,0,0,0,0,0,0,0,0,-1,1399,1037,0,0
182,-13,0,0,0,0,0,0,0,0,0,-1,1406,1037,0,0
189,-13,0,0,0,0,0,0,0,0,0,-1,1413,1037,0,0
196,-13,0,0,0,0,0,0,0,0,0,-1,1420,1037,0,0
203,-13,0,0,0,0,0,0,0,0,0,-1,1427,1037,0,0
210,-13,0,0,0,0,0,0,0,0,0,-1,1434,1037,0,0
217,-13,0,0,0,0,0,0,0,0,0,-1,1441,1037,0,0
224,-13,0,0,0,0,0,0,0,0,0,-1,1448,1037,0,0
231,-13,0,0,0,0,0,0,0,0,0,-1,1455,1037,0,0
238,-13,0,0,0,0,0,0,0,0,0,-1,1462,1037,0,0
245,-13,0,0,0,0,0,0,0,0,0,-1,1469,1037,0,0
252,-13,0,0,0,0,0,0,0,0,0,-1,1476,1037,0,0
259,-13,0,0,0,0,0,0,0,0,0,-1,1483,1037,0,0
266,-13,0,0,0,0,0,0,0,0,0,-1,1490,1037,0,0
273,-13,0,0,0,0,0,0,0,0,0,-1,1497,1037,0,0
280,-13,0,0,0,0,0,0,0,0,0,-1,1504,1037,0,0
287,-13,0,0,0,0,0,0,0,0,0,-1,1511,1037,0,0
294,-13,0,0,0,0,0,0,0,0,0,-1,1518,1037,0,0
301,-13,0,0,0,0,0,0,0,0,0,-1,1525,1037,0,0
308,-13,0,0,0,0,0,0,0,0,0,-1,1532,1037,0,0
315,-13,0,0,0,0,0,0,0,0,0,-1,1539,1037,0,0
322,-13,0,0,0,0,0,0,0,0,0,-1,1546,1037,0,0
329,-13,0,0,0,0,0,0,0,0,0,-1,1553,1037,0,0
336,-13,0,0,0,0,0,0,0,0,0,-1,1560,1037,0,0
343,-13,0,0,0,0,0,0,0,0,0,-1,1567,1037,0,0
350,-13,0,0,0,0,0,0,0,0,0,-1,1574,1037,0,0
357,-13,0,0,0,0,0,0,0,0,0,-1,1581,1037,0,0
364,-13,0,0,0,0,0,0,0,0,0,-1,1588,1037,0,0
371,-13,0,0,0,0,0,0,0,0,0,-1,1595,1037,0,0
378,-13,0,0,0,0,0,0,0,0,0,-1,1602,1037,0,0
385,-13,0,0,0,0,0,0,0,0,0,-1,1609,1037,0,0
392,-13,0,0,0,0,0,0,0,0,0,-1,1616,1037,0,0
399,-13,0,0,0,0,0,0,0,0,0,-1,1623,1037,0,0
406,-13,0,0,0,0,0,0,0,0,0,-1,1630,1037,0,0
413,-13,0,0,0,0,0,0,0,0,0,-1,1637,1037,0,0
420,-13,0,0,0,0,0,0,0,0,0,-1,1644,1037,0,0
427,-13,0,0,0,0,0,0,0,0,0,-1,1651,1037,0,0
434,-13,0,0,0,0,0,0,0,0,0,-1,1658,1037,0,0
441,-13,0,0,0,0,0,0,0,0,0,-1,1665,1037,0,0
448,-13,0,0,0,0,0,0,0,0,0,-1,1672,1037,0,0
455,-13,0,0,0,0,0,0,0,0,0,-1,1679,1037,0,0
462,-13,0,0,0,0,0,0,0,0,0,-1,1686,1037,0,0
469,-13,0,0,0,0,0,0,0,0,0,-1,1693,1037,0,0
476,-13,0,0,0,0,0,0,0,0,0,-1,1700,1037,0,0
483,-13,0,0,0,0,0,0,0,0,0,-1,1707,1037,0,0
490,-13,0,0,0,0,0,0,0,0,0,-1,1714,1037,0,0
497,-13,0,0,0,0,0,0,0,0,0,-1,1721,1037,0,0
504,-13,0,0,0,0,0,0,0,0,0,-1,1728,1037,0,0
511,-13,0,0,0,0,0,0,0,0,0,-1,1735,1037,0,0
518,-13,0,0,0,0,0,0,0,0,0,-1,1742,1037,0,0
525,-13,0,0,0,0,0,0,0,0,0,-1,1749,1037,0,0
532,-13,0,0,0,0,0,0,0,0,0,-1,1756,1037,0,0
539,-13,0,0,0,0,0,0,0,0,0,-1,1763,1037,0,0
546,-13,0,0,0,0,0,0,0,0,0,-1,1770,1037,0,0
553,-13,0,0,0,0,0,0,0,0,0,-1,1777,1037,0,0
560,-13,0,0,0,0,0,0,0,0,0,-1,1784,1037,0,0
567,-13,0,0,0,0,0,0,0,0,0,-1,1791,1037,0,0
574,-13,0,0,0,0,0,0,0,0,0,-1,1798,1037,0,0
581,-13,0,0,0,0,0,0,0,0,0,-1,1805,1037,0,0
588,-13,0,0,0,0,0,0,0,0,0,-1,1812,1037,0,0
595,-13,0,0,0,0,0,0,0,0,0,-1,1819,1037,0,0
602,-13,0,0,0,0,0,0,0,0,0,-1,1826,1037,0,0
609,-13,0,0,0,0,0,0,0,0,0,-1,1833,1037,0,0
616,-13,0,0,0,0,0,0,0,0,0,-1,1840,1037,0,0
623,-13,0,0,0,0,0,0,0,0,0,-1,1847,1037,0,0
630,-13,0,0,0,0,0,0,0,0,0,-1,1854,1037,0,0
637,-13,0,0,0,0,0,0,0,0,0,-1,1861,1037,0,0
644,-13,0,0,0,0,0,0,0,0,0,-1,1868,1037,0,0
651,-13,46.4762,2.78906,0.00544448,0.00184696,0.00245626,0.00669018,0.000601257,0.469355,0.00427382,0.0382257,1875,1037,46.4762,-2.78906
658,-13,46.3879,2.6499,0.00372978,0.00142352,0.00176506,0.004685,0.000468301,0.496049,0.00297953,0.0426692,1882,1037,46.3879,-2.64984
665,-13,46.434,2.61841,0.00232833,0.00109128,0.00133488,0.00318102,0.000238585,0.568446,0.0020458,0.0447732,1889,1037,46.434,-2.61844
672,-13,46.6073,2.81189,0.00117858,0.000979053,0.00127248,0.00235521,-0.000197571,0.746277,0.00163997,0.0397224,1896,1037,46.6073,-2.81194
679,-13,46.5454,2.70361,0.00018624,0.000991245,0.00142373,0.00206828,-0.000890794,0.923158,0.00175293,0.0402807,1903,1037,46.5454,-2.70366
686,-13,46.4519,2.71179,-0.000613967,0.000890024,0.00169445,0.00199185,-0.00171579,0.994241,0.00214258,0.0410777,1910,1037,46.452,-2.71181
693,-13,46.5166,2.78345,-0.00108412,0.000704492,0.00201901,0.00201839,-0.00239802,0.993883,0.00255295,0.0394537,1917,1037,46.5166,-2.78349
700,-13,46.5205,2.68335,-0.00136474,0.000621575,0.00227241,0.00210838,-0.00285154,0.991415,0.0028743,0.036686,1924,1037,46.5205,-2.68334
707,-13,46.4924,2.7218,-0.00173871,0.000723652,0.00244702,0.00223176,-0.00324682,1.01847,0.00318111,0.032429,1931,1037,46.4924,-2.72181
714,-13,46.4238,2.96008,-0.00218331,0.000971536,0.00247451,0.00232864,-0.00354042,1.06916,0.00341249,0.035202,1938,1037,46.4239,-2.96006
721,-13,46.2924,3.20605,0,0,0,0,0,0,0,-1,1945,1037,46.2923,-3.20604
728,-13,46.1974,5.99097,0,0,0,0,0,0,0,-1,1952,1037,46.1974,-5.991
735,-13,46.1573,5.96497,-0.00383613,0.00324288,0.00241429,0.00398787,-0.00458112,1.27149,0.00495126,0.0266117,1959,1037,46.1574,-5.96496
742,-13,46.1451,5.91467,-0.00402335,0.00465004,0.00222882,0.00518927,-0.00456257,1.33343,0.0056341,0.0178082,1966,1037,46.1451,-5.91463
749,-13,46.1694,5.85291,-0.00443433,0.00616861,0.00183348,0.00647671,-0.00474242,1.40431,0.00650311,0.0239932,1973,1037,46.1694,-5.85285
756,-13,46.1669,5.79639,-0.00470666,0.00813544,0.00135676,0.00827722,-0.00484844,1.46668,0.0076638,0.0164551,1980,1037,46.1669,-5.79644
763,-13,46.1381,5.70447,-0.00489617,0.0108408,0.000857959,0.0108875,-0.00494281,1.51649,0.00935196,0.0228978,1987,1037,46.1381,-5.70443
770,-13,46.0431,5.65662,-0.00478106,0.0142706,0.000259998,0.0142742,-0.00478461,1.55715,0.0114492,0.0197196,1994,1037,46.043,-5.65663
777,-13,45.9183,5.59814,-0.00416622,0.0182218,-0.000101542,0.0182223,-0.00416668,-1.56626,0.0137492,0.0176108,2001,1037,45.9184,-5.59816
784,-13,45.9167,5.54895,-0.00315732,0.021973,-0.000348081,0.0219778,-0.00316214,-1.55695,0.0158117,0.0380516,2008,1037,45.9168,-5.54901
791,-13,46.1816,5.42859,-0.00171774,0.0253763,-0.00045399,0.0253839,-0.00172534,-1.55405,0.017526,0.0478108,2015,1037,46.1816,-5.42857
798,-13,46.2139,5.23877,0,0,0,0,0,0,0,-1,2022,1037,46.214,-5.23872
805,-13,46.0503,5.71375,0,0,0,0,0,0,0,-1,2029,1037,46.0504,-5.7138
812,-13,46.0098,5.63611,0,0,0,0,0,0,0,-1,2036,1037,46.0097,-5.63616
-700,-20,-33.2946,2.78711,0,0,0,0,0,0,0,-1,524,1044,-33.2946,-2.78712
-693,-20,-33.6584,2.43652,-0.012498,0.128939,-0.0583268,0.149889,-0.0334481,-1.22596,0.112741,0.0435868,531,1044,-33.6584,-2.43658
-686,-20,-33.968,2.11218,0.00301857,0.113164,-0.0493862,0.132065,-0.0158816,-1.20529,0.0937863,0.0440865,538,1044,-33.9681,-2.11217
-679,-20,-34.0507,1.91809,0.010513,0.0974908,-0.040299,0.113292,-0.00528802,-1.19712,0.0773508,0.047294,545,1044,-34.0507,-1.91809
-672,-20,-34.2277,1.68274,0.0137991,0.0825599,-0.0318146,0.0950215,0.0013374,-1.19747,0.0629066,0.0458309,552,1044,-34.2276,-1.68273
-665,-20,-34.2339,1.55762,0.0145126,0.0686403,-0.024276,0.0779327,0.00522025,-1.20522,0.0503054,0.0446699,559,1044,-34.2339,-1.55757
-658,-20,-34.1412,1.95068,0.0135462,0.055851,-0.0178719,0.0623903,0.00700699,-1.22003,0.0394658,0.0461776,566,1044,-34.1411,-1.95067
-651,-20,-34.3018,2.46484,0.0116686,0.0442646,-0.0127108,0.0486351,0.00729802,-1.23961,0.0302853,0.0410011,573,1044,-34.3018,-2.46489
-644,-20,-34.2677,2.54333,0.0092104,0.0336486,-0.0086423,0.036396,0.00646301,-1.263,0.0224223,0.0292209,580,1044,-34.2677,-2.5433
-637,-20,-34.3526,2.69263,0.00745604,0.0237175,-0.00555325,0.025433,0.00574059,-1.27119,0.0154026,0.0190226,587,1044,-34.3526,-2.69267
-630,-20,-34.4276,2.87744,0.00577778,0.0158873,-0.00386752,0.0171972,0.00446792,-1.24424,0.0103036,0.014972,594,1044,-34.4276,-2.8774
-623,-20,-34.4402,3.0332,0.00435903,0.0101374,-0.00307728,0.0114692,0.00302719,-1.16234,0.00686336,0.013439,601,1044,-34.4402,-3.03319
-616,-20,-34.4276,3.14856,0.0028767,0.00657244,-0.00285631,0.0081265,0.00132263,-1.07251,0.00503503,0.0138299,608,1044,-34.4276,-3.14859
-609,-20,-34.4464,3.26221,0.00163604,0.00290845,-0.00333144,0.00566389,-0.0011194,-0.879747,0.00419909,0.0157496,615,1044,-34.4463,-3.26223
-602,-20,-34.4182,3.36548,0.00102154,0.0013044,-0.00412035,0.00528575,-0.0029598,-0.802554,0.00482329,0.0136579,622,1044,-34.4181,-3.36547
-595,-20,-34.3986,3.42627,0.00108719,0.000124129,-0.004412,0.00504385,-0.00383254,-0.731043,0.00514067,0.0298613,629,1044,-34.3986,-3.42632
-588,-20,-34.2712,1.09912,0,0,0,0,0,0,0,-1,636,1044,-34.2712,-1.0991
-581,-20,-34.3113,0.828125,0.00156422,-0.000751626,-0.00429217,0.00485192,-0.00403932,-0.653647,0.0051405,0.0324769,643,1044,-34.3113,-0.828128
-574,-20,-34.2989,0.916626,0.00128159,-0.000853233,-0.00390276,0.00426028,-0.00383192,-0.651912,0.00467422,0.0373908,650,1044,-34.2989,-0.916591
-567,-20,-34.0909,1.24622,0.000617952,-0.000679821,-0.00324267,0.00327602,-0.00333789,-0.686648,0.0038186,0.0440766,657,1044,-34.0909,-1.24627
-560,-20,-34.0662,1.33728,-0.000269451,-0.000292061,-0.00229641,0.00201568,-0.00257719,-0.782937,0.0026583,0.0451863,664,1044,-34.0662,-1.33727
-553,-20,-34.2547,1.09705,-0.00141144,0.000184138,-0.00112387,0.000764594,-0.00199189,-1.09405,0.0016432,0.0417285,671,1044,-34.2547,-1.09706
-546,-20,-34.4466,1.33398,-0.00263326,0.000560317,0.000174384,0.000569811,-0.00264275,1.51641,0.0019793,0.0406385,678,1044,-34.4466,-1.33397
-539,-20,-34.4899,1.3335,-0.00376153,0.000677211,0.00132394,0.0010421,-0.00412642,1.30186,0.00315619,0.0432516,685,1044,-34.4898,-1.3335
-532,-20,-34.3912,1.18823,-0.00407816,0.0012224,0.0010547,0.00142455,-0.00428031,1.38142,0.0034285,0.0434672,692,1044,-34.3912,-1.18825
-525,-20,0,0,0,0,0,0,0,0,0,-1,699,1044,0,0
-518,-20,0,0,0,0,0,0,0,0,0,-1,706,1044,0,0
-511,-20,0,0,0,0,0,0,0,0,0,-1,713,1044,0,0
-504,-20,0,0,0,0,0,0,0,0,0,-1,720,1044,0,0
-497,-20,0,0,0,0,0,0,0,0,0,-1,727,1044,0,0
-490,-20,0,0,0,0,0,0,0,0,0,-1,734,1044,0,0
-483,-20,0,0,0,0,0,0,0,0,0,-1,741,1044,0,0
-476,-20,0,0,0,0,0,0,0,0,0,-1,748,1044,0,0
-469,-20,0,0,0,0,0,0,0,0,0,-1,755,1044,0,0
-462,-20,0,0,0,0,0,0,0,0,0,-1,762,1044,0,0
-455,-20,0,0,0,0,0,0,0,0,0,-1,769,1044,0,0
-448,-20,0,0,0,0,0,0,0,0,0,-1,776,1044,0,0
-441,-20,0,0,0,0,0,0,0,0,0,-1,783,1044,0,0
-434,-20,0,0,0,0,0,0,0,0,0,-1,790,1044,0,0
-427,-20,0,0,0,0,0,0,0,0,0,-1,797,1044,0,0
-420,-20,0,0,0,0,0,0,0,0,0,-1,804,1044,0,0
-413,-20,0,0,0,0,0,0,0,0,0,-1,811,1044,0,0
-406,-20,0,0,0,0,0,0,0,0,0,-1,818,1044,0,0
-399,-20,0,0,0,0,0,0,0,0,0,-1,825,1044,0,0
-392,-20,0,0,0,0,0,0,0,0,0,-1,832,1044,0,0
-385,-20,0,0,0,0,0,0,0,0,0,-1,839,1044,0,0
-378,-20,0,0,0,0,0,0,0,0,0,-1,846,1044,0,0
-371,-20,0,0,0,0,0,0,0,0,0,-1,853,1044,0,0
-364,-20,0,0,0,0,0,0,0,0,0,-1,860,1044,0,0
-357,-20,0,0,0,0,0,0,0,0,0,-1,867,1044,0,0
-350,-20,0,0,0,0,0,0,0,0,0,-1,874,1044,0,0
-343,-20,0,0,0,0,0,0,0,0,0,-1,881,1044,0,0
-336,-20,0,0,0,0,0,0,0,0,0,-1,888,1044,0,0
-329,-20,0,0,0,0,0,0,0,0,0,-1,895,1044,0,0
-322,-20,0,0,0,0,0,0,0,0,0,-1,902,1044,0,0
-315,-20,0,0,0,0,0,0,0,0,0,-1,909,1044,0,0
-308,-20,0,0,0,0,0,0,0,0,0,-1,916,1044,0,0
-301,-20,0,0,0,0,0,0,0,0,0,-1,923,1044,0,0
-294,-20,0,0,0,0,0,0,0,0,0,-1,930,1044,0,0
-287,-20,0,0,0,0,0,0,0,0,0,-1,937,1044,0,0
-280,-20,0,0,0,0,0,0,0,0,0,-1,944,1044,0,0
-273,-20,0,0,0,0,0,0,0,0,0,-1,951,1044,0,0
-266,-20,0,0,0,0,0,0,0,0,0,-1,958,1044,0,0
-259,-20,0,0,0,0,0,0,0,0,0,-1,965,1044,0,0
-252,-20,0,0,0,0,0,0,0,0,0,-1,972,1044,0,0
-245,-20,0,0,0,0,0,0,0,0,0,-1,979,1044,0,0
-238,-20,0,0,0,0,0,0,0,0,0,-1,986,1044,0,0
-231,-20,0,0,0,0,0,0,0,0,0,-1,993,1044,0,0
-224,-20,0,0,0,0,0,0,0,0,0,-1,1000,1044,0,0
-217,-20,0,0,0,0,0,0,0,0,0,-1,1007,1044,0,0
-210,-20,0,0,0,0,0,0,0,0,0,-1,1014,1044,0,0
-203,-20,0,0,0,0,0,0,0,0,0,-1,1021,1044,0,0
-196,-20,0,0,0,0,0,0,0,0,0,-1,1028,1044,0,0
-189,-20,0,0,0,0,0,0,0,0,0,-1,1035,1044,0,0
-182,-20,0,0,0,0,0,0,0,0,0,-1,1042,1044,0,0
-175,-20,0,0,0,0,0,0,0,0,0,-1,1049,1044,0,0
-168,-20,0,0,0,0,0,0,0,0,0,-1,1056,1044,0,0
-161,-20,0,0,0,0,0,0,0,0,0,-1,1063,1044,0,0
-154,-20,0,0,0,0,0,0,0,0,0,-1,1070,1044,0,0
-147,-20,0,0,0,0,0,0,0,0,0,-1,1077,1044,0,0
-140,-20,0,0,0,0,0,0,0,0,0,-1,1084,1044,0,0
-133,-20,0,0,0,0,0,0,0,0,0,-1,1091,1044,0,0
-126,-20,0,0,0,0,0,0,0,0,0,-1,1098,1044,0,0
-119,-20,0,0,0,0,0,0,0,0,0,-1,1105,1044,0,0
-112,-20,0,0,0,0,0,0,0,0,0,-1,1112,1044,0,0
-105,-20,0,0,0,0,0,0,0,0,0,-1,1119,1044,0,0
-98,-20,0,0,0,0,0,0,0,0,0,-1,1126,1044,0,0
-91,-20,0,0,0,0,0,0,0,0,0,-1,1133,1044,0,0
-84,-20,0,0,0,0,0,0,0,0,0,-1,1140,1044,0,0
-77,-20,0,0,0,0,0,0,0,0,0,-1,1147,1044,0,0
-70,-20,0,0,0,0,0,0,0,0,0,-1,1154,1044,0,0
-63,-20,0,0,0,0,0,0,0,0,0,-1,1161,1044,0,0
-56,-20,0,0,0,0,0,0,0,0,0,-1,1168,1044,0,0
-49,-20,0,0,0,0,0,0,0,0,0,-1,1175,1044,0,0
-42,-20,0,0,0,0,0,0,0,0,0,-1,1182,1044,0,0
-35,-20,0,0,0,0,0,0,0,0,0,-1,1189,1044,0,0
-28,-20,0,0,0,0,0,0,0,0,0,-1,1196,1044,0,0
-21,-20,0,0,0,0,0,0,0,0,0,-1,1203,1044,0,0
-14,-20,0,0,0,0,0,0,0,0,0,-1,1210,1044,0,0
-7,-20,0,0,0,0,0,0,0,0,0,-1,1217,1044,0,0
0,-20,0,0,0,0,0,0,0,0,0,-1,1224,1044,0,0
7,-20,0,0,0,0,0,0,0,0,0,-1,1231,1044,0,0
14,-20,0,0,0,0,0,0,0,0,0,-1,1238,1044,0,0
21,-20,0,0,0,0,0,0,0,0,0,-1,1245,1044,0,0
28,-20,0,0,0,0,0,0,0,0,0,-1,1252,1044,0,0
35,-20,0,0,0,0,0,0,0,0,0,-1,1259,1044,0,0
42,-20,0,0,0,0,0,0,0,0,0,-1,1266,1044,0,0
49,-20,0,0,0,0,0,0,0,0,0,-1,1273,1044,0,0
56,-20,0,0,0,0,0,0,0,0,0,-1,1280,1044,0,0
63,-20,0,0,0,0,0,0,0,0,0,-1,1287,1044,0,0
70,-20,0,0,0,0,0,0,0,0,0,-1,1294,1044,0,0
77,-20,0,0,0,0,0,0,0,0,0,-1,1301,1044,0,0
84,-20,0,0,0,0,0,0,0,0,0,-1,1308,1044,0,0
91,-20,0,0,0,0,0,0,0,0,0,-1,1315,1044,0,0
98,-20,0,0,0,0,0,0,0,0,0,-1,1322,1044,0,0
105,-20,0,0,0,0,0,0,0,0,0,-1,1329,1044,0,0
112,-20,0,0,0,0,0,0,0,0,0,-1,1336,1044,0,0
119,-20,0,0,0,0,0,0,0,0,0,-1,1343,1044,0,0
126,-20,0,0,0,0,0,0,0,0,0,-1,1350,1044,0,0
133,-20,0,0,0,0,0,0,0,0,0,-1,1357,1044,0,0
140,-20,0,0,0,0,0,0,0,0,0,-1,1364,1044,0,0
147,-20,0,0,0,0,0,0,0,0,0,-1,1371,1044,0,0
154,-20,0,0,0,0,0,0,0,0,0,-1,1378,1044,0,0
161,-20,0,0,0,0,0,0,0,0,0,-1,1385,1044,0,0
168,-20,0,0,0,0,0,0,0,0,0,-1,1392,1044,0,0
175,-20,0,0,0,0,0,0,0,0,0,-1,1399,1044,0,0
182,-20,0,0,0,0,0,0,0,0,0,-1,1406,1044,0,0
189,-20,0,0,0,0,0,0,0,0,0,-1,1413,1044,0,0
196,-20,0,0,0,0,0,0,0,0,0,-1,1420,1044,0,0
203,-20,0,0,0,0,0,0,0,0,0,-1,1427,1044,0,0
210,-20,0,0,0,0,0,0,0,0,0,-1,1434,1044,0,0
217,-20,0,0,0,0,0,0,0,0,0,-1,1441,1044,0,0
224,-20,0,0,0,0,0,0,0,0,0,-1,1448,1044,0,0
231,-20,0,0,0,0,0,0,0,0,0,-1,1455,1044,0,0
238,-20,0,0,0,0,0,0,0,0,0,-1,1462,1044,0,0
245,-20,0,0,0,0,0,0,0,0,0,-1,1469,1044,0,0
252,-20,0,0,0,0,0,0,0,0,0,-1,1476,1044,0,0
259,-20,0,0,0,0,0,0,0,0,0,-1,1483,1044,0,0
266,-20,0,0,0,0,0,0,0,0,0,-1,1490,1044,0,0
273,-20,0,0,0,0,0,0,0,0,0,-1,1497,1044,0,0
280,-20,0,0,0,0,0,0,0,0,0,-1,1504,1044,0,0
287,-20,0,0,0,0,0,0,0,0,0,-1,1511,1044,0,0
294,-20,0,0,0,0,0,0,0,0,0,-1,1518,1044,0,0
301,-20,0,0,0,0,0,0,0,0,0,-1,1525,1044,0,0
308,-20,0,0,0,0,0,0,0,0,0,-1,1532,1044,0,0
315,-20,0,0,0,0,0,0,0,0,0,-1,1539,1044,0,0
322,-20,0,0,0,0,0,0,0,0,0,-1,1546,1044,0,0
329,-20,0,0,0,0,0,0,0,0,0,-1,1553,1044,0,0
336,-20,0,0,0,0,0,0,0,0,0,-1,1560,1044,0,0
343,-20,0,0,0,0,0,0,0,0,0,-1,1567,1044,0,0
350,-20,0,0,0,0,0,0,0,0,0,-1,1574,1044,0,0
357,-20,0,0,0,0,0,0,0,0,0,-1,1581,1044,0,0
364,-20,0,0,0,0,0,0,0,0,0,-1,1588,1044,0,0
371,-20,0,0,0,0,0,0,0,0,0,-1,1595,1044,0,0
378,-20,0,0,0,0,0,0,0,0,0,-1,1602,1044,0,0
385,-20,0,0,0,0,0,0,0,0,0,-1,1609,1044,0,0
392,-20,0,0,0,0,0,0,0,0,0,-1,1616,1044,0,0
399,-20,0,0,0,0,0,0,0,0,0,-1,1623,1044,0,0
406,-20,0,0,0,0,0,0,0,0,0,-1,1630,1044,0,0
413,-20,0,0,0,0,0,0,0,0,0,-1,1637,1044,0,0
420,-20,0,0,0,0,0,0,0,0,0,-1,1644,1044,0,0
427,-20,0,0,0,0,0,0,0,0,0,-1,1651,1044,0,0
434,-20,0,0,0,0,0,0,0,0,0,-1,1658,1044,0,0
441,-20,0,0,0,0,0,0,0,0,0,-1,1665,1044,0,0
448,-20,0,0,0,0,0,0,0,0,0,-1,1672,1044,0,0
455,-20,0,0,0,0,0,0,0,0,0,-1,1679,1044,0,0
462,-20,0,0,0,0,0,0,0,0,0,-1,1686,1044,0,0
469,-20,0,0,0,0,0,0,0,0,0,-1,1693,1044,0,0
476,-20,0,0,0,0,0,0,0,0,0,-1,1700,1044,0,0
483,-20,0,0,0,0,0,0,0,0,0,-1,1707,1044,0,0
490,-20,0,0,0,0,0,0,0,0,0,-1,1714,1044,0,0
497,-20,0,0,0,0,0,0,0,0,0,-1,1721,1044,0,0
504,-20,0,0,0,0,0,0,0,0,0,-1,1728,1044,0,0
511,-20,0,0,0,0,0,0,0,0,0,-1,1735,1044,0,0
518,-20,0,0,0,0,0,0,0,0,0,-1,1742,1044,0,0
525,-20,0,0,0,0,0,0,0,0,0,-1,1749,1044,0,0
532,-20,0,0,0,0,0,0,0,0,0,-1,1756,1044,0,0
539,-20,0,0,0,0,0,0,0,0,0,-1,1763,1044,0,0
546,-20,0,0,0,0,0,0,0,0,0,-1,1770,1044,0,0
553,-20,0,0,0,0,0,0,0,0,0,-1,1777,1044,0,0
560,-20,0,0,0,0,0,0,0,0,0,-1,1784,1044,0,0
567,-20,0,0,0,0,0,0,0,0,0,-1,1791,1044,0,0
574,-20,0,0,0,0,0,0,0,0,0,-1,1798,1044,0,0
581,-20,0,0,0,0,0,0,0,0,0,-1,1805,1044,0,0
588,-20,0,0,0,0,0,0,0,0,0,-1,1812,1044,0,0
595,-20,0,0,0,0,0,0,0,0,0,-1,1819,1044,0,0
602,-20,0,0,0,0,0,0,0,0,0,-1,1826,1044,0,0
609,-20,0,0,0,0,0,0,0,0,0,-1,1833,1044,0,0
616,-20,0,0,0,0,0,0,0,0,0,-1,1840,1044,0,0
623,-20,0,0,0,0,0,0,0,0,0,-1,1847,1044,0,0
630,-20,0,0,0,0,0,0,0,0,0,-1,1854,1044,0,0
637,-20,0,0,0,0,0,0,0,0,0,-1,1861,1044,0,0
644,-20,0,0,0,0,0,0,0,0,0,-1,1868,1044,0,0
651,-20,46.4528,2.70996,0.00522114,0.000906479,0.0018294,0.00589238,0.000235242,0.351664,0.00385223,0.0396333,1875,1044,46.4528,-2.70999
658,-20,46.4008,2.6333,0.00355635,0.000721549,0.00139319,0.00412641,0.000151491,0.388391,0.00270186,0.0416947,1882,1044,46.4007,-2.63332
665,-20,46.4006,2.63916,0.0022268,0.000555672,0.00110594,0.00277733,5.13648e-06,0.461885,0.00184985,0.0421342,1889,1044,46.4006,-2.63916
672,-20,46.5239,2.83569,0.00115201,0.000565588,0.00112085,0.00201737,-0.000299772,0.657467,0.00145517,0.0281616,1896,1044,46.5239,-2.83571
679,-20,46.5065,2.73425,0.000225537,0.000667903,0.00128887,0.00175443,-0.000860994,0.870375,0.00153911,0.0300984,1903,1044,46.5065,-2.73423
686,-20,46.6021,2.65381,-0.00056646,0.00061058,0.00156111,0.00169041,-0.00164629,0.965655,0.00192651,0.0383699,1910,1044,46.602,-2.65375
693,-20,46.7161,2.6825,-0.00105765,0.000448727,0.00187854,0.00171944,-0.00232837,0.976058,0.00234581,0.0411128,1917,1044,46.7161,-2.68247
700,-20,46.5543,2.79614,-0.00134467,0.000373111,0.00215151,0.00183083,-0.00280239,0.975308,0.00269452,0.0367558,1924,1044,46.5543,-2.79611
707,-20,46.4733,2.75049,-0.00172793,0.000468427,0.00236682,0.00197943,-0.00323893,1.00261,0.00304193,0.0314363,1931,1044,46.4733,-2.75049
714,-20,46.4202,2.92798,-0.0021744,0.000699063,0.00242866,0.00208414,-0.00355948,1.0525,0.00329524,0.0302692,1938,1044,46.4201,-2.92799
721,-20,46.309,3.00549,0,0,0,0,0,0,0,-1,1945,1044,46.309,-3.00554
728,-20,46.4813,6.00195,0,0,0,0,0,0,0,-1,1952,1044,46.4814,-6.00201
735,-20,46.2194,5.97241,-0.00371732,0.00276768,0.00236152,0.00353649,-0.00448613,1.25606,0.00464267,0.028159,1959,1044,46.2194,-5.9724
742,-20,46.0333,5.86658,-0.00377564,0.00406245,0.00223012,0.00465255,-0.00436574,1.31212,0.00520759,0.0222994,1966,1044,46.0333,-5.86663
749,-20,46.0974,5.81409,-0.00405265,0.00549875,0.00185617,0.00584679,-0.00440069,1.38545,0.00593599,0.0244901,1973,1044,46.0975,-5.81406
756,-20,46.0883,5.76221,-0.00414861,0.00734358,0.00136626,0.00750378,-0.0043088,1.45408,0.00690265,0.0177066,1980,1044,46.0882,-5.76225
763,-20,46.0267,5.68896,-0.0041068,0.00989279,0.000799289,0.00993828,-0.00415229,1.51395,0.00836069,0.024306,1987,1044,46.0267,-5.6889
770,-20,45.9424,5.63965,-0.00366311,0.0131528,7.91488e-05,0.0131532,-0.00366348,1.56609,0.0102114,0.0212489,1994,1044,45.9424,-5.63961
777,-20,45.8473,5.49487,-0.00268529,0.0169847,-0.00047367,0.0169961,-0.00269669,-1.54673,0.0123284,0.0154948,2001,1044,45.8472,-5.49484
784,-20,45.8201,5.43384,-0.00137767,0.0206708,-0.000941481,0.0207109,-0.0014178,-1.5282,0.0143033,0.0195804,2008,1044,45.8201,-5.43382
791,-20,45.8823,5.31335,0.000271951,0.024104,-0.00129684,0.0241744,0.000201591,-1.51659,0.0160495,0.0347443,2015,1044,45.8823,-5.31331
798,-20,45.9187,5.22583,0.00250738,0.0269727,-0.00145972,0.0270595,0.0024206,-1.51141,0.0172893,0.0449832,2022,1044,45.9188,-5.22577
805,-20,45.8477,5.3219,0,0,0,0,0,0,0,-1,2029,1044,45.8476,-5.32192
812,-20,45.8145,5.2998,0,0,0,0,0,0,0,-1,2036,1044,45.8146,-5.29986
-700,-27,-33.0851,1.73828,0,0,0,0,0,0,0,-1,524,1051,-33.0852,-1.7383
-693,-27,-33.2489,1.42261,-0.00539991,0.123673,-0.0551549,0.144031,-0.0257576,-1.21721,0.105658,0.0471407,531,1051,-33.2489,-1.4226
-686,-27,-33.451,1.15271,0.00833763,0.108609,-0.0452811,0.126031,-0.00908377,-1.20352,0.0872063,0.0439636,538,1051,-33.451,-1.15267
-679,-27,-33.8672,1.03198,0.0145815,0.0936111,-0.0360867,0.10761,0.000583064,-1.20075,0.0715461,0.0449521,545,1051,-33.8672,-1.03202
-672,-27,-34.1414,0.900513,0.0168248,0.0792882,-0.0279261,0.0899526,0.00616039,-1.20601,0.0580241,0.0455771,552,1051,-34.1414,-0.900545
-665,-27,-34.2038,1.04211,0.0167178,0.0659222,-0.0209445,0.0736301,0.00900991,-1.21816,0.0463761,0.0435472,559,1051,-34.2038,-1.04213
-658,-27,-33.8975,1.44006,0.0151146,0.0536343,-0.0152148,0.0589189,0.00982999,-1.2365,0.0364472,0.0424368,566,1051,-33.8975,-1.44001
-651,-27,-33.9156,2.37219,0.0127668,0.0425028,-0.0107398,0.045976,0.00929352,-1.25801,0.0280704,0.0367229,573,1051,-33.9156,-2.37213
-644,-27,-34.1225,2.43774,0.0100333,0.0323668,-0.00736401,0.0345763,0.00782377,-1.2793,0.0209361,0.0181343,580,1051,-34.1225,-2.43771
-637,-27,-34.1982,2.57117,0.00795396,0.0227517,-0.00473734,0.0241383,0.00656729,-1.28604,0.0144109,0.0145961,587,1051,-34.1982,-2.5712
-630,-27,-34.2799,2.86768,0.00602761,0.0151548,-0.00335201,0.0162536,0.00492884,-1.25404,0.00962315,0.0184965,594,1051,-34.2799,-2.86768
-623,-27,-34.2676,3.02869,0.00449678,0.00961567,-0.00275279,0.010815,0.00329742,-1.15991,0.00640056,0.0159787,601,1051,-34.2676,-3.02869
-616,-27,-34.2388,3.15063,0.00299122,0.00628343,-0.00258545,0.00770232,0.00157233,-1.06888,0.00469928,0.0136288,608,1051,-34.2387,-3.1506
-609,-27,-34.262,3.30078,0.00178374,0.00267894,-0.00297557,0.00524039,-0.000777707,-0.860051,0.00377959,0.0142196,615,1051,-34.262,-3.30079
-602,-27,-34.2288,3.47888,0.00110546,0.00105592,-0.00357743,0.0046582,-0.00249682,-0.781937,0.00419331,0.0130332,622,1051,-34.2288,-3.47888
-595,-27,-34.2565,3.59265,0.00107729,-6.27557e-05,-0.00379205,0.00434192,-0.00332738,-0.710796,0.00444077,0.0156159,629,1051,-34.2565,-3.59267
-588,-27,-34.2854,1.03125,0,0,0,0,0,0,0,-1,636,1051,-34.2854,-1.03123
-581,-27,-34.2516,0.892578,0.00142351,-0.000744894,-0.00367453,0.00417046,-0.00349184,-0.64194,0.00442961,0.0240969,643,1051,-34.2516,-0.892574
-574,-27,-34.2523,0.98999,0.00113382,-0.000758665,-0.00338512,0.00370246,-0.0033273,-0.649111,0.00406056,0.0360807,650,1051,-34.2523,-0.989954
-567,-27,-34.1452,1.23291,0.000500629,-0.000505279,-0.00291809,0.00295879,-0.00296344,-0.700058,0.0034192,0.045813,657,1051,-34.1452,-1.2329
-560,-27,-34.1622,1.3219,-0.000341395,-2.77301e-05,-0.00229318,0.00211398,-0.0024831,-0.81954,0.00265698,0.0477555,664,1051,-34.1622,-1.32195
-553,-27,-34.2664,1.29736,-0.00140373,0.000559094,-0.00159354,0.00144919,-0.00229383,-1.0614,0.00217929,0.0448539,671,1051,-34.2664,-1.29737
-546,-27,-34.3253,1.35291,0,0,0,0,0,0,0,-1,678,1051,-34.3253,-1.35285
-539,-27,-34.4725,1.22961,-0.00359661,0.00134271,-0.000597737,0.00141402,-0.00366792,-1.45206,0.00302872,0.0455698,685,1051,-34.4725,-1.22957
-532,-27,-34.3237,1.05396,-0.00401393,0.00204325,-0.00140813,0.0023546,-0.00432528,-1.35319,0.00391217,0.042548,692,1051,-34.3237,-1.05393
-525,-27,0,0,0,0,0,0,0,0,0,-1,699,1051,0,0
-518,-27,0,0,0,0,0,0,0,0,0,-1,706,1051,0,0
-511,-27,0,0,0,0,0,0,0,0,0,-1,713,1051,0,0
-504,-27,0,0,0,0,0,0,0,0,0,-1,720,1051,0,0
-497,-27,0,0,0,0,0,0,0,0,0,-1,727,1051,0,0
-490,-27,0,0,0,0,0,0,0,0,0,-1,734,1051,0,0
-483,-27,0,0,0,0,0,0,0,0,0,-1,741,1051,0,0
-476,-27,0,0,0,0,0,0,0,0,0,-1,748,1051,0,0
-469,-27,0,0,0,0,0,0,0,0,0,-1,755,1051,0,0
-462,-27,0,0,0,0,0,0,0,0,0,-1,762,1051,0,0
-455,-27,0,0,0,0,0,0,0,0,0,-1,769,1051,0,0
-448,-27,0,0,0,0,0,0,0,0,0,-1,776,1051,0,0
-441,-27,0,0,0,0,0,0,0,0,0,-1,783,1051,0,0
-434,-27,0,0,0,0,0,0,0,0,0,-1,790,1051,0,0
-427,-27,0,0,0,0,0,0,0,0,0,-1,797,1051,0,0
-420,-27,0,0,0,0,0,0,0,0,0,-1,804,1051,0,0
-413,-27,0,0,0,0,0,0,0,0,0,-1,811,1051,0,0
-406,-27,0,0,0,0,0,0,0,0,0,-1,818,1051,0,0
-399,-27,0,0,0,0,0,0,0,0,0,-1,825,1051,0,0
-392,-27,0,0,0,0,0,0,0,0,0,-1,832,1051,0,0
-385,-27,0,0,0,0,0,0,0,0,0,-1,839,1051,0,0
-378,-27,0,0,0,0,0,0,0,0,0,-1,846,1051,0,0
-371,-27,0,0,0,0,0,0,0,0,0,-1,853,1051,0,0
-364,-27,0,0,0,0,0,0,0,0,0,-1,860,1051,0,0
-357,-27,0,0,0,0,0,0,0,0,0,-1,867,1051,0,0
-350,-27,0,0,0,0,0,0,0,0,0,-1,874,1051,0,0
-343,-27,0,0,0,0,0,0,0,0,0,-1,881,1051,0,0
-336,-27,0,0,0,0,0,0,0,0,0,-1,888,1051,0,0
-329,-27,0,0,0,0,0,0,0,0,0,-1,895,1051,0,0
-322,-27,0,0,0,0,0,0,0,0,0,-1,902,1051,0,0
-315,-27,0,0,0,0,0,0,0,0,0,-1,909,1051,0,0
-308,-27,0,0,0,0,0,0,0,0,0,-1,916,1051,0,0
-301,-27,0,0,0,0,0,0,0,0,0,-1,923,1051,0,0
-294,-27,0,0,0,0,0,0,0,0,0,-1,930,1051,0,0
-287,-27,0,0,0,0,0,0,0,0,0,-1,937,1051,0,0
-280,-27,0,0,0,0,0,0,0,0,0,-1,944,1051,0,0
-273,-27,0,0,0,0,0,0,0,0,0,-1,951,1051,0,0
-266,-27,0,0,0,0,0,0,0,0,0,-1,958,1051,0,0
-259,-27,0,0,0,0,0,0,0,0,0,-1,965,1051,0,0
-252,-27,0,0,0,0,0,0,0,0,0,-1,972,1051,0,0
-245,-27,0,0,0,0,0,0,0,0,0,-1,979,1051,0,0
-238,-27,0,0,0,0,0,0,0,0,0,-1,986,1051,0,0
-231,-27,0,0,0,0,0,0,0,0,0,-1,993,1051,0,0
-224,-27,0,0,0,0,0,0,0,0,0,-1,1000,1051,0,0
-217,-27,0,0,0,0,0,0,0,0,0,-1,1007,1051,0,0
-210,-27,0,0,0,0,0,0,0,0,0,-1,1014,1051,0,0
-203,-27,0,0,0,0,0,0,0,0,0,-1,1021,1051,0,0
-196,-27,0,0,0,0,0,0,0,0,0,-1,1028,1051,0,0
-189,-27,0,0,0,0,0,0,0,0,0,-1,1035,1051,0,0
-182,-27,0,0,0,0,0,0,0,0,0,-1,1042,1051,0,0
-175,-27,0,0,0,0,0,0,0,0,0,-1,1049,1051,0,0
-168,-27,0,0,0,0,0,0,0,0,0,-1,1056,1051,0,0
-161,-27,0,0,0,0,0,0,0,0,0,-1,1063,1051,0,0
-154,-27,0,0,0,0,0,0,0,0,0,-1,1070,1051,0,0
-147,-27,0,0,0,0,0,0,0,0,0,-1,1077,1051,0,0
-140,-27,0,0,0,0,0,0,0,0,0,-1,1084,1051,0,0
-133,-27,0,0,0,0,0,0,0,0,0,-1,1091,1051,0,0
-126,-27,0,0,0,0,0,0,0,0,0,-1,1098,1051,0,0
-119,-27,0,0,0,0,0,0,0,0,0,-1,1105,1051,0,0
-112,-27,0,0,0,0,0,0,0,0,0,-1,1112,1051,0,0
-105,-27,0,0,0,0,0,0,0,0,0,-1,1119,1051,0,0
-98,-27,0,0,0,0,0,0,0,0,0,-1,1126,1051,0,0
-91,-27,0,0,0,0,0,0,0,0,0,-1,1133,1051,0,0
-84,-27,0,0,0,0,0,0,0,0,0,-1,1140,1051,0,0
-77,-27,0,0,0,0,0,0,0,0,0,-1,1147,1051,0,0
-70,-27,0,0,0,0,0,0,0,0,0,-1,1154,1051,0,0
-63,-27,0,0,0,0,0,0,0,0,0,-1,1161,1051,0,0
-56,-27,0,0,0,0,0,0,0,0,0,-1,1168,1051,0,0
-49,-27,0,0,0,0,0,0,0,0,0,-1,1175,1051,0,0
-42,-27,0,0,0,0,0,0,0,0,0,-1,1182,1051,0,0
-35,-27,0,0,0,0,0,0,0,0,0,-1,1189,1051,0,0
-28,-27,0,0,0,0,0,0,0,0,0,-1,1196,1051,0,0
-21,-27,0,0,0,0,0,0,0,0,0,-1,1203,1051,0,0
-14,-27,0,0,0,0,0,0,0,0,0,-1,1210,1051,0,0
-7,-27,0,0,0,0,0,0,0,0,0,-1,1217,1051,0,0
0,-27,0,0,0,0,0,0,0,0,0,-1,1224,1051,0,0
7,-27,0,0,0,0,0,0,0,0,0,-1,1231,1051,0,0
14,-27,0,0,0,0,0,0,0,0,0,-1,1238,1051,0,0
21,-27,0,0,0,0,0,0,0,0,0,-1,1245,1051,0,0
28,-27,0,0,0,0,0,0,0,0,0,-1,1252,1051,0,0
35,-27,0,0,0,0,0,0,0,0,0,-1,1259,1051,0,0
42,-27,0,0,0,0,0,0,0,0,0,-1,1266,1051,0,0
49,-27,0,0,0,0,0,0,0,0,0,-1,1273,1051,0,0
56,-27,0,0,0,0,0,0,0,0,0,-1,1280,1051,0,0
63,-27,0,0,0,0,0,0,0,0,0,-1,1287,1051,0,0
70,-27,0,0,0,0,0,0,0,0,0,-1,1294,1051,0,0
77,-27,0,0,0,0,0,0,0,0,0,-1,1301,1051,0,0
84,-27,0,0,0,0,0,0,0,0,0,-1,1308,1051,0,0
91,-27,0,0,0,0,0,0,0,0,0,-1,1315,1051,0,0
98,-27,0,0,0,0,0,0,0,0,0,-1,1322,1051,0,0
105,-27,0,0,0,0,0,0,0,0,0,-1,1329,1051,0,0
112,-27,0,0,0,0,0,0,0,0,0,-1,1336,1051,0,0
119,-27,0,0,0,0,0,0,0,0,0,-1,1343,1051,0,0
126,-27,0,0,0,0,0,0,0,0,0,-1,1350,1051,0,0
133,-27,0,0,0,0,0,0,0,0,0,-1,1357,1051,0,0
140,-27,0,0,0,0,0,0,0,0,0,-1,1364,1051,0,0
147,-27,0,0,0,0,0,0,0,0,0,-1,1371,1051,0,0
154,-27,0,0,0,0,0,0,0,0,0,-1,1378,1051,0,0
161,-27,0,0,0,0,0,0,0,0,0,-1,1385,1051,0,0
168,-27,0,0,0,0,0,0,0,0,0,-1,1392,1051,0,0
175,-27,0,0,0,0,0,0,0,0,0,-1,1399,1051,0,0
182,-27,0,0,0,0,0,0,0,0,0,-1,1406,1051,0,0
189,-27,0,0,0,0,0,0,0,0,0,-1,1413,1051,0,0
196,-27,0,0,0,0,0,0,0,0,0,-1,1420,1051,0,0
203,-27,0,0,0,0,0,0,0,0,0,-1,1427,1051,0,0
210,-27,0,0,0,0,0,0,0,0,0,-1,1434,1051,0,0
217,-27,0,0,0,0,0,0,0,0,0,-1,1441,1051,0,0
224,-27,0,0,0,0,0,0,0,0,0,-1,1448,1051,0,0
231,-27,0,0,0,0,0,0,0,0,0,-1,1455,1051,0,0
238,-27,0,0,0,0,0,0,0,0,0,-1,1462,1051,0,0
245,-27,0,0,0,0,0,0,0,0,0,-1,1469,1051,0,0
252,-27,0,0,0,0,0,0,0,0,0,-1,1476,1051,0,0
259,-27,0,0,0,0,0,0,0,0,0,-1,1483,1051,0,0
266,-27,0,0,0,0,0,0,0,0,0,-1,1490,1051,0,0
273,-27,0,0,0,0,0,0,0,0,0,-1,1497,1051,0,0
280,-27,0,0,0,0,0,0,0,0,0,-1,1504,1051,0,0
287,-27,0,0,0,0,0,0,0,0,0,-1,1511,1051,0,0
294,-27,0,0,0,0,0,0,0,0,0,-1,1518,1051,0,0
301,-27,0,0,0,0,0,0,0,0,0,-1,1525,1051,0,0
308,-27,0,0,0,0,0,0,0,0,0,-1,1532,1051,0,0
315,-27,0,0,0,0,0,0,0,0,0,-1,1539,1051,0,0
322,-27,0,0,0,0,0,0,0,0,0,-1,1546,1051,0,0
329,-27,0,0,0,0,0,0,0,0,0,-1,1553,1051,0,0
336,-27,0,0,0,0,0,0,0,0,0,-1,1560,1051,0,0
343,-27,0,0,0,0,0,0,0,0,0,-1,1567,1051,0,0
350,-27,0,0,0,0,0,0,0,0,0,-1,1574,1051,0,0
357,-27,0,0,0,0,0,0,0,0,0,-1,1581,1051,0,0
364,-27,0,0,0,0,0,0,0,0,0,-1,1588,1051,0,0
371,-27,0,0,0,0,0,0,0,0,0,-1,1595,1051,0,0
378,-27,0,0,0,0,0,0,0,0,0,-1,1602,1051,0,0
385,-27,0,0,0,0,0,0,0,0,0,-1,1609,1051,0,0
392,-27,0,0,0,0,0,0,0,0,0,-1,1616,1051,0,0
399,-27,0,0,0,0,0,0,0,0,0,-1,1623,1051,0,0
406,-27,0,0,0,0,0,0,0,0,0,-1,1630,1051,0,0
413,-27,0,0,0,0,0,0,0,0,0,-1,1637,1051,0,0
420,-27,0,0,0,0,0,0,0,0,0,-1,1644,1051,0,0
427,-27,0,0,0,0,0,0,0,0,0,-1,1651,1051,0,0
434,-27,0,0,0,0,0,0,0,0,0,-1,1658,1051,0,0
441,-27,0,0,0,0,0,0,0,0,0,-1,1665,1051,0,0
448,-27,0,0,0,0,0,0,0,0,0,-1,1672,1051,0,0
455,-27,0,0,0,0,0,0,0,0,0,-1,1679,1051,0,0
462,-27,0,0,0,0,0,0,0,0,0,-1,1686,1051,0,0
469,-27,0,0,0,0,0,0,0,0,0,-1,1693,1051,0,0
476,-27,0,0,0,0,0,0,0,0,0,-1,1700,1051,0,0
483,-27,0,0,0,0,0,0,0,0,0,-1,1707,1051,0,0
490,-27,0,0,0,0,0,0,0,0,0,-1,1714,1051,0,0
497,-27,0,0,0,0,0,0,0,0,0,-1,1721,1051,0,0
504,-27,0,0,0,0,0,0,0,0,0,-1,1728,1051,0,0
511,-27,0,0,0,0,0,0,0,0,0,-1,1735,1051,0,0
518,-27,0,0,0,0,0,0,0,0,0,-1,1742,1051,0,0
525,-27,0,0,0,0,0,0,0,0,0,-1,1749,1051,0,0
532,-27,0,0,0,0,0,0,0,0,0,-1,1756,1051,0,0
539,-27,0,0,0,0,0,0,0,0,0,-1,1763,1051,0,0
546,-27,0,0,0,0,0,0,0,0,0,-1,1770,1051,0,0
553,-27,0,0,0,0,0,0,0,0,0,-1,1777,1051,0,0
560,-27,0,0,0,0,0,0,0,0,0,-1,1784,1051,0,0
567,-27,0,0,0,0,0,0,0,0,0,-1,1791,1051,0,0
574,-27,0,0,0,0,0,0,0,0,0,-1,1798,1051,0,0
581,-27,0,0,0,0,0,0,0,0,0,-1,1805,1051,0,0
588,-27,0,0,0,0,0,0,0,0,0,-1,1812,1051,0,0
595,-27,0,0,0,0,0,0,0,0,0,-1,1819,1051,0,0
602,-27,0,0,0,0,0,0,0,0,0,-1,1826,1051,0,0
609,-27,0,0,0,0,0,0,0,0,0,-1,1833,1051,0,0
616,-27,0,0,0,0,0,0,0,0,0,-1,1840,1051,0,0
623,-27,0,0,0,0,0,0,0,0,0,-1,1847,1051,0,0
630,-27,0,0,0,0,0,0,0,0,0,-1,1854,1051,0,0
637,-27,0,0,0,0,0,0,0,0,0,-1,1861,1051,0,0
644,-27,0,0,0,0,0,0,0,0,0,-1,1868,1051,0,0
651,-27,46.4768,2.69971,0.00491632,0.000467085,0.000972637,0.00511965,0.000263752,0.206086,0.00332867,0.0404692,1875,1051,46.4768,-2.69971
658,-27,46.4233,2.65161,0.00332752,0.000315382,0.000834187,0.00354311,9.97913e-05,0.25291,0.00232952,0.0413871,1882,1051,46.4234,-2.65165
665,-27,46.4102,2.75647,0.00208576,0.000189881,0.000728339,0.00233326,-5.76158e-05,0.327568,0.00157506,0.0404845,1889,1051,46.4102,-2.75647
672,-27,46.3917,2.94299,0.00109053,0.000214222,0.000851539,0.00161003,-0.000305276,0.547791,0.00118826,0.0312816,1896,1051,46.3917,-2.94296
679,-27,46.4707,2.86755,0.000229732,0.000313635,0.00106778,0.00134029,-0.000796925,0.805032,0.00124715,0.0282781,1903,1051,46.4707,-2.86758
686,-27,46.6179,2.70776,-0.000517465,0.000240874,0.00137192,0.00128506,-0.00156165,0.920222,0.00164613,0.0400759,1910,1051,46.618,-2.70777
693,-27,46.7137,2.59863,-0.000991386,7.16382e-05,0.0017053,0.00132633,-0.00224608,0.936469,0.0020852,0.0423583,1917,1051,46.7138,-2.59868
700,-27,46.4565,2.75403,-0.0012604,-1.33009e-05,0.00200761,0.00146537,-0.00273907,0.935971,0.00246428,0.0359333,1924,1051,46.4565,-2.75407
707,-27,46.3884,2.77014,-0.00163121,6.57973e-05,0.00227069,0.00164134,-0.00320676,0.964203,0.00284727,0.0247128,1931,1051,46.3884,-2.77012
714,-27,46.3912,2.8634,-0.00206502,0.000290658,0.00237735,0.00176594,-0.00354031,1.0154,0.00312014,0.0247095,1938,1051,46.3913,-2.86346
721,-27,46.3435,2.98438,0,0,0,0,0,0,0,-1,1945,1051,46.3435,-2.9844
728,-27,46.5288,6.04651,0,0,0,0,0,0,0,-1,1952,1051,46.5288,-6.04649
735,-27,46.0909,6.04822,-0.00347921,0.00219644,0.00236503,0.00305275,-0.00433552,1.22341,0.004287,0.0307793,1959,1051,46.091,-6.0482
742,-27,45.915,5.97644,-0.00344628,0.00335247,0.00231244,0.00406443,-0.00415825,1.27212,0.00474747,0.018996,1966,1051,45.915,-5.97641
749,-27,45.9856,5.83777,-0.00362081,0.00471409,0.00200084,0.00516952,-0.00407623,1.34699,0.00535046,0.014619,1973,1051,45.9856,-5.83776
756,-27,45.954,5.72974,-0.00360179,0.00648628,0.00150106,0.00670489,-0.0038204,1.42617,0.00615238,0.0142283,1980,1051,45.954,-5.72969
763,-27,45.8909,5.60254,-0.00341552,0.00893007,0.000833651,0.00898611,-0.00347156,1.50368,0.00742362,0.0151871,1987,1051,45.8909,-5.60251
770,-27,45.8364,5.46045,-0.00277818,0.0120842,-4.81396e-05,0.0120843,-0.00277834,-1.56756,0.00912445,0.0166766,1994,1051,45.8364,-5.46046
777,-27,45.7811,5.42285,-0.00159537,0.0158708,-0.000905591,0.0159176,-0.00164219,-1.51913,0.0111993,0.0176183,2001,1051,45.7811,-5.42288
784,-27,45.7249,5.38513,-0.000137846,0.0196125,-0.00179581,0.0197745,-0.000299803,-1.48085,0.0132841,0.0251881,2008,1051,45.7249,-5.38519
791,-27,45.8958,5.13818,0.00160361,0.0232803,-0.00274224,0.0236219,0.00126208,-1.44689,0.0153445,0.0425684,2015,1051,45.8957,-5.13813
798,-27,46.0369,4.96667,0.00378854,0.026694,-0.00376897,0.0272982,0.00318431,-1.41183,0.0172357,0.0488109,2022,1051,46.037,-4.96665
805,-27,46.0818,4.69702,0,0,0,0,0,0,0,-1,2029,1051,46.0817,-4.69698
812,-27,45.6125,4.93494,0,0,0,0,0,0,0,-1,2036,1051,45.6126,-4.93494
-700,-34,-34.3438,-2.35461,0,0,0,0,0,0,0,-1,524,1058,-34.3438,2.3546
-693,-34,-32.7731,0.456421,0,0,0,0,0,0,0,-1,531,1058,-32.7731,-0.456431
-686,-34,-32.9254,0.175415,0,0,0,0,0,0,0,-1,538,1058,-32.9255,-0.175373
-679,-34,-33.7274,0.397583,0,0,0,0,0,0,0,-1,545,1058,-33.7274,-0.397525
-672,-34,-33.609,0.484741,0.0212211,0.0755297,-0.0260118,0.0859782,0.0107727,-1.18884,0.0540867,0.046021,552,1058,-33.609,-0.484721
-665,-34,-33.4706,1.23376,0.0198338,0.0628118,-0.0190162,0.0700177,0.012628,-1.20858,0.0430904,0.0442675,559,1058,-33.4706,-1.23372
-658,-34,-33.4081,1.84802,0.0172584,0.0511207,-0.0135085,0.0558492,0.0125298,-1.23408,0.0338385,0.0436526,566,1058,-33.4081,-1.84807
-651,-34,-33.6831,2.15723,0.0142087,0.0405312,-0.00937384,0.0435282,0.0112118,-1.26135,0.0260971,0.0298557,573,1058,-33.6831,-2.15725
-644,-34,-33.9859,2.31494,0.0110486,0.030934,-0.00640929,0.0328208,0.00916187,-1.2845,0.0195556,0.015304,580,1058,-33.9859,-2.31494
-637,-34,-34.0401,2.48462,0.00855196,0.0217378,-0.00410087,0.0229091,0.00738062,-1.29257,0.0135026,0.0166251,587,1058,-34.0401,-2.48461
-630,-34,-34.0483,2.76111,0.00632235,0.0143758,-0.00292171,0.0153241,0.00537405,-1.25695,0.0089779,0.0175199,594,1058,-34.0484,-2.76116
-623,-34,-34.02,2.95984,0.00463943,0.00904142,-0.00244213,0.010128,0.00355282,-1.15215,0.00593358,0.0137663,601,1058,-34.02,-2.95986
-616,-34,-34.0207,3.18494,0.00309611,0.0058945,-0.00230467,0.00719146,0.00179915,-1.05821,0.00432129,0.020139,608,1058,-34.0207,-3.18497
-609,-34,-34.0334,3.37488,0.00195378,0.00237616,-0.00261604,0.00478952,-0.000459581,-0.825676,0.00335671,0.0206162,615,1058,-34.0334,-3.3749
-602,-34,-34.0293,3.54565,0.00125193,0.000707339,-0.00304021,0.00403201,-0.00207275,-0.740735,0.00358458,0.015678,622,1058,-34.0293,-3.54571
-595,-34,-34.0963,3.64172,0.00113194,-0.000376475,-0.00320317,0.0036685,-0.00291303,-0.669776,0.00380818,0.0163631,629,1058,-34.0963,-3.64176
-588,-34,-34.2722,1.00916,0,0,0,0,0,0,0,-1,636,1058,-34.2722,-1.00915
-581,-34,-34.2359,0.953125,0.00134888,-0.000977938,-0.00308518,0.00348272,-0.00311178,-0.605095,0.00380935,0.0254483,643,1058,-34.2359,-0.953135
-574,-34,-34.2427,0.957764,0.00106889,-0.00095718,-0.00285545,0.00308568,-0.00297397,-0.614939,0.00349874,0.0364068,650,1058,-34.2427,-0.957819
-567,-34,-34.2241,1.00061,0.000479328,-0.000669564,-0.00252451,0.00249393,-0.00268416,-0.673529,0.00299024,0.0419674,657,1058,-34.2241,-1.00057
-560,-34,-34.2122,1.00452,-0.000297222,-0.00015413,-0.00212776,0.00190328,-0.00235464,-0.802204,0.00246291,0.0436621,664,1058,-34.2122,-1.00453
-553,-34,-34.3066,1.0614,-0.00123727,0.000482242,-0.00175888,0.00158025,-0.00233528,-1.01273,0.0022746,0.0466239,671,1058,-34.3066,-1.06138
-546,-34,-34.3617,0.983887,-0.00219159,0.00107842,-0.00156371,0.00170581,-0.00281898,-1.18924,0.00263861,0.0476574,678,1058,-34.3617,-0.983933
-539,-34,-34.3928,0.987305,-0.00301191,0.00138896,-0.00174144,0.00199468,-0.00361763,-1.23606,0.00328512,0.0436547,685,1058,-34.3928,-0.987281
-532,-34,-34.2051,0.716919,-0.00332679,0.00206488,-0.00281613,0.00326751,-0.00452943,-1.16719,0.00452118,0.0399744,692,1058,-34.2051,-0.716903
-525,-34,0,0,0,0,0,0,0,0,0,-1,699,1058,0,0
-518,-34,0,0,0,0,0,0,0,0,0,-1,706,1058,0,0
-511,-34,0,0,0,0,0,0,0,0,0,-1,713,1058,0,0
-504,-34,0,0,0,0,0,0,0,0,0,-1,720,1058,0,0
-497,-34,0,0,0,0,0,0,0,0,0,-1,727,1058,0,0
-490,-34,0,0,0,0,0,0,0,0,0,-1,734,1058,0,0
-483,-34,0,0,0,0,0,0,0,0,0,-1,741,1058,0,0
-476,-34,0,0,0,0,0,0,0,0,0,-1,748,1058,0,0
-469,-34,0,0,0,0,0,0,0,0,0,-1,755,1058,0,0
-462,-34,0,0,0,0,0,0,0,0,0,-1,762,1058,0,0
-455,-34,0,0,0,0,0,0,0,0,0,-1,769,1058,0,0
-448,-34,0,0,0,0,0,0,0,0,0,-1,776,1058,0,0
-441,-34,0,0,0,0,0,0,0,0,0,-1,783,1058,0,0
-434,-34,0,0,0,0,0,0,0,0,0,-1,790,1058,0,0
-427,-34,0,0,0,0,0,0,0,0,0,-1,797,1058,0,0
-420,-34,0,0,0,0,0,0,0,0,0,-1,804,1058,0,0
-413,-34,0,0,0,0,0,0,0,0,0,-1,811,1058,0,0
-406,-34,0,0,0,0,0,0,0,0,0,-1,818,1058,0,0
-399,-34,0,0,0,0,0,0,0,0,0,-1,825,1058,0,0
-392,-34,0,0,0,0,0,0,0,0,0,-1,832,1058,0,0
-385,-34,0,0,0,0,0,0,0,0,0,-1,839,1058,0,0
-378,-34,0,0,0,0,0,0,0,0,0,-1,846,1058,0,0
-371,-34,0,0,0,0,0,0,0,0,0,-1,853,1058,0,0
-364,-34,0,0,0,0,0,0,0,0,0,-1,860,1058,0,0
-357,-34,0,0,0,0,0,0,0,0,0,-1,867,1058,0,0
-350,-34,0,0,0,0,0,0,0,0,0,-1,874,1058,0,0
-343,-34,0,0,0,0,0,0,0,0,0,-1,881,1058,0,0
-336,-34,0,0,0,0,0,0,0,0,0,-1,888,1058,0,0
-329,-34,0,0,0,0,0,0,0,0,0,-1,895,1058,0,0
-322,-34,0,0,0,0,0,0,0,0,0,-1,902,1058,0,0
-315,-34,0,0,0,0,0,0,0,0,0,-1,909,1058,0,0
-308,-34,0,0,0,0,0,0,0,0,0,-1,916,1058,0,0
-301,-34,0,0,0,0,0,0,0,0,0,-1,923,1058,0,0
-294,-34,0,0,0,0,0,0,0,0,0,-1,930,1058,0,0
-287,-34,0,0,0,0,0,0,0,0,0,-1,937,1058,0,0
-280,-34,0,0,0,0,0,0,0,0,0,-1,944,1058,0,0
-273,-34,0,0,0,0,0,0,0,0,0,-1,951,1058,0,0
-266,-34,0,0,0,0,0,0,0,0,0,-1,958,1058,0,0
-259,-34,0,0,0,0,0,0,0,0,0,-1,965,1058,0,0
-252,-34,0,0,0,0,0,0,0,0,0,-1,972,1058,0,0
-245,-34,0,0,0,0,0,0,0,0,0,-1,979,1058,0,0
-238,-34,0,0,0,0,0,0,0,0,0,-1,986,1058,0,0
-231,-34,0,0,0,0,0,0,0,0,0,-1,993,1058,0,0
-224,-34,0,0,0,0,0,0,0,0,0,-1,1000,1058,0,0
-217,-34,0,0,0,0,0,0,0,0,0,-1,1007,1058,0,0
-210,-34,0,0,0,0,0,0,0,0,0,-1,1014,1058,0,0
-203,-34,0,0,0,0,0,0,0,0,0,-1,1021,1058,0,0
-196,-34,0,0,0,0,0,0,0,0,0,-1,1028,1058,0,0
-189,-34,0,0,0,0,0,0,0,0,0,-1,1035,1058,0,0
-182,-34,0,0,0,0,0,0,0,0,0,-1,1042,1058,0,0
-175,-34,0,0,0,0,0,0,0,0,0,-1,1049,1058,0,0
-168,-34,0,0,0,0,0,0,0,0,0,-1,1056,1058,0,0
-161,-34,0,0,0,0,0,0,0,0,0,-1,1063,1058,0,0
-154,-34,0,0,0,0,0,0,0,0,0,-1,1070,1058,0,0
-147,-34,0,0,0,0,0,0,0,0,0,-1,1077,1058,0,0
-140,-34,0,0,0,0,0,0,0,0,0,-1,1084,1058,0,0
-133,-34,0,0,0,0,0,0,0,0,0,-1,1091,1058,0,0
-126,-34,0,0,0,0,0,0,0,0,0,-1,1098,1058,0,0
-119,-34,0,0,0,0,0,0,0,0,0,-1,1105,1058,0,0
-112,-34,0,0,0,0,0,0,0,0,0,-1,1112,1058,0,0
-105,-34,0,0,0,0,0,0,0,0,0,-1,1119,1058,0,0
-98,-34,0,0,0,0,0,0,0,0,0,-1,1126,1058,0,0
-91,-34,0,0,0,0,0,0,0,0,0,-1,1133,1058,0,0
-84,-34,0,0,0,0,0,0,0,0,0,-1,1140,1058,0,0
-77,-34,0,0,0,0,0,0,0,0,0,-1,1147,1058,0,0
-70,-34,0,0,0,0,0,0,0,0,0,-1,1154,1058,0,0
-63,-34,0,0,0,0,0,0,0,0,0,-1,1161,1058,0,0
-56,-34,0,0,0,0,0,0,0,0,0,-1,1168,1058,0,0
-49,-34,0,0,0,0,0,0,0,0,0,-1,1175,1058,0,0
-42,-34,0,0,0,0,0,0,0,0,0,-1,1182,1058,0,0
-35,-34,0,0,0,0,0,0,0,0,0,-1,1189,1058,0,0
-28,-34,0,0,0,0,0,0,0,0,0,-1,1196,1058,0,0
-21,-34,0,0,0,0,0,0,0,0,0,-1,1203,1058,0,0
-14,-34,0,0,0,0,0,0,0,0,0,-1,1210,1058,0,0
-7,-34,0,0,0,0,0,0,0,0,0,-1,1217,1058,0,0
0,-34,0,0,0,0,0,0,0,0,0,-1,1224,1058,0,0
7,-34,0,0,0,0,0,0,0,0,0,-1,1231,1058,0,0
14,-34,0,0,0,0,0,0,0,0,0,-1,1238,1058,0,0
21,-34,0,0,0,0,0,0,0,0,0,-1,1245,1058,0,0
28,-34,0,0,0,0,0,0,0,0,0,-1,1252,1058,0,0
35,-34,0,0,0,0,0,0,0,0,0,-1,1259,1058,0,0
42,-34,0,0,0,0,0,0,0,0,0,-1,1266,1058,0,0
49,-34,0,0,0,0,0,0,0,0,0,-1,1273,1058,0,0
56,-34,0,0,0,0,0,0,0,0,0,-1,1280,1058,0,0
63,-34,0,0,0,0,0,0,0,0,0,-1,1287,1058,0,0
70,-34,0,0,0,0,0,0,0,0,0,-1,1294,1058,0,0
77,-34,0,0,0,0,0,0,0,0,0,-1,1301,1058,0,0
84,-34,0,0,0,0,0,0,0,0,0,-1,1308,1058,0,0
91,-34,0,0,0,0,0,0,0,0,0,-1,1315,1058,0,0
98,-34,0,0,0,0,0,0,0,0,0,-1,1322,1058,0,0
105,-34,0,0,0,0,0,0,0,0,0,-1,1329,1058,0,0
112,-34,0,0,0,0,0,0,0,0,0,-1,1336,1058,0,0
119,-34,0,0,0,0,0,0,0,0,0,-1,1343,1058,0,0
126,-34,0,0,0,0,0,0,0,0,0,-1,1350,1058,0,0
133,-34,0,0,0,0,0,0,0,0,0,-1,1357,1058,0,0
140,-34,0,0,0,0,0,0,0,0,0,-1,1364,1058,0,0
147,-34,0,0,0,0,0,0,0,0,0,-1,1371,1058,0,0
154,-34,0,0,0,0,0,0,0,0,0,-1,1378,1058,0,0
161,-34,0,0,0,0,0,0,0,0,0,-1,1385,1058,0,0
168,-34,0,0,0,0,0,0,0,0,0,-1,1392,1058,0,0
175,-34,0,0,0,0,0,0,0,0,0,-1,1399,1058,0,0
182,-34,0,0,0,0,0,0,0,0,0,-1,1406,1058,0,0
189,-34,0,0,0,0,0,0,0,0,0,-1,1413,1058,0,0
196,-34,0,0,0,0,0,0,0,0,0,-1,1420,1058,0,0
203,-34,0,0,0,0,0,0,0,0,0,-1,1427,1058,0,0
210,-34,0,0,0,0,0,0,0,0,0,-1,1434,1058,0,0
217,-34,0,0,0,0,0,0,0,0,0,-1,1441,1058,0,0
224,-34,0,0,0,0,0,0,0,0,0,-1,1448,1058,0,0
231,-34,0,0,0,0,0,0,0,0,0,-1,1455,1058,0,0
238,-34,0,0,0,0,0,0,0,0,0,-1,1462,1058,0,0
245,-34,0,0,0,0,0,0,0,0,0,-1,1469,1058,0,0
252,-34,0,0,0,0,0,0,0,0,0,-1,1476,1058,0,0
259,-34,0,0,0,0,0,0,0,0,0,-1,1483,1058,0,0
266,-34,0,0,0,0,0,0,0,0,0,-1,1490,1058,0,0
273,-34,0,0,0,0,0,0,0,0,0,-1,1497,1058,0,0
280,-34,0,0,0,0,0,0,0,0,0,-1,1504,1058,0,0
287,-34,0,0,0,0,0,0,0,0,0,-1,1511,1058,0,0
294,-34,0,0,0,0,0,0,0,0,0,-1,1518,1058,0,0
301,-34,0,0,0,0,0,0,0,0,0,-1,1525,1058,0,0
308,-34,0,0,0,0,0,0,0,0,0,-1,1532,1058,0,0
315,-34,0,0,0,0,0,0,0,0,0,-1,1539,1058,0,0
322,-34,0,0,0,0,0,0,0,0,0,-1,1546,1058,0,0
329,-34,0,0,0,0,0,0,0,0,0,-1,1553,1058,0,0
336,-34,0,0,0,0,0,0,0,0,0,-1,1560,1058,0,0
343,-34,0,0,0,0,0,0,0,0,0,-1,1567,1058,0,0
350,-34,0,0,0,0,0,0,0,0,0,-1,1574,1058,0,0
357,-34,0,0,0,0,0,0,0,0,0,-1,1581,1058,0,0
364,-34,0,0,0,0,0,0,0,0,0,-1,1588,1058,0,0
371,-34,0,0,0,0,0,0,0,0,0,-1,1595,1058,0,0
378,-34,0,0,0,0,0,0,0,0,0,-1,1602,1058,0,0
385,-34,0,0,0,0,0,0,0,0,0,-1,1609,1058,0,0
392,-34,0,0,0,0,0,0,0,0,0,-1,1616,1058,0,0
399,-34,0,0,0,0,0,0,0,0,0,-1,1623,1058,0,0
406,-34,0,0,0,0,0,0,0,0,0,-1,1630,1058,0,0
413,-34,0,0,0,0,0,0,0,0,0,-1,1637,1058,0,0
420,-34,0,0,0,0,0,0,0,0,0,-1,1644,1058,0,0
427,-34,0,0,0,0,0,0,0,0,0,-1,1651,1058,0,0
434,-34,0,0,0,0,0,0,0,0,0,-1,1658,1058,0,0
441,-34,0,0,0,0,0,0,0,0,0,-1,1665,1058,0,0
448,-34,0,0,0,0,0,0,0,0,0,-1,1672,1058,0,0
455,-34,0,0,0,0,0,0,0,0,0,-1,1679,1058,0,0
462,-34,0,0,0,0,0,0,0,0,0,-1,1686,1058,0,0
469,-34,0,0,0,0,0,0,0,0,0,-1,1693,1058,0,0
476,-34,0,0,0,0,0,0,0,0,0,-1,1700,1058,0,0
483,-34,0,0,0,0,0,0,0,0,0,-1,1707,1058,0,0
490,-34,0,0,0,0,0,0,0,0,0,-1,1714,1058,0,0
497,-34,0,0,0,0,0,0,0,0,0,-1,1721,1058,0,0
504,-34,0,0,0,0,0,0,0,0,0,-1,1728,1058,0,0
511,-34,0,0,0,0,0,0,0,0,0,-1,1735,1058,0,0
518,-34,0,0,0,0,0,0,0,0,0,-1,1742,1058,0,0
525,-34,0,0,0,0,0,0,0,0,0,-1,1749,1058,0,0
532,-34,0,0,0,0,0,0,0,0,0,-1,1756,1058,0,0
539,-34,0,0,0,0,0,0,0,0,0,-1,1763,1058,0,0
546,-34,0,0,0,0,0,0,0,0,0,-1,1770,1058,0,0
553,-34,0,0,0,0,0,0,0,0,0,-1,1777,1058,0,0
560,-34,0,0,0,0,0,0,0,0,0,-1,1784,1058,0,0
567,-34,0,0,0,0,0,0,0,0,0,-1,1791,1058,0,0
574,-34,0,0,0,0,0,0,0,0,0,-1,1798,1058,0,0
581,-34,0,0,0,0,0,0,0,0,0,-1,1805,1058,0,0
588,-34,0,0,0,0,0,0,0,0,0,-1,1812,1058,0,0
595,-34,0,0,0,0,0,0,0,0,0,-1,1819,1058,0,0
602,-34,0,0,0,0,0,0,0,0,0,-1,1826,1058,0,0
609,-34,0,0,0,0,0,0,0,0,0,-1,1833,1058,0,0
616,-34,0,0,0,0,0,0,0,0,0,-1,1840,1058,0,0
623,-34,0,0,0,0,0,0,0,0,0,-1,1847,1058,0,0
630,-34,0,0,0,0,0,0,0,0,0,-1,1854,1058,0,0
637,-34,0,0,0,0,0,0,0,0,0,-1,1861,1058,0,0
644,-34,0,0,0,0,0,0,0,0,0,-1,1868,1058,0,0
651,-34,46.5513,2.71094,0.00467444,0.000226893,0.000397251,0.00470964,0.00019169,0.0883868,0.00307786,0.041771,1875,1058,46.5513,-2.711
658,-34,46.5178,2.64429,0.00315361,-2.92779e-05,0.000480443,0.00322455,-0.000100218,0.146596,0.00218387,0.0437771,1882,1058,46.5178,-2.64427
665,-34,46.5074,2.88977,0.00199099,-0.000199313,0.000504118,0.00210145,-0.00030977,0.215701,0.00151482,0.0438672,1889,1058,46.5074,-2.8898
672,-34,46.5032,3.01807,0.00106545,-0.000219178,0.000702276,0.00137485,-0.000528578,0.414982,0.00113457,0.0397052,1896,1058,46.5032,-3.01812
679,-34,46.4714,3.0177,0.00024155,-0.000181995,0.000943915,0.000997157,-0.000937602,0.675048,0.00111721,0.0365894,1903,1058,46.4714,-3.01769
686,-34,46.4982,2.9292,-0.000504146,-0.000308712,0.00125445,0.000851819,-0.00166468,0.824268,0.00147795,0.040962,1910,1058,46.4982,-2.92914
693,-34,46.4939,2.78992,-0.000987855,-0.000498061,0.00158764,0.000863457,-0.00234937,0.861921,0.00191992,0.0409475,1917,1058,46.4939,-2.78993
700,-34,46.3881,2.76489,-0.00126787,-0.000590475,0.00189765,0.000998467,-0.00285681,0.873709,0.00231043,0.0356455,1924,1058,46.3881,-2.76492
707,-34,46.3444,2.84058,-0.00165066,-0.000510901,0.00218529,0.00117759,-0.00333915,0.912948,0.00270545,0.0252457,1931,1058,46.3444,-2.84061
714,-34,46.3511,2.91455,-0.00208366,-0.000269697,0.00231445,0.00130913,-0.0036625,0.972141,0.00297563,0.0229498,1938,1058,46.3511,-2.91451
721,-34,46.4485,3.453,0,0,0,0,0,0,0,-1,1945,1058,46.4484,-3.45297
728,-34,45.973,6.1604,0,0,0,0,0,0,0,-1,1952,1058,45.973,-6.16037
735,-34,45.8251,6.1095,-0.00335314,0.00159357,0.00232718,0.00251628,-0.00427585,1.19332,0.00396506,0.0201174,1959,1058,45.8251,-6.10948
742,-34,45.7523,6.00586,-0.00323292,0.00270161,0.00234027,0.00351343,-0.00404474,1.23689,0.00436731,0.0164862,1966,1058,45.7523,-6.00589
749,-34,45.7798,5.87244,-0.00330545,0.00410394,0.00204055,0.00462874,-0.00383025,1.31907,0.00489105,0.0140152,1973,1058,45.7798,-5.87245
756,-34,45.804,5.69788,-0.00316082,0.00592122,0.00149043,0.00615955,-0.00339915,1.41223,0.0055949,0.0105745,1980,1058,45.8039,-5.69787
763,-34,45.7424,5.55383,-0.00281925,0.00840884,0.000670318,0.00844872,-0.00285913,1.51138,0.00678925,0.0115015,1987,1058,45.7425,-5.55382
770,-34,45.6742,5.41528,-0.00199797,0.0116544,-0.000457333,0.0116697,-0.00201327,-1.53735,0.00853048,0.0171214,1994,1058,45.6742,-5.41528
777,-34,45.6002,5.32532,-0.000647726,0.0156256,-0.00173254,0.015808,-0.000830136,-1.4659,0.010826,0.0194148,2001,1058,45.6002,-5.32528
784,-34,45.5059,5.23206,0.000899192,0.0196578,-0.00317741,0.0201814,0.000375601,-1.40748,0.0133308,0.0360033,2008,1058,45.5059,-5.23204
791,-34,45.7275,4.97522,0.00266373,0.0237784,-0.0048735,0.0248489,0.00159315,-1.35456,0.0160613,0.0459333,2015,1058,45.7275,-4.97521
798,-34,46.0242,4.5282,0,0,0,0,0,0,0,-1,2022,1058,46.0243,-4.52823
805,-34,45.2253,4.57544,0,0,0,0,0,0,0,-1,2029,1058,45.2255,-4.57542
812,-34,45.3579,4.55066,0,0,0,0,0,0,0,-1,2036,1058,45.358,-4.55064
-700,-41,-32.8528,-4.12952,0,0,0,0,0,0,0,-1,524,1065,-32.8528,4.12952
-693,-41,-32.262,-0.50061,0,0,0,0,0,0,0,-1,531,1065,-32.262,0.500669
-686,-41,-32.4312,-0.764038,0,0,0,0,0,0,0,-1,538,1065,-32.4312,0.764071
-679,-41,-32.6004,-1.02747,0,0,0,0,0,0,0,-1,545,1065,-32.6004,1.02747
-672,-41,-34.2422,-0.552734,0,0,0,0,0,0,0,-1,552,1065,-34.2422,0.55272
-665,-41,-34.1718,0.347778,0.0242073,0.0597352,-0.0182124,0.0674123,0.0165301,-1.17187,0.04057,0.0417854,559,1065,-34.1718,-0.347764
-658,-41,-33.722,1.21753,0.0201345,0.0486399,-0.0126354,0.0534343,0.0153401,-1.20814,0.031769,0.0388175,566,1065,-33.722,-1.21752
-651,-41,-33.5052,1.98181,0.016018,0.0385753,-0.00857721,0.0414662,0.0131271,-1.24571,0.0244716,0.0286495,573,1065,-33.5052,-1.98179
-644,-41,-33.7917,2.24854,0.0121823,0.0294851,-0.00577787,0.0312371,0.0104303,-1.27638,0.0183634,0.0169516,580,1065,-33.7917,-2.24848
-637,-41,-33.832,2.45203,0.009149,0.020744,-0.00365781,0.0218015,0.00809153,-1.28937,0.0127257,0.0185045,587,1065,-33.832,-2.45199
-630,-41,-33.8277,2.6936,0.00657901,0.0136142,-0.00260121,0.0144715,0.0057217,-1.25243,0.00841586,0.0141031,594,1065,-33.8277,-2.69357
-623,-41,-33.7883,2.91296,0.00470395,0.00846774,-0.00216976,0.00945802,0.00371367,-1.14263,0.00550238,0.0115691,601,1065,-33.7883,-2.91298
-616,-41,-33.7745,3.20007,0.00309158,0.00546441,-0.00203488,0.00663348,0.0019225,-1.04933,0.00394102,0.0150715,608,1065,-33.7745,-3.20009
-609,-41,-33.7856,3.40698,0.00209133,0.00208865,-0.00232379,0.00441378,-0.0002338,-0.78511,0.00302347,0.0215049,615,1065,-33.7856,-3.40694
-602,-41,-33.7819,3.58252,0.0014563,0.000382115,-0.00260407,0.00357809,-0.00173967,-0.683699,0.00313077,0.0139079,622,1065,-33.7819,-3.58247
-595,-41,-33.9937,3.63977,0,0,0,0,0,0,0,-1,629,1065,-33.9936,-3.63973
-588,-41,-34.1562,2.22925,0,0,0,0,0,0,0,-1,636,1065,-34.1562,-2.22922
-581,-41,-34.2536,1.05444,0.00138155,-0.00122021,-0.00271226,0.00308877,-0.00292743,-0.561789,0.00347387,0.0371377,643,1065,-34.2536,-1.05445
-574,-41,-34.2595,1.02356,0.00110292,-0.00119641,-0.00255167,0.00275196,-0.00284545,-0.573741,0.00323181,0.0393862,650,1065,-34.2595,-1.02354
-567,-41,-34.282,0.949219,0.0005445,-0.000916003,-0.00233822,0.00226385,-0.00263535,-0.634042,0.00283127,0.0430618,657,1065,-34.282,-0.949173
-560,-41,-34.1914,1.03772,-0.000191971,-0.000412388,-0.0021147,0.00181539,-0.00241975,-0.759364,0.00245344,0.0432674,664,1065,-34.1914,-1.03774
-553,-41,-34.2131,0.880615,-0.00105529,0.000214019,-0.00198003,0.00165862,-0.00249989,-0.940488,0.00241724,0.0441898,671,1065,-34.2132,-0.880586
-546,-41,-34.2076,0.726318,-0.00190823,0.000804866,-0.00207624,0.00192844,-0.0030318,-1.07477,0.00288731,0.0421193,678,1065,-34.2076,-0.726334
-539,-41,-34.2007,0.539185,-0.00253499,0.00108452,-0.00261206,0.00245251,-0.00390298,-1.08835,0.00370106,0.0413853,685,1065,-34.2008,-0.539133
-532,-41,-34.3055,0.503662,-0.002748,0.00166784,-0.0038488,0.00389706,-0.00497721,-1.04581,0.0051362,0.0376918,692,1065,-34.3055,-0.50366
-525,-41,0,0,0,0,0,0,0,0,0,-1,699,1065,0,0
-518,-41,0,0,0,0,0,0,0,0,0,-1,706,1065,0,0
-511,-41,0,0,0,0,0,0,0,0,0,-1,713,1065,0,0
-504,-41,0,0,0,0,0,0,0,0,0,-1,720,1065,0,0
-497,-41,0,0,0,0,0,0,0,0,0,-1,727,1065,0,0
-490,-41,0,0,0,0,0,0,0,0,0,-1,734,1065,0,0
-483,-41,0,0,0,0,0,0,0,0,0,-1,741,1065,0,0
-476,-41,0,0,0,0,0,0,0,0,0,-1,748,1065,0,0
-469,-41,0,0,0,0,0,0,0,0,0,-1,755,1065,0,0
-462,-41,0,0,0,0,0,0,0,0,0,-1,762,1065,0,0
-455,-41,0,0,0,0,0,0,0,0,0,-1,769,1065,0,0
-448,-41,0,0,0,0,0,0,0,0,0,-1,776,1065,0,0
-441,-41,0,0,0,0,0,0,0,0,0,-1,783,1065,0,0
-434,-41,0,0,0,0,0,0,0,0,0,-1,790,1065,0,0
-427,-41,0,0,0,0,0,0,0,0,0,-1,797,1065,0,0
-420,-41,0,0,0,0,0,0,0,0,0,-1,804,1065,0,0
-413,-41,0,0,0,0,0,0,0,0,0,-1,811,1065,0,0
-406,-41,0,0,0,0,0,0,0,0,0,-1,818,1065,0,0
-399,-41,0,0,0,0,0,0,0,0,0,-1,825,1065,0,0
-392,-41,0,0,0,0,0,0,0,0,0,-1,832,1065,0,0
-385,-41,0,0,0,0,0,0,0,0,0,-1,839,1065,0,0
-378,-41,0,0,0,0,0,0,0,0,0,-1,846,1065,0,0
-371,-41,0,0,0,0,0,0,0,0,0,-1,853,1065,0,0
-364,-41,0,0,0,0,0,0,0,0,0,-1,860,1065,0,0
-357,-41,0,0,0,0,0,0,0,0,0,-1,867,1065,0,0
-350,-41,0,0,0,0,0,0,0,0,0,-1,874,1065,0,0
-343,-41,0,0,0,0,0,0,0,0,0,-1,881,1065,0,0
-336,-41,0,0,0,0,0,0,0,0,0,-1,888,1065,0,0
-329,-41,0,0,0,0,0,0,0,0,0,-1,895,1065,0,0
-322,-41,0,0,0,0,0,0,0,0,0,-1,902,1065,0,0
-315,-41,0,0,0,0,0,0,0,0,0,-1,909,1065,0,0
-308,-41,0,0,0,0,0,0,0,0,0,-1,916,1065,0,0
-301,-41,0,0,0,0,0,0,0,0,0,-1,923,1065,0,0
-294,-41,0,0,0,0,0,0,0,0,0,-1,930,1065,0,0
-287,-41,0,0,0,0,0,0,0,0,0,-1,937,1065,0,0
-280,-41,0,0,0,0,0,0,0,0,0,-1,944,1065,0,0
-273,-41,0,0,0,0,0,0,0,0,0,-1,951,1065,0,0
-266,-41,0,0,0,0,0,0,0,0,0,-1,958,1065,0,0
-259,-41,0,0,0,0,0,0,0,0,0,-1,965,1065,0,0
-252,-41,0,0,0,0,0,0,0,0,0,-1,972,1065,0,0
-245,-41,0,0,0,0,0,0,0,0,0,-1,979,1065,0,0
-238,-41,0,0,0,0,0,0,0,0,0,-1,986,1065,0,0
-231,-41,0,0,0,0,0,0,0,0,0,-1,993,1065,0,0
-224,-41,0,0,0,0,0,0,0,0,0,-1,1000,1065,0,0
-217,-41,0,0,0,0,0,0,0,0,0,-1,1007,1065,0,0
-210,-41,0,0,0,0,0,0,0,0,0,-1,1014,1065,0,0
-203,-41,0,0,0,0,0,0,0,0,0,-1,1021,1065,0,0
-196,-41,0,0,0,0,0,0,0,0,0,-1,1028,1065,0,0
-189,-41,0,0,0,0,0,0,0,0,0,-1,1035,1065,0,0
-182,-41,0,0,0,0,0,0,0,0,0,-1,1042,1065,0,0
-175,-41,0,0,0,0,0,0,0,0,0,-1,1049,1065,0,0
-168,-41,0,0,0,0,0,0,0,0,0,-1,1056,1065,0,0
-161,-41,0,0,0,0,0,0,0,0,0,-1,1063,1065,0,0
-154,-41,0,0,0,0,0,0,0,0,0,-1,1070,1065,0,0
-147,-41,0,0,0,0,0,0,0,0,0,-1,1077,1065,0,0
-140,-41,0,0,0,0,0,0,0,0,0,-1,1084,1065,0,0
-133,-41,0,0,0,0,0,0,0,0,0,-1,1091,1065,0,0
-126,-41,0,0,0,0,0,0,0,0,0,-1,1098,1065,0,0
-119,-41,0,0,0,0,0,0,0,0,0,-1,1105,1065,0,0
-112,-41,0,0,0,0,0,0,0,0,0,-1,1112,1065,0,0
-105,-41,0,0,0,0,0,0,0,0,0,-1,1119,1065,0,0
-98,-41,0,0,0,0,0,0,0,0,0,-1,1126,1065,0,0
-91,-41,0,0,0,0,0,0,0,0,0,-1,1133,1065,0,0
-84,-41,0,0,0,0,0,0,0,0,0,-1,1140,1065,0,0
-77,-41,0,0,0,0,0,0,0,0,0,-1,1147,1065,0,0
-70,-41,0,0,0,0,0,0,0,0,0,-1,1154,1065,0,0
-63,-41,0,0,0,0,0,0,0,0,0,-1,1161,1065,0,0
-56,-41,0,0,0,0,0,0,0,0,0,-1,1168,1065,0,0
-49,-41,0,0,0,0,0,0,0,0,0,-1,1175,1065,0,0
-42,-41,0,0,0,0,0,0,0,0,0,-1,1182,1065,0,0
-35,-41,0,0,0,0,0,0,0,0,0,-1,1189,1065,0,0
-28,-41,0,0,0,0,0,0,0,0,0,-1,1196,1065,0,0
-21,-41,0,0,0,0,0,0,0,0,0,-1,1203,1065,0,0
-14,-41,0,0,0,0,0,0,0,0,0,-1,1210,1065,0,0
-7,-41,0,0,0,0,0,0,0,0,0,-1,1217,1065,0,0
0,-41,0,0,0,0,0,0,0,0,0,-1,1224,1065,0,0
7,-41,0,0,0,0,0,0,0,0,0,-1,1231,1065,0,0
14,-41,0,0,0,0,0,0,0,0,0,-1,1238,1065,0,0
21,-41,0,0,0,0,0,0,0,0,0,-1,1245,1065,0,0
28,-41,0,0,0,0,0,0,0,0,0,-1,1252,1065,0,0
35,-41,0,0,0,0,0,0,0,0,0,-1,1259,1065,0,0
42,-41,0,0,0,0,0,0,0,0,0,-1,1266,1065,0,0
49,-41,0,0,0,0,0,0,0,0,0,-1,1273,1065,0,0
56,-41,0,0,0,0,0,0,0,0,0,-1,1280,1065,0,0
63,-41,0,0,0,0,0,0,0,0,0,-1,1287,1065,0,0
70,-41,0,0,0,0,0,0,0,0,0,-1,1294,1065,0,0
77,-41,0,0,0,0,0,0,0,0,0,-1,1301,1065,0,0
84,-41,0,0,0,0,0,0,0,0,0,-1,1308,1065,0,0
91,-41,0,0,0,0,0,0,0,0,0,-1,1315,1065,0,0
98,-41,0,0,0,0,0,0,0,0,0,-1,1322,1065,0,0
105,-41,0,0,0,0,0,0,0,0,0,-1,1329,1065,0,0
112,-41,0,0,0,0,0,0,0,0,0,-1,1336,1065,0,0
119,-41,0,0,0,0,0,0,0,0,0,-1,1343,1065,0,0
126,-41,0,0,0,0,0,0,0,0,0,-1,1350,1065,0,0
133,-41,0,0,0,0,0,0,0,0,0,-1,1357,1065,0,0
140,-41,0,0,0,0,0,0,0,0,0,-1,1364,1065,0,0
147,-41,0,0,0,0,0,0,0,0,0,-1,1371,1065,0,0
154,-41,0,0,0,0,0,0,0,0,0,-1,1378,1065,0,0
161,-41,0,0,0,0,0,0,0,0,0,-1,1385,1065,0,0
168,-41,0,0,0,0,0,0,0,0,0,-1,1392,1065,0,0
175,-41,0,0,0,0,0,0,0,0,0,-1,1399,1065,0,0
182,-41,0,0,0,0,0,0,0,0,0,-1,1406,1065,0,0
189,-41,0,0,0,0,0,0,0,0,0,-1,1413,1065,0,0
196,-41,0,0,0,0,0,0,0,0,0,-1,1420,1065,0,0
203,-41,0,0,0,0,0,0,0,0,0,-1,1427,1065,0,0
210,-41,0,0,0,0,0,0,0,0,0,-1,1434,1065,0,0
217,-41,0,0,0,0,0,0,0,0,0,-1,1441,1065,0,0
224,-41,0,0,0,0,0,0,0,0,0,-1,1448,1065,0,0
231,-41,0,0,0,0,0,0,0,0,0,-1,1455,1065,0,0
238,-41,0,0,0,0,0,0,0,0,0,-1,1462,1065,0,0
245,-41,0,0,0,0,0,0,0,0,0,-1,1469,1065,0,0
252,-41,0,0,0,0,0,0,0,0,0,-1,1476,1065,0,0
259,-41,0,0,0,0,0,0,0,0,0,-1,1483,1065,0,0
266,-41,0,0,0,0,0,0,0,0,0,-1,1490,1065,0,0
273,-41,0,0,0,0,0,0,0,0,0,-1,1497,1065,0,0
280,-41,0,0,0,0,0,0,0,0,0,-1,1504,1065,0,0
287,-41,0,0,0,0,0,0,0,0,0,-1,1511,1065,0,0
294,-41,0,0,0,0,0,0,0,0,0,-1,1518,1065,0,0
301,-41,0,0,0,0,0,0,0,0,0,-1,1525,1065,0,0
308,-41,0,0,0,0,0,0,0,0,0,-1,1532,1065,0,0
315,-41,0,0,0,0,0,0,0,0,0,-1,1539,1065,0,0
322,-41,0,0,0,0,0,0,0,0,0,-1,1546,1065,0,0
329,-41,0,0,0,0,0,0,0,0,0,-1,1553,1065,0,0
336,-41,0,0,0,0,0,0,0,0,0,-1,1560,1065,0,0
343,-41,0,0,0,0,0,0,0,0,0,-1,1567,1065,0,0
350,-41,0,0,0,0,0,0,0,0,0,-1,1574,1065,0,0
357,-41,0,0,0,0,0,0,0,0,0,-1,1581,1065,0,0
364,-41,0,0,0,0,0,0,0,0,0,-1,1588,1065,0,0
371,-41,0,0,0,0,0,0,0,0,0,-1,1595,1065,0,0
378,-41,0,0,0,0,0,0,0,0,0,-1,1602,1065,0,0
385,-41,0,0,0,0,0,0,0,0,0,-1,1609,1065,0,0
392,-41,0,0,0,0,0,0,0,0,0,-1,1616,1065,0,0
399,-41,0,0,0,0,0,0,0,0,0,-1,1623,1065,0,0
406,-41,0,0,0,0,0,0,0,0,0,-1,1630,1065,0,0
413,-41,0,0,0,0,0,0,0,0,0,-1,1637,1065,0,0
420,-41,0,0,0,0,0,0,0,0,0,-1,1644,1065,0,0
427,-41,0,0,0,0,0,0,0,0,0,-1,1651,1065,0,0
434,-41,0,0,0,0,0,0,0,0,0,-1,1658,1065,0,0
441,-41,0,0,0,0,0,0,0,0,0,-1,1665,1065,0,0
448,-41,0,0,0,0,0,0,0,0,0,-1,1672,1065,0,0
455,-41,0,0,0,0,0,0,0,0,0,-1,1679,1065,0,0
462,-41,0,0,0,0,0,0,0,0,0,-1,1686,1065,0,0
469,-41,0,0,0,0,0,0,0,0,0,-1,1693,1065,0,0
476,-41,0,0,0,0,0,0,0,0,0,-1,1700,1065,0,0
483,-41,0,0,0,0,0,0,0,0,0,-1,1707,1065,0,0
490,-41,0,0,0,0,0,0,0,0,0,-1,1714,1065,0,0
497,-41,0,0,0,0,0,0,0,0,0,-1,1721,1065,0,0
504,-41,0,0,0,0,0,0,0,0,0,-1,1728,1065,0,0
511,-41,0,0,0,0,0,0,0,0,0,-1,1735,1065,0,0
518,-41,0,0,0,0,0,0,0,0,0,-1,1742,1065,0,0
525,-41,0,0,0,0,0,0,0,0,0,-1,1749,1065,0,0
532,-41,0,0,0,0,0,0,0,0,0,-1,1756,1065,0,0
539,-41,0,0,0,0,0,0,0,0,0,-1,1763,1065,0,0
546,-41,0,0,0,0,0,0,0,0,0,-1,1770,1065,0,0
553,-41,0,0,0,0,0,0,0,0,0,-1,1777,1065,0,0
560,-41,0,0,0,0,0,0,0,0,0,-1,1784,1065,0,0
567,-41,0,0,0,0,0,0,0,0,0,-1,1791,1065,0,0
574,-41,0,0,0,0,0,0,0,0,0,-1,1798,1065,0,0
581,-41,0,0,0,0,0,0,0,0,0,-1,1805,1065,0,0
588,-41,0,0,0,0,0,0,0,0,0,-1,1812,1065,0,0
595,-41,0,0,0,0,0,0,0,0,0,-1,1819,1065,0,0
602,-41,0,0,0,0,0,0,0,0,0,-1,1826,1065,0,0
609,-41,0,0,0,0,0,0,0,0,0,-1,1833,1065,0,0
616,-41,0,0,0,0,0,0,0,0,0,-1,1840,1065,0,0
623,-41,0,0,0,0,0,0,0,0,0,-1,1847,1065,0,0
630,-41,0,0,0,0,0,0,0,0,0,-1,1854,1065,0,0
637,-41,0,0,0,0,0,0,0,0,0,-1,1861,1065,0,0
644,-41,0,0,0,0,0,0,0,0,0,-1,1868,1065,0,0
651,-41,46.4951,2.62109,0.00451227,-0.00143554,-1.16638e-05,0.00451229,-0.00143556,-0.00196101,0.00358387,0.0370603,1875,1065,46.4951,-2.62104
658,-41,46.5201,2.65076,0.00307279,-0.0013015,0.00022053,0.00308388,-0.00131259,0.0502452,0.00260607,0.0411881,1882,1065,46.5201,-2.65075
665,-41,46.5006,2.75281,0.00197989,-0.001165,0.000324651,0.00201305,-0.00119816,0.101801,0.00187379,0.0424258,1889,1065,46.5006,-2.75281
672,-41,46.5278,2.86694,0.00110877,-0.000946174,0.000552787,0.00124803,-0.00108544,0.246794,0.00134832,0.0424945,1896,1065,46.5278,-2.86695
679,-41,46.3817,3.14087,0.000310455,-0.000719378,0.000794577,0.000742371,-0.00115129,0.497901,0.00110177,0.0401197,1903,1065,46.3818,-3.14086
686,-41,46.3241,2.93359,-0.000422443,-0.000731073,0.00109672,0.000530762,-0.00168428,0.715504,0.00133541,0.0406893,1910,1065,46.3241,-2.93363
693,-41,46.3158,2.80042,-0.000889071,-0.0008334,0.00141399,0.000553034,-0.0022755,0.79524,0.00173105,0.0424468,1917,1065,46.3158,-2.80045
700,-41,46.3427,2.85364,-0.00115903,-0.000868295,0.00172933,0.000721768,-0.0027491,0.82733,0.00211478,0.0368896,1924,1065,46.3426,-2.85367
707,-41,46.4081,2.79883,-0.0015453,-0.000753606,0.00204644,0.000934919,-0.00323382,0.880934,0.00252587,0.0298508,1931,1065,46.4081,-2.79881
714,-41,46.3823,2.85681,-0.00196554,-0.000491894,0.00220879,0.00109973,-0.00355716,0.946388,0.00281067,0.0235441,1938,1065,46.3823,-2.85675
721,-41,46.5533,3.50928,0,0,0,0,0,0,0,-1,1945,1065,46.5533,-3.50934
728,-41,45.8478,6.19019,0,0,0,0,0,0,0,-1,1952,1065,45.8478,-6.19021
735,-41,45.6707,6.08337,-0.00311049,0.00126529,0.00225948,0.00222257,-0.00406777,1.17005,0.00368344,0.0187484,1959,1065,45.6707,-6.08341
742,-41,45.5598,5.96899,-0.00292061,0.00236033,0.00229793,0.00322023,-0.00378051,1.21272,0.00404619,0.015935,1966,1065,45.5598,-5.96901
749,-41,45.5674,5.84717,-0.00289726,0.00379642,0.00201439,0.00435587,-0.00345671,1.2999,0.00452054,0.0143648,1973,1065,45.5674,-5.84722
756,-41,45.618,5.69958,-0.00265138,0.00568143,0.00138308,0.00590499,-0.00287494,1.41054,0.00516874,0.0137228,1980,1065,45.618,-5.6996
763,-41,45.561,5.51599,-0.00221153,0.00825293,0.000378944,0.00826663,-0.00222523,1.53465,0.00638345,0.01175,1987,1065,45.5611,-5.51601
770,-41,45.479,5.35571,-0.00126209,0.0116675,-0.00103578,0.0117499,-0.00134454,-1.49136,0.00831776,0.0131086,1994,1065,45.479,-5.35569
777,-41,45.4023,5.18823,0.000212193,0.015928,-0.00276303,0.0163996,-0.000259429,-1.40174,0.0110206,0.0155675,2001,1065,45.4024,-5.1882
784,-41,45.3098,5.00769,0.00185709,0.0203778,-0.00476704,0.0215328,0.000702129,-1.3331,0.014127,0.0264438,2008,1065,45.3097,-5.00775
791,-41,45.5286,4.75598,0.00372439,0.0250922,-0.00716582,0.0272728,0.00154381,-1.2754,0.0176897,0.0433144,2015,1065,45.5286,-4.75603
798,-41,45.7673,4.41333,0,0,0,0,0,0,0,-1,2022,1065,45.7674,-4.41327
805,-41,45.7424,3.755,0,0,0,0,0,0,0,-1,2029,1065,45.7424,-3.75499
812,-41,45.1018,4.21216,0,0,0,0,0,0,0,-1,2036,1065,45.1017,-4.21211
-700,-48,-32.105,-3.63464,0,0,0,0,0,0,0,-1,524,1072,-32.1051,3.63468
-693,-48,-31.746,-1.41699,0,0,0,0,0,0,0,-1,531,1072,-31.746,1.41699
-686,-48,-31.9778,-1.64563,0,0,0,0,0,0,0,-1,538,1072,-31.9778,1.64562
-679,-48,-32.2096,-1.87427,0,0,0,0,0,0,0,-1,545,1072,-32.2096,1.87425
-672,-48,-34.9402,-1.54773,0.0298324,0.0662294,-0.028524,0.0818659,0.0141959,-1.06935,0.0505146,0.0493883,552,1072,-34.9402,1.54774
-665,-48,-34.1853,-0.336792,0.025155,0.0547929,-0.0201508,0.0649871,0.0149609,-1.10244,0.0392988,0.0479709,559,1072,-34.1853,0.336741
-658,-48,-33.6928,0.747192,0.0202902,0.0444269,-0.013849,0.0507281,0.013989,-1.1438,0.0302537,0.045618,566,1072,-33.6928,-0.747141
-651,-48,-33.3985,1.54688,0.0157399,0.0351345,-0.00931541,0.0388839,0.0119905,-1.18814,0.0229927,0.0354288,573,1072,-33.3985,-1.54685
-644,-48,-33.474,2.2135,0.0117845,0.0268308,-0.00621217,0.0290642,0.00955115,-1.22568,0.0171056,0.0209603,580,1072,-33.474,-2.21349
-637,-48,-33.4913,2.38684,0.00867891,0.0188692,-0.00391683,0.0202007,0.00734739,-1.2431,0.0118064,0.020692,587,1072,-33.4913,-2.38682
-630,-48,-33.5013,2.64575,0.00604889,0.0123008,-0.00270967,0.0133118,0.00503796,-1.21371,0.00776087,0.0207576,594,1072,-33.5013,-2.6458
-623,-48,-33.5776,2.88428,0.00422226,0.00760477,-0.00217968,0.00867239,0.00315464,-1.11534,0.00506859,0.0115519,601,1072,-33.5776,-2.8843
-616,-48,-33.5447,3.1416,0.00289104,0.00495811,-0.0019576,0.00613825,0.00171089,-1.02828,0.00365777,0.0107003,608,1072,-33.5447,-3.14162
-609,-48,-33.476,3.41943,0.00230383,0.00189841,-0.0020512,0.00416231,3.99284e-05,-0.736146,0.00276166,0.012364,615,1072,-33.476,-3.41939
-602,-48,-33.5197,3.61047,0.00170544,0.000271847,-0.00218128,0.00328468,-0.00130739,-0.62665,0.00273193,0.0131003,622,1072,-33.5197,-3.61046
-595,-48,-33.5662,3.75867,0.00148806,-0.000641323,-0.00230675,0.00296397,-0.00211724,-0.569187,0.00294718,0.0299779,629,1072,-33.5662,-3.75873
-588,-48,-34.2653,0.923096,0,0,0,0,0,0,0,-1,636,1072,-34.2653,-0.923139
-581,-48,-34.2506,0.96167,0.00145788,-0.00116681,-0.00233028,0.00281994,-0.00252887,-0.528948,0.00308966,0.04705,643,1072,-34.2506,-0.961685
-574,-48,-34.1779,0.889038,0.00115528,-0.00113817,-0.00220928,0.0024977,-0.0024806,-0.546013,0.00287423,0.0417212,650,1072,-34.1779,-0.889027
-567,-48,-34.1701,0.999878,0.000589886,-0.000878187,-0.00208027,0.00206182,-0.00235012,-0.615789,0.00254905,0.0411619,657,1072,-34.1701,-0.999853
-560,-48,-34.2979,1.10657,-0.000167652,-0.000414868,-0.0019918,0.00170437,-0.00228689,-0.754409,0.00231252,0.0413035,664,1072,-34.2979,-1.10654
-553,-48,-34.2281,1.02344,-0.00105647,0.000143454,-0.00204335,0.0016731,-0.00258612,-0.928193,0.00247783,0.0424234,671,1072,-34.2281,-1.02344
-546,-48,-34.1086,0.876465,-0.00195126,0.000637906,-0.00238878,0.00206034,-0.0033737,-1.03372,0.00316774,0.0397512,678,1072,-34.1087,-0.876494
-539,-48,-34.2212,0.805176,-0.00255219,0.000750473,-0.00326994,0.00276239,-0.00456411,-1.01922,0.00427238,0.0404131,685,1072,-34.2212,-0.805157
-532,-48,-34.3582,0.783691,-0.00286151,0.00110316,-0.0046682,0.00419249,-0.00595084,-0.986183,0.00588551,0.0396076,692,1072,-34.3582,-0.783652
-525,-48,0,0,0,0,0,0,0,0,0,-1,699,1072,0,0
-518,-48,0,0,0,0,0,0,0,0,0,-1,706,1072,0,0
-511,-48,0,0,0,0,0,0,0,0,0,-1,713,1072,0,0
-504,-48,0,0,0,0,0,0,0,0,0,-1,720,1072,0,0
-497,-48,0,0,0,0,0,0,0,0,0,-1,727,1072,0,0
-490,-48,0,0,0,0,0,0,0,0,0,-1,734,1072,0,0
-483,-48,0,0,0,0,0,0,0,0,0,-1,741,1072,0,0
-476,-48,0,0,0,0,0,0,0,0,0,-1,748,1072,0,0
-469,-48,0,0,0,0,0,0,0,0,0,-1,755,1072,0,0
-462,-48,0,0,0,0,0,0,0,0,0,-1,762,1072,0,0
-455,-48,0,0,0,0,0,0,0,0,0,-1,769,1072,0,0
-448,-48,0,0,0,0,0,0,0,0,0,-1,776,1072,0,0
-441,-48,0,0,0,0,0,0,0,0,0,-1,783,1072,0,0
-434,-48,0,0,0,0,0,0,0,0,0,-1,790,1072,0,0
-427,-48,0,0,0,0,0,0,0,0,0,-1,797,1072,0,0
-420,-48,0,0,0,0,0,0,0,0,0,-1,804,1072,0,0
-413,-48,0,0,0,0,0,0,0,0,0,-1,811,1072,0,0
-406,-48,0,0,0,0,0,0,0,0,0,-1,818,1072,0,0
-399,-48,0,0,0,0,0,0,0,0,0,-1,825,1072,0,0
-392,-48,0,0,0,0,0,0,0,0,0,-1,832,1072,0,0
-385,-48,0,0,0,0,0,0,0,0,0,-1,839,1072,0,0
-378,-48,0,0,0,0,0,0,0,0,0,-1,846,1072,0,0
-371,-48,0,0,0,0,0,0,0,0,0,-1,853,1072,0,0
-364,-48,0,0,0,0,0,0,0,0,0,-1,860,1072,0,0
-357,-48,0,0,0,0,0,0,0,0,0,-1,867,1072,0,0
-350,-48,0,0,0,0,0,0,0,0,0,-1,874,1072,0,0
-343,-48,0,0,0,0,0,0,0,0,0,-1,881,1072,0,0
-336,-48,0,0,0,0,0,0,0,0,0,-1,888,1072,0,0
-329,-48,0,0,0,0,0,0,0,0,0,-1,895,1072,0,0
-322,-48,0,0,0,0,0,0,0,0,0,-1,902,1072,0,0
-315,-48,0,0,0,0,0,0,0,0,0,-1,909,1072,0,0
-308,-48,0,0,0,0,0,0,0,0,0,-1,916,1072,0,0
-301,-48,0,0,0,0,0,0,0,0,0,-1,923,1072,0,0
-294,-48,0,0,0,0,0,0,0,0,0,-1,930,1072,0,0
-287,-48,0,0,0,0,0,0,0,0,0,-1,937,1072,0,0
-280,-48,0,0,0,0,0,0,0,0,0,-1,944,1072,0,0
-273,-48,0,0,0,0,0,0,0,0,0,-1,951,1072,0,0
-266,-48,0,0,0,0,0,0,0,0,0,-1,958,1072,0,0
-259,-48,0,0,0,0,0,0,0,0,0,-1,965,1072,0,0
-252,-48,0,0,0,0,0,0,0,0,0,-1,972,1072,0,0
-245,-48,0,0,0,0,0,0,0,0,0,-1,979,1072,0,0
-238,-48,0,0,0,0,0,0,0,0,0,-1,986,1072,0,0
-231,-48,0,0,0,0,0,0,0,0,0,-1,993,1072,0,0
-224,-48,0,0,0,0,0,0,0,0,0,-1,1000,1072,0,0
-217,-48,0,0,0,0,0,0,0,0,0,-1,1007,1072,0,0
-210,-48,0,0,0,0,0,0,0,0,0,-1,1014,1072,0,0
-203,-48,0,0,0,0,0,0,0,0,0,-1,1021,1072,0,0
-196,-48,0,0,0,0,0,0,0,0,0,-1,1028,1072,0,0
-189,-48,0,0,0,0,0,0,0,0,0,-1,1035,1072,0,0
-182,-48,0,0,0,0,0,0,0,0,0,-1,1042,1072,0,0
-175,-48,0,0,0,0,0,0,0,0,0,-1,1049,1072,0,0
-168,-48,0,0,0,0,0,0,0,0,0,-1,1056,1072,0,0
-161,-48,0,0,0,0,0,0,0,0,0,-1,1063,1072,0,0
-154,-48,0,0,0,0,0,0,0,0,0,-1,1070,1072,0,0
-147,-48,0,0,0,0,0,0,0,0,0,-1,1077,1072,0,0
-140,-48,0,0,0,0,0,0,0,0,0,-1,1084,1072,0,0
-133,-48,0,0,0,0,0,0,0,0,0,-1,1091,1072,0,0
-126,-48,0,0,0,0,0,0,0,0,0,-1,1098,1072,0,0
-119,-48,0,0,0,0,0,0,0,0,0,-1,1105,1072,0,0
-112,-48,0,0,0,0,0,0,0,0,0,-1,1112,1072,0,0
-105,-48,0,0,0,0,0,0,0,0,0,-1,1119,1072,0,0
-98,-48,0,0,0,0,0,0,0,0,0,-1,1126,1072,0,0
-91,-48,0,0,0,0,0,0,0,0,0,-1,1133,1072,0,0
-84,-48,0,0,0,0,0,0,0,0,0,-1,1140,1072,0,0
-77,-48,0,0,0,0,0,0,0,0,0,-1,1147,1072,0,0
-70,-48,0,0,0,0,0,0,0,0,0,-1,1154,1072,0,0
-63,-48,0,0,0,0,0,0,0,0,0,-1,1161,1072,0,0
-56,-48,0,0,0,0,0,0,0,0,0,-1,1168,1072,0,0
-49,-48,0,0,0,0,0,0,0,0,0,-1,1175,1072,0,0
-42,-48,0,0,0,0,0,0,0,0,0,-1,1182,1072,0,0
-35,-48,0,0,0,0,0,0,0,0,0,-1,1189,1072,0,0
-28,-48,0,0,0,0,0,0,0,0,0,-1,1196,1072,0,0
-21,-48,0,0,0,0,0,0,0,0,0,-1,1203,1072,0,0
-14,-48,0,0,0,0,0,0,0,0,0,-1,1210,1072,0,0
-7,-48,0,0,0,0,0,0,0,0,0,-1,1217,1072,0,0
0,-48,0,0,0,0,0,0,0,0,0,-1,1224,1072,0,0
7,-48,0,0,0,0,0,0,0,0,0,-1,1231,1072,0,0
14,-48,0,0,0,0,0,0,0,0,0,-1,1238,1072,0,0
21,-48,0,0,0,0,0,0,0,0,0,-1,1245,1072,0,0
28,-48,0,0,0,0,0,0,0,0,0,-1,1252,1072,0,0
35,-48,0,0,0,0,0,0,0,0,0,-1,1259,1072,0,0
42,-48,0,0,0,0,0,0,0,0,0,-1,1266,1072,0,0
49,-48,0,0,0,0,0,0,0,0,0,-1,1273,1072,0,0
56,-48,0,0,0,0,0,0,0,0,0,-1,1280,1072,0,0
63,-48,0,0,0,0,0,0,0,0,0,-1,1287,1072,0,0
70,-48,0,0,0,0,0,0,0,0,0,-1,1294,1072,0,0
77,-48,0,0,0,0,0,0,0,0,0,-1,1301,1072,0,0
84,-48,0,0,0,0,0,0,0,0,0,-1,1308,1072,0,0
91,-48,0,0,0,0,0,0,0,0,0,-1,1315,1072,0,0
98,-48,0,0,0,0,0,0,0,0,0,-1,1322,1072,0,0
105,-48,0,0,0,0,0,0,0,0,0,-1,1329,1072,0,0
112,-48,0,0,0,0,0,0,0,0,0,-1,1336,1072,0,0
119,-48,0,0,0,0,0,0,0,0,0,-1,1343,1072,0,0
126,-48,0,0,0,0,0,0,0,0,0,-1,1350,1072,0,0
133,-48,0,0,0,0,0,0,0,0,0,-1,1357,1072,0,0
140,-48,0,0,0,0,0,0,0,0,0,-1,1364,1072,0,0
147,-48,0,0,0,0,0,0,0,0,0,-1,1371,1072,0,0
154,-48,0,0,0,0,0,0,0,0,0,-1,1378,1072,0,0
161,-48,0,0,0,0,0,0,0,0,0,-1,1385,1072,0,0
168,-48,0,0,0,0,0,0,0,0,0,-1,1392,1072,0,0
175,-48,0,0,0,0,0,0,0,0,0,-1,1399,1072,0,0
182,-48,0,0,0,0,0,0,0,0,0,-1,1406,1072,0,0
189,-48,0,0,0,0,0,0,0,0,0,-1,1413,1072,0,0
196,-48,0,0,0,0,0,0,0,0,0,-1,1420,1072,0,0
203,-48,0,0,0,0,0,0,0,0,0,-1,1427,1072,0,0
210,-48,0,0,0,0,0,0,0,0,0,-1,1434,1072,0,0
217,-48,0,0,0,0,0,0,0,0,0,-1,1441,1072,0,0
224,-48,0,0,0,0,0,0,0,0,0,-1,1448,1072,0,0
231,-48,0,0,0,0,0,0,0,0,0,-1,1455,1072,0,0
238,-48,0,0,0,0,0,0,0,0,0,-1,1462,1072,0,0
245,-48,0,0,0,0,0,0,0,0,0,-1,1469,1072,0,0
252,-48,0,0,0,0,0,0,0,0,0,-1,1476,1072,0,0
259,-48,0,0,0,0,0,0,0,0,0,-1,1483,1072,0,0
266,-48,0,0,0,0,0,0,0,0,0,-1,1490,1072,0,0
273,-48,0,0,0,0,0,0,0,0,0,-1,1497,1072,0,0
280,-48,0,0,0,0,0,0,0,0,0,-1,1504,1072,0,0
287,-48,0,0,0,0,0,0,0,0,0,-1,1511,1072,0,0
294,-48,0,0,0,0,0,0,0,0,0,-1,1518,1072,0,0
301,-48,0,0,0,0,0,0,0,0,0,-1,1525,1072,0,0
308,-48,0,0,0,0,0,0,0,0,0,-1,1532,1072,0,0
315,-48,0,0,0,0,0,0,0,0,0,-1,1539,1072,0,0
322,-48,0,0,0,0,0,0,0,0,0,-1,1546,1072,0,0
329,-48,0,0,0,0,0,0,0,0,0,-1,1553,1072,0,0
336,-48,0,0,0,0,0,0,0,0,0,-1,1560,1072,0,0
343,-48,0,0,0,0,0,0,0,0,0,-1,1567,1072,0,0
350,-48,0,0,0,0,0,0,0,0,0,-1,1574,1072,0,0
357,-48,0,0,0,0,0,0,0,0,0,-1,1581,1072,0,0
364,-48,0,0,0,0,0,0,0,0,0,-1,1588,1072,0,0
371,-48,0,0,0,0,0,0,0,0,0,-1,1595,1072,0,0
378,-48,0,0,0,0,0,0,0,0,0,-1,1602,1072,0,0
385,-48,0,0,0,0,0,0,0,0,0,-1,1609,1072,0,0
392,-48,0,0,0,0,0,0,0,0,0,-1,1616,1072,0,0
399,-48,0,0,0,0,0,0,0,0,0,-1,1623,1072,0,0
406,-48,0,0,0,0,0,0,0,0,0,-1,1630,1072,0,0
413,-48,0,0,0,0,0,0,0,0,0,-1,1637,1072,0,0
420,-48,0,0,0,0,0,0,0,0,0,-1,1644,1072,0,0
427,-48,0,0,0,0,0,0,0,0,0,-1,1651,1072,0,0
434,-48,0,0,0,0,0,0,0,0,0,-1,1658,1072,0,0
441,-48,0,0,0,0,0,0,0,0,0,-1,1665,1072,0,0
448,-48,0,0,0,0,0,0,0,0,0,-1,1672,1072,0,0
455,-48,0,0,0,0,0,0,0,0,0,-1,1679,1072,0,0
462,-48,0,0,0,0,0,0,0,0,0,-1,1686,1072,0,0
469,-48,0,0,0,0,0,0,0,0,0,-1,1693,1072,0,0
476,-48,0,0,0,0,0,0,0,0,0,-1,1700,1072,0,0
483,-48,0,0,0,0,0,0,0,0,0,-1,1707,1072,0,0
490,-48,0,0,0,0,0,0,0,0,0,-1,1714,1072,0,0
497,-48,0,0,0,0,0,0,0,0,0,-1,1721,1072,0,0
504,-48,0,0,0,0,0,0,0,0,0,-1,1728,1072,0,0
511,-48,0,0,0,0,0,0,0,0,0,-1,1735,1072,0,0
518,-48,0,0,0,0,0,0,0,0,0,-1,1742,1072,0,0
525,-48,0,0,0,0,0,0,0,0,0,-1,1749,1072,0,0
532,-48,0,0,0,0,0,0,0,0,0,-1,1756,1072,0,0
539,-48,0,0,0,0,0,0,0,0,0,-1,1763,1072,0,0
546,-48,0,0,0,0,0,0,0,0,0,-1,1770,1072,0,0
553,-48,0,0,0,0,0,0,0,0,0,-1,1777,1072,0,0
560,-48,0,0,0,0,0,0,0,0,0,-1,1784,1072,0,0
567,-48,0,0,0,0,0,0,0,0,0,-1,1791,1072,0,0
574,-48,0,0,0,0,0,0,0,0,0,-1,1798,1072,0,0
581,-48,0,0,0,0,0,0,0,0,0,-1,1805,1072,0,0
588,-48,0,0,0,0,0,0,0,0,0,-1,1812,1072,0,0
595,-48,0,0,0,0,0,0,0,0,0,-1,1819,1072,0,0
602,-48,0,0,0,0,0,0,0,0,0,-1,1826,1072,0,0
609,-48,0,0,0,0,0,0,0,0,0,-1,1833,1072,0,0
616,-48,0,0,0,0,0,0,0,0,0,-1,1840,1072,0,0
623,-48,0,0,0,0,0,0,0,0,0,-1,1847,1072,0,0
630,-48,0,0,0,0,0,0,0,0,0,-1,1854,1072,0,0
637,-48,0,0,0,0,0,0,0,0,0,-1,1861,1072,0,0
644,-48,0,0,0,0,0,0,0,0,0,-1,1868,1072,0,0
651,-48,46.3414,2.6864,0.00432425,-0.00325667,-0.000381647,0.00434341,-0.00327583,-0.050174,0.00441334,0.033082,1875,1072,46.3415,-2.68639
658,-48,46.4036,2.78784,0.00299287,-0.00250551,-0.000108903,0.00299502,-0.00250766,-0.0197961,0.00318113,0.0376869,1882,1072,46.4036,-2.78786
665,-48,46.3256,2.90808,0.00197414,-0.00193055,3.70919e-05,0.00197449,-0.0019309,0.0094982,0.00225483,0.0429488,1889,1072,46.3256,-2.90805
672,-48,46.3663,2.91736,0.0011539,-0.00138276,0.000277635,0.00118393,-0.00141279,0.10775,0.00150116,0.0414706,1896,1072,46.3664,-2.91734
679,-48,46.3578,2.99231,0.00037738,-0.000900142,0.000519301,0.000561838,-0.0010846,0.341303,0.000966411,0.0376318,1903,1072,46.3577,-2.99226
686,-48,46.3051,2.82715,-0.00032683,-0.000761707,0.000820629,0.000304679,-0.00139322,0.655891,0.00104528,0.0397463,1910,1072,46.305,-2.82714
693,-48,46.2365,2.77051,-0.000761084,-0.000782285,0.00112697,0.000355334,-0.0018987,0.780695,0.00139937,0.0422848,1917,1072,46.2364,-2.77054
700,-48,46.248,2.92297,-0.00100483,-0.000775728,0.00144435,0.000558603,-0.00233916,0.824971,0.00177519,0.0370051,1924,1072,46.248,-2.92297
707,-48,46.4531,2.81116,-0.00137805,-0.000648173,0.00179281,0.00081647,-0.00284269,0.885804,0.00221796,0.0314116,1931,1072,46.4531,-2.81111
714,-48,46.4193,2.89087,-0.0017716,-0.000400402,0.00199731,0.0010257,-0.00319771,0.950728,0.0025436,0.0388339,1938,1072,46.4193,-2.89087
721,-48,46.3815,3.09253,0,0,0,0,0,0,0,-1,1945,1072,46.3815,-3.09248
728,-48,45.6019,6.3938,0,0,0,0,0,0,0,-1,1952,1072,45.6019,-6.39381
735,-48,45.4604,6.19482,-0.00279358,0.00112183,0.00211679,0.00204742,-0.00371917,1.15859,0.00337566,0.0196216,1959,1072,45.4604,-6.19482
742,-48,45.343,5.99182,-0.00254767,0.00211919,0.00216311,0.00296757,-0.00339605,1.19703,0.00367682,0.0164083,1966,1072,45.343,-5.99183
749,-48,45.3741,5.81323,-0.00244872,0.00352991,0.00185124,0.00405672,-0.00297552,1.29356,0.00407603,0.0144062,1973,1072,45.3741,-5.81326
756,-48,45.3884,5.65027,-0.00213422,0.00543934,0.00110731,0.00559792,-0.00229279,1.42856,0.00468703,0.0132499,1980,1072,45.3885,-5.65032
763,-48,45.334,5.47986,-0.00160196,0.00805166,-9.18698e-05,0.00805253,-0.00160283,-1.56128,0.00597473,0.0129796,1987,1072,45.334,-5.47989
770,-48,45.3029,5.29065,-0.000556539,0.0115547,-0.00180471,0.0118179,-0.00081974,-1.42598,0.0081656,0.0141204,1994,1072,45.3028,-5.29069
777,-48,45.2159,5.08801,0.00102105,0.0159778,-0.00398499,0.0169733,2.55741e-05,-1.326,0.011307,0.0131387,2001,1072,45.216,-5.08796
784,-48,45.157,4.87451,0.00281552,0.0207209,-0.00653968,0.022855,0.000681364,-1.25535,0.0150147,0.0241808,2008,1072,45.1569,-4.87455
791,-48,45.4387,4.43103,0.00493103,0.025902,-0.00961071,0.0296401,0.00119289,-1.19985,0.0193747,0.0392928,2015,1072,45.4387,-4.43101
798,-48,45.1262,4.80444,0.00752523,0.0315804,-0.0133903,0.0375518,0.00155385,-1.15132,0.024533,0.0469472,2022,1072,45.1262,-4.80448
805,-48,45.3145,4.10059,0.010503,0.0377685,-0.0177997,0.0465563,0.00171522,-1.1122,0.0304819,0.04431,2029,1072,45.3146,-4.10055
812,-48,45.3438,3.29565,0,0,0,0,0,0,0,-1,2036,1072,45.3439,-3.29568
-700,-55,-31.6319,-3.2439,0,0,0,0,0,0,0,-1,524,1079,-31.6319,3.24393
-693,-55,-31.6023,-2.54395,0,0,0,0,0,0,0,-1,531,1079,-31.6023,2.54391
-686,-55,-31.5107,-2.54932,0,0,0,0,0,0,0,-1,538,1079,-31.5107,2.54937
-679,-55,-35.8574,2.45667,0,0,0,0,0,0,0,-1,545,1079,-35.8573,-2.45668
-672,-55,-35.048,2.0199,0,0,0,0,0,0,0,-1,552,1079,-35.048,-2.01984
-665,-55,-34.1445,-0.85376,0,0,0,0,0,0,0,-1,559,1079,-34.1445,0.853701
-658,-55,-33.3661,0.468384,0,0,0,0,0,0,0,-1,566,1079,-33.3661,-0.468417
-651,-55,-33.3754,1.53455,0,0,0,0,0,0,0,-1,573,1079,-33.3755,-1.53458
-644,-55,-33.2299,2.08813,0.0129382,0.0259822,-0.00688037,0.0289405,0.00997991,-1.16473,0.0169748,0.0244125,580,1079,-33.2299,-2.08819
-637,-55,-33.2307,2.32678,0.00919608,0.0182231,-0.00441548,0.0200237,0.00739546,-1.18359,0.0116915,0.0187731,587,1079,-33.2307,-2.32673
-630,-55,-33.2386,2.63916,0.00608955,0.011782,-0.00291024,0.0130065,0.00486509,-1.17254,0.00758831,0.0200906,594,1079,-33.2387,-2.63921
-623,-55,-33.357,2.93506,0.00405426,0.00706507,-0.00223924,0.00825789,0.00286143,-1.08134,0.004842,0.0177376,601,1079,-33.357,-2.93501
-616,-55,-33.3388,3.151,0.00276381,0.00452371,-0.00179264,0.00564072,0.0016468,-1.01356,0.00334933,0.0164041,608,1079,-33.3388,-3.15099
-609,-55,-33.2848,3.44189,0.00235795,0.00174712,-0.00164901,0.00372959,0.000375484,-0.693831,0.00237116,0.0172698,615,1079,-33.2848,-3.44187
-602,-55,-33.2699,3.66907,0.00183723,0.000196759,-0.00161112,0.00282489,-0.000790906,-0.549945,0.00219492,0.0151584,622,1079,-33.2699,-3.66904
-595,-55,-33.1649,3.88831,0.00158388,-0.000594342,-0.0016829,0.00249934,-0.0015098,-0.498209,0.00233806,0.0306383,629,1079,-33.1649,-3.88834
-588,-55,-33.1165,4.15295,0,0,0,0,0,0,0,-1,636,1079,-33.1164,-4.1529
-581,-55,-34.2083,0.658447,0,0,0,0,0,0,0,-1,643,1079,-34.2083,-0.658472
-574,-55,-34.1321,0.806641,0.00117583,-0.0010599,-0.00168717,0.00208187,-0.00196593,-0.492819,0.00233732,0.0420052,650,1079,-34.1321,-0.806609
-567,-55,-34.118,0.91272,0.000660608,-0.000810837,-0.00164931,0.00173085,-0.00188108,-0.575603,0.00208595,0.0407908,657,1079,-34.118,-0.912661
-560,-55,-34.3886,1.20764,-3.708e-05,-0.00037016,-0.0016978,0.00150233,-0.00190957,-0.736509,0.00197453,0.0423542,664,1079,-34.3886,-1.20762
-553,-55,-34.3019,1.18726,-0.000843286,0.000157598,-0.00192849,0.00164952,-0.00233521,-0.912348,0.00231191,0.0421077,671,1079,-34.3019,-1.18722
-546,-55,-34.1371,0.929443,-0.00159567,0.000627945,-0.00249186,0.00224477,-0.0032125,-0.995233,0.00316723,0.0383392,678,1079,-34.1372,-0.929481
-539,-55,-34.256,0.937378,-0.0018619,0.00067917,-0.00363563,0.00325987,-0.0044426,-0.953499,0.00446447,0.0380549,685,1079,-34.256,-0.937333
-532,-55,-34.3526,1.04089,-0.001952,0.000915221,-0.00499256,0.00467592,-0.0057127,-0.925211,0.00600782,0.0386715,692,1079,-34.3526,-1.04094
-525,-55,0,0,0,0,0,0,0,0,0,-1,699,1079,0,0
-518,-55,0,0,0,0,0,0,0,0,0,-1,706,1079,0,0
-511,-55,0,0,0,0,0,0,0,0,0,-1,713,1079,0,0
-504,-55,0,0,0,0,0,0,0,0,0,-1,720,1079,0,0
-497,-55,0,0,0,0,0,0,0,0,0,-1,727,1079,0,0
-490,-55,0,0,0,0,0,0,0,0,0,-1,734,1079,0,0
-483,-55,0,0,0,0,0,0,0,0,0,-1,741,1079,0,0
-476,-55,0,0,0,0,0,0,0,0,0,-1,748,1079,0,0
-469,-55,0,0,0,0,0,0,0,0,0,-1,755,1079,0,0
-462,-55,0,0,0,0,0,0,0,0,0,-1,762,1079,0,0
-455,-55,0,0,0,0,0,0,0,0,0,-1,769,1079,0,0
-448,-55,0,0,0,0,0,0,0,0,0,-1,776,1079,0,0
-441,-55,0,0,0,0,0,0,0,0,0,-1,783,1079,0,0
-434,-55,0,0,0,0,0,0,0,0,0,-1,790,1079,0,0
-427,-55,0,0,0,0,0,0,0,0,0,-1,797,1079,0,0
-420,-55,0,0,0,0,0,0,0,0,0,-1,804,1079,0,0
-413,-55,0,0,0,0,0,0,0,0,0,-1,811,1079,0,0
-406,-55,0,0,0,0,0,0,0,0,0,-1,818,1079,0,0
-399,-55,0,0,0,0,0,0,0,0,0,-1,825,1079,0,0
-392,-55,0,0,0,0,0,0,0,0,0,-1,832,1079,0,0
-385,-55,0,0,0,0,0,0,0,0,0,-1,839,1079,0,0
-378,-55,0,0,0,0,0,0,0,0,0,-1,846,1079,0,0
-371,-55,0,0,0,0,0,0,0,0,0,-1,853,1079,0,0
-364,-55,0,0,0,0,0,0,0,0,0,-1,860,1079,0,0
-357,-55,0,0,0,0,0,0,0,0,0,-1,867,1079,0,0
-350,-55,0,0,0,0,0,0,0,0,0,-1,874,1079,0,0
-343,-55,0,0,0,0,0,0,0,0,0,-1,881,1079,0,0
-336,-55,0,0,0,0,0,0,0,0,0,-1,888,1079,0,0
-329,-55,0,0,0,0,0,0,0,0,0,-1,895,1079,0,0
-322,-55,0,0,0,0,0,0,0,0,0,-1,902,1079,0,0
-315,-55,0,0,0,0,0,0,0,0,0,-1,909,1079,0,0
-308,-55,0,0,0,0,0,0,0,0,0,-1,916,1079,0,0
-301,-55,0,0,0,0,0,0,0,0,0,-1,923,1079,0,0
-294,-55,0,0,0,0,0,0,0,0,0,-1,930,1079,0,0
-287,-55,0,0,0,0,0,0,0,0,0,-1,937,1079,0,0
-280,-55,0,0,0,0,0,0,0,0,0,-1,944,1079,0,0
-273,-55,0,0,0,0,0,0,0,0,0,-1,951,1079,0,0
-266,-55,0,0,0,0,0,0,0,0,0,-1,958,1079,0,0
-259,-55,0,0,0,0,0,0,0,0,0,-1,965,1079,0,0
-252,-55,0,0,0,0,0,0,0,0,0,-1,972,1079,0,0
-245,-55,0,0,0,0,0,0,0,0,0,-1,979,1079,0,0
-238,-55,0,0,0,0,0,0,0,0,0,-1,986,1079,0,0
-231,-55,0,0,0,0,0,0,0,0,0,-1,993,1079,0,0
-224,-55,0,0,0,0,0,0,0,0,0,-1,1000,1079,0,0
-217,-55,0,0,0,0,0,0,0,0,0,-1,1007,1079,0,0
-210,-55,0,0,0,0,0,0,0,0,0,-1,1014,1079,0,0
-203,-55,0,0,0,0,0,0,0,0,0,-1,1021,1079,0,0
-196,-55,0,0,0,0,0,0,0,0,0,-1,1028,1079,0,0
-189,-55,0,0,0,0,0,0,0,0,0,-1,1035,1079,0,0
-182,-55,0,0,0,0,0,0,0,0,0,-1,1042,1079,0,0
-175,-55,0,0,0,0,0,0,0,0,0,-1,1049,1079,0,0
-168,-55,0,0,0,0,0,0,0,0,0,-1,1056,1079,0,0
-161,-55,0,0,0,0,0,0,0,0,0,-1,1063,1079,0,0
-154,-55,0,0,0,0,0,0,0,0,0,-1,1070,1079,0,0
-147,-55,0,0,0,0,0,0,0,0,0,-1,1077,1079,0,0
-140,-55,0,0,0,0,0,0,0,0,0,-1,1084,1079,0,0
-133,-55,0,0,0,0,0,0,0,0,0,-1,1091,1079,0,0
-126,-55,0,0,0,0,0,0,0,0,0,-1,1098,1079,0,0
-119,-55,0,0,0,0,0,0,0,0,0,-1,1105,1079,0,0
-112,-55,0,0,0,0,0,0,0,0,0,-1,1112,1079,0,0
-105,-55,0,0,0,0,0,0,0,0,0,-1,1119,1079,0,0
-98,-55,0,0,0,0,0,0,0,0,0,-1,1126,1079,0,0
-91,-55,0,0,0,0,0,0,0,0,0,-1,1133,1079,0,0
-84,-55,0,0,0,0,0,0,0,0,0,-1,1140,1079,0,0
-77,-55,0,0,0,0,0,0,0,0,0,-1,1147,1079,0,0
-70,-55,0,0,0,0,0,0,0,0,0,-1,1154,1079,0,0
-63,-55,0,0,0,0,0,0,0,0,0,-1,1161,1079,0,0
-56,-55,0,0,0,0,0,0,0,0,0,-1,1168,1079,0,0
-49,-55,0,0,0,0,0,0,0,0,0,-1,1175,1079,0,0
-42,-55,0,0,0,0,0,0,0,0,0,-1,1182,1079,0,0
-35,-55,0,0,0,0,0,0,0,0,0,-1,1189,1079,0,0
-28,-55,0,0,0,0,0,0,0,0,0,-1,1196,1079,0,0
-21,-55,0,0,0,0,0,0,0,0,0,-1,1203,1079,0,0
-14,-55,0,0,0,0,0,0,0,0,0,-1,1210,1079,0,0
-7,-55,0,0,0,0,0,0,0,0,0,-1,1217,1079,0,0
0,-55,0,0,0,0,0,0,0,0,0,-1,1224,1079,0,0
7,-55,0,0,0,0,0,0,0,0,0,-1,1231,1079,0,0
14,-55,0,0,0,0,0,0,0,0,0,-1,1238,1079,0,0
21,-55,0,0,0,0,0,0,0,0,0,-1,1245,1079,0,0
28,-55,0,0,0,0,0,0,0,0,0,-1,1252,1079,0,0
35,-55,0,0,0,0,0,0,0,0,0,-1,1259,1079,0,0
42,-55,0,0,0,0,0,0,0,0,0,-1,1266,1079,0,0
49,-55,0,0,0,0,0,0,0,0,0,-1,1273,1079,0,0
56,-55,0,0,0,0,0,0,0,0,0,-1,1280,1079,0,0
63,-55,0,0,0,0,0,0,0,0,0,-1,1287,1079,0,0
70,-55,0,0,0,0,0,0,0,0,0,-1,1294,1079,0,0
77,-55,0,0,0,0,0,0,0,0,0,-1,1301,1079,0,0
84,-55,0,0,0,0,0,0,0,0,0,-1,1308,1079,0,0
91,-55,0,0,0,0,0,0,0,0,0,-1,1315,1079,0,0
98,-55,0,0,0,0,0,0,0,0,0,-1,1322,1079,0,0
105,-55,0,0,0,0,0,0,0,0,0,-1,1329,1079,0,0
112,-55,0,0,0,0,0,0,0,0,0,-1,1336,1079,0,0
119,-55,0,0,0,0,0,0,0,0,0,-1,1343,1079,0,0
126,-55,0,0,0,0,0,0,0,0,0,-1,1350,1079,0,0
133,-55,0,0,0,0,0,0,0,0,0,-1,1357,1079,0,0
140,-55,0,0,0,0,0,0,0,0,0,-1,1364,1079,0,0
147,-55,0,0,0,0,0,0,0,0,0,-1,1371,1079,0,0
154,-55,0,0,0,0,0,0,0,0,0,-1,1378,1079,0,0
161,-55,0,0,0,0,0,0,0,0,0,-1,1385,1079,0,0
168,-55,0,0,0,0,0,0,0,0,0,-1,1392,1079,0,0
175,-55,0,0,0,0,0,0,0,0,0,-1,1399,1079,0,0
182,-55,0,0,0,0,0,0,0,0,0,-1,1406,1079,0,0
189,-55,0,0,0,0,0,0,0,0,0,-1,1413,1079,0,0
196,-55,0,0,0,0,0,0,0,0,0,-1,1420,1079,0,0
203,-55,0,0,0,0,0,0,0,0,0,-1,1427,1079,0,0
210,-55,0,0,0,0,0,0,0,0,0,-1,1434,1079,0,0
217,-55,0,0,0,0,0,0,0,0,0,-1,1441,1079,0,0
224,-55,0,0,0,0,0,0,0,0,0,-1,1448,1079,0,0
231,-55,0,0,0,0,0,0,0,0,0,-1,1455,1079,0,0
238,-55,0,0,0,0,0,0,0,0,0,-1,1462,1079,0,0
245,-55,0,0,0,0,0,0,0,0,0,-1,1469,1079,0,0
252,-55,0,0,0,0,0,0,0,0,0,-1,1476,1079,0,0
259,-55,0,0,0,0,0,0,0,0,0,-1,1483,1079,0,0
266,-55,0,0,0,0,0,0,0,0,0,-1,1490,1079,0,0
273,-55,0,0,0,0,0,0,0,0,0,-1,1497,1079,0,0
280,-55,0,0,0,0,0,0,0,0,0,-1,1504,1079,0,0
287,-55,0,0,0,0,0,0,0,0,0,-1,1511,1079,0,0
294,-55,0,0,0,0,0,0,0,0,0,-1,1518,1079,0,0
301,-55,0,0,0,0,0,0,0,0,0,-1,1525,1079,0,0
308,-55,0,0,0,0,0,0,0,0,0,-1,1532,1079,0,0
315,-55,0,0,0,0,0,0,0,0,0,-1,1539,1079,0,0
322,-55,0,0,0,0,0,0,0,0,0,-1,1546,1079,0,0
329,-55,0,0,0,0,0,0,0,0,0,-1,1553,1079,0,0
336,-55,0,0,0,0,0,0,0,0,0,-1,1560,1079,0,0
343,-55,0,0,0,0,0,0,0,0,0,-1,1567,1079,0,0
350,-55,0,0,0,0,0,0,0,0,0,-1,1574,1079,0,0
357,-55,0,0,0,0,0,0,0,0,0,-1,1581,1079,0,0
364,-55,0,0,0,0,0,0,0,0,0,-1,1588,1079,0,0
371,-55,0,0,0,0,0,0,0,0,0,-1,1595,1079,0,0
378,-55,0,0,0,0,0,0,0,0,0,-1,1602,1079,0,0
385,-55,0,0,0,0,0,0,0,0,0,-1,1609,1079,0,0
392,-55,0,0,0,0,0,0,0,0,0,-1,1616,1079,0,0
399,-55,0,0,0,0,0,0,0,0,0,-1,1623,1079,0,0
406,-55,0,0,0,0,0,0,0,0,0,-1,1630,1079,0,0
413,-55,0,0,0,0,0,0,0,0,0,-1,1637,1079,0,0
420,-55,0,0,0,0,0,0,0,0,0,-1,1644,1079,0,0
427,-55,0,0,0,0,0,0,0,0,0,-1,1651,1079,0,0
434,-55,0,0,0,0,0,0,0,0,0,-1,1658,1079,0,0
441,-55,0,0,0,0,0,0,0,0,0,-1,1665,1079,0,0
448,-55,0,0,0,0,0,0,0,0,0,-1,1672,1079,0,0
455,-55,0,0,0,0,0,0,0,0,0,-1,1679,1079,0,0
462,-55,0,0,0,0,0,0,0,0,0,-1,1686,1079,0,0
469,-55,0,0,0,0,0,0,0,0,0,-1,1693,1079,0,0
476,-55,0,0,0,0,0,0,0,0,0,-1,1700,1079,0,0
483,-55,0,0,0,0,0,0,0,0,0,-1,1707,1079,0,0
490,-55,0,0,0,0,0,0,0,0,0,-1,1714,1079,0,0
497,-55,0,0,0,0,0,0,0,0,0,-1,1721,1079,0,0
504,-55,0,0,0,0,0,0,0,0,0,-1,1728,1079,0,0
511,-55,0,0,0,0,0,0,0,0,0,-1,1735,1079,0,0
518,-55,0,0,0,0,0,0,0,0,0,-1,1742,1079,0,0
525,-55,0,0,0,0,0,0,0,0,0,-1,1749,1079,0,0
532,-55,0,0,0,0,0,0,0,0,0,-1,1756,1079,0,0
539,-55,0,0,0,0,0,0,0,0,0,-1,1763,1079,0,0
546,-55,0,0,0,0,0,0,0,0,0,-1,1770,1079,0,0
553,-55,0,0,0,0,0,0,0,0,0,-1,1777,1079,0,0
560,-55,0,0,0,0,0,0,0,0,0,-1,1784,1079,0,0
567,-55,0,0,0,0,0,0,0,0,0,-1,1791,1079,0,0
574,-55,0,0,0,0,0,0,0,0,0,-1,1798,1079,0,0
581,-55,0,0,0,0,0,0,0,0,0,-1,1805,1079,0,0
588,-55,0,0,0,0,0,0,0,0,0,-1,1812,1079,0,0
595,-55,0,0,0,0,0,0,0,0,0,-1,1819,1079,0,0
602,-55,0,0,0,0,0,0,0,0,0,-1,1826,1079,0,0
609,-55,0,0,0,0,0,0,0,0,0,-1,1833,1079,0,0
616,-55,0,0,0,0,0,0,0,0,0,-1,1840,1079,0,0
623,-55,0,0,0,0,0,0,0,0,0,-1,1847,1079,0,0
630,-55,0,0,0,0,0,0,0,0,0,-1,1854,1079,0,0
637,-55,0,0,0,0,0,0,0,0,0,-1,1861,1079,0,0
644,-55,0,0,0,0,0,0,0,0,0,-1,1868,1079,0,0
651,-55,46.3004,3.01233,0.00452521,-0.00343764,-0.000801507,0.00460508,-0.00351752,-0.0993281,0.00470358,0.0367736,1875,1079,46.3004,-3.01238
658,-55,46.4642,2.92041,0.00317624,-0.00260957,-0.000505238,0.00322003,-0.00265336,-0.0864515,0.00339626,0.0344893,1882,1079,46.4642,-2.92047
665,-55,46.4264,2.93347,0.0021482,-0.00198959,-0.000318064,0.00217251,-0.00201389,-0.076271,0.0024176,0.0400417,1889,1079,46.4263,-2.93344
672,-55,46.4235,2.81628,0.00132077,-0.00140984,-6.51869e-05,0.00132232,-0.0014114,-0.0238545,0.00157859,0.0397221,1896,1079,46.4235,-2.81632
679,-55,46.4498,2.79309,0.000527731,-0.000919453,0.000183637,0.00055067,-0.000942391,0.124269,0.000871852,0.0352758,1903,1079,46.4499,-2.79307
686,-55,46.4271,2.80481,-0.0001729,-0.000784261,0.000500155,0.00010759,-0.00106475,0.511102,0.00074828,0.0365882,1910,1079,46.4271,-2.80478
693,-55,46.338,2.82788,-0.000599685,-0.000806685,0.000813003,0.00011638,-0.00152275,0.722086,0.0010561,0.0400693,1917,1079,46.3381,-2.82792
700,-55,46.3141,2.84497,-0.000859763,-0.000797299,0.00112428,0.000296184,-0.00195325,0.799284,0.00141129,0.0362344,1924,1079,46.3141,-2.84491
707,-55,46.3938,2.79968,-0.00123692,-0.000679885,0.00149996,0.000567202,-0.002484,0.877193,0.00187391,0.0312314,1931,1079,46.3938,-2.7997
714,-55,46.4015,2.90259,-0.00161795,-0.000445399,0.00174914,0.000813107,-0.00287646,0.947104,0.00223846,0.0492525,1938,1079,46.4015,-2.90257
721,-55,46.4235,3.09363,0,0,0,0,0,0,0,-1,1945,1079,46.4235,-3.09367
728,-55,45.2837,6.46533,0,0,0,0,0,0,0,-1,1952,1079,45.2836,-6.46539
735,-55,45.1848,6.23401,-0.00266274,0.000920445,0.00193909,0.00176891,-0.0035112,1.15834,0.0031033,0.0195899,1959,1079,45.1848,-6.23402
742,-55,45.1929,6.03491,-0.0024501,0.00183997,0.00199889,0.00262696,-0.00323709,1.19572,0.00339171,0.0198203,1966,1079,45.1929,-6.03487
749,-55,45.217,5.83704,-0.0023613,0.00320697,0.00167978,0.00367446,-0.00282879,1.29936,0.00376522,0.0141554,1973,1079,45.217,-5.83705
756,-55,45.144,5.63916,-0.00209004,0.00509074,0.000849002,0.00518975,-0.00218905,1.4547,0.004376,0.0118865,1980,1079,45.1441,-5.63913
763,-55,45.1125,5.44226,-0.00160415,0.00768617,-0.00049859,0.00771285,-0.00163084,-1.51733,0.00576295,0.0144357,1987,1079,45.1126,-5.44229
770,-55,45.0865,5.23389,-0.000642474,0.0111733,-0.00246255,0.011666,-0.00113516,-1.37333,0.00818199,0.0168033,1994,1079,45.0865,-5.23387
777,-55,45.0067,5.01733,0.000800738,0.0156067,-0.00504344,0.0171614,-0.000753983,-1.27177,0.0117004,0.0144703,2001,1079,45.0067,-5.01732
784,-55,44.9746,4.7135,0.00246952,0.0204531,-0.00811513,0.0235736,-0.000650981,-1.2037,0.0159372,0.0294652,2008,1079,44.9745,-4.71349
791,-55,45.251,4.21753,0.00444898,0.0258631,-0.0118635,0.0311367,-0.000824656,-1.1525,0.0210381,0.0415554,2015,1079,45.2509,-4.2175
798,-55,44.8699,4.47009,0.00689736,0.0319452,-0.0165232,0.0401544,-0.00131189,-1.10969,0.0272175,0.0454419,2022,1079,44.8698,-4.4701
805,-55,44.6282,4.20642,0.00974254,0.0387722,-0.0220822,0.0506828,-0.00216808,-1.07615,0.0345339,0.0474871,2029,1079,44.6281,-4.20645
812,-55,44.6423,3.23511,0.0123497,0.0462999,-0.0285272,0.0625205,-0.00387087,-1.05378,0.0430287,0.0455371,2036,1079,44.6424,-3.23511
-700,-62,-37.2557,3.17371,0,0,0,0,0,0,0,-1,524,1086,-37.2557,-3.17374
-693,-62,-36.6985,2.5509,0,0,0,0,0,0,0,-1,531,1086,-36.6985,-2.55092
-686,-62,-35.8694,2.33508,0.047015,0.0970689,-0.0595823,0.136667,0.00741687,-0.984229,0.0887424,0.0482322,538,1086,-35.8694,-2.33507
-679,-62,-35.2758,2.22546,0,0,0,0,0,0,0,-1,545,1086,-35.2758,-2.22548
-672,-62,-34.8244,2.20129,0.0352748,0.0673941,-0.0343488,0.0892522,0.0134167,-1.00407,0.0555717,0.0453979,552,1086,-34.8244,-2.20133
-665,-62,-33.9484,2.48096,0,0,0,0,0,0,0,-1,559,1086,-33.9484,-2.48091
-658,-62,-33.398,2.02258,0.0221448,0.0436445,-0.018089,0.0539368,0.0118525,-1.0535,0.0327304,0.0461509,566,1086,-33.398,-2.0226
-651,-62,-33.0689,1.50171,0.0165886,0.0339476,-0.0126596,0.0406173,0.00991885,-1.0859,0.024452,0.0421617,573,1086,-33.0689,-1.50171
-644,-62,-32.9622,2.00366,0.0121301,0.0255598,-0.00869484,0.0298308,0.00785907,-1.1142,0.0178537,0.0163736,580,1086,-32.9622,-2.00364
-637,-62,-32.9722,2.33484,0.00858245,0.017871,-0.00559278,0.0204964,0.00595704,-1.1319,0.0121745,0.0143605,587,1086,-32.9722,-2.33488
-630,-62,-33.0237,2.62976,0.00574139,0.0114142,-0.00336621,0.0129797,0.00417591,-1.13549,0.00765093,0.014961,594,1086,-33.0237,-2.62974
-623,-62,-33.078,2.9397,0.00380365,0.0065452,-0.00234978,0.00789481,0.00245404,-1.04945,0.00466553,0.0166043,601,1086,-33.078,-2.93967
-616,-62,-33.0595,3.22363,0.00265971,0.00403538,-0.00159386,0.00508349,0.00161159,-0.989102,0.00299975,0.0169044,608,1086,-33.0595,-3.2236
-609,-62,-33.0242,3.47083,0.00245086,0.00154271,-0.00126332,0.00333924,0.000654336,-0.612873,0.00204327,0.016592,615,1086,-33.0242,-3.47084
-602,-62,-32.9731,3.70117,0.00202886,6.12521e-05,-0.00113897,0.00255008,-0.000459975,-0.429182,0.00187231,0.0165697,622,1086,-32.9731,-3.70112
-595,-62,-32.8409,3.99255,0.00173501,-0.000649846,-0.00123748,0.00226108,-0.00117591,-0.401967,0.00201705,0.0335536,629,1086,-32.8409,-3.99259
-588,-62,-32.7585,4.30493,0,0,0,0,0,0,0,-1,636,1086,-32.7585,-4.30495
-581,-62,-34.1783,0.971924,0,0,0,0,0,0,0,-1,643,1086,-34.1783,-0.971907
-574,-62,-34.1722,1.02625,0.00128634,-0.00113698,-0.00140504,0.00193001,-0.00178066,-0.429584,0.00214293,0.0380349,650,1086,-34.1722,-1.02625
-567,-62,-34.2745,0.830078,0.000823629,-0.000931634,-0.00146032,0.00164975,-0.00175775,-0.514826,0.00196765,0.0419148,657,1086,-34.2745,-0.830027
-560,-62,-34.4203,0.739746,0.000191391,-0.000553857,-0.00162975,0.00149057,-0.00185304,-0.673011,0.00193421,0.044425,664,1086,-34.4203,-0.739708
-553,-62,-34.3228,1.16772,-0.00054347,-9.03615e-05,-0.0020065,0.00170233,-0.00233616,-0.841615,0.00234118,0.0407969,671,1086,-34.3228,-1.16775
-546,-62,-34.2045,0.902954,-0.00115729,0.000329558,-0.00272187,0.0024077,-0.00323543,-0.918712,0.00326973,0.0342003,678,1086,-34.2045,-0.902987
-539,-62,-34.2864,0.889893,-0.00103063,0.000330586,-0.00399382,0.00370138,-0.00440142,-0.869795,0.00468397,0.0384352,685,1086,-34.2865,-0.889862
-532,-62,-34.3009,0.91272,-0.000793855,0.0004736,-0.00526676,0.00514462,-0.00546488,-0.845273,0.00612633,0.0409519,692,1086,-34.3009,-0.912755
-525,-62,0,0,0,0,0,0,0,0,0,-1,699,1086,0,0
-518,-62,0,0,0,0,0,0,0,0,0,-1,706,1086,0,0
-511,-62,0,0,0,0,0,0,0,0,0,-1,713,1086,0,0
-504,-62,0,0,0,0,0,0,0,0,0,-1,720,1086,0,0
-497,-62,0,0,0,0,0,0,0,0,0,-1,727,1086,0,0
-490,-62,0,0,0,0,0,0,0,0,0,-1,734,1086,0,0
-483,-62,0,0,0,0,0,0,0,0,0,-1,741,1086,0,0
-476,-62,0,0,0,0,0,0,0,0,0,-1,748,1086,0,0
-469,-62,0,0,0,0,0,0,0,0,0,-1,755,1086,0,0
-462,-62,0,0,0,0,0,0,0,0,0,-1,762,1086,0,0
-455,-62,0,0,0,0,0,0,0,0,0,-1,769,1086,0,0
-448,-62,0,0,0,0,0,0,0,0,0,-1,776,1086,0,0
-441,-62,0,0,0,0,0,0,0,0,0,-1,783,1086,0,0
-434,-62,0,0,0,0,0,0,0,0,0,-1,790,1086,0,0
-427,-62,0,0,0,0,0,0,0,0,0,-1,797,1086,0,0
-420,-62,0,0,0,0,0,0,0,0,0,-1,804,1086,0,0
-413,-62,0,0,0,0,0,0,0,0,0,-1,811,1086,0,0
-406,-62,0,0,0,0,0,0,0,0,0,-1,818,1086,0,0
-399,-62,0,0,0,0,0,0,0,0,0,-1,825,1086,0,0
-392,-62,0,0,0,0,0,0,0,0,0,-1,832,1086,0,0
-385,-62,0,0,0,0,0,0,0,0,0,-1,839,1086,0,0
-378,-62,0,0,0,0,0,0,0,0,0,-1,846,1086,0,0
-371,-62,0,0,0,0,0,0,0,0,0,-1,853,1086,0,0
-364,-62,0,0,0,0,0,0,0,0,0,-1,860,1086,0,0
-357,-62,0,0,0,0,0,0,0,0,0,-1,867,1086,0,0
-350,-62,0,0,0,0,0,0,0,0,0,-1,874,1086,0,0
-343,-62,0,0,0,0,0,0,0,0,0,-1,881,1086,0,0
-336,-62,0,0,0,0,0,0,0,0,0,-1,888,1086,0,0
-329,-62,0,0,0,0,0,0,0,0,0,-1,895,1086,0,0
-322,-62,0,0,0,0,0,0,0,0,0,-1,902,1086,0,0
-315,-62,0,0,0,0,0,0,0,0,0,-1,909,1086,0,0
-308,-62,0,0,0,0,0,0,0,0,0,-1,916,1086,0,0
-301,-62,0,0,0,0,0,0,0,0,0,-1,923,1086,0,0
-294,-62,0,0,0,0,0,0,0,0,0,-1,930,1086,0,0
-287,-62,0,0,0,0,0,0,0,0,0,-1,937,1086,0,0
-280,-62,0,0,0,0,0,0,0,0,0,-1,944,1086,0,0
-273,-62,0,0,0,0,0,0,0,0,0,-1,951,1086,0,0
-266,-62,0,0,0,0,0,0,0,0,0,-1,958,1086,0,0
-259,-62,0,0,0,0,0,0,0,0,0,-1,965,1086,0,0
-252,-62,0,0,0,0,0,0,0,0,0,-1,972,1086,0,0
-245,-62,0,0,0,0,0,0,0,0,0,-1,979,1086,0,0
-238,-62,0,0,0,0,0,0,0,0,0,-1,986,1086,0,0
-231,-62,0,0,0,0,0,0,0,0,0,-1,993,1086,0,0
-224,-62,0,0,0,0,0,0,0,0,0,-1,1000,1086,0,0
-217,-62,0,0,0,0,0,0,0,0,0,-1,1007,1086,0,0
-210,-62,0,0,0,0,0,0,0,0,0,-1,1014,1086,0,0
-203,-62,0,0,0,0,0,0,0,0,0,-1,1021,1086,0,0
-196,-62,0,0,0,0,0,0,0,0,0,-1,1028,1086,0,0
-189,-62,0,0,0,0,0,0,0,0,0,-1,1035,1086,0,0
-182,-62,0,0,0,0,0,0,0,0,0,-1,1042,1086,0,0
-175,-62,0,0,0,0,0,0,0,0,0,-1,1049,1086,0,0
-168,-62,0,0,0,0,0,0,0,0,0,-1,1056,1086,0,0
-161,-62,0,0,0,0,0,0,0,0,0,-1,1063,1086,0,0
-154,-62,0,0,0,0,0,0,0,0,0,-1,1070,1086,0,0
-147,-62,0,0,0,0,0,0,0,0,0,-1,1077,1086,0,0
-140,-62,0,0,0,0,0,0,0,0,0,-1,1084,1086,0,0
-133,-62,0,0,0,0,0,0,0,0,0,-1,1091,1086,0,0
-126,-62,0,0,0,0,0,0,0,0,0,-1,1098,1086,0,0
-119,-62,0,0,0,0,0,0,0,0,0,-1,1105,1086,0,0
-112,-62,0,0,0,0,0,0,0,0,0,-1,1112,1086,0,0
-105,-62,0,0,0,0,0,0,0,0,0,-1,1119,1086,0,0
-98,-62,0,0,0,0,0,0,0,0,0,-1,1126,1086,0,0
-91,-62,0,0,0,0,0,0,0,0,0,-1,1133,1086,0,0
-84,-62,0,0,0,0,0,0,0,0,0,-1,1140,1086,0,0
-77,-62,0,0,0,0,0,0,0,0,0,-1,1147,1086,0,0
-70,-62,0,0,0,0,0,0,0,0,0,-1,1154,1086,0,0
-63,-62,0,0,0,0,0,0,0,0,0,-1,1161,1086,0,0
-56,-62,0,0,0,0,0,0,0,0,0,-1,1168,1086,0,0
-49,-62,0,0,0,0,0,0,0,0,0,-1,1175,1086,0,0
-42,-62,0,0,0,0,0,0,0,0,0,-1,1182,1086,0,0
-35,-62,0,0,0,0,0,0,0,0,0,-1,1189,1086,0,0
-28,-62,0,0,0,0,0,0,0,0,0,-1,1196,1086,0,0
-21,-62,0,0,0,0,0,0,0,0,0,-1,1203,1086,0,0
-14,-62,0,0,0,0,0,0,0,0,0,-1,1210,1086,0,0
-7,-62,0,0,0,0,0,0,0,0,0,-1,1217,1086,0,0
0,-62,0,0,0,0,0,0,0,0,0,-1,1224,1086,0,0
7,-62,0,0,0,0,0,0,0,0,0,-1,1231,1086,0,0
14,-62,0,0,0,0,0,0,0,0,0,-1,1238,1086,0,0
21,-62,0,0,0,0,0,0,0,0,0,-1,1245,1086,0,0
28,-62,0,0,0,0,0,0,0,0,0,-1,1252,1086,0,0
35,-62,0,0,0,0,0,0,0,0,0,-1,1259,1086,0,0
42,-62,0,0,0,0,0,0,0,0,0,-1,1266,1086,0,0
49,-62,0,0,0,0,0,0,0,0,0,-1,1273,1086,0,0
56,-62,0,0,0,0,0,0,0,0,0,-1,1280,1086,0,0
63,-62,0,0,0,0,0,0,0,0,0,-1,1287,1086,0,0
70,-62,0,0,0,0,0,0,0,0,0,-1,1294,1086,0,0
77,-62,0,0,0,0,0,0,0,0,0,-1,1301,1086,0,0
84,-62,0,0,0,0,0,0,0,0,0,-1,1308,1086,0,0
91,-62,0,0,0,0,0,0,0,0,0,-1,1315,1086,0,0
98,-62,0,0,0,0,0,0,0,0,0,-1,1322,1086,0,0
105,-62,0,0,0,0,0,0,0,0,0,-1,1329,1086,0,0
112,-62,0,0,0,0,0,0,0,0,0,-1,1336,1086,0,0
119,-62,0,0,0,0,0,0,0,0,0,-1,1343,1086,0,0
126,-62,0,0,0,0,0,0,0,0,0,-1,1350,1086,0,0
133,-62,0,0,0,0,0,0,0,0,0,-1,1357,1086,0,0
140,-62,0,0,0,0,0,0,0,0,0,-1,1364,1086,0,0
147,-62,0,0,0,0,0,0,0,0,0,-1,1371,1086,0,0
154,-62,0,0,0,0,0,0,0,0,0,-1,1378,1086,0,0
161,-62,0,0,0,0,0,0,0,0,0,-1,1385,1086,0,0
168,-62,0,0,0,0,0,0,0,0,0,-1,1392,1086,0,0
175,-62,0,0,0,0,0,0,0,0,0,-1,1399,1086,0,0
182,-62,0,0,0,0,0,0,0,0,0,-1,1406,1086,0,0
189,-62,0,0,0,0,0,0,0,0,0,-1,1413,1086,0,0
196,-62,0,0,0,0,0,0,0,0,0,-1,1420,1086,0,0
203,-62,0,0,0,0,0,0,0,0,0,-1,1427,1086,0,0
210,-62,0,0,0,0,0,0,0,0,0,-1,1434,1086,0,0
217,-62,0,0,0,0,0,0,0,0,0,-1,1441,1086,0,0
224,-62,0,0,0,0,0,0,0,0,0,-1,1448,1086,0,0
231,-62,0,0,0,0,0,0,0,0,0,-1,1455,1086,0,0
238,-62,0,0,0,0,0,0,0,0,0,-1,1462,1086,0,0
245,-62,0,0,0,0,0,0,0,0,0,-1,1469,1086,0,0
252,-62,0,0,0,0,0,0,0,0,0,-1,1476,1086,0,0
259,-62,0,0,0,0,0,0,0,0,0,-1,1483,1086,0,0
266,-62,0,0,0,0,0,0,0,0,0,-1,1490,1086,0,0
273,-62,0,0,0,0,0,0,0,0,0,-1,1497,1086,0,0
280,-62,0,0,0,0,0,0,0,0,0,-1,1504,1086,0,0
287,-62,0,0,0,0,0,0,0,0,0,-1,1511,1086,0,0
294,-62,0,0,0,0,0,0,0,0,0,-1,1518,1086,0,0
301,-62,0,0,0,0,0,0,0,0,0,-1,1525,1086,0,0
308,-62,0,0,0,0,0,0,0,0,0,-1,1532,1086,0,0
315,-62,0,0,0,0,0,0,0,0,0,-1,1539,1086,0,0
322,-62,0,0,0,0,0,0,0,0,0,-1,1546,1086,0,0
329,-62,0,0,0,0,0,0,0,0,0,-1,1553,1086,0,0
336,-62,0,0,0,0,0,0,0,0,0,-1,1560,1086,0,0
343,-62,0,0,0,0,0,0,0,0,0,-1,1567,1086,0,0
350,-62,0,0,0,0,0,0,0,0,0,-1,1574,1086,0,0
357,-62,0,0,0,0,0,0,0,0,0,-1,1581,1086,0,0
364,-62,0,0,0,0,0,0,0,0,0,-1,1588,1086,0,0
371,-62,0,0,0,0,0,0,0,0,0,-1,1595,1086,0,0
378,-62,0,0,0,0,0,0,0,0,0,-1,1602,1086,0,0
385,-62,0,0,0,0,0,0,0,0,0,-1,1609,1086,0,0
392,-62,0,0,0,0,0,0,0,0,0,-1,1616,1086,0,0
399,-62,0,0,0,0,0,0,0,0,0,-1,1623,1086,0,0
406,-62,0,0,0,0,0,0,0,0,0,-1,1630,1086,0,0
413,-62,0,0,0,0,0,0,0,0,0,-1,1637,1086,0,0
420,-62,0,0,0,0,0,0,0,0,0,-1,1644,1086,0,0
427,-62,0,0,0,0,0,0,0,0,0,-1,1651,1086,0,0
434,-62,0,0,0,0,0,0,0,0,0,-1,1658,1086,0,0
441,-62,0,0,0,0,0,0,0,0,0,-1,1665,1086,0,0
448,-62,0,0,0,0,0,0,0,0,0,-1,1672,1086,0,0
455,-62,0,0,0,0,0,0,0,0,0,-1,1679,1086,0,0
462,-62,0,0,0,0,0,0,0,0,0,-1,1686,1086,0,0
469,-62,0,0,0,0,0,0,0,0,0,-1,1693,1086,0,0
476,-62,0,0,0,0,0,0,0,0,0,-1,1700,1086,0,0
483,-62,0,0,0,0,0,0,0,0,0,-1,1707,1086,0,0
490,-62,0,0,0,0,0,0,0,0,0,-1,1714,1086,0,0
497,-62,0,0,0,0,0,0,0,0,0,-1,1721,1086,0,0
504,-62,0,0,0,0,0,0,0,0,0,-1,1728,1086,0,0
511,-62,0,0,0,0,0,0,0,0,0,-1,1735,1086,0,0
518,-62,0,0,0,0,0,0,0,0,0,-1,1742,1086,0,0
525,-62,0,0,0,0,0,0,0,0,0,-1,1749,1086,0,0
532,-62,0,0,0,0,0,0,0,0,0,-1,1756,1086,0,0
539,-62,0,0,0,0,0,0,0,0,0,-1,1763,1086,0,0
546,-62,0,0,0,0,0,0,0,0,0,-1,1770,1086,0,0
553,-62,0,0,0,0,0,0,0,0,0,-1,1777,1086,0,0
560,-62,0,0,0,0,0,0,0,0,0,-1,1784,1086,0,0
567,-62,0,0,0,0,0,0,0,0,0,-1,1791,1086,0,0
574,-62,0,0,0,0,0,0,0,0,0,-1,1798,1086,0,0
581,-62,0,0,0,0,0,0,0,0,0,-1,1805,1086,0,0
588,-62,0,0,0,0,0,0,0,0,0,-1,1812,1086,0,0
595,-62,0,0,0,0,0,0,0,0,0,-1,1819,1086,0,0
602,-62,0,0,0,0,0,0,0,0,0,-1,1826,1086,0,0
609,-62,0,0,0,0,0,0,0,0,0,-1,1833,1086,0,0
616,-62,0,0,0,0,0,0,0,0,0,-1,1840,1086,0,0
623,-62,0,0,0,0,0,0,0,0,0,-1,1847,1086,0,0
630,-62,0,0,0,0,0,0,0,0,0,-1,1854,1086,0,0
637,-62,0,0,0,0,0,0,0,0,0,-1,1861,1086,0,0
644,-62,0,0,0,0,0,0,0,0,0,-1,1868,1086,0,0
651,-62,46.2931,3.14539,0.00467112,-0.00334601,-0.00121073,0.00484997,-0.00352486,-0.146662,0.00485534,0.0409673,1875,1086,46.2931,-3.1454
658,-62,46.4375,2.72437,0.00332243,-0.00258915,-0.000907479,0.0034586,-0.00272532,-0.148941,0.00357865,0.0389078,1882,1086,46.4375,-2.72441
665,-62,46.415,2.98401,0.00229501,-0.00201684,-0.000691177,0.0024031,-0.00212493,-0.155121,0.0026159,0.0401819,1889,1086,46.4151,-2.98403
672,-62,46.3628,2.92712,0.00146544,-0.00147495,-0.000433964,0.00152815,-0.00153766,-0.143512,0.00177005,0.0393011,1896,1086,46.3627,-2.92707
679,-62,46.4182,2.85767,0.000662971,-0.00103731,-0.00018492,0.00068285,-0.00105718,-0.10709,0.00101233,0.0376121,1903,1086,46.4182,-2.8577
686,-62,46.452,2.83557,-1.39092e-05,-0.000926933,0.000139834,7.02709e-06,-0.000947869,0.148618,0.000634268,0.0374676,1910,1086,46.452,-2.83552
693,-62,46.3579,2.81323,-0.000417339,-0.000949918,0.000452306,-0.000158756,-0.0012085,0.51935,0.000758309,0.0379375,1917,1086,46.3579,-2.8132
700,-62,46.4105,2.7301,-0.000673405,-0.000927357,0.000750963,-3.87591e-05,-0.001562,0.701648,0.00102866,0.0332093,1924,1086,46.4106,-2.73011
707,-62,46.3615,2.73035,-0.0010402,-0.00081696,0.00114301,0.000219861,-0.00207703,0.834072,0.00146349,0.0261018,1931,1086,46.3615,-2.73039
714,-62,46.38,2.76965,-0.00139266,-0.000580092,0.00143704,0.000506991,-0.00247974,0.923164,0.00184552,0.0406512,1938,1086,46.38,-2.76962
721,-62,46.4816,2.9574,0,0,0,0,0,0,0,-1,1945,1086,46.4815,-2.95734
728,-62,45.0134,6.56152,0,0,0,0,0,0,0,-1,1952,1086,45.0134,-6.56148
735,-62,44.9713,6.25635,-0.00248151,0.000664958,0.00170109,0.00140878,-0.00322534,1.15858,0.00274318,0.0235894,1959,1086,44.9713,-6.25631
742,-62,44.9451,6.07141,-0.0023178,0.00151254,0.00176072,0.00219891,-0.00300418,1.19909,0.00301597,0.0235875,1966,1086,44.9451,-6.07143
749,-62,44.9373,5.82434,-0.00225378,0.00284078,0.00143102,0.00321522,-0.00262823,1.31487,0.00337938,0.0184585,1973,1086,44.9373,-5.82436
756,-62,44.8668,5.64758,-0.0020401,0.00470274,0.000502527,0.00473999,-0.00207735,1.49681,0.00403482,0.013672,1980,1086,44.8668,-5.64753
763,-62,44.8558,5.41162,-0.00161825,0.00728766,-0.0010183,0.00740261,-0.0017332,-1.45839,0.00560289,0.0154959,1987,1086,44.8559,-5.41165
770,-62,44.8416,5.17798,-0.000765743,0.0107563,-0.00325578,0.0116127,-0.00162208,-1.3136,0.00833525,0.013785,1994,1086,44.8415,-5.17792
777,-62,44.7268,4.91931,0.000519407,0.0151737,-0.00625598,0.0174811,-0.00178799,-1.21745,0.0122935,0.0146971,2001,1086,44.7269,-4.91933
784,-62,44.6475,4.56665,0.0020395,0.0200914,-0.0098669,0.0244379,-0.00230704,-1.15586,0.0171129,0.0278127,2008,1086,44.6474,-4.56661
791,-62,44.9829,4.02112,0.00386137,0.0257085,-0.01433,0.0328036,-0.00323375,-1.11106,0.0230228,0.0430019,2015,1086,44.9828,-4.02116
798,-62,45.2573,3.5697,0,0,0,0,0,0,0,-1,2022,1086,45.2573,-3.56965
805,-62,44.0347,3.84521,0.00886507,0.0396718,-0.0267367,0.0551248,-0.00658793,-1.04673,0.0391311,0.0430401,2029,1086,44.0347,-3.84525
812,-62,43.9048,3.17188,0.0114533,0.0482041,-0.0347398,0.0691289,-0.00947146,-1.02867,0.0495458,0.0447545,2036,1086,43.9047,-3.17189
-700,-69,-36.8632,2.64539,0,0,0,0,0,0,0,-1,524,1093,-36.8631,-2.64534
-693,-69,-36.1703,2.18323,0,0,0,0,0,0,0,-1,531,1093,-36.1704,-2.18328
-686,-69,-35.4643,1.8158,0,0,0,0,0,0,0,-1,538,1093,-35.4643,-1.81582
-679,-69,-34.5425,1.58606,0,0,0,0,0,0,0,-1,545,1093,-34.5425,-1.58605
-672,-69,-34.1038,1.80286,0,0,0,0,0,0,0,-1,552,1093,-34.1038,-1.80281
-665,-69,-33.0886,1.91321,0,0,0,0,0,0,0,-1,559,1093,-33.0886,-1.91326
-658,-69,-32.9155,1.83582,0.0202667,0.0394062,-0.0202963,0.0522757,0.00739715,-1.00569,0.0326651,0.0464246,566,1093,-32.9155,-1.83578
-651,-69,-32.6716,1.69214,0.0149189,0.0304571,-0.0143763,0.0390293,0.00634673,-1.03312,0.0241832,0.0362603,573,1093,-32.6716,-1.69214
-644,-69,-32.6353,2.00769,0.0107989,0.0227991,-0.00994029,0.0284098,0.00518821,-1.05693,0.0174692,0.011298,580,1093,-32.6353,-2.00773
-637,-69,-32.6581,2.32849,0.00757372,0.0158839,-0.00645445,0.019405,0.00405256,-1.07138,0.0118197,0.0133949,587,1093,-32.6581,-2.3285
-630,-69,-32.6852,2.57837,0.0050369,0.0099926,-0.00377741,0.0120323,0.00299717,-1.07568,0.00723256,0.0152315,594,1093,-32.6852,-2.57843
-623,-69,-32.6685,2.87268,0.00330955,0.00545608,-0.00253528,0.00713591,0.00162972,-0.985626,0.0043178,0.0158447,601,1093,-32.6685,-2.87271
-616,-69,-32.6732,3.15454,0.00244303,0.00327837,-0.0015474,0.00446348,0.00125792,-0.917216,0.00265751,0.0178287,608,1093,-32.6732,-3.15452
-609,-69,-32.678,3.42139,0.00253497,0.00125358,-0.00113859,0.00320075,0.000587792,-0.529125,0.00196739,0.0157202,615,1093,-32.678,-3.42136
-602,-69,-32.6353,3.75366,0.00225182,-4.33028e-05,-0.00099615,0.00262386,-0.000415351,-0.357443,0.00190286,0.0190353,622,1093,-32.6353,-3.75372
-595,-69,-32.531,4.01709,0.0019389,-0.00061602,-0.00112922,0.00236644,-0.00104356,-0.36194,0.00201754,0.0329341,629,1093,-32.531,-4.01709
-588,-69,-32.5196,4.27612,0,0,0,0,0,0,0,-1,636,1093,-32.5196,-4.27613
-581,-69,-34.1665,0.972046,0,0,0,0,0,0,0,-1,643,1093,-34.1665,-0.972095
-574,-69,-34.2269,0.981934,0.00151773,-0.00101848,-0.00136633,0.00211375,-0.0016145,-0.411333,0.00215893,0.0330982,650,1093,-34.2269,-0.981952
-567,-69,-34.2839,0.850952,0.00111903,-0.000830315,-0.00145632,0.00189674,-0.00160803,-0.490498,0.00202577,0.0415939,657,1093,-34.2839,-0.850966
-560,-69,-34.101,0.71875,0.000551523,-0.000491981,-0.00166201,0.00177175,-0.00171221,-0.633305,0.00201157,0.0448715,664,1093,-34.101,-0.718729
-553,-69,-34.0731,0.776855,-0.000166566,-8.8121e-05,-0.00208612,0.00195914,-0.00221383,-0.794798,0.00241076,0.0418701,671,1093,-34.0731,-0.776836
-546,-69,-34.2,0.913208,-0.000768793,0.000259069,-0.00283679,0.0026281,-0.00313783,-0.875009,0.00333329,0.0378599,678,1093,-34.2,-0.913171
-539,-69,-34.2781,0.909302,-0.000517153,0.000150297,-0.00411155,0.00394165,-0.0043085,-0.825893,0.00476479,0.0396159,685,1093,-34.2781,-0.909294
-532,-69,-34.1304,1.02625,-0.000126669,0.000136722,-0.00539241,0.00539905,-0.005389,-0.797607,0.00622848,0.040797,692,1093,-34.1304,-1.0263
-525,-69,0,0,0,0,0,0,0,0,0,-1,699,1093,0,0
-518,-69,0,0,0,0,0,0,0,0,0,-1,706,1093,0,0
-511,-69,0,0,0,0,0,0,0,0,0,-1,713,1093,0,0
-504,-69,0,0,0,0,0,0,0,0,0,-1,720,1093,0,0
-497,-69,0,0,0,0,0,0,0,0,0,-1,727,1093,0,0
-490,-69,0,0,0,0,0,0,0,0,0,-1,734,1093,0,0
-483,-69,0,0,0,0,0,0,0,0,0,-1,741,1093,0,0
-476,-69,0,0,0,0,0,0,0,0,0,-1,748,1093,0,0
-469,-69,0,0,0,0,0,0,0,0,0,-1,755,1093,0,0
-462,-69,0,0,0,0,0,0,0,0,0,-1,762,1093,0,0
-455,-69,0,0,0,0,0,0,0,0,0,-1,769,1093,0,0
-448,-69,0,0,0,0,0,0,0,0,0,-1,776,1093,0,0
-441,-69,0,0,0,0,0,0,0,0,0,-1,783,1093,0,0
-434,-69,0,0,0,0,0,0,0,0,0,-1,790,1093,0,0
-427,-69,0,0,0,0,0,0,0,0,0,-1,797,1093,0,0
-420,-69,0,0,0,0,0,0,0,0,0,-1,804,1093,0,0
-413,-69,0,0,0,0,0,0,0,0,0,-1,811,1093,0,0
-406,-69,0,0,0,0,0,0,0,0,0,-1,818,1093,0,0
-399,-69,0,0,0,0,0,0,0,0,0,-1,825,1093,0,0
-392,-69,0,0,0,0,0,0,0,0,0,-1,832,1093,0,0
-385,-69,0,0,0,0,0,0,0,0,0,-1,839,1093,0,0
-378,-69,0,0,0,0,0,0,0,0,0,-1,846,1093,0,0
-371,-69,0,0,0,0,0,0,0,0,0,-1,853,1093,0,0
-364,-69,0,0,0,0,0,0,0,0,0,-1,860,1093,0,0
-357,-69,0,0,0,0,0,0,0,0,0,-1,867,1093,0,0
-350,-69,0,0,0,0,0,0,0,0,0,-1,874,1093,0,0
-343,-69,0,0,0,0,0,0,0,0,0,-1,881,1093,0,0
-336,-69,0,0,0,0,0,0,0,0,0,-1,888,1093,0,0
-329,-69,0,0,0,0,0,0,0,0,0,-1,895,1093,0,0
-322,-69,0,0,0,0,0,0,0,0,0,-1,902,1093,0,0
-315,-69,0,0,0,0,0,0,0,0,0,-1,909,1093,0,0
-308,-69,0,0,0,0,0,0,0,0,0,-1,916,1093,0,0
-301,-69,0,0,0,0,0,0,0,0,0,-1,923,1093,0,0
-294,-69,0,0,0,0,0,0,0,0,0,-1,930,1093,0,0
-287,-69,0,0,0,0,0,0,0,0,0,-1,937,1093,0,0
-280,-69,0,0,0,0,0,0,0,0,0,-1,944,1093,0,0
-273,-69,0,0,0,0,0,0,0,0,0,-1,951,1093,0,0
-266,-69,0,0,0,0,0,0,0,0,0,-1,958,1093,0,0
-259,-69,0,0,0,0,0,0,0,0,0,-1,965,1093,0,0
-252,-69,0,0,0,0,0,0,0,0,0,-1,972,1093,0,0
-245,-69,0,0,0,0,0,0,0,0,0,-1,979,1093,0,0
-238,-69,0,0,0,0,0,0,0,0,0,-1,986,1093,0,0
-231,-69,0,0,0,0,0,0,0,0,0,-1,993,1093,0,0
-224,-69,0,0,0,0,0,0,0,0,0,-1,1000,1093,0,0
-217,-69,0,0,0,0,0,0,0,0,0,-1,1007,1093,0,0
-210,-69,0,0,0,0,0,0,0,0,0,-1,1014,1093,0,0
-203,-69,0,0,0,0,0,0,0,0,0,-1,1021,1093,0,0
-196,-69,0,0,0,0,0,0,0,0,0,-1,1028,1093,0,0
-189,-69,0,0,0,0,0,0,0,0,0,-1,1035,1093,0,0
-182,-69,0,0,0,0,0,0,0,0,0,-1,1042,1093,0,0
-175,-69,0,0,0,0,0,0,0,0,0,-1,1049,1093,0,0
-168,-69,0,0,0,0,0,0,0,0,0,-1,1056,1093,0,0
-161,-69,0,0,0,0,0,0,0,0,0,-1,1063,1093,0,0
-154,-69,0,0,0,0,0,0,0,0,0,-1,1070,1093,0,0
-147,-69,0,0,0,0,0,0,0,0,0,-1,1077,1093,0,0
-140,-69,0,0,0,0,0,0,0,0,0,-1,1084,1093,0,0
-133,-69,0,0,0,0,0,0,0,0,0,-1,1091,1093,0,0
-126,-69,0,0,0,0,0,0,0,0,0,-1,1098,1093,0,0
-119,-69,0,0,0,0,0,0,0,0,0,-1,1105,1093,0,0
-112,-69,0,0,0,0,0,0,0,0,0,-1,1112,1093,0,0
-105,-69,0,0,0,0,0,0,0,0,0,-1,1119,1093,0,0
-98,-69,0,0,0,0,0,0,0,0,0,-1,1126,1093,0,0
-91,-69,0,0,0,0,0,0,0,0,0,-1,1133,1093,0,0
-84,-69,0,0,0,0,0,0,0,0,0,-1,1140,1093,0,0
-77,-69,0,0,0,0,0,0,0,0,0,-1,1147,1093,0,0
-70,-69,0,0,0,0,0,0,0,0,0,-1,1154,1093,0,0
-63,-69,0,0,0,0,0,0,0,0,0,-1,1161,1093,0,0
-56,-69,0,0,0,0,0,0,0,0,0,-1,1168,1093,0,0
-49,-69,0,0,0,0,0,0,0,0,0,-1,1175,1093,0,0
-42,-69,0,0,0,0,0,0,0,0,0,-1,1182,1093,0,0
-35,-69,0,0,0,0,0,0,0,0,0,-1,1189,1093,0,0
-28,-69,0,0,0,0,0,0,0,0,0,-1,1196,1093,0,0
-21,-69,0,0,0,0,0,0,0,0,0,-1,1203,1093,0,0
-14,-69,0,0,0,0,0,0,0,0,0,-1,1210,1093,0,0
-7,-69,0,0,0,0,0,0,0,0,0,-1,1217,1093,0,0
0,-69,0,0,0,0,0,0,0,0,0,-1,1224,1093,0,0
7,-69,0,0,0,0,0,0,0,0,0,-1,1231,1093,0,0
14,-69,0,0,0,0,0,0,0,0,0,-1,1238,1093,0,0
21,-69,0,0,0,0,0,0,0,0,0,-1,1245,1093,0,0
28,-69,0,0,0,0,0,0,0,0,0,-1,1252,1093,0,0
35,-69,0,0,0,0,0,0,0,0,0,-1,1259,1093,0,0
42,-69,0,0,0,0,0,0,0,0,0,-1,1266,1093,0,0
49,-69,0,0,0,0,0,0,0,0,0,-1,1273,1093,0,0
56,-69,0,0,0,0,0,0,0,0,0,-1,1280,1093,0,0
63,-69,0,0,0,0,0,0,0,0,0,-1,1287,1093,0,0
70,-69,0,0,0,0,0,0,0,0,0,-1,1294,1093,0,0
77,-69,0,0,0,0,0,0,0,0,0,-1,1301,1093,0,0
84,-69,0,0,0,0,0,0,0,0,0,-1,1308,1093,0,0
91,-69,0,0,0,0,0,0,0,0,0,-1,1315,1093,0,0
98,-69,0,0,0,0,0,0,0,0,0,-1,1322,1093,0,0
105,-69,0,0,0,0,0,0,0,0,0,-1,1329,1093,0,0
112,-69,0,0,0,0,0,0,0,0,0,-1,1336,1093,0,0
119,-69,0,0,0,0,0,0,0,0,0,-1,1343,1093,0,0
126,-69,0,0,0,0,0,0,0,0,0,-1,1350,1093,0,0
133,-69,0,0,0,0,0,0,0,0,0,-1,1357,1093,0,0
140,-69,0,0,0,0,0,0,0,0,0,-1,1364,1093,0,0
147,-69,0,0,0,0,0,0,0,0,0,-1,1371,1093,0,0
154,-69,0,0,0,0,0,0,0,0,0,-1,1378,1093,0,0
161,-69,0,0,0,0,0,0,0,0,0,-1,1385,1093,0,0
168,-69,0,0,0,0,0,0,0,0,0,-1,1392,1093,0,0
175,-69,0,0,0,0,0,0,0,0,0,-1,1399,1093,0,0
182,-69,0,0,0,0,0,0,0,0,0,-1,1406,1093,0,0
189,-69,0,0,0,0,0,0,0,0,0,-1,1413,1093,0,0
196,-69,0,0,0,0,0,0,0,0,0,-1,1420,1093,0,0
203,-69,0,0,0,0,0,0,0,0,0,-1,1427,1093,0,0
210,-69,0,0,0,0,0,0,0,0,0,-1,1434,1093,0,0
217,-69,0,0,0,0,0,0,0,0,0,-1,1441,1093,0,0
224,-69,0,0,0,0,0,0,0,0,0,-1,1448,1093,0,0
231,-69,0,0,0,0,0,0,0,0,0,-1,1455,1093,0,0
238,-69,0,0,0,0,0,0,0,0,0,-1,1462,1093,0,0
245,-69,0,0,0,0,0,0,0,0,0,-1,1469,1093,0,0
252,-69,0,0,0,0,0,0,0,0,0,-1,1476,1093,0,0
259,-69,0,0,0,0,0,0,0,0,0,-1,1483,1093,0,0
266,-69,0,0,0,0,0,0,0,0,0,-1,1490,1093,0,0
273,-69,0,0,0,0,0,0,0,0,0,-1,1497,1093,0,0
280,-69,0,0,0,0,0,0,0,0,0,-1,1504,1093,0,0
287,-69,0,0,0,0,0,0,0,0,0,-1,1511,1093,0,0
294,-69,0,0,0,0,0,0,0,0,0,-1,1518,1093,0,0
301,-69,0,0,0,0,0,0,0,0,0,-1,1525,1093,0,0
308,-69,0,0,0,0,0,0,0,0,0,-1,1532,1093,0,0
315,-69,0,0,0,0,0,0,0,0,0,-1,1539,1093,0,0
322,-69,0,0,0,0,0,0,0,0,0,-1,1546,1093,0,0
329,-69,0,0,0,0,0,0,0,0,0,-1,1553,1093,0,0
336,-69,0,0,0,0,0,0,0,0,0,-1,1560,1093,0,0
343,-69,0,0,0,0,0,0,0,0,0,-1,1567,1093,0,0
350,-69,0,0,0,0,0,0,0,0,0,-1,1574,1093,0,0
357,-69,0,0,0,0,0,0,0,0,0,-1,1581,1093,0,0
364,-69,0,0,0,0,0,0,0,0,0,-1,1588,1093,0,0
371,-69,0,0,0,0,0,0,0,0,0,-1,1595,1093,0,0
378,-69,0,0,0,0,0,0,0,0,0,-1,1602,1093,0,0
385,-69,0,0,0,0,0,0,0,0,0,-1,1609,1093,0,0
392,-69,0,0,0,0,0,0,0,0,0,-1,1616,1093,0,0
399,-69,0,0,0,0,0,0,0,0,0,-1,1623,1093,0,0
406,-69,0,0,0,0,0,0,0,0,0,-1,1630,1093,0,0
413,-69,0,0,0,0,0,0,0,0,0,-1,1637,1093,0,0
420,-69,0,0,0,0,0,0,0,0,0,-1,1644,1093,0,0
427,-69,0,0,0,0,0,0,0,0,0,-1,1651,1093,0,0
434,-69,0,0,0,0,0,0,0,0,0,-1,1658,1093,0,0
441,-69,0,0,0,0,0,0,0,0,0,-1,1665,1093,0,0
448,-69,0,0,0,0,0,0,0,0,0,-1,1672,1093,0,0
455,-69,0,0,0,0,0,0,0,0,0,-1,1679,1093,0,0
462,-69,0,0,0,0,0,0,0,0,0,-1,1686,1093,0,0
469,-69,0,0,0,0,0,0,0,0,0,-1,1693,1093,0,0
476,-69,0,0,0,0,0,0,0,0,0,-1,1700,1093,0,0
483,-69,0,0,0,0,0,0,0,0,0,-1,1707,1093,0,0
490,-69,0,0,0,0,0,0,0,0,0,-1,1714,1093,0,0
497,-69,0,0,0,0,0,0,0,0,0,-1,1721,1093,0,0
504,-69,0,0,0,0,0,0,0,0,0,-1,1728,1093,0,0
511,-69,0,0,0,0,0,0,0,0,0,-1,1735,1093,0,0
518,-69,0,0,0,0,0,0,0,0,0,-1,1742,1093,0,0
525,-69,0,0,0,0,0,0,0,0,0,-1,1749,1093,0,0
532,-69,0,0,0,0,0,0,0,0,0,-1,1756,1093,0,0
539,-69,0,0,0,0,0,0,0,0,0,-1,1763,1093,0,0
546,-69,0,0,0,0,0,0,0,0,0,-1,1770,1093,0,0
553,-69,0,0,0,0,0,0,0,0,0,-1,1777,1093,0,0
560,-69,0,0,0,0,0,0,0,0,0,-1,1784,1093,0,0
567,-69,0,0,0,0,0,0,0,0,0,-1,1791,1093,0,0
574,-69,0,0,0,0,0,0,0,0,0,-1,1798,1093,0,0
581,-69,0,0,0,0,0,0,0,0,0,-1,1805,1093,0,0
588,-69,0,0,0,0,0,0,0,0,0,-1,1812,1093,0,0
595,-69,0,0,0,0,0,0,0,0,0,-1,1819,1093,0,0
602,-69,0,0,0,0,0,0,0,0,0,-1,1826,1093,0,0
609,-69,0,0,0,0,0,0,0,0,0,-1,1833,1093,0,0
616,-69,0,0,0,0,0,0,0,0,0,-1,1840,1093,0,0
623,-69,0,0,0,0,0,0,0,0,0,-1,1847,1093,0,0
630,-69,0,0,0,0,0,0,0,0,0,-1,1854,1093,0,0
637,-69,0,0,0,0,0,0,0,0,0,-1,1861,1093,0,0
644,-69,0,0,0,0,0,0,0,0,0,-1,1868,1093,0,0
651,-69,46.0831,3.29688,0.00434849,-0.00295885,-0.00147403,0.00463463,-0.00324499,-0.191734,0.00457282,0.0398334,1875,1093,46.0831,-3.29684
658,-69,46.2388,2.96545,0.00303217,-0.00223264,-0.00117687,0.00328326,-0.00248374,-0.210207,0.00334023,0.040052,1882,1093,46.2388,-2.96544
665,-69,46.3976,2.93762,0.00204527,-0.0016844,-0.000954859,0.00227552,-0.00191465,-0.236614,0.00242218,0.0415238,1889,1093,46.3976,-2.93758
672,-69,46.2679,3.03882,0.00126666,-0.00117915,-0.000714619,0.00146015,-0.00137264,-0.264421,0.00163577,0.0391901,1896,1093,46.2679,-3.03885
679,-69,46.3038,2.97107,0.000529784,-0.000815057,-0.00049068,0.000689779,-0.000975052,-0.315198,0.000965883,0.0381493,1903,1093,46.3039,-2.97104
686,-69,46.4589,2.86462,-3.2249e-05,-0.000761908,-0.000185459,1.21839e-05,-0.000806341,-0.23515,0.000541668,0.0382847,1910,1093,46.4588,-2.8646
693,-69,46.4125,2.71997,-0.00032129,-0.000823959,0.000100921,-0.000301785,-0.000843464,0.190917,0.000493496,0.0347688,1917,1093,46.4125,-2.71993
700,-69,46.3971,2.63489,-0.000515721,-0.000842512,0.000372665,-0.000272205,-0.00108603,0.578794,0.000652493,0.0301758,1924,1093,46.397,-2.63486
707,-69,46.3762,2.7356,-0.000834334,-0.00076855,0.000757941,-4.27882e-05,-0.0015601,0.807083,0.0010261,0.0232381,1931,1093,46.3763,-2.73556
714,-69,46.3821,2.77295,-0.00113715,-0.000555922,0.00108202,0.000273833,-0.00196691,0.916595,0.00141143,0.030631,1938,1093,46.382,-2.77292
721,-69,46.4136,2.83765,0,0,0,0,0,0,0,-1,1945,1093,46.4135,-2.83763
728,-69,44.4406,6.72119,0,0,0,0,0,0,0,-1,1952,1093,44.4405,-6.72118
735,-69,44.6757,6.40747,-0.00222425,0.000501385,0.00141872,0.0011058,-0.00282867,1.16805,0.00234304,0.0326291,1959,1093,44.6756,-6.40744
742,-69,44.6713,6.17798,-0.00215495,0.00123328,0.00148726,0.00179348,-0.00271516,1.21056,0.00262113,0.0250187,1966,1093,44.6713,-6.17794
749,-69,44.5402,5.88123,-0.00216727,0.00250341,0.00115769,0.00277461,-0.00243848,1.34068,0.00301186,0.0266203,1973,1093,44.5401,-5.88123
756,-69,44.5922,5.65784,-0.00207465,0.00431781,0.000168965,0.00432227,-0.00207912,1.54439,0.00377072,0.0154033,1980,1093,44.5922,-5.6578
763,-69,44.5582,5.38489,-0.00179699,0.00687713,-0.00148838,0.00712541,-0.00204528,-1.4055,0.0055589,0.0171223,1987,1093,44.5582,-5.38486
770,-69,44.5021,5.17029,-0.00115714,0.0103057,-0.00397026,0.0115465,-0.00239796,-1.26789,0.00860906,0.0183374,1994,1093,44.5021,-5.17027
777,-69,44.3998,4.9408,-0.000129905,0.0146339,-0.00732272,0.0176499,-0.00314582,-1.18011,0.0129432,0.0230712,2001,1093,44.3998,-4.94082
784,-69,44.3215,4.44141,0.0011722,0.0195516,-0.0114208,0.0250209,-0.0042971,-1.12418,0.0182821,0.0325443,2008,1093,44.3214,-4.44146
791,-69,44.667,4.08643,0.00281325,0.0253012,-0.0165713,0.0340831,-0.00596865,-1.08348,0.0249508,0.0445242,2015,1093,44.6671,-4.08637
798,-69,44.9524,3.69373,0,0,0,0,0,0,0,-1,2022,1093,44.9524,-3.69378
805,-69,43.5193,3.37512,0,0,0,0,0,0,0,-1,2029,1093,43.5194,-3.37511
812,-69,43.2654,2.43872,0,0,0,0,0,0,0,-1,2036,1093,43.2654,-2.43877
-700,-76,0,0,0,0,0,0,0,0,0,-1,524,1100,0,0
-693,-76,-35.6151,1.55005,0,0,0,0,0,0,0,-1,531,1100,-35.6151,-1.55011
-686,-76,-34.0131,1.12671,0,0,0,0,0,0,0,-1,538,1100,-34.0131,-1.12673
-679,-76,-33.5792,1.26257,0.0429993,0.0697706,-0.0528989,0.110951,0.00181875,-0.909318,0.0733687,0.0495069,545,1100,-33.5792,-1.26262
-672,-76,-33.1353,1.48474,0.0338413,0.0567586,-0.0414038,0.0882601,0.00233976,-0.920396,0.0580758,0.0462626,552,1100,-33.1353,-1.48472
-665,-76,-32.7147,1.56323,0.0260373,0.0454916,-0.0316216,0.0688483,0.00268061,-0.934611,0.0450319,0.0437935,559,1100,-32.7147,-1.56318
-658,-76,-32.4254,1.60913,0.0194551,0.035784,-0.0235201,0.0525164,0.00272268,-0.952455,0.0341396,0.0451178,566,1100,-32.4254,-1.60918
-651,-76,-32.1759,1.69287,0.0141667,0.0275132,-0.0170011,0.0391039,0.00257602,-0.972419,0.0252544,0.0304941,573,1100,-32.1759,-1.6929
-644,-76,-32.2312,1.97974,0.0102323,0.0204965,-0.0119438,0.0283642,0.00236468,-0.988316,0.0181726,0.0114403,580,1100,-32.2312,-1.97971
-637,-76,-32.2997,2.26416,0.00715726,0.0142605,-0.00788967,0.0193611,0.00205666,-0.996892,0.0122794,0.0150837,587,1100,-32.2998,-2.26418
-630,-76,-32.3277,2.55005,0.00477902,0.00886771,-0.00456781,0.0118278,0.00181894,-0.995807,0.00735425,0.0160664,594,1100,-32.3277,-2.55011
-623,-76,-32.3416,2.86426,0.00311412,0.00462845,-0.00297141,0.00693765,0.000804923,-0.910151,0.00438151,0.0166574,601,1100,-32.3416,-2.8642
-616,-76,-32.3615,3.1814,0.00240372,0.00276241,-0.00168891,0.00428147,0.000884667,-0.838294,0.00260989,0.0157076,608,1100,-32.3614,-3.18139
-609,-76,-32.3608,3.48767,0.00265231,0.00109605,-0.00106916,0.00319652,0.000551834,-0.47083,0.00197297,0.0164159,615,1100,-32.3608,-3.4877
-602,-76,-32.3038,3.81445,0.00242804,9.36482e-06,-0.000868545,0.00270762,-0.000270212,-0.311418,0.00190156,0.0190478,622,1100,-32.3038,-3.81442
-595,-76,-32.2507,4.09448,0.0020125,-0.000411234,-0.000979286,0.00235872,-0.00075745,-0.339824,0.00187663,0.0296538,629,1100,-32.2507,-4.09447
-588,-76,-32.2363,4.3645,0,0,0,0,0,0,0,-1,636,1100,-32.2363,-4.36447
-581,-76,-34.1617,0.948242,0,0,0,0,0,0,0,-1,643,1100,-34.1618,-0.948252
-574,-76,-34.2489,0.860352,0.00154217,-0.000721694,-0.00121142,0.00206819,-0.00124771,-0.409652,0.00193387,0.0344002,650,1100,-34.2489,-0.86034
-567,-76,-34.296,0.763916,0.00119136,-0.000534281,-0.00130835,0.00189578,-0.0012387,-0.493896,0.0018229,0.0428581,657,1100,-34.296,-0.763937
-560,-76,-33.9923,0.781494,0.000682082,-0.000212824,-0.00151886,0.00181802,-0.00134877,-0.642151,0.00183502,0.0458402,664,1100,-33.9923,-0.781549
-553,-76,-34.073,0.837158,-2.61418e-05,0.000158464,-0.00196066,0.00202899,-0.00189667,-0.808919,0.00226691,0.0433501,671,1100,-34.073,-0.837209
-546,-76,-34.1975,1.07068,-0.000634113,0.000465259,-0.00273404,0.00270433,-0.00287318,-0.884602,0.00322067,0.0409114,678,1100,-34.1975,-1.07062
-539,-76,-34.3022,1.0437,-0.000286143,0.000315691,-0.00401569,0.00404173,-0.00401218,-0.822796,0.00464994,0.0402202,685,1100,-34.3022,-1.04367
-532,-76,-34.1831,0.99707,0.000256263,0.000204961,-0.00533677,0.00556744,-0.00510622,-0.782995,0.00616436,0.0398659,692,1100,-34.1831,-0.997049
-525,-76,0,0,0,0,0,0,0,0,0,-1,699,1100,0,0
-518,-76,0,0,0,0,0,0,0,0,0,-1,706,1100,0,0
-511,-76,0,0,0,0,0,0,0,0,0,-1,713,1100,0,0
-504,-76,0,0,0,0,0,0,0,0,0,-1,720,1100,0,0
-497,-76,0,0,0,0,0,0,0,0,0,-1,727,1100,0,0
-490,-76,0,0,0,0,0,0,0,0,0,-1,734,1100,0,0
-483,-76,0,0,0,0,0,0,0,0,0,-1,741,1100,0,0
-476,-76,0,0,0,0,0,0,0,0,0,-1,748,1100,0,0
-469,-76,0,0,0,0,0,0,0,0,0,-1,755,1100,0,0
-462,-76,0,0,0,0,0,0,0,0,0,-1,762,1100,0,0
-455,-76,0,0,0,0,0,0,0,0,0,-1,769,1100,0,0
-448,-76,0,0,0,0,0,0,0,0,0,-1,776,1100,0,0
-441,-76,0,0,0,0,0,0,0,0,0,-1,783,1100,0,0
-434,-76,0,0,0,0,0,0,0,0,0,-1,790,1100,0,0
-427,-76,0,0,0,0,0,0,0,0,0,-1,797,1100,0,0
-420,-76,0,0,0,0,0,0,0,0,0,-1,804,1100,0,0
-413,-76,0,0,0,0,0,0,0,0,0,-1,811,1100,0,0
-406,-76,0,0,0,0,0,0,0,0,0,-1,818,1100,0,0
-399,-76,0,0,0,0,0,0,0,0,0,-1,825,1100,0,0
-392,-76,0,0,0,0,0,0,0,0,0,-1,832,1100,0,0
-385,-76,0,0,0,0,0,0,0,0,0,-1,839,1100,0,0
-378,-76,0,0,0,0,0,0,0,0,0,-1,846,1100,0,0
-371,-76,0,0,0,0,0,0,0,0,0,-1,853,1100,0,0
-364,-76,0,0,0,0,0,0,0,0,0,-1,860,1100,0,0
-357,-76,0,0,0,0,0,0,0,0,0,-1,867,1100,0,0
-350,-76,0,0,0,0,0,0,0,0,0,-1,874,1100,0,0
-343,-76,0,0,0,0,0,0,0,0,0,-1,881,1100,0,0
-336,-76,0,0,0,0,0,0,0,0,0,-1,888,1100,0,0
-329,-76,0,0,0,0,0,0,0,0,0,-1,895,1100,0,0
-322,-76,0,0,0,0,0,0,0,0,0,-1,902,1100,0,0
-315,-76,0,0,0,0,0,0,0,0,0,-1,909,1100,0,0
-308,-76,0,0,0,0,0,0,0,0,0,-1,916,1100,0,0
-301,-76,0,0,0,0,0,0,0,0,0,-1,923,1100,0,0
-294,-76,0,0,0,0,0,0,0,0,0,-1,930,1100,0,0
-287,-76,0,0,0,0,0,0,0,0,0,-1,937,1100,0,0
-280,-76,0,0,0,0,0,0,0,0,0,-1,944,1100,0,0
-273,-76,0,0,0,0,0,0,0,0,0,-1,951,1100,0,0
-266,-76,0,0,0,0,0,0,0,0,0,-1,958,1100,0,0
-259,-76,0,0,0,0,0,0,0,0,0,-1,965,1100,0,0
-252,-76,0,0,0,0,0,0,0,0,0,-1,972,1100,0,0
-245,-76,0,0,0,0,0,0,0,0,0,-1,979,1100,0,0
-238,-76,0,0,0,0,0,0,0,0,0,-1,986,1100,0,0
-231,-76,0,0,0,0,0,0,0,0,0,-1,993,1100,0,0
-224,-76,0,0,0,0,0,0,0,0,0,-1,1000,1100,0,0
-217,-76,0,0,0,0,0,0,0,0,0,-1,1007,1100,0,0
-210,-76,0,0,0,0,0,0,0,0,0,-1,1014,1100,0,0
-203,-76,0,0,0,0,0,0,0,0,0,-1,1021,1100,0,0
-196,-76,0,0,0,0,0,0,0,0,0,-1,1028,1100,0,0
-189,-76,0,0,0,0,0,0,0,0,0,-1,1035,1100,0,0
-182,-76,0,0,0,0,0,0,0,0,0,-1,1042,1100,0,0
-175,-76,0,0,0,0,0,0,0,0,0,-1,1049,1100,0,0
-168,-76,0,0,0,0,0,0,0,0,0,-1,1056,1100,0,0
-161,-76,0,0,0,0,0,0,0,0,0,-1,1063,1100,0,0
-154,-76,0,0,0,0,0,0,0,0,0,-1,1070,1100,0,0
-147,-76,0,0,0,0,0,0,0,0,0,-1,1077,1100,0,0
-140,-76,0,0,0,0,0,0,0,0,0,-1,1084,1100,0,0
-133,-76,0,0,0,0,0,0,0,0,0,-1,1091,1100,0,0
-126,-76,0,0,0,0,0,0,0,0,0,-1,1098,1100,0,0
-119,-76,0,0,0,0,0,0,0,0,0,-1,1105,1100,0,0
-112,-76,0,0,0,0,0,0,0,0,0,-1,1112,1100,0,0
-105,-76,0,0,0,0,0,0,0,0,0,-1,1119,1100,0,0
-98,-76,0,0,0,0,0,0,0,0,0,-1,1126,1100,0,0
-91,-76,0,0,0,0,0,0,0,0,0,-1,1133,1100,0,0
-84,-76,0,0,0,0,0,0,0,0,0,-1,1140,1100,0,0
-77,-76,0,0,0,0,0,0,0,0,0,-1,1147,1100,0,0
-70,-76,0,0,0,0,0,0,0,0,0,-1,1154,1100,0,0
-63,-76,0,0,0,0,0,0,0,0,0,-1,1161,1100,0,0
-56,-76,0,0,0,0,0,0,0,0,0,-1,1168,1100,0,0
-49,-76,0,0,0,0,0,0,0,0,0,-1,1175,1100,0,0
-42,-76,0,0,0,0,0,0,0,0,0,-1,1182,1100,0,0
-35,-76,0,0,0,0,0,0,0,0,0,-1,1189,1100,0,0
-28,-76,0,0,0,0,0,0,0,0,0,-1,1196,1100,0,0
-21,-76,0,0,0,0,0,0,0,0,0,-1,1203,1100,0,0
-14,-76,0,0,0,0,0,0,0,0,0,-1,1210,1100,0,0
-7,-76,0,0,0,0,0,0,0,0,0,-1,1217,1100,0,0
0,-76,0,0,0,0,0,0,0,0,0,-1,1224,1100,0,0
7,-76,0,0,0,0,0,0,0,0,0,-1,1231,1100,0,0
14,-76,0,0,0,0,0,0,0,0,0,-1,1238,1100,0,0
21,-76,0,0,0,0,0,0,0,0,0,-1,1245,1100,0,0
28,-76,0,0,0,0,0,0,0,0,0,-1,1252,1100,0,0
35,-76,0,0,0,0,0,0,0,0,0,-1,1259,1100,0,0
42,-76,0,0,0,0,0,0,0,0,0,-1,1266,1100,0,0
49,-76,0,0,0,0,0,0,0,0,0,-1,1273,1100,0,0
56,-76,0,0,0,0,0,0,0,0,0,-1,1280,1100,0,0
63,-76,0,0,0,0,0,0,0,0,0,-1,1287,1100,0,0
70,-76,0,0,0,0,0,0,0,0,0,-1,1294,1100,0,0
77,-76,0,0,0,0,0,0,0,0,0,-1,1301,1100,0,0
84,-76,0,0,0,0,0,0,0,0,0,-1,1308,1100,0,0
91,-76,0,0,0,0,0,0,0,0,0,-1,1315,1100,0,0
98,-76,0,0,0,0,0,0,0,0,0,-1,1322,1100,0,0
105,-76,0,0,0,0,0,0,0,0,0,-1,1329,1100,0,0
112,-76,0,0,0,0,0,0,0,0,0,-1,1336,1100,0,0
119,-76,0,0,0,0,0,0,0,0,0,-1,1343,1100,0,0
126,-76,0,0,0,0,0,0,0,0,0,-1,1350,1100,0,0
133,-76,0,0,0,0,0,0,0,0,0,-1,1357,1100,0,0
140,-76,0,0,0,0,0,0,0,0,0,-1,1364,1100,0,0
147,-76,0,0,0,0,0,0,0,0,0,-1,1371,1100,0,0
154,-76,0,0,0,0,0,0,0,0,0,-1,1378,1100,0,0
161,-76,0,0,0,0,0,0,0,0,0,-1,1385,1100,0,0
168,-76,0,0,0,0,0,0,0,0,0,-1,1392,1100,0,0
175,-76,0,0,0,0,0,0,0,0,0,-1,1399,1100,0,0
182,-76,0,0,0,0,0,0,0,0,0,-1,1406,1100,0,0
189,-76,0,0,0,0,0,0,0,0,0,-1,1413,1100,0,0
196,-76,0,0,0,0,0,0,0,0,0,-1,1420,1100,0,0
203,-76,0,0,0,0,0,0,0,0,0,-1,1427,1100,0,0
210,-76,0,0,0,0,0,0,0,0,0,-1,1434,1100,0,0
217,-76,0,0,0,0,0,0,0,0,0,-1,1441,1100,0,0
224,-76,0,0,0,0,0,0,0,0,0,-1,1448,1100,0,0
231,-76,0,0,0,0,0,0,0,0,0,-1,1455,1100,0,0
238,-76,0,0,0,0,0,0,0,0,0,-1,1462,1100,0,0
245,-76,0,0,0,0,0,0,0,0,0,-1,1469,1100,0,0
252,-76,0,0,0,0,0,0,0,0,0,-1,1476,1100,0,0
259,-76,0,0,0,0,0,0,0,0,0,-1,1483,1100,0,0
266,-76,0,0,0,0,0,0,0,0,0,-1,1490,1100,0,0
273,-76,0,0,0,0,0,0,0,0,0,-1,1497,1100,0,0
280,-76,0,0,0,0,0,0,0,0,0,-1,1504,1100,0,0
287,-76,0,0,0,0,0,0,0,0,0,-1,1511,1100,0,0
294,-76,0,0,0,0,0,0,0,0,0,-1,1518,1100,0,0
301,-76,0,0,0,0,0,0,0,0,0,-1,1525,1100,0,0
308,-76,0,0,0,0,0,0,0,0,0,-1,1532,1100,0,0
315,-76,0,0,0,0,0,0,0,0,0,-1,1539,1100,0,0
322,-76,0,0,0,0,0,0,0,0,0,-1,1546,1100,0,0
329,-76,0,0,0,0,0,0,0,0,0,-1,1553,1100,0,0
336,-76,0,0,0,0,0,0,0,0,0,-1,1560,1100,0,0
343,-76,0,0,0,0,0,0,0,0,0,-1,1567,1100,0,0
350,-76,0,0,0,0,0,0,0,0,0,-1,1574,1100,0,0
357,-76,0,0,0,0,0,0,0,0,0,-1,1581,1100,0,0
364,-76,0,0,0,0,0,0,0,0,0,-1,1588,1100,0,0
371,-76,0,0,0,0,0,0,0,0,0,-1,1595,1100,0,0
378,-76,0,0,0,0,0,0,0,0,0,-1,1602,1100,0,0
385,-76,0,0,0,0,0,0,0,0,0,-1,1609,1100,0,0
392,-76,0,0,0,0,0,0,0,0,0,-1,1616,1100,0,0
399,-76,0,0,0,0,0,0,0,0,0,-1,1623,1100,0,0
406,-76,0,0,0,0,0,0,0,0,0,-1,1630,1100,0,0
413,-76,0,0,0,0,0,0,0,0,0,-1,1637,1100,0,0
420,-76,0,0,0,0,0,0,0,0,0,-1,1644,1100,0,0
427,-76,0,0,0,0,0,0,0,0,0,-1,1651,1100,0,0
434,-76,0,0,0,0,0,0,0,0,0,-1,1658,1100,0,0
441,-76,0,0,0,0,0,0,0,0,0,-1,1665,1100,0,0
448,-76,0,0,0,0,0,0,0,0,0,-1,1672,1100,0,0
455,-76,0,0,0,0,0,0,0,0,0,-1,1679,1100,0,0
462,-76,0,0,0,0,0,0,0,0,0,-1,1686,1100,0,0
469,-76,0,0,0,0,0,0,0,0,0,-1,1693,1100,0,0
476,-76,0,0,0,0,0,0,0,0,0,-1,1700,1100,0,0
483,-76,0,0,0,0,0,0,0,0,0,-1,1707,1100,0,0
490,-76,0,0,0,0,0,0,0,0,0,-1,1714,1100,0,0
497,-76,0,0,0,0,0,0,0,0,0,-1,1721,1100,0,0
504,-76,0,0,0,0,0,0,0,0,0,-1,1728,1100,0,0
511,-76,0,0,0,0,0,0,0,0,0,-1,1735,1100,0,0
518,-76,0,0,0,0,0,0,0,0,0,-1,1742,1100,0,0
525,-76,0,0,0,0,0,0,0,0,0,-1,1749,1100,0,0
532,-76,0,0,0,0,0,0,0,0,0,-1,1756,1100,0,0
539,-76,0,0,0,0,0,0,0,0,0,-1,1763,1100,0,0
546,-76,0,0,0,0,0,0,0,0,0,-1,1770,1100,0,0
553,-76,0,0,0,0,0,0,0,0,0,-1,1777,1100,0,0
560,-76,0,0,0,0,0,0,0,0,0,-1,1784,1100,0,0
567,-76,0,0,0,0,0,0,0,0,0,-1,1791,1100,0,0
574,-76,0,0,0,0,0,0,0,0,0,-1,1798,1100,0,0
581,-76,0,0,0,0,0,0,0,0,0,-1,1805,1100,0,0
588,-76,0,0,0,0,0,0,0,0,0,-1,1812,1100,0,0
595,-76,0,0,0,0,0,0,0,0,0,-1,1819,1100,0,0
602,-76,0,0,0,0,0,0,0,0,0,-1,1826,1100,0,0
609,-76,0,0,0,0,0,0,0,0,0,-1,1833,1100,0,0
616,-76,0,0,0,0,0,0,0,0,0,-1,1840,1100,0,0
623,-76,0,0,0,0,0,0,0,0,0,-1,1847,1100,0,0
630,-76,0,0,0,0,0,0,0,0,0,-1,1854,1100,0,0
637,-76,0,0,0,0,0,0,0,0,0,-1,1861,1100,0,0
644,-76,0,0,0,0,0,0,0,0,0,-1,1868,1100,0,0
651,-76,46.376,3.00256,0.00344865,-0.00240424,-0.00141219,0.00377157,-0.00272716,-0.224799,0.00376816,0.0390545,1875,1100,46.3759,-3.00261
658,-76,46.3787,2.99268,0.00239186,-0.00175532,-0.00118384,0.002706,-0.00206945,-0.259378,0.00276526,0.0407251,1882,1100,46.3786,-2.99269
665,-76,46.3922,2.84937,0.00159156,-0.00126361,-0.00100711,0.00191105,-0.00158309,-0.307192,0.0020203,0.038666,1889,1100,46.3922,-2.84941
672,-76,46.2615,2.9375,0.00096773,-0.000825364,-0.000820311,0.00128638,-0.00114402,-0.370512,0.00140399,0.0376964,1896,1100,46.2614,-2.93754
679,-76,46.3126,3.00146,0.00035989,-0.000548983,-0.000650964,0.000699347,-0.00088844,-0.480674,0.000918874,0.0381326,1903,1100,46.3127,-3.0015
686,-76,46.4938,2.92554,-4.57993e-05,-0.000557652,-0.000395634,0.000169469,-0.00077292,-0.49831,0.000580081,0.0367879,1910,1100,46.4938,-2.92558
693,-76,46.4714,2.78308,-0.000205545,-0.000653963,-0.000152364,-0.000158674,-0.000700834,-0.298439,0.000424339,0.0360357,1917,1100,46.4714,-2.78312
700,-76,46.4017,2.69226,-0.00032724,-0.00070396,7.55743e-05,-0.000312645,-0.000718555,0.19078,0.000416021,0.0337364,1924,1100,46.4017,-2.69222
707,-76,46.3678,2.76538,-0.000585088,-0.000659564,0.000431831,-0.000188892,-0.00105576,0.742388,0.000650088,0.0246184,1931,1100,46.3678,-2.76543
714,-76,46.405,2.84424,0,0,0,0,0,0,0,-1,1938,1100,46.405,-2.84424
721,-76,45.1713,3.04919,0,0,0,0,0,0,0,-1,1945,1100,45.1713,-3.04915
728,-76,43.6643,6.72888,0,0,0,0,0,0,0,-1,1952,1100,43.6642,-6.72884
735,-76,44.1002,6.49963,-0.00192804,0.000406481,0.00114283,0.000872796,-0.00239435,1.18338,0.00195329,0.0380567,1959,1100,44.1003,-6.49959
742,-76,44.3522,6.22864,-0.00193341,0.00102388,0.00121039,0.00145611,-0.00236564,1.22781,0.00222722,0.0254592,1966,1100,44.3522,-6.22864
749,-76,44.2524,5.92126,-0.00203363,0.0022244,0.000886003,0.0024014,-0.00221063,1.37362,0.00266352,0.0255823,1973,1100,44.2524,-5.92121
756,-76,44.3025,5.67932,-0.00207064,0.00398112,-0.000149099,0.00398479,-0.00207431,-1.54618,0.00355571,0.016347,1980,1100,44.3024,-5.67929
763,-76,44.2677,5.38342,-0.00193115,0.00650133,-0.00194208,0.00692711,-0.00235693,-1.35497,0.00557242,0.0164945,1987,1100,44.2678,-5.3834
770,-76,44.1688,5.14172,-0.00149794,0.00985521,-0.00464755,0.0115151,-0.0031578,-1.22777,0.00891766,0.0176084,1994,1100,44.1688,-5.14166
777,-76,44.0728,4.98157,-0.000716492,0.0140447,-0.00829262,0.0177655,-0.00443729,-1.14903,0.0135668,0.0222483,2001,1100,44.0727,-4.98159
784,-76,44.0891,4.6438,0.000376666,0.0189101,-0.0128222,0.0254636,-0.00617688,-1.0983,0.0193659,0.0333721,2008,1100,44.089,-4.64374
791,-76,44.25,4.20508,0.00187101,0.0247297,-0.0186195,0.0351479,-0.00854716,-1.06067,0.0267403,0.042737,2015,1100,44.25,-4.20514
798,-76,44.4192,3.75525,0,0,0,0,0,0,0,-1,2022,1100,44.4191,-3.75524
805,-76,43.3201,2.84009,0.00667891,0.0402553,-0.0353546,0.0626053,-0.015671,-1.00706,0.0478242,0.0443974,2029,1100,43.3201,-2.8401
812,-76,43.3408,1.90881,0.00960467,0.0504911,-0.0466515,0.0809821,-0.0208863,-0.991902,0.0621316,0.0461018,2036,1100,43.3407,-1.90883
-700,-83,0,0,0,0,0,0,0,0,0,-1,524,1107,0,0
-693,-83,-29.7148,-0.865601,0,0,0,0,0,0,0,-1,531,1107,-29.7148,0.865636
-686,-83,-33.3392,0.899414,0,0,0,0,0,0,0,-1,538,1107,-33.3392,-0.899461
-679,-83,-32.8265,0.993408,0.0422937,0.0678449,-0.0595561,0.11598,-0.0058416,-0.891054,0.0793391,0.04695,545,1107,-32.8265,-0.993434
-672,-83,-32.0864,0.786499,0.031716,0.0551137,-0.0470663,0.0919133,-0.00508361,-0.90721,0.0630384,0.043855,552,1107,-32.0864,-0.786543
-665,-83,-32.008,1.0094,0.0235903,0.0440407,-0.0362927,0.0715211,-0.00389013,-0.92271,0.0490289,0.0422712,559,1107,-32.008,-1.00941
-658,-83,-31.9905,1.23828,0.0171876,0.0345043,-0.0272643,0.054452,-0.00276014,-0.939147,0.0372555,0.0409841,566,1107,-31.9905,-1.23828
-651,-83,-31.8691,1.53418,0.0122745,0.0263941,-0.0198946,0.0404444,-0.00177584,-0.955896,0.027574,0.0314728,573,1107,-31.8691,-1.53413
-644,-83,-31.8629,1.8905,0.00879116,0.0195621,-0.014085,0.0292561,-0.000902844,-0.967999,0.0198118,0.0160343,580,1107,-31.8629,-1.89045
-637,-83,-31.9271,2.22778,0.00611208,0.0135992,-0.00936472,0.0199409,-0.000229605,-0.975545,0.0133711,0.0129235,587,1107,-31.9271,-2.22773
-630,-83,-31.9624,2.56445,0.00409705,0.00837041,-0.00535649,0.0120007,0.000466804,-0.975175,0.00784946,0.0181819,594,1107,-31.9624,-2.56451
-623,-83,-31.9933,2.86536,0.00264416,0.00415046,-0.00337487,0.0068552,-6.05765e-05,-0.895181,0.00459046,0.0168012,601,1107,-31.9934,-2.86538
-616,-83,-32.0195,3.18359,0.00220176,0.0023994,-0.00181119,0.00411446,0.000486701,-0.812651,0.00259599,0.0147823,608,1107,-32.0195,-3.18353
-609,-83,-32.0214,3.48108,0.00263963,0.000900484,-0.000999995,0.00309526,0.00044486,-0.427523,0.00193236,0.0174985,615,1107,-32.0213,-3.48109
-602,-83,-32.017,3.84106,0.00251497,-0.000100185,-0.000760688,0.00272014,-0.000305355,-0.263448,0.00192331,0.0175369,622,1107,-32.017,-3.84105
-595,-83,-31.9384,4.18323,0.00203514,-0.000470448,-0.000834797,0.00228779,-0.000723104,-0.293891,0.0018149,0.0223933,629,1107,-31.9384,-4.18323
-588,-83,-31.9186,4.45752,0,0,0,0,0,0,0,-1,636,1107,-31.9186,-4.45755
-581,-83,-34.1638,1.06372,0,0,0,0,0,0,0,-1,643,1107,-34.1638,-1.06375
-574,-83,-34.2087,0.896362,0.00156601,-0.000882441,-0.00108183,0.00197552,-0.00129195,-0.361864,0.00190018,0.0351687,650,1107,-34.2087,-0.896337
-567,-83,-34.1187,0.727051,0.00127643,-0.000771827,-0.00119488,0.00182602,-0.00132141,-0.431098,0.00182494,0.0412751,657,1107,-34.1187,-0.727064
-560,-83,-34.1508,1.00513,0.000837512,-0.000545927,-0.00141286,0.0017189,-0.00142731,-0.557756,0.00181906,0.0444167,664,1107,-34.1508,-1.00508
-553,-83,-34.1367,1.14221,0.000136267,-0.000273521,-0.00187293,0.00181547,-0.00195273,-0.730916,0.00217605,0.0444856,671,1107,-34.1367,-1.14219
-546,-83,-34.2149,1.33655,-0.000498783,-3.99823e-05,-0.00265591,0.00239641,-0.00293518,-0.828478,0.00308343,0.0426814,678,1107,-34.2149,-1.33656
-539,-83,-34.2761,1.08862,-0.000108734,-0.000210444,-0.00391091,0.00375165,-0.00407083,-0.778897,0.00451757,0.0440047,685,1107,-34.2761,-1.08862
-532,-83,-34.2336,0.837646,0.000566178,-0.000368438,-0.00523097,0.00535067,-0.00515294,-0.740849,0.00606462,0.0442969,692,1107,-34.2336,-0.837612
-525,-83,0,0,0,0,0,0,0,0,0,-1,699,1107,0,0
-518,-83,0,0,0,0,0,0,0,0,0,-1,706,1107,0,0
-511,-83,0,0,0,0,0,0,0,0,0,-1,713,1107,0,0
-504,-83,0,0,0,0,0,0,0,0,0,-1,720,1107,0,0
-497,-83,0,0,0,0,0,0,0,0,0,-1,727,1107,0,0
-490,-83,0,0,0,0,0,0,0,0,0,-1,734,1107,0,0
-483,-83,0,0,0,0,0,0,0,0,0,-1,741,1107,0,0
-476,-83,0,0,0,0,0,0,0,0,0,-1,748,1107,0,0
-469,-83,0,0,0,0,0,0,0,0,0,-1,755,1107,0,0
-462,-83,0,0,0,0,0,0,0,0,0,-1,762,1107,0,0
-455,-83,0,0,0,0,0,0,0,0,0,-1,769,1107,0,0
-448,-83,0,0,0,0,0,0,0,0,0,-1,776,1107,0,0
-441,-83,0,0,0,0,0,0,0,0,0,-1,783,1107,0,0
-434,-83,0,0,0,0,0,0,0,0,0,-1,790,1107,0,0
-427,-83,0,0,0,0,0,0,0,0,0,-1,797,1107,0,0
-420,-83,0,0,0,0,0,0,0,0,0,-1,804,1107,0,0
-413,-83,0,0,0,0,0,0,0,0,0,-1,811,1107,0,0
-406,-83,0,0,0,0,0,0,0,0,0,-1,818,1107,0,0
-399,-83,0,0,0,0,0,0,0,0,0,-1,825,1107,0,0
-392,-83,0,0,0,0,0,0,0,0,0,-1,832,1107,0,0
-385,-83,0,0,0,0,0,0,0,0,0,-1,839,1107,0,0
-378,-83,0,0,0,0,0,0,0,0,0,-1,846,1107,0,0
-371,-83,0,0,0,0,0,0,0,0,0,-1,853,1107,0,0
-364,-83,0,0,0,0,0,0,0,0,0,-1,860,1107,0,0
-357,-83,0,0,0,0,0,0,0,0,0,-1,867,1107,0,0
-350,-83,0,0,0,0,0,0,0,0,0,-1,874,1107,0,0
-343,-83,0,0,0,0,0,0,0,0,0,-1,881,1107,0,0
-336,-83,0,0,0,0,0,0,0,0,0,-1,888,1107,0,0
-329,-83,0,0,0,0,0,0,0,0,0,-1,895,1107,0,0
-322,-83,0,0,0,0,0,0,0,0,0,-1,902,1107,0,0
-315,-83,0,0,0,0,0,0,0,0,0,-1,909,1107,0,0
-308,-83,0,0,0,0,0,0,0,0,0,-1,916,1107,0,0
-301,-83,0,0,0,0,0,0,0,0,0,-1,923,1107,0,0
-294,-83,0,0,0,0,0,0,0,0,0,-1,930,1107,0,0
-287,-83,0,0,0,0,0,0,0,0,0,-1,937,1107,0,0
-280,-83,0,0,0,0,0,0,0,0,0,-1,944,1107,0,0
-273,-83,0,0,0,0,0,0,0,0,0,-1,951,1107,0,0
-266,-83,0,0,0,0,0,0,0,0,0,-1,958,1107,0,0
-259,-83,0,0,0,0,0,0,0,0,0,-1,965,1107,0,0
-252,-83,0,0,0,0,0,0,0,0,0,-1,972,1107,0,0
-245,-83,0,0,0,0,0,0,0,0,0,-1,979,1107,0,0
-238,-83,0,0,0,0,0,0,0,0,0,-1,986,1107,0,0
-231,-83,0,0,0,0,0,0,0,0,0,-1,993,1107,0,0
-224,-83,0,0,0,0,0,0,0,0,0,-1,1000,1107,0,0
-217,-83,0,0,0,0,0,0,0,0,0,-1,1007,1107,0,0
-210,-83,0,0,0,0,0,0,0,0,0,-1,1014,1107,0,0
-203,-83,0,0,0,0,0,0,0,0,0,-1,1021,1107,0,0
-196,-83,0,0,0,0,0,0,0,0,0,-1,1028,1107,0,0
-189,-83,0,0,0,0,0,0,0,0,0,-1,1035,1107,0,0
-182,-83,0,0,0,0,0,0,0,0,0,-1,1042,1107,0,0
-175,-83,0,0,0,0,0,0,0,0,0,-1,1049,1107,0,0
-168,-83,0,0,0,0,0,0,0,0,0,-1,1056,1107,0,0
-161,-83,0,0,0,0,0,0,0,0,0,-1,1063,1107,0,0
-154,-83,0,0,0,0,0,0,0,0,0,-1,1070,1107,0,0
-147,-83,0,0,0,0,0,0,0,0,0,-1,1077,1107,0,0
-140,-83,0,0,0,0,0,0,0,0,0,-1,1084,1107,0,0
-133,-83,0,0,0,0,0,0,0,0,0,-1,1091,1107,0,0
-126,-83,0,0,0,0,0,0,0,0,0,-1,1098,1107,0,0
-119,-83,0,0,0,0,0,0,0,0,0,-1,1105,1107,0,0
-112,-83,0,0,0,0,0,0,0,0,0,-1,1112,1107,0,0
-105,-83,0,0,0,0,0,0,0,0,0,-1,1119,1107,0,0
-98,-83,0,0,0,0,0,0,0,0,0,-1,1126,1107,0,0
-91,-83,0,0,0,0,0,0,0,0,0,-1,1133,1107,0,0
-84,-83,0,0,0,0,0,0,0,0,0,-1,1140,1107,0,0
-77,-83,0,0,0,0,0,0,0,0,0,-1,1147,1107,0,0
-70,-83,0,0,0,0,0,0,0,0,0,-1,1154,1107,0,0
-63,-83,0,0,0,0,0,0,0,0,0,-1,1161,1107,0,0
-56,-83,0,0,0,0,0,0,0,0,0,-1,1168,1107,0,0
-49,-83,0,0,0,0,0,0,0,0,0,-1,1175,1107,0,0
-42,-83,0,0,0,0,0,0,0,0,0,-1,1182,1107,0,0
-35,-83,0,0,0,0,0,0,0,0,0,-1,1189,1107,0,0
-28,-83,0,0,0,0,0,0,0,0,0,-1,1196,1107,0,0
-21,-83,0,0,0,0,0,0,0,0,0,-1,1203,1107,0,0
-14,-83,0,0,0,0,0,0,0,0,0,-1,1210,1107,0,0
-7,-83,0,0,0,0,0,0,0,0,0,-1,1217,1107,0,0
0,-83,0,0,0,0,0,0,0,0,0,-1,1224,1107,0,0
7,-83,0,0,0,0,0,0,0,0,0,-1,1231,1107,0,0
14,-83,0,0,0,0,0,0,0,0,0,-1,1238,1107,0,0
21,-83,0,0,0,0,0,0,0,0,0,-1,1245,1107,0,0
28,-83,0,0,0,0,0,0,0,0,0,-1,1252,1107,0,0
35,-83,0,0,0,0,0,0,0,0,0,-1,1259,1107,0,0
42,-83,0,0,0,0,0,0,0,0,0,-1,1266,1107,0,0
49,-83,0,0,0,0,0,0,0,0,0,-1,1273,1107,0,0
56,-83,0,0,0,0,0,0,0,0,0,-1,1280,1107,0,0
63,-83,0,0,0,0,0,0,0,0,0,-1,1287,1107,0,0
70,-83,0,0,0,0,0,0,0,0,0,-1,1294,1107,0,0
77,-83,0,0,0,0,0,0,0,0,0,-1,1301,1107,0,0
84,-83,0,0,0,0,0,0,0,0,0,-1,1308,1107,0,0
91,-83,0,0,0,0,0,0,0,0,0,-1,1315,1107,0,0
98,-83,0,0,0,0,0,0,0,0,0,-1,1322,1107,0,0
105,-83,0,0,0,0,0,0,0,0,0,-1,1329,1107,0,0
112,-83,0,0,0,0,0,0,0,0,0,-1,1336,1107,0,0
119,-83,0,0,0,0,0,0,0,0,0,-1,1343,1107,0,0
126,-83,0,0,0,0,0,0,0,0,0,-1,1350,1107,0,0
133,-83,0,0,0,0,0,0,0,0,0,-1,1357,1107,0,0
140,-83,0,0,0,0,0,0,0,0,0,-1,1364,1107,0,0
147,-83,0,0,0,0,0,0,0,0,0,-1,1371,1107,0,0
154,-83,0,0,0,0,0,0,0,0,0,-1,1378,1107,0,0
161,-83,0,0,0,0,0,0,0,0,0,-1,1385,1107,0,0
168,-83,0,0,0,0,0,0,0,0,0,-1,1392,1107,0,0
175,-83,0,0,0,0,0,0,0,0,0,-1,1399,1107,0,0
182,-83,0,0,0,0,0,0,0,0,0,-1,1406,1107,0,0
189,-83,0,0,0,0,0,0,0,0,0,-1,1413,1107,0,0
196,-83,0,0,0,0,0,0,0,0,0,-1,1420,1107,0,0
203,-83,0,0,0,0,0,0,0,0,0,-1,1427,1107,0,0
210,-83,0,0,0,0,0,0,0,0,0,-1,1434,1107,0,0
217,-83,0,0,0,0,0,0,0,0,0,-1,1441,1107,0,0
224,-83,0,0,0,0,0,0,0,0,0,-1,1448,1107,0,0
231,-83,0,0,0,0,0,0,0,0,0,-1,1455,1107,0,0
238,-83,0,0,0,0,0,0,0,0,0,-1,1462,1107,0,0
245,-83,0,0,0,0,0,0,0,0,0,-1,1469,1107,0,0
252,-83,0,0,0,0,0,0,0,0,0,-1,1476,1107,0,0
259,-83,0,0,0,0,0,0,0,0,0,-1,1483,1107,0,0
266,-83,0,0,0,0,0,0,0,0,0,-1,1490,1107,0,0
273,-83,0,0,0,0,0,0,0,0,0,-1,1497,1107,0,0
280,-83,0,0,0,0,0,0,0,0,0,-1,1504,1107,0,0
287,-83,0,0,0,0,0,0,0,0,0,-1,1511,1107,0,0
294,-83,0,0,0,0,0,0,0,0,0,-1,1518,1107,0,0
301,-83,0,0,0,0,0,0,0,0,0,-1,1525,1107,0,0
308,-83,0,0,0,0,0,0,0,0,0,-1,1532,1107,0,0
315,-83,0,0,0,0,0,0,0,0,0,-1,1539,1107,0,0
322,-83,0,0,0,0,0,0,0,0,0,-1,1546,1107,0,0
329,-83,0,0,0,0,0,0,0,0,0,-1,1553,1107,0,0
336,-83,0,0,0,0,0,0,0,0,0,-1,1560,1107,0,0
343,-83,0,0,0,0,0,0,0,0,0,-1,1567,1107,0,0
350,-83,0,0,0,0,0,0,0,0,0,-1,1574,1107,0,0
357,-83,0,0,0,0,0,0,0,0,0,-1,1581,1107,0,0
364,-83,0,0,0,0,0,0,0,0,0,-1,1588,1107,0,0
371,-83,0,0,0,0,0,0,0,0,0,-1,1595,1107,0,0
378,-83,0,0,0,0,0,0,0,0,0,-1,1602,1107,0,0
385,-83,0,0,0,0,0,0,0,0,0,-1,1609,1107,0,0
392,-83,0,0,0,0,0,0,0,0,0,-1,1616,1107,0,0
399,-83,0,0,0,0,0,0,0,0,0,-1,1623,1107,0,0
406,-83,0,0,0,0,0,0,0,0,0,-1,1630,1107,0,0
413,-83,0,0,0,0,0,0,0,0,0,-1,1637,1107,0,0
420,-83,0,0,0,0,0,0,0,0,0,-1,1644,1107,0,0
427,-83,0,0,0,0,0,0,0,0,0,-1,1651,1107,0,0
434,-83,0,0,0,0,0,0,0,0,0,-1,1658,1107,0,0
441,-83,0,0,0,0,0,0,0,0,0,-1,1665,1107,0,0
448,-83,0,0,0,0,0,0,0,0,0,-1,1672,1107,0,0
455,-83,0,0,0,0,0,0,0,0,0,-1,1679,1107,0,0
462,-83,0,0,0,0,0,0,0,0,0,-1,1686,1107,0,0
469,-83,0,0,0,0,0,0,0,0,0,-1,1693,1107,0,0
476,-83,0,0,0,0,0,0,0,0,0,-1,1700,1107,0,0
483,-83,0,0,0,0,0,0,0,0,0,-1,1707,1107,0,0
490,-83,0,0,0,0,0,0,0,0,0,-1,1714,1107,0,0
497,-83,0,0,0,0,0,0,0,0,0,-1,1721,1107,0,0
504,-83,0,0,0,0,0,0,0,0,0,-1,1728,1107,0,0
511,-83,0,0,0,0,0,0,0,0,0,-1,1735,1107,0,0
518,-83,0,0,0,0,0,0,0,0,0,-1,1742,1107,0,0
525,-83,0,0,0,0,0,0,0,0,0,-1,1749,1107,0,0
532,-83,0,0,0,0,0,0,0,0,0,-1,1756,1107,0,0
539,-83,0,0,0,0,0,0,0,0,0,-1,1763,1107,0,0
546,-83,0,0,0,0,0,0,0,0,0,-1,1770,1107,0,0
553,-83,0,0,0,0,0,0,0,0,0,-1,1777,1107,0,0
560,-83,0,0,0,0,0,0,0,0,0,-1,1784,1107,0,0
567,-83,0,0,0,0,0,0,0,0,0,-1,1791,1107,0,0
574,-83,0,0,0,0,0,0,0,0,0,-1,1798,1107,0,0
581,-83,0,0,0,0,0,0,0,0,0,-1,1805,1107,0,0
588,-83,0,0,0,0,0,0,0,0,0,-1,1812,1107,0,0
595,-83,0,0,0,0,0,0,0,0,0,-1,1819,1107,0,0
602,-83,0,0,0,0,0,0,0,0,0,-1,1826,1107,0,0
609,-83,0,0,0,0,0,0,0,0,0,-1,1833,1107,0,0
616,-83,0,0,0,0,0,0,0,0,0,-1,1840,1107,0,0
623,-83,0,0,0,0,0,0,0,0,0,-1,1847,1107,0,0
630,-83,0,0,0,0,0,0,0,0,0,-1,1854,1107,0,0
637,-83,0,0,0,0,0,0,0,0,0,-1,1861,1107,0,0
644,-83,46.4414,2.7821,0.00353867,-0.0028997,-0.00141087,0.00383427,-0.0031953,-0.206528,0.00406411,0.036314,1868,1107,46.4414,-2.78209
651,-83,46.5085,2.73535,0.00232972,-0.00210334,-0.00118364,0.00262596,-0.00239958,-0.245241,0.00290248,0.0409486,1875,1107,46.5085,-2.7353
658,-83,46.5132,2.79907,0.00160877,-0.00153425,-0.00108733,0.00194827,-0.00187374,-0.302636,0.00220678,0.0438491,1882,1107,46.5131,-2.79902
665,-83,46.3577,2.71082,0.0010537,-0.00109695,-0.00100062,0.00144724,-0.00149049,-0.374714,0.00169616,0.0397913,1889,1107,46.3576,-2.71084
672,-83,46.2799,2.88098,0.0006364,-0.000717274,-0.000894916,0.00108161,-0.00116248,-0.461633,0.00129591,0.0365018,1896,1107,46.2799,-2.88092
679,-83,46.3718,3.04724,0.000187597,-0.000494907,-0.00078555,0.000702815,-0.00101012,-0.58049,0.000994258,0.03695,1903,1107,46.3719,-3.04728
686,-83,46.4645,2.97815,-6.9763e-05,-0.000526757,-0.000583359,0.000328253,-0.000924774,-0.598736,0.000750264,0.0347214,1910,1107,46.4645,-2.97818
693,-83,46.4595,2.9032,-0.000121252,-0.000615729,-0.000374757,8.04742e-05,-0.000817456,-0.493806,0.00057368,0.0355023,1917,1107,46.4595,-2.90315
700,-83,46.3865,2.85242,-0.000179251,-0.000655552,-0.000183635,-0.000116673,-0.00071813,-0.32843,0.00044499,0.034477,1924,1107,46.3865,-2.85243
707,-83,46.3726,2.79248,-0.000387442,-0.000608395,0.000150788,-0.00031099,-0.000684847,0.469244,0.000395951,0.0241108,1931,1107,46.3726,-2.7925
714,-83,46.3955,2.8103,0,0,0,0,0,0,0,-1,1938,1107,46.3955,-2.81032
721,-83,44.0839,7.0061,0,0,0,0,0,0,0,-1,1945,1107,44.0839,-7.00615
728,-83,44.0703,6.74768,-0.00129656,1.31001e-05,0.000913872,0.000482531,-0.001766,1.09627,0.00136687,0.0386776,1952,1107,44.0703,-6.74766
735,-83,43.8179,6.46936,-0.00171324,0.00035743,0.000943627,0.000722934,-0.00207874,1.20125,0.0016795,0.0390865,1959,1107,43.8178,-6.46933
742,-83,43.9774,6.20325,-0.00181515,0.000919945,0.00109505,0.00130435,-0.00219955,1.2332,0.00204487,0.0235912,1966,1107,43.9774,-6.20319
749,-83,44.0155,5.91907,-0.00203038,0.00205707,0.000839046,0.00222261,-0.00219591,1.37601,0.00255105,0.0161439,1973,1107,44.0155,-5.91901
756,-83,44.0393,5.64539,-0.00221523,0.00377851,-0.000135082,0.00378155,-0.00221828,-1.54827,0.00350297,0.0162055,1980,1107,44.0393,-5.64533
763,-83,44.0024,5.35071,-0.00223546,0.00627918,-0.00191019,0.00668808,-0.00264436,-1.35992,0.00555412,0.0121553,1987,1107,44.0024,-5.35067
770,-83,43.9142,5.11304,-0.00204481,0.00957678,-0.00458323,0.0111667,-0.00363478,-1.23688,0.00890684,0.0151393,1994,1107,43.9142,-5.11304
777,-83,43.823,4.87244,-0.00154342,0.0136621,-0.00817695,0.0172246,-0.00510599,-1.15991,0.0135106,0.0176619,2001,1107,43.823,-4.8724
784,-83,43.6936,4.63708,-0.000711541,0.0185055,-0.0127714,0.0248792,-0.00708529,-1.1079,0.0193845,0.0269828,2008,1107,43.6936,-4.63707
791,-83,43.6448,4.11121,0.000585466,0.0244146,-0.0188186,0.0347732,-0.00977318,-1.06761,0.0270353,0.0426337,2015,1107,43.6449,-4.11122
798,-83,43.4822,3.40149,0.0026117,0.0316852,-0.0267349,0.0475799,-0.0132829,-1.03441,0.0369521,0.0452171,2022,1107,43.4821,-3.4015
805,-83,43.4023,2.26453,0.00530399,0.0406322,-0.0368513,0.0638342,-0.017898,-1.00889,0.0496103,0.0443117,2029,1107,43.4023,-2.26447
812,-83,43.4309,1.39893,0.00845982,0.0516106,-0.0494477,0.0839849,-0.0239145,-0.991111,0.0654347,0.0472772,2036,1107,43.4308,-1.39895
-700,-90,0,0,0,0,0,0,0,0,0,-1,524,1114,0,0
-693,-90,-28.5605,-0.899414,0,0,0,0,0,0,0,-1,531,1114,-28.5605,0.899385
-686,-90,-32.8344,0.886719,0,0,0,0,0,0,0,-1,538,1114,-32.8344,-0.88677
-679,-90,-31.9299,0.748901,0.0302541,0.0674299,-0.0660212,0.11743,-0.0197459,-0.922618,0.0856309,0.0423793,545,1114,-31.9299,-0.748941
-672,-90,-31.0489,0.629639,0.0226101,0.0539197,-0.052265,0.0928241,-0.0162942,-0.93091,0.0679683,0.0457133,552,1114,-31.0489,-0.629605
-665,-90,-31.5815,0.261108,0,0,0,0,0,0,0,-1,559,1114,-31.5815,-0.261118
-658,-90,-31.5668,0.744995,0.0122982,0.032934,-0.0304994,0.0548135,-0.00958127,-0.948504,0.0401193,0.0461231,566,1114,-31.5668,-0.745051
-651,-90,-31.5442,1.24475,0.00884187,0.0249292,-0.0223473,0.0406364,-0.00686526,-0.958149,0.0296455,0.0325715,573,1114,-31.5442,-1.24474
-644,-90,-31.5576,1.75476,0.00645173,0.0183005,-0.0158744,0.02932,-0.0045678,-0.963995,0.0212337,0.015595,580,1114,-31.5576,-1.75479
-637,-90,-31.5808,2.19226,0.00460164,0.0125864,-0.0105609,0.0198843,-0.00269632,-0.966112,0.0142403,0.0132132,587,1114,-31.5808,-2.19223
-630,-90,-31.5952,2.53406,0.00320082,0.00756802,-0.00595816,0.0117301,-0.000961272,-0.961042,0.0081594,0.0125427,594,1114,-31.5952,-2.53411
-623,-90,-31.6059,2.87744,0.00208625,0.00343129,-0.00363297,0.00645346,-0.000935927,-0.87692,0.00464582,0.0105083,601,1114,-31.6059,-2.87746
-616,-90,-31.6307,3.24146,0.00191678,0.0019062,-0.00181446,0.00372596,9.70183e-05,-0.78394,0.00245228,0.0125382,608,1114,-31.6307,-3.2415
-609,-90,-31.649,3.53406,0.00245689,0.000596529,-0.000857414,0.00279178,0.000261642,-0.372357,0.00178039,0.0181775,615,1114,-31.649,-3.534
-602,-90,-31.7346,3.8457,0.00239991,-0.000327036,-0.000595012,0.00252409,-0.000451211,-0.205741,0.00185155,0.0188018,622,1114,-31.7346,-3.84573
-595,-90,-31.5855,4.24316,0.00186214,-0.000680482,-0.000640877,0.00201454,-0.000832883,-0.233464,0.00169049,0.0157413,629,1114,-31.5855,-4.24314
-588,-90,-31.5704,4.52136,0,0,0,0,0,0,0,-1,636,1114,-31.5704,-4.52137
-581,-90,-34.1739,1.20349,0,0,0,0,0,0,0,-1,643,1114,-34.1739,-1.20354
-574,-90,-34.1559,1.03113,0.00146812,-0.00112706,-0.000916505,0.00175915,-0.00141809,-0.307475,0.0018379,0.0366019,650,1114,-34.156,-1.03108
-567,-90,-34.1796,0.875977,0.00127874,-0.0010676,-0.00105006,0.00168004,-0.00146889,-0.365039,0.0018194,0.0357763,657,1114,-34.1796,-0.87594
-560,-90,-34.2226,1.15662,0.000969078,-0.000907044,-0.00129083,0.0016267,-0.00156467,-0.471184,0.00184265,0.0397222,664,1114,-34.2226,-1.1566
-553,-90,-34.126,1.29004,0.000369216,-0.000699102,-0.00179964,0.0017123,-0.00204219,-0.641133,0.00217044,0.0424793,671,1114,-34.1261,-1.29006
-546,-90,-34.0709,1.10156,-0.000189053,-0.000505488,-0.00265406,0.0023115,-0.00300605,-0.755627,0.00307881,0.0441619,678,1114,-34.0709,-1.10159
-539,-90,-34.2131,1.09167,0.000308297,-0.000669679,-0.00398243,0.00383165,-0.00419303,-0.724311,0.00463462,0.0435725,685,1114,-34.2131,-1.0917
-532,-90,-34.3226,0.858032,0.00120112,-0.000819458,-0.00539048,0.00567517,-0.00529351,-0.692762,0.00633404,0.0431707,692,1114,-34.3226,-0.85798
-525,-90,0,0,0,0,0,0,0,0,0,-1,699,1114,0,0
-518,-90,0,0,0,0,0,0,0,0,0,-1,706,1114,0,0
-511,-90,0,0,0,0,0,0,0,0,0,-1,713,1114,0,0
-504,-90,0,0,0,0,0,0,0,0,0,-1,720,1114,0,0
-497,-90,0,0,0,0,0,0,0,0,0,-1,727,1114,0,0
-490,-90,0,0,0,0,0,0,0,0,0,-1,734,1114,0,0
-483,-90,0,0,0,0,0,0,0,0,0,-1,741,1114,0,0
-476,-90,0,0,0,0,0,0,0,0,0,-1,748,1114,0,0
-469,-90,0,0,0,0,0,0,0,0,0,-1,755,1114,0,0
-462,-90,0,0,0,0,0,0,0,0,0,-1,762,1114,0,0
-455,-90,0,0,0,0,0,0,0,0,0,-1,769,1114,0,0
-448,-90,0,0,0,0,0,0,0,0,0,-1,776,1114,0,0
-441,-90,0,0,0,0,0,0,0,0,0,-1,783,1114,0,0
-434,-90,0,0,0,0,0,0,0,0,0,-1,790,1114,0,0
-427,-90,0,0,0,0,0,0,0,0,0,-1,797,1114,0,0
-420,-90,0,0,0,0,0,0,0,0,0,-1,804,1114,0,0
-413,-90,0,0,0,0,0,0,0,0,0,-1,811,1114,0,0
-406,-90,0,0,0,0,0,0,0,0,0,-1,818,1114,0,0
-399,-90,0,0,0,0,0,0,0,0,0,-1,825,1114,0,0
-392,-90,0,0,0,0,0,0,0,0,0,-1,832,1114,0,0
-385,-90,0,0,0,0,0,0,0,0,0,-1,839,1114,0,0
-378,-90,0,0,0,0,0,0,0,0,0,-1,846,1114,0,0
-371,-90,0,0,0,0,0,0,0,0,0,-1,853,1114,0,0
-364,-90,0,0,0,0,0,0,0,0,0,-1,860,1114,0,0
-357,-90,0,0,0,0,0,0,0,0,0,-1,867,1114,0,0
-350,-90,0,0,0,0,0,0,0,0,0,-1,874,1114,0,0
-343,-90,0,0,0,0,0,0,0,0,0,-1,881,1114,0,0
-336,-90,0,0,0,0,0,0,0,0,0,-1,888,1114,0,0
-329,-90,0,0,0,0,0,0,0,0,0,-1,895,1114,0,0
-322,-90,0,0,0,0,0,0,0,0,0,-1,902,1114,0,0
-315,-90,0,0,0,0,0,0,0,0,0,-1,909,1114,0,0
-308,-90,0,0,0,0,0,0,0,0,0,-1,916,1114,0,0
-301,-90,0,0,0,0,0,0,0,0,0,-1,923,1114,0,0
-294,-90,0,0,0,0,0,0,0,0,0,-1,930,1114,0,0
-287,-90,0,0,0,0,0,0,0,0,0,-1,937,1114,0,0
-280,-90,0,0,0,0,0,0,0,0,0,-1,944,1114,0,0
-273,-90,0,0,0,0,0,0,0,0,0,-1,951,1114,0,0
-266,-90,0,0,0,0,0,0,0,0,0,-1,958,1114,0,0
-259,-90,0,0,0,0,0,0,0,0,0,-1,965,1114,0,0
-252,-90,0,0,0,0,0,0,0,0,0,-1,972,1114,0,0
-245,-90,0,0,0,0,0,0,0,0,0,-1,979,1114,0,0
-238,-90,0,0,0,0,0,0,0,0,0,-1,986,1114,0,0
-231,-90,0,0,0,0,0,0,0,0,0,-1,993,1114,0,0
-224,-90,0,0,0,0,0,0,0,0,0,-1,1000,1114,0,0
-217,-90,0,0,0,0,0,0,0,0,0,-1,1007,1114,0,0
-210,-90,0,0,0,0,0,0,0,0,0,-1,1014,1114,0,0
-203,-90,0,0,0,0,0,0,0,0,0,-1,1021,1114,0,0
-196,-90,0,0,0,0,0,0,0,0,0,-1,1028,1114,0,0
-189,-90,0,0,0,0,0,0,0,0,0,-1,1035,1114,0,0
-182,-90,0,0,0,0,0,0,0,0,0,-1,1042,1114,0,0
-175,-90,0,0,0,0,0,0,0,0,0,-1,1049,1114,0,0
-168,-90,0,0,0,0,0,0,0,0,0,-1,1056,1114,0,0
-161,-90,0,0,0,0,0,0,0,0,0,-1,1063,1114,0,0
-154,-90,0,0,0,0,0,0,0,0,0,-1,1070,1114,0,0
-147,-90,0,0,0,0,0,0,0,0,0,-1,1077,1114,0,0
-140,-90,0,0,0,0,0,0,0,0,0,-1,1084,1114,0,0
-133,-90,0,0,0,0,0,0,0,0,0,-1,1091,1114,0,0
-126,-90,0,0,0,0,0,0,0,0,0,-1,1098,1114,0,0
-119,-90,0,0,0,0,0,0,0,0,0,-1,1105,1114,0,0
-112,-90,0,0,0,0,0,0,0,0,0,-1,1112,1114,0,0
-105,-90,0,0,0,0,0,0,0,0,0,-1,1119,1114,0,0
-98,-90,0,0,0,0,0,0,0,0,0,-1,1126,1114,0,0
-91,-90,0,0,0,0,0,0,0,0,0,-1,1133,1114,0,0
-84,-90,0,0,0,0,0,0,0,0,0,-1,1140,1114,0,0
-77,-90,0,0,0,0,0,0,0,0,0,-1,1147,1114,0,0
-70,-90,0,0,0,0,0,0,0,0,0,-1,1154,1114,0,0
-63,-90,0,0,0,0,0,0,0,0,0,-1,1161,1114,0,0
-56,-90,0,0,0,0,0,0,0,0,0,-1,1168,1114,0,0
-49,-90,0,0,0,0,0,0,0,0,0,-1,1175,1114,0,0
-42,-90,0,0,0,0,0,0,0,0,0,-1,1182,1114,0,0
-35,-90,0,0,0,0,0,0,0,0,0,-1,1189,1114,0,0
-28,-90,0,0,0,0,0,0,0,0,0,-1,1196,1114,0,0
-21,-90,0,0,0,0,0,0,0,0,0,-1,1203,1114,0,0
-14,-90,0,0,0,0,0,0,0,0,0,-1,1210,1114,0,0
-7,-90,0,0,0,0,0,0,0,0,0,-1,1217,1114,0,0
0,-90,0,0,0,0,0,0,0,0,0,-1,1224,1114,0,0
7,-90,0,0,0,0,0,0,0,0,0,-1,1231,1114,0,0
14,-90,0,0,0,0,0,0,0,0,0,-1,1238,1114,0,0
21,-90,0,0,0,0,0,0,0,0,0,-1,1245,1114,0,0
28,-90,0,0,0,0,0,0,0,0,0,-1,1252,1114,0,0
35,-90,0,0,0,0,0,0,0,0,0,-1,1259,1114,0,0
42,-90,0,0,0,0,0,0,0,0,0,-1,1266,1114,0,0
49,-90,0,0,0,0,0,0,0,0,0,-1,1273,1114,0,0
56,-90,0,0,0,0,0,0,0,0,0,-1,1280,1114,0,0
63,-90,0,0,0,0,0,0,0,0,0,-1,1287,1114,0,0
70,-90,0,0,0,0,0,0,0,0,0,-1,1294,1114,0,0
77,-90,0,0,0,0,0,0,0,0,0,-1,1301,1114,0,0
84,-90,0,0,0,0,0,0,0,0,0,-1,1308,1114,0,0
91,-90,0,0,0,0,0,0,0,0,0,-1,1315,1114,0,0
98,-90,0,0,0,0,0,0,0,0,0,-1,1322,1114,0,0
105,-90,0,0,0,0,0,0,0,0,0,-1,1329,1114,0,0
112,-90,0,0,0,0,0,0,0,0,0,-1,1336,1114,0,0
119,-90,0,0,0,0,0,0,0,0,0,-1,1343,1114,0,0
126,-90,0,0,0,0,0,0,0,0,0,-1,1350,1114,0,0
133,-90,0,0,0,0,0,0,0,0,0,-1,1357,1114,0,0
140,-90,0,0,0,0,0,0,0,0,0,-1,1364,1114,0,0
147,-90,0,0,0,0,0,0,0,0,0,-1,1371,1114,0,0
154,-90,0,0,0,0,0,0,0,0,0,-1,1378,1114,0,0
161,-90,0,0,0,0,0,0,0,0,0,-1,1385,1114,0,0
168,-90,0,0,0,0,0,0,0,0,0,-1,1392,1114,0,0
175,-90,0,0,0,0,0,0,0,0,0,-1,1399,1114,0,0
182,-90,0,0,0,0,0,0,0,0,0,-1,1406,1114,0,0
189,-90,0,0,0,0,0,0,0,0,0,-1,1413,1114,0,0
196,-90,0,0,0,0,0,0,0,0,0,-1,1420,1114,0,0
203,-90,0,0,0,0,0,0,0,0,0,-1,1427,1114,0,0
210,-90,0,0,0,0,0,0,0,0,0,-1,1434,1114,0,0
217,-90,0,0,0,0,0,0,0,0,0,-1,1441,1114,0,0
224,-90,0,0,0,0,0,0,0,0,0,-1,1448,1114,0,0
231,-90,0,0,0,0,0,0,0,0,0,-1,1455,1114,0,0
238,-90,0,0,0,0,0,0,0,0,0,-1,1462,1114,0,0
245,-90,0,0,0,0,0,0,0,0,0,-1,1469,1114,0,0
252,-90,0,0,0,0,0,0,0,0,0,-1,1476,1114,0,0
259,-90,0,0,0,0,0,0,0,0,0,-1,1483,1114,0,0
266,-90,0,0,0,0,0,0,0,0,0,-1,1490,1114,0,0
273,-90,0,0,0,0,0,0,0,0,0,-1,1497,1114,0,0
280,-90,0,0,0,0,0,0,0,0,0,-1,1504,1114,0,0
287,-90,0,0,0,0,0,0,0,0,0,-1,1511,1114,0,0
294,-90,0,0,0,0,0,0,0,0,0,-1,1518,1114,0,0
301,-90,0,0,0,0,0,0,0,0,0,-1,1525,1114,0,0
308,-90,0,0,0,0,0,0,0,0,0,-1,1532,1114,0,0
315,-90,0,0,0,0,0,0,0,0,0,-1,1539,1114,0,0
322,-90,0,0,0,0,0,0,0,0,0,-1,1546,1114,0,0
329,-90,0,0,0,0,0,0,0,0,0,-1,1553,1114,0,0
336,-90,0,0,0,0,0,0,0,0,0,-1,1560,1114,0,0
343,-90,0,0,0,0,0,0,0,0,0,-1,1567,1114,0,0
350,-90,0,0,0,0,0,0,0,0,0,-1,1574,1114,0,0
357,-90,0,0,0,0,0,0,0,0,0,-1,1581,1114,0,0
364,-90,0,0,0,0,0,0,0,0,0,-1,1588,1114,0,0
371,-90,0,0,0,0,0,0,0,0,0,-1,1595,1114,0,0
378,-90,0,0,0,0,0,0,0,0,0,-1,1602,1114,0,0
385,-90,0,0,0,0,0,0,0,0,0,-1,1609,1114,0,0
392,-90,0,0,0,0,0,0,0,0,0,-1,1616,1114,0,0
399,-90,0,0,0,0,0,0,0,0,0,-1,1623,1114,0,0
406,-90,0,0,0,0,0,0,0,0,0,-1,1630,1114,0,0
413,-90,0,0,0,0,0,0,0,0,0,-1,1637,1114,0,0
420,-90,0,0,0,0,0,0,0,0,0,-1,1644,1114,0,0
427,-90,0,0,0,0,0,0,0,0,0,-1,1651,1114,0,0
434,-90,0,0,0,0,0,0,0,0,0,-1,1658,1114,0,0
441,-90,0,0,0,0,0,0,0,0,0,-1,1665,1114,0,0
448,-90,0,0,0,0,0,0,0,0,0,-1,1672,1114,0,0
455,-90,0,0,0,0,0,0,0,0,0,-1,1679,1114,0,0
462,-90,0,0,0,0,0,0,0,0,0,-1,1686,1114,0,0
469,-90,0,0,0,0,0,0,0,0,0,-1,1693,1114,0,0
476,-90,0,0,0,0,0,0,0,0,0,-1,1700,1114,0,0
483,-90,0,0,0,0,0,0,0,0,0,-1,1707,1114,0,0
490,-90,0,0,0,0,0,0,0,0,0,-1,1714,1114,0,0
497,-90,0,0,0,0,0,0,0,0,0,-1,1721,1114,0,0
504,-90,0,0,0,0,0,0,0,0,0,-1,1728,1114,0,0
511,-90,0,0,0,0,0,0,0,0,0,-1,1735,1114,0,0
518,-90,0,0,0,0,0,0,0,0,0,-1,1742,1114,0,0
525,-90,0,0,0,0,0,0,0,0,0,-1,1749,1114,0,0
532,-90,0,0,0,0,0,0,0,0,0,-1,1756,1114,0,0
539,-90,0,0,0,0,0,0,0,0,0,-1,1763,1114,0,0
546,-90,0,0,0,0,0,0,0,0,0,-1,1770,1114,0,0
553,-90,0,0,0,0,0,0,0,0,0,-1,1777,1114,0,0
560,-90,0,0,0,0,0,0,0,0,0,-1,1784,1114,0,0
567,-90,0,0,0,0,0,0,0,0,0,-1,1791,1114,0,0
574,-90,0,0,0,0,0,0,0,0,0,-1,1798,1114,0,0
581,-90,0,0,0,0,0,0,0,0,0,-1,1805,1114,0,0
588,-90,0,0,0,0,0,0,0,0,0,-1,1812,1114,0,0
595,-90,0,0,0,0,0,0,0,0,0,-1,1819,1114,0,0
602,-90,0,0,0,0,0,0,0,0,0,-1,1826,1114,0,0
609,-90,0,0,0,0,0,0,0,0,0,-1,1833,1114,0,0
616,-90,0,0,0,0,0,0,0,0,0,-1,1840,1114,0,0
623,-90,0,0,0,0,0,0,0,0,0,-1,1847,1114,0,0
630,-90,0,0,0,0,0,0,0,0,0,-1,1854,1114,0,0
637,-90,0,0,0,0,0,0,0,0,0,-1,1861,1114,0,0
644,-90,46.4287,2.76099,0.00208544,-0.00243756,-0.000856014,0.00224202,-0.00259415,-0.180925,0.00279463,0.0367608,1868,1114,46.4287,-2.76095
651,-90,46.4645,2.72729,0.00127554,-0.00180244,-0.000893013,0.00151586,-0.00204277,-0.262889,0.00206207,0.0399398,1875,1114,46.4645,-2.7273
658,-90,46.4319,2.76294,0.000874107,-0.00133237,-0.000958582,0.00123238,-0.00169065,-0.357676,0.00169451,0.0421852,1882,1114,46.4319,-2.76291
665,-90,46.3032,2.61096,0.000554601,-0.000955089,-0.000981004,0.00103756,-0.00143805,-0.457478,0.00143551,0.0426,1889,1114,46.3032,-2.61097
672,-90,46.3488,2.78235,0.000328711,-0.000622571,-0.000966279,0.00093007,-0.00122393,-0.556688,0.00124746,0.0424295,1896,1114,46.3488,-2.78236
679,-90,46.4618,2.90649,8.84461e-06,-0.000450135,-0.000904665,0.000712674,-0.00115396,-0.661182,0.0010877,0.0386379,1903,1114,46.4617,-2.90647
686,-90,46.4329,2.93591,-0.000148253,-0.000498965,-0.000742128,0.000438955,-0.00108617,-0.669382,0.000906577,0.0345373,1910,1114,46.4329,-2.93597
693,-90,46.4034,2.92651,-0.00013093,-0.000587487,-0.000561158,0.000246605,-0.000965021,-0.592221,0.000739387,0.0352817,1917,1114,46.4035,-2.92655
700,-90,46.3901,2.89551,-0.000155339,-0.00063619,-0.000400364,7.12425e-05,-0.000862771,-0.514998,0.000600339,0.0346556,1924,1114,46.3901,-2.89556
707,-90,46.366,2.76477,-0.000331007,-0.000598615,-8.70068e-05,-0.000305206,-0.000624416,-0.288277,0.000360537,0.0252128,1931,1114,46.3659,-2.76475
714,-90,46.3434,2.62988,0,0,0,0,0,0,0,-1,1938,1114,46.3434,-2.62986
721,-90,43.703,7.10242,0,0,0,0,0,0,0,-1,1945,1114,43.703,-7.10237
728,-90,43.6936,6.87805,-0.00117122,-4.59797e-06,0.000741517,0.000355541,-0.00153136,1.11867,0.00115776,0.0285751,1952,1114,43.6936,-6.87806
735,-90,43.5179,6.54724,-0.00169314,0.000282734,0.000808836,0.000571604,-0.00198201,1.22777,0.00154747,0.0327328,1959,1114,43.518,-6.54727
742,-90,43.611,6.19104,-0.00197059,0.000797273,0.00102561,0.00113588,-0.0023092,1.25191,0.00202711,0.02814,1966,1114,43.611,-6.19102
749,-90,43.8347,5.80469,-0.00235846,0.00189336,0.000809436,0.00204225,-0.00250734,1.3889,0.00263127,0.0178277,1973,1114,43.8348,-5.8047
756,-90,43.7969,5.56079,-0.00276866,0.00359623,-9.99708e-05,0.0035978,-0.00277023,-1.55509,0.00368691,0.0163018,1980,1114,43.7969,-5.56076
763,-90,43.7274,5.30017,-0.00311405,0.00610535,-0.00182248,0.00645255,-0.00346124,-1.38255,0.00580993,0.0129756,1987,1114,43.7274,-5.30019
770,-90,43.6664,5.02722,-0.00341212,0.00937195,-0.00438729,0.0107328,-0.00477292,-1.27004,0.00916998,0.016346,1994,1114,43.6664,-5.02724
777,-90,43.5879,4.79211,-0.00349952,0.013388,-0.00783794,0.0164651,-0.00657663,-1.19669,0.0137054,0.0158794,2001,1114,43.5879,-4.79214
784,-90,43.4795,4.58533,-0.00329613,0.0182361,-0.01237,0.0238689,-0.00892898,-1.14349,0.0195798,0.0296543,2008,1114,43.4794,-4.58529
791,-90,43.21,3.9281,-0.00264094,0.0242535,-0.0184646,0.0336485,-0.012036,-1.10012,0.0273421,0.042865,2015,1114,43.2099,-3.92813
798,-90,43.3354,2.93591,-0.00121884,0.0317813,-0.026577,0.0465636,-0.0160012,-1.0632,0.0375309,0.043455,2022,1114,43.3354,-2.93595
805,-90,43.4705,1.83008,0.00093114,0.0412042,-0.0371194,0.0632971,-0.0211618,-1.03392,0.0507448,0.0463238,2029,1114,43.4705,-1.83007
812,-90,43.5781,0.781616,0,0,0,0,0,0,0,-1,2036,1114,43.5782,-0.78156
-700,-97,0,0,0,0,0,0,0,0,0,-1,524,1121,0,0
-693,-97,-32.7571,0.440796,0,0,0,0,0,0,0,-1,531,1121,-32.7571,-0.440846
-686,-97,-31.8504,0.342896,0.021494,0.081233,-0.086109,0.142506,-0.0397789,-0.952345,0.110673,0.0461731,538,1121,-31.8504,-0.342898
-679,-97,-30.9394,0.236084,0.0156795,0.0647212,-0.069698,0.114086,-0.0336852,-0.954544,0.0894261,0.0468408,545,1121,-30.9394,-0.236074
-672,-97,-30.2331,0.343872,0.0117139,0.0511835,-0.0554212,0.0902787,-0.0273813,-0.956442,0.0710929,0.0477769,552,1121,-30.2331,-0.343898
-665,-97,-37.4724,-3.23083,0.00880967,0.03997,-0.043093,0.0702128,-0.0214332,-0.958861,0.0553538,0.049406,559,1121,-37.4724,3.23083
-658,-97,-31.2237,0.715454,0,0,0,0,0,0,0,-1,566,1121,-31.2237,-0.715489
-651,-97,-31.2134,1.37732,0.00475927,0.0230053,-0.024048,0.0396026,-0.011838,-0.966695,0.0311079,0.0334342,573,1121,-31.2135,-1.37731
-644,-97,-31.2318,1.77551,0.00361917,0.0167257,-0.0171355,0.0285183,-0.00817343,-0.968036,0.022243,0.0130226,580,1121,-31.2318,-1.77556
-637,-97,-31.2265,2.1748,0.00273248,0.0113688,-0.0114137,0.0192539,-0.00515259,-0.966242,0.0148544,0.0134551,587,1121,-31.2265,-2.17483
-630,-97,-31.2369,2.51624,0.00207885,0.00665176,-0.00637384,0.0111368,-0.00240623,-0.957612,0.00834312,0.0104041,594,1121,-31.2369,-2.51626
-623,-97,-31.2522,2.86682,0.0014568,0.00269942,-0.00376737,0.00589637,-0.00174015,-0.867122,0.00462149,0.0122649,601,1121,-31.2522,-2.86683
-616,-97,-31.2863,3.23108,0.00159151,0.00142581,-0.00176052,0.00327112,-0.000253804,-0.761885,0.00227009,0.0180883,608,1121,-31.2862,-3.23109
-609,-97,-31.3683,3.59167,0.00220068,0.000379408,-0.000687352,0.00243097,0.000149119,-0.323285,0.00157329,0.0248508,615,1121,-31.3683,-3.59168
-602,-97,-31.4039,3.87732,0.00223907,-0.00034605,-0.000396142,0.00229841,-0.000405392,-0.148695,0.00168375,0.0228202,622,1121,-31.4039,-3.87736
-595,-97,-31.2345,4.24243,0.00167316,-0.000577774,-0.00040705,0.00174451,-0.000649122,-0.173517,0.00142939,0.0186468,629,1121,-31.2345,-4.24243
-588,-97,-31.1953,4.57959,0,0,0,0,0,0,0,-1,636,1121,-31.1953,-4.57953
-581,-97,-34.1438,0.853027,0,0,0,0,0,0,0,-1,643,1121,-34.1438,-0.852967
-574,-97,-34.1737,0.943726,0.0014419,-0.000763109,-0.000800918,0.00170211,-0.00102332,-0.31413,0.00158971,0.0496958,650,1121,-34.1737,-0.94374
-567,-97,-34.1932,1.02319,0.00138288,-0.000634118,-0.000978037,0.00177924,-0.00103048,-0.385033,0.00164128,0.0359091,657,1121,-34.1932,-1.02314
-560,-97,-34.1523,1.10693,0.00124064,-0.000398116,-0.00127391,0.00193593,-0.00109341,-0.499608,0.0017714,0.0400723,664,1121,-34.1523,-1.10694
-553,-97,-34.107,1.20007,0.000799479,-9.79743e-05,-0.0018873,0.00229066,-0.00158916,-0.668685,0.00225219,0.0442636,671,1121,-34.107,-1.20005
-546,-97,-34.0974,1.28418,0.000451118,0.000228398,-0.00290476,0.00324666,-0.00256714,-0.766239,0.00336423,0.0439705,678,1121,-34.0974,-1.28418
-539,-97,-34.2203,1.17053,0.00126062,0.00027112,-0.00447576,0.0052689,-0.00373715,-0.730352,0.00522465,0.0396428,685,1121,-34.2204,-1.17055
-532,-97,-34.408,0.937866,0.0026124,0.000305455,-0.00615577,0.00772184,-0.00480398,-0.692782,0.0072969,0.0381425,692,1121,-34.408,-0.937894
-525,-97,0,0,0,0,0,0,0,0,0,-1,699,1121,0,0
-518,-97,0,0,0,0,0,0,0,0,0,-1,706,1121,0,0
-511,-97,0,0,0,0,0,0,0,0,0,-1,713,1121,0,0
-504,-97,0,0,0,0,0,0,0,0,0,-1,720,1121,0,0
-497,-97,0,0,0,0,0,0,0,0,0,-1,727,1121,0,0
-490,-97,0,0,0,0,0,0,0,0,0,-1,734,1121,0,0
-483,-97,0,0,0,0,0,0,0,0,0,-1,741,1121,0,0
-476,-97,0,0,0,0,0,0,0,0,0,-1,748,1121,0,0
-469,-97,0,0,0,0,0,0,0,0,0,-1,755,1121,0,0
-462,-97,0,0,0,0,0,0,0,0,0,-1,762,1121,0,0
-455,-97,0,0,0,0,0,0,0,0,0,-1,769,1121,0,0
-448,-97,0,0,0,0,0,0,0,0,0,-1,776,1121,0,0
-441,-97,0,0,0,0,0,0,0,0,0,-1,783,1121,0,0
-434,-97,0,0,0,0,0,0,0,0,0,-1,790,1121,0,0
-427,-97,0,0,0,0,0,0,0,0,0,-1,797,1121,0,0
-420,-97,0,0,0,0,0,0,0,0,0,-1,804,1121,0,0
-413,-97,0,0,0,0,0,0,0,0,0,-1,811,1121,0,0
-406,-97,0,0,0,0,0,0,0,0,0,-1,818,1121,0,0
-399,-97,0,0,0,0,0,0,0,0,0,-1,825,1121,0,0
-392,-97,0,0,0,0,0,0,0,0,0,-1,832,1121,0,0
-385,-97,0,0,0,0,0,0,0,0,0,-1,839,1121,0,0
-378,-97,0,0,0,0,0,0,0,0,0,-1,846,1121,0,0
-371,-97,0,0,0,0,0,0,0,0,0,-1,853,1121,0,0
-364,-97,0,0,0,0,0,0,0,0,0,-1,860,1121,0,0
-357,-97,0,0,0,0,0,0,0,0,0,-1,867,1121,0,0
-350,-97,0,0,0,0,0,0,0,0,0,-1,874,1121,0,0
-343,-97,0,0,0,0,0,0,0,0,0,-1,881,1121,0,0
-336,-97,0,0,0,0,0,0,0,0,0,-1,888,1121,0,0
-329,-97,0,0,0,0,0,0,0,0,0,-1,895,1121,0,0
-322,-97,0,0,0,0,0,0,0,0,0,-1,902,1121,0,0
-315,-97,0,0,0,0,0,0,0,0,0,-1,909,1121,0,0
-308,-97,0,0,0,0,0,0,0,0,0,-1,916,1121,0,0
-301,-97,0,0,0,0,0,0,0,0,0,-1,923,1121,0,0
-294,-97,0,0,0,0,0,0,0,0,0,-1,930,1121,0,0
-287,-97,0,0,0,0,0,0,0,0,0,-1,937,1121,0,0
-280,-97,0,0,0,0,0,0,0,0,0,-1,944,1121,0,0
-273,-97,0,0,0,0,0,0,0,0,0,-1,951,1121,0,0
-266,-97,0,0,0,0,0,0,0,0,0,-1,958,1121,0,0
-259,-97,0,0,0,0,0,0,0,0,0,-1,965,1121,0,0
-252,-97,0,0,0,0,0,0,0,0,0,-1,972,1121,0,0
-245,-97,0,0,0,0,0,0,0,0,0,-1,979,1121,0,0
-238,-97,0,0,0,0,0,0,0,0,0,-1,986,1121,0,0
-231,-97,0,0,0,0,0,0,0,0,0,-1,993,1121,0,0
-224,-97,0,0,0,0,0,0,0,0,0,-1,1000,1121,0,0
-217,-97,0,0,0,0,0,0,0,0,0,-1,1007,1121,0,0
-210,-97,0,0,0,0,0,0,0,0,0,-1,1014,1121,0,0
-203,-97,0,0,0,0,0,0,0,0,0,-1,1021,1121,0,0
-196,-97,0,0,0,0,0,0,0,0,0,-1,1028,1121,0,0
-189,-97,0,0,0,0,0,0,0,0,0,-1,1035,1121,0,0
-182,-97,0,0,0,0,0,0,0,0,0,-1,1042,1121,0,0
-175,-97,0,0,0,0,0,0,0,0,0,-1,1049,1121,0,0
-168,-97,0,0,0,0,0,0,0,0,0,-1,1056,1121,0,0
-161,-97,0,0,0,0,0,0,0,0,0,-1,1063,1121,0,0
-154,-97,0,0,0,0,0,0,0,0,0,-1,1070,1121,0,0
-147,-97,0,0,0,0,0,0,0,0,0,-1,1077,1121,0,0
-140,-97,0,0,0,0,0,0,0,0,0,-1,1084,1121,0,0
-133,-97,0,0,0,0,0,0,0,0,0,-1,1091,1121,0,0
-126,-97,0,0,0,0,0,0,0,0,0,-1,1098,1121,0,0
-119,-97,0,0,0,0,0,0,0,0,0,-1,1105,1121,0,0
-112,-97,0,0,0,0,0,0,0,0,0,-1,1112,1121,0,0
-105,-97,0,0,0,0,0,0,0,0,0,-1,1119,1121,0,0
-98,-97,0,0,0,0,0,0,0,0,0,-1,1126,1121,0,0
-91,-97,0,0,0,0,0,0,0,0,0,-1,1133,1121,0,0
-84,-97,0,0,0,0,0,0,0,0,0,-1,1140,1121,0,0
-77,-97,0,0,0,0,0,0,0,0,0,-1,1147,1121,0,0
-70,-97,0,0,0,0,0,0,0,0,0,-1,1154,1121,0,0
-63,-97,0,0,0,0,0,0,0,0,0,-1,1161,1121,0,0
-56,-97,0,0,0,0,0,0,0,0,0,-1,1168,1121,0,0
-49,-97,0,0,0,0,0,0,0,0,0,-1,1175,1121,0,0
-42,-97,0,0,0,0,0,0,0,0,0,-1,1182,1121,0,0
-35,-97,0,0,0,0,0,0,0,0,0,-1,1189,1121,0,0
-28,-97,0,0,0,0,0,0,0,0,0,-1,1196,1121,0,0
-21,-97,0,0,0,0,0,0,0,0,0,-1,1203,1121,0,0
-14,-97,0,0,0,0,0,0,0,0,0,-1,1210,1121,0,0
-7,-97,0,0,0,0,0,0,0,0,0,-1,1217,1121,0,0
0,-97,0,0,0,0,0,0,0,0,0,-1,1224,1121,0,0
7,-97,0,0,0,0,0,0,0,0,0,-1,1231,1121,0,0
14,-97,0,0,0,0,0,0,0,0,0,-1,1238,1121,0,0
21,-97,0,0,0,0,0,0,0,0,0,-1,1245,1121,0,0
28,-97,0,0,0,0,0,0,0,0,0,-1,1252,1121,0,0
35,-97,0,0,0,0,0,0,0,0,0,-1,1259,1121,0,0
42,-97,0,0,0,0,0,0,0,0,0,-1,1266,1121,0,0
49,-97,0,0,0,0,0,0,0,0,0,-1,1273,1121,0,0
56,-97,0,0,0,0,0,0,0,0,0,-1,1280,1121,0,0
63,-97,0,0,0,0,0,0,0,0,0,-1,1287,1121,0,0
70,-97,0,0,0,0,0,0,0,0,0,-1,1294,1121,0,0
77,-97,0,0,0,0,0,0,0,0,0,-1,1301,1121,0,0
84,-97,0,0,0,0,0,0,0,0,0,-1,1308,1121,0,0
91,-97,0,0,0,0,0,0,0,0,0,-1,1315,1121,0,0
98,-97,0,0,0,0,0,0,0,0,0,-1,1322,1121,0,0
105,-97,0,0,0,0,0,0,0,0,0,-1,1329,1121,0,0
112,-97,0,0,0,0,0,0,0,0,0,-1,1336,1121,0,0
119,-97,0,0,0,0,0,0,0,0,0,-1,1343,1121,0,0
126,-97,0,0,0,0,0,0,0,0,0,-1,1350,1121,0,0
133,-97,0,0,0,0,0,0,0,0,0,-1,1357,1121,0,0
140,-97,0,0,0,0,0,0,0,0,0,-1,1364,1121,0,0
147,-97,0,0,0,0,0,0,0,0,0,-1,1371,1121,0,0
154,-97,0,0,0,0,0,0,0,0,0,-1,1378,1121,0,0
161,-97,0,0,0,0,0,0,0,0,0,-1,1385,1121,0,0
168,-97,0,0,0,0,0,0,0,0,0,-1,1392,1121,0,0
175,-97,0,0,0,0,0,0,0,0,0,-1,1399,1121,0,0
182,-97,0,0,0,0,0,0,0,0,0,-1,1406,1121,0,0
189,-97,0,0,0,0,0,0,0,0,0,-1,1413,1121,0,0
196,-97,0,0,0,0,0,0,0,0,0,-1,1420,1121,0,0
203,-97,0,0,0,0,0,0,0,0,0,-1,1427,1121,0,0
210,-97,0,0,0,0,0,0,0,0,0,-1,1434,1121,0,0
217,-97,0,0,0,0,0,0,0,0,0,-1,1441,1121,0,0
224,-97,0,0,0,0,0,0,0,0,0,-1,1448,1121,0,0
231,-97,0,0,0,0,0,0,0,0,0,-1,1455,1121,0,0
238,-97,0,0,0,0,0,0,0,0,0,-1,1462,1121,0,0
245,-97,0,0,0,0,0,0,0,0,0,-1,1469,1121,0,0
252,-97,0,0,0,0,0,0,0,0,0,-1,1476,1121,0,0
259,-97,0,0,0,0,0,0,0,0,0,-1,1483,1121,0,0
266,-97,0,0,0,0,0,0,0,0,0,-1,1490,1121,0,0
273,-97,0,0,0,0,0,0,0,0,0,-1,1497,1121,0,0
280,-97,0,0,0,0,0,0,0,0,0,-1,1504,1121,0,0
287,-97,0,0,0,0,0,0,0,0,0,-1,1511,1121,0,0
294,-97,0,0,0,0,0,0,0,0,0,-1,1518,1121,0,0
301,-97,0,0,0,0,0,0,0,0,0,-1,1525,1121,0,0
308,-97,0,0,0,0,0,0,0,0,0,-1,1532,1121,0,0
315,-97,0,0,0,0,0,0,0,0,0,-1,1539,1121,0,0
322,-97,0,0,0,0,0,0,0,0,0,-1,1546,1121,0,0
329,-97,0,0,0,0,0,0,0,0,0,-1,1553,1121,0,0
336,-97,0,0,0,0,0,0,0,0,0,-1,1560,1121,0,0
343,-97,0,0,0,0,0,0,0,0,0,-1,1567,1121,0,0
350,-97,0,0,0,0,0,0,0,0,0,-1,1574,1121,0,0
357,-97,0,0,0,0,0,0,0,0,0,-1,1581,1121,0,0
364,-97,0,0,0,0,0,0,0,0,0,-1,1588,1121,0,0
371,-97,0,0,0,0,0,0,0,0,0,-1,1595,1121,0,0
378,-97,0,0,0,0,0,0,0,0,0,-1,1602,1121,0,0
385,-97,0,0,0,0,0,0,0,0,0,-1,1609,1121,0,0
392,-97,0,0,0,0,0,0,0,0,0,-1,1616,1121,0,0
399,-97,0,0,0,0,0,0,0,0,0,-1,1623,1121,0,0
406,-97,0,0,0,0,0,0,0,0,0,-1,1630,1121,0,0
413,-97,0,0,0,0,0,0,0,0,0,-1,1637,1121,0,0
420,-97,0,0,0,0,0,0,0,0,0,-1,1644,1121,0,0
427,-97,0,0,0,0,0,0,0,0,0,-1,1651,1121,0,0
434,-97,0,0,0,0,0,0,0,0,0,-1,1658,1121,0,0
441,-97,0,0,0,0,0,0,0,0,0,-1,1665,1121,0,0
448,-97,0,0,0,0,0,0,0,0,0,-1,1672,1121,0,0
455,-97,0,0,0,0,0,0,0,0,0,-1,1679,1121,0,0
462,-97,0,0,0,0,0,0,0,0,0,-1,1686,1121,0,0
469,-97,0,0,0,0,0,0,0,0,0,-1,1693,1121,0,0
476,-97,0,0,0,0,0,0,0,0,0,-1,1700,1121,0,0
483,-97,0,0,0,0,0,0,0,0,0,-1,1707,1121,0,0
490,-97,0,0,0,0,0,0,0,0,0,-1,1714,1121,0,0
497,-97,0,0,0,0,0,0,0,0,0,-1,1721,1121,0,0
504,-97,0,0,0,0,0,0,0,0,0,-1,1728,1121,0,0
511,-97,0,0,0,0,0,0,0,0,0,-1,1735,1121,0,0
518,-97,0,0,0,0,0,0,0,0,0,-1,1742,1121,0,0
525,-97,0,0,0,0,0,0,0,0,0,-1,1749,1121,0,0
532,-97,0,0,0,0,0,0,0,0,0,-1,1756,1121,0,0
539,-97,0,0,0,0,0,0,0,0,0,-1,1763,1121,0,0
546,-97,0,0,0,0,0,0,0,0,0,-1,1770,1121,0,0
553,-97,0,0,0,0,0,0,0,0,0,-1,1777,1121,0,0
560,-97,0,0,0,0,0,0,0,0,0,-1,1784,1121,0,0
567,-97,0,0,0,0,0,0,0,0,0,-1,1791,1121,0,0
574,-97,0,0,0,0,0,0,0,0,0,-1,1798,1121,0,0
581,-97,0,0,0,0,0,0,0,0,0,-1,1805,1121,0,0
588,-97,0,0,0,0,0,0,0,0,0,-1,1812,1121,0,0
595,-97,0,0,0,0,0,0,0,0,0,-1,1819,1121,0,0
602,-97,0,0,0,0,0,0,0,0,0,-1,1826,1121,0,0
609,-97,0,0,0,0,0,0,0,0,0,-1,1833,1121,0,0
616,-97,0,0,0,0,0,0,0,0,0,-1,1840,1121,0,0
623,-97,0,0,0,0,0,0,0,0,0,-1,1847,1121,0,0
630,-97,0,0,0,0,0,0,0,0,0,-1,1854,1121,0,0
637,-97,0,0,0,0,0,0,0,0,0,-1,1861,1121,0,0
644,-97,46.3737,3.00244,0.000315048,-0.00207002,-0.000282144,0.00034797,-0.00210294,-0.11616,0.00153119,0.0389645,1868,1121,46.3737,-3.00246
651,-97,46.462,3.09607,1.25547e-05,-0.00147293,-0.000569119,0.000205527,-0.00166591,-0.326906,0.00118507,0.0381975,1875,1121,46.4621,-3.09609
658,-97,46.4503,3.00098,-1.80871e-05,-0.00106035,-0.000790335,0.000407463,-0.0014859,-0.493927,0.00115073,0.0389278,1882,1121,46.4504,-3.00093
665,-97,46.4056,2.88257,-5.29546e-05,-0.000734336,-0.000912599,0.000580473,-0.00136776,-0.60675,0.00115502,0.0425061,1889,1121,46.4057,-2.88252
672,-97,46.4127,2.84692,-4.52436e-05,-0.000457697,-0.000967453,0.000737719,-0.00124066,-0.680388,0.00115445,0.0433653,1896,1121,46.4127,-2.8469
679,-97,46.4431,2.85718,-0.000207294,-0.000356703,-0.000931103,0.000652096,-0.00121609,-0.745368,0.00109486,0.0410674,1903,1121,46.4431,-2.85721
686,-97,46.4407,2.80762,-0.000238123,-0.000426063,-0.000791511,0.000464976,-0.00112916,-0.726314,0.00094663,0.0351263,1910,1121,46.4406,-2.80759
693,-97,46.3993,2.80042,-0.00013723,-0.000509173,-0.00062769,0.000331458,-0.000977862,-0.641378,0.000786045,0.0335271,1917,1121,46.3993,-2.80047
700,-97,46.3756,2.81152,-0.000107801,-0.000581735,-0.000492114,0.000201428,-0.000890963,-0.561017,0.000671269,0.0299713,1924,1121,46.3756,-2.81151
707,-97,46.3512,2.78662,-0.000231871,-0.000574538,-0.000208462,-0.000133368,-0.000673041,-0.441424,0.000411506,0.0258842,1931,1121,46.3512,-2.78661
714,-97,46.3105,2.69031,0,0,0,0,0,0,0,-1,1938,1121,46.3105,-2.69033
721,-97,43.4629,7.05261,0,0,0,0,0,0,0,-1,1945,1121,43.4629,-7.05256
728,-97,43.4341,6.85413,-0.00103164,-1.09374e-05,0.000677916,0.000327257,-0.00136983,1.10805,0.00103962,0.0249749,1952,1121,43.4341,-6.8541
735,-97,43.4038,6.49585,-0.00165779,0.000242048,0.000781271,0.00052206,-0.0019378,1.22665,0.00149656,0.0250323,1959,1121,43.4039,-6.49587
742,-97,43.3915,6.17126,-0.00210742,0.000719942,0.00103484,0.00105823,-0.00244571,1.25485,0.00207519,0.019556,1966,1121,43.3914,-6.17128
749,-97,43.4673,5.83057,-0.00269119,0.00177347,0.000842578,0.00192719,-0.00284491,1.39034,0.0027721,0.0204845,1973,1121,43.4673,-5.83055
756,-97,43.4623,5.52466,-0.00336956,0.00343806,8.12346e-06,0.00343806,-0.00336957,1.5696,0.00393046,0.0155818,1980,1121,43.4623,-5.5247
763,-97,43.3954,5.27771,-0.00410983,0.00593705,-0.00164998,0.00620108,-0.00437387,-1.41212,0.00613575,0.0134234,1987,1121,43.3954,-5.2777
770,-97,43.361,5.03333,-0.00495199,0.00915582,-0.00409652,0.0102591,-0.00605523,-1.30773,0.00952272,0.0121697,1994,1121,43.3609,-5.03327
777,-97,43.3287,4.74622,-0.00565324,0.013101,-0.00739971,0.015669,-0.00822125,-1.23676,0.0140147,0.0160858,2001,1121,43.3287,-4.7462
784,-97,43.2656,4.43457,-0.0061287,0.0179475,-0.0118509,0.022802,-0.0109832,-1.18202,0.0198997,0.0363464,2008,1121,43.2656,-4.43459
791,-97,43.3032,3.45325,-0.00618923,0.0240665,-0.0179454,0.0324096,-0.0145324,-1.1356,0.0277494,0.041069,2015,1121,43.3033,-3.45328
798,-97,43.1921,2.5769,-0.00547343,0.0318503,-0.0261908,0.0453477,-0.0189709,-1.09494,0.0381611,0.0423489,2022,1121,43.1921,-2.57693
805,-97,43.1589,1.64441,-0.0040107,0.0417434,-0.0370771,0.0624333,-0.0247005,-1.06182,0.0518552,0.0465122,2029,1121,43.159,-1.64439
812,-97,43.2656,0.905273,0,0,0,0,0,0,0,-1,2036,1121,43.2656,-0.905289
-700,-104,0,0,0,0,0,0,0,0,0,-1,524,1128,0,0
-693,-104,-31.9039,-0.0274658,0,0,0,0,0,0,0,-1,531,1128,-31.9039,0.0275104
-686,-104,-30.891,-0.065918,0.0284136,0.0864369,-0.0752267,0.138052,-0.0232019,-0.969438,0.100664,0.0492677,538,1128,-30.891,0.065947
-679,-104,-29.8911,-0.154297,0.0212718,0.0691662,-0.0607492,0.110518,-0.0200798,-0.973146,0.0812036,0.0457367,545,1128,-29.8911,0.154276
-672,-104,-29.0848,-0.43811,0,0,0,0,0,0,0,-1,552,1128,-29.0848,0.438085
-665,-104,-36.0857,-2.76953,0,0,0,0,0,0,0,-1,559,1128,-36.0857,2.76953
-658,-104,-31.0554,1.3197,0,0,0,0,0,0,0,-1,566,1128,-31.0554,-1.31968
-651,-104,-30.9542,1.53821,0.0058733,0.0244007,-0.021232,0.0383019,-0.00802796,-0.991103,0.0285888,0.0407042,573,1128,-30.9542,-1.53825
-644,-104,-30.863,1.77332,0.00413834,0.0175931,-0.0151878,0.0274768,-0.00574534,-0.993884,0.0205031,0.0173381,580,1128,-30.863,-1.77335
-637,-104,-30.8329,2.1604,0.00282433,0.0118154,-0.0101452,0.0184165,-0.00377677,-0.993957,0.0137111,0.0128154,587,1128,-30.8329,-2.16036
-630,-104,-30.8537,2.46594,0.00186185,0.00677232,-0.00560807,0.0104391,-0.00180489,-0.991731,0.00763248,0.0149582,594,1128,-30.8537,-2.46591
-623,-104,-30.895,2.85132,0.000993855,0.00265092,-0.00323379,0.00516062,-0.00151585,-0.910806,0.00404159,0.016706,601,1128,-30.895,-2.8513
-616,-104,-31.0734,3.26587,0.00108252,0.0012287,-0.00152562,0.00268298,-0.000371765,-0.809333,0.00192458,0.021174,608,1128,-31.0734,-3.26591
-609,-104,-31.2066,3.50928,0.00174414,0.000295336,-0.000534809,0.00192017,0.000119305,-0.317978,0.00124226,0.0277499,615,1128,-31.2066,-3.50923
-602,-104,-31.0261,3.89063,0.00192249,-0.000252381,-0.000315391,0.00196731,-0.000297194,-0.141143,0.001421,0.0253977,622,1128,-31.0261,-3.89062
-595,-104,-30.86,4.33032,0.00139795,-0.000335622,-0.000320372,0.00145526,-0.000392934,-0.177018,0.00112428,0.0186963,629,1128,-30.86,-4.33028
-588,-104,-30.7623,4.79236,0,0,0,0,0,0,0,-1,636,1128,-30.7623,-4.79233
-581,-104,-23.9373,2.85864,0,0,0,0,0,0,0,-1,643,1128,-23.9373,-2.85861
-574,-104,-34.1667,1.01074,0,0,0,0,0,0,0,-1,650,1128,-34.1667,-1.01074
-567,-104,-34.1942,1.17151,0.00154603,-3.06336e-05,-0.00115703,0.00215776,-0.000642367,-0.486352,0.00169373,0.0353798,657,1128,-34.1942,-1.17147
-560,-104,-34.2416,1.19885,0.00160752,0.000297486,-0.00151361,0.00260176,-0.000696756,-0.581189,0.00200748,0.0402892,664,1128,-34.2416,-1.19881
-553,-104,-34.3461,1.04309,0.00136568,0.000724446,-0.00223238,0.00330035,-0.00121022,-0.714075,0.00269577,0.0462256,671,1128,-34.3461,-1.04306
-546,-104,-34.2406,1.05164,0.0012661,0.001231,-0.0034056,0.0046542,-0.0021571,-0.782822,0.00401963,0.0446316,678,1128,-34.2406,-1.05163
-539,-104,-34.3745,0.908813,0.00240551,0.00153743,-0.00518734,0.00717694,-0.00323399,-0.743659,0.00615277,0.0381684,685,1128,-34.3744,-0.908854
-532,-104,-34.4854,0.882568,0.00423524,0.00179691,-0.00710614,0.010226,-0.00419389,-0.700443,0.00856472,0.0387389,692,1128,-34.4854,-0.882592
-525,-104,-34.1971,0.970581,0.00661268,0.00205865,-0.00903188,0.0136501,-0.00497882,-0.661917,0.0111371,0.0370582,699,1128,-34.1971,-0.970526
-518,-104,0,0,0,0,0,0,0,0,0,-1,706,1128,0,0
-511,-104,0,0,0,0,0,0,0,0,0,-1,713,1128,0,0
-504,-104,0,0,0,0,0,0,0,0,0,-1,720,1128,0,0
-497,-104,0,0,0,0,0,0,0,0,0,-1,727,1128,0,0
-490,-104,0,0,0,0,0,0,0,0,0,-1,734,1128,0,0
-483,-104,0,0,0,0,0,0,0,0,0,-1,741,1128,0,0
-476,-104,0,0,0,0,0,0,0,0,0,-1,748,1128,0,0
-469,-104,0,0,0,0,0,0,0,0,0,-1,755,1128,0,0
-462,-104,0,0,0,0,0,0,0,0,0,-1,762,1128,0,0
-455,-104,0,0,0,0,0,0,0,0,0,-1,769,1128,0,0
-448,-104,0,0,0,0,0,0,0,0,0,-1,776,1128,0,0
-441,-104,0,0,0,0,0,0,0,0,0,-1,783,1128,0,0
-434,-104,0,0,0,0,0,0,0,0,0,-1,790,1128,0,0
-427,-104,0,0,0,0,0,0,0,0,0,-1,797,1128,0,0
-420,-104,0,0,0,0,0,0,0,0,0,-1,804,1128,0,0
-413,-104,0,0,0,0,0,0,0,0,0,-1,811,1128,0,0
-406,-104,0,0,0,0,0,0,0,0,0,-1,818,1128,0,0
-399,-104,0,0,0,0,0,0,0,0,0,-1,825,1128,0,0
-392,-104,0,0,0,0,0,0,0,0,0,-1,832,1128,0,0
-385,-104,0,0,0,0,0,0,0,0,0,-1,839,1128,0,0
-378,-104,0,0,0,0,0,0,0,0,0,-1,846,1128,0,0
-371,-104,0,0,0,0,0,0,0,0,0,-1,853,1128,0,0
-364,-104,0,0,0,0,0,0,0,0,0,-1,860,1128,0,0
-357,-104,0,0,0,0,0,0,0,0,0,-1,867,1128,0,0
-350,-104,0,0,0,0,0,0,0,0,0,-1,874,1128,0,0
-343,-104,0,0,0,0,0,0,0,0,0,-1,881,1128,0,0
-336,-104,0,0,0,0,0,0,0,0,0,-1,888,1128,0,0
-329,-104,0,0,0,0,0,0,0,0,0,-1,895,1128,0,0
-322,-104,0,0,0,0,0,0,0,0,0,-1,902,1128,0,0
-315,-104,0,0,0,0,0,0,0,0,0,-1,909,1128,0,0
-308,-104,0,0,0,0,0,0,0,0,0,-1,916,1128,0,0
-301,-104,0,0,0,0,0,0,0,0,0,-1,923,1128,0,0
-294,-104,0,0,0,0,0,0,0,0,0,-1,930,1128,0,0
-287,-104,0,0,0,0,0,0,0,0,0,-1,937,1128,0,0
-280,-104,0,0,0,0,0,0,0,0,0,-1,944,1128,0,0
-273,-104,0,0,0,0,0,0,0,0,0,-1,951,1128,0,0
-266,-104,0,0,0,0,0,0,0,0,0,-1,958,1128,0,0
-259,-104,0,0,0,0,0,0,0,0,0,-1,965,1128,0,0
-252,-104,0,0,0,0,0,0,0,0,0,-1,972,1128,0,0
-245,-104,0,0,0,0,0,0,0,0,0,-1,979,1128,0,0
-238,-104,0,0,0,0,0,0,0,0,0,-1,986,1128,0,0
-231,-104,0,0,0,0,0,0,0,0,0,-1,993,1128,0,0
-224,-104,0,0,0,0,0,0,0,0,0,-1,1000,1128,0,0
-217,-104,0,0,0,0,0,0,0,0,0,-1,1007,1128,0,0
-210,-104,0,0,0,0,0,0,0,0,0,-1,1014,1128,0,0
-203,-104,0,0,0,0,0,0,0,0,0,-1,1021,1128,0,0
-196,-104,0,0,0,0,0,0,0,0,0,-1,1028,1128,0,0
-189,-104,0,0,0,0,0,0,0,0,0,-1,1035,1128,0,0
-182,-104,0,0,0,0,0,0,0,0,0,-1,1042,1128,0,0
-175,-104,0,0,0,0,0,0,0,0,0,-1,1049,1128,0,0
-168,-104,0,0,0,0,0,0,0,0,0,-1,1056,1128,0,0
-161,-104,0,0,0,0,0,0,0,0,0,-1,1063,1128,0,0
-154,-104,0,0,0,0,0,0,0,0,0,-1,1070,1128,0,0
-147,-104,0,0,0,0,0,0,0,0,0,-1,1077,1128,0,0
-140,-104,0,0,0,0,0,0,0,0,0,-1,1084,1128,0,0
-133,-104,0,0,0,0,0,0,0,0,0,-1,1091,1128,0,0
-126,-104,0,0,0,0,0,0,0,0,0,-1,1098,1128,0,0
-119,-104,0,0,0,0,0,0,0,0,0,-1,1105,1128,0,0
-112,-104,0,0,0,0,0,0,0,0,0,-1,1112,1128,0,0
-105,-104,0,0,0,0,0,0,0,0,0,-1,1119,1128,0,0
-98,-104,0,0,0,0,0,0,0,0,0,-1,1126,1128,0,0
-91,-104,0,0,0,0,0,0,0,0,0,-1,1133,1128,0,0
-84,-104,0,0,0,0,0,0,0,0,0,-1,1140,1128,0,0
-77,-104,0,0,0,0,0,0,0,0,0,-1,1147,1128,0,0
-70,-104,0,0,0,0,0,0,0,0,0,-1,1154,1128,0,0
-63,-104,0,0,0,0,0,0,0,0,0,-1,1161,1128,0,0
-56,-104,0,0,0,0,0,0,0,0,0,-1,1168,1128,0,0
-49,-104,0,0,0,0,0,0,0,0,0,-1,1175,1128,0,0
-42,-104,0,0,0,0,0,0,0,0,0,-1,1182,1128,0,0
-35,-104,0,0,0,0,0,0,0,0,0,-1,1189,1128,0,0
-28,-104,0,0,0,0,0,0,0,0,0,-1,1196,1128,0,0
-21,-104,0,0,0,0,0,0,0,0,0,-1,1203,1128,0,0
-14,-104,0,0,0,0,0,0,0,0,0,-1,1210,1128,0,0
-7,-104,0,0,0,0,0,0,0,0,0,-1,1217,1128,0,0
0,-104,0,0,0,0,0,0,0,0,0,-1,1224,1128,0,0
7,-104,0,0,0,0,0,0,0,0,0,-1,1231,1128,0,0
14,-104,0,0,0,0,0,0,0,0,0,-1,1238,1128,0,0
21,-104,0,0,0,0,0,0,0,0,0,-1,1245,1128,0,0
28,-104,0,0,0,0,0,0,0,0,0,-1,1252,1128,0,0
35,-104,0,0,0,0,0,0,0,0,0,-1,1259,1128,0,0
42,-104,0,0,0,0,0,0,0,0,0,-1,1266,1128,0,0
49,-104,0,0,0,0,0,0,0,0,0,-1,1273,1128,0,0
56,-104,0,0,0,0,0,0,0,0,0,-1,1280,1128,0,0
63,-104,0,0,0,0,0,0,0,0,0,-1,1287,1128,0,0
70,-104,0,0,0,0,0,0,0,0,0,-1,1294,1128,0,0
77,-104,0,0,0,0,0,0,0,0,0,-1,1301,1128,0,0
84,-104,0,0,0,0,0,0,0,0,0,-1,1308,1128,0,0
91,-104,0,0,0,0,0,0,0,0,0,-1,1315,1128,0,0
98,-104,0,0,0,0,0,0,0,0,0,-1,1322,1128,0,0
105,-104,0,0,0,0,0,0,0,0,0,-1,1329,1128,0,0
112,-104,0,0,0,0,0,0,0,0,0,-1,1336,1128,0,0
119,-104,0,0,0,0,0,0,0,0,0,-1,1343,1128,0,0
126,-104,0,0,0,0,0,0,0,0,0,-1,1350,1128,0,0
133,-104,0,0,0,0,0,0,0,0,0,-1,1357,1128,0,0
140,-104,0,0,0,0,0,0,0,0,0,-1,1364,1128,0,0
147,-104,0,0,0,0,0,0,0,0,0,-1,1371,1128,0,0
154,-104,0,0,0,0,0,0,0,0,0,-1,1378,1128,0,0
161,-104,0,0,0,0,0,0,0,0,0,-1,1385,1128,0,0
168,-104,0,0,0,0,0,0,0,0,0,-1,1392,1128,0,0
175,-104,0,0,0,0,0,0,0,0,0,-1,1399,1128,0,0
182,-104,0,0,0,0,0,0,0,0,0,-1,1406,1128,0,0
189,-104,0,0,0,0,0,0,0,0,0,-1,1413,1128,0,0
196,-104,0,0,0,0,0,0,0,0,0,-1,1420,1128,0,0
203,-104,0,0,0,0,0,0,0,0,0,-1,1427,1128,0,0
210,-104,0,0,0,0,0,0,0,0,0,-1,1434,1128,0,0
217,-104,0,0,0,0,0,0,0,0,0,-1,1441,1128,0,0
224,-104,0,0,0,0,0,0,0,0,0,-1,1448,1128,0,0
231,-104,0,0,0,0,0,0,0,0,0,-1,1455,1128,0,0
238,-104,0,0,0,0,0,0,0,0,0,-1,1462,1128,0,0
245,-104,0,0,0,0,0,0,0,0,0,-1,1469,1128,0,0
252,-104,0,0,0,0,0,0,0,0,0,-1,1476,1128,0,0
259,-104,0,0,0,0,0,0,0,0,0,-1,1483,1128,0,0
266,-104,0,0,0,0,0,0,0,0,0,-1,1490,1128,0,0
273,-104,0,0,0,0,0,0,0,0,0,-1,1497,1128,0,0
280,-104,0,0,0,0,0,0,0,0,0,-1,1504,1128,0,0
287,-104,0,0,0,0,0,0,0,0,0,-1,1511,1128,0,0
294,-104,0,0,0,0,0,0,0,0,0,-1,1518,1128,0,0
301,-104,0,0,0,0,0,0,0,0,0,-1,1525,1128,0,0
308,-104,0,0,0,0,0,0,0,0,0,-1,1532,1128,0,0
315,-104,0,0,0,0,0,0,0,0,0,-1,1539,1128,0,0
322,-104,0,0,0,0,0,0,0,0,0,-1,1546,1128,0,0
329,-104,0,0,0,0,0,0,0,0,0,-1,1553,1128,0,0
336,-104,0,0,0,0,0,0,0,0,0,-1,1560,1128,0,0
343,-104,0,0,0,0,0,0,0,0,0,-1,1567,1128,0,0
350,-104,0,0,0,0,0,0,0,0,0,-1,1574,1128,0,0
357,-104,0,0,0,0,0,0,0,0,0,-1,1581,1128,0,0
364,-104,0,0,0,0,0,0,0,0,0,-1,1588,1128,0,0
371,-104,0,0,0,0,0,0,0,0,0,-1,1595,1128,0,0
378,-104,0,0,0,0,0,0,0,0,0,-1,1602,1128,0,0
385,-104,0,0,0,0,0,0,0,0,0,-1,1609,1128,0,0
392,-104,0,0,0,0,0,0,0,0,0,-1,1616,1128,0,0
399,-104,0,0,0,0,0,0,0,0,0,-1,1623,1128,0,0
406,-104,0,0,0,0,0,0,0,0,0,-1,1630,1128,0,0
413,-104,0,0,0,0,0,0,0,0,0,-1,1637,1128,0,0
420,-104,0,0,0,0,0,0,0,0,0,-1,1644,1128,0,0
427,-104,0,0,0,0,0,0,0,0,0,-1,1651,1128,0,0
434,-104,0,0,0,0,0,0,0,0,0,-1,1658,1128,0,0
441,-104,0,0,0,0,0,0,0,0,0,-1,1665,1128,0,0
448,-104,0,0,0,0,0,0,0,0,0,-1,1672,1128,0,0
455,-104,0,0,0,0,0,0,0,0,0,-1,1679,1128,0,0
462,-104,0,0,0,0,0,0,0,0,0,-1,1686,1128,0,0
469,-104,0,0,0,0,0,0,0,0,0,-1,1693,1128,0,0
476,-104,0,0,0,0,0,0,0,0,0,-1,1700,1128,0,0
483,-104,0,0,0,0,0,0,0,0,0,-1,1707,1128,0,0
490,-104,0,0,0,0,0,0,0,0,0,-1,1714,1128,0,0
497,-104,0,0,0,0,0,0,0,0,0,-1,1721,1128,0,0
504,-104,0,0,0,0,0,0,0,0,0,-1,1728,1128,0,0
511,-104,0,0,0,0,0,0,0,0,0,-1,1735,1128,0,0
518,-104,0,0,0,0,0,0,0,0,0,-1,1742,1128,0,0
525,-104,0,0,0,0,0,0,0,0,0,-1,1749,1128,0,0
532,-104,0,0,0,0,0,0,0,0,0,-1,1756,1128,0,0
539,-104,0,0,0,0,0,0,0,0,0,-1,1763,1128,0,0
546,-104,0,0,0,0,0,0,0,0,0,-1,1770,1128,0,0
553,-104,0,0,0,0,0,0,0,0,0,-1,1777,1128,0,0
560,-104,0,0,0,0,0,0,0,0,0,-1,1784,1128,0,0
567,-104,0,0,0,0,0,0,0,0,0,-1,1791,1128,0,0
574,-104,0,0,0,0,0,0,0,0,0,-1,1798,1128,0,0
581,-104,0,0,0,0,0,0,0,0,0,-1,1805,1128,0,0
588,-104,0,0,0,0,0,0,0,0,0,-1,1812,1128,0,0
595,-104,0,0,0,0,0,0,0,0,0,-1,1819,1128,0,0
602,-104,0,0,0,0,0,0,0,0,0,-1,1826,1128,0,0
609,-104,0,0,0,0,0,0,0,0,0,-1,1833,1128,0,0
616,-104,0,0,0,0,0,0,0,0,0,-1,1840,1128,0,0
623,-104,0,0,0,0,0,0,0,0,0,-1,1847,1128,0,0
630,-104,0,0,0,0,0,0,0,0,0,-1,1854,1128,0,0
637,-104,0,0,0,0,0,0,0,0,0,-1,1861,1128,0,0
644,-104,46.3425,3.06189,-0.0013318,-0.00151407,0.00019908,-0.00120399,-0.00164189,0.570739,0.000981737,0.036637,1868,1128,46.3425,-3.06184
651,-104,46.4602,3.12769,-0.00119723,-0.000979812,-0.000182413,-0.000876171,-0.00130087,-1.05411,0.000765985,0.037289,1875,1128,46.4603,-3.12771
658,-104,46.4843,2.96375,-0.000899688,-0.000660615,-0.000474961,-0.000290379,-0.00126992,-0.908676,0.000768336,0.0399952,1882,1128,46.4843,-2.96376
665,-104,46.3962,2.84143,-0.000656354,-0.000423939,-0.000669785,0.000139644,-0.00121994,-0.871293,0.000863611,0.0435118,1889,1128,46.3962,-2.84144
672,-104,46.3336,2.68787,-0.000417493,-0.00023907,-0.00079421,0.000470924,-0.00112749,-0.841327,0.000948438,0.0432759,1896,1128,46.3336,-2.68787
679,-104,46.3932,2.86768,-0.00042476,-0.000229181,-0.000792745,0.000471783,-0.00112572,-0.846766,0.00094773,0.0403208,1903,1128,46.3931,-2.86762
686,-104,46.3899,2.79309,-0.00033613,-0.000334314,-0.000684915,0.000349694,-0.00102014,-0.786061,0.000821841,0.0369972,1910,1128,46.3899,-2.7931
693,-104,46.3792,2.72607,-0.000166423,-0.000413014,-0.000534598,0.000258913,-0.00083835,-0.672064,0.000662294,0.0339674,1917,1128,46.3792,-2.72613
700,-104,46.3909,2.76208,-8.42375e-05,-0.00049813,-0.000423687,0.000180343,-0.000762711,-0.558219,0.000578043,0.0268835,1924,1128,46.3909,-2.76205
707,-104,46.3389,2.83472,0,0,0,0,0,0,0,-1,1931,1128,46.3388,-2.83473
714,-104,45.5221,2.32166,0,0,0,0,0,0,0,-1,1938,1128,45.5221,-2.3216
721,-104,43.0649,7.18103,0,0,0,0,0,0,0,-1,1945,1128,43.0649,-7.18105
728,-104,43.1951,6.71838,-0.000909377,1.24663e-06,0.000725207,0.000402226,-0.00131036,1.06572,0.00103406,0.0242184,1952,1128,43.1951,-6.71833
735,-104,43.2206,6.42981,-0.00160061,0.000245321,0.000853046,0.000579159,-0.00193445,1.19777,0.00151992,0.0268291,1959,1128,43.2206,-6.42984
742,-104,43.1355,6.15479,-0.00220114,0.000703272,0.00112966,0.00109091,-0.00258878,1.24024,0.00218236,0.0173181,1966,1128,43.1355,-6.15481
749,-104,43.0994,5.82947,-0.00296677,0.00169505,0.000943083,0.00187861,-0.00315032,1.37856,0.00293424,0.0184832,1973,1128,43.0994,-5.82942
756,-104,43.0938,5.52576,-0.00388775,0.00332782,0.000122528,0.0033299,-0.00388983,1.55382,0.00417249,0.0162507,1980,1128,43.0938,-5.52574
763,-104,43.063,5.25427,-0.00498136,0.00578307,-0.00154571,0.00600063,-0.00519892,-1.43097,0.00647158,0.0161507,1987,1128,43.0629,-5.25431
770,-104,43.0232,5.01013,-0.00626598,0.00891142,-0.00400877,0.00990518,-0.00725974,-1.3278,0.00994933,0.0145606,1994,1128,43.0232,-5.0101
777,-104,42.9673,4.68945,-0.00743925,0.012748,-0.00736448,0.015149,-0.0098403,-1.25563,0.0145357,0.0220948,2001,1128,42.9672,-4.68946
784,-104,42.7795,4.33679,-0.00843693,0.0175318,-0.0119748,0.0222107,-0.0131158,-1.19831,0.0206198,0.0392244,2008,1128,42.7795,-4.33677
791,-104,42.3806,4.0072,-0.00900826,0.0236473,-0.0183715,0.0318981,-0.0172591,-1.14868,0.0287974,0.0430497,2015,1128,42.3805,-4.00719
798,-104,42.4304,3.27686,0,0,0,0,0,0,0,-1,2022,1128,42.4305,-3.27681
805,-104,42.7136,2.89844,0,0,0,0,0,0,0,-1,2029,1128,42.7135,-2.89848
812,-104,43.2126,2.47461,0,0,0,0,0,0,0,-1,2036,1128,43.2127,-2.47467
-700,-111,0,0,0,0,0,0,0,0,0,-1,524,1135,0,0
-693,-111,-31.493,-1.09888,0,0,0,0,0,0,0,-1,531,1135,-31.493,1.09888
-686,-111,-29.9716,-0.606445,0.0430777,0.0883876,-0.057752,0.127769,0.00369602,-0.972315,0.0839746,0.049561,538,1135,-29.9716,0.606449
-679,-111,-33.4041,-3.42383,0.0337384,0.070666,-0.0458116,0.101595,0.00280974,-0.976959,0.0668129,0.0438419,545,1135,-33.4041,3.42383
-672,-111,-34.1399,-3.02136,0.0261746,0.0559399,-0.0360116,0.0800229,0.00209156,-0.981347,0.0526653,0.0446626,552,1135,-34.1399,3.02134
-665,-111,-34.7825,-2.52527,0,0,0,0,0,0,0,-1,559,1135,-34.7825,2.52531
-658,-111,-31.1439,0.341919,0,0,0,0,0,0,0,-1,566,1135,-31.1439,-0.34198
-651,-111,-30.7026,1.00073,0.0104794,0.0248794,-0.0155923,0.0348538,0.000505002,-1.0017,0.0230694,0.040989,573,1135,-30.7026,-1.00069
-644,-111,-30.3792,1.7218,0.007379,0.0179362,-0.0111071,0.0249552,0.000360038,-1.00722,0.0165181,0.0269788,580,1135,-30.3791,-1.72181
-637,-111,-30.4456,2.13708,0.0048891,0.0120533,-0.00737721,0.0166721,0.000270296,-1.01141,0.0110257,0.0116469,587,1135,-30.4456,-2.13713
-630,-111,-30.4796,2.45825,0.00292558,0.00690544,-0.00392628,0.00931727,0.000513756,-1.01994,0.00604754,0.0203636,594,1135,-30.4796,-2.45825
-623,-111,-30.5114,2.84631,0.00142136,0.00282888,-0.0021908,0.00442618,-0.000175944,-0.94081,0.00301115,0.0168828,601,1135,-30.5113,-2.84633
-616,-111,-30.6808,3.22241,0.00104033,0.00136619,-0.000992136,0.00220868,0.000197832,-0.866783,0.00141114,0.0170011,608,1135,-30.6808,-3.22238
-609,-111,-30.8721,3.52783,0.00139662,0.000455939,-0.000260858,0.00146412,0.000388445,-0.253189,0.000875799,0.0291622,615,1135,-30.872,-3.52781
-602,-111,-30.8018,3.90173,0.00165853,1.6183e-05,-0.000195839,0.00168156,-6.8465e-06,-0.117057,0.00112333,0.0341338,622,1135,-30.8018,-3.90174
-595,-111,-30.5881,4.34583,0.0011918,-1.00057e-05,-0.000207898,0.00122675,-4.49532e-05,-0.166542,0.000833222,0.0173005,629,1135,-30.5881,-4.34578
-588,-111,-30.3465,4.86963,0,0,0,0,0,0,0,-1,636,1135,-30.3465,-4.86964
-581,-111,-21.0555,3.14551,0,0,0,0,0,0,0,-1,643,1135,-21.0555,-3.14548
-574,-111,-34.0324,0.775269,0,0,0,0,0,0,0,-1,650,1135,-34.0324,-0.775311
-567,-111,-34.1233,0.995239,0.00170734,0.000238358,-0.00129135,0.00245847,-0.000512771,-0.526826,0.00183396,0.0369226,657,1135,-34.1233,-0.995237
-560,-111,-34.298,1.24829,0.00191944,0.000494787,-0.00168911,0.00304028,-0.000626051,-0.585854,0.00226457,0.0399152,664,1135,-34.298,-1.24825
-553,-111,-34.2687,1.18237,0.00180701,0.000845265,-0.0024713,0.00384378,-0.00119151,-0.689307,0.00303859,0.0459385,671,1135,-34.2687,-1.18237
-546,-111,-33.9822,0.721924,0.00184239,0.00124467,-0.00371695,0.00527248,-0.00218541,-0.745282,0.00442707,0.0437195,678,1135,-33.9822,-0.721896
-539,-111,-34.2454,0.859863,0.00302901,0.00143582,-0.00554625,0.00783557,-0.00337075,-0.714072,0.00663894,0.0409792,685,1135,-34.2454,-0.859835
-532,-111,-34.3787,1.00049,0.00497698,0.00150234,-0.00752418,0.0109618,-0.00448248,-0.671938,0.0091746,0.0420064,692,1135,-34.3787,-1.00053
-525,-111,-34.1658,0.967041,0.00743177,0.00150949,-0.00947359,0.0143962,-0.00545496,-0.633925,0.0118423,0.0393416,699,1135,-34.1658,-0.967071
-518,-111,0,0,0,0,0,0,0,0,0,-1,706,1135,0,0
-511,-111,0,0,0,0,0,0,0,0,0,-1,713,1135,0,0
-504,-111,0,0,0,0,0,0,0,0,0,-1,720,1135,0,0
-497,-111,0,0,0,0,0,0,0,0,0,-1,727,1135,0,0
-490,-111,0,0,0,0,0,0,0,0,0,-1,734,1135,0,0
-483,-111,0,0,0,0,0,0,0,0,0,-1,741,1135,0,0
-476,-111,0,0,0,0,0,0,0,0,0,-1,748,1135,0,0
-469,-111,0,0,0,0,0,0,0,0,0,-1,755,1135,0,0
-462,-111,0,0,0,0,0,0,0,0,0,-1,762,1135,0,0
-455,-111,0,0,0,0,0,0,0,0,0,-1,769,1135,0,0
-448,-111,0,0,0,0,0,0,0,0,0,-1,776,1135,0,0
-441,-111,0,0,0,0,0,0,0,0,0,-1,783,1135,0,0
-434,-111,0,0,0,0,0,0,0,0,0,-1,790,1135,0,0
-427,-111,0,0,0,0,0,0,0,0,0,-1,797,1135,0,0
-420,-111,0,0,0,0,0,0,0,0,0,-1,804,1135,0,0
-413,-111,0,0,0,0,0,0,0,0,0,-1,811,1135,0,0
-406,-111,0,0,0,0,0,0,0,0,0,-1,818,1135,0,0
-399,-111,0,0,0,0,0,0,0,0,0,-1,825,1135,0,0
-392,-111,0,0,0,0,0,0,0,0,0,-1,832,1135,0,0
-385,-111,0,0,0,0,0,0,0,0,0,-1,839,1135,0,0
-378,-111,0,0,0,0,0,0,0,0,0,-1,846,1135,0,0
-371,-111,0,0,0,0,0,0,0,0,0,-1,853,1135,0,0
-364,-111,0,0,0,0,0,0,0,0,0,-1,860,1135,0,0
-357,-111,0,0,0,0,0,0,0,0,0,-1,867,1135,0,0
-350,-111,0,0,0,0,0,0,0,0,0,-1,874,1135,0,0
-343,-111,0,0,0,0,0,0,0,0,0,-1,881,1135,0,0
-336,-111,0,0,0,0,0,0,0,0,0,-1,888,1135,0,0
-329,-111,0,0,0,0,0,0,0,0,0,-1,895,1135,0,0
-322,-111,0,0,0,0,0,0,0,0,0,-1,902,1135,0,0
-315,-111,0,0,0,0,0,0,0,0,0,-1,909,1135,0,0
-308,-111,0,0,0,0,0,0,0,0,0,-1,916,1135,0,0
-301,-111,0,0,0,0,0,0,0,0,0,-1,923,1135,0,0
-294,-111,0,0,0,0,0,0,0,0,0,-1,930,1135,0,0
-287,-111,0,0,0,0,0,0,0,0,0,-1,937,1135,0,0
-280,-111,0,0,0,0,0,0,0,0,0,-1,944,1135,0,0
-273,-111,0,0,0,0,0,0,0,0,0,-1,951,1135,0,0
-266,-111,0,0,0,0,0,0,0,0,0,-1,958,1135,0,0
-259,-111,0,0,0,0,0,0,0,0,0,-1,965,1135,0,0
-252,-111,0,0,0,0,0,0,0,0,0,-1,972,1135,0,0
-245,-111,0,0,0,0,0,0,0,0,0,-1,979,1135,0,0
-238,-111,0,0,0,0,0,0,0,0,0,-1,986,1135,0,0
-231,-111,0,0,0,0,0,0,0,0,0,-1,993,1135,0,0
-224,-111,0,0,0,0,0,0,0,0,0,-1,1000,1135,0,0
-217,-111,0,0,0,0,0,0,0,0,0,-1,1007,1135,0,0
-210,-111,0,0,0,0,0,0,0,0,0,-1,1014,1135,0,0
-203,-111,0,0,0,0,0,0,0,0,0,-1,1021,1135,0,0
-196,-111,0,0,0,0,0,0,0,0,0,-1,1028,1135,0,0
-189,-111,0,0,0,0,0,0,0,0,0,-1,1035,1135,0,0
-182,-111,0,0,0,0,0,0,0,0,0,-1,1042,1135,0,0
-175,-111,0,0,0,0,0,0,0,0,0,-1,1049,1135,0,0
-168,-111,0,0,0,0,0,0,0,0,0,-1,1056,1135,0,0
-161,-111,0,0,0,0,0,0,0,0,0,-1,1063,1135,0,0
-154,-111,0,0,0,0,0,0,0,0,0,-1,1070,1135,0,0
-147,-111,0,0,0,0,0,0,0,0,0,-1,1077,1135,0,0
-140,-111,0,0,0,0,0,0,0,0,0,-1,1084,1135,0,0
-133,-111,0,0,0,0,0,0,0,0,0,-1,1091,1135,0,0
-126,-111,0,0,0,0,0,0,0,0,0,-1,1098,1135,0,0
-119,-111,0,0,0,0,0,0,0,0,0,-1,1105,1135,0,0
-112,-111,0,0,0,0,0,0,0,0,0,-1,1112,1135,0,0
-105,-111,0,0,0,0,0,0,0,0,0,-1,1119,1135,0,0
-98,-111,0,0,0,0,0,0,0,0,0,-1,1126,1135,0,0
-91,-111,0,0,0,0,0,0,0,0,0,-1,1133,1135,0,0
-84,-111,0,0,0,0,0,0,0,0,0,-1,1140,1135,0,0
-77,-111,0,0,0,0,0,0,0,0,0,-1,1147,1135,0,0
-70,-111,0,0,0,0,0,0,0,0,0,-1,1154,1135,0,0
-63,-111,0,0,0,0,0,0,0,0,0,-1,1161,1135,0,0
-56,-111,0,0,0,0,0,0,0,0,0,-1,1168,1135,0,0
-49,-111,0,0,0,0,0,0,0,0,0,-1,1175,1135,0,0
-42,-111,0,0,0,0,0,0,0,0,0,-1,1182,1135,0,0
-35,-111,0,0,0,0,0,0,0,0,0,-1,1189,1135,0,0
-28,-111,0,0,0,0,0,0,0,0,0,-1,1196,1135,0,0
-21,-111,0,0,0,0,0,0,0,0,0,-1,1203,1135,0,0
-14,-111,0,0,0,0,0,0,0,0,0,-1,1210,1135,0,0
-7,-111,0,0,0,0,0,0,0,0,0,-1,1217,1135,0,0
0,-111,0,0,0,0,0,0,0,0,0,-1,1224,1135,0,0
7,-111,0,0,0,0,0,0,0,0,0,-1,1231,1135,0,0
14,-111,0,0,0,0,0,0,0,0,0,-1,1238,1135,0,0
21,-111,0,0,0,0,0,0,0,0,0,-1,1245,1135,0,0
28,-111,0,0,0,0,0,0,0,0,0,-1,1252,1135,0,0
35,-111,0,0,0,0,0,0,0,0,0,-1,1259,1135,0,0
42,-111,0,0,0,0,0,0,0,0,0,-1,1266,1135,0,0
49,-111,0,0,0,0,0,0,0,0,0,-1,1273,1135,0,0
56,-111,0,0,0,0,0,0,0,0,0,-1,1280,1135,0,0
63,-111,0,0,0,0,0,0,0,0,0,-1,1287,1135,0,0
70,-111,0,0,0,0,0,0,0,0,0,-1,1294,1135,0,0
77,-111,0,0,0,0,0,0,0,0,0,-1,1301,1135,0,0
84,-111,0,0,0,0,0,0,0,0,0,-1,1308,1135,0,0
91,-111,0,0,0,0,0,0,0,0,0,-1,1315,1135,0,0
98,-111,0,0,0,0,0,0,0,0,0,-1,1322,1135,0,0
105,-111,0,0,0,0,0,0,0,0,0,-1,1329,1135,0,0
112,-111,0,0,0,0,0,0,0,0,0,-1,1336,1135,0,0
119,-111,0,0,0,0,0,0,0,0,0,-1,1343,1135,0,0
126,-111,0,0,0,0,0,0,0,0,0,-1,1350,1135,0,0
133,-111,0,0,0,0,0,0,0,0,0,-1,1357,1135,0,0
140,-111,0,0,0,0,0,0,0,0,0,-1,1364,1135,0,0
147,-111,0,0,0,0,0,0,0,0,0,-1,1371,1135,0,0
154,-111,0,0,0,0,0,0,0,0,0,-1,1378,1135,0,0
161,-111,0,0,0,0,0,0,0,0,0,-1,1385,1135,0,0
168,-111,0,0,0,0,0,0,0,0,0,-1,1392,1135,0,0
175,-111,0,0,0,0,0,0,0,0,0,-1,1399,1135,0,0
182,-111,0,0,0,0,0,0,0,0,0,-1,1406,1135,0,0
189,-111,0,0,0,0,0,0,0,0,0,-1,1413,1135,0,0
196,-111,0,0,0,0,0,0,0,0,0,-1,1420,1135,0,0
203,-111,0,0,0,0,0,0,0,0,0,-1,1427,1135,0,0
210,-111,0,0,0,0,0,0,0,0,0,-1,1434,1135,0,0
217,-111,0,0,0,0,0,0,0,0,0,-1,1441,1135,0,0
224,-111,0,0,0,0,0,0,0,0,0,-1,1448,1135,0,0
231,-111,0,0,0,0,0,0,0,0,0,-1,1455,1135,0,0
238,-111,0,0,0,0,0,0,0,0,0,-1,1462,1135,0,0
245,-111,0,0,0,0,0,0,0,0,0,-1,1469,1135,0,0
252,-111,0,0,0,0,0,0,0,0,0,-1,1476,1135,0,0
259,-111,0,0,0,0,0,0,0,0,0,-1,1483,1135,0,0
266,-111,0,0,0,0,0,0,0,0,0,-1,1490,1135,0,0
273,-111,0,0,0,0,0,0,0,0,0,-1,1497,1135,0,0
280,-111,0,0,0,0,0,0,0,0,0,-1,1504,1135,0,0
287,-111,0,0,0,0,0,0,0,0,0,-1,1511,1135,0,0
294,-111,0,0,0,0,0,0,0,0,0,-1,1518,1135,0,0
301,-111,0,0,0,0,0,0,0,0,0,-1,1525,1135,0,0
308,-111,0,0,0,0,0,0,0,0,0,-1,1532,1135,0,0
315,-111,0,0,0,0,0,0,0,0,0,-1,1539,1135,0,0
322,-111,0,0,0,0,0,0,0,0,0,-1,1546,1135,0,0
329,-111,0,0,0,0,0,0,0,0,0,-1,1553,1135,0,0
336,-111,0,0,0,0,0,0,0,0,0,-1,1560,1135,0,0
343,-111,0,0,0,0,0,0,0,0,0,-1,1567,1135,0,0
350,-111,0,0,0,0,0,0,0,0,0,-1,1574,1135,0,0
357,-111,0,0,0,0,0,0,0,0,0,-1,1581,1135,0,0
364,-111,0,0,0,0,0,0,0,0,0,-1,1588,1135,0,0
371,-111,0,0,0,0,0,0,0,0,0,-1,1595,1135,0,0
378,-111,0,0,0,0,0,0,0,0,0,-1,1602,1135,0,0
385,-111,0,0,0,0,0,0,0,0,0,-1,1609,1135,0,0
392,-111,0,0,0,0,0,0,0,0,0,-1,1616,1135,0,0
399,-111,0,0,0,0,0,0,0,0,0,-1,1623,1135,0,0
406,-111,0,0,0,0,0,0,0,0,0,-1,1630,1135,0,0
413,-111,0,0,0,0,0,0,0,0,0,-1,1637,1135,0,0
420,-111,0,0,0,0,0,0,0,0,0,-1,1644,1135,0,0
427,-111,0,0,0,0,0,0,0,0,0,-1,1651,1135,0,0
434,-111,0,0,0,0,0,0,0,0,0,-1,1658,1135,0,0
441,-111,0,0,0,0,0,0,0,0,0,-1,1665,1135,0,0
448,-111,0,0,0,0,0,0,0,0,0,-1,1672,1135,0,0
455,-111,0,0,0,0,0,0,0,0,0,-1,1679,1135,0,0
462,-111,0,0,0,0,0,0,0,0,0,-1,1686,1135,0,0
469,-111,0,0,0,0,0,0,0,0,0,-1,1693,1135,0,0
476,-111,0,0,0,0,0,0,0,0,0,-1,1700,1135,0,0
483,-111,0,0,0,0,0,0,0,0,0,-1,1707,1135,0,0
490,-111,0,0,0,0,0,0,0,0,0,-1,1714,1135,0,0
497,-111,0,0,0,0,0,0,0,0,0,-1,1721,1135,0,0
504,-111,0,0,0,0,0,0,0,0,0,-1,1728,1135,0,0
511,-111,0,0,0,0,0,0,0,0,0,-1,1735,1135,0,0
518,-111,0,0,0,0,0,0,0,0,0,-1,1742,1135,0,0
525,-111,0,0,0,0,0,0,0,0,0,-1,1749,1135,0,0
532,-111,0,0,0,0,0,0,0,0,0,-1,1756,1135,0,0
539,-111,0,0,0,0,0,0,0,0,0,-1,1763,1135,0,0
546,-111,0,0,0,0,0,0,0,0,0,-1,1770,1135,0,0
553,-111,0,0,0,0,0,0,0,0,0,-1,1777,1135,0,0
560,-111,0,0,0,0,0,0,0,0,0,-1,1784,1135,0,0
567,-111,0,0,0,0,0,0,0,0,0,-1,1791,1135,0,0
574,-111,0,0,0,0,0,0,0,0,0,-1,1798,1135,0,0
581,-111,0,0,0,0,0,0,0,0,0,-1,1805,1135,0,0
588,-111,0,0,0,0,0,0,0,0,0,-1,1812,1135,0,0
595,-111,0,0,0,0,0,0,0,0,0,-1,1819,1135,0,0
602,-111,0,0,0,0,0,0,0,0,0,-1,1826,1135,0,0
609,-111,0,0,0,0,0,0,0,0,0,-1,1833,1135,0,0
616,-111,0,0,0,0,0,0,0,0,0,-1,1840,1135,0,0
623,-111,0,0,0,0,0,0,0,0,0,-1,1847,1135,0,0
630,-111,0,0,0,0,0,0,0,0,0,-1,1854,1135,0,0
637,-111,0,0,0,0,0,0,0,0,0,-1,1861,1135,0,0
644,-111,46.4042,2.99878,-0.00340295,-0.00141915,0.000918334,-0.00105931,-0.00376279,1.19734,0.00224051,0.0392096,1868,1135,46.4042,-2.99878
651,-111,46.4004,3.06531,-0.00267218,-0.000854591,0.000444205,-0.000751839,-0.00277494,1.34348,0.0016572,0.0414897,1875,1135,46.4004,-3.06526
658,-111,46.4343,3.07458,-0.00192308,-0.000538396,6.21863e-05,-0.000535609,-0.00192587,1.52601,0.00114782,0.0439137,1882,1135,46.4343,-3.07455
665,-111,46.416,2.89124,-0.00128954,-0.000311145,-0.000247389,-0.00025215,-0.00134854,-1.3367,0.000827876,0.0437212,1889,1135,46.416,-2.89128
672,-111,46.3049,2.68713,-0.000747517,-0.000150403,-0.000482181,0.000118169,-0.00101609,-1.0626,0.000720022,0.0427511,1896,1135,46.305,-2.68715
679,-111,46.3074,2.92261,-0.00056334,-0.000179444,-0.000544553,0.000206001,-0.000948784,-0.954843,0.000711205,0.0396668,1903,1135,46.3074,-2.92264
686,-111,46.3141,2.95886,-0.000375514,-0.000315236,-0.000488224,0.000143779,-0.000834528,-0.816225,0.000609953,0.0388311,1910,1135,46.3141,-2.95882
693,-111,46.3412,2.79688,-0.000158368,-0.000390704,-0.000361136,0.000104824,-0.000653896,-0.629788,0.000474745,0.0368271,1917,1135,46.3412,-2.79692
700,-111,46.3989,2.7478,-3.72696e-05,-0.000485387,-0.000279124,9.65996e-05,-0.000619256,-0.447199,0.000448518,0.0289928,1924,1135,46.3989,-2.7478
707,-111,46.3693,2.76941,0,0,0,0,0,0,0,-1,1931,1135,46.3692,-2.76938
714,-111,39.0695,6.81152,0,0,0,0,0,0,0,-1,1938,1135,39.0694,-6.81152
721,-111,42.7386,7.23596,0,0,0,0,0,0,0,-1,1945,1135,42.7387,-7.23592
728,-111,42.8347,6.77905,-0.000847794,-9.05491e-05,0.000795152,0.000411522,-0.00134986,1.0076,0.00106395,0.022194,1952,1135,42.8348,-6.77901
735,-111,42.8536,6.45947,-0.0015651,0.000110067,0.000960927,0.000547209,-0.00200225,1.14386,0.00154978,0.021577,1959,1135,42.8536,-6.45943
742,-111,42.8103,6.20337,-0.00229281,0.000550319,0.00126682,0.00103287,-0.00277537,1.20685,0.00227411,0.0137994,1966,1135,42.8104,-6.20331
749,-111,42.7765,5.87183,-0.00321558,0.00149318,0.00107021,0.00172501,-0.00344741,1.35748,0.00304099,0.0159771,1973,1135,42.7765,-5.87186
756,-111,42.7526,5.53784,-0.00432444,0.00309094,0.000249724,0.00309934,-0.00433284,1.53717,0.00431063,0.0166372,1980,1135,42.7525,-5.53786
763,-111,42.7493,5.24976,-0.00568916,0.00547726,-0.00142894,0.00565722,-0.00586912,-1.44552,0.00665511,0.0146725,1987,1135,42.7493,-5.24981
770,-111,42.7327,4.9502,-0.0072676,0.00847145,-0.00393001,0.00939819,-0.00819434,-1.33921,0.010165,0.0123998,1994,1135,42.7326,-4.95024
777,-111,42.5956,4.65186,-0.00875651,0.0121367,-0.00738371,0.0144827,-0.0111025,-1.26316,0.0148145,0.0251911,2001,1135,42.5955,-4.65185
784,-111,42.4658,4.38538,-0.0101092,0.0167537,-0.0122115,0.0214751,-0.0148306,-1.20187,0.0210778,0.0396508,2008,1135,42.4657,-4.38533
791,-111,42.4905,3.99805,-0.0110105,0.0227088,-0.0190291,0.0312726,-0.0195743,-1.14791,0.0296143,0.0422237,2015,1135,42.4905,-3.9981
798,-111,42.6445,3.71252,0,0,0,0,0,0,0,-1,2022,1135,42.6444,-3.71252
805,-111,42.7971,3.39734,0,0,0,0,0,0,0,-1,2029,1135,42.7972,-3.39734
812,-111,43.1052,2.64844,0,0,0,0,0,0,0,-1,2036,1135,43.1051,-2.64846
-700,-118,0,0,0,0,0,0,0,0,0,-1,524,1142,0,0
-693,-118,-24.1377,-0.700928,0,0,0,0,0,0,0,-1,531,1142,-24.1377,0.700976
-686,-118,-31.5757,-3.19067,0,0,0,0,0,0,0,-1,538,1142,-31.5757,3.19071
-679,-118,-32.1832,-2.77563,0.0458225,0.0718567,-0.0321132,0.0934907,0.0241885,-0.977953,0.0560325,0.0452516,545,1142,-32.1832,2.77569
-672,-118,-32.8397,-2.42273,0.035771,0.0569,-0.0247037,0.0732034,0.0194676,-0.987454,0.0437804,0.0440142,552,1142,-32.8397,2.42278
-665,-118,-33.1703,-0.811157,0,0,0,0,0,0,0,-1,559,1142,-33.1703,0.811162
-658,-118,-30.8436,0.545898,0,0,0,0,0,0,0,-1,566,1142,-30.8436,-0.545897
-651,-118,-30.3524,1.13708,0.0144644,0.0253327,-0.0102997,0.0315439,0.00825324,-1.02814,0.0188891,0.0425813,573,1142,-30.3524,-1.13711
-644,-118,-29.9554,1.71826,0.0100854,0.0182572,-0.00724397,0.0224881,0.00585445,-1.04218,0.0134715,0.0310265,580,1142,-29.9554,-1.71825
-637,-118,-30.0502,2.14929,0.00652803,0.0122765,-0.00475555,0.0149589,0.0038456,-1.05722,0.00896986,0.0169988,587,1142,-30.0502,-2.14933
-630,-118,-30.0871,2.4928,0.00371023,0.00705573,-0.00235627,0.00827264,0.00249333,-1.09407,0.0049002,0.022897,594,1142,-30.0871,-2.49285
-623,-118,-30.0996,2.87,0.00159231,0.00302162,-0.00127433,0.00376801,0.000845922,-1.04095,0.00228289,0.0188651,601,1142,-30.0996,-2.87
-616,-118,-30.1745,3.22412,0.00080801,0.0014591,-0.000540397,0.00176444,0.000502677,-1.0565,0.00104965,0.0198186,608,1142,-30.1745,-3.2241
-609,-118,-30.3733,3.46191,0.000897222,0.000561774,-5.69801e-05,0.000906637,0.00055236,-0.163746,0.000527595,0.0334835,615,1142,-30.3733,-3.46189
-602,-118,-30.2682,4.03833,0.00123031,0.000210331,-8.387e-05,0.00123716,0.000203481,-0.0814981,0.000766006,0.0324218,622,1142,-30.2682,-4.03836
-595,-118,-30.3251,4.31995,0.000848402,0.00020798,-8.31449e-05,0.000859021,0.000197362,-0.127023,0.000519543,0.0260703,629,1142,-30.3251,-4.31994
-588,-118,-29.8262,4.96289,0,0,0,0,0,0,0,-1,636,1142,-29.8263,-4.96291
-581,-118,-24.6116,3.89648,0,0,0,0,0,0,0,-1,643,1142,-24.6116,-3.89645
-574,-118,-33.9616,0.603027,0,0,0,0,0,0,0,-1,650,1142,-33.9616,-0.603036
-567,-118,-34.0251,0.826782,0.00169321,0.000262815,-0.0012358,0.00240585,-0.000449826,-0.523082,0.00177297,0.04392,657,1142,-34.0251,-0.826823
-560,-118,-34.077,1.11792,0.00200989,0.000419376,-0.00160655,0.00300724,-0.000577974,-0.555575,0.00222268,0.0387814,664,1142,-34.077,-1.11794
-553,-118,-33.9094,1.18237,0.00199975,0.000661771,-0.00237349,0.00379673,-0.0011352,-0.648032,0.00298246,0.0406795,671,1142,-33.9094,-1.18243
-546,-118,-33.7946,1.02661,0.00215354,0.000916701,-0.00362009,0.00520765,-0.00213741,-0.7008,0.00436242,0.041898,678,1142,-33.7946,-1.02655
-539,-118,-34.0278,1.14893,0,0,0,0,0,0,0,-1,685,1142,-34.0278,-1.14895
-532,-118,-34.3145,1.15088,0.00526912,0.000859993,-0.00744602,0.0108301,-0.00470096,-0.641473,0.00919665,0.0415897,692,1142,-34.3145,-1.15092
-525,-118,-34.2382,0.938843,0.00765071,0.000649875,-0.00937037,0.0141531,-0.00585254,-0.606643,0.0118771,0.0419308,699,1142,-34.2382,-0.938785
-518,-118,0,0,0,0,0,0,0,0,0,-1,706,1142,0,0
-511,-118,0,0,0,0,0,0,0,0,0,-1,713,1142,0,0
-504,-118,0,0,0,0,0,0,0,0,0,-1,720,1142,0,0
-497,-118,0,0,0,0,0,0,0,0,0,-1,727,1142,0,0
-490,-118,0,0,0,0,0,0,0,0,0,-1,734,1142,0,0
-483,-118,0,0,0,0,0,0,0,0,0,-1,741,1142,0,0
-476,-118,0,0,0,0,0,0,0,0,0,-1,748,1142,0,0
-469,-118,0,0,0,0,0,0,0,0,0,-1,755,1142,0,0
-462,-118,0,0,0,0,0,0,0,0,0,-1,762,1142,0,0
-455,-118,0,0,0,0,0,0,0,0,0,-1,769,1142,0,0
-448,-118,0,0,0,0,0,0,0,0,0,-1,776,1142,0,0
-441,-118,0,0,0,0,0,0,0,0,0,-1,783,1142,0,0
-434,-118,0,0,0,0,0,0,0,0,0,-1,790,1142,0,0
-427,-118,0,0,0,0,0,0,0,0,0,-1,797,1142,0,0
-420,-118,0,0,0,0,0,0,0,0,0,-1,804,1142,0,0
-413,-118,0,0,0,0,0,0,0,0,0,-1,811,1142,0,0
-406,-118,0,0,0,0,0,0,0,0,0,-1,818,1142,0,0
-399,-118,0,0,0,0,0,0,0,0,0,-1,825,1142,0,0
-392,-118,0,0,0,0,0,0,0,0,0,-1,832,1142,0,0
-385,-118,0,0,0,0,0,0,0,0,0,-1,839,1142,0,0
-378,-118,0,0,0,0,0,0,0,0,0,-1,846,1142,0,0
-371,-118,0,0,0,0,0,0,0,0,0,-1,853,1142,0,0
-364,-118,0,0,0,0,0,0,0,0,0,-1,860,1142,0,0
-357,-118,0,0,0,0,0,0,0,0,0,-1,867,1142,0,0
-350,-118,0,0,0,0,0,0,0,0,0,-1,874,1142,0,0
-343,-118,0,0,0,0,0,0,0,0,0,-1,881,1142,0,0
-336,-118,0,0,0,0,0,0,0,0,0,-1,888,1142,0,0
-329,-118,0,0,0,0,0,0,0,0,0,-1,895,1142,0,0
-322,-118,0,0,0,0,0,0,0,0,0,-1,902,1142,0,0
-315,-118,0,0,0,0,0,0,0,0,0,-1,909,1142,0,0
-308,-118,0,0,0,0,0,0,0,0,0,-1,916,1142,0,0
-301,-118,0,0,0,0,0,0,0,0,0,-1,923,1142,0,0
-294,-118,0,0,0,0,0,0,0,0,0,-1,930,1142,0,0
-287,-118,0,0,0,0,0,0,0,0,0,-1,937,1142,0,0
-280,-118,0,0,0,0,0,0,0,0,0,-1,944,1142,0,0
-273,-118,0,0,0,0,0,0,0,0,0,-1,951,1142,0,0
-266,-118,0,0,0,0,0,0,0,0,0,-1,958,1142,0,0
-259,-118,0,0,0,0,0,0,0,0,0,-1,965,1142,0,0
-252,-118,0,0,0,0,0,0,0,0,0,-1,972,1142,0,0
-245,-118,0,0,0,0,0,0,0,0,0,-1,979,1142,0,0
-238,-118,0,0,0,0,0,0,0,0,0,-1,986,1142,0,0
-231,-118,0,0,0,0,0,0,0,0,0,-1,993,1142,0,0
-224,-118,0,0,0,0,0,0,0,0,0,-1,1000,1142,0,0
-217,-118,0,0,0,0,0,0,0,0,0,-1,1007,1142,0,0
-210,-118,0,0,0,0,0,0,0,0,0,-1,1014,1142,0,0
-203,-118,0,0,0,0,0,0,0,0,0,-1,1021,1142,0,0
-196,-118,0,0,0,0,0,0,0,0,0,-1,1028,1142,0,0
-189,-118,0,0,0,0,0,0,0,0,0,-1,1035,1142,0,0
-182,-118,0,0,0,0,0,0,0,0,0,-1,1042,1142,0,0
-175,-118,0,0,0,0,0,0,0,0,0,-1,1049,1142,0,0
-168,-118,0,0,0,0,0,0,0,0,0,-1,1056,1142,0,0
-161,-118,0,0,0,0,0,0,0,0,0,-1,1063,1142,0,0
-154,-118,0,0,0,0,0,0,0,0,0,-1,1070,1142,0,0
-147,-118,0,0,0,0,0,0,0,0,0,-1,1077,1142,0,0
-140,-118,0,0,0,0,0,0,0,0,0,-1,1084,1142,0,0
-133,-118,0,0,0,0,0,0,0,0,0,-1,1091,1142,0,0
-126,-118,0,0,0,0,0,0,0,0,0,-1,1098,1142,0,0
-119,-118,0,0,0,0,0,0,0,0,0,-1,1105,1142,0,0
-112,-118,0,0,0,0,0,0,0,0,0,-1,1112,1142,0,0
-105,-118,0,0,0,0,0,0,0,0,0,-1,1119,1142,0,0
-98,-118,0,0,0,0,0,0,0,0,0,-1,1126,1142,0,0
-91,-118,0,0,0,0,0,0,0,0,0,-1,1133,1142,0,0
-84,-118,0,0,0,0,0,0,0,0,0,-1,1140,1142,0,0
-77,-118,0,0,0,0,0,0,0,0,0,-1,1147,1142,0,0
-70,-118,0,0,0,0,0,0,0,0,0,-1,1154,1142,0,0
-63,-118,0,0,0,0,0,0,0,0,0,-1,1161,1142,0,0
-56,-118,0,0,0,0,0,0,0,0,0,-1,1168,1142,0,0
-49,-118,0,0,0,0,0,0,0,0,0,-1,1175,1142,0,0
-42,-118,0,0,0,0,0,0,0,0,0,-1,1182,1142,0,0
-35,-118,0,0,0,0,0,0,0,0,0,-1,1189,1142,0,0
-28,-118,0,0,0,0,0,0,0,0,0,-1,1196,1142,0,0
-21,-118,0,0,0,0,0,0,0,0,0,-1,1203,1142,0,0
-14,-118,0,0,0,0,0,0,0,0,0,-1,1210,1142,0,0
-7,-118,0,0,0,0,0,0,0,0,0,-1,1217,1142,0,0
0,-118,0,0,0,0,0,0,0,0,0,-1,1224,1142,0,0
7,-118,0,0,0,0,0,0,0,0,0,-1,1231,1142,0,0
14,-118,0,0,0,0,0,0,0,0,0,-1,1238,1142,0,0
21,-118,0,0,0,0,0,0,0,0,0,-1,1245,1142,0,0
28,-118,0,0,0,0,0,0,0,0,0,-1,1252,1142,0,0
35,-118,0,0,0,0,0,0,0,0,0,-1,1259,1142,0,0
42,-118,0,0,0,0,0,0,0,0,0,-1,1266,1142,0,0
49,-118,0,0,0,0,0,0,0,0,0,-1,1273,1142,0,0
56,-118,0,0,0,0,0,0,0,0,0,-1,1280,1142,0,0
63,-118,0,0,0,0,0,0,0,0,0,-1,1287,1142,0,0
70,-118,0,0,0,0,0,0,0,0,0,-1,1294,1142,0,0
77,-118,0,0,0,0,0,0,0,0,0,-1,1301,1142,0,0
84,-118,0,0,0,0,0,0,0,0,0,-1,1308,1142,0,0
91,-118,0,0,0,0,0,0,0,0,0,-1,1315,1142,0,0
98,-118,0,0,0,0,0,0,0,0,0,-1,1322,1142,0,0
105,-118,0,0,0,0,0,0,0,0,0,-1,1329,1142,0,0
112,-118,0,0,0,0,0,0,0,0,0,-1,1336,1142,0,0
119,-118,0,0,0,0,0,0,0,0,0,-1,1343,1142,0,0
126,-118,0,0,0,0,0,0,0,0,0,-1,1350,1142,0,0
133,-118,0,0,0,0,0,0,0,0,0,-1,1357,1142,0,0
140,-118,0,0,0,0,0,0,0,0,0,-1,1364,1142,0,0
147,-118,0,0,0,0,0,0,0,0,0,-1,1371,1142,0,0
154,-118,0,0,0,0,0,0,0,0,0,-1,1378,1142,0,0
161,-118,0,0,0,0,0,0,0,0,0,-1,1385,1142,0,0
168,-118,0,0,0,0,0,0,0,0,0,-1,1392,1142,0,0
175,-118,0,0,0,0,0,0,0,0,0,-1,1399,1142,0,0
182,-118,0,0,0,0,0,0,0,0,0,-1,1406,1142,0,0
189,-118,0,0,0,0,0,0,0,0,0,-1,1413,1142,0,0
196,-118,0,0,0,0,0,0,0,0,0,-1,1420,1142,0,0
203,-118,0,0,0,0,0,0,0,0,0,-1,1427,1142,0,0
210,-118,0,0,0,0,0,0,0,0,0,-1,1434,1142,0,0
217,-118,0,0,0,0,0,0,0,0,0,-1,1441,1142,0,0
224,-118,0,0,0,0,0,0,0,0,0,-1,1448,1142,0,0
231,-118,0,0,0,0,0,0,0,0,0,-1,1455,1142,0,0
238,-118,0,0,0,0,0,0,0,0,0,-1,1462,1142,0,0
245,-118,0,0,0,0,0,0,0,0,0,-1,1469,1142,0,0
252,-118,0,0,0,0,0,0,0,0,0,-1,1476,1142,0,0
259,-118,0,0,0,0,0,0,0,0,0,-1,1483,1142,0,0
266,-118,0,0,0,0,0,0,0,0,0,-1,1490,1142,0,0
273,-118,0,0,0,0,0,0,0,0,0,-1,1497,1142,0,0
280,-118,0,0,0,0,0,0,0,0,0,-1,1504,1142,0,0
287,-118,0,0,0,0,0,0,0,0,0,-1,1511,1142,0,0
294,-118,0,0,0,0,0,0,0,0,0,-1,1518,1142,0,0
301,-118,0,0,0,0,0,0,0,0,0,-1,1525,1142,0,0
308,-118,0,0,0,0,0,0,0,0,0,-1,1532,1142,0,0
315,-118,0,0,0,0,0,0,0,0,0,-1,1539,1142,0,0
322,-118,0,0,0,0,0,0,0,0,0,-1,1546,1142,0,0
329,-118,0,0,0,0,0,0,0,0,0,-1,1553,1142,0,0
336,-118,0,0,0,0,0,0,0,0,0,-1,1560,1142,0,0
343,-118,0,0,0,0,0,0,0,0,0,-1,1567,1142,0,0
350,-118,0,0,0,0,0,0,0,0,0,-1,1574,1142,0,0
357,-118,0,0,0,0,0,0,0,0,0,-1,1581,1142,0,0
364,-118,0,0,0,0,0,0,0,0,0,-1,1588,1142,0,0
371,-118,0,0,0,0,0,0,0,0,0,-1,1595,1142,0,0
378,-118,0,0,0,0,0,0,0,0,0,-1,1602,1142,0,0
385,-118,0,0,0,0,0,0,0,0,0,-1,1609,1142,0,0
392,-118,0,0,0,0,0,0,0,0,0,-1,1616,1142,0,0
399,-118,0,0,0,0,0,0,0,0,0,-1,1623,1142,0,0
406,-118,0,0,0,0,0,0,0,0,0,-1,1630,1142,0,0
413,-118,0,0,0,0,0,0,0,0,0,-1,1637,1142,0,0
420,-118,0,0,0,0,0,0,0,0,0,-1,1644,1142,0,0
427,-118,0,0,0,0,0,0,0,0,0,-1,1651,1142,0,0
434,-118,0,0,0,0,0,0,0,0,0,-1,1658,1142,0,0
441,-118,0,0,0,0,0,0,0,0,0,-1,1665,1142,0,0
448,-118,0,0,0,0,0,0,0,0,0,-1,1672,1142,0,0
455,-118,0,0,0,0,0,0,0,0,0,-1,1679,1142,0,0
462,-118,0,0,0,0,0,0,0,0,0,-1,1686,1142,0,0
469,-118,0,0,0,0,0,0,0,0,0,-1,1693,1142,0,0
476,-118,0,0,0,0,0,0,0,0,0,-1,1700,1142,0,0
483,-118,0,0,0,0,0,0,0,0,0,-1,1707,1142,0,0
490,-118,0,0,0,0,0,0,0,0,0,-1,1714,1142,0,0
497,-118,0,0,0,0,0,0,0,0,0,-1,1721,1142,0,0
504,-118,0,0,0,0,0,0,0,0,0,-1,1728,1142,0,0
511,-118,0,0,0,0,0,0,0,0,0,-1,1735,1142,0,0
518,-118,0,0,0,0,0,0,0,0,0,-1,1742,1142,0,0
525,-118,0,0,0,0,0,0,0,0,0,-1,1749,1142,0,0
532,-118,0,0,0,0,0,0,0,0,0,-1,1756,1142,0,0
539,-118,0,0,0,0,0,0,0,0,0,-1,1763,1142,0,0
546,-118,0,0,0,0,0,0,0,0,0,-1,1770,1142,0,0
553,-118,0,0,0,0,0,0,0,0,0,-1,1777,1142,0,0
560,-118,0,0,0,0,0,0,0,0,0,-1,1784,1142,0,0
567,-118,0,0,0,0,0,0,0,0,0,-1,1791,1142,0,0
574,-118,0,0,0,0,0,0,0,0,0,-1,1798,1142,0,0
581,-118,0,0,0,0,0,0,0,0,0,-1,1805,1142,0,0
588,-118,0,0,0,0,0,0,0,0,0,-1,1812,1142,0,0
595,-118,0,0,0,0,0,0,0,0,0,-1,1819,1142,0,0
602,-118,0,0,0,0,0,0,0,0,0,-1,1826,1142,0,0
609,-118,0,0,0,0,0,0,0,0,0,-1,1833,1142,0,0
616,-118,0,0,0,0,0,0,0,0,0,-1,1840,1142,0,0
623,-118,0,0,0,0,0,0,0,0,0,-1,1847,1142,0,0
630,-118,0,0,0,0,0,0,0,0,0,-1,1854,1142,0,0
637,-118,0,0,0,0,0,0,0,0,0,-1,1861,1142,0,0
644,-118,46.4281,2.97742,-0.00546784,-0.00161434,0.00155409,-0.0010657,-0.00601648,1.23142,0.00370717,0.0439469,1868,1142,46.428,-2.97737
651,-118,46.3246,3.04749,-0.00409788,-0.000914295,0.000926372,-0.000664357,-0.00434782,1.30727,0.00270443,0.0438302,1875,1142,46.3246,-3.04744
658,-118,46.3926,3.14966,0,0,0,0,0,0,0,-1,1882,1142,46.3926,-3.14966
665,-118,46.5336,2.91321,-0.00182218,-0.000229639,-1.25471e-05,-0.00022954,-0.00182228,-1.56292,0.00114603,0.0422736,1889,1142,46.5335,-2.91323
672,-118,46.3778,2.77258,-0.000981659,-3.94071e-05,-0.000336207,6.82542e-05,-0.00108932,-1.26089,0.000750001,0.0431282,1896,1142,46.3778,-2.7726
679,-118,46.3358,2.979,-0.000618248,-7.22304e-05,-0.000428684,0.000162996,-0.000853475,-1.06894,0.000630379,0.0427117,1903,1142,46.3358,-2.97903
686,-118,46.3158,2.9989,-0.000348702,-0.000214851,-0.000385012,0.000109009,-0.000672562,-0.871452,0.00048878,0.0370795,1910,1142,46.3159,-2.99888
693,-118,46.3057,2.84363,-8.25475e-05,-0.000275221,-0.000260131,9.85127e-05,-0.000456281,-0.608059,0.000341791,0.0348734,1917,1142,46.3057,-2.84366
700,-118,46.364,2.78406,7.43689e-05,-0.000377573,-0.000180115,0.000137369,-0.000440573,-0.336476,0.000348645,0.0237153,1924,1142,46.3641,-2.78405
707,-118,46.4154,2.84912,0,0,0,0,0,0,0,-1,1931,1142,46.4154,-2.84918
714,-118,42.6581,7.65564,0,0,0,0,0,0,0,-1,1938,1142,42.6581,-7.65562
721,-118,42.4388,7.2533,-0.000396524,-0.000256192,0.000651131,0.000328542,-0.000981258,0.839071,0.000786891,0.0269125,1945,1142,42.4388,-7.25333
728,-118,42.491,6.88245,-0.000718664,-0.000118824,0.000859073,0.000491178,-0.00132867,0.953344,0.00108714,0.0194056,1952,1142,42.491,-6.88239
735,-118,42.4629,6.54797,-0.00140426,3.83795e-06,0.00104955,0.000563605,-0.00196403,1.08083,0.00153217,0.0181518,1959,1142,42.4629,-6.54793
742,-118,42.5043,6.23523,-0.00220967,0.000432392,0.00136251,0.00100914,-0.00278642,1.17037,0.00227003,0.0236719,1966,1142,42.5043,-6.23527
749,-118,42.4382,5.91284,-0.00328008,0.0013455,0.00117704,0.00162779,-0.00356237,1.33541,0.00306514,0.0211799,1973,1142,42.4382,-5.91279
756,-118,42.4021,5.58093,-0.00461372,0.00292093,0.000398195,0.00294192,-0.00463471,1.51814,0.00441061,0.0194005,1980,1142,42.4021,-5.58094
763,-118,42.4331,5.25684,-0.00628876,0.00524632,-0.00122693,0.00537538,-0.00641782,-1.46599,0.00681767,0.0111704,1987,1142,42.4332,-5.25679
770,-118,42.3563,4.95337,-0.00821615,0.00812717,-0.00364819,0.00890455,-0.00899353,-1.36085,0.0103335,0.0133875,1994,1142,42.3563,-4.95333
777,-118,42.2305,4.68372,-0.0101233,0.0116445,-0.00702544,0.013715,-0.0121937,-1.2842,0.014967,0.0284214,2001,1142,42.2304,-4.68372
784,-118,42.115,4.4624,-0.0119966,0.0160936,-0.0118142,0.0204017,-0.0163048,-1.22113,0.0212365,0.0431171,2008,1142,42.115,-4.46239
791,-118,42.05,4.25049,-0.0134726,0.0218744,-0.0187175,0.0299438,-0.021542,-1.16376,0.029857,0.0494415,2015,1142,42.05,-4.25051
798,-118,41.9836,4.02039,0,0,0,0,0,0,0,-1,2022,1142,41.9836,-4.02036
805,-118,42.8809,3.89624,0,0,0,0,0,0,0,-1,2029,1142,42.8808,-3.89619
812,-118,43.1865,2.77197,0,0,0,0,0,0,0,-1,2036,1142,43.1865,-2.77202
-700,-125,0,0,0,0,0,0,0,0,0,-1,524,1149,0,0
-693,-125,-23.6028,-1.35486,0,0,0,0,0,0,0,-1,531,1149,-23.6028,1.3548
-686,-125,-31.0875,-2.98962,0,0,0,0,0,0,0,-1,538,1149,-31.0875,2.98958
-679,-125,-31.3457,-2.23816,0.0671882,0.0762734,-0.0152172,0.0876115,0.0558501,-0.930446,0.0512159,0.0473071,545,1149,-31.3457,2.23818
-672,-125,-31.5861,-1.54041,0.0527381,0.0604047,-0.0114243,0.0686217,0.0445211,-0.947267,0.0401992,0.0467643,552,1149,-31.5861,1.54038
-665,-125,-31.7819,-0.641357,0.0405073,0.0471398,-0.00855573,0.0529995,0.0346476,-0.970287,0.0310777,0.044646,559,1149,-31.7819,0.641385
-658,-125,-30.614,0.785645,0,0,0,0,0,0,0,-1,566,1149,-30.614,-0.785601
-651,-125,-30.0811,1.27734,0.021798,0.0268891,-0.0046947,0.029684,0.0190031,-1.03382,0.0173611,0.0417864,573,1149,-30.0811,-1.27729
-644,-125,-29.5832,1.74548,0.0152362,0.0193659,-0.00328439,0.0211806,0.0134215,-1.06602,0.0123734,0.0286178,580,1149,-29.5832,-1.74552
-637,-125,-29.6616,2.11902,0.00981701,0.0130076,-0.00216714,0.0141033,0.00872131,-1.10268,0.00821825,0.0144494,587,1149,-29.6616,-2.11899
-630,-125,-29.6774,2.48608,0.00540736,0.0074342,-0.000963899,0.0078194,0.00502217,-1.19062,0.00457504,0.0157377,594,1149,-29.6774,-2.48604
-623,-125,-29.6884,2.86853,0.00217391,0.00327593,-0.000589578,0.0035319,0.00191794,-1.1612,0.00204166,0.0141622,601,1149,-29.6884,-2.86858
-616,-125,-29.7057,3.2345,0.000818273,0.0015403,-0.00025427,0.00162085,0.000737716,-1.26399,0.000937056,0.0198232,608,1149,-29.7057,-3.23448
-609,-125,-29.8444,3.52563,0.000570241,0.000662629,8.58483e-05,0.000713923,0.000518948,1.03222,0.000426095,0.0381871,615,1149,-29.8444,-3.5256
-602,-125,-29.8449,4.05273,0.000867632,0.000371175,-1.73854e-05,0.00086824,0.000370567,-0.0349619,0.000503066,0.0315572,622,1149,-29.8449,-4.05268
-595,-125,-29.9011,4.42578,0.000529365,0.000402246,-1.73027e-05,0.000531678,0.000399933,-0.132894,0.000319717,0.0303762,629,1149,-29.9011,-4.42574
-588,-125,-29.2498,4.88074,0,0,0,0,0,0,0,-1,636,1149,-29.2497,-4.88074
-581,-125,-26.4055,4.83203,0,0,0,0,0,0,0,-1,643,1149,-26.4055,-4.83204
-574,-125,-33.9673,0.785522,0,0,0,0,0,0,0,-1,650,1149,-33.9673,-0.785492
-567,-125,-34.0336,0.85498,0.00157548,0.000315701,-0.00124149,0.00233773,-0.000446551,-0.550637,0.00172669,0.0462767,657,1149,-34.0335,-0.85503
-560,-125,-34.0647,0.93811,0.00192641,0.000422011,-0.0015619,0.0029078,-0.000559379,-0.560991,0.0021494,0.0381889,664,1149,-34.0647,-0.938157
-553,-125,-33.9368,0.932983,0.00196948,0.00062517,-0.00227635,0.00367084,-0.00107618,-0.641838,0.00287392,0.0389684,671,1149,-33.9368,-0.93298
-546,-125,-33.9781,0.945557,0.00223356,0.00082047,-0.00349179,0.00508957,-0.00203554,-0.685573,0.00423778,0.0396607,678,1149,-33.9781,-0.945596
-539,-125,-34.2054,1.03088,0.00338019,0.000855412,-0.00530993,0.00757573,-0.00334013,-0.668694,0.00645849,0.0410455,685,1149,-34.2054,-1.03087
-532,-125,-34.3344,1.05933,0.00528607,0.000620223,-0.00731877,0.0106347,-0.00472845,-0.63111,0.00908581,0.0395192,692,1149,-34.3343,-1.05938
-525,-125,-34.1808,0.865601,0.00752041,0.000249209,-0.00922685,0.0138021,-0.00603246,-0.597726,0.0117407,0.0399598,699,1149,-34.1809,-0.865643
-518,-125,0,0,0,0,0,0,0,0,0,-1,706,1149,0,0
-511,-125,0,0,0,0,0,0,0,0,0,-1,713,1149,0,0
-504,-125,0,0,0,0,0,0,0,0,0,-1,720,1149,0,0
-497,-125,0,0,0,0,0,0,0,0,0,-1,727,1149,0,0
-490,-125,0,0,0,0,0,0,0,0,0,-1,734,1149,0,0
-483,-125,0,0,0,0,0,0,0,0,0,-1,741,1149,0,0
-476,-125,0,0,0,0,0,0,0,0,0,-1,748,1149,0,0
-469,-125,0,0,0,0,0,0,0,0,0,-1,755,1149,0,0
-462,-125,0,0,0,0,0,0,0,0,0,-1,762,1149,0,0
-455,-125,0,0,0,0,0,0,0,0,0,-1,769,1149,0,0
-448,-125,0,0,0,0,0,0,0,0,0,-1,776,1149,0,0
-441,-125,0,0,0,0,0,0,0,0,0,-1,783,1149,0,0
-434,-125,0,0,0,0,0,0,0,0,0,-1,790,1149,0,0
-427,-125,0,0,0,0,0,0,0,0,0,-1,797,1149,0,0
-420,-125,0,0,0,0,0,0,0,0,0,-1,804,1149,0,0
-413,-125,0,0,0,0,0,0,0,0,0,-1,811,1149,0,0
-406,-125,0,0,0,0,0,0,0,0,0,-1,818,1149,0,0
-399,-125,0,0,0,0,0,0,0,0,0,-1,825,1149,0,0
-392,-125,0,0,0,0,0,0,0,0,0,-1,832,1149,0,0
-385,-125,0,0,0,0,0,0,0,0,0,-1,839,1149,0,0
-378,-125,0,0,0,0,0,0,0,0,0,-1,846,1149,0,0
-371,-125,0,0,0,0,0,0,0,0,0,-1,853,1149,0,0
-364,-125,0,0,0,0,0,0,0,0,0,-1,860,1149,0,0
-357,-125,0,0,0,0,0,0,0,0,0,-1,867,1149,0,0
-350,-125,0,0,0,0,0,0,0,0,0,-1,874,1149,0,0
-343,-125,0,0,0,0,0,0,0,0,0,-1,881,1149,0,0
-336,-125,0,0,0,0,0,0,0,0,0,-1,888,1149,0,0
-329,-125,0,0,0,0,0,0,0,0,0,-1,895,1149,0,0
-322,-125,0,0,0,0,0,0,0,0,0,-1,902,1149,0,0
-315,-125,0,0,0,0,0,0,0,0,0,-1,909,1149,0,0
-308,-125,0,0,0,0,0,0,0,0,0,-1,916,1149,0,0
-301,-125,0,0,0,0,0,0,0,0,0,-1,923,1149,0,0
-294,-125,0,0,0,0,0,0,0,0,0,-1,930,1149,0,0
-287,-125,0,0,0,0,0,0,0,0,0,-1,937,1149,0,0
-280,-125,0,0,0,0,0,0,0,0,0,-1,944,1149,0,0
-273,-125,0,0,0,0,0,0,0,0,0,-1,951,1149,0,0
-266,-125,0,0,0,0,0,0,0,0,0,-1,958,1149,0,0
-259,-125,0,0,0,0,0,0,0,0,0,-1,965,1149,0,0
-252,-125,0,0,0,0,0,0,0,0,0,-1,972,1149,0,0
-245,-125,0,0,0,0,0,0,0,0,0,-1,979,1149,0,0
-238,-125,0,0,0,0,0,0,0,0,0,-1,986,1149,0,0
-231,-125,0,0,0,0,0,0,0,0,0,-1,993,1149,0,0
-224,-125,0,0,0,0,0,0,0,0,0,-1,1000,1149,0,0
-217,-125,0,0,0,0,0,0,0,0,0,-1,1007,1149,0,0
-210,-125,0,0,0,0,0,0,0,0,0,-1,1014,1149,0,0
-203,-125,0,0,0,0,0,0,0,0,0,-1,1021,1149,0,0
-196,-125,0,0,0,0,0,0,0,0,0,-1,1028,1149,0,0
-189,-125,0,0,0,0,0,0,0,0,0,-1,1035,1149,0,0
-182,-125,0,0,0,0,0,0,0,0,0,-1,1042,1149,0,0
-175,-125,0,0,0,0,0,0,0,0,0,-1,1049,1149,0,0
-168,-125,0,0,0,0,0,0,0,0,0,-1,1056,1149,0,0
-161,-125,0,0,0,0,0,0,0,0,0,-1,1063,1149,0,0
-154,-125,0,0,0,0,0,0,0,0,0,-1,1070,1149,0,0
-147,-125,0,0,0,0,0,0,0,0,0,-1,1077,1149,0,0
-140,-125,0,0,0,0,0,0,0,0,0,-1,1084,1149,0,0
-133,-125,0,0,0,0,0,0,0,0,0,-1,1091,1149,0,0
-126,-125,0,0,0,0,0,0,0,0,0,-1,1098,1149,0,0
-119,-125,0,0,0,0,0,0,0,0,0,-1,1105,1149,0,0
-112,-125,0,0,0,0,0,0,0,0,0,-1,1112,1149,0,0
-105,-125,0,0,0,0,0,0,0,0,0,-1,1119,1149,0,0
-98,-125,0,0,0,0,0,0,0,0,0,-1,1126,1149,0,0
-91,-125,0,0,0,0,0,0,0,0,0,-1,1133,1149,0,0
-84,-125,0,0,0,0,0,0,0,0,0,-1,1140,1149,0,0
-77,-125,0,0,0,0,0,0,0,0,0,-1,1147,1149,0,0
-70,-125,0,0,0,0,0,0,0,0,0,-1,1154,1149,0,0
-63,-125,0,0,0,0,0,0,0,0,0,-1,1161,1149,0,0
-56,-125,0,0,0,0,0,0,0,0,0,-1,1168,1149,0,0
-49,-125,0,0,0,0,0,0,0,0,0,-1,1175,1149,0,0
-42,-125,0,0,0,0,0,0,0,0,0,-1,1182,1149,0,0
-35,-125,0,0,0,0,0,0,0,0,0,-1,1189,1149,0,0
-28,-125,0,0,0,0,0,0,0,0,0,-1,1196,1149,0,0
-21,-125,0,0,0,0,0,0,0,0,0,-1,1203,1149,0,0
-14,-125,0,0,0,0,0,0,0,0,0,-1,1210,1149,0,0
-7,-125,0,0,0,0,0,0,0,0,0,-1,1217,1149,0,0
0,-125,0,0,0,0,0,0,0,0,0,-1,1224,1149,0,0
7,-125,0,0,0,0,0,0,0,0,0,-1,1231,1149,0,0
14,-125,0,0,0,0,0,0,0,0,0,-1,1238,1149,0,0
21,-125,0,0,0,0,0,0,0,0,0,-1,1245,1149,0,0
28,-125,0,0,0,0,0,0,0,0,0,-1,1252,1149,0,0
35,-125,0,0,0,0,0,0,0,0,0,-1,1259,1149,0,0
42,-125,0,0,0,0,0,0,0,0,0,-1,1266,1149,0,0
49,-125,0,0,0,0,0,0,0,0,0,-1,1273,1149,0,0
56,-125,0,0,0,0,0,0,0,0,0,-1,1280,1149,0,0
63,-125,0,0,0,0,0,0,0,0,0,-1,1287,1149,0,0
70,-125,0,0,0,0,0,0,0,0,0,-1,1294,1149,0,0
77,-125,0,0,0,0,0,0,0,0,0,-1,1301,1149,0,0
84,-125,0,0,0,0,0,0,0,0,0,-1,1308,1149,0,0
91,-125,0,0,0,0,0,0,0,0,0,-1,1315,1149,0,0
98,-125,0,0,0,0,0,0,0,0,0,-1,1322,1149,0,0
105,-125,0,0,0,0,0,0,0,0,0,-1,1329,1149,0,0
112,-125,0,0,0,0,0,0,0,0,0,-1,1336,1149,0,0
119,-125,0,0,0,0,0,0,0,0,0,-1,1343,1149,0,0
126,-125,0,0,0,0,0,0,0,0,0,-1,1350,1149,0,0
133,-125,0,0,0,0,0,0,0,0,0,-1,1357,1149,0,0
140,-125,0,0,0,0,0,0,0,0,0,-1,1364,1149,0,0
147,-125,0,0,0,0,0,0,0,0,0,-1,1371,1149,0,0
154,-125,0,0,0,0,0,0,0,0,0,-1,1378,1149,0,0
161,-125,0,0,0,0,0,0,0,0,0,-1,1385,1149,0,0
168,-125,0,0,0,0,0,0,0,0,0,-1,1392,1149,0,0
175,-125,0,0,0,0,0,0,0,0,0,-1,1399,1149,0,0
182,-125,0,0,0,0,0,0,0,0,0,-1,1406,1149,0,0
189,-125,0,0,0,0,0,0,0,0,0,-1,1413,1149,0,0
196,-125,0,0,0,0,0,0,0,0,0,-1,1420,1149,0,0
203,-125,0,0,0,0,0,0,0,0,0,-1,1427,1149,0,0
210,-125,0,0,0,0,0,0,0,0,0,-1,1434,1149,0,0
217,-125,0,0,0,0,0,0,0,0,0,-1,1441,1149,0,0
224,-125,0,0,0,0,0,0,0,0,0,-1,1448,1149,0,0
231,-125,0,0,0,0,0,0,0,0,0,-1,1455,1149,0,0
238,-125,0,0,0,0,0,0,0,0,0,-1,1462,1149,0,0
245,-125,0,0,0,0,0,0,0,0,0,-1,1469,1149,0,0
252,-125,0,0,0,0,0,0,0,0,0,-1,1476,1149,0,0
259,-125,0,0,0,0,0,0,0,0,0,-1,1483,1149,0,0
266,-125,0,0,0,0,0,0,0,0,0,-1,1490,1149,0,0
273,-125,0,0,0,0,0,0,0,0,0,-1,1497,1149,0,0
280,-125,0,0,0,0,0,0,0,0,0,-1,1504,1149,0,0
287,-125,0,0,0,0,0,0,0,0,0,-1,1511,1149,0,0
294,-125,0,0,0,0,0,0,0,0,0,-1,1518,1149,0,0
301,-125,0,0,0,0,0,0,0,0,0,-1,1525,1149,0,0
308,-125,0,0,0,0,0,0,0,0,0,-1,1532,1149,0,0
315,-125,0,0,0,0,0,0,0,0,0,-1,1539,1149,0,0
322,-125,0,0,0,0,0,0,0,0,0,-1,1546,1149,0,0
329,-125,0,0,0,0,0,0,0,0,0,-1,1553,1149,0,0
336,-125,0,0,0,0,0,0,0,0,0,-1,1560,1149,0,0
343,-125,0,0,0,0,0,0,0,0,0,-1,1567,1149,0,0
350,-125,0,0,0,0,0,0,0,0,0,-1,1574,1149,0,0
357,-125,0,0,0,0,0,0,0,0,0,-1,1581,1149,0,0
364,-125,0,0,0,0,0,0,0,0,0,-1,1588,1149,0,0
371,-125,0,0,0,0,0,0,0,0,0,-1,1595,1149,0,0
378,-125,0,0,0,0,0,0,0,0,0,-1,1602,1149,0,0
385,-125,0,0,0,0,0,0,0,0,0,-1,1609,1149,0,0
392,-125,0,0,0,0,0,0,0,0,0,-1,1616,1149,0,0
399,-125,0,0,0,0,0,0,0,0,0,-1,1623,1149,0,0
406,-125,0,0,0,0,0,0,0,0,0,-1,1630,1149,0,0
413,-125,0,0,0,0,0,0,0,0,0,-1,1637,1149,0,0
420,-125,0,0,0,0,0,0,0,0,0,-1,1644,1149,0,0
427,-125,0,0,0,0,0,0,0,0,0,-1,1651,1149,0,0
434,-125,0,0,0,0,0,0,0,0,0,-1,1658,1149,0,0
441,-125,0,0,0,0,0,0,0,0,0,-1,1665,1149,0,0
448,-125,0,0,0,0,0,0,0,0,0,-1,1672,1149,0,0
455,-125,0,0,0,0,0,0,0,0,0,-1,1679,1149,0,0
462,-125,0,0,0,0,0,0,0,0,0,-1,1686,1149,0,0
469,-125,0,0,0,0,0,0,0,0,0,-1,1693,1149,0,0
476,-125,0,0,0,0,0,0,0,0,0,-1,1700,1149,0,0
483,-125,0,0,0,0,0,0,0,0,0,-1,1707,1149,0,0
490,-125,0,0,0,0,0,0,0,0,0,-1,1714,1149,0,0
497,-125,0,0,0,0,0,0,0,0,0,-1,1721,1149,0,0
504,-125,0,0,0,0,0,0,0,0,0,-1,1728,1149,0,0
511,-125,0,0,0,0,0,0,0,0,0,-1,1735,1149,0,0
518,-125,0,0,0,0,0,0,0,0,0,-1,1742,1149,0,0
525,-125,0,0,0,0,0,0,0,0,0,-1,1749,1149,0,0
532,-125,0,0,0,0,0,0,0,0,0,-1,1756,1149,0,0
539,-125,0,0,0,0,0,0,0,0,0,-1,1763,1149,0,0
546,-125,0,0,0,0,0,0,0,0,0,-1,1770,1149,0,0
553,-125,0,0,0,0,0,0,0,0,0,-1,1777,1149,0,0
560,-125,0,0,0,0,0,0,0,0,0,-1,1784,1149,0,0
567,-125,0,0,0,0,0,0,0,0,0,-1,1791,1149,0,0
574,-125,0,0,0,0,0,0,0,0,0,-1,1798,1149,0,0
581,-125,0,0,0,0,0,0,0,0,0,-1,1805,1149,0,0
588,-125,0,0,0,0,0,0,0,0,0,-1,1812,1149,0,0
595,-125,0,0,0,0,0,0,0,0,0,-1,1819,1149,0,0
602,-125,0,0,0,0,0,0,0,0,0,-1,1826,1149,0,0
609,-125,0,0,0,0,0,0,0,0,0,-1,1833,1149,0,0
616,-125,0,0,0,0,0,0,0,0,0,-1,1840,1149,0,0
623,-125,0,0,0,0,0,0,0,0,0,-1,1847,1149,0,0
630,-125,0,0,0,0,0,0,0,0,0,-1,1854,1149,0,0
637,-125,0,0,0,0,0,0,0,0,0,-1,1861,1149,0,0
644,-125,46.4607,2.73914,-0.00660794,-0.00196812,0.00176714,-0.00137174,-0.00720432,1.24531,0.00441721,0.0409528,1868,1149,46.4607,-2.73918
651,-125,46.1372,2.88391,-0.00490223,-0.00110824,0.00111612,-0.000804255,-0.00520621,1.30489,0.00323621,0.0401567,1875,1149,46.1372,-2.88392
658,-125,46.1266,2.8335,-0.00338643,-0.000580734,0.000559875,-0.000473138,-0.00349403,1.38093,0.00218875,0.0426199,1882,1149,46.1266,-2.83354
665,-125,46.3394,2.80054,-0.00206456,-0.000179908,5.7917e-05,-0.00017813,-0.00206634,1.5401,0.00132219,0.0441329,1889,1149,46.3393,-2.80058
672,-125,46.3521,2.82666,-0.00103731,9.49918e-05,-0.000312062,0.0001753,-0.00111762,-1.31892,0.000809863,0.044285,1896,1149,46.3521,-2.82668
679,-125,46.2971,2.80615,-0.000595241,0.000104836,-0.000399216,0.000285741,-0.000776145,-1.14533,0.000634499,0.0415701,1903,1149,46.2971,-2.80611
686,-125,46.2706,2.81348,-0.000332192,-1.27018e-05,-0.000346386,0.000209,-0.000553894,-1.00145,0.000455214,0.0363651,1910,1149,46.2706,-2.81344
693,-125,46.2739,2.83289,-7.82158e-05,-4.50848e-05,-0.000196572,0.000135619,-0.000258919,-0.827435,0.000231465,0.032064,1917,1149,46.2739,-2.8329
700,-125,46.3395,2.8092,6.75176e-05,-0.000144552,-8.67495e-05,9.84822e-05,-0.000175517,-0.342847,0.000160264,0.0169875,1924,1149,46.3395,-2.80921
707,-125,46.4563,2.8363,0,0,0,0,0,0,0,-1,1931,1149,46.4563,-2.83627
714,-125,42.2169,7.63,0,0,0,0,0,0,0,-1,1938,1149,42.2169,-7.63005
721,-125,42.1283,7.27637,-0.000468035,-7.49304e-05,0.000704215,0.000459647,-0.00100261,0.921489,0.000863419,0.0281418,1945,1149,42.1283,-7.27641
728,-125,42.0784,6.96472,-0.000714108,2.00824e-05,0.000923638,0.000646902,-0.00134093,0.974549,0.00117076,0.0206666,1952,1149,42.0783,-6.96469
735,-125,42.0891,6.61108,-0.00131842,9.21045e-05,0.00114183,0.000728922,-0.00195523,1.06205,0.0016027,0.020815,1959,1149,42.0891,-6.61107
742,-125,42.1638,6.22986,-0.00212951,0.000504039,0.00143281,0.00113325,-0.00275872,1.15701,0.00231143,0.0243786,1966,1149,42.1638,-6.2299
749,-125,42.085,5.94739,-0.00331117,0.00139999,0.00123505,0.00170413,-0.00361531,1.32934,0.00313655,0.0257785,1973,1149,42.085,-5.94741
756,-125,42.0249,5.59424,-0.0048463,0.00301906,0.000441852,0.00304381,-0.00487105,1.51485,0.00461006,0.0220959,1980,1149,42.0249,-5.59429
763,-125,42.0725,5.25806,-0.00681013,0.00534971,-0.0011737,0.00546197,-0.00692238,-1.47545,0.00716666,0.0126309,1987,1149,42.0725,-5.25804
770,-125,42.0117,4.90723,-0.00908181,0.00820439,-0.00355897,0.00890845,-0.00978587,-1.37549,0.0107971,0.0154848,1994,1149,42.0117,-4.90726
777,-125,41.9191,4.64966,-0.0114376,0.011663,-0.00687563,0.0135546,-0.0133292,-1.30233,0.0155215,0.0292306,2001,1149,41.919,-4.64965
784,-125,41.8162,4.42261,-0.0139062,0.0160016,-0.0115796,0.0199608,-0.0178654,-1.24134,0.0218502,0.0455749,2008,1149,41.8163,-4.4226
791,-125,41.7725,4.19373,0,0,0,0,0,0,0,-1,2015,1149,41.7725,-4.19374
798,-125,42.8411,4.2572,0,0,0,0,0,0,0,-1,2022,1149,42.841,-4.25725
805,-125,43.1033,2.77722,0,0,0,0,0,0,0,-1,2029,1149,43.1033,-2.77721
812,-125,43.0627,3.0719,0,0,0,0,0,0,0,-1,2036,1149,43.0627,-3.07191
-700,-132,0,0,0,0,0,0,0,0,0,-1,524,1156,0,0
-693,-132,-28.4944,-3.25208,0,0,0,0,0,0,0,-1,531,1156,-28.4944,3.25204
-686,-132,-28.683,-2.49829,0,0,0,0,0,0,0,-1,538,1156,-28.683,2.49827
-679,-132,-30.0497,-2.67261,0,0,0,0,0,0,0,-1,545,1156,-30.0497,2.67256
-672,-132,-30.1204,-1.65857,0.0696189,0.0642036,0.00166941,0.0700922,0.0637303,0.276249,0.0447585,0.0432428,552,1156,-30.1204,1.65858
-665,-132,-30.2913,-0.497925,0.0536589,0.0499595,0.00175732,0.0543606,0.0492578,0.379894,0.0346649,0.0422008,559,1156,-30.2913,0.497877
-658,-132,-29.1659,1.04346,0,0,0,0,0,0,0,-1,566,1156,-29.1659,-1.04345
-651,-132,-29.161,1.3927,0.0291289,0.0283099,0.00121294,0.0299996,0.0274392,0.622609,0.0192032,0.0404645,573,1156,-29.161,-1.39268
-644,-132,-29.1905,1.71582,0.0203067,0.0203033,0.000924129,0.0212291,0.0193809,0.784469,0.0135787,0.0220333,580,1156,-29.1905,-1.71585
-637,-132,-29.2584,2.09998,0.0129339,0.0135716,0.000555133,0.0138929,0.0126126,1.04606,0.00886604,0.0121508,587,1156,-29.2584,-2.09997
-630,-132,-29.2779,2.47437,0.00685889,0.0076793,0.000431092,0.00786416,0.00667403,1.16569,0.00489454,0.0103419,594,1156,-29.2779,-2.47434
-623,-132,-29.3113,2.89441,0.0024077,0.00340061,-4.91685e-05,0.00340303,0.00240527,-1.52144,0.00201998,0.0153625,601,1156,-29.3113,-2.89437
-616,-132,-29.324,3.25378,0.000514009,0.00154739,-0.000131082,0.00156376,0.000497641,-1.44657,0.000922508,0.026488,608,1156,-29.324,-3.25374
-609,-132,-29.3672,3.77441,0,0,0,0,0,0,0,-1,615,1156,-29.3672,-3.77443
-602,-132,-29.3397,3.98804,0.000381983,0.000512185,-8.63313e-05,0.00055521,0.000338958,-1.10845,0.00032315,0.0285706,622,1156,-29.3397,-3.98809
-595,-132,-29.4406,4.39294,9.64627e-05,0.000598279,-0.000136516,0.000633013,6.17286e-05,-1.32165,0.000403011,0.0399119,629,1156,-29.4406,-4.39294
-588,-132,-29.2839,4.91125,0,0,0,0,0,0,0,-1,636,1156,-29.2839,-4.91126
-581,-132,-28.948,5.479,0,0,0,0,0,0,0,-1,643,1156,-28.948,-5.47903
-574,-132,-31.5448,2.52698,0,0,0,0,0,0,0,-1,650,1156,-31.5448,-2.52692
-567,-132,-34.0876,1.09497,0,0,0,0,0,0,0,-1,657,1156,-34.0876,-1.095
-560,-132,-34.1205,0.967896,0.00165665,0.000449888,-0.0016219,0.00278377,-0.000677235,-0.60732,0.002118,0.0349821,664,1156,-34.1205,-0.967846
-553,-132,-34.0828,0.855347,0.00175972,0.000611944,-0.00223801,0.00349625,-0.00112459,-0.659889,0.00278251,0.0361919,671,1156,-34.0828,-0.855333
-546,-132,-34.1452,0.901489,0.00221202,0.000702866,-0.00330533,0.00484781,-0.00193292,-0.673176,0.00403363,0.0379789,678,1156,-34.1452,-0.901439
-539,-132,-34.2027,1.05469,0.00342875,0.00058859,-0.00491222,0.00712203,-0.0031047,-0.644689,0.00605436,0.0411376,685,1156,-34.2027,-1.05467
-532,-132,-34.1844,0.957153,0.00533304,4.0178e-05,-0.00677757,0.00996253,-0.00458932,-0.599267,0.00859031,0.0413975,692,1156,-34.1844,-0.957166
-525,-132,-34.1038,0.861572,0.00757627,-0.000661021,-0.0085677,0.0129639,-0.00604862,-0.561347,0.0112163,0.0407826,699,1156,-34.1038,-0.861543
-518,-132,0,0,0,0,0,0,0,0,0,-1,706,1156,0,0
-511,-132,0,0,0,0,0,0,0,0,0,-1,713,1156,0,0
-504,-132,0,0,0,0,0,0,0,0,0,-1,720,1156,0,0
-497,-132,0,0,0,0,0,0,0,0,0,-1,727,1156,0,0
-490,-132,0,0,0,0,0,0,0,0,0,-1,734,1156,0,0
-483,-132,0,0,0,0,0,0,0,0,0,-1,741,1156,0,0
-476,-132,0,0,0,0,0,0,0,0,0,-1,748,1156,0,0
-469,-132,0,0,0,0,0,0,0,0,0,-1,755,1156,0,0
-462,-132,0,0,0,0,0,0,0,0,0,-1,762,1156,0,0
-455,-132,0,0,0,0,0,0,0,0,0,-1,769,1156,0,0
-448,-132,0,0,0,0,0,0,0,0,0,-1,776,1156,0,0
-441,-132,0,0,0,0,0,0,0,0,0,-1,783,1156,0,0
-434,-132,0,0,0,0,0,0,0,0,0,-1,790,1156,0,0
-427,-132,0,0,0,0,0,0,0,0,0,-1,797,1156,0,0
-420,-132,0,0,0,0,0,0,0,0,0,-1,804,1156,0,0
-413,-132,0,0,0,0,0,0,0,0,0,-1,811,1156,0,0
-406,-132,0,0,0,0,0,0,0,0,0,-1,818,1156,0,0
-399,-132,0,0,0,0,0,0,0,0,0,-1,825,1156,0,0
-392,-132,0,0,0,0,0,0,0,0,0,-1,832,1156,0,0
-385,-132,0,0,0,0,0,0,0,0,0,-1,839,1156,0,0
-378,-132,0,0,0,0,0,0,0,0,0,-1,846,1156,0,0
-371,-132,0,0,0,0,0,0,0,0,0,-1,853,1156,0,0
-364,-132,0,0,0,0,0,0,0,0,0,-1,860,1156,0,0
-357,-132,0,0,0,0,0,0,0,0,0,-1,867,1156,0,0
-350,-132,0,0,0,0,0,0,0,0,0,-1,874,1156,0,0
-343,-132,0,0,0,0,0,0,0,0,0,-1,881,1156,0,0
-336,-132,0,0,0,0,0,0,0,0,0,-1,888,1156,0,0
-329,-132,0,0,0,0,0,0,0,0,0,-1,895,1156,0,0
-322,-132,0,0,0,0,0,0,0,0,0,-1,902,1156,0,0
-315,-132,0,0,0,0,0,0,0,0,0,-1,909,1156,0,0
-308,-132,0,0,0,0,0,0,0,0,0,-1,916,1156,0,0
-301,-132,0,0,0,0,0,0,0,0,0,-1,923,1156,0,0
-294,-132,0,0,0,0,0,0,0,0,0,-1,930,1156,0,0
-287,-132,0,0,0,0,0,0,0,0,0,-1,937,1156,0,0
-280,-132,0,0,0,0,0,0,0,0,0,-1,944,1156,0,0
-273,-132,0,0,0,0,0,0,0,0,0,-1,951,1156,0,0
-266,-132,0,0,0,0,0,0,0,0,0,-1,958,1156,0,0
-259,-132,0,0,0,0,0,0,0,0,0,-1,965,1156,0,0
-252,-132,0,0,0,0,0,0,0,0,0,-1,972,1156,0,0
-245,-132,0,0,0,0,0,0,0,0,0,-1,979,1156,0,0
-238,-132,0,0,0,0,0,0,0,0,0,-1,986,1156,0,0
-231,-132,0,0,0,0,0,0,0,0,0,-1,993,1156,0,0
-224,-132,0,0,0,0,0,0,0,0,0,-1,1000,1156,0,0
-217,-132,0,0,0,0,0,0,0,0,0,-1,1007,1156,0,0
-210,-132,0,0,0,0,0,0,0,0,0,-1,1014,1156,0,0
-203,-132,0,0,0,0,0,0,0,0,0,-1,1021,1156,0,0
-196,-132,0,0,0,0,0,0,0,0,0,-1,1028,1156,0,0
-189,-132,0,0,0,0,0,0,0,0,0,-1,1035,1156,0,0
-182,-132,0,0,0,0,0,0,0,0,0,-1,1042,1156,0,0
-175,-132,0,0,0,0,0,0,0,0,0,-1,1049,1156,0,0
-168,-132,0,0,0,0,0,0,0,0,0,-1,1056,1156,0,0
-161,-132,0,0,0,0,0,0,0,0,0,-1,1063,1156,0,0
-154,-132,0,0,0,0,0,0,0,0,0,-1,1070,1156,0,0
-147,-132,0,0,0,0,0,0,0,0,0,-1,1077,1156,0,0
-140,-132,0,0,0,0,0,0,0,0,0,-1,1084,1156,0,0
-133,-132,0,0,0,0,0,0,0,0,0,-1,1091,1156,0,0
-126,-132,0,0,0,0,0,0,0,0,0,-1,1098,1156,0,0
-119,-132,0,0,0,0,0,0,0,0,0,-1,1105,1156,0,0
-112,-132,0,0,0,0,0,0,0,0,0,-1,1112,1156,0,0
-105,-132,0,0,0,0,0,0,0,0,0,-1,1119,1156,0,0
-98,-132,0,0,0,0,0,0,0,0,0,-1,1126,1156,0,0
-91,-132,0,0,0,0,0,0,0,0,0,-1,1133,1156,0,0
-84,-132,0,0,0,0,0,0,0,0,0,-1,1140,1156,0,0
-77,-132,0,0,0,0,0,0,0,0,0,-1,1147,1156,0,0
-70,-132,0,0,0,0,0,0,0,0,0,-1,1154,1156,0,0
-63,-132,0,0,0,0,0,0,0,0,0,-1,1161,1156,0,0
-56,-132,0,0,0,0,0,0,0,0,0,-1,1168,1156,0,0
-49,-132,0,0,0,0,0,0,0,0,0,-1,1175,1156,0,0
-42,-132,0,0,0,0,0,0,0,0,0,-1,1182,1156,0,0
-35,-132,0,0,0,0,0,0,0,0,0,-1,1189,1156,0,0
-28,-132,0,0,0,0,0,0,0,0,0,-1,1196,1156,0,0
-21,-132,0,0,0,0,0,0,0,0,0,-1,1203,1156,0,0
-14,-132,0,0,0,0,0,0,0,0,0,-1,1210,1156,0,0
-7,-132,0,0,0,0,0,0,0,0,0,-1,1217,1156,0,0
0,-132,0,0,0,0,0,0,0,0,0,-1,1224,1156,0,0
7,-132,0,0,0,0,0,0,0,0,0,-1,1231,1156,0,0
14,-132,0,0,0,0,0,0,0,0,0,-1,1238,1156,0,0
21,-132,0,0,0,0,0,0,0,0,0,-1,1245,1156,0,0
28,-132,0,0,0,0,0,0,0,0,0,-1,1252,1156,0,0
35,-132,0,0,0,0,0,0,0,0,0,-1,1259,1156,0,0
42,-132,0,0,0,0,0,0,0,0,0,-1,1266,1156,0,0
49,-132,0,0,0,0,0,0,0,0,0,-1,1273,1156,0,0
56,-132,0,0,0,0,0,0,0,0,0,-1,1280,1156,0,0
63,-132,0,0,0,0,0,0,0,0,0,-1,1287,1156,0,0
70,-132,0,0,0,0,0,0,0,0,0,-1,1294,1156,0,0
77,-132,0,0,0,0,0,0,0,0,0,-1,1301,1156,0,0
84,-132,0,0,0,0,0,0,0,0,0,-1,1308,1156,0,0
91,-132,0,0,0,0,0,0,0,0,0,-1,1315,1156,0,0
98,-132,0,0,0,0,0,0,0,0,0,-1,1322,1156,0,0
105,-132,0,0,0,0,0,0,0,0,0,-1,1329,1156,0,0
112,-132,0,0,0,0,0,0,0,0,0,-1,1336,1156,0,0
119,-132,0,0,0,0,0,0,0,0,0,-1,1343,1156,0,0
126,-132,0,0,0,0,0,0,0,0,0,-1,1350,1156,0,0
133,-132,0,0,0,0,0,0,0,0,0,-1,1357,1156,0,0
140,-132,0,0,0,0,0,0,0,0,0,-1,1364,1156,0,0
147,-132,0,0,0,0,0,0,0,0,0,-1,1371,1156,0,0
154,-132,0,0,0,0,0,0,0,0,0,-1,1378,1156,0,0
161,-132,0,0,0,0,0,0,0,0,0,-1,1385,1156,0,0
168,-132,0,0,0,0,0,0,0,0,0,-1,1392,1156,0,0
175,-132,0,0,0,0,0,0,0,0,0,-1,1399,1156,0,0
182,-132,0,0,0,0,0,0,0,0,0,-1,1406,1156,0,0
189,-132,0,0,0,0,0,0,0,0,0,-1,1413,1156,0,0
196,-132,0,0,0,0,0,0,0,0,0,-1,1420,1156,0,0
203,-132,0,0,0,0,0,0,0,0,0,-1,1427,1156,0,0
210,-132,0,0,0,0,0,0,0,0,0,-1,1434,1156,0,0
217,-132,0,0,0,0,0,0,0,0,0,-1,1441,1156,0,0
224,-132,0,0,0,0,0,0,0,0,0,-1,1448,1156,0,0
231,-132,0,0,0,0,0,0,0,0,0,-1,1455,1156,0,0
238,-132,0,0,0,0,0,0,0,0,0,-1,1462,1156,0,0
245,-132,0,0,0,0,0,0,0,0,0,-1,1469,1156,0,0
252,-132,0,0,0,0,0,0,0,0,0,-1,1476,1156,0,0
259,-132,0,0,0,0,0,0,0,0,0,-1,1483,1156,0,0
266,-132,0,0,0,0,0,0,0,0,0,-1,1490,1156,0,0
273,-132,0,0,0,0,0,0,0,0,0,-1,1497,1156,0,0
280,-132,0,0,0,0,0,0,0,0,0,-1,1504,1156,0,0
287,-132,0,0,0,0,0,0,0,0,0,-1,1511,1156,0,0
294,-132,0,0,0,0,0,0,0,0,0,-1,1518,1156,0,0
301,-132,0,0,0,0,0,0,0,0,0,-1,1525,1156,0,0
308,-132,0,0,0,0,0,0,0,0,0,-1,1532,1156,0,0
315,-132,0,0,0,0,0,0,0,0,0,-1,1539,1156,0,0
322,-132,0,0,0,0,0,0,0,0,0,-1,1546,1156,0,0
329,-132,0,0,0,0,0,0,0,0,0,-1,1553,1156,0,0
336,-132,0,0,0,0,0,0,0,0,0,-1,1560,1156,0,0
343,-132,0,0,0,0,0,0,0,0,0,-1,1567,1156,0,0
350,-132,0,0,0,0,0,0,0,0,0,-1,1574,1156,0,0
357,-132,0,0,0,0,0,0,0,0,0,-1,1581,1156,0,0
364,-132,0,0,0,0,0,0,0,0,0,-1,1588,1156,0,0
371,-132,0,0,0,0,0,0,0,0,0,-1,1595,1156,0,0
378,-132,0,0,0,0,0,0,0,0,0,-1,1602,1156,0,0
385,-132,0,0,0,0,0,0,0,0,0,-1,1609,1156,0,0
392,-132,0,0,0,0,0,0,0,0,0,-1,1616,1156,0,0
399,-132,0,0,0,0,0,0,0,0,0,-1,1623,1156,0,0
406,-132,0,0,0,0,0,0,0,0,0,-1,1630,1156,0,0
413,-132,0,0,0,0,0,0,0,0,0,-1,1637,1156,0,0
420,-132,0,0,0,0,0,0,0,0,0,-1,1644,1156,0,0
427,-132,0,0,0,0,0,0,0,0,0,-1,1651,1156,0,0
434,-132,0,0,0,0,0,0,0,0,0,-1,1658,1156,0,0
441,-132,0,0,0,0,0,0,0,0,0,-1,1665,1156,0,0
448,-132,0,0,0,0,0,0,0,0,0,-1,1672,1156,0,0
455,-132,0,0,0,0,0,0,0,0,0,-1,1679,1156,0,0
462,-132,0,0,0,0,0,0,0,0,0,-1,1686,1156,0,0
469,-132,0,0,0,0,0,0,0,0,0,-1,1693,1156,0,0
476,-132,0,0,0,0,0,0,0,0,0,-1,1700,1156,0,0
483,-132,0,0,0,0,0,0,0,0,0,-1,1707,1156,0,0
490,-132,0,0,0,0,0,0,0,0,0,-1,1714,1156,0,0
497,-132,0,0,0,0,0,0,0,0,0,-1,1721,1156,0,0
504,-132,0,0,0,0,0,0,0,0,0,-1,1728,1156,0,0
511,-132,0,0,0,0,0,0,0,0,0,-1,1735,1156,0,0
518,-132,0,0,0,0,0,0,0,0,0,-1,1742,1156,0,0
525,-132,0,0,0,0,0,0,0,0,0,-1,1749,1156,0,0
532,-132,0,0,0,0,0,0,0,0,0,-1,1756,1156,0,0
539,-132,0,0,0,0,0,0,0,0,0,-1,1763,1156,0,0
546,-132,0,0,0,0,0,0,0,0,0,-1,1770,1156,0,0
553,-132,0,0,0,0,0,0,0,0,0,-1,1777,1156,0,0
560,-132,0,0,0,0,0,0,0,0,0,-1,1784,1156,0,0
567,-132,0,0,0,0,0,0,0,0,0,-1,1791,1156,0,0
574,-132,0,0,0,0,0,0,0,0,0,-1,1798,1156,0,0
581,-132,0,0,0,0,0,0,0,0,0,-1,1805,1156,0,0
588,-132,0,0,0,0,0,0,0,0,0,-1,1812,1156,0,0
595,-132,0,0,0,0,0,0,0,0,0,-1,1819,1156,0,0
602,-132,0,0,0,0,0,0,0,0,0,-1,1826,1156,0,0
609,-132,0,0,0,0,0,0,0,0,0,-1,1833,1156,0,0
616,-132,0,0,0,0,0,0,0,0,0,-1,1840,1156,0,0
623,-132,0,0,0,0,0,0,0,0,0,-1,1847,1156,0,0
630,-132,0,0,0,0,0,0,0,0,0,-1,1854,1156,0,0
637,-132,0,0,0,0,0,0,0,0,0,-1,1861,1156,0,0
644,-132,46.3743,2.79346,-0.00693529,-0.00236724,0.00171807,-0.0017932,-0.00750933,1.24834,0.00452842,0.0381978,1868,1156,46.3743,-2.7934
651,-132,46.1384,2.9425,-0.00505593,-0.0013867,0.00112824,-0.00106754,-0.00537509,1.29512,0.00328587,0.0384773,1875,1156,46.1385,-2.94249
658,-132,46.2375,2.8667,-0.00338596,-0.00070433,0.000583945,-0.000582689,-0.0035076,1.36542,0.0021704,0.0417945,1882,1156,46.2375,-2.86668
665,-132,46.2622,2.95642,-0.00192819,-0.000149066,7.5932e-05,-0.000145832,-0.00193142,1.52822,0.00124186,0.0421219,1889,1156,46.2622,-2.95639
672,-132,46.2609,2.95728,-0.000907712,0.000197369,-0.000246496,0.000249858,-0.000960201,-1.36099,0.000737663,0.0410767,1896,1156,46.2609,-2.95728
679,-132,46.2314,2.86816,-0.000582441,0.000229431,-0.00024787,0.000299125,-0.000652135,-1.2967,0.000561674,0.0397627,1903,1156,46.2314,-2.8682
686,-132,46.2562,2.77527,-0.000481801,8.11182e-05,-0.000129953,0.00010967,-0.000510353,-1.35452,0.000382075,0.0363425,1910,1156,46.2562,-2.77527
693,-132,46.2874,2.88489,-0.000359299,6.93007e-06,7.92454e-05,2.33419e-05,-0.00037571,1.36658,0.000258606,0.0288597,1917,1156,46.2874,-2.88493
700,-132,46.3718,2.86975,-0.000297157,-0.000128235,0.000237771,3.96309e-05,-0.000465022,0.956057,0.000324034,0.0392965,1924,1156,46.3718,-2.86975
707,-132,46.4485,2.85303,0,0,0,0,0,0,0,-1,1931,1156,46.4484,-2.853
714,-132,41.7321,7.46362,0,0,0,0,0,0,0,-1,1938,1156,41.7321,-7.46364
721,-132,41.801,7.21155,-0.000931499,-0.000134718,0.000983754,0.000528253,-0.00159447,0.97779,0.00127605,0.0347962,1945,1156,41.801,-7.21158
728,-132,41.7256,6.94995,-0.00111448,-8.03264e-05,0.0011995,0.000708803,-0.00190361,0.988901,0.00155997,0.0264579,1952,1156,41.7256,-6.94999
735,-132,41.6658,6.65002,-0.00160571,-5.3707e-05,0.00142023,0.000788693,-0.00244811,1.03543,0.00194891,0.0272271,1959,1156,41.6657,-6.64999
742,-132,41.7172,6.2522,-0.00233361,0.000346003,0.00164644,0.0011289,-0.0031165,1.12694,0.00253904,0.0199032,1966,1156,41.7172,-6.25218
749,-132,41.7035,5.92004,-0.00350434,0.00126007,0.00136494,0.0016234,-0.00386767,1.31064,0.00325734,0.0238352,1973,1156,41.7035,-5.92003
756,-132,41.6954,5.57605,-0.00507011,0.0029411,0.000451979,0.00296652,-0.00509553,1.51462,0.00470842,0.0228683,1980,1156,41.6954,-5.57606
763,-132,41.6868,5.25378,-0.00713188,0.00524799,-0.00121194,0.00536552,-0.00724941,-1.47412,0.00731025,0.0142078,1987,1156,41.6868,-5.25384
770,-132,41.6737,4.91101,-0.00957462,0.00802452,-0.00360828,0.00873559,-0.0102857,-1.37623,0.0109941,0.0143713,1994,1156,41.6737,-4.91098
777,-132,41.6178,4.5957,-0.0122726,0.0113433,-0.00689706,0.01321,-0.0141394,-1.30647,0.0157932,0.0243702,2001,1156,41.6178,-4.59573
784,-132,41.5347,4.56482,-0.0152828,0.0154375,-0.0115172,0.0192758,-0.0191211,-1.24911,0.0221685,0.0440167,2008,1156,41.5346,-4.56477
791,-132,41.5015,4.59546,-0.0182949,0.0206466,-0.0181944,0.0278244,-0.0254727,-1.19503,0.0307811,0.04845,2015,1156,41.5015,-4.59551
798,-132,39.2808,4.21216,0,0,0,0,0,0,0,-1,2022,1156,39.2807,-4.21213
805,-132,41.7117,3.07373,0,0,0,0,0,0,0,-1,2029,1156,41.7116,-3.07374
812,-132,41.1804,2.41052,0,0,0,0,0,0,0,-1,2036,1156,41.1804,-2.41048
-700,-139,0,0,0,0,0,0,0,0,0,-1,524,1163,0,0
-693,-139,-27.8254,-3.64087,0,0,0,0,0,0,0,-1,531,1163,-27.8254,3.64086
-686,-139,-28.0921,-3.10559,0,0,0,0,0,0,0,-1,538,1163,-28.0921,3.10565
-679,-139,-27.7706,-2.92712,0,0,0,0,0,0,0,-1,545,1163,-27.7706,2.92708
-672,-139,-28.389,-1.72168,0.0883427,0.0682666,0.0161976,0.0973605,0.0592488,0.508001,0.056651,0.0411076,552,1163,-28.389,1.7217
-665,-139,-28.8824,-0.302246,0.0678802,0.0527472,0.0131358,0.0754729,0.0451544,0.524097,0.043854,0.0424331,559,1163,-28.8824,0.302197
-658,-139,-28.9615,0.985352,0,0,0,0,0,0,0,-1,566,1163,-28.9615,-0.985385
-651,-139,-28.798,1.4082,0.0366236,0.029382,0.00763765,0.0414553,0.0245504,0.564051,0.0240695,0.0439836,573,1163,-28.7979,-1.40826
-644,-139,-28.7904,1.72437,0.0252991,0.0208314,0.00544759,0.0289531,0.0171774,0.590821,0.0168128,0.0230861,580,1163,-28.7904,-1.72437
-637,-139,-28.8257,2.09424,0.0158996,0.01374,0.00345452,0.0184391,0.0112004,0.633925,0.0107274,0.0131887,587,1163,-28.8257,-2.09427
-630,-139,-28.8553,2.48865,0.00821165,0.00761737,0.00193926,0.00987641,0.00595261,0.709378,0.00574211,0.010743,594,1163,-28.8553,-2.48859
-623,-139,-28.8677,2.89722,0.00256125,0.00329621,0.000512768,0.00355959,0.00229788,1.09631,0.00208395,0.0162868,601,1163,-28.8677,-2.89725
-616,-139,-28.8864,3.2688,0.000152308,0.0014272,-6.54947e-05,0.00143056,0.000148952,-1.5196,0.000908135,0.0186251,608,1163,-28.8864,-3.26884
-609,-139,-28.7779,3.68481,-0.000265165,0.000730957,1.33571e-05,0.000731136,-0.000265344,1.55739,0.000595901,0.0402998,615,1163,-28.7779,-3.68487
-602,-139,-28.9264,4.09595,7.53664e-06,0.000660366,-0.000275982,0.0007614,-9.34979e-05,-1.21986,0.000541464,0.0342526,622,1163,-28.9264,-4.09593
-595,-139,-29.0593,4.47888,-0.000245372,0.000766556,-0.000384675,0.000896181,-0.000374998,-1.24577,0.000754197,0.0387866,629,1163,-29.0593,-4.47892
-588,-139,-29.2164,4.84473,0,0,0,0,0,0,0,-1,636,1163,-29.2163,-4.84474
-581,-139,-31.0576,4.01758,0,0,0,0,0,0,0,-1,643,1163,-31.0576,-4.01755
-574,-139,-23.0725,2.4043,0,0,0,0,0,0,0,-1,650,1163,-23.0725,-2.40433
-567,-139,-34.087,1.1377,0,0,0,0,0,0,0,-1,657,1163,-34.087,-1.13773
-560,-139,-34.105,1.09351,0.00120509,0.000345325,-0.0016855,0.00251466,-0.000964253,-0.660537,0.00207398,0.0349224,664,1163,-34.105,-1.09356
-553,-139,-34.0714,1.1095,0.00130652,0.000409051,-0.00217037,0.00307405,-0.00135849,-0.683458,0.00262224,0.0354897,671,1163,-34.0714,-1.10953
-546,-139,-34.192,1.13354,0.00189788,0.00030083,-0.00298517,0.00418948,-0.00199077,-0.654709,0.00364266,0.0373855,678,1163,-34.1919,-1.13353
-539,-139,-34.1916,1.09875,0.00320037,-3.01803e-05,-0.00418665,0.00607254,-0.00290235,-0.601289,0.00528831,0.03868,685,1163,-34.1916,-1.09878
-532,-139,-34.1759,0.927246,0.00510235,-0.000934764,-0.00571207,0.0085444,-0.00437682,-0.542324,0.00758831,0.0408505,692,1163,-34.1759,-0.927292
-525,-139,-34.0682,0.863892,0.0073647,-0.00193788,-0.00729382,0.0113641,-0.00593727,-0.501557,0.0101514,0.0420927,699,1163,-34.0683,-0.863881
-518,-139,0,0,0,0,0,0,0,0,0,-1,706,1163,0,0
-511,-139,0,0,0,0,0,0,0,0,0,-1,713,1163,0,0
-504,-139,0,0,0,0,0,0,0,0,0,-1,720,1163,0,0
-497,-139,0,0,0,0,0,0,0,0,0,-1,727,1163,0,0
-490,-139,0,0,0,0,0,0,0,0,0,-1,734,1163,0,0
-483,-139,0,0,0,0,0,0,0,0,0,-1,741,1163,0,0
-476,-139,0,0,0,0,0,0,0,0,0,-1,748,1163,0,0
-469,-139,0,0,0,0,0,0,0,0,0,-1,755,1163,0,0
-462,-139,0,0,0,0,0,0,0,0,0,-1,762,1163,0,0
-455,-139,0,0,0,0,0,0,0,0,0,-1,769,1163,0,0
-448,-139,0,0,0,0,0,0,0,0,0,-1,776,1163,0,0
-441,-139,0,0,0,0,0,0,0,0,0,-1,783,1163,0,0
-434,-139,0,0,0,0,0,0,0,0,0,-1,790,1163,0,0
-427,-139,0,0,0,0,0,0,0,0,0,-1,797,1163,0,0
-420,-139,0,0,0,0,0,0,0,0,0,-1,804,1163,0,0
-413,-139,0,0,0,0,0,0,0,0,0,-1,811,1163,0,0
-406,-139,0,0,0,0,0,0,0,0,0,-1,818,1163,0,0
-399,-139,0,0,0,0,0,0,0,0,0,-1,825,1163,0,0
-392,-139,0,0,0,0,0,0,0,0,0,-1,832,1163,0,0
-385,-139,0,0,0,0,0,0,0,0,0,-1,839,1163,0,0
-378,-139,0,0,0,0,0,0,0,0,0,-1,846,1163,0,0
-371,-139,0,0,0,0,0,0,0,0,0,-1,853,1163,0,0
-364,-139,0,0,0,0,0,0,0,0,0,-1,860,1163,0,0
-357,-139,0,0,0,0,0,0,0,0,0,-1,867,1163,0,0
-350,-139,0,0,0,0,0,0,0,0,0,-1,874,1163,0,0
-343,-139,0,0,0,0,0,0,0,0,0,-1,881,1163,0,0
-336,-139,0,0,0,0,0,0,0,0,0,-1,888,1163,0,0
-329,-139,0,0,0,0,0,0,0,0,0,-1,895,1163,0,0
-322,-139,0,0,0,0,0,0,0,0,0,-1,902,1163,0,0
-315,-139,0,0,0,0,0,0,0,0,0,-1,909,1163,0,0
-308,-139,0,0,0,0,0,0,0,0,0,-1,916,1163,0,0
-301,-139,0,0,0,0,0,0,0,0,0,-1,923,1163,0,0
-294,-139,0,0,0,0,0,0,0,0,0,-1,930,1163,0,0
-287,-139,0,0,0,0,0,0,0,0,0,-1,937,1163,0,0
-280,-139,0,0,0,0,0,0,0,0,0,-1,944,1163,0,0
-273,-139,0,0,0,0,0,0,0,0,0,-1,951,1163,0,0
-266,-139,0,0,0,0,0,0,0,0,0,-1,958,1163,0,0
-259,-139,0,0,0,0,0,0,0,0,0,-1,965,1163,0,0
-252,-139,0,0,0,0,0,0,0,0,0,-1,972,1163,0,0
-245,-139,0,0,0,0,0,0,0,0,0,-1,979,1163,0,0
-238,-139,0,0,0,0,0,0,0,0,0,-1,986,1163,0,0
-231,-139,0,0,0,0,0,0,0,0,0,-1,993,1163,0,0
-224,-139,0,0,0,0,0,0,0,0,0,-1,1000,1163,0,0
-217,-139,0,0,0,0,0,0,0,0,0,-1,1007,1163,0,0
-210,-139,0,0,0,0,0,0,0,0,0,-1,1014,1163,0,0
-203,-139,0,0,0,0,0,0,0,0,0,-1,1021,1163,0,0
-196,-139,0,0,0,0,0,0,0,0,0,-1,1028,1163,0,0
-189,-139,0,0,0,0,0,0,0,0,0,-1,1035,1163,0,0
-182,-139,0,0,0,0,0,0,0,0,0,-1,1042,1163,0,0
-175,-139,0,0,0,0,0,0,0,0,0,-1,1049,1163,0,0
-168,-139,0,0,0,0,0,0,0,0,0,-1,1056,1163,0,0
-161,-139,0,0,0,0,0,0,0,0,0,-1,1063,1163,0,0
-154,-139,0,0,0,0,0,0,0,0,0,-1,1070,1163,0,0
-147,-139,0,0,0,0,0,0,0,0,0,-1,1077,1163,0,0
-140,-139,0,0,0,0,0,0,0,0,0,-1,1084,1163,0,0
-133,-139,0,0,0,0,0,0,0,0,0,-1,1091,1163,0,0
-126,-139,0,0,0,0,0,0,0,0,0,-1,1098,1163,0,0
-119,-139,0,0,0,0,0,0,0,0,0,-1,1105,1163,0,0
-112,-139,0,0,0,0,0,0,0,0,0,-1,1112,1163,0,0
-105,-139,0,0,0,0,0,0,0,0,0,-1,1119,1163,0,0
-98,-139,0,0,0,0,0,0,0,0,0,-1,1126,1163,0,0
-91,-139,0,0,0,0,0,0,0,0,0,-1,1133,1163,0,0
-84,-139,0,0,0,0,0,0,0,0,0,-1,1140,1163,0,0
-77,-139,0,0,0,0,0,0,0,0,0,-1,1147,1163,0,0
-70,-139,0,0,0,0,0,0,0,0,0,-1,1154,1163,0,0
-63,-139,0,0,0,0,0,0,0,0,0,-1,1161,1163,0,0
-56,-139,0,0,0,0,0,0,0,0,0,-1,1168,1163,0,0
-49,-139,0,0,0,0,0,0,0,0,0,-1,1175,1163,0,0
-42,-139,0,0,0,0,0,0,0,0,0,-1,1182,1163,0,0
-35,-139,0,0,0,0,0,0,0,0,0,-1,1189,1163,0,0
-28,-139,0,0,0,0,0,0,0,0,0,-1,1196,1163,0,0
-21,-139,0,0,0,0,0,0,0,0,0,-1,1203,1163,0,0
-14,-139,0,0,0,0,0,0,0,0,0,-1,1210,1163,0,0
-7,-139,0,0,0,0,0,0,0,0,0,-1,1217,1163,0,0
0,-139,0,0,0,0,0,0,0,0,0,-1,1224,1163,0,0
7,-139,0,0,0,0,0,0,0,0,0,-1,1231,1163,0,0
14,-139,0,0,0,0,0,0,0,0,0,-1,1238,1163,0,0
21,-139,0,0,0,0,0,0,0,0,0,-1,1245,1163,0,0
28,-139,0,0,0,0,0,0,0,0,0,-1,1252,1163,0,0
35,-139,0,0,0,0,0,0,0,0,0,-1,1259,1163,0,0
42,-139,0,0,0,0,0,0,0,0,0,-1,1266,1163,0,0
49,-139,0,0,0,0,0,0,0,0,0,-1,1273,1163,0,0
56,-139,0,0,0,0,0,0,0,0,0,-1,1280,1163,0,0
63,-139,0,0,0,0,0,0,0,0,0,-1,1287,1163,0,0
70,-139,0,0,0,0,0,0,0,0,0,-1,1294,1163,0,0
77,-139,0,0,0,0,0,0,0,0,0,-1,1301,1163,0,0
84,-139,0,0,0,0,0,0,0,0,0,-1,1308,1163,0,0
91,-139,0,0,0,0,0,0,0,0,0,-1,1315,1163,0,0
98,-139,0,0,0,0,0,0,0,0,0,-1,1322,1163,0,0
105,-139,0,0,0,0,0,0,0,0,0,-1,1329,1163,0,0
112,-139,0,0,0,0,0,0,0,0,0,-1,1336,1163,0,0
119,-139,0,0,0,0,0,0,0,0,0,-1,1343,1163,0,0
126,-139,0,0,0,0,0,0,0,0,0,-1,1350,1163,0,0
133,-139,0,0,0,0,0,0,0,0,0,-1,1357,1163,0,0
140,-139,0,0,0,0,0,0,0,0,0,-1,1364,1163,0,0
147,-139,0,0,0,0,0,0,0,0,0,-1,1371,1163,0,0
154,-139,0,0,0,0,0,0,0,0,0,-1,1378,1163,0,0
161,-139,0,0,0,0,0,0,0,0,0,-1,1385,1163,0,0
168,-139,0,0,0,0,0,0,0,0,0,-1,1392,1163,0,0
175,-139,0,0,0,0,0,0,0,0,0,-1,1399,1163,0,0
182,-139,0,0,0,0,0,0,0,0,0,-1,1406,1163,0,0
189,-139,0,0,0,0,0,0,0,0,0,-1,1413,1163,0,0
196,-139,0,0,0,0,0,0,0,0,0,-1,1420,1163,0,0
203,-139,0,0,0,0,0,0,0,0,0,-1,1427,1163,0,0
210,-139,0,0,0,0,0,0,0,0,0,-1,1434,1163,0,0
217,-139,0,0,0,0,0,0,0,0,0,-1,1441,1163,0,0
224,-139,0,0,0,0,0,0,0,0,0,-1,1448,1163,0,0
231,-139,0,0,0,0,0,0,0,0,0,-1,1455,1163,0,0
238,-139,0,0,0,0,0,0,0,0,0,-1,1462,1163,0,0
245,-139,0,0,0,0,0,0,0,0,0,-1,1469,1163,0,0
252,-139,0,0,0,0,0,0,0,0,0,-1,1476,1163,0,0
259,-139,0,0,0,0,0,0,0,0,0,-1,1483,1163,0,0
266,-139,0,0,0,0,0,0,0,0,0,-1,1490,1163,0,0
273,-139,0,0,0,0,0,0,0,0,0,-1,1497,1163,0,0
280,-139,0,0,0,0,0,0,0,0,0,-1,1504,1163,0,0
287,-139,0,0,0,0,0,0,0,0,0,-1,1511,1163,0,0
294,-139,0,0,0,0,0,0,0,0,0,-1,1518,1163,0,0
301,-139,0,0,0,0,0,0,0,0,0,-1,1525,1163,0,0
308,-139,0,0,0,0,0,0,0,0,0,-1,1532,1163,0,0
315,-139,0,0,0,0,0,0,0,0,0,-1,1539,1163,0,0
322,-139,0,0,0,0,0,0,0,0,0,-1,1546,1163,0,0
329,-139,0,0,0,0,0,0,0,0,0,-1,1553,1163,0,0
336,-139,0,0,0,0,0,0,0,0,0,-1,1560,1163,0,0
343,-139,0,0,0,0,0,0,0,0,0,-1,1567,1163,0,0
350,-139,0,0,0,0,0,0,0,0,0,-1,1574,1163,0,0
357,-139,0,0,0,0,0,0,0,0,0,-1,1581,1163,0,0
364,-139,0,0,0,0,0,0,0,0,0,-1,1588,1163,0,0
371,-139,0,0,0,0,0,0,0,0,0,-1,1595,1163,0,0
378,-139,0,0,0,0,0,0,0,0,0,-1,1602,1163,0,0
385,-139,0,0,0,0,0,0,0,0,0,-1,1609,1163,0,0
392,-139,0,0,0,0,0,0,0,0,0,-1,1616,1163,0,0
399,-139,0,0,0,0,0,0,0,0,0,-1,1623,1163,0,0
406,-139,0,0,0,0,0,0,0,0,0,-1,1630,1163,0,0
413,-139,0,0,0,0,0,0,0,0,0,-1,1637,1163,0,0
420,-139,0,0,0,0,0,0,0,0,0,-1,1644,1163,0,0
427,-139,0,0,0,0,0,0,0,0,0,-1,1651,1163,0,0
434,-139,0,0,0,0,0,0,0,0,0,-1,1658,1163,0,0
441,-139,0,0,0,0,0,0,0,0,0,-1,1665,1163,0,0
448,-139,0,0,0,0,0,0,0,0,0,-1,1672,1163,0,0
455,-139,0,0,0,0,0,0,0,0,0,-1,1679,1163,0,0
462,-139,0,0,0,0,0,0,0,0,0,-1,1686,1163,0,0
469,-139,0,0,0,0,0,0,0,0,0,-1,1693,1163,0,0
476,-139,0,0,0,0,0,0,0,0,0,-1,1700,1163,0,0
483,-139,0,0,0,0,0,0,0,0,0,-1,1707,1163,0,0
490,-139,0,0,0,0,0,0,0,0,0,-1,1714,1163,0,0
497,-139,0,0,0,0,0,0,0,0,0,-1,1721,1163,0,0
504,-139,0,0,0,0,0,0,0,0,0,-1,1728,1163,0,0
511,-139,0,0,0,0,0,0,0,0,0,-1,1735,1163,0,0
518,-139,0,0,0,0,0,0,0,0,0,-1,1742,1163,0,0
525,-139,0,0,0,0,0,0,0,0,0,-1,1749,1163,0,0
532,-139,0,0,0,0,0,0,0,0,0,-1,1756,1163,0,0
539,-139,0,0,0,0,0,0,0,0,0,-1,1763,1163,0,0
546,-139,0,0,0,0,0,0,0,0,0,-1,1770,1163,0,0
553,-139,0,0,0,0,0,0,0,0,0,-1,1777,1163,0,0
560,-139,0,0,0,0,0,0,0,0,0,-1,1784,1163,0,0
567,-139,0,0,0,0,0,0,0,0,0,-1,1791,1163,0,0
574,-139,0,0,0,0,0,0,0,0,0,-1,1798,1163,0,0
581,-139,0,0,0,0,0,0,0,0,0,-1,1805,1163,0,0
588,-139,0,0,0,0,0,0,0,0,0,-1,1812,1163,0,0
595,-139,0,0,0,0,0,0,0,0,0,-1,1819,1163,0,0
602,-139,0,0,0,0,0,0,0,0,0,-1,1826,1163,0,0
609,-139,0,0,0,0,0,0,0,0,0,-1,1833,1163,0,0
616,-139,0,0,0,0,0,0,0,0,0,-1,1840,1163,0,0
623,-139,0,0,0,0,0,0,0,0,0,-1,1847,1163,0,0
630,-139,0,0,0,0,0,0,0,0,0,-1,1854,1163,0,0
637,-139,0,0,0,0,0,0,0,0,0,-1,1861,1163,0,0
644,-139,46.3116,2.88098,-0.00719239,-0.00251698,0.00140836,-0.00212552,-0.00758386,1.29969,0.00451728,0.0378788,1868,1163,46.3116,-2.88102
651,-139,46.2898,3.02014,-0.0051134,-0.00145088,0.000908912,-0.00123772,-0.00532655,1.34044,0.00321879,0.0386284,1875,1163,46.2898,-3.02013
658,-139,46.35,2.9635,-0.00327906,-0.000644478,0.000417582,-0.000579875,-0.00334366,1.41731,0.00206316,0.0393122,1882,1163,46.3499,-2.9635
665,-139,46.3353,3.01111,-0.00172009,1.68244e-05,-3.17209e-05,1.74036e-05,-0.00172067,-1.55254,0.00115296,0.038872,1889,1163,46.3353,-3.0111
672,-139,46.3479,3.05701,-0.00078622,0.000373035,-0.000227042,0.000415916,-0.0008291,-1.38413,0.000731886,0.0388264,1896,1163,46.3479,-3.05695
679,-139,46.3378,2.94617,-0.000624909,0.000390739,-9.79545e-05,0.0004001,-0.00063427,-1.47552,0.000602273,0.0357758,1903,1163,46.3377,-2.94617
686,-139,46.2917,2.9082,-0.000679243,0.000191951,0.000111478,0.000205989,-0.000693281,1.44553,0.000544009,0.0369574,1910,1163,46.2917,-2.90819
693,-139,46.3248,2.90649,-0.000681314,6.86877e-05,0.000381373,0.000228543,-0.000841169,1.17389,0.000650484,0.0271703,1917,1163,46.3249,-2.90647
700,-139,46.4114,2.86487,0,0,0,0,0,0,0,-1,1924,1163,46.4113,-2.86491
707,-139,32.116,6.54346,0,0,0,0,0,0,0,-1,1931,1163,32.116,-6.54343
714,-139,41.3341,7.71863,0,0,0,0,0,0,0,-1,1938,1163,41.3341,-7.71859
721,-139,41.4169,7.25781,-0.00139114,-0.000187873,0.00127232,0.000617889,-0.0021969,1.00625,0.00170823,0.0312646,1945,1163,41.4169,-7.25778
728,-139,41.3308,6.99646,-0.00150074,-0.000200105,0.00149305,0.000778105,-0.00247895,0.99079,0.00196407,0.0395616,1952,1163,41.3308,-6.99647
735,-139,41.2227,6.7478,-0.0018379,-0.000230311,0.00171838,0.000862974,-0.00293118,1.00416,0.00229648,0.0299504,1959,1163,41.2227,-6.74785
742,-139,41.3008,6.27637,-0.00241612,0.000144598,0.00187731,0.0011366,-0.00340812,1.08468,0.00273096,0.0218829,1966,1163,41.3007,-6.27636
749,-139,41.303,5.90759,-0.00348771,0.00105559,0.00150414,0.00150843,-0.00394055,1.27837,0.00324875,0.0184623,1973,1163,41.3029,-5.90763
756,-139,41.2759,5.57349,-0.00497562,0.0027497,0.000414903,0.00277192,-0.00499784,1.51729,0.00454682,0.0109817,1980,1163,41.2758,-5.57346
763,-139,41.2634,5.23047,-0.00701266,0.00497094,-0.00137591,0.00512689,-0.00716861,-1.45794,0.00713136,0.010657,1987,1163,41.2635,-5.23043
770,-139,41.2826,4.90454,-0.00949217,0.00761549,-0.00387485,0.00845221,-0.0103289,-1.35813,0.0108613,0.012751,1994,1163,41.2826,-4.9046
777,-139,41.2932,4.60913,-0.0123941,0.0107509,-0.00724511,0.0128318,-0.0144749,-1.29111,0.0157751,0.0258891,2001,1163,41.2932,-4.60918
784,-139,41.2488,4.34924,-0.015764,0.0145754,-0.0119075,0.0186906,-0.0198792,-1.23805,0.0222718,0.044254,2008,1163,41.2489,-4.34923
791,-139,39.718,4.10254,-0.0193647,0.0193892,-0.018562,0.0268453,-0.0268208,-1.18884,0.0309842,0.047252,2015,1163,39.7181,-4.10253
798,-139,39.3032,3.68665,-0.0227444,0.0254418,-0.0278902,0.0382044,-0.035507,-1.14164,0.0425668,0.0473423,2022,1163,39.3032,-3.68668
805,-139,38.9697,3.12927,0,0,0,0,0,0,0,-1,2029,1163,38.9696,-3.12922
812,-139,0,0,0,0,0,0,0,0,0,-1,2036,1163,0,0
-700,-146,0,0,0,0,0,0,0,0,0,-1,524,1170,0,0
-693,-146,-27.2393,-4.14954,0,0,0,0,0,0,0,-1,531,1170,-27.2393,4.14955
-686,-146,-33.8044,-0.779053,0,0,0,0,0,0,0,-1,538,1170,-33.8043,0.779006
-679,-146,-32.5126,0.5271,0,0,0,0,0,0,0,-1,545,1170,-32.5126,-0.527118
-672,-146,-26.1328,0.885132,0,0,0,0,0,0,0,-1,552,1170,-26.1328,-0.885132
-665,-146,-26.4651,1.34717,0,0,0,0,0,0,0,-1,559,1170,-26.4652,-1.34721
-658,-146,-28.2579,1.12244,0,0,0,0,0,0,0,-1,566,1170,-28.2579,-1.12243
-651,-146,-28.3079,1.38318,0.0444424,0.0303604,0.0132286,0.0523871,0.0224157,0.540838,0.0303504,0.0405507,573,1170,-28.3079,-1.38324
-644,-146,-28.36,1.672,0.030493,0.0211988,0.00920571,0.0361581,0.0155337,0.551656,0.0209447,0.0219543,580,1170,-28.36,-1.67194
-637,-146,-28.3868,2.07971,0.0190445,0.0137647,0.00573804,0.0227208,0.0100884,0.5698,0.0131452,0.0113011,587,1170,-28.3868,-2.07975
-630,-146,-28.4201,2.48706,0.00977071,0.00747473,0.0030025,0.0118372,0.00540824,0.602801,0.00684267,0.0104138,594,1170,-28.4201,-2.487
-623,-146,-28.4482,2.86572,0.0029268,0.00317309,0.000770009,0.00382974,0.00227015,0.864691,0.00222375,0.0135365,601,1170,-28.4482,-2.86574
-616,-146,-28.5045,3.2876,-4.75193e-05,0.00136253,-0.000268789,0.00141203,-9.7019e-05,-1.38868,0.000975303,0.0206905,608,1170,-28.5044,-3.28762
-609,-146,-28.3318,3.76001,-0.000493535,0.000797015,-0.000311046,0.000868071,-0.00056459,-1.34621,0.00083331,0.025997,615,1170,-28.3318,-3.75997
-602,-146,-28.5916,4.28479,0,0,0,0,0,0,0,-1,622,1170,-28.5915,-4.28481
-595,-146,-28.7107,4.55713,0,0,0,0,0,0,0,-1,629,1170,-28.7107,-4.55718
-588,-146,-28.8298,4.82959,0,0,0,0,0,0,0,-1,636,1170,-28.8298,-4.82955
-581,-146,-25.8838,5.00452,0,0,0,0,0,0,0,-1,643,1170,-25.8838,-5.00447
-574,-146,-17.9915,3.79114,0,0,0,0,0,0,0,-1,650,1170,-17.9915,-3.79118
-567,-146,-33.9501,0.787109,0,0,0,0,0,0,0,-1,657,1170,-33.9501,-0.787108
-560,-146,-34.1217,1.08691,0.000722037,0.000215847,-0.00184795,0.00233415,-0.00139626,-0.717342,0.00217632,0.0370151,664,1170,-34.1217,-1.08689
-553,-146,-34.1368,1.21899,0.000772711,0.000157547,-0.00220826,0.00269471,-0.00176445,-0.7162,0.00259311,0.0353483,671,1170,-34.1368,-1.21895
-546,-146,-34.0988,1.14429,0.00143592,-0.000164291,-0.0027617,0.00351108,-0.00223946,-0.644401,0.00334702,0.0369045,678,1170,-34.0988,-1.14431
-539,-146,-34.1025,1.01416,0.00283094,-0.000636599,-0.0035319,0.00503167,-0.00283733,-0.557232,0.00460167,0.0388496,685,1170,-34.1025,-1.0141
-532,-146,-34.0793,0.763428,0.00480602,-0.00173497,-0.00469949,0.00726102,-0.00418997,-0.481405,0.00669002,0.0409082,692,1170,-34.0793,-0.763429
-525,-146,-33.9059,0.68396,0.00727209,-0.00287032,-0.00620288,0.0102129,-0.00581116,-0.442721,0.00936714,0.0434606,699,1170,-33.9059,-0.683932
-518,-146,0,0,0,0,0,0,0,0,0,-1,706,1170,0,0
-511,-146,0,0,0,0,0,0,0,0,0,-1,713,1170,0,0
-504,-146,0,0,0,0,0,0,0,0,0,-1,720,1170,0,0
-497,-146,0,0,0,0,0,0,0,0,0,-1,727,1170,0,0
-490,-146,0,0,0,0,0,0,0,0,0,-1,734,1170,0,0
-483,-146,0,0,0,0,0,0,0,0,0,-1,741,1170,0,0
-476,-146,0,0,0,0,0,0,0,0,0,-1,748,1170,0,0
-469,-146,0,0,0,0,0,0,0,0,0,-1,755,1170,0,0
-462,-146,0,0,0,0,0,0,0,0,0,-1,762,1170,0,0
-455,-146,0,0,0,0,0,0,0,0,0,-1,769,1170,0,0
-448,-146,0,0,0,0,0,0,0,0,0,-1,776,1170,0,0
-441,-146,0,0,0,0,0,0,0,0,0,-1,783,1170,0,0
-434,-146,0,0,0,0,0,0,0,0,0,-1,790,1170,0,0
-427,-146,0,0,0,0,0,0,0,0,0,-1,797,1170,0,0
-420,-146,0,0,0,0,0,0,0,0,0,-1,804,1170,0,0
-413,-146,0,0,0,0,0,0,0,0,0,-1,811,1170,0,0
-406,-146,0,0,0,0,0,0,0,0,0,-1,818,1170,0,0
-399,-146,0,0,0,0,0,0,0,0,0,-1,825,1170,0,0
-392,-146,0,0,0,0,0,0,0,0,0,-1,832,1170,0,0
-385,-146,0,0,0,0,0,0,0,0,0,-1,839,1170,0,0
-378,-146,0,0,0,0,0,0,0,0,0,-1,846,1170,0,0
-371,-146,0,0,0,0,0,0,0,0,0,-1,853,1170,0,0
-364,-146,0,0,0,0,0,0,0,0,0,-1,860,1170,0,0
-357,-146,0,0,0,0,0,0,0,0,0,-1,867,1170,0,0
-350,-146,0,0,0,0,0,0,0,0,0,-1,874,1170,0,0
-343,-146,0,0,0,0,0,0,0,0,0,-1,881,1170,0,0
-336,-146,0,0,0,0,0,0,0,0,0,-1,888,1170,0,0
-329,-146,0,0,0,0,0,0,0,0,0,-1,895,1170,0,0
-322,-146,0,0,0,0,0,0,0,0,0,-1,902,1170,0,0
-315,-146,0,0,0,0,0,0,0,0,0,-1,909,1170,0,0
-308,-146,0,0,0,0,0,0,0,0,0,-1,916,1170,0,0
-301,-146,0,0,0,0,0,0,0,0,0,-1,923,1170,0,0
-294,-146,0,0,0,0,0,0,0,0,0,-1,930,1170,0,0
-287,-146,0,0,0,0,0,0,0,0,0,-1,937,1170,0,0
-280,-146,0,0,0,0,0,0,0,0,0,-1,944,1170,0,0
-273,-146,0,0,0,0,0,0,0,0,0,-1,951,1170,0,0
-266,-146,0,0,0,0,0,0,0,0,0,-1,958,1170,0,0
-259,-146,0,0,0,0,0,0,0,0,0,-1,965,1170,0,0
-252,-146,0,0,0,0,0,0,0,0,0,-1,972,1170,0,0
-245,-146,0,0,0,0,0,0,0,0,0,-1,979,1170,0,0
-238,-146,0,0,0,0,0,0,0,0,0,-1,986,1170,0,0
-231,-146,0,0,0,0,0,0,0,0,0,-1,993,1170,0,0
-224,-146,0,0,0,0,0,0,0,0,0,-1,1000,1170,0,0
-217,-146,0,0,0,0,0,0,0,0,0,-1,1007,1170,0,0
-210,-146,0,0,0,0,0,0,0,0,0,-1,1014,1170,0,0
-203,-146,0,0,0,0,0,0,0,0,0,-1,1021,1170,0,0
-196,-146,0,0,0,0,0,0,0,0,0,-1,1028,1170,0,0
-189,-146,0,0,0,0,0,0,0,0,0,-1,1035,1170,0,0
-182,-146,0,0,0,0,0,0,0,0,0,-1,1042,1170,0,0
-175,-146,0,0,0,0,0,0,0,0,0,-1,1049,1170,0,0
-168,-146,0,0,0,0,0,0,0,0,0,-1,1056,1170,0,0
-161,-146,0,0,0,0,0,0,0,0,0,-1,1063,1170,0,0
-154,-146,0,0,0,0,0,0,0,0,0,-1,1070,1170,0,0
-147,-146,0,0,0,0,0,0,0,0,0,-1,1077,1170,0,0
-140,-146,0,0,0,0,0,0,0,0,0,-1,1084,1170,0,0
-133,-146,0,0,0,0,0,0,0,0,0,-1,1091,1170,0,0
-126,-146,0,0,0,0,0,0,0,0,0,-1,1098,1170,0,0
-119,-146,0,0,0,0,0,0,0,0,0,-1,1105,1170,0,0
-112,-146,0,0,0,0,0,0,0,0,0,-1,1112,1170,0,0
-105,-146,0,0,0,0,0,0,0,0,0,-1,1119,1170,0,0
-98,-146,0,0,0,0,0,0,0,0,0,-1,1126,1170,0,0
-91,-146,0,0,0,0,0,0,0,0,0,-1,1133,1170,0,0
-84,-146,0,0,0,0,0,0,0,0,0,-1,1140,1170,0,0
-77,-146,0,0,0,0,0,0,0,0,0,-1,1147,1170,0,0
-70,-146,0,0,0,0,0,0,0,0,0,-1,1154,1170,0,0
-63,-146,0,0,0,0,0,0,0,0,0,-1,1161,1170,0,0
-56,-146,0,0,0,0,0,0,0,0,0,-1,1168,1170,0,0
-49,-146,0,0,0,0,0,0,0,0,0,-1,1175,1170,0,0
-42,-146,0,0,0,0,0,0,0,0,0,-1,1182,1170,0,0
-35,-146,0,0,0,0,0,0,0,0,0,-1,1189,1170,0,0
-28,-146,0,0,0,0,0,0,0,0,0,-1,1196,1170,0,0
-21,-146,0,0,0,0,0,0,0,0,0,-1,1203,1170,0,0
-14,-146,0,0,0,0,0,0,0,0,0,-1,1210,1170,0,0
-7,-146,0,0,0,0,0,0,0,0,0,-1,1217,1170,0,0
0,-146,0,0,0,0,0,0,0,0,0,-1,1224,1170,0,0
7,-146,0,0,0,0,0,0,0,0,0,-1,1231,1170,0,0
14,-146,0,0,0,0,0,0,0,0,0,-1,1238,1170,0,0
21,-146,0,0,0,0,0,0,0,0,0,-1,1245,1170,0,0
28,-146,0,0,0,0,0,0,0,0,0,-1,1252,1170,0,0
35,-146,0,0,0,0,0,0,0,0,0,-1,1259,1170,0,0
42,-146,0,0,0,0,0,0,0,0,0,-1,1266,1170,0,0
49,-146,0,0,0,0,0,0,0,0,0,-1,1273,1170,0,0
56,-146,0,0,0,0,0,0,0,0,0,-1,1280,1170,0,0
63,-146,0,0,0,0,0,0,0,0,0,-1,1287,1170,0,0
70,-146,0,0,0,0,0,0,0,0,0,-1,1294,1170,0,0
77,-146,0,0,0,0,0,0,0,0,0,-1,1301,1170,0,0
84,-146,0,0,0,0,0,0,0,0,0,-1,1308,1170,0,0
91,-146,0,0,0,0,0,0,0,0,0,-1,1315,1170,0,0
98,-146,0,0,0,0,0,0,0,0,0,-1,1322,1170,0,0
105,-146,0,0,0,0,0,0,0,0,0,-1,1329,1170,0,0
112,-146,0,0,0,0,0,0,0,0,0,-1,1336,1170,0,0
119,-146,0,0,0,0,0,0,0,0,0,-1,1343,1170,0,0
126,-146,0,0,0,0,0,0,0,0,0,-1,1350,1170,0,0
133,-146,0,0,0,0,0,0,0,0,0,-1,1357,1170,0,0
140,-146,0,0,0,0,0,0,0,0,0,-1,1364,1170,0,0
147,-146,0,0,0,0,0,0,0,0,0,-1,1371,1170,0,0
154,-146,0,0,0,0,0,0,0,0,0,-1,1378,1170,0,0
161,-146,0,0,0,0,0,0,0,0,0,-1,1385,1170,0,0
168,-146,0,0,0,0,0,0,0,0,0,-1,1392,1170,0,0
175,-146,0,0,0,0,0,0,0,0,0,-1,1399,1170,0,0
182,-146,0,0,0,0,0,0,0,0,0,-1,1406,1170,0,0
189,-146,0,0,0,0,0,0,0,0,0,-1,1413,1170,0,0
196,-146,0,0,0,0,0,0,0,0,0,-1,1420,1170,0,0
203,-146,0,0,0,0,0,0,0,0,0,-1,1427,1170,0,0
210,-146,0,0,0,0,0,0,0,0,0,-1,1434,1170,0,0
217,-146,0,0,0,0,0,0,0,0,0,-1,1441,1170,0,0
224,-146,0,0,0,0,0,0,0,0,0,-1,1448,1170,0,0
231,-146,0,0,0,0,0,0,0,0,0,-1,1455,1170,0,0
238,-146,0,0,0,0,0,0,0,0,0,-1,1462,1170,0,0
245,-146,0,0,0,0,0,0,0,0,0,-1,1469,1170,0,0
252,-146,0,0,0,0,0,0,0,0,0,-1,1476,1170,0,0
259,-146,0,0,0,0,0,0,0,0,0,-1,1483,1170,0,0
266,-146,0,0,0,0,0,0,0,0,0,-1,1490,1170,0,0
273,-146,0,0,0,0,0,0,0,0,0,-1,1497,1170,0,0
280,-146,0,0,0,0,0,0,0,0,0,-1,1504,1170,0,0
287,-146,0,0,0,0,0,0,0,0,0,-1,1511,1170,0,0
294,-146,0,0,0,0,0,0,0,0,0,-1,1518,1170,0,0
301,-146,0,0,0,0,0,0,0,0,0,-1,1525,1170,0,0
308,-146,0,0,0,0,0,0,0,0,0,-1,1532,1170,0,0
315,-146,0,0,0,0,0,0,0,0,0,-1,1539,1170,0,0
322,-146,0,0,0,0,0,0,0,0,0,-1,1546,1170,0,0
329,-146,0,0,0,0,0,0,0,0,0,-1,1553,1170,0,0
336,-146,0,0,0,0,0,0,0,0,0,-1,1560,1170,0,0
343,-146,0,0,0,0,0,0,0,0,0,-1,1567,1170,0,0
350,-146,0,0,0,0,0,0,0,0,0,-1,1574,1170,0,0
357,-146,0,0,0,0,0,0,0,0,0,-1,1581,1170,0,0
364,-146,0,0,0,0,0,0,0,0,0,-1,1588,1170,0,0
371,-146,0,0,0,0,0,0,0,0,0,-1,1595,1170,0,0
378,-146,0,0,0,0,0,0,0,0,0,-1,1602,1170,0,0
385,-146,0,0,0,0,0,0,0,0,0,-1,1609,1170,0,0
392,-146,0,0,0,0,0,0,0,0,0,-1,1616,1170,0,0
399,-146,0,0,0,0,0,0,0,0,0,-1,1623,1170,0,0
406,-146,0,0,0,0,0,0,0,0,0,-1,1630,1170,0,0
413,-146,0,0,0,0,0,0,0,0,0,-1,1637,1170,0,0
420,-146,0,0,0,0,0,0,0,0,0,-1,1644,1170,0,0
427,-146,0,0,0,0,0,0,0,0,0,-1,1651,1170,0,0
434,-146,0,0,0,0,0,0,0,0,0,-1,1658,1170,0,0
441,-146,0,0,0,0,0,0,0,0,0,-1,1665,1170,0,0
448,-146,0,0,0,0,0,0,0,0,0,-1,1672,1170,0,0
455,-146,0,0,0,0,0,0,0,0,0,-1,1679,1170,0,0
462,-146,0,0,0,0,0,0,0,0,0,-1,1686,1170,0,0
469,-146,0,0,0,0,0,0,0,0,0,-1,1693,1170,0,0
476,-146,0,0,0,0,0,0,0,0,0,-1,1700,1170,0,0
483,-146,0,0,0,0,0,0,0,0,0,-1,1707,1170,0,0
490,-146,0,0,0,0,0,0,0,0,0,-1,1714,1170,0,0
497,-146,0,0,0,0,0,0,0,0,0,-1,1721,1170,0,0
504,-146,0,0,0,0,0,0,0,0,0,-1,1728,1170,0,0
511,-146,0,0,0,0,0,0,0,0,0,-1,1735,1170,0,0
518,-146,0,0,0,0,0,0,0,0,0,-1,1742,1170,0,0
525,-146,0,0,0,0,0,0,0,0,0,-1,1749,1170,0,0
532,-146,0,0,0,0,0,0,0,0,0,-1,1756,1170,0,0
539,-146,0,0,0,0,0,0,0,0,0,-1,1763,1170,0,0
546,-146,0,0,0,0,0,0,0,0,0,-1,1770,1170,0,0
553,-146,0,0,0,0,0,0,0,0,0,-1,1777,1170,0,0
560,-146,0,0,0,0,0,0,0,0,0,-1,1784,1170,0,0
567,-146,0,0,0,0,0,0,0,0,0,-1,1791,1170,0,0
574,-146,0,0,0,0,0,0,0,0,0,-1,1798,1170,0,0
581,-146,0,0,0,0,0,0,0,0,0,-1,1805,1170,0,0
588,-146,0,0,0,0,0,0,0,0,0,-1,1812,1170,0,0
595,-146,0,0,0,0,0,0,0,0,0,-1,1819,1170,0,0
602,-146,0,0,0,0,0,0,0,0,0,-1,1826,1170,0,0
609,-146,0,0,0,0,0,0,0,0,0,-1,1833,1170,0,0
616,-146,0,0,0,0,0,0,0,0,0,-1,1840,1170,0,0
623,-146,0,0,0,0,0,0,0,0,0,-1,1847,1170,0,0
630,-146,0,0,0,0,0,0,0,0,0,-1,1854,1170,0,0
637,-146,46.4301,2.66418,-0.010002,-0.00335146,0.00136743,-0.00308127,-0.0102722,1.37572,0.00608678,0.0377177,1861,1170,46.43,-2.66415
644,-146,46.3835,2.69727,-0.00728375,-0.00210064,0.00095138,-0.00193153,-0.00745286,1.39488,0.00446619,0.0372095,1868,1170,46.3835,-2.69728
651,-146,46.3085,2.87646,-0.005051,-0.00102487,0.000510904,-0.000961048,-0.00511482,1.44652,0.00313896,0.035184,1875,1170,46.3085,-2.8765
658,-146,46.3234,2.86511,-0.00308776,-0.00021644,6.10199e-05,-0.000215144,-0.00308905,1.54956,0.00199153,0.0356241,1882,1170,46.3234,-2.86508
665,-146,46.3625,2.92542,-0.00146306,0.000401778,-0.000326621,0.00045733,-0.00151861,-1.40233,0.0011944,0.0383098,1889,1170,46.3626,-2.9254
672,-146,46.4359,2.96704,-0.000641557,0.000631399,-0.000379759,0.000736083,-0.000746241,-1.30182,0.000855827,0.038073,1896,1170,46.4359,-2.96703
679,-146,46.4088,2.87976,-0.000677454,0.00053417,-0.00010232,0.00054275,-0.000686034,-1.48714,0.000711045,0.0307942,1903,1170,46.4088,-2.87979
686,-146,46.2913,2.79712,-0.000878277,0.00026993,0.000203311,0.000304867,-0.000913214,1.40062,0.000731912,0.0252289,1910,1170,46.2912,-2.7971
693,-146,46.3215,2.79309,-0.000977265,0.00011246,0.000542153,0.000336236,-0.00120104,1.17934,0.000933187,0.0195762,1917,1170,46.3215,-2.7931
700,-146,46.3894,2.75488,0,0,0,0,0,0,0,-1,1924,1170,46.3895,-2.75492
707,-146,29.9441,6.94653,0,0,0,0,0,0,0,-1,1931,1170,29.9441,-6.94652
714,-146,31.325,6.13245,0,0,0,0,0,0,0,-1,1938,1170,31.325,-6.1325
721,-146,40.9905,7.17615,0,0,0,0,0,0,0,-1,1945,1170,40.9905,-7.1762
728,-146,40.9962,6.82214,0,0,0,0,0,0,0,-1,1952,1170,40.9962,-6.82211
735,-146,40.9343,6.64368,-0.0020623,-0.00042734,0.0019708,0.000888793,-0.00337844,0.981997,0.0025997,0.0270183,1959,1170,40.9344,-6.64373
742,-146,40.9642,6.2688,-0.0025013,-7.11942e-05,0.00207528,0.00111857,-0.00369106,1.05024,0.00290622,0.0171629,1966,1170,40.9643,-6.26876
749,-146,40.9387,5.94629,-0.00344985,0.00085427,0.00159108,0.00137857,-0.00397415,1.25248,0.00320922,0.0154942,1973,1170,40.9387,-5.94625
756,-146,40.9324,5.57947,-0.00480529,0.00255874,0.000263291,0.00256814,-0.00481469,1.5351,0.00432776,0.0120519,1980,1170,40.9324,-5.57944
763,-146,40.8947,5.20496,-0.00671119,0.00471722,-0.00177605,0.00498687,-0.00698084,-1.42012,0.00694145,0.0107529,1987,1170,40.8946,-5.20495
770,-146,40.8865,4.86084,-0.00910779,0.00727143,-0.00452542,0.00843859,-0.0102749,-1.31839,0.0108216,0.0128391,1994,1170,40.8864,-4.86082
777,-146,40.901,4.57678,-0.0120411,0.0103096,-0.00819285,0.012991,-0.0147226,-1.25449,0.0160109,0.0246258,2001,1170,40.901,-4.57672
784,-146,40.2976,4.21033,-0.015544,0.0140097,-0.0131845,0.0190365,-0.0205709,-1.20654,0.0228731,0.0406242,2008,1170,40.2976,-4.21029
791,-146,39.7761,3.90417,-0.0194541,0.0186731,-0.0201928,0.0273794,-0.0281604,-1.16372,0.032067,0.0449414,2015,1170,39.7762,-3.90415
798,-146,39.5164,3.33044,-0.0234656,0.0245087,-0.0298064,0.0387812,-0.0377381,-1.12422,0.0441798,0.0447829,2022,1170,39.5163,-3.33042
805,-146,39.3308,2.76013,0,0,0,0,0,0,0,-1,2029,1170,39.3308,-2.76012
812,-146,0,0,0,0,0,0,0,0,0,-1,2036,1170,0,0
-700,-153,0,0,0,0,0,0,0,0,0,-1,524,1177,0,0
-693,-153,0,0,0,0,0,0,0,0,0,-1,531,1177,0,0
-686,-153,-33.6965,-1.50256,0.205124,0.129375,0.0664511,0.243737,0.0907628,0.526377,0.142241,0.0494094,538,1177,-33.6965,1.5026
-679,-153,-32.4302,-0.28418,0.165685,0.101981,0.0554344,0.197767,0.0698993,0.524637,0.115804,0.0486465,545,1177,-32.4302,0.284232
-672,-153,-26.5995,0.302246,0.130691,0.0791927,0.0447981,0.156613,0.0532711,0.524561,0.0919481,0.0452939,552,1177,-26.5996,-0.302255
-665,-153,-26.9866,0.482544,0.100469,0.0603251,0.0351208,0.120849,0.0399453,0.525792,0.0710956,0.0446922,559,1177,-26.9866,-0.482496
-658,-153,-27.2499,0.931519,0.0750269,0.0448763,0.0266106,0.0905357,0.0293675,0.527681,0.0533348,0.045547,566,1177,-27.2499,-0.931509
-651,-153,-27.6746,1.25977,0.0540145,0.0323827,0.0193584,0.0653736,0.0210237,0.530642,0.038536,0.0449279,573,1177,-27.6746,-1.25979
-644,-153,-27.9135,1.62061,0.0369393,0.0223876,0.0133315,0.0448512,0.0144757,0.535606,0.0264317,0.027692,580,1177,-27.9134,-1.62058
-637,-153,-27.9549,2.06494,0.0231037,0.0144342,0.00829111,0.0281248,0.00941305,0.544531,0.016531,0.0112688,587,1177,-27.9549,-2.06496
-630,-153,-27.9998,2.47119,0.0120687,0.00781016,0.00425282,0.0146955,0.00518335,0.553307,0.00860626,0.0101042,594,1177,-27.9998,-2.47123
-623,-153,-28.025,2.87207,0.00378692,0.00333948,0.00113939,0.00472435,0.00240205,0.688458,0.00272773,0.0106473,601,1177,-28.025,-2.87209
-616,-153,-28.0515,3.27234,-4.61726e-05,0.00140937,-0.000550298,0.001594,-0.000230804,-1.24709,0.00114737,0.0137137,608,1177,-28.0515,-3.27232
-609,-153,-27.9976,3.70544,-0.000636951,0.000837776,-0.000822183,0.00120481,-0.00100398,-1.15093,0.001277,0.0216531,615,1177,-27.9976,-3.70543
-602,-153,-27.9613,4.57092,0,0,0,0,0,0,0,-1,622,1177,-27.9613,-4.57087
-595,-153,-28.3895,4.65747,0,0,0,0,0,0,0,-1,629,1177,-28.3895,-4.65747
-588,-153,-26.1733,4.40442,0,0,0,0,0,0,0,-1,636,1177,-26.1734,-4.40446
-581,-153,-25.6566,4.79578,0,0,0,0,0,0,0,-1,643,1177,-25.6566,-4.79579
-574,-153,-25.4814,5.16956,0,0,0,0,0,0,0,-1,650,1177,-25.4814,-5.16961
-567,-153,-33.9402,1.17261,0,0,0,0,0,0,0,-1,657,1177,-33.9402,-1.17259
-560,-153,-34.1012,1.11316,0.000264126,-8.21644e-05,-0.0021958,0.0022936,-0.00211164,-0.746053,0.00254409,0.0463766,664,1177,-34.1012,-1.11313
-553,-153,-34.0739,0.969727,0.000203684,-0.000222074,-0.00244123,0.0024413,-0.00245969,-0.741907,0.00282959,0.0350767,671,1177,-34.0739,-0.969763
-546,-153,-33.9775,0.807007,0.000786539,-0.000703564,-0.002729,0.00287037,-0.00278739,-0.65214,0.00326663,0.0375079,678,1177,-33.9776,-0.807063
-539,-153,-34.0367,0.939209,0.00205383,-0.00129307,-0.00297868,0.00379695,-0.00303619,-0.529466,0.00395326,0.0425436,685,1177,-34.0367,-0.939228
-532,-153,-33.9517,0.82251,0.00388898,-0.00256315,-0.00359074,0.00549002,-0.00416419,-0.419422,0.00559135,0.0450221,692,1177,-33.9517,-0.822452
-525,-153,-33.7164,0.54187,0.00650584,-0.00398547,-0.00484369,0.00840009,-0.00587972,-0.372789,0.00828714,0.0442332,699,1177,-33.7164,-0.54184
-518,-153,0,0,0,0,0,0,0,0,0,-1,706,1177,0,0
-511,-153,0,0,0,0,0,0,0,0,0,-1,713,1177,0,0
-504,-153,0,0,0,0,0,0,0,0,0,-1,720,1177,0,0
-497,-153,0,0,0,0,0,0,0,0,0,-1,727,1177,0,0
-490,-153,0,0,0,0,0,0,0,0,0,-1,734,1177,0,0
-483,-153,0,0,0,0,0,0,0,0,0,-1,741,1177,0,0
-476,-153,0,0,0,0,0,0,0,0,0,-1,748,1177,0,0
-469,-153,0,0,0,0,0,0,0,0,0,-1,755,1177,0,0
-462,-153,0,0,0,0,0,0,0,0,0,-1,762,1177,0,0
-455,-153,0,0,0,0,0,0,0,0,0,-1,769,1177,0,0
-448,-153,0,0,0,0,0,0,0,0,0,-1,776,1177,0,0
-441,-153,0,0,0,0,0,0,0,0,0,-1,783,1177,0,0
-434,-153,0,0,0,0,0,0,0,0,0,-1,790,1177,0,0
-427,-153,0,0,0,0,0,0,0,0,0,-1,797,1177,0,0
-420,-153,0,0,0,0,0,0,0,0,0,-1,804,1177,0,0
-413,-153,0,0,0,0,0,0,0,0,0,-1,811,1177,0,0
-406,-153,0,0,0,0,0,0,0,0,0,-1,818,1177,0,0
-399,-153,0,0,0,0,0,0,0,0,0,-1,825,1177,0,0
-392,-153,0,0,0,0,0,0,0,0,0,-1,832,1177,0,0
-385,-153,0,0,0,0,0,0,0,0,0,-1,839,1177,0,0
-378,-153,0,0,0,0,0,0,0,0,0,-1,846,1177,0,0
-371,-153,0,0,0,0,0,0,0,0,0,-1,853,1177,0,0
-364,-153,0,0,0,0,0,0,0,0,0,-1,860,1177,0,0
-357,-153,0,0,0,0,0,0,0,0,0,-1,867,1177,0,0
-350,-153,0,0,0,0,0,0,0,0,0,-1,874,1177,0,0
-343,-153,0,0,0,0,0,0,0,0,0,-1,881,1177,0,0
-336,-153,0,0,0,0,0,0,0,0,0,-1,888,1177,0,0
-329,-153,0,0,0,0,0,0,0,0,0,-1,895,1177,0,0
-322,-153,0,0,0,0,0,0,0,0,0,-1,902,1177,0,0
-315,-153,0,0,0,0,0,0,0,0,0,-1,909,1177,0,0
-308,-153,0,0,0,0,0,0,0,0,0,-1,916,1177,0,0
-301,-153,0,0,0,0,0,0,0,0,0,-1,923,1177,0,0
-294,-153,0,0,0,0,0,0,0,0,0,-1,930,1177,0,0
-287,-153,0,0,0,0,0,0,0,0,0,-1,937,1177,0,0
-280,-153,0,0,0,0,0,0,0,0,0,-1,944,1177,0,0
-273,-153,0,0,0,0,0,0,0,0,0,-1,951,1177,0,0
-266,-153,0,0,0,0,0,0,0,0,0,-1,958,1177,0,0
-259,-153,0,0,0,0,0,0,0,0,0,-1,965,1177,0,0
-252,-153,0,0,0,0,0,0,0,0,0,-1,972,1177,0,0
-245,-153,0,0,0,0,0,0,0,0,0,-1,979,1177,0,0
-238,-153,0,0,0,0,0,0,0,0,0,-1,986,1177,0,0
-231,-153,0,0,0,0,0,0,0,0,0,-1,993,1177,0,0
-224,-153,0,0,0,0,0,0,0,0,0,-1,1000,1177,0,0
-217,-153,0,0,0,0,0,0,0,0,0,-1,1007,1177,0,0
-210,-153,0,0,0,0,0,0,0,0,0,-1,1014,1177,0,0
-203,-153,0,0,0,0,0,0,0,0,0,-1,1021,1177,0,0
-196,-153,0,0,0,0,0,0,0,0,0,-1,1028,1177,0,0
-189,-153,0,0,0,0,0,0,0,0,0,-1,1035,1177,0,0
-182,-153,0,0,0,0,0,0,0,0,0,-1,1042,1177,0,0
-175,-153,0,0,0,0,0,0,0,0,0,-1,1049,1177,0,0
-168,-153,0,0,0,0,0,0,0,0,0,-1,1056,1177,0,0
-161,-153,0,0,0,0,0,0,0,0,0,-1,1063,1177,0,0
-154,-153,0,0,0,0,0,0,0,0,0,-1,1070,1177,0,0
-147,-153,0,0,0,0,0,0,0,0,0,-1,1077,1177,0,0
-140,-153,0,0,0,0,0,0,0,0,0,-1,1084,1177,0,0
-133,-153,0,0,0,0,0,0,0,0,0,-1,1091,1177,0,0
-126,-153,0,0,0,0,0,0,0,0,0,-1,1098,1177,0,0
-119,-153,0,0,0,0,0,0,0,0,0,-1,1105,1177,0,0
-112,-153,0,0,0,0,0,0,0,0,0,-1,1112,1177,0,0
-105,-153,0,0,0,0,0,0,0,0,0,-1,1119,1177,0,0
-98,-153,0,0,0,0,0,0,0,0,0,-1,1126,1177,0,0
-91,-153,0,0,0,0,0,0,0,0,0,-1,1133,1177,0,0
-84,-153,0,0,0,0,0,0,0,0,0,-1,1140,1177,0,0
-77,-153,0,0,0,0,0,0,0,0,0,-1,1147,1177,0,0
-70,-153,0,0,0,0,0,0,0,0,0,-1,1154,1177,0,0
-63,-153,0,0,0,0,0,0,0,0,0,-1,1161,1177,0,0
-56,-153,0,0,0,0,0,0,0,0,0,-1,1168,1177,0,0
-49,-153,0,0,0,0,0,0,0,0,0,-1,1175,1177,0,0
-42,-153,0,0,0,0,0,0,0,0,0,-1,1182,1177,0,0
-35,-153,0,0,0,0,0,0,0,0,0,-1,1189,1177,0,0
-28,-153,0,0,0,0,0,0,0,0,0,-1,1196,1177,0,0
-21,-153,0,0,0,0,0,0,0,0,0,-1,1203,1177,0,0
-14,-153,0,0,0,0,0,0,0,0,0,-1,1210,1177,0,0
-7,-153,0,0,0,0,0,0,0,0,0,-1,1217,1177,0,0
0,-153,0,0,0,0,0,0,0,0,0,-1,1224,1177,0,0
7,-153,0,0,0,0,0,0,0,0,0,-1,1231,1177,0,0
14,-153,0,0,0,0,0,0,0,0,0,-1,1238,1177,0,0
21,-153,0,0,0,0,0,0,0,0,0,-1,1245,1177,0,0
28,-153,0,0,0,0,0,0,0,0,0,-1,1252,1177,0,0
35,-153,0,0,0,0,0,0,0,0,0,-1,1259,1177,0,0
42,-153,0,0,0,0,0,0,0,0,0,-1,1266,1177,0,0
49,-153,0,0,0,0,0,0,0,0,0,-1,1273,1177,0,0
56,-153,0,0,0,0,0,0,0,0,0,-1,1280,1177,0,0
63,-153,0,0,0,0,0,0,0,0,0,-1,1287,1177,0,0
70,-153,0,0,0,0,0,0,0,0,0,-1,1294,1177,0,0
77,-153,0,0,0,0,0,0,0,0,0,-1,1301,1177,0,0
84,-153,0,0,0,0,0,0,0,0,0,-1,1308,1177,0,0
91,-153,0,0,0,0,0,0,0,0,0,-1,1315,1177,0,0
98,-153,0,0,0,0,0,0,0,0,0,-1,1322,1177,0,0
105,-153,0,0,0,0,0,0,0,0,0,-1,1329,1177,0,0
112,-153,0,0,0,0,0,0,0,0,0,-1,1336,1177,0,0
119,-153,0,0,0,0,0,0,0,0,0,-1,1343,1177,0,0
126,-153,0,0,0,0,0,0,0,0,0,-1,1350,1177,0,0
133,-153,0,0,0,0,0,0,0,0,0,-1,1357,1177,0,0
140,-153,0,0,0,0,0,0,0,0,0,-1,1364,1177,0,0
147,-153,0,0,0,0,0,0,0,0,0,-1,1371,1177,0,0
154,-153,0,0,0,0,0,0,0,0,0,-1,1378,1177,0,0
161,-153,0,0,0,0,0,0,0,0,0,-1,1385,1177,0,0
168,-153,0,0,0,0,0,0,0,0,0,-1,1392,1177,0,0
175,-153,0,0,0,0,0,0,0,0,0,-1,1399,1177,0,0
182,-153,0,0,0,0,0,0,0,0,0,-1,1406,1177,0,0
189,-153,0,0,0,0,0,0,0,0,0,-1,1413,1177,0,0
196,-153,0,0,0,0,0,0,0,0,0,-1,1420,1177,0,0
203,-153,0,0,0,0,0,0,0,0,0,-1,1427,1177,0,0
210,-153,0,0,0,0,0,0,0,0,0,-1,1434,1177,0,0
217,-153,0,0,0,0,0,0,0,0,0,-1,1441,1177,0,0
224,-153,0,0,0,0,0,0,0,0,0,-1,1448,1177,0,0
231,-153,0,0,0,0,0,0,0,0,0,-1,1455,1177,0,0
238,-153,0,0,0,0,0,0,0,0,0,-1,1462,1177,0,0
245,-153,0,0,0,0,0,0,0,0,0,-1,1469,1177,0,0
252,-153,0,0,0,0,0,0,0,0,0,-1,1476,1177,0,0
259,-153,0,0,0,0,0,0,0,0,0,-1,1483,1177,0,0
266,-153,0,0,0,0,0,0,0,0,0,-1,1490,1177,0,0
273,-153,0,0,0,0,0,0,0,0,0,-1,1497,1177,0,0
280,-153,0,0,0,0,0,0,0,0,0,-1,1504,1177,0,0
287,-153,0,0,0,0,0,0,0,0,0,-1,1511,1177,0,0
294,-153,0,0,0,0,0,0,0,0,0,-1,1518,1177,0,0
301,-153,0,0,0,0,0,0,0,0,0,-1,1525,1177,0,0
308,-153,0,0,0,0,0,0,0,0,0,-1,1532,1177,0,0
315,-153,0,0,0,0,0,0,0,0,0,-1,1539,1177,0,0
322,-153,0,0,0,0,0,0,0,0,0,-1,1546,1177,0,0
329,-153,0,0,0,0,0,0,0,0,0,-1,1553,1177,0,0
336,-153,0,0,0,0,0,0,0,0,0,-1,1560,1177,0,0
343,-153,0,0,0,0,0,0,0,0,0,-1,1567,1177,0,0
350,-153,0,0,0,0,0,0,0,0,0,-1,1574,1177,0,0
357,-153,0,0,0,0,0,0,0,0,0,-1,1581,1177,0,0
364,-153,0,0,0,0,0,0,0,0,0,-1,1588,1177,0,0
371,-153,0,0,0,0,0,0,0,0,0,-1,1595,1177,0,0
378,-153,0,0,0,0,0,0,0,0,0,-1,1602,1177,0,0
385,-153,0,0,0,0,0,0,0,0,0,-1,1609,1177,0,0
392,-153,0,0,0,0,0,0,0,0,0,-1,1616,1177,0,0
399,-153,0,0,0,0,0,0,0,0,0,-1,1623,1177,0,0
406,-153,0,0,0,0,0,0,0,0,0,-1,1630,1177,0,0
413,-153,0,0,0,0,0,0,0,0,0,-1,1637,1177,0,0
420,-153,0,0,0,0,0,0,0,0,0,-1,1644,1177,0,0
427,-153,0,0,0,0,0,0,0,0,0,-1,1651,1177,0,0
434,-153,0,0,0,0,0,0,0,0,0,-1,1658,1177,0,0
441,-153,0,0,0,0,0,0,0,0,0,-1,1665,1177,0,0
448,-153,0,0,0,0,0,0,0,0,0,-1,1672,1177,0,0
455,-153,0,0,0,0,0,0,0,0,0,-1,1679,1177,0,0
462,-153,0,0,0,0,0,0,0,0,0,-1,1686,1177,0,0
469,-153,0,0,0,0,0,0,0,0,0,-1,1693,1177,0,0
476,-153,0,0,0,0,0,0,0,0,0,-1,1700,1177,0,0
483,-153,0,0,0,0,0,0,0,0,0,-1,1707,1177,0,0
490,-153,0,0,0,0,0,0,0,0,0,-1,1714,1177,0,0
497,-153,0,0,0,0,0,0,0,0,0,-1,1721,1177,0,0
504,-153,0,0,0,0,0,0,0,0,0,-1,1728,1177,0,0
511,-153,0,0,0,0,0,0,0,0,0,-1,1735,1177,0,0
518,-153,0,0,0,0,0,0,0,0,0,-1,1742,1177,0,0
525,-153,0,0,0,0,0,0,0,0,0,-1,1749,1177,0,0
532,-153,0,0,0,0,0,0,0,0,0,-1,1756,1177,0,0
539,-153,0,0,0,0,0,0,0,0,0,-1,1763,1177,0,0
546,-153,0,0,0,0,0,0,0,0,0,-1,1770,1177,0,0
553,-153,0,0,0,0,0,0,0,0,0,-1,1777,1177,0,0
560,-153,0,0,0,0,0,0,0,0,0,-1,1784,1177,0,0
567,-153,0,0,0,0,0,0,0,0,0,-1,1791,1177,0,0
574,-153,0,0,0,0,0,0,0,0,0,-1,1798,1177,0,0
581,-153,0,0,0,0,0,0,0,0,0,-1,1805,1177,0,0
588,-153,0,0,0,0,0,0,0,0,0,-1,1812,1177,0,0
595,-153,0,0,0,0,0,0,0,0,0,-1,1819,1177,0,0
602,-153,0,0,0,0,0,0,0,0,0,-1,1826,1177,0,0
609,-153,0,0,0,0,0,0,0,0,0,-1,1833,1177,0,0
616,-153,0,0,0,0,0,0,0,0,0,-1,1840,1177,0,0
623,-153,0,0,0,0,0,0,0,0,0,-1,1847,1177,0,0
630,-153,0,0,0,0,0,0,0,0,0,-1,1854,1177,0,0
637,-153,46.3953,2.92261,-0.00970074,-0.0024013,0.000737581,-0.00232752,-0.00977452,1.47109,0.0058957,0.0370358,1861,1177,46.3953,-2.92261
644,-153,46.4006,2.77966,-0.00702856,-0.00131327,0.000433369,-0.0012806,-0.00706124,1.49554,0.00434401,0.0367308,1868,1177,46.4007,-2.77967
651,-153,46.3197,2.68286,-0.00478551,-0.000359932,7.28763e-05,-0.000358732,-0.00478671,1.55434,0.00307854,0.030359,1875,1177,46.3197,-2.68291
658,-153,46.3456,2.64868,-0.00279877,0.00033085,-0.000334389,0.000366179,-0.0028341,-1.46553,0.00202254,0.0332808,1882,1177,46.3455,-2.64869
665,-153,46.3556,2.8313,-0.00122427,0.000730821,-0.000650273,0.000927349,-0.0014208,-1.2773,0.00136565,0.0386268,1889,1177,46.3556,-2.83136
672,-153,46.3766,2.94666,-0.000576107,0.000678209,-0.000562505,0.000893511,-0.00079141,-1.20524,0.000973385,0.0391031,1896,1177,46.3766,-2.94662
679,-153,46.3214,2.84839,-0.000807482,0.000361306,-0.000167012,0.000384703,-0.000830878,-1.43161,0.000717402,0.0283357,1903,1177,46.3214,-2.84838
686,-153,46.3159,2.79028,-0.00109813,-7.02433e-06,0.000199488,2.83043e-05,-0.00113346,1.39552,0.000765247,0.0183861,1910,1177,46.3159,-2.79027
693,-153,46.3505,2.72876,-0.00121968,-0.000210775,0.000573759,4.87562e-05,-0.00147921,1.146,0.00100279,0.0323894,1917,1177,46.3504,-2.7287
700,-153,46.3729,2.62756,0,0,0,0,0,0,0,-1,1924,1177,46.3729,-2.62755
707,-153,29.6483,6.6842,0,0,0,0,0,0,0,-1,1931,1177,29.6483,-6.68415
714,-153,36.0046,6.78418,0,0,0,0,0,0,0,-1,1938,1177,36.0046,-6.78418
721,-153,36.4866,6.47595,0,0,0,0,0,0,0,-1,1945,1177,36.4866,-6.47593
728,-153,40.5817,6.78174,0,0,0,0,0,0,0,-1,1952,1177,40.5817,-6.78175
735,-153,40.5648,6.56165,-0.00223033,-0.000878355,0.00215351,0.000702775,-0.00381146,0.937478,0.00280474,0.0358005,1959,1177,40.5648,-6.56164
742,-153,40.5841,6.28796,-0.00257855,-0.000448644,0.00220885,0.000938571,-0.00396576,1.01002,0.00300595,0.0161403,1966,1177,40.5841,-6.288
749,-153,40.5742,5.95325,-0.00337137,0.000596809,0.00155327,0.0011325,-0.00390705,1.23869,0.00305304,0.0171268,1973,1177,40.5742,-5.95323
756,-153,40.5586,5.57922,-0.004472,0.0023558,-5.26806e-05,0.0023562,-0.0044724,-1.56308,0.00400511,0.0120754,1980,1177,40.5587,-5.57919
763,-153,40.5251,5.21033,-0.0060796,0.00448697,-0.00239606,0.00500491,-0.00659754,-1.35791,0.00671968,0.0116466,1987,1177,40.5252,-5.21035
770,-153,40.5054,4.85168,-0.00819397,0.00698183,-0.0055083,0.00877037,-0.0099825,-1.25684,0.0108345,0.0119385,1994,1177,40.5053,-4.85169
777,-153,40.4916,4.47595,-0.0109016,0.00995136,-0.00965306,0.0137338,-0.0146841,-1.19735,0.0164101,0.0240598,2001,1177,40.4915,-4.47593
784,-153,40.3792,4.11951,-0.0142013,0.0135545,-0.0152229,0.020276,-0.0209228,-1.155,0.0237871,0.043358,2008,1177,40.3791,-4.11947
791,-153,40.168,3.69702,-0.0179295,0.0181275,-0.0229918,0.0293163,-0.0291183,-1.11789,0.0337373,0.0457502,2015,1177,40.1678,-3.69706
798,-153,39.9021,2.91785,-0.0218248,0.0238619,-0.0334915,0.0415586,-0.0395215,-1.08469,0.0468165,0.0454112,2022,1177,39.9021,-2.91785
805,-153,39.9443,2.07471,-0.0257746,0.031005,-0.0473553,0.0578285,-0.0525981,-1.05543,0.0637786,0.0466945,2029,1177,39.9444,-2.07474
812,-153,0,0,0,0,0,0,0,0,0,-1,2036,1177,0,0
-700,-160,0,0,0,0,0,0,0,0,0,-1,524,1184,0,0
-693,-160,0,0,0,0,0,0,0,0,0,-1,531,1184,0,0
-686,-160,-33.6223,-2.25305,0.230478,0.135867,0.0807027,0.276718,0.0896272,0.520305,0.163033,0.049441,538,1184,-33.6223,2.253
-679,-160,-32.3279,-1.18469,0.186223,0.10641,0.0666429,0.223994,0.0686387,0.515625,0.132514,0.0480103,545,1184,-32.3279,1.18466
-672,-160,-31.0329,-0.25,0.146575,0.0819581,0.0533656,0.17665,0.0518829,0.513202,0.104843,0.044605,552,1184,-31.0329,0.249981
-665,-160,-27.5374,-0.459351,0.11229,0.061836,0.0414903,0.135621,0.0385054,0.512249,0.0807013,0.0467301,559,1184,-27.5374,0.459352
-658,-160,-27.3426,0.418335,0.0835504,0.0455323,0.0312291,0.101101,0.0279818,0.512003,0.0602786,0.0495544,566,1184,-27.3426,-0.418369
-651,-160,-27.3099,1.22461,0,0,0,0,0,0,0,-1,573,1184,-27.3099,-1.22461
-644,-160,-27.483,1.6001,0.0408178,0.0222321,0.0155052,0.0496017,0.0134483,0.515432,0.0296208,0.0369987,580,1184,-27.483,-1.60015
-637,-160,-27.5074,2.04883,0.0256107,0.0142545,0.00969723,0.0311699,0.00869529,0.52054,0.0185728,0.0146043,587,1184,-27.5074,-2.04877
-630,-160,-27.5801,2.44861,0.0135817,0.00764433,0.00497558,0.0164069,0.00481909,0.516422,0.00973753,0.00956573,594,1184,-27.5802,-2.44858
-623,-160,-27.6277,2.84619,0.00449911,0.00338975,0.00150405,0.0055475,0.00234136,0.60874,0.0032158,0.0128697,601,1184,-27.6277,-2.84616
-616,-160,-27.6437,3.27051,8.34324e-05,0.00142215,-0.000633982,0.00167473,-0.00016915,-1.19167,0.00117693,0.0109604,608,1184,-27.6437,-3.2705
-609,-160,-27.6353,3.73987,-0.000693902,0.000866366,-0.00114211,0.00146935,-0.00129689,-1.08503,0.00159812,0.0135347,615,1184,-27.6352,-3.73982
-602,-160,-27.5262,4.35986,-0.000551137,0.000701379,-0.00154782,0.00174484,-0.0015946,-0.977633,0.00192867,0.0435944,622,1184,-27.5262,-4.3599
-595,-160,-27.6077,5.17737,0,0,0,0,0,0,0,-1,629,1184,-27.6077,-5.17739
-588,-160,-27.621,5.15698,0,0,0,0,0,0,0,-1,636,1184,-27.621,-5.15704
-581,-160,-25.2925,4.6272,0,0,0,0,0,0,0,-1,643,1184,-25.2925,-4.62719
-574,-160,-28.1793,4.33484,0,0,0,0,0,0,0,-1,650,1184,-28.1792,-4.33488
-567,-160,-29.5828,0.643921,0,0,0,0,0,0,0,-1,657,1184,-29.5828,-0.643968
-560,-160,-34.0553,1.18787,0,0,0,0,0,0,0,-1,664,1184,-34.0553,-1.18786
-553,-160,-34.024,0.92334,-0.000400391,-0.000543726,-0.00231319,0.00184224,-0.00278636,-0.769912,0.00269079,0.0368404,671,1184,-34.0241,-0.923361
-546,-160,-33.9234,0.746216,-1.82853e-05,-0.00108004,-0.00237793,0.00188731,-0.00298564,-0.675573,0.00283712,0.0394622,678,1184,-33.9234,-0.74622
-539,-160,-33.9875,0.963501,0.000857263,-0.00166231,-0.00227753,0.00220021,-0.00300525,-0.532774,0.00301733,0.0448913,685,1184,-33.9876,-0.963511
-532,-160,-33.8648,0.880493,0.00221841,-0.00293227,-0.00257843,0.00328734,-0.0040012,-0.392999,0.00421476,0.0473774,692,1184,-33.8648,-0.880439
-525,-160,-33.7884,0.810059,0.00466243,-0.00456588,-0.003815,0.00603531,-0.00593876,-0.345437,0.00691331,0.045875,699,1184,-33.7884,-0.810098
-518,-160,-33.914,0.829346,0.00700631,-0.00635743,-0.00498276,0.00865963,-0.00801075,-0.320376,0.00962707,0.0445945,706,1184,-33.914,-0.829388
-511,-160,0,0,0,0,0,0,0,0,0,-1,713,1184,0,0
-504,-160,0,0,0,0,0,0,0,0,0,-1,720,1184,0,0
-497,-160,0,0,0,0,0,0,0,0,0,-1,727,1184,0,0
-490,-160,0,0,0,0,0,0,0,0,0,-1,734,1184,0,0
-483,-160,0,0,0,0,0,0,0,0,0,-1,741,1184,0,0
-476,-160,0,0,0,0,0,0,0,0,0,-1,748,1184,0,0
-469,-160,0,0,0,0,0,0,0,0,0,-1,755,1184,0,0
-462,-160,0,0,0,0,0,0,0,0,0,-1,762,1184,0,0
-455,-160,0,0,0,0,0,0,0,0,0,-1,769,1184,0,0
-448,-160,0,0,0,0,0,0,0,0,0,-1,776,1184,0,0
-441,-160,0,0,0,0,0,0,0,0,0,-1,783,1184,0,0
-434,-160,0,0,0,0,0,0,0,0,0,-1,790,1184,0,0
-427,-160,0,0,0,0,0,0,0,0,0,-1,797,1184,0,0
-420,-160,0,0,0,0,0,0,0,0,0,-1,804,1184,0,0
-413,-160,0,0,0,0,0,0,0,0,0,-1,811,1184,0,0
-406,-160,0,0,0,0,0,0,0,0,0,-1,818,1184,0,0
-399,-160,0,0,0,0,0,0,0,0,0,-1,825,1184,0,0
-392,-160,0,0,0,0,0,0,0,0,0,-1,832,1184,0,0
-385,-160,0,0,0,0,0,0,0,0,0,-1,839,1184,0,0
-378,-160,0,0,0,0,0,0,0,0,0,-1,846,1184,0,0
-371,-160,0,0,0,0,0,0,0,0,0,-1,853,1184,0,0
-364,-160,0,0,0,0,0,0,0,0,0,-1,860,1184,0,0
-357,-160,0,0,0,0,0,0,0,0,0,-1,867,1184,0,0
-350,-160,0,0,0,0,0,0,0,0,0,-1,874,1184,0,0
-343,-160,0,0,0,0,0,0,0,0,0,-1,881,1184,0,0
-336,-160,0,0,0,0,0,0,0,0,0,-1,888,1184,0,0
-329,-160,0,0,0,0,0,0,0,0,0,-1,895,1184,0,0
-322,-160,0,0,0,0,0,0,0,0,0,-1,902,1184,0,0
-315,-160,0,0,0,0,0,0,0,0,0,-1,909,1184,0,0
-308,-160,0,0,0,0,0,0,0,0,0,-1,916,1184,0,0
-301,-160,0,0,0,0,0,0,0,0,0,-1,923,1184,0,0
-294,-160,0,0,0,0,0,0,0,0,0,-1,930,1184,0,0
-287,-160,0,0,0,0,0,0,0,0,0,-1,937,1184,0,0
-280,-160,0,0,0,0,0,0,0,0,0,-1,944,1184,0,0
-273,-160,0,0,0,0,0,0,0,0,0,-1,951,1184,0,0
-266,-160,0,0,0,0,0,0,0,0,0,-1,958,1184,0,0
-259,-160,0,0,0,0,0,0,0,0,0,-1,965,1184,0,0
-252,-160,0,0,0,0,0,0,0,0,0,-1,972,1184,0,0
-245,-160,0,0,0,0,0,0,0,0,0,-1,979,1184,0,0
-238,-160,0,0,0,0,0,0,0,0,0,-1,986,1184,0,0
-231,-160,0,0,0,0,0,0,0,0,0,-1,993,1184,0,0
-224,-160,0,0,0,0,0,0,0,0,0,-1,1000,1184,0,0
-217,-160,0,0,0,0,0,0,0,0,0,-1,1007,1184,0,0
-210,-160,0,0,0,0,0,0,0,0,0,-1,1014,1184,0,0
-203,-160,0,0,0,0,0,0,0,0,0,-1,1021,1184,0,0
-196,-160,0,0,0,0,0,0,0,0,0,-1,1028,1184,0,0
-189,-160,0,0,0,0,0,0,0,0,0,-1,1035,1184,0,0
-182,-160,0,0,0,0,0,0,0,0,0,-1,1042,1184,0,0
-175,-160,0,0,0,0,0,0,0,0,0,-1,1049,1184,0,0
-168,-160,0,0,0,0,0,0,0,0,0,-1,1056,1184,0,0
-161,-160,0,0,0,0,0,0,0,0,0,-1,1063,1184,0,0
-154,-160,0,0,0,0,0,0,0,0,0,-1,1070,1184,0,0
-147,-160,0,0,0,0,0,0,0,0,0,-1,1077,1184,0,0
-140,-160,0,0,0,0,0,0,0,0,0,-1,1084,1184,0,0
-133,-160,0,0,0,0,0,0,0,0,0,-1,1091,1184,0,0
-126,-160,0,0,0,0,0,0,0,0,0,-1,1098,1184,0,0
-119,-160,0,0,0,0,0,0,0,0,0,-1,1105,1184,0,0
-112,-160,0,0,0,0,0,0,0,0,0,-1,1112,1184,0,0
-105,-160,0,0,0,0,0,0,0,0,0,-1,1119,1184,0,0
-98,-160,0,0,0,0,0,0,0,0,0,-1,1126,1184,0,0
-91,-160,0,0,0,0,0,0,0,0,0,-1,1133,1184,0,0
-84,-160,0,0,0,0,0,0,0,0,0,-1,1140,1184,0,0
-77,-160,0,0,0,0,0,0,0,0,0,-1,1147,1184,0,0
-70,-160,0,0,0,0,0,0,0,0,0,-1,1154,1184,0,0
-63,-160,0,0,0,0,0,0,0,0,0,-1,1161,1184,0,0
-56,-160,0,0,0,0,0,0,0,0,0,-1,1168,1184,0,0
-49,-160,0,0,0,0,0,0,0,0,0,-1,1175,1184,0,0
-42,-160,0,0,0,0,0,0,0,0,0,-1,1182,1184,0,0
-35,-160,0,0,0,0,0,0,0,0,0,-1,1189,1184,0,0
-28,-160,0,0,0,0,0,0,0,0,0,-1,1196,1184,0,0
-21,-160,0,0,0,0,0,0,0,0,0,-1,1203,1184,0,0
-14,-160,0,0,0,0,0,0,0,0,0,-1,1210,1184,0,0
-7,-160,0,0,0,0,0,0,0,0,0,-1,1217,1184,0,0
0,-160,0,0,0,0,0,0,0,0,0,-1,1224,1184,0,0
7,-160,0,0,0,0,0,0,0,0,0,-1,1231,1184,0,0
14,-160,0,0,0,0,0,0,0,0,0,-1,1238,1184,0,0
21,-160,0,0,0,0,0,0,0,0,0,-1,1245,1184,0,0
28,-160,0,0,0,0,0,0,0,0,0,-1,1252,1184,0,0
35,-160,0,0,0,0,0,0,0,0,0,-1,1259,1184,0,0
42,-160,0,0,0,0,0,0,0,0,0,-1,1266,1184,0,0
49,-160,0,0,0,0,0,0,0,0,0,-1,1273,1184,0,0
56,-160,0,0,0,0,0,0,0,0,0,-1,1280,1184,0,0
63,-160,0,0,0,0,0,0,0,0,0,-1,1287,1184,0,0
70,-160,0,0,0,0,0,0,0,0,0,-1,1294,1184,0,0
77,-160,0,0,0,0,0,0,0,0,0,-1,1301,1184,0,0
84,-160,0,0,0,0,0,0,0,0,0,-1,1308,1184,0,0
91,-160,0,0,0,0,0,0,0,0,0,-1,1315,1184,0,0
98,-160,0,0,0,0,0,0,0,0,0,-1,1322,1184,0,0
105,-160,0,0,0,0,0,0,0,0,0,-1,1329,1184,0,0
112,-160,0,0,0,0,0,0,0,0,0,-1,1336,1184,0,0
119,-160,0,0,0,0,0,0,0,0,0,-1,1343,1184,0,0
126,-160,0,0,0,0,0,0,0,0,0,-1,1350,1184,0,0
133,-160,0,0,0,0,0,0,0,0,0,-1,1357,1184,0,0
140,-160,0,0,0,0,0,0,0,0,0,-1,1364,1184,0,0
147,-160,0,0,0,0,0,0,0,0,0,-1,1371,1184,0,0
154,-160,0,0,0,0,0,0,0,0,0,-1,1378,1184,0,0
161,-160,0,0,0,0,0,0,0,0,0,-1,1385,1184,0,0
168,-160,0,0,0,0,0,0,0,0,0,-1,1392,1184,0,0
175,-160,0,0,0,0,0,0,0,0,0,-1,1399,1184,0,0
182,-160,0,0,0,0,0,0,0,0,0,-1,1406,1184,0,0
189,-160,0,0,0,0,0,0,0,0,0,-1,1413,1184,0,0
196,-160,0,0,0,0,0,0,0,0,0,-1,1420,1184,0,0
203,-160,0,0,0,0,0,0,0,0,0,-1,1427,1184,0,0
210,-160,0,0,0,0,0,0,0,0,0,-1,1434,1184,0,0
217,-160,0,0,0,0,0,0,0,0,0,-1,1441,1184,0,0
224,-160,0,0,0,0,0,0,0,0,0,-1,1448,1184,0,0
231,-160,0,0,0,0,0,0,0,0,0,-1,1455,1184,0,0
238,-160,0,0,0,0,0,0,0,0,0,-1,1462,1184,0,0
245,-160,0,0,0,0,0,0,0,0,0,-1,1469,1184,0,0
252,-160,0,0,0,0,0,0,0,0,0,-1,1476,1184,0,0
259,-160,0,0,0,0,0,0,0,0,0,-1,1483,1184,0,0
266,-160,0,0,0,0,0,0,0,0,0,-1,1490,1184,0,0
273,-160,0,0,0,0,0,0,0,0,0,-1,1497,1184,0,0
280,-160,0,0,0,0,0,0,0,0,0,-1,1504,1184,0,0
287,-160,0,0,0,0,0,0,0,0,0,-1,1511,1184,0,0
294,-160,0,0,0,0,0,0,0,0,0,-1,1518,1184,0,0
301,-160,0,0,0,0,0,0,0,0,0,-1,1525,1184,0,0
308,-160,0,0,0,0,0,0,0,0,0,-1,1532,1184,0,0
315,-160,0,0,0,0,0,0,0,0,0,-1,1539,1184,0,0
322,-160,0,0,0,0,0,0,0,0,0,-1,1546,1184,0,0
329,-160,0,0,0,0,0,0,0,0,0,-1,1553,1184,0,0
336,-160,0,0,0,0,0,0,0,0,0,-1,1560,1184,0,0
343,-160,0,0,0,0,0,0,0,0,0,-1,1567,1184,0,0
350,-160,0,0,0,0,0,0,0,0,0,-1,1574,1184,0,0
357,-160,0,0,0,0,0,0,0,0,0,-1,1581,1184,0,0
364,-160,0,0,0,0,0,0,0,0,0,-1,1588,1184,0,0
371,-160,0,0,0,0,0,0,0,0,0,-1,1595,1184,0,0
378,-160,0,0,0,0,0,0,0,0,0,-1,1602,1184,0,0
385,-160,0,0,0,0,0,0,0,0,0,-1,1609,1184,0,0
392,-160,0,0,0,0,0,0,0,0,0,-1,1616,1184,0,0
399,-160,0,0,0,0,0,0,0,0,0,-1,1623,1184,0,0
406,-160,0,0,0,0,0,0,0,0,0,-1,1630,1184,0,0
413,-160,0,0,0,0,0,0,0,0,0,-1,1637,1184,0,0
420,-160,0,0,0,0,0,0,0,0,0,-1,1644,1184,0,0
427,-160,0,0,0,0,0,0,0,0,0,-1,1651,1184,0,0
434,-160,0,0,0,0,0,0,0,0,0,-1,1658,1184,0,0
441,-160,0,0,0,0,0,0,0,0,0,-1,1665,1184,0,0
448,-160,0,0,0,0,0,0,0,0,0,-1,1672,1184,0,0
455,-160,0,0,0,0,0,0,0,0,0,-1,1679,1184,0,0
462,-160,0,0,0,0,0,0,0,0,0,-1,1686,1184,0,0
469,-160,0,0,0,0,0,0,0,0,0,-1,1693,1184,0,0
476,-160,0,0,0,0,0,0,0,0,0,-1,1700,1184,0,0
483,-160,0,0,0,0,0,0,0,0,0,-1,1707,1184,0,0
490,-160,0,0,0,0,0,0,0,0,0,-1,1714,1184,0,0
497,-160,0,0,0,0,0,0,0,0,0,-1,1721,1184,0,0
504,-160,0,0,0,0,0,0,0,0,0,-1,1728,1184,0,0
511,-160,0,0,0,0,0,0,0,0,0,-1,1735,1184,0,0
518,-160,0,0,0,0,0,0,0,0,0,-1,1742,1184,0,0
525,-160,0,0,0,0,0,0,0,0,0,-1,1749,1184,0,0
532,-160,0,0,0,0,0,0,0,0,0,-1,1756,1184,0,0
539,-160,0,0,0,0,0,0,0,0,0,-1,1763,1184,0,0
546,-160,0,0,0,0,0,0,0,0,0,-1,1770,1184,0,0
553,-160,0,0,0,0,0,0,0,0,0,-1,1777,1184,0,0
560,-160,0,0,0,0,0,0,0,0,0,-1,1784,1184,0,0
567,-160,0,0,0,0,0,0,0,0,0,-1,1791,1184,0,0
574,-160,0,0,0,0,0,0,0,0,0,-1,1798,1184,0,0
581,-160,0,0,0,0,0,0,0,0,0,-1,1805,1184,0,0
588,-160,0,0,0,0,0,0,0,0,0,-1,1812,1184,0,0
595,-160,0,0,0,0,0,0,0,0,0,-1,1819,1184,0,0
602,-160,0,0,0,0,0,0,0,0,0,-1,1826,1184,0,0
609,-160,0,0,0,0,0,0,0,0,0,-1,1833,1184,0,0
616,-160,0,0,0,0,0,0,0,0,0,-1,1840,1184,0,0
623,-160,0,0,0,0,0,0,0,0,0,-1,1847,1184,0,0
630,-160,0,0,0,0,0,0,0,0,0,-1,1854,1184,0,0
637,-160,46.4305,2.94714,-0.00913868,-0.00203085,0.000493105,-0.00199681,-0.00917273,1.50186,0.00557016,0.0422602,1861,1184,46.4305,-2.9471
644,-160,46.2178,2.81238,-0.00651209,-0.00103232,0.000176947,-0.00102662,-0.0065178,1.53855,0.00404664,0.0431397,1868,1184,46.2178,-2.81241
651,-160,46.1166,2.74792,-0.00427112,-9.38367e-05,-0.000170646,-8.68773e-05,-0.00427808,-1.53004,0.00282354,0.0371542,1875,1184,46.1165,-2.74787
658,-160,46.213,2.60144,-0.00227743,0.000595357,-0.000579147,0.000707717,-0.00238979,-1.37917,0.00187418,0.0370881,1882,1184,46.2131,-2.60143
665,-160,46.2983,2.67688,-0.000798679,0.000876466,-0.000839636,0.00122486,-0.00114707,-1.17748,0.00136968,0.0395187,1889,1184,46.2983,-2.6769
672,-160,46.3062,2.92004,-0.00034152,0.000645728,-0.00063593,0.000957133,-0.000652925,-1.11544,0.000935081,0.0359271,1896,1184,46.3061,-2.92007
679,-160,46.3152,2.8313,-0.000742286,0.000221729,-0.000188155,0.000257151,-0.000777709,-1.38471,0.000622163,0.0260267,1903,1184,46.3152,-2.83133
686,-160,46.3401,2.77332,-0.00109792,-0.000194877,0.000170338,-0.000163816,-0.00112898,1.39042,0.000704425,0.01737,1910,1184,46.3401,-2.77327
693,-160,46.3627,2.72253,0,0,0,0,0,0,0,-1,1917,1184,46.3627,-2.72258
700,-160,42.8784,2.44617,0,0,0,0,0,0,0,-1,1924,1184,42.8785,-2.4462
707,-160,24.5115,6.27405,0,0,0,0,0,0,0,-1,1931,1184,24.5115,-6.27401
714,-160,35.6892,6.8905,0,0,0,0,0,0,0,-1,1938,1184,35.6892,-6.89048
721,-160,36.2388,6.37878,0,0,0,0,0,0,0,-1,1945,1184,36.2388,-6.37876
728,-160,40.1702,7.09375,0,0,0,0,0,0,0,-1,1952,1184,40.1702,-7.09378
735,-160,40.2798,6.61914,-0.00234895,-0.00117069,0.00217075,0.000489457,-0.00400909,0.917904,0.00284992,0.0275142,1959,1184,40.2798,-6.61911
742,-160,40.2186,6.25403,-0.00259324,-0.000652924,0.00214825,0.000734073,-0.00398024,0.997492,0.00292901,0.0183653,1966,1184,40.2187,-6.25406
749,-160,40.2056,5.89136,-0.00314613,0.000512551,0.00126484,0.000907241,-0.00354082,1.26832,0.00271399,0.0189601,1973,1184,40.2055,-5.89141
756,-160,40.1744,5.56897,-0.00386365,0.00228535,-0.000631607,0.00234955,-0.00392786,-1.46949,0.00366225,0.0116834,1980,1184,40.1744,-5.56894
763,-160,40.1188,5.2345,-0.00501694,0.00436405,-0.00328979,0.00540273,-0.00605562,-1.26497,0.00661906,0.0126067,1987,1184,40.1187,-5.23448
770,-160,40.0397,4.82227,-0.00664606,0.00677645,-0.00682727,0.00963873,-0.00950834,-1.17381,0.0110546,0.0228009,1994,1184,40.0397,-4.82222
777,-160,40.119,4.50122,-0.0088515,0.00963737,-0.0115672,0.0152003,-0.0144145,-1.12252,0.0171001,0.0341354,2001,1184,40.119,-4.50117
784,-160,40.2817,4.09473,-0.0116014,0.0130783,-0.0178847,0.0224672,-0.0209902,-1.08738,0.025095,0.0422025,2008,1184,40.2818,-4.09475
791,-160,40.4189,3.8501,-0.0146351,0.0174567,-0.0267312,0.0325881,-0.0297666,-1.05571,0.0360128,0.0440266,2015,1184,40.419,-3.85009
798,-160,39.9346,2.82825,-0.0176426,0.0229076,-0.0385884,0.0462232,-0.0409581,-1.02729,0.0503647,0.0431919,2022,1184,39.9346,-2.82824
805,-160,39.9624,1.91846,-0.0205236,0.029626,-0.0540848,0.0641659,-0.0550635,-1.00246,0.068904,0.0481957,2029,1184,39.9623,-1.91846
812,-160,0,0,0,0,0,0,0,0,0,-1,2036,1184,0,0
-700,-167,0,0,0,0,0,0,0,0,0,-1,524,1191,0,0
-693,-167,0,0,0,0,0,0,0,0,0,-1,531,1191,0,0
-686,-167,-33.2646,-3.38721,0,0,0,0,0,0,0,-1,538,1191,-33.2646,3.38722
-679,-167,-31.5809,-1.98596,0,0,0,0,0,0,0,-1,545,1191,-31.5809,1.98596
-672,-167,-30.4631,-1.1405,0.16345,0.0846944,0.0614546,0.197061,0.051084,0.50047,0.118088,0.0478544,552,1191,-30.4631,1.14044
-665,-167,-29.3387,-0.325073,0.124771,0.0631246,0.0474485,0.150529,0.0373665,0.497348,0.0905058,0.0478039,559,1191,-29.3388,0.325053
-658,-167,-27.5778,-0.0461426,0,0,0,0,0,0,0,-1,566,1191,-27.5777,0.0461465
-651,-167,-27.0188,1.09363,0,0,0,0,0,0,0,-1,573,1191,-27.0188,-1.09366
-644,-167,-27.0126,1.57043,0.0449758,0.0218094,0.0175466,0.0544177,0.0123675,0.493663,0.0329392,0.0421216,580,1191,-27.0126,-1.57038
-637,-167,-27.0551,2.04297,0.0284056,0.0138919,0.0110801,0.0343938,0.00790371,0.495477,0.0208013,0.0186565,587,1191,-27.0551,-2.04294
-630,-167,-27.1423,2.44666,0.0152356,0.00735575,0.00573562,0.0182542,0.00433721,0.48445,0.0110122,0.00984403,594,1191,-27.1423,-2.4466
-623,-167,-27.1834,2.83081,0.00533631,0.00333948,0.00194664,0.00652564,0.00215015,0.548445,0.00383991,0.0125701,601,1191,-27.1834,-2.83083
-616,-167,-27.2045,3.26636,0.000375882,0.00140262,-0.000588904,0.00167051,0.000107999,-1.14389,0.00107947,0.0158696,608,1191,-27.2044,-3.26635
-609,-167,-27.2089,3.74182,-0.000680739,0.000876026,-0.00134372,0.00165053,-0.00145524,-1.04792,0.0017943,0.0142955,615,1191,-27.2089,-3.74188
-602,-167,-27.2383,4.16492,-0.000635463,0.000635299,-0.00176622,0.00187695,-0.00187712,-0.958061,0.00216741,0.015684,622,1191,-27.2383,-4.16487
-595,-167,-27.1058,4.5249,0,0,0,0,0,0,0,-1,629,1191,-27.1059,-4.52495
-588,-167,-27.3508,4.85693,0,0,0,0,0,0,0,-1,636,1191,-27.3509,-4.8569
-581,-167,-27.444,5.23157,0,0,0,0,0,0,0,-1,643,1191,-27.444,-5.23161
-574,-167,-24.1547,5.43677,0,0,0,0,0,0,0,-1,650,1191,-24.1547,-5.43682
-567,-167,-27.3643,2.55859,0,0,0,0,0,0,0,-1,657,1191,-27.3643,-2.55864
-560,-167,-33.9147,1.00232,0,0,0,0,0,0,0,-1,664,1191,-33.9147,-1.00229
-553,-167,-33.9744,0.936279,-0.000914542,-0.00059998,-0.00194687,0.00119595,-0.00271047,-0.825704,0.00231118,0.0402982,671,1191,-33.9744,-0.936319
-546,-167,-34.0799,1.00317,-0.000716096,-0.00107391,-0.00183726,0.000950946,-0.00274095,-0.736863,0.00221346,0.0353005,678,1191,-34.0799,-1.00322
-539,-167,-33.9966,0.974609,-0.000163363,-0.0014501,-0.00150282,0.000828011,-0.00244147,-0.583148,0.00196276,0.0384289,685,1191,-33.9966,-0.974661
-532,-167,-33.8384,0.947144,0.000807981,-0.0024484,-0.00161525,0.00147327,-0.00311369,-0.390705,0.00270414,0.042298,692,1191,-33.8384,-0.947169
-525,-167,-33.8721,1.05884,0.0031903,-0.0039837,-0.00289676,0.00421392,-0.00500732,-0.339671,0.00533045,0.0464395,699,1191,-33.8721,-1.05887
-518,-167,-34.0113,1.11414,0.00563014,-0.00562902,-0.00432875,0.00710199,-0.00710087,-0.327753,0.00820002,0.0465881,706,1191,-34.0113,-1.11413
-511,-167,0,0,0,0,0,0,0,0,0,-1,713,1191,0,0
-504,-167,0,0,0,0,0,0,0,0,0,-1,720,1191,0,0
-497,-167,0,0,0,0,0,0,0,0,0,-1,727,1191,0,0
-490,-167,0,0,0,0,0,0,0,0,0,-1,734,1191,0,0
-483,-167,0,0,0,0,0,0,0,0,0,-1,741,1191,0,0
-476,-167,0,0,0,0,0,0,0,0,0,-1,748,1191,0,0
-469,-167,0,0,0,0,0,0,0,0,0,-1,755,1191,0,0
-462,-167,0,0,0,0,0,0,0,0,0,-1,762,1191,0,0
-455,-167,0,0,0,0,0,0,0,0,0,-1,769,1191,0,0
-448,-167,0,0,0,0,0,0,0,0,0,-1,776,1191,0,0
-441,-167,0,0,0,0,0,0,0,0,0,-1,783,1191,0,0
-434,-167,0,0,0,0,0,0,0,0,0,-1,790,1191,0,0
-427,-167,0,0,0,0,0,0,0,0,0,-1,797,1191,0,0
-420,-167,0,0,0,0,0,0,0,0,0,-1,804,1191,0,0
-413,-167,0,0,0,0,0,0,0,0,0,-1,811,1191,0,0
-406,-167,0,0,0,0,0,0,0,0,0,-1,818,1191,0,0
-399,-167,0,0,0,0,0,0,0,0,0,-1,825,1191,0,0
-392,-167,0,0,0,0,0,0,0,0,0,-1,832,1191,0,0
-385,-167,0,0,0,0,0,0,0,0,0,-1,839,1191,0,0
-378,-167,0,0,0,0,0,0,0,0,0,-1,846,1191,0,0
-371,-167,0,0,0,0,0,0,0,0,0,-1,853,1191,0,0
-364,-167,0,0,0,0,0,0,0,0,0,-1,860,1191,0,0
-357,-167,0,0,0,0,0,0,0,0,0,-1,867,1191,0,0
-350,-167,0,0,0,0,0,0,0,0,0,-1,874,1191,0,0
-343,-167,0,0,0,0,0,0,0,0,0,-1,881,1191,0,0
-336,-167,0,0,0,0,0,0,0,0,0,-1,888,1191,0,0
-329,-167,0,0,0,0,0,0,0,0,0,-1,895,1191,0,0
-322,-167,0,0,0,0,0,0,0,0,0,-1,902,1191,0,0
-315,-167,0,0,0,0,0,0,0,0,0,-1,909,1191,0,0
-308,-167,0,0,0,0,0,0,0,0,0,-1,916,1191,0,0
-301,-167,0,0,0,0,0,0,0,0,0,-1,923,1191,0,0
-294,-167,0,0,0,0,0,0,0,0,0,-1,930,1191,0,0
-287,-167,0,0,0,0,0,0,0,0,0,-1,937,1191,0,0
-280,-167,0,0,0,0,0,0,0,0,0,-1,944,1191,0,0
-273,-167,0,0,0,0,0,0,0,0,0,-1,951,1191,0,0
-266,-167,0,0,0,0,0,0,0,0,0,-1,958,1191,0,0
-259,-167,0,0,0,0,0,0,0,0,0,-1,965,1191,0,0
-252,-167,0,0,0,0,0,0,0,0,0,-1,972,1191,0,0
-245,-167,0,0,0,0,0,0,0,0,0,-1,979,1191,0,0
-238,-167,0,0,0,0,0,0,0,0,0,-1,986,1191,0,0
-231,-167,0,0,0,0,0,0,0,0,0,-1,993,1191,0,0
-224,-167,0,0,0,0,0,0,0,0,0,-1,1000,1191,0,0
-217,-167,0,0,0,0,0,0,0,0,0,-1,1007,1191,0,0
-210,-167,0,0,0,0,0,0,0,0,0,-1,1014,1191,0,0
-203,-167,0,0,0,0,0,0,0,0,0,-1,1021,1191,0,0
-196,-167,0,0,0,0,0,0,0,0,0,-1,1028,1191,0,0
-189,-167,0,0,0,0,0,0,0,0,0,-1,1035,1191,0,0
-182,-167,0,0,0,0,0,0,0,0,0,-1,1042,1191,0,0
-175,-167,0,0,0,0,0,0,0,0,0,-1,1049,1191,0,0
-168,-167,0,0,0,0,0,0,0,0,0,-1,1056,1191,0,0
-161,-167,0,0,0,0,0,0,0,0,0,-1,1063,1191,0,0
-154,-167,0,0,0,0,0,0,0,0,0,-1,1070,1191,0,0
-147,-167,0,0,0,0,0,0,0,0,0,-1,1077,1191,0,0
-140,-167,0,0,0,0,0,0,0,0,0,-1,1084,1191,0,0
-133,-167,0,0,0,0,0,0,0,0,0,-1,1091,1191,0,0
-126,-167,0,0,0,0,0,0,0,0,0,-1,1098,1191,0,0
-119,-167,0,0,0,0,0,0,0,0,0,-1,1105,1191,0,0
-112,-167,0,0,0,0,0,0,0,0,0,-1,1112,1191,0,0
-105,-167,0,0,0,0,0,0,0,0,0,-1,1119,1191,0,0
-98,-167,0,0,0,0,0,0,0,0,0,-1,1126,1191,0,0
-91,-167,0,0,0,0,0,0,0,0,0,-1,1133,1191,0,0
-84,-167,0,0,0,0,0,0,0,0,0,-1,1140,1191,0,0
-77,-167,0,0,0,0,0,0,0,0,0,-1,1147,1191,0,0
-70,-167,0,0,0,0,0,0,0,0,0,-1,1154,1191,0,0
-63,-167,0,0,0,0,0,0,0,0,0,-1,1161,1191,0,0
-56,-167,0,0,0,0,0,0,0,0,0,-1,1168,1191,0,0
-49,-167,0,0,0,0,0,0,0,0,0,-1,1175,1191,0,0
-42,-167,0,0,0,0,0,0,0,0,0,-1,1182,1191,0,0
-35,-167,0,0,0,0,0,0,0,0,0,-1,1189,1191,0,0
-28,-167,0,0,0,0,0,0,0,0,0,-1,1196,1191,0,0
-21,-167,0,0,0,0,0,0,0,0,0,-1,1203,1191,0,0
-14,-167,0,0,0,0,0,0,0,0,0,-1,1210,1191,0,0
-7,-167,0,0,0,0,0,0,0,0,0,-1,1217,1191,0,0
0,-167,0,0,0,0,0,0,0,0,0,-1,1224,1191,0,0
7,-167,0,0,0,0,0,0,0,0,0,-1,1231,1191,0,0
14,-167,0,0,0,0,0,0,0,0,0,-1,1238,1191,0,0
21,-167,0,0,0,0,0,0,0,0,0,-1,1245,1191,0,0
28,-167,0,0,0,0,0,0,0,0,0,-1,1252,1191,0,0
35,-167,0,0,0,0,0,0,0,0,0,-1,1259,1191,0,0
42,-167,0,0,0,0,0,0,0,0,0,-1,1266,1191,0,0
49,-167,0,0,0,0,0,0,0,0,0,-1,1273,1191,0,0
56,-167,0,0,0,0,0,0,0,0,0,-1,1280,1191,0,0
63,-167,0,0,0,0,0,0,0,0,0,-1,1287,1191,0,0
70,-167,0,0,0,0,0,0,0,0,0,-1,1294,1191,0,0
77,-167,0,0,0,0,0,0,0,0,0,-1,1301,1191,0,0
84,-167,0,0,0,0,0,0,0,0,0,-1,1308,1191,0,0
91,-167,0,0,0,0,0,0,0,0,0,-1,1315,1191,0,0
98,-167,0,0,0,0,0,0,0,0,0,-1,1322,1191,0,0
105,-167,0,0,0,0,0,0,0,0,0,-1,1329,1191,0,0
112,-167,0,0,0,0,0,0,0,0,0,-1,1336,1191,0,0
119,-167,0,0,0,0,0,0,0,0,0,-1,1343,1191,0,0
126,-167,0,0,0,0,0,0,0,0,0,-1,1350,1191,0,0
133,-167,0,0,0,0,0,0,0,0,0,-1,1357,1191,0,0
140,-167,0,0,0,0,0,0,0,0,0,-1,1364,1191,0,0
147,-167,0,0,0,0,0,0,0,0,0,-1,1371,1191,0,0
154,-167,0,0,0,0,0,0,0,0,0,-1,1378,1191,0,0
161,-167,0,0,0,0,0,0,0,0,0,-1,1385,1191,0,0
168,-167,0,0,0,0,0,0,0,0,0,-1,1392,1191,0,0
175,-167,0,0,0,0,0,0,0,0,0,-1,1399,1191,0,0
182,-167,0,0,0,0,0,0,0,0,0,-1,1406,1191,0,0
189,-167,0,0,0,0,0,0,0,0,0,-1,1413,1191,0,0
196,-167,0,0,0,0,0,0,0,0,0,-1,1420,1191,0,0
203,-167,0,0,0,0,0,0,0,0,0,-1,1427,1191,0,0
210,-167,0,0,0,0,0,0,0,0,0,-1,1434,1191,0,0
217,-167,0,0,0,0,0,0,0,0,0,-1,1441,1191,0,0
224,-167,0,0,0,0,0,0,0,0,0,-1,1448,1191,0,0
231,-167,0,0,0,0,0,0,0,0,0,-1,1455,1191,0,0
238,-167,0,0,0,0,0,0,0,0,0,-1,1462,1191,0,0
245,-167,0,0,0,0,0,0,0,0,0,-1,1469,1191,0,0
252,-167,0,0,0,0,0,0,0,0,0,-1,1476,1191,0,0
259,-167,0,0,0,0,0,0,0,0,0,-1,1483,1191,0,0
266,-167,0,0,0,0,0,0,0,0,0,-1,1490,1191,0,0
273,-167,0,0,0,0,0,0,0,0,0,-1,1497,1191,0,0
280,-167,0,0,0,0,0,0,0,0,0,-1,1504,1191,0,0
287,-167,0,0,0,0,0,0,0,0,0,-1,1511,1191,0,0
294,-167,0,0,0,0,0,0,0,0,0,-1,1518,1191,0,0
301,-167,0,0,0,0,0,0,0,0,0,-1,1525,1191,0,0
308,-167,0,0,0,0,0,0,0,0,0,-1,1532,1191,0,0
315,-167,0,0,0,0,0,0,0,0,0,-1,1539,1191,0,0
322,-167,0,0,0,0,0,0,0,0,0,-1,1546,1191,0,0
329,-167,0,0,0,0,0,0,0,0,0,-1,1553,1191,0,0
336,-167,0,0,0,0,0,0,0,0,0,-1,1560,1191,0,0
343,-167,0,0,0,0,0,0,0,0,0,-1,1567,1191,0,0
350,-167,0,0,0,0,0,0,0,0,0,-1,1574,1191,0,0
357,-167,0,0,0,0,0,0,0,0,0,-1,1581,1191,0,0
364,-167,0,0,0,0,0,0,0,0,0,-1,1588,1191,0,0
371,-167,0,0,0,0,0,0,0,0,0,-1,1595,1191,0,0
378,-167,0,0,0,0,0,0,0,0,0,-1,1602,1191,0,0
385,-167,0,0,0,0,0,0,0,0,0,-1,1609,1191,0,0
392,-167,0,0,0,0,0,0,0,0,0,-1,1616,1191,0,0
399,-167,0,0,0,0,0,0,0,0,0,-1,1623,1191,0,0
406,-167,0,0,0,0,0,0,0,0,0,-1,1630,1191,0,0
413,-167,0,0,0,0,0,0,0,0,0,-1,1637,1191,0,0
420,-167,0,0,0,0,0,0,0,0,0,-1,1644,1191,0,0
427,-167,0,0,0,0,0,0,0,0,0,-1,1651,1191,0,0
434,-167,0,0,0,0,0,0,0,0,0,-1,1658,1191,0,0
441,-167,0,0,0,0,0,0,0,0,0,-1,1665,1191,0,0
448,-167,0,0,0,0,0,0,0,0,0,-1,1672,1191,0,0
455,-167,0,0,0,0,0,0,0,0,0,-1,1679,1191,0,0
462,-167,0,0,0,0,0,0,0,0,0,-1,1686,1191,0,0
469,-167,0,0,0,0,0,0,0,0,0,-1,1693,1191,0,0
476,-167,0,0,0,0,0,0,0,0,0,-1,1700,1191,0,0
483,-167,0,0,0,0,0,0,0,0,0,-1,1707,1191,0,0
490,-167,0,0,0,0,0,0,0,0,0,-1,1714,1191,0,0
497,-167,0,0,0,0,0,0,0,0,0,-1,1721,1191,0,0
504,-167,0,0,0,0,0,0,0,0,0,-1,1728,1191,0,0
511,-167,0,0,0,0,0,0,0,0,0,-1,1735,1191,0,0
518,-167,0,0,0,0,0,0,0,0,0,-1,1742,1191,0,0
525,-167,0,0,0,0,0,0,0,0,0,-1,1749,1191,0,0
532,-167,0,0,0,0,0,0,0,0,0,-1,1756,1191,0,0
539,-167,0,0,0,0,0,0,0,0,0,-1,1763,1191,0,0
546,-167,0,0,0,0,0,0,0,0,0,-1,1770,1191,0,0
553,-167,0,0,0,0,0,0,0,0,0,-1,1777,1191,0,0
560,-167,0,0,0,0,0,0,0,0,0,-1,1784,1191,0,0
567,-167,0,0,0,0,0,0,0,0,0,-1,1791,1191,0,0
574,-167,0,0,0,0,0,0,0,0,0,-1,1798,1191,0,0
581,-167,0,0,0,0,0,0,0,0,0,-1,1805,1191,0,0
588,-167,0,0,0,0,0,0,0,0,0,-1,1812,1191,0,0
595,-167,0,0,0,0,0,0,0,0,0,-1,1819,1191,0,0
602,-167,0,0,0,0,0,0,0,0,0,-1,1826,1191,0,0
609,-167,0,0,0,0,0,0,0,0,0,-1,1833,1191,0,0
616,-167,0,0,0,0,0,0,0,0,0,-1,1840,1191,0,0
623,-167,0,0,0,0,0,0,0,0,0,-1,1847,1191,0,0
630,-167,0,0,0,0,0,0,0,0,0,-1,1854,1191,0,0
637,-167,46.4827,2.89771,-0.00787465,-0.00223048,0.000270581,-0.00221754,-0.00788759,1.523,0.00469707,0.0439363,1861,1191,46.4826,-2.89776
644,-167,46.1345,2.99463,-0.0055368,-0.00108182,-6.39245e-05,-0.00108091,-0.00553771,-1.55645,0.00338945,0.046229,1868,1191,46.1345,-2.99457
651,-167,46.064,2.90479,-0.00350727,-2.28693e-05,-0.000386245,1.94324e-05,-0.00354957,-1.46171,0.00237288,0.0410082,1875,1191,46.064,-2.90484
658,-167,46.1125,2.73181,-0.00170425,0.000757452,-0.0007917,0.000990084,-0.00193688,-1.285,0.0017191,0.0432493,1882,1191,46.1126,-2.73182
665,-167,46.3453,2.75403,-0.000489455,0.000994445,-0.000987153,0.00148739,-0.000982398,-1.10766,0.00143583,0.0411085,1889,1191,46.3453,-2.75399
672,-167,46.3137,2.85388,-0.000277496,0.000679327,-0.000687392,0.0010384,-0.000636572,-1.08941,0.000976279,0.0289043,1896,1191,46.3137,-2.85383
679,-167,46.3102,2.77319,-0.000796996,0.000265308,-0.000230495,0.000313164,-0.000844852,-1.36608,0.000691673,0.0213721,1903,1191,46.3102,-2.77318
686,-167,46.3125,2.76123,-0.00117451,-0.000137781,9.83189e-05,-0.000128539,-0.00118376,1.47707,0.000750004,0.0309105,1910,1191,46.3125,-2.76122
693,-167,46.2869,2.78186,0,0,0,0,0,0,0,-1,1917,1191,46.2869,-2.78186
700,-167,28.0459,2.70508,0,0,0,0,0,0,0,-1,1924,1191,28.0459,-2.70513
707,-167,29.4708,7.10168,0,0,0,0,0,0,0,-1,1931,1191,29.4708,-7.10172
714,-167,35.9202,6.84668,0,0,0,0,0,0,0,-1,1938,1191,35.9202,-6.84664
721,-167,36.2072,6.38892,0,0,0,0,0,0,0,-1,1945,1191,36.2072,-6.38891
728,-167,39.9042,7.16138,0,0,0,0,0,0,0,-1,1952,1191,39.9042,-7.16137
735,-167,39.8411,6.76111,-0.0024532,-0.00121086,0.00215023,0.000406129,-0.00407019,0.926013,0.00285847,0.0181982,1959,1191,39.841,-6.76106
742,-167,39.8119,6.31567,-0.00255414,-0.000626136,0.00204513,0.000670807,-0.00385108,1.00564,0.00281773,0.0163768,1966,1191,39.8119,-6.3157
749,-167,39.8029,5.93262,-0.00280164,0.000566348,0.000986146,0.000833846,-0.00306914,1.30591,0.00237338,0.0142425,1973,1191,39.8028,-5.93265
756,-167,39.8027,5.59412,-0.00309615,0.00221223,-0.00103581,0.00240719,-0.00329111,-1.38476,0.00330308,0.0107843,1980,1191,39.8027,-5.59407
763,-167,39.7358,5.22095,-0.00378017,0.00411584,-0.00380967,0.00565421,-0.00531854,-1.18701,0.00633611,0.0133732,1987,1191,39.7358,-5.22094
770,-167,39.594,4.90784,-0.0049285,0.00631314,-0.00754432,0.0101003,-0.00871568,-1.10556,0.0108732,0.0301455,1994,1191,39.5939,-4.90785
777,-167,39.9332,4.63147,-0.00664375,0.00890675,-0.0126022,0.0159393,-0.0136763,-1.0618,0.0171152,0.0444267,2001,1191,39.9332,-4.63142
784,-167,40.1404,4.25562,-0.00887698,0.0120512,-0.019366,0.0235994,-0.0204252,-1.03309,0.0254396,0.0471833,2008,1191,40.1404,-4.25557
791,-167,40.0496,3.677,-0.0111978,0.01606,-0.0290486,0.034518,-0.0296558,-1.00474,0.0370861,0.0446923,2015,1191,40.0495,-3.67698
798,-167,39.7632,2.94739,0,0,0,0,0,0,0,-1,2022,1191,39.7632,-2.94741
805,-167,39.9836,1.73889,0,0,0,0,0,0,0,-1,2029,1191,39.9838,-1.73892
812,-167,0,0,0,0,0,0,0,0,0,-1,2036,1191,0,0
-700,-174,0,0,0,0,0,0,0,0,0,-1,524,1198,0,0
-693,-174,0,0,0,0,0,0,0,0,0,-1,531,1198,0,0
-686,-174,-32.8489,-4.49072,0.26333,0.148324,0.0971394,0.31871,0.0929439,0.518155,0.189259,0.0461946,538,1198,-32.8489,4.49067
-679,-174,-31.7887,-3.03809,0.213063,0.113913,0.0794812,0.257162,0.0698129,0.506554,0.153555,0.0442848,545,1198,-31.7887,3.03805
-672,-174,-29.1749,-1.90991,0,0,0,0,0,0,0,-1,552,1198,-29.1749,1.90996
-665,-174,-28.3033,-0.955811,0.128484,0.0633425,0.0490454,0.154789,0.037038,0.492287,0.0933294,0.0464622,559,1198,-28.3034,0.955846
-658,-174,-27.3058,-0.0950928,0.0953795,0.0454704,0.0368036,0.114891,0.0259588,0.487478,0.0695745,0.0471482,566,1198,-27.3058,0.0951417
-651,-174,-26.7971,0.693604,0.0683772,0.0315966,0.0266373,0.0823558,0.0176179,0.483273,0.0500752,0.0492869,573,1198,-26.7971,-0.693613
-644,-174,-26.5687,1.51917,0.0467056,0.0211032,0.0183823,0.0563048,0.011504,0.48125,0.0343501,0.0456724,580,1198,-26.5687,-1.5192
-637,-174,-26.5835,2.00439,0.0298684,0.0133749,0.0118084,0.0360246,0.00721858,0.480579,0.0220084,0.0247287,587,1198,-26.5835,-2.00439
-630,-174,-26.683,2.44873,0.0164557,0.00694926,0.00635049,0.0196348,0.00377015,0.464134,0.0120317,0.0128251,594,1198,-26.6831,-2.4487
-623,-174,-26.733,2.86719,0.00625519,0.0030892,0.00242988,0.00757222,0.00177217,0.496694,0.00457335,0.0134168,601,1198,-26.733,-2.86717
-616,-174,-26.7339,3.30884,0.000989131,0.00138642,-0.000350888,0.00159099,0.000784561,-1.04297,0.000918587,0.0196624,608,1198,-26.7339,-3.30879
-609,-174,-26.7432,3.7572,-0.000409353,0.000967748,-0.00132245,0.00177016,-0.00121177,-1.02542,0.00173165,0.0216303,615,1198,-26.7431,-3.75721
-602,-174,-26.7902,4.15381,-0.000466858,0.000676033,-0.00185305,0.00204375,-0.00183457,-0.934963,0.00224023,0.0146174,622,1198,-26.7902,-4.15379
-595,-174,-26.6398,4.52405,0,0,0,0,0,0,0,-1,629,1198,-26.6398,-4.52411
-588,-174,-27.163,4.89075,0,0,0,0,0,0,0,-1,636,1198,-27.163,-4.89075
-581,-174,-27.217,5.37512,0,0,0,0,0,0,0,-1,643,1198,-27.217,-5.37515
-574,-174,-26.3705,5.67102,0,0,0,0,0,0,0,-1,650,1198,-26.3706,-5.67101
-567,-174,-26.6597,3.04041,0,0,0,0,0,0,0,-1,657,1198,-26.6597,-3.04039
-560,-174,-33.8913,1.06848,0,0,0,0,0,0,0,-1,664,1198,-33.8913,-1.0685
-553,-174,-33.9392,1.0083,-0.0013636,-0.00055605,-0.00155872,0.000650345,-0.00256999,-0.912133,0.00196629,0.0411328,671,1198,-33.9392,-1.00835
-546,-174,-33.9962,0.979614,-0.0013801,-0.000931829,-0.00130552,0.000168658,-0.00248059,-0.870411,0.00171272,0.0283665,678,1198,-33.9961,-0.97956
-539,-174,-34.0666,1.00928,-0.00120646,-0.00112119,-0.000801126,-0.00036157,-0.00196609,-0.811982,0.00120837,0.0336638,685,1198,-34.0666,-1.00927
-532,-174,-34.0037,1.05933,-0.000680296,-0.00183245,-0.000649021,-0.000388564,-0.00212418,-0.422434,0.00130601,0.0443811,692,1198,-34.0037,-1.05934
-525,-174,-33.9378,1.14771,0.00139038,-0.0032174,-0.00166187,0.00192722,-0.00375423,-0.31245,0.00333624,0.0443386,699,1198,-33.9378,-1.14773
-518,-174,-34.0229,1.13696,0.00418334,-0.00474748,-0.00314344,0.0051788,-0.00574294,-0.306687,0.00630848,0.0434858,706,1198,-34.0229,-1.13694
-511,-174,0,0,0,0,0,0,0,0,0,-1,713,1198,0,0
-504,-174,0,0,0,0,0,0,0,0,0,-1,720,1198,0,0
-497,-174,0,0,0,0,0,0,0,0,0,-1,727,1198,0,0
-490,-174,0,0,0,0,0,0,0,0,0,-1,734,1198,0,0
-483,-174,0,0,0,0,0,0,0,0,0,-1,741,1198,0,0
-476,-174,0,0,0,0,0,0,0,0,0,-1,748,1198,0,0
-469,-174,0,0,0,0,0,0,0,0,0,-1,755,1198,0,0
-462,-174,0,0,0,0,0,0,0,0,0,-1,762,1198,0,0
-455,-174,0,0,0,0,0,0,0,0,0,-1,769,1198,0,0
-448,-174,0,0,0,0,0,0,0,0,0,-1,776,1198,0,0
-441,-174,0,0,0,0,0,0,0,0,0,-1,783,1198,0,0
-434,-174,0,0,0,0,0,0,0,0,0,-1,790,1198,0,0
-427,-174,0,0,0,0,0,0,0,0,0,-1,797,1198,0,0
-420,-174,0,0,0,0,0,0,0,0,0,-1,804,1198,0,0
-413,-174,0,0,0,0,0,0,0,0,0,-1,811,1198,0,0
-406,-174,0,0,0,0,0,0,0,0,0,-1,818,1198,0,0
-399,-174,0,0,0,0,0,0,0,0,0,-1,825,1198,0,0
-392,-174,0,0,0,0,0,0,0,0,0,-1,832,1198,0,0
-385,-174,0,0,0,0,0,0,0,0,0,-1,839,1198,0,0
-378,-174,0,0,0,0,0,0,0,0,0,-1,846,1198,0,0
-371,-174,0,0,0,0,0,0,0,0,0,-1,853,1198,0,0
-364,-174,0,0,0,0,0,0,0,0,0,-1,860,1198,0,0
-357,-174,0,0,0,0,0,0,0,0,0,-1,867,1198,0,0
-350,-174,0,0,0,0,0,0,0,0,0,-1,874,1198,0,0
-343,-174,0,0,0,0,0,0,0,0,0,-1,881,1198,0,0
-336,-174,0,0,0,0,0,0,0,0,0,-1,888,1198,0,0
-329,-174,0,0,0,0,0,0,0,0,0,-1,895,1198,0,0
-322,-174,0,0,0,0,0,0,0,0,0,-1,902,1198,0,0
-315,-174,0,0,0,0,0,0,0,0,0,-1,909,1198,0,0
-308,-174,0,0,0,0,0,0,0,0,0,-1,916,1198,0,0
-301,-174,0,0,0,0,0,0,0,0,0,-1,923,1198,0,0
-294,-174,0,0,0,0,0,0,0,0,0,-1,930,1198,0,0
-287,-174,0,0,0,0,0,0,0,0,0,-1,937,1198,0,0
-280,-174,0,0,0,0,0,0,0,0,0,-1,944,1198,0,0
-273,-174,0,0,0,0,0,0,0,0,0,-1,951,1198,0,0
-266,-174,0,0,0,0,0,0,0,0,0,-1,958,1198,0,0
-259,-174,0,0,0,0,0,0,0,0,0,-1,965,1198,0,0
-252,-174,0,0,0,0,0,0,0,0,0,-1,972,1198,0,0
-245,-174,0,0,0,0,0,0,0,0,0,-1,979,1198,0,0
-238,-174,0,0,0,0,0,0,0,0,0,-1,986,1198,0,0
-231,-174,0,0,0,0,0,0,0,0,0,-1,993,1198,0,0
-224,-174,0,0,0,0,0,0,0,0,0,-1,1000,1198,0,0
-217,-174,0,0,0,0,0,0,0,0,0,-1,1007,1198,0,0
-210,-174,0,0,0,0,0,0,0,0,0,-1,1014,1198,0,0
-203,-174,0,0,0,0,0,0,0,0,0,-1,1021,1198,0,0
-196,-174,0,0,0,0,0,0,0,0,0,-1,1028,1198,0,0
-189,-174,0,0,0,0,0,0,0,0,0,-1,1035,1198,0,0
-182,-174,0,0,0,0,0,0,0,0,0,-1,1042,1198,0,0
-175,-174,0,0,0,0,0,0,0,0,0,-1,1049,1198,0,0
-168,-174,0,0,0,0,0,0,0,0,0,-1,1056,1198,0,0
-161,-174,0,0,0,0,0,0,0,0,0,-1,1063,1198,0,0
-154,-174,0,0,0,0,0,0,0,0,0,-1,1070,1198,0,0
-147,-174,0,0,0,0,0,0,0,0,0,-1,1077,1198,0,0
-140,-174,0,0,0,0,0,0,0,0,0,-1,1084,1198,0,0
-133,-174,0,0,0,0,0,0,0,0,0,-1,1091,1198,0,0
-126,-174,0,0,0,0,0,0,0,0,0,-1,1098,1198,0,0
-119,-174,0,0,0,0,0,0,0,0,0,-1,1105,1198,0,0
-112,-174,0,0,0,0,0,0,0,0,0,-1,1112,1198,0,0
-105,-174,0,0,0,0,0,0,0,0,0,-1,1119,1198,0,0
-98,-174,0,0,0,0,0,0,0,0,0,-1,1126,1198,0,0
-91,-174,0,0,0,0,0,0,0,0,0,-1,1133,1198,0,0
-84,-174,0,0,0,0,0,0,0,0,0,-1,1140,1198,0,0
-77,-174,0,0,0,0,0,0,0,0,0,-1,1147,1198,0,0
-70,-174,0,0,0,0,0,0,0,0,0,-1,1154,1198,0,0
-63,-174,0,0,0,0,0,0,0,0,0,-1,1161,1198,0,0
-56,-174,0,0,0,0,0,0,0,0,0,-1,1168,1198,0,0
-49,-174,0,0,0,0,0,0,0,0,0,-1,1175,1198,0,0
-42,-174,0,0,0,0,0,0,0,0,0,-1,1182,1198,0,0
-35,-174,0,0,0,0,0,0,0,0,0,-1,1189,1198,0,0
-28,-174,0,0,0,0,0,0,0,0,0,-1,1196,1198,0,0
-21,-174,0,0,0,0,0,0,0,0,0,-1,1203,1198,0,0
-14,-174,0,0,0,0,0,0,0,0,0,-1,1210,1198,0,0
-7,-174,0,0,0,0,0,0,0,0,0,-1,1217,1198,0,0
0,-174,0,0,0,0,0,0,0,0,0,-1,1224,1198,0,0
7,-174,0,0,0,0,0,0,0,0,0,-1,1231,1198,0,0
14,-174,0,0,0,0,0,0,0,0,0,-1,1238,1198,0,0
21,-174,0,0,0,0,0,0,0,0,0,-1,1245,1198,0,0
28,-174,0,0,0,0,0,0,0,0,0,-1,1252,1198,0,0
35,-174,0,0,0,0,0,0,0,0,0,-1,1259,1198,0,0
42,-174,0,0,0,0,0,0,0,0,0,-1,1266,1198,0,0
49,-174,0,0,0,0,0,0,0,0,0,-1,1273,1198,0,0
56,-174,0,0,0,0,0,0,0,0,0,-1,1280,1198,0,0
63,-174,0,0,0,0,0,0,0,0,0,-1,1287,1198,0,0
70,-174,0,0,0,0,0,0,0,0,0,-1,1294,1198,0,0
77,-174,0,0,0,0,0,0,0,0,0,-1,1301,1198,0,0
84,-174,0,0,0,0,0,0,0,0,0,-1,1308,1198,0,0
91,-174,0,0,0,0,0,0,0,0,0,-1,1315,1198,0,0
98,-174,0,0,0,0,0,0,0,0,0,-1,1322,1198,0,0
105,-174,0,0,0,0,0,0,0,0,0,-1,1329,1198,0,0
112,-174,0,0,0,0,0,0,0,0,0,-1,1336,1198,0,0
119,-174,0,0,0,0,0,0,0,0,0,-1,1343,1198,0,0
126,-174,0,0,0,0,0,0,0,0,0,-1,1350,1198,0,0
133,-174,0,0,0,0,0,0,0,0,0,-1,1357,1198,0,0
140,-174,0,0,0,0,0,0,0,0,0,-1,1364,1198,0,0
147,-174,0,0,0,0,0,0,0,0,0,-1,1371,1198,0,0
154,-174,0,0,0,0,0,0,0,0,0,-1,1378,1198,0,0
161,-174,0,0,0,0,0,0,0,0,0,-1,1385,1198,0,0
168,-174,0,0,0,0,0,0,0,0,0,-1,1392,1198,0,0
175,-174,0,0,0,0,0,0,0,0,0,-1,1399,1198,0,0
182,-174,0,0,0,0,0,0,0,0,0,-1,1406,1198,0,0
189,-174,0,0,0,0,0,0,0,0,0,-1,1413,1198,0,0
196,-174,0,0,0,0,0,0,0,0,0,-1,1420,1198,0,0
203,-174,0,0,0,0,0,0,0,0,0,-1,1427,1198,0,0
210,-174,0,0,0,0,0,0,0,0,0,-1,1434,1198,0,0
217,-174,0,0,0,0,0,0,0,0,0,-1,1441,1198,0,0
224,-174,0,0,0,0,0,0,0,0,0,-1,1448,1198,0,0
231,-174,0,0,0,0,0,0,0,0,0,-1,1455,1198,0,0
238,-174,0,0,0,0,0,0,0,0,0,-1,1462,1198,0,0
245,-174,0,0,0,0,0,0,0,0,0,-1,1469,1198,0,0
252,-174,0,0,0,0,0,0,0,0,0,-1,1476,1198,0,0
259,-174,0,0,0,0,0,0,0,0,0,-1,1483,1198,0,0
266,-174,0,0,0,0,0,0,0,0,0,-1,1490,1198,0,0
273,-174,0,0,0,0,0,0,0,0,0,-1,1497,1198,0,0
280,-174,0,0,0,0,0,0,0,0,0,-1,1504,1198,0,0
287,-174,0,0,0,0,0,0,0,0,0,-1,1511,1198,0,0
294,-174,0,0,0,0,0,0,0,0,0,-1,1518,1198,0,0
301,-174,0,0,0,0,0,0,0,0,0,-1,1525,1198,0,0
308,-174,0,0,0,0,0,0,0,0,0,-1,1532,1198,0,0
315,-174,0,0,0,0,0,0,0,0,0,-1,1539,1198,0,0
322,-174,0,0,0,0,0,0,0,0,0,-1,1546,1198,0,0
329,-174,0,0,0,0,0,0,0,0,0,-1,1553,1198,0,0
336,-174,0,0,0,0,0,0,0,0,0,-1,1560,1198,0,0
343,-174,0,0,0,0,0,0,0,0,0,-1,1567,1198,0,0
350,-174,0,0,0,0,0,0,0,0,0,-1,1574,1198,0,0
357,-174,0,0,0,0,0,0,0,0,0,-1,1581,1198,0,0
364,-174,0,0,0,0,0,0,0,0,0,-1,1588,1198,0,0
371,-174,0,0,0,0,0,0,0,0,0,-1,1595,1198,0,0
378,-174,0,0,0,0,0,0,0,0,0,-1,1602,1198,0,0
385,-174,0,0,0,0,0,0,0,0,0,-1,1609,1198,0,0
392,-174,0,0,0,0,0,0,0,0,0,-1,1616,1198,0,0
399,-174,0,0,0,0,0,0,0,0,0,-1,1623,1198,0,0
406,-174,0,0,0,0,0,0,0,0,0,-1,1630,1198,0,0
413,-174,0,0,0,0,0,0,0,0,0,-1,1637,1198,0,0
420,-174,0,0,0,0,0,0,0,0,0,-1,1644,1198,0,0
427,-174,0,0,0,0,0,0,0,0,0,-1,1651,1198,0,0
434,-174,0,0,0,0,0,0,0,0,0,-1,1658,1198,0,0
441,-174,0,0,0,0,0,0,0,0,0,-1,1665,1198,0,0
448,-174,0,0,0,0,0,0,0,0,0,-1,1672,1198,0,0
455,-174,0,0,0,0,0,0,0,0,0,-1,1679,1198,0,0
462,-174,0,0,0,0,0,0,0,0,0,-1,1686,1198,0,0
469,-174,0,0,0,0,0,0,0,0,0,-1,1693,1198,0,0
476,-174,0,0,0,0,0,0,0,0,0,-1,1700,1198,0,0
483,-174,0,0,0,0,0,0,0,0,0,-1,1707,1198,0,0
490,-174,0,0,0,0,0,0,0,0,0,-1,1714,1198,0,0
497,-174,0,0,0,0,0,0,0,0,0,-1,1721,1198,0,0
504,-174,0,0,0,0,0,0,0,0,0,-1,1728,1198,0,0
511,-174,0,0,0,0,0,0,0,0,0,-1,1735,1198,0,0
518,-174,0,0,0,0,0,0,0,0,0,-1,1742,1198,0,0
525,-174,0,0,0,0,0,0,0,0,0,-1,1749,1198,0,0
532,-174,0,0,0,0,0,0,0,0,0,-1,1756,1198,0,0
539,-174,0,0,0,0,0,0,0,0,0,-1,1763,1198,0,0
546,-174,0,0,0,0,0,0,0,0,0,-1,1770,1198,0,0
553,-174,0,0,0,0,0,0,0,0,0,-1,1777,1198,0,0
560,-174,0,0,0,0,0,0,0,0,0,-1,1784,1198,0,0
567,-174,0,0,0,0,0,0,0,0,0,-1,1791,1198,0,0
574,-174,0,0,0,0,0,0,0,0,0,-1,1798,1198,0,0
581,-174,0,0,0,0,0,0,0,0,0,-1,1805,1198,0,0
588,-174,0,0,0,0,0,0,0,0,0,-1,1812,1198,0,0
595,-174,0,0,0,0,0,0,0,0,0,-1,1819,1198,0,0
602,-174,0,0,0,0,0,0,0,0,0,-1,1826,1198,0,0
609,-174,0,0,0,0,0,0,0,0,0,-1,1833,1198,0,0
616,-174,0,0,0,0,0,0,0,0,0,-1,1840,1198,0,0
623,-174,0,0,0,0,0,0,0,0,0,-1,1847,1198,0,0
630,-174,0,0,0,0,0,0,0,0,0,-1,1854,1198,0,0
637,-174,46.2244,3.05249,-0.00623971,-0.00254296,-0.000315679,-0.0025162,-0.00626648,-1.48622,0.00364126,0.0415684,1861,1198,46.2243,-3.0525
644,-174,46.2577,2.95313,-0.00419341,-0.00122102,-0.000605174,-0.00110253,-0.0043119,-1.37745,0.00258664,0.0403219,1868,1198,46.2577,-2.95311
651,-174,46.2656,2.8761,-0.00250865,-4.50315e-05,-0.000811844,0.000198437,-0.00275212,-1.27944,0.00190434,0.0409116,1875,1198,46.2656,-2.87604
658,-174,46.2218,2.81433,-0.00107751,0.00076807,-0.00110925,0.00128819,-0.00159763,-1.13234,0.00166932,0.040967,1882,1198,46.2218,-2.81433
665,-174,46.3877,2.84937,-0.000271047,0.000896883,-0.00113423,0.00158865,-0.000962811,-1.02313,0.00148778,0.0362821,1889,1198,46.3877,-2.84932
672,-174,46.3053,2.77429,-0.000334721,0.00050617,-0.000689434,0.000893248,-0.000721799,-1.05921,0.000934197,0.027546,1896,1198,46.3052,-2.77433
679,-174,46.3141,2.76843,-0.000938134,0.000118721,-0.000193832,0.000153149,-0.000972562,-1.39501,0.000704991,0.0231795,1903,1198,46.3141,-2.76844
686,-174,46.3577,2.78796,0,0,0,0,0,0,0,-1,1910,1198,46.3577,-2.78794
693,-174,45.0994,2.7428,0,0,0,0,0,0,0,-1,1917,1198,45.0994,-2.74284
700,-174,25.4004,6.11792,0,0,0,0,0,0,0,-1,1924,1198,25.4004,-6.11797
707,-174,34.7908,7.34473,0,0,0,0,0,0,0,-1,1931,1198,34.7908,-7.34475
714,-174,40.1135,7.79871,0,0,0,0,0,0,0,-1,1938,1198,40.1135,-7.79875
721,-174,40.0519,7.11438,0,0,0,0,0,0,0,-1,1945,1198,40.0519,-7.11442
728,-174,39.5764,7.1084,-0.00258236,-0.00127888,0.00199108,0.000164412,-0.00402565,0.943567,0.00274021,0.0439819,1952,1198,39.5764,-7.10837
735,-174,39.4208,6.71814,-0.00266303,-0.00124059,0.00221758,0.000377031,-0.00428065,0.940576,0.00298739,0.0140097,1959,1198,39.4208,-6.71819
742,-174,39.4158,6.32007,-0.00253802,-0.000529994,0.00197092,0.00067791,-0.00374592,1.02097,0.00275123,0.0207006,1966,1198,39.4158,-6.32008
749,-174,39.4268,5.95703,-0.00237699,0.000682357,0.000751724,0.000857087,-0.00255172,1.34241,0.00204753,0.0182472,1973,1198,39.4268,-5.957
756,-174,39.3966,5.57288,-0.00220875,0.00222737,-0.00130323,0.0025819,-0.00256328,-1.30519,0.00297058,0.0108983,1980,1198,39.3966,-5.57288
763,-174,39.3717,5.18713,-0.00240355,0.00399285,-0.0040757,0.00597537,-0.00438607,-1.11807,0.00600559,0.0145303,1987,1198,39.3717,-5.18708
770,-174,39.4866,4.83557,-0.00307769,0.00600126,-0.00784233,0.0105232,-0.00759962,-1.04776,0.0105085,0.0343073,1994,1198,39.4865,-4.83553
777,-174,39.7728,4.43457,0,0,0,0,0,0,0,-1,2001,1198,39.7728,-4.43461
784,-174,40.0071,4.4707,0,0,0,0,0,0,0,-1,2008,1198,40.007,-4.47075
791,-174,39.3669,3.40222,0,0,0,0,0,0,0,-1,2015,1198,39.3671,-3.40221
798,-174,41.3049,4.16174,0,0,0,0,0,0,0,-1,2022,1198,41.3049,-4.16178
805,-174,41.2793,4.52295,0,0,0,0,0,0,0,-1,2029,1198,41.2794,-4.523
812,-174,0,0,0,0,0,0,0,0,0,-1,2036,1198,0,0
-700,-181,0,0,0,0,0,0,0,0,0,-1,524,1205,0,0
-693,-181,0,0,0,0,0,0,0,0,0,-1,531,1205,0,0
-686,-181,-32.3987,-5.55151,0.252859,0.142172,0.0921945,0.305046,0.0899858,0.515082,0.180986,0.0458387,538,1205,-32.3987,5.55146
-679,-181,-31.3192,-4.04041,0.207757,0.108807,0.0766632,0.249523,0.0670401,0.498846,0.149113,0.0469126,545,1205,-31.3191,4.04037
-672,-181,-26.9526,-1.64648,0,0,0,0,0,0,0,-1,552,1205,-26.9527,1.64652
-665,-181,-26.6265,-0.919434,0.12771,0.059682,0.0484231,0.152871,0.0345203,0.479221,0.0925781,0.0499858,559,1205,-26.6265,0.919434
-658,-181,-26.3223,-0.191895,0.0952133,0.0423269,0.0365748,0.113903,0.0236374,0.472404,0.0694109,0.0457403,566,1205,-26.3223,0.191864
-651,-181,-25.6284,0.567017,0.0685165,0.0289481,0.0266152,0.0818953,0.0155694,0.465785,0.0502181,0.048474,573,1205,-25.6284,-0.567005
-644,-181,-26.1974,1.45959,0.0471241,0.0190678,0.0185331,0.0563396,0.00985237,0.461439,0.0347444,0.0457854,580,1205,-26.1975,-1.45955
-637,-181,-26.2146,1.98071,0.0304796,0.0119338,0.0120825,0.0364374,0.00597595,0.458107,0.0225649,0.0255663,587,1205,-26.2146,-1.98075
-630,-181,-26.2587,2.44409,0.0171009,0.00586339,0.00665913,0.0201951,0.00276925,0.434966,0.0126418,0.0137554,594,1205,-26.2587,-2.44411
-623,-181,-26.309,2.87097,0.00695948,0.0023733,0.00274354,0.00824204,0.00109074,0.437298,0.00516961,0.0148294,601,1205,-26.309,-2.87101
-616,-181,-26.3015,3.32019,0.00163443,0.00106965,-0.000122039,0.00165967,0.00104441,-0.203964,0.000968829,0.0146682,608,1205,-26.3015,-3.32021
-609,-181,-26.2825,3.78772,-8.94735e-05,0.000881697,-0.0012594,0.00174588,-0.000953655,-0.969401,0.00158079,0.0146057,615,1205,-26.2825,-3.7877
-602,-181,-26.2977,4.22278,-0.000209963,0.000691342,-0.0019526,0.00224462,-0.00176324,-0.89881,0.00231949,0.0131805,622,1205,-26.2977,-4.22273
-595,-181,-26.4754,4.5542,-0.000403332,0.000474018,-0.00212041,0.00220065,-0.00212997,-0.8874,0.00250039,0.0324975,629,1205,-26.4754,-4.55424
-588,-181,-26.7285,5.02319,-0.000760924,0.00057942,-0.0020346,0.00205138,-0.00223288,-0.944496,0.00247425,0.0306549,636,1205,-26.7285,-5.0232
-581,-181,-26.6498,5.55518,-0.000768111,0.000399786,-0.00187224,0.00177703,-0.00214535,-0.936567,0.00226791,0.0275338,643,1205,-26.6498,-5.55517
-574,-181,-26.3956,6.01367,0,0,0,0,0,0,0,-1,650,1205,-26.3957,-6.01369
-567,-181,-25.8839,3.34485,0,0,0,0,0,0,0,-1,657,1205,-25.8839,-3.3449
-560,-181,-31.7396,1.63306,0,0,0,0,0,0,0,-1,664,1205,-31.7396,-1.63303
-553,-181,-33.916,1.08582,0,0,0,0,0,0,0,-1,671,1205,-33.916,-1.08576
-546,-181,-33.8981,0.885376,-0.00170398,-0.000687875,-0.000881125,-0.000178825,-0.00221303,-1.04692,0.00141951,0.032752,678,1205,-33.898,-0.885392
-539,-181,-34.0164,0.984009,-0.00189277,-0.000650598,-0.000294198,-0.000584443,-0.00195892,-1.34961,0.00116124,0.0370378,685,1205,-34.0164,-0.984056
-532,-181,-34.0917,0.996216,-0.00188503,-0.00102867,3.21462e-05,-0.00102746,-0.00188623,1.53333,0.00109047,0.0449058,692,1205,-34.0917,-0.996258
-525,-181,-34.0076,1.16785,-0.000473635,-0.00215718,-0.000680979,-0.000232674,-0.00239814,-0.340097,0.00152712,0.04234,699,1205,-34.0075,-1.16787
-518,-181,-33.9193,1.10925,0.00233574,-0.00368908,-0.00215934,0.00302973,-0.00438306,-0.310961,0.00430348,0.0390866,706,1205,-33.9192,-1.10927
-511,-181,0,0,0,0,0,0,0,0,0,-1,713,1205,0,0
-504,-181,0,0,0,0,0,0,0,0,0,-1,720,1205,0,0
-497,-181,0,0,0,0,0,0,0,0,0,-1,727,1205,0,0
-490,-181,0,0,0,0,0,0,0,0,0,-1,734,1205,0,0
-483,-181,0,0,0,0,0,0,0,0,0,-1,741,1205,0,0
-476,-181,0,0,0,0,0,0,0,0,0,-1,748,1205,0,0
-469,-181,0,0,0,0,0,0,0,0,0,-1,755,1205,0,0
-462,-181,0,0,0,0,0,0,0,0,0,-1,762,1205,0,0
-455,-181,0,0,0,0,0,0,0,0,0,-1,769,1205,0,0
-448,-181,0,0,0,0,0,0,0,0,0,-1,776,1205,0,0
-441,-181,0,0,0,0,0,0,0,0,0,-1,783,1205,0,0
-434,-181,0,0,0,0,0,0,0,0,0,-1,790,1205,0,0
-427,-181,0,0,0,0,0,0,0,0,0,-1,797,1205,0,0
-420,-181,0,0,0,0,0,0,0,0,0,-1,804,1205,0,0
-413,-181,0,0,0,0,0,0,0,0,0,-1,811,1205,0,0
-406,-181,0,0,0,0,0,0,0,0,0,-1,818,1205,0,0
-399,-181,0,0,0,0,0,0,0,0,0,-1,825,1205,0,0
-392,-181,0,0,0,0,0,0,0,0,0,-1,832,1205,0,0
-385,-181,0,0,0,0,0,0,0,0,0,-1,839,1205,0,0
-378,-181,0,0,0,0,0,0,0,0,0,-1,846,1205,0,0
-371,-181,0,0,0,0,0,0,0,0,0,-1,853,1205,0,0
-364,-181,0,0,0,0,0,0,0,0,0,-1,860,1205,0,0
-357,-181,0,0,0,0,0,0,0,0,0,-1,867,1205,0,0
-350,-181,0,0,0,0,0,0,0,0,0,-1,874,1205,0,0
-343,-181,0,0,0,0,0,0,0,0,0,-1,881,1205,0,0
-336,-181,0,0,0,0,0,0,0,0,0,-1,888,1205,0,0
-329,-181,0,0,0,0,0,0,0,0,0,-1,895,1205,0,0
-322,-181,0,0,0,0,0,0,0,0,0,-1,902,1205,0,0
-315,-181,0,0,0,0,0,0,0,0,0,-1,909,1205,0,0
-308,-181,0,0,0,0,0,0,0,0,0,-1,916,1205,0,0
-301,-181,0,0,0,0,0,0,0,0,0,-1,923,1205,0,0
-294,-181,0,0,0,0,0,0,0,0,0,-1,930,1205,0,0
-287,-181,0,0,0,0,0,0,0,0,0,-1,937,1205,0,0
-280,-181,0,0,0,0,0,0,0,0,0,-1,944,1205,0,0
-273,-181,0,0,0,0,0,0,0,0,0,-1,951,1205,0,0
-266,-181,0,0,0,0,0,0,0,0,0,-1,958,1205,0,0
-259,-181,0,0,0,0,0,0,0,0,0,-1,965,1205,0,0
-252,-181,0,0,0,0,0,0,0,0,0,-1,972,1205,0,0
-245,-181,0,0,0,0,0,0,0,0,0,-1,979,1205,0,0
-238,-181,0,0,0,0,0,0,0,0,0,-1,986,1205,0,0
-231,-181,0,0,0,0,0,0,0,0,0,-1,993,1205,0,0
-224,-181,0,0,0,0,0,0,0,0,0,-1,1000,1205,0,0
-217,-181,0,0,0,0,0,0,0,0,0,-1,1007,1205,0,0
-210,-181,0,0,0,0,0,0,0,0,0,-1,1014,1205,0,0
-203,-181,0,0,0,0,0,0,0,0,0,-1,1021,1205,0,0
-196,-181,0,0,0,0,0,0,0,0,0,-1,1028,1205,0,0
-189,-181,0,0,0,0,0,0,0,0,0,-1,1035,1205,0,0
-182,-181,0,0,0,0,0,0,0,0,0,-1,1042,1205,0,0
-175,-181,0,0,0,0,0,0,0,0,0,-1,1049,1205,0,0
-168,-181,0,0,0,0,0,0,0,0,0,-1,1056,1205,0,0
-161,-181,0,0,0,0,0,0,0,0,0,-1,1063,1205,0,0
-154,-181,0,0,0,0,0,0,0,0,0,-1,1070,1205,0,0
-147,-181,0,0,0,0,0,0,0,0,0,-1,1077,1205,0,0
-140,-181,0,0,0,0,0,0,0,0,0,-1,1084,1205,0,0
-133,-181,0,0,0,0,0,0,0,0,0,-1,1091,1205,0,0
-126,-181,0,0,0,0,0,0,0,0,0,-1,1098,1205,0,0
-119,-181,0,0,0,0,0,0,0,0,0,-1,1105,1205,0,0
-112,-181,0,0,0,0,0,0,0,0,0,-1,1112,1205,0,0
-105,-181,0,0,0,0,0,0,0,0,0,-1,1119,1205,0,0
-98,-181,0,0,0,0,0,0,0,0,0,-1,1126,1205,0,0
-91,-181,0,0,0,0,0,0,0,0,0,-1,1133,1205,0,0
-84,-181,0,0,0,0,0,0,0,0,0,-1,1140,1205,0,0
-77,-181,0,0,0,0,0,0,0,0,0,-1,1147,1205,0,0
-70,-181,0,0,0,0,0,0,0,0,0,-1,1154,1205,0,0
-63,-181,0,0,0,0,0,0,0,0,0,-1,1161,1205,0,0
-56,-181,0,0,0,0,0,0,0,0,0,-1,1168,1205,0,0
-49,-181,0,0,0,0,0,0,0,0,0,-1,1175,1205,0,0
-42,-181,0,0,0,0,0,0,0,0,0,-1,1182,1205,0,0
-35,-181,0,0,0,0,0,0,0,0,0,-1,1189,1205,0,0
-28,-181,0,0,0,0,0,0,0,0,0,-1,1196,1205,0,0
-21,-181,0,0,0,0,0,0,0,0,0,-1,1203,1205,0,0
-14,-181,0,0,0,0,0,0,0,0,0,-1,1210,1205,0,0
-7,-181,0,0,0,0,0,0,0,0,0,-1,1217,1205,0,0
0,-181,0,0,0,0,0,0,0,0,0,-1,1224,1205,0,0
7,-181,0,0,0,0,0,0,0,0,0,-1,1231,1205,0,0
14,-181,0,0,0,0,0,0,0,0,0,-1,1238,1205,0,0
21,-181,0,0,0,0,0,0,0,0,0,-1,1245,1205,0,0
28,-181,0,0,0,0,0,0,0,0,0,-1,1252,1205,0,0
35,-181,0,0,0,0,0,0,0,0,0,-1,1259,1205,0,0
42,-181,0,0,0,0,0,0,0,0,0,-1,1266,1205,0,0
49,-181,0,0,0,0,0,0,0,0,0,-1,1273,1205,0,0
56,-181,0,0,0,0,0,0,0,0,0,-1,1280,1205,0,0
63,-181,0,0,0,0,0,0,0,0,0,-1,1287,1205,0,0
70,-181,0,0,0,0,0,0,0,0,0,-1,1294,1205,0,0
77,-181,0,0,0,0,0,0,0,0,0,-1,1301,1205,0,0
84,-181,0,0,0,0,0,0,0,0,0,-1,1308,1205,0,0
91,-181,0,0,0,0,0,0,0,0,0,-1,1315,1205,0,0
98,-181,0,0,0,0,0,0,0,0,0,-1,1322,1205,0,0
105,-181,0,0,0,0,0,0,0,0,0,-1,1329,1205,0,0
112,-181,0,0,0,0,0,0,0,0,0,-1,1336,1205,0,0
119,-181,0,0,0,0,0,0,0,0,0,-1,1343,1205,0,0
126,-181,0,0,0,0,0,0,0,0,0,-1,1350,1205,0,0
133,-181,0,0,0,0,0,0,0,0,0,-1,1357,1205,0,0
140,-181,0,0,0,0,0,0,0,0,0,-1,1364,1205,0,0
147,-181,0,0,0,0,0,0,0,0,0,-1,1371,1205,0,0
154,-181,0,0,0,0,0,0,0,0,0,-1,1378,1205,0,0
161,-181,0,0,0,0,0,0,0,0,0,-1,1385,1205,0,0
168,-181,0,0,0,0,0,0,0,0,0,-1,1392,1205,0,0
175,-181,0,0,0,0,0,0,0,0,0,-1,1399,1205,0,0
182,-181,0,0,0,0,0,0,0,0,0,-1,1406,1205,0,0
189,-181,0,0,0,0,0,0,0,0,0,-1,1413,1205,0,0
196,-181,0,0,0,0,0,0,0,0,0,-1,1420,1205,0,0
203,-181,0,0,0,0,0,0,0,0,0,-1,1427,1205,0,0
210,-181,0,0,0,0,0,0,0,0,0,-1,1434,1205,0,0
217,-181,0,0,0,0,0,0,0,0,0,-1,1441,1205,0,0
224,-181,0,0,0,0,0,0,0,0,0,-1,1448,1205,0,0
231,-181,0,0,0,0,0,0,0,0,0,-1,1455,1205,0,0
238,-181,0,0,0,0,0,0,0,0,0,-1,1462,1205,0,0
245,-181,0,0,0,0,0,0,0,0,0,-1,1469,1205,0,0
252,-181,0,0,0,0,0,0,0,0,0,-1,1476,1205,0,0
259,-181,0,0,0,0,0,0,0,0,0,-1,1483,1205,0,0
266,-181,0,0,0,0,0,0,0,0,0,-1,1490,1205,0,0
273,-181,0,0,0,0,0,0,0,0,0,-1,1497,1205,0,0
280,-181,0,0,0,0,0,0,0,0,0,-1,1504,1205,0,0
287,-181,0,0,0,0,0,0,0,0,0,-1,1511,1205,0,0
294,-181,0,0,0,0,0,0,0,0,0,-1,1518,1205,0,0
301,-181,0,0,0,0,0,0,0,0,0,-1,1525,1205,0,0
308,-181,0,0,0,0,0,0,0,0,0,-1,1532,1205,0,0
315,-181,0,0,0,0,0,0,0,0,0,-1,1539,1205,0,0
322,-181,0,0,0,0,0,0,0,0,0,-1,1546,1205,0,0
329,-181,0,0,0,0,0,0,0,0,0,-1,1553,1205,0,0
336,-181,0,0,0,0,0,0,0,0,0,-1,1560,1205,0,0
343,-181,0,0,0,0,0,0,0,0,0,-1,1567,1205,0,0
350,-181,0,0,0,0,0,0,0,0,0,-1,1574,1205,0,0
357,-181,0,0,0,0,0,0,0,0,0,-1,1581,1205,0,0
364,-181,0,0,0,0,0,0,0,0,0,-1,1588,1205,0,0
371,-181,0,0,0,0,0,0,0,0,0,-1,1595,1205,0,0
378,-181,0,0,0,0,0,0,0,0,0,-1,1602,1205,0,0
385,-181,0,0,0,0,0,0,0,0,0,-1,1609,1205,0,0
392,-181,0,0,0,0,0,0,0,0,0,-1,1616,1205,0,0
399,-181,0,0,0,0,0,0,0,0,0,-1,1623,1205,0,0
406,-181,0,0,0,0,0,0,0,0,0,-1,1630,1205,0,0
413,-181,0,0,0,0,0,0,0,0,0,-1,1637,1205,0,0
420,-181,0,0,0,0,0,0,0,0,0,-1,1644,1205,0,0
427,-181,0,0,0,0,0,0,0,0,0,-1,1651,1205,0,0
434,-181,0,0,0,0,0,0,0,0,0,-1,1658,1205,0,0
441,-181,0,0,0,0,0,0,0,0,0,-1,1665,1205,0,0
448,-181,0,0,0,0,0,0,0,0,0,-1,1672,1205,0,0
455,-181,0,0,0,0,0,0,0,0,0,-1,1679,1205,0,0
462,-181,0,0,0,0,0,0,0,0,0,-1,1686,1205,0,0
469,-181,0,0,0,0,0,0,0,0,0,-1,1693,1205,0,0
476,-181,0,0,0,0,0,0,0,0,0,-1,1700,1205,0,0
483,-181,0,0,0,0,0,0,0,0,0,-1,1707,1205,0,0
490,-181,0,0,0,0,0,0,0,0,0,-1,1714,1205,0,0
497,-181,0,0,0,0,0,0,0,0,0,-1,1721,1205,0,0
504,-181,0,0,0,0,0,0,0,0,0,-1,1728,1205,0,0
511,-181,0,0,0,0,0,0,0,0,0,-1,1735,1205,0,0
518,-181,0,0,0,0,0,0,0,0,0,-1,1742,1205,0,0
525,-181,0,0,0,0,0,0,0,0,0,-1,1749,1205,0,0
532,-181,0,0,0,0,0,0,0,0,0,-1,1756,1205,0,0
539,-181,0,0,0,0,0,0,0,0,0,-1,1763,1205,0,0
546,-181,0,0,0,0,0,0,0,0,0,-1,1770,1205,0,0
553,-181,0,0,0,0,0,0,0,0,0,-1,1777,1205,0,0
560,-181,0,0,0,0,0,0,0,0,0,-1,1784,1205,0,0
567,-181,0,0,0,0,0,0,0,0,0,-1,1791,1205,0,0
574,-181,0,0,0,0,0,0,0,0,0,-1,1798,1205,0,0
581,-181,0,0,0,0,0,0,0,0,0,-1,1805,1205,0,0
588,-181,0,0,0,0,0,0,0,0,0,-1,1812,1205,0,0
595,-181,0,0,0,0,0,0,0,0,0,-1,1819,1205,0,0
602,-181,0,0,0,0,0,0,0,0,0,-1,1826,1205,0,0
609,-181,0,0,0,0,0,0,0,0,0,-1,1833,1205,0,0
616,-181,0,0,0,0,0,0,0,0,0,-1,1840,1205,0,0
623,-181,0,0,0,0,0,0,0,0,0,-1,1847,1205,0,0
630,-181,46.3274,3.04358,0,0,0,0,0,0,0,-1,1854,1205,46.3273,-3.04355
637,-181,46.2551,3.03442,-0.00453279,-0.00180992,-0.000675653,-0.00165148,-0.00469123,-1.34046,0.00274773,0.0385808,1861,1205,46.2552,-3.03441
644,-181,46.3202,2.96558,-0.00304814,-0.00058554,-0.000989442,-0.000237253,-0.00339643,-1.23234,0.00218949,0.0395022,1868,1205,46.3202,-2.96559
651,-181,46.4746,2.9104,-0.00182956,0.000453259,-0.00112502,0.0009145,-0.0022908,-1.18171,0.0019066,0.0387152,1875,1205,46.4746,-2.91044
658,-181,46.3704,2.83411,-0.000757894,0.0010441,-0.00132749,0.00174748,-0.00146127,-1.08355,0.00185503,0.0336397,1882,1205,46.3704,-2.83414
665,-181,46.3331,2.80469,-0.000232477,0.000902892,-0.00121272,0.00167422,-0.0010038,-1.0043,0.00156222,0.0318902,1889,1205,46.3332,-2.80474
672,-181,46.3037,2.7832,-0.000388914,0.000360606,-0.000691142,0.000772054,-0.000800362,-1.03383,0.000907884,0.0251319,1896,1205,46.3038,-2.78324
679,-181,46.354,2.81921,-0.000928557,-4.70197e-05,-0.000202095,-2.89717e-06,-0.00097268,-1.35584,0.00064749,0.0324989,1903,1205,46.354,-2.81923
686,-181,46.4202,2.85254,0,0,0,0,0,0,0,-1,1910,1205,46.4201,-2.8525
693,-181,36.1301,2.91016,0,0,0,0,0,0,0,-1,1917,1205,36.1302,-2.9102
700,-181,29.5845,6.58398,0,0,0,0,0,0,0,-1,1924,1205,29.5844,-6.58395
707,-181,39.4092,8.3175,0,0,0,0,0,0,0,-1,1931,1205,39.4092,-8.31755
714,-181,39.639,7.75732,-0.00211695,-0.00110286,0.00140016,-0.000120768,-0.00309904,0.959119,0.00202697,0.04883,1938,1205,39.639,-7.75728
721,-181,39.5315,7.31787,-0.00251918,-0.00131961,0.00161036,-0.00020097,-0.00363782,0.963667,0.00236108,0.0475604,1945,1205,39.5314,-7.31792
728,-181,39.0535,7.10608,-0.00255399,-0.00153971,0.00205238,6.72617e-05,-0.00416096,0.906521,0.00279666,0.0252624,1952,1205,39.0534,-7.10602
735,-181,39.0549,6.74219,-0.00254965,-0.00139139,0.00217897,0.000284094,-0.00422513,0.915286,0.00291607,0.0123259,1959,1205,39.0549,-6.74218
742,-181,39.0225,6.37817,-0.00222687,-0.0005278,0.00181654,0.000628044,-0.00338271,1.00412,0.00249102,0.0175745,1966,1205,39.0224,-6.37817
749,-181,39.0222,5.96179,-0.00176797,0.000739106,0.00055722,0.000857374,-0.00188624,1.36165,0.00162073,0.0167823,1973,1205,39.0223,-5.96184
756,-181,39.0133,5.54541,-0.00126317,0.00223901,-0.00138254,0.002719,-0.00174316,-1.23663,0.00259668,0.0119999,1980,1205,39.0133,-5.5454
763,-181,39.027,5.15369,-0.00106178,0.00391493,-0.00398575,0.00612531,-0.00327216,-1.06445,0.00550836,0.0136898,1987,1205,39.027,-5.15365
770,-181,39.1693,4.72241,-0.00135,0.00577339,-0.00757341,0.0105808,-0.00615742,-1.0052,0.00977566,0.0371933,1994,1205,39.1693,-4.72247
777,-181,39.3887,4.20105,0,0,0,0,0,0,0,-1,2001,1205,39.3886,-4.20109
784,-181,34.7717,2.39917,0,0,0,0,0,0,0,-1,2008,1205,34.7717,-2.39918
791,-181,39.9827,1.92883,0,0,0,0,0,0,0,-1,2015,1205,39.9826,-1.92877
798,-181,41.4878,4.06482,0,0,0,0,0,0,0,-1,2022,1205,41.4878,-4.06476
805,-181,0,0,0,0,0,0,0,0,0,-1,2029,1205,0,0
812,-181,0,0,0,0,0,0,0,0,0,-1,2036,1205,0,0
-700,-188,0,0,0,0,0,0,0,0,0,-1,524,1212,0,0
-693,-188,0,0,0,0,0,0,0,0,0,-1,531,1212,0,0
-686,-188,0,0,0,0,0,0,0,0,0,-1,538,1212,0,0
-679,-188,-30.813,-5.01184,0,0,0,0,0,0,0,-1,545,1212,-30.813,5.01184
-672,-188,-29.7315,-3.46033,0,0,0,0,0,0,0,-1,552,1212,-29.7315,3.46035
-665,-188,-25.626,-0.971802,0,0,0,0,0,0,0,-1,559,1212,-25.626,0.971822
-658,-188,-25.3324,-0.28418,0.0920689,0.036853,0.0348026,0.108884,0.0200378,0.450086,0.0669178,0.0497905,566,1212,-25.3324,0.284189
-651,-188,-26.0989,1.04395,0.0666316,0.0246275,0.0254322,0.0786126,0.0126465,0.440259,0.0487429,0.0496576,573,1212,-26.0989,-1.04395
-644,-188,-25.9494,1.5509,0.0462414,0.0158541,0.0178312,0.0544742,0.00762128,0.432547,0.0340611,0.0441092,580,1212,-25.9494,-1.55092
-637,-188,-25.8204,2.06409,0.0302251,0.00965683,0.0117247,0.0355368,0.00434507,0.425379,0.0223839,0.0230145,587,1212,-25.8204,-2.06412
-630,-188,-25.8312,2.47266,0.0171763,0.00417642,0.00650422,0.0198717,0.00148103,0.392863,0.0127827,0.0109789,594,1212,-25.8313,-2.47263
-623,-188,-25.8438,2.90173,0.0074666,0.00128533,0.00277364,0.00852869,0.000223236,0.365698,0.00561286,0.0115881,601,1212,-25.8438,-2.90169
-616,-188,-25.8323,3.33923,0.00230992,0.00046744,3.54072e-05,0.0023106,0.00046676,0.0192077,0.00141079,0.0108716,608,1212,-25.8323,-3.33928
-609,-188,-25.8275,3.81323,0.000298621,0.000555793,-0.00112086,0.00155542,-0.000701009,-0.842509,0.00133352,0.0138431,615,1212,-25.8275,-3.81321
-602,-188,-25.8669,4.27246,6.01939e-05,0.000691387,-0.00191731,0.0023189,-0.00156732,-0.866969,0.00225766,0.0170425,622,1212,-25.8669,-4.27244
-595,-188,-25.9145,4.65833,-0.000119219,0.00056737,-0.0021716,0.00242265,-0.00197449,-0.863791,0.00254308,0.020178,629,1212,-25.9145,-4.65834
-588,-188,-26.0568,5.07202,-0.000530309,0.000753414,-0.00201568,0.00222696,-0.00200385,-0.939539,0.00244379,0.0238692,636,1212,-26.0568,-5.07197
-581,-188,-26.0724,5.49646,-0.00069655,0.000596895,-0.00172126,0.00178892,-0.00188857,-0.965102,0.00212346,0.0232869,643,1212,-26.0725,-5.49646
-574,-188,-26.4365,5.86096,0,0,0,0,0,0,0,-1,650,1212,-26.4365,-5.86092
-567,-188,-19.5786,4.10388,0,0,0,0,0,0,0,-1,657,1212,-19.5785,-4.10383
-560,-188,-23.9507,0.416626,0,0,0,0,0,0,0,-1,664,1212,-23.9508,-0.416602
-553,-188,-33.8521,0.827759,0,0,0,0,0,0,0,-1,671,1212,-33.8521,-0.827806
-546,-188,-33.8853,0.953003,-0.00243706,2.25324e-05,-0.000314139,6.20203e-05,-0.00247655,-1.44575,0.00167209,0.0445732,678,1212,-33.8852,-0.952999
-539,-188,-33.9765,1.01416,-0.00299285,0.000257377,0.00024801,0.000276193,-0.00301166,1.49508,0.00210588,0.0354683,685,1212,-33.9765,-1.01421
-532,-188,-34.1331,1.09094,-0.00353073,0.000164585,0.000620239,0.000265911,-0.00363205,1.40886,0.0025147,0.0406403,692,1212,-34.1331,-1.09089
-525,-188,-34.2374,1.27319,-0.00296097,-0.000703369,0.000180306,-0.00068906,-0.00297528,1.4916,0.00179839,0.0415469,699,1212,-34.2373,-1.27316
-518,-188,-34.0906,1.28943,-0.000487574,-0.00244688,-0.00115875,5.01486e-05,-0.0029846,-0.434478,0.00200666,0.0421079,706,1212,-34.0906,-1.28937
-511,-188,-34.0224,1.10767,0.00413511,-0.00460193,-0.00298026,0.00505487,-0.00552169,-0.299344,0.00610836,0.0396121,713,1212,-34.0224,-1.10766
-504,-188,0,0,0,0,0,0,0,0,0,-1,720,1212,0,0
-497,-188,0,0,0,0,0,0,0,0,0,-1,727,1212,0,0
-490,-188,0,0,0,0,0,0,0,0,0,-1,734,1212,0,0
-483,-188,0,0,0,0,0,0,0,0,0,-1,741,1212,0,0
-476,-188,0,0,0,0,0,0,0,0,0,-1,748,1212,0,0
-469,-188,0,0,0,0,0,0,0,0,0,-1,755,1212,0,0
-462,-188,0,0,0,0,0,0,0,0,0,-1,762,1212,0,0
-455,-188,0,0,0,0,0,0,0,0,0,-1,769,1212,0,0
-448,-188,0,0,0,0,0,0,0,0,0,-1,776,1212,0,0
-441,-188,0,0,0,0,0,0,0,0,0,-1,783,1212,0,0
-434,-188,0,0,0,0,0,0,0,0,0,-1,790,1212,0,0
-427,-188,0,0,0,0,0,0,0,0,0,-1,797,1212,0,0
-420,-188,0,0,0,0,0,0,0,0,0,-1,804,1212,0,0
-413,-188,0,0,0,0,0,0,0,0,0,-1,811,1212,0,0
-406,-188,0,0,0,0,0,0,0,0,0,-1,818,1212,0,0
-399,-188,0,0,0,0,0,0,0,0,0,-1,825,1212,0,0
-392,-188,0,0,0,0,0,0,0,0,0,-1,832,1212,0,0
-385,-188,0,0,0,0,0,0,0,0,0,-1,839,1212,0,0
-378,-188,0,0,0,0,0,0,0,0,0,-1,846,1212,0,0
-371,-188,0,0,0,0,0,0,0,0,0,-1,853,1212,0,0
-364,-188,0,0,0,0,0,0,0,0,0,-1,860,1212,0,0
-357,-188,0,0,0,0,0,0,0,0,0,-1,867,1212,0,0
-350,-188,0,0,0,0,0,0,0,0,0,-1,874,1212,0,0
-343,-188,0,0,0,0,0,0,0,0,0,-1,881,1212,0,0
-336,-188,0,0,0,0,0,0,0,0,0,-1,888,1212,0,0
-329,-188,0,0,0,0,0,0,0,0,0,-1,895,1212,0,0
-322,-188,0,0,0,0,0,0,0,0,0,-1,902,1212,0,0
-315,-188,0,0,0,0,0,0,0,0,0,-1,909,1212,0,0
-308,-188,0,0,0,0,0,0,0,0,0,-1,916,1212,0,0
-301,-188,0,0,0,0,0,0,0,0,0,-1,923,1212,0,0
-294,-188,0,0,0,0,0,0,0,0,0,-1,930,1212,0,0
-287,-188,0,0,0,0,0,0,0,0,0,-1,937,1212,0,0
-280,-188,0,0,0,0,0,0,0,0,0,-1,944,1212,0,0
-273,-188,0,0,0,0,0,0,0,0,0,-1,951,1212,0,0
-266,-188,0,0,0,0,0,0,0,0,0,-1,958,1212,0,0
-259,-188,0,0,0,0,0,0,0,0,0,-1,965,1212,0,0
-252,-188,0,0,0,0,0,0,0,0,0,-1,972,1212,0,0
-245,-188,0,0,0,0,0,0,0,0,0,-1,979,1212,0,0
-238,-188,0,0,0,0,0,0,0,0,0,-1,986,1212,0,0
-231,-188,0,0,0,0,0,0,0,0,0,-1,993,1212,0,0
-224,-188,0,0,0,0,0,0,0,0,0,-1,1000,1212,0,0
-217,-188,0,0,0,0,0,0,0,0,0,-1,1007,1212,0,0
-210,-188,0,0,0,0,0,0,0,0,0,-1,1014,1212,0,0
-203,-188,0,0,0,0,0,0,0,0,0,-1,1021,1212,0,0
-196,-188,0,0,0,0,0,0,0,0,0,-1,1028,1212,0,0
-189,-188,0,0,0,0,0,0,0,0,0,-1,1035,1212,0,0
-182,-188,0,0,0,0,0,0,0,0,0,-1,1042,1212,0,0
-175,-188,0,0,0,0,0,0,0,0,0,-1,1049,1212,0,0
-168,-188,0,0,0,0,0,0,0,0,0,-1,1056,1212,0,0
-161,-188,0,0,0,0,0,0,0,0,0,-1,1063,1212,0,0
-154,-188,0,0,0,0,0,0,0,0,0,-1,1070,1212,0,0
-147,-188,0,0,0,0,0,0,0,0,0,-1,1077,1212,0,0
-140,-188,0,0,0,0,0,0,0,0,0,-1,1084,1212,0,0
-133,-188,0,0,0,0,0,0,0,0,0,-1,1091,1212,0,0
-126,-188,0,0,0,0,0,0,0,0,0,-1,1098,1212,0,0
-119,-188,0,0,0,0,0,0,0,0,0,-1,1105,1212,0,0
-112,-188,0,0,0,0,0,0,0,0,0,-1,1112,1212,0,0
-105,-188,0,0,0,0,0,0,0,0,0,-1,1119,1212,0,0
-98,-188,0,0,0,0,0,0,0,0,0,-1,1126,1212,0,0
-91,-188,0,0,0,0,0,0,0,0,0,-1,1133,1212,0,0
-84,-188,0,0,0,0,0,0,0,0,0,-1,1140,1212,0,0
-77,-188,0,0,0,0,0,0,0,0,0,-1,1147,1212,0,0
-70,-188,0,0,0,0,0,0,0,0,0,-1,1154,1212,0,0
-63,-188,0,0,0,0,0,0,0,0,0,-1,1161,1212,0,0
-56,-188,0,0,0,0,0,0,0,0,0,-1,1168,1212,0,0
-49,-188,0,0,0,0,0,0,0,0,0,-1,1175,1212,0,0
-42,-188,0,0,0,0,0,0,0,0,0,-1,1182,1212,0,0
-35,-188,0,0,0,0,0,0,0,0,0,-1,1189,1212,0,0
-28,-188,0,0,0,0,0,0,0,0,0,-1,1196,1212,0,0
-21,-188,0,0,0,0,0,0,0,0,0,-1,1203,1212,0,0
-14,-188,0,0,0,0,0,0,0,0,0,-1,1210,1212,0,0
-7,-188,0,0,0,0,0,0,0,0,0,-1,1217,1212,0,0
0,-188,0,0,0,0,0,0,0,0,0,-1,1224,1212,0,0
7,-188,0,0,0,0,0,0,0,0,0,-1,1231,1212,0,0
14,-188,0,0,0,0,0,0,0,0,0,-1,1238,1212,0,0
21,-188,0,0,0,0,0,0,0,0,0,-1,1245,1212,0,0
28,-188,0,0,0,0,0,0,0,0,0,-1,1252,1212,0,0
35,-188,0,0,0,0,0,0,0,0,0,-1,1259,1212,0,0
42,-188,0,0,0,0,0,0,0,0,0,-1,1266,1212,0,0
49,-188,0,0,0,0,0,0,0,0,0,-1,1273,1212,0,0
56,-188,0,0,0,0,0,0,0,0,0,-1,1280,1212,0,0
63,-188,0,0,0,0,0,0,0,0,0,-1,1287,1212,0,0
70,-188,0,0,0,0,0,0,0,0,0,-1,1294,1212,0,0
77,-188,0,0,0,0,0,0,0,0,0,-1,1301,1212,0,0
84,-188,0,0,0,0,0,0,0,0,0,-1,1308,1212,0,0
91,-188,0,0,0,0,0,0,0,0,0,-1,1315,1212,0,0
98,-188,0,0,0,0,0,0,0,0,0,-1,1322,1212,0,0
105,-188,0,0,0,0,0,0,0,0,0,-1,1329,1212,0,0
112,-188,0,0,0,0,0,0,0,0,0,-1,1336,1212,0,0
119,-188,0,0,0,0,0,0,0,0,0,-1,1343,1212,0,0
126,-188,0,0,0,0,0,0,0,0,0,-1,1350,1212,0,0
133,-188,0,0,0,0,0,0,0,0,0,-1,1357,1212,0,0
140,-188,0,0,0,0,0,0,0,0,0,-1,1364,1212,0,0
147,-188,0,0,0,0,0,0,0,0,0,-1,1371,1212,0,0
154,-188,0,0,0,0,0,0,0,0,0,-1,1378,1212,0,0
161,-188,0,0,0,0,0,0,0,0,0,-1,1385,1212,0,0
168,-188,0,0,0,0,0,0,0,0,0,-1,1392,1212,0,0
175,-188,0,0,0,0,0,0,0,0,0,-1,1399,1212,0,0
182,-188,0,0,0,0,0,0,0,0,0,-1,1406,1212,0,0
189,-188,0,0,0,0,0,0,0,0,0,-1,1413,1212,0,0
196,-188,0,0,0,0,0,0,0,0,0,-1,1420,1212,0,0
203,-188,0,0,0,0,0,0,0,0,0,-1,1427,1212,0,0
210,-188,0,0,0,0,0,0,0,0,0,-1,1434,1212,0,0
217,-188,0,0,0,0,0,0,0,0,0,-1,1441,1212,0,0
224,-188,0,0,0,0,0,0,0,0,0,-1,1448,1212,0,0
231,-188,0,0,0,0,0,0,0,0,0,-1,1455,1212,0,0
238,-188,0,0,0,0,0,0,0,0,0,-1,1462,1212,0,0
245,-188,0,0,0,0,0,0,0,0,0,-1,1469,1212,0,0
252,-188,0,0,0,0,0,0,0,0,0,-1,1476,1212,0,0
259,-188,0,0,0,0,0,0,0,0,0,-1,1483,1212,0,0
266,-188,0,0,0,0,0,0,0,0,0,-1,1490,1212,0,0
273,-188,0,0,0,0,0,0,0,0,0,-1,1497,1212,0,0
280,-188,0,0,0,0,0,0,0,0,0,-1,1504,1212,0,0
287,-188,0,0,0,0,0,0,0,0,0,-1,1511,1212,0,0
294,-188,0,0,0,0,0,0,0,0,0,-1,1518,1212,0,0
301,-188,0,0,0,0,0,0,0,0,0,-1,1525,1212,0,0
308,-188,0,0,0,0,0,0,0,0,0,-1,1532,1212,0,0
315,-188,0,0,0,0,0,0,0,0,0,-1,1539,1212,0,0
322,-188,0,0,0,0,0,0,0,0,0,-1,1546,1212,0,0
329,-188,0,0,0,0,0,0,0,0,0,-1,1553,1212,0,0
336,-188,0,0,0,0,0,0,0,0,0,-1,1560,1212,0,0
343,-188,0,0,0,0,0,0,0,0,0,-1,1567,1212,0,0
350,-188,0,0,0,0,0,0,0,0,0,-1,1574,1212,0,0
357,-188,0,0,0,0,0,0,0,0,0,-1,1581,1212,0,0
364,-188,0,0,0,0,0,0,0,0,0,-1,1588,1212,0,0
371,-188,0,0,0,0,0,0,0,0,0,-1,1595,1212,0,0
378,-188,0,0,0,0,0,0,0,0,0,-1,1602,1212,0,0
385,-188,0,0,0,0,0,0,0,0,0,-1,1609,1212,0,0
392,-188,0,0,0,0,0,0,0,0,0,-1,1616,1212,0,0
399,-188,0,0,0,0,0,0,0,0,0,-1,1623,1212,0,0
406,-188,0,0,0,0,0,0,0,0,0,-1,1630,1212,0,0
413,-188,0,0,0,0,0,0,0,0,0,-1,1637,1212,0,0
420,-188,0,0,0,0,0,0,0,0,0,-1,1644,1212,0,0
427,-188,0,0,0,0,0,0,0,0,0,-1,1651,1212,0,0
434,-188,0,0,0,0,0,0,0,0,0,-1,1658,1212,0,0
441,-188,0,0,0,0,0,0,0,0,0,-1,1665,1212,0,0
448,-188,0,0,0,0,0,0,0,0,0,-1,1672,1212,0,0
455,-188,0,0,0,0,0,0,0,0,0,-1,1679,1212,0,0
462,-188,0,0,0,0,0,0,0,0,0,-1,1686,1212,0,0
469,-188,0,0,0,0,0,0,0,0,0,-1,1693,1212,0,0
476,-188,0,0,0,0,0,0,0,0,0,-1,1700,1212,0,0
483,-188,0,0,0,0,0,0,0,0,0,-1,1707,1212,0,0
490,-188,0,0,0,0,0,0,0,0,0,-1,1714,1212,0,0
497,-188,0,0,0,0,0,0,0,0,0,-1,1721,1212,0,0
504,-188,0,0,0,0,0,0,0,0,0,-1,1728,1212,0,0
511,-188,0,0,0,0,0,0,0,0,0,-1,1735,1212,0,0
518,-188,0,0,0,0,0,0,0,0,0,-1,1742,1212,0,0
525,-188,0,0,0,0,0,0,0,0,0,-1,1749,1212,0,0
532,-188,0,0,0,0,0,0,0,0,0,-1,1756,1212,0,0
539,-188,0,0,0,0,0,0,0,0,0,-1,1763,1212,0,0
546,-188,0,0,0,0,0,0,0,0,0,-1,1770,1212,0,0
553,-188,0,0,0,0,0,0,0,0,0,-1,1777,1212,0,0
560,-188,0,0,0,0,0,0,0,0,0,-1,1784,1212,0,0
567,-188,0,0,0,0,0,0,0,0,0,-1,1791,1212,0,0
574,-188,0,0,0,0,0,0,0,0,0,-1,1798,1212,0,0
581,-188,0,0,0,0,0,0,0,0,0,-1,1805,1212,0,0
588,-188,0,0,0,0,0,0,0,0,0,-1,1812,1212,0,0
595,-188,0,0,0,0,0,0,0,0,0,-1,1819,1212,0,0
602,-188,0,0,0,0,0,0,0,0,0,-1,1826,1212,0,0
609,-188,0,0,0,0,0,0,0,0,0,-1,1833,1212,0,0
616,-188,0,0,0,0,0,0,0,0,0,-1,1840,1212,0,0
623,-188,0,0,0,0,0,0,0,0,0,-1,1847,1212,0,0
630,-188,46.3639,2.53723,0,0,0,0,0,0,0,-1,1854,1212,46.3638,-2.5372
637,-188,46.2305,2.86328,-0.00313619,-0.000500166,-0.000726533,-0.000313184,-0.00332317,-1.3189,0.00211878,0.0406555,1861,1212,46.2305,-2.86324
644,-188,46.2285,2.81348,-0.00235313,0.000209634,-0.000943515,0.000519529,-0.00266303,-1.25345,0.00197148,0.0373847,1868,1212,46.2285,-2.81342
651,-188,46.2642,2.79822,-0.00162113,0.000726653,-0.000983223,0.00108402,-0.00197849,-1.22218,0.0017931,0.0314011,1875,1212,46.2641,-2.79816
658,-188,46.27,2.86853,-0.000826872,0.000900067,-0.00112152,0.00145201,-0.00137882,-1.11346,0.00163456,0.0294426,1882,1212,46.2701,-2.86857
665,-188,46.2462,2.8584,-0.000438286,0.000531515,-0.000965484,0.00112703,-0.0010338,-1.01812,0.00124794,0.0299298,1889,1212,46.2462,-2.85835
672,-188,46.2784,2.79614,-0.000553085,-1.18923e-05,-0.000498831,0.00028501,-0.000849988,-1.03392,0.000681816,0.0259441,1896,1212,46.2784,-2.79619
679,-188,46.2523,2.72852,-0.000928583,-0.000307728,-0.000107634,-0.000289597,-0.000946713,-1.40392,0.000560146,0.0499762,1903,1212,46.2524,-2.72849
686,-188,46.2593,2.7135,0,0,0,0,0,0,0,-1,1910,1212,46.2593,-2.71346
693,-188,35.9054,2.18042,0,0,0,0,0,0,0,-1,1917,1212,35.9054,-2.18038
700,-188,38.349,8.25134,0,0,0,0,0,0,0,-1,1924,1212,38.3489,-8.2514
707,-188,38.817,8.47742,0,0,0,0,0,0,0,-1,1931,1212,38.8171,-8.47739
714,-188,39.0154,7.91064,-0.00196686,-0.00125755,0.00135315,-0.000213349,-0.00301106,0.913562,0.00194017,0.0339182,1938,1212,39.0154,-7.91059
721,-188,38.8293,7.57117,-0.0023788,-0.00152347,0.00157265,-0.000321372,-0.0035809,0.918157,0.00228768,0.0362555,1945,1212,38.8293,-7.57117
728,-188,38.6493,7.14478,-0.00234707,-0.00171969,0.00198472,-2.4023e-05,-0.00404274,0.863776,0.00268719,0.012587,1952,1212,38.6493,-7.14473
735,-188,38.6396,6.74072,-0.00222941,-0.00149293,0.00199709,0.000169586,-0.00389193,0.876569,0.00265295,0.0129241,1959,1212,38.6397,-6.74074
742,-188,38.5945,6.35059,-0.0017613,-0.00062394,0.00151739,0.00042783,-0.00281307,0.964686,0.00203305,0.0146774,1966,1212,38.5945,-6.35063
749,-188,38.6016,5.97546,-0.0011422,0.00057738,0.000317761,0.00063422,-0.00119904,1.39379,0.00107505,0.0151569,1973,1212,38.6015,-5.97543
756,-188,38.6091,5.55676,-0.000442552,0.00191079,-0.00146498,0.00261314,-0.0011449,-1.12374,0.00222422,0.0134697,1980,1212,38.6091,-5.55677
763,-188,38.6188,5.14355,4.85315e-05,0.003361,-0.00390782,0.00594907,-0.00253955,-0.985836,0.00503096,0.0163744,1987,1212,38.6188,-5.14361
770,-188,38.634,4.68079,6.12007e-05,0.00492288,-0.00733011,0.0102147,-0.00523062,-0.945504,0.00907081,0.0310644,1994,1212,38.6341,-4.68076
777,-188,38.722,4.19177,0,0,0,0,0,0,0,-1,2001,1212,38.7221,-4.19178
784,-188,34.7103,1.6665,0,0,0,0,0,0,0,-1,2008,1212,34.7103,-1.66656
791,-188,38.8401,0.969482,0,0,0,0,0,0,0,-1,2015,1212,38.8401,-0.969542
798,-188,38.8203,2.93079,0,0,0,0,0,0,0,-1,2022,1212,38.8204,-2.93082
805,-188,0,0,0,0,0,0,0,0,0,-1,2029,1212,0,0
812,-188,0,0,0,0,0,0,0,0,0,-1,2036,1212,0,0
-700,-195,0,0,0,0,0,0,0,0,0,-1,524,1219,0,0
-693,-195,0,0,0,0,0,0,0,0,0,-1,531,1219,0,0
-686,-195,0,0,0,0,0,0,0,0,0,-1,538,1219,0,0
-679,-195,-30.479,-6.07251,0,0,0,0,0,0,0,-1,545,1219,-30.479,6.07256
-672,-195,-29.352,-4.50867,0,0,0,0,0,0,0,-1,552,1219,-29.352,4.50868
-665,-195,-26.0161,1.22034,0,0,0,0,0,0,0,-1,559,1219,-26.0161,-1.22028
-658,-195,-25.8878,1.30847,0.088119,0.0311816,0.0329125,0.103167,0.0161337,0.428834,0.0640807,0.048187,566,1219,-25.8877,-1.3085
-651,-195,-25.8515,1.3241,0.064082,0.0202532,0.0241755,0.0747973,0.00953788,0.417209,0.0470092,0.0445574,573,1219,-25.8515,-1.32411
-644,-195,-25.4788,1.68494,0.0447178,0.0126088,0.01706,0.0520895,0.00523701,0.407876,0.033119,0.0411008,580,1219,-25.4788,-1.68498
-637,-195,-25.2328,2.14709,0.0293479,0.0073575,0.0113034,0.0341218,0.00258367,0.39961,0.0219374,0.0226775,587,1219,-25.2328,-2.14709
-630,-195,-25.3639,2.48572,0.0167109,0.00251105,0.00630868,0.0191088,0.000113164,0.363229,0.0127016,0.0082829,594,1219,-25.3639,-2.48566
-623,-195,-25.3788,2.91492,0.00764378,0.000240838,0.0028,0.00858353,-0.000698909,0.32381,0.00596898,0.00822229,601,1219,-25.3788,-2.91487
-616,-195,-25.363,3.36865,0.00286487,-0.000135225,0.000245756,0.00288487,-0.000155223,0.0811948,0.00197702,0.0102101,608,1219,-25.363,-3.36864
-609,-195,-25.3711,3.83582,0.00080185,0.000207313,-0.000891545,0.00144438,-0.000435217,-0.624479,0.00113613,0.0187012,615,1219,-25.3711,-3.83584
-602,-195,-25.4326,4.22009,0.000534921,0.000699895,-0.00179119,0.00241049,-0.00117568,-0.808408,0.00211099,0.022453,622,1219,-25.4326,-4.22008
-595,-195,-25.4783,4.66443,0.00040718,0.000683663,-0.00211159,0.00266153,-0.00157069,-0.818085,0.00247038,0.0188107,629,1219,-25.4783,-4.6644
-588,-195,-25.471,5.16516,-2.73951e-05,0.000922117,-0.00187664,0.00238312,-0.0014884,-0.90929,0.00225503,0.0209865,636,1219,-25.471,-5.16521
-581,-195,-25.5331,5.46777,-0.000339722,0.000776893,-0.00146596,0.00178726,-0.00135009,-0.967342,0.0018172,0.0322179,643,1219,-25.5331,-5.46779
-574,-195,-26.0752,5.63818,0,0,0,0,0,0,0,-1,650,1219,-26.0752,-5.63814
-567,-195,-20.6388,3.78369,0,0,0,0,0,0,0,-1,657,1219,-20.6388,-3.78369
-560,-195,-20.878,2.10388,0,0,0,0,0,0,0,-1,664,1219,-20.878,-2.10385
-553,-195,-33.462,1.11926,0,0,0,0,0,0,0,-1,671,1219,-33.462,-1.11925
-546,-195,-33.8841,0.974854,0,0,0,0,0,0,0,-1,678,1219,-33.8841,-0.974891
-539,-195,-33.925,1.05554,-0.00362065,0.00112137,0.000703608,0.00122356,-0.00372284,1.42656,0.00297484,0.0395705,685,1219,-33.925,-1.0555
-532,-195,-34.129,1.10791,-0.00455237,0.00138933,0.00104006,0.00156612,-0.00472917,1.40242,0.00378443,0.0354316,692,1219,-34.129,-1.10789
-525,-195,-34.1832,1.31299,-0.0047943,0.00112338,0.000787466,0.00122638,-0.0048973,1.44074,0.00374127,0.0397981,699,1219,-34.1831,-1.31304
-518,-195,-34.2191,1.39172,-0.00319548,-0.000171119,-0.000383252,-0.000123308,-0.00324329,-1.44669,0.00212229,0.042642,706,1219,-34.219,-1.39169
-511,-195,-34.0361,1.09241,0.00139731,-0.00238828,-0.00215443,0.0023723,-0.00336328,-0.424977,0.00332788,0.0415792,713,1219,-34.0361,-1.09239
-504,-195,0,0,0,0,0,0,0,0,0,-1,720,1219,0,0
-497,-195,0,0,0,0,0,0,0,0,0,-1,727,1219,0,0
-490,-195,0,0,0,0,0,0,0,0,0,-1,734,1219,0,0
-483,-195,0,0,0,0,0,0,0,0,0,-1,741,1219,0,0
-476,-195,0,0,0,0,0,0,0,0,0,-1,748,1219,0,0
-469,-195,0,0,0,0,0,0,0,0,0,-1,755,1219,0,0
-462,-195,0,0,0,0,0,0,0,0,0,-1,762,1219,0,0
-455,-195,0,0,0,0,0,0,0,0,0,-1,769,1219,0,0
-448,-195,0,0,0,0,0,0,0,0,0,-1,776,1219,0,0
-441,-195,0,0,0,0,0,0,0,0,0,-1,783,1219,0,0
-434,-195,0,0,0,0,0,0,0,0,0,-1,790,1219,0,0
-427,-195,0,0,0,0,0,0,0,0,0,-1,797,1219,0,0
-420,-195,0,0,0,0,0,0,0,0,0,-1,804,1219,0,0
-413,-195,0,0,0,0,0,0,0,0,0,-1,811,1219,0,0
-406,-195,0,0,0,0,0,0,0,0,0,-1,818,1219,0,0
-399,-195,0,0,0,0,0,0,0,0,0,-1,825,1219,0,0
-392,-195,0,0,0,0,0,0,0,0,0,-1,832,1219,0,0
-385,-195,0,0,0,0,0,0,0,0,0,-1,839,1219,0,0
-378,-195,0,0,0,0,0,0,0,0,0,-1,846,1219,0,0
-371,-195,0,0,0,0,0,0,0,0,0,-1,853,1219,0,0
-364,-195,0,0,0,0,0,0,0,0,0,-1,860,1219,0,0
-357,-195,0,0,0,0,0,0,0,0,0,-1,867,1219,0,0
-350,-195,0,0,0,0,0,0,0,0,0,-1,874,1219,0,0
-343,-195,0,0,0,0,0,0,0,0,0,-1,881,1219,0,0
-336,-195,0,0,0,0,0,0,0,0,0,-1,888,1219,0,0
-329,-195,0,0,0,0,0,0,0,0,0,-1,895,1219,0,0
-322,-195,0,0,0,0,0,0,0,0,0,-1,902,1219,0,0
-315,-195,0,0,0,0,0,0,0,0,0,-1,909,1219,0,0
-308,-195,0,0,0,0,0,0,0,0,0,-1,916,1219,0,0
-301,-195,0,0,0,0,0,0,0,0,0,-1,923,1219,0,0
-294,-195,0,0,0,0,0,0,0,0,0,-1,930,1219,0,0
-287,-195,0,0,0,0,0,0,0,0,0,-1,937,1219,0,0
-280,-195,0,0,0,0,0,0,0,0,0,-1,944,1219,0,0
-273,-195,0,0,0,0,0,0,0,0,0,-1,951,1219,0,0
-266,-195,0,0,0,0,0,0,0,0,0,-1,958,1219,0,0
-259,-195,0,0,0,0,0,0,0,0,0,-1,965,1219,0,0
-252,-195,0,0,0,0,0,0,0,0,0,-1,972,1219,0,0
-245,-195,0,0,0,0,0,0,0,0,0,-1,979,1219,0,0
-238,-195,0,0,0,0,0,0,0,0,0,-1,986,1219,0,0
-231,-195,0,0,0,0,0,0,0,0,0,-1,993,1219,0,0
-224,-195,0,0,0,0,0,0,0,0,0,-1,1000,1219,0,0
-217,-195,0,0,0,0,0,0,0,0,0,-1,1007,1219,0,0
-210,-195,0,0,0,0,0,0,0,0,0,-1,1014,1219,0,0
-203,-195,0,0,0,0,0,0,0,0,0,-1,1021,1219,0,0
-196,-195,0,0,0,0,0,0,0,0,0,-1,1028,1219,0,0
-189,-195,0,0,0,0,0,0,0,0,0,-1,1035,1219,0,0
-182,-195,0,0,0,0,0,0,0,0,0,-1,1042,1219,0,0
-175,-195,0,0,0,0,0,0,0,0,0,-1,1049,1219,0,0
-168,-195,0,0,0,0,0,0,0,0,0,-1,1056,1219,0,0
-161,-195,0,0,0,0,0,0,0,0,0,-1,1063,1219,0,0
-154,-195,0,0,0,0,0,0,0,0,0,-1,1070,1219,0,0
-147,-195,0,0,0,0,0,0,0,0,0,-1,1077,1219,0,0
-140,-195,0,0,0,0,0,0,0,0,0,-1,1084,1219,0,0
-133,-195,0,0,0,0,0,0,0,0,0,-1,1091,1219,0,0
-126,-195,0,0,0,0,0,0,0,0,0,-1,1098,1219,0,0
-119,-195,0,0,0,0,0,0,0,0,0,-1,1105,1219,0,0
-112,-195,0,0,0,0,0,0,0,0,0,-1,1112,1219,0,0
-105,-195,0,0,0,0,0,0,0,0,0,-1,1119,1219,0,0
-98,-195,0,0,0,0,0,0,0,0,0,-1,1126,1219,0,0
-91,-195,0,0,0,0,0,0,0,0,0,-1,1133,1219,0,0
-84,-195,0,0,0,0,0,0,0,0,0,-1,1140,1219,0,0
-77,-195,0,0,0,0,0,0,0,0,0,-1,1147,1219,0,0
-70,-195,0,0,0,0,0,0,0,0,0,-1,1154,1219,0,0
-63,-195,0,0,0,0,0,0,0,0,0,-1,1161,1219,0,0
-56,-195,0,0,0,0,0,0,0,0,0,-1,1168,1219,0,0
-49,-195,0,0,0,0,0,0,0,0,0,-1,1175,1219,0,0
-42,-195,0,0,0,0,0,0,0,0,0,-1,1182,1219,0,0
-35,-195,0,0,0,0,0,0,0,0,0,-1,1189,1219,0,0
-28,-195,0,0,0,0,0,0,0,0,0,-1,1196,1219,0,0
-21,-195,0,0,0,0,0,0,0,0,0,-1,1203,1219,0,0
-14,-195,0,0,0,0,0,0,0,0,0,-1,1210,1219,0,0
-7,-195,0,0,0,0,0,0,0,0,0,-1,1217,1219,0,0
0,-195,0,0,0,0,0,0,0,0,0,-1,1224,1219,0,0
7,-195,0,0,0,0,0,0,0,0,0,-1,1231,1219,0,0
14,-195,0,0,0,0,0,0,0,0,0,-1,1238,1219,0,0
21,-195,0,0,0,0,0,0,0,0,0,-1,1245,1219,0,0
28,-195,0,0,0,0,0,0,0,0,0,-1,1252,1219,0,0
35,-195,0,0,0,0,0,0,0,0,0,-1,1259,1219,0,0
42,-195,0,0,0,0,0,0,0,0,0,-1,1266,1219,0,0
49,-195,0,0,0,0,0,0,0,0,0,-1,1273,1219,0,0
56,-195,0,0,0,0,0,0,0,0,0,-1,1280,1219,0,0
63,-195,0,0,0,0,0,0,0,0,0,-1,1287,1219,0,0
70,-195,0,0,0,0,0,0,0,0,0,-1,1294,1219,0,0
77,-195,0,0,0,0,0,0,0,0,0,-1,1301,1219,0,0
84,-195,0,0,0,0,0,0,0,0,0,-1,1308,1219,0,0
91,-195,0,0,0,0,0,0,0,0,0,-1,1315,1219,0,0
98,-195,0,0,0,0,0,0,0,0,0,-1,1322,1219,0,0
105,-195,0,0,0,0,0,0,0,0,0,-1,1329,1219,0,0
112,-195,0,0,0,0,0,0,0,0,0,-1,1336,1219,0,0
119,-195,0,0,0,0,0,0,0,0,0,-1,1343,1219,0,0
126,-195,0,0,0,0,0,0,0,0,0,-1,1350,1219,0,0
133,-195,0,0,0,0,0,0,0,0,0,-1,1357,1219,0,0
140,-195,0,0,0,0,0,0,0,0,0,-1,1364,1219,0,0
147,-195,0,0,0,0,0,0,0,0,0,-1,1371,1219,0,0
154,-195,0,0,0,0,0,0,0,0,0,-1,1378,1219,0,0
161,-195,0,0,0,0,0,0,0,0,0,-1,1385,1219,0,0
168,-195,0,0,0,0,0,0,0,0,0,-1,1392,1219,0,0
175,-195,0,0,0,0,0,0,0,0,0,-1,1399,1219,0,0
182,-195,0,0,0,0,0,0,0,0,0,-1,1406,1219,0,0
189,-195,0,0,0,0,0,0,0,0,0,-1,1413,1219,0,0
196,-195,0,0,0,0,0,0,0,0,0,-1,1420,1219,0,0
203,-195,0,0,0,0,0,0,0,0,0,-1,1427,1219,0,0
210,-195,0,0,0,0,0,0,0,0,0,-1,1434,1219,0,0
217,-195,0,0,0,0,0,0,0,0,0,-1,1441,1219,0,0
224,-195,0,0,0,0,0,0,0,0,0,-1,1448,1219,0,0
231,-195,0,0,0,0,0,0,0,0,0,-1,1455,1219,0,0
238,-195,0,0,0,0,0,0,0,0,0,-1,1462,1219,0,0
245,-195,0,0,0,0,0,0,0,0,0,-1,1469,1219,0,0
252,-195,0,0,0,0,0,0,0,0,0,-1,1476,1219,0,0
259,-195,0,0,0,0,0,0,0,0,0,-1,1483,1219,0,0
266,-195,0,0,0,0,0,0,0,0,0,-1,1490,1219,0,0
273,-195,0,0,0,0,0,0,0,0,0,-1,1497,1219,0,0
280,-195,0,0,0,0,0,0,0,0,0,-1,1504,1219,0,0
287,-195,0,0,0,0,0,0,0,0,0,-1,1511,1219,0,0
294,-195,0,0,0,0,0,0,0,0,0,-1,1518,1219,0,0
301,-195,0,0,0,0,0,0,0,0,0,-1,1525,1219,0,0
308,-195,0,0,0,0,0,0,0,0,0,-1,1532,1219,0,0
315,-195,0,0,0,0,0,0,0,0,0,-1,1539,1219,0,0
322,-195,0,0,0,0,0,0,0,0,0,-1,1546,1219,0,0
329,-195,0,0,0,0,0,0,0,0,0,-1,1553,1219,0,0
336,-195,0,0,0,0,0,0,0,0,0,-1,1560,1219,0,0
343,-195,0,0,0,0,0,0,0,0,0,-1,1567,1219,0,0
350,-195,0,0,0,0,0,0,0,0,0,-1,1574,1219,0,0
357,-195,0,0,0,0,0,0,0,0,0,-1,1581,1219,0,0
364,-195,0,0,0,0,0,0,0,0,0,-1,1588,1219,0,0
371,-195,0,0,0,0,0,0,0,0,0,-1,1595,1219,0,0
378,-195,0,0,0,0,0,0,0,0,0,-1,1602,1219,0,0
385,-195,0,0,0,0,0,0,0,0,0,-1,1609,1219,0,0
392,-195,0,0,0,0,0,0,0,0,0,-1,1616,1219,0,0
399,-195,0,0,0,0,0,0,0,0,0,-1,1623,1219,0,0
406,-195,0,0,0,0,0,0,0,0,0,-1,1630,1219,0,0
413,-195,0,0,0,0,0,0,0,0,0,-1,1637,1219,0,0
420,-195,0,0,0,0,0,0,0,0,0,-1,1644,1219,0,0
427,-195,0,0,0,0,0,0,0,0,0,-1,1651,1219,0,0
434,-195,0,0,0,0,0,0,0,0,0,-1,1658,1219,0,0
441,-195,0,0,0,0,0,0,0,0,0,-1,1665,1219,0,0
448,-195,0,0,0,0,0,0,0,0,0,-1,1672,1219,0,0
455,-195,0,0,0,0,0,0,0,0,0,-1,1679,1219,0,0
462,-195,0,0,0,0,0,0,0,0,0,-1,1686,1219,0,0
469,-195,0,0,0,0,0,0,0,0,0,-1,1693,1219,0,0
476,-195,0,0,0,0,0,0,0,0,0,-1,1700,1219,0,0
483,-195,0,0,0,0,0,0,0,0,0,-1,1707,1219,0,0
490,-195,0,0,0,0,0,0,0,0,0,-1,1714,1219,0,0
497,-195,0,0,0,0,0,0,0,0,0,-1,1721,1219,0,0
504,-195,0,0,0,0,0,0,0,0,0,-1,1728,1219,0,0
511,-195,0,0,0,0,0,0,0,0,0,-1,1735,1219,0,0
518,-195,0,0,0,0,0,0,0,0,0,-1,1742,1219,0,0
525,-195,0,0,0,0,0,0,0,0,0,-1,1749,1219,0,0
532,-195,0,0,0,0,0,0,0,0,0,-1,1756,1219,0,0
539,-195,0,0,0,0,0,0,0,0,0,-1,1763,1219,0,0
546,-195,0,0,0,0,0,0,0,0,0,-1,1770,1219,0,0
553,-195,0,0,0,0,0,0,0,0,0,-1,1777,1219,0,0
560,-195,0,0,0,0,0,0,0,0,0,-1,1784,1219,0,0
567,-195,0,0,0,0,0,0,0,0,0,-1,1791,1219,0,0
574,-195,0,0,0,0,0,0,0,0,0,-1,1798,1219,0,0
581,-195,0,0,0,0,0,0,0,0,0,-1,1805,1219,0,0
588,-195,0,0,0,0,0,0,0,0,0,-1,1812,1219,0,0
595,-195,0,0,0,0,0,0,0,0,0,-1,1819,1219,0,0
602,-195,0,0,0,0,0,0,0,0,0,-1,1826,1219,0,0
609,-195,0,0,0,0,0,0,0,0,0,-1,1833,1219,0,0
616,-195,0,0,0,0,0,0,0,0,0,-1,1840,1219,0,0
623,-195,0,0,0,0,0,0,0,0,0,-1,1847,1219,0,0
630,-195,46.4407,2.86267,-0.00248377,0.000192371,-0.000889951,0.0004613,-0.0027527,-1.27734,0.00200665,0.0411584,1854,1219,46.4406,-2.86272
637,-195,46.3607,2.89368,-0.00250937,0.000189861,-0.000691376,0.000356644,-0.00267615,-1.33409,0.00191409,0.039916,1861,1219,46.3607,-2.8937
644,-195,46.3235,2.81812,-0.00241174,0.000147755,-0.000455659,0.000226454,-0.00249044,-1.39977,0.0017407,0.036081,1868,1219,46.3234,-2.81814
651,-195,46.2706,2.83899,-0.00202579,8.14726e-05,-0.000271805,0.000115967,-0.00206029,-1.44456,0.00141377,0.0274072,1875,1219,46.2706,-2.83899
658,-195,46.2787,2.89758,-0.0013304,-7.78561e-05,-0.000362199,1.93389e-05,-0.00142759,-1.30863,0.000958241,0.0231343,1882,1219,46.2787,-2.89757
665,-195,46.271,2.86353,-0.000905023,-0.000505554,-0.000277023,-0.000363769,-0.00104681,-1.09774,0.000613673,0.0233327,1889,1219,46.271,-2.86358
672,-195,46.2646,2.67334,-0.000863677,-0.000910227,1.43625e-06,-0.000863633,-0.000910271,0.0308146,0.000591914,0.0375526,1896,1219,46.2647,-2.67339
679,-195,46.1273,2.56445,0,0,0,0,0,0,0,-1,1903,1219,46.1274,-2.56447
686,-195,45.5856,2.31897,0,0,0,0,0,0,0,-1,1910,1219,45.5856,-2.31902
693,-195,24.4368,5.68298,0,0,0,0,0,0,0,-1,1917,1219,24.4368,-5.68293
700,-195,38.6174,8.85315,0,0,0,0,0,0,0,-1,1924,1219,38.6174,-8.85316
707,-195,38.3345,8.40112,0,0,0,0,0,0,0,-1,1931,1219,38.3344,-8.4011
714,-195,38.3142,7.70032,0,0,0,0,0,0,0,-1,1938,1219,38.3142,-7.70028
721,-195,38.2607,7.55872,-0.00200047,-0.00182142,0.00149209,-0.000416169,-0.00340572,0.815363,0.00214525,0.0205286,1945,1219,38.2608,-7.55872
728,-195,38.2507,7.1748,-0.00191478,-0.00189447,0.00187821,-2.63865e-05,-0.00378286,0.788101,0.00251316,0.0115305,1952,1219,38.2508,-7.17484
735,-195,38.2385,6.72693,-0.0016899,-0.00157272,0.00184251,0.000212136,-0.00347475,0.801293,0.00239035,0.012967,1959,1219,38.2385,-6.7269
742,-195,38.2002,6.33435,-0.00108753,-0.000753378,0.00142843,0.000517719,-0.00235862,0.843615,0.0017704,0.0142276,1966,1219,38.2002,-6.33434
749,-195,38.191,5.96448,-0.000289958,0.000254236,0.00050242,0.000553508,-0.00058923,1.03357,0.000659867,0.0142709,1973,1219,38.1911,-5.96448
756,-195,38.1946,5.5813,0.000699663,0.0013372,-0.000960183,0.00203014,6.71705e-06,-0.945667,0.0013512,0.0138074,1980,1219,38.1946,-5.58129
763,-195,38.1968,5.15662,0.00171928,0.00246462,-0.00305982,0.00517438,-0.000990479,-0.845998,0.00382276,0.0183093,1987,1219,38.1967,-5.15662
770,-195,38.1405,4.74622,0.00242163,0.0036049,-0.00608826,0.00913021,-0.00310368,-0.833834,0.00734335,0.0348872,1994,1219,38.1405,-4.7462
777,-195,38.1107,4.34729,0,0,0,0,0,0,0,-1,2001,1219,38.1107,-4.34728
784,-195,40.2747,-0.327393,0,0,0,0,0,0,0,-1,2008,1219,40.2747,0.327416
791,-195,40.3972,1.3114,0,0,0,0,0,0,0,-1,2015,1219,40.3973,-1.31137
798,-195,40.4421,3.11365,0,0,0,0,0,0,0,-1,2022,1219,40.4421,-3.11367
805,-195,0,0,0,0,0,0,0,0,0,-1,2029,1219,0,0
812,-195,0,0,0,0,0,0,0,0,0,-1,2036,1219,0,0
-700,-202,0,0,0,0,0,0,0,0,0,-1,524,1226,0,0
-693,-202,0,0,0,0,0,0,0,0,0,-1,531,1226,0,0
-686,-202,0,0,0,0,0,0,0,0,0,-1,538,1226,0,0
-679,-202,-30.2116,-7.13281,0,0,0,0,0,0,0,-1,545,1226,-30.2116,7.13276
-672,-202,-17.5753,3.65161,0,0,0,0,0,0,0,-1,552,1226,-17.5753,-3.65158
-665,-202,-16.963,4.43872,0,0,0,0,0,0,0,-1,559,1226,-16.963,-4.43867
-658,-202,-25.0456,1.62244,0,0,0,0,0,0,0,-1,566,1226,-25.0456,-1.62246
-651,-202,-25.1566,1.64954,0,0,0,0,0,0,0,-1,573,1226,-25.1565,-1.64954
-644,-202,-24.9782,1.93054,0.0420338,0.00906969,0.0159168,0.0484647,0.00263884,0.383976,0.0314671,0.0465413,580,1226,-24.9782,-1.9305
-637,-202,-24.7566,2.14209,0.0274412,0.00480955,0.0105508,0.0315969,0.000653868,0.375214,0.02085,0.0397889,587,1226,-24.7566,-2.14207
-630,-202,-24.8923,2.47363,0.0154532,0.000723721,0.00587398,0.0175088,-0.0013319,0.336633,0.0121409,0.016228,594,1226,-24.8923,-2.47361
-623,-202,-24.9199,2.90979,0.00725496,-0.000887946,0.00267476,0.00805496,-0.00168795,0.290624,0.00601213,0.00837818,601,1226,-24.9199,-2.90976
-616,-202,-24.9202,3.35449,0.00304167,-0.000792914,0.000439384,0.00309137,-0.000842617,0.112639,0.00239178,0.0089657,608,1226,-24.9202,-3.35452
-609,-202,-24.8794,3.80127,0.00107982,-0.000272922,-0.000596742,0.00130544,-0.000498536,-0.361466,0.00107569,0.022976,615,1226,-24.8794,-3.80129
-602,-202,-24.9676,4.20239,0.000807015,0.0004668,-0.00152654,0.0021729,-0.00089908,-0.72991,0.00182372,0.0232066,622,1226,-24.9676,-4.20244
-595,-202,-25.0181,4.65308,0.000748279,0.000459477,-0.00187794,0.00248736,-0.0012796,-0.747027,0.00221181,0.017667,629,1226,-25.0181,-4.65306
-588,-202,-24.9473,5.15381,0.00037962,0.000710718,-0.00156547,0.00211937,-0.00102903,-0.838077,0.00185371,0.0142778,636,1226,-24.9473,-5.15386
-581,-202,-24.8922,5.47424,-8.39523e-06,0.000605345,-0.0010459,0.00138846,-0.000791512,-0.928095,0.00127424,0.046554,643,1226,-24.8922,-5.47424
-574,-202,-25.0916,5.66431,0,0,0,0,0,0,0,-1,650,1226,-25.0916,-5.66425
-567,-202,-22.1768,4.56995,0,0,0,0,0,0,0,-1,657,1226,-22.1768,-4.56991
-560,-202,-10.929,2.73096,0,0,0,0,0,0,0,-1,664,1226,-10.929,-2.73092
-553,-202,-30.2701,1.474,0,0,0,0,0,0,0,-1,671,1226,-30.2701,-1.47395
-546,-202,-33.8055,1.07629,0,0,0,0,0,0,0,-1,678,1226,-33.8055,-1.07629
-539,-202,-33.8813,1.10803,-0.00412666,0.00189445,0.00115337,0.00210782,-0.00434004,1.38787,0.0037963,0.0454566,685,1226,-33.8814,-1.10802
-532,-202,-34.0356,1.09326,-0.00534529,0.00248896,0.00137145,0.0027221,-0.00557844,1.40241,0.00488599,0.02817,692,1226,-34.0357,-1.09329
-525,-202,-34.1117,1.20459,-0.00621757,0.00278925,0.00116976,0.0029387,-0.00636702,1.44373,0.00549285,0.033659,699,1226,-34.1117,-1.20458
-518,-202,-34.2592,1.40137,-0.00573152,0.00216717,0.00018251,0.00217138,-0.00573573,1.54771,0.00471725,0.0405555,706,1226,-34.2592,-1.40134
-511,-202,-33.9578,1.04297,0,0,0,0,0,0,0,-1,713,1226,-33.9578,-1.04292
-504,-202,0,0,0,0,0,0,0,0,0,-1,720,1226,0,0
-497,-202,0,0,0,0,0,0,0,0,0,-1,727,1226,0,0
-490,-202,0,0,0,0,0,0,0,0,0,-1,734,1226,0,0
-483,-202,0,0,0,0,0,0,0,0,0,-1,741,1226,0,0
-476,-202,0,0,0,0,0,0,0,0,0,-1,748,1226,0,0
-469,-202,0,0,0,0,0,0,0,0,0,-1,755,1226,0,0
-462,-202,0,0,0,0,0,0,0,0,0,-1,762,1226,0,0
-455,-202,0,0,0,0,0,0,0,0,0,-1,769,1226,0,0
-448,-202,0,0,0,0,0,0,0,0,0,-1,776,1226,0,0
-441,-202,0,0,0,0,0,0,0,0,0,-1,783,1226,0,0
-434,-202,0,0,0,0,0,0,0,0,0,-1,790,1226,0,0
-427,-202,0,0,0,0,0,0,0,0,0,-1,797,1226,0,0
-420,-202,0,0,0,0,0,0,0,0,0,-1,804,1226,0,0
-413,-202,0,0,0,0,0,0,0,0,0,-1,811,1226,0,0
-406,-202,0,0,0,0,0,0,0,0,0,-1,818,1226,0,0
-399,-202,0,0,0,0,0,0,0,0,0,-1,825,1226,0,0
-392,-202,0,0,0,0,0,0,0,0,0,-1,832,1226,0,0
-385,-202,0,0,0,0,0,0,0,0,0,-1,839,1226,0,0
-378,-202,0,0,0,0,0,0,0,0,0,-1,846,1226,0,0
-371,-202,0,0,0,0,0,0,0,0,0,-1,853,1226,0,0
-364,-202,0,0,0,0,0,0,0,0,0,-1,860,1226,0,0
-357,-202,0,0,0,0,0,0,0,0,0,-1,867,1226,0,0
-350,-202,0,0,0,0,0,0,0,0,0,-1,874,1226,0,0
-343,-202,0,0,0,0,0,0,0,0,0,-1,881,1226,0,0
-336,-202,0,0,0,0,0,0,0,0,0,-1,888,1226,0,0
-329,-202,0,0,0,0,0,0,0,0,0,-1,895,1226,0,0
-322,-202,0,0,0,0,0,0,0,0,0,-1,902,1226,0,0
-315,-202,0,0,0,0,0,0,0,0,0,-1,909,1226,0,0
-308,-202,0,0,0,0,0,0,0,0,0,-1,916,1226,0,0
-301,-202,0,0,0,0,0,0,0,0,0,-1,923,1226,0,0
-294,-202,0,0,0,0,0,0,0,0,0,-1,930,1226,0,0
-287,-202,0,0,0,0,0,0,0,0,0,-1,937,1226,0,0
-280,-202,0,0,0,0,0,0,0,0,0,-1,944,1226,0,0
-273,-202,0,0,0,0,0,0,0,0,0,-1,951,1226,0,0
-266,-202,0,0,0,0,0,0,0,0,0,-1,958,1226,0,0
-259,-202,0,0,0,0,0,0,0,0,0,-1,965,1226,0,0
-252,-202,0,0,0,0,0,0,0,0,0,-1,972,1226,0,0
-245,-202,0,0,0,0,0,0,0,0,0,-1,979,1226,0,0
-238,-202,0,0,0,0,0,0,0,0,0,-1,986,1226,0,0
-231,-202,0,0,0,0,0,0,0,0,0,-1,993,1226,0,0
-224,-202,0,0,0,0,0,0,0,0,0,-1,1000,1226,0,0
-217,-202,0,0,0,0,0,0,0,0,0,-1,1007,1226,0,0
-210,-202,0,0,0,0,0,0,0,0,0,-1,1014,1226,0,0
-203,-202,0,0,0,0,0,0,0,0,0,-1,1021,1226,0,0
-196,-202,0,0,0,0,0,0,0,0,0,-1,1028,1226,0,0
-189,-202,0,0,0,0,0,0,0,0,0,-1,1035,1226,0,0
-182,-202,0,0,0,0,0,0,0,0,0,-1,1042,1226,0,0
-175,-202,0,0,0,0,0,0,0,0,0,-1,1049,1226,0,0
-168,-202,0,0,0,0,0,0,0,0,0,-1,1056,1226,0,0
-161,-202,0,0,0,0,0,0,0,0,0,-1,1063,1226,0,0
-154,-202,0,0,0,0,0,0,0,0,0,-1,1070,1226,0,0
-147,-202,0,0,0,0,0,0,0,0,0,-1,1077,1226,0,0
-140,-202,0,0,0,0,0,0,0,0,0,-1,1084,1226,0,0
-133,-202,0,0,0,0,0,0,0,0,0,-1,1091,1226,0,0
-126,-202,0,0,0,0,0,0,0,0,0,-1,1098,1226,0,0
-119,-202,0,0,0,0,0,0,0,0,0,-1,1105,1226,0,0
-112,-202,0,0,0,0,0,0,0,0,0,-1,1112,1226,0,0
-105,-202,0,0,0,0,0,0,0,0,0,-1,1119,1226,0,0
-98,-202,0,0,0,0,0,0,0,0,0,-1,1126,1226,0,0
-91,-202,0,0,0,0,0,0,0,0,0,-1,1133,1226,0,0
-84,-202,0,0,0,0,0,0,0,0,0,-1,1140,1226,0,0
-77,-202,0,0,0,0,0,0,0,0,0,-1,1147,1226,0,0
-70,-202,0,0,0,0,0,0,0,0,0,-1,1154,1226,0,0
-63,-202,0,0,0,0,0,0,0,0,0,-1,1161,1226,0,0
-56,-202,0,0,0,0,0,0,0,0,0,-1,1168,1226,0,0
-49,-202,0,0,0,0,0,0,0,0,0,-1,1175,1226,0,0
-42,-202,0,0,0,0,0,0,0,0,0,-1,1182,1226,0,0
-35,-202,0,0,0,0,0,0,0,0,0,-1,1189,1226,0,0
-28,-202,0,0,0,0,0,0,0,0,0,-1,1196,1226,0,0
-21,-202,0,0,0,0,0,0,0,0,0,-1,1203,1226,0,0
-14,-202,0,0,0,0,0,0,0,0,0,-1,1210,1226,0,0
-7,-202,0,0,0,0,0,0,0,0,0,-1,1217,1226,0,0
0,-202,0,0,0,0,0,0,0,0,0,-1,1224,1226,0,0
7,-202,0,0,0,0,0,0,0,0,0,-1,1231,1226,0,0
14,-202,0,0,0,0,0,0,0,0,0,-1,1238,1226,0,0
21,-202,0,0,0,0,0,0,0,0,0,-1,1245,1226,0,0
28,-202,0,0,0,0,0,0,0,0,0,-1,1252,1226,0,0
35,-202,0,0,0,0,0,0,0,0,0,-1,1259,1226,0,0
42,-202,0,0,0,0,0,0,0,0,0,-1,1266,1226,0,0
49,-202,0,0,0,0,0,0,0,0,0,-1,1273,1226,0,0
56,-202,0,0,0,0,0,0,0,0,0,-1,1280,1226,0,0
63,-202,0,0,0,0,0,0,0,0,0,-1,1287,1226,0,0
70,-202,0,0,0,0,0,0,0,0,0,-1,1294,1226,0,0
77,-202,0,0,0,0,0,0,0,0,0,-1,1301,1226,0,0
84,-202,0,0,0,0,0,0,0,0,0,-1,1308,1226,0,0
91,-202,0,0,0,0,0,0,0,0,0,-1,1315,1226,0,0
98,-202,0,0,0,0,0,0,0,0,0,-1,1322,1226,0,0
105,-202,0,0,0,0,0,0,0,0,0,-1,1329,1226,0,0
112,-202,0,0,0,0,0,0,0,0,0,-1,1336,1226,0,0
119,-202,0,0,0,0,0,0,0,0,0,-1,1343,1226,0,0
126,-202,0,0,0,0,0,0,0,0,0,-1,1350,1226,0,0
133,-202,0,0,0,0,0,0,0,0,0,-1,1357,1226,0,0
140,-202,0,0,0,0,0,0,0,0,0,-1,1364,1226,0,0
147,-202,0,0,0,0,0,0,0,0,0,-1,1371,1226,0,0
154,-202,0,0,0,0,0,0,0,0,0,-1,1378,1226,0,0
161,-202,0,0,0,0,0,0,0,0,0,-1,1385,1226,0,0
168,-202,0,0,0,0,0,0,0,0,0,-1,1392,1226,0,0
175,-202,0,0,0,0,0,0,0,0,0,-1,1399,1226,0,0
182,-202,0,0,0,0,0,0,0,0,0,-1,1406,1226,0,0
189,-202,0,0,0,0,0,0,0,0,0,-1,1413,1226,0,0
196,-202,0,0,0,0,0,0,0,0,0,-1,1420,1226,0,0
203,-202,0,0,0,0,0,0,0,0,0,-1,1427,1226,0,0
210,-202,0,0,0,0,0,0,0,0,0,-1,1434,1226,0,0
217,-202,0,0,0,0,0,0,0,0,0,-1,1441,1226,0,0
224,-202,0,0,0,0,0,0,0,0,0,-1,1448,1226,0,0
231,-202,0,0,0,0,0,0,0,0,0,-1,1455,1226,0,0
238,-202,0,0,0,0,0,0,0,0,0,-1,1462,1226,0,0
245,-202,0,0,0,0,0,0,0,0,0,-1,1469,1226,0,0
252,-202,0,0,0,0,0,0,0,0,0,-1,1476,1226,0,0
259,-202,0,0,0,0,0,0,0,0,0,-1,1483,1226,0,0
266,-202,0,0,0,0,0,0,0,0,0,-1,1490,1226,0,0
273,-202,0,0,0,0,0,0,0,0,0,-1,1497,1226,0,0
280,-202,0,0,0,0,0,0,0,0,0,-1,1504,1226,0,0
287,-202,0,0,0,0,0,0,0,0,0,-1,1511,1226,0,0
294,-202,0,0,0,0,0,0,0,0,0,-1,1518,1226,0,0
301,-202,0,0,0,0,0,0,0,0,0,-1,1525,1226,0,0
308,-202,0,0,0,0,0,0,0,0,0,-1,1532,1226,0,0
315,-202,0,0,0,0,0,0,0,0,0,-1,1539,1226,0,0
322,-202,0,0,0,0,0,0,0,0,0,-1,1546,1226,0,0
329,-202,0,0,0,0,0,0,0,0,0,-1,1553,1226,0,0
336,-202,0,0,0,0,0,0,0,0,0,-1,1560,1226,0,0
343,-202,0,0,0,0,0,0,0,0,0,-1,1567,1226,0,0
350,-202,0,0,0,0,0,0,0,0,0,-1,1574,1226,0,0
357,-202,0,0,0,0,0,0,0,0,0,-1,1581,1226,0,0
364,-202,0,0,0,0,0,0,0,0,0,-1,1588,1226,0,0
371,-202,0,0,0,0,0,0,0,0,0,-1,1595,1226,0,0
378,-202,0,0,0,0,0,0,0,0,0,-1,1602,1226,0,0
385,-202,0,0,0,0,0,0,0,0,0,-1,1609,1226,0,0
392,-202,0,0,0,0,0,0,0,0,0,-1,1616,1226,0,0
399,-202,0,0,0,0,0,0,0,0,0,-1,1623,1226,0,0
406,-202,0,0,0,0,0,0,0,0,0,-1,1630,1226,0,0
413,-202,0,0,0,0,0,0,0,0,0,-1,1637,1226,0,0
420,-202,0,0,0,0,0,0,0,0,0,-1,1644,1226,0,0
427,-202,0,0,0,0,0,0,0,0,0,-1,1651,1226,0,0
434,-202,0,0,0,0,0,0,0,0,0,-1,1658,1226,0,0
441,-202,0,0,0,0,0,0,0,0,0,-1,1665,1226,0,0
448,-202,0,0,0,0,0,0,0,0,0,-1,1672,1226,0,0
455,-202,0,0,0,0,0,0,0,0,0,-1,1679,1226,0,0
462,-202,0,0,0,0,0,0,0,0,0,-1,1686,1226,0,0
469,-202,0,0,0,0,0,0,0,0,0,-1,1693,1226,0,0
476,-202,0,0,0,0,0,0,0,0,0,-1,1700,1226,0,0
483,-202,0,0,0,0,0,0,0,0,0,-1,1707,1226,0,0
490,-202,0,0,0,0,0,0,0,0,0,-1,1714,1226,0,0
497,-202,0,0,0,0,0,0,0,0,0,-1,1721,1226,0,0
504,-202,0,0,0,0,0,0,0,0,0,-1,1728,1226,0,0
511,-202,0,0,0,0,0,0,0,0,0,-1,1735,1226,0,0
518,-202,0,0,0,0,0,0,0,0,0,-1,1742,1226,0,0
525,-202,0,0,0,0,0,0,0,0,0,-1,1749,1226,0,0
532,-202,0,0,0,0,0,0,0,0,0,-1,1756,1226,0,0
539,-202,0,0,0,0,0,0,0,0,0,-1,1763,1226,0,0
546,-202,0,0,0,0,0,0,0,0,0,-1,1770,1226,0,0
553,-202,0,0,0,0,0,0,0,0,0,-1,1777,1226,0,0
560,-202,0,0,0,0,0,0,0,0,0,-1,1784,1226,0,0
567,-202,0,0,0,0,0,0,0,0,0,-1,1791,1226,0,0
574,-202,0,0,0,0,0,0,0,0,0,-1,1798,1226,0,0
581,-202,0,0,0,0,0,0,0,0,0,-1,1805,1226,0,0
588,-202,0,0,0,0,0,0,0,0,0,-1,1812,1226,0,0
595,-202,0,0,0,0,0,0,0,0,0,-1,1819,1226,0,0
602,-202,0,0,0,0,0,0,0,0,0,-1,1826,1226,0,0
609,-202,0,0,0,0,0,0,0,0,0,-1,1833,1226,0,0
616,-202,0,0,0,0,0,0,0,0,0,-1,1840,1226,0,0
623,-202,0,0,0,0,0,0,0,0,0,-1,1847,1226,0,0
630,-202,46.379,2.95532,-0.00108053,0.00152209,-0.00111476,0.00193429,-0.00149273,-1.21663,0.00198406,0.0394658,1854,1226,46.379,-2.95532
637,-202,46.377,2.89233,-0.00197954,0.000660478,-0.000423939,0.000726884,-0.00204595,-1.41542,0.00166018,0.0357068,1861,1226,46.377,-2.89237
644,-202,46.3898,2.80652,-0.00263752,-0.000227744,0.000308943,-0.000188767,-0.0026765,1.4453,0.00172486,0.0337116,1868,1226,46.3898,-2.80651
651,-202,46.3446,2.8291,-0.00254488,-0.00077849,0.000616911,-0.000584368,-0.002739,1.26594,0.00166574,0.0283244,1875,1226,46.3446,-2.82914
658,-202,46.2965,2.82996,-0.00190659,-0.00114363,0.000482402,-0.000910103,-0.00214012,1.11995,0.00124019,0.0238787,1882,1226,46.2965,-2.82998
665,-202,46.3262,2.78271,-0.00143108,-0.00154377,0.000441995,-0.00104185,-0.001933,0.722004,0.00111715,0.0231548,1889,1226,46.3261,-2.78276
672,-202,46.3683,2.73425,-0.00126956,-0.00181948,0.000528582,-0.0009487,-0.00214034,0.545565,0.00123838,0.0477878,1896,1226,46.3682,-2.7342
679,-202,45.942,2.5011,0,0,0,0,0,0,0,-1,1903,1226,45.9421,-2.50108
686,-202,45.6957,1.97473,0,0,0,0,0,0,0,-1,1910,1226,45.6956,-1.97469
693,-202,37.7068,9.51074,0,0,0,0,0,0,0,-1,1917,1226,37.7068,-9.5107
700,-202,37.7917,8.89014,-0.000957902,-0.00213444,0.000932017,-0.000444029,-0.00264831,0.503884,0.00163772,0.045369,1924,1226,37.7918,-8.89011
707,-202,37.8789,8.23047,-0.000925589,-0.00224781,0.00102024,-0.000370989,-0.00280241,0.497915,0.00175771,0.0342437,1931,1226,37.8789,-8.23042
714,-202,37.8606,7.83508,-0.00121017,-0.00193228,0.0011807,-0.000336557,-0.0028059,0.637015,0.00176912,0.0245039,1938,1226,37.8607,-7.83504
721,-202,37.8737,7.55249,-0.00158516,-0.00209127,0.0014352,-0.000380872,-0.00329555,0.698136,0.00208173,0.0144446,1945,1226,37.8737,-7.55246
728,-202,37.8523,7.17517,-0.00147169,-0.00199006,0.00182808,0.000115484,-0.00357723,0.714977,0.00242423,0.0116769,1952,1226,37.8523,-7.17519
735,-202,37.8204,6.76025,-0.00121555,-0.00153516,0.00182897,0.000460581,-0.00321129,0.741821,0.00230974,0.0115968,1959,1226,37.8204,-6.76023
742,-202,37.8051,6.35034,-0.000610926,-0.000713864,0.00160228,0.000940711,-0.0022655,0.769343,0.00190305,0.0118904,1966,1226,37.805,-6.35038
749,-202,37.7899,5.94666,0.000235351,0.000166629,0.00105102,0.00125257,-0.000850594,0.769058,0.00122164,0.0119208,1973,1226,37.7899,-5.94661
756,-202,37.806,5.55933,0.00140189,0.00111585,1.89173e-05,0.00140313,0.00111461,0.0657551,0.000855618,0.0114018,1980,1226,37.806,-5.55934
763,-202,37.8542,5.19189,0.00282308,0.0020469,-0.00154356,0.00402659,0.000843392,-0.662238,0.00245209,0.0196938,1987,1226,37.8542,-5.19192
770,-202,37.8611,4.86523,0.00412518,0.00288984,-0.0038599,0.00741652,-0.000401499,-0.70606,0.00508346,0.0485593,1994,1226,37.8611,-4.86524
777,-202,37.9084,4.5022,0,0,0,0,0,0,0,-1,2001,1226,37.9084,-4.50222
784,-202,37.9491,-2.1272,0,0,0,0,0,0,0,-1,2008,1226,37.9491,2.12721
791,-202,41.6821,1.56946,0,0,0,0,0,0,0,-1,2015,1226,41.6821,-1.56946
798,-202,41.7263,3.20728,0,0,0,0,0,0,0,-1,2022,1226,41.7262,-3.20725
805,-202,0,0,0,0,0,0,0,0,0,-1,2029,1226,0,0
812,-202,0,0,0,0,0,0,0,0,0,-1,2036,1226,0,0
-700,-209,0,0,0,0,0,0,0,0,0,-1,524,1233,0,0
-693,-209,0,0,0,0,0,0,0,0,0,-1,531,1233,0,0
-686,-209,0,0,0,0,0,0,0,0,0,-1,538,1233,0,0
-679,-209,-16.0564,2.71838,0,0,0,0,0,0,0,-1,545,1233,-16.0564,-2.71837
-672,-209,-15.7112,2.89917,0,0,0,0,0,0,0,-1,552,1233,-15.7112,-2.89918
-665,-209,-28.7137,-10.476,0,0,0,0,0,0,0,-1,559,1233,-28.7138,10.4759
-658,-209,-24.4443,-2.94019,0,0,0,0,0,0,0,-1,566,1233,-24.4443,2.94017
-651,-209,-24.9169,0.177734,0,0,0,0,0,0,0,-1,573,1233,-24.9169,-0.177781
-644,-209,-24.6158,1.95361,0,0,0,0,0,0,0,-1,580,1233,-24.6158,-1.95367
-637,-209,-24.3821,2.13208,0,0,0,0,0,0,0,-1,587,1233,-24.3821,-2.13212
-630,-209,-24.373,2.41626,0.0127804,-0.00163959,0.00456262,0.0141028,-0.00296198,0.282101,0.010529,0.0273165,594,1233,-24.3731,-2.4163
-623,-209,-24.4449,2.88147,0.00653213,-0.0021985,0.00203276,0.00698221,-0.00264859,0.217901,0.00574493,0.0129341,601,1233,-24.445,-2.88146
-616,-209,-24.4653,3.36121,0.00334629,-0.00132468,0.000606926,0.00342387,-0.00140226,0.127124,0.00286669,0.012737,608,1233,-24.4653,-3.36118
-609,-209,-24.4787,3.81531,0.00150346,-0.000558141,-0.000241637,0.0015314,-0.000586084,-0.11513,0.00126249,0.0147963,615,1233,-24.4787,-3.81533
-602,-209,-24.5054,4.26721,0.00121117,0.000348832,-0.00109244,0.00195445,-0.000394448,-0.597441,0.00145241,0.0168585,622,1233,-24.5055,-4.26721
-595,-209,-24.5022,4.69409,0.00119236,0.000307026,-0.00143348,0.00224997,-0.000750584,-0.635641,0.00180302,0.0128429,629,1233,-24.5022,-4.69405
-588,-209,-24.4576,5.172,0.000905366,0.000539007,-0.0010895,0.00182697,-0.0003826,-0.702111,0.00136353,0.0172581,636,1233,-24.4576,-5.17194
-581,-209,-24.2178,5.74854,0.000464495,0.000489018,-0.00050646,0.000983365,-2.98519e-05,-0.797501,0.00066575,0.0454632,643,1233,-24.2178,-5.74854
-574,-209,-24.4575,6.21533,0,0,0,0,0,0,0,-1,650,1233,-24.4575,-6.21532
-567,-209,-24.5797,6.48071,0,0,0,0,0,0,0,-1,657,1233,-24.5797,-6.48074
-560,-209,-13.9294,4.16626,0,0,0,0,0,0,0,-1,664,1233,-13.9294,-4.16621
-553,-209,-22.7542,0.748779,0,0,0,0,0,0,0,-1,671,1233,-22.7541,-0.748796
-546,-209,-33.7703,0.574585,0,0,0,0,0,0,0,-1,678,1233,-33.7703,-0.574619
-539,-209,-33.8059,0.80188,-0.00455911,0.00279529,0.00144999,0.00307085,-0.00483467,1.383,0.00460196,0.0420541,685,1233,-33.8059,-0.801887
-532,-209,-33.8589,1.06873,-0.00596087,0.00363826,0.00149717,0.00386635,-0.00618896,1.41961,0.00585683,0.031433,692,1233,-33.8589,-1.06877
-525,-209,-34.0087,1.24548,-0.00723891,0.00435358,0.00124434,0.00448564,-0.00737097,1.46506,0.00691265,0.0323569,699,1233,-34.0087,-1.24552
-518,-209,-34.171,1.39905,-0.00776089,0.00442049,0.000427603,0.00443548,-0.00777588,1.53575,0.00713762,0.0424412,706,1233,-34.171,-1.39905
-511,-209,-34.2749,1.41357,-0.00529815,0.00309692,-0.000861269,0.00318437,-0.0053856,-1.46961,0.00500198,0.0444336,713,1233,-34.2749,-1.41355
-504,-209,0,0,0,0,0,0,0,0,0,-1,720,1233,0,0
-497,-209,0,0,0,0,0,0,0,0,0,-1,727,1233,0,0
-490,-209,0,0,0,0,0,0,0,0,0,-1,734,1233,0,0
-483,-209,0,0,0,0,0,0,0,0,0,-1,741,1233,0,0
-476,-209,0,0,0,0,0,0,0,0,0,-1,748,1233,0,0
-469,-209,0,0,0,0,0,0,0,0,0,-1,755,1233,0,0
-462,-209,0,0,0,0,0,0,0,0,0,-1,762,1233,0,0
-455,-209,0,0,0,0,0,0,0,0,0,-1,769,1233,0,0
-448,-209,0,0,0,0,0,0,0,0,0,-1,776,1233,0,0
-441,-209,0,0,0,0,0,0,0,0,0,-1,783,1233,0,0
-434,-209,0,0,0,0,0,0,0,0,0,-1,790,1233,0,0
-427,-209,0,0,0,0,0,0,0,0,0,-1,797,1233,0,0
-420,-209,0,0,0,0,0,0,0,0,0,-1,804,1233,0,0
-413,-209,0,0,0,0,0,0,0,0,0,-1,811,1233,0,0
-406,-209,0,0,0,0,0,0,0,0,0,-1,818,1233,0,0
-399,-209,0,0,0,0,0,0,0,0,0,-1,825,1233,0,0
-392,-209,0,0,0,0,0,0,0,0,0,-1,832,1233,0,0
-385,-209,0,0,0,0,0,0,0,0,0,-1,839,1233,0,0
-378,-209,0,0,0,0,0,0,0,0,0,-1,846,1233,0,0
-371,-209,0,0,0,0,0,0,0,0,0,-1,853,1233,0,0
-364,-209,0,0,0,0,0,0,0,0,0,-1,860,1233,0,0
-357,-209,0,0,0,0,0,0,0,0,0,-1,867,1233,0,0
-350,-209,0,0,0,0,0,0,0,0,0,-1,874,1233,0,0
-343,-209,0,0,0,0,0,0,0,0,0,-1,881,1233,0,0
-336,-209,0,0,0,0,0,0,0,0,0,-1,888,1233,0,0
-329,-209,0,0,0,0,0,0,0,0,0,-1,895,1233,0,0
-322,-209,0,0,0,0,0,0,0,0,0,-1,902,1233,0,0
-315,-209,0,0,0,0,0,0,0,0,0,-1,909,1233,0,0
-308,-209,0,0,0,0,0,0,0,0,0,-1,916,1233,0,0
-301,-209,0,0,0,0,0,0,0,0,0,-1,923,1233,0,0
-294,-209,0,0,0,0,0,0,0,0,0,-1,930,1233,0,0
-287,-209,0,0,0,0,0,0,0,0,0,-1,937,1233,0,0
-280,-209,0,0,0,0,0,0,0,0,0,-1,944,1233,0,0
-273,-209,0,0,0,0,0,0,0,0,0,-1,951,1233,0,0
-266,-209,0,0,0,0,0,0,0,0,0,-1,958,1233,0,0
-259,-209,0,0,0,0,0,0,0,0,0,-1,965,1233,0,0
-252,-209,0,0,0,0,0,0,0,0,0,-1,972,1233,0,0
-245,-209,0,0,0,0,0,0,0,0,0,-1,979,1233,0,0
-238,-209,0,0,0,0,0,0,0,0,0,-1,986,1233,0,0
-231,-209,0,0,0,0,0,0,0,0,0,-1,993,1233,0,0
-224,-209,0,0,0,0,0,0,0,0,0,-1,1000,1233,0,0
-217,-209,0,0,0,0,0,0,0,0,0,-1,1007,1233,0,0
-210,-209,0,0,0,0,0,0,0,0,0,-1,1014,1233,0,0
-203,-209,0,0,0,0,0,0,0,0,0,-1,1021,1233,0,0
-196,-209,0,0,0,0,0,0,0,0,0,-1,1028,1233,0,0
-189,-209,0,0,0,0,0,0,0,0,0,-1,1035,1233,0,0
-182,-209,0,0,0,0,0,0,0,0,0,-1,1042,1233,0,0
-175,-209,0,0,0,0,0,0,0,0,0,-1,1049,1233,0,0
-168,-209,0,0,0,0,0,0,0,0,0,-1,1056,1233,0,0
-161,-209,0,0,0,0,0,0,0,0,0,-1,1063,1233,0,0
-154,-209,0,0,0,0,0,0,0,0,0,-1,1070,1233,0,0
-147,-209,0,0,0,0,0,0,0,0,0,-1,1077,1233,0,0
-140,-209,0,0,0,0,0,0,0,0,0,-1,1084,1233,0,0
-133,-209,0,0,0,0,0,0,0,0,0,-1,1091,1233,0,0
-126,-209,0,0,0,0,0,0,0,0,0,-1,1098,1233,0,0
-119,-209,0,0,0,0,0,0,0,0,0,-1,1105,1233,0,0
-112,-209,0,0,0,0,0,0,0,0,0,-1,1112,1233,0,0
-105,-209,0,0,0,0,0,0,0,0,0,-1,1119,1233,0,0
-98,-209,0,0,0,0,0,0,0,0,0,-1,1126,1233,0,0
-91,-209,0,0,0,0,0,0,0,0,0,-1,1133,1233,0,0
-84,-209,0,0,0,0,0,0,0,0,0,-1,1140,1233,0,0
-77,-209,0,0,0,0,0,0,0,0,0,-1,1147,1233,0,0
-70,-209,0,0,0,0,0,0,0,0,0,-1,1154,1233,0,0
-63,-209,0,0,0,0,0,0,0,0,0,-1,1161,1233,0,0
-56,-209,0,0,0,0,0,0,0,0,0,-1,1168,1233,0,0
-49,-209,0,0,0,0,0,0,0,0,0,-1,1175,1233,0,0
-42,-209,0,0,0,0,0,0,0,0,0,-1,1182,1233,0,0
-35,-209,0,0,0,0,0,0,0,0,0,-1,1189,1233,0,0
-28,-209,0,0,0,0,0,0,0,0,0,-1,1196,1233,0,0
-21,-209,0,0,0,0,0,0,0,0,0,-1,1203,1233,0,0
-14,-209,0,0,0,0,0,0,0,0,0,-1,1210,1233,0,0
-7,-209,0,0,0,0,0,0,0,0,0,-1,1217,1233,0,0
0,-209,0,0,0,0,0,0,0,0,0,-1,1224,1233,0,0
7,-209,0,0,0,0,0,0,0,0,0,-1,1231,1233,0,0
14,-209,0,0,0,0,0,0,0,0,0,-1,1238,1233,0,0
21,-209,0,0,0,0,0,0,0,0,0,-1,1245,1233,0,0
28,-209,0,0,0,0,0,0,0,0,0,-1,1252,1233,0,0
35,-209,0,0,0,0,0,0,0,0,0,-1,1259,1233,0,0
42,-209,0,0,0,0,0,0,0,0,0,-1,1266,1233,0,0
49,-209,0,0,0,0,0,0,0,0,0,-1,1273,1233,0,0
56,-209,0,0,0,0,0,0,0,0,0,-1,1280,1233,0,0
63,-209,0,0,0,0,0,0,0,0,0,-1,1287,1233,0,0
70,-209,0,0,0,0,0,0,0,0,0,-1,1294,1233,0,0
77,-209,0,0,0,0,0,0,0,0,0,-1,1301,1233,0,0
84,-209,0,0,0,0,0,0,0,0,0,-1,1308,1233,0,0
91,-209,0,0,0,0,0,0,0,0,0,-1,1315,1233,0,0
98,-209,0,0,0,0,0,0,0,0,0,-1,1322,1233,0,0
105,-209,0,0,0,0,0,0,0,0,0,-1,1329,1233,0,0
112,-209,0,0,0,0,0,0,0,0,0,-1,1336,1233,0,0
119,-209,0,0,0,0,0,0,0,0,0,-1,1343,1233,0,0
126,-209,0,0,0,0,0,0,0,0,0,-1,1350,1233,0,0
133,-209,0,0,0,0,0,0,0,0,0,-1,1357,1233,0,0
140,-209,0,0,0,0,0,0,0,0,0,-1,1364,1233,0,0
147,-209,0,0,0,0,0,0,0,0,0,-1,1371,1233,0,0
154,-209,0,0,0,0,0,0,0,0,0,-1,1378,1233,0,0
161,-209,0,0,0,0,0,0,0,0,0,-1,1385,1233,0,0
168,-209,0,0,0,0,0,0,0,0,0,-1,1392,1233,0,0
175,-209,0,0,0,0,0,0,0,0,0,-1,1399,1233,0,0
182,-209,0,0,0,0,0,0,0,0,0,-1,1406,1233,0,0
189,-209,0,0,0,0,0,0,0,0,0,-1,1413,1233,0,0
196,-209,0,0,0,0,0,0,0,0,0,-1,1420,1233,0,0
203,-209,0,0,0,0,0,0,0,0,0,-1,1427,1233,0,0
210,-209,0,0,0,0,0,0,0,0,0,-1,1434,1233,0,0
217,-209,0,0,0,0,0,0,0,0,0,-1,1441,1233,0,0
224,-209,0,0,0,0,0,0,0,0,0,-1,1448,1233,0,0
231,-209,0,0,0,0,0,0,0,0,0,-1,1455,1233,0,0
238,-209,0,0,0,0,0,0,0,0,0,-1,1462,1233,0,0
245,-209,0,0,0,0,0,0,0,0,0,-1,1469,1233,0,0
252,-209,0,0,0,0,0,0,0,0,0,-1,1476,1233,0,0
259,-209,0,0,0,0,0,0,0,0,0,-1,1483,1233,0,0
266,-209,0,0,0,0,0,0,0,0,0,-1,1490,1233,0,0
273,-209,0,0,0,0,0,0,0,0,0,-1,1497,1233,0,0
280,-209,0,0,0,0,0,0,0,0,0,-1,1504,1233,0,0
287,-209,0,0,0,0,0,0,0,0,0,-1,1511,1233,0,0
294,-209,0,0,0,0,0,0,0,0,0,-1,1518,1233,0,0
301,-209,0,0,0,0,0,0,0,0,0,-1,1525,1233,0,0
308,-209,0,0,0,0,0,0,0,0,0,-1,1532,1233,0,0
315,-209,0,0,0,0,0,0,0,0,0,-1,1539,1233,0,0
322,-209,0,0,0,0,0,0,0,0,0,-1,1546,1233,0,0
329,-209,0,0,0,0,0,0,0,0,0,-1,1553,1233,0,0
336,-209,0,0,0,0,0,0,0,0,0,-1,1560,1233,0,0
343,-209,0,0,0,0,0,0,0,0,0,-1,1567,1233,0,0
350,-209,0,0,0,0,0,0,0,0,0,-1,1574,1233,0,0
357,-209,0,0,0,0,0,0,0,0,0,-1,1581,1233,0,0
364,-209,0,0,0,0,0,0,0,0,0,-1,1588,1233,0,0
371,-209,0,0,0,0,0,0,0,0,0,-1,1595,1233,0,0
378,-209,0,0,0,0,0,0,0,0,0,-1,1602,1233,0,0
385,-209,0,0,0,0,0,0,0,0,0,-1,1609,1233,0,0
392,-209,0,0,0,0,0,0,0,0,0,-1,1616,1233,0,0
399,-209,0,0,0,0,0,0,0,0,0,-1,1623,1233,0,0
406,-209,0,0,0,0,0,0,0,0,0,-1,1630,1233,0,0
413,-209,0,0,0,0,0,0,0,0,0,-1,1637,1233,0,0
420,-209,0,0,0,0,0,0,0,0,0,-1,1644,1233,0,0
427,-209,0,0,0,0,0,0,0,0,0,-1,1651,1233,0,0
434,-209,0,0,0,0,0,0,0,0,0,-1,1658,1233,0,0
441,-209,0,0,0,0,0,0,0,0,0,-1,1665,1233,0,0
448,-209,0,0,0,0,0,0,0,0,0,-1,1672,1233,0,0
455,-209,0,0,0,0,0,0,0,0,0,-1,1679,1233,0,0
462,-209,0,0,0,0,0,0,0,0,0,-1,1686,1233,0,0
469,-209,0,0,0,0,0,0,0,0,0,-1,1693,1233,0,0
476,-209,0,0,0,0,0,0,0,0,0,-1,1700,1233,0,0
483,-209,0,0,0,0,0,0,0,0,0,-1,1707,1233,0,0
490,-209,0,0,0,0,0,0,0,0,0,-1,1714,1233,0,0
497,-209,0,0,0,0,0,0,0,0,0,-1,1721,1233,0,0
504,-209,0,0,0,0,0,0,0,0,0,-1,1728,1233,0,0
511,-209,0,0,0,0,0,0,0,0,0,-1,1735,1233,0,0
518,-209,0,0,0,0,0,0,0,0,0,-1,1742,1233,0,0
525,-209,0,0,0,0,0,0,0,0,0,-1,1749,1233,0,0
532,-209,0,0,0,0,0,0,0,0,0,-1,1756,1233,0,0
539,-209,0,0,0,0,0,0,0,0,0,-1,1763,1233,0,0
546,-209,0,0,0,0,0,0,0,0,0,-1,1770,1233,0,0
553,-209,0,0,0,0,0,0,0,0,0,-1,1777,1233,0,0
560,-209,0,0,0,0,0,0,0,0,0,-1,1784,1233,0,0
567,-209,0,0,0,0,0,0,0,0,0,-1,1791,1233,0,0
574,-209,0,0,0,0,0,0,0,0,0,-1,1798,1233,0,0
581,-209,0,0,0,0,0,0,0,0,0,-1,1805,1233,0,0
588,-209,0,0,0,0,0,0,0,0,0,-1,1812,1233,0,0
595,-209,0,0,0,0,0,0,0,0,0,-1,1819,1233,0,0
602,-209,0,0,0,0,0,0,0,0,0,-1,1826,1233,0,0
609,-209,0,0,0,0,0,0,0,0,0,-1,1833,1233,0,0
616,-209,0,0,0,0,0,0,0,0,0,-1,1840,1233,0,0
623,-209,46.354,2.70032,0.00182225,0.0044518,-0.00263904,0.00608544,0.00018861,-1.0165,0.00399557,0.0366856,1847,1233,46.354,-2.70035
630,-209,46.3068,2.71875,-0.000435497,0.00273852,-0.00119867,0.00314033,-0.000837308,-1.24735,0.0024214,0.0381295,1854,1233,46.3068,-2.71871
637,-209,46.2776,2.6842,-0.00219242,0.00105791,0.000301325,0.00108561,-0.00222012,1.47913,0.00194567,0.0354877,1861,1233,46.2776,-2.68422
644,-209,46.3489,2.70886,-0.00351121,-0.000636438,0.00173614,0.00018012,-0.00432776,1.13117,0.00294705,0.029991,1868,1233,46.3489,-2.70881
651,-209,46.3365,2.78467,-0.00352148,-0.00154765,0.00213538,-0.000182147,-0.00488697,1.00186,0.003199,0.0251971,1875,1233,46.3366,-2.78462
658,-209,46.2976,2.77002,-0.00281695,-0.00203918,0.00188279,-0.00050553,-0.00435059,0.88724,0.00274743,0.0231857,1882,1233,46.2976,-2.77005
665,-209,46.4097,2.82068,-0.00222255,-0.00238481,0.00163998,-0.000661696,-0.00394567,0.760683,0.00243997,0.0405059,1889,1233,46.4096,-2.82071
672,-209,46.4146,2.7179,0,0,0,0,0,0,0,-1,1896,1233,46.4145,-2.71791
679,-209,45.97,2.90613,0,0,0,0,0,0,0,-1,1903,1233,45.97,-2.90613
686,-209,33.3711,3.89856,0,0,0,0,0,0,0,-1,1910,1233,33.3711,-3.89855
693,-209,37.175,9.58752,0,0,0,0,0,0,0,-1,1917,1233,37.175,-9.58749
700,-209,37.3064,8.95923,-0.000842394,-0.00262006,0.00113241,-0.000291649,-0.00317081,0.452665,0.00202367,0.0427958,1924,1233,37.3064,-8.95924
707,-209,37.4359,8.37781,-0.00059394,-0.00257983,0.000930865,-0.000225838,-0.00294793,0.37657,0.0018945,0.0336745,1931,1233,37.4359,-8.37786
714,-209,37.4479,7.99316,-0.000791859,-0.00200922,0.00102667,-0.000206996,-0.00259409,0.517819,0.00166469,0.0178639,1938,1233,37.4479,-7.99312
721,-209,37.4552,7.56897,-0.00115437,-0.00207215,0.00131894,-0.000216776,-0.00300974,0.617987,0.00193828,0.0128139,1945,1233,37.4552,-7.56896
728,-209,37.4475,7.17712,-0.0010977,-0.00182731,0.00172935,0.000304904,-0.00322991,0.681448,0.00226177,0.0126287,1952,1233,37.4475,-7.17714
735,-209,37.4347,6.78064,-0.000930206,-0.00129102,0.00182631,0.000724589,-0.00294581,0.736167,0.00224473,0.0146203,1959,1233,37.4347,-6.78058
742,-209,37.4121,6.36609,-0.000456881,-0.000494729,0.00183127,0.00135556,-0.00230717,0.780231,0.00213834,0.0145456,1966,1233,37.4121,-6.36612
749,-209,37.3911,5.94934,0.000271482,0.00029718,0.00169472,0.0019791,-0.00141044,0.789189,0.00196611,0.0128416,1973,1233,37.3911,-5.94931
756,-209,37.3853,5.56445,0.0014275,0.00115598,0.00126384,0.00256285,2.06315e-05,0.731896,0.00170173,0.0118195,1980,1233,37.3852,-5.56447
763,-209,37.3618,5.22058,0.00302045,0.001975,0.000482891,0.00320936,0.00178609,0.372902,0.00185687,0.0214364,1987,1233,37.3619,-5.2206
770,-209,37.4103,4.93054,0,0,0,0,0,0,0,-1,1994,1233,37.4103,-4.93048
777,-209,37.1479,4.35083,0,0,0,0,0,0,0,-1,2001,1233,37.1479,-4.35087
784,-209,40.3342,-2.14001,0,0,0,0,0,0,0,-1,2008,1233,40.3342,2.13997
791,-209,41.8398,1.573,0,0,0,0,0,0,0,-1,2015,1233,41.8399,-1.57295
798,-209,41.8267,2.67419,0,0,0,0,0,0,0,-1,2022,1233,41.8267,-2.67425
805,-209,0,0,0,0,0,0,0,0,0,-1,2029,1233,0,0
812,-209,0,0,0,0,0,0,0,0,0,-1,2036,1233,0,0
-700,-216,0,0,0,0,0,0,0,0,0,-1,524,1240,0,0
-693,-216,0,0,0,0,0,0,0,0,0,-1,531,1240,0,0
-686,-216,0,0,0,0,0,0,0,0,0,-1,538,1240,0,0
-679,-216,-29.845,-11.2792,0,0,0,0,0,0,0,-1,545,1240,-29.845,11.2792
-672,-216,-29.6016,-11.1006,0,0,0,0,0,0,0,-1,552,1240,-29.6016,11.1006
-665,-216,-29.1888,-11.118,0,0,0,0,0,0,0,-1,559,1240,-29.1888,11.1181
-658,-216,-28.6475,-11.2354,0,0,0,0,0,0,0,-1,566,1240,-28.6475,11.2353
-651,-216,-28.3902,-11.2539,0,0,0,0,0,0,0,-1,573,1240,-28.3902,11.254
-644,-216,-24.2487,0.854858,0,0,0,0,0,0,0,-1,580,1240,-24.2487,-0.854917
-637,-216,-23.8578,1.80066,0,0,0,0,0,0,0,-1,587,1240,-23.8578,-1.80067
-630,-216,-23.8877,2.3446,0.00973059,-0.00338494,0.00346684,0.0105906,-0.00424494,0.243157,0.00882262,0.0338923,594,1240,-23.8877,-2.34465
-623,-216,-23.9593,2.90393,0.005032,-0.0029461,0.00155526,0.00532447,-0.00323856,0.185877,0.00499252,0.0154928,601,1240,-23.9593,-2.90397
-616,-216,-24.0188,3.39124,0.00300277,-0.00154534,0.000649467,0.00309369,-0.00163627,0.139097,0.00277372,0.0144688,608,1240,-24.0188,-3.39126
-609,-216,-24.04,3.8418,0.00171835,-0.00070256,3.22143e-05,0.00171877,-0.000702988,0.0133036,0.00143862,0.0134991,615,1240,-24.04,-3.84175
-602,-216,-24.0339,4.25269,0.00147988,0.000242266,-0.000718221,0.0018091,-8.69592e-05,-0.429809,0.00123607,0.0129952,622,1240,-24.0339,-4.25265
-595,-216,-24.0024,4.6864,0.00150666,0.000198909,-0.00106294,0.00210074,-0.000395168,-0.509652,0.00154911,0.0188664,629,1240,-24.0024,-4.68639
-588,-216,-24.0052,5.16602,0.00133509,0.000420413,-0.00073778,0.00174578,9.71934e-06,-0.507943,0.00116063,0.0216068,636,1240,-24.0052,-5.16604
-581,-216,-23.9891,5.69287,0.000938566,0.000439407,-0.000156149,0.000983388,0.000394584,-0.279533,0.000571439,0.0325102,643,1240,-23.9891,-5.69284
-574,-216,-23.8298,6.20288,0,0,0,0,0,0,0,-1,650,1240,-23.8298,-6.20291
-567,-216,-24.2123,7.08264,0,0,0,0,0,0,0,-1,657,1240,-24.2123,-7.08262
-560,-216,-16.5087,5.4574,0,0,0,0,0,0,0,-1,664,1240,-16.5087,-5.45746
-553,-216,-16.2355,1.22351,0,0,0,0,0,0,0,-1,671,1240,-16.2356,-1.22356
-546,-216,-34.0124,0.407104,0,0,0,0,0,0,0,-1,678,1240,-34.0124,-0.40714
-539,-216,-33.8085,0.724609,-0.00486502,0.00364531,0.00148151,0.00389584,-0.00511556,1.40328,0.0052186,0.0437326,685,1240,-33.8085,-0.724608
-532,-216,-33.6911,1.04456,-0.00641069,0.00455866,0.00139331,0.00473287,-0.0065849,1.44641,0.00656341,0.0480114,692,1240,-33.6911,-1.04455
-525,-216,-33.8316,1.15173,-0.00795549,0.00541872,0.00109059,0.00550707,-0.00804384,1.48996,0.00786918,0.0460527,699,1240,-33.8316,-1.15174
-518,-216,-34.0432,1.21838,-0.00919631,0.00587687,0.000479658,0.00589212,-0.00921156,1.53902,0.00879003,0.0448297,706,1240,-34.0432,-1.21833
-511,-216,-34.173,1.29089,-0.00818722,0.00532589,-0.000493276,0.00534387,-0.00820521,-1.53436,0.00788049,0.0444751,713,1240,-34.173,-1.29093
-504,-216,-34.0493,1.18115,-0.00226831,0.00197848,-0.00209677,0.00283925,-0.00312908,-1.18125,0.00344717,0.0420822,720,1240,-34.0493,-1.1812
-497,-216,0,0,0,0,0,0,0,0,0,-1,727,1240,0,0
-490,-216,0,0,0,0,0,0,0,0,0,-1,734,1240,0,0
-483,-216,0,0,0,0,0,0,0,0,0,-1,741,1240,0,0
-476,-216,0,0,0,0,0,0,0,0,0,-1,748,1240,0,0
-469,-216,0,0,0,0,0,0,0,0,0,-1,755,1240,0,0
-462,-216,0,0,0,0,0,0,0,0,0,-1,762,1240,0,0
-455,-216,0,0,0,0,0,0,0,0,0,-1,769,1240,0,0
-448,-216,0,0,0,0,0,0,0,0,0,-1,776,1240,0,0
-441,-216,0,0,0,0,0,0,0,0,0,-1,783,1240,0,0
-434,-216,0,0,0,0,0,0,0,0,0,-1,790,1240,0,0
-427,-216,0,0,0,0,0,0,0,0,0,-1,797,1240,0,0
-420,-216,0,0,0,0,0,0,0,0,0,-1,804,1240,0,0
-413,-216,0,0,0,0,0,0,0,0,0,-1,811,1240,0,0
-406,-216,0,0,0,0,0,0,0,0,0,-1,818,1240,0,0
-399,-216,0,0,0,0,0,0,0,0,0,-1,825,1240,0,0
-392,-216,0,0,0,0,0,0,0,0,0,-1,832,1240,0,0
-385,-216,0,0,0,0,0,0,0,0,0,-1,839,1240,0,0
-378,-216,0,0,0,0,0,0,0,0,0,-1,846,1240,0,0
-371,-216,0,0,0,0,0,0,0,0,0,-1,853,1240,0,0
-364,-216,0,0,0,0,0,0,0,0,0,-1,860,1240,0,0
-357,-216,0,0,0,0,0,0,0,0,0,-1,867,1240,0,0
-350,-216,0,0,0,0,0,0,0,0,0,-1,874,1240,0,0
-343,-216,0,0,0,0,0,0,0,0,0,-1,881,1240,0,0
-336,-216,0,0,0,0,0,0,0,0,0,-1,888,1240,0,0
-329,-216,0,0,0,0,0,0,0,0,0,-1,895,1240,0,0
-322,-216,0,0,0,0,0,0,0,0,0,-1,902,1240,0,0
-315,-216,0,0,0,0,0,0,0,0,0,-1,909,1240,0,0
-308,-216,0,0,0,0,0,0,0,0,0,-1,916,1240,0,0
-301,-216,0,0,0,0,0,0,0,0,0,-1,923,1240,0,0
-294,-216,0,0,0,0,0,0,0,0,0,-1,930,1240,0,0
-287,-216,0,0,0,0,0,0,0,0,0,-1,937,1240,0,0
-280,-216,0,0,0,0,0,0,0,0,0,-1,944,1240,0,0
-273,-216,0,0,0,0,0,0,0,0,0,-1,951,1240,0,0
-266,-216,0,0,0,0,0,0,0,0,0,-1,958,1240,0,0
-259,-216,0,0,0,0,0,0,0,0,0,-1,965,1240,0,0
-252,-216,0,0,0,0,0,0,0,0,0,-1,972,1240,0,0
-245,-216,0,0,0,0,0,0,0,0,0,-1,979,1240,0,0
-238,-216,0,0,0,0,0,0,0,0,0,-1,986,1240,0,0
-231,-216,0,0,0,0,0,0,0,0,0,-1,993,1240,0,0
-224,-216,0,0,0,0,0,0,0,0,0,-1,1000,1240,0,0
-217,-216,0,0,0,0,0,0,0,0,0,-1,1007,1240,0,0
-210,-216,0,0,0,0,0,0,0,0,0,-1,1014,1240,0,0
-203,-216,0,0,0,0,0,0,0,0,0,-1,1021,1240,0,0
-196,-216,0,0,0,0,0,0,0,0,0,-1,1028,1240,0,0
-189,-216,0,0,0,0,0,0,0,0,0,-1,1035,1240,0,0
-182,-216,0,0,0,0,0,0,0,0,0,-1,1042,1240,0,0
-175,-216,0,0,0,0,0,0,0,0,0,-1,1049,1240,0,0
-168,-216,0,0,0,0,0,0,0,0,0,-1,1056,1240,0,0
-161,-216,0,0,0,0,0,0,0,0,0,-1,1063,1240,0,0
-154,-216,0,0,0,0,0,0,0,0,0,-1,1070,1240,0,0
-147,-216,0,0,0,0,0,0,0,0,0,-1,1077,1240,0,0
-140,-216,0,0,0,0,0,0,0,0,0,-1,1084,1240,0,0
-133,-216,0,0,0,0,0,0,0,0,0,-1,1091,1240,0,0
-126,-216,0,0,0,0,0,0,0,0,0,-1,1098,1240,0,0
-119,-216,0,0,0,0,0,0,0,0,0,-1,1105,1240,0,0
-112,-216,0,0,0,0,0,0,0,0,0,-1,1112,1240,0,0
-105,-216,0,0,0,0,0,0,0,0,0,-1,1119,1240,0,0
-98,-216,0,0,0,0,0,0,0,0,0,-1,1126,1240,0,0
-91,-216,0,0,0,0,0,0,0,0,0,-1,1133,1240,0,0
-84,-216,0,0,0,0,0,0,0,0,0,-1,1140,1240,0,0
-77,-216,0,0,0,0,0,0,0,0,0,-1,1147,1240,0,0
-70,-216,0,0,0,0,0,0,0,0,0,-1,1154,1240,0,0
-63,-216,0,0,0,0,0,0,0,0,0,-1,1161,1240,0,0
-56,-216,0,0,0,0,0,0,0,0,0,-1,1168,1240,0,0
-49,-216,0,0,0,0,0,0,0,0,0,-1,1175,1240,0,0
-42,-216,0,0,0,0,0,0,0,0,0,-1,1182,1240,0,0
-35,-216,0,0,0,0,0,0,0,0,0,-1,1189,1240,0,0
-28,-216,0,0,0,0,0,0,0,0,0,-1,1196,1240,0,0
-21,-216,0,0,0,0,0,0,0,0,0,-1,1203,1240,0,0
-14,-216,0,0,0,0,0,0,0,0,0,-1,1210,1240,0,0
-7,-216,0,0,0,0,0,0,0,0,0,-1,1217,1240,0,0
0,-216,0,0,0,0,0,0,0,0,0,-1,1224,1240,0,0
7,-216,0,0,0,0,0,0,0,0,0,-1,1231,1240,0,0
14,-216,0,0,0,0,0,0,0,0,0,-1,1238,1240,0,0
21,-216,0,0,0,0,0,0,0,0,0,-1,1245,1240,0,0
28,-216,0,0,0,0,0,0,0,0,0,-1,1252,1240,0,0
35,-216,0,0,0,0,0,0,0,0,0,-1,1259,1240,0,0
42,-216,0,0,0,0,0,0,0,0,0,-1,1266,1240,0,0
49,-216,0,0,0,0,0,0,0,0,0,-1,1273,1240,0,0
56,-216,0,0,0,0,0,0,0,0,0,-1,1280,1240,0,0
63,-216,0,0,0,0,0,0,0,0,0,-1,1287,1240,0,0
70,-216,0,0,0,0,0,0,0,0,0,-1,1294,1240,0,0
77,-216,0,0,0,0,0,0,0,0,0,-1,1301,1240,0,0
84,-216,0,0,0,0,0,0,0,0,0,-1,1308,1240,0,0
91,-216,0,0,0,0,0,0,0,0,0,-1,1315,1240,0,0
98,-216,0,0,0,0,0,0,0,0,0,-1,1322,1240,0,0
105,-216,0,0,0,0,0,0,0,0,0,-1,1329,1240,0,0
112,-216,0,0,0,0,0,0,0,0,0,-1,1336,1240,0,0
119,-216,0,0,0,0,0,0,0,0,0,-1,1343,1240,0,0
126,-216,0,0,0,0,0,0,0,0,0,-1,1350,1240,0,0
133,-216,0,0,0,0,0,0,0,0,0,-1,1357,1240,0,0
140,-216,0,0,0,0,0,0,0,0,0,-1,1364,1240,0,0
147,-216,0,0,0,0,0,0,0,0,0,-1,1371,1240,0,0
154,-216,0,0,0,0,0,0,0,0,0,-1,1378,1240,0,0
161,-216,0,0,0,0,0,0,0,0,0,-1,1385,1240,0,0
168,-216,0,0,0,0,0,0,0,0,0,-1,1392,1240,0,0
175,-216,0,0,0,0,0,0,0,0,0,-1,1399,1240,0,0
182,-216,0,0,0,0,0,0,0,0,0,-1,1406,1240,0,0
189,-216,0,0,0,0,0,0,0,0,0,-1,1413,1240,0,0
196,-216,0,0,0,0,0,0,0,0,0,-1,1420,1240,0,0
203,-216,0,0,0,0,0,0,0,0,0,-1,1427,1240,0,0
210,-216,0,0,0,0,0,0,0,0,0,-1,1434,1240,0,0
217,-216,0,0,0,0,0,0,0,0,0,-1,1441,1240,0,0
224,-216,0,0,0,0,0,0,0,0,0,-1,1448,1240,0,0
231,-216,0,0,0,0,0,0,0,0,0,-1,1455,1240,0,0
238,-216,0,0,0,0,0,0,0,0,0,-1,1462,1240,0,0
245,-216,0,0,0,0,0,0,0,0,0,-1,1469,1240,0,0
252,-216,0,0,0,0,0,0,0,0,0,-1,1476,1240,0,0
259,-216,0,0,0,0,0,0,0,0,0,-1,1483,1240,0,0
266,-216,0,0,0,0,0,0,0,0,0,-1,1490,1240,0,0
273,-216,0,0,0,0,0,0,0,0,0,-1,1497,1240,0,0
280,-216,0,0,0,0,0,0,0,0,0,-1,1504,1240,0,0
287,-216,0,0,0,0,0,0,0,0,0,-1,1511,1240,0,0
294,-216,0,0,0,0,0,0,0,0,0,-1,1518,1240,0,0
301,-216,0,0,0,0,0,0,0,0,0,-1,1525,1240,0,0
308,-216,0,0,0,0,0,0,0,0,0,-1,1532,1240,0,0
315,-216,0,0,0,0,0,0,0,0,0,-1,1539,1240,0,0
322,-216,0,0,0,0,0,0,0,0,0,-1,1546,1240,0,0
329,-216,0,0,0,0,0,0,0,0,0,-1,1553,1240,0,0
336,-216,0,0,0,0,0,0,0,0,0,-1,1560,1240,0,0
343,-216,0,0,0,0,0,0,0,0,0,-1,1567,1240,0,0
350,-216,0,0,0,0,0,0,0,0,0,-1,1574,1240,0,0
357,-216,0,0,0,0,0,0,0,0,0,-1,1581,1240,0,0
364,-216,0,0,0,0,0,0,0,0,0,-1,1588,1240,0,0
371,-216,0,0,0,0,0,0,0,0,0,-1,1595,1240,0,0
378,-216,0,0,0,0,0,0,0,0,0,-1,1602,1240,0,0
385,-216,0,0,0,0,0,0,0,0,0,-1,1609,1240,0,0
392,-216,0,0,0,0,0,0,0,0,0,-1,1616,1240,0,0
399,-216,0,0,0,0,0,0,0,0,0,-1,1623,1240,0,0
406,-216,0,0,0,0,0,0,0,0,0,-1,1630,1240,0,0
413,-216,0,0,0,0,0,0,0,0,0,-1,1637,1240,0,0
420,-216,0,0,0,0,0,0,0,0,0,-1,1644,1240,0,0
427,-216,0,0,0,0,0,0,0,0,0,-1,1651,1240,0,0
434,-216,0,0,0,0,0,0,0,0,0,-1,1658,1240,0,0
441,-216,0,0,0,0,0,0,0,0,0,-1,1665,1240,0,0
448,-216,0,0,0,0,0,0,0,0,0,-1,1672,1240,0,0
455,-216,0,0,0,0,0,0,0,0,0,-1,1679,1240,0,0
462,-216,0,0,0,0,0,0,0,0,0,-1,1686,1240,0,0
469,-216,0,0,0,0,0,0,0,0,0,-1,1693,1240,0,0
476,-216,0,0,0,0,0,0,0,0,0,-1,1700,1240,0,0
483,-216,0,0,0,0,0,0,0,0,0,-1,1707,1240,0,0
490,-216,0,0,0,0,0,0,0,0,0,-1,1714,1240,0,0
497,-216,0,0,0,0,0,0,0,0,0,-1,1721,1240,0,0
504,-216,0,0,0,0,0,0,0,0,0,-1,1728,1240,0,0
511,-216,0,0,0,0,0,0,0,0,0,-1,1735,1240,0,0
518,-216,0,0,0,0,0,0,0,0,0,-1,1742,1240,0,0
525,-216,0,0,0,0,0,0,0,0,0,-1,1749,1240,0,0
532,-216,0,0,0,0,0,0,0,0,0,-1,1756,1240,0,0
539,-216,0,0,0,0,0,0,0,0,0,-1,1763,1240,0,0
546,-216,0,0,0,0,0,0,0,0,0,-1,1770,1240,0,0
553,-216,0,0,0,0,0,0,0,0,0,-1,1777,1240,0,0
560,-216,0,0,0,0,0,0,0,0,0,-1,1784,1240,0,0
567,-216,0,0,0,0,0,0,0,0,0,-1,1791,1240,0,0
574,-216,0,0,0,0,0,0,0,0,0,-1,1798,1240,0,0
581,-216,0,0,0,0,0,0,0,0,0,-1,1805,1240,0,0
588,-216,0,0,0,0,0,0,0,0,0,-1,1812,1240,0,0
595,-216,0,0,0,0,0,0,0,0,0,-1,1819,1240,0,0
602,-216,0,0,0,0,0,0,0,0,0,-1,1826,1240,0,0
609,-216,0,0,0,0,0,0,0,0,0,-1,1833,1240,0,0
616,-216,0,0,0,0,0,0,0,0,0,-1,1840,1240,0,0
623,-216,46.2542,2.71838,0.0045085,0.00578937,-0.00383433,0.00903638,0.00126149,-0.868148,0.00565089,0.0401399,1847,1240,46.2542,-2.71835
630,-216,46.2607,2.76208,4.80096e-05,0.00356385,-0.00125124,0.00396367,-0.000351818,-1.26151,0.00276719,0.037601,1854,1240,46.2607,-2.76208
637,-216,46.2721,2.78015,-0.0038839,0.00111515,0.00146864,0.00151468,-0.00428343,1.30518,0.00347243,0.0329421,1861,1240,46.2722,-2.78011
644,-216,46.3086,2.76221,-0.00645072,-0.00113758,0.00366512,0.000732488,-0.00832079,1.099,0.00580678,0.0262386,1868,1240,46.3086,-2.76223
651,-216,46.3077,2.80383,-0.00651765,-0.00220542,0.00410116,0.000271867,-0.00899493,1.02741,0.00608926,0.0235406,1875,1240,46.3077,-2.80383
658,-216,46.2871,2.79224,-0.00548976,-0.00272972,0.00370701,-0.00015419,-0.00806529,0.963587,0.0053262,0.0351731,1882,1240,46.2872,-2.7923
665,-216,46.2335,2.76416,-0.00447984,-0.00300068,0.00324298,-0.000414015,-0.0070665,0.897509,0.00457924,0.0491596,1889,1240,46.2335,-2.76421
672,-216,46.2253,2.69641,0,0,0,0,0,0,0,-1,1896,1240,46.2254,-2.69635
679,-216,44.4913,2.29272,0,0,0,0,0,0,0,-1,1903,1240,44.4913,-2.2927
686,-216,21.5172,6.19458,0,0,0,0,0,0,0,-1,1910,1240,21.5172,-6.19453
693,-216,37.4899,9.04907,0,0,0,0,0,0,0,-1,1917,1240,37.4899,-9.04906
700,-216,37.0062,8.93445,-0.00101059,-0.0029449,0.00156495,-0.00013805,-0.00381743,0.50862,0.00250021,0.0397419,1924,1240,37.0063,-8.9344
707,-216,37.0552,8.4259,-0.000226487,-0.00269649,0.000880126,5.50377e-05,-0.00297801,0.309583,0.00200394,0.0314683,1931,1240,37.0552,-8.42595
714,-216,37.0704,7.99695,-0.000323448,-0.0018495,0.000886581,8.32409e-05,-0.00225619,0.430079,0.00153263,0.0140552,1938,1240,37.0704,-7.99697
721,-216,37.0371,7.61279,-0.000684014,-0.00180838,0.00121418,9.18144e-05,-0.00258421,0.568585,0.00175421,0.0128883,1945,1240,37.0371,-7.61278
728,-216,37.0667,7.19336,-0.000751148,-0.00144298,0.00165127,0.000590048,-0.00278418,0.682149,0.00208088,0.0119862,1952,1240,37.0667,-7.19337
735,-216,37.0747,6.78833,-0.000761634,-0.00086626,0.00184931,0.0010361,-0.002664,0.771258,0.00220409,0.0129434,1959,1240,37.0747,-6.78833
742,-216,37.0088,6.40833,-0.000510253,-0.000120384,0.00203447,0.00172847,-0.00235911,0.83316,0.00236931,0.0150394,1966,1240,37.0087,-6.40835
749,-216,36.9939,5.96887,2.57046e-05,0.000628042,0.00222222,0.00256941,-0.00191567,0.852751,0.00259861,0.0126302,1973,1240,36.9939,-5.96881
756,-216,36.9579,5.55823,0.00104665,0.00146829,0.002304,0.00357109,-0.00105616,0.831022,0.00279999,0.0122292,1980,1240,36.9578,-5.55824
763,-216,36.9346,5.23743,0.00263287,0.00230361,0.00224461,0.00471888,0.000217602,0.748791,0.00307595,0.020411,1987,1240,36.9346,-5.2374
770,-216,37.1399,4.91101,0.00450851,0.00300683,0.00232249,0.00619852,0.00131682,0.629056,0.00377084,0.0447018,1994,1240,37.1399,-4.91104
777,-216,37.3937,4.58337,0,0,0,0,0,0,0,-1,2001,1240,37.3937,-4.58337
784,-216,42.4829,-1.97656,0,0,0,0,0,0,0,-1,2008,1240,42.4828,1.97653
791,-216,41.0908,0.603882,0,0,0,0,0,0,0,-1,2015,1240,41.0908,-0.603931
798,-216,0,0,0,0,0,0,0,0,0,-1,2022,1240,0,0
805,-216,0,0,0,0,0,0,0,0,0,-1,2029,1240,0,0
812,-216,0,0,0,0,0,0,0,0,0,-1,2036,1240,0,0
-700,-223,0,0,0,0,0,0,0,0,0,-1,524,1247,0,0
-693,-223,0,0,0,0,0,0,0,0,0,-1,531,1247,0,0
-686,-223,0,0,0,0,0,0,0,0,0,-1,538,1247,0,0
-679,-223,0,0,0,0,0,0,0,0,0,-1,545,1247,0,0
-672,-223,-29.7585,-12.3416,0,0,0,0,0,0,0,-1,552,1247,-29.7585,12.3416
-665,-223,-29.5582,-12.22,0,0,0,0,0,0,0,-1,559,1247,-29.5581,12.22
-658,-223,-29.2791,-12.3606,0,0,0,0,0,0,0,-1,566,1247,-29.2791,12.3606
-651,-223,-28.8952,-12.516,0,0,0,0,0,0,0,-1,573,1247,-28.8952,12.516
-644,-223,-23.5477,0.646973,0,0,0,0,0,0,0,-1,580,1247,-23.5477,-0.647005
-637,-223,-23.5014,1.77063,0,0,0,0,0,0,0,-1,587,1247,-23.5014,-1.77065
-630,-223,-23.5084,2.34155,0.00721434,-0.00406919,0.00373863,0.00834066,-0.0051955,0.292616,0.00788511,0.044364,594,1247,-23.5084,-2.34159
-623,-223,-23.5407,2.90247,0.00350179,-0.00305915,0.00199684,0.00406174,-0.0036191,0.273398,0.00443699,0.0232382,601,1247,-23.5407,-2.90244
-616,-223,-23.5778,3.38416,0.00224526,-0.00137176,0.00115906,0.0025848,-0.0017113,0.284974,0.00249739,0.0160984,608,1247,-23.5777,-3.38416
-609,-223,-23.5705,3.8396,0.00150087,-0.000527372,0.000624066,0.00167751,-0.000704007,0.275825,0.00141274,0.0118049,615,1247,-23.5705,-3.83965
-602,-223,-23.5559,4.27234,0.00149365,0.000324077,-0.000134773,0.00150898,0.000308748,-0.113255,0.000920496,0.0148445,622,1247,-23.5559,-4.27237
-595,-223,-23.5167,4.73975,0.00174829,0.000262017,-0.000540628,0.00192414,8.61711e-05,-0.31447,0.00125502,0.022124,629,1247,-23.5166,-4.73971
-588,-223,-23.5353,5.2019,0.00179826,0.000428858,-0.000329917,0.0018736,0.000353519,-0.224508,0.00114949,0.0243973,636,1247,-23.5354,-5.20195
-581,-223,-23.5998,5.67224,0.00155748,0.000480804,0.000121094,0.00157093,0.000467353,0.110629,0.000931444,0.0213487,643,1247,-23.5998,-5.67224
-574,-223,-23.5997,6.1759,0.000887892,0.000704386,0.000751736,0.00155345,3.88248e-05,0.724671,0.00102294,0.0238123,650,1247,-23.5996,-6.17594
-567,-223,-23.46,6.75476,-0.000370293,0.00135872,0.00113901,0.00192415,-0.000935725,1.11002,0.0016837,0.0386923,657,1247,-23.46,-6.75479
-560,-223,-23.5255,7.35266,0,0,0,0,0,0,0,-1,664,1247,-23.5255,-7.35262
-553,-223,-11.4025,4.14722,0,0,0,0,0,0,0,-1,671,1247,-11.4025,-4.14719
-546,-223,-26.9034,-0.148682,0,0,0,0,0,0,0,-1,678,1247,-26.9034,0.14867
-539,-223,-33.577,0.763672,0,0,0,0,0,0,0,-1,685,1247,-33.577,-0.763713
-532,-223,-33.494,0.930298,0,0,0,0,0,0,0,-1,692,1247,-33.494,-0.930346
-525,-223,-33.735,0.960571,0,0,0,0,0,0,0,-1,699,1247,-33.7351,-0.960541
-518,-223,-33.8939,1.02502,0,0,0,0,0,0,0,-1,706,1247,-33.8939,-1.02505
-511,-223,-33.9827,1.04041,-0.0109272,0.00581463,0.000145458,0.0058159,-0.0109284,1.56211,0.00981641,0.0420355,713,1247,-33.9827,-1.04044
-504,-223,-33.9133,1.07605,-0.0070226,0.00331499,-0.000861625,0.00338631,-0.00709392,-1.48821,0.00617569,0.0415241,720,1247,-33.9133,-1.07603
-497,-223,0,0,0,0,0,0,0,0,0,-1,727,1247,0,0
-490,-223,0,0,0,0,0,0,0,0,0,-1,734,1247,0,0
-483,-223,0,0,0,0,0,0,0,0,0,-1,741,1247,0,0
-476,-223,0,0,0,0,0,0,0,0,0,-1,748,1247,0,0
-469,-223,0,0,0,0,0,0,0,0,0,-1,755,1247,0,0
-462,-223,0,0,0,0,0,0,0,0,0,-1,762,1247,0,0
-455,-223,0,0,0,0,0,0,0,0,0,-1,769,1247,0,0
-448,-223,0,0,0,0,0,0,0,0,0,-1,776,1247,0,0
-441,-223,0,0,0,0,0,0,0,0,0,-1,783,1247,0,0
-434,-223,0,0,0,0,0,0,0,0,0,-1,790,1247,0,0
-427,-223,0,0,0,0,0,0,0,0,0,-1,797,1247,0,0
-420,-223,0,0,0,0,0,0,0,0,0,-1,804,1247,0,0
-413,-223,0,0,0,0,0,0,0,0,0,-1,811,1247,0,0
-406,-223,0,0,0,0,0,0,0,0,0,-1,818,1247,0,0
-399,-223,0,0,0,0,0,0,0,0,0,-1,825,1247,0,0
-392,-223,0,0,0,0,0,0,0,0,0,-1,832,1247,0,0
-385,-223,0,0,0,0,0,0,0,0,0,-1,839,1247,0,0
-378,-223,0,0,0,0,0,0,0,0,0,-1,846,1247,0,0
-371,-223,0,0,0,0,0,0,0,0,0,-1,853,1247,0,0
-364,-223,0,0,0,0,0,0,0,0,0,-1,860,1247,0,0
-357,-223,0,0,0,0,0,0,0,0,0,-1,867,1247,0,0
-350,-223,0,0,0,0,0,0,0,0,0,-1,874,1247,0,0
-343,-223,0,0,0,0,0,0,0,0,0,-1,881,1247,0,0
-336,-223,0,0,0,0,0,0,0,0,0,-1,888,1247,0,0
-329,-223,0,0,0,0,0,0,0,0,0,-1,895,1247,0,0
-322,-223,0,0,0,0,0,0,0,0,0,-1,902,1247,0,0
-315,-223,0,0,0,0,0,0,0,0,0,-1,909,1247,0,0
-308,-223,0,0,0,0,0,0,0,0,0,-1,916,1247,0,0
-301,-223,0,0,0,0,0,0,0,0,0,-1,923,1247,0,0
-294,-223,0,0,0,0,0,0,0,0,0,-1,930,1247,0,0
-287,-223,0,0,0,0,0,0,0,0,0,-1,937,1247,0,0
-280,-223,0,0,0,0,0,0,0,0,0,-1,944,1247,0,0
-273,-223,0,0,0,0,0,0,0,0,0,-1,951,1247,0,0
-266,-223,0,0,0,0,0,0,0,0,0,-1,958,1247,0,0
-259,-223,0,0,0,0,0,0,0,0,0,-1,965,1247,0,0
-252,-223,0,0,0,0,0,0,0,0,0,-1,972,1247,0,0
-245,-223,0,0,0,0,0,0,0,0,0,-1,979,1247,0,0
-238,-223,0,0,0,0,0,0,0,0,0,-1,986,1247,0,0
-231,-223,0,0,0,0,0,0,0,0,0,-1,993,1247,0,0
-224,-223,0,0,0,0,0,0,0,0,0,-1,1000,1247,0,0
-217,-223,0,0,0,0,0,0,0,0,0,-1,1007,1247,0,0
-210,-223,0,0,0,0,0,0,0,0,0,-1,1014,1247,0,0
-203,-223,0,0,0,0,0,0,0,0,0,-1,1021,1247,0,0
-196,-223,0,0,0,0,0,0,0,0,0,-1,1028,1247,0,0
-189,-223,0,0,0,0,0,0,0,0,0,-1,1035,1247,0,0
-182,-223,0,0,0,0,0,0,0,0,0,-1,1042,1247,0,0
-175,-223,0,0,0,0,0,0,0,0,0,-1,1049,1247,0,0
-168,-223,0,0,0,0,0,0,0,0,0,-1,1056,1247,0,0
-161,-223,0,0,0,0,0,0,0,0,0,-1,1063,1247,0,0
-154,-223,0,0,0,0,0,0,0,0,0,-1,1070,1247,0,0
-147,-223,0,0,0,0,0,0,0,0,0,-1,1077,1247,0,0
-140,-223,0,0,0,0,0,0,0,0,0,-1,1084,1247,0,0
-133,-223,0,0,0,0,0,0,0,0,0,-1,1091,1247,0,0
-126,-223,0,0,0,0,0,0,0,0,0,-1,1098,1247,0,0
-119,-223,0,0,0,0,0,0,0,0,0,-1,1105,1247,0,0
-112,-223,0,0,0,0,0,0,0,0,0,-1,1112,1247,0,0
-105,-223,0,0,0,0,0,0,0,0,0,-1,1119,1247,0,0
-98,-223,0,0,0,0,0,0,0,0,0,-1,1126,1247,0,0
-91,-223,0,0,0,0,0,0,0,0,0,-1,1133,1247,0,0
-84,-223,0,0,0,0,0,0,0,0,0,-1,1140,1247,0,0
-77,-223,0,0,0,0,0,0,0,0,0,-1,1147,1247,0,0
-70,-223,0,0,0,0,0,0,0,0,0,-1,1154,1247,0,0
-63,-223,0,0,0,0,0,0,0,0,0,-1,1161,1247,0,0
-56,-223,0,0,0,0,0,0,0,0,0,-1,1168,1247,0,0
-49,-223,0,0,0,0,0,0,0,0,0,-1,1175,1247,0,0
-42,-223,0,0,0,0,0,0,0,0,0,-1,1182,1247,0,0
-35,-223,0,0,0,0,0,0,0,0,0,-1,1189,1247,0,0
-28,-223,0,0,0,0,0,0,0,0,0,-1,1196,1247,0,0
-21,-223,0,0,0,0,0,0,0,0,0,-1,1203,1247,0,0
-14,-223,0,0,0,0,0,0,0,0,0,-1,1210,1247,0,0
-7,-223,0,0,0,0,0,0,0,0,0,-1,1217,1247,0,0
0,-223,0,0,0,0,0,0,0,0,0,-1,1224,1247,0,0
7,-223,0,0,0,0,0,0,0,0,0,-1,1231,1247,0,0
14,-223,0,0,0,0,0,0,0,0,0,-1,1238,1247,0,0
21,-223,0,0,0,0,0,0,0,0,0,-1,1245,1247,0,0
28,-223,0,0,0,0,0,0,0,0,0,-1,1252,1247,0,0
35,-223,0,0,0,0,0,0,0,0,0,-1,1259,1247,0,0
42,-223,0,0,0,0,0,0,0,0,0,-1,1266,1247,0,0
49,-223,0,0,0,0,0,0,0,0,0,-1,1273,1247,0,0
56,-223,0,0,0,0,0,0,0,0,0,-1,1280,1247,0,0
63,-223,0,0,0,0,0,0,0,0,0,-1,1287,1247,0,0
70,-223,0,0,0,0,0,0,0,0,0,-1,1294,1247,0,0
77,-223,0,0,0,0,0,0,0,0,0,-1,1301,1247,0,0
84,-223,0,0,0,0,0,0,0,0,0,-1,1308,1247,0,0
91,-223,0,0,0,0,0,0,0,0,0,-1,1315,1247,0,0
98,-223,0,0,0,0,0,0,0,0,0,-1,1322,1247,0,0
105,-223,0,0,0,0,0,0,0,0,0,-1,1329,1247,0,0
112,-223,0,0,0,0,0,0,0,0,0,-1,1336,1247,0,0
119,-223,0,0,0,0,0,0,0,0,0,-1,1343,1247,0,0
126,-223,0,0,0,0,0,0,0,0,0,-1,1350,1247,0,0
133,-223,0,0,0,0,0,0,0,0,0,-1,1357,1247,0,0
140,-223,0,0,0,0,0,0,0,0,0,-1,1364,1247,0,0
147,-223,0,0,0,0,0,0,0,0,0,-1,1371,1247,0,0
154,-223,0,0,0,0,0,0,0,0,0,-1,1378,1247,0,0
161,-223,0,0,0,0,0,0,0,0,0,-1,1385,1247,0,0
168,-223,0,0,0,0,0,0,0,0,0,-1,1392,1247,0,0
175,-223,0,0,0,0,0,0,0,0,0,-1,1399,1247,0,0
182,-223,0,0,0,0,0,0,0,0,0,-1,1406,1247,0,0
189,-223,0,0,0,0,0,0,0,0,0,-1,1413,1247,0,0
196,-223,0,0,0,0,0,0,0,0,0,-1,1420,1247,0,0
203,-223,0,0,0,0,0,0,0,0,0,-1,1427,1247,0,0
210,-223,0,0,0,0,0,0,0,0,0,-1,1434,1247,0,0
217,-223,0,0,0,0,0,0,0,0,0,-1,1441,1247,0,0
224,-223,0,0,0,0,0,0,0,0,0,-1,1448,1247,0,0
231,-223,0,0,0,0,0,0,0,0,0,-1,1455,1247,0,0
238,-223,0,0,0,0,0,0,0,0,0,-1,1462,1247,0,0
245,-223,0,0,0,0,0,0,0,0,0,-1,1469,1247,0,0
252,-223,0,0,0,0,0,0,0,0,0,-1,1476,1247,0,0
259,-223,0,0,0,0,0,0,0,0,0,-1,1483,1247,0,0
266,-223,0,0,0,0,0,0,0,0,0,-1,1490,1247,0,0
273,-223,0,0,0,0,0,0,0,0,0,-1,1497,1247,0,0
280,-223,0,0,0,0,0,0,0,0,0,-1,1504,1247,0,0
287,-223,0,0,0,0,0,0,0,0,0,-1,1511,1247,0,0
294,-223,0,0,0,0,0,0,0,0,0,-1,1518,1247,0,0
301,-223,0,0,0,0,0,0,0,0,0,-1,1525,1247,0,0
308,-223,0,0,0,0,0,0,0,0,0,-1,1532,1247,0,0
315,-223,0,0,0,0,0,0,0,0,0,-1,1539,1247,0,0
322,-223,0,0,0,0,0,0,0,0,0,-1,1546,1247,0,0
329,-223,0,0,0,0,0,0,0,0,0,-1,1553,1247,0,0
336,-223,0,0,0,0,0,0,0,0,0,-1,1560,1247,0,0
343,-223,0,0,0,0,0,0,0,0,0,-1,1567,1247,0,0
350,-223,0,0,0,0,0,0,0,0,0,-1,1574,1247,0,0
357,-223,0,0,0,0,0,0,0,0,0,-1,1581,1247,0,0
364,-223,0,0,0,0,0,0,0,0,0,-1,1588,1247,0,0
371,-223,0,0,0,0,0,0,0,0,0,-1,1595,1247,0,0
378,-223,0,0,0,0,0,0,0,0,0,-1,1602,1247,0,0
385,-223,0,0,0,0,0,0,0,0,0,-1,1609,1247,0,0
392,-223,0,0,0,0,0,0,0,0,0,-1,1616,1247,0,0
399,-223,0,0,0,0,0,0,0,0,0,-1,1623,1247,0,0
406,-223,0,0,0,0,0,0,0,0,0,-1,1630,1247,0,0
413,-223,0,0,0,0,0,0,0,0,0,-1,1637,1247,0,0
420,-223,0,0,0,0,0,0,0,0,0,-1,1644,1247,0,0
427,-223,0,0,0,0,0,0,0,0,0,-1,1651,1247,0,0
434,-223,0,0,0,0,0,0,0,0,0,-1,1658,1247,0,0
441,-223,0,0,0,0,0,0,0,0,0,-1,1665,1247,0,0
448,-223,0,0,0,0,0,0,0,0,0,-1,1672,1247,0,0
455,-223,0,0,0,0,0,0,0,0,0,-1,1679,1247,0,0
462,-223,0,0,0,0,0,0,0,0,0,-1,1686,1247,0,0
469,-223,0,0,0,0,0,0,0,0,0,-1,1693,1247,0,0
476,-223,0,0,0,0,0,0,0,0,0,-1,1700,1247,0,0
483,-223,0,0,0,0,0,0,0,0,0,-1,1707,1247,0,0
490,-223,0,0,0,0,0,0,0,0,0,-1,1714,1247,0,0
497,-223,0,0,0,0,0,0,0,0,0,-1,1721,1247,0,0
504,-223,0,0,0,0,0,0,0,0,0,-1,1728,1247,0,0
511,-223,0,0,0,0,0,0,0,0,0,-1,1735,1247,0,0
518,-223,0,0,0,0,0,0,0,0,0,-1,1742,1247,0,0
525,-223,0,0,0,0,0,0,0,0,0,-1,1749,1247,0,0
532,-223,0,0,0,0,0,0,0,0,0,-1,1756,1247,0,0
539,-223,0,0,0,0,0,0,0,0,0,-1,1763,1247,0,0
546,-223,0,0,0,0,0,0,0,0,0,-1,1770,1247,0,0
553,-223,0,0,0,0,0,0,0,0,0,-1,1777,1247,0,0
560,-223,0,0,0,0,0,0,0,0,0,-1,1784,1247,0,0
567,-223,0,0,0,0,0,0,0,0,0,-1,1791,1247,0,0
574,-223,0,0,0,0,0,0,0,0,0,-1,1798,1247,0,0
581,-223,0,0,0,0,0,0,0,0,0,-1,1805,1247,0,0
588,-223,0,0,0,0,0,0,0,0,0,-1,1812,1247,0,0
595,-223,0,0,0,0,0,0,0,0,0,-1,1819,1247,0,0
602,-223,0,0,0,0,0,0,0,0,0,-1,1826,1247,0,0
609,-223,0,0,0,0,0,0,0,0,0,-1,1833,1247,0,0
616,-223,0,0,0,0,0,0,0,0,0,-1,1840,1247,0,0
623,-223,46.1931,3.0564,0.00436966,0.00683941,-0.00391706,0.00971164,0.00149743,-0.938095,0.0060375,0.038879,1847,1247,46.1931,-3.05636
630,-223,46.1896,2.91553,-0.00143781,0.00405583,-0.000484136,0.00409817,-0.00148015,-1.48357,0.00333678,0.0360346,1854,1247,46.1896,-2.91554
637,-223,46.2582,2.85107,-0.00669586,0.00079772,0.00318603,0.00196919,-0.00786732,1.21845,0.00600979,0.0296008,1861,1247,46.2582,-2.85104
644,-223,46.2805,2.79736,-0.00926951,-0.00180299,0.00559528,0.00119014,-0.0122626,1.07959,0.00859931,0.0228332,1868,1247,46.2805,-2.79736
651,-223,46.2428,2.72266,-0.00886384,-0.00288298,0.00582555,0.000674844,-0.0124217,1.02253,0.00851498,0.0305519,1875,1247,46.2428,-2.72269
658,-223,46.2196,2.6748,0,0,0,0,0,0,0,-1,1882,1247,46.2196,-2.67486
665,-223,46.1758,2.76892,0,0,0,0,0,0,0,-1,1889,1247,46.1758,-2.76893
672,-223,44.368,2.3197,0,0,0,0,0,0,0,-1,1896,1247,44.368,-2.31973
679,-223,43.2783,2.46973,0,0,0,0,0,0,0,-1,1903,1247,43.2784,-2.46978
686,-223,36.9998,9.64624,0,0,0,0,0,0,0,-1,1910,1247,36.9998,-9.6463
693,-223,36.8938,9.22119,-0.00242686,-0.00352794,0.00295814,3.15367e-05,-0.00598633,0.693396,0.00400144,0.0438689,1917,1247,36.8938,-9.22116
700,-223,36.7299,8.79553,-0.00110737,-0.00328685,0.00207664,0.000148092,-0.00454231,0.543768,0.00307876,0.0225726,1924,1247,36.7298,-8.79551
707,-223,36.6605,8.40063,8.53715e-05,-0.00275969,0.000916407,0.000354998,-0.00302931,0.286147,0.00214768,0.0182409,1931,1247,36.6606,-8.40063
714,-223,36.6449,8.01892,3.9456e-05,-0.0016318,0.000808763,0.000366743,-0.00195909,0.384531,0.00144392,0.0119023,1938,1247,36.6449,-8.01893
721,-223,36.6455,7.61536,-0.00038727,-0.00151257,0.00116236,0.00034146,-0.0022413,0.559991,0.00162006,0.0142964,1945,1247,36.6455,-7.61535
728,-223,36.6431,7.20935,-0.000663806,-0.00107194,0.00163046,0.000775311,-0.00251106,0.723142,0.00198364,0.0168634,1952,1247,36.643,-7.20937
735,-223,36.616,6.82629,-0.000893904,-0.000487913,0.00194878,0.00126842,-0.00265023,0.837294,0.00230884,0.0163957,1959,1247,36.616,-6.8263
742,-223,36.5544,6.45398,-0.000890993,0.000179564,0.0022832,0.0019894,-0.00270082,0.90054,0.00271826,0.0153462,1966,1247,36.5545,-6.454
749,-223,36.5541,5.98218,-0.000608865,0.000885081,0.00264548,0.00288702,-0.00261081,0.922995,0.00317551,0.0139976,1973,1247,36.554,-5.98219
756,-223,36.524,5.55566,0.000181958,0.00173546,0.00291472,0.00397515,-0.00205774,0.915618,0.00354125,0.0165987,1980,1247,36.524,-5.55564
763,-223,36.4978,5.25354,0.00155758,0.00262597,0.00313374,0.00527072,-0.00108717,0.869819,0.0039267,0.0217749,1987,1247,36.4977,-5.25348
770,-223,36.5706,4.92273,0.00327655,0.0035043,0.00361936,0.00701158,-0.000230731,0.801125,0.00475316,0.04558,1994,1247,36.5705,-4.92277
777,-223,36.6404,4.56372,0,0,0,0,0,0,0,-1,2001,1247,36.6404,-4.56366
784,-223,35.1801,2.14172,0,0,0,0,0,0,0,-1,2008,1247,35.1801,-2.14178
791,-223,34.7136,2.92554,0,0,0,0,0,0,0,-1,2015,1247,34.7137,-2.92555
798,-223,0,0,0,0,0,0,0,0,0,-1,2022,1247,0,0
805,-223,0,0,0,0,0,0,0,0,0,-1,2029,1247,0,0
812,-223,0,0,0,0,0,0,0,0,0,-1,2036,1247,0,0
-700,-230,0,0,0,0,0,0,0,0,0,-1,524,1254,0,0
-693,-230,0,0,0,0,0,0,0,0,0,-1,531,1254,0,0
-686,-230,0,0,0,0,0,0,0,0,0,-1,538,1254,0,0
-679,-230,0,0,0,0,0,0,0,0,0,-1,545,1254,0,0
-672,-230,-29.5114,-13.923,0,0,0,0,0,0,0,-1,552,1254,-29.5114,13.9229
-665,-230,-29.7886,-13.2142,0,0,0,0,0,0,0,-1,559,1254,-29.7885,13.2142
-658,-230,-29.6566,-13.4025,0,0,0,0,0,0,0,-1,566,1254,-29.6566,13.4025
-651,-230,-29.1981,-13.4294,0,0,0,0,0,0,0,-1,573,1254,-29.1981,13.4295
-644,-230,-22.1688,1.23816,0,0,0,0,0,0,0,-1,580,1254,-22.1688,-1.23818
-637,-230,-23.1925,2.07837,0,0,0,0,0,0,0,-1,587,1254,-23.1925,-2.07843
-630,-230,-23.1032,2.43701,0.00488241,-0.00478138,0.00538794,0.00728772,-0.00718669,0.419877,0.00835687,0.0486025,594,1254,-23.1032,-2.43702
-623,-230,-23.0341,2.84729,0.00266456,-0.00267271,0.00357236,0.004455,-0.00446315,0.464601,0.0051489,0.0272034,601,1254,-23.0341,-2.84734
-616,-230,-23.0892,3.38635,0.00186493,-0.000941102,0.00241467,0.00325459,-0.00233077,0.522218,0.00323938,0.0170324,608,1254,-23.0892,-3.38637
-609,-230,-23.0872,3.85657,0.00156454,-6.39551e-05,0.00160768,0.00255242,-0.00105183,0.550992,0.00214019,0.0129098,615,1254,-23.0872,-3.85656
-602,-230,-23.0708,4.28784,0.00170663,0.000649204,0.00071395,0.00206632,0.000289512,0.466688,0.0012919,0.0128474,622,1254,-23.0708,-4.28784
-595,-230,-23.0667,4.7666,0.00201317,0.000490637,0.000146926,0.00202722,0.000476588,0.0953291,0.00122395,0.0199947,629,1254,-23.0667,-4.76658
-588,-230,-23.0878,5.22949,0.0022043,0.000497165,0.000155361,0.00221833,0.000483142,0.0900211,0.00134704,0.0268643,636,1254,-23.0878,-5.22951
-581,-230,-23.1403,5.69885,0.00213331,0.000460575,0.000398908,0.00222357,0.000370316,0.22252,0.00137566,0.0241303,643,1254,-23.1403,-5.69883
-574,-230,-23.1401,6.1377,0.00157359,0.000656028,0.000864092,0.00209314,0.000136477,0.541351,0.00135224,0.0196962,650,1254,-23.1401,-6.13774
-567,-230,-22.9733,6.59338,0.000212809,0.00143033,0.00117965,0.00214903,-0.000505896,1.0236,0.00162774,0.0368644,657,1254,-22.9733,-6.59342
-560,-230,-22.7831,7.0741,0,0,0,0,0,0,0,-1,664,1254,-22.7831,-7.07413
-553,-230,-13.1939,4.9718,0,0,0,0,0,0,0,-1,671,1254,-13.1939,-4.97175
-546,-230,-15.23,0.453979,0,0,0,0,0,0,0,-1,678,1254,-15.23,-0.453996
-539,-230,-25.8232,0.512817,0,0,0,0,0,0,0,-1,685,1254,-25.8232,-0.512878
-532,-230,-21.1644,1.52966,0,0,0,0,0,0,0,-1,692,1254,-21.1644,-1.52969
-525,-230,-29.4775,0.731445,0,0,0,0,0,0,0,-1,699,1254,-29.4775,-0.731432
-518,-230,-33.7133,1.00403,0,0,0,0,0,0,0,-1,706,1254,-33.7133,-1.00406
-511,-230,-33.8265,0.895996,-0.0127116,0.00484286,0.000753105,0.00487511,-0.0127438,1.528,0.010505,0.0399015,713,1254,-33.8265,-0.89598
-504,-230,-33.8934,0.994263,-0.0120075,0.00307976,0.000785233,0.00312051,-0.0120482,1.51894,0.00924948,0.0390036,720,1254,-33.8934,-0.994307
-497,-230,0,0,0,0,0,0,0,0,0,-1,727,1254,0,0
-490,-230,0,0,0,0,0,0,0,0,0,-1,734,1254,0,0
-483,-230,0,0,0,0,0,0,0,0,0,-1,741,1254,0,0
-476,-230,0,0,0,0,0,0,0,0,0,-1,748,1254,0,0
-469,-230,0,0,0,0,0,0,0,0,0,-1,755,1254,0,0
-462,-230,0,0,0,0,0,0,0,0,0,-1,762,1254,0,0
-455,-230,0,0,0,0,0,0,0,0,0,-1,769,1254,0,0
-448,-230,0,0,0,0,0,0,0,0,0,-1,776,1254,0,0
-441,-230,0,0,0,0,0,0,0,0,0,-1,783,1254,0,0
-434,-230,0,0,0,0,0,0,0,0,0,-1,790,1254,0,0
-427,-230,0,0,0,0,0,0,0,0,0,-1,797,1254,0,0
-420,-230,0,0,0,0,0,0,0,0,0,-1,804,1254,0,0
-413,-230,0,0,0,0,0,0,0,0,0,-1,811,1254,0,0
-406,-230,0,0,0,0,0,0,0,0,0,-1,818,1254,0,0
-399,-230,0,0,0,0,0,0,0,0,0,-1,825,1254,0,0
-392,-230,0,0,0,0,0,0,0,0,0,-1,832,1254,0,0
-385,-230,0,0,0,0,0,0,0,0,0,-1,839,1254,0,0
-378,-230,0,0,0,0,0,0,0,0,0,-1,846,1254,0,0
-371,-230,0,0,0,0,0,0,0,0,0,-1,853,1254,0,0
-364,-230,0,0,0,0,0,0,0,0,0,-1,860,1254,0,0
-357,-230,0,0,0,0,0,0,0,0,0,-1,867,1254,0,0
-350,-230,0,0,0,0,0,0,0,0,0,-1,874,1254,0,0
-343,-230,0,0,0,0,0,0,0,0,0,-1,881,1254,0,0
-336,-230,0,0,0,0,0,0,0,0,0,-1,888,1254,0,0
-329,-230,0,0,0,0,0,0,0,0,0,-1,895,1254,0,0
-322,-230,0,0,0,0,0,0,0,0,0,-1,902,1254,0,0
-315,-230,0,0,0,0,0,0,0,0,0,-1,909,1254,0,0
-308,-230,0,0,0,0,0,0,0,0,0,-1,916,1254,0,0
-301,-230,0,0,0,0,0,0,0,0,0,-1,923,1254,0,0
-294,-230,0,0,0,0,0,0,0,0,0,-1,930,1254,0,0
-287,-230,0,0,0,0,0,0,0,0,0,-1,937,1254,0,0
-280,-230,0,0,0,0,0,0,0,0,0,-1,944,1254,0,0
-273,-230,0,0,0,0,0,0,0,0,0,-1,951,1254,0,0
-266,-230,0,0,0,0,0,0,0,0,0,-1,958,1254,0,0
-259,-230,0,0,0,0,0,0,0,0,0,-1,965,1254,0,0
-252,-230,0,0,0,0,0,0,0,0,0,-1,972,1254,0,0
-245,-230,0,0,0,0,0,0,0,0,0,-1,979,1254,0,0
-238,-230,0,0,0,0,0,0,0,0,0,-1,986,1254,0,0
-231,-230,0,0,0,0,0,0,0,0,0,-1,993,1254,0,0
-224,-230,0,0,0,0,0,0,0,0,0,-1,1000,1254,0,0
-217,-230,0,0,0,0,0,0,0,0,0,-1,1007,1254,0,0
-210,-230,0,0,0,0,0,0,0,0,0,-1,1014,1254,0,0
-203,-230,0,0,0,0,0,0,0,0,0,-1,1021,1254,0,0
-196,-230,0,0,0,0,0,0,0,0,0,-1,1028,1254,0,0
-189,-230,0,0,0,0,0,0,0,0,0,-1,1035,1254,0,0
-182,-230,0,0,0,0,0,0,0,0,0,-1,1042,1254,0,0
-175,-230,0,0,0,0,0,0,0,0,0,-1,1049,1254,0,0
-168,-230,0,0,0,0,0,0,0,0,0,-1,1056,1254,0,0
-161,-230,0,0,0,0,0,0,0,0,0,-1,1063,1254,0,0
-154,-230,0,0,0,0,0,0,0,0,0,-1,1070,1254,0,0
-147,-230,0,0,0,0,0,0,0,0,0,-1,1077,1254,0,0
-140,-230,0,0,0,0,0,0,0,0,0,-1,1084,1254,0,0
-133,-230,0,0,0,0,0,0,0,0,0,-1,1091,1254,0,0
-126,-230,0,0,0,0,0,0,0,0,0,-1,1098,1254,0,0
-119,-230,0,0,0,0,0,0,0,0,0,-1,1105,1254,0,0
-112,-230,0,0,0,0,0,0,0,0,0,-1,1112,1254,0,0
-105,-230,0,0,0,0,0,0,0,0,0,-1,1119,1254,0,0
-98,-230,0,0,0,0,0,0,0,0,0,-1,1126,1254,0,0
-91,-230,0,0,0,0,0,0,0,0,0,-1,1133,1254,0,0
-84,-230,0,0,0,0,0,0,0,0,0,-1,1140,1254,0,0
-77,-230,0,0,0,0,0,0,0,0,0,-1,1147,1254,0,0
-70,-230,0,0,0,0,0,0,0,0,0,-1,1154,1254,0,0
-63,-230,0,0,0,0,0,0,0,0,0,-1,1161,1254,0,0
-56,-230,0,0,0,0,0,0,0,0,0,-1,1168,1254,0,0
-49,-230,0,0,0,0,0,0,0,0,0,-1,1175,1254,0,0
-42,-230,0,0,0,0,0,0,0,0,0,-1,1182,1254,0,0
-35,-230,0,0,0,0,0,0,0,0,0,-1,1189,1254,0,0
-28,-230,0,0,0,0,0,0,0,0,0,-1,1196,1254,0,0
-21,-230,0,0,0,0,0,0,0,0,0,-1,1203,1254,0,0
-14,-230,0,0,0,0,0,0,0,0,0,-1,1210,1254,0,0
-7,-230,0,0,0,0,0,0,0,0,0,-1,1217,1254,0,0
0,-230,0,0,0,0,0,0,0,0,0,-1,1224,1254,0,0
7,-230,0,0,0,0,0,0,0,0,0,-1,1231,1254,0,0
14,-230,0,0,0,0,0,0,0,0,0,-1,1238,1254,0,0
21,-230,0,0,0,0,0,0,0,0,0,-1,1245,1254,0,0
28,-230,0,0,0,0,0,0,0,0,0,-1,1252,1254,0,0
35,-230,0,0,0,0,0,0,0,0,0,-1,1259,1254,0,0
42,-230,0,0,0,0,0,0,0,0,0,-1,1266,1254,0,0
49,-230,0,0,0,0,0,0,0,0,0,-1,1273,1254,0,0
56,-230,0,0,0,0,0,0,0,0,0,-1,1280,1254,0,0
63,-230,0,0,0,0,0,0,0,0,0,-1,1287,1254,0,0
70,-230,0,0,0,0,0,0,0,0,0,-1,1294,1254,0,0
77,-230,0,0,0,0,0,0,0,0,0,-1,1301,1254,0,0
84,-230,0,0,0,0,0,0,0,0,0,-1,1308,1254,0,0
91,-230,0,0,0,0,0,0,0,0,0,-1,1315,1254,0,0
98,-230,0,0,0,0,0,0,0,0,0,-1,1322,1254,0,0
105,-230,0,0,0,0,0,0,0,0,0,-1,1329,1254,0,0
112,-230,0,0,0,0,0,0,0,0,0,-1,1336,1254,0,0
119,-230,0,0,0,0,0,0,0,0,0,-1,1343,1254,0,0
126,-230,0,0,0,0,0,0,0,0,0,-1,1350,1254,0,0
133,-230,0,0,0,0,0,0,0,0,0,-1,1357,1254,0,0
140,-230,0,0,0,0,0,0,0,0,0,-1,1364,1254,0,0
147,-230,0,0,0,0,0,0,0,0,0,-1,1371,1254,0,0
154,-230,0,0,0,0,0,0,0,0,0,-1,1378,1254,0,0
161,-230,0,0,0,0,0,0,0,0,0,-1,1385,1254,0,0
168,-230,0,0,0,0,0,0,0,0,0,-1,1392,1254,0,0
175,-230,0,0,0,0,0,0,0,0,0,-1,1399,1254,0,0
182,-230,0,0,0,0,0,0,0,0,0,-1,1406,1254,0,0
189,-230,0,0,0,0,0,0,0,0,0,-1,1413,1254,0,0
196,-230,0,0,0,0,0,0,0,0,0,-1,1420,1254,0,0
203,-230,0,0,0,0,0,0,0,0,0,-1,1427,1254,0,0
210,-230,0,0,0,0,0,0,0,0,0,-1,1434,1254,0,0
217,-230,0,0,0,0,0,0,0,0,0,-1,1441,1254,0,0
224,-230,0,0,0,0,0,0,0,0,0,-1,1448,1254,0,0
231,-230,0,0,0,0,0,0,0,0,0,-1,1455,1254,0,0
238,-230,0,0,0,0,0,0,0,0,0,-1,1462,1254,0,0
245,-230,0,0,0,0,0,0,0,0,0,-1,1469,1254,0,0
252,-230,0,0,0,0,0,0,0,0,0,-1,1476,1254,0,0
259,-230,0,0,0,0,0,0,0,0,0,-1,1483,1254,0,0
266,-230,0,0,0,0,0,0,0,0,0,-1,1490,1254,0,0
273,-230,0,0,0,0,0,0,0,0,0,-1,1497,1254,0,0
280,-230,0,0,0,0,0,0,0,0,0,-1,1504,1254,0,0
287,-230,0,0,0,0,0,0,0,0,0,-1,1511,1254,0,0
294,-230,0,0,0,0,0,0,0,0,0,-1,1518,1254,0,0
301,-230,0,0,0,0,0,0,0,0,0,-1,1525,1254,0,0
308,-230,0,0,0,0,0,0,0,0,0,-1,1532,1254,0,0
315,-230,0,0,0,0,0,0,0,0,0,-1,1539,1254,0,0
322,-230,0,0,0,0,0,0,0,0,0,-1,1546,1254,0,0
329,-230,0,0,0,0,0,0,0,0,0,-1,1553,1254,0,0
336,-230,0,0,0,0,0,0,0,0,0,-1,1560,1254,0,0
343,-230,0,0,0,0,0,0,0,0,0,-1,1567,1254,0,0
350,-230,0,0,0,0,0,0,0,0,0,-1,1574,1254,0,0
357,-230,0,0,0,0,0,0,0,0,0,-1,1581,1254,0,0
364,-230,0,0,0,0,0,0,0,0,0,-1,1588,1254,0,0
371,-230,0,0,0,0,0,0,0,0,0,-1,1595,1254,0,0
378,-230,0,0,0,0,0,0,0,0,0,-1,1602,1254,0,0
385,-230,0,0,0,0,0,0,0,0,0,-1,1609,1254,0,0
392,-230,0,0,0,0,0,0,0,0,0,-1,1616,1254,0,0
399,-230,0,0,0,0,0,0,0,0,0,-1,1623,1254,0,0
406,-230,0,0,0,0,0,0,0,0,0,-1,1630,1254,0,0
413,-230,0,0,0,0,0,0,0,0,0,-1,1637,1254,0,0
420,-230,0,0,0,0,0,0,0,0,0,-1,1644,1254,0,0
427,-230,0,0,0,0,0,0,0,0,0,-1,1651,1254,0,0
434,-230,0,0,0,0,0,0,0,0,0,-1,1658,1254,0,0
441,-230,0,0,0,0,0,0,0,0,0,-1,1665,1254,0,0
448,-230,0,0,0,0,0,0,0,0,0,-1,1672,1254,0,0
455,-230,0,0,0,0,0,0,0,0,0,-1,1679,1254,0,0
462,-230,0,0,0,0,0,0,0,0,0,-1,1686,1254,0,0
469,-230,0,0,0,0,0,0,0,0,0,-1,1693,1254,0,0
476,-230,0,0,0,0,0,0,0,0,0,-1,1700,1254,0,0
483,-230,0,0,0,0,0,0,0,0,0,-1,1707,1254,0,0
490,-230,0,0,0,0,0,0,0,0,0,-1,1714,1254,0,0
497,-230,0,0,0,0,0,0,0,0,0,-1,1721,1254,0,0
504,-230,0,0,0,0,0,0,0,0,0,-1,1728,1254,0,0
511,-230,0,0,0,0,0,0,0,0,0,-1,1735,1254,0,0
518,-230,0,0,0,0,0,0,0,0,0,-1,1742,1254,0,0
525,-230,0,0,0,0,0,0,0,0,0,-1,1749,1254,0,0
532,-230,0,0,0,0,0,0,0,0,0,-1,1756,1254,0,0
539,-230,0,0,0,0,0,0,0,0,0,-1,1763,1254,0,0
546,-230,0,0,0,0,0,0,0,0,0,-1,1770,1254,0,0
553,-230,0,0,0,0,0,0,0,0,0,-1,1777,1254,0,0
560,-230,0,0,0,0,0,0,0,0,0,-1,1784,1254,0,0
567,-230,0,0,0,0,0,0,0,0,0,-1,1791,1254,0,0
574,-230,0,0,0,0,0,0,0,0,0,-1,1798,1254,0,0
581,-230,0,0,0,0,0,0,0,0,0,-1,1805,1254,0,0
588,-230,0,0,0,0,0,0,0,0,0,-1,1812,1254,0,0
595,-230,0,0,0,0,0,0,0,0,0,-1,1819,1254,0,0
602,-230,0,0,0,0,0,0,0,0,0,-1,1826,1254,0,0
609,-230,0,0,0,0,0,0,0,0,0,-1,1833,1254,0,0
616,-230,46.2543,2.9679,0.00906866,0.0101989,-0.00739011,0.0170454,0.00222207,-0.823557,0.0107001,0.0381263,1840,1254,46.2543,-2.96787
623,-230,46.3734,3.12012,0.00163517,0.00768444,-0.00333612,0.00916293,0.000156681,-1.15363,0.00605707,0.0376891,1847,1254,46.3735,-3.1201
630,-230,46.2921,2.98132,-0.00525532,0.00436859,0.000975664,0.00446651,-0.00535324,1.47077,0.00567713,0.0322569,1854,1254,46.2921,-2.98133
637,-230,46.2604,2.8468,-0.011231,0.00042323,0.00548032,0.00259544,-0.0134032,1.19343,0.0099145,0.0271528,1861,1254,46.2604,-2.84678
644,-230,46.2167,2.75647,-0.0129674,-0.00227799,0.00774876,0.00179055,-0.0170359,1.0873,0.0119988,0.0215904,1868,1254,46.2167,-2.75645
651,-230,46.104,2.59583,-0.0117913,-0.00332362,0.00768892,0.00122005,-0.016335,1.03707,0.0113186,0.0444501,1875,1254,46.104,-2.59587
658,-230,45.9641,2.42834,0,0,0,0,0,0,0,-1,1882,1254,45.9642,-2.4283
665,-230,45.6747,2.09619,0,0,0,0,0,0,0,-1,1889,1254,45.6747,-2.09614
672,-230,43.0962,2.78699,0,0,0,0,0,0,0,-1,1896,1254,43.0962,-2.78698
679,-230,27.9967,2.37708,0,0,0,0,0,0,0,-1,1903,1254,27.9967,-2.3771
686,-230,36.1174,9.50403,0,0,0,0,0,0,0,-1,1910,1254,36.1174,-9.50408
693,-230,36.1836,9.22693,-0.00307167,-0.00414869,0.00399917,0.000425086,-0.00764545,0.718473,0.00524441,0.0450199,1917,1254,36.1836,-9.22693
700,-230,36.2576,8.88171,-0.00115314,-0.00366972,0.00265224,0.000524156,-0.00534702,0.563908,0.00375162,0.0174319,1924,1254,36.2576,-8.88177
707,-230,36.2228,8.453,0.000459598,-0.00279498,0.000968238,0.000725865,-0.00306125,0.268368,0.00232094,0.0106964,1931,1254,36.2228,-8.45306
714,-230,36.2201,8.04285,0.000363954,-0.00141428,0.00075646,0.00064221,-0.00169253,0.352479,0.00139269,0.0133149,1938,1254,36.2201,-8.04286
721,-230,36.2034,7.6322,-0.000201707,-0.00123107,0.00113068,0.000525919,-0.00195869,0.571815,0.00151191,0.0127206,1945,1254,36.2033,-7.63217
728,-230,36.1705,7.23242,-0.000706435,-0.000791172,0.00161082,0.000862574,-0.00236018,0.77225,0.00192646,0.0145351,1952,1254,36.1705,-7.23241
735,-230,36.1646,6.83044,-0.00115858,-0.000262148,0.00200111,0.00134033,-0.00276105,0.895571,0.00241482,0.0157039,1959,1254,36.1645,-6.83043
742,-230,36.1268,6.41321,-0.00140979,0.000325657,0.00240691,0.00201648,-0.00310062,0.958403,0.00297638,0.0126054,1966,1254,36.1268,-6.41315
749,-230,36.1278,5.96252,-0.00138693,0.00096411,0.00285965,0.00288043,-0.00330324,0.980405,0.00357292,0.0123359,1973,1254,36.1278,-5.96258
756,-230,36.1273,5.57202,-0.000861356,0.00177579,0.00319226,0.00391108,-0.00299664,0.981252,0.00399981,0.017266,1980,1254,36.1274,-5.57206
763,-230,36.1339,5.15613,0.000225574,0.00264005,0.0034922,0.00512779,-0.00226217,0.951816,0.00437221,0.0345895,1987,1254,36.1339,-5.15609
770,-230,36.0795,4.58948,0.00163163,0.00356946,0.00404988,0.00676472,-0.00156363,0.902814,0.00511138,0.0472825,1994,1254,36.0795,-4.58944
777,-230,36.1682,4.11133,0,0,0,0,0,0,0,-1,2001,1254,36.1682,-4.1113
784,-230,35.8896,1.80334,0,0,0,0,0,0,0,-1,2008,1254,35.8897,-1.80338
791,-230,35.6028,2.20642,0,0,0,0,0,0,0,-1,2015,1254,35.6027,-2.2064
798,-230,0,0,0,0,0,0,0,0,0,-1,2022,1254,0,0
805,-230,0,0,0,0,0,0,0,0,0,-1,2029,1254,0,0
812,-230,0,0,0,0,0,0,0,0,0,-1,2036,1254,0,0
-700,-237,0,0,0,0,0,0,0,0,0,-1,524,1261,0,0
-693,-237,0,0,0,0,0,0,0,0,0,-1,531,1261,0,0
-686,-237,0,0,0,0,0,0,0,0,0,-1,538,1261,0,0
-679,-237,0,0,0,0,0,0,0,0,0,-1,545,1261,0,0
-672,-237,-29.3025,-15.5063,0,0,0,0,0,0,0,-1,552,1261,-29.3025,15.5064
-665,-237,-29.1047,-11.6073,0,0,0,0,0,0,0,-1,559,1261,-29.1047,11.6073
-658,-237,-29.7421,-14.4137,0,0,0,0,0,0,0,-1,566,1261,-29.7421,14.4137
-651,-237,-37.2526,1.15991,0,0,0,0,0,0,0,-1,573,1261,-37.2526,-1.15996
-644,-237,-22.7836,6.22681,0,0,0,0,0,0,0,-1,580,1261,-22.7836,-6.22677
-637,-237,-22.5997,2.10327,0,0,0,0,0,0,0,-1,587,1261,-22.5997,-2.10324
-630,-237,-22.5837,2.52637,0.00321042,-0.00481804,0.00647278,0.00681267,-0.0084203,0.507839,0.00881107,0.0489188,594,1261,-22.5837,-2.52636
-623,-237,-22.501,2.86145,0.00231771,-0.00167594,0.00471438,0.00544072,-0.00479895,0.585072,0.00591574,0.0309552,601,1261,-22.501,-2.86145
-616,-237,-22.5413,3.39478,0.00168254,-0.000119599,0.00333028,0.0042315,-0.00266856,0.653277,0.00401767,0.0151449,608,1261,-22.5413,-3.39474
-609,-237,-22.5765,3.82886,0.0015618,0.000606084,0.00232442,0.00345698,-0.00128909,0.68402,0.00283383,0.0172037,615,1261,-22.5765,-3.82881
-602,-237,-22.5993,4.29004,0.00179184,0.00106658,0.00139819,0.00287366,-1.52491e-05,0.658516,0.00192088,0.0137057,622,1261,-22.5993,-4.28998
-595,-237,-22.633,4.78516,0.00212799,0.000738652,0.000773149,0.00247271,0.000393934,0.419407,0.00153411,0.0168684,629,1261,-22.633,-4.78519
-588,-237,-22.6479,5.2489,0.00243775,0.000544185,0.000599811,0.00261176,0.000370178,0.282353,0.00163184,0.0279718,636,1261,-22.6479,-5.24885
-581,-237,-22.6776,5.70605,0.00257504,0.000357852,0.000633044,0.00274305,0.000189839,0.259424,0.00176882,0.0254872,643,1261,-22.6776,-5.70606
-574,-237,-22.6794,6.18481,0.00220135,0.000447185,0.000872512,0.00256142,8.7113e-05,0.391393,0.00167933,0.0167348,650,1261,-22.6794,-6.18477
-567,-237,-22.6489,6.66467,0.000821843,0.00127108,0.00105367,0.0021238,-3.08842e-05,0.890414,0.00142627,0.0256254,657,1261,-22.6489,-6.66465
-560,-237,-22.516,7.06287,0,0,0,0,0,0,0,-1,664,1261,-22.516,-7.06285
-553,-237,-20.6102,6.92139,0,0,0,0,0,0,0,-1,671,1261,-20.6102,-6.92138
-546,-237,-11.192,1.14014,0,0,0,0,0,0,0,-1,678,1261,-11.192,-1.14011
-539,-237,-16.512,1.53455,0,0,0,0,0,0,0,-1,685,1261,-16.512,-1.53457
-532,-237,-29.7025,1.23621,0,0,0,0,0,0,0,-1,692,1261,-29.7025,-1.23618
-525,-237,-33.0974,1.11963,0,0,0,0,0,0,0,-1,699,1261,-33.0974,-1.11964
-518,-237,-33.3544,0.942383,-0.0115242,0.00359425,0.000891801,0.00364667,-0.0115766,1.51208,0.00917803,0.0493608,706,1261,-33.3544,-0.942414
-511,-237,-33.724,0.973267,-0.0132738,0.00280639,0.0014811,0.00294167,-0.0134091,1.47971,0.0100643,0.0430342,713,1261,-33.724,-0.973241
-504,-237,-34.0269,1.13818,-0.0143348,0.000724816,0.00235417,0.00108425,-0.0146942,1.41929,0.0101768,0.0405833,720,1261,-34.0269,-1.1382
-497,-237,-34.1288,1.35815,-0.0129732,-0.00281411,0.00340373,-0.00177915,-0.0140082,1.27561,0.00880585,0.0447324,727,1261,-34.1289,-1.35811
-490,-237,0,0,0,0,0,0,0,0,0,-1,734,1261,0,0
-483,-237,0,0,0,0,0,0,0,0,0,-1,741,1261,0,0
-476,-237,0,0,0,0,0,0,0,0,0,-1,748,1261,0,0
-469,-237,0,0,0,0,0,0,0,0,0,-1,755,1261,0,0
-462,-237,0,0,0,0,0,0,0,0,0,-1,762,1261,0,0
-455,-237,0,0,0,0,0,0,0,0,0,-1,769,1261,0,0
-448,-237,0,0,0,0,0,0,0,0,0,-1,776,1261,0,0
-441,-237,0,0,0,0,0,0,0,0,0,-1,783,1261,0,0
-434,-237,0,0,0,0,0,0,0,0,0,-1,790,1261,0,0
-427,-237,0,0,0,0,0,0,0,0,0,-1,797,1261,0,0
-420,-237,0,0,0,0,0,0,0,0,0,-1,804,1261,0,0
-413,-237,0,0,0,0,0,0,0,0,0,-1,811,1261,0,0
-406,-237,0,0,0,0,0,0,0,0,0,-1,818,1261,0,0
-399,-237,0,0,0,0,0,0,0,0,0,-1,825,1261,0,0
-392,-237,0,0,0,0,0,0,0,0,0,-1,832,1261,0,0
-385,-237,0,0,0,0,0,0,0,0,0,-1,839,1261,0,0
-378,-237,0,0,0,0,0,0,0,0,0,-1,846,1261,0,0
-371,-237,0,0,0,0,0,0,0,0,0,-1,853,1261,0,0
-364,-237,0,0,0,0,0,0,0,0,0,-1,860,1261,0,0
-357,-237,0,0,0,0,0,0,0,0,0,-1,867,1261,0,0
-350,-237,0,0,0,0,0,0,0,0,0,-1,874,1261,0,0
-343,-237,0,0,0,0,0,0,0,0,0,-1,881,1261,0,0
-336,-237,0,0,0,0,0,0,0,0,0,-1,888,1261,0,0
-329,-237,0,0,0,0,0,0,0,0,0,-1,895,1261,0,0
-322,-237,0,0,0,0,0,0,0,0,0,-1,902,1261,0,0
-315,-237,0,0,0,0,0,0,0,0,0,-1,909,1261,0,0
-308,-237,0,0,0,0,0,0,0,0,0,-1,916,1261,0,0
-301,-237,0,0,0,0,0,0,0,0,0,-1,923,1261,0,0
-294,-237,0,0,0,0,0,0,0,0,0,-1,930,1261,0,0
-287,-237,0,0,0,0,0,0,0,0,0,-1,937,1261,0,0
-280,-237,0,0,0,0,0,0,0,0,0,-1,944,1261,0,0
-273,-237,0,0,0,0,0,0,0,0,0,-1,951,1261,0,0
-266,-237,0,0,0,0,0,0,0,0,0,-1,958,1261,0,0
-259,-237,0,0,0,0,0,0,0,0,0,-1,965,1261,0,0
-252,-237,0,0,0,0,0,0,0,0,0,-1,972,1261,0,0
-245,-237,0,0,0,0,0,0,0,0,0,-1,979,1261,0,0
-238,-237,0,0,0,0,0,0,0,0,0,-1,986,1261,0,0
-231,-237,0,0,0,0,0,0,0,0,0,-1,993,1261,0,0
-224,-237,0,0,0,0,0,0,0,0,0,-1,1000,1261,0,0
-217,-237,0,0,0,0,0,0,0,0,0,-1,1007,1261,0,0
-210,-237,0,0,0,0,0,0,0,0,0,-1,1014,1261,0,0
-203,-237,0,0,0,0,0,0,0,0,0,-1,1021,1261,0,0
-196,-237,0,0,0,0,0,0,0,0,0,-1,1028,1261,0,0
-189,-237,0,0,0,0,0,0,0,0,0,-1,1035,1261,0,0
-182,-237,0,0,0,0,0,0,0,0,0,-1,1042,1261,0,0
-175,-237,0,0,0,0,0,0,0,0,0,-1,1049,1261,0,0
-168,-237,0,0,0,0,0,0,0,0,0,-1,1056,1261,0,0
-161,-237,0,0,0,0,0,0,0,0,0,-1,1063,1261,0,0
-154,-237,0,0,0,0,0,0,0,0,0,-1,1070,1261,0,0
-147,-237,0,0,0,0,0,0,0,0,0,-1,1077,1261,0,0
-140,-237,0,0,0,0,0,0,0,0,0,-1,1084,1261,0,0
-133,-237,0,0,0,0,0,0,0,0,0,-1,1091,1261,0,0
-126,-237,0,0,0,0,0,0,0,0,0,-1,1098,1261,0,0
-119,-237,0,0,0,0,0,0,0,0,0,-1,1105,1261,0,0
-112,-237,0,0,0,0,0,0,0,0,0,-1,1112,1261,0,0
-105,-237,0,0,0,0,0,0,0,0,0,-1,1119,1261,0,0
-98,-237,0,0,0,0,0,0,0,0,0,-1,1126,1261,0,0
-91,-237,0,0,0,0,0,0,0,0,0,-1,1133,1261,0,0
-84,-237,0,0,0,0,0,0,0,0,0,-1,1140,1261,0,0
-77,-237,0,0,0,0,0,0,0,0,0,-1,1147,1261,0,0
-70,-237,0,0,0,0,0,0,0,0,0,-1,1154,1261,0,0
-63,-237,0,0,0,0,0,0,0,0,0,-1,1161,1261,0,0
-56,-237,0,0,0,0,0,0,0,0,0,-1,1168,1261,0,0
-49,-237,0,0,0,0,0,0,0,0,0,-1,1175,1261,0,0
-42,-237,0,0,0,0,0,0,0,0,0,-1,1182,1261,0,0
-35,-237,0,0,0,0,0,0,0,0,0,-1,1189,1261,0,0
-28,-237,0,0,0,0,0,0,0,0,0,-1,1196,1261,0,0
-21,-237,0,0,0,0,0,0,0,0,0,-1,1203,1261,0,0
-14,-237,0,0,0,0,0,0,0,0,0,-1,1210,1261,0,0
-7,-237,0,0,0,0,0,0,0,0,0,-1,1217,1261,0,0
0,-237,0,0,0,0,0,0,0,0,0,-1,1224,1261,0,0
7,-237,0,0,0,0,0,0,0,0,0,-1,1231,1261,0,0
14,-237,0,0,0,0,0,0,0,0,0,-1,1238,1261,0,0
21,-237,0,0,0,0,0,0,0,0,0,-1,1245,1261,0,0
28,-237,0,0,0,0,0,0,0,0,0,-1,1252,1261,0,0
35,-237,0,0,0,0,0,0,0,0,0,-1,1259,1261,0,0
42,-237,0,0,0,0,0,0,0,0,0,-1,1266,1261,0,0
49,-237,0,0,0,0,0,0,0,0,0,-1,1273,1261,0,0
56,-237,0,0,0,0,0,0,0,0,0,-1,1280,1261,0,0
63,-237,0,0,0,0,0,0,0,0,0,-1,1287,1261,0,0
70,-237,0,0,0,0,0,0,0,0,0,-1,1294,1261,0,0
77,-237,0,0,0,0,0,0,0,0,0,-1,1301,1261,0,0
84,-237,0,0,0,0,0,0,0,0,0,-1,1308,1261,0,0
91,-237,0,0,0,0,0,0,0,0,0,-1,1315,1261,0,0
98,-237,0,0,0,0,0,0,0,0,0,-1,1322,1261,0,0
105,-237,0,0,0,0,0,0,0,0,0,-1,1329,1261,0,0
112,-237,0,0,0,0,0,0,0,0,0,-1,1336,1261,0,0
119,-237,0,0,0,0,0,0,0,0,0,-1,1343,1261,0,0
126,-237,0,0,0,0,0,0,0,0,0,-1,1350,1261,0,0
133,-237,0,0,0,0,0,0,0,0,0,-1,1357,1261,0,0
140,-237,0,0,0,0,0,0,0,0,0,-1,1364,1261,0,0
147,-237,0,0,0,0,0,0,0,0,0,-1,1371,1261,0,0
154,-237,0,0,0,0,0,0,0,0,0,-1,1378,1261,0,0
161,-237,0,0,0,0,0,0,0,0,0,-1,1385,1261,0,0
168,-237,0,0,0,0,0,0,0,0,0,-1,1392,1261,0,0
175,-237,0,0,0,0,0,0,0,0,0,-1,1399,1261,0,0
182,-237,0,0,0,0,0,0,0,0,0,-1,1406,1261,0,0
189,-237,0,0,0,0,0,0,0,0,0,-1,1413,1261,0,0
196,-237,0,0,0,0,0,0,0,0,0,-1,1420,1261,0,0
203,-237,0,0,0,0,0,0,0,0,0,-1,1427,1261,0,0
210,-237,0,0,0,0,0,0,0,0,0,-1,1434,1261,0,0
217,-237,0,0,0,0,0,0,0,0,0,-1,1441,1261,0,0
224,-237,0,0,0,0,0,0,0,0,0,-1,1448,1261,0,0
231,-237,0,0,0,0,0,0,0,0,0,-1,1455,1261,0,0
238,-237,0,0,0,0,0,0,0,0,0,-1,1462,1261,0,0
245,-237,0,0,0,0,0,0,0,0,0,-1,1469,1261,0,0
252,-237,0,0,0,0,0,0,0,0,0,-1,1476,1261,0,0
259,-237,0,0,0,0,0,0,0,0,0,-1,1483,1261,0,0
266,-237,0,0,0,0,0,0,0,0,0,-1,1490,1261,0,0
273,-237,0,0,0,0,0,0,0,0,0,-1,1497,1261,0,0
280,-237,0,0,0,0,0,0,0,0,0,-1,1504,1261,0,0
287,-237,0,0,0,0,0,0,0,0,0,-1,1511,1261,0,0
294,-237,0,0,0,0,0,0,0,0,0,-1,1518,1261,0,0
301,-237,0,0,0,0,0,0,0,0,0,-1,1525,1261,0,0
308,-237,0,0,0,0,0,0,0,0,0,-1,1532,1261,0,0
315,-237,0,0,0,0,0,0,0,0,0,-1,1539,1261,0,0
322,-237,0,0,0,0,0,0,0,0,0,-1,1546,1261,0,0
329,-237,0,0,0,0,0,0,0,0,0,-1,1553,1261,0,0
336,-237,0,0,0,0,0,0,0,0,0,-1,1560,1261,0,0
343,-237,0,0,0,0,0,0,0,0,0,-1,1567,1261,0,0
350,-237,0,0,0,0,0,0,0,0,0,-1,1574,1261,0,0
357,-237,0,0,0,0,0,0,0,0,0,-1,1581,1261,0,0
364,-237,0,0,0,0,0,0,0,0,0,-1,1588,1261,0,0
371,-237,0,0,0,0,0,0,0,0,0,-1,1595,1261,0,0
378,-237,0,0,0,0,0,0,0,0,0,-1,1602,1261,0,0
385,-237,0,0,0,0,0,0,0,0,0,-1,1609,1261,0,0
392,-237,0,0,0,0,0,0,0,0,0,-1,1616,1261,0,0
399,-237,0,0,0,0,0,0,0,0,0,-1,1623,1261,0,0
406,-237,0,0,0,0,0,0,0,0,0,-1,1630,1261,0,0
413,-237,0,0,0,0,0,0,0,0,0,-1,1637,1261,0,0
420,-237,0,0,0,0,0,0,0,0,0,-1,1644,1261,0,0
427,-237,0,0,0,0,0,0,0,0,0,-1,1651,1261,0,0
434,-237,0,0,0,0,0,0,0,0,0,-1,1658,1261,0,0
441,-237,0,0,0,0,0,0,0,0,0,-1,1665,1261,0,0
448,-237,0,0,0,0,0,0,0,0,0,-1,1672,1261,0,0
455,-237,0,0,0,0,0,0,0,0,0,-1,1679,1261,0,0
462,-237,0,0,0,0,0,0,0,0,0,-1,1686,1261,0,0
469,-237,0,0,0,0,0,0,0,0,0,-1,1693,1261,0,0
476,-237,0,0,0,0,0,0,0,0,0,-1,1700,1261,0,0
483,-237,0,0,0,0,0,0,0,0,0,-1,1707,1261,0,0
490,-237,0,0,0,0,0,0,0,0,0,-1,1714,1261,0,0
497,-237,0,0,0,0,0,0,0,0,0,-1,1721,1261,0,0
504,-237,0,0,0,0,0,0,0,0,0,-1,1728,1261,0,0
511,-237,0,0,0,0,0,0,0,0,0,-1,1735,1261,0,0
518,-237,0,0,0,0,0,0,0,0,0,-1,1742,1261,0,0
525,-237,0,0,0,0,0,0,0,0,0,-1,1749,1261,0,0
532,-237,0,0,0,0,0,0,0,0,0,-1,1756,1261,0,0
539,-237,0,0,0,0,0,0,0,0,0,-1,1763,1261,0,0
546,-237,0,0,0,0,0,0,0,0,0,-1,1770,1261,0,0
553,-237,0,0,0,0,0,0,0,0,0,-1,1777,1261,0,0
560,-237,0,0,0,0,0,0,0,0,0,-1,1784,1261,0,0
567,-237,0,0,0,0,0,0,0,0,0,-1,1791,1261,0,0
574,-237,0,0,0,0,0,0,0,0,0,-1,1798,1261,0,0
581,-237,0,0,0,0,0,0,0,0,0,-1,1805,1261,0,0
588,-237,0,0,0,0,0,0,0,0,0,-1,1812,1261,0,0
595,-237,0,0,0,0,0,0,0,0,0,-1,1819,1261,0,0
602,-237,0,0,0,0,0,0,0,0,0,-1,1826,1261,0,0
609,-237,0,0,0,0,0,0,0,0,0,-1,1833,1261,0,0
616,-237,46.2271,2.78101,0.00607314,0.0108678,-0.00740566,0.0162545,0.000686456,-0.941934,0.0106149,0.0391176,1840,1261,46.2271,-2.78101
623,-237,46.3857,2.95605,-0.00236784,0.008099,-0.00262872,0.0087221,-0.00299094,-1.33806,0.00702719,0.0357095,1847,1261,46.3857,-2.95602
630,-237,46.347,2.90515,-0.010362,0.00425267,0.00272933,0.00474574,-0.010855,1.39207,0.00923446,0.0269539,1854,1261,46.347,-2.90519
637,-237,46.205,2.77197,-0.0164858,-0.000151031,0.00786954,0.00302337,-0.0196602,1.18738,0.0142221,0.0209147,1861,1261,46.205,-2.77199
644,-237,46.0264,2.61853,-0.0168967,-0.0026587,0.00965581,0.00221874,-0.0217742,1.10305,0.0153094,0.0415246,1868,1261,46.0263,-2.61849
651,-237,45.9922,2.56824,-0.0148917,-0.00358938,0.00926393,0.00161101,-0.0200921,1.05927,0.0139627,0.0498757,1875,1261,45.9922,-2.56821
658,-237,45.7885,2.45154,-0.0125433,-0.0040642,0.00842356,0.00112655,-0.017734,1.01854,0.0122155,0.047091,1882,1261,45.7885,-2.45158
665,-237,45.5405,2.30652,0,0,0,0,0,0,0,-1,1889,1261,45.5406,-2.30653
672,-237,45.3922,1.95618,0,0,0,0,0,0,0,-1,1896,1261,45.3922,-1.95623
679,-237,23.1501,7.37488,0,0,0,0,0,0,0,-1,1903,1261,23.1502,-7.37493
686,-237,35.6084,9.81067,0,0,0,0,0,0,0,-1,1910,1261,35.6084,-9.81063
693,-237,35.6573,9.3479,-0.00374767,-0.00467307,0.00485734,0.000668957,-0.00908969,0.737912,0.00629464,0.0491136,1917,1261,35.6573,-9.34788
700,-237,35.7729,8.92749,-0.00115255,-0.0039094,0.00302553,0.000793757,-0.00585571,0.571648,0.00419351,0.0140517,1924,1261,35.7729,-8.92754
707,-237,35.7992,8.49109,0.000892915,-0.00264393,0.000842651,0.00108342,-0.00283443,0.222335,0.00233606,0.0113692,1931,1261,35.7992,-8.49113
714,-237,35.7943,8.0647,0.000699771,-0.00105402,0.000575754,0.000871893,-0.00122614,0.290494,0.00121704,0.0148588,1938,1261,35.7944,-8.06471
721,-237,35.7281,7.64429,-2.08454e-05,-0.000819744,0.000987638,0.000645064,-0.00148565,0.59323,0.00126168,0.0160595,1945,1261,35.7281,-7.64428
728,-237,35.7435,7.2157,-0.000742076,-0.000419248,0.00149704,0.000925056,-0.00208638,0.839102,0.00178123,0.0148679,1952,1261,35.7436,-7.21571
735,-237,35.7355,6.80908,-0.00142018,3.11787e-05,0.00195672,0.00139245,-0.00278145,0.962968,0.00245388,0.0200791,1959,1261,35.7355,-6.80912
742,-237,35.7146,6.39844,-0.00193367,0.000522152,0.00242641,0.00201366,-0.00342518,1.01964,0.00317517,0.015901,1966,1261,35.7146,-6.39845
749,-237,35.6841,6.00061,-0.00219974,0.0010676,0.00295968,0.00281455,-0.0039467,1.03758,0.0039218,0.0110106,1973,1261,35.6841,-6.0006
756,-237,35.6556,5.59888,-0.00200094,0.00180965,0.00333726,0.0037472,-0.00393849,1.04478,0.00443779,0.0180762,1980,1261,35.6556,-5.59885
763,-237,35.4619,5.1394,-0.00128254,0.00260986,0.00368893,0.0048345,-0.00350718,1.02813,0.00483635,0.0349512,1987,1261,35.4619,-5.13943
770,-237,35.4946,4.52637,-0.000255982,0.00358594,0.00423189,0.00631245,-0.0029825,0.998454,0.00548003,0.0466891,1994,1261,35.4946,-4.52634
777,-237,35.5748,3.93774,0,0,0,0,0,0,0,-1,2001,1261,35.5748,-3.93774
784,-237,36.3441,1.68591,0,0,0,0,0,0,0,-1,2008,1261,36.3441,-1.68592
791,-237,32.3025,6.03235,0,0,0,0,0,0,0,-1,2015,1261,32.3025,-6.03229
798,-237,0,0,0,0,0,0,0,0,0,-1,2022,1261,0,0
805,-237,0,0,0,0,0,0,0,0,0,-1,2029,1261,0,0
812,-237,0,0,0,0,0,0,0,0,0,-1,2036,1261,0,0
-700,-244,0,0,0,0,0,0,0,0,0,-1,524,1268,0,0
-693,-244,0,0,0,0,0,0,0,0,0,-1,531,1268,0,0
-686,-244,0,0,0,0,0,0,0,0,0,-1,538,1268,0,0
-679,-244,0,0,0,0,0,0,0,0,0,-1,545,1268,0,0
-672,-244,-29.0622,-13.5513,0,0,0,0,0,0,0,-1,552,1268,-29.0622,13.5513
-665,-244,-23.669,1.3938,0,0,0,0,0,0,0,-1,559,1268,-23.669,-1.39374
-658,-244,-23.6096,2.91895,0,0,0,0,0,0,0,-1,566,1268,-23.6096,-2.91896
-651,-244,-23.5394,4.41724,0,0,0,0,0,0,0,-1,573,1268,-23.5394,-4.41721
-644,-244,-20.4261,0.428345,0,0,0,0,0,0,0,-1,580,1268,-20.4261,-0.428352
-637,-244,-22.5397,3.29333,0,0,0,0,0,0,0,-1,587,1268,-22.5397,-3.29337
-630,-244,-22.2731,2.63245,0,0,0,0,0,0,0,-1,594,1268,-22.2731,-2.63249
-623,-244,-22.1203,2.67676,0.00277103,0.000694853,0.00539226,0.00722422,-0.00375833,0.690304,0.00644517,0.0342306,601,1268,-22.1203,-2.67676
-616,-244,-22.062,3.40466,0.00176994,0.00144094,0.00414012,0.00574883,-0.00253794,0.765542,0.00490262,0.0175526,608,1268,-22.062,-3.40463
-609,-244,-22.0933,3.85205,0.00149225,0.00165038,0.00314901,0.00472132,-0.00157868,0.79795,0.00378515,0.0151014,615,1268,-22.0933,-3.85202
-602,-244,-22.1223,4.3075,0.0015848,0.00160409,0.0022381,0.00383257,-0.000643673,0.787553,0.00279442,0.0166596,622,1268,-22.1223,-4.30752
-595,-244,-22.1803,4.80908,0.00193189,0.00104766,0.00150409,0.0030575,-7.79441e-05,0.642454,0.0020648,0.0183268,629,1268,-22.1803,-4.80906
-588,-244,-22.1703,5.31128,0.00238866,0.000637841,0.00108408,0.00290665,0.000119852,0.445744,0.00189908,0.0230636,636,1268,-22.1703,-5.31133
-581,-244,-22.1837,5.76111,0.00278085,0.000295557,0.000871011,0.00305572,2.06957e-05,0.305675,0.00203028,0.0192802,643,1268,-22.1837,-5.76117
-574,-244,-22.2097,6.22144,0.00273392,0.000257882,0.000864044,0.00300563,-1.38218e-05,0.304665,0.00200838,0.0142739,650,1268,-22.2097,-6.22141
-567,-244,-22.1978,6.69336,0.00155273,0.00108498,0.000867039,0.00221688,0.000420825,0.653665,0.00135953,0.0140768,657,1268,-22.1978,-6.69336
-560,-244,-22.1163,7.125,4.49903e-05,0.00213357,0.000657494,0.00232332,-0.000144754,1.28984,0.00159931,0.036999,664,1268,-22.1163,-7.12499
-553,-244,-21.985,7.58032,0,0,0,0,0,0,0,-1,671,1268,-21.985,-7.58031
-546,-244,-11.2686,4.41772,0,0,0,0,0,0,0,-1,678,1268,-11.2686,-4.41767
-539,-244,-12.8706,0.3302,0,0,0,0,0,0,0,-1,685,1268,-12.8706,-0.330156
-532,-244,-18.1502,0.816528,0,0,0,0,0,0,0,-1,692,1268,-18.1502,-0.816514
-525,-244,-33.0835,0.693604,0,0,0,0,0,0,0,-1,699,1268,-33.0835,-0.69365
-518,-244,-33.1169,0.668091,0,0,0,0,0,0,0,-1,706,1268,-33.1169,-0.668103
-511,-244,-33.6979,1.1272,0,0,0,0,0,0,0,-1,713,1268,-33.6979,-1.12725
-504,-244,-34.05,1.33386,0,0,0,0,0,0,0,-1,720,1268,-34.05,-1.33384
-497,-244,-34.22,1.59351,0,0,0,0,0,0,0,-1,727,1268,-34.2199,-1.59348
-490,-244,0,0,0,0,0,0,0,0,0,-1,734,1268,0,0
-483,-244,0,0,0,0,0,0,0,0,0,-1,741,1268,0,0
-476,-244,0,0,0,0,0,0,0,0,0,-1,748,1268,0,0
-469,-244,0,0,0,0,0,0,0,0,0,-1,755,1268,0,0
-462,-244,0,0,0,0,0,0,0,0,0,-1,762,1268,0,0
-455,-244,0,0,0,0,0,0,0,0,0,-1,769,1268,0,0
-448,-244,0,0,0,0,0,0,0,0,0,-1,776,1268,0,0
-441,-244,0,0,0,0,0,0,0,0,0,-1,783,1268,0,0
-434,-244,0,0,0,0,0,0,0,0,0,-1,790,1268,0,0
-427,-244,0,0,0,0,0,0,0,0,0,-1,797,1268,0,0
-420,-244,0,0,0,0,0,0,0,0,0,-1,804,1268,0,0
-413,-244,0,0,0,0,0,0,0,0,0,-1,811,1268,0,0
-406,-244,0,0,0,0,0,0,0,0,0,-1,818,1268,0,0
-399,-244,0,0,0,0,0,0,0,0,0,-1,825,1268,0,0
-392,-244,0,0,0,0,0,0,0,0,0,-1,832,1268,0,0
-385,-244,0,0,0,0,0,0,0,0,0,-1,839,1268,0,0
-378,-244,0,0,0,0,0,0,0,0,0,-1,846,1268,0,0
-371,-244,0,0,0,0,0,0,0,0,0,-1,853,1268,0,0
-364,-244,0,0,0,0,0,0,0,0,0,-1,860,1268,0,0
-357,-244,0,0,0,0,0,0,0,0,0,-1,867,1268,0,0
-350,-244,0,0,0,0,0,0,0,0,0,-1,874,1268,0,0
-343,-244,0,0,0,0,0,0,0,0,0,-1,881,1268,0,0
-336,-244,0,0,0,0,0,0,0,0,0,-1,888,1268,0,0
-329,-244,0,0,0,0,0,0,0,0,0,-1,895,1268,0,0
-322,-244,0,0,0,0,0,0,0,0,0,-1,902,1268,0,0
-315,-244,0,0,0,0,0,0,0,0,0,-1,909,1268,0,0
-308,-244,0,0,0,0,0,0,0,0,0,-1,916,1268,0,0
-301,-244,0,0,0,0,0,0,0,0,0,-1,923,1268,0,0
-294,-244,0,0,0,0,0,0,0,0,0,-1,930,1268,0,0
-287,-244,0,0,0,0,0,0,0,0,0,-1,937,1268,0,0
-280,-244,0,0,0,0,0,0,0,0,0,-1,944,1268,0,0
-273,-244,0,0,0,0,0,0,0,0,0,-1,951,1268,0,0
-266,-244,0,0,0,0,0,0,0,0,0,-1,958,1268,0,0
-259,-244,0,0,0,0,0,0,0,0,0,-1,965,1268,0,0
-252,-244,0,0,0,0,0,0,0,0,0,-1,972,1268,0,0
-245,-244,0,0,0,0,0,0,0,0,0,-1,979,1268,0,0
-238,-244,0,0,0,0,0,0,0,0,0,-1,986,1268,0,0
-231,-244,0,0,0,0,0,0,0,0,0,-1,993,1268,0,0
-224,-244,0,0,0,0,0,0,0,0,0,-1,1000,1268,0,0
-217,-244,0,0,0,0,0,0,0,0,0,-1,1007,1268,0,0
-210,-244,0,0,0,0,0,0,0,0,0,-1,1014,1268,0,0
-203,-244,0,0,0,0,0,0,0,0,0,-1,1021,1268,0,0
-196,-244,0,0,0,0,0,0,0,0,0,-1,1028,1268,0,0
-189,-244,0,0,0,0,0,0,0,0,0,-1,1035,1268,0,0
-182,-244,0,0,0,0,0,0,0,0,0,-1,1042,1268,0,0
-175,-244,0,0,0,0,0,0,0,0,0,-1,1049,1268,0,0
-168,-244,0,0,0,0,0,0,0,0,0,-1,1056,1268,0,0
-161,-244,0,0,0,0,0,0,0,0,0,-1,1063,1268,0,0
-154,-244,0,0,0,0,0,0,0,0,0,-1,1070,1268,0,0
-147,-244,0,0,0,0,0,0,0,0,0,-1,1077,1268,0,0
-140,-244,0,0,0,0,0,0,0,0,0,-1,1084,1268,0,0
-133,-244,0,0,0,0,0,0,0,0,0,-1,1091,1268,0,0
-126,-244,0,0,0,0,0,0,0,0,0,-1,1098,1268,0,0
-119,-244,0,0,0,0,0,0,0,0,0,-1,1105,1268,0,0
-112,-244,0,0,0,0,0,0,0,0,0,-1,1112,1268,0,0
-105,-244,0,0,0,0,0,0,0,0,0,-1,1119,1268,0,0
-98,-244,0,0,0,0,0,0,0,0,0,-1,1126,1268,0,0
-91,-244,0,0,0,0,0,0,0,0,0,-1,1133,1268,0,0
-84,-244,0,0,0,0,0,0,0,0,0,-1,1140,1268,0,0
-77,-244,0,0,0,0,0,0,0,0,0,-1,1147,1268,0,0
-70,-244,0,0,0,0,0,0,0,0,0,-1,1154,1268,0,0
-63,-244,0,0,0,0,0,0,0,0,0,-1,1161,1268,0,0
-56,-244,0,0,0,0,0,0,0,0,0,-1,1168,1268,0,0
-49,-244,0,0,0,0,0,0,0,0,0,-1,1175,1268,0,0
-42,-244,0,0,0,0,0,0,0,0,0,-1,1182,1268,0,0
-35,-244,0,0,0,0,0,0,0,0,0,-1,1189,1268,0,0
-28,-244,0,0,0,0,0,0,0,0,0,-1,1196,1268,0,0
-21,-244,0,0,0,0,0,0,0,0,0,-1,1203,1268,0,0
-14,-244,0,0,0,0,0,0,0,0,0,-1,1210,1268,0,0
-7,-244,0,0,0,0,0,0,0,0,0,-1,1217,1268,0,0
0,-244,0,0,0,0,0,0,0,0,0,-1,1224,1268,0,0
7,-244,0,0,0,0,0,0,0,0,0,-1,1231,1268,0,0
14,-244,0,0,0,0,0,0,0,0,0,-1,1238,1268,0,0
21,-244,0,0,0,0,0,0,0,0,0,-1,1245,1268,0,0
28,-244,0,0,0,0,0,0,0,0,0,-1,1252,1268,0,0
35,-244,0,0,0,0,0,0,0,0,0,-1,1259,1268,0,0
42,-244,0,0,0,0,0,0,0,0,0,-1,1266,1268,0,0
49,-244,0,0,0,0,0,0,0,0,0,-1,1273,1268,0,0
56,-244,0,0,0,0,0,0,0,0,0,-1,1280,1268,0,0
63,-244,0,0,0,0,0,0,0,0,0,-1,1287,1268,0,0
70,-244,0,0,0,0,0,0,0,0,0,-1,1294,1268,0,0
77,-244,0,0,0,0,0,0,0,0,0,-1,1301,1268,0,0
84,-244,0,0,0,0,0,0,0,0,0,-1,1308,1268,0,0
91,-244,0,0,0,0,0,0,0,0,0,-1,1315,1268,0,0
98,-244,0,0,0,0,0,0,0,0,0,-1,1322,1268,0,0
105,-244,0,0,0,0,0,0,0,0,0,-1,1329,1268,0,0
112,-244,0,0,0,0,0,0,0,0,0,-1,1336,1268,0,0
119,-244,0,0,0,0,0,0,0,0,0,-1,1343,1268,0,0
126,-244,0,0,0,0,0,0,0,0,0,-1,1350,1268,0,0
133,-244,0,0,0,0,0,0,0,0,0,-1,1357,1268,0,0
140,-244,0,0,0,0,0,0,0,0,0,-1,1364,1268,0,0
147,-244,0,0,0,0,0,0,0,0,0,-1,1371,1268,0,0
154,-244,0,0,0,0,0,0,0,0,0,-1,1378,1268,0,0
161,-244,0,0,0,0,0,0,0,0,0,-1,1385,1268,0,0
168,-244,0,0,0,0,0,0,0,0,0,-1,1392,1268,0,0
175,-244,0,0,0,0,0,0,0,0,0,-1,1399,1268,0,0
182,-244,0,0,0,0,0,0,0,0,0,-1,1406,1268,0,0
189,-244,0,0,0,0,0,0,0,0,0,-1,1413,1268,0,0
196,-244,0,0,0,0,0,0,0,0,0,-1,1420,1268,0,0
203,-244,0,0,0,0,0,0,0,0,0,-1,1427,1268,0,0
210,-244,0,0,0,0,0,0,0,0,0,-1,1434,1268,0,0
217,-244,0,0,0,0,0,0,0,0,0,-1,1441,1268,0,0
224,-244,0,0,0,0,0,0,0,0,0,-1,1448,1268,0,0
231,-244,0,0,0,0,0,0,0,0,0,-1,1455,1268,0,0
238,-244,0,0,0,0,0,0,0,0,0,-1,1462,1268,0,0
245,-244,0,0,0,0,0,0,0,0,0,-1,1469,1268,0,0
252,-244,0,0,0,0,0,0,0,0,0,-1,1476,1268,0,0
259,-244,0,0,0,0,0,0,0,0,0,-1,1483,1268,0,0
266,-244,0,0,0,0,0,0,0,0,0,-1,1490,1268,0,0
273,-244,0,0,0,0,0,0,0,0,0,-1,1497,1268,0,0
280,-244,0,0,0,0,0,0,0,0,0,-1,1504,1268,0,0
287,-244,0,0,0,0,0,0,0,0,0,-1,1511,1268,0,0
294,-244,0,0,0,0,0,0,0,0,0,-1,1518,1268,0,0
301,-244,0,0,0,0,0,0,0,0,0,-1,1525,1268,0,0
308,-244,0,0,0,0,0,0,0,0,0,-1,1532,1268,0,0
315,-244,0,0,0,0,0,0,0,0,0,-1,1539,1268,0,0
322,-244,0,0,0,0,0,0,0,0,0,-1,1546,1268,0,0
329,-244,0,0,0,0,0,0,0,0,0,-1,1553,1268,0,0
336,-244,0,0,0,0,0,0,0,0,0,-1,1560,1268,0,0
343,-244,0,0,0,0,0,0,0,0,0,-1,1567,1268,0,0
350,-244,0,0,0,0,0,0,0,0,0,-1,1574,1268,0,0
357,-244,0,0,0,0,0,0,0,0,0,-1,1581,1268,0,0
364,-244,0,0,0,0,0,0,0,0,0,-1,1588,1268,0,0
371,-244,0,0,0,0,0,0,0,0,0,-1,1595,1268,0,0
378,-244,0,0,0,0,0,0,0,0,0,-1,1602,1268,0,0
385,-244,0,0,0,0,0,0,0,0,0,-1,1609,1268,0,0
392,-244,0,0,0,0,0,0,0,0,0,-1,1616,1268,0,0
399,-244,0,0,0,0,0,0,0,0,0,-1,1623,1268,0,0
406,-244,0,0,0,0,0,0,0,0,0,-1,1630,1268,0,0
413,-244,0,0,0,0,0,0,0,0,0,-1,1637,1268,0,0
420,-244,0,0,0,0,0,0,0,0,0,-1,1644,1268,0,0
427,-244,0,0,0,0,0,0,0,0,0,-1,1651,1268,0,0
434,-244,0,0,0,0,0,0,0,0,0,-1,1658,1268,0,0
441,-244,0,0,0,0,0,0,0,0,0,-1,1665,1268,0,0
448,-244,0,0,0,0,0,0,0,0,0,-1,1672,1268,0,0
455,-244,0,0,0,0,0,0,0,0,0,-1,1679,1268,0,0
462,-244,0,0,0,0,0,0,0,0,0,-1,1686,1268,0,0
469,-244,0,0,0,0,0,0,0,0,0,-1,1693,1268,0,0
476,-244,0,0,0,0,0,0,0,0,0,-1,1700,1268,0,0
483,-244,0,0,0,0,0,0,0,0,0,-1,1707,1268,0,0
490,-244,0,0,0,0,0,0,0,0,0,-1,1714,1268,0,0
497,-244,0,0,0,0,0,0,0,0,0,-1,1721,1268,0,0
504,-244,0,0,0,0,0,0,0,0,0,-1,1728,1268,0,0
511,-244,0,0,0,0,0,0,0,0,0,-1,1735,1268,0,0
518,-244,0,0,0,0,0,0,0,0,0,-1,1742,1268,0,0
525,-244,0,0,0,0,0,0,0,0,0,-1,1749,1268,0,0
532,-244,0,0,0,0,0,0,0,0,0,-1,1756,1268,0,0
539,-244,0,0,0,0,0,0,0,0,0,-1,1763,1268,0,0
546,-244,0,0,0,0,0,0,0,0,0,-1,1770,1268,0,0
553,-244,0,0,0,0,0,0,0,0,0,-1,1777,1268,0,0
560,-244,0,0,0,0,0,0,0,0,0,-1,1784,1268,0,0
567,-244,0,0,0,0,0,0,0,0,0,-1,1791,1268,0,0
574,-244,0,0,0,0,0,0,0,0,0,-1,1798,1268,0,0
581,-244,0,0,0,0,0,0,0,0,0,-1,1805,1268,0,0
588,-244,0,0,0,0,0,0,0,0,0,-1,1812,1268,0,0
595,-244,0,0,0,0,0,0,0,0,0,-1,1819,1268,0,0
602,-244,0,0,0,0,0,0,0,0,0,-1,1826,1268,0,0
609,-244,0,0,0,0,0,0,0,0,0,-1,1833,1268,0,0
616,-244,46.2501,2.83057,0.00168904,0.0119458,-0.00697443,0.0154744,-0.00183954,-1.10242,0.0109809,0.0357587,1840,1268,46.2501,-2.83054
623,-244,46.3027,2.85742,-0.00801737,0.00887718,-0.00132663,0.00898071,-0.0081209,-1.49291,0.00987778,0.0276772,1847,1268,46.3027,-2.8574
630,-244,46.2789,2.8302,-0.0167136,0.00452802,0.0048804,0.00559566,-0.0177812,1.35543,0.0140946,0.0240282,1854,1268,46.2789,-2.83015
637,-244,46.1407,2.74377,-0.0215574,2.6637e-05,0.0098028,0.00381414,-0.0253449,1.2021,0.018301,0.0365606,1861,1268,46.1408,-2.74373
644,-244,45.8043,2.61487,-0.0203918,-0.00224436,0.0108761,0.00284602,-0.0254821,1.13305,0.0180119,0.0430598,1868,1268,45.8043,-2.61491
651,-244,45.4495,2.85559,-0.0176755,-0.00320997,0.0102657,0.00211501,-0.0230005,1.09229,0.0160851,0.0438287,1875,1268,45.4495,-2.85561
658,-244,45.3628,3.20337,-0.0149638,-0.00378695,0.00939288,0.00155424,-0.020305,1.05375,0.0140834,0.046035,1882,1268,45.3628,-3.20342
665,-244,45.4065,2.51697,0,0,0,0,0,0,0,-1,1889,1268,45.4065,-2.51693
672,-244,32.224,3.6123,0,0,0,0,0,0,0,-1,1896,1268,32.224,-3.6123
679,-244,27.2593,7.90649,0,0,0,0,0,0,0,-1,1903,1268,27.2592,-7.9065
686,-244,35.3265,10.0415,0,0,0,0,0,0,0,-1,1910,1268,35.3266,-10.0415
693,-244,35.3076,9.50452,-0.0044355,-0.00509276,0.00555553,0.000801113,-0.0103294,0.755856,0.00716822,0.0253987,1917,1268,35.3076,-9.50448
700,-244,35.3318,8.9707,-0.00125476,-0.00407014,0.00330245,0.000927505,-0.00625241,0.583932,0.00450935,0.0102224,1924,1268,35.3318,-8.9707
707,-244,35.364,8.51636,0.00109248,-0.0024816,0.00076882,0.00125085,-0.00263996,0.203141,0.00229359,0.0115951,1931,1268,35.364,-8.51636
714,-244,35.4027,8.07788,0.000767126,-0.000808388,0.000518555,0.000922481,-0.000963743,0.291082,0.0010891,0.0134336,1938,1268,35.4028,-8.07788
721,-244,35.3312,7.69617,-9.16066e-05,-0.000518858,0.000954412,0.000672795,-0.00128326,0.675298,0.00114752,0.0173434,1945,1268,35.3312,-7.69614
728,-244,35.3019,7.23792,-0.000983996,-0.000136256,0.00146812,0.000967959,-0.00208821,0.925934,0.00180356,0.0221246,1952,1268,35.3019,-7.23796
735,-244,35.2867,6.77502,-0.00183503,0.000259739,0.00196421,0.00143837,-0.00301366,1.03034,0.00262347,0.0256228,1959,1268,35.2867,-6.77499
742,-244,35.2484,6.43933,-0.00254511,0.000690192,0.00246398,0.00202008,-0.003875,1.07587,0.00345923,0.0169377,1966,1268,35.2484,-6.43934
749,-244,35.1716,6.14136,-0.00303813,0.00117919,0.00303789,0.00276853,-0.00462747,1.08878,0.00431481,0.0244806,1973,1268,35.1716,-6.1414
756,-244,35.0725,5.80347,-0.00310714,0.00189464,0.00340641,0.00361963,-0.00483214,1.10204,0.00489634,0.0346618,1980,1268,35.0725,-5.80349
763,-244,35.0348,5.27185,-0.00268856,0.00268501,0.00373378,0.00459822,-0.00460177,1.09727,0.00531162,0.0476955,1987,1268,35.0348,-5.27188
770,-244,35.171,4.62842,0,0,0,0,0,0,0,-1,1994,1268,35.171,-4.62847
777,-244,34.8073,2.93054,0,0,0,0,0,0,0,-1,2001,1268,34.8073,-2.93058
784,-244,31.7908,5.20081,0,0,0,0,0,0,0,-1,2008,1268,31.7907,-5.20083
791,-244,0,0,0,0,0,0,0,0,0,-1,2015,1268,0,0
798,-244,0,0,0,0,0,0,0,0,0,-1,2022,1268,0,0
805,-244,0,0,0,0,0,0,0,0,0,-1,2029,1268,0,0
812,-244,0,0,0,0,0,0,0,0,0,-1,2036,1268,0,0
-700,-251,0,0,0,0,0,0,0,0,0,-1,524,1275,0,0
-693,-251,0,0,0,0,0,0,0,0,0,-1,531,1275,0,0
-686,-251,0,0,0,0,0,0,0,0,0,-1,538,1275,0,0
-679,-251,0,0,0,0,0,0,0,0,0,-1,545,1275,0,0
-672,-251,0,0,0,0,0,0,0,0,0,-1,552,1275,0,0
-665,-251,-20.993,4.27515,0,0,0,0,0,0,0,-1,559,1275,-20.993,-4.2752
-658,-251,-23.7194,2.79553,0,0,0,0,0,0,0,-1,566,1275,-23.7194,-2.79554
-651,-251,-20.6763,-0.483032,0,0,0,0,0,0,0,-1,573,1275,-20.6763,0.483012
-644,-251,-20.5963,0.301636,0,0,0,0,0,0,0,-1,580,1275,-20.5963,-0.30168
-637,-251,-21.3829,1.58545,0,0,0,0,0,0,0,-1,587,1275,-21.3829,-1.58549
-630,-251,-21.4692,2.13904,0,0,0,0,0,0,0,-1,594,1275,-21.4692,-2.139
-623,-251,-21.5598,2.76172,0.00222735,0.00390728,0.00750174,0.0106159,-0.00448131,0.841151,0.00895305,0.039911,601,1275,-21.5597,-2.76166
-616,-251,-21.5938,3.34656,0.00142933,0.00330655,0.00579149,0.008235,-0.00349912,0.865734,0.00695619,0.0211051,608,1275,-21.5938,-3.3465
-609,-251,-21.6373,3.85437,0.00125558,0.00278908,0.00444561,0.00653358,-0.00248892,0.870794,0.00538078,0.0210866,615,1275,-21.6373,-3.85431
-602,-251,-21.6638,4.34546,0.00139199,0.00208325,0.00329118,0.0050469,-0.00157166,0.837714,0.00399296,0.0157093,622,1275,-21.6638,-4.34544
-595,-251,-21.6733,4.80078,0.00173797,0.00133496,0.00229101,0.00383632,-0.000763387,0.741534,0.00284634,0.0142873,629,1275,-21.6733,-4.80076
-588,-251,-21.6747,5.27454,0.00223249,0.0007297,0.00159059,0.00324023,-0.000278039,0.564735,0.00225855,0.0164896,636,1275,-21.6747,-5.27453
-581,-251,-21.6885,5.77295,0.00274978,0.000223116,0.00112538,0.00317834,-0.000205441,0.363855,0.00219059,0.0152901,643,1275,-21.6885,-5.77301
-574,-251,-21.7078,6.27551,0.00300463,-1.51843e-05,0.000887029,0.00324591,-0.00025646,0.265579,0.00225429,0.0138956,650,1275,-21.7078,-6.27556
-567,-251,-21.7195,6.74402,0.00220785,0.00062418,0.000721878,0.00248751,0.000344515,0.369608,0.00155627,0.0133705,657,1275,-21.7195,-6.74402
-560,-251,-21.6464,7.30884,0.000758154,0.00162325,0.000594169,0.00192564,0.000455763,1.10003,0.00116202,0.0335576,664,1275,-21.6463,-7.3088
-553,-251,-21.4722,7.82495,0,0,0,0,0,0,0,-1,671,1275,-21.4722,-7.82492
-546,-251,-12.995,4.5675,0,0,0,0,0,0,0,-1,678,1275,-12.995,-4.56745
-539,-251,-10.7916,0.366333,0,0,0,0,0,0,0,-1,685,1275,-10.7916,-0.366282
-532,-251,-10.7391,-0.00769043,0,0,0,0,0,0,0,-1,692,1275,-10.7391,0.00773227
-525,-251,-29.4286,-0.250244,0,0,0,0,0,0,0,-1,699,1275,-29.4286,0.250266
-518,-251,-32.6981,0.678833,0,0,0,0,0,0,0,-1,706,1275,-32.6981,-0.678787
-511,-251,-29.4731,0.637085,0,0,0,0,0,0,0,-1,713,1275,-29.4731,-0.637025
-504,-251,-30.6428,0.792358,0,0,0,0,0,0,0,-1,720,1275,-30.6427,-0.792335
-497,-251,-34.2286,1.4989,0,0,0,0,0,0,0,-1,727,1275,-34.2286,-1.49894
-490,-251,0,0,0,0,0,0,0,0,0,-1,734,1275,0,0
-483,-251,0,0,0,0,0,0,0,0,0,-1,741,1275,0,0
-476,-251,0,0,0,0,0,0,0,0,0,-1,748,1275,0,0
-469,-251,0,0,0,0,0,0,0,0,0,-1,755,1275,0,0
-462,-251,0,0,0,0,0,0,0,0,0,-1,762,1275,0,0
-455,-251,0,0,0,0,0,0,0,0,0,-1,769,1275,0,0
-448,-251,0,0,0,0,0,0,0,0,0,-1,776,1275,0,0
-441,-251,0,0,0,0,0,0,0,0,0,-1,783,1275,0,0
-434,-251,0,0,0,0,0,0,0,0,0,-1,790,1275,0,0
-427,-251,0,0,0,0,0,0,0,0,0,-1,797,1275,0,0
-420,-251,0,0,0,0,0,0,0,0,0,-1,804,1275,0,0
-413,-251,0,0,0,0,0,0,0,0,0,-1,811,1275,0,0
-406,-251,0,0,0,0,0,0,0,0,0,-1,818,1275,0,0
-399,-251,0,0,0,0,0,0,0,0,0,-1,825,1275,0,0
-392,-251,0,0,0,0,0,0,0,0,0,-1,832,1275,0,0
-385,-251,0,0,0,0,0,0,0,0,0,-1,839,1275,0,0
-378,-251,0,0,0,0,0,0,0,0,0,-1,846,1275,0,0
-371,-251,0,0,0,0,0,0,0,0,0,-1,853,1275,0,0
-364,-251,0,0,0,0,0,0,0,0,0,-1,860,1275,0,0
-357,-251,0,0,0,0,0,0,0,0,0,-1,867,1275,0,0
-350,-251,0,0,0,0,0,0,0,0,0,-1,874,1275,0,0
-343,-251,0,0,0,0,0,0,0,0,0,-1,881,1275,0,0
-336,-251,0,0,0,0,0,0,0,0,0,-1,888,1275,0,0
-329,-251,0,0,0,0,0,0,0,0,0,-1,895,1275,0,0
-322,-251,0,0,0,0,0,0,0,0,0,-1,902,1275,0,0
-315,-251,0,0,0,0,0,0,0,0,0,-1,909,1275,0,0
-308,-251,0,0,0,0,0,0,0,0,0,-1,916,1275,0,0
-301,-251,0,0,0,0,0,0,0,0,0,-1,923,1275,0,0
-294,-251,0,0,0,0,0,0,0,0,0,-1,930,1275,0,0
-287,-251,0,0,0,0,0,0,0,0,0,-1,937,1275,0,0
-280,-251,0,0,0,0,0,0,0,0,0,-1,944,1275,0,0
-273,-251,0,0,0,0,0,0,0,0,0,-1,951,1275,0,0
-266,-251,0,0,0,0,0,0,0,0,0,-1,958,1275,0,0
-259,-251,0,0,0,0,0,0,0,0,0,-1,965,1275,0,0
-252,-251,0,0,0,0,0,0,0,0,0,-1,972,1275,0,0
-245,-251,0,0,0,0,0,0,0,0,0,-1,979,1275,0,0
-238,-251,0,0,0,0,0,0,0,0,0,-1,986,1275,0,0
-231,-251,0,0,0,0,0,0,0,0,0,-1,993,1275,0,0
-224,-251,0,0,0,0,0,0,0,0,0,-1,1000,1275,0,0
-217,-251,0,0,0,0,0,0,0,0,0,-1,1007,1275,0,0
-210,-251,0,0,0,0,0,0,0,0,0,-1,1014,1275,0,0
-203,-251,0,0,0,0,0,0,0,0,0,-1,1021,1275,0,0
-196,-251,0,0,0,0,0,0,0,0,0,-1,1028,1275,0,0
-189,-251,0,0,0,0,0,0,0,0,0,-1,1035,1275,0,0
-182,-251,0,0,0,0,0,0,0,0,0,-1,1042,1275,0,0
-175,-251,0,0,0,0,0,0,0,0,0,-1,1049,1275,0,0
-168,-251,0,0,0,0,0,0,0,0,0,-1,1056,1275,0,0
-161,-251,0,0,0,0,0,0,0,0,0,-1,1063,1275,0,0
-154,-251,0,0,0,0,0,0,0,0,0,-1,1070,1275,0,0
-147,-251,0,0,0,0,0,0,0,0,0,-1,1077,1275,0,0
-140,-251,0,0,0,0,0,0,0,0,0,-1,1084,1275,0,0
-133,-251,0,0,0,0,0,0,0,0,0,-1,1091,1275,0,0
-126,-251,0,0,0,0,0,0,0,0,0,-1,1098,1275,0,0
-119,-251,0,0,0,0,0,0,0,0,0,-1,1105,1275,0,0
-112,-251,0,0,0,0,0,0,0,0,0,-1,1112,1275,0,0
-105,-251,0,0,0,0,0,0,0,0,0,-1,1119,1275,0,0
-98,-251,0,0,0,0,0,0,0,0,0,-1,1126,1275,0,0
-91,-251,0,0,0,0,0,0,0,0,0,-1,1133,1275,0,0
-84,-251,0,0,0,0,0,0,0,0,0,-1,1140,1275,0,0
-77,-251,0,0,0,0,0,0,0,0,0,-1,1147,1275,0,0
-70,-251,0,0,0,0,0,0,0,0,0,-1,1154,1275,0,0
-63,-251,0,0,0,0,0,0,0,0,0,-1,1161,1275,0,0
-56,-251,0,0,0,0,0,0,0,0,0,-1,1168,1275,0,0
-49,-251,0,0,0,0,0,0,0,0,0,-1,1175,1275,0,0
-42,-251,0,0,0,0,0,0,0,0,0,-1,1182,1275,0,0
-35,-251,0,0,0,0,0,0,0,0,0,-1,1189,1275,0,0
-28,-251,0,0,0,0,0,0,0,0,0,-1,1196,1275,0,0
-21,-251,0,0,0,0,0,0,0,0,0,-1,1203,1275,0,0
-14,-251,0,0,0,0,0,0,0,0,0,-1,1210,1275,0,0
-7,-251,0,0,0,0,0,0,0,0,0,-1,1217,1275,0,0
0,-251,0,0,0,0,0,0,0,0,0,-1,1224,1275,0,0
7,-251,0,0,0,0,0,0,0,0,0,-1,1231,1275,0,0
14,-251,0,0,0,0,0,0,0,0,0,-1,1238,1275,0,0
21,-251,0,0,0,0,0,0,0,0,0,-1,1245,1275,0,0
28,-251,0,0,0,0,0,0,0,0,0,-1,1252,1275,0,0
35,-251,0,0,0,0,0,0,0,0,0,-1,1259,1275,0,0
42,-251,0,0,0,0,0,0,0,0,0,-1,1266,1275,0,0
49,-251,0,0,0,0,0,0,0,0,0,-1,1273,1275,0,0
56,-251,0,0,0,0,0,0,0,0,0,-1,1280,1275,0,0
63,-251,0,0,0,0,0,0,0,0,0,-1,1287,1275,0,0
70,-251,0,0,0,0,0,0,0,0,0,-1,1294,1275,0,0
77,-251,0,0,0,0,0,0,0,0,0,-1,1301,1275,0,0
84,-251,0,0,0,0,0,0,0,0,0,-1,1308,1275,0,0
91,-251,0,0,0,0,0,0,0,0,0,-1,1315,1275,0,0
98,-251,0,0,0,0,0,0,0,0,0,-1,1322,1275,0,0
105,-251,0,0,0,0,0,0,0,0,0,-1,1329,1275,0,0
112,-251,0,0,0,0,0,0,0,0,0,-1,1336,1275,0,0
119,-251,0,0,0,0,0,0,0,0,0,-1,1343,1275,0,0
126,-251,0,0,0,0,0,0,0,0,0,-1,1350,1275,0,0
133,-251,0,0,0,0,0,0,0,0,0,-1,1357,1275,0,0
140,-251,0,0,0,0,0,0,0,0,0,-1,1364,1275,0,0
147,-251,0,0,0,0,0,0,0,0,0,-1,1371,1275,0,0
154,-251,0,0,0,0,0,0,0,0,0,-1,1378,1275,0,0
161,-251,0,0,0,0,0,0,0,0,0,-1,1385,1275,0,0
168,-251,0,0,0,0,0,0,0,0,0,-1,1392,1275,0,0
175,-251,0,0,0,0,0,0,0,0,0,-1,1399,1275,0,0
182,-251,0,0,0,0,0,0,0,0,0,-1,1406,1275,0,0
189,-251,0,0,0,0,0,0,0,0,0,-1,1413,1275,0,0
196,-251,0,0,0,0,0,0,0,0,0,-1,1420,1275,0,0
203,-251,0,0,0,0,0,0,0,0,0,-1,1427,1275,0,0
210,-251,0,0,0,0,0,0,0,0,0,-1,1434,1275,0,0
217,-251,0,0,0,0,0,0,0,0,0,-1,1441,1275,0,0
224,-251,0,0,0,0,0,0,0,0,0,-1,1448,1275,0,0
231,-251,0,0,0,0,0,0,0,0,0,-1,1455,1275,0,0
238,-251,0,0,0,0,0,0,0,0,0,-1,1462,1275,0,0
245,-251,0,0,0,0,0,0,0,0,0,-1,1469,1275,0,0
252,-251,0,0,0,0,0,0,0,0,0,-1,1476,1275,0,0
259,-251,0,0,0,0,0,0,0,0,0,-1,1483,1275,0,0
266,-251,0,0,0,0,0,0,0,0,0,-1,1490,1275,0,0
273,-251,0,0,0,0,0,0,0,0,0,-1,1497,1275,0,0
280,-251,0,0,0,0,0,0,0,0,0,-1,1504,1275,0,0
287,-251,0,0,0,0,0,0,0,0,0,-1,1511,1275,0,0
294,-251,0,0,0,0,0,0,0,0,0,-1,1518,1275,0,0
301,-251,0,0,0,0,0,0,0,0,0,-1,1525,1275,0,0
308,-251,0,0,0,0,0,0,0,0,0,-1,1532,1275,0,0
315,-251,0,0,0,0,0,0,0,0,0,-1,1539,1275,0,0
322,-251,0,0,0,0,0,0,0,0,0,-1,1546,1275,0,0
329,-251,0,0,0,0,0,0,0,0,0,-1,1553,1275,0,0
336,-251,0,0,0,0,0,0,0,0,0,-1,1560,1275,0,0
343,-251,0,0,0,0,0,0,0,0,0,-1,1567,1275,0,0
350,-251,0,0,0,0,0,0,0,0,0,-1,1574,1275,0,0
357,-251,0,0,0,0,0,0,0,0,0,-1,1581,1275,0,0
364,-251,0,0,0,0,0,0,0,0,0,-1,1588,1275,0,0
371,-251,0,0,0,0,0,0,0,0,0,-1,1595,1275,0,0
378,-251,0,0,0,0,0,0,0,0,0,-1,1602,1275,0,0
385,-251,0,0,0,0,0,0,0,0,0,-1,1609,1275,0,0
392,-251,0,0,0,0,0,0,0,0,0,-1,1616,1275,0,0
399,-251,0,0,0,0,0,0,0,0,0,-1,1623,1275,0,0
406,-251,0,0,0,0,0,0,0,0,0,-1,1630,1275,0,0
413,-251,0,0,0,0,0,0,0,0,0,-1,1637,1275,0,0
420,-251,0,0,0,0,0,0,0,0,0,-1,1644,1275,0,0
427,-251,0,0,0,0,0,0,0,0,0,-1,1651,1275,0,0
434,-251,0,0,0,0,0,0,0,0,0,-1,1658,1275,0,0
441,-251,0,0,0,0,0,0,0,0,0,-1,1665,1275,0,0
448,-251,0,0,0,0,0,0,0,0,0,-1,1672,1275,0,0
455,-251,0,0,0,0,0,0,0,0,0,-1,1679,1275,0,0
462,-251,0,0,0,0,0,0,0,0,0,-1,1686,1275,0,0
469,-251,0,0,0,0,0,0,0,0,0,-1,1693,1275,0,0
476,-251,0,0,0,0,0,0,0,0,0,-1,1700,1275,0,0
483,-251,0,0,0,0,0,0,0,0,0,-1,1707,1275,0,0
490,-251,0,0,0,0,0,0,0,0,0,-1,1714,1275,0,0
497,-251,0,0,0,0,0,0,0,0,0,-1,1721,1275,0,0
504,-251,0,0,0,0,0,0,0,0,0,-1,1728,1275,0,0
511,-251,0,0,0,0,0,0,0,0,0,-1,1735,1275,0,0
518,-251,0,0,0,0,0,0,0,0,0,-1,1742,1275,0,0
525,-251,0,0,0,0,0,0,0,0,0,-1,1749,1275,0,0
532,-251,0,0,0,0,0,0,0,0,0,-1,1756,1275,0,0
539,-251,0,0,0,0,0,0,0,0,0,-1,1763,1275,0,0
546,-251,0,0,0,0,0,0,0,0,0,-1,1770,1275,0,0
553,-251,0,0,0,0,0,0,0,0,0,-1,1777,1275,0,0
560,-251,0,0,0,0,0,0,0,0,0,-1,1784,1275,0,0
567,-251,0,0,0,0,0,0,0,0,0,-1,1791,1275,0,0
574,-251,0,0,0,0,0,0,0,0,0,-1,1798,1275,0,0
581,-251,0,0,0,0,0,0,0,0,0,-1,1805,1275,0,0
588,-251,0,0,0,0,0,0,0,0,0,-1,1812,1275,0,0
595,-251,0,0,0,0,0,0,0,0,0,-1,1819,1275,0,0
602,-251,0,0,0,0,0,0,0,0,0,-1,1826,1275,0,0
609,-251,46.2206,2.77722,0.00745694,0.014161,-0.0118388,0.0231131,-0.00149518,-0.923358,0.0159306,0.0300426,1833,1275,46.2206,-2.7772
616,-251,46.2356,2.79578,-0.00376426,0.0123717,-0.00665684,0.0147634,-0.006156,-1.22587,0.0124139,0.0268469,1840,1275,46.2355,-2.79574
623,-251,46.2385,2.82617,-0.0145705,0.00913843,-0.000220456,0.00914048,-0.0145725,-1.5615,0.0138099,0.0222918,1847,1275,46.2385,-2.82613
630,-251,46.2051,2.83081,-0.0231523,0.00465821,0.00643387,0.00607454,-0.0245686,1.35412,0.0187351,0.0331661,1854,1275,46.2051,-2.83076
637,-251,45.9229,2.91479,0,0,0,0,0,0,0,-1,1861,1275,45.9229,-2.91475
644,-251,45.319,2.97351,-0.0232159,-0.00132345,0.011175,0.0033732,-0.0279126,1.17293,0.0198287,0.0414681,1868,1275,45.3189,-2.97357
651,-251,45.083,3.12292,-0.0199612,-0.00235029,0.010577,0.00260687,-0.0249183,1.13252,0.0175458,0.0452236,1875,1275,45.083,-3.12289
658,-251,45.1494,3.24536,0,0,0,0,0,0,0,-1,1882,1275,45.1494,-3.24541
665,-251,32.9579,2.60229,0,0,0,0,0,0,0,-1,1889,1275,32.9579,-2.60231
672,-251,26.0721,4.53064,0,0,0,0,0,0,0,-1,1896,1275,26.0721,-4.53063
679,-251,29.1344,8.63782,0,0,0,0,0,0,0,-1,1903,1275,29.1344,-8.63778
686,-251,34.979,9.92603,0,0,0,0,0,0,0,-1,1910,1275,34.979,-9.92601
693,-251,34.9365,9.46265,-0.00501809,-0.00529217,0.00621704,0.00106342,-0.0113737,0.774379,0.00796064,0.0137613,1917,1275,34.9365,-9.46266
700,-251,34.92,8.98792,-0.00139725,-0.00405276,0.00359007,0.00110273,-0.00655274,0.608278,0.00477867,0.00922049,1924,1275,34.9201,-8.98794
707,-251,34.9404,8.52661,0.00102771,-0.00227288,0.000848109,0.00123288,-0.00247805,0.237358,0.00218234,0.0118384,1931,1275,34.9404,-8.52667
714,-251,34.9548,8.10193,0.000508022,-0.000695183,0.000653641,0.000794773,-0.000981934,0.413415,0.00102768,0.0135513,1938,1275,34.9548,-8.1019
721,-251,34.8759,7.70544,-0.000471066,-0.000399387,0.00110105,0.000666407,-0.00153686,0.801667,0.00130473,0.0178541,1945,1275,34.8758,-7.70541
728,-251,34.8394,7.29626,-0.00148569,-7.50692e-05,0.00161653,0.000983321,-0.00254408,0.991104,0.00210194,0.0205234,1952,1275,34.8394,-7.29626
735,-251,34.8594,6.80945,-0.00245364,0.000261184,0.00213701,0.00143544,-0.0036279,1.06835,0.00301329,0.018049,1959,1275,34.8593,-6.80949
742,-251,34.8184,6.47107,-0.00329517,0.000644107,0.00265407,0.00197955,-0.00463061,1.10462,0.00391735,0.0177071,1966,1275,34.8184,-6.47113
749,-251,34.6417,6.22632,-0.00394568,0.0010962,0.00324286,0.00268273,-0.0055322,1.1158,0.00483706,0.0357662,1973,1275,34.6418,-6.22632
756,-251,34.5231,6.01929,0,0,0,0,0,0,0,-1,1980,1275,34.5231,-6.01924
763,-251,34.6436,5.46033,0,0,0,0,0,0,0,-1,1987,1275,34.6435,-5.46034
770,-251,35.0348,4.40637,0,0,0,0,0,0,0,-1,1994,1275,35.0348,-4.40642
777,-251,31.5731,4.33252,0,0,0,0,0,0,0,-1,2001,1275,31.5731,-4.33251
784,-251,32.0776,5.78247,0,0,0,0,0,0,0,-1,2008,1275,32.0776,-5.78247
791,-251,0,0,0,0,0,0,0,0,0,-1,2015,1275,0,0
798,-251,0,0,0,0,0,0,0,0,0,-1,2022,1275,0,0
805,-251,0,0,0,0,0,0,0,0,0,-1,2029,1275,0,0
812,-251,0,0,0,0,0,0,0,0,0,-1,2036,1275,0,0
-700,-258,0,0,0,0,0,0,0,0,0,-1,524,1282,0,0
-693,-258,0,0,0,0,0,0,0,0,0,-1,531,1282,0,0
-686,-258,0,0,0,0,0,0,0,0,0,-1,538,1282,0,0
-679,-258,0,0,0,0,0,0,0,0,0,-1,545,1282,0,0
-672,-258,0,0,0,0,0,0,0,0,0,-1,552,1282,0,0
-665,-258,-20.7346,4.88318,0,0,0,0,0,0,0,-1,559,1282,-20.7345,-4.88316
-658,-258,-21.545,6.01331,0,0,0,0,0,0,0,-1,566,1282,-21.545,-6.01331
-651,-258,-21.2513,-0.901245,0,0,0,0,0,0,0,-1,573,1282,-21.2513,0.901221
-644,-258,-20.8941,-0.0340576,0,0,0,0,0,0,0,-1,580,1282,-20.8941,0.0340716
-637,-258,-20.7496,0.923828,0,0,0,0,0,0,0,-1,587,1282,-20.7496,-0.92382
-630,-258,-21.0684,2.14075,0,0,0,0,0,0,0,-1,594,1282,-21.0684,-2.14074
-623,-258,-21.16,2.62646,0,0,0,0,0,0,0,-1,601,1282,-21.16,-2.62649
-616,-258,-21.1829,3.26062,0.0015647,0.00410454,0.00794454,0.01088,-0.00521078,0.864652,0.00948028,0.0358303,608,1282,-21.183,-3.26061
-609,-258,-21.1642,3.87488,0.00131722,0.0034336,0.00600307,0.00847103,-0.00372021,0.872639,0.00721456,0.01827,615,1282,-21.1643,-3.87483
-602,-258,-21.1864,4.34778,0.00136031,0.00259959,0.00443805,0.00646104,-0.00250115,0.85476,0.00534003,0.0144124,622,1282,-21.1864,-4.34777
-595,-258,-21.1729,4.80371,0.00158554,0.00175484,0.00312329,0.00479463,-0.00145424,0.798946,0.0037757,0.011739,629,1282,-21.1729,-4.80371
-588,-258,-21.1838,5.27222,0.00199217,0.000982041,0.00212045,0.00366688,-0.000692667,0.668483,0.0027052,0.0126352,636,1282,-21.1838,-5.27218
-581,-258,-21.2094,5.75488,0.00249302,0.00031244,0.00141263,0.00318717,-0.000381715,0.456739,0.00226278,0.0153805,643,1282,-21.2094,-5.75488
-574,-258,-21.1931,6.26196,0.00292644,-0.000161384,0.000964615,0.00320301,-0.000437951,0.279223,0.00229529,0.0159457,650,1282,-21.1931,-6.26195
-567,-258,-21.2321,6.76831,0.00261743,0.00011905,0.000614037,0.00276019,-2.37072e-05,0.228431,0.00184808,0.0160961,657,1282,-21.2321,-6.76833
-560,-258,-21.2039,7.2301,0.00156315,0.00086568,0.000487695,0.00181396,0.000614862,0.475016,0.00106525,0.0376394,664,1282,-21.2039,-7.23013
-553,-258,-21.1018,7.67712,0,0,0,0,0,0,0,-1,671,1282,-21.1018,-7.67718
-546,-258,-14.2231,5.92029,0,0,0,0,0,0,0,-1,678,1282,-14.2231,-5.92028
-539,-258,-10.2228,4.05823,0,0,0,0,0,0,0,-1,685,1282,-10.2228,-4.05823
-532,-258,-10.2173,-0.353882,0,0,0,0,0,0,0,-1,692,1282,-10.2173,0.353836
-525,-258,-21.8661,-1.5929,0,0,0,0,0,0,0,-1,699,1282,-21.8661,1.59285
-518,-258,-29.2484,0.123169,0,0,0,0,0,0,0,-1,706,1282,-29.2484,-0.123186
-511,-258,-23.5061,1.16833,0,0,0,0,0,0,0,-1,713,1282,-23.5061,-1.16833
-504,-258,-22.9178,0.484131,0,0,0,0,0,0,0,-1,720,1282,-22.9178,-0.484106
-497,-258,-17.8047,0.730469,0,0,0,0,0,0,0,-1,727,1282,-17.8048,-0.730489
-490,-258,-15.4346,0.632935,0,0,0,0,0,0,0,-1,734,1282,-15.4346,-0.632917
-483,-258,0,0,0,0,0,0,0,0,0,-1,741,1282,0,0
-476,-258,0,0,0,0,0,0,0,0,0,-1,748,1282,0,0
-469,-258,0,0,0,0,0,0,0,0,0,-1,755,1282,0,0
-462,-258,0,0,0,0,0,0,0,0,0,-1,762,1282,0,0
-455,-258,0,0,0,0,0,0,0,0,0,-1,769,1282,0,0
-448,-258,0,0,0,0,0,0,0,0,0,-1,776,1282,0,0
-441,-258,0,0,0,0,0,0,0,0,0,-1,783,1282,0,0
-434,-258,0,0,0,0,0,0,0,0,0,-1,790,1282,0,0
-427,-258,0,0,0,0,0,0,0,0,0,-1,797,1282,0,0
-420,-258,0,0,0,0,0,0,0,0,0,-1,804,1282,0,0
-413,-258,0,0,0,0,0,0,0,0,0,-1,811,1282,0,0
-406,-258,0,0,0,0,0,0,0,0,0,-1,818,1282,0,0
-399,-258,0,0,0,0,0,0,0,0,0,-1,825,1282,0,0
-392,-258,0,0,0,0,0,0,0,0,0,-1,832,1282,0,0
-385,-258,0,0,0,0,0,0,0,0,0,-1,839,1282,0,0
-378,-258,0,0,0,0,0,0,0,0,0,-1,846,1282,0,0
-371,-258,0,0,0,0,0,0,0,0,0,-1,853,1282,0,0
-364,-258,0,0,0,0,0,0,0,0,0,-1,860,1282,0,0
-357,-258,0,0,0,0,0,0,0,0,0,-1,867,1282,0,0
-350,-258,0,0,0,0,0,0,0,0,0,-1,874,1282,0,0
-343,-258,0,0,0,0,0,0,0,0,0,-1,881,1282,0,0
-336,-258,0,0,0,0,0,0,0,0,0,-1,888,1282,0,0
-329,-258,0,0,0,0,0,0,0,0,0,-1,895,1282,0,0
-322,-258,0,0,0,0,0,0,0,0,0,-1,902,1282,0,0
-315,-258,0,0,0,0,0,0,0,0,0,-1,909,1282,0,0
-308,-258,0,0,0,0,0,0,0,0,0,-1,916,1282,0,0
-301,-258,0,0,0,0,0,0,0,0,0,-1,923,1282,0,0
-294,-258,0,0,0,0,0,0,0,0,0,-1,930,1282,0,0
-287,-258,0,0,0,0,0,0,0,0,0,-1,937,1282,0,0
-280,-258,0,0,0,0,0,0,0,0,0,-1,944,1282,0,0
-273,-258,0,0,0,0,0,0,0,0,0,-1,951,1282,0,0
-266,-258,0,0,0,0,0,0,0,0,0,-1,958,1282,0,0
-259,-258,0,0,0,0,0,0,0,0,0,-1,965,1282,0,0
-252,-258,0,0,0,0,0,0,0,0,0,-1,972,1282,0,0
-245,-258,0,0,0,0,0,0,0,0,0,-1,979,1282,0,0
-238,-258,0,0,0,0,0,0,0,0,0,-1,986,1282,0,0
-231,-258,0,0,0,0,0,0,0,0,0,-1,993,1282,0,0
-224,-258,0,0,0,0,0,0,0,0,0,-1,1000,1282,0,0
-217,-258,0,0,0,0,0,0,0,0,0,-1,1007,1282,0,0
-210,-258,0,0,0,0,0,0,0,0,0,-1,1014,1282,0,0
-203,-258,0,0,0,0,0,0,0,0,0,-1,1021,1282,0,0
-196,-258,0,0,0,0,0,0,0,0,0,-1,1028,1282,0,0
-189,-258,0,0,0,0,0,0,0,0,0,-1,1035,1282,0,0
-182,-258,0,0,0,0,0,0,0,0,0,-1,1042,1282,0,0
-175,-258,0,0,0,0,0,0,0,0,0,-1,1049,1282,0,0
-168,-258,0,0,0,0,0,0,0,0,0,-1,1056,1282,0,0
-161,-258,0,0,0,0,0,0,0,0,0,-1,1063,1282,0,0
-154,-258,0,0,0,0,0,0,0,0,0,-1,1070,1282,0,0
-147,-258,0,0,0,0,0,0,0,0,0,-1,1077,1282,0,0
-140,-258,0,0,0,0,0,0,0,0,0,-1,1084,1282,0,0
-133,-258,0,0,0,0,0,0,0,0,0,-1,1091,1282,0,0
-126,-258,0,0,0,0,0,0,0,0,0,-1,1098,1282,0,0
-119,-258,0,0,0,0,0,0,0,0,0,-1,1105,1282,0,0
-112,-258,0,0,0,0,0,0,0,0,0,-1,1112,1282,0,0
-105,-258,0,0,0,0,0,0,0,0,0,-1,1119,1282,0,0
-98,-258,0,0,0,0,0,0,0,0,0,-1,1126,1282,0,0
-91,-258,0,0,0,0,0,0,0,0,0,-1,1133,1282,0,0
-84,-258,0,0,0,0,0,0,0,0,0,-1,1140,1282,0,0
-77,-258,0,0,0,0,0,0,0,0,0,-1,1147,1282,0,0
-70,-258,0,0,0,0,0,0,0,0,0,-1,1154,1282,0,0
-63,-258,0,0,0,0,0,0,0,0,0,-1,1161,1282,0,0
-56,-258,0,0,0,0,0,0,0,0,0,-1,1168,1282,0,0
-49,-258,0,0,0,0,0,0,0,0,0,-1,1175,1282,0,0
-42,-258,0,0,0,0,0,0,0,0,0,-1,1182,1282,0,0
-35,-258,0,0,0,0,0,0,0,0,0,-1,1189,1282,0,0
-28,-258,0,0,0,0,0,0,0,0,0,-1,1196,1282,0,0
-21,-258,0,0,0,0,0,0,0,0,0,-1,1203,1282,0,0
-14,-258,0,0,0,0,0,0,0,0,0,-1,1210,1282,0,0
-7,-258,0,0,0,0,0,0,0,0,0,-1,1217,1282,0,0
0,-258,0,0,0,0,0,0,0,0,0,-1,1224,1282,0,0
7,-258,0,0,0,0,0,0,0,0,0,-1,1231,1282,0,0
14,-258,0,0,0,0,0,0,0,0,0,-1,1238,1282,0,0
21,-258,0,0,0,0,0,0,0,0,0,-1,1245,1282,0,0
28,-258,0,0,0,0,0,0,0,0,0,-1,1252,1282,0,0
35,-258,0,0,0,0,0,0,0,0,0,-1,1259,1282,0,0
42,-258,0,0,0,0,0,0,0,0,0,-1,1266,1282,0,0
49,-258,0,0,0,0,0,0,0,0,0,-1,1273,1282,0,0
56,-258,0,0,0,0,0,0,0,0,0,-1,1280,1282,0,0
63,-258,0,0,0,0,0,0,0,0,0,-1,1287,1282,0,0
70,-258,0,0,0,0,0,0,0,0,0,-1,1294,1282,0,0
77,-258,0,0,0,0,0,0,0,0,0,-1,1301,1282,0,0
84,-258,0,0,0,0,0,0,0,0,0,-1,1308,1282,0,0
91,-258,0,0,0,0,0,0,0,0,0,-1,1315,1282,0,0
98,-258,0,0,0,0,0,0,0,0,0,-1,1322,1282,0,0
105,-258,0,0,0,0,0,0,0,0,0,-1,1329,1282,0,0
112,-258,0,0,0,0,0,0,0,0,0,-1,1336,1282,0,0
119,-258,0,0,0,0,0,0,0,0,0,-1,1343,1282,0,0
126,-258,0,0,0,0,0,0,0,0,0,-1,1350,1282,0,0
133,-258,0,0,0,0,0,0,0,0,0,-1,1357,1282,0,0
140,-258,0,0,0,0,0,0,0,0,0,-1,1364,1282,0,0
147,-258,0,0,0,0,0,0,0,0,0,-1,1371,1282,0,0
154,-258,0,0,0,0,0,0,0,0,0,-1,1378,1282,0,0
161,-258,0,0,0,0,0,0,0,0,0,-1,1385,1282,0,0
168,-258,0,0,0,0,0,0,0,0,0,-1,1392,1282,0,0
175,-258,0,0,0,0,0,0,0,0,0,-1,1399,1282,0,0
182,-258,0,0,0,0,0,0,0,0,0,-1,1406,1282,0,0
189,-258,0,0,0,0,0,0,0,0,0,-1,1413,1282,0,0
196,-258,0,0,0,0,0,0,0,0,0,-1,1420,1282,0,0
203,-258,0,0,0,0,0,0,0,0,0,-1,1427,1282,0,0
210,-258,0,0,0,0,0,0,0,0,0,-1,1434,1282,0,0
217,-258,0,0,0,0,0,0,0,0,0,-1,1441,1282,0,0
224,-258,0,0,0,0,0,0,0,0,0,-1,1448,1282,0,0
231,-258,0,0,0,0,0,0,0,0,0,-1,1455,1282,0,0
238,-258,0,0,0,0,0,0,0,0,0,-1,1462,1282,0,0
245,-258,0,0,0,0,0,0,0,0,0,-1,1469,1282,0,0
252,-258,0,0,0,0,0,0,0,0,0,-1,1476,1282,0,0
259,-258,0,0,0,0,0,0,0,0,0,-1,1483,1282,0,0
266,-258,0,0,0,0,0,0,0,0,0,-1,1490,1282,0,0
273,-258,0,0,0,0,0,0,0,0,0,-1,1497,1282,0,0
280,-258,0,0,0,0,0,0,0,0,0,-1,1504,1282,0,0
287,-258,0,0,0,0,0,0,0,0,0,-1,1511,1282,0,0
294,-258,0,0,0,0,0,0,0,0,0,-1,1518,1282,0,0
301,-258,0,0,0,0,0,0,0,0,0,-1,1525,1282,0,0
308,-258,0,0,0,0,0,0,0,0,0,-1,1532,1282,0,0
315,-258,0,0,0,0,0,0,0,0,0,-1,1539,1282,0,0
322,-258,0,0,0,0,0,0,0,0,0,-1,1546,1282,0,0
329,-258,0,0,0,0,0,0,0,0,0,-1,1553,1282,0,0
336,-258,0,0,0,0,0,0,0,0,0,-1,1560,1282,0,0
343,-258,0,0,0,0,0,0,0,0,0,-1,1567,1282,0,0
350,-258,0,0,0,0,0,0,0,0,0,-1,1574,1282,0,0
357,-258,0,0,0,0,0,0,0,0,0,-1,1581,1282,0,0
364,-258,0,0,0,0,0,0,0,0,0,-1,1588,1282,0,0
371,-258,0,0,0,0,0,0,0,0,0,-1,1595,1282,0,0
378,-258,0,0,0,0,0,0,0,0,0,-1,1602,1282,0,0
385,-258,0,0,0,0,0,0,0,0,0,-1,1609,1282,0,0
392,-258,0,0,0,0,0,0,0,0,0,-1,1616,1282,0,0
399,-258,0,0,0,0,0,0,0,0,0,-1,1623,1282,0,0
406,-258,0,0,0,0,0,0,0,0,0,-1,1630,1282,0,0
413,-258,0,0,0,0,0,0,0,0,0,-1,1637,1282,0,0
420,-258,0,0,0,0,0,0,0,0,0,-1,1644,1282,0,0
427,-258,0,0,0,0,0,0,0,0,0,-1,1651,1282,0,0
434,-258,0,0,0,0,0,0,0,0,0,-1,1658,1282,0,0
441,-258,0,0,0,0,0,0,0,0,0,-1,1665,1282,0,0
448,-258,0,0,0,0,0,0,0,0,0,-1,1672,1282,0,0
455,-258,0,0,0,0,0,0,0,0,0,-1,1679,1282,0,0
462,-258,0,0,0,0,0,0,0,0,0,-1,1686,1282,0,0
469,-258,0,0,0,0,0,0,0,0,0,-1,1693,1282,0,0
476,-258,0,0,0,0,0,0,0,0,0,-1,1700,1282,0,0
483,-258,0,0,0,0,0,0,0,0,0,-1,1707,1282,0,0
490,-258,0,0,0,0,0,0,0,0,0,-1,1714,1282,0,0
497,-258,0,0,0,0,0,0,0,0,0,-1,1721,1282,0,0
504,-258,0,0,0,0,0,0,0,0,0,-1,1728,1282,0,0
511,-258,0,0,0,0,0,0,0,0,0,-1,1735,1282,0,0
518,-258,0,0,0,0,0,0,0,0,0,-1,1742,1282,0,0
525,-258,0,0,0,0,0,0,0,0,0,-1,1749,1282,0,0
532,-258,0,0,0,0,0,0,0,0,0,-1,1756,1282,0,0
539,-258,0,0,0,0,0,0,0,0,0,-1,1763,1282,0,0
546,-258,0,0,0,0,0,0,0,0,0,-1,1770,1282,0,0
553,-258,0,0,0,0,0,0,0,0,0,-1,1777,1282,0,0
560,-258,0,0,0,0,0,0,0,0,0,-1,1784,1282,0,0
567,-258,0,0,0,0,0,0,0,0,0,-1,1791,1282,0,0
574,-258,0,0,0,0,0,0,0,0,0,-1,1798,1282,0,0
581,-258,0,0,0,0,0,0,0,0,0,-1,1805,1282,0,0
588,-258,0,0,0,0,0,0,0,0,0,-1,1812,1282,0,0
595,-258,0,0,0,0,0,0,0,0,0,-1,1819,1282,0,0
602,-258,0,0,0,0,0,0,0,0,0,-1,1826,1282,0,0
609,-258,46.233,2.83594,0.0025824,0.0124228,-0.0125212,0.0209558,-0.00595064,-0.972604,0.0163198,0.0247536,1833,1282,46.233,-2.83592
616,-258,46.2238,2.80103,-0.00982271,0.0109057,-0.00678877,0.0129311,-0.0118482,-1.28085,0.0143109,0.0228273,1840,1282,46.2238,-2.80099
623,-258,46.13,2.71899,-0.0204806,0.00796984,-7.48078e-05,0.00797004,-0.0204808,-1.56817,0.0169472,0.0313388,1847,1282,46.1301,-2.71905
630,-258,46.0295,2.57617,-0.0274286,0.0041479,0.00629771,0.00535759,-0.0286383,1.38102,0.021106,0.0420286,1854,1282,46.0296,-2.57622
637,-258,45.358,3.00635,0,0,0,0,0,0,0,-1,1861,1282,45.358,-3.00633
644,-258,44.8508,3.14636,-0.0245304,-0.000434474,0.010157,0.00327569,-0.0282406,1.22057,0.0200085,0.0463414,1868,1282,44.8508,-3.14634
651,-258,44.5931,3.52649,-0.0211788,-0.00150436,0.00993107,0.00263686,-0.02532,1.17572,0.0178241,0.0488493,1875,1282,44.5931,-3.52648
658,-258,44.3086,3.68384,0,0,0,0,0,0,0,-1,1882,1282,44.3086,-3.68387
665,-258,35.4747,1.1864,0,0,0,0,0,0,0,-1,1889,1282,35.4747,-1.18637
672,-258,22.703,2.80957,0,0,0,0,0,0,0,-1,1896,1282,22.703,-2.80962
679,-258,26.8693,8.19543,0,0,0,0,0,0,0,-1,1903,1282,26.8692,-8.19548
686,-258,34.5665,9.92676,0,0,0,0,0,0,0,-1,1910,1282,34.5666,-9.92672
693,-258,34.527,9.44958,-0.00533792,-0.00514616,0.00661406,0.00137272,-0.0118568,0.792646,0.00839958,0.0134775,1917,1282,34.527,-9.44961
700,-258,34.5015,8.9834,-0.00146553,-0.00371688,0.00375329,0.00132726,-0.00650967,0.639708,0.0048432,0.00960547,1924,1282,34.5015,-8.98338
707,-258,34.5001,8.55066,0.000882063,-0.00186947,0.000974034,0.00119196,-0.00217937,0.308035,0.00197407,0.0116688,1931,1282,34.5001,-8.55069
714,-258,34.4971,8.13062,0.000214922,-0.000513876,0.000838154,0.000764464,-0.00106342,0.580342,0.00106002,0.0115465,1938,1282,34.497,-8.13057
721,-258,34.4678,7.68494,-0.000821739,-0.000287806,0.001272,0.000744942,-0.00185449,0.888836,0.00154568,0.0161406,1945,1282,34.4678,-7.6849
728,-258,34.4261,7.27087,-0.00191685,-7.79841e-05,0.00177506,0.00100164,-0.00299647,1.02436,0.00240217,0.0161593,1952,1282,34.4261,-7.27085
735,-258,34.4449,6.83154,-0.00298462,0.000155319,0.00229235,0.00136378,-0.00419308,1.08565,0.003344,0.0171645,1959,1282,34.445,-6.8316
742,-258,34.4291,6.44604,-0.00395057,0.000447711,0.00280095,0.00180969,-0.00531254,1.1182,0.00427458,0.0189478,1966,1282,34.429,-6.44607
749,-258,34.2979,6.1261,-0.00477244,0.00080755,0.00336893,0.00239177,-0.00635666,1.13124,0.00522095,0.0393236,1973,1282,34.2978,-6.12605
756,-258,34.1875,5.67737,0,0,0,0,0,0,0,-1,1980,1282,34.1875,-5.67739
763,-258,34.1683,5.13782,0,0,0,0,0,0,0,-1,1987,1282,34.1683,-5.13782
770,-258,35.0776,4.69446,0,0,0,0,0,0,0,-1,1994,1282,35.0776,-4.6944
777,-258,31.912,4.83093,0,0,0,0,0,0,0,-1,2001,1282,31.912,-4.8309
784,-258,32.6525,6.43091,0,0,0,0,0,0,0,-1,2008,1282,32.6525,-6.43091
791,-258,0,0,0,0,0,0,0,0,0,-1,2015,1282,0,0
798,-258,0,0,0,0,0,0,0,0,0,-1,2022,1282,0,0
805,-258,0,0,0,0,0,0,0,0,0,-1,2029,1282,0,0
812,-258,0,0,0,0,0,0,0,0,0,-1,2036,1282,0,0
-700,-265,0,0,0,0,0,0,0,0,0,-1,524,1289,0,0
-693,-265,0,0,0,0,0,0,0,0,0,-1,531,1289,0,0
-686,-265,0,0,0,0,0,0,0,0,0,-1,538,1289,0,0
-679,-265,0,0,0,0,0,0,0,0,0,-1,545,1289,0,0
-672,-265,0,0,0,0,0,0,0,0,0,-1,552,1289,0,0
-665,-265,-21.8043,0.183594,0,0,0,0,0,0,0,-1,559,1289,-21.8042,-0.183562
-658,-265,-18.9856,-0.2948,0,0,0,0,0,0,0,-1,566,1289,-18.9856,0.294797
-651,-265,-18.8685,0.415161,0,0,0,0,0,0,0,-1,573,1289,-18.8685,-0.415106
-644,-265,-21.1107,-0.415527,0,0,0,0,0,0,0,-1,580,1289,-21.1106,0.415535
-637,-265,-20.9237,0.733765,0,0,0,0,0,0,0,-1,587,1289,-20.9237,-0.733739
-630,-265,-19.4874,2.06287,0,0,0,0,0,0,0,-1,594,1289,-19.4874,-2.06282
-623,-265,-20.8925,2.28601,0,0,0,0,0,0,0,-1,601,1289,-20.8925,-2.28598
-616,-265,-20.7347,3.04089,0.00210593,0.00483143,0.0100953,0.0136555,-0.00671815,0.852487,0.0119879,0.0441107,608,1289,-20.7347,-3.04089
-609,-265,-20.6503,3.84424,0.00165235,0.00408433,0.00752729,0.0104932,-0.00475654,0.865478,0.00900972,0.0194729,615,1289,-20.6503,-3.84429
-602,-265,-20.6774,4.35864,0.00152208,0.00316317,0.00553624,0.00793934,-0.00325409,0.858969,0.00664856,0.0150955,622,1289,-20.6774,-4.35866
-595,-265,-20.6939,4.83606,0.00157871,0.00224012,0.00388879,0.00581224,-0.00199341,0.827817,0.00468292,0.0130124,629,1289,-20.6939,-4.83607
-588,-265,-20.7067,5.31042,0.00181885,0.00135438,0.00258771,0.00418473,-0.0010115,0.740645,0.00318105,0.0119285,636,1289,-20.7067,-5.31046
-581,-265,-20.7269,5.77783,0.00220807,0.000532854,0.00159776,0.00317446,-0.000433539,0.543973,0.00227463,0.0139562,643,1289,-20.7269,-5.77787
-574,-265,-20.7393,6.31506,0.00267452,-0.000160032,0.000888172,0.00292982,-0.000415335,0.279902,0.00210536,0.0153445,650,1289,-20.7393,-6.31511
-567,-265,-20.7842,6.83325,0.00271949,-0.000316683,0.0003297,0.00275488,-0.000352072,0.10693,0.00196449,0.0225976,657,1289,-20.7842,-6.83325
-560,-265,-20.8265,7.31445,0.00216698,-2.51725e-05,0.000164239,0.00217922,-3.74091e-05,0.074368,0.00146544,0.0252564,664,1289,-20.8264,-7.3144
-553,-265,-20.8231,7.7771,0,0,0,0,0,0,0,-1,671,1289,-20.8231,-7.77708
-546,-265,-19.0402,7.96277,0,0,0,0,0,0,0,-1,678,1289,-19.0402,-7.96282
-539,-265,-13.7668,6.39917,0,0,0,0,0,0,0,-1,685,1289,-13.7668,-6.39915
-532,-265,-8.53998,3.41467,0,0,0,0,0,0,0,-1,692,1289,-8.53996,-3.41473
-525,-265,-12.1317,0.514648,0,0,0,0,0,0,0,-1,699,1289,-12.1317,-0.514634
-518,-265,-24.1604,0.712402,0,0,0,0,0,0,0,-1,706,1289,-24.1604,-0.712425
-511,-265,-23.233,0.791626,0,0,0,0,0,0,0,-1,713,1289,-23.233,-0.791617
-504,-265,-22.3056,0.87085,0,0,0,0,0,0,0,-1,720,1289,-22.3056,-0.87081
-497,-265,-18.689,-0.278442,0,0,0,0,0,0,0,-1,727,1289,-18.689,0.278423
-490,-265,-15.1696,0.492676,0,0,0,0,0,0,0,-1,734,1289,-15.1696,-0.492688
-483,-265,0,0,0,0,0,0,0,0,0,-1,741,1289,0,0
-476,-265,0,0,0,0,0,0,0,0,0,-1,748,1289,0,0
-469,-265,0,0,0,0,0,0,0,0,0,-1,755,1289,0,0
-462,-265,0,0,0,0,0,0,0,0,0,-1,762,1289,0,0
-455,-265,0,0,0,0,0,0,0,0,0,-1,769,1289,0,0
-448,-265,0,0,0,0,0,0,0,0,0,-1,776,1289,0,0
-441,-265,0,0,0,0,0,0,0,0,0,-1,783,1289,0,0
-434,-265,0,0,0,0,0,0,0,0,0,-1,790,1289,0,0
-427,-265,0,0,0,0,0,0,0,0,0,-1,797,1289,0,0
-420,-265,0,0,0,0,0,0,0,0,0,-1,804,1289,0,0
-413,-265,0,0,0,0,0,0,0,0,0,-1,811,1289,0,0
-406,-265,0,0,0,0,0,0,0,0,0,-1,818,1289,0,0
-399,-265,0,0,0,0,0,0,0,0,0,-1,825,1289,0,0
-392,-265,0,0,0,0,0,0,0,0,0,-1,832,1289,0,0
-385,-265,0,0,0,0,0,0,0,0,0,-1,839,1289,0,0
-378,-265,0,0,0,0,0,0,0,0,0,-1,846,1289,0,0
-371,-265,0,0,0,0,0,0,0,0,0,-1,853,1289,0,0
-364,-265,0,0,0,0,0,0,0,0,0,-1,860,1289,0,0
-357,-265,0,0,0,0,0,0,0,0,0,-1,867,1289,0,0
-350,-265,0,0,0,0,0,0,0,0,0,-1,874,1289,0,0
-343,-265,0,0,0,0,0,0,0,0,0,-1,881,1289,0,0
-336,-265,0,0,0,0,0,0,0,0,0,-1,888,1289,0,0
-329,-265,0,0,0,0,0,0,0,0,0,-1,895,1289,0,0
-322,-265,0,0,0,0,0,0,0,0,0,-1,902,1289,0,0
-315,-265,0,0,0,0,0,0,0,0,0,-1,909,1289,0,0
-308,-265,0,0,0,0,0,0,0,0,0,-1,916,1289,0,0
-301,-265,0,0,0,0,0,0,0,0,0,-1,923,1289,0,0
-294,-265,0,0,0,0,0,0,0,0,0,-1,930,1289,0,0
-287,-265,0,0,0,0,0,0,0,0,0,-1,937,1289,0,0
-280,-265,0,0,0,0,0,0,0,0,0,-1,944,1289,0,0
-273,-265,0,0,0,0,0,0,0,0,0,-1,951,1289,0,0
-266,-265,0,0,0,0,0,0,0,0,0,-1,958,1289,0,0
-259,-265,0,0,0,0,0,0,0,0,0,-1,965,1289,0,0
-252,-265,0,0,0,0,0,0,0,0,0,-1,972,1289,0,0
-245,-265,0,0,0,0,0,0,0,0,0,-1,979,1289,0,0
-238,-265,0,0,0,0,0,0,0,0,0,-1,986,1289,0,0
-231,-265,0,0,0,0,0,0,0,0,0,-1,993,1289,0,0
-224,-265,0,0,0,0,0,0,0,0,0,-1,1000,1289,0,0
-217,-265,0,0,0,0,0,0,0,0,0,-1,1007,1289,0,0
-210,-265,0,0,0,0,0,0,0,0,0,-1,1014,1289,0,0
-203,-265,0,0,0,0,0,0,0,0,0,-1,1021,1289,0,0
-196,-265,0,0,0,0,0,0,0,0,0,-1,1028,1289,0,0
-189,-265,0,0,0,0,0,0,0,0,0,-1,1035,1289,0,0
-182,-265,0,0,0,0,0,0,0,0,0,-1,1042,1289,0,0
-175,-265,0,0,0,0,0,0,0,0,0,-1,1049,1289,0,0
-168,-265,0,0,0,0,0,0,0,0,0,-1,1056,1289,0,0
-161,-265,0,0,0,0,0,0,0,0,0,-1,1063,1289,0,0
-154,-265,0,0,0,0,0,0,0,0,0,-1,1070,1289,0,0
-147,-265,0,0,0,0,0,0,0,0,0,-1,1077,1289,0,0
-140,-265,0,0,0,0,0,0,0,0,0,-1,1084,1289,0,0
-133,-265,0,0,0,0,0,0,0,0,0,-1,1091,1289,0,0
-126,-265,0,0,0,0,0,0,0,0,0,-1,1098,1289,0,0
-119,-265,0,0,0,0,0,0,0,0,0,-1,1105,1289,0,0
-112,-265,0,0,0,0,0,0,0,0,0,-1,1112,1289,0,0
-105,-265,0,0,0,0,0,0,0,0,0,-1,1119,1289,0,0
-98,-265,0,0,0,0,0,0,0,0,0,-1,1126,1289,0,0
-91,-265,0,0,0,0,0,0,0,0,0,-1,1133,1289,0,0
-84,-265,0,0,0,0,0,0,0,0,0,-1,1140,1289,0,0
-77,-265,0,0,0,0,0,0,0,0,0,-1,1147,1289,0,0
-70,-265,0,0,0,0,0,0,0,0,0,-1,1154,1289,0,0
-63,-265,0,0,0,0,0,0,0,0,0,-1,1161,1289,0,0
-56,-265,0,0,0,0,0,0,0,0,0,-1,1168,1289,0,0
-49,-265,0,0,0,0,0,0,0,0,0,-1,1175,1289,0,0
-42,-265,0,0,0,0,0,0,0,0,0,-1,1182,1289,0,0
-35,-265,0,0,0,0,0,0,0,0,0,-1,1189,1289,0,0
-28,-265,0,0,0,0,0,0,0,0,0,-1,1196,1289,0,0
-21,-265,0,0,0,0,0,0,0,0,0,-1,1203,1289,0,0
-14,-265,0,0,0,0,0,0,0,0,0,-1,1210,1289,0,0
-7,-265,0,0,0,0,0,0,0,0,0,-1,1217,1289,0,0
0,-265,0,0,0,0,0,0,0,0,0,-1,1224,1289,0,0
7,-265,0,0,0,0,0,0,0,0,0,-1,1231,1289,0,0
14,-265,0,0,0,0,0,0,0,0,0,-1,1238,1289,0,0
21,-265,0,0,0,0,0,0,0,0,0,-1,1245,1289,0,0
28,-265,0,0,0,0,0,0,0,0,0,-1,1252,1289,0,0
35,-265,0,0,0,0,0,0,0,0,0,-1,1259,1289,0,0
42,-265,0,0,0,0,0,0,0,0,0,-1,1266,1289,0,0
49,-265,0,0,0,0,0,0,0,0,0,-1,1273,1289,0,0
56,-265,0,0,0,0,0,0,0,0,0,-1,1280,1289,0,0
63,-265,0,0,0,0,0,0,0,0,0,-1,1287,1289,0,0
70,-265,0,0,0,0,0,0,0,0,0,-1,1294,1289,0,0
77,-265,0,0,0,0,0,0,0,0,0,-1,1301,1289,0,0
84,-265,0,0,0,0,0,0,0,0,0,-1,1308,1289,0,0
91,-265,0,0,0,0,0,0,0,0,0,-1,1315,1289,0,0
98,-265,0,0,0,0,0,0,0,0,0,-1,1322,1289,0,0
105,-265,0,0,0,0,0,0,0,0,0,-1,1329,1289,0,0
112,-265,0,0,0,0,0,0,0,0,0,-1,1336,1289,0,0
119,-265,0,0,0,0,0,0,0,0,0,-1,1343,1289,0,0
126,-265,0,0,0,0,0,0,0,0,0,-1,1350,1289,0,0
133,-265,0,0,0,0,0,0,0,0,0,-1,1357,1289,0,0
140,-265,0,0,0,0,0,0,0,0,0,-1,1364,1289,0,0
147,-265,0,0,0,0,0,0,0,0,0,-1,1371,1289,0,0
154,-265,0,0,0,0,0,0,0,0,0,-1,1378,1289,0,0
161,-265,0,0,0,0,0,0,0,0,0,-1,1385,1289,0,0
168,-265,0,0,0,0,0,0,0,0,0,-1,1392,1289,0,0
175,-265,0,0,0,0,0,0,0,0,0,-1,1399,1289,0,0
182,-265,0,0,0,0,0,0,0,0,0,-1,1406,1289,0,0
189,-265,0,0,0,0,0,0,0,0,0,-1,1413,1289,0,0
196,-265,0,0,0,0,0,0,0,0,0,-1,1420,1289,0,0
203,-265,0,0,0,0,0,0,0,0,0,-1,1427,1289,0,0
210,-265,0,0,0,0,0,0,0,0,0,-1,1434,1289,0,0
217,-265,0,0,0,0,0,0,0,0,0,-1,1441,1289,0,0
224,-265,0,0,0,0,0,0,0,0,0,-1,1448,1289,0,0
231,-265,0,0,0,0,0,0,0,0,0,-1,1455,1289,0,0
238,-265,0,0,0,0,0,0,0,0,0,-1,1462,1289,0,0
245,-265,0,0,0,0,0,0,0,0,0,-1,1469,1289,0,0
252,-265,0,0,0,0,0,0,0,0,0,-1,1476,1289,0,0
259,-265,0,0,0,0,0,0,0,0,0,-1,1483,1289,0,0
266,-265,0,0,0,0,0,0,0,0,0,-1,1490,1289,0,0
273,-265,0,0,0,0,0,0,0,0,0,-1,1497,1289,0,0
280,-265,0,0,0,0,0,0,0,0,0,-1,1504,1289,0,0
287,-265,0,0,0,0,0,0,0,0,0,-1,1511,1289,0,0
294,-265,0,0,0,0,0,0,0,0,0,-1,1518,1289,0,0
301,-265,0,0,0,0,0,0,0,0,0,-1,1525,1289,0,0
308,-265,0,0,0,0,0,0,0,0,0,-1,1532,1289,0,0
315,-265,0,0,0,0,0,0,0,0,0,-1,1539,1289,0,0
322,-265,0,0,0,0,0,0,0,0,0,-1,1546,1289,0,0
329,-265,0,0,0,0,0,0,0,0,0,-1,1553,1289,0,0
336,-265,0,0,0,0,0,0,0,0,0,-1,1560,1289,0,0
343,-265,0,0,0,0,0,0,0,0,0,-1,1567,1289,0,0
350,-265,0,0,0,0,0,0,0,0,0,-1,1574,1289,0,0
357,-265,0,0,0,0,0,0,0,0,0,-1,1581,1289,0,0
364,-265,0,0,0,0,0,0,0,0,0,-1,1588,1289,0,0
371,-265,0,0,0,0,0,0,0,0,0,-1,1595,1289,0,0
378,-265,0,0,0,0,0,0,0,0,0,-1,1602,1289,0,0
385,-265,0,0,0,0,0,0,0,0,0,-1,1609,1289,0,0
392,-265,0,0,0,0,0,0,0,0,0,-1,1616,1289,0,0
399,-265,0,0,0,0,0,0,0,0,0,-1,1623,1289,0,0
406,-265,0,0,0,0,0,0,0,0,0,-1,1630,1289,0,0
413,-265,0,0,0,0,0,0,0,0,0,-1,1637,1289,0,0
420,-265,0,0,0,0,0,0,0,0,0,-1,1644,1289,0,0
427,-265,0,0,0,0,0,0,0,0,0,-1,1651,1289,0,0
434,-265,0,0,0,0,0,0,0,0,0,-1,1658,1289,0,0
441,-265,0,0,0,0,0,0,0,0,0,-1,1665,1289,0,0
448,-265,0,0,0,0,0,0,0,0,0,-1,1672,1289,0,0
455,-265,0,0,0,0,0,0,0,0,0,-1,1679,1289,0,0
462,-265,0,0,0,0,0,0,0,0,0,-1,1686,1289,0,0
469,-265,0,0,0,0,0,0,0,0,0,-1,1693,1289,0,0
476,-265,0,0,0,0,0,0,0,0,0,-1,1700,1289,0,0
483,-265,0,0,0,0,0,0,0,0,0,-1,1707,1289,0,0
490,-265,0,0,0,0,0,0,0,0,0,-1,1714,1289,0,0
497,-265,0,0,0,0,0,0,0,0,0,-1,1721,1289,0,0
504,-265,0,0,0,0,0,0,0,0,0,-1,1728,1289,0,0
511,-265,0,0,0,0,0,0,0,0,0,-1,1735,1289,0,0
518,-265,0,0,0,0,0,0,0,0,0,-1,1742,1289,0,0
525,-265,0,0,0,0,0,0,0,0,0,-1,1749,1289,0,0
532,-265,0,0,0,0,0,0,0,0,0,-1,1756,1289,0,0
539,-265,0,0,0,0,0,0,0,0,0,-1,1763,1289,0,0
546,-265,0,0,0,0,0,0,0,0,0,-1,1770,1289,0,0
553,-265,0,0,0,0,0,0,0,0,0,-1,1777,1289,0,0
560,-265,0,0,0,0,0,0,0,0,0,-1,1784,1289,0,0
567,-265,0,0,0,0,0,0,0,0,0,-1,1791,1289,0,0
574,-265,0,0,0,0,0,0,0,0,0,-1,1798,1289,0,0
581,-265,0,0,0,0,0,0,0,0,0,-1,1805,1289,0,0
588,-265,0,0,0,0,0,0,0,0,0,-1,1812,1289,0,0
595,-265,0,0,0,0,0,0,0,0,0,-1,1819,1289,0,0
602,-265,46.2314,2.82776,0.0160374,0.000807115,-0.0137661,0.0241542,-0.0073097,-0.532756,0.0190137,0.0272197,1826,1289,46.2315,-2.8278
609,-265,46.2184,2.80115,0.0014994,0.00565125,-0.0110623,0.0148307,-0.0076801,-0.878148,0.0132134,0.0261561,1833,1289,46.2184,-2.80114
616,-265,46.2024,2.77637,-0.0121754,0.00539225,-0.00567948,0.00706845,-0.0138516,-1.28381,0.012288,0.0317581,1840,1289,46.2024,-2.7764
623,-265,46.0033,2.51062,-0.0220692,0.00393289,0.000273191,0.00393576,-0.0220721,1.56029,0.016187,0.0433242,1847,1289,46.0032,-2.51064
630,-265,45.5004,1.8988,-0.0273419,0.0019659,0.0054352,0.00294141,-0.0283174,1.39321,0.0199312,0.0432795,1854,1289,45.5004,-1.89882
637,-265,45.052,3.04736,0,0,0,0,0,0,0,-1,1861,1289,45.052,-3.04734
644,-265,44.7073,3.11414,-0.0238783,-4.31504e-05,0.00833519,0.00258245,-0.0265039,1.26563,0.01859,0.0499125,1868,1289,44.7073,-3.11419
651,-265,43.1907,3.83337,-0.0212142,-0.000826641,0.00852707,0.00226957,-0.0243105,1.2225,0.017014,0.0437959,1875,1289,43.1907,-3.8334
658,-265,41.7163,3.71619,0,0,0,0,0,0,0,-1,1882,1289,41.7163,-3.71624
665,-265,34.7902,1.43164,0,0,0,0,0,0,0,-1,1889,1289,34.7901,-1.43162
672,-265,20.0045,6.62671,0,0,0,0,0,0,0,-1,1896,1289,20.0045,-6.62668
679,-265,33.9501,10.3839,0,0,0,0,0,0,0,-1,1903,1289,33.95,-10.384
686,-265,34.031,9.89209,-0.00890338,-0.0062319,0.00883213,0.00136493,-0.0165002,0.860447,0.0114822,0.0359358,1910,1289,34.031,-9.89211
693,-265,34.0846,9.43115,-0.00547376,-0.00477888,0.00643308,0.00131614,-0.0115688,0.812376,0.00818657,0.0100255,1917,1289,34.0846,-9.43117
700,-265,34.0688,8.98596,-0.00155106,-0.0032583,0.00353975,0.00123654,-0.0060459,0.667081,0.00449977,0.0107121,1924,1289,34.0688,-8.98592
707,-265,34.0621,8.55237,0.000567661,-0.00149965,0.000992079,0.000966718,-0.00189871,0.382439,0.00168327,0.0108839,1931,1289,34.0621,-8.55238
714,-265,34.0448,8.13269,-0.000164118,-0.000435539,0.000988806,0.000698247,-0.0012979,0.717201,0.00116968,0.0119781,1938,1289,34.0448,-8.13265
721,-265,34.0018,7.68555,-0.00118614,-0.000259519,0.00143044,0.000780765,-0.00222643,0.942015,0.00180184,0.0133586,1945,1289,34.0019,-7.68558
728,-265,33.9943,7.27588,-0.00230407,-0.000128986,0.00192142,0.000991326,-0.00342438,1.04292,0.0026753,0.0149906,1952,1289,33.9943,-7.27591
735,-265,34.0237,6.87158,-0.0034374,1.68546e-05,0.00241781,0.00126106,-0.0046816,1.09554,0.00361549,0.0180278,1959,1289,34.0236,-6.87164
742,-265,33.998,6.44092,-0.00449123,0.000214678,0.00289483,0.0015922,-0.00586875,1.12665,0.00453733,0.0216707,1966,1289,33.998,-6.44089
749,-265,33.9559,6.01013,-0.00545509,0.000446653,0.00339678,0.00199531,-0.00700375,1.14303,0.00545724,0.0460711,1973,1289,33.956,-6.01012
756,-265,34.006,5.57983,0,0,0,0,0,0,0,-1,1980,1289,34.006,-5.57988
763,-265,34.2904,5.52454,0,0,0,0,0,0,0,-1,1987,1289,34.2905,-5.52454
770,-265,35.1674,5.07715,0,0,0,0,0,0,0,-1,1994,1289,35.1673,-5.07718
777,-265,32.1664,5.3457,0,0,0,0,0,0,0,-1,2001,1289,32.1664,-5.34568
784,-265,0,0,0,0,0,0,0,0,0,-1,2008,1289,0,0
791,-265,0,0,0,0,0,0,0,0,0,-1,2015,1289,0,0
798,-265,0,0,0,0,0,0,0,0,0,-1,2022,1289,0,0
805,-265,0,0,0,0,0,0,0,0,0,-1,2029,1289,0,0
812,-265,0,0,0,0,0,0,0,0,0,-1,2036,1289,0,0
-700,-272,0,0,0,0,0,0,0,0,0,-1,524,1296,0,0
-693,-272,0,0,0,0,0,0,0,0,0,-1,531,1296,0,0
-686,-272,0,0,0,0,0,0,0,0,0,-1,538,1296,0,0
-679,-272,0,0,0,0,0,0,0,0,0,-1,545,1296,0,0
-672,-272,0,0,0,0,0,0,0,0,0,-1,552,1296,0,0
-665,-272,0,0,0,0,0,0,0,0,0,-1,559,1296,0,0
-658,-272,-18.6953,0.101318,0,0,0,0,0,0,0,-1,566,1296,-18.6953,-0.101268
-651,-272,-19.5643,1.76074,0,0,0,0,0,0,0,-1,573,1296,-19.5643,-1.76073
-644,-272,-19.5433,1.52747,0,0,0,0,0,0,0,-1,580,1296,-19.5433,-1.52742
-637,-272,-19.4523,1.22437,0,0,0,0,0,0,0,-1,587,1296,-19.4523,-1.22431
-630,-272,-19.5844,0.638184,0,0,0,0,0,0,0,-1,594,1296,-19.5844,-0.638227
-623,-272,-19.3821,2.36462,0,0,0,0,0,0,0,-1,601,1296,-19.3821,-2.36459
-616,-272,-19.734,3.22241,0.00286361,0.005823,0.012428,0.0168591,-0.00817244,0.84465,0.0147392,0.0449541,608,1296,-19.734,-3.22247
-609,-272,-20.1309,4,0.00222867,0.00490813,0.00916376,0.0128296,-0.00569277,0.857983,0.0109553,0.0270398,615,1296,-20.1309,-3.99995
-602,-272,-20.1744,4.38513,0.00194009,0.00384112,0.00672558,0.00968302,-0.00390181,0.855598,0.00807648,0.0159595,622,1296,-20.1745,-4.38516
-595,-272,-20.2042,4.86853,0.00183639,0.0027987,0.00473681,0.00707873,-0.00244364,0.836013,0.00571072,0.0130396,629,1296,-20.2042,-4.86857
-588,-272,-20.2106,5.33643,0.00190006,0.0018024,0.00316018,0.00501179,-0.00130933,0.777673,0.00385253,0.0121045,636,1296,-20.2106,-5.33637
-581,-272,-20.2414,5.81726,0.00210672,0.000859916,0.00191083,0.00349327,-0.000526635,0.627719,0.00252278,0.0108129,643,1296,-20.2414,-5.81721
-574,-272,-20.2766,6.3324,0.00244574,-6.46631e-07,0.000959963,0.00277745,-0.000332359,0.332702,0.00197178,0.0157565,650,1296,-20.2766,-6.33238
-567,-272,-20.3038,6.84192,0.00262261,-0.000549255,0.00018686,0.00263358,-0.000560225,0.0586413,0.00196921,0.022437,657,1296,-20.3038,-6.84187
-560,-272,-20.3425,7.33752,0.00240251,-0.000801564,-0.000109006,0.00240621,-0.000805268,-0.0339686,0.00192942,0.0215321,664,1296,-20.3425,-7.33747
-553,-272,-20.2659,7.79614,0.00173203,-0.000766002,0.000105616,0.00173649,-0.00077046,0.0421795,0.00148277,0.0226644,671,1296,-20.2659,-7.79619
-546,-272,-20.2004,8.23254,0,0,0,0,0,0,0,-1,678,1296,-20.2004,-8.23256
-539,-272,-18.9283,8.57861,0,0,0,0,0,0,0,-1,685,1296,-18.9283,-8.57865
-532,-272,-10.5572,4.53943,0,0,0,0,0,0,0,-1,692,1296,-10.5572,-4.53943
-525,-272,-11.9599,0.0393066,0,0,0,0,0,0,0,-1,699,1296,-11.9599,-0.0393577
-518,-272,-21.1357,-1.41382,0,0,0,0,0,0,0,-1,706,1296,-21.1357,1.41379
-511,-272,-23.2565,0.226318,0,0,0,0,0,0,0,-1,713,1296,-23.2565,-0.22626
-504,-272,-19.7397,0.114746,0,0,0,0,0,0,0,-1,720,1296,-19.7397,-0.114701
-497,-272,-19.2225,1.71301,0,0,0,0,0,0,0,-1,727,1296,-19.2225,-1.71302
-490,-272,-20.1948,2.4032,0,0,0,0,0,0,0,-1,734,1296,-20.1948,-2.40322
-483,-272,-15.3736,0.792603,0,0,0,0,0,0,0,-1,741,1296,-15.3736,-0.79263
-476,-272,0,0,0,0,0,0,0,0,0,-1,748,1296,0,0
-469,-272,0,0,0,0,0,0,0,0,0,-1,755,1296,0,0
-462,-272,0,0,0,0,0,0,0,0,0,-1,762,1296,0,0
-455,-272,0,0,0,0,0,0,0,0,0,-1,769,1296,0,0
-448,-272,0,0,0,0,0,0,0,0,0,-1,776,1296,0,0
-441,-272,0,0,0,0,0,0,0,0,0,-1,783,1296,0,0
-434,-272,0,0,0,0,0,0,0,0,0,-1,790,1296,0,0
-427,-272,0,0,0,0,0,0,0,0,0,-1,797,1296,0,0
-420,-272,0,0,0,0,0,0,0,0,0,-1,804,1296,0,0
-413,-272,0,0,0,0,0,0,0,0,0,-1,811,1296,0,0
-406,-272,0,0,0,0,0,0,0,0,0,-1,818,1296,0,0
-399,-272,0,0,0,0,0,0,0,0,0,-1,825,1296,0,0
-392,-272,0,0,0,0,0,0,0,0,0,-1,832,1296,0,0
-385,-272,0,0,0,0,0,0,0,0,0,-1,839,1296,0,0
-378,-272,0,0,0,0,0,0,0,0,0,-1,846,1296,0,0
-371,-272,0,0,0,0,0,0,0,0,0,-1,853,1296,0,0
-364,-272,0,0,0,0,0,0,0,0,0,-1,860,1296,0,0
-357,-272,0,0,0,0,0,0,0,0,0,-1,867,1296,0,0
-350,-272,0,0,0,0,0,0,0,0,0,-1,874,1296,0,0
-343,-272,0,0,0,0,0,0,0,0,0,-1,881,1296,0,0
-336,-272,0,0,0,0,0,0,0,0,0,-1,888,1296,0,0
-329,-272,0,0,0,0,0,0,0,0,0,-1,895,1296,0,0
-322,-272,0,0,0,0,0,0,0,0,0,-1,902,1296,0,0
-315,-272,0,0,0,0,0,0,0,0,0,-1,909,1296,0,0
-308,-272,0,0,0,0,0,0,0,0,0,-1,916,1296,0,0
-301,-272,0,0,0,0,0,0,0,0,0,-1,923,1296,0,0
-294,-272,0,0,0,0,0,0,0,0,0,-1,930,1296,0,0
-287,-272,0,0,0,0,0,0,0,0,0,-1,937,1296,0,0
-280,-272,0,0,0,0,0,0,0,0,0,-1,944,1296,0,0
-273,-272,0,0,0,0,0,0,0,0,0,-1,951,1296,0,0
-266,-272,0,0,0,0,0,0,0,0,0,-1,958,1296,0,0
-259,-272,0,0,0,0,0,0,0,0,0,-1,965,1296,0,0
-252,-272,0,0,0,0,0,0,0,0,0,-1,972,1296,0,0
-245,-272,0,0,0,0,0,0,0,0,0,-1,979,1296,0,0
-238,-272,0,0,0,0,0,0,0,0,0,-1,986,1296,0,0
-231,-272,0,0,0,0,0,0,0,0,0,-1,993,1296,0,0
-224,-272,0,0,0,0,0,0,0,0,0,-1,1000,1296,0,0
-217,-272,0,0,0,0,0,0,0,0,0,-1,1007,1296,0,0
-210,-272,0,0,0,0,0,0,0,0,0,-1,1014,1296,0,0
-203,-272,0,0,0,0,0,0,0,0,0,-1,1021,1296,0,0
-196,-272,0,0,0,0,0,0,0,0,0,-1,1028,1296,0,0
-189,-272,0,0,0,0,0,0,0,0,0,-1,1035,1296,0,0
-182,-272,0,0,0,0,0,0,0,0,0,-1,1042,1296,0,0
-175,-272,0,0,0,0,0,0,0,0,0,-1,1049,1296,0,0
-168,-272,0,0,0,0,0,0,0,0,0,-1,1056,1296,0,0
-161,-272,0,0,0,0,0,0,0,0,0,-1,1063,1296,0,0
-154,-272,0,0,0,0,0,0,0,0,0,-1,1070,1296,0,0
-147,-272,0,0,0,0,0,0,0,0,0,-1,1077,1296,0,0
-140,-272,0,0,0,0,0,0,0,0,0,-1,1084,1296,0,0
-133,-272,0,0,0,0,0,0,0,0,0,-1,1091,1296,0,0
-126,-272,0,0,0,0,0,0,0,0,0,-1,1098,1296,0,0
-119,-272,0,0,0,0,0,0,0,0,0,-1,1105,1296,0,0
-112,-272,0,0,0,0,0,0,0,0,0,-1,1112,1296,0,0
-105,-272,0,0,0,0,0,0,0,0,0,-1,1119,1296,0,0
-98,-272,0,0,0,0,0,0,0,0,0,-1,1126,1296,0,0
-91,-272,0,0,0,0,0,0,0,0,0,-1,1133,1296,0,0
-84,-272,0,0,0,0,0,0,0,0,0,-1,1140,1296,0,0
-77,-272,0,0,0,0,0,0,0,0,0,-1,1147,1296,0,0
-70,-272,0,0,0,0,0,0,0,0,0,-1,1154,1296,0,0
-63,-272,0,0,0,0,0,0,0,0,0,-1,1161,1296,0,0
-56,-272,0,0,0,0,0,0,0,0,0,-1,1168,1296,0,0
-49,-272,0,0,0,0,0,0,0,0,0,-1,1175,1296,0,0
-42,-272,0,0,0,0,0,0,0,0,0,-1,1182,1296,0,0
-35,-272,0,0,0,0,0,0,0,0,0,-1,1189,1296,0,0
-28,-272,0,0,0,0,0,0,0,0,0,-1,1196,1296,0,0
-21,-272,0,0,0,0,0,0,0,0,0,-1,1203,1296,0,0
-14,-272,0,0,0,0,0,0,0,0,0,-1,1210,1296,0,0
-7,-272,0,0,0,0,0,0,0,0,0,-1,1217,1296,0,0
0,-272,0,0,0,0,0,0,0,0,0,-1,1224,1296,0,0
7,-272,0,0,0,0,0,0,0,0,0,-1,1231,1296,0,0
14,-272,0,0,0,0,0,0,0,0,0,-1,1238,1296,0,0
21,-272,0,0,0,0,0,0,0,0,0,-1,1245,1296,0,0
28,-272,0,0,0,0,0,0,0,0,0,-1,1252,1296,0,0
35,-272,0,0,0,0,0,0,0,0,0,-1,1259,1296,0,0
42,-272,0,0,0,0,0,0,0,0,0,-1,1266,1296,0,0
49,-272,0,0,0,0,0,0,0,0,0,-1,1273,1296,0,0
56,-272,0,0,0,0,0,0,0,0,0,-1,1280,1296,0,0
63,-272,0,0,0,0,0,0,0,0,0,-1,1287,1296,0,0
70,-272,0,0,0,0,0,0,0,0,0,-1,1294,1296,0,0
77,-272,0,0,0,0,0,0,0,0,0,-1,1301,1296,0,0
84,-272,0,0,0,0,0,0,0,0,0,-1,1308,1296,0,0
91,-272,0,0,0,0,0,0,0,0,0,-1,1315,1296,0,0
98,-272,0,0,0,0,0,0,0,0,0,-1,1322,1296,0,0
105,-272,0,0,0,0,0,0,0,0,0,-1,1329,1296,0,0
112,-272,0,0,0,0,0,0,0,0,0,-1,1336,1296,0,0
119,-272,0,0,0,0,0,0,0,0,0,-1,1343,1296,0,0
126,-272,0,0,0,0,0,0,0,0,0,-1,1350,1296,0,0
133,-272,0,0,0,0,0,0,0,0,0,-1,1357,1296,0,0
140,-272,0,0,0,0,0,0,0,0,0,-1,1364,1296,0,0
147,-272,0,0,0,0,0,0,0,0,0,-1,1371,1296,0,0
154,-272,0,0,0,0,0,0,0,0,0,-1,1378,1296,0,0
161,-272,0,0,0,0,0,0,0,0,0,-1,1385,1296,0,0
168,-272,0,0,0,0,0,0,0,0,0,-1,1392,1296,0,0
175,-272,0,0,0,0,0,0,0,0,0,-1,1399,1296,0,0
182,-272,0,0,0,0,0,0,0,0,0,-1,1406,1296,0,0
189,-272,0,0,0,0,0,0,0,0,0,-1,1413,1296,0,0
196,-272,0,0,0,0,0,0,0,0,0,-1,1420,1296,0,0
203,-272,0,0,0,0,0,0,0,0,0,-1,1427,1296,0,0
210,-272,0,0,0,0,0,0,0,0,0,-1,1434,1296,0,0
217,-272,0,0,0,0,0,0,0,0,0,-1,1441,1296,0,0
224,-272,0,0,0,0,0,0,0,0,0,-1,1448,1296,0,0
231,-272,0,0,0,0,0,0,0,0,0,-1,1455,1296,0,0
238,-272,0,0,0,0,0,0,0,0,0,-1,1462,1296,0,0
245,-272,0,0,0,0,0,0,0,0,0,-1,1469,1296,0,0
252,-272,0,0,0,0,0,0,0,0,0,-1,1476,1296,0,0
259,-272,0,0,0,0,0,0,0,0,0,-1,1483,1296,0,0
266,-272,0,0,0,0,0,0,0,0,0,-1,1490,1296,0,0
273,-272,0,0,0,0,0,0,0,0,0,-1,1497,1296,0,0
280,-272,0,0,0,0,0,0,0,0,0,-1,1504,1296,0,0
287,-272,0,0,0,0,0,0,0,0,0,-1,1511,1296,0,0
294,-272,0,0,0,0,0,0,0,0,0,-1,1518,1296,0,0
301,-272,0,0,0,0,0,0,0,0,0,-1,1525,1296,0,0
308,-272,0,0,0,0,0,0,0,0,0,-1,1532,1296,0,0
315,-272,0,0,0,0,0,0,0,0,0,-1,1539,1296,0,0
322,-272,0,0,0,0,0,0,0,0,0,-1,1546,1296,0,0
329,-272,0,0,0,0,0,0,0,0,0,-1,1553,1296,0,0
336,-272,0,0,0,0,0,0,0,0,0,-1,1560,1296,0,0
343,-272,0,0,0,0,0,0,0,0,0,-1,1567,1296,0,0
350,-272,0,0,0,0,0,0,0,0,0,-1,1574,1296,0,0
357,-272,0,0,0,0,0,0,0,0,0,-1,1581,1296,0,0
364,-272,0,0,0,0,0,0,0,0,0,-1,1588,1296,0,0
371,-272,0,0,0,0,0,0,0,0,0,-1,1595,1296,0,0
378,-272,0,0,0,0,0,0,0,0,0,-1,1602,1296,0,0
385,-272,0,0,0,0,0,0,0,0,0,-1,1609,1296,0,0
392,-272,0,0,0,0,0,0,0,0,0,-1,1616,1296,0,0
399,-272,0,0,0,0,0,0,0,0,0,-1,1623,1296,0,0
406,-272,0,0,0,0,0,0,0,0,0,-1,1630,1296,0,0
413,-272,0,0,0,0,0,0,0,0,0,-1,1637,1296,0,0
420,-272,0,0,0,0,0,0,0,0,0,-1,1644,1296,0,0
427,-272,0,0,0,0,0,0,0,0,0,-1,1651,1296,0,0
434,-272,0,0,0,0,0,0,0,0,0,-1,1658,1296,0,0
441,-272,0,0,0,0,0,0,0,0,0,-1,1665,1296,0,0
448,-272,0,0,0,0,0,0,0,0,0,-1,1672,1296,0,0
455,-272,0,0,0,0,0,0,0,0,0,-1,1679,1296,0,0
462,-272,0,0,0,0,0,0,0,0,0,-1,1686,1296,0,0
469,-272,0,0,0,0,0,0,0,0,0,-1,1693,1296,0,0
476,-272,0,0,0,0,0,0,0,0,0,-1,1700,1296,0,0
483,-272,0,0,0,0,0,0,0,0,0,-1,1707,1296,0,0
490,-272,0,0,0,0,0,0,0,0,0,-1,1714,1296,0,0
497,-272,0,0,0,0,0,0,0,0,0,-1,1721,1296,0,0
504,-272,0,0,0,0,0,0,0,0,0,-1,1728,1296,0,0
511,-272,0,0,0,0,0,0,0,0,0,-1,1735,1296,0,0
518,-272,0,0,0,0,0,0,0,0,0,-1,1742,1296,0,0
525,-272,0,0,0,0,0,0,0,0,0,-1,1749,1296,0,0
532,-272,0,0,0,0,0,0,0,0,0,-1,1756,1296,0,0
539,-272,0,0,0,0,0,0,0,0,0,-1,1763,1296,0,0
546,-272,0,0,0,0,0,0,0,0,0,-1,1770,1296,0,0
553,-272,0,0,0,0,0,0,0,0,0,-1,1777,1296,0,0
560,-272,0,0,0,0,0,0,0,0,0,-1,1784,1296,0,0
567,-272,0,0,0,0,0,0,0,0,0,-1,1791,1296,0,0
574,-272,0,0,0,0,0,0,0,0,0,-1,1798,1296,0,0
581,-272,0,0,0,0,0,0,0,0,0,-1,1805,1296,0,0
588,-272,0,0,0,0,0,0,0,0,0,-1,1812,1296,0,0
595,-272,0,0,0,0,0,0,0,0,0,-1,1819,1296,0,0
602,-272,46.1772,2.76953,0.0161163,-0.00497946,-0.0120227,0.0215623,-0.0104254,-0.425324,0.0188375,0.0311766,1826,1296,46.1773,-2.76952
609,-272,46.1187,2.72131,0.00102589,-0.000327565,-0.0096488,0.0100217,-0.00932334,-0.750388,0.0111713,0.0368403,1833,1296,46.1186,-2.72127
616,-272,46.1492,2.68677,-0.0127746,-0.000101394,-0.00457627,0.00137832,-0.0142543,-1.25806,0.00999406,0.0426724,1840,1296,46.1491,-2.68676
623,-272,45.9255,2.32922,-0.0208131,-5.83e-05,0.000126419,-5.75306e-05,-0.0208139,1.56471,0.0138568,0.0453114,1847,1296,45.9255,-2.32923
630,-272,45.5406,1.93726,-0.024562,-0.000116527,0.00387438,0.000482831,-0.0251613,1.41732,0.0169375,0.0470074,1854,1296,45.5407,-1.93725
637,-272,44.9983,1.91931,0,0,0,0,0,0,0,-1,1861,1296,44.9982,-1.91929
644,-272,44.7203,2.98547,0,0,0,0,0,0,0,-1,1868,1296,44.7203,-2.98543
651,-272,41.9225,4.27161,0,0,0,0,0,0,0,-1,1875,1296,41.9225,-4.27157
658,-272,35.1527,2.10571,0,0,0,0,0,0,0,-1,1882,1296,35.1527,-2.10573
665,-272,22.0238,4.14417,0,0,0,0,0,0,0,-1,1889,1296,22.0238,-4.14421
672,-272,22.661,7.21765,0,0,0,0,0,0,0,-1,1896,1296,22.661,-7.21761
679,-272,33.5603,10.3761,0,0,0,0,0,0,0,-1,1903,1296,33.5603,-10.3761
686,-272,33.5878,9.91248,-0.00868634,-0.00581799,0.00850898,0.00137683,-0.0158812,0.868888,0.011075,0.0227215,1910,1296,33.5877,-9.91251
693,-272,33.6365,9.45825,-0.00506401,-0.0042916,0.00592135,0.00125613,-0.0106117,0.817963,0.00752821,0.011473,1917,1296,33.6364,-9.4583
700,-272,33.6288,9.00793,-0.00133656,-0.00279601,0.00314767,0.00116486,-0.00529743,0.671495,0.00397718,0.0113962,1924,1296,33.6287,-9.00791
707,-272,33.6199,8.55505,0.00037897,-0.00123224,0.000987606,0.00084787,-0.00170114,0.443273,0.00149891,0.0111695,1931,1296,33.6199,-8.55508
714,-272,33.6052,8.11621,-0.000471989,-0.000452675,0.001112,0.000649707,-0.00157437,0.78974,0.00132055,0.0127,1938,1296,33.6052,-8.11615
721,-272,33.5629,7.70703,-0.00155974,-0.000302077,0.00154908,0.000740934,-0.00260276,0.978207,0.00202778,0.0161168,1945,1296,33.5628,-7.70703
728,-272,33.5757,7.24805,-0.00276481,-0.000219748,0.00202627,0.000900442,-0.003885,1.06578,0.00293653,0.0180615,1952,1296,33.5757,-7.24802
735,-272,33.5758,6.87366,-0.00404444,-0.00013395,0.00249794,0.00108298,-0.00526137,1.11746,0.00391878,0.0165031,1959,1296,33.5758,-6.87361
742,-272,33.4537,6.45972,-0.00529493,-1.19733e-05,0.00293766,0.00129715,-0.00660405,1.15158,0.00489274,0.0277181,1966,1296,33.4537,-6.45968
749,-272,33.3906,5.98523,0,0,0,0,0,0,0,-1,1973,1296,33.3906,-5.98523
756,-272,32.9099,5.30151,0,0,0,0,0,0,0,-1,1980,1296,32.9099,-5.30156
763,-272,34.3995,5.88416,0,0,0,0,0,0,0,-1,1987,1296,34.3996,-5.88419
770,-272,25.9485,3.67749,0,0,0,0,0,0,0,-1,1994,1296,25.9485,-3.67744
777,-272,32.3619,6.13257,0,0,0,0,0,0,0,-1,2001,1296,32.362,-6.1326
784,-272,0,0,0,0,0,0,0,0,0,-1,2008,1296,0,0
791,-272,0,0,0,0,0,0,0,0,0,-1,2015,1296,0,0
798,-272,0,0,0,0,0,0,0,0,0,-1,2022,1296,0,0
805,-272,0,0,0,0,0,0,0,0,0,-1,2029,1296,0,0
812,-272,0,0,0,0,0,0,0,0,0,-1,2036,1296,0,0
-700,-279,0,0,0,0,0,0,0,0,0,-1,524,1303,0,0
-693,-279,0,0,0,0,0,0,0,0,0,-1,531,1303,0,0
-686,-279,0,0,0,0,0,0,0,0,0,-1,538,1303,0,0
-679,-279,0,0,0,0,0,0,0,0,0,-1,545,1303,0,0
-672,-279,0,0,0,0,0,0,0,0,0,-1,552,1303,0,0
-665,-279,0,0,0,0,0,0,0,0,0,-1,559,1303,0,0
-658,-279,-18.0391,1.31946,0,0,0,0,0,0,0,-1,566,1303,-18.0391,-1.31942
-651,-279,-18.2878,1.5625,0,0,0,0,0,0,0,-1,573,1303,-18.2879,-1.56247
-644,-279,-19.7198,0.645874,0,0,0,0,0,0,0,-1,580,1303,-19.7198,-0.645909
-637,-279,-19.5298,0.346313,0,0,0,0,0,0,0,-1,587,1303,-19.5298,-0.346318
-630,-279,-19.8475,-0.60144,0,0,0,0,0,0,0,-1,594,1303,-19.8475,0.60148
-623,-279,-20.1218,2.88977,0,0,0,0,0,0,0,-1,601,1303,-20.1218,-2.88977
-616,-279,-20.156,3.28125,0.00375057,0.00710159,0.0149861,0.0205056,-0.00965344,0.841069,0.0177841,0.0499184,608,1303,-20.156,-3.28126
-609,-279,-19.9739,3.75134,0.00289669,0.00591418,0.0108713,0.015381,-0.0065701,0.854349,0.0130093,0.046513,615,1303,-19.9739,-3.75134
-602,-279,-19.6807,4.38745,0.00243423,0.00463893,0.00792283,0.0115357,-0.00446257,0.854522,0.00953279,0.0154203,622,1303,-19.6807,-4.38749
-595,-279,-19.7084,4.87012,0.00215903,0.00343435,0.00556774,0.00840083,-0.00280745,0.842414,0.00673434,0.0112084,629,1303,-19.7084,-4.87008
-588,-279,-19.7025,5.34546,0.00204171,0.00230199,0.00372959,0.0059037,-0.00156001,0.802838,0.00454592,0.0122863,636,1303,-19.7025,-5.34552
-581,-279,-19.7455,5.82446,0.00207189,0.00125092,0.00229775,0.00399553,-0.000672722,0.697008,0.00291393,0.0130883,643,1303,-19.7455,-5.82449
-574,-279,-19.7883,6.3252,0.00222961,0.000298876,0.00121404,0.00281532,-0.000286833,0.449505,0.00197943,0.0121719,650,1303,-19.7882,-6.32518
-567,-279,-19.7836,6.79822,0.0023455,-0.000417344,0.000354249,0.0023902,-0.000462043,0.125514,0.00176772,0.0163171,657,1303,-19.7836,-6.79827
-560,-279,-19.7883,7.31775,0.00225074,-0.000994529,-7.86738e-05,0.00225264,-0.000996435,-0.0242237,0.00192202,0.0167025,664,1303,-19.7882,-7.3178
-553,-279,-19.7925,7.82385,0.00185432,-0.00132311,1.53981e-05,0.00185439,-0.00132318,0.00484594,0.0018431,0.0133282,671,1303,-19.7925,-7.82382
-546,-279,-19.7838,8.26624,0.00090118,-0.00156664,0.000302994,0.000937837,-0.0016033,0.120396,0.0014838,0.0240374,678,1303,-19.7838,-8.26619
-539,-279,-19.9846,8.77063,0,0,0,0,0,0,0,-1,685,1303,-19.9846,-8.77061
-532,-279,-14.9813,7.89917,0,0,0,0,0,0,0,-1,692,1303,-14.9813,-7.89918
-525,-279,-11.7063,-0.539185,0,0,0,0,0,0,0,-1,699,1303,-11.7063,0.539166
-518,-279,-16.8138,1.11963,0,0,0,0,0,0,0,-1,706,1303,-16.8138,-1.11968
-511,-279,-20.1063,-1.37915,0,0,0,0,0,0,0,-1,713,1303,-20.1062,1.37918
-504,-279,-18.3766,1.04578,0,0,0,0,0,0,0,-1,720,1303,-18.3767,-1.04577
-497,-279,-19.0046,2.08911,0,0,0,0,0,0,0,-1,727,1303,-19.0046,-2.08905
-490,-279,-20.0176,2.55188,0,0,0,0,0,0,0,-1,734,1303,-20.0176,-2.55183
-483,-279,-20.8064,2.99792,0,0,0,0,0,0,0,-1,741,1303,-20.8064,-2.99797
-476,-279,0,0,0,0,0,0,0,0,0,-1,748,1303,0,0
-469,-279,0,0,0,0,0,0,0,0,0,-1,755,1303,0,0
-462,-279,0,0,0,0,0,0,0,0,0,-1,762,1303,0,0
-455,-279,0,0,0,0,0,0,0,0,0,-1,769,1303,0,0
-448,-279,0,0,0,0,0,0,0,0,0,-1,776,1303,0,0
-441,-279,0,0,0,0,0,0,0,0,0,-1,783,1303,0,0
-434,-279,0,0,0,0,0,0,0,0,0,-1,790,1303,0,0
-427,-279,0,0,0,0,0,0,0,0,0,-1,797,1303,0,0
-420,-279,0,0,0,0,0,0,0,0,0,-1,804,1303,0,0
-413,-279,0,0,0,0,0,0,0,0,0,-1,811,1303,0,0
-406,-279,0,0,0,0,0,0,0,0,0,-1,818,1303,0,0
-399,-279,0,0,0,0,0,0,0,0,0,-1,825,1303,0,0
-392,-279,0,0,0,0,0,0,0,0,0,-1,832,1303,0,0
-385,-279,0,0,0,0,0,0,0,0,0,-1,839,1303,0,0
-378,-279,0,0,0,0,0,0,0,0,0,-1,846,1303,0,0
-371,-279,0,0,0,0,0,0,0,0,0,-1,853,1303,0,0
-364,-279,0,0,0,0,0,0,0,0,0,-1,860,1303,0,0
-357,-279,0,0,0,0,0,0,0,0,0,-1,867,1303,0,0
-350,-279,0,0,0,0,0,0,0,0,0,-1,874,1303,0,0
-343,-279,0,0,0,0,0,0,0,0,0,-1,881,1303,0,0
-336,-279,0,0,0,0,0,0,0,0,0,-1,888,1303,0,0
-329,-279,0,0,0,0,0,0,0,0,0,-1,895,1303,0,0
-322,-279,0,0,0,0,0,0,0,0,0,-1,902,1303,0,0
-315,-279,0,0,0,0,0,0,0,0,0,-1,909,1303,0,0
-308,-279,0,0,0,0,0,0,0,0,0,-1,916,1303,0,0
-301,-279,0,0,0,0,0,0,0,0,0,-1,923,1303,0,0
-294,-279,0,0,0,0,0,0,0,0,0,-1,930,1303,0,0
-287,-279,0,0,0,0,0,0,0,0,0,-1,937,1303,0,0
-280,-279,0,0,0,0,0,0,0,0,0,-1,944,1303,0,0
-273,-279,0,0,0,0,0,0,0,0,0,-1,951,1303,0,0
-266,-279,0,0,0,0,0,0,0,0,0,-1,958,1303,0,0
-259,-279,0,0,0,0,0,0,0,0,0,-1,965,1303,0,0
-252,-279,0,0,0,0,0,0,0,0,0,-1,972,1303,0,0
-245,-279,0,0,0,0,0,0,0,0,0,-1,979,1303,0,0
-238,-279,0,0,0,0,0,0,0,0,0,-1,986,1303,0,0
-231,-279,0,0,0,0,0,0,0,0,0,-1,993,1303,0,0
-224,-279,0,0,0,0,0,0,0,0,0,-1,1000,1303,0,0
-217,-279,0,0,0,0,0,0,0,0,0,-1,1007,1303,0,0
-210,-279,0,0,0,0,0,0,0,0,0,-1,1014,1303,0,0
-203,-279,0,0,0,0,0,0,0,0,0,-1,1021,1303,0,0
-196,-279,0,0,0,0,0,0,0,0,0,-1,1028,1303,0,0
-189,-279,0,0,0,0,0,0,0,0,0,-1,1035,1303,0,0
-182,-279,0,0,0,0,0,0,0,0,0,-1,1042,1303,0,0
-175,-279,0,0,0,0,0,0,0,0,0,-1,1049,1303,0,0
-168,-279,0,0,0,0,0,0,0,0,0,-1,1056,1303,0,0
-161,-279,0,0,0,0,0,0,0,0,0,-1,1063,1303,0,0
-154,-279,0,0,0,0,0,0,0,0,0,-1,1070,1303,0,0
-147,-279,0,0,0,0,0,0,0,0,0,-1,1077,1303,0,0
-140,-279,0,0,0,0,0,0,0,0,0,-1,1084,1303,0,0
-133,-279,0,0,0,0,0,0,0,0,0,-1,1091,1303,0,0
-126,-279,0,0,0,0,0,0,0,0,0,-1,1098,1303,0,0
-119,-279,0,0,0,0,0,0,0,0,0,-1,1105,1303,0,0
-112,-279,0,0,0,0,0,0,0,0,0,-1,1112,1303,0,0
-105,-279,0,0,0,0,0,0,0,0,0,-1,1119,1303,0,0
-98,-279,0,0,0,0,0,0,0,0,0,-1,1126,1303,0,0
-91,-279,0,0,0,0,0,0,0,0,0,-1,1133,1303,0,0
-84,-279,0,0,0,0,0,0,0,0,0,-1,1140,1303,0,0
-77,-279,0,0,0,0,0,0,0,0,0,-1,1147,1303,0,0
-70,-279,0,0,0,0,0,0,0,0,0,-1,1154,1303,0,0
-63,-279,0,0,0,0,0,0,0,0,0,-1,1161,1303,0,0
-56,-279,0,0,0,0,0,0,0,0,0,-1,1168,1303,0,0
-49,-279,0,0,0,0,0,0,0,0,0,-1,1175,1303,0,0
-42,-279,0,0,0,0,0,0,0,0,0,-1,1182,1303,0,0
-35,-279,0,0,0,0,0,0,0,0,0,-1,1189,1303,0,0
-28,-279,0,0,0,0,0,0,0,0,0,-1,1196,1303,0,0
-21,-279,0,0,0,0,0,0,0,0,0,-1,1203,1303,0,0
-14,-279,0,0,0,0,0,0,0,0,0,-1,1210,1303,0,0
-7,-279,0,0,0,0,0,0,0,0,0,-1,1217,1303,0,0
0,-279,0,0,0,0,0,0,0,0,0,-1,1224,1303,0,0
7,-279,0,0,0,0,0,0,0,0,0,-1,1231,1303,0,0
14,-279,0,0,0,0,0,0,0,0,0,-1,1238,1303,0,0
21,-279,0,0,0,0,0,0,0,0,0,-1,1245,1303,0,0
28,-279,0,0,0,0,0,0,0,0,0,-1,1252,1303,0,0
35,-279,0,0,0,0,0,0,0,0,0,-1,1259,1303,0,0
42,-279,0,0,0,0,0,0,0,0,0,-1,1266,1303,0,0
49,-279,0,0,0,0,0,0,0,0,0,-1,1273,1303,0,0
56,-279,0,0,0,0,0,0,0,0,0,-1,1280,1303,0,0
63,-279,0,0,0,0,0,0,0,0,0,-1,1287,1303,0,0
70,-279,0,0,0,0,0,0,0,0,0,-1,1294,1303,0,0
77,-279,0,0,0,0,0,0,0,0,0,-1,1301,1303,0,0
84,-279,0,0,0,0,0,0,0,0,0,-1,1308,1303,0,0
91,-279,0,0,0,0,0,0,0,0,0,-1,1315,1303,0,0
98,-279,0,0,0,0,0,0,0,0,0,-1,1322,1303,0,0
105,-279,0,0,0,0,0,0,0,0,0,-1,1329,1303,0,0
112,-279,0,0,0,0,0,0,0,0,0,-1,1336,1303,0,0
119,-279,0,0,0,0,0,0,0,0,0,-1,1343,1303,0,0
126,-279,0,0,0,0,0,0,0,0,0,-1,1350,1303,0,0
133,-279,0,0,0,0,0,0,0,0,0,-1,1357,1303,0,0
140,-279,0,0,0,0,0,0,0,0,0,-1,1364,1303,0,0
147,-279,0,0,0,0,0,0,0,0,0,-1,1371,1303,0,0
154,-279,0,0,0,0,0,0,0,0,0,-1,1378,1303,0,0
161,-279,0,0,0,0,0,0,0,0,0,-1,1385,1303,0,0
168,-279,0,0,0,0,0,0,0,0,0,-1,1392,1303,0,0
175,-279,0,0,0,0,0,0,0,0,0,-1,1399,1303,0,0
182,-279,0,0,0,0,0,0,0,0,0,-1,1406,1303,0,0
189,-279,0,0,0,0,0,0,0,0,0,-1,1413,1303,0,0
196,-279,0,0,0,0,0,0,0,0,0,-1,1420,1303,0,0
203,-279,0,0,0,0,0,0,0,0,0,-1,1427,1303,0,0
210,-279,0,0,0,0,0,0,0,0,0,-1,1434,1303,0,0
217,-279,0,0,0,0,0,0,0,0,0,-1,1441,1303,0,0
224,-279,0,0,0,0,0,0,0,0,0,-1,1448,1303,0,0
231,-279,0,0,0,0,0,0,0,0,0,-1,1455,1303,0,0
238,-279,0,0,0,0,0,0,0,0,0,-1,1462,1303,0,0
245,-279,0,0,0,0,0,0,0,0,0,-1,1469,1303,0,0
252,-279,0,0,0,0,0,0,0,0,0,-1,1476,1303,0,0
259,-279,0,0,0,0,0,0,0,0,0,-1,1483,1303,0,0
266,-279,0,0,0,0,0,0,0,0,0,-1,1490,1303,0,0
273,-279,0,0,0,0,0,0,0,0,0,-1,1497,1303,0,0
280,-279,0,0,0,0,0,0,0,0,0,-1,1504,1303,0,0
287,-279,0,0,0,0,0,0,0,0,0,-1,1511,1303,0,0
294,-279,0,0,0,0,0,0,0,0,0,-1,1518,1303,0,0
301,-279,0,0,0,0,0,0,0,0,0,-1,1525,1303,0,0
308,-279,0,0,0,0,0,0,0,0,0,-1,1532,1303,0,0
315,-279,0,0,0,0,0,0,0,0,0,-1,1539,1303,0,0
322,-279,0,0,0,0,0,0,0,0,0,-1,1546,1303,0,0
329,-279,0,0,0,0,0,0,0,0,0,-1,1553,1303,0,0
336,-279,0,0,0,0,0,0,0,0,0,-1,1560,1303,0,0
343,-279,0,0,0,0,0,0,0,0,0,-1,1567,1303,0,0
350,-279,0,0,0,0,0,0,0,0,0,-1,1574,1303,0,0
357,-279,0,0,0,0,0,0,0,0,0,-1,1581,1303,0,0
364,-279,0,0,0,0,0,0,0,0,0,-1,1588,1303,0,0
371,-279,0,0,0,0,0,0,0,0,0,-1,1595,1303,0,0
378,-279,0,0,0,0,0,0,0,0,0,-1,1602,1303,0,0
385,-279,0,0,0,0,0,0,0,0,0,-1,1609,1303,0,0
392,-279,0,0,0,0,0,0,0,0,0,-1,1616,1303,0,0
399,-279,0,0,0,0,0,0,0,0,0,-1,1623,1303,0,0
406,-279,0,0,0,0,0,0,0,0,0,-1,1630,1303,0,0
413,-279,0,0,0,0,0,0,0,0,0,-1,1637,1303,0,0
420,-279,0,0,0,0,0,0,0,0,0,-1,1644,1303,0,0
427,-279,0,0,0,0,0,0,0,0,0,-1,1651,1303,0,0
434,-279,0,0,0,0,0,0,0,0,0,-1,1658,1303,0,0
441,-279,0,0,0,0,0,0,0,0,0,-1,1665,1303,0,0
448,-279,0,0,0,0,0,0,0,0,0,-1,1672,1303,0,0
455,-279,0,0,0,0,0,0,0,0,0,-1,1679,1303,0,0
462,-279,0,0,0,0,0,0,0,0,0,-1,1686,1303,0,0
469,-279,0,0,0,0,0,0,0,0,0,-1,1693,1303,0,0
476,-279,0,0,0,0,0,0,0,0,0,-1,1700,1303,0,0
483,-279,0,0,0,0,0,0,0,0,0,-1,1707,1303,0,0
490,-279,0,0,0,0,0,0,0,0,0,-1,1714,1303,0,0
497,-279,0,0,0,0,0,0,0,0,0,-1,1721,1303,0,0
504,-279,0,0,0,0,0,0,0,0,0,-1,1728,1303,0,0
511,-279,0,0,0,0,0,0,0,0,0,-1,1735,1303,0,0
518,-279,0,0,0,0,0,0,0,0,0,-1,1742,1303,0,0
525,-279,0,0,0,0,0,0,0,0,0,-1,1749,1303,0,0
532,-279,0,0,0,0,0,0,0,0,0,-1,1756,1303,0,0
539,-279,0,0,0,0,0,0,0,0,0,-1,1763,1303,0,0
546,-279,0,0,0,0,0,0,0,0,0,-1,1770,1303,0,0
553,-279,0,0,0,0,0,0,0,0,0,-1,1777,1303,0,0
560,-279,0,0,0,0,0,0,0,0,0,-1,1784,1303,0,0
567,-279,0,0,0,0,0,0,0,0,0,-1,1791,1303,0,0
574,-279,0,0,0,0,0,0,0,0,0,-1,1798,1303,0,0
581,-279,0,0,0,0,0,0,0,0,0,-1,1805,1303,0,0
588,-279,0,0,0,0,0,0,0,0,0,-1,1812,1303,0,0
595,-279,0,0,0,0,0,0,0,0,0,-1,1819,1303,0,0
602,-279,46.2288,2.79553,0,0,0,0,0,0,0,-1,1826,1303,46.2288,-2.79553
609,-279,45.9985,2.64514,0,0,0,0,0,0,0,-1,1833,1303,45.9985,-2.6451
616,-279,46.191,2.30945,-0.011535,-0.00714702,-0.00158967,-0.00663165,-0.0120504,-1.25729,0.00696904,0.048133,1840,1303,46.1911,-2.30943
623,-279,45.7856,1.755,-0.0171893,-0.00497512,0.000721907,-0.0049326,-0.0172318,1.51197,0.0102473,0.0473202,1847,1303,45.7856,-1.75495
630,-279,45.6011,2.01392,0,0,0,0,0,0,0,-1,1854,1303,45.6011,-2.01387
637,-279,45.5227,2.42188,0,0,0,0,0,0,0,-1,1861,1303,45.5227,-2.42193
644,-279,33.5021,3.40234,0,0,0,0,0,0,0,-1,1868,1303,33.5021,-3.40237
651,-279,29.8456,2.3562,0,0,0,0,0,0,0,-1,1875,1303,29.8455,-2.35615
658,-279,21.5076,7.65649,0,0,0,0,0,0,0,-1,1882,1303,21.5076,-7.65648
665,-279,18.9794,6.09607,0,0,0,0,0,0,0,-1,1889,1303,18.9793,-6.09601
672,-279,23.5206,8.32507,0,0,0,0,0,0,0,-1,1896,1303,23.5206,-8.32512
679,-279,32.9929,10.3306,0,0,0,0,0,0,0,-1,1903,1303,32.9929,-10.3306
686,-279,33.1082,9.91638,-0.00761792,-0.00512036,0.00752003,0.00125387,-0.0139921,0.867678,0.0097729,0.0265904,1910,1303,33.1081,-9.9164
693,-279,33.1702,9.50305,-0.00409367,-0.00360794,0.00494189,0.00109704,-0.00879866,0.809951,0.00626356,0.0169175,1917,1303,33.1701,-9.50311
700,-279,33.1875,9.05432,-0.000876335,-0.00223954,0.00250467,0.00103781,-0.00415369,0.652548,0.00317217,0.0115768,1924,1303,33.1875,-9.05427
707,-279,33.1716,8.58179,0.00029351,-0.000979577,0.000893384,0.000753927,-0.00143999,0.475863,0.00128714,0.00897124,1931,1303,33.1716,-8.58173
714,-279,33.1525,8.14185,-0.000665587,-0.000503131,0.00117579,0.00059423,-0.00176295,0.819885,0.00141558,0.0104213,1938,1303,33.1524,-8.14183
721,-279,33.1486,7.70105,-0.00183675,-0.000455424,0.00166986,0.000660969,-0.00295315,0.981488,0.0022221,0.0142539,1945,1303,33.1486,-7.70106
728,-279,33.1589,7.24841,-0.00316697,-0.000491131,0.00221184,0.000755956,-0.00441406,1.0574,0.00322437,0.0162538,1952,1303,33.1589,-7.24838
735,-279,33.1339,6.87061,-0.00462397,-0.000553237,0.00274117,0.000825595,-0.0060028,1.10475,0.00430354,0.0160476,1959,1303,33.1339,-6.87064
742,-279,33.0082,6.46826,-0.00610625,-0.000632044,0.00324069,0.000872762,-0.00761105,1.13608,0.00538857,0.0330662,1966,1303,33.0082,-6.46829
749,-279,33.0492,5.9917,0,0,0,0,0,0,0,-1,1973,1303,33.0492,-5.99172
756,-279,23.2091,4.43433,0,0,0,0,0,0,0,-1,1980,1303,23.2092,-4.43432
763,-279,27.1613,3.46265,0,0,0,0,0,0,0,-1,1987,1303,27.1613,-3.4627
770,-279,21.5828,3.54199,0,0,0,0,0,0,0,-1,1994,1303,21.5827,-3.54198
777,-279,32.5369,6.99609,0,0,0,0,0,0,0,-1,2001,1303,32.5369,-6.99608
784,-279,0,0,0,0,0,0,0,0,0,-1,2008,1303,0,0
791,-279,0,0,0,0,0,0,0,0,0,-1,2015,1303,0,0
798,-279,0,0,0,0,0,0,0,0,0,-1,2022,1303,0,0
805,-279,0,0,0,0,0,0,0,0,0,-1,2029,1303,0,0
812,-279,0,0,0,0,0,0,0,0,0,-1,2036,1303,0,0
-700,-286,0,0,0,0,0,0,0,0,0,-1,524,1310,0,0
-693,-286,0,0,0,0,0,0,0,0,0,-1,531,1310,0,0
-686,-286,0,0,0,0,0,0,0,0,0,-1,538,1310,0,0
-679,-286,0,0,0,0,0,0,0,0,0,-1,545,1310,0,0
-672,-286,0,0,0,0,0,0,0,0,0,-1,552,1310,0,0
-665,-286,0,0,0,0,0,0,0,0,0,-1,559,1310,0,0
-658,-286,-18.8017,-0.794922,0,0,0,0,0,0,0,-1,566,1310,-18.8017,0.79496
-651,-286,-18.798,0.594727,0,0,0,0,0,0,0,-1,573,1310,-18.798,-0.594671
-644,-286,-19.1089,1.80017,0,0,0,0,0,0,0,-1,580,1310,-19.1089,-1.80021
-637,-286,-19.4593,2.65125,0,0,0,0,0,0,0,-1,587,1310,-19.4593,-2.65124
-630,-286,-19.6556,3.39246,0,0,0,0,0,0,0,-1,594,1310,-19.6556,-3.39242
-623,-286,-20.1415,-1.72998,0,0,0,0,0,0,0,-1,601,1310,-20.1415,1.72995
-616,-286,-20.1584,2.30396,0,0,0,0,0,0,0,-1,608,1310,-20.1584,-2.30395
-609,-286,-19.352,3.60693,0,0,0,0,0,0,0,-1,615,1310,-19.352,-3.60699
-602,-286,-19.2242,4.29578,0.00304743,0.00537625,0.00904984,0.0133363,-0.0049126,0.84938,0.0109037,0.0200091,622,1310,-19.2242,-4.29578
-595,-286,-19.2399,4.86951,0.00260359,0.00403261,0.00632418,0.00968251,-0.00304631,0.84165,0.00767469,0.0116908,629,1310,-19.2399,-4.86946
-588,-286,-19.2212,5.34888,0.00230442,0.00280595,0.00424942,0.006812,-0.00170163,0.814869,0.00520215,0.0136283,636,1310,-19.2212,-5.3489
-581,-286,-19.2231,5.82715,0.00217031,0.00170672,0.00268629,0.00463478,-0.000757755,0.742361,0.00337095,0.0151966,643,1310,-19.2232,-5.8271
-574,-286,-19.2662,6.32617,0.0021743,0.000724495,0.00151309,0.00312717,-0.000228371,0.562008,0.00216492,0.0137455,650,1310,-19.2661,-6.32622
-567,-286,-19.266,6.81934,0.00223002,-7.84089e-05,0.000614857,0.00238358,-0.000231963,0.244734,0.00167175,0.0140302,657,1310,-19.266,-6.81932
-560,-286,-19.2878,7.3363,0.0022538,-0.000783781,5.27484e-05,0.00225472,-0.000784696,0.0173583,0.00182194,0.0144922,664,1310,-19.2879,-7.33625
-553,-286,-19.2941,7.82959,0.00220649,-0.00129881,-5.21324e-05,0.00220726,-0.00129958,-0.0148681,0.00204716,0.010445,671,1310,-19.2941,-7.82955
-546,-286,-19.2861,8.31848,0.00183815,-0.0016794,7.39912e-05,0.0018397,-0.00168095,0.0210225,0.00203334,0.0181967,678,1310,-19.2861,-8.31854
-539,-286,-19.2638,8.83008,0.00117714,-0.00213379,0.000437168,0.00123389,-0.00219054,0.129091,0.00200265,0.0446687,685,1310,-19.2638,-8.83005
-532,-286,-19.1035,9.35791,0,0,0,0,0,0,0,-1,692,1310,-19.1035,-9.35793
-525,-286,-11.4528,-1.11768,0,0,0,0,0,0,0,-1,699,1310,-11.4528,1.11769
-518,-286,-11.0701,1.37329,0,0,0,0,0,0,0,-1,706,1310,-11.0701,-1.37332
-511,-286,-17.7545,-0.0791016,0,0,0,0,0,0,0,-1,713,1310,-17.7544,0.0791606
-504,-286,-18.0455,1.29602,0,0,0,0,0,0,0,-1,720,1310,-18.0455,-1.29601
-497,-286,-18.3367,2.67114,0,0,0,0,0,0,0,-1,727,1310,-18.3366,-2.67118
-490,-286,-19.5795,2.47266,0,0,0,0,0,0,0,-1,734,1310,-19.5795,-2.4727
-483,-286,-19.7277,2.74744,0,0,0,0,0,0,0,-1,741,1310,-19.7277,-2.74747
-476,-286,-20.0391,3.06177,0,0,0,0,0,0,0,-1,748,1310,-20.0391,-3.06178
-469,-286,0,0,0,0,0,0,0,0,0,-1,755,1310,0,0
-462,-286,0,0,0,0,0,0,0,0,0,-1,762,1310,0,0
-455,-286,0,0,0,0,0,0,0,0,0,-1,769,1310,0,0
-448,-286,0,0,0,0,0,0,0,0,0,-1,776,1310,0,0
-441,-286,0,0,0,0,0,0,0,0,0,-1,783,1310,0,0
-434,-286,0,0,0,0,0,0,0,0,0,-1,790,1310,0,0
-427,-286,0,0,0,0,0,0,0,0,0,-1,797,1310,0,0
-420,-286,0,0,0,0,0,0,0,0,0,-1,804,1310,0,0
-413,-286,0,0,0,0,0,0,0,0,0,-1,811,1310,0,0
-406,-286,0,0,0,0,0,0,0,0,0,-1,818,1310,0,0
-399,-286,0,0,0,0,0,0,0,0,0,-1,825,1310,0,0
-392,-286,0,0,0,0,0,0,0,0,0,-1,832,1310,0,0
-385,-286,0,0,0,0,0,0,0,0,0,-1,839,1310,0,0
-378,-286,0,0,0,0,0,0,0,0,0,-1,846,1310,0,0
-371,-286,0,0,0,0,0,0,0,0,0,-1,853,1310,0,0
-364,-286,0,0,0,0,0,0,0,0,0,-1,860,1310,0,0
-357,-286,0,0,0,0,0,0,0,0,0,-1,867,1310,0,0
-350,-286,0,0,0,0,0,0,0,0,0,-1,874,1310,0,0
-343,-286,0,0,0,0,0,0,0,0,0,-1,881,1310,0,0
-336,-286,0,0,0,0,0,0,0,0,0,-1,888,1310,0,0
-329,-286,0,0,0,0,0,0,0,0,0,-1,895,1310,0,0
-322,-286,0,0,0,0,0,0,0,0,0,-1,902,1310,0,0
-315,-286,0,0,0,0,0,0,0,0,0,-1,909,1310,0,0
-308,-286,0,0,0,0,0,0,0,0,0,-1,916,1310,0,0
-301,-286,0,0,0,0,0,0,0,0,0,-1,923,1310,0,0
-294,-286,0,0,0,0,0,0,0,0,0,-1,930,1310,0,0
-287,-286,0,0,0,0,0,0,0,0,0,-1,937,1310,0,0
-280,-286,0,0,0,0,0,0,0,0,0,-1,944,1310,0,0
-273,-286,0,0,0,0,0,0,0,0,0,-1,951,1310,0,0
-266,-286,0,0,0,0,0,0,0,0,0,-1,958,1310,0,0
-259,-286,0,0,0,0,0,0,0,0,0,-1,965,1310,0,0
-252,-286,0,0,0,0,0,0,0,0,0,-1,972,1310,0,0
-245,-286,0,0,0,0,0,0,0,0,0,-1,979,1310,0,0
-238,-286,0,0,0,0,0,0,0,0,0,-1,986,1310,0,0
-231,-286,0,0,0,0,0,0,0,0,0,-1,993,1310,0,0
-224,-286,0,0,0,0,0,0,0,0,0,-1,1000,1310,0,0
-217,-286,0,0,0,0,0,0,0,0,0,-1,1007,1310,0,0
-210,-286,0,0,0,0,0,0,0,0,0,-1,1014,1310,0,0
-203,-286,0,0,0,0,0,0,0,0,0,-1,1021,1310,0,0
-196,-286,0,0,0,0,0,0,0,0,0,-1,1028,1310,0,0
-189,-286,0,0,0,0,0,0,0,0,0,-1,1035,1310,0,0
-182,-286,0,0,0,0,0,0,0,0,0,-1,1042,1310,0,0
-175,-286,0,0,0,0,0,0,0,0,0,-1,1049,1310,0,0
-168,-286,0,0,0,0,0,0,0,0,0,-1,1056,1310,0,0
-161,-286,0,0,0,0,0,0,0,0,0,-1,1063,1310,0,0
-154,-286,0,0,0,0,0,0,0,0,0,-1,1070,1310,0,0
-147,-286,0,0,0,0,0,0,0,0,0,-1,1077,1310,0,0
-140,-286,0,0,0,0,0,0,0,0,0,-1,1084,1310,0,0
-133,-286,0,0,0,0,0,0,0,0,0,-1,1091,1310,0,0
-126,-286,0,0,0,0,0,0,0,0,0,-1,1098,1310,0,0
-119,-286,0,0,0,0,0,0,0,0,0,-1,1105,1310,0,0
-112,-286,0,0,0,0,0,0,0,0,0,-1,1112,1310,0,0
-105,-286,0,0,0,0,0,0,0,0,0,-1,1119,1310,0,0
-98,-286,0,0,0,0,0,0,0,0,0,-1,1126,1310,0,0
-91,-286,0,0,0,0,0,0,0,0,0,-1,1133,1310,0,0
-84,-286,0,0,0,0,0,0,0,0,0,-1,1140,1310,0,0
-77,-286,0,0,0,0,0,0,0,0,0,-1,1147,1310,0,0
-70,-286,0,0,0,0,0,0,0,0,0,-1,1154,1310,0,0
-63,-286,0,0,0,0,0,0,0,0,0,-1,1161,1310,0,0
-56,-286,0,0,0,0,0,0,0,0,0,-1,1168,1310,0,0
-49,-286,0,0,0,0,0,0,0,0,0,-1,1175,1310,0,0
-42,-286,0,0,0,0,0,0,0,0,0,-1,1182,1310,0,0
-35,-286,0,0,0,0,0,0,0,0,0,-1,1189,1310,0,0
-28,-286,0,0,0,0,0,0,0,0,0,-1,1196,1310,0,0
-21,-286,0,0,0,0,0,0,0,0,0,-1,1203,1310,0,0
-14,-286,0,0,0,0,0,0,0,0,0,-1,1210,1310,0,0
-7,-286,0,0,0,0,0,0,0,0,0,-1,1217,1310,0,0
0,-286,0,0,0,0,0,0,0,0,0,-1,1224,1310,0,0
7,-286,0,0,0,0,0,0,0,0,0,-1,1231,1310,0,0
14,-286,0,0,0,0,0,0,0,0,0,-1,1238,1310,0,0
21,-286,0,0,0,0,0,0,0,0,0,-1,1245,1310,0,0
28,-286,0,0,0,0,0,0,0,0,0,-1,1252,1310,0,0
35,-286,0,0,0,0,0,0,0,0,0,-1,1259,1310,0,0
42,-286,0,0,0,0,0,0,0,0,0,-1,1266,1310,0,0
49,-286,0,0,0,0,0,0,0,0,0,-1,1273,1310,0,0
56,-286,0,0,0,0,0,0,0,0,0,-1,1280,1310,0,0
63,-286,0,0,0,0,0,0,0,0,0,-1,1287,1310,0,0
70,-286,0,0,0,0,0,0,0,0,0,-1,1294,1310,0,0
77,-286,0,0,0,0,0,0,0,0,0,-1,1301,1310,0,0
84,-286,0,0,0,0,0,0,0,0,0,-1,1308,1310,0,0
91,-286,0,0,0,0,0,0,0,0,0,-1,1315,1310,0,0
98,-286,0,0,0,0,0,0,0,0,0,-1,1322,1310,0,0
105,-286,0,0,0,0,0,0,0,0,0,-1,1329,1310,0,0
112,-286,0,0,0,0,0,0,0,0,0,-1,1336,1310,0,0
119,-286,0,0,0,0,0,0,0,0,0,-1,1343,1310,0,0
126,-286,0,0,0,0,0,0,0,0,0,-1,1350,1310,0,0
133,-286,0,0,0,0,0,0,0,0,0,-1,1357,1310,0,0
140,-286,0,0,0,0,0,0,0,0,0,-1,1364,1310,0,0
147,-286,0,0,0,0,0,0,0,0,0,-1,1371,1310,0,0
154,-286,0,0,0,0,0,0,0,0,0,-1,1378,1310,0,0
161,-286,0,0,0,0,0,0,0,0,0,-1,1385,1310,0,0
168,-286,0,0,0,0,0,0,0,0,0,-1,1392,1310,0,0
175,-286,0,0,0,0,0,0,0,0,0,-1,1399,1310,0,0
182,-286,0,0,0,0,0,0,0,0,0,-1,1406,1310,0,0
189,-286,0,0,0,0,0,0,0,0,0,-1,1413,1310,0,0
196,-286,0,0,0,0,0,0,0,0,0,-1,1420,1310,0,0
203,-286,0,0,0,0,0,0,0,0,0,-1,1427,1310,0,0
210,-286,0,0,0,0,0,0,0,0,0,-1,1434,1310,0,0
217,-286,0,0,0,0,0,0,0,0,0,-1,1441,1310,0,0
224,-286,0,0,0,0,0,0,0,0,0,-1,1448,1310,0,0
231,-286,0,0,0,0,0,0,0,0,0,-1,1455,1310,0,0
238,-286,0,0,0,0,0,0,0,0,0,-1,1462,1310,0,0
245,-286,0,0,0,0,0,0,0,0,0,-1,1469,1310,0,0
252,-286,0,0,0,0,0,0,0,0,0,-1,1476,1310,0,0
259,-286,0,0,0,0,0,0,0,0,0,-1,1483,1310,0,0
266,-286,0,0,0,0,0,0,0,0,0,-1,1490,1310,0,0
273,-286,0,0,0,0,0,0,0,0,0,-1,1497,1310,0,0
280,-286,0,0,0,0,0,0,0,0,0,-1,1504,1310,0,0
287,-286,0,0,0,0,0,0,0,0,0,-1,1511,1310,0,0
294,-286,0,0,0,0,0,0,0,0,0,-1,1518,1310,0,0
301,-286,0,0,0,0,0,0,0,0,0,-1,1525,1310,0,0
308,-286,0,0,0,0,0,0,0,0,0,-1,1532,1310,0,0
315,-286,0,0,0,0,0,0,0,0,0,-1,1539,1310,0,0
322,-286,0,0,0,0,0,0,0,0,0,-1,1546,1310,0,0
329,-286,0,0,0,0,0,0,0,0,0,-1,1553,1310,0,0
336,-286,0,0,0,0,0,0,0,0,0,-1,1560,1310,0,0
343,-286,0,0,0,0,0,0,0,0,0,-1,1567,1310,0,0
350,-286,0,0,0,0,0,0,0,0,0,-1,1574,1310,0,0
357,-286,0,0,0,0,0,0,0,0,0,-1,1581,1310,0,0
364,-286,0,0,0,0,0,0,0,0,0,-1,1588,1310,0,0
371,-286,0,0,0,0,0,0,0,0,0,-1,1595,1310,0,0
378,-286,0,0,0,0,0,0,0,0,0,-1,1602,1310,0,0
385,-286,0,0,0,0,0,0,0,0,0,-1,1609,1310,0,0
392,-286,0,0,0,0,0,0,0,0,0,-1,1616,1310,0,0
399,-286,0,0,0,0,0,0,0,0,0,-1,1623,1310,0,0
406,-286,0,0,0,0,0,0,0,0,0,-1,1630,1310,0,0
413,-286,0,0,0,0,0,0,0,0,0,-1,1637,1310,0,0
420,-286,0,0,0,0,0,0,0,0,0,-1,1644,1310,0,0
427,-286,0,0,0,0,0,0,0,0,0,-1,1651,1310,0,0
434,-286,0,0,0,0,0,0,0,0,0,-1,1658,1310,0,0
441,-286,0,0,0,0,0,0,0,0,0,-1,1665,1310,0,0
448,-286,0,0,0,0,0,0,0,0,0,-1,1672,1310,0,0
455,-286,0,0,0,0,0,0,0,0,0,-1,1679,1310,0,0
462,-286,0,0,0,0,0,0,0,0,0,-1,1686,1310,0,0
469,-286,0,0,0,0,0,0,0,0,0,-1,1693,1310,0,0
476,-286,0,0,0,0,0,0,0,0,0,-1,1700,1310,0,0
483,-286,0,0,0,0,0,0,0,0,0,-1,1707,1310,0,0
490,-286,0,0,0,0,0,0,0,0,0,-1,1714,1310,0,0
497,-286,0,0,0,0,0,0,0,0,0,-1,1721,1310,0,0
504,-286,0,0,0,0,0,0,0,0,0,-1,1728,1310,0,0
511,-286,0,0,0,0,0,0,0,0,0,-1,1735,1310,0,0
518,-286,0,0,0,0,0,0,0,0,0,-1,1742,1310,0,0
525,-286,0,0,0,0,0,0,0,0,0,-1,1749,1310,0,0
532,-286,0,0,0,0,0,0,0,0,0,-1,1756,1310,0,0
539,-286,0,0,0,0,0,0,0,0,0,-1,1763,1310,0,0
546,-286,0,0,0,0,0,0,0,0,0,-1,1770,1310,0,0
553,-286,0,0,0,0,0,0,0,0,0,-1,1777,1310,0,0
560,-286,0,0,0,0,0,0,0,0,0,-1,1784,1310,0,0
567,-286,0,0,0,0,0,0,0,0,0,-1,1791,1310,0,0
574,-286,0,0,0,0,0,0,0,0,0,-1,1798,1310,0,0
581,-286,0,0,0,0,0,0,0,0,0,-1,1805,1310,0,0
588,-286,0,0,0,0,0,0,0,0,0,-1,1812,1310,0,0
595,-286,46.3893,2.92944,0,0,0,0,0,0,0,-1,1819,1310,46.3893,-2.92943
602,-286,46.4323,2.77979,0,0,0,0,0,0,0,-1,1826,1310,46.4323,-2.77981
609,-286,46.3186,2.40515,0.00142483,-0.0173438,0.00129575,0.00151387,-0.0174328,0.0686042,0.012158,0.046107,1833,1310,46.3187,-2.40516
616,-286,46.1418,2.0658,-0.00765982,-0.0140332,0.00179806,-0.00718754,-0.0145055,0.256855,0.00837485,0.047991,1840,1310,46.1419,-2.06576
623,-286,45.3657,1.32654,0,0,0,0,0,0,0,-1,1847,1310,45.3657,-1.32649
630,-286,45.8309,3.00671,0,0,0,0,0,0,0,-1,1854,1310,45.8309,-3.00671
637,-286,42.8304,1.58423,0,0,0,0,0,0,0,-1,1861,1310,42.8305,-1.58421
644,-286,25.6433,1.33862,0,0,0,0,0,0,0,-1,1868,1310,25.6433,-1.33858
651,-286,25.2507,1.88245,0,0,0,0,0,0,0,-1,1875,1310,25.2508,-1.88245
658,-286,25.9475,9.43689,0,0,0,0,0,0,0,-1,1882,1310,25.9475,-9.43693
665,-286,24.9838,8.03101,0,0,0,0,0,0,0,-1,1889,1310,24.9837,-8.03104
672,-286,32.9448,10.6918,0,0,0,0,0,0,0,-1,1896,1310,32.9448,-10.6918
679,-286,32.74,10.4214,0,0,0,0,0,0,0,-1,1903,1310,32.74,-10.4213
686,-286,32.7177,9.95679,-0.0063261,-0.00427002,0.00623454,0.00102067,-0.0116168,0.86711,0.0081062,0.0227033,1910,1310,32.7177,-9.95676
693,-286,32.7241,9.52148,-0.00318744,-0.00283603,0.00384696,0.000839239,-0.00686271,0.808219,0.00487901,0.0171884,1917,1310,32.7241,-9.52143
700,-286,32.7223,9.06433,-0.000639339,-0.00165589,0.00187224,0.000792391,-0.00308762,0.652853,0.00236717,0.0121474,1924,1310,32.7223,-9.06427
707,-286,32.7129,8.62598,1.43289e-05,-0.000750805,0.000835827,0.000550982,-0.00128746,0.570774,0.00108944,0.00880746,1931,1310,32.7129,-8.62593
714,-286,32.7062,8.18774,-0.000935906,-0.000557839,0.00125747,0.000524724,-0.00201847,0.860004,0.00155044,0.00928211,1938,1310,32.7062,-8.18775
721,-286,32.7008,7.74011,-0.00207798,-0.000655349,0.0018358,0.000602125,-0.00333545,0.970226,0.00244914,0.0120655,1945,1310,32.7008,-7.74014
728,-286,32.701,7.30688,-0.00344001,-0.000858027,0.00248125,0.000647994,-0.00494603,1.02528,0.00353321,0.0144715,1952,1310,32.7011,-7.30693
735,-286,32.7068,6.86975,-0.00499176,-0.00113377,0.00313098,0.000614737,-0.00674027,1.06149,0.00471181,0.0180663,1959,1310,32.7068,-6.86977
742,-286,32.7245,6.45691,-0.00663565,-0.00152834,0.00380692,0.000502083,-0.00866608,1.08083,0.00595181,0.0446911,1966,1310,32.7245,-6.45687
749,-286,32.9454,6.00171,0,0,0,0,0,0,0,-1,1973,1310,32.9455,-6.00166
756,-286,24.8226,4.43481,0,0,0,0,0,0,0,-1,1980,1310,24.8227,-4.43479
763,-286,20.6671,3.99683,0,0,0,0,0,0,0,-1,1987,1310,20.6671,-3.99683
770,-286,23.9147,4.45679,0,0,0,0,0,0,0,-1,1994,1310,23.9146,-4.45675
777,-286,0,0,0,0,0,0,0,0,0,-1,2001,1310,0,0
784,-286,0,0,0,0,0,0,0,0,0,-1,2008,1310,0,0
791,-286,0,0,0,0,0,0,0,0,0,-1,2015,1310,0,0
798,-286,0,0,0,0,0,0,0,0,0,-1,2022,1310,0,0
805,-286,0,0,0,0,0,0,0,0,0,-1,2029,1310,0,0
812,-286,0,0,0,0,0,0,0,0,0,-1,2036,1310,0,0
-700,-293,0,0,0,0,0,0,0,0,0,-1,524,1317,0,0
-693,-293,0,0,0,0,0,0,0,0,0,-1,531,1317,0,0
-686,-293,0,0,0,0,0,0,0,0,0,-1,538,1317,0,0
-679,-293,0,0,0,0,0,0,0,0,0,-1,545,1317,0,0
-672,-293,0,0,0,0,0,0,0,0,0,-1,552,1317,0,0
-665,-293,0,0,0,0,0,0,0,0,0,-1,559,1317,0,0
-658,-293,0,0,0,0,0,0,0,0,0,-1,566,1317,0,0
-651,-293,-19.3986,0.230591,0,0,0,0,0,0,0,-1,573,1317,-19.3986,-0.230615
-644,-293,-19.6501,1.56128,0,0,0,0,0,0,0,-1,580,1317,-19.6502,-1.56126
-637,-293,-19.9641,2.40369,0,0,0,0,0,0,0,-1,587,1317,-19.9641,-2.4037
-630,-293,-20.2918,3.08264,0,0,0,0,0,0,0,-1,594,1317,-20.2918,-3.08267
-623,-293,-15.6058,0.229614,0,0,0,0,0,0,0,-1,601,1317,-15.6058,-0.229666
-616,-293,-15.5056,2.17737,0,0,0,0,0,0,0,-1,608,1317,-15.5055,-2.17742
-609,-293,-18.5961,3.3689,0,0,0,0,0,0,0,-1,615,1317,-18.5961,-3.36892
-602,-293,-18.5925,4.15222,0.00383357,0.0060195,0.0101615,0.0151466,-0.00529354,0.838972,0.0122496,0.0463008,622,1317,-18.5925,-4.15222
-595,-293,-18.7747,4.88,0.00323211,0.00456459,0.0070378,0.0109676,-0.00317091,0.832591,0.00856662,0.0188072,629,1317,-18.7746,-4.87998
-588,-293,-18.7281,5.38745,0.00275802,0.00327087,0.0047226,0.00774401,-0.00171512,0.81252,0.00581925,0.01753,636,1317,-18.7282,-5.38743
-581,-293,-18.7355,5.86316,0.00248154,0.00215711,0.00304577,0.00536941,-0.000730756,0.758794,0.0038464,0.0190951,643,1317,-18.7355,-5.86315
-574,-293,-18.7551,6.36072,0.00235777,0.00117266,0.00179428,0.00365481,-0.000124379,0.625913,0.00247904,0.0158797,650,1317,-18.7551,-6.36077
-567,-293,-18.7819,6.88806,0.00240106,0.000289554,0.00088337,0.00272188,-3.12674e-05,0.348367,0.0018251,0.0164851,657,1317,-18.7819,-6.88803
-560,-293,-18.809,7.39478,0.00261609,-0.000512931,0.000244921,0.00263515,-0.000531986,0.0776439,0.00195833,0.0174381,664,1317,-18.809,-7.39479
-553,-293,-18.804,7.85144,0.003066,-0.00119552,-1.88572e-06,0.003066,-0.00119552,-0.000442499,0.00253816,0.0116563,671,1317,-18.8039,-7.85144
-546,-293,-18.799,8.33459,0.00370862,-0.00166987,-0.000107481,0.00371076,-0.00167202,-0.0199729,0.00318119,0.0121169,678,1317,-18.799,-8.33458
-539,-293,-18.7458,8.84314,0.00482864,-0.00231514,1.97879e-05,0.00482869,-0.00231519,0.00276992,0.00420876,0.0358666,685,1317,-18.7458,-8.84308
-532,-293,-18.6772,9.29236,0,0,0,0,0,0,0,-1,692,1317,-18.6772,-9.29239
-525,-293,-8.20642,3.62256,0,0,0,0,0,0,0,-1,699,1317,-8.20639,-3.6226
-518,-293,-10.1053,0.314209,0,0,0,0,0,0,0,-1,706,1317,-10.1053,-0.314234
-511,-293,-11.6276,0.235352,0,0,0,0,0,0,0,-1,713,1317,-11.6276,-0.235372
-504,-293,-17.9086,1.25427,0,0,0,0,0,0,0,-1,720,1317,-17.9086,-1.25423
-497,-293,-18.8006,1.62122,0,0,0,0,0,0,0,-1,727,1317,-18.8006,-1.62119
-490,-293,-18.8961,1.99255,0,0,0,0,0,0,0,-1,734,1317,-18.8961,-1.99251
-483,-293,-19.0831,2.35498,0,0,0,0,0,0,0,-1,741,1317,-19.0831,-2.35497
-476,-293,-19.5228,2.61243,0,0,0,0,0,0,0,-1,748,1317,-19.5228,-2.61237
-469,-293,0,0,0,0,0,0,0,0,0,-1,755,1317,0,0
-462,-293,0,0,0,0,0,0,0,0,0,-1,762,1317,0,0
-455,-293,0,0,0,0,0,0,0,0,0,-1,769,1317,0,0
-448,-293,0,0,0,0,0,0,0,0,0,-1,776,1317,0,0
-441,-293,0,0,0,0,0,0,0,0,0,-1,783,1317,0,0
-434,-293,0,0,0,0,0,0,0,0,0,-1,790,1317,0,0
-427,-293,0,0,0,0,0,0,0,0,0,-1,797,1317,0,0
-420,-293,0,0,0,0,0,0,0,0,0,-1,804,1317,0,0
-413,-293,0,0,0,0,0,0,0,0,0,-1,811,1317,0,0
-406,-293,0,0,0,0,0,0,0,0,0,-1,818,1317,0,0
-399,-293,0,0,0,0,0,0,0,0,0,-1,825,1317,0,0
-392,-293,0,0,0,0,0,0,0,0,0,-1,832,1317,0,0
-385,-293,0,0,0,0,0,0,0,0,0,-1,839,1317,0,0
-378,-293,0,0,0,0,0,0,0,0,0,-1,846,1317,0,0
-371,-293,0,0,0,0,0,0,0,0,0,-1,853,1317,0,0
-364,-293,0,0,0,0,0,0,0,0,0,-1,860,1317,0,0
-357,-293,0,0,0,0,0,0,0,0,0,-1,867,1317,0,0
-350,-293,0,0,0,0,0,0,0,0,0,-1,874,1317,0,0
-343,-293,0,0,0,0,0,0,0,0,0,-1,881,1317,0,0
-336,-293,0,0,0,0,0,0,0,0,0,-1,888,1317,0,0
-329,-293,0,0,0,0,0,0,0,0,0,-1,895,1317,0,0
-322,-293,0,0,0,0,0,0,0,0,0,-1,902,1317,0,0
-315,-293,0,0,0,0,0,0,0,0,0,-1,909,1317,0,0
-308,-293,0,0,0,0,0,0,0,0,0,-1,916,1317,0,0
-301,-293,0,0,0,0,0,0,0,0,0,-1,923,1317,0,0
-294,-293,0,0,0,0,0,0,0,0,0,-1,930,1317,0,0
-287,-293,0,0,0,0,0,0,0,0,0,-1,937,1317,0,0
-280,-293,0,0,0,0,0,0,0,0,0,-1,944,1317,0,0
-273,-293,0,0,0,0,0,0,0,0,0,-1,951,1317,0,0
-266,-293,0,0,0,0,0,0,0,0,0,-1,958,1317,0,0
-259,-293,0,0,0,0,0,0,0,0,0,-1,965,1317,0,0
-252,-293,0,0,0,0,0,0,0,0,0,-1,972,1317,0,0
-245,-293,0,0,0,0,0,0,0,0,0,-1,979,1317,0,0
-238,-293,0,0,0,0,0,0,0,0,0,-1,986,1317,0,0
-231,-293,0,0,0,0,0,0,0,0,0,-1,993,1317,0,0
-224,-293,0,0,0,0,0,0,0,0,0,-1,1000,1317,0,0
-217,-293,0,0,0,0,0,0,0,0,0,-1,1007,1317,0,0
-210,-293,0,0,0,0,0,0,0,0,0,-1,1014,1317,0,0
-203,-293,0,0,0,0,0,0,0,0,0,-1,1021,1317,0,0
-196,-293,0,0,0,0,0,0,0,0,0,-1,1028,1317,0,0
-189,-293,0,0,0,0,0,0,0,0,0,-1,1035,1317,0,0
-182,-293,0,0,0,0,0,0,0,0,0,-1,1042,1317,0,0
-175,-293,0,0,0,0,0,0,0,0,0,-1,1049,1317,0,0
-168,-293,0,0,0,0,0,0,0,0,0,-1,1056,1317,0,0
-161,-293,0,0,0,0,0,0,0,0,0,-1,1063,1317,0,0
-154,-293,0,0,0,0,0,0,0,0,0,-1,1070,1317,0,0
-147,-293,0,0,0,0,0,0,0,0,0,-1,1077,1317,0,0
-140,-293,0,0,0,0,0,0,0,0,0,-1,1084,1317,0,0
-133,-293,0,0,0,0,0,0,0,0,0,-1,1091,1317,0,0
-126,-293,0,0,0,0,0,0,0,0,0,-1,1098,1317,0,0
-119,-293,0,0,0,0,0,0,0,0,0,-1,1105,1317,0,0
-112,-293,0,0,0,0,0,0,0,0,0,-1,1112,1317,0,0
-105,-293,0,0,0,0,0,0,0,0,0,-1,1119,1317,0,0
-98,-293,0,0,0,0,0,0,0,0,0,-1,1126,1317,0,0
-91,-293,0,0,0,0,0,0,0,0,0,-1,1133,1317,0,0
-84,-293,0,0,0,0,0,0,0,0,0,-1,1140,1317,0,0
-77,-293,0,0,0,0,0,0,0,0,0,-1,1147,1317,0,0
-70,-293,0,0,0,0,0,0,0,0,0,-1,1154,1317,0,0
-63,-293,0,0,0,0,0,0,0,0,0,-1,1161,1317,0,0
-56,-293,0,0,0,0,0,0,0,0,0,-1,1168,1317,0,0
-49,-293,0,0,0,0,0,0,0,0,0,-1,1175,1317,0,0
-42,-293,0,0,0,0,0,0,0,0,0,-1,1182,1317,0,0
-35,-293,0,0,0,0,0,0,0,0,0,-1,1189,1317,0,0
-28,-293,0,0,0,0,0,0,0,0,0,-1,1196,1317,0,0
-21,-293,0,0,0,0,0,0,0,0,0,-1,1203,1317,0,0
-14,-293,0,0,0,0,0,0,0,0,0,-1,1210,1317,0,0
-7,-293,0,0,0,0,0,0,0,0,0,-1,1217,1317,0,0
0,-293,0,0,0,0,0,0,0,0,0,-1,1224,1317,0,0
7,-293,0,0,0,0,0,0,0,0,0,-1,1231,1317,0,0
14,-293,0,0,0,0,0,0,0,0,0,-1,1238,1317,0,0
21,-293,0,0,0,0,0,0,0,0,0,-1,1245,1317,0,0
28,-293,0,0,0,0,0,0,0,0,0,-1,1252,1317,0,0
35,-293,0,0,0,0,0,0,0,0,0,-1,1259,1317,0,0
42,-293,0,0,0,0,0,0,0,0,0,-1,1266,1317,0,0
49,-293,0,0,0,0,0,0,0,0,0,-1,1273,1317,0,0
56,-293,0,0,0,0,0,0,0,0,0,-1,1280,1317,0,0
63,-293,0,0,0,0,0,0,0,0,0,-1,1287,1317,0,0
70,-293,0,0,0,0,0,0,0,0,0,-1,1294,1317,0,0
77,-293,0,0,0,0,0,0,0,0,0,-1,1301,1317,0,0
84,-293,0,0,0,0,0,0,0,0,0,-1,1308,1317,0,0
91,-293,0,0,0,0,0,0,0,0,0,-1,1315,1317,0,0
98,-293,0,0,0,0,0,0,0,0,0,-1,1322,1317,0,0
105,-293,0,0,0,0,0,0,0,0,0,-1,1329,1317,0,0
112,-293,0,0,0,0,0,0,0,0,0,-1,1336,1317,0,0
119,-293,0,0,0,0,0,0,0,0,0,-1,1343,1317,0,0
126,-293,0,0,0,0,0,0,0,0,0,-1,1350,1317,0,0
133,-293,0,0,0,0,0,0,0,0,0,-1,1357,1317,0,0
140,-293,0,0,0,0,0,0,0,0,0,-1,1364,1317,0,0
147,-293,0,0,0,0,0,0,0,0,0,-1,1371,1317,0,0
154,-293,0,0,0,0,0,0,0,0,0,-1,1378,1317,0,0
161,-293,0,0,0,0,0,0,0,0,0,-1,1385,1317,0,0
168,-293,0,0,0,0,0,0,0,0,0,-1,1392,1317,0,0
175,-293,0,0,0,0,0,0,0,0,0,-1,1399,1317,0,0
182,-293,0,0,0,0,0,0,0,0,0,-1,1406,1317,0,0
189,-293,0,0,0,0,0,0,0,0,0,-1,1413,1317,0,0
196,-293,0,0,0,0,0,0,0,0,0,-1,1420,1317,0,0
203,-293,0,0,0,0,0,0,0,0,0,-1,1427,1317,0,0
210,-293,0,0,0,0,0,0,0,0,0,-1,1434,1317,0,0
217,-293,0,0,0,0,0,0,0,0,0,-1,1441,1317,0,0
224,-293,0,0,0,0,0,0,0,0,0,-1,1448,1317,0,0
231,-293,0,0,0,0,0,0,0,0,0,-1,1455,1317,0,0
238,-293,0,0,0,0,0,0,0,0,0,-1,1462,1317,0,0
245,-293,0,0,0,0,0,0,0,0,0,-1,1469,1317,0,0
252,-293,0,0,0,0,0,0,0,0,0,-1,1476,1317,0,0
259,-293,0,0,0,0,0,0,0,0,0,-1,1483,1317,0,0
266,-293,0,0,0,0,0,0,0,0,0,-1,1490,1317,0,0
273,-293,0,0,0,0,0,0,0,0,0,-1,1497,1317,0,0
280,-293,0,0,0,0,0,0,0,0,0,-1,1504,1317,0,0
287,-293,0,0,0,0,0,0,0,0,0,-1,1511,1317,0,0
294,-293,0,0,0,0,0,0,0,0,0,-1,1518,1317,0,0
301,-293,0,0,0,0,0,0,0,0,0,-1,1525,1317,0,0
308,-293,0,0,0,0,0,0,0,0,0,-1,1532,1317,0,0
315,-293,0,0,0,0,0,0,0,0,0,-1,1539,1317,0,0
322,-293,0,0,0,0,0,0,0,0,0,-1,1546,1317,0,0
329,-293,0,0,0,0,0,0,0,0,0,-1,1553,1317,0,0
336,-293,0,0,0,0,0,0,0,0,0,-1,1560,1317,0,0
343,-293,0,0,0,0,0,0,0,0,0,-1,1567,1317,0,0
350,-293,0,0,0,0,0,0,0,0,0,-1,1574,1317,0,0
357,-293,0,0,0,0,0,0,0,0,0,-1,1581,1317,0,0
364,-293,0,0,0,0,0,0,0,0,0,-1,1588,1317,0,0
371,-293,0,0,0,0,0,0,0,0,0,-1,1595,1317,0,0
378,-293,0,0,0,0,0,0,0,0,0,-1,1602,1317,0,0
385,-293,0,0,0,0,0,0,0,0,0,-1,1609,1317,0,0
392,-293,0,0,0,0,0,0,0,0,0,-1,1616,1317,0,0
399,-293,0,0,0,0,0,0,0,0,0,-1,1623,1317,0,0
406,-293,0,0,0,0,0,0,0,0,0,-1,1630,1317,0,0
413,-293,0,0,0,0,0,0,0,0,0,-1,1637,1317,0,0
420,-293,0,0,0,0,0,0,0,0,0,-1,1644,1317,0,0
427,-293,0,0,0,0,0,0,0,0,0,-1,1651,1317,0,0
434,-293,0,0,0,0,0,0,0,0,0,-1,1658,1317,0,0
441,-293,0,0,0,0,0,0,0,0,0,-1,1665,1317,0,0
448,-293,0,0,0,0,0,0,0,0,0,-1,1672,1317,0,0
455,-293,0,0,0,0,0,0,0,0,0,-1,1679,1317,0,0
462,-293,0,0,0,0,0,0,0,0,0,-1,1686,1317,0,0
469,-293,0,0,0,0,0,0,0,0,0,-1,1693,1317,0,0
476,-293,0,0,0,0,0,0,0,0,0,-1,1700,1317,0,0
483,-293,0,0,0,0,0,0,0,0,0,-1,1707,1317,0,0
490,-293,0,0,0,0,0,0,0,0,0,-1,1714,1317,0,0
497,-293,0,0,0,0,0,0,0,0,0,-1,1721,1317,0,0
504,-293,0,0,0,0,0,0,0,0,0,-1,1728,1317,0,0
511,-293,0,0,0,0,0,0,0,0,0,-1,1735,1317,0,0
518,-293,0,0,0,0,0,0,0,0,0,-1,1742,1317,0,0
525,-293,0,0,0,0,0,0,0,0,0,-1,1749,1317,0,0
532,-293,0,0,0,0,0,0,0,0,0,-1,1756,1317,0,0
539,-293,0,0,0,0,0,0,0,0,0,-1,1763,1317,0,0
546,-293,0,0,0,0,0,0,0,0,0,-1,1770,1317,0,0
553,-293,0,0,0,0,0,0,0,0,0,-1,1777,1317,0,0
560,-293,0,0,0,0,0,0,0,0,0,-1,1784,1317,0,0
567,-293,0,0,0,0,0,0,0,0,0,-1,1791,1317,0,0
574,-293,0,0,0,0,0,0,0,0,0,-1,1798,1317,0,0
581,-293,0,0,0,0,0,0,0,0,0,-1,1805,1317,0,0
588,-293,0,0,0,0,0,0,0,0,0,-1,1812,1317,0,0
595,-293,46.5309,2.90723,0,0,0,0,0,0,0,-1,1819,1317,46.5309,-2.90726
602,-293,46.6292,2.77051,0,0,0,0,0,0,0,-1,1826,1317,46.6291,-2.77056
609,-293,46.5601,2.42468,0,0,0,0,0,0,0,-1,1833,1317,46.5601,-2.42473
616,-293,46.0824,1.93066,0,0,0,0,0,0,0,-1,1840,1317,46.0824,-1.93066
623,-293,45.2192,2.14087,0,0,0,0,0,0,0,-1,1847,1317,45.2192,-2.14089
630,-293,43.121,1.28076,0,0,0,0,0,0,0,-1,1854,1317,43.121,-1.28071
637,-293,42.7729,4.95544,0,0,0,0,0,0,0,-1,1861,1317,42.773,-4.95546
644,-293,24.4565,0.520752,0,0,0,0,0,0,0,-1,1868,1317,24.4566,-0.520709
651,-293,25.8926,9.51245,0,0,0,0,0,0,0,-1,1875,1317,25.8926,-9.51246
658,-293,25.4904,9.10205,0,0,0,0,0,0,0,-1,1882,1317,25.4904,-9.10209
665,-293,32.6533,11.1025,0,0,0,0,0,0,0,-1,1889,1317,32.6534,-11.1025
672,-293,32.3959,10.876,-0.0132259,-0.000442283,0.00682496,0.00251659,-0.0161848,1.16172,0.0117191,0.0378446,1896,1317,32.3959,-10.8759
679,-293,32.33,10.4132,-0.0089609,-0.00268598,0.00651044,0.00140355,-0.0130504,1.00993,0.00920388,0.0147991,1903,1317,32.3299,-10.4132
686,-293,32.3313,9.96204,-0.0048021,-0.00278183,0.00478165,0.00109522,-0.00867915,0.889494,0.00618359,0.0167896,1910,1317,32.3312,-9.96208
693,-293,32.308,9.51685,-0.00225983,-0.00176845,0.00279921,0.00079583,-0.00482412,0.829171,0.00351154,0.0125942,1917,1317,32.308,-9.51686
700,-293,32.2679,9.06079,-0.000441582,-0.0010055,0.00138191,0.000686836,-0.00213392,0.684761,0.0016985,0.0112565,1924,1317,32.268,-9.06083
707,-293,32.2544,8.646,-0.000247291,-0.000579493,0.000898487,0.000500319,-0.0013271,0.693996,0.00109046,0.0111863,1931,1317,32.2543,-8.64594
714,-293,32.2583,8.21252,-0.0011506,-0.00063637,0.00139571,0.000525709,-0.00231268,0.876487,0.00174364,0.00832655,1938,1317,32.2583,-8.21254
721,-293,32.2676,7.74451,-0.0022477,-0.000836441,0.00201589,0.000593751,-0.0036779,0.953751,0.00267193,0.00979922,1945,1317,32.2676,-7.74457
728,-293,32.2493,7.28284,-0.00361481,-0.00115752,0.00273219,0.00060957,-0.0053819,0.996698,0.00380742,0.0117236,1952,1317,32.2492,-7.2828
735,-293,32.23,6.83862,-0.00524215,-0.00157184,0.00347839,0.000525814,-0.00733981,1.02813,0.00507756,0.0238066,1959,1317,32.23,-6.8386
742,-293,32.3167,6.37695,0,0,0,0,0,0,0,-1,1966,1317,32.3166,-6.37692
749,-293,29.439,5.35339,0,0,0,0,0,0,0,-1,1973,1317,29.4389,-5.35334
756,-293,24.978,3.9718,0,0,0,0,0,0,0,-1,1980,1317,24.978,-3.97186
763,-293,26.6713,4.74097,0,0,0,0,0,0,0,-1,1987,1317,26.6713,-4.74098
770,-293,24.1349,4.69153,0,0,0,0,0,0,0,-1,1994,1317,24.1348,-4.69159
777,-293,0,0,0,0,0,0,0,0,0,-1,2001,1317,0,0
784,-293,0,0,0,0,0,0,0,0,0,-1,2008,1317,0,0
791,-293,0,0,0,0,0,0,0,0,0,-1,2015,1317,0,0
798,-293,0,0,0,0,0,0,0,0,0,-1,2022,1317,0,0
805,-293,0,0,0,0,0,0,0,0,0,-1,2029,1317,0,0
812,-293,0,0,0,0,0,0,0,0,0,-1,2036,1317,0,0
-700,-300,0,0,0,0,0,0,0,0,0,-1,524,1324,0,0
-693,-300,0,0,0,0,0,0,0,0,0,-1,531,1324,0,0
-686,-300,0,0,0,0,0,0,0,0,0,-1,538,1324,0,0
-679,-300,0,0,0,0,0,0,0,0,0,-1,545,1324,0,0
-672,-300,0,0,0,0,0,0,0,0,0,-1,552,1324,0,0
-665,-300,0,0,0,0,0,0,0,0,0,-1,559,1324,0,0
-658,-300,0,0,0,0,0,0,0,0,0,-1,566,1324,0,0
-651,-300,-20.1143,0.203857,0,0,0,0,0,0,0,-1,573,1324,-20.1142,-0.203872
-644,-300,-20.4374,1.17224,0,0,0,0,0,0,0,-1,580,1324,-20.4375,-1.17226
-637,-300,-20.7362,1.82813,0,0,0,0,0,0,0,-1,587,1324,-20.7362,-1.8281
-630,-300,-21.1108,2.26306,0,0,0,0,0,0,0,-1,594,1324,-21.1109,-2.2631
-623,-300,-12.7067,1.48462,0,0,0,0,0,0,0,-1,601,1324,-12.7067,-1.48462
-616,-300,-14.9988,1.68628,0,0,0,0,0,0,0,-1,608,1324,-14.9988,-1.68627
-609,-300,-15.5027,3.29907,0,0,0,0,0,0,0,-1,615,1324,-15.5027,-3.29902
-602,-300,-18.3162,4.16882,0,0,0,0,0,0,0,-1,622,1324,-18.3162,-4.1688
-595,-300,-18.3087,4.87256,0.00388805,0.0049851,0.00736515,0.0118221,-0.00294897,0.822568,0.00902643,0.0323537,629,1324,-18.3086,-4.87255
-588,-300,-18.2521,5.42871,0.00319878,0.00365517,0.00494441,0.00837664,-0.00152269,0.808458,0.0061551,0.021783,636,1324,-18.2521,-5.42865
-581,-300,-18.2648,5.92468,0.00276924,0.00255644,0.00326145,0.00592603,-0.000600347,0.769092,0.00416525,0.0205689,643,1324,-18.2648,-5.92472
-574,-300,-18.2758,6.39478,0.00250815,0.00159991,0.00202471,0.00412904,-2.09911e-05,0.67508,0.00275972,0.0152803,650,1324,-18.2758,-6.39478
-567,-300,-18.3028,6.91016,0.00244078,0.000753132,0.00114642,0.00302044,0.000173467,0.468142,0.00195837,0.0166137,657,1324,-18.3028,-6.91011
-560,-300,-18.3128,7.41626,0.00255114,-6.03623e-06,0.000477061,0.00263724,-9.21364e-05,0.178559,0.00178966,0.0156323,664,1324,-18.3128,-7.41628
-553,-300,-18.2997,7.88464,0.00289176,-0.000690509,0.00020224,0.00290314,-0.000701891,0.0562177,0.00220691,0.0109037,671,1324,-18.2997,-7.88458
-546,-300,-18.3121,8.35181,0.00346164,-0.00121089,0.000103726,0.00346394,-0.00121319,0.0221845,0.00280263,0.00917552,678,1324,-18.3122,-8.35178
-539,-300,-18.2775,8.86169,0.00446889,-0.00183684,0.000217504,0.00447639,-0.00184434,0.0344385,0.00375326,0.0208387,685,1324,-18.2775,-8.86164
-532,-300,-18.2253,9.34802,0,0,0,0,0,0,0,-1,692,1324,-18.2253,-9.34799
-525,-300,-13.5115,6.27783,0,0,0,0,0,0,0,-1,699,1324,-13.5115,-6.2778
-518,-300,-9.8349,-0.537109,0,0,0,0,0,0,0,-1,706,1324,-9.83487,0.537068
-511,-300,-12.8644,0.081665,0,0,0,0,0,0,0,-1,713,1324,-12.8644,-0.0817016
-504,-300,-13.4829,-0.165527,0,0,0,0,0,0,0,-1,720,1324,-13.4829,0.165544
-497,-300,-18.1063,0.956543,0,0,0,0,0,0,0,-1,727,1324,-18.1063,-0.9565
-490,-300,-18.2293,1.53625,0,0,0,0,0,0,0,-1,734,1324,-18.2293,-1.53626
-483,-300,-18.3522,1.61084,0,0,0,0,0,0,0,-1,741,1324,-18.3522,-1.6108
-476,-300,-18.7489,1.96387,0,0,0,0,0,0,0,-1,748,1324,-18.7489,-1.96387
-469,-300,0,0,0,0,0,0,0,0,0,-1,755,1324,0,0
-462,-300,0,0,0,0,0,0,0,0,0,-1,762,1324,0,0
-455,-300,0,0,0,0,0,0,0,0,0,-1,769,1324,0,0
-448,-300,0,0,0,0,0,0,0,0,0,-1,776,1324,0,0
-441,-300,0,0,0,0,0,0,0,0,0,-1,783,1324,0,0
-434,-300,0,0,0,0,0,0,0,0,0,-1,790,1324,0,0
-427,-300,0,0,0,0,0,0,0,0,0,-1,797,1324,0,0
-420,-300,0,0,0,0,0,0,0,0,0,-1,804,1324,0,0
-413,-300,0,0,0,0,0,0,0,0,0,-1,811,1324,0,0
-406,-300,0,0,0,0,0,0,0,0,0,-1,818,1324,0,0
-399,-300,0,0,0,0,0,0,0,0,0,-1,825,1324,0,0
-392,-300,0,0,0,0,0,0,0,0,0,-1,832,1324,0,0
-385,-300,0,0,0,0,0,0,0,0,0,-1,839,1324,0,0
-378,-300,0,0,0,0,0,0,0,0,0,-1,846,1324,0,0
-371,-300,0,0,0,0,0,0,0,0,0,-1,853,1324,0,0
-364,-300,0,0,0,0,0,0,0,0,0,-1,860,1324,0,0
-357,-300,0,0,0,0,0,0,0,0,0,-1,867,1324,0,0
-350,-300,0,0,0,0,0,0,0,0,0,-1,874,1324,0,0
-343,-300,0,0,0,0,0,0,0,0,0,-1,881,1324,0,0
-336,-300,0,0,0,0,0,0,0,0,0,-1,888,1324,0,0
-329,-300,0,0,0,0,0,0,0,0,0,-1,895,1324,0,0
-322,-300,0,0,0,0,0,0,0,0,0,-1,902,1324,0,0
-315,-300,0,0,0,0,0,0,0,0,0,-1,909,1324,0,0
-308,-300,0,0,0,0,0,0,0,0,0,-1,916,1324,0,0
-301,-300,0,0,0,0,0,0,0,0,0,-1,923,1324,0,0
-294,-300,0,0,0,0,0,0,0,0,0,-1,930,1324,0,0
-287,-300,0,0,0,0,0,0,0,0,0,-1,937,1324,0,0
-280,-300,0,0,0,0,0,0,0,0,0,-1,944,1324,0,0
-273,-300,0,0,0,0,0,0,0,0,0,-1,951,1324,0,0
-266,-300,0,0,0,0,0,0,0,0,0,-1,958,1324,0,0
-259,-300,0,0,0,0,0,0,0,0,0,-1,965,1324,0,0
-252,-300,0,0,0,0,0,0,0,0,0,-1,972,1324,0,0
-245,-300,0,0,0,0,0,0,0,0,0,-1,979,1324,0,0
-238,-300,0,0,0,0,0,0,0,0,0,-1,986,1324,0,0
-231,-300,0,0,0,0,0,0,0,0,0,-1,993,1324,0,0
-224,-300,0,0,0,0,0,0,0,0,0,-1,1000,1324,0,0
-217,-300,0,0,0,0,0,0,0,0,0,-1,1007,1324,0,0
-210,-300,0,0,0,0,0,0,0,0,0,-1,1014,1324,0,0
-203,-300,0,0,0,0,0,0,0,0,0,-1,1021,1324,0,0
-196,-300,0,0,0,0,0,0,0,0,0,-1,1028,1324,0,0
-189,-300,0,0,0,0,0,0,0,0,0,-1,1035,1324,0,0
-182,-300,0,0,0,0,0,0,0,0,0,-1,1042,1324,0,0
-175,-300,0,0,0,0,0,0,0,0,0,-1,1049,1324,0,0
-168,-300,0,0,0,0,0,0,0,0,0,-1,1056,1324,0,0
-161,-300,0,0,0,0,0,0,0,0,0,-1,1063,1324,0,0
-154,-300,0,0,0,0,0,0,0,0,0,-1,1070,1324,0,0
-147,-300,0,0,0,0,0,0,0,0,0,-1,1077,1324,0,0
-140,-300,0,0,0,0,0,0,0,0,0,-1,1084,1324,0,0
-133,-300,0,0,0,0,0,0,0,0,0,-1,1091,1324,0,0
-126,-300,0,0,0,0,0,0,0,0,0,-1,1098,1324,0,0
-119,-300,0,0,0,0,0,0,0,0,0,-1,1105,1324,0,0
-112,-300,0,0,0,0,0,0,0,0,0,-1,1112,1324,0,0
-105,-300,0,0,0,0,0,0,0,0,0,-1,1119,1324,0,0
-98,-300,0,0,0,0,0,0,0,0,0,-1,1126,1324,0,0
-91,-300,0,0,0,0,0,0,0,0,0,-1,1133,1324,0,0
-84,-300,0,0,0,0,0,0,0,0,0,-1,1140,1324,0,0
-77,-300,0,0,0,0,0,0,0,0,0,-1,1147,1324,0,0
-70,-300,0,0,0,0,0,0,0,0,0,-1,1154,1324,0,0
-63,-300,0,0,0,0,0,0,0,0,0,-1,1161,1324,0,0
-56,-300,0,0,0,0,0,0,0,0,0,-1,1168,1324,0,0
-49,-300,0,0,0,0,0,0,0,0,0,-1,1175,1324,0,0
-42,-300,0,0,0,0,0,0,0,0,0,-1,1182,1324,0,0
-35,-300,0,0,0,0,0,0,0,0,0,-1,1189,1324,0,0
-28,-300,0,0,0,0,0,0,0,0,0,-1,1196,1324,0,0
-21,-300,0,0,0,0,0,0,0,0,0,-1,1203,1324,0,0
-14,-300,0,0,0,0,0,0,0,0,0,-1,1210,1324,0,0
-7,-300,0,0,0,0,0,0,0,0,0,-1,1217,1324,0,0
0,-300,0,0,0,0,0,0,0,0,0,-1,1224,1324,0,0
7,-300,0,0,0,0,0,0,0,0,0,-1,1231,1324,0,0
14,-300,0,0,0,0,0,0,0,0,0,-1,1238,1324,0,0
21,-300,0,0,0,0,0,0,0,0,0,-1,1245,1324,0,0
28,-300,0,0,0,0,0,0,0,0,0,-1,1252,1324,0,0
35,-300,0,0,0,0,0,0,0,0,0,-1,1259,1324,0,0
42,-300,0,0,0,0,0,0,0,0,0,-1,1266,1324,0,0
49,-300,0,0,0,0,0,0,0,0,0,-1,1273,1324,0,0
56,-300,0,0,0,0,0,0,0,0,0,-1,1280,1324,0,0
63,-300,0,0,0,0,0,0,0,0,0,-1,1287,1324,0,0
70,-300,0,0,0,0,0,0,0,0,0,-1,1294,1324,0,0
77,-300,0,0,0,0,0,0,0,0,0,-1,1301,1324,0,0
84,-300,0,0,0,0,0,0,0,0,0,-1,1308,1324,0,0
91,-300,0,0,0,0,0,0,0,0,0,-1,1315,1324,0,0
98,-300,0,0,0,0,0,0,0,0,0,-1,1322,1324,0,0
105,-300,0,0,0,0,0,0,0,0,0,-1,1329,1324,0,0
112,-300,0,0,0,0,0,0,0,0,0,-1,1336,1324,0,0
119,-300,0,0,0,0,0,0,0,0,0,-1,1343,1324,0,0
126,-300,0,0,0,0,0,0,0,0,0,-1,1350,1324,0,0
133,-300,0,0,0,0,0,0,0,0,0,-1,1357,1324,0,0
140,-300,0,0,0,0,0,0,0,0,0,-1,1364,1324,0,0
147,-300,0,0,0,0,0,0,0,0,0,-1,1371,1324,0,0
154,-300,0,0,0,0,0,0,0,0,0,-1,1378,1324,0,0
161,-300,0,0,0,0,0,0,0,0,0,-1,1385,1324,0,0
168,-300,0,0,0,0,0,0,0,0,0,-1,1392,1324,0,0
175,-300,0,0,0,0,0,0,0,0,0,-1,1399,1324,0,0
182,-300,0,0,0,0,0,0,0,0,0,-1,1406,1324,0,0
189,-300,0,0,0,0,0,0,0,0,0,-1,1413,1324,0,0
196,-300,0,0,0,0,0,0,0,0,0,-1,1420,1324,0,0
203,-300,0,0,0,0,0,0,0,0,0,-1,1427,1324,0,0
210,-300,0,0,0,0,0,0,0,0,0,-1,1434,1324,0,0
217,-300,0,0,0,0,0,0,0,0,0,-1,1441,1324,0,0
224,-300,0,0,0,0,0,0,0,0,0,-1,1448,1324,0,0
231,-300,0,0,0,0,0,0,0,0,0,-1,1455,1324,0,0
238,-300,0,0,0,0,0,0,0,0,0,-1,1462,1324,0,0
245,-300,0,0,0,0,0,0,0,0,0,-1,1469,1324,0,0
252,-300,0,0,0,0,0,0,0,0,0,-1,1476,1324,0,0
259,-300,0,0,0,0,0,0,0,0,0,-1,1483,1324,0,0
266,-300,0,0,0,0,0,0,0,0,0,-1,1490,1324,0,0
273,-300,0,0,0,0,0,0,0,0,0,-1,1497,1324,0,0
280,-300,0,0,0,0,0,0,0,0,0,-1,1504,1324,0,0
287,-300,0,0,0,0,0,0,0,0,0,-1,1511,1324,0,0
294,-300,0,0,0,0,0,0,0,0,0,-1,1518,1324,0,0
301,-300,0,0,0,0,0,0,0,0,0,-1,1525,1324,0,0
308,-300,0,0,0,0,0,0,0,0,0,-1,1532,1324,0,0
315,-300,0,0,0,0,0,0,0,0,0,-1,1539,1324,0,0
322,-300,0,0,0,0,0,0,0,0,0,-1,1546,1324,0,0
329,-300,0,0,0,0,0,0,0,0,0,-1,1553,1324,0,0
336,-300,0,0,0,0,0,0,0,0,0,-1,1560,1324,0,0
343,-300,0,0,0,0,0,0,0,0,0,-1,1567,1324,0,0
350,-300,0,0,0,0,0,0,0,0,0,-1,1574,1324,0,0
357,-300,0,0,0,0,0,0,0,0,0,-1,1581,1324,0,0
364,-300,0,0,0,0,0,0,0,0,0,-1,1588,1324,0,0
371,-300,0,0,0,0,0,0,0,0,0,-1,1595,1324,0,0
378,-300,0,0,0,0,0,0,0,0,0,-1,1602,1324,0,0
385,-300,0,0,0,0,0,0,0,0,0,-1,1609,1324,0,0
392,-300,0,0,0,0,0,0,0,0,0,-1,1616,1324,0,0
399,-300,0,0,0,0,0,0,0,0,0,-1,1623,1324,0,0
406,-300,0,0,0,0,0,0,0,0,0,-1,1630,1324,0,0
413,-300,0,0,0,0,0,0,0,0,0,-1,1637,1324,0,0
420,-300,0,0,0,0,0,0,0,0,0,-1,1644,1324,0,0
427,-300,0,0,0,0,0,0,0,0,0,-1,1651,1324,0,0
434,-300,0,0,0,0,0,0,0,0,0,-1,1658,1324,0,0
441,-300,0,0,0,0,0,0,0,0,0,-1,1665,1324,0,0
448,-300,0,0,0,0,0,0,0,0,0,-1,1672,1324,0,0
455,-300,0,0,0,0,0,0,0,0,0,-1,1679,1324,0,0
462,-300,0,0,0,0,0,0,0,0,0,-1,1686,1324,0,0
469,-300,0,0,0,0,0,0,0,0,0,-1,1693,1324,0,0
476,-300,0,0,0,0,0,0,0,0,0,-1,1700,1324,0,0
483,-300,0,0,0,0,0,0,0,0,0,-1,1707,1324,0,0
490,-300,0,0,0,0,0,0,0,0,0,-1,1714,1324,0,0
497,-300,0,0,0,0,0,0,0,0,0,-1,1721,1324,0,0
504,-300,0,0,0,0,0,0,0,0,0,-1,1728,1324,0,0
511,-300,0,0,0,0,0,0,0,0,0,-1,1735,1324,0,0
518,-300,0,0,0,0,0,0,0,0,0,-1,1742,1324,0,0
525,-300,0,0,0,0,0,0,0,0,0,-1,1749,1324,0,0
532,-300,0,0,0,0,0,0,0,0,0,-1,1756,1324,0,0
539,-300,0,0,0,0,0,0,0,0,0,-1,1763,1324,0,0
546,-300,0,0,0,0,0,0,0,0,0,-1,1770,1324,0,0
553,-300,0,0,0,0,0,0,0,0,0,-1,1777,1324,0,0
560,-300,0,0,0,0,0,0,0,0,0,-1,1784,1324,0,0
567,-300,0,0,0,0,0,0,0,0,0,-1,1791,1324,0,0
574,-300,0,0,0,0,0,0,0,0,0,-1,1798,1324,0,0
581,-300,0,0,0,0,0,0,0,0,0,-1,1805,1324,0,0
588,-300,47.0767,3.70276,0,0,0,0,0,0,0,-1,1812,1324,47.0766,-3.70277
595,-300,46.3164,1.90491,0,0,0,0,0,0,0,-1,1819,1324,46.3164,-1.90488
602,-300,46.877,2.78809,0,0,0,0,0,0,0,-1,1826,1324,46.877,-2.78808
609,-300,46.7216,2.96008,0.00917442,-0.0315869,0.00788882,0.0106479,-0.0330604,0.184657,0.0263177,0.0499253,1833,1324,46.7216,-2.96006
616,-300,46.4467,3.23169,0,0,0,0,0,0,0,-1,1840,1324,46.4467,-3.23174
623,-300,46.2152,3.27954,0,0,0,0,0,0,0,-1,1847,1324,46.2152,-3.27959
630,-300,42.4099,3.9165,0,0,0,0,0,0,0,-1,1854,1324,42.4099,-3.91649
637,-300,31.1719,4.6366,0,0,0,0,0,0,0,-1,1861,1324,31.1718,-4.63665
644,-300,22.9836,3.44934,0,0,0,0,0,0,0,-1,1868,1324,22.9836,-3.4493
651,-300,25.5004,9.11853,0,0,0,0,0,0,0,-1,1875,1324,25.5004,-9.11851
658,-300,25.4012,9.20032,0,0,0,0,0,0,0,-1,1882,1324,25.4012,-9.20036
665,-300,32.0214,11.509,0,0,0,0,0,0,0,-1,1889,1324,32.0213,-11.509
672,-300,31.8765,10.9429,-0.011156,0.000923707,0.00493876,0.00268585,-0.0129182,1.22808,0.00963302,0.0213755,1896,1324,31.8764,-10.9429
679,-300,31.8805,10.4272,-0.00679582,-0.00122517,0.00455813,0.00133129,-0.00935227,1.05966,0.0067227,0.0128443,1903,1324,31.8805,-10.4273
686,-300,31.874,9.97913,-0.00319107,-0.00145265,0.00314899,0.000944889,-0.00558861,0.920058,0.00407736,0.0137151,1910,1324,31.874,-9.97918
693,-300,31.8451,9.53906,-0.00134803,-0.000961953,0.00180026,0.000655589,-0.00296558,0.838808,0.00222797,0.0117066,1917,1324,31.8451,-9.53906
700,-300,31.8414,9.06519,-0.00022298,-0.000627473,0.000986545,0.000581836,-0.00143229,0.684297,0.00119691,0.0125902,1924,1324,31.8414,-9.06521
707,-300,31.8441,8.61829,-0.000345342,-0.000532051,0.00093369,0.000499649,-0.00137704,0.735571,0.00112229,0.00870929,1931,1324,31.8442,-8.61828
714,-300,31.8252,8.21057,-0.00116546,-0.000649777,0.00141547,0.000531144,-0.00234638,0.875491,0.0017681,0.0105212,1938,1324,31.8252,-8.21055
721,-300,31.8163,7.75378,-0.00220958,-0.00086964,0.00202179,0.000590297,-0.00366952,0.945392,0.00266499,0.0119422,1945,1324,31.8163,-7.75379
728,-300,31.8242,7.25684,-0.00358163,-0.00122392,0.00276036,0.000598771,-0.00540432,0.987207,0.00381815,0.0152338,1952,1324,31.8243,-7.25683
735,-300,31.6477,7.05457,-0.00528102,-0.001666,0.0035634,0.000522102,-0.00746913,1.02011,0.00516226,0.0307063,1959,1324,31.6478,-7.05454
742,-300,31.6326,6.68945,0,0,0,0,0,0,0,-1,1966,1324,31.6326,-6.68944
749,-300,27.4065,5.9718,0,0,0,0,0,0,0,-1,1973,1324,27.4065,-5.97181
756,-300,22.1423,3.45642,0,0,0,0,0,0,0,-1,1980,1324,22.1423,-3.45638
763,-300,22.6136,5.1571,0,0,0,0,0,0,0,-1,1987,1324,22.6136,-5.15706
770,-300,24.859,4.77979,0,0,0,0,0,0,0,-1,1994,1324,24.859,-4.77972
777,-300,0,0,0,0,0,0,0,0,0,-1,2001,1324,0,0
784,-300,0,0,0,0,0,0,0,0,0,-1,2008,1324,0,0
791,-300,0,0,0,0,0,0,0,0,0,-1,2015,1324,0,0
798,-300,0,0,0,0,0,0,0,0,0,-1,2022,1324,0,0
805,-300,0,0,0,0,0,0,0,0,0,-1,2029,1324,0,0
812,-300,0,0,0,0,0,0,0,0,0,-1,2036,1324,0,0
-700,-307,0,0,0,0,0,0,0,0,0,-1,524,1331,0,0
-693,-307,0,0,0,0,0,0,0,0,0,-1,531,1331,0,0
-686,-307,0,0,0,0,0,0,0,0,0,-1,538,1331,0,0
-679,-307,0,0,0,0,0,0,0,0,0,-1,545,1331,0,0
-672,-307,0,0,0,0,0,0,0,0,0,-1,552,1331,0,0
-665,-307,0,0,0,0,0,0,0,0,0,-1,559,1331,0,0
-658,-307,0,0,0,0,0,0,0,0,0,-1,566,1331,0,0
-651,-307,-20.2972,-0.0720215,0,0,0,0,0,0,0,-1,573,1331,-20.2973,0.0720287
-644,-307,-20.7615,0.556152,0,0,0,0,0,0,0,-1,580,1331,-20.7615,-0.556159
-637,-307,-21.0822,1.21277,0,0,0,0,0,0,0,-1,587,1331,-21.0821,-1.21273
-630,-307,-12.0005,0.767212,0,0,0,0,0,0,0,-1,594,1331,-12.0005,-0.767266
-623,-307,-12.2128,2.93811,0,0,0,0,0,0,0,-1,601,1331,-12.2128,-2.93813
-616,-307,-12.6612,2.08289,0,0,0,0,0,0,0,-1,608,1331,-12.6612,-2.08293
-609,-307,-12.2767,1.83228,0,0,0,0,0,0,0,-1,615,1331,-12.2768,-1.83224
-602,-307,-17.717,4.22266,0,0,0,0,0,0,0,-1,622,1331,-17.717,-4.22267
-595,-307,-17.8438,4.88123,0.00483358,0.00548641,0.00770724,0.0128741,-0.00255415,0.806561,0.0095487,0.0414713,629,1331,-17.8438,-4.88127
-588,-307,-17.7866,5.46082,0.00383864,0.00403479,0.00513178,0.00906943,-0.00119601,0.794953,0.00648184,0.0212236,636,1331,-17.7866,-5.46087
-581,-307,-17.7819,5.93579,0.00320424,0.00289763,0.00341727,0.00647164,-0.00036977,0.762982,0.00444282,0.0160816,643,1331,-17.7818,-5.93582
-574,-307,-17.7653,6.39868,0.00276946,0.00192455,0.00217741,0.00456503,0.00012899,0.68958,0.00300128,0.0132696,650,1331,-17.7653,-6.39865
-567,-307,-17.782,6.91724,0.00257923,0.001072,0.00130982,0.00333676,0.00031447,0.524347,0.00212745,0.0136152,657,1331,-17.782,-6.9172
-560,-307,-17.7591,7.43359,0.00263559,0.000342575,0.000653525,0.00280877,0.000169395,0.259039,0.00181868,0.0149645,664,1331,-17.7591,-7.43362
-553,-307,-17.7794,7.91174,0.00293619,-0.000346742,0.000381102,0.00297985,-0.000390402,0.114065,0.00212867,0.0118768,671,1331,-17.7794,-7.91176
-546,-307,-17.8237,8.38184,0.00353883,-0.000901304,0.000317684,0.00356144,-0.000923918,0.071066,0.00273479,0.0108911,678,1331,-17.8237,-8.38181
-539,-307,-17.8093,8.90234,0.00459771,-0.00148874,0.000470714,0.0046339,-0.00152493,0.0767301,0.00370374,0.0156529,685,1331,-17.8093,-8.90229
-532,-307,-17.7761,9.42126,0,0,0,0,0,0,0,-1,692,1331,-17.7761,-9.42123
-525,-307,-13.2009,6.91309,0,0,0,0,0,0,0,-1,699,1331,-13.2009,-6.9131
-518,-307,-9.77777,-1.56653,0,0,0,0,0,0,0,-1,706,1331,-9.77777,1.56651
-511,-307,-12.5226,0.26709,0,0,0,0,0,0,0,-1,713,1331,-12.5226,-0.267038
-504,-307,-12.5913,-0.308105,0,0,0,0,0,0,0,-1,720,1331,-12.5913,0.308124
-497,-307,-13.8586,-0.115845,0,0,0,0,0,0,0,-1,727,1331,-13.8587,0.115861
-490,-307,-17.9429,0.982178,0,0,0,0,0,0,0,-1,734,1331,-17.9429,-0.982198
-483,-307,-18.1066,0.927612,0,0,0,0,0,0,0,-1,741,1331,-18.1066,-0.927609
-476,-307,-18.1288,1.1228,0,0,0,0,0,0,0,-1,748,1331,-18.1289,-1.12286
-469,-307,-18.2028,0.798584,0,0,0,0,0,0,0,-1,755,1331,-18.2027,-0.798546
-462,-307,0,0,0,0,0,0,0,0,0,-1,762,1331,0,0
-455,-307,0,0,0,0,0,0,0,0,0,-1,769,1331,0,0
-448,-307,0,0,0,0,0,0,0,0,0,-1,776,1331,0,0
-441,-307,0,0,0,0,0,0,0,0,0,-1,783,1331,0,0
-434,-307,0,0,0,0,0,0,0,0,0,-1,790,1331,0,0
-427,-307,0,0,0,0,0,0,0,0,0,-1,797,1331,0,0
-420,-307,0,0,0,0,0,0,0,0,0,-1,804,1331,0,0
-413,-307,0,0,0,0,0,0,0,0,0,-1,811,1331,0,0
-406,-307,0,0,0,0,0,0,0,0,0,-1,818,1331,0,0
-399,-307,0,0,0,0,0,0,0,0,0,-1,825,1331,0,0
-392,-307,0,0,0,0,0,0,0,0,0,-1,832,1331,0,0
-385,-307,0,0,0,0,0,0,0,0,0,-1,839,1331,0,0
-378,-307,0,0,0,0,0,0,0,0,0,-1,846,1331,0,0
-371,-307,0,0,0,0,0,0,0,0,0,-1,853,1331,0,0
-364,-307,0,0,0,0,0,0,0,0,0,-1,860,1331,0,0
-357,-307,0,0,0,0,0,0,0,0,0,-1,867,1331,0,0
-350,-307,0,0,0,0,0,0,0,0,0,-1,874,1331,0,0
-343,-307,0,0,0,0,0,0,0,0,0,-1,881,1331,0,0
-336,-307,0,0,0,0,0,0,0,0,0,-1,888,1331,0,0
-329,-307,0,0,0,0,0,0,0,0,0,-1,895,1331,0,0
-322,-307,0,0,0,0,0,0,0,0,0,-1,902,1331,0,0
-315,-307,0,0,0,0,0,0,0,0,0,-1,909,1331,0,0
-308,-307,0,0,0,0,0,0,0,0,0,-1,916,1331,0,0
-301,-307,0,0,0,0,0,0,0,0,0,-1,923,1331,0,0
-294,-307,0,0,0,0,0,0,0,0,0,-1,930,1331,0,0
-287,-307,0,0,0,0,0,0,0,0,0,-1,937,1331,0,0
-280,-307,0,0,0,0,0,0,0,0,0,-1,944,1331,0,0
-273,-307,0,0,0,0,0,0,0,0,0,-1,951,1331,0,0
-266,-307,0,0,0,0,0,0,0,0,0,-1,958,1331,0,0
-259,-307,0,0,0,0,0,0,0,0,0,-1,965,1331,0,0
-252,-307,0,0,0,0,0,0,0,0,0,-1,972,1331,0,0
-245,-307,0,0,0,0,0,0,0,0,0,-1,979,1331,0,0
-238,-307,0,0,0,0,0,0,0,0,0,-1,986,1331,0,0
-231,-307,0,0,0,0,0,0,0,0,0,-1,993,1331,0,0
-224,-307,0,0,0,0,0,0,0,0,0,-1,1000,1331,0,0
-217,-307,0,0,0,0,0,0,0,0,0,-1,1007,1331,0,0
-210,-307,0,0,0,0,0,0,0,0,0,-1,1014,1331,0,0
-203,-307,0,0,0,0,0,0,0,0,0,-1,1021,1331,0,0
-196,-307,0,0,0,0,0,0,0,0,0,-1,1028,1331,0,0
-189,-307,0,0,0,0,0,0,0,0,0,-1,1035,1331,0,0
-182,-307,0,0,0,0,0,0,0,0,0,-1,1042,1331,0,0
-175,-307,0,0,0,0,0,0,0,0,0,-1,1049,1331,0,0
-168,-307,0,0,0,0,0,0,0,0,0,-1,1056,1331,0,0
-161,-307,0,0,0,0,0,0,0,0,0,-1,1063,1331,0,0
-154,-307,0,0,0,0,0,0,0,0,0,-1,1070,1331,0,0
-147,-307,0,0,0,0,0,0,0,0,0,-1,1077,1331,0,0
-140,-307,0,0,0,0,0,0,0,0,0,-1,1084,1331,0,0
-133,-307,0,0,0,0,0,0,0,0,0,-1,1091,1331,0,0
-126,-307,0,0,0,0,0,0,0,0,0,-1,1098,1331,0,0
-119,-307,0,0,0,0,0,0,0,0,0,-1,1105,1331,0,0
-112,-307,0,0,0,0,0,0,0,0,0,-1,1112,1331,0,0
-105,-307,0,0,0,0,0,0,0,0,0,-1,1119,1331,0,0
-98,-307,0,0,0,0,0,0,0,0,0,-1,1126,1331,0,0
-91,-307,0,0,0,0,0,0,0,0,0,-1,1133,1331,0,0
-84,-307,0,0,0,0,0,0,0,0,0,-1,1140,1331,0,0
-77,-307,0,0,0,0,0,0,0,0,0,-1,1147,1331,0,0
-70,-307,0,0,0,0,0,0,0,0,0,-1,1154,1331,0,0
-63,-307,0,0,0,0,0,0,0,0,0,-1,1161,1331,0,0
-56,-307,0,0,0,0,0,0,0,0,0,-1,1168,1331,0,0
-49,-307,0,0,0,0,0,0,0,0,0,-1,1175,1331,0,0
-42,-307,0,0,0,0,0,0,0,0,0,-1,1182,1331,0,0
-35,-307,0,0,0,0,0,0,0,0,0,-1,1189,1331,0,0
-28,-307,0,0,0,0,0,0,0,0,0,-1,1196,1331,0,0
-21,-307,0,0,0,0,0,0,0,0,0,-1,1203,1331,0,0
-14,-307,0,0,0,0,0,0,0,0,0,-1,1210,1331,0,0
-7,-307,0,0,0,0,0,0,0,0,0,-1,1217,1331,0,0
0,-307,0,0,0,0,0,0,0,0,0,-1,1224,1331,0,0
7,-307,0,0,0,0,0,0,0,0,0,-1,1231,1331,0,0
14,-307,0,0,0,0,0,0,0,0,0,-1,1238,1331,0,0
21,-307,0,0,0,0,0,0,0,0,0,-1,1245,1331,0,0
28,-307,0,0,0,0,0,0,0,0,0,-1,1252,1331,0,0
35,-307,0,0,0,0,0,0,0,0,0,-1,1259,1331,0,0
42,-307,0,0,0,0,0,0,0,0,0,-1,1266,1331,0,0
49,-307,0,0,0,0,0,0,0,0,0,-1,1273,1331,0,0
56,-307,0,0,0,0,0,0,0,0,0,-1,1280,1331,0,0
63,-307,0,0,0,0,0,0,0,0,0,-1,1287,1331,0,0
70,-307,0,0,0,0,0,0,0,0,0,-1,1294,1331,0,0
77,-307,0,0,0,0,0,0,0,0,0,-1,1301,1331,0,0
84,-307,0,0,0,0,0,0,0,0,0,-1,1308,1331,0,0
91,-307,0,0,0,0,0,0,0,0,0,-1,1315,1331,0,0
98,-307,0,0,0,0,0,0,0,0,0,-1,1322,1331,0,0
105,-307,0,0,0,0,0,0,0,0,0,-1,1329,1331,0,0
112,-307,0,0,0,0,0,0,0,0,0,-1,1336,1331,0,0
119,-307,0,0,0,0,0,0,0,0,0,-1,1343,1331,0,0
126,-307,0,0,0,0,0,0,0,0,0,-1,1350,1331,0,0
133,-307,0,0,0,0,0,0,0,0,0,-1,1357,1331,0,0
140,-307,0,0,0,0,0,0,0,0,0,-1,1364,1331,0,0
147,-307,0,0,0,0,0,0,0,0,0,-1,1371,1331,0,0
154,-307,0,0,0,0,0,0,0,0,0,-1,1378,1331,0,0
161,-307,0,0,0,0,0,0,0,0,0,-1,1385,1331,0,0
168,-307,0,0,0,0,0,0,0,0,0,-1,1392,1331,0,0
175,-307,0,0,0,0,0,0,0,0,0,-1,1399,1331,0,0
182,-307,0,0,0,0,0,0,0,0,0,-1,1406,1331,0,0
189,-307,0,0,0,0,0,0,0,0,0,-1,1413,1331,0,0
196,-307,0,0,0,0,0,0,0,0,0,-1,1420,1331,0,0
203,-307,0,0,0,0,0,0,0,0,0,-1,1427,1331,0,0
210,-307,0,0,0,0,0,0,0,0,0,-1,1434,1331,0,0
217,-307,0,0,0,0,0,0,0,0,0,-1,1441,1331,0,0
224,-307,0,0,0,0,0,0,0,0,0,-1,1448,1331,0,0
231,-307,0,0,0,0,0,0,0,0,0,-1,1455,1331,0,0
238,-307,0,0,0,0,0,0,0,0,0,-1,1462,1331,0,0
245,-307,0,0,0,0,0,0,0,0,0,-1,1469,1331,0,0
252,-307,0,0,0,0,0,0,0,0,0,-1,1476,1331,0,0
259,-307,0,0,0,0,0,0,0,0,0,-1,1483,1331,0,0
266,-307,0,0,0,0,0,0,0,0,0,-1,1490,1331,0,0
273,-307,0,0,0,0,0,0,0,0,0,-1,1497,1331,0,0
280,-307,0,0,0,0,0,0,0,0,0,-1,1504,1331,0,0
287,-307,0,0,0,0,0,0,0,0,0,-1,1511,1331,0,0
294,-307,0,0,0,0,0,0,0,0,0,-1,1518,1331,0,0
301,-307,0,0,0,0,0,0,0,0,0,-1,1525,1331,0,0
308,-307,0,0,0,0,0,0,0,0,0,-1,1532,1331,0,0
315,-307,0,0,0,0,0,0,0,0,0,-1,1539,1331,0,0
322,-307,0,0,0,0,0,0,0,0,0,-1,1546,1331,0,0
329,-307,0,0,0,0,0,0,0,0,0,-1,1553,1331,0,0
336,-307,0,0,0,0,0,0,0,0,0,-1,1560,1331,0,0
343,-307,0,0,0,0,0,0,0,0,0,-1,1567,1331,0,0
350,-307,0,0,0,0,0,0,0,0,0,-1,1574,1331,0,0
357,-307,0,0,0,0,0,0,0,0,0,-1,1581,1331,0,0
364,-307,0,0,0,0,0,0,0,0,0,-1,1588,1331,0,0
371,-307,0,0,0,0,0,0,0,0,0,-1,1595,1331,0,0
378,-307,0,0,0,0,0,0,0,0,0,-1,1602,1331,0,0
385,-307,0,0,0,0,0,0,0,0,0,-1,1609,1331,0,0
392,-307,0,0,0,0,0,0,0,0,0,-1,1616,1331,0,0
399,-307,0,0,0,0,0,0,0,0,0,-1,1623,1331,0,0
406,-307,0,0,0,0,0,0,0,0,0,-1,1630,1331,0,0
413,-307,0,0,0,0,0,0,0,0,0,-1,1637,1331,0,0
420,-307,0,0,0,0,0,0,0,0,0,-1,1644,1331,0,0
427,-307,0,0,0,0,0,0,0,0,0,-1,1651,1331,0,0
434,-307,0,0,0,0,0,0,0,0,0,-1,1658,1331,0,0
441,-307,0,0,0,0,0,0,0,0,0,-1,1665,1331,0,0
448,-307,0,0,0,0,0,0,0,0,0,-1,1672,1331,0,0
455,-307,0,0,0,0,0,0,0,0,0,-1,1679,1331,0,0
462,-307,0,0,0,0,0,0,0,0,0,-1,1686,1331,0,0
469,-307,0,0,0,0,0,0,0,0,0,-1,1693,1331,0,0
476,-307,0,0,0,0,0,0,0,0,0,-1,1700,1331,0,0
483,-307,0,0,0,0,0,0,0,0,0,-1,1707,1331,0,0
490,-307,0,0,0,0,0,0,0,0,0,-1,1714,1331,0,0
497,-307,0,0,0,0,0,0,0,0,0,-1,1721,1331,0,0
504,-307,0,0,0,0,0,0,0,0,0,-1,1728,1331,0,0
511,-307,0,0,0,0,0,0,0,0,0,-1,1735,1331,0,0
518,-307,0,0,0,0,0,0,0,0,0,-1,1742,1331,0,0
525,-307,0,0,0,0,0,0,0,0,0,-1,1749,1331,0,0
532,-307,0,0,0,0,0,0,0,0,0,-1,1756,1331,0,0
539,-307,0,0,0,0,0,0,0,0,0,-1,1763,1331,0,0
546,-307,0,0,0,0,0,0,0,0,0,-1,1770,1331,0,0
553,-307,0,0,0,0,0,0,0,0,0,-1,1777,1331,0,0
560,-307,0,0,0,0,0,0,0,0,0,-1,1784,1331,0,0
567,-307,0,0,0,0,0,0,0,0,0,-1,1791,1331,0,0
574,-307,0,0,0,0,0,0,0,0,0,-1,1798,1331,0,0
581,-307,0,0,0,0,0,0,0,0,0,-1,1805,1331,0,0
588,-307,46.4767,3.88977,0,0,0,0,0,0,0,-1,1812,1331,46.4767,-3.88979
595,-307,46.8871,4.13879,0,0,0,0,0,0,0,-1,1819,1331,46.8871,-4.13874
602,-307,46.9493,3.95947,0.0234503,-0.0457676,0.0174767,0.0276126,-0.0499299,0.23381,0.045383,0.0483217,1826,1331,46.9493,-3.95953
609,-307,46.9755,3.73828,0.0150174,-0.0370195,0.0110676,0.0172736,-0.0392756,0.201095,0.0334623,0.0486268,1833,1331,46.9755,-3.73831
616,-307,47.0157,3.52185,0,0,0,0,0,0,0,-1,1840,1331,47.0157,-3.52184
623,-307,42.6384,2.33337,0,0,0,0,0,0,0,-1,1847,1331,42.6385,-2.33341
630,-307,29.8116,1.51184,0,0,0,0,0,0,0,-1,1854,1331,29.8116,-1.51188
637,-307,24.6407,4.09106,0,0,0,0,0,0,0,-1,1861,1331,24.6407,-4.09103
644,-307,22.6885,5.80408,0,0,0,0,0,0,0,-1,1868,1331,22.6884,-5.80408
651,-307,17.5013,5.80078,0,0,0,0,0,0,0,-1,1875,1331,17.5014,-5.80072
658,-307,31.7623,11.9402,0,0,0,0,0,0,0,-1,1882,1331,31.7623,-11.9402
665,-307,31.5034,11.3632,-0.0122291,0.00390143,0.00215209,0.00418362,-0.0125113,1.44042,0.0100306,0.0401475,1889,1331,31.5034,-11.3632
672,-307,31.4312,10.9204,-0.00848743,0.00114798,0.00314567,0.00208401,-0.00942347,1.28158,0.00707997,0.0135784,1896,1331,31.4311,-10.9204
679,-307,31.4125,10.4629,-0.00451223,-0.000721647,0.00284433,0.000801009,-0.00603488,1.07929,0.00431511,0.0101719,1903,1331,31.4125,-10.4629
686,-307,31.3912,10.011,-0.00177173,-0.000925924,0.00189844,0.000596149,-0.0032938,0.894991,0.0024192,0.0102466,1910,1331,31.3912,-10.011
693,-307,31.3805,9.5603,-0.00058736,-0.000688775,0.00110337,0.000466467,-0.0017426,0.762436,0.00134447,0.0123615,1917,1331,31.3805,-9.5603
700,-307,31.3914,9.07935,-2.84515e-05,-0.000534138,0.000720382,0.000482171,-0.00104476,0.616622,0.000901299,0.0134875,1924,1331,31.3914,-9.07929
707,-307,31.3981,8.61145,-0.000373264,-0.000540775,0.000902832,0.00044969,-0.00136373,0.739146,0.00109041,0.0143751,1931,1331,31.3981,-8.61148
714,-307,31.3597,8.22375,-0.00112387,-0.000670385,0.00134808,0.000469887,-0.00226414,0.868717,0.001688,0.0130256,1938,1331,31.3597,-8.22374
721,-307,31.3633,7.78271,-0.002124,-0.000945101,0.00196034,0.000512489,-0.00358159,0.931442,0.00257561,0.0167315,1945,1331,31.3633,-7.78266
728,-307,31.3408,7.47205,-0.00349151,-0.00142558,0.00273921,0.000468961,-0.00538605,0.965705,0.00375679,0.043786,1952,1331,31.3408,-7.472
735,-307,31.3998,6.94031,0,0,0,0,0,0,0,-1,1959,1331,31.3998,-6.94034
742,-307,26.677,6.09192,0,0,0,0,0,0,0,-1,1966,1331,26.677,-6.0919
749,-307,26.7727,5.9032,0,0,0,0,0,0,0,-1,1973,1331,26.7727,-5.90323
756,-307,27.1556,5.74756,0,0,0,0,0,0,0,-1,1980,1331,27.1557,-5.7475
763,-307,18.7522,3.55298,0,0,0,0,0,0,0,-1,1987,1331,18.7522,-3.55301
770,-307,0,0,0,0,0,0,0,0,0,-1,1994,1331,0,0
777,-307,0,0,0,0,0,0,0,0,0,-1,2001,1331,0,0
784,-307,0,0,0,0,0,0,0,0,0,-1,2008,1331,0,0
791,-307,0,0,0,0,0,0,0,0,0,-1,2015,1331,0,0
798,-307,0,0,0,0,0,0,0,0,0,-1,2022,1331,0,0
805,-307,0,0,0,0,0,0,0,0,0,-1,2029,1331,0,0
812,-307,0,0,0,0,0,0,0,0,0,-1,2036,1331,0,0
-700,-314,0,0,0,0,0,0,0,0,0,-1,524,1338,0,0
-693,-314,0,0,0,0,0,0,0,0,0,-1,531,1338,0,0
-686,-314,0,0,0,0,0,0,0,0,0,-1,538,1338,0,0
-679,-314,0,0,0,0,0,0,0,0,0,-1,545,1338,0,0
-672,-314,0,0,0,0,0,0,0,0,0,-1,552,1338,0,0
-665,-314,0,0,0,0,0,0,0,0,0,-1,559,1338,0,0
-658,-314,0,0,0,0,0,0,0,0,0,-1,566,1338,0,0
-651,-314,0,0,0,0,0,0,0,0,0,-1,573,1338,0,0
-644,-314,-20.9896,-0.0299072,0,0,0,0,0,0,0,-1,580,1338,-20.9896,0.0299587
-637,-314,-18.8677,6.62646,0,0,0,0,0,0,0,-1,587,1338,-18.8677,-6.62651
-630,-314,-13.2771,2.98938,0,0,0,0,0,0,0,-1,594,1338,-13.2771,-2.98943
-623,-314,-13.3542,3.00903,0,0,0,0,0,0,0,-1,601,1338,-13.3542,-3.00907
-616,-314,-9.93311,1.15088,0,0,0,0,0,0,0,-1,608,1338,-9.93308,-1.15093
-609,-314,-9.4361,2.86292,0,0,0,0,0,0,0,-1,615,1338,-9.43612,-2.86286
-602,-314,-11.8027,2.42798,0,0,0,0,0,0,0,-1,622,1338,-11.8027,-2.42802
-595,-314,-17.3281,4.55249,0,0,0,0,0,0,0,-1,629,1338,-17.3281,-4.55244
-588,-314,-17.3206,5.38904,0.00438761,0.0041534,0.00508541,0.00935726,-0.000816255,0.773887,0.0065273,0.0304684,636,1338,-17.3206,-5.38905
-581,-314,-17.2543,5.92383,0.00358583,0.00305099,0.00339702,0.00672594,-8.91145e-05,0.746118,0.00451396,0.0129326,643,1338,-17.2543,-5.92386
-574,-314,-17.2838,6.39624,0.00300892,0.00211138,0.00220094,0.00480637,0.000313923,0.684828,0.0031049,0.0131435,650,1338,-17.2838,-6.39619
-567,-314,-17.251,6.91833,0.00272007,0.00130269,0.00138369,0.003566,0.000456763,0.548728,0.00224065,0.016084,657,1338,-17.251,-6.91832
-560,-314,-17.2176,7.45251,0.00272557,0.000630845,0.00078795,0.00298887,0.000367545,0.322492,0.00188206,0.0165613,664,1338,-17.2176,-7.4525
-553,-314,-17.2876,7.92944,0.00298495,-2.75844e-05,0.000550128,0.00308227,-0.000124901,0.175087,0.00209772,0.0185586,671,1338,-17.2876,-7.92943
-546,-314,-17.3507,8.42432,0.00358108,-0.000572623,0.000531453,0.003648,-0.000639543,0.125259,0.00267083,0.0189094,678,1338,-17.3507,-8.42437
-539,-314,-17.3313,8.94141,0.00460719,-0.00109162,0.000721461,0.00469711,-0.00118154,0.123993,0.00359065,0.0175626,685,1338,-17.3313,-8.94137
-532,-314,-17.2696,9.40308,0,0,0,0,0,0,0,-1,692,1338,-17.2696,-9.40307
-525,-314,-13.3017,7.50671,0,0,0,0,0,0,0,-1,699,1338,-13.3017,-7.50669
-518,-314,-8.52753,4.70032,0,0,0,0,0,0,0,-1,706,1338,-8.52755,-4.70034
-511,-314,-11.8597,0.384888,0,0,0,0,0,0,0,-1,713,1338,-11.8597,-0.384927
-504,-314,-11.4322,-0.187378,0,0,0,0,0,0,0,-1,720,1338,-11.4322,0.187381
-497,-314,-11.0047,-0.759644,0,0,0,0,0,0,0,-1,727,1338,-11.0047,0.759689
-490,-314,-18.5143,0.471069,0,0,0,0,0,0,0,-1,734,1338,-18.5143,-0.47103
-483,-314,-17.8528,0.577271,0,0,0,0,0,0,0,-1,741,1338,-17.8528,-0.577327
-476,-314,-17.714,0.665405,0,0,0,0,0,0,0,-1,748,1338,-17.714,-0.665388
-469,-314,-17.7246,0.794678,0,0,0,0,0,0,0,-1,755,1338,-17.7246,-0.794645
-462,-314,0,0,0,0,0,0,0,0,0,-1,762,1338,0,0
-455,-314,0,0,0,0,0,0,0,0,0,-1,769,1338,0,0
-448,-314,0,0,0,0,0,0,0,0,0,-1,776,1338,0,0
-441,-314,0,0,0,0,0,0,0,0,0,-1,783,1338,0,0
-434,-314,0,0,0,0,0,0,0,0,0,-1,790,1338,0,0
-427,-314,0,0,0,0,0,0,0,0,0,-1,797,1338,0,0
-420,-314,0,0,0,0,0,0,0,0,0,-1,804,1338,0,0
-413,-314,0,0,0,0,0,0,0,0,0,-1,811,1338,0,0
-406,-314,0,0,0,0,0,0,0,0,0,-1,818,1338,0,0
-399,-314,0,0,0,0,0,0,0,0,0,-1,825,1338,0,0
-392,-314,0,0,0,0,0,0,0,0,0,-1,832,1338,0,0
-385,-314,0,0,0,0,0,0,0,0,0,-1,839,1338,0,0
-378,-314,0,0,0,0,0,0,0,0,0,-1,846,1338,0,0
-371,-314,0,0,0,0,0,0,0,0,0,-1,853,1338,0,0
-364,-314,0,0,0,0,0,0,0,0,0,-1,860,1338,0,0
-357,-314,0,0,0,0,0,0,0,0,0,-1,867,1338,0,0
-350,-314,0,0,0,0,0,0,0,0,0,-1,874,1338,0,0
-343,-314,0,0,0,0,0,0,0,0,0,-1,881,1338,0,0
-336,-314,0,0,0,0,0,0,0,0,0,-1,888,1338,0,0
-329,-314,0,0,0,0,0,0,0,0,0,-1,895,1338,0,0
-322,-314,0,0,0,0,0,0,0,0,0,-1,902,1338,0,0
-315,-314,0,0,0,0,0,0,0,0,0,-1,909,1338,0,0
-308,-314,0,0,0,0,0,0,0,0,0,-1,916,1338,0,0
-301,-314,0,0,0,0,0,0,0,0,0,-1,923,1338,0,0
-294,-314,0,0,0,0,0,0,0,0,0,-1,930,1338,0,0
-287,-314,0,0,0,0,0,0,0,0,0,-1,937,1338,0,0
-280,-314,0,0,0,0,0,0,0,0,0,-1,944,1338,0,0
-273,-314,0,0,0,0,0,0,0,0,0,-1,951,1338,0,0
-266,-314,0,0,0,0,0,0,0,0,0,-1,958,1338,0,0
-259,-314,0,0,0,0,0,0,0,0,0,-1,965,1338,0,0
-252,-314,0,0,0,0,0,0,0,0,0,-1,972,1338,0,0
-245,-314,0,0,0,0,0,0,0,0,0,-1,979,1338,0,0
-238,-314,0,0,0,0,0,0,0,0,0,-1,986,1338,0,0
-231,-314,0,0,0,0,0,0,0,0,0,-1,993,1338,0,0
-224,-314,0,0,0,0,0,0,0,0,0,-1,1000,1338,0,0
-217,-314,0,0,0,0,0,0,0,0,0,-1,1007,1338,0,0
-210,-314,0,0,0,0,0,0,0,0,0,-1,1014,1338,0,0
-203,-314,0,0,0,0,0,0,0,0,0,-1,1021,1338,0,0
-196,-314,0,0,0,0,0,0,0,0,0,-1,1028,1338,0,0
-189,-314,0,0,0,0,0,0,0,0,0,-1,1035,1338,0,0
-182,-314,0,0,0,0,0,0,0,0,0,-1,1042,1338,0,0
-175,-314,0,0,0,0,0,0,0,0,0,-1,1049,1338,0,0
-168,-314,0,0,0,0,0,0,0,0,0,-1,1056,1338,0,0
-161,-314,0,0,0,0,0,0,0,0,0,-1,1063,1338,0,0
-154,-314,0,0,0,0,0,0,0,0,0,-1,1070,1338,0,0
-147,-314,0,0,0,0,0,0,0,0,0,-1,1077,1338,0,0
-140,-314,0,0,0,0,0,0,0,0,0,-1,1084,1338,0,0
-133,-314,0,0,0,0,0,0,0,0,0,-1,1091,1338,0,0
-126,-314,0,0,0,0,0,0,0,0,0,-1,1098,1338,0,0
-119,-314,0,0,0,0,0,0,0,0,0,-1,1105,1338,0,0
-112,-314,0,0,0,0,0,0,0,0,0,-1,1112,1338,0,0
-105,-314,0,0,0,0,0,0,0,0,0,-1,1119,1338,0,0
-98,-314,0,0,0,0,0,0,0,0,0,-1,1126,1338,0,0
-91,-314,0,0,0,0,0,0,0,0,0,-1,1133,1338,0,0
-84,-314,0,0,0,0,0,0,0,0,0,-1,1140,1338,0,0
-77,-314,0,0,0,0,0,0,0,0,0,-1,1147,1338,0,0
-70,-314,0,0,0,0,0,0,0,0,0,-1,1154,1338,0,0
-63,-314,0,0,0,0,0,0,0,0,0,-1,1161,1338,0,0
-56,-314,0,0,0,0,0,0,0,0,0,-1,1168,1338,0,0
-49,-314,0,0,0,0,0,0,0,0,0,-1,1175,1338,0,0
-42,-314,0,0,0,0,0,0,0,0,0,-1,1182,1338,0,0
-35,-314,0,0,0,0,0,0,0,0,0,-1,1189,1338,0,0
-28,-314,0,0,0,0,0,0,0,0,0,-1,1196,1338,0,0
-21,-314,0,0,0,0,0,0,0,0,0,-1,1203,1338,0,0
-14,-314,0,0,0,0,0,0,0,0,0,-1,1210,1338,0,0
-7,-314,0,0,0,0,0,0,0,0,0,-1,1217,1338,0,0
0,-314,0,0,0,0,0,0,0,0,0,-1,1224,1338,0,0
7,-314,0,0,0,0,0,0,0,0,0,-1,1231,1338,0,0
14,-314,0,0,0,0,0,0,0,0,0,-1,1238,1338,0,0
21,-314,0,0,0,0,0,0,0,0,0,-1,1245,1338,0,0
28,-314,0,0,0,0,0,0,0,0,0,-1,1252,1338,0,0
35,-314,0,0,0,0,0,0,0,0,0,-1,1259,1338,0,0
42,-314,0,0,0,0,0,0,0,0,0,-1,1266,1338,0,0
49,-314,0,0,0,0,0,0,0,0,0,-1,1273,1338,0,0
56,-314,0,0,0,0,0,0,0,0,0,-1,1280,1338,0,0
63,-314,0,0,0,0,0,0,0,0,0,-1,1287,1338,0,0
70,-314,0,0,0,0,0,0,0,0,0,-1,1294,1338,0,0
77,-314,0,0,0,0,0,0,0,0,0,-1,1301,1338,0,0
84,-314,0,0,0,0,0,0,0,0,0,-1,1308,1338,0,0
91,-314,0,0,0,0,0,0,0,0,0,-1,1315,1338,0,0
98,-314,0,0,0,0,0,0,0,0,0,-1,1322,1338,0,0
105,-314,0,0,0,0,0,0,0,0,0,-1,1329,1338,0,0
112,-314,0,0,0,0,0,0,0,0,0,-1,1336,1338,0,0
119,-314,0,0,0,0,0,0,0,0,0,-1,1343,1338,0,0
126,-314,0,0,0,0,0,0,0,0,0,-1,1350,1338,0,0
133,-314,0,0,0,0,0,0,0,0,0,-1,1357,1338,0,0
140,-314,0,0,0,0,0,0,0,0,0,-1,1364,1338,0,0
147,-314,0,0,0,0,0,0,0,0,0,-1,1371,1338,0,0
154,-314,0,0,0,0,0,0,0,0,0,-1,1378,1338,0,0
161,-314,0,0,0,0,0,0,0,0,0,-1,1385,1338,0,0
168,-314,0,0,0,0,0,0,0,0,0,-1,1392,1338,0,0
175,-314,0,0,0,0,0,0,0,0,0,-1,1399,1338,0,0
182,-314,0,0,0,0,0,0,0,0,0,-1,1406,1338,0,0
189,-314,0,0,0,0,0,0,0,0,0,-1,1413,1338,0,0
196,-314,0,0,0,0,0,0,0,0,0,-1,1420,1338,0,0
203,-314,0,0,0,0,0,0,0,0,0,-1,1427,1338,0,0
210,-314,0,0,0,0,0,0,0,0,0,-1,1434,1338,0,0
217,-314,0,0,0,0,0,0,0,0,0,-1,1441,1338,0,0
224,-314,0,0,0,0,0,0,0,0,0,-1,1448,1338,0,0
231,-314,0,0,0,0,0,0,0,0,0,-1,1455,1338,0,0
238,-314,0,0,0,0,0,0,0,0,0,-1,1462,1338,0,0
245,-314,0,0,0,0,0,0,0,0,0,-1,1469,1338,0,0
252,-314,0,0,0,0,0,0,0,0,0,-1,1476,1338,0,0
259,-314,0,0,0,0,0,0,0,0,0,-1,1483,1338,0,0
266,-314,0,0,0,0,0,0,0,0,0,-1,1490,1338,0,0
273,-314,0,0,0,0,0,0,0,0,0,-1,1497,1338,0,0
280,-314,0,0,0,0,0,0,0,0,0,-1,1504,1338,0,0
287,-314,0,0,0,0,0,0,0,0,0,-1,1511,1338,0,0
294,-314,0,0,0,0,0,0,0,0,0,-1,1518,1338,0,0
301,-314,0,0,0,0,0,0,0,0,0,-1,1525,1338,0,0
308,-314,0,0,0,0,0,0,0,0,0,-1,1532,1338,0,0
315,-314,0,0,0,0,0,0,0,0,0,-1,1539,1338,0,0
322,-314,0,0,0,0,0,0,0,0,0,-1,1546,1338,0,0
329,-314,0,0,0,0,0,0,0,0,0,-1,1553,1338,0,0
336,-314,0,0,0,0,0,0,0,0,0,-1,1560,1338,0,0
343,-314,0,0,0,0,0,0,0,0,0,-1,1567,1338,0,0
350,-314,0,0,0,0,0,0,0,0,0,-1,1574,1338,0,0
357,-314,0,0,0,0,0,0,0,0,0,-1,1581,1338,0,0
364,-314,0,0,0,0,0,0,0,0,0,-1,1588,1338,0,0
371,-314,0,0,0,0,0,0,0,0,0,-1,1595,1338,0,0
378,-314,0,0,0,0,0,0,0,0,0,-1,1602,1338,0,0
385,-314,0,0,0,0,0,0,0,0,0,-1,1609,1338,0,0
392,-314,0,0,0,0,0,0,0,0,0,-1,1616,1338,0,0
399,-314,0,0,0,0,0,0,0,0,0,-1,1623,1338,0,0
406,-314,0,0,0,0,0,0,0,0,0,-1,1630,1338,0,0
413,-314,0,0,0,0,0,0,0,0,0,-1,1637,1338,0,0
420,-314,0,0,0,0,0,0,0,0,0,-1,1644,1338,0,0
427,-314,0,0,0,0,0,0,0,0,0,-1,1651,1338,0,0
434,-314,0,0,0,0,0,0,0,0,0,-1,1658,1338,0,0
441,-314,0,0,0,0,0,0,0,0,0,-1,1665,1338,0,0
448,-314,0,0,0,0,0,0,0,0,0,-1,1672,1338,0,0
455,-314,0,0,0,0,0,0,0,0,0,-1,1679,1338,0,0
462,-314,0,0,0,0,0,0,0,0,0,-1,1686,1338,0,0
469,-314,0,0,0,0,0,0,0,0,0,-1,1693,1338,0,0
476,-314,0,0,0,0,0,0,0,0,0,-1,1700,1338,0,0
483,-314,0,0,0,0,0,0,0,0,0,-1,1707,1338,0,0
490,-314,0,0,0,0,0,0,0,0,0,-1,1714,1338,0,0
497,-314,0,0,0,0,0,0,0,0,0,-1,1721,1338,0,0
504,-314,0,0,0,0,0,0,0,0,0,-1,1728,1338,0,0
511,-314,0,0,0,0,0,0,0,0,0,-1,1735,1338,0,0
518,-314,0,0,0,0,0,0,0,0,0,-1,1742,1338,0,0
525,-314,0,0,0,0,0,0,0,0,0,-1,1749,1338,0,0
532,-314,0,0,0,0,0,0,0,0,0,-1,1756,1338,0,0
539,-314,0,0,0,0,0,0,0,0,0,-1,1763,1338,0,0
546,-314,0,0,0,0,0,0,0,0,0,-1,1770,1338,0,0
553,-314,0,0,0,0,0,0,0,0,0,-1,1777,1338,0,0
560,-314,0,0,0,0,0,0,0,0,0,-1,1784,1338,0,0
567,-314,0,0,0,0,0,0,0,0,0,-1,1791,1338,0,0
574,-314,0,0,0,0,0,0,0,0,0,-1,1798,1338,0,0
581,-314,45.8688,3.97046,0.0399374,-0.0715316,0.0726704,0.0757852,-0.107379,0.458268,0.106273,0.0464345,1805,1338,45.8688,-3.9704
588,-314,46.0762,3.99866,0,0,0,0,0,0,0,-1,1812,1338,46.0761,-3.9987
595,-314,46.4777,4.11816,0.0378243,-0.0596451,0.03455,0.0488288,-0.0706496,0.308351,0.0693633,0.0448446,1819,1338,46.4777,-4.11811
602,-314,46.9233,4.35315,0.0294912,-0.0511094,0.0222184,0.0352102,-0.0568283,0.251928,0.0536248,0.0442691,1826,1338,46.9233,-4.35316
609,-314,47.2548,4.44214,0.0211634,-0.0415572,0.0147614,0.0244638,-0.0448576,0.219969,0.040596,0.0477614,1833,1338,47.2548,-4.44214
616,-314,47.3942,4.18262,0,0,0,0,0,0,0,-1,1840,1338,47.3942,-4.18265
623,-314,38.7728,2.71741,0,0,0,0,0,0,0,-1,1847,1338,38.7728,-2.71737
630,-314,29.4308,6.23206,0,0,0,0,0,0,0,-1,1854,1338,29.4308,-6.23202
637,-314,22.1349,5.16418,0,0,0,0,0,0,0,-1,1861,1338,22.1349,-5.16414
644,-314,18.7517,6.2605,0,0,0,0,0,0,0,-1,1868,1338,18.7517,-6.26053
651,-314,23.1317,8.005,0,0,0,0,0,0,0,-1,1875,1338,23.1317,-8.00506
658,-314,31.0083,11.8728,0,0,0,0,0,0,0,-1,1882,1338,31.0083,-11.8727
665,-314,30.9474,11.4138,-0.0093269,0.00318472,0.000134721,0.00318617,-0.00932835,1.56003,0.00750974,0.0263482,1889,1338,30.9474,-11.4139
672,-314,30.9629,10.9669,-0.00562142,0.000726843,0.00111933,0.000918421,-0.005813,1.40128,0.00421496,0.0125551,1896,1338,30.9628,-10.9669
679,-314,30.9576,10.4907,-0.00248049,-0.000590229,0.00115687,-4.14957e-05,-0.00302923,1.1279,0.00200579,0.00988736,1903,1338,30.9576,-10.4908
686,-314,30.915,10.0365,-0.000654176,-0.000605707,0.000808306,0.000178727,-0.00143861,0.800385,0.00102386,0.0120265,1910,1338,30.915,-10.0365
693,-314,30.894,9.57788,3.71383e-05,-0.000489191,0.000513586,0.000351058,-0.00080311,0.548637,0.000683184,0.0124658,1917,1338,30.894,-9.57783
700,-314,30.9115,9.09058,0.000235592,-0.000416321,0.000463716,0.000476451,-0.00065718,0.479056,0.000657269,0.0138147,1924,1338,30.9115,-9.09059
707,-314,30.9287,8.64453,-0.00018353,-0.000443493,0.000747586,0.00044529,-0.00107231,0.699325,0.000900772,0.0143847,1931,1338,30.9287,-8.6445
714,-314,30.8949,8.2373,-0.000849128,-0.000573032,0.00115486,0.000452006,-0.00187417,0.844884,0.00142423,0.0125548,1938,1338,30.8948,-8.23731
721,-314,30.8501,7.8241,-0.00179829,-0.000895246,0.0017848,0.000494263,-0.0031878,0.90929,0.00230767,0.0258972,1945,1338,30.8502,-7.82406
728,-314,30.8958,7.40442,0,0,0,0,0,0,0,-1,1952,1338,30.8958,-7.40439
735,-314,26.3665,6.21582,0,0,0,0,0,0,0,-1,1959,1338,26.3664,-6.21581
742,-314,26.2235,6.0166,0,0,0,0,0,0,0,-1,1966,1338,26.2235,-6.01662
749,-314,26.2223,5.47046,0,0,0,0,0,0,0,-1,1973,1338,26.2223,-5.47041
756,-314,24.2521,5.93408,0,0,0,0,0,0,0,-1,1980,1338,24.252,-5.93413
763,-314,19.2207,4.07239,0,0,0,0,0,0,0,-1,1987,1338,19.2206,-4.07239
770,-314,0,0,0,0,0,0,0,0,0,-1,1994,1338,0,0
777,-314,0,0,0,0,0,0,0,0,0,-1,2001,1338,0,0
784,-314,0,0,0,0,0,0,0,0,0,-1,2008,1338,0,0
791,-314,0,0,0,0,0,0,0,0,0,-1,2015,1338,0,0
798,-314,0,0,0,0,0,0,0,0,0,-1,2022,1338,0,0
805,-314,0,0,0,0,0,0,0,0,0,-1,2029,1338,0,0
812,-314,0,0,0,0,0,0,0,0,0,-1,2036,1338,0,0
-700,-321,0,0,0,0,0,0,0,0,0,-1,524,1345,0,0
-693,-321,0,0,0,0,0,0,0,0,0,-1,531,1345,0,0
-686,-321,0,0,0,0,0,0,0,0,0,-1,538,1345,0,0
-679,-321,0,0,0,0,0,0,0,0,0,-1,545,1345,0,0
-672,-321,0,0,0,0,0,0,0,0,0,-1,552,1345,0,0
-665,-321,0,0,0,0,0,0,0,0,0,-1,559,1345,0,0
-658,-321,0,0,0,0,0,0,0,0,0,-1,566,1345,0,0
-651,-321,0,0,0,0,0,0,0,0,0,-1,573,1345,0,0
-644,-321,-17.2769,5.65454,0,0,0,0,0,0,0,-1,580,1345,-17.2768,-5.65454
-637,-321,-13.3991,3.59241,0,0,0,0,0,0,0,-1,587,1345,-13.3991,-3.59236
-630,-321,-13.2958,3.65039,0,0,0,0,0,0,0,-1,594,1345,-13.2958,-3.65042
-623,-321,-13.2242,3.14148,0,0,0,0,0,0,0,-1,601,1345,-13.2243,-3.14146
-616,-321,-11.6754,3.13794,0,0,0,0,0,0,0,-1,608,1345,-11.6754,-3.13789
-609,-321,-7.95209,1.14758,0,0,0,0,0,0,0,-1,615,1345,-7.95208,-1.14757
-602,-321,-8.85791,2.50049,0,0,0,0,0,0,0,-1,622,1345,-8.85791,-2.50048
-595,-321,-17.346,4.73474,0,0,0,0,0,0,0,-1,629,1345,-17.346,-4.73475
-588,-321,-16.8881,5.3053,0.00489986,0.0042859,0.00504196,0.00964418,-0.000458423,0.754993,0.00658758,0.0458926,636,1345,-16.8881,-5.30533
-581,-321,-16.7662,5.94153,0.00397821,0.00319522,0.00336834,0.00697773,0.000195705,0.727544,0.00458797,0.0138683,643,1345,-16.7662,-5.94149
-574,-321,-16.7954,6.41833,0.00328155,0.00227411,0.0022088,0.00504334,0.000512326,0.67329,0.00320513,0.0150574,650,1345,-16.7954,-6.41828
-567,-321,-16.7631,6.91797,0.00290308,0.00150855,0.00143156,0.00379815,0.000613474,0.558776,0.0023544,0.0229989,657,1345,-16.7631,-6.918
-560,-321,-16.781,7.474,0.00286264,0.000885576,0.000888686,0.00320338,0.000544838,0.36613,0.00197913,0.026633,664,1345,-16.781,-7.47403
-553,-321,-16.8331,7.92627,0.00307548,0.000275392,0.000680342,0.00323203,0.00011884,0.22617,0.00211618,0.02794,671,1345,-16.8331,-7.92626
-546,-321,-16.8329,8.44067,0.00363515,-0.000231982,0.000681626,0.00375178,-0.000348609,0.16946,0.00262512,0.0268333,678,1345,-16.8329,-8.44068
-539,-321,-16.8469,8.95276,0.00459142,-0.000676387,0.000876796,0.00473352,-0.000818491,0.160675,0.00346092,0.0235798,685,1345,-16.8469,-8.95276
-532,-321,-16.8047,9.41077,0.00620982,-0.00101693,0.00135643,0.00645603,-0.00126313,0.179557,0.00478101,0.0321683,692,1345,-16.8047,-9.41075
-525,-321,-16.7748,9.86755,0,0,0,0,0,0,0,-1,699,1345,-16.7748,-9.8675
-518,-321,-10.3564,6.75696,0,0,0,0,0,0,0,-1,706,1345,-10.3564,-6.75694
-511,-321,-9.3302,5.29297,0,0,0,0,0,0,0,-1,713,1345,-9.33023,-5.29294
-504,-321,-10.4713,0.0145264,0,0,0,0,0,0,0,-1,720,1345,-10.4713,-0.0145296
-497,-321,-9.96771,0.313599,0,0,0,0,0,0,0,-1,727,1345,-9.96769,-0.313618
-490,-321,-10.7631,0.973511,0,0,0,0,0,0,0,-1,734,1345,-10.7631,-0.97353
-483,-321,-17.5908,0.2323,0,0,0,0,0,0,0,-1,741,1345,-17.5908,-0.232355
-476,-321,-17.2915,0.297363,0,0,0,0,0,0,0,-1,748,1345,-17.2915,-0.297342
-469,-321,-17.2441,0.478027,0,0,0,0,0,0,0,-1,755,1345,-17.2441,-0.477994
-462,-321,-17.1672,0.526489,0,0,0,0,0,0,0,-1,762,1345,-17.1672,-0.526533
-455,-321,0,0,0,0,0,0,0,0,0,-1,769,1345,0,0
-448,-321,0,0,0,0,0,0,0,0,0,-1,776,1345,0,0
-441,-321,0,0,0,0,0,0,0,0,0,-1,783,1345,0,0
-434,-321,0,0,0,0,0,0,0,0,0,-1,790,1345,0,0
-427,-321,0,0,0,0,0,0,0,0,0,-1,797,1345,0,0
-420,-321,0,0,0,0,0,0,0,0,0,-1,804,1345,0,0
-413,-321,0,0,0,0,0,0,0,0,0,-1,811,1345,0,0
-406,-321,0,0,0,0,0,0,0,0,0,-1,818,1345,0,0
-399,-321,0,0,0,0,0,0,0,0,0,-1,825,1345,0,0
-392,-321,0,0,0,0,0,0,0,0,0,-1,832,1345,0,0
-385,-321,0,0,0,0,0,0,0,0,0,-1,839,1345,0,0
-378,-321,0,0,0,0,0,0,0,0,0,-1,846,1345,0,0
-371,-321,0,0,0,0,0,0,0,0,0,-1,853,1345,0,0
-364,-321,0,0,0,0,0,0,0,0,0,-1,860,1345,0,0
-357,-321,0,0,0,0,0,0,0,0,0,-1,867,1345,0,0
-350,-321,0,0,0,0,0,0,0,0,0,-1,874,1345,0,0
-343,-321,0,0,0,0,0,0,0,0,0,-1,881,1345,0,0
-336,-321,0,0,0,0,0,0,0,0,0,-1,888,1345,0,0
-329,-321,0,0,0,0,0,0,0,0,0,-1,895,1345,0,0
-322,-321,0,0,0,0,0,0,0,0,0,-1,902,1345,0,0
-315,-321,0,0,0,0,0,0,0,0,0,-1,909,1345,0,0
-308,-321,0,0,0,0,0,0,0,0,0,-1,916,1345,0,0
-301,-321,0,0,0,0,0,0,0,0,0,-1,923,1345,0,0
-294,-321,0,0,0,0,0,0,0,0,0,-1,930,1345,0,0
-287,-321,0,0,0,0,0,0,0,0,0,-1,937,1345,0,0
-280,-321,0,0,0,0,0,0,0,0,0,-1,944,1345,0,0
-273,-321,0,0,0,0,0,0,0,0,0,-1,951,1345,0,0
-266,-321,0,0,0,0,0,0,0,0,0,-1,958,1345,0,0
-259,-321,0,0,0,0,0,0,0,0,0,-1,965,1345,0,0
-252,-321,0,0,0,0,0,0,0,0,0,-1,972,1345,0,0
-245,-321,0,0,0,0,0,0,0,0,0,-1,979,1345,0,0
-238,-321,0,0,0,0,0,0,0,0,0,-1,986,1345,0,0
-231,-321,0,0,0,0,0,0,0,0,0,-1,993,1345,0,0
-224,-321,0,0,0,0,0,0,0,0,0,-1,1000,1345,0,0
-217,-321,0,0,0,0,0,0,0,0,0,-1,1007,1345,0,0
-210,-321,0,0,0,0,0,0,0,0,0,-1,1014,1345,0,0
-203,-321,0,0,0,0,0,0,0,0,0,-1,1021,1345,0,0
-196,-321,0,0,0,0,0,0,0,0,0,-1,1028,1345,0,0
-189,-321,0,0,0,0,0,0,0,0,0,-1,1035,1345,0,0
-182,-321,0,0,0,0,0,0,0,0,0,-1,1042,1345,0,0
-175,-321,0,0,0,0,0,0,0,0,0,-1,1049,1345,0,0
-168,-321,0,0,0,0,0,0,0,0,0,-1,1056,1345,0,0
-161,-321,0,0,0,0,0,0,0,0,0,-1,1063,1345,0,0
-154,-321,0,0,0,0,0,0,0,0,0,-1,1070,1345,0,0
-147,-321,0,0,0,0,0,0,0,0,0,-1,1077,1345,0,0
-140,-321,0,0,0,0,0,0,0,0,0,-1,1084,1345,0,0
-133,-321,0,0,0,0,0,0,0,0,0,-1,1091,1345,0,0
-126,-321,0,0,0,0,0,0,0,0,0,-1,1098,1345,0,0
-119,-321,0,0,0,0,0,0,0,0,0,-1,1105,1345,0,0
-112,-321,0,0,0,0,0,0,0,0,0,-1,1112,1345,0,0
-105,-321,0,0,0,0,0,0,0,0,0,-1,1119,1345,0,0
-98,-321,0,0,0,0,0,0,0,0,0,-1,1126,1345,0,0
-91,-321,0,0,0,0,0,0,0,0,0,-1,1133,1345,0,0
-84,-321,0,0,0,0,0,0,0,0,0,-1,1140,1345,0,0
-77,-321,0,0,0,0,0,0,0,0,0,-1,1147,1345,0,0
-70,-321,0,0,0,0,0,0,0,0,0,-1,1154,1345,0,0
-63,-321,0,0,0,0,0,0,0,0,0,-1,1161,1345,0,0
-56,-321,0,0,0,0,0,0,0,0,0,-1,1168,1345,0,0
-49,-321,0,0,0,0,0,0,0,0,0,-1,1175,1345,0,0
-42,-321,0,0,0,0,0,0,0,0,0,-1,1182,1345,0,0
-35,-321,0,0,0,0,0,0,0,0,0,-1,1189,1345,0,0
-28,-321,0,0,0,0,0,0,0,0,0,-1,1196,1345,0,0
-21,-321,0,0,0,0,0,0,0,0,0,-1,1203,1345,0,0
-14,-321,0,0,0,0,0,0,0,0,0,-1,1210,1345,0,0
-7,-321,0,0,0,0,0,0,0,0,0,-1,1217,1345,0,0
0,-321,0,0,0,0,0,0,0,0,0,-1,1224,1345,0,0
7,-321,0,0,0,0,0,0,0,0,0,-1,1231,1345,0,0
14,-321,0,0,0,0,0,0,0,0,0,-1,1238,1345,0,0
21,-321,0,0,0,0,0,0,0,0,0,-1,1245,1345,0,0
28,-321,0,0,0,0,0,0,0,0,0,-1,1252,1345,0,0
35,-321,0,0,0,0,0,0,0,0,0,-1,1259,1345,0,0
42,-321,0,0,0,0,0,0,0,0,0,-1,1266,1345,0,0
49,-321,0,0,0,0,0,0,0,0,0,-1,1273,1345,0,0
56,-321,0,0,0,0,0,0,0,0,0,-1,1280,1345,0,0
63,-321,0,0,0,0,0,0,0,0,0,-1,1287,1345,0,0
70,-321,0,0,0,0,0,0,0,0,0,-1,1294,1345,0,0
77,-321,0,0,0,0,0,0,0,0,0,-1,1301,1345,0,0
84,-321,0,0,0,0,0,0,0,0,0,-1,1308,1345,0,0
91,-321,0,0,0,0,0,0,0,0,0,-1,1315,1345,0,0
98,-321,0,0,0,0,0,0,0,0,0,-1,1322,1345,0,0
105,-321,0,0,0,0,0,0,0,0,0,-1,1329,1345,0,0
112,-321,0,0,0,0,0,0,0,0,0,-1,1336,1345,0,0
119,-321,0,0,0,0,0,0,0,0,0,-1,1343,1345,0,0
126,-321,0,0,0,0,0,0,0,0,0,-1,1350,1345,0,0
133,-321,0,0,0,0,0,0,0,0,0,-1,1357,1345,0,0
140,-321,0,0,0,0,0,0,0,0,0,-1,1364,1345,0,0
147,-321,0,0,0,0,0,0,0,0,0,-1,1371,1345,0,0
154,-321,0,0,0,0,0,0,0,0,0,-1,1378,1345,0,0
161,-321,0,0,0,0,0,0,0,0,0,-1,1385,1345,0,0
168,-321,0,0,0,0,0,0,0,0,0,-1,1392,1345,0,0
175,-321,0,0,0,0,0,0,0,0,0,-1,1399,1345,0,0
182,-321,0,0,0,0,0,0,0,0,0,-1,1406,1345,0,0
189,-321,0,0,0,0,0,0,0,0,0,-1,1413,1345,0,0
196,-321,0,0,0,0,0,0,0,0,0,-1,1420,1345,0,0
203,-321,0,0,0,0,0,0,0,0,0,-1,1427,1345,0,0
210,-321,0,0,0,0,0,0,0,0,0,-1,1434,1345,0,0
217,-321,0,0,0,0,0,0,0,0,0,-1,1441,1345,0,0
224,-321,0,0,0,0,0,0,0,0,0,-1,1448,1345,0,0
231,-321,0,0,0,0,0,0,0,0,0,-1,1455,1345,0,0
238,-321,0,0,0,0,0,0,0,0,0,-1,1462,1345,0,0
245,-321,0,0,0,0,0,0,0,0,0,-1,1469,1345,0,0
252,-321,0,0,0,0,0,0,0,0,0,-1,1476,1345,0,0
259,-321,0,0,0,0,0,0,0,0,0,-1,1483,1345,0,0
266,-321,0,0,0,0,0,0,0,0,0,-1,1490,1345,0,0
273,-321,0,0,0,0,0,0,0,0,0,-1,1497,1345,0,0
280,-321,0,0,0,0,0,0,0,0,0,-1,1504,1345,0,0
287,-321,0,0,0,0,0,0,0,0,0,-1,1511,1345,0,0
294,-321,0,0,0,0,0,0,0,0,0,-1,1518,1345,0,0
301,-321,0,0,0,0,0,0,0,0,0,-1,1525,1345,0,0
308,-321,0,0,0,0,0,0,0,0,0,-1,1532,1345,0,0
315,-321,0,0,0,0,0,0,0,0,0,-1,1539,1345,0,0
322,-321,0,0,0,0,0,0,0,0,0,-1,1546,1345,0,0
329,-321,0,0,0,0,0,0,0,0,0,-1,1553,1345,0,0
336,-321,0,0,0,0,0,0,0,0,0,-1,1560,1345,0,0
343,-321,0,0,0,0,0,0,0,0,0,-1,1567,1345,0,0
350,-321,0,0,0,0,0,0,0,0,0,-1,1574,1345,0,0
357,-321,0,0,0,0,0,0,0,0,0,-1,1581,1345,0,0
364,-321,0,0,0,0,0,0,0,0,0,-1,1588,1345,0,0
371,-321,0,0,0,0,0,0,0,0,0,-1,1595,1345,0,0
378,-321,0,0,0,0,0,0,0,0,0,-1,1602,1345,0,0
385,-321,0,0,0,0,0,0,0,0,0,-1,1609,1345,0,0
392,-321,0,0,0,0,0,0,0,0,0,-1,1616,1345,0,0
399,-321,0,0,0,0,0,0,0,0,0,-1,1623,1345,0,0
406,-321,0,0,0,0,0,0,0,0,0,-1,1630,1345,0,0
413,-321,0,0,0,0,0,0,0,0,0,-1,1637,1345,0,0
420,-321,0,0,0,0,0,0,0,0,0,-1,1644,1345,0,0
427,-321,0,0,0,0,0,0,0,0,0,-1,1651,1345,0,0
434,-321,0,0,0,0,0,0,0,0,0,-1,1658,1345,0,0
441,-321,0,0,0,0,0,0,0,0,0,-1,1665,1345,0,0
448,-321,0,0,0,0,0,0,0,0,0,-1,1672,1345,0,0
455,-321,0,0,0,0,0,0,0,0,0,-1,1679,1345,0,0
462,-321,0,0,0,0,0,0,0,0,0,-1,1686,1345,0,0
469,-321,0,0,0,0,0,0,0,0,0,-1,1693,1345,0,0
476,-321,0,0,0,0,0,0,0,0,0,-1,1700,1345,0,0
483,-321,0,0,0,0,0,0,0,0,0,-1,1707,1345,0,0
490,-321,0,0,0,0,0,0,0,0,0,-1,1714,1345,0,0
497,-321,0,0,0,0,0,0,0,0,0,-1,1721,1345,0,0
504,-321,0,0,0,0,0,0,0,0,0,-1,1728,1345,0,0
511,-321,0,0,0,0,0,0,0,0,0,-1,1735,1345,0,0
518,-321,0,0,0,0,0,0,0,0,0,-1,1742,1345,0,0
525,-321,0,0,0,0,0,0,0,0,0,-1,1749,1345,0,0
532,-321,0,0,0,0,0,0,0,0,0,-1,1756,1345,0,0
539,-321,0,0,0,0,0,0,0,0,0,-1,1763,1345,0,0
546,-321,0,0,0,0,0,0,0,0,0,-1,1770,1345,0,0
553,-321,0,0,0,0,0,0,0,0,0,-1,1777,1345,0,0
560,-321,0,0,0,0,0,0,0,0,0,-1,1784,1345,0,0
567,-321,0,0,0,0,0,0,0,0,0,-1,1791,1345,0,0
574,-321,0,0,0,0,0,0,0,0,0,-1,1798,1345,0,0
581,-321,45.3884,5.0686,0,0,0,0,0,0,0,-1,1805,1345,45.3884,-5.06858
588,-321,46.0454,4.33325,0,0,0,0,0,0,0,-1,1812,1345,46.0455,-4.33326
595,-321,46.4561,4.422,0.0454994,-0.0647838,0.0408331,0.0589722,-0.0782566,0.318701,0.0794894,0.0459245,1819,1345,46.456,-4.42204
602,-321,46.9861,4.7251,0.0361193,-0.0547946,0.0287606,0.0444537,-0.0631289,0.282059,0.062424,0.0473975,1826,1345,46.9861,-4.72509
609,-321,47.5009,5.04504,0,0,0,0,0,0,0,-1,1833,1345,47.5009,-5.04501
616,-321,37.8107,2.58704,0,0,0,0,0,0,0,-1,1840,1345,37.8106,-2.58705
623,-321,37.6854,3.68933,0,0,0,0,0,0,0,-1,1847,1345,37.6854,-3.68931
630,-321,23.6674,4.34106,0,0,0,0,0,0,0,-1,1854,1345,23.6674,-4.34112
637,-321,21.7925,6.79224,0,0,0,0,0,0,0,-1,1861,1345,21.7925,-6.7922
644,-321,16.8844,6.71973,0,0,0,0,0,0,0,-1,1868,1345,16.8844,-6.71971
651,-321,27.4924,10.0319,0,0,0,0,0,0,0,-1,1875,1345,27.4924,-10.0319
658,-321,30.7,11.9601,0,0,0,0,0,0,0,-1,1882,1345,30.6999,-11.9601
665,-321,30.4867,11.4481,-0.00274484,0.00220137,-0.00151825,0.00263022,-0.00317369,-1.29551,0.00335578,0.021195,1889,1345,30.4867,-11.4481
672,-321,30.5161,10.9771,-0.0007882,0.000299538,-0.000420441,0.000443101,-0.000931764,-1.24175,0.000810319,0.0135163,1896,1345,30.5162,-10.9771
679,-321,30.5155,10.5088,0.000293286,-0.000463368,-4.96064e-05,0.000296525,-0.000466607,-0.0651883,0.000444227,0.0114473,1903,1345,30.5155,-10.5088
686,-321,30.4572,10.0603,0.000674814,-0.000377242,4.73542e-05,0.000676941,-0.00037937,0.0448901,0.000617875,0.0124761,1910,1345,30.4572,-10.0603
693,-321,30.4359,9.61658,0.000706042,-0.000291255,0.000110959,0.000718238,-0.000303451,0.109476,0.00060586,0.0127572,1917,1345,30.4359,-9.61655
700,-321,30.4623,9.13159,0.000596302,-0.000240387,0.000247258,0.000663909,-0.000307994,0.266903,0.000573533,0.0124736,1924,1345,30.4623,-9.13161
707,-321,30.4773,8.67554,0.000303743,-0.000238284,0.000472256,0.000577223,-0.000511765,0.524906,0.000629106,0.0147547,1931,1345,30.4773,-8.67549
714,-321,30.4359,8.22266,-0.000226138,-0.0003511,0.000821856,0.000535609,-0.00111285,0.747459,0.000970992,0.0143659,1938,1345,30.436,-8.2227
721,-321,30.3563,7.7583,-0.00107519,-0.000696191,0.00145859,0.000585164,-0.00235654,0.849995,0.00179811,0.0406232,1945,1345,30.3563,-7.75832
728,-321,30.3662,7.33997,0,0,0,0,0,0,0,-1,1952,1345,30.3662,-7.34001
735,-321,22.0081,5.65479,0,0,0,0,0,0,0,-1,1959,1345,22.008,-5.65481
742,-321,24.5398,5.05725,0,0,0,0,0,0,0,-1,1966,1345,24.5398,-5.05729
749,-321,24.0675,5.4458,0,0,0,0,0,0,0,-1,1973,1345,24.0675,-5.44581
756,-321,19.6251,4.98315,0,0,0,0,0,0,0,-1,1980,1345,19.6251,-4.98311
763,-321,19.6747,4.61438,0,0,0,0,0,0,0,-1,1987,1345,19.6747,-4.61436
770,-321,0,0,0,0,0,0,0,0,0,-1,1994,1345,0,0
777,-321,0,0,0,0,0,0,0,0,0,-1,2001,1345,0,0
784,-321,0,0,0,0,0,0,0,0,0,-1,2008,1345,0,0
791,-321,0,0,0,0,0,0,0,0,0,-1,2015,1345,0,0
798,-321,0,0,0,0,0,0,0,0,0,-1,2022,1345,0,0
805,-321,0,0,0,0,0,0,0,0,0,-1,2029,1345,0,0
812,-321,0,0,0,0,0,0,0,0,0,-1,2036,1345,0,0
-700,-328,0,0,0,0,0,0,0,0,0,-1,524,1352,0,0
-693,-328,0,0,0,0,0,0,0,0,0,-1,531,1352,0,0
-686,-328,0,0,0,0,0,0,0,0,0,-1,538,1352,0,0
-679,-328,0,0,0,0,0,0,0,0,0,-1,545,1352,0,0
-672,-328,0,0,0,0,0,0,0,0,0,-1,552,1352,0,0
-665,-328,0,0,0,0,0,0,0,0,0,-1,559,1352,0,0
-658,-328,0,0,0,0,0,0,0,0,0,-1,566,1352,0,0
-651,-328,0,0,0,0,0,0,0,0,0,-1,573,1352,0,0
-644,-328,0,0,0,0,0,0,0,0,0,-1,580,1352,0,0
-637,-328,-12.0695,1.02014,0,0,0,0,0,0,0,-1,587,1352,-12.0694,-1.02017
-630,-328,-13.3971,4.54578,0,0,0,0,0,0,0,-1,594,1352,-13.3971,-4.54572
-623,-328,-10.7739,4.55042,0,0,0,0,0,0,0,-1,601,1352,-10.7739,-4.55041
-616,-328,-8.22198,-0.25708,0,0,0,0,0,0,0,-1,608,1352,-8.22201,0.257067
-609,-328,-7.87439,0.192871,0,0,0,0,0,0,0,-1,615,1352,-7.87441,-0.192822
-602,-328,-7.63062,1.31665,0,0,0,0,0,0,0,-1,622,1352,-7.63064,-1.3166
-595,-328,-9.42639,2.93494,0,0,0,0,0,0,0,-1,629,1352,-9.42638,-2.93499
-588,-328,-16.5359,4.95068,0,0,0,0,0,0,0,-1,636,1352,-16.5359,-4.95068
-581,-328,-16.2878,5.89807,0.00514682,0.00313887,0.00304297,0.00734716,0.000938532,0.626055,0.00461717,0.0252071,643,1352,-16.2878,-5.89806
-574,-328,-16.2679,6.43787,0.00402355,0.00220969,0.00203091,0.00534084,0.000892404,0.575402,0.00330352,0.0150718,650,1352,-16.2679,-6.43788
-567,-328,-16.3087,6.93958,0.00334645,0.00149056,0.00136409,0.0040683,0.000768704,0.486719,0.00249574,0.0205225,657,1352,-16.3087,-6.93963
-560,-328,-16.3151,7.46729,0.00307759,0.000913407,0.000943673,0.00343127,0.000559727,0.358587,0.00212565,0.0279569,664,1352,-16.3151,-7.46724
-553,-328,-16.325,7.92749,0.00314751,0.00039671,0.000800809,0.00336366,0.000180564,0.263628,0.00218474,0.0292325,671,1352,-16.325,-7.92754
-546,-328,-16.3008,8.43848,0.00359164,-3.08149e-05,0.000841103,0.00377741,-0.000216585,0.217375,0.00259348,0.0274541,678,1352,-16.3008,-8.43852
-539,-328,-16.3389,8.96423,0.0043975,-0.000370806,0.00105924,0.00462221,-0.000595517,0.209044,0.00329795,0.0232882,685,1352,-16.3389,-8.96428
-532,-328,-16.3584,9.44739,0.00575546,-0.000618002,0.00152941,0.00610346,-0.000966007,0.223732,0.00442626,0.018133,692,1352,-16.3584,-9.44739
-525,-328,-16.3117,9.979,0.00767521,-0.00092378,0.00215294,0.00818413,-0.0014327,0.232121,0.00599103,0.0288346,699,1352,-16.3117,-9.97899
-518,-328,-16.3613,10.5303,0,0,0,0,0,0,0,-1,706,1352,-16.3613,-10.5303
-511,-328,-9.39868,7.16113,0,0,0,0,0,0,0,-1,713,1352,-9.39869,-7.16113
-504,-328,-8.60626,-0.905762,0,0,0,0,0,0,0,-1,720,1352,-8.60623,0.905787
-497,-328,-9.29102,-0.0517578,0,0,0,0,0,0,0,-1,727,1352,-9.29104,0.0518175
-490,-328,-10.0663,0.882813,0,0,0,0,0,0,0,-1,734,1352,-10.0663,-0.882795
-483,-328,-10.8181,1.72375,0,0,0,0,0,0,0,-1,741,1352,-10.8181,-1.72374
-476,-328,-16.8951,-0.150757,0,0,0,0,0,0,0,-1,748,1352,-16.8951,0.150795
-469,-328,-16.8412,0.00158691,0,0,0,0,0,0,0,-1,755,1352,-16.8412,-0.00161515
-462,-328,-16.3546,-0.203491,0,0,0,0,0,0,0,-1,762,1352,-16.3545,0.203532
-455,-328,0,0,0,0,0,0,0,0,0,-1,769,1352,0,0
-448,-328,0,0,0,0,0,0,0,0,0,-1,776,1352,0,0
-441,-328,0,0,0,0,0,0,0,0,0,-1,783,1352,0,0
-434,-328,0,0,0,0,0,0,0,0,0,-1,790,1352,0,0
-427,-328,0,0,0,0,0,0,0,0,0,-1,797,1352,0,0
-420,-328,0,0,0,0,0,0,0,0,0,-1,804,1352,0,0
-413,-328,0,0,0,0,0,0,0,0,0,-1,811,1352,0,0
-406,-328,0,0,0,0,0,0,0,0,0,-1,818,1352,0,0
-399,-328,0,0,0,0,0,0,0,0,0,-1,825,1352,0,0
-392,-328,0,0,0,0,0,0,0,0,0,-1,832,1352,0,0
-385,-328,0,0,0,0,0,0,0,0,0,-1,839,1352,0,0
-378,-328,0,0,0,0,0,0,0,0,0,-1,846,1352,0,0
-371,-328,0,0,0,0,0,0,0,0,0,-1,853,1352,0,0
-364,-328,0,0,0,0,0,0,0,0,0,-1,860,1352,0,0
-357,-328,0,0,0,0,0,0,0,0,0,-1,867,1352,0,0
-350,-328,0,0,0,0,0,0,0,0,0,-1,874,1352,0,0
-343,-328,0,0,0,0,0,0,0,0,0,-1,881,1352,0,0
-336,-328,0,0,0,0,0,0,0,0,0,-1,888,1352,0,0
-329,-328,0,0,0,0,0,0,0,0,0,-1,895,1352,0,0
-322,-328,0,0,0,0,0,0,0,0,0,-1,902,1352,0,0
-315,-328,0,0,0,0,0,0,0,0,0,-1,909,1352,0,0
-308,-328,0,0,0,0,0,0,0,0,0,-1,916,1352,0,0
-301,-328,0,0,0,0,0,0,0,0,0,-1,923,1352,0,0
-294,-328,0,0,0,0,0,0,0,0,0,-1,930,1352,0,0
-287,-328,0,0,0,0,0,0,0,0,0,-1,937,1352,0,0
-280,-328,0,0,0,0,0,0,0,0,0,-1,944,1352,0,0
-273,-328,0,0,0,0,0,0,0,0,0,-1,951,1352,0,0
-266,-328,0,0,0,0,0,0,0,0,0,-1,958,1352,0,0
-259,-328,0,0,0,0,0,0,0,0,0,-1,965,1352,0,0
-252,-328,0,0,0,0,0,0,0,0,0,-1,972,1352,0,0
-245,-328,0,0,0,0,0,0,0,0,0,-1,979,1352,0,0
-238,-328,0,0,0,0,0,0,0,0,0,-1,986,1352,0,0
-231,-328,0,0,0,0,0,0,0,0,0,-1,993,1352,0,0
-224,-328,0,0,0,0,0,0,0,0,0,-1,1000,1352,0,0
-217,-328,0,0,0,0,0,0,0,0,0,-1,1007,1352,0,0
-210,-328,0,0,0,0,0,0,0,0,0,-1,1014,1352,0,0
-203,-328,0,0,0,0,0,0,0,0,0,-1,1021,1352,0,0
-196,-328,0,0,0,0,0,0,0,0,0,-1,1028,1352,0,0
-189,-328,0,0,0,0,0,0,0,0,0,-1,1035,1352,0,0
-182,-328,0,0,0,0,0,0,0,0,0,-1,1042,1352,0,0
-175,-328,0,0,0,0,0,0,0,0,0,-1,1049,1352,0,0
-168,-328,0,0,0,0,0,0,0,0,0,-1,1056,1352,0,0
-161,-328,0,0,0,0,0,0,0,0,0,-1,1063,1352,0,0
-154,-328,0,0,0,0,0,0,0,0,0,-1,1070,1352,0,0
-147,-328,0,0,0,0,0,0,0,0,0,-1,1077,1352,0,0
-140,-328,0,0,0,0,0,0,0,0,0,-1,1084,1352,0,0
-133,-328,0,0,0,0,0,0,0,0,0,-1,1091,1352,0,0
-126,-328,0,0,0,0,0,0,0,0,0,-1,1098,1352,0,0
-119,-328,0,0,0,0,0,0,0,0,0,-1,1105,1352,0,0
-112,-328,0,0,0,0,0,0,0,0,0,-1,1112,1352,0,0
-105,-328,0,0,0,0,0,0,0,0,0,-1,1119,1352,0,0
-98,-328,0,0,0,0,0,0,0,0,0,-1,1126,1352,0,0
-91,-328,0,0,0,0,0,0,0,0,0,-1,1133,1352,0,0
-84,-328,0,0,0,0,0,0,0,0,0,-1,1140,1352,0,0
-77,-328,0,0,0,0,0,0,0,0,0,-1,1147,1352,0,0
-70,-328,0,0,0,0,0,0,0,0,0,-1,1154,1352,0,0
-63,-328,0,0,0,0,0,0,0,0,0,-1,1161,1352,0,0
-56,-328,0,0,0,0,0,0,0,0,0,-1,1168,1352,0,0
-49,-328,0,0,0,0,0,0,0,0,0,-1,1175,1352,0,0
-42,-328,0,0,0,0,0,0,0,0,0,-1,1182,1352,0,0
-35,-328,0,0,0,0,0,0,0,0,0,-1,1189,1352,0,0
-28,-328,0,0,0,0,0,0,0,0,0,-1,1196,1352,0,0
-21,-328,0,0,0,0,0,0,0,0,0,-1,1203,1352,0,0
-14,-328,0,0,0,0,0,0,0,0,0,-1,1210,1352,0,0
-7,-328,0,0,0,0,0,0,0,0,0,-1,1217,1352,0,0
0,-328,0,0,0,0,0,0,0,0,0,-1,1224,1352,0,0
7,-328,0,0,0,0,0,0,0,0,0,-1,1231,1352,0,0
14,-328,0,0,0,0,0,0,0,0,0,-1,1238,1352,0,0
21,-328,0,0,0,0,0,0,0,0,0,-1,1245,1352,0,0
28,-328,0,0,0,0,0,0,0,0,0,-1,1252,1352,0,0
35,-328,0,0,0,0,0,0,0,0,0,-1,1259,1352,0,0
42,-328,0,0,0,0,0,0,0,0,0,-1,1266,1352,0,0
49,-328,0,0,0,0,0,0,0,0,0,-1,1273,1352,0,0
56,-328,0,0,0,0,0,0,0,0,0,-1,1280,1352,0,0
63,-328,0,0,0,0,0,0,0,0,0,-1,1287,1352,0,0
70,-328,0,0,0,0,0,0,0,0,0,-1,1294,1352,0,0
77,-328,0,0,0,0,0,0,0,0,0,-1,1301,1352,0,0
84,-328,0,0,0,0,0,0,0,0,0,-1,1308,1352,0,0
91,-328,0,0,0,0,0,0,0,0,0,-1,1315,1352,0,0
98,-328,0,0,0,0,0,0,0,0,0,-1,1322,1352,0,0
105,-328,0,0,0,0,0,0,0,0,0,-1,1329,1352,0,0
112,-328,0,0,0,0,0,0,0,0,0,-1,1336,1352,0,0
119,-328,0,0,0,0,0,0,0,0,0,-1,1343,1352,0,0
126,-328,0,0,0,0,0,0,0,0,0,-1,1350,1352,0,0
133,-328,0,0,0,0,0,0,0,0,0,-1,1357,1352,0,0
140,-328,0,0,0,0,0,0,0,0,0,-1,1364,1352,0,0
147,-328,0,0,0,0,0,0,0,0,0,-1,1371,1352,0,0
154,-328,0,0,0,0,0,0,0,0,0,-1,1378,1352,0,0
161,-328,0,0,0,0,0,0,0,0,0,-1,1385,1352,0,0
168,-328,0,0,0,0,0,0,0,0,0,-1,1392,1352,0,0
175,-328,0,0,0,0,0,0,0,0,0,-1,1399,1352,0,0
182,-328,0,0,0,0,0,0,0,0,0,-1,1406,1352,0,0
189,-328,0,0,0,0,0,0,0,0,0,-1,1413,1352,0,0
196,-328,0,0,0,0,0,0,0,0,0,-1,1420,1352,0,0
203,-328,0,0,0,0,0,0,0,0,0,-1,1427,1352,0,0
210,-328,0,0,0,0,0,0,0,0,0,-1,1434,1352,0,0
217,-328,0,0,0,0,0,0,0,0,0,-1,1441,1352,0,0
224,-328,0,0,0,0,0,0,0,0,0,-1,1448,1352,0,0
231,-328,0,0,0,0,0,0,0,0,0,-1,1455,1352,0,0
238,-328,0,0,0,0,0,0,0,0,0,-1,1462,1352,0,0
245,-328,0,0,0,0,0,0,0,0,0,-1,1469,1352,0,0
252,-328,0,0,0,0,0,0,0,0,0,-1,1476,1352,0,0
259,-328,0,0,0,0,0,0,0,0,0,-1,1483,1352,0,0
266,-328,0,0,0,0,0,0,0,0,0,-1,1490,1352,0,0
273,-328,0,0,0,0,0,0,0,0,0,-1,1497,1352,0,0
280,-328,0,0,0,0,0,0,0,0,0,-1,1504,1352,0,0
287,-328,0,0,0,0,0,0,0,0,0,-1,1511,1352,0,0
294,-328,0,0,0,0,0,0,0,0,0,-1,1518,1352,0,0
301,-328,0,0,0,0,0,0,0,0,0,-1,1525,1352,0,0
308,-328,0,0,0,0,0,0,0,0,0,-1,1532,1352,0,0
315,-328,0,0,0,0,0,0,0,0,0,-1,1539,1352,0,0
322,-328,0,0,0,0,0,0,0,0,0,-1,1546,1352,0,0
329,-328,0,0,0,0,0,0,0,0,0,-1,1553,1352,0,0
336,-328,0,0,0,0,0,0,0,0,0,-1,1560,1352,0,0
343,-328,0,0,0,0,0,0,0,0,0,-1,1567,1352,0,0
350,-328,0,0,0,0,0,0,0,0,0,-1,1574,1352,0,0
357,-328,0,0,0,0,0,0,0,0,0,-1,1581,1352,0,0
364,-328,0,0,0,0,0,0,0,0,0,-1,1588,1352,0,0
371,-328,0,0,0,0,0,0,0,0,0,-1,1595,1352,0,0
378,-328,0,0,0,0,0,0,0,0,0,-1,1602,1352,0,0
385,-328,0,0,0,0,0,0,0,0,0,-1,1609,1352,0,0
392,-328,0,0,0,0,0,0,0,0,0,-1,1616,1352,0,0
399,-328,0,0,0,0,0,0,0,0,0,-1,1623,1352,0,0
406,-328,0,0,0,0,0,0,0,0,0,-1,1630,1352,0,0
413,-328,0,0,0,0,0,0,0,0,0,-1,1637,1352,0,0
420,-328,0,0,0,0,0,0,0,0,0,-1,1644,1352,0,0
427,-328,0,0,0,0,0,0,0,0,0,-1,1651,1352,0,0
434,-328,0,0,0,0,0,0,0,0,0,-1,1658,1352,0,0
441,-328,0,0,0,0,0,0,0,0,0,-1,1665,1352,0,0
448,-328,0,0,0,0,0,0,0,0,0,-1,1672,1352,0,0
455,-328,0,0,0,0,0,0,0,0,0,-1,1679,1352,0,0
462,-328,0,0,0,0,0,0,0,0,0,-1,1686,1352,0,0
469,-328,0,0,0,0,0,0,0,0,0,-1,1693,1352,0,0
476,-328,0,0,0,0,0,0,0,0,0,-1,1700,1352,0,0
483,-328,0,0,0,0,0,0,0,0,0,-1,1707,1352,0,0
490,-328,0,0,0,0,0,0,0,0,0,-1,1714,1352,0,0
497,-328,0,0,0,0,0,0,0,0,0,-1,1721,1352,0,0
504,-328,0,0,0,0,0,0,0,0,0,-1,1728,1352,0,0
511,-328,0,0,0,0,0,0,0,0,0,-1,1735,1352,0,0
518,-328,0,0,0,0,0,0,0,0,0,-1,1742,1352,0,0
525,-328,0,0,0,0,0,0,0,0,0,-1,1749,1352,0,0
532,-328,0,0,0,0,0,0,0,0,0,-1,1756,1352,0,0
539,-328,0,0,0,0,0,0,0,0,0,-1,1763,1352,0,0
546,-328,0,0,0,0,0,0,0,0,0,-1,1770,1352,0,0
553,-328,0,0,0,0,0,0,0,0,0,-1,1777,1352,0,0
560,-328,0,0,0,0,0,0,0,0,0,-1,1784,1352,0,0
567,-328,0,0,0,0,0,0,0,0,0,-1,1791,1352,0,0
574,-328,44.8926,5.11475,0,0,0,0,0,0,0,-1,1798,1352,44.8926,-5.11469
581,-328,45.0055,5.88647,0.0537628,-0.0803814,0.0854942,0.095355,-0.121974,0.452782,0.125788,0.0442815,1805,1352,45.0055,-5.88644
588,-328,45.2971,6.46729,0.0583942,-0.0719505,0.0688502,0.0880257,-0.101582,0.406416,0.109563,0.0459677,1812,1352,45.2971,-6.46723
595,-328,46.5374,4.38489,0,0,0,0,0,0,0,-1,1819,1352,46.5374,-4.3849
602,-328,47.1033,5.10815,0,0,0,0,0,0,0,-1,1826,1352,47.1032,-5.10816
609,-328,37.0468,1.17407,0,0,0,0,0,0,0,-1,1833,1352,37.0468,-1.17407
616,-328,36.999,2.42859,0,0,0,0,0,0,0,-1,1840,1352,36.999,-2.42862
623,-328,34.345,5.14722,0,0,0,0,0,0,0,-1,1847,1352,34.3449,-5.14718
630,-328,22.0211,5.026,0,0,0,0,0,0,0,-1,1854,1352,22.0212,-5.02603
637,-328,21.15,5.53699,0,0,0,0,0,0,0,-1,1861,1352,21.15,-5.53704
644,-328,16.9579,6.3396,0,0,0,0,0,0,0,-1,1868,1352,16.9579,-6.33959
651,-328,30.2523,12.3746,0,0,0,0,0,0,0,-1,1875,1352,30.2524,-12.3746
658,-328,30.0564,11.9381,-0.00151628,-0.00375312,-0.00280606,0.000386041,-0.00565544,-0.59576,0.00390534,0.0416051,1882,1352,30.0563,-11.9381
665,-328,30.0728,11.453,-0.00116852,0.00118094,-0.000848032,0.00145505,-0.00144263,-1.25816,0.00167299,0.014166,1889,1352,30.0728,-11.453
672,-328,30.043,11.0015,7.23675e-07,9.8894e-05,-0.000233612,0.000288522,-0.000188905,-0.888949,0.000277636,0.011877,1896,1352,30.043,-11.0014
679,-328,30.0546,10.5228,0.000593528,-0.000220611,-0.000104686,0.000606773,-0.000233857,-0.125858,0.000501004,0.0144043,1903,1352,30.0546,-10.5229
686,-328,30.0131,10.0585,0.000857029,-0.00018122,-8.12743e-05,0.000863353,-0.000187543,-0.0776498,0.000647205,0.0144342,1910,1352,30.0131,-10.0585
693,-328,30.0001,9.60974,0.00101585,-0.000100819,-7.11808e-05,0.00102036,-0.000105338,-0.0634021,0.000717936,0.010374,1917,1352,30.0001,-9.60968
700,-328,29.9978,9.15198,0.00106448,-3.06569e-05,-1.76267e-05,0.00106477,-3.09406e-05,-0.0160899,0.000720379,0.0144248,1924,1352,29.9978,-9.15198
707,-328,30.0205,8.6875,0.000918981,2.59548e-05,9.97846e-05,0.000929995,1.4941e-05,0.109931,0.000615077,0.016167,1931,1352,30.0205,-8.68756
714,-328,29.9818,8.21204,0.000563808,-2.97255e-05,0.00033526,0.00071478,-0.000180697,0.423114,0.000546797,0.0166062,1938,1352,29.9818,-8.21198
721,-328,29.9666,7.61108,0,0,0,0,0,0,0,-1,1945,1352,29.9666,-7.61114
728,-328,29.2787,6.74695,0,0,0,0,0,0,0,-1,1952,1352,29.2787,-6.74693
735,-328,20.8927,5.23523,0,0,0,0,0,0,0,-1,1959,1352,20.8927,-5.23528
742,-328,20.3547,4.11316,0,0,0,0,0,0,0,-1,1966,1352,20.3547,-4.11321
749,-328,20.0669,5.66321,0,0,0,0,0,0,0,-1,1973,1352,20.0669,-5.66319
756,-328,19.9543,5.50464,0,0,0,0,0,0,0,-1,1980,1352,19.9543,-5.50463
763,-328,0,0,0,0,0,0,0,0,0,-1,1987,1352,0,0
770,-328,0,0,0,0,0,0,0,0,0,-1,1994,1352,0,0
777,-328,0,0,0,0,0,0,0,0,0,-1,2001,1352,0,0
784,-328,0,0,0,0,0,0,0,0,0,-1,2008,1352,0,0
791,-328,0,0,0,0,0,0,0,0,0,-1,2015,1352,0,0
798,-328,0,0,0,0,0,0,0,0,0,-1,2022,1352,0,0
805,-328,0,0,0,0,0,0,0,0,0,-1,2029,1352,0,0
812,-328,0,0,0,0,0,0,0,0,0,-1,2036,1352,0,0
-700,-335,0,0,0,0,0,0,0,0,0,-1,524,1359,0,0
-693,-335,0,0,0,0,0,0,0,0,0,-1,531,1359,0,0
-686,-335,0,0,0,0,0,0,0,0,0,-1,538,1359,0,0
-679,-335,0,0,0,0,0,0,0,0,0,-1,545,1359,0,0
-672,-335,0,0,0,0,0,0,0,0,0,-1,552,1359,0,0
-665,-335,0,0,0,0,0,0,0,0,0,-1,559,1359,0,0
-658,-335,0,0,0,0,0,0,0,0,0,-1,566,1359,0,0
-651,-335,0,0,0,0,0,0,0,0,0,-1,573,1359,0,0
-644,-335,0,0,0,0,0,0,0,0,0,-1,580,1359,0,0
-637,-335,-9.64746,3.53809,0,0,0,0,0,0,0,-1,587,1359,-9.64744,-3.53803
-630,-335,-6.07397,-2.99902,0,0,0,0,0,0,0,-1,594,1359,-6.07397,2.99902
-623,-335,-8.43304,1.09509,0,0,0,0,0,0,0,-1,601,1359,-8.43301,-1.09507
-616,-335,-7.80927,-0.485352,0,0,0,0,0,0,0,-1,608,1359,-7.80926,0.485291
-609,-335,-7.12256,-2.03601,0,0,0,0,0,0,0,-1,615,1359,-7.12253,2.03601
-602,-335,-9.39935,2.25146,0,0,0,0,0,0,0,-1,622,1359,-9.39935,-2.25145
-595,-335,-9.54767,3.01917,0,0,0,0,0,0,0,-1,629,1359,-9.54768,-3.01911
-588,-335,-15.9173,5.13708,0,0,0,0,0,0,0,-1,636,1359,-15.9173,-5.13708
-581,-335,-15.7612,5.95178,0.00523522,0.00272849,0.00237718,0.00666921,0.0012945,0.542794,0.00408362,0.0398968,643,1359,-15.7612,-5.95183
-574,-335,-15.7725,6.43115,0.00410894,0.00190603,0.00168345,0.00501925,0.00099572,0.495708,0.00306859,0.0133089,650,1359,-15.7725,-6.43113
-567,-335,-15.7744,6.95105,0.00340007,0.00131096,0.00120694,0.0039517,0.000759326,0.428699,0.00242137,0.0180326,657,1359,-15.7744,-6.95101
-560,-335,-15.7666,7.39648,0.00313541,0.000821701,0.000959834,0.00348175,0.000475361,0.346293,0.00218006,0.0255201,664,1359,-15.7666,-7.39651
-553,-335,-15.7844,7.91003,0.00319491,0.000439617,0.000891171,0.00345803,0.000176503,0.287089,0.00224883,0.0279408,671,1359,-15.7844,-7.91003
-546,-335,-15.8091,8.46619,0.00358754,0.000118798,0.000968025,0.0038394,-0.000133063,0.254536,0.00260509,0.0260131,678,1359,-15.8092,-8.46624
-539,-335,-15.8455,8.97595,0.00430135,-0.000110893,0.00120038,0.00460678,-0.000416321,0.249156,0.00321895,0.0206948,685,1359,-15.8455,-8.97597
-532,-335,-15.8785,9.49475,0.00547906,-0.000256836,0.00164999,0.00591983,-0.000697604,0.261038,0.00419845,0.0153312,692,1359,-15.8785,-9.4948
-525,-335,-15.8138,10.0128,0.00715388,-0.000387238,0.00227048,0.00778471,-0.00101806,0.271003,0.00556032,0.0116575,699,1359,-15.8138,-10.0128
-518,-335,-15.7158,10.4692,0.00942453,-0.000325852,0.00314173,0.0103492,-0.00125048,0.286226,0.00735181,0.0445322,706,1359,-15.7158,-10.4692
-511,-335,-15.5793,10.8964,0,0,0,0,0,0,0,-1,713,1359,-15.5793,-10.8964
-504,-335,-9.35767,5.99695,0,0,0,0,0,0,0,-1,720,1359,-9.35767,-5.99694
-497,-335,-8.75024,-0.650513,0,0,0,0,0,0,0,-1,727,1359,-8.75024,0.650521
-490,-335,-9.51971,0.417603,0,0,0,0,0,0,0,-1,734,1359,-9.51974,-0.41765
-483,-335,-10.2883,1.29224,0,0,0,0,0,0,0,-1,741,1359,-10.2883,-1.2922
-476,-335,-11.9938,-0.173462,0,0,0,0,0,0,0,-1,748,1359,-11.9938,0.173429
-469,-335,-12.8704,-0.204102,0,0,0,0,0,0,0,-1,755,1359,-12.8704,0.204117
-462,-335,-13.486,0.0218506,0,0,0,0,0,0,0,-1,762,1359,-13.4859,-0.0217908
-455,-335,-14.1504,0.549561,0,0,0,0,0,0,0,-1,769,1359,-14.1504,-0.549583
-448,-335,0,0,0,0,0,0,0,0,0,-1,776,1359,0,0
-441,-335,0,0,0,0,0,0,0,0,0,-1,783,1359,0,0
-434,-335,0,0,0,0,0,0,0,0,0,-1,790,1359,0,0
-427,-335,0,0,0,0,0,0,0,0,0,-1,797,1359,0,0
-420,-335,0,0,0,0,0,0,0,0,0,-1,804,1359,0,0
-413,-335,0,0,0,0,0,0,0,0,0,-1,811,1359,0,0
-406,-335,0,0,0,0,0,0,0,0,0,-1,818,1359,0,0
-399,-335,0,0,0,0,0,0,0,0,0,-1,825,1359,0,0
-392,-335,0,0,0,0,0,0,0,0,0,-1,832,1359,0,0
-385,-335,0,0,0,0,0,0,0,0,0,-1,839,1359,0,0
-378,-335,0,0,0,0,0,0,0,0,0,-1,846,1359,0,0
-371,-335,0,0,0,0,0,0,0,0,0,-1,853,1359,0,0
-364,-335,0,0,0,0,0,0,0,0,0,-1,860,1359,0,0
-357,-335,0,0,0,0,0,0,0,0,0,-1,867,1359,0,0
-350,-335,0,0,0,0,0,0,0,0,0,-1,874,1359,0,0
-343,-335,0,0,0,0,0,0,0,0,0,-1,881,1359,0,0
-336,-335,0,0,0,0,0,0,0,0,0,-1,888,1359,0,0
-329,-335,0,0,0,0,0,0,0,0,0,-1,895,1359,0,0
-322,-335,0,0,0,0,0,0,0,0,0,-1,902,1359,0,0
-315,-335,0,0,0,0,0,0,0,0,0,-1,909,1359,0,0
-308,-335,0,0,0,0,0,0,0,0,0,-1,916,1359,0,0
-301,-335,0,0,0,0,0,0,0,0,0,-1,923,1359,0,0
-294,-335,0,0,0,0,0,0,0,0,0,-1,930,1359,0,0
-287,-335,0,0,0,0,0,0,0,0,0,-1,937,1359,0,0
-280,-335,0,0,0,0,0,0,0,0,0,-1,944,1359,0,0
-273,-335,0,0,0,0,0,0,0,0,0,-1,951,1359,0,0
-266,-335,0,0,0,0,0,0,0,0,0,-1,958,1359,0,0
-259,-335,0,0,0,0,0,0,0,0,0,-1,965,1359,0,0
-252,-335,0,0,0,0,0,0,0,0,0,-1,972,1359,0,0
-245,-335,0,0,0,0,0,0,0,0,0,-1,979,1359,0,0
-238,-335,0,0,0,0,0,0,0,0,0,-1,986,1359,0,0
-231,-335,0,0,0,0,0,0,0,0,0,-1,993,1359,0,0
-224,-335,0,0,0,0,0,0,0,0,0,-1,1000,1359,0,0
-217,-335,0,0,0,0,0,0,0,0,0,-1,1007,1359,0,0
-210,-335,0,0,0,0,0,0,0,0,0,-1,1014,1359,0,0
-203,-335,0,0,0,0,0,0,0,0,0,-1,1021,1359,0,0
-196,-335,0,0,0,0,0,0,0,0,0,-1,1028,1359,0,0
-189,-335,0,0,0,0,0,0,0,0,0,-1,1035,1359,0,0
-182,-335,0,0,0,0,0,0,0,0,0,-1,1042,1359,0,0
-175,-335,0,0,0,0,0,0,0,0,0,-1,1049,1359,0,0
-168,-335,0,0,0,0,0,0,0,0,0,-1,1056,1359,0,0
-161,-335,0,0,0,0,0,0,0,0,0,-1,1063,1359,0,0
-154,-335,0,0,0,0,0,0,0,0,0,-1,1070,1359,0,0
-147,-335,0,0,0,0,0,0,0,0,0,-1,1077,1359,0,0
-140,-335,0,0,0,0,0,0,0,0,0,-1,1084,1359,0,0
-133,-335,0,0,0,0,0,0,0,0,0,-1,1091,1359,0,0
-126,-335,0,0,0,0,0,0,0,0,0,-1,1098,1359,0,0
-119,-335,0,0,0,0,0,0,0,0,0,-1,1105,1359,0,0
-112,-335,0,0,0,0,0,0,0,0,0,-1,1112,1359,0,0
-105,-335,0,0,0,0,0,0,0,0,0,-1,1119,1359,0,0
-98,-335,0,0,0,0,0,0,0,0,0,-1,1126,1359,0,0
-91,-335,0,0,0,0,0,0,0,0,0,-1,1133,1359,0,0
-84,-335,0,0,0,0,0,0,0,0,0,-1,1140,1359,0,0
-77,-335,0,0,0,0,0,0,0,0,0,-1,1147,1359,0,0
-70,-335,0,0,0,0,0,0,0,0,0,-1,1154,1359,0,0
-63,-335,0,0,0,0,0,0,0,0,0,-1,1161,1359,0,0
-56,-335,0,0,0,0,0,0,0,0,0,-1,1168,1359,0,0
-49,-335,0,0,0,0,0,0,0,0,0,-1,1175,1359,0,0
-42,-335,0,0,0,0,0,0,0,0,0,-1,1182,1359,0,0
-35,-335,0,0,0,0,0,0,0,0,0,-1,1189,1359,0,0
-28,-335,0,0,0,0,0,0,0,0,0,-1,1196,1359,0,0
-21,-335,0,0,0,0,0,0,0,0,0,-1,1203,1359,0,0
-14,-335,0,0,0,0,0,0,0,0,0,-1,1210,1359,0,0
-7,-335,0,0,0,0,0,0,0,0,0,-1,1217,1359,0,0
0,-335,0,0,0,0,0,0,0,0,0,-1,1224,1359,0,0
7,-335,0,0,0,0,0,0,0,0,0,-1,1231,1359,0,0
14,-335,0,0,0,0,0,0,0,0,0,-1,1238,1359,0,0
21,-335,0,0,0,0,0,0,0,0,0,-1,1245,1359,0,0
28,-335,0,0,0,0,0,0,0,0,0,-1,1252,1359,0,0
35,-335,0,0,0,0,0,0,0,0,0,-1,1259,1359,0,0
42,-335,0,0,0,0,0,0,0,0,0,-1,1266,1359,0,0
49,-335,0,0,0,0,0,0,0,0,0,-1,1273,1359,0,0
56,-335,0,0,0,0,0,0,0,0,0,-1,1280,1359,0,0
63,-335,0,0,0,0,0,0,0,0,0,-1,1287,1359,0,0
70,-335,0,0,0,0,0,0,0,0,0,-1,1294,1359,0,0
77,-335,0,0,0,0,0,0,0,0,0,-1,1301,1359,0,0
84,-335,0,0,0,0,0,0,0,0,0,-1,1308,1359,0,0
91,-335,0,0,0,0,0,0,0,0,0,-1,1315,1359,0,0
98,-335,0,0,0,0,0,0,0,0,0,-1,1322,1359,0,0
105,-335,0,0,0,0,0,0,0,0,0,-1,1329,1359,0,0
112,-335,0,0,0,0,0,0,0,0,0,-1,1336,1359,0,0
119,-335,0,0,0,0,0,0,0,0,0,-1,1343,1359,0,0
126,-335,0,0,0,0,0,0,0,0,0,-1,1350,1359,0,0
133,-335,0,0,0,0,0,0,0,0,0,-1,1357,1359,0,0
140,-335,0,0,0,0,0,0,0,0,0,-1,1364,1359,0,0
147,-335,0,0,0,0,0,0,0,0,0,-1,1371,1359,0,0
154,-335,0,0,0,0,0,0,0,0,0,-1,1378,1359,0,0
161,-335,0,0,0,0,0,0,0,0,0,-1,1385,1359,0,0
168,-335,0,0,0,0,0,0,0,0,0,-1,1392,1359,0,0
175,-335,0,0,0,0,0,0,0,0,0,-1,1399,1359,0,0
182,-335,0,0,0,0,0,0,0,0,0,-1,1406,1359,0,0
189,-335,0,0,0,0,0,0,0,0,0,-1,1413,1359,0,0
196,-335,0,0,0,0,0,0,0,0,0,-1,1420,1359,0,0
203,-335,0,0,0,0,0,0,0,0,0,-1,1427,1359,0,0
210,-335,0,0,0,0,0,0,0,0,0,-1,1434,1359,0,0
217,-335,0,0,0,0,0,0,0,0,0,-1,1441,1359,0,0
224,-335,0,0,0,0,0,0,0,0,0,-1,1448,1359,0,0
231,-335,0,0,0,0,0,0,0,0,0,-1,1455,1359,0,0
238,-335,0,0,0,0,0,0,0,0,0,-1,1462,1359,0,0
245,-335,0,0,0,0,0,0,0,0,0,-1,1469,1359,0,0
252,-335,0,0,0,0,0,0,0,0,0,-1,1476,1359,0,0
259,-335,0,0,0,0,0,0,0,0,0,-1,1483,1359,0,0
266,-335,0,0,0,0,0,0,0,0,0,-1,1490,1359,0,0
273,-335,0,0,0,0,0,0,0,0,0,-1,1497,1359,0,0
280,-335,0,0,0,0,0,0,0,0,0,-1,1504,1359,0,0
287,-335,0,0,0,0,0,0,0,0,0,-1,1511,1359,0,0
294,-335,0,0,0,0,0,0,0,0,0,-1,1518,1359,0,0
301,-335,0,0,0,0,0,0,0,0,0,-1,1525,1359,0,0
308,-335,0,0,0,0,0,0,0,0,0,-1,1532,1359,0,0
315,-335,0,0,0,0,0,0,0,0,0,-1,1539,1359,0,0
322,-335,0,0,0,0,0,0,0,0,0,-1,1546,1359,0,0
329,-335,0,0,0,0,0,0,0,0,0,-1,1553,1359,0,0
336,-335,0,0,0,0,0,0,0,0,0,-1,1560,1359,0,0
343,-335,0,0,0,0,0,0,0,0,0,-1,1567,1359,0,0
350,-335,0,0,0,0,0,0,0,0,0,-1,1574,1359,0,0
357,-335,0,0,0,0,0,0,0,0,0,-1,1581,1359,0,0
364,-335,0,0,0,0,0,0,0,0,0,-1,1588,1359,0,0
371,-335,0,0,0,0,0,0,0,0,0,-1,1595,1359,0,0
378,-335,0,0,0,0,0,0,0,0,0,-1,1602,1359,0,0
385,-335,0,0,0,0,0,0,0,0,0,-1,1609,1359,0,0
392,-335,0,0,0,0,0,0,0,0,0,-1,1616,1359,0,0
399,-335,0,0,0,0,0,0,0,0,0,-1,1623,1359,0,0
406,-335,0,0,0,0,0,0,0,0,0,-1,1630,1359,0,0
413,-335,0,0,0,0,0,0,0,0,0,-1,1637,1359,0,0
420,-335,0,0,0,0,0,0,0,0,0,-1,1644,1359,0,0
427,-335,0,0,0,0,0,0,0,0,0,-1,1651,1359,0,0
434,-335,0,0,0,0,0,0,0,0,0,-1,1658,1359,0,0
441,-335,0,0,0,0,0,0,0,0,0,-1,1665,1359,0,0
448,-335,0,0,0,0,0,0,0,0,0,-1,1672,1359,0,0
455,-335,0,0,0,0,0,0,0,0,0,-1,1679,1359,0,0
462,-335,0,0,0,0,0,0,0,0,0,-1,1686,1359,0,0
469,-335,0,0,0,0,0,0,0,0,0,-1,1693,1359,0,0
476,-335,0,0,0,0,0,0,0,0,0,-1,1700,1359,0,0
483,-335,0,0,0,0,0,0,0,0,0,-1,1707,1359,0,0
490,-335,0,0,0,0,0,0,0,0,0,-1,1714,1359,0,0
497,-335,0,0,0,0,0,0,0,0,0,-1,1721,1359,0,0
504,-335,0,0,0,0,0,0,0,0,0,-1,1728,1359,0,0
511,-335,0,0,0,0,0,0,0,0,0,-1,1735,1359,0,0
518,-335,0,0,0,0,0,0,0,0,0,-1,1742,1359,0,0
525,-335,0,0,0,0,0,0,0,0,0,-1,1749,1359,0,0
532,-335,0,0,0,0,0,0,0,0,0,-1,1756,1359,0,0
539,-335,0,0,0,0,0,0,0,0,0,-1,1763,1359,0,0
546,-335,0,0,0,0,0,0,0,0,0,-1,1770,1359,0,0
553,-335,0,0,0,0,0,0,0,0,0,-1,1777,1359,0,0
560,-335,0,0,0,0,0,0,0,0,0,-1,1784,1359,0,0
567,-335,0,0,0,0,0,0,0,0,0,-1,1791,1359,0,0
574,-335,44.5405,5.74219,0,0,0,0,0,0,0,-1,1798,1359,44.5406,-5.74224
581,-335,44.1571,6.41992,0.0673074,-0.0690676,0.103655,0.123192,-0.124952,0.494468,0.143268,0.0444163,1805,1359,44.1571,-6.41989
588,-335,44.5253,7.03552,0.0613682,-0.063417,0.0818733,0.101913,-0.103962,0.45981,0.118864,0.0468051,1812,1359,44.5252,-7.03551
595,-335,44.9108,7.65088,0,0,0,0,0,0,0,-1,1819,1359,44.9108,-7.65084
602,-335,36.5643,0.0861816,0,0,0,0,0,0,0,-1,1826,1359,36.5643,-0.0862283
609,-335,36.2933,0.993896,0,0,0,0,0,0,0,-1,1833,1359,36.2934,-0.993911
616,-335,34.6969,4.82666,0,0,0,0,0,0,0,-1,1840,1359,34.6969,-4.82667
623,-335,26.6051,6.54333,0,0,0,0,0,0,0,-1,1847,1359,26.6051,-6.54339
630,-335,19.1707,1.00952,0,0,0,0,0,0,0,-1,1854,1359,19.1707,-1.00953
637,-335,18.2009,6.65454,0,0,0,0,0,0,0,-1,1861,1359,18.2009,-6.6546
644,-335,28.1042,12.067,0,0,0,0,0,0,0,-1,1868,1359,28.1042,-12.067
651,-335,29.4453,12.4584,0,0,0,0,0,0,0,-1,1875,1359,29.4454,-12.4584
658,-335,29.5813,12.0037,-0.000286867,-0.00400895,-0.00175272,0.000408557,-0.00470437,-0.377717,0.00328092,0.0268451,1882,1359,29.5813,-12.0037
665,-335,29.6061,11.4807,-0.000315219,0.000316044,-0.000381598,0.00049563,-0.000494805,-1.13093,0.000571828,0.0139473,1889,1359,29.6061,-11.4807
672,-335,29.5785,11.0088,0.000314894,-2.55527e-05,-0.000205792,0.000411741,-0.000122399,-0.439855,0.000323116,0.0167171,1896,1359,29.5785,-11.0088
679,-335,29.5923,10.5553,0.000775935,-5.20235e-05,-0.000204179,0.000823549,-9.96371e-05,-0.229101,0.00058508,0.0150704,1903,1359,29.5923,-10.5553
686,-335,29.5845,10.0779,0.00114979,-5.63082e-05,-0.000199722,0.001182,-8.85205e-05,-0.159908,0.000819106,0.01248,1910,1359,29.5845,-10.0779
693,-335,29.5542,9.60767,0.00147116,5.62196e-06,-0.000234841,0.00150787,-3.10898e-05,-0.155071,0.00101577,0.0113552,1917,1359,29.5542,-9.60772
700,-335,29.5281,9.18774,0.00171056,8.7023e-05,-0.000257001,0.00175027,4.73117e-05,-0.153306,0.0011514,0.0122535,1924,1359,29.5281,-9.18777
707,-335,29.5297,8.72522,0.00173698,0.0002012,-0.000247313,0.00177582,0.000162357,-0.155789,0.00113364,0.0154333,1931,1359,29.5297,-8.72521
714,-335,29.5382,8.14722,0.00161346,0.000209138,-0.000131005,0.00162558,0.000197022,-0.0922266,0.00102438,0.0339495,1938,1359,29.5382,-8.14723
721,-335,29.4766,7.49829,0,0,0,0,0,0,0,-1,1945,1359,29.4765,-7.49823
728,-335,20.8126,5.21167,0,0,0,0,0,0,0,-1,1952,1359,20.8127,-5.21172
735,-335,20.2725,5.34729,0,0,0,0,0,0,0,-1,1959,1359,20.2724,-5.34734
742,-335,19.8624,4.72229,0,0,0,0,0,0,0,-1,1966,1359,19.8624,-4.72225
749,-335,20.5887,6.05322,0,0,0,0,0,0,0,-1,1973,1359,20.5887,-6.05322
756,-335,20.7832,6.00452,0,0,0,0,0,0,0,-1,1980,1359,20.7832,-6.00447
763,-335,0,0,0,0,0,0,0,0,0,-1,1987,1359,0,0
770,-335,0,0,0,0,0,0,0,0,0,-1,1994,1359,0,0
777,-335,0,0,0,0,0,0,0,0,0,-1,2001,1359,0,0
784,-335,0,0,0,0,0,0,0,0,0,-1,2008,1359,0,0
791,-335,0,0,0,0,0,0,0,0,0,-1,2015,1359,0,0
798,-335,0,0,0,0,0,0,0,0,0,-1,2022,1359,0,0
805,-335,0,0,0,0,0,0,0,0,0,-1,2029,1359,0,0
812,-335,0,0,0,0,0,0,0,0,0,-1,2036,1359,0,0
-700,-342,0,0,0,0,0,0,0,0,0,-1,524,1366,0,0
-693,-342,0,0,0,0,0,0,0,0,0,-1,531,1366,0,0
-686,-342,0,0,0,0,0,0,0,0,0,-1,538,1366,0,0
-679,-342,0,0,0,0,0,0,0,0,0,-1,545,1366,0,0
-672,-342,0,0,0,0,0,0,0,0,0,-1,552,1366,0,0
-665,-342,0,0,0,0,0,0,0,0,0,-1,559,1366,0,0
-658,-342,0,0,0,0,0,0,0,0,0,-1,566,1366,0,0
-651,-342,0,0,0,0,0,0,0,0,0,-1,573,1366,0,0
-644,-342,0,0,0,0,0,0,0,0,0,-1,580,1366,0,0
-637,-342,-8.67786,-4.58557,0,0,0,0,0,0,0,-1,587,1366,-8.67788,4.5856
-630,-342,-8.60132,2.71777,0,0,0,0,0,0,0,-1,594,1366,-8.60135,-2.71779
-623,-342,-8.41168,0.662476,0,0,0,0,0,0,0,-1,601,1366,-8.41168,-0.662442
-616,-342,-6.625,-1.28015,0,0,0,0,0,0,0,-1,608,1366,-6.62499,1.28011
-609,-342,-7.83154,0.674561,0,0,0,0,0,0,0,-1,615,1366,-7.83155,-0.674598
-602,-342,-9.65765,2.25195,0,0,0,0,0,0,0,-1,622,1366,-9.65767,-2.25192
-595,-342,-9.47687,3.00671,0,0,0,0,0,0,0,-1,629,1366,-9.47686,-3.00668
-588,-342,-9.78467,3.57727,0,0,0,0,0,0,0,-1,636,1366,-9.78468,-3.57723
-581,-342,-15.3384,5.78748,0,0,0,0,0,0,0,-1,643,1366,-15.3384,-5.78747
-574,-342,-15.2951,6.44446,0.00466566,0.00153154,0.00162597,0.0053568,0.000840404,0.401922,0.00332664,0.0154568,650,1366,-15.2951,-6.44448
-567,-342,-15.2389,6.9707,0.00372571,0.00107473,0.00115575,0.00415883,0.000641619,0.358548,0.00258535,0.018281,657,1366,-15.2389,-6.97076
-560,-342,-15.3014,7.42004,0.00330971,0.000678874,0.000908397,0.00359289,0.000395695,0.302187,0.00227486,0.0261807,664,1366,-15.3014,-7.42001
-553,-342,-15.3218,7.91321,0.00326972,0.000405521,0.000872729,0.00351469,0.000160551,0.273653,0.00229149,0.0288447,671,1366,-15.3218,-7.91324
-546,-342,-15.2932,8.44141,0.00355505,0.000201812,0.00097906,0.00381997,-6.31172e-05,0.264267,0.00256795,0.0295659,678,1366,-15.2932,-8.44141
-539,-342,-15.3349,8.99048,0.00414589,7.26371e-05,0.00122819,0.00448757,-0.000269036,0.271331,0.0030853,0.0238557,685,1366,-15.3349,-8.99049
-532,-342,-15.3674,9.53772,0.00513009,1.54639e-05,0.00166246,0.00562295,-0.000477405,0.288216,0.00391748,0.0181416,692,1366,-15.3674,-9.53778
-525,-342,-15.3256,10.0394,0.00655064,2.05036e-05,0.00227416,0.00726458,-0.000693431,0.30419,0.00508996,0.0124033,699,1366,-15.3256,-10.0394
-518,-342,-15.2526,10.5603,0.00845565,0.000218516,0.00311052,0.00949828,-0.00082411,0.323424,0.006624,0.0287903,706,1366,-15.2526,-10.5603
-511,-342,-15.2488,11.077,0,0,0,0,0,0,0,-1,713,1366,-15.2488,-11.077
-504,-342,-8.95709,6.5719,0,0,0,0,0,0,0,-1,720,1366,-8.95707,-6.57192
-497,-342,-8.26587,-0.943604,0,0,0,0,0,0,0,-1,727,1366,-8.26586,0.943543
-490,-342,-9.07153,-0.0227051,0,0,0,0,0,0,0,-1,734,1366,-9.07155,0.0227087
-483,-342,-9.87726,0.898071,0,0,0,0,0,0,0,-1,741,1366,-9.87724,-0.898125
-476,-342,-11.6371,-0.736328,0,0,0,0,0,0,0,-1,748,1366,-11.6371,0.736281
-469,-342,-12.6245,-0.987549,0,0,0,0,0,0,0,-1,755,1366,-12.6245,0.987553
-462,-342,-13.0912,-0.533203,0,0,0,0,0,0,0,-1,762,1366,-13.0912,0.533224
-455,-342,-13.7612,0.122925,0,0,0,0,0,0,0,-1,769,1366,-13.7612,-0.122896
-448,-342,-14.5278,0.826904,0,0,0,0,0,0,0,-1,776,1366,-14.5277,-0.826861
-441,-342,0,0,0,0,0,0,0,0,0,-1,783,1366,0,0
-434,-342,0,0,0,0,0,0,0,0,0,-1,790,1366,0,0
-427,-342,0,0,0,0,0,0,0,0,0,-1,797,1366,0,0
-420,-342,0,0,0,0,0,0,0,0,0,-1,804,1366,0,0
-413,-342,0,0,0,0,0,0,0,0,0,-1,811,1366,0,0
-406,-342,0,0,0,0,0,0,0,0,0,-1,818,1366,0,0
-399,-342,0,0,0,0,0,0,0,0,0,-1,825,1366,0,0
-392,-342,0,0,0,0,0,0,0,0,0,-1,832,1366,0,0
-385,-342,0,0,0,0,0,0,0,0,0,-1,839,1366,0,0
-378,-342,0,0,0,0,0,0,0,0,0,-1,846,1366,0,0
-371,-342,0,0,0,0,0,0,0,0,0,-1,853,1366,0,0
-364,-342,0,0,0,0,0,0,0,0,0,-1,860,1366,0,0
-357,-342,0,0,0,0,0,0,0,0,0,-1,867,1366,0,0
-350,-342,0,0,0,0,0,0,0,0,0,-1,874,1366,0,0
-343,-342,0,0,0,0,0,0,0,0,0,-1,881,1366,0,0
-336,-342,0,0,0,0,0,0,0,0,0,-1,888,1366,0,0
-329,-342,0,0,0,0,0,0,0,0,0,-1,895,1366,0,0
-322,-342,0,0,0,0,0,0,0,0,0,-1,902,1366,0,0
-315,-342,0,0,0,0,0,0,0,0,0,-1,909,1366,0,0
-308,-342,0,0,0,0,0,0,0,0,0,-1,916,1366,0,0
-301,-342,0,0,0,0,0,0,0,0,0,-1,923,1366,0,0
-294,-342,0,0,0,0,0,0,0,0,0,-1,930,1366,0,0
-287,-342,0,0,0,0,0,0,0,0,0,-1,937,1366,0,0
-280,-342,0,0,0,0,0,0,0,0,0,-1,944,1366,0,0
-273,-342,0,0,0,0,0,0,0,0,0,-1,951,1366,0,0
-266,-342,0,0,0,0,0,0,0,0,0,-1,958,1366,0,0
-259,-342,0,0,0,0,0,0,0,0,0,-1,965,1366,0,0
-252,-342,0,0,0,0,0,0,0,0,0,-1,972,1366,0,0
-245,-342,0,0,0,0,0,0,0,0,0,-1,979,1366,0,0
-238,-342,0,0,0,0,0,0,0,0,0,-1,986,1366,0,0
-231,-342,0,0,0,0,0,0,0,0,0,-1,993,1366,0,0
-224,-342,0,0,0,0,0,0,0,0,0,-1,1000,1366,0,0
-217,-342,0,0,0,0,0,0,0,0,0,-1,1007,1366,0,0
-210,-342,0,0,0,0,0,0,0,0,0,-1,1014,1366,0,0
-203,-342,0,0,0,0,0,0,0,0,0,-1,1021,1366,0,0
-196,-342,0,0,0,0,0,0,0,0,0,-1,1028,1366,0,0
-189,-342,0,0,0,0,0,0,0,0,0,-1,1035,1366,0,0
-182,-342,0,0,0,0,0,0,0,0,0,-1,1042,1366,0,0
-175,-342,0,0,0,0,0,0,0,0,0,-1,1049,1366,0,0
-168,-342,0,0,0,0,0,0,0,0,0,-1,1056,1366,0,0
-161,-342,0,0,0,0,0,0,0,0,0,-1,1063,1366,0,0
-154,-342,0,0,0,0,0,0,0,0,0,-1,1070,1366,0,0
-147,-342,0,0,0,0,0,0,0,0,0,-1,1077,1366,0,0
-140,-342,0,0,0,0,0,0,0,0,0,-1,1084,1366,0,0
-133,-342,0,0,0,0,0,0,0,0,0,-1,1091,1366,0,0
-126,-342,0,0,0,0,0,0,0,0,0,-1,1098,1366,0,0
-119,-342,0,0,0,0,0,0,0,0,0,-1,1105,1366,0,0
-112,-342,0,0,0,0,0,0,0,0,0,-1,1112,1366,0,0
-105,-342,0,0,0,0,0,0,0,0,0,-1,1119,1366,0,0
-98,-342,0,0,0,0,0,0,0,0,0,-1,1126,1366,0,0
-91,-342,0,0,0,0,0,0,0,0,0,-1,1133,1366,0,0
-84,-342,0,0,0,0,0,0,0,0,0,-1,1140,1366,0,0
-77,-342,0,0,0,0,0,0,0,0,0,-1,1147,1366,0,0
-70,-342,0,0,0,0,0,0,0,0,0,-1,1154,1366,0,0
-63,-342,0,0,0,0,0,0,0,0,0,-1,1161,1366,0,0
-56,-342,0,0,0,0,0,0,0,0,0,-1,1168,1366,0,0
-49,-342,0,0,0,0,0,0,0,0,0,-1,1175,1366,0,0
-42,-342,0,0,0,0,0,0,0,0,0,-1,1182,1366,0,0
-35,-342,0,0,0,0,0,0,0,0,0,-1,1189,1366,0,0
-28,-342,0,0,0,0,0,0,0,0,0,-1,1196,1366,0,0
-21,-342,0,0,0,0,0,0,0,0,0,-1,1203,1366,0,0
-14,-342,0,0,0,0,0,0,0,0,0,-1,1210,1366,0,0
-7,-342,0,0,0,0,0,0,0,0,0,-1,1217,1366,0,0
0,-342,0,0,0,0,0,0,0,0,0,-1,1224,1366,0,0
7,-342,0,0,0,0,0,0,0,0,0,-1,1231,1366,0,0
14,-342,0,0,0,0,0,0,0,0,0,-1,1238,1366,0,0
21,-342,0,0,0,0,0,0,0,0,0,-1,1245,1366,0,0
28,-342,0,0,0,0,0,0,0,0,0,-1,1252,1366,0,0
35,-342,0,0,0,0,0,0,0,0,0,-1,1259,1366,0,0
42,-342,0,0,0,0,0,0,0,0,0,-1,1266,1366,0,0
49,-342,0,0,0,0,0,0,0,0,0,-1,1273,1366,0,0
56,-342,0,0,0,0,0,0,0,0,0,-1,1280,1366,0,0
63,-342,0,0,0,0,0,0,0,0,0,-1,1287,1366,0,0
70,-342,0,0,0,0,0,0,0,0,0,-1,1294,1366,0,0
77,-342,0,0,0,0,0,0,0,0,0,-1,1301,1366,0,0
84,-342,0,0,0,0,0,0,0,0,0,-1,1308,1366,0,0
91,-342,0,0,0,0,0,0,0,0,0,-1,1315,1366,0,0
98,-342,0,0,0,0,0,0,0,0,0,-1,1322,1366,0,0
105,-342,0,0,0,0,0,0,0,0,0,-1,1329,1366,0,0
112,-342,0,0,0,0,0,0,0,0,0,-1,1336,1366,0,0
119,-342,0,0,0,0,0,0,0,0,0,-1,1343,1366,0,0
126,-342,0,0,0,0,0,0,0,0,0,-1,1350,1366,0,0
133,-342,0,0,0,0,0,0,0,0,0,-1,1357,1366,0,0
140,-342,0,0,0,0,0,0,0,0,0,-1,1364,1366,0,0
147,-342,0,0,0,0,0,0,0,0,0,-1,1371,1366,0,0
154,-342,0,0,0,0,0,0,0,0,0,-1,1378,1366,0,0
161,-342,0,0,0,0,0,0,0,0,0,-1,1385,1366,0,0
168,-342,0,0,0,0,0,0,0,0,0,-1,1392,1366,0,0
175,-342,0,0,0,0,0,0,0,0,0,-1,1399,1366,0,0
182,-342,0,0,0,0,0,0,0,0,0,-1,1406,1366,0,0
189,-342,0,0,0,0,0,0,0,0,0,-1,1413,1366,0,0
196,-342,0,0,0,0,0,0,0,0,0,-1,1420,1366,0,0
203,-342,0,0,0,0,0,0,0,0,0,-1,1427,1366,0,0
210,-342,0,0,0,0,0,0,0,0,0,-1,1434,1366,0,0
217,-342,0,0,0,0,0,0,0,0,0,-1,1441,1366,0,0
224,-342,0,0,0,0,0,0,0,0,0,-1,1448,1366,0,0
231,-342,0,0,0,0,0,0,0,0,0,-1,1455,1366,0,0
238,-342,0,0,0,0,0,0,0,0,0,-1,1462,1366,0,0
245,-342,0,0,0,0,0,0,0,0,0,-1,1469,1366,0,0
252,-342,0,0,0,0,0,0,0,0,0,-1,1476,1366,0,0
259,-342,0,0,0,0,0,0,0,0,0,-1,1483,1366,0,0
266,-342,0,0,0,0,0,0,0,0,0,-1,1490,1366,0,0
273,-342,0,0,0,0,0,0,0,0,0,-1,1497,1366,0,0
280,-342,0,0,0,0,0,0,0,0,0,-1,1504,1366,0,0
287,-342,0,0,0,0,0,0,0,0,0,-1,1511,1366,0,0
294,-342,0,0,0,0,0,0,0,0,0,-1,1518,1366,0,0
301,-342,0,0,0,0,0,0,0,0,0,-1,1525,1366,0,0
308,-342,0,0,0,0,0,0,0,0,0,-1,1532,1366,0,0
315,-342,0,0,0,0,0,0,0,0,0,-1,1539,1366,0,0
322,-342,0,0,0,0,0,0,0,0,0,-1,1546,1366,0,0
329,-342,0,0,0,0,0,0,0,0,0,-1,1553,1366,0,0
336,-342,0,0,0,0,0,0,0,0,0,-1,1560,1366,0,0
343,-342,0,0,0,0,0,0,0,0,0,-1,1567,1366,0,0
350,-342,0,0,0,0,0,0,0,0,0,-1,1574,1366,0,0
357,-342,0,0,0,0,0,0,0,0,0,-1,1581,1366,0,0
364,-342,0,0,0,0,0,0,0,0,0,-1,1588,1366,0,0
371,-342,0,0,0,0,0,0,0,0,0,-1,1595,1366,0,0
378,-342,0,0,0,0,0,0,0,0,0,-1,1602,1366,0,0
385,-342,0,0,0,0,0,0,0,0,0,-1,1609,1366,0,0
392,-342,0,0,0,0,0,0,0,0,0,-1,1616,1366,0,0
399,-342,0,0,0,0,0,0,0,0,0,-1,1623,1366,0,0
406,-342,0,0,0,0,0,0,0,0,0,-1,1630,1366,0,0
413,-342,0,0,0,0,0,0,0,0,0,-1,1637,1366,0,0
420,-342,0,0,0,0,0,0,0,0,0,-1,1644,1366,0,0
427,-342,0,0,0,0,0,0,0,0,0,-1,1651,1366,0,0
434,-342,0,0,0,0,0,0,0,0,0,-1,1658,1366,0,0
441,-342,0,0,0,0,0,0,0,0,0,-1,1665,1366,0,0
448,-342,0,0,0,0,0,0,0,0,0,-1,1672,1366,0,0
455,-342,0,0,0,0,0,0,0,0,0,-1,1679,1366,0,0
462,-342,0,0,0,0,0,0,0,0,0,-1,1686,1366,0,0
469,-342,0,0,0,0,0,0,0,0,0,-1,1693,1366,0,0
476,-342,0,0,0,0,0,0,0,0,0,-1,1700,1366,0,0
483,-342,0,0,0,0,0,0,0,0,0,-1,1707,1366,0,0
490,-342,0,0,0,0,0,0,0,0,0,-1,1714,1366,0,0
497,-342,0,0,0,0,0,0,0,0,0,-1,1721,1366,0,0
504,-342,0,0,0,0,0,0,0,0,0,-1,1728,1366,0,0
511,-342,0,0,0,0,0,0,0,0,0,-1,1735,1366,0,0
518,-342,0,0,0,0,0,0,0,0,0,-1,1742,1366,0,0
525,-342,0,0,0,0,0,0,0,0,0,-1,1749,1366,0,0
532,-342,0,0,0,0,0,0,0,0,0,-1,1756,1366,0,0
539,-342,0,0,0,0,0,0,0,0,0,-1,1763,1366,0,0
546,-342,0,0,0,0,0,0,0,0,0,-1,1770,1366,0,0
553,-342,0,0,0,0,0,0,0,0,0,-1,1777,1366,0,0
560,-342,0,0,0,0,0,0,0,0,0,-1,1784,1366,0,0
567,-342,42.6652,5.53748,0,0,0,0,0,0,0,-1,1791,1366,42.6652,-5.53752
574,-342,43.0466,5.95728,0,0,0,0,0,0,0,-1,1798,1366,43.0466,-5.9573
581,-342,43.4904,6.59937,0,0,0,0,0,0,0,-1,1805,1366,43.4903,-6.59938
588,-342,43.9108,7.22559,0,0,0,0,0,0,0,-1,1812,1366,43.9107,-7.22554
595,-342,35.7993,0.709961,0,0,0,0,0,0,0,-1,1819,1366,35.7993,-0.709913
602,-342,36.3618,3.28723,0,0,0,0,0,0,0,-1,1826,1366,36.3619,-3.28719
609,-342,35.3777,4.14978,0,0,0,0,0,0,0,-1,1833,1366,35.3777,-4.14976
616,-342,34.199,5.8158,0,0,0,0,0,0,0,-1,1840,1366,34.199,-5.81579
623,-342,26.0299,6.86865,0,0,0,0,0,0,0,-1,1847,1366,26.0299,-6.86863
630,-342,17.3431,0.773071,0,0,0,0,0,0,0,-1,1854,1366,17.3432,-0.773095
637,-342,16.196,6.76172,0,0,0,0,0,0,0,-1,1861,1366,16.1961,-6.76174
644,-342,29.0319,12.9053,0,0,0,0,0,0,0,-1,1868,1366,29.0318,-12.9052
651,-342,29.1759,12.4659,0.00292369,-0.00771954,-0.00133893,0.00308954,-0.0078854,-0.123243,0.00653493,0.0446698,1875,1366,29.176,-12.4659
658,-342,29.1285,11.9556,-5.10525e-05,-0.00292033,-0.00107815,0.000308913,-0.00328029,-0.322236,0.00229677,0.0226665,1882,1366,29.1285,-11.9556
665,-342,29.1476,11.4607,-7.96131e-05,0.000232764,-0.000287256,0.000403548,-0.000250397,-1.03441,0.000380991,0.0172636,1889,1366,29.1476,-11.4607
672,-342,29.1262,11.037,0.000497873,4.42527e-05,-0.000195139,0.000570265,-2.81397e-05,-0.35524,0.000389895,0.0133575,1896,1366,29.1263,-11.0369
679,-342,29.1194,10.5997,0.0010285,-5.65866e-05,-0.000169133,0.00105425,-8.23385e-05,-0.151097,0.000731824,0.0127036,1903,1366,29.1194,-10.5997
686,-342,29.129,10.1348,0.00149952,-0.000113836,-0.00017237,0.00151773,-0.000132047,-0.105257,0.00105858,0.0112989,1910,1366,29.129,-10.1348
693,-342,29.0897,9.66077,0.00192656,-0.000100554,-0.000219078,0.00194997,-0.00012396,-0.106436,0.00134321,0.0126031,1917,1366,29.0898,-9.66078
700,-342,29.0579,9.22522,0.0022963,-3.66953e-05,-0.000284296,0.00233044,-7.08395e-05,-0.119529,0.00157777,0.014524,1924,1366,29.0578,-9.22517
707,-342,29.0646,8.71863,0.0023992,0.000111534,-0.000356523,0.00245348,5.72591e-05,-0.151074,0.0016169,0.0142524,1931,1366,29.0646,-8.71863
714,-342,29.0924,8.18848,0,0,0,0,0,0,0,-1,1938,1366,29.0924,-8.1885
721,-342,22.4666,6.08679,0,0,0,0,0,0,0,-1,1945,1366,22.4666,-6.08678
728,-342,19.8912,5.26636,0,0,0,0,0,0,0,-1,1952,1366,19.8913,-5.26636
735,-342,19.481,4.41968,0,0,0,0,0,0,0,-1,1959,1366,19.4809,-4.41962
742,-342,19.309,2.66943,0,0,0,0,0,0,0,-1,1966,1366,19.3089,-2.66948
749,-342,21.0934,6.47729,0,0,0,0,0,0,0,-1,1973,1366,21.0934,-6.4773
756,-342,0,0,0,0,0,0,0,0,0,-1,1980,1366,0,0
763,-342,0,0,0,0,0,0,0,0,0,-1,1987,1366,0,0
770,-342,0,0,0,0,0,0,0,0,0,-1,1994,1366,0,0
777,-342,0,0,0,0,0,0,0,0,0,-1,2001,1366,0,0
784,-342,0,0,0,0,0,0,0,0,0,-1,2008,1366,0,0
791,-342,0,0,0,0,0,0,0,0,0,-1,2015,1366,0,0
798,-342,0,0,0,0,0,0,0,0,0,-1,2022,1366,0,0
805,-342,0,0,0,0,0,0,0,0,0,-1,2029,1366,0,0
812,-342,0,0,0,0,0,0,0,0,0,-1,2036,1366,0,0
-700,-349,0,0,0,0,0,0,0,0,0,-1,524,1373,0,0
-693,-349,0,0,0,0,0,0,0,0,0,-1,531,1373,0,0
-686,-349,0,0,0,0,0,0,0,0,0,-1,538,1373,0,0
-679,-349,0,0,0,0,0,0,0,0,0,-1,545,1373,0,0
-672,-349,0,0,0,0,0,0,0,0,0,-1,552,1373,0,0
-665,-349,0,0,0,0,0,0,0,0,0,-1,559,1373,0,0
-658,-349,0,0,0,0,0,0,0,0,0,-1,566,1373,0,0
-651,-349,0,0,0,0,0,0,0,0,0,-1,573,1373,0,0
-644,-349,0,0,0,0,0,0,0,0,0,-1,580,1373,0,0
-637,-349,0,0,0,0,0,0,0,0,0,-1,587,1373,0,0
-630,-349,-7.64117,-5.06177,0,0,0,0,0,0,0,-1,594,1373,-7.64118,5.0618
-623,-349,-8.63507,0.51123,0,0,0,0,0,0,0,-1,601,1373,-8.63505,-0.511275
-616,-349,-5.2066,-0.188232,0,0,0,0,0,0,0,-1,608,1373,-5.20659,0.188211
-609,-349,-7.12073,1.37048,0,0,0,0,0,0,0,-1,615,1373,-7.12072,-1.37044
-602,-349,-9.00623,3.39587,0,0,0,0,0,0,0,-1,622,1373,-9.0062,-3.39591
-595,-349,-9.50568,2.96912,0,0,0,0,0,0,0,-1,629,1373,-9.50569,-2.96906
-588,-349,-8.60046,3.56042,0,0,0,0,0,0,0,-1,636,1373,-8.60046,-3.56047
-581,-349,-14.6948,5.90833,0,0,0,0,0,0,0,-1,643,1373,-14.6948,-5.90837
-574,-349,-14.7383,6.40662,0.00561379,0.0010161,0.00150591,0.00606312,0.000566775,0.289966,0.00386703,0.0334275,650,1373,-14.7383,-6.40663
-567,-349,-14.7708,6.98535,0.00429644,0.000744232,0.00107221,0.00459498,0.000445683,0.271563,0.0029261,0.0180804,657,1373,-14.7708,-6.98532
-560,-349,-14.8141,7.51038,0.00362744,0.000454426,0.000820902,0.00382724,0.000254628,0.238746,0.00247099,0.0209319,664,1373,-14.8141,-7.51036
-553,-349,-14.8347,7.9801,0.00342651,0.000300841,0.00081986,0.00362851,9.88467e-05,0.241566,0.00238674,0.0273922,671,1373,-14.8347,-7.98006
-546,-349,-14.7917,8.46204,0.00353734,0.000216579,0.000948778,0.0037893,-3.53805e-05,0.259571,0.00253807,0.0303895,678,1373,-14.7917,-8.46203
-539,-349,-14.8439,9.00293,0.00395489,0.000177802,0.00119957,0.00430366,-0.000170966,0.282944,0.00292776,0.0240113,685,1373,-14.844,-9.00296
-532,-349,-14.8532,9.52673,0.00471592,0.000192197,0.00159756,0.00522322,-0.000315098,0.307472,0.00359179,0.0177492,692,1373,-14.8532,-9.52673
-525,-349,-14.8204,10.0499,0.00585101,0.000284024,0.00216243,0.00659227,-0.000457241,0.33024,0.00455492,0.0133701,699,1373,-14.8203,-10.0499
-518,-349,-14.8146,10.5917,0.0073638,0.000532244,0.0029109,0.00843588,-0.000539836,0.352883,0.00581222,0.019481,706,1373,-14.8146,-10.5917
-511,-349,-14.7781,11.1492,0,0,0,0,0,0,0,-1,713,1373,-14.7781,-11.1491
-504,-349,-9.60516,7.88831,0,0,0,0,0,0,0,-1,720,1373,-9.60519,-7.88825
-497,-349,-7.9339,5.58789,0,0,0,0,0,0,0,-1,727,1373,-7.93388,-5.58785
-490,-349,-8.73969,-0.503784,0,0,0,0,0,0,0,-1,734,1373,-8.73966,0.503752
-483,-349,-5.66974,3.7395,0,0,0,0,0,0,0,-1,741,1373,-5.66975,-3.73949
-476,-349,-10.8496,1.15759,0,0,0,0,0,0,0,-1,748,1373,-10.8496,-1.15756
-469,-349,-12.3314,-1.74878,0,0,0,0,0,0,0,-1,755,1373,-12.3314,1.74882
-462,-349,-12.6559,-0.995361,0,0,0,0,0,0,0,-1,762,1373,-12.656,0.995351
-455,-349,-13.2897,-0.234253,0,0,0,0,0,0,0,-1,769,1373,-13.2897,0.234261
-448,-349,-14.045,0.712891,0,0,0,0,0,0,0,-1,776,1373,-14.045,-0.712838
-441,-349,0,0,0,0,0,0,0,0,0,-1,783,1373,0,0
-434,-349,0,0,0,0,0,0,0,0,0,-1,790,1373,0,0
-427,-349,0,0,0,0,0,0,0,0,0,-1,797,1373,0,0
-420,-349,0,0,0,0,0,0,0,0,0,-1,804,1373,0,0
-413,-349,0,0,0,0,0,0,0,0,0,-1,811,1373,0,0
-406,-349,0,0,0,0,0,0,0,0,0,-1,818,1373,0,0
-399,-349,0,0,0,0,0,0,0,0,0,-1,825,1373,0,0
-392,-349,0,0,0,0,0,0,0,0,0,-1,832,1373,0,0
-385,-349,0,0,0,0,0,0,0,0,0,-1,839,1373,0,0
-378,-349,0,0,0,0,0,0,0,0,0,-1,846,1373,0,0
-371,-349,0,0,0,0,0,0,0,0,0,-1,853,1373,0,0
-364,-349,0,0,0,0,0,0,0,0,0,-1,860,1373,0,0
-357,-349,0,0,0,0,0,0,0,0,0,-1,867,1373,0,0
-350,-349,0,0,0,0,0,0,0,0,0,-1,874,1373,0,0
-343,-349,0,0,0,0,0,0,0,0,0,-1,881,1373,0,0
-336,-349,0,0,0,0,0,0,0,0,0,-1,888,1373,0,0
-329,-349,0,0,0,0,0,0,0,0,0,-1,895,1373,0,0
-322,-349,0,0,0,0,0,0,0,0,0,-1,902,1373,0,0
-315,-349,0,0,0,0,0,0,0,0,0,-1,909,1373,0,0
-308,-349,0,0,0,0,0,0,0,0,0,-1,916,1373,0,0
-301,-349,0,0,0,0,0,0,0,0,0,-1,923,1373,0,0
-294,-349,0,0,0,0,0,0,0,0,0,-1,930,1373,0,0
-287,-349,0,0,0,0,0,0,0,0,0,-1,937,1373,0,0
-280,-349,0,0,0,0,0,0,0,0,0,-1,944,1373,0,0
-273,-349,0,0,0,0,0,0,0,0,0,-1,951,1373,0,0
-266,-349,0,0,0,0,0,0,0,0,0,-1,958,1373,0,0
-259,-349,0,0,0,0,0,0,0,0,0,-1,965,1373,0,0
-252,-349,0,0,0,0,0,0,0,0,0,-1,972,1373,0,0
-245,-349,0,0,0,0,0,0,0,0,0,-1,979,1373,0,0
-238,-349,0,0,0,0,0,0,0,0,0,-1,986,1373,0,0
-231,-349,0,0,0,0,0,0,0,0,0,-1,993,1373,0,0
-224,-349,0,0,0,0,0,0,0,0,0,-1,1000,1373,0,0
-217,-349,0,0,0,0,0,0,0,0,0,-1,1007,1373,0,0
-210,-349,0,0,0,0,0,0,0,0,0,-1,1014,1373,0,0
-203,-349,0,0,0,0,0,0,0,0,0,-1,1021,1373,0,0
-196,-349,0,0,0,0,0,0,0,0,0,-1,1028,1373,0,0
-189,-349,0,0,0,0,0,0,0,0,0,-1,1035,1373,0,0
-182,-349,0,0,0,0,0,0,0,0,0,-1,1042,1373,0,0
-175,-349,0,0,0,0,0,0,0,0,0,-1,1049,1373,0,0
-168,-349,0,0,0,0,0,0,0,0,0,-1,1056,1373,0,0
-161,-349,0,0,0,0,0,0,0,0,0,-1,1063,1373,0,0
-154,-349,0,0,0,0,0,0,0,0,0,-1,1070,1373,0,0
-147,-349,0,0,0,0,0,0,0,0,0,-1,1077,1373,0,0
-140,-349,0,0,0,0,0,0,0,0,0,-1,1084,1373,0,0
-133,-349,0,0,0,0,0,0,0,0,0,-1,1091,1373,0,0
-126,-349,0,0,0,0,0,0,0,0,0,-1,1098,1373,0,0
-119,-349,0,0,0,0,0,0,0,0,0,-1,1105,1373,0,0
-112,-349,0,0,0,0,0,0,0,0,0,-1,1112,1373,0,0
-105,-349,0,0,0,0,0,0,0,0,0,-1,1119,1373,0,0
-98,-349,0,0,0,0,0,0,0,0,0,-1,1126,1373,0,0
-91,-349,0,0,0,0,0,0,0,0,0,-1,1133,1373,0,0
-84,-349,0,0,0,0,0,0,0,0,0,-1,1140,1373,0,0
-77,-349,0,0,0,0,0,0,0,0,0,-1,1147,1373,0,0
-70,-349,0,0,0,0,0,0,0,0,0,-1,1154,1373,0,0
-63,-349,0,0,0,0,0,0,0,0,0,-1,1161,1373,0,0
-56,-349,0,0,0,0,0,0,0,0,0,-1,1168,1373,0,0
-49,-349,0,0,0,0,0,0,0,0,0,-1,1175,1373,0,0
-42,-349,0,0,0,0,0,0,0,0,0,-1,1182,1373,0,0
-35,-349,0,0,0,0,0,0,0,0,0,-1,1189,1373,0,0
-28,-349,0,0,0,0,0,0,0,0,0,-1,1196,1373,0,0
-21,-349,0,0,0,0,0,0,0,0,0,-1,1203,1373,0,0
-14,-349,0,0,0,0,0,0,0,0,0,-1,1210,1373,0,0
-7,-349,0,0,0,0,0,0,0,0,0,-1,1217,1373,0,0
0,-349,0,0,0,0,0,0,0,0,0,-1,1224,1373,0,0
7,-349,0,0,0,0,0,0,0,0,0,-1,1231,1373,0,0
14,-349,0,0,0,0,0,0,0,0,0,-1,1238,1373,0,0
21,-349,0,0,0,0,0,0,0,0,0,-1,1245,1373,0,0
28,-349,0,0,0,0,0,0,0,0,0,-1,1252,1373,0,0
35,-349,0,0,0,0,0,0,0,0,0,-1,1259,1373,0,0
42,-349,0,0,0,0,0,0,0,0,0,-1,1266,1373,0,0
49,-349,0,0,0,0,0,0,0,0,0,-1,1273,1373,0,0
56,-349,0,0,0,0,0,0,0,0,0,-1,1280,1373,0,0
63,-349,0,0,0,0,0,0,0,0,0,-1,1287,1373,0,0
70,-349,0,0,0,0,0,0,0,0,0,-1,1294,1373,0,0
77,-349,0,0,0,0,0,0,0,0,0,-1,1301,1373,0,0
84,-349,0,0,0,0,0,0,0,0,0,-1,1308,1373,0,0
91,-349,0,0,0,0,0,0,0,0,0,-1,1315,1373,0,0
98,-349,0,0,0,0,0,0,0,0,0,-1,1322,1373,0,0
105,-349,0,0,0,0,0,0,0,0,0,-1,1329,1373,0,0
112,-349,0,0,0,0,0,0,0,0,0,-1,1336,1373,0,0
119,-349,0,0,0,0,0,0,0,0,0,-1,1343,1373,0,0
126,-349,0,0,0,0,0,0,0,0,0,-1,1350,1373,0,0
133,-349,0,0,0,0,0,0,0,0,0,-1,1357,1373,0,0
140,-349,0,0,0,0,0,0,0,0,0,-1,1364,1373,0,0
147,-349,0,0,0,0,0,0,0,0,0,-1,1371,1373,0,0
154,-349,0,0,0,0,0,0,0,0,0,-1,1378,1373,0,0
161,-349,0,0,0,0,0,0,0,0,0,-1,1385,1373,0,0
168,-349,0,0,0,0,0,0,0,0,0,-1,1392,1373,0,0
175,-349,0,0,0,0,0,0,0,0,0,-1,1399,1373,0,0
182,-349,0,0,0,0,0,0,0,0,0,-1,1406,1373,0,0
189,-349,0,0,0,0,0,0,0,0,0,-1,1413,1373,0,0
196,-349,0,0,0,0,0,0,0,0,0,-1,1420,1373,0,0
203,-349,0,0,0,0,0,0,0,0,0,-1,1427,1373,0,0
210,-349,0,0,0,0,0,0,0,0,0,-1,1434,1373,0,0
217,-349,0,0,0,0,0,0,0,0,0,-1,1441,1373,0,0
224,-349,0,0,0,0,0,0,0,0,0,-1,1448,1373,0,0
231,-349,0,0,0,0,0,0,0,0,0,-1,1455,1373,0,0
238,-349,0,0,0,0,0,0,0,0,0,-1,1462,1373,0,0
245,-349,0,0,0,0,0,0,0,0,0,-1,1469,1373,0,0
252,-349,0,0,0,0,0,0,0,0,0,-1,1476,1373,0,0
259,-349,0,0,0,0,0,0,0,0,0,-1,1483,1373,0,0
266,-349,0,0,0,0,0,0,0,0,0,-1,1490,1373,0,0
273,-349,0,0,0,0,0,0,0,0,0,-1,1497,1373,0,0
280,-349,0,0,0,0,0,0,0,0,0,-1,1504,1373,0,0
287,-349,0,0,0,0,0,0,0,0,0,-1,1511,1373,0,0
294,-349,0,0,0,0,0,0,0,0,0,-1,1518,1373,0,0
301,-349,0,0,0,0,0,0,0,0,0,-1,1525,1373,0,0
308,-349,0,0,0,0,0,0,0,0,0,-1,1532,1373,0,0
315,-349,0,0,0,0,0,0,0,0,0,-1,1539,1373,0,0
322,-349,0,0,0,0,0,0,0,0,0,-1,1546,1373,0,0
329,-349,0,0,0,0,0,0,0,0,0,-1,1553,1373,0,0
336,-349,0,0,0,0,0,0,0,0,0,-1,1560,1373,0,0
343,-349,0,0,0,0,0,0,0,0,0,-1,1567,1373,0,0
350,-349,0,0,0,0,0,0,0,0,0,-1,1574,1373,0,0
357,-349,0,0,0,0,0,0,0,0,0,-1,1581,1373,0,0
364,-349,0,0,0,0,0,0,0,0,0,-1,1588,1373,0,0
371,-349,0,0,0,0,0,0,0,0,0,-1,1595,1373,0,0
378,-349,0,0,0,0,0,0,0,0,0,-1,1602,1373,0,0
385,-349,0,0,0,0,0,0,0,0,0,-1,1609,1373,0,0
392,-349,0,0,0,0,0,0,0,0,0,-1,1616,1373,0,0
399,-349,0,0,0,0,0,0,0,0,0,-1,1623,1373,0,0
406,-349,0,0,0,0,0,0,0,0,0,-1,1630,1373,0,0
413,-349,0,0,0,0,0,0,0,0,0,-1,1637,1373,0,0
420,-349,0,0,0,0,0,0,0,0,0,-1,1644,1373,0,0
427,-349,0,0,0,0,0,0,0,0,0,-1,1651,1373,0,0
434,-349,0,0,0,0,0,0,0,0,0,-1,1658,1373,0,0
441,-349,0,0,0,0,0,0,0,0,0,-1,1665,1373,0,0
448,-349,0,0,0,0,0,0,0,0,0,-1,1672,1373,0,0
455,-349,0,0,0,0,0,0,0,0,0,-1,1679,1373,0,0
462,-349,0,0,0,0,0,0,0,0,0,-1,1686,1373,0,0
469,-349,0,0,0,0,0,0,0,0,0,-1,1693,1373,0,0
476,-349,0,0,0,0,0,0,0,0,0,-1,1700,1373,0,0
483,-349,0,0,0,0,0,0,0,0,0,-1,1707,1373,0,0
490,-349,0,0,0,0,0,0,0,0,0,-1,1714,1373,0,0
497,-349,0,0,0,0,0,0,0,0,0,-1,1721,1373,0,0
504,-349,0,0,0,0,0,0,0,0,0,-1,1728,1373,0,0
511,-349,0,0,0,0,0,0,0,0,0,-1,1735,1373,0,0
518,-349,0,0,0,0,0,0,0,0,0,-1,1742,1373,0,0
525,-349,0,0,0,0,0,0,0,0,0,-1,1749,1373,0,0
532,-349,0,0,0,0,0,0,0,0,0,-1,1756,1373,0,0
539,-349,0,0,0,0,0,0,0,0,0,-1,1763,1373,0,0
546,-349,0,0,0,0,0,0,0,0,0,-1,1770,1373,0,0
553,-349,0,0,0,0,0,0,0,0,0,-1,1777,1373,0,0
560,-349,45.6893,3.53845,0,0,0,0,0,0,0,-1,1784,1373,45.6893,-3.5385
567,-349,41.9424,6.03833,0,0,0,0,0,0,0,-1,1791,1373,41.9423,-6.03834
574,-349,42.4165,6.17078,0,0,0,0,0,0,0,-1,1798,1373,42.4165,-6.17072
581,-349,42.8947,6.78381,0,0,0,0,0,0,0,-1,1805,1373,42.8946,-6.78376
588,-349,44.8121,5.06213,0,0,0,0,0,0,0,-1,1812,1373,44.8121,-5.06215
595,-349,44.4338,6.14099,0,0,0,0,0,0,0,-1,1819,1373,44.4338,-6.14095
602,-349,35.6641,3.26465,0,0,0,0,0,0,0,-1,1826,1373,35.6641,-3.26468
609,-349,34.7175,4.401,0,0,0,0,0,0,0,-1,1833,1373,34.7175,-4.40096
616,-349,27.1451,6.68274,0,0,0,0,0,0,0,-1,1840,1373,27.1451,-6.6828
623,-349,18.8478,2.75769,0,0,0,0,0,0,0,-1,1847,1373,18.8478,-2.75774
630,-349,15.4948,6.47644,0,0,0,0,0,0,0,-1,1854,1373,15.4947,-6.4765
637,-349,16.5161,6.92639,0,0,0,0,0,0,0,-1,1861,1373,16.5161,-6.92636
644,-349,28.8589,12.8748,0,0,0,0,0,0,0,-1,1868,1373,28.8589,-12.8747
651,-349,28.8243,12.3727,0.00223576,-0.00513583,-0.00117127,0.00241738,-0.00531745,-0.153843,0.00456914,0.0355484,1875,1373,28.8243,-12.3727
658,-349,28.6411,11.9412,0.000121601,-0.00164779,-0.00091541,0.000509957,-0.00203615,-0.401229,0.00155554,0.0288095,1882,1373,28.6411,-11.9411
665,-349,28.6396,11.4819,0.000227578,0.00028138,-0.000284931,0.000540677,-3.17186e-05,-0.832465,0.000371476,0.0208192,1889,1373,28.6397,-11.4819
672,-349,28.663,11.0299,0.000746301,2.19858e-05,-8.67437e-05,0.000756544,1.17423e-05,-0.117545,0.000500495,0.015318,1896,1373,28.663,-11.0299
679,-349,28.6487,10.5947,0.00125351,-0.000185702,4.40326e-05,0.00125485,-0.000187048,0.0305568,0.000905383,0.0154374,1903,1373,28.6487,-10.5948
686,-349,28.6787,10.1582,0.00173318,-0.000334724,0.000123011,0.00174048,-0.000342015,0.0592074,0.00128953,0.015865,1910,1373,28.6787,-10.1582
693,-349,28.6298,9.70898,0.00220126,-0.000415501,0.000138403,0.00220856,-0.000422801,0.052695,0.00163167,0.017743,1917,1373,28.6297,-9.70894
700,-349,28.599,9.255,0.00265518,-0.000413999,0.00010242,0.00265859,-0.000417413,0.0333211,0.00192667,0.0169826,1924,1373,28.599,-9.25496
707,-349,28.6738,8.73596,0.00280106,-0.000273176,1.78047e-06,0.00280106,-0.000273177,0.000579159,0.00196477,0.0332464,1931,1373,28.6738,-8.73593
714,-349,28.8031,8.12317,0,0,0,0,0,0,0,-1,1938,1373,28.8031,-8.12318
721,-349,19.6688,5.93604,0,0,0,0,0,0,0,-1,1945,1373,19.6688,-5.93606
728,-349,18.6333,3.73218,0,0,0,0,0,0,0,-1,1952,1373,18.6333,-3.73214
735,-349,18.1918,3.39954,0,0,0,0,0,0,0,-1,1959,1373,18.1918,-3.3995
742,-349,20.7345,2.07483,0,0,0,0,0,0,0,-1,1966,1373,20.7345,-2.07485
749,-349,21.9037,1.45789,0,0,0,0,0,0,0,-1,1973,1373,21.9037,-1.45788
756,-349,0,0,0,0,0,0,0,0,0,-1,1980,1373,0,0
763,-349,0,0,0,0,0,0,0,0,0,-1,1987,1373,0,0
770,-349,0,0,0,0,0,0,0,0,0,-1,1994,1373,0,0
777,-349,0,0,0,0,0,0,0,0,0,-1,2001,1373,0,0
784,-349,0,0,0,0,0,0,0,0,0,-1,2008,1373,0,0
791,-349,0,0,0,0,0,0,0,0,0,-1,2015,1373,0,0
798,-349,0,0,0,0,0,0,0,0,0,-1,2022,1373,0,0
805,-349,0,0,0,0,0,0,0,0,0,-1,2029,1373,0,0
812,-349,0,0,0,0,0,0,0,0,0,-1,2036,1373,0,0
-700,-356,0,0,0,0,0,0,0,0,0,-1,524,1380,0,0
-693,-356,0,0,0,0,0,0,0,0,0,-1,531,1380,0,0
-686,-356,0,0,0,0,0,0,0,0,0,-1,538,1380,0,0
-679,-356,0,0,0,0,0,0,0,0,0,-1,545,1380,0,0
-672,-356,0,0,0,0,0,0,0,0,0,-1,552,1380,0,0
-665,-356,0,0,0,0,0,0,0,0,0,-1,559,1380,0,0
-658,-356,0,0,0,0,0,0,0,0,0,-1,566,1380,0,0
-651,-356,0,0,0,0,0,0,0,0,0,-1,573,1380,0,0
-644,-356,0,0,0,0,0,0,0,0,0,-1,580,1380,0,0
-637,-356,0,0,0,0,0,0,0,0,0,-1,587,1380,0,0
-630,-356,-8.23126,-5.01917,0,0,0,0,0,0,0,-1,594,1380,-8.23124,5.0192
-623,-356,-0.263855,-0.675781,0,0,0,0,0,0,0,-1,601,1380,-0.263835,0.675841
-616,-356,-8.26532,-3.43945,0,0,0,0,0,0,0,-1,608,1380,-8.2653,3.43948
-609,-356,-4.88483,0.734497,0,0,0,0,0,0,0,-1,615,1380,-4.88485,-0.734532
-602,-356,-9.06635,2.4021,0,0,0,0,0,0,0,-1,622,1380,-9.06634,-2.40206
-595,-356,-8.45703,3.61853,0,0,0,0,0,0,0,-1,629,1380,-8.45706,-3.61848
-588,-356,-9.31738,4.14258,0,0,0,0,0,0,0,-1,636,1380,-9.31736,-4.14255
-581,-356,-13.9577,5.95654,0,0,0,0,0,0,0,-1,643,1380,-13.9577,-5.95657
-574,-356,-14.3337,6.4248,0,0,0,0,0,0,0,-1,650,1380,-14.3337,-6.42483
-567,-356,-14.2963,6.95117,0.00470662,0.000459803,0.0010495,0.00495183,0.000214602,0.229519,0.00323206,0.0202112,657,1380,-14.2963,-6.95121
-560,-356,-14.2585,7.49133,0.00384249,0.000233176,0.000753873,0.00399362,8.20437e-05,0.197852,0.00263549,0.0182298,664,1380,-14.2585,-7.49127
-553,-356,-14.2657,7.99695,0.00353357,0.000174848,0.000767202,0.00370052,7.90088e-06,0.214264,0.00246438,0.0220031,671,1380,-14.2658,-7.99691
-546,-356,-14.3112,8.4978,0.00351387,0.000175182,0.000895348,0.00373882,-4.97702e-05,0.246151,0.0025093,0.0231995,678,1380,-14.3111,-8.49785
-539,-356,-14.3348,9.02649,0.00378388,0.000216702,0.00113673,0.00411532,-0.00011474,0.283708,0.00278258,0.0156888,685,1380,-14.3348,-9.02647
-532,-356,-14.3521,9.54211,0.00435945,0.000314,0.00151156,0.00486184,-0.000188394,0.320882,0.00330581,0.0146255,692,1380,-14.352,-9.54216
-525,-356,-14.3348,10.0638,0.00525607,0.000484447,0.0020364,0.00600697,-0.000266461,0.353274,0.00409636,0.0124793,699,1380,-14.3349,-10.0638
-518,-356,-14.3135,10.5964,0.0064601,0.00077998,0.00272032,0.00755273,-0.000312657,0.381934,0.00514254,0.0129198,706,1380,-14.3135,-10.5964
-511,-356,-14.0656,11.1971,0.00802549,0.00111012,0.00359713,0.00955729,-0.000421676,0.402581,0.00651663,0.0488416,713,1380,-14.0656,-11.1972
-504,-356,-13.8113,11.9163,0,0,0,0,0,0,0,-1,720,1380,-13.8113,-11.9163
-497,-356,-5.68604,4.96387,0,0,0,0,0,0,0,-1,727,1380,-5.68605,-4.96385
-490,-356,-7.95288,5.5625,0,0,0,0,0,0,0,-1,734,1380,-7.95285,-5.56246
-483,-356,-7.2627,4.07446,0,0,0,0,0,0,0,-1,741,1380,-7.2627,-4.07441
-476,-356,-5.1936,4.16016,0,0,0,0,0,0,0,-1,748,1380,-5.1936,-4.16012
-469,-356,-10.0883,0.536011,0,0,0,0,0,0,0,-1,755,1380,-10.0883,-0.535989
-462,-356,-12.3481,-0.215698,0,0,0,0,0,0,0,-1,762,1380,-12.3481,0.215641
-455,-356,-13.1367,-0.264648,0,0,0,0,0,0,0,-1,769,1380,-13.1367,0.264647
-448,-356,-13.9116,-0.310181,0,0,0,0,0,0,0,-1,776,1380,-13.9115,0.310207
-441,-356,-13.1602,3.05603,0,0,0,0,0,0,0,-1,783,1380,-13.1602,-3.05609
-434,-356,0,0,0,0,0,0,0,0,0,-1,790,1380,0,0
-427,-356,0,0,0,0,0,0,0,0,0,-1,797,1380,0,0
-420,-356,0,0,0,0,0,0,0,0,0,-1,804,1380,0,0
-413,-356,0,0,0,0,0,0,0,0,0,-1,811,1380,0,0
-406,-356,0,0,0,0,0,0,0,0,0,-1,818,1380,0,0
-399,-356,0,0,0,0,0,0,0,0,0,-1,825,1380,0,0
-392,-356,0,0,0,0,0,0,0,0,0,-1,832,1380,0,0
-385,-356,0,0,0,0,0,0,0,0,0,-1,839,1380,0,0
-378,-356,0,0,0,0,0,0,0,0,0,-1,846,1380,0,0
-371,-356,0,0,0,0,0,0,0,0,0,-1,853,1380,0,0
-364,-356,0,0,0,0,0,0,0,0,0,-1,860,1380,0,0
-357,-356,0,0,0,0,0,0,0,0,0,-1,867,1380,0,0
-350,-356,0,0,0,0,0,0,0,0,0,-1,874,1380,0,0
-343,-356,0,0,0,0,0,0,0,0,0,-1,881,1380,0,0
-336,-356,0,0,0,0,0,0,0,0,0,-1,888,1380,0,0
-329,-356,0,0,0,0,0,0,0,0,0,-1,895,1380,0,0
-322,-356,0,0,0,0,0,0,0,0,0,-1,902,1380,0,0
-315,-356,0,0,0,0,0,0,0,0,0,-1,909,1380,0,0
-308,-356,0,0,0,0,0,0,0,0,0,-1,916,1380,0,0
-301,-356,0,0,0,0,0,0,0,0,0,-1,923,1380,0,0
-294,-356,0,0,0,0,0,0,0,0,0,-1,930,1380,0,0
-287,-356,0,0,0,0,0,0,0,0,0,-1,937,1380,0,0
-280,-356,0,0,0,0,0,0,0,0,0,-1,944,1380,0,0
-273,-356,0,0,0,0,0,0,0,0,0,-1,951,1380,0,0
-266,-356,0,0,0,0,0,0,0,0,0,-1,958,1380,0,0
-259,-356,0,0,0,0,0,0,0,0,0,-1,965,1380,0,0
-252,-356,0,0,0,0,0,0,0,0,0,-1,972,1380,0,0
-245,-356,0,0,0,0,0,0,0,0,0,-1,979,1380,0,0
-238,-356,0,0,0,0,0,0,0,0,0,-1,986,1380,0,0
-231,-356,0,0,0,0,0,0,0,0,0,-1,993,1380,0,0
-224,-356,0,0,0,0,0,0,0,0,0,-1,1000,1380,0,0
-217,-356,0,0,0,0,0,0,0,0,0,-1,1007,1380,0,0
-210,-356,0,0,0,0,0,0,0,0,0,-1,1014,1380,0,0
-203,-356,0,0,0,0,0,0,0,0,0,-1,1021,1380,0,0
-196,-356,0,0,0,0,0,0,0,0,0,-1,1028,1380,0,0
-189,-356,0,0,0,0,0,0,0,0,0,-1,1035,1380,0,0
-182,-356,0,0,0,0,0,0,0,0,0,-1,1042,1380,0,0
-175,-356,0,0,0,0,0,0,0,0,0,-1,1049,1380,0,0
-168,-356,0,0,0,0,0,0,0,0,0,-1,1056,1380,0,0
-161,-356,0,0,0,0,0,0,0,0,0,-1,1063,1380,0,0
-154,-356,0,0,0,0,0,0,0,0,0,-1,1070,1380,0,0
-147,-356,0,0,0,0,0,0,0,0,0,-1,1077,1380,0,0
-140,-356,0,0,0,0,0,0,0,0,0,-1,1084,1380,0,0
-133,-356,0,0,0,0,0,0,0,0,0,-1,1091,1380,0,0
-126,-356,0,0,0,0,0,0,0,0,0,-1,1098,1380,0,0
-119,-356,0,0,0,0,0,0,0,0,0,-1,1105,1380,0,0
-112,-356,0,0,0,0,0,0,0,0,0,-1,1112,1380,0,0
-105,-356,0,0,0,0,0,0,0,0,0,-1,1119,1380,0,0
-98,-356,0,0,0,0,0,0,0,0,0,-1,1126,1380,0,0
-91,-356,0,0,0,0,0,0,0,0,0,-1,1133,1380,0,0
-84,-356,0,0,0,0,0,0,0,0,0,-1,1140,1380,0,0
-77,-356,0,0,0,0,0,0,0,0,0,-1,1147,1380,0,0
-70,-356,0,0,0,0,0,0,0,0,0,-1,1154,1380,0,0
-63,-356,0,0,0,0,0,0,0,0,0,-1,1161,1380,0,0
-56,-356,0,0,0,0,0,0,0,0,0,-1,1168,1380,0,0
-49,-356,0,0,0,0,0,0,0,0,0,-1,1175,1380,0,0
-42,-356,0,0,0,0,0,0,0,0,0,-1,1182,1380,0,0
-35,-356,0,0,0,0,0,0,0,0,0,-1,1189,1380,0,0
-28,-356,0,0,0,0,0,0,0,0,0,-1,1196,1380,0,0
-21,-356,0,0,0,0,0,0,0,0,0,-1,1203,1380,0,0
-14,-356,0,0,0,0,0,0,0,0,0,-1,1210,1380,0,0
-7,-356,0,0,0,0,0,0,0,0,0,-1,1217,1380,0,0
0,-356,0,0,0,0,0,0,0,0,0,-1,1224,1380,0,0
7,-356,0,0,0,0,0,0,0,0,0,-1,1231,1380,0,0
14,-356,0,0,0,0,0,0,0,0,0,-1,1238,1380,0,0
21,-356,0,0,0,0,0,0,0,0,0,-1,1245,1380,0,0
28,-356,0,0,0,0,0,0,0,0,0,-1,1252,1380,0,0
35,-356,0,0,0,0,0,0,0,0,0,-1,1259,1380,0,0
42,-356,0,0,0,0,0,0,0,0,0,-1,1266,1380,0,0
49,-356,0,0,0,0,0,0,0,0,0,-1,1273,1380,0,0
56,-356,0,0,0,0,0,0,0,0,0,-1,1280,1380,0,0
63,-356,0,0,0,0,0,0,0,0,0,-1,1287,1380,0,0
70,-356,0,0,0,0,0,0,0,0,0,-1,1294,1380,0,0
77,-356,0,0,0,0,0,0,0,0,0,-1,1301,1380,0,0
84,-356,0,0,0,0,0,0,0,0,0,-1,1308,1380,0,0
91,-356,0,0,0,0,0,0,0,0,0,-1,1315,1380,0,0
98,-356,0,0,0,0,0,0,0,0,0,-1,1322,1380,0,0
105,-356,0,0,0,0,0,0,0,0,0,-1,1329,1380,0,0
112,-356,0,0,0,0,0,0,0,0,0,-1,1336,1380,0,0
119,-356,0,0,0,0,0,0,0,0,0,-1,1343,1380,0,0
126,-356,0,0,0,0,0,0,0,0,0,-1,1350,1380,0,0
133,-356,0,0,0,0,0,0,0,0,0,-1,1357,1380,0,0
140,-356,0,0,0,0,0,0,0,0,0,-1,1364,1380,0,0
147,-356,0,0,0,0,0,0,0,0,0,-1,1371,1380,0,0
154,-356,0,0,0,0,0,0,0,0,0,-1,1378,1380,0,0
161,-356,0,0,0,0,0,0,0,0,0,-1,1385,1380,0,0
168,-356,0,0,0,0,0,0,0,0,0,-1,1392,1380,0,0
175,-356,0,0,0,0,0,0,0,0,0,-1,1399,1380,0,0
182,-356,0,0,0,0,0,0,0,0,0,-1,1406,1380,0,0
189,-356,0,0,0,0,0,0,0,0,0,-1,1413,1380,0,0
196,-356,0,0,0,0,0,0,0,0,0,-1,1420,1380,0,0
203,-356,0,0,0,0,0,0,0,0,0,-1,1427,1380,0,0
210,-356,0,0,0,0,0,0,0,0,0,-1,1434,1380,0,0
217,-356,0,0,0,0,0,0,0,0,0,-1,1441,1380,0,0
224,-356,0,0,0,0,0,0,0,0,0,-1,1448,1380,0,0
231,-356,0,0,0,0,0,0,0,0,0,-1,1455,1380,0,0
238,-356,0,0,0,0,0,0,0,0,0,-1,1462,1380,0,0
245,-356,0,0,0,0,0,0,0,0,0,-1,1469,1380,0,0
252,-356,0,0,0,0,0,0,0,0,0,-1,1476,1380,0,0
259,-356,0,0,0,0,0,0,0,0,0,-1,1483,1380,0,0
266,-356,0,0,0,0,0,0,0,0,0,-1,1490,1380,0,0
273,-356,0,0,0,0,0,0,0,0,0,-1,1497,1380,0,0
280,-356,0,0,0,0,0,0,0,0,0,-1,1504,1380,0,0
287,-356,0,0,0,0,0,0,0,0,0,-1,1511,1380,0,0
294,-356,0,0,0,0,0,0,0,0,0,-1,1518,1380,0,0
301,-356,0,0,0,0,0,0,0,0,0,-1,1525,1380,0,0
308,-356,0,0,0,0,0,0,0,0,0,-1,1532,1380,0,0
315,-356,0,0,0,0,0,0,0,0,0,-1,1539,1380,0,0
322,-356,0,0,0,0,0,0,0,0,0,-1,1546,1380,0,0
329,-356,0,0,0,0,0,0,0,0,0,-1,1553,1380,0,0
336,-356,0,0,0,0,0,0,0,0,0,-1,1560,1380,0,0
343,-356,0,0,0,0,0,0,0,0,0,-1,1567,1380,0,0
350,-356,0,0,0,0,0,0,0,0,0,-1,1574,1380,0,0
357,-356,0,0,0,0,0,0,0,0,0,-1,1581,1380,0,0
364,-356,0,0,0,0,0,0,0,0,0,-1,1588,1380,0,0
371,-356,0,0,0,0,0,0,0,0,0,-1,1595,1380,0,0
378,-356,0,0,0,0,0,0,0,0,0,-1,1602,1380,0,0
385,-356,0,0,0,0,0,0,0,0,0,-1,1609,1380,0,0
392,-356,0,0,0,0,0,0,0,0,0,-1,1616,1380,0,0
399,-356,0,0,0,0,0,0,0,0,0,-1,1623,1380,0,0
406,-356,0,0,0,0,0,0,0,0,0,-1,1630,1380,0,0
413,-356,0,0,0,0,0,0,0,0,0,-1,1637,1380,0,0
420,-356,0,0,0,0,0,0,0,0,0,-1,1644,1380,0,0
427,-356,0,0,0,0,0,0,0,0,0,-1,1651,1380,0,0
434,-356,0,0,0,0,0,0,0,0,0,-1,1658,1380,0,0
441,-356,0,0,0,0,0,0,0,0,0,-1,1665,1380,0,0
448,-356,0,0,0,0,0,0,0,0,0,-1,1672,1380,0,0
455,-356,0,0,0,0,0,0,0,0,0,-1,1679,1380,0,0
462,-356,0,0,0,0,0,0,0,0,0,-1,1686,1380,0,0
469,-356,0,0,0,0,0,0,0,0,0,-1,1693,1380,0,0
476,-356,0,0,0,0,0,0,0,0,0,-1,1700,1380,0,0
483,-356,0,0,0,0,0,0,0,0,0,-1,1707,1380,0,0
490,-356,0,0,0,0,0,0,0,0,0,-1,1714,1380,0,0
497,-356,0,0,0,0,0,0,0,0,0,-1,1721,1380,0,0
504,-356,0,0,0,0,0,0,0,0,0,-1,1728,1380,0,0
511,-356,0,0,0,0,0,0,0,0,0,-1,1735,1380,0,0
518,-356,0,0,0,0,0,0,0,0,0,-1,1742,1380,0,0
525,-356,0,0,0,0,0,0,0,0,0,-1,1749,1380,0,0
532,-356,0,0,0,0,0,0,0,0,0,-1,1756,1380,0,0
539,-356,0,0,0,0,0,0,0,0,0,-1,1763,1380,0,0
546,-356,0,0,0,0,0,0,0,0,0,-1,1770,1380,0,0
553,-356,0,0,0,0,0,0,0,0,0,-1,1777,1380,0,0
560,-356,45.7938,3.65295,0,0,0,0,0,0,0,-1,1784,1380,45.7938,-3.65294
567,-356,45.6788,3.51428,0,0,0,0,0,0,0,-1,1791,1380,45.6788,-3.51422
574,-356,45.5742,3.39575,0,0,0,0,0,0,0,-1,1798,1380,45.5742,-3.39574
581,-356,45.6708,3.64172,0,0,0,0,0,0,0,-1,1805,1380,45.6707,-3.64175
588,-356,44.4739,4.87085,0,0,0,0,0,0,0,-1,1812,1380,44.4739,-4.87086
595,-356,32.0834,5.86084,0,0,0,0,0,0,0,-1,1819,1380,32.0834,-5.86079
602,-356,30.1604,6.07104,0,0,0,0,0,0,0,-1,1826,1380,30.1604,-6.07104
609,-356,28.3435,6.48901,0,0,0,0,0,0,0,-1,1833,1380,28.3435,-6.48899
616,-356,26.9358,6.80872,0,0,0,0,0,0,0,-1,1840,1380,26.9358,-6.80877
623,-356,16.1803,1.07532,0,0,0,0,0,0,0,-1,1847,1380,16.1803,-1.07529
630,-356,16.4138,6.91553,0,0,0,0,0,0,0,-1,1854,1380,16.4138,-6.9155
637,-356,24.8021,12.0151,0,0,0,0,0,0,0,-1,1861,1380,24.8022,-12.0151
644,-356,28.3202,12.957,0,0,0,0,0,0,0,-1,1868,1380,28.3202,-12.9571
651,-356,28.2769,12.4279,0.00193791,-0.00241925,-0.0010932,0.00219681,-0.00267814,-0.232541,0.00281912,0.0181007,1875,1380,28.2768,-12.4279
658,-356,28.2156,11.9203,0.000405134,-0.000413774,-0.00075501,0.00085457,-0.00086321,-0.536936,0.000991765,0.0149353,1882,1380,28.2156,-11.9203
665,-356,28.2008,11.5143,0.000446217,0.000269373,-0.000190142,0.000567491,0.000148099,-0.567757,0.000339892,0.0148096,1889,1380,28.2008,-11.5142
672,-356,28.1781,11.0942,0.000867838,-6.60291e-05,9.54795e-05,0.0008775,-7.5691e-05,0.100851,0.000611793,0.015401,1896,1380,28.1781,-11.0942
679,-356,28.1915,10.6171,0.00134094,-0.00033801,0.00028587,0.00138828,-0.000385349,0.164109,0.00107719,0.0172371,1903,1380,28.1915,-10.6171
686,-356,28.1993,10.1527,0.00186023,-0.000530442,0.00038134,0.00191958,-0.000589797,0.154408,0.00151508,0.0183092,1910,1380,28.1994,-10.1527
693,-356,28.191,9.71594,0.00242081,-0.000652485,0.000384357,0.00246815,-0.000699825,0.122549,0.00192167,0.0159978,1917,1380,28.191,-9.71594
700,-356,28.1788,9.24097,0.00306658,-0.000638289,0.000281157,0.00308779,-0.000659505,0.0753138,0.00230996,0.0212498,1924,1380,28.1788,-9.24102
707,-356,28.2352,8.75574,0,0,0,0,0,0,0,-1,1931,1380,28.2352,-8.75569
714,-356,19.6907,5.82129,0,0,0,0,0,0,0,-1,1938,1380,19.6907,-5.82132
721,-356,17.2948,4.1958,0,0,0,0,0,0,0,-1,1945,1380,17.2948,-4.19584
728,-356,19.1846,2.31519,0,0,0,0,0,0,0,-1,1952,1380,19.1846,-2.31514
735,-356,20.0731,2.50842,0,0,0,0,0,0,0,-1,1959,1380,20.0731,-2.50844
742,-356,21.0111,2.43762,0,0,0,0,0,0,0,-1,1966,1380,21.0112,-2.43762
749,-356,22.1411,1.83276,0,0,0,0,0,0,0,-1,1973,1380,22.1411,-1.83275
756,-356,0,0,0,0,0,0,0,0,0,-1,1980,1380,0,0
763,-356,0,0,0,0,0,0,0,0,0,-1,1987,1380,0,0
770,-356,0,0,0,0,0,0,0,0,0,-1,1994,1380,0,0
777,-356,0,0,0,0,0,0,0,0,0,-1,2001,1380,0,0
784,-356,0,0,0,0,0,0,0,0,0,-1,2008,1380,0,0
791,-356,0,0,0,0,0,0,0,0,0,-1,2015,1380,0,0
798,-356,0,0,0,0,0,0,0,0,0,-1,2022,1380,0,0
805,-356,0,0,0,0,0,0,0,0,0,-1,2029,1380,0,0
812,-356,0,0,0,0,0,0,0,0,0,-1,2036,1380,0,0
-700,-363,0,0,0,0,0,0,0,0,0,-1,524,1387,0,0
-693,-363,0,0,0,0,0,0,0,0,0,-1,531,1387,0,0
-686,-363,0,0,0,0,0,0,0,0,0,-1,538,1387,0,0
-679,-363,0,0,0,0,0,0,0,0,0,-1,545,1387,0,0
-672,-363,0,0,0,0,0,0,0,0,0,-1,552,1387,0,0
-665,-363,0,0,0,0,0,0,0,0,0,-1,559,1387,0,0
-658,-363,0,0,0,0,0,0,0,0,0,-1,566,1387,0,0
-651,-363,0,0,0,0,0,0,0,0,0,-1,573,1387,0,0
-644,-363,0,0,0,0,0,0,0,0,0,-1,580,1387,0,0
-637,-363,0,0,0,0,0,0,0,0,0,-1,587,1387,0,0
-630,-363,0,0,0,0,0,0,0,0,0,-1,594,1387,0,0
-623,-363,-9.67566,-5.91846,0,0,0,0,0,0,0,-1,601,1387,-9.67563,5.91847
-616,-363,-9.02985,-2.98083,0,0,0,0,0,0,0,-1,608,1387,-9.02987,2.98079
-609,-363,-4.90265,0.195679,0,0,0,0,0,0,0,-1,615,1387,-4.90263,-0.195721
-602,-363,-9.65009,3.5321,0,0,0,0,0,0,0,-1,622,1387,-9.65007,-3.53211
-595,-363,-8.00256,3.48853,0,0,0,0,0,0,0,-1,629,1387,-8.00256,-3.48855
-588,-363,-10.8846,4.49768,0,0,0,0,0,0,0,-1,636,1387,-10.8846,-4.49773
-581,-363,-11.7469,5.15161,0,0,0,0,0,0,0,-1,643,1387,-11.747,-5.15167
-574,-363,-13.755,6.41113,0,0,0,0,0,0,0,-1,650,1387,-13.755,-6.41111
-567,-363,-13.7921,7.02832,0.005161,-4.03094e-05,0.00103725,0.00536022,-0.00023953,0.189754,0.00365594,0.04067,657,1387,-13.792,-7.02831
-560,-363,-13.7676,7.47473,0.00407211,-0.000168593,0.000666619,0.00417443,-0.000270914,0.152303,0.00287751,0.0139707,664,1387,-13.7677,-7.47479
-553,-363,-13.749,8.00928,0.00364821,-0.00010321,0.000682019,0.00376835,-0.000223355,0.174372,0.0025899,0.0138734,671,1387,-13.749,-8.00923
-546,-363,-13.7744,8.53308,0.00349218,1.34985e-06,0.000798638,0.00366622,-0.000172687,0.214563,0.0025037,0.0137852,678,1387,-13.7744,-8.53308
-539,-363,-13.7976,9.03882,0.00360911,0.000142195,0.00101999,0.00388693,-0.000135628,0.265928,0.00263766,0.0152388,685,1387,-13.7976,-9.03881
-532,-363,-13.8504,9.55859,0.00401236,0.000336724,0.00136854,0.00446594,-0.000116852,0.320036,0.003017,0.0130485,692,1387,-13.8504,-9.55865
-525,-363,-13.8347,10.0707,0.0047422,0.000640768,0.00189652,0.00548473,-0.000101763,0.373177,0.00369087,0.0118375,699,1387,-13.8346,-10.0707
-518,-363,-13.8085,10.5872,0.00573555,0.00103808,0.00256595,0.00686542,-9.17793e-05,0.414783,0.00460784,0.0104388,706,1387,-13.8085,-10.5871
-511,-363,-13.7492,11.1493,0.00705849,0.00153517,0.00343577,0.00870492,-0.000111267,0.446872,0.00584072,0.0242976,713,1387,-13.7492,-11.1493
-504,-363,-13.6482,11.7531,0,0,0,0,0,0,0,-1,720,1387,-13.6482,-11.7531
-497,-363,-7.18842,7.29944,0,0,0,0,0,0,0,-1,727,1387,-7.18839,-7.29945
-490,-363,-5.42413,4.6958,0,0,0,0,0,0,0,-1,734,1387,-5.42412,-4.69583
-483,-363,-6.28375,4.1394,0,0,0,0,0,0,0,-1,741,1387,-6.28374,-4.13944
-476,-363,-5.83807,4.31018,0,0,0,0,0,0,0,-1,748,1387,-5.8381,-4.31013
-469,-363,-10.7125,0.697754,0,0,0,0,0,0,0,-1,755,1387,-10.7125,-0.697811
-462,-363,-9.55951,-0.0830078,0,0,0,0,0,0,0,-1,762,1387,-9.55949,0.0830163
-455,-363,-13.1008,-0.290894,0,0,0,0,0,0,0,-1,769,1387,-13.1008,0.290921
-448,-363,-11.7324,2.46606,0,0,0,0,0,0,0,-1,776,1387,-11.7324,-2.46605
-441,-363,-12.4464,2.5354,0,0,0,0,0,0,0,-1,783,1387,-12.4463,-2.53537
-434,-363,-13.6918,2.14661,0,0,0,0,0,0,0,-1,790,1387,-13.6918,-2.14662
-427,-363,0,0,0,0,0,0,0,0,0,-1,797,1387,0,0
-420,-363,0,0,0,0,0,0,0,0,0,-1,804,1387,0,0
-413,-363,0,0,0,0,0,0,0,0,0,-1,811,1387,0,0
-406,-363,0,0,0,0,0,0,0,0,0,-1,818,1387,0,0
-399,-363,0,0,0,0,0,0,0,0,0,-1,825,1387,0,0
-392,-363,0,0,0,0,0,0,0,0,0,-1,832,1387,0,0
-385,-363,0,0,0,0,0,0,0,0,0,-1,839,1387,0,0
-378,-363,0,0,0,0,0,0,0,0,0,-1,846,1387,0,0
-371,-363,0,0,0,0,0,0,0,0,0,-1,853,1387,0,0
-364,-363,0,0,0,0,0,0,0,0,0,-1,860,1387,0,0
-357,-363,0,0,0,0,0,0,0,0,0,-1,867,1387,0,0
-350,-363,0,0,0,0,0,0,0,0,0,-1,874,1387,0,0
-343,-363,0,0,0,0,0,0,0,0,0,-1,881,1387,0,0
-336,-363,0,0,0,0,0,0,0,0,0,-1,888,1387,0,0
-329,-363,0,0,0,0,0,0,0,0,0,-1,895,1387,0,0
-322,-363,0,0,0,0,0,0,0,0,0,-1,902,1387,0,0
-315,-363,0,0,0,0,0,0,0,0,0,-1,909,1387,0,0
-308,-363,0,0,0,0,0,0,0,0,0,-1,916,1387,0,0
-301,-363,0,0,0,0,0,0,0,0,0,-1,923,1387,0,0
-294,-363,0,0,0,0,0,0,0,0,0,-1,930,1387,0,0
-287,-363,0,0,0,0,0,0,0,0,0,-1,937,1387,0,0
-280,-363,0,0,0,0,0,0,0,0,0,-1,944,1387,0,0
-273,-363,0,0,0,0,0,0,0,0,0,-1,951,1387,0,0
-266,-363,0,0,0,0,0,0,0,0,0,-1,958,1387,0,0
-259,-363,0,0,0,0,0,0,0,0,0,-1,965,1387,0,0
-252,-363,0,0,0,0,0,0,0,0,0,-1,972,1387,0,0
-245,-363,0,0,0,0,0,0,0,0,0,-1,979,1387,0,0
-238,-363,0,0,0,0,0,0,0,0,0,-1,986,1387,0,0
-231,-363,0,0,0,0,0,0,0,0,0,-1,993,1387,0,0
-224,-363,0,0,0,0,0,0,0,0,0,-1,1000,1387,0,0
-217,-363,0,0,0,0,0,0,0,0,0,-1,1007,1387,0,0
-210,-363,0,0,0,0,0,0,0,0,0,-1,1014,1387,0,0
-203,-363,0,0,0,0,0,0,0,0,0,-1,1021,1387,0,0
-196,-363,0,0,0,0,0,0,0,0,0,-1,1028,1387,0,0
-189,-363,0,0,0,0,0,0,0,0,0,-1,1035,1387,0,0
-182,-363,0,0,0,0,0,0,0,0,0,-1,1042,1387,0,0
-175,-363,0,0,0,0,0,0,0,0,0,-1,1049,1387,0,0
-168,-363,0,0,0,0,0,0,0,0,0,-1,1056,1387,0,0
-161,-363,0,0,0,0,0,0,0,0,0,-1,1063,1387,0,0
-154,-363,0,0,0,0,0,0,0,0,0,-1,1070,1387,0,0
-147,-363,0,0,0,0,0,0,0,0,0,-1,1077,1387,0,0
-140,-363,0,0,0,0,0,0,0,0,0,-1,1084,1387,0,0
-133,-363,0,0,0,0,0,0,0,0,0,-1,1091,1387,0,0
-126,-363,0,0,0,0,0,0,0,0,0,-1,1098,1387,0,0
-119,-363,0,0,0,0,0,0,0,0,0,-1,1105,1387,0,0
-112,-363,0,0,0,0,0,0,0,0,0,-1,1112,1387,0,0
-105,-363,0,0,0,0,0,0,0,0,0,-1,1119,1387,0,0
-98,-363,0,0,0,0,0,0,0,0,0,-1,1126,1387,0,0
-91,-363,0,0,0,0,0,0,0,0,0,-1,1133,1387,0,0
-84,-363,0,0,0,0,0,0,0,0,0,-1,1140,1387,0,0
-77,-363,0,0,0,0,0,0,0,0,0,-1,1147,1387,0,0
-70,-363,0,0,0,0,0,0,0,0,0,-1,1154,1387,0,0
-63,-363,0,0,0,0,0,0,0,0,0,-1,1161,1387,0,0
-56,-363,0,0,0,0,0,0,0,0,0,-1,1168,1387,0,0
-49,-363,0,0,0,0,0,0,0,0,0,-1,1175,1387,0,0
-42,-363,0,0,0,0,0,0,0,0,0,-1,1182,1387,0,0
-35,-363,0,0,0,0,0,0,0,0,0,-1,1189,1387,0,0
-28,-363,0,0,0,0,0,0,0,0,0,-1,1196,1387,0,0
-21,-363,0,0,0,0,0,0,0,0,0,-1,1203,1387,0,0
-14,-363,0,0,0,0,0,0,0,0,0,-1,1210,1387,0,0
-7,-363,0,0,0,0,0,0,0,0,0,-1,1217,1387,0,0
0,-363,0,0,0,0,0,0,0,0,0,-1,1224,1387,0,0
7,-363,0,0,0,0,0,0,0,0,0,-1,1231,1387,0,0
14,-363,0,0,0,0,0,0,0,0,0,-1,1238,1387,0,0
21,-363,0,0,0,0,0,0,0,0,0,-1,1245,1387,0,0
28,-363,0,0,0,0,0,0,0,0,0,-1,1252,1387,0,0
35,-363,0,0,0,0,0,0,0,0,0,-1,1259,1387,0,0
42,-363,0,0,0,0,0,0,0,0,0,-1,1266,1387,0,0
49,-363,0,0,0,0,0,0,0,0,0,-1,1273,1387,0,0
56,-363,0,0,0,0,0,0,0,0,0,-1,1280,1387,0,0
63,-363,0,0,0,0,0,0,0,0,0,-1,1287,1387,0,0
70,-363,0,0,0,0,0,0,0,0,0,-1,1294,1387,0,0
77,-363,0,0,0,0,0,0,0,0,0,-1,1301,1387,0,0
84,-363,0,0,0,0,0,0,0,0,0,-1,1308,1387,0,0
91,-363,0,0,0,0,0,0,0,0,0,-1,1315,1387,0,0
98,-363,0,0,0,0,0,0,0,0,0,-1,1322,1387,0,0
105,-363,0,0,0,0,0,0,0,0,0,-1,1329,1387,0,0
112,-363,0,0,0,0,0,0,0,0,0,-1,1336,1387,0,0
119,-363,0,0,0,0,0,0,0,0,0,-1,1343,1387,0,0
126,-363,0,0,0,0,0,0,0,0,0,-1,1350,1387,0,0
133,-363,0,0,0,0,0,0,0,0,0,-1,1357,1387,0,0
140,-363,0,0,0,0,0,0,0,0,0,-1,1364,1387,0,0
147,-363,0,0,0,0,0,0,0,0,0,-1,1371,1387,0,0
154,-363,0,0,0,0,0,0,0,0,0,-1,1378,1387,0,0
161,-363,0,0,0,0,0,0,0,0,0,-1,1385,1387,0,0
168,-363,0,0,0,0,0,0,0,0,0,-1,1392,1387,0,0
175,-363,0,0,0,0,0,0,0,0,0,-1,1399,1387,0,0
182,-363,0,0,0,0,0,0,0,0,0,-1,1406,1387,0,0
189,-363,0,0,0,0,0,0,0,0,0,-1,1413,1387,0,0
196,-363,0,0,0,0,0,0,0,0,0,-1,1420,1387,0,0
203,-363,0,0,0,0,0,0,0,0,0,-1,1427,1387,0,0
210,-363,0,0,0,0,0,0,0,0,0,-1,1434,1387,0,0
217,-363,0,0,0,0,0,0,0,0,0,-1,1441,1387,0,0
224,-363,0,0,0,0,0,0,0,0,0,-1,1448,1387,0,0
231,-363,0,0,0,0,0,0,0,0,0,-1,1455,1387,0,0
238,-363,0,0,0,0,0,0,0,0,0,-1,1462,1387,0,0
245,-363,0,0,0,0,0,0,0,0,0,-1,1469,1387,0,0
252,-363,0,0,0,0,0,0,0,0,0,-1,1476,1387,0,0
259,-363,0,0,0,0,0,0,0,0,0,-1,1483,1387,0,0
266,-363,0,0,0,0,0,0,0,0,0,-1,1490,1387,0,0
273,-363,0,0,0,0,0,0,0,0,0,-1,1497,1387,0,0
280,-363,0,0,0,0,0,0,0,0,0,-1,1504,1387,0,0
287,-363,0,0,0,0,0,0,0,0,0,-1,1511,1387,0,0
294,-363,0,0,0,0,0,0,0,0,0,-1,1518,1387,0,0
301,-363,0,0,0,0,0,0,0,0,0,-1,1525,1387,0,0
308,-363,0,0,0,0,0,0,0,0,0,-1,1532,1387,0,0
315,-363,0,0,0,0,0,0,0,0,0,-1,1539,1387,0,0
322,-363,0,0,0,0,0,0,0,0,0,-1,1546,1387,0,0
329,-363,0,0,0,0,0,0,0,0,0,-1,1553,1387,0,0
336,-363,0,0,0,0,0,0,0,0,0,-1,1560,1387,0,0
343,-363,0,0,0,0,0,0,0,0,0,-1,1567,1387,0,0
350,-363,0,0,0,0,0,0,0,0,0,-1,1574,1387,0,0
357,-363,0,0,0,0,0,0,0,0,0,-1,1581,1387,0,0
364,-363,0,0,0,0,0,0,0,0,0,-1,1588,1387,0,0
371,-363,0,0,0,0,0,0,0,0,0,-1,1595,1387,0,0
378,-363,0,0,0,0,0,0,0,0,0,-1,1602,1387,0,0
385,-363,0,0,0,0,0,0,0,0,0,-1,1609,1387,0,0
392,-363,0,0,0,0,0,0,0,0,0,-1,1616,1387,0,0
399,-363,0,0,0,0,0,0,0,0,0,-1,1623,1387,0,0
406,-363,0,0,0,0,0,0,0,0,0,-1,1630,1387,0,0
413,-363,0,0,0,0,0,0,0,0,0,-1,1637,1387,0,0
420,-363,0,0,0,0,0,0,0,0,0,-1,1644,1387,0,0
427,-363,0,0,0,0,0,0,0,0,0,-1,1651,1387,0,0
434,-363,0,0,0,0,0,0,0,0,0,-1,1658,1387,0,0
441,-363,0,0,0,0,0,0,0,0,0,-1,1665,1387,0,0
448,-363,0,0,0,0,0,0,0,0,0,-1,1672,1387,0,0
455,-363,0,0,0,0,0,0,0,0,0,-1,1679,1387,0,0
462,-363,0,0,0,0,0,0,0,0,0,-1,1686,1387,0,0
469,-363,0,0,0,0,0,0,0,0,0,-1,1693,1387,0,0
476,-363,0,0,0,0,0,0,0,0,0,-1,1700,1387,0,0
483,-363,0,0,0,0,0,0,0,0,0,-1,1707,1387,0,0
490,-363,0,0,0,0,0,0,0,0,0,-1,1714,1387,0,0
497,-363,0,0,0,0,0,0,0,0,0,-1,1721,1387,0,0
504,-363,0,0,0,0,0,0,0,0,0,-1,1728,1387,0,0
511,-363,0,0,0,0,0,0,0,0,0,-1,1735,1387,0,0
518,-363,0,0,0,0,0,0,0,0,0,-1,1742,1387,0,0
525,-363,0,0,0,0,0,0,0,0,0,-1,1749,1387,0,0
532,-363,0,0,0,0,0,0,0,0,0,-1,1756,1387,0,0
539,-363,0,0,0,0,0,0,0,0,0,-1,1763,1387,0,0
546,-363,0,0,0,0,0,0,0,0,0,-1,1770,1387,0,0
553,-363,45.9076,3.64331,0,0,0,0,0,0,0,-1,1777,1387,45.9076,-3.64336
560,-363,45.9459,3.6875,0,0,0,0,0,0,0,-1,1784,1387,45.9459,-3.68756
567,-363,45.9266,3.32825,0,0,0,0,0,0,0,-1,1791,1387,45.9266,-3.32824
574,-363,45.7261,2.8075,0,0,0,0,0,0,0,-1,1798,1387,45.7261,-2.80754
581,-363,39.2413,1.97632,0,0,0,0,0,0,0,-1,1805,1387,39.2413,-1.97636
588,-363,32.5608,6.72131,0,0,0,0,0,0,0,-1,1812,1387,32.5608,-6.72131
595,-363,31.4688,6.95435,0,0,0,0,0,0,0,-1,1819,1387,31.4688,-6.95431
602,-363,25.7437,5.33667,0,0,0,0,0,0,0,-1,1826,1387,25.7437,-5.33667
609,-363,27.7048,7.06885,0,0,0,0,0,0,0,-1,1833,1387,27.7048,-7.06882
616,-363,16.229,1.08704,0,0,0,0,0,0,0,-1,1840,1387,16.229,-1.08706
623,-363,15.7283,7.16663,0,0,0,0,0,0,0,-1,1847,1387,15.7282,-7.16665
630,-363,18.3192,9.27844,0,0,0,0,0,0,0,-1,1854,1387,18.3192,-9.27843
637,-363,27.7001,13.537,0,0,0,0,0,0,0,-1,1861,1387,27.7001,-13.537
644,-363,27.7684,12.9648,0.00410591,-0.00207929,-0.00083706,0.00421719,-0.00219057,-0.132166,0.00376069,0.0154534,1868,1387,27.7685,-12.9649
651,-363,27.7882,12.4575,0.00150047,-0.00047095,-0.000838786,0.00180905,-0.000779529,-0.352521,0.00153341,0.0108653,1875,1387,27.7882,-12.4575
658,-363,27.7634,11.9789,0.000585147,0.000196779,-0.000534557,0.000959698,-0.000177771,-0.611178,0.00070655,0.0114269,1882,1387,27.7635,-11.9789
665,-363,27.7445,11.5404,0.000719926,0.000133242,-6.71077e-05,0.000727504,0.000125664,-0.11245,0.000449015,0.0124224,1889,1387,27.7445,-11.5404
672,-363,27.733,11.1047,0.00110172,-0.0002718,0.000300716,0.00116467,-0.000334753,0.206363,0.000908821,0.0133878,1896,1387,27.7331,-11.1048
679,-363,27.73,10.6372,0.00156548,-0.000601078,0.000568237,0.00170547,-0.000741068,0.241549,0.00144863,0.0137616,1903,1387,27.73,-10.6372
686,-363,27.7335,10.1738,0.00208781,-0.000885216,0.000753625,0.00226793,-0.00106534,0.234606,0.00196577,0.0148848,1910,1387,27.7335,-10.1738
693,-363,27.7084,9.698,0.00269599,-0.00109262,0.000810528,0.00286211,-0.00125874,0.202152,0.00243846,0.0141034,1917,1387,27.7084,-9.69806
700,-363,27.8235,9.19653,0.00345337,-0.00113551,0.000733762,0.00356785,-0.00124998,0.154761,0.00288689,0.0247011,1924,1387,27.8235,-9.19651
707,-363,28.0676,8.73181,0,0,0,0,0,0,0,-1,1931,1387,28.0676,-8.73186
714,-363,16.5782,5.3147,0,0,0,0,0,0,0,-1,1938,1387,16.5783,-5.31472
721,-363,14.4045,4.51685,0,0,0,0,0,0,0,-1,1945,1387,14.4045,-4.51685
728,-363,19.9756,0.853027,0,0,0,0,0,0,0,-1,1952,1387,19.9756,-0.853059
735,-363,21.4297,1.2981,0,0,0,0,0,0,0,-1,1959,1387,21.4297,-1.29811
742,-363,21.3621,2.79663,0,0,0,0,0,0,0,-1,1966,1387,21.362,-2.7966
749,-363,0,0,0,0,0,0,0,0,0,-1,1973,1387,0,0
756,-363,0,0,0,0,0,0,0,0,0,-1,1980,1387,0,0
763,-363,0,0,0,0,0,0,0,0,0,-1,1987,1387,0,0
770,-363,0,0,0,0,0,0,0,0,0,-1,1994,1387,0,0
777,-363,0,0,0,0,0,0,0,0,0,-1,2001,1387,0,0
784,-363,0,0,0,0,0,0,0,0,0,-1,2008,1387,0,0
791,-363,0,0,0,0,0,0,0,0,0,-1,2015,1387,0,0
798,-363,0,0,0,0,0,0,0,0,0,-1,2022,1387,0,0
805,-363,0,0,0,0,0,0,0,0,0,-1,2029,1387,0,0
812,-363,0,0,0,0,0,0,0,0,0,-1,2036,1387,0,0
-700,-370,0,0,0,0,0,0,0,0,0,-1,524,1394,0,0
-693,-370,0,0,0,0,0,0,0,0,0,-1,531,1394,0,0
-686,-370,0,0,0,0,0,0,0,0,0,-1,538,1394,0,0
-679,-370,0,0,0,0,0,0,0,0,0,-1,545,1394,0,0
-672,-370,0,0,0,0,0,0,0,0,0,-1,552,1394,0,0
-665,-370,0,0,0,0,0,0,0,0,0,-1,559,1394,0,0
-658,-370,0,0,0,0,0,0,0,0,0,-1,566,1394,0,0
-651,-370,0,0,0,0,0,0,0,0,0,-1,573,1394,0,0
-644,-370,0,0,0,0,0,0,0,0,0,-1,580,1394,0,0
-637,-370,0,0,0,0,0,0,0,0,0,-1,587,1394,0,0
-630,-370,0,0,0,0,0,0,0,0,0,-1,594,1394,0,0
-623,-370,-10.1758,-7.10486,0,0,0,0,0,0,0,-1,601,1394,-10.1758,7.10483
-616,-370,-8.85925,-1.61475,0,0,0,0,0,0,0,-1,608,1394,-8.85925,1.61476
-609,-370,-5.39325,0.0421143,0,0,0,0,0,0,0,-1,615,1394,-5.39328,-0.0421372
-602,-370,-12.3151,3.44592,0,0,0,0,0,0,0,-1,622,1394,-12.3151,-3.44595
-595,-370,-7.53284,5.44214,0,0,0,0,0,0,0,-1,629,1394,-7.53284,-5.44216
-588,-370,-11.2422,4.50598,0,0,0,0,0,0,0,-1,636,1394,-11.2422,-4.50596
-581,-370,-13.1575,5.84888,0,0,0,0,0,0,0,-1,643,1394,-13.1575,-5.84887
-574,-370,-12.6688,6.30212,0,0,0,0,0,0,0,-1,650,1394,-12.6688,-6.30208
-567,-370,-13.276,6.84375,0,0,0,0,0,0,0,-1,657,1394,-13.276,-6.84372
-560,-370,-13.3168,7.49719,0.00393777,-0.000696133,0.000402563,0.00397248,-0.000730845,0.0860148,0.00292255,0.0241075,664,1394,-13.3168,-7.49725
-553,-370,-13.242,8.02283,0.00342184,-0.000492227,0.000418065,0.003466,-0.000536382,0.105229,0.00250865,0.0110507,671,1394,-13.242,-8.02279
-546,-370,-13.2263,8.55151,0.00317489,-0.000282123,0.00053431,0.00325559,-0.000362821,0.149899,0.00230089,0.0150544,678,1394,-13.2262,-8.55153
-539,-370,-13.2484,9.08838,0.00319879,-4.44296e-05,0.000752756,0.00336499,-0.000210629,0.217301,0.00231673,0.0193597,685,1394,-13.2483,-9.0884
-532,-370,-13.306,9.57861,0.00350977,0.000237748,0.00110073,0.0038456,-9.80764e-05,0.296122,0.00259704,0.0214068,692,1394,-13.306,-9.57859
-525,-370,-13.318,10.0631,0.00415089,0.000640587,0.00164441,0.00480087,-9.39239e-06,0.376418,0.00320371,0.0171344,699,1394,-13.318,-10.0632
-518,-370,-13.3005,10.5548,0.0050625,0.00117891,0.00236347,0.00617956,6.18494e-05,0.441516,0.00409924,0.0122424,706,1394,-13.3005,-10.5548
-511,-370,-13.2966,11.1042,0.00627352,0.00184329,0.0032715,0.00800928,0.00010753,0.487805,0.00530404,0.0144022,713,1394,-13.2966,-11.1042
-504,-370,-13.2813,11.676,0,0,0,0,0,0,0,-1,720,1394,-13.2812,-11.676
-497,-370,-12.3546,11.7982,0,0,0,0,0,0,0,-1,727,1394,-12.3546,-11.7983
-490,-370,-5.30695,4.5271,0,0,0,0,0,0,0,-1,734,1394,-5.30698,-4.52704
-483,-370,-6.02997,4.59253,0,0,0,0,0,0,0,-1,741,1394,-6.02994,-4.5925
-476,-370,-6.75293,4.65796,0,0,0,0,0,0,0,-1,748,1394,-6.7529,-4.65795
-469,-370,-10.584,1.14294,0,0,0,0,0,0,0,-1,755,1394,-10.584,-1.14293
-462,-370,-9.54462,0.387207,0,0,0,0,0,0,0,-1,762,1394,-9.5446,-0.387176
-455,-370,-8.50525,-0.36853,0,0,0,0,0,0,0,-1,769,1394,-8.50523,0.368582
-448,-370,-10.9543,2.28833,0,0,0,0,0,0,0,-1,776,1394,-10.9543,-2.28835
-441,-370,-11.8699,1.8313,0,0,0,0,0,0,0,-1,783,1394,-11.8699,-1.83127
-434,-370,-12.7855,1.37415,0,0,0,0,0,0,0,-1,790,1394,-12.7855,-1.37419
-427,-370,0,0,0,0,0,0,0,0,0,-1,797,1394,0,0
-420,-370,0,0,0,0,0,0,0,0,0,-1,804,1394,0,0
-413,-370,0,0,0,0,0,0,0,0,0,-1,811,1394,0,0
-406,-370,0,0,0,0,0,0,0,0,0,-1,818,1394,0,0
-399,-370,0,0,0,0,0,0,0,0,0,-1,825,1394,0,0
-392,-370,0,0,0,0,0,0,0,0,0,-1,832,1394,0,0
-385,-370,0,0,0,0,0,0,0,0,0,-1,839,1394,0,0
-378,-370,0,0,0,0,0,0,0,0,0,-1,846,1394,0,0
-371,-370,0,0,0,0,0,0,0,0,0,-1,853,1394,0,0
-364,-370,0,0,0,0,0,0,0,0,0,-1,860,1394,0,0
-357,-370,0,0,0,0,0,0,0,0,0,-1,867,1394,0,0
-350,-370,0,0,0,0,0,0,0,0,0,-1,874,1394,0,0
-343,-370,0,0,0,0,0,0,0,0,0,-1,881,1394,0,0
-336,-370,0,0,0,0,0,0,0,0,0,-1,888,1394,0,0
-329,-370,0,0,0,0,0,0,0,0,0,-1,895,1394,0,0
-322,-370,0,0,0,0,0,0,0,0,0,-1,902,1394,0,0
-315,-370,0,0,0,0,0,0,0,0,0,-1,909,1394,0,0
-308,-370,0,0,0,0,0,0,0,0,0,-1,916,1394,0,0
-301,-370,0,0,0,0,0,0,0,0,0,-1,923,1394,0,0
-294,-370,0,0,0,0,0,0,0,0,0,-1,930,1394,0,0
-287,-370,0,0,0,0,0,0,0,0,0,-1,937,1394,0,0
-280,-370,0,0,0,0,0,0,0,0,0,-1,944,1394,0,0
-273,-370,0,0,0,0,0,0,0,0,0,-1,951,1394,0,0
-266,-370,0,0,0,0,0,0,0,0,0,-1,958,1394,0,0
-259,-370,0,0,0,0,0,0,0,0,0,-1,965,1394,0,0
-252,-370,0,0,0,0,0,0,0,0,0,-1,972,1394,0,0
-245,-370,0,0,0,0,0,0,0,0,0,-1,979,1394,0,0
-238,-370,0,0,0,0,0,0,0,0,0,-1,986,1394,0,0
-231,-370,0,0,0,0,0,0,0,0,0,-1,993,1394,0,0
-224,-370,0,0,0,0,0,0,0,0,0,-1,1000,1394,0,0
-217,-370,0,0,0,0,0,0,0,0,0,-1,1007,1394,0,0
-210,-370,0,0,0,0,0,0,0,0,0,-1,1014,1394,0,0
-203,-370,0,0,0,0,0,0,0,0,0,-1,1021,1394,0,0
-196,-370,0,0,0,0,0,0,0,0,0,-1,1028,1394,0,0
-189,-370,0,0,0,0,0,0,0,0,0,-1,1035,1394,0,0
-182,-370,0,0,0,0,0,0,0,0,0,-1,1042,1394,0,0
-175,-370,0,0,0,0,0,0,0,0,0,-1,1049,1394,0,0
-168,-370,0,0,0,0,0,0,0,0,0,-1,1056,1394,0,0
-161,-370,0,0,0,0,0,0,0,0,0,-1,1063,1394,0,0
-154,-370,0,0,0,0,0,0,0,0,0,-1,1070,1394,0,0
-147,-370,0,0,0,0,0,0,0,0,0,-1,1077,1394,0,0
-140,-370,0,0,0,0,0,0,0,0,0,-1,1084,1394,0,0
-133,-370,0,0,0,0,0,0,0,0,0,-1,1091,1394,0,0
-126,-370,0,0,0,0,0,0,0,0,0,-1,1098,1394,0,0
-119,-370,0,0,0,0,0,0,0,0,0,-1,1105,1394,0,0
-112,-370,0,0,0,0,0,0,0,0,0,-1,1112,1394,0,0
-105,-370,0,0,0,0,0,0,0,0,0,-1,1119,1394,0,0
-98,-370,0,0,0,0,0,0,0,0,0,-1,1126,1394,0,0
-91,-370,0,0,0,0,0,0,0,0,0,-1,1133,1394,0,0
-84,-370,0,0,0,0,0,0,0,0,0,-1,1140,1394,0,0
-77,-370,0,0,0,0,0,0,0,0,0,-1,1147,1394,0,0
-70,-370,0,0,0,0,0,0,0,0,0,-1,1154,1394,0,0
-63,-370,0,0,0,0,0,0,0,0,0,-1,1161,1394,0,0
-56,-370,0,0,0,0,0,0,0,0,0,-1,1168,1394,0,0
-49,-370,0,0,0,0,0,0,0,0,0,-1,1175,1394,0,0
-42,-370,0,0,0,0,0,0,0,0,0,-1,1182,1394,0,0
-35,-370,0,0,0,0,0,0,0,0,0,-1,1189,1394,0,0
-28,-370,0,0,0,0,0,0,0,0,0,-1,1196,1394,0,0
-21,-370,0,0,0,0,0,0,0,0,0,-1,1203,1394,0,0
-14,-370,0,0,0,0,0,0,0,0,0,-1,1210,1394,0,0
-7,-370,0,0,0,0,0,0,0,0,0,-1,1217,1394,0,0
0,-370,0,0,0,0,0,0,0,0,0,-1,1224,1394,0,0
7,-370,0,0,0,0,0,0,0,0,0,-1,1231,1394,0,0
14,-370,0,0,0,0,0,0,0,0,0,-1,1238,1394,0,0
21,-370,0,0,0,0,0,0,0,0,0,-1,1245,1394,0,0
28,-370,0,0,0,0,0,0,0,0,0,-1,1252,1394,0,0
35,-370,0,0,0,0,0,0,0,0,0,-1,1259,1394,0,0
42,-370,0,0,0,0,0,0,0,0,0,-1,1266,1394,0,0
49,-370,0,0,0,0,0,0,0,0,0,-1,1273,1394,0,0
56,-370,0,0,0,0,0,0,0,0,0,-1,1280,1394,0,0
63,-370,0,0,0,0,0,0,0,0,0,-1,1287,1394,0,0
70,-370,0,0,0,0,0,0,0,0,0,-1,1294,1394,0,0
77,-370,0,0,0,0,0,0,0,0,0,-1,1301,1394,0,0
84,-370,0,0,0,0,0,0,0,0,0,-1,1308,1394,0,0
91,-370,0,0,0,0,0,0,0,0,0,-1,1315,1394,0,0
98,-370,0,0,0,0,0,0,0,0,0,-1,1322,1394,0,0
105,-370,0,0,0,0,0,0,0,0,0,-1,1329,1394,0,0
112,-370,0,0,0,0,0,0,0,0,0,-1,1336,1394,0,0
119,-370,0,0,0,0,0,0,0,0,0,-1,1343,1394,0,0
126,-370,0,0,0,0,0,0,0,0,0,-1,1350,1394,0,0
133,-370,0,0,0,0,0,0,0,0,0,-1,1357,1394,0,0
140,-370,0,0,0,0,0,0,0,0,0,-1,1364,1394,0,0
147,-370,0,0,0,0,0,0,0,0,0,-1,1371,1394,0,0
154,-370,0,0,0,0,0,0,0,0,0,-1,1378,1394,0,0
161,-370,0,0,0,0,0,0,0,0,0,-1,1385,1394,0,0
168,-370,0,0,0,0,0,0,0,0,0,-1,1392,1394,0,0
175,-370,0,0,0,0,0,0,0,0,0,-1,1399,1394,0,0
182,-370,0,0,0,0,0,0,0,0,0,-1,1406,1394,0,0
189,-370,0,0,0,0,0,0,0,0,0,-1,1413,1394,0,0
196,-370,0,0,0,0,0,0,0,0,0,-1,1420,1394,0,0
203,-370,0,0,0,0,0,0,0,0,0,-1,1427,1394,0,0
210,-370,0,0,0,0,0,0,0,0,0,-1,1434,1394,0,0
217,-370,0,0,0,0,0,0,0,0,0,-1,1441,1394,0,0
224,-370,0,0,0,0,0,0,0,0,0,-1,1448,1394,0,0
231,-370,0,0,0,0,0,0,0,0,0,-1,1455,1394,0,0
238,-370,0,0,0,0,0,0,0,0,0,-1,1462,1394,0,0
245,-370,0,0,0,0,0,0,0,0,0,-1,1469,1394,0,0
252,-370,0,0,0,0,0,0,0,0,0,-1,1476,1394,0,0
259,-370,0,0,0,0,0,0,0,0,0,-1,1483,1394,0,0
266,-370,0,0,0,0,0,0,0,0,0,-1,1490,1394,0,0
273,-370,0,0,0,0,0,0,0,0,0,-1,1497,1394,0,0
280,-370,0,0,0,0,0,0,0,0,0,-1,1504,1394,0,0
287,-370,0,0,0,0,0,0,0,0,0,-1,1511,1394,0,0
294,-370,0,0,0,0,0,0,0,0,0,-1,1518,1394,0,0
301,-370,0,0,0,0,0,0,0,0,0,-1,1525,1394,0,0
308,-370,0,0,0,0,0,0,0,0,0,-1,1532,1394,0,0
315,-370,0,0,0,0,0,0,0,0,0,-1,1539,1394,0,0
322,-370,0,0,0,0,0,0,0,0,0,-1,1546,1394,0,0
329,-370,0,0,0,0,0,0,0,0,0,-1,1553,1394,0,0
336,-370,0,0,0,0,0,0,0,0,0,-1,1560,1394,0,0
343,-370,0,0,0,0,0,0,0,0,0,-1,1567,1394,0,0
350,-370,0,0,0,0,0,0,0,0,0,-1,1574,1394,0,0
357,-370,0,0,0,0,0,0,0,0,0,-1,1581,1394,0,0
364,-370,0,0,0,0,0,0,0,0,0,-1,1588,1394,0,0
371,-370,0,0,0,0,0,0,0,0,0,-1,1595,1394,0,0
378,-370,0,0,0,0,0,0,0,0,0,-1,1602,1394,0,0
385,-370,0,0,0,0,0,0,0,0,0,-1,1609,1394,0,0
392,-370,0,0,0,0,0,0,0,0,0,-1,1616,1394,0,0
399,-370,0,0,0,0,0,0,0,0,0,-1,1623,1394,0,0
406,-370,0,0,0,0,0,0,0,0,0,-1,1630,1394,0,0
413,-370,0,0,0,0,0,0,0,0,0,-1,1637,1394,0,0
420,-370,0,0,0,0,0,0,0,0,0,-1,1644,1394,0,0
427,-370,0,0,0,0,0,0,0,0,0,-1,1651,1394,0,0
434,-370,0,0,0,0,0,0,0,0,0,-1,1658,1394,0,0
441,-370,0,0,0,0,0,0,0,0,0,-1,1665,1394,0,0
448,-370,0,0,0,0,0,0,0,0,0,-1,1672,1394,0,0
455,-370,0,0,0,0,0,0,0,0,0,-1,1679,1394,0,0
462,-370,0,0,0,0,0,0,0,0,0,-1,1686,1394,0,0
469,-370,0,0,0,0,0,0,0,0,0,-1,1693,1394,0,0
476,-370,0,0,0,0,0,0,0,0,0,-1,1700,1394,0,0
483,-370,0,0,0,0,0,0,0,0,0,-1,1707,1394,0,0
490,-370,0,0,0,0,0,0,0,0,0,-1,1714,1394,0,0
497,-370,0,0,0,0,0,0,0,0,0,-1,1721,1394,0,0
504,-370,0,0,0,0,0,0,0,0,0,-1,1728,1394,0,0
511,-370,0,0,0,0,0,0,0,0,0,-1,1735,1394,0,0
518,-370,0,0,0,0,0,0,0,0,0,-1,1742,1394,0,0
525,-370,0,0,0,0,0,0,0,0,0,-1,1749,1394,0,0
532,-370,0,0,0,0,0,0,0,0,0,-1,1756,1394,0,0
539,-370,0,0,0,0,0,0,0,0,0,-1,1763,1394,0,0
546,-370,27.4949,2.81201,0,0,0,0,0,0,0,-1,1770,1394,27.4948,-2.81198
553,-370,26.5985,1.99329,0,0,0,0,0,0,0,-1,1777,1394,26.5985,-1.99327
560,-370,46.0132,3.65686,0,0,0,0,0,0,0,-1,1784,1394,46.0132,-3.65689
567,-370,46.1089,3.11719,0,0,0,0,0,0,0,-1,1791,1394,46.1089,-3.1172
574,-370,38.8953,1.49353,0,0,0,0,0,0,0,-1,1798,1394,38.8952,-1.49348
581,-370,39.178,2.86145,0,0,0,0,0,0,0,-1,1805,1394,39.1779,-2.86145
588,-370,39.2102,4.27661,0,0,0,0,0,0,0,-1,1812,1394,39.2102,-4.27657
595,-370,25.793,4.5271,0,0,0,0,0,0,0,-1,1819,1394,25.793,-4.52711
602,-370,25.1077,5.34937,0,0,0,0,0,0,0,-1,1826,1394,25.1077,-5.34932
609,-370,16.712,0.993286,0,0,0,0,0,0,0,-1,1833,1394,16.7121,-0.99323
616,-370,16.7764,7.23315,0,0,0,0,0,0,0,-1,1840,1394,16.7764,-7.23313
623,-370,17.6625,8.94263,0,0,0,0,0,0,0,-1,1847,1394,17.6624,-8.94258
630,-370,20.9681,11.1785,0,0,0,0,0,0,0,-1,1854,1394,20.9681,-11.1784
637,-370,27.004,13.6631,0,0,0,0,0,0,0,-1,1861,1394,27.004,-13.6631
644,-370,27.2998,12.9287,0.00179551,0.000450423,-0.00104659,0.00236701,-0.000121085,-0.499819,0.00161988,0.0135026,1868,1394,27.2998,-12.9287
651,-370,27.3101,12.4745,0.000757855,0.000551761,-0.000717095,0.00137927,-6.96534e-05,-0.714037,0.000943588,0.0122944,1875,1394,27.3101,-12.4745
658,-370,27.3031,12.0155,0.000576408,0.000357765,-0.000301569,0.000787859,0.000146314,-0.611511,0.000483898,0.0125974,1882,1394,27.3031,-12.0156
665,-370,27.2794,11.5543,0.000846767,-8.97757e-05,0.000167757,0.000875909,-0.000118918,0.172002,0.000627347,0.014566,1889,1394,27.2794,-11.5543
672,-370,27.2688,11.0845,0.0011836,-0.000546428,0.000606566,0.00137508,-0.000737904,0.305772,0.00123828,0.0149611,1896,1394,27.2688,-11.0845
679,-370,27.287,10.6146,0.00161231,-0.000964349,0.000977574,0.00194122,-0.00129325,0.324552,0.00187987,0.0139323,1903,1394,27.287,-10.6146
686,-370,27.2622,10.1614,0.00211002,-0.00139649,0.00130153,0.00254032,-0.00182679,0.319294,0.00253254,0.0147359,1910,1394,27.2622,-10.1614
693,-370,27.2358,9.68994,0.00273919,-0.00179281,0.0014874,0.00318375,-0.00223737,0.29043,0.00314574,0.0130548,1917,1394,27.2358,-9.68992
700,-370,27.4182,9.19604,0.003584,-0.0020847,0.00156444,0.00398709,-0.00248779,0.252172,0.00377153,0.0325505,1924,1394,27.4182,-9.19601
707,-370,27.7827,8.62683,0,0,0,0,0,0,0,-1,1931,1394,27.7827,-8.62681
714,-370,16.9116,5.93018,0,0,0,0,0,0,0,-1,1938,1394,16.9116,-5.93014
721,-370,17.2007,4.69153,0,0,0,0,0,0,0,-1,1945,1394,17.2007,-4.69158
728,-370,20.5315,-0.313354,0,0,0,0,0,0,0,-1,1952,1394,20.5315,0.313332
735,-370,22.3652,0.233398,0,0,0,0,0,0,0,-1,1959,1394,22.3652,-0.233355
742,-370,24.1989,0.780029,0,0,0,0,0,0,0,-1,1966,1394,24.1989,-0.780041
749,-370,0,0,0,0,0,0,0,0,0,-1,1973,1394,0,0
756,-370,0,0,0,0,0,0,0,0,0,-1,1980,1394,0,0
763,-370,0,0,0,0,0,0,0,0,0,-1,1987,1394,0,0
770,-370,0,0,0,0,0,0,0,0,0,-1,1994,1394,0,0
777,-370,0,0,0,0,0,0,0,0,0,-1,2001,1394,0,0
784,-370,0,0,0,0,0,0,0,0,0,-1,2008,1394,0,0
791,-370,0,0,0,0,0,0,0,0,0,-1,2015,1394,0,0
798,-370,0,0,0,0,0,0,0,0,0,-1,2022,1394,0,0
805,-370,0,0,0,0,0,0,0,0,0,-1,2029,1394,0,0
812,-370,0,0,0,0,0,0,0,0,0,-1,2036,1394,0,0
-700,-377,0,0,0,0,0,0,0,0,0,-1,524,1401,0,0
-693,-377,0,0,0,0,0,0,0,0,0,-1,531,1401,0,0
-686,-377,0,0,0,0,0,0,0,0,0,-1,538,1401,0,0
-679,-377,0,0,0,0,0,0,0,0,0,-1,545,1401,0,0
-672,-377,0,0,0,0,0,0,0,0,0,-1,552,1401,0,0
-665,-377,0,0,0,0,0,0,0,0,0,-1,559,1401,0,0
-658,-377,0,0,0,0,0,0,0,0,0,-1,566,1401,0,0
-651,-377,0,0,0,0,0,0,0,0,0,-1,573,1401,0,0
-644,-377,0,0,0,0,0,0,0,0,0,-1,580,1401,0,0
-637,-377,0,0,0,0,0,0,0,0,0,-1,587,1401,0,0
-630,-377,0,0,0,0,0,0,0,0,0,-1,594,1401,0,0
-623,-377,0,0,0,0,0,0,0,0,0,-1,601,1401,0,0
-616,-377,-9.43915,-2.4906,0,0,0,0,0,0,0,-1,608,1401,-9.43915,2.49062
-609,-377,-7.2821,-1.35278,0,0,0,0,0,0,0,-1,615,1401,-7.28208,1.35279
-602,-377,-14.9736,3.98279,0,0,0,0,0,0,0,-1,622,1401,-14.9737,-3.98276
-595,-377,-6.9082,1.18201,0,0,0,0,0,0,0,-1,629,1401,-6.90822,-1.18204
-588,-377,-12.8003,3.44751,0,0,0,0,0,0,0,-1,636,1401,-12.8003,-3.44754
-581,-377,-11.8243,6.21521,0,0,0,0,0,0,0,-1,643,1401,-11.8244,-6.21519
-574,-377,-12.0665,6.66089,0,0,0,0,0,0,0,-1,650,1401,-12.0665,-6.6609
-567,-377,-12.6397,7.09253,0,0,0,0,0,0,0,-1,657,1401,-12.6397,-7.09257
-560,-377,-12.913,7.62439,0.00374601,-0.00120079,3.6481e-05,0.00374628,-0.00120106,0.00737411,0.00297969,0.0461364,664,1401,-12.913,-7.62437
-553,-377,-12.7411,8.00525,0.00311793,-0.000861257,8.70137e-05,0.00311983,-0.000863159,0.0218533,0.00241948,0.0146213,671,1401,-12.7411,-8.00524
-546,-377,-12.7656,8.62097,0.0027668,-0.000564485,0.000222544,0.0027816,-0.000579286,0.0664109,0.00207463,0.0167642,678,1401,-12.7656,-8.62096
-539,-377,-12.7515,9.08289,0.00269517,-0.000254678,0.000447544,0.00276157,-0.000321083,0.147303,0.00195688,0.0222789,685,1401,-12.7516,-9.08286
-532,-377,-12.7874,9.56653,0.00291865,8.13779e-05,0.000796569,0.00312699,-0.000126962,0.255816,0.00212824,0.0208553,692,1401,-12.7874,-9.56655
-525,-377,-12.7487,10.0925,0.00347199,0.000526662,0.00133188,0.00398493,1.37177e-05,0.367621,0.00265206,0.0200173,699,1401,-12.7487,-10.0925
-518,-377,-12.8016,10.5748,0.0043259,0.00112023,0.00205622,0.00533019,0.000115936,0.454339,0.00351545,0.0133955,706,1401,-12.8017,-10.5749
-511,-377,-12.8115,11.1111,0.00554777,0.00190086,0.00303874,0.00726817,0.000180457,0.515163,0.00478643,0.0118177,713,1401,-12.8115,-11.1111
-504,-377,-12.8442,11.6641,0.00727394,0.00283722,0.00430161,0.00989551,0.00021564,0.547332,0.00652632,0.0154533,720,1401,-12.8442,-11.6641
-497,-377,-12.688,12.2642,0,0,0,0,0,0,0,-1,727,1401,-12.688,-12.2642
-490,-377,-8.88409,10.1245,0,0,0,0,0,0,0,-1,734,1401,-8.8841,-10.1245
-483,-377,-5.6524,5.07324,0,0,0,0,0,0,0,-1,741,1401,-5.6524,-5.07325
-476,-377,-6.11682,5.10535,0,0,0,0,0,0,0,-1,748,1401,-6.11681,-5.10537
-469,-377,-10.3211,1.9281,0,0,0,0,0,0,0,-1,755,1401,-10.3211,-1.92808
-462,-377,-9.2204,1.0022,0,0,0,0,0,0,0,-1,762,1401,-9.22039,-1.00218
-455,-377,-8.11969,0.0762939,0,0,0,0,0,0,0,-1,769,1401,-8.11968,-0.0762759
-448,-377,-9.05334,0.877319,0,0,0,0,0,0,0,-1,776,1401,-9.05332,-0.877324
-441,-377,-11.212,0.763428,0,0,0,0,0,0,0,-1,783,1401,-11.212,-0.763415
-434,-377,-11.0984,0.996216,0,0,0,0,0,0,0,-1,790,1401,-11.0984,-0.996265
-427,-377,-11.1733,1.25732,0,0,0,0,0,0,0,-1,797,1401,-11.1733,-1.25732
-420,-377,0,0,0,0,0,0,0,0,0,-1,804,1401,0,0
-413,-377,0,0,0,0,0,0,0,0,0,-1,811,1401,0,0
-406,-377,0,0,0,0,0,0,0,0,0,-1,818,1401,0,0
-399,-377,0,0,0,0,0,0,0,0,0,-1,825,1401,0,0
-392,-377,0,0,0,0,0,0,0,0,0,-1,832,1401,0,0
-385,-377,0,0,0,0,0,0,0,0,0,-1,839,1401,0,0
-378,-377,0,0,0,0,0,0,0,0,0,-1,846,1401,0,0
-371,-377,0,0,0,0,0,0,0,0,0,-1,853,1401,0,0
-364,-377,0,0,0,0,0,0,0,0,0,-1,860,1401,0,0
-357,-377,0,0,0,0,0,0,0,0,0,-1,867,1401,0,0
-350,-377,0,0,0,0,0,0,0,0,0,-1,874,1401,0,0
-343,-377,0,0,0,0,0,0,0,0,0,-1,881,1401,0,0
-336,-377,0,0,0,0,0,0,0,0,0,-1,888,1401,0,0
-329,-377,0,0,0,0,0,0,0,0,0,-1,895,1401,0,0
-322,-377,0,0,0,0,0,0,0,0,0,-1,902,1401,0,0
-315,-377,0,0,0,0,0,0,0,0,0,-1,909,1401,0,0
-308,-377,0,0,0,0,0,0,0,0,0,-1,916,1401,0,0
-301,-377,0,0,0,0,0,0,0,0,0,-1,923,1401,0,0
-294,-377,0,0,0,0,0,0,0,0,0,-1,930,1401,0,0
-287,-377,0,0,0,0,0,0,0,0,0,-1,937,1401,0,0
-280,-377,0,0,0,0,0,0,0,0,0,-1,944,1401,0,0
-273,-377,0,0,0,0,0,0,0,0,0,-1,951,1401,0,0
-266,-377,0,0,0,0,0,0,0,0,0,-1,958,1401,0,0
-259,-377,0,0,0,0,0,0,0,0,0,-1,965,1401,0,0
-252,-377,0,0,0,0,0,0,0,0,0,-1,972,1401,0,0
-245,-377,0,0,0,0,0,0,0,0,0,-1,979,1401,0,0
-238,-377,0,0,0,0,0,0,0,0,0,-1,986,1401,0,0
-231,-377,0,0,0,0,0,0,0,0,0,-1,993,1401,0,0
-224,-377,0,0,0,0,0,0,0,0,0,-1,1000,1401,0,0
-217,-377,0,0,0,0,0,0,0,0,0,-1,1007,1401,0,0
-210,-377,0,0,0,0,0,0,0,0,0,-1,1014,1401,0,0
-203,-377,0,0,0,0,0,0,0,0,0,-1,1021,1401,0,0
-196,-377,0,0,0,0,0,0,0,0,0,-1,1028,1401,0,0
-189,-377,0,0,0,0,0,0,0,0,0,-1,1035,1401,0,0
-182,-377,0,0,0,0,0,0,0,0,0,-1,1042,1401,0,0
-175,-377,0,0,0,0,0,0,0,0,0,-1,1049,1401,0,0
-168,-377,0,0,0,0,0,0,0,0,0,-1,1056,1401,0,0
-161,-377,0,0,0,0,0,0,0,0,0,-1,1063,1401,0,0
-154,-377,0,0,0,0,0,0,0,0,0,-1,1070,1401,0,0
-147,-377,0,0,0,0,0,0,0,0,0,-1,1077,1401,0,0
-140,-377,0,0,0,0,0,0,0,0,0,-1,1084,1401,0,0
-133,-377,0,0,0,0,0,0,0,0,0,-1,1091,1401,0,0
-126,-377,0,0,0,0,0,0,0,0,0,-1,1098,1401,0,0
-119,-377,0,0,0,0,0,0,0,0,0,-1,1105,1401,0,0
-112,-377,0,0,0,0,0,0,0,0,0,-1,1112,1401,0,0
-105,-377,0,0,0,0,0,0,0,0,0,-1,1119,1401,0,0
-98,-377,0,0,0,0,0,0,0,0,0,-1,1126,1401,0,0
-91,-377,0,0,0,0,0,0,0,0,0,-1,1133,1401,0,0
-84,-377,0,0,0,0,0,0,0,0,0,-1,1140,1401,0,0
-77,-377,0,0,0,0,0,0,0,0,0,-1,1147,1401,0,0
-70,-377,0,0,0,0,0,0,0,0,0,-1,1154,1401,0,0
-63,-377,0,0,0,0,0,0,0,0,0,-1,1161,1401,0,0
-56,-377,0,0,0,0,0,0,0,0,0,-1,1168,1401,0,0
-49,-377,0,0,0,0,0,0,0,0,0,-1,1175,1401,0,0
-42,-377,0,0,0,0,0,0,0,0,0,-1,1182,1401,0,0
-35,-377,0,0,0,0,0,0,0,0,0,-1,1189,1401,0,0
-28,-377,0,0,0,0,0,0,0,0,0,-1,1196,1401,0,0
-21,-377,0,0,0,0,0,0,0,0,0,-1,1203,1401,0,0
-14,-377,0,0,0,0,0,0,0,0,0,-1,1210,1401,0,0
-7,-377,0,0,0,0,0,0,0,0,0,-1,1217,1401,0,0
0,-377,0,0,0,0,0,0,0,0,0,-1,1224,1401,0,0
7,-377,0,0,0,0,0,0,0,0,0,-1,1231,1401,0,0
14,-377,0,0,0,0,0,0,0,0,0,-1,1238,1401,0,0
21,-377,0,0,0,0,0,0,0,0,0,-1,1245,1401,0,0
28,-377,0,0,0,0,0,0,0,0,0,-1,1252,1401,0,0
35,-377,0,0,0,0,0,0,0,0,0,-1,1259,1401,0,0
42,-377,0,0,0,0,0,0,0,0,0,-1,1266,1401,0,0
49,-377,0,0,0,0,0,0,0,0,0,-1,1273,1401,0,0
56,-377,0,0,0,0,0,0,0,0,0,-1,1280,1401,0,0
63,-377,0,0,0,0,0,0,0,0,0,-1,1287,1401,0,0
70,-377,0,0,0,0,0,0,0,0,0,-1,1294,1401,0,0
77,-377,0,0,0,0,0,0,0,0,0,-1,1301,1401,0,0
84,-377,0,0,0,0,0,0,0,0,0,-1,1308,1401,0,0
91,-377,0,0,0,0,0,0,0,0,0,-1,1315,1401,0,0
98,-377,0,0,0,0,0,0,0,0,0,-1,1322,1401,0,0
105,-377,0,0,0,0,0,0,0,0,0,-1,1329,1401,0,0
112,-377,0,0,0,0,0,0,0,0,0,-1,1336,1401,0,0
119,-377,0,0,0,0,0,0,0,0,0,-1,1343,1401,0,0
126,-377,0,0,0,0,0,0,0,0,0,-1,1350,1401,0,0
133,-377,0,0,0,0,0,0,0,0,0,-1,1357,1401,0,0
140,-377,0,0,0,0,0,0,0,0,0,-1,1364,1401,0,0
147,-377,0,0,0,0,0,0,0,0,0,-1,1371,1401,0,0
154,-377,0,0,0,0,0,0,0,0,0,-1,1378,1401,0,0
161,-377,0,0,0,0,0,0,0,0,0,-1,1385,1401,0,0
168,-377,0,0,0,0,0,0,0,0,0,-1,1392,1401,0,0
175,-377,0,0,0,0,0,0,0,0,0,-1,1399,1401,0,0
182,-377,0,0,0,0,0,0,0,0,0,-1,1406,1401,0,0
189,-377,0,0,0,0,0,0,0,0,0,-1,1413,1401,0,0
196,-377,0,0,0,0,0,0,0,0,0,-1,1420,1401,0,0
203,-377,0,0,0,0,0,0,0,0,0,-1,1427,1401,0,0
210,-377,0,0,0,0,0,0,0,0,0,-1,1434,1401,0,0
217,-377,0,0,0,0,0,0,0,0,0,-1,1441,1401,0,0
224,-377,0,0,0,0,0,0,0,0,0,-1,1448,1401,0,0
231,-377,0,0,0,0,0,0,0,0,0,-1,1455,1401,0,0
238,-377,0,0,0,0,0,0,0,0,0,-1,1462,1401,0,0
245,-377,0,0,0,0,0,0,0,0,0,-1,1469,1401,0,0
252,-377,0,0,0,0,0,0,0,0,0,-1,1476,1401,0,0
259,-377,0,0,0,0,0,0,0,0,0,-1,1483,1401,0,0
266,-377,0,0,0,0,0,0,0,0,0,-1,1490,1401,0,0
273,-377,0,0,0,0,0,0,0,0,0,-1,1497,1401,0,0
280,-377,0,0,0,0,0,0,0,0,0,-1,1504,1401,0,0
287,-377,0,0,0,0,0,0,0,0,0,-1,1511,1401,0,0
294,-377,0,0,0,0,0,0,0,0,0,-1,1518,1401,0,0
301,-377,0,0,0,0,0,0,0,0,0,-1,1525,1401,0,0
308,-377,0,0,0,0,0,0,0,0,0,-1,1532,1401,0,0
315,-377,0,0,0,0,0,0,0,0,0,-1,1539,1401,0,0
322,-377,0,0,0,0,0,0,0,0,0,-1,1546,1401,0,0
329,-377,0,0,0,0,0,0,0,0,0,-1,1553,1401,0,0
336,-377,0,0,0,0,0,0,0,0,0,-1,1560,1401,0,0
343,-377,0,0,0,0,0,0,0,0,0,-1,1567,1401,0,0
350,-377,0,0,0,0,0,0,0,0,0,-1,1574,1401,0,0
357,-377,0,0,0,0,0,0,0,0,0,-1,1581,1401,0,0
364,-377,0,0,0,0,0,0,0,0,0,-1,1588,1401,0,0
371,-377,0,0,0,0,0,0,0,0,0,-1,1595,1401,0,0
378,-377,0,0,0,0,0,0,0,0,0,-1,1602,1401,0,0
385,-377,0,0,0,0,0,0,0,0,0,-1,1609,1401,0,0
392,-377,0,0,0,0,0,0,0,0,0,-1,1616,1401,0,0
399,-377,0,0,0,0,0,0,0,0,0,-1,1623,1401,0,0
406,-377,0,0,0,0,0,0,0,0,0,-1,1630,1401,0,0
413,-377,0,0,0,0,0,0,0,0,0,-1,1637,1401,0,0
420,-377,0,0,0,0,0,0,0,0,0,-1,1644,1401,0,0
427,-377,0,0,0,0,0,0,0,0,0,-1,1651,1401,0,0
434,-377,0,0,0,0,0,0,0,0,0,-1,1658,1401,0,0
441,-377,0,0,0,0,0,0,0,0,0,-1,1665,1401,0,0
448,-377,0,0,0,0,0,0,0,0,0,-1,1672,1401,0,0
455,-377,0,0,0,0,0,0,0,0,0,-1,1679,1401,0,0
462,-377,0,0,0,0,0,0,0,0,0,-1,1686,1401,0,0
469,-377,0,0,0,0,0,0,0,0,0,-1,1693,1401,0,0
476,-377,0,0,0,0,0,0,0,0,0,-1,1700,1401,0,0
483,-377,0,0,0,0,0,0,0,0,0,-1,1707,1401,0,0
490,-377,0,0,0,0,0,0,0,0,0,-1,1714,1401,0,0
497,-377,0,0,0,0,0,0,0,0,0,-1,1721,1401,0,0
504,-377,0,0,0,0,0,0,0,0,0,-1,1728,1401,0,0
511,-377,0,0,0,0,0,0,0,0,0,-1,1735,1401,0,0
518,-377,0,0,0,0,0,0,0,0,0,-1,1742,1401,0,0
525,-377,0,0,0,0,0,0,0,0,0,-1,1749,1401,0,0
532,-377,0,0,0,0,0,0,0,0,0,-1,1756,1401,0,0
539,-377,0,0,0,0,0,0,0,0,0,-1,1763,1401,0,0
546,-377,27.8485,2.34094,0,0,0,0,0,0,0,-1,1770,1401,27.8486,-2.34091
553,-377,27.2189,2.42493,0,0,0,0,0,0,0,-1,1777,1401,27.2188,-2.42498
560,-377,38.3577,-2.15015,0,0,0,0,0,0,0,-1,1784,1401,38.3576,2.1501
567,-377,38.4889,-0.285645,0,0,0,0,0,0,0,-1,1791,1401,38.4889,0.2857
574,-377,38.6221,1.61694,0,0,0,0,0,0,0,-1,1798,1401,38.6221,-1.61689
581,-377,39.1818,3.76367,0,0,0,0,0,0,0,-1,1805,1401,39.1818,-3.76366
588,-377,25.882,4.35217,0,0,0,0,0,0,0,-1,1812,1401,25.8819,-4.3522
595,-377,25.5392,5.11804,0,0,0,0,0,0,0,-1,1819,1401,25.5392,-5.11808
602,-377,24.816,5.79126,0,0,0,0,0,0,0,-1,1826,1401,24.816,-5.79124
609,-377,15.0223,4.76135,0,0,0,0,0,0,0,-1,1833,1401,15.0224,-4.76129
616,-377,14.1842,5.78992,0,0,0,0,0,0,0,-1,1840,1401,14.1842,-5.78987
623,-377,15.8248,8.76721,0,0,0,0,0,0,0,-1,1847,1401,15.8248,-8.76725
630,-377,26.4276,14.2759,0,0,0,0,0,0,0,-1,1854,1401,26.4276,-14.2759
637,-377,26.7217,13.4744,0.00186771,-0.00050578,0.000796559,0.00211026,-0.000748324,0.295572,0.0017117,0.0312559,1861,1401,26.7217,-13.4743
644,-377,26.816,12.9554,0.000634779,0.00103604,-0.00114471,0.00199757,-0.000326752,-0.872151,0.00145293,0.0128767,1868,1401,26.816,-12.9555
651,-377,26.8195,12.4767,0.000586887,0.000559719,-0.000552184,0.00112565,2.09514e-05,-0.7731,0.000743551,0.0134583,1875,1401,26.8194,-12.4767
658,-377,26.8228,12.015,0.000721945,0.000116565,-3.17064e-05,0.000723601,0.000114909,-0.0521841,0.000449025,0.0147881,1882,1401,26.8228,-12.015
665,-377,26.8252,11.5436,0.000921408,-0.000336731,0.000475632,0.00108098,-0.000496302,0.323693,0.000931265,0.0191424,1889,1401,26.8251,-11.5435
672,-377,26.8096,11.0691,0.00119893,-0.000853485,0.000997344,0.00160373,-0.00125829,0.385568,0.0016564,0.0188349,1896,1401,26.8096,-11.0691
679,-377,26.8088,10.6248,0.00156314,-0.00137987,0.00149985,0.0021928,-0.00200953,0.397469,0.00242698,0.0177644,1903,1401,26.8088,-10.6248
686,-377,26.7744,10.1888,0.00199469,-0.00200329,0.00202063,0.00283804,-0.00284663,0.39539,0.00328205,0.0155919,1910,1401,26.7744,-10.1888
693,-377,26.8052,9.70068,0.00259647,-0.00265698,0.0024224,0.00354293,-0.00360345,0.372476,0.00412602,0.0155974,1917,1401,26.8052,-9.70072
700,-377,27.0969,9.29126,0,0,0,0,0,0,0,-1,1924,1401,27.0969,-9.29123
707,-377,26.5253,8.39111,0,0,0,0,0,0,0,-1,1931,1401,26.5252,-8.39107
714,-377,16.5369,5.45959,0,0,0,0,0,0,0,-1,1938,1401,16.5369,-5.4596
721,-377,17.0913,5.42529,0,0,0,0,0,0,0,-1,1945,1401,17.0914,-5.42529
728,-377,14.5396,2.79724,0,0,0,0,0,0,0,-1,1952,1401,14.5396,-2.7972
735,-377,23.2977,-0.991089,0,0,0,0,0,0,0,-1,1959,1401,23.2978,0.991076
742,-377,0,0,0,0,0,0,0,0,0,-1,1966,1401,0,0
749,-377,0,0,0,0,0,0,0,0,0,-1,1973,1401,0,0
756,-377,0,0,0,0,0,0,0,0,0,-1,1980,1401,0,0
763,-377,0,0,0,0,0,0,0,0,0,-1,1987,1401,0,0
770,-377,0,0,0,0,0,0,0,0,0,-1,1994,1401,0,0
777,-377,0,0,0,0,0,0,0,0,0,-1,2001,1401,0,0
784,-377,0,0,0,0,0,0,0,0,0,-1,2008,1401,0,0
791,-377,0,0,0,0,0,0,0,0,0,-1,2015,1401,0,0
798,-377,0,0,0,0,0,0,0,0,0,-1,2022,1401,0,0
805,-377,0,0,0,0,0,0,0,0,0,-1,2029,1401,0,0
812,-377,0,0,0,0,0,0,0,0,0,-1,2036,1401,0,0
-700,-384,0,0,0,0,0,0,0,0,0,-1,524,1408,0,0
-693,-384,0,0,0,0,0,0,0,0,0,-1,531,1408,0,0
-686,-384,0,0,0,0,0,0,0,0,0,-1,538,1408,0,0
-679,-384,0,0,0,0,0,0,0,0,0,-1,545,1408,0,0
-672,-384,0,0,0,0,0,0,0,0,0,-1,552,1408,0,0
-665,-384,0,0,0,0,0,0,0,0,0,-1,559,1408,0,0
-658,-384,0,0,0,0,0,0,0,0,0,-1,566,1408,0,0
-651,-384,0,0,0,0,0,0,0,0,0,-1,573,1408,0,0
-644,-384,0,0,0,0,0,0,0,0,0,-1,580,1408,0,0
-637,-384,0,0,0,0,0,0,0,0,0,-1,587,1408,0,0
-630,-384,0,0,0,0,0,0,0,0,0,-1,594,1408,0,0
-623,-384,0,0,0,0,0,0,0,0,0,-1,601,1408,0,0
-616,-384,-10.019,-3.36646,0,0,0,0,0,0,0,-1,608,1408,-10.019,3.36648
-609,-384,-7.72357,-2.3418,0,0,0,0,0,0,0,-1,615,1408,-7.72358,2.34182
-602,-384,-11.7632,-2.85156,0,0,0,0,0,0,0,-1,622,1408,-11.7632,2.85157
-595,-384,-10.2217,2.8855,0,0,0,0,0,0,0,-1,629,1408,-10.2218,-2.88548
-588,-384,-12.1653,2.29041,0,0,0,0,0,0,0,-1,636,1408,-12.1654,-2.29038
-581,-384,-11.9297,3.60376,0,0,0,0,0,0,0,-1,643,1408,-11.9298,-3.6038
-574,-384,-11.5624,6.69373,0,0,0,0,0,0,0,-1,650,1408,-11.5624,-6.69368
-567,-384,-11.8033,6.92383,0,0,0,0,0,0,0,-1,657,1408,-11.8034,-6.92384
-560,-384,-12.3456,7.5426,0,0,0,0,0,0,0,-1,664,1408,-12.3457,-7.54263
-553,-384,-12.2921,8.04895,0.00285533,-0.00117535,-0.000153474,0.00286116,-0.00118119,-0.0380031,0.00240009,0.0351002,671,1408,-12.292,-8.04895
-546,-384,-12.2822,8.63232,0.00236025,-0.00082677,-4.2354e-05,0.00236081,-0.000827332,-0.0132864,0.00191033,0.0145539,678,1408,-12.2822,-8.63226
-539,-384,-12.2897,9.11694,0.0021841,-0.000466121,0.000158436,0.00219354,-0.000475559,0.0594996,0.00164397,0.01576,685,1408,-12.2896,-9.11691
-532,-384,-12.2753,9.56628,0.0023091,-0.00010263,0.000471895,0.00239814,-0.000191676,0.186507,0.00166633,0.0216998,692,1408,-12.2753,-9.56624
-525,-384,-12.2551,10.1024,0.00278482,0.000374244,0.000978153,0.00313179,2.72759e-05,0.340872,0.00207883,0.0209753,699,1408,-12.2551,-10.1024
-518,-384,-12.297,10.6073,0.00356788,0.00100248,0.00167928,0.00439831,0.000172057,0.459249,0.00287657,0.0125403,706,1408,-12.297,-10.6073
-511,-384,-12.324,11.1378,0.0046954,0.00184904,0.002654,0.00628373,0.000260713,0.539289,0.00410501,0.0109479,713,1408,-12.324,-11.1379
-504,-384,-12.3224,11.6826,0.00620494,0.00286278,0.00386794,0.00874734,0.000320381,0.581492,0.00572776,0.0131309,720,1408,-12.3224,-11.6826
-497,-384,-12.2961,12.2202,0.00812971,0.004275,0.0055078,0.0120376,0.000367068,0.617091,0.00790558,0.0369521,727,1408,-12.2962,-12.2202
-490,-384,-12.1057,12.8521,0,0,0,0,0,0,0,-1,734,1408,-12.1057,-12.8521
-483,-384,-6.26471,7.61194,0,0,0,0,0,0,0,-1,741,1408,-6.26469,-7.61191
-476,-384,-6.02734,5.67761,0,0,0,0,0,0,0,-1,748,1408,-6.02736,-5.6776
-469,-384,-10.206,2.63721,0,0,0,0,0,0,0,-1,755,1408,-10.206,-2.6372
-462,-384,-9.04291,1.43542,0,0,0,0,0,0,0,-1,762,1408,-9.04293,-1.43545
-455,-384,-7.87988,0.233765,0,0,0,0,0,0,0,-1,769,1408,-7.87986,-0.233709
-448,-384,-9.35529,7.19226,0,0,0,0,0,0,0,-1,776,1408,-9.35531,-7.19226
-441,-384,-10.4697,1.79004,0,0,0,0,0,0,0,-1,783,1408,-10.4697,-1.79003
-434,-384,-10.6449,0.552246,0,0,0,0,0,0,0,-1,790,1408,-10.6449,-0.552216
-427,-384,-10.968,1.10583,0,0,0,0,0,0,0,-1,797,1408,-10.968,-1.10588
-420,-384,-12.5607,4.54858,0,0,0,0,0,0,0,-1,804,1408,-12.5607,-4.54859
-413,-384,0,0,0,0,0,0,0,0,0,-1,811,1408,0,0
-406,-384,0,0,0,0,0,0,0,0,0,-1,818,1408,0,0
-399,-384,0,0,0,0,0,0,0,0,0,-1,825,1408,0,0
-392,-384,0,0,0,0,0,0,0,0,0,-1,832,1408,0,0
-385,-384,0,0,0,0,0,0,0,0,0,-1,839,1408,0,0
-378,-384,0,0,0,0,0,0,0,0,0,-1,846,1408,0,0
-371,-384,0,0,0,0,0,0,0,0,0,-1,853,1408,0,0
-364,-384,0,0,0,0,0,0,0,0,0,-1,860,1408,0,0
-357,-384,0,0,0,0,0,0,0,0,0,-1,867,1408,0,0
-350,-384,0,0,0,0,0,0,0,0,0,-1,874,1408,0,0
-343,-384,0,0,0,0,0,0,0,0,0,-1,881,1408,0,0
-336,-384,0,0,0,0,0,0,0,0,0,-1,888,1408,0,0
-329,-384,0,0,0,0,0,0,0,0,0,-1,895,1408,0,0
-322,-384,0,0,0,0,0,0,0,0,0,-1,902,1408,0,0
-315,-384,0,0,0,0,0,0,0,0,0,-1,909,1408,0,0
-308,-384,0,0,0,0,0,0,0,0,0,-1,916,1408,0,0
-301,-384,0,0,0,0,0,0,0,0,0,-1,923,1408,0,0
-294,-384,0,0,0,0,0,0,0,0,0,-1,930,1408,0,0
-287,-384,0,0,0,0,0,0,0,0,0,-1,937,1408,0,0
-280,-384,0,0,0,0,0,0,0,0,0,-1,944,1408,0,0
-273,-384,0,0,0,0,0,0,0,0,0,-1,951,1408,0,0
-266,-384,0,0,0,0,0,0,0,0,0,-1,958,1408,0,0
-259,-384,0,0,0,0,0,0,0,0,0,-1,965,1408,0,0
-252,-384,0,0,0,0,0,0,0,0,0,-1,972,1408,0,0
-245,-384,0,0,0,0,0,0,0,0,0,-1,979,1408,0,0
-238,-384,0,0,0,0,0,0,0,0,0,-1,986,1408,0,0
-231,-384,0,0,0,0,0,0,0,0,0,-1,993,1408,0,0
-224,-384,0,0,0,0,0,0,0,0,0,-1,1000,1408,0,0
-217,-384,0,0,0,0,0,0,0,0,0,-1,1007,1408,0,0
-210,-384,0,0,0,0,0,0,0,0,0,-1,1014,1408,0,0
-203,-384,0,0,0,0,0,0,0,0,0,-1,1021,1408,0,0
-196,-384,0,0,0,0,0,0,0,0,0,-1,1028,1408,0,0
-189,-384,0,0,0,0,0,0,0,0,0,-1,1035,1408,0,0
-182,-384,0,0,0,0,0,0,0,0,0,-1,1042,1408,0,0
-175,-384,0,0,0,0,0,0,0,0,0,-1,1049,1408,0,0
-168,-384,0,0,0,0,0,0,0,0,0,-1,1056,1408,0,0
-161,-384,0,0,0,0,0,0,0,0,0,-1,1063,1408,0,0
-154,-384,0,0,0,0,0,0,0,0,0,-1,1070,1408,0,0
-147,-384,0,0,0,0,0,0,0,0,0,-1,1077,1408,0,0
-140,-384,0,0,0,0,0,0,0,0,0,-1,1084,1408,0,0
-133,-384,0,0,0,0,0,0,0,0,0,-1,1091,1408,0,0
-126,-384,0,0,0,0,0,0,0,0,0,-1,1098,1408,0,0
-119,-384,0,0,0,0,0,0,0,0,0,-1,1105,1408,0,0
-112,-384,0,0,0,0,0,0,0,0,0,-1,1112,1408,0,0
-105,-384,0,0,0,0,0,0,0,0,0,-1,1119,1408,0,0
-98,-384,0,0,0,0,0,0,0,0,0,-1,1126,1408,0,0
-91,-384,0,0,0,0,0,0,0,0,0,-1,1133,1408,0,0
-84,-384,0,0,0,0,0,0,0,0,0,-1,1140,1408,0,0
-77,-384,0,0,0,0,0,0,0,0,0,-1,1147,1408,0,0
-70,-384,0,0,0,0,0,0,0,0,0,-1,1154,1408,0,0
-63,-384,0,0,0,0,0,0,0,0,0,-1,1161,1408,0,0
-56,-384,0,0,0,0,0,0,0,0,0,-1,1168,1408,0,0
-49,-384,0,0,0,0,0,0,0,0,0,-1,1175,1408,0,0
-42,-384,0,0,0,0,0,0,0,0,0,-1,1182,1408,0,0
-35,-384,0,0,0,0,0,0,0,0,0,-1,1189,1408,0,0
-28,-384,0,0,0,0,0,0,0,0,0,-1,1196,1408,0,0
-21,-384,0,0,0,0,0,0,0,0,0,-1,1203,1408,0,0
-14,-384,0,0,0,0,0,0,0,0,0,-1,1210,1408,0,0
-7,-384,0,0,0,0,0,0,0,0,0,-1,1217,1408,0,0
0,-384,0,0,0,0,0,0,0,0,0,-1,1224,1408,0,0
7,-384,0,0,0,0,0,0,0,0,0,-1,1231,1408,0,0
14,-384,0,0,0,0,0,0,0,0,0,-1,1238,1408,0,0
21,-384,0,0,0,0,0,0,0,0,0,-1,1245,1408,0,0
28,-384,0,0,0,0,0,0,0,0,0,-1,1252,1408,0,0
35,-384,0,0,0,0,0,0,0,0,0,-1,1259,1408,0,0
42,-384,0,0,0,0,0,0,0,0,0,-1,1266,1408,0,0
49,-384,0,0,0,0,0,0,0,0,0,-1,1273,1408,0,0
56,-384,0,0,0,0,0,0,0,0,0,-1,1280,1408,0,0
63,-384,0,0,0,0,0,0,0,0,0,-1,1287,1408,0,0
70,-384,0,0,0,0,0,0,0,0,0,-1,1294,1408,0,0
77,-384,0,0,0,0,0,0,0,0,0,-1,1301,1408,0,0
84,-384,0,0,0,0,0,0,0,0,0,-1,1308,1408,0,0
91,-384,0,0,0,0,0,0,0,0,0,-1,1315,1408,0,0
98,-384,0,0,0,0,0,0,0,0,0,-1,1322,1408,0,0
105,-384,0,0,0,0,0,0,0,0,0,-1,1329,1408,0,0
112,-384,0,0,0,0,0,0,0,0,0,-1,1336,1408,0,0
119,-384,0,0,0,0,0,0,0,0,0,-1,1343,1408,0,0
126,-384,0,0,0,0,0,0,0,0,0,-1,1350,1408,0,0
133,-384,0,0,0,0,0,0,0,0,0,-1,1357,1408,0,0
140,-384,0,0,0,0,0,0,0,0,0,-1,1364,1408,0,0
147,-384,0,0,0,0,0,0,0,0,0,-1,1371,1408,0,0
154,-384,0,0,0,0,0,0,0,0,0,-1,1378,1408,0,0
161,-384,0,0,0,0,0,0,0,0,0,-1,1385,1408,0,0
168,-384,0,0,0,0,0,0,0,0,0,-1,1392,1408,0,0
175,-384,0,0,0,0,0,0,0,0,0,-1,1399,1408,0,0
182,-384,0,0,0,0,0,0,0,0,0,-1,1406,1408,0,0
189,-384,0,0,0,0,0,0,0,0,0,-1,1413,1408,0,0
196,-384,0,0,0,0,0,0,0,0,0,-1,1420,1408,0,0
203,-384,0,0,0,0,0,0,0,0,0,-1,1427,1408,0,0
210,-384,0,0,0,0,0,0,0,0,0,-1,1434,1408,0,0
217,-384,0,0,0,0,0,0,0,0,0,-1,1441,1408,0,0
224,-384,0,0,0,0,0,0,0,0,0,-1,1448,1408,0,0
231,-384,0,0,0,0,0,0,0,0,0,-1,1455,1408,0,0
238,-384,0,0,0,0,0,0,0,0,0,-1,1462,1408,0,0
245,-384,0,0,0,0,0,0,0,0,0,-1,1469,1408,0,0
252,-384,0,0,0,0,0,0,0,0,0,-1,1476,1408,0,0
259,-384,0,0,0,0,0,0,0,0,0,-1,1483,1408,0,0
266,-384,0,0,0,0,0,0,0,0,0,-1,1490,1408,0,0
273,-384,0,0,0,0,0,0,0,0,0,-1,1497,1408,0,0
280,-384,0,0,0,0,0,0,0,0,0,-1,1504,1408,0,0
287,-384,0,0,0,0,0,0,0,0,0,-1,1511,1408,0,0
294,-384,0,0,0,0,0,0,0,0,0,-1,1518,1408,0,0
301,-384,0,0,0,0,0,0,0,0,0,-1,1525,1408,0,0
308,-384,0,0,0,0,0,0,0,0,0,-1,1532,1408,0,0
315,-384,0,0,0,0,0,0,0,0,0,-1,1539,1408,0,0
322,-384,0,0,0,0,0,0,0,0,0,-1,1546,1408,0,0
329,-384,0,0,0,0,0,0,0,0,0,-1,1553,1408,0,0
336,-384,0,0,0,0,0,0,0,0,0,-1,1560,1408,0,0
343,-384,0,0,0,0,0,0,0,0,0,-1,1567,1408,0,0
350,-384,0,0,0,0,0,0,0,0,0,-1,1574,1408,0,0
357,-384,0,0,0,0,0,0,0,0,0,-1,1581,1408,0,0
364,-384,0,0,0,0,0,0,0,0,0,-1,1588,1408,0,0
371,-384,0,0,0,0,0,0,0,0,0,-1,1595,1408,0,0
378,-384,0,0,0,0,0,0,0,0,0,-1,1602,1408,0,0
385,-384,0,0,0,0,0,0,0,0,0,-1,1609,1408,0,0
392,-384,0,0,0,0,0,0,0,0,0,-1,1616,1408,0,0
399,-384,0,0,0,0,0,0,0,0,0,-1,1623,1408,0,0
406,-384,0,0,0,0,0,0,0,0,0,-1,1630,1408,0,0
413,-384,0,0,0,0,0,0,0,0,0,-1,1637,1408,0,0
420,-384,0,0,0,0,0,0,0,0,0,-1,1644,1408,0,0
427,-384,0,0,0,0,0,0,0,0,0,-1,1651,1408,0,0
434,-384,0,0,0,0,0,0,0,0,0,-1,1658,1408,0,0
441,-384,0,0,0,0,0,0,0,0,0,-1,1665,1408,0,0
448,-384,0,0,0,0,0,0,0,0,0,-1,1672,1408,0,0
455,-384,0,0,0,0,0,0,0,0,0,-1,1679,1408,0,0
462,-384,0,0,0,0,0,0,0,0,0,-1,1686,1408,0,0
469,-384,0,0,0,0,0,0,0,0,0,-1,1693,1408,0,0
476,-384,0,0,0,0,0,0,0,0,0,-1,1700,1408,0,0
483,-384,0,0,0,0,0,0,0,0,0,-1,1707,1408,0,0
490,-384,0,0,0,0,0,0,0,0,0,-1,1714,1408,0,0
497,-384,0,0,0,0,0,0,0,0,0,-1,1721,1408,0,0
504,-384,0,0,0,0,0,0,0,0,0,-1,1728,1408,0,0
511,-384,0,0,0,0,0,0,0,0,0,-1,1735,1408,0,0
518,-384,0,0,0,0,0,0,0,0,0,-1,1742,1408,0,0
525,-384,0,0,0,0,0,0,0,0,0,-1,1749,1408,0,0
532,-384,0,0,0,0,0,0,0,0,0,-1,1756,1408,0,0
539,-384,27.6886,2.85803,0,0,0,0,0,0,0,-1,1763,1408,27.6886,-2.85807
546,-384,27.5044,2.9425,0,0,0,0,0,0,0,-1,1770,1408,27.5044,-2.94255
553,-384,27.3052,2.78394,0,0,0,0,0,0,0,-1,1777,1408,27.3051,-2.78394
560,-384,26.833,3.19812,0,0,0,0,0,0,0,-1,1784,1408,26.833,-3.19816
567,-384,38.2566,0.109985,0,0,0,0,0,0,0,-1,1791,1408,38.2566,-0.110044
574,-384,38.4003,2.05945,0,0,0,0,0,0,0,-1,1798,1408,38.4003,-2.05949
581,-384,25.819,3.91846,0,0,0,0,0,0,0,-1,1805,1408,25.8189,-3.91848
588,-384,23.3721,4.25439,0,0,0,0,0,0,0,-1,1812,1408,23.3721,-4.25442
595,-384,24.981,5.59595,0,0,0,0,0,0,0,-1,1819,1408,24.981,-5.59598
602,-384,20.6605,4.17261,0,0,0,0,0,0,0,-1,1826,1408,20.6606,-4.17265
609,-384,14.158,5.49475,0,0,0,0,0,0,0,-1,1833,1408,14.158,-5.49474
616,-384,14.7997,7.6908,0,0,0,0,0,0,0,-1,1840,1408,14.7996,-7.69079
623,-384,16.4293,9.58899,0,0,0,0,0,0,0,-1,1847,1408,16.4294,-9.58901
630,-384,26.4131,13.8684,0,0,0,0,0,0,0,-1,1854,1408,26.4131,-13.8684
637,-384,26.3726,13.4667,0.00131576,0.000410498,-0.000387408,0.00145892,0.000267345,-0.353954,0.000896877,0.0196882,1861,1408,26.3726,-13.4667
644,-384,26.3492,12.9976,0.000770054,0.000781534,-0.000825155,0.00160097,-4.93809e-05,-0.788876,0.00108415,0.0167125,1868,1408,26.3493,-12.9976
651,-384,26.3264,12.494,0.000718075,0.000337657,-0.000292295,0.000876601,0.000179132,-0.496949,0.000534786,0.0162476,1875,1408,26.3264,-12.4941
658,-384,26.3192,12.0098,0.000781708,-0.000106035,0.000239109,0.000842015,-0.000166341,0.247059,0.000624222,0.0159458,1882,1408,26.3192,-12.0097
665,-384,26.3511,11.5751,0.000900268,-0.00059722,0.000798481,0.00124614,-0.000943094,0.408767,0.00126799,0.0179952,1889,1408,26.3511,-11.575
672,-384,26.3503,11.1031,0.0010813,-0.00118417,0.00141996,0.00176499,-0.00186786,0.448722,0.0020977,0.0162813,1896,1408,26.3504,-11.1032
679,-384,26.3281,10.6445,0.00132725,-0.00184143,0.0020865,0.00236276,-0.00287694,0.460676,0.00303,0.0151377,1903,1408,26.3281,-10.6446
686,-384,26.3074,10.2164,0.0016029,-0.00268947,0.00286707,0.00303808,-0.00412466,0.464108,0.00415124,0.0122308,1910,1408,26.3074,-10.2164
693,-384,26.3289,9.76306,0.00203642,-0.00364157,0.00358732,0.00377222,-0.00537737,0.450662,0.00530955,0.0226309,1917,1408,26.3289,-9.76302
700,-384,26.3849,9.3147,0,0,0,0,0,0,0,-1,1924,1408,26.3849,-9.31474
707,-384,17.0566,6.62842,0,0,0,0,0,0,0,-1,1931,1408,17.0567,-6.62848
714,-384,16.038,5.0282,0,0,0,0,0,0,0,-1,1938,1408,16.038,-5.02819
721,-384,13.8843,2.8717,0,0,0,0,0,0,0,-1,1945,1408,13.8843,-2.87171
728,-384,15.4409,6.25745,0,0,0,0,0,0,0,-1,1952,1408,15.4409,-6.2574
735,-384,16.7598,6.71289,0,0,0,0,0,0,0,-1,1959,1408,16.7598,-6.71287
742,-384,0,0,0,0,0,0,0,0,0,-1,1966,1408,0,0
749,-384,0,0,0,0,0,0,0,0,0,-1,1973,1408,0,0
756,-384,0,0,0,0,0,0,0,0,0,-1,1980,1408,0,0
763,-384,0,0,0,0,0,0,0,0,0,-1,1987,1408,0,0
770,-384,0,0,0,0,0,0,0,0,0,-1,1994,1408,0,0
777,-384,0,0,0,0,0,0,0,0,0,-1,2001,1408,0,0
784,-384,0,0,0,0,0,0,0,0,0,-1,2008,1408,0,0
791,-384,0,0,0,0,0,0,0,0,0,-1,2015,1408,0,0
798,-384,0,0,0,0,0,0,0,0,0,-1,2022,1408,0,0
805,-384,0,0,0,0,0,0,0,0,0,-1,2029,1408,0,0
812,-384,0,0,0,0,0,0,0,0,0,-1,2036,1408,0,0
-700,-391,0,0,0,0,0,0,0,0,0,-1,524,1415,0,0
-693,-391,0,0,0,0,0,0,0,0,0,-1,531,1415,0,0
-686,-391,0,0,0,0,0,0,0,0,0,-1,538,1415,0,0
-679,-391,0,0,0,0,0,0,0,0,0,-1,545,1415,0,0
-672,-391,0,0,0,0,0,0,0,0,0,-1,552,1415,0,0
-665,-391,0,0,0,0,0,0,0,0,0,-1,559,1415,0,0
-658,-391,0,0,0,0,0,0,0,0,0,-1,566,1415,0,0
-651,-391,0,0,0,0,0,0,0,0,0,-1,573,1415,0,0
-644,-391,0,0,0,0,0,0,0,0,0,-1,580,1415,0,0
-637,-391,0,0,0,0,0,0,0,0,0,-1,587,1415,0,0
-630,-391,0,0,0,0,0,0,0,0,0,-1,594,1415,0,0
-623,-391,0,0,0,0,0,0,0,0,0,-1,601,1415,0,0
-616,-391,0,0,0,0,0,0,0,0,0,-1,608,1415,0,0
-609,-391,-7.71753,-3.69763,0,0,0,0,0,0,0,-1,615,1415,-7.71751,3.69759
-602,-391,-13.9493,-4.12805,0,0,0,0,0,0,0,-1,622,1415,-13.9493,4.12803
-595,-391,-10.8315,1.76172,0,0,0,0,0,0,0,-1,629,1415,-10.8315,-1.76171
-588,-391,-10.265,2.16431,0,0,0,0,0,0,0,-1,636,1415,-10.265,-2.16431
-581,-391,-11.3325,2.44836,0,0,0,0,0,0,0,-1,643,1415,-11.3325,-2.44842
-574,-391,-11.1471,6.19983,0,0,0,0,0,0,0,-1,650,1415,-11.1471,-6.19981
-567,-391,-11.1965,6.78589,0,0,0,0,0,0,0,-1,657,1415,-11.1965,-6.78586
-560,-391,-11.2459,7.37195,0,0,0,0,0,0,0,-1,664,1415,-11.2459,-7.37191
-553,-391,-11.8655,7.9823,0,0,0,0,0,0,0,-1,671,1415,-11.8655,-7.98235
-546,-391,-11.7852,8.6134,0.00189191,-0.00104364,-0.000354139,0.00193403,-0.00108576,-0.118376,0.00176626,0.0147575,678,1415,-11.7852,-8.61345
-539,-391,-11.7403,9.1311,0.00163141,-0.00064109,-0.000167079,0.00164363,-0.000653309,-0.0729989,0.00136661,0.0140428,685,1415,-11.7403,-9.13108
-532,-391,-11.7221,9.63123,0.0016673,-0.000264533,0.000118269,0.00167451,-0.000271747,0.0609178,0.00121708,0.0239379,692,1415,-11.7221,-9.63117
-525,-391,-11.7505,10.1775,0.00206451,0.000226501,0.000598738,0.00224235,4.86661e-05,0.288717,0.00147894,0.0225949,699,1415,-11.7506,-10.1775
-518,-391,-11.8204,10.6423,0.0027767,0.000887961,0.00128877,0.00343007,0.000234591,0.469208,0.00221266,0.0139191,706,1415,-11.8205,-10.6423
-511,-391,-11.8148,11.146,0.00382797,0.00177428,0.00225081,0.0052751,0.000327151,0.571394,0.00341291,0.013336,713,1415,-11.8148,-11.146
-504,-391,-11.8127,11.6775,0.00519978,0.00284479,0.00344144,0.00765959,0.000384981,0.620565,0.00498302,0.0128096,720,1415,-11.8128,-11.6775
-497,-391,-11.8182,12.1809,0.00693404,0.00424074,0.00499004,0.0107559,0.00041884,0.653604,0.00703517,0.0134907,727,1415,-11.8182,-12.1809
-490,-391,-11.772,12.7216,0,0,0,0,0,0,0,-1,734,1415,-11.772,-12.7216
-483,-391,-11.1018,12.9382,0,0,0,0,0,0,0,-1,741,1415,-11.1018,-12.9382
-476,-391,-6.05731,6.85303,0,0,0,0,0,0,0,-1,748,1415,-6.05728,-6.85304
-469,-391,-3.88953,5.0979,0,0,0,0,0,0,0,-1,755,1415,-3.88955,-5.09794
-462,-391,-8.67688,2.03125,0,0,0,0,0,0,0,-1,762,1415,-8.67685,-2.03121
-455,-391,-8.65576,6.46997,0,0,0,0,0,0,0,-1,769,1415,-8.65579,-6.46999
-448,-391,-8.39618,4.38403,0,0,0,0,0,0,0,-1,776,1415,-8.39617,-4.38405
-441,-391,-9.77704,2.5946,0,0,0,0,0,0,0,-1,783,1415,-9.77702,-2.5946
-434,-391,-11.5403,2.12878,0,0,0,0,0,0,0,-1,790,1415,-11.5403,-2.12881
-427,-391,-10.5311,2.50403,0,0,0,0,0,0,0,-1,797,1415,-10.5311,-2.504
-420,-391,-14.7087,1.24365,0,0,0,0,0,0,0,-1,804,1415,-14.7088,-1.24365
-413,-391,0,0,0,0,0,0,0,0,0,-1,811,1415,0,0
-406,-391,0,0,0,0,0,0,0,0,0,-1,818,1415,0,0
-399,-391,0,0,0,0,0,0,0,0,0,-1,825,1415,0,0
-392,-391,0,0,0,0,0,0,0,0,0,-1,832,1415,0,0
-385,-391,0,0,0,0,0,0,0,0,0,-1,839,1415,0,0
-378,-391,0,0,0,0,0,0,0,0,0,-1,846,1415,0,0
-371,-391,0,0,0,0,0,0,0,0,0,-1,853,1415,0,0
-364,-391,0,0,0,0,0,0,0,0,0,-1,860,1415,0,0
-357,-391,0,0,0,0,0,0,0,0,0,-1,867,1415,0,0
-350,-391,0,0,0,0,0,0,0,0,0,-1,874,1415,0,0
-343,-391,0,0,0,0,0,0,0,0,0,-1,881,1415,0,0
-336,-391,0,0,0,0,0,0,0,0,0,-1,888,1415,0,0
-329,-391,0,0,0,0,0,0,0,0,0,-1,895,1415,0,0
-322,-391,0,0,0,0,0,0,0,0,0,-1,902,1415,0,0
-315,-391,0,0,0,0,0,0,0,0,0,-1,909,1415,0,0
-308,-391,0,0,0,0,0,0,0,0,0,-1,916,1415,0,0
-301,-391,0,0,0,0,0,0,0,0,0,-1,923,1415,0,0
-294,-391,0,0,0,0,0,0,0,0,0,-1,930,1415,0,0
-287,-391,0,0,0,0,0,0,0,0,0,-1,937,1415,0,0
-280,-391,0,0,0,0,0,0,0,0,0,-1,944,1415,0,0
-273,-391,0,0,0,0,0,0,0,0,0,-1,951,1415,0,0
-266,-391,0,0,0,0,0,0,0,0,0,-1,958,1415,0,0
-259,-391,0,0,0,0,0,0,0,0,0,-1,965,1415,0,0
-252,-391,0,0,0,0,0,0,0,0,0,-1,972,1415,0,0
-245,-391,0,0,0,0,0,0,0,0,0,-1,979,1415,0,0
-238,-391,0,0,0,0,0,0,0,0,0,-1,986,1415,0,0
-231,-391,0,0,0,0,0,0,0,0,0,-1,993,1415,0,0
-224,-391,0,0,0,0,0,0,0,0,0,-1,1000,1415,0,0
-217,-391,0,0,0,0,0,0,0,0,0,-1,1007,1415,0,0
-210,-391,0,0,0,0,0,0,0,0,0,-1,1014,1415,0,0
-203,-391,0,0,0,0,0,0,0,0,0,-1,1021,1415,0,0
-196,-391,0,0,0,0,0,0,0,0,0,-1,1028,1415,0,0
-189,-391,0,0,0,0,0,0,0,0,0,-1,1035,1415,0,0
-182,-391,0,0,0,0,0,0,0,0,0,-1,1042,1415,0,0
-175,-391,0,0,0,0,0,0,0,0,0,-1,1049,1415,0,0
-168,-391,0,0,0,0,0,0,0,0,0,-1,1056,1415,0,0
-161,-391,0,0,0,0,0,0,0,0,0,-1,1063,1415,0,0
-154,-391,0,0,0,0,0,0,0,0,0,-1,1070,1415,0,0
-147,-391,0,0,0,0,0,0,0,0,0,-1,1077,1415,0,0
-140,-391,0,0,0,0,0,0,0,0,0,-1,1084,1415,0,0
-133,-391,0,0,0,0,0,0,0,0,0,-1,1091,1415,0,0
-126,-391,0,0,0,0,0,0,0,0,0,-1,1098,1415,0,0
-119,-391,0,0,0,0,0,0,0,0,0,-1,1105,1415,0,0
-112,-391,0,0,0,0,0,0,0,0,0,-1,1112,1415,0,0
-105,-391,0,0,0,0,0,0,0,0,0,-1,1119,1415,0,0
-98,-391,0,0,0,0,0,0,0,0,0,-1,1126,1415,0,0
-91,-391,0,0,0,0,0,0,0,0,0,-1,1133,1415,0,0
-84,-391,0,0,0,0,0,0,0,0,0,-1,1140,1415,0,0
-77,-391,0,0,0,0,0,0,0,0,0,-1,1147,1415,0,0
-70,-391,0,0,0,0,0,0,0,0,0,-1,1154,1415,0,0
-63,-391,0,0,0,0,0,0,0,0,0,-1,1161,1415,0,0
-56,-391,0,0,0,0,0,0,0,0,0,-1,1168,1415,0,0
-49,-391,0,0,0,0,0,0,0,0,0,-1,1175,1415,0,0
-42,-391,0,0,0,0,0,0,0,0,0,-1,1182,1415,0,0
-35,-391,0,0,0,0,0,0,0,0,0,-1,1189,1415,0,0
-28,-391,0,0,0,0,0,0,0,0,0,-1,1196,1415,0,0
-21,-391,0,0,0,0,0,0,0,0,0,-1,1203,1415,0,0
-14,-391,0,0,0,0,0,0,0,0,0,-1,1210,1415,0,0
-7,-391,0,0,0,0,0,0,0,0,0,-1,1217,1415,0,0
0,-391,0,0,0,0,0,0,0,0,0,-1,1224,1415,0,0
7,-391,0,0,0,0,0,0,0,0,0,-1,1231,1415,0,0
14,-391,0,0,0,0,0,0,0,0,0,-1,1238,1415,0,0
21,-391,0,0,0,0,0,0,0,0,0,-1,1245,1415,0,0
28,-391,0,0,0,0,0,0,0,0,0,-1,1252,1415,0,0
35,-391,0,0,0,0,0,0,0,0,0,-1,1259,1415,0,0
42,-391,0,0,0,0,0,0,0,0,0,-1,1266,1415,0,0
49,-391,0,0,0,0,0,0,0,0,0,-1,1273,1415,0,0
56,-391,0,0,0,0,0,0,0,0,0,-1,1280,1415,0,0
63,-391,0,0,0,0,0,0,0,0,0,-1,1287,1415,0,0
70,-391,0,0,0,0,0,0,0,0,0,-1,1294,1415,0,0
77,-391,0,0,0,0,0,0,0,0,0,-1,1301,1415,0,0
84,-391,0,0,0,0,0,0,0,0,0,-1,1308,1415,0,0
91,-391,0,0,0,0,0,0,0,0,0,-1,1315,1415,0,0
98,-391,0,0,0,0,0,0,0,0,0,-1,1322,1415,0,0
105,-391,0,0,0,0,0,0,0,0,0,-1,1329,1415,0,0
112,-391,0,0,0,0,0,0,0,0,0,-1,1336,1415,0,0
119,-391,0,0,0,0,0,0,0,0,0,-1,1343,1415,0,0
126,-391,0,0,0,0,0,0,0,0,0,-1,1350,1415,0,0
133,-391,0,0,0,0,0,0,0,0,0,-1,1357,1415,0,0
140,-391,0,0,0,0,0,0,0,0,0,-1,1364,1415,0,0
147,-391,0,0,0,0,0,0,0,0,0,-1,1371,1415,0,0
154,-391,0,0,0,0,0,0,0,0,0,-1,1378,1415,0,0
161,-391,0,0,0,0,0,0,0,0,0,-1,1385,1415,0,0
168,-391,0,0,0,0,0,0,0,0,0,-1,1392,1415,0,0
175,-391,0,0,0,0,0,0,0,0,0,-1,1399,1415,0,0
182,-391,0,0,0,0,0,0,0,0,0,-1,1406,1415,0,0
189,-391,0,0,0,0,0,0,0,0,0,-1,1413,1415,0,0
196,-391,0,0,0,0,0,0,0,0,0,-1,1420,1415,0,0
203,-391,0,0,0,0,0,0,0,0,0,-1,1427,1415,0,0
210,-391,0,0,0,0,0,0,0,0,0,-1,1434,1415,0,0
217,-391,0,0,0,0,0,0,0,0,0,-1,1441,1415,0,0
224,-391,0,0,0,0,0,0,0,0,0,-1,1448,1415,0,0
231,-391,0,0,0,0,0,0,0,0,0,-1,1455,1415,0,0
238,-391,0,0,0,0,0,0,0,0,0,-1,1462,1415,0,0
245,-391,0,0,0,0,0,0,0,0,0,-1,1469,1415,0,0
252,-391,0,0,0,0,0,0,0,0,0,-1,1476,1415,0,0
259,-391,0,0,0,0,0,0,0,0,0,-1,1483,1415,0,0
266,-391,0,0,0,0,0,0,0,0,0,-1,1490,1415,0,0
273,-391,0,0,0,0,0,0,0,0,0,-1,1497,1415,0,0
280,-391,0,0,0,0,0,0,0,0,0,-1,1504,1415,0,0
287,-391,0,0,0,0,0,0,0,0,0,-1,1511,1415,0,0
294,-391,0,0,0,0,0,0,0,0,0,-1,1518,1415,0,0
301,-391,0,0,0,0,0,0,0,0,0,-1,1525,1415,0,0
308,-391,0,0,0,0,0,0,0,0,0,-1,1532,1415,0,0
315,-391,0,0,0,0,0,0,0,0,0,-1,1539,1415,0,0
322,-391,0,0,0,0,0,0,0,0,0,-1,1546,1415,0,0
329,-391,0,0,0,0,0,0,0,0,0,-1,1553,1415,0,0
336,-391,0,0,0,0,0,0,0,0,0,-1,1560,1415,0,0
343,-391,0,0,0,0,0,0,0,0,0,-1,1567,1415,0,0
350,-391,0,0,0,0,0,0,0,0,0,-1,1574,1415,0,0
357,-391,0,0,0,0,0,0,0,0,0,-1,1581,1415,0,0
364,-391,0,0,0,0,0,0,0,0,0,-1,1588,1415,0,0
371,-391,0,0,0,0,0,0,0,0,0,-1,1595,1415,0,0
378,-391,0,0,0,0,0,0,0,0,0,-1,1602,1415,0,0
385,-391,0,0,0,0,0,0,0,0,0,-1,1609,1415,0,0
392,-391,0,0,0,0,0,0,0,0,0,-1,1616,1415,0,0
399,-391,0,0,0,0,0,0,0,0,0,-1,1623,1415,0,0
406,-391,0,0,0,0,0,0,0,0,0,-1,1630,1415,0,0
413,-391,0,0,0,0,0,0,0,0,0,-1,1637,1415,0,0
420,-391,0,0,0,0,0,0,0,0,0,-1,1644,1415,0,0
427,-391,0,0,0,0,0,0,0,0,0,-1,1651,1415,0,0
434,-391,0,0,0,0,0,0,0,0,0,-1,1658,1415,0,0
441,-391,0,0,0,0,0,0,0,0,0,-1,1665,1415,0,0
448,-391,0,0,0,0,0,0,0,0,0,-1,1672,1415,0,0
455,-391,0,0,0,0,0,0,0,0,0,-1,1679,1415,0,0
462,-391,0,0,0,0,0,0,0,0,0,-1,1686,1415,0,0
469,-391,0,0,0,0,0,0,0,0,0,-1,1693,1415,0,0
476,-391,0,0,0,0,0,0,0,0,0,-1,1700,1415,0,0
483,-391,0,0,0,0,0,0,0,0,0,-1,1707,1415,0,0
490,-391,0,0,0,0,0,0,0,0,0,-1,1714,1415,0,0
497,-391,0,0,0,0,0,0,0,0,0,-1,1721,1415,0,0
504,-391,0,0,0,0,0,0,0,0,0,-1,1728,1415,0,0
511,-391,0,0,0,0,0,0,0,0,0,-1,1735,1415,0,0
518,-391,0,0,0,0,0,0,0,0,0,-1,1742,1415,0,0
525,-391,0,0,0,0,0,0,0,0,0,-1,1749,1415,0,0
532,-391,28.5959,3.02356,0,0,0,0,0,0,0,-1,1756,1415,28.596,-3.02358
539,-391,27.5881,3.25012,0,0,0,0,0,0,0,-1,1763,1415,27.5882,-3.25016
546,-391,27.2837,3.28064,0,0,0,0,0,0,0,-1,1770,1415,27.2837,-3.28064
553,-391,32.5952,5.04553,0,0,0,0,0,0,0,-1,1777,1415,32.5952,-5.04551
560,-391,31.2947,5.67017,0,0,0,0,0,0,0,-1,1784,1415,31.2947,-5.67011
567,-391,30.1473,6.17603,0,0,0,0,0,0,0,-1,1791,1415,30.1473,-6.17602
574,-391,27.5656,5.6842,0,0,0,0,0,0,0,-1,1798,1415,27.5655,-5.68422
581,-391,25.8883,5.76123,0,0,0,0,0,0,0,-1,1805,1415,25.8883,-5.76124
588,-391,24.2717,5.47986,0,0,0,0,0,0,0,-1,1812,1415,24.2717,-5.47982
595,-391,22.8827,6.1991,0,0,0,0,0,0,0,-1,1819,1415,22.8827,-6.19909
602,-391,15.1635,5.69849,0,0,0,0,0,0,0,-1,1826,1415,15.1635,-5.69847
609,-391,14.8285,7.50476,0,0,0,0,0,0,0,-1,1833,1415,14.8285,-7.50479
616,-391,20.7952,12.0503,0,0,0,0,0,0,0,-1,1840,1415,20.7952,-12.0503
623,-391,25.9089,14.3141,0,0,0,0,0,0,0,-1,1847,1415,25.909,-14.3141
630,-391,26.0404,13.8333,0.0010767,0.00121353,-0.0011973,0.00234437,-5.41408e-05,-0.813937,0.00158127,0.0377632,1854,1415,26.0404,-13.8333
637,-391,25.925,13.4626,0.000998041,0.0007891,-0.000893686,0.00179334,-6.20104e-06,-0.727213,0.00119763,0.0156934,1861,1415,25.9251,-13.4627
644,-391,25.9086,12.9863,0.000858244,0.000529663,-0.000536248,0.0012548,0.000133102,-0.636753,0.000795887,0.0165922,1868,1415,25.9086,-12.9863
651,-391,25.8787,12.5215,0.000799335,0.000122006,-5.66429e-05,0.000804039,0.000117302,-0.08286,0.000501519,0.0182045,1875,1415,25.8787,-12.5215
658,-391,25.8552,12.0714,0.000809002,-0.000311034,0.000474808,0.000983193,-0.000485225,0.351621,0.000863888,0.0170821,1882,1415,25.8552,-12.0714
665,-391,25.8744,11.6179,0.000854887,-0.000828133,0.00108231,0.00138434,-0.00135758,0.454958,0.00158307,0.0139172,1889,1415,25.8744,-11.6179
672,-391,25.866,11.1511,0.000931182,-0.0014669,0.00180357,0.00189792,-0.00243363,0.492039,0.00250719,0.01226,1896,1415,25.866,-11.1511
679,-391,25.8474,10.6749,0.00102879,-0.00225114,0.00265316,0.00250792,-0.00373027,0.508581,0.00362459,0.011577,1903,1415,25.8474,-10.675
686,-391,25.8387,10.2311,0.00108259,-0.00334881,0.00375016,0.00322269,-0.00548892,0.518574,0.00508606,0.0135333,1910,1415,25.8387,-10.2311
693,-391,25.8022,9.94263,0.00122874,-0.00465682,0.00489707,0.00399921,-0.00742729,0.514848,0.00669533,0.0339612,1917,1415,25.8023,-9.94263
700,-391,25.8365,9.63464,0,0,0,0,0,0,0,-1,1924,1415,25.8365,-9.63469
707,-391,12.9524,5.96851,0,0,0,0,0,0,0,-1,1931,1415,12.9524,-5.96849
714,-391,15.6875,7.67896,0,0,0,0,0,0,0,-1,1938,1415,15.6875,-7.67893
721,-391,14.1808,8.08435,0,0,0,0,0,0,0,-1,1945,1415,14.1808,-8.08439
728,-391,13.8102,7.28174,0,0,0,0,0,0,0,-1,1952,1415,13.8102,-7.28174
735,-391,0,0,0,0,0,0,0,0,0,-1,1959,1415,0,0
742,-391,0,0,0,0,0,0,0,0,0,-1,1966,1415,0,0
749,-391,0,0,0,0,0,0,0,0,0,-1,1973,1415,0,0
756,-391,0,0,0,0,0,0,0,0,0,-1,1980,1415,0,0
763,-391,0,0,0,0,0,0,0,0,0,-1,1987,1415,0,0
770,-391,0,0,0,0,0,0,0,0,0,-1,1994,1415,0,0
777,-391,0,0,0,0,0,0,0,0,0,-1,2001,1415,0,0
784,-391,0,0,0,0,0,0,0,0,0,-1,2008,1415,0,0
791,-391,0,0,0,0,0,0,0,0,0,-1,2015,1415,0,0
798,-391,0,0,0,0,0,0,0,0,0,-1,2022,1415,0,0
805,-391,0,0,0,0,0,0,0,0,0,-1,2029,1415,0,0
812,-391,0,0,0,0,0,0,0,0,0,-1,2036,1415,0,0
-700,-398,0,0,0,0,0,0,0,0,0,-1,524,1422,0,0
-693,-398,0,0,0,0,0,0,0,0,0,-1,531,1422,0,0
-686,-398,0,0,0,0,0,0,0,0,0,-1,538,1422,0,0
-679,-398,0,0,0,0,0,0,0,0,0,-1,545,1422,0,0
-672,-398,0,0,0,0,0,0,0,0,0,-1,552,1422,0,0
-665,-398,0,0,0,0,0,0,0,0,0,-1,559,1422,0,0
-658,-398,0,0,0,0,0,0,0,0,0,-1,566,1422,0,0
-651,-398,0,0,0,0,0,0,0,0,0,-1,573,1422,0,0
-644,-398,0,0,0,0,0,0,0,0,0,-1,580,1422,0,0
-637,-398,0,0,0,0,0,0,0,0,0,-1,587,1422,0,0
-630,-398,0,0,0,0,0,0,0,0,0,-1,594,1422,0,0
-623,-398,0,0,0,0,0,0,0,0,0,-1,601,1422,0,0
-616,-398,0,0,0,0,0,0,0,0,0,-1,608,1422,0,0
-609,-398,-7.47125,-4.05322,0,0,0,0,0,0,0,-1,615,1422,-7.47128,4.05317
-602,-398,-4.58868,-2.77026,0,0,0,0,0,0,0,-1,622,1422,-4.58869,2.77023
-595,-398,-12.2224,-1.82007,0,0,0,0,0,0,0,-1,629,1422,-12.2224,1.82006
-588,-398,-10.6939,1.32336,0,0,0,0,0,0,0,-1,636,1422,-10.6939,-1.32337
-581,-398,-10.433,3.1123,0,0,0,0,0,0,0,-1,643,1422,-10.433,-3.11233
-574,-398,-10.4475,5.89807,0,0,0,0,0,0,0,-1,650,1422,-10.4475,-5.89802
-567,-398,-10.4904,6.80115,0,0,0,0,0,0,0,-1,657,1422,-10.4904,-6.80115
-560,-398,-10.5333,7.70435,0,0,0,0,0,0,0,-1,664,1422,-10.5333,-7.70429
-553,-398,-11.3166,7.98804,0,0,0,0,0,0,0,-1,671,1422,-11.3166,-7.988
-546,-398,-11.2852,8.60486,0.00110216,-0.00116142,-0.000722773,0.00131326,-0.00137252,-0.284163,0.00155076,0.0258698,678,1422,-11.2851,-8.60483
-539,-398,-11.2258,9.16919,0.000876591,-0.000749812,-0.000526802,0.00103232,-0.000905536,-0.287418,0.00111962,0.0124742,685,1422,-11.2258,-9.16913
-532,-398,-11.236,9.69312,0.000912162,-0.000408907,-0.000268032,0.000964472,-0.000461217,-0.19274,0.000840042,0.0197947,692,1422,-11.236,-9.6931
-525,-398,-11.2781,10.2052,0.00130169,3.89744e-05,0.000175676,0.00132568,1.49888e-05,0.135693,0.000878831,0.0188402,699,1422,-11.2781,-10.2052
-518,-398,-11.3074,10.6736,0.0020051,0.000676667,0.000836215,0.0024088,0.00027297,0.449766,0.00152305,0.0167154,706,1422,-11.3074,-10.6736
-511,-398,-11.3086,11.1536,0.00301269,0.00154322,0.00176049,0.00418561,0.000370299,0.587713,0.00267553,0.013425,713,1422,-11.3086,-11.1536
-504,-398,-11.3035,11.6951,0.00428785,0.00260063,0.00290215,0.00646652,0.000421959,0.643954,0.00417747,0.0141792,720,1422,-11.3035,-11.6951
-497,-398,-11.3118,12.2004,0.00593412,0.00396357,0.0043883,0.00944639,0.000451299,0.674968,0.00615268,0.0100338,727,1422,-11.3119,-12.2004
-490,-398,-11.3228,12.7247,0.00806567,0.00581928,0.00632276,0.0133642,0.000520726,0.697494,0.00874108,0.017414,734,1422,-11.3227,-12.7247
-483,-398,-11.3032,13.2756,0,0,0,0,0,0,0,-1,741,1422,-11.3032,-13.2757
-476,-398,-8.64392,11.9448,0,0,0,0,0,0,0,-1,748,1422,-8.6439,-11.9448
-469,-398,-8.91699,10.6276,0,0,0,0,0,0,0,-1,755,1422,-8.91697,-10.6275
-462,-398,-9.59753,9.32532,0,0,0,0,0,0,0,-1,762,1422,-9.59753,-9.32531
-455,-398,-8.08331,6.75024,0,0,0,0,0,0,0,-1,769,1422,-8.08333,-6.75022
-448,-398,-7.4505,5.25293,0,0,0,0,0,0,0,-1,776,1422,-7.4505,-5.25291
-441,-398,-7.61639,3.32141,0,0,0,0,0,0,0,-1,783,1422,-7.61637,-3.32145
-434,-398,-10.7618,3.297,0,0,0,0,0,0,0,-1,790,1422,-10.7618,-3.29704
-427,-398,-11.9061,2.24939,0,0,0,0,0,0,0,-1,797,1422,-11.9061,-2.24941
-420,-398,-13.467,2.32788,0,0,0,0,0,0,0,-1,804,1422,-13.467,-2.32787
-413,-398,-14.7983,2.15515,0,0,0,0,0,0,0,-1,811,1422,-14.7983,-2.15516
-406,-398,0,0,0,0,0,0,0,0,0,-1,818,1422,0,0
-399,-398,0,0,0,0,0,0,0,0,0,-1,825,1422,0,0
-392,-398,0,0,0,0,0,0,0,0,0,-1,832,1422,0,0
-385,-398,0,0,0,0,0,0,0,0,0,-1,839,1422,0,0
-378,-398,0,0,0,0,0,0,0,0,0,-1,846,1422,0,0
-371,-398,0,0,0,0,0,0,0,0,0,-1,853,1422,0,0
-364,-398,0,0,0,0,0,0,0,0,0,-1,860,1422,0,0
-357,-398,0,0,0,0,0,0,0,0,0,-1,867,1422,0,0
-350,-398,0,0,0,0,0,0,0,0,0,-1,874,1422,0,0
-343,-398,0,0,0,0,0,0,0,0,0,-1,881,1422,0,0
-336,-398,0,0,0,0,0,0,0,0,0,-1,888,1422,0,0
-329,-398,0,0,0,0,0,0,0,0,0,-1,895,1422,0,0
-322,-398,0,0,0,0,0,0,0,0,0,-1,902,1422,0,0
-315,-398,0,0,0,0,0,0,0,0,0,-1,909,1422,0,0
-308,-398,0,0,0,0,0,0,0,0,0,-1,916,1422,0,0
-301,-398,0,0,0,0,0,0,0,0,0,-1,923,1422,0,0
-294,-398,0,0,0,0,0,0,0,0,0,-1,930,1422,0,0
-287,-398,0,0,0,0,0,0,0,0,0,-1,937,1422,0,0
-280,-398,0,0,0,0,0,0,0,0,0,-1,944,1422,0,0
-273,-398,0,0,0,0,0,0,0,0,0,-1,951,1422,0,0
-266,-398,0,0,0,0,0,0,0,0,0,-1,958,1422,0,0
-259,-398,0,0,0,0,0,0,0,0,0,-1,965,1422,0,0
-252,-398,0,0,0,0,0,0,0,0,0,-1,972,1422,0,0
-245,-398,0,0,0,0,0,0,0,0,0,-1,979,1422,0,0
-238,-398,0,0,0,0,0,0,0,0,0,-1,986,1422,0,0
-231,-398,0,0,0,0,0,0,0,0,0,-1,993,1422,0,0
-224,-398,0,0,0,0,0,0,0,0,0,-1,1000,1422,0,0
-217,-398,0,0,0,0,0,0,0,0,0,-1,1007,1422,0,0
-210,-398,0,0,0,0,0,0,0,0,0,-1,1014,1422,0,0
-203,-398,0,0,0,0,0,0,0,0,0,-1,1021,1422,0,0
-196,-398,0,0,0,0,0,0,0,0,0,-1,1028,1422,0,0
-189,-398,0,0,0,0,0,0,0,0,0,-1,1035,1422,0,0
-182,-398,0,0,0,0,0,0,0,0,0,-1,1042,1422,0,0
-175,-398,0,0,0,0,0,0,0,0,0,-1,1049,1422,0,0
-168,-398,0,0,0,0,0,0,0,0,0,-1,1056,1422,0,0
-161,-398,0,0,0,0,0,0,0,0,0,-1,1063,1422,0,0
-154,-398,0,0,0,0,0,0,0,0,0,-1,1070,1422,0,0
-147,-398,0,0,0,0,0,0,0,0,0,-1,1077,1422,0,0
-140,-398,0,0,0,0,0,0,0,0,0,-1,1084,1422,0,0
-133,-398,0,0,0,0,0,0,0,0,0,-1,1091,1422,0,0
-126,-398,0,0,0,0,0,0,0,0,0,-1,1098,1422,0,0
-119,-398,0,0,0,0,0,0,0,0,0,-1,1105,1422,0,0
-112,-398,0,0,0,0,0,0,0,0,0,-1,1112,1422,0,0
-105,-398,0,0,0,0,0,0,0,0,0,-1,1119,1422,0,0
-98,-398,0,0,0,0,0,0,0,0,0,-1,1126,1422,0,0
-91,-398,0,0,0,0,0,0,0,0,0,-1,1133,1422,0,0
-84,-398,0,0,0,0,0,0,0,0,0,-1,1140,1422,0,0
-77,-398,0,0,0,0,0,0,0,0,0,-1,1147,1422,0,0
-70,-398,0,0,0,0,0,0,0,0,0,-1,1154,1422,0,0
-63,-398,0,0,0,0,0,0,0,0,0,-1,1161,1422,0,0
-56,-398,0,0,0,0,0,0,0,0,0,-1,1168,1422,0,0
-49,-398,0,0,0,0,0,0,0,0,0,-1,1175,1422,0,0
-42,-398,0,0,0,0,0,0,0,0,0,-1,1182,1422,0,0
-35,-398,0,0,0,0,0,0,0,0,0,-1,1189,1422,0,0
-28,-398,0,0,0,0,0,0,0,0,0,-1,1196,1422,0,0
-21,-398,0,0,0,0,0,0,0,0,0,-1,1203,1422,0,0
-14,-398,0,0,0,0,0,0,0,0,0,-1,1210,1422,0,0
-7,-398,0,0,0,0,0,0,0,0,0,-1,1217,1422,0,0
0,-398,0,0,0,0,0,0,0,0,0,-1,1224,1422,0,0
7,-398,0,0,0,0,0,0,0,0,0,-1,1231,1422,0,0
14,-398,0,0,0,0,0,0,0,0,0,-1,1238,1422,0,0
21,-398,0,0,0,0,0,0,0,0,0,-1,1245,1422,0,0
28,-398,0,0,0,0,0,0,0,0,0,-1,1252,1422,0,0
35,-398,0,0,0,0,0,0,0,0,0,-1,1259,1422,0,0
42,-398,0,0,0,0,0,0,0,0,0,-1,1266,1422,0,0
49,-398,0,0,0,0,0,0,0,0,0,-1,1273,1422,0,0
56,-398,0,0,0,0,0,0,0,0,0,-1,1280,1422,0,0
63,-398,0,0,0,0,0,0,0,0,0,-1,1287,1422,0,0
70,-398,0,0,0,0,0,0,0,0,0,-1,1294,1422,0,0
77,-398,0,0,0,0,0,0,0,0,0,-1,1301,1422,0,0
84,-398,0,0,0,0,0,0,0,0,0,-1,1308,1422,0,0
91,-398,0,0,0,0,0,0,0,0,0,-1,1315,1422,0,0
98,-398,0,0,0,0,0,0,0,0,0,-1,1322,1422,0,0
105,-398,0,0,0,0,0,0,0,0,0,-1,1329,1422,0,0
112,-398,0,0,0,0,0,0,0,0,0,-1,1336,1422,0,0
119,-398,0,0,0,0,0,0,0,0,0,-1,1343,1422,0,0
126,-398,0,0,0,0,0,0,0,0,0,-1,1350,1422,0,0
133,-398,0,0,0,0,0,0,0,0,0,-1,1357,1422,0,0
140,-398,0,0,0,0,0,0,0,0,0,-1,1364,1422,0,0
147,-398,0,0,0,0,0,0,0,0,0,-1,1371,1422,0,0
154,-398,0,0,0,0,0,0,0,0,0,-1,1378,1422,0,0
161,-398,0,0,0,0,0,0,0,0,0,-1,1385,1422,0,0
168,-398,0,0,0,0,0,0,0,0,0,-1,1392,1422,0,0
175,-398,0,0,0,0,0,0,0,0,0,-1,1399,1422,0,0
182,-398,0,0,0,0,0,0,0,0,0,-1,1406,1422,0,0
189,-398,0,0,0,0,0,0,0,0,0,-1,1413,1422,0,0
196,-398,0,0,0,0,0,0,0,0,0,-1,1420,1422,0,0
203,-398,0,0,0,0,0,0,0,0,0,-1,1427,1422,0,0
210,-398,0,0,0,0,0,0,0,0,0,-1,1434,1422,0,0
217,-398,0,0,0,0,0,0,0,0,0,-1,1441,1422,0,0
224,-398,0,0,0,0,0,0,0,0,0,-1,1448,1422,0,0
231,-398,0,0,0,0,0,0,0,0,0,-1,1455,1422,0,0
238,-398,0,0,0,0,0,0,0,0,0,-1,1462,1422,0,0
245,-398,0,0,0,0,0,0,0,0,0,-1,1469,1422,0,0
252,-398,0,0,0,0,0,0,0,0,0,-1,1476,1422,0,0
259,-398,0,0,0,0,0,0,0,0,0,-1,1483,1422,0,0
266,-398,0,0,0,0,0,0,0,0,0,-1,1490,1422,0,0
273,-398,0,0,0,0,0,0,0,0,0,-1,1497,1422,0,0
280,-398,0,0,0,0,0,0,0,0,0,-1,1504,1422,0,0
287,-398,0,0,0,0,0,0,0,0,0,-1,1511,1422,0,0
294,-398,0,0,0,0,0,0,0,0,0,-1,1518,1422,0,0
301,-398,0,0,0,0,0,0,0,0,0,-1,1525,1422,0,0
308,-398,0,0,0,0,0,0,0,0,0,-1,1532,1422,0,0
315,-398,0,0,0,0,0,0,0,0,0,-1,1539,1422,0,0
322,-398,0,0,0,0,0,0,0,0,0,-1,1546,1422,0,0
329,-398,0,0,0,0,0,0,0,0,0,-1,1553,1422,0,0
336,-398,0,0,0,0,0,0,0,0,0,-1,1560,1422,0,0
343,-398,0,0,0,0,0,0,0,0,0,-1,1567,1422,0,0
350,-398,0,0,0,0,0,0,0,0,0,-1,1574,1422,0,0
357,-398,0,0,0,0,0,0,0,0,0,-1,1581,1422,0,0
364,-398,0,0,0,0,0,0,0,0,0,-1,1588,1422,0,0
371,-398,0,0,0,0,0,0,0,0,0,-1,1595,1422,0,0
378,-398,0,0,0,0,0,0,0,0,0,-1,1602,1422,0,0
385,-398,0,0,0,0,0,0,0,0,0,-1,1609,1422,0,0
392,-398,0,0,0,0,0,0,0,0,0,-1,1616,1422,0,0
399,-398,0,0,0,0,0,0,0,0,0,-1,1623,1422,0,0
406,-398,0,0,0,0,0,0,0,0,0,-1,1630,1422,0,0
413,-398,0,0,0,0,0,0,0,0,0,-1,1637,1422,0,0
420,-398,0,0,0,0,0,0,0,0,0,-1,1644,1422,0,0
427,-398,0,0,0,0,0,0,0,0,0,-1,1651,1422,0,0
434,-398,0,0,0,0,0,0,0,0,0,-1,1658,1422,0,0
441,-398,0,0,0,0,0,0,0,0,0,-1,1665,1422,0,0
448,-398,0,0,0,0,0,0,0,0,0,-1,1672,1422,0,0
455,-398,0,0,0,0,0,0,0,0,0,-1,1679,1422,0,0
462,-398,0,0,0,0,0,0,0,0,0,-1,1686,1422,0,0
469,-398,0,0,0,0,0,0,0,0,0,-1,1693,1422,0,0
476,-398,0,0,0,0,0,0,0,0,0,-1,1700,1422,0,0
483,-398,0,0,0,0,0,0,0,0,0,-1,1707,1422,0,0
490,-398,0,0,0,0,0,0,0,0,0,-1,1714,1422,0,0
497,-398,0,0,0,0,0,0,0,0,0,-1,1721,1422,0,0
504,-398,0,0,0,0,0,0,0,0,0,-1,1728,1422,0,0
511,-398,0,0,0,0,0,0,0,0,0,-1,1735,1422,0,0
518,-398,0,0,0,0,0,0,0,0,0,-1,1742,1422,0,0
525,-398,0,0,0,0,0,0,0,0,0,-1,1749,1422,0,0
532,-398,28.4558,3.84094,0,0,0,0,0,0,0,-1,1756,1422,28.4558,-3.8409
539,-398,27.0594,3.33887,0,0,0,0,0,0,0,-1,1763,1422,27.0595,-3.3389
546,-398,31.6873,5.58582,0,0,0,0,0,0,0,-1,1770,1422,31.6872,-5.58585
553,-398,30.4392,5.92383,0,0,0,0,0,0,0,-1,1777,1422,30.4392,-5.92386
560,-398,29.1621,6.30469,0,0,0,0,0,0,0,-1,1784,1422,29.1621,-6.30469
567,-398,27.8411,6.55029,0,0,0,0,0,0,0,-1,1791,1422,27.8411,-6.55033
574,-398,26.411,6.8916,0,0,0,0,0,0,0,-1,1798,1422,26.411,-6.8916
581,-398,24.75,7.11145,0,0,0,0,0,0,0,-1,1805,1422,24.7499,-7.11142
588,-398,23.1649,7.67969,0,0,0,0,0,0,0,-1,1812,1422,23.1649,-7.67975
595,-398,21.4253,7.86023,0,0,0,0,0,0,0,-1,1819,1422,21.4253,-7.86029
602,-398,19.6857,8.04077,0,0,0,0,0,0,0,-1,1826,1422,19.6856,-8.04083
609,-398,21.1835,13.2628,0,0,0,0,0,0,0,-1,1833,1422,21.1835,-13.2628
616,-398,25.1729,15.2654,0,0,0,0,0,0,0,-1,1840,1422,25.1729,-15.2654
623,-398,25.4869,14.4033,0,0,0,0,0,0,0,-1,1847,1422,25.4869,-14.4033
630,-398,25.4916,13.9246,0.00133991,0.0010078,-0.00106347,0.00225021,9.74957e-05,-0.707951,0.00146872,0.0138443,1854,1422,25.4916,-13.9246
637,-398,25.4851,13.4597,0.00113561,0.000553433,-0.000698178,0.00160095,8.80908e-05,-0.587893,0.00103918,0.0140403,1861,1422,25.4852,-13.4597
644,-398,25.3976,12.9968,0.000963164,0.000253149,-0.000317387,0.00108435,0.000131958,-0.364753,0.000683179,0.0197867,1868,1422,25.3975,-12.9968
651,-398,25.4092,12.6149,0.000893442,-9.76229e-05,0.000111576,0.000905848,-0.000110029,0.110736,0.000643717,0.027766,1875,1422,25.4092,-12.6149
658,-398,25.4374,12.1627,0.000849758,-0.000486041,0.000630379,0.00110026,-0.000736546,0.378253,0.00106739,0.0226682,1882,1422,25.4374,-12.1628
665,-398,25.4065,11.6532,0.000819703,-0.000976226,0.00125806,0.00146739,-0.00162392,0.475444,0.00178553,0.0157325,1889,1422,25.4066,-11.6532
672,-398,25.3853,11.1638,0.000778712,-0.00160517,0.00205229,0.00196008,-0.00278654,0.522312,0.00275428,0.0136213,1896,1422,25.3852,-11.1639
679,-398,25.3728,10.6912,0.000702438,-0.00245955,0.00306513,0.00257029,-0.0043274,0.547294,0.00402523,0.0124781,1903,1422,25.3728,-10.6912
686,-398,25.3453,10.2651,0.000472824,-0.0037592,0.00448579,0.00331664,-0.00660301,0.565016,0.00583094,0.0197704,1910,1422,25.3453,-10.2651
693,-398,25.2021,10.1685,0.000206775,-0.00537342,0.00609632,0.00412113,-0.00928778,0.570792,0.00793089,0.0472881,1917,1422,25.2021,-10.1685
700,-398,25.0909,10.181,0,0,0,0,0,0,0,-1,1924,1422,25.0909,-10.181
707,-398,10.9731,5.479,0,0,0,0,0,0,0,-1,1931,1422,10.9732,-5.47896
714,-398,11.7313,6.17346,0,0,0,0,0,0,0,-1,1938,1422,11.7313,-6.17348
721,-398,13.9371,8.05103,0,0,0,0,0,0,0,-1,1945,1422,13.9372,-8.05102
728,-398,14.786,7.0282,0,0,0,0,0,0,0,-1,1952,1422,14.786,-7.0282
735,-398,0,0,0,0,0,0,0,0,0,-1,1959,1422,0,0
742,-398,0,0,0,0,0,0,0,0,0,-1,1966,1422,0,0
749,-398,0,0,0,0,0,0,0,0,0,-1,1973,1422,0,0
756,-398,0,0,0,0,0,0,0,0,0,-1,1980,1422,0,0
763,-398,0,0,0,0,0,0,0,0,0,-1,1987,1422,0,0
770,-398,0,0,0,0,0,0,0,0,0,-1,1994,1422,0,0
777,-398,0,0,0,0,0,0,0,0,0,-1,2001,1422,0,0
784,-398,0,0,0,0,0,0,0,0,0,-1,2008,1422,0,0
791,-398,0,0,0,0,0,0,0,0,0,-1,2015,1422,0,0
798,-398,0,0,0,0,0,0,0,0,0,-1,2022,1422,0,0
805,-398,0,0,0,0,0,0,0,0,0,-1,2029,1422,0,0
812,-398,0,0,0,0,0,0,0,0,0,-1,2036,1422,0,0
-700,-405,0,0,0,0,0,0,0,0,0,-1,524,1429,0,0
-693,-405,0,0,0,0,0,0,0,0,0,-1,531,1429,0,0
-686,-405,0,0,0,0,0,0,0,0,0,-1,538,1429,0,0
-679,-405,0,0,0,0,0,0,0,0,0,-1,545,1429,0,0
-672,-405,0,0,0,0,0,0,0,0,0,-1,552,1429,0,0
-665,-405,0,0,0,0,0,0,0,0,0,-1,559,1429,0,0
-658,-405,0,0,0,0,0,0,0,0,0,-1,566,1429,0,0
-651,-405,0,0,0,0,0,0,0,0,0,-1,573,1429,0,0
-644,-405,0,0,0,0,0,0,0,0,0,-1,580,1429,0,0
-637,-405,0,0,0,0,0,0,0,0,0,-1,587,1429,0,0
-630,-405,0,0,0,0,0,0,0,0,0,-1,594,1429,0,0
-623,-405,0,0,0,0,0,0,0,0,0,-1,601,1429,0,0
-616,-405,0,0,0,0,0,0,0,0,0,-1,608,1429,0,0
-609,-405,0,0,0,0,0,0,0,0,0,-1,615,1429,0,0
-602,-405,-5.80988,-3.46594,0,0,0,0,0,0,0,-1,622,1429,-5.80987,3.46592
-595,-405,-9.35413,2.01477,0,0,0,0,0,0,0,-1,629,1429,-9.35411,-2.01476
-588,-405,-7.35693,0.507202,0,0,0,0,0,0,0,-1,636,1429,-7.35696,-0.507187
-581,-405,-10.1284,1.62927,0,0,0,0,0,0,0,-1,643,1429,-10.1284,-1.62922
-574,-405,-9.32074,3.05896,0,0,0,0,0,0,0,-1,650,1429,-9.32077,-3.0589
-567,-405,-9.68781,6.92163,0,0,0,0,0,0,0,-1,657,1429,-9.68782,-6.92166
-560,-405,-9.28674,7.20886,0,0,0,0,0,0,0,-1,664,1429,-9.28675,-7.20885
-553,-405,-10.7301,8.05737,0,0,0,0,0,0,0,-1,671,1429,-10.7301,-8.05735
-546,-405,-10.7462,8.59485,0.000166308,-0.00129703,-0.00117429,0.000818222,-0.00194894,-0.506793,0.00164148,0.0392661,678,1429,-10.7461,-8.59488
-539,-405,-10.7523,9.14258,6.15348e-05,-0.000861663,-0.00091596,0.000625634,-0.00142576,-0.551997,0.00121403,0.0121326,685,1429,-10.7523,-9.14262
-532,-405,-10.7687,9.67004,0.000159642,-0.000561848,-0.00065867,0.000549886,-0.000952091,-0.534865,0.000877469,0.0152775,692,1429,-10.7687,-9.67006
-525,-405,-10.7835,10.184,0.000583565,-0.000180739,-0.000245965,0.000655878,-0.000253053,-0.285943,0.000541678,0.0155131,699,1429,-10.7835,-10.184
-518,-405,-10.7894,10.6967,0.00130273,0.000407873,0.000386962,0.00144685,0.000263751,0.356529,0.000889777,0.016391,706,1429,-10.7894,-10.6966
-511,-405,-10.7937,11.2,0.00228226,0.00122917,0.00126922,0.00312982,0.000381613,0.588773,0.00197169,0.0154643,713,1429,-10.7937,-11.2
-504,-405,-10.7842,11.725,0.00347334,0.00224376,0.00234666,0.00528441,0.00043269,0.657285,0.00338793,0.0161473,720,1429,-10.7842,-11.725
-497,-405,-10.7781,12.2419,0.00502395,0.00354386,0.00374388,0.00810023,0.000467577,0.687822,0.00525123,0.0138186,727,1429,-10.7781,-12.242
-490,-405,-10.8276,12.7509,0.00702133,0.00529261,0.00556338,0.0117871,0.000526844,0.708331,0.00768847,0.0121633,734,1429,-10.8276,-12.7508
-483,-405,-10.7521,13.3455,0.00934847,0.00747462,0.00778705,0.0162548,0.000568337,0.725527,0.0106521,0.0214298,741,1429,-10.7522,-13.3454
-476,-405,-10.5316,14.0864,0,0,0,0,0,0,0,-1,748,1429,-10.5316,-14.0864
-469,-405,-9.65692,12.8171,0,0,0,0,0,0,0,-1,755,1429,-9.65691,-12.8172
-462,-405,-9.14862,11.3597,0,0,0,0,0,0,0,-1,762,1429,-9.14865,-11.3597
-455,-405,-9.021,9.51111,0,0,0,0,0,0,0,-1,769,1429,-9.021,-9.51109
-448,-405,-8.4649,6.82813,0,0,0,0,0,0,0,-1,776,1429,-8.46492,-6.82817
-441,-405,-6.6712,4.23767,0,0,0,0,0,0,0,-1,783,1429,-6.67121,-4.23764
-434,-405,-9.62549,3.94189,0,0,0,0,0,0,0,-1,790,1429,-9.62546,-3.94191
-427,-405,-10.9764,3.73926,0,0,0,0,0,0,0,-1,797,1429,-10.9764,-3.73923
-420,-405,-12.1187,3.68506,0,0,0,0,0,0,0,-1,804,1429,-12.1187,-3.68512
-413,-405,-13.5353,3.75659,0,0,0,0,0,0,0,-1,811,1429,-13.5353,-3.75655
-406,-405,-14.7374,3.99817,0,0,0,0,0,0,0,-1,818,1429,-14.7374,-3.99814
-399,-405,0,0,0,0,0,0,0,0,0,-1,825,1429,0,0
-392,-405,0,0,0,0,0,0,0,0,0,-1,832,1429,0,0
-385,-405,0,0,0,0,0,0,0,0,0,-1,839,1429,0,0
-378,-405,0,0,0,0,0,0,0,0,0,-1,846,1429,0,0
-371,-405,0,0,0,0,0,0,0,0,0,-1,853,1429,0,0
-364,-405,0,0,0,0,0,0,0,0,0,-1,860,1429,0,0
-357,-405,0,0,0,0,0,0,0,0,0,-1,867,1429,0,0
-350,-405,0,0,0,0,0,0,0,0,0,-1,874,1429,0,0
-343,-405,0,0,0,0,0,0,0,0,0,-1,881,1429,0,0
-336,-405,0,0,0,0,0,0,0,0,0,-1,888,1429,0,0
-329,-405,0,0,0,0,0,0,0,0,0,-1,895,1429,0,0
-322,-405,0,0,0,0,0,0,0,0,0,-1,902,1429,0,0
-315,-405,0,0,0,0,0,0,0,0,0,-1,909,1429,0,0
-308,-405,0,0,0,0,0,0,0,0,0,-1,916,1429,0,0
-301,-405,0,0,0,0,0,0,0,0,0,-1,923,1429,0,0
-294,-405,0,0,0,0,0,0,0,0,0,-1,930,1429,0,0
-287,-405,0,0,0,0,0,0,0,0,0,-1,937,1429,0,0
-280,-405,0,0,0,0,0,0,0,0,0,-1,944,1429,0,0
-273,-405,0,0,0,0,0,0,0,0,0,-1,951,1429,0,0
-266,-405,0,0,0,0,0,0,0,0,0,-1,958,1429,0,0
-259,-405,0,0,0,0,0,0,0,0,0,-1,965,1429,0,0
-252,-405,0,0,0,0,0,0,0,0,0,-1,972,1429,0,0
-245,-405,0,0,0,0,0,0,0,0,0,-1,979,1429,0,0
-238,-405,0,0,0,0,0,0,0,0,0,-1,986,1429,0,0
-231,-405,0,0,0,0,0,0,0,0,0,-1,993,1429,0,0
-224,-405,0,0,0,0,0,0,0,0,0,-1,1000,1429,0,0
-217,-405,0,0,0,0,0,0,0,0,0,-1,1007,1429,0,0
-210,-405,0,0,0,0,0,0,0,0,0,-1,1014,1429,0,0
-203,-405,0,0,0,0,0,0,0,0,0,-1,1021,1429,0,0
-196,-405,0,0,0,0,0,0,0,0,0,-1,1028,1429,0,0
-189,-405,0,0,0,0,0,0,0,0,0,-1,1035,1429,0,0
-182,-405,0,0,0,0,0,0,0,0,0,-1,1042,1429,0,0
-175,-405,0,0,0,0,0,0,0,0,0,-1,1049,1429,0,0
-168,-405,0,0,0,0,0,0,0,0,0,-1,1056,1429,0,0
-161,-405,0,0,0,0,0,0,0,0,0,-1,1063,1429,0,0
-154,-405,0,0,0,0,0,0,0,0,0,-1,1070,1429,0,0
-147,-405,0,0,0,0,0,0,0,0,0,-1,1077,1429,0,0
-140,-405,0,0,0,0,0,0,0,0,0,-1,1084,1429,0,0
-133,-405,0,0,0,0,0,0,0,0,0,-1,1091,1429,0,0
-126,-405,0,0,0,0,0,0,0,0,0,-1,1098,1429,0,0
-119,-405,0,0,0,0,0,0,0,0,0,-1,1105,1429,0,0
-112,-405,0,0,0,0,0,0,0,0,0,-1,1112,1429,0,0
-105,-405,0,0,0,0,0,0,0,0,0,-1,1119,1429,0,0
-98,-405,0,0,0,0,0,0,0,0,0,-1,1126,1429,0,0
-91,-405,0,0,0,0,0,0,0,0,0,-1,1133,1429,0,0
-84,-405,0,0,0,0,0,0,0,0,0,-1,1140,1429,0,0
-77,-405,0,0,0,0,0,0,0,0,0,-1,1147,1429,0,0
-70,-405,0,0,0,0,0,0,0,0,0,-1,1154,1429,0,0
-63,-405,0,0,0,0,0,0,0,0,0,-1,1161,1429,0,0
-56,-405,0,0,0,0,0,0,0,0,0,-1,1168,1429,0,0
-49,-405,0,0,0,0,0,0,0,0,0,-1,1175,1429,0,0
-42,-405,0,0,0,0,0,0,0,0,0,-1,1182,1429,0,0
-35,-405,0,0,0,0,0,0,0,0,0,-1,1189,1429,0,0
-28,-405,0,0,0,0,0,0,0,0,0,-1,1196,1429,0,0
-21,-405,0,0,0,0,0,0,0,0,0,-1,1203,1429,0,0
-14,-405,0,0,0,0,0,0,0,0,0,-1,1210,1429,0,0
-7,-405,0,0,0,0,0,0,0,0,0,-1,1217,1429,0,0
0,-405,0,0,0,0,0,0,0,0,0,-1,1224,1429,0,0
7,-405,0,0,0,0,0,0,0,0,0,-1,1231,1429,0,0
14,-405,0,0,0,0,0,0,0,0,0,-1,1238,1429,0,0
21,-405,0,0,0,0,0,0,0,0,0,-1,1245,1429,0,0
28,-405,0,0,0,0,0,0,0,0,0,-1,1252,1429,0,0
35,-405,0,0,0,0,0,0,0,0,0,-1,1259,1429,0,0
42,-405,0,0,0,0,0,0,0,0,0,-1,1266,1429,0,0
49,-405,0,0,0,0,0,0,0,0,0,-1,1273,1429,0,0
56,-405,0,0,0,0,0,0,0,0,0,-1,1280,1429,0,0
63,-405,0,0,0,0,0,0,0,0,0,-1,1287,1429,0,0
70,-405,0,0,0,0,0,0,0,0,0,-1,1294,1429,0,0
77,-405,0,0,0,0,0,0,0,0,0,-1,1301,1429,0,0
84,-405,0,0,0,0,0,0,0,0,0,-1,1308,1429,0,0
91,-405,0,0,0,0,0,0,0,0,0,-1,1315,1429,0,0
98,-405,0,0,0,0,0,0,0,0,0,-1,1322,1429,0,0
105,-405,0,0,0,0,0,0,0,0,0,-1,1329,1429,0,0
112,-405,0,0,0,0,0,0,0,0,0,-1,1336,1429,0,0
119,-405,0,0,0,0,0,0,0,0,0,-1,1343,1429,0,0
126,-405,0,0,0,0,0,0,0,0,0,-1,1350,1429,0,0
133,-405,0,0,0,0,0,0,0,0,0,-1,1357,1429,0,0
140,-405,0,0,0,0,0,0,0,0,0,-1,1364,1429,0,0
147,-405,0,0,0,0,0,0,0,0,0,-1,1371,1429,0,0
154,-405,0,0,0,0,0,0,0,0,0,-1,1378,1429,0,0
161,-405,0,0,0,0,0,0,0,0,0,-1,1385,1429,0,0
168,-405,0,0,0,0,0,0,0,0,0,-1,1392,1429,0,0
175,-405,0,0,0,0,0,0,0,0,0,-1,1399,1429,0,0
182,-405,0,0,0,0,0,0,0,0,0,-1,1406,1429,0,0
189,-405,0,0,0,0,0,0,0,0,0,-1,1413,1429,0,0
196,-405,0,0,0,0,0,0,0,0,0,-1,1420,1429,0,0
203,-405,0,0,0,0,0,0,0,0,0,-1,1427,1429,0,0
210,-405,0,0,0,0,0,0,0,0,0,-1,1434,1429,0,0
217,-405,0,0,0,0,0,0,0,0,0,-1,1441,1429,0,0
224,-405,0,0,0,0,0,0,0,0,0,-1,1448,1429,0,0
231,-405,0,0,0,0,0,0,0,0,0,-1,1455,1429,0,0
238,-405,0,0,0,0,0,0,0,0,0,-1,1462,1429,0,0
245,-405,0,0,0,0,0,0,0,0,0,-1,1469,1429,0,0
252,-405,0,0,0,0,0,0,0,0,0,-1,1476,1429,0,0
259,-405,0,0,0,0,0,0,0,0,0,-1,1483,1429,0,0
266,-405,0,0,0,0,0,0,0,0,0,-1,1490,1429,0,0
273,-405,0,0,0,0,0,0,0,0,0,-1,1497,1429,0,0
280,-405,0,0,0,0,0,0,0,0,0,-1,1504,1429,0,0
287,-405,0,0,0,0,0,0,0,0,0,-1,1511,1429,0,0
294,-405,0,0,0,0,0,0,0,0,0,-1,1518,1429,0,0
301,-405,0,0,0,0,0,0,0,0,0,-1,1525,1429,0,0
308,-405,0,0,0,0,0,0,0,0,0,-1,1532,1429,0,0
315,-405,0,0,0,0,0,0,0,0,0,-1,1539,1429,0,0
322,-405,0,0,0,0,0,0,0,0,0,-1,1546,1429,0,0
329,-405,0,0,0,0,0,0,0,0,0,-1,1553,1429,0,0
336,-405,0,0,0,0,0,0,0,0,0,-1,1560,1429,0,0
343,-405,0,0,0,0,0,0,0,0,0,-1,1567,1429,0,0
350,-405,0,0,0,0,0,0,0,0,0,-1,1574,1429,0,0
357,-405,0,0,0,0,0,0,0,0,0,-1,1581,1429,0,0
364,-405,0,0,0,0,0,0,0,0,0,-1,1588,1429,0,0
371,-405,0,0,0,0,0,0,0,0,0,-1,1595,1429,0,0
378,-405,0,0,0,0,0,0,0,0,0,-1,1602,1429,0,0
385,-405,0,0,0,0,0,0,0,0,0,-1,1609,1429,0,0
392,-405,0,0,0,0,0,0,0,0,0,-1,1616,1429,0,0
399,-405,0,0,0,0,0,0,0,0,0,-1,1623,1429,0,0
406,-405,0,0,0,0,0,0,0,0,0,-1,1630,1429,0,0
413,-405,0,0,0,0,0,0,0,0,0,-1,1637,1429,0,0
420,-405,0,0,0,0,0,0,0,0,0,-1,1644,1429,0,0
427,-405,0,0,0,0,0,0,0,0,0,-1,1651,1429,0,0
434,-405,0,0,0,0,0,0,0,0,0,-1,1658,1429,0,0
441,-405,0,0,0,0,0,0,0,0,0,-1,1665,1429,0,0
448,-405,0,0,0,0,0,0,0,0,0,-1,1672,1429,0,0
455,-405,0,0,0,0,0,0,0,0,0,-1,1679,1429,0,0
462,-405,0,0,0,0,0,0,0,0,0,-1,1686,1429,0,0
469,-405,0,0,0,0,0,0,0,0,0,-1,1693,1429,0,0
476,-405,0,0,0,0,0,0,0,0,0,-1,1700,1429,0,0
483,-405,0,0,0,0,0,0,0,0,0,-1,1707,1429,0,0
490,-405,0,0,0,0,0,0,0,0,0,-1,1714,1429,0,0
497,-405,0,0,0,0,0,0,0,0,0,-1,1721,1429,0,0
504,-405,0,0,0,0,0,0,0,0,0,-1,1728,1429,0,0
511,-405,0,0,0,0,0,0,0,0,0,-1,1735,1429,0,0
518,-405,0,0,0,0,0,0,0,0,0,-1,1742,1429,0,0
525,-405,31.1563,-1.40942,0,0,0,0,0,0,0,-1,1749,1429,31.1563,1.40937
532,-405,28.156,4.8783,0,0,0,0,0,0,0,-1,1756,1429,28.1561,-4.87833
539,-405,26.5133,3.02454,0,0,0,0,0,0,0,-1,1763,1429,26.5133,-3.0246
546,-405,29.5735,6.53052,0,0,0,0,0,0,0,-1,1770,1429,29.5735,-6.53049
553,-405,28.2911,6.70654,0,0,0,0,0,0,0,-1,1777,1429,28.2912,-6.70656
560,-405,26.9299,7.08472,0,0,0,0,0,0,0,-1,1784,1429,26.9299,-7.08469
567,-405,25.804,7.14661,0,0,0,0,0,0,0,-1,1791,1429,25.8039,-7.14665
574,-405,25.1151,8.07971,0,0,0,0,0,0,0,-1,1798,1429,25.1151,-8.07965
581,-405,23.5055,8.505,0,0,0,0,0,0,0,-1,1805,1429,23.5054,-8.50501
588,-405,21.7491,8.98254,0,0,0,0,0,0,0,-1,1812,1429,21.7491,-8.98254
595,-405,21.6327,10.7795,0,0,0,0,0,0,0,-1,1819,1429,21.6327,-10.7796
602,-405,21.6461,13.9199,0,0,0,0,0,0,0,-1,1826,1429,21.6461,-13.92
609,-405,24.7084,15.6403,0,0,0,0,0,0,0,-1,1833,1429,24.7084,-15.6402
616,-405,24.9551,15.0605,0.00290632,0.00260353,-0.00235665,0.00511643,0.000393415,-0.753321,0.00328767,0.0344373,1840,1429,24.9551,-15.0605
623,-405,24.9929,14.4714,0.00208049,0.00160518,-0.00158387,0.00344443,0.000241233,-0.71093,0.00222025,0.0133955,1847,1429,24.9929,-14.4714
630,-405,25.0037,13.9518,0.00161972,0.000984197,-0.001053,0.00240186,0.000202059,-0.638858,0.00153832,0.0117107,1854,1429,25.0036,-13.9518
637,-405,24.9955,13.4757,0.0013484,0.000488239,-0.000657593,0.00170406,0.000132573,-0.4958,0.00109453,0.0123078,1861,1429,24.9955,-13.4756
644,-405,24.9637,13.0066,0.00114541,0.000123,-0.000252487,0.00120436,6.40471e-05,-0.229381,0.000782433,0.0304377,1868,1429,24.9637,-13.0066
651,-405,24.8853,12.6207,0.00104181,-0.000210847,0.000148937,0.00105927,-0.000228311,0.116729,0.000793314,0.0331419,1875,1429,24.8853,-12.6207
658,-405,24.92,12.1721,0.000922642,-0.000580055,0.000667061,0.00117603,-0.000833443,0.363022,0.00116578,0.0248564,1882,1429,24.9201,-12.1722
665,-405,24.889,11.6423,0.000791309,-0.00105914,0.00132231,0.00147994,-0.00174778,0.480134,0.00186566,0.0213594,1889,1429,24.889,-11.6423
672,-405,24.9067,11.1459,0.000594634,-0.00167544,0.00219265,0.00192861,-0.00300942,0.546563,0.00287365,0.0250349,1896,1429,24.9067,-11.1459
679,-405,24.9637,10.7251,0.000289775,-0.00260425,0.0033771,0.00251682,-0.00483129,0.582992,0.00431201,0.0227226,1903,1429,24.9637,-10.7251
686,-405,24.7542,10.3099,-0.00032286,-0.00412349,0.00516092,0.00327649,-0.00772284,0.608995,0.00652112,0.0393052,1910,1429,24.7542,-10.31
693,-405,24.6285,10.3849,0,0,0,0,0,0,0,-1,1917,1429,24.6286,-10.3848
700,-405,9.1958,4.02026,0,0,0,0,0,0,0,-1,1924,1429,9.19579,-4.02025
707,-405,7.40308,3.83191,0,0,0,0,0,0,0,-1,1931,1429,7.40311,-3.83194
714,-405,7.33252,3.47388,0,0,0,0,0,0,0,-1,1938,1429,7.33255,-3.47383
721,-405,9.23523,0.993896,0,0,0,0,0,0,0,-1,1945,1429,9.23523,-0.993884
728,-405,0,0,0,0,0,0,0,0,0,-1,1952,1429,0,0
735,-405,0,0,0,0,0,0,0,0,0,-1,1959,1429,0,0
742,-405,0,0,0,0,0,0,0,0,0,-1,1966,1429,0,0
749,-405,0,0,0,0,0,0,0,0,0,-1,1973,1429,0,0
756,-405,0,0,0,0,0,0,0,0,0,-1,1980,1429,0,0
763,-405,0,0,0,0,0,0,0,0,0,-1,1987,1429,0,0
770,-405,0,0,0,0,0,0,0,0,0,-1,1994,1429,0,0
777,-405,0,0,0,0,0,0,0,0,0,-1,2001,1429,0,0
784,-405,0,0,0,0,0,0,0,0,0,-1,2008,1429,0,0
791,-405,0,0,0,0,0,0,0,0,0,-1,2015,1429,0,0
798,-405,0,0,0,0,0,0,0,0,0,-1,2022,1429,0,0
805,-405,0,0,0,0,0,0,0,0,0,-1,2029,1429,0,0
812,-405,0,0,0,0,0,0,0,0,0,-1,2036,1429,0,0
-700,-412,0,0,0,0,0,0,0,0,0,-1,524,1436,0,0
-693,-412,0,0,0,0,0,0,0,0,0,-1,531,1436,0,0
-686,-412,0,0,0,0,0,0,0,0,0,-1,538,1436,0,0
-679,-412,0,0,0,0,0,0,0,0,0,-1,545,1436,0,0
-672,-412,0,0,0,0,0,0,0,0,0,-1,552,1436,0,0
-665,-412,0,0,0,0,0,0,0,0,0,-1,559,1436,0,0
-658,-412,0,0,0,0,0,0,0,0,0,-1,566,1436,0,0
-651,-412,0,0,0,0,0,0,0,0,0,-1,573,1436,0,0
-644,-412,0,0,0,0,0,0,0,0,0,-1,580,1436,0,0
-637,-412,0,0,0,0,0,0,0,0,0,-1,587,1436,0,0
-630,-412,0,0,0,0,0,0,0,0,0,-1,594,1436,0,0
-623,-412,0,0,0,0,0,0,0,0,0,-1,601,1436,0,0
-616,-412,0,0,0,0,0,0,0,0,0,-1,608,1436,0,0
-609,-412,0,0,0,0,0,0,0,0,0,-1,615,1436,0,0
-602,-412,-3.72766,-3.50012,0,0,0,0,0,0,0,-1,622,1436,-3.72764,3.50017
-595,-412,-10.3706,0.65564,0,0,0,0,0,0,0,-1,629,1436,-10.3706,-0.655672
-588,-412,-8.17957,1.94934,0,0,0,0,0,0,0,-1,636,1436,-8.17956,-1.94939
-581,-412,-6.60065,-0.0554199,0,0,0,0,0,0,0,-1,643,1436,-6.60063,0.0554733
-574,-412,-8.34131,5.25012,0,0,0,0,0,0,0,-1,650,1436,-8.34129,-5.25012
-567,-412,-7.50354,3.65454,0,0,0,0,0,0,0,-1,657,1436,-7.50356,-3.65452
-560,-412,-8.52448,7.39014,0,0,0,0,0,0,0,-1,664,1436,-8.52447,-7.39019
-553,-412,-7.36761,6.54651,0,0,0,0,0,0,0,-1,671,1436,-7.36763,-6.54654
-546,-412,-10.2048,8.64331,0,0,0,0,0,0,0,-1,678,1436,-10.2047,-8.64336
-539,-412,-10.2078,9.10095,-0.00102191,-0.00101425,-0.0014467,0.00042863,-0.00246478,-0.786722,0.00180313,0.0237277,685,1436,-10.2077,-9.10092
-532,-412,-10.2291,9.68701,-0.000853239,-0.000777788,-0.00119726,0.00038234,-0.00201337,-0.801148,0.00148618,0.0150485,692,1436,-10.2291,-9.68701
-525,-412,-10.2748,10.2031,-0.000404148,-0.000482043,-0.000822382,0.000380208,-0.0012664,-0.761736,0.000995505,0.0171693,699,1436,-10.2748,-10.2031
-518,-412,-10.278,10.7158,0.000331723,4.14063e-05,-0.000215888,0.000446716,-7.35867e-05,-0.489426,0.000325127,0.017728,706,1436,-10.278,-10.7158
-511,-412,-10.2818,11.22,0.00130125,0.000819468,0.000633263,0.00173789,0.000382826,0.603653,0.00105441,0.0191401,713,1436,-10.2818,-11.22
-504,-412,-10.2911,11.7284,0.00246044,0.0018059,0.00167769,0.00384248,0.00042385,0.689072,0.00243271,0.0179653,720,1436,-10.2911,-11.7285
-497,-412,-10.3,12.2627,0.00395844,0.00305337,0.00301497,0.00655465,0.00045716,0.710906,0.00422563,0.01489,727,1436,-10.3,-12.2626
-490,-412,-10.3165,12.7639,0.00587768,0.00469952,0.00473052,0.0100557,0.000521543,0.723454,0.00653686,0.013,734,1436,-10.3165,-12.764
-483,-412,-10.3216,13.2567,0.00821586,0.00669565,0.00684886,0.0143467,0.000564849,0.730133,0.00938183,0.00992794,741,1436,-10.3216,-13.2567
-476,-412,-10.1533,13.9922,0.0109799,0.009228,0.00948847,0.0196328,0.000575149,0.739369,0.0129011,0.0319542,748,1436,-10.1532,-13.9922
-469,-412,-10.0336,14.7484,0,0,0,0,0,0,0,-1,755,1436,-10.0336,-14.7484
-462,-412,-8.94659,13.3385,0,0,0,0,0,0,0,-1,762,1436,-8.94657,-13.3385
-455,-412,-8.25006,11.2572,0,0,0,0,0,0,0,-1,769,1436,-8.25007,-11.2572
-448,-412,-7.38086,8.78186,0,0,0,0,0,0,0,-1,776,1436,-7.38088,-8.78183
-441,-412,-8.79523,9.05286,0,0,0,0,0,0,0,-1,783,1436,-8.79521,-9.0529
-434,-412,-10.6305,8.03577,0,0,0,0,0,0,0,-1,790,1436,-10.6305,-8.0358
-427,-412,-10.0004,5.15271,0,0,0,0,0,0,0,-1,797,1436,-10.0004,-5.15266
-420,-412,-10.4468,4.9043,0,0,0,0,0,0,0,-1,804,1436,-10.4468,-4.90429
-413,-412,-11.5704,4.97766,0,0,0,0,0,0,0,-1,811,1436,-11.5704,-4.97771
-406,-412,-13.1968,5.70093,0,0,0,0,0,0,0,-1,818,1436,-13.1968,-5.70096
-399,-412,-10.5506,0.771973,0,0,0,0,0,0,0,-1,825,1436,-10.5506,-0.771954
-392,-412,0,0,0,0,0,0,0,0,0,-1,832,1436,0,0
-385,-412,0,0,0,0,0,0,0,0,0,-1,839,1436,0,0
-378,-412,0,0,0,0,0,0,0,0,0,-1,846,1436,0,0
-371,-412,0,0,0,0,0,0,0,0,0,-1,853,1436,0,0
-364,-412,0,0,0,0,0,0,0,0,0,-1,860,1436,0,0
-357,-412,0,0,0,0,0,0,0,0,0,-1,867,1436,0,0
-350,-412,0,0,0,0,0,0,0,0,0,-1,874,1436,0,0
-343,-412,0,0,0,0,0,0,0,0,0,-1,881,1436,0,0
-336,-412,0,0,0,0,0,0,0,0,0,-1,888,1436,0,0
-329,-412,0,0,0,0,0,0,0,0,0,-1,895,1436,0,0
-322,-412,0,0,0,0,0,0,0,0,0,-1,902,1436,0,0
-315,-412,0,0,0,0,0,0,0,0,0,-1,909,1436,0,0
-308,-412,0,0,0,0,0,0,0,0,0,-1,916,1436,0,0
-301,-412,0,0,0,0,0,0,0,0,0,-1,923,1436,0,0
-294,-412,0,0,0,0,0,0,0,0,0,-1,930,1436,0,0
-287,-412,0,0,0,0,0,0,0,0,0,-1,937,1436,0,0
-280,-412,0,0,0,0,0,0,0,0,0,-1,944,1436,0,0
-273,-412,0,0,0,0,0,0,0,0,0,-1,951,1436,0,0
-266,-412,0,0,0,0,0,0,0,0,0,-1,958,1436,0,0
-259,-412,0,0,0,0,0,0,0,0,0,-1,965,1436,0,0
-252,-412,0,0,0,0,0,0,0,0,0,-1,972,1436,0,0
-245,-412,0,0,0,0,0,0,0,0,0,-1,979,1436,0,0
-238,-412,0,0,0,0,0,0,0,0,0,-1,986,1436,0,0
-231,-412,0,0,0,0,0,0,0,0,0,-1,993,1436,0,0
-224,-412,0,0,0,0,0,0,0,0,0,-1,1000,1436,0,0
-217,-412,0,0,0,0,0,0,0,0,0,-1,1007,1436,0,0
-210,-412,0,0,0,0,0,0,0,0,0,-1,1014,1436,0,0
-203,-412,0,0,0,0,0,0,0,0,0,-1,1021,1436,0,0
-196,-412,0,0,0,0,0,0,0,0,0,-1,1028,1436,0,0
-189,-412,0,0,0,0,0,0,0,0,0,-1,1035,1436,0,0
-182,-412,0,0,0,0,0,0,0,0,0,-1,1042,1436,0,0
-175,-412,0,0,0,0,0,0,0,0,0,-1,1049,1436,0,0
-168,-412,0,0,0,0,0,0,0,0,0,-1,1056,1436,0,0
-161,-412,0,0,0,0,0,0,0,0,0,-1,1063,1436,0,0
-154,-412,0,0,0,0,0,0,0,0,0,-1,1070,1436,0,0
-147,-412,0,0,0,0,0,0,0,0,0,-1,1077,1436,0,0
-140,-412,0,0,0,0,0,0,0,0,0,-1,1084,1436,0,0
-133,-412,0,0,0,0,0,0,0,0,0,-1,1091,1436,0,0
-126,-412,0,0,0,0,0,0,0,0,0,-1,1098,1436,0,0
-119,-412,0,0,0,0,0,0,0,0,0,-1,1105,1436,0,0
-112,-412,0,0,0,0,0,0,0,0,0,-1,1112,1436,0,0
-105,-412,0,0,0,0,0,0,0,0,0,-1,1119,1436,0,0
-98,-412,0,0,0,0,0,0,0,0,0,-1,1126,1436,0,0
-91,-412,0,0,0,0,0,0,0,0,0,-1,1133,1436,0,0
-84,-412,0,0,0,0,0,0,0,0,0,-1,1140,1436,0,0
-77,-412,0,0,0,0,0,0,0,0,0,-1,1147,1436,0,0
-70,-412,0,0,0,0,0,0,0,0,0,-1,1154,1436,0,0
-63,-412,0,0,0,0,0,0,0,0,0,-1,1161,1436,0,0
-56,-412,0,0,0,0,0,0,0,0,0,-1,1168,1436,0,0
-49,-412,0,0,0,0,0,0,0,0,0,-1,1175,1436,0,0
-42,-412,0,0,0,0,0,0,0,0,0,-1,1182,1436,0,0
-35,-412,0,0,0,0,0,0,0,0,0,-1,1189,1436,0,0
-28,-412,0,0,0,0,0,0,0,0,0,-1,1196,1436,0,0
-21,-412,0,0,0,0,0,0,0,0,0,-1,1203,1436,0,0
-14,-412,0,0,0,0,0,0,0,0,0,-1,1210,1436,0,0
-7,-412,0,0,0,0,0,0,0,0,0,-1,1217,1436,0,0
0,-412,0,0,0,0,0,0,0,0,0,-1,1224,1436,0,0
7,-412,0,0,0,0,0,0,0,0,0,-1,1231,1436,0,0
14,-412,0,0,0,0,0,0,0,0,0,-1,1238,1436,0,0
21,-412,0,0,0,0,0,0,0,0,0,-1,1245,1436,0,0
28,-412,0,0,0,0,0,0,0,0,0,-1,1252,1436,0,0
35,-412,0,0,0,0,0,0,0,0,0,-1,1259,1436,0,0
42,-412,0,0,0,0,0,0,0,0,0,-1,1266,1436,0,0
49,-412,0,0,0,0,0,0,0,0,0,-1,1273,1436,0,0
56,-412,0,0,0,0,0,0,0,0,0,-1,1280,1436,0,0
63,-412,0,0,0,0,0,0,0,0,0,-1,1287,1436,0,0
70,-412,0,0,0,0,0,0,0,0,0,-1,1294,1436,0,0
77,-412,0,0,0,0,0,0,0,0,0,-1,1301,1436,0,0
84,-412,0,0,0,0,0,0,0,0,0,-1,1308,1436,0,0
91,-412,0,0,0,0,0,0,0,0,0,-1,1315,1436,0,0
98,-412,0,0,0,0,0,0,0,0,0,-1,1322,1436,0,0
105,-412,0,0,0,0,0,0,0,0,0,-1,1329,1436,0,0
112,-412,0,0,0,0,0,0,0,0,0,-1,1336,1436,0,0
119,-412,0,0,0,0,0,0,0,0,0,-1,1343,1436,0,0
126,-412,0,0,0,0,0,0,0,0,0,-1,1350,1436,0,0
133,-412,0,0,0,0,0,0,0,0,0,-1,1357,1436,0,0
140,-412,0,0,0,0,0,0,0,0,0,-1,1364,1436,0,0
147,-412,0,0,0,0,0,0,0,0,0,-1,1371,1436,0,0
154,-412,0,0,0,0,0,0,0,0,0,-1,1378,1436,0,0
161,-412,0,0,0,0,0,0,0,0,0,-1,1385,1436,0,0
168,-412,0,0,0,0,0,0,0,0,0,-1,1392,1436,0,0
175,-412,0,0,0,0,0,0,0,0,0,-1,1399,1436,0,0
182,-412,0,0,0,0,0,0,0,0,0,-1,1406,1436,0,0
189,-412,0,0,0,0,0,0,0,0,0,-1,1413,1436,0,0
196,-412,0,0,0,0,0,0,0,0,0,-1,1420,1436,0,0
203,-412,0,0,0,0,0,0,0,0,0,-1,1427,1436,0,0
210,-412,0,0,0,0,0,0,0,0,0,-1,1434,1436,0,0
217,-412,0,0,0,0,0,0,0,0,0,-1,1441,1436,0,0
224,-412,0,0,0,0,0,0,0,0,0,-1,1448,1436,0,0
231,-412,0,0,0,0,0,0,0,0,0,-1,1455,1436,0,0
238,-412,0,0,0,0,0,0,0,0,0,-1,1462,1436,0,0
245,-412,0,0,0,0,0,0,0,0,0,-1,1469,1436,0,0
252,-412,0,0,0,0,0,0,0,0,0,-1,1476,1436,0,0
259,-412,0,0,0,0,0,0,0,0,0,-1,1483,1436,0,0
266,-412,0,0,0,0,0,0,0,0,0,-1,1490,1436,0,0
273,-412,0,0,0,0,0,0,0,0,0,-1,1497,1436,0,0
280,-412,0,0,0,0,0,0,0,0,0,-1,1504,1436,0,0
287,-412,0,0,0,0,0,0,0,0,0,-1,1511,1436,0,0
294,-412,0,0,0,0,0,0,0,0,0,-1,1518,1436,0,0
301,-412,0,0,0,0,0,0,0,0,0,-1,1525,1436,0,0
308,-412,0,0,0,0,0,0,0,0,0,-1,1532,1436,0,0
315,-412,0,0,0,0,0,0,0,0,0,-1,1539,1436,0,0
322,-412,0,0,0,0,0,0,0,0,0,-1,1546,1436,0,0
329,-412,0,0,0,0,0,0,0,0,0,-1,1553,1436,0,0
336,-412,0,0,0,0,0,0,0,0,0,-1,1560,1436,0,0
343,-412,0,0,0,0,0,0,0,0,0,-1,1567,1436,0,0
350,-412,0,0,0,0,0,0,0,0,0,-1,1574,1436,0,0
357,-412,0,0,0,0,0,0,0,0,0,-1,1581,1436,0,0
364,-412,0,0,0,0,0,0,0,0,0,-1,1588,1436,0,0
371,-412,0,0,0,0,0,0,0,0,0,-1,1595,1436,0,0
378,-412,0,0,0,0,0,0,0,0,0,-1,1602,1436,0,0
385,-412,0,0,0,0,0,0,0,0,0,-1,1609,1436,0,0
392,-412,0,0,0,0,0,0,0,0,0,-1,1616,1436,0,0
399,-412,0,0,0,0,0,0,0,0,0,-1,1623,1436,0,0
406,-412,0,0,0,0,0,0,0,0,0,-1,1630,1436,0,0
413,-412,0,0,0,0,0,0,0,0,0,-1,1637,1436,0,0
420,-412,0,0,0,0,0,0,0,0,0,-1,1644,1436,0,0
427,-412,0,0,0,0,0,0,0,0,0,-1,1651,1436,0,0
434,-412,0,0,0,0,0,0,0,0,0,-1,1658,1436,0,0
441,-412,0,0,0,0,0,0,0,0,0,-1,1665,1436,0,0
448,-412,0,0,0,0,0,0,0,0,0,-1,1672,1436,0,0
455,-412,0,0,0,0,0,0,0,0,0,-1,1679,1436,0,0
462,-412,0,0,0,0,0,0,0,0,0,-1,1686,1436,0,0
469,-412,0,0,0,0,0,0,0,0,0,-1,1693,1436,0,0
476,-412,0,0,0,0,0,0,0,0,0,-1,1700,1436,0,0
483,-412,0,0,0,0,0,0,0,0,0,-1,1707,1436,0,0
490,-412,0,0,0,0,0,0,0,0,0,-1,1714,1436,0,0
497,-412,0,0,0,0,0,0,0,0,0,-1,1721,1436,0,0
504,-412,0,0,0,0,0,0,0,0,0,-1,1728,1436,0,0
511,-412,0,0,0,0,0,0,0,0,0,-1,1735,1436,0,0
518,-412,30.1038,-2.43384,0,0,0,0,0,0,0,-1,1742,1436,30.1038,2.43383
525,-412,29.5283,-1.42493,0,0,0,0,0,0,0,-1,1749,1436,29.5283,1.42495
532,-412,28.8533,-0.386597,0,0,0,0,0,0,0,-1,1756,1436,28.8533,0.386632
539,-412,25.8654,2.74683,0,0,0,0,0,0,0,-1,1763,1436,25.8654,-2.74685
546,-412,25.4265,2.4342,0,0,0,0,0,0,0,-1,1770,1436,25.4265,-2.4342
553,-412,26.3595,7.49255,0,0,0,0,0,0,0,-1,1777,1436,26.3595,-7.4925
560,-412,24.9116,7.94324,0,0,0,0,0,0,0,-1,1784,1436,24.9116,-7.94327
567,-412,23.668,7.94531,0,0,0,0,0,0,0,-1,1791,1436,23.6679,-7.94534
574,-412,23.0142,9.17236,0,0,0,0,0,0,0,-1,1798,1436,23.0141,-9.17235
581,-412,22.2615,10.0349,0,0,0,0,0,0,0,-1,1805,1436,22.2615,-10.0349
588,-412,21.6893,10.8069,0,0,0,0,0,0,0,-1,1812,1436,21.6893,-10.8069
595,-412,21.5137,14.3157,0,0,0,0,0,0,0,-1,1819,1436,21.5137,-14.3157
602,-412,24.3481,16.1304,0,0,0,0,0,0,0,-1,1826,1436,24.3481,-16.1303
609,-412,24.4951,15.4423,0.00356226,0.00379773,-0.00319339,0.00687555,0.00048444,-0.803824,0.00443106,0.0272202,1833,1436,24.4952,-15.4422
616,-412,24.5507,14.9442,0.002703,0.00247169,-0.00219532,0.00478571,0.000388977,-0.759081,0.00306905,0.0109107,1840,1436,24.5506,-14.9442
623,-412,24.5183,14.4783,0.00205575,0.00161797,-0.00152796,0.00338042,0.0002933,-0.714255,0.00216248,0.0101614,1847,1436,24.5184,-14.4783
630,-412,24.5245,13.972,0.00168245,0.000989059,-0.00103661,0.0024288,0.000242709,-0.624019,0.00154467,0.0135356,1854,1436,24.5245,-13.972
637,-412,24.5151,13.4766,0.00140428,0.000492655,-0.000615602,0.00171445,0.000182484,-0.466724,0.00108725,0.0153017,1861,1436,24.5152,-13.4766
644,-412,24.4987,13.0339,0.00122058,8.63933e-05,-0.000193964,0.00125284,5.41398e-05,-0.164779,0.000817775,0.015116,1868,1436,24.4987,-13.0339
651,-412,24.5012,12.58,0.00113619,-0.000240086,0.000185142,0.00116066,-0.000264557,0.131412,0.000875388,0.0255887,1875,1436,24.5012,-12.58
658,-412,24.4698,12.1108,0.00102521,-0.000597882,0.000673754,0.00126844,-0.000841112,0.346447,0.00122625,0.0180245,1882,1436,24.4698,-12.1108
665,-412,24.4331,11.6495,0.000879861,-0.00107347,0.00131805,0.00154366,-0.00173727,0.466543,0.00189535,0.0240479,1889,1436,24.4331,-11.6496
672,-412,24.4623,11.1783,0.00062657,-0.00167128,0.00220217,0.00196151,-0.00300622,0.544961,0.00288919,0.0294701,1896,1436,24.4623,-11.1784
679,-412,24.578,10.7898,0.000203539,-0.00267202,0.00347382,0.00252536,-0.00499385,0.589186,0.00441851,0.0414939,1903,1436,24.578,-10.7898
686,-412,24.2258,10.2476,0,0,0,0,0,0,0,-1,1910,1436,24.2258,-10.2475
693,-412,11.9346,6.02344,0,0,0,0,0,0,0,-1,1917,1436,11.9346,-6.02343
700,-412,8.82764,5.8844,0,0,0,0,0,0,0,-1,1924,1436,8.82761,-5.88444
707,-412,6.59998,1.68994,0,0,0,0,0,0,0,-1,1931,1436,6.60002,-1.68995
714,-412,4.77283,-2.39832,0,0,0,0,0,0,0,-1,1938,1436,4.77288,2.39835
721,-412,0,0,0,0,0,0,0,0,0,-1,1945,1436,0,0
728,-412,0,0,0,0,0,0,0,0,0,-1,1952,1436,0,0
735,-412,0,0,0,0,0,0,0,0,0,-1,1959,1436,0,0
742,-412,0,0,0,0,0,0,0,0,0,-1,1966,1436,0,0
749,-412,0,0,0,0,0,0,0,0,0,-1,1973,1436,0,0
756,-412,0,0,0,0,0,0,0,0,0,-1,1980,1436,0,0
763,-412,0,0,0,0,0,0,0,0,0,-1,1987,1436,0,0
770,-412,0,0,0,0,0,0,0,0,0,-1,1994,1436,0,0
777,-412,0,0,0,0,0,0,0,0,0,-1,2001,1436,0,0
784,-412,0,0,0,0,0,0,0,0,0,-1,2008,1436,0,0
791,-412,0,0,0,0,0,0,0,0,0,-1,2015,1436,0,0
798,-412,0,0,0,0,0,0,0,0,0,-1,2022,1436,0,0
805,-412,0,0,0,0,0,0,0,0,0,-1,2029,1436,0,0
812,-412,0,0,0,0,0,0,0,0,0,-1,2036,1436,0,0
-700,-419,0,0,0,0,0,0,0,0,0,-1,524,1443,0,0
-693,-419,0,0,0,0,0,0,0,0,0,-1,531,1443,0,0
-686,-419,0,0,0,0,0,0,0,0,0,-1,538,1443,0,0
-679,-419,0,0,0,0,0,0,0,0,0,-1,545,1443,0,0
-672,-419,0,0,0,0,0,0,0,0,0,-1,552,1443,0,0
-665,-419,0,0,0,0,0,0,0,0,0,-1,559,1443,0,0
-658,-419,0,0,0,0,0,0,0,0,0,-1,566,1443,0,0
-651,-419,0,0,0,0,0,0,0,0,0,-1,573,1443,0,0
-644,-419,0,0,0,0,0,0,0,0,0,-1,580,1443,0,0
-637,-419,0,0,0,0,0,0,0,0,0,-1,587,1443,0,0
-630,-419,0,0,0,0,0,0,0,0,0,-1,594,1443,0,0
-623,-419,0,0,0,0,0,0,0,0,0,-1,601,1443,0,0
-616,-419,0,0,0,0,0,0,0,0,0,-1,608,1443,0,0
-609,-419,0,0,0,0,0,0,0,0,0,-1,615,1443,0,0
-602,-419,0,0,0,0,0,0,0,0,0,-1,622,1443,0,0
-595,-419,-11.4904,-0.622681,0,0,0,0,0,0,0,-1,629,1443,-11.4903,0.622714
-588,-419,-9.09369,0.742432,0,0,0,0,0,0,0,-1,636,1443,-9.09366,-0.742482
-581,-419,-6.39172,2.14673,0,0,0,0,0,0,0,-1,643,1443,-6.39175,-2.14668
-574,-419,-4.09772,3.54773,0,0,0,0,0,0,0,-1,650,1443,-4.09772,-3.54767
-567,-419,-6.14038,3.22498,0,0,0,0,0,0,0,-1,657,1443,-6.14037,-3.22497
-560,-419,-4.52814,5.22253,0,0,0,0,0,0,0,-1,664,1443,-4.52816,-5.22251
-553,-419,-5.08331,6.11829,0,0,0,0,0,0,0,-1,671,1443,-5.08331,-6.1183
-546,-419,-9.42896,8.72717,0,0,0,0,0,0,0,-1,678,1443,-9.42898,-8.72717
-539,-419,-9.48267,9.22839,-0.00235926,-0.00114577,-0.00192577,0.000266577,-0.00377161,-0.938008,0.00260781,0.0497745,685,1443,-9.48264,-9.22835
-532,-419,-9.70917,9.68335,-0.00194409,-0.00101479,-0.00164075,0.000225829,-0.00318471,-0.923382,0.00220228,0.0223549,692,1443,-9.70915,-9.68337
-525,-419,-9.73743,10.2288,-0.00135302,-0.000840895,-0.00128793,0.000216178,-0.00241009,-0.883528,0.00168342,0.0142444,699,1443,-9.73741,-10.2287
-518,-419,-9.75647,10.7317,-0.000518279,-0.000408398,-0.000710323,0.000249106,-0.00117578,-0.823994,0.00087874,0.0186287,706,1443,-9.75645,-10.7317
-511,-419,-9.7674,11.2583,0.000490289,0.000303168,7.62726e-05,0.000517439,0.000276018,0.341977,0.000298966,0.0199072,713,1443,-9.76742,-11.2583
-504,-419,-9.80438,11.7628,0.0016553,0.00124943,0.0010603,0.0025319,0.000372821,0.690844,0.00157841,0.0186099,720,1443,-9.80438,-11.7628
-497,-419,-9.79443,12.2642,0.00311317,0.00244241,0.00230334,0.00510542,0.000450159,0.713103,0.00326393,0.0138506,727,1443,-9.79444,-12.2642
-490,-419,-9.79535,12.7452,0.00493243,0.00398901,0.00387333,0.00836267,0.000558769,0.724805,0.0053985,0.0117133,734,1443,-9.79535,-12.7453
-483,-419,-9.823,13.2563,0.00715758,0.00582854,0.00582248,0.0123533,0.000632776,0.728579,0.00803295,0.00973602,741,1443,-9.82301,-13.2563
-476,-419,-9.78253,13.8171,0.00975603,0.00806726,0.00815991,0.0171151,0.000708162,0.733842,0.0111815,0.0137939,748,1443,-9.78254,-13.8171
-469,-419,-9.68829,14.5128,0.0131484,0.0108084,0.0111851,0.0232245,0.000732278,0.733286,0.0152448,0.0336968,755,1443,-9.68831,-14.5128
-462,-419,-9.32379,15.2263,0,0,0,0,0,0,0,-1,762,1443,-9.32381,-15.2263
-455,-419,-7.35645,11.9451,0,0,0,0,0,0,0,-1,769,1443,-7.35646,-11.9451
-448,-419,-7.49109,9.92444,0,0,0,0,0,0,0,-1,776,1443,-7.49109,-9.92442
-441,-419,-7.65527,8.75574,0,0,0,0,0,0,0,-1,783,1443,-7.65525,-8.75568
-434,-419,-11.3724,12.3643,0,0,0,0,0,0,0,-1,790,1443,-11.3724,-12.3643
-427,-419,-8.23193,7.89404,0,0,0,0,0,0,0,-1,797,1443,-8.23193,-7.89404
-420,-419,-8.74091,6.36597,0,0,0,0,0,0,0,-1,804,1443,-8.74089,-6.366
-413,-419,-9.88391,6.53955,0,0,0,0,0,0,0,-1,811,1443,-9.8839,-6.53955
-406,-419,-10.3372,2.75195,0,0,0,0,0,0,0,-1,818,1443,-10.3372,-2.75201
-399,-419,-11.5999,1.40002,0,0,0,0,0,0,0,-1,825,1443,-11.5999,-1.39998
-392,-419,0,0,0,0,0,0,0,0,0,-1,832,1443,0,0
-385,-419,0,0,0,0,0,0,0,0,0,-1,839,1443,0,0
-378,-419,0,0,0,0,0,0,0,0,0,-1,846,1443,0,0
-371,-419,0,0,0,0,0,0,0,0,0,-1,853,1443,0,0
-364,-419,0,0,0,0,0,0,0,0,0,-1,860,1443,0,0
-357,-419,0,0,0,0,0,0,0,0,0,-1,867,1443,0,0
-350,-419,0,0,0,0,0,0,0,0,0,-1,874,1443,0,0
-343,-419,0,0,0,0,0,0,0,0,0,-1,881,1443,0,0
-336,-419,0,0,0,0,0,0,0,0,0,-1,888,1443,0,0
-329,-419,0,0,0,0,0,0,0,0,0,-1,895,1443,0,0
-322,-419,0,0,0,0,0,0,0,0,0,-1,902,1443,0,0
-315,-419,0,0,0,0,0,0,0,0,0,-1,909,1443,0,0
-308,-419,0,0,0,0,0,0,0,0,0,-1,916,1443,0,0
-301,-419,0,0,0,0,0,0,0,0,0,-1,923,1443,0,0
-294,-419,0,0,0,0,0,0,0,0,0,-1,930,1443,0,0
-287,-419,0,0,0,0,0,0,0,0,0,-1,937,1443,0,0
-280,-419,0,0,0,0,0,0,0,0,0,-1,944,1443,0,0
-273,-419,0,0,0,0,0,0,0,0,0,-1,951,1443,0,0
-266,-419,0,0,0,0,0,0,0,0,0,-1,958,1443,0,0
-259,-419,0,0,0,0,0,0,0,0,0,-1,965,1443,0,0
-252,-419,0,0,0,0,0,0,0,0,0,-1,972,1443,0,0
-245,-419,0,0,0,0,0,0,0,0,0,-1,979,1443,0,0
-238,-419,0,0,0,0,0,0,0,0,0,-1,986,1443,0,0
-231,-419,0,0,0,0,0,0,0,0,0,-1,993,1443,0,0
-224,-419,0,0,0,0,0,0,0,0,0,-1,1000,1443,0,0
-217,-419,0,0,0,0,0,0,0,0,0,-1,1007,1443,0,0
-210,-419,0,0,0,0,0,0,0,0,0,-1,1014,1443,0,0
-203,-419,0,0,0,0,0,0,0,0,0,-1,1021,1443,0,0
-196,-419,0,0,0,0,0,0,0,0,0,-1,1028,1443,0,0
-189,-419,0,0,0,0,0,0,0,0,0,-1,1035,1443,0,0
-182,-419,0,0,0,0,0,0,0,0,0,-1,1042,1443,0,0
-175,-419,0,0,0,0,0,0,0,0,0,-1,1049,1443,0,0
-168,-419,0,0,0,0,0,0,0,0,0,-1,1056,1443,0,0
-161,-419,0,0,0,0,0,0,0,0,0,-1,1063,1443,0,0
-154,-419,0,0,0,0,0,0,0,0,0,-1,1070,1443,0,0
-147,-419,0,0,0,0,0,0,0,0,0,-1,1077,1443,0,0
-140,-419,0,0,0,0,0,0,0,0,0,-1,1084,1443,0,0
-133,-419,0,0,0,0,0,0,0,0,0,-1,1091,1443,0,0
-126,-419,0,0,0,0,0,0,0,0,0,-1,1098,1443,0,0
-119,-419,0,0,0,0,0,0,0,0,0,-1,1105,1443,0,0
-112,-419,0,0,0,0,0,0,0,0,0,-1,1112,1443,0,0
-105,-419,0,0,0,0,0,0,0,0,0,-1,1119,1443,0,0
-98,-419,0,0,0,0,0,0,0,0,0,-1,1126,1443,0,0
-91,-419,0,0,0,0,0,0,0,0,0,-1,1133,1443,0,0
-84,-419,0,0,0,0,0,0,0,0,0,-1,1140,1443,0,0
-77,-419,0,0,0,0,0,0,0,0,0,-1,1147,1443,0,0
-70,-419,0,0,0,0,0,0,0,0,0,-1,1154,1443,0,0
-63,-419,0,0,0,0,0,0,0,0,0,-1,1161,1443,0,0
-56,-419,0,0,0,0,0,0,0,0,0,-1,1168,1443,0,0
-49,-419,0,0,0,0,0,0,0,0,0,-1,1175,1443,0,0
-42,-419,0,0,0,0,0,0,0,0,0,-1,1182,1443,0,0
-35,-419,0,0,0,0,0,0,0,0,0,-1,1189,1443,0,0
-28,-419,0,0,0,0,0,0,0,0,0,-1,1196,1443,0,0
-21,-419,0,0,0,0,0,0,0,0,0,-1,1203,1443,0,0
-14,-419,0,0,0,0,0,0,0,0,0,-1,1210,1443,0,0
-7,-419,0,0,0,0,0,0,0,0,0,-1,1217,1443,0,0
0,-419,0,0,0,0,0,0,0,0,0,-1,1224,1443,0,0
7,-419,0,0,0,0,0,0,0,0,0,-1,1231,1443,0,0
14,-419,0,0,0,0,0,0,0,0,0,-1,1238,1443,0,0
21,-419,0,0,0,0,0,0,0,0,0,-1,1245,1443,0,0
28,-419,0,0,0,0,0,0,0,0,0,-1,1252,1443,0,0
35,-419,0,0,0,0,0,0,0,0,0,-1,1259,1443,0,0
42,-419,0,0,0,0,0,0,0,0,0,-1,1266,1443,0,0
49,-419,0,0,0,0,0,0,0,0,0,-1,1273,1443,0,0
56,-419,0,0,0,0,0,0,0,0,0,-1,1280,1443,0,0
63,-419,0,0,0,0,0,0,0,0,0,-1,1287,1443,0,0
70,-419,0,0,0,0,0,0,0,0,0,-1,1294,1443,0,0
77,-419,0,0,0,0,0,0,0,0,0,-1,1301,1443,0,0
84,-419,0,0,0,0,0,0,0,0,0,-1,1308,1443,0,0
91,-419,0,0,0,0,0,0,0,0,0,-1,1315,1443,0,0
98,-419,0,0,0,0,0,0,0,0,0,-1,1322,1443,0,0
105,-419,0,0,0,0,0,0,0,0,0,-1,1329,1443,0,0
112,-419,0,0,0,0,0,0,0,0,0,-1,1336,1443,0,0
119,-419,0,0,0,0,0,0,0,0,0,-1,1343,1443,0,0
126,-419,0,0,0,0,0,0,0,0,0,-1,1350,1443,0,0
133,-419,0,0,0,0,0,0,0,0,0,-1,1357,1443,0,0
140,-419,0,0,0,0,0,0,0,0,0,-1,1364,1443,0,0
147,-419,0,0,0,0,0,0,0,0,0,-1,1371,1443,0,0
154,-419,0,0,0,0,0,0,0,0,0,-1,1378,1443,0,0
161,-419,0,0,0,0,0,0,0,0,0,-1,1385,1443,0,0
168,-419,0,0,0,0,0,0,0,0,0,-1,1392,1443,0,0
175,-419,0,0,0,0,0,0,0,0,0,-1,1399,1443,0,0
182,-419,0,0,0,0,0,0,0,0,0,-1,1406,1443,0,0
189,-419,0,0,0,0,0,0,0,0,0,-1,1413,1443,0,0
196,-419,0,0,0,0,0,0,0,0,0,-1,1420,1443,0,0
203,-419,0,0,0,0,0,0,0,0,0,-1,1427,1443,0,0
210,-419,0,0,0,0,0,0,0,0,0,-1,1434,1443,0,0
217,-419,0,0,0,0,0,0,0,0,0,-1,1441,1443,0,0
224,-419,0,0,0,0,0,0,0,0,0,-1,1448,1443,0,0
231,-419,0,0,0,0,0,0,0,0,0,-1,1455,1443,0,0
238,-419,0,0,0,0,0,0,0,0,0,-1,1462,1443,0,0
245,-419,0,0,0,0,0,0,0,0,0,-1,1469,1443,0,0
252,-419,0,0,0,0,0,0,0,0,0,-1,1476,1443,0,0
259,-419,0,0,0,0,0,0,0,0,0,-1,1483,1443,0,0
266,-419,0,0,0,0,0,0,0,0,0,-1,1490,1443,0,0
273,-419,0,0,0,0,0,0,0,0,0,-1,1497,1443,0,0
280,-419,0,0,0,0,0,0,0,0,0,-1,1504,1443,0,0
287,-419,0,0,0,0,0,0,0,0,0,-1,1511,1443,0,0
294,-419,0,0,0,0,0,0,0,0,0,-1,1518,1443,0,0
301,-419,0,0,0,0,0,0,0,0,0,-1,1525,1443,0,0
308,-419,0,0,0,0,0,0,0,0,0,-1,1532,1443,0,0
315,-419,0,0,0,0,0,0,0,0,0,-1,1539,1443,0,0
322,-419,0,0,0,0,0,0,0,0,0,-1,1546,1443,0,0
329,-419,0,0,0,0,0,0,0,0,0,-1,1553,1443,0,0
336,-419,0,0,0,0,0,0,0,0,0,-1,1560,1443,0,0
343,-419,0,0,0,0,0,0,0,0,0,-1,1567,1443,0,0
350,-419,0,0,0,0,0,0,0,0,0,-1,1574,1443,0,0
357,-419,0,0,0,0,0,0,0,0,0,-1,1581,1443,0,0
364,-419,0,0,0,0,0,0,0,0,0,-1,1588,1443,0,0
371,-419,0,0,0,0,0,0,0,0,0,-1,1595,1443,0,0
378,-419,0,0,0,0,0,0,0,0,0,-1,1602,1443,0,0
385,-419,0,0,0,0,0,0,0,0,0,-1,1609,1443,0,0
392,-419,0,0,0,0,0,0,0,0,0,-1,1616,1443,0,0
399,-419,0,0,0,0,0,0,0,0,0,-1,1623,1443,0,0
406,-419,0,0,0,0,0,0,0,0,0,-1,1630,1443,0,0
413,-419,0,0,0,0,0,0,0,0,0,-1,1637,1443,0,0
420,-419,0,0,0,0,0,0,0,0,0,-1,1644,1443,0,0
427,-419,0,0,0,0,0,0,0,0,0,-1,1651,1443,0,0
434,-419,0,0,0,0,0,0,0,0,0,-1,1658,1443,0,0
441,-419,0,0,0,0,0,0,0,0,0,-1,1665,1443,0,0
448,-419,0,0,0,0,0,0,0,0,0,-1,1672,1443,0,0
455,-419,0,0,0,0,0,0,0,0,0,-1,1679,1443,0,0
462,-419,0,0,0,0,0,0,0,0,0,-1,1686,1443,0,0
469,-419,0,0,0,0,0,0,0,0,0,-1,1693,1443,0,0
476,-419,0,0,0,0,0,0,0,0,0,-1,1700,1443,0,0
483,-419,0,0,0,0,0,0,0,0,0,-1,1707,1443,0,0
490,-419,0,0,0,0,0,0,0,0,0,-1,1714,1443,0,0
497,-419,0,0,0,0,0,0,0,0,0,-1,1721,1443,0,0
504,-419,0,0,0,0,0,0,0,0,0,-1,1728,1443,0,0
511,-419,20.3005,3.7959,0,0,0,0,0,0,0,-1,1735,1443,20.3005,-3.79584
518,-419,21.3154,2.03027,0,0,0,0,0,0,0,-1,1742,1443,21.3155,-2.03029
525,-419,28.3439,-1.24475,0,0,0,0,0,0,0,-1,1749,1443,28.3438,1.24471
532,-419,27.5902,-0.272583,0,0,0,0,0,0,0,-1,1756,1443,27.5902,0.272526
539,-419,26.5278,1.60583,0,0,0,0,0,0,0,-1,1763,1443,26.5279,-1.60579
546,-419,24.9509,2.77539,0,0,0,0,0,0,0,-1,1770,1443,24.9509,-2.77537
553,-419,24.118,3.75525,0,0,0,0,0,0,0,-1,1777,1443,24.1181,-3.75526
560,-419,11.8199,8.26343,0,0,0,0,0,0,0,-1,1784,1443,11.82,-8.26341
567,-419,21.5143,8.74719,0,0,0,0,0,0,0,-1,1791,1443,21.5143,-8.74722
574,-419,19.5886,6.46155,0,0,0,0,0,0,0,-1,1798,1443,19.5886,-6.46157
581,-419,20.7926,11.4265,0,0,0,0,0,0,0,-1,1805,1443,20.7926,-11.4265
588,-419,19.4242,12.5363,0,0,0,0,0,0,0,-1,1812,1443,19.4242,-12.5362
595,-419,22.9375,16.0151,0,0,0,0,0,0,0,-1,1819,1443,22.9375,-16.0152
602,-419,24.0894,15.9435,0,0,0,0,0,0,0,-1,1826,1443,24.0894,-15.9434
609,-419,24.0796,15.4353,0.00311702,0.00323819,-0.00278673,0.00596499,0.000390217,-0.796266,0.00385318,0.017961,1833,1443,24.0796,-15.4353
616,-419,24.0565,14.9772,0.00244924,0.00221822,-0.00200602,0.00434308,0.000324382,-0.75664,0.00279354,0.0124477,1840,1443,24.0565,-14.9772
623,-419,24.0557,14.5028,0.00196711,0.00148616,-0.00141893,0.0031658,0.000287478,-0.701457,0.00202153,0.0107931,1847,1443,24.0557,-14.5028
630,-419,24.0789,13.9952,0.00170272,0.000887526,-0.000968539,0.00234594,0.000244314,-0.586228,0.00148922,0.0138575,1854,1443,24.0789,-13.9953
637,-419,24.0621,13.5396,0.00147365,0.000428005,-0.000549098,0.00170902,0.000192638,-0.404953,0.00108087,0.0145492,1861,1443,24.0621,-13.5396
644,-419,24.0299,13.0962,0.00135256,3.64035e-05,-0.00013552,0.00136637,2.25945e-05,-0.101547,0.000903478,0.0122989,1868,1443,24.0299,-13.0962
651,-419,24.0184,12.6393,0.00132062,-0.000242971,0.000212692,0.00134904,-0.000271387,0.132813,0.00100215,0.0119992,1875,1443,24.0184,-12.6393
658,-419,24.0032,12.1396,0.00127007,-0.000546027,0.000650124,0.00147881,-0.000754766,0.310677,0.00131195,0.0135274,1882,1443,24.0032,-12.1397
665,-419,23.9923,11.6841,0.00116233,-0.00096649,0.00125863,0.00174629,-0.00155045,0.434404,0.00190449,0.0202352,1889,1443,23.9923,-11.6841
672,-419,24.0166,11.1655,0.000906146,-0.00147376,0.00211841,0.00214594,-0.00271355,0.5295,0.002812,0.0284137,1896,1443,24.0166,-11.1656
679,-419,24.1116,10.7074,0,0,0,0,0,0,0,-1,1903,1443,24.1116,-10.7074
686,-419,17.4127,8.03076,0,0,0,0,0,0,0,-1,1910,1443,17.4127,-8.03071
693,-419,8.76086,5.60535,0,0,0,0,0,0,0,-1,1917,1443,8.76091,-5.6054
700,-419,11.0498,4.85156,0,0,0,0,0,0,0,-1,1924,1443,11.0498,-4.85153
707,-419,9.5752,1.80042,0,0,0,0,0,0,0,-1,1931,1443,9.57523,-1.80037
714,-419,5.77576,-1.25061,0,0,0,0,0,0,0,-1,1938,1443,5.7757,1.25056
721,-419,0,0,0,0,0,0,0,0,0,-1,1945,1443,0,0
728,-419,0,0,0,0,0,0,0,0,0,-1,1952,1443,0,0
735,-419,0,0,0,0,0,0,0,0,0,-1,1959,1443,0,0
742,-419,0,0,0,0,0,0,0,0,0,-1,1966,1443,0,0
749,-419,0,0,0,0,0,0,0,0,0,-1,1973,1443,0,0
756,-419,0,0,0,0,0,0,0,0,0,-1,1980,1443,0,0
763,-419,0,0,0,0,0,0,0,0,0,-1,1987,1443,0,0
770,-419,0,0,0,0,0,0,0,0,0,-1,1994,1443,0,0
777,-419,0,0,0,0,0,0,0,0,0,-1,2001,1443,0,0
784,-419,0,0,0,0,0,0,0,0,0,-1,2008,1443,0,0
791,-419,0,0,0,0,0,0,0,0,0,-1,2015,1443,0,0
798,-419,0,0,0,0,0,0,0,0,0,-1,2022,1443,0,0
805,-419,0,0,0,0,0,0,0,0,0,-1,2029,1443,0,0
812,-419,0,0,0,0,0,0,0,0,0,-1,2036,1443,0,0
-700,-426,0,0,0,0,0,0,0,0,0,-1,524,1450,0,0
-693,-426,0,0,0,0,0,0,0,0,0,-1,531,1450,0,0
-686,-426,0,0,0,0,0,0,0,0,0,-1,538,1450,0,0
-679,-426,0,0,0,0,0,0,0,0,0,-1,545,1450,0,0
-672,-426,0,0,0,0,0,0,0,0,0,-1,552,1450,0,0
-665,-426,0,0,0,0,0,0,0,0,0,-1,559,1450,0,0
-658,-426,0,0,0,0,0,0,0,0,0,-1,566,1450,0,0
-651,-426,0,0,0,0,0,0,0,0,0,-1,573,1450,0,0
-644,-426,0,0,0,0,0,0,0,0,0,-1,580,1450,0,0
-637,-426,0,0,0,0,0,0,0,0,0,-1,587,1450,0,0
-630,-426,0,0,0,0,0,0,0,0,0,-1,594,1450,0,0
-623,-426,0,0,0,0,0,0,0,0,0,-1,601,1450,0,0
-616,-426,0,0,0,0,0,0,0,0,0,-1,608,1450,0,0
-609,-426,0,0,0,0,0,0,0,0,0,-1,615,1450,0,0
-602,-426,0,0,0,0,0,0,0,0,0,-1,622,1450,0,0
-595,-426,0,0,0,0,0,0,0,0,0,-1,629,1450,0,0
-588,-426,-10.184,-0.554321,0,0,0,0,0,0,0,-1,636,1450,-10.184,0.554321
-581,-426,-7.3349,1.48157,0,0,0,0,0,0,0,-1,643,1450,-7.33491,-1.48152
-574,-426,-5.02856,2.89319,0,0,0,0,0,0,0,-1,650,1450,-5.02858,-2.89319
-567,-426,-3.04797,1.72644,0,0,0,0,0,0,0,-1,657,1450,-3.04797,-1.72639
-560,-426,-5.55682,3.44397,0,0,0,0,0,0,0,-1,664,1450,-5.55684,-3.44399
-553,-426,-4.67017,6.66614,0,0,0,0,0,0,0,-1,671,1450,-4.67015,-6.66619
-546,-426,-7.58752,8.28882,0,0,0,0,0,0,0,-1,678,1450,-7.58752,-8.28878
-539,-426,-8.95599,9.36572,0,0,0,0,0,0,0,-1,685,1450,-8.95597,-9.36577
-532,-426,-9.08099,9.73608,-0.00310505,-0.00122084,-0.00195455,6.8075e-06,-0.0043327,-1.00997,0.00289074,0.0452357,692,1450,-9.08097,-9.7361
-525,-426,-9.24915,10.1945,-0.00228868,-0.00115975,-0.00157922,-4.71419e-05,-0.00340128,-0.957038,0.00225197,0.0186308,699,1450,-9.24917,-10.1945
-518,-426,-9.24451,10.7556,-0.00131306,-0.000822532,-0.00102337,-1.54414e-05,-0.00212015,-0.903011,0.00140831,0.0173196,706,1450,-9.24452,-10.7556
-511,-426,-9.25421,11.2957,-0.000260014,-0.00019285,-0.000317034,9.23758e-05,-0.000545239,-0.838164,0.000397875,0.0168228,713,1450,-9.25423,-11.2956
-504,-426,-9.28046,11.7778,0.000908732,0.000677439,0.000575873,0.00138046,0.000205715,0.686307,0.000859973,0.0154241,720,1450,-9.28048,-11.7779
-497,-426,-9.27063,12.2708,0.00230293,0.00177729,0.00167805,0.00373862,0.0003416,0.707718,0.00238671,0.012571,727,1450,-9.27063,-12.2707
-490,-426,-9.28168,12.7668,0.00400085,0.00318319,0.00305986,0.00667907,0.000504966,0.718986,0.0042943,0.0128827,734,1450,-9.28169,-12.7668
-483,-426,-9.32538,13.2925,0.00607705,0.00482738,0.00478199,0.0102749,0.000629573,0.720434,0.00664999,0.0127984,741,1450,-9.32539,-13.2925
-476,-426,-9.32336,13.7976,0.00847443,0.00676497,0.00679613,0.0144694,0.000770036,0.722843,0.00940008,0.00988505,748,1450,-9.32337,-13.7976
-469,-426,-9.32916,14.295,0.0114884,0.00899774,0.00930432,0.0196303,0.000855765,0.718872,0.0128112,0.00949814,755,1450,-9.32919,-14.2951
-462,-426,-9.09076,15.02,0.015287,0.0117011,0.0123827,0.0260059,0.00098226,0.7135,0.0170193,0.0417972,762,1450,-9.09074,-15.02
-455,-426,-8.78741,15.8175,0,0,0,0,0,0,0,-1,769,1450,-8.7874,-15.8175
-448,-426,-6.46545,10.1322,0,0,0,0,0,0,0,-1,776,1450,-6.46543,-10.1322
-441,-426,-10.9547,11.4747,0,0,0,0,0,0,0,-1,783,1450,-10.9546,-11.4748
-434,-426,-10.4998,13.6189,0,0,0,0,0,0,0,-1,790,1450,-10.4997,-13.6189
-427,-426,-9.36627,13.7396,0,0,0,0,0,0,0,-1,797,1450,-9.36628,-13.7396
-420,-426,-5.33765,7.95044,0,0,0,0,0,0,0,-1,804,1450,-5.33766,-7.95041
-413,-426,-10.1148,5.0415,0,0,0,0,0,0,0,-1,811,1450,-10.1148,-5.04152
-406,-426,-11.4199,3.6438,0,0,0,0,0,0,0,-1,818,1450,-11.4198,-3.64382
-399,-426,-12.7595,2.29004,0,0,0,0,0,0,0,-1,825,1450,-12.7595,-2.29003
-392,-426,-12.4147,0.537354,0,0,0,0,0,0,0,-1,832,1450,-12.4147,-0.53731
-385,-426,0,0,0,0,0,0,0,0,0,-1,839,1450,0,0
-378,-426,0,0,0,0,0,0,0,0,0,-1,846,1450,0,0
-371,-426,0,0,0,0,0,0,0,0,0,-1,853,1450,0,0
-364,-426,0,0,0,0,0,0,0,0,0,-1,860,1450,0,0
-357,-426,0,0,0,0,0,0,0,0,0,-1,867,1450,0,0
-350,-426,0,0,0,0,0,0,0,0,0,-1,874,1450,0,0
-343,-426,0,0,0,0,0,0,0,0,0,-1,881,1450,0,0
-336,-426,0,0,0,0,0,0,0,0,0,-1,888,1450,0,0
-329,-426,0,0,0,0,0,0,0,0,0,-1,895,1450,0,0
-322,-426,0,0,0,0,0,0,0,0,0,-1,902,1450,0,0
-315,-426,0,0,0,0,0,0,0,0,0,-1,909,1450,0,0
-308,-426,0,0,0,0,0,0,0,0,0,-1,916,1450,0,0
-301,-426,0,0,0,0,0,0,0,0,0,-1,923,1450,0,0
-294,-426,0,0,0,0,0,0,0,0,0,-1,930,1450,0,0
-287,-426,0,0,0,0,0,0,0,0,0,-1,937,1450,0,0
-280,-426,0,0,0,0,0,0,0,0,0,-1,944,1450,0,0
-273,-426,0,0,0,0,0,0,0,0,0,-1,951,1450,0,0
-266,-426,0,0,0,0,0,0,0,0,0,-1,958,1450,0,0
-259,-426,0,0,0,0,0,0,0,0,0,-1,965,1450,0,0
-252,-426,0,0,0,0,0,0,0,0,0,-1,972,1450,0,0
-245,-426,0,0,0,0,0,0,0,0,0,-1,979,1450,0,0
-238,-426,0,0,0,0,0,0,0,0,0,-1,986,1450,0,0
-231,-426,0,0,0,0,0,0,0,0,0,-1,993,1450,0,0
-224,-426,0,0,0,0,0,0,0,0,0,-1,1000,1450,0,0
-217,-426,0,0,0,0,0,0,0,0,0,-1,1007,1450,0,0
-210,-426,0,0,0,0,0,0,0,0,0,-1,1014,1450,0,0
-203,-426,0,0,0,0,0,0,0,0,0,-1,1021,1450,0,0
-196,-426,0,0,0,0,0,0,0,0,0,-1,1028,1450,0,0
-189,-426,0,0,0,0,0,0,0,0,0,-1,1035,1450,0,0
-182,-426,0,0,0,0,0,0,0,0,0,-1,1042,1450,0,0
-175,-426,0,0,0,0,0,0,0,0,0,-1,1049,1450,0,0
-168,-426,0,0,0,0,0,0,0,0,0,-1,1056,1450,0,0
-161,-426,0,0,0,0,0,0,0,0,0,-1,1063,1450,0,0
-154,-426,0,0,0,0,0,0,0,0,0,-1,1070,1450,0,0
-147,-426,0,0,0,0,0,0,0,0,0,-1,1077,1450,0,0
-140,-426,0,0,0,0,0,0,0,0,0,-1,1084,1450,0,0
-133,-426,0,0,0,0,0,0,0,0,0,-1,1091,1450,0,0
-126,-426,0,0,0,0,0,0,0,0,0,-1,1098,1450,0,0
-119,-426,0,0,0,0,0,0,0,0,0,-1,1105,1450,0,0
-112,-426,0,0,0,0,0,0,0,0,0,-1,1112,1450,0,0
-105,-426,0,0,0,0,0,0,0,0,0,-1,1119,1450,0,0
-98,-426,0,0,0,0,0,0,0,0,0,-1,1126,1450,0,0
-91,-426,0,0,0,0,0,0,0,0,0,-1,1133,1450,0,0
-84,-426,0,0,0,0,0,0,0,0,0,-1,1140,1450,0,0
-77,-426,0,0,0,0,0,0,0,0,0,-1,1147,1450,0,0
-70,-426,0,0,0,0,0,0,0,0,0,-1,1154,1450,0,0
-63,-426,0,0,0,0,0,0,0,0,0,-1,1161,1450,0,0
-56,-426,0,0,0,0,0,0,0,0,0,-1,1168,1450,0,0
-49,-426,0,0,0,0,0,0,0,0,0,-1,1175,1450,0,0
-42,-426,0,0,0,0,0,0,0,0,0,-1,1182,1450,0,0
-35,-426,0,0,0,0,0,0,0,0,0,-1,1189,1450,0,0
-28,-426,0,0,0,0,0,0,0,0,0,-1,1196,1450,0,0
-21,-426,0,0,0,0,0,0,0,0,0,-1,1203,1450,0,0
-14,-426,0,0,0,0,0,0,0,0,0,-1,1210,1450,0,0
-7,-426,0,0,0,0,0,0,0,0,0,-1,1217,1450,0,0
0,-426,0,0,0,0,0,0,0,0,0,-1,1224,1450,0,0
7,-426,0,0,0,0,0,0,0,0,0,-1,1231,1450,0,0
14,-426,0,0,0,0,0,0,0,0,0,-1,1238,1450,0,0
21,-426,0,0,0,0,0,0,0,0,0,-1,1245,1450,0,0
28,-426,0,0,0,0,0,0,0,0,0,-1,1252,1450,0,0
35,-426,0,0,0,0,0,0,0,0,0,-1,1259,1450,0,0
42,-426,0,0,0,0,0,0,0,0,0,-1,1266,1450,0,0
49,-426,0,0,0,0,0,0,0,0,0,-1,1273,1450,0,0
56,-426,0,0,0,0,0,0,0,0,0,-1,1280,1450,0,0
63,-426,0,0,0,0,0,0,0,0,0,-1,1287,1450,0,0
70,-426,0,0,0,0,0,0,0,0,0,-1,1294,1450,0,0
77,-426,0,0,0,0,0,0,0,0,0,-1,1301,1450,0,0
84,-426,0,0,0,0,0,0,0,0,0,-1,1308,1450,0,0
91,-426,0,0,0,0,0,0,0,0,0,-1,1315,1450,0,0
98,-426,0,0,0,0,0,0,0,0,0,-1,1322,1450,0,0
105,-426,0,0,0,0,0,0,0,0,0,-1,1329,1450,0,0
112,-426,0,0,0,0,0,0,0,0,0,-1,1336,1450,0,0
119,-426,0,0,0,0,0,0,0,0,0,-1,1343,1450,0,0
126,-426,0,0,0,0,0,0,0,0,0,-1,1350,1450,0,0
133,-426,0,0,0,0,0,0,0,0,0,-1,1357,1450,0,0
140,-426,0,0,0,0,0,0,0,0,0,-1,1364,1450,0,0
147,-426,0,0,0,0,0,0,0,0,0,-1,1371,1450,0,0
154,-426,0,0,0,0,0,0,0,0,0,-1,1378,1450,0,0
161,-426,0,0,0,0,0,0,0,0,0,-1,1385,1450,0,0
168,-426,0,0,0,0,0,0,0,0,0,-1,1392,1450,0,0
175,-426,0,0,0,0,0,0,0,0,0,-1,1399,1450,0,0
182,-426,0,0,0,0,0,0,0,0,0,-1,1406,1450,0,0
189,-426,0,0,0,0,0,0,0,0,0,-1,1413,1450,0,0
196,-426,0,0,0,0,0,0,0,0,0,-1,1420,1450,0,0
203,-426,0,0,0,0,0,0,0,0,0,-1,1427,1450,0,0
210,-426,0,0,0,0,0,0,0,0,0,-1,1434,1450,0,0
217,-426,0,0,0,0,0,0,0,0,0,-1,1441,1450,0,0
224,-426,0,0,0,0,0,0,0,0,0,-1,1448,1450,0,0
231,-426,0,0,0,0,0,0,0,0,0,-1,1455,1450,0,0
238,-426,0,0,0,0,0,0,0,0,0,-1,1462,1450,0,0
245,-426,0,0,0,0,0,0,0,0,0,-1,1469,1450,0,0
252,-426,0,0,0,0,0,0,0,0,0,-1,1476,1450,0,0
259,-426,0,0,0,0,0,0,0,0,0,-1,1483,1450,0,0
266,-426,0,0,0,0,0,0,0,0,0,-1,1490,1450,0,0
273,-426,0,0,0,0,0,0,0,0,0,-1,1497,1450,0,0
280,-426,0,0,0,0,0,0,0,0,0,-1,1504,1450,0,0
287,-426,0,0,0,0,0,0,0,0,0,-1,1511,1450,0,0
294,-426,0,0,0,0,0,0,0,0,0,-1,1518,1450,0,0
301,-426,0,0,0,0,0,0,0,0,0,-1,1525,1450,0,0
308,-426,0,0,0,0,0,0,0,0,0,-1,1532,1450,0,0
315,-426,0,0,0,0,0,0,0,0,0,-1,1539,1450,0,0
322,-426,0,0,0,0,0,0,0,0,0,-1,1546,1450,0,0
329,-426,0,0,0,0,0,0,0,0,0,-1,1553,1450,0,0
336,-426,0,0,0,0,0,0,0,0,0,-1,1560,1450,0,0
343,-426,0,0,0,0,0,0,0,0,0,-1,1567,1450,0,0
350,-426,0,0,0,0,0,0,0,0,0,-1,1574,1450,0,0
357,-426,0,0,0,0,0,0,0,0,0,-1,1581,1450,0,0
364,-426,0,0,0,0,0,0,0,0,0,-1,1588,1450,0,0
371,-426,0,0,0,0,0,0,0,0,0,-1,1595,1450,0,0
378,-426,0,0,0,0,0,0,0,0,0,-1,1602,1450,0,0
385,-426,0,0,0,0,0,0,0,0,0,-1,1609,1450,0,0
392,-426,0,0,0,0,0,0,0,0,0,-1,1616,1450,0,0
399,-426,0,0,0,0,0,0,0,0,0,-1,1623,1450,0,0
406,-426,0,0,0,0,0,0,0,0,0,-1,1630,1450,0,0
413,-426,0,0,0,0,0,0,0,0,0,-1,1637,1450,0,0
420,-426,0,0,0,0,0,0,0,0,0,-1,1644,1450,0,0
427,-426,0,0,0,0,0,0,0,0,0,-1,1651,1450,0,0
434,-426,0,0,0,0,0,0,0,0,0,-1,1658,1450,0,0
441,-426,0,0,0,0,0,0,0,0,0,-1,1665,1450,0,0
448,-426,0,0,0,0,0,0,0,0,0,-1,1672,1450,0,0
455,-426,0,0,0,0,0,0,0,0,0,-1,1679,1450,0,0
462,-426,0,0,0,0,0,0,0,0,0,-1,1686,1450,0,0
469,-426,0,0,0,0,0,0,0,0,0,-1,1693,1450,0,0
476,-426,0,0,0,0,0,0,0,0,0,-1,1700,1450,0,0
483,-426,0,0,0,0,0,0,0,0,0,-1,1707,1450,0,0
490,-426,0,0,0,0,0,0,0,0,0,-1,1714,1450,0,0
497,-426,0,0,0,0,0,0,0,0,0,-1,1721,1450,0,0
504,-426,20.6873,3.38367,0,0,0,0,0,0,0,-1,1728,1450,20.6873,-3.38361
511,-426,19.6676,3.53748,0,0,0,0,0,0,0,-1,1735,1450,19.6676,-3.53749
518,-426,18.6853,3.32288,0,0,0,0,0,0,0,-1,1742,1450,18.6853,-3.3229
525,-426,18.9552,2.71033,0,0,0,0,0,0,0,-1,1749,1450,18.9552,-2.71034
532,-426,19.4333,2.70764,0,0,0,0,0,0,0,-1,1756,1450,19.4334,-2.70764
539,-426,25.1482,2.56287,0,0,0,0,0,0,0,-1,1763,1450,25.1482,-2.56286
546,-426,24.1136,3.75659,0,0,0,0,0,0,0,-1,1770,1450,24.1136,-3.7566
553,-426,23.0791,4.95032,0,0,0,0,0,0,0,-1,1777,1450,23.0791,-4.95034
560,-426,12.9688,11.8289,0,0,0,0,0,0,0,-1,1784,1450,12.9688,-11.8288
567,-426,13.6388,11.5623,0,0,0,0,0,0,0,-1,1791,1450,13.6388,-11.5623
574,-426,14.3943,11.0286,0,0,0,0,0,0,0,-1,1798,1450,14.3942,-11.0285
581,-426,16.3879,11.4653,0,0,0,0,0,0,0,-1,1805,1450,16.3879,-11.4653
588,-426,18.1212,12.5547,0,0,0,0,0,0,0,-1,1812,1450,18.1212,-12.5547
595,-426,23.4349,16.4272,0,0,0,0,0,0,0,-1,1819,1450,23.4349,-16.4272
602,-426,23.5527,15.9458,0.00363814,0.00392828,-0.00322052,0.007007,0.000559423,-0.807906,0.00449647,0.0312266,1826,1450,23.5527,-15.9458
609,-426,23.6102,15.4453,0.00290982,0.00282362,-0.00241643,0.00528354,0.000449904,-0.776481,0.00338238,0.0133479,1833,1450,23.6102,-15.4453
616,-426,23.5889,14.9651,0.00231624,0.00196499,-0.00177738,0.00392666,0.000354579,-0.736153,0.00250795,0.0149584,1840,1450,23.5889,-14.9651
623,-426,23.5941,14.5018,0.00194303,0.00129819,-0.00127436,0.00293513,0.000306098,-0.661496,0.00186312,0.0126071,1847,1450,23.5941,-14.5018
630,-426,23.6406,14.0183,0.00177084,0.000716334,-0.000885459,0.00227414,0.000213038,-0.516861,0.00145031,0.0129936,1854,1450,23.6406,-14.0183
637,-426,23.6117,13.5535,0.00159904,0.000288092,-0.000506907,0.00177218,0.000114952,-0.329138,0.00114506,0.01362,1861,1450,23.6117,-13.5534
644,-426,23.5626,13.111,0.00153682,-7.5832e-05,-0.000133531,0.0015478,-8.68139e-05,-0.0820575,0.00106199,0.0134834,1868,1450,23.5626,-13.1109
651,-426,23.537,12.6439,0.00154835,-0.000297743,0.000167003,0.00156333,-0.000312729,0.0894949,0.0011606,0.0125103,1875,1450,23.537,-12.644
658,-426,23.5493,12.1299,0.00156267,-0.000527281,0.000535677,0.00169197,-0.000656581,0.236847,0.00139917,0.0117892,1882,1450,23.5493,-12.1299
665,-426,23.5669,11.5972,0.00149889,-0.000854379,0.00109795,0.00193159,-0.00128708,0.375409,0.00187068,0.0220185,1889,1450,23.5669,-11.5972
672,-426,23.6454,11.0681,0,0,0,0,0,0,0,-1,1896,1450,23.6454,-11.0681
679,-426,17.1522,8.15784,0,0,0,0,0,0,0,-1,1903,1450,17.1522,-8.15784
686,-426,13.5326,8.03711,0,0,0,0,0,0,0,-1,1910,1450,13.5326,-8.03717
693,-426,11.8607,6.45215,0,0,0,0,0,0,0,-1,1917,1450,11.8607,-6.45215
700,-426,9.24304,2.95447,0,0,0,0,0,0,0,-1,1924,1450,9.24305,-2.95442
707,-426,8.44519,-1.21448,0,0,0,0,0,0,0,-1,1931,1450,8.44514,1.21454
714,-426,0,0,0,0,0,0,0,0,0,-1,1938,1450,0,0
721,-426,0,0,0,0,0,0,0,0,0,-1,1945,1450,0,0
728,-426,0,0,0,0,0,0,0,0,0,-1,1952,1450,0,0
735,-426,0,0,0,0,0,0,0,0,0,-1,1959,1450,0,0
742,-426,0,0,0,0,0,0,0,0,0,-1,1966,1450,0,0
749,-426,0,0,0,0,0,0,0,0,0,-1,1973,1450,0,0
756,-426,0,0,0,0,0,0,0,0,0,-1,1980,1450,0,0
763,-426,0,0,0,0,0,0,0,0,0,-1,1987,1450,0,0
770,-426,0,0,0,0,0,0,0,0,0,-1,1994,1450,0,0
777,-426,0,0,0,0,0,0,0,0,0,-1,2001,1450,0,0
784,-426,0,0,0,0,0,0,0,0,0,-1,2008,1450,0,0
791,-426,0,0,0,0,0,0,0,0,0,-1,2015,1450,0,0
798,-426,0,0,0,0,0,0,0,0,0,-1,2022,1450,0,0
805,-426,0,0,0,0,0,0,0,0,0,-1,2029,1450,0,0
812,-426,0,0,0,0,0,0,0,0,0,-1,2036,1450,0,0
-700,-433,0,0,0,0,0,0,0,0,0,-1,524,1457,0,0
-693,-433,0,0,0,0,0,0,0,0,0,-1,531,1457,0,0
-686,-433,0,0,0,0,0,0,0,0,0,-1,538,1457,0,0
-679,-433,0,0,0,0,0,0,0,0,0,-1,545,1457,0,0
-672,-433,0,0,0,0,0,0,0,0,0,-1,552,1457,0,0
-665,-433,0,0,0,0,0,0,0,0,0,-1,559,1457,0,0
-658,-433,0,0,0,0,0,0,0,0,0,-1,566,1457,0,0
-651,-433,0,0,0,0,0,0,0,0,0,-1,573,1457,0,0
-644,-433,0,0,0,0,0,0,0,0,0,-1,580,1457,0,0
-637,-433,0,0,0,0,0,0,0,0,0,-1,587,1457,0,0
-630,-433,0,0,0,0,0,0,0,0,0,-1,594,1457,0,0
-623,-433,0,0,0,0,0,0,0,0,0,-1,601,1457,0,0
-616,-433,0,0,0,0,0,0,0,0,0,-1,608,1457,0,0
-609,-433,0,0,0,0,0,0,0,0,0,-1,615,1457,0,0
-602,-433,0,0,0,0,0,0,0,0,0,-1,622,1457,0,0
-595,-433,0,0,0,0,0,0,0,0,0,-1,629,1457,0,0
-588,-433,-10.3756,-0.467041,0,0,0,0,0,0,0,-1,636,1457,-10.3756,0.467081
-581,-433,-8.12201,0.884033,0,0,0,0,0,0,0,-1,643,1457,-8.12204,-0.884056
-574,-433,-5.86847,2.23523,0,0,0,0,0,0,0,-1,650,1457,-5.86844,-2.23519
-567,-433,-5.42255,1.16833,0,0,0,0,0,0,0,-1,657,1457,-5.42254,-1.1683
-560,-433,-6.84027,1.86414,0,0,0,0,0,0,0,-1,664,1457,-6.84026,-1.86412
-553,-433,-5.74017,1.79163,0,0,0,0,0,0,0,-1,671,1457,-5.74015,-1.79166
-546,-433,-6.9668,8.25073,0,0,0,0,0,0,0,-1,678,1457,-6.96679,-8.25074
-539,-433,-7.3136,8.75659,0,0,0,0,0,0,0,-1,685,1457,-7.31362,-8.75659
-532,-433,-8.62091,9.55688,0,0,0,0,0,0,0,-1,692,1457,-8.62089,-9.55688
-525,-433,-8.67987,10.2924,-0.00153977,-0.000891806,-0.000829798,-0.000324986,-0.00210659,-0.971515,0.00130958,0.0384178,699,1457,-8.67986,-10.2924
-518,-433,-8.73596,10.7897,-0.000567533,-0.000713297,-0.000446028,-0.000188472,-0.00109236,-0.704413,0.000674254,0.0177942,706,1457,-8.73594,-10.7896
-511,-433,-8.74292,11.3004,0.000304474,-0.000248695,1.86349e-05,0.000305101,-0.000249322,0.0336368,0.000320636,0.0167514,713,1457,-8.7429,-11.3004
-504,-433,-8.73584,11.7792,0.00120309,0.000446178,0.000648233,0.00157526,7.40119e-05,0.521176,0.00102639,0.0131678,720,1457,-8.73584,-11.7791
-497,-433,-8.73425,12.265,0.00221057,0.00134297,0.00144307,0.00328364,0.000269907,0.639391,0.0021049,0.0130507,727,1457,-8.73428,-12.265
-490,-433,-8.7699,12.8137,0.0034594,0.00250141,0.00248511,0.00551126,0.000449556,0.690192,0.00353386,0.0158137,734,1457,-8.76992,-12.8137
-483,-433,-8.81262,13.3585,0.00506441,0.00385277,0.00384394,0.00834997,0.000567204,0.707239,0.00538754,0.0177054,741,1457,-8.81263,-13.3586
-476,-433,-8.81842,13.8507,0.00696366,0.00542146,0.00544833,0.0116952,0.000689927,0.7151,0.00757729,0.0117733,748,1457,-8.8184,-13.8507
-469,-433,-8.83533,14.34,0.00936997,0.00717189,0.00746028,0.0158117,0.000730132,0.712265,0.0103064,0.0102882,755,1457,-8.83535,-14.34
-462,-433,-8.86548,14.8405,0.0124163,0.00927764,0.00994971,0.0209197,0.000774263,0.707179,0.0136957,0.0138082,762,1457,-8.86549,-14.8405
-455,-433,-8.58588,15.5896,0,0,0,0,0,0,0,-1,769,1457,-8.58587,-15.5896
-448,-433,-6.94812,14.5563,0,0,0,0,0,0,0,-1,776,1457,-6.94809,-14.5562
-441,-433,-9.97485,14.0258,0,0,0,0,0,0,0,-1,783,1457,-9.97488,-14.0257
-434,-433,-9.41205,14.2297,0,0,0,0,0,0,0,-1,790,1457,-9.41205,-14.2297
-427,-433,-8.67419,13.6827,0,0,0,0,0,0,0,-1,797,1457,-8.67422,-13.6827
-420,-433,-5.74658,9.49121,0,0,0,0,0,0,0,-1,804,1457,-5.7466,-9.49119
-413,-433,-3.63074,5.5813,0,0,0,0,0,0,0,-1,811,1457,-3.63072,-5.58129
-406,-433,-12.3472,4.69373,0,0,0,0,0,0,0,-1,818,1457,-12.3472,-4.69374
-399,-433,-12.055,2.83594,0,0,0,0,0,0,0,-1,825,1457,-12.055,-2.83594
-392,-433,-12.9772,1.6228,0,0,0,0,0,0,0,-1,832,1457,-12.9772,-1.62282
-385,-433,-13.7999,0.514771,0,0,0,0,0,0,0,-1,839,1457,-13.7999,-0.514788
-378,-433,0,0,0,0,0,0,0,0,0,-1,846,1457,0,0
-371,-433,0,0,0,0,0,0,0,0,0,-1,853,1457,0,0
-364,-433,0,0,0,0,0,0,0,0,0,-1,860,1457,0,0
-357,-433,0,0,0,0,0,0,0,0,0,-1,867,1457,0,0
-350,-433,0,0,0,0,0,0,0,0,0,-1,874,1457,0,0
-343,-433,0,0,0,0,0,0,0,0,0,-1,881,1457,0,0
-336,-433,0,0,0,0,0,0,0,0,0,-1,888,1457,0,0
-329,-433,0,0,0,0,0,0,0,0,0,-1,895,1457,0,0
-322,-433,0,0,0,0,0,0,0,0,0,-1,902,1457,0,0
-315,-433,0,0,0,0,0,0,0,0,0,-1,909,1457,0,0
-308,-433,0,0,0,0,0,0,0,0,0,-1,916,1457,0,0
-301,-433,0,0,0,0,0,0,0,0,0,-1,923,1457,0,0
-294,-433,0,0,0,0,0,0,0,0,0,-1,930,1457,0,0
-287,-433,0,0,0,0,0,0,0,0,0,-1,937,1457,0,0
-280,-433,0,0,0,0,0,0,0,0,0,-1,944,1457,0,0
-273,-433,0,0,0,0,0,0,0,0,0,-1,951,1457,0,0
-266,-433,0,0,0,0,0,0,0,0,0,-1,958,1457,0,0
-259,-433,0,0,0,0,0,0,0,0,0,-1,965,1457,0,0
-252,-433,0,0,0,0,0,0,0,0,0,-1,972,1457,0,0
-245,-433,0,0,0,0,0,0,0,0,0,-1,979,1457,0,0
-238,-433,0,0,0,0,0,0,0,0,0,-1,986,1457,0,0
-231,-433,0,0,0,0,0,0,0,0,0,-1,993,1457,0,0
-224,-433,0,0,0,0,0,0,0,0,0,-1,1000,1457,0,0
-217,-433,0,0,0,0,0,0,0,0,0,-1,1007,1457,0,0
-210,-433,0,0,0,0,0,0,0,0,0,-1,1014,1457,0,0
-203,-433,0,0,0,0,0,0,0,0,0,-1,1021,1457,0,0
-196,-433,0,0,0,0,0,0,0,0,0,-1,1028,1457,0,0
-189,-433,0,0,0,0,0,0,0,0,0,-1,1035,1457,0,0
-182,-433,0,0,0,0,0,0,0,0,0,-1,1042,1457,0,0
-175,-433,0,0,0,0,0,0,0,0,0,-1,1049,1457,0,0
-168,-433,0,0,0,0,0,0,0,0,0,-1,1056,1457,0,0
-161,-433,0,0,0,0,0,0,0,0,0,-1,1063,1457,0,0
-154,-433,0,0,0,0,0,0,0,0,0,-1,1070,1457,0,0
-147,-433,0,0,0,0,0,0,0,0,0,-1,1077,1457,0,0
-140,-433,0,0,0,0,0,0,0,0,0,-1,1084,1457,0,0
-133,-433,0,0,0,0,0,0,0,0,0,-1,1091,1457,0,0
-126,-433,0,0,0,0,0,0,0,0,0,-1,1098,1457,0,0
-119,-433,0,0,0,0,0,0,0,0,0,-1,1105,1457,0,0
-112,-433,0,0,0,0,0,0,0,0,0,-1,1112,1457,0,0
-105,-433,0,0,0,0,0,0,0,0,0,-1,1119,1457,0,0
-98,-433,0,0,0,0,0,0,0,0,0,-1,1126,1457,0,0
-91,-433,0,0,0,0,0,0,0,0,0,-1,1133,1457,0,0
-84,-433,0,0,0,0,0,0,0,0,0,-1,1140,1457,0,0
-77,-433,0,0,0,0,0,0,0,0,0,-1,1147,1457,0,0
-70,-433,0,0,0,0,0,0,0,0,0,-1,1154,1457,0,0
-63,-433,0,0,0,0,0,0,0,0,0,-1,1161,1457,0,0
-56,-433,0,0,0,0,0,0,0,0,0,-1,1168,1457,0,0
-49,-433,0,0,0,0,0,0,0,0,0,-1,1175,1457,0,0
-42,-433,0,0,0,0,0,0,0,0,0,-1,1182,1457,0,0
-35,-433,0,0,0,0,0,0,0,0,0,-1,1189,1457,0,0
-28,-433,0,0,0,0,0,0,0,0,0,-1,1196,1457,0,0
-21,-433,0,0,0,0,0,0,0,0,0,-1,1203,1457,0,0
-14,-433,0,0,0,0,0,0,0,0,0,-1,1210,1457,0,0
-7,-433,0,0,0,0,0,0,0,0,0,-1,1217,1457,0,0
0,-433,0,0,0,0,0,0,0,0,0,-1,1224,1457,0,0
7,-433,0,0,0,0,0,0,0,0,0,-1,1231,1457,0,0
14,-433,0,0,0,0,0,0,0,0,0,-1,1238,1457,0,0
21,-433,0,0,0,0,0,0,0,0,0,-1,1245,1457,0,0
28,-433,0,0,0,0,0,0,0,0,0,-1,1252,1457,0,0
35,-433,0,0,0,0,0,0,0,0,0,-1,1259,1457,0,0
42,-433,0,0,0,0,0,0,0,0,0,-1,1266,1457,0,0
49,-433,0,0,0,0,0,0,0,0,0,-1,1273,1457,0,0
56,-433,0,0,0,0,0,0,0,0,0,-1,1280,1457,0,0
63,-433,0,0,0,0,0,0,0,0,0,-1,1287,1457,0,0
70,-433,0,0,0,0,0,0,0,0,0,-1,1294,1457,0,0
77,-433,0,0,0,0,0,0,0,0,0,-1,1301,1457,0,0
84,-433,0,0,0,0,0,0,0,0,0,-1,1308,1457,0,0
91,-433,0,0,0,0,0,0,0,0,0,-1,1315,1457,0,0
98,-433,0,0,0,0,0,0,0,0,0,-1,1322,1457,0,0
105,-433,0,0,0,0,0,0,0,0,0,-1,1329,1457,0,0
112,-433,0,0,0,0,0,0,0,0,0,-1,1336,1457,0,0
119,-433,0,0,0,0,0,0,0,0,0,-1,1343,1457,0,0
126,-433,0,0,0,0,0,0,0,0,0,-1,1350,1457,0,0
133,-433,0,0,0,0,0,0,0,0,0,-1,1357,1457,0,0
140,-433,0,0,0,0,0,0,0,0,0,-1,1364,1457,0,0
147,-433,0,0,0,0,0,0,0,0,0,-1,1371,1457,0,0
154,-433,0,0,0,0,0,0,0,0,0,-1,1378,1457,0,0
161,-433,0,0,0,0,0,0,0,0,0,-1,1385,1457,0,0
168,-433,0,0,0,0,0,0,0,0,0,-1,1392,1457,0,0
175,-433,0,0,0,0,0,0,0,0,0,-1,1399,1457,0,0
182,-433,0,0,0,0,0,0,0,0,0,-1,1406,1457,0,0
189,-433,0,0,0,0,0,0,0,0,0,-1,1413,1457,0,0
196,-433,0,0,0,0,0,0,0,0,0,-1,1420,1457,0,0
203,-433,0,0,0,0,0,0,0,0,0,-1,1427,1457,0,0
210,-433,0,0,0,0,0,0,0,0,0,-1,1434,1457,0,0
217,-433,0,0,0,0,0,0,0,0,0,-1,1441,1457,0,0
224,-433,0,0,0,0,0,0,0,0,0,-1,1448,1457,0,0
231,-433,0,0,0,0,0,0,0,0,0,-1,1455,1457,0,0
238,-433,0,0,0,0,0,0,0,0,0,-1,1462,1457,0,0
245,-433,0,0,0,0,0,0,0,0,0,-1,1469,1457,0,0
252,-433,0,0,0,0,0,0,0,0,0,-1,1476,1457,0,0
259,-433,0,0,0,0,0,0,0,0,0,-1,1483,1457,0,0
266,-433,0,0,0,0,0,0,0,0,0,-1,1490,1457,0,0
273,-433,0,0,0,0,0,0,0,0,0,-1,1497,1457,0,0
280,-433,0,0,0,0,0,0,0,0,0,-1,1504,1457,0,0
287,-433,0,0,0,0,0,0,0,0,0,-1,1511,1457,0,0
294,-433,0,0,0,0,0,0,0,0,0,-1,1518,1457,0,0
301,-433,0,0,0,0,0,0,0,0,0,-1,1525,1457,0,0
308,-433,0,0,0,0,0,0,0,0,0,-1,1532,1457,0,0
315,-433,0,0,0,0,0,0,0,0,0,-1,1539,1457,0,0
322,-433,0,0,0,0,0,0,0,0,0,-1,1546,1457,0,0
329,-433,0,0,0,0,0,0,0,0,0,-1,1553,1457,0,0
336,-433,0,0,0,0,0,0,0,0,0,-1,1560,1457,0,0
343,-433,0,0,0,0,0,0,0,0,0,-1,1567,1457,0,0
350,-433,0,0,0,0,0,0,0,0,0,-1,1574,1457,0,0
357,-433,0,0,0,0,0,0,0,0,0,-1,1581,1457,0,0
364,-433,0,0,0,0,0,0,0,0,0,-1,1588,1457,0,0
371,-433,0,0,0,0,0,0,0,0,0,-1,1595,1457,0,0
378,-433,0,0,0,0,0,0,0,0,0,-1,1602,1457,0,0
385,-433,0,0,0,0,0,0,0,0,0,-1,1609,1457,0,0
392,-433,0,0,0,0,0,0,0,0,0,-1,1616,1457,0,0
399,-433,0,0,0,0,0,0,0,0,0,-1,1623,1457,0,0
406,-433,0,0,0,0,0,0,0,0,0,-1,1630,1457,0,0
413,-433,0,0,0,0,0,0,0,0,0,-1,1637,1457,0,0
420,-433,0,0,0,0,0,0,0,0,0,-1,1644,1457,0,0
427,-433,0,0,0,0,0,0,0,0,0,-1,1651,1457,0,0
434,-433,0,0,0,0,0,0,0,0,0,-1,1658,1457,0,0
441,-433,0,0,0,0,0,0,0,0,0,-1,1665,1457,0,0
448,-433,0,0,0,0,0,0,0,0,0,-1,1672,1457,0,0
455,-433,0,0,0,0,0,0,0,0,0,-1,1679,1457,0,0
462,-433,0,0,0,0,0,0,0,0,0,-1,1686,1457,0,0
469,-433,0,0,0,0,0,0,0,0,0,-1,1693,1457,0,0
476,-433,0,0,0,0,0,0,0,0,0,-1,1700,1457,0,0
483,-433,0,0,0,0,0,0,0,0,0,-1,1707,1457,0,0
490,-433,0,0,0,0,0,0,0,0,0,-1,1714,1457,0,0
497,-433,0,0,0,0,0,0,0,0,0,-1,1721,1457,0,0
504,-433,19.9058,3.03662,0,0,0,0,0,0,0,-1,1728,1457,19.9058,-3.03656
511,-433,19.0145,3.07837,0,0,0,0,0,0,0,-1,1735,1457,19.0146,-3.07834
518,-433,18.071,3.06433,0,0,0,0,0,0,0,-1,1742,1457,18.071,-3.06432
525,-433,17.2048,3.37085,0,0,0,0,0,0,0,-1,1749,1457,17.2049,-3.37083
532,-433,16.5637,3.36646,0,0,0,0,0,0,0,-1,1756,1457,16.5637,-3.36643
539,-433,15.9193,3.30396,0,0,0,0,0,0,0,-1,1763,1457,15.9193,-3.30394
546,-433,23.1903,4.81775,0,0,0,0,0,0,0,-1,1770,1457,23.1903,-4.81775
553,-433,13.9674,11.5781,0,0,0,0,0,0,0,-1,1777,1457,13.9674,-11.5781
560,-433,13.9855,11.7341,0,0,0,0,0,0,0,-1,1784,1457,13.9855,-11.7341
567,-433,13.9264,11.3364,0,0,0,0,0,0,0,-1,1791,1457,13.9263,-11.3364
574,-433,15.5305,12.3673,0,0,0,0,0,0,0,-1,1798,1457,15.5305,-12.3673
581,-433,16.6405,12.1898,0,0,0,0,0,0,0,-1,1805,1457,16.6405,-12.1898
588,-433,23.2273,17.1879,0,0,0,0,0,0,0,-1,1812,1457,23.2273,-17.1879
595,-433,23.1516,16.4677,0.00418273,0.00443234,-0.00353407,0.00784381,0.000771267,-0.803048,0.00499201,0.0395628,1819,1457,23.1516,-16.4677
602,-433,23.1576,15.95,0.0032816,0.00334517,-0.00269246,0.00600603,0.000620739,-0.791301,0.00381398,0.0234806,1826,1457,23.1576,-15.9499
609,-433,23.1539,15.4436,0.00263668,0.00238328,-0.00201165,0.00452562,0.00049434,-0.753948,0.00286654,0.0159428,1833,1457,23.154,-15.4436
616,-433,23.1437,14.9799,0.00212695,0.00163898,-0.00147428,0.0033773,0.000388632,-0.703394,0.00213382,0.013885,1840,1457,23.1437,-14.9799
623,-433,23.1353,14.4991,0.00185644,0.00102896,-0.00103791,0.00256004,0.000325365,-0.595738,0.00160924,0.0113002,1847,1457,23.1352,-14.4992
630,-433,23.1439,14.0219,0.00178552,0.000469723,-0.000700518,0.00208864,0.000166603,-0.408381,0.00134035,0.0141193,1854,1457,23.1439,-14.0218
637,-433,23.0988,13.5802,0.00171484,8.09704e-05,-0.000379502,0.00179869,-2.87447e-06,-0.217441,0.00120008,0.0154237,1861,1457,23.0988,-13.5802
644,-433,23.0773,13.1482,0.00176733,-0.000244028,-7.15422e-05,0.00176987,-0.000246569,-0.0355093,0.00127011,0.0161687,1868,1457,23.0773,-13.1481
651,-433,23.0847,12.6422,0.0019277,-0.000400693,0.000146267,0.00193685,-0.000409845,0.0624913,0.00144732,0.0122,1875,1457,23.0847,-12.6422
658,-433,23.0425,12.1262,0.00212462,-0.000548944,0.000397186,0.00218238,-0.000606703,0.144407,0.00169377,0.0239368,1882,1457,23.0425,-12.1262
665,-433,23.0966,11.5199,0,0,0,0,0,0,0,-1,1889,1457,23.0965,-11.5199
672,-433,18.115,8.7207,0,0,0,0,0,0,0,-1,1896,1457,18.115,-8.72074
679,-433,17.2969,9.6355,0,0,0,0,0,0,0,-1,1903,1457,17.2968,-9.63548
686,-433,13.6356,8.61694,0,0,0,0,0,0,0,-1,1910,1457,13.6356,-8.61694
693,-433,13.4081,8.39624,0,0,0,0,0,0,0,-1,1917,1457,13.4081,-8.39624
700,-433,7.16809,-1.5166,0,0,0,0,0,0,0,-1,1924,1457,7.16806,1.51656
707,-433,8.68359,-2.82202,0,0,0,0,0,0,0,-1,1931,1457,8.68359,2.82197
714,-433,0,0,0,0,0,0,0,0,0,-1,1938,1457,0,0
721,-433,0,0,0,0,0,0,0,0,0,-1,1945,1457,0,0
728,-433,0,0,0,0,0,0,0,0,0,-1,1952,1457,0,0
735,-433,0,0,0,0,0,0,0,0,0,-1,1959,1457,0,0
742,-433,0,0,0,0,0,0,0,0,0,-1,1966,1457,0,0
749,-433,0,0,0,0,0,0,0,0,0,-1,1973,1457,0,0
756,-433,0,0,0,0,0,0,0,0,0,-1,1980,1457,0,0
763,-433,0,0,0,0,0,0,0,0,0,-1,1987,1457,0,0
770,-433,0,0,0,0,0,0,0,0,0,-1,1994,1457,0,0
777,-433,0,0,0,0,0,0,0,0,0,-1,2001,1457,0,0
784,-433,0,0,0,0,0,0,0,0,0,-1,2008,1457,0,0
791,-433,0,0,0,0,0,0,0,0,0,-1,2015,1457,0,0
798,-433,0,0,0,0,0,0,0,0,0,-1,2022,1457,0,0
805,-433,0,0,0,0,0,0,0,0,0,-1,2029,1457,0,0
812,-433,0,0,0,0,0,0,0,0,0,-1,2036,1457,0,0
-700,-440,0,0,0,0,0,0,0,0,0,-1,524,1464,0,0
-693,-440,0,0,0,0,0,0,0,0,0,-1,531,1464,0,0
-686,-440,0,0,0,0,0,0,0,0,0,-1,538,1464,0,0
-679,-440,0,0,0,0,0,0,0,0,0,-1,545,1464,0,0
-672,-440,0,0,0,0,0,0,0,0,0,-1,552,1464,0,0
-665,-440,0,0,0,0,0,0,0,0,0,-1,559,1464,0,0
-658,-440,0,0,0,0,0,0,0,0,0,-1,566,1464,0,0
-651,-440,0,0,0,0,0,0,0,0,0,-1,573,1464,0,0
-644,-440,0,0,0,0,0,0,0,0,0,-1,580,1464,0,0
-637,-440,0,0,0,0,0,0,0,0,0,-1,587,1464,0,0
-630,-440,0,0,0,0,0,0,0,0,0,-1,594,1464,0,0
-623,-440,0,0,0,0,0,0,0,0,0,-1,601,1464,0,0
-616,-440,0,0,0,0,0,0,0,0,0,-1,608,1464,0,0
-609,-440,0,0,0,0,0,0,0,0,0,-1,615,1464,0,0
-602,-440,0,0,0,0,0,0,0,0,0,-1,622,1464,0,0
-595,-440,0,0,0,0,0,0,0,0,0,-1,629,1464,0,0
-588,-440,0,0,0,0,0,0,0,0,0,-1,636,1464,0,0
-581,-440,-8.97278,0.254517,0,0,0,0,0,0,0,-1,643,1464,-8.97276,-0.254526
-574,-440,-7.00818,-0.918579,0,0,0,0,0,0,0,-1,650,1464,-7.00817,0.918538
-567,-440,-6.12152,-0.0766602,0,0,0,0,0,0,0,-1,657,1464,-6.12151,0.0767097
-560,-440,-5.46747,0.82251,0,0,0,0,0,0,0,-1,664,1464,-5.46748,-0.822551
-553,-440,-6.84729,0.0831299,0,0,0,0,0,0,0,-1,671,1464,-6.84732,-0.083136
-546,-440,-5.63446,-0.153198,0,0,0,0,0,0,0,-1,678,1464,-5.63447,0.153147
-539,-440,-6.80017,8.58252,0,0,0,0,0,0,0,-1,685,1464,-6.80015,-8.58257
-532,-440,-7.90173,9.63977,0,0,0,0,0,0,0,-1,692,1464,-7.90174,-9.63973
-525,-440,-8.23334,10.333,-0.00121519,-0.000938065,-0.000366552,-0.000684759,-0.00146849,-0.966102,0.000848476,0.0430402,699,1464,-8.23335,-10.333
-518,-440,-8.24976,10.7501,-0.000323917,-0.000871412,-0.00013097,-0.0002942,-0.000901129,-0.223123,0.000530608,0.0213426,706,1464,-8.24973,-10.7501
-511,-440,-8.21161,11.3171,0.000381925,-0.000528826,0.000143759,0.000404078,-0.000550979,0.152896,0.000553572,0.0161344,713,1464,-8.21161,-11.3172
-504,-440,-8.18939,11.8081,0.00108162,5.50817e-05,0.000587761,0.00134868,-0.000211975,0.426476,0.000977469,0.0186297,720,1464,-8.1894,-11.8082
-497,-440,-8.22479,12.307,0.00186639,0.000803709,0.00117624,0.00262574,4.43647e-05,0.573253,0.00173589,0.0204484,727,1464,-8.22479,-12.3071
-490,-440,-8.26459,12.7886,0.00288483,0.00179491,0.00199347,0.00440648,0.000273255,0.651971,0.00285094,0.0216174,734,1464,-8.26456,-12.7886
-483,-440,-8.29291,13.3035,0.00426792,0.00295978,0.00312006,0.00680173,0.000425964,0.682078,0.00439938,0.0206897,741,1464,-8.29291,-13.3035
-476,-440,-8.30615,13.8135,0.0059392,0.00429199,0.00446867,0.00965953,0.000571666,0.694268,0.00625784,0.0141047,748,1464,-8.30618,-13.8135
-469,-440,-8.32904,14.3267,0.0080418,0.00576509,0.00617368,0.0131812,0.000625692,0.694228,0.00858651,0.0123232,755,1464,-8.32903,-14.3266
-462,-440,-8.37323,14.8258,0.0106805,0.0075048,0.00827662,0.0175202,0.00066509,0.690627,0.0114649,0.0153112,762,1464,-8.37324,-14.8258
-455,-440,-8.22229,15.4208,0.0140465,0.00942461,0.0108159,0.0227956,0.000675582,0.680148,0.0149769,0.0353421,769,1464,-8.22228,-15.4208
-448,-440,-7.73138,16.1267,0,0,0,0,0,0,0,-1,776,1464,-7.7314,-16.1267
-441,-440,-7.28583,14.7465,0,0,0,0,0,0,0,-1,783,1464,-7.28584,-14.7464
-434,-440,-8.33636,14.5024,0,0,0,0,0,0,0,-1,790,1464,-8.33638,-14.5025
-427,-440,-8.28094,14.2512,0,0,0,0,0,0,0,-1,797,1464,-8.28094,-14.2512
-420,-440,-6.86603,8.09216,0,0,0,0,0,0,0,-1,804,1464,-6.86602,-8.09222
-413,-440,-3.46796,5.72278,0,0,0,0,0,0,0,-1,811,1464,-3.46797,-5.72276
-406,-440,-5.2887,5.20264,0,0,0,0,0,0,0,-1,818,1464,-5.2887,-5.20261
-399,-440,-12.7318,3.94421,0,0,0,0,0,0,0,-1,825,1464,-12.7318,-3.94419
-392,-440,-13.5565,2.51855,0,0,0,0,0,0,0,-1,832,1464,-13.5565,-2.51861
-385,-440,-14.6741,1.39795,0,0,0,0,0,0,0,-1,839,1464,-14.6741,-1.39801
-378,-440,-15.8063,0.293457,0,0,0,0,0,0,0,-1,846,1464,-15.8063,-0.293412
-371,-440,0,0,0,0,0,0,0,0,0,-1,853,1464,0,0
-364,-440,0,0,0,0,0,0,0,0,0,-1,860,1464,0,0
-357,-440,0,0,0,0,0,0,0,0,0,-1,867,1464,0,0
-350,-440,0,0,0,0,0,0,0,0,0,-1,874,1464,0,0
-343,-440,0,0,0,0,0,0,0,0,0,-1,881,1464,0,0
-336,-440,0,0,0,0,0,0,0,0,0,-1,888,1464,0,0
-329,-440,0,0,0,0,0,0,0,0,0,-1,895,1464,0,0
-322,-440,0,0,0,0,0,0,0,0,0,-1,902,1464,0,0
-315,-440,0,0,0,0,0,0,0,0,0,-1,909,1464,0,0
-308,-440,0,0,0,0,0,0,0,0,0,-1,916,1464,0,0
-301,-440,0,0,0,0,0,0,0,0,0,-1,923,1464,0,0
-294,-440,0,0,0,0,0,0,0,0,0,-1,930,1464,0,0
-287,-440,0,0,0,0,0,0,0,0,0,-1,937,1464,0,0
-280,-440,0,0,0,0,0,0,0,0,0,-1,944,1464,0,0
-273,-440,0,0,0,0,0,0,0,0,0,-1,951,1464,0,0
-266,-440,0,0,0,0,0,0,0,0,0,-1,958,1464,0,0
-259,-440,0,0,0,0,0,0,0,0,0,-1,965,1464,0,0
-252,-440,0,0,0,0,0,0,0,0,0,-1,972,1464,0,0
-245,-440,0,0,0,0,0,0,0,0,0,-1,979,1464,0,0
-238,-440,0,0,0,0,0,0,0,0,0,-1,986,1464,0,0
-231,-440,0,0,0,0,0,0,0,0,0,-1,993,1464,0,0
-224,-440,0,0,0,0,0,0,0,0,0,-1,1000,1464,0,0
-217,-440,0,0,0,0,0,0,0,0,0,-1,1007,1464,0,0
-210,-440,0,0,0,0,0,0,0,0,0,-1,1014,1464,0,0
-203,-440,0,0,0,0,0,0,0,0,0,-1,1021,1464,0,0
-196,-440,0,0,0,0,0,0,0,0,0,-1,1028,1464,0,0
-189,-440,0,0,0,0,0,0,0,0,0,-1,1035,1464,0,0
-182,-440,0,0,0,0,0,0,0,0,0,-1,1042,1464,0,0
-175,-440,0,0,0,0,0,0,0,0,0,-1,1049,1464,0,0
-168,-440,0,0,0,0,0,0,0,0,0,-1,1056,1464,0,0
-161,-440,0,0,0,0,0,0,0,0,0,-1,1063,1464,0,0
-154,-440,0,0,0,0,0,0,0,0,0,-1,1070,1464,0,0
-147,-440,0,0,0,0,0,0,0,0,0,-1,1077,1464,0,0
-140,-440,0,0,0,0,0,0,0,0,0,-1,1084,1464,0,0
-133,-440,0,0,0,0,0,0,0,0,0,-1,1091,1464,0,0
-126,-440,0,0,0,0,0,0,0,0,0,-1,1098,1464,0,0
-119,-440,0,0,0,0,0,0,0,0,0,-1,1105,1464,0,0
-112,-440,0,0,0,0,0,0,0,0,0,-1,1112,1464,0,0
-105,-440,0,0,0,0,0,0,0,0,0,-1,1119,1464,0,0
-98,-440,0,0,0,0,0,0,0,0,0,-1,1126,1464,0,0
-91,-440,0,0,0,0,0,0,0,0,0,-1,1133,1464,0,0
-84,-440,0,0,0,0,0,0,0,0,0,-1,1140,1464,0,0
-77,-440,0,0,0,0,0,0,0,0,0,-1,1147,1464,0,0
-70,-440,0,0,0,0,0,0,0,0,0,-1,1154,1464,0,0
-63,-440,0,0,0,0,0,0,0,0,0,-1,1161,1464,0,0
-56,-440,0,0,0,0,0,0,0,0,0,-1,1168,1464,0,0
-49,-440,0,0,0,0,0,0,0,0,0,-1,1175,1464,0,0
-42,-440,0,0,0,0,0,0,0,0,0,-1,1182,1464,0,0
-35,-440,0,0,0,0,0,0,0,0,0,-1,1189,1464,0,0
-28,-440,0,0,0,0,0,0,0,0,0,-1,1196,1464,0,0
-21,-440,0,0,0,0,0,0,0,0,0,-1,1203,1464,0,0
-14,-440,0,0,0,0,0,0,0,0,0,-1,1210,1464,0,0
-7,-440,0,0,0,0,0,0,0,0,0,-1,1217,1464,0,0
0,-440,0,0,0,0,0,0,0,0,0,-1,1224,1464,0,0
7,-440,0,0,0,0,0,0,0,0,0,-1,1231,1464,0,0
14,-440,0,0,0,0,0,0,0,0,0,-1,1238,1464,0,0
21,-440,0,0,0,0,0,0,0,0,0,-1,1245,1464,0,0
28,-440,0,0,0,0,0,0,0,0,0,-1,1252,1464,0,0
35,-440,0,0,0,0,0,0,0,0,0,-1,1259,1464,0,0
42,-440,0,0,0,0,0,0,0,0,0,-1,1266,1464,0,0
49,-440,0,0,0,0,0,0,0,0,0,-1,1273,1464,0,0
56,-440,0,0,0,0,0,0,0,0,0,-1,1280,1464,0,0
63,-440,0,0,0,0,0,0,0,0,0,-1,1287,1464,0,0
70,-440,0,0,0,0,0,0,0,0,0,-1,1294,1464,0,0
77,-440,0,0,0,0,0,0,0,0,0,-1,1301,1464,0,0
84,-440,0,0,0,0,0,0,0,0,0,-1,1308,1464,0,0
91,-440,0,0,0,0,0,0,0,0,0,-1,1315,1464,0,0
98,-440,0,0,0,0,0,0,0,0,0,-1,1322,1464,0,0
105,-440,0,0,0,0,0,0,0,0,0,-1,1329,1464,0,0
112,-440,0,0,0,0,0,0,0,0,0,-1,1336,1464,0,0
119,-440,0,0,0,0,0,0,0,0,0,-1,1343,1464,0,0
126,-440,0,0,0,0,0,0,0,0,0,-1,1350,1464,0,0
133,-440,0,0,0,0,0,0,0,0,0,-1,1357,1464,0,0
140,-440,0,0,0,0,0,0,0,0,0,-1,1364,1464,0,0
147,-440,0,0,0,0,0,0,0,0,0,-1,1371,1464,0,0
154,-440,0,0,0,0,0,0,0,0,0,-1,1378,1464,0,0
161,-440,0,0,0,0,0,0,0,0,0,-1,1385,1464,0,0
168,-440,0,0,0,0,0,0,0,0,0,-1,1392,1464,0,0
175,-440,0,0,0,0,0,0,0,0,0,-1,1399,1464,0,0
182,-440,0,0,0,0,0,0,0,0,0,-1,1406,1464,0,0
189,-440,0,0,0,0,0,0,0,0,0,-1,1413,1464,0,0
196,-440,0,0,0,0,0,0,0,0,0,-1,1420,1464,0,0
203,-440,0,0,0,0,0,0,0,0,0,-1,1427,1464,0,0
210,-440,0,0,0,0,0,0,0,0,0,-1,1434,1464,0,0
217,-440,0,0,0,0,0,0,0,0,0,-1,1441,1464,0,0
224,-440,0,0,0,0,0,0,0,0,0,-1,1448,1464,0,0
231,-440,0,0,0,0,0,0,0,0,0,-1,1455,1464,0,0
238,-440,0,0,0,0,0,0,0,0,0,-1,1462,1464,0,0
245,-440,0,0,0,0,0,0,0,0,0,-1,1469,1464,0,0
252,-440,0,0,0,0,0,0,0,0,0,-1,1476,1464,0,0
259,-440,0,0,0,0,0,0,0,0,0,-1,1483,1464,0,0
266,-440,0,0,0,0,0,0,0,0,0,-1,1490,1464,0,0
273,-440,0,0,0,0,0,0,0,0,0,-1,1497,1464,0,0
280,-440,0,0,0,0,0,0,0,0,0,-1,1504,1464,0,0
287,-440,0,0,0,0,0,0,0,0,0,-1,1511,1464,0,0
294,-440,0,0,0,0,0,0,0,0,0,-1,1518,1464,0,0
301,-440,0,0,0,0,0,0,0,0,0,-1,1525,1464,0,0
308,-440,0,0,0,0,0,0,0,0,0,-1,1532,1464,0,0
315,-440,0,0,0,0,0,0,0,0,0,-1,1539,1464,0,0
322,-440,0,0,0,0,0,0,0,0,0,-1,1546,1464,0,0
329,-440,0,0,0,0,0,0,0,0,0,-1,1553,1464,0,0
336,-440,0,0,0,0,0,0,0,0,0,-1,1560,1464,0,0
343,-440,0,0,0,0,0,0,0,0,0,-1,1567,1464,0,0
350,-440,0,0,0,0,0,0,0,0,0,-1,1574,1464,0,0
357,-440,0,0,0,0,0,0,0,0,0,-1,1581,1464,0,0
364,-440,0,0,0,0,0,0,0,0,0,-1,1588,1464,0,0
371,-440,0,0,0,0,0,0,0,0,0,-1,1595,1464,0,0
378,-440,0,0,0,0,0,0,0,0,0,-1,1602,1464,0,0
385,-440,0,0,0,0,0,0,0,0,0,-1,1609,1464,0,0
392,-440,0,0,0,0,0,0,0,0,0,-1,1616,1464,0,0
399,-440,0,0,0,0,0,0,0,0,0,-1,1623,1464,0,0
406,-440,0,0,0,0,0,0,0,0,0,-1,1630,1464,0,0
413,-440,0,0,0,0,0,0,0,0,0,-1,1637,1464,0,0
420,-440,0,0,0,0,0,0,0,0,0,-1,1644,1464,0,0
427,-440,0,0,0,0,0,0,0,0,0,-1,1651,1464,0,0
434,-440,0,0,0,0,0,0,0,0,0,-1,1658,1464,0,0
441,-440,0,0,0,0,0,0,0,0,0,-1,1665,1464,0,0
448,-440,0,0,0,0,0,0,0,0,0,-1,1672,1464,0,0
455,-440,0,0,0,0,0,0,0,0,0,-1,1679,1464,0,0
462,-440,0,0,0,0,0,0,0,0,0,-1,1686,1464,0,0
469,-440,0,0,0,0,0,0,0,0,0,-1,1693,1464,0,0
476,-440,0,0,0,0,0,0,0,0,0,-1,1700,1464,0,0
483,-440,0,0,0,0,0,0,0,0,0,-1,1707,1464,0,0
490,-440,0,0,0,0,0,0,0,0,0,-1,1714,1464,0,0
497,-440,16.965,-0.528442,0,0,0,0,0,0,0,-1,1721,1464,16.965,0.528492
504,-440,15.8052,0.670166,0,0,0,0,0,0,0,-1,1728,1464,15.8052,-0.670145
511,-440,17.5754,2.77832,0,0,0,0,0,0,0,-1,1735,1464,17.5754,-2.77826
518,-440,16.9017,3.07861,0,0,0,0,0,0,0,-1,1742,1464,16.9018,-3.07859
525,-440,18.4495,12.0867,0,0,0,0,0,0,0,-1,1749,1464,18.4495,-12.0867
532,-440,15.4319,3.64392,0,0,0,0,0,0,0,-1,1756,1464,15.4318,-3.64391
539,-440,14.8214,3.41321,0,0,0,0,0,0,0,-1,1763,1464,14.8214,-3.4132
546,-440,14.8651,10.7683,0,0,0,0,0,0,0,-1,1770,1464,14.8651,-10.7683
553,-440,15.1213,11.4121,0,0,0,0,0,0,0,-1,1777,1464,15.1213,-11.4121
560,-440,17.4325,12.5394,0,0,0,0,0,0,0,-1,1784,1464,17.4325,-12.5394
567,-440,16.9025,12.4249,0,0,0,0,0,0,0,-1,1791,1464,16.9025,-12.425
574,-440,19.2841,14.8679,0,0,0,0,0,0,0,-1,1798,1464,19.2841,-14.868
581,-440,22.541,17.8612,0,0,0,0,0,0,0,-1,1805,1464,22.541,-17.8613
588,-440,22.533,16.9938,0,0,0,0,0,0,0,-1,1812,1464,22.5329,-16.9938
595,-440,22.6541,16.4364,0.00379115,0.0035943,-0.00286432,0.00655874,0.000826718,-0.768224,0.00412463,0.0237087,1819,1464,22.6541,-16.4364
602,-440,22.7161,15.9218,0.00303147,0.00267935,-0.00218831,0.00505079,0.000660038,-0.745257,0.00317017,0.0193468,1826,1464,22.7161,-15.9217
609,-440,22.6757,15.4486,0.00247881,0.00187539,-0.00162245,0.00382736,0.000526836,-0.693469,0.00239535,0.0161465,1833,1464,22.6757,-15.4486
616,-440,22.6567,15.0157,0.00205432,0.0012637,-0.00118585,0.00290902,0.000409008,-0.624513,0.00181841,0.0171539,1840,1464,22.6567,-15.0158
623,-440,22.6614,14.5204,0.00187289,0.000732491,-0.000818187,0.00229997,0.000305416,-0.481074,0.00144233,0.0137189,1847,1464,22.6613,-14.5204
630,-440,22.657,14.0138,0.00188329,0.000229947,-0.000532719,0.00204007,7.31676e-05,-0.286219,0.00133632,0.0113363,1854,1464,22.657,-14.0137
637,-440,22.6332,13.611,0.00190603,-8.23981e-05,-0.000281893,0.00194522,-0.000121589,-0.138141,0.00133919,0.0154857,1861,1464,22.6332,-13.611
644,-440,22.6366,13.1659,0.00205009,-0.000329925,-5.18695e-05,0.00205122,-0.000331055,-0.02178,0.00149014,0.0147924,1868,1464,22.6366,-13.1658
651,-440,22.6613,12.6362,0.00232553,-0.000399654,8.2926e-05,0.00232805,-0.000402175,0.030392,0.00170201,0.01863,1875,1464,22.6612,-12.6362
658,-440,22.7233,12.0867,0,0,0,0,0,0,0,-1,1882,1464,22.7232,-12.0867
665,-440,21.4609,11.3298,0,0,0,0,0,0,0,-1,1889,1464,21.4609,-11.3298
672,-440,18.9385,9.6394,0,0,0,0,0,0,0,-1,1896,1464,18.9384,-9.63939
679,-440,16.9508,10.2336,0,0,0,0,0,0,0,-1,1903,1464,16.9508,-10.2337
686,-440,15.2556,8.44177,0,0,0,0,0,0,0,-1,1910,1464,15.2556,-8.44177
693,-440,9.88635,2.89795,0,0,0,0,0,0,0,-1,1917,1464,9.88638,-2.89798
700,-440,7.07825,-2.62061,0,0,0,0,0,0,0,-1,1924,1464,7.07829,2.62057
707,-440,0,0,0,0,0,0,0,0,0,-1,1931,1464,0,0
714,-440,0,0,0,0,0,0,0,0,0,-1,1938,1464,0,0
721,-440,0,0,0,0,0,0,0,0,0,-1,1945,1464,0,0
728,-440,0,0,0,0,0,0,0,0,0,-1,1952,1464,0,0
735,-440,0,0,0,0,0,0,0,0,0,-1,1959,1464,0,0
742,-440,0,0,0,0,0,0,0,0,0,-1,1966,1464,0,0
749,-440,0,0,0,0,0,0,0,0,0,-1,1973,1464,0,0
756,-440,0,0,0,0,0,0,0,0,0,-1,1980,1464,0,0
763,-440,0,0,0,0,0,0,0,0,0,-1,1987,1464,0,0
770,-440,0,0,0,0,0,0,0,0,0,-1,1994,1464,0,0
777,-440,0,0,0,0,0,0,0,0,0,-1,2001,1464,0,0
784,-440,0,0,0,0,0,0,0,0,0,-1,2008,1464,0,0
791,-440,0,0,0,0,0,0,0,0,0,-1,2015,1464,0,0
798,-440,0,0,0,0,0,0,0,0,0,-1,2022,1464,0,0
805,-440,0,0,0,0,0,0,0,0,0,-1,2029,1464,0,0
812,-440,0,0,0,0,0,0,0,0,0,-1,2036,1464,0,0
-700,-447,0,0,0,0,0,0,0,0,0,-1,524,1471,0,0
-693,-447,0,0,0,0,0,0,0,0,0,-1,531,1471,0,0
-686,-447,0,0,0,0,0,0,0,0,0,-1,538,1471,0,0
-679,-447,0,0,0,0,0,0,0,0,0,-1,545,1471,0,0
-672,-447,0,0,0,0,0,0,0,0,0,-1,552,1471,0,0
-665,-447,0,0,0,0,0,0,0,0,0,-1,559,1471,0,0
-658,-447,0,0,0,0,0,0,0,0,0,-1,566,1471,0,0
-651,-447,0,0,0,0,0,0,0,0,0,-1,573,1471,0,0
-644,-447,0,0,0,0,0,0,0,0,0,-1,580,1471,0,0
-637,-447,0,0,0,0,0,0,0,0,0,-1,587,1471,0,0
-630,-447,0,0,0,0,0,0,0,0,0,-1,594,1471,0,0
-623,-447,0,0,0,0,0,0,0,0,0,-1,601,1471,0,0
-616,-447,0,0,0,0,0,0,0,0,0,-1,608,1471,0,0
-609,-447,0,0,0,0,0,0,0,0,0,-1,615,1471,0,0
-602,-447,0,0,0,0,0,0,0,0,0,-1,622,1471,0,0
-595,-447,0,0,0,0,0,0,0,0,0,-1,629,1471,0,0
-588,-447,0,0,0,0,0,0,0,0,0,-1,636,1471,0,0
-581,-447,-7.06482,-1.50476,0,0,0,0,0,0,0,-1,643,1471,-7.0648,1.50474
-574,-447,-6.88092,-0.00585938,0,0,0,0,0,0,0,-1,650,1471,-6.88095,0.00589852
-567,-447,-6.8205,-1.32178,0,0,0,0,0,0,0,-1,657,1471,-6.82047,1.32172
-560,-447,-8.85748,2.80774,0,0,0,0,0,0,0,-1,664,1471,-8.85748,-2.80775
-553,-447,-7.60486,3.26794,0,0,0,0,0,0,0,-1,671,1471,-7.60487,-3.26799
-546,-447,-3.94501,1.8656,0,0,0,0,0,0,0,-1,678,1471,-3.945,-1.86554
-539,-447,-5.35492,4.50024,0,0,0,0,0,0,0,-1,685,1471,-5.35492,-4.50018
-532,-447,-6.12781,8.81091,0,0,0,0,0,0,0,-1,692,1471,-6.12781,-8.81094
-525,-447,-7.68005,10.3389,0,0,0,0,0,0,0,-1,699,1471,-7.68003,-10.3389
-518,-447,-7.76331,10.6414,0,0,0,0,0,0,0,-1,706,1471,-7.76329,-10.6414
-511,-447,-7.74213,11.3091,0.000771748,-0.000842376,0.000561212,0.000947696,-0.00101832,0.303808,0.00113533,0.0207307,713,1471,-7.74211,-11.309
-504,-447,-7.69501,11.8688,0.00120324,-0.000383572,0.000753723,0.00150418,-0.000684512,0.379878,0.00129284,0.0203932,720,1471,-7.69502,-11.8687
-497,-447,-7.74066,12.377,0.0017004,0.00021197,0.00107384,0.00226271,-0.000350336,0.482379,0.00163779,0.0237124,727,1471,-7.74064,-12.377
-490,-447,-7.72662,12.8312,0.00244531,0.00104049,0.00163153,0.0035192,-3.34056e-05,0.582129,0.00235735,0.0226157,734,1471,-7.72665,-12.8311
-483,-447,-7.77533,13.2782,0.00357175,0.00205024,0.00250551,0.00542946,0.000192537,0.638005,0.0035572,0.0208977,741,1471,-7.77531,-13.2782
-476,-447,-7.78638,13.7773,0.0049928,0.0032012,0.00360062,0.00780738,0.000386616,0.663478,0.00508095,0.0144969,748,1471,-7.78638,-13.7773
-469,-447,-7.80481,14.324,0.00680842,0.00447563,0.00501732,0.0107931,0.000490908,0.67119,0.0070375,0.0139249,755,1471,-7.8048,-14.324
-462,-447,-7.83594,14.8531,0.00908429,0.00595553,0.00677092,0.0144692,0.000570625,0.671869,0.00946166,0.013591,762,1471,-7.83592,-14.8531
-455,-447,-7.85522,15.3683,0.0119431,0.00757462,0.00888564,0.018909,0.000608698,0.664879,0.0124081,0.0197796,769,1471,-7.85522,-15.3683
-448,-447,-7.66675,16.0378,0.0161762,0.00975807,0.0122285,0.0256097,0.000324604,0.657079,0.0169659,0.0439633,776,1471,-7.66676,-16.0378
-441,-447,-7.38824,16.8624,0,0,0,0,0,0,0,-1,783,1471,-7.38824,-16.8624
-434,-447,-7.43402,15.6273,0,0,0,0,0,0,0,-1,790,1471,-7.43404,-15.6274
-427,-447,-7.21832,14.691,0,0,0,0,0,0,0,-1,797,1471,-7.21834,-14.6911
-420,-447,-8.0545,12.8055,0,0,0,0,0,0,0,-1,804,1471,-8.05452,-12.8055
-413,-447,-4.27393,6.59705,0,0,0,0,0,0,0,-1,811,1471,-4.27392,-6.59707
-406,-447,-1.04279,6.18591,0,0,0,0,0,0,0,-1,818,1471,-1.04276,-6.18586
-399,-447,0.0134888,0.687622,0,0,0,0,0,0,0,-1,825,1471,0.0134841,-0.68767
-392,-447,-14.0646,3.76147,0,0,0,0,0,0,0,-1,832,1471,-14.0646,-3.7615
-385,-447,-15.1695,2.61865,0,0,0,0,0,0,0,-1,839,1471,-15.1695,-2.61871
-378,-447,-15.9424,1.49316,0,0,0,0,0,0,0,-1,846,1471,-15.9424,-1.49313
-371,-447,-17.3655,0.73291,0,0,0,0,0,0,0,-1,853,1471,-17.3655,-0.732946
-364,-447,0,0,0,0,0,0,0,0,0,-1,860,1471,0,0
-357,-447,0,0,0,0,0,0,0,0,0,-1,867,1471,0,0
-350,-447,0,0,0,0,0,0,0,0,0,-1,874,1471,0,0
-343,-447,0,0,0,0,0,0,0,0,0,-1,881,1471,0,0
-336,-447,0,0,0,0,0,0,0,0,0,-1,888,1471,0,0
-329,-447,0,0,0,0,0,0,0,0,0,-1,895,1471,0,0
-322,-447,0,0,0,0,0,0,0,0,0,-1,902,1471,0,0
-315,-447,0,0,0,0,0,0,0,0,0,-1,909,1471,0,0
-308,-447,0,0,0,0,0,0,0,0,0,-1,916,1471,0,0
-301,-447,0,0,0,0,0,0,0,0,0,-1,923,1471,0,0
-294,-447,0,0,0,0,0,0,0,0,0,-1,930,1471,0,0
-287,-447,0,0,0,0,0,0,0,0,0,-1,937,1471,0,0
-280,-447,0,0,0,0,0,0,0,0,0,-1,944,1471,0,0
-273,-447,0,0,0,0,0,0,0,0,0,-1,951,1471,0,0
-266,-447,0,0,0,0,0,0,0,0,0,-1,958,1471,0,0
-259,-447,0,0,0,0,0,0,0,0,0,-1,965,1471,0,0
-252,-447,0,0,0,0,0,0,0,0,0,-1,972,1471,0,0
-245,-447,0,0,0,0,0,0,0,0,0,-1,979,1471,0,0
-238,-447,0,0,0,0,0,0,0,0,0,-1,986,1471,0,0
-231,-447,0,0,0,0,0,0,0,0,0,-1,993,1471,0,0
-224,-447,0,0,0,0,0,0,0,0,0,-1,1000,1471,0,0
-217,-447,0,0,0,0,0,0,0,0,0,-1,1007,1471,0,0
-210,-447,0,0,0,0,0,0,0,0,0,-1,1014,1471,0,0
-203,-447,0,0,0,0,0,0,0,0,0,-1,1021,1471,0,0
-196,-447,0,0,0,0,0,0,0,0,0,-1,1028,1471,0,0
-189,-447,0,0,0,0,0,0,0,0,0,-1,1035,1471,0,0
-182,-447,0,0,0,0,0,0,0,0,0,-1,1042,1471,0,0
-175,-447,0,0,0,0,0,0,0,0,0,-1,1049,1471,0,0
-168,-447,0,0,0,0,0,0,0,0,0,-1,1056,1471,0,0
-161,-447,0,0,0,0,0,0,0,0,0,-1,1063,1471,0,0
-154,-447,0,0,0,0,0,0,0,0,0,-1,1070,1471,0,0
-147,-447,0,0,0,0,0,0,0,0,0,-1,1077,1471,0,0
-140,-447,0,0,0,0,0,0,0,0,0,-1,1084,1471,0,0
-133,-447,0,0,0,0,0,0,0,0,0,-1,1091,1471,0,0
-126,-447,0,0,0,0,0,0,0,0,0,-1,1098,1471,0,0
-119,-447,0,0,0,0,0,0,0,0,0,-1,1105,1471,0,0
-112,-447,0,0,0,0,0,0,0,0,0,-1,1112,1471,0,0
-105,-447,0,0,0,0,0,0,0,0,0,-1,1119,1471,0,0
-98,-447,0,0,0,0,0,0,0,0,0,-1,1126,1471,0,0
-91,-447,0,0,0,0,0,0,0,0,0,-1,1133,1471,0,0
-84,-447,0,0,0,0,0,0,0,0,0,-1,1140,1471,0,0
-77,-447,0,0,0,0,0,0,0,0,0,-1,1147,1471,0,0
-70,-447,0,0,0,0,0,0,0,0,0,-1,1154,1471,0,0
-63,-447,0,0,0,0,0,0,0,0,0,-1,1161,1471,0,0
-56,-447,0,0,0,0,0,0,0,0,0,-1,1168,1471,0,0
-49,-447,0,0,0,0,0,0,0,0,0,-1,1175,1471,0,0
-42,-447,0,0,0,0,0,0,0,0,0,-1,1182,1471,0,0
-35,-447,0,0,0,0,0,0,0,0,0,-1,1189,1471,0,0
-28,-447,0,0,0,0,0,0,0,0,0,-1,1196,1471,0,0
-21,-447,0,0,0,0,0,0,0,0,0,-1,1203,1471,0,0
-14,-447,0,0,0,0,0,0,0,0,0,-1,1210,1471,0,0
-7,-447,0,0,0,0,0,0,0,0,0,-1,1217,1471,0,0
0,-447,0,0,0,0,0,0,0,0,0,-1,1224,1471,0,0
7,-447,0,0,0,0,0,0,0,0,0,-1,1231,1471,0,0
14,-447,0,0,0,0,0,0,0,0,0,-1,1238,1471,0,0
21,-447,0,0,0,0,0,0,0,0,0,-1,1245,1471,0,0
28,-447,0,0,0,0,0,0,0,0,0,-1,1252,1471,0,0
35,-447,0,0,0,0,0,0,0,0,0,-1,1259,1471,0,0
42,-447,0,0,0,0,0,0,0,0,0,-1,1266,1471,0,0
49,-447,0,0,0,0,0,0,0,0,0,-1,1273,1471,0,0
56,-447,0,0,0,0,0,0,0,0,0,-1,1280,1471,0,0
63,-447,0,0,0,0,0,0,0,0,0,-1,1287,1471,0,0
70,-447,0,0,0,0,0,0,0,0,0,-1,1294,1471,0,0
77,-447,0,0,0,0,0,0,0,0,0,-1,1301,1471,0,0
84,-447,0,0,0,0,0,0,0,0,0,-1,1308,1471,0,0
91,-447,0,0,0,0,0,0,0,0,0,-1,1315,1471,0,0
98,-447,0,0,0,0,0,0,0,0,0,-1,1322,1471,0,0
105,-447,0,0,0,0,0,0,0,0,0,-1,1329,1471,0,0
112,-447,0,0,0,0,0,0,0,0,0,-1,1336,1471,0,0
119,-447,0,0,0,0,0,0,0,0,0,-1,1343,1471,0,0
126,-447,0,0,0,0,0,0,0,0,0,-1,1350,1471,0,0
133,-447,0,0,0,0,0,0,0,0,0,-1,1357,1471,0,0
140,-447,0,0,0,0,0,0,0,0,0,-1,1364,1471,0,0
147,-447,0,0,0,0,0,0,0,0,0,-1,1371,1471,0,0
154,-447,0,0,0,0,0,0,0,0,0,-1,1378,1471,0,0
161,-447,0,0,0,0,0,0,0,0,0,-1,1385,1471,0,0
168,-447,0,0,0,0,0,0,0,0,0,-1,1392,1471,0,0
175,-447,0,0,0,0,0,0,0,0,0,-1,1399,1471,0,0
182,-447,0,0,0,0,0,0,0,0,0,-1,1406,1471,0,0
189,-447,0,0,0,0,0,0,0,0,0,-1,1413,1471,0,0
196,-447,0,0,0,0,0,0,0,0,0,-1,1420,1471,0,0
203,-447,0,0,0,0,0,0,0,0,0,-1,1427,1471,0,0
210,-447,0,0,0,0,0,0,0,0,0,-1,1434,1471,0,0
217,-447,0,0,0,0,0,0,0,0,0,-1,1441,1471,0,0
224,-447,0,0,0,0,0,0,0,0,0,-1,1448,1471,0,0
231,-447,0,0,0,0,0,0,0,0,0,-1,1455,1471,0,0
238,-447,0,0,0,0,0,0,0,0,0,-1,1462,1471,0,0
245,-447,0,0,0,0,0,0,0,0,0,-1,1469,1471,0,0
252,-447,0,0,0,0,0,0,0,0,0,-1,1476,1471,0,0
259,-447,0,0,0,0,0,0,0,0,0,-1,1483,1471,0,0
266,-447,0,0,0,0,0,0,0,0,0,-1,1490,1471,0,0
273,-447,0,0,0,0,0,0,0,0,0,-1,1497,1471,0,0
280,-447,0,0,0,0,0,0,0,0,0,-1,1504,1471,0,0
287,-447,0,0,0,0,0,0,0,0,0,-1,1511,1471,0,0
294,-447,0,0,0,0,0,0,0,0,0,-1,1518,1471,0,0
301,-447,0,0,0,0,0,0,0,0,0,-1,1525,1471,0,0
308,-447,0,0,0,0,0,0,0,0,0,-1,1532,1471,0,0
315,-447,0,0,0,0,0,0,0,0,0,-1,1539,1471,0,0
322,-447,0,0,0,0,0,0,0,0,0,-1,1546,1471,0,0
329,-447,0,0,0,0,0,0,0,0,0,-1,1553,1471,0,0
336,-447,0,0,0,0,0,0,0,0,0,-1,1560,1471,0,0
343,-447,0,0,0,0,0,0,0,0,0,-1,1567,1471,0,0
350,-447,0,0,0,0,0,0,0,0,0,-1,1574,1471,0,0
357,-447,0,0,0,0,0,0,0,0,0,-1,1581,1471,0,0
364,-447,0,0,0,0,0,0,0,0,0,-1,1588,1471,0,0
371,-447,0,0,0,0,0,0,0,0,0,-1,1595,1471,0,0
378,-447,0,0,0,0,0,0,0,0,0,-1,1602,1471,0,0
385,-447,0,0,0,0,0,0,0,0,0,-1,1609,1471,0,0
392,-447,0,0,0,0,0,0,0,0,0,-1,1616,1471,0,0
399,-447,0,0,0,0,0,0,0,0,0,-1,1623,1471,0,0
406,-447,0,0,0,0,0,0,0,0,0,-1,1630,1471,0,0
413,-447,0,0,0,0,0,0,0,0,0,-1,1637,1471,0,0
420,-447,0,0,0,0,0,0,0,0,0,-1,1644,1471,0,0
427,-447,0,0,0,0,0,0,0,0,0,-1,1651,1471,0,0
434,-447,0,0,0,0,0,0,0,0,0,-1,1658,1471,0,0
441,-447,0,0,0,0,0,0,0,0,0,-1,1665,1471,0,0
448,-447,0,0,0,0,0,0,0,0,0,-1,1672,1471,0,0
455,-447,0,0,0,0,0,0,0,0,0,-1,1679,1471,0,0
462,-447,0,0,0,0,0,0,0,0,0,-1,1686,1471,0,0
469,-447,0,0,0,0,0,0,0,0,0,-1,1693,1471,0,0
476,-447,0,0,0,0,0,0,0,0,0,-1,1700,1471,0,0
483,-447,0,0,0,0,0,0,0,0,0,-1,1707,1471,0,0
490,-447,18.2214,-0.810303,0,0,0,0,0,0,0,-1,1714,1471,18.2215,0.810307
497,-447,17.0237,0.352417,0,0,0,0,0,0,0,-1,1721,1471,17.0237,-0.352442
504,-447,15.8998,1.53479,0,0,0,0,0,0,0,-1,1728,1471,15.8997,-1.53478
511,-447,14.7201,2.76111,0,0,0,0,0,0,0,-1,1735,1471,14.7201,-2.76107
518,-447,17.7618,13.2864,0,0,0,0,0,0,0,-1,1742,1471,17.7619,-13.2863
525,-447,17.1191,11.9014,0,0,0,0,0,0,0,-1,1749,1471,17.1191,-11.9013
532,-447,16.3959,10.0455,0,0,0,0,0,0,0,-1,1756,1471,16.3959,-10.0456
539,-447,14.1699,10.0204,0,0,0,0,0,0,0,-1,1763,1471,14.1699,-10.0204
546,-447,16.3715,11.8046,0,0,0,0,0,0,0,-1,1770,1471,16.3714,-11.8046
553,-447,17.5106,13.4012,0,0,0,0,0,0,0,-1,1777,1471,17.5107,-13.4012
560,-447,17.0187,13.168,0,0,0,0,0,0,0,-1,1784,1471,17.0187,-13.168
567,-447,18.9286,15.1703,0,0,0,0,0,0,0,-1,1791,1471,18.9286,-15.1703
574,-447,22.0316,18.1376,0,0,0,0,0,0,0,-1,1798,1471,22.0316,-18.1376
581,-447,22.1586,17.5542,0.00544878,0.00461967,-0.0034008,0.0084602,0.00160825,-0.724747,0.00518782,0.0381098,1805,1471,22.1585,-17.5542
588,-447,22.248,16.8893,0.00432761,0.00373527,-0.00285131,0.00689809,0.00116479,-0.733647,0.00426383,0.0216986,1812,1471,22.248,-16.8893
595,-447,22.2565,16.4108,0.00340856,0.00292158,-0.0023126,0.00549046,0.000839687,-0.732948,0.003415,0.0135151,1819,1471,22.2565,-16.4108
602,-447,22.2389,15.9094,0.00280486,0.00211195,-0.00178668,0.00427837,0.000638443,-0.689631,0.00266504,0.0117153,1826,1471,22.2389,-15.9094
609,-447,22.1995,15.4395,0.00236928,0.00140437,-0.00132662,0.00329845,0.000475197,-0.610998,0.00205893,0.0125105,1833,1471,22.1994,-15.4394
616,-447,22.1907,15.0026,0.00205457,0.000856063,-0.000971319,0.00259662,0.000314017,-0.509004,0.00163648,0.0145994,1840,1471,22.1907,-15.0026
623,-447,22.2139,14.5426,0.00197382,0.00034847,-0.000651515,0.00220274,0.000119553,-0.337886,0.00143031,0.0163552,1847,1471,22.2138,-14.5426
630,-447,22.2059,14.0457,0.00206937,-0.000131332,-0.000392221,0.00213718,-0.000199146,-0.171205,0.0014956,0.0097741,1854,1471,22.2059,-14.0457
637,-447,22.1992,13.5922,0.00219969,-0.00038776,-0.000196237,0.00221449,-0.000402558,-0.0752679,0.0016272,0.0101104,1861,1471,22.1992,-13.5922
644,-447,22.1967,13.1346,0.00244528,-0.000563264,-3.97687e-05,0.00244581,-0.00056379,-0.0132155,0.00184737,0.0112405,1868,1471,22.1967,-13.1347
651,-447,22.2124,12.6615,0.00283182,-0.000554309,3.04341e-05,0.0028321,-0.000554583,0.00898691,0.00209751,0.0459961,1875,1471,22.2124,-12.6615
658,-447,22.3538,12.1084,0,0,0,0,0,0,0,-1,1882,1471,22.3538,-12.1084
665,-447,18.4946,9.79919,0,0,0,0,0,0,0,-1,1889,1471,18.4946,-9.79922
672,-447,18.9784,9.66077,0,0,0,0,0,0,0,-1,1896,1471,18.9784,-9.66081
679,-447,14.844,7.4248,0,0,0,0,0,0,0,-1,1903,1471,14.844,-7.42477
686,-447,9.81079,4.30859,0,0,0,0,0,0,0,-1,1910,1471,9.8108,-4.30864
693,-447,10.48,2.08643,0,0,0,0,0,0,0,-1,1917,1471,10.48,-2.08642
700,-447,0,0,0,0,0,0,0,0,0,-1,1924,1471,0,0
707,-447,0,0,0,0,0,0,0,0,0,-1,1931,1471,0,0
714,-447,0,0,0,0,0,0,0,0,0,-1,1938,1471,0,0
721,-447,0,0,0,0,0,0,0,0,0,-1,1945,1471,0,0
728,-447,0,0,0,0,0,0,0,0,0,-1,1952,1471,0,0
735,-447,0,0,0,0,0,0,0,0,0,-1,1959,1471,0,0
742,-447,0,0,0,0,0,0,0,0,0,-1,1966,1471,0,0
749,-447,0,0,0,0,0,0,0,0,0,-1,1973,1471,0,0
756,-447,0,0,0,0,0,0,0,0,0,-1,1980,1471,0,0
763,-447,0,0,0,0,0,0,0,0,0,-1,1987,1471,0,0
770,-447,0,0,0,0,0,0,0,0,0,-1,1994,1471,0,0
777,-447,0,0,0,0,0,0,0,0,0,-1,2001,1471,0,0
784,-447,0,0,0,0,0,0,0,0,0,-1,2008,1471,0,0
791,-447,0,0,0,0,0,0,0,0,0,-1,2015,1471,0,0
798,-447,0,0,0,0,0,0,0,0,0,-1,2022,1471,0,0
805,-447,0,0,0,0,0,0,0,0,0,-1,2029,1471,0,0
812,-447,0,0,0,0,0,0,0,0,0,-1,2036,1471,0,0
-700,-454,0,0,0,0,0,0,0,0,0,-1,524,1478,0,0
-693,-454,0,0,0,0,0,0,0,0,0,-1,531,1478,0,0
-686,-454,0,0,0,0,0,0,0,0,0,-1,538,1478,0,0
-679,-454,0,0,0,0,0,0,0,0,0,-1,545,1478,0,0
-672,-454,0,0,0,0,0,0,0,0,0,-1,552,1478,0,0
-665,-454,0,0,0,0,0,0,0,0,0,-1,559,1478,0,0
-658,-454,0,0,0,0,0,0,0,0,0,-1,566,1478,0,0
-651,-454,0,0,0,0,0,0,0,0,0,-1,573,1478,0,0
-644,-454,0,0,0,0,0,0,0,0,0,-1,580,1478,0,0
-637,-454,0,0,0,0,0,0,0,0,0,-1,587,1478,0,0
-630,-454,0,0,0,0,0,0,0,0,0,-1,594,1478,0,0
-623,-454,0,0,0,0,0,0,0,0,0,-1,601,1478,0,0
-616,-454,0,0,0,0,0,0,0,0,0,-1,608,1478,0,0
-609,-454,0,0,0,0,0,0,0,0,0,-1,615,1478,0,0
-602,-454,0,0,0,0,0,0,0,0,0,-1,622,1478,0,0
-595,-454,0,0,0,0,0,0,0,0,0,-1,629,1478,0,0
-588,-454,0,0,0,0,0,0,0,0,0,-1,636,1478,0,0
-581,-454,0,0,0,0,0,0,0,0,0,-1,643,1478,0,0
-574,-454,-8.4881,-0.465942,0,0,0,0,0,0,0,-1,650,1478,-8.4881,0.465885
-567,-454,-8.10046,0.922974,0,0,0,0,0,0,0,-1,657,1478,-8.10047,-0.923034
-560,-454,-10.656,3.51172,0,0,0,0,0,0,0,-1,664,1478,-10.656,-3.51176
-553,-454,-9.01129,3.95251,0,0,0,0,0,0,0,-1,671,1478,-9.0113,-3.95256
-546,-454,-9.61896,6.05237,0,0,0,0,0,0,0,-1,678,1478,-9.61897,-6.05239
-539,-454,-7.72589,4.96533,0,0,0,0,0,0,0,-1,685,1478,-7.72592,-4.96532
-532,-454,-7.03931,7.59985,0,0,0,0,0,0,0,-1,692,1478,-7.03929,-7.59981
-525,-454,-5.78723,9.677,0,0,0,0,0,0,0,-1,699,1478,-5.78722,-9.67703
-518,-454,-7.14465,10.7931,0,0,0,0,0,0,0,-1,706,1478,-7.14467,-10.7931
-511,-454,-7.3114,11.2531,0.00155141,-0.00105101,0.00118605,0.00201084,-0.00151044,0.369567,0.00203984,0.0394773,713,1478,-7.31137,-11.2531
-504,-454,-7.2486,11.8394,0.00159794,-0.000724535,0.00104727,0.00200043,-0.00112703,0.366921,0.00182896,0.0166967,720,1478,-7.24858,-11.8394
-497,-454,-7.24365,12.3778,0.00171676,-0.000290111,0.00104185,0.00215981,-0.000733165,0.402089,0.00173664,0.0186097,727,1478,-7.24364,-12.3778
-490,-454,-7.24908,12.8824,0.00211883,0.000365004,0.0013095,0.00281791,-0.000334083,0.490365,0.00199929,0.0169043,734,1478,-7.24909,-12.8824
-483,-454,-7.28613,13.3513,0.00294128,0.00122698,0.00192836,0.00419441,-2.61539e-05,0.576264,0.00280503,0.0158416,741,1478,-7.28614,-13.3513
-476,-454,-7.31592,13.8052,0.00409284,0.00221745,0.00279868,0.00610673,0.000203559,0.623751,0.00400502,0.0141871,748,1478,-7.31594,-13.8052
-469,-454,-7.31396,14.3427,0.00563211,0.00331776,0.00398614,0.00862565,0.000324224,0.644132,0.00564546,0.0102717,755,1478,-7.31396,-14.3426
-462,-454,-7.33099,14.8737,0.00757436,0.00457319,0.00547207,0.0117479,0.000399682,0.651575,0.00770214,0.0106375,762,1478,-7.33101,-14.8736
-455,-454,-7.35443,15.3759,0.0100054,0.0059335,0.00728183,0.0155305,0.000408353,0.649082,0.0102203,0.0116742,769,1478,-7.35442,-15.3759
-448,-454,-7.34674,15.9133,0.0135022,0.00773764,0.0100406,0.0210661,0.000173821,0.645624,0.0139865,0.016983,776,1478,-7.34674,-15.9133
-441,-454,-7.04688,16.6655,0.0176523,0.00930541,0.0128749,0.0270133,-5.55785e-05,0.628666,0.0180274,0.0438125,783,1478,-7.04688,-16.6655
-434,-454,-6.59027,17.459,0,0,0,0,0,0,0,-1,790,1478,-6.59028,-17.459
-427,-454,-6.00183,15.8636,0,0,0,0,0,0,0,-1,797,1478,-6.00184,-15.8637
-420,-454,-6.28088,15.2135,0,0,0,0,0,0,0,-1,804,1478,-6.28087,-15.2135
-413,-454,-5.4408,13.674,0,0,0,0,0,0,0,-1,811,1478,-5.44079,-13.6739
-406,-454,-2.38208,10.0308,0,0,0,0,0,0,0,-1,818,1478,-2.38209,-10.0308
-399,-454,-1.21033,6.95447,0,0,0,0,0,0,0,-1,825,1478,-1.21035,-6.95452
-392,-454,0.0967407,0.985474,0,0,0,0,0,0,0,-1,832,1478,0.0967364,-0.985529
-385,-454,2.38629,3.297,0,0,0,0,0,0,0,-1,839,1478,2.38629,-3.29702
-378,-454,-15.9756,2.83997,0,0,0,0,0,0,0,-1,846,1478,-15.9756,-2.83994
-371,-454,-17.2753,2.01453,0,0,0,0,0,0,0,-1,853,1478,-17.2753,-2.01455
-364,-454,1.08124,0.819458,0,0,0,0,0,0,0,-1,860,1478,1.08124,-0.819513
-357,-454,0,0,0,0,0,0,0,0,0,-1,867,1478,0,0
-350,-454,0,0,0,0,0,0,0,0,0,-1,874,1478,0,0
-343,-454,0,0,0,0,0,0,0,0,0,-1,881,1478,0,0
-336,-454,0,0,0,0,0,0,0,0,0,-1,888,1478,0,0
-329,-454,0,0,0,0,0,0,0,0,0,-1,895,1478,0,0
-322,-454,0,0,0,0,0,0,0,0,0,-1,902,1478,0,0
-315,-454,0,0,0,0,0,0,0,0,0,-1,909,1478,0,0
-308,-454,0,0,0,0,0,0,0,0,0,-1,916,1478,0,0
-301,-454,0,0,0,0,0,0,0,0,0,-1,923,1478,0,0
-294,-454,0,0,0,0,0,0,0,0,0,-1,930,1478,0,0
-287,-454,0,0,0,0,0,0,0,0,0,-1,937,1478,0,0
-280,-454,0,0,0,0,0,0,0,0,0,-1,944,1478,0,0
-273,-454,0,0,0,0,0,0,0,0,0,-1,951,1478,0,0
-266,-454,0,0,0,0,0,0,0,0,0,-1,958,1478,0,0
-259,-454,0,0,0,0,0,0,0,0,0,-1,965,1478,0,0
-252,-454,0,0,0,0,0,0,0,0,0,-1,972,1478,0,0
-245,-454,0,0,0,0,0,0,0,0,0,-1,979,1478,0,0
-238,-454,0,0,0,0,0,0,0,0,0,-1,986,1478,0,0
-231,-454,0,0,0,0,0,0,0,0,0,-1,993,1478,0,0
-224,-454,0,0,0,0,0,0,0,0,0,-1,1000,1478,0,0
-217,-454,0,0,0,0,0,0,0,0,0,-1,1007,1478,0,0
-210,-454,0,0,0,0,0,0,0,0,0,-1,1014,1478,0,0
-203,-454,0,0,0,0,0,0,0,0,0,-1,1021,1478,0,0
-196,-454,0,0,0,0,0,0,0,0,0,-1,1028,1478,0,0
-189,-454,0,0,0,0,0,0,0,0,0,-1,1035,1478,0,0
-182,-454,0,0,0,0,0,0,0,0,0,-1,1042,1478,0,0
-175,-454,0,0,0,0,0,0,0,0,0,-1,1049,1478,0,0
-168,-454,0,0,0,0,0,0,0,0,0,-1,1056,1478,0,0
-161,-454,0,0,0,0,0,0,0,0,0,-1,1063,1478,0,0
-154,-454,0,0,0,0,0,0,0,0,0,-1,1070,1478,0,0
-147,-454,0,0,0,0,0,0,0,0,0,-1,1077,1478,0,0
-140,-454,0,0,0,0,0,0,0,0,0,-1,1084,1478,0,0
-133,-454,0,0,0,0,0,0,0,0,0,-1,1091,1478,0,0
-126,-454,0,0,0,0,0,0,0,0,0,-1,1098,1478,0,0
-119,-454,0,0,0,0,0,0,0,0,0,-1,1105,1478,0,0
-112,-454,0,0,0,0,0,0,0,0,0,-1,1112,1478,0,0
-105,-454,0,0,0,0,0,0,0,0,0,-1,1119,1478,0,0
-98,-454,0,0,0,0,0,0,0,0,0,-1,1126,1478,0,0
-91,-454,0,0,0,0,0,0,0,0,0,-1,1133,1478,0,0
-84,-454,0,0,0,0,0,0,0,0,0,-1,1140,1478,0,0
-77,-454,0,0,0,0,0,0,0,0,0,-1,1147,1478,0,0
-70,-454,0,0,0,0,0,0,0,0,0,-1,1154,1478,0,0
-63,-454,0,0,0,0,0,0,0,0,0,-1,1161,1478,0,0
-56,-454,0,0,0,0,0,0,0,0,0,-1,1168,1478,0,0
-49,-454,0,0,0,0,0,0,0,0,0,-1,1175,1478,0,0
-42,-454,0,0,0,0,0,0,0,0,0,-1,1182,1478,0,0
-35,-454,0,0,0,0,0,0,0,0,0,-1,1189,1478,0,0
-28,-454,0,0,0,0,0,0,0,0,0,-1,1196,1478,0,0
-21,-454,0,0,0,0,0,0,0,0,0,-1,1203,1478,0,0
-14,-454,0,0,0,0,0,0,0,0,0,-1,1210,1478,0,0
-7,-454,0,0,0,0,0,0,0,0,0,-1,1217,1478,0,0
0,-454,0,0,0,0,0,0,0,0,0,-1,1224,1478,0,0
7,-454,0,0,0,0,0,0,0,0,0,-1,1231,1478,0,0
14,-454,0,0,0,0,0,0,0,0,0,-1,1238,1478,0,0
21,-454,0,0,0,0,0,0,0,0,0,-1,1245,1478,0,0
28,-454,0,0,0,0,0,0,0,0,0,-1,1252,1478,0,0
35,-454,0,0,0,0,0,0,0,0,0,-1,1259,1478,0,0
42,-454,0,0,0,0,0,0,0,0,0,-1,1266,1478,0,0
49,-454,0,0,0,0,0,0,0,0,0,-1,1273,1478,0,0
56,-454,0,0,0,0,0,0,0,0,0,-1,1280,1478,0,0
63,-454,0,0,0,0,0,0,0,0,0,-1,1287,1478,0,0
70,-454,0,0,0,0,0,0,0,0,0,-1,1294,1478,0,0
77,-454,0,0,0,0,0,0,0,0,0,-1,1301,1478,0,0
84,-454,0,0,0,0,0,0,0,0,0,-1,1308,1478,0,0
91,-454,0,0,0,0,0,0,0,0,0,-1,1315,1478,0,0
98,-454,0,0,0,0,0,0,0,0,0,-1,1322,1478,0,0
105,-454,0,0,0,0,0,0,0,0,0,-1,1329,1478,0,0
112,-454,0,0,0,0,0,0,0,0,0,-1,1336,1478,0,0
119,-454,0,0,0,0,0,0,0,0,0,-1,1343,1478,0,0
126,-454,0,0,0,0,0,0,0,0,0,-1,1350,1478,0,0
133,-454,0,0,0,0,0,0,0,0,0,-1,1357,1478,0,0
140,-454,0,0,0,0,0,0,0,0,0,-1,1364,1478,0,0
147,-454,0,0,0,0,0,0,0,0,0,-1,1371,1478,0,0
154,-454,0,0,0,0,0,0,0,0,0,-1,1378,1478,0,0
161,-454,0,0,0,0,0,0,0,0,0,-1,1385,1478,0,0
168,-454,0,0,0,0,0,0,0,0,0,-1,1392,1478,0,0
175,-454,0,0,0,0,0,0,0,0,0,-1,1399,1478,0,0
182,-454,0,0,0,0,0,0,0,0,0,-1,1406,1478,0,0
189,-454,0,0,0,0,0,0,0,0,0,-1,1413,1478,0,0
196,-454,0,0,0,0,0,0,0,0,0,-1,1420,1478,0,0
203,-454,0,0,0,0,0,0,0,0,0,-1,1427,1478,0,0
210,-454,0,0,0,0,0,0,0,0,0,-1,1434,1478,0,0
217,-454,0,0,0,0,0,0,0,0,0,-1,1441,1478,0,0
224,-454,0,0,0,0,0,0,0,0,0,-1,1448,1478,0,0
231,-454,0,0,0,0,0,0,0,0,0,-1,1455,1478,0,0
238,-454,0,0,0,0,0,0,0,0,0,-1,1462,1478,0,0
245,-454,0,0,0,0,0,0,0,0,0,-1,1469,1478,0,0
252,-454,0,0,0,0,0,0,0,0,0,-1,1476,1478,0,0
259,-454,0,0,0,0,0,0,0,0,0,-1,1483,1478,0,0
266,-454,0,0,0,0,0,0,0,0,0,-1,1490,1478,0,0
273,-454,0,0,0,0,0,0,0,0,0,-1,1497,1478,0,0
280,-454,0,0,0,0,0,0,0,0,0,-1,1504,1478,0,0
287,-454,0,0,0,0,0,0,0,0,0,-1,1511,1478,0,0
294,-454,0,0,0,0,0,0,0,0,0,-1,1518,1478,0,0
301,-454,0,0,0,0,0,0,0,0,0,-1,1525,1478,0,0
308,-454,0,0,0,0,0,0,0,0,0,-1,1532,1478,0,0
315,-454,0,0,0,0,0,0,0,0,0,-1,1539,1478,0,0
322,-454,0,0,0,0,0,0,0,0,0,-1,1546,1478,0,0
329,-454,0,0,0,0,0,0,0,0,0,-1,1553,1478,0,0
336,-454,0,0,0,0,0,0,0,0,0,-1,1560,1478,0,0
343,-454,0,0,0,0,0,0,0,0,0,-1,1567,1478,0,0
350,-454,0,0,0,0,0,0,0,0,0,-1,1574,1478,0,0
357,-454,0,0,0,0,0,0,0,0,0,-1,1581,1478,0,0
364,-454,0,0,0,0,0,0,0,0,0,-1,1588,1478,0,0
371,-454,0,0,0,0,0,0,0,0,0,-1,1595,1478,0,0
378,-454,0,0,0,0,0,0,0,0,0,-1,1602,1478,0,0
385,-454,0,0,0,0,0,0,0,0,0,-1,1609,1478,0,0
392,-454,0,0,0,0,0,0,0,0,0,-1,1616,1478,0,0
399,-454,0,0,0,0,0,0,0,0,0,-1,1623,1478,0,0
406,-454,0,0,0,0,0,0,0,0,0,-1,1630,1478,0,0
413,-454,0,0,0,0,0,0,0,0,0,-1,1637,1478,0,0
420,-454,0,0,0,0,0,0,0,0,0,-1,1644,1478,0,0
427,-454,0,0,0,0,0,0,0,0,0,-1,1651,1478,0,0
434,-454,0,0,0,0,0,0,0,0,0,-1,1658,1478,0,0
441,-454,0,0,0,0,0,0,0,0,0,-1,1665,1478,0,0
448,-454,0,0,0,0,0,0,0,0,0,-1,1672,1478,0,0
455,-454,0,0,0,0,0,0,0,0,0,-1,1679,1478,0,0
462,-454,0,0,0,0,0,0,0,0,0,-1,1686,1478,0,0
469,-454,0,0,0,0,0,0,0,0,0,-1,1693,1478,0,0
476,-454,0,0,0,0,0,0,0,0,0,-1,1700,1478,0,0
483,-454,14.2399,3.97498,0,0,0,0,0,0,0,-1,1707,1478,14.2399,-3.97502
490,-454,18.1821,-0.175781,0,0,0,0,0,0,0,-1,1714,1478,18.1821,0.175822
497,-454,16.8854,1.01208,0,0,0,0,0,0,0,-1,1721,1478,16.8854,-1.01209
504,-454,15.587,2.05994,0,0,0,0,0,0,0,-1,1728,1478,15.5871,-2.05998
511,-454,17.0273,14.5258,0,0,0,0,0,0,0,-1,1735,1478,17.0273,-14.5258
518,-454,16.4158,13.1039,0,0,0,0,0,0,0,-1,1742,1478,16.4157,-13.1038
525,-454,15.7842,11.6628,0,0,0,0,0,0,0,-1,1749,1478,15.7841,-11.6629
532,-454,15.1094,10.2476,0,0,0,0,0,0,0,-1,1756,1478,15.1094,-10.2475
539,-454,13.7905,10.9373,0,0,0,0,0,0,0,-1,1763,1478,13.7906,-10.9372
546,-454,16.2002,13.2458,0,0,0,0,0,0,0,-1,1770,1478,16.2002,-13.2459
553,-454,15.6747,12.1868,0,0,0,0,0,0,0,-1,1777,1478,15.6747,-12.1868
560,-454,16.3895,14.0527,0,0,0,0,0,0,0,-1,1784,1478,16.3895,-14.0528
567,-454,21.8578,18.2513,0,0,0,0,0,0,0,-1,1791,1478,21.8578,-18.2513
574,-454,21.7806,17.8702,0.00492998,0.00442887,-0.00288237,0.00757266,0.00178619,-0.742043,0.0045709,0.0335911,1798,1478,21.7806,-17.8702
581,-454,21.7614,17.3517,0.00407428,0.00380628,-0.00253582,0.00647964,0.00140092,-0.759001,0.00393677,0.020905,1805,1478,21.7613,-17.3517
588,-454,21.8085,16.8595,0.00336296,0.00301906,-0.00214853,0.00534641,0.00103561,-0.745468,0.00327413,0.0140799,1812,1478,21.8085,-16.8595
595,-454,21.7791,16.402,0.00286708,0.00224591,-0.00177309,0.00435658,0.000756405,-0.698695,0.00268796,0.0128361,1819,1478,21.779,-16.402
602,-454,21.7683,15.9226,0.00259206,0.00147479,-0.00140795,0.00354815,0.000518701,-0.596537,0.00221289,0.00929085,1826,1478,21.7683,-15.9226
609,-454,21.7592,15.4736,0.00246452,0.000790652,-0.00107751,0.00299195,0.000263223,-0.455203,0.00191294,0.0107225,1833,1478,21.7591,-15.4736
616,-454,21.7438,15.0403,0.00244299,0.000229136,-0.000820337,0.00271383,-4.1703e-05,-0.318888,0.00182328,0.0140991,1840,1478,21.7438,-15.0403
623,-454,21.7664,14.563,0.00262346,-0.000318509,-0.000568886,0.00272964,-0.000424682,-0.184511,0.00197658,0.0132643,1847,1478,21.7663,-14.563
630,-454,21.7622,14.0872,0.002942,-0.000814344,-0.000353916,0.00297506,-0.000847398,-0.0931262,0.00231806,0.0127988,1854,1478,21.7622,-14.0871
637,-454,21.714,13.6421,0.00331607,-0.00103614,-0.000248028,0.00333016,-0.00105023,-0.056744,0.00264074,0.0110521,1861,1478,21.714,-13.6421
644,-454,21.7731,13.1505,0.00380691,-0.00114171,-0.000227789,0.00381737,-0.00115217,-0.0459015,0.00300356,0.0225257,1868,1478,21.7731,-13.1505
651,-454,21.8727,12.6035,0,0,0,0,0,0,0,-1,1875,1478,21.8727,-12.6035
658,-454,17.2583,10.0765,0,0,0,0,0,0,0,-1,1882,1478,17.2583,-10.0765
665,-454,17.683,9.67566,0,0,0,0,0,0,0,-1,1889,1478,17.683,-9.67572
672,-454,16.5476,6.41931,0,0,0,0,0,0,0,-1,1896,1478,16.5476,-6.41929
679,-454,14.2161,5.45007,0,0,0,0,0,0,0,-1,1903,1478,14.2161,-5.45013
686,-454,10.3767,2.12842,0,0,0,0,0,0,0,-1,1910,1478,10.3767,-2.12839
693,-454,11.1857,1.48486,0,0,0,0,0,0,0,-1,1917,1478,11.1857,-1.48487
700,-454,0,0,0,0,0,0,0,0,0,-1,1924,1478,0,0
707,-454,0,0,0,0,0,0,0,0,0,-1,1931,1478,0,0
714,-454,0,0,0,0,0,0,0,0,0,-1,1938,1478,0,0
721,-454,0,0,0,0,0,0,0,0,0,-1,1945,1478,0,0
728,-454,0,0,0,0,0,0,0,0,0,-1,1952,1478,0,0
735,-454,0,0,0,0,0,0,0,0,0,-1,1959,1478,0,0
742,-454,0,0,0,0,0,0,0,0,0,-1,1966,1478,0,0
749,-454,0,0,0,0,0,0,0,0,0,-1,1973,1478,0,0
756,-454,0,0,0,0,0,0,0,0,0,-1,1980,1478,0,0
763,-454,0,0,0,0,0,0,0,0,0,-1,1987,1478,0,0
770,-454,0,0,0,0,0,0,0,0,0,-1,1994,1478,0,0
777,-454,0,0,0,0,0,0,0,0,0,-1,2001,1478,0,0
784,-454,0,0,0,0,0,0,0,0,0,-1,2008,1478,0,0
791,-454,0,0,0,0,0,0,0,0,0,-1,2015,1478,0,0
798,-454,0,0,0,0,0,0,0,0,0,-1,2022,1478,0,0
805,-454,0,0,0,0,0,0,0,0,0,-1,2029,1478,0,0
812,-454,0,0,0,0,0,0,0,0,0,-1,2036,1478,0,0
-700,-461,0,0,0,0,0,0,0,0,0,-1,524,1485,0,0
-693,-461,0,0,0,0,0,0,0,0,0,-1,531,1485,0,0
-686,-461,0,0,0,0,0,0,0,0,0,-1,538,1485,0,0
-679,-461,0,0,0,0,0,0,0,0,0,-1,545,1485,0,0
-672,-461,0,0,0,0,0,0,0,0,0,-1,552,1485,0,0
-665,-461,0,0,0,0,0,0,0,0,0,-1,559,1485,0,0
-658,-461,0,0,0,0,0,0,0,0,0,-1,566,1485,0,0
-651,-461,0,0,0,0,0,0,0,0,0,-1,573,1485,0,0
-644,-461,0,0,0,0,0,0,0,0,0,-1,580,1485,0,0
-637,-461,0,0,0,0,0,0,0,0,0,-1,587,1485,0,0
-630,-461,0,0,0,0,0,0,0,0,0,-1,594,1485,0,0
-623,-461,0,0,0,0,0,0,0,0,0,-1,601,1485,0,0
-616,-461,0,0,0,0,0,0,0,0,0,-1,608,1485,0,0
-609,-461,0,0,0,0,0,0,0,0,0,-1,615,1485,0,0
-602,-461,0,0,0,0,0,0,0,0,0,-1,622,1485,0,0
-595,-461,0,0,0,0,0,0,0,0,0,-1,629,1485,0,0
-588,-461,0,0,0,0,0,0,0,0,0,-1,636,1485,0,0
-581,-461,0,0,0,0,0,0,0,0,0,-1,643,1485,0,0
-574,-461,0,0,0,0,0,0,0,0,0,-1,650,1485,0,0
-567,-461,-9.69031,0.513306,0,0,0,0,0,0,0,-1,657,1485,-9.69032,-0.513305
-560,-461,-7.28815,1.54004,0,0,0,0,0,0,0,-1,664,1485,-7.28817,-1.54005
-553,-461,-11.9607,5.27783,0,0,0,0,0,0,0,-1,671,1485,-11.9607,-5.27778
-546,-461,-11.4215,4.44666,0,0,0,0,0,0,0,-1,678,1485,-11.4215,-4.4467
-539,-461,-9.36493,5.23438,0,0,0,0,0,0,0,-1,685,1485,-9.3649,-5.23432
-532,-461,-7.82898,6.78357,0,0,0,0,0,0,0,-1,692,1485,-7.829,-6.78363
-525,-461,-6.37878,8.75659,0,0,0,0,0,0,0,-1,699,1485,-6.3788,-8.75659
-518,-461,-6.29907,10.6974,0,0,0,0,0,0,0,-1,706,1485,-6.29908,-10.6974
-511,-461,-6.58685,11.4105,0.00237786,-0.00104764,0.00202437,0.00331682,-0.00198661,0.434295,0.00309388,0.0456253,713,1485,-6.58687,-11.4105
-504,-461,-6.797,11.7943,0.00185121,-0.000899806,0.00141091,0.00244616,-0.00149475,0.399051,0.00229728,0.0232534,720,1485,-6.79698,-11.7943
-497,-461,-6.73907,12.3954,0.00148805,-0.000662288,0.000995019,0.00187782,-0.00105206,0.373351,0.00171381,0.0106835,727,1485,-6.73905,-12.3954
-490,-461,-6.76215,12.895,0.00149647,-0.000211247,0.000931154,0.00190599,-0.000620766,0.414337,0.00152043,0.0124618,734,1485,-6.76217,-12.8951
-483,-461,-6.79083,13.37,0.00202568,0.000492426,0.00128857,0.00275843,-0.000240323,0.517051,0.00192407,0.01301,741,1485,-6.79081,-13.37
-476,-461,-6.82227,13.8585,0.00296634,0.00131961,0.0019589,0.00426788,1.80686e-05,0.586447,0.00283925,0.011568,748,1485,-6.82229,-13.8585
-469,-461,-6.82922,14.3781,0.00432061,0.00224975,0.00296487,0.00642565,0.000144704,0.617402,0.00423636,0.0126884,755,1485,-6.82925,-14.3781
-462,-461,-6.83948,14.8629,0.00604691,0.00329879,0.00424578,0.00913544,0.000210256,0.628902,0.00602143,0.0176232,762,1485,-6.83949,-14.863
-455,-461,-6.8443,15.3507,0.00818983,0.00443443,0.00581908,0.0124267,0.000197597,0.629332,0.00821937,0.0214452,769,1485,-6.84429,-15.3508
-448,-461,-6.84827,15.8864,0.0111243,0.005892,0.0080712,0.0169927,2.35327e-05,0.628674,0.0113207,0.0177624,776,1485,-6.84827,-15.8863
-441,-461,-6.77734,16.4412,0.014618,0.0072599,0.010504,0.0220687,-0.00019075,0.616949,0.0147764,0.0220922,783,1485,-6.77733,-16.4412
-434,-461,-6.43842,16.9775,0.0183324,0.00866012,0.0131837,0.027539,-0.000546423,0.609604,0.0185441,0.0378737,790,1485,-6.4384,-16.9776
-427,-461,-6.17944,17.7838,0,0,0,0,0,0,0,-1,797,1485,-6.17943,-17.7838
-420,-461,-5.70355,16.6116,0,0,0,0,0,0,0,-1,804,1485,-5.70353,-16.6115
-413,-461,-5.98798,16.0605,0,0,0,0,0,0,0,-1,811,1485,-5.98796,-16.0605
-406,-461,-5.52667,14.839,0,0,0,0,0,0,0,-1,818,1485,-5.52666,-14.839
-399,-461,-1.93439,9.82849,0,0,0,0,0,0,0,-1,825,1485,-1.9344,-9.82846
-392,-461,-0.357544,5.55225,0,0,0,0,0,0,0,-1,832,1485,-0.357536,-5.55228
-385,-461,1.71509,3.35254,0,0,0,0,0,0,0,-1,839,1485,1.71511,-3.35255
-378,-461,1.95996,3.01111,0,0,0,0,0,0,0,-1,846,1485,1.95993,-3.01111
-371,-461,0.702881,2.33459,0,0,0,0,0,0,0,-1,853,1485,0.702859,-2.33459
-364,-461,-1.93097,2.56458,0,0,0,0,0,0,0,-1,860,1485,-1.93095,-2.56456
-357,-461,-2.41516,3.49487,0,0,0,0,0,0,0,-1,867,1485,-2.41517,-3.49487
-350,-461,0,0,0,0,0,0,0,0,0,-1,874,1485,0,0
-343,-461,0,0,0,0,0,0,0,0,0,-1,881,1485,0,0
-336,-461,0,0,0,0,0,0,0,0,0,-1,888,1485,0,0
-329,-461,0,0,0,0,0,0,0,0,0,-1,895,1485,0,0
-322,-461,0,0,0,0,0,0,0,0,0,-1,902,1485,0,0
-315,-461,0,0,0,0,0,0,0,0,0,-1,909,1485,0,0
-308,-461,0,0,0,0,0,0,0,0,0,-1,916,1485,0,0
-301,-461,0,0,0,0,0,0,0,0,0,-1,923,1485,0,0
-294,-461,0,0,0,0,0,0,0,0,0,-1,930,1485,0,0
-287,-461,0,0,0,0,0,0,0,0,0,-1,937,1485,0,0
-280,-461,0,0,0,0,0,0,0,0,0,-1,944,1485,0,0
-273,-461,0,0,0,0,0,0,0,0,0,-1,951,1485,0,0
-266,-461,0,0,0,0,0,0,0,0,0,-1,958,1485,0,0
-259,-461,0,0,0,0,0,0,0,0,0,-1,965,1485,0,0
-252,-461,0,0,0,0,0,0,0,0,0,-1,972,1485,0,0
-245,-461,0,0,0,0,0,0,0,0,0,-1,979,1485,0,0
-238,-461,0,0,0,0,0,0,0,0,0,-1,986,1485,0,0
-231,-461,0,0,0,0,0,0,0,0,0,-1,993,1485,0,0
-224,-461,0,0,0,0,0,0,0,0,0,-1,1000,1485,0,0
-217,-461,0,0,0,0,0,0,0,0,0,-1,1007,1485,0,0
-210,-461,0,0,0,0,0,0,0,0,0,-1,1014,1485,0,0
-203,-461,0,0,0,0,0,0,0,0,0,-1,1021,1485,0,0
-196,-461,0,0,0,0,0,0,0,0,0,-1,1028,1485,0,0
-189,-461,0,0,0,0,0,0,0,0,0,-1,1035,1485,0,0
-182,-461,0,0,0,0,0,0,0,0,0,-1,1042,1485,0,0
-175,-461,0,0,0,0,0,0,0,0,0,-1,1049,1485,0,0
-168,-461,0,0,0,0,0,0,0,0,0,-1,1056,1485,0,0
-161,-461,0,0,0,0,0,0,0,0,0,-1,1063,1485,0,0
-154,-461,0,0,0,0,0,0,0,0,0,-1,1070,1485,0,0
-147,-461,0,0,0,0,0,0,0,0,0,-1,1077,1485,0,0
-140,-461,0,0,0,0,0,0,0,0,0,-1,1084,1485,0,0
-133,-461,0,0,0,0,0,0,0,0,0,-1,1091,1485,0,0
-126,-461,0,0,0,0,0,0,0,0,0,-1,1098,1485,0,0
-119,-461,0,0,0,0,0,0,0,0,0,-1,1105,1485,0,0
-112,-461,0,0,0,0,0,0,0,0,0,-1,1112,1485,0,0
-105,-461,0,0,0,0,0,0,0,0,0,-1,1119,1485,0,0
-98,-461,0,0,0,0,0,0,0,0,0,-1,1126,1485,0,0
-91,-461,0,0,0,0,0,0,0,0,0,-1,1133,1485,0,0
-84,-461,0,0,0,0,0,0,0,0,0,-1,1140,1485,0,0
-77,-461,0,0,0,0,0,0,0,0,0,-1,1147,1485,0,0
-70,-461,0,0,0,0,0,0,0,0,0,-1,1154,1485,0,0
-63,-461,0,0,0,0,0,0,0,0,0,-1,1161,1485,0,0
-56,-461,0,0,0,0,0,0,0,0,0,-1,1168,1485,0,0
-49,-461,0,0,0,0,0,0,0,0,0,-1,1175,1485,0,0
-42,-461,0,0,0,0,0,0,0,0,0,-1,1182,1485,0,0
-35,-461,0,0,0,0,0,0,0,0,0,-1,1189,1485,0,0
-28,-461,0,0,0,0,0,0,0,0,0,-1,1196,1485,0,0
-21,-461,0,0,0,0,0,0,0,0,0,-1,1203,1485,0,0
-14,-461,0,0,0,0,0,0,0,0,0,-1,1210,1485,0,0
-7,-461,0,0,0,0,0,0,0,0,0,-1,1217,1485,0,0
0,-461,0,0,0,0,0,0,0,0,0,-1,1224,1485,0,0
7,-461,0,0,0,0,0,0,0,0,0,-1,1231,1485,0,0
14,-461,0,0,0,0,0,0,0,0,0,-1,1238,1485,0,0
21,-461,0,0,0,0,0,0,0,0,0,-1,1245,1485,0,0
28,-461,0,0,0,0,0,0,0,0,0,-1,1252,1485,0,0
35,-461,0,0,0,0,0,0,0,0,0,-1,1259,1485,0,0
42,-461,0,0,0,0,0,0,0,0,0,-1,1266,1485,0,0
49,-461,0,0,0,0,0,0,0,0,0,-1,1273,1485,0,0
56,-461,0,0,0,0,0,0,0,0,0,-1,1280,1485,0,0
63,-461,0,0,0,0,0,0,0,0,0,-1,1287,1485,0,0
70,-461,0,0,0,0,0,0,0,0,0,-1,1294,1485,0,0
77,-461,0,0,0,0,0,0,0,0,0,-1,1301,1485,0,0
84,-461,0,0,0,0,0,0,0,0,0,-1,1308,1485,0,0
91,-461,0,0,0,0,0,0,0,0,0,-1,1315,1485,0,0
98,-461,0,0,0,0,0,0,0,0,0,-1,1322,1485,0,0
105,-461,0,0,0,0,0,0,0,0,0,-1,1329,1485,0,0
112,-461,0,0,0,0,0,0,0,0,0,-1,1336,1485,0,0
119,-461,0,0,0,0,0,0,0,0,0,-1,1343,1485,0,0
126,-461,0,0,0,0,0,0,0,0,0,-1,1350,1485,0,0
133,-461,0,0,0,0,0,0,0,0,0,-1,1357,1485,0,0
140,-461,0,0,0,0,0,0,0,0,0,-1,1364,1485,0,0
147,-461,0,0,0,0,0,0,0,0,0,-1,1371,1485,0,0
154,-461,0,0,0,0,0,0,0,0,0,-1,1378,1485,0,0
161,-461,0,0,0,0,0,0,0,0,0,-1,1385,1485,0,0
168,-461,0,0,0,0,0,0,0,0,0,-1,1392,1485,0,0
175,-461,0,0,0,0,0,0,0,0,0,-1,1399,1485,0,0
182,-461,0,0,0,0,0,0,0,0,0,-1,1406,1485,0,0
189,-461,0,0,0,0,0,0,0,0,0,-1,1413,1485,0,0
196,-461,0,0,0,0,0,0,0,0,0,-1,1420,1485,0,0
203,-461,0,0,0,0,0,0,0,0,0,-1,1427,1485,0,0
210,-461,0,0,0,0,0,0,0,0,0,-1,1434,1485,0,0
217,-461,0,0,0,0,0,0,0,0,0,-1,1441,1485,0,0
224,-461,0,0,0,0,0,0,0,0,0,-1,1448,1485,0,0
231,-461,0,0,0,0,0,0,0,0,0,-1,1455,1485,0,0
238,-461,0,0,0,0,0,0,0,0,0,-1,1462,1485,0,0
245,-461,0,0,0,0,0,0,0,0,0,-1,1469,1485,0,0
252,-461,0,0,0,0,0,0,0,0,0,-1,1476,1485,0,0
259,-461,0,0,0,0,0,0,0,0,0,-1,1483,1485,0,0
266,-461,0,0,0,0,0,0,0,0,0,-1,1490,1485,0,0
273,-461,0,0,0,0,0,0,0,0,0,-1,1497,1485,0,0
280,-461,0,0,0,0,0,0,0,0,0,-1,1504,1485,0,0
287,-461,0,0,0,0,0,0,0,0,0,-1,1511,1485,0,0
294,-461,0,0,0,0,0,0,0,0,0,-1,1518,1485,0,0
301,-461,0,0,0,0,0,0,0,0,0,-1,1525,1485,0,0
308,-461,0,0,0,0,0,0,0,0,0,-1,1532,1485,0,0
315,-461,0,0,0,0,0,0,0,0,0,-1,1539,1485,0,0
322,-461,0,0,0,0,0,0,0,0,0,-1,1546,1485,0,0
329,-461,0,0,0,0,0,0,0,0,0,-1,1553,1485,0,0
336,-461,0,0,0,0,0,0,0,0,0,-1,1560,1485,0,0
343,-461,0,0,0,0,0,0,0,0,0,-1,1567,1485,0,0
350,-461,0,0,0,0,0,0,0,0,0,-1,1574,1485,0,0
357,-461,0,0,0,0,0,0,0,0,0,-1,1581,1485,0,0
364,-461,0,0,0,0,0,0,0,0,0,-1,1588,1485,0,0
371,-461,0,0,0,0,0,0,0,0,0,-1,1595,1485,0,0
378,-461,0,0,0,0,0,0,0,0,0,-1,1602,1485,0,0
385,-461,0,0,0,0,0,0,0,0,0,-1,1609,1485,0,0
392,-461,0,0,0,0,0,0,0,0,0,-1,1616,1485,0,0
399,-461,0,0,0,0,0,0,0,0,0,-1,1623,1485,0,0
406,-461,0,0,0,0,0,0,0,0,0,-1,1630,1485,0,0
413,-461,0,0,0,0,0,0,0,0,0,-1,1637,1485,0,0
420,-461,0,0,0,0,0,0,0,0,0,-1,1644,1485,0,0
427,-461,0,0,0,0,0,0,0,0,0,-1,1651,1485,0,0
434,-461,0,0,0,0,0,0,0,0,0,-1,1658,1485,0,0
441,-461,0,0,0,0,0,0,0,0,0,-1,1665,1485,0,0
448,-461,0,0,0,0,0,0,0,0,0,-1,1672,1485,0,0
455,-461,0,0,0,0,0,0,0,0,0,-1,1679,1485,0,0
462,-461,0,0,0,0,0,0,0,0,0,-1,1686,1485,0,0
469,-461,0,0,0,0,0,0,0,0,0,-1,1693,1485,0,0
476,-461,14.1906,0.690552,0,0,0,0,0,0,0,-1,1700,1485,14.1906,-0.690525
483,-461,10.6361,3.09106,0,0,0,0,0,0,0,-1,1707,1485,10.6361,-3.091
490,-461,17.9972,0.665894,0,0,0,0,0,0,0,-1,1714,1485,17.9972,-0.665876
497,-461,16.6829,1.87732,0,0,0,0,0,0,0,-1,1721,1485,16.6828,-1.87736
504,-461,15.3884,3.09216,0,0,0,0,0,0,0,-1,1728,1485,15.3885,-3.09212
511,-461,15.4292,14.3512,0,0,0,0,0,0,0,-1,1735,1485,15.4292,-14.3512
518,-461,14.8081,10.0085,0,0,0,0,0,0,0,-1,1742,1485,14.8081,-10.0086
525,-461,14.0022,10.8033,0,0,0,0,0,0,0,-1,1749,1485,14.0022,-10.8033
532,-461,17.1704,14.077,0,0,0,0,0,0,0,-1,1756,1485,17.1704,-14.077
539,-461,17.0229,14.7386,0,0,0,0,0,0,0,-1,1763,1485,17.0229,-14.7387
546,-461,16.2106,14.1372,0,0,0,0,0,0,0,-1,1770,1485,16.2106,-14.1372
553,-461,20.7275,18.9574,0,0,0,0,0,0,0,-1,1777,1485,20.7276,-18.9574
560,-461,21.2815,18.7327,0,0,0,0,0,0,0,-1,1784,1485,21.2815,-18.7327
567,-461,21.3262,18.1949,0.00491557,0.00404539,-0.0024403,0.00695926,0.0020017,-0.697179,0.00413697,0.0310054,1791,1485,21.3262,-18.1949
574,-461,21.3596,17.8096,0.00407544,0.0034321,-0.0021614,0.00593897,0.00156857,-0.711529,0.00355378,0.02525,1798,1485,21.3597,-17.8096
581,-461,21.3663,17.3329,0.00344551,0.00287038,-0.00191216,0.00509161,0.00122428,-0.710763,0.00306882,0.0168685,1805,1485,21.3664,-17.3329
588,-461,21.3341,16.8755,0.00296036,0.00218465,-0.00163012,0.00424813,0.000896878,-0.668605,0.00258551,0.0122567,1812,1485,21.3341,-16.8755
595,-461,21.3032,16.4349,0.00271609,0.00149505,-0.00137134,0.00360667,0.000604467,-0.575971,0.00223043,0.00997146,1819,1485,21.3032,-16.4349
602,-461,21.3099,15.9476,0.00263785,0.000796886,-0.00112646,0.00317208,0.000262656,-0.442843,0.00203283,0.00980152,1826,1485,21.31,-15.9476
609,-461,21.3036,15.4832,0.00269592,0.000164911,-0.000897305,0.00298176,-0.000120924,-0.308386,0.00202935,0.0107526,1833,1485,21.3035,-15.4832
616,-461,21.2847,15.0393,0.00286762,-0.000384213,-0.000712339,0.00301682,-0.000533411,-0.206463,0.00221058,0.0131331,1840,1485,21.2847,-15.0393
623,-461,21.2861,14.5848,0.00322937,-0.000946951,-0.000515292,0.00329201,-0.00100959,-0.120967,0.00259745,0.0145727,1847,1485,21.2861,-14.5848
630,-461,21.276,14.1334,0.00373129,-0.00143114,-0.000339619,0.00375354,-0.00145339,-0.0654109,0.00310245,0.0142199,1854,1485,21.276,-14.1335
637,-461,21.2452,13.6775,0.00438173,-0.00159231,-0.000314835,0.00439827,-0.00160886,-0.0525068,0.00359069,0.0140023,1861,1485,21.2453,-13.6774
644,-461,21.2997,13.2836,0.00511602,-0.00168861,-0.000321665,0.00513119,-0.00170378,-0.0471314,0.00410822,0.0307885,1868,1485,21.2996,-13.2836
651,-461,21.4037,12.8381,0,0,0,0,0,0,0,-1,1875,1485,21.4037,-12.8381
658,-461,16.8987,10.1084,0,0,0,0,0,0,0,-1,1882,1485,16.8986,-10.1084
665,-461,17.2638,9.81384,0,0,0,0,0,0,0,-1,1889,1485,17.2638,-9.81385
672,-461,14.4877,6.89429,0,0,0,0,0,0,0,-1,1896,1485,14.4876,-6.89431
679,-461,10.0535,2.16321,0,0,0,0,0,0,0,-1,1903,1485,10.0535,-2.16317
686,-461,10.8195,1.84192,0,0,0,0,0,0,0,-1,1910,1485,10.8194,-1.84195
693,-461,0,0,0,0,0,0,0,0,0,-1,1917,1485,0,0
700,-461,0,0,0,0,0,0,0,0,0,-1,1924,1485,0,0
707,-461,0,0,0,0,0,0,0,0,0,-1,1931,1485,0,0
714,-461,0,0,0,0,0,0,0,0,0,-1,1938,1485,0,0
721,-461,0,0,0,0,0,0,0,0,0,-1,1945,1485,0,0
728,-461,0,0,0,0,0,0,0,0,0,-1,1952,1485,0,0
735,-461,0,0,0,0,0,0,0,0,0,-1,1959,1485,0,0
742,-461,0,0,0,0,0,0,0,0,0,-1,1966,1485,0,0
749,-461,0,0,0,0,0,0,0,0,0,-1,1973,1485,0,0
756,-461,0,0,0,0,0,0,0,0,0,-1,1980,1485,0,0
763,-461,0,0,0,0,0,0,0,0,0,-1,1987,1485,0,0
770,-461,0,0,0,0,0,0,0,0,0,-1,1994,1485,0,0
777,-461,0,0,0,0,0,0,0,0,0,-1,2001,1485,0,0
784,-461,0,0,0,0,0,0,0,0,0,-1,2008,1485,0,0
791,-461,0,0,0,0,0,0,0,0,0,-1,2015,1485,0,0
798,-461,0,0,0,0,0,0,0,0,0,-1,2022,1485,0,0
805,-461,0,0,0,0,0,0,0,0,0,-1,2029,1485,0,0
812,-461,0,0,0,0,0,0,0,0,0,-1,2036,1485,0,0
-700,-468,0,0,0,0,0,0,0,0,0,-1,524,1492,0,0
-693,-468,0,0,0,0,0,0,0,0,0,-1,531,1492,0,0
-686,-468,0,0,0,0,0,0,0,0,0,-1,538,1492,0,0
-679,-468,0,0,0,0,0,0,0,0,0,-1,545,1492,0,0
-672,-468,0,0,0,0,0,0,0,0,0,-1,552,1492,0,0
-665,-468,0,0,0,0,0,0,0,0,0,-1,559,1492,0,0
-658,-468,0,0,0,0,0,0,0,0,0,-1,566,1492,0,0
-651,-468,0,0,0,0,0,0,0,0,0,-1,573,1492,0,0
-644,-468,0,0,0,0,0,0,0,0,0,-1,580,1492,0,0
-637,-468,0,0,0,0,0,0,0,0,0,-1,587,1492,0,0
-630,-468,0,0,0,0,0,0,0,0,0,-1,594,1492,0,0
-623,-468,0,0,0,0,0,0,0,0,0,-1,601,1492,0,0
-616,-468,0,0,0,0,0,0,0,0,0,-1,608,1492,0,0
-609,-468,0,0,0,0,0,0,0,0,0,-1,615,1492,0,0
-602,-468,0,0,0,0,0,0,0,0,0,-1,622,1492,0,0
-595,-468,0,0,0,0,0,0,0,0,0,-1,629,1492,0,0
-588,-468,0,0,0,0,0,0,0,0,0,-1,636,1492,0,0
-581,-468,0,0,0,0,0,0,0,0,0,-1,643,1492,0,0
-574,-468,0,0,0,0,0,0,0,0,0,-1,650,1492,0,0
-567,-468,-11.2603,1.8042,0,0,0,0,0,0,0,-1,657,1492,-11.2603,-1.80424
-560,-468,-8.77441,2.23694,0,0,0,0,0,0,0,-1,664,1492,-8.77443,-2.23692
-553,-468,-5.94061,9.26318,0,0,0,0,0,0,0,-1,671,1492,-5.94062,-9.26322
-546,-468,-10.47,5.43237,0,0,0,0,0,0,0,-1,678,1492,-10.47,-5.4324
-539,-468,-10.2468,5.45203,0,0,0,0,0,0,0,-1,685,1492,-10.2468,-5.45197
-532,-468,-8.39795,6.02783,0,0,0,0,0,0,0,-1,692,1492,-8.39793,-6.02789
-525,-468,-6.59332,7.15405,0,0,0,0,0,0,0,-1,699,1492,-6.59331,-7.15411
-518,-468,-6.33588,8.65393,0,0,0,0,0,0,0,-1,706,1492,-6.33588,-8.65397
-511,-468,-6.20001,11.3224,0,0,0,0,0,0,0,-1,713,1492,-6.20001,-11.3223
-504,-468,-6.16003,11.838,0.00173654,-0.000921309,0.00192314,0.00274524,-0.00193001,0.483061,0.0027129,0.0368516,720,1492,-6.16004,-11.8381
-497,-468,-6.24603,12.3662,0.000800714,-0.000991709,0.00100294,0.00124952,-0.00144052,0.420768,0.0015544,0.016675,727,1492,-6.24605,-12.3662
-490,-468,-6.23199,12.9174,0.000399572,-0.000813276,0.000567274,0.00062354,-0.00103724,0.376027,0.00096872,0.00797748,734,1492,-6.23199,-12.9174
-483,-468,-6.27069,13.3981,0.000670096,-0.00029533,0.000644119,0.000992306,-0.00061754,0.463834,0.000937802,0.00839714,741,1492,-6.27067,-13.3981
-476,-468,-6.30328,13.8965,0.00146123,0.000379815,0.00111873,0.00216307,-0.000322024,0.56029,0.0015605,0.00943976,748,1492,-6.30329,-13.8965
-469,-468,-6.31378,14.4045,0.00270931,0.00117774,0.00195081,0.00403926,-0.000152201,0.598365,0.00274498,0.0138513,755,1492,-6.3138,-14.4045
-462,-468,-6.29144,14.8744,0.00432103,0.00208666,0.00304385,0.00644624,-3.85523e-05,0.609516,0.0043104,0.0244272,762,1492,-6.29142,-14.8744
-455,-468,-6.30066,15.3246,0.00629304,0.00308541,0.00440252,0.00937478,3.67034e-06,0.610722,0.00624863,0.0230252,769,1492,-6.30069,-15.3246
-448,-468,-6.33453,15.8702,0.00879823,0.00431097,0.00619379,0.0131422,-3.30298e-05,0.61163,0.00877252,0.0134285,776,1492,-6.33455,-15.8703
-441,-468,-6.34723,16.3754,0.0117944,0.00559202,0.00827212,0.0175275,-0.000141121,0.606058,0.0117323,0.0133498,783,1492,-6.34722,-16.3753
-434,-468,-6.31079,16.9296,0.0149777,0.00696648,0.0105634,0.0222695,-0.000325301,0.604176,0.0149559,0.019962,790,1492,-6.31078,-16.9296
-427,-468,-6.22375,17.4625,0.0181959,0.00837395,0.0129203,0.027107,-0.000537192,0.603782,0.0182531,0.0370705,797,1492,-6.22375,-17.4626
-420,-468,-5.79572,18.0139,0,0,0,0,0,0,0,-1,804,1492,-5.79574,-18.0139
-413,-468,-5.30328,17.3519,0,0,0,0,0,0,0,-1,811,1492,-5.30329,-17.352
-406,-468,-2.2356,9.396,0,0,0,0,0,0,0,-1,818,1492,-2.2356,-9.396
-399,-468,-0.940369,8.1936,0,0,0,0,0,0,0,-1,825,1492,-0.940365,-8.19357
-392,-468,-0.35144,8.14673,0,0,0,0,0,0,0,-1,832,1492,-0.351449,-8.14674
-385,-468,0.465759,5.35864,0,0,0,0,0,0,0,-1,839,1492,0.465732,-5.35864
-378,-468,1.99835,3.25391,0,0,0,0,0,0,0,-1,846,1492,1.99837,-3.2539
-371,-468,-0.31842,3.1532,0,0,0,0,0,0,0,-1,853,1492,-0.318441,-3.15324
-364,-468,-0.966736,2.14563,0,0,0,0,0,0,0,-1,860,1492,-0.966735,-2.14557
-357,-468,-3.06787,3.22742,0,0,0,0,0,0,0,-1,867,1492,-3.06784,-3.2274
-350,-468,-3.18658,4.12659,0,0,0,0,0,0,0,-1,874,1492,-3.18659,-4.12658
-343,-468,0,0,0,0,0,0,0,0,0,-1,881,1492,0,0
-336,-468,0,0,0,0,0,0,0,0,0,-1,888,1492,0,0
-329,-468,0,0,0,0,0,0,0,0,0,-1,895,1492,0,0
-322,-468,0,0,0,0,0,0,0,0,0,-1,902,1492,0,0
-315,-468,0,0,0,0,0,0,0,0,0,-1,909,1492,0,0
-308,-468,0,0,0,0,0,0,0,0,0,-1,916,1492,0,0
-301,-468,0,0,0,0,0,0,0,0,0,-1,923,1492,0,0
-294,-468,0,0,0,0,0,0,0,0,0,-1,930,1492,0,0
-287,-468,0,0,0,0,0,0,0,0,0,-1,937,1492,0,0
-280,-468,0,0,0,0,0,0,0,0,0,-1,944,1492,0,0
-273,-468,0,0,0,0,0,0,0,0,0,-1,951,1492,0,0
-266,-468,0,0,0,0,0,0,0,0,0,-1,958,1492,0,0
-259,-468,0,0,0,0,0,0,0,0,0,-1,965,1492,0,0
-252,-468,0,0,0,0,0,0,0,0,0,-1,972,1492,0,0
-245,-468,0,0,0,0,0,0,0,0,0,-1,979,1492,0,0
-238,-468,0,0,0,0,0,0,0,0,0,-1,986,1492,0,0
-231,-468,0,0,0,0,0,0,0,0,0,-1,993,1492,0,0
-224,-468,0,0,0,0,0,0,0,0,0,-1,1000,1492,0,0
-217,-468,0,0,0,0,0,0,0,0,0,-1,1007,1492,0,0
-210,-468,0,0,0,0,0,0,0,0,0,-1,1014,1492,0,0
-203,-468,0,0,0,0,0,0,0,0,0,-1,1021,1492,0,0
-196,-468,0,0,0,0,0,0,0,0,0,-1,1028,1492,0,0
-189,-468,0,0,0,0,0,0,0,0,0,-1,1035,1492,0,0
-182,-468,0,0,0,0,0,0,0,0,0,-1,1042,1492,0,0
-175,-468,0,0,0,0,0,0,0,0,0,-1,1049,1492,0,0
-168,-468,0,0,0,0,0,0,0,0,0,-1,1056,1492,0,0
-161,-468,0,0,0,0,0,0,0,0,0,-1,1063,1492,0,0
-154,-468,0,0,0,0,0,0,0,0,0,-1,1070,1492,0,0
-147,-468,0,0,0,0,0,0,0,0,0,-1,1077,1492,0,0
-140,-468,0,0,0,0,0,0,0,0,0,-1,1084,1492,0,0
-133,-468,0,0,0,0,0,0,0,0,0,-1,1091,1492,0,0
-126,-468,0,0,0,0,0,0,0,0,0,-1,1098,1492,0,0
-119,-468,0,0,0,0,0,0,0,0,0,-1,1105,1492,0,0
-112,-468,0,0,0,0,0,0,0,0,0,-1,1112,1492,0,0
-105,-468,0,0,0,0,0,0,0,0,0,-1,1119,1492,0,0
-98,-468,0,0,0,0,0,0,0,0,0,-1,1126,1492,0,0
-91,-468,0,0,0,0,0,0,0,0,0,-1,1133,1492,0,0
-84,-468,0,0,0,0,0,0,0,0,0,-1,1140,1492,0,0
-77,-468,0,0,0,0,0,0,0,0,0,-1,1147,1492,0,0
-70,-468,0,0,0,0,0,0,0,0,0,-1,1154,1492,0,0
-63,-468,0,0,0,0,0,0,0,0,0,-1,1161,1492,0,0
-56,-468,0,0,0,0,0,0,0,0,0,-1,1168,1492,0,0
-49,-468,0,0,0,0,0,0,0,0,0,-1,1175,1492,0,0
-42,-468,0,0,0,0,0,0,0,0,0,-1,1182,1492,0,0
-35,-468,0,0,0,0,0,0,0,0,0,-1,1189,1492,0,0
-28,-468,0,0,0,0,0,0,0,0,0,-1,1196,1492,0,0
-21,-468,0,0,0,0,0,0,0,0,0,-1,1203,1492,0,0
-14,-468,0,0,0,0,0,0,0,0,0,-1,1210,1492,0,0
-7,-468,0,0,0,0,0,0,0,0,0,-1,1217,1492,0,0
0,-468,0,0,0,0,0,0,0,0,0,-1,1224,1492,0,0
7,-468,0,0,0,0,0,0,0,0,0,-1,1231,1492,0,0
14,-468,0,0,0,0,0,0,0,0,0,-1,1238,1492,0,0
21,-468,0,0,0,0,0,0,0,0,0,-1,1245,1492,0,0
28,-468,0,0,0,0,0,0,0,0,0,-1,1252,1492,0,0
35,-468,0,0,0,0,0,0,0,0,0,-1,1259,1492,0,0
42,-468,0,0,0,0,0,0,0,0,0,-1,1266,1492,0,0
49,-468,0,0,0,0,0,0,0,0,0,-1,1273,1492,0,0
56,-468,0,0,0,0,0,0,0,0,0,-1,1280,1492,0,0
63,-468,0,0,0,0,0,0,0,0,0,-1,1287,1492,0,0
70,-468,0,0,0,0,0,0,0,0,0,-1,1294,1492,0,0
77,-468,0,0,0,0,0,0,0,0,0,-1,1301,1492,0,0
84,-468,0,0,0,0,0,0,0,0,0,-1,1308,1492,0,0
91,-468,0,0,0,0,0,0,0,0,0,-1,1315,1492,0,0
98,-468,0,0,0,0,0,0,0,0,0,-1,1322,1492,0,0
105,-468,0,0,0,0,0,0,0,0,0,-1,1329,1492,0,0
112,-468,0,0,0,0,0,0,0,0,0,-1,1336,1492,0,0
119,-468,0,0,0,0,0,0,0,0,0,-1,1343,1492,0,0
126,-468,0,0,0,0,0,0,0,0,0,-1,1350,1492,0,0
133,-468,0,0,0,0,0,0,0,0,0,-1,1357,1492,0,0
140,-468,0,0,0,0,0,0,0,0,0,-1,1364,1492,0,0
147,-468,0,0,0,0,0,0,0,0,0,-1,1371,1492,0,0
154,-468,0,0,0,0,0,0,0,0,0,-1,1378,1492,0,0
161,-468,0,0,0,0,0,0,0,0,0,-1,1385,1492,0,0
168,-468,0,0,0,0,0,0,0,0,0,-1,1392,1492,0,0
175,-468,0,0,0,0,0,0,0,0,0,-1,1399,1492,0,0
182,-468,0,0,0,0,0,0,0,0,0,-1,1406,1492,0,0
189,-468,0,0,0,0,0,0,0,0,0,-1,1413,1492,0,0
196,-468,0,0,0,0,0,0,0,0,0,-1,1420,1492,0,0
203,-468,0,0,0,0,0,0,0,0,0,-1,1427,1492,0,0
210,-468,0,0,0,0,0,0,0,0,0,-1,1434,1492,0,0
217,-468,0,0,0,0,0,0,0,0,0,-1,1441,1492,0,0
224,-468,0,0,0,0,0,0,0,0,0,-1,1448,1492,0,0
231,-468,0,0,0,0,0,0,0,0,0,-1,1455,1492,0,0
238,-468,0,0,0,0,0,0,0,0,0,-1,1462,1492,0,0
245,-468,0,0,0,0,0,0,0,0,0,-1,1469,1492,0,0
252,-468,0,0,0,0,0,0,0,0,0,-1,1476,1492,0,0
259,-468,0,0,0,0,0,0,0,0,0,-1,1483,1492,0,0
266,-468,0,0,0,0,0,0,0,0,0,-1,1490,1492,0,0
273,-468,0,0,0,0,0,0,0,0,0,-1,1497,1492,0,0
280,-468,0,0,0,0,0,0,0,0,0,-1,1504,1492,0,0
287,-468,0,0,0,0,0,0,0,0,0,-1,1511,1492,0,0
294,-468,0,0,0,0,0,0,0,0,0,-1,1518,1492,0,0
301,-468,0,0,0,0,0,0,0,0,0,-1,1525,1492,0,0
308,-468,0,0,0,0,0,0,0,0,0,-1,1532,1492,0,0
315,-468,0,0,0,0,0,0,0,0,0,-1,1539,1492,0,0
322,-468,0,0,0,0,0,0,0,0,0,-1,1546,1492,0,0
329,-468,0,0,0,0,0,0,0,0,0,-1,1553,1492,0,0
336,-468,0,0,0,0,0,0,0,0,0,-1,1560,1492,0,0
343,-468,0,0,0,0,0,0,0,0,0,-1,1567,1492,0,0
350,-468,0,0,0,0,0,0,0,0,0,-1,1574,1492,0,0
357,-468,0,0,0,0,0,0,0,0,0,-1,1581,1492,0,0
364,-468,0,0,0,0,0,0,0,0,0,-1,1588,1492,0,0
371,-468,0,0,0,0,0,0,0,0,0,-1,1595,1492,0,0
378,-468,0,0,0,0,0,0,0,0,0,-1,1602,1492,0,0
385,-468,0,0,0,0,0,0,0,0,0,-1,1609,1492,0,0
392,-468,0,0,0,0,0,0,0,0,0,-1,1616,1492,0,0
399,-468,0,0,0,0,0,0,0,0,0,-1,1623,1492,0,0
406,-468,0,0,0,0,0,0,0,0,0,-1,1630,1492,0,0
413,-468,0,0,0,0,0,0,0,0,0,-1,1637,1492,0,0
420,-468,0,0,0,0,0,0,0,0,0,-1,1644,1492,0,0
427,-468,0,0,0,0,0,0,0,0,0,-1,1651,1492,0,0
434,-468,0,0,0,0,0,0,0,0,0,-1,1658,1492,0,0
441,-468,0,0,0,0,0,0,0,0,0,-1,1665,1492,0,0
448,-468,0,0,0,0,0,0,0,0,0,-1,1672,1492,0,0
455,-468,0,0,0,0,0,0,0,0,0,-1,1679,1492,0,0
462,-468,0,0,0,0,0,0,0,0,0,-1,1686,1492,0,0
469,-468,15.6879,1.2677,0,0,0,0,0,0,0,-1,1693,1492,15.6879,-1.26772
476,-468,14.9318,1.61865,0,0,0,0,0,0,0,-1,1700,1492,14.9318,-1.61869
483,-468,11.265,4.64795,0,0,0,0,0,0,0,-1,1707,1492,11.265,-4.64798
490,-468,12.1316,3.51624,0,0,0,0,0,0,0,-1,1714,1492,12.1316,-3.51628
497,-468,16.5355,3.14587,0,0,0,0,0,0,0,-1,1721,1492,16.5356,-3.14583
504,-468,15.0642,4.10437,0,0,0,0,0,0,0,-1,1728,1492,15.0643,-4.10431
511,-468,15.6877,9.4801,0,0,0,0,0,0,0,-1,1735,1492,15.6878,-9.48007
518,-468,13.759,11.0887,0,0,0,0,0,0,0,-1,1742,1492,13.759,-11.0887
525,-468,16.6531,14.2238,0,0,0,0,0,0,0,-1,1749,1492,16.653,-14.2237
532,-468,16.9696,15.9641,0,0,0,0,0,0,0,-1,1756,1492,16.9696,-15.9641
539,-468,20.1581,19.4572,0,0,0,0,0,0,0,-1,1763,1492,20.1581,-19.4572
546,-468,20.5192,19.5005,0,0,0,0,0,0,0,-1,1770,1492,20.5191,-19.5005
553,-468,20.7948,19.03,0,0,0,0,0,0,0,-1,1777,1492,20.7948,-19.03
560,-468,20.8591,18.6888,0.00626338,0.00354837,-0.00266658,0.00789811,0.00191364,-0.549955,0.00475759,0.0379283,1784,1492,20.8592,-18.6888
567,-468,20.87,18.2975,0.0043108,0.00334295,-0.0020385,0.00592203,0.00173172,-0.668859,0.00351593,0.021174,1791,1492,20.8701,-18.2975
574,-468,20.9076,17.803,0.00360957,0.00273492,-0.00177516,0.00500048,0.00134401,-0.664624,0.00298816,0.0155127,1798,1492,20.9076,-17.803
581,-468,20.9031,17.3529,0.00308782,0.00217015,-0.00154893,0.00424444,0.00101353,-0.641403,0.00255957,0.0160374,1805,1492,20.9031,-17.3529
588,-468,20.8679,16.8987,0.0027783,0.00153654,-0.00134345,0.0036374,0.000677431,-0.568942,0.00223363,0.0137724,1812,1492,20.8679,-16.8987
595,-468,20.8475,16.4421,0.0027516,0.000882139,-0.00117002,0.00331443,0.000319312,-0.448364,0.00211124,0.0117124,1819,1492,20.8475,-16.4422
602,-468,20.8507,15.9695,0.00287173,0.000209404,-0.00101509,0.0032146,-0.000133469,-0.325745,0.00218892,0.0100633,1826,1492,20.8507,-15.9695
609,-468,20.8245,15.4987,0.00314175,-0.000414665,-0.0008697,0.00334304,-0.000615952,-0.22744,0.00245985,0.00998299,1833,1492,20.8245,-15.4987
616,-468,20.8091,15.0304,0.00355117,-0.000998947,-0.000739659,0.00366838,-0.00111617,-0.157169,0.0028904,0.00960566,1840,1492,20.809,-15.0304
623,-468,20.8163,14.5846,0.00414462,-0.00162373,-0.00058211,0.00420278,-0.00168188,-0.0995769,0.00349988,0.0104365,1847,1492,20.8163,-14.5847
630,-468,20.8112,14.1317,0.0048384,-0.00213783,-0.000430601,0.00486488,-0.0021643,-0.0614134,0.00415694,0.0113252,1854,1492,20.8111,-14.1317
637,-468,20.781,13.662,0.00569906,-0.00229141,-0.000437865,0.00572298,-0.00231533,-0.0545805,0.00477791,0.0149618,1861,1492,20.781,-13.662
644,-468,20.8604,13.2941,0.00656354,-0.00244028,-0.000407301,0.00658192,-0.00245866,-0.0451137,0.00539751,0.0403312,1868,1492,20.8603,-13.2941
651,-468,21.0834,12.9044,0,0,0,0,0,0,0,-1,1875,1492,21.0834,-12.9045
658,-468,16.4969,10.0774,0,0,0,0,0,0,0,-1,1882,1492,16.497,-10.0774
665,-468,15.4673,8.59546,0,0,0,0,0,0,0,-1,1889,1492,15.4672,-8.59548
672,-468,9.96814,3.61133,0,0,0,0,0,0,0,-1,1896,1492,9.96817,-3.61139
679,-468,11.2191,1.91968,0,0,0,0,0,0,0,-1,1903,1492,11.2191,-1.91965
686,-468,11.9252,1.42285,0,0,0,0,0,0,0,-1,1910,1492,11.9252,-1.42291
693,-468,0,0,0,0,0,0,0,0,0,-1,1917,1492,0,0
700,-468,0,0,0,0,0,0,0,0,0,-1,1924,1492,0,0
707,-468,0,0,0,0,0,0,0,0,0,-1,1931,1492,0,0
714,-468,0,0,0,0,0,0,0,0,0,-1,1938,1492,0,0
721,-468,0,0,0,0,0,0,0,0,0,-1,1945,1492,0,0
728,-468,0,0,0,0,0,0,0,0,0,-1,1952,1492,0,0
735,-468,0,0,0,0,0,0,0,0,0,-1,1959,1492,0,0
742,-468,0,0,0,0,0,0,0,0,0,-1,1966,1492,0,0
749,-468,0,0,0,0,0,0,0,0,0,-1,1973,1492,0,0
756,-468,0,0,0,0,0,0,0,0,0,-1,1980,1492,0,0
763,-468,0,0,0,0,0,0,0,0,0,-1,1987,1492,0,0
770,-468,0,0,0,0,0,0,0,0,0,-1,1994,1492,0,0
777,-468,0,0,0,0,0,0,0,0,0,-1,2001,1492,0,0
784,-468,0,0,0,0,0,0,0,0,0,-1,2008,1492,0,0
791,-468,0,0,0,0,0,0,0,0,0,-1,2015,1492,0,0
798,-468,0,0,0,0,0,0,0,0,0,-1,2022,1492,0,0
805,-468,0,0,0,0,0,0,0,0,0,-1,2029,1492,0,0
812,-468,0,0,0,0,0,0,0,0,0,-1,2036,1492,0,0
-700,-475,0,0,0,0,0,0,0,0,0,-1,524,1499,0,0
-693,-475,0,0,0,0,0,0,0,0,0,-1,531,1499,0,0
-686,-475,0,0,0,0,0,0,0,0,0,-1,538,1499,0,0
-679,-475,0,0,0,0,0,0,0,0,0,-1,545,1499,0,0
-672,-475,0,0,0,0,0,0,0,0,0,-1,552,1499,0,0
-665,-475,0,0,0,0,0,0,0,0,0,-1,559,1499,0,0
-658,-475,0,0,0,0,0,0,0,0,0,-1,566,1499,0,0
-651,-475,0,0,0,0,0,0,0,0,0,-1,573,1499,0,0
-644,-475,0,0,0,0,0,0,0,0,0,-1,580,1499,0,0
-637,-475,0,0,0,0,0,0,0,0,0,-1,587,1499,0,0
-630,-475,0,0,0,0,0,0,0,0,0,-1,594,1499,0,0
-623,-475,0,0,0,0,0,0,0,0,0,-1,601,1499,0,0
-616,-475,0,0,0,0,0,0,0,0,0,-1,608,1499,0,0
-609,-475,0,0,0,0,0,0,0,0,0,-1,615,1499,0,0
-602,-475,0,0,0,0,0,0,0,0,0,-1,622,1499,0,0
-595,-475,0,0,0,0,0,0,0,0,0,-1,629,1499,0,0
-588,-475,0,0,0,0,0,0,0,0,0,-1,636,1499,0,0
-581,-475,0,0,0,0,0,0,0,0,0,-1,643,1499,0,0
-574,-475,0,0,0,0,0,0,0,0,0,-1,650,1499,0,0
-567,-475,0,0,0,0,0,0,0,0,0,-1,657,1499,0,0
-560,-475,-9.42731,9.29517,0,0,0,0,0,0,0,-1,664,1499,-9.42731,-9.29519
-553,-475,-8.15131,8.78369,0,0,0,0,0,0,0,-1,671,1499,-8.15131,-8.78367
-546,-475,-8.41254,8.20654,0,0,0,0,0,0,0,-1,678,1499,-8.41251,-8.20655
-539,-475,-4.7345,4.17419,0,0,0,0,0,0,0,-1,685,1499,-4.73449,-4.17418
-532,-475,-7.07379,4.25024,0,0,0,0,0,0,0,-1,692,1499,-7.07378,-4.2503
-525,-475,-6.13147,5.82166,0,0,0,0,0,0,0,-1,699,1499,-6.1315,-5.8216
-518,-475,-7.28784,9.31506,0,0,0,0,0,0,0,-1,706,1499,-7.28782,-9.315
-511,-475,-6.65613,10.6063,0,0,0,0,0,0,0,-1,713,1499,-6.65613,-10.6063
-504,-475,-5.73389,12.0302,0.00240637,-0.000850606,0.00322029,0.00438652,-0.00283076,0.551301,0.00419904,0.0453347,720,1499,-5.73388,-12.0301
-497,-475,-5.7608,12.5005,0.000673092,-0.00133288,0.00161822,0.00157394,-0.00223374,0.507969,0.00220934,0.0322408,727,1499,-5.76078,-12.5005
-490,-475,-5.75854,12.9215,-0.000252415,-0.0014735,0.000704602,6.93648e-05,-0.00179528,0.428398,0.00122063,0.0110646,734,1499,-5.75854,-12.9215
-483,-475,-5.76324,13.4449,-0.000337849,-0.00115846,0.000411271,-0.000167213,-0.0013291,0.393286,0.000835923,0.00908792,741,1499,-5.76327,-13.445
-476,-475,-5.79028,13.9288,0.000239503,-0.000615708,0.000624698,0.000568927,-0.000945133,0.485275,0.000883092,0.010576,748,1499,-5.79026,-13.9288
-469,-475,-5.80005,14.4178,0.00131378,9.06982e-05,0.00122179,0.00206854,-0.000664054,0.553363,0.00164566,0.0136282,755,1499,-5.80002,-14.4179
-462,-475,-5.75623,14.8986,0.00273918,0.000912902,0.00207488,0.00409297,-0.000440879,0.578105,0.00288685,0.0193908,762,1499,-5.7562,-14.8986
-455,-475,-5.78241,15.3835,0.00447326,0.0018366,0.00317403,0.00659186,-0.000282,0.588565,0.00449152,0.0150857,769,1499,-5.78244,-15.3836
-448,-475,-5.8374,15.8884,0.00652024,0.00292514,0.00451772,0.00958488,-0.000139508,0.596056,0.00643693,0.0130494,776,1499,-5.83739,-15.8885
-441,-475,-5.86572,16.3811,0.00900644,0.00418133,0.00623694,0.0132812,-9.34079e-05,0.600853,0.00888542,0.0165272,783,1499,-5.86571,-16.3811
-434,-475,-5.85492,16.8823,0.0116559,0.00556078,0.00815487,0.017314,-9.73875e-05,0.606579,0.0115753,0.0103876,790,1499,-5.85491,-16.8824
-427,-475,-5.80994,17.462,0.0142356,0.00713577,0.0101389,0.0214281,-5.67092e-05,0.617003,0.0143043,0.0259099,797,1499,-5.80995,-17.462
-420,-475,-5.68414,18.0094,0.017204,0.00907754,0.0128604,0.0266277,-0.000346214,0.632386,0.0178683,0.0442819,804,1499,-5.68414,-18.0093
-413,-475,-5.4054,18.6561,0,0,0,0,0,0,0,-1,811,1499,-5.40542,-18.6561
-406,-475,-2.56116,12.4956,0,0,0,0,0,0,0,-1,818,1499,-2.56116,-12.4956
-399,-475,-1.39667,6.1615,0,0,0,0,0,0,0,-1,825,1499,-1.39664,-6.16155
-392,-475,0.217163,8.61389,0,0,0,0,0,0,0,-1,832,1499,0.217167,-8.6139
-385,-475,1.18372,2.73999,0,0,0,0,0,0,0,-1,839,1499,1.18372,-2.73995
-378,-475,1.31409,2.90149,0,0,0,0,0,0,0,-1,846,1499,1.31411,-2.90151
-371,-475,2.3476,3.31116,0,0,0,0,0,0,0,-1,853,1499,2.34761,-3.31121
-364,-475,1.04462,9.05823,0,0,0,0,0,0,0,-1,860,1499,1.04461,-9.05825
-357,-475,-0.262756,7.97205,0,0,0,0,0,0,0,-1,867,1499,-0.262784,-7.97205
-350,-475,-2.77173,4.35486,0,0,0,0,0,0,0,-1,874,1499,-2.77175,-4.35491
-343,-475,-6.81641,-1.95203,0,0,0,0,0,0,0,-1,881,1499,-6.81643,1.95198
-336,-475,0,0,0,0,0,0,0,0,0,-1,888,1499,0,0
-329,-475,0,0,0,0,0,0,0,0,0,-1,895,1499,0,0
-322,-475,0,0,0,0,0,0,0,0,0,-1,902,1499,0,0
-315,-475,0,0,0,0,0,0,0,0,0,-1,909,1499,0,0
-308,-475,0,0,0,0,0,0,0,0,0,-1,916,1499,0,0
-301,-475,0,0,0,0,0,0,0,0,0,-1,923,1499,0,0
-294,-475,0,0,0,0,0,0,0,0,0,-1,930,1499,0,0
-287,-475,0,0,0,0,0,0,0,0,0,-1,937,1499,0,0
-280,-475,0,0,0,0,0,0,0,0,0,-1,944,1499,0,0
-273,-475,0,0,0,0,0,0,0,0,0,-1,951,1499,0,0
-266,-475,0,0,0,0,0,0,0,0,0,-1,958,1499,0,0
-259,-475,0,0,0,0,0,0,0,0,0,-1,965,1499,0,0
-252,-475,0,0,0,0,0,0,0,0,0,-1,972,1499,0,0
-245,-475,0,0,0,0,0,0,0,0,0,-1,979,1499,0,0
-238,-475,0,0,0,0,0,0,0,0,0,-1,986,1499,0,0
-231,-475,0,0,0,0,0,0,0,0,0,-1,993,1499,0,0
-224,-475,0,0,0,0,0,0,0,0,0,-1,1000,1499,0,0
-217,-475,0,0,0,0,0,0,0,0,0,-1,1007,1499,0,0
-210,-475,0,0,0,0,0,0,0,0,0,-1,1014,1499,0,0
-203,-475,0,0,0,0,0,0,0,0,0,-1,1021,1499,0,0
-196,-475,0,0,0,0,0,0,0,0,0,-1,1028,1499,0,0
-189,-475,0,0,0,0,0,0,0,0,0,-1,1035,1499,0,0
-182,-475,0,0,0,0,0,0,0,0,0,-1,1042,1499,0,0
-175,-475,0,0,0,0,0,0,0,0,0,-1,1049,1499,0,0
-168,-475,0,0,0,0,0,0,0,0,0,-1,1056,1499,0,0
-161,-475,0,0,0,0,0,0,0,0,0,-1,1063,1499,0,0
-154,-475,0,0,0,0,0,0,0,0,0,-1,1070,1499,0,0
-147,-475,0,0,0,0,0,0,0,0,0,-1,1077,1499,0,0
-140,-475,0,0,0,0,0,0,0,0,0,-1,1084,1499,0,0
-133,-475,0,0,0,0,0,0,0,0,0,-1,1091,1499,0,0
-126,-475,0,0,0,0,0,0,0,0,0,-1,1098,1499,0,0
-119,-475,0,0,0,0,0,0,0,0,0,-1,1105,1499,0,0
-112,-475,0,0,0,0,0,0,0,0,0,-1,1112,1499,0,0
-105,-475,0,0,0,0,0,0,0,0,0,-1,1119,1499,0,0
-98,-475,0,0,0,0,0,0,0,0,0,-1,1126,1499,0,0
-91,-475,0,0,0,0,0,0,0,0,0,-1,1133,1499,0,0
-84,-475,0,0,0,0,0,0,0,0,0,-1,1140,1499,0,0
-77,-475,0,0,0,0,0,0,0,0,0,-1,1147,1499,0,0
-70,-475,0,0,0,0,0,0,0,0,0,-1,1154,1499,0,0
-63,-475,0,0,0,0,0,0,0,0,0,-1,1161,1499,0,0
-56,-475,0,0,0,0,0,0,0,0,0,-1,1168,1499,0,0
-49,-475,0,0,0,0,0,0,0,0,0,-1,1175,1499,0,0
-42,-475,0,0,0,0,0,0,0,0,0,-1,1182,1499,0,0
-35,-475,0,0,0,0,0,0,0,0,0,-1,1189,1499,0,0
-28,-475,0,0,0,0,0,0,0,0,0,-1,1196,1499,0,0
-21,-475,0,0,0,0,0,0,0,0,0,-1,1203,1499,0,0
-14,-475,0,0,0,0,0,0,0,0,0,-1,1210,1499,0,0
-7,-475,0,0,0,0,0,0,0,0,0,-1,1217,1499,0,0
0,-475,0,0,0,0,0,0,0,0,0,-1,1224,1499,0,0
7,-475,0,0,0,0,0,0,0,0,0,-1,1231,1499,0,0
14,-475,0,0,0,0,0,0,0,0,0,-1,1238,1499,0,0
21,-475,0,0,0,0,0,0,0,0,0,-1,1245,1499,0,0
28,-475,0,0,0,0,0,0,0,0,0,-1,1252,1499,0,0
35,-475,0,0,0,0,0,0,0,0,0,-1,1259,1499,0,0
42,-475,0,0,0,0,0,0,0,0,0,-1,1266,1499,0,0
49,-475,0,0,0,0,0,0,0,0,0,-1,1273,1499,0,0
56,-475,0,0,0,0,0,0,0,0,0,-1,1280,1499,0,0
63,-475,0,0,0,0,0,0,0,0,0,-1,1287,1499,0,0
70,-475,0,0,0,0,0,0,0,0,0,-1,1294,1499,0,0
77,-475,0,0,0,0,0,0,0,0,0,-1,1301,1499,0,0
84,-475,0,0,0,0,0,0,0,0,0,-1,1308,1499,0,0
91,-475,0,0,0,0,0,0,0,0,0,-1,1315,1499,0,0
98,-475,0,0,0,0,0,0,0,0,0,-1,1322,1499,0,0
105,-475,0,0,0,0,0,0,0,0,0,-1,1329,1499,0,0
112,-475,0,0,0,0,0,0,0,0,0,-1,1336,1499,0,0
119,-475,0,0,0,0,0,0,0,0,0,-1,1343,1499,0,0
126,-475,0,0,0,0,0,0,0,0,0,-1,1350,1499,0,0
133,-475,0,0,0,0,0,0,0,0,0,-1,1357,1499,0,0
140,-475,0,0,0,0,0,0,0,0,0,-1,1364,1499,0,0
147,-475,0,0,0,0,0,0,0,0,0,-1,1371,1499,0,0
154,-475,0,0,0,0,0,0,0,0,0,-1,1378,1499,0,0
161,-475,0,0,0,0,0,0,0,0,0,-1,1385,1499,0,0
168,-475,0,0,0,0,0,0,0,0,0,-1,1392,1499,0,0
175,-475,0,0,0,0,0,0,0,0,0,-1,1399,1499,0,0
182,-475,0,0,0,0,0,0,0,0,0,-1,1406,1499,0,0
189,-475,0,0,0,0,0,0,0,0,0,-1,1413,1499,0,0
196,-475,0,0,0,0,0,0,0,0,0,-1,1420,1499,0,0
203,-475,0,0,0,0,0,0,0,0,0,-1,1427,1499,0,0
210,-475,0,0,0,0,0,0,0,0,0,-1,1434,1499,0,0
217,-475,0,0,0,0,0,0,0,0,0,-1,1441,1499,0,0
224,-475,0,0,0,0,0,0,0,0,0,-1,1448,1499,0,0
231,-475,0,0,0,0,0,0,0,0,0,-1,1455,1499,0,0
238,-475,0,0,0,0,0,0,0,0,0,-1,1462,1499,0,0
245,-475,0,0,0,0,0,0,0,0,0,-1,1469,1499,0,0
252,-475,0,0,0,0,0,0,0,0,0,-1,1476,1499,0,0
259,-475,0,0,0,0,0,0,0,0,0,-1,1483,1499,0,0
266,-475,0,0,0,0,0,0,0,0,0,-1,1490,1499,0,0
273,-475,0,0,0,0,0,0,0,0,0,-1,1497,1499,0,0
280,-475,0,0,0,0,0,0,0,0,0,-1,1504,1499,0,0
287,-475,0,0,0,0,0,0,0,0,0,-1,1511,1499,0,0
294,-475,0,0,0,0,0,0,0,0,0,-1,1518,1499,0,0
301,-475,0,0,0,0,0,0,0,0,0,-1,1525,1499,0,0
308,-475,0,0,0,0,0,0,0,0,0,-1,1532,1499,0,0
315,-475,0,0,0,0,0,0,0,0,0,-1,1539,1499,0,0
322,-475,0,0,0,0,0,0,0,0,0,-1,1546,1499,0,0
329,-475,0,0,0,0,0,0,0,0,0,-1,1553,1499,0,0
336,-475,0,0,0,0,0,0,0,0,0,-1,1560,1499,0,0
343,-475,0,0,0,0,0,0,0,0,0,-1,1567,1499,0,0
350,-475,0,0,0,0,0,0,0,0,0,-1,1574,1499,0,0
357,-475,0,0,0,0,0,0,0,0,0,-1,1581,1499,0,0
364,-475,0,0,0,0,0,0,0,0,0,-1,1588,1499,0,0
371,-475,0,0,0,0,0,0,0,0,0,-1,1595,1499,0,0
378,-475,0,0,0,0,0,0,0,0,0,-1,1602,1499,0,0
385,-475,0,0,0,0,0,0,0,0,0,-1,1609,1499,0,0
392,-475,0,0,0,0,0,0,0,0,0,-1,1616,1499,0,0
399,-475,0,0,0,0,0,0,0,0,0,-1,1623,1499,0,0
406,-475,0,0,0,0,0,0,0,0,0,-1,1630,1499,0,0
413,-475,0,0,0,0,0,0,0,0,0,-1,1637,1499,0,0
420,-475,0,0,0,0,0,0,0,0,0,-1,1644,1499,0,0
427,-475,0,0,0,0,0,0,0,0,0,-1,1651,1499,0,0
434,-475,0,0,0,0,0,0,0,0,0,-1,1658,1499,0,0
441,-475,0,0,0,0,0,0,0,0,0,-1,1665,1499,0,0
448,-475,0,0,0,0,0,0,0,0,0,-1,1672,1499,0,0
455,-475,0,0,0,0,0,0,0,0,0,-1,1679,1499,0,0
462,-475,12.6372,0.275391,0,0,0,0,0,0,0,-1,1686,1499,12.6372,-0.27536
469,-475,15.6437,2.28296,0,0,0,0,0,0,0,-1,1693,1499,15.6437,-2.28293
476,-475,15.3302,2.71436,0,0,0,0,0,0,0,-1,1700,1499,15.3303,-2.7143
483,-475,10.7461,5.91479,0,0,0,0,0,0,0,-1,1707,1499,10.7461,-5.91476
490,-475,11.9305,4.4364,0,0,0,0,0,0,0,-1,1714,1499,11.9305,-4.43644
497,-475,15.3451,4.3479,0,0,0,0,0,0,0,-1,1721,1499,15.3451,-4.34789
504,-475,16.9646,7.71265,0,0,0,0,0,0,0,-1,1728,1499,16.9646,-7.71265
511,-475,18.941,12.7572,0,0,0,0,0,0,0,-1,1735,1499,18.941,-12.7572
518,-475,17.0021,13.8564,0,0,0,0,0,0,0,-1,1742,1499,17.0021,-13.8564
525,-475,17.5637,15.2103,0,0,0,0,0,0,0,-1,1749,1499,17.5637,-15.2103
532,-475,19.6226,19.6184,0,0,0,0,0,0,0,-1,1756,1499,19.6225,-19.6184
539,-475,19.7275,19.3689,0,0,0,0,0,0,0,-1,1763,1499,19.7276,-19.3689
546,-475,19.7672,19.0521,0,0,0,0,0,0,0,-1,1770,1499,19.7673,-19.0521
553,-475,20.1969,19.3541,0,0,0,0,0,0,0,-1,1777,1499,20.1969,-19.3541
560,-475,20.3044,18.8409,0.00524898,0.00303036,-0.00230039,0.00669356,0.00158578,-0.560734,0.00403892,0.0260011,1784,1499,20.3044,-18.841
567,-475,20.4642,18.2784,0.00375216,0.0027377,-0.00174914,0.00506613,0.00142374,-0.644275,0.00301698,0.0152201,1791,1499,20.4643,-18.2785
574,-475,20.4387,17.8131,0.0032713,0.00215815,-0.00152393,0.00433711,0.00109234,-0.610311,0.00260479,0.0155242,1798,1499,20.4388,-17.8131
581,-475,20.4202,17.37,0.00294768,0.00159385,-0.00134415,0.00377574,0.000765795,-0.552135,0.0023047,0.0125228,1805,1499,20.4202,-17.3699
588,-475,20.4098,16.9033,0.00286153,0.00100121,-0.00122365,0.00346842,0.000394318,-0.460415,0.00219269,0.0102873,1812,1499,20.4098,-16.9034
595,-475,20.3932,16.4541,0.00307831,0.000365234,-0.00113789,0.00349236,-4.88171e-05,-0.348983,0.00234468,0.0113408,1819,1499,20.3932,-16.4541
602,-475,20.3866,16.0066,0.00343542,-0.000300575,-0.00108187,0.00372609,-0.00059125,-0.262478,0.00270279,0.0134081,1826,1499,20.3867,-16.0066
609,-475,20.3629,15.5498,0.00395453,-0.000944451,-0.00102925,0.00416199,-0.00115191,-0.198895,0.00322788,0.0124525,1833,1499,20.3629,-15.5498
616,-475,20.3533,15.0857,0.00465907,-0.00161624,-0.00095777,0.004802,-0.00175917,-0.148133,0.00392153,0.0113335,1840,1499,20.3533,-15.0858
623,-475,20.3552,14.611,0.00554977,-0.00236937,-0.000832991,0.00563644,-0.00245604,-0.103675,0.00479096,0.0106092,1847,1499,20.3552,-14.6109
630,-475,20.3456,14.1451,0.00651692,-0.00299946,-0.00069118,0.00656686,-0.0030494,-0.072126,0.0056744,0.012551,1854,1499,20.3456,-14.1452
637,-475,20.347,13.6552,0.00766339,-0.00326168,-0.000689217,0.0077067,-0.00330499,-0.0627542,0.00652471,0.025198,1861,1499,20.347,-13.6552
644,-475,20.3706,13.1901,0,0,0,0,0,0,0,-1,1868,1499,20.3707,-13.1901
651,-475,11.7965,7.57593,0,0,0,0,0,0,0,-1,1875,1499,11.7965,-7.5759
658,-475,14.6708,8.80322,0,0,0,0,0,0,0,-1,1882,1499,14.6708,-8.8032
665,-475,9.33435,5.43335,0,0,0,0,0,0,0,-1,1889,1499,9.33439,-5.43332
672,-475,9.38635,1.10474,0,0,0,0,0,0,0,-1,1896,1499,9.38629,-1.10475
679,-475,12.2594,1.31079,0,0,0,0,0,0,0,-1,1903,1499,12.2594,-1.31077
686,-475,0,0,0,0,0,0,0,0,0,-1,1910,1499,0,0
693,-475,0,0,0,0,0,0,0,0,0,-1,1917,1499,0,0
700,-475,0,0,0,0,0,0,0,0,0,-1,1924,1499,0,0
707,-475,0,0,0,0,0,0,0,0,0,-1,1931,1499,0,0
714,-475,0,0,0,0,0,0,0,0,0,-1,1938,1499,0,0
721,-475,0,0,0,0,0,0,0,0,0,-1,1945,1499,0,0
728,-475,0,0,0,0,0,0,0,0,0,-1,1952,1499,0,0
735,-475,0,0,0,0,0,0,0,0,0,-1,1959,1499,0,0
742,-475,0,0,0,0,0,0,0,0,0,-1,1966,1499,0,0
749,-475,0,0,0,0,0,0,0,0,0,-1,1973,1499,0,0
756,-475,0,0,0,0,0,0,0,0,0,-1,1980,1499,0,0
763,-475,0,0,0,0,0,0,0,0,0,-1,1987,1499,0,0
770,-475,0,0,0,0,0,0,0,0,0,-1,1994,1499,0,0
777,-475,0,0,0,0,0,0,0,0,0,-1,2001,1499,0,0
784,-475,0,0,0,0,0,0,0,0,0,-1,2008,1499,0,0
791,-475,0,0,0,0,0,0,0,0,0,-1,2015,1499,0,0
798,-475,0,0,0,0,0,0,0,0,0,-1,2022,1499,0,0
805,-475,0,0,0,0,0,0,0,0,0,-1,2029,1499,0,0
812,-475,0,0,0,0,0,0,0,0,0,-1,2036,1499,0,0
-700,-482,0,0,0,0,0,0,0,0,0,-1,524,1506,0,0
-693,-482,0,0,0,0,0,0,0,0,0,-1,531,1506,0,0
-686,-482,0,0,0,0,0,0,0,0,0,-1,538,1506,0,0
-679,-482,0,0,0,0,0,0,0,0,0,-1,545,1506,0,0
-672,-482,0,0,0,0,0,0,0,0,0,-1,552,1506,0,0
-665,-482,0,0,0,0,0,0,0,0,0,-1,559,1506,0,0
-658,-482,0,0,0,0,0,0,0,0,0,-1,566,1506,0,0
-651,-482,0,0,0,0,0,0,0,0,0,-1,573,1506,0,0
-644,-482,0,0,0,0,0,0,0,0,0,-1,580,1506,0,0
-637,-482,0,0,0,0,0,0,0,0,0,-1,587,1506,0,0
-630,-482,0,0,0,0,0,0,0,0,0,-1,594,1506,0,0
-623,-482,0,0,0,0,0,0,0,0,0,-1,601,1506,0,0
-616,-482,0,0,0,0,0,0,0,0,0,-1,608,1506,0,0
-609,-482,0,0,0,0,0,0,0,0,0,-1,615,1506,0,0
-602,-482,0,0,0,0,0,0,0,0,0,-1,622,1506,0,0
-595,-482,0,0,0,0,0,0,0,0,0,-1,629,1506,0,0
-588,-482,0,0,0,0,0,0,0,0,0,-1,636,1506,0,0
-581,-482,0,0,0,0,0,0,0,0,0,-1,643,1506,0,0
-574,-482,0,0,0,0,0,0,0,0,0,-1,650,1506,0,0
-567,-482,0,0,0,0,0,0,0,0,0,-1,657,1506,0,0
-560,-482,0,0,0,0,0,0,0,0,0,-1,664,1506,0,0
-553,-482,-9.06055,9.34314,0,0,0,0,0,0,0,-1,671,1506,-9.06056,-9.34312
-546,-482,-4.08624,8.34241,0,0,0,0,0,0,0,-1,678,1506,-4.08624,-8.3424
-539,-482,-4.29877,2.73499,0,0,0,0,0,0,0,-1,685,1506,-4.29879,-2.73494
-532,-482,-3.63611,4.23987,0,0,0,0,0,0,0,-1,692,1506,-3.63609,-4.23983
-525,-482,-6.19116,5.24927,0,0,0,0,0,0,0,-1,699,1506,-6.19117,-5.24927
-518,-482,-5.92957,6.39807,0,0,0,0,0,0,0,-1,706,1506,-5.92958,-6.39806
-511,-482,-6.59045,10.6016,0,0,0,0,0,0,0,-1,713,1506,-6.59044,-10.6015
-504,-482,-5.98608,11.7427,0.00332232,-0.000760851,0.00471928,0.00642269,-0.00386122,0.581251,0.0059985,0.0497848,720,1506,-5.98605,-11.7427
-497,-482,-5.22601,12.5724,0.000769356,-0.00161298,0.00240689,0.0022637,-0.00310733,0.555618,0.00311369,0.0460485,727,1506,-5.226,-12.5724
-490,-482,-5.30566,12.9215,-0.000653429,-0.00202214,0.00102753,-0.000103213,-0.00257235,0.491622,0.00168155,0.0282659,734,1506,-5.30566,-12.9215
-483,-482,-5.2793,13.4501,-0.00103741,-0.00185843,0.00040361,-0.000872227,-0.00202361,0.38846,0.00117203,0.0102392,741,1506,-5.2793,-13.4501
-476,-482,-5.29218,13.9456,-0.000689285,-0.00142902,0.00035837,-0.000544146,-0.00157416,0.384806,0.000923157,0.01043,748,1506,-5.2922,-13.9455
-469,-482,-5.31354,14.447,0.000181607,-0.000805745,0.000727094,0.000566783,-0.00119092,0.487162,0.00103592,0.0122235,755,1506,-5.31351,-14.447
-462,-482,-5.30646,14.9352,0.00139461,-6.53922e-05,0.00135642,0.00220499,-0.000875771,0.538536,0.00183303,0.0134046,762,1506,-5.30643,-14.9351
-455,-482,-5.30371,15.42,0.00286486,0.00077847,0.00220779,0.00426351,-0.000620181,0.564693,0.00307002,0.0125167,769,1506,-5.30373,-15.42
-448,-482,-5.33484,15.932,0.00447798,0.00173492,0.00316838,0.00655894,-0.000346042,0.581135,0.00449242,0.0132647,776,1506,-5.33484,-15.932
-441,-482,-5.37067,16.4386,0.00648884,0.00293746,0.00457427,0.00961998,-0.000193684,0.600256,0.00647885,0.0135539,783,1506,-5.37066,-16.4386
-434,-482,-5.38824,16.9384,0.00864835,0.00426612,0.00615788,0.0129933,-7.88546e-05,0.614472,0.00868862,0.0147209,790,1506,-5.38822,-16.9383
-427,-482,-5.38855,17.4325,0.0106982,0.00585707,0.00779575,0.0164406,0.000114757,0.634867,0.0109223,0.0172942,797,1506,-5.38857,-17.4325
-420,-482,-5.26288,18.1248,0.0131065,0.00776611,0.0101032,0.0208863,-1.37696e-05,0.656207,0.0139288,0.043425,804,1506,-5.2629,-18.1248
-413,-482,-4.987,18.7649,0,0,0,0,0,0,0,-1,811,1506,-4.987,-18.7649
-406,-482,-2.51373,12.7556,0,0,0,0,0,0,0,-1,818,1506,-2.51376,-12.7556
-399,-482,-1.3822,9.22595,0,0,0,0,0,0,0,-1,825,1506,-1.38221,-9.22598
-392,-482,-1.06836,9.22729,0,0,0,0,0,0,0,-1,832,1506,-1.06835,-9.2273
-385,-482,0.0647583,8.90649,0,0,0,0,0,0,0,-1,839,1506,0.0647778,-8.90644
-378,-482,0.215698,5.96948,0,0,0,0,0,0,0,-1,846,1506,0.215681,-5.9695
-371,-482,-0.10907,8.10437,0,0,0,0,0,0,0,-1,853,1506,-0.109063,-8.10433
-364,-482,-0.154968,10.5032,0,0,0,0,0,0,0,-1,860,1506,-0.154976,-10.5032
-357,-482,2.14807,4.60144,0,0,0,0,0,0,0,-1,867,1506,2.14807,-4.60144
-350,-482,-7.5813,-1.45935,0,0,0,0,0,0,0,-1,874,1506,-7.58133,1.45937
-343,-482,-7.19983,-1.26416,0,0,0,0,0,0,0,-1,881,1506,-7.19981,1.26414
-336,-482,-6.78491,-1.18127,0,0,0,0,0,0,0,-1,888,1506,-6.78488,1.18125
-329,-482,0,0,0,0,0,0,0,0,0,-1,895,1506,0,0
-322,-482,0,0,0,0,0,0,0,0,0,-1,902,1506,0,0
-315,-482,0,0,0,0,0,0,0,0,0,-1,909,1506,0,0
-308,-482,0,0,0,0,0,0,0,0,0,-1,916,1506,0,0
-301,-482,0,0,0,0,0,0,0,0,0,-1,923,1506,0,0
-294,-482,0,0,0,0,0,0,0,0,0,-1,930,1506,0,0
-287,-482,0,0,0,0,0,0,0,0,0,-1,937,1506,0,0
-280,-482,0,0,0,0,0,0,0,0,0,-1,944,1506,0,0
-273,-482,0,0,0,0,0,0,0,0,0,-1,951,1506,0,0
-266,-482,0,0,0,0,0,0,0,0,0,-1,958,1506,0,0
-259,-482,0,0,0,0,0,0,0,0,0,-1,965,1506,0,0
-252,-482,0,0,0,0,0,0,0,0,0,-1,972,1506,0,0
-245,-482,0,0,0,0,0,0,0,0,0,-1,979,1506,0,0
-238,-482,0,0,0,0,0,0,0,0,0,-1,986,1506,0,0
-231,-482,0,0,0,0,0,0,0,0,0,-1,993,1506,0,0
-224,-482,0,0,0,0,0,0,0,0,0,-1,1000,1506,0,0
-217,-482,0,0,0,0,0,0,0,0,0,-1,1007,1506,0,0
-210,-482,0,0,0,0,0,0,0,0,0,-1,1014,1506,0,0
-203,-482,0,0,0,0,0,0,0,0,0,-1,1021,1506,0,0
-196,-482,0,0,0,0,0,0,0,0,0,-1,1028,1506,0,0
-189,-482,0,0,0,0,0,0,0,0,0,-1,1035,1506,0,0
-182,-482,0,0,0,0,0,0,0,0,0,-1,1042,1506,0,0
-175,-482,0,0,0,0,0,0,0,0,0,-1,1049,1506,0,0
-168,-482,0,0,0,0,0,0,0,0,0,-1,1056,1506,0,0
-161,-482,0,0,0,0,0,0,0,0,0,-1,1063,1506,0,0
-154,-482,0,0,0,0,0,0,0,0,0,-1,1070,1506,0,0
-147,-482,0,0,0,0,0,0,0,0,0,-1,1077,1506,0,0
-140,-482,0,0,0,0,0,0,0,0,0,-1,1084,1506,0,0
-133,-482,0,0,0,0,0,0,0,0,0,-1,1091,1506,0,0
-126,-482,0,0,0,0,0,0,0,0,0,-1,1098,1506,0,0
-119,-482,0,0,0,0,0,0,0,0,0,-1,1105,1506,0,0
-112,-482,0,0,0,0,0,0,0,0,0,-1,1112,1506,0,0
-105,-482,0,0,0,0,0,0,0,0,0,-1,1119,1506,0,0
-98,-482,0,0,0,0,0,0,0,0,0,-1,1126,1506,0,0
-91,-482,0,0,0,0,0,0,0,0,0,-1,1133,1506,0,0
-84,-482,0,0,0,0,0,0,0,0,0,-1,1140,1506,0,0
-77,-482,0,0,0,0,0,0,0,0,0,-1,1147,1506,0,0
-70,-482,0,0,0,0,0,0,0,0,0,-1,1154,1506,0,0
-63,-482,0,0,0,0,0,0,0,0,0,-1,1161,1506,0,0
-56,-482,0,0,0,0,0,0,0,0,0,-1,1168,1506,0,0
-49,-482,0,0,0,0,0,0,0,0,0,-1,1175,1506,0,0
-42,-482,0,0,0,0,0,0,0,0,0,-1,1182,1506,0,0
-35,-482,0,0,0,0,0,0,0,0,0,-1,1189,1506,0,0
-28,-482,0,0,0,0,0,0,0,0,0,-1,1196,1506,0,0
-21,-482,0,0,0,0,0,0,0,0,0,-1,1203,1506,0,0
-14,-482,0,0,0,0,0,0,0,0,0,-1,1210,1506,0,0
-7,-482,0,0,0,0,0,0,0,0,0,-1,1217,1506,0,0
0,-482,0,0,0,0,0,0,0,0,0,-1,1224,1506,0,0
7,-482,0,0,0,0,0,0,0,0,0,-1,1231,1506,0,0
14,-482,0,0,0,0,0,0,0,0,0,-1,1238,1506,0,0
21,-482,0,0,0,0,0,0,0,0,0,-1,1245,1506,0,0
28,-482,0,0,0,0,0,0,0,0,0,-1,1252,1506,0,0
35,-482,0,0,0,0,0,0,0,0,0,-1,1259,1506,0,0
42,-482,0,0,0,0,0,0,0,0,0,-1,1266,1506,0,0
49,-482,0,0,0,0,0,0,0,0,0,-1,1273,1506,0,0
56,-482,0,0,0,0,0,0,0,0,0,-1,1280,1506,0,0
63,-482,0,0,0,0,0,0,0,0,0,-1,1287,1506,0,0
70,-482,0,0,0,0,0,0,0,0,0,-1,1294,1506,0,0
77,-482,0,0,0,0,0,0,0,0,0,-1,1301,1506,0,0
84,-482,0,0,0,0,0,0,0,0,0,-1,1308,1506,0,0
91,-482,0,0,0,0,0,0,0,0,0,-1,1315,1506,0,0
98,-482,0,0,0,0,0,0,0,0,0,-1,1322,1506,0,0
105,-482,0,0,0,0,0,0,0,0,0,-1,1329,1506,0,0
112,-482,0,0,0,0,0,0,0,0,0,-1,1336,1506,0,0
119,-482,0,0,0,0,0,0,0,0,0,-1,1343,1506,0,0
126,-482,0,0,0,0,0,0,0,0,0,-1,1350,1506,0,0
133,-482,0,0,0,0,0,0,0,0,0,-1,1357,1506,0,0
140,-482,0,0,0,0,0,0,0,0,0,-1,1364,1506,0,0
147,-482,0,0,0,0,0,0,0,0,0,-1,1371,1506,0,0
154,-482,0,0,0,0,0,0,0,0,0,-1,1378,1506,0,0
161,-482,0,0,0,0,0,0,0,0,0,-1,1385,1506,0,0
168,-482,0,0,0,0,0,0,0,0,0,-1,1392,1506,0,0
175,-482,0,0,0,0,0,0,0,0,0,-1,1399,1506,0,0
182,-482,0,0,0,0,0,0,0,0,0,-1,1406,1506,0,0
189,-482,0,0,0,0,0,0,0,0,0,-1,1413,1506,0,0
196,-482,0,0,0,0,0,0,0,0,0,-1,1420,1506,0,0
203,-482,0,0,0,0,0,0,0,0,0,-1,1427,1506,0,0
210,-482,0,0,0,0,0,0,0,0,0,-1,1434,1506,0,0
217,-482,0,0,0,0,0,0,0,0,0,-1,1441,1506,0,0
224,-482,0,0,0,0,0,0,0,0,0,-1,1448,1506,0,0
231,-482,0,0,0,0,0,0,0,0,0,-1,1455,1506,0,0
238,-482,0,0,0,0,0,0,0,0,0,-1,1462,1506,0,0
245,-482,0,0,0,0,0,0,0,0,0,-1,1469,1506,0,0
252,-482,0,0,0,0,0,0,0,0,0,-1,1476,1506,0,0
259,-482,0,0,0,0,0,0,0,0,0,-1,1483,1506,0,0
266,-482,0,0,0,0,0,0,0,0,0,-1,1490,1506,0,0
273,-482,0,0,0,0,0,0,0,0,0,-1,1497,1506,0,0
280,-482,0,0,0,0,0,0,0,0,0,-1,1504,1506,0,0
287,-482,0,0,0,0,0,0,0,0,0,-1,1511,1506,0,0
294,-482,0,0,0,0,0,0,0,0,0,-1,1518,1506,0,0
301,-482,0,0,0,0,0,0,0,0,0,-1,1525,1506,0,0
308,-482,0,0,0,0,0,0,0,0,0,-1,1532,1506,0,0
315,-482,0,0,0,0,0,0,0,0,0,-1,1539,1506,0,0
322,-482,0,0,0,0,0,0,0,0,0,-1,1546,1506,0,0
329,-482,0,0,0,0,0,0,0,0,0,-1,1553,1506,0,0
336,-482,0,0,0,0,0,0,0,0,0,-1,1560,1506,0,0
343,-482,0,0,0,0,0,0,0,0,0,-1,1567,1506,0,0
350,-482,0,0,0,0,0,0,0,0,0,-1,1574,1506,0,0
357,-482,0,0,0,0,0,0,0,0,0,-1,1581,1506,0,0
364,-482,0,0,0,0,0,0,0,0,0,-1,1588,1506,0,0
371,-482,0,0,0,0,0,0,0,0,0,-1,1595,1506,0,0
378,-482,0,0,0,0,0,0,0,0,0,-1,1602,1506,0,0
385,-482,0,0,0,0,0,0,0,0,0,-1,1609,1506,0,0
392,-482,0,0,0,0,0,0,0,0,0,-1,1616,1506,0,0
399,-482,0,0,0,0,0,0,0,0,0,-1,1623,1506,0,0
406,-482,0,0,0,0,0,0,0,0,0,-1,1630,1506,0,0
413,-482,0,0,0,0,0,0,0,0,0,-1,1637,1506,0,0
420,-482,0,0,0,0,0,0,0,0,0,-1,1644,1506,0,0
427,-482,0,0,0,0,0,0,0,0,0,-1,1651,1506,0,0
434,-482,0,0,0,0,0,0,0,0,0,-1,1658,1506,0,0
441,-482,0,0,0,0,0,0,0,0,0,-1,1665,1506,0,0
448,-482,4.24146,1.55383,0,0,0,0,0,0,0,-1,1672,1506,4.24149,-1.55381
455,-482,12.4122,1.09729,0,0,0,0,0,0,0,-1,1679,1506,12.4122,-1.09734
462,-482,15.0673,3.13135,0,0,0,0,0,0,0,-1,1686,1506,15.0672,-3.13134
469,-482,15.3793,3.46301,0,0,0,0,0,0,0,-1,1693,1506,15.3793,-3.46307
476,-482,8.69751,9.18738,0,0,0,0,0,0,0,-1,1700,1506,8.69753,-9.18739
483,-482,10.0902,7.17432,0,0,0,0,0,0,0,-1,1707,1506,10.0902,-7.1743
490,-482,11.6289,5.4928,0,0,0,0,0,0,0,-1,1714,1506,11.6289,-5.49283
497,-482,15.9539,7.40222,0,0,0,0,0,0,0,-1,1721,1506,15.9538,-7.40219
504,-482,20.4233,12.006,0,0,0,0,0,0,0,-1,1728,1506,20.4233,-12.006
511,-482,18.4937,12.9175,0,0,0,0,0,0,0,-1,1735,1506,18.4936,-12.9174
518,-482,16.6002,13.9679,0,0,0,0,0,0,0,-1,1742,1506,16.6003,-13.9679
525,-482,18.495,15.9618,0,0,0,0,0,0,0,-1,1749,1506,18.495,-15.9618
532,-482,19.2125,19.8645,0,0,0,0,0,0,0,-1,1756,1506,19.2125,-19.8645
539,-482,19.366,19.4424,0,0,0,0,0,0,0,-1,1763,1506,19.3659,-19.4424
546,-482,19.8799,19.9192,0,0,0,0,0,0,0,-1,1770,1506,19.8798,-19.9191
553,-482,19.8466,19.2866,0,0,0,0,0,0,0,-1,1777,1506,19.8466,-19.2867
560,-482,19.9307,18.765,0.00437391,0.00261802,-0.00196212,0.00564555,0.00134638,-0.575034,0.00340483,0.0151492,1784,1506,19.9307,-18.765
567,-482,19.999,18.3064,0.00332569,0.00225008,-0.0015174,0.00439777,0.001178,-0.615094,0.00262869,0.0151147,1791,1506,19.999,-18.3064
574,-482,19.9875,17.8539,0.00306393,0.00170794,-0.0013563,0.00390226,0.000869611,-0.553619,0.00236553,0.0138524,1798,1506,19.9876,-17.8539
581,-482,19.9641,17.3861,0.0029639,0.00115445,-0.00125022,0.00360241,0.000515931,-0.472187,0.00224944,0.010232,1805,1506,19.9641,-17.3861
588,-482,19.9541,16.911,0.00313435,0.000595495,-0.00123584,0.00363657,9.3273e-05,-0.385996,0.00239389,0.0111627,1812,1506,19.9541,-16.911
595,-482,19.9346,16.4617,0.00363447,-2.46869e-05,-0.0012619,0.00402744,-0.000417662,-0.301897,0.00283446,0.0163544,1819,1506,19.9346,-16.4617
602,-482,19.9375,16.0276,0.00429682,-0.000694229,-0.00133364,0.00463083,-0.00102824,-0.245399,0.00348096,0.0210506,1826,1506,19.9375,-16.0276
609,-482,19.922,15.5845,0.00515096,-0.00139114,-0.00140737,0.00544087,-0.00168106,-0.203155,0.0042986,0.0164527,1833,1506,19.922,-15.5844
616,-482,19.8853,15.1133,0.0062885,-0.0022141,-0.00142877,0.00652216,-0.00244777,-0.16211,0.00535392,0.011609,1840,1506,19.8853,-15.1133
623,-482,19.8671,14.6598,0.0076457,-0.00316093,-0.00138059,0.00781929,-0.00333452,-0.125078,0.0066109,0.0151795,1847,1506,19.867,-14.6598
630,-482,19.8715,14.2367,0.0090617,-0.00399962,-0.00129021,0.00918792,-0.00412585,-0.0975254,0.00786973,0.0306221,1854,1506,19.8715,-14.2367
637,-482,19.9302,13.6321,0,0,0,0,0,0,0,-1,1861,1506,19.9302,-13.6321
644,-482,17.5909,11.6163,0,0,0,0,0,0,0,-1,1868,1506,17.5909,-11.6163
651,-482,4.03845,7.05273,0,0,0,0,0,0,0,-1,1875,1506,4.03843,-7.05279
658,-482,10.0278,5.87903,0,0,0,0,0,0,0,-1,1882,1506,10.0279,-5.87902
665,-482,8.15198,3.22229,0,0,0,0,0,0,0,-1,1889,1506,8.15199,-3.22232
672,-482,9.87415,1.3147,0,0,0,0,0,0,0,-1,1896,1506,9.87416,-1.31473
679,-482,0,0,0,0,0,0,0,0,0,-1,1903,1506,0,0
686,-482,0,0,0,0,0,0,0,0,0,-1,1910,1506,0,0
693,-482,0,0,0,0,0,0,0,0,0,-1,1917,1506,0,0
700,-482,0,0,0,0,0,0,0,0,0,-1,1924,1506,0,0
707,-482,0,0,0,0,0,0,0,0,0,-1,1931,1506,0,0
714,-482,0,0,0,0,0,0,0,0,0,-1,1938,1506,0,0
721,-482,0,0,0,0,0,0,0,0,0,-1,1945,1506,0,0
728,-482,0,0,0,0,0,0,0,0,0,-1,1952,1506,0,0
735,-482,0,0,0,0,0,0,0,0,0,-1,1959,1506,0,0
742,-482,0,0,0,0,0,0,0,0,0,-1,1966,1506,0,0
749,-482,0,0,0,0,0,0,0,0,0,-1,1973,1506,0,0
756,-482,0,0,0,0,0,0,0,0,0,-1,1980,1506,0,0
763,-482,0,0,0,0,0,0,0,0,0,-1,1987,1506,0,0
770,-482,0,0,0,0,0,0,0,0,0,-1,1994,1506,0,0
777,-482,0,0,0,0,0,0,0,0,0,-1,2001,1506,0,0
784,-482,0,0,0,0,0,0,0,0,0,-1,2008,1506,0,0
791,-482,0,0,0,0,0,0,0,0,0,-1,2015,1506,0,0
798,-482,0,0,0,0,0,0,0,0,0,-1,2022,1506,0,0
805,-482,0,0,0,0,0,0,0,0,0,-1,2029,1506,0,0
812,-482,0,0,0,0,0,0,0,0,0,-1,2036,1506,0,0
-700,-489,0,0,0,0,0,0,0,0,0,-1,524,1513,0,0
-693,-489,0,0,0,0,0,0,0,0,0,-1,531,1513,0,0
-686,-489,0,0,0,0,0,0,0,0,0,-1,538,1513,0,0
-679,-489,0,0,0,0,0,0,0,0,0,-1,545,1513,0,0
-672,-489,0,0,0,0,0,0,0,0,0,-1,552,1513,0,0
-665,-489,0,0,0,0,0,0,0,0,0,-1,559,1513,0,0
-658,-489,0,0,0,0,0,0,0,0,0,-1,566,1513,0,0
-651,-489,0,0,0,0,0,0,0,0,0,-1,573,1513,0,0
-644,-489,0,0,0,0,0,0,0,0,0,-1,580,1513,0,0
-637,-489,0,0,0,0,0,0,0,0,0,-1,587,1513,0,0
-630,-489,0,0,0,0,0,0,0,0,0,-1,594,1513,0,0
-623,-489,0,0,0,0,0,0,0,0,0,-1,601,1513,0,0
-616,-489,0,0,0,0,0,0,0,0,0,-1,608,1513,0,0
-609,-489,0,0,0,0,0,0,0,0,0,-1,615,1513,0,0
-602,-489,0,0,0,0,0,0,0,0,0,-1,622,1513,0,0
-595,-489,0,0,0,0,0,0,0,0,0,-1,629,1513,0,0
-588,-489,0,0,0,0,0,0,0,0,0,-1,636,1513,0,0
-581,-489,0,0,0,0,0,0,0,0,0,-1,643,1513,0,0
-574,-489,0,0,0,0,0,0,0,0,0,-1,650,1513,0,0
-567,-489,0,0,0,0,0,0,0,0,0,-1,657,1513,0,0
-560,-489,0,0,0,0,0,0,0,0,0,-1,664,1513,0,0
-553,-489,-9.42206,8.5116,0,0,0,0,0,0,0,-1,671,1513,-9.42205,-8.51158
-546,-489,-7.80951,8.18506,0,0,0,0,0,0,0,-1,678,1513,-7.8095,-8.18503
-539,-489,-3.06879,2.82349,0,0,0,0,0,0,0,-1,685,1513,-3.06881,-2.82354
-532,-489,-3.14215,2.5835,0,0,0,0,0,0,0,-1,692,1513,-3.14213,-2.58353
-525,-489,-2.604,4.06274,0,0,0,0,0,0,0,-1,699,1513,-2.60399,-4.06274
-518,-489,-5.43774,7.48059,0,0,0,0,0,0,0,-1,706,1513,-5.43777,-7.48058
-511,-489,-7.06586,10.2677,0,0,0,0,0,0,0,-1,713,1513,-7.06587,-10.2677
-504,-489,-6.63806,11.2616,0,0,0,0,0,0,0,-1,720,1513,-6.63806,-11.2616
-497,-489,-4.70306,12.3044,0,0,0,0,0,0,0,-1,727,1513,-4.70306,-12.3045
-490,-489,-4.62787,12.9644,-0.00154044,-0.00243643,0.00122905,-0.000680284,-0.00329658,0.610629,0.00200971,0.0379337,734,1513,-4.62787,-12.9644
-483,-489,-4.80389,13.3988,-0.00192514,-0.00236598,0.000412707,-0.00167768,-0.00261344,0.540129,0.001529,0.0167912,741,1513,-4.80387,-13.3989
-476,-489,-4.80725,13.9432,-0.00155527,-0.00199842,0.000231262,-0.00145657,-0.00209712,0.403395,0.00124095,0.0100372,748,1513,-4.80728,-13.9433
-469,-489,-4.81366,14.4492,-0.000720156,-0.0014304,0.000453803,-0.000499042,-0.00165152,0.453394,0.000978064,0.0101961,755,1513,-4.81366,-14.4492
-462,-489,-4.81622,14.9512,0.000414378,-0.000748914,0.000932818,0.000932032,-0.00126657,0.506625,0.00127425,0.0147367,762,1513,-4.81622,-14.9511
-455,-489,-4.83777,15.4567,0.00173092,1.74785e-05,0.00159477,0.00268452,-0.000936122,0.538914,0.0021701,0.0185946,769,1513,-4.83777,-15.4567
-448,-489,-4.87213,15.9445,0.00303551,0.000842648,0.00226292,0.00445363,-0.000575475,0.559805,0.00317833,0.0171812,776,1513,-4.87214,-15.9445
-441,-489,-4.87524,16.4585,0.00467918,0.0019531,0.00341062,0.00698905,-0.00035676,0.595298,0.00478272,0.0154907,783,1513,-4.87524,-16.4585
-434,-489,-4.91553,16.9513,0.00644773,0.00319049,0.00471771,0.00981002,-0.000171796,0.619196,0.00659803,0.0168979,790,1513,-4.91554,-16.9513
-427,-489,-4.9455,17.4258,0.00810171,0.00469116,0.00608447,0.0127154,7.75112e-05,0.64877,0.00845118,0.0182148,797,1513,-4.94548,-17.4258
-420,-489,-4.94958,18.0197,0.0099517,0.00643123,0.00793455,0.0163189,6.40173e-05,0.676244,0.010858,0.0224675,804,1513,-4.9496,-18.0196
-413,-489,-4.87653,18.689,0,0,0,0,0,0,0,-1,811,1513,-4.87652,-18.689
-406,-489,-3.10559,15.8143,0,0,0,0,0,0,0,-1,818,1513,-3.10556,-15.8143
-399,-489,-1.41241,9.10718,0,0,0,0,0,0,0,-1,825,1513,-1.41244,-9.10722
-392,-489,-1.0368,9.30469,0,0,0,0,0,0,0,-1,832,1513,-1.03682,-9.30466
-385,-489,-1.75165,10.6559,0,0,0,0,0,0,0,-1,839,1513,-1.75165,-10.6559
-378,-489,-0.401428,9.87048,0,0,0,0,0,0,0,-1,846,1513,-0.401415,-9.87047
-371,-489,-1.11633,10.6606,0,0,0,0,0,0,0,-1,853,1513,-1.11633,-10.6606
-364,-489,-0.503113,8.98486,0,0,0,0,0,0,0,-1,860,1513,-0.503097,-8.98482
-357,-489,-0.609924,10.9606,0,0,0,0,0,0,0,-1,867,1513,-0.609947,-10.9605
-350,-489,-7.94659,-0.358887,0,0,0,0,0,0,0,-1,874,1513,-7.94657,0.358912
-343,-489,-7.49323,-0.437866,0,0,0,0,0,0,0,-1,881,1513,-7.49322,0.437823
-336,-489,-7.02332,-0.53125,0,0,0,0,0,0,0,-1,888,1513,-7.0233,0.531295
-329,-489,-7.26953,0.977173,0,0,0,0,0,0,0,-1,895,1513,-7.26952,-0.977193
-322,-489,0,0,0,0,0,0,0,0,0,-1,902,1513,0,0
-315,-489,0,0,0,0,0,0,0,0,0,-1,909,1513,0,0
-308,-489,0,0,0,0,0,0,0,0,0,-1,916,1513,0,0
-301,-489,0,0,0,0,0,0,0,0,0,-1,923,1513,0,0
-294,-489,0,0,0,0,0,0,0,0,0,-1,930,1513,0,0
-287,-489,0,0,0,0,0,0,0,0,0,-1,937,1513,0,0
-280,-489,0,0,0,0,0,0,0,0,0,-1,944,1513,0,0
-273,-489,0,0,0,0,0,0,0,0,0,-1,951,1513,0,0
-266,-489,0,0,0,0,0,0,0,0,0,-1,958,1513,0,0
-259,-489,0,0,0,0,0,0,0,0,0,-1,965,1513,0,0
-252,-489,0,0,0,0,0,0,0,0,0,-1,972,1513,0,0
-245,-489,0,0,0,0,0,0,0,0,0,-1,979,1513,0,0
-238,-489,0,0,0,0,0,0,0,0,0,-1,986,1513,0,0
-231,-489,0,0,0,0,0,0,0,0,0,-1,993,1513,0,0
-224,-489,0,0,0,0,0,0,0,0,0,-1,1000,1513,0,0
-217,-489,0,0,0,0,0,0,0,0,0,-1,1007,1513,0,0
-210,-489,0,0,0,0,0,0,0,0,0,-1,1014,1513,0,0
-203,-489,0,0,0,0,0,0,0,0,0,-1,1021,1513,0,0
-196,-489,0,0,0,0,0,0,0,0,0,-1,1028,1513,0,0
-189,-489,0,0,0,0,0,0,0,0,0,-1,1035,1513,0,0
-182,-489,0,0,0,0,0,0,0,0,0,-1,1042,1513,0,0
-175,-489,0,0,0,0,0,0,0,0,0,-1,1049,1513,0,0
-168,-489,0,0,0,0,0,0,0,0,0,-1,1056,1513,0,0
-161,-489,0,0,0,0,0,0,0,0,0,-1,1063,1513,0,0
-154,-489,0,0,0,0,0,0,0,0,0,-1,1070,1513,0,0
-147,-489,0,0,0,0,0,0,0,0,0,-1,1077,1513,0,0
-140,-489,0,0,0,0,0,0,0,0,0,-1,1084,1513,0,0
-133,-489,0,0,0,0,0,0,0,0,0,-1,1091,1513,0,0
-126,-489,0,0,0,0,0,0,0,0,0,-1,1098,1513,0,0
-119,-489,0,0,0,0,0,0,0,0,0,-1,1105,1513,0,0
-112,-489,0,0,0,0,0,0,0,0,0,-1,1112,1513,0,0
-105,-489,0,0,0,0,0,0,0,0,0,-1,1119,1513,0,0
-98,-489,0,0,0,0,0,0,0,0,0,-1,1126,1513,0,0
-91,-489,0,0,0,0,0,0,0,0,0,-1,1133,1513,0,0
-84,-489,0,0,0,0,0,0,0,0,0,-1,1140,1513,0,0
-77,-489,0,0,0,0,0,0,0,0,0,-1,1147,1513,0,0
-70,-489,0,0,0,0,0,0,0,0,0,-1,1154,1513,0,0
-63,-489,0,0,0,0,0,0,0,0,0,-1,1161,1513,0,0
-56,-489,0,0,0,0,0,0,0,0,0,-1,1168,1513,0,0
-49,-489,0,0,0,0,0,0,0,0,0,-1,1175,1513,0,0
-42,-489,0,0,0,0,0,0,0,0,0,-1,1182,1513,0,0
-35,-489,0,0,0,0,0,0,0,0,0,-1,1189,1513,0,0
-28,-489,0,0,0,0,0,0,0,0,0,-1,1196,1513,0,0
-21,-489,0,0,0,0,0,0,0,0,0,-1,1203,1513,0,0
-14,-489,0,0,0,0,0,0,0,0,0,-1,1210,1513,0,0
-7,-489,0,0,0,0,0,0,0,0,0,-1,1217,1513,0,0
0,-489,0,0,0,0,0,0,0,0,0,-1,1224,1513,0,0
7,-489,0,0,0,0,0,0,0,0,0,-1,1231,1513,0,0
14,-489,0,0,0,0,0,0,0,0,0,-1,1238,1513,0,0
21,-489,0,0,0,0,0,0,0,0,0,-1,1245,1513,0,0
28,-489,0,0,0,0,0,0,0,0,0,-1,1252,1513,0,0
35,-489,0,0,0,0,0,0,0,0,0,-1,1259,1513,0,0
42,-489,0,0,0,0,0,0,0,0,0,-1,1266,1513,0,0
49,-489,0,0,0,0,0,0,0,0,0,-1,1273,1513,0,0
56,-489,0,0,0,0,0,0,0,0,0,-1,1280,1513,0,0
63,-489,0,0,0,0,0,0,0,0,0,-1,1287,1513,0,0
70,-489,0,0,0,0,0,0,0,0,0,-1,1294,1513,0,0
77,-489,0,0,0,0,0,0,0,0,0,-1,1301,1513,0,0
84,-489,0,0,0,0,0,0,0,0,0,-1,1308,1513,0,0
91,-489,0,0,0,0,0,0,0,0,0,-1,1315,1513,0,0
98,-489,0,0,0,0,0,0,0,0,0,-1,1322,1513,0,0
105,-489,0,0,0,0,0,0,0,0,0,-1,1329,1513,0,0
112,-489,0,0,0,0,0,0,0,0,0,-1,1336,1513,0,0
119,-489,0,0,0,0,0,0,0,0,0,-1,1343,1513,0,0
126,-489,0,0,0,0,0,0,0,0,0,-1,1350,1513,0,0
133,-489,0,0,0,0,0,0,0,0,0,-1,1357,1513,0,0
140,-489,0,0,0,0,0,0,0,0,0,-1,1364,1513,0,0
147,-489,0,0,0,0,0,0,0,0,0,-1,1371,1513,0,0
154,-489,0,0,0,0,0,0,0,0,0,-1,1378,1513,0,0
161,-489,0,0,0,0,0,0,0,0,0,-1,1385,1513,0,0
168,-489,0,0,0,0,0,0,0,0,0,-1,1392,1513,0,0
175,-489,0,0,0,0,0,0,0,0,0,-1,1399,1513,0,0
182,-489,0,0,0,0,0,0,0,0,0,-1,1406,1513,0,0
189,-489,0,0,0,0,0,0,0,0,0,-1,1413,1513,0,0
196,-489,0,0,0,0,0,0,0,0,0,-1,1420,1513,0,0
203,-489,0,0,0,0,0,0,0,0,0,-1,1427,1513,0,0
210,-489,0,0,0,0,0,0,0,0,0,-1,1434,1513,0,0
217,-489,0,0,0,0,0,0,0,0,0,-1,1441,1513,0,0
224,-489,0,0,0,0,0,0,0,0,0,-1,1448,1513,0,0
231,-489,0,0,0,0,0,0,0,0,0,-1,1455,1513,0,0
238,-489,0,0,0,0,0,0,0,0,0,-1,1462,1513,0,0
245,-489,0,0,0,0,0,0,0,0,0,-1,1469,1513,0,0
252,-489,0,0,0,0,0,0,0,0,0,-1,1476,1513,0,0
259,-489,0,0,0,0,0,0,0,0,0,-1,1483,1513,0,0
266,-489,0,0,0,0,0,0,0,0,0,-1,1490,1513,0,0
273,-489,0,0,0,0,0,0,0,0,0,-1,1497,1513,0,0
280,-489,0,0,0,0,0,0,0,0,0,-1,1504,1513,0,0
287,-489,0,0,0,0,0,0,0,0,0,-1,1511,1513,0,0
294,-489,0,0,0,0,0,0,0,0,0,-1,1518,1513,0,0
301,-489,0,0,0,0,0,0,0,0,0,-1,1525,1513,0,0
308,-489,0,0,0,0,0,0,0,0,0,-1,1532,1513,0,0
315,-489,0,0,0,0,0,0,0,0,0,-1,1539,1513,0,0
322,-489,0,0,0,0,0,0,0,0,0,-1,1546,1513,0,0
329,-489,0,0,0,0,0,0,0,0,0,-1,1553,1513,0,0
336,-489,0,0,0,0,0,0,0,0,0,-1,1560,1513,0,0
343,-489,0,0,0,0,0,0,0,0,0,-1,1567,1513,0,0
350,-489,0,0,0,0,0,0,0,0,0,-1,1574,1513,0,0
357,-489,0,0,0,0,0,0,0,0,0,-1,1581,1513,0,0
364,-489,0,0,0,0,0,0,0,0,0,-1,1588,1513,0,0
371,-489,0,0,0,0,0,0,0,0,0,-1,1595,1513,0,0
378,-489,0,0,0,0,0,0,0,0,0,-1,1602,1513,0,0
385,-489,0,0,0,0,0,0,0,0,0,-1,1609,1513,0,0
392,-489,0,0,0,0,0,0,0,0,0,-1,1616,1513,0,0
399,-489,0,0,0,0,0,0,0,0,0,-1,1623,1513,0,0
406,-489,0,0,0,0,0,0,0,0,0,-1,1630,1513,0,0
413,-489,0,0,0,0,0,0,0,0,0,-1,1637,1513,0,0
420,-489,0,0,0,0,0,0,0,0,0,-1,1644,1513,0,0
427,-489,0,0,0,0,0,0,0,0,0,-1,1651,1513,0,0
434,-489,0,0,0,0,0,0,0,0,0,-1,1658,1513,0,0
441,-489,11.4602,2.56787,0,0,0,0,0,0,0,-1,1665,1513,11.4602,-2.56786
448,-489,12.4425,1.72351,0,0,0,0,0,0,0,-1,1672,1513,12.4425,-1.72349
455,-489,12.5575,1.37463,0,0,0,0,0,0,0,-1,1679,1513,12.5575,-1.37469
462,-489,14.9784,3.84888,0,0,0,0,0,0,0,-1,1686,1513,14.9784,-3.84892
469,-489,15.1367,4.53101,0,0,0,0,0,0,0,-1,1693,1513,15.1368,-4.531
476,-489,15.5536,5.09338,0,0,0,0,0,0,0,-1,1700,1513,15.5536,-5.09339
483,-489,8.96912,8.37805,0,0,0,0,0,0,0,-1,1707,1513,8.96909,-8.37809
490,-489,10.5366,7.49561,0,0,0,0,0,0,0,-1,1714,1513,10.5367,-7.49558
497,-489,14.6051,11.8397,0,0,0,0,0,0,0,-1,1721,1513,14.6051,-11.8397
504,-489,16.7527,14.1735,0,0,0,0,0,0,0,-1,1728,1513,16.7527,-14.1735
511,-489,17.83,17.7993,0,0,0,0,0,0,0,-1,1735,1513,17.83,-17.7993
518,-489,16.4751,14.3682,0,0,0,0,0,0,0,-1,1742,1513,16.4751,-14.3682
525,-489,17.2606,17.4949,0,0,0,0,0,0,0,-1,1749,1513,17.2606,-17.4949
532,-489,18.6436,19.9971,0,0,0,0,0,0,0,-1,1756,1513,18.6436,-19.9971
539,-489,19.3363,20.2466,0,0,0,0,0,0,0,-1,1763,1513,19.3363,-20.2466
546,-489,19.5039,19.8098,0.0052684,0.00401909,-0.00311699,0.00782271,0.00146478,-0.686506,0.00480193,0.0217101,1770,1513,19.5039,-19.8098
553,-489,19.514,19.229,0.00441034,0.00307237,-0.00231274,0.00614891,0.0013338,-0.644611,0.00373492,0.017876,1777,1513,19.514,-19.229
560,-489,19.5245,18.7595,0.0037328,0.00233517,-0.00173241,0.00490203,0.00116594,-0.593692,0.00295701,0.0136959,1784,1513,19.5246,-18.7595
567,-489,19.5292,18.316,0.00311312,0.00189905,-0.00139736,0.00402961,0.00098257,-0.580489,0.00242614,0.0142697,1791,1513,19.5291,-18.316
574,-489,19.5067,17.8888,0.00306374,0.00138494,-0.00129933,0.00377123,0.000677463,-0.49861,0.00232152,0.0137011,1798,1513,19.5067,-17.8888
581,-489,19.5227,17.4097,0.00320013,0.000832852,-0.00127151,0.00375365,0.000279329,-0.410586,0.00241472,0.0105467,1805,1513,19.5227,-17.4097
588,-489,19.5121,16.9417,0.00364619,0.000292047,-0.00136938,0.00413424,-0.000196005,-0.342369,0.00282377,0.013519,1812,1513,19.5121,-16.9416
595,-489,19.4822,16.5111,0.00445426,-0.000322554,-0.00151827,0.00489599,-0.000764276,-0.283122,0.00354631,0.0195856,1819,1513,19.4822,-16.5111
602,-489,19.4808,16.0754,0.00548291,-0.00100821,-0.00173397,0.00591707,-0.00144237,-0.245339,0.00450317,0.0258211,1826,1513,19.4808,-16.0755
609,-489,19.46,15.5944,0.00676877,-0.00178744,-0.00196297,0.00719762,-0.00221629,-0.215091,0.0056831,0.0175397,1833,1513,19.46,-15.5944
616,-489,19.4525,15.0977,0.00850121,-0.00278979,-0.00213703,0.00889215,-0.00318073,-0.180934,0.0072256,0.015038,1840,1513,19.4525,-15.0977
623,-489,19.4294,14.647,0.010535,-0.00396859,-0.0022327,0.0108709,-0.00430451,-0.149336,0.00903082,0.0338183,1847,1513,19.4295,-14.647
630,-489,19.4059,14.0919,0,0,0,0,0,0,0,-1,1854,1513,19.4059,-14.0919
637,-489,17.2048,11.8091,0,0,0,0,0,0,0,-1,1861,1513,17.2048,-11.8091
644,-489,9.67578,8.45874,0,0,0,0,0,0,0,-1,1868,1513,9.67576,-8.45879
651,-489,6.13818,6.85095,0,0,0,0,0,0,0,-1,1875,1513,6.13823,-6.85097
658,-489,5.43848,7.75513,0,0,0,0,0,0,0,-1,1882,1513,5.43844,-7.75509
665,-489,5.48438,8.59912,0,0,0,0,0,0,0,-1,1889,1513,5.48434,-8.59907
672,-489,0,0,0,0,0,0,0,0,0,-1,1896,1513,0,0
679,-489,0,0,0,0,0,0,0,0,0,-1,1903,1513,0,0
686,-489,0,0,0,0,0,0,0,0,0,-1,1910,1513,0,0
693,-489,0,0,0,0,0,0,0,0,0,-1,1917,1513,0,0
700,-489,0,0,0,0,0,0,0,0,0,-1,1924,1513,0,0
707,-489,0,0,0,0,0,0,0,0,0,-1,1931,1513,0,0
714,-489,0,0,0,0,0,0,0,0,0,-1,1938,1513,0,0
721,-489,0,0,0,0,0,0,0,0,0,-1,1945,1513,0,0
728,-489,0,0,0,0,0,0,0,0,0,-1,1952,1513,0,0
735,-489,0,0,0,0,0,0,0,0,0,-1,1959,1513,0,0
742,-489,0,0,0,0,0,0,0,0,0,-1,1966,1513,0,0
749,-489,0,0,0,0,0,0,0,0,0,-1,1973,1513,0,0
756,-489,0,0,0,0,0,0,0,0,0,-1,1980,1513,0,0
763,-489,0,0,0,0,0,0,0,0,0,-1,1987,1513,0,0
770,-489,0,0,0,0,0,0,0,0,0,-1,1994,1513,0,0
777,-489,0,0,0,0,0,0,0,0,0,-1,2001,1513,0,0
784,-489,0,0,0,0,0,0,0,0,0,-1,2008,1513,0,0
791,-489,0,0,0,0,0,0,0,0,0,-1,2015,1513,0,0
798,-489,0,0,0,0,0,0,0,0,0,-1,2022,1513,0,0
805,-489,0,0,0,0,0,0,0,0,0,-1,2029,1513,0,0
812,-489,0,0,0,0,0,0,0,0,0,-1,2036,1513,0,0
-700,-496,0,0,0,0,0,0,0,0,0,-1,524,1520,0,0
-693,-496,0,0,0,0,0,0,0,0,0,-1,531,1520,0,0
-686,-496,0,0,0,0,0,0,0,0,0,-1,538,1520,0,0
-679,-496,0,0,0,0,0,0,0,0,0,-1,545,1520,0,0
-672,-496,0,0,0,0,0,0,0,0,0,-1,552,1520,0,0
-665,-496,0,0,0,0,0,0,0,0,0,-1,559,1520,0,0
-658,-496,0,0,0,0,0,0,0,0,0,-1,566,1520,0,0
-651,-496,0,0,0,0,0,0,0,0,0,-1,573,1520,0,0
-644,-496,0,0,0,0,0,0,0,0,0,-1,580,1520,0,0
-637,-496,0,0,0,0,0,0,0,0,0,-1,587,1520,0,0
-630,-496,0,0,0,0,0,0,0,0,0,-1,594,1520,0,0
-623,-496,0,0,0,0,0,0,0,0,0,-1,601,1520,0,0
-616,-496,0,0,0,0,0,0,0,0,0,-1,608,1520,0,0
-609,-496,0,0,0,0,0,0,0,0,0,-1,615,1520,0,0
-602,-496,0,0,0,0,0,0,0,0,0,-1,622,1520,0,0
-595,-496,0,0,0,0,0,0,0,0,0,-1,629,1520,0,0
-588,-496,0,0,0,0,0,0,0,0,0,-1,636,1520,0,0
-581,-496,0,0,0,0,0,0,0,0,0,-1,643,1520,0,0
-574,-496,0,0,0,0,0,0,0,0,0,-1,650,1520,0,0
-567,-496,0,0,0,0,0,0,0,0,0,-1,657,1520,0,0
-560,-496,0,0,0,0,0,0,0,0,0,-1,664,1520,0,0
-553,-496,0,0,0,0,0,0,0,0,0,-1,671,1520,0,0
-546,-496,-8.09711,7.94836,0,0,0,0,0,0,0,-1,678,1520,-8.09712,-7.94842
-539,-496,-3.20129,1.16052,0,0,0,0,0,0,0,-1,685,1520,-3.20131,-1.16054
-532,-496,-2.98279,2.62146,0,0,0,0,0,0,0,-1,692,1520,-2.98278,-2.62151
-525,-496,-2.75201,4.08032,0,0,0,0,0,0,0,-1,699,1520,-2.75201,-4.08031
-518,-496,-2.6333,5.36072,0,0,0,0,0,0,0,-1,706,1520,-2.63328,-5.36077
-511,-496,-7.92126,9.68604,0,0,0,0,0,0,0,-1,713,1520,-7.92127,-9.68598
-504,-496,-7.39478,10.7325,0,0,0,0,0,0,0,-1,720,1520,-7.39475,-10.7326
-497,-496,-4.11383,12.6461,0,0,0,0,0,0,0,-1,727,1520,-4.1138,-12.6461
-490,-496,-4.09479,13.0858,-0.00226989,-0.00277338,0.00150095,-0.00099972,-0.00404355,0.702308,0.00243195,0.0451446,734,1520,-4.0948,-13.0858
-483,-496,-4.22162,13.5481,-0.00245922,-0.0027242,0.000542262,-0.0020335,-0.00314992,0.665585,0.00184412,0.0283726,741,1520,-4.22165,-13.5481
-476,-496,-4.33313,13.9596,-0.00193753,-0.00235292,0.000260548,-0.00181202,-0.00247842,0.448896,0.001481,0.0138406,748,1520,-4.33315,-13.9596
-469,-496,-4.33276,14.4636,-0.00106088,-0.00178739,0.000358904,-0.000913478,-0.00193479,0.389686,0.00111763,0.00975891,755,1520,-4.33278,-14.4637
-462,-496,-4.34271,14.9795,2.18427e-05,-0.001127,0.000707299,0.000358592,-0.00146375,0.444351,0.00111476,0.0141063,762,1520,-4.34269,-14.9795
-455,-496,-4.36395,15.4792,0.00116832,-0.000422683,0.00119639,0.00180954,-0.00106391,0.492004,0.0016775,0.0199085,769,1520,-4.36392,-15.4792
-448,-496,-4.36609,15.9795,0.00215501,0.00027807,0.00162017,0.00308889,-0.000655803,0.52289,0.00230911,0.0189252,776,1520,-4.3661,-15.9795
-441,-496,-4.37646,16.486,0.00340221,0.0012631,0.00252899,0.00507852,-0.000413208,0.585346,0.00353148,0.0146524,783,1520,-4.3765,-16.486
-434,-496,-4.40399,16.9614,0.00474296,0.00236411,0.00358746,0.00733303,-0.00022596,0.625326,0.00496572,0.0135323,790,1520,-4.40401,-16.9615
-427,-496,-4.43597,17.4338,0.00600169,0.00371846,0.0047452,0.00974067,-2.0517e-05,0.66735,0.00650063,0.0168402,797,1520,-4.43597,-17.4339
-420,-496,-4.44086,17.9259,0.00732184,0.00521249,0.00621326,0.0125693,-3.49674e-05,0.701326,0.00839121,0.0176228,804,1520,-4.44085,-17.9259
-413,-496,-4.35938,18.4545,0.00896514,0.00712755,0.00813514,0.0162332,-0.000140517,0.729166,0.0108693,0.0275598,811,1520,-4.3594,-18.4544
-406,-496,-4.20703,19.1388,0,0,0,0,0,0,0,-1,818,1520,-4.20701,-19.1388
-399,-496,-3.91266,19.9315,0,0,0,0,0,0,0,-1,825,1520,-3.91264,-19.9315
-392,-496,-1.49786,12.387,0,0,0,0,0,0,0,-1,832,1520,-1.49788,-12.387
-385,-496,-1.72437,11.4985,0,0,0,0,0,0,0,-1,839,1520,-1.72436,-11.4985
-378,-496,-1.45532,14.0719,0,0,0,0,0,0,0,-1,846,1520,-1.45533,-14.0719
-371,-496,0.0877075,12.5299,0,0,0,0,0,0,0,-1,853,1520,0.0876896,-12.5299
-364,-496,0.0881348,10.6422,0,0,0,0,0,0,0,-1,860,1520,0.0881368,-10.6423
-357,-496,0.323792,7.56812,0,0,0,0,0,0,0,-1,867,1520,0.323782,-7.56806
-350,-496,2.1535,7.18945,0,0,0,0,0,0,0,-1,874,1520,2.15348,-7.1894
-343,-496,-7.56244,0.335327,0,0,0,0,0,0,0,-1,881,1520,-7.56242,-0.335322
-336,-496,-3.99249,6.02222,0,0,0,0,0,0,0,-1,888,1520,-3.99246,-6.0222
-329,-496,-6.93689,-0.100342,0,0,0,0,0,0,0,-1,895,1520,-6.93686,0.1003
-322,-496,-6.17505,0.494385,0,0,0,0,0,0,0,-1,902,1520,-6.17507,-0.49437
-315,-496,-7.539,5.78638,0,0,0,0,0,0,0,-1,909,1520,-7.53898,-5.78633
-308,-496,0,0,0,0,0,0,0,0,0,-1,916,1520,0,0
-301,-496,0,0,0,0,0,0,0,0,0,-1,923,1520,0,0
-294,-496,0,0,0,0,0,0,0,0,0,-1,930,1520,0,0
-287,-496,0,0,0,0,0,0,0,0,0,-1,937,1520,0,0
-280,-496,0,0,0,0,0,0,0,0,0,-1,944,1520,0,0
-273,-496,0,0,0,0,0,0,0,0,0,-1,951,1520,0,0
-266,-496,0,0,0,0,0,0,0,0,0,-1,958,1520,0,0
-259,-496,0,0,0,0,0,0,0,0,0,-1,965,1520,0,0
-252,-496,0,0,0,0,0,0,0,0,0,-1,972,1520,0,0
-245,-496,0,0,0,0,0,0,0,0,0,-1,979,1520,0,0
-238,-496,0,0,0,0,0,0,0,0,0,-1,986,1520,0,0
-231,-496,0,0,0,0,0,0,0,0,0,-1,993,1520,0,0
-224,-496,0,0,0,0,0,0,0,0,0,-1,1000,1520,0,0
-217,-496,0,0,0,0,0,0,0,0,0,-1,1007,1520,0,0
-210,-496,0,0,0,0,0,0,0,0,0,-1,1014,1520,0,0
-203,-496,0,0,0,0,0,0,0,0,0,-1,1021,1520,0,0
-196,-496,0,0,0,0,0,0,0,0,0,-1,1028,1520,0,0
-189,-496,0,0,0,0,0,0,0,0,0,-1,1035,1520,0,0
-182,-496,0,0,0,0,0,0,0,0,0,-1,1042,1520,0,0
-175,-496,0,0,0,0,0,0,0,0,0,-1,1049,1520,0,0
-168,-496,0,0,0,0,0,0,0,0,0,-1,1056,1520,0,0
-161,-496,0,0,0,0,0,0,0,0,0,-1,1063,1520,0,0
-154,-496,0,0,0,0,0,0,0,0,0,-1,1070,1520,0,0
-147,-496,0,0,0,0,0,0,0,0,0,-1,1077,1520,0,0
-140,-496,0,0,0,0,0,0,0,0,0,-1,1084,1520,0,0
-133,-496,0,0,0,0,0,0,0,0,0,-1,1091,1520,0,0
-126,-496,0,0,0,0,0,0,0,0,0,-1,1098,1520,0,0
-119,-496,0,0,0,0,0,0,0,0,0,-1,1105,1520,0,0
-112,-496,0,0,0,0,0,0,0,0,0,-1,1112,1520,0,0
-105,-496,0,0,0,0,0,0,0,0,0,-1,1119,1520,0,0
-98,-496,0,0,0,0,0,0,0,0,0,-1,1126,1520,0,0
-91,-496,0,0,0,0,0,0,0,0,0,-1,1133,1520,0,0
-84,-496,0,0,0,0,0,0,0,0,0,-1,1140,1520,0,0
-77,-496,0,0,0,0,0,0,0,0,0,-1,1147,1520,0,0
-70,-496,0,0,0,0,0,0,0,0,0,-1,1154,1520,0,0
-63,-496,0,0,0,0,0,0,0,0,0,-1,1161,1520,0,0
-56,-496,0,0,0,0,0,0,0,0,0,-1,1168,1520,0,0
-49,-496,0,0,0,0,0,0,0,0,0,-1,1175,1520,0,0
-42,-496,0,0,0,0,0,0,0,0,0,-1,1182,1520,0,0
-35,-496,0,0,0,0,0,0,0,0,0,-1,1189,1520,0,0
-28,-496,0,0,0,0,0,0,0,0,0,-1,1196,1520,0,0
-21,-496,0,0,0,0,0,0,0,0,0,-1,1203,1520,0,0
-14,-496,0,0,0,0,0,0,0,0,0,-1,1210,1520,0,0
-7,-496,0,0,0,0,0,0,0,0,0,-1,1217,1520,0,0
0,-496,0,0,0,0,0,0,0,0,0,-1,1224,1520,0,0
7,-496,0,0,0,0,0,0,0,0,0,-1,1231,1520,0,0
14,-496,0,0,0,0,0,0,0,0,0,-1,1238,1520,0,0
21,-496,0,0,0,0,0,0,0,0,0,-1,1245,1520,0,0
28,-496,0,0,0,0,0,0,0,0,0,-1,1252,1520,0,0
35,-496,0,0,0,0,0,0,0,0,0,-1,1259,1520,0,0
42,-496,0,0,0,0,0,0,0,0,0,-1,1266,1520,0,0
49,-496,0,0,0,0,0,0,0,0,0,-1,1273,1520,0,0
56,-496,0,0,0,0,0,0,0,0,0,-1,1280,1520,0,0
63,-496,0,0,0,0,0,0,0,0,0,-1,1287,1520,0,0
70,-496,0,0,0,0,0,0,0,0,0,-1,1294,1520,0,0
77,-496,0,0,0,0,0,0,0,0,0,-1,1301,1520,0,0
84,-496,0,0,0,0,0,0,0,0,0,-1,1308,1520,0,0
91,-496,0,0,0,0,0,0,0,0,0,-1,1315,1520,0,0
98,-496,0,0,0,0,0,0,0,0,0,-1,1322,1520,0,0
105,-496,0,0,0,0,0,0,0,0,0,-1,1329,1520,0,0
112,-496,0,0,0,0,0,0,0,0,0,-1,1336,1520,0,0
119,-496,0,0,0,0,0,0,0,0,0,-1,1343,1520,0,0
126,-496,0,0,0,0,0,0,0,0,0,-1,1350,1520,0,0
133,-496,0,0,0,0,0,0,0,0,0,-1,1357,1520,0,0
140,-496,0,0,0,0,0,0,0,0,0,-1,1364,1520,0,0
147,-496,0,0,0,0,0,0,0,0,0,-1,1371,1520,0,0
154,-496,0,0,0,0,0,0,0,0,0,-1,1378,1520,0,0
161,-496,0,0,0,0,0,0,0,0,0,-1,1385,1520,0,0
168,-496,0,0,0,0,0,0,0,0,0,-1,1392,1520,0,0
175,-496,0,0,0,0,0,0,0,0,0,-1,1399,1520,0,0
182,-496,0,0,0,0,0,0,0,0,0,-1,1406,1520,0,0
189,-496,0,0,0,0,0,0,0,0,0,-1,1413,1520,0,0
196,-496,0,0,0,0,0,0,0,0,0,-1,1420,1520,0,0
203,-496,0,0,0,0,0,0,0,0,0,-1,1427,1520,0,0
210,-496,0,0,0,0,0,0,0,0,0,-1,1434,1520,0,0
217,-496,0,0,0,0,0,0,0,0,0,-1,1441,1520,0,0
224,-496,0,0,0,0,0,0,0,0,0,-1,1448,1520,0,0
231,-496,0,0,0,0,0,0,0,0,0,-1,1455,1520,0,0
238,-496,0,0,0,0,0,0,0,0,0,-1,1462,1520,0,0
245,-496,0,0,0,0,0,0,0,0,0,-1,1469,1520,0,0
252,-496,0,0,0,0,0,0,0,0,0,-1,1476,1520,0,0
259,-496,0,0,0,0,0,0,0,0,0,-1,1483,1520,0,0
266,-496,0,0,0,0,0,0,0,0,0,-1,1490,1520,0,0
273,-496,0,0,0,0,0,0,0,0,0,-1,1497,1520,0,0
280,-496,0,0,0,0,0,0,0,0,0,-1,1504,1520,0,0
287,-496,0,0,0,0,0,0,0,0,0,-1,1511,1520,0,0
294,-496,0,0,0,0,0,0,0,0,0,-1,1518,1520,0,0
301,-496,0,0,0,0,0,0,0,0,0,-1,1525,1520,0,0
308,-496,0,0,0,0,0,0,0,0,0,-1,1532,1520,0,0
315,-496,0,0,0,0,0,0,0,0,0,-1,1539,1520,0,0
322,-496,0,0,0,0,0,0,0,0,0,-1,1546,1520,0,0
329,-496,0,0,0,0,0,0,0,0,0,-1,1553,1520,0,0
336,-496,0,0,0,0,0,0,0,0,0,-1,1560,1520,0,0
343,-496,0,0,0,0,0,0,0,0,0,-1,1567,1520,0,0
350,-496,0,0,0,0,0,0,0,0,0,-1,1574,1520,0,0
357,-496,0,0,0,0,0,0,0,0,0,-1,1581,1520,0,0
364,-496,0,0,0,0,0,0,0,0,0,-1,1588,1520,0,0
371,-496,0,0,0,0,0,0,0,0,0,-1,1595,1520,0,0
378,-496,0,0,0,0,0,0,0,0,0,-1,1602,1520,0,0
385,-496,0,0,0,0,0,0,0,0,0,-1,1609,1520,0,0
392,-496,0,0,0,0,0,0,0,0,0,-1,1616,1520,0,0
399,-496,0,0,0,0,0,0,0,0,0,-1,1623,1520,0,0
406,-496,0,0,0,0,0,0,0,0,0,-1,1630,1520,0,0
413,-496,0,0,0,0,0,0,0,0,0,-1,1637,1520,0,0
420,-496,0,0,0,0,0,0,0,0,0,-1,1644,1520,0,0
427,-496,0,0,0,0,0,0,0,0,0,-1,1651,1520,0,0
434,-496,11.0457,3.37732,0,0,0,0,0,0,0,-1,1658,1520,11.0456,-3.37736
441,-496,11.788,2.75488,0,0,0,0,0,0,0,-1,1665,1520,11.7879,-2.75485
448,-496,12.2146,2.18494,0,0,0,0,0,0,0,-1,1672,1520,12.2146,-2.18489
455,-496,12.3489,1.65173,0,0,0,0,0,0,0,-1,1679,1520,12.3489,-1.65178
462,-496,12.1912,1.32361,0,0,0,0,0,0,0,-1,1686,1520,12.1911,-1.32357
469,-496,14.8138,5.77954,0,0,0,0,0,0,0,-1,1693,1520,14.8138,-5.77958
476,-496,15.2449,6.27942,0,0,0,0,0,0,0,-1,1700,1520,15.2449,-6.27936
483,-496,9.19812,6.88367,0,0,0,0,0,0,0,-1,1707,1520,9.19812,-6.88361
490,-496,10.2123,7.97144,0,0,0,0,0,0,0,-1,1714,1520,10.2122,-7.97145
497,-496,13.9297,12.2981,0,0,0,0,0,0,0,-1,1721,1520,13.9297,-12.2982
504,-496,16.3271,16.6501,0,0,0,0,0,0,0,-1,1728,1520,16.3272,-16.6502
511,-496,17.6753,18.0685,0,0,0,0,0,0,0,-1,1735,1520,17.6753,-18.0685
518,-496,17.0537,17.3118,0,0,0,0,0,0,0,-1,1742,1520,17.0538,-17.3118
525,-496,18.2721,19.3259,0,0,0,0,0,0,0,-1,1749,1520,18.2721,-19.3259
532,-496,18.8239,20.9078,0,0,0,0,0,0,0,-1,1756,1520,18.8239,-20.9078
539,-496,19.0854,20.2119,0.00549225,0.00482421,-0.00385197,0.00902465,0.00129181,-0.74215,0.0056354,0.0296017,1763,1520,19.0854,-20.2119
546,-496,19.04,19.7108,0.00447853,0.00363575,-0.00277982,0.00686871,0.00124556,-0.710176,0.00422559,0.0137652,1770,1520,19.0401,-19.7108
553,-496,19.1022,19.1855,0.0037688,0.00278413,-0.00206495,0.0053993,0.00115363,-0.668371,0.00328326,0.0159255,1777,1520,19.1022,-19.1856
560,-496,19.0919,18.7551,0.0032466,0.00211675,-0.00156902,0.0043493,0.00101405,-0.612599,0.00262757,0.0151635,1784,1520,19.0919,-18.7551
567,-496,19.0856,18.3033,0.00302559,0.00162439,-0.00135422,0.00384971,0.000800279,-0.546685,0.00234567,0.0120856,1791,1520,19.0855,-18.3034
574,-496,19.0892,17.8461,0.00319522,0.00114435,-0.00133471,0.00385293,0.00048664,-0.457847,0.00242275,0.0122273,1798,1520,19.0892,-17.8461
581,-496,19.0806,17.4138,0.0035972,0.000606098,-0.00140506,0.00415369,4.96076e-05,-0.377106,0.00275274,0.013165,1805,1520,19.0806,-17.4138
588,-496,19.064,16.9684,0.00436056,8.38921e-05,-0.00163362,0.00491317,-0.000468721,-0.326191,0.00344234,0.0152898,1812,1520,19.0639,-16.9684
595,-496,19.0348,16.5262,0.00553313,-0.000527838,-0.00192737,0.0060941,-0.00108881,-0.283233,0.0044701,0.0165284,1819,1520,19.0348,-16.5262
602,-496,19.0183,16.0825,0.00701691,-0.00122997,-0.00231473,0.00762218,-0.00183525,-0.255761,0.00579097,0.017589,1826,1520,19.0183,-16.0825
609,-496,19.0219,15.5835,0.00884689,-0.00210364,-0.00273172,0.00949052,-0.00274726,-0.231392,0.00741441,0.015436,1833,1520,19.0219,-15.5835
616,-496,19.0795,15.0173,0.0113759,-0.00330986,-0.00311234,0.0120083,-0.00394223,-0.200451,0.00959352,0.0310094,1840,1520,19.0794,-15.0173
623,-496,19.0122,14.3082,0,0,0,0,0,0,0,-1,1847,1520,19.0122,-14.3082
630,-496,18.5656,13.8966,0,0,0,0,0,0,0,-1,1854,1520,18.5655,-13.8967
637,-496,14.6411,10.1016,0,0,0,0,0,0,0,-1,1861,1520,14.6411,-10.1016
644,-496,12.4537,10.087,0,0,0,0,0,0,0,-1,1868,1520,12.4537,-10.0871
651,-496,8.18506,5.47803,0,0,0,0,0,0,0,-1,1875,1520,8.18505,-5.47806
658,-496,7.79993,4.02563,0,0,0,0,0,0,0,-1,1882,1520,7.79997,-4.02568
665,-496,5.47583,7.90625,0,0,0,0,0,0,0,-1,1889,1520,5.47581,-7.90628
672,-496,0,0,0,0,0,0,0,0,0,-1,1896,1520,0,0
679,-496,0,0,0,0,0,0,0,0,0,-1,1903,1520,0,0
686,-496,0,0,0,0,0,0,0,0,0,-1,1910,1520,0,0
693,-496,0,0,0,0,0,0,0,0,0,-1,1917,1520,0,0
700,-496,0,0,0,0,0,0,0,0,0,-1,1924,1520,0,0
707,-496,0,0,0,0,0,0,0,0,0,-1,1931,1520,0,0
714,-496,0,0,0,0,0,0,0,0,0,-1,1938,1520,0,0
721,-496,0,0,0,0,0,0,0,0,0,-1,1945,1520,0,0
728,-496,0,0,0,0,0,0,0,0,0,-1,1952,1520,0,0
735,-496,0,0,0,0,0,0,0,0,0,-1,1959,1520,0,0
742,-496,0,0,0,0,0,0,0,0,0,-1,1966,1520,0,0
749,-496,0,0,0,0,0,0,0,0,0,-1,1973,1520,0,0
756,-496,0,0,0,0,0,0,0,0,0,-1,1980,1520,0,0
763,-496,0,0,0,0,0,0,0,0,0,-1,1987,1520,0,0
770,-496,0,0,0,0,0,0,0,0,0,-1,1994,1520,0,0
777,-496,0,0,0,0,0,0,0,0,0,-1,2001,1520,0,0
784,-496,0,0,0,0,0,0,0,0,0,-1,2008,1520,0,0
791,-496,0,0,0,0,0,0,0,0,0,-1,2015,1520,0,0
798,-496,0,0,0,0,0,0,0,0,0,-1,2022,1520,0,0
805,-496,0,0,0,0,0,0,0,0,0,-1,2029,1520,0,0
812,-496,0,0,0,0,0,0,0,0,0,-1,2036,1520,0,0
-700,-503,0,0,0,0,0,0,0,0,0,-1,524,1527,0,0
-693,-503,0,0,0,0,0,0,0,0,0,-1,531,1527,0,0
-686,-503,0,0,0,0,0,0,0,0,0,-1,538,1527,0,0
-679,-503,0,0,0,0,0,0,0,0,0,-1,545,1527,0,0
-672,-503,0,0,0,0,0,0,0,0,0,-1,552,1527,0,0
-665,-503,0,0,0,0,0,0,0,0,0,-1,559,1527,0,0
-658,-503,0,0,0,0,0,0,0,0,0,-1,566,1527,0,0
-651,-503,0,0,0,0,0,0,0,0,0,-1,573,1527,0,0
-644,-503,0,0,0,0,0,0,0,0,0,-1,580,1527,0,0
-637,-503,0,0,0,0,0,0,0,0,0,-1,587,1527,0,0
-630,-503,0,0,0,0,0,0,0,0,0,-1,594,1527,0,0
-623,-503,0,0,0,0,0,0,0,0,0,-1,601,1527,0,0
-616,-503,0,0,0,0,0,0,0,0,0,-1,608,1527,0,0
-609,-503,0,0,0,0,0,0,0,0,0,-1,615,1527,0,0
-602,-503,0,0,0,0,0,0,0,0,0,-1,622,1527,0,0
-595,-503,0,0,0,0,0,0,0,0,0,-1,629,1527,0,0
-588,-503,0,0,0,0,0,0,0,0,0,-1,636,1527,0,0
-581,-503,0,0,0,0,0,0,0,0,0,-1,643,1527,0,0
-574,-503,0,0,0,0,0,0,0,0,0,-1,650,1527,0,0
-567,-503,0,0,0,0,0,0,0,0,0,-1,657,1527,0,0
-560,-503,0,0,0,0,0,0,0,0,0,-1,664,1527,0,0
-553,-503,0,0,0,0,0,0,0,0,0,-1,671,1527,0,0
-546,-503,0,0,0,0,0,0,0,0,0,-1,678,1527,0,0
-539,-503,3.50177,4.26428,0,0,0,0,0,0,0,-1,685,1527,3.50177,-4.26424
-532,-503,-3.13196,1.05298,0,0,0,0,0,0,0,-1,692,1527,-3.13194,-1.05299
-525,-503,-2.94293,2.59314,0,0,0,0,0,0,0,-1,699,1527,-2.94296,-2.59314
-518,-503,-2.7395,4.05872,0,0,0,0,0,0,0,-1,706,1527,-2.73948,-4.05871
-511,-503,-1.60022,7.23877,0,0,0,0,0,0,0,-1,713,1527,-1.60023,-7.23872
-504,-503,-8.1402,10.1541,0,0,0,0,0,0,0,-1,720,1527,-8.14017,-10.1541
-497,-503,-4.37592,13.5675,0,0,0,0,0,0,0,-1,727,1527,-4.37592,-13.5675
-490,-503,-3.58038,13.2386,0,0,0,0,0,0,0,-1,734,1527,-3.58036,-13.2386
-483,-503,-3.62488,13.6932,-0.00303513,-0.002899,0.00104714,-0.00191772,-0.00401641,0.817854,0.00231966,0.0467858,741,1527,-3.62489,-13.6933
-476,-503,-3.76453,14.082,-0.00222507,-0.00245367,0.000710874,-0.00161937,-0.00305938,0.705687,0.00176734,0.0245126,748,1527,-3.76455,-14.0821
-469,-503,-3.83533,14.4889,-0.00122078,-0.00185,0.000697027,-0.000770653,-0.00230013,0.573405,0.00135186,0.0111391,755,1527,-3.83531,-14.4889
-462,-503,-3.85681,15.0143,-0.000129695,-0.00119416,0.000908995,0.000391421,-0.00171528,0.520547,0.00129388,0.0119272,762,1527,-3.85678,-15.0142
-455,-503,-3.87323,15.5083,0.000908146,-0.000538792,0.00120891,0.00159353,-0.00122418,0.51576,0.00163146,0.0175592,769,1527,-3.87325,-15.5083
-448,-503,-3.85602,15.9882,0.0016681,4.36544e-05,0.00138716,0.00246333,-0.000751581,0.520543,0.00194185,0.0164782,776,1527,-3.85604,-15.9882
-441,-503,-3.85089,16.4762,0.00261515,0.000879319,0.00201965,0.00394547,-0.000451011,0.582461,0.00279282,0.0133026,783,1527,-3.85088,-16.4762
-434,-503,-3.88617,16.9646,0.00363043,0.00181085,0.00279154,0.0056567,-0.000215418,0.627871,0.00384495,0.011058,790,1527,-3.88619,-16.9646
-427,-503,-3.92999,17.4298,0.00463672,0.00298268,0.00371307,0.00761376,5.63939e-06,0.675821,0.00507396,0.016344,797,1527,-3.92999,-17.4298
-420,-503,-3.93036,17.9055,0.00561617,0.00422744,0.00479053,0.0097624,8.12155e-05,0.713427,0.00648137,0.017627,804,1527,-3.93036,-17.9055
-413,-503,-3.94128,18.4115,0.00681096,0.00580756,0.0062405,0.0125699,4.86257e-05,0.745287,0.00836377,0.0156764,811,1527,-3.94127,-18.4115
-406,-503,-3.92249,18.8861,0.00835777,0.00790435,0.00824472,0.0163789,-0.000116772,0.771653,0.0109584,0.0232649,818,1527,-3.92252,-18.8861
-399,-503,-3.77759,19.5638,0.0109363,0.0108318,0.0102722,0.0211564,0.000611675,0.782854,0.0139049,0.0388594,825,1527,-3.77761,-19.5639
-392,-503,-3.47308,20.4154,0,0,0,0,0,0,0,-1,832,1527,-3.47308,-20.4154
-385,-503,-2.00403,14.1218,0,0,0,0,0,0,0,-1,839,1527,-2.00403,-14.1218
-378,-503,-2.07043,13.8632,0,0,0,0,0,0,0,-1,846,1527,-2.07043,-13.8631
-371,-503,-1.67285,13.8081,0,0,0,0,0,0,0,-1,853,1527,-1.67285,-13.8081
-364,-503,0.181396,12.3768,0,0,0,0,0,0,0,-1,860,1527,0.18138,-12.3768
-357,-503,0.558533,9.25452,0,0,0,0,0,0,0,-1,867,1527,0.558542,-9.25446
-350,-503,0.219971,6.84827,0,0,0,0,0,0,0,-1,874,1527,0.21996,-6.84831
-343,-503,-3.5802,4.43274,0,0,0,0,0,0,0,-1,881,1527,-3.58018,-4.43276
-336,-503,-3.2384,6.40637,0,0,0,0,0,0,0,-1,888,1527,-3.2384,-6.40643
-329,-503,-1.70691,11.886,0,0,0,0,0,0,0,-1,895,1527,-1.70689,-11.886
-322,-503,-3.31317,8.81519,0,0,0,0,0,0,0,-1,902,1527,-3.31315,-8.81524
-315,-503,-3.90265,7.73853,0,0,0,0,0,0,0,-1,909,1527,-3.90264,-7.73854
-308,-503,-1.70264,7.35413,0,0,0,0,0,0,0,-1,916,1527,-1.70262,-7.35416
-301,-503,0,0,0,0,0,0,0,0,0,-1,923,1527,0,0
-294,-503,0,0,0,0,0,0,0,0,0,-1,930,1527,0,0
-287,-503,0,0,0,0,0,0,0,0,0,-1,937,1527,0,0
-280,-503,0,0,0,0,0,0,0,0,0,-1,944,1527,0,0
-273,-503,0,0,0,0,0,0,0,0,0,-1,951,1527,0,0
-266,-503,0,0,0,0,0,0,0,0,0,-1,958,1527,0,0
-259,-503,0,0,0,0,0,0,0,0,0,-1,965,1527,0,0
-252,-503,0,0,0,0,0,0,0,0,0,-1,972,1527,0,0
-245,-503,0,0,0,0,0,0,0,0,0,-1,979,1527,0,0
-238,-503,0,0,0,0,0,0,0,0,0,-1,986,1527,0,0
-231,-503,0,0,0,0,0,0,0,0,0,-1,993,1527,0,0
-224,-503,0,0,0,0,0,0,0,0,0,-1,1000,1527,0,0
-217,-503,0,0,0,0,0,0,0,0,0,-1,1007,1527,0,0
-210,-503,0,0,0,0,0,0,0,0,0,-1,1014,1527,0,0
-203,-503,0,0,0,0,0,0,0,0,0,-1,1021,1527,0,0
-196,-503,0,0,0,0,0,0,0,0,0,-1,1028,1527,0,0
-189,-503,0,0,0,0,0,0,0,0,0,-1,1035,1527,0,0
-182,-503,0,0,0,0,0,0,0,0,0,-1,1042,1527,0,0
-175,-503,0,0,0,0,0,0,0,0,0,-1,1049,1527,0,0
-168,-503,0,0,0,0,0,0,0,0,0,-1,1056,1527,0,0
-161,-503,0,0,0,0,0,0,0,0,0,-1,1063,1527,0,0
-154,-503,0,0,0,0,0,0,0,0,0,-1,1070,1527,0,0
-147,-503,0,0,0,0,0,0,0,0,0,-1,1077,1527,0,0
-140,-503,0,0,0,0,0,0,0,0,0,-1,1084,1527,0,0
-133,-503,0,0,0,0,0,0,0,0,0,-1,1091,1527,0,0
-126,-503,0,0,0,0,0,0,0,0,0,-1,1098,1527,0,0
-119,-503,0,0,0,0,0,0,0,0,0,-1,1105,1527,0,0
-112,-503,0,0,0,0,0,0,0,0,0,-1,1112,1527,0,0
-105,-503,0,0,0,0,0,0,0,0,0,-1,1119,1527,0,0
-98,-503,0,0,0,0,0,0,0,0,0,-1,1126,1527,0,0
-91,-503,0,0,0,0,0,0,0,0,0,-1,1133,1527,0,0
-84,-503,0,0,0,0,0,0,0,0,0,-1,1140,1527,0,0
-77,-503,0,0,0,0,0,0,0,0,0,-1,1147,1527,0,0
-70,-503,0,0,0,0,0,0,0,0,0,-1,1154,1527,0,0
-63,-503,0,0,0,0,0,0,0,0,0,-1,1161,1527,0,0
-56,-503,0,0,0,0,0,0,0,0,0,-1,1168,1527,0,0
-49,-503,0,0,0,0,0,0,0,0,0,-1,1175,1527,0,0
-42,-503,0,0,0,0,0,0,0,0,0,-1,1182,1527,0,0
-35,-503,0,0,0,0,0,0,0,0,0,-1,1189,1527,0,0
-28,-503,0,0,0,0,0,0,0,0,0,-1,1196,1527,0,0
-21,-503,0,0,0,0,0,0,0,0,0,-1,1203,1527,0,0
-14,-503,0,0,0,0,0,0,0,0,0,-1,1210,1527,0,0
-7,-503,0,0,0,0,0,0,0,0,0,-1,1217,1527,0,0
0,-503,0,0,0,0,0,0,0,0,0,-1,1224,1527,0,0
7,-503,0,0,0,0,0,0,0,0,0,-1,1231,1527,0,0
14,-503,0,0,0,0,0,0,0,0,0,-1,1238,1527,0,0
21,-503,0,0,0,0,0,0,0,0,0,-1,1245,1527,0,0
28,-503,0,0,0,0,0,0,0,0,0,-1,1252,1527,0,0
35,-503,0,0,0,0,0,0,0,0,0,-1,1259,1527,0,0
42,-503,0,0,0,0,0,0,0,0,0,-1,1266,1527,0,0
49,-503,0,0,0,0,0,0,0,0,0,-1,1273,1527,0,0
56,-503,0,0,0,0,0,0,0,0,0,-1,1280,1527,0,0
63,-503,0,0,0,0,0,0,0,0,0,-1,1287,1527,0,0
70,-503,0,0,0,0,0,0,0,0,0,-1,1294,1527,0,0
77,-503,0,0,0,0,0,0,0,0,0,-1,1301,1527,0,0
84,-503,0,0,0,0,0,0,0,0,0,-1,1308,1527,0,0
91,-503,0,0,0,0,0,0,0,0,0,-1,1315,1527,0,0
98,-503,0,0,0,0,0,0,0,0,0,-1,1322,1527,0,0
105,-503,0,0,0,0,0,0,0,0,0,-1,1329,1527,0,0
112,-503,0,0,0,0,0,0,0,0,0,-1,1336,1527,0,0
119,-503,0,0,0,0,0,0,0,0,0,-1,1343,1527,0,0
126,-503,0,0,0,0,0,0,0,0,0,-1,1350,1527,0,0
133,-503,0,0,0,0,0,0,0,0,0,-1,1357,1527,0,0
140,-503,0,0,0,0,0,0,0,0,0,-1,1364,1527,0,0
147,-503,0,0,0,0,0,0,0,0,0,-1,1371,1527,0,0
154,-503,0,0,0,0,0,0,0,0,0,-1,1378,1527,0,0
161,-503,0,0,0,0,0,0,0,0,0,-1,1385,1527,0,0
168,-503,0,0,0,0,0,0,0,0,0,-1,1392,1527,0,0
175,-503,0,0,0,0,0,0,0,0,0,-1,1399,1527,0,0
182,-503,0,0,0,0,0,0,0,0,0,-1,1406,1527,0,0
189,-503,0,0,0,0,0,0,0,0,0,-1,1413,1527,0,0
196,-503,0,0,0,0,0,0,0,0,0,-1,1420,1527,0,0
203,-503,0,0,0,0,0,0,0,0,0,-1,1427,1527,0,0
210,-503,0,0,0,0,0,0,0,0,0,-1,1434,1527,0,0
217,-503,0,0,0,0,0,0,0,0,0,-1,1441,1527,0,0
224,-503,0,0,0,0,0,0,0,0,0,-1,1448,1527,0,0
231,-503,0,0,0,0,0,0,0,0,0,-1,1455,1527,0,0
238,-503,0,0,0,0,0,0,0,0,0,-1,1462,1527,0,0
245,-503,0,0,0,0,0,0,0,0,0,-1,1469,1527,0,0
252,-503,0,0,0,0,0,0,0,0,0,-1,1476,1527,0,0
259,-503,0,0,0,0,0,0,0,0,0,-1,1483,1527,0,0
266,-503,0,0,0,0,0,0,0,0,0,-1,1490,1527,0,0
273,-503,0,0,0,0,0,0,0,0,0,-1,1497,1527,0,0
280,-503,0,0,0,0,0,0,0,0,0,-1,1504,1527,0,0
287,-503,0,0,0,0,0,0,0,0,0,-1,1511,1527,0,0
294,-503,0,0,0,0,0,0,0,0,0,-1,1518,1527,0,0
301,-503,0,0,0,0,0,0,0,0,0,-1,1525,1527,0,0
308,-503,0,0,0,0,0,0,0,0,0,-1,1532,1527,0,0
315,-503,0,0,0,0,0,0,0,0,0,-1,1539,1527,0,0
322,-503,0,0,0,0,0,0,0,0,0,-1,1546,1527,0,0
329,-503,0,0,0,0,0,0,0,0,0,-1,1553,1527,0,0
336,-503,0,0,0,0,0,0,0,0,0,-1,1560,1527,0,0
343,-503,0,0,0,0,0,0,0,0,0,-1,1567,1527,0,0
350,-503,0,0,0,0,0,0,0,0,0,-1,1574,1527,0,0
357,-503,0,0,0,0,0,0,0,0,0,-1,1581,1527,0,0
364,-503,0,0,0,0,0,0,0,0,0,-1,1588,1527,0,0
371,-503,0,0,0,0,0,0,0,0,0,-1,1595,1527,0,0
378,-503,0,0,0,0,0,0,0,0,0,-1,1602,1527,0,0
385,-503,0,0,0,0,0,0,0,0,0,-1,1609,1527,0,0
392,-503,0,0,0,0,0,0,0,0,0,-1,1616,1527,0,0
399,-503,0,0,0,0,0,0,0,0,0,-1,1623,1527,0,0
406,-503,0,0,0,0,0,0,0,0,0,-1,1630,1527,0,0
413,-503,0,0,0,0,0,0,0,0,0,-1,1637,1527,0,0
420,-503,0,0,0,0,0,0,0,0,0,-1,1644,1527,0,0
427,-503,10.5968,4.9856,0,0,0,0,0,0,0,-1,1651,1527,10.5969,-4.98563
434,-503,11.4329,3.97217,0,0,0,0,0,0,0,-1,1658,1527,11.4328,-3.97222
441,-503,12.0957,2.96509,0,0,0,0,0,0,0,-1,1665,1527,12.0957,-2.96512
448,-503,12.3259,2.53894,0,0,0,0,0,0,0,-1,1672,1527,12.326,-2.53895
455,-503,12.1669,2.18762,0,0,0,0,0,0,0,-1,1679,1527,12.1668,-2.18767
462,-503,11.59,2.60791,0,0,0,0,0,0,0,-1,1686,1527,11.5899,-2.60794
469,-503,11.1625,1.61853,0,0,0,0,0,0,0,-1,1693,1527,11.1625,-1.61856
476,-503,9.07703,5.81042,0,0,0,0,0,0,0,-1,1700,1527,9.07699,-5.81047
483,-503,9.74414,6.92432,0,0,0,0,0,0,0,-1,1707,1527,9.74417,-6.9243
490,-503,10.5033,10.1071,0,0,0,0,0,0,0,-1,1714,1527,10.5032,-10.107
497,-503,15.0057,17.9476,0,0,0,0,0,0,0,-1,1721,1527,15.0058,-17.9476
504,-503,16.4764,18.4486,0,0,0,0,0,0,0,-1,1728,1527,16.4764,-18.4486
511,-503,16.8276,18.3271,0,0,0,0,0,0,0,-1,1735,1527,16.8276,-18.3272
518,-503,17.2533,18.2738,0,0,0,0,0,0,0,-1,1742,1527,17.2533,-18.2738
525,-503,18.8804,21.1534,0,0,0,0,0,0,0,-1,1749,1527,18.8803,-21.1534
532,-503,18.6173,20.6219,0,0,0,0,0,0,0,-1,1756,1527,18.6173,-20.622
539,-503,18.6113,20.1738,0.00461406,0.00422438,-0.00325734,0.00768238,0.00115606,-0.755526,0.00478303,0.0186207,1763,1527,18.6114,-20.1738
546,-503,18.6265,19.6672,0.00378519,0.00316847,-0.00237631,0.00587306,0.0010806,-0.720876,0.0036095,0.0128407,1770,1527,18.6265,-19.6672
553,-503,18.6545,19.2136,0.0032199,0.00239703,-0.00176559,0.00462137,0.000995569,-0.670926,0.0028085,0.0146255,1777,1527,18.6546,-19.2136
560,-503,18.632,18.7627,0.00285155,0.00179805,-0.00135667,0.00378014,0.000869455,-0.600222,0.00228607,0.0145465,1784,1527,18.6319,-18.7627
567,-503,18.6372,18.2977,0.00300041,0.00127461,-0.00126493,0.00366874,0.000606283,-0.486068,0.00227087,0.0128585,1791,1527,18.6372,-18.2977
574,-503,18.6516,17.8533,0.00339826,0.000858714,-0.00134627,0.0039791,0.000277872,-0.407316,0.00256513,0.0124295,1798,1527,18.6516,-17.8533
581,-503,18.6121,17.4445,0.00410198,0.00038852,-0.00155443,0.00466675,-0.000176257,-0.348504,0.00317155,0.0130392,1805,1527,18.6121,-17.4445
588,-503,18.5879,17.0255,0.00524034,-5.42003e-05,-0.00196446,0.0058896,-0.000703465,-0.319203,0.00418067,0.0159117,1812,1527,18.5879,-17.0255
595,-503,18.5829,16.548,0.0068663,-0.000598137,-0.00247668,0.0076133,-0.00134514,-0.292937,0.00557824,0.0128743,1819,1527,18.5829,-16.548
602,-503,18.6274,16.0449,0.00895342,-0.00124544,-0.003138,0.00984158,-0.0021336,-0.27582,0.00737584,0.0251726,1826,1527,18.6274,-16.045
609,-503,18.6194,15.5609,0,0,0,0,0,0,0,-1,1833,1527,18.6194,-15.5609
616,-503,18.4801,15.4276,0.0152499,-0.00354919,-0.00464292,0.0163341,-0.00463336,-0.229399,0.0127183,0.0467138,1840,1527,18.4801,-15.4277
623,-503,19.2397,14.4091,0,0,0,0,0,0,0,-1,1847,1527,19.2397,-14.4091
630,-503,20.2456,13.437,0,0,0,0,0,0,0,-1,1854,1527,20.2456,-13.437
637,-503,14.5564,9.20496,0,0,0,0,0,0,0,-1,1861,1527,14.5564,-9.2049
644,-503,11.4802,7.57214,0,0,0,0,0,0,0,-1,1868,1527,11.4802,-7.57215
651,-503,11.5718,6.5448,0,0,0,0,0,0,0,-1,1875,1527,11.5718,-6.54476
658,-503,8.25635,3.10498,0,0,0,0,0,0,0,-1,1882,1527,8.2563,-3.10493
665,-503,0,0,0,0,0,0,0,0,0,-1,1889,1527,0,0
672,-503,0,0,0,0,0,0,0,0,0,-1,1896,1527,0,0
679,-503,0,0,0,0,0,0,0,0,0,-1,1903,1527,0,0
686,-503,0,0,0,0,0,0,0,0,0,-1,1910,1527,0,0
693,-503,0,0,0,0,0,0,0,0,0,-1,1917,1527,0,0
700,-503,0,0,0,0,0,0,0,0,0,-1,1924,1527,0,0
707,-503,0,0,0,0,0,0,0,0,0,-1,1931,1527,0,0
714,-503,0,0,0,0,0,0,0,0,0,-1,1938,1527,0,0
721,-503,0,0,0,0,0,0,0,0,0,-1,1945,1527,0,0
728,-503,0,0,0,0,0,0,0,0,0,-1,1952,1527,0,0
735,-503,0,0,0,0,0,0,0,0,0,-1,1959,1527,0,0
742,-503,0,0,0,0,0,0,0,0,0,-1,1966,1527,0,0
749,-503,0,0,0,0,0,0,0,0,0,-1,1973,1527,0,0
756,-503,0,0,0,0,0,0,0,0,0,-1,1980,1527,0,0
763,-503,0,0,0,0,0,0,0,0,0,-1,1987,1527,0,0
770,-503,0,0,0,0,0,0,0,0,0,-1,1994,1527,0,0
777,-503,0,0,0,0,0,0,0,0,0,-1,2001,1527,0,0
784,-503,0,0,0,0,0,0,0,0,0,-1,2008,1527,0,0
791,-503,0,0,0,0,0,0,0,0,0,-1,2015,1527,0,0
798,-503,0,0,0,0,0,0,0,0,0,-1,2022,1527,0,0
805,-503,0,0,0,0,0,0,0,0,0,-1,2029,1527,0,0
812,-503,0,0,0,0,0,0,0,0,0,-1,2036,1527,0,0
-700,-510,0,0,0,0,0,0,0,0,0,-1,524,1534,0,0
-693,-510,0,0,0,0,0,0,0,0,0,-1,531,1534,0,0
-686,-510,0,0,0,0,0,0,0,0,0,-1,538,1534,0,0
-679,-510,0,0,0,0,0,0,0,0,0,-1,545,1534,0,0
-672,-510,0,0,0,0,0,0,0,0,0,-1,552,1534,0,0
-665,-510,0,0,0,0,0,0,0,0,0,-1,559,1534,0,0
-658,-510,0,0,0,0,0,0,0,0,0,-1,566,1534,0,0
-651,-510,0,0,0,0,0,0,0,0,0,-1,573,1534,0,0
-644,-510,0,0,0,0,0,0,0,0,0,-1,580,1534,0,0
-637,-510,0,0,0,0,0,0,0,0,0,-1,587,1534,0,0
-630,-510,0,0,0,0,0,0,0,0,0,-1,594,1534,0,0
-623,-510,0,0,0,0,0,0,0,0,0,-1,601,1534,0,0
-616,-510,0,0,0,0,0,0,0,0,0,-1,608,1534,0,0
-609,-510,0,0,0,0,0,0,0,0,0,-1,615,1534,0,0
-602,-510,0,0,0,0,0,0,0,0,0,-1,622,1534,0,0
-595,-510,0,0,0,0,0,0,0,0,0,-1,629,1534,0,0
-588,-510,0,0,0,0,0,0,0,0,0,-1,636,1534,0,0
-581,-510,0,0,0,0,0,0,0,0,0,-1,643,1534,0,0
-574,-510,0,0,0,0,0,0,0,0,0,-1,650,1534,0,0
-567,-510,0,0,0,0,0,0,0,0,0,-1,657,1534,0,0
-560,-510,0,0,0,0,0,0,0,0,0,-1,664,1534,0,0
-553,-510,0,0,0,0,0,0,0,0,0,-1,671,1534,0,0
-546,-510,0,0,0,0,0,0,0,0,0,-1,678,1534,0,0
-539,-510,0,0,0,0,0,0,0,0,0,-1,685,1534,0,0
-532,-510,-3.95129,4.52014,0,0,0,0,0,0,0,-1,692,1534,-3.95131,-4.5202
-525,-510,-2.77411,0.316772,0,0,0,0,0,0,0,-1,699,1534,-2.77409,-0.3168
-518,-510,-2.86847,2.71423,0,0,0,0,0,0,0,-1,706,1534,-2.86849,-2.71424
-511,-510,-2.28571,4.48083,0,0,0,0,0,0,0,-1,713,1534,-2.28571,-4.48086
-504,-510,-4.86731,10.8224,0,0,0,0,0,0,0,-1,720,1534,-4.8673,-10.8224
-497,-510,-2.50952,13.2266,0,0,0,0,0,0,0,-1,727,1534,-2.50951,-13.2266
-490,-510,-2.64508,13.4946,0,0,0,0,0,0,0,-1,734,1534,-2.64508,-13.4947
-483,-510,-2.79205,13.8074,-0.00321323,-0.00291737,0.00194798,-0.00111171,-0.00501888,0.823296,0.00304379,0.0434502,741,1534,-2.79206,-13.8074
-476,-510,-3.15002,14.0887,-0.00209552,-0.00235779,0.00149736,-0.000723566,-0.00372975,0.741721,0.00228384,0.0370493,748,1534,-3.15002,-14.0887
-469,-510,-3.32654,14.526,-0.000998526,-0.00170647,0.00130867,3.20363e-06,-0.0027082,0.653318,0.00180653,0.0149379,755,1534,-3.32651,-14.526
-462,-510,-3.3551,15.0034,3.25668e-05,-0.00104898,0.00133615,0.00093323,-0.00194965,0.593112,0.00169856,0.0119414,762,1534,-3.35512,-15.0034
-455,-510,-3.39832,15.5201,0.000892481,-0.000440716,0.00141114,0.00178654,-0.00133478,0.564742,0.00180838,0.0140594,769,1534,-3.39831,-15.5202
-448,-510,-3.37311,16.0123,0.00139601,3.80665e-05,0.00135092,0.00222898,-0.000794911,0.552536,0.00181011,0.0127327,776,1534,-3.37312,-16.0123
-441,-510,-3.37555,16.4686,0.00203695,0.000724811,0.00171438,0.00321651,-0.000454749,0.602652,0.00231089,0.0135775,783,1534,-3.37553,-16.4686
-434,-510,-3.44653,16.9319,0.00275638,0.00148792,0.00223104,0.00444158,-0.000197286,0.646913,0.00302896,0.0145418,790,1534,-3.44654,-16.9319
-427,-510,-3.48212,17.4019,0.00359144,0.00247642,0.0029675,0.00605334,1.45144e-05,0.692544,0.00403073,0.0210999,797,1534,-3.48213,-17.4019
-420,-510,-3.46918,17.9114,0.00437161,0.00349982,0.0037425,0.00770352,0.000167918,0.727423,0.00508063,0.02061,804,1534,-3.46919,-17.9113
-413,-510,-3.46851,18.4153,0.00532786,0.00478262,0.00485067,0.00991356,0.000196912,0.757326,0.00654439,0.011751,811,1534,-3.46848,-18.4152
-406,-510,-3.47235,18.882,0.00655932,0.0065279,0.00642111,0.0129647,0.000122481,0.784175,0.00860262,0.0110312,818,1534,-3.47235,-18.882
-399,-510,-3.4707,19.3523,0.00861933,0.00900433,0.00795862,0.0167728,0.000850881,0.797489,0.0109093,0.0139962,825,1534,-3.4707,-19.3523
-392,-510,-3.30206,20.0382,0.0113146,0.0124537,0.00962193,0.0215229,0.00224536,0.814961,0.0136618,0.0409927,832,1534,-3.30209,-20.0382
-385,-510,-2.99915,20.7772,0,0,0,0,0,0,0,-1,839,1534,-2.99916,-20.7772
-378,-510,-1.78308,13.8044,0,0,0,0,0,0,0,-1,846,1534,-1.78309,-13.8044
-371,-510,-1.74982,13.8027,0,0,0,0,0,0,0,-1,853,1534,-1.74981,-13.8028
-364,-510,-1.3479,13.7771,0,0,0,0,0,0,0,-1,860,1534,-1.34791,-13.7771
-357,-510,-0.254395,8.89575,0,0,0,0,0,0,0,-1,867,1534,-0.254397,-8.89569
-350,-510,0.471191,6.06458,0,0,0,0,0,0,0,-1,874,1534,0.47118,-6.06453
-343,-510,-2.94617,5.00989,0,0,0,0,0,0,0,-1,881,1534,-2.94615,-5.00992
-336,-510,-1.85938,19.839,0,0,0,0,0,0,0,-1,888,1534,-1.85937,-19.839
-329,-510,-4.87781,20.6893,0,0,0,0,0,0,0,-1,895,1534,-4.87782,-20.6894
-322,-510,-0.251526,11.973,0,0,0,0,0,0,0,-1,902,1534,-0.251497,-11.9731
-315,-510,-1.73047,10.9796,0,0,0,0,0,0,0,-1,909,1534,-1.73049,-10.9796
-308,-510,-2.05328,9.72034,0,0,0,0,0,0,0,-1,916,1534,-2.05327,-9.72036
-301,-510,-1.85437,11.5869,0,0,0,0,0,0,0,-1,923,1534,-1.85437,-11.5869
-294,-510,0,0,0,0,0,0,0,0,0,-1,930,1534,0,0
-287,-510,0,0,0,0,0,0,0,0,0,-1,937,1534,0,0
-280,-510,0,0,0,0,0,0,0,0,0,-1,944,1534,0,0
-273,-510,0,0,0,0,0,0,0,0,0,-1,951,1534,0,0
-266,-510,0,0,0,0,0,0,0,0,0,-1,958,1534,0,0
-259,-510,0,0,0,0,0,0,0,0,0,-1,965,1534,0,0
-252,-510,0,0,0,0,0,0,0,0,0,-1,972,1534,0,0
-245,-510,0,0,0,0,0,0,0,0,0,-1,979,1534,0,0
-238,-510,0,0,0,0,0,0,0,0,0,-1,986,1534,0,0
-231,-510,0,0,0,0,0,0,0,0,0,-1,993,1534,0,0
-224,-510,0,0,0,0,0,0,0,0,0,-1,1000,1534,0,0
-217,-510,0,0,0,0,0,0,0,0,0,-1,1007,1534,0,0
-210,-510,0,0,0,0,0,0,0,0,0,-1,1014,1534,0,0
-203,-510,0,0,0,0,0,0,0,0,0,-1,1021,1534,0,0
-196,-510,0,0,0,0,0,0,0,0,0,-1,1028,1534,0,0
-189,-510,0,0,0,0,0,0,0,0,0,-1,1035,1534,0,0
-182,-510,0,0,0,0,0,0,0,0,0,-1,1042,1534,0,0
-175,-510,0,0,0,0,0,0,0,0,0,-1,1049,1534,0,0
-168,-510,0,0,0,0,0,0,0,0,0,-1,1056,1534,0,0
-161,-510,0,0,0,0,0,0,0,0,0,-1,1063,1534,0,0
-154,-510,0,0,0,0,0,0,0,0,0,-1,1070,1534,0,0
-147,-510,0,0,0,0,0,0,0,0,0,-1,1077,1534,0,0
-140,-510,0,0,0,0,0,0,0,0,0,-1,1084,1534,0,0
-133,-510,0,0,0,0,0,0,0,0,0,-1,1091,1534,0,0
-126,-510,0,0,0,0,0,0,0,0,0,-1,1098,1534,0,0
-119,-510,0,0,0,0,0,0,0,0,0,-1,1105,1534,0,0
-112,-510,0,0,0,0,0,0,0,0,0,-1,1112,1534,0,0
-105,-510,0,0,0,0,0,0,0,0,0,-1,1119,1534,0,0
-98,-510,0,0,0,0,0,0,0,0,0,-1,1126,1534,0,0
-91,-510,0,0,0,0,0,0,0,0,0,-1,1133,1534,0,0
-84,-510,0,0,0,0,0,0,0,0,0,-1,1140,1534,0,0
-77,-510,0,0,0,0,0,0,0,0,0,-1,1147,1534,0,0
-70,-510,0,0,0,0,0,0,0,0,0,-1,1154,1534,0,0
-63,-510,0,0,0,0,0,0,0,0,0,-1,1161,1534,0,0
-56,-510,0,0,0,0,0,0,0,0,0,-1,1168,1534,0,0
-49,-510,0,0,0,0,0,0,0,0,0,-1,1175,1534,0,0
-42,-510,0,0,0,0,0,0,0,0,0,-1,1182,1534,0,0
-35,-510,0,0,0,0,0,0,0,0,0,-1,1189,1534,0,0
-28,-510,0,0,0,0,0,0,0,0,0,-1,1196,1534,0,0
-21,-510,0,0,0,0,0,0,0,0,0,-1,1203,1534,0,0
-14,-510,0,0,0,0,0,0,0,0,0,-1,1210,1534,0,0
-7,-510,0,0,0,0,0,0,0,0,0,-1,1217,1534,0,0
0,-510,0,0,0,0,0,0,0,0,0,-1,1224,1534,0,0
7,-510,0,0,0,0,0,0,0,0,0,-1,1231,1534,0,0
14,-510,0,0,0,0,0,0,0,0,0,-1,1238,1534,0,0
21,-510,0,0,0,0,0,0,0,0,0,-1,1245,1534,0,0
28,-510,0,0,0,0,0,0,0,0,0,-1,1252,1534,0,0
35,-510,0,0,0,0,0,0,0,0,0,-1,1259,1534,0,0
42,-510,0,0,0,0,0,0,0,0,0,-1,1266,1534,0,0
49,-510,0,0,0,0,0,0,0,0,0,-1,1273,1534,0,0
56,-510,0,0,0,0,0,0,0,0,0,-1,1280,1534,0,0
63,-510,0,0,0,0,0,0,0,0,0,-1,1287,1534,0,0
70,-510,0,0,0,0,0,0,0,0,0,-1,1294,1534,0,0
77,-510,0,0,0,0,0,0,0,0,0,-1,1301,1534,0,0
84,-510,0,0,0,0,0,0,0,0,0,-1,1308,1534,0,0
91,-510,0,0,0,0,0,0,0,0,0,-1,1315,1534,0,0
98,-510,0,0,0,0,0,0,0,0,0,-1,1322,1534,0,0
105,-510,0,0,0,0,0,0,0,0,0,-1,1329,1534,0,0
112,-510,0,0,0,0,0,0,0,0,0,-1,1336,1534,0,0
119,-510,0,0,0,0,0,0,0,0,0,-1,1343,1534,0,0
126,-510,0,0,0,0,0,0,0,0,0,-1,1350,1534,0,0
133,-510,0,0,0,0,0,0,0,0,0,-1,1357,1534,0,0
140,-510,0,0,0,0,0,0,0,0,0,-1,1364,1534,0,0
147,-510,0,0,0,0,0,0,0,0,0,-1,1371,1534,0,0
154,-510,0,0,0,0,0,0,0,0,0,-1,1378,1534,0,0
161,-510,0,0,0,0,0,0,0,0,0,-1,1385,1534,0,0
168,-510,0,0,0,0,0,0,0,0,0,-1,1392,1534,0,0
175,-510,0,0,0,0,0,0,0,0,0,-1,1399,1534,0,0
182,-510,0,0,0,0,0,0,0,0,0,-1,1406,1534,0,0
189,-510,0,0,0,0,0,0,0,0,0,-1,1413,1534,0,0
196,-510,0,0,0,0,0,0,0,0,0,-1,1420,1534,0,0
203,-510,0,0,0,0,0,0,0,0,0,-1,1427,1534,0,0
210,-510,0,0,0,0,0,0,0,0,0,-1,1434,1534,0,0
217,-510,0,0,0,0,0,0,0,0,0,-1,1441,1534,0,0
224,-510,0,0,0,0,0,0,0,0,0,-1,1448,1534,0,0
231,-510,0,0,0,0,0,0,0,0,0,-1,1455,1534,0,0
238,-510,0,0,0,0,0,0,0,0,0,-1,1462,1534,0,0
245,-510,0,0,0,0,0,0,0,0,0,-1,1469,1534,0,0
252,-510,0,0,0,0,0,0,0,0,0,-1,1476,1534,0,0
259,-510,0,0,0,0,0,0,0,0,0,-1,1483,1534,0,0
266,-510,0,0,0,0,0,0,0,0,0,-1,1490,1534,0,0
273,-510,0,0,0,0,0,0,0,0,0,-1,1497,1534,0,0
280,-510,0,0,0,0,0,0,0,0,0,-1,1504,1534,0,0
287,-510,0,0,0,0,0,0,0,0,0,-1,1511,1534,0,0
294,-510,0,0,0,0,0,0,0,0,0,-1,1518,1534,0,0
301,-510,0,0,0,0,0,0,0,0,0,-1,1525,1534,0,0
308,-510,0,0,0,0,0,0,0,0,0,-1,1532,1534,0,0
315,-510,0,0,0,0,0,0,0,0,0,-1,1539,1534,0,0
322,-510,0,0,0,0,0,0,0,0,0,-1,1546,1534,0,0
329,-510,0,0,0,0,0,0,0,0,0,-1,1553,1534,0,0
336,-510,0,0,0,0,0,0,0,0,0,-1,1560,1534,0,0
343,-510,0,0,0,0,0,0,0,0,0,-1,1567,1534,0,0
350,-510,0,0,0,0,0,0,0,0,0,-1,1574,1534,0,0
357,-510,0,0,0,0,0,0,0,0,0,-1,1581,1534,0,0
364,-510,0,0,0,0,0,0,0,0,0,-1,1588,1534,0,0
371,-510,0,0,0,0,0,0,0,0,0,-1,1595,1534,0,0
378,-510,0,0,0,0,0,0,0,0,0,-1,1602,1534,0,0
385,-510,0,0,0,0,0,0,0,0,0,-1,1609,1534,0,0
392,-510,0,0,0,0,0,0,0,0,0,-1,1616,1534,0,0
399,-510,0,0,0,0,0,0,0,0,0,-1,1623,1534,0,0
406,-510,0,0,0,0,0,0,0,0,0,-1,1630,1534,0,0
413,-510,0,0,0,0,0,0,0,0,0,-1,1637,1534,0,0
420,-510,14.1888,6.71936,0,0,0,0,0,0,0,-1,1644,1534,14.1889,-6.71939
427,-510,10.2134,5.59485,0,0,0,0,0,0,0,-1,1651,1534,10.2134,-5.59485
434,-510,11.8219,4.07898,0,0,0,0,0,0,0,-1,1658,1534,11.8219,-4.07895
441,-510,12.6812,3.02991,0,0,0,0,0,0,0,-1,1665,1534,12.6811,-3.0299
448,-510,13.2379,2.2804,0,0,0,0,0,0,0,-1,1672,1534,13.2379,-2.28037
455,-510,9.76892,2.20642,0,0,0,0,0,0,0,-1,1679,1534,9.76894,-2.20647
462,-510,9.84692,2.49182,0,0,0,0,0,0,0,-1,1686,1534,9.84695,-2.49185
469,-510,16.6072,7.26941,0,0,0,0,0,0,0,-1,1693,1534,16.6072,-7.26945
476,-510,15.9199,7.8645,0,0,0,0,0,0,0,-1,1700,1534,15.9199,-7.86455
483,-510,13.0833,8.10938,0,0,0,0,0,0,0,-1,1707,1534,13.0833,-8.10932
490,-510,13.0841,15.3286,0,0,0,0,0,0,0,-1,1714,1534,13.0841,-15.3286
497,-510,15.5652,18.823,0,0,0,0,0,0,0,-1,1721,1534,15.5652,-18.823
504,-510,15.998,18.7478,0,0,0,0,0,0,0,-1,1728,1534,15.998,-18.7478
511,-510,15.9443,18.0476,0,0,0,0,0,0,0,-1,1735,1534,15.9443,-18.0476
518,-510,17.7974,21.2776,0,0,0,0,0,0,0,-1,1742,1534,17.7973,-21.2776
525,-510,17.8395,21.2257,0,0,0,0,0,0,0,-1,1749,1534,17.8395,-21.2257
532,-510,18.1718,20.6147,0.00482336,0.0049205,-0.00372835,0.0086006,0.00114326,-0.791911,0.00539319,0.0215854,1756,1534,18.1717,-20.6147
539,-510,18.2177,20.0957,0.00389895,0.00370547,-0.00277374,0.00657763,0.00102678,-0.767967,0.00408606,0.0138651,1763,1534,18.2176,-20.0957
546,-510,18.1752,19.6952,0.00327181,0.00272391,-0.002049,0.00506509,0.000930629,-0.718943,0.00311324,0.013372,1770,1534,18.1751,-19.6951
553,-510,18.1919,19.2418,0.00286225,0.00198276,-0.00152494,0.00400958,0.000835427,-0.645021,0.00244267,0.0135666,1777,1534,18.1919,-19.2418
560,-510,18.1693,18.7748,0.00265172,0.00141474,-0.00118584,0.00337067,0.000695789,-0.545023,0.00205484,0.0140305,1784,1534,18.1693,-18.7748
567,-510,18.157,18.3105,0.00312887,0.000851491,-0.00119206,0.0036387,0.000341663,-0.404145,0.00232031,0.013574,1791,1534,18.157,-18.3106
574,-510,18.157,17.8804,0.00374645,0.000480646,-0.00136187,0.00423983,-1.27302e-05,-0.347571,0.0028308,0.0139798,1798,1534,18.157,-17.8803
581,-510,18.1444,17.4813,0.00475859,7.68762e-05,-0.00170949,0.00531635,-0.000480883,-0.315382,0.00371492,0.0122008,1805,1534,18.1445,-17.4813
588,-510,18.1431,17.0438,0.00628457,-0.000278815,-0.00230153,0.00701118,-0.00100543,-0.305807,0.00504279,0.0128868,1812,1534,18.143,-17.0439
595,-510,18.2607,16.4398,0.00838924,-0.000730941,-0.00304088,0.00931015,-0.00165185,-0.294063,0.00682435,0.0249964,1819,1534,18.2607,-16.4398
602,-510,18.3007,15.873,0,0,0,0,0,0,0,-1,1826,1534,18.3007,-15.8731
609,-510,17.2866,14.8556,0,0,0,0,0,0,0,-1,1833,1534,17.2866,-14.8556
616,-510,18.0215,15.6389,0,0,0,0,0,0,0,-1,1840,1534,18.0215,-15.6389
623,-510,19.167,14.1006,0,0,0,0,0,0,0,-1,1847,1534,19.167,-14.1005
630,-510,13.7461,9.30334,0,0,0,0,0,0,0,-1,1854,1534,13.7461,-9.30335
637,-510,11.0155,7.38464,0,0,0,0,0,0,0,-1,1861,1534,11.0155,-7.38463
644,-510,11.5809,7.17126,0,0,0,0,0,0,0,-1,1868,1534,11.5809,-7.17123
651,-510,8.70471,3.5061,0,0,0,0,0,0,0,-1,1875,1534,8.70475,-3.50611
658,-510,0,0,0,0,0,0,0,0,0,-1,1882,1534,0,0
665,-510,0,0,0,0,0,0,0,0,0,-1,1889,1534,0,0
672,-510,0,0,0,0,0,0,0,0,0,-1,1896,1534,0,0
679,-510,0,0,0,0,0,0,0,0,0,-1,1903,1534,0,0
686,-510,0,0,0,0,0,0,0,0,0,-1,1910,1534,0,0
693,-510,0,0,0,0,0,0,0,0,0,-1,1917,1534,0,0
700,-510,0,0,0,0,0,0,0,0,0,-1,1924,1534,0,0
707,-510,0,0,0,0,0,0,0,0,0,-1,1931,1534,0,0
714,-510,0,0,0,0,0,0,0,0,0,-1,1938,1534,0,0
721,-510,0,0,0,0,0,0,0,0,0,-1,1945,1534,0,0
728,-510,0,0,0,0,0,0,0,0,0,-1,1952,1534,0,0
735,-510,0,0,0,0,0,0,0,0,0,-1,1959,1534,0,0
742,-510,0,0,0,0,0,0,0,0,0,-1,1966,1534,0,0
749,-510,0,0,0,0,0,0,0,0,0,-1,1973,1534,0,0
756,-510,0,0,0,0,0,0,0,0,0,-1,1980,1534,0,0
763,-510,0,0,0,0,0,0,0,0,0,-1,1987,1534,0,0
770,-510,0,0,0,0,0,0,0,0,0,-1,1994,1534,0,0
777,-510,0,0,0,0,0,0,0,0,0,-1,2001,1534,0,0
784,-510,0,0,0,0,0,0,0,0,0,-1,2008,1534,0,0
791,-510,0,0,0,0,0,0,0,0,0,-1,2015,1534,0,0
798,-510,0,0,0,0,0,0,0,0,0,-1,2022,1534,0,0
805,-510,0,0,0,0,0,0,0,0,0,-1,2029,1534,0,0
812,-510,0,0,0,0,0,0,0,0,0,-1,2036,1534,0,0
-700,-517,0,0,0,0,0,0,0,0,0,-1,524,1541,0,0
-693,-517,0,0,0,0,0,0,0,0,0,-1,531,1541,0,0
-686,-517,0,0,0,0,0,0,0,0,0,-1,538,1541,0,0
-679,-517,0,0,0,0,0,0,0,0,0,-1,545,1541,0,0
-672,-517,0,0,0,0,0,0,0,0,0,-1,552,1541,0,0
-665,-517,0,0,0,0,0,0,0,0,0,-1,559,1541,0,0
-658,-517,0,0,0,0,0,0,0,0,0,-1,566,1541,0,0
-651,-517,0,0,0,0,0,0,0,0,0,-1,573,1541,0,0
-644,-517,0,0,0,0,0,0,0,0,0,-1,580,1541,0,0
-637,-517,0,0,0,0,0,0,0,0,0,-1,587,1541,0,0
-630,-517,0,0,0,0,0,0,0,0,0,-1,594,1541,0,0
-623,-517,0,0,0,0,0,0,0,0,0,-1,601,1541,0,0
-616,-517,0,0,0,0,0,0,0,0,0,-1,608,1541,0,0
-609,-517,0,0,0,0,0,0,0,0,0,-1,615,1541,0,0
-602,-517,0,0,0,0,0,0,0,0,0,-1,622,1541,0,0
-595,-517,0,0,0,0,0,0,0,0,0,-1,629,1541,0,0
-588,-517,0,0,0,0,0,0,0,0,0,-1,636,1541,0,0
-581,-517,0,0,0,0,0,0,0,0,0,-1,643,1541,0,0
-574,-517,0,0,0,0,0,0,0,0,0,-1,650,1541,0,0
-567,-517,0,0,0,0,0,0,0,0,0,-1,657,1541,0,0
-560,-517,0,0,0,0,0,0,0,0,0,-1,664,1541,0,0
-553,-517,0,0,0,0,0,0,0,0,0,-1,671,1541,0,0
-546,-517,0,0,0,0,0,0,0,0,0,-1,678,1541,0,0
-539,-517,0,0,0,0,0,0,0,0,0,-1,685,1541,0,0
-532,-517,0,0,0,0,0,0,0,0,0,-1,692,1541,0,0
-525,-517,-3.62903,4.3606,0,0,0,0,0,0,0,-1,699,1541,-3.62904,-4.36056
-518,-517,-1.664,2.27209,0,0,0,0,0,0,0,-1,706,1541,-1.66399,-2.27207
-511,-517,-0.999146,5.52063,0,0,0,0,0,0,0,-1,713,1541,-0.999126,-5.52059
-504,-517,-1.06946,8.67432,0,0,0,0,0,0,0,-1,720,1541,-1.06947,-8.6743
-497,-517,-4.09412,14.8816,0,0,0,0,0,0,0,-1,727,1541,-4.09412,-14.8816
-490,-517,-1.97015,13.5144,0,0,0,0,0,0,0,-1,734,1541,-1.97013,-13.5144
-483,-517,-2.08496,13.8853,-0.00205308,-0.00247465,0.00370711,0.00144923,-0.00597696,0.757,0.00454539,0.0454425,741,1541,-2.08497,-13.8852
-476,-517,-2.55646,14.0621,-0.000679398,-0.00179975,0.00304042,0.00185202,-0.00433116,0.694299,0.00366426,0.045169,748,1541,-2.55646,-14.0621
-469,-517,-2.78552,14.5449,0.000414313,-0.0011098,0.00258701,0.00234917,-0.00304466,0.642164,0.00312275,0.0204936,755,1541,-2.78553,-14.5449
-462,-517,-2.88666,15.0161,0.00126795,-0.000473411,0.00235236,0.00290559,-0.00211105,0.60815,0.00290844,0.0189746,762,1541,-2.88665,-15.0162
-455,-517,-2.89954,15.5378,0.0018043,5.65337e-05,0.00212453,0.00322766,-0.00136682,0.590281,0.00272418,0.0145978,769,1541,-2.89955,-15.5379
-448,-517,-2.88873,16.0374,0.00194131,0.00039825,0.00177754,0.00310753,-0.000767974,0.580645,0.00236953,0.0132158,776,1541,-2.88873,-16.0373
-441,-517,-2.91205,16.4985,0.00217008,0.000892978,0.00182009,0.00346039,-0.000397326,0.616689,0.00245013,0.0115414,783,1541,-2.91204,-16.4985
-434,-517,-2.94104,16.965,0.00247996,0.00144948,0.00203639,0.00406528,-0.000135845,0.66149,0.00275658,0.0142399,790,1541,-2.94103,-16.965
-427,-517,-2.97925,17.4415,0.00302301,0.00222592,0.00254621,0.00520167,4.72541e-05,0.707765,0.00345214,0.0138259,797,1541,-2.97927,-17.4415
-420,-517,-3.03052,17.9508,0.00349093,0.0030341,0.00300268,0.00627387,0.000251158,0.747437,0.00410142,0.0193746,804,1541,-3.03054,-17.9508
-413,-517,-2.99365,18.4175,0.00411211,0.0040445,0.00378044,0.0078589,0.000297714,0.780927,0.0051429,0.010492,811,1541,-2.99363,-18.4175
-406,-517,-2.99896,18.8894,0.00495483,0.00548716,0.00495647,0.0101846,0.000257381,0.812222,0.00670559,0.0109303,818,1541,-2.99897,-18.8894
-399,-517,-2.99976,19.3733,0.00645185,0.00758178,0.00608761,0.0131306,0.000903051,0.831668,0.00846877,0.0111544,825,1541,-2.99978,-19.3732
-392,-517,-2.99188,19.8612,0.00854065,0.0104184,0.00732412,0.0168636,0.00209547,0.849145,0.0106131,0.0161054,832,1541,-2.99187,-19.8612
-385,-517,-2.88464,20.5892,0.0104497,0.0141073,0.00861131,0.0210819,0.00347515,0.890027,0.0130513,0.0369633,839,1541,-2.88467,-20.5893
-378,-517,-2.71637,21.4539,0,0,0,0,0,0,0,-1,846,1541,-2.71634,-21.4538
-371,-517,-1.37585,13.2646,0,0,0,0,0,0,0,-1,853,1541,-1.37586,-13.2647
-364,-517,-1.26245,12.6289,0,0,0,0,0,0,0,-1,860,1541,-1.26243,-12.6289
-357,-517,-1.23889,12.979,0,0,0,0,0,0,0,-1,867,1541,-1.23891,-12.979
-350,-517,0.722412,10.0829,0,0,0,0,0,0,0,-1,874,1541,0.722399,-10.0828
-343,-517,-2.89331,17.5468,0,0,0,0,0,0,0,-1,881,1541,-2.89334,-17.5468
-336,-517,-2.69617,24.7594,0,0,0,0,0,0,0,-1,888,1541,-2.69619,-24.7593
-329,-517,-0.463623,21.0862,0,0,0,0,0,0,0,-1,895,1541,-0.463643,-21.0862
-322,-517,-4.21246,19.5819,0,0,0,0,0,0,0,-1,902,1541,-4.21244,-19.5819
-315,-517,-0.987976,7.29749,0,0,0,0,0,0,0,-1,909,1541,-0.987993,-7.29743
-308,-517,3.27911,17.621,0,0,0,0,0,0,0,-1,916,1541,3.27913,-17.621
-301,-517,-1.69141,8.87488,0,0,0,0,0,0,0,-1,923,1541,-1.69141,-8.87485
-294,-517,-1.72583,9.92566,0,0,0,0,0,0,0,-1,930,1541,-1.72584,-9.92571
-287,-517,-3.09045,12.1472,0,0,0,0,0,0,0,-1,937,1541,-3.09043,-12.1472
-280,-517,0,0,0,0,0,0,0,0,0,-1,944,1541,0,0
-273,-517,0,0,0,0,0,0,0,0,0,-1,951,1541,0,0
-266,-517,0,0,0,0,0,0,0,0,0,-1,958,1541,0,0
-259,-517,0,0,0,0,0,0,0,0,0,-1,965,1541,0,0
-252,-517,0,0,0,0,0,0,0,0,0,-1,972,1541,0,0
-245,-517,0,0,0,0,0,0,0,0,0,-1,979,1541,0,0
-238,-517,0,0,0,0,0,0,0,0,0,-1,986,1541,0,0
-231,-517,0,0,0,0,0,0,0,0,0,-1,993,1541,0,0
-224,-517,0,0,0,0,0,0,0,0,0,-1,1000,1541,0,0
-217,-517,0,0,0,0,0,0,0,0,0,-1,1007,1541,0,0
-210,-517,0,0,0,0,0,0,0,0,0,-1,1014,1541,0,0
-203,-517,0,0,0,0,0,0,0,0,0,-1,1021,1541,0,0
-196,-517,0,0,0,0,0,0,0,0,0,-1,1028,1541,0,0
-189,-517,0,0,0,0,0,0,0,0,0,-1,1035,1541,0,0
-182,-517,0,0,0,0,0,0,0,0,0,-1,1042,1541,0,0
-175,-517,0,0,0,0,0,0,0,0,0,-1,1049,1541,0,0
-168,-517,0,0,0,0,0,0,0,0,0,-1,1056,1541,0,0
-161,-517,0,0,0,0,0,0,0,0,0,-1,1063,1541,0,0
-154,-517,0,0,0,0,0,0,0,0,0,-1,1070,1541,0,0
-147,-517,0,0,0,0,0,0,0,0,0,-1,1077,1541,0,0
-140,-517,0,0,0,0,0,0,0,0,0,-1,1084,1541,0,0
-133,-517,0,0,0,0,0,0,0,0,0,-1,1091,1541,0,0
-126,-517,0,0,0,0,0,0,0,0,0,-1,1098,1541,0,0
-119,-517,0,0,0,0,0,0,0,0,0,-1,1105,1541,0,0
-112,-517,0,0,0,0,0,0,0,0,0,-1,1112,1541,0,0
-105,-517,0,0,0,0,0,0,0,0,0,-1,1119,1541,0,0
-98,-517,0,0,0,0,0,0,0,0,0,-1,1126,1541,0,0
-91,-517,0,0,0,0,0,0,0,0,0,-1,1133,1541,0,0
-84,-517,0,0,0,0,0,0,0,0,0,-1,1140,1541,0,0
-77,-517,0,0,0,0,0,0,0,0,0,-1,1147,1541,0,0
-70,-517,0,0,0,0,0,0,0,0,0,-1,1154,1541,0,0
-63,-517,0,0,0,0,0,0,0,0,0,-1,1161,1541,0,0
-56,-517,0,0,0,0,0,0,0,0,0,-1,1168,1541,0,0
-49,-517,0,0,0,0,0,0,0,0,0,-1,1175,1541,0,0
-42,-517,0,0,0,0,0,0,0,0,0,-1,1182,1541,0,0
-35,-517,0,0,0,0,0,0,0,0,0,-1,1189,1541,0,0
-28,-517,0,0,0,0,0,0,0,0,0,-1,1196,1541,0,0
-21,-517,0,0,0,0,0,0,0,0,0,-1,1203,1541,0,0
-14,-517,0,0,0,0,0,0,0,0,0,-1,1210,1541,0,0
-7,-517,0,0,0,0,0,0,0,0,0,-1,1217,1541,0,0
0,-517,0,0,0,0,0,0,0,0,0,-1,1224,1541,0,0
7,-517,0,0,0,0,0,0,0,0,0,-1,1231,1541,0,0
14,-517,0,0,0,0,0,0,0,0,0,-1,1238,1541,0,0
21,-517,0,0,0,0,0,0,0,0,0,-1,1245,1541,0,0
28,-517,0,0,0,0,0,0,0,0,0,-1,1252,1541,0,0
35,-517,0,0,0,0,0,0,0,0,0,-1,1259,1541,0,0
42,-517,0,0,0,0,0,0,0,0,0,-1,1266,1541,0,0
49,-517,0,0,0,0,0,0,0,0,0,-1,1273,1541,0,0
56,-517,0,0,0,0,0,0,0,0,0,-1,1280,1541,0,0
63,-517,0,0,0,0,0,0,0,0,0,-1,1287,1541,0,0
70,-517,0,0,0,0,0,0,0,0,0,-1,1294,1541,0,0
77,-517,0,0,0,0,0,0,0,0,0,-1,1301,1541,0,0
84,-517,0,0,0,0,0,0,0,0,0,-1,1308,1541,0,0
91,-517,0,0,0,0,0,0,0,0,0,-1,1315,1541,0,0
98,-517,0,0,0,0,0,0,0,0,0,-1,1322,1541,0,0
105,-517,0,0,0,0,0,0,0,0,0,-1,1329,1541,0,0
112,-517,0,0,0,0,0,0,0,0,0,-1,1336,1541,0,0
119,-517,0,0,0,0,0,0,0,0,0,-1,1343,1541,0,0
126,-517,0,0,0,0,0,0,0,0,0,-1,1350,1541,0,0
133,-517,0,0,0,0,0,0,0,0,0,-1,1357,1541,0,0
140,-517,0,0,0,0,0,0,0,0,0,-1,1364,1541,0,0
147,-517,0,0,0,0,0,0,0,0,0,-1,1371,1541,0,0
154,-517,0,0,0,0,0,0,0,0,0,-1,1378,1541,0,0
161,-517,0,0,0,0,0,0,0,0,0,-1,1385,1541,0,0
168,-517,0,0,0,0,0,0,0,0,0,-1,1392,1541,0,0
175,-517,0,0,0,0,0,0,0,0,0,-1,1399,1541,0,0
182,-517,0,0,0,0,0,0,0,0,0,-1,1406,1541,0,0
189,-517,0,0,0,0,0,0,0,0,0,-1,1413,1541,0,0
196,-517,0,0,0,0,0,0,0,0,0,-1,1420,1541,0,0
203,-517,0,0,0,0,0,0,0,0,0,-1,1427,1541,0,0
210,-517,0,0,0,0,0,0,0,0,0,-1,1434,1541,0,0
217,-517,0,0,0,0,0,0,0,0,0,-1,1441,1541,0,0
224,-517,0,0,0,0,0,0,0,0,0,-1,1448,1541,0,0
231,-517,0,0,0,0,0,0,0,0,0,-1,1455,1541,0,0
238,-517,0,0,0,0,0,0,0,0,0,-1,1462,1541,0,0
245,-517,0,0,0,0,0,0,0,0,0,-1,1469,1541,0,0
252,-517,0,0,0,0,0,0,0,0,0,-1,1476,1541,0,0
259,-517,0,0,0,0,0,0,0,0,0,-1,1483,1541,0,0
266,-517,0,0,0,0,0,0,0,0,0,-1,1490,1541,0,0
273,-517,0,0,0,0,0,0,0,0,0,-1,1497,1541,0,0
280,-517,0,0,0,0,0,0,0,0,0,-1,1504,1541,0,0
287,-517,0,0,0,0,0,0,0,0,0,-1,1511,1541,0,0
294,-517,0,0,0,0,0,0,0,0,0,-1,1518,1541,0,0
301,-517,0,0,0,0,0,0,0,0,0,-1,1525,1541,0,0
308,-517,0,0,0,0,0,0,0,0,0,-1,1532,1541,0,0
315,-517,0,0,0,0,0,0,0,0,0,-1,1539,1541,0,0
322,-517,0,0,0,0,0,0,0,0,0,-1,1546,1541,0,0
329,-517,0,0,0,0,0,0,0,0,0,-1,1553,1541,0,0
336,-517,0,0,0,0,0,0,0,0,0,-1,1560,1541,0,0
343,-517,0,0,0,0,0,0,0,0,0,-1,1567,1541,0,0
350,-517,0,0,0,0,0,0,0,0,0,-1,1574,1541,0,0
357,-517,0,0,0,0,0,0,0,0,0,-1,1581,1541,0,0
364,-517,0,0,0,0,0,0,0,0,0,-1,1588,1541,0,0
371,-517,0,0,0,0,0,0,0,0,0,-1,1595,1541,0,0
378,-517,0,0,0,0,0,0,0,0,0,-1,1602,1541,0,0
385,-517,0,0,0,0,0,0,0,0,0,-1,1609,1541,0,0
392,-517,0,0,0,0,0,0,0,0,0,-1,1616,1541,0,0
399,-517,0,0,0,0,0,0,0,0,0,-1,1623,1541,0,0
406,-517,13.1395,7.01978,0,0,0,0,0,0,0,-1,1630,1541,13.1396,-7.01981
413,-517,12.8859,6.31592,0,0,0,0,0,0,0,-1,1637,1541,12.8858,-6.31588
420,-517,12.4789,6.20337,0,0,0,0,0,0,0,-1,1644,1541,12.4789,-6.20333
427,-517,11.647,4.66516,0,0,0,0,0,0,0,-1,1651,1541,11.647,-4.66519
434,-517,12.3719,3.92773,0,0,0,0,0,0,0,-1,1658,1541,12.3719,-3.92776
441,-517,13.146,3.14124,0,0,0,0,0,0,0,-1,1665,1541,13.146,-3.14121
448,-517,13.8861,2.36682,0,0,0,0,0,0,0,-1,1672,1541,13.8861,-2.36684
455,-517,13.6012,4.06335,0,0,0,0,0,0,0,-1,1679,1541,13.6012,-4.06335
462,-517,14.8956,7.0752,0,0,0,0,0,0,0,-1,1686,1541,14.8956,-7.07525
469,-517,13.6292,6.87744,0,0,0,0,0,0,0,-1,1693,1541,13.6292,-6.87739
476,-517,17.1632,14.1487,0,0,0,0,0,0,0,-1,1700,1541,17.1632,-14.1487
483,-517,16.5157,15.0776,0,0,0,0,0,0,0,-1,1707,1541,16.5157,-15.0777
490,-517,15.5439,18.0258,0,0,0,0,0,0,0,-1,1714,1541,15.5439,-18.0258
497,-517,16.0292,18.7786,0,0,0,0,0,0,0,-1,1721,1541,16.0291,-18.7786
504,-517,17.3815,22.3873,0,0,0,0,0,0,0,-1,1728,1541,17.3814,-22.3873
511,-517,16.9674,21.8491,0,0,0,0,0,0,0,-1,1735,1541,16.9674,-21.8491
518,-517,17.3997,21.5372,0,0,0,0,0,0,0,-1,1742,1541,17.3996,-21.5372
525,-517,17.6249,21.0565,0.00510475,0.00591235,-0.00449769,0.0100243,0.000992766,-0.830168,0.00637777,0.0220364,1749,1541,17.6249,-21.0565
532,-517,17.7927,20.5208,0.0040539,0.00452309,-0.00339736,0.00769394,0.000883047,-0.819869,0.00486175,0.0117123,1756,1541,17.7927,-20.5208
539,-517,17.7833,20.087,0.00333149,0.00329348,-0.00246737,0.00577993,0.000845039,-0.781546,0.00360478,0.0126324,1763,1541,17.7833,-20.087
546,-517,17.7653,19.6686,0.00282558,0.00221752,-0.00171182,0.00426015,0.000782939,-0.697512,0.00261844,0.0138389,1770,1541,17.7653,-19.6686
553,-517,17.7509,19.2234,0.00250725,0.00134096,-0.00111073,0.00317861,0.000669597,-0.543671,0.00193489,0.0172802,1777,1541,17.7509,-19.2234
560,-517,17.7484,18.8094,0.00240334,0.000648232,-0.000701362,0.00264918,0.000402394,-0.337133,0.00164844,0.0165162,1784,1541,17.7484,-18.8094
567,-517,17.7323,18.3629,0.00312091,-7.68821e-05,-0.00067608,0.00325797,-0.000213945,-0.200021,0.00224669,0.0138169,1791,1541,17.7323,-18.3629
574,-517,17.7118,17.9003,0.00393214,-0.000528337,-0.000838503,0.00408456,-0.000680755,-0.179811,0.00297602,0.0151369,1798,1541,17.7118,-17.9003
581,-517,17.7003,17.4551,0.00525731,-0.00096208,-0.00126869,0.00550615,-0.00121092,-0.193684,0.00413396,0.0163312,1805,1541,17.7003,-17.4551
588,-517,17.7065,17.01,0.0072035,-0.00131309,-0.00201134,0.00765462,-0.00176421,-0.220635,0.00578158,0.0171167,1812,1541,17.7065,-17.01
595,-517,17.9637,16.3075,0,0,0,0,0,0,0,-1,1819,1541,17.9638,-16.3074
602,-517,15.8027,13.5498,0,0,0,0,0,0,0,-1,1826,1541,15.8027,-13.5498
609,-517,12.6417,10.8751,0,0,0,0,0,0,0,-1,1833,1541,12.6417,-10.8751
616,-517,14.205,10.3193,0,0,0,0,0,0,0,-1,1840,1541,14.205,-10.3194
623,-517,12.578,10.0779,0,0,0,0,0,0,0,-1,1847,1541,12.578,-10.0779
630,-517,11.7035,7.47815,0,0,0,0,0,0,0,-1,1854,1541,11.7035,-7.47812
637,-517,11.5172,5.79822,0,0,0,0,0,0,0,-1,1861,1541,11.5173,-5.79825
644,-517,11.4232,3.30579,0,0,0,0,0,0,0,-1,1868,1541,11.4232,-3.30574
651,-517,0,0,0,0,0,0,0,0,0,-1,1875,1541,0,0
658,-517,0,0,0,0,0,0,0,0,0,-1,1882,1541,0,0
665,-517,0,0,0,0,0,0,0,0,0,-1,1889,1541,0,0
672,-517,0,0,0,0,0,0,0,0,0,-1,1896,1541,0,0
679,-517,0,0,0,0,0,0,0,0,0,-1,1903,1541,0,0
686,-517,0,0,0,0,0,0,0,0,0,-1,1910,1541,0,0
693,-517,0,0,0,0,0,0,0,0,0,-1,1917,1541,0,0
700,-517,0,0,0,0,0,0,0,0,0,-1,1924,1541,0,0
707,-517,0,0,0,0,0,0,0,0,0,-1,1931,1541,0,0
714,-517,0,0,0,0,0,0,0,0,0,-1,1938,1541,0,0
721,-517,0,0,0,0,0,0,0,0,0,-1,1945,1541,0,0
728,-517,0,0,0,0,0,0,0,0,0,-1,1952,1541,0,0
735,-517,0,0,0,0,0,0,0,0,0,-1,1959,1541,0,0
742,-517,0,0,0,0,0,0,0,0,0,-1,1966,1541,0,0
749,-517,0,0,0,0,0,0,0,0,0,-1,1973,1541,0,0
756,-517,0,0,0,0,0,0,0,0,0,-1,1980,1541,0,0
763,-517,0,0,0,0,0,0,0,0,0,-1,1987,1541,0,0
770,-517,0,0,0,0,0,0,0,0,0,-1,1994,1541,0,0
777,-517,0,0,0,0,0,0,0,0,0,-1,2001,1541,0,0
784,-517,0,0,0,0,0,0,0,0,0,-1,2008,1541,0,0
791,-517,0,0,0,0,0,0,0,0,0,-1,2015,1541,0,0
798,-517,0,0,0,0,0,0,0,0,0,-1,2022,1541,0,0
805,-517,0,0,0,0,0,0,0,0,0,-1,2029,1541,0,0
812,-517,0,0,0,0,0,0,0,0,0,-1,2036,1541,0,0
-700,-524,0,0,0,0,0,0,0,0,0,-1,524,1548,0,0
-693,-524,0,0,0,0,0,0,0,0,0,-1,531,1548,0,0
-686,-524,0,0,0,0,0,0,0,0,0,-1,538,1548,0,0
-679,-524,0,0,0,0,0,0,0,0,0,-1,545,1548,0,0
-672,-524,0,0,0,0,0,0,0,0,0,-1,552,1548,0,0
-665,-524,0,0,0,0,0,0,0,0,0,-1,559,1548,0,0
-658,-524,0,0,0,0,0,0,0,0,0,-1,566,1548,0,0
-651,-524,0,0,0,0,0,0,0,0,0,-1,573,1548,0,0
-644,-524,0,0,0,0,0,0,0,0,0,-1,580,1548,0,0
-637,-524,0,0,0,0,0,0,0,0,0,-1,587,1548,0,0
-630,-524,0,0,0,0,0,0,0,0,0,-1,594,1548,0,0
-623,-524,0,0,0,0,0,0,0,0,0,-1,601,1548,0,0
-616,-524,0,0,0,0,0,0,0,0,0,-1,608,1548,0,0
-609,-524,0,0,0,0,0,0,0,0,0,-1,615,1548,0,0
-602,-524,0,0,0,0,0,0,0,0,0,-1,622,1548,0,0
-595,-524,0,0,0,0,0,0,0,0,0,-1,629,1548,0,0
-588,-524,0,0,0,0,0,0,0,0,0,-1,636,1548,0,0
-581,-524,0,0,0,0,0,0,0,0,0,-1,643,1548,0,0
-574,-524,0,0,0,0,0,0,0,0,0,-1,650,1548,0,0
-567,-524,0,0,0,0,0,0,0,0,0,-1,657,1548,0,0
-560,-524,0,0,0,0,0,0,0,0,0,-1,664,1548,0,0
-553,-524,0,0,0,0,0,0,0,0,0,-1,671,1548,0,0
-546,-524,0,0,0,0,0,0,0,0,0,-1,678,1548,0,0
-539,-524,0,0,0,0,0,0,0,0,0,-1,685,1548,0,0
-532,-524,0,0,0,0,0,0,0,0,0,-1,692,1548,0,0
-525,-524,-0.215515,3.97131,0,0,0,0,0,0,0,-1,699,1548,-0.215501,-3.97136
-518,-524,-0.806274,4.35632,0,0,0,0,0,0,0,-1,706,1548,-0.806259,-4.35633
-511,-524,-1.08301,4.29004,0,0,0,0,0,0,0,-1,713,1548,-1.08301,-4.29006
-504,-524,-1.28821,3.98145,0,0,0,0,0,0,0,-1,720,1548,-1.28822,-3.98151
-497,-524,-0.328491,8.63416,0,0,0,0,0,0,0,-1,727,1548,-0.328487,-8.63411
-490,-524,-2.95306,15.1987,0,0,0,0,0,0,0,-1,734,1548,-2.95305,-15.1987
-483,-524,-1.55389,13.8877,0,0,0,0,0,0,0,-1,741,1548,-1.55387,-13.8877
-476,-524,-2.43225,14.1322,0.00187721,-0.000544234,0.0052683,0.00607212,-0.00473914,0.672453,0.00625768,0.0451755,748,1548,-2.43225,-14.1322
-469,-524,-2.43823,14.7865,0.00290996,0.000177097,0.00448473,0.0062318,-0.00314475,0.637523,0.00551048,0.0367085,755,1548,-2.43822,-14.7866
-462,-524,-2.39624,15.2489,0.00347879,0.000760803,0.00391752,0.00626634,-0.00202675,0.618442,0.00499222,0.0300888,762,1548,-2.39621,-15.2489
-455,-524,-2.44702,15.5763,0.00357357,0.00117195,0.00333625,0.00591854,-0.00117301,0.612652,0.00438926,0.0233765,769,1548,-2.44704,-15.5763
-448,-524,-2.41595,16.0554,0.00322808,0.0012978,0.00264117,0.00507493,-0.000549052,0.610225,0.00358037,0.0134904,776,1548,-2.41598,-16.0554
-441,-524,-2.4303,16.5172,0.00294801,0.00151902,0.00230384,0.0046456,-0.000178572,0.635035,0.00315827,0.0112798,783,1548,-2.43028,-16.5173
-434,-524,-2.41296,16.9948,0.00278118,0.00179271,0.00217729,0.00451963,5.42628e-05,0.673793,0.00299516,0.0128562,790,1548,-2.41299,-16.9947
-427,-524,-2.44391,17.4814,0.00297235,0.00228161,0.00241809,0.00506961,0.000184353,0.714464,0.00331999,0.0130632,797,1548,-2.44389,-17.4815
-420,-524,-2.49774,17.9701,0.00310113,0.00282934,0.0025485,0.00551736,0.000413112,0.758762,0.00354856,0.010629,804,1548,-2.49772,-17.9701
-413,-524,-2.50134,18.4479,0.00339417,0.00352454,0.0030056,0.00646566,0.000453048,0.79624,0.00416764,0.0100249,811,1548,-2.50132,-18.4478
-406,-524,-2.51044,18.9126,0.00388119,0.00462368,0.00381072,0.0080812,0.000423671,0.833956,0.00525194,0.0110145,818,1548,-2.51041,-18.9126
-399,-524,-2.52039,19.3757,0.0048588,0.00629742,0.00458929,0.0102234,0.00093279,0.863134,0.00652695,0.00952135,825,1548,-2.52038,-19.3757
-392,-524,-2.52667,19.8457,0.00642757,0.00851328,0.00546506,0.0130341,0.00190676,0.879676,0.0081287,0.0104218,832,1548,-2.52665,-19.8457
-385,-524,-2.54126,20.35,0.00799743,0.0115197,0.00637106,0.0163686,0.00314858,0.920245,0.010029,0.014948,839,1548,-2.54124,-20.35
-378,-524,-2.45532,21.113,0.0095083,0.0148473,0.00721407,0.0198699,0.00448566,0.962606,0.0120334,0.0467286,846,1548,-2.45534,-21.113
-371,-524,-2.15125,21.7753,0,0,0,0,0,0,0,-1,853,1548,-2.15126,-21.7753
-364,-524,-0.712097,14.9871,0,0,0,0,0,0,0,-1,860,1548,-0.712116,-14.9871
-357,-524,-1.34052,14.7448,0,0,0,0,0,0,0,-1,867,1548,-1.34054,-14.7447
-350,-524,-2.63245,12.7522,0,0,0,0,0,0,0,-1,874,1548,-2.63245,-12.7522
-343,-524,-2.41333,23.0717,0,0,0,0,0,0,0,-1,881,1548,-2.41331,-23.0716
-336,-524,-2.01569,24.4056,0,0,0,0,0,0,0,-1,888,1548,-2.01571,-24.4056
-329,-524,-1.6181,25.7396,0,0,0,0,0,0,0,-1,895,1548,-1.61811,-25.7396
-322,-524,-3.79669,23.8302,0,0,0,0,0,0,0,-1,902,1548,-3.7967,-23.8303
-315,-524,-1.90839,19.4824,0,0,0,0,0,0,0,-1,909,1548,-1.90838,-19.4824
-308,-524,-2.36938,19.3059,0,0,0,0,0,0,0,-1,916,1548,-2.3694,-19.3058
-301,-524,2.72394,17.7618,0,0,0,0,0,0,0,-1,923,1548,2.72396,-17.7619
-294,-524,-1.52515,9.05408,0,0,0,0,0,0,0,-1,930,1548,-1.52512,-9.05411
-287,-524,-0.962219,10.3199,0,0,0,0,0,0,0,-1,937,1548,-0.962241,-10.32
-280,-524,-1.36255,10.3859,0,0,0,0,0,0,0,-1,944,1548,-1.36253,-10.3859
-273,-524,0,0,0,0,0,0,0,0,0,-1,951,1548,0,0
-266,-524,0,0,0,0,0,0,0,0,0,-1,958,1548,0,0
-259,-524,0,0,0,0,0,0,0,0,0,-1,965,1548,0,0
-252,-524,0,0,0,0,0,0,0,0,0,-1,972,1548,0,0
-245,-524,0,0,0,0,0,0,0,0,0,-1,979,1548,0,0
-238,-524,0,0,0,0,0,0,0,0,0,-1,986,1548,0,0
-231,-524,0,0,0,0,0,0,0,0,0,-1,993,1548,0,0
-224,-524,0,0,0,0,0,0,0,0,0,-1,1000,1548,0,0
-217,-524,0,0,0,0,0,0,0,0,0,-1,1007,1548,0,0
-210,-524,0,0,0,0,0,0,0,0,0,-1,1014,1548,0,0
-203,-524,0,0,0,0,0,0,0,0,0,-1,1021,1548,0,0
-196,-524,0,0,0,0,0,0,0,0,0,-1,1028,1548,0,0
-189,-524,0,0,0,0,0,0,0,0,0,-1,1035,1548,0,0
-182,-524,0,0,0,0,0,0,0,0,0,-1,1042,1548,0,0
-175,-524,0,0,0,0,0,0,0,0,0,-1,1049,1548,0,0
-168,-524,0,0,0,0,0,0,0,0,0,-1,1056,1548,0,0
-161,-524,0,0,0,0,0,0,0,0,0,-1,1063,1548,0,0
-154,-524,0,0,0,0,0,0,0,0,0,-1,1070,1548,0,0
-147,-524,0,0,0,0,0,0,0,0,0,-1,1077,1548,0,0
-140,-524,0,0,0,0,0,0,0,0,0,-1,1084,1548,0,0
-133,-524,0,0,0,0,0,0,0,0,0,-1,1091,1548,0,0
-126,-524,0,0,0,0,0,0,0,0,0,-1,1098,1548,0,0
-119,-524,0,0,0,0,0,0,0,0,0,-1,1105,1548,0,0
-112,-524,0,0,0,0,0,0,0,0,0,-1,1112,1548,0,0
-105,-524,0,0,0,0,0,0,0,0,0,-1,1119,1548,0,0
-98,-524,0,0,0,0,0,0,0,0,0,-1,1126,1548,0,0
-91,-524,0,0,0,0,0,0,0,0,0,-1,1133,1548,0,0
-84,-524,0,0,0,0,0,0,0,0,0,-1,1140,1548,0,0
-77,-524,0,0,0,0,0,0,0,0,0,-1,1147,1548,0,0
-70,-524,0,0,0,0,0,0,0,0,0,-1,1154,1548,0,0
-63,-524,0,0,0,0,0,0,0,0,0,-1,1161,1548,0,0
-56,-524,0,0,0,0,0,0,0,0,0,-1,1168,1548,0,0
-49,-524,0,0,0,0,0,0,0,0,0,-1,1175,1548,0,0
-42,-524,0,0,0,0,0,0,0,0,0,-1,1182,1548,0,0
-35,-524,0,0,0,0,0,0,0,0,0,-1,1189,1548,0,0
-28,-524,0,0,0,0,0,0,0,0,0,-1,1196,1548,0,0
-21,-524,0,0,0,0,0,0,0,0,0,-1,1203,1548,0,0
-14,-524,0,0,0,0,0,0,0,0,0,-1,1210,1548,0,0
-7,-524,0,0,0,0,0,0,0,0,0,-1,1217,1548,0,0
0,-524,0,0,0,0,0,0,0,0,0,-1,1224,1548,0,0
7,-524,0,0,0,0,0,0,0,0,0,-1,1231,1548,0,0
14,-524,0,0,0,0,0,0,0,0,0,-1,1238,1548,0,0
21,-524,0,0,0,0,0,0,0,0,0,-1,1245,1548,0,0
28,-524,0,0,0,0,0,0,0,0,0,-1,1252,1548,0,0
35,-524,0,0,0,0,0,0,0,0,0,-1,1259,1548,0,0
42,-524,0,0,0,0,0,0,0,0,0,-1,1266,1548,0,0
49,-524,0,0,0,0,0,0,0,0,0,-1,1273,1548,0,0
56,-524,0,0,0,0,0,0,0,0,0,-1,1280,1548,0,0
63,-524,0,0,0,0,0,0,0,0,0,-1,1287,1548,0,0
70,-524,0,0,0,0,0,0,0,0,0,-1,1294,1548,0,0
77,-524,0,0,0,0,0,0,0,0,0,-1,1301,1548,0,0
84,-524,0,0,0,0,0,0,0,0,0,-1,1308,1548,0,0
91,-524,0,0,0,0,0,0,0,0,0,-1,1315,1548,0,0
98,-524,0,0,0,0,0,0,0,0,0,-1,1322,1548,0,0
105,-524,0,0,0,0,0,0,0,0,0,-1,1329,1548,0,0
112,-524,0,0,0,0,0,0,0,0,0,-1,1336,1548,0,0
119,-524,0,0,0,0,0,0,0,0,0,-1,1343,1548,0,0
126,-524,0,0,0,0,0,0,0,0,0,-1,1350,1548,0,0
133,-524,0,0,0,0,0,0,0,0,0,-1,1357,1548,0,0
140,-524,0,0,0,0,0,0,0,0,0,-1,1364,1548,0,0
147,-524,0,0,0,0,0,0,0,0,0,-1,1371,1548,0,0
154,-524,0,0,0,0,0,0,0,0,0,-1,1378,1548,0,0
161,-524,0,0,0,0,0,0,0,0,0,-1,1385,1548,0,0
168,-524,0,0,0,0,0,0,0,0,0,-1,1392,1548,0,0
175,-524,0,0,0,0,0,0,0,0,0,-1,1399,1548,0,0
182,-524,0,0,0,0,0,0,0,0,0,-1,1406,1548,0,0
189,-524,0,0,0,0,0,0,0,0,0,-1,1413,1548,0,0
196,-524,0,0,0,0,0,0,0,0,0,-1,1420,1548,0,0
203,-524,0,0,0,0,0,0,0,0,0,-1,1427,1548,0,0
210,-524,0,0,0,0,0,0,0,0,0,-1,1434,1548,0,0
217,-524,0,0,0,0,0,0,0,0,0,-1,1441,1548,0,0
224,-524,0,0,0,0,0,0,0,0,0,-1,1448,1548,0,0
231,-524,0,0,0,0,0,0,0,0,0,-1,1455,1548,0,0
238,-524,0,0,0,0,0,0,0,0,0,-1,1462,1548,0,0
245,-524,0,0,0,0,0,0,0,0,0,-1,1469,1548,0,0
252,-524,0,0,0,0,0,0,0,0,0,-1,1476,1548,0,0
259,-524,0,0,0,0,0,0,0,0,0,-1,1483,1548,0,0
266,-524,0,0,0,0,0,0,0,0,0,-1,1490,1548,0,0
273,-524,0,0,0,0,0,0,0,0,0,-1,1497,1548,0,0
280,-524,0,0,0,0,0,0,0,0,0,-1,1504,1548,0,0
287,-524,0,0,0,0,0,0,0,0,0,-1,1511,1548,0,0
294,-524,0,0,0,0,0,0,0,0,0,-1,1518,1548,0,0
301,-524,0,0,0,0,0,0,0,0,0,-1,1525,1548,0,0
308,-524,0,0,0,0,0,0,0,0,0,-1,1532,1548,0,0
315,-524,0,0,0,0,0,0,0,0,0,-1,1539,1548,0,0
322,-524,0,0,0,0,0,0,0,0,0,-1,1546,1548,0,0
329,-524,0,0,0,0,0,0,0,0,0,-1,1553,1548,0,0
336,-524,0,0,0,0,0,0,0,0,0,-1,1560,1548,0,0
343,-524,0,0,0,0,0,0,0,0,0,-1,1567,1548,0,0
350,-524,0,0,0,0,0,0,0,0,0,-1,1574,1548,0,0
357,-524,0,0,0,0,0,0,0,0,0,-1,1581,1548,0,0
364,-524,0,0,0,0,0,0,0,0,0,-1,1588,1548,0,0
371,-524,0,0,0,0,0,0,0,0,0,-1,1595,1548,0,0
378,-524,0,0,0,0,0,0,0,0,0,-1,1602,1548,0,0
385,-524,0,0,0,0,0,0,0,0,0,-1,1609,1548,0,0
392,-524,0,0,0,0,0,0,0,0,0,-1,1616,1548,0,0
399,-524,8.81848,5.05774,0,0,0,0,0,0,0,-1,1623,1548,8.81843,-5.05769
406,-524,8.64294,6.06799,0,0,0,0,0,0,0,-1,1630,1548,8.6429,-6.06805
413,-524,11.677,6.41858,0,0,0,0,0,0,0,-1,1637,1548,11.677,-6.41864
420,-524,11.4913,6.36401,0,0,0,0,0,0,0,-1,1644,1548,11.4913,-6.36402
427,-524,7.68335,6.17249,0,0,0,0,0,0,0,-1,1651,1548,7.68341,-6.17245
434,-524,10.432,11.6801,0,0,0,0,0,0,0,-1,1658,1548,10.432,-11.68
441,-524,8.78552,4.12305,0,0,0,0,0,0,0,-1,1665,1548,8.78553,-4.12301
448,-524,14.1854,4.78674,0,0,0,0,0,0,0,-1,1672,1548,14.1854,-4.78674
455,-524,12.4784,3.65576,0,0,0,0,0,0,0,-1,1679,1548,12.4784,-3.65572
462,-524,14.7551,9.29395,0,0,0,0,0,0,0,-1,1686,1548,14.7552,-9.29397
469,-524,16.3314,14.3779,0,0,0,0,0,0,0,-1,1693,1548,16.3314,-14.3779
476,-524,15.9106,15.1875,0,0,0,0,0,0,0,-1,1700,1548,15.9107,-15.1876
483,-524,15.2776,16.2268,0,0,0,0,0,0,0,-1,1707,1548,15.2776,-16.2269
490,-524,15.2563,18.5848,0,0,0,0,0,0,0,-1,1714,1548,15.2564,-18.5848
497,-524,17.5173,22.6123,0,0,0,0,0,0,0,-1,1721,1548,17.5174,-22.6123
504,-524,17.1923,22.2549,0,0,0,0,0,0,0,-1,1728,1548,17.1923,-22.2549
511,-524,16.8672,21.8975,0,0,0,0,0,0,0,-1,1735,1548,16.8672,-21.8975
518,-524,17.3311,21.459,0.00557033,0.00690186,-0.00555752,0.0118334,0.000638844,-0.845012,0.00768481,0.0242315,1742,1548,17.331,-21.4589
525,-524,17.3403,21.0181,0.00439889,0.00533866,-0.00427208,0.00916662,0.000570933,-0.840173,0.00592993,0.014075,1749,1548,17.3403,-21.0181
532,-524,17.3542,20.5533,0.00342919,0.00386932,-0.00302922,0.00668646,0.000612052,-0.821658,0.00426828,0.00962718,1756,1548,17.3543,-20.5533
539,-524,17.3428,20.0892,0.00275647,0.00250651,-0.00190658,0.00454216,0.000720818,-0.752668,0.00281873,0.0103329,1763,1548,17.3428,-20.0893
546,-524,17.3182,19.6404,0.00224366,0.00118625,-0.000881599,0.00274294,0.000686974,-0.515294,0.00164807,0.0143361,1770,1548,17.3183,-19.6404
553,-524,17.3257,19.2209,0.00191151,8.87174e-06,3.32154e-05,0.00191209,8.29209e-06,0.0174504,0.00127197,0.0237892,1777,1548,17.3257,-19.221
560,-524,17.3586,18.8247,0.00182607,-0.0009793,0.00074146,0.00200998,-0.00116321,0.243133,0.00185366,0.0312124,1784,1548,17.3586,-18.8247
567,-524,17.2734,18.385,0.00266036,-0.00201332,0.0010186,0.00287271,-0.00222567,0.205529,0.00295144,0.0185623,1791,1548,17.2734,-18.385
574,-524,17.2688,17.9149,0.0036103,-0.00270888,0.00104874,0.0037798,-0.00287839,0.16024,0.00385583,0.014286,1798,1548,17.2688,-17.9149
581,-524,17.283,17.4509,0.00523464,-0.00331028,0.000671832,0.00528714,-0.00336278,0.077985,0.00503506,0.0151855,1805,1548,17.2829,-17.4509
588,-524,17.3549,16.9868,0.00762906,-0.00377658,-0.000126692,0.00763047,-0.00377798,-0.011106,0.00671069,0.0279738,1812,1548,17.3548,-16.9868
595,-524,17.4438,16.3262,0,0,0,0,0,0,0,-1,1819,1548,17.4439,-16.3261
602,-524,13.837,12.0682,0,0,0,0,0,0,0,-1,1826,1548,13.837,-12.0683
609,-524,13.0056,10.5138,0,0,0,0,0,0,0,-1,1833,1548,13.0056,-10.5138
616,-524,11.6941,8.65515,0,0,0,0,0,0,0,-1,1840,1548,11.6941,-8.65514
623,-524,9.38452,5.15356,0,0,0,0,0,0,0,-1,1847,1548,9.38456,-5.15359
630,-524,11.0541,3.57434,0,0,0,0,0,0,0,-1,1854,1548,11.0541,-3.57438
637,-524,11.6067,3.20728,0,0,0,0,0,0,0,-1,1861,1548,11.6067,-3.20724
644,-524,12.2134,0.727173,0,0,0,0,0,0,0,-1,1868,1548,12.2134,-0.727222
651,-524,0,0,0,0,0,0,0,0,0,-1,1875,1548,0,0
658,-524,0,0,0,0,0,0,0,0,0,-1,1882,1548,0,0
665,-524,0,0,0,0,0,0,0,0,0,-1,1889,1548,0,0
672,-524,0,0,0,0,0,0,0,0,0,-1,1896,1548,0,0
679,-524,0,0,0,0,0,0,0,0,0,-1,1903,1548,0,0
686,-524,0,0,0,0,0,0,0,0,0,-1,1910,1548,0,0
693,-524,0,0,0,0,0,0,0,0,0,-1,1917,1548,0,0
700,-524,0,0,0,0,0,0,0,0,0,-1,1924,1548,0,0
707,-524,0,0,0,0,0,0,0,0,0,-1,1931,1548,0,0
714,-524,0,0,0,0,0,0,0,0,0,-1,1938,1548,0,0
721,-524,0,0,0,0,0,0,0,0,0,-1,1945,1548,0,0
728,-524,0,0,0,0,0,0,0,0,0,-1,1952,1548,0,0
735,-524,0,0,0,0,0,0,0,0,0,-1,1959,1548,0,0
742,-524,0,0,0,0,0,0,0,0,0,-1,1966,1548,0,0
749,-524,0,0,0,0,0,0,0,0,0,-1,1973,1548,0,0
756,-524,0,0,0,0,0,0,0,0,0,-1,1980,1548,0,0
763,-524,0,0,0,0,0,0,0,0,0,-1,1987,1548,0,0
770,-524,0,0,0,0,0,0,0,0,0,-1,1994,1548,0,0
777,-524,0,0,0,0,0,0,0,0,0,-1,2001,1548,0,0
784,-524,0,0,0,0,0,0,0,0,0,-1,2008,1548,0,0
791,-524,0,0,0,0,0,0,0,0,0,-1,2015,1548,0,0
798,-524,0,0,0,0,0,0,0,0,0,-1,2022,1548,0,0
805,-524,0,0,0,0,0,0,0,0,0,-1,2029,1548,0,0
812,-524,0,0,0,0,0,0,0,0,0,-1,2036,1548,0,0
-700,-531,0,0,0,0,0,0,0,0,0,-1,524,1555,0,0
-693,-531,0,0,0,0,0,0,0,0,0,-1,531,1555,0,0
-686,-531,0,0,0,0,0,0,0,0,0,-1,538,1555,0,0
-679,-531,0,0,0,0,0,0,0,0,0,-1,545,1555,0,0
-672,-531,0,0,0,0,0,0,0,0,0,-1,552,1555,0,0
-665,-531,0,0,0,0,0,0,0,0,0,-1,559,1555,0,0
-658,-531,0,0,0,0,0,0,0,0,0,-1,566,1555,0,0
-651,-531,0,0,0,0,0,0,0,0,0,-1,573,1555,0,0
-644,-531,0,0,0,0,0,0,0,0,0,-1,580,1555,0,0
-637,-531,0,0,0,0,0,0,0,0,0,-1,587,1555,0,0
-630,-531,0,0,0,0,0,0,0,0,0,-1,594,1555,0,0
-623,-531,0,0,0,0,0,0,0,0,0,-1,601,1555,0,0
-616,-531,0,0,0,0,0,0,0,0,0,-1,608,1555,0,0
-609,-531,0,0,0,0,0,0,0,0,0,-1,615,1555,0,0
-602,-531,0,0,0,0,0,0,0,0,0,-1,622,1555,0,0
-595,-531,0,0,0,0,0,0,0,0,0,-1,629,1555,0,0
-588,-531,0,0,0,0,0,0,0,0,0,-1,636,1555,0,0
-581,-531,0,0,0,0,0,0,0,0,0,-1,643,1555,0,0
-574,-531,0,0,0,0,0,0,0,0,0,-1,650,1555,0,0
-567,-531,0,0,0,0,0,0,0,0,0,-1,657,1555,0,0
-560,-531,0,0,0,0,0,0,0,0,0,-1,664,1555,0,0
-553,-531,0,0,0,0,0,0,0,0,0,-1,671,1555,0,0
-546,-531,0,0,0,0,0,0,0,0,0,-1,678,1555,0,0
-539,-531,0,0,0,0,0,0,0,0,0,-1,685,1555,0,0
-532,-531,0,0,0,0,0,0,0,0,0,-1,692,1555,0,0
-525,-531,0,0,0,0,0,0,0,0,0,-1,699,1555,0,0
-518,-531,-1.63983,4.03821,0,0,0,0,0,0,0,-1,706,1555,-1.63982,-4.03821
-511,-531,-2.9682,8.07483,0,0,0,0,0,0,0,-1,713,1555,-2.9682,-8.07479
-504,-531,-2.95978,0.557861,0,0,0,0,0,0,0,-1,720,1555,-2.95978,-0.557917
-497,-531,-2.46039,8.07422,0,0,0,0,0,0,0,-1,727,1555,-2.46039,-8.07423
-490,-531,-0.423462,7.92065,0,0,0,0,0,0,0,-1,734,1555,-0.42344,-7.92066
-483,-531,-2.32495,13.3652,0,0,0,0,0,0,0,-1,741,1555,-2.32493,-13.3653
-476,-531,-2.35925,14.264,0.00621226,0.00149366,0.00842146,0.0125987,-0.00489275,0.648823,0.0104202,0.0482438,748,1555,-2.35928,-14.264
-469,-531,-2.15778,14.6715,0.00698553,0.00223969,0.00720252,0.012196,-0.00297073,0.62627,0.00928074,0.041645,755,1555,-2.15777,-14.6715
-462,-531,-2.09613,15.4635,0.00693303,0.00273203,0.00614164,0.0113234,-0.00165837,0.620629,0.00815813,0.0421518,762,1555,-2.09616,-15.4635
-455,-531,-1.99597,15.7828,0.00628449,0.0029557,0.00507639,0.00996238,-0.00072219,0.626985,0.00689493,0.0365041,769,1555,-1.99599,-15.7828
-448,-531,-1.88477,16.0446,0.00518327,0.00278173,0.0039017,0.00806479,-9.97959e-05,0.636119,0.0054101,0.0173886,776,1555,-1.88476,-16.0445
-441,-531,-1.966,16.5155,0.00418738,0.00263401,0.00307018,0.0065776,0.000243793,0.661509,0.0043061,0.0123585,783,1555,-1.96601,-16.5155
-434,-531,-1.98047,17.0245,0.00339684,0.00253839,0.00252634,0.00553017,0.00040507,0.701252,0.00355945,0.0122366,790,1555,-1.98049,-17.0245
-427,-531,-1.9657,17.5223,0.00311662,0.0026607,0.00243442,0.00533373,0.000443583,0.738714,0.00341757,0.0140789,797,1555,-1.96573,-17.5223
-420,-531,-2.00897,18.0048,0.00284279,0.00290721,0.00222803,0.00510327,0.000646742,0.792626,0.0032084,0.0123667,804,1555,-2.00895,-18.0048
-413,-531,-2.03784,18.4838,0.00279091,0.00325952,0.00238117,0.00541789,0.00063254,0.83444,0.00342063,0.0100322,811,1555,-2.03783,-18.4837
-406,-531,-2.05048,18.939,0.00294427,0.00399124,0.00286131,0.00637656,0.000558948,0.875874,0.00407751,0.0110068,818,1555,-2.05047,-18.9389
-399,-531,-2.02795,19.3862,0.00344943,0.00522543,0.00337101,0.00782344,0.000851418,0.914184,0.00495626,0.0126593,825,1555,-2.02797,-19.3863
-392,-531,-2.02466,19.8617,0.00458124,0.00683397,0.0039809,0.00984479,0.00157042,0.923266,0.00610739,0.0164639,832,1555,-2.02463,-19.8616
-385,-531,-2.07953,20.3585,0.00590468,0.00919712,0.00463246,0.0124672,0.00263463,0.956122,0.00758728,0.0144618,839,1555,-2.0795,-20.3585
-378,-531,-2.10486,20.761,0.00718278,0.0118256,0.00523531,0.0152311,0.00377728,0.99408,0.0091584,0.0161133,846,1555,-2.10487,-20.761
-371,-531,-2.00311,21.353,0.00846366,0.0148711,0.00571038,0.0182151,0.0051197,1.04104,0.0108473,0.0330608,853,1555,-2.00311,-21.3531
-364,-531,-1.72711,22.2311,0,0,0,0,0,0,0,-1,860,1555,-1.72709,-22.231
-357,-531,-1.97546,22.5031,0,0,0,0,0,0,0,-1,867,1555,-1.97547,-22.5031
-350,-531,-2.80682,23.6202,0,0,0,0,0,0,0,-1,874,1555,-2.80683,-23.6203
-343,-531,-1.95032,23.6598,0,0,0,0,0,0,0,-1,881,1555,-1.95033,-23.6598
-336,-531,-1.44434,24.1016,0,0,0,0,0,0,0,-1,888,1555,-1.44432,-24.1016
-329,-531,-1.2301,25.1163,0,0,0,0,0,0,0,-1,895,1555,-1.23008,-25.1164
-322,-531,-0.392944,23.2938,0,0,0,0,0,0,0,-1,902,1555,-0.392955,-23.2939
-315,-531,-3.1756,23.0961,0,0,0,0,0,0,0,-1,909,1555,-3.17559,-23.096
-308,-531,-1.66455,19.0624,0,0,0,0,0,0,0,-1,916,1555,-1.66455,-19.0623
-301,-531,-2.02405,18.8912,0,0,0,0,0,0,0,-1,923,1555,-2.02407,-18.8913
-294,-531,-1.3244,8.1825,0,0,0,0,0,0,0,-1,930,1555,-1.3244,-8.18251
-287,-531,-1.78192,10.1661,0,0,0,0,0,0,0,-1,937,1555,-1.78192,-10.1661
-280,-531,-2.14508,10.3945,0,0,0,0,0,0,0,-1,944,1555,-2.14506,-10.3945
-273,-531,-2.50818,10.6229,0,0,0,0,0,0,0,-1,951,1555,-2.5082,-10.6229
-266,-531,-4.97742,17.9215,0,0,0,0,0,0,0,-1,958,1555,-4.97744,-17.9215
-259,-531,0,0,0,0,0,0,0,0,0,-1,965,1555,0,0
-252,-531,0,0,0,0,0,0,0,0,0,-1,972,1555,0,0
-245,-531,0,0,0,0,0,0,0,0,0,-1,979,1555,0,0
-238,-531,0,0,0,0,0,0,0,0,0,-1,986,1555,0,0
-231,-531,0,0,0,0,0,0,0,0,0,-1,993,1555,0,0
-224,-531,0,0,0,0,0,0,0,0,0,-1,1000,1555,0,0
-217,-531,0,0,0,0,0,0,0,0,0,-1,1007,1555,0,0
-210,-531,0,0,0,0,0,0,0,0,0,-1,1014,1555,0,0
-203,-531,0,0,0,0,0,0,0,0,0,-1,1021,1555,0,0
-196,-531,0,0,0,0,0,0,0,0,0,-1,1028,1555,0,0
-189,-531,0,0,0,0,0,0,0,0,0,-1,1035,1555,0,0
-182,-531,0,0,0,0,0,0,0,0,0,-1,1042,1555,0,0
-175,-531,0,0,0,0,0,0,0,0,0,-1,1049,1555,0,0
-168,-531,0,0,0,0,0,0,0,0,0,-1,1056,1555,0,0
-161,-531,0,0,0,0,0,0,0,0,0,-1,1063,1555,0,0
-154,-531,0,0,0,0,0,0,0,0,0,-1,1070,1555,0,0
-147,-531,0,0,0,0,0,0,0,0,0,-1,1077,1555,0,0
-140,-531,0,0,0,0,0,0,0,0,0,-1,1084,1555,0,0
-133,-531,0,0,0,0,0,0,0,0,0,-1,1091,1555,0,0
-126,-531,0,0,0,0,0,0,0,0,0,-1,1098,1555,0,0
-119,-531,0,0,0,0,0,0,0,0,0,-1,1105,1555,0,0
-112,-531,0,0,0,0,0,0,0,0,0,-1,1112,1555,0,0
-105,-531,0,0,0,0,0,0,0,0,0,-1,1119,1555,0,0
-98,-531,0,0,0,0,0,0,0,0,0,-1,1126,1555,0,0
-91,-531,0,0,0,0,0,0,0,0,0,-1,1133,1555,0,0
-84,-531,0,0,0,0,0,0,0,0,0,-1,1140,1555,0,0
-77,-531,0,0,0,0,0,0,0,0,0,-1,1147,1555,0,0
-70,-531,0,0,0,0,0,0,0,0,0,-1,1154,1555,0,0
-63,-531,0,0,0,0,0,0,0,0,0,-1,1161,1555,0,0
-56,-531,0,0,0,0,0,0,0,0,0,-1,1168,1555,0,0
-49,-531,0,0,0,0,0,0,0,0,0,-1,1175,1555,0,0
-42,-531,0,0,0,0,0,0,0,0,0,-1,1182,1555,0,0
-35,-531,0,0,0,0,0,0,0,0,0,-1,1189,1555,0,0
-28,-531,0,0,0,0,0,0,0,0,0,-1,1196,1555,0,0
-21,-531,0,0,0,0,0,0,0,0,0,-1,1203,1555,0,0
-14,-531,0,0,0,0,0,0,0,0,0,-1,1210,1555,0,0
-7,-531,0,0,0,0,0,0,0,0,0,-1,1217,1555,0,0
0,-531,0,0,0,0,0,0,0,0,0,-1,1224,1555,0,0
7,-531,0,0,0,0,0,0,0,0,0,-1,1231,1555,0,0
14,-531,0,0,0,0,0,0,0,0,0,-1,1238,1555,0,0
21,-531,0,0,0,0,0,0,0,0,0,-1,1245,1555,0,0
28,-531,0,0,0,0,0,0,0,0,0,-1,1252,1555,0,0
35,-531,0,0,0,0,0,0,0,0,0,-1,1259,1555,0,0
42,-531,0,0,0,0,0,0,0,0,0,-1,1266,1555,0,0
49,-531,0,0,0,0,0,0,0,0,0,-1,1273,1555,0,0
56,-531,0,0,0,0,0,0,0,0,0,-1,1280,1555,0,0
63,-531,0,0,0,0,0,0,0,0,0,-1,1287,1555,0,0
70,-531,0,0,0,0,0,0,0,0,0,-1,1294,1555,0,0
77,-531,0,0,0,0,0,0,0,0,0,-1,1301,1555,0,0
84,-531,0,0,0,0,0,0,0,0,0,-1,1308,1555,0,0
91,-531,0,0,0,0,0,0,0,0,0,-1,1315,1555,0,0
98,-531,0,0,0,0,0,0,0,0,0,-1,1322,1555,0,0
105,-531,0,0,0,0,0,0,0,0,0,-1,1329,1555,0,0
112,-531,0,0,0,0,0,0,0,0,0,-1,1336,1555,0,0
119,-531,0,0,0,0,0,0,0,0,0,-1,1343,1555,0,0
126,-531,0,0,0,0,0,0,0,0,0,-1,1350,1555,0,0
133,-531,0,0,0,0,0,0,0,0,0,-1,1357,1555,0,0
140,-531,0,0,0,0,0,0,0,0,0,-1,1364,1555,0,0
147,-531,0,0,0,0,0,0,0,0,0,-1,1371,1555,0,0
154,-531,0,0,0,0,0,0,0,0,0,-1,1378,1555,0,0
161,-531,0,0,0,0,0,0,0,0,0,-1,1385,1555,0,0
168,-531,0,0,0,0,0,0,0,0,0,-1,1392,1555,0,0
175,-531,0,0,0,0,0,0,0,0,0,-1,1399,1555,0,0
182,-531,0,0,0,0,0,0,0,0,0,-1,1406,1555,0,0
189,-531,0,0,0,0,0,0,0,0,0,-1,1413,1555,0,0
196,-531,0,0,0,0,0,0,0,0,0,-1,1420,1555,0,0
203,-531,0,0,0,0,0,0,0,0,0,-1,1427,1555,0,0
210,-531,0,0,0,0,0,0,0,0,0,-1,1434,1555,0,0
217,-531,0,0,0,0,0,0,0,0,0,-1,1441,1555,0,0
224,-531,0,0,0,0,0,0,0,0,0,-1,1448,1555,0,0
231,-531,0,0,0,0,0,0,0,0,0,-1,1455,1555,0,0
238,-531,0,0,0,0,0,0,0,0,0,-1,1462,1555,0,0
245,-531,0,0,0,0,0,0,0,0,0,-1,1469,1555,0,0
252,-531,0,0,0,0,0,0,0,0,0,-1,1476,1555,0,0
259,-531,0,0,0,0,0,0,0,0,0,-1,1483,1555,0,0
266,-531,0,0,0,0,0,0,0,0,0,-1,1490,1555,0,0
273,-531,0,0,0,0,0,0,0,0,0,-1,1497,1555,0,0
280,-531,0,0,0,0,0,0,0,0,0,-1,1504,1555,0,0
287,-531,0,0,0,0,0,0,0,0,0,-1,1511,1555,0,0
294,-531,0,0,0,0,0,0,0,0,0,-1,1518,1555,0,0
301,-531,0,0,0,0,0,0,0,0,0,-1,1525,1555,0,0
308,-531,0,0,0,0,0,0,0,0,0,-1,1532,1555,0,0
315,-531,0,0,0,0,0,0,0,0,0,-1,1539,1555,0,0
322,-531,0,0,0,0,0,0,0,0,0,-1,1546,1555,0,0
329,-531,0,0,0,0,0,0,0,0,0,-1,1553,1555,0,0
336,-531,0,0,0,0,0,0,0,0,0,-1,1560,1555,0,0
343,-531,0,0,0,0,0,0,0,0,0,-1,1567,1555,0,0
350,-531,0,0,0,0,0,0,0,0,0,-1,1574,1555,0,0
357,-531,0,0,0,0,0,0,0,0,0,-1,1581,1555,0,0
364,-531,0,0,0,0,0,0,0,0,0,-1,1588,1555,0,0
371,-531,0,0,0,0,0,0,0,0,0,-1,1595,1555,0,0
378,-531,0,0,0,0,0,0,0,0,0,-1,1602,1555,0,0
385,-531,3.48169,1.78625,0,0,0,0,0,0,0,-1,1609,1555,3.48165,-1.78624
392,-531,10.8781,9.09204,0,0,0,0,0,0,0,-1,1616,1555,10.8781,-9.09205
399,-531,8.26306,5.29602,0,0,0,0,0,0,0,-1,1623,1555,8.26302,-5.29607
406,-531,8.26147,5.42712,0,0,0,0,0,0,0,-1,1630,1555,8.26145,-5.42716
413,-531,8.20618,5.75012,0,0,0,0,0,0,0,-1,1637,1555,8.20619,-5.75017
420,-531,7.64868,7.09558,0,0,0,0,0,0,0,-1,1644,1555,7.64867,-7.09564
427,-531,9.93054,11.8412,0,0,0,0,0,0,0,-1,1651,1555,9.93059,-11.8412
434,-531,10.244,11.7072,0,0,0,0,0,0,0,-1,1658,1555,10.244,-11.7071
441,-531,11.4528,12.9397,0,0,0,0,0,0,0,-1,1665,1555,11.4528,-12.9397
448,-531,11.928,18.8029,0,0,0,0,0,0,0,-1,1672,1555,11.928,-18.8028
455,-531,14.4877,9.67065,0,0,0,0,0,0,0,-1,1679,1555,14.4876,-9.67066
462,-531,13.5253,12.2002,0,0,0,0,0,0,0,-1,1686,1555,13.5252,-12.2002
469,-531,15.5087,15.7894,0,0,0,0,0,0,0,-1,1693,1555,15.5086,-15.7895
476,-531,14.6582,16.2264,0,0,0,0,0,0,0,-1,1700,1555,14.6582,-16.2264
483,-531,14.755,18.5994,0,0,0,0,0,0,0,-1,1707,1555,14.7551,-18.5994
490,-531,15.4741,22.5215,0,0,0,0,0,0,0,-1,1714,1555,15.4741,-22.5214
497,-531,16.7074,23.0743,0,0,0,0,0,0,0,-1,1721,1555,16.7074,-23.0743
504,-531,16.808,22.4131,0.00644834,0.00751443,-0.00589847,0.0129039,0.00105887,-0.830461,0.00827226,0.0322145,1728,1555,16.808,-22.4131
511,-531,16.8749,21.8927,0.00539962,0.00695252,-0.00541185,0.0116433,0.000708799,-0.856648,0.00753708,0.0157343,1735,1555,16.8749,-21.8927
518,-531,16.9047,21.4801,0.00435047,0.00537919,-0.00422804,0.00912404,0.000605617,-0.845928,0.00589121,0.0154382,1742,1555,16.9047,-21.4801
525,-531,16.9144,21.0326,0.00333113,0.00386854,-0.00302542,0.00663716,0.000562509,-0.82969,0.0042497,0.0140921,1749,1555,16.9144,-21.0327
532,-531,16.9133,20.5671,0.00251484,0.00242185,-0.0018335,0.00430243,0.000634259,-0.772721,0.00268198,0.0102587,1756,1555,16.9134,-20.5671
539,-531,16.8951,20.1237,0.001968,0.00104643,-0.000714044,0.00235703,0.000657401,-0.49886,0.00140447,0.0114236,1763,1555,16.8952,-20.1236
546,-531,16.8521,19.6781,0.00153756,-0.000381824,0.000389979,0.00161377,-0.000458034,0.192988,0.00125666,0.0142588,1770,1555,16.8521,-19.6781
553,-531,16.895,19.2723,0.00128407,-0.00172237,0.001432,0.00185698,-0.00229528,0.380571,0.00240175,0.0280202,1777,1555,16.8951,-19.2724
560,-531,16.9063,18.8856,0.00130053,-0.00288183,0.00227887,0.00230229,-0.00388358,0.41416,0.0036101,0.0324675,1784,1555,16.9062,-18.8856
567,-531,16.776,18.3939,0.00228489,-0.00411166,0.00269826,0.00327106,-0.00509783,0.350401,0.00487,0.0197777,1791,1555,16.776,-18.3939
574,-531,16.7979,17.933,0.00343994,-0.00498167,0.00284238,0.00430949,-0.00585122,0.296881,0.00588876,0.0137989,1798,1555,16.7979,-17.933
581,-531,16.8593,17.4563,0.00544369,-0.00568701,0.00246191,0.0059639,-0.00620722,0.208243,0.00702747,0.0180591,1805,1555,16.8592,-17.4563
588,-531,16.9337,16.9066,0.00840891,-0.00622703,0.00158812,0.00857925,-0.00639738,0.106852,0.00867729,0.0347601,1812,1555,16.9337,-16.9066
595,-531,16.9775,16.2844,0,0,0,0,0,0,0,-1,1819,1555,16.9775,-16.2844
602,-531,13.701,11.8346,0,0,0,0,0,0,0,-1,1826,1555,13.701,-11.8347
609,-531,10.9072,8.50903,0,0,0,0,0,0,0,-1,1833,1555,10.9073,-8.50902
616,-531,10.5723,7.17859,0,0,0,0,0,0,0,-1,1840,1555,10.5723,-7.17855
623,-531,10.0674,5.08984,0,0,0,0,0,0,0,-1,1847,1555,10.0674,-5.08981
630,-531,11.672,3.18909,0,0,0,0,0,0,0,-1,1854,1555,11.672,-3.18904
637,-531,13.2546,1.38965,0,0,0,0,0,0,0,-1,1861,1555,13.2547,-1.3896
644,-531,0,0,0,0,0,0,0,0,0,-1,1868,1555,0,0
651,-531,0,0,0,0,0,0,0,0,0,-1,1875,1555,0,0
658,-531,0,0,0,0,0,0,0,0,0,-1,1882,1555,0,0
665,-531,0,0,0,0,0,0,0,0,0,-1,1889,1555,0,0
672,-531,0,0,0,0,0,0,0,0,0,-1,1896,1555,0,0
679,-531,0,0,0,0,0,0,0,0,0,-1,1903,1555,0,0
686,-531,0,0,0,0,0,0,0,0,0,-1,1910,1555,0,0
693,-531,0,0,0,0,0,0,0,0,0,-1,1917,1555,0,0
700,-531,0,0,0,0,0,0,0,0,0,-1,1924,1555,0,0
707,-531,0,0,0,0,0,0,0,0,0,-1,1931,1555,0,0
714,-531,0,0,0,0,0,0,0,0,0,-1,1938,1555,0,0
721,-531,0,0,0,0,0,0,0,0,0,-1,1945,1555,0,0
728,-531,0,0,0,0,0,0,0,0,0,-1,1952,1555,0,0
735,-531,0,0,0,0,0,0,0,0,0,-1,1959,1555,0,0
742,-531,0,0,0,0,0,0,0,0,0,-1,1966,1555,0,0
749,-531,0,0,0,0,0,0,0,0,0,-1,1973,1555,0,0
756,-531,0,0,0,0,0,0,0,0,0,-1,1980,1555,0,0
763,-531,0,0,0,0,0,0,0,0,0,-1,1987,1555,0,0
770,-531,0,0,0,0,0,0,0,0,0,-1,1994,1555,0,0
777,-531,0,0,0,0,0,0,0,0,0,-1,2001,1555,0,0
784,-531,0,0,0,0,0,0,0,0,0,-1,2008,1555,0,0
791,-531,0,0,0,0,0,0,0,0,0,-1,2015,1555,0,0
798,-531,0,0,0,0,0,0,0,0,0,-1,2022,1555,0,0
805,-531,0,0,0,0,0,0,0,0,0,-1,2029,1555,0,0
812,-531,0,0,0,0,0,0,0,0,0,-1,2036,1555,0,0
-700,-538,0,0,0,0,0,0,0,0,0,-1,524,1562,0,0
-693,-538,0,0,0,0,0,0,0,0,0,-1,531,1562,0,0
-686,-538,0,0,0,0,0,0,0,0,0,-1,538,1562,0,0
-679,-538,0,0,0,0,0,0,0,0,0,-1,545,1562,0,0
-672,-538,0,0,0,0,0,0,0,0,0,-1,552,1562,0,0
-665,-538,0,0,0,0,0,0,0,0,0,-1,559,1562,0,0
-658,-538,0,0,0,0,0,0,0,0,0,-1,566,1562,0,0
-651,-538,0,0,0,0,0,0,0,0,0,-1,573,1562,0,0
-644,-538,0,0,0,0,0,0,0,0,0,-1,580,1562,0,0
-637,-538,0,0,0,0,0,0,0,0,0,-1,587,1562,0,0
-630,-538,0,0,0,0,0,0,0,0,0,-1,594,1562,0,0
-623,-538,0,0,0,0,0,0,0,0,0,-1,601,1562,0,0
-616,-538,0,0,0,0,0,0,0,0,0,-1,608,1562,0,0
-609,-538,0,0,0,0,0,0,0,0,0,-1,615,1562,0,0
-602,-538,0,0,0,0,0,0,0,0,0,-1,622,1562,0,0
-595,-538,0,0,0,0,0,0,0,0,0,-1,629,1562,0,0
-588,-538,0,0,0,0,0,0,0,0,0,-1,636,1562,0,0
-581,-538,0,0,0,0,0,0,0,0,0,-1,643,1562,0,0
-574,-538,0,0,0,0,0,0,0,0,0,-1,650,1562,0,0
-567,-538,0,0,0,0,0,0,0,0,0,-1,657,1562,0,0
-560,-538,0,0,0,0,0,0,0,0,0,-1,664,1562,0,0
-553,-538,0,0,0,0,0,0,0,0,0,-1,671,1562,0,0
-546,-538,0,0,0,0,0,0,0,0,0,-1,678,1562,0,0
-539,-538,0,0,0,0,0,0,0,0,0,-1,685,1562,0,0
-532,-538,0,0,0,0,0,0,0,0,0,-1,692,1562,0,0
-525,-538,0,0,0,0,0,0,0,0,0,-1,699,1562,0,0
-518,-538,0,0,0,0,0,0,0,0,0,-1,706,1562,0,0
-511,-538,-2.6582,-1.54321,0,0,0,0,0,0,0,-1,713,1562,-2.65821,1.54327
-504,-538,-2.66455,-0.71167,0,0,0,0,0,0,0,-1,720,1562,-2.66456,0.711667
-497,-538,-0.763855,6.77747,0,0,0,0,0,0,0,-1,727,1562,-0.76385,-6.77743
-490,-538,-2.70453,8.01465,0,0,0,0,0,0,0,-1,734,1562,-2.70451,-8.0147
-483,-538,-0.933533,7.84644,0,0,0,0,0,0,0,-1,741,1562,-0.933548,-7.84638
-476,-538,-2.58673,14.2211,0,0,0,0,0,0,0,-1,748,1562,-2.58673,-14.2211
-469,-538,-1.81573,14.3224,0,0,0,0,0,0,0,-1,755,1562,-1.81575,-14.3224
-462,-538,-1.87976,15.2366,0.0115172,0.00576363,0.00915751,0.0182392,-0.000958323,0.633207,0.0124911,0.0456296,762,1562,-1.87974,-15.2366
-455,-538,-1.63434,15.9186,0.00981662,0.00563347,0.00743795,0.0154515,-1.39e-06,0.648336,0.0103014,0.0407492,769,1562,-1.63434,-15.9186
-448,-538,-1.36096,16.1429,0.00762079,0.00498607,0.00556826,0.0120254,0.000581458,0.669242,0.00783032,0.0195078,776,1562,-1.36094,-16.143
-441,-538,-1.46344,16.6074,0.00562173,0.00431106,0.00408181,0.00910048,0.000832318,0.705802,0.00580945,0.0216524,783,1562,-1.46342,-16.6075
-434,-538,-1.53741,17.0208,0.00402255,0.00368316,0.0030136,0.00687123,0.000834482,0.757273,0.00432955,0.0129011,790,1562,-1.53739,-17.0208
-427,-538,-1.53162,17.5331,0.00315646,0.00331427,0.00251202,0.00574862,0.000722108,0.801098,0.00361583,0.0141341,797,1562,-1.53163,-17.533
-420,-538,-1.57068,18.0222,0.00243289,0.00318435,0.00194827,0.00479279,0.000824452,0.880655,0.00295891,0.0178356,804,1562,-1.57065,-18.0222
-413,-538,-1.60693,18.5128,0.00204584,0.0031473,0.0018026,0.00448143,0.000711714,0.933655,0.0027809,0.0166555,811,1562,-1.6069,-18.5128
-406,-538,-1.58051,18.9666,0.00193256,0.00347353,0.00198627,0.00483352,0.000572572,0.970416,0.00304946,0.0136434,818,1562,-1.58049,-18.9665
-399,-538,-1.56732,19.4089,0.0020839,0.00424696,0.00228717,0.00569542,0.000635438,1.00625,0.00360386,0.0128953,825,1562,-1.56735,-19.4089
-392,-538,-1.5567,19.8744,0.00292839,0.00527452,0.0026934,0.00703923,0.00116368,0.990778,0.00435704,0.0150585,832,1562,-1.5567,-19.8744
-385,-538,-1.60626,20.3491,0.00415444,0.0070467,0.00317268,0.00908729,0.00211385,0.999235,0.00549092,0.0133527,839,1562,-1.60625,-20.3491
-378,-538,-1.62958,20.7933,0.00538308,0.00907688,0.00363663,0.0113087,0.00315124,1.02036,0.00673897,0.00999866,846,1562,-1.62957,-20.7933
-371,-538,-1.64813,21.231,0.00654674,0.0113811,0.0039563,0.0136002,0.00432764,1.05962,0.00802323,0.0120672,853,1562,-1.64816,-21.231
-364,-538,-1.57715,21.7635,0.00789269,0.0138687,0.00410523,0.0159582,0.00580319,1.09999,0.00932698,0.0170313,860,1562,-1.57717,-21.7636
-357,-538,-1.55267,22.3502,0.00937842,0.0168839,0.00414471,0.0187224,0.00753994,1.1533,0.0108773,0.0391365,867,1562,-1.55265,-22.3502
-350,-538,-1.92041,22.9363,0.0111137,0.0203073,0.00410338,0.0218723,0.00954863,1.20642,0.0126618,0.0456284,874,1562,-1.92044,-22.9363
-343,-538,-1.52417,23.2825,0.0129547,0.024168,0.00370542,0.0252819,0.0118409,1.2788,0.0146062,0.0444733,881,1562,-1.52414,-23.2824
-336,-538,-1.27142,23.7744,0.0150592,0.0285271,0.00352052,0.0293919,0.0141945,1.32994,0.0169727,0.0408424,888,1562,-1.27144,-23.7744
-329,-538,-1.05707,24.2222,0,0,0,0,0,0,0,-1,895,1562,-1.05709,-24.2222
-322,-538,-1.9845,22.4153,0,0,0,0,0,0,0,-1,902,1562,-1.98452,-22.4153
-315,-538,-2.25354,22.3262,0,0,0,0,0,0,0,-1,909,1562,-2.25351,-22.3262
-308,-538,-2.52136,21.9954,0,0,0,0,0,0,0,-1,916,1562,-2.52134,-21.9954
-301,-538,-0.452393,18.5101,0,0,0,0,0,0,0,-1,923,1562,-0.452367,-18.5102
-294,-538,1.23138,14.0757,0,0,0,0,0,0,0,-1,930,1562,1.23137,-14.0757
-287,-538,-2.60419,10.2361,0,0,0,0,0,0,0,-1,937,1562,-2.6042,-10.2361
-280,-538,-2.93475,10.5106,0,0,0,0,0,0,0,-1,944,1562,-2.93475,-10.5106
-273,-538,-3.26532,10.785,0,0,0,0,0,0,0,-1,951,1562,-3.26531,-10.785
-266,-538,-5.03412,15.9951,0,0,0,0,0,0,0,-1,958,1562,-5.03409,-15.9951
-259,-538,-5.89642,16.5184,0,0,0,0,0,0,0,-1,965,1562,-5.89644,-16.5184
-252,-538,0,0,0,0,0,0,0,0,0,-1,972,1562,0,0
-245,-538,0,0,0,0,0,0,0,0,0,-1,979,1562,0,0
-238,-538,0,0,0,0,0,0,0,0,0,-1,986,1562,0,0
-231,-538,0,0,0,0,0,0,0,0,0,-1,993,1562,0,0
-224,-538,0,0,0,0,0,0,0,0,0,-1,1000,1562,0,0
-217,-538,0,0,0,0,0,0,0,0,0,-1,1007,1562,0,0
-210,-538,0,0,0,0,0,0,0,0,0,-1,1014,1562,0,0
-203,-538,0,0,0,0,0,0,0,0,0,-1,1021,1562,0,0
-196,-538,0,0,0,0,0,0,0,0,0,-1,1028,1562,0,0
-189,-538,0,0,0,0,0,0,0,0,0,-1,1035,1562,0,0
-182,-538,0,0,0,0,0,0,0,0,0,-1,1042,1562,0,0
-175,-538,0,0,0,0,0,0,0,0,0,-1,1049,1562,0,0
-168,-538,0,0,0,0,0,0,0,0,0,-1,1056,1562,0,0
-161,-538,0,0,0,0,0,0,0,0,0,-1,1063,1562,0,0
-154,-538,0,0,0,0,0,0,0,0,0,-1,1070,1562,0,0
-147,-538,0,0,0,0,0,0,0,0,0,-1,1077,1562,0,0
-140,-538,0,0,0,0,0,0,0,0,0,-1,1084,1562,0,0
-133,-538,0,0,0,0,0,0,0,0,0,-1,1091,1562,0,0
-126,-538,0,0,0,0,0,0,0,0,0,-1,1098,1562,0,0
-119,-538,0,0,0,0,0,0,0,0,0,-1,1105,1562,0,0
-112,-538,0,0,0,0,0,0,0,0,0,-1,1112,1562,0,0
-105,-538,0,0,0,0,0,0,0,0,0,-1,1119,1562,0,0
-98,-538,0,0,0,0,0,0,0,0,0,-1,1126,1562,0,0
-91,-538,0,0,0,0,0,0,0,0,0,-1,1133,1562,0,0
-84,-538,0,0,0,0,0,0,0,0,0,-1,1140,1562,0,0
-77,-538,0,0,0,0,0,0,0,0,0,-1,1147,1562,0,0
-70,-538,0,0,0,0,0,0,0,0,0,-1,1154,1562,0,0
-63,-538,0,0,0,0,0,0,0,0,0,-1,1161,1562,0,0
-56,-538,0,0,0,0,0,0,0,0,0,-1,1168,1562,0,0
-49,-538,0,0,0,0,0,0,0,0,0,-1,1175,1562,0,0
-42,-538,0,0,0,0,0,0,0,0,0,-1,1182,1562,0,0
-35,-538,0,0,0,0,0,0,0,0,0,-1,1189,1562,0,0
-28,-538,0,0,0,0,0,0,0,0,0,-1,1196,1562,0,0
-21,-538,0,0,0,0,0,0,0,0,0,-1,1203,1562,0,0
-14,-538,0,0,0,0,0,0,0,0,0,-1,1210,1562,0,0
-7,-538,0,0,0,0,0,0,0,0,0,-1,1217,1562,0,0
0,-538,0,0,0,0,0,0,0,0,0,-1,1224,1562,0,0
7,-538,0,0,0,0,0,0,0,0,0,-1,1231,1562,0,0
14,-538,0,0,0,0,0,0,0,0,0,-1,1238,1562,0,0
21,-538,0,0,0,0,0,0,0,0,0,-1,1245,1562,0,0
28,-538,0,0,0,0,0,0,0,0,0,-1,1252,1562,0,0
35,-538,0,0,0,0,0,0,0,0,0,-1,1259,1562,0,0
42,-538,0,0,0,0,0,0,0,0,0,-1,1266,1562,0,0
49,-538,0,0,0,0,0,0,0,0,0,-1,1273,1562,0,0
56,-538,0,0,0,0,0,0,0,0,0,-1,1280,1562,0,0
63,-538,0,0,0,0,0,0,0,0,0,-1,1287,1562,0,0
70,-538,0,0,0,0,0,0,0,0,0,-1,1294,1562,0,0
77,-538,0,0,0,0,0,0,0,0,0,-1,1301,1562,0,0
84,-538,0,0,0,0,0,0,0,0,0,-1,1308,1562,0,0
91,-538,0,0,0,0,0,0,0,0,0,-1,1315,1562,0,0
98,-538,0,0,0,0,0,0,0,0,0,-1,1322,1562,0,0
105,-538,0,0,0,0,0,0,0,0,0,-1,1329,1562,0,0
112,-538,0,0,0,0,0,0,0,0,0,-1,1336,1562,0,0
119,-538,0,0,0,0,0,0,0,0,0,-1,1343,1562,0,0
126,-538,0,0,0,0,0,0,0,0,0,-1,1350,1562,0,0
133,-538,0,0,0,0,0,0,0,0,0,-1,1357,1562,0,0
140,-538,0,0,0,0,0,0,0,0,0,-1,1364,1562,0,0
147,-538,0,0,0,0,0,0,0,0,0,-1,1371,1562,0,0
154,-538,0,0,0,0,0,0,0,0,0,-1,1378,1562,0,0
161,-538,0,0,0,0,0,0,0,0,0,-1,1385,1562,0,0
168,-538,0,0,0,0,0,0,0,0,0,-1,1392,1562,0,0
175,-538,0,0,0,0,0,0,0,0,0,-1,1399,1562,0,0
182,-538,0,0,0,0,0,0,0,0,0,-1,1406,1562,0,0
189,-538,0,0,0,0,0,0,0,0,0,-1,1413,1562,0,0
196,-538,0,0,0,0,0,0,0,0,0,-1,1420,1562,0,0
203,-538,0,0,0,0,0,0,0,0,0,-1,1427,1562,0,0
210,-538,0,0,0,0,0,0,0,0,0,-1,1434,1562,0,0
217,-538,0,0,0,0,0,0,0,0,0,-1,1441,1562,0,0
224,-538,0,0,0,0,0,0,0,0,0,-1,1448,1562,0,0
231,-538,0,0,0,0,0,0,0,0,0,-1,1455,1562,0,0
238,-538,0,0,0,0,0,0,0,0,0,-1,1462,1562,0,0
245,-538,0,0,0,0,0,0,0,0,0,-1,1469,1562,0,0
252,-538,0,0,0,0,0,0,0,0,0,-1,1476,1562,0,0
259,-538,0,0,0,0,0,0,0,0,0,-1,1483,1562,0,0
266,-538,0,0,0,0,0,0,0,0,0,-1,1490,1562,0,0
273,-538,0,0,0,0,0,0,0,0,0,-1,1497,1562,0,0
280,-538,0,0,0,0,0,0,0,0,0,-1,1504,1562,0,0
287,-538,0,0,0,0,0,0,0,0,0,-1,1511,1562,0,0
294,-538,0,0,0,0,0,0,0,0,0,-1,1518,1562,0,0
301,-538,0,0,0,0,0,0,0,0,0,-1,1525,1562,0,0
308,-538,0,0,0,0,0,0,0,0,0,-1,1532,1562,0,0
315,-538,0,0,0,0,0,0,0,0,0,-1,1539,1562,0,0
322,-538,0,0,0,0,0,0,0,0,0,-1,1546,1562,0,0
329,-538,0,0,0,0,0,0,0,0,0,-1,1553,1562,0,0
336,-538,0,0,0,0,0,0,0,0,0,-1,1560,1562,0,0
343,-538,0,0,0,0,0,0,0,0,0,-1,1567,1562,0,0
350,-538,0,0,0,0,0,0,0,0,0,-1,1574,1562,0,0
357,-538,0,0,0,0,0,0,0,0,0,-1,1581,1562,0,0
364,-538,0,0,0,0,0,0,0,0,0,-1,1588,1562,0,0
371,-538,0,0,0,0,0,0,0,0,0,-1,1595,1562,0,0
378,-538,9.65479,5.82434,0,0,0,0,0,0,0,-1,1602,1562,9.6548,-5.82439
385,-538,10.5449,7.9502,0,0,0,0,0,0,0,-1,1609,1562,10.5449,-7.95014
392,-538,8.20361,7.07214,0,0,0,0,0,0,0,-1,1616,1562,8.20362,-7.07211
399,-538,7.85425,4.70508,0,0,0,0,0,0,0,-1,1623,1562,7.85425,-4.70512
406,-538,7.77734,4.96094,0,0,0,0,0,0,0,-1,1630,1562,7.77729,-4.96097
413,-538,13.0446,13.1765,0,0,0,0,0,0,0,-1,1637,1562,13.0446,-13.1765
420,-538,9.96216,12.7653,0,0,0,0,0,0,0,-1,1644,1562,9.96221,-12.7653
427,-538,10.1732,14.5863,0,0,0,0,0,0,0,-1,1651,1562,10.1732,-14.5863
434,-538,9.64331,14.7745,0,0,0,0,0,0,0,-1,1658,1562,9.64326,-14.7746
441,-538,11.5039,20.5195,0,0,0,0,0,0,0,-1,1665,1562,11.5039,-20.5195
448,-538,12.8766,22.4932,0,0,0,0,0,0,0,-1,1672,1562,12.8766,-22.4932
455,-538,12.5693,17.4128,0,0,0,0,0,0,0,-1,1679,1562,12.5694,-17.4128
462,-538,12.1389,17.017,0,0,0,0,0,0,0,-1,1686,1562,12.1389,-17.017
469,-538,14.3802,16.6945,0,0,0,0,0,0,0,-1,1693,1562,14.3803,-16.6945
476,-538,13.724,19.0608,0,0,0,0,0,0,0,-1,1700,1562,13.724,-19.0608
483,-538,15.6787,23.2842,0,0,0,0,0,0,0,-1,1707,1562,15.6787,-23.2841
490,-538,16.3032,23.2906,0,0,0,0,0,0,0,-1,1714,1562,16.3033,-23.2907
497,-538,16.4685,22.7456,0,0,0,0,0,0,0,-1,1721,1562,16.4686,-22.7456
504,-538,16.4926,22.2924,0.00516755,0.00606229,-0.00453026,0.0101672,0.00106263,-0.834615,0.00645316,0.0149514,1728,1562,16.4925,-22.2923
511,-538,16.4613,21.8792,0.00423842,0.00529348,-0.0039817,0.00878244,0.000749458,-0.851259,0.00562182,0.0101757,1735,1562,16.4613,-21.8792
518,-538,16.4617,21.4622,0.00328698,0.00376377,-0.00288064,0.00641586,0.000634879,-0.826683,0.00408211,0.0107961,1742,1562,16.4617,-21.4622
525,-538,16.4574,21.0156,0.00240186,0.00227826,-0.00172789,0.00406905,0.000611061,-0.767523,0.0025337,0.0119009,1749,1562,16.4573,-21.0156
532,-538,16.4569,20.578,0.00171325,0.000808024,-0.000540409,0.00196555,0.000555726,-0.43679,0.00116998,0.0133984,1756,1562,16.457,-20.578
539,-538,16.4385,20.1857,0.00125415,-0.000647558,0.000642505,0.00145088,-0.000844282,0.29712,0.00134045,0.0158981,1763,1562,16.4385,-20.1857
546,-538,16.4138,19.7345,0.000869141,-0.00225544,0.00190414,0.00176988,-0.00315618,0.441849,0.00288136,0.0167221,1770,1562,16.4138,-19.7345
553,-538,16.4362,19.257,0.000651896,-0.00384648,0.00316434,0.00228496,-0.00547954,0.476432,0.00460758,0.0259667,1777,1562,16.4361,-19.257
560,-538,16.3934,18.8467,0.000712228,-0.00529034,0.00426557,0.00292658,-0.00750469,0.478827,0.00621283,0.0276946,1784,1562,16.3934,-18.8467
567,-538,16.3186,18.4406,0.00174153,-0.00682897,0.00496847,0.00401745,-0.0091049,0.429548,0.00776367,0.0211648,1791,1562,16.3187,-18.4406
574,-538,16.3398,17.9417,0.00302199,-0.00801782,0.00537307,0.00520528,-0.0102011,0.38596,0.00904943,0.0225311,1798,1562,16.3398,-17.9417
581,-538,16.4142,17.4563,0.00535352,-0.00895549,0.00511471,0.00699374,-0.0105957,0.310326,0.010226,0.0305987,1805,1562,16.4141,-17.4563
588,-538,16.6467,16.9468,0,0,0,0,0,0,0,-1,1812,1562,16.6467,-16.9468
595,-538,15.9808,16.0894,0,0,0,0,0,0,0,-1,1819,1562,15.9808,-16.0893
602,-538,10.314,8.94238,0,0,0,0,0,0,0,-1,1826,1562,10.314,-8.94238
609,-538,10.1046,7.05713,0,0,0,0,0,0,0,-1,1833,1562,10.1046,-7.05719
616,-538,9.92249,5.43506,0,0,0,0,0,0,0,-1,1840,1562,9.92254,-5.43507
623,-538,11.1711,4.31604,0,0,0,0,0,0,0,-1,1847,1562,11.1711,-4.316
630,-538,12.6112,2.61633,0,0,0,0,0,0,0,-1,1854,1562,12.6112,-2.61637
637,-538,0,0,0,0,0,0,0,0,0,-1,1861,1562,0,0
644,-538,0,0,0,0,0,0,0,0,0,-1,1868,1562,0,0
651,-538,0,0,0,0,0,0,0,0,0,-1,1875,1562,0,0
658,-538,0,0,0,0,0,0,0,0,0,-1,1882,1562,0,0
665,-538,0,0,0,0,0,0,0,0,0,-1,1889,1562,0,0
672,-538,0,0,0,0,0,0,0,0,0,-1,1896,1562,0,0
679,-538,0,0,0,0,0,0,0,0,0,-1,1903,1562,0,0
686,-538,0,0,0,0,0,0,0,0,0,-1,1910,1562,0,0
693,-538,0,0,0,0,0,0,0,0,0,-1,1917,1562,0,0
700,-538,0,0,0,0,0,0,0,0,0,-1,1924,1562,0,0
707,-538,0,0,0,0,0,0,0,0,0,-1,1931,1562,0,0
714,-538,0,0,0,0,0,0,0,0,0,-1,1938,1562,0,0
721,-538,0,0,0,0,0,0,0,0,0,-1,1945,1562,0,0
728,-538,0,0,0,0,0,0,0,0,0,-1,1952,1562,0,0
735,-538,0,0,0,0,0,0,0,0,0,-1,1959,1562,0,0
742,-538,0,0,0,0,0,0,0,0,0,-1,1966,1562,0,0
749,-538,0,0,0,0,0,0,0,0,0,-1,1973,1562,0,0
756,-538,0,0,0,0,0,0,0,0,0,-1,1980,1562,0,0
763,-538,0,0,0,0,0,0,0,0,0,-1,1987,1562,0,0
770,-538,0,0,0,0,0,0,0,0,0,-1,1994,1562,0,0
777,-538,0,0,0,0,0,0,0,0,0,-1,2001,1562,0,0
784,-538,0,0,0,0,0,0,0,0,0,-1,2008,1562,0,0
791,-538,0,0,0,0,0,0,0,0,0,-1,2015,1562,0,0
798,-538,0,0,0,0,0,0,0,0,0,-1,2022,1562,0,0
805,-538,0,0,0,0,0,0,0,0,0,-1,2029,1562,0,0
812,-538,0,0,0,0,0,0,0,0,0,-1,2036,1562,0,0
-700,-545,0,0,0,0,0,0,0,0,0,-1,524,1569,0,0
-693,-545,0,0,0,0,0,0,0,0,0,-1,531,1569,0,0
-686,-545,0,0,0,0,0,0,0,0,0,-1,538,1569,0,0
-679,-545,0,0,0,0,0,0,0,0,0,-1,545,1569,0,0
-672,-545,0,0,0,0,0,0,0,0,0,-1,552,1569,0,0
-665,-545,0,0,0,0,0,0,0,0,0,-1,559,1569,0,0
-658,-545,0,0,0,0,0,0,0,0,0,-1,566,1569,0,0
-651,-545,0,0,0,0,0,0,0,0,0,-1,573,1569,0,0
-644,-545,0,0,0,0,0,0,0,0,0,-1,580,1569,0,0
-637,-545,0,0,0,0,0,0,0,0,0,-1,587,1569,0,0
-630,-545,0,0,0,0,0,0,0,0,0,-1,594,1569,0,0
-623,-545,0,0,0,0,0,0,0,0,0,-1,601,1569,0,0
-616,-545,0,0,0,0,0,0,0,0,0,-1,608,1569,0,0
-609,-545,0,0,0,0,0,0,0,0,0,-1,615,1569,0,0
-602,-545,0,0,0,0,0,0,0,0,0,-1,622,1569,0,0
-595,-545,0,0,0,0,0,0,0,0,0,-1,629,1569,0,0
-588,-545,0,0,0,0,0,0,0,0,0,-1,636,1569,0,0
-581,-545,0,0,0,0,0,0,0,0,0,-1,643,1569,0,0
-574,-545,0,0,0,0,0,0,0,0,0,-1,650,1569,0,0
-567,-545,0,0,0,0,0,0,0,0,0,-1,657,1569,0,0
-560,-545,0,0,0,0,0,0,0,0,0,-1,664,1569,0,0
-553,-545,0,0,0,0,0,0,0,0,0,-1,671,1569,0,0
-546,-545,0,0,0,0,0,0,0,0,0,-1,678,1569,0,0
-539,-545,0,0,0,0,0,0,0,0,0,-1,685,1569,0,0
-532,-545,0,0,0,0,0,0,0,0,0,-1,692,1569,0,0
-525,-545,0,0,0,0,0,0,0,0,0,-1,699,1569,0,0
-518,-545,0,0,0,0,0,0,0,0,0,-1,706,1569,0,0
-511,-545,0,0,0,0,0,0,0,0,0,-1,713,1569,0,0
-504,-545,-3.55237,-2.5354,0,0,0,0,0,0,0,-1,720,1569,-3.55236,2.53545
-497,-545,2.26575,5.69214,0,0,0,0,0,0,0,-1,727,1569,2.26573,-5.6922
-490,-545,-2.17334,7.81396,0,0,0,0,0,0,0,-1,734,1569,-2.17334,-7.81399
-483,-545,-1.88336,5.8446,0,0,0,0,0,0,0,-1,741,1569,-1.88334,-5.84466
-476,-545,-1.13147,6.5741,0,0,0,0,0,0,0,-1,748,1569,-1.13149,-6.57405
-469,-545,-1.47662,10.9404,0,0,0,0,0,0,0,-1,755,1569,-1.47659,-10.9405
-462,-545,-1.60638,15.0992,0,0,0,0,0,0,0,-1,762,1569,-1.60637,-15.0993
-455,-545,-1.6546,15.6412,0.0143619,0.00971674,0.0105349,0.0228272,0.00125147,0.6769,0.0148186,0.0455106,769,1569,-1.65461,-15.6412
-448,-545,-0.846436,15.9689,0.0104681,0.00814201,0.0076221,0.0170154,0.00159474,0.709687,0.0108511,0.0305959,776,1569,-0.846442,-15.9688
-441,-545,-0.90918,16.681,0.00711039,0.0066766,0.00540401,0.0123019,0.00148513,0.765341,0.00775375,0.0258103,783,1569,-0.909164,-16.681
-434,-545,-1.12115,17.0726,0.00455666,0.00531037,0.00380321,0.00875535,0.00111168,0.834781,0.00550389,0.0228396,790,1569,-1.12114,-17.0726
-427,-545,-1.09454,17.5493,0.00304751,0.0042947,0.00287126,0.0066093,0.000732911,0.892331,0.00418335,0.0193871,797,1569,-1.09452,-17.5493
-420,-545,-1.08191,18.03,0.00188862,0.00371255,0.00197495,0.00497593,0.000625243,1.00169,0.00312976,0.0236692,804,1569,-1.08192,-18.03
-413,-545,-1.10144,18.5175,0.00120145,0.00325398,0.00155797,0.00409332,0.000362112,1.07664,0.00261654,0.0223369,811,1569,-1.10145,-18.5174
-406,-545,-1.10376,18.9725,0.000871847,0.00316102,0.00146926,0.0038789,0.000153962,1.11631,0.00253617,0.0172266,818,1569,-1.10377,-18.9725
-399,-545,-1.10101,19.4159,0.000736463,0.00348164,0.00158521,0.00420593,1.21777e-05,1.14222,0.0027999,0.0111996,825,1569,-1.10103,-19.4159
-392,-545,-1.11206,19.8636,0.00135792,0.00399206,0.00179333,0.00490001,0.000449976,1.10213,0.00312749,0.0119163,832,1569,-1.11207,-19.8637
-385,-545,-1.13556,20.3314,0.00252034,0.00525675,0.00210659,0.00640045,0.00137663,1.07341,0.00389015,0.0107368,839,1569,-1.13555,-20.3315
-378,-545,-1.17108,20.8002,0.00373541,0.00680113,0.0024362,0.00814659,0.00238995,1.06621,0.00483546,0.0117655,846,1569,-1.17107,-20.8002
-371,-545,-1.17517,21.283,0.00482827,0.00850916,0.00260983,0.00986222,0.00347522,1.0925,0.00577609,0.0143527,853,1569,-1.17519,-21.2829
-364,-545,-1.17108,21.7123,0.00602411,0.0104048,0.00268732,0.0116813,0.00474757,1.12733,0.00678348,0.0106695,860,1569,-1.17107,-21.7123
-357,-545,-1.10272,22.2581,0.00731697,0.0126738,0.00269296,0.0137935,0.00619723,1.17674,0.00797732,0.018114,867,1569,-1.10271,-22.2581
-350,-545,-1.06335,22.7639,0.00879171,0.0151795,0.00268604,0.0161589,0.00781239,1.22118,0.00933102,0.0261689,874,1569,-1.06333,-22.7639
-343,-545,-1.10559,23.1112,0.0103174,0.0180175,0.00252805,0.0187733,0.00956155,1.28029,0.0108394,0.0373471,881,1569,-1.10562,-23.1112
-336,-545,-1.12671,23.2385,0.0119193,0.0214699,0.00270009,0.0221804,0.0112088,1.31349,0.0128061,0.0482862,888,1569,-1.12668,-23.2385
-329,-545,-1.10333,23.3622,0,0,0,0,0,0,0,-1,895,1569,-1.10331,-23.3622
-322,-545,-0.992737,21.5034,0,0,0,0,0,0,0,-1,902,1569,-0.992735,-21.5034
-315,-545,-1.29688,21.5935,0,0,0,0,0,0,0,-1,909,1569,-1.2969,-21.5935
-308,-545,-1.54358,21.4457,0,0,0,0,0,0,0,-1,916,1569,-1.54357,-21.4457
-301,-545,1.52191,17.5009,0,0,0,0,0,0,0,-1,923,1569,1.52192,-17.5008
-294,-545,-2.69287,8.42102,0,0,0,0,0,0,0,-1,930,1569,-2.69287,-8.42097
-287,-545,-3.47784,9.96021,0,0,0,0,0,0,0,-1,937,1569,-3.47785,-9.96021
-280,-545,-3.7879,10.5448,0,0,0,0,0,0,0,-1,944,1569,-3.78793,-10.5448
-273,-545,-5.10333,12.864,0,0,0,0,0,0,0,-1,951,1569,-5.10331,-12.864
-266,-545,-5.78955,13.3704,0,0,0,0,0,0,0,-1,958,1569,-5.78952,-13.3703
-259,-545,-6.32184,13.8101,0,0,0,0,0,0,0,-1,965,1569,-6.32182,-13.81
-252,-545,0.369263,7.54053,0,0,0,0,0,0,0,-1,972,1569,0.369276,-7.54056
-245,-545,-0.236633,6.65564,0,0,0,0,0,0,0,-1,979,1569,-0.236605,-6.65566
-238,-545,0,0,0,0,0,0,0,0,0,-1,986,1569,0,0
-231,-545,0,0,0,0,0,0,0,0,0,-1,993,1569,0,0
-224,-545,0,0,0,0,0,0,0,0,0,-1,1000,1569,0,0
-217,-545,0,0,0,0,0,0,0,0,0,-1,1007,1569,0,0
-210,-545,0,0,0,0,0,0,0,0,0,-1,1014,1569,0,0
-203,-545,0,0,0,0,0,0,0,0,0,-1,1021,1569,0,0
-196,-545,0,0,0,0,0,0,0,0,0,-1,1028,1569,0,0
-189,-545,0,0,0,0,0,0,0,0,0,-1,1035,1569,0,0
-182,-545,0,0,0,0,0,0,0,0,0,-1,1042,1569,0,0
-175,-545,0,0,0,0,0,0,0,0,0,-1,1049,1569,0,0
-168,-545,0,0,0,0,0,0,0,0,0,-1,1056,1569,0,0
-161,-545,0,0,0,0,0,0,0,0,0,-1,1063,1569,0,0
-154,-545,0,0,0,0,0,0,0,0,0,-1,1070,1569,0,0
-147,-545,0,0,0,0,0,0,0,0,0,-1,1077,1569,0,0
-140,-545,0,0,0,0,0,0,0,0,0,-1,1084,1569,0,0
-133,-545,0,0,0,0,0,0,0,0,0,-1,1091,1569,0,0
-126,-545,0,0,0,0,0,0,0,0,0,-1,1098,1569,0,0
-119,-545,0,0,0,0,0,0,0,0,0,-1,1105,1569,0,0
-112,-545,0,0,0,0,0,0,0,0,0,-1,1112,1569,0,0
-105,-545,0,0,0,0,0,0,0,0,0,-1,1119,1569,0,0
-98,-545,0,0,0,0,0,0,0,0,0,-1,1126,1569,0,0
-91,-545,0,0,0,0,0,0,0,0,0,-1,1133,1569,0,0
-84,-545,0,0,0,0,0,0,0,0,0,-1,1140,1569,0,0
-77,-545,0,0,0,0,0,0,0,0,0,-1,1147,1569,0,0
-70,-545,0,0,0,0,0,0,0,0,0,-1,1154,1569,0,0
-63,-545,0,0,0,0,0,0,0,0,0,-1,1161,1569,0,0
-56,-545,0,0,0,0,0,0,0,0,0,-1,1168,1569,0,0
-49,-545,0,0,0,0,0,0,0,0,0,-1,1175,1569,0,0
-42,-545,0,0,0,0,0,0,0,0,0,-1,1182,1569,0,0
-35,-545,0,0,0,0,0,0,0,0,0,-1,1189,1569,0,0
-28,-545,0,0,0,0,0,0,0,0,0,-1,1196,1569,0,0
-21,-545,0,0,0,0,0,0,0,0,0,-1,1203,1569,0,0
-14,-545,0,0,0,0,0,0,0,0,0,-1,1210,1569,0,0
-7,-545,0,0,0,0,0,0,0,0,0,-1,1217,1569,0,0
0,-545,0,0,0,0,0,0,0,0,0,-1,1224,1569,0,0
7,-545,0,0,0,0,0,0,0,0,0,-1,1231,1569,0,0
14,-545,0,0,0,0,0,0,0,0,0,-1,1238,1569,0,0
21,-545,0,0,0,0,0,0,0,0,0,-1,1245,1569,0,0
28,-545,0,0,0,0,0,0,0,0,0,-1,1252,1569,0,0
35,-545,0,0,0,0,0,0,0,0,0,-1,1259,1569,0,0
42,-545,0,0,0,0,0,0,0,0,0,-1,1266,1569,0,0
49,-545,0,0,0,0,0,0,0,0,0,-1,1273,1569,0,0
56,-545,0,0,0,0,0,0,0,0,0,-1,1280,1569,0,0
63,-545,0,0,0,0,0,0,0,0,0,-1,1287,1569,0,0
70,-545,0,0,0,0,0,0,0,0,0,-1,1294,1569,0,0
77,-545,0,0,0,0,0,0,0,0,0,-1,1301,1569,0,0
84,-545,0,0,0,0,0,0,0,0,0,-1,1308,1569,0,0
91,-545,0,0,0,0,0,0,0,0,0,-1,1315,1569,0,0
98,-545,0,0,0,0,0,0,0,0,0,-1,1322,1569,0,0
105,-545,0,0,0,0,0,0,0,0,0,-1,1329,1569,0,0
112,-545,0,0,0,0,0,0,0,0,0,-1,1336,1569,0,0
119,-545,0,0,0,0,0,0,0,0,0,-1,1343,1569,0,0
126,-545,0,0,0,0,0,0,0,0,0,-1,1350,1569,0,0
133,-545,0,0,0,0,0,0,0,0,0,-1,1357,1569,0,0
140,-545,0,0,0,0,0,0,0,0,0,-1,1364,1569,0,0
147,-545,0,0,0,0,0,0,0,0,0,-1,1371,1569,0,0
154,-545,0,0,0,0,0,0,0,0,0,-1,1378,1569,0,0
161,-545,0,0,0,0,0,0,0,0,0,-1,1385,1569,0,0
168,-545,0,0,0,0,0,0,0,0,0,-1,1392,1569,0,0
175,-545,0,0,0,0,0,0,0,0,0,-1,1399,1569,0,0
182,-545,0,0,0,0,0,0,0,0,0,-1,1406,1569,0,0
189,-545,0,0,0,0,0,0,0,0,0,-1,1413,1569,0,0
196,-545,0,0,0,0,0,0,0,0,0,-1,1420,1569,0,0
203,-545,0,0,0,0,0,0,0,0,0,-1,1427,1569,0,0
210,-545,0,0,0,0,0,0,0,0,0,-1,1434,1569,0,0
217,-545,0,0,0,0,0,0,0,0,0,-1,1441,1569,0,0
224,-545,0,0,0,0,0,0,0,0,0,-1,1448,1569,0,0
231,-545,0,0,0,0,0,0,0,0,0,-1,1455,1569,0,0
238,-545,0,0,0,0,0,0,0,0,0,-1,1462,1569,0,0
245,-545,0,0,0,0,0,0,0,0,0,-1,1469,1569,0,0
252,-545,0,0,0,0,0,0,0,0,0,-1,1476,1569,0,0
259,-545,0,0,0,0,0,0,0,0,0,-1,1483,1569,0,0
266,-545,0,0,0,0,0,0,0,0,0,-1,1490,1569,0,0
273,-545,0,0,0,0,0,0,0,0,0,-1,1497,1569,0,0
280,-545,0,0,0,0,0,0,0,0,0,-1,1504,1569,0,0
287,-545,0,0,0,0,0,0,0,0,0,-1,1511,1569,0,0
294,-545,0,0,0,0,0,0,0,0,0,-1,1518,1569,0,0
301,-545,0,0,0,0,0,0,0,0,0,-1,1525,1569,0,0
308,-545,0,0,0,0,0,0,0,0,0,-1,1532,1569,0,0
315,-545,0,0,0,0,0,0,0,0,0,-1,1539,1569,0,0
322,-545,0,0,0,0,0,0,0,0,0,-1,1546,1569,0,0
329,-545,0,0,0,0,0,0,0,0,0,-1,1553,1569,0,0
336,-545,0,0,0,0,0,0,0,0,0,-1,1560,1569,0,0
343,-545,0,0,0,0,0,0,0,0,0,-1,1567,1569,0,0
350,-545,0,0,0,0,0,0,0,0,0,-1,1574,1569,0,0
357,-545,0,0,0,0,0,0,0,0,0,-1,1581,1569,0,0
364,-545,7.19495,4.88098,0,0,0,0,0,0,0,-1,1588,1569,7.19497,-4.88095
371,-545,7.82324,3.84302,0,0,0,0,0,0,0,-1,1595,1569,7.82324,-3.84307
378,-545,7.65674,5.52673,0,0,0,0,0,0,0,-1,1602,1569,7.6567,-5.52667
385,-545,8.58447,1.16125,0,0,0,0,0,0,0,-1,1609,1569,8.5845,-1.1612
392,-545,12.5654,3.89526,0,0,0,0,0,0,0,-1,1616,1569,12.5655,-3.89532
399,-545,11.5869,5.6333,0,0,0,0,0,0,0,-1,1623,1569,11.5869,-5.63326
406,-545,11.234,6.36414,0,0,0,0,0,0,0,-1,1630,1569,11.234,-6.3641
413,-545,12.1521,13.4817,0,0,0,0,0,0,0,-1,1637,1569,12.1521,-13.4817
420,-545,11.1954,13.6047,0,0,0,0,0,0,0,-1,1644,1569,11.1954,-13.6047
427,-545,9.61072,14.9135,0,0,0,0,0,0,0,-1,1651,1569,9.61076,-14.9134
434,-545,13.1598,23.9921,0,0,0,0,0,0,0,-1,1658,1569,13.1598,-23.992
441,-545,12.2833,22.2238,0,0,0,0,0,0,0,-1,1665,1569,12.2833,-22.2237
448,-545,13.0082,21.941,0,0,0,0,0,0,0,-1,1672,1569,13.0082,-21.941
455,-545,13.733,21.6583,0,0,0,0,0,0,0,-1,1679,1569,13.733,-21.6583
462,-545,12.449,20.7413,0,0,0,0,0,0,0,-1,1686,1569,12.4489,-20.7413
469,-545,12.7837,17.7919,0,0,0,0,0,0,0,-1,1693,1569,12.7837,-17.7919
476,-545,15.3746,23.8733,0,0,0,0,0,0,0,-1,1700,1569,15.3746,-23.8733
483,-545,15.9907,23.6675,0,0,0,0,0,0,0,-1,1707,1569,15.9907,-23.6675
490,-545,15.9949,23.1969,0.00594497,0.00830147,-0.00521125,0.012466,0.00178044,-0.896578,0.00778535,0.0248666,1714,1569,15.9949,-23.1969
497,-545,16.0182,22.7792,0.00495298,0.00634165,-0.00404872,0.00975514,0.00153949,-0.87032,0.00605585,0.0216075,1721,1569,16.0182,-22.7792
504,-545,16.0991,22.3339,0.00413673,0.00476651,-0.00341075,0.00787687,0.00102637,-0.83143,0.00494476,0.0157299,1728,1569,16.0991,-22.3339
511,-545,16.071,21.9055,0.00327767,0.00375931,-0.00272262,0.00625174,0.000785241,-0.829509,0.0039323,0.0113039,1735,1569,16.071,-21.9055
518,-545,16.0559,21.4696,0.00238343,0.00221847,-0.00162189,0.00392494,0.000676968,-0.759992,0.0024227,0.0124446,1742,1569,16.0559,-21.4696
525,-545,16.0302,21.0162,0.00156645,0.000683801,-0.000424097,0.00173719,0.000513059,-0.382748,0.00103059,0.0138024,1749,1569,16.0302,-21.0163
532,-545,16.01,20.5844,0.000934693,-0.000903113,0.000868384,0.0012801,-0.00124852,0.37857,0.00145993,0.0145726,1756,1569,16.01,-20.5843
539,-545,15.9767,20.2024,0.000493261,-0.00256124,0.00224213,0.00167887,-0.00374686,0.486413,0.0032075,0.016945,1763,1569,15.9767,-20.2024
546,-545,15.9624,19.7206,9.40867e-05,-0.00448491,0.00380468,0.00224501,-0.00663584,0.514542,0.00533216,0.0186213,1770,1569,15.9624,-19.7205
553,-545,15.9945,19.251,-0.000146756,-0.00649173,0.00544488,0.00298246,-0.00962094,0.521614,0.0076056,0.0267567,1777,1569,15.9945,-19.251
560,-545,15.9971,18.8158,-0.000119441,-0.00843684,0.00700167,0.00386546,-0.0124217,0.517416,0.00982642,0.0266543,1784,1569,15.997,-18.8158
567,-545,15.9923,18.3058,0,0,0,0,0,0,0,-1,1791,1569,15.9923,-18.3058
574,-545,16.054,17.7865,0,0,0,0,0,0,0,-1,1798,1569,16.054,-17.7865
581,-545,16.0634,17.3113,0,0,0,0,0,0,0,-1,1805,1569,16.0634,-17.3112
588,-545,15.4786,16.7035,0,0,0,0,0,0,0,-1,1812,1569,15.4786,-16.7035
595,-545,10.2859,9.11218,0,0,0,0,0,0,0,-1,1819,1569,10.2858,-9.11215
602,-545,8.82117,6.32214,0,0,0,0,0,0,0,-1,1826,1569,8.82121,-6.32217
609,-545,10.2406,5.22351,0,0,0,0,0,0,0,-1,1833,1569,10.2406,-5.22353
616,-545,11.701,3.93188,0,0,0,0,0,0,0,-1,1840,1569,11.701,-3.93191
623,-545,13.2139,2.32043,0,0,0,0,0,0,0,-1,1847,1569,13.2139,-2.32042
630,-545,0,0,0,0,0,0,0,0,0,-1,1854,1569,0,0
637,-545,0,0,0,0,0,0,0,0,0,-1,1861,1569,0,0
644,-545,0,0,0,0,0,0,0,0,0,-1,1868,1569,0,0
651,-545,0,0,0,0,0,0,0,0,0,-1,1875,1569,0,0
658,-545,0,0,0,0,0,0,0,0,0,-1,1882,1569,0,0
665,-545,0,0,0,0,0,0,0,0,0,-1,1889,1569,0,0
672,-545,0,0,0,0,0,0,0,0,0,-1,1896,1569,0,0
679,-545,0,0,0,0,0,0,0,0,0,-1,1903,1569,0,0
686,-545,0,0,0,0,0,0,0,0,0,-1,1910,1569,0,0
693,-545,0,0,0,0,0,0,0,0,0,-1,1917,1569,0,0
700,-545,0,0,0,0,0,0,0,0,0,-1,1924,1569,0,0
707,-545,0,0,0,0,0,0,0,0,0,-1,1931,1569,0,0
714,-545,0,0,0,0,0,0,0,0,0,-1,1938,1569,0,0
721,-545,0,0,0,0,0,0,0,0,0,-1,1945,1569,0,0
728,-545,0,0,0,0,0,0,0,0,0,-1,1952,1569,0,0
735,-545,0,0,0,0,0,0,0,0,0,-1,1959,1569,0,0
742,-545,0,0,0,0,0,0,0,0,0,-1,1966,1569,0,0
749,-545,0,0,0,0,0,0,0,0,0,-1,1973,1569,0,0
756,-545,0,0,0,0,0,0,0,0,0,-1,1980,1569,0,0
763,-545,0,0,0,0,0,0,0,0,0,-1,1987,1569,0,0
770,-545,0,0,0,0,0,0,0,0,0,-1,1994,1569,0,0
777,-545,0,0,0,0,0,0,0,0,0,-1,2001,1569,0,0
784,-545,0,0,0,0,0,0,0,0,0,-1,2008,1569,0,0
791,-545,0,0,0,0,0,0,0,0,0,-1,2015,1569,0,0
798,-545,0,0,0,0,0,0,0,0,0,-1,2022,1569,0,0
805,-545,0,0,0,0,0,0,0,0,0,-1,2029,1569,0,0
812,-545,0,0,0,0,0,0,0,0,0,-1,2036,1569,0,0
-700,-552,0,0,0,0,0,0,0,0,0,-1,524,1576,0,0
-693,-552,0,0,0,0,0,0,0,0,0,-1,531,1576,0,0
-686,-552,0,0,0,0,0,0,0,0,0,-1,538,1576,0,0
-679,-552,0,0,0,0,0,0,0,0,0,-1,545,1576,0,0
-672,-552,0,0,0,0,0,0,0,0,0,-1,552,1576,0,0
-665,-552,0,0,0,0,0,0,0,0,0,-1,559,1576,0,0
-658,-552,0,0,0,0,0,0,0,0,0,-1,566,1576,0,0
-651,-552,0,0,0,0,0,0,0,0,0,-1,573,1576,0,0
-644,-552,0,0,0,0,0,0,0,0,0,-1,580,1576,0,0
-637,-552,0,0,0,0,0,0,0,0,0,-1,587,1576,0,0
-630,-552,0,0,0,0,0,0,0,0,0,-1,594,1576,0,0
-623,-552,0,0,0,0,0,0,0,0,0,-1,601,1576,0,0
-616,-552,0,0,0,0,0,0,0,0,0,-1,608,1576,0,0
-609,-552,0,0,0,0,0,0,0,0,0,-1,615,1576,0,0
-602,-552,0,0,0,0,0,0,0,0,0,-1,622,1576,0,0
-595,-552,0,0,0,0,0,0,0,0,0,-1,629,1576,0,0
-588,-552,0,0,0,0,0,0,0,0,0,-1,636,1576,0,0
-581,-552,0,0,0,0,0,0,0,0,0,-1,643,1576,0,0
-574,-552,0,0,0,0,0,0,0,0,0,-1,650,1576,0,0
-567,-552,0,0,0,0,0,0,0,0,0,-1,657,1576,0,0
-560,-552,0,0,0,0,0,0,0,0,0,-1,664,1576,0,0
-553,-552,0,0,0,0,0,0,0,0,0,-1,671,1576,0,0
-546,-552,0,0,0,0,0,0,0,0,0,-1,678,1576,0,0
-539,-552,0,0,0,0,0,0,0,0,0,-1,685,1576,0,0
-532,-552,0,0,0,0,0,0,0,0,0,-1,692,1576,0,0
-525,-552,0,0,0,0,0,0,0,0,0,-1,699,1576,0,0
-518,-552,0,0,0,0,0,0,0,0,0,-1,706,1576,0,0
-511,-552,0,0,0,0,0,0,0,0,0,-1,713,1576,0,0
-504,-552,0,0,0,0,0,0,0,0,0,-1,720,1576,0,0
-497,-552,1.51282,3.96924,0,0,0,0,0,0,0,-1,727,1576,1.5128,-3.96924
-490,-552,-3.82312,6.32104,0,0,0,0,0,0,0,-1,734,1576,-3.82314,-6.3211
-483,-552,-3.50586,6.47986,0,0,0,0,0,0,0,-1,741,1576,-3.50587,-6.47983
-476,-552,-1.95129,4.43054,0,0,0,0,0,0,0,-1,748,1576,-1.95128,-4.43054
-469,-552,-1.40491,7.9895,0,0,0,0,0,0,0,-1,755,1576,-1.40491,-7.98947
-462,-552,-1.99573,11.4446,0,0,0,0,0,0,0,-1,762,1576,-1.99571,-11.4445
-455,-552,-1.33844,15.5005,0,0,0,0,0,0,0,-1,769,1576,-1.33843,-15.5005
-448,-552,-0.579712,15.5771,0.0136218,0.0124311,0.00989197,0.0229363,0.00311658,0.755342,0.0143652,0.0476039,776,1576,-0.579739,-15.5771
-441,-552,-0.336243,16.5356,0.00862305,0.00984902,0.00680846,0.016072,0.00240004,0.830293,0.010011,0.0423228,783,1576,-0.336242,-16.5357
-434,-552,-0.463989,17.1877,0.00501141,0.00750802,0.00462349,0.0110488,0.00147067,0.91725,0.00692785,0.0329273,790,1576,-0.463972,-17.1877
-427,-552,-0.883301,17.5261,0,0,0,0,0,0,0,-1,797,1576,-0.883323,-17.5261
-420,-552,-0.607544,18.0521,0.00120841,0.00456378,0.00201589,0.00550877,0.000263414,1.13244,0.00358794,0.0214484,804,1576,-0.607571,-18.0521
-413,-552,-0.603943,18.5121,0.000250551,0.00365615,0.00136093,0.00413319,-0.000226481,1.23366,0.00283397,0.0167655,811,1576,-0.60394,-18.5121
-406,-552,-0.641785,18.979,-0.000244108,0.00313564,0.00105128,0.00343596,-0.000544424,1.29254,0.00249202,0.013454,818,1576,-0.641793,-18.979
-399,-552,-0.652527,19.4257,-0.000598434,0.00301465,0.00105043,0.00329785,-0.000881629,1.30746,0.00254389,0.0134912,825,1576,-0.652522,-19.4257
-392,-552,-0.667908,19.8876,-0.000148383,0.00306539,0.00113209,0.00342414,-0.00050713,1.26392,0.00246923,0.0150362,832,1576,-0.667885,-19.8875
-385,-552,-0.672485,20.3594,0.000971706,0.00389292,0.00136002,0.00442806,0.000436562,1.19592,0.00281782,0.0142871,839,1576,-0.672461,-20.3594
-378,-552,-0.692139,20.8169,0.00218822,0.00503606,0.00163829,0.00578275,0.00144154,1.14315,0.00347577,0.0161064,846,1576,-0.692133,-20.8169
-371,-552,-0.700745,21.324,0.00323786,0.00626873,0.00175185,0.00706965,0.00243694,1.14198,0.00414677,0.0210355,853,1576,-0.700751,-21.3239
-364,-552,-0.694153,21.7635,0.00432947,0.00769164,0.0018151,0.00848455,0.00353657,1.15894,0.0049211,0.0162919,860,1576,-0.694165,-21.7635
-357,-552,-0.701965,22.1641,0.00548651,0.00937954,0.00184431,0.0101145,0.00475153,1.19158,0.00584317,0.0110892,867,1576,-0.701938,-22.1641
-350,-552,-0.689697,22.6459,0.00677603,0.0111927,0.00189178,0.0118922,0.00607652,1.21662,0.00686654,0.0124661,874,1576,-0.689702,-22.6458
-343,-552,-0.702881,23.0615,0.00807253,0.0132605,0.00191482,0.0138907,0.00744235,1.25285,0.00802666,0.0155842,881,1576,-0.702864,-23.0615
-336,-552,-0.626282,23.3701,0.0093648,0.0158516,0.0022438,0.0165521,0.00866431,1.26819,0.00955986,0.028821,888,1576,-0.626299,-23.3702
-329,-552,-0.440796,23.8334,0,0,0,0,0,0,0,-1,895,1576,-0.44082,-23.8333
-322,-552,-0.509277,23.9327,0,0,0,0,0,0,0,-1,902,1576,-0.509305,-23.9327
-315,-552,0.259827,25.6418,0,0,0,0,0,0,0,-1,909,1576,0.259842,-25.6418
-308,-552,1.48743,24.9044,0,0,0,0,0,0,0,-1,916,1576,1.48745,-24.9045
-301,-552,1.39453,18.4995,0,0,0,0,0,0,0,-1,923,1576,1.3945,-18.4995
-294,-552,0.842163,13.7863,0,0,0,0,0,0,0,-1,930,1576,0.842149,-13.7863
-287,-552,-0.663757,13.3474,0,0,0,0,0,0,0,-1,937,1576,-0.663744,-13.3474
-280,-552,-5.47241,8.96765,0,0,0,0,0,0,0,-1,944,1576,-5.47239,-8.96766
-273,-552,1.64587,10.6685,0,0,0,0,0,0,0,-1,951,1576,1.6459,-10.6685
-266,-552,-1.32678,8.05688,0,0,0,0,0,0,0,-1,958,1576,-1.32677,-8.05683
-259,-552,-5.54321,8.31213,0,0,0,0,0,0,0,-1,965,1576,-5.54324,-8.31214
-252,-552,-1.93445,7.81543,0,0,0,0,0,0,0,-1,972,1576,-1.93445,-7.81546
-245,-552,-2.53613,6.92212,0,0,0,0,0,0,0,-1,979,1576,-2.53614,-6.92216
-238,-552,-6.5365,2.81885,0,0,0,0,0,0,0,-1,986,1576,-6.53649,-2.8188
-231,-552,-4.32239,4.34583,0,0,0,0,0,0,0,-1,993,1576,-4.32239,-4.34587
-224,-552,0,0,0,0,0,0,0,0,0,-1,1000,1576,0,0
-217,-552,0,0,0,0,0,0,0,0,0,-1,1007,1576,0,0
-210,-552,0,0,0,0,0,0,0,0,0,-1,1014,1576,0,0
-203,-552,0,0,0,0,0,0,0,0,0,-1,1021,1576,0,0
-196,-552,0,0,0,0,0,0,0,0,0,-1,1028,1576,0,0
-189,-552,0,0,0,0,0,0,0,0,0,-1,1035,1576,0,0
-182,-552,0,0,0,0,0,0,0,0,0,-1,1042,1576,0,0
-175,-552,0,0,0,0,0,0,0,0,0,-1,1049,1576,0,0
-168,-552,0,0,0,0,0,0,0,0,0,-1,1056,1576,0,0
-161,-552,0,0,0,0,0,0,0,0,0,-1,1063,1576,0,0
-154,-552,0,0,0,0,0,0,0,0,0,-1,1070,1576,0,0
-147,-552,0,0,0,0,0,0,0,0,0,-1,1077,1576,0,0
-140,-552,0,0,0,0,0,0,0,0,0,-1,1084,1576,0,0
-133,-552,0,0,0,0,0,0,0,0,0,-1,1091,1576,0,0
-126,-552,0,0,0,0,0,0,0,0,0,-1,1098,1576,0,0
-119,-552,0,0,0,0,0,0,0,0,0,-1,1105,1576,0,0
-112,-552,0,0,0,0,0,0,0,0,0,-1,1112,1576,0,0
-105,-552,0,0,0,0,0,0,0,0,0,-1,1119,1576,0,0
-98,-552,0,0,0,0,0,0,0,0,0,-1,1126,1576,0,0
-91,-552,0,0,0,0,0,0,0,0,0,-1,1133,1576,0,0
-84,-552,0,0,0,0,0,0,0,0,0,-1,1140,1576,0,0
-77,-552,0,0,0,0,0,0,0,0,0,-1,1147,1576,0,0
-70,-552,0,0,0,0,0,0,0,0,0,-1,1154,1576,0,0
-63,-552,0,0,0,0,0,0,0,0,0,-1,1161,1576,0,0
-56,-552,0,0,0,0,0,0,0,0,0,-1,1168,1576,0,0
-49,-552,0,0,0,0,0,0,0,0,0,-1,1175,1576,0,0
-42,-552,0,0,0,0,0,0,0,0,0,-1,1182,1576,0,0
-35,-552,0,0,0,0,0,0,0,0,0,-1,1189,1576,0,0
-28,-552,0,0,0,0,0,0,0,0,0,-1,1196,1576,0,0
-21,-552,0,0,0,0,0,0,0,0,0,-1,1203,1576,0,0
-14,-552,0,0,0,0,0,0,0,0,0,-1,1210,1576,0,0
-7,-552,0,0,0,0,0,0,0,0,0,-1,1217,1576,0,0
0,-552,0,0,0,0,0,0,0,0,0,-1,1224,1576,0,0
7,-552,0,0,0,0,0,0,0,0,0,-1,1231,1576,0,0
14,-552,0,0,0,0,0,0,0,0,0,-1,1238,1576,0,0
21,-552,0,0,0,0,0,0,0,0,0,-1,1245,1576,0,0
28,-552,0,0,0,0,0,0,0,0,0,-1,1252,1576,0,0
35,-552,0,0,0,0,0,0,0,0,0,-1,1259,1576,0,0
42,-552,0,0,0,0,0,0,0,0,0,-1,1266,1576,0,0
49,-552,0,0,0,0,0,0,0,0,0,-1,1273,1576,0,0
56,-552,0,0,0,0,0,0,0,0,0,-1,1280,1576,0,0
63,-552,0,0,0,0,0,0,0,0,0,-1,1287,1576,0,0
70,-552,0,0,0,0,0,0,0,0,0,-1,1294,1576,0,0
77,-552,0,0,0,0,0,0,0,0,0,-1,1301,1576,0,0
84,-552,0,0,0,0,0,0,0,0,0,-1,1308,1576,0,0
91,-552,0,0,0,0,0,0,0,0,0,-1,1315,1576,0,0
98,-552,0,0,0,0,0,0,0,0,0,-1,1322,1576,0,0
105,-552,0,0,0,0,0,0,0,0,0,-1,1329,1576,0,0
112,-552,0,0,0,0,0,0,0,0,0,-1,1336,1576,0,0
119,-552,0,0,0,0,0,0,0,0,0,-1,1343,1576,0,0
126,-552,0,0,0,0,0,0,0,0,0,-1,1350,1576,0,0
133,-552,0,0,0,0,0,0,0,0,0,-1,1357,1576,0,0
140,-552,0,0,0,0,0,0,0,0,0,-1,1364,1576,0,0
147,-552,0,0,0,0,0,0,0,0,0,-1,1371,1576,0,0
154,-552,0,0,0,0,0,0,0,0,0,-1,1378,1576,0,0
161,-552,0,0,0,0,0,0,0,0,0,-1,1385,1576,0,0
168,-552,0,0,0,0,0,0,0,0,0,-1,1392,1576,0,0
175,-552,0,0,0,0,0,0,0,0,0,-1,1399,1576,0,0
182,-552,0,0,0,0,0,0,0,0,0,-1,1406,1576,0,0
189,-552,0,0,0,0,0,0,0,0,0,-1,1413,1576,0,0
196,-552,0,0,0,0,0,0,0,0,0,-1,1420,1576,0,0
203,-552,0,0,0,0,0,0,0,0,0,-1,1427,1576,0,0
210,-552,0,0,0,0,0,0,0,0,0,-1,1434,1576,0,0
217,-552,0,0,0,0,0,0,0,0,0,-1,1441,1576,0,0
224,-552,0,0,0,0,0,0,0,0,0,-1,1448,1576,0,0
231,-552,0,0,0,0,0,0,0,0,0,-1,1455,1576,0,0
238,-552,0,0,0,0,0,0,0,0,0,-1,1462,1576,0,0
245,-552,0,0,0,0,0,0,0,0,0,-1,1469,1576,0,0
252,-552,0,0,0,0,0,0,0,0,0,-1,1476,1576,0,0
259,-552,0,0,0,0,0,0,0,0,0,-1,1483,1576,0,0
266,-552,0,0,0,0,0,0,0,0,0,-1,1490,1576,0,0
273,-552,0,0,0,0,0,0,0,0,0,-1,1497,1576,0,0
280,-552,0,0,0,0,0,0,0,0,0,-1,1504,1576,0,0
287,-552,0,0,0,0,0,0,0,0,0,-1,1511,1576,0,0
294,-552,0,0,0,0,0,0,0,0,0,-1,1518,1576,0,0
301,-552,0,0,0,0,0,0,0,0,0,-1,1525,1576,0,0
308,-552,0,0,0,0,0,0,0,0,0,-1,1532,1576,0,0
315,-552,0,0,0,0,0,0,0,0,0,-1,1539,1576,0,0
322,-552,0,0,0,0,0,0,0,0,0,-1,1546,1576,0,0
329,-552,0,0,0,0,0,0,0,0,0,-1,1553,1576,0,0
336,-552,0,0,0,0,0,0,0,0,0,-1,1560,1576,0,0
343,-552,0,0,0,0,0,0,0,0,0,-1,1567,1576,0,0
350,-552,4.97876,4.09888,0,0,0,0,0,0,0,-1,1574,1576,4.97875,-4.09883
357,-552,5.18469,4.10706,0,0,0,0,0,0,0,-1,1581,1576,5.1847,-4.10702
364,-552,5.80872,5.07031,0,0,0,0,0,0,0,-1,1588,1576,5.80874,-5.07037
371,-552,7.10657,5.64783,0,0,0,0,0,0,0,-1,1595,1576,7.10651,-5.64786
378,-552,6.44446,4.91492,0,0,0,0,0,0,0,-1,1602,1576,6.44448,-4.91496
385,-552,12.8276,3.16504,0,0,0,0,0,0,0,-1,1609,1576,12.8276,-3.16503
392,-552,12.1301,4.3363,0,0,0,0,0,0,0,-1,1616,1576,12.1302,-4.33631
399,-552,11.3486,5.6012,0,0,0,0,0,0,0,-1,1623,1576,11.3486,-5.60115
406,-552,10.7863,6.42542,0,0,0,0,0,0,0,-1,1630,1576,10.7863,-6.42536
413,-552,8.39307,10.365,0,0,0,0,0,0,0,-1,1637,1576,8.3931,-10.365
420,-552,10.2306,12.7225,0,0,0,0,0,0,0,-1,1644,1576,10.2305,-12.7226
427,-552,9.73267,14.783,0,0,0,0,0,0,0,-1,1651,1576,9.73269,-14.783
434,-552,12.0377,20.1364,0,0,0,0,0,0,0,-1,1658,1576,12.0377,-20.1364
441,-552,12.4963,21.5277,0,0,0,0,0,0,0,-1,1665,1576,12.4964,-21.5277
448,-552,12.9141,21.5482,0,0,0,0,0,0,0,-1,1672,1576,12.9141,-21.5482
455,-552,13.3318,21.5687,0,0,0,0,0,0,0,-1,1679,1576,13.3317,-21.5687
462,-552,12.745,20.5947,0,0,0,0,0,0,0,-1,1686,1576,12.745,-20.5947
469,-552,15.1195,24.7648,0,0,0,0,0,0,0,-1,1693,1576,15.1195,-24.7648
476,-552,15.4739,24.1687,0,0,0,0,0,0,0,-1,1700,1576,15.4738,-24.1687
483,-552,15.6648,23.511,0.00563657,0.00951046,-0.00545313,0.0133604,0.00178661,-0.956048,0.00837518,0.0304733,1707,1576,15.6647,-23.511
490,-552,15.6183,23.1315,0.00486618,0.00700067,-0.00417364,0.0102414,0.00162549,-0.910572,0.00635542,0.0145826,1714,1576,15.6183,-23.1315
497,-552,15.7061,22.7507,0.00399806,0.00520982,-0.00317705,0.00783824,0.00136964,-0.879619,0.00483406,0.0225189,1721,1576,15.7061,-22.7507
504,-552,15.683,22.3472,0.00323392,0.00364936,-0.00245888,0.00590928,0.000974002,-0.827537,0.00365833,0.0243363,1728,1576,15.683,-22.3471
511,-552,15.6375,21.8873,0.00241563,0.00235989,-0.00158705,0.00397506,0.000800469,-0.776619,0.00242761,0.0177367,1735,1576,15.6374,-21.8874
518,-552,15.6405,21.4515,0.00155655,0.000752784,-0.000436849,0.00174826,0.00056108,-0.413531,0.00103071,0.0161683,1742,1576,15.6405,-21.4516
525,-552,15.6136,21.014,0.000771216,-0.000906466,0.000866623,0.00113848,-0.00127373,0.400843,0.00139342,0.0160257,1749,1576,15.6136,-21.014
532,-552,15.6086,20.5786,0.00014865,-0.00270633,0.00234618,0.00146749,-0.00402516,0.512101,0.00328379,0.0154453,1756,1576,15.6086,-20.5786
539,-552,15.5696,20.1793,-0.000337078,-0.00469904,0.00402818,0.00206265,-0.00709877,0.537278,0.00554935,0.0179846,1763,1576,15.5696,-20.1793
546,-552,15.5513,19.743,-0.000811602,-0.00709516,0.00604595,0.00286015,-0.0107669,0.545776,0.00829731,0.0218094,1770,1576,15.5513,-19.743
553,-552,15.5923,19.2496,-0.00114433,-0.0097239,0.00827012,0.00388238,-0.0147506,0.546147,0.0113514,0.0251947,1777,1576,15.5923,-19.2497
560,-552,15.5685,18.916,-0.0012493,-0.0124583,0.0105672,0.00510765,-0.0188153,0.541575,0.0145481,0.04412,1784,1576,15.5685,-18.916
567,-552,15.5881,18.2513,0,0,0,0,0,0,0,-1,1791,1576,15.5882,-18.2513
574,-552,12.8835,14.8463,0,0,0,0,0,0,0,-1,1798,1576,12.8836,-14.8463
581,-552,9.74841,9.98645,0,0,0,0,0,0,0,-1,1805,1576,9.74847,-9.9864
588,-552,10.5619,9.34924,0,0,0,0,0,0,0,-1,1812,1576,10.5619,-9.34921
595,-552,5.36194,6.62744,0,0,0,0,0,0,0,-1,1819,1576,5.36193,-6.62742
602,-552,10.6863,4.31616,0,0,0,0,0,0,0,-1,1826,1576,10.6862,-4.31619
609,-552,12.146,3.18286,0,0,0,0,0,0,0,-1,1833,1576,12.1459,-3.18281
616,-552,13.8762,2.08167,0,0,0,0,0,0,0,-1,1840,1576,13.8763,-2.08167
623,-552,0,0,0,0,0,0,0,0,0,-1,1847,1576,0,0
630,-552,0,0,0,0,0,0,0,0,0,-1,1854,1576,0,0
637,-552,0,0,0,0,0,0,0,0,0,-1,1861,1576,0,0
644,-552,0,0,0,0,0,0,0,0,0,-1,1868,1576,0,0
651,-552,0,0,0,0,0,0,0,0,0,-1,1875,1576,0,0
658,-552,0,0,0,0,0,0,0,0,0,-1,1882,1576,0,0
665,-552,0,0,0,0,0,0,0,0,0,-1,1889,1576,0,0
672,-552,0,0,0,0,0,0,0,0,0,-1,1896,1576,0,0
679,-552,0,0,0,0,0,0,0,0,0,-1,1903,1576,0,0
686,-552,0,0,0,0,0,0,0,0,0,-1,1910,1576,0,0
693,-552,0,0,0,0,0,0,0,0,0,-1,1917,1576,0,0
700,-552,0,0,0,0,0,0,0,0,0,-1,1924,1576,0,0
707,-552,0,0,0,0,0,0,0,0,0,-1,1931,1576,0,0
714,-552,0,0,0,0,0,0,0,0,0,-1,1938,1576,0,0
721,-552,0,0,0,0,0,0,0,0,0,-1,1945,1576,0,0
728,-552,0,0,0,0,0,0,0,0,0,-1,1952,1576,0,0
735,-552,0,0,0,0,0,0,0,0,0,-1,1959,1576,0,0
742,-552,0,0,0,0,0,0,0,0,0,-1,1966,1576,0,0
749,-552,0,0,0,0,0,0,0,0,0,-1,1973,1576,0,0
756,-552,0,0,0,0,0,0,0,0,0,-1,1980,1576,0,0
763,-552,0,0,0,0,0,0,0,0,0,-1,1987,1576,0,0
770,-552,0,0,0,0,0,0,0,0,0,-1,1994,1576,0,0
777,-552,0,0,0,0,0,0,0,0,0,-1,2001,1576,0,0
784,-552,0,0,0,0,0,0,0,0,0,-1,2008,1576,0,0
791,-552,0,0,0,0,0,0,0,0,0,-1,2015,1576,0,0
798,-552,0,0,0,0,0,0,0,0,0,-1,2022,1576,0,0
805,-552,0,0,0,0,0,0,0,0,0,-1,2029,1576,0,0
812,-552,0,0,0,0,0,0,0,0,0,-1,2036,1576,0,0
-700,-559,0,0,0,0,0,0,0,0,0,-1,524,1583,0,0
-693,-559,0,0,0,0,0,0,0,0,0,-1,531,1583,0,0
-686,-559,0,0,0,0,0,0,0,0,0,-1,538,1583,0,0
-679,-559,0,0,0,0,0,0,0,0,0,-1,545,1583,0,0
-672,-559,0,0,0,0,0,0,0,0,0,-1,552,1583,0,0
-665,-559,0,0,0,0,0,0,0,0,0,-1,559,1583,0,0
-658,-559,0,0,0,0,0,0,0,0,0,-1,566,1583,0,0
-651,-559,0,0,0,0,0,0,0,0,0,-1,573,1583,0,0
-644,-559,0,0,0,0,0,0,0,0,0,-1,580,1583,0,0
-637,-559,0,0,0,0,0,0,0,0,0,-1,587,1583,0,0
-630,-559,0,0,0,0,0,0,0,0,0,-1,594,1583,0,0
-623,-559,0,0,0,0,0,0,0,0,0,-1,601,1583,0,0
-616,-559,0,0,0,0,0,0,0,0,0,-1,608,1583,0,0
-609,-559,0,0,0,0,0,0,0,0,0,-1,615,1583,0,0
-602,-559,0,0,0,0,0,0,0,0,0,-1,622,1583,0,0
-595,-559,0,0,0,0,0,0,0,0,0,-1,629,1583,0,0
-588,-559,0,0,0,0,0,0,0,0,0,-1,636,1583,0,0
-581,-559,0,0,0,0,0,0,0,0,0,-1,643,1583,0,0
-574,-559,0,0,0,0,0,0,0,0,0,-1,650,1583,0,0
-567,-559,0,0,0,0,0,0,0,0,0,-1,657,1583,0,0
-560,-559,0,0,0,0,0,0,0,0,0,-1,664,1583,0,0
-553,-559,0,0,0,0,0,0,0,0,0,-1,671,1583,0,0
-546,-559,0,0,0,0,0,0,0,0,0,-1,678,1583,0,0
-539,-559,0,0,0,0,0,0,0,0,0,-1,685,1583,0,0
-532,-559,0,0,0,0,0,0,0,0,0,-1,692,1583,0,0
-525,-559,0,0,0,0,0,0,0,0,0,-1,699,1583,0,0
-518,-559,0,0,0,0,0,0,0,0,0,-1,706,1583,0,0
-511,-559,0,0,0,0,0,0,0,0,0,-1,713,1583,0,0
-504,-559,0,0,0,0,0,0,0,0,0,-1,720,1583,0,0
-497,-559,0,0,0,0,0,0,0,0,0,-1,727,1583,0,0
-490,-559,-5.49835,4.47424,0,0,0,0,0,0,0,-1,734,1583,-5.49833,-4.4743
-483,-559,-5.24078,4.74561,0,0,0,0,0,0,0,-1,741,1583,-5.24079,-4.74563
-476,-559,-4.98022,4.99316,0,0,0,0,0,0,0,-1,748,1583,-4.98024,-4.99321
-469,-559,-4.6424,5.38062,0,0,0,0,0,0,0,-1,755,1583,-4.64237,-5.38058
-462,-559,-0.161865,6.49438,0,0,0,0,0,0,0,-1,762,1583,-0.161835,-6.49444
-455,-559,1.08826,7.02527,0,0,0,0,0,0,0,-1,769,1583,1.08823,-7.02529
-448,-559,-0.338867,15.354,0,0,0,0,0,0,0,-1,776,1583,-0.338846,-15.354
-441,-559,0.637451,16.7881,0,0,0,0,0,0,0,-1,783,1583,0.637461,-16.788
-434,-559,0.240601,17.173,0.0052024,0.0105231,0.00572501,0.0141757,0.00154981,1.0029,0.00897856,0.0450875,790,1583,0.240623,-17.1729
-427,-559,-0.055481,17.6799,0.0022458,0.00765984,0.00377388,0.00959719,0.000308457,1.09652,0.00629782,0.0373074,797,1583,-0.055511,-17.6799
-420,-559,-0.130005,17.9482,0,0,0,0,0,0,0,-1,804,1583,-0.130023,-17.9482
-413,-559,-0.157593,18.5092,-0.000964001,0.00443742,0.00129463,0.0047317,-0.00125827,1.34729,0.00364697,0.016103,811,1583,-0.157569,-18.5092
-406,-559,-0.181396,18.9957,-0.00155704,0.00345395,0.000772497,0.00357033,-0.00167343,1.42126,0.00309281,0.00968521,818,1583,-0.181415,-18.9957
-399,-559,-0.193787,19.4454,-0.00203679,0.00287381,0.000677852,0.00296566,-0.00212864,1.43611,0.0029544,0.0125816,825,1583,-0.193776,-19.4454
-392,-559,-0.198425,19.9009,-0.00167745,0.00250142,0.000658627,0.00260277,-0.0017788,1.41812,0.00254457,0.0165185,832,1583,-0.198419,-19.9009
-385,-559,-0.206177,20.3829,-0.000553511,0.00293758,0.000828018,0.00312402,-0.000739944,1.34933,0.00236818,0.0166477,839,1583,-0.20617,-20.3829
-378,-559,-0.203857,20.8527,0.00070303,0.00372962,0.00107645,0.00407342,0.00035923,1.26165,0.00260414,0.0159433,846,1583,-0.203845,-20.8527
-371,-559,-0.224365,21.3055,0.00176919,0.00456726,0.00115858,0.0049847,0.00135174,1.22497,0.00297668,0.0237534,853,1583,-0.224374,-21.3055
-364,-559,-0.236877,21.7531,0.00281842,0.0055999,0.00122648,0.00606346,0.00235487,1.20944,0.0035297,0.0210385,860,1583,-0.236896,-21.753
-357,-559,-0.274658,22.1812,0.0039072,0.00683157,0.00128021,0.00731282,0.00342595,1.21123,0.00422485,0.0127073,867,1583,-0.274645,-22.1811
-350,-559,-0.267456,22.5995,0.00510647,0.00810233,0.00136821,0.00863314,0.00457566,1.20071,0.00498734,0.010341,874,1583,-0.267428,-22.5995
-343,-559,-0.267639,23.0382,0.00628782,0.00959273,0.00152575,0.0101894,0.00569116,1.19802,0.00589627,0.0111155,881,1583,-0.267616,-23.0382
-336,-559,-0.300781,23.455,0.00739584,0.0115272,0.00190524,0.0122716,0.00665136,1.19829,0.00709336,0.0199212,888,1583,-0.300769,-23.4549
-329,-559,-0.181885,24.0874,0.00864323,0.0133201,0.00257984,0.0144636,0.00749974,1.15358,0.00835248,0.0344165,895,1583,-0.18191,-24.0874
-322,-559,-0.0110474,24.8965,0,0,0,0,0,0,0,-1,902,1583,-0.0110171,-24.8965
-315,-559,0.041748,25.2006,0,0,0,0,0,0,0,-1,909,1583,0.0417656,-25.2006
-308,-559,-0.204834,26.0338,0,0,0,0,0,0,0,-1,916,1583,-0.204822,-26.0338
-301,-559,1.97064,24.717,0,0,0,0,0,0,0,-1,923,1583,1.97066,-24.717
-294,-559,0.945129,18.5165,0,0,0,0,0,0,0,-1,930,1583,0.945117,-18.5165
-287,-559,-0.11792,15.4912,0,0,0,0,0,0,0,-1,937,1583,-0.117939,-15.4912
-280,-559,0.191467,13.5093,0,0,0,0,0,0,0,-1,944,1583,0.191441,-13.5093
-273,-559,2.12836,10.3059,0,0,0,0,0,0,0,-1,951,1583,2.12839,-10.3059
-266,-559,-0.597046,6.68933,0,0,0,0,0,0,0,-1,958,1583,-0.597031,-6.68937
-259,-559,-7.00311,8.62756,0,0,0,0,0,0,0,-1,965,1583,-7.00312,-8.6275
-252,-559,-9.4483,2.87805,0,0,0,0,0,0,0,-1,972,1583,-9.44829,-2.87805
-245,-559,-4.80804,7.1803,0,0,0,0,0,0,0,-1,979,1583,-4.80804,-7.18027
-238,-559,-8.45764,2.54858,0,0,0,0,0,0,0,-1,986,1583,-8.45763,-2.54862
-231,-559,-5.86914,4.34021,0,0,0,0,0,0,0,-1,993,1583,-5.86914,-4.34019
-224,-559,-3.30505,6.22864,0,0,0,0,0,0,0,-1,1000,1583,-3.30505,-6.22859
-217,-559,0,0,0,0,0,0,0,0,0,-1,1007,1583,0,0
-210,-559,0,0,0,0,0,0,0,0,0,-1,1014,1583,0,0
-203,-559,0,0,0,0,0,0,0,0,0,-1,1021,1583,0,0
-196,-559,0,0,0,0,0,0,0,0,0,-1,1028,1583,0,0
-189,-559,0,0,0,0,0,0,0,0,0,-1,1035,1583,0,0
-182,-559,0,0,0,0,0,0,0,0,0,-1,1042,1583,0,0
-175,-559,0,0,0,0,0,0,0,0,0,-1,1049,1583,0,0
-168,-559,0,0,0,0,0,0,0,0,0,-1,1056,1583,0,0
-161,-559,0,0,0,0,0,0,0,0,0,-1,1063,1583,0,0
-154,-559,0,0,0,0,0,0,0,0,0,-1,1070,1583,0,0
-147,-559,0,0,0,0,0,0,0,0,0,-1,1077,1583,0,0
-140,-559,0,0,0,0,0,0,0,0,0,-1,1084,1583,0,0
-133,-559,0,0,0,0,0,0,0,0,0,-1,1091,1583,0,0
-126,-559,0,0,0,0,0,0,0,0,0,-1,1098,1583,0,0
-119,-559,0,0,0,0,0,0,0,0,0,-1,1105,1583,0,0
-112,-559,0,0,0,0,0,0,0,0,0,-1,1112,1583,0,0
-105,-559,0,0,0,0,0,0,0,0,0,-1,1119,1583,0,0
-98,-559,0,0,0,0,0,0,0,0,0,-1,1126,1583,0,0
-91,-559,0,0,0,0,0,0,0,0,0,-1,1133,1583,0,0
-84,-559,0,0,0,0,0,0,0,0,0,-1,1140,1583,0,0
-77,-559,0,0,0,0,0,0,0,0,0,-1,1147,1583,0,0
-70,-559,0,0,0,0,0,0,0,0,0,-1,1154,1583,0,0
-63,-559,0,0,0,0,0,0,0,0,0,-1,1161,1583,0,0
-56,-559,0,0,0,0,0,0,0,0,0,-1,1168,1583,0,0
-49,-559,0,0,0,0,0,0,0,0,0,-1,1175,1583,0,0
-42,-559,0,0,0,0,0,0,0,0,0,-1,1182,1583,0,0
-35,-559,0,0,0,0,0,0,0,0,0,-1,1189,1583,0,0
-28,-559,0,0,0,0,0,0,0,0,0,-1,1196,1583,0,0
-21,-559,0,0,0,0,0,0,0,0,0,-1,1203,1583,0,0
-14,-559,0,0,0,0,0,0,0,0,0,-1,1210,1583,0,0
-7,-559,0,0,0,0,0,0,0,0,0,-1,1217,1583,0,0
0,-559,0,0,0,0,0,0,0,0,0,-1,1224,1583,0,0
7,-559,0,0,0,0,0,0,0,0,0,-1,1231,1583,0,0
14,-559,0,0,0,0,0,0,0,0,0,-1,1238,1583,0,0
21,-559,0,0,0,0,0,0,0,0,0,-1,1245,1583,0,0
28,-559,0,0,0,0,0,0,0,0,0,-1,1252,1583,0,0
35,-559,0,0,0,0,0,0,0,0,0,-1,1259,1583,0,0
42,-559,0,0,0,0,0,0,0,0,0,-1,1266,1583,0,0
49,-559,0,0,0,0,0,0,0,0,0,-1,1273,1583,0,0
56,-559,0,0,0,0,0,0,0,0,0,-1,1280,1583,0,0
63,-559,0,0,0,0,0,0,0,0,0,-1,1287,1583,0,0
70,-559,0,0,0,0,0,0,0,0,0,-1,1294,1583,0,0
77,-559,0,0,0,0,0,0,0,0,0,-1,1301,1583,0,0
84,-559,0,0,0,0,0,0,0,0,0,-1,1308,1583,0,0
91,-559,0,0,0,0,0,0,0,0,0,-1,1315,1583,0,0
98,-559,0,0,0,0,0,0,0,0,0,-1,1322,1583,0,0
105,-559,0,0,0,0,0,0,0,0,0,-1,1329,1583,0,0
112,-559,0,0,0,0,0,0,0,0,0,-1,1336,1583,0,0
119,-559,0,0,0,0,0,0,0,0,0,-1,1343,1583,0,0
126,-559,0,0,0,0,0,0,0,0,0,-1,1350,1583,0,0
133,-559,0,0,0,0,0,0,0,0,0,-1,1357,1583,0,0
140,-559,0,0,0,0,0,0,0,0,0,-1,1364,1583,0,0
147,-559,0,0,0,0,0,0,0,0,0,-1,1371,1583,0,0
154,-559,0,0,0,0,0,0,0,0,0,-1,1378,1583,0,0
161,-559,0,0,0,0,0,0,0,0,0,-1,1385,1583,0,0
168,-559,0,0,0,0,0,0,0,0,0,-1,1392,1583,0,0
175,-559,0,0,0,0,0,0,0,0,0,-1,1399,1583,0,0
182,-559,0,0,0,0,0,0,0,0,0,-1,1406,1583,0,0
189,-559,0,0,0,0,0,0,0,0,0,-1,1413,1583,0,0
196,-559,0,0,0,0,0,0,0,0,0,-1,1420,1583,0,0
203,-559,0,0,0,0,0,0,0,0,0,-1,1427,1583,0,0
210,-559,0,0,0,0,0,0,0,0,0,-1,1434,1583,0,0
217,-559,0,0,0,0,0,0,0,0,0,-1,1441,1583,0,0
224,-559,0,0,0,0,0,0,0,0,0,-1,1448,1583,0,0
231,-559,0,0,0,0,0,0,0,0,0,-1,1455,1583,0,0
238,-559,0,0,0,0,0,0,0,0,0,-1,1462,1583,0,0
245,-559,0,0,0,0,0,0,0,0,0,-1,1469,1583,0,0
252,-559,0,0,0,0,0,0,0,0,0,-1,1476,1583,0,0
259,-559,0,0,0,0,0,0,0,0,0,-1,1483,1583,0,0
266,-559,0,0,0,0,0,0,0,0,0,-1,1490,1583,0,0
273,-559,0,0,0,0,0,0,0,0,0,-1,1497,1583,0,0
280,-559,0,0,0,0,0,0,0,0,0,-1,1504,1583,0,0
287,-559,0,0,0,0,0,0,0,0,0,-1,1511,1583,0,0
294,-559,0,0,0,0,0,0,0,0,0,-1,1518,1583,0,0
301,-559,0,0,0,0,0,0,0,0,0,-1,1525,1583,0,0
308,-559,0,0,0,0,0,0,0,0,0,-1,1532,1583,0,0
315,-559,0,0,0,0,0,0,0,0,0,-1,1539,1583,0,0
322,-559,0,0,0,0,0,0,0,0,0,-1,1546,1583,0,0
329,-559,0,0,0,0,0,0,0,0,0,-1,1553,1583,0,0
336,-559,5.97668,3.09827,0,0,0,0,0,0,0,-1,1560,1583,5.97667,-3.09824
343,-559,5.44824,2.88696,0,0,0,0,0,0,0,-1,1567,1583,5.44819,-2.88693
350,-559,4.69775,3.27051,0,0,0,0,0,0,0,-1,1574,1583,4.69771,-3.27048
357,-559,3.88025,3.60999,0,0,0,0,0,0,0,-1,1581,1583,3.88027,-3.60998
364,-559,5.00928,5.32605,0,0,0,0,0,0,0,-1,1588,1583,5.00928,-5.32607
371,-559,1.84436,2.52441,0,0,0,0,0,0,0,-1,1595,1583,1.84441,-2.52447
378,-559,6.34753,1.53137,0,0,0,0,0,0,0,-1,1602,1583,6.34752,-1.53139
385,-559,6.95911,1.48181,0,0,0,0,0,0,0,-1,1609,1583,6.95916,-1.48175
392,-559,11.6949,4.77734,0,0,0,0,0,0,0,-1,1616,1583,11.6949,-4.77731
399,-559,11.1104,5.56909,0,0,0,0,0,0,0,-1,1623,1583,11.1103,-5.56905
406,-559,10.3385,6.48657,0,0,0,0,0,0,0,-1,1630,1583,10.3385,-6.48661
413,-559,9.76147,6.97571,0,0,0,0,0,0,0,-1,1637,1583,9.76143,-6.97574
420,-559,7.77124,10.5851,0,0,0,0,0,0,0,-1,1644,1583,7.77128,-10.585
427,-559,10.1022,12.5565,0,0,0,0,0,0,0,-1,1651,1583,10.1021,-12.5565
434,-559,9.62769,14.6309,0,0,0,0,0,0,0,-1,1658,1583,9.62771,-14.6309
441,-559,12.6149,21.3678,0,0,0,0,0,0,0,-1,1665,1583,12.6149,-21.3678
448,-559,13.7046,22.6677,0,0,0,0,0,0,0,-1,1672,1583,13.7046,-22.6677
455,-559,13.9427,23.0509,0,0,0,0,0,0,0,-1,1679,1583,13.9427,-23.0509
462,-559,15.0203,25.2844,0,0,0,0,0,0,0,-1,1686,1583,15.0203,-25.2845
469,-559,15.053,24.613,0.00452727,0.0134403,-0.00599473,0.0164536,0.00151402,-1.10503,0.0105008,0.0422322,1693,1583,15.053,-24.613
476,-559,15.1637,24.0409,0.00460879,0.0104438,-0.00515407,0.0134488,0.00160376,-1.04294,0.00848197,0.0190952,1700,1583,15.1637,-24.0409
483,-559,15.2289,23.5582,0.00457469,0.0078753,-0.00440647,0.0109304,0.00151962,-0.964572,0.00683689,0.0135139,1707,1583,15.2289,-23.5582
490,-559,15.1978,23.139,0.00393311,0.00570482,-0.00333158,0.0082663,0.00137162,-0.91534,0.00511533,0.0143206,1714,1583,15.1978,-23.1391
497,-559,15.2389,22.7628,0.00311682,0.004105,-0.00244488,0.00610522,0.0011166,-0.885101,0.00375372,0.0175785,1721,1583,15.2389,-22.7628
504,-559,15.2332,22.3478,0.00234873,0.00258382,-0.00162024,0.00409078,0.000841772,-0.821609,0.0024944,0.0240518,1728,1583,15.2332,-22.3478
511,-559,15.2104,21.8948,0.00153252,0.00103423,-0.000525688,0.00186512,0.000701638,-0.564108,0.00108777,0.0220626,1735,1583,15.2105,-21.8948
518,-559,15.2285,21.4617,0.000684654,-0.000648643,0.00072671,0.00100417,-0.000968163,0.414239,0.00113879,0.0150534,1742,1583,15.2286,-21.4617
525,-559,15.2043,21.0283,-9.5598e-05,-0.00246942,0.00219913,0.00121648,-0.0037815,0.537941,0.00300959,0.0137702,1749,1583,15.2044,-21.0283
532,-559,15.1862,20.6133,-0.000739767,-0.00455284,0.00394933,0.00173914,-0.00703174,0.560522,0.00536239,0.0142001,1756,1583,15.1861,-20.6133
539,-559,15.1541,20.1908,-0.00130925,-0.0069991,0.00605564,0.00253644,-0.0108448,0.565801,0.00820705,0.0177563,1763,1583,15.1541,-20.1907
546,-559,15.1182,19.7528,-0.00189978,-0.0100292,0.00868584,0.00362538,-0.0155544,0.566549,0.0117657,0.0159979,1770,1583,15.1181,-19.7528
553,-559,15.2015,19.2817,-0.00237461,-0.0135026,0.011707,0.00502334,-0.0209006,0.563563,0.0158753,0.0202506,1777,1583,15.2015,-19.2817
560,-559,15.2123,19.027,-0.00268469,-0.0173506,0.0150305,0.00670622,-0.0267415,0.558449,0.0204333,0.0421156,1784,1583,15.2123,-19.0269
567,-559,15.1266,18.6415,0,0,0,0,0,0,0,-1,1791,1583,15.1266,-18.6415
574,-559,10.5109,10.7317,0,0,0,0,0,0,0,-1,1798,1583,10.5108,-10.7317
581,-559,5.97095,5.96179,0,0,0,0,0,0,0,-1,1805,1583,5.97093,-5.96181
588,-559,5.79102,5.89954,0,0,0,0,0,0,0,-1,1812,1583,5.79098,-5.89949
595,-559,5.79089,6.24231,0,0,0,0,0,0,0,-1,1819,1583,5.7909,-6.24227
602,-559,12.478,2.35669,0,0,0,0,0,0,0,-1,1826,1583,12.4781,-2.35675
609,-559,14.0479,1.22681,0,0,0,0,0,0,0,-1,1833,1583,14.0479,-1.22681
616,-559,0,0,0,0,0,0,0,0,0,-1,1840,1583,0,0
623,-559,0,0,0,0,0,0,0,0,0,-1,1847,1583,0,0
630,-559,0,0,0,0,0,0,0,0,0,-1,1854,1583,0,0
637,-559,0,0,0,0,0,0,0,0,0,-1,1861,1583,0,0
644,-559,0,0,0,0,0,0,0,0,0,-1,1868,1583,0,0
651,-559,0,0,0,0,0,0,0,0,0,-1,1875,1583,0,0
658,-559,0,0,0,0,0,0,0,0,0,-1,1882,1583,0,0
665,-559,0,0,0,0,0,0,0,0,0,-1,1889,1583,0,0
672,-559,0,0,0,0,0,0,0,0,0,-1,1896,1583,0,0
679,-559,0,0,0,0,0,0,0,0,0,-1,1903,1583,0,0
686,-559,0,0,0,0,0,0,0,0,0,-1,1910,1583,0,0
693,-559,0,0,0,0,0,0,0,0,0,-1,1917,1583,0,0
700,-559,0,0,0,0,0,0,0,0,0,-1,1924,1583,0,0
707,-559,0,0,0,0,0,0,0,0,0,-1,1931,1583,0,0
714,-559,0,0,0,0,0,0,0,0,0,-1,1938,1583,0,0
721,-559,0,0,0,0,0,0,0,0,0,-1,1945,1583,0,0
728,-559,0,0,0,0,0,0,0,0,0,-1,1952,1583,0,0
735,-559,0,0,0,0,0,0,0,0,0,-1,1959,1583,0,0
742,-559,0,0,0,0,0,0,0,0,0,-1,1966,1583,0,0
749,-559,0,0,0,0,0,0,0,0,0,-1,1973,1583,0,0
756,-559,0,0,0,0,0,0,0,0,0,-1,1980,1583,0,0
763,-559,0,0,0,0,0,0,0,0,0,-1,1987,1583,0,0
770,-559,0,0,0,0,0,0,0,0,0,-1,1994,1583,0,0
777,-559,0,0,0,0,0,0,0,0,0,-1,2001,1583,0,0
784,-559,0,0,0,0,0,0,0,0,0,-1,2008,1583,0,0
791,-559,0,0,0,0,0,0,0,0,0,-1,2015,1583,0,0
798,-559,0,0,0,0,0,0,0,0,0,-1,2022,1583,0,0
805,-559,0,0,0,0,0,0,0,0,0,-1,2029,1583,0,0
812,-559,0,0,0,0,0,0,0,0,0,-1,2036,1583,0,0
-700,-566,0,0,0,0,0,0,0,0,0,-1,524,1590,0,0
-693,-566,0,0,0,0,0,0,0,0,0,-1,531,1590,0,0
-686,-566,0,0,0,0,0,0,0,0,0,-1,538,1590,0,0
-679,-566,0,0,0,0,0,0,0,0,0,-1,545,1590,0,0
-672,-566,0,0,0,0,0,0,0,0,0,-1,552,1590,0,0
-665,-566,0,0,0,0,0,0,0,0,0,-1,559,1590,0,0
-658,-566,0,0,0,0,0,0,0,0,0,-1,566,1590,0,0
-651,-566,0,0,0,0,0,0,0,0,0,-1,573,1590,0,0
-644,-566,0,0,0,0,0,0,0,0,0,-1,580,1590,0,0
-637,-566,0,0,0,0,0,0,0,0,0,-1,587,1590,0,0
-630,-566,0,0,0,0,0,0,0,0,0,-1,594,1590,0,0
-623,-566,0,0,0,0,0,0,0,0,0,-1,601,1590,0,0
-616,-566,0,0,0,0,0,0,0,0,0,-1,608,1590,0,0
-609,-566,0,0,0,0,0,0,0,0,0,-1,615,1590,0,0
-602,-566,0,0,0,0,0,0,0,0,0,-1,622,1590,0,0
-595,-566,0,0,0,0,0,0,0,0,0,-1,629,1590,0,0
-588,-566,0,0,0,0,0,0,0,0,0,-1,636,1590,0,0
-581,-566,0,0,0,0,0,0,0,0,0,-1,643,1590,0,0
-574,-566,0,0,0,0,0,0,0,0,0,-1,650,1590,0,0
-567,-566,0,0,0,0,0,0,0,0,0,-1,657,1590,0,0
-560,-566,0,0,0,0,0,0,0,0,0,-1,664,1590,0,0
-553,-566,0,0,0,0,0,0,0,0,0,-1,671,1590,0,0
-546,-566,0,0,0,0,0,0,0,0,0,-1,678,1590,0,0
-539,-566,0,0,0,0,0,0,0,0,0,-1,685,1590,0,0
-532,-566,0,0,0,0,0,0,0,0,0,-1,692,1590,0,0
-525,-566,0,0,0,0,0,0,0,0,0,-1,699,1590,0,0
-518,-566,0,0,0,0,0,0,0,0,0,-1,706,1590,0,0
-511,-566,0,0,0,0,0,0,0,0,0,-1,713,1590,0,0
-504,-566,0,0,0,0,0,0,0,0,0,-1,720,1590,0,0
-497,-566,0,0,0,0,0,0,0,0,0,-1,727,1590,0,0
-490,-566,0,0,0,0,0,0,0,0,0,-1,734,1590,0,0
-483,-566,-7.17084,2.78613,0,0,0,0,0,0,0,-1,741,1590,-7.17083,-2.78618
-476,-566,-7.13971,2.87183,0,0,0,0,0,0,0,-1,748,1590,-7.13971,-2.87184
-469,-566,-6.43829,3.2998,0,0,0,0,0,0,0,-1,755,1590,-6.43829,-3.2998
-462,-566,-0.459106,3.89343,0,0,0,0,0,0,0,-1,762,1590,-0.459095,-3.89341
-455,-566,0.280212,4.74023,0,0,0,0,0,0,0,-1,769,1590,0.280207,-4.74023
-448,-566,0.436951,5.51306,0,0,0,0,0,0,0,-1,776,1590,0.436971,-5.51301
-441,-566,-0.440735,12.4063,0,0,0,0,0,0,0,-1,783,1590,-0.440753,-12.4062
-434,-566,0.793152,17.2281,0,0,0,0,0,0,0,-1,790,1590,0.793155,-17.2282
-427,-566,0.40625,17.4758,0,0,0,0,0,0,0,-1,797,1590,0.406225,-17.4759
-420,-566,0.173645,17.974,0,0,0,0,0,0,0,-1,804,1590,0.173644,-17.9741
-413,-566,0.284851,18.5256,-0.00250355,0.00562313,0.00138913,0.00585402,-0.00273444,1.40609,0.00506641,0.0266412,811,1590,0.28485,-18.5256
-406,-566,0.27887,19.0016,-0.00310119,0.00413113,0.000675583,0.00419369,-0.00316375,1.47845,0.00426167,0.0117077,818,1590,0.278899,-19.0015
-399,-566,0.259216,19.455,-0.00359462,0.00305749,0.000507756,0.00309602,-0.00363315,1.49505,0.00388921,0.00991584,825,1590,0.259205,-19.455
-392,-566,0.252563,19.902,-0.00323298,0.00226684,0.000409534,0.00229717,-0.00326331,1.49688,0.00322646,0.0132375,832,1590,0.252579,-19.902
-385,-566,0.267639,20.4094,-0.00205738,0.00232072,0.000533347,0.00238476,-0.00212141,1.4513,0.00260312,0.0158806,839,1590,0.267628,-20.4094
-378,-566,0.238403,20.89,-0.000732608,0.00277793,0.000751156,0.00293191,-0.000886581,1.36862,0.00230762,0.0161468,846,1590,0.238393,-20.89
-371,-566,0.18988,21.2985,0.000389638,0.00327535,0.000809994,0.00348716,0.000177827,1.31503,0.00226782,0.0216152,853,1590,0.189876,-21.2985
-364,-566,0.195679,21.7335,0.00143407,0.00399517,0.000883852,0.00427058,0.00115866,1.26873,0.00255014,0.0221962,860,1590,0.195691,-21.7335
-357,-566,0.134705,22.1708,0.00249355,0.00488917,0.000950831,0.00522068,0.00216204,1.23532,0.00302894,0.0192008,867,1590,0.134731,-22.1708
-350,-566,0.153259,22.5781,0.00363477,0.00579564,0.0010533,0.0062241,0.00320631,1.18446,0.00359404,0.0218247,874,1590,0.153272,-22.5781
-343,-566,0.183716,22.9753,0.00473932,0.00689769,0.00127891,0.0074919,0.00414511,1.13585,0.00433363,0.025879,881,1590,0.183733,-22.9753
-336,-566,0.0792847,23.4366,0.00575849,0.00842451,0.00167793,0.00923448,0.00494852,1.12107,0.0053361,0.0271227,888,1590,0.0792543,-23.4367
-329,-566,0.172363,23.8446,0.00683154,0.00983337,0.00228025,0.0110623,0.00560257,1.07647,0.00638702,0.0220804,895,1590,0.172378,-23.8446
-322,-566,0.24884,24.4209,0.00797834,0.0114274,0.00315362,0.0132972,0.00610852,1.0356,0.00768558,0.0302527,902,1590,0.248852,-24.4208
-315,-566,0.090271,24.8966,0.00940355,0.0136204,0.00444276,0.0164297,0.0065943,1.00695,0.009547,0.0475818,909,1590,0.0902482,-24.8966
-308,-566,0.259949,25.7717,0,0,0,0,0,0,0,-1,916,1590,0.259925,-25.7717
-301,-566,0.751343,26.5624,0,0,0,0,0,0,0,-1,923,1590,0.75134,-26.5623
-294,-566,0.741455,25.3229,0,0,0,0,0,0,0,-1,930,1590,0.741475,-25.3229
-287,-566,1.25391,23.4589,0,0,0,0,0,0,0,-1,937,1590,1.2539,-23.4589
-280,-566,1.59406,17.8762,0,0,0,0,0,0,0,-1,944,1590,1.59405,-17.8762
-273,-566,0.49762,11.2427,0,0,0,0,0,0,0,-1,951,1590,0.497591,-11.2426
-266,-566,0.392151,6.90295,0,0,0,0,0,0,0,-1,958,1590,0.392151,-6.90294
-259,-566,0.343628,6.47437,0,0,0,0,0,0,0,-1,965,1590,0.34363,-6.47438
-252,-566,-7.68311,1.01343,0,0,0,0,0,0,0,-1,972,1590,-7.68308,-1.01348
-245,-566,-11.1835,1.97522,0,0,0,0,0,0,0,-1,979,1590,-11.1835,-1.97527
-238,-566,-10.4883,2.40491,0,0,0,0,0,0,0,-1,986,1590,-10.4883,-2.40487
-231,-566,-7.41827,4.22803,0,0,0,0,0,0,0,-1,993,1590,-7.41827,-4.22803
-224,-566,-4.67188,6.30859,0,0,0,0,0,0,0,-1,1000,1590,-4.67185,-6.30853
-217,-566,-2.82867,7.52527,0,0,0,0,0,0,0,-1,1007,1590,-2.82869,-7.52531
-210,-566,-1.03436,8.67737,0,0,0,0,0,0,0,-1,1014,1590,-1.03439,-8.67733
-203,-566,0,0,0,0,0,0,0,0,0,-1,1021,1590,0,0
-196,-566,0,0,0,0,0,0,0,0,0,-1,1028,1590,0,0
-189,-566,0,0,0,0,0,0,0,0,0,-1,1035,1590,0,0
-182,-566,0,0,0,0,0,0,0,0,0,-1,1042,1590,0,0
-175,-566,0,0,0,0,0,0,0,0,0,-1,1049,1590,0,0
-168,-566,0,0,0,0,0,0,0,0,0,-1,1056,1590,0,0
-161,-566,0,0,0,0,0,0,0,0,0,-1,1063,1590,0,0
-154,-566,0,0,0,0,0,0,0,0,0,-1,1070,1590,0,0
-147,-566,0,0,0,0,0,0,0,0,0,-1,1077,1590,0,0
-140,-566,0,0,0,0,0,0,0,0,0,-1,1084,1590,0,0
-133,-566,0,0,0,0,0,0,0,0,0,-1,1091,1590,0,0
-126,-566,0,0,0,0,0,0,0,0,0,-1,1098,1590,0,0
-119,-566,0,0,0,0,0,0,0,0,0,-1,1105,1590,0,0
-112,-566,0,0,0,0,0,0,0,0,0,-1,1112,1590,0,0
-105,-566,0,0,0,0,0,0,0,0,0,-1,1119,1590,0,0
-98,-566,0,0,0,0,0,0,0,0,0,-1,1126,1590,0,0
-91,-566,0,0,0,0,0,0,0,0,0,-1,1133,1590,0,0
-84,-566,0,0,0,0,0,0,0,0,0,-1,1140,1590,0,0
-77,-566,0,0,0,0,0,0,0,0,0,-1,1147,1590,0,0
-70,-566,0,0,0,0,0,0,0,0,0,-1,1154,1590,0,0
-63,-566,0,0,0,0,0,0,0,0,0,-1,1161,1590,0,0
-56,-566,0,0,0,0,0,0,0,0,0,-1,1168,1590,0,0
-49,-566,0,0,0,0,0,0,0,0,0,-1,1175,1590,0,0
-42,-566,0,0,0,0,0,0,0,0,0,-1,1182,1590,0,0
-35,-566,0,0,0,0,0,0,0,0,0,-1,1189,1590,0,0
-28,-566,0,0,0,0,0,0,0,0,0,-1,1196,1590,0,0
-21,-566,0,0,0,0,0,0,0,0,0,-1,1203,1590,0,0
-14,-566,0,0,0,0,0,0,0,0,0,-1,1210,1590,0,0
-7,-566,0,0,0,0,0,0,0,0,0,-1,1217,1590,0,0
0,-566,0,0,0,0,0,0,0,0,0,-1,1224,1590,0,0
7,-566,0,0,0,0,0,0,0,0,0,-1,1231,1590,0,0
14,-566,0,0,0,0,0,0,0,0,0,-1,1238,1590,0,0
21,-566,0,0,0,0,0,0,0,0,0,-1,1245,1590,0,0
28,-566,0,0,0,0,0,0,0,0,0,-1,1252,1590,0,0
35,-566,0,0,0,0,0,0,0,0,0,-1,1259,1590,0,0
42,-566,0,0,0,0,0,0,0,0,0,-1,1266,1590,0,0
49,-566,0,0,0,0,0,0,0,0,0,-1,1273,1590,0,0
56,-566,0,0,0,0,0,0,0,0,0,-1,1280,1590,0,0
63,-566,0,0,0,0,0,0,0,0,0,-1,1287,1590,0,0
70,-566,0,0,0,0,0,0,0,0,0,-1,1294,1590,0,0
77,-566,0,0,0,0,0,0,0,0,0,-1,1301,1590,0,0
84,-566,0,0,0,0,0,0,0,0,0,-1,1308,1590,0,0
91,-566,0,0,0,0,0,0,0,0,0,-1,1315,1590,0,0
98,-566,0,0,0,0,0,0,0,0,0,-1,1322,1590,0,0
105,-566,0,0,0,0,0,0,0,0,0,-1,1329,1590,0,0
112,-566,0,0,0,0,0,0,0,0,0,-1,1336,1590,0,0
119,-566,0,0,0,0,0,0,0,0,0,-1,1343,1590,0,0
126,-566,0,0,0,0,0,0,0,0,0,-1,1350,1590,0,0
133,-566,0,0,0,0,0,0,0,0,0,-1,1357,1590,0,0
140,-566,0,0,0,0,0,0,0,0,0,-1,1364,1590,0,0
147,-566,0,0,0,0,0,0,0,0,0,-1,1371,1590,0,0
154,-566,0,0,0,0,0,0,0,0,0,-1,1378,1590,0,0
161,-566,0,0,0,0,0,0,0,0,0,-1,1385,1590,0,0
168,-566,0,0,0,0,0,0,0,0,0,-1,1392,1590,0,0
175,-566,0,0,0,0,0,0,0,0,0,-1,1399,1590,0,0
182,-566,0,0,0,0,0,0,0,0,0,-1,1406,1590,0,0
189,-566,0,0,0,0,0,0,0,0,0,-1,1413,1590,0,0
196,-566,0,0,0,0,0,0,0,0,0,-1,1420,1590,0,0
203,-566,0,0,0,0,0,0,0,0,0,-1,1427,1590,0,0
210,-566,0,0,0,0,0,0,0,0,0,-1,1434,1590,0,0
217,-566,0,0,0,0,0,0,0,0,0,-1,1441,1590,0,0
224,-566,0,0,0,0,0,0,0,0,0,-1,1448,1590,0,0
231,-566,0,0,0,0,0,0,0,0,0,-1,1455,1590,0,0
238,-566,0,0,0,0,0,0,0,0,0,-1,1462,1590,0,0
245,-566,0,0,0,0,0,0,0,0,0,-1,1469,1590,0,0
252,-566,0,0,0,0,0,0,0,0,0,-1,1476,1590,0,0
259,-566,0,0,0,0,0,0,0,0,0,-1,1483,1590,0,0
266,-566,0,0,0,0,0,0,0,0,0,-1,1490,1590,0,0
273,-566,0,0,0,0,0,0,0,0,0,-1,1497,1590,0,0
280,-566,0,0,0,0,0,0,0,0,0,-1,1504,1590,0,0
287,-566,0,0,0,0,0,0,0,0,0,-1,1511,1590,0,0
294,-566,0,0,0,0,0,0,0,0,0,-1,1518,1590,0,0
301,-566,0,0,0,0,0,0,0,0,0,-1,1525,1590,0,0
308,-566,0,0,0,0,0,0,0,0,0,-1,1532,1590,0,0
315,-566,0,0,0,0,0,0,0,0,0,-1,1539,1590,0,0
322,-566,6.07983,4.44873,0,0,0,0,0,0,0,-1,1546,1590,6.07983,-4.44873
329,-566,5.77026,3.47534,0,0,0,0,0,0,0,-1,1553,1590,5.77026,-3.47535
336,-566,5.41138,2.62915,0,0,0,0,0,0,0,-1,1560,1590,5.41138,-2.62909
343,-566,4.81873,1.79089,0,0,0,0,0,0,0,-1,1567,1590,4.81878,-1.79095
350,-566,4.41663,2.44214,0,0,0,0,0,0,0,-1,1574,1590,4.41666,-2.44214
357,-566,6.34058,5.18579,0,0,0,0,0,0,0,-1,1581,1590,6.34059,-5.1858
364,-566,6.06262,4.20251,0,0,0,0,0,0,0,-1,1588,1590,6.06259,-4.20246
371,-566,5.78455,3.21912,0,0,0,0,0,0,0,-1,1595,1590,5.7846,-3.21912
378,-566,5.7439,0.695557,0,0,0,0,0,0,0,-1,1602,1590,5.74392,-0.695531
385,-566,5.67615,-0.573975,0,0,0,0,0,0,0,-1,1609,1590,5.67612,0.573956
392,-566,5.78638,1.82434,0,0,0,0,0,0,0,-1,1616,1590,5.78637,-1.82439
399,-566,5.36621,1.7373,0,0,0,0,0,0,0,-1,1623,1590,5.36627,-1.7373
406,-566,4.30359,5.26868,0,0,0,0,0,0,0,-1,1630,1590,4.30364,-5.26867
413,-566,4.27124,5.79492,0,0,0,0,0,0,0,-1,1637,1590,4.27123,-5.7949
420,-566,7.19812,8.25146,0,0,0,0,0,0,0,-1,1644,1590,7.19817,-8.25149
427,-566,10.455,10.6842,0,0,0,0,0,0,0,-1,1651,1590,10.455,-10.6842
434,-566,9.18567,14.3304,0,0,0,0,0,0,0,-1,1658,1590,9.18571,-14.3305
441,-566,14.7419,25.7504,0,0,0,0,0,0,0,-1,1665,1590,14.7419,-25.7503
448,-566,14.8716,26.3273,0,0,0,0,0,0,0,-1,1672,1590,14.8716,-26.3273
455,-566,14.5586,25.6179,0,0,0,0,0,0,0,-1,1679,1590,14.5586,-25.6179
462,-566,14.6384,25.0452,0.00289869,0.0132734,-0.00505491,0.015329,0.000843065,-1.18456,0.00995026,0.0337443,1686,1590,14.6384,-25.0452
469,-566,14.7289,24.4208,0.0035301,0.0108881,-0.00470099,0.0131785,0.00123965,-1.11742,0.00840301,0.0161507,1693,1590,14.7289,-24.4208
476,-566,14.8019,23.9601,0.00357553,0.00845783,-0.00404719,0.0107431,0.00129027,-1.05677,0.00677307,0.0113107,1700,1590,14.8018,-23.9601
483,-566,14.8062,23.5474,0.00353246,0.00626077,-0.0034431,0.00860011,0.00119312,-0.974011,0.00537998,0.0112329,1707,1590,14.8062,-23.5473
490,-566,14.786,23.1366,0.00299859,0.0044044,-0.00254008,0.00633704,0.00106595,-0.920382,0.00391801,0.0115853,1714,1590,14.786,-23.1367
497,-566,14.8296,22.735,0.00223966,0.00298524,-0.00175105,0.00440274,0.000822155,-0.89028,0.00270311,0.0144558,1721,1590,14.8296,-22.7349
504,-566,14.8286,22.351,0.00147701,0.00152407,-0.000840345,0.00234122,0.000659869,-0.799394,0.00139393,0.0195854,1728,1590,14.8286,-22.3509
511,-566,14.8103,21.9279,0.000675646,-0.000246354,0.000460536,0.000866271,-0.000436979,0.392447,0.000765918,0.0197808,1735,1590,14.8103,-21.9279
518,-566,14.7968,21.5061,-0.000147638,-0.00199757,0.00182757,0.000975704,-0.00312091,0.551133,0.00247091,0.0119986,1742,1590,14.7967,-21.5062
525,-566,14.7671,21.0647,-0.000924603,-0.00399439,0.00350182,0.00136394,-0.00628293,0.578852,0.00470957,0.0118647,1749,1590,14.767,-21.0647
532,-566,14.7523,20.6317,-0.00161454,-0.00640744,0.00558753,0.00206877,-0.0100908,0.582817,0.00751232,0.0137492,1756,1590,14.7524,-20.6317
539,-566,14.7419,20.1902,-0.00232275,-0.00940653,0.00823078,0.00309587,-0.0148251,0.582213,0.0110608,0.0173079,1763,1590,14.742,-20.1901
546,-566,14.7834,19.6971,-0.00311245,-0.0132417,0.0116565,0.00453217,-0.0208863,0.580458,0.0156552,0.020816,1770,1590,14.7834,-19.6971
553,-566,14.7938,19.4401,-0.00382353,-0.0177649,0.0157101,0.0063929,-0.0279814,0.576593,0.0211104,0.0346124,1777,1590,14.7938,-19.44
560,-566,14.6575,19.4766,-0.00452012,-0.0231052,0.0204583,0.00865716,-0.0362825,0.57222,0.0275315,0.044104,1784,1590,14.6575,-19.4765
567,-566,14.616,19.3856,0,0,0,0,0,0,0,-1,1791,1590,14.616,-19.3857
574,-566,7.99548,3.14514,0,0,0,0,0,0,0,-1,1798,1590,7.99543,-3.14511
581,-566,2.54102,5.1311,0,0,0,0,0,0,0,-1,1805,1590,2.54099,-5.13111
588,-566,-1.91321,8.39197,0,0,0,0,0,0,0,-1,1812,1590,-1.91316,-8.39199
595,-566,9.0271,4.66467,0,0,0,0,0,0,0,-1,1819,1590,9.02705,-4.66468
602,-566,9.953,3.54895,0,0,0,0,0,0,0,-1,1826,1590,9.953,-3.54898
609,-566,0,0,0,0,0,0,0,0,0,-1,1833,1590,0,0
616,-566,0,0,0,0,0,0,0,0,0,-1,1840,1590,0,0
623,-566,0,0,0,0,0,0,0,0,0,-1,1847,1590,0,0
630,-566,0,0,0,0,0,0,0,0,0,-1,1854,1590,0,0
637,-566,0,0,0,0,0,0,0,0,0,-1,1861,1590,0,0
644,-566,0,0,0,0,0,0,0,0,0,-1,1868,1590,0,0
651,-566,0,0,0,0,0,0,0,0,0,-1,1875,1590,0,0
658,-566,0,0,0,0,0,0,0,0,0,-1,1882,1590,0,0
665,-566,0,0,0,0,0,0,0,0,0,-1,1889,1590,0,0
672,-566,0,0,0,0,0,0,0,0,0,-1,1896,1590,0,0
679,-566,0,0,0,0,0,0,0,0,0,-1,1903,1590,0,0
686,-566,0,0,0,0,0,0,0,0,0,-1,1910,1590,0,0
693,-566,0,0,0,0,0,0,0,0,0,-1,1917,1590,0,0
700,-566,0,0,0,0,0,0,0,0,0,-1,1924,1590,0,0
707,-566,0,0,0,0,0,0,0,0,0,-1,1931,1590,0,0
714,-566,0,0,0,0,0,0,0,0,0,-1,1938,1590,0,0
721,-566,0,0,0,0,0,0,0,0,0,-1,1945,1590,0,0
728,-566,0,0,0,0,0,0,0,0,0,-1,1952,1590,0,0
735,-566,0,0,0,0,0,0,0,0,0,-1,1959,1590,0,0
742,-566,0,0,0,0,0,0,0,0,0,-1,1966,1590,0,0
749,-566,0,0,0,0,0,0,0,0,0,-1,1973,1590,0,0
756,-566,0,0,0,0,0,0,0,0,0,-1,1980,1590,0,0
763,-566,0,0,0,0,0,0,0,0,0,-1,1987,1590,0,0
770,-566,0,0,0,0,0,0,0,0,0,-1,1994,1590,0,0
777,-566,0,0,0,0,0,0,0,0,0,-1,2001,1590,0,0
784,-566,0,0,0,0,0,0,0,0,0,-1,2008,1590,0,0
791,-566,0,0,0,0,0,0,0,0,0,-1,2015,1590,0,0
798,-566,0,0,0,0,0,0,0,0,0,-1,2022,1590,0,0
805,-566,0,0,0,0,0,0,0,0,0,-1,2029,1590,0,0
812,-566,0,0,0,0,0,0,0,0,0,-1,2036,1590,0,0
-700,-573,0,0,0,0,0,0,0,0,0,-1,524,1597,0,0
-693,-573,0,0,0,0,0,0,0,0,0,-1,531,1597,0,0
-686,-573,0,0,0,0,0,0,0,0,0,-1,538,1597,0,0
-679,-573,0,0,0,0,0,0,0,0,0,-1,545,1597,0,0
-672,-573,0,0,0,0,0,0,0,0,0,-1,552,1597,0,0
-665,-573,0,0,0,0,0,0,0,0,0,-1,559,1597,0,0
-658,-573,0,0,0,0,0,0,0,0,0,-1,566,1597,0,0
-651,-573,0,0,0,0,0,0,0,0,0,-1,573,1597,0,0
-644,-573,0,0,0,0,0,0,0,0,0,-1,580,1597,0,0
-637,-573,0,0,0,0,0,0,0,0,0,-1,587,1597,0,0
-630,-573,0,0,0,0,0,0,0,0,0,-1,594,1597,0,0
-623,-573,0,0,0,0,0,0,0,0,0,-1,601,1597,0,0
-616,-573,0,0,0,0,0,0,0,0,0,-1,608,1597,0,0
-609,-573,0,0,0,0,0,0,0,0,0,-1,615,1597,0,0
-602,-573,0,0,0,0,0,0,0,0,0,-1,622,1597,0,0
-595,-573,0,0,0,0,0,0,0,0,0,-1,629,1597,0,0
-588,-573,0,0,0,0,0,0,0,0,0,-1,636,1597,0,0
-581,-573,0,0,0,0,0,0,0,0,0,-1,643,1597,0,0
-574,-573,0,0,0,0,0,0,0,0,0,-1,650,1597,0,0
-567,-573,0,0,0,0,0,0,0,0,0,-1,657,1597,0,0
-560,-573,0,0,0,0,0,0,0,0,0,-1,664,1597,0,0
-553,-573,0,0,0,0,0,0,0,0,0,-1,671,1597,0,0
-546,-573,0,0,0,0,0,0,0,0,0,-1,678,1597,0,0
-539,-573,0,0,0,0,0,0,0,0,0,-1,685,1597,0,0
-532,-573,0,0,0,0,0,0,0,0,0,-1,692,1597,0,0
-525,-573,0,0,0,0,0,0,0,0,0,-1,699,1597,0,0
-518,-573,0,0,0,0,0,0,0,0,0,-1,706,1597,0,0
-511,-573,0,0,0,0,0,0,0,0,0,-1,713,1597,0,0
-504,-573,0,0,0,0,0,0,0,0,0,-1,720,1597,0,0
-497,-573,0,0,0,0,0,0,0,0,0,-1,727,1597,0,0
-490,-573,0,0,0,0,0,0,0,0,0,-1,734,1597,0,0
-483,-573,0,0,0,0,0,0,0,0,0,-1,741,1597,0,0
-476,-573,-9.3327,0.972778,0,0,0,0,0,0,0,-1,748,1597,-9.33268,-0.972776
-469,-573,-1.41681,1.13379,0,0,0,0,0,0,0,-1,755,1597,-1.41681,-1.13382
-462,-573,-0.748535,2.02588,0,0,0,0,0,0,0,-1,762,1597,-0.748533,-2.02584
-455,-573,-0.112976,2.70703,0,0,0,0,0,0,0,-1,769,1597,-0.112988,-2.70697
-448,-573,-1.26172,3.33252,0,0,0,0,0,0,0,-1,776,1597,-1.26173,-3.33248
-441,-573,0.108582,5.06726,0,0,0,0,0,0,0,-1,783,1597,0.108584,-5.06721
-434,-573,1.61768,7.05444,0,0,0,0,0,0,0,-1,790,1597,1.61767,-7.05446
-427,-573,0.721985,17.2898,0,0,0,0,0,0,0,-1,797,1597,0.722008,-17.2898
-420,-573,1.06628,17.4988,0,0,0,0,0,0,0,-1,804,1597,1.06625,-17.4988
-413,-573,0.670593,18.3147,0,0,0,0,0,0,0,-1,811,1597,0.670584,-18.3147
-406,-573,0.732788,18.9534,-0.00503114,0.00525196,0.000774755,0.00531,-0.00508919,1.49602,0.00600443,0.0289834,818,1597,0.732783,-18.9533
-399,-573,0.703674,19.4764,-0.00537037,0.00365933,0.000574242,0.0036957,-0.00540674,1.50754,0.00528616,0.0131305,825,1597,0.703664,-19.4764
-392,-573,0.714233,19.9408,-0.00485636,0.00243943,0.000424167,0.00246401,-0.00488094,1.51292,0.00431646,0.0121376,832,1597,0.714257,-19.9408
-385,-573,0.694275,20.4226,-0.00354196,0.00210423,0.000504512,0.00214896,-0.00358668,1.48238,0.00334597,0.0147445,839,1597,0.694293,-20.4226
-378,-573,0.669128,20.8856,-0.00210119,0.00221468,0.000671456,0.00231674,-0.00220324,1.41997,0.00260988,0.016163,846,1597,0.669131,-20.8856
-371,-573,0.637695,21.3285,-0.000880201,0.00239071,0.000691883,0.00253104,-0.00102053,1.37069,0.00211141,0.0167568,853,1597,0.637665,-21.3285
-364,-573,0.636169,21.7498,0.000194889,0.0028242,0.000746309,0.00302127,-2.17534e-06,1.31264,0.0020149,0.0201987,860,1597,0.636156,-21.7498
-357,-573,0.619568,22.1814,0.001254,0.00342498,0.000796551,0.00368589,0.000993099,1.25426,0.00220218,0.0244649,867,1597,0.619575,-22.1814
-350,-573,0.609985,22.6158,0.00235749,0.00404222,0.000881597,0.0044192,0.00198051,1.16672,0.00255599,0.0185349,874,1597,0.610004,-22.6158
-343,-573,0.669922,23.0144,0.00340041,0.00483804,0.00112214,0.00545185,0.0027866,1.07026,0.00314789,0.0213843,881,1597,0.669936,-23.0144
-336,-573,0.633423,23.4956,0.00434321,0.00604222,0.00147026,0.00689075,0.00349468,1.04736,0.00397851,0.0177616,888,1597,0.633397,-23.4956
-329,-573,0.623474,23.943,0.0052861,0.00720075,0.00198775,0.00844969,0.00403716,1.00981,0.00488004,0.018184,895,1597,0.623503,-23.943
-322,-573,0.614441,24.3979,0.00624139,0.00853768,0.00272658,0.010348,0.00443108,0.984677,0.00599491,0.0156914,902,1597,0.614452,-24.3979
-315,-573,0.750916,24.9821,0.00741845,0.0103561,0.00381516,0.0129754,0.00479914,0.969152,0.00757547,0.0352412,909,1597,0.750901,-24.982
-308,-573,1.04022,25.616,0,0,0,0,0,0,0,-1,916,1597,1.04023,-25.616
-301,-573,0.914429,25.8391,0,0,0,0,0,0,0,-1,923,1597,0.914443,-25.8391
-294,-573,1.00702,24.802,0,0,0,0,0,0,0,-1,930,1597,1.00701,-24.802
-287,-573,1.38068,27.6692,0,0,0,0,0,0,0,-1,937,1597,1.38071,-27.6692
-280,-573,1.19684,26.4906,0,0,0,0,0,0,0,-1,944,1597,1.19685,-26.4906
-273,-573,2.24805,25.4375,0,0,0,0,0,0,0,-1,951,1597,2.24803,-25.4374
-266,-573,1.31116,7.1814,0,0,0,0,0,0,0,-1,958,1597,1.31118,-7.18142
-259,-573,1.2514,6.70959,0,0,0,0,0,0,0,-1,965,1597,1.25137,-6.70965
-252,-573,2.07874,5.27161,0,0,0,0,0,0,0,-1,972,1597,2.07875,-5.27157
-245,-573,-10.2592,1.09827,0,0,0,0,0,0,0,-1,979,1597,-10.2592,-1.09823
-238,-573,-11.5463,4.44141,0,0,0,0,0,0,0,-1,986,1597,-11.5463,-4.44146
-231,-573,-9.23431,4.14539,0,0,0,0,0,0,0,-1,993,1597,-9.23431,-4.14534
-224,-573,-6.70044,7.40857,0,0,0,0,0,0,0,-1,1000,1597,-6.70045,-7.40851
-217,-573,-4.25824,8.59119,0,0,0,0,0,0,0,-1,1007,1597,-4.25824,-8.59122
-210,-573,-2.39661,9.73914,0,0,0,0,0,0,0,-1,1014,1597,-2.39658,-9.73915
-203,-573,-0.557373,10.9005,0,0,0,0,0,0,0,-1,1021,1597,-0.557387,-10.9006
-196,-573,-1.65344,9.02246,0,0,0,0,0,0,0,-1,1028,1597,-1.65349,-9.02241
-189,-573,-6.12915,6.66882,0,0,0,0,0,0,0,-1,1035,1597,-6.12913,-6.66884
-182,-573,0,0,0,0,0,0,0,0,0,-1,1042,1597,0,0
-175,-573,0,0,0,0,0,0,0,0,0,-1,1049,1597,0,0
-168,-573,0,0,0,0,0,0,0,0,0,-1,1056,1597,0,0
-161,-573,0,0,0,0,0,0,0,0,0,-1,1063,1597,0,0
-154,-573,0,0,0,0,0,0,0,0,0,-1,1070,1597,0,0
-147,-573,0,0,0,0,0,0,0,0,0,-1,1077,1597,0,0
-140,-573,0,0,0,0,0,0,0,0,0,-1,1084,1597,0,0
-133,-573,0,0,0,0,0,0,0,0,0,-1,1091,1597,0,0
-126,-573,0,0,0,0,0,0,0,0,0,-1,1098,1597,0,0
-119,-573,0,0,0,0,0,0,0,0,0,-1,1105,1597,0,0
-112,-573,0,0,0,0,0,0,0,0,0,-1,1112,1597,0,0
-105,-573,0,0,0,0,0,0,0,0,0,-1,1119,1597,0,0
-98,-573,0,0,0,0,0,0,0,0,0,-1,1126,1597,0,0
-91,-573,0,0,0,0,0,0,0,0,0,-1,1133,1597,0,0
-84,-573,0,0,0,0,0,0,0,0,0,-1,1140,1597,0,0
-77,-573,0,0,0,0,0,0,0,0,0,-1,1147,1597,0,0
-70,-573,0,0,0,0,0,0,0,0,0,-1,1154,1597,0,0
-63,-573,0,0,0,0,0,0,0,0,0,-1,1161,1597,0,0
-56,-573,0,0,0,0,0,0,0,0,0,-1,1168,1597,0,0
-49,-573,0,0,0,0,0,0,0,0,0,-1,1175,1597,0,0
-42,-573,0,0,0,0,0,0,0,0,0,-1,1182,1597,0,0
-35,-573,0,0,0,0,0,0,0,0,0,-1,1189,1597,0,0
-28,-573,0,0,0,0,0,0,0,0,0,-1,1196,1597,0,0
-21,-573,0,0,0,0,0,0,0,0,0,-1,1203,1597,0,0
-14,-573,0,0,0,0,0,0,0,0,0,-1,1210,1597,0,0
-7,-573,0,0,0,0,0,0,0,0,0,-1,1217,1597,0,0
0,-573,0,0,0,0,0,0,0,0,0,-1,1224,1597,0,0
7,-573,0,0,0,0,0,0,0,0,0,-1,1231,1597,0,0
14,-573,0,0,0,0,0,0,0,0,0,-1,1238,1597,0,0
21,-573,0,0,0,0,0,0,0,0,0,-1,1245,1597,0,0
28,-573,0,0,0,0,0,0,0,0,0,-1,1252,1597,0,0
35,-573,0,0,0,0,0,0,0,0,0,-1,1259,1597,0,0
42,-573,0,0,0,0,0,0,0,0,0,-1,1266,1597,0,0
49,-573,0,0,0,0,0,0,0,0,0,-1,1273,1597,0,0
56,-573,0,0,0,0,0,0,0,0,0,-1,1280,1597,0,0
63,-573,0,0,0,0,0,0,0,0,0,-1,1287,1597,0,0
70,-573,0,0,0,0,0,0,0,0,0,-1,1294,1597,0,0
77,-573,0,0,0,0,0,0,0,0,0,-1,1301,1597,0,0
84,-573,0,0,0,0,0,0,0,0,0,-1,1308,1597,0,0
91,-573,0,0,0,0,0,0,0,0,0,-1,1315,1597,0,0
98,-573,0,0,0,0,0,0,0,0,0,-1,1322,1597,0,0
105,-573,0,0,0,0,0,0,0,0,0,-1,1329,1597,0,0
112,-573,0,0,0,0,0,0,0,0,0,-1,1336,1597,0,0
119,-573,0,0,0,0,0,0,0,0,0,-1,1343,1597,0,0
126,-573,0,0,0,0,0,0,0,0,0,-1,1350,1597,0,0
133,-573,0,0,0,0,0,0,0,0,0,-1,1357,1597,0,0
140,-573,0,0,0,0,0,0,0,0,0,-1,1364,1597,0,0
147,-573,0,0,0,0,0,0,0,0,0,-1,1371,1597,0,0
154,-573,0,0,0,0,0,0,0,0,0,-1,1378,1597,0,0
161,-573,0,0,0,0,0,0,0,0,0,-1,1385,1597,0,0
168,-573,0,0,0,0,0,0,0,0,0,-1,1392,1597,0,0
175,-573,0,0,0,0,0,0,0,0,0,-1,1399,1597,0,0
182,-573,0,0,0,0,0,0,0,0,0,-1,1406,1597,0,0
189,-573,0,0,0,0,0,0,0,0,0,-1,1413,1597,0,0
196,-573,0,0,0,0,0,0,0,0,0,-1,1420,1597,0,0
203,-573,0,0,0,0,0,0,0,0,0,-1,1427,1597,0,0
210,-573,0,0,0,0,0,0,0,0,0,-1,1434,1597,0,0
217,-573,0,0,0,0,0,0,0,0,0,-1,1441,1597,0,0
224,-573,0,0,0,0,0,0,0,0,0,-1,1448,1597,0,0
231,-573,0,0,0,0,0,0,0,0,0,-1,1455,1597,0,0
238,-573,0,0,0,0,0,0,0,0,0,-1,1462,1597,0,0
245,-573,0,0,0,0,0,0,0,0,0,-1,1469,1597,0,0
252,-573,0,0,0,0,0,0,0,0,0,-1,1476,1597,0,0
259,-573,0,0,0,0,0,0,0,0,0,-1,1483,1597,0,0
266,-573,0,0,0,0,0,0,0,0,0,-1,1490,1597,0,0
273,-573,0,0,0,0,0,0,0,0,0,-1,1497,1597,0,0
280,-573,0,0,0,0,0,0,0,0,0,-1,1504,1597,0,0
287,-573,0,0,0,0,0,0,0,0,0,-1,1511,1597,0,0
294,-573,0,0,0,0,0,0,0,0,0,-1,1518,1597,0,0
301,-573,0,0,0,0,0,0,0,0,0,-1,1525,1597,0,0
308,-573,5.93042,9.71143,0,0,0,0,0,0,0,-1,1532,1597,5.93046,-9.71144
315,-573,4.34204,11.719,0,0,0,0,0,0,0,-1,1539,1597,4.34205,-11.719
322,-573,10.3269,7.77563,0,0,0,0,0,0,0,-1,1546,1597,10.327,-7.77565
329,-573,4.99573,3.80273,0,0,0,0,0,0,0,-1,1553,1597,4.9957,-3.80273
336,-573,4.85693,2.53455,0,0,0,0,0,0,0,-1,1560,1597,4.8569,-2.53459
343,-573,5.5946,2.15894,0,0,0,0,0,0,0,-1,1567,1597,5.59456,-2.1589
350,-573,2.53748,1.56433,0,0,0,0,0,0,0,-1,1574,1597,2.53753,-1.5643
357,-573,7.40247,4.03613,0,0,0,0,0,0,0,-1,1581,1597,7.40244,-4.03614
364,-573,7.14551,3.02087,0,0,0,0,0,0,0,-1,1588,1597,7.14556,-3.02084
371,-573,6.88867,2.00549,0,0,0,0,0,0,0,-1,1595,1597,6.88868,-2.00553
378,-573,8.62012,6.09106,0,0,0,0,0,0,0,-1,1602,1597,8.62012,-6.09103
385,-573,6.54346,-0.951904,0,0,0,0,0,0,0,-1,1609,1597,6.54349,0.951901
392,-573,6.41833,-2.18225,0,0,0,0,0,0,0,-1,1616,1597,6.41831,2.18228
399,-573,4.26282,4.73657,0,0,0,0,0,0,0,-1,1623,1597,4.26285,-4.73652
406,-573,6.82715,10.823,0,0,0,0,0,0,0,-1,1630,1597,6.82719,-10.823
413,-573,8.90552,13.1737,0,0,0,0,0,0,0,-1,1637,1597,8.90553,-13.1737
420,-573,13.7928,23.4659,0,0,0,0,0,0,0,-1,1644,1597,13.7928,-23.466
427,-573,15.3203,27.2151,0,0,0,0,0,0,0,-1,1651,1597,15.3203,-27.2151
434,-573,14.3501,26.9412,0,0,0,0,0,0,0,-1,1658,1597,14.3501,-26.9411
441,-573,14.4352,26.3232,0,0,0,0,0,0,0,-1,1665,1597,14.4352,-26.3232
448,-573,14.3125,25.8634,-0.000167068,0.0135689,-0.00268911,0.0140766,-0.000674756,-1.3842,0.0096172,0.040938,1672,1597,14.3125,-25.8634
455,-573,14.2871,25.3127,0.000966189,0.0118054,-0.00323842,0.0126992,7.23554e-05,-1.30149,0.00844214,0.0291838,1679,1597,14.2871,-25.3128
462,-573,14.3514,24.7529,0.00208367,0.0103476,-0.00367342,0.0117444,0.000686885,-1.20744,0.007611,0.0207037,1686,1597,14.3514,-24.7529
469,-573,14.3848,24.3733,0.00261903,0.00851194,-0.00351543,0.0101524,0.000978559,-1.13419,0.00646681,0.0154548,1693,1597,14.3848,-24.3733
476,-573,14.4113,23.9714,0.00260303,0.00655287,-0.00303025,0.00819496,0.000960946,-1.0742,0.00517283,0.0155296,1700,1597,14.4112,-23.9715
483,-573,14.4236,23.5637,0.00252393,0.00470512,-0.00257263,0.00640877,0.000820277,-0.985877,0.00402703,0.0128317,1707,1597,14.4236,-23.5637
490,-573,14.4003,23.1385,0.00206359,0.00315115,-0.00184721,0.00453295,0.000681787,-0.928544,0.00282229,0.0122299,1714,1597,14.4002,-23.1385
497,-573,14.4142,22.7394,0.00135046,0.00191205,-0.00116548,0.00283009,0.000432423,-0.903608,0.00176038,0.0188263,1721,1597,14.4141,-22.7394
504,-573,14.3856,22.3245,0.000595605,0.000542099,-0.000205417,0.000776003,0.0003617,-0.720644,0.000448369,0.0175093,1728,1597,14.3856,-22.3245
511,-573,14.3717,21.8799,-0.000186488,-0.0013965,0.00126708,0.000612617,-0.0021956,0.562664,0.00170503,0.018438,1735,1597,14.3717,-21.8799
518,-573,14.3485,21.4972,-0.000973161,-0.003201,0.00274812,0.000878216,-0.00505238,0.592848,0.00369594,0.0146576,1742,1597,14.3485,-21.4972
525,-573,14.3384,21.0896,-0.00173335,-0.00537964,0.00464672,0.00143508,-0.00854808,0.598451,0.0062324,0.0175164,1749,1597,14.3384,-21.0896
532,-573,14.3256,20.6418,-0.00245537,-0.00815419,0.00712607,0.00236985,-0.0129794,0.595206,0.0095415,0.0155891,1756,1597,14.3256,-20.6418
539,-573,14.3042,20.2101,-0.00328785,-0.0118071,0.0104196,0.00370917,-0.0188041,0.591359,0.013938,0.0226145,1763,1597,14.3043,-20.2101
546,-573,14.3345,19.8271,-0.00425009,-0.0165802,0.0147682,0.00558821,-0.0264185,0.587666,0.0197405,0.040644,1770,1597,14.3345,-19.8272
553,-573,13.8561,19.8043,-0.00518489,-0.0223777,0.02008,0.0080614,-0.035624,0.583148,0.026843,0.0474132,1777,1597,13.8561,-19.8043
560,-573,13.7328,20.3704,-0.00628227,-0.0296256,0.0266481,0.0111381,-0.047046,0.578986,0.0356613,0.0487377,1784,1597,13.7328,-20.3703
567,-573,13.6072,20.634,0,0,0,0,0,0,0,-1,1791,1597,13.6072,-20.6341
574,-573,0.83374,5.7041,0,0,0,0,0,0,0,-1,1798,1597,0.833718,-5.70405
581,-573,-0.224854,7.41602,0,0,0,0,0,0,0,-1,1805,1597,-0.224904,-7.41596
588,-573,-0.134033,7.67065,0,0,0,0,0,0,0,-1,1812,1597,-0.134037,-7.67063
595,-573,-0.0825195,8.35083,0,0,0,0,0,0,0,-1,1819,1597,-0.0824684,-8.35088
602,-573,0,0,0,0,0,0,0,0,0,-1,1826,1597,0,0
609,-573,0,0,0,0,0,0,0,0,0,-1,1833,1597,0,0
616,-573,0,0,0,0,0,0,0,0,0,-1,1840,1597,0,0
623,-573,0,0,0,0,0,0,0,0,0,-1,1847,1597,0,0
630,-573,0,0,0,0,0,0,0,0,0,-1,1854,1597,0,0
637,-573,0,0,0,0,0,0,0,0,0,-1,1861,1597,0,0
644,-573,0,0,0,0,0,0,0,0,0,-1,1868,1597,0,0
651,-573,0,0,0,0,0,0,0,0,0,-1,1875,1597,0,0
658,-573,0,0,0,0,0,0,0,0,0,-1,1882,1597,0,0
665,-573,0,0,0,0,0,0,0,0,0,-1,1889,1597,0,0
672,-573,0,0,0,0,0,0,0,0,0,-1,1896,1597,0,0
679,-573,0,0,0,0,0,0,0,0,0,-1,1903,1597,0,0
686,-573,0,0,0,0,0,0,0,0,0,-1,1910,1597,0,0
693,-573,0,0,0,0,0,0,0,0,0,-1,1917,1597,0,0
700,-573,0,0,0,0,0,0,0,0,0,-1,1924,1597,0,0
707,-573,0,0,0,0,0,0,0,0,0,-1,1931,1597,0,0
714,-573,0,0,0,0,0,0,0,0,0,-1,1938,1597,0,0
721,-573,0,0,0,0,0,0,0,0,0,-1,1945,1597,0,0
728,-573,0,0,0,0,0,0,0,0,0,-1,1952,1597,0,0
735,-573,0,0,0,0,0,0,0,0,0,-1,1959,1597,0,0
742,-573,0,0,0,0,0,0,0,0,0,-1,1966,1597,0,0
749,-573,0,0,0,0,0,0,0,0,0,-1,1973,1597,0,0
756,-573,0,0,0,0,0,0,0,0,0,-1,1980,1597,0,0
763,-573,0,0,0,0,0,0,0,0,0,-1,1987,1597,0,0
770,-573,0,0,0,0,0,0,0,0,0,-1,1994,1597,0,0
777,-573,0,0,0,0,0,0,0,0,0,-1,2001,1597,0,0
784,-573,0,0,0,0,0,0,0,0,0,-1,2008,1597,0,0
791,-573,0,0,0,0,0,0,0,0,0,-1,2015,1597,0,0
798,-573,0,0,0,0,0,0,0,0,0,-1,2022,1597,0,0
805,-573,0,0,0,0,0,0,0,0,0,-1,2029,1597,0,0
812,-573,0,0,0,0,0,0,0,0,0,-1,2036,1597,0,0
-700,-580,0,0,0,0,0,0,0,0,0,-1,524,1604,0,0
-693,-580,0,0,0,0,0,0,0,0,0,-1,531,1604,0,0
-686,-580,0,0,0,0,0,0,0,0,0,-1,538,1604,0,0
-679,-580,0,0,0,0,0,0,0,0,0,-1,545,1604,0,0
-672,-580,0,0,0,0,0,0,0,0,0,-1,552,1604,0,0
-665,-580,0,0,0,0,0,0,0,0,0,-1,559,1604,0,0
-658,-580,0,0,0,0,0,0,0,0,0,-1,566,1604,0,0
-651,-580,0,0,0,0,0,0,0,0,0,-1,573,1604,0,0
-644,-580,0,0,0,0,0,0,0,0,0,-1,580,1604,0,0
-637,-580,0,0,0,0,0,0,0,0,0,-1,587,1604,0,0
-630,-580,0,0,0,0,0,0,0,0,0,-1,594,1604,0,0
-623,-580,0,0,0,0,0,0,0,0,0,-1,601,1604,0,0
-616,-580,0,0,0,0,0,0,0,0,0,-1,608,1604,0,0
-609,-580,0,0,0,0,0,0,0,0,0,-1,615,1604,0,0
-602,-580,0,0,0,0,0,0,0,0,0,-1,622,1604,0,0
-595,-580,0,0,0,0,0,0,0,0,0,-1,629,1604,0,0
-588,-580,0,0,0,0,0,0,0,0,0,-1,636,1604,0,0
-581,-580,0,0,0,0,0,0,0,0,0,-1,643,1604,0,0
-574,-580,0,0,0,0,0,0,0,0,0,-1,650,1604,0,0
-567,-580,0,0,0,0,0,0,0,0,0,-1,657,1604,0,0
-560,-580,0,0,0,0,0,0,0,0,0,-1,664,1604,0,0
-553,-580,0,0,0,0,0,0,0,0,0,-1,671,1604,0,0
-546,-580,0,0,0,0,0,0,0,0,0,-1,678,1604,0,0
-539,-580,0,0,0,0,0,0,0,0,0,-1,685,1604,0,0
-532,-580,0,0,0,0,0,0,0,0,0,-1,692,1604,0,0
-525,-580,0,0,0,0,0,0,0,0,0,-1,699,1604,0,0
-518,-580,0,0,0,0,0,0,0,0,0,-1,706,1604,0,0
-511,-580,0,0,0,0,0,0,0,0,0,-1,713,1604,0,0
-504,-580,0,0,0,0,0,0,0,0,0,-1,720,1604,0,0
-497,-580,0,0,0,0,0,0,0,0,0,-1,727,1604,0,0
-490,-580,0,0,0,0,0,0,0,0,0,-1,734,1604,0,0
-483,-580,0,0,0,0,0,0,0,0,0,-1,741,1604,0,0
-476,-580,0,0,0,0,0,0,0,0,0,-1,748,1604,0,0
-469,-580,-1.69189,-0.38916,0,0,0,0,0,0,0,-1,755,1604,-1.69192,0.389188
-462,-580,-0.859863,0.675293,0,0,0,0,0,0,0,-1,762,1604,-0.859834,-0.675245
-455,-580,-0.730164,0.651978,0,0,0,0,0,0,0,-1,769,1604,-0.730153,-0.651957
-448,-580,-3.31891,2.07544,0,0,0,0,0,0,0,-1,776,1604,-3.3189,-2.07539
-441,-580,-1.63843,3.9469,0,0,0,0,0,0,0,-1,783,1604,-1.63842,-3.94695
-434,-580,0.23291,5.97876,0,0,0,0,0,0,0,-1,790,1604,0.232901,-5.97878
-427,-580,1.62756,8.05493,0,0,0,0,0,0,0,-1,797,1604,1.62758,-8.05488
-420,-580,0.986572,11.2383,0,0,0,0,0,0,0,-1,804,1604,0.986544,-11.2382
-413,-580,1.45398,16.9237,0,0,0,0,0,0,0,-1,811,1604,1.45398,-16.9238
-406,-580,1.17072,18.9371,0,0,0,0,0,0,0,-1,818,1604,1.17075,-18.9371
-399,-580,1.1825,19.4941,-0.00750301,0.00480056,0.000874946,0.00486246,-0.00756492,1.50016,0.00723128,0.0293343,825,1604,1.18247,-19.4941
-392,-580,1.16089,19.9644,-0.00663631,0.00309517,0.000685932,0.00314328,-0.00668442,1.50077,0.00579551,0.0146578,832,1604,1.16089,-19.9644
-385,-580,1.14307,20.428,-0.00505611,0.0023348,0.000714104,0.00240316,-0.00512448,1.47535,0.00443974,0.012462,839,1604,1.14309,-20.4279
-378,-580,1.11078,20.8883,-0.00343094,0.0020687,0.000801012,0.00218299,-0.00354523,1.42907,0.00333822,0.0158593,846,1604,1.11077,-20.8883
-371,-580,1.08966,21.3535,-0.00206122,0.00192426,0.00075639,0.00206298,-0.00219995,1.38941,0.00246163,0.014685,853,1604,1.08968,-21.3535
-364,-580,1.09979,21.8125,-0.000918627,0.00207645,0.000759686,0.00225812,-0.0011003,1.33607,0.00197702,0.0211852,860,1604,1.09976,-21.8125
-357,-580,1.09351,22.2007,0.000167291,0.00240012,0.000763873,0.00263643,-6.90266e-05,1.27077,0.00178108,0.0151468,867,1604,1.09351,-22.2007
-350,-580,1.08197,22.6649,0.00125414,0.00276885,0.000804898,0.00311669,0.000906306,1.16289,0.00185118,0.0111185,874,1604,1.08198,-22.6649
-343,-580,1.10284,23.0847,0.00226397,0.00330745,0.00102937,0.00393976,0.00163166,1.01996,0.00228577,0.0110493,881,1604,1.10282,-23.0847
-336,-580,1.11108,23.4847,0.00315991,0.00422074,0.00129079,0.00508585,0.00229481,0.980341,0.00294097,0.0191682,888,1604,1.11106,-23.4848
-329,-580,1.06329,23.9486,0.00399243,0.00516052,0.0016934,0.00636776,0.00278519,0.951458,0.00368602,0.0181764,895,1604,1.06326,-23.9486
-322,-580,1.05237,24.3673,0.00479506,0.00630691,0.00232143,0.00799239,0.00310958,0.942798,0.00465211,0.0190247,902,1604,1.05238,-24.3673
-315,-580,1.08722,24.8214,0.00575889,0.00780571,0.00321662,0.0101578,0.0034068,0.939416,0.00596962,0.019856,909,1604,1.08722,-24.8214
-308,-580,1.15442,25.3649,0.00665226,0.00926677,0.00408303,0.0122467,0.00367231,0.940326,0.007257,0.0299312,916,1604,1.15442,-25.3648
-301,-580,1.25616,25.6346,0.00775427,0.0104703,0.0051808,0.0144681,0.00375645,0.913576,0.00866894,0.0286607,923,1604,1.25615,-25.6346
-294,-580,1.32037,26.2791,0,0,0,0,0,0,0,-1,930,1604,1.32035,-26.279
-287,-580,1.38251,27.1248,0,0,0,0,0,0,0,-1,937,1604,1.38251,-27.1248
-280,-580,1.79675,28.4565,0,0,0,0,0,0,0,-1,944,1604,1.79676,-28.4566
-273,-580,2.23785,28.5367,0,0,0,0,0,0,0,-1,951,1604,2.23788,-28.5368
-266,-580,1.71777,25.6515,0,0,0,0,0,0,0,-1,958,1604,1.71775,-25.6515
-259,-580,1.31091,9.11536,0,0,0,0,0,0,0,-1,965,1604,1.31092,-9.11539
-252,-580,1.07629,7.74097,0,0,0,0,0,0,0,-1,972,1604,1.07627,-7.74101
-245,-580,3.80304,9.16028,0,0,0,0,0,0,0,-1,979,1604,3.80306,-9.16034
-238,-580,-10.3588,1.57556,0,0,0,0,0,0,0,-1,986,1604,-10.3588,-1.5755
-231,-580,-10.576,6.43787,0,0,0,0,0,0,0,-1,993,1604,-10.576,-6.43783
-224,-580,-8.27435,7.58972,0,0,0,0,0,0,0,-1,1000,1604,-8.27435,-7.5897
-217,-580,-5.85632,9.51221,0,0,0,0,0,0,0,-1,1007,1604,-5.85632,-9.5122
-210,-580,-3.6684,11.1569,0,0,0,0,0,0,0,-1,1014,1604,-3.66839,-11.1569
-203,-580,-1.92474,12.7845,0,0,0,0,0,0,0,-1,1021,1604,-1.92477,-12.7845
-196,-580,-2.28552,10.3289,0,0,0,0,0,0,0,-1,1028,1604,-2.28552,-10.3288
-189,-580,-4.58252,7.59058,0,0,0,0,0,0,0,-1,1035,1604,-4.58256,-7.59057
-182,-580,-5.45874,7.65942,0,0,0,0,0,0,0,-1,1042,1604,-5.45876,-7.65939
-175,-580,-6.38977,7.55005,0,0,0,0,0,0,0,-1,1049,1604,-6.38981,-7.5501
-168,-580,0,0,0,0,0,0,0,0,0,-1,1056,1604,0,0
-161,-580,0,0,0,0,0,0,0,0,0,-1,1063,1604,0,0
-154,-580,0,0,0,0,0,0,0,0,0,-1,1070,1604,0,0
-147,-580,0,0,0,0,0,0,0,0,0,-1,1077,1604,0,0
-140,-580,0,0,0,0,0,0,0,0,0,-1,1084,1604,0,0
-133,-580,0,0,0,0,0,0,0,0,0,-1,1091,1604,0,0
-126,-580,0,0,0,0,0,0,0,0,0,-1,1098,1604,0,0
-119,-580,0,0,0,0,0,0,0,0,0,-1,1105,1604,0,0
-112,-580,0,0,0,0,0,0,0,0,0,-1,1112,1604,0,0
-105,-580,0,0,0,0,0,0,0,0,0,-1,1119,1604,0,0
-98,-580,0,0,0,0,0,0,0,0,0,-1,1126,1604,0,0
-91,-580,0,0,0,0,0,0,0,0,0,-1,1133,1604,0,0
-84,-580,0,0,0,0,0,0,0,0,0,-1,1140,1604,0,0
-77,-580,0,0,0,0,0,0,0,0,0,-1,1147,1604,0,0
-70,-580,0,0,0,0,0,0,0,0,0,-1,1154,1604,0,0
-63,-580,0,0,0,0,0,0,0,0,0,-1,1161,1604,0,0
-56,-580,0,0,0,0,0,0,0,0,0,-1,1168,1604,0,0
-49,-580,0,0,0,0,0,0,0,0,0,-1,1175,1604,0,0
-42,-580,0,0,0,0,0,0,0,0,0,-1,1182,1604,0,0
-35,-580,0,0,0,0,0,0,0,0,0,-1,1189,1604,0,0
-28,-580,0,0,0,0,0,0,0,0,0,-1,1196,1604,0,0
-21,-580,0,0,0,0,0,0,0,0,0,-1,1203,1604,0,0
-14,-580,0,0,0,0,0,0,0,0,0,-1,1210,1604,0,0
-7,-580,0,0,0,0,0,0,0,0,0,-1,1217,1604,0,0
0,-580,0,0,0,0,0,0,0,0,0,-1,1224,1604,0,0
7,-580,0,0,0,0,0,0,0,0,0,-1,1231,1604,0,0
14,-580,0,0,0,0,0,0,0,0,0,-1,1238,1604,0,0
21,-580,0,0,0,0,0,0,0,0,0,-1,1245,1604,0,0
28,-580,0,0,0,0,0,0,0,0,0,-1,1252,1604,0,0
35,-580,0,0,0,0,0,0,0,0,0,-1,1259,1604,0,0
42,-580,0,0,0,0,0,0,0,0,0,-1,1266,1604,0,0
49,-580,0,0,0,0,0,0,0,0,0,-1,1273,1604,0,0
56,-580,0,0,0,0,0,0,0,0,0,-1,1280,1604,0,0
63,-580,0,0,0,0,0,0,0,0,0,-1,1287,1604,0,0
70,-580,0,0,0,0,0,0,0,0,0,-1,1294,1604,0,0
77,-580,0,0,0,0,0,0,0,0,0,-1,1301,1604,0,0
84,-580,0,0,0,0,0,0,0,0,0,-1,1308,1604,0,0
91,-580,0,0,0,0,0,0,0,0,0,-1,1315,1604,0,0
98,-580,0,0,0,0,0,0,0,0,0,-1,1322,1604,0,0
105,-580,0,0,0,0,0,0,0,0,0,-1,1329,1604,0,0
112,-580,0,0,0,0,0,0,0,0,0,-1,1336,1604,0,0
119,-580,0,0,0,0,0,0,0,0,0,-1,1343,1604,0,0
126,-580,0,0,0,0,0,0,0,0,0,-1,1350,1604,0,0
133,-580,0,0,0,0,0,0,0,0,0,-1,1357,1604,0,0
140,-580,0,0,0,0,0,0,0,0,0,-1,1364,1604,0,0
147,-580,0,0,0,0,0,0,0,0,0,-1,1371,1604,0,0
154,-580,0,0,0,0,0,0,0,0,0,-1,1378,1604,0,0
161,-580,0,0,0,0,0,0,0,0,0,-1,1385,1604,0,0
168,-580,0,0,0,0,0,0,0,0,0,-1,1392,1604,0,0
175,-580,0,0,0,0,0,0,0,0,0,-1,1399,1604,0,0
182,-580,0,0,0,0,0,0,0,0,0,-1,1406,1604,0,0
189,-580,0,0,0,0,0,0,0,0,0,-1,1413,1604,0,0
196,-580,0,0,0,0,0,0,0,0,0,-1,1420,1604,0,0
203,-580,0,0,0,0,0,0,0,0,0,-1,1427,1604,0,0
210,-580,0,0,0,0,0,0,0,0,0,-1,1434,1604,0,0
217,-580,0,0,0,0,0,0,0,0,0,-1,1441,1604,0,0
224,-580,0,0,0,0,0,0,0,0,0,-1,1448,1604,0,0
231,-580,0,0,0,0,0,0,0,0,0,-1,1455,1604,0,0
238,-580,0,0,0,0,0,0,0,0,0,-1,1462,1604,0,0
245,-580,0,0,0,0,0,0,0,0,0,-1,1469,1604,0,0
252,-580,0,0,0,0,0,0,0,0,0,-1,1476,1604,0,0
259,-580,0,0,0,0,0,0,0,0,0,-1,1483,1604,0,0
266,-580,0,0,0,0,0,0,0,0,0,-1,1490,1604,0,0
273,-580,0,0,0,0,0,0,0,0,0,-1,1497,1604,0,0
280,-580,0,0,0,0,0,0,0,0,0,-1,1504,1604,0,0
287,-580,0,0,0,0,0,0,0,0,0,-1,1511,1604,0,0
294,-580,4.0437,0.177368,0,0,0,0,0,0,0,-1,1518,1604,4.04369,-0.177371
301,-580,7.55164,8.05798,0,0,0,0,0,0,0,-1,1525,1604,7.55158,-8.05802
308,-580,5.9126,9.99341,0,0,0,0,0,0,0,-1,1532,1604,5.91255,-9.99337
315,-580,4.27356,11.9287,0,0,0,0,0,0,0,-1,1539,1604,4.27352,-11.9287
322,-580,10.2366,7.50281,0,0,0,0,0,0,0,-1,1546,1604,10.2366,-7.50282
329,-580,10.5962,8.69641,0,0,0,0,0,0,0,-1,1553,1604,10.5962,-8.69642
336,-580,3.66431,1.58862,0,0,0,0,0,0,0,-1,1560,1604,3.6643,-1.58864
343,-580,3.32227,1.39636,0,0,0,0,0,0,0,-1,1567,1604,3.32222,-1.39633
350,-580,8.71277,4.0564,0,0,0,0,0,0,0,-1,1574,1604,8.71271,-4.05638
357,-580,8.52332,3.08154,0,0,0,0,0,0,0,-1,1581,1604,8.52332,-3.08157
364,-580,8.25818,2.07605,0,0,0,0,0,0,0,-1,1588,1604,8.25812,-2.07608
371,-580,7.42114,7.14282,0,0,0,0,0,0,0,-1,1595,1604,7.42119,-7.14281
378,-580,7.9718,6.6731,0,0,0,0,0,0,0,-1,1602,1604,7.9718,-6.67307
385,-580,8.52246,6.20337,0,0,0,0,0,0,0,-1,1609,1604,8.52241,-6.20334
392,-580,14.4536,30.236,0,0,0,0,0,0,0,-1,1616,1604,14.4537,-30.2359
399,-580,13.967,27.3584,0,0,0,0,0,0,0,-1,1623,1604,13.967,-27.3585
406,-580,14.6147,27.4429,0,0,0,0,0,0,0,-1,1630,1604,14.6147,-27.4429
413,-580,14.3624,27.1553,0,0,0,0,0,0,0,-1,1637,1604,14.3625,-27.1553
420,-580,13.9685,27.2557,0,0,0,0,0,0,0,-1,1644,1604,13.9685,-27.2558
427,-580,14.4346,26.9323,-0.00360483,0.0137159,0.000398352,0.0137251,-0.00361399,1.54781,0.0105628,0.039092,1651,1604,14.4345,-26.9322
434,-580,14.0093,26.5248,-0.00253994,0.0123022,-0.000263611,0.0123069,-0.00254462,-1.55304,0.00917126,0.0307805,1658,1604,14.0093,-26.5248
441,-580,13.8872,25.9816,-0.00123465,0.0112633,-0.00110982,0.0113611,-0.00133244,-1.48291,0.00805503,0.0176161,1665,1604,13.8872,-25.9815
448,-580,13.9586,25.5383,-0.000309877,0.0102342,-0.00162685,0.0104795,-0.000555178,-1.42114,0.00717857,0.0149912,1672,1604,13.9586,-25.5383
455,-580,13.9823,25.1755,0.000505228,0.00892736,-0.00218108,0.00945868,-2.60887e-05,-1.33185,0.0063145,0.0190337,1679,1604,13.9823,-25.1755
462,-580,13.9513,24.7531,0.00138576,0.0078111,-0.00264021,0.00875679,0.000440076,-1.22685,0.00569684,0.021684,1686,1604,13.9513,-24.753
469,-580,13.9816,24.3618,0.00183993,0.00638277,-0.00261853,0.00757777,0.000644927,-1.14266,0.00485118,0.0189184,1693,1604,13.9816,-24.3619
476,-580,14.005,23.9733,0.00182014,0.00479441,-0.0022841,0.00603284,0.000581715,-1.07397,0.0038427,0.0152291,1700,1604,14.0051,-23.9732
483,-580,13.9977,23.575,0.00172354,0.00324413,-0.00194248,0.00456981,0.000397868,-0.971936,0.00292295,0.0135083,1707,1604,13.9977,-23.5749
490,-580,13.9653,23.1757,0.00132623,0.00195056,-0.00136847,0.00304202,0.000234777,-0.897536,0.00195446,0.0161696,1714,1604,13.9654,-23.1756
497,-580,13.9545,22.7566,0.000658575,0.000872544,-0.000782422,0.00155526,-2.41424e-05,-0.853344,0.00104498,0.0128535,1721,1604,13.9545,-22.7566
504,-580,13.9441,22.3269,-9.54995e-05,-0.000387864,0.000210778,1.48271e-05,-0.000498191,0.482211,0.000337178,0.0165333,1728,1604,13.9441,-22.3269
511,-580,13.9415,21.8948,-0.000879397,-0.0024418,0.00182848,0.000327767,-0.00364897,0.583514,0.00254894,0.0176226,1735,1604,13.9416,-21.8948
518,-580,13.9277,21.5033,-0.00166173,-0.00428566,0.00342977,0.000698441,-0.00664583,0.602724,0.00468077,0.0169087,1742,1604,13.9277,-21.5034
525,-580,13.9022,21.1219,-0.00246283,-0.00664934,0.00557468,0.00139865,-0.0105108,0.605797,0.00751692,0.0189235,1749,1604,13.9022,-21.122
532,-580,13.8744,20.6962,-0.00330655,-0.00979418,0.00851833,0.00256469,-0.0156654,0.603473,0.0113951,0.0196838,1756,1604,13.8744,-20.6962
539,-580,13.8789,20.3303,-0.00438914,-0.0142114,0.0126279,0.00424901,-0.0228495,0.599943,0.0168291,0.0301234,1763,1604,13.8789,-20.3303
546,-580,14.2045,19.8402,0,0,0,0,0,0,0,-1,1770,1604,14.2044,-19.8402
553,-580,12.7742,19.9968,0,0,0,0,0,0,0,-1,1777,1604,12.7742,-19.9968
560,-580,12.8351,20.9944,0,0,0,0,0,0,0,-1,1784,1604,12.8351,-20.9944
567,-580,3.87708,4.0647,0,0,0,0,0,0,0,-1,1791,1604,3.87711,-4.06471
574,-580,2.31653,5.62952,0,0,0,0,0,0,0,-1,1798,1604,2.31654,-5.62947
581,-580,1.60876,6.67664,0,0,0,0,0,0,0,-1,1805,1604,1.60873,-6.67667
588,-580,1.38684,7.14441,0,0,0,0,0,0,0,-1,1812,1604,1.38689,-7.14443
595,-580,0,0,0,0,0,0,0,0,0,-1,1819,1604,0,0
602,-580,0,0,0,0,0,0,0,0,0,-1,1826,1604,0,0
609,-580,0,0,0,0,0,0,0,0,0,-1,1833,1604,0,0
616,-580,0,0,0,0,0,0,0,0,0,-1,1840,1604,0,0
623,-580,0,0,0,0,0,0,0,0,0,-1,1847,1604,0,0
630,-580,0,0,0,0,0,0,0,0,0,-1,1854,1604,0,0
637,-580,0,0,0,0,0,0,0,0,0,-1,1861,1604,0,0
644,-580,0,0,0,0,0,0,0,0,0,-1,1868,1604,0,0
651,-580,0,0,0,0,0,0,0,0,0,-1,1875,1604,0,0
658,-580,0,0,0,0,0,0,0,0,0,-1,1882,1604,0,0
665,-580,0,0,0,0,0,0,0,0,0,-1,1889,1604,0,0
672,-580,0,0,0,0,0,0,0,0,0,-1,1896,1604,0,0
679,-580,0,0,0,0,0,0,0,0,0,-1,1903,1604,0,0
686,-580,0,0,0,0,0,0,0,0,0,-1,1910,1604,0,0
693,-580,0,0,0,0,0,0,0,0,0,-1,1917,1604,0,0
700,-580,0,0,0,0,0,0,0,0,0,-1,1924,1604,0,0
707,-580,0,0,0,0,0,0,0,0,0,-1,1931,1604,0,0
714,-580,0,0,0,0,0,0,0,0,0,-1,1938,1604,0,0
721,-580,0,0,0,0,0,0,0,0,0,-1,1945,1604,0,0
728,-580,0,0,0,0,0,0,0,0,0,-1,1952,1604,0,0
735,-580,0,0,0,0,0,0,0,0,0,-1,1959,1604,0,0
742,-580,0,0,0,0,0,0,0,0,0,-1,1966,1604,0,0
749,-580,0,0,0,0,0,0,0,0,0,-1,1973,1604,0,0
756,-580,0,0,0,0,0,0,0,0,0,-1,1980,1604,0,0
763,-580,0,0,0,0,0,0,0,0,0,-1,1987,1604,0,0
770,-580,0,0,0,0,0,0,0,0,0,-1,1994,1604,0,0
777,-580,0,0,0,0,0,0,0,0,0,-1,2001,1604,0,0
784,-580,0,0,0,0,0,0,0,0,0,-1,2008,1604,0,0
791,-580,0,0,0,0,0,0,0,0,0,-1,2015,1604,0,0
798,-580,0,0,0,0,0,0,0,0,0,-1,2022,1604,0,0
805,-580,0,0,0,0,0,0,0,0,0,-1,2029,1604,0,0
812,-580,0,0,0,0,0,0,0,0,0,-1,2036,1604,0,0
-700,-587,0,0,0,0,0,0,0,0,0,-1,524,1611,0,0
-693,-587,0,0,0,0,0,0,0,0,0,-1,531,1611,0,0
-686,-587,0,0,0,0,0,0,0,0,0,-1,538,1611,0,0
-679,-587,0,0,0,0,0,0,0,0,0,-1,545,1611,0,0
-672,-587,0,0,0,0,0,0,0,0,0,-1,552,1611,0,0
-665,-587,0,0,0,0,0,0,0,0,0,-1,559,1611,0,0
-658,-587,0,0,0,0,0,0,0,0,0,-1,566,1611,0,0
-651,-587,0,0,0,0,0,0,0,0,0,-1,573,1611,0,0
-644,-587,0,0,0,0,0,0,0,0,0,-1,580,1611,0,0
-637,-587,0,0,0,0,0,0,0,0,0,-1,587,1611,0,0
-630,-587,0,0,0,0,0,0,0,0,0,-1,594,1611,0,0
-623,-587,0,0,0,0,0,0,0,0,0,-1,601,1611,0,0
-616,-587,0,0,0,0,0,0,0,0,0,-1,608,1611,0,0
-609,-587,0,0,0,0,0,0,0,0,0,-1,615,1611,0,0
-602,-587,0,0,0,0,0,0,0,0,0,-1,622,1611,0,0
-595,-587,0,0,0,0,0,0,0,0,0,-1,629,1611,0,0
-588,-587,0,0,0,0,0,0,0,0,0,-1,636,1611,0,0
-581,-587,0,0,0,0,0,0,0,0,0,-1,643,1611,0,0
-574,-587,0,0,0,0,0,0,0,0,0,-1,650,1611,0,0
-567,-587,0,0,0,0,0,0,0,0,0,-1,657,1611,0,0
-560,-587,0,0,0,0,0,0,0,0,0,-1,664,1611,0,0
-553,-587,0,0,0,0,0,0,0,0,0,-1,671,1611,0,0
-546,-587,0,0,0,0,0,0,0,0,0,-1,678,1611,0,0
-539,-587,0,0,0,0,0,0,0,0,0,-1,685,1611,0,0
-532,-587,0,0,0,0,0,0,0,0,0,-1,692,1611,0,0
-525,-587,0,0,0,0,0,0,0,0,0,-1,699,1611,0,0
-518,-587,0,0,0,0,0,0,0,0,0,-1,706,1611,0,0
-511,-587,0,0,0,0,0,0,0,0,0,-1,713,1611,0,0
-504,-587,0,0,0,0,0,0,0,0,0,-1,720,1611,0,0
-497,-587,0,0,0,0,0,0,0,0,0,-1,727,1611,0,0
-490,-587,0,0,0,0,0,0,0,0,0,-1,734,1611,0,0
-483,-587,0,0,0,0,0,0,0,0,0,-1,741,1611,0,0
-476,-587,0,0,0,0,0,0,0,0,0,-1,748,1611,0,0
-469,-587,0,0,0,0,0,0,0,0,0,-1,755,1611,0,0
-462,-587,-0.714355,-0.418457,0,0,0,0,0,0,0,-1,762,1611,-0.714359,0.418483
-455,-587,-0.619812,-0.522461,0,0,0,0,0,0,0,-1,769,1611,-0.619802,0.522515
-448,-587,-0.461731,-0.686523,0,0,0,0,0,0,0,-1,776,1611,-0.461739,0.686559
-441,-587,-3.56555,2.72253,0,0,0,0,0,0,0,-1,783,1611,-3.56555,-2.72259
-434,-587,-1.77319,4.76318,0,0,0,0,0,0,0,-1,790,1611,-1.77318,-4.76323
-427,-587,0.0346069,6.92944,0,0,0,0,0,0,0,-1,797,1611,0.034587,-6.92941
-420,-587,-0.647156,10.1157,0,0,0,0,0,0,0,-1,804,1611,-0.647128,-10.1158
-413,-587,2.13971,10.3901,0,0,0,0,0,0,0,-1,811,1611,2.13971,-10.3902
-406,-587,2.34473,18.8833,0,0,0,0,0,0,0,-1,818,1611,2.34474,-18.8833
-399,-587,2.01312,19.4379,-0.0101106,0.00631591,0.00122936,0.0064074,-0.0102021,1.49651,0.00967255,0.0490111,825,1611,2.01312,-19.4379
-392,-587,1.76099,19.8732,-0.00867174,0.00414008,0.00106483,0.00422798,-0.00875963,1.48844,0.00764904,0.037483,832,1611,1.76096,-19.8732
-385,-587,1.53467,20.3888,-0.00664403,0.00296645,0.00107433,0.00308508,-0.00676266,1.46082,0.00581625,0.0203866,839,1611,1.53466,-20.3888
-378,-587,1.53949,20.8906,-0.00473803,0.0023452,0.00109076,0.00250936,-0.00490219,1.42141,0.00435277,0.0136969,846,1611,1.53949,-20.8907
-371,-587,1.51624,21.3894,-0.00315957,0.00190745,0.000983895,0.0020918,-0.00334391,1.38558,0.00316594,0.0138267,853,1611,1.51626,-21.3894
-364,-587,1.52881,21.835,-0.00190806,0.00179235,0.000925504,0.00201092,-0.00212663,1.33889,0.00238912,0.0176748,860,1611,1.52879,-21.8349
-357,-587,1.5188,22.2167,-0.000764699,0.00185548,0.000867704,0.00211678,-0.00102599,1.2783,0.00185055,0.0177024,867,1611,1.51879,-22.2166
-350,-587,1.4986,22.6779,0.000325618,0.00200406,0.000845611,0.0023562,-2.65255e-05,1.1762,0.00157972,0.00980286,874,1611,1.49857,-22.6779
-343,-587,1.48621,23.0959,0.00132755,0.0023114,0.00102539,0.00295676,0.00068219,1.00905,0.0017877,0.0118198,881,1611,1.48619,-23.0959
-336,-587,1.47723,23.4991,0.00220504,0.00294952,0.00117686,0.00381161,0.00134295,0.938569,0.00223239,0.0126123,888,1611,1.47724,-23.4992
-329,-587,1.46661,23.931,0.00294509,0.00368752,0.00144288,0.00480617,0.00182644,0.911305,0.00280135,0.0150288,895,1611,1.46659,-23.931
-322,-587,1.4798,24.3652,0.00361122,0.00462615,0.0019287,0.00611303,0.00212434,0.914038,0.00358365,0.0182812,902,1611,1.47982,-24.3652
-315,-587,1.45819,24.7897,0.00440456,0.00584917,0.00265069,0.0078742,0.00237953,0.918417,0.00466325,0.0145495,909,1611,1.45816,-24.7897
-308,-587,1.46698,25.2056,0.0051426,0.00698211,0.00331847,0.00950593,0.00261878,0.920586,0.00566967,0.0142405,916,1611,1.46696,-25.2056
-301,-587,1.53613,25.6223,0.00604046,0.00792241,0.00416935,0.0112556,0.00270722,0.896383,0.00678387,0.0151845,923,1611,1.53616,-25.6223
-294,-587,1.59912,26.0989,0.00705496,0.00873324,0.00539983,0.0133587,0.00242946,0.862482,0.00821662,0.0286497,930,1611,1.59915,-26.0989
-287,-587,1.52551,26.719,0.00813532,0.00988736,0.00682167,0.015889,0.00213366,0.849257,0.00995795,0.0464194,937,1611,1.52553,-26.719
-280,-587,1.83148,27.7432,0,0,0,0,0,0,0,-1,944,1611,1.83151,-27.7432
-273,-587,2.08148,27.8693,0,0,0,0,0,0,0,-1,951,1611,2.08147,-27.8693
-266,-587,2.14856,28.3071,0,0,0,0,0,0,0,-1,958,1611,2.14853,-28.3071
-259,-587,1.69727,27.7783,0,0,0,0,0,0,0,-1,965,1611,1.69724,-27.7784
-252,-587,1.30188,10.3103,0,0,0,0,0,0,0,-1,972,1611,1.30188,-10.3104
-245,-587,1.9494,25.2325,0,0,0,0,0,0,0,-1,979,1611,1.94942,-25.2326
-238,-587,2.87799,9.53821,0,0,0,0,0,0,0,-1,986,1611,2.87797,-9.53823
-231,-587,2.49548,9.14465,0,0,0,0,0,0,0,-1,993,1611,2.49551,-9.14468
-224,-587,-9.72528,9.21069,0,0,0,0,0,0,0,-1,1000,1611,-9.72529,-9.21072
-217,-587,-7.07495,10.7847,0,0,0,0,0,0,0,-1,1007,1611,-7.07495,-10.7847
-210,-587,-4.72308,12.5889,0,0,0,0,0,0,0,-1,1014,1611,-4.72307,-12.5888
-203,-587,-3.2583,13.7289,0,0,0,0,0,0,0,-1,1021,1611,-3.25828,-13.7289
-196,-587,-1.953,14.8145,0,0,0,0,0,0,0,-1,1028,1611,-1.95302,-14.8144
-189,-587,-3.04138,8.66638,0,0,0,0,0,0,0,-1,1035,1611,-3.04136,-8.66635
-182,-587,-3.97095,9.7146,0,0,0,0,0,0,0,-1,1042,1611,-3.97093,-9.71461
-175,-587,-4.80969,8.37878,0,0,0,0,0,0,0,-1,1049,1611,-4.80964,-8.37883
-168,-587,-5.91394,8.72546,0,0,0,0,0,0,0,-1,1056,1611,-5.91398,-8.72542
-161,-587,-7.06946,8.88501,0,0,0,0,0,0,0,-1,1063,1611,-7.06947,-8.885
-154,-587,-2.24731,6.56519,0,0,0,0,0,0,0,-1,1070,1611,-2.24728,-6.56517
-147,-587,0,0,0,0,0,0,0,0,0,-1,1077,1611,0,0
-140,-587,0,0,0,0,0,0,0,0,0,-1,1084,1611,0,0
-133,-587,0,0,0,0,0,0,0,0,0,-1,1091,1611,0,0
-126,-587,0,0,0,0,0,0,0,0,0,-1,1098,1611,0,0
-119,-587,0,0,0,0,0,0,0,0,0,-1,1105,1611,0,0
-112,-587,0,0,0,0,0,0,0,0,0,-1,1112,1611,0,0
-105,-587,0,0,0,0,0,0,0,0,0,-1,1119,1611,0,0
-98,-587,0,0,0,0,0,0,0,0,0,-1,1126,1611,0,0
-91,-587,0,0,0,0,0,0,0,0,0,-1,1133,1611,0,0
-84,-587,0,0,0,0,0,0,0,0,0,-1,1140,1611,0,0
-77,-587,0,0,0,0,0,0,0,0,0,-1,1147,1611,0,0
-70,-587,0,0,0,0,0,0,0,0,0,-1,1154,1611,0,0
-63,-587,0,0,0,0,0,0,0,0,0,-1,1161,1611,0,0
-56,-587,0,0,0,0,0,0,0,0,0,-1,1168,1611,0,0
-49,-587,0,0,0,0,0,0,0,0,0,-1,1175,1611,0,0
-42,-587,0,0,0,0,0,0,0,0,0,-1,1182,1611,0,0
-35,-587,0,0,0,0,0,0,0,0,0,-1,1189,1611,0,0
-28,-587,0,0,0,0,0,0,0,0,0,-1,1196,1611,0,0
-21,-587,0,0,0,0,0,0,0,0,0,-1,1203,1611,0,0
-14,-587,0,0,0,0,0,0,0,0,0,-1,1210,1611,0,0
-7,-587,0,0,0,0,0,0,0,0,0,-1,1217,1611,0,0
0,-587,0,0,0,0,0,0,0,0,0,-1,1224,1611,0,0
7,-587,0,0,0,0,0,0,0,0,0,-1,1231,1611,0,0
14,-587,0,0,0,0,0,0,0,0,0,-1,1238,1611,0,0
21,-587,0,0,0,0,0,0,0,0,0,-1,1245,1611,0,0
28,-587,0,0,0,0,0,0,0,0,0,-1,1252,1611,0,0
35,-587,0,0,0,0,0,0,0,0,0,-1,1259,1611,0,0
42,-587,0,0,0,0,0,0,0,0,0,-1,1266,1611,0,0
49,-587,0,0,0,0,0,0,0,0,0,-1,1273,1611,0,0
56,-587,0,0,0,0,0,0,0,0,0,-1,1280,1611,0,0
63,-587,0,0,0,0,0,0,0,0,0,-1,1287,1611,0,0
70,-587,0,0,0,0,0,0,0,0,0,-1,1294,1611,0,0
77,-587,0,0,0,0,0,0,0,0,0,-1,1301,1611,0,0
84,-587,0,0,0,0,0,0,0,0,0,-1,1308,1611,0,0
91,-587,0,0,0,0,0,0,0,0,0,-1,1315,1611,0,0
98,-587,0,0,0,0,0,0,0,0,0,-1,1322,1611,0,0
105,-587,0,0,0,0,0,0,0,0,0,-1,1329,1611,0,0
112,-587,0,0,0,0,0,0,0,0,0,-1,1336,1611,0,0
119,-587,0,0,0,0,0,0,0,0,0,-1,1343,1611,0,0
126,-587,0,0,0,0,0,0,0,0,0,-1,1350,1611,0,0
133,-587,0,0,0,0,0,0,0,0,0,-1,1357,1611,0,0
140,-587,0,0,0,0,0,0,0,0,0,-1,1364,1611,0,0
147,-587,0,0,0,0,0,0,0,0,0,-1,1371,1611,0,0
154,-587,0,0,0,0,0,0,0,0,0,-1,1378,1611,0,0
161,-587,0,0,0,0,0,0,0,0,0,-1,1385,1611,0,0
168,-587,0,0,0,0,0,0,0,0,0,-1,1392,1611,0,0
175,-587,0,0,0,0,0,0,0,0,0,-1,1399,1611,0,0
182,-587,0,0,0,0,0,0,0,0,0,-1,1406,1611,0,0
189,-587,0,0,0,0,0,0,0,0,0,-1,1413,1611,0,0
196,-587,0,0,0,0,0,0,0,0,0,-1,1420,1611,0,0
203,-587,0,0,0,0,0,0,0,0,0,-1,1427,1611,0,0
210,-587,0,0,0,0,0,0,0,0,0,-1,1434,1611,0,0
217,-587,0,0,0,0,0,0,0,0,0,-1,1441,1611,0,0
224,-587,0,0,0,0,0,0,0,0,0,-1,1448,1611,0,0
231,-587,0,0,0,0,0,0,0,0,0,-1,1455,1611,0,0
238,-587,0,0,0,0,0,0,0,0,0,-1,1462,1611,0,0
245,-587,0,0,0,0,0,0,0,0,0,-1,1469,1611,0,0
252,-587,0,0,0,0,0,0,0,0,0,-1,1476,1611,0,0
259,-587,0,0,0,0,0,0,0,0,0,-1,1483,1611,0,0
266,-587,0,0,0,0,0,0,0,0,0,-1,1490,1611,0,0
273,-587,10.2936,6.35083,0,0,0,0,0,0,0,-1,1497,1611,10.2936,-6.35087
280,-587,2.09204,1.1217,0,0,0,0,0,0,0,-1,1504,1611,2.092,-1.12176
287,-587,3.2865,0.671509,0,0,0,0,0,0,0,-1,1511,1611,3.28656,-0.671538
294,-587,4.24646,1.58765,0,0,0,0,0,0,0,-1,1518,1611,4.24648,-1.58761
301,-587,7.60474,8.37085,0,0,0,0,0,0,0,-1,1525,1611,7.60478,-8.37084
308,-587,5.99316,10.2291,0,0,0,0,0,0,0,-1,1532,1611,5.99315,-10.2291
315,-587,4.34558,12.3289,0,0,0,0,0,0,0,-1,1539,1611,4.34556,-12.3288
322,-587,10.4526,6.38245,0,0,0,0,0,0,0,-1,1546,1611,10.4526,-6.38245
329,-587,10.7738,8.42444,0,0,0,0,0,0,0,-1,1553,1611,10.7738,-8.42438
336,-587,7.5531,5.96619,0,0,0,0,0,0,0,-1,1560,1611,7.55311,-5.96617
343,-587,9.57495,4.38391,0,0,0,0,0,0,0,-1,1567,1611,9.57494,-4.38397
350,-587,9.50378,3.45093,0,0,0,0,0,0,0,-1,1574,1611,9.50376,-3.4509
357,-587,9.40027,2.50806,0,0,0,0,0,0,0,-1,1581,1611,9.40022,-2.50803
364,-587,9.26477,1.34131,0,0,0,0,0,0,0,-1,1588,1611,9.26479,-1.34126
371,-587,6.98926,7.87561,0,0,0,0,0,0,0,-1,1595,1611,6.98928,-7.87564
378,-587,9.25146,13.8358,0,0,0,0,0,0,0,-1,1602,1611,9.2515,-13.8359
385,-587,13.9305,30.3229,0,0,0,0,0,0,0,-1,1609,1611,13.9305,-30.3228
392,-587,13.8514,29.6133,0,0,0,0,0,0,0,-1,1616,1611,13.8515,-29.6133
399,-587,13.8384,28.3406,0,0,0,0,0,0,0,-1,1623,1611,13.8384,-28.3406
406,-587,14.0399,27.6313,-0.000870142,0.0136295,0.000909522,0.0136863,-0.000926971,1.5084,0.00944837,0.0434665,1630,1611,14.0399,-27.6314
413,-587,13.8079,27.3577,-0.00189147,0.0122858,0.00112895,0.0123751,-0.0019808,1.49183,0.00898344,0.0338097,1637,1611,13.8079,-27.3577
420,-587,13.6141,27.1661,-0.00203347,0.0112409,0.00075293,0.0112835,-0.00207604,1.51432,0.00830131,0.0286571,1644,1611,13.6141,-27.1661
427,-587,13.6117,26.7767,-0.00189268,0.0102437,0.00042254,0.0102584,-0.00190737,1.53604,0.00755541,0.0230691,1651,1611,13.6117,-26.7767
434,-587,13.6045,26.2748,-0.00146108,0.00901873,4.60073e-05,0.00901894,-0.00146128,1.56641,0.00655424,0.0172298,1658,1611,13.6045,-26.2748
441,-587,13.6256,25.8259,-0.000704258,0.00825293,-0.000621257,0.00829582,-0.000747142,-1.50188,0.00579567,0.0197417,1665,1611,13.6257,-25.8259
448,-587,13.6279,25.5275,-0.000188169,0.00748779,-0.00104361,0.00762715,-0.000327526,-1.43805,0.00519738,0.0144608,1672,1611,13.6279,-25.5275
455,-587,13.6073,25.1914,0.00032716,0.00649275,-0.00154256,0.00685715,-3.7235e-05,-1.33882,0.00458389,0.014015,1679,1611,13.6072,-25.1914
462,-587,13.5939,24.7854,0.000940105,0.00560723,-0.00195441,0.00631756,0.000229782,-1.22219,0.00413724,0.0178352,1686,1611,13.5939,-24.7854
469,-587,13.5896,24.373,0.00124456,0.00445926,-0.00197724,0.00540006,0.00030376,-1.12669,0.00350318,0.0152635,1693,1611,13.5896,-24.3731
476,-587,13.5968,23.9841,0.00115425,0.00316164,-0.00172291,0.00415189,0.000163997,-1.04915,0.00271491,0.0106735,1700,1611,13.5968,-23.9842
483,-587,13.5688,23.583,0.000973818,0.00185945,-0.00143348,0.00291695,-8.36813e-05,-0.935204,0.00197312,0.013793,1707,1611,13.5688,-23.583
490,-587,13.5481,23.1755,0.000577575,0.000789617,-0.000965168,0.00165457,-0.000287377,-0.840102,0.00121027,0.0164953,1714,1611,13.5481,-23.1756
497,-587,13.5391,22.7659,-7.37763e-05,-0.000145076,-0.000452516,0.000344492,-0.000563344,-0.746089,0.000529191,0.0129299,1721,1611,13.5391,-22.7659
504,-587,13.5197,22.3741,-0.000830905,-0.00127676,0.000548847,-0.000461439,-0.00164623,0.592489,0.000980557,0.0118842,1728,1611,13.5196,-22.3742
511,-587,13.5043,21.9547,-0.00161281,-0.00338335,0.00225925,-7.15759e-05,-0.00492458,0.598671,0.00325946,0.0141267,1735,1611,13.5042,-21.9547
518,-587,13.5249,21.537,-0.00237894,-0.00522611,0.00395783,0.00040354,-0.00800859,0.612758,0.00547853,0.0146899,1742,1611,13.5249,-21.537
525,-587,13.5189,21.1753,-0.00319672,-0.007737,0.00633397,0.00126164,-0.0121954,0.613326,0.00858176,0.0188485,1749,1611,13.5189,-21.1753
532,-587,13.4595,20.7629,-0.00414411,-0.0112436,0.00976842,0.00269954,-0.0180872,0.611122,0.0130514,0.0298936,1756,1611,13.4595,-20.7629
539,-587,13.4976,20.2899,-0.00549477,-0.0165029,0.0148165,0.00480702,-0.0268047,0.607557,0.0196689,0.0492322,1763,1611,13.4976,-20.2899
546,-587,13.6368,19.7939,0,0,0,0,0,0,0,-1,1770,1611,13.6368,-19.7939
553,-587,7.5813,8.45068,0,0,0,0,0,0,0,-1,1777,1611,7.58125,-8.45068
560,-587,4.21179,5.23547,0,0,0,0,0,0,0,-1,1784,1611,4.21185,-5.23553
567,-587,4.03711,5.46387,0,0,0,0,0,0,0,-1,1791,1611,4.03715,-5.46382
574,-587,3.83142,5.68884,0,0,0,0,0,0,0,-1,1798,1611,3.83141,-5.68881
581,-587,3.47168,6.00977,0,0,0,0,0,0,0,-1,1805,1611,3.47167,-6.00983
588,-587,0,0,0,0,0,0,0,0,0,-1,1812,1611,0,0
595,-587,0,0,0,0,0,0,0,0,0,-1,1819,1611,0,0
602,-587,0,0,0,0,0,0,0,0,0,-1,1826,1611,0,0
609,-587,0,0,0,0,0,0,0,0,0,-1,1833,1611,0,0
616,-587,0,0,0,0,0,0,0,0,0,-1,1840,1611,0,0
623,-587,0,0,0,0,0,0,0,0,0,-1,1847,1611,0,0
630,-587,0,0,0,0,0,0,0,0,0,-1,1854,1611,0,0
637,-587,0,0,0,0,0,0,0,0,0,-1,1861,1611,0,0
644,-587,0,0,0,0,0,0,0,0,0,-1,1868,1611,0,0
651,-587,0,0,0,0,0,0,0,0,0,-1,1875,1611,0,0
658,-587,0,0,0,0,0,0,0,0,0,-1,1882,1611,0,0
665,-587,0,0,0,0,0,0,0,0,0,-1,1889,1611,0,0
672,-587,0,0,0,0,0,0,0,0,0,-1,1896,1611,0,0
679,-587,0,0,0,0,0,0,0,0,0,-1,1903,1611,0,0
686,-587,0,0,0,0,0,0,0,0,0,-1,1910,1611,0,0
693,-587,0,0,0,0,0,0,0,0,0,-1,1917,1611,0,0
700,-587,0,0,0,0,0,0,0,0,0,-1,1924,1611,0,0
707,-587,0,0,0,0,0,0,0,0,0,-1,1931,1611,0,0
714,-587,0,0,0,0,0,0,0,0,0,-1,1938,1611,0,0
721,-587,0,0,0,0,0,0,0,0,0,-1,1945,1611,0,0
728,-587,0,0,0,0,0,0,0,0,0,-1,1952,1611,0,0
735,-587,0,0,0,0,0,0,0,0,0,-1,1959,1611,0,0
742,-587,0,0,0,0,0,0,0,0,0,-1,1966,1611,0,0
749,-587,0,0,0,0,0,0,0,0,0,-1,1973,1611,0,0
756,-587,0,0,0,0,0,0,0,0,0,-1,1980,1611,0,0
763,-587,0,0,0,0,0,0,0,0,0,-1,1987,1611,0,0
770,-587,0,0,0,0,0,0,0,0,0,-1,1994,1611,0,0
777,-587,0,0,0,0,0,0,0,0,0,-1,2001,1611,0,0
784,-587,0,0,0,0,0,0,0,0,0,-1,2008,1611,0,0
791,-587,0,0,0,0,0,0,0,0,0,-1,2015,1611,0,0
798,-587,0,0,0,0,0,0,0,0,0,-1,2022,1611,0,0
805,-587,0,0,0,0,0,0,0,0,0,-1,2029,1611,0,0
812,-587,0,0,0,0,0,0,0,0,0,-1,2036,1611,0,0
-700,-594,0,0,0,0,0,0,0,0,0,-1,524,1618,0,0
-693,-594,0,0,0,0,0,0,0,0,0,-1,531,1618,0,0
-686,-594,0,0,0,0,0,0,0,0,0,-1,538,1618,0,0
-679,-594,0,0,0,0,0,0,0,0,0,-1,545,1618,0,0
-672,-594,0,0,0,0,0,0,0,0,0,-1,552,1618,0,0
-665,-594,0,0,0,0,0,0,0,0,0,-1,559,1618,0,0
-658,-594,0,0,0,0,0,0,0,0,0,-1,566,1618,0,0
-651,-594,0,0,0,0,0,0,0,0,0,-1,573,1618,0,0
-644,-594,0,0,0,0,0,0,0,0,0,-1,580,1618,0,0
-637,-594,0,0,0,0,0,0,0,0,0,-1,587,1618,0,0
-630,-594,0,0,0,0,0,0,0,0,0,-1,594,1618,0,0
-623,-594,0,0,0,0,0,0,0,0,0,-1,601,1618,0,0
-616,-594,0,0,0,0,0,0,0,0,0,-1,608,1618,0,0
-609,-594,0,0,0,0,0,0,0,0,0,-1,615,1618,0,0
-602,-594,0,0,0,0,0,0,0,0,0,-1,622,1618,0,0
-595,-594,0,0,0,0,0,0,0,0,0,-1,629,1618,0,0
-588,-594,0,0,0,0,0,0,0,0,0,-1,636,1618,0,0
-581,-594,0,0,0,0,0,0,0,0,0,-1,643,1618,0,0
-574,-594,0,0,0,0,0,0,0,0,0,-1,650,1618,0,0
-567,-594,0,0,0,0,0,0,0,0,0,-1,657,1618,0,0
-560,-594,0,0,0,0,0,0,0,0,0,-1,664,1618,0,0
-553,-594,0,0,0,0,0,0,0,0,0,-1,671,1618,0,0
-546,-594,0,0,0,0,0,0,0,0,0,-1,678,1618,0,0
-539,-594,0,0,0,0,0,0,0,0,0,-1,685,1618,0,0
-532,-594,0,0,0,0,0,0,0,0,0,-1,692,1618,0,0
-525,-594,0,0,0,0,0,0,0,0,0,-1,699,1618,0,0
-518,-594,0,0,0,0,0,0,0,0,0,-1,706,1618,0,0
-511,-594,0,0,0,0,0,0,0,0,0,-1,713,1618,0,0
-504,-594,0,0,0,0,0,0,0,0,0,-1,720,1618,0,0
-497,-594,0,0,0,0,0,0,0,0,0,-1,727,1618,0,0
-490,-594,0,0,0,0,0,0,0,0,0,-1,734,1618,0,0
-483,-594,0,0,0,0,0,0,0,0,0,-1,741,1618,0,0
-476,-594,0,0,0,0,0,0,0,0,0,-1,748,1618,0,0
-469,-594,0,0,0,0,0,0,0,0,0,-1,755,1618,0,0
-462,-594,0,0,0,0,0,0,0,0,0,-1,762,1618,0,0
-455,-594,-0.509216,-1.58411,0,0,0,0,0,0,0,-1,769,1618,-0.509245,1.58415
-448,-594,-7.71887,-0.0559082,0,0,0,0,0,0,0,-1,776,1618,-7.71885,0.055939
-441,-594,-5.78473,1.18298,0,0,0,0,0,0,0,-1,783,1618,-5.78474,-1.18295
-434,-594,-3.93628,3.06213,0,0,0,0,0,0,0,-1,790,1618,-3.93631,-3.06208
-427,-594,-3.97693,6.77759,0,0,0,0,0,0,0,-1,797,1618,-3.97695,-6.77764
-420,-594,-2.53046,7.71606,0,0,0,0,0,0,0,-1,804,1618,-2.53047,-7.71609
-413,-594,-0.860413,8.00391,0,0,0,0,0,0,0,-1,811,1618,-0.860423,-8.00389
-406,-594,2.45746,13.6218,0,0,0,0,0,0,0,-1,818,1618,2.45747,-13.6218
-399,-594,2.44305,19.1875,0,0,0,0,0,0,0,-1,825,1618,2.44306,-19.1875
-392,-594,2.33478,19.8022,-0.011193,0.00597264,0.00152963,0.00610788,-0.0113282,1.48261,0.010216,0.0488962,832,1618,2.33479,-19.8023
-385,-594,2.05731,20.5587,-0.00837032,0.00453057,0.0016172,0.00473021,-0.00856995,1.44797,0.00778479,0.034548,839,1618,2.05733,-20.5587
-378,-594,1.92426,20.9156,-0.00601231,0.00344492,0.00156197,0.00369622,-0.00626361,1.41128,0.00581365,0.0155776,846,1618,1.92426,-20.9156
-371,-594,1.94696,21.3986,-0.00414378,0.00259705,0.00138095,0.00286898,-0.00441571,1.37636,0.0042373,0.0119357,853,1618,1.94694,-21.3986
-364,-594,1.96295,21.8347,-0.00275612,0.00209168,0.00124286,0.00239175,-0.00305619,1.3339,0.00315316,0.0107485,860,1618,1.96292,-21.8347
-357,-594,1.948,22.2662,-0.00155107,0.00178854,0.00110312,0.00212002,-0.00188255,1.27889,0.00231224,0.0113265,867,1618,1.94797,-22.2662
-350,-594,1.91577,22.7133,-0.000481096,0.00162176,0.000999657,0.00202113,-0.000880466,1.19072,0.00171784,0.0153057,874,1618,1.91575,-22.7132
-343,-594,1.89673,23.1409,0.000489294,0.00161849,0.00110877,0.00229813,-0.000190351,1.02089,0.00159932,0.0170439,881,1618,1.89675,-23.1409
-336,-594,1.87653,23.5269,0.00133113,0.00191806,0.00113293,0.00279491,0.000454276,0.91213,0.00173183,0.0152218,888,1618,1.87653,-23.5268
-329,-594,1.87787,23.9628,0.00197504,0.00242176,0.00125576,0.00347387,0.000922924,0.873412,0.00207776,0.0146541,895,1618,1.87787,-23.9628
-322,-594,1.91315,24.4076,0.00251437,0.00312483,0.00158871,0.00443736,0.00120184,0.880305,0.00265008,0.0167035,902,1618,1.91316,-24.4076
-315,-594,1.90765,24.8005,0.00315915,0.0040865,0.00212649,0.00579928,0.00144636,0.892741,0.00348557,0.0163694,909,1618,1.90766,-24.8005
-308,-594,1.90521,25.2065,0.00379129,0.00495846,0.0026231,0.00706211,0.00168764,0.894854,0.00425849,0.0142181,916,1618,1.90522,-25.2066
-301,-594,1.896,25.587,0.00452517,0.00570843,0.0032601,0.00843015,0.00180345,0.875159,0.00512582,0.011818,923,1618,1.89597,-25.5871
-294,-594,1.91882,25.9707,0.00539393,0.00643491,0.0041329,0.01008,0.00174888,0.848037,0.00621952,0.0145951,930,1618,1.9188,-25.9707
-287,-594,1.86017,26.3689,0.00638644,0.0074013,0.00514074,0.0120596,0.00172814,0.834593,0.00753007,0.0250425,937,1618,1.86016,-26.3689
-280,-594,1.98712,26.8176,0.00756764,0.00831401,0.00627946,0.0142314,0.00165029,0.815078,0.00898812,0.0307233,944,1618,1.9871,-26.8177
-273,-594,1.99774,27.3292,0.00874116,0.00868816,0.00727785,0.0159926,0.00143677,0.783578,0.0102165,0.0374978,951,1618,1.99773,-27.3292
-266,-594,2.1806,27.845,0.0100587,0.00897391,0.00835313,0.017887,0.00114557,0.752978,0.0115618,0.0435194,958,1618,2.18061,-27.845
-259,-594,2.31445,28.2333,0,0,0,0,0,0,0,-1,965,1618,2.31443,-28.2333
-252,-594,2.18274,28.0736,0,0,0,0,0,0,0,-1,972,1618,2.18273,-28.0736
-245,-594,2.1236,28.5784,0,0,0,0,0,0,0,-1,979,1618,2.1236,-28.5783
-238,-594,2.10962,25.5623,0,0,0,0,0,0,0,-1,986,1618,2.10965,-25.5622
-231,-594,1.93774,9.35388,0,0,0,0,0,0,0,-1,993,1618,1.93776,-9.35393
-224,-594,1.81824,8.62744,0,0,0,0,0,0,0,-1,1000,1618,1.81822,-8.62745
-217,-594,-8.24066,12.0752,0,0,0,0,0,0,0,-1,1007,1618,-8.24068,-12.0751
-210,-594,-5.61438,14.2119,0,0,0,0,0,0,0,-1,1014,1618,-5.6144,-14.212
-203,-594,-3.94507,15.5768,0,0,0,0,0,0,0,-1,1021,1618,-3.94506,-15.5768
-196,-594,2.78613,10.5815,0,0,0,0,0,0,0,-1,1028,1618,2.78612,-10.5815
-189,-594,2.60913,9.48865,0,0,0,0,0,0,0,-1,1035,1618,2.6091,-9.48871
-182,-594,1.2395,9.38806,0,0,0,0,0,0,0,-1,1042,1618,1.23951,-9.38804
-175,-594,0.234863,8.73792,0,0,0,0,0,0,0,-1,1049,1618,0.234812,-8.73786
-168,-594,-0.495483,8.46289,0,0,0,0,0,0,0,-1,1056,1618,-0.495513,-8.46285
-161,-594,-1.39734,8.28699,0,0,0,0,0,0,0,-1,1063,1618,-1.39729,-8.28699
-154,-594,-0.000854492,7.68445,0,0,0,0,0,0,0,-1,1070,1618,-0.000805755,-7.6845
-147,-594,0.348267,9.3385,0,0,0,0,0,0,0,-1,1077,1618,0.348237,-9.33849
-140,-594,0.675171,11.5884,0,0,0,0,0,0,0,-1,1084,1618,0.675204,-11.5884
-133,-594,0,0,0,0,0,0,0,0,0,-1,1091,1618,0,0
-126,-594,0,0,0,0,0,0,0,0,0,-1,1098,1618,0,0
-119,-594,0,0,0,0,0,0,0,0,0,-1,1105,1618,0,0
-112,-594,0,0,0,0,0,0,0,0,0,-1,1112,1618,0,0
-105,-594,0,0,0,0,0,0,0,0,0,-1,1119,1618,0,0
-98,-594,0,0,0,0,0,0,0,0,0,-1,1126,1618,0,0
-91,-594,0,0,0,0,0,0,0,0,0,-1,1133,1618,0,0
-84,-594,0,0,0,0,0,0,0,0,0,-1,1140,1618,0,0
-77,-594,0,0,0,0,0,0,0,0,0,-1,1147,1618,0,0
-70,-594,0,0,0,0,0,0,0,0,0,-1,1154,1618,0,0
-63,-594,0,0,0,0,0,0,0,0,0,-1,1161,1618,0,0
-56,-594,0,0,0,0,0,0,0,0,0,-1,1168,1618,0,0
-49,-594,0,0,0,0,0,0,0,0,0,-1,1175,1618,0,0
-42,-594,0,0,0,0,0,0,0,0,0,-1,1182,1618,0,0
-35,-594,0,0,0,0,0,0,0,0,0,-1,1189,1618,0,0
-28,-594,0,0,0,0,0,0,0,0,0,-1,1196,1618,0,0
-21,-594,0,0,0,0,0,0,0,0,0,-1,1203,1618,0,0
-14,-594,0,0,0,0,0,0,0,0,0,-1,1210,1618,0,0
-7,-594,0,0,0,0,0,0,0,0,0,-1,1217,1618,0,0
0,-594,0,0,0,0,0,0,0,0,0,-1,1224,1618,0,0
7,-594,0,0,0,0,0,0,0,0,0,-1,1231,1618,0,0
14,-594,0,0,0,0,0,0,0,0,0,-1,1238,1618,0,0
21,-594,0,0,0,0,0,0,0,0,0,-1,1245,1618,0,0
28,-594,0,0,0,0,0,0,0,0,0,-1,1252,1618,0,0
35,-594,0,0,0,0,0,0,0,0,0,-1,1259,1618,0,0
42,-594,0,0,0,0,0,0,0,0,0,-1,1266,1618,0,0
49,-594,0,0,0,0,0,0,0,0,0,-1,1273,1618,0,0
56,-594,0,0,0,0,0,0,0,0,0,-1,1280,1618,0,0
63,-594,0,0,0,0,0,0,0,0,0,-1,1287,1618,0,0
70,-594,0,0,0,0,0,0,0,0,0,-1,1294,1618,0,0
77,-594,0,0,0,0,0,0,0,0,0,-1,1301,1618,0,0
84,-594,0,0,0,0,0,0,0,0,0,-1,1308,1618,0,0
91,-594,0,0,0,0,0,0,0,0,0,-1,1315,1618,0,0
98,-594,0,0,0,0,0,0,0,0,0,-1,1322,1618,0,0
105,-594,0,0,0,0,0,0,0,0,0,-1,1329,1618,0,0
112,-594,0,0,0,0,0,0,0,0,0,-1,1336,1618,0,0
119,-594,0,0,0,0,0,0,0,0,0,-1,1343,1618,0,0
126,-594,0,0,0,0,0,0,0,0,0,-1,1350,1618,0,0
133,-594,0,0,0,0,0,0,0,0,0,-1,1357,1618,0,0
140,-594,0,0,0,0,0,0,0,0,0,-1,1364,1618,0,0
147,-594,0,0,0,0,0,0,0,0,0,-1,1371,1618,0,0
154,-594,0,0,0,0,0,0,0,0,0,-1,1378,1618,0,0
161,-594,0,0,0,0,0,0,0,0,0,-1,1385,1618,0,0
168,-594,0,0,0,0,0,0,0,0,0,-1,1392,1618,0,0
175,-594,0,0,0,0,0,0,0,0,0,-1,1399,1618,0,0
182,-594,0,0,0,0,0,0,0,0,0,-1,1406,1618,0,0
189,-594,0,0,0,0,0,0,0,0,0,-1,1413,1618,0,0
196,-594,0,0,0,0,0,0,0,0,0,-1,1420,1618,0,0
203,-594,0,0,0,0,0,0,0,0,0,-1,1427,1618,0,0
210,-594,0,0,0,0,0,0,0,0,0,-1,1434,1618,0,0
217,-594,0,0,0,0,0,0,0,0,0,-1,1441,1618,0,0
224,-594,0,0,0,0,0,0,0,0,0,-1,1448,1618,0,0
231,-594,0,0,0,0,0,0,0,0,0,-1,1455,1618,0,0
238,-594,0,0,0,0,0,0,0,0,0,-1,1462,1618,0,0
245,-594,0,0,0,0,0,0,0,0,0,-1,1469,1618,0,0
252,-594,3.03674,1.20996,0,0,0,0,0,0,0,-1,1476,1618,3.0368,-1.20999
259,-594,4.79834,1.53113,0,0,0,0,0,0,0,-1,1483,1618,4.79837,-1.53118
266,-594,3.71606,2.68152,0,0,0,0,0,0,0,-1,1490,1618,3.71609,-2.68149
273,-594,9.7655,6.33557,0,0,0,0,0,0,0,-1,1497,1618,9.76555,-6.33554
280,-594,3.13281,0.911255,0,0,0,0,0,0,0,-1,1504,1618,3.13277,-0.911207
287,-594,4.42749,1.51563,0,0,0,0,0,0,0,-1,1511,1618,4.42747,-1.51564
294,-594,5.36475,3.34937,0,0,0,0,0,0,0,-1,1518,1618,5.36475,-3.3494
301,-594,7.97144,9.04333,0,0,0,0,0,0,0,-1,1525,1618,7.9714,-9.04328
308,-594,6.30347,10.4633,0,0,0,0,0,0,0,-1,1532,1618,6.30351,-10.4633
315,-594,4.62012,11.934,0,0,0,0,0,0,0,-1,1539,1618,4.62006,-11.934
322,-594,2.91528,13.3134,0,0,0,0,0,0,0,-1,1546,1618,2.91523,-13.3133
329,-594,4.19861,9.77258,0,0,0,0,0,0,0,-1,1553,1618,4.19865,-9.77264
336,-594,10.1353,4.66528,0,0,0,0,0,0,0,-1,1560,1618,10.1353,-4.66533
343,-594,10.5729,3.71228,0,0,0,0,0,0,0,-1,1567,1618,10.5729,-3.71232
350,-594,10.219,2.98792,0,0,0,0,0,0,0,-1,1574,1618,10.219,-2.98797
357,-594,9.83154,1.96326,0,0,0,0,0,0,0,-1,1581,1618,9.8315,-1.96321
364,-594,9.74939,0.700562,0,0,0,0,0,0,0,-1,1588,1618,9.74939,-0.700615
371,-594,8.54297,14.3988,0,0,0,0,0,0,0,-1,1595,1618,8.54296,-14.3989
378,-594,12.8971,31.8892,0,0,0,0,0,0,0,-1,1602,1618,12.8971,-31.8892
385,-594,13.4485,29.6373,0,0,0,0,0,0,0,-1,1609,1618,13.4485,-29.6373
392,-594,13.1216,28.6431,0,0,0,0,0,0,0,-1,1616,1618,13.1216,-28.643
399,-594,13.2739,28.2684,0.00363135,0.0146691,-0.00206094,0.0150413,0.00325909,-1.3921,0.00913704,0.042304,1623,1618,13.2739,-28.2684
406,-594,13.2755,27.8828,0.0014682,0.0118367,-0.000510404,0.0118617,0.00144314,-1.52173,0.00747338,0.0256811,1630,1618,13.2755,-27.8828
413,-594,13.2328,27.498,0.000201385,0.0101299,0.000106905,0.0101311,0.000200233,1.56003,0.0066883,0.0178923,1637,1618,13.2328,-27.498
420,-594,13.2261,27.131,-0.000364456,0.00879394,0.000223252,0.00879938,-0.000369895,1.54644,0.00599336,0.0161201,1644,1618,13.2261,-27.131
427,-594,13.2527,26.7395,-0.000660867,0.00762839,0.000266016,0.00763692,-0.000669396,1.53875,0.00532845,0.0144393,1651,1618,13.2527,-26.7395
434,-594,13.2118,26.3528,-0.00062346,0.00650159,9.78624e-05,0.00650293,-0.000624804,1.55706,0.00455785,0.0189536,1658,1618,13.2118,-26.3528
441,-594,13.2046,25.9452,-0.000249487,0.00588163,-0.000395928,0.00590709,-0.000274949,-1.50657,0.00403284,0.0155533,1665,1618,13.2046,-25.9452
448,-594,13.2412,25.5562,-2.84543e-05,0.00526429,-0.000715215,0.00535923,-0.000123399,-1.43882,0.00361466,0.0157081,1672,1618,13.2412,-25.5561
455,-594,13.2168,25.1693,0.000261155,0.0044797,-0.00114288,0.00476943,-2.85713e-05,-1.32252,0.00318919,0.012834,1679,1618,13.2168,-25.1693
462,-594,13.1975,24.7897,0.000639398,0.00373428,-0.00147497,0.00432463,4.90553e-05,-1.19008,0.00286687,0.0147317,1686,1618,13.1975,-24.7897
469,-594,13.1997,24.4056,0.000798123,0.0027865,-0.00150578,0.00359669,-1.20709e-05,-1.07717,0.00240183,0.0126973,1693,1618,13.1998,-24.4056
476,-594,13.2092,23.9893,0.000633589,0.00172175,-0.00130341,0.00259008,-0.000234736,-0.983119,0.00181005,0.0126408,1700,1618,13.2092,-23.9892
483,-594,13.2137,23.6067,0.000351245,0.00063061,-0.00104156,0.00154181,-0.000559953,-0.852055,0.00125681,0.0157256,1707,1618,13.2137,-23.6067
490,-594,13.179,23.2035,-8.37886e-05,-0.000254146,-0.000658045,0.000494568,-0.000832503,-0.721035,0.000774421,0.0140006,1714,1618,13.1789,-23.2034
497,-594,13.162,22.7799,-0.000743413,-0.00107574,-0.000207426,-0.000643803,-0.00117535,-0.447699,0.000679621,0.010749,1721,1618,13.162,-22.7799
504,-594,13.1477,22.3746,-0.00152512,-0.0020787,0.000788234,-0.000966494,-0.00263733,0.616548,0.00154066,0.0103886,1728,1618,13.1477,-22.3747
511,-594,13.1404,21.9418,-0.0023631,-0.00421611,0.00254575,-0.000580497,-0.00599871,0.610877,0.00382037,0.0154198,1735,1618,13.1404,-21.9418
518,-594,13.0986,21.5092,-0.00317973,-0.00604839,0.00430939,-7.22362e-05,-0.00915588,0.624746,0.00607998,0.0218593,1742,1618,13.0986,-21.5092
525,-594,13.0889,21.1324,-0.00405848,-0.00866134,0.00689599,0.000909974,-0.0136298,0.624342,0.00940454,0.0338522,1749,1618,13.0889,-21.1325
532,-594,13.1342,20.8197,0,0,0,0,0,0,0,-1,1756,1618,13.1342,-20.8197
539,-594,13.0797,20.2739,0,0,0,0,0,0,0,-1,1763,1618,13.0798,-20.2739
546,-594,7.48645,8.54785,0,0,0,0,0,0,0,-1,1770,1618,7.48639,-8.54789
553,-594,3.69714,5.68762,0,0,0,0,0,0,0,-1,1777,1618,3.69715,-5.68764
560,-594,6.06616,4.44482,0,0,0,0,0,0,0,-1,1784,1618,6.06621,-4.44477
567,-594,5.97266,4.73303,0,0,0,0,0,0,0,-1,1791,1618,5.97271,-4.73309
574,-594,5.9906,4.96326,0,0,0,0,0,0,0,-1,1798,1618,5.99065,-4.96326
581,-594,0,0,0,0,0,0,0,0,0,-1,1805,1618,0,0
588,-594,0,0,0,0,0,0,0,0,0,-1,1812,1618,0,0
595,-594,0,0,0,0,0,0,0,0,0,-1,1819,1618,0,0
602,-594,0,0,0,0,0,0,0,0,0,-1,1826,1618,0,0
609,-594,0,0,0,0,0,0,0,0,0,-1,1833,1618,0,0
616,-594,0,0,0,0,0,0,0,0,0,-1,1840,1618,0,0
623,-594,0,0,0,0,0,0,0,0,0,-1,1847,1618,0,0
630,-594,0,0,0,0,0,0,0,0,0,-1,1854,1618,0,0
637,-594,0,0,0,0,0,0,0,0,0,-1,1861,1618,0,0
644,-594,0,0,0,0,0,0,0,0,0,-1,1868,1618,0,0
651,-594,0,0,0,0,0,0,0,0,0,-1,1875,1618,0,0
658,-594,0,0,0,0,0,0,0,0,0,-1,1882,1618,0,0
665,-594,0,0,0,0,0,0,0,0,0,-1,1889,1618,0,0
672,-594,0,0,0,0,0,0,0,0,0,-1,1896,1618,0,0
679,-594,0,0,0,0,0,0,0,0,0,-1,1903,1618,0,0
686,-594,0,0,0,0,0,0,0,0,0,-1,1910,1618,0,0
693,-594,0,0,0,0,0,0,0,0,0,-1,1917,1618,0,0
700,-594,0,0,0,0,0,0,0,0,0,-1,1924,1618,0,0
707,-594,0,0,0,0,0,0,0,0,0,-1,1931,1618,0,0
714,-594,0,0,0,0,0,0,0,0,0,-1,1938,1618,0,0
721,-594,0,0,0,0,0,0,0,0,0,-1,1945,1618,0,0
728,-594,0,0,0,0,0,0,0,0,0,-1,1952,1618,0,0
735,-594,0,0,0,0,0,0,0,0,0,-1,1959,1618,0,0
742,-594,0,0,0,0,0,0,0,0,0,-1,1966,1618,0,0
749,-594,0,0,0,0,0,0,0,0,0,-1,1973,1618,0,0
756,-594,0,0,0,0,0,0,0,0,0,-1,1980,1618,0,0
763,-594,0,0,0,0,0,0,0,0,0,-1,1987,1618,0,0
770,-594,0,0,0,0,0,0,0,0,0,-1,1994,1618,0,0
777,-594,0,0,0,0,0,0,0,0,0,-1,2001,1618,0,0
784,-594,0,0,0,0,0,0,0,0,0,-1,2008,1618,0,0
791,-594,0,0,0,0,0,0,0,0,0,-1,2015,1618,0,0
798,-594,0,0,0,0,0,0,0,0,0,-1,2022,1618,0,0
805,-594,0,0,0,0,0,0,0,0,0,-1,2029,1618,0,0
812,-594,0,0,0,0,0,0,0,0,0,-1,2036,1618,0,0
-700,-601,0,0,0,0,0,0,0,0,0,-1,524,1625,0,0
-693,-601,0,0,0,0,0,0,0,0,0,-1,531,1625,0,0
-686,-601,0,0,0,0,0,0,0,0,0,-1,538,1625,0,0
-679,-601,0,0,0,0,0,0,0,0,0,-1,545,1625,0,0
-672,-601,0,0,0,0,0,0,0,0,0,-1,552,1625,0,0
-665,-601,0,0,0,0,0,0,0,0,0,-1,559,1625,0,0
-658,-601,0,0,0,0,0,0,0,0,0,-1,566,1625,0,0
-651,-601,0,0,0,0,0,0,0,0,0,-1,573,1625,0,0
-644,-601,0,0,0,0,0,0,0,0,0,-1,580,1625,0,0
-637,-601,0,0,0,0,0,0,0,0,0,-1,587,1625,0,0
-630,-601,0,0,0,0,0,0,0,0,0,-1,594,1625,0,0
-623,-601,0,0,0,0,0,0,0,0,0,-1,601,1625,0,0
-616,-601,0,0,0,0,0,0,0,0,0,-1,608,1625,0,0
-609,-601,0,0,0,0,0,0,0,0,0,-1,615,1625,0,0
-602,-601,0,0,0,0,0,0,0,0,0,-1,622,1625,0,0
-595,-601,0,0,0,0,0,0,0,0,0,-1,629,1625,0,0
-588,-601,0,0,0,0,0,0,0,0,0,-1,636,1625,0,0
-581,-601,0,0,0,0,0,0,0,0,0,-1,643,1625,0,0
-574,-601,0,0,0,0,0,0,0,0,0,-1,650,1625,0,0
-567,-601,0,0,0,0,0,0,0,0,0,-1,657,1625,0,0
-560,-601,0,0,0,0,0,0,0,0,0,-1,664,1625,0,0
-553,-601,0,0,0,0,0,0,0,0,0,-1,671,1625,0,0
-546,-601,0,0,0,0,0,0,0,0,0,-1,678,1625,0,0
-539,-601,0,0,0,0,0,0,0,0,0,-1,685,1625,0,0
-532,-601,0,0,0,0,0,0,0,0,0,-1,692,1625,0,0
-525,-601,0,0,0,0,0,0,0,0,0,-1,699,1625,0,0
-518,-601,0,0,0,0,0,0,0,0,0,-1,706,1625,0,0
-511,-601,0,0,0,0,0,0,0,0,0,-1,713,1625,0,0
-504,-601,0,0,0,0,0,0,0,0,0,-1,720,1625,0,0
-497,-601,0,0,0,0,0,0,0,0,0,-1,727,1625,0,0
-490,-601,0,0,0,0,0,0,0,0,0,-1,734,1625,0,0
-483,-601,0,0,0,0,0,0,0,0,0,-1,741,1625,0,0
-476,-601,0,0,0,0,0,0,0,0,0,-1,748,1625,0,0
-469,-601,0,0,0,0,0,0,0,0,0,-1,755,1625,0,0
-462,-601,0,0,0,0,0,0,0,0,0,-1,762,1625,0,0
-455,-601,0,0,0,0,0,0,0,0,0,-1,769,1625,0,0
-448,-601,-7.07623,2.7616,0,0,0,0,0,0,0,-1,776,1625,-7.07626,-2.76161
-441,-601,-6.06689,3.33447,0,0,0,0,0,0,0,-1,783,1625,-6.06691,-3.33448
-434,-601,-5.02655,3.8468,0,0,0,0,0,0,0,-1,790,1625,-5.02657,-3.84674
-427,-601,-5.78601,4.2406,0,0,0,0,0,0,0,-1,797,1625,-5.786,-4.24058
-420,-601,-5.5191,5.60364,0,0,0,0,0,0,0,-1,804,1625,-5.51907,-5.60368
-413,-601,-4.30756,5.86047,0,0,0,0,0,0,0,-1,811,1625,-4.30757,-5.86046
-406,-601,-1.67493,7.20422,0,0,0,0,0,0,0,-1,818,1625,-1.67493,-7.20428
-399,-601,1.40094,15.3108,0,0,0,0,0,0,0,-1,825,1625,1.40096,-15.3107
-392,-601,2.87616,19.6588,0,0,0,0,0,0,0,-1,832,1625,2.87617,-19.6588
-385,-601,2.19275,20.3893,0,0,0,0,0,0,0,-1,839,1625,2.19275,-20.3893
-378,-601,2.26642,20.8352,0,0,0,0,0,0,0,-1,846,1625,2.26641,-20.8352
-371,-601,2.36462,21.3502,-0.00513396,0.0036498,0.00177812,0.00399609,-0.00548026,1.37845,0.00549349,0.0222668,853,1625,2.36462,-21.3502
-364,-601,2.37683,21.8081,-0.00350909,0.00278556,0.00159024,0.0031645,-0.00388803,1.33687,0.00407891,0.0123124,860,1625,2.37683,-21.8082
-357,-601,2.3399,22.275,-0.00213489,0.00219164,0.00141021,0.0026107,-0.00255395,1.28195,0.00298188,0.0103868,867,1625,2.33992,-22.275
-350,-601,2.36658,22.7631,-0.00100104,0.00179048,0.00127479,0.00228502,-0.00149558,1.20073,0.00219854,0.02136,874,1625,2.3666,-22.7631
-343,-601,2.32428,23.1949,2.33234e-05,0.00154549,0.00134696,0.00233151,-0.000762701,1.04256,0.00186141,0.0238404,881,1625,2.32426,-23.1949
-336,-601,2.27069,23.5768,0.0008988,0.00156428,0.00128013,0.00255421,-9.11221e-05,0.912549,0.00173398,0.0200531,888,1625,2.27068,-23.5768
-329,-601,2.29303,23.9965,0.00149435,0.00188793,0.00129452,0.00300053,0.000381753,0.86083,0.00188603,0.0161468,895,1625,2.29303,-23.9965
-322,-601,2.31842,24.4095,0.00193235,0.00239057,0.00149549,0.0036744,0.000648516,0.861407,0.0022646,0.012963,902,1625,2.31845,-24.4095
-315,-601,2.32666,24.7897,0.00243012,0.00310358,0.00185618,0.00465333,0.00088037,0.875127,0.00285438,0.0129775,909,1625,2.32668,-24.7897
-308,-601,2.30981,25.1982,0.00294263,0.003735,0.00218524,0.00555969,0.00111795,0.875074,0.00339571,0.0118964,916,1625,2.30983,-25.1982
-301,-601,2.31812,25.6028,0.00353799,0.00430186,0.00261463,0.0065623,0.00127755,0.857924,0.00401731,0.0103664,923,1625,2.31811,-25.6028
-294,-601,2.30914,25.9984,0.00424456,0.00489981,0.00322035,0.00780916,0.00133522,0.836092,0.00482304,0.010252,930,1625,2.30913,-25.9984
-287,-601,2.26642,26.4047,0.00502286,0.00567048,0.00389494,0.00925505,0.0014383,0.826871,0.00575087,0.01041,937,1625,2.26639,-26.4047
-280,-601,2.28094,26.8043,0.0059497,0.00636921,0.0046436,0.0108078,0.00151112,0.807968,0.00675803,0.0149582,944,1625,2.28093,-26.8043
-273,-601,2.28308,27.241,0.00695974,0.00668945,0.00539015,0.0122164,0.00143275,0.772864,0.00771121,0.0171936,951,1625,2.28306,-27.241
-266,-601,2.34161,27.6576,0.00801654,0.00695286,0.0061512,0.0136588,0.00131055,0.742275,0.008702,0.0204024,958,1625,2.34163,-27.6575
-259,-601,2.39984,27.9265,0.00909162,0.0070691,0.00701181,0.0151647,0.000995997,0.713781,0.00979471,0.0291873,965,1625,2.39987,-27.9265
-252,-601,2.43066,28.2103,0.0103559,0.00688998,0.00778494,0.0165984,0.000647452,0.675881,0.0108562,0.0423826,972,1625,2.43064,-28.2104
-245,-601,2.45856,28.8016,0.0115087,0.00666723,0.0085814,0.0180043,0.000171666,0.647925,0.011946,0.0423826,979,1625,2.45855,-28.8017
-238,-601,2.58374,29.4675,0,0,0,0,0,0,0,-1,986,1625,2.58372,-29.4676
-231,-601,2.66772,13.7051,0,0,0,0,0,0,0,-1,993,1625,2.6677,-13.7051
-224,-601,-0.0305176,9.13684,0,0,0,0,0,0,0,-1,1000,1625,-0.030498,-9.13681
-217,-601,3.39429,10.3898,0,0,0,0,0,0,0,-1,1007,1625,3.39431,-10.3898
-210,-601,-6.53699,15.7931,0,0,0,0,0,0,0,-1,1014,1625,-6.53697,-15.7931
-203,-601,2.69348,15.9099,0,0,0,0,0,0,0,-1,1021,1625,2.69351,-15.91
-196,-601,2.66992,16.1815,0,0,0,0,0,0,0,-1,1028,1625,2.66995,-16.1815
-189,-601,2.849,16.6105,0,0,0,0,0,0,0,-1,1035,1625,2.84902,-16.6104
-182,-601,1.82153,13.9752,0,0,0,0,0,0,0,-1,1042,1625,1.82155,-13.9752
-175,-601,0.544922,9.28687,0,0,0,0,0,0,0,-1,1049,1625,0.544879,-9.28685
-168,-601,-0.247559,8.97461,0,0,0,0,0,0,0,-1,1056,1625,-0.247598,-8.97466
-161,-601,-1.16833,8.80078,0,0,0,0,0,0,0,-1,1063,1625,-1.16837,-8.80081
-154,-601,1.12756,7.94861,0,0,0,0,0,0,0,-1,1070,1625,1.12762,-7.94855
-147,-601,1.35352,9.55432,0,0,0,0,0,0,0,-1,1077,1625,1.35351,-9.55429
-140,-601,1.72437,11.1498,0,0,0,0,0,0,0,-1,1084,1625,1.72432,-11.1498
-133,-601,2.13281,12.8347,0,0,0,0,0,0,0,-1,1091,1625,2.13287,-12.8348
-126,-601,3.09534,15.427,0,0,0,0,0,0,0,-1,1098,1625,3.0953,-15.4271
-119,-601,1.22485,9.43457,0,0,0,0,0,0,0,-1,1105,1625,1.22489,-9.43456
-112,-601,0,0,0,0,0,0,0,0,0,-1,1112,1625,0,0
-105,-601,0,0,0,0,0,0,0,0,0,-1,1119,1625,0,0
-98,-601,0,0,0,0,0,0,0,0,0,-1,1126,1625,0,0
-91,-601,0,0,0,0,0,0,0,0,0,-1,1133,1625,0,0
-84,-601,0,0,0,0,0,0,0,0,0,-1,1140,1625,0,0
-77,-601,0,0,0,0,0,0,0,0,0,-1,1147,1625,0,0
-70,-601,0,0,0,0,0,0,0,0,0,-1,1154,1625,0,0
-63,-601,0,0,0,0,0,0,0,0,0,-1,1161,1625,0,0
-56,-601,0,0,0,0,0,0,0,0,0,-1,1168,1625,0,0
-49,-601,0,0,0,0,0,0,0,0,0,-1,1175,1625,0,0
-42,-601,0,0,0,0,0,0,0,0,0,-1,1182,1625,0,0
-35,-601,0,0,0,0,0,0,0,0,0,-1,1189,1625,0,0
-28,-601,0,0,0,0,0,0,0,0,0,-1,1196,1625,0,0
-21,-601,0,0,0,0,0,0,0,0,0,-1,1203,1625,0,0
-14,-601,0,0,0,0,0,0,0,0,0,-1,1210,1625,0,0
-7,-601,0,0,0,0,0,0,0,0,0,-1,1217,1625,0,0
0,-601,0,0,0,0,0,0,0,0,0,-1,1224,1625,0,0
7,-601,0,0,0,0,0,0,0,0,0,-1,1231,1625,0,0
14,-601,0,0,0,0,0,0,0,0,0,-1,1238,1625,0,0
21,-601,0,0,0,0,0,0,0,0,0,-1,1245,1625,0,0
28,-601,0,0,0,0,0,0,0,0,0,-1,1252,1625,0,0
35,-601,0,0,0,0,0,0,0,0,0,-1,1259,1625,0,0
42,-601,0,0,0,0,0,0,0,0,0,-1,1266,1625,0,0
49,-601,0,0,0,0,0,0,0,0,0,-1,1273,1625,0,0
56,-601,0,0,0,0,0,0,0,0,0,-1,1280,1625,0,0
63,-601,0,0,0,0,0,0,0,0,0,-1,1287,1625,0,0
70,-601,0,0,0,0,0,0,0,0,0,-1,1294,1625,0,0
77,-601,0,0,0,0,0,0,0,0,0,-1,1301,1625,0,0
84,-601,0,0,0,0,0,0,0,0,0,-1,1308,1625,0,0
91,-601,0,0,0,0,0,0,0,0,0,-1,1315,1625,0,0
98,-601,0,0,0,0,0,0,0,0,0,-1,1322,1625,0,0
105,-601,0,0,0,0,0,0,0,0,0,-1,1329,1625,0,0
112,-601,0,0,0,0,0,0,0,0,0,-1,1336,1625,0,0
119,-601,0,0,0,0,0,0,0,0,0,-1,1343,1625,0,0
126,-601,0,0,0,0,0,0,0,0,0,-1,1350,1625,0,0
133,-601,0,0,0,0,0,0,0,0,0,-1,1357,1625,0,0
140,-601,0,0,0,0,0,0,0,0,0,-1,1364,1625,0,0
147,-601,0,0,0,0,0,0,0,0,0,-1,1371,1625,0,0
154,-601,0,0,0,0,0,0,0,0,0,-1,1378,1625,0,0
161,-601,0,0,0,0,0,0,0,0,0,-1,1385,1625,0,0
168,-601,0,0,0,0,0,0,0,0,0,-1,1392,1625,0,0
175,-601,0,0,0,0,0,0,0,0,0,-1,1399,1625,0,0
182,-601,0,0,0,0,0,0,0,0,0,-1,1406,1625,0,0
189,-601,0,0,0,0,0,0,0,0,0,-1,1413,1625,0,0
196,-601,0,0,0,0,0,0,0,0,0,-1,1420,1625,0,0
203,-601,0,0,0,0,0,0,0,0,0,-1,1427,1625,0,0
210,-601,0,0,0,0,0,0,0,0,0,-1,1434,1625,0,0
217,-601,0,0,0,0,0,0,0,0,0,-1,1441,1625,0,0
224,-601,0,0,0,0,0,0,0,0,0,-1,1448,1625,0,0
231,-601,-0.0371094,0.525879,0,0,0,0,0,0,0,-1,1455,1625,-0.0371518,-0.525824
238,-601,2.03369,-1.32861,0,0,0,0,0,0,0,-1,1462,1625,2.03364,1.32858
245,-601,2.71375,2.44983,0,0,0,0,0,0,0,-1,1469,1625,2.71371,-2.44979
252,-601,4.66943,2.28381,0,0,0,0,0,0,0,-1,1476,1625,4.66947,-2.28376
259,-601,6.42712,2.61987,0,0,0,0,0,0,0,-1,1483,1625,6.42711,-2.61985
266,-601,6.75317,1.68701,0,0,0,0,0,0,0,-1,1490,1625,6.75323,-1.687
273,-601,5.4314,2.92053,0,0,0,0,0,0,0,-1,1497,1625,5.43144,-2.92051
280,-601,4.64722,1.17786,0,0,0,0,0,0,0,-1,1504,1625,4.64722,-1.1779
287,-601,5.32532,2.6217,0,0,0,0,0,0,0,-1,1511,1625,5.32535,-2.62171
294,-601,5.97693,4.22693,0,0,0,0,0,0,0,-1,1518,1625,5.97697,-4.22694
301,-601,7.28162,9.50024,0,0,0,0,0,0,0,-1,1525,1625,7.28162,-9.50025
308,-601,6.53528,10.3927,0,0,0,0,0,0,0,-1,1532,1625,6.53529,-10.3927
315,-601,4.88013,11.7184,0,0,0,0,0,0,0,-1,1539,1625,4.88015,-11.7184
322,-601,3.38098,12.7864,0,0,0,0,0,0,0,-1,1546,1625,3.38104,-12.7864
329,-601,1.8772,13.8768,0,0,0,0,0,0,0,-1,1553,1625,1.87716,-13.8768
336,-601,4.67847,9.53308,0,0,0,0,0,0,0,-1,1560,1625,4.67848,-9.53309
343,-601,11.1404,3.14575,0,0,0,0,0,0,0,-1,1567,1625,11.1404,-3.1458
350,-601,10.9462,2.37769,0,0,0,0,0,0,0,-1,1574,1625,10.9461,-2.37764
357,-601,10.7518,1.6095,0,0,0,0,0,0,0,-1,1581,1625,10.7518,-1.60948
364,-601,5.33643,9.74426,0,0,0,0,0,0,0,-1,1588,1625,5.33637,-9.74429
371,-601,12.7218,31.0232,0,0,0,0,0,0,0,-1,1595,1625,12.7218,-31.0232
378,-601,12.5793,30.7484,0,0,0,0,0,0,0,-1,1602,1625,12.5794,-30.7484
385,-601,12.6685,29.2976,0,0,0,0,0,0,0,-1,1609,1625,12.6685,-29.2976
392,-601,12.3428,28.5747,0.00682001,0.0158632,-0.00489806,0.0180076,0.00467559,-1.15812,0.0107897,0.0430562,1616,1625,12.3428,-28.5747
399,-601,12.7617,28.2087,0.00457392,0.0126235,-0.00269045,0.0134399,0.00375749,-1.27617,0.00800695,0.0214599,1623,1625,12.7618,-28.2087
406,-601,12.8436,27.8126,0.00269496,0.0100077,-0.00122763,0.0102083,0.00249437,-1.40883,0.00614519,0.0127954,1630,1625,12.8436,-27.8126
413,-601,12.8159,27.4344,0.00140396,0.00825178,-0.000485524,0.00828604,0.00136971,-1.50036,0.00512879,0.0122474,1637,1625,12.8159,-27.4344
420,-601,12.8318,27.0543,0.000647086,0.00683162,-0.000117496,0.00683385,0.000644855,-1.55181,0.00435688,0.012214,1644,1625,12.8318,-27.0543
427,-601,12.8566,26.7152,0.000123605,0.00559434,0.000130026,0.00559743,0.000120516,1.54705,0.0036921,0.0171826,1651,1625,12.8566,-26.7152
434,-601,12.8254,26.3422,-7.57698e-05,0.00454807,8.12698e-05,0.0045495,-7.71976e-05,1.55323,0.00305906,0.0166246,1658,1625,12.8255,-26.3422
441,-601,12.8287,25.9561,3.40986e-05,0.00401385,-0.000283426,0.00403393,1.4015e-05,-1.50006,0.00268463,0.0165225,1665,1625,12.8287,-25.9561
448,-601,12.8502,25.5703,5.08399e-05,0.00348046,-0.000523204,0.00355851,-2.72014e-05,-1.42273,0.00238146,0.0147298,1672,1625,12.8503,-25.5704
455,-601,12.8481,25.1575,0.000163953,0.00282939,-0.000878528,0.00309291,-9.95583e-05,-1.27939,0.00209591,0.0138975,1679,1625,12.8481,-25.1575
462,-601,12.8253,24.7842,0.000340886,0.00215678,-0.00112286,0.00269285,-0.000195183,-1.12538,0.0018637,0.0126164,1686,1625,12.8254,-24.7842
469,-601,12.8086,24.4292,0.0003684,0.00134281,-0.00114385,0.00209889,-0.000387677,-0.98673,0.00154479,0.0123472,1693,1625,12.8086,-24.4292
476,-601,12.7982,24.0299,0.000139964,0.000455758,-0.000974845,0.00128541,-0.000689688,-0.865687,0.00115748,0.0138979,1700,1625,12.7982,-24.0299
483,-601,12.785,23.6382,-0.000235797,-0.000463222,-0.000724245,0.000383609,-0.00108263,-0.70753,0.000878014,0.0166444,1707,1625,12.785,-23.6382
490,-601,12.7671,23.2383,-0.000712336,-0.00119952,-0.000413187,-0.000476281,-0.00143557,-0.519051,0.000844322,0.012544,1714,1625,12.7671,-23.2382
497,-601,12.7673,22.8201,-0.00137073,-0.00190956,-2.14687e-05,-0.00136988,-0.00191041,-0.0397597,0.00113709,0.0105707,1721,1625,12.7673,-22.8201
504,-601,12.7881,22.3635,-0.00215003,-0.00276032,0.00093853,-0.00146828,-0.00344207,0.628222,0.00199441,0.0200135,1728,1625,12.7881,-22.3635
511,-601,12.6925,22.0298,-0.00304494,-0.004888,0.00266557,-0.0011461,-0.00678683,0.618972,0.00419503,0.0342205,1735,1625,12.6925,-22.0298
518,-601,12.6656,21.553,-0.00397017,-0.00668666,0.00436723,-0.000754843,-0.00990198,0.634636,0.00636465,0.0454316,1742,1625,12.6657,-21.553
525,-601,12.6804,21.083,0,0,0,0,0,0,0,-1,1749,1625,12.6805,-21.083
532,-601,13.2394,19.7227,0,0,0,0,0,0,0,-1,1756,1625,13.2394,-19.7226
539,-601,7.77112,11.4299,0,0,0,0,0,0,0,-1,1763,1625,7.77116,-11.4299
546,-601,6.56873,3.62354,0,0,0,0,0,0,0,-1,1770,1625,6.56867,-3.62352
553,-601,7.03015,4.25049,0,0,0,0,0,0,0,-1,1777,1625,7.03011,-4.25048
560,-601,7.50745,4.83374,0,0,0,0,0,0,0,-1,1784,1625,7.50744,-4.83376
567,-601,7.82043,3.83301,0,0,0,0,0,0,0,-1,1791,1625,7.82041,-3.83303
574,-601,0,0,0,0,0,0,0,0,0,-1,1798,1625,0,0
581,-601,0,0,0,0,0,0,0,0,0,-1,1805,1625,0,0
588,-601,0,0,0,0,0,0,0,0,0,-1,1812,1625,0,0
595,-601,0,0,0,0,0,0,0,0,0,-1,1819,1625,0,0
602,-601,0,0,0,0,0,0,0,0,0,-1,1826,1625,0,0
609,-601,0,0,0,0,0,0,0,0,0,-1,1833,1625,0,0
616,-601,0,0,0,0,0,0,0,0,0,-1,1840,1625,0,0
623,-601,0,0,0,0,0,0,0,0,0,-1,1847,1625,0,0
630,-601,0,0,0,0,0,0,0,0,0,-1,1854,1625,0,0
637,-601,0,0,0,0,0,0,0,0,0,-1,1861,1625,0,0
644,-601,0,0,0,0,0,0,0,0,0,-1,1868,1625,0,0
651,-601,0,0,0,0,0,0,0,0,0,-1,1875,1625,0,0
658,-601,0,0,0,0,0,0,0,0,0,-1,1882,1625,0,0
665,-601,0,0,0,0,0,0,0,0,0,-1,1889,1625,0,0
672,-601,0,0,0,0,0,0,0,0,0,-1,1896,1625,0,0
679,-601,0,0,0,0,0,0,0,0,0,-1,1903,1625,0,0
686,-601,0,0,0,0,0,0,0,0,0,-1,1910,1625,0,0
693,-601,0,0,0,0,0,0,0,0,0,-1,1917,1625,0,0
700,-601,0,0,0,0,0,0,0,0,0,-1,1924,1625,0,0
707,-601,0,0,0,0,0,0,0,0,0,-1,1931,1625,0,0
714,-601,0,0,0,0,0,0,0,0,0,-1,1938,1625,0,0
721,-601,0,0,0,0,0,0,0,0,0,-1,1945,1625,0,0
728,-601,0,0,0,0,0,0,0,0,0,-1,1952,1625,0,0
735,-601,0,0,0,0,0,0,0,0,0,-1,1959,1625,0,0
742,-601,0,0,0,0,0,0,0,0,0,-1,1966,1625,0,0
749,-601,0,0,0,0,0,0,0,0,0,-1,1973,1625,0,0
756,-601,0,0,0,0,0,0,0,0,0,-1,1980,1625,0,0
763,-601,0,0,0,0,0,0,0,0,0,-1,1987,1625,0,0
770,-601,0,0,0,0,0,0,0,0,0,-1,1994,1625,0,0
777,-601,0,0,0,0,0,0,0,0,0,-1,2001,1625,0,0
784,-601,0,0,0,0,0,0,0,0,0,-1,2008,1625,0,0
791,-601,0,0,0,0,0,0,0,0,0,-1,2015,1625,0,0
798,-601,0,0,0,0,0,0,0,0,0,-1,2022,1625,0,0
805,-601,0,0,0,0,0,0,0,0,0,-1,2029,1625,0,0
812,-601,0,0,0,0,0,0,0,0,0,-1,2036,1625,0,0
-700,-608,0,0,0,0,0,0,0,0,0,-1,524,1632,0,0
-693,-608,0,0,0,0,0,0,0,0,0,-1,531,1632,0,0
-686,-608,0,0,0,0,0,0,0,0,0,-1,538,1632,0,0
-679,-608,0,0,0,0,0,0,0,0,0,-1,545,1632,0,0
-672,-608,0,0,0,0,0,0,0,0,0,-1,552,1632,0,0
-665,-608,0,0,0,0,0,0,0,0,0,-1,559,1632,0,0
-658,-608,0,0,0,0,0,0,0,0,0,-1,566,1632,0,0
-651,-608,0,0,0,0,0,0,0,0,0,-1,573,1632,0,0
-644,-608,0,0,0,0,0,0,0,0,0,-1,580,1632,0,0
-637,-608,0,0,0,0,0,0,0,0,0,-1,587,1632,0,0
-630,-608,0,0,0,0,0,0,0,0,0,-1,594,1632,0,0
-623,-608,0,0,0,0,0,0,0,0,0,-1,601,1632,0,0
-616,-608,0,0,0,0,0,0,0,0,0,-1,608,1632,0,0
-609,-608,0,0,0,0,0,0,0,0,0,-1,615,1632,0,0
-602,-608,0,0,0,0,0,0,0,0,0,-1,622,1632,0,0
-595,-608,0,0,0,0,0,0,0,0,0,-1,629,1632,0,0
-588,-608,0,0,0,0,0,0,0,0,0,-1,636,1632,0,0
-581,-608,0,0,0,0,0,0,0,0,0,-1,643,1632,0,0
-574,-608,0,0,0,0,0,0,0,0,0,-1,650,1632,0,0
-567,-608,0,0,0,0,0,0,0,0,0,-1,657,1632,0,0
-560,-608,0,0,0,0,0,0,0,0,0,-1,664,1632,0,0
-553,-608,0,0,0,0,0,0,0,0,0,-1,671,1632,0,0
-546,-608,0,0,0,0,0,0,0,0,0,-1,678,1632,0,0
-539,-608,0,0,0,0,0,0,0,0,0,-1,685,1632,0,0
-532,-608,0,0,0,0,0,0,0,0,0,-1,692,1632,0,0
-525,-608,0,0,0,0,0,0,0,0,0,-1,699,1632,0,0
-518,-608,0,0,0,0,0,0,0,0,0,-1,706,1632,0,0
-511,-608,0,0,0,0,0,0,0,0,0,-1,713,1632,0,0
-504,-608,0,0,0,0,0,0,0,0,0,-1,720,1632,0,0
-497,-608,0,0,0,0,0,0,0,0,0,-1,727,1632,0,0
-490,-608,0,0,0,0,0,0,0,0,0,-1,734,1632,0,0
-483,-608,0,0,0,0,0,0,0,0,0,-1,741,1632,0,0
-476,-608,0,0,0,0,0,0,0,0,0,-1,748,1632,0,0
-469,-608,0,0,0,0,0,0,0,0,0,-1,755,1632,0,0
-462,-608,0,0,0,0,0,0,0,0,0,-1,762,1632,0,0
-455,-608,0,0,0,0,0,0,0,0,0,-1,769,1632,0,0
-448,-608,0,0,0,0,0,0,0,0,0,-1,776,1632,0,0
-441,-608,-7.34601,2.78052,0,0,0,0,0,0,0,-1,783,1632,-7.346,-2.78056
-434,-608,-6.34558,3.27405,0,0,0,0,0,0,0,-1,790,1632,-6.34555,-3.27406
-427,-608,-7.74335,4.17688,0,0,0,0,0,0,0,-1,797,1632,-7.74334,-4.17693
-420,-608,-6.82794,4.34839,0,0,0,0,0,0,0,-1,804,1632,-6.82794,-4.34838
-413,-608,-5.41919,5.66138,0,0,0,0,0,0,0,-1,811,1632,-5.41917,-5.66133
-406,-608,-4.79681,4.98999,0,0,0,0,0,0,0,-1,818,1632,-4.79684,-4.98997
-399,-608,-2.60645,6.34167,0,0,0,0,0,0,0,-1,825,1632,-2.60643,-6.34169
-392,-608,2.08356,15.437,0,0,0,0,0,0,0,-1,832,1632,2.08354,-15.437
-385,-608,2.33789,20.2172,0,0,0,0,0,0,0,-1,839,1632,2.33788,-20.2172
-378,-608,2.92419,20.4121,0,0,0,0,0,0,0,-1,846,1632,2.92419,-20.4121
-371,-608,2.76892,21.1685,0,0,0,0,0,0,0,-1,853,1632,2.76892,-21.1684
-364,-608,2.86334,21.6975,-0.00410603,0.00345369,0.00200149,0.0039509,-0.00460324,1.32731,0.00494352,0.0298404,860,1632,2.86334,-21.6975
-357,-608,2.771,22.1907,-0.00255184,0.00267767,0.0017664,0.0032184,-0.00309258,1.27373,0.00364388,0.0203057,867,1632,2.77097,-22.1907
-350,-608,2.80493,22.6967,-0.00139401,0.00215016,0.00158044,0.00275254,-0.00199639,1.20665,0.00275336,0.0185846,874,1632,2.80494,-22.6966
-343,-608,2.78693,23.1533,-0.000355825,0.00174166,0.00159351,0.00260057,-0.00121473,1.07643,0.00225068,0.0236255,881,1632,2.78692,-23.1533
-336,-608,2.74286,23.5773,0.000522302,0.00154452,0.0014224,0.00254485,-0.000478031,0.957878,0.00187632,0.0161316,888,1632,2.74285,-23.5773
-329,-608,2.71283,24.0128,0.00105251,0.00174354,0.00133586,0.00277785,1.82029e-05,0.911948,0.00184586,0.0145425,895,1632,2.7128,-24.0129
-322,-608,2.71051,24.4045,0.00138965,0.0020859,0.00141934,0.00319918,0.000276371,0.905661,0.00204689,0.0149453,902,1632,2.71053,-24.4046
-315,-608,2.71277,24.8031,0.00175494,0.00258527,0.00163019,0.00385233,0.000487883,0.910084,0.00242202,0.0136041,909,1632,2.71277,-24.8031
-308,-608,2.68451,25.2159,0.00216906,0.00301594,0.00182515,0.00446612,0.00071888,0.899383,0.00276907,0.01426,916,1632,2.68452,-25.2159
-301,-608,2.70441,25.6104,0.00265557,0.00341633,0.00208752,0.00515784,0.00091405,0.875518,0.003178,0.0113751,923,1632,2.70439,-25.6104
-294,-608,2.71936,25.9957,0.00325208,0.00386878,0.00250717,0.00608649,0.00103437,0.846584,0.00376059,0.0113083,930,1632,2.71938,-25.9958
-287,-608,2.68347,26.3945,0.00390028,0.004452,0.00295749,0.00714646,0.00120581,0.831901,0.00441757,0.010869,937,1632,2.68349,-26.3945
-280,-608,2.68488,26.7709,0.00467034,0.00493291,0.00345782,0.00826193,0.00134132,0.804373,0.00511976,0.00885498,944,1632,2.68485,-26.7708
-273,-608,2.66992,27.1664,0.00550751,0.00516527,0.00396655,0.00930663,0.00136615,0.763841,0.00580289,0.00956916,951,1632,2.66995,-27.1664
-266,-608,2.70831,27.597,0.00636439,0.00540114,0.00447706,0.0103856,0.00137987,0.731816,0.00651272,0.0102442,958,1632,2.7083,-27.5971
-259,-608,2.76862,27.9821,0.00726686,0.00557138,0.00505595,0.0115456,0.00129258,0.702335,0.00730446,0.0137863,965,1632,2.76864,-27.9821
-252,-608,2.81128,28.3519,0.00831777,0.00568453,0.00563594,0.0127888,0.00121346,0.67065,0.00815157,0.0265678,972,1632,2.8113,-28.3519
-245,-608,2.9201,28.967,0.00922886,0.00578434,0.0062235,0.013964,0.00104919,0.650409,0.00898006,0.0358903,979,1632,2.92011,-28.967
-238,-608,3.10913,29.5192,0,0,0,0,0,0,0,-1,986,1632,3.10911,-29.5192
-231,-608,3.26025,27.5262,0,0,0,0,0,0,0,-1,993,1632,3.26023,-27.5263
-224,-608,2.51642,15.3452,0,0,0,0,0,0,0,-1,1000,1632,2.5164,-15.3452
-217,-608,1.04419,12.8451,0,0,0,0,0,0,0,-1,1007,1632,1.04418,-12.8451
-210,-608,2.75903,15.9414,0,0,0,0,0,0,0,-1,1014,1632,2.75903,-15.9414
-203,-608,2.76776,16.217,0,0,0,0,0,0,0,-1,1021,1632,2.76773,-16.217
-196,-608,1.53955,18.6058,0,0,0,0,0,0,0,-1,1028,1632,1.53959,-18.6058
-189,-608,1.37634,19.119,0,0,0,0,0,0,0,-1,1035,1632,1.37634,-19.1191
-182,-608,2.89221,16.7092,0,0,0,0,0,0,0,-1,1042,1632,2.89224,-16.7093
-175,-608,0.219116,15.1643,0,0,0,0,0,0,0,-1,1049,1632,0.219173,-15.1644
-168,-608,0.000366211,9.48645,0,0,0,0,0,0,0,-1,1056,1632,0.000317105,-9.48648
-161,-608,2.27832,15.4423,0,0,0,0,0,0,0,-1,1063,1632,2.27826,-15.4423
-154,-608,1.3999,16.4037,0,0,0,0,0,0,0,-1,1070,1632,1.39987,-16.4037
-147,-608,2.4386,9.50317,0,0,0,0,0,0,0,-1,1077,1632,2.43858,-9.50313
-140,-608,2.60132,10.8401,0,0,0,0,0,0,0,-1,1084,1632,2.60134,-10.8401
-133,-608,3.2312,12.4738,0,0,0,0,0,0,0,-1,1091,1632,3.23116,-12.4738
-126,-608,3.76465,13.9644,0,0,0,0,0,0,0,-1,1098,1632,3.76466,-13.9644
-119,-608,4.28906,15.4196,0,0,0,0,0,0,0,-1,1105,1632,4.28911,-15.4195
-112,-608,0.745117,10.5587,0,0,0,0,0,0,0,-1,1112,1632,0.745145,-10.5587
-105,-608,-0.252319,1.42419,0,0,0,0,0,0,0,-1,1119,1632,-0.252331,-1.42418
-98,-608,-2.8595,3.0863,0,0,0,0,0,0,0,-1,1126,1632,-2.85948,-3.08625
-91,-608,-3.71948,1.73608,0,0,0,0,0,0,0,-1,1133,1632,-3.7195,-1.73607
-84,-608,0,0,0,0,0,0,0,0,0,-1,1140,1632,0,0
-77,-608,0,0,0,0,0,0,0,0,0,-1,1147,1632,0,0
-70,-608,0,0,0,0,0,0,0,0,0,-1,1154,1632,0,0
-63,-608,0,0,0,0,0,0,0,0,0,-1,1161,1632,0,0
-56,-608,0,0,0,0,0,0,0,0,0,-1,1168,1632,0,0
-49,-608,0,0,0,0,0,0,0,0,0,-1,1175,1632,0,0
-42,-608,0,0,0,0,0,0,0,0,0,-1,1182,1632,0,0
-35,-608,0,0,0,0,0,0,0,0,0,-1,1189,1632,0,0
-28,-608,0,0,0,0,0,0,0,0,0,-1,1196,1632,0,0
-21,-608,0,0,0,0,0,0,0,0,0,-1,1203,1632,0,0
-14,-608,0,0,0,0,0,0,0,0,0,-1,1210,1632,0,0
-7,-608,0,0,0,0,0,0,0,0,0,-1,1217,1632,0,0
0,-608,0,0,0,0,0,0,0,0,0,-1,1224,1632,0,0
7,-608,0,0,0,0,0,0,0,0,0,-1,1231,1632,0,0
14,-608,0,0,0,0,0,0,0,0,0,-1,1238,1632,0,0
21,-608,0,0,0,0,0,0,0,0,0,-1,1245,1632,0,0
28,-608,0,0,0,0,0,0,0,0,0,-1,1252,1632,0,0
35,-608,0,0,0,0,0,0,0,0,0,-1,1259,1632,0,0
42,-608,0,0,0,0,0,0,0,0,0,-1,1266,1632,0,0
49,-608,0,0,0,0,0,0,0,0,0,-1,1273,1632,0,0
56,-608,0,0,0,0,0,0,0,0,0,-1,1280,1632,0,0
63,-608,0,0,0,0,0,0,0,0,0,-1,1287,1632,0,0
70,-608,0,0,0,0,0,0,0,0,0,-1,1294,1632,0,0
77,-608,0,0,0,0,0,0,0,0,0,-1,1301,1632,0,0
84,-608,0,0,0,0,0,0,0,0,0,-1,1308,1632,0,0
91,-608,0,0,0,0,0,0,0,0,0,-1,1315,1632,0,0
98,-608,0,0,0,0,0,0,0,0,0,-1,1322,1632,0,0
105,-608,0,0,0,0,0,0,0,0,0,-1,1329,1632,0,0
112,-608,0,0,0,0,0,0,0,0,0,-1,1336,1632,0,0
119,-608,0,0,0,0,0,0,0,0,0,-1,1343,1632,0,0
126,-608,0,0,0,0,0,0,0,0,0,-1,1350,1632,0,0
133,-608,0,0,0,0,0,0,0,0,0,-1,1357,1632,0,0
140,-608,0,0,0,0,0,0,0,0,0,-1,1364,1632,0,0
147,-608,0,0,0,0,0,0,0,0,0,-1,1371,1632,0,0
154,-608,0,0,0,0,0,0,0,0,0,-1,1378,1632,0,0
161,-608,0,0,0,0,0,0,0,0,0,-1,1385,1632,0,0
168,-608,0,0,0,0,0,0,0,0,0,-1,1392,1632,0,0
175,-608,0,0,0,0,0,0,0,0,0,-1,1399,1632,0,0
182,-608,0,0,0,0,0,0,0,0,0,-1,1406,1632,0,0
189,-608,0,0,0,0,0,0,0,0,0,-1,1413,1632,0,0
196,-608,0,0,0,0,0,0,0,0,0,-1,1420,1632,0,0
203,-608,0,0,0,0,0,0,0,0,0,-1,1427,1632,0,0
210,-608,5.7157,-0.333008,0,0,0,0,0,0,0,-1,1434,1632,5.71566,0.333004
217,-608,4.49402,-0.831787,0,0,0,0,0,0,0,-1,1441,1632,4.49396,0.831738
224,-608,4.18018,-1.11792,0,0,0,0,0,0,0,-1,1448,1632,4.1802,1.11796
231,-608,0.361816,0.825195,0,0,0,0,0,0,0,-1,1455,1632,0.36185,-0.825226
238,-608,2.85388,-0.28833,0,0,0,0,0,0,0,-1,1462,1632,2.85391,0.288282
245,-608,3.87537,4.02173,0,0,0,0,0,0,0,-1,1469,1632,3.87538,-4.02168
252,-608,5.66956,3.5282,0,0,0,0,0,0,0,-1,1476,1632,5.6696,-3.52815
259,-608,7.47437,3.07178,0,0,0,0,0,0,0,-1,1483,1632,7.4744,-3.07172
266,-608,9.46936,2.34766,0,0,0,0,0,0,0,-1,1490,1632,9.46932,-2.34764
273,-608,6.03003,3.34241,0,0,0,0,0,0,0,-1,1497,1632,6.02997,-3.34245
280,-608,5.72461,2.0769,0,0,0,0,0,0,0,-1,1504,1632,5.72457,-2.07688
287,-608,6.20581,3.59338,0,0,0,0,0,0,0,-1,1511,1632,6.20585,-3.59341
294,-608,6.94922,5.17151,0,0,0,0,0,0,0,-1,1518,1632,6.94925,-5.17151
301,-608,7.60083,6.68018,0,0,0,0,0,0,0,-1,1525,1632,7.60086,-6.68013
308,-608,7.64746,9.93848,0,0,0,0,0,0,0,-1,1532,1632,7.64745,-9.93842
315,-608,5.30688,11.2054,0,0,0,0,0,0,0,-1,1539,1632,5.30694,-11.2054
322,-608,5.32617,13.7581,0,0,0,0,0,0,0,-1,1546,1632,5.32613,-13.758
329,-608,7.12231,13.9607,0,0,0,0,0,0,0,-1,1553,1632,7.12231,-13.9607
336,-608,5.48633,7.82446,0,0,0,0,0,0,0,-1,1560,1632,5.48634,-7.82446
343,-608,5.47192,5.61047,0,0,0,0,0,0,0,-1,1567,1632,5.47192,-5.61045
350,-608,11.6957,1.71387,0,0,0,0,0,0,0,-1,1574,1632,11.6957,-1.71388
357,-608,3.77002,5.10046,0,0,0,0,0,0,0,-1,1581,1632,3.77002,-5.10043
364,-608,5.6925,11.2163,0,0,0,0,0,0,0,-1,1588,1632,5.69255,-11.2163
371,-608,11.9437,30.5825,0,0,0,0,0,0,0,-1,1595,1632,11.9438,-30.5825
378,-608,12.2513,29.7893,0.0108402,0.0201772,-0.00904131,0.0256842,0.00533325,-1.02372,0.0156509,0.0414467,1602,1632,12.2514,-29.7893
385,-608,12.3707,29.0234,0.00838513,0.0164887,-0.0067095,0.020275,0.00459892,-1.05704,0.0122743,0.0364646,1609,1632,12.3707,-29.0235
392,-608,12.3706,28.5317,0.00627427,0.0132311,-0.00461075,0.0155283,0.00397701,-1.10856,0.00931402,0.0225592,1616,1632,12.3706,-28.5318
399,-608,12.4351,28.1307,0.00451617,0.0104935,-0.00284529,0.0116313,0.00337836,-1.19038,0.00690912,0.0117181,1623,1632,12.435,-28.1308
406,-608,12.4705,27.7678,0.00297167,0.00823381,-0.0015682,0.00866571,0.00253977,-1.30205,0.00514397,0.00977148,1630,1632,12.4704,-27.7679
413,-608,12.4536,27.4148,0.0018433,0.00660137,-0.000811705,0.00673603,0.00170864,-1.40639,0.00404333,0.0106364,1637,1632,12.4536,-27.4148
420,-608,12.4355,27.0596,0.00110493,0.00520855,-0.00033884,0.00523634,0.00107714,-1.48896,0.00319299,0.0188405,1644,1632,12.4355,-27.0596
427,-608,12.4517,26.7087,0.00055556,0.00397346,4.95809e-06,0.00397346,0.000555552,1.56935,0.00248458,0.0206847,1651,1632,12.4517,-26.7087
434,-608,12.4397,26.3508,0.000297405,0.00302278,9.09086e-06,0.00302281,0.000297374,1.56746,0.00192376,0.0157765,1658,1632,12.4397,-26.3508
441,-608,12.4398,25.9799,0.000297798,0.00254361,-0.000264599,0.00257436,0.000267045,-1.45509,0.00163451,0.0131457,1665,1632,12.4398,-25.9798
448,-608,12.4629,25.5956,0.000236887,0.00204962,-0.000456907,0.00215827,0.000128234,-1.33733,0.00139806,0.0147858,1672,1632,12.4629,-25.5956
455,-608,12.485,25.1881,0.000260387,0.00147593,-0.000751441,0.00183462,-9.83042e-05,-1.12544,0.00125713,0.0117758,1679,1632,12.485,-25.1881
462,-608,12.4513,24.8116,0.00028302,0.000831348,-0.00091951,0.0015167,-0.000402328,-0.930284,0.00116856,0.0115609,1686,1632,12.4513,-24.8117
469,-608,12.4138,24.4493,0.000189997,9.88679e-05,-0.000935574,0.00108112,-0.000792251,-0.761066,0.00108587,0.00927058,1693,1632,12.4138,-24.4493
476,-608,12.4012,24.0542,-0.000114324,-0.000659756,-0.000800098,0.00045826,-0.00123234,-0.621147,0.0010096,0.00924397,1700,1632,12.4013,-24.0542
483,-608,12.3903,23.655,-0.000614132,-0.00145054,-0.000557694,-0.000335258,-0.00172941,-0.463686,0.00105903,0.00852519,1707,1632,12.3902,-23.6551
490,-608,12.3926,23.2451,-0.00120492,-0.00208247,-0.000314794,-0.00110368,-0.00218372,-0.311165,0.00126079,0.00926295,1714,1632,12.3925,-23.2451
497,-608,12.3882,22.8108,-0.00195462,-0.00266493,3.39285e-05,-0.001953,-0.00266654,0.0476216,0.001594,0.0201126,1721,1632,12.3882,-22.8107
504,-608,12.3214,22.423,-0.00277409,-0.00337574,0.000965354,-0.00206378,-0.00408606,0.634356,0.00235913,0.0466944,1728,1632,12.3215,-22.423
511,-608,12.1993,22.1263,-0.00379307,-0.00545812,0.00264528,-0.0018524,-0.00739879,0.632945,0.00444562,0.0490756,1735,1632,12.1994,-22.1264
518,-608,12.048,21.7379,0,0,0,0,0,0,0,-1,1742,1632,12.048,-21.7379
525,-608,11.2109,16.2579,0,0,0,0,0,0,0,-1,1749,1632,11.2109,-16.2579
532,-608,8.27917,11.6693,0,0,0,0,0,0,0,-1,1756,1632,8.27919,-11.6694
539,-608,9.40796,1.43457,0,0,0,0,0,0,0,-1,1763,1632,9.40801,-1.43463
546,-608,9.94031,2.1134,0,0,0,0,0,0,0,-1,1770,1632,9.94031,-2.11346
553,-608,10.363,2.81335,0,0,0,0,0,0,0,-1,1777,1632,10.3631,-2.81333
560,-608,9.23999,4.5636,0,0,0,0,0,0,0,-1,1784,1632,9.24,-4.56354
567,-608,0,0,0,0,0,0,0,0,0,-1,1791,1632,0,0
574,-608,0,0,0,0,0,0,0,0,0,-1,1798,1632,0,0
581,-608,0,0,0,0,0,0,0,0,0,-1,1805,1632,0,0
588,-608,0,0,0,0,0,0,0,0,0,-1,1812,1632,0,0
595,-608,0,0,0,0,0,0,0,0,0,-1,1819,1632,0,0
602,-608,0,0,0,0,0,0,0,0,0,-1,1826,1632,0,0
609,-608,0,0,0,0,0,0,0,0,0,-1,1833,1632,0,0
616,-608,0,0,0,0,0,0,0,0,0,-1,1840,1632,0,0
623,-608,0,0,0,0,0,0,0,0,0,-1,1847,1632,0,0
630,-608,0,0,0,0,0,0,0,0,0,-1,1854,1632,0,0
637,-608,0,0,0,0,0,0,0,0,0,-1,1861,1632,0,0
644,-608,0,0,0,0,0,0,0,0,0,-1,1868,1632,0,0
651,-608,0,0,0,0,0,0,0,0,0,-1,1875,1632,0,0
658,-608,0,0,0,0,0,0,0,0,0,-1,1882,1632,0,0
665,-608,0,0,0,0,0,0,0,0,0,-1,1889,1632,0,0
672,-608,0,0,0,0,0,0,0,0,0,-1,1896,1632,0,0
679,-608,0,0,0,0,0,0,0,0,0,-1,1903,1632,0,0
686,-608,0,0,0,0,0,0,0,0,0,-1,1910,1632,0,0
693,-608,0,0,0,0,0,0,0,0,0,-1,1917,1632,0,0
700,-608,0,0,0,0,0,0,0,0,0,-1,1924,1632,0,0
707,-608,0,0,0,0,0,0,0,0,0,-1,1931,1632,0,0
714,-608,0,0,0,0,0,0,0,0,0,-1,1938,1632,0,0
721,-608,0,0,0,0,0,0,0,0,0,-1,1945,1632,0,0
728,-608,0,0,0,0,0,0,0,0,0,-1,1952,1632,0,0
735,-608,0,0,0,0,0,0,0,0,0,-1,1959,1632,0,0
742,-608,0,0,0,0,0,0,0,0,0,-1,1966,1632,0,0
749,-608,0,0,0,0,0,0,0,0,0,-1,1973,1632,0,0
756,-608,0,0,0,0,0,0,0,0,0,-1,1980,1632,0,0
763,-608,0,0,0,0,0,0,0,0,0,-1,1987,1632,0,0
770,-608,0,0,0,0,0,0,0,0,0,-1,1994,1632,0,0
777,-608,0,0,0,0,0,0,0,0,0,-1,2001,1632,0,0
784,-608,0,0,0,0,0,0,0,0,0,-1,2008,1632,0,0
791,-608,0,0,0,0,0,0,0,0,0,-1,2015,1632,0,0
798,-608,0,0,0,0,0,0,0,0,0,-1,2022,1632,0,0
805,-608,0,0,0,0,0,0,0,0,0,-1,2029,1632,0,0
812,-608,0,0,0,0,0,0,0,0,0,-1,2036,1632,0,0
-700,-615,0,0,0,0,0,0,0,0,0,-1,524,1639,0,0
-693,-615,0,0,0,0,0,0,0,0,0,-1,531,1639,0,0
-686,-615,0,0,0,0,0,0,0,0,0,-1,538,1639,0,0
-679,-615,0,0,0,0,0,0,0,0,0,-1,545,1639,0,0
-672,-615,0,0,0,0,0,0,0,0,0,-1,552,1639,0,0
-665,-615,0,0,0,0,0,0,0,0,0,-1,559,1639,0,0
-658,-615,0,0,0,0,0,0,0,0,0,-1,566,1639,0,0
-651,-615,0,0,0,0,0,0,0,0,0,-1,573,1639,0,0
-644,-615,0,0,0,0,0,0,0,0,0,-1,580,1639,0,0
-637,-615,0,0,0,0,0,0,0,0,0,-1,587,1639,0,0
-630,-615,0,0,0,0,0,0,0,0,0,-1,594,1639,0,0
-623,-615,0,0,0,0,0,0,0,0,0,-1,601,1639,0,0
-616,-615,0,0,0,0,0,0,0,0,0,-1,608,1639,0,0
-609,-615,0,0,0,0,0,0,0,0,0,-1,615,1639,0,0
-602,-615,0,0,0,0,0,0,0,0,0,-1,622,1639,0,0
-595,-615,0,0,0,0,0,0,0,0,0,-1,629,1639,0,0
-588,-615,0,0,0,0,0,0,0,0,0,-1,636,1639,0,0
-581,-615,0,0,0,0,0,0,0,0,0,-1,643,1639,0,0
-574,-615,0,0,0,0,0,0,0,0,0,-1,650,1639,0,0
-567,-615,0,0,0,0,0,0,0,0,0,-1,657,1639,0,0
-560,-615,0,0,0,0,0,0,0,0,0,-1,664,1639,0,0
-553,-615,0,0,0,0,0,0,0,0,0,-1,671,1639,0,0
-546,-615,0,0,0,0,0,0,0,0,0,-1,678,1639,0,0
-539,-615,0,0,0,0,0,0,0,0,0,-1,685,1639,0,0
-532,-615,0,0,0,0,0,0,0,0,0,-1,692,1639,0,0
-525,-615,0,0,0,0,0,0,0,0,0,-1,699,1639,0,0
-518,-615,0,0,0,0,0,0,0,0,0,-1,706,1639,0,0
-511,-615,0,0,0,0,0,0,0,0,0,-1,713,1639,0,0
-504,-615,0,0,0,0,0,0,0,0,0,-1,720,1639,0,0
-497,-615,0,0,0,0,0,0,0,0,0,-1,727,1639,0,0
-490,-615,0,0,0,0,0,0,0,0,0,-1,734,1639,0,0
-483,-615,0,0,0,0,0,0,0,0,0,-1,741,1639,0,0
-476,-615,0,0,0,0,0,0,0,0,0,-1,748,1639,0,0
-469,-615,0,0,0,0,0,0,0,0,0,-1,755,1639,0,0
-462,-615,0,0,0,0,0,0,0,0,0,-1,762,1639,0,0
-455,-615,0,0,0,0,0,0,0,0,0,-1,769,1639,0,0
-448,-615,0,0,0,0,0,0,0,0,0,-1,776,1639,0,0
-441,-615,0,0,0,0,0,0,0,0,0,-1,783,1639,0,0
-434,-615,-7.64508,2.98596,0,0,0,0,0,0,0,-1,790,1639,-7.64505,-2.98594
-427,-615,-9.0011,2.89404,0,0,0,0,0,0,0,-1,797,1639,-9.00107,-2.89399
-420,-615,-8.07568,3.0752,0,0,0,0,0,0,0,-1,804,1639,-8.07569,-3.07514
-413,-615,-7.09149,3.396,0,0,0,0,0,0,0,-1,811,1639,-7.09147,-3.39599
-406,-615,-6.21368,3.7312,0,0,0,0,0,0,0,-1,818,1639,-6.21366,-3.73114
-399,-615,-4.84875,3.91907,0,0,0,0,0,0,0,-1,825,1639,-4.84877,-3.91901
-392,-615,1.7395,13.3127,0,0,0,0,0,0,0,-1,832,1639,1.73953,-13.3128
-385,-615,3.42297,14.9401,0,0,0,0,0,0,0,-1,839,1639,3.42296,-14.94
-378,-615,2.54102,17.2609,0,0,0,0,0,0,0,-1,846,1639,2.54099,-17.2608
-371,-615,3.19391,20.5931,0,0,0,0,0,0,0,-1,853,1639,3.19392,-20.5931
-364,-615,3.15637,21.8464,0,0,0,0,0,0,0,-1,860,1639,3.15639,-21.8464
-357,-615,3.15515,22.1852,0,0,0,0,0,0,0,-1,867,1639,3.15516,-22.1852
-350,-615,3.22968,22.7205,-0.00244161,0.00177946,0.0023418,0.00282145,-0.0034836,1.15215,0.00364691,0.0344361,874,1639,3.2297,-22.7204
-343,-615,3.177,23.1025,-0.00124372,0.00131398,0.00217746,0.00256036,-0.0024901,1.05092,0.00291598,0.0182983,881,1639,3.17702,-23.1025
-336,-615,3.16608,23.5652,-0.000256633,0.00102736,0.00180527,0.00230139,-0.00153066,0.956236,0.0022273,0.0103971,888,1639,3.16609,-23.5652
-329,-615,3.13287,23.9937,0.000319381,0.00120998,0.0015409,0.00236863,-0.000839279,0.926058,0.00192097,0.0106097,895,1639,3.13285,-23.9936
-322,-615,3.13123,24.4153,0.000672432,0.00150574,0.00144706,0.00259494,-0.000416769,0.925571,0.00188431,0.0109899,902,1639,3.1312,-24.4153
-315,-615,3.11707,24.8474,0.00100233,0.00190543,0.00147334,0.00299486,-8.71015e-05,0.934095,0.00202623,0.0129452,909,1639,3.11706,-24.8475
-308,-615,3.05707,25.2623,0.00139282,0.00225369,0.00152751,0.00341025,0.000236263,0.922732,0.00219898,0.0197189,916,1639,3.05705,-25.2623
-301,-615,3.09247,25.6244,0.00182673,0.00258251,0.00164003,0.00388762,0.000521612,0.89863,0.00243656,0.0130965,923,1639,3.09247,-25.6244
-294,-615,3.11969,26.014,0.00235379,0.00295892,0.00191031,0.00459047,0.000722238,0.863938,0.00285024,0.0111417,930,1639,3.11968,-26.0141
-287,-615,3.08466,26.4125,0.00290883,0.00343688,0.00221208,0.00540064,0.000945079,0.844795,0.0033304,0.00818621,937,1639,3.08464,-26.4125
-280,-615,3.08014,26.7877,0.00354896,0.00380951,0.00257619,0.00625871,0.00109976,0.810661,0.00385849,0.00897844,944,1639,3.08015,-26.7877
-273,-615,3.05426,27.1796,0.00424689,0.00400616,0.00294373,0.00707271,0.00118033,0.764965,0.0043751,0.0105097,951,1639,3.05425,-27.1796
-266,-615,3.04437,27.5596,0.00495571,0.00423446,0.00330237,0.00791709,0.00127308,0.731013,0.00490904,0.0107366,958,1639,3.04436,-27.5596
-259,-615,3.09326,27.9205,0.00571783,0.00444482,0.00371393,0.00884941,0.00131324,0.700531,0.00551423,0.0124743,965,1639,3.09328,-27.9206
-252,-615,3.11469,28.3118,0.00655528,0.0046697,0.00413971,0.0098582,0.00136678,0.673436,0.00616723,0.0149612,972,1639,3.11466,-28.3117
-245,-615,3.21082,28.7682,0.00728269,0.00490376,0.00455626,0.0108022,0.00138426,0.657717,0.00678725,0.0215531,979,1639,3.21079,-28.7682
-238,-615,3.25269,29.1937,0.0081473,0.00486293,0.00488326,0.0116571,0.00135312,0.623194,0.00736193,0.0332515,986,1639,3.25266,-29.1938
-231,-615,3.45551,29.5933,0,0,0,0,0,0,0,-1,993,1639,3.45549,-29.5932
-224,-615,3.45197,29.726,0,0,0,0,0,0,0,-1,1000,1639,3.45195,-29.726
-217,-615,3.99097,27.3737,0,0,0,0,0,0,0,-1,1007,1639,3.99096,-27.3736
-210,-615,2.48901,18.9324,0,0,0,0,0,0,0,-1,1014,1639,2.48902,-18.9323
-203,-615,2.13684,18.6173,0,0,0,0,0,0,0,-1,1021,1639,2.13683,-18.6173
-196,-615,4.27161,21.3264,0,0,0,0,0,0,0,-1,1028,1639,4.27165,-21.3264
-189,-615,1.8269,19.6761,0,0,0,0,0,0,0,-1,1035,1639,1.82691,-19.6761
-182,-615,1.63489,20.2278,0,0,0,0,0,0,0,-1,1042,1639,1.63492,-20.2277
-175,-615,-0.609985,13.8434,0,0,0,0,0,0,0,-1,1049,1639,-0.610016,-13.8434
-168,-615,3.85754,15.472,0,0,0,0,0,0,0,-1,1056,1639,3.85757,-15.472
-161,-615,2.44141,28.2932,0,0,0,0,0,0,0,-1,1063,1639,2.44135,-28.2933
-154,-615,2.42737,24.3593,0,0,0,0,0,0,0,-1,1070,1639,2.42742,-24.3593
-147,-615,1.52502,17.3442,0,0,0,0,0,0,0,-1,1077,1639,1.52501,-17.3442
-140,-615,3.73401,10.2349,0,0,0,0,0,0,0,-1,1084,1639,3.73402,-10.2348
-133,-615,2.6178,17.45,0,0,0,0,0,0,0,-1,1091,1639,2.61776,-17.4499
-126,-615,4.43408,12.5017,0,0,0,0,0,0,0,-1,1098,1639,4.43403,-12.5018
-119,-615,4.82983,13.9279,0,0,0,0,0,0,0,-1,1105,1639,4.82986,-13.9278
-112,-615,3.65698,14.4874,0,0,0,0,0,0,0,-1,1112,1639,3.65695,-14.4875
-105,-615,0.958496,2.45398,0,0,0,0,0,0,0,-1,1119,1639,0.958452,-2.45398
-98,-615,-0.647705,2.12109,0,0,0,0,0,0,0,-1,1126,1639,-0.647756,-2.12105
-91,-615,-3.07983,2.97375,0,0,0,0,0,0,0,-1,1133,1639,-3.07989,-2.97376
-84,-615,-2.46509,0.703247,0,0,0,0,0,0,0,-1,1140,1639,-2.46505,-0.703273
-77,-615,-3.17859,1.23755,0,0,0,0,0,0,0,-1,1147,1639,-3.17865,-1.23752
-70,-615,-4.03943,1.43335,0,0,0,0,0,0,0,-1,1154,1639,-4.03942,-1.43339
-63,-615,-4.8877,1.45544,0,0,0,0,0,0,0,-1,1161,1639,-4.88766,-1.45549
-56,-615,0,0,0,0,0,0,0,0,0,-1,1168,1639,0,0
-49,-615,0,0,0,0,0,0,0,0,0,-1,1175,1639,0,0
-42,-615,0,0,0,0,0,0,0,0,0,-1,1182,1639,0,0
-35,-615,0,0,0,0,0,0,0,0,0,-1,1189,1639,0,0
-28,-615,0,0,0,0,0,0,0,0,0,-1,1196,1639,0,0
-21,-615,0,0,0,0,0,0,0,0,0,-1,1203,1639,0,0
-14,-615,0,0,0,0,0,0,0,0,0,-1,1210,1639,0,0
-7,-615,0,0,0,0,0,0,0,0,0,-1,1217,1639,0,0
0,-615,0,0,0,0,0,0,0,0,0,-1,1224,1639,0,0
7,-615,0,0,0,0,0,0,0,0,0,-1,1231,1639,0,0
14,-615,0,0,0,0,0,0,0,0,0,-1,1238,1639,0,0
21,-615,0,0,0,0,0,0,0,0,0,-1,1245,1639,0,0
28,-615,0,0,0,0,0,0,0,0,0,-1,1252,1639,0,0
35,-615,0,0,0,0,0,0,0,0,0,-1,1259,1639,0,0
42,-615,0,0,0,0,0,0,0,0,0,-1,1266,1639,0,0
49,-615,0,0,0,0,0,0,0,0,0,-1,1273,1639,0,0
56,-615,0,0,0,0,0,0,0,0,0,-1,1280,1639,0,0
63,-615,0,0,0,0,0,0,0,0,0,-1,1287,1639,0,0
70,-615,0,0,0,0,0,0,0,0,0,-1,1294,1639,0,0
77,-615,0,0,0,0,0,0,0,0,0,-1,1301,1639,0,0
84,-615,0,0,0,0,0,0,0,0,0,-1,1308,1639,0,0
91,-615,0,0,0,0,0,0,0,0,0,-1,1315,1639,0,0
98,-615,0,0,0,0,0,0,0,0,0,-1,1322,1639,0,0
105,-615,0,0,0,0,0,0,0,0,0,-1,1329,1639,0,0
112,-615,0,0,0,0,0,0,0,0,0,-1,1336,1639,0,0
119,-615,0,0,0,0,0,0,0,0,0,-1,1343,1639,0,0
126,-615,0,0,0,0,0,0,0,0,0,-1,1350,1639,0,0
133,-615,0,0,0,0,0,0,0,0,0,-1,1357,1639,0,0
140,-615,0,0,0,0,0,0,0,0,0,-1,1364,1639,0,0
147,-615,0,0,0,0,0,0,0,0,0,-1,1371,1639,0,0
154,-615,0,0,0,0,0,0,0,0,0,-1,1378,1639,0,0
161,-615,0,0,0,0,0,0,0,0,0,-1,1385,1639,0,0
168,-615,0,0,0,0,0,0,0,0,0,-1,1392,1639,0,0
175,-615,5.39648,-2.00879,0,0,0,0,0,0,0,-1,1399,1639,5.3965,2.00881
182,-615,5.65393,-1.51025,0,0,0,0,0,0,0,-1,1406,1639,5.65388,1.51028
189,-615,5.58972,-1.35608,0,0,0,0,0,0,0,-1,1413,1639,5.58967,1.35607
196,-615,5.49915,-0.693604,0,0,0,0,0,0,0,-1,1420,1639,5.4991,0.693602
203,-615,5.33411,-0.226685,0,0,0,0,0,0,0,-1,1427,1639,5.33414,0.226689
210,-615,5.60278,0.108276,0,0,0,0,0,0,0,-1,1434,1639,5.60284,-0.10831
217,-615,6.26331,-0.307373,0,0,0,0,0,0,0,-1,1441,1639,6.26331,0.307372
224,-615,5.45422,-0.333984,0,0,0,0,0,0,0,-1,1448,1639,5.45422,0.333992
231,-615,4.92542,1.80298,0,0,0,0,0,0,0,-1,1455,1639,4.92537,-1.80297
238,-615,4.76355,1.96729,0,0,0,0,0,0,0,-1,1462,1639,4.76357,-1.96734
245,-615,4.08643,3.15906,0,0,0,0,0,0,0,-1,1469,1639,4.08638,-3.159
252,-615,6.37805,3.73889,0,0,0,0,0,0,0,-1,1476,1639,6.37806,-3.73891
259,-615,8.35974,3.16443,0,0,0,0,0,0,0,-1,1483,1639,8.35975,-3.16444
266,-615,10.3414,2.58997,0,0,0,0,0,0,0,-1,1490,1639,10.3414,-2.58996
273,-615,6.57043,1.84766,0,0,0,0,0,0,0,-1,1497,1639,6.5704,-1.84771
280,-615,7.10449,3.23438,0,0,0,0,0,0,0,-1,1504,1639,7.10447,-3.23435
287,-615,7.35779,4.68542,0,0,0,0,0,0,0,-1,1511,1639,7.35776,-4.68546
294,-615,7.63733,6.29114,0,0,0,0,0,0,0,-1,1518,1639,7.63735,-6.29109
301,-615,8.47925,11.452,0,0,0,0,0,0,0,-1,1525,1639,8.47922,-11.452
308,-615,6.8114,10.9059,0,0,0,0,0,0,0,-1,1532,1639,6.81137,-10.9058
315,-615,5.1427,14.7251,0,0,0,0,0,0,0,-1,1539,1639,5.14269,-14.7251
322,-615,7.17981,17.6864,0,0,0,0,0,0,0,-1,1546,1639,7.17985,-17.6864
329,-615,7.62134,20.4354,0,0,0,0,0,0,0,-1,1553,1639,7.62139,-20.4354
336,-615,6.45007,14.1138,0,0,0,0,0,0,0,-1,1560,1639,6.45011,-14.1138
343,-615,2.40491,6.50134,0,0,0,0,0,0,0,-1,1567,1639,2.40489,-6.50137
350,-615,6.4458,15.4594,0,0,0,0,0,0,0,-1,1574,1639,6.44578,-15.4593
357,-615,10.077,27.4594,0,0,0,0,0,0,0,-1,1581,1639,10.0771,-27.4594
364,-615,11.3654,30.6392,0,0,0,0,0,0,0,-1,1588,1639,11.3654,-30.6392
371,-615,11.7864,30.0861,0.0107778,0.0187944,-0.00913453,0.0247614,0.00481086,-0.99215,0.0151606,0.0467434,1595,1639,11.7864,-30.086
378,-615,12.0884,29.1759,0.00883335,0.0161163,-0.00720045,0.0205437,0.00440595,-1.01951,0.012489,0.02179,1602,1639,12.0884,-29.1759
385,-615,12.0521,28.8207,0.00709953,0.0133762,-0.00559474,0.0166527,0.00382303,-1.041,0.0100723,0.0121973,1609,1639,12.0522,-28.8207
392,-615,12.0737,28.4767,0.0055572,0.0108294,-0.00407983,0.0130507,0.00333593,-1.07222,0.00782907,0.0101769,1616,1639,12.0737,-28.4767
399,-615,12.0812,28.1257,0.00418705,0.00851991,-0.00271271,0.00982511,0.00288185,-1.12235,0.00583184,0.0118009,1623,1639,12.0812,-28.1258
406,-615,12.0895,27.7894,0.00293651,0.00658364,-0.00164794,0.00721794,0.00230221,-1.20337,0.00425737,0.0120723,1630,1639,12.0894,-27.7894
413,-615,12.0896,27.4564,0.00199162,0.00510705,-0.000954177,0.00537607,0.00172261,-1.296,0.0031699,0.0132089,1637,1639,12.0896,-27.4565
420,-615,12.0864,27.089,0.00130961,0.00377349,-0.000456384,0.00385531,0.0012278,-1.3934,0.00227424,0.0141609,1644,1639,12.0865,-27.089
427,-615,12.0819,26.7032,0.000780396,0.00257588,-8.55502e-05,0.00257995,0.000776328,-1.52329,0.00152839,0.0154296,1651,1639,12.0819,-26.7032
434,-615,12.0798,26.3385,0.000497372,0.0017105,-6.50389e-05,0.00171398,0.000493895,-1.51739,0.00101874,0.0141,1658,1639,12.0798,-26.3385
441,-615,12.0869,25.948,0.000420532,0.00126536,-0.000263706,0.00134092,0.000344976,-1.29176,0.000804015,0.0136753,1665,1639,12.0869,-25.948
448,-615,12.1001,25.5844,0.000311893,0.000790341,-0.000415506,0.00103057,7.16666e-05,-1.04659,0.000664446,0.0141391,1672,1639,12.1001,-25.5844
455,-615,12.0905,25.2126,0.000267783,0.000278888,-0.000649238,0.000922598,-0.000375926,-0.789674,0.000771531,0.0133836,1679,1639,12.0904,-25.2127
462,-615,12.058,24.8505,0.000170987,-0.000330541,-0.000753285,0.000714151,-0.000873704,-0.624721,0.00091829,0.0142687,1686,1639,12.058,-24.8505
469,-615,12.0332,24.4502,-2.8531e-06,-0.000961342,-0.000782321,0.000435345,-0.00139954,-0.510584,0.00110705,0.0127273,1693,1639,12.0332,-24.4502
476,-615,12.0287,24.0468,-0.000332281,-0.0015813,-0.000709123,-1.18738e-05,-0.00190171,-0.42438,0.00126387,0.0118468,1700,1639,12.0286,-24.0468
483,-615,12.0294,23.6143,-0.000887059,-0.00221128,-0.000519584,-0.000707528,-0.00239081,-0.332684,0.00141813,0.017796,1707,1639,12.0294,-23.6143
490,-615,12.0234,23.2227,-0.00152607,-0.00270396,-0.000389695,-0.00140882,-0.00282122,-0.292272,0.00162883,0.025898,1714,1639,12.0235,-23.2227
497,-615,11.9484,22.9131,-0.00228952,-0.00312845,-0.000137601,-0.00226753,-0.00315044,-0.15849,0.00187655,0.0381203,1721,1639,11.9484,-22.9131
504,-615,11.9512,22.4899,0,0,0,0,0,0,0,-1,1728,1639,11.9511,-22.4899
511,-615,11.7703,22.1819,0,0,0,0,0,0,0,-1,1735,1639,11.7703,-22.1819
518,-615,13.2416,9.81812,0,0,0,0,0,0,0,-1,1742,1639,13.2416,-9.81813
525,-615,4.37524,3.90491,0,0,0,0,0,0,0,-1,1749,1639,4.37518,-3.90495
532,-615,7.3645,0.848145,0,0,0,0,0,0,0,-1,1756,1639,7.36451,-0.848093
539,-615,12.8112,-0.0476074,0,0,0,0,0,0,0,-1,1763,1639,12.8111,0.0475553
546,-615,8.33813,2.94556,0,0,0,0,0,0,0,-1,1770,1639,8.33813,-2.9455
553,-615,5.82532,-2.04199,0,0,0,0,0,0,0,-1,1777,1639,5.82534,2.04195
560,-615,0,0,0,0,0,0,0,0,0,-1,1784,1639,0,0
567,-615,0,0,0,0,0,0,0,0,0,-1,1791,1639,0,0
574,-615,0,0,0,0,0,0,0,0,0,-1,1798,1639,0,0
581,-615,0,0,0,0,0,0,0,0,0,-1,1805,1639,0,0
588,-615,0,0,0,0,0,0,0,0,0,-1,1812,1639,0,0
595,-615,0,0,0,0,0,0,0,0,0,-1,1819,1639,0,0
602,-615,0,0,0,0,0,0,0,0,0,-1,1826,1639,0,0
609,-615,0,0,0,0,0,0,0,0,0,-1,1833,1639,0,0
616,-615,0,0,0,0,0,0,0,0,0,-1,1840,1639,0,0
623,-615,0,0,0,0,0,0,0,0,0,-1,1847,1639,0,0
630,-615,0,0,0,0,0,0,0,0,0,-1,1854,1639,0,0
637,-615,0,0,0,0,0,0,0,0,0,-1,1861,1639,0,0
644,-615,0,0,0,0,0,0,0,0,0,-1,1868,1639,0,0
651,-615,0,0,0,0,0,0,0,0,0,-1,1875,1639,0,0
658,-615,0,0,0,0,0,0,0,0,0,-1,1882,1639,0,0
665,-615,0,0,0,0,0,0,0,0,0,-1,1889,1639,0,0
672,-615,0,0,0,0,0,0,0,0,0,-1,1896,1639,0,0
679,-615,0,0,0,0,0,0,0,0,0,-1,1903,1639,0,0
686,-615,0,0,0,0,0,0,0,0,0,-1,1910,1639,0,0
693,-615,0,0,0,0,0,0,0,0,0,-1,1917,1639,0,0
700,-615,0,0,0,0,0,0,0,0,0,-1,1924,1639,0,0
707,-615,0,0,0,0,0,0,0,0,0,-1,1931,1639,0,0
714,-615,0,0,0,0,0,0,0,0,0,-1,1938,1639,0,0
721,-615,0,0,0,0,0,0,0,0,0,-1,1945,1639,0,0
728,-615,0,0,0,0,0,0,0,0,0,-1,1952,1639,0,0
735,-615,0,0,0,0,0,0,0,0,0,-1,1959,1639,0,0
742,-615,0,0,0,0,0,0,0,0,0,-1,1966,1639,0,0
749,-615,0,0,0,0,0,0,0,0,0,-1,1973,1639,0,0
756,-615,0,0,0,0,0,0,0,0,0,-1,1980,1639,0,0
763,-615,0,0,0,0,0,0,0,0,0,-1,1987,1639,0,0
770,-615,0,0,0,0,0,0,0,0,0,-1,1994,1639,0,0
777,-615,0,0,0,0,0,0,0,0,0,-1,2001,1639,0,0
784,-615,0,0,0,0,0,0,0,0,0,-1,2008,1639,0,0
791,-615,0,0,0,0,0,0,0,0,0,-1,2015,1639,0,0
798,-615,0,0,0,0,0,0,0,0,0,-1,2022,1639,0,0
805,-615,0,0,0,0,0,0,0,0,0,-1,2029,1639,0,0
812,-615,0,0,0,0,0,0,0,0,0,-1,2036,1639,0,0
-700,-622,0,0,0,0,0,0,0,0,0,-1,524,1646,0,0
-693,-622,0,0,0,0,0,0,0,0,0,-1,531,1646,0,0
-686,-622,0,0,0,0,0,0,0,0,0,-1,538,1646,0,0
-679,-622,0,0,0,0,0,0,0,0,0,-1,545,1646,0,0
-672,-622,0,0,0,0,0,0,0,0,0,-1,552,1646,0,0
-665,-622,0,0,0,0,0,0,0,0,0,-1,559,1646,0,0
-658,-622,0,0,0,0,0,0,0,0,0,-1,566,1646,0,0
-651,-622,0,0,0,0,0,0,0,0,0,-1,573,1646,0,0
-644,-622,0,0,0,0,0,0,0,0,0,-1,580,1646,0,0
-637,-622,0,0,0,0,0,0,0,0,0,-1,587,1646,0,0
-630,-622,0,0,0,0,0,0,0,0,0,-1,594,1646,0,0
-623,-622,0,0,0,0,0,0,0,0,0,-1,601,1646,0,0
-616,-622,0,0,0,0,0,0,0,0,0,-1,608,1646,0,0
-609,-622,0,0,0,0,0,0,0,0,0,-1,615,1646,0,0
-602,-622,0,0,0,0,0,0,0,0,0,-1,622,1646,0,0
-595,-622,0,0,0,0,0,0,0,0,0,-1,629,1646,0,0
-588,-622,0,0,0,0,0,0,0,0,0,-1,636,1646,0,0
-581,-622,0,0,0,0,0,0,0,0,0,-1,643,1646,0,0
-574,-622,0,0,0,0,0,0,0,0,0,-1,650,1646,0,0
-567,-622,0,0,0,0,0,0,0,0,0,-1,657,1646,0,0
-560,-622,0,0,0,0,0,0,0,0,0,-1,664,1646,0,0
-553,-622,0,0,0,0,0,0,0,0,0,-1,671,1646,0,0
-546,-622,0,0,0,0,0,0,0,0,0,-1,678,1646,0,0
-539,-622,0,0,0,0,0,0,0,0,0,-1,685,1646,0,0
-532,-622,0,0,0,0,0,0,0,0,0,-1,692,1646,0,0
-525,-622,0,0,0,0,0,0,0,0,0,-1,699,1646,0,0
-518,-622,0,0,0,0,0,0,0,0,0,-1,706,1646,0,0
-511,-622,0,0,0,0,0,0,0,0,0,-1,713,1646,0,0
-504,-622,0,0,0,0,0,0,0,0,0,-1,720,1646,0,0
-497,-622,0,0,0,0,0,0,0,0,0,-1,727,1646,0,0
-490,-622,0,0,0,0,0,0,0,0,0,-1,734,1646,0,0
-483,-622,0,0,0,0,0,0,0,0,0,-1,741,1646,0,0
-476,-622,0,0,0,0,0,0,0,0,0,-1,748,1646,0,0
-469,-622,0,0,0,0,0,0,0,0,0,-1,755,1646,0,0
-462,-622,0,0,0,0,0,0,0,0,0,-1,762,1646,0,0
-455,-622,0,0,0,0,0,0,0,0,0,-1,769,1646,0,0
-448,-622,0,0,0,0,0,0,0,0,0,-1,776,1646,0,0
-441,-622,0,0,0,0,0,0,0,0,0,-1,783,1646,0,0
-434,-622,0,0,0,0,0,0,0,0,0,-1,790,1646,0,0
-427,-622,-7.62891,3.48096,0,0,0,0,0,0,0,-1,797,1646,-7.62892,-3.48092
-420,-622,-9.35791,1.77185,0,0,0,0,0,0,0,-1,804,1646,-9.35789,-1.77183
-413,-622,-8.46075,1.96777,0,0,0,0,0,0,0,-1,811,1646,-8.46074,-1.96774
-406,-622,-4.44318,2.16858,0,0,0,0,0,0,0,-1,818,1646,-4.44315,-2.16859
-399,-622,-7.06976,1.51001,0,0,0,0,0,0,0,-1,825,1646,-7.06976,-1.51005
-392,-622,3.89551,5.85376,0,0,0,0,0,0,0,-1,832,1646,3.8955,-5.85379
-385,-622,2.00543,14.0448,0,0,0,0,0,0,0,-1,839,1646,2.00544,-14.0448
-378,-622,1.49036,15.3436,0,0,0,0,0,0,0,-1,846,1646,1.49033,-15.3436
-371,-622,3.23883,20.4496,0,0,0,0,0,0,0,-1,853,1646,3.23886,-20.4496
-364,-622,3.22424,21.1843,0,0,0,0,0,0,0,-1,860,1646,3.22422,-21.1843
-357,-622,3.20959,21.9191,0,0,0,0,0,0,0,-1,867,1646,3.20959,-21.919
-350,-622,3.6557,22.7255,0,0,0,0,0,0,0,-1,874,1646,3.65569,-22.7255
-343,-622,3.5401,23.1716,-0.00184449,0.00111315,0.00289235,0.0028828,-0.00361414,1.02172,0.00375893,0.0240828,881,1646,3.54008,-23.1716
-336,-622,3.54736,23.5924,-0.000809068,0.000766273,0.00237782,0.00248349,-0.00252629,0.945338,0.00289243,0.00956178,888,1646,3.54739,-23.5924
-329,-622,3.5202,23.9973,-0.000247235,0.000931311,0.00196298,0.00239156,-0.00170749,0.931215,0.00237755,0.0087447,895,1646,3.52019,-23.9973
-322,-622,3.51752,24.4265,7.12724e-05,0.00115502,0.00170108,0.00239845,-0.00117215,0.939591,0.00210162,0.00986695,902,1646,3.51753,-24.4265
-315,-622,3.51129,24.8572,0.000317962,0.00143156,0.00154906,0.00252085,-0.000771328,0.957929,0.00198819,0.0134323,909,1646,3.51129,-24.8571
-308,-622,3.49298,25.246,0.000638114,0.0016756,0.00146609,0.00271202,-0.0003983,0.955439,0.00195435,0.0142122,916,1646,3.49299,-25.2459
-301,-622,3.49579,25.624,0.000993538,0.00191149,0.00143123,0.00295554,-5.05142e-05,0.94056,0.00198741,0.0140274,923,1646,3.49581,-25.624
-294,-622,3.49628,26.0284,0.00144577,0.00218915,0.00154833,0.00340977,0.000225145,0.903198,0.00220197,0.0107975,930,1646,3.49626,-26.0285
-287,-622,3.48914,26.4216,0.00192522,0.00255564,0.00170779,0.00397706,0.000503798,0.876657,0.00250042,0.00784486,937,1646,3.48917,-26.4217
-280,-622,3.46777,26.7955,0.00249354,0.00286565,0.00192392,0.00461249,0.000746702,0.833601,0.00285878,0.00836719,944,1646,3.46779,-26.7955
-273,-622,3.44781,27.1547,0.00308738,0.00300652,0.00214942,0.00519675,0.000897153,0.775995,0.00320754,0.0130008,951,1646,3.44779,-27.1546
-266,-622,3.42657,27.5283,0.00371908,0.00323656,0.00239113,0.00588109,0.00107455,0.73512,0.00361616,0.0131144,958,1646,3.42658,-27.5283
-259,-622,3.45654,27.9379,0.00441126,0.00347109,0.00267257,0.00665478,0.00122758,0.698342,0.00408921,0.0120055,965,1646,3.45653,-27.9379
-252,-622,3.47009,28.2789,0.00512578,0.00375998,0.00297834,0.00749851,0.00138725,0.672702,0.00460675,0.0120914,972,1646,3.4701,-28.2789
-245,-622,3.52869,28.6367,0.00576539,0.00407361,0.00326906,0.00829623,0.00154278,0.658797,0.00509502,0.00989125,979,1646,3.5287,-28.6367
-238,-622,3.53778,28.9967,0.006516,0.0041954,0.00349032,0.00903383,0.00167757,0.624928,0.00554855,0.0130989,986,1646,3.53777,-28.9968
-231,-622,3.6095,29.4338,0.00741072,0.0043074,0.00391721,0.0100724,0.00164573,0.596823,0.00623913,0.0235385,993,1646,3.60951,-29.4338
-224,-622,3.66687,29.694,0.00815556,0.00479071,0.00439913,0.011183,0.00176326,0.602758,0.00694263,0.0391012,1000,1646,3.66684,-29.694
-217,-622,3.78235,30.1406,0,0,0,0,0,0,0,-1,1007,1646,3.78232,-30.1406
-210,-622,3.87927,28.0903,0,0,0,0,0,0,0,-1,1014,1646,3.87925,-28.0903
-203,-622,4.21375,20.9574,0,0,0,0,0,0,0,-1,1021,1646,4.21375,-20.9574
-196,-622,4.18518,21.2491,0,0,0,0,0,0,0,-1,1028,1646,4.18521,-21.2491
-189,-622,4.98254,25.8979,0,0,0,0,0,0,0,-1,1035,1646,4.98255,-25.8979
-182,-622,2.21411,20.6752,0,0,0,0,0,0,0,-1,1042,1646,2.21416,-20.6751
-175,-622,2.56091,11.0195,0,0,0,0,0,0,0,-1,1049,1646,2.56095,-11.0195
-168,-622,3.31055,28.6663,0,0,0,0,0,0,0,-1,1056,1646,3.31055,-28.6663
-161,-622,3.46545,31.1064,0,0,0,0,0,0,0,-1,1063,1646,3.46549,-31.1064
-154,-622,3.02039,29.4987,0,0,0,0,0,0,0,-1,1070,1646,3.02035,-29.4986
-147,-622,3.7146,25.5477,0,0,0,0,0,0,0,-1,1077,1646,3.71464,-25.5478
-140,-622,3.27515,16.0353,0,0,0,0,0,0,0,-1,1084,1646,3.27519,-16.0353
-133,-622,3.09644,17.677,0,0,0,0,0,0,0,-1,1091,1646,3.09638,-17.677
-126,-622,3.5061,19.5251,0,0,0,0,0,0,0,-1,1098,1646,3.50616,-19.5252
-119,-622,4.06384,13.1715,0,0,0,0,0,0,0,-1,1105,1646,4.06379,-13.1716
-112,-622,4.33276,14.6605,0,0,0,0,0,0,0,-1,1112,1646,4.33281,-14.6605
-105,-622,0.306519,4.38159,0,0,0,0,0,0,0,-1,1119,1646,0.306536,-4.38159
-98,-622,-0.510376,3.5033,0,0,0,0,0,0,0,-1,1126,1646,-0.510393,-3.50324
-91,-622,-1.146,0.975952,0,0,0,0,0,0,0,-1,1133,1646,-1.14599,-0.97597
-84,-622,-2.04895,1.31787,0,0,0,0,0,0,0,-1,1140,1646,-2.0489,-1.31781
-77,-622,-1.80627,0.332275,0,0,0,0,0,0,0,-1,1147,1646,-1.80622,-0.33223
-70,-622,-3.65588,2.28149,0,0,0,0,0,0,0,-1,1154,1646,-3.65589,-2.28155
-63,-622,-2.49683,1.27087,0,0,0,0,0,0,0,-1,1161,1646,-2.49679,-1.27093
-56,-622,-2.44238,-0.575562,0,0,0,0,0,0,0,-1,1168,1646,-2.44242,0.575508
-49,-622,-2.41089,1.38818,0,0,0,0,0,0,0,-1,1175,1646,-2.41088,-1.38815
-42,-622,-2.71497,2.85242,0,0,0,0,0,0,0,-1,1182,1646,-2.71491,-2.85247
-35,-622,-3.0177,4.25842,0,0,0,0,0,0,0,-1,1189,1646,-3.01773,-4.25838
-28,-622,-0.896606,0.678833,0,0,0,0,0,0,0,-1,1196,1646,-0.89661,-0.678835
-21,-622,3.69312,26.7708,0,0,0,0,0,0,0,-1,1203,1646,3.69309,-26.7708
-14,-622,11.6339,43.3512,0,0,0,0,0,0,0,-1,1210,1646,11.6339,-43.3511
-7,-622,10.9481,43.1321,0,0,0,0,0,0,0,-1,1217,1646,10.9481,-43.132
0,-622,0,0,0,0,0,0,0,0,0,-1,1224,1646,0,0
7,-622,0,0,0,0,0,0,0,0,0,-1,1231,1646,0,0
14,-622,0,0,0,0,0,0,0,0,0,-1,1238,1646,0,0
21,-622,0,0,0,0,0,0,0,0,0,-1,1245,1646,0,0
28,-622,0,0,0,0,0,0,0,0,0,-1,1252,1646,0,0
35,-622,0,0,0,0,0,0,0,0,0,-1,1259,1646,0,0
42,-622,0,0,0,0,0,0,0,0,0,-1,1266,1646,0,0
49,-622,0,0,0,0,0,0,0,0,0,-1,1273,1646,0,0
56,-622,0,0,0,0,0,0,0,0,0,-1,1280,1646,0,0
63,-622,0,0,0,0,0,0,0,0,0,-1,1287,1646,0,0
70,-622,0,0,0,0,0,0,0,0,0,-1,1294,1646,0,0
77,-622,0,0,0,0,0,0,0,0,0,-1,1301,1646,0,0
84,-622,0,0,0,0,0,0,0,0,0,-1,1308,1646,0,0
91,-622,0,0,0,0,0,0,0,0,0,-1,1315,1646,0,0
98,-622,0,0,0,0,0,0,0,0,0,-1,1322,1646,0,0
105,-622,0,0,0,0,0,0,0,0,0,-1,1329,1646,0,0
112,-622,0,0,0,0,0,0,0,0,0,-1,1336,1646,0,0
119,-622,0,0,0,0,0,0,0,0,0,-1,1343,1646,0,0
126,-622,12.3627,38.9174,-0.00115742,-0.148502,-0.0170973,0.000800483,-0.150459,-0.114018,0.100574,0.0450907,1350,1646,12.3627,-38.9174
133,-622,12.1282,38.7039,-0.00514233,-0.144638,-0.0271662,-3.85791e-05,-0.149742,-0.185707,0.0998151,0.0481886,1357,1646,12.1282,-38.7038
140,-622,11.6624,38.2625,-0.0105328,-0.151106,-0.0409812,0.000541925,-0.162181,-0.263935,0.108301,0.044393,1364,1646,11.6624,-38.2624
147,-622,11.548,37.9557,-0.0167797,-0.171109,-0.055366,0.0010282,-0.188917,-0.311189,0.126289,0.0481865,1371,1646,11.5479,-37.9557
154,-622,11.6176,37.5983,0,0,0,0,0,0,0,-1,1378,1646,11.6175,-37.5982
161,-622,10.6884,6.46448,0,0,0,0,0,0,0,-1,1385,1646,10.6883,-6.46442
168,-622,12.2402,5.18091,0,0,0,0,0,0,0,-1,1392,1646,12.2403,-5.1809
175,-622,5.64355,-1.77075,0,0,0,0,0,0,0,-1,1399,1646,5.64351,1.77077
182,-622,5.88586,-1.32251,0,0,0,0,0,0,0,-1,1406,1646,5.88587,1.32256
189,-622,5.97986,-1.18005,0,0,0,0,0,0,0,-1,1413,1646,5.97986,1.18003
196,-622,5.85022,-0.244507,0,0,0,0,0,0,0,-1,1420,1646,5.85026,0.244478
203,-622,5.25159,0.138794,0,0,0,0,0,0,0,-1,1427,1646,5.25162,-0.138822
210,-622,6.66833,0.0397949,0,0,0,0,0,0,0,-1,1434,1646,6.6684,-0.0398278
217,-622,6.12061,0.0506592,0,0,0,0,0,0,0,-1,1441,1646,6.12058,-0.0507181
224,-622,5.57275,0.0616455,0,0,0,0,0,0,0,-1,1448,1646,5.57276,-0.0616084
231,-622,5.31348,1.3949,0,0,0,0,0,0,0,-1,1455,1646,5.31342,-1.39495
238,-622,3.76477,2.90686,0,0,0,0,0,0,0,-1,1462,1646,3.7648,-2.90686
245,-622,5.13794,2.67993,0,0,0,0,0,0,0,-1,1469,1646,5.13796,-2.67992
252,-622,6.66528,2.53992,0,0,0,0,0,0,0,-1,1476,1646,6.66522,-2.53991
259,-622,8.93787,3.31458,0,0,0,0,0,0,0,-1,1483,1646,8.93791,-3.31454
266,-622,5.72644,3.11926,0,0,0,0,0,0,0,-1,1490,1646,5.72647,-3.1192
273,-622,7.28076,3.61218,0,0,0,0,0,0,0,-1,1497,1646,7.28071,-3.61212
280,-622,8.43127,4.4447,0,0,0,0,0,0,0,-1,1504,1646,8.43123,-4.44467
287,-622,8.60315,5.94617,0,0,0,0,0,0,0,-1,1511,1646,8.60319,-5.94622
294,-622,7.62756,11.5143,0,0,0,0,0,0,0,-1,1518,1646,7.62762,-11.5143
301,-622,7.36548,11.6569,0,0,0,0,0,0,0,-1,1525,1646,7.36549,-11.6569
308,-622,7.10339,11.7994,0,0,0,0,0,0,0,-1,1532,1646,7.10335,-11.7995
315,-622,8.28687,16.5842,0,0,0,0,0,0,0,-1,1539,1646,8.28689,-16.5843
322,-622,7.43689,20.5786,0,0,0,0,0,0,0,-1,1546,1646,7.43685,-20.5786
329,-622,9.76477,26.4202,0,0,0,0,0,0,0,-1,1553,1646,9.7648,-26.4202
336,-622,10.4526,28.8552,0,0,0,0,0,0,0,-1,1560,1646,10.4526,-28.8552
343,-622,10.7522,30.2819,0,0,0,0,0,0,0,-1,1567,1646,10.7522,-30.2818
350,-622,11.6055,30.5735,0,0,0,0,0,0,0,-1,1574,1646,11.6055,-30.5735
357,-622,11.4585,30.4813,0,0,0,0,0,0,0,-1,1581,1646,11.4585,-30.4813
364,-622,11.6199,30.1145,0.00957038,0.016485,-0.00792698,0.0216758,0.00437956,-0.991034,0.0132345,0.0405254,1588,1646,11.6199,-30.1145
371,-622,11.7355,29.5306,0.00835999,0.0146019,-0.0067805,0.0189452,0.00401666,-1.00109,0.011527,0.0230212,1595,1646,11.7355,-29.5307
378,-622,11.72,29.1538,0.0070194,0.0127013,-0.0055557,0.0161003,0.0036204,-1.02174,0.00975333,0.0111191,1602,1646,11.7199,-29.1538
385,-622,11.7062,28.821,0.00580055,0.0106046,-0.0044878,0.0132927,0.00311238,-1.03112,0.00802806,0.0101891,1609,1646,11.7061,-28.821
392,-622,11.7097,28.4905,0.00468358,0.00852703,-0.0034339,0.0105404,0.00267024,-1.0405,0.00632751,0.0112744,1616,1646,11.7097,-28.4905
399,-622,11.7063,28.1509,0.00361777,0.00652066,-0.00241662,0.00788821,0.00225022,-1.05583,0.00469218,0.0118585,1623,1646,11.7063,-28.1509
406,-622,11.7006,27.7734,0.00262531,0.00483205,-0.00156394,0.00564267,0.0018147,-1.0926,0.0033262,0.0152928,1630,1646,11.7005,-27.7734
413,-622,11.7109,27.4248,0.00186174,0.00348037,-0.000947675,0.00391728,0.00142483,-1.1388,0.00228947,0.0178775,1637,1646,11.7109,-27.4248
420,-622,11.7128,27.0884,0.00128438,0.00224653,-0.000485289,0.00244878,0.00108212,-1.17592,0.00141698,0.0178266,1644,1646,11.7127,-27.0884
427,-622,11.701,26.7058,0.000838913,0.00113382,-0.00014507,0.00119322,0.000779515,-1.18218,0.000699615,0.0135314,1651,1646,11.7011,-26.7058
434,-622,11.7057,26.3403,0.000587971,0.0003832,-0.000140262,0.000659241,0.00031193,-0.470123,0.000380796,0.0131711,1658,1646,11.7057,-26.3403
441,-622,11.7347,25.9464,0.00048672,-4.64617e-06,-0.000282926,0.000615746,-0.000133672,-0.427868,0.000461553,0.014118,1665,1646,11.7347,-25.9464
448,-622,11.7185,25.6023,0.000383263,-0.000424757,-0.000407088,0.00055279,-0.000594284,-0.394597,0.000662408,0.0134495,1672,1646,11.7186,-25.6022
455,-622,11.6848,25.2214,0.000320678,-0.000826221,-0.000590588,0.000570417,-0.00107596,-0.40006,0.000965358,0.015313,1679,1646,11.6849,-25.2214
462,-622,11.6782,24.8444,0.000157443,-0.00132361,-0.000660456,0.000409178,-0.00157534,-0.364154,0.00120991,0.0160718,1686,1646,11.6783,-24.8444
469,-622,11.6686,24.4631,-5.31889e-05,-0.00177802,-0.000723671,0.000210211,-0.00204142,-0.349072,0.00143616,0.0169358,1693,1646,11.6685,-24.4631
476,-622,11.7189,24.076,-0.000373073,-0.00222994,-0.000743069,-0.00011233,-0.00249068,-0.337476,0.00162431,0.0211607,1700,1646,11.7189,-24.076
483,-622,11.6246,23.678,-0.000949809,-0.00265815,-0.000646436,-0.000732772,-0.00287519,-0.323919,0.00172521,0.031825,1707,1646,11.6246,-23.678
490,-622,11.6057,23.161,-0.00163137,-0.00295722,-0.000675452,-0.00134788,-0.00324071,-0.397377,0.00187982,0.0386886,1714,1646,11.6058,-23.161
497,-622,11.8378,22.7167,0,0,0,0,0,0,0,-1,1721,1646,11.8378,-22.7166
504,-622,10.8306,19.8021,0,0,0,0,0,0,0,-1,1728,1646,10.8306,-19.8022
511,-622,5.29004,4.14587,0,0,0,0,0,0,0,-1,1735,1646,5.29008,-4.14589
518,-622,5.6001,1.55359,0,0,0,0,0,0,0,-1,1742,1646,5.60015,-1.5536
525,-622,5.83093,2.01807,0,0,0,0,0,0,0,-1,1749,1646,5.83097,-2.01802
532,-622,5.44202,0.57373,0,0,0,0,0,0,0,-1,1756,1646,5.44196,-0.573705
539,-622,9.32129,1.06116,0,0,0,0,0,0,0,-1,1763,1646,9.32131,-1.0612
546,-622,6.50977,-3.45618,0,0,0,0,0,0,0,-1,1770,1646,6.50981,3.4562
553,-622,0,0,0,0,0,0,0,0,0,-1,1777,1646,0,0
560,-622,0,0,0,0,0,0,0,0,0,-1,1784,1646,0,0
567,-622,0,0,0,0,0,0,0,0,0,-1,1791,1646,0,0
574,-622,0,0,0,0,0,0,0,0,0,-1,1798,1646,0,0
581,-622,0,0,0,0,0,0,0,0,0,-1,1805,1646,0,0
588,-622,0,0,0,0,0,0,0,0,0,-1,1812,1646,0,0
595,-622,0,0,0,0,0,0,0,0,0,-1,1819,1646,0,0
602,-622,0,0,0,0,0,0,0,0,0,-1,1826,1646,0,0
609,-622,0,0,0,0,0,0,0,0,0,-1,1833,1646,0,0
616,-622,0,0,0,0,0,0,0,0,0,-1,1840,1646,0,0
623,-622,0,0,0,0,0,0,0,0,0,-1,1847,1646,0,0
630,-622,0,0,0,0,0,0,0,0,0,-1,1854,1646,0,0
637,-622,0,0,0,0,0,0,0,0,0,-1,1861,1646,0,0
644,-622,0,0,0,0,0,0,0,0,0,-1,1868,1646,0,0
651,-622,0,0,0,0,0,0,0,0,0,-1,1875,1646,0,0
658,-622,0,0,0,0,0,0,0,0,0,-1,1882,1646,0,0
665,-622,0,0,0,0,0,0,0,0,0,-1,1889,1646,0,0
672,-622,0,0,0,0,0,0,0,0,0,-1,1896,1646,0,0
679,-622,0,0,0,0,0,0,0,0,0,-1,1903,1646,0,0
686,-622,0,0,0,0,0,0,0,0,0,-1,1910,1646,0,0
693,-622,0,0,0,0,0,0,0,0,0,-1,1917,1646,0,0
700,-622,0,0,0,0,0,0,0,0,0,-1,1924,1646,0,0
707,-622,0,0,0,0,0,0,0,0,0,-1,1931,1646,0,0
714,-622,0,0,0,0,0,0,0,0,0,-1,1938,1646,0,0
721,-622,0,0,0,0,0,0,0,0,0,-1,1945,1646,0,0
728,-622,0,0,0,0,0,0,0,0,0,-1,1952,1646,0,0
735,-622,0,0,0,0,0,0,0,0,0,-1,1959,1646,0,0
742,-622,0,0,0,0,0,0,0,0,0,-1,1966,1646,0,0
749,-622,0,0,0,0,0,0,0,0,0,-1,1973,1646,0,0
756,-622,0,0,0,0,0,0,0,0,0,-1,1980,1646,0,0
763,-622,0,0,0,0,0,0,0,0,0,-1,1987,1646,0,0
770,-622,0,0,0,0,0,0,0,0,0,-1,1994,1646,0,0
777,-622,0,0,0,0,0,0,0,0,0,-1,2001,1646,0,0
784,-622,0,0,0,0,0,0,0,0,0,-1,2008,1646,0,0
791,-622,0,0,0,0,0,0,0,0,0,-1,2015,1646,0,0
798,-622,0,0,0,0,0,0,0,0,0,-1,2022,1646,0,0
805,-622,0,0,0,0,0,0,0,0,0,-1,2029,1646,0,0
812,-622,0,0,0,0,0,0,0,0,0,-1,2036,1646,0,0
-700,-629,0,0,0,0,0,0,0,0,0,-1,524,1653,0,0
-693,-629,0,0,0,0,0,0,0,0,0,-1,531,1653,0,0
-686,-629,0,0,0,0,0,0,0,0,0,-1,538,1653,0,0
-679,-629,0,0,0,0,0,0,0,0,0,-1,545,1653,0,0
-672,-629,0,0,0,0,0,0,0,0,0,-1,552,1653,0,0
-665,-629,0,0,0,0,0,0,0,0,0,-1,559,1653,0,0
-658,-629,0,0,0,0,0,0,0,0,0,-1,566,1653,0,0
-651,-629,0,0,0,0,0,0,0,0,0,-1,573,1653,0,0
-644,-629,0,0,0,0,0,0,0,0,0,-1,580,1653,0,0
-637,-629,0,0,0,0,0,0,0,0,0,-1,587,1653,0,0
-630,-629,0,0,0,0,0,0,0,0,0,-1,594,1653,0,0
-623,-629,0,0,0,0,0,0,0,0,0,-1,601,1653,0,0
-616,-629,0,0,0,0,0,0,0,0,0,-1,608,1653,0,0
-609,-629,0,0,0,0,0,0,0,0,0,-1,615,1653,0,0
-602,-629,0,0,0,0,0,0,0,0,0,-1,622,1653,0,0
-595,-629,0,0,0,0,0,0,0,0,0,-1,629,1653,0,0
-588,-629,0,0,0,0,0,0,0,0,0,-1,636,1653,0,0
-581,-629,0,0,0,0,0,0,0,0,0,-1,643,1653,0,0
-574,-629,0,0,0,0,0,0,0,0,0,-1,650,1653,0,0
-567,-629,0,0,0,0,0,0,0,0,0,-1,657,1653,0,0
-560,-629,0,0,0,0,0,0,0,0,0,-1,664,1653,0,0
-553,-629,0,0,0,0,0,0,0,0,0,-1,671,1653,0,0
-546,-629,0,0,0,0,0,0,0,0,0,-1,678,1653,0,0
-539,-629,0,0,0,0,0,0,0,0,0,-1,685,1653,0,0
-532,-629,0,0,0,0,0,0,0,0,0,-1,692,1653,0,0
-525,-629,0,0,0,0,0,0,0,0,0,-1,699,1653,0,0
-518,-629,0,0,0,0,0,0,0,0,0,-1,706,1653,0,0
-511,-629,0,0,0,0,0,0,0,0,0,-1,713,1653,0,0
-504,-629,0,0,0,0,0,0,0,0,0,-1,720,1653,0,0
-497,-629,0,0,0,0,0,0,0,0,0,-1,727,1653,0,0
-490,-629,0,0,0,0,0,0,0,0,0,-1,734,1653,0,0
-483,-629,0,0,0,0,0,0,0,0,0,-1,741,1653,0,0
-476,-629,0,0,0,0,0,0,0,0,0,-1,748,1653,0,0
-469,-629,0,0,0,0,0,0,0,0,0,-1,755,1653,0,0
-462,-629,0,0,0,0,0,0,0,0,0,-1,762,1653,0,0
-455,-629,0,0,0,0,0,0,0,0,0,-1,769,1653,0,0
-448,-629,0,0,0,0,0,0,0,0,0,-1,776,1653,0,0
-441,-629,0,0,0,0,0,0,0,0,0,-1,783,1653,0,0
-434,-629,0,0,0,0,0,0,0,0,0,-1,790,1653,0,0
-427,-629,0,0,0,0,0,0,0,0,0,-1,797,1653,0,0
-420,-629,-3.87103,3.37634,0,0,0,0,0,0,0,-1,804,1653,-3.87101,-3.37633
-413,-629,-5.69751,1.33582,0,0,0,0,0,0,0,-1,811,1653,-5.69754,-1.3358
-406,-629,2.85406,6.01501,0,0,0,0,0,0,0,-1,818,1653,2.85405,-6.01507
-399,-629,-0.455627,10.8687,0,0,0,0,0,0,0,-1,825,1653,-0.455625,-10.8687
-392,-629,1.15369,11.1295,0,0,0,0,0,0,0,-1,832,1653,1.1537,-11.1295
-385,-629,1.81976,11.6935,0,0,0,0,0,0,0,-1,839,1653,1.81975,-11.6935
-378,-629,2.19452,14.7941,0,0,0,0,0,0,0,-1,846,1653,2.19451,-14.7941
-371,-629,3.60114,14.7299,0,0,0,0,0,0,0,-1,853,1653,3.60113,-14.7299
-364,-629,3.26898,21.0801,0,0,0,0,0,0,0,-1,860,1653,3.26895,-21.08
-357,-629,4.38782,16.3444,0,0,0,0,0,0,0,-1,867,1653,4.38783,-16.3443
-350,-629,3.91003,22.8022,0,0,0,0,0,0,0,-1,874,1653,3.91003,-22.8022
-343,-629,3.90692,23.2344,-0.00255486,0.000559585,0.00388155,0.00318463,-0.00517991,0.976162,0.00487485,0.0407906,881,1653,3.9069,-23.2344
-336,-629,3.90912,23.5997,-0.00134082,0.000351632,0.00322309,0.00283773,-0.00382692,0.913777,0.00386194,0.0206233,888,1653,3.90909,-23.5997
-329,-629,3.9491,24.0148,-0.00069389,0.000587714,0.0026326,0.00265638,-0.00276255,0.904782,0.00312882,0.0120665,895,1653,3.94909,-24.0148
-322,-629,3.92542,24.4369,-0.000347302,0.000797083,0.00215737,0.00245685,-0.00200707,0.915027,0.0025816,0.0116244,902,1653,3.9254,-24.4369
-315,-629,3.9024,24.8754,-0.000147811,0.000977845,0.00179747,0.00229854,-0.00146851,0.937124,0.00219244,0.0156394,909,1653,3.90243,-24.8754
-308,-629,3.89728,25.2722,0.000124685,0.00112663,0.00155664,0.00226093,-0.00100961,0.94108,0.00193376,0.0131698,916,1653,3.8973,-25.2722
-301,-629,3.89282,25.6626,0.000412007,0.00126777,0.00135693,0.00226268,-0.000582904,0.938128,0.00173569,0.0116293,923,1653,3.89284,-25.6626
-294,-629,3.88055,26.0486,0.000778927,0.00143455,0.0013092,0.00245635,-0.00024288,0.90807,0.00172424,0.0125977,930,1653,3.88052,-26.0486
-287,-629,3.88147,26.4172,0.00116635,0.00167946,0.00132968,0.00277711,6.87013e-05,0.880699,0.00182893,0.00967847,937,1653,3.88148,-26.4173
-280,-629,3.87329,26.8052,0.00164218,0.00193434,0.00140878,0.0032046,0.000371926,0.837061,0.00202385,0.00954335,944,1653,3.87327,-26.8052
-273,-629,3.84967,27.1636,0.00208402,0.00200765,0.00151198,0.0035583,0.00053337,0.772772,0.00221591,0.0127552,951,1653,3.84969,-27.1636
-266,-629,3.82886,27.5551,0.00261393,0.00223325,0.00166922,0.00410363,0.000743548,0.728629,0.00252467,0.0139236,958,1653,3.82884,-27.555
-259,-629,3.82959,27.9769,0.00320174,0.00249284,0.00187361,0.00475413,0.00094045,0.691913,0.00290709,0.0147391,965,1653,3.82957,-27.977
-252,-629,3.84589,28.2932,0.00376862,0.00280657,0.00210496,0.00544682,0.00112837,0.673068,0.00331964,0.0112557,972,1653,3.84591,-28.2932
-245,-629,3.87427,28.6431,0.00431446,0.00317019,0.00232812,0.00613972,0.00134493,0.664911,0.00372663,0.00851731,979,1653,3.87428,-28.6431
-238,-629,3.86981,28.9962,0.00496688,0.0034118,0.00250118,0.00680859,0.00157009,0.634699,0.00411674,0.0107476,986,1653,3.8698,-28.9963
-231,-629,3.84375,29.3445,0.00579022,0.00368504,0.0028698,0.00779438,0.00168088,0.609625,0.00473644,0.0148126,993,1653,3.84374,-29.3445
-224,-629,3.94025,29.816,0.0064871,0.00417853,0.00324553,0.0087775,0.00188813,0.614547,0.00533486,0.0188947,1000,1653,3.94023,-29.816
-217,-629,3.90247,30.0862,0.00711689,0.00498507,0.00384959,0.0100454,0.00205654,0.650337,0.00612757,0.0336456,1007,1653,3.90245,-30.0861
-210,-629,4.12,30.5082,0,0,0,0,0,0,0,-1,1014,1653,4.11997,-30.5082
-203,-629,4.29041,31.3134,0,0,0,0,0,0,0,-1,1021,1653,4.29035,-31.3134
-196,-629,4.38635,31.2676,0,0,0,0,0,0,0,-1,1028,1653,4.38636,-31.2675
-189,-629,4.23108,31.3718,0,0,0,0,0,0,0,-1,1035,1653,4.23109,-31.3718
-182,-629,4.44177,32.0065,0,0,0,0,0,0,0,-1,1042,1653,4.44183,-32.0064
-175,-629,3.29102,19.1411,0,0,0,0,0,0,0,-1,1049,1653,3.29096,-19.1411
-168,-629,6.45325,31.283,0,0,0,0,0,0,0,-1,1056,1653,6.4532,-31.283
-161,-629,6.3905,31.4457,0,0,0,0,0,0,0,-1,1063,1653,6.39045,-31.4457
-154,-629,3.87708,31.2505,0,0,0,0,0,0,0,-1,1070,1653,3.87706,-31.2505
-147,-629,4.46606,30.7166,0,0,0,0,0,0,0,-1,1077,1653,4.46604,-30.7166
-140,-629,2.34851,19.2911,0,0,0,0,0,0,0,-1,1084,1653,2.34853,-19.2911
-133,-629,3.41248,17.6686,0,0,0,0,0,0,0,-1,1091,1653,3.41243,-17.6686
-126,-629,4.01025,19.5328,0,0,0,0,0,0,0,-1,1098,1653,4.01022,-19.5328
-119,-629,4.94177,13.5525,0,0,0,0,0,0,0,-1,1105,1653,4.94172,-13.5525
-112,-629,5.63123,15.9187,0,0,0,0,0,0,0,-1,1112,1653,5.63118,-15.9187
-105,-629,2.15881,4.38342,0,0,0,0,0,0,0,-1,1119,1653,2.15878,-4.38347
-98,-629,0.825806,4.19385,0,0,0,0,0,0,0,-1,1126,1653,0.825779,-4.1939
-91,-629,-0.452271,3.64465,0,0,0,0,0,0,0,-1,1133,1653,-0.452278,-3.6446
-84,-629,-2.6084,0.466797,0,0,0,0,0,0,0,-1,1140,1653,-2.6084,-0.466786
-77,-629,-3.50903,2.10706,0,0,0,0,0,0,0,-1,1147,1653,-3.509,-2.10707
-70,-629,-1.20886,2.52502,0,0,0,0,0,0,0,-1,1154,1653,-1.20886,-2.525
-63,-629,-0.960693,4.30212,0,0,0,0,0,0,0,-1,1161,1653,-0.960691,-4.30215
-56,-629,-1.31934,5.64343,0,0,0,0,0,0,0,-1,1168,1653,-1.31928,-5.6434
-49,-629,-2.15662,2.57458,0,0,0,0,0,0,0,-1,1175,1653,-2.15656,-2.57459
-42,-629,-2.46326,3.91467,0,0,0,0,0,0,0,-1,1182,1653,-2.4633,-3.91466
-35,-629,-2.67261,5.24292,0,0,0,0,0,0,0,-1,1189,1653,-2.67257,-5.24298
-28,-629,-0.402954,-0.866577,0,0,0,0,0,0,0,-1,1196,1653,-0.402943,0.866612
-21,-629,3.45508,27.0596,0,0,0,0,0,0,0,-1,1203,1653,3.45508,-27.0596
-14,-629,11.104,43.1031,0,0,0,0,0,0,0,-1,1210,1653,11.104,-43.1031
-7,-629,5.78528,40.7186,0,0,0,0,0,0,0,-1,1217,1653,5.78524,-40.7186
0,-629,6.78259,40.8961,0.218137,0.0864597,0.0360478,0.227359,0.0772372,0.250468,0.133495,0.0491857,1224,1653,6.78259,-40.8962
7,-629,7.72205,41.0138,0.210814,0.0860973,0.0423947,0.223861,0.0730509,0.298539,0.131819,0.0466454,1231,1653,7.72203,-41.0137
14,-629,8.73462,41.092,0,0,0,0,0,0,0,-1,1238,1653,8.73458,-41.0921
21,-629,9.74841,41.1888,0,0,0,0,0,0,0,-1,1245,1653,9.74837,-41.1889
28,-629,11.7848,43.241,0,0,0,0,0,0,0,-1,1252,1653,11.7848,-43.241
35,-629,5.5874,40.6471,0,0,0,0,0,0,0,-1,1259,1653,5.58734,-40.6471
42,-629,5.10681,40.3744,0,0,0,0,0,0,0,-1,1266,1653,5.10686,-40.3743
49,-629,8.57666,30.4976,0,0,0,0,0,0,0,-1,1273,1653,8.57664,-30.4975
56,-629,9.59082,31.6187,0,0,0,0,0,0,0,-1,1280,1653,9.59087,-31.6186
63,-629,9.98169,32.2312,0.0769957,-0.145078,0.0654346,0.0948419,-0.162925,0.266259,0.150542,0.0459576,1287,1653,9.98171,-32.2312
70,-629,10.2063,33.0426,0.0640213,-0.168876,0.0619244,0.0794624,-0.184317,0.244372,0.156252,0.0426272,1294,1653,10.2063,-33.0426
77,-629,10.1859,33.8804,0.0541574,-0.176623,0.0570597,0.0674944,-0.18996,0.229617,0.154145,0.0451778,1301,1653,10.1859,-33.8804
84,-629,10.8063,34.644,0,0,0,0,0,0,0,-1,1308,1653,10.8063,-34.644
91,-629,11.1581,35.468,0.0381302,-0.172285,0.0409697,0.045826,-0.17998,0.185676,0.137826,0.0454789,1315,1653,11.1581,-35.468
98,-629,11.5302,36.4651,0,0,0,0,0,0,0,-1,1322,1653,11.5301,-36.4651
105,-629,12.0132,37.731,0,0,0,0,0,0,0,-1,1329,1653,12.0132,-37.7309
112,-629,12.615,38.9181,0,0,0,0,0,0,0,-1,1336,1653,12.615,-38.9181
119,-629,11.739,39.3975,0.0220787,-0.156716,0.00568915,0.0222596,-0.156897,0.0317766,0.112752,0.0418147,1343,1653,11.739,-39.3975
126,-629,12.1147,39.5945,0.0192545,-0.155265,-0.00383331,0.0193386,-0.155349,-0.0219509,0.110577,0.0438727,1350,1653,12.1148,-39.5945
133,-629,12.4313,39.5989,0.016577,-0.155559,-0.0134341,0.0176191,-0.156601,-0.0774185,0.110742,0.0466405,1357,1653,12.4312,-39.5989
140,-629,12.2805,39.3503,0.0126602,-0.164253,-0.0262118,0.0164621,-0.168055,-0.14404,0.117908,0.0440139,1364,1653,12.2805,-39.3504
147,-629,11.9482,38.8525,0.00888955,-0.188833,-0.038206,0.0160153,-0.195959,-0.18439,0.136292,0.0495589,1371,1653,11.9483,-38.8525
154,-629,11.7258,38.2805,0,0,0,0,0,0,0,-1,1378,1653,11.7258,-38.2805
161,-629,10.5461,6.83752,0,0,0,0,0,0,0,-1,1385,1653,10.5461,-6.83758
168,-629,12.0059,5.56348,0,0,0,0,0,0,0,-1,1392,1653,12.0059,-5.56352
175,-629,5.84485,-1.78845,0,0,0,0,0,0,0,-1,1399,1653,5.84479,1.7884
182,-629,5.99036,-1.27783,0,0,0,0,0,0,0,-1,1406,1653,5.99041,1.27778
189,-629,5.97668,-0.748535,0,0,0,0,0,0,0,-1,1413,1653,5.97671,0.748544
196,-629,4.52869,9.24695,0,0,0,0,0,0,0,-1,1420,1653,4.52869,-9.2469
203,-629,3.75085,6.88037,0,0,0,0,0,0,0,-1,1427,1653,3.75087,-6.88032
210,-629,3.5907,6.52637,0,0,0,0,0,0,0,-1,1434,1653,3.59067,-6.52642
217,-629,2.4585,4.84448,0,0,0,0,0,0,0,-1,1441,1653,2.45855,-4.84448
224,-629,1.31982,3.68481,0,0,0,0,0,0,0,-1,1448,1653,1.31986,-3.68487
231,-629,3.63025,1.73499,0,0,0,0,0,0,0,-1,1455,1653,3.6303,-1.735
238,-629,4.26428,2.11255,0,0,0,0,0,0,0,-1,1462,1653,4.26429,-2.11253
245,-629,5.61816,1.95361,0,0,0,0,0,0,0,-1,1469,1653,5.61815,-1.95359
252,-629,7.27136,2.18982,0,0,0,0,0,0,0,-1,1476,1653,7.27131,-2.18985
259,-629,8.67334,2.18628,0,0,0,0,0,0,0,-1,1483,1653,8.6733,-2.18633
266,-629,6.86475,3.72058,0,0,0,0,0,0,0,-1,1490,1653,6.86479,-3.72063
273,-629,7.9021,3.8717,0,0,0,0,0,0,0,-1,1497,1653,7.90205,-3.87171
280,-629,9.70837,4.39087,0,0,0,0,0,0,0,-1,1504,1653,9.7084,-4.39082
287,-629,9.82947,7.19348,0,0,0,0,0,0,0,-1,1511,1653,9.8295,-7.19347
294,-629,6.56555,11.6359,0,0,0,0,0,0,0,-1,1518,1653,6.5656,-11.6358
301,-629,6.93835,15.6102,0,0,0,0,0,0,0,-1,1525,1653,6.93835,-15.6103
308,-629,6.08264,12.1423,0,0,0,0,0,0,0,-1,1532,1653,6.08263,-12.1423
315,-629,6.82043,18.2764,0,0,0,0,0,0,0,-1,1539,1653,6.82049,-18.2764
322,-629,10.3922,29.9829,0,0,0,0,0,0,0,-1,1546,1653,10.3922,-29.9829
329,-629,11.2981,31.5658,0,0,0,0,0,0,0,-1,1553,1653,11.2981,-31.5658
336,-629,11.3685,31.0908,0,0,0,0,0,0,0,-1,1560,1653,11.3685,-31.0909
343,-629,11.1605,31.0334,0,0,0,0,0,0,0,-1,1567,1653,11.1605,-31.0335
350,-629,11.269,30.522,0.00890528,0.013519,-0.00683492,0.0184259,0.00399842,-0.948152,0.0111918,0.0298786,1574,1653,11.269,-30.522
357,-629,11.3586,30.0996,0.00795128,0.012987,-0.00630994,0.0172629,0.00367539,-0.975233,0.0105001,0.016924,1581,1653,11.3586,-30.0996
364,-629,11.3445,29.7762,0.00698142,0.0122015,-0.00568136,0.0158437,0.00333925,-1.00072,0.00964403,0.0141615,1588,1653,11.3445,-29.7763
371,-629,11.3634,29.4548,0.00615848,0.010911,-0.00495597,0.014031,0.00303854,-1.00895,0.00852362,0.0112979,1595,1653,11.3634,-29.4548
378,-629,11.3588,29.1221,0.00528977,0.00952378,-0.00416765,0.0120813,0.00273227,-1.0204,0.00731553,0.0105984,1602,1653,11.3588,-29.1221
385,-629,11.3738,28.8134,0.00452008,0.00787347,-0.00344565,0.0100287,0.00236483,-1.01184,0.00605352,0.0126299,1609,1653,11.3737,-28.8133
392,-629,11.3744,28.4938,0.00381626,0.00610922,-0.00271687,0.0079116,0.00201388,-0.985055,0.00474768,0.0114856,1616,1653,11.3744,-28.4938
399,-629,11.3705,28.147,0.00307808,0.00429763,-0.00196986,0.00574993,0.00162578,-0.935497,0.00342259,0.0117904,1623,1653,11.3705,-28.147
406,-629,11.3656,27.7866,0.00237627,0.00278646,-0.00129849,0.00389595,0.00126678,-0.863726,0.00229471,0.0146865,1630,1653,11.3656,-27.7866
413,-629,11.3496,27.4497,0.00184846,0.00156625,-0.00079193,0.00251176,0.000902952,-0.697234,0.00146913,0.0249653,1637,1653,11.3496,-27.4497
420,-629,11.3284,27.1018,0.00142603,0.000463467,-0.000417736,0.00158204,0.000307461,-0.357416,0.000968609,0.0237028,1644,1653,11.3283,-27.1018
427,-629,11.3563,26.7314,0.00110811,-0.000513517,-0.000164157,0.00112456,-0.000529968,-0.0998795,0.00097559,0.0139979,1651,1653,11.3564,-26.7314
434,-629,11.3606,26.3666,0.000913025,-0.00110019,-0.000220643,0.000936923,-0.00112409,-0.107891,0.00119156,0.010758,1658,1653,11.3606,-26.3666
441,-629,11.3749,25.9913,0.000797392,-0.00137106,-0.000350508,0.000852641,-0.0014263,-0.156338,0.00132957,0.0145494,1665,1653,11.3749,-25.9913
448,-629,11.3519,25.6056,0.000698211,-0.00167003,-0.000490829,0.000795908,-0.00176773,-0.196476,0.00151515,0.0146272,1672,1653,11.3519,-25.6056
455,-629,11.314,25.2144,0.000613525,-0.00188674,-0.000657994,0.000776116,-0.00204933,-0.242248,0.00168558,0.0138369,1679,1653,11.3139,-25.2144
462,-629,11.297,24.8658,0.000348771,-0.00210449,-0.000702637,0.000535761,-0.00229148,-0.260097,0.00173405,0.0160597,1686,1653,11.297,-24.8658
469,-629,11.2939,24.4794,5.08135e-06,-0.00225253,-0.000742728,0.000227514,-0.00247497,-0.290981,0.00173081,0.0188626,1693,1653,11.294,-24.4794
476,-629,11.4457,24.1924,-0.000301288,-0.00250348,-0.000857642,-6.68969e-06,-0.00279808,-0.330871,0.00186316,0.0325869,1700,1653,11.4456,-24.1924
483,-629,11.4778,23.6365,-0.000896895,-0.00269272,-0.000862593,-0.000549691,-0.00303992,-0.38267,0.0018705,0.0491793,1707,1653,11.4777,-23.6365
490,-629,11.4755,22.9872,0,0,0,0,0,0,0,-1,1714,1653,11.4754,-22.9871
497,-629,10.3662,19.8605,0,0,0,0,0,0,0,-1,1721,1653,10.3662,-19.8605
504,-629,7.89453,15.5316,0,0,0,0,0,0,0,-1,1728,1653,7.89447,-15.5316
511,-629,6.29138,3.40295,0,0,0,0,0,0,0,-1,1735,1653,6.29137,-3.403
518,-629,5.84387,1.41858,0,0,0,0,0,0,0,-1,1742,1653,5.84391,-1.4186
525,-629,6.4729,1.02319,0,0,0,0,0,0,0,-1,1749,1653,6.47284,-1.02316
532,-629,6.86511,0.903687,0,0,0,0,0,0,0,-1,1756,1653,6.86514,-0.903691
539,-629,6.60803,0.746704,0,0,0,0,0,0,0,-1,1763,1653,6.60809,-0.746691
546,-629,0,0,0,0,0,0,0,0,0,-1,1770,1653,0,0
553,-629,0,0,0,0,0,0,0,0,0,-1,1777,1653,0,0
560,-629,0,0,0,0,0,0,0,0,0,-1,1784,1653,0,0
567,-629,0,0,0,0,0,0,0,0,0,-1,1791,1653,0,0
574,-629,0,0,0,0,0,0,0,0,0,-1,1798,1653,0,0
581,-629,0,0,0,0,0,0,0,0,0,-1,1805,1653,0,0
588,-629,0,0,0,0,0,0,0,0,0,-1,1812,1653,0,0
595,-629,0,0,0,0,0,0,0,0,0,-1,1819,1653,0,0
602,-629,0,0,0,0,0,0,0,0,0,-1,1826,1653,0,0
609,-629,0,0,0,0,0,0,0,0,0,-1,1833,1653,0,0
616,-629,0,0,0,0,0,0,0,0,0,-1,1840,1653,0,0
623,-629,0,0,0,0,0,0,0,0,0,-1,1847,1653,0,0
630,-629,0,0,0,0,0,0,0,0,0,-1,1854,1653,0,0
637,-629,0,0,0,0,0,0,0,0,0,-1,1861,1653,0,0
644,-629,0,0,0,0,0,0,0,0,0,-1,1868,1653,0,0
651,-629,0,0,0,0,0,0,0,0,0,-1,1875,1653,0,0
658,-629,0,0,0,0,0,0,0,0,0,-1,1882,1653,0,0
665,-629,0,0,0,0,0,0,0,0,0,-1,1889,1653,0,0
672,-629,0,0,0,0,0,0,0,0,0,-1,1896,1653,0,0
679,-629,0,0,0,0,0,0,0,0,0,-1,1903,1653,0,0
686,-629,0,0,0,0,0,0,0,0,0,-1,1910,1653,0,0
693,-629,0,0,0,0,0,0,0,0,0,-1,1917,1653,0,0
700,-629,0,0,0,0,0,0,0,0,0,-1,1924,1653,0,0
707,-629,0,0,0,0,0,0,0,0,0,-1,1931,1653,0,0
714,-629,0,0,0,0,0,0,0,0,0,-1,1938,1653,0,0
721,-629,0,0,0,0,0,0,0,0,0,-1,1945,1653,0,0
728,-629,0,0,0,0,0,0,0,0,0,-1,1952,1653,0,0
735,-629,0,0,0,0,0,0,0,0,0,-1,1959,1653,0,0
742,-629,0,0,0,0,0,0,0,0,0,-1,1966,1653,0,0
749,-629,0,0,0,0,0,0,0,0,0,-1,1973,1653,0,0
756,-629,0,0,0,0,0,0,0,0,0,-1,1980,1653,0,0
763,-629,0,0,0,0,0,0,0,0,0,-1,1987,1653,0,0
770,-629,0,0,0,0,0,0,0,0,0,-1,1994,1653,0,0
777,-629,0,0,0,0,0,0,0,0,0,-1,2001,1653,0,0
784,-629,0,0,0,0,0,0,0,0,0,-1,2008,1653,0,0
791,-629,0,0,0,0,0,0,0,0,0,-1,2015,1653,0,0
798,-629,0,0,0,0,0,0,0,0,0,-1,2022,1653,0,0
805,-629,0,0,0,0,0,0,0,0,0,-1,2029,1653,0,0
812,-629,0,0,0,0,0,0,0,0,0,-1,2036,1653,0,0
-700,-636,0,0,0,0,0,0,0,0,0,-1,524,1660,0,0
-693,-636,0,0,0,0,0,0,0,0,0,-1,531,1660,0,0
-686,-636,0,0,0,0,0,0,0,0,0,-1,538,1660,0,0
-679,-636,0,0,0,0,0,0,0,0,0,-1,545,1660,0,0
-672,-636,0,0,0,0,0,0,0,0,0,-1,552,1660,0,0
-665,-636,0,0,0,0,0,0,0,0,0,-1,559,1660,0,0
-658,-636,0,0,0,0,0,0,0,0,0,-1,566,1660,0,0
-651,-636,0,0,0,0,0,0,0,0,0,-1,573,1660,0,0
-644,-636,0,0,0,0,0,0,0,0,0,-1,580,1660,0,0
-637,-636,0,0,0,0,0,0,0,0,0,-1,587,1660,0,0
-630,-636,0,0,0,0,0,0,0,0,0,-1,594,1660,0,0
-623,-636,0,0,0,0,0,0,0,0,0,-1,601,1660,0,0
-616,-636,0,0,0,0,0,0,0,0,0,-1,608,1660,0,0
-609,-636,0,0,0,0,0,0,0,0,0,-1,615,1660,0,0
-602,-636,0,0,0,0,0,0,0,0,0,-1,622,1660,0,0
-595,-636,0,0,0,0,0,0,0,0,0,-1,629,1660,0,0
-588,-636,0,0,0,0,0,0,0,0,0,-1,636,1660,0,0
-581,-636,0,0,0,0,0,0,0,0,0,-1,643,1660,0,0
-574,-636,0,0,0,0,0,0,0,0,0,-1,650,1660,0,0
-567,-636,0,0,0,0,0,0,0,0,0,-1,657,1660,0,0
-560,-636,0,0,0,0,0,0,0,0,0,-1,664,1660,0,0
-553,-636,0,0,0,0,0,0,0,0,0,-1,671,1660,0,0
-546,-636,0,0,0,0,0,0,0,0,0,-1,678,1660,0,0
-539,-636,0,0,0,0,0,0,0,0,0,-1,685,1660,0,0
-532,-636,0,0,0,0,0,0,0,0,0,-1,692,1660,0,0
-525,-636,0,0,0,0,0,0,0,0,0,-1,699,1660,0,0
-518,-636,0,0,0,0,0,0,0,0,0,-1,706,1660,0,0
-511,-636,0,0,0,0,0,0,0,0,0,-1,713,1660,0,0
-504,-636,0,0,0,0,0,0,0,0,0,-1,720,1660,0,0
-497,-636,0,0,0,0,0,0,0,0,0,-1,727,1660,0,0
-490,-636,0,0,0,0,0,0,0,0,0,-1,734,1660,0,0
-483,-636,0,0,0,0,0,0,0,0,0,-1,741,1660,0,0
-476,-636,0,0,0,0,0,0,0,0,0,-1,748,1660,0,0
-469,-636,0,0,0,0,0,0,0,0,0,-1,755,1660,0,0
-462,-636,0,0,0,0,0,0,0,0,0,-1,762,1660,0,0
-455,-636,0,0,0,0,0,0,0,0,0,-1,769,1660,0,0
-448,-636,0,0,0,0,0,0,0,0,0,-1,776,1660,0,0
-441,-636,0,0,0,0,0,0,0,0,0,-1,783,1660,0,0
-434,-636,0,0,0,0,0,0,0,0,0,-1,790,1660,0,0
-427,-636,0,0,0,0,0,0,0,0,0,-1,797,1660,0,0
-420,-636,0,0,0,0,0,0,0,0,0,-1,804,1660,0,0
-413,-636,0,0,0,0,0,0,0,0,0,-1,811,1660,0,0
-406,-636,-0.591125,10.6943,0,0,0,0,0,0,0,-1,818,1660,-0.59115,-10.6943
-399,-636,0.0766602,11.2408,0,0,0,0,0,0,0,-1,825,1660,0.076685,-11.2409
-392,-636,0.75946,11.9233,0,0,0,0,0,0,0,-1,832,1660,0.759481,-11.9233
-385,-636,1.68878,12.517,0,0,0,0,0,0,0,-1,839,1660,1.6888,-12.5169
-378,-636,2.22107,13.0013,0,0,0,0,0,0,0,-1,846,1660,2.22107,-13.0014
-371,-636,2.52185,11.9684,0,0,0,0,0,0,0,-1,853,1660,2.52184,-11.9684
-364,-636,4.51947,14.8503,0,0,0,0,0,0,0,-1,860,1660,4.51949,-14.8504
-357,-636,4.55682,15.8809,0,0,0,0,0,0,0,-1,867,1660,4.55681,-15.8808
-350,-636,2.63104,14.4946,0,0,0,0,0,0,0,-1,874,1660,2.63102,-14.4946
-343,-636,4.2984,23.3688,0,0,0,0,0,0,0,-1,881,1660,4.29839,-23.3688
-336,-636,4.28491,23.6146,-0.00220634,-0.00028214,0.00442409,0.00328325,-0.00577173,0.892465,0.0052933,0.035967,888,1660,4.28491,-23.6146
-329,-636,4.36523,23.9875,-0.00137854,0.000127632,0.00357835,0.00303129,-0.00428219,0.889113,0.00424298,0.0193435,895,1660,4.36523,-23.9875
-322,-636,4.33875,24.4397,-0.000998714,0.000391415,0.00280104,0.00258234,-0.00318964,0.907014,0.0033386,0.0114577,902,1660,4.33876,-24.4397
-315,-636,4.27631,24.8641,-0.000853414,0.000494179,0.00217977,0.00210192,-0.00246115,0.935297,0.00263721,0.0122557,909,1660,4.27631,-24.8642
-308,-636,4.28302,25.2715,-0.000626267,0.000560505,0.00173922,0.00180478,-0.00187054,0.949796,0.00212206,0.0111537,916,1660,4.28302,-25.2715
-301,-636,4.28229,25.6798,-0.00040058,0.0006224,0.00134231,0.00154737,-0.00132555,0.967431,0.00166033,0.0109636,923,1660,4.2823,-25.6798
-294,-636,4.25043,26.0752,-0.000116928,0.000711246,0.00111109,0.0014829,-0.000888585,0.963768,0.00138344,0.0147217,930,1660,4.25044,-26.0752
-287,-636,4.2403,26.4202,0.000198662,0.000853021,0.000985311,0.00156405,-0.000512371,0.945699,0.00124903,0.013017,937,1660,4.24031,-26.4201
-280,-636,4.25354,26.7982,0.000632255,0.00107512,0.000927611,0.00180736,-9.99884e-05,0.902561,0.00123958,0.0121746,944,1660,4.25355,-26.7983
-273,-636,4.22852,27.1781,0.000973732,0.0010894,0.000921681,0.00195506,0.000108073,0.816732,0.00126888,0.0121887,951,1660,4.22852,-27.1781
-266,-636,4.22308,27.5792,0.00147043,0.00130221,0.00101428,0.00240408,0.000368563,0.744028,0.00149509,0.0135343,958,1660,4.22308,-27.5792
-259,-636,4.22681,27.9795,0.00202859,0.00156905,0.00117316,0.00299427,0.000603368,0.688696,0.00182855,0.0149264,965,1660,4.22678,-27.9795
-252,-636,4.22363,28.2885,0.00254879,0.00188003,0.00136379,0.0036186,0.000810222,0.665177,0.0021928,0.0118689,972,1660,4.22361,-28.2885
-245,-636,4.22424,28.661,0.00308966,0.00224986,0.00155727,0.00428265,0.00105687,0.65371,0.00257612,0.0106534,979,1660,4.22424,-28.661
-238,-636,4.23071,29.0266,0.00371161,0.00254985,0.00172516,0.00495106,0.0013104,0.623005,0.00296215,0.0116748,986,1660,4.23074,-29.0266
-231,-636,4.23627,29.3759,0.00445435,0.00288911,0.00205136,0.00586731,0.00147615,0.603164,0.0035241,0.0114175,993,1660,4.23628,-29.3759
-224,-636,4.25531,29.7101,0.00508246,0.00337575,0.0023834,0.00676067,0.00169754,0.613488,0.0040613,0.0100328,1000,1660,4.2553,-29.7101
-217,-636,4.25354,30.0872,0.00559644,0.00411589,0.00288966,0.00783914,0.00187319,0.660004,0.00472707,0.0171609,1007,1660,4.25356,-30.0871
-210,-636,4.26459,30.403,0.00600461,0.00533603,0.00356664,0.00925259,0.00208804,0.738671,0.00560359,0.0286092,1014,1660,4.2646,-30.4029
-203,-636,4.34485,30.7891,0.00668805,0.00673263,0.00435321,0.0110636,0.00235708,0.787958,0.00672909,0.0337352,1021,1660,4.34484,-30.7891
-196,-636,4.44214,31.0483,0.00731341,0.00858372,0.00527755,0.0132642,0.00263293,0.845285,0.00810892,0.0352933,1028,1660,4.44218,-31.0483
-189,-636,4.43262,31.3011,0.00776802,0.0109211,0.00627291,0.0158126,0.00287658,0.908511,0.00972569,0.0333599,1035,1660,4.43258,-31.3012
-182,-636,4.60864,31.7484,0.00838455,0.0133073,0.00759065,0.0188257,0.00286617,0.942181,0.0117125,0.0452307,1042,1660,4.60865,-31.7484
-175,-636,4.71533,32.0302,0,0,0,0,0,0,0,-1,1049,1660,4.71536,-32.0302
-168,-636,4.90454,32.6793,0,0,0,0,0,0,0,-1,1056,1660,4.90459,-32.6794
-161,-636,4.83411,33.2457,0,0,0,0,0,0,0,-1,1063,1660,4.83407,-33.2457
-154,-636,4.92578,31.5291,0,0,0,0,0,0,0,-1,1070,1660,4.92576,-31.529
-147,-636,4.32129,31.4845,0,0,0,0,0,0,0,-1,1077,1660,4.32127,-31.4845
-140,-636,3.4729,27.1271,0,0,0,0,0,0,0,-1,1084,1660,3.47287,-27.1271
-133,-636,4.68311,18.0922,0,0,0,0,0,0,0,-1,1091,1660,4.68316,-18.0921
-126,-636,3.79028,18.2225,0,0,0,0,0,0,0,-1,1098,1660,3.79025,-18.2226
-119,-636,1.8667,13.8916,0,0,0,0,0,0,0,-1,1105,1660,1.86668,-13.8916
-112,-636,-1.24963,9.7998,0,0,0,0,0,0,0,-1,1112,1660,-1.24968,-9.79978
-105,-636,3.51624,4.72791,0,0,0,0,0,0,0,-1,1119,1660,3.51618,-4.7279
-98,-636,1.54504,5.11914,0,0,0,0,0,0,0,-1,1126,1660,1.54503,-5.11912
-91,-636,-1.87964,-2.25012,0,0,0,0,0,0,0,-1,1133,1660,-1.87966,2.25016
-84,-636,-2.84143,0.133667,0,0,0,0,0,0,0,-1,1140,1660,-2.84144,-0.133701
-77,-636,-3.57349,2.45935,0,0,0,0,0,0,0,-1,1147,1660,-3.57345,-2.45939
-70,-636,-4.23682,4.82312,0,0,0,0,0,0,0,-1,1154,1660,-4.23681,-4.82307
-63,-636,-2.21033,6.97168,0,0,0,0,0,0,0,-1,1161,1660,-2.21034,-6.97165
-56,-636,-2.51917,8.80359,0,0,0,0,0,0,0,-1,1168,1660,-2.51916,-8.80361
-49,-636,-3.13,10.4113,0,0,0,0,0,0,0,-1,1175,1660,-3.12996,-10.4112
-42,-636,-2.27771,4.90173,0,0,0,0,0,0,0,-1,1182,1660,-2.27775,-4.90173
-35,-636,-2.27698,5.89685,0,0,0,0,0,0,0,-1,1189,1660,-2.27695,-5.89686
-28,-636,-1.70654,4.83936,0,0,0,0,0,0,0,-1,1196,1660,-1.70656,-4.8393
-21,-636,4.24683,27.7834,0,0,0,0,0,0,0,-1,1203,1660,4.24687,-27.7835
-14,-636,4.90332,39.7085,0,0,0,0,0,0,0,-1,1210,1660,4.90326,-39.7085
-7,-636,5.8031,40.0228,0,0,0,0,0,0,0,-1,1217,1660,5.80306,-40.0228
0,-636,6.58997,40.2344,0.195083,0.091343,0.0368895,0.206863,0.0795628,0.3091,0.120488,0.0478044,1224,1660,6.58994,-40.2343
7,-636,7.72925,40.5992,0.187661,0.0976906,0.0446538,0.206061,0.079291,0.39085,0.120017,0.0451956,1231,1660,7.72926,-40.5993
14,-636,9.18054,41.0042,0,0,0,0,0,0,0,-1,1238,1660,9.18049,-41.0041
21,-636,10.3365,41.545,0,0,0,0,0,0,0,-1,1245,1660,10.3366,-41.545
28,-636,11.5673,42.2468,0,0,0,0,0,0,0,-1,1252,1660,11.5673,-42.2468
35,-636,12.6459,42.4146,0,0,0,0,0,0,0,-1,1259,1660,12.6459,-42.4146
42,-636,8.13062,31.1919,0,0,0,0,0,0,0,-1,1266,1660,8.13056,-31.1919
49,-636,8.57007,31.9956,0,0,0,0,0,0,0,-1,1273,1660,8.57008,-31.9956
56,-636,8.99573,32.8192,0.0821029,-0.0652827,0.0644087,0.106283,-0.0894629,0.359136,0.113153,0.0477606,1280,1660,8.9957,-32.8192
63,-636,9.49329,33.5735,0.0654628,-0.0918417,0.0665528,0.0898419,-0.116221,0.351132,0.119295,0.0444914,1287,1660,9.49327,-33.5734
70,-636,9.84363,34.3353,0.0574047,-0.115728,0.0623154,0.0775011,-0.135825,0.311964,0.124689,0.0440179,1294,1660,9.84357,-34.3353
77,-636,10.1005,35.1138,0.0513253,-0.12975,0.0578702,0.0682401,-0.146664,0.284367,0.126799,0.0481643,1301,1660,10.1004,-35.1137
84,-636,10.4337,35.9082,0.0460215,-0.13811,0.0518687,0.0596273,-0.151716,0.256532,0.125821,0.049037,1308,1660,10.4337,-35.9082
91,-636,10.7931,36.7294,0.0403169,-0.146081,0.0443278,0.0503216,-0.156086,0.221979,0.124275,0.0457822,1315,1660,10.7931,-36.7294
98,-636,11.1104,37.5408,0,0,0,0,0,0,0,-1,1322,1660,11.1103,-37.5408
105,-636,11.7816,39.2401,0,0,0,0,0,0,0,-1,1329,1660,11.7816,-39.2401
112,-636,11.6294,39.9431,0.0340798,-0.148798,0.0215818,0.0365922,-0.15131,0.115891,0.115028,0.0451021,1336,1660,11.6293,-39.9431
119,-636,11.6444,40.2706,0.0320214,-0.147913,0.0132615,0.0329935,-0.148885,0.0731752,0.111888,0.0452629,1343,1660,11.6444,-40.2706
126,-636,12.1282,40.4534,0.0299902,-0.148867,0.00473435,0.0301154,-0.148992,0.0264453,0.11074,0.0449682,1350,1660,12.1282,-40.4534
133,-636,12.688,40.5638,0.0273456,-0.15122,-0.00462037,0.0274651,-0.151339,-0.0258519,0.111184,0.0446287,1357,1660,12.688,-40.5639
140,-636,12.9854,40.8982,0.0231233,-0.159264,-0.016227,0.0245557,-0.160697,-0.0880482,0.116185,0.0421957,1364,1660,12.9854,-40.8982
147,-636,13.2073,41.2107,0.0173208,-0.178966,-0.0268025,0.0209148,-0.18256,-0.133297,0.129244,0.04577,1371,1660,13.2073,-41.2107
154,-636,13.6516,41.429,0,0,0,0,0,0,0,-1,1378,1660,13.6516,-41.429
161,-636,10.2961,7.13025,0,0,0,0,0,0,0,-1,1385,1660,10.2961,-7.13021
168,-636,11.7659,5.83899,0,0,0,0,0,0,0,-1,1392,1660,11.7658,-5.83899
175,-636,5.94592,-1.72888,0,0,0,0,0,0,0,-1,1399,1660,5.94598,1.72886
182,-636,5.93994,-1.11938,0,0,0,0,0,0,0,-1,1406,1660,5.93998,1.11936
189,-636,5.32544,11.9595,0,0,0,0,0,0,0,-1,1413,1660,5.32542,-11.9595
196,-636,5.3623,9.38025,0,0,0,0,0,0,0,-1,1420,1660,5.36225,-9.38027
203,-636,5.18542,9.02429,0,0,0,0,0,0,0,-1,1427,1660,5.18547,-9.0243
210,-636,4.09167,7.17041,0,0,0,0,0,0,0,-1,1434,1660,4.09173,-7.17041
217,-636,2.94897,5.28992,0,0,0,0,0,0,0,-1,1441,1660,2.94899,-5.28991
224,-636,1.49194,3.63916,0,0,0,0,0,0,0,-1,1448,1660,1.49197,-3.63918
231,-636,0.17749,2.24854,0,0,0,0,0,0,0,-1,1455,1660,0.177501,-2.24855
238,-636,-0.764648,1.00598,0,0,0,0,0,0,0,-1,1462,1660,-0.764704,-1.00595
245,-636,6.21204,1.18005,0,0,0,0,0,0,0,-1,1469,1660,6.21206,-1.18001
252,-636,7.70251,0.865723,0,0,0,0,0,0,0,-1,1476,1660,7.7025,-0.865692
259,-636,9.03601,0.787231,0,0,0,0,0,0,0,-1,1483,1660,9.03598,-0.787243
266,-636,10.1071,3.24109,0,0,0,0,0,0,0,-1,1490,1660,10.1071,-3.24103
273,-636,8.48535,5.02466,0,0,0,0,0,0,0,-1,1497,1660,8.48533,-5.02472
280,-636,11.908,32.0698,0,0,0,0,0,0,0,-1,1504,1660,11.9079,-32.0698
287,-636,6.08606,11.49,0,0,0,0,0,0,0,-1,1511,1660,6.08606,-11.49
294,-636,6.69592,15.9669,0,0,0,0,0,0,0,-1,1518,1660,6.69595,-15.9669
301,-636,8.25903,23.0582,0,0,0,0,0,0,0,-1,1525,1660,8.25903,-23.0583
308,-636,10.4178,32.1522,0,0,0,0,0,0,0,-1,1532,1660,10.4178,-32.1522
315,-636,10.7395,32.3883,0,0,0,0,0,0,0,-1,1539,1660,10.7395,-32.3883
322,-636,10.9625,31.6857,0,0,0,0,0,0,0,-1,1546,1660,10.9626,-31.6856
329,-636,10.9906,31.3015,0.00836399,0.00869104,-0.0036489,0.0121801,0.00487495,-0.80779,0.00707868,0.0346456,1553,1660,10.9907,-31.3015
336,-636,11.0048,31.0078,0.00759874,0.00921624,-0.00382079,0.0123129,0.00450205,-0.889694,0.00719393,0.0266495,1560,1660,11.0047,-31.0078
343,-636,10.9498,30.8335,0.00711478,0.00918034,-0.00439732,0.0126645,0.00363058,-0.900741,0.00753044,0.0243143,1567,1660,10.9499,-30.8335
350,-636,10.949,30.4713,0.00658246,0.00907789,-0.00450528,0.012505,0.00315531,-0.920485,0.00750924,0.0124342,1574,1660,10.949,-30.4713
357,-636,11.0082,30.0988,0.00591261,0.00889917,-0.00430598,0.0119635,0.00284833,-0.952305,0.00721607,0.00982868,1581,1660,11.0082,-30.0987
364,-636,11.0245,29.7808,0.00521965,0.0084601,-0.00397478,0.0111322,0.00254755,-0.97893,0.00673485,0.0104593,1588,1660,11.0246,-29.7807
371,-636,11.0264,29.4592,0.00459606,0.00757381,-0.00349456,0.00988345,0.00228642,-0.98678,0.00597449,0.00957103,1595,1660,11.0263,-29.4592
378,-636,11.0284,29.1313,0.00402907,0.00656817,-0.00298765,0.00854482,0.00205243,-0.986305,0.00515057,0.0100032,1602,1660,11.0284,-29.1313
385,-636,11.0588,28.8032,0.00354547,0.00527769,-0.00247235,0.00703125,0.00179191,-0.953878,0.00421901,0.01431,1609,1660,11.0588,-28.8032
392,-636,11.0549,28.4794,0.00310478,0.00378376,-0.00194245,0.00541617,0.00147237,-0.871912,0.00323372,0.015203,1616,1660,11.0549,-28.4794
399,-636,11.0287,28.1508,0.00257583,0.00220119,-0.00139495,0.00379598,0.000981032,-0.718655,0.00227527,0.011785,1623,1660,11.0287,-28.1508
406,-636,11.0344,27.8191,0.0020875,0.000898669,-0.000879255,0.00255441,0.000431755,-0.488165,0.00157883,0.0136412,1630,1660,11.0344,-27.8191
413,-636,11.0409,27.4396,0.00175039,-0.000150176,-0.000474765,0.00186239,-0.000262173,-0.231665,0.00133758,0.0224617,1637,1660,11.0409,-27.4396
420,-636,10.9969,27.0885,0.00145581,-0.00108704,-0.000199949,0.00147143,-0.00110267,-0.0779931,0.00149123,0.0231995,1644,1660,10.997,-27.0885
427,-636,11.002,26.7377,0.00125446,-0.00189043,-5.39355e-05,0.00125538,-0.00189135,-0.0171435,0.00182909,0.0133823,1651,1660,11.002,-26.7377
434,-636,10.9899,26.368,0.0011106,-0.00229364,-0.000191642,0.00112135,-0.00230439,-0.0560591,0.00201678,0.011186,1658,1660,10.9899,-26.3681
441,-636,10.9951,25.9985,0.000987356,-0.00242963,-0.000327374,0.00101844,-0.00246071,-0.0946605,0.00206542,0.0118629,1665,1660,10.9951,-25.9985
448,-636,10.9908,25.6438,0.000882861,-0.00261481,-0.000510398,0.000955819,-0.00268777,-0.141982,0.00218141,0.0141729,1672,1660,10.9908,-25.6438
455,-636,10.9381,25.2843,0.000733721,-0.00267066,-0.00067803,0.00086379,-0.00280073,-0.189532,0.00221204,0.0148947,1679,1660,10.9381,-25.2843
462,-636,10.9489,24.8876,0.000331689,-0.00256448,-0.000658628,0.000474435,-0.00270723,-0.213431,0.00198198,0.0192331,1686,1660,10.9488,-24.8876
469,-636,10.9225,24.4574,-0.000188879,-0.00235181,-0.000619195,-2.41626e-05,-0.00251653,-0.259996,0.00166969,0.0294858,1693,1660,10.9225,-24.4573
476,-636,11.0028,24.0372,0,0,0,0,0,0,0,-1,1700,1660,11.0028,-24.0372
483,-636,11.2247,23.5518,0,0,0,0,0,0,0,-1,1707,1660,11.2247,-23.5517
490,-636,11.0208,21.9213,0,0,0,0,0,0,0,-1,1714,1660,11.0208,-21.9213
497,-636,9.55579,18.0111,0,0,0,0,0,0,0,-1,1721,1660,9.55574,-18.0111
504,-636,6.26428,19.4268,0,0,0,0,0,0,0,-1,1728,1660,6.26433,-19.4268
511,-636,5.65466,9.23218,0,0,0,0,0,0,0,-1,1735,1660,5.65461,-9.23216
518,-636,6.72791,1.07605,0,0,0,0,0,0,0,-1,1742,1660,6.7279,-1.0761
525,-636,7.04309,0.93335,0,0,0,0,0,0,0,-1,1749,1660,7.04308,-0.933298
532,-636,0,0,0,0,0,0,0,0,0,-1,1756,1660,0,0
539,-636,0,0,0,0,0,0,0,0,0,-1,1763,1660,0,0
546,-636,0,0,0,0,0,0,0,0,0,-1,1770,1660,0,0
553,-636,0,0,0,0,0,0,0,0,0,-1,1777,1660,0,0
560,-636,0,0,0,0,0,0,0,0,0,-1,1784,1660,0,0
567,-636,0,0,0,0,0,0,0,0,0,-1,1791,1660,0,0
574,-636,0,0,0,0,0,0,0,0,0,-1,1798,1660,0,0
581,-636,0,0,0,0,0,0,0,0,0,-1,1805,1660,0,0
588,-636,0,0,0,0,0,0,0,0,0,-1,1812,1660,0,0
595,-636,0,0,0,0,0,0,0,0,0,-1,1819,1660,0,0
602,-636,0,0,0,0,0,0,0,0,0,-1,1826,1660,0,0
609,-636,0,0,0,0,0,0,0,0,0,-1,1833,1660,0,0
616,-636,0,0,0,0,0,0,0,0,0,-1,1840,1660,0,0
623,-636,0,0,0,0,0,0,0,0,0,-1,1847,1660,0,0
630,-636,0,0,0,0,0,0,0,0,0,-1,1854,1660,0,0
637,-636,0,0,0,0,0,0,0,0,0,-1,1861,1660,0,0
644,-636,0,0,0,0,0,0,0,0,0,-1,1868,1660,0,0
651,-636,0,0,0,0,0,0,0,0,0,-1,1875,1660,0,0
658,-636,0,0,0,0,0,0,0,0,0,-1,1882,1660,0,0
665,-636,0,0,0,0,0,0,0,0,0,-1,1889,1660,0,0
672,-636,0,0,0,0,0,0,0,0,0,-1,1896,1660,0,0
679,-636,0,0,0,0,0,0,0,0,0,-1,1903,1660,0,0
686,-636,0,0,0,0,0,0,0,0,0,-1,1910,1660,0,0
693,-636,0,0,0,0,0,0,0,0,0,-1,1917,1660,0,0
700,-636,0,0,0,0,0,0,0,0,0,-1,1924,1660,0,0
707,-636,0,0,0,0,0,0,0,0,0,-1,1931,1660,0,0
714,-636,0,0,0,0,0,0,0,0,0,-1,1938,1660,0,0
721,-636,0,0,0,0,0,0,0,0,0,-1,1945,1660,0,0
728,-636,0,0,0,0,0,0,0,0,0,-1,1952,1660,0,0
735,-636,0,0,0,0,0,0,0,0,0,-1,1959,1660,0,0
742,-636,0,0,0,0,0,0,0,0,0,-1,1966,1660,0,0
749,-636,0,0,0,0,0,0,0,0,0,-1,1973,1660,0,0
756,-636,0,0,0,0,0,0,0,0,0,-1,1980,1660,0,0
763,-636,0,0,0,0,0,0,0,0,0,-1,1987,1660,0,0
770,-636,0,0,0,0,0,0,0,0,0,-1,1994,1660,0,0
777,-636,0,0,0,0,0,0,0,0,0,-1,2001,1660,0,0
784,-636,0,0,0,0,0,0,0,0,0,-1,2008,1660,0,0
791,-636,0,0,0,0,0,0,0,0,0,-1,2015,1660,0,0
798,-636,0,0,0,0,0,0,0,0,0,-1,2022,1660,0,0
805,-636,0,0,0,0,0,0,0,0,0,-1,2029,1660,0,0
812,-636,0,0,0,0,0,0,0,0,0,-1,2036,1660,0,0
-700,-643,0,0,0,0,0,0,0,0,0,-1,524,1667,0,0
-693,-643,0,0,0,0,0,0,0,0,0,-1,531,1667,0,0
-686,-643,0,0,0,0,0,0,0,0,0,-1,538,1667,0,0
-679,-643,0,0,0,0,0,0,0,0,0,-1,545,1667,0,0
-672,-643,0,0,0,0,0,0,0,0,0,-1,552,1667,0,0
-665,-643,0,0,0,0,0,0,0,0,0,-1,559,1667,0,0
-658,-643,0,0,0,0,0,0,0,0,0,-1,566,1667,0,0
-651,-643,0,0,0,0,0,0,0,0,0,-1,573,1667,0,0
-644,-643,0,0,0,0,0,0,0,0,0,-1,580,1667,0,0
-637,-643,0,0,0,0,0,0,0,0,0,-1,587,1667,0,0
-630,-643,0,0,0,0,0,0,0,0,0,-1,594,1667,0,0
-623,-643,0,0,0,0,0,0,0,0,0,-1,601,1667,0,0
-616,-643,0,0,0,0,0,0,0,0,0,-1,608,1667,0,0
-609,-643,0,0,0,0,0,0,0,0,0,-1,615,1667,0,0
-602,-643,0,0,0,0,0,0,0,0,0,-1,622,1667,0,0
-595,-643,0,0,0,0,0,0,0,0,0,-1,629,1667,0,0
-588,-643,0,0,0,0,0,0,0,0,0,-1,636,1667,0,0
-581,-643,0,0,0,0,0,0,0,0,0,-1,643,1667,0,0
-574,-643,0,0,0,0,0,0,0,0,0,-1,650,1667,0,0
-567,-643,0,0,0,0,0,0,0,0,0,-1,657,1667,0,0
-560,-643,0,0,0,0,0,0,0,0,0,-1,664,1667,0,0
-553,-643,0,0,0,0,0,0,0,0,0,-1,671,1667,0,0
-546,-643,0,0,0,0,0,0,0,0,0,-1,678,1667,0,0
-539,-643,0,0,0,0,0,0,0,0,0,-1,685,1667,0,0
-532,-643,0,0,0,0,0,0,0,0,0,-1,692,1667,0,0
-525,-643,0,0,0,0,0,0,0,0,0,-1,699,1667,0,0
-518,-643,0,0,0,0,0,0,0,0,0,-1,706,1667,0,0
-511,-643,0,0,0,0,0,0,0,0,0,-1,713,1667,0,0
-504,-643,0,0,0,0,0,0,0,0,0,-1,720,1667,0,0
-497,-643,0,0,0,0,0,0,0,0,0,-1,727,1667,0,0
-490,-643,0,0,0,0,0,0,0,0,0,-1,734,1667,0,0
-483,-643,0,0,0,0,0,0,0,0,0,-1,741,1667,0,0
-476,-643,0,0,0,0,0,0,0,0,0,-1,748,1667,0,0
-469,-643,0,0,0,0,0,0,0,0,0,-1,755,1667,0,0
-462,-643,0,0,0,0,0,0,0,0,0,-1,762,1667,0,0
-455,-643,0,0,0,0,0,0,0,0,0,-1,769,1667,0,0
-448,-643,0,0,0,0,0,0,0,0,0,-1,776,1667,0,0
-441,-643,0,0,0,0,0,0,0,0,0,-1,783,1667,0,0
-434,-643,0,0,0,0,0,0,0,0,0,-1,790,1667,0,0
-427,-643,0,0,0,0,0,0,0,0,0,-1,797,1667,0,0
-420,-643,0,0,0,0,0,0,0,0,0,-1,804,1667,0,0
-413,-643,0,0,0,0,0,0,0,0,0,-1,811,1667,0,0
-406,-643,0,0,0,0,0,0,0,0,0,-1,818,1667,0,0
-399,-643,0.589417,11.6465,0,0,0,0,0,0,0,-1,825,1667,0.58939,-11.6465
-392,-643,0.865295,12.6523,0,0,0,0,0,0,0,-1,832,1667,0.865315,-12.6523
-385,-643,1.72968,13.2692,0,0,0,0,0,0,0,-1,839,1667,1.72967,-13.2692
-378,-643,2.66522,13.8193,0,0,0,0,0,0,0,-1,846,1667,2.66524,-13.8193
-371,-643,0.466125,3.35095,0,0,0,0,0,0,0,-1,853,1667,0.466148,-3.351
-364,-643,1.69513,9.922,0,0,0,0,0,0,0,-1,860,1667,1.69511,-9.92205
-357,-643,1.14227,10.8429,0,0,0,0,0,0,0,-1,867,1667,1.14228,-10.8429
-350,-643,2.50061,9.96948,0,0,0,0,0,0,0,-1,874,1667,2.50059,-9.96954
-343,-643,2.61505,6.17407,0,0,0,0,0,0,0,-1,881,1667,2.61504,-6.17412
-336,-643,4.67657,23.6646,0,0,0,0,0,0,0,-1,888,1667,4.67655,-23.6646
-329,-643,4.72766,23.9651,-0.00251553,-0.000551089,0.00506041,0.00362154,-0.00668817,0.881256,0.00603945,0.039776,895,1667,4.72768,-23.9651
-322,-643,4.74298,24.447,-0.00189019,-9.26273e-05,0.00385973,0.00297158,-0.0049544,0.89979,0.00462355,0.0262662,902,1667,4.74298,-24.447
-315,-643,4.64038,24.8563,-0.00165563,1.45227e-05,0.00287371,0.00217203,-0.00381313,0.9268,0.00349857,0.0165436,909,1667,4.64041,-24.8563
-308,-643,4.6651,25.2408,-0.00138179,2.77967e-05,0.00215182,0.00158731,-0.0029413,0.943659,0.00265326,0.0119525,916,1667,4.66513,-25.2408
-301,-643,4.68433,25.6544,-0.00116712,2.15908e-05,0.00144435,0.000989093,-0.00213462,0.98059,0.00184346,0.0138307,923,1667,4.68435,-25.6544
-294,-643,4.64807,26.0515,-0.000933104,8.13344e-05,0.000961827,0.000661489,-0.00151326,1.02804,0.00128729,0.0134781,930,1667,4.64805,-26.0516
-287,-643,4.62695,26.4207,-0.000674285,0.00013126,0.000656812,0.00049896,-0.00104199,1.06044,0.000907892,0.0111537,937,1667,4.62698,-26.4207
-280,-643,4.61707,26.7944,-0.000273529,0.000335949,0.000431721,0.00055965,-0.00049723,1.09273,0.000610544,0.0144988,944,1667,4.61705,-26.7944
-273,-643,4.60815,27.1729,-5.41616e-05,0.000298514,0.000302121,0.000471993,-0.000227641,1.04956,0.000412064,0.01196,951,1667,4.60816,-27.1729
-266,-643,4.59601,27.5651,0.000385285,0.000511144,0.000332798,0.00078691,0.000109519,0.878841,0.000492179,0.011537,958,1667,4.59604,-27.5651
-259,-643,4.60858,27.9382,0.000886975,0.000784651,0.000452588,0.00129128,0.000380343,0.729116,0.000766216,0.0118025,965,1667,4.60861,-27.9382
-252,-643,4.5968,28.3079,0.00134297,0.0010825,0.000620525,0.00184678,0.000578692,0.681964,0.00109072,0.0132232,972,1667,4.59682,-28.3079
-245,-643,4.57715,28.6764,0.00186817,0.00145314,0.000817733,0.00250431,0.000817001,0.661135,0.00147468,0.0114638,979,1667,4.57712,-28.6764
-238,-643,4.61127,29.0176,0.00246423,0.0017858,0.0010089,0.00318941,0.00106062,0.623225,0.00187552,0.0146748,986,1667,4.61128,-29.0175
-231,-643,4.591,29.3766,0.00314631,0.0021593,0.00132263,0.00406451,0.0012411,0.606837,0.00240519,0.0112657,993,1667,4.59101,-29.3766
-224,-643,4.60077,29.7012,0.00374652,0.00259766,0.00164085,0.00491059,0.0014336,0.617024,0.0029158,0.0102236,1000,1667,4.60078,-29.7012
-217,-643,4.60046,29.9895,0.00424953,0.00322352,0.0021004,0.00589867,0.00157438,0.665622,0.0035268,0.00959868,1007,1667,4.60047,-29.9896
-210,-643,4.59595,30.3413,0.00468479,0.00424304,0.00265389,0.00712698,0.00180085,0.743881,0.00427927,0.0116891,1014,1667,4.59596,-30.3413
-203,-643,4.59204,30.75,0.00527104,0.00532475,0.00322667,0.00852468,0.00207111,0.789559,0.00513394,0.0154785,1021,1667,4.59202,-30.75
-196,-643,4.6062,31.0768,0.0057644,0.00672295,0.00388028,0.0101534,0.00233391,0.846845,0.00614066,0.0159766,1028,1667,4.60618,-31.0768
-189,-643,4.72974,31.3373,0.00611886,0.00859494,0.00460024,0.0121208,0.00259297,0.916846,0.00736988,0.0150292,1035,1667,4.72979,-31.3372
-182,-643,4.78845,31.6484,0.00659021,0.0105134,0.00553929,0.0144281,0.00267544,0.955569,0.0088626,0.0214668,1042,1667,4.78844,-31.6485
-175,-643,4.8739,32.0448,0.00681449,0.0131519,0.00666014,0.0173587,0.00260769,1.00744,0.0108086,0.0350453,1049,1667,4.87388,-32.0447
-168,-643,4.93921,32.4548,0.00679291,0.0164903,0.00782702,0.0208488,0.00243443,1.06271,0.013163,0.0408226,1056,1667,4.93916,-32.4549
-161,-643,4.89478,32.922,0.00686113,0.020062,0.00903683,0.0246522,0.00227095,1.10082,0.0157326,0.0446118,1063,1667,4.89479,-32.922
-154,-643,4.90112,33.1373,0,0,0,0,0,0,0,-1,1070,1667,4.90107,-33.1373
-147,-643,4.68372,31.8474,0,0,0,0,0,0,0,-1,1077,1667,4.68375,-31.8474
-140,-643,4.30322,22.9166,0,0,0,0,0,0,0,-1,1084,1667,4.30327,-22.9167
-133,-643,3.66748,21.6034,0,0,0,0,0,0,0,-1,1091,1667,3.66743,-21.6034
-126,-643,3.13904,17.689,0,0,0,0,0,0,0,-1,1098,1667,3.13909,-17.689
-119,-643,3.76282,14.1458,0,0,0,0,0,0,0,-1,1105,1667,3.76283,-14.1458
-112,-643,3.81458,16.2069,0,0,0,0,0,0,0,-1,1112,1667,3.81463,-16.2069
-105,-643,-2.23413,10.0996,0,0,0,0,0,0,0,-1,1119,1667,-2.23415,-10.0996
-98,-643,3.11035,4.68066,0,0,0,0,0,0,0,-1,1126,1667,3.11041,-4.68071
-91,-643,-1.74146,-2.5885,0,0,0,0,0,0,0,-1,1133,1667,-1.74146,2.58856
-84,-643,-3.07446,-0.199341,0,0,0,0,0,0,0,-1,1140,1667,-3.07449,0.199383
-77,-643,-3.63794,2.81165,0,0,0,0,0,0,0,-1,1147,1667,-3.63791,-2.8117
-70,-643,-3.36938,4.45203,0,0,0,0,0,0,0,-1,1154,1667,-3.36941,-4.452
-63,-643,-3.67822,6.26855,0,0,0,0,0,0,0,-1,1161,1667,-3.67823,-6.26856
-56,-643,-3.95142,8.1073,0,0,0,0,0,0,0,-1,1168,1667,-3.95139,-8.10732
-49,-643,-4.23535,9.90552,0,0,0,0,0,0,0,-1,1175,1667,-4.23537,-9.90557
-42,-643,-4.25195,10.7059,0,0,0,0,0,0,0,-1,1182,1667,-4.25192,-10.706
-35,-643,-4.10986,11.6588,0,0,0,0,0,0,0,-1,1189,1667,-4.10982,-11.6589
-28,-643,-1.38513,5.604,0,0,0,0,0,0,0,-1,1196,1667,-1.3851,-5.60403
-21,-643,1.61011,23.1276,0,0,0,0,0,0,0,-1,1203,1667,1.61011,-23.1275
-14,-643,6.61646,30.8655,0,0,0,0,0,0,0,-1,1210,1667,6.61651,-30.8655
-7,-643,5.04224,39.2744,0,0,0,0,0,0,0,-1,1217,1667,5.04228,-39.2744
0,-643,6.26819,39.6757,0.167916,0.0900589,0.035043,0.181366,0.0766096,0.366458,0.105131,0.0477835,1224,1667,6.26818,-39.6756
7,-643,7.64697,40.0929,0.160428,0.0984448,0.0427556,0.182243,0.07663,0.471791,0.105661,0.0407902,1231,1667,7.64693,-40.0929
14,-643,9.10437,40.5297,0,0,0,0,0,0,0,-1,1238,1667,9.10435,-40.5296
21,-643,10.1384,40.9349,0.136595,0.0853869,0.0556678,0.172265,0.0497173,0.569851,0.102377,0.0448416,1245,1667,10.1384,-40.935
28,-643,11.2656,41.3245,0,0,0,0,0,0,0,-1,1252,1667,11.2656,-41.3244
35,-643,12.6101,41.4215,0.107331,0.0400493,0.0588443,0.141472,0.00590855,0.525724,0.0924082,0.0437199,1259,1667,12.6101,-41.4215
42,-643,13.6451,41.7871,0.0941839,0.0145944,0.0606709,0.126947,-0.0181683,0.495138,0.0912918,0.0460726,1266,1667,13.6452,-41.7871
49,-643,8.56348,33.4937,0,0,0,0,0,0,0,-1,1273,1667,8.56353,-33.4936
56,-643,8.9845,34.3154,0,0,0,0,0,0,0,-1,1280,1667,8.98445,-34.3154
63,-643,9.27966,37.9722,0,0,0,0,0,0,0,-1,1287,1667,9.27971,-37.9721
70,-643,9.86621,38.4785,0,0,0,0,0,0,0,-1,1294,1667,9.8662,-38.4786
77,-643,10.3785,39.1851,0.045354,-0.0974349,0.0541656,0.0635758,-0.115657,0.324517,0.104926,0.0458003,1301,1667,10.3785,-39.1851
84,-643,10.0785,37.2013,0.0414695,-0.10936,0.0492642,0.0561345,-0.124025,0.289326,0.106448,0.0475628,1308,1667,10.0785,-37.2013
91,-643,10.3794,38.0303,0.0372968,-0.121285,0.042605,0.0480182,-0.132007,0.24653,0.107642,0.0480706,1315,1667,10.3794,-38.0302
98,-643,10.6794,38.8219,0,0,0,0,0,0,0,-1,1322,1667,10.6795,-38.8219
105,-643,10.9832,39.65,0,0,0,0,0,0,0,-1,1329,1667,10.9831,-39.6501
112,-643,11.3955,40.9897,0.0342462,-0.131307,0.0234834,0.0375129,-0.134574,0.138216,0.10449,0.0453981,1336,1667,11.3955,-40.9898
119,-643,11.6661,41.4141,0.0329409,-0.131926,0.0163844,0.0345534,-0.133539,0.0981008,0.102504,0.0453682,1343,1667,11.6661,-41.4141
126,-643,12.1548,41.5988,0.0314359,-0.133781,0.00894077,0.0319183,-0.134264,0.0539055,0.10183,0.045035,1350,1667,12.1548,-41.5987
133,-643,12.6874,41.6973,0.0292373,-0.136081,0.0006448,0.0292398,-0.136084,0.00390026,0.101878,0.0464305,1357,1667,12.6873,-41.6972
140,-643,13.1543,42.2601,0.025611,-0.141446,-0.00917095,0.026113,-0.141948,-0.0546782,0.10443,0.0416402,1364,1667,13.1544,-42.2602
147,-643,13.4834,43.1957,0.020616,-0.150745,-0.0169295,0.0222725,-0.152402,-0.0975377,0.109781,0.041674,1371,1667,13.4834,-43.1956
154,-643,13.881,44.0421,0,0,0,0,0,0,0,-1,1378,1667,13.8809,-44.0421
161,-643,5.57935,26.2754,0,0,0,0,0,0,0,-1,1385,1667,5.57931,-26.2754
168,-643,10.5563,10.9818,0,0,0,0,0,0,0,-1,1392,1667,10.5562,-10.9819
175,-643,5.88525,-1.1698,0,0,0,0,0,0,0,-1,1399,1667,5.88526,1.16977
182,-643,5.80945,-0.418701,0,0,0,0,0,0,0,-1,1406,1667,5.80949,0.418712
189,-643,5.42297,12.9208,0,0,0,0,0,0,0,-1,1413,1667,5.42298,-12.9208
196,-643,5.51953,11.2415,0,0,0,0,0,0,0,-1,1420,1667,5.51948,-11.2414
203,-643,5.60828,9.82153,0,0,0,0,0,0,0,-1,1427,1667,5.60833,-9.82148
210,-643,4.73218,7.58728,0,0,0,0,0,0,0,-1,1434,1667,4.73222,-7.58728
217,-643,3.8031,5.28955,0,0,0,0,0,0,0,-1,1441,1667,3.80305,-5.28955
224,-643,2.96436,2.97095,0,0,0,0,0,0,0,-1,1448,1667,2.96432,-2.97095
231,-643,2.13403,1.08472,0,0,0,0,0,0,0,-1,1455,1667,2.13403,-1.08467
238,-643,1.18152,-0.261963,0,0,0,0,0,0,0,-1,1462,1667,1.18152,0.26192
245,-643,-0.157471,-1.79016,0,0,0,0,0,0,0,-1,1469,1667,-0.157517,1.7901
252,-643,8.08789,0.0202637,0,0,0,0,0,0,0,-1,1476,1667,8.08791,-0.0203056
259,-643,9.02979,-0.46936,0,0,0,0,0,0,0,-1,1483,1667,9.02974,0.46933
266,-643,4.55066,5.17554,0,0,0,0,0,0,0,-1,1490,1667,4.55063,-5.17556
273,-643,10.74,31.432,0,0,0,0,0,0,0,-1,1497,1667,10.7399,-31.4319
280,-643,9.7832,32.3064,0,0,0,0,0,0,0,-1,1504,1667,9.78315,-32.3064
287,-643,10.3884,33.1158,0,0,0,0,0,0,0,-1,1511,1667,10.3884,-33.1158
294,-643,10.4247,32.7399,0,0,0,0,0,0,0,-1,1518,1667,10.4247,-32.7399
301,-643,10.447,32.5093,0,0,0,0,0,0,0,-1,1525,1667,10.447,-32.5092
308,-643,10.5771,32.1896,0,0,0,0,0,0,0,-1,1532,1667,10.5772,-32.1896
315,-643,10.5168,32.0089,0.00799253,0.00460245,-0.00127671,0.00841955,0.00417542,-0.322775,0.00486109,0.0439331,1539,1667,10.5169,-32.0089
322,-643,10.6276,31.5298,0.0071933,0.00519323,-0.00170051,0.00816603,0.00422049,-0.519594,0.00471555,0.0284048,1546,1667,10.6276,-31.5298
329,-643,10.6816,31.2632,0.00649958,0.00586293,-0.00212293,0.00832792,0.00403459,-0.710979,0.0048089,0.0174255,1553,1667,10.6817,-31.2631
336,-643,10.6033,31.062,0.00579661,0.00614941,-0.00221902,0.00819903,0.00374699,-0.825062,0.00473954,0.0136001,1560,1667,10.6033,-31.062
343,-643,10.6199,30.7874,0.00524095,0.00611459,-0.0026402,0.00835386,0.00300168,-0.86738,0.00488633,0.0125211,1567,1667,10.6199,-30.7873
350,-643,10.6722,30.4379,0.00473759,0.00605647,-0.00280302,0.00827658,0.00251748,-0.900928,0.00489913,0.0118464,1574,1667,10.6722,-30.4378
357,-643,10.6731,30.1075,0.00428764,0.00599299,-0.00281635,0.00808291,0.00219772,-0.932392,0.00482583,0.0104109,1581,1667,10.673,-30.1076
364,-643,10.6896,29.7936,0.00384509,0.00566943,-0.00270804,0.0076148,0.00189972,-0.947848,0.00457666,0.00957097,1588,1667,10.6896,-29.7936
371,-643,10.6965,29.4902,0.00341642,0.00497361,-0.00241618,0.00673354,0.00165649,-0.941266,0.00405137,0.00804715,1595,1667,10.6965,-29.4902
378,-643,10.681,29.1797,0.00304271,0.00415163,-0.00209056,0.00576001,0.00143433,-0.915024,0.00346239,0.00974809,1602,1667,10.681,-29.1796
385,-643,10.7081,28.8457,0.00275833,0.0030649,-0.00172788,0.00464629,0.00117695,-0.829638,0.00278925,0.0155963,1609,1667,10.7082,-28.8457
392,-643,10.6912,28.4957,0.00252397,0.00170657,-0.00135926,0.00353465,0.000695892,-0.639358,0.00216212,0.0159467,1616,1667,10.6912,-28.4957
399,-643,10.6691,28.1871,0.0021609,0.000256173,-0.00097229,0.00256954,-0.000152472,-0.397876,0.00176605,0.0132084,1623,1667,10.6691,-28.1871
406,-643,10.6786,27.823,0.00184143,-0.000926848,-0.000575978,0.00195648,-0.00104191,-0.197166,0.00175776,0.012449,1630,1667,10.6786,-27.823
413,-643,10.7047,27.434,0.00165398,-0.00188864,-0.000226965,0.00166847,-0.00190312,-0.0637197,0.00206354,0.0184027,1637,1667,10.7047,-27.434
420,-643,10.679,27.0945,0.00145939,-0.00272667,-5.94614e-06,0.0014594,-0.00272668,-0.00142046,0.00245347,0.0177614,1644,1667,10.679,-27.0945
427,-643,10.6533,26.7703,0.00136767,-0.00342392,7.14082e-05,0.00136873,-0.00342498,0.0148984,0.00285126,0.0149628,1651,1667,10.6534,-26.7703
434,-643,10.6498,26.3984,0.00128513,-0.00370577,-9.15242e-05,0.0012868,-0.00370745,-0.01833,0.0029942,0.0154207,1658,1667,10.6498,-26.3985
441,-643,10.64,26.021,0.00117951,-0.0037729,-0.000176215,0.00118577,-0.00377916,-0.0355219,0.00299402,0.0157523,1665,1667,10.6401,-26.021
448,-643,10.5553,25.6567,0.00111142,-0.00390716,-0.000342794,0.00113473,-0.00393046,-0.0678848,0.00306929,0.0214571,1672,1667,10.5552,-25.6567
455,-643,10.4889,25.208,0.000955117,-0.00386272,-0.000443552,0.000995612,-0.00390321,-0.0910449,0.00298979,0.027978,1679,1667,10.4889,-25.2081
462,-643,10.5944,24.8721,0.000516396,-0.00333925,-0.000352512,0.00054836,-0.00337122,-0.0904283,0.0024508,0.0385143,1686,1667,10.5944,-24.8721
469,-643,10.5183,24.5107,-0.000124875,-0.0026686,-0.000165604,-0.000114139,-0.00267934,-0.0647386,0.00174942,0.0484219,1693,1667,10.5183,-24.5108
476,-643,10.589,24.0306,0,0,0,0,0,0,0,-1,1700,1667,10.5889,-24.0307
483,-643,10.7327,23.3079,0,0,0,0,0,0,0,-1,1707,1667,10.7326,-23.3078
490,-643,10.6475,22.152,0,0,0,0,0,0,0,-1,1714,1667,10.6475,-22.1519
497,-643,11.2279,21.8638,0,0,0,0,0,0,0,-1,1721,1667,11.2279,-21.8637
504,-643,8.05591,19.0656,0,0,0,0,0,0,0,-1,1728,1667,8.0559,-19.0655
511,-643,7.74719,18.1564,0,0,0,0,0,0,0,-1,1735,1667,7.74724,-18.1563
518,-643,7.40564,0.922607,0,0,0,0,0,0,0,-1,1742,1667,7.4057,-0.922598
525,-643,0,0,0,0,0,0,0,0,0,-1,1749,1667,0,0
532,-643,0,0,0,0,0,0,0,0,0,-1,1756,1667,0,0
539,-643,0,0,0,0,0,0,0,0,0,-1,1763,1667,0,0
546,-643,0,0,0,0,0,0,0,0,0,-1,1770,1667,0,0
553,-643,0,0,0,0,0,0,0,0,0,-1,1777,1667,0,0
560,-643,0,0,0,0,0,0,0,0,0,-1,1784,1667,0,0
567,-643,0,0,0,0,0,0,0,0,0,-1,1791,1667,0,0
574,-643,0,0,0,0,0,0,0,0,0,-1,1798,1667,0,0
581,-643,0,0,0,0,0,0,0,0,0,-1,1805,1667,0,0
588,-643,0,0,0,0,0,0,0,0,0,-1,1812,1667,0,0
595,-643,0,0,0,0,0,0,0,0,0,-1,1819,1667,0,0
602,-643,0,0,0,0,0,0,0,0,0,-1,1826,1667,0,0
609,-643,0,0,0,0,0,0,0,0,0,-1,1833,1667,0,0
616,-643,0,0,0,0,0,0,0,0,0,-1,1840,1667,0,0
623,-643,0,0,0,0,0,0,0,0,0,-1,1847,1667,0,0
630,-643,0,0,0,0,0,0,0,0,0,-1,1854,1667,0,0
637,-643,0,0,0,0,0,0,0,0,0,-1,1861,1667,0,0
644,-643,0,0,0,0,0,0,0,0,0,-1,1868,1667,0,0
651,-643,0,0,0,0,0,0,0,0,0,-1,1875,1667,0,0
658,-643,0,0,0,0,0,0,0,0,0,-1,1882,1667,0,0
665,-643,0,0,0,0,0,0,0,0,0,-1,1889,1667,0,0
672,-643,0,0,0,0,0,0,0,0,0,-1,1896,1667,0,0
679,-643,0,0,0,0,0,0,0,0,0,-1,1903,1667,0,0
686,-643,0,0,0,0,0,0,0,0,0,-1,1910,1667,0,0
693,-643,0,0,0,0,0,0,0,0,0,-1,1917,1667,0,0
700,-643,0,0,0,0,0,0,0,0,0,-1,1924,1667,0,0
707,-643,0,0,0,0,0,0,0,0,0,-1,1931,1667,0,0
714,-643,0,0,0,0,0,0,0,0,0,-1,1938,1667,0,0
721,-643,0,0,0,0,0,0,0,0,0,-1,1945,1667,0,0
728,-643,0,0,0,0,0,0,0,0,0,-1,1952,1667,0,0
735,-643,0,0,0,0,0,0,0,0,0,-1,1959,1667,0,0
742,-643,0,0,0,0,0,0,0,0,0,-1,1966,1667,0,0
749,-643,0,0,0,0,0,0,0,0,0,-1,1973,1667,0,0
756,-643,0,0,0,0,0,0,0,0,0,-1,1980,1667,0,0
763,-643,0,0,0,0,0,0,0,0,0,-1,1987,1667,0,0
770,-643,0,0,0,0,0,0,0,0,0,-1,1994,1667,0,0
777,-643,0,0,0,0,0,0,0,0,0,-1,2001,1667,0,0
784,-643,0,0,0,0,0,0,0,0,0,-1,2008,1667,0,0
791,-643,0,0,0,0,0,0,0,0,0,-1,2015,1667,0,0
798,-643,0,0,0,0,0,0,0,0,0,-1,2022,1667,0,0
805,-643,0,0,0,0,0,0,0,0,0,-1,2029,1667,0,0
812,-643,0,0,0,0,0,0,0,0,0,-1,2036,1667,0,0
-700,-650,0,0,0,0,0,0,0,0,0,-1,524,1674,0,0
-693,-650,0,0,0,0,0,0,0,0,0,-1,531,1674,0,0
-686,-650,0,0,0,0,0,0,0,0,0,-1,538,1674,0,0
-679,-650,0,0,0,0,0,0,0,0,0,-1,545,1674,0,0
-672,-650,0,0,0,0,0,0,0,0,0,-1,552,1674,0,0
-665,-650,0,0,0,0,0,0,0,0,0,-1,559,1674,0,0
-658,-650,0,0,0,0,0,0,0,0,0,-1,566,1674,0,0
-651,-650,0,0,0,0,0,0,0,0,0,-1,573,1674,0,0
-644,-650,0,0,0,0,0,0,0,0,0,-1,580,1674,0,0
-637,-650,0,0,0,0,0,0,0,0,0,-1,587,1674,0,0
-630,-650,0,0,0,0,0,0,0,0,0,-1,594,1674,0,0
-623,-650,0,0,0,0,0,0,0,0,0,-1,601,1674,0,0
-616,-650,0,0,0,0,0,0,0,0,0,-1,608,1674,0,0
-609,-650,0,0,0,0,0,0,0,0,0,-1,615,1674,0,0
-602,-650,0,0,0,0,0,0,0,0,0,-1,622,1674,0,0
-595,-650,0,0,0,0,0,0,0,0,0,-1,629,1674,0,0
-588,-650,0,0,0,0,0,0,0,0,0,-1,636,1674,0,0
-581,-650,0,0,0,0,0,0,0,0,0,-1,643,1674,0,0
-574,-650,0,0,0,0,0,0,0,0,0,-1,650,1674,0,0
-567,-650,0,0,0,0,0,0,0,0,0,-1,657,1674,0,0
-560,-650,0,0,0,0,0,0,0,0,0,-1,664,1674,0,0
-553,-650,0,0,0,0,0,0,0,0,0,-1,671,1674,0,0
-546,-650,0,0,0,0,0,0,0,0,0,-1,678,1674,0,0
-539,-650,0,0,0,0,0,0,0,0,0,-1,685,1674,0,0
-532,-650,0,0,0,0,0,0,0,0,0,-1,692,1674,0,0
-525,-650,0,0,0,0,0,0,0,0,0,-1,699,1674,0,0
-518,-650,0,0,0,0,0,0,0,0,0,-1,706,1674,0,0
-511,-650,0,0,0,0,0,0,0,0,0,-1,713,1674,0,0
-504,-650,0,0,0,0,0,0,0,0,0,-1,720,1674,0,0
-497,-650,0,0,0,0,0,0,0,0,0,-1,727,1674,0,0
-490,-650,0,0,0,0,0,0,0,0,0,-1,734,1674,0,0
-483,-650,0,0,0,0,0,0,0,0,0,-1,741,1674,0,0
-476,-650,0,0,0,0,0,0,0,0,0,-1,748,1674,0,0
-469,-650,0,0,0,0,0,0,0,0,0,-1,755,1674,0,0
-462,-650,0,0,0,0,0,0,0,0,0,-1,762,1674,0,0
-455,-650,0,0,0,0,0,0,0,0,0,-1,769,1674,0,0
-448,-650,0,0,0,0,0,0,0,0,0,-1,776,1674,0,0
-441,-650,0,0,0,0,0,0,0,0,0,-1,783,1674,0,0
-434,-650,0,0,0,0,0,0,0,0,0,-1,790,1674,0,0
-427,-650,0,0,0,0,0,0,0,0,0,-1,797,1674,0,0
-420,-650,0,0,0,0,0,0,0,0,0,-1,804,1674,0,0
-413,-650,0,0,0,0,0,0,0,0,0,-1,811,1674,0,0
-406,-650,0,0,0,0,0,0,0,0,0,-1,818,1674,0,0
-399,-650,0,0,0,0,0,0,0,0,0,-1,825,1674,0,0
-392,-650,5.44415,6.85669,0,0,0,0,0,0,0,-1,832,1674,5.44414,-6.85674
-385,-650,1.74451,14.0183,0,0,0,0,0,0,0,-1,839,1674,1.74453,-14.0183
-378,-650,0.997986,4.11108,0,0,0,0,0,0,0,-1,846,1674,0.998006,-4.11113
-371,-650,-1.80096,3.78625,0,0,0,0,0,0,0,-1,853,1674,-1.80094,-3.78625
-364,-650,-2.95679,2.57507,0,0,0,0,0,0,0,-1,860,1674,-2.95681,-2.57506
-357,-650,1.97833,10.8362,0,0,0,0,0,0,0,-1,867,1674,1.97835,-10.8362
-350,-650,-5.30243,0.159912,0,0,0,0,0,0,0,-1,874,1674,-5.30244,-0.159866
-343,-650,-6.21338,-1.4425,0,0,0,0,0,0,0,-1,881,1674,-6.21341,1.44248
-336,-650,5.03357,23.2888,0,0,0,0,0,0,0,-1,888,1674,5.03359,-23.2888
-329,-650,5.02472,23.8784,-0.00425475,-0.00217391,0.00684776,0.00371202,-0.0101407,0.86079,0.00827996,0.0499346,895,1674,5.02471,-23.8784
-322,-650,5.13458,24.4817,-0.00313959,-0.00116607,0.00519812,0.00313812,-0.00744378,0.879197,0.00627578,0.0432387,902,1674,5.13456,-24.4817
-315,-650,4.97467,24.812,-0.00262452,-0.000780602,0.00385743,0.00226352,-0.00566864,0.902702,0.00471819,0.0398355,909,1674,4.97467,-24.812
-308,-650,5.06726,25.1149,-0.00222237,-0.000678243,0.00280553,0.00145952,-0.00436013,0.919671,0.00349632,0.0231858,916,1674,5.06725,-25.1148
-301,-650,5.08026,25.6462,-0.00197613,-0.000661099,0.00175249,0.000553163,-0.00319039,0.964867,0.00233328,0.0138445,923,1674,5.08024,-25.6462
-294,-650,5.02057,26.0364,-0.00178413,-0.000591529,0.000982373,-3.86426e-05,-0.00233702,1.05817,0.00154529,0.0115145,930,1674,5.02054,-26.0364
-287,-650,5.00256,26.4279,-0.00158431,-0.000612853,0.000466453,-0.000425149,-0.00177202,1.18822,0.00106821,0.0128015,937,1674,5.00256,-26.4279
-280,-650,4.98181,26.8075,-0.00122028,-0.000417338,2.41282e-05,-0.000416614,-0.001221,1.54078,0.000716698,0.0136833,944,1674,4.98178,-26.8075
-273,-650,4.97021,27.2039,-0.00114718,-0.000513695,-0.000265734,-0.000416989,-0.00124389,-1.22177,0.000731042,0.0131057,951,1674,4.97019,-27.2038
-266,-650,4.95319,27.5896,-0.000778553,-0.00029337,-0.000322829,-0.000132143,-0.00093978,-1.10761,0.000587447,0.0117596,958,1674,4.9532,-27.5896
-259,-650,4.94824,27.9576,-0.000338742,-7.48007e-06,-0.000261519,0.000136446,-0.000482668,-1.06769,0.000375615,0.014643,965,1674,4.94821,-27.9576
-252,-650,4.95264,28.309,5.35558e-05,0.000287698,-0.000135822,0.00034994,-8.68624e-06,-1.14109,0.000236242,0.0130041,972,1674,4.95264,-28.309
-245,-650,4.95209,28.6556,0.000563119,0.000691696,5.33406e-05,0.000710944,0.000543872,1.2245,0.00042925,0.0115841,979,1674,4.95207,-28.6557
-238,-650,4.95068,29.0153,0.00114157,0.00108974,0.000262894,0.00137983,0.00085149,0.736267,0.000803893,0.0129579,986,1674,4.9507,-29.0153
-231,-650,4.90387,29.3862,0.00178852,0.00150795,0.000564496,0.0022299,0.00106657,0.663606,0.00128784,0.0177733,993,1674,4.90385,-29.3862
-224,-650,4.92224,29.7183,0.00238047,0.00195818,0.000908608,0.00310214,0.00123651,0.671234,0.00180326,0.014849,1000,1674,4.92222,-29.7182
-217,-650,4.94476,30.0112,0.00290755,0.00252205,0.00137508,0.00410333,0.00132627,0.715764,0.00241791,0.0104606,1007,1674,4.94474,-30.0112
-210,-650,4.93939,30.337,0.00340102,0.00339347,0.00187691,0.00527416,0.00152033,0.784392,0.00313473,0.00930311,1014,1674,4.93937,-30.337
-203,-650,4.95447,30.6777,0.00393715,0.00423362,0.00232439,0.0064145,0.00175627,0.817241,0.00382766,0.0138016,1021,1674,4.95441,-30.6777
-196,-650,4.96582,30.9857,0.00437187,0.00525943,0.00284041,0.00769052,0.00194078,0.862891,0.00461808,0.0132427,1028,1674,4.96585,-30.9857
-189,-650,4.96375,31.2834,0.00469147,0.00664219,0.00335931,0.00916487,0.00216879,0.926686,0.00553059,0.010663,1035,1674,4.96374,-31.2835
-182,-650,5.026,31.6227,0.00510444,0.00813024,0.00399229,0.0108867,0.00234801,0.966515,0.0066155,0.0102537,1042,1674,5.02599,-31.6227
-175,-650,5.04858,31.8938,0.00534252,0.0101646,0.00475766,0.0130873,0.00241986,1.01992,0.00804055,0.0158049,1049,1674,5.04855,-31.8938
-168,-650,5.01624,32.1943,0.00536606,0.012709,0.00553173,0.0156768,0.00239827,1.07837,0.00975056,0.0196076,1056,1674,5.01624,-32.1944
-161,-650,5.01123,32.5662,0.00547279,0.0155494,0.00635312,0.0186195,0.00240266,1.12064,0.0116947,0.0272219,1063,1674,5.01118,-32.5662
-154,-650,5.08569,32.8341,0.00536446,0.01877,0.00700378,0.0217615,0.0023729,1.16712,0.013785,0.0325406,1070,1674,5.08572,-32.8341
-147,-650,5.16235,33.1295,0,0,0,0,0,0,0,-1,1077,1674,5.16241,-33.1295
-140,-650,4.91455,33.7633,0,0,0,0,0,0,0,-1,1084,1674,4.91458,-33.7633
-133,-650,4.58545,33.1974,0,0,0,0,0,0,0,-1,1091,1674,4.58549,-33.1974
-126,-650,5.66772,34.7155,0,0,0,0,0,0,0,-1,1098,1674,5.66768,-34.7155
-119,-650,5.16663,20.6232,0,0,0,0,0,0,0,-1,1105,1674,5.16665,-20.6232
-112,-650,3.86292,14.4513,0,0,0,0,0,0,0,-1,1112,1674,3.8629,-14.4513
-105,-650,4.9259,12.0626,0,0,0,0,0,0,0,-1,1119,1674,4.92591,-12.0626
-98,-650,3.3761,6.78003,0,0,0,0,0,0,0,-1,1126,1674,3.37611,-6.78009
-91,-650,3.66809,7.04443,0,0,0,0,0,0,0,-1,1133,1674,3.66806,-7.04439
-84,-650,-3.82666,-1.59521,0,0,0,0,0,0,0,-1,1140,1674,-3.82661,1.59517
-77,-650,-4.70557,1.90198,0,0,0,0,0,0,0,-1,1147,1674,-4.7056,-1.90194
-70,-650,-4.88171,3.81653,0,0,0,0,0,0,0,-1,1154,1674,-4.88176,-3.81651
-63,-650,-5.14612,5.56543,0,0,0,0,0,0,0,-1,1161,1674,-5.14612,-5.56547
-56,-650,-5.38367,7.41101,0,0,0,0,0,0,0,-1,1168,1674,-5.38361,-7.41102
-49,-650,-5.11316,8.23706,0,0,0,0,0,0,0,-1,1175,1674,-5.11317,-8.23708
-42,-650,-4.99487,9.6792,0,0,0,0,0,0,0,-1,1182,1674,-4.99484,-9.67921
-35,-650,-4.77771,11.3369,0,0,0,0,0,0,0,-1,1189,1674,-4.77769,-11.3369
-28,-650,-4.1936,13.1501,0,0,0,0,0,0,0,-1,1196,1674,-4.19358,-13.1501
-21,-650,14.001,37.6479,0,0,0,0,0,0,0,-1,1203,1674,14.0009,-37.6479
-14,-650,3.9552,38.4639,0,0,0,0,0,0,0,-1,1210,1674,3.95519,-38.4638
-7,-650,5.20422,38.5713,0.146614,0.0769212,0.0269914,0.155845,0.0676903,0.329525,0.0902352,0.0480133,1217,1674,5.20426,-38.5712
0,-650,6.4126,38.97,0.140785,0.0860658,0.0327573,0.156106,0.0707453,0.437472,0.0902591,0.0424119,1224,1674,6.41255,-38.97
7,-650,7.60278,39.5116,0.13362,0.0938455,0.0393747,0.157844,0.0696206,0.55155,0.0913423,0.042101,1231,1674,7.6028,-39.5116
14,-650,8.82007,40.0571,0,0,0,0,0,0,0,-1,1238,1674,8.8201,-40.0571
21,-650,9.97729,40.4109,0,0,0,0,0,0,0,-1,1245,1674,9.97729,-40.4109
28,-650,11.0854,40.7854,0,0,0,0,0,0,0,-1,1252,1674,11.0854,-40.7854
35,-650,12.4307,40.7888,0.0879716,0.0520983,0.0551643,0.128042,0.0120278,0.628215,0.0816479,0.0470262,1259,1674,12.4307,-40.7888
42,-650,13.3767,41.1833,0.077029,0.0290066,0.0565982,0.114499,-0.00846309,0.584785,0.0793041,0.0466981,1266,1674,13.3767,-41.1833
49,-650,14.3624,41.6085,0,0,0,0,0,0,0,-1,1273,1674,14.3624,-41.6085
56,-650,8.10522,37.7598,0,0,0,0,0,0,0,-1,1280,1674,8.10528,-37.7597
63,-650,8.71326,38.2012,0,0,0,0,0,0,0,-1,1287,1674,8.71328,-38.2012
70,-650,9.30542,38.6827,0.0422012,-0.058369,0.0523602,0.0645122,-0.08068,0.402806,0.0839998,0.0457486,1294,1674,9.3054,-38.6828
77,-650,9.63928,39.1122,0.0393414,-0.0741449,0.0488648,0.0574818,-0.0922854,0.355468,0.0872429,0.043498,1301,1674,9.63928,-39.1122
84,-650,9.99622,39.3868,0.0364059,-0.0871523,0.0447541,0.050913,-0.101659,0.313464,0.0896971,0.044879,1308,1674,9.9962,-39.3869
91,-650,9.96545,39.3269,0.0332311,-0.100141,0.0388891,0.0437421,-0.110652,0.263975,0.0918874,0.0484706,1315,1674,9.9655,-39.3269
98,-650,10.316,40.4069,0,0,0,0,0,0,0,-1,1322,1674,10.3161,-40.4069
105,-650,10.8064,41.134,0,0,0,0,0,0,0,-1,1329,1674,10.8064,-41.134
112,-650,11.1344,41.8123,0.0318082,-0.113217,0.0230549,0.035385,-0.116794,0.153918,0.0919558,0.0444698,1336,1674,11.1344,-41.8123
119,-650,11.4093,42.3384,0.0310075,-0.114634,0.0171942,0.0330099,-0.116637,0.115935,0.090784,0.0426763,1343,1674,11.4092,-42.3384
126,-650,12.0642,42.9563,0.0300041,-0.116926,0.011029,0.0308274,-0.117749,0.074507,0.0905417,0.0471625,1350,1674,12.0642,-42.9563
133,-650,12.6841,43.5847,0.0285309,-0.119041,0.00451825,0.0286691,-0.119179,0.0305791,0.090535,0.0499511,1357,1674,12.6841,-43.5847
140,-650,13.2456,44.2374,0,0,0,0,0,0,0,-1,1364,1674,13.2455,-44.2375
147,-650,13.3016,44.439,0,0,0,0,0,0,0,-1,1371,1674,13.3016,-44.439
154,-650,13.7238,45.2637,0,0,0,0,0,0,0,-1,1378,1674,13.7237,-45.2637
161,-650,4.09106,30.3021,0,0,0,0,0,0,0,-1,1385,1674,4.09104,-30.3021
168,-650,11.2113,7.87231,0,0,0,0,0,0,0,-1,1392,1674,11.2113,-7.87236
175,-650,5.62537,-0.230713,0,0,0,0,0,0,0,-1,1399,1674,5.62538,0.230745
182,-650,5.56006,0.421631,0,0,0,0,0,0,0,-1,1406,1674,5.56,-0.421652
189,-650,4.81543,11.0654,0,0,0,0,0,0,0,-1,1413,1674,4.81542,-11.0654
196,-650,5.39575,11.9077,0,0,0,0,0,0,0,-1,1420,1674,5.39575,-11.9078
203,-650,3.93628,11.8215,0,0,0,0,0,0,0,-1,1427,1674,3.93624,-11.8216
210,-650,5.40955,8.08594,0,0,0,0,0,0,0,-1,1434,1674,5.40958,-8.086
217,-650,5.12451,4.69739,0,0,0,0,0,0,0,-1,1441,1674,5.12451,-4.69738
224,-650,4.79041,1.45813,0,0,0,0,0,0,0,-1,1448,1674,4.79046,-1.45816
231,-650,4.04102,-0.642212,0,0,0,0,0,0,0,-1,1455,1674,4.04101,0.642209
238,-650,3.23022,-1.43396,0,0,0,0,0,0,0,-1,1462,1674,3.23023,1.43394
245,-650,1.65894,-2.55042,0,0,0,0,0,0,0,-1,1469,1674,1.65889,2.55036
252,-650,8.75342,0.355103,0,0,0,0,0,0,0,-1,1476,1674,8.75337,-0.355147
259,-650,5.61255,3.17566,0,0,0,0,0,0,0,-1,1483,1674,5.61257,-3.17572
266,-650,4.00403,6.10229,0,0,0,0,0,0,0,-1,1490,1674,4.00401,-6.10225
273,-650,9.68835,32.4965,0,0,0,0,0,0,0,-1,1497,1674,9.6883,-32.4965
280,-650,9.74268,33.0718,0,0,0,0,0,0,0,-1,1504,1674,9.74266,-33.0718
287,-650,10.0306,33.0872,0.011684,0.00550663,-0.00255554,0.0126041,0.00458648,-0.345609,0.00736634,0.0434864,1511,1674,10.0306,-33.0872
294,-650,10.1351,32.8324,0.0101631,0.00486411,-0.00192315,0.0107875,0.00423972,-0.313935,0.00627549,0.0418345,1518,1674,10.1351,-32.8324
301,-650,10.208,32.5131,0.00883359,0.00427299,-0.0014163,0.00923763,0.00386895,-0.277895,0.00535672,0.0348314,1525,1674,10.208,-32.5131
308,-650,10.2853,32.1786,0.00753654,0.00356549,-0.000952305,0.0077531,0.00334893,-0.223607,0.00449005,0.0214956,1532,1674,10.2853,-32.1786
315,-650,10.3051,31.916,0.00639501,0.00341425,-0.000730724,0.0065645,0.00324475,-0.227926,0.0037901,0.0173881,1539,1674,10.3051,-31.9161
322,-650,10.3094,31.6311,0.00562531,0.00365894,-0.000947415,0.0060075,0.00327675,-0.383436,0.0034732,0.0142271,1546,1674,10.3094,-31.6311
329,-650,10.3409,31.2911,0.00497258,0.00393663,-0.00121268,0.00577328,0.00313593,-0.583562,0.00333734,0.0162243,1553,1674,10.341,-31.2911
336,-650,10.3335,31.0303,0.00434562,0.0040373,-0.00128107,0.00548177,0.00290115,-0.725517,0.0031667,0.0134399,1560,1674,10.3334,-31.0302
343,-650,10.3422,30.7615,0.00379304,0.00394768,-0.00159062,0.00546286,0.00227786,-0.809684,0.00316845,0.0129501,1567,1674,10.3422,-30.7615
350,-650,10.3691,30.4508,0.00334495,0.00385284,-0.00176567,0.00538273,0.00181506,-0.856821,0.00316215,0.0154532,1574,1674,10.3692,-30.4508
357,-650,10.3521,30.1263,0.00300261,0.00368245,-0.00183837,0.00521206,0.001473,-0.876816,0.00310254,0.0133448,1581,1674,10.352,-30.1264
364,-650,10.3523,29.8157,0.00271185,0.00326636,-0.00182248,0.00483255,0.00114566,-0.860885,0.00291583,0.00946144,1588,1674,10.3522,-29.8156
371,-650,10.3542,29.4919,0.00240264,0.00260026,-0.0016105,0.00411498,0.000887925,-0.816037,0.00250046,0.0109889,1595,1674,10.3543,-29.4919
378,-650,10.3444,29.1628,0.00216157,0.00182637,-0.00135055,0.00335488,0.000633057,-0.723666,0.00205828,0.0127584,1602,1674,10.3443,-29.1629
385,-650,10.3451,28.8336,0.00202205,0.000825164,-0.00103997,0.00262348,0.000223741,-0.524315,0.00167938,0.0145709,1609,1674,10.3451,-28.8336
392,-650,10.34,28.5094,0.00195106,-0.000505652,-0.000740733,0.00215712,-0.00071171,-0.271322,0.00172497,0.0170442,1616,1674,10.34,-28.5094
399,-650,10.328,28.1791,0.00174142,-0.00190316,-0.000434982,0.00179261,-0.00195435,-0.117158,0.00216398,0.0147382,1623,1674,10.328,-28.1791
406,-650,10.3131,27.8265,0.00160717,-0.00302183,-9.77805e-05,0.00160924,-0.0030239,-0.0211109,0.00271619,0.0140266,1630,1674,10.3131,-27.8266
413,-650,10.3367,27.4623,0.0016038,-0.00395735,0.000220481,0.00161253,-0.00396608,0.0395638,0.00331498,0.0147668,1637,1674,10.3367,-27.4623
420,-650,10.3276,27.1407,0.00155816,-0.00473095,0.000395851,0.00158298,-0.00475576,0.062613,0.00380943,0.0156088,1644,1674,10.3276,-27.1407
427,-650,10.3228,26.7915,0.00165695,-0.00535737,0.000382536,0.00167775,-0.00537817,0.0543217,0.00425638,0.0150475,1651,1674,10.3227,-26.7915
434,-650,10.3032,26.4327,0.00172083,-0.00556527,0.000174323,0.001725,-0.00556944,0.0239072,0.0044021,0.0173579,1658,1674,10.3032,-26.4328
441,-650,10.2379,26.1145,0.00172062,-0.00560573,0.000121639,0.00172264,-0.00560775,0.0165969,0.00442591,0.028286,1665,1674,10.2379,-26.1145
448,-650,10.1823,25.8107,0.0017607,-0.00575424,-5.71926e-05,0.00176114,-0.00575467,-0.00760993,0.00453885,0.0464529,1672,1674,10.1823,-25.8106
455,-650,9.92346,25.1947,0.00163908,-0.00570066,-0.000137605,0.00164166,-0.00570323,-0.0187391,0.00445145,0.0470071,1679,1674,9.92345,-25.1948
462,-650,9.98315,24.8676,0.00110882,-0.00462347,7.89937e-05,0.00110991,-0.00462456,0.013777,0.00351196,0.0495091,1686,1674,9.98318,-24.8675
469,-650,9.99756,24.6504,0,0,0,0,0,0,0,-1,1693,1674,9.99752,-24.6503
476,-650,9.81689,23.1567,0,0,0,0,0,0,0,-1,1700,1674,9.81686,-23.1567
483,-650,9.58289,22.5995,0,0,0,0,0,0,0,-1,1707,1674,9.58287,-22.5995
490,-650,10.2742,22.3826,0,0,0,0,0,0,0,-1,1714,1674,10.2742,-22.3826
497,-650,10.4985,20.1362,0,0,0,0,0,0,0,-1,1721,1674,10.4986,-20.1362
504,-650,9.69458,18.7721,0,0,0,0,0,0,0,-1,1728,1674,9.6946,-18.772
511,-650,9.37158,17.7506,0,0,0,0,0,0,0,-1,1735,1674,9.37159,-17.7506
518,-650,0,0,0,0,0,0,0,0,0,-1,1742,1674,0,0
525,-650,0,0,0,0,0,0,0,0,0,-1,1749,1674,0,0
532,-650,0,0,0,0,0,0,0,0,0,-1,1756,1674,0,0
539,-650,0,0,0,0,0,0,0,0,0,-1,1763,1674,0,0
546,-650,0,0,0,0,0,0,0,0,0,-1,1770,1674,0,0
553,-650,0,0,0,0,0,0,0,0,0,-1,1777,1674,0,0
560,-650,0,0,0,0,0,0,0,0,0,-1,1784,1674,0,0
567,-650,0,0,0,0,0,0,0,0,0,-1,1791,1674,0,0
574,-650,0,0,0,0,0,0,0,0,0,-1,1798,1674,0,0
581,-650,0,0,0,0,0,0,0,0,0,-1,1805,1674,0,0
588,-650,0,0,0,0,0,0,0,0,0,-1,1812,1674,0,0
595,-650,0,0,0,0,0,0,0,0,0,-1,1819,1674,0,0
602,-650,0,0,0,0,0,0,0,0,0,-1,1826,1674,0,0
609,-650,0,0,0,0,0,0,0,0,0,-1,1833,1674,0,0
616,-650,0,0,0,0,0,0,0,0,0,-1,1840,1674,0,0
623,-650,0,0,0,0,0,0,0,0,0,-1,1847,1674,0,0
630,-650,0,0,0,0,0,0,0,0,0,-1,1854,1674,0,0
637,-650,0,0,0,0,0,0,0,0,0,-1,1861,1674,0,0
644,-650,0,0,0,0,0,0,0,0,0,-1,1868,1674,0,0
651,-650,0,0,0,0,0,0,0,0,0,-1,1875,1674,0,0
658,-650,0,0,0,0,0,0,0,0,0,-1,1882,1674,0,0
665,-650,0,0,0,0,0,0,0,0,0,-1,1889,1674,0,0
672,-650,0,0,0,0,0,0,0,0,0,-1,1896,1674,0,0
679,-650,0,0,0,0,0,0,0,0,0,-1,1903,1674,0,0
686,-650,0,0,0,0,0,0,0,0,0,-1,1910,1674,0,0
693,-650,0,0,0,0,0,0,0,0,0,-1,1917,1674,0,0
700,-650,0,0,0,0,0,0,0,0,0,-1,1924,1674,0,0
707,-650,0,0,0,0,0,0,0,0,0,-1,1931,1674,0,0
714,-650,0,0,0,0,0,0,0,0,0,-1,1938,1674,0,0
721,-650,0,0,0,0,0,0,0,0,0,-1,1945,1674,0,0
728,-650,0,0,0,0,0,0,0,0,0,-1,1952,1674,0,0
735,-650,0,0,0,0,0,0,0,0,0,-1,1959,1674,0,0
742,-650,0,0,0,0,0,0,0,0,0,-1,1966,1674,0,0
749,-650,0,0,0,0,0,0,0,0,0,-1,1973,1674,0,0
756,-650,0,0,0,0,0,0,0,0,0,-1,1980,1674,0,0
763,-650,0,0,0,0,0,0,0,0,0,-1,1987,1674,0,0
770,-650,0,0,0,0,0,0,0,0,0,-1,1994,1674,0,0
777,-650,0,0,0,0,0,0,0,0,0,-1,2001,1674,0,0
784,-650,0,0,0,0,0,0,0,0,0,-1,2008,1674,0,0
791,-650,0,0,0,0,0,0,0,0,0,-1,2015,1674,0,0
798,-650,0,0,0,0,0,0,0,0,0,-1,2022,1674,0,0
805,-650,0,0,0,0,0,0,0,0,0,-1,2029,1674,0,0
812,-650,0,0,0,0,0,0,0,0,0,-1,2036,1674,0,0
-700,-657,0,0,0,0,0,0,0,0,0,-1,524,1681,0,0
-693,-657,0,0,0,0,0,0,0,0,0,-1,531,1681,0,0
-686,-657,0,0,0,0,0,0,0,0,0,-1,538,1681,0,0
-679,-657,0,0,0,0,0,0,0,0,0,-1,545,1681,0,0
-672,-657,0,0,0,0,0,0,0,0,0,-1,552,1681,0,0
-665,-657,0,0,0,0,0,0,0,0,0,-1,559,1681,0,0
-658,-657,0,0,0,0,0,0,0,0,0,-1,566,1681,0,0
-651,-657,0,0,0,0,0,0,0,0,0,-1,573,1681,0,0
-644,-657,0,0,0,0,0,0,0,0,0,-1,580,1681,0,0
-637,-657,0,0,0,0,0,0,0,0,0,-1,587,1681,0,0
-630,-657,0,0,0,0,0,0,0,0,0,-1,594,1681,0,0
-623,-657,0,0,0,0,0,0,0,0,0,-1,601,1681,0,0
-616,-657,0,0,0,0,0,0,0,0,0,-1,608,1681,0,0
-609,-657,0,0,0,0,0,0,0,0,0,-1,615,1681,0,0
-602,-657,0,0,0,0,0,0,0,0,0,-1,622,1681,0,0
-595,-657,0,0,0,0,0,0,0,0,0,-1,629,1681,0,0
-588,-657,0,0,0,0,0,0,0,0,0,-1,636,1681,0,0
-581,-657,0,0,0,0,0,0,0,0,0,-1,643,1681,0,0
-574,-657,0,0,0,0,0,0,0,0,0,-1,650,1681,0,0
-567,-657,0,0,0,0,0,0,0,0,0,-1,657,1681,0,0
-560,-657,0,0,0,0,0,0,0,0,0,-1,664,1681,0,0
-553,-657,0,0,0,0,0,0,0,0,0,-1,671,1681,0,0
-546,-657,0,0,0,0,0,0,0,0,0,-1,678,1681,0,0
-539,-657,0,0,0,0,0,0,0,0,0,-1,685,1681,0,0
-532,-657,0,0,0,0,0,0,0,0,0,-1,692,1681,0,0
-525,-657,0,0,0,0,0,0,0,0,0,-1,699,1681,0,0
-518,-657,0,0,0,0,0,0,0,0,0,-1,706,1681,0,0
-511,-657,0,0,0,0,0,0,0,0,0,-1,713,1681,0,0
-504,-657,0,0,0,0,0,0,0,0,0,-1,720,1681,0,0
-497,-657,0,0,0,0,0,0,0,0,0,-1,727,1681,0,0
-490,-657,0,0,0,0,0,0,0,0,0,-1,734,1681,0,0
-483,-657,0,0,0,0,0,0,0,0,0,-1,741,1681,0,0
-476,-657,0,0,0,0,0,0,0,0,0,-1,748,1681,0,0
-469,-657,0,0,0,0,0,0,0,0,0,-1,755,1681,0,0
-462,-657,0,0,0,0,0,0,0,0,0,-1,762,1681,0,0
-455,-657,0,0,0,0,0,0,0,0,0,-1,769,1681,0,0
-448,-657,0,0,0,0,0,0,0,0,0,-1,776,1681,0,0
-441,-657,0,0,0,0,0,0,0,0,0,-1,783,1681,0,0
-434,-657,0,0,0,0,0,0,0,0,0,-1,790,1681,0,0
-427,-657,0,0,0,0,0,0,0,0,0,-1,797,1681,0,0
-420,-657,0,0,0,0,0,0,0,0,0,-1,804,1681,0,0
-413,-657,0,0,0,0,0,0,0,0,0,-1,811,1681,0,0
-406,-657,0,0,0,0,0,0,0,0,0,-1,818,1681,0,0
-399,-657,0,0,0,0,0,0,0,0,0,-1,825,1681,0,0
-392,-657,0,0,0,0,0,0,0,0,0,-1,832,1681,0,0
-385,-657,1.09814,6.18896,0,0,0,0,0,0,0,-1,839,1681,1.09814,-6.18894
-378,-657,0.31488,4.46753,0,0,0,0,0,0,0,-1,846,1681,0.31487,-4.46755
-371,-657,-0.519043,2.69421,0,0,0,0,0,0,0,-1,853,1681,-0.519064,-2.69422
-364,-657,-3.42017,4.18323,0,0,0,0,0,0,0,-1,860,1681,-3.42019,-4.18319
-357,-657,-4.41913,2.97168,0,0,0,0,0,0,0,-1,867,1681,-4.41913,-2.97165
-350,-657,-5.42291,1.70276,0,0,0,0,0,0,0,-1,874,1681,-5.42291,-1.70277
-343,-657,-6.51294,0.397339,0,0,0,0,0,0,0,-1,881,1681,-6.51295,-0.397335
-336,-657,7.12177,22.8324,0,0,0,0,0,0,0,-1,888,1681,7.12179,-22.8324
-329,-657,5.40112,23.7924,0,0,0,0,0,0,0,-1,895,1681,5.40112,-23.7924
-322,-657,5.57281,24.4803,0,0,0,0,0,0,0,-1,902,1681,5.57284,-24.4804
-315,-657,5.3349,24.6876,0,0,0,0,0,0,0,-1,909,1681,5.33491,-24.6876
-308,-657,5.52368,24.9686,-0.00340809,-0.00196012,0.00350698,0.000896828,-0.00626504,0.887189,0.00450549,0.0414681,916,1681,5.52367,-24.9687
-301,-657,5.5777,25.547,-0.00300136,-0.00176867,0.00205012,-0.000244252,-0.00452578,0.93142,0.00293915,0.0339156,923,1681,5.5777,-25.547
-294,-657,5.40265,26.1108,-0.00276903,-0.00154002,0.000976162,-0.00100105,-0.003308,1.06632,0.00195885,0.0206306,930,1681,5.40263,-26.1108
-287,-657,5.34625,26.4769,-0.00257317,-0.00151305,0.000246201,-0.00145866,-0.00262756,1.35338,0.00152009,0.013092,937,1681,5.34624,-26.4769
-280,-657,5.31122,26.8333,-0.00217651,-0.0012079,-0.000402938,-0.0010622,-0.00232222,-1.22382,0.00134235,0.0134599,944,1681,5.31119,-26.8333
-273,-657,5.31024,27.2284,-0.00221933,-0.00128157,-0.000818693,-0.000806998,-0.00269391,-1.04546,0.00159644,0.0102414,951,1681,5.31024,-27.2284
-266,-657,5.28363,27.6085,-0.0019109,-0.000947547,-0.000901832,-0.000406818,-0.00245163,-1.03068,0.00151711,0.0157047,958,1681,5.28362,-27.6086
-259,-657,5.27161,27.9824,-0.00151454,-0.000570872,-0.000836092,-8.26655e-05,-0.00200275,-1.04229,0.00130848,0.0195666,965,1681,5.27158,-27.9825
-252,-657,5.27887,28.2968,-0.00116026,-0.000213677,-0.000702594,0.00016017,-0.00153411,-1.0818,0.00108009,0.0129955,972,1681,5.27888,-28.2967
-245,-657,5.31006,28.6465,-0.000662782,0.000249317,-0.000487833,0.000461072,-0.000874537,-1.16127,0.000783334,0.0150688,979,1681,5.31003,-28.6464
-238,-657,5.30804,29.0349,-0.000106573,0.000709498,-0.000240485,0.000775093,-0.000172168,-1.30451,0.000582659,0.0201793,986,1681,5.30803,-29.0349
-231,-657,5.29358,29.3933,0.000495942,0.0011511,5.33502e-05,0.00115542,0.000491626,1.49007,0.000669544,0.0212719,993,1681,5.29359,-29.3933
-224,-657,5.27069,29.7228,0.00107201,0.00159697,0.00041027,0.00182154,0.000847442,1.06998,0.00105251,0.0160458,1000,1681,5.2707,-29.7228
-217,-657,5.2746,30.0393,0.0016223,0.00207329,0.000859223,0.00273611,0.000959474,0.913727,0.00160301,0.0101294,1007,1681,5.27459,-30.0394
-210,-657,5.28534,30.361,0.00215163,0.00275838,0.00127734,0.00376788,0.00114213,0.901991,0.00223089,0.0107433,1014,1681,5.28532,-30.3609
-203,-657,5.29138,30.6748,0.00265726,0.00336649,0.00161216,0.00466258,0.00136118,0.893657,0.00276854,0.0132562,1021,1681,5.29134,-30.6748
-196,-657,5.29871,30.9779,0.00306318,0.00405907,0.00201592,0.00563763,0.00148462,0.906478,0.00337423,0.0141387,1028,1681,5.2987,-30.9779
-189,-657,5.29211,31.2898,0.00338125,0.00500577,0.00237479,0.00670337,0.00168365,0.950179,0.00402678,0.01002,1035,1681,5.29211,-31.2898
-182,-657,5.31067,31.5959,0.00377864,0.00613525,0.00277876,0.00797521,0.00193868,0.985926,0.00480283,0.00787651,1042,1681,5.31066,-31.5959
-175,-657,5.33325,31.8904,0.00407566,0.00770542,0.00331163,0.00966688,0.0021142,1.03606,0.0058682,0.0105612,1049,1681,5.33321,-31.8904
-168,-657,5.30969,32.1958,0.00417463,0.00961801,0.0038414,0.0116042,0.00218846,1.09361,0.00711964,0.0126661,1056,1681,5.30965,-32.1958
-161,-657,5.32043,32.4933,0.00430241,0.0118397,0.00441406,0.0138751,0.00226705,1.13874,0.00859463,0.0120481,1063,1681,5.32045,-32.4933
-154,-657,5.39868,32.7594,0.00433266,0.014383,0.00488723,0.0163677,0.00234803,1.18506,0.0102194,0.0123723,1070,1681,5.39871,-32.7594
-147,-657,5.3916,33.0255,0.00424479,0.0171351,0.00511125,0.0189158,0.00246408,1.23556,0.0118747,0.0227471,1077,1681,5.39158,-33.0255
-140,-657,5.32397,33.4595,0.00405153,0.0201012,0.00535251,0.0217225,0.00243026,1.27668,0.0137434,0.0445145,1084,1681,5.32397,-33.4595
-133,-657,5.30688,34.2528,0,0,0,0,0,0,0,-1,1091,1681,5.30687,-34.2528
-126,-657,5.42749,34.8584,0,0,0,0,0,0,0,-1,1098,1681,5.42755,-34.8584
-119,-657,5.43188,35.0477,0,0,0,0,0,0,0,-1,1105,1681,5.43191,-35.0477
-112,-657,4.6051,21.3439,0,0,0,0,0,0,0,-1,1112,1681,4.60512,-21.3438
-105,-657,3.82434,14.4906,0,0,0,0,0,0,0,-1,1119,1681,3.8244,-14.4906
-98,-657,3.78662,8.16785,0,0,0,0,0,0,0,-1,1126,1681,3.78663,-8.16786
-91,-657,3.6521,16.6017,0,0,0,0,0,0,0,-1,1133,1681,3.65215,-16.6017
-84,-657,4.08008,10.4579,0,0,0,0,0,0,0,-1,1140,1681,4.08006,-10.4579
-77,-657,-5.29846,0.396606,0,0,0,0,0,0,0,-1,1147,1681,-5.29842,-0.396573
-70,-657,-4.14893,2.14575,0,0,0,0,0,0,0,-1,1154,1681,-4.14893,-2.1458
-63,-657,-4.1239,3.177,0,0,0,0,0,0,0,-1,1161,1681,-4.12391,-3.17698
-56,-657,-6.40576,5.73987,0,0,0,0,0,0,0,-1,1168,1681,-6.40577,-5.7399
-49,-657,-5.98462,7.54053,0,0,0,0,0,0,0,-1,1175,1681,-5.98466,-7.5405
-42,-657,-5.71948,9.28955,0,0,0,0,0,0,0,-1,1182,1681,-5.71951,-9.2895
-35,-657,-5.44556,11.015,0,0,0,0,0,0,0,-1,1189,1681,-5.44555,-11.015
-28,-657,-1.3446,8.92847,0,0,0,0,0,0,0,-1,1196,1681,-1.34459,-8.92848
-21,-657,10.5603,42.5958,0,0,0,0,0,0,0,-1,1203,1681,10.5603,-42.5958
-14,-657,3.36536,38.1627,0,0,0,0,0,0,0,-1,1210,1681,3.3654,-38.1627
-7,-657,4.40161,37.9716,0,0,0,0,0,0,0,-1,1217,1681,4.40161,-37.9716
0,-657,7.04333,38.2617,0,0,0,0,0,0,0,-1,1224,1681,7.04333,-38.2618
7,-657,7.49084,38.6748,0,0,0,0,0,0,0,-1,1231,1681,7.49089,-38.6748
14,-657,7.93848,39.0878,0,0,0,0,0,0,0,-1,1238,1681,7.93845,-39.0878
21,-657,8.58374,39.5265,0.0912885,0.085215,0.0458629,0.134215,0.0422885,0.75234,0.0792359,0.0451428,1245,1681,8.5837,-39.5264
28,-657,8.40784,39.748,0.0809292,0.0732127,0.0480508,0.125276,0.0288655,0.745337,0.0757517,0.0440928,1252,1681,8.40779,-39.748
35,-657,12.2744,40.1121,0.0710641,0.0567903,0.0495992,0.114037,0.0138172,0.713943,0.0718633,0.0452536,1259,1681,12.2744,-40.112
42,-657,9.07422,40.1526,0.0623768,0.0365651,0.0507902,0.101875,-0.00293332,0.660981,0.0689154,0.0444939,1266,1681,9.07427,-40.1525
49,-657,9.09595,40.5914,0,0,0,0,0,0,0,-1,1273,1681,9.09595,-40.5914
56,-657,9.43225,40.6582,0,0,0,0,0,0,0,-1,1280,1681,9.4322,-40.6583
63,-657,8.65808,38.2916,0,0,0,0,0,0,0,-1,1287,1681,8.65811,-38.2916
70,-657,8.94775,38.7166,0.0357088,-0.0407952,0.0460928,0.0573548,-0.0624411,0.439047,0.069185,0.0497599,1294,1681,8.94779,-38.7165
77,-657,9.21814,39.1492,0.0336271,-0.0559549,0.0430698,0.050975,-0.0733028,0.382905,0.0721368,0.0449344,1301,1681,9.21808,-39.1491
84,-657,9.30127,39.6942,0.0314127,-0.0689745,0.039617,0.0451636,-0.0827255,0.334086,0.0748908,0.0450942,1308,1681,9.30124,-39.6942
91,-657,9.48083,40.4398,0.0290043,-0.0818281,0.0345056,0.038869,-0.0916927,0.278458,0.077409,0.0468369,1315,1681,9.48078,-40.4398
98,-657,9.96631,41.2343,0,0,0,0,0,0,0,-1,1322,1681,9.96634,-41.2342
105,-657,10.4714,41.9435,0,0,0,0,0,0,0,-1,1329,1681,10.4715,-41.9435
112,-657,10.9636,42.7261,0.028519,-0.0959426,0.0216687,0.0321836,-0.0996072,0.167535,0.0793392,0.0483232,1336,1681,10.9637,-42.7261
119,-657,11.2449,43.3967,0.0281171,-0.097798,0.0170336,0.0303806,-0.100062,0.132115,0.0788113,0.0485957,1343,1681,11.2449,-43.3967
126,-657,11.6284,43.98,0,0,0,0,0,0,0,-1,1350,1681,11.6285,-43.9799
133,-657,12.0422,44.2999,0,0,0,0,0,0,0,-1,1357,1681,12.0423,-44.2999
140,-657,10.0303,33.9275,0,0,0,0,0,0,0,-1,1364,1681,10.0303,-33.9275
147,-657,13.1366,45.6405,0,0,0,0,0,0,0,-1,1371,1681,13.1366,-45.6405
154,-657,8.67053,33.0646,0,0,0,0,0,0,0,-1,1378,1681,8.67055,-33.0646
161,-657,4.2926,24.9226,0,0,0,0,0,0,0,-1,1385,1681,4.29264,-24.9226
168,-657,5.21643,0.70105,0,0,0,0,0,0,0,-1,1392,1681,5.21648,-0.7011
175,-657,5.52771,0.649048,0,0,0,0,0,0,0,-1,1399,1681,5.52774,-0.649019
182,-657,5.73999,1.02612,0,0,0,0,0,0,0,-1,1406,1681,5.73995,-1.02611
189,-657,5.92126,1.44116,0,0,0,0,0,0,0,-1,1413,1681,5.92126,-1.44115
196,-657,4.92834,9.59021,0,0,0,0,0,0,0,-1,1420,1681,4.9284,-9.59018
203,-657,6.26343,5.16492,0,0,0,0,0,0,0,-1,1427,1681,6.26345,-5.16488
210,-657,3.9856,5.28088,0,0,0,0,0,0,0,-1,1434,1681,3.98555,-5.28084
217,-657,3.95178,5.2843,0,0,0,0,0,0,0,-1,1441,1681,3.95174,-5.28431
224,-657,6.66736,-0.250244,0,0,0,0,0,0,0,-1,1448,1681,6.66737,0.250229
231,-657,6.85498,-1.70752,0,0,0,0,0,0,0,-1,1455,1681,6.855,1.70758
238,-657,5.34143,-2.89819,0,0,0,0,0,0,0,-1,1462,1681,5.34143,2.89813
245,-657,8.66003,-0.102783,0,0,0,0,0,0,0,-1,1469,1681,8.66,0.102824
252,-657,4.78955,0.623779,0,0,0,0,0,0,0,-1,1476,1681,4.7895,-0.623826
259,-657,2.61523,4.31909,0,0,0,0,0,0,0,-1,1483,1681,2.61523,-4.31908
266,-657,5.35437,11.4742,0,0,0,0,0,0,0,-1,1490,1681,5.35441,-11.4742
273,-657,9.54004,33.33,0,0,0,0,0,0,0,-1,1497,1681,9.54001,-33.33
280,-657,9.56763,33.2229,0.0101908,0.0043031,-0.00214032,0.0108866,0.00360727,-0.314327,0.00640345,0.0461594,1504,1681,9.56757,-33.2229
287,-657,9.67969,32.9982,0.00902239,0.00351484,-0.00164499,0.00947631,0.00306093,-0.269238,0.00558424,0.0392207,1511,1681,9.67972,-32.9982
294,-657,9.91333,32.7216,0.00780412,0.00313099,-0.00126354,0.00812388,0.00281123,-0.247863,0.00476386,0.0311112,1518,1681,9.91337,-32.7216
301,-657,9.96191,32.4768,0.00670013,0.0028684,-0.000929725,0.0069138,0.00265473,-0.2259,0.00402735,0.0194636,1525,1681,9.96188,-32.4768
308,-657,9.97974,32.2089,0.00575496,0.00243603,-0.000676638,0.0058876,0.00230338,-0.193582,0.00342592,0.0137356,1532,1681,9.97969,-32.2089
315,-657,10.0079,31.9116,0.00492349,0.00230384,-0.00057026,0.00504225,0.00218508,-0.205311,0.00291975,0.0114392,1539,1681,10.008,-31.9116
322,-657,10.0465,31.6138,0.00431055,0.0023998,-0.000716107,0.00454914,0.00216121,-0.321608,0.00262753,0.0132337,1546,1681,10.0465,-31.6137
329,-657,10.0394,31.3384,0.00380767,0.00248697,-0.000915118,0.00427581,0.00201882,-0.472861,0.00246992,0.0187962,1553,1681,10.0394,-31.3383
336,-657,10.0317,31.041,0.00332691,0.00247689,-0.000972274,0.00396301,0.00184079,-0.579349,0.00228997,0.0168877,1560,1681,10.0317,-31.041
343,-657,10.0596,30.761,0.00282052,0.00235818,-0.00115058,0.00376293,0.00141578,-0.68626,0.0021946,0.0133871,1567,1681,10.0595,-30.761
350,-657,10.0686,30.4597,0.00242414,0.00222356,-0.00123702,0.00356493,0.00108277,-0.744951,0.00211041,0.0149498,1574,1681,10.0687,-30.4598
357,-657,10.0602,30.1246,0.00215609,0.00188396,-0.00124268,0.00327013,0.00076992,-0.730867,0.00197414,0.0148269,1581,1681,10.0602,-30.1246
364,-657,10.0612,29.8181,0.00196973,0.00128595,-0.00120367,0.00287912,0.000376553,-0.647023,0.00180702,0.0105217,1588,1681,10.0612,-29.8181
371,-657,10.0486,29.4934,0.00172921,0.000559041,-0.000972954,0.00227945,8.80077e-06,-0.514692,0.00151671,0.0138269,1595,1681,10.0486,-29.4935
378,-657,10.0187,29.1714,0.00156618,-0.000280582,-0.000686326,0.00179331,-0.000507713,-0.319592,0.0013959,0.0148423,1602,1681,10.0187,-29.1713
385,-657,10.011,28.8341,0.00153105,-0.00130733,-0.000347129,0.00157288,-0.00134916,-0.119944,0.00168869,0.0133809,1609,1681,10.011,-28.8341
392,-657,10.0016,28.5173,0.0016086,-0.00273764,-6.46576e-05,0.00160956,-0.00273861,-0.0148723,0.00253847,0.0125746,1616,1681,10.0016,-28.5173
399,-657,9.99927,28.174,0.00155931,-0.00418389,0.000183847,0.00156519,-0.00418977,0.0319676,0.00343587,0.0121716,1623,1681,9.99923,-28.174
406,-657,9.99365,27.828,0.00164077,-0.00530341,0.000482284,0.00167411,-0.00533675,0.0690099,0.00422783,0.0134734,1630,1681,9.99368,-27.8281
413,-657,9.98767,27.4725,0.00194222,-0.00631068,0.000756224,0.00201094,-0.0063794,0.0906258,0.00505829,0.0134632,1637,1681,9.98767,-27.4725
420,-657,9.99817,27.0933,0.00217865,-0.00710487,0.000867607,0.00225903,-0.00718526,0.0923906,0.00569456,0.0161744,1644,1681,9.99821,-27.0932
427,-657,9.99304,26.6976,0.00260171,-0.00772889,0.000741795,0.0026547,-0.00778189,0.071318,0.00626325,0.021648,1651,1681,9.99307,-26.6976
434,-657,10.0264,26.3623,0.00293463,-0.00792314,0.000480268,0.00295583,-0.00794434,0.0441178,0.0065092,0.0295508,1658,1681,10.0264,-26.3623
441,-657,10.2311,26.3484,0.00315302,-0.00797753,0.000463074,0.00317225,-0.00799677,0.0415082,0.00664594,0.0470563,1665,1681,10.231,-26.3484
448,-657,10.4749,26.304,0,0,0,0,0,0,0,-1,1672,1681,10.4749,-26.304
455,-657,9.33667,25.1335,0,0,0,0,0,0,0,-1,1679,1681,9.33666,-25.1335
462,-657,9.30444,24.7374,0,0,0,0,0,0,0,-1,1686,1681,9.30439,-24.7374
469,-657,9.70483,21.9269,0,0,0,0,0,0,0,-1,1693,1681,9.70488,-21.9269
476,-657,8.9519,20.5712,0,0,0,0,0,0,0,-1,1700,1681,8.95194,-20.5712
483,-657,10.0663,21.8628,0,0,0,0,0,0,0,-1,1707,1681,10.0663,-21.8628
490,-657,11.6039,21.2185,0,0,0,0,0,0,0,-1,1714,1681,11.6038,-21.2185
497,-657,9.20862,17.8127,0,0,0,0,0,0,0,-1,1721,1681,9.2086,-17.8127
504,-657,0,0,0,0,0,0,0,0,0,-1,1728,1681,0,0
511,-657,0,0,0,0,0,0,0,0,0,-1,1735,1681,0,0
518,-657,0,0,0,0,0,0,0,0,0,-1,1742,1681,0,0
525,-657,0,0,0,0,0,0,0,0,0,-1,1749,1681,0,0
532,-657,0,0,0,0,0,0,0,0,0,-1,1756,1681,0,0
539,-657,0,0,0,0,0,0,0,0,0,-1,1763,1681,0,0
546,-657,0,0,0,0,0,0,0,0,0,-1,1770,1681,0,0
553,-657,0,0,0,0,0,0,0,0,0,-1,1777,1681,0,0
560,-657,0,0,0,0,0,0,0,0,0,-1,1784,1681,0,0
567,-657,0,0,0,0,0,0,0,0,0,-1,1791,1681,0,0
574,-657,0,0,0,0,0,0,0,0,0,-1,1798,1681,0,0
581,-657,0,0,0,0,0,0,0,0,0,-1,1805,1681,0,0
588,-657,0,0,0,0,0,0,0,0,0,-1,1812,1681,0,0
595,-657,0,0,0,0,0,0,0,0,0,-1,1819,1681,0,0
602,-657,0,0,0,0,0,0,0,0,0,-1,1826,1681,0,0
609,-657,0,0,0,0,0,0,0,0,0,-1,1833,1681,0,0
616,-657,0,0,0,0,0,0,0,0,0,-1,1840,1681,0,0
623,-657,0,0,0,0,0,0,0,0,0,-1,1847,1681,0,0
630,-657,0,0,0,0,0,0,0,0,0,-1,1854,1681,0,0
637,-657,0,0,0,0,0,0,0,0,0,-1,1861,1681,0,0
644,-657,0,0,0,0,0,0,0,0,0,-1,1868,1681,0,0
651,-657,0,0,0,0,0,0,0,0,0,-1,1875,1681,0,0
658,-657,0,0,0,0,0,0,0,0,0,-1,1882,1681,0,0
665,-657,0,0,0,0,0,0,0,0,0,-1,1889,1681,0,0
672,-657,0,0,0,0,0,0,0,0,0,-1,1896,1681,0,0
679,-657,0,0,0,0,0,0,0,0,0,-1,1903,1681,0,0
686,-657,0,0,0,0,0,0,0,0,0,-1,1910,1681,0,0
693,-657,0,0,0,0,0,0,0,0,0,-1,1917,1681,0,0
700,-657,0,0,0,0,0,0,0,0,0,-1,1924,1681,0,0
707,-657,0,0,0,0,0,0,0,0,0,-1,1931,1681,0,0
714,-657,0,0,0,0,0,0,0,0,0,-1,1938,1681,0,0
721,-657,0,0,0,0,0,0,0,0,0,-1,1945,1681,0,0
728,-657,0,0,0,0,0,0,0,0,0,-1,1952,1681,0,0
735,-657,0,0,0,0,0,0,0,0,0,-1,1959,1681,0,0
742,-657,0,0,0,0,0,0,0,0,0,-1,1966,1681,0,0
749,-657,0,0,0,0,0,0,0,0,0,-1,1973,1681,0,0
756,-657,0,0,0,0,0,0,0,0,0,-1,1980,1681,0,0
763,-657,0,0,0,0,0,0,0,0,0,-1,1987,1681,0,0
770,-657,0,0,0,0,0,0,0,0,0,-1,1994,1681,0,0
777,-657,0,0,0,0,0,0,0,0,0,-1,2001,1681,0,0
784,-657,0,0,0,0,0,0,0,0,0,-1,2008,1681,0,0
791,-657,0,0,0,0,0,0,0,0,0,-1,2015,1681,0,0
798,-657,0,0,0,0,0,0,0,0,0,-1,2022,1681,0,0
805,-657,0,0,0,0,0,0,0,0,0,-1,2029,1681,0,0
812,-657,0,0,0,0,0,0,0,0,0,-1,2036,1681,0,0
-700,-664,0,0,0,0,0,0,0,0,0,-1,524,1688,0,0
-693,-664,0,0,0,0,0,0,0,0,0,-1,531,1688,0,0
-686,-664,0,0,0,0,0,0,0,0,0,-1,538,1688,0,0
-679,-664,0,0,0,0,0,0,0,0,0,-1,545,1688,0,0
-672,-664,0,0,0,0,0,0,0,0,0,-1,552,1688,0,0
-665,-664,0,0,0,0,0,0,0,0,0,-1,559,1688,0,0
-658,-664,0,0,0,0,0,0,0,0,0,-1,566,1688,0,0
-651,-664,0,0,0,0,0,0,0,0,0,-1,573,1688,0,0
-644,-664,0,0,0,0,0,0,0,0,0,-1,580,1688,0,0
-637,-664,0,0,0,0,0,0,0,0,0,-1,587,1688,0,0
-630,-664,0,0,0,0,0,0,0,0,0,-1,594,1688,0,0
-623,-664,0,0,0,0,0,0,0,0,0,-1,601,1688,0,0
-616,-664,0,0,0,0,0,0,0,0,0,-1,608,1688,0,0
-609,-664,0,0,0,0,0,0,0,0,0,-1,615,1688,0,0
-602,-664,0,0,0,0,0,0,0,0,0,-1,622,1688,0,0
-595,-664,0,0,0,0,0,0,0,0,0,-1,629,1688,0,0
-588,-664,0,0,0,0,0,0,0,0,0,-1,636,1688,0,0
-581,-664,0,0,0,0,0,0,0,0,0,-1,643,1688,0,0
-574,-664,0,0,0,0,0,0,0,0,0,-1,650,1688,0,0
-567,-664,0,0,0,0,0,0,0,0,0,-1,657,1688,0,0
-560,-664,0,0,0,0,0,0,0,0,0,-1,664,1688,0,0
-553,-664,0,0,0,0,0,0,0,0,0,-1,671,1688,0,0
-546,-664,0,0,0,0,0,0,0,0,0,-1,678,1688,0,0
-539,-664,0,0,0,0,0,0,0,0,0,-1,685,1688,0,0
-532,-664,0,0,0,0,0,0,0,0,0,-1,692,1688,0,0
-525,-664,0,0,0,0,0,0,0,0,0,-1,699,1688,0,0
-518,-664,0,0,0,0,0,0,0,0,0,-1,706,1688,0,0
-511,-664,0,0,0,0,0,0,0,0,0,-1,713,1688,0,0
-504,-664,0,0,0,0,0,0,0,0,0,-1,720,1688,0,0
-497,-664,0,0,0,0,0,0,0,0,0,-1,727,1688,0,0
-490,-664,0,0,0,0,0,0,0,0,0,-1,734,1688,0,0
-483,-664,0,0,0,0,0,0,0,0,0,-1,741,1688,0,0
-476,-664,0,0,0,0,0,0,0,0,0,-1,748,1688,0,0
-469,-664,0,0,0,0,0,0,0,0,0,-1,755,1688,0,0
-462,-664,0,0,0,0,0,0,0,0,0,-1,762,1688,0,0
-455,-664,0,0,0,0,0,0,0,0,0,-1,769,1688,0,0
-448,-664,0,0,0,0,0,0,0,0,0,-1,776,1688,0,0
-441,-664,0,0,0,0,0,0,0,0,0,-1,783,1688,0,0
-434,-664,0,0,0,0,0,0,0,0,0,-1,790,1688,0,0
-427,-664,0,0,0,0,0,0,0,0,0,-1,797,1688,0,0
-420,-664,0,0,0,0,0,0,0,0,0,-1,804,1688,0,0
-413,-664,0,0,0,0,0,0,0,0,0,-1,811,1688,0,0
-406,-664,0,0,0,0,0,0,0,0,0,-1,818,1688,0,0
-399,-664,0,0,0,0,0,0,0,0,0,-1,825,1688,0,0
-392,-664,0,0,0,0,0,0,0,0,0,-1,832,1688,0,0
-385,-664,0,0,0,0,0,0,0,0,0,-1,839,1688,0,0
-378,-664,0,0,0,0,0,0,0,0,0,-1,846,1688,0,0
-371,-664,-1.61676,5.92737,0,0,0,0,0,0,0,-1,853,1688,-1.61675,-5.92735
-364,-664,-3.901,5.87024,0,0,0,0,0,0,0,-1,860,1688,-3.90097,-5.87027
-357,-664,-4.81012,4.53479,0,0,0,0,0,0,0,-1,867,1688,-4.81012,-4.5348
-350,-664,-5.7193,3.19934,0,0,0,0,0,0,0,-1,874,1688,-5.71927,-3.19932
-343,-664,7.80219,22.6451,0,0,0,0,0,0,0,-1,881,1688,7.80219,-22.6451
-336,-664,7.38434,23.2649,-0.016432,-0.014849,0.0144657,-0.0011531,-0.0301278,0.812729,0.0197121,0.0478135,888,1688,7.38432,-23.2649
-329,-664,6.86603,23.8273,0,0,0,0,0,0,0,-1,895,1688,6.86605,-23.8272
-322,-664,6.14069,24.4098,0,0,0,0,0,0,0,-1,902,1688,6.1407,-24.4098
-315,-664,6.62933,25.0529,0,0,0,0,0,0,0,-1,909,1688,6.62936,-25.0528
-308,-664,5.92609,24.7367,0,0,0,0,0,0,0,-1,916,1688,5.9261,-24.7367
-301,-664,5.64417,25.8044,0,0,0,0,0,0,0,-1,923,1688,5.64416,-25.8044
-294,-664,5.77887,26.1454,-0.00388152,-0.00279874,0.000906065,-0.00228464,-0.00439562,1.05469,0.00253847,0.0457142,930,1688,5.77886,-26.1453
-287,-664,5.82581,26.5466,-0.00366561,-0.00261058,-7.14106e-05,-0.00260577,-0.00367042,-1.50352,0.00218049,0.0332697,937,1688,5.82583,-26.5466
-280,-664,5.64465,26.8765,-0.00321546,-0.00211369,-0.000964019,-0.00155426,-0.00377489,-1.04498,0.00219073,0.021624,944,1688,5.64468,-26.8765
-273,-664,5.67719,27.2157,-0.00339695,-0.00212416,-0.0015169,-0.00111557,-0.00440555,-0.984014,0.0026448,0.0154889,951,1688,5.67716,-27.2157
-266,-664,5.62646,27.6027,-0.00315814,-0.00165146,-0.00163085,-0.000608362,-0.00420123,-1.00176,0.00262167,0.0217793,958,1688,5.62645,-27.6026
-259,-664,5.60858,27.9746,-0.00280748,-0.00117033,-0.0015612,-0.000226125,-0.00375169,-1.02686,0.00242926,0.0191315,965,1688,5.60858,-27.9747
-252,-664,5.64276,28.3219,-0.00245764,-0.000721244,-0.00137491,3.66434e-05,-0.00321553,-1.06701,0.002156,0.0166823,972,1688,5.64276,-28.3219
-245,-664,5.62219,28.6901,-0.00195278,-0.000205319,-0.00109126,0.000318897,-0.002477,-1.12297,0.00176725,0.0209816,979,1688,5.62221,-28.6901
-238,-664,5.66199,29.05,-0.00140557,0.000301989,-0.000765162,0.000594688,-0.00169827,-1.20544,0.001374,0.0236442,986,1688,5.66196,-29.0501
-231,-664,5.66565,29.3739,-0.000831941,0.000771811,-0.000439542,0.000884376,-0.000944506,-1.32009,0.0010561,0.0205823,993,1688,5.66562,-29.3739
-224,-664,5.62604,29.7344,-0.000250677,0.00121917,-1.76771e-05,0.00121938,-0.00025089,-1.55877,0.000908176,0.0145063,1000,1688,5.62606,-29.7344
-217,-664,5.60895,30.0496,0.000341763,0.00163351,0.00047425,0.00178893,0.000186346,1.25411,0.00113561,0.0107282,1007,1688,5.60893,-30.0495
-210,-664,5.61182,30.3708,0.000915342,0.00216555,0.000883095,0.00262239,0.000458497,1.09339,0.00161724,0.011585,1014,1688,5.61179,-30.3709
-203,-664,5.59302,30.678,0.00140657,0.00261027,0.00118523,0.00333771,0.000679135,1.02033,0.00203686,0.013532,1021,1688,5.59299,-30.678
-196,-664,5.59302,30.9663,0.00181173,0.00306903,0.00154538,0.00410873,0.000772022,0.978572,0.00252152,0.0144155,1028,1688,5.59308,-30.9663
-189,-664,5.59839,31.2971,0.00215955,0.00369532,0.00180137,0.00488564,0.000969229,0.986874,0.00298691,0.010158,1035,1688,5.59834,-31.2971
-182,-664,5.61389,31.5906,0.00256584,0.00453982,0.00203754,0.00581684,0.00128882,1.01094,0.00352766,0.00929347,1042,1688,5.61395,-31.5906
-175,-664,5.62683,31.855,0.00293344,0.00575587,0.00239676,0.00712602,0.00156329,1.05147,0.00432481,0.0133863,1049,1688,5.62684,-31.855
-168,-664,5.63452,32.1499,0.00312456,0.00720184,0.00274598,0.00858321,0.00174319,1.10471,0.00523866,0.0147932,1056,1688,5.63455,-32.1499
-161,-664,5.61853,32.4347,0.00332822,0.00889203,0.00309497,0.0102716,0.00194865,1.15149,0.00629946,0.01065,1063,1688,5.61856,-32.4347
-154,-664,5.6698,32.7084,0.00349811,0.0108864,0.00337748,0.0121977,0.00218686,1.20047,0.00750975,0.00992617,1070,1688,5.6698,-32.7083
-147,-664,5.67249,32.9849,0.00361551,0.0130634,0.00350601,0.0142223,0.00245661,1.25156,0.00877798,0.0141077,1077,1688,5.67244,-32.9849
-140,-664,5.69397,33.2793,0.0036342,0.0153288,0.00364233,0.0163704,0.00259256,1.29225,0.0101603,0.0195488,1084,1688,5.69393,-33.2793
-133,-664,5.65735,33.6395,0.00351476,0.0176664,0.00367617,0.0185644,0.00261679,1.33122,0.0116028,0.0237354,1091,1688,5.65731,-33.6396
-126,-664,5.82751,34.1252,0.00331679,0.0201282,0.0034541,0.0208102,0.00263477,1.37585,0.0130839,0.037025,1098,1688,5.82752,-34.1252
-119,-664,5.71558,34.458,0.0032771,0.0220549,0.00303432,0.0225331,0.00279896,1.4145,0.0141814,0.0465431,1105,1688,5.71558,-34.458
-112,-664,5.57214,34.8585,0,0,0,0,0,0,0,-1,1112,1688,5.57212,-34.8585
-105,-664,4.48108,21.4276,0,0,0,0,0,0,0,-1,1119,1688,4.48104,-21.4276
-98,-664,6.6134,34.241,0,0,0,0,0,0,0,-1,1126,1688,6.61343,-34.241
-91,-664,5.41931,25.6302,0,0,0,0,0,0,0,-1,1133,1688,5.41932,-25.6302
-84,-664,3.48389,16.6913,0,0,0,0,0,0,0,-1,1140,1688,3.4839,-16.6913
-77,-664,4.52014,11.2122,0,0,0,0,0,0,0,-1,1147,1688,4.5202,-11.2122
-70,-664,4.20374,8.24524,0,0,0,0,0,0,0,-1,1154,1688,4.20379,-8.24519
-63,-664,-4.677,2.40503,0,0,0,0,0,0,0,-1,1161,1688,-4.67702,-2.40498
-56,-664,-4.66504,3.32727,0,0,0,0,0,0,0,-1,1168,1688,-4.6651,-3.32724
-49,-664,-2.54297,3.31848,0,0,0,0,0,0,0,-1,1175,1688,-2.54297,-3.31852
-42,-664,-0.359253,4.38684,0,0,0,0,0,0,0,-1,1182,1688,-0.359261,-4.38685
-35,-664,-0.705566,3.55017,0,0,0,0,0,0,0,-1,1189,1688,-0.705567,-3.55023
-28,-664,-1.54236,10.2538,0,0,0,0,0,0,0,-1,1196,1688,-1.54236,-10.2538
-21,-664,5.64832,37.2308,0,0,0,0,0,0,0,-1,1203,1688,5.64829,-37.2308
-14,-664,6.11987,37.2694,0.0987402,0.0609904,0.0190156,0.106658,0.0530725,0.394555,0.0615793,0.0474506,1210,1688,6.11983,-37.2694
-7,-664,6.54419,37.1904,0,0,0,0,0,0,0,-1,1217,1688,6.54413,-37.1904
0,-664,6.84875,37.4515,0,0,0,0,0,0,0,-1,1224,1688,6.84875,-37.4516
7,-664,7.26794,37.8945,0.0850945,0.0763543,0.0302153,0.111254,0.0501947,0.71358,0.0643346,0.0462098,1231,1688,7.26789,-37.8945
14,-664,7.93213,38.1134,0,0,0,0,0,0,0,-1,1238,1688,7.93213,-38.1134
21,-664,8.30762,38.4246,0.0717904,0.0776668,0.0393229,0.114161,0.0352961,0.822689,0.067492,0.0471548,1245,1688,8.30761,-38.4246
28,-664,8.49756,38.8999,0.0639196,0.069326,0.0414979,0.108209,0.025037,0.817923,0.0654107,0.0427583,1252,1688,8.49753,-38.8999
35,-664,8.66821,38.9417,0.0564064,0.0565941,0.0430347,0.0995351,0.0134654,0.786489,0.0623548,0.0421268,1259,1688,8.66818,-38.9417
42,-664,8.88562,38.8497,0.0498396,0.0396933,0.0441204,0.0891775,0.000355303,0.728157,0.0593336,0.0457504,1266,1688,8.88563,-38.8497
49,-664,9.06689,38.772,0,0,0,0,0,0,0,-1,1273,1688,9.06694,-38.772
56,-664,9.19861,38.9534,0,0,0,0,0,0,0,-1,1280,1688,9.19866,-38.9534
63,-664,9.25574,39.2594,0,0,0,0,0,0,0,-1,1287,1688,9.25572,-39.2594
70,-664,8.65222,39.0378,0,0,0,0,0,0,0,-1,1294,1688,8.65223,-39.0378
77,-664,8.66541,39.0367,0,0,0,0,0,0,0,-1,1301,1688,8.66535,-39.0367
84,-664,8.67847,39.0356,0,0,0,0,0,0,0,-1,1308,1688,8.67848,-39.0356
91,-664,8.87683,41.2424,0,0,0,0,0,0,0,-1,1315,1688,8.87679,-41.2424
98,-664,9.61658,42.0615,0,0,0,0,0,0,0,-1,1322,1688,9.61662,-42.0615
105,-664,10.1366,42.7529,0,0,0,0,0,0,0,-1,1329,1688,10.1366,-42.753
112,-664,10.7716,43.6642,0,0,0,0,0,0,0,-1,1336,1688,10.7716,-43.6642
119,-664,9.85461,36.8463,0,0,0,0,0,0,0,-1,1343,1688,9.85464,-36.8463
126,-664,5.53357,35.8264,0,0,0,0,0,0,0,-1,1350,1688,5.53356,-35.8264
133,-664,5.48145,35.5183,0,0,0,0,0,0,0,-1,1357,1688,5.48146,-35.5183
140,-664,9.20569,34.5194,0,0,0,0,0,0,0,-1,1364,1688,9.20574,-34.5194
147,-664,8.53503,33.1318,0,0,0,0,0,0,0,-1,1371,1688,8.53509,-33.1318
154,-664,4.76721,26.2594,0,0,0,0,0,0,0,-1,1378,1688,4.76723,-26.2594
161,-664,4.60132,1.56238,0,0,0,0,0,0,0,-1,1385,1688,4.60134,-1.56233
168,-664,5.172,1.25488,0,0,0,0,0,0,0,-1,1392,1688,5.17203,-1.25484
175,-664,5.58313,1.16467,0,0,0,0,0,0,0,-1,1399,1688,5.58317,-1.16466
182,-664,5.74268,1.41113,0,0,0,0,0,0,0,-1,1406,1688,5.74263,-1.41115
189,-664,5.87744,1.87061,0,0,0,0,0,0,0,-1,1413,1688,5.87745,-1.87065
196,-664,6.7594,5.97473,0,0,0,0,0,0,0,-1,1420,1688,6.75943,-5.97478
203,-664,5.38452,5.22034,0,0,0,0,0,0,0,-1,1427,1688,5.38453,-5.2203
210,-664,5.25549,6.45715,0,0,0,0,0,0,0,-1,1434,1688,5.25549,-6.45721
217,-664,5.72009,6.73975,0,0,0,0,0,0,0,-1,1441,1688,5.72014,-6.73972
224,-664,5.05725,7.42908,0,0,0,0,0,0,0,-1,1448,1688,5.05723,-7.42912
231,-664,5.13318,7.60864,0,0,0,0,0,0,0,-1,1455,1688,5.13313,-7.60862
238,-664,4.23193,6.45471,0,0,0,0,0,0,0,-1,1462,1688,4.23197,-6.45476
245,-664,4.42004,6.80896,0,0,0,0,0,0,0,-1,1469,1688,4.4201,-6.80901
252,-664,3.67346,6.85461,0,0,0,0,0,0,0,-1,1476,1688,3.6734,-6.85462
259,-664,4.55823,11.7435,0,0,0,0,0,0,0,-1,1483,1688,4.55826,-11.7435
266,-664,9.37463,33.2917,0,0,0,0,0,0,0,-1,1490,1688,9.37462,-33.2918
273,-664,9.57568,33.3652,0,0,0,0,0,0,0,-1,1497,1688,9.5757,-33.3652
280,-664,9.5553,33.2023,0.00760164,0.00240896,-0.00126562,0.00789369,0.00211691,-0.226784,0.00471788,0.0301125,1504,1688,9.55529,-33.2023
287,-664,9.56958,32.9242,0.00681533,0.00198943,-0.000987465,0.00700957,0.0017952,-0.194221,0.0042044,0.0242162,1511,1688,9.56956,-32.9241
294,-664,9.64368,32.6855,0.00598878,0.00187982,-0.000807726,0.00614185,0.00172675,-0.187295,0.00365748,0.0168496,1518,1688,9.64373,-32.6855
301,-664,9.69922,32.4333,0.00522685,0.00182051,-0.000684791,0.00535936,0.001688,-0.191145,0.00316407,0.0117294,1525,1688,9.69923,-32.4333
308,-664,9.71655,32.1658,0.00457484,0.00161431,-0.000621269,0.00469993,0.00148923,-0.198687,0.00277352,0.011003,1532,1688,9.71654,-32.1657
315,-664,9.73315,31.9015,0.00400615,0.00153281,-0.000647823,0.00416555,0.00137341,-0.241271,0.00245104,0.0114825,1539,1688,9.73321,-31.9015
322,-664,9.7605,31.6489,0.00354816,0.00156792,-0.000805291,0.00383429,0.00128179,-0.341408,0.00225389,0.0145965,1546,1688,9.76045,-31.6489
329,-664,9.74402,31.3689,0.00314948,0.0014742,-0.000960299,0.00358613,0.00103755,-0.426758,0.00213084,0.0173314,1553,1688,9.74403,-31.3689
336,-664,9.74023,31.0605,0.0027443,0.00132739,-0.00100574,0.00326605,0.000805634,-0.478557,0.00196468,0.0152719,1560,1688,9.74023,-31.0605
343,-664,9.74976,30.76,0.00229909,0.00112715,-0.00107671,0.00293895,0.000487289,-0.536199,0.00181876,0.0115335,1567,1688,9.74979,-30.76
350,-664,9.75513,30.4727,0.001936,0.000907962,-0.00103159,0.00257454,0.000269422,-0.554264,0.00163397,0.0131265,1574,1688,9.75509,-30.4727
357,-664,9.75867,30.125,0.00170027,0.000355138,-0.000922856,0.00216963,-0.000114228,-0.470506,0.00148596,0.0135492,1581,1688,9.7587,-30.125
364,-664,9.7616,29.7908,0.00159785,-0.000461521,-0.000823504,0.00188666,-0.000750323,-0.337298,0.00156887,0.0104396,1588,1688,9.76154,-29.7908
371,-664,9.75256,29.4973,0.00141431,-0.0012813,-0.000531637,0.00151537,-0.00138236,-0.187855,0.00167359,0.0125517,1595,1688,9.75253,-29.4973
378,-664,9.72083,29.1846,0.00131682,-0.00223807,-0.000169787,0.00132491,-0.00224616,-0.0476171,0.0020845,0.0120912,1602,1688,9.7208,-29.1845
385,-664,9.69482,28.882,0.00138872,-0.00330514,0.000212868,0.00139835,-0.00331478,0.0452265,0.0027951,0.0129933,1609,1688,9.69487,-28.882
392,-664,9.66235,28.5548,0.00161867,-0.00484859,0.000494874,0.00165632,-0.00488624,0.0759307,0.00392779,0.0164752,1616,1688,9.66235,-28.5548
399,-664,9.66711,28.1884,0.00174931,-0.00638003,0.000699607,0.00180908,-0.0064398,0.0852245,0.00500639,0.0134367,1623,1688,9.66714,-28.1884
406,-664,9.68262,27.8298,0.0020679,-0.00757676,0.000958322,0.0021622,-0.00767106,0.0980851,0.00596682,0.012877,1630,1688,9.6826,-27.8298
413,-664,9.6792,27.4467,0.00268579,-0.00876978,0.00118609,0.00280731,-0.00889129,0.102095,0.00705208,0.0153506,1637,1688,9.67916,-27.4467
420,-664,9.70105,27.0997,0.00323128,-0.00971492,0.00123874,0.00334874,-0.00983238,0.0945409,0.00791106,0.037265,1644,1688,9.70109,-27.0998
427,-664,9.75916,26.7354,0,0,0,0,0,0,0,-1,1651,1688,9.75919,-26.7353
434,-664,9.74646,26.1941,0,0,0,0,0,0,0,-1,1658,1688,9.74649,-26.194
441,-664,9.91052,26.3605,0,0,0,0,0,0,0,-1,1665,1688,9.91048,-26.3605
448,-664,7.27502,19.7417,0,0,0,0,0,0,0,-1,1672,1688,7.27505,-19.7417
455,-664,7.53198,11.3838,0,0,0,0,0,0,0,-1,1679,1688,7.53195,-11.3838
462,-664,4.3147,4.25439,0,0,0,0,0,0,0,-1,1686,1688,4.31467,-4.25435
469,-664,6.05469,7.49341,0,0,0,0,0,0,0,-1,1693,1688,6.05474,-7.49339
476,-664,10.2377,22.7128,0,0,0,0,0,0,0,-1,1700,1688,10.2377,-22.7128
483,-664,8.41895,10.9768,0,0,0,0,0,0,0,-1,1707,1688,8.41897,-10.9769
490,-664,3.90771,13.2842,0,0,0,0,0,0,0,-1,1714,1688,3.90776,-13.2841
497,-664,0,0,0,0,0,0,0,0,0,-1,1721,1688,0,0
504,-664,0,0,0,0,0,0,0,0,0,-1,1728,1688,0,0
511,-664,0,0,0,0,0,0,0,0,0,-1,1735,1688,0,0
518,-664,0,0,0,0,0,0,0,0,0,-1,1742,1688,0,0
525,-664,0,0,0,0,0,0,0,0,0,-1,1749,1688,0,0
532,-664,0,0,0,0,0,0,0,0,0,-1,1756,1688,0,0
539,-664,0,0,0,0,0,0,0,0,0,-1,1763,1688,0,0
546,-664,0,0,0,0,0,0,0,0,0,-1,1770,1688,0,0
553,-664,0,0,0,0,0,0,0,0,0,-1,1777,1688,0,0
560,-664,0,0,0,0,0,0,0,0,0,-1,1784,1688,0,0
567,-664,0,0,0,0,0,0,0,0,0,-1,1791,1688,0,0
574,-664,0,0,0,0,0,0,0,0,0,-1,1798,1688,0,0
581,-664,0,0,0,0,0,0,0,0,0,-1,1805,1688,0,0
588,-664,0,0,0,0,0,0,0,0,0,-1,1812,1688,0,0
595,-664,0,0,0,0,0,0,0,0,0,-1,1819,1688,0,0
602,-664,0,0,0,0,0,0,0,0,0,-1,1826,1688,0,0
609,-664,0,0,0,0,0,0,0,0,0,-1,1833,1688,0,0
616,-664,0,0,0,0,0,0,0,0,0,-1,1840,1688,0,0
623,-664,0,0,0,0,0,0,0,0,0,-1,1847,1688,0,0
630,-664,0,0,0,0,0,0,0,0,0,-1,1854,1688,0,0
637,-664,0,0,0,0,0,0,0,0,0,-1,1861,1688,0,0
644,-664,0,0,0,0,0,0,0,0,0,-1,1868,1688,0,0
651,-664,0,0,0,0,0,0,0,0,0,-1,1875,1688,0,0
658,-664,0,0,0,0,0,0,0,0,0,-1,1882,1688,0,0
665,-664,0,0,0,0,0,0,0,0,0,-1,1889,1688,0,0
672,-664,0,0,0,0,0,0,0,0,0,-1,1896,1688,0,0
679,-664,0,0,0,0,0,0,0,0,0,-1,1903,1688,0,0
686,-664,0,0,0,0,0,0,0,0,0,-1,1910,1688,0,0
693,-664,0,0,0,0,0,0,0,0,0,-1,1917,1688,0,0
700,-664,0,0,0,0,0,0,0,0,0,-1,1924,1688,0,0
707,-664,0,0,0,0,0,0,0,0,0,-1,1931,1688,0,0
714,-664,0,0,0,0,0,0,0,0,0,-1,1938,1688,0,0
721,-664,0,0,0,0,0,0,0,0,0,-1,1945,1688,0,0
728,-664,0,0,0,0,0,0,0,0,0,-1,1952,1688,0,0
735,-664,0,0,0,0,0,0,0,0,0,-1,1959,1688,0,0
742,-664,0,0,0,0,0,0,0,0,0,-1,1966,1688,0,0
749,-664,0,0,0,0,0,0,0,0,0,-1,1973,1688,0,0
756,-664,0,0,0,0,0,0,0,0,0,-1,1980,1688,0,0
763,-664,0,0,0,0,0,0,0,0,0,-1,1987,1688,0,0
770,-664,0,0,0,0,0,0,0,0,0,-1,1994,1688,0,0
777,-664,0,0,0,0,0,0,0,0,0,-1,2001,1688,0,0
784,-664,0,0,0,0,0,0,0,0,0,-1,2008,1688,0,0
791,-664,0,0,0,0,0,0,0,0,0,-1,2015,1688,0,0
798,-664,0,0,0,0,0,0,0,0,0,-1,2022,1688,0,0
805,-664,0,0,0,0,0,0,0,0,0,-1,2029,1688,0,0
812,-664,0,0,0,0,0,0,0,0,0,-1,2036,1688,0,0
-700,-671,0,0,0,0,0,0,0,0,0,-1,524,1695,0,0
-693,-671,0,0,0,0,0,0,0,0,0,-1,531,1695,0,0
-686,-671,0,0,0,0,0,0,0,0,0,-1,538,1695,0,0
-679,-671,0,0,0,0,0,0,0,0,0,-1,545,1695,0,0
-672,-671,0,0,0,0,0,0,0,0,0,-1,552,1695,0,0
-665,-671,0,0,0,0,0,0,0,0,0,-1,559,1695,0,0
-658,-671,0,0,0,0,0,0,0,0,0,-1,566,1695,0,0
-651,-671,0,0,0,0,0,0,0,0,0,-1,573,1695,0,0
-644,-671,0,0,0,0,0,0,0,0,0,-1,580,1695,0,0
-637,-671,0,0,0,0,0,0,0,0,0,-1,587,1695,0,0
-630,-671,0,0,0,0,0,0,0,0,0,-1,594,1695,0,0
-623,-671,0,0,0,0,0,0,0,0,0,-1,601,1695,0,0
-616,-671,0,0,0,0,0,0,0,0,0,-1,608,1695,0,0
-609,-671,0,0,0,0,0,0,0,0,0,-1,615,1695,0,0
-602,-671,0,0,0,0,0,0,0,0,0,-1,622,1695,0,0
-595,-671,0,0,0,0,0,0,0,0,0,-1,629,1695,0,0
-588,-671,0,0,0,0,0,0,0,0,0,-1,636,1695,0,0
-581,-671,0,0,0,0,0,0,0,0,0,-1,643,1695,0,0
-574,-671,0,0,0,0,0,0,0,0,0,-1,650,1695,0,0
-567,-671,0,0,0,0,0,0,0,0,0,-1,657,1695,0,0
-560,-671,0,0,0,0,0,0,0,0,0,-1,664,1695,0,0
-553,-671,0,0,0,0,0,0,0,0,0,-1,671,1695,0,0
-546,-671,0,0,0,0,0,0,0,0,0,-1,678,1695,0,0
-539,-671,0,0,0,0,0,0,0,0,0,-1,685,1695,0,0
-532,-671,0,0,0,0,0,0,0,0,0,-1,692,1695,0,0
-525,-671,0,0,0,0,0,0,0,0,0,-1,699,1695,0,0
-518,-671,0,0,0,0,0,0,0,0,0,-1,706,1695,0,0
-511,-671,0,0,0,0,0,0,0,0,0,-1,713,1695,0,0
-504,-671,0,0,0,0,0,0,0,0,0,-1,720,1695,0,0
-497,-671,0,0,0,0,0,0,0,0,0,-1,727,1695,0,0
-490,-671,0,0,0,0,0,0,0,0,0,-1,734,1695,0,0
-483,-671,0,0,0,0,0,0,0,0,0,-1,741,1695,0,0
-476,-671,0,0,0,0,0,0,0,0,0,-1,748,1695,0,0
-469,-671,0,0,0,0,0,0,0,0,0,-1,755,1695,0,0
-462,-671,0,0,0,0,0,0,0,0,0,-1,762,1695,0,0
-455,-671,0,0,0,0,0,0,0,0,0,-1,769,1695,0,0
-448,-671,0,0,0,0,0,0,0,0,0,-1,776,1695,0,0
-441,-671,0,0,0,0,0,0,0,0,0,-1,783,1695,0,0
-434,-671,0,0,0,0,0,0,0,0,0,-1,790,1695,0,0
-427,-671,0,0,0,0,0,0,0,0,0,-1,797,1695,0,0
-420,-671,0,0,0,0,0,0,0,0,0,-1,804,1695,0,0
-413,-671,0,0,0,0,0,0,0,0,0,-1,811,1695,0,0
-406,-671,0,0,0,0,0,0,0,0,0,-1,818,1695,0,0
-399,-671,0,0,0,0,0,0,0,0,0,-1,825,1695,0,0
-392,-671,0,0,0,0,0,0,0,0,0,-1,832,1695,0,0
-385,-671,0,0,0,0,0,0,0,0,0,-1,839,1695,0,0
-378,-671,0,0,0,0,0,0,0,0,0,-1,846,1695,0,0
-371,-671,0,0,0,0,0,0,0,0,0,-1,853,1695,0,0
-364,-671,-4.18738,7.51416,0,0,0,0,0,0,0,-1,860,1695,-4.18739,-7.51419
-357,-671,-5.02393,6.07129,0,0,0,0,0,0,0,-1,867,1695,-5.0239,-6.07135
-350,-671,-5.72333,4.58386,0,0,0,0,0,0,0,-1,874,1695,-5.72333,-4.58386
-343,-671,8.04773,23.1034,0,0,0,0,0,0,0,-1,881,1695,8.04774,-23.1034
-336,-671,7.64795,23.7375,0,0,0,0,0,0,0,-1,888,1695,7.64792,-23.7375
-329,-671,7.2774,24.0865,0,0,0,0,0,0,0,-1,895,1695,7.27738,-24.0866
-322,-671,6.66992,24.359,0,0,0,0,0,0,0,-1,902,1695,6.66993,-24.359
-315,-671,7.55627,25.0232,0,0,0,0,0,0,0,-1,909,1695,7.55624,-25.0232
-308,-671,5.76251,23.4701,0,0,0,0,0,0,0,-1,916,1695,5.76252,-23.4701
-301,-671,8.0578,23.4189,0,0,0,0,0,0,0,-1,923,1695,8.05783,-23.419
-294,-671,6.14447,26.1162,0,0,0,0,0,0,0,-1,930,1695,6.14447,-26.1162
-287,-671,6.36279,26.5576,-0.00498375,-0.00377449,-0.000587331,-0.00353619,-0.00522206,-1.18535,0.0030774,0.0476077,937,1695,6.36276,-26.5576
-280,-671,6.13208,27.0291,-0.00443209,-0.00297528,-0.00175866,-0.00180014,-0.00560723,-0.981734,0.00330573,0.040693,944,1695,6.13205,-27.0291
-273,-671,6.0965,27.2874,-0.00474997,-0.00286894,-0.00244452,-0.00119025,-0.00642866,-0.969041,0.00394927,0.0326688,951,1695,6.09647,-27.2874
-266,-671,6.10248,27.6593,-0.00457562,-0.00219448,-0.00254987,-0.000570925,-0.00619918,-1.00381,0.00395623,0.0232948,958,1695,6.10246,-27.6593
-259,-671,5.96362,27.9724,-0.00424825,-0.00157932,-0.00242629,-0.000144729,-0.00568284,-1.03682,0.00374125,0.0218145,965,1695,5.96362,-27.9724
-252,-671,5.95911,28.3333,-0.00386896,-0.00103084,-0.00214287,0.00012024,-0.00502003,-1.07786,0.00338748,0.016722,972,1695,5.9591,-28.3333
-245,-671,5.95013,28.7106,-0.00333533,-0.000476493,-0.00174885,0.000352788,-0.00416461,-1.12801,0.00290116,0.0195602,979,1695,5.95013,-28.7106
-238,-671,5.9906,29.0531,-0.00277536,5.02293e-05,-0.00130438,0.000560297,-0.00328543,-1.19804,0.00239896,0.0202877,986,1695,5.99062,-29.0531
-231,-671,5.97778,29.3899,-0.0021169,0.000521511,-0.000894393,0.000796119,-0.00239151,-1.2729,0.00191567,0.0157909,993,1695,5.97776,-29.3899
-224,-671,5.92554,29.7249,-0.00147395,0.000947986,-0.000366836,0.00100233,-0.00152829,-1.42373,0.00147154,0.0125463,1000,1695,5.92554,-29.7249
-217,-671,5.92297,30.042,-0.000774319,0.00128764,0.000206586,0.00130814,-0.000794813,1.47192,0.00122614,0.01148,1007,1695,5.92299,-30.042
-210,-671,5.92139,30.3934,-7.72263e-05,0.00166072,0.000669671,0.00188882,-0.000305328,1.2425,0.00137236,0.0111456,1014,1695,5.92139,-30.3934
-203,-671,5.89331,30.6954,0.000461137,0.00195286,0.000990444,0.00244687,-3.28763e-05,1.10813,0.00164232,0.0188152,1021,1695,5.89328,-30.6954
-196,-671,5.89453,30.9812,0.000904275,0.00222749,0.0013539,0.00307279,5.89759e-05,1.01267,0.00202915,0.0156172,1028,1695,5.89447,-30.9812
-189,-671,5.90161,31.3308,0.0012915,0.00258954,0.00154851,0.00361953,0.000261497,0.983841,0.00233075,0.0123213,1035,1695,5.90166,-31.3308
-182,-671,5.89917,31.6029,0.00169507,0.0032242,0.00167512,0.00430099,0.000618285,0.999491,0.00268506,0.010034,1042,1695,5.89915,-31.6029
-175,-671,5.9126,31.8516,0.00207505,0.00417323,0.00191007,0.00530335,0.000944926,1.03653,0.00326647,0.0128959,1049,1695,5.91265,-31.8516
-168,-671,5.90881,32.146,0.00226111,0.00526954,0.00212302,0.00636723,0.00116343,1.09361,0.00391506,0.0145401,1056,1695,5.90876,-32.1459
-161,-671,5.8938,32.4486,0.00241601,0.00655453,0.00229292,0.00757385,0.00139669,1.15248,0.00465406,0.0100282,1063,1695,5.89384,-32.4486
-154,-671,5.91992,32.6985,0.0025569,0.00813619,0.00241341,0.00903526,0.00165782,1.21419,0.00555399,0.00810796,1070,1695,5.91992,-32.6985
-147,-671,5.9325,32.9828,0.00266179,0.00982676,0.00241042,0.0105622,0.00192637,1.27467,0.00649526,0.00929437,1077,1695,5.93249,-32.9828
-140,-671,5.96875,33.2264,0.00270432,0.0115465,0.00242681,0.0121688,0.00208205,1.31979,0.00751524,0.0127166,1084,1695,5.9687,-33.2265
-133,-671,5.98608,33.4541,0.00267651,0.0132514,0.00237225,0.0137592,0.00216873,1.35993,0.00854215,0.0168037,1091,1695,5.98614,-33.4541
-126,-671,6.03015,33.7688,0.00276597,0.0150386,0.00218472,0.0154159,0.00238865,1.39978,0.00958083,0.0234646,1098,1695,6.03021,-33.7687
-119,-671,6.08704,34.2544,0.0028328,0.0163507,0.00181319,0.0165896,0.00259382,1.43975,0.0103046,0.0411206,1105,1695,6.08698,-34.2544
-112,-671,6.08167,34.7921,0,0,0,0,0,0,0,-1,1112,1695,6.08172,-34.7921
-105,-671,6.15393,34.9008,0,0,0,0,0,0,0,-1,1119,1695,6.15396,-34.9008
-98,-671,6.37183,34.6481,0,0,0,0,0,0,0,-1,1126,1695,6.37181,-34.6481
-91,-671,6.43408,34.7406,0,0,0,0,0,0,0,-1,1133,1695,6.43406,-34.7406
-84,-671,5.4209,26.2415,0,0,0,0,0,0,0,-1,1140,1695,5.42096,-26.2414
-77,-671,4.31763,16.489,0,0,0,0,0,0,0,-1,1147,1695,4.31757,-16.489
-70,-671,3.06067,10.7737,0,0,0,0,0,0,0,-1,1154,1695,3.0607,-10.7737
-63,-671,2.94592,6.90198,0,0,0,0,0,0,0,-1,1161,1695,2.94594,-6.90198
-56,-671,-3.07678,2.87976,0,0,0,0,0,0,0,-1,1168,1695,-3.07675,-2.87979
-49,-671,-1.05957,4.76917,0,0,0,0,0,0,0,-1,1175,1695,-1.05958,-4.76921
-42,-671,0.539307,3.7865,0,0,0,0,0,0,0,-1,1182,1695,0.539266,-3.78648
-35,-671,-0.272461,0.347534,0,0,0,0,0,0,0,-1,1189,1695,-0.272434,-0.347569
-28,-671,-10.4878,17.2009,0,0,0,0,0,0,0,-1,1196,1695,-10.4878,-17.2009
-21,-671,6.30005,36.1368,0,0,0,0,0,0,0,-1,1203,1695,6.3,-36.1369
-14,-671,6.20447,36.4744,0,0,0,0,0,0,0,-1,1210,1695,6.20445,-36.4744
-7,-671,6.7511,35.6212,0,0,0,0,0,0,0,-1,1217,1695,6.75111,-35.6212
0,-671,6.82605,36.6941,0,0,0,0,0,0,0,-1,1224,1695,6.82601,-36.6941
7,-671,6.90771,37.394,0,0,0,0,0,0,0,-1,1231,1695,6.90767,-37.394
14,-671,6.98486,37.5629,0,0,0,0,0,0,0,-1,1238,1695,6.98491,-37.5629
21,-671,8.00256,37.3583,0.0548108,0.0675496,0.0324521,0.0942514,0.0281089,0.882302,0.0558734,0.044885,1245,1695,8.00255,-37.3583
28,-671,8.35254,37.6215,0.0491868,0.0621809,0.0345077,0.0907979,0.0205699,0.878448,0.0549734,0.0449833,1252,1695,8.35254,-37.6215
35,-671,7.24524,37.5784,0.0438127,0.0529469,0.036021,0.0846891,0.0120704,0.848457,0.052897,0.0476348,1259,1695,7.24522,-37.5784
42,-671,7.651,38.0485,0.0391093,0.0396364,0.0370804,0.0764542,0.00229153,0.788952,0.0502231,0.0470377,1266,1695,7.65099,-38.0484
49,-671,7.81836,38.228,0,0,0,0,0,0,0,-1,1273,1695,7.81839,-38.2281
56,-671,8.97839,37.2456,0,0,0,0,0,0,0,-1,1280,1695,8.97837,-37.2455
63,-671,7.11658,37.5552,0,0,0,0,0,0,0,-1,1287,1695,7.11656,-37.5552
70,-671,8.48572,38.639,0,0,0,0,0,0,0,-1,1294,1695,8.48578,-38.639
77,-671,8.4491,38.5853,0,0,0,0,0,0,0,-1,1301,1695,8.44904,-38.5854
84,-671,8.41235,38.5317,0,0,0,0,0,0,0,-1,1308,1695,8.41229,-38.5317
91,-671,8.25781,37.3711,0,0,0,0,0,0,0,-1,1315,1695,8.25786,-37.371
98,-671,8.00146,37.509,0,0,0,0,0,0,0,-1,1322,1695,8.0015,-37.5091
105,-671,9.67273,37.1343,0,0,0,0,0,0,0,-1,1329,1695,9.67276,-37.1342
112,-671,9.39783,37.1254,0.0210912,-0.0639839,0.0176955,0.024625,-0.0675177,0.19711,0.0550865,0.0433334,1336,1695,9.39785,-37.1254
119,-671,9.50952,36.7805,0.0211658,-0.0659765,0.0151735,0.0237323,-0.068543,0.167556,0.0553295,0.0480084,1343,1695,9.5095,-36.7805
126,-671,9.3717,36.6533,0,0,0,0,0,0,0,-1,1350,1695,9.37167,-36.6533
133,-671,8.6416,34.7782,0,0,0,0,0,0,0,-1,1357,1695,8.64159,-34.7783
140,-671,9.51929,34.4346,0,0,0,0,0,0,0,-1,1364,1695,9.5193,-34.4345
147,-671,9.45496,34.1787,0,0,0,0,0,0,0,-1,1371,1695,9.45501,-34.1787
154,-671,9.59363,33.8367,0,0,0,0,0,0,0,-1,1378,1695,9.5936,-33.8366
161,-671,4.49292,4.91272,0,0,0,0,0,0,0,-1,1385,1695,4.49297,-4.91273
168,-671,5.17639,6.1416,0,0,0,0,0,0,0,-1,1392,1695,5.1764,-6.14164
175,-671,5.6731,1.64685,0,0,0,0,0,0,0,-1,1399,1695,5.67313,-1.64691
182,-671,5.56812,1.71692,0,0,0,0,0,0,0,-1,1406,1695,5.56809,-1.71686
189,-671,6.98315,6.36169,0,0,0,0,0,0,0,-1,1413,1695,6.98312,-6.36175
196,-671,5.38123,5.69775,0,0,0,0,0,0,0,-1,1420,1695,5.38125,-5.69769
203,-671,5.95117,8.11658,0,0,0,0,0,0,0,-1,1427,1695,5.9512,-8.11662
210,-671,4.73596,8.39624,0,0,0,0,0,0,0,-1,1434,1695,4.736,-8.39618
217,-671,5.37097,11.863,0,0,0,0,0,0,0,-1,1441,1695,5.37094,-11.863
224,-671,5.08167,13.6694,0,0,0,0,0,0,0,-1,1448,1695,5.08165,-13.6695
231,-671,5.66663,15.3348,0,0,0,0,0,0,0,-1,1455,1695,5.66667,-15.3349
238,-671,6.32959,16.2036,0,0,0,0,0,0,0,-1,1462,1695,6.32961,-16.2037
245,-671,9.39502,32.9545,0,0,0,0,0,0,0,-1,1469,1695,9.39502,-32.9544
252,-671,9.27869,33.8691,0,0,0,0,0,0,0,-1,1476,1695,9.27867,-33.8691
259,-671,9.30457,33.9539,0,0,0,0,0,0,0,-1,1483,1695,9.3046,-33.9538
266,-671,9.30725,33.6317,0.00632273,0.00155245,-0.000991753,0.0065207,0.00135448,-0.197028,0.00397336,0.0359452,1490,1695,9.30728,-33.6317
273,-671,9.37402,33.4442,0.0060461,0.00136397,-0.000890801,0.00620985,0.00120022,-0.181797,0.00380348,0.0115667,1497,1695,9.374,-33.4442
280,-671,9.37891,33.208,0.00562073,0.00134839,-0.000791802,0.00576276,0.00120636,-0.177482,0.00350952,0.00934462,1504,1695,9.37892,-33.208
287,-671,9.37866,32.8894,0.00509829,0.00114619,-0.000686893,0.00521427,0.0010302,-0.167271,0.00318874,0.0110193,1511,1695,9.3787,-32.8894
294,-671,9.38379,32.6241,0.00455807,0.00118975,-0.000664369,0.00468438,0.00106344,-0.187869,0.0028357,0.0111399,1518,1695,9.38379,-32.6241
301,-671,9.39941,32.4153,0.00406473,0.00122849,-0.000716444,0.00423544,0.00105779,-0.233902,0.00254538,0.0108706,1525,1695,9.39935,-32.4153
308,-671,9.43213,32.189,0.00364401,0.00116054,-0.000804065,0.00388161,0.000922943,-0.28732,0.00234153,0.0118112,1532,1695,9.43215,-32.1889
315,-671,9.45642,31.9286,0.00330077,0.00110217,-0.000949238,0.00365389,0.000749053,-0.356138,0.0022286,0.0133811,1539,1695,9.45644,-31.9286
322,-671,9.44495,31.665,0.00297189,0.00103853,-0.00109741,0.00346767,0.000542748,-0.424324,0.00215378,0.0150156,1546,1695,9.44499,-31.6651
329,-671,9.41504,31.3781,0.0026961,0.000860665,-0.00126194,0.00333873,0.000218029,-0.471016,0.00215682,0.0139663,1553,1695,9.41503,-31.3781
336,-671,9.43774,31.059,0.00239124,0.000599556,-0.00133873,0.00310621,-0.000115419,-0.49053,0.00211033,0.0115353,1560,1695,9.43778,-31.059
343,-671,9.4696,30.7345,0.00202378,0.000315163,-0.00135209,0.00276885,-0.000429904,-0.503646,0.00200462,0.0108644,1567,1695,9.46963,-30.7345
350,-671,9.46313,30.473,0.00170989,3.70299e-05,-0.00119721,0.00233391,-0.000586992,-0.480488,0.00178409,0.01178,1574,1695,9.46312,-30.473
357,-671,9.44885,30.1158,0.00153734,-0.000702477,-0.00099164,0.00191328,-0.00107841,-0.362363,0.00174953,0.0116025,1581,1695,9.44881,-30.1159
364,-671,9.44006,29.796,0.00155586,-0.00174667,-0.00085284,0.00176309,-0.00195391,-0.238371,0.00214695,0.0119287,1588,1695,9.44004,-29.7961
371,-671,9.4165,29.5078,0.00145235,-0.00272079,-0.00048686,0.0015084,-0.00277684,-0.114614,0.00250995,0.0136806,1595,1695,9.41647,-29.5078
378,-671,9.40906,29.2021,0.00143957,-0.00381481,-2.69279e-05,0.00143971,-0.00381495,-0.00512467,0.00313539,0.0117438,1602,1695,9.40904,-29.2022
385,-671,9.38208,28.8662,0.00163239,-0.00497779,0.000452665,0.00166324,-0.00500864,0.0680566,0.00401018,0.0142556,1609,1695,9.3821,-28.8662
392,-671,9.36145,28.5503,0.00203497,-0.00672222,0.000804396,0.00210825,-0.00679549,0.0908426,0.00537277,0.0194525,1616,1695,9.36139,-28.5503
399,-671,9.33423,28.1982,0.00238402,-0.00844825,0.00105196,0.00248523,-0.00854946,0.095919,0.00668388,0.0152611,1623,1695,9.3342,-28.1983
406,-671,9.34045,27.8416,0.00299231,-0.00984556,0.00137835,0.00313863,-0.00999188,0.10576,0.00791762,0.0253863,1630,1695,9.34045,-27.8416
413,-671,9.32263,27.7124,0.00403236,-0.01143,0.00163785,0.00420394,-0.0116016,0.104381,0.00945265,0.0431587,1637,1695,9.32264,-27.7124
420,-671,9.40833,27.5797,0,0,0,0,0,0,0,-1,1644,1695,9.40831,-27.5798
427,-671,9.31738,21.7188,0,0,0,0,0,0,0,-1,1651,1695,9.31735,-21.7187
434,-671,9.66528,26.177,0,0,0,0,0,0,0,-1,1658,1695,9.66528,-26.177
441,-671,8.34961,20.6522,0,0,0,0,0,0,0,-1,1665,1695,8.34964,-20.6522
448,-671,7.44873,20.2306,0,0,0,0,0,0,0,-1,1672,1695,7.44872,-20.2306
455,-671,6.62805,19.8612,0,0,0,0,0,0,0,-1,1679,1695,6.62811,-19.8612
462,-671,5.86255,4.47961,0,0,0,0,0,0,0,-1,1686,1695,5.8625,-4.4796
469,-671,3.71301,3.76978,0,0,0,0,0,0,0,-1,1693,1695,3.71297,-3.76974
476,-671,3.75574,3.18848,0,0,0,0,0,0,0,-1,1700,1695,3.7558,-3.18847
483,-671,7.81824,12.1041,0,0,0,0,0,0,0,-1,1707,1695,7.81826,-12.1041
490,-671,0,0,0,0,0,0,0,0,0,-1,1714,1695,0,0
497,-671,0,0,0,0,0,0,0,0,0,-1,1721,1695,0,0
504,-671,0,0,0,0,0,0,0,0,0,-1,1728,1695,0,0
511,-671,0,0,0,0,0,0,0,0,0,-1,1735,1695,0,0
518,-671,0,0,0,0,0,0,0,0,0,-1,1742,1695,0,0
525,-671,0,0,0,0,0,0,0,0,0,-1,1749,1695,0,0
532,-671,0,0,0,0,0,0,0,0,0,-1,1756,1695,0,0
539,-671,0,0,0,0,0,0,0,0,0,-1,1763,1695,0,0
546,-671,0,0,0,0,0,0,0,0,0,-1,1770,1695,0,0
553,-671,0,0,0,0,0,0,0,0,0,-1,1777,1695,0,0
560,-671,0,0,0,0,0,0,0,0,0,-1,1784,1695,0,0
567,-671,0,0,0,0,0,0,0,0,0,-1,1791,1695,0,0
574,-671,0,0,0,0,0,0,0,0,0,-1,1798,1695,0,0
581,-671,0,0,0,0,0,0,0,0,0,-1,1805,1695,0,0
588,-671,0,0,0,0,0,0,0,0,0,-1,1812,1695,0,0
595,-671,0,0,0,0,0,0,0,0,0,-1,1819,1695,0,0
602,-671,0,0,0,0,0,0,0,0,0,-1,1826,1695,0,0
609,-671,0,0,0,0,0,0,0,0,0,-1,1833,1695,0,0
616,-671,0,0,0,0,0,0,0,0,0,-1,1840,1695,0,0
623,-671,0,0,0,0,0,0,0,0,0,-1,1847,1695,0,0
630,-671,0,0,0,0,0,0,0,0,0,-1,1854,1695,0,0
637,-671,0,0,0,0,0,0,0,0,0,-1,1861,1695,0,0
644,-671,0,0,0,0,0,0,0,0,0,-1,1868,1695,0,0
651,-671,0,0,0,0,0,0,0,0,0,-1,1875,1695,0,0
658,-671,0,0,0,0,0,0,0,0,0,-1,1882,1695,0,0
665,-671,0,0,0,0,0,0,0,0,0,-1,1889,1695,0,0
672,-671,0,0,0,0,0,0,0,0,0,-1,1896,1695,0,0
679,-671,0,0,0,0,0,0,0,0,0,-1,1903,1695,0,0
686,-671,0,0,0,0,0,0,0,0,0,-1,1910,1695,0,0
693,-671,0,0,0,0,0,0,0,0,0,-1,1917,1695,0,0
700,-671,0,0,0,0,0,0,0,0,0,-1,1924,1695,0,0
707,-671,0,0,0,0,0,0,0,0,0,-1,1931,1695,0,0
714,-671,0,0,0,0,0,0,0,0,0,-1,1938,1695,0,0
721,-671,0,0,0,0,0,0,0,0,0,-1,1945,1695,0,0
728,-671,0,0,0,0,0,0,0,0,0,-1,1952,1695,0,0
735,-671,0,0,0,0,0,0,0,0,0,-1,1959,1695,0,0
742,-671,0,0,0,0,0,0,0,0,0,-1,1966,1695,0,0
749,-671,0,0,0,0,0,0,0,0,0,-1,1973,1695,0,0
756,-671,0,0,0,0,0,0,0,0,0,-1,1980,1695,0,0
763,-671,0,0,0,0,0,0,0,0,0,-1,1987,1695,0,0
770,-671,0,0,0,0,0,0,0,0,0,-1,1994,1695,0,0
777,-671,0,0,0,0,0,0,0,0,0,-1,2001,1695,0,0
784,-671,0,0,0,0,0,0,0,0,0,-1,2008,1695,0,0
791,-671,0,0,0,0,0,0,0,0,0,-1,2015,1695,0,0
798,-671,0,0,0,0,0,0,0,0,0,-1,2022,1695,0,0
805,-671,0,0,0,0,0,0,0,0,0,-1,2029,1695,0,0
812,-671,0,0,0,0,0,0,0,0,0,-1,2036,1695,0,0
-700,-678,0,0,0,0,0,0,0,0,0,-1,524,1702,0,0
-693,-678,0,0,0,0,0,0,0,0,0,-1,531,1702,0,0
-686,-678,0,0,0,0,0,0,0,0,0,-1,538,1702,0,0
-679,-678,0,0,0,0,0,0,0,0,0,-1,545,1702,0,0
-672,-678,0,0,0,0,0,0,0,0,0,-1,552,1702,0,0
-665,-678,0,0,0,0,0,0,0,0,0,-1,559,1702,0,0
-658,-678,0,0,0,0,0,0,0,0,0,-1,566,1702,0,0
-651,-678,0,0,0,0,0,0,0,0,0,-1,573,1702,0,0
-644,-678,0,0,0,0,0,0,0,0,0,-1,580,1702,0,0
-637,-678,0,0,0,0,0,0,0,0,0,-1,587,1702,0,0
-630,-678,0,0,0,0,0,0,0,0,0,-1,594,1702,0,0
-623,-678,0,0,0,0,0,0,0,0,0,-1,601,1702,0,0
-616,-678,0,0,0,0,0,0,0,0,0,-1,608,1702,0,0
-609,-678,0,0,0,0,0,0,0,0,0,-1,615,1702,0,0
-602,-678,0,0,0,0,0,0,0,0,0,-1,622,1702,0,0
-595,-678,0,0,0,0,0,0,0,0,0,-1,629,1702,0,0
-588,-678,0,0,0,0,0,0,0,0,0,-1,636,1702,0,0
-581,-678,0,0,0,0,0,0,0,0,0,-1,643,1702,0,0
-574,-678,0,0,0,0,0,0,0,0,0,-1,650,1702,0,0
-567,-678,0,0,0,0,0,0,0,0,0,-1,657,1702,0,0
-560,-678,0,0,0,0,0,0,0,0,0,-1,664,1702,0,0
-553,-678,0,0,0,0,0,0,0,0,0,-1,671,1702,0,0
-546,-678,0,0,0,0,0,0,0,0,0,-1,678,1702,0,0
-539,-678,0,0,0,0,0,0,0,0,0,-1,685,1702,0,0
-532,-678,0,0,0,0,0,0,0,0,0,-1,692,1702,0,0
-525,-678,0,0,0,0,0,0,0,0,0,-1,699,1702,0,0
-518,-678,0,0,0,0,0,0,0,0,0,-1,706,1702,0,0
-511,-678,0,0,0,0,0,0,0,0,0,-1,713,1702,0,0
-504,-678,0,0,0,0,0,0,0,0,0,-1,720,1702,0,0
-497,-678,0,0,0,0,0,0,0,0,0,-1,727,1702,0,0
-490,-678,0,0,0,0,0,0,0,0,0,-1,734,1702,0,0
-483,-678,0,0,0,0,0,0,0,0,0,-1,741,1702,0,0
-476,-678,0,0,0,0,0,0,0,0,0,-1,748,1702,0,0
-469,-678,0,0,0,0,0,0,0,0,0,-1,755,1702,0,0
-462,-678,0,0,0,0,0,0,0,0,0,-1,762,1702,0,0
-455,-678,0,0,0,0,0,0,0,0,0,-1,769,1702,0,0
-448,-678,0,0,0,0,0,0,0,0,0,-1,776,1702,0,0
-441,-678,0,0,0,0,0,0,0,0,0,-1,783,1702,0,0
-434,-678,0,0,0,0,0,0,0,0,0,-1,790,1702,0,0
-427,-678,0,0,0,0,0,0,0,0,0,-1,797,1702,0,0
-420,-678,0,0,0,0,0,0,0,0,0,-1,804,1702,0,0
-413,-678,0,0,0,0,0,0,0,0,0,-1,811,1702,0,0
-406,-678,0,0,0,0,0,0,0,0,0,-1,818,1702,0,0
-399,-678,0,0,0,0,0,0,0,0,0,-1,825,1702,0,0
-392,-678,0,0,0,0,0,0,0,0,0,-1,832,1702,0,0
-385,-678,0,0,0,0,0,0,0,0,0,-1,839,1702,0,0
-378,-678,0,0,0,0,0,0,0,0,0,-1,846,1702,0,0
-371,-678,0,0,0,0,0,0,0,0,0,-1,853,1702,0,0
-364,-678,0,0,0,0,0,0,0,0,0,-1,860,1702,0,0
-357,-678,0,0,0,0,0,0,0,0,0,-1,867,1702,0,0
-350,-678,-5.79944,6.11865,0,0,0,0,0,0,0,-1,874,1702,-5.79942,-6.11864
-343,-678,-6.44891,4.52759,0,0,0,0,0,0,0,-1,881,1702,-6.4489,-4.52758
-336,-678,7.92682,24.1683,0,0,0,0,0,0,0,-1,888,1702,7.92682,-24.1684
-329,-678,-7.14575,1.29761,0,0,0,0,0,0,0,-1,895,1702,-7.14577,-1.29755
-322,-678,3.78455,20.3917,0,0,0,0,0,0,0,-1,902,1702,3.78457,-20.3917
-315,-678,4.74176,22.3245,0,0,0,0,0,0,0,-1,909,1702,4.74178,-22.3244
-308,-678,8.02203,23.7128,0,0,0,0,0,0,0,-1,916,1702,8.02202,-23.7127
-301,-678,7.6629,24.095,0,0,0,0,0,0,0,-1,923,1702,7.66288,-24.0949
-294,-678,5.9353,26.1099,0,0,0,0,0,0,0,-1,930,1702,5.93528,-26.1098
-287,-678,6.24683,26.7687,-0.00662885,-0.00524316,-0.00153812,-0.00424904,-0.00762297,-0.997012,0.00441078,0.0484211,937,1702,6.24681,-26.7687
-280,-678,6.51459,27.1888,-0.00591897,-0.00394593,-0.00299487,-0.00177928,-0.00808562,-0.944503,0.00490607,0.0480145,944,1702,6.51459,-27.1889
-273,-678,6.5813,27.5081,-0.00637476,-0.00364991,-0.00380506,-0.000970719,-0.00905395,-0.957315,0.00573982,0.0403075,951,1702,6.58131,-27.5081
-266,-678,6.4364,27.6504,-0.00626794,-0.00261869,-0.00382568,-0.000204792,-0.00868183,-1.00791,0.00572085,0.0341301,958,1702,6.43642,-27.6504
-259,-678,6.30017,28.0356,-0.00593754,-0.00176672,-0.00355797,0.000271956,-0.00797622,-1.05048,0.00541041,0.023461,965,1702,6.30019,-28.0356
-252,-678,6.30011,28.3618,-0.0054649,-0.00103731,-0.00306052,0.000526146,-0.00702836,-1.09851,0.00487044,0.0166315,972,1702,6.30013,-28.3618
-245,-678,6.29211,28.6969,-0.00486458,-0.00042201,-0.00246115,0.000672025,-0.00595862,-1.15251,0.00421432,0.0174267,979,1702,6.29211,-28.697
-238,-678,6.28406,29.0344,-0.00425805,0.000116116,-0.00182161,0.000775366,-0.0049173,-1.22356,0.00356488,0.0154279,986,1702,6.28408,-29.0344
-231,-678,6.25195,29.3907,-0.00349552,0.000575166,-0.00127283,0.000940391,-0.00386074,-1.29137,0.00293789,0.0127613,993,1702,6.25197,-29.3908
-224,-678,6.22198,29.7135,-0.00275872,0.000956521,-0.000595043,0.0010495,-0.00285169,-1.4158,0.00233109,0.0126499,1000,1702,6.22199,-29.7135
-217,-678,6.23157,30.0532,-0.0019223,0.00120685,9.00912e-05,0.00120945,-0.00192489,1.54204,0.00182526,0.0128208,1007,1702,6.23154,-30.0533
-210,-678,6.22266,30.4219,-0.00109225,0.00141301,0.00063142,0.00156316,-0.0012424,1.33735,0.00162331,0.0137497,1014,1702,6.22267,-30.4218
-203,-678,6.20996,30.7074,-0.000488107,0.00154235,0.0009891,0.00194451,-0.000890273,1.18461,0.00167397,0.0189709,1021,1702,6.20997,-30.7074
-196,-678,6.1969,31.0154,-7.20773e-06,0.0016549,0.00135604,0.00241428,-0.00076659,1.06031,0.00191685,0.0174094,1028,1702,6.19684,-31.0153
-189,-678,6.19751,31.3385,0.000433605,0.00178596,0.00150739,0.00276188,-0.000542316,0.996233,0.00204612,0.0102223,1035,1702,6.19751,-31.3385
-182,-678,6.20703,31.6082,0.00086559,0.00224547,0.00154491,0.0032475,-0.000136437,0.995406,0.00221188,0.00985859,1042,1702,6.20704,-31.6081
-175,-678,6.19995,31.8699,0.00129208,0.00299261,0.00169495,0.00403861,0.000246083,1.01788,0.00261424,0.0104228,1049,1702,6.2,-31.8699
-168,-678,6.18652,32.1785,0.00151852,0.00379761,0.00181054,0.00479737,0.000518756,1.06627,0.00304011,0.010098,1056,1702,6.18647,-32.1784
-161,-678,6.17322,32.4701,0.00168587,0.00474013,0.00185207,0.00561348,0.000812521,1.13017,0.00350303,0.00899549,1063,1702,6.17322,-32.4701
-154,-678,6.18213,32.7167,0.00185469,0.00597517,0.00186307,0.00669263,0.00113723,1.2032,0.00413513,0.00792237,1070,1702,6.18219,-32.7167
-147,-678,6.18677,32.9773,0.00200614,0.00726525,0.00178282,0.00781264,0.00145875,1.2729,0.00479669,0.00927843,1077,1702,6.18681,-32.9773
-140,-678,6.229,33.2393,0.00213123,0.00855966,0.00173324,0.00899719,0.0016937,1.32352,0.00552085,0.0112234,1084,1702,6.22896,-33.2393
-133,-678,6.25635,33.4871,0.00222205,0.00977919,0.00163518,0.0101178,0.00188342,1.36659,0.0062133,0.011957,1091,1702,6.2563,-33.487
-126,-678,6.26587,33.7395,0.0024037,0.0110002,0.00144959,0.0112381,0.00216585,1.40816,0.00688461,0.0111819,1098,1702,6.26583,-33.7396
-119,-678,6.29346,34.1805,0.00256069,0.0118349,0.00111308,0.0119666,0.00242897,1.45301,0.00730397,0.0300456,1105,1702,6.2935,-34.1806
-112,-678,6.31152,34.4949,0.00266592,0.0124286,0.000614485,0.0124671,0.00262739,1.50818,0.00758876,0.048101,1112,1702,6.31151,-34.4948
-105,-678,6.34949,34.7098,0.00274416,0.0124256,0.000174564,0.0124288,0.00274101,1.55277,0.00754011,0.0488767,1119,1702,6.34948,-34.7099
-98,-678,6.31506,34.7394,0.0026882,0.0123492,-0.000271361,0.0123568,0.00268059,-1.54274,0.00750563,0.0274075,1126,1702,6.31511,-34.7394
-91,-678,6.43872,34.7036,0,0,0,0,0,0,0,-1,1133,1702,6.43867,-34.7037
-84,-678,6.53101,35.1825,0,0,0,0,0,0,0,-1,1140,1702,6.531,-35.1825
-77,-678,5.95154,29.1879,0,0,0,0,0,0,0,-1,1147,1702,5.95156,-29.1878
-70,-678,4.75891,19.6552,0,0,0,0,0,0,0,-1,1154,1702,4.75895,-19.6551
-63,-678,3.41687,11.0365,0,0,0,0,0,0,0,-1,1161,1702,3.41682,-11.0365
-56,-678,1.72388,6.13159,0,0,0,0,0,0,0,-1,1168,1702,1.72388,-6.13157
-49,-678,-0.241699,5.29895,0,0,0,0,0,0,0,-1,1175,1702,-0.241682,-5.29897
-42,-678,0.297119,3.90649,0,0,0,0,0,0,0,-1,1182,1702,0.297139,-3.90655
-35,-678,0.498413,3.64038,0,0,0,0,0,0,0,-1,1189,1702,0.498471,-3.64038
-28,-678,0.132446,3.55994,0,0,0,0,0,0,0,-1,1196,1702,0.132432,-3.55993
-21,-678,6.74756,36.3793,0,0,0,0,0,0,0,-1,1203,1702,6.7475,-36.3793
-14,-678,6.67102,36.4446,0.0545036,0.0419024,0.0113013,0.061142,0.035264,0.531101,0.0354387,0.0380928,1210,1702,6.67097,-36.4445
-7,-678,6.60425,36.6459,0.0521117,0.0457887,0.0140776,0.0633785,0.0345219,0.674942,0.0366403,0.0393152,1217,1702,6.60422,-36.6459
0,-678,6.91016,36.8838,0.0499301,0.049563,0.0167412,0.0664887,0.0330044,0.779917,0.0383876,0.0445311,1224,1702,6.91016,-36.8838
7,-678,7.05176,37.1693,0.0471803,0.0530642,0.0196873,0.0700282,0.0302163,0.859566,0.0405571,0.0459933,1231,1702,7.05177,-37.1693
14,-678,7.14551,37.2665,0,0,0,0,0,0,0,-1,1238,1702,7.14553,-37.2665
21,-678,7.66345,37.4475,0.0405275,0.0560873,0.0256906,0.0751502,0.0214646,0.932424,0.0446976,0.0464339,1245,1702,7.66349,-37.4476
28,-678,7.89893,37.1157,0.0367591,0.0530011,0.0275512,0.0736032,0.016157,0.928719,0.0446681,0.0457169,1252,1702,7.89898,-37.1157
35,-678,7.43677,37.2545,0.0331547,0.0468307,0.0289935,0.0697816,0.0102038,0.901205,0.0435204,0.0447547,1259,1702,7.43681,-37.2546
42,-678,7.50928,37.7832,0.0299748,0.037054,0.0300349,0.0637572,0.00327167,0.844053,0.0414573,0.0465532,1266,1702,7.5093,-37.7832
49,-678,7.83508,38.0248,0,0,0,0,0,0,0,-1,1273,1702,7.83505,-38.0247
56,-678,7.81934,37.8771,0,0,0,0,0,0,0,-1,1280,1702,7.81927,-37.8771
63,-678,7.73718,37.5724,0,0,0,0,0,0,0,-1,1287,1702,7.73723,-37.5723
70,-678,8.13403,37.8955,0,0,0,0,0,0,0,-1,1294,1702,8.13405,-37.8955
77,-678,8.23547,38.0668,0,0,0,0,0,0,0,-1,1301,1702,8.23543,-38.0668
84,-678,8.18958,37.9814,0,0,0,0,0,0,0,-1,1308,1702,8.18959,-37.9815
91,-678,8.16492,37.1626,0,0,0,0,0,0,0,-1,1315,1702,8.16497,-37.1626
98,-678,9.32043,37.157,0,0,0,0,0,0,0,-1,1322,1702,9.32043,-37.157
105,-678,9.28613,36.994,0,0,0,0,0,0,0,-1,1329,1702,9.28616,-36.994
112,-678,9.26172,36.8439,0.018473,-0.050141,0.0162641,0.0221329,-0.0538009,0.221347,0.0450934,0.0435944,1336,1702,9.26172,-36.8438
119,-678,9.15637,36.6829,0.0189602,-0.0521126,0.0147563,0.0219022,-0.0550546,0.196789,0.0457846,0.0445072,1343,1702,9.15634,-36.6829
126,-678,8.47791,36.5704,0,0,0,0,0,0,0,-1,1350,1702,8.47785,-36.5705
133,-678,8.70032,35.8573,0,0,0,0,0,0,0,-1,1357,1702,8.70035,-35.8573
140,-678,8.75464,36.3275,0,0,0,0,0,0,0,-1,1364,1702,8.75461,-36.3275
147,-678,9.03052,36.7622,0,0,0,0,0,0,0,-1,1371,1702,9.03046,-36.7622
154,-678,9.37317,34.5052,0,0,0,0,0,0,0,-1,1378,1702,9.37315,-34.5053
161,-678,8.81226,34.8624,0,0,0,0,0,0,0,-1,1385,1702,8.81229,-34.8624
168,-678,4.21863,5.25781,0,0,0,0,0,0,0,-1,1392,1702,4.21865,-5.25781
175,-678,5.21899,5.9635,0,0,0,0,0,0,0,-1,1399,1702,5.21894,-5.96346
182,-678,7.31262,6.75122,0,0,0,0,0,0,0,-1,1406,1702,7.3126,-6.75123
189,-678,5.96021,6.36853,0,0,0,0,0,0,0,-1,1413,1702,5.96018,-6.36851
196,-678,5.01599,8.15771,0,0,0,0,0,0,0,-1,1420,1702,5.01596,-8.15767
203,-678,4.64771,13.0559,0,0,0,0,0,0,0,-1,1427,1702,4.64766,-13.0559
210,-678,5.6532,18.5957,0,0,0,0,0,0,0,-1,1434,1702,5.65318,-18.5958
217,-678,6.88049,23.4835,0,0,0,0,0,0,0,-1,1441,1702,6.88047,-23.4835
224,-678,8.521,32.0977,0,0,0,0,0,0,0,-1,1448,1702,8.52098,-32.0977
231,-678,8.85132,34.9434,0,0,0,0,0,0,0,-1,1455,1702,8.85128,-34.9433
238,-678,8.98938,34.6343,0,0,0,0,0,0,0,-1,1462,1702,8.98938,-34.6342
245,-678,9.04956,34.3301,0,0,0,0,0,0,0,-1,1469,1702,9.04952,-34.3301
252,-678,9.073,34.0994,0.00409879,0.00135772,-0.000552952,0.00420613,0.00125038,-0.191742,0.00249406,0.0290087,1476,1702,9.07299,-34.0993
259,-678,9.10193,33.9067,0.00409105,0.00128915,-0.000678656,0.00424678,0.00113343,-0.225555,0.00253915,0.0165129,1483,1702,9.10191,-33.9067
266,-678,9.1228,33.6876,0.00409711,0.00115112,-0.000778769,0.0042903,0.000957927,-0.243171,0.00260039,0.0113915,1490,1702,9.1228,-33.6876
273,-678,9.13037,33.4631,0.00406382,0.000981448,-0.000731355,0.00422855,0.000816722,-0.221537,0.00259007,0.0107479,1497,1702,9.13041,-33.4631
280,-678,9.11328,33.2212,0.00393792,0.000904885,-0.000687273,0.00408639,0.000756419,-0.212752,0.0025104,0.0114782,1504,1702,9.11328,-33.2212
287,-678,9.14063,32.9503,0.00374736,0.000734871,-0.000643033,0.00387888,0.000603354,-0.201744,0.00241011,0.0113194,1511,1702,9.14066,-32.9504
294,-678,9.14539,32.6729,0.00354011,0.000769856,-0.000688255,0.00370168,0.000608286,-0.230578,0.00229209,0.0118106,1518,1702,9.14541,-32.6728
301,-678,9.13501,32.4253,0.00335143,0.000761938,-0.000854961,0.00360824,0.000505128,-0.291802,0.00225605,0.0120032,1525,1702,9.13501,-32.4253
308,-678,9.16614,32.2034,0.0031711,0.000722334,-0.00105417,0.00356239,0.000331048,-0.355417,0.00227263,0.0139608,1532,1702,9.16608,-32.2034
315,-678,9.16113,31.936,0.00303874,0.000614296,-0.00129842,0.00360286,5.01788e-05,-0.409859,0.00238536,0.0155138,1539,1702,9.16112,-31.936
322,-678,9.1333,31.6581,0.00288508,0.000515315,-0.00152791,0.0036337,-0.000233307,-0.455589,0.00250386,0.0180309,1546,1702,9.13328,-31.6581
329,-678,9.12903,31.3549,0.0027566,0.000323886,-0.00177411,0.00369129,-0.000610803,-0.484895,0.00268769,0.0147538,1553,1702,9.12902,-31.3548
336,-678,9.12854,31.0509,0.00256341,2.57958e-06,-0.0019452,0.00361178,-0.00104579,-0.494324,0.0028218,0.0127397,1560,1702,9.12859,-31.0509
343,-678,9.14905,30.7501,0.00225752,-0.000314798,-0.00199962,0.0033489,-0.00140618,-0.499608,0.00282069,0.0127039,1567,1702,9.149,-30.7502
350,-678,9.16638,30.446,0.00198173,-0.000556417,-0.00178138,0.00289986,-0.00147455,-0.475895,0.00256986,0.013225,1574,1702,9.16641,-30.4461
357,-678,9.15271,30.1429,0.00185337,-0.00138605,-0.00148798,0.0024331,-0.00196578,-0.371518,0.00254447,0.0105241,1581,1702,9.1527,-30.143
364,-678,9.14404,29.8379,0.00199385,-0.00264737,-0.00129706,0.00233174,-0.00298525,-0.254838,0.00307749,0.0113166,1588,1702,9.14402,-29.8379
371,-678,9.1167,29.5144,0.00195273,-0.00379845,-0.000816081,0.00206629,-0.00391201,-0.138263,0.00350598,0.0118524,1595,1702,9.11666,-29.5144
378,-678,9.0885,29.1888,0.0019775,-0.00511326,-0.000166154,0.00198139,-0.00511715,-0.0234154,0.00422953,0.0134279,1602,1702,9.08853,-29.1889
385,-678,9.08923,28.8721,0.00223946,-0.00646553,0.000523575,0.00227084,-0.0064969,0.059859,0.00525441,0.0162558,1609,1702,9.08923,-28.8721
392,-678,9.10815,28.6255,0.00276561,-0.00855197,0.00107279,0.0028664,-0.00865276,0.0936777,0.00692463,0.0292485,1616,1702,9.10815,-28.6255
399,-678,9.12085,28.4612,0.00330178,-0.0106409,0.0015075,0.00346291,-0.010802,0.106482,0.00859149,0.0392884,1623,1702,9.12082,-28.4611
406,-678,9.09338,28.4025,0.00419972,-0.0124109,0.0020762,0.00445529,-0.0126664,0.122482,0.0102572,0.0466355,1630,1702,9.09337,-28.4024
413,-678,9.4917,28.1038,0.00579441,-0.0146844,0.00246656,0.00608731,-0.0149773,0.118193,0.0125174,0.0494427,1637,1702,9.49174,-28.1038
420,-678,9.85925,27.8353,0,0,0,0,0,0,0,-1,1644,1702,9.8593,-27.8353
427,-678,4.57483,10.1555,0,0,0,0,0,0,0,-1,1651,1702,4.57485,-10.1555
434,-678,9.48169,21.6665,0,0,0,0,0,0,0,-1,1658,1702,9.48169,-21.6665
441,-678,8.64539,21.1864,0,0,0,0,0,0,0,-1,1665,1702,8.64536,-21.1865
448,-678,7.62244,20.7195,0,0,0,0,0,0,0,-1,1672,1702,7.6224,-20.7195
455,-678,5.44678,5.54297,0,0,0,0,0,0,0,-1,1679,1702,5.44676,-5.54294
462,-678,3.86792,2.87402,0,0,0,0,0,0,0,-1,1686,1702,3.86796,-2.87406
469,-678,2.26587,1.98755,0,0,0,0,0,0,0,-1,1693,1702,2.26592,-1.98755
476,-678,0,0,0,0,0,0,0,0,0,-1,1700,1702,0,0
483,-678,0,0,0,0,0,0,0,0,0,-1,1707,1702,0,0
490,-678,0,0,0,0,0,0,0,0,0,-1,1714,1702,0,0
497,-678,0,0,0,0,0,0,0,0,0,-1,1721,1702,0,0
504,-678,0,0,0,0,0,0,0,0,0,-1,1728,1702,0,0
511,-678,0,0,0,0,0,0,0,0,0,-1,1735,1702,0,0
518,-678,0,0,0,0,0,0,0,0,0,-1,1742,1702,0,0
525,-678,0,0,0,0,0,0,0,0,0,-1,1749,1702,0,0
532,-678,0,0,0,0,0,0,0,0,0,-1,1756,1702,0,0
539,-678,0,0,0,0,0,0,0,0,0,-1,1763,1702,0,0
546,-678,0,0,0,0,0,0,0,0,0,-1,1770,1702,0,0
553,-678,0,0,0,0,0,0,0,0,0,-1,1777,1702,0,0
560,-678,0,0,0,0,0,0,0,0,0,-1,1784,1702,0,0
567,-678,0,0,0,0,0,0,0,0,0,-1,1791,1702,0,0
574,-678,0,0,0,0,0,0,0,0,0,-1,1798,1702,0,0
581,-678,0,0,0,0,0,0,0,0,0,-1,1805,1702,0,0
588,-678,0,0,0,0,0,0,0,0,0,-1,1812,1702,0,0
595,-678,0,0,0,0,0,0,0,0,0,-1,1819,1702,0,0
602,-678,0,0,0,0,0,0,0,0,0,-1,1826,1702,0,0
609,-678,0,0,0,0,0,0,0,0,0,-1,1833,1702,0,0
616,-678,0,0,0,0,0,0,0,0,0,-1,1840,1702,0,0
623,-678,0,0,0,0,0,0,0,0,0,-1,1847,1702,0,0
630,-678,0,0,0,0,0,0,0,0,0,-1,1854,1702,0,0
637,-678,0,0,0,0,0,0,0,0,0,-1,1861,1702,0,0
644,-678,0,0,0,0,0,0,0,0,0,-1,1868,1702,0,0
651,-678,0,0,0,0,0,0,0,0,0,-1,1875,1702,0,0
658,-678,0,0,0,0,0,0,0,0,0,-1,1882,1702,0,0
665,-678,0,0,0,0,0,0,0,0,0,-1,1889,1702,0,0
672,-678,0,0,0,0,0,0,0,0,0,-1,1896,1702,0,0
679,-678,0,0,0,0,0,0,0,0,0,-1,1903,1702,0,0
686,-678,0,0,0,0,0,0,0,0,0,-1,1910,1702,0,0
693,-678,0,0,0,0,0,0,0,0,0,-1,1917,1702,0,0
700,-678,0,0,0,0,0,0,0,0,0,-1,1924,1702,0,0
707,-678,0,0,0,0,0,0,0,0,0,-1,1931,1702,0,0
714,-678,0,0,0,0,0,0,0,0,0,-1,1938,1702,0,0
721,-678,0,0,0,0,0,0,0,0,0,-1,1945,1702,0,0
728,-678,0,0,0,0,0,0,0,0,0,-1,1952,1702,0,0
735,-678,0,0,0,0,0,0,0,0,0,-1,1959,1702,0,0
742,-678,0,0,0,0,0,0,0,0,0,-1,1966,1702,0,0
749,-678,0,0,0,0,0,0,0,0,0,-1,1973,1702,0,0
756,-678,0,0,0,0,0,0,0,0,0,-1,1980,1702,0,0
763,-678,0,0,0,0,0,0,0,0,0,-1,1987,1702,0,0
770,-678,0,0,0,0,0,0,0,0,0,-1,1994,1702,0,0
777,-678,0,0,0,0,0,0,0,0,0,-1,2001,1702,0,0
784,-678,0,0,0,0,0,0,0,0,0,-1,2008,1702,0,0
791,-678,0,0,0,0,0,0,0,0,0,-1,2015,1702,0,0
798,-678,0,0,0,0,0,0,0,0,0,-1,2022,1702,0,0
805,-678,0,0,0,0,0,0,0,0,0,-1,2029,1702,0,0
812,-678,0,0,0,0,0,0,0,0,0,-1,2036,1702,0,0
-700,-685,0,0,0,0,0,0,0,0,0,-1,524,1709,0,0
-693,-685,0,0,0,0,0,0,0,0,0,-1,531,1709,0,0
-686,-685,0,0,0,0,0,0,0,0,0,-1,538,1709,0,0
-679,-685,0,0,0,0,0,0,0,0,0,-1,545,1709,0,0
-672,-685,0,0,0,0,0,0,0,0,0,-1,552,1709,0,0
-665,-685,0,0,0,0,0,0,0,0,0,-1,559,1709,0,0
-658,-685,0,0,0,0,0,0,0,0,0,-1,566,1709,0,0
-651,-685,0,0,0,0,0,0,0,0,0,-1,573,1709,0,0
-644,-685,0,0,0,0,0,0,0,0,0,-1,580,1709,0,0
-637,-685,0,0,0,0,0,0,0,0,0,-1,587,1709,0,0
-630,-685,0,0,0,0,0,0,0,0,0,-1,594,1709,0,0
-623,-685,0,0,0,0,0,0,0,0,0,-1,601,1709,0,0
-616,-685,0,0,0,0,0,0,0,0,0,-1,608,1709,0,0
-609,-685,0,0,0,0,0,0,0,0,0,-1,615,1709,0,0
-602,-685,0,0,0,0,0,0,0,0,0,-1,622,1709,0,0
-595,-685,0,0,0,0,0,0,0,0,0,-1,629,1709,0,0
-588,-685,0,0,0,0,0,0,0,0,0,-1,636,1709,0,0
-581,-685,0,0,0,0,0,0,0,0,0,-1,643,1709,0,0
-574,-685,0,0,0,0,0,0,0,0,0,-1,650,1709,0,0
-567,-685,0,0,0,0,0,0,0,0,0,-1,657,1709,0,0
-560,-685,0,0,0,0,0,0,0,0,0,-1,664,1709,0,0
-553,-685,0,0,0,0,0,0,0,0,0,-1,671,1709,0,0
-546,-685,0,0,0,0,0,0,0,0,0,-1,678,1709,0,0
-539,-685,0,0,0,0,0,0,0,0,0,-1,685,1709,0,0
-532,-685,0,0,0,0,0,0,0,0,0,-1,692,1709,0,0
-525,-685,0,0,0,0,0,0,0,0,0,-1,699,1709,0,0
-518,-685,0,0,0,0,0,0,0,0,0,-1,706,1709,0,0
-511,-685,0,0,0,0,0,0,0,0,0,-1,713,1709,0,0
-504,-685,0,0,0,0,0,0,0,0,0,-1,720,1709,0,0
-497,-685,0,0,0,0,0,0,0,0,0,-1,727,1709,0,0
-490,-685,0,0,0,0,0,0,0,0,0,-1,734,1709,0,0
-483,-685,0,0,0,0,0,0,0,0,0,-1,741,1709,0,0
-476,-685,0,0,0,0,0,0,0,0,0,-1,748,1709,0,0
-469,-685,0,0,0,0,0,0,0,0,0,-1,755,1709,0,0
-462,-685,0,0,0,0,0,0,0,0,0,-1,762,1709,0,0
-455,-685,0,0,0,0,0,0,0,0,0,-1,769,1709,0,0
-448,-685,0,0,0,0,0,0,0,0,0,-1,776,1709,0,0
-441,-685,0,0,0,0,0,0,0,0,0,-1,783,1709,0,0
-434,-685,0,0,0,0,0,0,0,0,0,-1,790,1709,0,0
-427,-685,0,0,0,0,0,0,0,0,0,-1,797,1709,0,0
-420,-685,0,0,0,0,0,0,0,0,0,-1,804,1709,0,0
-413,-685,0,0,0,0,0,0,0,0,0,-1,811,1709,0,0
-406,-685,0,0,0,0,0,0,0,0,0,-1,818,1709,0,0
-399,-685,0,0,0,0,0,0,0,0,0,-1,825,1709,0,0
-392,-685,0,0,0,0,0,0,0,0,0,-1,832,1709,0,0
-385,-685,0,0,0,0,0,0,0,0,0,-1,839,1709,0,0
-378,-685,0,0,0,0,0,0,0,0,0,-1,846,1709,0,0
-371,-685,0,0,0,0,0,0,0,0,0,-1,853,1709,0,0
-364,-685,0,0,0,0,0,0,0,0,0,-1,860,1709,0,0
-357,-685,0,0,0,0,0,0,0,0,0,-1,867,1709,0,0
-350,-685,0,0,0,0,0,0,0,0,0,-1,874,1709,0,0
-343,-685,-5.98505,6.56335,0,0,0,0,0,0,0,-1,881,1709,-5.98505,-6.56329
-336,-685,-6.51312,5.10571,0,0,0,0,0,0,0,-1,888,1709,-6.51311,-5.10575
-329,-685,-6.81384,3.34106,0,0,0,0,0,0,0,-1,895,1709,-6.81385,-3.341
-322,-685,3.83191,16.7219,0,0,0,0,0,0,0,-1,902,1709,3.8319,-16.7219
-315,-685,5.15784,21.4388,0,0,0,0,0,0,0,-1,909,1709,5.15783,-21.4389
-308,-685,6.36969,21.0303,0,0,0,0,0,0,0,-1,916,1709,6.36968,-21.0302
-301,-685,7.26794,24.7709,0,0,0,0,0,0,0,-1,923,1709,7.26793,-24.7709
-294,-685,6.35797,25.969,0,0,0,0,0,0,0,-1,930,1709,6.35799,-25.969
-287,-685,6.71106,26.5927,0,0,0,0,0,0,0,-1,937,1709,6.71104,-26.5926
-280,-685,7.15149,27.3105,0,0,0,0,0,0,0,-1,944,1709,7.15151,-27.3105
-273,-685,7.11066,27.5011,-0.00847583,-0.00450868,-0.00576272,-0.000397709,-0.0125868,-0.951151,0.00826182,0.0441064,951,1709,7.11068,-27.5011
-266,-685,6.80231,27.8225,-0.00847373,-0.00293853,-0.00562624,0.000563969,-0.0119762,-1.01398,0.00817863,0.0428312,958,1709,6.80232,-27.8225
-259,-685,6.6604,28.1464,-0.00809291,-0.00174704,-0.00509211,0.00107978,-0.0109197,-1.06402,0.00766514,0.0414373,965,1709,6.66043,-28.1463
-252,-685,6.79126,28.4165,-0.00741331,-0.000761289,-0.0042148,0.00128177,-0.00945637,-1.11944,0.00677206,0.0337076,972,1709,6.79125,-28.4165
-245,-685,6.72418,28.7299,-0.00666642,-8.52358e-05,-0.00328446,0.00127344,-0.00802509,-1.17856,0.00582116,0.034863,979,1709,6.72417,-28.7298
-238,-685,6.6781,29.0695,-0.00594349,0.000435658,-0.00234985,0.0012078,-0.00671563,-1.25332,0.00492926,0.0280343,986,1709,6.67809,-29.0694
-231,-685,6.59229,29.436,-0.00495386,0.000859758,-0.0015781,0.00126051,-0.00535461,-1.32211,0.00405574,0.0166864,993,1709,6.59229,-29.4361
-224,-685,6.5387,29.74,-0.0040432,0.00116474,-0.000688048,0.00125411,-0.00413256,-1.44163,0.00325464,0.0140965,1000,1709,6.53867,-29.74
-217,-685,6.53839,30.0818,-0.00300626,0.00131049,0.000148184,0.00131557,-0.00301134,1.53652,0.00256129,0.0105359,1007,1709,6.53837,-30.0817
-210,-685,6.52991,30.424,-0.0019916,0.00133546,0.000812585,0.00152332,-0.00217946,1.34361,0.00214896,0.0146123,1014,1709,6.52988,-30.424
-203,-685,6.52649,30.7258,-0.00128185,0.00129432,0.00122958,0.00178697,-0.00177451,1.18971,0.00205623,0.0159895,1021,1709,6.52651,-30.7258
-196,-685,6.51099,31.0308,-0.000731826,0.00124952,0.0016162,0.00215451,-0.00163681,1.06035,0.00219571,0.0130687,1028,1709,6.51097,-31.0308
-189,-685,6.50598,31.3119,-0.000223391,0.00116129,0.00172969,0.00233205,-0.00139415,0.975767,0.00217392,0.00875738,1035,1709,6.50595,-31.3118
-182,-685,6.49683,31.5853,0.000199016,0.00146211,0.00167176,0.00261763,-0.000956509,0.965998,0.00213653,0.0132367,1042,1709,6.49689,-31.5853
-175,-685,6.48499,31.8593,0.000630098,0.00204121,0.0017401,0.00321336,-0.000542045,0.978004,0.00234391,0.012816,1049,1709,6.48494,-31.8592
-168,-685,6.47217,32.1775,0.000858396,0.00262009,0.00176389,0.00371084,-0.000232356,1.01697,0.00255487,0.00981314,1056,1709,6.47212,-32.1775
-161,-685,6.47107,32.4879,0.000997375,0.00326998,0.00167719,0.00415955,0.00010781,1.08313,0.0027378,0.0110089,1063,1709,6.47103,-32.4879
-154,-685,6.47705,32.7559,0.00114373,0.00423365,0.00157796,0.00489705,0.000480328,1.17281,0.00311695,0.010031,1070,1709,6.47709,-32.7558
-147,-685,6.46948,32.9908,0.00128646,0.00524303,0.0014189,0.00569927,0.000830219,1.2597,0.00355523,0.00891336,1077,1709,6.46942,-32.9909
-140,-685,6.46838,33.244,0.00143963,0.00629472,0.00131546,0.00662823,0.00110612,1.3225,0.00410015,0.0115353,1084,1709,6.46834,-33.244
-133,-685,6.49792,33.5063,0.00158867,0.00725493,0.00119551,0.00749684,0.00134675,1.37114,0.00461495,0.0110411,1091,1709,6.49795,-33.5063
-126,-685,6.51282,33.7377,0.0017852,0.00818039,0.00102385,0.00834031,0.00162529,1.41586,0.00510542,0.00927693,1098,1709,6.51287,-33.7377
-119,-685,6.53271,33.9537,0.00200462,0.00876834,0.000741729,0.00884873,0.00192424,1.46284,0.00537383,0.0128813,1105,1709,6.53271,-33.9538
-112,-685,6.54346,34.1945,0.00219146,0.00907288,0.000362197,0.00909189,0.00217245,1.51836,0.00548251,0.0132467,1112,1709,6.54351,-34.1945
-105,-685,6.52991,34.4215,0.0023424,0.00889055,2.34121e-05,0.00889063,0.00234232,1.56722,0.00532103,0.0132794,1119,1709,6.52987,-34.4215
-98,-685,6.60706,34.5973,0.00241972,0.00852655,-0.000298572,0.00854112,0.00240516,-1.52206,0.00508561,0.0176485,1126,1709,6.60708,-34.5972
-91,-685,6.5979,34.734,0.00258502,0.00797501,-0.000751276,0.00807777,0.00248226,-1.43486,0.00477777,0.026596,1133,1709,6.59787,-34.7341
-84,-685,6.58496,34.9103,0.00295211,0.00700688,-0.00110259,0.00728731,0.00267168,-1.32174,0.00425694,0.0460993,1140,1709,6.58494,-34.9102
-77,-685,6.67749,35.317,0,0,0,0,0,0,0,-1,1147,1709,6.67744,-35.317
-70,-685,6.70764,35.4296,0,0,0,0,0,0,0,-1,1154,1709,6.70769,-35.4296
-63,-685,6.03015,29.7728,0,0,0,0,0,0,0,-1,1161,1709,6.0302,-29.7728
-56,-685,3.93909,15.8704,0,0,0,0,0,0,0,-1,1168,1709,3.93905,-15.8704
-49,-685,3.07471,9.86011,0,0,0,0,0,0,0,-1,1175,1709,3.07467,-9.86009
-42,-685,2.70618,7.54504,0,0,0,0,0,0,0,-1,1182,1709,2.7062,-7.54504
-35,-685,2.95264,7.91516,0,0,0,0,0,0,0,-1,1189,1709,2.95262,-7.91517
-28,-685,6.96838,36.4146,0,0,0,0,0,0,0,-1,1196,1709,6.96836,-36.4146
-21,-685,6.95508,36.3673,0.0361773,0.0282881,0.0054944,0.0389965,0.0254689,0.474068,0.0228638,0.049373,1203,1709,6.9551,-36.3674
-14,-685,7.13879,36.4253,0.0370882,0.0320561,0.00796203,0.0429223,0.0262221,0.632361,0.0249836,0.0281638,1210,1709,7.13882,-36.4253
-7,-685,7.16699,36.6008,0.0356677,0.0357984,0.010567,0.0463003,0.0251659,0.788492,0.0267652,0.0426489,1217,1709,7.16705,-36.6008
0,-685,7.18372,36.7789,0.0344953,0.0389568,0.0127933,0.0497124,0.0237397,0.871716,0.0287111,0.0485532,1224,1709,7.1837,-36.7789
7,-685,7.20935,36.9285,0.0328199,0.041822,0.0151292,0.0531055,0.0215364,0.929984,0.0308423,0.0411489,1231,1709,7.20938,-36.9284
14,-685,7.33228,37.0017,0,0,0,0,0,0,0,-1,1238,1709,7.33226,-37.0017
21,-685,7.59521,37.1584,0.02881,0.0456688,0.019785,0.0587452,0.0157336,0.986778,0.0351142,0.0415812,1245,1709,7.59516,-37.1584
28,-685,7.64233,37.1829,0.0265958,0.0446911,0.0213693,0.0588491,0.0124377,0.985653,0.0358142,0.0453507,1252,1709,7.64229,-37.1828
35,-685,7.58337,37.1167,0.0244263,0.0412218,0.0226244,0.0569567,0.00869137,0.963107,0.0354312,0.0465031,1259,1709,7.5834,-37.1168
42,-685,7.61169,37.2988,0.0224822,0.0349779,0.0235452,0.0530901,0.00437002,0.915088,0.0340304,0.0490114,1266,1709,7.61165,-37.2989
49,-685,7.79407,37.3823,0,0,0,0,0,0,0,-1,1273,1709,7.79412,-37.3824
56,-685,7.74915,37.3583,0.0184405,0.020327,0.0234861,0.0428888,-0.00412124,0.805469,0.0300606,0.0452945,1280,1709,7.7492,-37.3583
63,-685,7.7627,37.2351,0.0163853,0.0110503,0.0225176,0.0363929,-0.00895727,0.726441,0.0277341,0.0448106,1287,1709,7.76272,-37.2351
70,-685,8.02649,37.389,0.0153953,0.00195387,0.0213015,0.0310112,-0.013662,0.632588,0.0264324,0.0464363,1294,1709,8.02654,-37.389
77,-685,8.07813,37.4243,0.0146803,-0.00756295,0.0200873,0.0265193,-0.0194019,0.532572,0.0266186,0.0476576,1301,1709,8.07815,-37.4243
84,-685,8.04724,37.3334,0,0,0,0,0,0,0,-1,1308,1709,8.04727,-37.3333
91,-685,8.12476,36.9907,0.0136666,-0.025113,0.0168791,0.0199842,-0.0314305,0.358142,0.0299285,0.0467137,1315,1709,8.12475,-36.9907
98,-685,8.07947,36.9277,0.0142727,-0.0324458,0.0151833,0.0187736,-0.0369467,0.288185,0.0327355,0.0388477,1322,1709,8.07942,-36.9277
105,-685,8.18872,36.8966,0,0,0,0,0,0,0,-1,1329,1709,8.18873,-36.8966
112,-685,8.11938,36.8179,0,0,0,0,0,0,0,-1,1336,1709,8.11935,-36.8179
119,-685,8.68945,36.6355,0.0154092,-0.0376571,0.0135078,0.0186497,-0.0408976,0.235448,0.0351704,0.0408741,1343,1709,8.68949,-36.6355
126,-685,8.35034,36.4855,0.0161275,-0.0394669,0.0127695,0.0189202,-0.0422597,0.215313,0.0361688,0.046561,1350,1709,8.3504,-36.4855
133,-685,8.45068,36.3231,0,0,0,0,0,0,0,-1,1357,1709,8.4507,-36.3231
140,-685,8.50671,36.4917,0.0181011,-0.0410193,0.0117054,0.0203343,-0.0432525,0.18852,0.0374983,0.0487631,1364,1709,8.50666,-36.4917
147,-685,8.6687,36.6613,0.0186608,-0.0405949,0.0108408,0.0205818,-0.0425159,0.175384,0.037156,0.0491623,1371,1709,8.66871,-36.6613
154,-685,8.3573,36.7422,0,0,0,0,0,0,0,-1,1378,1709,8.35735,-36.7422
161,-685,8.91675,36.5873,0,0,0,0,0,0,0,-1,1385,1709,8.91674,-36.5872
168,-685,4.37524,10.8778,0,0,0,0,0,0,0,-1,1392,1709,4.37525,-10.8778
175,-685,3.97522,8.94324,0,0,0,0,0,0,0,-1,1399,1709,3.97519,-8.94328
182,-685,3.98218,9.19739,0,0,0,0,0,0,0,-1,1406,1709,3.98221,-9.1974
189,-685,4.53479,15.2343,0,0,0,0,0,0,0,-1,1413,1709,4.53474,-15.2343
196,-685,8.63501,35.8545,0,0,0,0,0,0,0,-1,1420,1709,8.63501,-35.8545
203,-685,8.67822,35.5728,0,0,0,0,0,0,0,-1,1427,1709,8.67828,-35.5727
210,-685,8.85144,35.3607,0,0,0,0,0,0,0,-1,1434,1709,8.85148,-35.3607
217,-685,8.7688,35.0485,0,0,0,0,0,0,0,-1,1441,1709,8.76874,-35.0485
224,-685,8.6936,34.8794,0,0,0,0,0,0,0,-1,1448,1709,8.69361,-34.8793
231,-685,8.77246,34.8461,0.00317311,-0.000472564,0.000620251,0.00327575,-0.000575199,0.163989,0.00239867,0.0352634,1455,1709,8.77242,-34.8461
238,-685,8.80627,34.5426,0.0030888,-0.000182125,0.000105267,0.00309219,-0.000185509,0.0321384,0.00212599,0.0197772,1462,1709,8.80627,-34.5426
245,-685,8.84424,34.3093,0.00296115,0.00027507,-0.000185828,0.00297395,0.000262275,-0.0687454,0.00190125,0.0200671,1469,1709,8.84429,-34.3093
252,-685,8.85754,34.129,0.00287676,0.000624083,-0.0003482,0.00292935,0.000571489,-0.149912,0.00179302,0.0137381,1476,1709,8.85757,-34.129
259,-685,8.86414,33.9175,0.00291371,0.000654283,-0.000482086,0.00301228,0.000555721,-0.201668,0.00185096,0.0103189,1483,1709,8.86413,-33.9175
266,-685,8.88416,33.6852,0.00297676,0.000596985,-0.000585356,0.00311295,0.000460798,-0.22859,0.00194003,0.0119099,1490,1709,8.88412,-33.6852
273,-685,8.86853,33.438,0.00301756,0.00052024,-0.000603578,0.00315579,0.000382012,-0.225132,0.00198879,0.0137105,1497,1709,8.86851,-33.438
280,-685,8.85278,33.2043,0.00299663,0.000459484,-0.000632153,0.00314541,0.000310702,-0.23115,0.00200143,0.0153218,1504,1709,8.85284,-33.2043
287,-685,8.88293,32.9788,0.00295706,0.000393768,-0.000671517,0.00312232,0.000228503,-0.241312,0.00200972,0.0121457,1511,1709,8.8829,-32.9788
294,-685,8.88367,32.7238,0.00293165,0.00048781,-0.000806459,0.00317379,0.000245672,-0.291684,0.00203891,0.0107403,1518,1709,8.88361,-32.7238
301,-685,8.88049,32.4563,0.00293406,0.000465109,-0.00110472,0.00335619,4.29797e-05,-0.364993,0.00222327,0.0132337,1525,1709,8.88046,-32.4563
308,-685,8.88513,32.1989,0.00291714,0.000462469,-0.00142617,0.00357138,-0.000191768,-0.430096,0.00244735,0.0145398,1532,1709,8.88515,-32.1989
315,-685,8.90259,31.9508,0.00297145,0.000354207,-0.00181192,0.0038979,-0.000572241,-0.472653,0.00280885,0.013141,1539,1709,8.90264,-31.9508
322,-685,8.88733,31.6565,0.00299863,0.000295677,-0.00216881,0.00420258,-0.000908275,-0.506767,0.00314846,0.021061,1546,1709,8.88733,-31.6566
329,-685,8.87073,31.35,0.00304383,0.000113789,-0.0025249,0.00449795,-0.00134034,-0.522521,0.00353125,0.0189571,1553,1709,8.87073,-31.35
336,-685,8.86731,31.0397,0.00300855,-0.00026132,-0.00282261,0.00463554,-0.00188831,-0.522895,0.00387626,0.0129389,1560,1709,8.86732,-31.0397
343,-685,8.84729,30.749,0.0028223,-0.000628512,-0.00294693,0.00451177,-0.00231799,-0.520556,0.0040104,0.0117118,1567,1709,8.84731,-30.749
350,-685,8.84692,30.4432,0.00263574,-0.000864071,-0.00268349,0.00408948,-0.0023178,-0.496473,0.00374609,0.0121324,1574,1709,8.8469,-30.4432
357,-685,8.84473,30.1539,0.00260305,-0.0018147,-0.00230357,0.00358565,-0.00279731,-0.40319,0.00369456,0.0102843,1581,1709,8.84468,-30.1539
364,-685,8.83582,29.8595,0.00290708,-0.0033493,-0.00204213,0.00351465,-0.00395686,-0.289176,0.0043162,0.0103763,1588,1709,8.83576,-29.8595
371,-685,8.82703,29.5385,0.00294803,-0.00479965,-0.00138839,0.00318932,-0.00504094,-0.17207,0.00479166,0.0163106,1595,1709,8.82699,-29.5385
378,-685,8.76697,29.2076,0.00299612,-0.00647048,-0.000445268,0.00301702,-0.00649138,-0.0468977,0.00561051,0.0221148,1602,1709,8.76698,-29.2077
385,-685,8.6991,28.963,0.00331717,-0.00813306,0.000578266,0.0033463,-0.00816219,0.0503319,0.0068356,0.0393638,1609,1709,8.69913,-28.9631
392,-685,8.42749,28.5654,0.00396275,-0.0107377,0.00146028,0.0041064,-0.0108814,0.0980587,0.00894303,0.0444597,1616,1709,8.42747,-28.5654
399,-685,8.44495,28.3068,0.00468814,-0.0133766,0.00223513,0.00496058,-0.0136491,0.121292,0.0111278,0.0473419,1623,1709,8.44496,-28.3068
406,-685,8.94287,29.0076,0,0,0,0,0,0,0,-1,1630,1709,8.94286,-29.0075
413,-685,9.61035,28.5743,0,0,0,0,0,0,0,-1,1637,1709,9.61031,-28.5744
420,-685,4.84631,10.3781,0,0,0,0,0,0,0,-1,1644,1709,4.84634,-10.378
427,-685,6.05151,9.21155,0,0,0,0,0,0,0,-1,1651,1709,6.05156,-9.21156
434,-685,4.87769,8.91418,0,0,0,0,0,0,0,-1,1658,1709,4.87768,-8.91413
441,-685,5.62,8.75549,0,0,0,0,0,0,0,-1,1665,1709,5.61996,-8.75545
448,-685,6.4043,8.58972,0,0,0,0,0,0,0,-1,1672,1709,6.40435,-8.58971
455,-685,2.31958,4.09802,0,0,0,0,0,0,0,-1,1679,1709,2.31957,-4.09803
462,-685,0,0,0,0,0,0,0,0,0,-1,1686,1709,0,0
469,-685,0,0,0,0,0,0,0,0,0,-1,1693,1709,0,0
476,-685,0,0,0,0,0,0,0,0,0,-1,1700,1709,0,0
483,-685,0,0,0,0,0,0,0,0,0,-1,1707,1709,0,0
490,-685,0,0,0,0,0,0,0,0,0,-1,1714,1709,0,0
497,-685,0,0,0,0,0,0,0,0,0,-1,1721,1709,0,0
504,-685,0,0,0,0,0,0,0,0,0,-1,1728,1709,0,0
511,-685,0,0,0,0,0,0,0,0,0,-1,1735,1709,0,0
518,-685,0,0,0,0,0,0,0,0,0,-1,1742,1709,0,0
525,-685,0,0,0,0,0,0,0,0,0,-1,1749,1709,0,0
532,-685,0,0,0,0,0,0,0,0,0,-1,1756,1709,0,0
539,-685,0,0,0,0,0,0,0,0,0,-1,1763,1709,0,0
546,-685,0,0,0,0,0,0,0,0,0,-1,1770,1709,0,0
553,-685,0,0,0,0,0,0,0,0,0,-1,1777,1709,0,0
560,-685,0,0,0,0,0,0,0,0,0,-1,1784,1709,0,0
567,-685,0,0,0,0,0,0,0,0,0,-1,1791,1709,0,0
574,-685,0,0,0,0,0,0,0,0,0,-1,1798,1709,0,0
581,-685,0,0,0,0,0,0,0,0,0,-1,1805,1709,0,0
588,-685,0,0,0,0,0,0,0,0,0,-1,1812,1709,0,0
595,-685,0,0,0,0,0,0,0,0,0,-1,1819,1709,0,0
602,-685,0,0,0,0,0,0,0,0,0,-1,1826,1709,0,0
609,-685,0,0,0,0,0,0,0,0,0,-1,1833,1709,0,0
616,-685,0,0,0,0,0,0,0,0,0,-1,1840,1709,0,0
623,-685,0,0,0,0,0,0,0,0,0,-1,1847,1709,0,0
630,-685,0,0,0,0,0,0,0,0,0,-1,1854,1709,0,0
637,-685,0,0,0,0,0,0,0,0,0,-1,1861,1709,0,0
644,-685,0,0,0,0,0,0,0,0,0,-1,1868,1709,0,0
651,-685,0,0,0,0,0,0,0,0,0,-1,1875,1709,0,0
658,-685,0,0,0,0,0,0,0,0,0,-1,1882,1709,0,0
665,-685,0,0,0,0,0,0,0,0,0,-1,1889,1709,0,0
672,-685,0,0,0,0,0,0,0,0,0,-1,1896,1709,0,0
679,-685,0,0,0,0,0,0,0,0,0,-1,1903,1709,0,0
686,-685,0,0,0,0,0,0,0,0,0,-1,1910,1709,0,0
693,-685,0,0,0,0,0,0,0,0,0,-1,1917,1709,0,0
700,-685,0,0,0,0,0,0,0,0,0,-1,1924,1709,0,0
707,-685,0,0,0,0,0,0,0,0,0,-1,1931,1709,0,0
714,-685,0,0,0,0,0,0,0,0,0,-1,1938,1709,0,0
721,-685,0,0,0,0,0,0,0,0,0,-1,1945,1709,0,0
728,-685,0,0,0,0,0,0,0,0,0,-1,1952,1709,0,0
735,-685,0,0,0,0,0,0,0,0,0,-1,1959,1709,0,0
742,-685,0,0,0,0,0,0,0,0,0,-1,1966,1709,0,0
749,-685,0,0,0,0,0,0,0,0,0,-1,1973,1709,0,0
756,-685,0,0,0,0,0,0,0,0,0,-1,1980,1709,0,0
763,-685,0,0,0,0,0,0,0,0,0,-1,1987,1709,0,0
770,-685,0,0,0,0,0,0,0,0,0,-1,1994,1709,0,0
777,-685,0,0,0,0,0,0,0,0,0,-1,2001,1709,0,0
784,-685,0,0,0,0,0,0,0,0,0,-1,2008,1709,0,0
791,-685,0,0,0,0,0,0,0,0,0,-1,2015,1709,0,0
798,-685,0,0,0,0,0,0,0,0,0,-1,2022,1709,0,0
805,-685,0,0,0,0,0,0,0,0,0,-1,2029,1709,0,0
812,-685,0,0,0,0,0,0,0,0,0,-1,2036,1709,0,0
-700,-692,0,0,0,0,0,0,0,0,0,-1,524,1716,0,0
-693,-692,0,0,0,0,0,0,0,0,0,-1,531,1716,0,0
-686,-692,0,0,0,0,0,0,0,0,0,-1,538,1716,0,0
-679,-692,0,0,0,0,0,0,0,0,0,-1,545,1716,0,0
-672,-692,0,0,0,0,0,0,0,0,0,-1,552,1716,0,0
-665,-692,0,0,0,0,0,0,0,0,0,-1,559,1716,0,0
-658,-692,0,0,0,0,0,0,0,0,0,-1,566,1716,0,0
-651,-692,0,0,0,0,0,0,0,0,0,-1,573,1716,0,0
-644,-692,0,0,0,0,0,0,0,0,0,-1,580,1716,0,0
-637,-692,0,0,0,0,0,0,0,0,0,-1,587,1716,0,0
-630,-692,0,0,0,0,0,0,0,0,0,-1,594,1716,0,0
-623,-692,0,0,0,0,0,0,0,0,0,-1,601,1716,0,0
-616,-692,0,0,0,0,0,0,0,0,0,-1,608,1716,0,0
-609,-692,0,0,0,0,0,0,0,0,0,-1,615,1716,0,0
-602,-692,0,0,0,0,0,0,0,0,0,-1,622,1716,0,0
-595,-692,0,0,0,0,0,0,0,0,0,-1,629,1716,0,0
-588,-692,0,0,0,0,0,0,0,0,0,-1,636,1716,0,0
-581,-692,0,0,0,0,0,0,0,0,0,-1,643,1716,0,0
-574,-692,0,0,0,0,0,0,0,0,0,-1,650,1716,0,0
-567,-692,0,0,0,0,0,0,0,0,0,-1,657,1716,0,0
-560,-692,0,0,0,0,0,0,0,0,0,-1,664,1716,0,0
-553,-692,0,0,0,0,0,0,0,0,0,-1,671,1716,0,0
-546,-692,0,0,0,0,0,0,0,0,0,-1,678,1716,0,0
-539,-692,0,0,0,0,0,0,0,0,0,-1,685,1716,0,0
-532,-692,0,0,0,0,0,0,0,0,0,-1,692,1716,0,0
-525,-692,0,0,0,0,0,0,0,0,0,-1,699,1716,0,0
-518,-692,0,0,0,0,0,0,0,0,0,-1,706,1716,0,0
-511,-692,0,0,0,0,0,0,0,0,0,-1,713,1716,0,0
-504,-692,0,0,0,0,0,0,0,0,0,-1,720,1716,0,0
-497,-692,0,0,0,0,0,0,0,0,0,-1,727,1716,0,0
-490,-692,0,0,0,0,0,0,0,0,0,-1,734,1716,0,0
-483,-692,0,0,0,0,0,0,0,0,0,-1,741,1716,0,0
-476,-692,0,0,0,0,0,0,0,0,0,-1,748,1716,0,0
-469,-692,0,0,0,0,0,0,0,0,0,-1,755,1716,0,0
-462,-692,0,0,0,0,0,0,0,0,0,-1,762,1716,0,0
-455,-692,0,0,0,0,0,0,0,0,0,-1,769,1716,0,0
-448,-692,0,0,0,0,0,0,0,0,0,-1,776,1716,0,0
-441,-692,0,0,0,0,0,0,0,0,0,-1,783,1716,0,0
-434,-692,0,0,0,0,0,0,0,0,0,-1,790,1716,0,0
-427,-692,0,0,0,0,0,0,0,0,0,-1,797,1716,0,0
-420,-692,0,0,0,0,0,0,0,0,0,-1,804,1716,0,0
-413,-692,0,0,0,0,0,0,0,0,0,-1,811,1716,0,0
-406,-692,0,0,0,0,0,0,0,0,0,-1,818,1716,0,0
-399,-692,0,0,0,0,0,0,0,0,0,-1,825,1716,0,0
-392,-692,0,0,0,0,0,0,0,0,0,-1,832,1716,0,0
-385,-692,0,0,0,0,0,0,0,0,0,-1,839,1716,0,0
-378,-692,0,0,0,0,0,0,0,0,0,-1,846,1716,0,0
-371,-692,0,0,0,0,0,0,0,0,0,-1,853,1716,0,0
-364,-692,0,0,0,0,0,0,0,0,0,-1,860,1716,0,0
-357,-692,0,0,0,0,0,0,0,0,0,-1,867,1716,0,0
-350,-692,0,0,0,0,0,0,0,0,0,-1,874,1716,0,0
-343,-692,0,0,0,0,0,0,0,0,0,-1,881,1716,0,0
-336,-692,0,0,0,0,0,0,0,0,0,-1,888,1716,0,0
-329,-692,3.03107,4.10266,0,0,0,0,0,0,0,-1,895,1716,3.03105,-4.10267
-322,-692,4.43713,18.5242,0,0,0,0,0,0,0,-1,902,1716,4.43711,-18.5241
-315,-692,5.38965,17.975,0,0,0,0,0,0,0,-1,909,1716,5.38963,-17.975
-308,-692,5.86938,17.4392,0,0,0,0,0,0,0,-1,916,1716,5.86937,-17.4392
-301,-692,8.65558,20.7662,0,0,0,0,0,0,0,-1,923,1716,8.65556,-20.7663
-294,-692,7.04529,27.412,0,0,0,0,0,0,0,-1,930,1716,7.04529,-27.412
-287,-692,7.18573,26.4318,0,0,0,0,0,0,0,-1,937,1716,7.1857,-26.4318
-280,-692,6.84235,26.2404,0,0,0,0,0,0,0,-1,944,1716,6.84233,-26.2403
-273,-692,7.43402,27.4434,0,0,0,0,0,0,0,-1,951,1716,7.43402,-27.4434
-266,-692,7.11609,27.8944,0,0,0,0,0,0,0,-1,958,1716,7.11612,-27.8944
-259,-692,7.18134,28.1036,0,0,0,0,0,0,0,-1,965,1716,7.18134,-28.1036
-252,-692,7.32269,28.3502,-0.00974731,0.00012177,-0.00567551,0.00270794,-0.0123335,-1.14324,0.00925794,0.0487037,972,1716,7.32272,-28.3502
-245,-692,7.21539,28.3392,-0.0087662,0.000760064,-0.00424021,0.00237399,-0.0103801,-1.20711,0.00783227,0.0492421,979,1716,7.21539,-28.3393
-238,-692,7.16248,29.0667,-0.00784636,0.0011581,-0.00287695,0.0019988,-0.00868707,-1.28649,0.00655995,0.0465601,986,1716,7.16249,-29.0667
-231,-692,7.01605,29.5458,-0.00644266,0.00149557,-0.00174775,0.00186333,-0.00681042,-1.3634,0.00527231,0.0370074,993,1716,7.01605,-29.5458
-224,-692,6.85376,29.7872,-0.00526425,0.00165489,-0.000558217,0.00169963,-0.00530899,-1.49081,0.0042215,0.0179976,1000,1716,6.85377,-29.7872
-217,-692,6.83997,30.0664,-0.00395716,0.0016489,0.000473807,0.00168867,-0.00399692,1.48707,0.00337154,0.0118218,1007,1716,6.83995,-30.0664
-210,-692,6.83655,30.3873,-0.00270651,0.00144701,0.00130112,0.00182093,-0.00308044,1.29095,0.00286078,0.012642,1014,1716,6.83655,-30.3873
-203,-692,6.84326,30.6924,-0.00186157,0.0012077,0.00178113,0.00202414,-0.002678,1.141,0.00272352,0.0151451,1021,1716,6.8433,-30.6924
-196,-692,6.81396,31.038,-0.00124832,0.00102144,0.00216433,0.00233038,-0.00255726,1.02687,0.0028229,0.0173867,1028,1716,6.81402,-31.0379
-189,-692,6.78052,31.3015,-0.000688877,0.00075611,0.00222302,0.0023711,-0.00230387,0.942516,0.00269918,0.00884232,1035,1716,6.78055,-31.3016
-182,-692,6.76758,31.5946,-0.000296975,0.000935163,0.00205154,0.00246114,-0.00182296,0.931262,0.00248256,0.0130628,1042,1716,6.76756,-31.5946
-175,-692,6.74976,31.887,0.000104898,0.00138215,0.00202122,0.00286324,-0.00137619,0.938415,0.00249732,0.0140153,1049,1716,6.74976,-31.887
-168,-692,6.75952,32.1846,0.000297818,0.00177284,0.00193709,0.00310807,-0.00103741,0.967292,0.00249093,0.0111137,1056,1716,6.7595,-32.1846
-161,-692,6.77588,32.4968,0.000383982,0.00216581,0.00171827,0.00321041,-0.00066061,1.02457,0.00239109,0.0135022,1063,1716,6.77586,-32.4968
-154,-692,6.75342,32.79,0.000466196,0.00289202,0.00150007,0.00360819,-0.000249977,1.12537,0.00249297,0.0143658,1070,1716,6.75337,-32.7901
-147,-692,6.75342,33.0256,0.000551952,0.00365447,0.00125518,0.00409868,0.000107743,1.23065,0.00269726,0.0130236,1077,1716,6.75341,-33.0257
-140,-692,6.74146,33.2577,0.000688241,0.00451438,0.00109993,0.00480804,0.000394573,1.3099,0.00308227,0.0105061,1084,1716,6.74148,-33.2577
-133,-692,6.74182,33.509,0.00084922,0.00528471,0.000961669,0.00548424,0.000649693,1.36622,0.00345999,0.0101027,1091,1716,6.74183,-33.509
-126,-692,6.75598,33.7458,0.000996861,0.00601386,0.000805555,0.00614003,0.000870691,1.41543,0.0038362,0.00779573,1098,1716,6.75596,-33.7459
-119,-692,6.75732,33.9811,0.00123598,0.00648476,0.00056784,0.00654549,0.00117525,1.46425,0.00402945,0.0111093,1105,1716,6.75737,-33.9811
-112,-692,6.76355,34.1991,0.00146063,0.00668985,0.000273878,0.00670415,0.00144632,1.51861,0.00407383,0.0110257,1112,1716,6.76352,-34.1991
-105,-692,6.78821,34.4163,0.00162925,0.00656809,-1.48889e-05,0.00656813,0.0016292,-1.56778,0.00394934,0.0156242,1119,1716,6.7882,-34.4162
-98,-692,6.83923,34.6071,0.00176121,0.00625814,-0.000260321,0.00627316,0.00174619,-1.51316,0.00373854,0.0170653,1126,1716,6.8392,-34.607
-91,-692,6.82336,34.78,0.00195827,0.00578063,-0.000578324,0.00586621,0.00187268,-1.42388,0.00345986,0.0191927,1133,1716,6.82334,-34.78
-84,-692,6.82202,34.9543,0.00228401,0.00501597,-0.000833134,0.00524999,0.00204998,-1.29696,0.00305523,0.0219167,1140,1716,6.82204,-34.9543
-77,-692,6.85352,35.2111,0.00257338,0.00427759,-0.00134915,0.00502119,0.00182978,-1.06706,0.0029343,0.018235,1147,1716,6.85352,-35.211
-70,-692,6.88354,35.3478,0.00331716,0.00312698,-0.00210638,0.0053306,0.00111355,-0.762842,0.00324684,0.0326755,1154,1716,6.8836,-35.3477
-63,-692,6.90332,35.493,0,0,0,0,0,0,0,-1,1161,1716,6.90329,-35.4931
-56,-692,6.88525,35.7002,0,0,0,0,0,0,0,-1,1168,1716,6.88523,-35.7002
-49,-692,6.89587,35.9314,0,0,0,0,0,0,0,-1,1175,1716,6.89591,-35.9314
-42,-692,6.9873,36.1968,0,0,0,0,0,0,0,-1,1182,1716,6.98732,-36.1968
-35,-692,7.08984,36.3428,0,0,0,0,0,0,0,-1,1189,1716,7.08981,-36.3428
-28,-692,7.06494,36.3961,0.0204309,0.0163497,0.00161187,0.0209907,0.0157899,0.334277,0.0126225,0.0479982,1196,1716,7.06491,-36.3961
-21,-692,7.14856,36.3158,0.0220254,0.0190772,0.00244889,0.0234096,0.017693,0.514475,0.0140928,0.0314213,1203,1716,7.14858,-36.3158
-14,-692,7.20325,36.4149,0.0230161,0.0225039,0.00462009,0.0273872,0.0181329,0.75771,0.0160866,0.0159845,1210,1716,7.2032,-36.415
-7,-692,7.23962,36.5576,0.0224818,0.0258586,0.00687413,0.0312486,0.0170918,0.905821,0.0180679,0.0158548,1217,1716,7.23957,-36.5576
0,-692,7.25085,36.6595,0.0220996,0.0285282,0.00872781,0.0346148,0.016013,0.961832,0.0200035,0.0195798,1224,1716,7.25089,-36.6595
7,-692,7.30615,36.7208,0.0213075,0.0312464,0.0106107,0.0379937,0.0145602,1.0044,0.0221342,0.0222062,1231,1716,7.30618,-36.7208
14,-692,7.40149,36.9083,0.0203025,0.0337872,0.0124566,0.0412092,0.0128805,1.03346,0.024343,0.0240382,1238,1716,7.40149,-36.9083
21,-692,7.5144,36.9786,0.0191996,0.0355556,0.0142228,0.0437839,0.0109713,1.04631,0.0263062,0.0255788,1245,1716,7.51445,-36.9786
28,-692,7.51807,36.9185,0.0179931,0.0361567,0.0155718,0.0451016,0.00904827,1.04939,0.0275514,0.028049,1252,1716,7.51806,-36.9184
35,-692,7.54102,37.0195,0.0167723,0.0351646,0.0166472,0.0449868,0.00695012,1.03775,0.0279639,0.026075,1259,1716,7.54099,-37.0195
42,-692,7.63135,37.1952,0.0156101,0.0320852,0.0174375,0.0431329,0.00456234,1.00606,0.0273616,0.0245892,1266,1716,7.63131,-37.1952
49,-692,7.70935,37.1804,0.0143224,0.02855,0.0175368,0.040361,0.00251144,0.978082,0.0261105,0.0315368,1273,1716,7.70932,-37.1804
56,-692,7.70081,37.1226,0.013002,0.0237411,0.0174105,0.0365913,0.000151807,0.934974,0.0243437,0.0381955,1280,1716,7.70081,-37.1226
63,-692,7.72986,37.0986,0.0116412,0.0173128,0.016621,0.0313381,-0.00238422,0.869892,0.0217305,0.0373375,1287,1716,7.72981,-37.0987
70,-692,7.81104,37.1761,0.0108691,0.0103204,0.015743,0.0263401,-0.00515063,0.776685,0.019505,0.0330742,1294,1716,7.81105,-37.1762
77,-692,7.9281,37.1975,0.0101927,0.00283381,0.01481,0.0217735,-0.00874699,0.663642,0.0181481,0.0367812,1301,1716,7.9281,-37.1975
84,-692,7.9967,37.1,0.00975395,-0.00459697,0.0139502,0.0182659,-0.0131089,0.547863,0.0181957,0.0432164,1308,1716,7.99676,-37.0999
91,-692,7.94702,37.0298,0.00937251,-0.0116986,0.0124257,0.015128,-0.0174541,0.433767,0.0188272,0.0408934,1315,1716,7.94707,-37.0298
98,-692,8.01196,36.9636,0.00981838,-0.0177814,0.0113139,0.0138634,-0.0218264,0.343365,0.0207758,0.0328028,1322,1716,8.01194,-36.9637
105,-692,8.05237,36.9114,0.00992524,-0.0196358,0.0111366,0.0136511,-0.0233617,0.322857,0.0216131,0.0378846,1329,1716,8.05235,-36.9114
112,-692,8.06506,36.8546,0.0103252,-0.0212192,0.0111169,0.0138493,-0.0247434,0.306985,0.0225755,0.0401549,1336,1716,8.06505,-36.8546
119,-692,8.09705,36.7937,0.0107111,-0.022472,0.011005,0.0140291,-0.0257899,0.29283,0.0233214,0.0329875,1343,1716,8.0971,-36.7938
126,-692,8.13403,36.6447,0.011166,-0.0235549,0.0107234,0.0142109,-0.0265998,0.276663,0.0239212,0.0337667,1350,1716,8.13398,-36.6447
133,-692,8.22583,36.5807,0.0118387,-0.0240069,0.0106246,0.0147511,-0.0269194,0.267553,0.024398,0.0276101,1357,1716,8.22584,-36.5807
140,-692,8.27283,36.6289,0.0125145,-0.023293,0.0103895,0.0153106,-0.0260891,0.262903,0.0241707,0.0309988,1364,1716,8.27283,-36.6289
147,-692,8.30664,36.6654,0.0128773,-0.0218759,0.00990763,0.0155034,-0.024502,0.259099,0.023291,0.0345646,1371,1716,8.3066,-36.6654
154,-692,8.23682,36.5106,0.0129566,-0.0205451,0.00965378,0.0155394,-0.0231278,0.261411,0.0224673,0.0301447,1378,1716,8.23686,-36.5107
161,-692,8.54993,36.4348,0.0126051,-0.0184924,0.00917156,0.0151086,-0.0209958,0.266464,0.020937,0.0381838,1385,1716,8.54993,-36.4348
168,-692,8.77808,36.423,0,0,0,0,0,0,0,-1,1392,1716,8.77814,-36.423
175,-692,8.4585,36.1147,0,0,0,0,0,0,0,-1,1399,1716,8.45853,-36.1147
182,-692,8.43738,35.9237,0,0,0,0,0,0,0,-1,1406,1716,8.43736,-35.9237
189,-692,8.59656,35.8557,0,0,0,0,0,0,0,-1,1413,1716,8.59659,-35.8557
196,-692,8.50659,35.6429,0.00575642,0.000311676,0.00340469,0.00739332,-0.00132522,0.448151,0.00542484,0.0366629,1420,1716,8.50653,-35.643
203,-692,8.53235,35.5001,0.00452072,0.00128788,0.00193238,0.0054236,0.000384991,0.437098,0.00349448,0.0243954,1427,1716,8.5324,-35.5001
210,-692,8.5946,35.3518,0.00373873,0.000279693,0.00170701,0.00443926,-0.000420833,0.389424,0.00310929,0.0204216,1434,1716,8.59458,-35.3518
217,-692,8.56909,35.1302,0.00281078,-0.000439922,0.00107819,0.00313588,-0.000765024,0.292855,0.00238682,0.0178266,1441,1716,8.56913,-35.1302
224,-692,8.55627,34.9425,0.00251408,-0.000552618,0.000877692,0.00274751,-0.000786046,0.25994,0.00214231,0.0140015,1448,1716,8.55632,-34.9425
231,-692,8.56104,34.7584,0.00236305,-0.000543322,0.000421031,0.00242281,-0.000603086,0.141004,0.00184931,0.0114017,1455,1716,8.56101,-34.7584
238,-692,8.56067,34.5323,0.00224655,-0.000288685,5.42568e-05,0.00224771,-0.000289846,0.021388,0.00160384,0.0172374,1462,1716,8.5607,-34.5323
245,-692,8.58508,34.3175,0.00214527,7.67157e-05,-0.000169072,0.00215899,6.29879e-05,-0.0810181,0.0014188,0.0202596,1469,1716,8.58512,-34.3175
252,-692,8.63184,34.1158,0.00209344,0.000355879,-0.000317864,0.00214976,0.000299556,-0.175373,0.00134449,0.0187066,1476,1716,8.63188,-34.1159
259,-692,8.62964,33.9321,0.00213044,0.000424023,-0.000425291,0.00223056,0.000323902,-0.231208,0.0013917,0.00996872,1483,1716,8.6296,-33.9321
266,-692,8.61658,33.707,0.00221487,0.000428283,-0.000522004,0.00235621,0.000286945,-0.26442,0.00148443,0.00989973,1490,1716,8.61659,-33.707
273,-692,8.60706,33.4382,0.00231113,0.000414684,-0.00059606,0.00248291,0.0002429,-0.280594,0.00158054,0.0137678,1497,1716,8.60709,-33.4383
280,-692,8.62793,33.2026,0.00237757,0.000338713,-0.000689533,0.00258887,0.000127414,-0.297352,0.00168505,0.0130002,1504,1716,8.62794,-33.2026
287,-692,8.64673,32.9891,0.00247336,0.000348435,-0.000810327,0.00274711,7.46887e-05,-0.325786,0.00180703,0.0108252,1511,1716,8.6467,-32.9891
294,-692,8.63611,32.7455,0.00262615,0.000466434,-0.00103216,0.00304009,5.24902e-05,-0.381409,0.00200946,0.0109211,1518,1716,8.6361,-32.7455
301,-692,8.62366,32.486,0.00283335,0.000390055,-0.0014681,0.00352161,-0.000298205,-0.438385,0.00245319,0.0137857,1525,1716,8.62371,-32.486
308,-692,8.60669,32.2418,0.00299601,0.000355371,-0.00191147,0.00399882,-0.000647446,-0.483158,0.00290584,0.0166587,1532,1716,8.60666,-32.2418
315,-692,8.62415,31.9763,0.00324934,0.000212077,-0.00245195,0.00461485,-0.00115343,-0.508133,0.00352453,0.0157021,1539,1716,8.62409,-31.9763
322,-692,8.58667,31.6466,0.00346386,0.000208867,-0.00295167,0.00520699,-0.00153426,-0.533447,0.00408006,0.021015,1546,1716,8.58672,-31.6466
329,-692,8.55334,31.3351,0.00370164,5.1519e-05,-0.00343667,0.00576779,-0.00201464,-0.541308,0.00466411,0.0182588,1553,1716,8.55335,-31.3351
336,-692,8.57385,31.0667,0.00386499,-0.000376635,-0.00389166,0.0061762,-0.00268785,-0.535914,0.0052481,0.0118911,1560,1716,8.57384,-31.0666
343,-692,8.5752,30.7944,0.00383179,-0.000822632,-0.00414419,0.0062575,-0.00324833,-0.52956,0.0055791,0.0127404,1567,1716,8.5752,-30.7944
350,-692,8.55701,30.4882,0.00376988,-0.00106342,-0.00386418,0.00591087,-0.00320441,-0.505956,0.00533948,0.0153458,1574,1716,8.55703,-30.4882
357,-692,8.51929,30.121,0.00388521,-0.00214667,-0.0033979,0.00541257,-0.00367403,-0.42244,0.00527806,0.0198958,1581,1716,8.51927,-30.121
364,-692,8.53308,29.7853,0.00443514,-0.00406752,-0.00305673,0.00541998,-0.00505235,-0.311684,0.00604744,0.0239602,1588,1716,8.53306,-29.7853
371,-692,8.53491,29.526,0.00461835,-0.00601885,-0.00217912,0.00504745,-0.00644795,-0.194427,0.00665327,0.0373776,1595,1716,8.53488,-29.5259
378,-692,8.55078,29.1921,0,0,0,0,0,0,0,-1,1602,1716,8.55075,-29.1922
385,-692,8.29504,29.0693,0,0,0,0,0,0,0,-1,1609,1716,8.29502,-29.0694
392,-692,7.60901,28.3328,0,0,0,0,0,0,0,-1,1616,1716,7.60905,-28.3328
399,-692,7.61548,27.9902,0,0,0,0,0,0,0,-1,1623,1716,7.61552,-27.9902
406,-692,7.84009,28.0695,0,0,0,0,0,0,0,-1,1630,1716,7.8401,-28.0694
413,-692,4.25085,10.5685,0,0,0,0,0,0,0,-1,1637,1716,4.2508,-10.5685
420,-692,5.48901,10.4845,0,0,0,0,0,0,0,-1,1644,1716,5.48906,-10.4845
427,-692,3.79578,8.60339,0,0,0,0,0,0,0,-1,1651,1716,3.79577,-8.6034
434,-692,4.78516,8.64636,0,0,0,0,0,0,0,-1,1658,1716,4.78512,-8.64634
441,-692,5.8208,8.74036,0,0,0,0,0,0,0,-1,1665,1716,5.82084,-8.7404
448,-692,6.73792,8.51013,0,0,0,0,0,0,0,-1,1672,1716,6.73793,-8.5101
455,-692,0,0,0,0,0,0,0,0,0,-1,1679,1716,0,0
462,-692,0,0,0,0,0,0,0,0,0,-1,1686,1716,0,0
469,-692,0,0,0,0,0,0,0,0,0,-1,1693,1716,0,0
476,-692,0,0,0,0,0,0,0,0,0,-1,1700,1716,0,0
483,-692,0,0,0,0,0,0,0,0,0,-1,1707,1716,0,0
490,-692,0,0,0,0,0,0,0,0,0,-1,1714,1716,0,0
497,-692,0,0,0,0,0,0,0,0,0,-1,1721,1716,0,0
504,-692,0,0,0,0,0,0,0,0,0,-1,1728,1716,0,0
511,-692,0,0,0,0,0,0,0,0,0,-1,1735,1716,0,0
518,-692,0,0,0,0,0,0,0,0,0,-1,1742,1716,0,0
525,-692,0,0,0,0,0,0,0,0,0,-1,1749,1716,0,0
532,-692,0,0,0,0,0,0,0,0,0,-1,1756,1716,0,0
539,-692,0,0,0,0,0,0,0,0,0,-1,1763,1716,0,0
546,-692,0,0,0,0,0,0,0,0,0,-1,1770,1716,0,0
553,-692,0,0,0,0,0,0,0,0,0,-1,1777,1716,0,0
560,-692,0,0,0,0,0,0,0,0,0,-1,1784,1716,0,0
567,-692,0,0,0,0,0,0,0,0,0,-1,1791,1716,0,0
574,-692,0,0,0,0,0,0,0,0,0,-1,1798,1716,0,0
581,-692,0,0,0,0,0,0,0,0,0,-1,1805,1716,0,0
588,-692,0,0,0,0,0,0,0,0,0,-1,1812,1716,0,0
595,-692,0,0,0,0,0,0,0,0,0,-1,1819,1716,0,0
602,-692,0,0,0,0,0,0,0,0,0,-1,1826,1716,0,0
609,-692,0,0,0,0,0,0,0,0,0,-1,1833,1716,0,0
616,-692,0,0,0,0,0,0,0,0,0,-1,1840,1716,0,0
623,-692,0,0,0,0,0,0,0,0,0,-1,1847,1716,0,0
630,-692,0,0,0,0,0,0,0,0,0,-1,1854,1716,0,0
637,-692,0,0,0,0,0,0,0,0,0,-1,1861,1716,0,0
644,-692,0,0,0,0,0,0,0,0,0,-1,1868,1716,0,0
651,-692,0,0,0,0,0,0,0,0,0,-1,1875,1716,0,0
658,-692,0,0,0,0,0,0,0,0,0,-1,1882,1716,0,0
665,-692,0,0,0,0,0,0,0,0,0,-1,1889,1716,0,0
672,-692,0,0,0,0,0,0,0,0,0,-1,1896,1716,0,0
679,-692,0,0,0,0,0,0,0,0,0,-1,1903,1716,0,0
686,-692,0,0,0,0,0,0,0,0,0,-1,1910,1716,0,0
693,-692,0,0,0,0,0,0,0,0,0,-1,1917,1716,0,0
700,-692,0,0,0,0,0,0,0,0,0,-1,1924,1716,0,0
707,-692,0,0,0,0,0,0,0,0,0,-1,1931,1716,0,0
714,-692,0,0,0,0,0,0,0,0,0,-1,1938,1716,0,0
721,-692,0,0,0,0,0,0,0,0,0,-1,1945,1716,0,0
728,-692,0,0,0,0,0,0,0,0,0,-1,1952,1716,0,0
735,-692,0,0,0,0,0,0,0,0,0,-1,1959,1716,0,0
742,-692,0,0,0,0,0,0,0,0,0,-1,1966,1716,0,0
749,-692,0,0,0,0,0,0,0,0,0,-1,1973,1716,0,0
756,-692,0,0,0,0,0,0,0,0,0,-1,1980,1716,0,0
763,-692,0,0,0,0,0,0,0,0,0,-1,1987,1716,0,0
770,-692,0,0,0,0,0,0,0,0,0,-1,1994,1716,0,0
777,-692,0,0,0,0,0,0,0,0,0,-1,2001,1716,0,0
784,-692,0,0,0,0,0,0,0,0,0,-1,2008,1716,0,0
791,-692,0,0,0,0,0,0,0,0,0,-1,2015,1716,0,0
798,-692,0,0,0,0,0,0,0,0,0,-1,2022,1716,0,0
805,-692,0,0,0,0,0,0,0,0,0,-1,2029,1716,0,0
812,-692,0,0,0,0,0,0,0,0,0,-1,2036,1716,0,0
-700,-699,0,0,0,0,0,0,0,0,0,-1,524,1723,0,0
-693,-699,0,0,0,0,0,0,0,0,0,-1,531,1723,0,0
-686,-699,0,0,0,0,0,0,0,0,0,-1,538,1723,0,0
-679,-699,0,0,0,0,0,0,0,0,0,-1,545,1723,0,0
-672,-699,0,0,0,0,0,0,0,0,0,-1,552,1723,0,0
-665,-699,0,0,0,0,0,0,0,0,0,-1,559,1723,0,0
-658,-699,0,0,0,0,0,0,0,0,0,-1,566,1723,0,0
-651,-699,0,0,0,0,0,0,0,0,0,-1,573,1723,0,0
-644,-699,0,0,0,0,0,0,0,0,0,-1,580,1723,0,0
-637,-699,0,0,0,0,0,0,0,0,0,-1,587,1723,0,0
-630,-699,0,0,0,0,0,0,0,0,0,-1,594,1723,0,0
-623,-699,0,0,0,0,0,0,0,0,0,-1,601,1723,0,0
-616,-699,0,0,0,0,0,0,0,0,0,-1,608,1723,0,0
-609,-699,0,0,0,0,0,0,0,0,0,-1,615,1723,0,0
-602,-699,0,0,0,0,0,0,0,0,0,-1,622,1723,0,0
-595,-699,0,0,0,0,0,0,0,0,0,-1,629,1723,0,0
-588,-699,0,0,0,0,0,0,0,0,0,-1,636,1723,0,0
-581,-699,0,0,0,0,0,0,0,0,0,-1,643,1723,0,0
-574,-699,0,0,0,0,0,0,0,0,0,-1,650,1723,0,0
-567,-699,0,0,0,0,0,0,0,0,0,-1,657,1723,0,0
-560,-699,0,0,0,0,0,0,0,0,0,-1,664,1723,0,0
-553,-699,0,0,0,0,0,0,0,0,0,-1,671,1723,0,0
-546,-699,0,0,0,0,0,0,0,0,0,-1,678,1723,0,0
-539,-699,0,0,0,0,0,0,0,0,0,-1,685,1723,0,0
-532,-699,0,0,0,0,0,0,0,0,0,-1,692,1723,0,0
-525,-699,0,0,0,0,0,0,0,0,0,-1,699,1723,0,0
-518,-699,0,0,0,0,0,0,0,0,0,-1,706,1723,0,0
-511,-699,0,0,0,0,0,0,0,0,0,-1,713,1723,0,0
-504,-699,0,0,0,0,0,0,0,0,0,-1,720,1723,0,0
-497,-699,0,0,0,0,0,0,0,0,0,-1,727,1723,0,0
-490,-699,0,0,0,0,0,0,0,0,0,-1,734,1723,0,0
-483,-699,0,0,0,0,0,0,0,0,0,-1,741,1723,0,0
-476,-699,0,0,0,0,0,0,0,0,0,-1,748,1723,0,0
-469,-699,0,0,0,0,0,0,0,0,0,-1,755,1723,0,0
-462,-699,0,0,0,0,0,0,0,0,0,-1,762,1723,0,0
-455,-699,0,0,0,0,0,0,0,0,0,-1,769,1723,0,0
-448,-699,0,0,0,0,0,0,0,0,0,-1,776,1723,0,0
-441,-699,0,0,0,0,0,0,0,0,0,-1,783,1723,0,0
-434,-699,0,0,0,0,0,0,0,0,0,-1,790,1723,0,0
-427,-699,0,0,0,0,0,0,0,0,0,-1,797,1723,0,0
-420,-699,0,0,0,0,0,0,0,0,0,-1,804,1723,0,0
-413,-699,0,0,0,0,0,0,0,0,0,-1,811,1723,0,0
-406,-699,0,0,0,0,0,0,0,0,0,-1,818,1723,0,0
-399,-699,0,0,0,0,0,0,0,0,0,-1,825,1723,0,0
-392,-699,0,0,0,0,0,0,0,0,0,-1,832,1723,0,0
-385,-699,0,0,0,0,0,0,0,0,0,-1,839,1723,0,0
-378,-699,0,0,0,0,0,0,0,0,0,-1,846,1723,0,0
-371,-699,0,0,0,0,0,0,0,0,0,-1,853,1723,0,0
-364,-699,0,0,0,0,0,0,0,0,0,-1,860,1723,0,0
-357,-699,0,0,0,0,0,0,0,0,0,-1,867,1723,0,0
-350,-699,0,0,0,0,0,0,0,0,0,-1,874,1723,0,0
-343,-699,0,0,0,0,0,0,0,0,0,-1,881,1723,0,0
-336,-699,0,0,0,0,0,0,0,0,0,-1,888,1723,0,0
-329,-699,0,0,0,0,0,0,0,0,0,-1,895,1723,0,0
-322,-699,0,0,0,0,0,0,0,0,0,-1,902,1723,0,0
-315,-699,6.20001,19.5193,0,0,0,0,0,0,0,-1,909,1723,6.20001,-19.5193
-308,-699,6.98151,18.9218,0,0,0,0,0,0,0,-1,916,1723,6.98151,-18.9217
-301,-699,4.72729,12.8752,0,0,0,0,0,0,0,-1,923,1723,4.72732,-12.8752
-294,-699,6.90332,19.8601,0,0,0,0,0,0,0,-1,930,1723,6.90332,-19.8601
-287,-699,7.71405,27.0637,0,0,0,0,0,0,0,-1,937,1723,7.71407,-27.0637
-280,-699,7.39789,26.2758,0,0,0,0,0,0,0,-1,944,1723,7.39789,-26.2758
-273,-699,7.48419,26.1683,0,0,0,0,0,0,0,-1,951,1723,7.48418,-26.1684
-266,-699,6.81915,20.8951,0,0,0,0,0,0,0,-1,958,1723,6.81914,-20.8952
-259,-699,5.39758,14.5466,0,0,0,0,0,0,0,-1,965,1723,5.39759,-14.5466
-252,-699,7.9483,28.2317,0,0,0,0,0,0,0,-1,972,1723,7.94833,-28.2317
-245,-699,7.70624,28.0671,0,0,0,0,0,0,0,-1,979,1723,7.70625,-28.0672
-238,-699,7.54187,29.1852,0,0,0,0,0,0,0,-1,986,1723,7.54185,-29.1852
-231,-699,7.42249,29.7158,-0.00801589,0.00261806,-0.00171383,0.00288744,-0.00828528,-1.41489,0.00669681,0.0452702,993,1723,7.42247,-29.7158
-224,-699,7.25006,29.7903,-0.00642107,0.00260318,-0.000101841,0.00260433,-0.00642222,-1.55951,0.00536462,0.0388529,1000,1723,7.25005,-29.7903
-217,-699,7.19159,29.9795,-0.00473628,0.00246061,0.00122498,0.00266339,-0.00493907,1.40674,0.00445435,0.0270068,1007,1723,7.19161,-29.9795
-210,-699,7.17035,30.3907,-0.00315615,0.00203443,0.00231342,0.00291584,-0.00403756,1.20678,0.00403192,0.0179095,1014,1723,7.17037,-30.3908
-203,-699,7.14233,30.6829,-0.00209857,0.00153567,0.00287355,0.00311844,-0.00368134,1.06734,0.00393033,0.0209692,1021,1723,7.14233,-30.6829
-196,-699,7.10156,31.0071,-0.00140742,0.00119751,0.00321925,0.00336779,-0.0035777,0.977625,0.00401059,0.0170945,1028,1723,7.10158,-31.0071
-189,-699,7.06104,31.3239,-0.000803569,0.000761145,0.00318679,0.0032602,-0.00330263,0.905768,0.00378908,0.00932484,1035,1723,7.061,-31.3239
-182,-699,7.03821,31.6188,-0.000495276,0.00079682,0.0028425,0.00306576,-0.00276422,0.897141,0.00336744,0.0126567,1042,1723,7.03818,-31.6188
-175,-699,7.03528,31.9181,-0.000185439,0.00108848,0.00266013,0.00318685,-0.00228381,0.902909,0.0031728,0.0140838,1049,1723,7.03528,-31.9181
-168,-699,7.04932,32.1897,-8.44079e-05,0.00126524,0.00240817,0.00309135,-0.00191052,0.922006,0.00291453,0.0149463,1056,1723,7.04927,-32.1897
-161,-699,7.04028,32.4788,-9.87279e-05,0.00138835,0.00200903,0.00278702,-0.0014974,0.962631,0.00251069,0.0130758,1063,1723,7.04024,-32.4787
-154,-699,7.00781,32.7751,-0.000133503,0.00187603,0.0016318,0.00278759,-0.00104507,1.06136,0.00228775,0.0126505,1070,1723,7.00783,-32.7751
-147,-699,6.99622,33.0182,-0.00015722,0.00241277,0.00126425,0.00293043,-0.000674874,1.18217,0.00221315,0.0144116,1077,1723,6.99625,-33.0181
-140,-699,6.99109,33.2618,-7.33508e-05,0.00313476,0.00103479,0.00343958,-0.000378166,1.28433,0.00242894,0.0104785,1084,1723,6.99105,-33.2619
-133,-699,6.9917,33.5161,6.3761e-05,0.00377908,0.000865817,0.00397094,-0.000128101,1.35272,0.00269101,0.00949135,1091,1723,6.99176,-33.5161
-126,-699,7.00708,33.7495,0.000101961,0.00437167,0.000700681,0.00448371,-1.00844e-05,1.41223,0.00299251,0.0112594,1098,1723,7.00713,-33.7495
-119,-699,7.01685,33.9873,0.000359612,0.00477717,0.000504848,0.00483413,0.000302651,1.45844,0.00312676,0.0162276,1105,1723,7.01689,-33.9873
-112,-699,6.98157,34.2122,0.000618855,0.00494111,0.000288454,0.00496028,0.00059969,1.50445,0.00312619,0.0120229,1112,1723,6.98162,-34.2122
-105,-699,6.98853,34.4277,0.000789662,0.00493084,3.58852e-05,0.00493115,0.000789351,1.56213,0.00305846,0.0133554,1119,1723,6.98857,-34.4278
-98,-699,7.03638,34.6158,0.000963844,0.00471064,-0.000146912,0.00471639,0.000958092,-1.53167,0.00287854,0.0146914,1126,1723,7.03637,-34.6158
-91,-699,7.04431,34.7844,0.00120137,0.00432285,-0.000353909,0.00436247,0.00116174,-1.4593,0.00260877,0.0192312,1133,1723,7.04429,-34.7845
-84,-699,7.03394,34.98,0.00150257,0.00375112,-0.000543518,0.00387561,0.00137808,-1.34564,0.00226848,0.0225725,1140,1723,7.03397,-34.98
-77,-699,7.05676,35.1982,0.00179821,0.0032237,-0.000898613,0.00365791,0.001364,-1.12068,0.00213452,0.0166529,1147,1723,7.05672,-35.1983
-70,-699,7.0752,35.3563,0.00236943,0.00244433,-0.00141065,0.00381803,0.000995732,-0.798669,0.00228688,0.0176026,1154,1723,7.0752,-35.3563
-63,-699,7.08215,35.528,0.00330195,0.00278896,-0.00196698,0.00502909,0.00106182,-0.720565,0.0030608,0.0147213,1161,1723,7.08217,-35.528
-56,-699,7.07251,35.7067,0.00477305,0.00333514,-0.00188276,0.00606945,0.00203874,-0.603011,0.00356655,0.010689,1168,1723,7.07245,-35.7067
-49,-699,7.07422,35.9115,0.0064163,0.00430292,-0.00171724,0.00737592,0.0033433,-0.509585,0.00426468,0.0224611,1175,1723,7.07421,-35.9115
-42,-699,7.12769,36.0933,0.00850067,0.00614289,-0.000941019,0.00883019,0.00581337,-0.336829,0.00518263,0.0275122,1182,1723,7.12768,-36.0933
-35,-699,7.1759,36.1954,0.00989461,0.00740952,-0.000740934,0.0100988,0.00720538,-0.268849,0.00600507,0.0267297,1189,1723,7.17593,-36.1954
-28,-699,7.22461,36.3082,0.0109224,0.00979542,-3.94883e-05,0.0109238,0.00979404,-0.0349812,0.00693668,0.020731,1196,1723,7.22459,-36.3082
-21,-699,7.23584,36.3425,0.0119412,0.0118078,0.000592199,0.0124704,0.0112785,0.729332,0.00794617,0.0136395,1203,1723,7.23582,-36.3425
-14,-699,7.25854,36.4525,0.012587,0.0144952,0.00220907,0.0159474,0.0111348,0.989252,0.00944534,0.0120548,1210,1723,7.25859,-36.4525
-7,-699,7.29224,36.566,0.0123914,0.0172557,0.0039555,0.0194669,0.0101801,1.06104,0.0112432,0.00884348,1217,1723,7.29222,-36.566
0,-699,7.32837,36.6559,0.0123066,0.0194508,0.00540997,0.0223616,0.00939584,1.07718,0.0129652,0.0097335,1224,1723,7.32832,-36.6559
7,-699,7.38928,36.7322,0.0119426,0.0216429,0.00686504,0.0251982,0.00838722,1.09293,0.0148167,0.0150152,1231,1723,7.38931,-36.7321
14,-699,7.45349,36.8069,0.01144,0.0236173,0.00827588,0.027803,0.00725435,1.10254,0.0166525,0.0172133,1238,1723,7.45348,-36.8068
21,-699,7.46509,36.8562,0.0109158,0.0250388,0.00963311,0.0299214,0.00603321,1.10168,0.0182716,0.0161839,1245,1723,7.46513,-36.8562
28,-699,7.49109,36.8767,0.0103731,0.0259351,0.0108137,0.0314763,0.00483192,1.09726,0.0195734,0.0156881,1252,1723,7.49113,-36.8767
35,-699,7.52124,36.9537,0.00981672,0.0259302,0.0117901,0.0321534,0.00359349,1.08513,0.0203439,0.0137331,1259,1723,7.52123,-36.9538
42,-699,7.59851,37.0245,0.00927032,0.0245411,0.0124919,0.0315463,0.00226514,1.05972,0.0203179,0.0130839,1266,1723,7.59849,-37.0245
49,-699,7.65039,37.0559,0.00864008,0.0226451,0.0126931,0.0301392,0.001146,1.03746,0.0197219,0.0162252,1273,1723,7.65042,-37.0559
56,-699,7.69934,37.0676,0.00810623,0.01991,0.0127082,0.0280199,-3.68617e-06,1.00279,0.0186811,0.0165603,1280,1723,7.69931,-37.0676
63,-699,7.75635,37.0543,0.00748899,0.0160374,0.0122094,0.0246991,-0.00117277,0.953768,0.0168706,0.0138474,1287,1723,7.75631,-37.0543
70,-699,7.74927,37.051,0.00706038,0.0115618,0.0116601,0.0211864,-0.00256422,0.88074,0.015052,0.0116756,1294,1723,7.74923,-37.051
77,-699,7.75085,37.0521,0.00665982,0.00668665,0.0110047,0.0176779,-0.00433145,0.786008,0.0134634,0.0116269,1301,1723,7.75088,-37.0521
84,-699,7.76868,37.026,0.00630051,0.00179569,0.0103786,0.0146683,-0.00657207,0.678543,0.0125566,0.0132839,1308,1723,7.76863,-37.026
91,-699,7.84119,37.0043,0.0060469,-0.00285732,0.00923605,0.0118479,-0.0086583,0.560811,0.0118869,0.0134617,1315,1723,7.84116,-37.0043
98,-699,7.90588,36.9812,0.00622243,-0.00674926,0.00838996,0.0103412,-0.010868,0.456353,0.0122464,0.0119636,1322,1723,7.90583,-36.9812
105,-699,7.94482,36.965,0.00606527,-0.00802986,0.00817875,0.00981401,-0.0117786,0.429777,0.0124837,0.0155085,1329,1723,7.94481,-36.965
112,-699,7.96997,36.9098,0.00615524,-0.00902609,0.00812308,0.00968225,-0.0125531,0.409634,0.0128732,0.0208666,1336,1723,7.96993,-36.9098
119,-699,7.97778,36.8401,0.00618951,-0.00965986,0.00796721,0.00950214,-0.0129725,0.394037,0.0130272,0.0156622,1343,1723,7.97779,-36.8401
126,-699,8.03699,36.7571,0.00626819,-0.00999582,0.00763887,0.00929333,-0.013021,0.37707,0.0129429,0.0169247,1350,1723,8.03704,-36.757
133,-699,8.12158,36.6956,0.00651665,-0.00991345,0.00732337,0.00930699,-0.0127038,0.364038,0.0127583,0.0156732,1357,1723,8.12152,-36.6956
140,-699,8.14539,36.6167,0.00684904,-0.00886662,0.00699923,0.00951427,-0.0115318,0.363836,0.0121696,0.017057,1364,1723,8.14533,-36.6168
147,-699,8.15405,36.5254,0.00706722,-0.00734544,0.0066283,0.00965199,-0.0099302,0.371821,0.0113062,0.014693,1371,1723,8.15409,-36.5254
154,-699,8.15198,36.4095,0.00716992,-0.00610773,0.00637234,0.00973331,-0.00867112,0.38246,0.0106317,0.0151736,1378,1723,8.15197,-36.4095
161,-699,8.20691,36.2947,0.00702265,-0.00466144,0.00594974,0.009519,-0.00715779,0.397265,0.00966047,0.0112955,1385,1723,8.20696,-36.2946
168,-699,8.24695,36.2109,0.00669373,-0.00323682,0.00544615,0.00909829,-0.00564138,0.415776,0.00858761,0.0120755,1392,1723,8.24697,-36.211
175,-699,8.28735,36.114,0.00648717,-0.0013088,0.0044325,0.00849184,-0.00331347,0.424737,0.00703098,0.0141903,1399,1723,8.28734,-36.114
182,-699,8.30115,35.9401,0.0058165,0.000682941,0.00369042,0.007745,-0.00124556,0.48154,0.00562468,0.0147935,1406,1723,8.30109,-35.9401
189,-699,8.32788,35.7844,0.00462823,0.00212119,0.00291528,0.00654806,0.000201352,0.582357,0.00429983,0.0162639,1413,1723,8.32791,-35.7845
196,-699,8.34607,35.6257,0.00386532,0.00204769,0.00205704,0.00520536,0.000707642,0.577388,0.00326006,0.0157731,1420,1723,8.3461,-35.6257
203,-699,8.34167,35.4882,0.00323299,0.00127817,0.00128241,0.003868,0.000643163,0.459776,0.00239326,0.0141776,1427,1723,8.3417,-35.4881
210,-699,8.35693,35.3396,0.00263795,0.000649756,0.00108621,0.00311629,0.000171415,0.414823,0.00202281,0.015043,1434,1723,8.35689,-35.3396
217,-699,8.3822,35.1741,0.00194476,0.00021522,0.000602899,0.00213418,2.58011e-05,0.304415,0.00141426,0.0151079,1441,1723,8.38219,-35.1741
224,-699,8.39307,34.968,0.00169586,0.000194227,0.000396589,0.00179416,9.59216e-05,0.242981,0.00116545,0.0158683,1448,1723,8.39309,-34.968
231,-699,8.39563,34.7633,0.00152241,0.000244837,7.02122e-05,0.00152625,0.00024099,0.0547379,0.000947444,0.0115815,1455,1723,8.39561,-34.7633
238,-699,8.37646,34.5603,0.0014422,0.000451301,-0.000149823,0.00146436,0.000429143,-0.146827,0.000869249,0.010143,1462,1723,8.37642,-34.5604
245,-699,8.38684,34.3486,0.00143832,0.000644488,-0.000296123,0.00153661,0.000546196,-0.320487,0.000899437,0.0121476,1469,1723,8.38686,-34.3486
252,-699,8.39819,34.139,0.00148537,0.000707763,-0.000416987,0.00166669,0.000526438,-0.410181,0.000983777,0.0112265,1476,1723,8.39817,-34.1391
259,-699,8.39929,33.9313,0.00157856,0.000652135,-0.00047714,0.00178035,0.000450345,-0.400104,0.00106889,0.0110908,1483,1723,8.39934,-33.9313
266,-699,8.38416,33.7098,0.0017333,0.000572343,-0.000545108,0.00194912,0.000356518,-0.376993,0.00119838,0.0128327,1490,1723,8.38416,-33.7099
273,-699,8.3844,33.4766,0.00192692,0.000504276,-0.000657736,0.00218441,0.000246787,-0.373138,0.00138138,0.0115512,1497,1723,8.38436,-33.4765
280,-699,8.4032,33.2382,0.00210485,0.000331195,-0.00080317,0.00241449,2.15507e-05,-0.367969,0.00160253,0.011291,1504,1723,8.40323,-33.2382
287,-699,8.40234,32.978,0.00234409,0.000360944,-0.000992513,0.00275548,-5.04433e-05,-0.392936,0.00185403,0.0102578,1511,1723,8.40231,-32.978
294,-699,8.39941,32.7257,0.00267375,0.000489652,-0.00129742,0.00327754,-0.000114135,-0.435567,0.00222405,0.0111869,1518,1723,8.39936,-32.7257
301,-699,8.39905,32.4955,0.00309264,0.000357186,-0.0018771,0.00404745,-0.000597627,-0.470554,0.00291798,0.0125251,1525,1723,8.399,-32.4955
308,-699,8.3761,32.2654,0.00344645,0.000300451,-0.00245726,0.00479106,-0.00104416,-0.50069,0.00359303,0.0169068,1532,1723,8.3761,-32.2654
315,-699,8.35913,31.9832,0.00391569,0.000137793,-0.00317976,0.00572526,-0.00167177,-0.51738,0.00447932,0.0198855,1539,1723,8.35917,-31.9832
322,-699,8.3313,31.6752,0.00435594,0.000212971,-0.00386757,0.00667184,-0.00210293,-0.539537,0.00529008,0.0208105,1546,1723,8.33136,-31.6752
329,-699,8.29065,31.3699,0.00484767,9.46037e-05,-0.00453467,0.00759081,-0.00264854,-0.544035,0.00613695,0.017682,1553,1723,8.29066,-31.3698
336,-699,8.31995,31.1268,0.00530578,-0.00039275,-0.00521945,0.00840303,-0.00349,-0.535556,0.00705904,0.0193708,1560,1723,8.31999,-31.1268
343,-699,8.3855,30.8619,0.00551399,-0.000959249,-0.00571228,0.00884287,-0.00428813,-0.527646,0.00773172,0.0272075,1567,1723,8.38551,-30.8619
350,-699,8.401,30.5509,0.00566627,-0.00120897,-0.00548107,0.00869853,-0.00424123,-0.505315,0.00761708,0.0377923,1574,1723,8.40103,-30.5509
357,-699,8.39343,30.1917,0.00604897,-0.0024106,-0.00495286,0.0083324,-0.00469403,-0.43199,0.00761797,0.0411142,1581,1723,8.39337,-30.1917
364,-699,8.48877,29.9478,0.00701116,-0.00485356,-0.00453955,0.00854877,-0.00639117,-0.326585,0.00865551,0.0420172,1588,1723,8.48878,-29.9477
371,-699,8.5437,29.6586,0,0,0,0,0,0,0,-1,1595,1723,8.54366,-29.6585
378,-699,7.3009,26.9484,0,0,0,0,0,0,0,-1,1602,1723,7.30092,-26.9483
385,-699,6.32727,24.7136,0,0,0,0,0,0,0,-1,1609,1723,6.32725,-24.7136
392,-699,7.63953,27.578,0,0,0,0,0,0,0,-1,1616,1723,7.63956,-27.578
399,-699,7.28809,29.0607,0,0,0,0,0,0,0,-1,1623,1723,7.28812,-29.0606
406,-699,5.50757,21.6672,0,0,0,0,0,0,0,-1,1630,1723,5.50755,-21.6672
413,-699,9.31396,23.2781,0,0,0,0,0,0,0,-1,1637,1723,9.31396,-23.278
420,-699,2.15076,7.65527,0,0,0,0,0,0,0,-1,1644,1723,2.15079,-7.65522
427,-699,3.36328,8.2428,0,0,0,0,0,0,0,-1,1651,1723,3.36332,-8.24283
434,-699,4.66455,8.90222,0,0,0,0,0,0,0,-1,1658,1723,4.66456,-8.90223
441,-699,0,0,0,0,0,0,0,0,0,-1,1665,1723,0,0
448,-699,0,0,0,0,0,0,0,0,0,-1,1672,1723,0,0
455,-699,0,0,0,0,0,0,0,0,0,-1,1679,1723,0,0
462,-699,0,0,0,0,0,0,0,0,0,-1,1686,1723,0,0
469,-699,0,0,0,0,0,0,0,0,0,-1,1693,1723,0,0
476,-699,0,0,0,0,0,0,0,0,0,-1,1700,1723,0,0
483,-699,0,0,0,0,0,0,0,0,0,-1,1707,1723,0,0
490,-699,0,0,0,0,0,0,0,0,0,-1,1714,1723,0,0
497,-699,0,0,0,0,0,0,0,0,0,-1,1721,1723,0,0
504,-699,0,0,0,0,0,0,0,0,0,-1,1728,1723,0,0
511,-699,0,0,0,0,0,0,0,0,0,-1,1735,1723,0,0
518,-699,0,0,0,0,0,0,0,0,0,-1,1742,1723,0,0
525,-699,0,0,0,0,0,0,0,0,0,-1,1749,1723,0,0
532,-699,0,0,0,0,0,0,0,0,0,-1,1756,1723,0,0
539,-699,0,0,0,0,0,0,0,0,0,-1,1763,1723,0,0
546,-699,0,0,0,0,0,0,0,0,0,-1,1770,1723,0,0
553,-699,0,0,0,0,0,0,0,0,0,-1,1777,1723,0,0
560,-699,0,0,0,0,0,0,0,0,0,-1,1784,1723,0,0
567,-699,0,0,0,0,0,0,0,0,0,-1,1791,1723,0,0
574,-699,0,0,0,0,0,0,0,0,0,-1,1798,1723,0,0
581,-699,0,0,0,0,0,0,0,0,0,-1,1805,1723,0,0
588,-699,0,0,0,0,0,0,0,0,0,-1,1812,1723,0,0
595,-699,0,0,0,0,0,0,0,0,0,-1,1819,1723,0,0
602,-699,0,0,0,0,0,0,0,0,0,-1,1826,1723,0,0
609,-699,0,0,0,0,0,0,0,0,0,-1,1833,1723,0,0
616,-699,0,0,0,0,0,0,0,0,0,-1,1840,1723,0,0
623,-699,0,0,0,0,0,0,0,0,0,-1,1847,1723,0,0
630,-699,0,0,0,0,0,0,0,0,0,-1,1854,1723,0,0
637,-699,0,0,0,0,0,0,0,0,0,-1,1861,1723,0,0
644,-699,0,0,0,0,0,0,0,0,0,-1,1868,1723,0,0
651,-699,0,0,0,0,0,0,0,0,0,-1,1875,1723,0,0
658,-699,0,0,0,0,0,0,0,0,0,-1,1882,1723,0,0
665,-699,0,0,0,0,0,0,0,0,0,-1,1889,1723,0,0
672,-699,0,0,0,0,0,0,0,0,0,-1,1896,1723,0,0
679,-699,0,0,0,0,0,0,0,0,0,-1,1903,1723,0,0
686,-699,0,0,0,0,0,0,0,0,0,-1,1910,1723,0,0
693,-699,0,0,0,0,0,0,0,0,0,-1,1917,1723,0,0
700,-699,0,0,0,0,0,0,0,0,0,-1,1924,1723,0,0
707,-699,0,0,0,0,0,0,0,0,0,-1,1931,1723,0,0
714,-699,0,0,0,0,0,0,0,0,0,-1,1938,1723,0,0
721,-699,0,0,0,0,0,0,0,0,0,-1,1945,1723,0,0
728,-699,0,0,0,0,0,0,0,0,0,-1,1952,1723,0,0
735,-699,0,0,0,0,0,0,0,0,0,-1,1959,1723,0,0
742,-699,0,0,0,0,0,0,0,0,0,-1,1966,1723,0,0
749,-699,0,0,0,0,0,0,0,0,0,-1,1973,1723,0,0
756,-699,0,0,0,0,0,0,0,0,0,-1,1980,1723,0,0
763,-699,0,0,0,0,0,0,0,0,0,-1,1987,1723,0,0
770,-699,0,0,0,0,0,0,0,0,0,-1,1994,1723,0,0
777,-699,0,0,0,0,0,0,0,0,0,-1,2001,1723,0,0
784,-699,0,0,0,0,0,0,0,0,0,-1,2008,1723,0,0
791,-699,0,0,0,0,0,0,0,0,0,-1,2015,1723,0,0
798,-699,0,0,0,0,0,0,0,0,0,-1,2022,1723,0,0
805,-699,0,0,0,0,0,0,0,0,0,-1,2029,1723,0,0
812,-699,0,0,0,0,0,0,0,0,0,-1,2036,1723,0,0
-700,-706,0,0,0,0,0,0,0,0,0,-1,524,1730,0,0
-693,-706,0,0,0,0,0,0,0,0,0,-1,531,1730,0,0
-686,-706,0,0,0,0,0,0,0,0,0,-1,538,1730,0,0
-679,-706,0,0,0,0,0,0,0,0,0,-1,545,1730,0,0
-672,-706,0,0,0,0,0,0,0,0,0,-1,552,1730,0,0
-665,-706,0,0,0,0,0,0,0,0,0,-1,559,1730,0,0
-658,-706,0,0,0,0,0,0,0,0,0,-1,566,1730,0,0
-651,-706,0,0,0,0,0,0,0,0,0,-1,573,1730,0,0
-644,-706,0,0,0,0,0,0,0,0,0,-1,580,1730,0,0
-637,-706,0,0,0,0,0,0,0,0,0,-1,587,1730,0,0
-630,-706,0,0,0,0,0,0,0,0,0,-1,594,1730,0,0
-623,-706,0,0,0,0,0,0,0,0,0,-1,601,1730,0,0
-616,-706,0,0,0,0,0,0,0,0,0,-1,608,1730,0,0
-609,-706,0,0,0,0,0,0,0,0,0,-1,615,1730,0,0
-602,-706,0,0,0,0,0,0,0,0,0,-1,622,1730,0,0
-595,-706,0,0,0,0,0,0,0,0,0,-1,629,1730,0,0
-588,-706,0,0,0,0,0,0,0,0,0,-1,636,1730,0,0
-581,-706,0,0,0,0,0,0,0,0,0,-1,643,1730,0,0
-574,-706,0,0,0,0,0,0,0,0,0,-1,650,1730,0,0
-567,-706,0,0,0,0,0,0,0,0,0,-1,657,1730,0,0
-560,-706,0,0,0,0,0,0,0,0,0,-1,664,1730,0,0
-553,-706,0,0,0,0,0,0,0,0,0,-1,671,1730,0,0
-546,-706,0,0,0,0,0,0,0,0,0,-1,678,1730,0,0
-539,-706,0,0,0,0,0,0,0,0,0,-1,685,1730,0,0
-532,-706,0,0,0,0,0,0,0,0,0,-1,692,1730,0,0
-525,-706,0,0,0,0,0,0,0,0,0,-1,699,1730,0,0
-518,-706,0,0,0,0,0,0,0,0,0,-1,706,1730,0,0
-511,-706,0,0,0,0,0,0,0,0,0,-1,713,1730,0,0
-504,-706,0,0,0,0,0,0,0,0,0,-1,720,1730,0,0
-497,-706,0,0,0,0,0,0,0,0,0,-1,727,1730,0,0
-490,-706,0,0,0,0,0,0,0,0,0,-1,734,1730,0,0
-483,-706,0,0,0,0,0,0,0,0,0,-1,741,1730,0,0
-476,-706,0,0,0,0,0,0,0,0,0,-1,748,1730,0,0
-469,-706,0,0,0,0,0,0,0,0,0,-1,755,1730,0,0
-462,-706,0,0,0,0,0,0,0,0,0,-1,762,1730,0,0
-455,-706,0,0,0,0,0,0,0,0,0,-1,769,1730,0,0
-448,-706,0,0,0,0,0,0,0,0,0,-1,776,1730,0,0
-441,-706,0,0,0,0,0,0,0,0,0,-1,783,1730,0,0
-434,-706,0,0,0,0,0,0,0,0,0,-1,790,1730,0,0
-427,-706,0,0,0,0,0,0,0,0,0,-1,797,1730,0,0
-420,-706,0,0,0,0,0,0,0,0,0,-1,804,1730,0,0
-413,-706,0,0,0,0,0,0,0,0,0,-1,811,1730,0,0
-406,-706,0,0,0,0,0,0,0,0,0,-1,818,1730,0,0
-399,-706,0,0,0,0,0,0,0,0,0,-1,825,1730,0,0
-392,-706,0,0,0,0,0,0,0,0,0,-1,832,1730,0,0
-385,-706,0,0,0,0,0,0,0,0,0,-1,839,1730,0,0
-378,-706,0,0,0,0,0,0,0,0,0,-1,846,1730,0,0
-371,-706,0,0,0,0,0,0,0,0,0,-1,853,1730,0,0
-364,-706,0,0,0,0,0,0,0,0,0,-1,860,1730,0,0
-357,-706,0,0,0,0,0,0,0,0,0,-1,867,1730,0,0
-350,-706,0,0,0,0,0,0,0,0,0,-1,874,1730,0,0
-343,-706,0,0,0,0,0,0,0,0,0,-1,881,1730,0,0
-336,-706,0,0,0,0,0,0,0,0,0,-1,888,1730,0,0
-329,-706,0,0,0,0,0,0,0,0,0,-1,895,1730,0,0
-322,-706,0,0,0,0,0,0,0,0,0,-1,902,1730,0,0
-315,-706,0,0,0,0,0,0,0,0,0,-1,909,1730,0,0
-308,-706,5.08191,14.6245,0,0,0,0,0,0,0,-1,916,1730,5.08188,-14.6245
-301,-706,7.45007,21.1975,0,0,0,0,0,0,0,-1,923,1730,7.45005,-21.1976
-294,-706,11.8603,21.026,0,0,0,0,0,0,0,-1,930,1730,11.8603,-21.026
-287,-706,10.3292,20.8425,0,0,0,0,0,0,0,-1,937,1730,10.3292,-20.8425
-280,-706,7.9162,21.8951,0,0,0,0,0,0,0,-1,944,1730,7.9162,-21.8952
-273,-706,7.38953,20.6355,0,0,0,0,0,0,0,-1,951,1730,7.38955,-20.6355
-266,-706,9.66724,22.8231,0,0,0,0,0,0,0,-1,958,1730,9.66722,-22.8231
-259,-706,3.47852,20.7363,0,0,0,0,0,0,0,-1,965,1730,3.47851,-20.7364
-252,-706,3.84259,20.1979,0,0,0,0,0,0,0,-1,972,1730,3.84256,-20.1979
-245,-706,4.698,19.2992,0,0,0,0,0,0,0,-1,979,1730,4.69799,-19.2991
-238,-706,7.07745,28.6687,0,0,0,0,0,0,0,-1,986,1730,7.07745,-28.6687
-231,-706,7.93805,29.8007,0,0,0,0,0,0,0,-1,993,1730,7.93804,-29.8007
-224,-706,7.67084,29.8204,0,0,0,0,0,0,0,-1,1000,1730,7.67086,-29.8205
-217,-706,7.51672,29.79,-0.00530289,0.00363768,0.00236696,0.00422565,-0.00589086,1.32732,0.00586708,0.0476662,1007,1730,7.51672,-29.79
-210,-706,7.34595,30.3544,-0.00326588,0.00296847,0.00378499,0.00475465,-0.00505207,1.12987,0.00566278,0.0391262,1014,1730,7.34594,-30.3544
-203,-706,7.40356,30.736,-0.00189992,0.00220514,0.00444199,0.00504589,-0.00474067,1.00182,0.00565119,0.0314881,1021,1730,7.40355,-30.736
-196,-706,7.38379,31.0457,-0.00114065,0.0017602,0.00470898,0.00523707,-0.00461751,0.934794,0.00569329,0.0238605,1028,1730,7.38376,-31.0457
-189,-706,7.30957,31.3442,-0.000519518,0.00122709,0.00457051,0.00500697,-0.0042994,0.879797,0.00537821,0.0180788,1035,1730,7.3096,-31.3442
-182,-706,7.29102,31.6569,-0.000384806,0.00114923,0.00401591,0.00447071,-0.00370629,0.879759,0.00472787,0.0151294,1042,1730,7.29103,-31.6568
-175,-706,7.31763,31.9423,-0.000257047,0.00130445,0.00365928,0.00426534,-0.00321794,0.890503,0.00433456,0.0161588,1049,1730,7.31765,-31.9423
-168,-706,7.31616,32.205,-0.000321142,0.00128033,0.00321579,0.00379357,-0.00283439,0.907417,0.00383999,0.016373,1056,1730,7.31615,-32.205
-161,-706,7.29175,32.4851,-0.000495749,0.00114737,0.00262232,0.00307381,-0.0024222,0.937202,0.00318055,0.012726,1063,1730,7.29176,-32.485
-154,-706,7.26343,32.767,-0.00070708,0.00140956,0.00207317,0.00267892,-0.00197643,1.0214,0.00269795,0.0114632,1070,1730,7.26346,-32.767
-147,-706,7.23486,33.0203,-0.000890573,0.00173767,0.00156142,0.00246436,-0.00161727,1.1352,0.00237339,0.0116605,1077,1730,7.23483,-33.0203
-140,-706,7.23499,33.2736,-0.000900499,0.00235244,0.00124043,0.00277147,-0.00131953,1.24502,0.00241102,0.0111632,1084,1730,7.23504,-33.2736
-133,-706,7.229,33.5038,-0.00082012,0.0028959,0.00101983,0.00315738,-0.0010816,1.3198,0.00254331,0.00887489,1091,1730,7.22903,-33.5038
-126,-706,7.23169,33.7406,-0.000925861,0.00337989,0.000812335,0.00352805,-0.00107402,1.39039,0.00278008,0.0139415,1098,1730,7.2317,-33.7405
-119,-706,7.22339,33.9841,-0.000650409,0.00372572,0.00061822,0.00381138,-0.000736068,1.43311,0.0028185,0.0182986,1105,1730,7.22336,-33.9842
-112,-706,7.22046,34.2323,-0.000350047,0.00385461,0.000426916,0.00389752,-0.000392955,1.47062,0.00273874,0.0126615,1112,1730,7.22043,-34.2323
-105,-706,7.19873,34.4358,-0.00016814,0.00394424,0.000158356,0.00395033,-0.000174229,1.53237,0.00269351,0.00985707,1119,1730,7.19868,-34.4358
-98,-706,7.22388,34.6157,4.39799e-05,0.00384274,2.1153e-05,0.00384286,4.3862e-05,1.56523,0.00254741,0.011469,1126,1730,7.22387,-34.6158
-91,-706,7.22961,34.8081,0.000330486,0.00355634,-9.74227e-05,0.00355928,0.000327547,-1.54063,0.00227156,0.0140235,1133,1730,7.22956,-34.8081
-84,-706,7.229,34.995,0.000620251,0.00315938,-0.000251307,0.00318402,0.000595618,-1.47309,0.00195463,0.0156657,1140,1730,7.22901,-34.995
-77,-706,7.24304,35.2034,0.000938454,0.00282158,-0.000479507,0.00293665,0.000823386,-1.33528,0.00174914,0.0158516,1147,1730,7.24308,-35.2033
-70,-706,7.23474,35.4105,0.00137512,0.00230286,-0.000824081,0.00278466,0.000893323,-1.04174,0.00164178,0.0183799,1154,1730,7.23475,-35.4105
-63,-706,7.22363,35.5665,0.00196071,0.0023037,-0.00118481,0.00332936,0.000935047,-0.857271,0.00198279,0.0136168,1161,1730,7.22366,-35.5666
-56,-706,7.24219,35.7142,0.00246816,0.00227196,-0.00146534,0.00383868,0.000901438,-0.751975,0.00231783,0.0130383,1168,1730,7.24225,-35.7142
-49,-706,7.24426,35.8856,0.00299739,0.00247227,-0.00157257,0.00432917,0.00114049,-0.70268,0.00259102,0.012594,1175,1730,7.24431,-35.8856
-42,-706,7.26111,36.0347,0.00378042,0.00322006,-0.00135486,0.00488376,0.00211671,-0.683437,0.00282796,0.0171853,1182,1730,7.26112,-36.0346
-35,-706,7.29858,36.1368,0.00443691,0.00378609,-0.0013791,0.00552847,0.00269453,-0.669538,0.0031922,0.0170865,1189,1730,7.29854,-36.1368
-28,-706,7.32751,36.2764,0.00504452,0.00516827,-0.00104892,0.00615714,0.00405565,-0.81486,0.00361401,0.0105928,1196,1730,7.32753,-36.2763
-21,-706,7.34058,36.3761,0.00562399,0.00641656,-0.00065802,0.00678841,0.00525214,-1.05643,0.00411036,0.0111232,1203,1730,7.34055,-36.3761
-14,-706,7.36462,36.468,0.00597475,0.008252,0.000404436,0.00832169,0.00590506,1.40015,0.00494324,0.0112462,1210,1730,7.36457,-36.468
-7,-706,7.39661,36.5654,0.00595225,0.0101647,0.00151666,0.0106539,0.005463,1.25876,0.00615171,0.00855134,1217,1730,7.39658,-36.5654
0,-706,7.43237,36.6646,0.00601803,0.0117845,0.00255678,0.0127549,0.00504767,1.20807,0.00741718,0.0107477,1224,1730,7.43233,-36.6645
7,-706,7.46106,36.7467,0.00594174,0.0134211,0.00360628,0.0148766,0.00448619,1.18718,0.00881163,0.0122862,1231,1730,7.46112,-36.7467
14,-706,7.49255,36.8049,0.00580357,0.0148708,0.00462088,0.0168107,0.00386368,1.17333,0.010167,0.0133055,1238,1730,7.49258,-36.805
21,-706,7.51526,36.856,0.00566395,0.0160276,0.00558444,0.018464,0.00322756,1.15941,0.011387,0.0120652,1245,1730,7.51528,-36.856
28,-706,7.53552,36.9189,0.00549306,0.0168418,0.00639377,0.019716,0.00261881,1.14833,0.0123639,0.0123659,1252,1730,7.53557,-36.9189
35,-706,7.55542,36.975,0.00530324,0.0172154,0.00704882,0.0204876,0.00203106,1.13618,0.0130342,0.0144626,1259,1730,7.55544,-36.975
42,-706,7.60413,37.0201,0.00511693,0.0167236,0.0075071,0.020409,0.00143157,1.11444,0.0131548,0.0125978,1266,1730,7.60418,-37.0201
49,-706,7.6416,37.0624,0.00493635,0.015757,0.00764356,0.0197112,0.000982071,1.09338,0.012826,0.0145572,1273,1730,7.64158,-37.0624
56,-706,7.68054,37.0785,0.00478855,0.0142668,0.00759533,0.0184802,0.000575112,1.06432,0.012133,0.014062,1280,1730,7.68053,-37.0785
63,-706,7.71631,37.0748,0.00453575,0.012152,0.0072461,0.0165297,0.000158052,1.02733,0.0109675,0.0119449,1287,1730,7.71635,-37.0748
70,-706,7.71497,37.0536,0.0042393,0.00959025,0.00692929,0.0143426,-0.000513094,0.969636,0.0097373,0.0125216,1294,1730,7.71492,-37.0536
77,-706,7.72949,37.0667,0.00385297,0.00672359,0.00645207,0.0118981,-0.00132151,0.894845,0.00840724,0.0111161,1301,1730,7.72954,-37.0667
84,-706,7.76587,37.0604,0.00350784,0.00397157,0.0060132,0.00975738,-0.00227796,0.804668,0.00738233,0.00903445,1308,1730,7.76588,-37.0605
91,-706,7.81274,37.0483,0.0033617,0.00123174,0.0052884,0.00769129,-0.00309785,0.686037,0.00641453,0.0103107,1315,1730,7.81275,-37.0484
98,-706,7.82629,37.0237,0.00338472,-0.000925242,0.00492337,0.00660408,-0.0041446,0.579107,0.00625967,0.0137495,1322,1730,7.8263,-37.0237
105,-706,7.86768,37.0022,0.00312955,-0.00165751,0.00481791,0.00611573,-0.00464369,0.554857,0.0062313,0.015196,1329,1730,7.8677,-37.0022
112,-706,7.91333,36.9653,0.00307296,-0.00220042,0.00484279,0.00595032,-0.00507778,0.53611,0.00637372,0.0146417,1336,1730,7.91328,-36.9654
119,-706,7.92334,36.9164,0.00296342,-0.00249978,0.00477041,0.00572895,-0.0052653,0.525379,0.00634942,0.0128377,1343,1730,7.92332,-36.9164
126,-706,7.95178,36.8351,0.00294906,-0.00259473,0.00457633,0.00552751,-0.00517318,0.513097,0.00617917,0.0139693,1350,1730,7.95178,-36.8351
133,-706,8.01025,36.7157,0.00309956,-0.00246421,0.00439391,0.00551818,-0.00488283,0.503189,0.00600876,0.0115334,1357,1730,8.01023,-36.7157
140,-706,8.03699,36.6157,0.00333171,-0.00190845,0.00417153,0.00563773,-0.00421447,0.50499,0.00570792,0.0111474,1364,1730,8.03696,-36.6158
147,-706,8.10718,36.5245,0.0035214,-0.00114311,0.00392234,0.0057525,-0.00337421,0.517176,0.00532861,0.0195315,1371,1730,8.10721,-36.5245
154,-706,8.12512,36.438,0.00370379,-0.000524038,0.00374395,0.00588939,-0.00270963,0.528398,0.00507653,0.0195519,1378,1730,8.12516,-36.438
161,-706,8.07153,36.3192,0.00373139,0.000100506,0.00346861,0.00583093,-0.00199904,0.544305,0.00469762,0.0105804,1385,1730,8.07149,-36.3193
168,-706,8.09485,36.1901,0.00366414,0.00054595,0.0031834,0.00564974,-0.00143964,0.557688,0.00432696,0.0102764,1392,1730,8.09486,-36.1901
175,-706,8.12122,36.0721,0.00372296,0.00120268,0.00258641,0.00533988,-0.000414242,0.558714,0.00370573,0.0105639,1399,1730,8.12128,-36.0721
182,-706,8.13733,35.9286,0.00351508,0.00169619,0.00218355,0.00497101,0.000240263,0.588074,0.00323689,0.0113716,1406,1730,8.13737,-35.9286
189,-706,8.15857,35.7634,0.00295437,0.00177958,0.00172384,0.00418815,0.000545803,0.621193,0.00262912,0.0135703,1413,1730,8.15854,-35.7634
196,-706,8.16675,35.6046,0.00242528,0.0017715,0.00114395,0.00328813,0.000908654,0.646229,0.00196069,0.0115028,1420,1730,8.16669,-35.6046
203,-706,8.1698,35.4779,0.00198826,0.00143603,0.000607267,0.00237924,0.00104505,0.572028,0.00137703,0.0135455,1427,1730,8.16975,-35.4779
210,-706,8.16541,35.3193,0.00157721,0.0012418,0.000430527,0.00187154,0.000947464,0.599672,0.00108056,0.0127165,1434,1730,8.16538,-35.3193
217,-706,8.17383,35.1599,0.00110997,0.00109636,6.23537e-05,0.00116589,0.00104044,0.731033,0.000739002,0.012857,1441,1730,8.17382,-35.1599
224,-706,8.18921,34.9778,0.000915137,0.00119792,-0.000144474,0.00125868,0.00085438,-1.17271,0.000742024,0.0179893,1448,1730,8.18924,-34.9777
231,-706,8.1875,34.7588,0.000735124,0.00132873,-0.000380132,0.0015142,0.000549648,-1.11686,0.000885097,0.0136011,1455,1730,8.18754,-34.7588
238,-706,8.17883,34.5546,0.000729603,0.00152082,-0.00045804,0.00173044,0.000519978,-1.14159,0.00102524,0.00885292,1462,1730,8.17879,-34.5545
245,-706,8.18738,34.3494,0.000864165,0.00154631,-0.000521769,0.00182859,0.000581881,-1.07488,0.00107875,0.0114208,1469,1730,8.18743,-34.3494
252,-706,8.19653,34.142,0.00104861,0.00136586,-0.000606884,0.00183451,0.000579964,-0.913225,0.00108276,0.0117112,1476,1730,8.19655,-34.1419
259,-706,8.20251,33.9354,0.00123224,0.0011538,-0.000608896,0.00180318,0.000582864,-0.753236,0.00106253,0.0123612,1483,1730,8.20248,-33.9354
266,-706,8.1814,33.7286,0.0015119,0.000977883,-0.000662334,0.00195902,0.000530762,-0.593796,0.00116994,0.0127145,1490,1730,8.18137,-33.7287
273,-706,8.17334,33.4941,0.00185792,0.000804948,-0.00080753,0.00229543,0.000367437,-0.496517,0.0014237,0.0116285,1497,1730,8.17336,-33.4941
280,-706,8.15112,33.2396,0.00219207,0.000493971,-0.000992462,0.00264911,3.69316e-05,-0.43156,0.00175389,0.00959111,1504,1730,8.15115,-33.2396
287,-706,8.12061,32.9747,0.00261707,0.000507107,-0.00124643,0.00319505,-7.08739e-05,-0.434197,0.00215405,0.0106128,1511,1730,8.12061,-32.9747
294,-706,8.13904,32.7412,0.00316936,0.000633043,-0.00163692,0.00397188,-0.000169483,-0.45583,0.00270619,0.0111061,1518,1730,8.13905,-32.7412
301,-706,8.13538,32.4846,0.0038501,0.000435925,-0.00236533,0.00506002,-0.000773991,-0.472823,0.00365873,0.0101793,1525,1730,8.13537,-32.4847
308,-706,8.12158,32.2249,0.00445794,0.000328821,-0.0030938,0.00611279,-0.00132603,-0.49117,0.00458162,0.012187,1532,1730,8.12155,-32.2249
315,-706,8.09436,31.9896,0.00520531,0.000131335,-0.00403296,0.00743289,-0.00209624,-0.50464,0.00578209,0.021253,1539,1730,8.0944,-31.9896
322,-706,8.052,31.7609,0.00593357,0.000333281,-0.00496415,0.00883286,-0.00256601,-0.528606,0.00690472,0.0293593,1546,1730,8.05204,-31.7609
329,-706,8.11218,31.3685,0.00675458,0.000286292,-0.00587581,0.0102275,-0.00318664,-0.533817,0.00809247,0.029121,1553,1730,8.11219,-31.3686
336,-706,8.06506,30.9113,0.00762043,-0.000262943,-0.0068796,0.0116075,-0.00425005,-0.525251,0.00947818,0.0416413,1560,1730,8.06504,-30.9113
343,-706,8.30286,30.8114,0.00811484,-0.00102087,-0.00775472,0.012547,-0.00545308,-0.519237,0.010658,0.041009,1567,1730,8.30283,-30.8114
350,-706,8.69812,30.8522,0.00852582,-0.00128343,-0.00763871,0.0126989,-0.00545654,-0.500006,0.0107565,0.0452478,1574,1730,8.69807,-30.8521
357,-706,8.32178,30.4063,0,0,0,0,0,0,0,-1,1581,1730,8.32179,-30.4063
364,-706,8.4718,30.1406,0,0,0,0,0,0,0,-1,1588,1730,8.47176,-30.1406
371,-706,6.27881,24.0759,0,0,0,0,0,0,0,-1,1595,1730,6.27883,-24.0759
378,-706,4.80444,25.0989,0,0,0,0,0,0,0,-1,1602,1730,4.80445,-25.0989
385,-706,5.55212,24.9753,0,0,0,0,0,0,0,-1,1609,1730,5.55214,-24.9753
392,-706,6.2998,24.8518,0,0,0,0,0,0,0,-1,1616,1730,6.29983,-24.8518
399,-706,3.9502,25.5428,0,0,0,0,0,0,0,-1,1623,1730,3.95019,-25.5428
406,-706,6.04211,18.8085,0,0,0,0,0,0,0,-1,1630,1730,6.04216,-18.8085
413,-706,6.23413,20.7725,0,0,0,0,0,0,0,-1,1637,1730,6.23413,-20.7725
420,-706,6.51294,21.9171,0,0,0,0,0,0,0,-1,1644,1730,6.51292,-21.9171
427,-706,0,0,0,0,0,0,0,0,0,-1,1651,1730,0,0
434,-706,0,0,0,0,0,0,0,0,0,-1,1658,1730,0,0
441,-706,0,0,0,0,0,0,0,0,0,-1,1665,1730,0,0
448,-706,0,0,0,0,0,0,0,0,0,-1,1672,1730,0,0
455,-706,0,0,0,0,0,0,0,0,0,-1,1679,1730,0,0
462,-706,0,0,0,0,0,0,0,0,0,-1,1686,1730,0,0
469,-706,0,0,0,0,0,0,0,0,0,-1,1693,1730,0,0
476,-706,0,0,0,0,0,0,0,0,0,-1,1700,1730,0,0
483,-706,0,0,0,0,0,0,0,0,0,-1,1707,1730,0,0
490,-706,0,0,0,0,0,0,0,0,0,-1,1714,1730,0,0
497,-706,0,0,0,0,0,0,0,0,0,-1,1721,1730,0,0
504,-706,0,0,0,0,0,0,0,0,0,-1,1728,1730,0,0
511,-706,0,0,0,0,0,0,0,0,0,-1,1735,1730,0,0
518,-706,0,0,0,0,0,0,0,0,0,-1,1742,1730,0,0
525,-706,0,0,0,0,0,0,0,0,0,-1,1749,1730,0,0
532,-706,0,0,0,0,0,0,0,0,0,-1,1756,1730,0,0
539,-706,0,0,0,0,0,0,0,0,0,-1,1763,1730,0,0
546,-706,0,0,0,0,0,0,0,0,0,-1,1770,1730,0,0
553,-706,0,0,0,0,0,0,0,0,0,-1,1777,1730,0,0
560,-706,0,0,0,0,0,0,0,0,0,-1,1784,1730,0,0
567,-706,0,0,0,0,0,0,0,0,0,-1,1791,1730,0,0
574,-706,0,0,0,0,0,0,0,0,0,-1,1798,1730,0,0
581,-706,0,0,0,0,0,0,0,0,0,-1,1805,1730,0,0
588,-706,0,0,0,0,0,0,0,0,0,-1,1812,1730,0,0
595,-706,0,0,0,0,0,0,0,0,0,-1,1819,1730,0,0
602,-706,0,0,0,0,0,0,0,0,0,-1,1826,1730,0,0
609,-706,0,0,0,0,0,0,0,0,0,-1,1833,1730,0,0
616,-706,0,0,0,0,0,0,0,0,0,-1,1840,1730,0,0
623,-706,0,0,0,0,0,0,0,0,0,-1,1847,1730,0,0
630,-706,0,0,0,0,0,0,0,0,0,-1,1854,1730,0,0
637,-706,0,0,0,0,0,0,0,0,0,-1,1861,1730,0,0
644,-706,0,0,0,0,0,0,0,0,0,-1,1868,1730,0,0
651,-706,0,0,0,0,0,0,0,0,0,-1,1875,1730,0,0
658,-706,0,0,0,0,0,0,0,0,0,-1,1882,1730,0,0
665,-706,0,0,0,0,0,0,0,0,0,-1,1889,1730,0,0
672,-706,0,0,0,0,0,0,0,0,0,-1,1896,1730,0,0
679,-706,0,0,0,0,0,0,0,0,0,-1,1903,1730,0,0
686,-706,0,0,0,0,0,0,0,0,0,-1,1910,1730,0,0
693,-706,0,0,0,0,0,0,0,0,0,-1,1917,1730,0,0
700,-706,0,0,0,0,0,0,0,0,0,-1,1924,1730,0,0
707,-706,0,0,0,0,0,0,0,0,0,-1,1931,1730,0,0
714,-706,0,0,0,0,0,0,0,0,0,-1,1938,1730,0,0
721,-706,0,0,0,0,0,0,0,0,0,-1,1945,1730,0,0
728,-706,0,0,0,0,0,0,0,0,0,-1,1952,1730,0,0
735,-706,0,0,0,0,0,0,0,0,0,-1,1959,1730,0,0
742,-706,0,0,0,0,0,0,0,0,0,-1,1966,1730,0,0
749,-706,0,0,0,0,0,0,0,0,0,-1,1973,1730,0,0
756,-706,0,0,0,0,0,0,0,0,0,-1,1980,1730,0,0
763,-706,0,0,0,0,0,0,0,0,0,-1,1987,1730,0,0
770,-706,0,0,0,0,0,0,0,0,0,-1,1994,1730,0,0
777,-706,0,0,0,0,0,0,0,0,0,-1,2001,1730,0,0
784,-706,0,0,0,0,0,0,0,0,0,-1,2008,1730,0,0
791,-706,0,0,0,0,0,0,0,0,0,-1,2015,1730,0,0
798,-706,0,0,0,0,0,0,0,0,0,-1,2022,1730,0,0
805,-706,0,0,0,0,0,0,0,0,0,-1,2029,1730,0,0
812,-706,0,0,0,0,0,0,0,0,0,-1,2036,1730,0,0
-700,-713,0,0,0,0,0,0,0,0,0,-1,524,1737,0,0
-693,-713,0,0,0,0,0,0,0,0,0,-1,531,1737,0,0
-686,-713,0,0,0,0,0,0,0,0,0,-1,538,1737,0,0
-679,-713,0,0,0,0,0,0,0,0,0,-1,545,1737,0,0
-672,-713,0,0,0,0,0,0,0,0,0,-1,552,1737,0,0
-665,-713,0,0,0,0,0,0,0,0,0,-1,559,1737,0,0
-658,-713,0,0,0,0,0,0,0,0,0,-1,566,1737,0,0
-651,-713,0,0,0,0,0,0,0,0,0,-1,573,1737,0,0
-644,-713,0,0,0,0,0,0,0,0,0,-1,580,1737,0,0
-637,-713,0,0,0,0,0,0,0,0,0,-1,587,1737,0,0
-630,-713,0,0,0,0,0,0,0,0,0,-1,594,1737,0,0
-623,-713,0,0,0,0,0,0,0,0,0,-1,601,1737,0,0
-616,-713,0,0,0,0,0,0,0,0,0,-1,608,1737,0,0
-609,-713,0,0,0,0,0,0,0,0,0,-1,615,1737,0,0
-602,-713,0,0,0,0,0,0,0,0,0,-1,622,1737,0,0
-595,-713,0,0,0,0,0,0,0,0,0,-1,629,1737,0,0
-588,-713,0,0,0,0,0,0,0,0,0,-1,636,1737,0,0
-581,-713,0,0,0,0,0,0,0,0,0,-1,643,1737,0,0
-574,-713,0,0,0,0,0,0,0,0,0,-1,650,1737,0,0
-567,-713,0,0,0,0,0,0,0,0,0,-1,657,1737,0,0
-560,-713,0,0,0,0,0,0,0,0,0,-1,664,1737,0,0
-553,-713,0,0,0,0,0,0,0,0,0,-1,671,1737,0,0
-546,-713,0,0,0,0,0,0,0,0,0,-1,678,1737,0,0
-539,-713,0,0,0,0,0,0,0,0,0,-1,685,1737,0,0
-532,-713,0,0,0,0,0,0,0,0,0,-1,692,1737,0,0
-525,-713,0,0,0,0,0,0,0,0,0,-1,699,1737,0,0
-518,-713,0,0,0,0,0,0,0,0,0,-1,706,1737,0,0
-511,-713,0,0,0,0,0,0,0,0,0,-1,713,1737,0,0
-504,-713,0,0,0,0,0,0,0,0,0,-1,720,1737,0,0
-497,-713,0,0,0,0,0,0,0,0,0,-1,727,1737,0,0
-490,-713,0,0,0,0,0,0,0,0,0,-1,734,1737,0,0
-483,-713,0,0,0,0,0,0,0,0,0,-1,741,1737,0,0
-476,-713,0,0,0,0,0,0,0,0,0,-1,748,1737,0,0
-469,-713,0,0,0,0,0,0,0,0,0,-1,755,1737,0,0
-462,-713,0,0,0,0,0,0,0,0,0,-1,762,1737,0,0
-455,-713,0,0,0,0,0,0,0,0,0,-1,769,1737,0,0
-448,-713,0,0,0,0,0,0,0,0,0,-1,776,1737,0,0
-441,-713,0,0,0,0,0,0,0,0,0,-1,783,1737,0,0
-434,-713,0,0,0,0,0,0,0,0,0,-1,790,1737,0,0
-427,-713,0,0,0,0,0,0,0,0,0,-1,797,1737,0,0
-420,-713,0,0,0,0,0,0,0,0,0,-1,804,1737,0,0
-413,-713,0,0,0,0,0,0,0,0,0,-1,811,1737,0,0
-406,-713,0,0,0,0,0,0,0,0,0,-1,818,1737,0,0
-399,-713,0,0,0,0,0,0,0,0,0,-1,825,1737,0,0
-392,-713,0,0,0,0,0,0,0,0,0,-1,832,1737,0,0
-385,-713,0,0,0,0,0,0,0,0,0,-1,839,1737,0,0
-378,-713,0,0,0,0,0,0,0,0,0,-1,846,1737,0,0
-371,-713,0,0,0,0,0,0,0,0,0,-1,853,1737,0,0
-364,-713,0,0,0,0,0,0,0,0,0,-1,860,1737,0,0
-357,-713,0,0,0,0,0,0,0,0,0,-1,867,1737,0,0
-350,-713,0,0,0,0,0,0,0,0,0,-1,874,1737,0,0
-343,-713,0,0,0,0,0,0,0,0,0,-1,881,1737,0,0
-336,-713,0,0,0,0,0,0,0,0,0,-1,888,1737,0,0
-329,-713,0,0,0,0,0,0,0,0,0,-1,895,1737,0,0
-322,-713,0,0,0,0,0,0,0,0,0,-1,902,1737,0,0
-315,-713,0,0,0,0,0,0,0,0,0,-1,909,1737,0,0
-308,-713,0,0,0,0,0,0,0,0,0,-1,916,1737,0,0
-301,-713,0,0,0,0,0,0,0,0,0,-1,923,1737,0,0
-294,-713,7.17883,22.0453,0,0,0,0,0,0,0,-1,930,1737,7.17881,-22.0453
-287,-713,11.8916,21.5834,0,0,0,0,0,0,0,-1,937,1737,11.8916,-21.5833
-280,-713,10.2786,21.3551,0,0,0,0,0,0,0,-1,944,1737,10.2787,-21.3551
-273,-713,11.1981,23.8683,0,0,0,0,0,0,0,-1,951,1737,11.198,-23.8683
-266,-713,3.17981,19.8851,0,0,0,0,0,0,0,-1,958,1737,3.17983,-19.8851
-259,-713,3.5921,19.6868,0,0,0,0,0,0,0,-1,965,1737,3.59207,-19.6868
-252,-713,4.55469,20.5758,0,0,0,0,0,0,0,-1,972,1737,4.55466,-20.5758
-245,-713,3.89014,25.9825,0,0,0,0,0,0,0,-1,979,1737,3.89013,-25.9826
-238,-713,6.62506,30.5463,0,0,0,0,0,0,0,-1,986,1737,6.62509,-30.5462
-231,-713,7.10999,28.2686,0,0,0,0,0,0,0,-1,993,1737,7.10999,-28.2685
-224,-713,7.59491,25.9907,0,0,0,0,0,0,0,-1,1000,1737,7.59488,-25.9908
-217,-713,7.88287,29.4731,0,0,0,0,0,0,0,-1,1007,1737,7.88285,-29.4731
-210,-713,7.49792,30.2631,0,0,0,0,0,0,0,-1,1014,1737,7.49791,-30.2631
-203,-713,7.53345,30.6143,-0.000956391,0.00295601,0.00658995,0.00787398,-0.00587436,0.929679,0.00796554,0.0475138,1021,1737,7.53341,-30.6143
-196,-713,7.60864,31.1407,-0.000232869,0.00249924,0.00667504,0.00794658,-0.0056802,0.88633,0.00790361,0.0484482,1028,1737,7.60866,-31.1408
-189,-713,7.48315,31.4532,0.000293446,0.0020534,0.00639206,0.00762577,-0.00527892,0.853802,0.00749148,0.0436954,1035,1737,7.48317,-31.4533
-182,-713,7.44836,31.5743,7.52462e-05,0.00190233,0.00553405,0.00659773,-0.00462015,0.867199,0.00651011,0.0297856,1042,1737,7.44839,-31.5744
-175,-713,7.60693,32.0079,0,0,0,0,0,0,0,-1,1049,1737,7.60699,-32.0079
-168,-713,7.74561,32.0641,-0.000470817,0.0017389,0.00425927,0.00503428,-0.0037662,0.912302,0.00509851,0.0366651,1056,1737,7.74562,-32.064
-161,-713,7.58582,32.4812,-0.000885634,0.00136739,0.00343698,0.00385776,-0.00337601,0.943762,0.0041795,0.017191,1063,1737,7.58584,-32.4812
-154,-713,7.50439,32.7765,-0.00133735,0.00141508,0.00269345,0.00306354,-0.0029858,1.02158,0.00349268,0.0118718,1070,1737,7.50444,-32.7765
-147,-713,7.47034,33.0356,-0.00171941,0.00154892,0.0020145,0.00250873,-0.00267922,1.12617,0.0029958,0.01829,1077,1737,7.47036,-33.0356
-140,-713,7.4906,33.288,-0.00183998,0.00207982,0.00158767,0.0026422,-0.00240236,1.23037,0.00291358,0.0186064,1084,1737,7.49062,-33.288
-133,-713,7.47314,33.5117,-0.00182481,0.00253923,0.0012991,0.00289668,-0.00218225,1.30229,0.00294198,0.0121069,1091,1737,7.47311,-33.5117
-126,-713,7.45386,33.712,-0.00208705,0.00294627,0.00103149,0.00314946,-0.00229024,1.37631,0.00315364,0.0185143,1098,1737,7.45387,-33.7121
-119,-713,7.44287,33.917,-0.00177444,0.0032485,0.00082075,0.00337921,-0.00190515,1.41287,0.00309024,0.0259402,1105,1737,7.44289,-33.917
-112,-713,7.41931,34.2166,-0.00142156,0.0033714,0.000629584,0.00345272,-0.00150288,1.44234,0.00293401,0.0131664,1112,1737,7.41934,-34.2166
-105,-713,7.41956,34.4357,-0.00122938,0.0035757,0.000327383,0.00359791,-0.00125158,1.50308,0.00290704,0.0109658,1119,1737,7.41954,-34.4356
-98,-713,7.4248,34.6322,-0.000984391,0.00361317,0.00022203,0.00362387,-0.000995088,1.52265,0.00280703,0.0101494,1126,1737,7.42478,-34.6323
-91,-713,7.4126,34.8207,-0.000641584,0.00343564,0.000170698,0.00344277,-0.000648718,1.52903,0.00253919,0.0098042,1133,1737,7.41258,-34.8206
-84,-713,7.40686,35.017,-0.000353531,0.00319354,2.6976e-05,0.00319375,-0.000353737,1.56319,0.00225634,0.00912989,1140,1737,7.4069,-35.017
-77,-713,7.42139,35.2274,5.61806e-06,0.00301153,-0.000103887,0.00301511,2.0318e-06,-1.53629,0.0020094,0.0121255,1147,1737,7.42144,-35.2274
-70,-713,7.40662,35.411,0.000340897,0.00265019,-0.00034045,0.00269933,0.000291752,-1.42743,0.00171062,0.0142222,1154,1737,7.40665,-35.411
-63,-713,7.40125,35.5735,0.000656383,0.00238759,-0.000592273,0.00257082,0.00047315,-1.27076,0.00157996,0.0129584,1161,1737,7.40125,-35.5735
-56,-713,7.41809,35.7324,0.00101682,0.00215163,-0.000782475,0.00255078,0.000617676,-1.0991,0.00153658,0.0125852,1168,1737,7.41808,-35.7324
-49,-713,7.38013,35.877,0.00139013,0.00203362,-0.000884149,0.00265274,0.000771,-0.959902,0.00157568,0.0142614,1175,1737,7.38011,-35.877
-42,-713,7.39563,36.0212,0.00188755,0.00219311,-0.000820721,0.00287515,0.00120551,-0.877422,0.00166716,0.0163602,1182,1737,7.39563,-36.0213
-35,-713,7.44543,36.1429,0.00240887,0.00233233,-0.000870298,0.00324174,0.00149946,-0.763426,0.00187337,0.0137624,1189,1737,7.44538,-36.1429
-28,-713,7.46277,36.2667,0.0029259,0.00282791,-0.000813817,0.0036922,0.00206162,-0.755333,0.00213653,0.0126937,1196,1737,7.46273,-36.2667
-21,-713,7.46216,36.3806,0.00314177,0.00327838,-0.000649229,0.00386289,0.00255726,-0.837811,0.00226893,0.00963547,1203,1737,7.4622,-36.3806
-14,-713,7.47156,36.4667,0.00328091,0.00418275,-0.000153729,0.00420824,0.00325543,-1.40651,0.00254798,0.0108704,1210,1737,7.47161,-36.4667
-7,-713,7.50488,36.5662,0.00348413,0.00515209,0.00045402,0.00526766,0.00336855,1.32153,0.00308048,0.0094502,1217,1737,7.50492,-36.5662
0,-713,7.52698,36.6649,0.00354174,0.00605806,0.00107235,0.00645305,0.00314675,1.21788,0.00372605,0.0136406,1224,1737,7.527,-36.6649
7,-713,7.54639,36.7356,0.00351794,0.00702548,0.0017133,0.00772347,0.00281995,1.18393,0.00451291,0.0152777,1231,1737,7.5464,-36.7356
14,-713,7.56287,36.8241,0.00347379,0.0079005,0.00234476,0.00891156,0.00246273,1.16369,0.00531389,0.0111927,1238,1737,7.56291,-36.8241
21,-713,7.57153,36.8828,0.00343983,0.00868241,0.00293586,0.00999691,0.00212533,1.14982,0.00608124,0.0109501,1245,1737,7.5715,-36.8828
28,-713,7.57361,36.9326,0.00341113,0.00928085,0.00341814,0.0108512,0.00184077,1.14014,0.00670531,0.0118207,1252,1737,7.57364,-36.9326
35,-713,7.59729,36.991,0.00338929,0.00966395,0.00375913,0.0114229,0.00163031,1.13314,0.00713422,0.0118496,1259,1737,7.59731,-36.9909
42,-713,7.64307,37.0344,0.00333286,0.00959022,0.00395514,0.0115045,0.00141854,1.12003,0.00724329,0.011751,1266,1737,7.64301,-37.0344
49,-713,7.66003,37.0424,0.0032794,0.00915091,0.00396867,0.0111517,0.00127866,1.10385,0.00704699,0.0114928,1273,1737,7.66003,-37.0423
56,-713,7.67493,37.062,0.00322234,0.00841822,0.00384284,0.0104589,0.00118166,1.08263,0.00661399,0.0118269,1280,1737,7.67491,-37.062
63,-713,7.68652,37.0779,0.00302019,0.00746334,0.00352303,0.00940675,0.00107677,1.0667,0.00594484,0.0121754,1287,1737,7.68656,-37.0778
70,-713,7.71106,37.0681,0.00273742,0.00630096,0.00329281,0.00826316,0.000775219,1.03339,0.00526941,0.0119536,1294,1737,7.71101,-37.0681
77,-713,7.73779,37.0782,0.00237309,0.00480028,0.00293141,0.00675938,0.000414,0.981655,0.00437479,0.012241,1301,1737,7.73784,-37.0782
84,-713,7.76978,37.1,0.00224125,0.00335593,0.00261446,0.00547179,0.000125387,0.890414,0.00360679,0.0121191,1308,1737,7.76979,-37.1
91,-713,7.7771,37.0834,0.00209114,0.0019342,0.00231669,0.00433069,-0.000305352,0.768469,0.00299411,0.0120666,1315,1737,7.77705,-37.0834
98,-713,7.78699,37.0326,0.00171356,0.000826742,0.00221686,0.00353093,-0.000990618,0.686692,0.00274441,0.0115987,1322,1737,7.78704,-37.0326
105,-713,7.82385,37.0048,0.00154543,0.000325221,0.00226386,0.00327996,-0.0014093,0.653776,0.00277822,0.0131077,1329,1737,7.82389,-37.0047
112,-713,7.85938,36.9944,0.00153696,-6.85872e-05,0.00243298,0.00329618,-0.00182781,0.626045,0.00299855,0.0134595,1336,1737,7.85939,-36.9944
119,-713,7.86816,36.9449,0.00150614,-0.000325001,0.00253337,0.00328431,-0.00210317,0.611999,0.00313528,0.0142186,1343,1737,7.86812,-36.945
126,-713,7.86829,36.8667,0.00159508,-0.000476322,0.00257803,0.00333768,-0.00221892,0.594395,0.0032297,0.0134195,1350,1737,7.86827,-36.8667
133,-713,7.88135,36.7216,0.00178895,-0.000486749,0.00260597,0.00349465,-0.00219245,0.579557,0.00331202,0.011913,1357,1737,7.88133,-36.7216
140,-713,7.91516,36.6211,0.00202248,-0.000273267,0.00258716,0.00370498,-0.00195577,0.576605,0.00331984,0.0133266,1364,1737,7.91514,-36.6211
147,-713,7.95374,36.5369,0.00223025,2.27726e-06,0.00249357,0.00384735,-0.00161483,0.575327,0.00324021,0.0140129,1371,1737,7.95377,-36.5369
154,-713,7.93738,36.4585,0.00234436,0.000308198,0.00233449,0.0038731,-0.00122055,0.579779,0.00307087,0.0136883,1378,1737,7.93732,-36.4585
161,-713,7.94409,36.3336,0.00231366,0.000608811,0.00210604,0.00373325,-0.000810776,0.5931,0.00279852,0.0100096,1385,1737,7.94406,-36.3336
168,-713,7.9519,36.1927,0.00223638,0.000725509,0.00187064,0.00349836,-0.000536471,0.593493,0.00253009,0.00946253,1392,1737,7.95189,-36.1928
175,-713,7.97803,36.0599,0.00218496,0.000995469,0.00144284,0.00315082,2.96038e-05,0.589906,0.00209075,0.0129774,1399,1737,7.97799,-36.0599
182,-713,7.98999,35.9368,0.00191413,0.00136202,0.00110995,0.00278183,0.000494311,0.663515,0.00171372,0.0125265,1406,1737,7.98998,-35.9368
189,-713,7.99304,35.7634,0.00153266,0.0014822,0.000752029,0.00225988,0.000754979,0.76863,0.00132847,0.0113041,1413,1737,7.99305,-35.7634
196,-713,8.00232,35.6134,0.00116556,0.00157431,0.000301382,0.00173408,0.00100579,1.08335,0.00100544,0.0119657,1420,1737,8.00237,-35.6134
203,-713,8.0094,35.4858,0.00080662,0.00174513,-0.000102419,0.00175618,0.000795573,-1.46335,0.00101542,0.0164191,1427,1737,8.00942,-35.4858
210,-713,8.00696,35.3048,0.000553741,0.00206952,-0.00026742,0.00211532,0.000507946,-1.40119,0.00127508,0.0129924,1434,1737,8.007,-35.3048
217,-713,7.9978,35.145,0.000296722,0.00222492,-0.000544767,0.00236819,0.000153455,-1.31363,0.00153021,0.0103922,1441,1737,7.99777,-35.145
224,-713,7.99902,34.9872,0.000160221,0.00249102,-0.000747491,0.00271014,-5.89007e-05,-1.28564,0.00182671,0.0118416,1448,1737,7.99908,-34.9871
231,-713,7.99097,34.7806,-1.75497e-05,0.00274571,-0.000914467,0.00302093,-0.00029277,-1.27846,0.0021183,0.0110077,1455,1737,7.99095,-34.7806
238,-713,7.97852,34.5594,9.33961e-05,0.00299939,-0.000845697,0.00322759,-0.000134798,-1.30724,0.00219804,0.00838721,1462,1737,7.97853,-34.5594
245,-713,7.99377,34.3678,0.000412655,0.00291521,-0.000829102,0.00316497,0.000162898,-1.2782,0.00205783,0.0108474,1469,1737,7.9938,-34.3678
252,-713,7.99561,34.1559,0.000790529,0.00250282,-0.000877925,0.00287294,0.000420405,-1.17182,0.00179168,0.0116639,1476,1737,7.99562,-34.1559
259,-713,7.99438,33.9331,0.0011242,0.00211673,-0.000812562,0.00257259,0.000668344,-1.05954,0.00154136,0.0118088,1483,1737,7.9944,-33.9331
266,-713,7.95947,33.734,0.00159702,0.00181693,-0.000843733,0.00255784,0.000856106,-0.850194,0.00150343,0.0105696,1490,1737,7.95946,-33.734
273,-713,7.94226,33.5031,0.00217486,0.00147706,-0.00101019,0.0028947,0.000757217,-0.619122,0.00173343,0.00885427,1497,1737,7.9422,-33.5031
280,-713,7.90625,33.2518,0.00275154,0.000953472,-0.00122741,0.00337396,0.000331058,-0.469307,0.00214747,0.00982155,1504,1737,7.90627,-33.2518
287,-713,7.88416,33.0222,0.00345094,0.00087801,-0.00155498,0.00418264,0.000146317,-0.439809,0.00274095,0.0113279,1511,1737,7.88413,-33.0222
294,-713,7.90234,32.8069,0.00431026,0.000949727,-0.00204555,0.00527718,-1.71892e-05,-0.441564,0.00352386,0.0187321,1518,1737,7.90236,-32.8069
301,-713,7.91614,32.5352,0.00533785,0.000645005,-0.00293583,0.00674972,-0.000766871,-0.448261,0.00477601,0.0225934,1525,1737,7.91612,-32.5352
308,-713,7.927,32.2358,0.00630549,0.000410551,-0.00383176,0.00819227,-0.00147623,-0.457554,0.00601429,0.0240868,1532,1737,7.92699,-32.2358
315,-713,7.87598,31.9285,0.00743114,0.000124848,-0.00503477,0.00999848,-0.00244249,-0.471553,0.00761158,0.0317843,1539,1737,7.87598,-31.9285
322,-713,7.97791,31.4963,0.00853548,0.000517163,-0.00628133,0.0119781,-0.00292542,-0.501357,0.00911831,0.0422253,1546,1737,7.97792,-31.4964
329,-713,7.99939,31.2761,0,0,0,0,0,0,0,-1,1553,1737,7.99937,-31.2761
336,-713,7.99622,30.8051,0,0,0,0,0,0,0,-1,1560,1737,7.99617,-30.805
343,-713,8.05249,30.9335,0,0,0,0,0,0,0,-1,1567,1737,8.05247,-30.9334
350,-713,8.61279,31.0964,0,0,0,0,0,0,0,-1,1574,1737,8.61282,-31.0964
357,-713,7.04224,30.0194,0,0,0,0,0,0,0,-1,1581,1737,7.0422,-30.0194
364,-713,7.35474,20.9537,0,0,0,0,0,0,0,-1,1588,1737,7.35472,-20.9537
371,-713,3.07507,25.4108,0,0,0,0,0,0,0,-1,1595,1737,3.07502,-25.4107
378,-713,4.21838,25.306,0,0,0,0,0,0,0,-1,1602,1737,4.21837,-25.306
385,-713,5.078,25.3104,0,0,0,0,0,0,0,-1,1609,1737,5.07795,-25.3104
392,-713,5.92114,25.3118,0,0,0,0,0,0,0,-1,1616,1737,5.92112,-25.3118
399,-713,3.14368,25.2808,0,0,0,0,0,0,0,-1,1623,1737,3.14369,-25.2808
406,-713,1.82678,26.7354,0,0,0,0,0,0,0,-1,1630,1737,1.82679,-26.7354
413,-713,3.24731,18.2787,0,0,0,0,0,0,0,-1,1637,1737,3.24726,-18.2787
420,-713,0,0,0,0,0,0,0,0,0,-1,1644,1737,0,0
427,-713,0,0,0,0,0,0,0,0,0,-1,1651,1737,0,0
434,-713,0,0,0,0,0,0,0,0,0,-1,1658,1737,0,0
441,-713,0,0,0,0,0,0,0,0,0,-1,1665,1737,0,0
448,-713,0,0,0,0,0,0,0,0,0,-1,1672,1737,0,0
455,-713,0,0,0,0,0,0,0,0,0,-1,1679,1737,0,0
462,-713,0,0,0,0,0,0,0,0,0,-1,1686,1737,0,0
469,-713,0,0,0,0,0,0,0,0,0,-1,1693,1737,0,0
476,-713,0,0,0,0,0,0,0,0,0,-1,1700,1737,0,0
483,-713,0,0,0,0,0,0,0,0,0,-1,1707,1737,0,0
490,-713,0,0,0,0,0,0,0,0,0,-1,1714,1737,0,0
497,-713,0,0,0,0,0,0,0,0,0,-1,1721,1737,0,0
504,-713,0,0,0,0,0,0,0,0,0,-1,1728,1737,0,0
511,-713,0,0,0,0,0,0,0,0,0,-1,1735,1737,0,0
518,-713,0,0,0,0,0,0,0,0,0,-1,1742,1737,0,0
525,-713,0,0,0,0,0,0,0,0,0,-1,1749,1737,0,0
532,-713,0,0,0,0,0,0,0,0,0,-1,1756,1737,0,0
539,-713,0,0,0,0,0,0,0,0,0,-1,1763,1737,0,0
546,-713,0,0,0,0,0,0,0,0,0,-1,1770,1737,0,0
553,-713,0,0,0,0,0,0,0,0,0,-1,1777,1737,0,0
560,-713,0,0,0,0,0,0,0,0,0,-1,1784,1737,0,0
567,-713,0,0,0,0,0,0,0,0,0,-1,1791,1737,0,0
574,-713,0,0,0,0,0,0,0,0,0,-1,1798,1737,0,0
581,-713,0,0,0,0,0,0,0,0,0,-1,1805,1737,0,0
588,-713,0,0,0,0,0,0,0,0,0,-1,1812,1737,0,0
595,-713,0,0,0,0,0,0,0,0,0,-1,1819,1737,0,0
602,-713,0,0,0,0,0,0,0,0,0,-1,1826,1737,0,0
609,-713,0,0,0,0,0,0,0,0,0,-1,1833,1737,0,0
616,-713,0,0,0,0,0,0,0,0,0,-1,1840,1737,0,0
623,-713,0,0,0,0,0,0,0,0,0,-1,1847,1737,0,0
630,-713,0,0,0,0,0,0,0,0,0,-1,1854,1737,0,0
637,-713,0,0,0,0,0,0,0,0,0,-1,1861,1737,0,0
644,-713,0,0,0,0,0,0,0,0,0,-1,1868,1737,0,0
651,-713,0,0,0,0,0,0,0,0,0,-1,1875,1737,0,0
658,-713,0,0,0,0,0,0,0,0,0,-1,1882,1737,0,0
665,-713,0,0,0,0,0,0,0,0,0,-1,1889,1737,0,0
672,-713,0,0,0,0,0,0,0,0,0,-1,1896,1737,0,0
679,-713,0,0,0,0,0,0,0,0,0,-1,1903,1737,0,0
686,-713,0,0,0,0,0,0,0,0,0,-1,1910,1737,0,0
693,-713,0,0,0,0,0,0,0,0,0,-1,1917,1737,0,0
700,-713,0,0,0,0,0,0,0,0,0,-1,1924,1737,0,0
707,-713,0,0,0,0,0,0,0,0,0,-1,1931,1737,0,0
714,-713,0,0,0,0,0,0,0,0,0,-1,1938,1737,0,0
721,-713,0,0,0,0,0,0,0,0,0,-1,1945,1737,0,0
728,-713,0,0,0,0,0,0,0,0,0,-1,1952,1737,0,0
735,-713,0,0,0,0,0,0,0,0,0,-1,1959,1737,0,0
742,-713,0,0,0,0,0,0,0,0,0,-1,1966,1737,0,0
749,-713,0,0,0,0,0,0,0,0,0,-1,1973,1737,0,0
756,-713,0,0,0,0,0,0,0,0,0,-1,1980,1737,0,0
763,-713,0,0,0,0,0,0,0,0,0,-1,1987,1737,0,0
770,-713,0,0,0,0,0,0,0,0,0,-1,1994,1737,0,0
777,-713,0,0,0,0,0,0,0,0,0,-1,2001,1737,0,0
784,-713,0,0,0,0,0,0,0,0,0,-1,2008,1737,0,0
791,-713,0,0,0,0,0,0,0,0,0,-1,2015,1737,0,0
798,-713,0,0,0,0,0,0,0,0,0,-1,2022,1737,0,0
805,-713,0,0,0,0,0,0,0,0,0,-1,2029,1737,0,0
812,-713,0,0,0,0,0,0,0,0,0,-1,2036,1737,0,0
-700,-720,0,0,0,0,0,0,0,0,0,-1,524,1744,0,0
-693,-720,0,0,0,0,0,0,0,0,0,-1,531,1744,0,0
-686,-720,0,0,0,0,0,0,0,0,0,-1,538,1744,0,0
-679,-720,0,0,0,0,0,0,0,0,0,-1,545,1744,0,0
-672,-720,0,0,0,0,0,0,0,0,0,-1,552,1744,0,0
-665,-720,0,0,0,0,0,0,0,0,0,-1,559,1744,0,0
-658,-720,0,0,0,0,0,0,0,0,0,-1,566,1744,0,0
-651,-720,0,0,0,0,0,0,0,0,0,-1,573,1744,0,0
-644,-720,0,0,0,0,0,0,0,0,0,-1,580,1744,0,0
-637,-720,0,0,0,0,0,0,0,0,0,-1,587,1744,0,0
-630,-720,0,0,0,0,0,0,0,0,0,-1,594,1744,0,0
-623,-720,0,0,0,0,0,0,0,0,0,-1,601,1744,0,0
-616,-720,0,0,0,0,0,0,0,0,0,-1,608,1744,0,0
-609,-720,0,0,0,0,0,0,0,0,0,-1,615,1744,0,0
-602,-720,0,0,0,0,0,0,0,0,0,-1,622,1744,0,0
-595,-720,0,0,0,0,0,0,0,0,0,-1,629,1744,0,0
-588,-720,0,0,0,0,0,0,0,0,0,-1,636,1744,0,0
-581,-720,0,0,0,0,0,0,0,0,0,-1,643,1744,0,0
-574,-720,0,0,0,0,0,0,0,0,0,-1,650,1744,0,0
-567,-720,0,0,0,0,0,0,0,0,0,-1,657,1744,0,0
-560,-720,0,0,0,0,0,0,0,0,0,-1,664,1744,0,0
-553,-720,0,0,0,0,0,0,0,0,0,-1,671,1744,0,0
-546,-720,0,0,0,0,0,0,0,0,0,-1,678,1744,0,0
-539,-720,0,0,0,0,0,0,0,0,0,-1,685,1744,0,0
-532,-720,0,0,0,0,0,0,0,0,0,-1,692,1744,0,0
-525,-720,0,0,0,0,0,0,0,0,0,-1,699,1744,0,0
-518,-720,0,0,0,0,0,0,0,0,0,-1,706,1744,0,0
-511,-720,0,0,0,0,0,0,0,0,0,-1,713,1744,0,0
-504,-720,0,0,0,0,0,0,0,0,0,-1,720,1744,0,0
-497,-720,0,0,0,0,0,0,0,0,0,-1,727,1744,0,0
-490,-720,0,0,0,0,0,0,0,0,0,-1,734,1744,0,0
-483,-720,0,0,0,0,0,0,0,0,0,-1,741,1744,0,0
-476,-720,0,0,0,0,0,0,0,0,0,-1,748,1744,0,0
-469,-720,0,0,0,0,0,0,0,0,0,-1,755,1744,0,0
-462,-720,0,0,0,0,0,0,0,0,0,-1,762,1744,0,0
-455,-720,0,0,0,0,0,0,0,0,0,-1,769,1744,0,0
-448,-720,0,0,0,0,0,0,0,0,0,-1,776,1744,0,0
-441,-720,0,0,0,0,0,0,0,0,0,-1,783,1744,0,0
-434,-720,0,0,0,0,0,0,0,0,0,-1,790,1744,0,0
-427,-720,0,0,0,0,0,0,0,0,0,-1,797,1744,0,0
-420,-720,0,0,0,0,0,0,0,0,0,-1,804,1744,0,0
-413,-720,0,0,0,0,0,0,0,0,0,-1,811,1744,0,0
-406,-720,0,0,0,0,0,0,0,0,0,-1,818,1744,0,0
-399,-720,0,0,0,0,0,0,0,0,0,-1,825,1744,0,0
-392,-720,0,0,0,0,0,0,0,0,0,-1,832,1744,0,0
-385,-720,0,0,0,0,0,0,0,0,0,-1,839,1744,0,0
-378,-720,0,0,0,0,0,0,0,0,0,-1,846,1744,0,0
-371,-720,0,0,0,0,0,0,0,0,0,-1,853,1744,0,0
-364,-720,0,0,0,0,0,0,0,0,0,-1,860,1744,0,0
-357,-720,0,0,0,0,0,0,0,0,0,-1,867,1744,0,0
-350,-720,0,0,0,0,0,0,0,0,0,-1,874,1744,0,0
-343,-720,0,0,0,0,0,0,0,0,0,-1,881,1744,0,0
-336,-720,0,0,0,0,0,0,0,0,0,-1,888,1744,0,0
-329,-720,0,0,0,0,0,0,0,0,0,-1,895,1744,0,0
-322,-720,0,0,0,0,0,0,0,0,0,-1,902,1744,0,0
-315,-720,0,0,0,0,0,0,0,0,0,-1,909,1744,0,0
-308,-720,0,0,0,0,0,0,0,0,0,-1,916,1744,0,0
-301,-720,0,0,0,0,0,0,0,0,0,-1,923,1744,0,0
-294,-720,0,0,0,0,0,0,0,0,0,-1,930,1744,0,0
-287,-720,0,0,0,0,0,0,0,0,0,-1,937,1744,0,0
-280,-720,6.46796,22.6417,0,0,0,0,0,0,0,-1,944,1744,6.46793,-22.6417
-273,-720,8.54633,13.262,0,0,0,0,0,0,0,-1,951,1744,8.54636,-13.2619
-266,-720,7.28027,13.3165,0,0,0,0,0,0,0,-1,958,1744,7.28026,-13.3166
-259,-720,3.70563,18.6372,0,0,0,0,0,0,0,-1,965,1744,3.70564,-18.6372
-252,-720,4.00989,18.5059,0,0,0,0,0,0,0,-1,972,1744,4.00988,-18.5058
-245,-720,4.63318,20.3199,0,0,0,0,0,0,0,-1,979,1744,4.6332,-20.32
-238,-720,5.02216,24.1455,0,0,0,0,0,0,0,-1,986,1744,5.02217,-24.1455
-231,-720,7.35455,28.3225,0,0,0,0,0,0,0,-1,993,1744,7.35453,-28.3225
-224,-720,7.65991,19.4061,0,0,0,0,0,0,0,-1,1000,1744,7.6599,-19.4061
-217,-720,4.77637,30.7196,0,0,0,0,0,0,0,-1,1007,1744,4.77636,-30.7197
-210,-720,5.35944,31.1256,0,0,0,0,0,0,0,-1,1014,1744,5.35942,-31.1256
-203,-720,7.68274,30.613,0,0,0,0,0,0,0,-1,1021,1744,7.68272,-30.6131
-196,-720,7.84167,31.2902,0,0,0,0,0,0,0,-1,1028,1744,7.84166,-31.2902
-189,-720,7.18628,31.0338,0,0,0,0,0,0,0,-1,1035,1744,7.18622,-31.0338
-182,-720,7.64954,31.553,0.00118775,0.00318291,0.00753467,0.00978575,-0.00541509,0.851215,0.00889632,0.0479268,1042,1744,7.64953,-31.5529
-175,-720,8.14575,31.9735,0,0,0,0,0,0,0,-1,1049,1744,8.14581,-31.9736
-168,-720,8.31714,32.225,0,0,0,0,0,0,0,-1,1056,1744,8.3172,-32.225
-161,-720,7.57178,32.4637,-0.00118897,0.00242388,0.00456349,0.00552547,-0.00429056,0.973857,0.00568222,0.0381353,1063,1744,7.57179,-32.4637
-154,-720,7.79456,32.8407,-0.00201178,0.00225433,0.00357877,0.00428751,-0.00404496,1.05415,0.00481144,0.031089,1070,1744,7.79453,-32.8407
-147,-720,7.72437,33.1438,-0.00268355,0.00218505,0.00268929,0.00337815,-0.00387666,1.15323,0.00419186,0.0278835,1077,1744,7.72434,-33.1438
-140,-720,7.74109,33.3702,-0.00296484,0.00262275,0.00212572,0.00333951,-0.0036816,1.24559,0.00405524,0.0216304,1084,1744,7.74115,-33.3703
-133,-720,7.70166,33.5498,-0.00303911,0.00296708,0.00174063,0.00343506,-0.0035071,1.30815,0.00400813,0.014343,1091,1744,7.70172,-33.5497
-126,-720,7.68018,33.7555,-0.00347157,0.0032869,0.0013856,0.00355994,-0.00374461,1.37623,0.00421774,0.0127899,1098,1744,7.68014,-33.7555
-119,-720,7.65918,33.9642,-0.00309207,0.00352606,0.00113348,0.00371481,-0.00328082,1.40579,0.00404151,0.0135385,1105,1744,7.65922,-33.9643
-112,-720,7.63025,34.1896,-0.00266671,0.00364871,0.000916465,0.00377902,-0.00279701,1.42956,0.00381076,0.0126225,1112,1744,7.63026,-34.1896
-105,-720,7.6106,34.4186,-0.00244926,0.00396537,0.000566427,0.004015,-0.0024989,1.4834,0.0037946,0.0131063,1119,1744,7.61061,-34.4186
-98,-720,7.62341,34.6281,-0.00215764,0.004126,0.000468724,0.00416077,-0.00219241,1.49675,0.00372623,0.0102887,1126,1744,7.62343,-34.628
-91,-720,7.60315,34.8235,-0.00173913,0.00403397,0.000455058,0.00406962,-0.00177478,1.49262,0.00345989,0.00917925,1133,1744,7.60316,-34.8235
-84,-720,7.58752,35.0371,-0.00142586,0.00387257,0.000288764,0.00388826,-0.00144155,1.51651,0.00318341,0.010006,1140,1744,7.58757,-35.0371
-77,-720,7.59351,35.2515,-0.000998702,0.00376666,0.000224587,0.00377722,-0.00100926,1.52381,0.00291343,0.0123235,1147,1744,7.5935,-35.2515
-70,-720,7.58899,35.4113,-0.000730536,0.00343313,4.43748e-05,0.0034336,-0.000731009,1.56014,0.00256766,0.0115461,1154,1744,7.58904,-35.4112
-63,-720,7.5614,35.5669,-0.000618331,0.00294716,-0.000163591,0.00295465,-0.000625822,-1.52504,0.00220814,0.0113076,1161,1744,7.56135,-35.5669
-56,-720,7.57166,35.7313,-0.00038964,0.00244916,-0.000294292,0.00247935,-0.000419827,-1.46858,0.00180915,0.0128451,1168,1744,7.57168,-35.7313
-49,-720,7.53687,35.8435,-9.56164e-05,0.00184053,-0.000384135,0.00191396,-0.000169045,-1.38192,0.00133589,0.0183588,1175,1744,7.53686,-35.8435
-42,-720,7.54114,36.0061,0.00023257,0.00131338,-0.000413693,0.00145355,9.24017e-05,-1.24412,0.000939747,0.0194851,1182,1744,7.5411,-36.0061
-35,-720,7.58569,36.127,0.000662197,0.000905873,-0.000501496,0.00130012,0.000267951,-0.904564,0.000792672,0.0166125,1189,1744,7.58568,-36.127
-28,-720,7.59314,36.2546,0.00103951,0.000773072,-0.000615324,0.00153587,0.000276711,-0.678793,0.000945274,0.0107132,1196,1744,7.5931,-36.2547
-21,-720,7.59985,36.3833,0.00132476,0.000613614,-0.000610295,0.00167551,0.000262863,-0.521627,0.00104051,0.00889255,1203,1744,7.59982,-36.3833
-14,-720,7.60132,36.4844,0.00153942,0.000847793,-0.00048323,0.00178782,0.000599385,-0.47483,0.00105071,0.0105022,1210,1744,7.60138,-36.4844
-7,-720,7.59827,36.5923,0.0017279,0.00119173,-0.000252481,0.00182807,0.00109155,-0.377717,0.00106205,0.011639,1217,1744,7.59825,-36.5923
0,-720,7.60193,36.7008,0.00181447,0.00159101,3.65367e-05,0.00182029,0.00158518,0.15802,0.00114325,0.0126257,1224,1744,7.60195,-36.7008
7,-720,7.61572,36.7743,0.00185943,0.00211331,0.000352936,0.00236144,0.0016113,0.958024,0.00139327,0.013985,1231,1744,7.61572,-36.7743
14,-720,7.63416,36.8458,0.00188188,0.00266791,0.00067913,0.00305955,0.00149024,1.04771,0.00176663,0.0129447,1238,1744,7.63417,-36.8458
21,-720,7.62476,36.9088,0.00190613,0.00324787,0.00101394,0.00379279,0.00136121,1.07766,0.00221864,0.0111883,1245,1744,7.62481,-36.9088
28,-720,7.63208,36.9432,0.00193495,0.00372346,0.00131311,0.0044179,0.00124051,1.08434,0.00263112,0.0113351,1252,1744,7.63207,-36.9432
35,-720,7.65112,36.9988,0.00196514,0.00409457,0.00153056,0.00489432,0.00116539,1.08929,0.00295211,0.0121753,1259,1744,7.65113,-36.9988
42,-720,7.66821,37.0493,0.00197224,0.00422825,0.00168009,0.00512388,0.00107661,1.08103,0.0031196,0.0128281,1266,1744,7.66822,-37.0493
49,-720,7.67212,37.0593,0.00194747,0.00409041,0.00175588,0.00507592,0.000961961,1.05935,0.00311323,0.0121093,1273,1744,7.67215,-37.0593
56,-720,7.67664,37.0686,0.00190861,0.00380453,0.00174934,0.00484625,0.000866889,1.0337,0.00298414,0.0104836,1280,1744,7.67661,-37.0686
63,-720,7.69641,37.0845,0.00180826,0.00342803,0.00166566,0.00447026,0.000766036,1.01168,0.00276049,0.0121191,1287,1744,7.69635,-37.0845
70,-720,7.73792,37.078,0.00161005,0.00291822,0.00164874,0.00403788,0.000490385,0.974235,0.00254426,0.0126238,1294,1744,7.73797,-37.0781
77,-720,7.7511,37.0706,0.00138402,0.00214677,0.00154034,0.00335225,0.000178545,0.906754,0.00217776,0.013749,1301,1744,7.75105,-37.0706
84,-720,7.76465,37.0542,0.00121063,0.00140667,0.00142756,0.00273957,-0.00012227,0.819675,0.00186847,0.013553,1308,1744,7.7647,-37.0541
91,-720,7.76648,37.0376,0.00107368,0.000760099,0.00147926,0.00240443,-0.000570653,0.732599,0.00182319,0.0128231,1315,1744,7.76651,-37.0376
98,-720,7.73816,37.0256,0.000902371,0.000186877,0.00153681,0.00212252,-0.00103328,0.671042,0.00185783,0.0118345,1322,1744,7.73822,-37.0257
105,-720,7.76099,36.9996,0.000793454,-0.000129567,0.0015898,0.00198738,-0.00132349,0.644134,0.0019243,0.0116863,1329,1744,7.76103,-36.9997
112,-720,7.78198,36.9764,0.00076631,-0.000335736,0.00173817,0.00203871,-0.00160814,0.631903,0.00211039,0.0110838,1336,1744,7.78195,-36.9764
119,-720,7.78516,36.9397,0.000737027,-0.00045316,0.00183358,0.00206967,-0.0017858,0.628485,0.00222796,0.0112823,1343,1744,7.78521,-36.9397
126,-720,7.79553,36.8521,0.00080628,-0.000482674,0.00189084,0.00215946,-0.00183586,0.621152,0.00230922,0.0115737,1350,1744,7.79551,-36.852
133,-720,7.79993,36.7448,0.000942849,-0.000369758,0.00191668,0.00231247,-0.00173938,0.620446,0.00234713,0.0133638,1357,1744,7.79989,-36.7448
140,-720,7.81348,36.6703,0.00110119,-0.000143216,0.00190363,0.00248173,-0.00152375,0.627446,0.0023345,0.0202466,1364,1744,7.81351,-36.6703
147,-720,7.82129,36.5651,0.00125043,7.99632e-05,0.00181125,0.00256864,-0.00123825,0.629137,0.0022422,0.0201248,1371,1744,7.82124,-36.5651
154,-720,7.82275,36.4456,0.00130164,0.000301307,0.00163028,0.00250675,-0.000903804,0.636557,0.00204029,0.01292,1378,1744,7.82274,-36.4456
161,-720,7.85364,36.325,0.00121883,0.000493921,0.00139179,0.00229458,-0.000581831,0.658015,0.00175609,0.00957952,1385,1744,7.85367,-36.3249
168,-720,7.84839,36.203,0.00109641,0.000587843,0.00109044,0.00196182,-0.000277573,0.670849,0.00140955,0.00979589,1392,1744,7.84842,-36.2031
175,-720,7.83435,36.0575,0.00093076,0.000825373,0.000667147,0.00154729,0.000208842,0.745988,0.000969441,0.0156065,1399,1744,7.83431,-36.0574
182,-720,7.83936,35.9482,0.000607024,0.00111778,0.000329158,0.00127901,0.000445793,1.11532,0.000749644,0.0150779,1406,1744,7.83934,-35.9482
189,-720,7.85388,35.7992,0.000395287,0.00128366,-1.67268e-05,0.00128398,0.000394973,-1.55198,0.000759375,0.0123986,1413,1744,7.85394,-35.7992
196,-720,7.85535,35.6143,9.78835e-05,0.0014787,-0.000474116,0.00162582,-4.92341e-05,-1.26992,0.00110066,0.013553,1420,1744,7.8554,-35.6143
203,-720,7.84314,35.4523,-0.000330079,0.0022178,-0.000845096,0.00247262,-0.0005849,-1.27794,0.00187406,0.0160829,1427,1744,7.8431,-35.4523
210,-720,7.84155,35.3146,-0.000445425,0.00314401,-0.00100836,0.00340789,-0.0007093,-1.31485,0.00254157,0.0133625,1434,1744,7.8415,-35.3146
217,-720,7.8241,35.1501,-0.000504529,0.00362465,-0.00121999,0.00395817,-0.000838045,-1.30394,0.00295797,0.0115001,1441,1744,7.82406,-35.1502
224,-720,7.80713,34.9626,-0.000580959,0.00410958,-0.00141465,0.0045032,-0.000974583,-1.29941,0.00337424,0.00942266,1448,1744,7.80707,-34.9626
231,-720,7.80835,34.7689,-0.000738154,0.0045578,-0.00155194,0.00497907,-0.00115943,-1.30573,0.00376583,0.00953777,1455,1744,7.80832,-34.7689
238,-720,7.79028,34.5579,-0.000475957,0.00494311,-0.00135625,0.00526359,-0.000796437,-1.33875,0.00380245,0.00833933,1462,1744,7.79024,-34.5578
245,-720,7.78735,34.3691,6.81297e-05,0.00480605,-0.00126422,0.00512228,-0.000248098,-1.32569,0.00350048,0.010645,1469,1744,7.78741,-34.3691
252,-720,7.7738,34.1439,0.000685671,0.00418664,-0.00127319,0.00460069,0.000271621,-1.25638,0.00298072,0.0109487,1476,1744,7.77384,-34.144
259,-720,7.75732,33.917,0.00122559,0.00361935,-0.0011322,0.00407001,0.000774926,-1.19198,0.00249547,0.0101525,1483,1744,7.75731,-33.9169
266,-720,7.74109,33.7175,0.00195831,0.00315599,-0.00112694,0.00383332,0.00128098,-1.02962,0.00225338,0.00826941,1490,1744,7.74109,-33.7176
273,-720,7.71533,33.4924,0.00283811,0.00257305,-0.0012895,0.00400187,0.00140928,-0.734191,0.00234391,0.014199,1497,1744,7.71532,-33.4924
280,-720,7.63257,33.2633,0.00373157,0.0017403,-0.00151496,0.00454877,0.000923093,-0.494687,0.00277645,0.0214834,1504,1744,7.63252,-33.2633
287,-720,7.55725,32.9767,0.00478321,0.00146581,-0.00190696,0.00565192,0.000597098,-0.427456,0.00358552,0.0369501,1511,1744,7.55731,-32.9767
294,-720,7.6969,32.6299,0.0060198,0.00139143,-0.0024909,0.00710562,0.000305607,-0.41108,0.00463857,0.0384925,1518,1744,7.69688,-32.6299
301,-720,7.82764,32.3717,0.00746892,0.000904149,-0.00353019,0.00900694,-0.000633871,-0.410879,0.00622668,0.0392753,1525,1744,7.82767,-32.3717
308,-720,7.64233,32.1786,0.0089166,0.000404038,-0.00458375,0.0109155,-0.00159481,-0.411212,0.00786267,0.0378802,1532,1744,7.64239,-32.1786
315,-720,7.64148,31.8503,0.0105573,-7.32696e-05,-0.00608196,0.0133193,-0.00283526,-0.426282,0.00996008,0.04095,1539,1744,7.64153,-31.8504
322,-720,7.6416,31.683,0,0,0,0,0,0,0,-1,1546,1744,7.64164,-31.683
329,-720,7.79773,28.8168,0,0,0,0,0,0,0,-1,1553,1744,7.79771,-28.8167
336,-720,6.14148,26.5682,0,0,0,0,0,0,0,-1,1560,1744,6.14151,-26.5683
343,-720,6.78552,21.3625,0,0,0,0,0,0,0,-1,1567,1744,6.78551,-21.3625
350,-720,4.0741,11.1836,0,0,0,0,0,0,0,-1,1574,1744,4.07412,-11.1836
357,-720,6.90833,21.4504,0,0,0,0,0,0,0,-1,1581,1744,6.90827,-21.4505
364,-720,5.83777,24.1599,0,0,0,0,0,0,0,-1,1588,1744,5.83773,-24.1599
371,-720,5.46997,23.6176,0,0,0,0,0,0,0,-1,1595,1744,5.47001,-23.6176
378,-720,3.88257,25.5404,0,0,0,0,0,0,0,-1,1602,1744,3.88262,-25.5404
385,-720,4.63611,25.6746,0,0,0,0,0,0,0,-1,1609,1744,4.63612,-25.6746
392,-720,3.49377,23.5042,0,0,0,0,0,0,0,-1,1616,1744,3.4938,-23.5042
399,-720,2.37317,24.7166,0,0,0,0,0,0,0,-1,1623,1744,2.37317,-24.7166
406,-720,0,0,0,0,0,0,0,0,0,-1,1630,1744,0,0
413,-720,0,0,0,0,0,0,0,0,0,-1,1637,1744,0,0
420,-720,0,0,0,0,0,0,0,0,0,-1,1644,1744,0,0
427,-720,0,0,0,0,0,0,0,0,0,-1,1651,1744,0,0
434,-720,0,0,0,0,0,0,0,0,0,-1,1658,1744,0,0
441,-720,0,0,0,0,0,0,0,0,0,-1,1665,1744,0,0
448,-720,0,0,0,0,0,0,0,0,0,-1,1672,1744,0,0
455,-720,0,0,0,0,0,0,0,0,0,-1,1679,1744,0,0
462,-720,0,0,0,0,0,0,0,0,0,-1,1686,1744,0,0
469,-720,0,0,0,0,0,0,0,0,0,-1,1693,1744,0,0
476,-720,0,0,0,0,0,0,0,0,0,-1,1700,1744,0,0
483,-720,0,0,0,0,0,0,0,0,0,-1,1707,1744,0,0
490,-720,0,0,0,0,0,0,0,0,0,-1,1714,1744,0,0
497,-720,0,0,0,0,0,0,0,0,0,-1,1721,1744,0,0
504,-720,0,0,0,0,0,0,0,0,0,-1,1728,1744,0,0
511,-720,0,0,0,0,0,0,0,0,0,-1,1735,1744,0,0
518,-720,0,0,0,0,0,0,0,0,0,-1,1742,1744,0,0
525,-720,0,0,0,0,0,0,0,0,0,-1,1749,1744,0,0
532,-720,0,0,0,0,0,0,0,0,0,-1,1756,1744,0,0
539,-720,0,0,0,0,0,0,0,0,0,-1,1763,1744,0,0
546,-720,0,0,0,0,0,0,0,0,0,-1,1770,1744,0,0
553,-720,0,0,0,0,0,0,0,0,0,-1,1777,1744,0,0
560,-720,0,0,0,0,0,0,0,0,0,-1,1784,1744,0,0
567,-720,0,0,0,0,0,0,0,0,0,-1,1791,1744,0,0
574,-720,0,0,0,0,0,0,0,0,0,-1,1798,1744,0,0
581,-720,0,0,0,0,0,0,0,0,0,-1,1805,1744,0,0
588,-720,0,0,0,0,0,0,0,0,0,-1,1812,1744,0,0
595,-720,0,0,0,0,0,0,0,0,0,-1,1819,1744,0,0
602,-720,0,0,0,0,0,0,0,0,0,-1,1826,1744,0,0
609,-720,0,0,0,0,0,0,0,0,0,-1,1833,1744,0,0
616,-720,0,0,0,0,0,0,0,0,0,-1,1840,1744,0,0
623,-720,0,0,0,0,0,0,0,0,0,-1,1847,1744,0,0
630,-720,0,0,0,0,0,0,0,0,0,-1,1854,1744,0,0
637,-720,0,0,0,0,0,0,0,0,0,-1,1861,1744,0,0
644,-720,0,0,0,0,0,0,0,0,0,-1,1868,1744,0,0
651,-720,0,0,0,0,0,0,0,0,0,-1,1875,1744,0,0
658,-720,0,0,0,0,0,0,0,0,0,-1,1882,1744,0,0
665,-720,0,0,0,0,0,0,0,0,0,-1,1889,1744,0,0
672,-720,0,0,0,0,0,0,0,0,0,-1,1896,1744,0,0
679,-720,0,0,0,0,0,0,0,0,0,-1,1903,1744,0,0
686,-720,0,0,0,0,0,0,0,0,0,-1,1910,1744,0,0
693,-720,0,0,0,0,0,0,0,0,0,-1,1917,1744,0,0
700,-720,0,0,0,0,0,0,0,0,0,-1,1924,1744,0,0
707,-720,0,0,0,0,0,0,0,0,0,-1,1931,1744,0,0
714,-720,0,0,0,0,0,0,0,0,0,-1,1938,1744,0,0
721,-720,0,0,0,0,0,0,0,0,0,-1,1945,1744,0,0
728,-720,0,0,0,0,0,0,0,0,0,-1,1952,1744,0,0
735,-720,0,0,0,0,0,0,0,0,0,-1,1959,1744,0,0
742,-720,0,0,0,0,0,0,0,0,0,-1,1966,1744,0,0
749,-720,0,0,0,0,0,0,0,0,0,-1,1973,1744,0,0
756,-720,0,0,0,0,0,0,0,0,0,-1,1980,1744,0,0
763,-720,0,0,0,0,0,0,0,0,0,-1,1987,1744,0,0
770,-720,0,0,0,0,0,0,0,0,0,-1,1994,1744,0,0
777,-720,0,0,0,0,0,0,0,0,0,-1,2001,1744,0,0
784,-720,0,0,0,0,0,0,0,0,0,-1,2008,1744,0,0
791,-720,0,0,0,0,0,0,0,0,0,-1,2015,1744,0,0
798,-720,0,0,0,0,0,0,0,0,0,-1,2022,1744,0,0
805,-720,0,0,0,0,0,0,0,0,0,-1,2029,1744,0,0
812,-720,0,0,0,0,0,0,0,0,0,-1,2036,1744,0,0
-700,-727,0,0,0,0,0,0,0,0,0,-1,524,1751,0,0
-693,-727,0,0,0,0,0,0,0,0,0,-1,531,1751,0,0
-686,-727,0,0,0,0,0,0,0,0,0,-1,538,1751,0,0
-679,-727,0,0,0,0,0,0,0,0,0,-1,545,1751,0,0
-672,-727,0,0,0,0,0,0,0,0,0,-1,552,1751,0,0
-665,-727,0,0,0,0,0,0,0,0,0,-1,559,1751,0,0
-658,-727,0,0,0,0,0,0,0,0,0,-1,566,1751,0,0
-651,-727,0,0,0,0,0,0,0,0,0,-1,573,1751,0,0
-644,-727,0,0,0,0,0,0,0,0,0,-1,580,1751,0,0
-637,-727,0,0,0,0,0,0,0,0,0,-1,587,1751,0,0
-630,-727,0,0,0,0,0,0,0,0,0,-1,594,1751,0,0
-623,-727,0,0,0,0,0,0,0,0,0,-1,601,1751,0,0
-616,-727,0,0,0,0,0,0,0,0,0,-1,608,1751,0,0
-609,-727,0,0,0,0,0,0,0,0,0,-1,615,1751,0,0
-602,-727,0,0,0,0,0,0,0,0,0,-1,622,1751,0,0
-595,-727,0,0,0,0,0,0,0,0,0,-1,629,1751,0,0
-588,-727,0,0,0,0,0,0,0,0,0,-1,636,1751,0,0
-581,-727,0,0,0,0,0,0,0,0,0,-1,643,1751,0,0
-574,-727,0,0,0,0,0,0,0,0,0,-1,650,1751,0,0
-567,-727,0,0,0,0,0,0,0,0,0,-1,657,1751,0,0
-560,-727,0,0,0,0,0,0,0,0,0,-1,664,1751,0,0
-553,-727,0,0,0,0,0,0,0,0,0,-1,671,1751,0,0
-546,-727,0,0,0,0,0,0,0,0,0,-1,678,1751,0,0
-539,-727,0,0,0,0,0,0,0,0,0,-1,685,1751,0,0
-532,-727,0,0,0,0,0,0,0,0,0,-1,692,1751,0,0
-525,-727,0,0,0,0,0,0,0,0,0,-1,699,1751,0,0
-518,-727,0,0,0,0,0,0,0,0,0,-1,706,1751,0,0
-511,-727,0,0,0,0,0,0,0,0,0,-1,713,1751,0,0
-504,-727,0,0,0,0,0,0,0,0,0,-1,720,1751,0,0
-497,-727,0,0,0,0,0,0,0,0,0,-1,727,1751,0,0
-490,-727,0,0,0,0,0,0,0,0,0,-1,734,1751,0,0
-483,-727,0,0,0,0,0,0,0,0,0,-1,741,1751,0,0
-476,-727,0,0,0,0,0,0,0,0,0,-1,748,1751,0,0
-469,-727,0,0,0,0,0,0,0,0,0,-1,755,1751,0,0
-462,-727,0,0,0,0,0,0,0,0,0,-1,762,1751,0,0
-455,-727,0,0,0,0,0,0,0,0,0,-1,769,1751,0,0
-448,-727,0,0,0,0,0,0,0,0,0,-1,776,1751,0,0
-441,-727,0,0,0,0,0,0,0,0,0,-1,783,1751,0,0
-434,-727,0,0,0,0,0,0,0,0,0,-1,790,1751,0,0
-427,-727,0,0,0,0,0,0,0,0,0,-1,797,1751,0,0
-420,-727,0,0,0,0,0,0,0,0,0,-1,804,1751,0,0
-413,-727,0,0,0,0,0,0,0,0,0,-1,811,1751,0,0
-406,-727,0,0,0,0,0,0,0,0,0,-1,818,1751,0,0
-399,-727,0,0,0,0,0,0,0,0,0,-1,825,1751,0,0
-392,-727,0,0,0,0,0,0,0,0,0,-1,832,1751,0,0
-385,-727,0,0,0,0,0,0,0,0,0,-1,839,1751,0,0
-378,-727,0,0,0,0,0,0,0,0,0,-1,846,1751,0,0
-371,-727,0,0,0,0,0,0,0,0,0,-1,853,1751,0,0
-364,-727,0,0,0,0,0,0,0,0,0,-1,860,1751,0,0
-357,-727,0,0,0,0,0,0,0,0,0,-1,867,1751,0,0
-350,-727,0,0,0,0,0,0,0,0,0,-1,874,1751,0,0
-343,-727,0,0,0,0,0,0,0,0,0,-1,881,1751,0,0
-336,-727,0,0,0,0,0,0,0,0,0,-1,888,1751,0,0
-329,-727,0,0,0,0,0,0,0,0,0,-1,895,1751,0,0
-322,-727,0,0,0,0,0,0,0,0,0,-1,902,1751,0,0
-315,-727,0,0,0,0,0,0,0,0,0,-1,909,1751,0,0
-308,-727,0,0,0,0,0,0,0,0,0,-1,916,1751,0,0
-301,-727,0,0,0,0,0,0,0,0,0,-1,923,1751,0,0
-294,-727,0,0,0,0,0,0,0,0,0,-1,930,1751,0,0
-287,-727,0,0,0,0,0,0,0,0,0,-1,937,1751,0,0
-280,-727,0,0,0,0,0,0,0,0,0,-1,944,1751,0,0
-273,-727,0,0,0,0,0,0,0,0,0,-1,951,1751,0,0
-266,-727,4.24805,7.61145,0,0,0,0,0,0,0,-1,958,1751,4.24802,-7.6115
-259,-727,3.65228,5.4082,0,0,0,0,0,0,0,-1,965,1751,3.65229,-5.40818
-252,-727,6.35193,19.5046,0,0,0,0,0,0,0,-1,972,1751,6.35193,-19.5046
-245,-727,6.6543,20.9005,0,0,0,0,0,0,0,-1,979,1751,6.65433,-20.9005
-238,-727,4.31769,18.0181,0,0,0,0,0,0,0,-1,986,1751,4.31766,-18.018
-231,-727,6.50403,21.7985,0,0,0,0,0,0,0,-1,993,1751,6.50403,-21.7985
-224,-727,7.89355,29.2025,0,0,0,0,0,0,0,-1,1000,1751,7.89356,-29.2026
-217,-727,4.66821,31.8496,0,0,0,0,0,0,0,-1,1007,1751,4.66824,-31.8496
-210,-727,5.05951,32.1201,0,0,0,0,0,0,0,-1,1014,1751,5.0595,-32.1201
-203,-727,5.51245,32.3544,0,0,0,0,0,0,0,-1,1021,1751,5.51242,-32.3544
-196,-727,6.16858,32.8782,0,0,0,0,0,0,0,-1,1028,1751,6.16862,-32.8782
-189,-727,7.86157,29.6465,0,0,0,0,0,0,0,-1,1035,1751,7.86159,-29.6465
-182,-727,7.97473,31.7222,0,0,0,0,0,0,0,-1,1042,1751,7.9747,-31.7221
-175,-727,8.74182,32.2487,0,0,0,0,0,0,0,-1,1049,1751,8.7418,-32.2486
-168,-727,7.23328,32.5497,0,0,0,0,0,0,0,-1,1056,1751,7.2333,-32.5497
-161,-727,7.44043,32.7181,0,0,0,0,0,0,0,-1,1063,1751,7.4404,-32.7182
-154,-727,8.07788,32.7694,0,0,0,0,0,0,0,-1,1070,1751,8.07792,-32.7694
-147,-727,8.10205,32.8359,-0.0036566,0.00326033,0.00359111,0.00478755,-0.00518382,1.16869,0.00575849,0.0482523,1077,1751,8.10208,-32.8359
-140,-727,7.8678,33.1267,-0.00414941,0.00366871,0.00286809,0.00460802,-0.00508872,1.2543,0.00560071,0.0334823,1084,1751,7.8678,-33.1267
-133,-727,7.92529,33.446,-0.00434279,0.00394657,0.00236508,0.00457389,-0.0049701,1.31152,0.00551181,0.0223235,1091,1751,7.92531,-33.446
-126,-727,7.84985,33.7264,-0.00495725,0.00425034,0.00190286,0.00462809,-0.005335,1.37483,0.00575702,0.0142672,1098,1751,7.84983,-33.7264
-119,-727,7.84863,33.9958,-0.00449198,0.00447556,0.00158739,0.00474826,-0.00476468,1.40067,0.00549231,0.0110021,1105,1751,7.84859,-33.9958
-112,-727,7.84656,34.1967,-0.00398856,0.00465765,0.00131635,0.00485362,-0.00418453,1.42301,0.00522294,0.0128016,1112,1751,7.84651,-34.1966
-105,-727,7.79993,34.4172,-0.00373715,0.00511433,0.000907999,0.00520651,-0.00382933,1.46962,0.00523701,0.013189,1119,1751,7.79995,-34.4173
-98,-727,7.80139,34.6335,-0.00339633,0.00539498,0.000789817,0.00546538,-0.00346673,1.4819,0.00519981,0.0112431,1126,1751,7.80142,-34.6335
-91,-727,7.80249,34.8289,-0.00290571,0.00536547,0.000782878,0.00543892,-0.00297916,1.47725,0.00492885,0.0105819,1133,1751,7.80254,-34.8289
-84,-727,7.75867,35.0167,-0.00256472,0.00522332,0.000565306,0.00526414,-0.00260554,1.49871,0.00462918,0.0106675,1140,1751,7.7587,-35.0167
-77,-727,7.74524,35.2242,-0.00204832,0.0050855,0.000535412,0.00512546,-0.00208828,1.4963,0.00428613,0.0120257,1147,1751,7.7453,-35.2243
-70,-727,7.74451,35.4023,-0.00183023,0.00461734,0.000349901,0.00463628,-0.00184917,1.51674,0.0038579,0.013634,1154,1751,7.7445,-35.4024
-63,-727,7.72974,35.5693,-0.00187834,0.00390384,0.000111768,0.003906,-0.0018805,1.55148,0.00340838,0.011215,1161,1751,7.72971,-35.5694
-56,-727,7.71729,35.7201,-0.00153995,0.00303301,-0.00017161,0.00303944,-0.00154638,-1.53334,0.002694,0.0109415,1168,1751,7.71724,-35.7201
-49,-727,7.72522,35.8707,-0.0010782,0.00171573,-0.000274716,0.00174248,-0.00110495,-1.47371,0.00165765,0.0134089,1175,1751,7.7252,-35.8707
-42,-727,7.72266,36.0298,-0.000665668,0.000494048,-0.000348625,0.000590781,-0.0007624,-1.30014,0.000783351,0.0158478,1182,1751,7.72266,-36.0298
-35,-727,7.68787,36.1388,-0.000176031,-0.000467473,-0.000478481,0.000178427,-0.000821931,-0.637586,0.000616103,0.0137493,1189,1751,7.68783,-36.1388
-28,-727,7.70142,36.243,0.000186014,-0.0010245,-0.000699775,0.000505971,-0.00134446,-0.428848,0.0011043,0.00853006,1196,1751,7.70138,-36.2431
-21,-727,7.70056,36.3647,0.000536229,-0.00151755,-0.000830874,0.00083027,-0.00181159,-0.340138,0.00155996,0.00923342,1203,1751,7.70054,-36.3648
-14,-727,7.69897,36.4828,0.000827032,-0.00158461,-0.00086933,0.00110773,-0.00186531,-0.312323,0.00173496,0.0107103,1210,1751,7.69891,-36.4828
-7,-727,7.67981,36.5994,0.000855465,-0.00155407,-0.000906214,0.00115824,-0.00185685,-0.322451,0.00175627,0.0144785,1217,1751,7.67979,-36.5993
0,-727,7.67859,36.7078,0.000741006,-0.00138866,-0.000822817,0.00102187,-0.00166952,-0.328942,0.0015688,0.0139999,1224,1751,7.6786,-36.7077
7,-727,7.68445,36.7687,0.000642428,-0.00106631,-0.000708861,0.000898208,-0.00132209,-0.346293,0.00128965,0.0132821,1231,1751,7.68441,-36.7687
14,-727,7.69092,36.8391,0.000504486,-0.000581019,-0.000568978,0.000748065,-0.000824597,-0.404492,0.000908335,0.0142871,1238,1751,7.69097,-36.8391
21,-727,7.68555,36.9188,0.000367326,-6.6227e-06,-0.000393369,0.000615896,-0.000255193,-0.563545,0.000517096,0.0130373,1245,1751,7.68556,-36.9188
28,-727,7.70068,36.9601,0.000256116,0.000491293,-0.000212178,0.000616288,0.000131121,-1.03843,0.000374875,0.0108739,1252,1751,7.70065,-36.9601
35,-727,7.72351,36.9933,0.00020356,0.000929063,-7.56028e-05,0.000936857,0.000195765,-1.46806,0.000570622,0.012378,1259,1751,7.72346,-36.9933
42,-727,7.70435,37.0372,0.000176326,0.00120367,3.96352e-05,0.0012052,0.000174799,1.53229,0.000752003,0.0131359,1266,1751,7.70439,-37.0372
49,-727,7.6731,37.053,0.000128675,0.00129247,0.000164568,0.00131529,0.000105852,1.43299,0.000843795,0.0117398,1273,1751,7.6731,-37.053
56,-727,7.6759,37.0791,0.000218373,0.0013249,0.000138932,0.00134207,0.000201195,1.44778,0.000835763,0.0100188,1280,1751,7.67585,-37.0791
63,-727,7.69946,37.1023,0.000349763,0.00129649,6.77168e-05,0.0013013,0.000344944,1.49975,0.00077846,0.0121446,1287,1751,7.69944,-37.1023
70,-727,7.74329,37.0942,0.00040472,0.00113174,9.80392e-05,0.00114473,0.000391731,1.43908,0.000671791,0.0139095,1294,1751,7.74334,-37.0942
77,-727,7.75183,37.0913,0.000508527,0.000702887,5.72546e-05,0.000718499,0.000492915,1.30459,0.000424289,0.0148995,1301,1751,7.7518,-37.0913
84,-727,7.75488,37.0319,0.000491982,0.000284701,-3.97827e-06,0.000492058,0.000284625,-0.0191832,0.000285253,0.0147835,1308,1751,7.75489,-37.0319
91,-727,7.75452,36.9829,0.000525668,-2.43827e-05,0.000109531,0.000546677,-4.53909e-05,0.189501,0.000380485,0.0152867,1315,1751,7.75453,-36.983
98,-727,7.7179,37.0011,0.000750737,-0.000333879,0.000247489,0.00080454,-0.000387682,0.214066,0.000702215,0.01348,1322,1751,7.71794,-37.0011
105,-727,7.71191,36.9935,0.000852408,-0.000513713,0.000268841,0.00090341,-0.000564714,0.187481,0.000855108,0.0134502,1329,1751,7.71186,-36.9936
112,-727,7.72461,36.9489,0.000826106,-0.000563087,0.000408677,0.000937414,-0.000674395,0.265911,0.000934699,0.0116003,1336,1751,7.72463,-36.9489
119,-727,7.72156,36.8921,0.000773864,-0.000579756,0.000542405,0.000964392,-0.000770284,0.337801,0.0010036,0.00917353,1343,1751,7.72161,-36.8921
126,-727,7.73608,36.812,0.00077378,-0.000497625,0.000691678,0.00107751,-0.000801356,0.413771,0.00108866,0.0110937,1350,1751,7.73609,-36.812
133,-727,7.75452,36.7449,0.000789806,-0.000243522,0.000837378,0.00125708,-0.000710801,0.508985,0.00115066,0.0159208,1357,1751,7.75446,-36.7449
140,-727,7.75586,36.6849,0.000800425,5.26239e-05,0.000974118,0.00146994,-0.000616887,0.602151,0.00123793,0.0225884,1364,1751,7.75591,-36.6849
147,-727,7.755,36.575,0.000819622,0.000269226,0.00103081,0.00161134,-0.000522489,0.654954,0.00128432,0.0189019,1371,1751,7.75501,-36.5749
154,-727,7.74829,36.4297,0.000755236,0.000410832,0.00093044,0.00152928,-0.000363208,0.693896,0.0011597,0.0117737,1378,1751,7.74829,-36.4297
161,-727,7.74438,36.3142,0.000455558,0.000493583,0.000848349,0.00132313,-0.000373991,0.796602,0.00102965,0.00934359,1385,1751,7.74442,-36.3142
168,-727,7.71899,36.2018,0.000133382,0.000454787,0.000662813,0.000976101,-0.000387932,0.904331,0.000811562,0.0121633,1392,1751,7.71904,-36.2017
175,-727,7.71851,36.069,-9.27697e-05,0.000661871,0.000193417,0.000708556,-0.000139455,1.33396,0.000525066,0.0179605,1399,1751,7.71852,-36.0689
182,-727,7.72351,35.9464,-0.000453624,0.000938631,-0.000200887,0.000967037,-0.000482031,-1.43032,0.000852097,0.0188553,1406,1751,7.72352,-35.9464
189,-727,7.69238,35.7919,-0.000486709,0.00116818,-0.000598168,0.00136175,-0.000680278,-1.25783,0.00120065,0.011417,1413,1751,7.69236,-35.7918
196,-727,7.6908,35.6301,-0.000782279,0.00146533,-0.00118403,0.00197396,-0.00129091,-1.16505,0.00189868,0.0137162,1420,1751,7.69082,-35.6301
203,-727,7.67249,35.4722,-0.00143517,0.00284635,-0.00161827,0.00338918,-0.00197799,-1.24715,0.00313424,0.0171643,1427,1751,7.67245,-35.4722
210,-727,7.66284,35.3226,-0.00143323,0.00447959,-0.00179192,0.00498026,-0.00193389,-1.29834,0.00411901,0.0158172,1434,1751,7.66283,-35.3227
217,-727,7.651,35.1509,-0.00129706,0.00531831,-0.00196778,0.00585938,-0.00183813,-1.30246,0.0046419,0.0112262,1441,1751,7.65104,-35.1508
224,-727,7.63538,34.942,-0.00131037,0.00609551,-0.00215187,0.00667537,-0.00189022,-1.30758,0.00519621,0.0121717,1448,1751,7.63533,-34.942
231,-727,7.60938,34.7563,-0.00144441,0.00681721,-0.00227565,0.00740256,-0.00202976,-1.31903,0.00573268,0.0100502,1455,1751,7.60944,-34.7563
238,-727,7.6073,34.5553,-0.001031,0.00740349,-0.00197417,0.00784269,-0.0014702,-1.35189,0.00578118,0.0100325,1462,1751,7.60733,-34.5553
245,-727,7.60193,34.3611,-0.000255234,0.00728228,-0.00180801,0.00769353,-0.000666481,-1.34714,0.00536499,0.00980999,1469,1751,7.60187,-34.3611
252,-727,7.57104,34.136,0.00063533,0.00649812,-0.00176314,0.00698751,0.000145942,-1.30005,0.00461046,0.0110226,1476,1751,7.57104,-34.136
259,-727,7.5603,33.902,0.00144348,0.00574438,-0.00152687,0.00623131,0.000956553,-1.26209,0.00387491,0.0146667,1483,1751,7.56025,-33.9019
266,-727,7.5946,33.7389,0.00252088,0.00505871,-0.00145273,0.00571868,0.00186092,-1.14438,0.00336811,0.0198581,1490,1751,7.59458,-33.7389
273,-727,7.66858,33.5745,0.00380684,0.00411991,-0.00156113,0.00553233,0.00239441,-0.835366,0.00320369,0.0368115,1497,1751,7.66861,-33.5745
280,-727,7.52209,33.3982,0,0,0,0,0,0,0,-1,1504,1751,7.52215,-33.3982
287,-727,7.23108,32.886,0.0067119,0.0021752,-0.00216848,0.00758166,0.00130544,-0.381446,0.00468037,0.049539,1511,1751,7.23103,-32.886
294,-727,7.55334,32.9661,0.00848603,0.00178195,-0.00281537,0.00951149,0.000756488,-0.3493,0.00610447,0.0441692,1518,1751,7.55329,-32.9661
301,-727,7.78894,32.7974,0.0105278,0.000959076,-0.00397101,0.011961,-0.000474207,-0.346384,0.00813671,0.0478078,1525,1751,7.789,-32.7973
308,-727,7.37341,32.3636,0,0,0,0,0,0,0,-1,1532,1751,7.37339,-32.3637
315,-727,7.62061,31.2683,0,0,0,0,0,0,0,-1,1539,1751,7.62057,-31.2683
322,-727,7.40125,30.0833,0,0,0,0,0,0,0,-1,1546,1751,7.40125,-30.0833
329,-727,6.61853,11.6267,0,0,0,0,0,0,0,-1,1553,1751,6.61859,-11.6267
336,-727,5.55823,20.2439,0,0,0,0,0,0,0,-1,1560,1751,5.55829,-20.2438
343,-727,2.41699,8.72095,0,0,0,0,0,0,0,-1,1567,1751,2.41702,-8.72098
350,-727,3.89783,7.50195,0,0,0,0,0,0,0,-1,1574,1751,3.89782,-7.50193
357,-727,4.48462,10.2948,0,0,0,0,0,0,0,-1,1581,1751,4.48464,-10.2948
364,-727,6.96729,17.2365,0,0,0,0,0,0,0,-1,1588,1751,6.96732,-17.2365
371,-727,5.04565,23.2227,0,0,0,0,0,0,0,-1,1595,1751,5.04564,-23.2227
378,-727,4.56726,23.0574,0,0,0,0,0,0,0,-1,1602,1751,4.56727,-23.0574
385,-727,3.52307,22.6431,0,0,0,0,0,0,0,-1,1609,1751,3.52303,-22.643
392,-727,0,0,0,0,0,0,0,0,0,-1,1616,1751,0,0
399,-727,0,0,0,0,0,0,0,0,0,-1,1623,1751,0,0
406,-727,0,0,0,0,0,0,0,0,0,-1,1630,1751,0,0
413,-727,0,0,0,0,0,0,0,0,0,-1,1637,1751,0,0
420,-727,0,0,0,0,0,0,0,0,0,-1,1644,1751,0,0
427,-727,0,0,0,0,0,0,0,0,0,-1,1651,1751,0,0
434,-727,0,0,0,0,0,0,0,0,0,-1,1658,1751,0,0
441,-727,0,0,0,0,0,0,0,0,0,-1,1665,1751,0,0
448,-727,0,0,0,0,0,0,0,0,0,-1,1672,1751,0,0
455,-727,0,0,0,0,0,0,0,0,0,-1,1679,1751,0,0
462,-727,0,0,0,0,0,0,0,0,0,-1,1686,1751,0,0
469,-727,0,0,0,0,0,0,0,0,0,-1,1693,1751,0,0
476,-727,0,0,0,0,0,0,0,0,0,-1,1700,1751,0,0
483,-727,0,0,0,0,0,0,0,0,0,-1,1707,1751,0,0
490,-727,0,0,0,0,0,0,0,0,0,-1,1714,1751,0,0
497,-727,0,0,0,0,0,0,0,0,0,-1,1721,1751,0,0
504,-727,0,0,0,0,0,0,0,0,0,-1,1728,1751,0,0
511,-727,0,0,0,0,0,0,0,0,0,-1,1735,1751,0,0
518,-727,0,0,0,0,0,0,0,0,0,-1,1742,1751,0,0
525,-727,0,0,0,0,0,0,0,0,0,-1,1749,1751,0,0
532,-727,0,0,0,0,0,0,0,0,0,-1,1756,1751,0,0
539,-727,0,0,0,0,0,0,0,0,0,-1,1763,1751,0,0
546,-727,0,0,0,0,0,0,0,0,0,-1,1770,1751,0,0
553,-727,0,0,0,0,0,0,0,0,0,-1,1777,1751,0,0
560,-727,0,0,0,0,0,0,0,0,0,-1,1784,1751,0,0
567,-727,0,0,0,0,0,0,0,0,0,-1,1791,1751,0,0
574,-727,0,0,0,0,0,0,0,0,0,-1,1798,1751,0,0
581,-727,0,0,0,0,0,0,0,0,0,-1,1805,1751,0,0
588,-727,0,0,0,0,0,0,0,0,0,-1,1812,1751,0,0
595,-727,0,0,0,0,0,0,0,0,0,-1,1819,1751,0,0
602,-727,0,0,0,0,0,0,0,0,0,-1,1826,1751,0,0
609,-727,0,0,0,0,0,0,0,0,0,-1,1833,1751,0,0
616,-727,0,0,0,0,0,0,0,0,0,-1,1840,1751,0,0
623,-727,0,0,0,0,0,0,0,0,0,-1,1847,1751,0,0
630,-727,0,0,0,0,0,0,0,0,0,-1,1854,1751,0,0
637,-727,0,0,0,0,0,0,0,0,0,-1,1861,1751,0,0
644,-727,0,0,0,0,0,0,0,0,0,-1,1868,1751,0,0
651,-727,0,0,0,0,0,0,0,0,0,-1,1875,1751,0,0
658,-727,0,0,0,0,0,0,0,0,0,-1,1882,1751,0,0
665,-727,0,0,0,0,0,0,0,0,0,-1,1889,1751,0,0
672,-727,0,0,0,0,0,0,0,0,0,-1,1896,1751,0,0
679,-727,0,0,0,0,0,0,0,0,0,-1,1903,1751,0,0
686,-727,0,0,0,0,0,0,0,0,0,-1,1910,1751,0,0
693,-727,0,0,0,0,0,0,0,0,0,-1,1917,1751,0,0
700,-727,0,0,0,0,0,0,0,0,0,-1,1924,1751,0,0
707,-727,0,0,0,0,0,0,0,0,0,-1,1931,1751,0,0
714,-727,0,0,0,0,0,0,0,0,0,-1,1938,1751,0,0
721,-727,0,0,0,0,0,0,0,0,0,-1,1945,1751,0,0
728,-727,0,0,0,0,0,0,0,0,0,-1,1952,1751,0,0
735,-727,0,0,0,0,0,0,0,0,0,-1,1959,1751,0,0
742,-727,0,0,0,0,0,0,0,0,0,-1,1966,1751,0,0
749,-727,0,0,0,0,0,0,0,0,0,-1,1973,1751,0,0
756,-727,0,0,0,0,0,0,0,0,0,-1,1980,1751,0,0
763,-727,0,0,0,0,0,0,0,0,0,-1,1987,1751,0,0
770,-727,0,0,0,0,0,0,0,0,0,-1,1994,1751,0,0
777,-727,0,0,0,0,0,0,0,0,0,-1,2001,1751,0,0
784,-727,0,0,0,0,0,0,0,0,0,-1,2008,1751,0,0
791,-727,0,0,0,0,0,0,0,0,0,-1,2015,1751,0,0
798,-727,0,0,0,0,0,0,0,0,0,-1,2022,1751,0,0
805,-727,0,0,0,0,0,0,0,0,0,-1,2029,1751,0,0
812,-727,0,0,0,0,0,0,0,0,0,-1,2036,1751,0,0
-700,-734,0,0,0,0,0,0,0,0,0,-1,524,1758,0,0
-693,-734,0,0,0,0,0,0,0,0,0,-1,531,1758,0,0
-686,-734,0,0,0,0,0,0,0,0,0,-1,538,1758,0,0
-679,-734,0,0,0,0,0,0,0,0,0,-1,545,1758,0,0
-672,-734,0,0,0,0,0,0,0,0,0,-1,552,1758,0,0
-665,-734,0,0,0,0,0,0,0,0,0,-1,559,1758,0,0
-658,-734,0,0,0,0,0,0,0,0,0,-1,566,1758,0,0
-651,-734,0,0,0,0,0,0,0,0,0,-1,573,1758,0,0
-644,-734,0,0,0,0,0,0,0,0,0,-1,580,1758,0,0
-637,-734,0,0,0,0,0,0,0,0,0,-1,587,1758,0,0
-630,-734,0,0,0,0,0,0,0,0,0,-1,594,1758,0,0
-623,-734,0,0,0,0,0,0,0,0,0,-1,601,1758,0,0
-616,-734,0,0,0,0,0,0,0,0,0,-1,608,1758,0,0
-609,-734,0,0,0,0,0,0,0,0,0,-1,615,1758,0,0
-602,-734,0,0,0,0,0,0,0,0,0,-1,622,1758,0,0
-595,-734,0,0,0,0,0,0,0,0,0,-1,629,1758,0,0
-588,-734,0,0,0,0,0,0,0,0,0,-1,636,1758,0,0
-581,-734,0,0,0,0,0,0,0,0,0,-1,643,1758,0,0
-574,-734,0,0,0,0,0,0,0,0,0,-1,650,1758,0,0
-567,-734,0,0,0,0,0,0,0,0,0,-1,657,1758,0,0
-560,-734,0,0,0,0,0,0,0,0,0,-1,664,1758,0,0
-553,-734,0,0,0,0,0,0,0,0,0,-1,671,1758,0,0
-546,-734,0,0,0,0,0,0,0,0,0,-1,678,1758,0,0
-539,-734,0,0,0,0,0,0,0,0,0,-1,685,1758,0,0
-532,-734,0,0,0,0,0,0,0,0,0,-1,692,1758,0,0
-525,-734,0,0,0,0,0,0,0,0,0,-1,699,1758,0,0
-518,-734,0,0,0,0,0,0,0,0,0,-1,706,1758,0,0
-511,-734,0,0,0,0,0,0,0,0,0,-1,713,1758,0,0
-504,-734,0,0,0,0,0,0,0,0,0,-1,720,1758,0,0
-497,-734,0,0,0,0,0,0,0,0,0,-1,727,1758,0,0
-490,-734,0,0,0,0,0,0,0,0,0,-1,734,1758,0,0
-483,-734,0,0,0,0,0,0,0,0,0,-1,741,1758,0,0
-476,-734,0,0,0,0,0,0,0,0,0,-1,748,1758,0,0
-469,-734,0,0,0,0,0,0,0,0,0,-1,755,1758,0,0
-462,-734,0,0,0,0,0,0,0,0,0,-1,762,1758,0,0
-455,-734,0,0,0,0,0,0,0,0,0,-1,769,1758,0,0
-448,-734,0,0,0,0,0,0,0,0,0,-1,776,1758,0,0
-441,-734,0,0,0,0,0,0,0,0,0,-1,783,1758,0,0
-434,-734,0,0,0,0,0,0,0,0,0,-1,790,1758,0,0
-427,-734,0,0,0,0,0,0,0,0,0,-1,797,1758,0,0
-420,-734,0,0,0,0,0,0,0,0,0,-1,804,1758,0,0
-413,-734,0,0,0,0,0,0,0,0,0,-1,811,1758,0,0
-406,-734,0,0,0,0,0,0,0,0,0,-1,818,1758,0,0
-399,-734,0,0,0,0,0,0,0,0,0,-1,825,1758,0,0
-392,-734,0,0,0,0,0,0,0,0,0,-1,832,1758,0,0
-385,-734,0,0,0,0,0,0,0,0,0,-1,839,1758,0,0
-378,-734,0,0,0,0,0,0,0,0,0,-1,846,1758,0,0
-371,-734,0,0,0,0,0,0,0,0,0,-1,853,1758,0,0
-364,-734,0,0,0,0,0,0,0,0,0,-1,860,1758,0,0
-357,-734,0,0,0,0,0,0,0,0,0,-1,867,1758,0,0
-350,-734,0,0,0,0,0,0,0,0,0,-1,874,1758,0,0
-343,-734,0,0,0,0,0,0,0,0,0,-1,881,1758,0,0
-336,-734,0,0,0,0,0,0,0,0,0,-1,888,1758,0,0
-329,-734,0,0,0,0,0,0,0,0,0,-1,895,1758,0,0
-322,-734,0,0,0,0,0,0,0,0,0,-1,902,1758,0,0
-315,-734,0,0,0,0,0,0,0,0,0,-1,909,1758,0,0
-308,-734,0,0,0,0,0,0,0,0,0,-1,916,1758,0,0
-301,-734,0,0,0,0,0,0,0,0,0,-1,923,1758,0,0
-294,-734,0,0,0,0,0,0,0,0,0,-1,930,1758,0,0
-287,-734,0,0,0,0,0,0,0,0,0,-1,937,1758,0,0
-280,-734,0,0,0,0,0,0,0,0,0,-1,944,1758,0,0
-273,-734,0,0,0,0,0,0,0,0,0,-1,951,1758,0,0
-266,-734,0,0,0,0,0,0,0,0,0,-1,958,1758,0,0
-259,-734,0,0,0,0,0,0,0,0,0,-1,965,1758,0,0
-252,-734,6.93439,18.351,0,0,0,0,0,0,0,-1,972,1758,6.93438,-18.3509
-245,-734,6.95746,19.5341,0,0,0,0,0,0,0,-1,979,1758,6.95746,-19.5341
-238,-734,6.216,17.1718,0,0,0,0,0,0,0,-1,986,1758,6.216,-17.1717
-231,-734,7.25604,16.8156,0,0,0,0,0,0,0,-1,993,1758,7.25602,-16.8156
-224,-734,3.8869,32.9818,0,0,0,0,0,0,0,-1,1000,1758,3.88689,-32.9818
-217,-734,4.49084,32.9758,0,0,0,0,0,0,0,-1,1007,1758,4.49084,-32.9758
-210,-734,4.90692,33.2808,0,0,0,0,0,0,0,-1,1014,1758,4.90692,-33.2808
-203,-734,5.19104,33.1826,0,0,0,0,0,0,0,-1,1021,1758,5.19104,-33.1827
-196,-734,5.69165,33.9451,0,0,0,0,0,0,0,-1,1028,1758,5.69166,-33.945
-189,-734,8.22449,30.4427,0,0,0,0,0,0,0,-1,1035,1758,8.22453,-30.4428
-182,-734,8.14197,31.3351,0,0,0,0,0,0,0,-1,1042,1758,8.14194,-31.3351
-175,-734,7.94153,31.2831,0,0,0,0,0,0,0,-1,1049,1758,7.94155,-31.2831
-168,-734,7.23755,32.9186,0,0,0,0,0,0,0,-1,1056,1758,7.23755,-32.9186
-161,-734,7.43079,33.119,0,0,0,0,0,0,0,-1,1063,1758,7.43073,-33.119
-154,-734,9.19348,32.4099,0,0,0,0,0,0,0,-1,1070,1758,9.19347,-32.41
-147,-734,8.76331,32.8,0,0,0,0,0,0,0,-1,1077,1758,8.76332,-32.8001
-140,-734,8.46277,33.4166,0,0,0,0,0,0,0,-1,1084,1758,8.46276,-33.4167
-133,-734,8.23401,33.4841,-0.00602679,0.00615304,0.00303182,0.00686599,-0.00673974,1.33984,0.00785538,0.0459243,1091,1758,8.23406,-33.4841
-126,-734,7.99304,33.7189,-0.0068199,0.00652067,0.00241871,0.00694565,-0.00724488,1.39686,0.00819352,0.0382945,1098,1758,7.99305,-33.7188
-119,-734,8.00806,33.97,-0.00620184,0.00678625,0.002006,0.00708902,-0.00650461,1.421,0.0078507,0.0364331,1105,1758,8.00811,-33.97
-112,-734,8.03113,34.1812,-0.00558459,0.00711366,0.0016411,0.00732232,-0.00579326,1.44433,0.00758942,0.0353094,1112,1758,8.03117,-34.1811
-105,-734,7.98926,34.4069,-0.00526326,0.00775612,0.00116527,0.00785959,-0.00536673,1.48223,0.0076813,0.0269344,1119,1758,7.98925,-34.4068
-98,-734,8.05225,34.5315,-0.0048497,0.00815103,0.000999164,0.00822738,-0.00492604,1.49454,0.00767345,0.0285922,1126,1758,8.0523,-34.5315
-91,-734,8.05566,34.6683,-0.00428182,0.0081285,0.000969192,0.00820374,-0.00435705,1.49333,0.00736446,0.0394093,1133,1758,8.05568,-34.6683
-84,-734,7.91638,34.8951,-0.00388921,0.00785193,0.000684333,0.00789168,-0.00392896,1.51277,0.00695131,0.0446404,1140,1758,7.91633,-34.8951
-77,-734,7.82532,34.9429,-0.00321684,0.00741939,0.000693471,0.00746442,-0.00326186,1.50596,0.00634928,0.0495127,1147,1758,7.82534,-34.9429
-70,-734,7.72302,34.9763,0,0,0,0,0,0,0,-1,1154,1758,7.72302,-34.9763
-63,-734,7.88159,35.5195,-0.00327287,0.00530612,0.000156914,0.00530899,-0.00327574,1.55251,0.00500252,0.0264841,1161,1758,7.88157,-35.5195
-56,-734,7.84802,35.6711,-0.00292806,0.0036973,-0.000496166,0.00373425,-0.00296501,-1.49646,0.00387631,0.0168381,1168,1758,7.84802,-35.6712
-49,-734,7.86731,35.8804,-0.00216266,0.00122569,-0.000593999,0.0013268,-0.00226378,-1.40219,0.00209642,0.012577,1175,1758,7.86734,-35.8803
-42,-734,7.84436,36.0404,-0.00156465,-0.000872049,-0.000661084,-0.000472055,-0.00196465,-1.02667,0.0011842,0.0134501,1182,1758,7.8443,-36.0404
-35,-734,7.82324,36.1434,-0.00101091,-0.00249287,-0.000786807,-0.000671096,-0.00283268,-0.407692,0.00170925,0.0141144,1189,1758,7.8232,-36.1434
-28,-734,7.82678,36.2499,-0.000692915,-0.00347219,-0.0011155,-0.000300578,-0.00386453,-0.338201,0.00248223,0.00965654,1196,1758,7.8268,-36.2498
-21,-734,7.83789,36.3677,-0.000333818,-0.00418049,-0.00125683,4.04206e-05,-0.00455473,-0.289404,0.00305005,0.0138981,1203,1758,7.83784,-36.3676
-14,-734,7.78772,36.5018,-5.42769e-05,-0.00437297,-0.00132511,0.000319889,-0.00474713,-0.275202,0.00327659,0.0153158,1210,1758,7.78775,-36.5018
-7,-734,7.78247,36.5946,-0.000151288,-0.00443754,-0.00143746,0.000286145,-0.00487497,-0.295406,0.00334944,0.0180821,1217,1758,7.78241,-36.5946
0,-734,7.76929,36.6738,-0.000409406,-0.00429195,-0.00141075,4.90632e-05,-0.00475041,-0.314216,0.00318342,0.016753,1224,1758,7.76929,-36.6738
7,-734,7.74341,36.7646,-0.000605554,-0.0039383,-0.001369,-0.000115318,-0.00442853,-0.343871,0.00291468,0.0125891,1231,1758,7.74343,-36.7646
14,-734,7.74243,36.8591,-0.000841878,-0.00331549,-0.00130836,-0.000278267,-0.00387911,-0.406752,0.00249849,0.0140148,1238,1758,7.74238,-36.8592
21,-734,7.73242,36.9032,-0.00104739,-0.00254008,-0.00120663,-0.000374939,-0.00321253,-0.508428,0.00202829,0.0127915,1245,1758,7.73248,-36.9032
28,-734,7.73779,36.9498,-0.0012011,-0.00184148,-0.00108716,-0.000387963,-0.00265462,-0.642187,0.00165564,0.0109962,1252,1758,7.73778,-36.9498
35,-734,7.73462,37.005,-0.00127832,-0.00121302,-0.00100608,-0.000239061,-0.00225228,-0.801617,0.00142851,0.0137179,1259,1758,7.73466,-37.0051
42,-734,7.74438,37.0293,-0.00131336,-0.000738934,-0.000934399,-4.8602e-05,-0.00200369,-0.934504,0.00131989,0.0123537,1266,1758,7.74437,-37.0293
49,-734,7.70593,37.0551,-0.00134145,-0.000421855,-0.000801991,4.27942e-05,-0.0018061,-1.04568,0.00121858,0.0104604,1273,1758,7.7059,-37.0551
56,-734,7.69751,37.0874,-0.00100572,-9.70204e-05,-0.000985515,0.000533838,-0.00163657,-1.00139,0.00130589,0.00956143,1280,1758,7.69748,-37.0874
63,-734,7.69202,37.1182,-0.000470146,0.000182999,-0.00125786,0.00115599,-0.00144314,-0.912407,0.00150366,0.0123352,1287,1758,7.69208,-37.1181
70,-734,7.70349,37.1418,-2.89659e-05,0.000250593,-0.00136665,0.0014846,-0.00126297,-0.83636,0.00158803,0.0124696,1294,1758,7.70351,-37.1418
77,-734,7.71851,37.1382,0.000551802,4.44462e-06,-0.00154656,0.00184871,-0.00129247,-0.697825,0.00182301,0.016342,1301,1758,7.71849,-37.1381
84,-734,7.70471,37.0735,0.000867362,-0.000279406,-0.00178422,0.00216807,-0.00158011,-0.629929,0.00217287,0.0151556,1308,1758,7.70475,-37.0735
91,-734,7.71155,37.0223,0.0012413,-0.000404055,-0.00180419,0.00240153,-0.00156428,-0.57149,0.00230661,0.017364,1315,1758,7.71155,-37.0224
98,-734,7.7157,37.0294,0.00193214,-0.00054041,-0.00176716,0.00285253,-0.00146081,-0.480175,0.00253315,0.0138218,1322,1758,7.71566,-37.0294
105,-734,7.69507,37.0092,0.00232141,-0.000604365,-0.00186008,0.00322494,-0.00150789,-0.452181,0.0027918,0.0149813,1329,1758,7.69511,-37.0091
112,-734,7.69812,36.9397,0.00236287,-0.000520332,-0.00176717,0.00320186,-0.00135932,-0.443257,0.00270407,0.0129196,1336,1758,7.69809,-36.9397
119,-734,7.67493,36.8607,0.00231285,-0.000455562,-0.00159791,0.00304272,-0.00118544,-0.428468,0.00251841,0.0137726,1343,1758,7.6749,-36.8608
126,-734,7.68579,36.7625,0.00220671,-0.000300505,-0.00132795,0.0027793,-0.000873094,-0.407095,0.00220236,0.016715,1350,1758,7.68578,-36.7624
133,-734,7.67957,36.6838,0.0020068,6.56621e-05,-0.000973863,0.00241116,-0.000338691,-0.393546,0.00173141,0.0146041,1357,1758,7.67959,-36.6839
140,-734,7.66504,36.6104,0.0017618,0.000432108,-0.000550148,0.00195991,0.000234004,-0.345637,0.00123601,0.0191776,1364,1758,7.66498,-36.6104
147,-734,7.6499,36.5214,0.00152271,0.000636254,-0.000187489,0.00156073,0.000598231,-0.200091,0.000909234,0.0140249,1371,1758,7.64989,-36.5213
154,-734,7.63757,36.4419,0.00118827,0.000678781,-4.49168e-05,0.0011922,0.000674852,-0.0872639,0.000690315,0.0097468,1378,1758,7.63762,-36.4419
161,-734,7.61731,36.3387,0.000278968,0.000634637,0.000342791,0.000842977,7.0628e-05,1.02468,0.000539984,0.00882464,1385,1758,7.61735,-36.3387
168,-734,7.56482,36.21,-0.000623959,0.000323866,0.000607276,0.000620263,-0.000920356,1.11673,0.000895084,0.0143546,1392,1758,7.56482,-36.21
175,-734,7.57288,36.0677,-0.000840131,0.000505201,2.70292e-05,0.000505744,-0.000840673,1.55072,0.00078533,0.0178834,1399,1758,7.5729,-36.0677
182,-734,7.60779,35.9124,-0.00122978,0.000822676,-0.0004685,0.000924559,-0.00133167,-1.35666,0.00130968,0.015112,1406,1758,7.60784,-35.9124
189,-734,7.56458,35.7776,-0.00105915,0.00113286,-0.000971116,0.0015012,-0.00142749,-1.20827,0.00169105,0.0109927,1413,1758,7.56452,-35.7776
196,-734,7.53845,35.6483,-0.00142745,0.00151277,-0.0018165,0.00237951,-0.00229419,-1.12559,0.00269851,0.0138571,1420,1758,7.53846,-35.6483
203,-734,7.573,35.467,-0.0025216,0.0036127,-0.00241886,0.00445174,-0.00336064,-1.23691,0.00452512,0.0192609,1427,1758,7.57306,-35.4671
210,-734,7.56287,35.2872,-0.00242274,0.00608547,-0.00261722,0.00682609,-0.00316336,-1.29503,0.00589522,0.0269927,1434,1758,7.56288,-35.2872
217,-734,7.50378,35.0807,-0.00209804,0.00734864,-0.00279377,0.00811302,-0.00286242,-1.30373,0.00657394,0.0271779,1441,1758,7.50373,-35.0807
224,-734,7.56897,34.7875,-0.00206143,0.00853995,-0.00296712,0.00931389,-0.00283537,-1.31564,0.00733928,0.0294707,1448,1758,7.56895,-34.7875
231,-734,7.48633,34.6888,-0.00217556,0.0096636,-0.00308151,0.0104176,-0.00292959,-1.33082,0.00810018,0.0256888,1455,1758,7.48634,-34.6888
238,-734,7.37402,34.5676,-0.0016262,0.0105602,-0.00269337,0.0111289,-0.00219493,-1.36269,0.00824887,0.0234319,1462,1758,7.37397,-34.5676
245,-734,7.40552,34.2954,-0.000632743,0.0105704,-0.00245245,0.0110838,-0.00114608,-1.36446,0.00779932,0.0274703,1469,1758,7.40546,-34.2954
252,-734,7.43005,34.0499,0.000555512,0.00970951,-0.00233107,0.0102689,-3.9069e-06,-1.33527,0.00684726,0.0288642,1476,1758,7.43005,-34.0499
259,-734,7.47449,33.9064,0.00170319,0.0087852,-0.00196705,0.00929488,0.00119351,-1.31727,0.00583955,0.0369641,1483,1758,7.47453,-33.9064
266,-734,7.50647,33.8173,0.00322906,0.0078095,-0.00177646,0.00841772,0.00262084,-1.24093,0.00497394,0.048378,1490,1758,7.50651,-33.8173
273,-734,7.62744,33.765,0,0,0,0,0,0,0,-1,1497,1758,7.62746,-33.765
280,-734,5.95288,32.8356,0,0,0,0,0,0,0,-1,1504,1758,5.95285,-32.8356
287,-734,6.61206,32.918,0,0,0,0,0,0,0,-1,1511,1758,6.61205,-32.9179
294,-734,7.27124,33.0002,0,0,0,0,0,0,0,-1,1518,1758,7.27125,-33.0003
301,-734,7.6272,33.2617,0,0,0,0,0,0,0,-1,1525,1758,7.62722,-33.2617
308,-734,8.56543,28.5187,0,0,0,0,0,0,0,-1,1532,1758,8.56545,-28.5187
315,-734,7.59741,30.5474,0,0,0,0,0,0,0,-1,1539,1758,7.59746,-30.5474
322,-734,9.85913,7.48096,0,0,0,0,0,0,0,-1,1546,1758,9.85916,-7.48098
329,-734,5.45972,12.4125,0,0,0,0,0,0,0,-1,1553,1758,5.45969,-12.4125
336,-734,5.92188,13.8751,0,0,0,0,0,0,0,-1,1560,1758,5.92183,-13.8751
343,-734,5.54968,5.14221,0,0,0,0,0,0,0,-1,1567,1758,5.54973,-5.14225
350,-734,5.07397,6.73242,0,0,0,0,0,0,0,-1,1574,1758,5.07402,-6.73243
357,-734,5.05542,7.19189,0,0,0,0,0,0,0,-1,1581,1758,5.05541,-7.19184
364,-734,4.43896,10.4904,0,0,0,0,0,0,0,-1,1588,1758,4.43893,-10.4904
371,-734,7.36975,17.4751,0,0,0,0,0,0,0,-1,1595,1758,7.36972,-17.4752
378,-734,0,0,0,0,0,0,0,0,0,-1,1602,1758,0,0
385,-734,0,0,0,0,0,0,0,0,0,-1,1609,1758,0,0
392,-734,0,0,0,0,0,0,0,0,0,-1,1616,1758,0,0
399,-734,0,0,0,0,0,0,0,0,0,-1,1623,1758,0,0
406,-734,0,0,0,0,0,0,0,0,0,-1,1630,1758,0,0
413,-734,0,0,0,0,0,0,0,0,0,-1,1637,1758,0,0
420,-734,0,0,0,0,0,0,0,0,0,-1,1644,1758,0,0
427,-734,0,0,0,0,0,0,0,0,0,-1,1651,1758,0,0
434,-734,0,0,0,0,0,0,0,0,0,-1,1658,1758,0,0
441,-734,0,0,0,0,0,0,0,0,0,-1,1665,1758,0,0
448,-734,0,0,0,0,0,0,0,0,0,-1,1672,1758,0,0
455,-734,0,0,0,0,0,0,0,0,0,-1,1679,1758,0,0
462,-734,0,0,0,0,0,0,0,0,0,-1,1686,1758,0,0
469,-734,0,0,0,0,0,0,0,0,0,-1,1693,1758,0,0
476,-734,0,0,0,0,0,0,0,0,0,-1,1700,1758,0,0
483,-734,0,0,0,0,0,0,0,0,0,-1,1707,1758,0,0
490,-734,0,0,0,0,0,0,0,0,0,-1,1714,1758,0,0
497,-734,0,0,0,0,0,0,0,0,0,-1,1721,1758,0,0
504,-734,0,0,0,0,0,0,0,0,0,-1,1728,1758,0,0
511,-734,0,0,0,0,0,0,0,0,0,-1,1735,1758,0,0
518,-734,0,0,0,0,0,0,0,0,0,-1,1742,1758,0,0
525,-734,0,0,0,0,0,0,0,0,0,-1,1749,1758,0,0
532,-734,0,0,0,0,0,0,0,0,0,-1,1756,1758,0,0
539,-734,0,0,0,0,0,0,0,0,0,-1,1763,1758,0,0
546,-734,0,0,0,0,0,0,0,0,0,-1,1770,1758,0,0
553,-734,0,0,0,0,0,0,0,0,0,-1,1777,1758,0,0
560,-734,0,0,0,0,0,0,0,0,0,-1,1784,1758,0,0
567,-734,0,0,0,0,0,0,0,0,0,-1,1791,1758,0,0
574,-734,0,0,0,0,0,0,0,0,0,-1,1798,1758,0,0
581,-734,0,0,0,0,0,0,0,0,0,-1,1805,1758,0,0
588,-734,0,0,0,0,0,0,0,0,0,-1,1812,1758,0,0
595,-734,0,0,0,0,0,0,0,0,0,-1,1819,1758,0,0
602,-734,0,0,0,0,0,0,0,0,0,-1,1826,1758,0,0
609,-734,0,0,0,0,0,0,0,0,0,-1,1833,1758,0,0
616,-734,0,0,0,0,0,0,0,0,0,-1,1840,1758,0,0
623,-734,0,0,0,0,0,0,0,0,0,-1,1847,1758,0,0
630,-734,0,0,0,0,0,0,0,0,0,-1,1854,1758,0,0
637,-734,0,0,0,0,0,0,0,0,0,-1,1861,1758,0,0
644,-734,0,0,0,0,0,0,0,0,0,-1,1868,1758,0,0
651,-734,0,0,0,0,0,0,0,0,0,-1,1875,1758,0,0
658,-734,0,0,0,0,0,0,0,0,0,-1,1882,1758,0,0
665,-734,0,0,0,0,0,0,0,0,0,-1,1889,1758,0,0
672,-734,0,0,0,0,0,0,0,0,0,-1,1896,1758,0,0
679,-734,0,0,0,0,0,0,0,0,0,-1,1903,1758,0,0
686,-734,0,0,0,0,0,0,0,0,0,-1,1910,1758,0,0
693,-734,0,0,0,0,0,0,0,0,0,-1,1917,1758,0,0
700,-734,0,0,0,0,0,0,0,0,0,-1,1924,1758,0,0
707,-734,0,0,0,0,0,0,0,0,0,-1,1931,1758,0,0
714,-734,0,0,0,0,0,0,0,0,0,-1,1938,1758,0,0
721,-734,0,0,0,0,0,0,0,0,0,-1,1945,1758,0,0
728,-734,0,0,0,0,0,0,0,0,0,-1,1952,1758,0,0
735,-734,0,0,0,0,0,0,0,0,0,-1,1959,1758,0,0
742,-734,0,0,0,0,0,0,0,0,0,-1,1966,1758,0,0
749,-734,0,0,0,0,0,0,0,0,0,-1,1973,1758,0,0
756,-734,0,0,0,0,0,0,0,0,0,-1,1980,1758,0,0
763,-734,0,0,0,0,0,0,0,0,0,-1,1987,1758,0,0
770,-734,0,0,0,0,0,0,0,0,0,-1,1994,1758,0,0
777,-734,0,0,0,0,0,0,0,0,0,-1,2001,1758,0,0
784,-734,0,0,0,0,0,0,0,0,0,-1,2008,1758,0,0
791,-734,0,0,0,0,0,0,0,0,0,-1,2015,1758,0,0
798,-734,0,0,0,0,0,0,0,0,0,-1,2022,1758,0,0
805,-734,0,0,0,0,0,0,0,0,0,-1,2029,1758,0,0
812,-734,0,0,0,0,0,0,0,0,0,-1,2036,1758,0,0
-700,-741,0,0,0,0,0,0,0,0,0,-1,524,1765,0,0
-693,-741,0,0,0,0,0,0,0,0,0,-1,531,1765,0,0
-686,-741,0,0,0,0,0,0,0,0,0,-1,538,1765,0,0
-679,-741,0,0,0,0,0,0,0,0,0,-1,545,1765,0,0
-672,-741,0,0,0,0,0,0,0,0,0,-1,552,1765,0,0
-665,-741,0,0,0,0,0,0,0,0,0,-1,559,1765,0,0
-658,-741,0,0,0,0,0,0,0,0,0,-1,566,1765,0,0
-651,-741,0,0,0,0,0,0,0,0,0,-1,573,1765,0,0
-644,-741,0,0,0,0,0,0,0,0,0,-1,580,1765,0,0
-637,-741,0,0,0,0,0,0,0,0,0,-1,587,1765,0,0
-630,-741,0,0,0,0,0,0,0,0,0,-1,594,1765,0,0
-623,-741,0,0,0,0,0,0,0,0,0,-1,601,1765,0,0
-616,-741,0,0,0,0,0,0,0,0,0,-1,608,1765,0,0
-609,-741,0,0,0,0,0,0,0,0,0,-1,615,1765,0,0
-602,-741,0,0,0,0,0,0,0,0,0,-1,622,1765,0,0
-595,-741,0,0,0,0,0,0,0,0,0,-1,629,1765,0,0
-588,-741,0,0,0,0,0,0,0,0,0,-1,636,1765,0,0
-581,-741,0,0,0,0,0,0,0,0,0,-1,643,1765,0,0
-574,-741,0,0,0,0,0,0,0,0,0,-1,650,1765,0,0
-567,-741,0,0,0,0,0,0,0,0,0,-1,657,1765,0,0
-560,-741,0,0,0,0,0,0,0,0,0,-1,664,1765,0,0
-553,-741,0,0,0,0,0,0,0,0,0,-1,671,1765,0,0
-546,-741,0,0,0,0,0,0,0,0,0,-1,678,1765,0,0
-539,-741,0,0,0,0,0,0,0,0,0,-1,685,1765,0,0
-532,-741,0,0,0,0,0,0,0,0,0,-1,692,1765,0,0
-525,-741,0,0,0,0,0,0,0,0,0,-1,699,1765,0,0
-518,-741,0,0,0,0,0,0,0,0,0,-1,706,1765,0,0
-511,-741,0,0,0,0,0,0,0,0,0,-1,713,1765,0,0
-504,-741,0,0,0,0,0,0,0,0,0,-1,720,1765,0,0
-497,-741,0,0,0,0,0,0,0,0,0,-1,727,1765,0,0
-490,-741,0,0,0,0,0,0,0,0,0,-1,734,1765,0,0
-483,-741,0,0,0,0,0,0,0,0,0,-1,741,1765,0,0
-476,-741,0,0,0,0,0,0,0,0,0,-1,748,1765,0,0
-469,-741,0,0,0,0,0,0,0,0,0,-1,755,1765,0,0
-462,-741,0,0,0,0,0,0,0,0,0,-1,762,1765,0,0
-455,-741,0,0,0,0,0,0,0,0,0,-1,769,1765,0,0
-448,-741,0,0,0,0,0,0,0,0,0,-1,776,1765,0,0
-441,-741,0,0,0,0,0,0,0,0,0,-1,783,1765,0,0
-434,-741,0,0,0,0,0,0,0,0,0,-1,790,1765,0,0
-427,-741,0,0,0,0,0,0,0,0,0,-1,797,1765,0,0
-420,-741,0,0,0,0,0,0,0,0,0,-1,804,1765,0,0
-413,-741,0,0,0,0,0,0,0,0,0,-1,811,1765,0,0
-406,-741,0,0,0,0,0,0,0,0,0,-1,818,1765,0,0
-399,-741,0,0,0,0,0,0,0,0,0,-1,825,1765,0,0
-392,-741,0,0,0,0,0,0,0,0,0,-1,832,1765,0,0
-385,-741,0,0,0,0,0,0,0,0,0,-1,839,1765,0,0
-378,-741,0,0,0,0,0,0,0,0,0,-1,846,1765,0,0
-371,-741,0,0,0,0,0,0,0,0,0,-1,853,1765,0,0
-364,-741,0,0,0,0,0,0,0,0,0,-1,860,1765,0,0
-357,-741,0,0,0,0,0,0,0,0,0,-1,867,1765,0,0
-350,-741,0,0,0,0,0,0,0,0,0,-1,874,1765,0,0
-343,-741,0,0,0,0,0,0,0,0,0,-1,881,1765,0,0
-336,-741,0,0,0,0,0,0,0,0,0,-1,888,1765,0,0
-329,-741,0,0,0,0,0,0,0,0,0,-1,895,1765,0,0
-322,-741,0,0,0,0,0,0,0,0,0,-1,902,1765,0,0
-315,-741,0,0,0,0,0,0,0,0,0,-1,909,1765,0,0
-308,-741,0,0,0,0,0,0,0,0,0,-1,916,1765,0,0
-301,-741,0,0,0,0,0,0,0,0,0,-1,923,1765,0,0
-294,-741,0,0,0,0,0,0,0,0,0,-1,930,1765,0,0
-287,-741,0,0,0,0,0,0,0,0,0,-1,937,1765,0,0
-280,-741,0,0,0,0,0,0,0,0,0,-1,944,1765,0,0
-273,-741,0,0,0,0,0,0,0,0,0,-1,951,1765,0,0
-266,-741,0,0,0,0,0,0,0,0,0,-1,958,1765,0,0
-259,-741,0,0,0,0,0,0,0,0,0,-1,965,1765,0,0
-252,-741,0,0,0,0,0,0,0,0,0,-1,972,1765,0,0
-245,-741,0,0,0,0,0,0,0,0,0,-1,979,1765,0,0
-238,-741,4.71777,14.9655,0,0,0,0,0,0,0,-1,986,1765,4.71776,-14.9654
-231,-741,6.49927,15.5663,0,0,0,0,0,0,0,-1,993,1765,6.49927,-15.5663
-224,-741,6.26501,16.5385,0,0,0,0,0,0,0,-1,1000,1765,6.26501,-16.5384
-217,-741,4.33527,34.0656,0,0,0,0,0,0,0,-1,1007,1765,4.33525,-34.0655
-210,-741,4.74048,34.3195,0,0,0,0,0,0,0,-1,1014,1765,4.7405,-34.3194
-203,-741,4.63757,33.5281,0,0,0,0,0,0,0,-1,1021,1765,4.63754,-33.5281
-196,-741,5.0509,34.1676,0,0,0,0,0,0,0,-1,1028,1765,5.05086,-34.1676
-189,-741,7.14319,22.3441,0,0,0,0,0,0,0,-1,1035,1765,7.1432,-22.3441
-182,-741,7.4458,23.6536,0,0,0,0,0,0,0,-1,1042,1765,7.44582,-23.6536
-175,-741,7.26477,24.616,0,0,0,0,0,0,0,-1,1049,1765,7.26471,-24.616
-168,-741,5.4801,16.3933,0,0,0,0,0,0,0,-1,1056,1765,5.4801,-16.3933
-161,-741,3.73047,14.4974,0,0,0,0,0,0,0,-1,1063,1765,3.73043,-14.4974
-154,-741,2.46143,9.75415,0,0,0,0,0,0,0,-1,1070,1765,2.46145,-9.75416
-147,-741,9.35718,33.0258,0,0,0,0,0,0,0,-1,1077,1765,9.35718,-33.0258
-140,-741,8.56543,32.2886,0,0,0,0,0,0,0,-1,1084,1765,8.56541,-32.2886
-133,-741,8.63428,33.7032,0,0,0,0,0,0,0,-1,1091,1765,8.63425,-33.7033
-126,-741,8.16223,33.8485,0,0,0,0,0,0,0,-1,1098,1765,8.16222,-33.8485
-119,-741,8.17175,34.0013,0,0,0,0,0,0,0,-1,1105,1765,8.17172,-34.0013
-112,-741,8.21765,34.15,0,0,0,0,0,0,0,-1,1112,1765,8.21764,-34.15
-105,-741,8.19141,34.3723,0,0,0,0,0,0,0,-1,1119,1765,8.1914,-34.3724
-98,-741,8.28516,34.4836,0,0,0,0,0,0,0,-1,1126,1765,8.28512,-34.4837
-91,-741,8.17285,34.4562,0,0,0,0,0,0,0,-1,1133,1765,8.1728,-34.4562
-84,-741,7.83875,34.3082,0,0,0,0,0,0,0,-1,1140,1765,7.83872,-34.3083
-77,-741,7.73303,34.1174,0,0,0,0,0,0,0,-1,1147,1765,7.73304,-34.1174
-70,-741,7.5437,32.0275,0,0,0,0,0,0,0,-1,1154,1765,7.5437,-32.0275
-63,-741,7.9873,35.4164,0,0,0,0,0,0,0,-1,1161,1765,7.98727,-35.4163
-56,-741,7.9707,35.5635,0,0,0,0,0,0,0,-1,1168,1765,7.9707,-35.5635
-49,-741,7.99646,35.9456,0,0,0,0,0,0,0,-1,1175,1765,7.99642,-35.9456
-42,-741,7.96094,36.061,0,0,0,0,0,0,0,-1,1182,1765,7.96093,-36.061
-35,-741,7.94763,36.134,-0.00143981,-0.00532357,-0.00138812,-0.000994687,-0.00576869,-0.310306,0.00356085,0.0244754,1189,1765,7.94758,-36.134
-28,-741,7.95654,36.2622,-0.00131677,-0.00667852,-0.00186269,-0.000733183,-0.0072621,-0.303615,0.00461646,0.0147444,1196,1765,7.95657,-36.2623
-21,-741,7.94666,36.3647,-0.00120819,-0.00753089,-0.00210915,-0.000569195,-0.00816989,-0.294174,0.00526712,0.0167665,1203,1765,7.94667,-36.3648
-14,-741,7.88281,36.4792,-0.00102997,-0.00778001,-0.00219771,-0.000377503,-0.00843248,-0.288599,0.00550014,0.0177633,1210,1765,7.88285,-36.4793
-7,-741,7.88452,36.5638,-0.001317,-0.00784322,-0.00236653,-0.000549184,-0.00861103,-0.313732,0.00556666,0.0154956,1217,1765,7.88449,-36.5638
0,-741,7.86243,36.6533,-0.00179207,-0.00762691,-0.00239988,-0.000931818,-0.00848716,-0.344187,0.00537449,0.0147807,1224,1765,7.86248,-36.6533
7,-741,7.81433,36.7529,-0.00214444,-0.00689646,-0.0024534,-0.0011051,-0.0079358,-0.400711,0.00496335,0.0162164,1231,1765,7.81436,-36.7529
14,-741,7.80762,36.8553,-0.00250515,-0.00579318,-0.00249253,-0.00116329,-0.00713505,-0.493859,0.00442026,0.0159549,1238,1765,7.80757,-36.8553
21,-741,7.78589,36.901,-0.00277793,-0.00450145,-0.00246528,-0.00102814,-0.00625125,-0.617257,0.00387057,0.0125166,1245,1765,7.78589,-36.901
28,-741,7.76221,36.95,-0.00295681,-0.00324745,-0.00238233,-0.000715377,-0.00548889,-0.754937,0.00344564,0.0123894,1252,1765,7.76226,-36.95
35,-741,7.76355,37.002,-0.00300718,-0.00212127,-0.00233343,-0.00018913,-0.00493932,-0.879197,0.00323168,0.0140538,1259,1765,7.76354,-37.0019
42,-741,7.77673,37.0261,-0.00295853,-0.0011816,-0.00226682,0.000364652,-0.00450479,-0.972169,0.00313183,0.0144918,1266,1765,7.77674,-37.0262
49,-741,7.74731,37.0602,-0.00287829,-0.000408212,-0.00208476,0.000779873,-0.00406638,-1.05281,0.0030048,0.00960322,1273,1765,7.74727,-37.0602
56,-741,7.71692,37.0958,-0.00224956,0.000346505,-0.00235581,0.00173822,-0.00364127,-1.0372,0.00316997,0.00953769,1280,1765,7.71695,-37.0958
63,-741,7.68628,37.1165,-0.00110191,0.00101965,-0.00287291,0.00302136,-0.00310362,-0.962251,0.00353637,0.0138006,1287,1765,7.68627,-37.1165
70,-741,7.67517,37.146,3.77703e-05,0.00135972,-0.00323837,0.00400388,-0.00260639,-0.886069,0.00384476,0.0158764,1294,1765,7.67513,-37.1459
77,-741,7.67603,37.1265,0.0015609,0.00125558,-0.00376551,0.00517684,-0.00236036,-0.765138,0.00445173,0.0137715,1301,1765,7.676,-37.1264
84,-741,7.67041,37.085,0.00265291,0.00098375,-0.00433385,0.00623181,-0.00259515,-0.690276,0.00523844,0.0159337,1308,1765,7.67038,-37.085
91,-741,7.65637,37.0583,0.00373574,0.000885376,-0.0047501,0.00726986,-0.00264873,-0.639655,0.00593006,0.0131504,1315,1765,7.65643,-37.0584
98,-741,7.65112,37.03,0.00526559,0.000767028,-0.00511042,0.00859982,-0.00256721,-0.578088,0.0067536,0.010749,1322,1765,7.65114,-37.03
105,-741,7.65393,36.9829,0.00636149,0.000710113,-0.00561914,0.00982542,-0.00275381,-0.552428,0.00763558,0.0106505,1329,1765,7.65387,-36.9829
112,-741,7.66272,36.915,0.00688024,0.000644574,-0.00586283,0.0104027,-0.0028779,-0.541018,0.0080674,0.0106559,1336,1765,7.66267,-36.9151
119,-741,7.62244,36.8243,0.0072019,0.000662953,-0.00592778,0.0107021,-0.00283722,-0.533382,0.00824482,0.0139464,1343,1765,7.62244,-36.8244
126,-741,7.61279,36.725,0.00730837,0.000859331,-0.00577366,0.0106969,-0.00252922,-0.53073,0.00810695,0.0193655,1350,1765,7.61278,-36.725
133,-741,7.60974,36.6628,0.00710661,0.00123771,-0.00534052,0.0102658,-0.00192146,-0.53418,0.00756611,0.0144186,1357,1765,7.60976,-36.6629
140,-741,7.56567,36.5873,0.00665395,0.00163532,-0.00459172,0.00937728,-0.00108801,-0.535327,0.00664395,0.0109206,1364,1765,7.56572,-36.5873
147,-741,7.55383,36.5094,0.00608076,0.00175684,-0.00377149,0.00826601,-0.000428409,-0.525144,0.00565889,0.0104382,1371,1765,7.55389,-36.5094
154,-741,7.53564,36.4475,0.00524556,0.001592,-0.0031078,0.00702371,-0.000186156,-0.519696,0.00474574,0.00875092,1378,1765,7.53564,-36.4476
161,-741,7.49866,36.3396,0.00348676,0.0013345,-0.00196153,0.00464796,0.000173305,-0.534507,0.00304252,0.0103909,1385,1765,7.49866,-36.3396
168,-741,7.48279,36.2108,0.00109756,0.000558886,-0.000569757,0.00145843,0.000198013,-0.564603,0.000913468,0.0250566,1392,1765,7.48275,-36.2108
175,-741,7.46411,36.1028,0,0,0,0,0,0,0,-1,1399,1765,7.46406,-36.1028
182,-741,7.46973,35.899,0,0,0,0,0,0,0,-1,1406,1765,7.46975,-35.899
189,-741,7.4043,35.8019,0,0,0,0,0,0,0,-1,1413,1765,7.40425,-35.8018
196,-741,7.38757,35.6733,0,0,0,0,0,0,0,-1,1420,1765,7.38752,-35.6734
203,-741,7.42114,35.4174,0,0,0,0,0,0,0,-1,1427,1765,7.42119,-35.4174
210,-741,7.37329,35.0687,0,0,0,0,0,0,0,-1,1434,1765,7.37334,-35.0687
217,-741,7.57922,34.8237,0,0,0,0,0,0,0,-1,1441,1765,7.57926,-34.8237
224,-741,7.67969,34.4757,0,0,0,0,0,0,0,-1,1448,1765,7.67972,-34.4757
231,-741,7.36316,34.5994,0,0,0,0,0,0,0,-1,1455,1765,7.36316,-34.5993
238,-741,7.14185,34.5468,0,0,0,0,0,0,0,-1,1462,1765,7.14186,-34.5468
245,-741,7.19934,34.1554,0,0,0,0,0,0,0,-1,1469,1765,7.19938,-34.1554
252,-741,7.41309,33.6932,0.000475287,0.0146755,-0.00306281,0.015308,-0.000157154,-1.36717,0.0102581,0.0472255,1476,1765,7.41305,-33.6932
259,-741,7.32813,33.5471,0.00207878,0.0135986,-0.00250205,0.0141186,0.00155881,-1.3659,0.0089382,0.0486421,1483,1765,7.32814,-33.5471
266,-741,7.13354,33.7808,0,0,0,0,0,0,0,-1,1490,1765,7.13349,-33.7808
273,-741,7.03821,33.8081,0,0,0,0,0,0,0,-1,1497,1765,7.0382,-33.8081
280,-741,16.2363,9.84546,0,0,0,0,0,0,0,-1,1504,1765,16.2363,-9.84547
287,-741,5.92065,32.9744,0,0,0,0,0,0,0,-1,1511,1765,5.9207,-32.9744
294,-741,5.17139,33.598,0,0,0,0,0,0,0,-1,1518,1765,5.17134,-33.5981
301,-741,6.8833,30.6382,0,0,0,0,0,0,0,-1,1525,1765,6.8833,-30.6382
308,-741,8.59521,27.6783,0,0,0,0,0,0,0,-1,1532,1765,8.59526,-27.6784
315,-741,9.70715,6.86963,0,0,0,0,0,0,0,-1,1539,1765,9.70712,-6.86963
322,-741,9.21252,8.54858,0,0,0,0,0,0,0,-1,1546,1765,9.21251,-8.54858
329,-741,8.5603,10.1146,0,0,0,0,0,0,0,-1,1553,1765,8.56033,-10.1146
336,-741,4.74475,14.6453,0,0,0,0,0,0,0,-1,1560,1765,4.7447,-14.6452
343,-741,5.42297,5.93701,0,0,0,0,0,0,0,-1,1567,1765,5.42296,-5.937
350,-741,4.90369,5.44666,0,0,0,0,0,0,0,-1,1574,1765,4.90368,-5.44664
357,-741,4.02063,5.16626,0,0,0,0,0,0,0,-1,1581,1765,4.02058,-5.1662
364,-741,0,0,0,0,0,0,0,0,0,-1,1588,1765,0,0
371,-741,0,0,0,0,0,0,0,0,0,-1,1595,1765,0,0
378,-741,0,0,0,0,0,0,0,0,0,-1,1602,1765,0,0
385,-741,0,0,0,0,0,0,0,0,0,-1,1609,1765,0,0
392,-741,0,0,0,0,0,0,0,0,0,-1,1616,1765,0,0
399,-741,0,0,0,0,0,0,0,0,0,-1,1623,1765,0,0
406,-741,0,0,0,0,0,0,0,0,0,-1,1630,1765,0,0
413,-741,0,0,0,0,0,0,0,0,0,-1,1637,1765,0,0
420,-741,0,0,0,0,0,0,0,0,0,-1,1644,1765,0,0
427,-741,0,0,0,0,0,0,0,0,0,-1,1651,1765,0,0
434,-741,0,0,0,0,0,0,0,0,0,-1,1658,1765,0,0
441,-741,0,0,0,0,0,0,0,0,0,-1,1665,1765,0,0
448,-741,0,0,0,0,0,0,0,0,0,-1,1672,1765,0,0
455,-741,0,0,0,0,0,0,0,0,0,-1,1679,1765,0,0
462,-741,0,0,0,0,0,0,0,0,0,-1,1686,1765,0,0
469,-741,0,0,0,0,0,0,0,0,0,-1,1693,1765,0,0
476,-741,0,0,0,0,0,0,0,0,0,-1,1700,1765,0,0
483,-741,0,0,0,0,0,0,0,0,0,-1,1707,1765,0,0
490,-741,0,0,0,0,0,0,0,0,0,-1,1714,1765,0,0
497,-741,0,0,0,0,0,0,0,0,0,-1,1721,1765,0,0
504,-741,0,0,0,0,0,0,0,0,0,-1,1728,1765,0,0
511,-741,0,0,0,0,0,0,0,0,0,-1,1735,1765,0,0
518,-741,0,0,0,0,0,0,0,0,0,-1,1742,1765,0,0
525,-741,0,0,0,0,0,0,0,0,0,-1,1749,1765,0,0
532,-741,0,0,0,0,0,0,0,0,0,-1,1756,1765,0,0
539,-741,0,0,0,0,0,0,0,0,0,-1,1763,1765,0,0
546,-741,0,0,0,0,0,0,0,0,0,-1,1770,1765,0,0
553,-741,0,0,0,0,0,0,0,0,0,-1,1777,1765,0,0
560,-741,0,0,0,0,0,0,0,0,0,-1,1784,1765,0,0
567,-741,0,0,0,0,0,0,0,0,0,-1,1791,1765,0,0
574,-741,0,0,0,0,0,0,0,0,0,-1,1798,1765,0,0
581,-741,0,0,0,0,0,0,0,0,0,-1,1805,1765,0,0
588,-741,0,0,0,0,0,0,0,0,0,-1,1812,1765,0,0
595,-741,0,0,0,0,0,0,0,0,0,-1,1819,1765,0,0
602,-741,0,0,0,0,0,0,0,0,0,-1,1826,1765,0,0
609,-741,0,0,0,0,0,0,0,0,0,-1,1833,1765,0,0
616,-741,0,0,0,0,0,0,0,0,0,-1,1840,1765,0,0
623,-741,0,0,0,0,0,0,0,0,0,-1,1847,1765,0,0
630,-741,0,0,0,0,0,0,0,0,0,-1,1854,1765,0,0
637,-741,0,0,0,0,0,0,0,0,0,-1,1861,1765,0,0
644,-741,0,0,0,0,0,0,0,0,0,-1,1868,1765,0,0
651,-741,0,0,0,0,0,0,0,0,0,-1,1875,1765,0,0
658,-741,0,0,0,0,0,0,0,0,0,-1,1882,1765,0,0
665,-741,0,0,0,0,0,0,0,0,0,-1,1889,1765,0,0
672,-741,0,0,0,0,0,0,0,0,0,-1,1896,1765,0,0
679,-741,0,0,0,0,0,0,0,0,0,-1,1903,1765,0,0
686,-741,0,0,0,0,0,0,0,0,0,-1,1910,1765,0,0
693,-741,0,0,0,0,0,0,0,0,0,-1,1917,1765,0,0
700,-741,0,0,0,0,0,0,0,0,0,-1,1924,1765,0,0
707,-741,0,0,0,0,0,0,0,0,0,-1,1931,1765,0,0
714,-741,0,0,0,0,0,0,0,0,0,-1,1938,1765,0,0
721,-741,0,0,0,0,0,0,0,0,0,-1,1945,1765,0,0
728,-741,0,0,0,0,0,0,0,0,0,-1,1952,1765,0,0
735,-741,0,0,0,0,0,0,0,0,0,-1,1959,1765,0,0
742,-741,0,0,0,0,0,0,0,0,0,-1,1966,1765,0,0
749,-741,0,0,0,0,0,0,0,0,0,-1,1973,1765,0,0
756,-741,0,0,0,0,0,0,0,0,0,-1,1980,1765,0,0
763,-741,0,0,0,0,0,0,0,0,0,-1,1987,1765,0,0
770,-741,0,0,0,0,0,0,0,0,0,-1,1994,1765,0,0
777,-741,0,0,0,0,0,0,0,0,0,-1,2001,1765,0,0
784,-741,0,0,0,0,0,0,0,0,0,-1,2008,1765,0,0
791,-741,0,0,0,0,0,0,0,0,0,-1,2015,1765,0,0
798,-741,0,0,0,0,0,0,0,0,0,-1,2022,1765,0,0
805,-741,0,0,0,0,0,0,0,0,0,-1,2029,1765,0,0
812,-741,0,0,0,0,0,0,0,0,0,-1,2036,1765,0,0
-700,-748,0,0,0,0,0,0,0,0,0,-1,524,1772,0,0
-693,-748,0,0,0,0,0,0,0,0,0,-1,531,1772,0,0
-686,-748,0,0,0,0,0,0,0,0,0,-1,538,1772,0,0
-679,-748,0,0,0,0,0,0,0,0,0,-1,545,1772,0,0
-672,-748,0,0,0,0,0,0,0,0,0,-1,552,1772,0,0
-665,-748,0,0,0,0,0,0,0,0,0,-1,559,1772,0,0
-658,-748,0,0,0,0,0,0,0,0,0,-1,566,1772,0,0
-651,-748,0,0,0,0,0,0,0,0,0,-1,573,1772,0,0
-644,-748,0,0,0,0,0,0,0,0,0,-1,580,1772,0,0
-637,-748,0,0,0,0,0,0,0,0,0,-1,587,1772,0,0
-630,-748,0,0,0,0,0,0,0,0,0,-1,594,1772,0,0
-623,-748,0,0,0,0,0,0,0,0,0,-1,601,1772,0,0
-616,-748,0,0,0,0,0,0,0,0,0,-1,608,1772,0,0
-609,-748,0,0,0,0,0,0,0,0,0,-1,615,1772,0,0
-602,-748,0,0,0,0,0,0,0,0,0,-1,622,1772,0,0
-595,-748,0,0,0,0,0,0,0,0,0,-1,629,1772,0,0
-588,-748,0,0,0,0,0,0,0,0,0,-1,636,1772,0,0
-581,-748,0,0,0,0,0,0,0,0,0,-1,643,1772,0,0
-574,-748,0,0,0,0,0,0,0,0,0,-1,650,1772,0,0
-567,-748,0,0,0,0,0,0,0,0,0,-1,657,1772,0,0
-560,-748,0,0,0,0,0,0,0,0,0,-1,664,1772,0,0
-553,-748,0,0,0,0,0,0,0,0,0,-1,671,1772,0,0
-546,-748,0,0,0,0,0,0,0,0,0,-1,678,1772,0,0
-539,-748,0,0,0,0,0,0,0,0,0,-1,685,1772,0,0
-532,-748,0,0,0,0,0,0,0,0,0,-1,692,1772,0,0
-525,-748,0,0,0,0,0,0,0,0,0,-1,699,1772,0,0
-518,-748,0,0,0,0,0,0,0,0,0,-1,706,1772,0,0
-511,-748,0,0,0,0,0,0,0,0,0,-1,713,1772,0,0
-504,-748,0,0,0,0,0,0,0,0,0,-1,720,1772,0,0
-497,-748,0,0,0,0,0,0,0,0,0,-1,727,1772,0,0
-490,-748,0,0,0,0,0,0,0,0,0,-1,734,1772,0,0
-483,-748,0,0,0,0,0,0,0,0,0,-1,741,1772,0,0
-476,-748,0,0,0,0,0,0,0,0,0,-1,748,1772,0,0
-469,-748,0,0,0,0,0,0,0,0,0,-1,755,1772,0,0
-462,-748,0,0,0,0,0,0,0,0,0,-1,762,1772,0,0
-455,-748,0,0,0,0,0,0,0,0,0,-1,769,1772,0,0
-448,-748,0,0,0,0,0,0,0,0,0,-1,776,1772,0,0
-441,-748,0,0,0,0,0,0,0,0,0,-1,783,1772,0,0
-434,-748,0,0,0,0,0,0,0,0,0,-1,790,1772,0,0
-427,-748,0,0,0,0,0,0,0,0,0,-1,797,1772,0,0
-420,-748,0,0,0,0,0,0,0,0,0,-1,804,1772,0,0
-413,-748,0,0,0,0,0,0,0,0,0,-1,811,1772,0,0
-406,-748,0,0,0,0,0,0,0,0,0,-1,818,1772,0,0
-399,-748,0,0,0,0,0,0,0,0,0,-1,825,1772,0,0
-392,-748,0,0,0,0,0,0,0,0,0,-1,832,1772,0,0
-385,-748,0,0,0,0,0,0,0,0,0,-1,839,1772,0,0
-378,-748,0,0,0,0,0,0,0,0,0,-1,846,1772,0,0
-371,-748,0,0,0,0,0,0,0,0,0,-1,853,1772,0,0
-364,-748,0,0,0,0,0,0,0,0,0,-1,860,1772,0,0
-357,-748,0,0,0,0,0,0,0,0,0,-1,867,1772,0,0
-350,-748,0,0,0,0,0,0,0,0,0,-1,874,1772,0,0
-343,-748,0,0,0,0,0,0,0,0,0,-1,881,1772,0,0
-336,-748,0,0,0,0,0,0,0,0,0,-1,888,1772,0,0
-329,-748,0,0,0,0,0,0,0,0,0,-1,895,1772,0,0
-322,-748,0,0,0,0,0,0,0,0,0,-1,902,1772,0,0
-315,-748,0,0,0,0,0,0,0,0,0,-1,909,1772,0,0
-308,-748,0,0,0,0,0,0,0,0,0,-1,916,1772,0,0
-301,-748,0,0,0,0,0,0,0,0,0,-1,923,1772,0,0
-294,-748,0,0,0,0,0,0,0,0,0,-1,930,1772,0,0
-287,-748,0,0,0,0,0,0,0,0,0,-1,937,1772,0,0
-280,-748,0,0,0,0,0,0,0,0,0,-1,944,1772,0,0
-273,-748,0,0,0,0,0,0,0,0,0,-1,951,1772,0,0
-266,-748,0,0,0,0,0,0,0,0,0,-1,958,1772,0,0
-259,-748,0,0,0,0,0,0,0,0,0,-1,965,1772,0,0
-252,-748,0,0,0,0,0,0,0,0,0,-1,972,1772,0,0
-245,-748,0,0,0,0,0,0,0,0,0,-1,979,1772,0,0
-238,-748,0,0,0,0,0,0,0,0,0,-1,986,1772,0,0
-231,-748,0,0,0,0,0,0,0,0,0,-1,993,1772,0,0
-224,-748,0,0,0,0,0,0,0,0,0,-1,1000,1772,0,0
-217,-748,6.45807,16.5496,0,0,0,0,0,0,0,-1,1007,1772,6.45805,-16.5495
-210,-748,8.08215,31.9536,0,0,0,0,0,0,0,-1,1014,1772,8.08215,-31.9537
-203,-748,4.06995,33.8441,0,0,0,0,0,0,0,-1,1021,1772,4.0699,-33.8441
-196,-748,5.15344,22.8755,0,0,0,0,0,0,0,-1,1028,1772,5.15342,-22.8754
-189,-748,7.13208,21.4095,0,0,0,0,0,0,0,-1,1035,1772,7.13211,-21.4095
-182,-748,3.94958,20.8662,0,0,0,0,0,0,0,-1,1042,1772,3.94959,-20.8662
-175,-748,3.56726,19.4518,0,0,0,0,0,0,0,-1,1049,1772,3.5673,-19.4518
-168,-748,3.04858,18.0109,0,0,0,0,0,0,0,-1,1056,1772,3.04853,-18.0108
-161,-748,3.50562,13.2729,0,0,0,0,0,0,0,-1,1063,1772,3.5056,-13.2729
-154,-748,-3.38562,10.6989,0,0,0,0,0,0,0,-1,1070,1772,-3.38564,-10.6989
-147,-748,-6.38733,11.0702,0,0,0,0,0,0,0,-1,1077,1772,-6.38731,-11.0702
-140,-748,7.42126,23.8113,0,0,0,0,0,0,0,-1,1084,1772,7.42133,-23.8113
-133,-748,7.44727,22.0308,0,0,0,0,0,0,0,-1,1091,1772,7.44728,-22.0308
-126,-748,5.98035,22.6067,0,0,0,0,0,0,0,-1,1098,1772,5.9803,-22.6067
-119,-748,6.63342,26.309,0,0,0,0,0,0,0,-1,1105,1772,6.6334,-26.3089
-112,-748,6.91333,24.923,0,0,0,0,0,0,0,-1,1112,1772,6.91339,-24.923
-105,-748,6.83313,25.0537,0,0,0,0,0,0,0,-1,1119,1772,6.83311,-25.0537
-98,-748,8.13623,30.8743,0,0,0,0,0,0,0,-1,1126,1772,8.13628,-30.8742
-91,-748,4.85352,15.3033,0,0,0,0,0,0,0,-1,1133,1772,4.85351,-15.3033
-84,-748,-0.192017,7.26196,0,0,0,0,0,0,0,-1,1140,1772,-0.192047,-7.26201
-77,-748,4.42615,13.5537,0,0,0,0,0,0,0,-1,1147,1772,4.4261,-13.5538
-70,-748,4.46191,13.7446,0,0,0,0,0,0,0,-1,1154,1772,4.4619,-13.7446
-63,-748,4.49768,13.9355,0,0,0,0,0,0,0,-1,1161,1772,4.49769,-13.9355
-56,-748,3.05762,7.87817,0,0,0,0,0,0,0,-1,1168,1772,3.05768,-7.87822
-49,-748,3.04102,7.82471,0,0,0,0,0,0,0,-1,1175,1772,3.04096,-7.82468
-42,-748,0.793457,14.9474,0,0,0,0,0,0,0,-1,1182,1772,0.793413,-14.9474
-35,-748,7.99719,36.1797,0,0,0,0,0,0,0,-1,1189,1772,7.99716,-36.1797
-28,-748,8.06653,36.2838,-0.00149517,-0.0107112,-0.00270086,-0.000761977,-0.0114443,-0.265077,0.00738868,0.0494442,1196,1772,8.0665,-36.2838
-21,-748,8.07214,36.4178,-0.00157605,-0.0116465,-0.00296406,-0.000768397,-0.0124541,-0.266022,0.00805883,0.023923,1203,1772,8.07212,-36.4178
-14,-748,8.00244,36.475,-0.00151122,-0.01187,-0.00300214,-0.000704051,-0.0126772,-0.262653,0.00822684,0.0176675,1210,1772,8.00249,-36.475
-7,-748,7.97119,36.5504,-0.00196539,-0.0118408,-0.00316715,-0.00103694,-0.0127692,-0.285161,0.00818908,0.0164323,1217,1772,7.97115,-36.5504
0,-748,7.92859,36.651,-0.00259745,-0.0113196,-0.00320041,-0.00154912,-0.012368,-0.316544,0.00778051,0.0154187,1224,1772,7.92857,-36.6511
7,-748,7.90222,36.7159,-0.00307688,-0.00997545,-0.00327559,-0.00176938,-0.011283,-0.379787,0.00700704,0.0140629,1231,1772,7.90227,-36.716
14,-748,7.87537,36.8287,-0.00350637,-0.00810427,-0.00333247,-0.0017568,-0.00985384,-0.483453,0.00606898,0.0153731,1238,1772,7.8754,-36.8288
21,-748,7.85522,36.8931,-0.00375142,-0.00599613,-0.00328586,-0.00140151,-0.00834603,-0.620825,0.00516068,0.0111849,1245,1772,7.85526,-36.8931
28,-748,7.82617,36.9462,-0.00381527,-0.00388931,-0.00317197,-0.000680104,-0.00702448,-0.779563,0.00447355,0.0111638,1252,1772,7.82615,-36.9462
35,-748,7.80444,36.9998,-0.00373425,-0.00199131,-0.00308384,0.000341832,-0.0060674,-0.923104,0.00416355,0.0121399,1259,1772,7.80448,-36.9997
42,-748,7.79993,37.0294,-0.00349806,-0.000364707,-0.00296658,0.00142347,-0.00528624,-1.02834,0.00408223,0.0127713,1266,1772,7.79997,-37.0294
49,-748,7.77271,37.0548,-0.00319444,0.00106412,-0.00268835,0.00236428,-0.00449459,-1.12033,0.00402314,0.0102566,1273,1772,7.77274,-37.0548
56,-748,7.73901,37.0813,-0.00214635,0.00235757,-0.00306188,0.00390646,-0.00369523,-1.10247,0.0043894,0.0101289,1280,1772,7.73901,-37.0813
63,-748,7.71204,37.094,-0.000127384,0.00350877,-0.00397855,0.00606497,-0.00268358,-0.999715,0.00517521,0.0118259,1287,1772,7.71205,-37.094
70,-748,7.68701,37.0873,0.00198103,0.00415288,-0.00481196,0.00799992,-0.00186601,-0.896375,0.00605195,0.0141884,1294,1772,7.68705,-37.0872
77,-748,7.67261,37.0605,0.004769,0.0041269,-0.00600823,0.0104647,-0.00156885,-0.758706,0.00755395,0.0133491,1301,1772,7.67266,-37.0605
84,-748,7.65173,37.0664,0.0069429,0.00377394,-0.00723238,0.0127623,-0.00204549,-0.677561,0.00926562,0.0144979,1308,1772,7.65177,-37.0664
91,-748,7.61853,37.0663,0.00911974,0.00356183,-0.00839358,0.0151824,-0.00250086,-0.625537,0.01105,0.0117611,1315,1772,7.61847,-37.0662
98,-748,7.59216,37.0225,0.0119132,0.00334884,-0.00951131,0.0180619,-0.0027998,-0.573879,0.0130748,0.0105883,1322,1772,7.59219,-37.0225
105,-748,7.60376,36.955,0.0141716,0.00315912,-0.0108637,0.0208448,-0.00351409,-0.550843,0.0152039,0.0112746,1329,1772,7.60376,-36.955
112,-748,7.59656,36.8947,0.0156791,0.00284093,-0.0118673,0.0227521,-0.00423213,-0.537482,0.0167579,0.0139496,1336,1772,7.59651,-36.8946
119,-748,7.57642,36.8384,0.0169323,0.00276191,-0.0125657,0.0242727,-0.00457845,-0.52869,0.0179041,0.0130342,1343,1772,7.57641,-36.8384
126,-748,7.55688,36.762,0.0178197,0.00301411,-0.012891,0.0252823,-0.00444843,-0.524758,0.0185166,0.0155843,1350,1772,7.55693,-36.7619
133,-748,7.49866,36.686,0.0180831,0.00342472,-0.0126163,0.0253446,-0.00383679,-0.522259,0.0183098,0.00972815,1357,1772,7.49866,-36.6861
140,-748,7.46692,36.6194,0.0177493,0.00387415,-0.0116402,0.0243626,-0.00273909,-0.516661,0.0172275,0.0123541,1364,1772,7.46697,-36.6193
147,-748,7.50317,36.5259,0.0170261,0.0039237,-0.0103825,0.0227515,-0.00180164,-0.503951,0.0158025,0.0141161,1371,1772,7.50314,-36.5259
154,-748,7.44202,36.4279,0.0156494,0.00354297,-0.00909642,0.0205226,-0.00133021,-0.491818,0.014146,0.0120978,1378,1772,7.44202,-36.4279
161,-748,7.37024,36.3375,0.0128957,0.00313638,-0.0070115,0.0165584,-0.000526343,-0.481397,0.0112185,0.017365,1385,1772,7.3702,-36.3376
168,-748,7.328,36.2622,0,0,0,0,0,0,0,-1,1392,1772,7.32796,-36.2622
175,-748,11.6235,16.8242,0,0,0,0,0,0,0,-1,1399,1772,11.6236,-16.8242
182,-748,7.62476,10.3058,0,0,0,0,0,0,0,-1,1406,1772,7.62476,-10.3058
189,-748,6.15857,6.95898,0,0,0,0,0,0,0,-1,1413,1772,6.15862,-6.95896
196,-748,3.9425,8.46021,0,0,0,0,0,0,0,-1,1420,1772,3.9425,-8.46026
203,-748,3.9668,12.9835,0,0,0,0,0,0,0,-1,1427,1772,3.96678,-12.9836
210,-748,4.71472,16.8318,0,0,0,0,0,0,0,-1,1434,1772,4.71471,-16.8317
217,-748,5.38452,21.5551,0,0,0,0,0,0,0,-1,1441,1772,5.38455,-21.555
224,-748,6.14258,25.2345,0,0,0,0,0,0,0,-1,1448,1772,6.14263,-25.2345
231,-748,6.46045,29.7867,0,0,0,0,0,0,0,-1,1455,1772,6.46049,-29.7867
238,-748,7.41565,32.8574,0,0,0,0,0,0,0,-1,1462,1772,7.41562,-32.8574
245,-748,7.84912,32.0914,0,0,0,0,0,0,0,-1,1469,1772,7.84914,-32.0914
252,-748,7.42969,33.3474,0,0,0,0,0,0,0,-1,1476,1772,7.42968,-33.3474
259,-748,7.04028,33.1046,0,0,0,0,0,0,0,-1,1483,1772,7.04023,-33.1046
266,-748,7.0072,32.5728,0,0,0,0,0,0,0,-1,1490,1772,7.00718,-32.5728
273,-748,16.4131,7.57129,0,0,0,0,0,0,0,-1,1497,1772,16.413,-7.57125
280,-748,15.2177,7.24829,0,0,0,0,0,0,0,-1,1504,1772,15.2176,-7.24833
287,-748,14.161,8.32813,0,0,0,0,0,0,0,-1,1511,1772,14.161,-8.32808
294,-748,12.2117,7.453,0,0,0,0,0,0,0,-1,1518,1772,12.2116,-7.45297
301,-748,6.65857,30.0533,0,0,0,0,0,0,0,-1,1525,1772,6.65853,-30.0534
308,-748,9.92456,7.80225,0,0,0,0,0,0,0,-1,1532,1772,9.92453,-7.80224
315,-748,8.91541,8.29773,0,0,0,0,0,0,0,-1,1539,1772,8.91544,-8.29773
322,-748,7.83618,8.87122,0,0,0,0,0,0,0,-1,1546,1772,7.83613,-8.87124
329,-748,3.48315,14.6533,0,0,0,0,0,0,0,-1,1553,1772,3.48316,-14.6534
336,-748,3.76001,15.8163,0,0,0,0,0,0,0,-1,1560,1772,3.75995,-15.8163
343,-748,0,0,0,0,0,0,0,0,0,-1,1567,1772,0,0
350,-748,0,0,0,0,0,0,0,0,0,-1,1574,1772,0,0
357,-748,0,0,0,0,0,0,0,0,0,-1,1581,1772,0,0
364,-748,0,0,0,0,0,0,0,0,0,-1,1588,1772,0,0
371,-748,0,0,0,0,0,0,0,0,0,-1,1595,1772,0,0
378,-748,0,0,0,0,0,0,0,0,0,-1,1602,1772,0,0
385,-748,0,0,0,0,0,0,0,0,0,-1,1609,1772,0,0
392,-748,0,0,0,0,0,0,0,0,0,-1,1616,1772,0,0
399,-748,0,0,0,0,0,0,0,0,0,-1,1623,1772,0,0
406,-748,0,0,0,0,0,0,0,0,0,-1,1630,1772,0,0
413,-748,0,0,0,0,0,0,0,0,0,-1,1637,1772,0,0
420,-748,0,0,0,0,0,0,0,0,0,-1,1644,1772,0,0
427,-748,0,0,0,0,0,0,0,0,0,-1,1651,1772,0,0
434,-748,0,0,0,0,0,0,0,0,0,-1,1658,1772,0,0
441,-748,0,0,0,0,0,0,0,0,0,-1,1665,1772,0,0
448,-748,0,0,0,0,0,0,0,0,0,-1,1672,1772,0,0
455,-748,0,0,0,0,0,0,0,0,0,-1,1679,1772,0,0
462,-748,0,0,0,0,0,0,0,0,0,-1,1686,1772,0,0
469,-748,0,0,0,0,0,0,0,0,0,-1,1693,1772,0,0
476,-748,0,0,0,0,0,0,0,0,0,-1,1700,1772,0,0
483,-748,0,0,0,0,0,0,0,0,0,-1,1707,1772,0,0
490,-748,0,0,0,0,0,0,0,0,0,-1,1714,1772,0,0
497,-748,0,0,0,0,0,0,0,0,0,-1,1721,1772,0,0
504,-748,0,0,0,0,0,0,0,0,0,-1,1728,1772,0,0
511,-748,0,0,0,0,0,0,0,0,0,-1,1735,1772,0,0
518,-748,0,0,0,0,0,0,0,0,0,-1,1742,1772,0,0
525,-748,0,0,0,0,0,0,0,0,0,-1,1749,1772,0,0
532,-748,0,0,0,0,0,0,0,0,0,-1,1756,1772,0,0
539,-748,0,0,0,0,0,0,0,0,0,-1,1763,1772,0,0
546,-748,0,0,0,0,0,0,0,0,0,-1,1770,1772,0,0
553,-748,0,0,0,0,0,0,0,0,0,-1,1777,1772,0,0
560,-748,0,0,0,0,0,0,0,0,0,-1,1784,1772,0,0
567,-748,0,0,0,0,0,0,0,0,0,-1,1791,1772,0,0
574,-748,0,0,0,0,0,0,0,0,0,-1,1798,1772,0,0
581,-748,0,0,0,0,0,0,0,0,0,-1,1805,1772,0,0
588,-748,0,0,0,0,0,0,0,0,0,-1,1812,1772,0,0
595,-748,0,0,0,0,0,0,0,0,0,-1,1819,1772,0,0
602,-748,0,0,0,0,0,0,0,0,0,-1,1826,1772,0,0
609,-748,0,0,0,0,0,0,0,0,0,-1,1833,1772,0,0
616,-748,0,0,0,0,0,0,0,0,0,-1,1840,1772,0,0
623,-748,0,0,0,0,0,0,0,0,0,-1,1847,1772,0,0
630,-748,0,0,0,0,0,0,0,0,0,-1,1854,1772,0,0
637,-748,0,0,0,0,0,0,0,0,0,-1,1861,1772,0,0
644,-748,0,0,0,0,0,0,0,0,0,-1,1868,1772,0,0
651,-748,0,0,0,0,0,0,0,0,0,-1,1875,1772,0,0
658,-748,0,0,0,0,0,0,0,0,0,-1,1882,1772,0,0
665,-748,0,0,0,0,0,0,0,0,0,-1,1889,1772,0,0
672,-748,0,0,0,0,0,0,0,0,0,-1,1896,1772,0,0
679,-748,0,0,0,0,0,0,0,0,0,-1,1903,1772,0,0
686,-748,0,0,0,0,0,0,0,0,0,-1,1910,1772,0,0
693,-748,0,0,0,0,0,0,0,0,0,-1,1917,1772,0,0
700,-748,0,0,0,0,0,0,0,0,0,-1,1924,1772,0,0
707,-748,0,0,0,0,0,0,0,0,0,-1,1931,1772,0,0
714,-748,0,0,0,0,0,0,0,0,0,-1,1938,1772,0,0
721,-748,0,0,0,0,0,0,0,0,0,-1,1945,1772,0,0
728,-748,0,0,0,0,0,0,0,0,0,-1,1952,1772,0,0
735,-748,0,0,0,0,0,0,0,0,0,-1,1959,1772,0,0
742,-748,0,0,0,0,0,0,0,0,0,-1,1966,1772,0,0
749,-748,0,0,0,0,0,0,0,0,0,-1,1973,1772,0,0
756,-748,0,0,0,0,0,0,0,0,0,-1,1980,1772,0,0
763,-748,0,0,0,0,0,0,0,0,0,-1,1987,1772,0,0
770,-748,0,0,0,0,0,0,0,0,0,-1,1994,1772,0,0
777,-748,0,0,0,0,0,0,0,0,0,-1,2001,1772,0,0
784,-748,0,0,0,0,0,0,0,0,0,-1,2008,1772,0,0
791,-748,0,0,0,0,0,0,0,0,0,-1,2015,1772,0,0
798,-748,0,0,0,0,0,0,0,0,0,-1,2022,1772,0,0
805,-748,0,0,0,0,0,0,0,0,0,-1,2029,1772,0,0
812,-748,0,0,0,0,0,0,0,0,0,-1,2036,1772,0,0
-700,-755,0,0,0,0,0,0,0,0,0,-1,524,1779,0,0
-693,-755,0,0,0,0,0,0,0,0,0,-1,531,1779,0,0
-686,-755,0,0,0,0,0,0,0,0,0,-1,538,1779,0,0
-679,-755,0,0,0,0,0,0,0,0,0,-1,545,1779,0,0
-672,-755,0,0,0,0,0,0,0,0,0,-1,552,1779,0,0
-665,-755,0,0,0,0,0,0,0,0,0,-1,559,1779,0,0
-658,-755,0,0,0,0,0,0,0,0,0,-1,566,1779,0,0
-651,-755,0,0,0,0,0,0,0,0,0,-1,573,1779,0,0
-644,-755,0,0,0,0,0,0,0,0,0,-1,580,1779,0,0
-637,-755,0,0,0,0,0,0,0,0,0,-1,587,1779,0,0
-630,-755,0,0,0,0,0,0,0,0,0,-1,594,1779,0,0
-623,-755,0,0,0,0,0,0,0,0,0,-1,601,1779,0,0
-616,-755,0,0,0,0,0,0,0,0,0,-1,608,1779,0,0
-609,-755,0,0,0,0,0,0,0,0,0,-1,615,1779,0,0
-602,-755,0,0,0,0,0,0,0,0,0,-1,622,1779,0,0
-595,-755,0,0,0,0,0,0,0,0,0,-1,629,1779,0,0
-588,-755,0,0,0,0,0,0,0,0,0,-1,636,1779,0,0
-581,-755,0,0,0,0,0,0,0,0,0,-1,643,1779,0,0
-574,-755,0,0,0,0,0,0,0,0,0,-1,650,1779,0,0
-567,-755,0,0,0,0,0,0,0,0,0,-1,657,1779,0,0
-560,-755,0,0,0,0,0,0,0,0,0,-1,664,1779,0,0
-553,-755,0,0,0,0,0,0,0,0,0,-1,671,1779,0,0
-546,-755,0,0,0,0,0,0,0,0,0,-1,678,1779,0,0
-539,-755,0,0,0,0,0,0,0,0,0,-1,685,1779,0,0
-532,-755,0,0,0,0,0,0,0,0,0,-1,692,1779,0,0
-525,-755,0,0,0,0,0,0,0,0,0,-1,699,1779,0,0
-518,-755,0,0,0,0,0,0,0,0,0,-1,706,1779,0,0
-511,-755,0,0,0,0,0,0,0,0,0,-1,713,1779,0,0
-504,-755,0,0,0,0,0,0,0,0,0,-1,720,1779,0,0
-497,-755,0,0,0,0,0,0,0,0,0,-1,727,1779,0,0
-490,-755,0,0,0,0,0,0,0,0,0,-1,734,1779,0,0
-483,-755,0,0,0,0,0,0,0,0,0,-1,741,1779,0,0
-476,-755,0,0,0,0,0,0,0,0,0,-1,748,1779,0,0
-469,-755,0,0,0,0,0,0,0,0,0,-1,755,1779,0,0
-462,-755,0,0,0,0,0,0,0,0,0,-1,762,1779,0,0
-455,-755,0,0,0,0,0,0,0,0,0,-1,769,1779,0,0
-448,-755,0,0,0,0,0,0,0,0,0,-1,776,1779,0,0
-441,-755,0,0,0,0,0,0,0,0,0,-1,783,1779,0,0
-434,-755,0,0,0,0,0,0,0,0,0,-1,790,1779,0,0
-427,-755,0,0,0,0,0,0,0,0,0,-1,797,1779,0,0
-420,-755,0,0,0,0,0,0,0,0,0,-1,804,1779,0,0
-413,-755,0,0,0,0,0,0,0,0,0,-1,811,1779,0,0
-406,-755,0,0,0,0,0,0,0,0,0,-1,818,1779,0,0
-399,-755,0,0,0,0,0,0,0,0,0,-1,825,1779,0,0
-392,-755,0,0,0,0,0,0,0,0,0,-1,832,1779,0,0
-385,-755,0,0,0,0,0,0,0,0,0,-1,839,1779,0,0
-378,-755,0,0,0,0,0,0,0,0,0,-1,846,1779,0,0
-371,-755,0,0,0,0,0,0,0,0,0,-1,853,1779,0,0
-364,-755,0,0,0,0,0,0,0,0,0,-1,860,1779,0,0
-357,-755,0,0,0,0,0,0,0,0,0,-1,867,1779,0,0
-350,-755,0,0,0,0,0,0,0,0,0,-1,874,1779,0,0
-343,-755,0,0,0,0,0,0,0,0,0,-1,881,1779,0,0
-336,-755,0,0,0,0,0,0,0,0,0,-1,888,1779,0,0
-329,-755,0,0,0,0,0,0,0,0,0,-1,895,1779,0,0
-322,-755,0,0,0,0,0,0,0,0,0,-1,902,1779,0,0
-315,-755,0,0,0,0,0,0,0,0,0,-1,909,1779,0,0
-308,-755,0,0,0,0,0,0,0,0,0,-1,916,1779,0,0
-301,-755,0,0,0,0,0,0,0,0,0,-1,923,1779,0,0
-294,-755,0,0,0,0,0,0,0,0,0,-1,930,1779,0,0
-287,-755,0,0,0,0,0,0,0,0,0,-1,937,1779,0,0
-280,-755,0,0,0,0,0,0,0,0,0,-1,944,1779,0,0
-273,-755,0,0,0,0,0,0,0,0,0,-1,951,1779,0,0
-266,-755,0,0,0,0,0,0,0,0,0,-1,958,1779,0,0
-259,-755,0,0,0,0,0,0,0,0,0,-1,965,1779,0,0
-252,-755,0,0,0,0,0,0,0,0,0,-1,972,1779,0,0
-245,-755,0,0,0,0,0,0,0,0,0,-1,979,1779,0,0
-238,-755,0,0,0,0,0,0,0,0,0,-1,986,1779,0,0
-231,-755,0,0,0,0,0,0,0,0,0,-1,993,1779,0,0
-224,-755,0,0,0,0,0,0,0,0,0,-1,1000,1779,0,0
-217,-755,0,0,0,0,0,0,0,0,0,-1,1007,1779,0,0
-210,-755,0,0,0,0,0,0,0,0,0,-1,1014,1779,0,0
-203,-755,5.47998,25.527,0,0,0,0,0,0,0,-1,1021,1779,5.47993,-25.527
-196,-755,5.18445,23.9307,0,0,0,0,0,0,0,-1,1028,1779,5.1844,-23.9306
-189,-755,4.8175,22.4788,0,0,0,0,0,0,0,-1,1035,1779,4.81745,-22.4788
-182,-755,4.021,20.8032,0,0,0,0,0,0,0,-1,1042,1779,4.02094,-20.8032
-175,-755,3.79993,18.8242,0,0,0,0,0,0,0,-1,1049,1779,3.79995,-18.8242
-168,-755,3.14294,16.9865,0,0,0,0,0,0,0,-1,1056,1779,3.14291,-16.9864
-161,-755,-2.85889,11.5868,0,0,0,0,0,0,0,-1,1063,1779,-2.85887,-11.5868
-154,-755,-5.39026,8.51416,0,0,0,0,0,0,0,-1,1070,1779,-5.3903,-8.51417
-147,-755,-6.45593,10.2422,0,0,0,0,0,0,0,-1,1077,1779,-6.45594,-10.2422
-140,-755,1.33521,21.3856,0,0,0,0,0,0,0,-1,1084,1779,1.33522,-21.3857
-133,-755,2.89417,21.0964,0,0,0,0,0,0,0,-1,1091,1779,2.89422,-21.0964
-126,-755,3.26404,20.9304,0,0,0,0,0,0,0,-1,1098,1779,3.26399,-20.9305
-119,-755,5.17761,21.9325,0,0,0,0,0,0,0,-1,1105,1779,5.17761,-21.9325
-112,-755,5.40247,24.5646,0,0,0,0,0,0,0,-1,1112,1779,5.40244,-24.5646
-105,-755,7.01294,20.1539,0,0,0,0,0,0,0,-1,1119,1779,7.01295,-20.154
-98,-755,5.50708,16.9628,0,0,0,0,0,0,0,-1,1126,1779,5.5071,-16.9628
-91,-755,5.51025,12.0438,0,0,0,0,0,0,0,-1,1133,1779,5.51022,-12.0439
-84,-755,0.169312,8.66443,0,0,0,0,0,0,0,-1,1140,1779,0.16932,-8.66446
-77,-755,-0.0491943,6.87439,0,0,0,0,0,0,0,-1,1147,1779,-0.0491385,-6.87443
-70,-755,4.5686,13.2169,0,0,0,0,0,0,0,-1,1154,1779,4.56865,-13.2169
-63,-755,-1.36316,7.3147,0,0,0,0,0,0,0,-1,1161,1779,-1.36312,-7.31473
-56,-755,0.0483398,5.06079,0,0,0,0,0,0,0,-1,1168,1779,0.0483138,-5.06084
-49,-755,-1.32263,5.33716,0,0,0,0,0,0,0,-1,1175,1779,-1.32264,-5.33718
-42,-755,-2.03613,4.01672,0,0,0,0,0,0,0,-1,1182,1779,-2.0361,-4.01671
-35,-755,-2.72498,2.37476,0,0,0,0,0,0,0,-1,1189,1779,-2.72502,-2.37473
-28,-755,8.0459,36.3497,0,0,0,0,0,0,0,-1,1196,1779,8.04593,-36.3498
-21,-755,8.09753,36.5481,0,0,0,0,0,0,0,-1,1203,1779,8.09748,-36.5481
-14,-755,8.19434,36.5206,-0.0018678,-0.0169351,-0.00418819,-0.000781889,-0.018021,-0.253693,0.0117621,0.0368231,1210,1779,8.19436,-36.5207
-7,-755,8.04211,36.528,-0.0024903,-0.0167213,-0.00428593,-0.00129921,-0.0179124,-0.271068,0.011533,0.0264754,1217,1779,8.04206,-36.528
0,-755,7.97913,36.6073,-0.00327487,-0.015665,-0.00429072,-0.00193408,-0.0170058,-0.302873,0.0107506,0.0153078,1224,1779,7.9791,-36.6072
7,-755,7.97668,36.7157,-0.00389291,-0.013387,-0.00436254,-0.00219278,-0.0150872,-0.371606,0.00941271,0.0128728,1231,1779,7.97668,-36.7158
14,-755,7.95752,36.8131,-0.00435312,-0.0103133,-0.00437101,-0.00204297,-0.0126235,-0.4862,0.00782407,0.011434,1238,1779,7.95755,-36.8131
21,-755,7.92529,36.885,-0.00446394,-0.00697373,-0.00416636,-0.00136759,-0.0100701,-0.639121,0.00630714,0.0156989,1245,1779,7.9253,-36.885
28,-755,7.88733,36.9166,-0.00424052,-0.00370732,-0.00383381,-0.000130857,-0.00781699,-0.820112,0.00516826,0.0189186,1252,1779,7.88737,-36.9166
35,-755,7.85522,36.9983,-0.00386811,-0.00073345,-0.00355211,0.00158174,-0.0061833,-0.993171,0.00473829,0.0187027,1259,1779,7.85526,-36.9982
42,-755,7.81812,37.0382,-0.00327415,0.00180761,-0.00323471,0.00338005,-0.00484659,-1.11832,0.00477475,0.0136131,1266,1779,7.81808,-37.0382
49,-755,7.80505,37.0245,-0.00255901,0.00406793,-0.00269598,0.00502616,-0.00351724,-1.22929,0.00495811,0.0100872,1273,1779,7.80506,-37.0246
56,-755,7.76794,37.0543,-0.000911277,0.00597568,-0.00305213,0.00713362,-0.00206922,-1.20819,0.00557499,0.00974899,1280,1779,7.76797,-37.0543
63,-755,7.7417,37.0859,0.00205003,0.00753857,-0.00427285,0.00987251,-0.000283919,-1.07085,0.00667833,0.0097389,1287,1779,7.74171,-37.0859
70,-755,7.72046,37.0471,0.0051501,0.00835384,-0.00550055,0.012481,0.00102292,-0.927089,0.00800154,0.0127998,1294,1779,7.72043,-37.0471
77,-755,7.69043,37.0161,0.00919842,0.00822219,-0.00737099,0.0160974,0.00132317,-0.752336,0.0103189,0.0114421,1301,1779,7.69038,-37.0162
84,-755,7.66858,37.0306,0.0125109,0.00760279,-0.00936471,0.0197378,0.000375931,-0.657252,0.013035,0.0121203,1308,1779,7.66856,-37.0306
91,-755,7.61731,37.0159,0.0158379,0.00707199,-0.0115008,0.0237626,-0.000852671,-0.603343,0.0161335,0.0122635,1315,1779,7.61729,-37.0159
98,-755,7.56604,36.9941,0.0199647,0.00659891,-0.0136427,0.0284734,-0.00190981,-0.557651,0.0196498,0.0125858,1322,1779,7.56606,-36.9942
105,-755,7.55566,36.9636,0.0235352,0.00611203,-0.0161814,0.033201,-0.00355376,-0.538462,0.0234087,0.0156965,1329,1779,7.55567,-36.9636
112,-755,7.495,36.8892,0.0262714,0.00538299,-0.0183284,0.0369225,-0.00526809,-0.526425,0.0265458,0.0211568,1336,1779,7.49498,-36.8892
119,-755,7.50476,36.8157,0.0287249,0.00506484,-0.0200883,0.0402077,-0.00641799,-0.519289,0.0291807,0.0221513,1343,1779,7.50472,-36.8157
126,-755,7.50427,36.8148,0.0307104,0.00537929,-0.0213683,0.0428847,-0.0067951,-0.517872,0.0311033,0.026122,1350,1779,7.50426,-36.8148
133,-755,7.36914,36.729,0.0317698,0.00598111,-0.0216821,0.044102,-0.00635104,-0.517141,0.0317309,0.0267163,1357,1779,7.36911,-36.729
140,-755,7.26526,36.6672,0.031716,0.0065476,-0.0205287,0.0432106,-0.00494704,-0.510435,0.0305897,0.0326979,1364,1779,7.2653,-36.6672
147,-755,7.39722,36.6263,0.0310363,0.00657905,-0.0189269,0.0413413,-0.00372604,-0.498585,0.0288831,0.0348858,1371,1779,7.39723,-36.6264
154,-755,7.39526,36.548,0.0293554,0.00603049,-0.0171491,0.0384319,-0.00304602,-0.486789,0.0266946,0.0346722,1378,1779,7.39524,-36.548
161,-755,7.19324,36.511,0,0,0,0,0,0,0,-1,1385,1779,7.19319,-36.5109
168,-755,3.98181,7.35901,0,0,0,0,0,0,0,-1,1392,1779,3.98184,-7.35904
175,-755,8.17065,1.34363,0,0,0,0,0,0,0,-1,1399,1779,8.1706,-1.34368
182,-755,8.09216,2.96924,0,0,0,0,0,0,0,-1,1406,1779,8.09213,-2.9693
189,-755,8.04419,4.68042,0,0,0,0,0,0,0,-1,1413,1779,8.04419,-4.68046
196,-755,7.74841,7.4541,0,0,0,0,0,0,0,-1,1420,1779,7.74842,-7.45405
203,-755,4.80554,6.88696,0,0,0,0,0,0,0,-1,1427,1779,4.80554,-6.88697
210,-755,25.1694,7.35693,0,0,0,0,0,0,0,-1,1434,1779,25.1694,-7.35688
217,-755,5.01648,16.411,0,0,0,0,0,0,0,-1,1441,1779,5.01646,-16.411
224,-755,5.18103,22.6283,0,0,0,0,0,0,0,-1,1448,1779,5.18101,-22.6283
231,-755,5.7489,30.15,0,0,0,0,0,0,0,-1,1455,1779,5.74885,-30.15
238,-755,6.56323,29.2726,0,0,0,0,0,0,0,-1,1462,1779,6.56327,-29.2726
245,-755,5.76453,29.2085,0,0,0,0,0,0,0,-1,1469,1779,5.76455,-29.2085
252,-755,5.57678,29.0841,0,0,0,0,0,0,0,-1,1476,1779,5.57682,-29.0841
259,-755,5.37292,29.1577,0,0,0,0,0,0,0,-1,1483,1779,5.37293,-29.1577
266,-755,17.255,7.86096,0,0,0,0,0,0,0,-1,1490,1779,17.255,-7.86092
273,-755,15.7932,7.59778,0,0,0,0,0,0,0,-1,1497,1779,15.7932,-7.59777
280,-755,14.6255,7.34802,0,0,0,0,0,0,0,-1,1504,1779,14.6254,-7.34806
287,-755,13.8279,7.83105,0,0,0,0,0,0,0,-1,1511,1779,13.8279,-7.83104
294,-755,12.5695,7.96814,0,0,0,0,0,0,0,-1,1518,1779,12.5694,-7.9682
301,-755,11.2659,8.27087,0,0,0,0,0,0,0,-1,1525,1779,11.2658,-8.27087
308,-755,9.94434,8.55811,0,0,0,0,0,0,0,-1,1532,1779,9.94428,-8.55806
315,-755,8.64502,9.04492,0,0,0,0,0,0,0,-1,1539,1779,8.64497,-9.04488
322,-755,0,0,0,0,0,0,0,0,0,-1,1546,1779,0,0
329,-755,0,0,0,0,0,0,0,0,0,-1,1553,1779,0,0
336,-755,0,0,0,0,0,0,0,0,0,-1,1560,1779,0,0
343,-755,0,0,0,0,0,0,0,0,0,-1,1567,1779,0,0
350,-755,0,0,0,0,0,0,0,0,0,-1,1574,1779,0,0
357,-755,0,0,0,0,0,0,0,0,0,-1,1581,1779,0,0
364,-755,0,0,0,0,0,0,0,0,0,-1,1588,1779,0,0
371,-755,0,0,0,0,0,0,0,0,0,-1,1595,1779,0,0
378,-755,0,0,0,0,0,0,0,0,0,-1,1602,1779,0,0
385,-755,0,0,0,0,0,0,0,0,0,-1,1609,1779,0,0
392,-755,0,0,0,0,0,0,0,0,0,-1,1616,1779,0,0
399,-755,0,0,0,0,0,0,0,0,0,-1,1623,1779,0,0
406,-755,0,0,0,0,0,0,0,0,0,-1,1630,1779,0,0
413,-755,0,0,0,0,0,0,0,0,0,-1,1637,1779,0,0
420,-755,0,0,0,0,0,0,0,0,0,-1,1644,1779,0,0
427,-755,0,0,0,0,0,0,0,0,0,-1,1651,1779,0,0
434,-755,0,0,0,0,0,0,0,0,0,-1,1658,1779,0,0
441,-755,0,0,0,0,0,0,0,0,0,-1,1665,1779,0,0
448,-755,0,0,0,0,0,0,0,0,0,-1,1672,1779,0,0
455,-755,0,0,0,0,0,0,0,0,0,-1,1679,1779,0,0
462,-755,0,0,0,0,0,0,0,0,0,-1,1686,1779,0,0
469,-755,0,0,0,0,0,0,0,0,0,-1,1693,1779,0,0
476,-755,0,0,0,0,0,0,0,0,0,-1,1700,1779,0,0
483,-755,0,0,0,0,0,0,0,0,0,-1,1707,1779,0,0
490,-755,0,0,0,0,0,0,0,0,0,-1,1714,1779,0,0
497,-755,0,0,0,0,0,0,0,0,0,-1,1721,1779,0,0
504,-755,0,0,0,0,0,0,0,0,0,-1,1728,1779,0,0
511,-755,0,0,0,0,0,0,0,0,0,-1,1735,1779,0,0
518,-755,0,0,0,0,0,0,0,0,0,-1,1742,1779,0,0
525,-755,0,0,0,0,0,0,0,0,0,-1,1749,1779,0,0
532,-755,0,0,0,0,0,0,0,0,0,-1,1756,1779,0,0
539,-755,0,0,0,0,0,0,0,0,0,-1,1763,1779,0,0
546,-755,0,0,0,0,0,0,0,0,0,-1,1770,1779,0,0
553,-755,0,0,0,0,0,0,0,0,0,-1,1777,1779,0,0
560,-755,0,0,0,0,0,0,0,0,0,-1,1784,1779,0,0
567,-755,0,0,0,0,0,0,0,0,0,-1,1791,1779,0,0
574,-755,0,0,0,0,0,0,0,0,0,-1,1798,1779,0,0
581,-755,0,0,0,0,0,0,0,0,0,-1,1805,1779,0,0
588,-755,0,0,0,0,0,0,0,0,0,-1,1812,1779,0,0
595,-755,0,0,0,0,0,0,0,0,0,-1,1819,1779,0,0
602,-755,0,0,0,0,0,0,0,0,0,-1,1826,1779,0,0
609,-755,0,0,0,0,0,0,0,0,0,-1,1833,1779,0,0
616,-755,0,0,0,0,0,0,0,0,0,-1,1840,1779,0,0
623,-755,0,0,0,0,0,0,0,0,0,-1,1847,1779,0,0
630,-755,0,0,0,0,0,0,0,0,0,-1,1854,1779,0,0
637,-755,0,0,0,0,0,0,0,0,0,-1,1861,1779,0,0
644,-755,0,0,0,0,0,0,0,0,0,-1,1868,1779,0,0
651,-755,0,0,0,0,0,0,0,0,0,-1,1875,1779,0,0
658,-755,0,0,0,0,0,0,0,0,0,-1,1882,1779,0,0
665,-755,0,0,0,0,0,0,0,0,0,-1,1889,1779,0,0
672,-755,0,0,0,0,0,0,0,0,0,-1,1896,1779,0,0
679,-755,0,0,0,0,0,0,0,0,0,-1,1903,1779,0,0
686,-755,0,0,0,0,0,0,0,0,0,-1,1910,1779,0,0
693,-755,0,0,0,0,0,0,0,0,0,-1,1917,1779,0,0
700,-755,0,0,0,0,0,0,0,0,0,-1,1924,1779,0,0
707,-755,0,0,0,0,0,0,0,0,0,-1,1931,1779,0,0
714,-755,0,0,0,0,0,0,0,0,0,-1,1938,1779,0,0
721,-755,0,0,0,0,0,0,0,0,0,-1,1945,1779,0,0
728,-755,0,0,0,0,0,0,0,0,0,-1,1952,1779,0,0
735,-755,0,0,0,0,0,0,0,0,0,-1,1959,1779,0,0
742,-755,0,0,0,0,0,0,0,0,0,-1,1966,1779,0,0
749,-755,0,0,0,0,0,0,0,0,0,-1,1973,1779,0,0
756,-755,0,0,0,0,0,0,0,0,0,-1,1980,1779,0,0
763,-755,0,0,0,0,0,0,0,0,0,-1,1987,1779,0,0
770,-755,0,0,0,0,0,0,0,0,0,-1,1994,1779,0,0
777,-755,0,0,0,0,0,0,0,0,0,-1,2001,1779,0,0
784,-755,0,0,0,0,0,0,0,0,0,-1,2008,1779,0,0
791,-755,0,0,0,0,0,0,0,0,0,-1,2015,1779,0,0
798,-755,0,0,0,0,0,0,0,0,0,-1,2022,1779,0,0
805,-755,0,0,0,0,0,0,0,0,0,-1,2029,1779,0,0
812,-755,0,0,0,0,0,0,0,0,0,-1,2036,1779,0,0
-700,-762,0,0,0,0,0,0,0,0,0,-1,524,1786,0,0
-693,-762,0,0,0,0,0,0,0,0,0,-1,531,1786,0,0
-686,-762,0,0,0,0,0,0,0,0,0,-1,538,1786,0,0
-679,-762,0,0,0,0,0,0,0,0,0,-1,545,1786,0,0
-672,-762,0,0,0,0,0,0,0,0,0,-1,552,1786,0,0
-665,-762,0,0,0,0,0,0,0,0,0,-1,559,1786,0,0
-658,-762,0,0,0,0,0,0,0,0,0,-1,566,1786,0,0
-651,-762,0,0,0,0,0,0,0,0,0,-1,573,1786,0,0
-644,-762,0,0,0,0,0,0,0,0,0,-1,580,1786,0,0
-637,-762,0,0,0,0,0,0,0,0,0,-1,587,1786,0,0
-630,-762,0,0,0,0,0,0,0,0,0,-1,594,1786,0,0
-623,-762,0,0,0,0,0,0,0,0,0,-1,601,1786,0,0
-616,-762,0,0,0,0,0,0,0,0,0,-1,608,1786,0,0
-609,-762,0,0,0,0,0,0,0,0,0,-1,615,1786,0,0
-602,-762,0,0,0,0,0,0,0,0,0,-1,622,1786,0,0
-595,-762,0,0,0,0,0,0,0,0,0,-1,629,1786,0,0
-588,-762,0,0,0,0,0,0,0,0,0,-1,636,1786,0,0
-581,-762,0,0,0,0,0,0,0,0,0,-1,643,1786,0,0
-574,-762,0,0,0,0,0,0,0,0,0,-1,650,1786,0,0
-567,-762,0,0,0,0,0,0,0,0,0,-1,657,1786,0,0
-560,-762,0,0,0,0,0,0,0,0,0,-1,664,1786,0,0
-553,-762,0,0,0,0,0,0,0,0,0,-1,671,1786,0,0
-546,-762,0,0,0,0,0,0,0,0,0,-1,678,1786,0,0
-539,-762,0,0,0,0,0,0,0,0,0,-1,685,1786,0,0
-532,-762,0,0,0,0,0,0,0,0,0,-1,692,1786,0,0
-525,-762,0,0,0,0,0,0,0,0,0,-1,699,1786,0,0
-518,-762,0,0,0,0,0,0,0,0,0,-1,706,1786,0,0
-511,-762,0,0,0,0,0,0,0,0,0,-1,713,1786,0,0
-504,-762,0,0,0,0,0,0,0,0,0,-1,720,1786,0,0
-497,-762,0,0,0,0,0,0,0,0,0,-1,727,1786,0,0
-490,-762,0,0,0,0,0,0,0,0,0,-1,734,1786,0,0
-483,-762,0,0,0,0,0,0,0,0,0,-1,741,1786,0,0
-476,-762,0,0,0,0,0,0,0,0,0,-1,748,1786,0,0
-469,-762,0,0,0,0,0,0,0,0,0,-1,755,1786,0,0
-462,-762,0,0,0,0,0,0,0,0,0,-1,762,1786,0,0
-455,-762,0,0,0,0,0,0,0,0,0,-1,769,1786,0,0
-448,-762,0,0,0,0,0,0,0,0,0,-1,776,1786,0,0
-441,-762,0,0,0,0,0,0,0,0,0,-1,783,1786,0,0
-434,-762,0,0,0,0,0,0,0,0,0,-1,790,1786,0,0
-427,-762,0,0,0,0,0,0,0,0,0,-1,797,1786,0,0
-420,-762,0,0,0,0,0,0,0,0,0,-1,804,1786,0,0
-413,-762,0,0,0,0,0,0,0,0,0,-1,811,1786,0,0
-406,-762,0,0,0,0,0,0,0,0,0,-1,818,1786,0,0
-399,-762,0,0,0,0,0,0,0,0,0,-1,825,1786,0,0
-392,-762,0,0,0,0,0,0,0,0,0,-1,832,1786,0,0
-385,-762,0,0,0,0,0,0,0,0,0,-1,839,1786,0,0
-378,-762,0,0,0,0,0,0,0,0,0,-1,846,1786,0,0
-371,-762,0,0,0,0,0,0,0,0,0,-1,853,1786,0,0
-364,-762,0,0,0,0,0,0,0,0,0,-1,860,1786,0,0
-357,-762,0,0,0,0,0,0,0,0,0,-1,867,1786,0,0
-350,-762,0,0,0,0,0,0,0,0,0,-1,874,1786,0,0
-343,-762,0,0,0,0,0,0,0,0,0,-1,881,1786,0,0
-336,-762,0,0,0,0,0,0,0,0,0,-1,888,1786,0,0
-329,-762,0,0,0,0,0,0,0,0,0,-1,895,1786,0,0
-322,-762,0,0,0,0,0,0,0,0,0,-1,902,1786,0,0
-315,-762,0,0,0,0,0,0,0,0,0,-1,909,1786,0,0
-308,-762,0,0,0,0,0,0,0,0,0,-1,916,1786,0,0
-301,-762,0,0,0,0,0,0,0,0,0,-1,923,1786,0,0
-294,-762,0,0,0,0,0,0,0,0,0,-1,930,1786,0,0
-287,-762,0,0,0,0,0,0,0,0,0,-1,937,1786,0,0
-280,-762,0,0,0,0,0,0,0,0,0,-1,944,1786,0,0
-273,-762,0,0,0,0,0,0,0,0,0,-1,951,1786,0,0
-266,-762,0,0,0,0,0,0,0,0,0,-1,958,1786,0,0
-259,-762,0,0,0,0,0,0,0,0,0,-1,965,1786,0,0
-252,-762,0,0,0,0,0,0,0,0,0,-1,972,1786,0,0
-245,-762,0,0,0,0,0,0,0,0,0,-1,979,1786,0,0
-238,-762,0,0,0,0,0,0,0,0,0,-1,986,1786,0,0
-231,-762,0,0,0,0,0,0,0,0,0,-1,993,1786,0,0
-224,-762,0,0,0,0,0,0,0,0,0,-1,1000,1786,0,0
-217,-762,0,0,0,0,0,0,0,0,0,-1,1007,1786,0,0
-210,-762,0,0,0,0,0,0,0,0,0,-1,1014,1786,0,0
-203,-762,0,0,0,0,0,0,0,0,0,-1,1021,1786,0,0
-196,-762,0,0,0,0,0,0,0,0,0,-1,1028,1786,0,0
-189,-762,0,0,0,0,0,0,0,0,0,-1,1035,1786,0,0
-182,-762,4.44226,13.2462,0,0,0,0,0,0,0,-1,1042,1786,4.44227,-13.2462
-175,-762,4.3219,18.3975,0,0,0,0,0,0,0,-1,1049,1786,4.32192,-18.3974
-168,-762,-2.08618,13.0768,0,0,0,0,0,0,0,-1,1056,1786,-2.08623,-13.0768
-161,-762,-3.29077,11.9508,0,0,0,0,0,0,0,-1,1063,1786,-3.29076,-11.9508
-154,-762,-4.55823,11.1176,0,0,0,0,0,0,0,-1,1070,1786,-4.55828,-11.1175
-147,-762,-6.52454,9.41418,0,0,0,0,0,0,0,-1,1077,1786,-6.52458,-9.41419
-140,-762,4.99792,5.28589,0,0,0,0,0,0,0,-1,1084,1786,4.99793,-5.28587
-133,-762,0.689819,19.2172,0,0,0,0,0,0,0,-1,1091,1786,0.689867,-19.2171
-126,-762,1.48743,19.9288,0,0,0,0,0,0,0,-1,1098,1786,1.48738,-19.9289
-119,-762,2.65637,20.208,0,0,0,0,0,0,0,-1,1105,1786,2.65632,-20.208
-112,-762,6.84705,25.5554,0,0,0,0,0,0,0,-1,1112,1786,6.84706,-25.5554
-105,-762,5.57947,21.618,0,0,0,0,0,0,0,-1,1119,1786,5.57948,-21.618
-98,-762,5.0636,17.9901,0,0,0,0,0,0,0,-1,1126,1786,5.06361,-17.9901
-91,-762,4.54773,14.3622,0,0,0,0,0,0,0,-1,1133,1786,4.54774,-14.3622
-84,-762,3.96375,10.4547,0,0,0,0,0,0,0,-1,1140,1786,3.96371,-10.4548
-77,-762,0.305054,8.49365,0,0,0,0,0,0,0,-1,1147,1786,0.305008,-8.49362
-70,-762,0.183716,6.74622,0,0,0,0,0,0,0,-1,1154,1786,0.183696,-6.74621
-63,-762,-0.883057,9.08813,0,0,0,0,0,0,0,-1,1161,1786,-0.88311,-9.08808
-56,-762,-0.578979,5.10254,0,0,0,0,0,0,0,-1,1168,1786,-0.578951,-5.10249
-49,-762,-2.04541,3.66321,0,0,0,0,0,0,0,-1,1175,1786,-2.0454,-3.66319
-42,-762,-2.23462,3.474,0,0,0,0,0,0,0,-1,1182,1786,-2.23459,-3.47399
-35,-762,-3.28992,1.68164,0,0,0,0,0,0,0,-1,1189,1786,-3.28998,-1.68164
-28,-762,-3.75378,1.37769,0,0,0,0,0,0,0,-1,1196,1786,-3.75373,-1.37767
-21,-762,8.27515,33.7308,0,0,0,0,0,0,0,-1,1203,1786,8.27517,-33.7308
-14,-762,8.3999,36.524,0,0,0,0,0,0,0,-1,1210,1786,8.39989,-36.524
-7,-762,8.06458,36.4923,0,0,0,0,0,0,0,-1,1217,1786,8.06452,-36.4924
0,-762,7.95825,36.6926,-0.00385343,-0.0209998,-0.00551186,-0.00223445,-0.0226188,-0.285691,0.0143923,0.0373033,1224,1786,7.95829,-36.6926
7,-762,8.01208,36.7417,-0.00475486,-0.0176404,-0.00560178,-0.00266011,-0.0197352,-0.357843,0.0123658,0.0217801,1231,1786,8.01211,-36.7417
14,-762,8.05334,37.0105,-0.00534367,-0.013137,-0.00559197,-0.0024246,-0.016056,-0.4811,0.00999434,0.0359859,1238,1786,8.05332,-37.0106
21,-762,8.01282,36.9456,-0.00535744,-0.00829853,-0.0052572,-0.00136898,-0.012287,-0.649024,0.00777527,0.0455126,1245,1786,8.01282,-36.9455
28,-762,7.84473,36.9907,-0.00485656,-0.00356776,-0.00472742,0.000558971,-0.0089833,-0.853136,0.00618361,0.0449052,1252,1786,7.84469,-36.9907
35,-762,7.82227,37.0929,-0.00416947,0.000771512,-0.00425809,0.00322389,-0.00662185,-1.04826,0.00579618,0.0433997,1259,1786,7.82231,-37.0929
42,-762,7.88281,37.0459,-0.00316847,0.00448144,-0.00375116,0.00601386,-0.00470089,-1.18297,0.00620163,0.045519,1266,1786,7.88278,-37.0459
49,-762,7.77173,37.0466,-0.00197619,0.00780155,-0.00295165,0.00862348,-0.00279813,-1.29921,0.00687422,0.0386948,1273,1786,7.77178,-37.0466
56,-762,7.80127,37.0618,0.000424662,0.0104858,-0.00335269,0.0115006,-0.000590195,-1.27687,0.00787121,0.0284663,1280,1786,7.80125,-37.0618
63,-762,7.78564,37.0746,0.00468447,0.012599,-0.00507343,0.015076,0.00220747,-1.11661,0.00940161,0.0250982,1287,1786,7.78559,-37.0746
70,-762,7.75085,37.0636,0.00920898,0.0136774,-0.00692723,0.0187218,0.00416456,-0.941393,0.0113506,0.0253744,1294,1786,7.75081,-37.0636
77,-762,7.69287,37.0354,0.0151025,0.0134577,-0.00978214,0.0240967,0.00446344,-0.74346,0.0148027,0.0310289,1301,1786,7.69292,-37.0354
84,-762,7.76538,37.0715,0.0201677,0.0125342,-0.0128638,0.029769,0.00293284,-0.641182,0.0189442,0.0385033,1308,1786,7.76541,-37.0715
91,-762,7.75195,37.1553,0.0252935,0.0116266,-0.016385,0.0362129,0.000707263,-0.587837,0.0239097,0.0456836,1315,1786,7.75193,-37.1553
98,-762,7.6001,37.2114,0.0314124,0.0108804,-0.0199762,0.0436061,-0.00131326,-0.54804,0.0295182,0.0446171,1322,1786,7.6001,-37.2115
105,-762,7.56995,37.0492,0.0370038,0.0101424,-0.0241413,0.0511989,-0.00405278,-0.53155,0.0355606,0.0427065,1329,1786,7.56992,-37.0492
112,-762,7.35474,36.8438,0.0417078,0.00901871,-0.0278773,0.0576787,-0.00695215,-0.520254,0.0409669,0.0425253,1336,1786,7.35468,-36.8437
119,-762,7.21582,36.7402,0.0460671,0.00857649,-0.0311148,0.063647,-0.00900336,-0.514286,0.0457288,0.0460182,1343,1786,7.21579,-36.7403
126,-762,7.50134,36.9988,0,0,0,0,0,0,0,-1,1350,1786,7.5014,-36.9987
133,-762,7.15503,36.7321,0.0523677,0.0099556,-0.0349838,0.0720708,-0.00974756,-0.512927,0.0516042,0.0480812,1357,1786,7.15507,-36.732
140,-762,6.7251,36.5492,0.0529301,0.01066,-0.0338113,0.0716686,-0.00807846,-0.506067,0.0506869,0.0420688,1364,1786,6.72506,-36.5492
147,-762,7.25281,36.6204,0.0526262,0.010637,-0.0320554,0.0699503,-0.00668706,-0.495475,0.0490148,0.043082,1371,1786,7.25276,-36.6203
154,-762,7.28638,36.7455,0,0,0,0,0,0,0,-1,1378,1786,7.28636,-36.7455
161,-762,8.65051,34.8102,0,0,0,0,0,0,0,-1,1385,1786,8.65054,-34.8101
168,-762,8.19287,0.880615,0,0,0,0,0,0,0,-1,1392,1786,8.19291,-0.880603
175,-762,8.33997,1.95947,0,0,0,0,0,0,0,-1,1399,1786,8.33997,-1.95942
182,-762,8.28418,3.56482,0,0,0,0,0,0,0,-1,1406,1786,8.28415,-3.56485
189,-762,8.21179,5.23389,0,0,0,0,0,0,0,-1,1413,1786,8.21183,-5.23383
196,-762,8.05969,6.95483,0,0,0,0,0,0,0,-1,1420,1786,8.05972,-6.9548
203,-762,24.0077,7.10425,0,0,0,0,0,0,0,-1,1427,1786,24.0077,-7.10426
210,-762,23.8073,7.6499,0,0,0,0,0,0,0,-1,1434,1786,23.8073,-7.64987
217,-762,23.3193,8.24426,0,0,0,0,0,0,0,-1,1441,1786,23.3194,-8.2442
224,-762,2.65149,20.6106,0,0,0,0,0,0,0,-1,1448,1786,2.65153,-20.6106
231,-762,5.46655,23.521,0,0,0,0,0,0,0,-1,1455,1786,5.46653,-23.521
238,-762,5.35632,29.7203,0,0,0,0,0,0,0,-1,1462,1786,5.35629,-29.7203
245,-762,5.84509,28.6954,0,0,0,0,0,0,0,-1,1469,1786,5.84509,-28.6954
252,-762,5.82837,27.7246,0,0,0,0,0,0,0,-1,1476,1786,5.82839,-27.7247
259,-762,10.7311,18.3031,0,0,0,0,0,0,0,-1,1483,1786,10.7311,-18.3031
266,-762,16.451,7.67773,0,0,0,0,0,0,0,-1,1490,1786,16.4511,-7.67773
273,-762,15.287,7.5304,0,0,0,0,0,0,0,-1,1497,1786,15.2869,-7.53044
280,-762,14.1501,7.38379,0,0,0,0,0,0,0,-1,1504,1786,14.1502,-7.38376
287,-762,12.6891,7.99133,0,0,0,0,0,0,0,-1,1511,1786,12.6891,-7.99135
294,-762,12.6959,8.30371,0,0,0,0,0,0,0,-1,1518,1786,12.6959,-8.30368
301,-762,11.4222,8.84143,0,0,0,0,0,0,0,-1,1525,1786,11.4223,-8.84149
308,-762,0,0,0,0,0,0,0,0,0,-1,1532,1786,0,0
315,-762,0,0,0,0,0,0,0,0,0,-1,1539,1786,0,0
322,-762,0,0,0,0,0,0,0,0,0,-1,1546,1786,0,0
329,-762,0,0,0,0,0,0,0,0,0,-1,1553,1786,0,0
336,-762,0,0,0,0,0,0,0,0,0,-1,1560,1786,0,0
343,-762,0,0,0,0,0,0,0,0,0,-1,1567,1786,0,0
350,-762,0,0,0,0,0,0,0,0,0,-1,1574,1786,0,0
357,-762,0,0,0,0,0,0,0,0,0,-1,1581,1786,0,0
364,-762,0,0,0,0,0,0,0,0,0,-1,1588,1786,0,0
371,-762,0,0,0,0,0,0,0,0,0,-1,1595,1786,0,0
378,-762,0,0,0,0,0,0,0,0,0,-1,1602,1786,0,0
385,-762,0,0,0,0,0,0,0,0,0,-1,1609,1786,0,0
392,-762,0,0,0,0,0,0,0,0,0,-1,1616,1786,0,0
399,-762,0,0,0,0,0,0,0,0,0,-1,1623,1786,0,0
406,-762,0,0,0,0,0,0,0,0,0,-1,1630,1786,0,0
413,-762,0,0,0,0,0,0,0,0,0,-1,1637,1786,0,0
420,-762,0,0,0,0,0,0,0,0,0,-1,1644,1786,0,0
427,-762,0,0,0,0,0,0,0,0,0,-1,1651,1786,0,0
434,-762,0,0,0,0,0,0,0,0,0,-1,1658,1786,0,0
441,-762,0,0,0,0,0,0,0,0,0,-1,1665,1786,0,0
448,-762,0,0,0,0,0,0,0,0,0,-1,1672,1786,0,0
455,-762,0,0,0,0,0,0,0,0,0,-1,1679,1786,0,0
462,-762,0,0,0,0,0,0,0,0,0,-1,1686,1786,0,0
469,-762,0,0,0,0,0,0,0,0,0,-1,1693,1786,0,0
476,-762,0,0,0,0,0,0,0,0,0,-1,1700,1786,0,0
483,-762,0,0,0,0,0,0,0,0,0,-1,1707,1786,0,0
490,-762,0,0,0,0,0,0,0,0,0,-1,1714,1786,0,0
497,-762,0,0,0,0,0,0,0,0,0,-1,1721,1786,0,0
504,-762,0,0,0,0,0,0,0,0,0,-1,1728,1786,0,0
511,-762,0,0,0,0,0,0,0,0,0,-1,1735,1786,0,0
518,-762,0,0,0,0,0,0,0,0,0,-1,1742,1786,0,0
525,-762,0,0,0,0,0,0,0,0,0,-1,1749,1786,0,0
532,-762,0,0,0,0,0,0,0,0,0,-1,1756,1786,0,0
539,-762,0,0,0,0,0,0,0,0,0,-1,1763,1786,0,0
546,-762,0,0,0,0,0,0,0,0,0,-1,1770,1786,0,0
553,-762,0,0,0,0,0,0,0,0,0,-1,1777,1786,0,0
560,-762,0,0,0,0,0,0,0,0,0,-1,1784,1786,0,0
567,-762,0,0,0,0,0,0,0,0,0,-1,1791,1786,0,0
574,-762,0,0,0,0,0,0,0,0,0,-1,1798,1786,0,0
581,-762,0,0,0,0,0,0,0,0,0,-1,1805,1786,0,0
588,-762,0,0,0,0,0,0,0,0,0,-1,1812,1786,0,0
595,-762,0,0,0,0,0,0,0,0,0,-1,1819,1786,0,0
602,-762,0,0,0,0,0,0,0,0,0,-1,1826,1786,0,0
609,-762,0,0,0,0,0,0,0,0,0,-1,1833,1786,0,0
616,-762,0,0,0,0,0,0,0,0,0,-1,1840,1786,0,0
623,-762,0,0,0,0,0,0,0,0,0,-1,1847,1786,0,0
630,-762,0,0,0,0,0,0,0,0,0,-1,1854,1786,0,0
637,-762,0,0,0,0,0,0,0,0,0,-1,1861,1786,0,0
644,-762,0,0,0,0,0,0,0,0,0,-1,1868,1786,0,0
651,-762,0,0,0,0,0,0,0,0,0,-1,1875,1786,0,0
658,-762,0,0,0,0,0,0,0,0,0,-1,1882,1786,0,0
665,-762,0,0,0,0,0,0,0,0,0,-1,1889,1786,0,0
672,-762,0,0,0,0,0,0,0,0,0,-1,1896,1786,0,0
679,-762,0,0,0,0,0,0,0,0,0,-1,1903,1786,0,0
686,-762,0,0,0,0,0,0,0,0,0,-1,1910,1786,0,0
693,-762,0,0,0,0,0,0,0,0,0,-1,1917,1786,0,0
700,-762,0,0,0,0,0,0,0,0,0,-1,1924,1786,0,0
707,-762,0,0,0,0,0,0,0,0,0,-1,1931,1786,0,0
714,-762,0,0,0,0,0,0,0,0,0,-1,1938,1786,0,0
721,-762,0,0,0,0,0,0,0,0,0,-1,1945,1786,0,0
728,-762,0,0,0,0,0,0,0,0,0,-1,1952,1786,0,0
735,-762,0,0,0,0,0,0,0,0,0,-1,1959,1786,0,0
742,-762,0,0,0,0,0,0,0,0,0,-1,1966,1786,0,0
749,-762,0,0,0,0,0,0,0,0,0,-1,1973,1786,0,0
756,-762,0,0,0,0,0,0,0,0,0,-1,1980,1786,0,0
763,-762,0,0,0,0,0,0,0,0,0,-1,1987,1786,0,0
770,-762,0,0,0,0,0,0,0,0,0,-1,1994,1786,0,0
777,-762,0,0,0,0,0,0,0,0,0,-1,2001,1786,0,0
784,-762,0,0,0,0,0,0,0,0,0,-1,2008,1786,0,0
791,-762,0,0,0,0,0,0,0,0,0,-1,2015,1786,0,0
798,-762,0,0,0,0,0,0,0,0,0,-1,2022,1786,0,0
805,-762,0,0,0,0,0,0,0,0,0,-1,2029,1786,0,0
812,-762,0,0,0,0,0,0,0,0,0,-1,2036,1786,0,0
-700,-769,0,0,0,0,0,0,0,0,0,-1,524,1793,0,0
-693,-769,0,0,0,0,0,0,0,0,0,-1,531,1793,0,0
-686,-769,0,0,0,0,0,0,0,0,0,-1,538,1793,0,0
-679,-769,0,0,0,0,0,0,0,0,0,-1,545,1793,0,0
-672,-769,0,0,0,0,0,0,0,0,0,-1,552,1793,0,0
-665,-769,0,0,0,0,0,0,0,0,0,-1,559,1793,0,0
-658,-769,0,0,0,0,0,0,0,0,0,-1,566,1793,0,0
-651,-769,0,0,0,0,0,0,0,0,0,-1,573,1793,0,0
-644,-769,0,0,0,0,0,0,0,0,0,-1,580,1793,0,0
-637,-769,0,0,0,0,0,0,0,0,0,-1,587,1793,0,0
-630,-769,0,0,0,0,0,0,0,0,0,-1,594,1793,0,0
-623,-769,0,0,0,0,0,0,0,0,0,-1,601,1793,0,0
-616,-769,0,0,0,0,0,0,0,0,0,-1,608,1793,0,0
-609,-769,0,0,0,0,0,0,0,0,0,-1,615,1793,0,0
-602,-769,0,0,0,0,0,0,0,0,0,-1,622,1793,0,0
-595,-769,0,0,0,0,0,0,0,0,0,-1,629,1793,0,0
-588,-769,0,0,0,0,0,0,0,0,0,-1,636,1793,0,0
-581,-769,0,0,0,0,0,0,0,0,0,-1,643,1793,0,0
-574,-769,0,0,0,0,0,0,0,0,0,-1,650,1793,0,0
-567,-769,0,0,0,0,0,0,0,0,0,-1,657,1793,0,0
-560,-769,0,0,0,0,0,0,0,0,0,-1,664,1793,0,0
-553,-769,0,0,0,0,0,0,0,0,0,-1,671,1793,0,0
-546,-769,0,0,0,0,0,0,0,0,0,-1,678,1793,0,0
-539,-769,0,0,0,0,0,0,0,0,0,-1,685,1793,0,0
-532,-769,0,0,0,0,0,0,0,0,0,-1,692,1793,0,0
-525,-769,0,0,0,0,0,0,0,0,0,-1,699,1793,0,0
-518,-769,0,0,0,0,0,0,0,0,0,-1,706,1793,0,0
-511,-769,0,0,0,0,0,0,0,0,0,-1,713,1793,0,0
-504,-769,0,0,0,0,0,0,0,0,0,-1,720,1793,0,0
-497,-769,0,0,0,0,0,0,0,0,0,-1,727,1793,0,0
-490,-769,0,0,0,0,0,0,0,0,0,-1,734,1793,0,0
-483,-769,0,0,0,0,0,0,0,0,0,-1,741,1793,0,0
-476,-769,0,0,0,0,0,0,0,0,0,-1,748,1793,0,0
-469,-769,0,0,0,0,0,0,0,0,0,-1,755,1793,0,0
-462,-769,0,0,0,0,0,0,0,0,0,-1,762,1793,0,0
-455,-769,0,0,0,0,0,0,0,0,0,-1,769,1793,0,0
-448,-769,0,0,0,0,0,0,0,0,0,-1,776,1793,0,0
-441,-769,0,0,0,0,0,0,0,0,0,-1,783,1793,0,0
-434,-769,0,0,0,0,0,0,0,0,0,-1,790,1793,0,0
-427,-769,0,0,0,0,0,0,0,0,0,-1,797,1793,0,0
-420,-769,0,0,0,0,0,0,0,0,0,-1,804,1793,0,0
-413,-769,0,0,0,0,0,0,0,0,0,-1,811,1793,0,0
-406,-769,0,0,0,0,0,0,0,0,0,-1,818,1793,0,0
-399,-769,0,0,0,0,0,0,0,0,0,-1,825,1793,0,0
-392,-769,0,0,0,0,0,0,0,0,0,-1,832,1793,0,0
-385,-769,0,0,0,0,0,0,0,0,0,-1,839,1793,0,0
-378,-769,0,0,0,0,0,0,0,0,0,-1,846,1793,0,0
-371,-769,0,0,0,0,0,0,0,0,0,-1,853,1793,0,0
-364,-769,0,0,0,0,0,0,0,0,0,-1,860,1793,0,0
-357,-769,0,0,0,0,0,0,0,0,0,-1,867,1793,0,0
-350,-769,0,0,0,0,0,0,0,0,0,-1,874,1793,0,0
-343,-769,0,0,0,0,0,0,0,0,0,-1,881,1793,0,0
-336,-769,0,0,0,0,0,0,0,0,0,-1,888,1793,0,0
-329,-769,0,0,0,0,0,0,0,0,0,-1,895,1793,0,0
-322,-769,0,0,0,0,0,0,0,0,0,-1,902,1793,0,0
-315,-769,0,0,0,0,0,0,0,0,0,-1,909,1793,0,0
-308,-769,0,0,0,0,0,0,0,0,0,-1,916,1793,0,0
-301,-769,0,0,0,0,0,0,0,0,0,-1,923,1793,0,0
-294,-769,0,0,0,0,0,0,0,0,0,-1,930,1793,0,0
-287,-769,0,0,0,0,0,0,0,0,0,-1,937,1793,0,0
-280,-769,0,0,0,0,0,0,0,0,0,-1,944,1793,0,0
-273,-769,0,0,0,0,0,0,0,0,0,-1,951,1793,0,0
-266,-769,0,0,0,0,0,0,0,0,0,-1,958,1793,0,0
-259,-769,0,0,0,0,0,0,0,0,0,-1,965,1793,0,0
-252,-769,0,0,0,0,0,0,0,0,0,-1,972,1793,0,0
-245,-769,0,0,0,0,0,0,0,0,0,-1,979,1793,0,0
-238,-769,0,0,0,0,0,0,0,0,0,-1,986,1793,0,0
-231,-769,0,0,0,0,0,0,0,0,0,-1,993,1793,0,0
-224,-769,0,0,0,0,0,0,0,0,0,-1,1000,1793,0,0
-217,-769,0,0,0,0,0,0,0,0,0,-1,1007,1793,0,0
-210,-769,0,0,0,0,0,0,0,0,0,-1,1014,1793,0,0
-203,-769,0,0,0,0,0,0,0,0,0,-1,1021,1793,0,0
-196,-769,0,0,0,0,0,0,0,0,0,-1,1028,1793,0,0
-189,-769,0,0,0,0,0,0,0,0,0,-1,1035,1793,0,0
-182,-769,0,0,0,0,0,0,0,0,0,-1,1042,1793,0,0
-175,-769,0,0,0,0,0,0,0,0,0,-1,1049,1793,0,0
-168,-769,0,0,0,0,0,0,0,0,0,-1,1056,1793,0,0
-161,-769,-3.61145,12.4761,0,0,0,0,0,0,0,-1,1063,1793,-3.6114,-12.476
-154,-769,-0.813232,5.32874,0,0,0,0,0,0,0,-1,1070,1793,-0.813269,-5.32872
-147,-769,4.26587,4.7002,0,0,0,0,0,0,0,-1,1077,1793,4.26593,-4.70022
-140,-769,4.10376,5.28589,0,0,0,0,0,0,0,-1,1084,1793,4.10371,-5.28584
-133,-769,6.422,8.21777,0,0,0,0,0,0,0,-1,1091,1793,6.42198,-8.21773
-126,-769,-0.352295,19.326,0,0,0,0,0,0,0,-1,1098,1793,-0.352235,-19.326
-119,-769,6.01685,16.2577,0,0,0,0,0,0,0,-1,1105,1793,6.01689,-16.2576
-112,-769,5.76416,27.2615,0,0,0,0,0,0,0,-1,1112,1793,5.7642,-27.2615
-105,-769,4.97009,22.8479,0,0,0,0,0,0,0,-1,1119,1793,4.97006,-22.8479
-98,-769,4.69373,18.9142,0,0,0,0,0,0,0,-1,1126,1793,4.69376,-18.9142
-91,-769,4.41748,14.9805,0,0,0,0,0,0,0,-1,1133,1793,4.41746,-14.9805
-84,-769,3.2207,12.4565,0,0,0,0,0,0,0,-1,1140,1793,3.22066,-12.4565
-77,-769,2.48816,8.98486,0,0,0,0,0,0,0,-1,1147,1793,2.48815,-8.98489
-70,-769,1.04944,11.9852,0,0,0,0,0,0,0,-1,1154,1793,1.04947,-11.9852
-63,-769,-2.39709,9.60339,0,0,0,0,0,0,0,-1,1161,1793,-2.39706,-9.6034
-56,-769,-5.84363,7.22156,0,0,0,0,0,0,0,-1,1168,1793,-5.84359,-7.22157
-49,-769,-2.41443,3.95471,0,0,0,0,0,0,0,-1,1175,1793,-2.41446,-3.95471
-42,-769,-3.1991,2.64941,0,0,0,0,0,0,0,-1,1182,1793,-3.19914,-2.64944
-35,-769,-3.50183,1.73389,0,0,0,0,0,0,0,-1,1189,1793,-3.50189,-1.7339
-28,-769,-3.96985,1.14075,0,0,0,0,0,0,0,-1,1196,1793,-3.96985,-1.14078
-21,-769,7.97278,33.8591,0,0,0,0,0,0,0,-1,1203,1793,7.97275,-33.8592
-14,-769,7.47253,36.8923,0,0,0,0,0,0,0,-1,1210,1793,7.47258,-36.8923
-7,-769,8.0354,36.866,0,0,0,0,0,0,0,-1,1217,1793,8.03537,-36.866
0,-769,8.14246,37.0645,-0.00426614,-0.027122,-0.00674608,-0.00242353,-0.0289646,-0.266634,0.0185548,0.0488901,1224,1793,8.14248,-37.0644
7,-769,8.26624,37.2567,-0.0055116,-0.0223902,-0.00685757,-0.00307671,-0.0248251,-0.341181,0.0156258,0.0448569,1231,1793,8.26619,-37.2568
14,-769,8.27625,37.3733,-0.00616884,-0.0159998,-0.00679481,-0.00269795,-0.0194707,-0.472263,0.0121812,0.0437048,1238,1793,8.27629,-37.3733
21,-769,8.13818,36.9707,0,0,0,0,0,0,0,-1,1245,1793,8.1382,-36.9708
28,-769,7.90869,36.9553,-0.0049388,-0.00264112,-0.00543349,0.00176365,-0.00934357,-0.889582,0.00689256,0.0453383,1252,1793,7.90872,-36.9553
35,-769,8.42175,37.2118,-0.00373437,0.00346872,-0.00468512,0.00577661,-0.00604227,-1.11309,0.00682421,0.0450625,1259,1793,8.42171,-37.2118
42,-769,8.36304,37.088,-0.00212085,0.00869543,-0.00389943,0.00995464,-0.00338006,-1.25845,0.00800463,0.0445894,1266,1793,8.36304,-37.088
49,-769,7.78198,37.0708,-0.000245296,0.0133642,-0.00275083,0.0138992,-0.000780279,-1.37871,0.00953689,0.0457145,1273,1793,7.78203,-37.0709
56,-769,7.82263,37.0364,0.00310351,0.0169962,-0.00313975,0.0176728,0.00242688,-1.35854,0.011062,0.0450204,1280,1793,7.82266,-37.0364
63,-769,7.71545,36.886,0.00895377,0.0197227,-0.00545495,0.022003,0.00667346,-1.17485,0.013027,0.0465232,1287,1793,7.71545,-36.886
70,-769,7.75513,36.8232,0.0152542,0.0210677,-0.00812486,0.0267901,0.00953173,-0.957184,0.0156802,0.0480361,1294,1793,7.75518,-36.8233
77,-769,7.72888,37.407,0.0234206,0.0206876,-0.0122809,0.0344108,0.00969744,-0.729989,0.0204879,0.0481819,1301,1793,7.72882,-37.4069
84,-769,7.91077,37.4888,0.0307571,0.0193397,-0.0168329,0.042823,0.00727379,-0.621915,0.0264595,0.0470862,1308,1793,7.91076,-37.4888
91,-769,7.76453,37.3784,0.0382719,0.0179048,-0.0222899,0.0525943,0.0035824,-0.571123,0.0339318,0.0457633,1315,1793,7.76456,-37.3785
98,-769,7.59473,37.3833,0,0,0,0,0,0,0,-1,1322,1793,7.59476,-37.3833
105,-769,7.54114,37.0336,0,0,0,0,0,0,0,-1,1329,1793,7.54112,-37.0336
112,-769,7.14941,36.5388,0,0,0,0,0,0,0,-1,1336,1793,7.14942,-36.5388
119,-769,10.7445,34.8623,0,0,0,0,0,0,0,-1,1343,1793,10.7445,-34.8623
126,-769,12.3385,34.2246,0,0,0,0,0,0,0,-1,1350,1793,12.3385,-34.2246
133,-769,7.05908,36.7024,0,0,0,0,0,0,0,-1,1357,1793,7.05902,-36.7024
140,-769,6.29224,36.3618,0,0,0,0,0,0,0,-1,1364,1793,6.29228,-36.3618
147,-769,6.92297,36.667,0,0,0,0,0,0,0,-1,1371,1793,6.923,-36.667
154,-769,7.76904,34.4832,0,0,0,0,0,0,0,-1,1378,1793,7.7691,-34.4832
161,-769,6.57019,1.53223,0,0,0,0,0,0,0,-1,1385,1793,6.57019,-1.53226
168,-769,8.27637,0.756958,0,0,0,0,0,0,0,-1,1392,1793,8.27639,-0.756944
175,-769,8.47144,2.41174,0,0,0,0,0,0,0,-1,1399,1793,8.47147,-2.4118
182,-769,8.41479,4.05994,0,0,0,0,0,0,0,-1,1406,1793,8.41479,-4.05997
189,-769,8.25049,5.68433,0,0,0,0,0,0,0,-1,1413,1793,8.25054,-5.68428
196,-769,7.97729,7.42847,0,0,0,0,0,0,0,-1,1420,1793,7.9773,-7.42848
203,-769,22.0977,6.73889,0,0,0,0,0,0,0,-1,1427,1793,22.0977,-6.7389
210,-769,22.1115,7.77246,0,0,0,0,0,0,0,-1,1434,1793,22.1115,-7.77248
217,-769,22.4723,8.79102,0,0,0,0,0,0,0,-1,1441,1793,22.4723,-8.79099
224,-769,22.1348,9.35278,0,0,0,0,0,0,0,-1,1448,1793,22.1348,-9.35283
231,-769,3.13318,19.7184,0,0,0,0,0,0,0,-1,1455,1793,3.13323,-19.7184
238,-769,5.74512,18.6597,0,0,0,0,0,0,0,-1,1462,1793,5.74512,-18.6596
245,-769,5.80798,22.87,0,0,0,0,0,0,0,-1,1469,1793,5.80796,-22.87
252,-769,8.39099,20.3199,0,0,0,0,0,0,0,-1,1476,1793,8.39098,-20.3199
259,-769,10.974,17.7698,0,0,0,0,0,0,0,-1,1483,1793,10.974,-17.7698
266,-769,15.8488,7.3905,0,0,0,0,0,0,0,-1,1490,1793,15.8488,-7.39046
273,-769,14.8075,7.56152,0,0,0,0,0,0,0,-1,1497,1793,14.8075,-7.56152
280,-769,13.6519,7.43054,0,0,0,0,0,0,0,-1,1504,1793,13.6518,-7.43058
287,-769,0,0,0,0,0,0,0,0,0,-1,1511,1793,0,0
294,-769,0,0,0,0,0,0,0,0,0,-1,1518,1793,0,0
301,-769,0,0,0,0,0,0,0,0,0,-1,1525,1793,0,0
308,-769,0,0,0,0,0,0,0,0,0,-1,1532,1793,0,0
315,-769,0,0,0,0,0,0,0,0,0,-1,1539,1793,0,0
322,-769,0,0,0,0,0,0,0,0,0,-1,1546,1793,0,0
329,-769,0,0,0,0,0,0,0,0,0,-1,1553,1793,0,0
336,-769,0,0,0,0,0,0,0,0,0,-1,1560,1793,0,0
343,-769,0,0,0,0,0,0,0,0,0,-1,1567,1793,0,0
350,-769,0,0,0,0,0,0,0,0,0,-1,1574,1793,0,0
357,-769,0,0,0,0,0,0,0,0,0,-1,1581,1793,0,0
364,-769,0,0,0,0,0,0,0,0,0,-1,1588,1793,0,0
371,-769,0,0,0,0,0,0,0,0,0,-1,1595,1793,0,0
378,-769,0,0,0,0,0,0,0,0,0,-1,1602,1793,0,0
385,-769,0,0,0,0,0,0,0,0,0,-1,1609,1793,0,0
392,-769,0,0,0,0,0,0,0,0,0,-1,1616,1793,0,0
399,-769,0,0,0,0,0,0,0,0,0,-1,1623,1793,0,0
406,-769,0,0,0,0,0,0,0,0,0,-1,1630,1793,0,0
413,-769,0,0,0,0,0,0,0,0,0,-1,1637,1793,0,0
420,-769,0,0,0,0,0,0,0,0,0,-1,1644,1793,0,0
427,-769,0,0,0,0,0,0,0,0,0,-1,1651,1793,0,0
434,-769,0,0,0,0,0,0,0,0,0,-1,1658,1793,0,0
441,-769,0,0,0,0,0,0,0,0,0,-1,1665,1793,0,0
448,-769,0,0,0,0,0,0,0,0,0,-1,1672,1793,0,0
455,-769,0,0,0,0,0,0,0,0,0,-1,1679,1793,0,0
462,-769,0,0,0,0,0,0,0,0,0,-1,1686,1793,0,0
469,-769,0,0,0,0,0,0,0,0,0,-1,1693,1793,0,0
476,-769,0,0,0,0,0,0,0,0,0,-1,1700,1793,0,0
483,-769,0,0,0,0,0,0,0,0,0,-1,1707,1793,0,0
490,-769,0,0,0,0,0,0,0,0,0,-1,1714,1793,0,0
497,-769,0,0,0,0,0,0,0,0,0,-1,1721,1793,0,0
504,-769,0,0,0,0,0,0,0,0,0,-1,1728,1793,0,0
511,-769,0,0,0,0,0,0,0,0,0,-1,1735,1793,0,0
518,-769,0,0,0,0,0,0,0,0,0,-1,1742,1793,0,0
525,-769,0,0,0,0,0,0,0,0,0,-1,1749,1793,0,0
532,-769,0,0,0,0,0,0,0,0,0,-1,1756,1793,0,0
539,-769,0,0,0,0,0,0,0,0,0,-1,1763,1793,0,0
546,-769,0,0,0,0,0,0,0,0,0,-1,1770,1793,0,0
553,-769,0,0,0,0,0,0,0,0,0,-1,1777,1793,0,0
560,-769,0,0,0,0,0,0,0,0,0,-1,1784,1793,0,0
567,-769,0,0,0,0,0,0,0,0,0,-1,1791,1793,0,0
574,-769,0,0,0,0,0,0,0,0,0,-1,1798,1793,0,0
581,-769,0,0,0,0,0,0,0,0,0,-1,1805,1793,0,0
588,-769,0,0,0,0,0,0,0,0,0,-1,1812,1793,0,0
595,-769,0,0,0,0,0,0,0,0,0,-1,1819,1793,0,0
602,-769,0,0,0,0,0,0,0,0,0,-1,1826,1793,0,0
609,-769,0,0,0,0,0,0,0,0,0,-1,1833,1793,0,0
616,-769,0,0,0,0,0,0,0,0,0,-1,1840,1793,0,0
623,-769,0,0,0,0,0,0,0,0,0,-1,1847,1793,0,0
630,-769,0,0,0,0,0,0,0,0,0,-1,1854,1793,0,0
637,-769,0,0,0,0,0,0,0,0,0,-1,1861,1793,0,0
644,-769,0,0,0,0,0,0,0,0,0,-1,1868,1793,0,0
651,-769,0,0,0,0,0,0,0,0,0,-1,1875,1793,0,0
658,-769,0,0,0,0,0,0,0,0,0,-1,1882,1793,0,0
665,-769,0,0,0,0,0,0,0,0,0,-1,1889,1793,0,0
672,-769,0,0,0,0,0,0,0,0,0,-1,1896,1793,0,0
679,-769,0,0,0,0,0,0,0,0,0,-1,1903,1793,0,0
686,-769,0,0,0,0,0,0,0,0,0,-1,1910,1793,0,0
693,-769,0,0,0,0,0,0,0,0,0,-1,1917,1793,0,0
700,-769,0,0,0,0,0,0,0,0,0,-1,1924,1793,0,0
707,-769,0,0,0,0,0,0,0,0,0,-1,1931,1793,0,0
714,-769,0,0,0,0,0,0,0,0,0,-1,1938,1793,0,0
721,-769,0,0,0,0,0,0,0,0,0,-1,1945,1793,0,0
728,-769,0,0,0,0,0,0,0,0,0,-1,1952,1793,0,0
735,-769,0,0,0,0,0,0,0,0,0,-1,1959,1793,0,0
742,-769,0,0,0,0,0,0,0,0,0,-1,1966,1793,0,0
749,-769,0,0,0,0,0,0,0,0,0,-1,1973,1793,0,0
756,-769,0,0,0,0,0,0,0,0,0,-1,1980,1793,0,0
763,-769,0,0,0,0,0,0,0,0,0,-1,1987,1793,0,0
770,-769,0,0,0,0,0,0,0,0,0,-1,1994,1793,0,0
777,-769,0,0,0,0,0,0,0,0,0,-1,2001,1793,0,0
784,-769,0,0,0,0,0,0,0,0,0,-1,2008,1793,0,0
791,-769,0,0,0,0,0,0,0,0,0,-1,2015,1793,0,0
798,-769,0,0,0,0,0,0,0,0,0,-1,2022,1793,0,0
805,-769,0,0,0,0,0,0,0,0,0,-1,2029,1793,0,0
812,-769,0,0,0,0,0,0,0,0,0,-1,2036,1793,0,0
-700,-776,0,0,0,0,0,0,0,0,0,-1,524,1800,0,0
-693,-776,0,0,0,0,0,0,0,0,0,-1,531,1800,0,0
-686,-776,0,0,0,0,0,0,0,0,0,-1,538,1800,0,0
-679,-776,0,0,0,0,0,0,0,0,0,-1,545,1800,0,0
-672,-776,0,0,0,0,0,0,0,0,0,-1,552,1800,0,0
-665,-776,0,0,0,0,0,0,0,0,0,-1,559,1800,0,0
-658,-776,0,0,0,0,0,0,0,0,0,-1,566,1800,0,0
-651,-776,0,0,0,0,0,0,0,0,0,-1,573,1800,0,0
-644,-776,0,0,0,0,0,0,0,0,0,-1,580,1800,0,0
-637,-776,0,0,0,0,0,0,0,0,0,-1,587,1800,0,0
-630,-776,0,0,0,0,0,0,0,0,0,-1,594,1800,0,0
-623,-776,0,0,0,0,0,0,0,0,0,-1,601,1800,0,0
-616,-776,0,0,0,0,0,0,0,0,0,-1,608,1800,0,0
-609,-776,0,0,0,0,0,0,0,0,0,-1,615,1800,0,0
-602,-776,0,0,0,0,0,0,0,0,0,-1,622,1800,0,0
-595,-776,0,0,0,0,0,0,0,0,0,-1,629,1800,0,0
-588,-776,0,0,0,0,0,0,0,0,0,-1,636,1800,0,0
-581,-776,0,0,0,0,0,0,0,0,0,-1,643,1800,0,0
-574,-776,0,0,0,0,0,0,0,0,0,-1,650,1800,0,0
-567,-776,0,0,0,0,0,0,0,0,0,-1,657,1800,0,0
-560,-776,0,0,0,0,0,0,0,0,0,-1,664,1800,0,0
-553,-776,0,0,0,0,0,0,0,0,0,-1,671,1800,0,0
-546,-776,0,0,0,0,0,0,0,0,0,-1,678,1800,0,0
-539,-776,0,0,0,0,0,0,0,0,0,-1,685,1800,0,0
-532,-776,0,0,0,0,0,0,0,0,0,-1,692,1800,0,0
-525,-776,0,0,0,0,0,0,0,0,0,-1,699,1800,0,0
-518,-776,0,0,0,0,0,0,0,0,0,-1,706,1800,0,0
-511,-776,0,0,0,0,0,0,0,0,0,-1,713,1800,0,0
-504,-776,0,0,0,0,0,0,0,0,0,-1,720,1800,0,0
-497,-776,0,0,0,0,0,0,0,0,0,-1,727,1800,0,0
-490,-776,0,0,0,0,0,0,0,0,0,-1,734,1800,0,0
-483,-776,0,0,0,0,0,0,0,0,0,-1,741,1800,0,0
-476,-776,0,0,0,0,0,0,0,0,0,-1,748,1800,0,0
-469,-776,0,0,0,0,0,0,0,0,0,-1,755,1800,0,0
-462,-776,0,0,0,0,0,0,0,0,0,-1,762,1800,0,0
-455,-776,0,0,0,0,0,0,0,0,0,-1,769,1800,0,0
-448,-776,0,0,0,0,0,0,0,0,0,-1,776,1800,0,0
-441,-776,0,0,0,0,0,0,0,0,0,-1,783,1800,0,0
-434,-776,0,0,0,0,0,0,0,0,0,-1,790,1800,0,0
-427,-776,0,0,0,0,0,0,0,0,0,-1,797,1800,0,0
-420,-776,0,0,0,0,0,0,0,0,0,-1,804,1800,0,0
-413,-776,0,0,0,0,0,0,0,0,0,-1,811,1800,0,0
-406,-776,0,0,0,0,0,0,0,0,0,-1,818,1800,0,0
-399,-776,0,0,0,0,0,0,0,0,0,-1,825,1800,0,0
-392,-776,0,0,0,0,0,0,0,0,0,-1,832,1800,0,0
-385,-776,0,0,0,0,0,0,0,0,0,-1,839,1800,0,0
-378,-776,0,0,0,0,0,0,0,0,0,-1,846,1800,0,0
-371,-776,0,0,0,0,0,0,0,0,0,-1,853,1800,0,0
-364,-776,0,0,0,0,0,0,0,0,0,-1,860,1800,0,0
-357,-776,0,0,0,0,0,0,0,0,0,-1,867,1800,0,0
-350,-776,0,0,0,0,0,0,0,0,0,-1,874,1800,0,0
-343,-776,0,0,0,0,0,0,0,0,0,-1,881,1800,0,0
-336,-776,0,0,0,0,0,0,0,0,0,-1,888,1800,0,0
-329,-776,0,0,0,0,0,0,0,0,0,-1,895,1800,0,0
-322,-776,0,0,0,0,0,0,0,0,0,-1,902,1800,0,0
-315,-776,0,0,0,0,0,0,0,0,0,-1,909,1800,0,0
-308,-776,0,0,0,0,0,0,0,0,0,-1,916,1800,0,0
-301,-776,0,0,0,0,0,0,0,0,0,-1,923,1800,0,0
-294,-776,0,0,0,0,0,0,0,0,0,-1,930,1800,0,0
-287,-776,0,0,0,0,0,0,0,0,0,-1,937,1800,0,0
-280,-776,0,0,0,0,0,0,0,0,0,-1,944,1800,0,0
-273,-776,0,0,0,0,0,0,0,0,0,-1,951,1800,0,0
-266,-776,0,0,0,0,0,0,0,0,0,-1,958,1800,0,0
-259,-776,0,0,0,0,0,0,0,0,0,-1,965,1800,0,0
-252,-776,0,0,0,0,0,0,0,0,0,-1,972,1800,0,0
-245,-776,0,0,0,0,0,0,0,0,0,-1,979,1800,0,0
-238,-776,0,0,0,0,0,0,0,0,0,-1,986,1800,0,0
-231,-776,0,0,0,0,0,0,0,0,0,-1,993,1800,0,0
-224,-776,0,0,0,0,0,0,0,0,0,-1,1000,1800,0,0
-217,-776,0,0,0,0,0,0,0,0,0,-1,1007,1800,0,0
-210,-776,0,0,0,0,0,0,0,0,0,-1,1014,1800,0,0
-203,-776,0,0,0,0,0,0,0,0,0,-1,1021,1800,0,0
-196,-776,0,0,0,0,0,0,0,0,0,-1,1028,1800,0,0
-189,-776,0,0,0,0,0,0,0,0,0,-1,1035,1800,0,0
-182,-776,0,0,0,0,0,0,0,0,0,-1,1042,1800,0,0
-175,-776,0,0,0,0,0,0,0,0,0,-1,1049,1800,0,0
-168,-776,0,0,0,0,0,0,0,0,0,-1,1056,1800,0,0
-161,-776,0,0,0,0,0,0,0,0,0,-1,1063,1800,0,0
-154,-776,0,0,0,0,0,0,0,0,0,-1,1070,1800,0,0
-147,-776,0,0,0,0,0,0,0,0,0,-1,1077,1800,0,0
-140,-776,2.98499,5.20911,0,0,0,0,0,0,0,-1,1084,1800,2.98493,-5.2091
-133,-776,6.72363,9.35828,0,0,0,0,0,0,0,-1,1091,1800,6.72358,-9.35824
-126,-776,6.55029,13.7832,0,0,0,0,0,0,0,-1,1098,1800,6.55029,-13.7832
-119,-776,5.72107,13.7787,0,0,0,0,0,0,0,-1,1105,1800,5.72106,-13.7787
-112,-776,6.84998,20.4421,0,0,0,0,0,0,0,-1,1112,1800,6.84993,-20.4421
-105,-776,4.46863,24.6742,0,0,0,0,0,0,0,-1,1119,1800,4.46868,-24.6742
-98,-776,4.31616,19.7659,0,0,0,0,0,0,0,-1,1126,1800,4.31619,-19.7659
-91,-776,3.30225,18.134,0,0,0,0,0,0,0,-1,1133,1800,3.30222,-18.134
-84,-776,2.67932,14.3162,0,0,0,0,0,0,0,-1,1140,1800,2.67926,-14.3161
-77,-776,0.580078,11.1272,0,0,0,0,0,0,0,-1,1147,1800,0.58002,-11.1272
-70,-776,-0.562866,12.3163,0,0,0,0,0,0,0,-1,1154,1800,-0.562897,-12.3163
-63,-776,-3.96106,9.97656,0,0,0,0,0,0,0,-1,1161,1800,-3.961,-9.97654
-56,-776,-7.35913,7.63672,0,0,0,0,0,0,0,-1,1168,1800,-7.3591,-7.63676
-49,-776,-7.62952,3.1908,0,0,0,0,0,0,0,-1,1175,1800,-7.62955,-3.19076
-42,-776,-3.41272,3.0249,0,0,0,0,0,0,0,-1,1182,1800,-3.41269,-3.02488
-35,-776,-3.71753,1.63635,0,0,0,0,0,0,0,-1,1189,1800,-3.71755,-1.63631
-28,-776,-4.03979,0.716064,0,0,0,0,0,0,0,-1,1196,1800,-4.03977,-0.716055
-21,-776,8.56567,36.7518,0,0,0,0,0,0,0,-1,1203,1800,8.56565,-36.7518
-14,-776,8.22424,37.1102,0,0,0,0,0,0,0,-1,1210,1800,8.22421,-37.1102
-7,-776,7.86658,37.4503,-0.00301163,-0.0368989,-0.00771939,-0.00133603,-0.0385745,-0.213748,0.0252827,0.0499968,1217,1800,7.86659,-37.4503
0,-776,8.2301,37.4862,-0.00451098,-0.0338456,-0.00787353,-0.0025313,-0.0358253,-0.24633,0.023086,0.0471798,1224,1800,8.23011,-37.4862
7,-776,8.41772,37.6796,-0.00613936,-0.0273966,-0.00800525,-0.00346191,-0.0300741,-0.322766,0.0190008,0.0461232,1231,1800,8.41769,-37.6796
14,-776,8.41382,37.7535,-0.00672141,-0.0185545,-0.00782514,-0.00282783,-0.0224481,-0.461704,0.0141175,0.0436242,1238,1800,8.41386,-37.7535
21,-776,8.34985,37.8521,-0.00597147,-0.00935452,-0.006962,-0.000498449,-0.0148275,-0.666225,0.00972314,0.0439418,1245,1800,8.34984,-37.852
28,-776,7.87781,36.9893,-0.00421251,-0.000554819,-0.00574772,0.003648,-0.00841533,-0.939427,0.00714375,0.045651,1252,1800,7.87782,-36.9892
35,-776,8.19922,37.6818,0,0,0,0,0,0,0,-1,1259,1800,8.19924,-37.6817
42,-776,9.11292,37.1072,0.000243269,0.0148693,-0.00344053,0.0156382,-0.000525638,-1.35092,0.010605,0.0417221,1266,1800,9.11289,-37.1071
49,-776,7.81494,37.0114,0.00302879,0.0211655,-0.00185367,0.021353,0.00284127,-1.46998,0.0133891,0.0455001,1273,1800,7.81497,-37.0113
56,-776,7.6991,36.8829,0,0,0,0,0,0,0,-1,1280,1800,7.69904,-36.8829
63,-776,7.71521,36.5913,0.0151815,0.029278,-0.00510963,0.0309353,0.0135242,-1.25716,0.0179074,0.0472517,1287,1800,7.71525,-36.5914
70,-776,7.76904,36.6771,0.0235721,0.0308538,-0.00878833,0.0367256,0.0177003,-0.981778,0.0212081,0.0497285,1294,1800,7.76901,-36.6771
77,-776,8.15393,37.7806,0,0,0,0,0,0,0,-1,1301,1800,8.15395,-37.7806
84,-776,8.05652,37.7581,0.0444754,0.0282863,-0.0210207,0.0589062,0.0138555,-0.601612,0.0355637,0.049416,1308,1800,8.05649,-37.758
91,-776,8.0614,37.6273,0.054985,0.0261525,-0.0290223,0.0729743,0.0081632,-0.554884,0.0461696,0.0457025,1315,1800,8.06139,-37.6273
98,-776,8.24731,37.235,0,0,0,0,0,0,0,-1,1322,1800,8.24737,-37.235
105,-776,8.87781,36.6364,0.0783527,0.0231246,-0.0467133,0.105003,-0.00352616,-0.518459,0.0712067,0.041551,1329,1800,8.87784,-36.6363
112,-776,9.79785,35.9973,0.0892613,0.0210223,-0.055655,0.120423,-0.0101393,-0.510417,0.0838663,0.0446234,1336,1800,9.79786,-35.9973
119,-776,10.6398,35.3755,0,0,0,0,0,0,0,-1,1343,1800,10.6397,-35.3755
126,-776,13.1157,34.0399,0,0,0,0,0,0,0,-1,1350,1800,13.1158,-34.0399
133,-776,14.7876,33.2733,0,0,0,0,0,0,0,-1,1357,1800,14.7876,-33.2733
140,-776,5.97717,36.2097,0,0,0,0,0,0,0,-1,1364,1800,5.97717,-36.2097
147,-776,4.38184,33.3923,0,0,0,0,0,0,0,-1,1371,1800,4.38185,-33.3923
154,-776,38.4338,21.854,0,0,0,0,0,0,0,-1,1378,1800,38.4339,-21.854
161,-776,6.50293,1.1731,0,0,0,0,0,0,0,-1,1385,1800,6.5029,-1.17313
168,-776,8.44971,1.22913,0,0,0,0,0,0,0,-1,1392,1800,8.44974,-1.22915
175,-776,8.61523,2.87061,0,0,0,0,0,0,0,-1,1399,1800,8.6152,-2.87063
182,-776,8.54065,4.60645,0,0,0,0,0,0,0,-1,1406,1800,8.5407,-4.60643
189,-776,8.35303,6.28223,0,0,0,0,0,0,0,-1,1413,1800,8.35297,-6.28225
196,-776,8.0387,8.21704,0,0,0,0,0,0,0,-1,1420,1800,8.03865,-8.217
203,-776,7.91736,9.79919,0,0,0,0,0,0,0,-1,1427,1800,7.91735,-9.79922
210,-776,20.2479,7.85718,0,0,0,0,0,0,0,-1,1434,1800,20.248,-7.85719
217,-776,21.5171,9.3418,0,0,0,0,0,0,0,-1,1441,1800,21.5171,-9.34182
224,-776,3.09253,14.9313,0,0,0,0,0,0,0,-1,1448,1800,3.09254,-14.9313
231,-776,20.8671,9.21057,0,0,0,0,0,0,0,-1,1455,1800,20.867,-9.21054
238,-776,20.7511,9.05847,0,0,0,0,0,0,0,-1,1462,1800,20.7511,-9.05848
245,-776,3.80823,15.4108,0,0,0,0,0,0,0,-1,1469,1800,3.80826,-15.4108
252,-776,8.57837,20.2009,0,0,0,0,0,0,0,-1,1476,1800,8.57841,-20.2009
259,-776,14.1882,7.69055,0,0,0,0,0,0,0,-1,1483,1800,14.1882,-7.69061
266,-776,0,0,0,0,0,0,0,0,0,-1,1490,1800,0,0
273,-776,0,0,0,0,0,0,0,0,0,-1,1497,1800,0,0
280,-776,0,0,0,0,0,0,0,0,0,-1,1504,1800,0,0
287,-776,0,0,0,0,0,0,0,0,0,-1,1511,1800,0,0
294,-776,0,0,0,0,0,0,0,0,0,-1,1518,1800,0,0
301,-776,0,0,0,0,0,0,0,0,0,-1,1525,1800,0,0
308,-776,0,0,0,0,0,0,0,0,0,-1,1532,1800,0,0
315,-776,0,0,0,0,0,0,0,0,0,-1,1539,1800,0,0
322,-776,0,0,0,0,0,0,0,0,0,-1,1546,1800,0,0
329,-776,0,0,0,0,0,0,0,0,0,-1,1553,1800,0,0
336,-776,0,0,0,0,0,0,0,0,0,-1,1560,1800,0,0
343,-776,0,0,0,0,0,0,0,0,0,-1,1567,1800,0,0
350,-776,0,0,0,0,0,0,0,0,0,-1,1574,1800,0,0
357,-776,0,0,0,0,0,0,0,0,0,-1,1581,1800,0,0
364,-776,0,0,0,0,0,0,0,0,0,-1,1588,1800,0,0
371,-776,0,0,0,0,0,0,0,0,0,-1,1595,1800,0,0
378,-776,0,0,0,0,0,0,0,0,0,-1,1602,1800,0,0
385,-776,0,0,0,0,0,0,0,0,0,-1,1609,1800,0,0
392,-776,0,0,0,0,0,0,0,0,0,-1,1616,1800,0,0
399,-776,0,0,0,0,0,0,0,0,0,-1,1623,1800,0,0
406,-776,0,0,0,0,0,0,0,0,0,-1,1630,1800,0,0
413,-776,0,0,0,0,0,0,0,0,0,-1,1637,1800,0,0
420,-776,0,0,0,0,0,0,0,0,0,-1,1644,1800,0,0
427,-776,0,0,0,0,0,0,0,0,0,-1,1651,1800,0,0
434,-776,0,0,0,0,0,0,0,0,0,-1,1658,1800,0,0
441,-776,0,0,0,0,0,0,0,0,0,-1,1665,1800,0,0
448,-776,0,0,0,0,0,0,0,0,0,-1,1672,1800,0,0
455,-776,0,0,0,0,0,0,0,0,0,-1,1679,1800,0,0
462,-776,0,0,0,0,0,0,0,0,0,-1,1686,1800,0,0
469,-776,0,0,0,0,0,0,0,0,0,-1,1693,1800,0,0
476,-776,0,0,0,0,0,0,0,0,0,-1,1700,1800,0,0
483,-776,0,0,0,0,0,0,0,0,0,-1,1707,1800,0,0
490,-776,0,0,0,0,0,0,0,0,0,-1,1714,1800,0,0
497,-776,0,0,0,0,0,0,0,0,0,-1,1721,1800,0,0
504,-776,0,0,0,0,0,0,0,0,0,-1,1728,1800,0,0
511,-776,0,0,0,0,0,0,0,0,0,-1,1735,1800,0,0
518,-776,0,0,0,0,0,0,0,0,0,-1,1742,1800,0,0
525,-776,0,0,0,0,0,0,0,0,0,-1,1749,1800,0,0
532,-776,0,0,0,0,0,0,0,0,0,-1,1756,1800,0,0
539,-776,0,0,0,0,0,0,0,0,0,-1,1763,1800,0,0
546,-776,0,0,0,0,0,0,0,0,0,-1,1770,1800,0,0
553,-776,0,0,0,0,0,0,0,0,0,-1,1777,1800,0,0
560,-776,0,0,0,0,0,0,0,0,0,-1,1784,1800,0,0
567,-776,0,0,0,0,0,0,0,0,0,-1,1791,1800,0,0
574,-776,0,0,0,0,0,0,0,0,0,-1,1798,1800,0,0
581,-776,0,0,0,0,0,0,0,0,0,-1,1805,1800,0,0
588,-776,0,0,0,0,0,0,0,0,0,-1,1812,1800,0,0
595,-776,0,0,0,0,0,0,0,0,0,-1,1819,1800,0,0
602,-776,0,0,0,0,0,0,0,0,0,-1,1826,1800,0,0
609,-776,0,0,0,0,0,0,0,0,0,-1,1833,1800,0,0
616,-776,0,0,0,0,0,0,0,0,0,-1,1840,1800,0,0
623,-776,0,0,0,0,0,0,0,0,0,-1,1847,1800,0,0
630,-776,0,0,0,0,0,0,0,0,0,-1,1854,1800,0,0
637,-776,0,0,0,0,0,0,0,0,0,-1,1861,1800,0,0
644,-776,0,0,0,0,0,0,0,0,0,-1,1868,1800,0,0
651,-776,0,0,0,0,0,0,0,0,0,-1,1875,1800,0,0
658,-776,0,0,0,0,0,0,0,0,0,-1,1882,1800,0,0
665,-776,0,0,0,0,0,0,0,0,0,-1,1889,1800,0,0
672,-776,0,0,0,0,0,0,0,0,0,-1,1896,1800,0,0
679,-776,0,0,0,0,0,0,0,0,0,-1,1903,1800,0,0
686,-776,0,0,0,0,0,0,0,0,0,-1,1910,1800,0,0
693,-776,0,0,0,0,0,0,0,0,0,-1,1917,1800,0,0
700,-776,0,0,0,0,0,0,0,0,0,-1,1924,1800,0,0
707,-776,0,0,0,0,0,0,0,0,0,-1,1931,1800,0,0
714,-776,0,0,0,0,0,0,0,0,0,-1,1938,1800,0,0
721,-776,0,0,0,0,0,0,0,0,0,-1,1945,1800,0,0
728,-776,0,0,0,0,0,0,0,0,0,-1,1952,1800,0,0
735,-776,0,0,0,0,0,0,0,0,0,-1,1959,1800,0,0
742,-776,0,0,0,0,0,0,0,0,0,-1,1966,1800,0,0
749,-776,0,0,0,0,0,0,0,0,0,-1,1973,1800,0,0
756,-776,0,0,0,0,0,0,0,0,0,-1,1980,1800,0,0
763,-776,0,0,0,0,0,0,0,0,0,-1,1987,1800,0,0
770,-776,0,0,0,0,0,0,0,0,0,-1,1994,1800,0,0
777,-776,0,0,0,0,0,0,0,0,0,-1,2001,1800,0,0
784,-776,0,0,0,0,0,0,0,0,0,-1,2008,1800,0,0
791,-776,0,0,0,0,0,0,0,0,0,-1,2015,1800,0,0
798,-776,0,0,0,0,0,0,0,0,0,-1,2022,1800,0,0
805,-776,0,0,0,0,0,0,0,0,0,-1,2029,1800,0,0
812,-776,0,0,0,0,0,0,0,0,0,-1,2036,1800,0,0
-700,-783,0,0,0,0,0,0,0,0,0,-1,524,1807,0,0
-693,-783,0,0,0,0,0,0,0,0,0,-1,531,1807,0,0
-686,-783,0,0,0,0,0,0,0,0,0,-1,538,1807,0,0
-679,-783,0,0,0,0,0,0,0,0,0,-1,545,1807,0,0
-672,-783,0,0,0,0,0,0,0,0,0,-1,552,1807,0,0
-665,-783,0,0,0,0,0,0,0,0,0,-1,559,1807,0,0
-658,-783,0,0,0,0,0,0,0,0,0,-1,566,1807,0,0
-651,-783,0,0,0,0,0,0,0,0,0,-1,573,1807,0,0
-644,-783,0,0,0,0,0,0,0,0,0,-1,580,1807,0,0
-637,-783,0,0,0,0,0,0,0,0,0,-1,587,1807,0,0
-630,-783,0,0,0,0,0,0,0,0,0,-1,594,1807,0,0
-623,-783,0,0,0,0,0,0,0,0,0,-1,601,1807,0,0
-616,-783,0,0,0,0,0,0,0,0,0,-1,608,1807,0,0
-609,-783,0,0,0,0,0,0,0,0,0,-1,615,1807,0,0
-602,-783,0,0,0,0,0,0,0,0,0,-1,622,1807,0,0
-595,-783,0,0,0,0,0,0,0,0,0,-1,629,1807,0,0
-588,-783,0,0,0,0,0,0,0,0,0,-1,636,1807,0,0
-581,-783,0,0,0,0,0,0,0,0,0,-1,643,1807,0,0
-574,-783,0,0,0,0,0,0,0,0,0,-1,650,1807,0,0
-567,-783,0,0,0,0,0,0,0,0,0,-1,657,1807,0,0
-560,-783,0,0,0,0,0,0,0,0,0,-1,664,1807,0,0
-553,-783,0,0,0,0,0,0,0,0,0,-1,671,1807,0,0
-546,-783,0,0,0,0,0,0,0,0,0,-1,678,1807,0,0
-539,-783,0,0,0,0,0,0,0,0,0,-1,685,1807,0,0
-532,-783,0,0,0,0,0,0,0,0,0,-1,692,1807,0,0
-525,-783,0,0,0,0,0,0,0,0,0,-1,699,1807,0,0
-518,-783,0,0,0,0,0,0,0,0,0,-1,706,1807,0,0
-511,-783,0,0,0,0,0,0,0,0,0,-1,713,1807,0,0
-504,-783,0,0,0,0,0,0,0,0,0,-1,720,1807,0,0
-497,-783,0,0,0,0,0,0,0,0,0,-1,727,1807,0,0
-490,-783,0,0,0,0,0,0,0,0,0,-1,734,1807,0,0
-483,-783,0,0,0,0,0,0,0,0,0,-1,741,1807,0,0
-476,-783,0,0,0,0,0,0,0,0,0,-1,748,1807,0,0
-469,-783,0,0,0,0,0,0,0,0,0,-1,755,1807,0,0
-462,-783,0,0,0,0,0,0,0,0,0,-1,762,1807,0,0
-455,-783,0,0,0,0,0,0,0,0,0,-1,769,1807,0,0
-448,-783,0,0,0,0,0,0,0,0,0,-1,776,1807,0,0
-441,-783,0,0,0,0,0,0,0,0,0,-1,783,1807,0,0
-434,-783,0,0,0,0,0,0,0,0,0,-1,790,1807,0,0
-427,-783,0,0,0,0,0,0,0,0,0,-1,797,1807,0,0
-420,-783,0,0,0,0,0,0,0,0,0,-1,804,1807,0,0
-413,-783,0,0,0,0,0,0,0,0,0,-1,811,1807,0,0
-406,-783,0,0,0,0,0,0,0,0,0,-1,818,1807,0,0
-399,-783,0,0,0,0,0,0,0,0,0,-1,825,1807,0,0
-392,-783,0,0,0,0,0,0,0,0,0,-1,832,1807,0,0
-385,-783,0,0,0,0,0,0,0,0,0,-1,839,1807,0,0
-378,-783,0,0,0,0,0,0,0,0,0,-1,846,1807,0,0
-371,-783,0,0,0,0,0,0,0,0,0,-1,853,1807,0,0
-364,-783,0,0,0,0,0,0,0,0,0,-1,860,1807,0,0
-357,-783,0,0,0,0,0,0,0,0,0,-1,867,1807,0,0
-350,-783,0,0,0,0,0,0,0,0,0,-1,874,1807,0,0
-343,-783,0,0,0,0,0,0,0,0,0,-1,881,1807,0,0
-336,-783,0,0,0,0,0,0,0,0,0,-1,888,1807,0,0
-329,-783,0,0,0,0,0,0,0,0,0,-1,895,1807,0,0
-322,-783,0,0,0,0,0,0,0,0,0,-1,902,1807,0,0
-315,-783,0,0,0,0,0,0,0,0,0,-1,909,1807,0,0
-308,-783,0,0,0,0,0,0,0,0,0,-1,916,1807,0,0
-301,-783,0,0,0,0,0,0,0,0,0,-1,923,1807,0,0
-294,-783,0,0,0,0,0,0,0,0,0,-1,930,1807,0,0
-287,-783,0,0,0,0,0,0,0,0,0,-1,937,1807,0,0
-280,-783,0,0,0,0,0,0,0,0,0,-1,944,1807,0,0
-273,-783,0,0,0,0,0,0,0,0,0,-1,951,1807,0,0
-266,-783,0,0,0,0,0,0,0,0,0,-1,958,1807,0,0
-259,-783,0,0,0,0,0,0,0,0,0,-1,965,1807,0,0
-252,-783,0,0,0,0,0,0,0,0,0,-1,972,1807,0,0
-245,-783,0,0,0,0,0,0,0,0,0,-1,979,1807,0,0
-238,-783,0,0,0,0,0,0,0,0,0,-1,986,1807,0,0
-231,-783,0,0,0,0,0,0,0,0,0,-1,993,1807,0,0
-224,-783,0,0,0,0,0,0,0,0,0,-1,1000,1807,0,0
-217,-783,0,0,0,0,0,0,0,0,0,-1,1007,1807,0,0
-210,-783,0,0,0,0,0,0,0,0,0,-1,1014,1807,0,0
-203,-783,0,0,0,0,0,0,0,0,0,-1,1021,1807,0,0
-196,-783,0,0,0,0,0,0,0,0,0,-1,1028,1807,0,0
-189,-783,0,0,0,0,0,0,0,0,0,-1,1035,1807,0,0
-182,-783,0,0,0,0,0,0,0,0,0,-1,1042,1807,0,0
-175,-783,0,0,0,0,0,0,0,0,0,-1,1049,1807,0,0
-168,-783,0,0,0,0,0,0,0,0,0,-1,1056,1807,0,0
-161,-783,0,0,0,0,0,0,0,0,0,-1,1063,1807,0,0
-154,-783,0,0,0,0,0,0,0,0,0,-1,1070,1807,0,0
-147,-783,0,0,0,0,0,0,0,0,0,-1,1077,1807,0,0
-140,-783,0,0,0,0,0,0,0,0,0,-1,1084,1807,0,0
-133,-783,0,0,0,0,0,0,0,0,0,-1,1091,1807,0,0
-126,-783,0,0,0,0,0,0,0,0,0,-1,1098,1807,0,0
-119,-783,0,0,0,0,0,0,0,0,0,-1,1105,1807,0,0
-112,-783,5.33936,14.7699,0,0,0,0,0,0,0,-1,1112,1807,5.33931,-14.7699
-105,-783,6.44263,21.2224,0,0,0,0,0,0,0,-1,1119,1807,6.44263,-21.2224
-98,-783,5.54773,20.5695,0,0,0,0,0,0,0,-1,1126,1807,5.54772,-20.5695
-91,-783,2.6106,20.2491,0,0,0,0,0,0,0,-1,1133,1807,2.61056,-20.2492
-84,-783,-0.0491943,14.5743,0,0,0,0,0,0,0,-1,1140,1807,-0.0491562,-14.5743
-77,-783,0.332764,12.7788,0,0,0,0,0,0,0,-1,1147,1807,0.332743,-12.7788
-70,-783,-1.93176,5.12817,0,0,0,0,0,0,0,-1,1154,1807,-1.93171,-5.12813
-63,-783,-5.31702,10.54,0,0,0,0,0,0,0,-1,1161,1807,-5.31703,-10.54
-56,-783,-6.26135,6.9679,0,0,0,0,0,0,0,-1,1168,1807,-6.26136,-6.96785
-49,-783,-3.17688,4.59705,0,0,0,0,0,0,0,-1,1175,1807,-3.17685,-4.5971
-42,-783,-3.72876,3.1405,0,0,0,0,0,0,0,-1,1182,1807,-3.72874,-3.14055
-35,-783,-3.97046,1.59399,0,0,0,0,0,0,0,-1,1189,1807,-3.97041,-1.59401
-28,-783,-4.12195,0.270386,0,0,0,0,0,0,0,-1,1196,1807,-4.12197,-0.270408
-21,-783,11.986,37.0266,0,0,0,0,0,0,0,-1,1203,1807,11.986,-37.0266
-14,-783,9.01587,37.3499,0,0,0,0,0,0,0,-1,1210,1807,9.01585,-37.3499
-7,-783,8.58435,37.6764,-0.00265746,-0.0447775,-0.00831495,-0.00107541,-0.0463596,-0.188017,0.0305542,0.0464179,1217,1807,8.5844,-37.6763
0,-783,8.30762,38.0321,-0.00458593,-0.0408553,-0.00870638,-0.00260426,-0.042837,-0.223799,0.0277307,0.0452599,1224,1807,8.30765,-38.0321
7,-783,8.56323,37.9597,-0.00658193,-0.0322192,-0.0088327,-0.00383348,-0.0349677,-0.30167,0.0221448,0.0443841,1231,1807,8.56317,-37.9598
14,-783,8.45874,38.0848,-0.00681358,-0.0202524,-0.00843023,-0.00275249,-0.0243135,-0.448924,0.0153739,0.044675,1238,1807,8.45878,-38.0848
21,-783,8.36829,38.2251,-0.00519014,-0.00816069,-0.00710275,0.000580972,-0.0139318,-0.682327,0.00948746,0.0473929,1245,1807,8.36827,-38.2251
28,-783,7.66504,37.032,-0.0023134,0.00312785,-0.00538024,0.00643621,-0.00562177,-1.01948,0.00696697,0.0488112,1252,1807,7.66508,-37.032
35,-783,8.05188,37.8389,0,0,0,0,0,0,0,-1,1259,1807,8.05184,-37.8389
42,-783,8.5979,38.6155,0,0,0,0,0,0,0,-1,1266,1807,8.59794,-38.6155
49,-783,7.78918,36.9344,0,0,0,0,0,0,0,-1,1273,1807,7.78919,-36.9344
56,-783,7.71509,36.7993,0,0,0,0,0,0,0,-1,1280,1807,7.71503,-36.7993
63,-783,7.71436,36.3079,0,0,0,0,0,0,0,-1,1287,1807,7.71434,-36.3078
70,-783,7.7478,36.5774,0.0343777,0.0432192,-0.00851843,0.0483956,0.0292012,-1.02475,0.0281396,0.0470773,1294,1807,7.74774,-36.5774
77,-783,7.89429,36.5536,0.0480301,0.0421787,-0.0162496,0.0616153,0.0285936,-0.696327,0.0356042,0.0499911,1301,1807,7.89429,-36.5535
84,-783,8.22302,37.9796,0,0,0,0,0,0,0,-1,1308,1807,8.22302,-37.9796
91,-783,8.60608,38.1239,0,0,0,0,0,0,0,-1,1315,1807,8.60605,-38.124
98,-783,9.01929,37.7297,0,0,0,0,0,0,0,-1,1322,1807,9.01928,-37.7297
105,-783,9.69958,36.6707,0.106315,0.0322711,-0.0609506,0.140607,-0.00202025,-0.512472,0.0944184,0.0479892,1329,1807,9.69962,-36.6706
112,-783,10.8798,35.7463,0.121369,0.0295627,-0.0735532,0.162168,-0.0112357,-0.506428,0.112045,0.0443549,1336,1807,10.8797,-35.7463
119,-783,12.1796,35.0488,0,0,0,0,0,0,0,-1,1343,1807,12.1796,-35.0489
126,-783,13.566,34.291,0,0,0,0,0,0,0,-1,1350,1807,13.5661,-34.2911
133,-783,15.1613,33.5028,0,0,0,0,0,0,0,-1,1357,1807,15.1613,-33.5028
140,-783,5.59155,34.2928,0,0,0,0,0,0,0,-1,1364,1807,5.59149,-34.2928
147,-783,4.01941,32.9166,0,0,0,0,0,0,0,-1,1371,1807,4.01944,-32.9166
154,-783,38.2109,17.545,0,0,0,0,0,0,0,-1,1378,1807,38.2109,-17.545
161,-783,39.5087,17.5449,0,0,0,0,0,0,0,-1,1385,1807,39.5087,-17.545
168,-783,8.62561,1.79944,0,0,0,0,0,0,0,-1,1392,1807,8.62561,-1.79946
175,-783,8.78699,3.40857,0,0,0,0,0,0,0,-1,1399,1807,8.78697,-3.40854
182,-783,8.70984,5.14661,0,0,0,0,0,0,0,-1,1406,1807,8.70989,-5.14666
189,-783,8.55762,6.79871,0,0,0,0,0,0,0,-1,1413,1807,8.55766,-6.79872
196,-783,8.25488,8.66626,0,0,0,0,0,0,0,-1,1420,1807,8.25492,-8.66628
203,-783,7.86755,10.5735,0,0,0,0,0,0,0,-1,1427,1807,7.8676,-10.5734
210,-783,5.6969,8.99231,0,0,0,0,0,0,0,-1,1434,1807,5.69693,-8.99234
217,-783,5.28503,3.80872,0,0,0,0,0,0,0,-1,1441,1807,5.285,-3.80868
224,-783,3.22571,6.62903,0,0,0,0,0,0,0,-1,1448,1807,3.2257,-6.62907
231,-783,4.27942,4.56262,0,0,0,0,0,0,0,-1,1455,1807,4.27948,-4.56267
238,-783,0,0,0,0,0,0,0,0,0,-1,1462,1807,0,0
245,-783,0,0,0,0,0,0,0,0,0,-1,1469,1807,0,0
252,-783,0,0,0,0,0,0,0,0,0,-1,1476,1807,0,0
259,-783,0,0,0,0,0,0,0,0,0,-1,1483,1807,0,0
266,-783,0,0,0,0,0,0,0,0,0,-1,1490,1807,0,0
273,-783,0,0,0,0,0,0,0,0,0,-1,1497,1807,0,0
280,-783,0,0,0,0,0,0,0,0,0,-1,1504,1807,0,0
287,-783,0,0,0,0,0,0,0,0,0,-1,1511,1807,0,0
294,-783,0,0,0,0,0,0,0,0,0,-1,1518,1807,0,0
301,-783,0,0,0,0,0,0,0,0,0,-1,1525,1807,0,0
308,-783,0,0,0,0,0,0,0,0,0,-1,1532,1807,0,0
315,-783,0,0,0,0,0,0,0,0,0,-1,1539,1807,0,0
322,-783,0,0,0,0,0,0,0,0,0,-1,1546,1807,0,0
329,-783,0,0,0,0,0,0,0,0,0,-1,1553,1807,0,0
336,-783,0,0,0,0,0,0,0,0,0,-1,1560,1807,0,0
343,-783,0,0,0,0,0,0,0,0,0,-1,1567,1807,0,0
350,-783,0,0,0,0,0,0,0,0,0,-1,1574,1807,0,0
357,-783,0,0,0,0,0,0,0,0,0,-1,1581,1807,0,0
364,-783,0,0,0,0,0,0,0,0,0,-1,1588,1807,0,0
371,-783,0,0,0,0,0,0,0,0,0,-1,1595,1807,0,0
378,-783,0,0,0,0,0,0,0,0,0,-1,1602,1807,0,0
385,-783,0,0,0,0,0,0,0,0,0,-1,1609,1807,0,0
392,-783,0,0,0,0,0,0,0,0,0,-1,1616,1807,0,0
399,-783,0,0,0,0,0,0,0,0,0,-1,1623,1807,0,0
406,-783,0,0,0,0,0,0,0,0,0,-1,1630,1807,0,0
413,-783,0,0,0,0,0,0,0,0,0,-1,1637,1807,0,0
420,-783,0,0,0,0,0,0,0,0,0,-1,1644,1807,0,0
427,-783,0,0,0,0,0,0,0,0,0,-1,1651,1807,0,0
434,-783,0,0,0,0,0,0,0,0,0,-1,1658,1807,0,0
441,-783,0,0,0,0,0,0,0,0,0,-1,1665,1807,0,0
448,-783,0,0,0,0,0,0,0,0,0,-1,1672,1807,0,0
455,-783,0,0,0,0,0,0,0,0,0,-1,1679,1807,0,0
462,-783,0,0,0,0,0,0,0,0,0,-1,1686,1807,0,0
469,-783,0,0,0,0,0,0,0,0,0,-1,1693,1807,0,0
476,-783,0,0,0,0,0,0,0,0,0,-1,1700,1807,0,0
483,-783,0,0,0,0,0,0,0,0,0,-1,1707,1807,0,0
490,-783,0,0,0,0,0,0,0,0,0,-1,1714,1807,0,0
497,-783,0,0,0,0,0,0,0,0,0,-1,1721,1807,0,0
504,-783,0,0,0,0,0,0,0,0,0,-1,1728,1807,0,0
511,-783,0,0,0,0,0,0,0,0,0,-1,1735,1807,0,0
518,-783,0,0,0,0,0,0,0,0,0,-1,1742,1807,0,0
525,-783,0,0,0,0,0,0,0,0,0,-1,1749,1807,0,0
532,-783,0,0,0,0,0,0,0,0,0,-1,1756,1807,0,0
539,-783,0,0,0,0,0,0,0,0,0,-1,1763,1807,0,0
546,-783,0,0,0,0,0,0,0,0,0,-1,1770,1807,0,0
553,-783,0,0,0,0,0,0,0,0,0,-1,1777,1807,0,0
560,-783,0,0,0,0,0,0,0,0,0,-1,1784,1807,0,0
567,-783,0,0,0,0,0,0,0,0,0,-1,1791,1807,0,0
574,-783,0,0,0,0,0,0,0,0,0,-1,1798,1807,0,0
581,-783,0,0,0,0,0,0,0,0,0,-1,1805,1807,0,0
588,-783,0,0,0,0,0,0,0,0,0,-1,1812,1807,0,0
595,-783,0,0,0,0,0,0,0,0,0,-1,1819,1807,0,0
602,-783,0,0,0,0,0,0,0,0,0,-1,1826,1807,0,0
609,-783,0,0,0,0,0,0,0,0,0,-1,1833,1807,0,0
616,-783,0,0,0,0,0,0,0,0,0,-1,1840,1807,0,0
623,-783,0,0,0,0,0,0,0,0,0,-1,1847,1807,0,0
630,-783,0,0,0,0,0,0,0,0,0,-1,1854,1807,0,0
637,-783,0,0,0,0,0,0,0,0,0,-1,1861,1807,0,0
644,-783,0,0,0,0,0,0,0,0,0,-1,1868,1807,0,0
651,-783,0,0,0,0,0,0,0,0,0,-1,1875,1807,0,0
658,-783,0,0,0,0,0,0,0,0,0,-1,1882,1807,0,0
665,-783,0,0,0,0,0,0,0,0,0,-1,1889,1807,0,0
672,-783,0,0,0,0,0,0,0,0,0,-1,1896,1807,0,0
679,-783,0,0,0,0,0,0,0,0,0,-1,1903,1807,0,0
686,-783,0,0,0,0,0,0,0,0,0,-1,1910,1807,0,0
693,-783,0,0,0,0,0,0,0,0,0,-1,1917,1807,0,0
700,-783,0,0,0,0,0,0,0,0,0,-1,1924,1807,0,0
707,-783,0,0,0,0,0,0,0,0,0,-1,1931,1807,0,0
714,-783,0,0,0,0,0,0,0,0,0,-1,1938,1807,0,0
721,-783,0,0,0,0,0,0,0,0,0,-1,1945,1807,0,0
728,-783,0,0,0,0,0,0,0,0,0,-1,1952,1807,0,0
735,-783,0,0,0,0,0,0,0,0,0,-1,1959,1807,0,0
742,-783,0,0,0,0,0,0,0,0,0,-1,1966,1807,0,0
749,-783,0,0,0,0,0,0,0,0,0,-1,1973,1807,0,0
756,-783,0,0,0,0,0,0,0,0,0,-1,1980,1807,0,0
763,-783,0,0,0,0,0,0,0,0,0,-1,1987,1807,0,0
770,-783,0,0,0,0,0,0,0,0,0,-1,1994,1807,0,0
777,-783,0,0,0,0,0,0,0,0,0,-1,2001,1807,0,0
784,-783,0,0,0,0,0,0,0,0,0,-1,2008,1807,0,0
791,-783,0,0,0,0,0,0,0,0,0,-1,2015,1807,0,0
798,-783,0,0,0,0,0,0,0,0,0,-1,2022,1807,0,0
805,-783,0,0,0,0,0,0,0,0,0,-1,2029,1807,0,0
812,-783,0,0,0,0,0,0,0,0,0,-1,2036,1807,0,0
-700,-790,0,0,0,0,0,0,0,0,0,-1,524,1814,0,0
-693,-790,0,0,0,0,0,0,0,0,0,-1,531,1814,0,0
-686,-790,0,0,0,0,0,0,0,0,0,-1,538,1814,0,0
-679,-790,0,0,0,0,0,0,0,0,0,-1,545,1814,0,0
-672,-790,0,0,0,0,0,0,0,0,0,-1,552,1814,0,0
-665,-790,0,0,0,0,0,0,0,0,0,-1,559,1814,0,0
-658,-790,0,0,0,0,0,0,0,0,0,-1,566,1814,0,0
-651,-790,0,0,0,0,0,0,0,0,0,-1,573,1814,0,0
-644,-790,0,0,0,0,0,0,0,0,0,-1,580,1814,0,0
-637,-790,0,0,0,0,0,0,0,0,0,-1,587,1814,0,0
-630,-790,0,0,0,0,0,0,0,0,0,-1,594,1814,0,0
-623,-790,0,0,0,0,0,0,0,0,0,-1,601,1814,0,0
-616,-790,0,0,0,0,0,0,0,0,0,-1,608,1814,0,0
-609,-790,0,0,0,0,0,0,0,0,0,-1,615,1814,0,0
-602,-790,0,0,0,0,0,0,0,0,0,-1,622,1814,0,0
-595,-790,0,0,0,0,0,0,0,0,0,-1,629,1814,0,0
-588,-790,0,0,0,0,0,0,0,0,0,-1,636,1814,0,0
-581,-790,0,0,0,0,0,0,0,0,0,-1,643,1814,0,0
-574,-790,0,0,0,0,0,0,0,0,0,-1,650,1814,0,0
-567,-790,0,0,0,0,0,0,0,0,0,-1,657,1814,0,0
-560,-790,0,0,0,0,0,0,0,0,0,-1,664,1814,0,0
-553,-790,0,0,0,0,0,0,0,0,0,-1,671,1814,0,0
-546,-790,0,0,0,0,0,0,0,0,0,-1,678,1814,0,0
-539,-790,0,0,0,0,0,0,0,0,0,-1,685,1814,0,0
-532,-790,0,0,0,0,0,0,0,0,0,-1,692,1814,0,0
-525,-790,0,0,0,0,0,0,0,0,0,-1,699,1814,0,0
-518,-790,0,0,0,0,0,0,0,0,0,-1,706,1814,0,0
-511,-790,0,0,0,0,0,0,0,0,0,-1,713,1814,0,0
-504,-790,0,0,0,0,0,0,0,0,0,-1,720,1814,0,0
-497,-790,0,0,0,0,0,0,0,0,0,-1,727,1814,0,0
-490,-790,0,0,0,0,0,0,0,0,0,-1,734,1814,0,0
-483,-790,0,0,0,0,0,0,0,0,0,-1,741,1814,0,0
-476,-790,0,0,0,0,0,0,0,0,0,-1,748,1814,0,0
-469,-790,0,0,0,0,0,0,0,0,0,-1,755,1814,0,0
-462,-790,0,0,0,0,0,0,0,0,0,-1,762,1814,0,0
-455,-790,0,0,0,0,0,0,0,0,0,-1,769,1814,0,0
-448,-790,0,0,0,0,0,0,0,0,0,-1,776,1814,0,0
-441,-790,0,0,0,0,0,0,0,0,0,-1,783,1814,0,0
-434,-790,0,0,0,0,0,0,0,0,0,-1,790,1814,0,0
-427,-790,0,0,0,0,0,0,0,0,0,-1,797,1814,0,0
-420,-790,0,0,0,0,0,0,0,0,0,-1,804,1814,0,0
-413,-790,0,0,0,0,0,0,0,0,0,-1,811,1814,0,0
-406,-790,0,0,0,0,0,0,0,0,0,-1,818,1814,0,0
-399,-790,0,0,0,0,0,0,0,0,0,-1,825,1814,0,0
-392,-790,0,0,0,0,0,0,0,0,0,-1,832,1814,0,0
-385,-790,0,0,0,0,0,0,0,0,0,-1,839,1814,0,0
-378,-790,0,0,0,0,0,0,0,0,0,-1,846,1814,0,0
-371,-790,0,0,0,0,0,0,0,0,0,-1,853,1814,0,0
-364,-790,0,0,0,0,0,0,0,0,0,-1,860,1814,0,0
-357,-790,0,0,0,0,0,0,0,0,0,-1,867,1814,0,0
-350,-790,0,0,0,0,0,0,0,0,0,-1,874,1814,0,0
-343,-790,0,0,0,0,0,0,0,0,0,-1,881,1814,0,0
-336,-790,0,0,0,0,0,0,0,0,0,-1,888,1814,0,0
-329,-790,0,0,0,0,0,0,0,0,0,-1,895,1814,0,0
-322,-790,0,0,0,0,0,0,0,0,0,-1,902,1814,0,0
-315,-790,0,0,0,0,0,0,0,0,0,-1,909,1814,0,0
-308,-790,0,0,0,0,0,0,0,0,0,-1,916,1814,0,0
-301,-790,0,0,0,0,0,0,0,0,0,-1,923,1814,0,0
-294,-790,0,0,0,0,0,0,0,0,0,-1,930,1814,0,0
-287,-790,0,0,0,0,0,0,0,0,0,-1,937,1814,0,0
-280,-790,0,0,0,0,0,0,0,0,0,-1,944,1814,0,0
-273,-790,0,0,0,0,0,0,0,0,0,-1,951,1814,0,0
-266,-790,0,0,0,0,0,0,0,0,0,-1,958,1814,0,0
-259,-790,0,0,0,0,0,0,0,0,0,-1,965,1814,0,0
-252,-790,0,0,0,0,0,0,0,0,0,-1,972,1814,0,0
-245,-790,0,0,0,0,0,0,0,0,0,-1,979,1814,0,0
-238,-790,0,0,0,0,0,0,0,0,0,-1,986,1814,0,0
-231,-790,0,0,0,0,0,0,0,0,0,-1,993,1814,0,0
-224,-790,0,0,0,0,0,0,0,0,0,-1,1000,1814,0,0
-217,-790,0,0,0,0,0,0,0,0,0,-1,1007,1814,0,0
-210,-790,0,0,0,0,0,0,0,0,0,-1,1014,1814,0,0
-203,-790,0,0,0,0,0,0,0,0,0,-1,1021,1814,0,0
-196,-790,0,0,0,0,0,0,0,0,0,-1,1028,1814,0,0
-189,-790,0,0,0,0,0,0,0,0,0,-1,1035,1814,0,0
-182,-790,0,0,0,0,0,0,0,0,0,-1,1042,1814,0,0
-175,-790,0,0,0,0,0,0,0,0,0,-1,1049,1814,0,0
-168,-790,0,0,0,0,0,0,0,0,0,-1,1056,1814,0,0
-161,-790,0,0,0,0,0,0,0,0,0,-1,1063,1814,0,0
-154,-790,0,0,0,0,0,0,0,0,0,-1,1070,1814,0,0
-147,-790,0,0,0,0,0,0,0,0,0,-1,1077,1814,0,0
-140,-790,0,0,0,0,0,0,0,0,0,-1,1084,1814,0,0
-133,-790,0,0,0,0,0,0,0,0,0,-1,1091,1814,0,0
-126,-790,0,0,0,0,0,0,0,0,0,-1,1098,1814,0,0
-119,-790,0,0,0,0,0,0,0,0,0,-1,1105,1814,0,0
-112,-790,0,0,0,0,0,0,0,0,0,-1,1112,1814,0,0
-105,-790,0,0,0,0,0,0,0,0,0,-1,1119,1814,0,0
-98,-790,0,0,0,0,0,0,0,0,0,-1,1126,1814,0,0
-91,-790,0,0,0,0,0,0,0,0,0,-1,1133,1814,0,0
-84,-790,0,0,0,0,0,0,0,0,0,-1,1140,1814,0,0
-77,-790,-0.969238,5.30847,0,0,0,0,0,0,0,-1,1147,1814,-0.969277,-5.3085
-70,-790,-1.23169,4.98914,0,0,0,0,0,0,0,-1,1154,1814,-1.23163,-4.98916
-63,-790,-1.69128,4.32263,0,0,0,0,0,0,0,-1,1161,1814,-1.69128,-4.32258
-56,-790,-2.24756,3.75305,0,0,0,0,0,0,0,-1,1168,1814,-2.24758,-3.75302
-49,-790,-3.11011,3.35779,0,0,0,0,0,0,0,-1,1175,1814,-3.11006,-3.35781
-42,-790,0.593262,1.19165,0,0,0,0,0,0,0,-1,1182,1814,0.593225,-1.19165
-35,-790,0.307129,-0.20105,0,0,0,0,0,0,0,-1,1189,1814,0.307178,0.201006
-28,-790,-2.78467,0.785156,0,0,0,0,0,0,0,-1,1196,1814,-2.78471,-0.785183
-21,-790,12.1554,36.9773,0,0,0,0,0,0,0,-1,1203,1814,12.1553,-36.9773
-14,-790,11.3674,36.8364,0,0,0,0,0,0,0,-1,1210,1814,11.3675,-36.8365
-7,-790,8.80078,38.2759,0,0,0,0,0,0,0,-1,1217,1814,8.80079,-38.2759
0,-790,8.55676,38.4177,-0.00453722,-0.0477299,-0.0090011,-0.00273651,-0.0495306,-0.197447,0.0321471,0.04722,1224,1814,8.55678,-38.4177
7,-790,8.47705,38.4341,-0.00672651,-0.0361297,-0.00902907,-0.00417525,-0.038681,-0.275382,0.0245144,0.0440877,1231,1814,8.47702,-38.4341
14,-790,8.44299,38.3734,-0.00612158,-0.0202891,-0.00823474,-0.00234298,-0.0240677,-0.430198,0.0153239,0.0451566,1238,1814,8.44303,-38.3734
21,-790,8.4624,38.4213,-0.00313971,-0.00495062,-0.00626307,0.00228302,-0.0103734,-0.71361,0.00778891,0.0470213,1245,1814,8.46244,-38.4213
28,-790,7.33374,37.0614,0.00124012,0.008918,-0.00392664,0.0105705,-0.000412381,-1.17245,0.00718841,0.0461749,1252,1814,7.33372,-37.0614
35,-790,7.46399,37.7037,0,0,0,0,0,0,0,-1,1259,1814,7.464,-37.7037
42,-790,8.63403,35.5217,0,0,0,0,0,0,0,-1,1266,1814,8.63398,-35.5217
49,-790,7.74817,36.8784,0,0,0,0,0,0,0,-1,1273,1814,7.74811,-36.8784
56,-790,7.26379,38.0061,0.0229255,0.0520491,0.00368936,0.0525092,0.0224654,1.44673,0.0304212,0.0452106,1280,1814,7.26377,-38.0061
63,-790,7.36096,37.0149,0.0346377,0.0565754,-0.000563085,0.0565899,0.0346232,-1.54515,0.0329434,0.0450162,1287,1814,7.36096,-37.0149
70,-790,7.72949,36.425,0.0478594,0.0582454,-0.00678878,0.0615996,0.0445052,-1.11189,0.0367195,0.0429062,1294,1814,7.72951,-36.425
77,-790,7.88196,36.3652,0.0644695,0.0566277,-0.0167609,0.077762,0.0433352,-0.670498,0.044994,0.0437198,1301,1814,7.88192,-36.3653
84,-790,7.79419,36.5765,0,0,0,0,0,0,0,-1,1308,1814,7.7942,-36.5765
91,-790,7.77649,37.0029,0,0,0,0,0,0,0,-1,1315,1814,7.77644,-37.0029
98,-790,8.03101,37.9294,0,0,0,0,0,0,0,-1,1322,1814,8.03105,-37.9295
105,-790,10.4877,36.7417,0,0,0,0,0,0,0,-1,1329,1814,10.4877,-36.7417
112,-790,11.6357,35.6556,0.158553,0.0398085,-0.0934521,0.209898,-0.0115368,-0.502405,0.143932,0.0459747,1336,1814,11.6357,-35.6557
119,-790,12.9602,34.9847,0.177373,0.0391749,-0.109301,0.237585,-0.0210371,-0.50352,0.165848,0.0446242,1343,1814,12.9602,-34.9847
126,-790,14.2668,34.3053,0.194092,0.0420971,-0.122705,0.262428,-0.0262387,-0.508135,0.184322,0.0481344,1350,1814,14.2669,-34.3053
133,-790,15.6908,33.566,0,0,0,0,0,0,0,-1,1357,1814,15.6908,-33.5661
140,-790,18.2415,34.2175,0,0,0,0,0,0,0,-1,1364,1814,18.2415,-34.2175
147,-790,8.41113,33.3976,0,0,0,0,0,0,0,-1,1371,1814,8.41108,-33.3976
154,-790,40.215,13.2396,0,0,0,0,0,0,0,-1,1378,1814,40.2149,-13.2396
161,-790,39.3429,13.0336,0,0,0,0,0,0,0,-1,1385,1814,39.3429,-13.0336
168,-790,7.04077,2.23279,0,0,0,0,0,0,0,-1,1392,1814,7.04082,-2.23275
175,-790,9.03918,3.98535,0,0,0,0,0,0,0,-1,1399,1814,9.0392,-3.98535
182,-790,8.96997,5.67896,0,0,0,0,0,0,0,-1,1406,1814,8.97001,-5.6789
189,-790,8.59729,6.86975,0,0,0,0,0,0,0,-1,1413,1814,8.59728,-6.86972
196,-790,8.21924,9.29053,0,0,0,0,0,0,0,-1,1420,1814,8.21924,-9.29048
203,-790,0,0,0,0,0,0,0,0,0,-1,1427,1814,0,0
210,-790,0,0,0,0,0,0,0,0,0,-1,1434,1814,0,0
217,-790,0,0,0,0,0,0,0,0,0,-1,1441,1814,0,0
224,-790,0,0,0,0,0,0,0,0,0,-1,1448,1814,0,0
231,-790,0,0,0,0,0,0,0,0,0,-1,1455,1814,0,0
238,-790,0,0,0,0,0,0,0,0,0,-1,1462,1814,0,0
245,-790,0,0,0,0,0,0,0,0,0,-1,1469,1814,0,0
252,-790,0,0,0,0,0,0,0,0,0,-1,1476,1814,0,0
259,-790,0,0,0,0,0,0,0,0,0,-1,1483,1814,0,0
266,-790,0,0,0,0,0,0,0,0,0,-1,1490,1814,0,0
273,-790,0,0,0,0,0,0,0,0,0,-1,1497,1814,0,0
280,-790,0,0,0,0,0,0,0,0,0,-1,1504,1814,0,0
287,-790,0,0,0,0,0,0,0,0,0,-1,1511,1814,0,0
294,-790,0,0,0,0,0,0,0,0,0,-1,1518,1814,0,0
301,-790,0,0,0,0,0,0,0,0,0,-1,1525,1814,0,0
308,-790,0,0,0,0,0,0,0,0,0,-1,1532,1814,0,0
315,-790,0,0,0,0,0,0,0,0,0,-1,1539,1814,0,0
322,-790,0,0,0,0,0,0,0,0,0,-1,1546,1814,0,0
329,-790,0,0,0,0,0,0,0,0,0,-1,1553,1814,0,0
336,-790,0,0,0,0,0,0,0,0,0,-1,1560,1814,0,0
343,-790,0,0,0,0,0,0,0,0,0,-1,1567,1814,0,0
350,-790,0,0,0,0,0,0,0,0,0,-1,1574,1814,0,0
357,-790,0,0,0,0,0,0,0,0,0,-1,1581,1814,0,0
364,-790,0,0,0,0,0,0,0,0,0,-1,1588,1814,0,0
371,-790,0,0,0,0,0,0,0,0,0,-1,1595,1814,0,0
378,-790,0,0,0,0,0,0,0,0,0,-1,1602,1814,0,0
385,-790,0,0,0,0,0,0,0,0,0,-1,1609,1814,0,0
392,-790,0,0,0,0,0,0,0,0,0,-1,1616,1814,0,0
399,-790,0,0,0,0,0,0,0,0,0,-1,1623,1814,0,0
406,-790,0,0,0,0,0,0,0,0,0,-1,1630,1814,0,0
413,-790,0,0,0,0,0,0,0,0,0,-1,1637,1814,0,0
420,-790,0,0,0,0,0,0,0,0,0,-1,1644,1814,0,0
427,-790,0,0,0,0,0,0,0,0,0,-1,1651,1814,0,0
434,-790,0,0,0,0,0,0,0,0,0,-1,1658,1814,0,0
441,-790,0,0,0,0,0,0,0,0,0,-1,1665,1814,0,0
448,-790,0,0,0,0,0,0,0,0,0,-1,1672,1814,0,0
455,-790,0,0,0,0,0,0,0,0,0,-1,1679,1814,0,0
462,-790,0,0,0,0,0,0,0,0,0,-1,1686,1814,0,0
469,-790,0,0,0,0,0,0,0,0,0,-1,1693,1814,0,0
476,-790,0,0,0,0,0,0,0,0,0,-1,1700,1814,0,0
483,-790,0,0,0,0,0,0,0,0,0,-1,1707,1814,0,0
490,-790,0,0,0,0,0,0,0,0,0,-1,1714,1814,0,0
497,-790,0,0,0,0,0,0,0,0,0,-1,1721,1814,0,0
504,-790,0,0,0,0,0,0,0,0,0,-1,1728,1814,0,0
511,-790,0,0,0,0,0,0,0,0,0,-1,1735,1814,0,0
518,-790,0,0,0,0,0,0,0,0,0,-1,1742,1814,0,0
525,-790,0,0,0,0,0,0,0,0,0,-1,1749,1814,0,0
532,-790,0,0,0,0,0,0,0,0,0,-1,1756,1814,0,0
539,-790,0,0,0,0,0,0,0,0,0,-1,1763,1814,0,0
546,-790,0,0,0,0,0,0,0,0,0,-1,1770,1814,0,0
553,-790,0,0,0,0,0,0,0,0,0,-1,1777,1814,0,0
560,-790,0,0,0,0,0,0,0,0,0,-1,1784,1814,0,0
567,-790,0,0,0,0,0,0,0,0,0,-1,1791,1814,0,0
574,-790,0,0,0,0,0,0,0,0,0,-1,1798,1814,0,0
581,-790,0,0,0,0,0,0,0,0,0,-1,1805,1814,0,0
588,-790,0,0,0,0,0,0,0,0,0,-1,1812,1814,0,0
595,-790,0,0,0,0,0,0,0,0,0,-1,1819,1814,0,0
602,-790,0,0,0,0,0,0,0,0,0,-1,1826,1814,0,0
609,-790,0,0,0,0,0,0,0,0,0,-1,1833,1814,0,0
616,-790,0,0,0,0,0,0,0,0,0,-1,1840,1814,0,0
623,-790,0,0,0,0,0,0,0,0,0,-1,1847,1814,0,0
630,-790,0,0,0,0,0,0,0,0,0,-1,1854,1814,0,0
637,-790,0,0,0,0,0,0,0,0,0,-1,1861,1814,0,0
644,-790,0,0,0,0,0,0,0,0,0,-1,1868,1814,0,0
651,-790,0,0,0,0,0,0,0,0,0,-1,1875,1814,0,0
658,-790,0,0,0,0,0,0,0,0,0,-1,1882,1814,0,0
665,-790,0,0,0,0,0,0,0,0,0,-1,1889,1814,0,0
672,-790,0,0,0,0,0,0,0,0,0,-1,1896,1814,0,0
679,-790,0,0,0,0,0,0,0,0,0,-1,1903,1814,0,0
686,-790,0,0,0,0,0,0,0,0,0,-1,1910,1814,0,0
693,-790,0,0,0,0,0,0,0,0,0,-1,1917,1814,0,0
700,-790,0,0,0,0,0,0,0,0,0,-1,1924,1814,0,0
707,-790,0,0,0,0,0,0,0,0,0,-1,1931,1814,0,0
714,-790,0,0,0,0,0,0,0,0,0,-1,1938,1814,0,0
721,-790,0,0,0,0,0,0,0,0,0,-1,1945,1814,0,0
728,-790,0,0,0,0,0,0,0,0,0,-1,1952,1814,0,0
735,-790,0,0,0,0,0,0,0,0,0,-1,1959,1814,0,0
742,-790,0,0,0,0,0,0,0,0,0,-1,1966,1814,0,0
749,-790,0,0,0,0,0,0,0,0,0,-1,1973,1814,0,0
756,-790,0,0,0,0,0,0,0,0,0,-1,1980,1814,0,0
763,-790,0,0,0,0,0,0,0,0,0,-1,1987,1814,0,0
770,-790,0,0,0,0,0,0,0,0,0,-1,1994,1814,0,0
777,-790,0,0,0,0,0,0,0,0,0,-1,2001,1814,0,0
784,-790,0,0,0,0,0,0,0,0,0,-1,2008,1814,0,0
791,-790,0,0,0,0,0,0,0,0,0,-1,2015,1814,0,0
798,-790,0,0,0,0,0,0,0,0,0,-1,2022,1814,0,0
805,-790,0,0,0,0,0,0,0,0,0,-1,2029,1814,0,0
812,-790,0,0,0,0,0,0,0,0,0,-1,2036,1814,0,0
-700,-797,0,0,0,0,0,0,0,0,0,-1,524,1821,0,0
-693,-797,0,0,0,0,0,0,0,0,0,-1,531,1821,0,0
-686,-797,0,0,0,0,0,0,0,0,0,-1,538,1821,0,0
-679,-797,0,0,0,0,0,0,0,0,0,-1,545,1821,0,0
-672,-797,0,0,0,0,0,0,0,0,0,-1,552,1821,0,0
-665,-797,0,0,0,0,0,0,0,0,0,-1,559,1821,0,0
-658,-797,0,0,0,0,0,0,0,0,0,-1,566,1821,0,0
-651,-797,0,0,0,0,0,0,0,0,0,-1,573,1821,0,0
-644,-797,0,0,0,0,0,0,0,0,0,-1,580,1821,0,0
-637,-797,0,0,0,0,0,0,0,0,0,-1,587,1821,0,0
-630,-797,0,0,0,0,0,0,0,0,0,-1,594,1821,0,0
-623,-797,0,0,0,0,0,0,0,0,0,-1,601,1821,0,0
-616,-797,0,0,0,0,0,0,0,0,0,-1,608,1821,0,0
-609,-797,0,0,0,0,0,0,0,0,0,-1,615,1821,0,0
-602,-797,0,0,0,0,0,0,0,0,0,-1,622,1821,0,0
-595,-797,0,0,0,0,0,0,0,0,0,-1,629,1821,0,0
-588,-797,0,0,0,0,0,0,0,0,0,-1,636,1821,0,0
-581,-797,0,0,0,0,0,0,0,0,0,-1,643,1821,0,0
-574,-797,0,0,0,0,0,0,0,0,0,-1,650,1821,0,0
-567,-797,0,0,0,0,0,0,0,0,0,-1,657,1821,0,0
-560,-797,0,0,0,0,0,0,0,0,0,-1,664,1821,0,0
-553,-797,0,0,0,0,0,0,0,0,0,-1,671,1821,0,0
-546,-797,0,0,0,0,0,0,0,0,0,-1,678,1821,0,0
-539,-797,0,0,0,0,0,0,0,0,0,-1,685,1821,0,0
-532,-797,0,0,0,0,0,0,0,0,0,-1,692,1821,0,0
-525,-797,0,0,0,0,0,0,0,0,0,-1,699,1821,0,0
-518,-797,0,0,0,0,0,0,0,0,0,-1,706,1821,0,0
-511,-797,0,0,0,0,0,0,0,0,0,-1,713,1821,0,0
-504,-797,0,0,0,0,0,0,0,0,0,-1,720,1821,0,0
-497,-797,0,0,0,0,0,0,0,0,0,-1,727,1821,0,0
-490,-797,0,0,0,0,0,0,0,0,0,-1,734,1821,0,0
-483,-797,0,0,0,0,0,0,0,0,0,-1,741,1821,0,0
-476,-797,0,0,0,0,0,0,0,0,0,-1,748,1821,0,0
-469,-797,0,0,0,0,0,0,0,0,0,-1,755,1821,0,0
-462,-797,0,0,0,0,0,0,0,0,0,-1,762,1821,0,0
-455,-797,0,0,0,0,0,0,0,0,0,-1,769,1821,0,0
-448,-797,0,0,0,0,0,0,0,0,0,-1,776,1821,0,0
-441,-797,0,0,0,0,0,0,0,0,0,-1,783,1821,0,0
-434,-797,0,0,0,0,0,0,0,0,0,-1,790,1821,0,0
-427,-797,0,0,0,0,0,0,0,0,0,-1,797,1821,0,0
-420,-797,0,0,0,0,0,0,0,0,0,-1,804,1821,0,0
-413,-797,0,0,0,0,0,0,0,0,0,-1,811,1821,0,0
-406,-797,0,0,0,0,0,0,0,0,0,-1,818,1821,0,0
-399,-797,0,0,0,0,0,0,0,0,0,-1,825,1821,0,0
-392,-797,0,0,0,0,0,0,0,0,0,-1,832,1821,0,0
-385,-797,0,0,0,0,0,0,0,0,0,-1,839,1821,0,0
-378,-797,0,0,0,0,0,0,0,0,0,-1,846,1821,0,0
-371,-797,0,0,0,0,0,0,0,0,0,-1,853,1821,0,0
-364,-797,0,0,0,0,0,0,0,0,0,-1,860,1821,0,0
-357,-797,0,0,0,0,0,0,0,0,0,-1,867,1821,0,0
-350,-797,0,0,0,0,0,0,0,0,0,-1,874,1821,0,0
-343,-797,0,0,0,0,0,0,0,0,0,-1,881,1821,0,0
-336,-797,0,0,0,0,0,0,0,0,0,-1,888,1821,0,0
-329,-797,0,0,0,0,0,0,0,0,0,-1,895,1821,0,0
-322,-797,0,0,0,0,0,0,0,0,0,-1,902,1821,0,0
-315,-797,0,0,0,0,0,0,0,0,0,-1,909,1821,0,0
-308,-797,0,0,0,0,0,0,0,0,0,-1,916,1821,0,0
-301,-797,0,0,0,0,0,0,0,0,0,-1,923,1821,0,0
-294,-797,0,0,0,0,0,0,0,0,0,-1,930,1821,0,0
-287,-797,0,0,0,0,0,0,0,0,0,-1,937,1821,0,0
-280,-797,0,0,0,0,0,0,0,0,0,-1,944,1821,0,0
-273,-797,0,0,0,0,0,0,0,0,0,-1,951,1821,0,0
-266,-797,0,0,0,0,0,0,0,0,0,-1,958,1821,0,0
-259,-797,0,0,0,0,0,0,0,0,0,-1,965,1821,0,0
-252,-797,0,0,0,0,0,0,0,0,0,-1,972,1821,0,0
-245,-797,0,0,0,0,0,0,0,0,0,-1,979,1821,0,0
-238,-797,0,0,0,0,0,0,0,0,0,-1,986,1821,0,0
-231,-797,0,0,0,0,0,0,0,0,0,-1,993,1821,0,0
-224,-797,0,0,0,0,0,0,0,0,0,-1,1000,1821,0,0
-217,-797,0,0,0,0,0,0,0,0,0,-1,1007,1821,0,0
-210,-797,0,0,0,0,0,0,0,0,0,-1,1014,1821,0,0
-203,-797,0,0,0,0,0,0,0,0,0,-1,1021,1821,0,0
-196,-797,0,0,0,0,0,0,0,0,0,-1,1028,1821,0,0
-189,-797,0,0,0,0,0,0,0,0,0,-1,1035,1821,0,0
-182,-797,0,0,0,0,0,0,0,0,0,-1,1042,1821,0,0
-175,-797,0,0,0,0,0,0,0,0,0,-1,1049,1821,0,0
-168,-797,0,0,0,0,0,0,0,0,0,-1,1056,1821,0,0
-161,-797,0,0,0,0,0,0,0,0,0,-1,1063,1821,0,0
-154,-797,0,0,0,0,0,0,0,0,0,-1,1070,1821,0,0
-147,-797,0,0,0,0,0,0,0,0,0,-1,1077,1821,0,0
-140,-797,0,0,0,0,0,0,0,0,0,-1,1084,1821,0,0
-133,-797,0,0,0,0,0,0,0,0,0,-1,1091,1821,0,0
-126,-797,0,0,0,0,0,0,0,0,0,-1,1098,1821,0,0
-119,-797,0,0,0,0,0,0,0,0,0,-1,1105,1821,0,0
-112,-797,0,0,0,0,0,0,0,0,0,-1,1112,1821,0,0
-105,-797,0,0,0,0,0,0,0,0,0,-1,1119,1821,0,0
-98,-797,0,0,0,0,0,0,0,0,0,-1,1126,1821,0,0
-91,-797,0,0,0,0,0,0,0,0,0,-1,1133,1821,0,0
-84,-797,0,0,0,0,0,0,0,0,0,-1,1140,1821,0,0
-77,-797,0,0,0,0,0,0,0,0,0,-1,1147,1821,0,0
-70,-797,0,0,0,0,0,0,0,0,0,-1,1154,1821,0,0
-63,-797,0,0,0,0,0,0,0,0,0,-1,1161,1821,0,0
-56,-797,0,0,0,0,0,0,0,0,0,-1,1168,1821,0,0
-49,-797,0,0,0,0,0,0,0,0,0,-1,1175,1821,0,0
-42,-797,0.579834,0.692871,0,0,0,0,0,0,0,-1,1182,1821,0.579856,-0.692816
-35,-797,-0.185425,5.55396,0,0,0,0,0,0,0,-1,1189,1821,-0.18542,-5.55396
-28,-797,-0.310181,4.71509,0,0,0,0,0,0,0,-1,1196,1821,-0.310228,-4.71503
-21,-797,6.22522,29.062,0,0,0,0,0,0,0,-1,1203,1821,6.22523,-29.062
-14,-797,11.6418,36.8258,0,0,0,0,0,0,0,-1,1210,1821,11.6418,-36.8258
-7,-797,10.5654,37.0282,0,0,0,0,0,0,0,-1,1217,1821,10.5654,-37.0282
0,-797,8.77759,38.7889,0,0,0,0,0,0,0,-1,1224,1821,8.77753,-38.7889
7,-797,8.31421,38.7794,-0.00628904,-0.0375407,-0.00805179,-0.00433654,-0.0394932,-0.237901,0.025009,0.0491482,1231,1821,8.31421,-38.7794
14,-797,8.16833,38.6213,-0.00404993,-0.0172734,-0.00663744,-0.00129307,-0.0200303,-0.393669,0.012944,0.0452877,1238,1821,8.16837,-38.6213
21,-797,8.3092,38.583,0.000870227,0.00132276,-0.00384601,0.00494915,-0.00275617,-0.81478,0.00450833,0.0461516,1245,1821,8.30926,-38.583
28,-797,7.10339,37.1378,0,0,0,0,0,0,0,-1,1252,1821,7.10337,-37.1378
35,-797,9.36243,35.2889,0,0,0,0,0,0,0,-1,1259,1821,9.36243,-35.2889
42,-797,5.65356,37.022,0,0,0,0,0,0,0,-1,1266,1821,5.65351,-37.0219
49,-797,6.02771,36.6958,0.0265759,0.0610592,0.00834276,0.0629715,0.0246635,1.34547,0.03664,0.04722,1273,1821,6.0277,-36.6958
56,-797,6.43689,36.4142,0.0347929,0.0698301,0.00946203,0.0722221,0.032401,1.32319,0.0417708,0.0467399,1280,1821,6.43693,-36.4142
63,-797,6.87415,36.1332,0.0484491,0.0747833,0.0047946,0.0756291,0.0476033,1.39619,0.0441494,0.0416599,1287,1821,6.87411,-36.1332
70,-797,7.35376,36.0568,0.0642258,0.0761619,-0.00290455,0.0768312,0.0635565,-1.34433,0.0474194,0.0424383,1294,1821,7.35373,-36.0568
77,-797,7.79138,35.5885,0.0837265,0.0737644,-0.0153654,0.094898,0.0625929,-0.628655,0.0557118,0.0427038,1301,1821,7.79136,-35.5884
84,-797,8.23413,36.3989,0,0,0,0,0,0,0,-1,1308,1821,8.23414,-36.3989
91,-797,7.83582,36.3046,0,0,0,0,0,0,0,-1,1315,1821,7.83582,-36.3046
98,-797,7.85852,36.7993,0,0,0,0,0,0,0,-1,1322,1821,7.85853,-36.7993
105,-797,11.1375,35.9758,0,0,0,0,0,0,0,-1,1329,1821,11.1375,-35.9758
112,-797,12.6075,35.2819,0.200151,0.0520648,-0.114358,0.262344,-0.0101278,-0.498102,0.178368,0.0478693,1336,1821,12.6075,-35.2818
119,-797,14.1008,34.5905,0.224103,0.0511986,-0.135374,0.298275,-0.022973,-0.501231,0.206933,0.0467224,1343,1821,14.1009,-34.5905
126,-797,15.7982,34.231,0.245169,0.0549044,-0.15301,0.33021,-0.0301362,-0.507273,0.230842,0.046746,1350,1821,15.7983,-34.231
133,-797,17.2968,34.0454,0,0,0,0,0,0,0,-1,1357,1821,17.2967,-34.0454
140,-797,18.6843,33.724,0,0,0,0,0,0,0,-1,1364,1821,18.6843,-33.724
147,-797,20.1085,33.3856,0,0,0,0,0,0,0,-1,1371,1821,20.1085,-33.3856
154,-797,40.2623,8.88733,0,0,0,0,0,0,0,-1,1378,1821,40.2623,-8.88731
161,-797,42.2798,8.17371,0,0,0,0,0,0,0,-1,1385,1821,42.2798,-8.17367
168,-797,0,0,0,0,0,0,0,0,0,-1,1392,1821,0,0
175,-797,0,0,0,0,0,0,0,0,0,-1,1399,1821,0,0
182,-797,0,0,0,0,0,0,0,0,0,-1,1406,1821,0,0
189,-797,0,0,0,0,0,0,0,0,0,-1,1413,1821,0,0
196,-797,0,0,0,0,0,0,0,0,0,-1,1420,1821,0,0
203,-797,0,0,0,0,0,0,0,0,0,-1,1427,1821,0,0
210,-797,0,0,0,0,0,0,0,0,0,-1,1434,1821,0,0
217,-797,0,0,0,0,0,0,0,0,0,-1,1441,1821,0,0
224,-797,0,0,0,0,0,0,0,0,0,-1,1448,1821,0,0
231,-797,0,0,0,0,0,0,0,0,0,-1,1455,1821,0,0
238,-797,0,0,0,0,0,0,0,0,0,-1,1462,1821,0,0
245,-797,0,0,0,0,0,0,0,0,0,-1,1469,1821,0,0
252,-797,0,0,0,0,0,0,0,0,0,-1,1476,1821,0,0
259,-797,0,0,0,0,0,0,0,0,0,-1,1483,1821,0,0
266,-797,0,0,0,0,0,0,0,0,0,-1,1490,1821,0,0
273,-797,0,0,0,0,0,0,0,0,0,-1,1497,1821,0,0
280,-797,0,0,0,0,0,0,0,0,0,-1,1504,1821,0,0
287,-797,0,0,0,0,0,0,0,0,0,-1,1511,1821,0,0
294,-797,0,0,0,0,0,0,0,0,0,-1,1518,1821,0,0
301,-797,0,0,0,0,0,0,0,0,0,-1,1525,1821,0,0
308,-797,0,0,0,0,0,0,0,0,0,-1,1532,1821,0,0
315,-797,0,0,0,0,0,0,0,0,0,-1,1539,1821,0,0
322,-797,0,0,0,0,0,0,0,0,0,-1,1546,1821,0,0
329,-797,0,0,0,0,0,0,0,0,0,-1,1553,1821,0,0
336,-797,0,0,0,0,0,0,0,0,0,-1,1560,1821,0,0
343,-797,0,0,0,0,0,0,0,0,0,-1,1567,1821,0,0
350,-797,0,0,0,0,0,0,0,0,0,-1,1574,1821,0,0
357,-797,0,0,0,0,0,0,0,0,0,-1,1581,1821,0,0
364,-797,0,0,0,0,0,0,0,0,0,-1,1588,1821,0,0
371,-797,0,0,0,0,0,0,0,0,0,-1,1595,1821,0,0
378,-797,0,0,0,0,0,0,0,0,0,-1,1602,1821,0,0
385,-797,0,0,0,0,0,0,0,0,0,-1,1609,1821,0,0
392,-797,0,0,0,0,0,0,0,0,0,-1,1616,1821,0,0
399,-797,0,0,0,0,0,0,0,0,0,-1,1623,1821,0,0
406,-797,0,0,0,0,0,0,0,0,0,-1,1630,1821,0,0
413,-797,0,0,0,0,0,0,0,0,0,-1,1637,1821,0,0
420,-797,0,0,0,0,0,0,0,0,0,-1,1644,1821,0,0
427,-797,0,0,0,0,0,0,0,0,0,-1,1651,1821,0,0
434,-797,0,0,0,0,0,0,0,0,0,-1,1658,1821,0,0
441,-797,0,0,0,0,0,0,0,0,0,-1,1665,1821,0,0
448,-797,0,0,0,0,0,0,0,0,0,-1,1672,1821,0,0
455,-797,0,0,0,0,0,0,0,0,0,-1,1679,1821,0,0
462,-797,0,0,0,0,0,0,0,0,0,-1,1686,1821,0,0
469,-797,0,0,0,0,0,0,0,0,0,-1,1693,1821,0,0
476,-797,0,0,0,0,0,0,0,0,0,-1,1700,1821,0,0
483,-797,0,0,0,0,0,0,0,0,0,-1,1707,1821,0,0
490,-797,0,0,0,0,0,0,0,0,0,-1,1714,1821,0,0
497,-797,0,0,0,0,0,0,0,0,0,-1,1721,1821,0,0
504,-797,0,0,0,0,0,0,0,0,0,-1,1728,1821,0,0
511,-797,0,0,0,0,0,0,0,0,0,-1,1735,1821,0,0
518,-797,0,0,0,0,0,0,0,0,0,-1,1742,1821,0,0
525,-797,0,0,0,0,0,0,0,0,0,-1,1749,1821,0,0
532,-797,0,0,0,0,0,0,0,0,0,-1,1756,1821,0,0
539,-797,0,0,0,0,0,0,0,0,0,-1,1763,1821,0,0
546,-797,0,0,0,0,0,0,0,0,0,-1,1770,1821,0,0
553,-797,0,0,0,0,0,0,0,0,0,-1,1777,1821,0,0
560,-797,0,0,0,0,0,0,0,0,0,-1,1784,1821,0,0
567,-797,0,0,0,0,0,0,0,0,0,-1,1791,1821,0,0
574,-797,0,0,0,0,0,0,0,0,0,-1,1798,1821,0,0
581,-797,0,0,0,0,0,0,0,0,0,-1,1805,1821,0,0
588,-797,0,0,0,0,0,0,0,0,0,-1,1812,1821,0,0
595,-797,0,0,0,0,0,0,0,0,0,-1,1819,1821,0,0
602,-797,0,0,0,0,0,0,0,0,0,-1,1826,1821,0,0
609,-797,0,0,0,0,0,0,0,0,0,-1,1833,1821,0,0
616,-797,0,0,0,0,0,0,0,0,0,-1,1840,1821,0,0
623,-797,0,0,0,0,0,0,0,0,0,-1,1847,1821,0,0
630,-797,0,0,0,0,0,0,0,0,0,-1,1854,1821,0,0
637,-797,0,0,0,0,0,0,0,0,0,-1,1861,1821,0,0
644,-797,0,0,0,0,0,0,0,0,0,-1,1868,1821,0,0
651,-797,0,0,0,0,0,0,0,0,0,-1,1875,1821,0,0
658,-797,0,0,0,0,0,0,0,0,0,-1,1882,1821,0,0
665,-797,0,0,0,0,0,0,0,0,0,-1,1889,1821,0,0
672,-797,0,0,0,0,0,0,0,0,0,-1,1896,1821,0,0
679,-797,0,0,0,0,0,0,0,0,0,-1,1903,1821,0,0
686,-797,0,0,0,0,0,0,0,0,0,-1,1910,1821,0,0
693,-797,0,0,0,0,0,0,0,0,0,-1,1917,1821,0,0
700,-797,0,0,0,0,0,0,0,0,0,-1,1924,1821,0,0
707,-797,0,0,0,0,0,0,0,0,0,-1,1931,1821,0,0
714,-797,0,0,0,0,0,0,0,0,0,-1,1938,1821,0,0
721,-797,0,0,0,0,0,0,0,0,0,-1,1945,1821,0,0
728,-797,0,0,0,0,0,0,0,0,0,-1,1952,1821,0,0
735,-797,0,0,0,0,0,0,0,0,0,-1,1959,1821,0,0
742,-797,0,0,0,0,0,0,0,0,0,-1,1966,1821,0,0
749,-797,0,0,0,0,0,0,0,0,0,-1,1973,1821,0,0
756,-797,0,0,0,0,0,0,0,0,0,-1,1980,1821,0,0
763,-797,0,0,0,0,0,0,0,0,0,-1,1987,1821,0,0
770,-797,0,0,0,0,0,0,0,0,0,-1,1994,1821,0,0
777,-797,0,0,0,0,0,0,0,0,0,-1,2001,1821,0,0
784,-797,0,0,0,0,0,0,0,0,0,-1,2008,1821,0,0
791,-797,0,0,0,0,0,0,0,0,0,-1,2015,1821,0,0
798,-797,0,0,0,0,0,0,0,0,0,-1,2022,1821,0,0
805,-797,0,0,0,0,0,0,0,0,0,-1,2029,1821,0,0
812,-797,0,0,0,0,0,0,0,0,0,-1,2036,1821,0,0
-700,-804,0,0,0,0,0,0,0,0,0,-1,524,1828,0,0
-693,-804,0,0,0,0,0,0,0,0,0,-1,531,1828,0,0
-686,-804,0,0,0,0,0,0,0,0,0,-1,538,1828,0,0
-679,-804,0,0,0,0,0,0,0,0,0,-1,545,1828,0,0
-672,-804,0,0,0,0,0,0,0,0,0,-1,552,1828,0,0
-665,-804,0,0,0,0,0,0,0,0,0,-1,559,1828,0,0
-658,-804,0,0,0,0,0,0,0,0,0,-1,566,1828,0,0
-651,-804,0,0,0,0,0,0,0,0,0,-1,573,1828,0,0
-644,-804,0,0,0,0,0,0,0,0,0,-1,580,1828,0,0
-637,-804,0,0,0,0,0,0,0,0,0,-1,587,1828,0,0
-630,-804,0,0,0,0,0,0,0,0,0,-1,594,1828,0,0
-623,-804,0,0,0,0,0,0,0,0,0,-1,601,1828,0,0
-616,-804,0,0,0,0,0,0,0,0,0,-1,608,1828,0,0
-609,-804,0,0,0,0,0,0,0,0,0,-1,615,1828,0,0
-602,-804,0,0,0,0,0,0,0,0,0,-1,622,1828,0,0
-595,-804,0,0,0,0,0,0,0,0,0,-1,629,1828,0,0
-588,-804,0,0,0,0,0,0,0,0,0,-1,636,1828,0,0
-581,-804,0,0,0,0,0,0,0,0,0,-1,643,1828,0,0
-574,-804,0,0,0,0,0,0,0,0,0,-1,650,1828,0,0
-567,-804,0,0,0,0,0,0,0,0,0,-1,657,1828,0,0
-560,-804,0,0,0,0,0,0,0,0,0,-1,664,1828,0,0
-553,-804,0,0,0,0,0,0,0,0,0,-1,671,1828,0,0
-546,-804,0,0,0,0,0,0,0,0,0,-1,678,1828,0,0
-539,-804,0,0,0,0,0,0,0,0,0,-1,685,1828,0,0
-532,-804,0,0,0,0,0,0,0,0,0,-1,692,1828,0,0
-525,-804,0,0,0,0,0,0,0,0,0,-1,699,1828,0,0
-518,-804,0,0,0,0,0,0,0,0,0,-1,706,1828,0,0
-511,-804,0,0,0,0,0,0,0,0,0,-1,713,1828,0,0
-504,-804,0,0,0,0,0,0,0,0,0,-1,720,1828,0,0
-497,-804,0,0,0,0,0,0,0,0,0,-1,727,1828,0,0
-490,-804,0,0,0,0,0,0,0,0,0,-1,734,1828,0,0
-483,-804,0,0,0,0,0,0,0,0,0,-1,741,1828,0,0
-476,-804,0,0,0,0,0,0,0,0,0,-1,748,1828,0,0
-469,-804,0,0,0,0,0,0,0,0,0,-1,755,1828,0,0
-462,-804,0,0,0,0,0,0,0,0,0,-1,762,1828,0,0
-455,-804,0,0,0,0,0,0,0,0,0,-1,769,1828,0,0
-448,-804,0,0,0,0,0,0,0,0,0,-1,776,1828,0,0
-441,-804,0,0,0,0,0,0,0,0,0,-1,783,1828,0,0
-434,-804,0,0,0,0,0,0,0,0,0,-1,790,1828,0,0
-427,-804,0,0,0,0,0,0,0,0,0,-1,797,1828,0,0
-420,-804,0,0,0,0,0,0,0,0,0,-1,804,1828,0,0
-413,-804,0,0,0,0,0,0,0,0,0,-1,811,1828,0,0
-406,-804,0,0,0,0,0,0,0,0,0,-1,818,1828,0,0
-399,-804,0,0,0,0,0,0,0,0,0,-1,825,1828,0,0
-392,-804,0,0,0,0,0,0,0,0,0,-1,832,1828,0,0
-385,-804,0,0,0,0,0,0,0,0,0,-1,839,1828,0,0
-378,-804,0,0,0,0,0,0,0,0,0,-1,846,1828,0,0
-371,-804,0,0,0,0,0,0,0,0,0,-1,853,1828,0,0
-364,-804,0,0,0,0,0,0,0,0,0,-1,860,1828,0,0
-357,-804,0,0,0,0,0,0,0,0,0,-1,867,1828,0,0
-350,-804,0,0,0,0,0,0,0,0,0,-1,874,1828,0,0
-343,-804,0,0,0,0,0,0,0,0,0,-1,881,1828,0,0
-336,-804,0,0,0,0,0,0,0,0,0,-1,888,1828,0,0
-329,-804,0,0,0,0,0,0,0,0,0,-1,895,1828,0,0
-322,-804,0,0,0,0,0,0,0,0,0,-1,902,1828,0,0
-315,-804,0,0,0,0,0,0,0,0,0,-1,909,1828,0,0
-308,-804,0,0,0,0,0,0,0,0,0,-1,916,1828,0,0
-301,-804,0,0,0,0,0,0,0,0,0,-1,923,1828,0,0
-294,-804,0,0,0,0,0,0,0,0,0,-1,930,1828,0,0
-287,-804,0,0,0,0,0,0,0,0,0,-1,937,1828,0,0
-280,-804,0,0,0,0,0,0,0,0,0,-1,944,1828,0,0
-273,-804,0,0,0,0,0,0,0,0,0,-1,951,1828,0,0
-266,-804,0,0,0,0,0,0,0,0,0,-1,958,1828,0,0
-259,-804,0,0,0,0,0,0,0,0,0,-1,965,1828,0,0
-252,-804,0,0,0,0,0,0,0,0,0,-1,972,1828,0,0
-245,-804,0,0,0,0,0,0,0,0,0,-1,979,1828,0,0
-238,-804,0,0,0,0,0,0,0,0,0,-1,986,1828,0,0
-231,-804,0,0,0,0,0,0,0,0,0,-1,993,1828,0,0
-224,-804,0,0,0,0,0,0,0,0,0,-1,1000,1828,0,0
-217,-804,0,0,0,0,0,0,0,0,0,-1,1007,1828,0,0
-210,-804,0,0,0,0,0,0,0,0,0,-1,1014,1828,0,0
-203,-804,0,0,0,0,0,0,0,0,0,-1,1021,1828,0,0
-196,-804,0,0,0,0,0,0,0,0,0,-1,1028,1828,0,0
-189,-804,0,0,0,0,0,0,0,0,0,-1,1035,1828,0,0
-182,-804,0,0,0,0,0,0,0,0,0,-1,1042,1828,0,0
-175,-804,0,0,0,0,0,0,0,0,0,-1,1049,1828,0,0
-168,-804,0,0,0,0,0,0,0,0,0,-1,1056,1828,0,0
-161,-804,0,0,0,0,0,0,0,0,0,-1,1063,1828,0,0
-154,-804,0,0,0,0,0,0,0,0,0,-1,1070,1828,0,0
-147,-804,0,0,0,0,0,0,0,0,0,-1,1077,1828,0,0
-140,-804,0,0,0,0,0,0,0,0,0,-1,1084,1828,0,0
-133,-804,0,0,0,0,0,0,0,0,0,-1,1091,1828,0,0
-126,-804,0,0,0,0,0,0,0,0,0,-1,1098,1828,0,0
-119,-804,0,0,0,0,0,0,0,0,0,-1,1105,1828,0,0
-112,-804,0,0,0,0,0,0,0,0,0,-1,1112,1828,0,0
-105,-804,0,0,0,0,0,0,0,0,0,-1,1119,1828,0,0
-98,-804,0,0,0,0,0,0,0,0,0,-1,1126,1828,0,0
-91,-804,0,0,0,0,0,0,0,0,0,-1,1133,1828,0,0
-84,-804,0,0,0,0,0,0,0,0,0,-1,1140,1828,0,0
-77,-804,0,0,0,0,0,0,0,0,0,-1,1147,1828,0,0
-70,-804,0,0,0,0,0,0,0,0,0,-1,1154,1828,0,0
-63,-804,0,0,0,0,0,0,0,0,0,-1,1161,1828,0,0
-56,-804,0,0,0,0,0,0,0,0,0,-1,1168,1828,0,0
-49,-804,0,0,0,0,0,0,0,0,0,-1,1175,1828,0,0
-42,-804,0,0,0,0,0,0,0,0,0,-1,1182,1828,0,0
-35,-804,0,0,0,0,0,0,0,0,0,-1,1189,1828,0,0
-28,-804,0,0,0,0,0,0,0,0,0,-1,1196,1828,0,0
-21,-804,0,0,0,0,0,0,0,0,0,-1,1203,1828,0,0
-14,-804,0,0,0,0,0,0,0,0,0,-1,1210,1828,0,0
-7,-804,0,0,0,0,0,0,0,0,0,-1,1217,1828,0,0
0,-804,0,0,0,0,0,0,0,0,0,-1,1224,1828,0,0
7,-804,0,0,0,0,0,0,0,0,0,-1,1231,1828,0,0
14,-804,0,0,0,0,0,0,0,0,0,-1,1238,1828,0,0
21,-804,0,0,0,0,0,0,0,0,0,-1,1245,1828,0,0
28,-804,0,0,0,0,0,0,0,0,0,-1,1252,1828,0,0
35,-804,4.70398,36.8506,0,0,0,0,0,0,0,-1,1259,1828,4.70403,-36.8506
42,-804,5.05164,36.424,0,0,0,0,0,0,0,-1,1266,1828,5.05169,-36.4239
49,-804,5.32373,36.0427,0.0410461,0.0811056,0.0158913,0.0866439,0.0355078,1.23545,0.0502944,0.0441752,1273,1828,5.32371,-36.0427
56,-804,5.75635,35.6171,0.0502488,0.0913511,0.0181006,0.0981857,0.0434142,1.20975,0.0568138,0.0450168,1280,1828,5.7564,-35.617
63,-804,6.30896,35.1982,0.0655255,0.0965718,0.0134426,0.101583,0.060514,1.21395,0.0590062,0.0421849,1287,1828,6.30898,-35.1983
70,-804,6.6615,35.6445,0.0837734,0.0972944,0.00425599,0.0985225,0.0825453,1.28987,0.0610568,0.045186,1294,1828,6.66145,-35.6446
77,-804,7.19043,35.828,0.105829,0.0938709,-0.0108259,0.112217,0.0874827,-0.533097,0.0680812,0.0471139,1301,1828,7.19047,-35.828
84,-804,7.73425,36.0903,0,0,0,0,0,0,0,-1,1308,1828,7.73419,-36.0904
91,-804,0,0,0,0,0,0,0,0,0,-1,1315,1828,0,0
98,-804,0,0,0,0,0,0,0,0,0,-1,1322,1828,0,0
105,-804,0,0,0,0,0,0,0,0,0,-1,1329,1828,0,0
112,-804,0,0,0,0,0,0,0,0,0,-1,1336,1828,0,0
119,-804,0,0,0,0,0,0,0,0,0,-1,1343,1828,0,0
126,-804,0,0,0,0,0,0,0,0,0,-1,1350,1828,0,0
133,-804,0,0,0,0,0,0,0,0,0,-1,1357,1828,0,0
140,-804,0,0,0,0,0,0,0,0,0,-1,1364,1828,0,0
147,-804,0,0,0,0,0,0,0,0,0,-1,1371,1828,0,0
154,-804,0,0,0,0,0,0,0,0,0,-1,1378,1828,0,0
161,-804,0,0,0,0,0,0,0,0,0,-1,1385,1828,0,0
168,-804,0,0,0,0,0,0,0,0,0,-1,1392,1828,0,0
175,-804,0,0,0,0,0,0,0,0,0,-1,1399,1828,0,0
182,-804,0,0,0,0,0,0,0,0,0,-1,1406,1828,0,0
189,-804,0,0,0,0,0,0,0,0,0,-1,1413,1828,0,0
196,-804,0,0,0,0,0,0,0,0,0,-1,1420,1828,0,0
203,-804,0,0,0,0,0,0,0,0,0,-1,1427,1828,0,0
210,-804,0,0,0,0,0,0,0,0,0,-1,1434,1828,0,0
217,-804,0,0,0,0,0,0,0,0,0,-1,1441,1828,0,0
224,-804,0,0,0,0,0,0,0,0,0,-1,1448,1828,0,0
231,-804,0,0,0,0,0,0,0,0,0,-1,1455,1828,0,0
238,-804,0,0,0,0,0,0,0,0,0,-1,1462,1828,0,0
245,-804,0,0,0,0,0,0,0,0,0,-1,1469,1828,0,0
252,-804,0,0,0,0,0,0,0,0,0,-1,1476,1828,0,0
259,-804,0,0,0,0,0,0,0,0,0,-1,1483,1828,0,0
266,-804,0,0,0,0,0,0,0,0,0,-1,1490,1828,0,0
273,-804,0,0,0,0,0,0,0,0,0,-1,1497,1828,0,0
280,-804,0,0,0,0,0,0,0,0,0,-1,1504,1828,0,0
287,-804,0,0,0,0,0,0,0,0,0,-1,1511,1828,0,0
294,-804,0,0,0,0,0,0,0,0,0,-1,1518,1828,0,0
301,-804,0,0,0,0,0,0,0,0,0,-1,1525,1828,0,0
308,-804,0,0,0,0,0,0,0,0,0,-1,1532,1828,0,0
315,-804,0,0,0,0,0,0,0,0,0,-1,1539,1828,0,0
322,-804,0,0,0,0,0,0,0,0,0,-1,1546,1828,0,0
329,-804,0,0,0,0,0,0,0,0,0,-1,1553,1828,0,0
336,-804,0,0,0,0,0,0,0,0,0,-1,1560,1828,0,0
343,-804,0,0,0,0,0,0,0,0,0,-1,1567,1828,0,0
350,-804,0,0,0,0,0,0,0,0,0,-1,1574,1828,0,0
357,-804,0,0,0,0,0,0,0,0,0,-1,1581,1828,0,0
364,-804,0,0,0,0,0,0,0,0,0,-1,1588,1828,0,0
371,-804,0,0,0,0,0,0,0,0,0,-1,1595,1828,0,0
378,-804,0,0,0,0,0,0,0,0,0,-1,1602,1828,0,0
385,-804,0,0,0,0,0,0,0,0,0,-1,1609,1828,0,0
392,-804,0,0,0,0,0,0,0,0,0,-1,1616,1828,0,0
399,-804,0,0,0,0,0,0,0,0,0,-1,1623,1828,0,0
406,-804,0,0,0,0,0,0,0,0,0,-1,1630,1828,0,0
413,-804,0,0,0,0,0,0,0,0,0,-1,1637,1828,0,0
420,-804,0,0,0,0,0,0,0,0,0,-1,1644,1828,0,0
427,-804,0,0,0,0,0,0,0,0,0,-1,1651,1828,0,0
434,-804,0,0,0,0,0,0,0,0,0,-1,1658,1828,0,0
441,-804,0,0,0,0,0,0,0,0,0,-1,1665,1828,0,0
448,-804,0,0,0,0,0,0,0,0,0,-1,1672,1828,0,0
455,-804,0,0,0,0,0,0,0,0,0,-1,1679,1828,0,0
462,-804,0,0,0,0,0,0,0,0,0,-1,1686,1828,0,0
469,-804,0,0,0,0,0,0,0,0,0,-1,1693,1828,0,0
476,-804,0,0,0,0,0,0,0,0,0,-1,1700,1828,0,0
483,-804,0,0,0,0,0,0,0,0,0,-1,1707,1828,0,0
490,-804,0,0,0,0,0,0,0,0,0,-1,1714,1828,0,0
497,-804,0,0,0,0,0,0,0,0,0,-1,1721,1828,0,0
504,-804,0,0,0,0,0,0,0,0,0,-1,1728,1828,0,0
511,-804,0,0,0,0,0,0,0,0,0,-1,1735,1828,0,0
518,-804,0,0,0,0,0,0,0,0,0,-1,1742,1828,0,0
525,-804,0,0,0,0,0,0,0,0,0,-1,1749,1828,0,0
532,-804,0,0,0,0,0,0,0,0,0,-1,1756,1828,0,0
539,-804,0,0,0,0,0,0,0,0,0,-1,1763,1828,0,0
546,-804,0,0,0,0,0,0,0,0,0,-1,1770,1828,0,0
553,-804,0,0,0,0,0,0,0,0,0,-1,1777,1828,0,0
560,-804,0,0,0,0,0,0,0,0,0,-1,1784,1828,0,0
567,-804,0,0,0,0,0,0,0,0,0,-1,1791,1828,0,0
574,-804,0,0,0,0,0,0,0,0,0,-1,1798,1828,0,0
581,-804,0,0,0,0,0,0,0,0,0,-1,1805,1828,0,0
588,-804,0,0,0,0,0,0,0,0,0,-1,1812,1828,0,0
595,-804,0,0,0,0,0,0,0,0,0,-1,1819,1828,0,0
602,-804,0,0,0,0,0,0,0,0,0,-1,1826,1828,0,0
609,-804,0,0,0,0,0,0,0,0,0,-1,1833,1828,0,0
616,-804,0,0,0,0,0,0,0,0,0,-1,1840,1828,0,0
623,-804,0,0,0,0,0,0,0,0,0,-1,1847,1828,0,0
630,-804,0,0,0,0,0,0,0,0,0,-1,1854,1828,0,0
637,-804,0,0,0,0,0,0,0,0,0,-1,1861,1828,0,0
644,-804,0,0,0,0,0,0,0,0,0,-1,1868,1828,0,0
651,-804,0,0,0,0,0,0,0,0,0,-1,1875,1828,0,0
658,-804,0,0,0,0,0,0,0,0,0,-1,1882,1828,0,0
665,-804,0,0,0,0,0,0,0,0,0,-1,1889,1828,0,0
672,-804,0,0,0,0,0,0,0,0,0,-1,1896,1828,0,0
679,-804,0,0,0,0,0,0,0,0,0,-1,1903,1828,0,0
686,-804,0,0,0,0,0,0,0,0,0,-1,1910,1828,0,0
693,-804,0,0,0,0,0,0,0,0,0,-1,1917,1828,0,0
700,-804,0,0,0,0,0,0,0,0,0,-1,1924,1828,0,0
707,-804,0,0,0,0,0,0,0,0,0,-1,1931,1828,0,0
714,-804,0,0,0,0,0,0,0,0,0,-1,1938,1828,0,0
721,-804,0,0,0,0,0,0,0,0,0,-1,1945,1828,0,0
728,-804,0,0,0,0,0,0,0,0,0,-1,1952,1828,0,0
735,-804,0,0,0,0,0,0,0,0,0,-1,1959,1828,0,0
742,-804,0,0,0,0,0,0,0,0,0,-1,1966,1828,0,0
749,-804,0,0,0,0,0,0,0,0,0,-1,1973,1828,0,0
756,-804,0,0,0,0,0,0,0,0,0,-1,1980,1828,0,0
763,-804,0,0,0,0,0,0,0,0,0,-1,1987,1828,0,0
770,-804,0,0,0,0,0,0,0,0,0,-1,1994,1828,0,0
777,-804,0,0,0,0,0,0,0,0,0,-1,2001,1828,0,0
784,-804,0,0,0,0,0,0,0,0,0,-1,2008,1828,0,0
791,-804,0,0,0,0,0,0,0,0,0,-1,2015,1828,0,0
798,-804,0,0,0,0,0,0,0,0,0,-1,2022,1828,0,0
805,-804,0,0,0,0,0,0,0,0,0,-1,2029,1828,0,0
812,-804,0,0,0,0,0,0,0,0,0,-1,2036,1828,0,0

