 "x_c",  "y_c",  "u_c",  "v_c",  "exx",  "eyy",  "exy",  "e1",  "e2",  "gamma",  "e_vonmises",  "sigma",  "x",  "y",  "u",  "v"
-700,715,0,0,0,0,0,0,0,0,0,-1,524,309,0,0
-693,715,0,0,0,0,0,0,0,0,0,-1,531,309,0,0
-686,715,0,0,0,0,0,0,0,0,0,-1,538,309,0,0
-679,715,0,0,0,0,0,0,0,0,0,-1,545,309,0,0
-672,715,0,0,0,0,0,0,0,0,0,-1,552,309,0,0
-665,715,0,0,0,0,0,0,0,0,0,-1,559,309,0,0
-658,715,0,0,0,0,0,0,0,0,0,-1,566,309,0,0
-651,715,0,0,0,0,0,0,0,0,0,-1,573,309,0,0
-644,715,0,0,0,0,0,0,0,0,0,-1,580,309,0,0
-637,715,0,0,0,0,0,0,0,0,0,-1,587,309,0,0
-630,715,0,0,0,0,0,0,0,0,0,-1,594,309,0,0
-623,715,0,0,0,0,0,0,0,0,0,-1,601,309,0,0
-616,715,0,0,0,0,0,0,0,0,0,-1,608,309,0,0
-609,715,0,0,0,0,0,0,0,0,0,-1,615,309,0,0
-602,715,0,0,0,0,0,0,0,0,0,-1,622,309,0,0
-595,715,0,0,0,0,0,0,0,0,0,-1,629,309,0,0
-588,715,0,0,0,0,0,0,0,0,0,-1,636,309,0,0
-581,715,0,0,0,0,0,0,0,0,0,-1,643,309,0,0
-574,715,0,0,0,0,0,0,0,0,0,-1,650,309,0,0
-567,715,0,0,0,0,0,0,0,0,0,-1,657,309,0,0
-560,715,0,0,0,0,0,0,0,0,0,-1,664,309,0,0
-553,715,0,0,0,0,0,0,0,0,0,-1,671,309,0,0
-546,715,0,0,0,0,0,0,0,0,0,-1,678,309,0,0
-539,715,0,0,0,0,0,0,0,0,0,-1,685,309,0,0
-532,715,0,0,0,0,0,0,0,0,0,-1,692,309,0,0
-525,715,0,0,0,0,0,0,0,0,0,-1,699,309,0,0
-518,715,0,0,0,0,0,0,0,0,0,-1,706,309,0,0
-511,715,0,0,0,0,0,0,0,0,0,-1,713,309,0,0
-504,715,0,0,0,0,0,0,0,0,0,-1,720,309,0,0
-497,715,0,0,0,0,0,0,0,0,0,-1,727,309,0,0
-490,715,0,0,0,0,0,0,0,0,0,-1,734,309,0,0
-483,715,0,0,0,0,0,0,0,0,0,-1,741,309,0,0
-476,715,0,0,0,0,0,0,0,0,0,-1,748,309,0,0
-469,715,0,0,0,0,0,0,0,0,0,-1,755,309,0,0
-462,715,0,0,0,0,0,0,0,0,0,-1,762,309,0,0
-455,715,0,0,0,0,0,0,0,0,0,-1,769,309,0,0
-448,715,0,0,0,0,0,0,0,0,0,-1,776,309,0,0
-441,715,0,0,0,0,0,0,0,0,0,-1,783,309,0,0
-434,715,0,0,0,0,0,0,0,0,0,-1,790,309,0,0
-427,715,0,0,0,0,0,0,0,0,0,-1,797,309,0,0
-420,715,0,0,0,0,0,0,0,0,0,-1,804,309,0,0
-413,715,0,0,0,0,0,0,0,0,0,-1,811,309,0,0
-406,715,0,0,0,0,0,0,0,0,0,-1,818,309,0,0
-399,715,0,0,0,0,0,0,0,0,0,-1,825,309,0,0
-392,715,0,0,0,0,0,0,0,0,0,-1,832,309,0,0
-385,715,0,0,0,0,0,0,0,0,0,-1,839,309,0,0
-378,715,0,0,0,0,0,0,0,0,0,-1,846,309,0,0
-371,715,0,0,0,0,0,0,0,0,0,-1,853,309,0,0
-364,715,0,0,0,0,0,0,0,0,0,-1,860,309,0,0
-357,715,0,0,0,0,0,0,0,0,0,-1,867,309,0,0
-350,715,0,0,0,0,0,0,0,0,0,-1,874,309,0,0
-343,715,0,0,0,0,0,0,0,0,0,-1,881,309,0,0
-336,715,0,0,0,0,0,0,0,0,0,-1,888,309,0,0
-329,715,0,0,0,0,0,0,0,0,0,-1,895,309,0,0
-322,715,0,0,0,0,0,0,0,0,0,-1,902,309,0,0
-315,715,0,0,0,0,0,0,0,0,0,-1,909,309,0,0
-308,715,0,0,0,0,0,0,0,0,0,-1,916,309,0,0
-301,715,0,0,0,0,0,0,0,0,0,-1,923,309,0,0
-294,715,0,0,0,0,0,0,0,0,0,-1,930,309,0,0
-287,715,0,0,0,0,0,0,0,0,0,-1,937,309,0,0
-280,715,0,0,0,0,0,0,0,0,0,-1,944,309,0,0
-273,715,0,0,0,0,0,0,0,0,0,-1,951,309,0,0
-266,715,0,0,0,0,0,0,0,0,0,-1,958,309,0,0
-259,715,0,0,0,0,0,0,0,0,0,-1,965,309,0,0
-252,715,0,0,0,0,0,0,0,0,0,-1,972,309,0,0
-245,715,0,0,0,0,0,0,0,0,0,-1,979,309,0,0
-238,715,0,0,0,0,0,0,0,0,0,-1,986,309,0,0
-231,715,0,0,0,0,0,0,0,0,0,-1,993,309,0,0
-224,715,0,0,0,0,0,0,0,0,0,-1,1000,309,0,0
-217,715,0,0,0,0,0,0,0,0,0,-1,1007,309,0,0
-210,715,0,0,0,0,0,0,0,0,0,-1,1014,309,0,0
-203,715,0,0,0,0,0,0,0,0,0,-1,1021,309,0,0
-196,715,0,0,0,0,0,0,0,0,0,-1,1028,309,0,0
-189,715,0,0,0,0,0,0,0,0,0,-1,1035,309,0,0
-182,715,0,0,0,0,0,0,0,0,0,-1,1042,309,0,0
-175,715,0,0,0,0,0,0,0,0,0,-1,1049,309,0,0
-168,715,0,0,0,0,0,0,0,0,0,-1,1056,309,0,0
-161,715,0,0,0,0,0,0,0,0,0,-1,1063,309,0,0
-154,715,0,0,0,0,0,0,0,0,0,-1,1070,309,0,0
-147,715,0,0,0,0,0,0,0,0,0,-1,1077,309,0,0
-140,715,0,0,0,0,0,0,0,0,0,-1,1084,309,0,0
-133,715,0,0,0,0,0,0,0,0,0,-1,1091,309,0,0
-126,715,0,0,0,0,0,0,0,0,0,-1,1098,309,0,0
-119,715,0,0,0,0,0,0,0,0,0,-1,1105,309,0,0
-112,715,0,0,0,0,0,0,0,0,0,-1,1112,309,0,0
-105,715,0,0,0,0,0,0,0,0,0,-1,1119,309,0,0
-98,715,0,0,0,0,0,0,0,0,0,-1,1126,309,0,0
-91,715,0,0,0,0,0,0,0,0,0,-1,1133,309,0,0
-84,715,0,0,0,0,0,0,0,0,0,-1,1140,309,0,0
-77,715,0,0,0,0,0,0,0,0,0,-1,1147,309,0,0
-70,715,0,0,0,0,0,0,0,0,0,-1,1154,309,0,0
-63,715,0,0,0,0,0,0,0,0,0,-1,1161,309,0,0
-56,715,0,0,0,0,0,0,0,0,0,-1,1168,309,0,0
-49,715,0,0,0,0,0,0,0,0,0,-1,1175,309,0,0
-42,715,0,0,0,0,0,0,0,0,0,-1,1182,309,0,0
-35,715,0,0,0,0,0,0,0,0,0,-1,1189,309,0,0
-28,715,0,0,0,0,0,0,0,0,0,-1,1196,309,0,0
-21,715,0,0,0,0,0,0,0,0,0,-1,1203,309,0,0
-14,715,0,0,0,0,0,0,0,0,0,-1,1210,309,0,0
-7,715,0,0,0,0,0,0,0,0,0,-1,1217,309,0,0
0,715,0,0,0,0,0,0,0,0,0,-1,1224,309,0,0
7,715,0,0,0,0,0,0,0,0,0,-1,1231,309,0,0
14,715,0,0,0,0,0,0,0,0,0,-1,1238,309,0,0
21,715,0,0,0,0,0,0,0,0,0,-1,1245,309,0,0
28,715,0,0,0,0,0,0,0,0,0,-1,1252,309,0,0
35,715,0,0,0,0,0,0,0,0,0,-1,1259,309,0,0
42,715,0,0,0,0,0,0,0,0,0,-1,1266,309,0,0
49,715,0,0,0,0,0,0,0,0,0,-1,1273,309,0,0
56,715,0,0,0,0,0,0,0,0,0,-1,1280,309,0,0
63,715,9.26831,-57.0974,-0.0167895,0.192015,-0.00643144,0.192213,-0.0169874,-1.54003,0.134163,0.046398,1287,309,9.26833,57.0974
70,715,9.17065,-57.6466,0,0,0,0,0,0,0,-1,1294,309,9.1706,57.6466
77,715,0,0,0,0,0,0,0,0,0,-1,1301,309,0,0
84,715,0,0,0,0,0,0,0,0,0,-1,1308,309,0,0
91,715,0,0,0,0,0,0,0,0,0,-1,1315,309,0,0
98,715,0,0,0,0,0,0,0,0,0,-1,1322,309,0,0
105,715,0,0,0,0,0,0,0,0,0,-1,1329,309,0,0
112,715,0,0,0,0,0,0,0,0,0,-1,1336,309,0,0
119,715,0,0,0,0,0,0,0,0,0,-1,1343,309,0,0
126,715,0,0,0,0,0,0,0,0,0,-1,1350,309,0,0
133,715,0,0,0,0,0,0,0,0,0,-1,1357,309,0,0
140,715,0,0,0,0,0,0,0,0,0,-1,1364,309,0,0
147,715,0,0,0,0,0,0,0,0,0,-1,1371,309,0,0
154,715,0,0,0,0,0,0,0,0,0,-1,1378,309,0,0
161,715,0,0,0,0,0,0,0,0,0,-1,1385,309,0,0
168,715,0,0,0,0,0,0,0,0,0,-1,1392,309,0,0
175,715,0,0,0,0,0,0,0,0,0,-1,1399,309,0,0
182,715,0,0,0,0,0,0,0,0,0,-1,1406,309,0,0
189,715,0,0,0,0,0,0,0,0,0,-1,1413,309,0,0
196,715,0,0,0,0,0,0,0,0,0,-1,1420,309,0,0
203,715,0,0,0,0,0,0,0,0,0,-1,1427,309,0,0
210,715,0,0,0,0,0,0,0,0,0,-1,1434,309,0,0
217,715,0,0,0,0,0,0,0,0,0,-1,1441,309,0,0
224,715,0,0,0,0,0,0,0,0,0,-1,1448,309,0,0
231,715,0,0,0,0,0,0,0,0,0,-1,1455,309,0,0
238,715,0,0,0,0,0,0,0,0,0,-1,1462,309,0,0
245,715,0,0,0,0,0,0,0,0,0,-1,1469,309,0,0
252,715,0,0,0,0,0,0,0,0,0,-1,1476,309,0,0
259,715,0,0,0,0,0,0,0,0,0,-1,1483,309,0,0
266,715,0,0,0,0,0,0,0,0,0,-1,1490,309,0,0
273,715,0,0,0,0,0,0,0,0,0,-1,1497,309,0,0
280,715,0,0,0,0,0,0,0,0,0,-1,1504,309,0,0
287,715,0,0,0,0,0,0,0,0,0,-1,1511,309,0,0
294,715,0,0,0,0,0,0,0,0,0,-1,1518,309,0,0
301,715,0,0,0,0,0,0,0,0,0,-1,1525,309,0,0
308,715,0,0,0,0,0,0,0,0,0,-1,1532,309,0,0
315,715,0,0,0,0,0,0,0,0,0,-1,1539,309,0,0
322,715,0,0,0,0,0,0,0,0,0,-1,1546,309,0,0
329,715,0,0,0,0,0,0,0,0,0,-1,1553,309,0,0
336,715,0,0,0,0,0,0,0,0,0,-1,1560,309,0,0
343,715,0,0,0,0,0,0,0,0,0,-1,1567,309,0,0
350,715,0,0,0,0,0,0,0,0,0,-1,1574,309,0,0
357,715,0,0,0,0,0,0,0,0,0,-1,1581,309,0,0
364,715,0,0,0,0,0,0,0,0,0,-1,1588,309,0,0
371,715,0,0,0,0,0,0,0,0,0,-1,1595,309,0,0
378,715,0,0,0,0,0,0,0,0,0,-1,1602,309,0,0
385,715,0,0,0,0,0,0,0,0,0,-1,1609,309,0,0
392,715,0,0,0,0,0,0,0,0,0,-1,1616,309,0,0
399,715,0,0,0,0,0,0,0,0,0,-1,1623,309,0,0
406,715,0,0,0,0,0,0,0,0,0,-1,1630,309,0,0
413,715,0,0,0,0,0,0,0,0,0,-1,1637,309,0,0
420,715,0,0,0,0,0,0,0,0,0,-1,1644,309,0,0
427,715,0,0,0,0,0,0,0,0,0,-1,1651,309,0,0
434,715,0,0,0,0,0,0,0,0,0,-1,1658,309,0,0
441,715,0,0,0,0,0,0,0,0,0,-1,1665,309,0,0
448,715,0,0,0,0,0,0,0,0,0,-1,1672,309,0,0
455,715,0,0,0,0,0,0,0,0,0,-1,1679,309,0,0
462,715,0,0,0,0,0,0,0,0,0,-1,1686,309,0,0
469,715,0,0,0,0,0,0,0,0,0,-1,1693,309,0,0
476,715,0,0,0,0,0,0,0,0,0,-1,1700,309,0,0
483,715,0,0,0,0,0,0,0,0,0,-1,1707,309,0,0
490,715,0,0,0,0,0,0,0,0,0,-1,1714,309,0,0
497,715,0,0,0,0,0,0,0,0,0,-1,1721,309,0,0
504,715,0,0,0,0,0,0,0,0,0,-1,1728,309,0,0
511,715,0,0,0,0,0,0,0,0,0,-1,1735,309,0,0
518,715,0,0,0,0,0,0,0,0,0,-1,1742,309,0,0
525,715,0,0,0,0,0,0,0,0,0,-1,1749,309,0,0
532,715,0,0,0,0,0,0,0,0,0,-1,1756,309,0,0
539,715,0,0,0,0,0,0,0,0,0,-1,1763,309,0,0
546,715,0,0,0,0,0,0,0,0,0,-1,1770,309,0,0
553,715,0,0,0,0,0,0,0,0,0,-1,1777,309,0,0
560,715,0,0,0,0,0,0,0,0,0,-1,1784,309,0,0
567,715,0,0,0,0,0,0,0,0,0,-1,1791,309,0,0
574,715,0,0,0,0,0,0,0,0,0,-1,1798,309,0,0
581,715,0,0,0,0,0,0,0,0,0,-1,1805,309,0,0
588,715,0,0,0,0,0,0,0,0,0,-1,1812,309,0,0
595,715,0,0,0,0,0,0,0,0,0,-1,1819,309,0,0
602,715,0,0,0,0,0,0,0,0,0,-1,1826,309,0,0
609,715,0,0,0,0,0,0,0,0,0,-1,1833,309,0,0
616,715,0,0,0,0,0,0,0,0,0,-1,1840,309,0,0
623,715,0,0,0,0,0,0,0,0,0,-1,1847,309,0,0
630,715,0,0,0,0,0,0,0,0,0,-1,1854,309,0,0
637,715,0,0,0,0,0,0,0,0,0,-1,1861,309,0,0
644,715,0,0,0,0,0,0,0,0,0,-1,1868,309,0,0
651,715,0,0,0,0,0,0,0,0,0,-1,1875,309,0,0
658,715,0,0,0,0,0,0,0,0,0,-1,1882,309,0,0
665,715,0,0,0,0,0,0,0,0,0,-1,1889,309,0,0
672,715,0,0,0,0,0,0,0,0,0,-1,1896,309,0,0
679,715,0,0,0,0,0,0,0,0,0,-1,1903,309,0,0
686,715,0,0,0,0,0,0,0,0,0,-1,1910,309,0,0
693,715,0,0,0,0,0,0,0,0,0,-1,1917,309,0,0
700,715,0,0,0,0,0,0,0,0,0,-1,1924,309,0,0
707,715,0,0,0,0,0,0,0,0,0,-1,1931,309,0,0
714,715,0,0,0,0,0,0,0,0,0,-1,1938,309,0,0
721,715,0,0,0,0,0,0,0,0,0,-1,1945,309,0,0
728,715,0,0,0,0,0,0,0,0,0,-1,1952,309,0,0
735,715,0,0,0,0,0,0,0,0,0,-1,1959,309,0,0
742,715,0,0,0,0,0,0,0,0,0,-1,1966,309,0,0
749,715,0,0,0,0,0,0,0,0,0,-1,1973,309,0,0
756,715,0,0,0,0,0,0,0,0,0,-1,1980,309,0,0
763,715,0,0,0,0,0,0,0,0,0,-1,1987,309,0,0
770,715,0,0,0,0,0,0,0,0,0,-1,1994,309,0,0
777,715,0,0,0,0,0,0,0,0,0,-1,2001,309,0,0
784,715,0,0,0,0,0,0,0,0,0,-1,2008,309,0,0
791,715,0,0,0,0,0,0,0,0,0,-1,2015,309,0,0
798,715,0,0,0,0,0,0,0,0,0,-1,2022,309,0,0
805,715,0,0,0,0,0,0,0,0,0,-1,2029,309,0,0
812,715,0,0,0,0,0,0,0,0,0,-1,2036,309,0,0
-700,708,0,0,0,0,0,0,0,0,0,-1,524,316,0,0
-693,708,0,0,0,0,0,0,0,0,0,-1,531,316,0,0
-686,708,0,0,0,0,0,0,0,0,0,-1,538,316,0,0
-679,708,0,0,0,0,0,0,0,0,0,-1,545,316,0,0
-672,708,0,0,0,0,0,0,0,0,0,-1,552,316,0,0
-665,708,0,0,0,0,0,0,0,0,0,-1,559,316,0,0
-658,708,0,0,0,0,0,0,0,0,0,-1,566,316,0,0
-651,708,0,0,0,0,0,0,0,0,0,-1,573,316,0,0
-644,708,0,0,0,0,0,0,0,0,0,-1,580,316,0,0
-637,708,0,0,0,0,0,0,0,0,0,-1,587,316,0,0
-630,708,0,0,0,0,0,0,0,0,0,-1,594,316,0,0
-623,708,0,0,0,0,0,0,0,0,0,-1,601,316,0,0
-616,708,0,0,0,0,0,0,0,0,0,-1,608,316,0,0
-609,708,0,0,0,0,0,0,0,0,0,-1,615,316,0,0
-602,708,0,0,0,0,0,0,0,0,0,-1,622,316,0,0
-595,708,0,0,0,0,0,0,0,0,0,-1,629,316,0,0
-588,708,0,0,0,0,0,0,0,0,0,-1,636,316,0,0
-581,708,0,0,0,0,0,0,0,0,0,-1,643,316,0,0
-574,708,0,0,0,0,0,0,0,0,0,-1,650,316,0,0
-567,708,0,0,0,0,0,0,0,0,0,-1,657,316,0,0
-560,708,0,0,0,0,0,0,0,0,0,-1,664,316,0,0
-553,708,0,0,0,0,0,0,0,0,0,-1,671,316,0,0
-546,708,0,0,0,0,0,0,0,0,0,-1,678,316,0,0
-539,708,0,0,0,0,0,0,0,0,0,-1,685,316,0,0
-532,708,0,0,0,0,0,0,0,0,0,-1,692,316,0,0
-525,708,0,0,0,0,0,0,0,0,0,-1,699,316,0,0
-518,708,0,0,0,0,0,0,0,0,0,-1,706,316,0,0
-511,708,0,0,0,0,0,0,0,0,0,-1,713,316,0,0
-504,708,0,0,0,0,0,0,0,0,0,-1,720,316,0,0
-497,708,0,0,0,0,0,0,0,0,0,-1,727,316,0,0
-490,708,0,0,0,0,0,0,0,0,0,-1,734,316,0,0
-483,708,0,0,0,0,0,0,0,0,0,-1,741,316,0,0
-476,708,0,0,0,0,0,0,0,0,0,-1,748,316,0,0
-469,708,0,0,0,0,0,0,0,0,0,-1,755,316,0,0
-462,708,0,0,0,0,0,0,0,0,0,-1,762,316,0,0
-455,708,0,0,0,0,0,0,0,0,0,-1,769,316,0,0
-448,708,0,0,0,0,0,0,0,0,0,-1,776,316,0,0
-441,708,0,0,0,0,0,0,0,0,0,-1,783,316,0,0
-434,708,0,0,0,0,0,0,0,0,0,-1,790,316,0,0
-427,708,0,0,0,0,0,0,0,0,0,-1,797,316,0,0
-420,708,0,0,0,0,0,0,0,0,0,-1,804,316,0,0
-413,708,0,0,0,0,0,0,0,0,0,-1,811,316,0,0
-406,708,0,0,0,0,0,0,0,0,0,-1,818,316,0,0
-399,708,0,0,0,0,0,0,0,0,0,-1,825,316,0,0
-392,708,0,0,0,0,0,0,0,0,0,-1,832,316,0,0
-385,708,0,0,0,0,0,0,0,0,0,-1,839,316,0,0
-378,708,0,0,0,0,0,0,0,0,0,-1,846,316,0,0
-371,708,0,0,0,0,0,0,0,0,0,-1,853,316,0,0
-364,708,0,0,0,0,0,0,0,0,0,-1,860,316,0,0
-357,708,0,0,0,0,0,0,0,0,0,-1,867,316,0,0
-350,708,0,0,0,0,0,0,0,0,0,-1,874,316,0,0
-343,708,0,0,0,0,0,0,0,0,0,-1,881,316,0,0
-336,708,0,0,0,0,0,0,0,0,0,-1,888,316,0,0
-329,708,0,0,0,0,0,0,0,0,0,-1,895,316,0,0
-322,708,0,0,0,0,0,0,0,0,0,-1,902,316,0,0
-315,708,0,0,0,0,0,0,0,0,0,-1,909,316,0,0
-308,708,0,0,0,0,0,0,0,0,0,-1,916,316,0,0
-301,708,0,0,0,0,0,0,0,0,0,-1,923,316,0,0
-294,708,0,0,0,0,0,0,0,0,0,-1,930,316,0,0
-287,708,0,0,0,0,0,0,0,0,0,-1,937,316,0,0
-280,708,0,0,0,0,0,0,0,0,0,-1,944,316,0,0
-273,708,0,0,0,0,0,0,0,0,0,-1,951,316,0,0
-266,708,0,0,0,0,0,0,0,0,0,-1,958,316,0,0
-259,708,0,0,0,0,0,0,0,0,0,-1,965,316,0,0
-252,708,0,0,0,0,0,0,0,0,0,-1,972,316,0,0
-245,708,0,0,0,0,0,0,0,0,0,-1,979,316,0,0
-238,708,0,0,0,0,0,0,0,0,0,-1,986,316,0,0
-231,708,0,0,0,0,0,0,0,0,0,-1,993,316,0,0
-224,708,0,0,0,0,0,0,0,0,0,-1,1000,316,0,0
-217,708,0,0,0,0,0,0,0,0,0,-1,1007,316,0,0
-210,708,0,0,0,0,0,0,0,0,0,-1,1014,316,0,0
-203,708,0,0,0,0,0,0,0,0,0,-1,1021,316,0,0
-196,708,0,0,0,0,0,0,0,0,0,-1,1028,316,0,0
-189,708,0,0,0,0,0,0,0,0,0,-1,1035,316,0,0
-182,708,0,0,0,0,0,0,0,0,0,-1,1042,316,0,0
-175,708,0,0,0,0,0,0,0,0,0,-1,1049,316,0,0
-168,708,0,0,0,0,0,0,0,0,0,-1,1056,316,0,0
-161,708,0,0,0,0,0,0,0,0,0,-1,1063,316,0,0
-154,708,0,0,0,0,0,0,0,0,0,-1,1070,316,0,0
-147,708,0,0,0,0,0,0,0,0,0,-1,1077,316,0,0
-140,708,0,0,0,0,0,0,0,0,0,-1,1084,316,0,0
-133,708,0,0,0,0,0,0,0,0,0,-1,1091,316,0,0
-126,708,0,0,0,0,0,0,0,0,0,-1,1098,316,0,0
-119,708,0,0,0,0,0,0,0,0,0,-1,1105,316,0,0
-112,708,0,0,0,0,0,0,0,0,0,-1,1112,316,0,0
-105,708,0,0,0,0,0,0,0,0,0,-1,1119,316,0,0
-98,708,0,0,0,0,0,0,0,0,0,-1,1126,316,0,0
-91,708,0,0,0,0,0,0,0,0,0,-1,1133,316,0,0
-84,708,0,0,0,0,0,0,0,0,0,-1,1140,316,0,0
-77,708,0,0,0,0,0,0,0,0,0,-1,1147,316,0,0
-70,708,0,0,0,0,0,0,0,0,0,-1,1154,316,0,0
-63,708,0,0,0,0,0,0,0,0,0,-1,1161,316,0,0
-56,708,0,0,0,0,0,0,0,0,0,-1,1168,316,0,0
-49,708,0,0,0,0,0,0,0,0,0,-1,1175,316,0,0
-42,708,0,0,0,0,0,0,0,0,0,-1,1182,316,0,0
-35,708,-2.71204,-6.31558,0,0,0,0,0,0,0,-1,1189,316,-2.712,6.3156
-28,708,-2.92371,-5.53253,0,0,0,0,0,0,0,-1,1196,316,-2.92375,5.53254
-21,708,-0.417969,-24.5911,0,0,0,0,0,0,0,-1,1203,316,-0.418022,24.5911
-14,708,9.33142,-60.389,0,0,0,0,0,0,0,-1,1210,316,9.33139,60.389
-7,708,9.19324,-60.2095,-0.0212712,0.138642,-0.0210777,0.141373,-0.0240028,-1.44192,0.103185,0.0465244,1217,316,9.19321,60.2095
0,708,9.08435,-60.0336,-0.0248313,0.156652,-0.0144544,0.157796,-0.0259753,-1.49181,0.114839,0.0478011,1224,316,9.08436,60.0336
7,708,8.97729,-59.872,0,0,0,0,0,0,0,-1,1231,316,8.97734,59.872
14,708,9.04883,-59.5423,0,0,0,0,0,0,0,-1,1238,316,9.04881,59.5423
21,708,8.89612,-59.6856,0,0,0,0,0,0,0,-1,1245,316,8.89617,59.6856
28,708,8.69006,-59.404,0,0,0,0,0,0,0,-1,1252,316,8.69001,59.404
35,708,8.54883,-59.1315,-0.0227983,0.17084,-0.00472446,0.170955,-0.0229135,-1.54642,0.122325,0.0495282,1259,316,8.54885,59.1315
42,708,8.44824,-59.1028,-0.020506,0.168355,-0.00385432,0.168434,-0.0205847,-1.5504,0.119742,0.0473545,1266,316,8.44821,59.1027
49,708,8.35962,-59.0046,0,0,0,0,0,0,0,-1,1273,316,8.35959,59.0046
56,708,9.1239,-57.3527,-0.016274,0.18051,-0.0014325,0.18052,-0.0162844,-1.56352,0.126126,0.0482038,1280,316,9.12394,57.3527
63,708,8.97107,-57.8985,-0.0134655,0.186191,-0.000194792,0.186191,-0.0134657,-1.56982,0.128851,0.0470046,1287,316,8.97113,57.8985
70,708,8.8302,-58.4329,0,0,0,0,0,0,0,-1,1294,316,8.83018,58.4329
77,708,9.00208,-54.7472,0,0,0,0,0,0,0,-1,1301,316,9.00206,54.7472
84,708,8.42456,-54.5663,-0.0111386,0.233487,0.00649437,0.233659,-0.0113109,1.54427,0.159677,0.0442891,1308,316,8.42457,54.5663
91,708,8.06091,-54.4266,0,0,0,0,0,0,0,-1,1315,316,8.06088,54.4266
98,708,7.6394,-54.1674,-0.0129725,0.282282,0.0124877,0.28281,-0.0134997,1.5286,0.193197,0.0437281,1322,316,7.63944,54.1674
105,708,7.55127,-54.0554,-0.0152222,0.305264,0.0145452,0.305923,-0.015881,1.52554,0.209443,0.0425986,1329,316,7.55127,54.0554
112,708,7.83911,-53.9518,0,0,0,0,0,0,0,-1,1336,316,7.83913,53.9518
119,708,6.8606,-52.9742,-0.0205797,0.346007,0.0178896,0.346878,-0.0214506,1.52215,0.238723,0.044826,1343,316,6.8606,52.9742
126,708,6.45361,-52.5577,0,0,0,0,0,0,0,-1,1350,316,6.45362,52.5577
133,708,6.19165,-52.118,0,0,0,0,0,0,0,-1,1357,316,6.19164,52.1179
140,708,-1.70703,-56.965,0,0,0,0,0,0,0,-1,1364,316,-1.70702,56.965
147,708,-3.21436,-57.2386,0,0,0,0,0,0,0,-1,1371,316,-3.21441,57.2386
154,708,0,0,0,0,0,0,0,0,0,-1,1378,316,0,0
161,708,0,0,0,0,0,0,0,0,0,-1,1385,316,0,0
168,708,0,0,0,0,0,0,0,0,0,-1,1392,316,0,0
175,708,0,0,0,0,0,0,0,0,0,-1,1399,316,0,0
182,708,0,0,0,0,0,0,0,0,0,-1,1406,316,0,0
189,708,0,0,0,0,0,0,0,0,0,-1,1413,316,0,0
196,708,0,0,0,0,0,0,0,0,0,-1,1420,316,0,0
203,708,0,0,0,0,0,0,0,0,0,-1,1427,316,0,0
210,708,0,0,0,0,0,0,0,0,0,-1,1434,316,0,0
217,708,0,0,0,0,0,0,0,0,0,-1,1441,316,0,0
224,708,0,0,0,0,0,0,0,0,0,-1,1448,316,0,0
231,708,0,0,0,0,0,0,0,0,0,-1,1455,316,0,0
238,708,0,0,0,0,0,0,0,0,0,-1,1462,316,0,0
245,708,0,0,0,0,0,0,0,0,0,-1,1469,316,0,0
252,708,0,0,0,0,0,0,0,0,0,-1,1476,316,0,0
259,708,0,0,0,0,0,0,0,0,0,-1,1483,316,0,0
266,708,0,0,0,0,0,0,0,0,0,-1,1490,316,0,0
273,708,0,0,0,0,0,0,0,0,0,-1,1497,316,0,0
280,708,0,0,0,0,0,0,0,0,0,-1,1504,316,0,0
287,708,0,0,0,0,0,0,0,0,0,-1,1511,316,0,0
294,708,0,0,0,0,0,0,0,0,0,-1,1518,316,0,0
301,708,0,0,0,0,0,0,0,0,0,-1,1525,316,0,0
308,708,0,0,0,0,0,0,0,0,0,-1,1532,316,0,0
315,708,0,0,0,0,0,0,0,0,0,-1,1539,316,0,0
322,708,0,0,0,0,0,0,0,0,0,-1,1546,316,0,0
329,708,0,0,0,0,0,0,0,0,0,-1,1553,316,0,0
336,708,0,0,0,0,0,0,0,0,0,-1,1560,316,0,0
343,708,0,0,0,0,0,0,0,0,0,-1,1567,316,0,0
350,708,0,0,0,0,0,0,0,0,0,-1,1574,316,0,0
357,708,0,0,0,0,0,0,0,0,0,-1,1581,316,0,0
364,708,0,0,0,0,0,0,0,0,0,-1,1588,316,0,0
371,708,0,0,0,0,0,0,0,0,0,-1,1595,316,0,0
378,708,0,0,0,0,0,0,0,0,0,-1,1602,316,0,0
385,708,0,0,0,0,0,0,0,0,0,-1,1609,316,0,0
392,708,0,0,0,0,0,0,0,0,0,-1,1616,316,0,0
399,708,0,0,0,0,0,0,0,0,0,-1,1623,316,0,0
406,708,0,0,0,0,0,0,0,0,0,-1,1630,316,0,0
413,708,0,0,0,0,0,0,0,0,0,-1,1637,316,0,0
420,708,0,0,0,0,0,0,0,0,0,-1,1644,316,0,0
427,708,0,0,0,0,0,0,0,0,0,-1,1651,316,0,0
434,708,0,0,0,0,0,0,0,0,0,-1,1658,316,0,0
441,708,0,0,0,0,0,0,0,0,0,-1,1665,316,0,0
448,708,0,0,0,0,0,0,0,0,0,-1,1672,316,0,0
455,708,0,0,0,0,0,0,0,0,0,-1,1679,316,0,0
462,708,0,0,0,0,0,0,0,0,0,-1,1686,316,0,0
469,708,0,0,0,0,0,0,0,0,0,-1,1693,316,0,0
476,708,0,0,0,0,0,0,0,0,0,-1,1700,316,0,0
483,708,0,0,0,0,0,0,0,0,0,-1,1707,316,0,0
490,708,0,0,0,0,0,0,0,0,0,-1,1714,316,0,0
497,708,0,0,0,0,0,0,0,0,0,-1,1721,316,0,0
504,708,0,0,0,0,0,0,0,0,0,-1,1728,316,0,0
511,708,0,0,0,0,0,0,0,0,0,-1,1735,316,0,0
518,708,0,0,0,0,0,0,0,0,0,-1,1742,316,0,0
525,708,0,0,0,0,0,0,0,0,0,-1,1749,316,0,0
532,708,0,0,0,0,0,0,0,0,0,-1,1756,316,0,0
539,708,0,0,0,0,0,0,0,0,0,-1,1763,316,0,0
546,708,0,0,0,0,0,0,0,0,0,-1,1770,316,0,0
553,708,0,0,0,0,0,0,0,0,0,-1,1777,316,0,0
560,708,0,0,0,0,0,0,0,0,0,-1,1784,316,0,0
567,708,0,0,0,0,0,0,0,0,0,-1,1791,316,0,0
574,708,0,0,0,0,0,0,0,0,0,-1,1798,316,0,0
581,708,0,0,0,0,0,0,0,0,0,-1,1805,316,0,0
588,708,0,0,0,0,0,0,0,0,0,-1,1812,316,0,0
595,708,0,0,0,0,0,0,0,0,0,-1,1819,316,0,0
602,708,0,0,0,0,0,0,0,0,0,-1,1826,316,0,0
609,708,0,0,0,0,0,0,0,0,0,-1,1833,316,0,0
616,708,0,0,0,0,0,0,0,0,0,-1,1840,316,0,0
623,708,0,0,0,0,0,0,0,0,0,-1,1847,316,0,0
630,708,0,0,0,0,0,0,0,0,0,-1,1854,316,0,0
637,708,0,0,0,0,0,0,0,0,0,-1,1861,316,0,0
644,708,0,0,0,0,0,0,0,0,0,-1,1868,316,0,0
651,708,0,0,0,0,0,0,0,0,0,-1,1875,316,0,0
658,708,0,0,0,0,0,0,0,0,0,-1,1882,316,0,0
665,708,0,0,0,0,0,0,0,0,0,-1,1889,316,0,0
672,708,0,0,0,0,0,0,0,0,0,-1,1896,316,0,0
679,708,0,0,0,0,0,0,0,0,0,-1,1903,316,0,0
686,708,0,0,0,0,0,0,0,0,0,-1,1910,316,0,0
693,708,0,0,0,0,0,0,0,0,0,-1,1917,316,0,0
700,708,0,0,0,0,0,0,0,0,0,-1,1924,316,0,0
707,708,0,0,0,0,0,0,0,0,0,-1,1931,316,0,0
714,708,0,0,0,0,0,0,0,0,0,-1,1938,316,0,0
721,708,0,0,0,0,0,0,0,0,0,-1,1945,316,0,0
728,708,0,0,0,0,0,0,0,0,0,-1,1952,316,0,0
735,708,0,0,0,0,0,0,0,0,0,-1,1959,316,0,0
742,708,0,0,0,0,0,0,0,0,0,-1,1966,316,0,0
749,708,0,0,0,0,0,0,0,0,0,-1,1973,316,0,0
756,708,0,0,0,0,0,0,0,0,0,-1,1980,316,0,0
763,708,0,0,0,0,0,0,0,0,0,-1,1987,316,0,0
770,708,0,0,0,0,0,0,0,0,0,-1,1994,316,0,0
777,708,0,0,0,0,0,0,0,0,0,-1,2001,316,0,0
784,708,0,0,0,0,0,0,0,0,0,-1,2008,316,0,0
791,708,0,0,0,0,0,0,0,0,0,-1,2015,316,0,0
798,708,0,0,0,0,0,0,0,0,0,-1,2022,316,0,0
805,708,0,0,0,0,0,0,0,0,0,-1,2029,316,0,0
812,708,0,0,0,0,0,0,0,0,0,-1,2036,316,0,0
-700,701,0,0,0,0,0,0,0,0,0,-1,524,323,0,0
-693,701,0,0,0,0,0,0,0,0,0,-1,531,323,0,0
-686,701,0,0,0,0,0,0,0,0,0,-1,538,323,0,0
-679,701,0,0,0,0,0,0,0,0,0,-1,545,323,0,0
-672,701,0,0,0,0,0,0,0,0,0,-1,552,323,0,0
-665,701,0,0,0,0,0,0,0,0,0,-1,559,323,0,0
-658,701,0,0,0,0,0,0,0,0,0,-1,566,323,0,0
-651,701,0,0,0,0,0,0,0,0,0,-1,573,323,0,0
-644,701,0,0,0,0,0,0,0,0,0,-1,580,323,0,0
-637,701,0,0,0,0,0,0,0,0,0,-1,587,323,0,0
-630,701,0,0,0,0,0,0,0,0,0,-1,594,323,0,0
-623,701,0,0,0,0,0,0,0,0,0,-1,601,323,0,0
-616,701,0,0,0,0,0,0,0,0,0,-1,608,323,0,0
-609,701,0,0,0,0,0,0,0,0,0,-1,615,323,0,0
-602,701,0,0,0,0,0,0,0,0,0,-1,622,323,0,0
-595,701,0,0,0,0,0,0,0,0,0,-1,629,323,0,0
-588,701,0,0,0,0,0,0,0,0,0,-1,636,323,0,0
-581,701,0,0,0,0,0,0,0,0,0,-1,643,323,0,0
-574,701,0,0,0,0,0,0,0,0,0,-1,650,323,0,0
-567,701,0,0,0,0,0,0,0,0,0,-1,657,323,0,0
-560,701,0,0,0,0,0,0,0,0,0,-1,664,323,0,0
-553,701,0,0,0,0,0,0,0,0,0,-1,671,323,0,0
-546,701,0,0,0,0,0,0,0,0,0,-1,678,323,0,0
-539,701,0,0,0,0,0,0,0,0,0,-1,685,323,0,0
-532,701,0,0,0,0,0,0,0,0,0,-1,692,323,0,0
-525,701,0,0,0,0,0,0,0,0,0,-1,699,323,0,0
-518,701,0,0,0,0,0,0,0,0,0,-1,706,323,0,0
-511,701,0,0,0,0,0,0,0,0,0,-1,713,323,0,0
-504,701,0,0,0,0,0,0,0,0,0,-1,720,323,0,0
-497,701,0,0,0,0,0,0,0,0,0,-1,727,323,0,0
-490,701,0,0,0,0,0,0,0,0,0,-1,734,323,0,0
-483,701,0,0,0,0,0,0,0,0,0,-1,741,323,0,0
-476,701,0,0,0,0,0,0,0,0,0,-1,748,323,0,0
-469,701,0,0,0,0,0,0,0,0,0,-1,755,323,0,0
-462,701,0,0,0,0,0,0,0,0,0,-1,762,323,0,0
-455,701,0,0,0,0,0,0,0,0,0,-1,769,323,0,0
-448,701,0,0,0,0,0,0,0,0,0,-1,776,323,0,0
-441,701,0,0,0,0,0,0,0,0,0,-1,783,323,0,0
-434,701,0,0,0,0,0,0,0,0,0,-1,790,323,0,0
-427,701,0,0,0,0,0,0,0,0,0,-1,797,323,0,0
-420,701,0,0,0,0,0,0,0,0,0,-1,804,323,0,0
-413,701,0,0,0,0,0,0,0,0,0,-1,811,323,0,0
-406,701,0,0,0,0,0,0,0,0,0,-1,818,323,0,0
-399,701,0,0,0,0,0,0,0,0,0,-1,825,323,0,0
-392,701,0,0,0,0,0,0,0,0,0,-1,832,323,0,0
-385,701,0,0,0,0,0,0,0,0,0,-1,839,323,0,0
-378,701,0,0,0,0,0,0,0,0,0,-1,846,323,0,0
-371,701,0,0,0,0,0,0,0,0,0,-1,853,323,0,0
-364,701,0,0,0,0,0,0,0,0,0,-1,860,323,0,0
-357,701,0,0,0,0,0,0,0,0,0,-1,867,323,0,0
-350,701,0,0,0,0,0,0,0,0,0,-1,874,323,0,0
-343,701,0,0,0,0,0,0,0,0,0,-1,881,323,0,0
-336,701,0,0,0,0,0,0,0,0,0,-1,888,323,0,0
-329,701,0,0,0,0,0,0,0,0,0,-1,895,323,0,0
-322,701,0,0,0,0,0,0,0,0,0,-1,902,323,0,0
-315,701,0,0,0,0,0,0,0,0,0,-1,909,323,0,0
-308,701,0,0,0,0,0,0,0,0,0,-1,916,323,0,0
-301,701,0,0,0,0,0,0,0,0,0,-1,923,323,0,0
-294,701,0,0,0,0,0,0,0,0,0,-1,930,323,0,0
-287,701,0,0,0,0,0,0,0,0,0,-1,937,323,0,0
-280,701,0,0,0,0,0,0,0,0,0,-1,944,323,0,0
-273,701,0,0,0,0,0,0,0,0,0,-1,951,323,0,0
-266,701,0,0,0,0,0,0,0,0,0,-1,958,323,0,0
-259,701,0,0,0,0,0,0,0,0,0,-1,965,323,0,0
-252,701,0,0,0,0,0,0,0,0,0,-1,972,323,0,0
-245,701,0,0,0,0,0,0,0,0,0,-1,979,323,0,0
-238,701,0,0,0,0,0,0,0,0,0,-1,986,323,0,0
-231,701,0,0,0,0,0,0,0,0,0,-1,993,323,0,0
-224,701,0,0,0,0,0,0,0,0,0,-1,1000,323,0,0
-217,701,0,0,0,0,0,0,0,0,0,-1,1007,323,0,0
-210,701,0,0,0,0,0,0,0,0,0,-1,1014,323,0,0
-203,701,0,0,0,0,0,0,0,0,0,-1,1021,323,0,0
-196,701,0,0,0,0,0,0,0,0,0,-1,1028,323,0,0
-189,701,0,0,0,0,0,0,0,0,0,-1,1035,323,0,0
-182,701,0,0,0,0,0,0,0,0,0,-1,1042,323,0,0
-175,701,0,0,0,0,0,0,0,0,0,-1,1049,323,0,0
-168,701,0,0,0,0,0,0,0,0,0,-1,1056,323,0,0
-161,701,0,0,0,0,0,0,0,0,0,-1,1063,323,0,0
-154,701,0,0,0,0,0,0,0,0,0,-1,1070,323,0,0
-147,701,0,0,0,0,0,0,0,0,0,-1,1077,323,0,0
-140,701,0,0,0,0,0,0,0,0,0,-1,1084,323,0,0
-133,701,0,0,0,0,0,0,0,0,0,-1,1091,323,0,0
-126,701,0,0,0,0,0,0,0,0,0,-1,1098,323,0,0
-119,701,0,0,0,0,0,0,0,0,0,-1,1105,323,0,0
-112,701,0,0,0,0,0,0,0,0,0,-1,1112,323,0,0
-105,701,0,0,0,0,0,0,0,0,0,-1,1119,323,0,0
-98,701,0,0,0,0,0,0,0,0,0,-1,1126,323,0,0
-91,701,0,0,0,0,0,0,0,0,0,-1,1133,323,0,0
-84,701,0,0,0,0,0,0,0,0,0,-1,1140,323,0,0
-77,701,0,0,0,0,0,0,0,0,0,-1,1147,323,0,0
-70,701,-12.7566,-30.413,0,0,0,0,0,0,0,-1,1154,323,-12.7566,30.413
-63,701,-18.3169,-21.2322,0,0,0,0,0,0,0,-1,1161,323,-18.3169,21.2322
-56,701,-0.420166,-0.101776,0,0,0,0,0,0,0,-1,1168,323,-0.420119,0.101777
-49,701,-1.09021,-0.155762,0,0,0,0,0,0,0,-1,1175,323,-1.09024,0.155768
-42,701,-0.210327,-0.299133,0,0,0,0,0,0,0,-1,1182,323,-0.210379,0.29914
-35,701,-2.9635,-7.98676,0,0,0,0,0,0,0,-1,1189,323,-2.9635,7.98676
-28,701,-6.64417,-5.4917,0,0,0,0,0,0,0,-1,1196,323,-6.64411,5.4917
-21,701,5.67041,-59.1563,0,0,0,0,0,0,0,-1,1203,323,5.67042,59.1563
-14,701,10.1842,-61.1626,0,0,0,0,0,0,0,-1,1210,323,10.1842,61.1626
-7,701,9.93359,-61.028,-0.022103,0.123524,-0.0214564,0.126619,-0.0251986,-1.42751,0.0939456,0.0474349,1217,323,9.93356,61.0279
0,701,9.52783,-60.7305,-0.0248087,0.136518,-0.0164421,0.138177,-0.0264674,-1.47026,0.10209,0.0479612,1224,323,9.52782,60.7305
7,701,9.34692,-60.5596,-0.0262022,0.145066,-0.0128279,0.146022,-0.0271577,-1.49645,0.10755,0.0449084,1231,323,9.34687,60.5596
14,701,9.18201,-60.386,-0.0263042,0.148524,-0.0104956,0.149152,-0.0269321,-1.51105,0.109521,0.0481304,1238,323,9.18201,60.3861
21,701,8.96204,-60.4603,-0.0253106,0.151484,-0.00841366,0.151883,-0.0257101,-1.52335,0.110824,0.0499379,1245,323,8.96208,60.4603
28,701,8.86011,-60.3409,0,0,0,0,0,0,0,-1,1252,323,8.86011,60.3408
35,701,8.70618,-60.085,-0.0214341,0.152832,-0.00417013,0.152932,-0.0215338,-1.54688,0.109838,0.0457687,1259,323,8.70618,60.085
42,701,8.5896,-59.9039,-0.0191466,0.152158,-0.00238531,0.152191,-0.0191798,-1.55688,0.108421,0.0477257,1266,323,8.58965,59.9039
49,701,8.44165,-59.7473,0,0,0,0,0,0,0,-1,1273,323,8.44159,59.7473
56,701,8.91956,-58.2196,-0.0144157,0.165548,0.00161839,0.165562,-0.0144302,1.5618,0.115486,0.0453036,1280,323,8.91959,58.2196
63,701,8.66919,-58.6663,-0.0115267,0.17196,0.00349968,0.172026,-0.0115934,1.55173,0.118737,0.0448251,1287,323,8.66917,58.6663
70,701,8.25317,-59.1773,0,0,0,0,0,0,0,-1,1294,323,8.25317,59.1773
77,701,9.20593,-59.3318,0,0,0,0,0,0,0,-1,1301,323,9.20587,59.3318
84,701,8.63745,-55.6659,0,0,0,0,0,0,0,-1,1308,323,8.63742,55.6659
91,701,7.83228,-56.2943,0,0,0,0,0,0,0,-1,1315,323,7.83222,56.2943
98,701,7.61365,-55.8627,-0.0102748,0.256753,0.0155009,0.25765,-0.0111716,1.51301,0.175609,0.0462064,1322,323,7.61369,55.8627
105,701,7.66492,-55.5528,-0.0118889,0.27404,0.0169744,0.275044,-0.012893,1.51171,0.187808,0.0466127,1329,323,7.66495,55.5528
112,701,7.78076,-55.5801,-0.0135755,0.289439,0.0181849,0.290526,-0.014663,1.51107,0.198752,0.0436695,1336,323,7.78072,55.5801
119,701,7.3241,-54.9118,-0.0153901,0.30374,0.0192619,0.304898,-0.0165485,1.51073,0.209,0.0449052,1343,323,7.32405,54.9118
126,701,7.34167,-54.9868,0,0,0,0,0,0,0,-1,1350,323,7.34173,54.9867
133,701,2.54004,-57.527,0,0,0,0,0,0,0,-1,1357,323,2.54006,57.527
140,701,-1.14453,-58.0037,0,0,0,0,0,0,0,-1,1364,323,-1.14453,58.0037
147,701,-2.49768,-58.5162,0,0,0,0,0,0,0,-1,1371,323,-2.49774,58.5162
154,701,-3.69458,-59.041,0,0,0,0,0,0,0,-1,1378,323,-3.69464,59.041
161,701,-4.83057,-59.3711,0,0,0,0,0,0,0,-1,1385,323,-4.83061,59.3711
168,701,30.7272,1.76184,0,0,0,0,0,0,0,-1,1392,323,30.7272,-1.76184
175,701,31.5035,2.25711,0,0,0,0,0,0,0,-1,1399,323,31.5036,-2.25712
182,701,8.80652,5.42807,0,0,0,0,0,0,0,-1,1406,323,8.8065,-5.42808
189,701,8.58081,4.24493,0,0,0,0,0,0,0,-1,1413,323,8.58082,-4.24494
196,701,0,0,0,0,0,0,0,0,0,-1,1420,323,0,0
203,701,0,0,0,0,0,0,0,0,0,-1,1427,323,0,0
210,701,0,0,0,0,0,0,0,0,0,-1,1434,323,0,0
217,701,0,0,0,0,0,0,0,0,0,-1,1441,323,0,0
224,701,0,0,0,0,0,0,0,0,0,-1,1448,323,0,0
231,701,0,0,0,0,0,0,0,0,0,-1,1455,323,0,0
238,701,0,0,0,0,0,0,0,0,0,-1,1462,323,0,0
245,701,0,0,0,0,0,0,0,0,0,-1,1469,323,0,0
252,701,0,0,0,0,0,0,0,0,0,-1,1476,323,0,0
259,701,0,0,0,0,0,0,0,0,0,-1,1483,323,0,0
266,701,0,0,0,0,0,0,0,0,0,-1,1490,323,0,0
273,701,0,0,0,0,0,0,0,0,0,-1,1497,323,0,0
280,701,0,0,0,0,0,0,0,0,0,-1,1504,323,0,0
287,701,0,0,0,0,0,0,0,0,0,-1,1511,323,0,0
294,701,0,0,0,0,0,0,0,0,0,-1,1518,323,0,0
301,701,0,0,0,0,0,0,0,0,0,-1,1525,323,0,0
308,701,0,0,0,0,0,0,0,0,0,-1,1532,323,0,0
315,701,0,0,0,0,0,0,0,0,0,-1,1539,323,0,0
322,701,0,0,0,0,0,0,0,0,0,-1,1546,323,0,0
329,701,0,0,0,0,0,0,0,0,0,-1,1553,323,0,0
336,701,0,0,0,0,0,0,0,0,0,-1,1560,323,0,0
343,701,0,0,0,0,0,0,0,0,0,-1,1567,323,0,0
350,701,0,0,0,0,0,0,0,0,0,-1,1574,323,0,0
357,701,0,0,0,0,0,0,0,0,0,-1,1581,323,0,0
364,701,0,0,0,0,0,0,0,0,0,-1,1588,323,0,0
371,701,0,0,0,0,0,0,0,0,0,-1,1595,323,0,0
378,701,0,0,0,0,0,0,0,0,0,-1,1602,323,0,0
385,701,0,0,0,0,0,0,0,0,0,-1,1609,323,0,0
392,701,0,0,0,0,0,0,0,0,0,-1,1616,323,0,0
399,701,0,0,0,0,0,0,0,0,0,-1,1623,323,0,0
406,701,0,0,0,0,0,0,0,0,0,-1,1630,323,0,0
413,701,0,0,0,0,0,0,0,0,0,-1,1637,323,0,0
420,701,0,0,0,0,0,0,0,0,0,-1,1644,323,0,0
427,701,0,0,0,0,0,0,0,0,0,-1,1651,323,0,0
434,701,0,0,0,0,0,0,0,0,0,-1,1658,323,0,0
441,701,0,0,0,0,0,0,0,0,0,-1,1665,323,0,0
448,701,0,0,0,0,0,0,0,0,0,-1,1672,323,0,0
455,701,0,0,0,0,0,0,0,0,0,-1,1679,323,0,0
462,701,0,0,0,0,0,0,0,0,0,-1,1686,323,0,0
469,701,0,0,0,0,0,0,0,0,0,-1,1693,323,0,0
476,701,0,0,0,0,0,0,0,0,0,-1,1700,323,0,0
483,701,0,0,0,0,0,0,0,0,0,-1,1707,323,0,0
490,701,0,0,0,0,0,0,0,0,0,-1,1714,323,0,0
497,701,0,0,0,0,0,0,0,0,0,-1,1721,323,0,0
504,701,0,0,0,0,0,0,0,0,0,-1,1728,323,0,0
511,701,0,0,0,0,0,0,0,0,0,-1,1735,323,0,0
518,701,0,0,0,0,0,0,0,0,0,-1,1742,323,0,0
525,701,0,0,0,0,0,0,0,0,0,-1,1749,323,0,0
532,701,0,0,0,0,0,0,0,0,0,-1,1756,323,0,0
539,701,0,0,0,0,0,0,0,0,0,-1,1763,323,0,0
546,701,0,0,0,0,0,0,0,0,0,-1,1770,323,0,0
553,701,0,0,0,0,0,0,0,0,0,-1,1777,323,0,0
560,701,0,0,0,0,0,0,0,0,0,-1,1784,323,0,0
567,701,0,0,0,0,0,0,0,0,0,-1,1791,323,0,0
574,701,0,0,0,0,0,0,0,0,0,-1,1798,323,0,0
581,701,0,0,0,0,0,0,0,0,0,-1,1805,323,0,0
588,701,0,0,0,0,0,0,0,0,0,-1,1812,323,0,0
595,701,0,0,0,0,0,0,0,0,0,-1,1819,323,0,0
602,701,0,0,0,0,0,0,0,0,0,-1,1826,323,0,0
609,701,0,0,0,0,0,0,0,0,0,-1,1833,323,0,0
616,701,0,0,0,0,0,0,0,0,0,-1,1840,323,0,0
623,701,0,0,0,0,0,0,0,0,0,-1,1847,323,0,0
630,701,0,0,0,0,0,0,0,0,0,-1,1854,323,0,0
637,701,0,0,0,0,0,0,0,0,0,-1,1861,323,0,0
644,701,0,0,0,0,0,0,0,0,0,-1,1868,323,0,0
651,701,0,0,0,0,0,0,0,0,0,-1,1875,323,0,0
658,701,0,0,0,0,0,0,0,0,0,-1,1882,323,0,0
665,701,0,0,0,0,0,0,0,0,0,-1,1889,323,0,0
672,701,0,0,0,0,0,0,0,0,0,-1,1896,323,0,0
679,701,0,0,0,0,0,0,0,0,0,-1,1903,323,0,0
686,701,0,0,0,0,0,0,0,0,0,-1,1910,323,0,0
693,701,0,0,0,0,0,0,0,0,0,-1,1917,323,0,0
700,701,0,0,0,0,0,0,0,0,0,-1,1924,323,0,0
707,701,0,0,0,0,0,0,0,0,0,-1,1931,323,0,0
714,701,0,0,0,0,0,0,0,0,0,-1,1938,323,0,0
721,701,0,0,0,0,0,0,0,0,0,-1,1945,323,0,0
728,701,0,0,0,0,0,0,0,0,0,-1,1952,323,0,0
735,701,0,0,0,0,0,0,0,0,0,-1,1959,323,0,0
742,701,0,0,0,0,0,0,0,0,0,-1,1966,323,0,0
749,701,0,0,0,0,0,0,0,0,0,-1,1973,323,0,0
756,701,0,0,0,0,0,0,0,0,0,-1,1980,323,0,0
763,701,0,0,0,0,0,0,0,0,0,-1,1987,323,0,0
770,701,0,0,0,0,0,0,0,0,0,-1,1994,323,0,0
777,701,0,0,0,0,0,0,0,0,0,-1,2001,323,0,0
784,701,0,0,0,0,0,0,0,0,0,-1,2008,323,0,0
791,701,0,0,0,0,0,0,0,0,0,-1,2015,323,0,0
798,701,0,0,0,0,0,0,0,0,0,-1,2022,323,0,0
805,701,0,0,0,0,0,0,0,0,0,-1,2029,323,0,0
812,701,0,0,0,0,0,0,0,0,0,-1,2036,323,0,0
-700,694,0,0,0,0,0,0,0,0,0,-1,524,330,0,0
-693,694,0,0,0,0,0,0,0,0,0,-1,531,330,0,0
-686,694,0,0,0,0,0,0,0,0,0,-1,538,330,0,0
-679,694,0,0,0,0,0,0,0,0,0,-1,545,330,0,0
-672,694,0,0,0,0,0,0,0,0,0,-1,552,330,0,0
-665,694,0,0,0,0,0,0,0,0,0,-1,559,330,0,0
-658,694,0,0,0,0,0,0,0,0,0,-1,566,330,0,0
-651,694,0,0,0,0,0,0,0,0,0,-1,573,330,0,0
-644,694,0,0,0,0,0,0,0,0,0,-1,580,330,0,0
-637,694,0,0,0,0,0,0,0,0,0,-1,587,330,0,0
-630,694,0,0,0,0,0,0,0,0,0,-1,594,330,0,0
-623,694,0,0,0,0,0,0,0,0,0,-1,601,330,0,0
-616,694,0,0,0,0,0,0,0,0,0,-1,608,330,0,0
-609,694,0,0,0,0,0,0,0,0,0,-1,615,330,0,0
-602,694,0,0,0,0,0,0,0,0,0,-1,622,330,0,0
-595,694,0,0,0,0,0,0,0,0,0,-1,629,330,0,0
-588,694,0,0,0,0,0,0,0,0,0,-1,636,330,0,0
-581,694,0,0,0,0,0,0,0,0,0,-1,643,330,0,0
-574,694,0,0,0,0,0,0,0,0,0,-1,650,330,0,0
-567,694,0,0,0,0,0,0,0,0,0,-1,657,330,0,0
-560,694,0,0,0,0,0,0,0,0,0,-1,664,330,0,0
-553,694,0,0,0,0,0,0,0,0,0,-1,671,330,0,0
-546,694,0,0,0,0,0,0,0,0,0,-1,678,330,0,0
-539,694,0,0,0,0,0,0,0,0,0,-1,685,330,0,0
-532,694,0,0,0,0,0,0,0,0,0,-1,692,330,0,0
-525,694,0,0,0,0,0,0,0,0,0,-1,699,330,0,0
-518,694,0,0,0,0,0,0,0,0,0,-1,706,330,0,0
-511,694,0,0,0,0,0,0,0,0,0,-1,713,330,0,0
-504,694,0,0,0,0,0,0,0,0,0,-1,720,330,0,0
-497,694,0,0,0,0,0,0,0,0,0,-1,727,330,0,0
-490,694,0,0,0,0,0,0,0,0,0,-1,734,330,0,0
-483,694,0,0,0,0,0,0,0,0,0,-1,741,330,0,0
-476,694,0,0,0,0,0,0,0,0,0,-1,748,330,0,0
-469,694,0,0,0,0,0,0,0,0,0,-1,755,330,0,0
-462,694,0,0,0,0,0,0,0,0,0,-1,762,330,0,0
-455,694,0,0,0,0,0,0,0,0,0,-1,769,330,0,0
-448,694,0,0,0,0,0,0,0,0,0,-1,776,330,0,0
-441,694,0,0,0,0,0,0,0,0,0,-1,783,330,0,0
-434,694,0,0,0,0,0,0,0,0,0,-1,790,330,0,0
-427,694,0,0,0,0,0,0,0,0,0,-1,797,330,0,0
-420,694,0,0,0,0,0,0,0,0,0,-1,804,330,0,0
-413,694,0,0,0,0,0,0,0,0,0,-1,811,330,0,0
-406,694,0,0,0,0,0,0,0,0,0,-1,818,330,0,0
-399,694,0,0,0,0,0,0,0,0,0,-1,825,330,0,0
-392,694,0,0,0,0,0,0,0,0,0,-1,832,330,0,0
-385,694,0,0,0,0,0,0,0,0,0,-1,839,330,0,0
-378,694,0,0,0,0,0,0,0,0,0,-1,846,330,0,0
-371,694,0,0,0,0,0,0,0,0,0,-1,853,330,0,0
-364,694,0,0,0,0,0,0,0,0,0,-1,860,330,0,0
-357,694,0,0,0,0,0,0,0,0,0,-1,867,330,0,0
-350,694,0,0,0,0,0,0,0,0,0,-1,874,330,0,0
-343,694,0,0,0,0,0,0,0,0,0,-1,881,330,0,0
-336,694,0,0,0,0,0,0,0,0,0,-1,888,330,0,0
-329,694,0,0,0,0,0,0,0,0,0,-1,895,330,0,0
-322,694,0,0,0,0,0,0,0,0,0,-1,902,330,0,0
-315,694,0,0,0,0,0,0,0,0,0,-1,909,330,0,0
-308,694,0,0,0,0,0,0,0,0,0,-1,916,330,0,0
-301,694,0,0,0,0,0,0,0,0,0,-1,923,330,0,0
-294,694,0,0,0,0,0,0,0,0,0,-1,930,330,0,0
-287,694,0,0,0,0,0,0,0,0,0,-1,937,330,0,0
-280,694,0,0,0,0,0,0,0,0,0,-1,944,330,0,0
-273,694,0,0,0,0,0,0,0,0,0,-1,951,330,0,0
-266,694,0,0,0,0,0,0,0,0,0,-1,958,330,0,0
-259,694,0,0,0,0,0,0,0,0,0,-1,965,330,0,0
-252,694,0,0,0,0,0,0,0,0,0,-1,972,330,0,0
-245,694,0,0,0,0,0,0,0,0,0,-1,979,330,0,0
-238,694,0,0,0,0,0,0,0,0,0,-1,986,330,0,0
-231,694,0,0,0,0,0,0,0,0,0,-1,993,330,0,0
-224,694,0,0,0,0,0,0,0,0,0,-1,1000,330,0,0
-217,694,0,0,0,0,0,0,0,0,0,-1,1007,330,0,0
-210,694,0,0,0,0,0,0,0,0,0,-1,1014,330,0,0
-203,694,0,0,0,0,0,0,0,0,0,-1,1021,330,0,0
-196,694,0,0,0,0,0,0,0,0,0,-1,1028,330,0,0
-189,694,0,0,0,0,0,0,0,0,0,-1,1035,330,0,0
-182,694,0,0,0,0,0,0,0,0,0,-1,1042,330,0,0
-175,694,0,0,0,0,0,0,0,0,0,-1,1049,330,0,0
-168,694,0,0,0,0,0,0,0,0,0,-1,1056,330,0,0
-161,694,0,0,0,0,0,0,0,0,0,-1,1063,330,0,0
-154,694,0,0,0,0,0,0,0,0,0,-1,1070,330,0,0
-147,694,0,0,0,0,0,0,0,0,0,-1,1077,330,0,0
-140,694,0,0,0,0,0,0,0,0,0,-1,1084,330,0,0
-133,694,0,0,0,0,0,0,0,0,0,-1,1091,330,0,0
-126,694,0,0,0,0,0,0,0,0,0,-1,1098,330,0,0
-119,694,0,0,0,0,0,0,0,0,0,-1,1105,330,0,0
-112,694,0,0,0,0,0,0,0,0,0,-1,1112,330,0,0
-105,694,2.5188,-19.3963,0,0,0,0,0,0,0,-1,1119,330,2.51882,19.3963
-98,694,1.34875,-10.1051,0,0,0,0,0,0,0,-1,1126,330,1.34874,10.1051
-91,694,6.62366,-46.8039,0,0,0,0,0,0,0,-1,1133,330,6.62363,46.8039
-84,694,0.0577393,-40.8823,0,0,0,0,0,0,0,-1,1140,330,0.0577026,40.8823
-77,694,-5.51379,-31.2714,0,0,0,0,0,0,0,-1,1147,330,-5.51383,31.2714
-70,694,-11.9945,-25.5143,0,0,0,0,0,0,0,-1,1154,330,-11.9945,25.5143
-63,694,-18.4752,-19.7572,0,0,0,0,0,0,0,-1,1161,330,-18.4752,19.7572
-56,694,-6.50623,-0.649139,0,0,0,0,0,0,0,-1,1168,330,-6.5062,0.649126
-49,694,-1.11426,0.0341797,0,0,0,0,0,0,0,-1,1175,330,-1.11424,-0.0341846
-42,694,-0.346313,-0.709595,0,0,0,0,0,0,0,-1,1182,330,-0.346298,0.709581
-35,694,-0.459106,-1.24713,0,0,0,0,0,0,0,-1,1189,330,-0.459142,1.24714
-28,694,-6.48413,-3.95972,0,0,0,0,0,0,0,-1,1196,330,-6.48414,3.9597
-21,694,9.92212,-59.2075,0,0,0,0,0,0,0,-1,1203,330,9.92207,59.2075
-14,694,9.27026,-59.5233,0,0,0,0,0,0,0,-1,1210,330,9.27023,59.5233
-7,694,9.05212,-59.9784,-0.0218155,0.107898,-0.0200157,0.110916,-0.0248339,-1.42113,0.0834627,0.0453601,1217,330,9.05208,59.9784
0,694,9.42078,-61.3535,-0.023756,0.116926,-0.016294,0.118788,-0.0256186,-1.45698,0.0889697,0.0455929,1224,330,9.42075,61.3536
7,694,9.11707,-62.0377,-0.0247293,0.123343,-0.0131766,0.124506,-0.0258927,-1.48273,0.0928465,0.0416549,1231,330,9.11704,62.0376
14,694,8.58423,-62.5203,-0.0246855,0.126869,-0.0107567,0.127629,-0.0254451,-1.50029,0.094714,0.043,1238,330,8.58427,62.5203
21,694,8.10828,-62.6413,-0.0236003,0.129911,-0.00864798,0.130396,-0.0240859,-1.5147,0.0959724,0.0492288,1245,330,8.10822,62.6413
28,694,7.64966,-62.805,0,0,0,0,0,0,0,-1,1252,330,7.6497,62.805
35,694,8.06445,-60.8834,0,0,0,0,0,0,0,-1,1259,330,8.06444,60.8834
42,694,7.89465,-61.0172,0,0,0,0,0,0,0,-1,1266,330,7.89469,61.0172
49,694,7.7052,-61.1107,0,0,0,0,0,0,0,-1,1273,330,7.70524,61.1106
56,694,8.47192,-59.1633,-0.0129974,0.146769,0.00327384,0.146836,-0.0130644,1.55032,0.102524,0.0426222,1280,330,8.47196,59.1633
63,694,8.40527,-59.442,-0.0102836,0.153247,0.00545269,0.153428,-0.0104652,1.5375,0.105946,0.0424932,1287,330,8.40523,59.442
70,694,8.22717,-59.7723,-0.00908061,0.163167,0.00753131,0.163495,-0.00940927,1.52718,0.112265,0.0416366,1294,330,8.22714,59.7723
77,694,8.72168,-60.0855,-0.00746673,0.175098,0.00951961,0.175593,-0.00796178,1.51884,0.119804,0.0470194,1301,330,8.72171,60.0855
84,694,8.58203,-58.8578,0,0,0,0,0,0,0,-1,1308,330,8.58208,58.8578
91,694,7.7373,-58.0776,0,0,0,0,0,0,0,-1,1315,330,7.73731,58.0776
98,694,7.60449,-57.6266,-0.00879815,0.224311,0.0161006,0.225418,-0.00990495,1.50216,0.153687,0.0471543,1322,330,7.60446,57.6266
105,694,7.47742,-57.328,-0.00989812,0.23727,0.0172304,0.238465,-0.0110935,1.50153,0.162801,0.0448826,1329,330,7.4774,57.328
112,694,7.61243,-57.4108,-0.0110423,0.248717,0.0180516,0.249965,-0.0122908,1.50174,0.170888,0.042577,1336,330,7.6124,57.4108
119,694,7.52588,-57.1363,-0.012143,0.259121,0.018961,0.26044,-0.013462,1.50135,0.178284,0.0436888,1343,330,7.52584,57.1362
126,694,7.29126,-57.1456,0,0,0,0,0,0,0,-1,1350,330,7.29132,57.1456
133,694,7.0968,-57.2929,0,0,0,0,0,0,0,-1,1357,330,7.09676,57.2929
140,694,1.50867,-58.2936,0,0,0,0,0,0,0,-1,1364,330,1.50864,58.2936
147,694,-1.93408,-59.4522,0,0,0,0,0,0,0,-1,1371,330,-1.93411,59.4522
154,694,-3.29565,-59.8883,0,0,0,0,0,0,0,-1,1378,330,-3.29565,59.8883
161,694,0.0187988,-38.6779,0,0,0,0,0,0,0,-1,1385,330,0.0187579,38.6779
168,694,30.451,0.196686,0,0,0,0,0,0,0,-1,1392,330,30.4511,-0.196674
175,694,31.0701,0.869873,0,0,0,0,0,0,0,-1,1399,330,31.07,-0.869874
182,694,8.29028,5.75238,0,0,0,0,0,0,0,-1,1406,330,8.29034,-5.75237
189,694,7.9801,4.46118,0,0,0,0,0,0,0,-1,1413,330,7.9801,-4.46118
196,694,7.39331,3.32632,0,0,0,0,0,0,0,-1,1420,330,7.39329,-3.32633
203,694,7.04492,2.20529,0,0,0,0,0,0,0,-1,1427,330,7.04496,-2.20529
210,694,6.44714,0.646912,0,0,0,0,0,0,0,-1,1434,330,6.44717,-0.646903
217,694,7.12061,-0.644958,0,0,0,0,0,0,0,-1,1441,330,7.12059,0.644961
224,694,6.74011,-1.70544,0,0,0,0,0,0,0,-1,1448,330,6.74013,1.70546
231,694,0,0,0,0,0,0,0,0,0,-1,1455,330,0,0
238,694,0,0,0,0,0,0,0,0,0,-1,1462,330,0,0
245,694,0,0,0,0,0,0,0,0,0,-1,1469,330,0,0
252,694,0,0,0,0,0,0,0,0,0,-1,1476,330,0,0
259,694,0,0,0,0,0,0,0,0,0,-1,1483,330,0,0
266,694,0,0,0,0,0,0,0,0,0,-1,1490,330,0,0
273,694,0,0,0,0,0,0,0,0,0,-1,1497,330,0,0
280,694,0,0,0,0,0,0,0,0,0,-1,1504,330,0,0
287,694,0,0,0,0,0,0,0,0,0,-1,1511,330,0,0
294,694,0,0,0,0,0,0,0,0,0,-1,1518,330,0,0
301,694,0,0,0,0,0,0,0,0,0,-1,1525,330,0,0
308,694,0,0,0,0,0,0,0,0,0,-1,1532,330,0,0
315,694,0,0,0,0,0,0,0,0,0,-1,1539,330,0,0
322,694,0,0,0,0,0,0,0,0,0,-1,1546,330,0,0
329,694,0,0,0,0,0,0,0,0,0,-1,1553,330,0,0
336,694,0,0,0,0,0,0,0,0,0,-1,1560,330,0,0
343,694,0,0,0,0,0,0,0,0,0,-1,1567,330,0,0
350,694,0,0,0,0,0,0,0,0,0,-1,1574,330,0,0
357,694,0,0,0,0,0,0,0,0,0,-1,1581,330,0,0
364,694,0,0,0,0,0,0,0,0,0,-1,1588,330,0,0
371,694,0,0,0,0,0,0,0,0,0,-1,1595,330,0,0
378,694,0,0,0,0,0,0,0,0,0,-1,1602,330,0,0
385,694,0,0,0,0,0,0,0,0,0,-1,1609,330,0,0
392,694,0,0,0,0,0,0,0,0,0,-1,1616,330,0,0
399,694,0,0,0,0,0,0,0,0,0,-1,1623,330,0,0
406,694,0,0,0,0,0,0,0,0,0,-1,1630,330,0,0
413,694,0,0,0,0,0,0,0,0,0,-1,1637,330,0,0
420,694,0,0,0,0,0,0,0,0,0,-1,1644,330,0,0
427,694,0,0,0,0,0,0,0,0,0,-1,1651,330,0,0
434,694,0,0,0,0,0,0,0,0,0,-1,1658,330,0,0
441,694,0,0,0,0,0,0,0,0,0,-1,1665,330,0,0
448,694,0,0,0,0,0,0,0,0,0,-1,1672,330,0,0
455,694,0,0,0,0,0,0,0,0,0,-1,1679,330,0,0
462,694,0,0,0,0,0,0,0,0,0,-1,1686,330,0,0
469,694,0,0,0,0,0,0,0,0,0,-1,1693,330,0,0
476,694,0,0,0,0,0,0,0,0,0,-1,1700,330,0,0
483,694,0,0,0,0,0,0,0,0,0,-1,1707,330,0,0
490,694,0,0,0,0,0,0,0,0,0,-1,1714,330,0,0
497,694,0,0,0,0,0,0,0,0,0,-1,1721,330,0,0
504,694,0,0,0,0,0,0,0,0,0,-1,1728,330,0,0
511,694,0,0,0,0,0,0,0,0,0,-1,1735,330,0,0
518,694,0,0,0,0,0,0,0,0,0,-1,1742,330,0,0
525,694,0,0,0,0,0,0,0,0,0,-1,1749,330,0,0
532,694,0,0,0,0,0,0,0,0,0,-1,1756,330,0,0
539,694,0,0,0,0,0,0,0,0,0,-1,1763,330,0,0
546,694,0,0,0,0,0,0,0,0,0,-1,1770,330,0,0
553,694,0,0,0,0,0,0,0,0,0,-1,1777,330,0,0
560,694,0,0,0,0,0,0,0,0,0,-1,1784,330,0,0
567,694,0,0,0,0,0,0,0,0,0,-1,1791,330,0,0
574,694,0,0,0,0,0,0,0,0,0,-1,1798,330,0,0
581,694,0,0,0,0,0,0,0,0,0,-1,1805,330,0,0
588,694,0,0,0,0,0,0,0,0,0,-1,1812,330,0,0
595,694,0,0,0,0,0,0,0,0,0,-1,1819,330,0,0
602,694,0,0,0,0,0,0,0,0,0,-1,1826,330,0,0
609,694,0,0,0,0,0,0,0,0,0,-1,1833,330,0,0
616,694,0,0,0,0,0,0,0,0,0,-1,1840,330,0,0
623,694,0,0,0,0,0,0,0,0,0,-1,1847,330,0,0
630,694,0,0,0,0,0,0,0,0,0,-1,1854,330,0,0
637,694,0,0,0,0,0,0,0,0,0,-1,1861,330,0,0
644,694,0,0,0,0,0,0,0,0,0,-1,1868,330,0,0
651,694,0,0,0,0,0,0,0,0,0,-1,1875,330,0,0
658,694,0,0,0,0,0,0,0,0,0,-1,1882,330,0,0
665,694,0,0,0,0,0,0,0,0,0,-1,1889,330,0,0
672,694,0,0,0,0,0,0,0,0,0,-1,1896,330,0,0
679,694,0,0,0,0,0,0,0,0,0,-1,1903,330,0,0
686,694,0,0,0,0,0,0,0,0,0,-1,1910,330,0,0
693,694,0,0,0,0,0,0,0,0,0,-1,1917,330,0,0
700,694,0,0,0,0,0,0,0,0,0,-1,1924,330,0,0
707,694,0,0,0,0,0,0,0,0,0,-1,1931,330,0,0
714,694,0,0,0,0,0,0,0,0,0,-1,1938,330,0,0
721,694,0,0,0,0,0,0,0,0,0,-1,1945,330,0,0
728,694,0,0,0,0,0,0,0,0,0,-1,1952,330,0,0
735,694,0,0,0,0,0,0,0,0,0,-1,1959,330,0,0
742,694,0,0,0,0,0,0,0,0,0,-1,1966,330,0,0
749,694,0,0,0,0,0,0,0,0,0,-1,1973,330,0,0
756,694,0,0,0,0,0,0,0,0,0,-1,1980,330,0,0
763,694,0,0,0,0,0,0,0,0,0,-1,1987,330,0,0
770,694,0,0,0,0,0,0,0,0,0,-1,1994,330,0,0
777,694,0,0,0,0,0,0,0,0,0,-1,2001,330,0,0
784,694,0,0,0,0,0,0,0,0,0,-1,2008,330,0,0
791,694,0,0,0,0,0,0,0,0,0,-1,2015,330,0,0
798,694,0,0,0,0,0,0,0,0,0,-1,2022,330,0,0
805,694,0,0,0,0,0,0,0,0,0,-1,2029,330,0,0
812,694,0,0,0,0,0,0,0,0,0,-1,2036,330,0,0
-700,687,0,0,0,0,0,0,0,0,0,-1,524,337,0,0
-693,687,0,0,0,0,0,0,0,0,0,-1,531,337,0,0
-686,687,0,0,0,0,0,0,0,0,0,-1,538,337,0,0
-679,687,0,0,0,0,0,0,0,0,0,-1,545,337,0,0
-672,687,0,0,0,0,0,0,0,0,0,-1,552,337,0,0
-665,687,0,0,0,0,0,0,0,0,0,-1,559,337,0,0
-658,687,0,0,0,0,0,0,0,0,0,-1,566,337,0,0
-651,687,0,0,0,0,0,0,0,0,0,-1,573,337,0,0
-644,687,0,0,0,0,0,0,0,0,0,-1,580,337,0,0
-637,687,0,0,0,0,0,0,0,0,0,-1,587,337,0,0
-630,687,0,0,0,0,0,0,0,0,0,-1,594,337,0,0
-623,687,0,0,0,0,0,0,0,0,0,-1,601,337,0,0
-616,687,0,0,0,0,0,0,0,0,0,-1,608,337,0,0
-609,687,0,0,0,0,0,0,0,0,0,-1,615,337,0,0
-602,687,0,0,0,0,0,0,0,0,0,-1,622,337,0,0
-595,687,0,0,0,0,0,0,0,0,0,-1,629,337,0,0
-588,687,0,0,0,0,0,0,0,0,0,-1,636,337,0,0
-581,687,0,0,0,0,0,0,0,0,0,-1,643,337,0,0
-574,687,0,0,0,0,0,0,0,0,0,-1,650,337,0,0
-567,687,0,0,0,0,0,0,0,0,0,-1,657,337,0,0
-560,687,0,0,0,0,0,0,0,0,0,-1,664,337,0,0
-553,687,0,0,0,0,0,0,0,0,0,-1,671,337,0,0
-546,687,0,0,0,0,0,0,0,0,0,-1,678,337,0,0
-539,687,0,0,0,0,0,0,0,0,0,-1,685,337,0,0
-532,687,0,0,0,0,0,0,0,0,0,-1,692,337,0,0
-525,687,0,0,0,0,0,0,0,0,0,-1,699,337,0,0
-518,687,0,0,0,0,0,0,0,0,0,-1,706,337,0,0
-511,687,0,0,0,0,0,0,0,0,0,-1,713,337,0,0
-504,687,0,0,0,0,0,0,0,0,0,-1,720,337,0,0
-497,687,0,0,0,0,0,0,0,0,0,-1,727,337,0,0
-490,687,0,0,0,0,0,0,0,0,0,-1,734,337,0,0
-483,687,0,0,0,0,0,0,0,0,0,-1,741,337,0,0
-476,687,0,0,0,0,0,0,0,0,0,-1,748,337,0,0
-469,687,0,0,0,0,0,0,0,0,0,-1,755,337,0,0
-462,687,0,0,0,0,0,0,0,0,0,-1,762,337,0,0
-455,687,0,0,0,0,0,0,0,0,0,-1,769,337,0,0
-448,687,0,0,0,0,0,0,0,0,0,-1,776,337,0,0
-441,687,0,0,0,0,0,0,0,0,0,-1,783,337,0,0
-434,687,0,0,0,0,0,0,0,0,0,-1,790,337,0,0
-427,687,0,0,0,0,0,0,0,0,0,-1,797,337,0,0
-420,687,0,0,0,0,0,0,0,0,0,-1,804,337,0,0
-413,687,0,0,0,0,0,0,0,0,0,-1,811,337,0,0
-406,687,0,0,0,0,0,0,0,0,0,-1,818,337,0,0
-399,687,0,0,0,0,0,0,0,0,0,-1,825,337,0,0
-392,687,0,0,0,0,0,0,0,0,0,-1,832,337,0,0
-385,687,0,0,0,0,0,0,0,0,0,-1,839,337,0,0
-378,687,0,0,0,0,0,0,0,0,0,-1,846,337,0,0
-371,687,0,0,0,0,0,0,0,0,0,-1,853,337,0,0
-364,687,0,0,0,0,0,0,0,0,0,-1,860,337,0,0
-357,687,0,0,0,0,0,0,0,0,0,-1,867,337,0,0
-350,687,0,0,0,0,0,0,0,0,0,-1,874,337,0,0
-343,687,0,0,0,0,0,0,0,0,0,-1,881,337,0,0
-336,687,0,0,0,0,0,0,0,0,0,-1,888,337,0,0
-329,687,0,0,0,0,0,0,0,0,0,-1,895,337,0,0
-322,687,0,0,0,0,0,0,0,0,0,-1,902,337,0,0
-315,687,0,0,0,0,0,0,0,0,0,-1,909,337,0,0
-308,687,0,0,0,0,0,0,0,0,0,-1,916,337,0,0
-301,687,0,0,0,0,0,0,0,0,0,-1,923,337,0,0
-294,687,0,0,0,0,0,0,0,0,0,-1,930,337,0,0
-287,687,0,0,0,0,0,0,0,0,0,-1,937,337,0,0
-280,687,0,0,0,0,0,0,0,0,0,-1,944,337,0,0
-273,687,0,0,0,0,0,0,0,0,0,-1,951,337,0,0
-266,687,0,0,0,0,0,0,0,0,0,-1,958,337,0,0
-259,687,0,0,0,0,0,0,0,0,0,-1,965,337,0,0
-252,687,0,0,0,0,0,0,0,0,0,-1,972,337,0,0
-245,687,0,0,0,0,0,0,0,0,0,-1,979,337,0,0
-238,687,0,0,0,0,0,0,0,0,0,-1,986,337,0,0
-231,687,0,0,0,0,0,0,0,0,0,-1,993,337,0,0
-224,687,0,0,0,0,0,0,0,0,0,-1,1000,337,0,0
-217,687,0,0,0,0,0,0,0,0,0,-1,1007,337,0,0
-210,687,0,0,0,0,0,0,0,0,0,-1,1014,337,0,0
-203,687,0,0,0,0,0,0,0,0,0,-1,1021,337,0,0
-196,687,0,0,0,0,0,0,0,0,0,-1,1028,337,0,0
-189,687,0,0,0,0,0,0,0,0,0,-1,1035,337,0,0
-182,687,0,0,0,0,0,0,0,0,0,-1,1042,337,0,0
-175,687,0,0,0,0,0,0,0,0,0,-1,1049,337,0,0
-168,687,0,0,0,0,0,0,0,0,0,-1,1056,337,0,0
-161,687,0,0,0,0,0,0,0,0,0,-1,1063,337,0,0
-154,687,0,0,0,0,0,0,0,0,0,-1,1070,337,0,0
-147,687,0,0,0,0,0,0,0,0,0,-1,1077,337,0,0
-140,687,0,0,0,0,0,0,0,0,0,-1,1084,337,0,0
-133,687,7.93958,-37.548,0,0,0,0,0,0,0,-1,1091,337,7.93957,37.548
-126,687,0.688477,-38.7298,0,0,0,0,0,0,0,-1,1098,337,0.688509,38.7298
-119,687,7.70825,-33.9236,0,0,0,0,0,0,0,-1,1105,337,7.70826,33.9236
-112,687,7.99866,-32.2983,0,0,0,0,0,0,0,-1,1112,337,7.99866,32.2983
-105,687,1.3208,-29.8313,0,0,0,0,0,0,0,-1,1119,337,1.3208,29.8313
-98,687,13.7111,-47.5645,0,0,0,0,0,0,0,-1,1126,337,13.711,47.5645
-91,687,7.22083,-41.1667,0,0,0,0,0,0,0,-1,1133,337,7.22079,41.1666
-84,687,0.745117,-35.0345,0,0,0,0,0,0,0,-1,1140,337,0.745155,35.0345
-77,687,-5.74353,-28.9553,0,0,0,0,0,0,0,-1,1147,337,-5.74357,28.9553
-70,687,-11.6842,-19.8473,0,0,0,0,0,0,0,-1,1154,337,-11.6842,19.8473
-63,687,-17.6757,-14.8966,0,0,0,0,0,0,0,-1,1161,337,-17.6756,14.8966
-56,687,-18.104,7.81931,0,0,0,0,0,0,0,-1,1168,337,-18.104,-7.81931
-49,687,-15.6449,-9.94391,0,0,0,0,0,0,0,-1,1175,337,-15.6449,9.94392
-42,687,-4.2019,-0.405609,0,0,0,0,0,0,0,-1,1182,337,-4.20192,0.405614
-35,687,-4.42273,-0.688171,0,0,0,0,0,0,0,-1,1189,337,-4.42276,0.688178
-28,687,-1.14038,-1.39072,0,0,0,0,0,0,0,-1,1196,337,-1.14035,1.3907
-21,687,9.33093,-59.4755,0,0,0,0,0,0,0,-1,1203,337,9.33097,59.4755
-14,687,9.30554,-60.0439,-0.0191136,0.0856512,-0.0205473,0.089537,-0.0229994,-1.38389,0.0686542,0.047023,1210,337,9.30555,60.044
-7,687,9.25671,-60.7059,-0.0207026,0.092141,-0.0177636,0.0948712,-0.0234329,-1.41829,0.0723349,0.0451509,1217,337,9.25671,60.7059
0,687,8.99854,-61.6143,-0.0220091,0.0983307,-0.015021,0.100177,-0.0238557,-1.44847,0.0759953,0.0458177,1224,337,8.99849,61.6143
7,687,8.58069,-62.5899,-0.0226108,0.103026,-0.0124336,0.104245,-0.0238295,-1.47309,0.0786524,0.0443152,1231,337,8.58067,62.5899
14,687,8.90613,-63.3712,-0.0224535,0.106278,-0.0101809,0.107078,-0.0232537,-1.49236,0.0802673,0.0430774,1238,337,8.90609,63.3712
21,687,8.22314,-63.1178,-0.0213866,0.109146,-0.00821536,0.109661,-0.0219016,-1.50819,0.0813958,0.0462081,1245,337,8.22318,63.1178
28,687,8.36096,-61.2457,0,0,0,0,0,0,0,-1,1252,337,8.36094,61.2457
35,687,8.14502,-61.4416,0,0,0,0,0,0,0,-1,1259,337,8.14507,61.4416
42,687,7.94348,-61.5825,-0.0160406,0.114156,-0.000897342,0.114162,-0.0160468,-1.5639,0.0819822,0.0485572,1266,337,7.94346,61.5825
49,687,7.75391,-61.7226,-0.0142329,0.120216,0.00176935,0.120239,-0.0142562,1.55764,0.0853096,0.0487427,1273,337,7.75396,61.7226
56,687,7.95056,-62.021,0,0,0,0,0,0,0,-1,1280,337,7.95052,62.021
63,687,7.93494,-60.2468,-0.00934654,0.132591,0.00623649,0.132864,-0.00962004,1.52697,0.0919507,0.0440726,1287,337,7.935,60.2468
70,687,7.89673,-60.469,-0.00821094,0.141401,0.00827151,0.141857,-0.00866685,1.51573,0.0975886,0.0419583,1294,337,7.89672,60.469
77,687,8.2301,-60.8716,-0.0068339,0.151546,0.0101227,0.152191,-0.00747825,1.50723,0.104043,0.0451294,1301,337,8.23013,60.8716
84,687,8.09631,-59.5848,-0.00687248,0.165071,0.0123273,0.16595,-0.00775179,1.49959,0.113306,0.0458605,1308,337,8.09636,59.5848
91,687,7.94556,-58.3647,0,0,0,0,0,0,0,-1,1315,337,7.94556,58.3647
98,687,7.52026,-59.1973,-0.00789114,0.190032,0.0153722,0.191219,-0.00907795,1.49374,0.130611,0.0466297,1322,337,7.52025,59.1973
105,687,7.72583,-59.2152,-0.00860338,0.199693,0.0163051,0.200961,-0.009872,1.49315,0.137383,0.0467744,1329,337,7.72579,59.2152
112,687,7.7616,-59.4908,-0.00936942,0.208102,0.0169014,0.209408,-0.0106751,1.4937,0.143296,0.0460369,1336,337,7.76159,59.4907
119,687,7.57397,-59.3964,-0.0100347,0.215417,0.0176681,0.216793,-0.0114109,1.49306,0.148478,0.0434694,1343,337,7.57403,59.3964
126,687,7.37109,-59.4407,0,0,0,0,0,0,0,-1,1350,337,7.37107,59.4407
133,687,2.67908,-59.4245,0,0,0,0,0,0,0,-1,1357,337,2.67904,59.4245
140,687,0.814697,-60.1044,0,0,0,0,0,0,0,-1,1364,337,0.81465,60.1044
147,687,4.73328,-59.2652,0,0,0,0,0,0,0,-1,1371,337,4.73326,59.2652
154,687,-2.49255,-60.9034,0,0,0,0,0,0,0,-1,1378,337,-2.49259,60.9034
161,687,29.3895,-1.90628,0,0,0,0,0,0,0,-1,1385,337,29.3895,1.90628
168,687,29.8564,-1.19434,0,0,0,0,0,0,0,-1,1392,337,29.8564,1.19434
175,687,30.3419,-0.453583,0,0,0,0,0,0,0,-1,1399,337,30.3419,0.45357
182,687,6.67249,0.289917,0,0,0,0,0,0,0,-1,1406,337,6.67247,-0.289916
189,687,7.76062,4.53635,0,0,0,0,0,0,0,-1,1413,337,7.76064,-4.53636
196,687,6.99048,3.2966,0,0,0,0,0,0,0,-1,1420,337,6.99046,-3.2966
203,687,6.36499,2.1445,0,0,0,0,0,0,0,-1,1427,337,6.36499,-2.14451
210,687,6.68066,0.674652,0,0,0,0,0,0,0,-1,1434,337,6.68062,-0.674655
217,687,5.99683,-0.630493,0,0,0,0,0,0,0,-1,1441,337,5.99684,0.630497
224,687,5.52917,0.524902,0,0,0,0,0,0,0,-1,1448,337,5.5292,-0.524915
231,687,5.85583,-1.73651,0,0,0,0,0,0,0,-1,1455,337,5.85577,1.73651
238,687,5.96582,-2.96774,0,0,0,0,0,0,0,-1,1462,337,5.96577,2.96773
245,687,1.28259,2.32211,0,0,0,0,0,0,0,-1,1469,337,1.28258,-2.32211
252,687,1.97278,3.88422,0,0,0,0,0,0,0,-1,1476,337,1.97281,-3.88421
259,687,0,0,0,0,0,0,0,0,0,-1,1483,337,0,0
266,687,0,0,0,0,0,0,0,0,0,-1,1490,337,0,0
273,687,0,0,0,0,0,0,0,0,0,-1,1497,337,0,0
280,687,0,0,0,0,0,0,0,0,0,-1,1504,337,0,0
287,687,0,0,0,0,0,0,0,0,0,-1,1511,337,0,0
294,687,0,0,0,0,0,0,0,0,0,-1,1518,337,0,0
301,687,0,0,0,0,0,0,0,0,0,-1,1525,337,0,0
308,687,0,0,0,0,0,0,0,0,0,-1,1532,337,0,0
315,687,0,0,0,0,0,0,0,0,0,-1,1539,337,0,0
322,687,0,0,0,0,0,0,0,0,0,-1,1546,337,0,0
329,687,0,0,0,0,0,0,0,0,0,-1,1553,337,0,0
336,687,0,0,0,0,0,0,0,0,0,-1,1560,337,0,0
343,687,0,0,0,0,0,0,0,0,0,-1,1567,337,0,0
350,687,0,0,0,0,0,0,0,0,0,-1,1574,337,0,0
357,687,0,0,0,0,0,0,0,0,0,-1,1581,337,0,0
364,687,0,0,0,0,0,0,0,0,0,-1,1588,337,0,0
371,687,0,0,0,0,0,0,0,0,0,-1,1595,337,0,0
378,687,0,0,0,0,0,0,0,0,0,-1,1602,337,0,0
385,687,0,0,0,0,0,0,0,0,0,-1,1609,337,0,0
392,687,0,0,0,0,0,0,0,0,0,-1,1616,337,0,0
399,687,0,0,0,0,0,0,0,0,0,-1,1623,337,0,0
406,687,0,0,0,0,0,0,0,0,0,-1,1630,337,0,0
413,687,0,0,0,0,0,0,0,0,0,-1,1637,337,0,0
420,687,0,0,0,0,0,0,0,0,0,-1,1644,337,0,0
427,687,0,0,0,0,0,0,0,0,0,-1,1651,337,0,0
434,687,0,0,0,0,0,0,0,0,0,-1,1658,337,0,0
441,687,0,0,0,0,0,0,0,0,0,-1,1665,337,0,0
448,687,0,0,0,0,0,0,0,0,0,-1,1672,337,0,0
455,687,0,0,0,0,0,0,0,0,0,-1,1679,337,0,0
462,687,0,0,0,0,0,0,0,0,0,-1,1686,337,0,0
469,687,0,0,0,0,0,0,0,0,0,-1,1693,337,0,0
476,687,0,0,0,0,0,0,0,0,0,-1,1700,337,0,0
483,687,0,0,0,0,0,0,0,0,0,-1,1707,337,0,0
490,687,0,0,0,0,0,0,0,0,0,-1,1714,337,0,0
497,687,0,0,0,0,0,0,0,0,0,-1,1721,337,0,0
504,687,0,0,0,0,0,0,0,0,0,-1,1728,337,0,0
511,687,0,0,0,0,0,0,0,0,0,-1,1735,337,0,0
518,687,0,0,0,0,0,0,0,0,0,-1,1742,337,0,0
525,687,0,0,0,0,0,0,0,0,0,-1,1749,337,0,0
532,687,0,0,0,0,0,0,0,0,0,-1,1756,337,0,0
539,687,0,0,0,0,0,0,0,0,0,-1,1763,337,0,0
546,687,0,0,0,0,0,0,0,0,0,-1,1770,337,0,0
553,687,0,0,0,0,0,0,0,0,0,-1,1777,337,0,0
560,687,0,0,0,0,0,0,0,0,0,-1,1784,337,0,0
567,687,0,0,0,0,0,0,0,0,0,-1,1791,337,0,0
574,687,0,0,0,0,0,0,0,0,0,-1,1798,337,0,0
581,687,0,0,0,0,0,0,0,0,0,-1,1805,337,0,0
588,687,0,0,0,0,0,0,0,0,0,-1,1812,337,0,0
595,687,0,0,0,0,0,0,0,0,0,-1,1819,337,0,0
602,687,0,0,0,0,0,0,0,0,0,-1,1826,337,0,0
609,687,0,0,0,0,0,0,0,0,0,-1,1833,337,0,0
616,687,0,0,0,0,0,0,0,0,0,-1,1840,337,0,0
623,687,0,0,0,0,0,0,0,0,0,-1,1847,337,0,0
630,687,0,0,0,0,0,0,0,0,0,-1,1854,337,0,0
637,687,0,0,0,0,0,0,0,0,0,-1,1861,337,0,0
644,687,0,0,0,0,0,0,0,0,0,-1,1868,337,0,0
651,687,0,0,0,0,0,0,0,0,0,-1,1875,337,0,0
658,687,0,0,0,0,0,0,0,0,0,-1,1882,337,0,0
665,687,0,0,0,0,0,0,0,0,0,-1,1889,337,0,0
672,687,0,0,0,0,0,0,0,0,0,-1,1896,337,0,0
679,687,0,0,0,0,0,0,0,0,0,-1,1903,337,0,0
686,687,0,0,0,0,0,0,0,0,0,-1,1910,337,0,0
693,687,0,0,0,0,0,0,0,0,0,-1,1917,337,0,0
700,687,0,0,0,0,0,0,0,0,0,-1,1924,337,0,0
707,687,0,0,0,0,0,0,0,0,0,-1,1931,337,0,0
714,687,0,0,0,0,0,0,0,0,0,-1,1938,337,0,0
721,687,0,0,0,0,0,0,0,0,0,-1,1945,337,0,0
728,687,0,0,0,0,0,0,0,0,0,-1,1952,337,0,0
735,687,0,0,0,0,0,0,0,0,0,-1,1959,337,0,0
742,687,0,0,0,0,0,0,0,0,0,-1,1966,337,0,0
749,687,0,0,0,0,0,0,0,0,0,-1,1973,337,0,0
756,687,0,0,0,0,0,0,0,0,0,-1,1980,337,0,0
763,687,0,0,0,0,0,0,0,0,0,-1,1987,337,0,0
770,687,0,0,0,0,0,0,0,0,0,-1,1994,337,0,0
777,687,0,0,0,0,0,0,0,0,0,-1,2001,337,0,0
784,687,0,0,0,0,0,0,0,0,0,-1,2008,337,0,0
791,687,0,0,0,0,0,0,0,0,0,-1,2015,337,0,0
798,687,0,0,0,0,0,0,0,0,0,-1,2022,337,0,0
805,687,0,0,0,0,0,0,0,0,0,-1,2029,337,0,0
812,687,0,0,0,0,0,0,0,0,0,-1,2036,337,0,0
-700,680,0,0,0,0,0,0,0,0,0,-1,524,344,0,0
-693,680,0,0,0,0,0,0,0,0,0,-1,531,344,0,0
-686,680,0,0,0,0,0,0,0,0,0,-1,538,344,0,0
-679,680,0,0,0,0,0,0,0,0,0,-1,545,344,0,0
-672,680,0,0,0,0,0,0,0,0,0,-1,552,344,0,0
-665,680,0,0,0,0,0,0,0,0,0,-1,559,344,0,0
-658,680,0,0,0,0,0,0,0,0,0,-1,566,344,0,0
-651,680,0,0,0,0,0,0,0,0,0,-1,573,344,0,0
-644,680,0,0,0,0,0,0,0,0,0,-1,580,344,0,0
-637,680,0,0,0,0,0,0,0,0,0,-1,587,344,0,0
-630,680,0,0,0,0,0,0,0,0,0,-1,594,344,0,0
-623,680,0,0,0,0,0,0,0,0,0,-1,601,344,0,0
-616,680,0,0,0,0,0,0,0,0,0,-1,608,344,0,0
-609,680,0,0,0,0,0,0,0,0,0,-1,615,344,0,0
-602,680,0,0,0,0,0,0,0,0,0,-1,622,344,0,0
-595,680,0,0,0,0,0,0,0,0,0,-1,629,344,0,0
-588,680,0,0,0,0,0,0,0,0,0,-1,636,344,0,0
-581,680,0,0,0,0,0,0,0,0,0,-1,643,344,0,0
-574,680,0,0,0,0,0,0,0,0,0,-1,650,344,0,0
-567,680,0,0,0,0,0,0,0,0,0,-1,657,344,0,0
-560,680,0,0,0,0,0,0,0,0,0,-1,664,344,0,0
-553,680,0,0,0,0,0,0,0,0,0,-1,671,344,0,0
-546,680,0,0,0,0,0,0,0,0,0,-1,678,344,0,0
-539,680,0,0,0,0,0,0,0,0,0,-1,685,344,0,0
-532,680,0,0,0,0,0,0,0,0,0,-1,692,344,0,0
-525,680,0,0,0,0,0,0,0,0,0,-1,699,344,0,0
-518,680,0,0,0,0,0,0,0,0,0,-1,706,344,0,0
-511,680,0,0,0,0,0,0,0,0,0,-1,713,344,0,0
-504,680,0,0,0,0,0,0,0,0,0,-1,720,344,0,0
-497,680,0,0,0,0,0,0,0,0,0,-1,727,344,0,0
-490,680,0,0,0,0,0,0,0,0,0,-1,734,344,0,0
-483,680,0,0,0,0,0,0,0,0,0,-1,741,344,0,0
-476,680,0,0,0,0,0,0,0,0,0,-1,748,344,0,0
-469,680,0,0,0,0,0,0,0,0,0,-1,755,344,0,0
-462,680,0,0,0,0,0,0,0,0,0,-1,762,344,0,0
-455,680,0,0,0,0,0,0,0,0,0,-1,769,344,0,0
-448,680,0,0,0,0,0,0,0,0,0,-1,776,344,0,0
-441,680,0,0,0,0,0,0,0,0,0,-1,783,344,0,0
-434,680,0,0,0,0,0,0,0,0,0,-1,790,344,0,0
-427,680,0,0,0,0,0,0,0,0,0,-1,797,344,0,0
-420,680,0,0,0,0,0,0,0,0,0,-1,804,344,0,0
-413,680,0,0,0,0,0,0,0,0,0,-1,811,344,0,0
-406,680,0,0,0,0,0,0,0,0,0,-1,818,344,0,0
-399,680,0,0,0,0,0,0,0,0,0,-1,825,344,0,0
-392,680,0,0,0,0,0,0,0,0,0,-1,832,344,0,0
-385,680,0,0,0,0,0,0,0,0,0,-1,839,344,0,0
-378,680,0,0,0,0,0,0,0,0,0,-1,846,344,0,0
-371,680,0,0,0,0,0,0,0,0,0,-1,853,344,0,0
-364,680,0,0,0,0,0,0,0,0,0,-1,860,344,0,0
-357,680,0,0,0,0,0,0,0,0,0,-1,867,344,0,0
-350,680,0,0,0,0,0,0,0,0,0,-1,874,344,0,0
-343,680,0,0,0,0,0,0,0,0,0,-1,881,344,0,0
-336,680,0,0,0,0,0,0,0,0,0,-1,888,344,0,0
-329,680,0,0,0,0,0,0,0,0,0,-1,895,344,0,0
-322,680,0,0,0,0,0,0,0,0,0,-1,902,344,0,0
-315,680,0,0,0,0,0,0,0,0,0,-1,909,344,0,0
-308,680,0,0,0,0,0,0,0,0,0,-1,916,344,0,0
-301,680,0,0,0,0,0,0,0,0,0,-1,923,344,0,0
-294,680,0,0,0,0,0,0,0,0,0,-1,930,344,0,0
-287,680,0,0,0,0,0,0,0,0,0,-1,937,344,0,0
-280,680,0,0,0,0,0,0,0,0,0,-1,944,344,0,0
-273,680,0,0,0,0,0,0,0,0,0,-1,951,344,0,0
-266,680,0,0,0,0,0,0,0,0,0,-1,958,344,0,0
-259,680,0,0,0,0,0,0,0,0,0,-1,965,344,0,0
-252,680,0,0,0,0,0,0,0,0,0,-1,972,344,0,0
-245,680,0,0,0,0,0,0,0,0,0,-1,979,344,0,0
-238,680,0,0,0,0,0,0,0,0,0,-1,986,344,0,0
-231,680,0,0,0,0,0,0,0,0,0,-1,993,344,0,0
-224,680,0,0,0,0,0,0,0,0,0,-1,1000,344,0,0
-217,680,0,0,0,0,0,0,0,0,0,-1,1007,344,0,0
-210,680,0,0,0,0,0,0,0,0,0,-1,1014,344,0,0
-203,680,0,0,0,0,0,0,0,0,0,-1,1021,344,0,0
-196,680,0,0,0,0,0,0,0,0,0,-1,1028,344,0,0
-189,680,0,0,0,0,0,0,0,0,0,-1,1035,344,0,0
-182,680,0,0,0,0,0,0,0,0,0,-1,1042,344,0,0
-175,680,0,0,0,0,0,0,0,0,0,-1,1049,344,0,0
-168,680,0,0,0,0,0,0,0,0,0,-1,1056,344,0,0
-161,680,0,0,0,0,0,0,0,0,0,-1,1063,344,0,0
-154,680,2.25244,-29.1442,0,0,0,0,0,0,0,-1,1070,344,2.25241,29.1442
-147,680,9.29614,-33.0369,0,0,0,0,0,0,0,-1,1077,344,9.29612,33.0369
-140,680,6.98022,-36.6899,0,0,0,0,0,0,0,-1,1084,344,6.98023,36.6899
-133,680,1.85693,-39.7233,0,0,0,0,0,0,0,-1,1091,344,1.85699,39.7233
-126,680,2.30017,-38.3751,0,0,0,0,0,0,0,-1,1098,344,2.30011,38.3751
-119,680,2.74329,-37.0269,0,0,0,0,0,0,0,-1,1105,344,2.74323,37.0269
-112,680,7.7467,-32.4407,0,0,0,0,0,0,0,-1,1112,344,7.74668,32.4407
-105,680,20.6371,-48.461,0,0,0,0,0,0,0,-1,1119,344,20.6371,48.461
-98,680,14.2684,-41.9997,0,0,0,0,0,0,0,-1,1126,344,14.2685,41.9997
-91,680,7.89648,-35.5147,0,0,0,0,0,0,0,-1,1133,344,7.8965,35.5147
-84,680,1.47168,-29.471,0,0,0,0,0,0,0,-1,1140,344,1.47163,29.471
-77,680,-4.95337,-23.3355,0,0,0,0,0,0,0,-1,1147,344,-4.9534,23.3356
-70,680,-11.5099,-17.4337,0,0,0,0,0,0,0,-1,1154,344,-11.5098,17.4338
-63,680,-17.2391,-1.43134,0,0,0,0,0,0,0,-1,1161,344,-17.2392,1.43133
-56,680,-6.96912,-8.83356,0,0,0,0,0,0,0,-1,1168,344,-6.96907,8.83354
-49,680,-6.7677,-2.24063,0,0,0,0,0,0,0,-1,1175,344,-6.76772,2.24063
-42,680,-1.02368,0.618805,0,0,0,0,0,0,0,-1,1182,344,-1.0237,-0.618797
-35,680,-0.947876,-0.942719,0,0,0,0,0,0,0,-1,1189,344,-0.947842,0.942731
-28,680,-1.46118,-1.10574,0,0,0,0,0,0,0,-1,1196,344,-1.4612,1.10575
-21,680,9.30945,-60.1956,0,0,0,0,0,0,0,-1,1203,344,9.3094,60.1956
-14,680,9.22473,-60.6323,-0.017977,0.072533,-0.0171044,0.0756575,-0.0211015,-1.39012,0.0587492,0.04463,1210,344,9.22478,60.6323
-7,680,9.07922,-61.1651,-0.0189535,0.0767981,-0.0151369,0.079134,-0.0212894,-1.41768,0.0611015,0.0456134,1217,344,9.07917,61.1651
0,680,8.68335,-61.8875,-0.0197593,0.0810139,-0.0131371,0.0826984,-0.0214438,-1.44327,0.0634988,0.0465974,1224,344,8.6834,61.8876
7,680,8.15881,-62.6044,-0.0200554,0.0843968,-0.0110517,0.0855534,-0.0212119,-1.46653,0.0652655,0.0459565,1231,344,8.15884,62.6044
14,680,7.70374,-62.9589,0,0,0,0,0,0,0,-1,1238,344,7.7037,62.9589
21,680,8.94153,-61.7088,0,0,0,0,0,0,0,-1,1245,344,8.94156,61.7088
28,680,8.76318,-62.0411,0,0,0,0,0,0,0,-1,1252,344,8.76321,62.0411
35,680,8.20837,-62.0217,0,0,0,0,0,0,0,-1,1259,344,8.20832,62.0217
42,680,8.02686,-62.1741,-0.0141896,0.0952592,-0.00050242,0.0952615,-0.014192,-1.56621,0.0687285,0.0466968,1266,344,8.02686,62.1741
49,680,7.87744,-62.5413,-0.0126093,0.100535,0.00200143,0.100571,-0.0126447,1.55311,0.071635,0.0440162,1273,344,7.87743,62.5413
56,680,7.92358,-62.4122,-0.010475,0.106116,0.00414252,0.106263,-0.010622,1.53533,0.0746348,0.0429638,1280,344,7.92356,62.4122
63,680,7.67627,-61.5494,-0.00847282,0.111538,0.00624118,0.111861,-0.00879652,1.51898,0.0776725,0.0394537,1287,344,7.67627,61.5494
70,680,7.87463,-61.6418,-0.00748961,0.119022,0.00810921,0.119539,-0.00800729,1.50705,0.0824916,0.0382047,1294,344,7.87465,61.6417
77,680,8.12964,-61.7615,-0.00638269,0.127279,0.00974885,0.127986,-0.00708999,1.49837,0.0877828,0.0422178,1301,344,8.12961,61.7615
84,680,7.73315,-60.8073,-0.00642849,0.137764,0.0115099,0.138677,-0.00734147,1.49164,0.0949932,0.0455784,1308,344,7.7332,60.8072
91,680,7.74792,-60.9094,0,0,0,0,0,0,0,-1,1315,344,7.74796,60.9094
98,680,7.5188,-60.8539,-0.00721103,0.156409,0.0139009,0.157582,-0.00838362,1.48664,0.107958,0.0425511,1322,344,7.51883,60.854
105,680,7.47266,-60.6623,-0.00765033,0.163488,0.0147072,0.164742,-0.00890503,1.48569,0.112914,0.0433936,1329,344,7.47271,60.6623
112,680,7.4198,-60.1187,-0.00816936,0.169449,0.0151499,0.170732,-0.00945228,1.48632,0.117099,0.0438431,1336,344,7.41974,60.1186
119,680,7.27612,-59.5874,0,0,0,0,0,0,0,-1,1343,344,7.27609,59.5874
126,680,3.37207,-60.6102,0,0,0,0,0,0,0,-1,1350,344,3.37207,60.6102
133,680,2.06982,-60.9184,0,0,0,0,0,0,0,-1,1357,344,2.06986,60.9184
140,680,4.88928,-60.0993,0,0,0,0,0,0,0,-1,1364,344,4.88924,60.0993
147,680,5.39221,-60.0215,0,0,0,0,0,0,0,-1,1371,344,5.39225,60.0215
154,680,5.76331,-58.816,0,0,0,0,0,0,0,-1,1378,344,5.76326,58.816
161,680,6.09155,-56.5069,0,0,0,0,0,0,0,-1,1385,344,6.09154,56.5069
168,680,29.4142,-2.51651,0,0,0,0,0,0,0,-1,1392,344,29.4142,2.51652
175,680,6.66541,0.942078,0,0,0,0,0,0,0,-1,1399,344,6.66538,-0.942088
182,680,6.52917,0.532379,0,0,0,0,0,0,0,-1,1406,344,6.52922,-0.532385
189,680,7.55884,4.77695,0,0,0,0,0,0,0,-1,1413,344,7.55886,-4.77694
196,680,6.55627,3.35254,0,0,0,0,0,0,0,-1,1420,344,6.55622,-3.35255
203,680,5.7334,1.90753,0,0,0,0,0,0,0,-1,1427,344,5.73341,-1.90754
210,680,5.27515,0.493622,0,0,0,0,0,0,0,-1,1434,344,5.27514,-0.493632
217,680,6.56384,-0.374176,0,0,0,0,0,0,0,-1,1441,344,6.56379,0.374176
224,680,3.9491,-0.640228,0,0,0,0,0,0,0,-1,1448,344,3.94908,0.64024
231,680,4.24866,-1.96881,0,0,0,0,0,0,0,-1,1455,344,4.2486,1.96882
238,680,4.29333,-3.23984,0,0,0,0,0,0,0,-1,1462,344,4.29332,3.23984
245,680,2.44397,0.985382,0,0,0,0,0,0,0,-1,1469,344,2.44402,-0.985394
252,680,3.07349,2.18951,0,0,0,0,0,0,0,-1,1476,344,3.0735,-2.18952
259,680,2.82971,1.30682,0,0,0,0,0,0,0,-1,1483,344,2.82972,-1.30684
266,680,2.67554,1.44067,0,0,0,0,0,0,0,-1,1490,344,2.67551,-1.44066
273,680,2.46411,1.54666,0,0,0,0,0,0,0,-1,1497,344,2.46407,-1.54666
280,680,0,0,0,0,0,0,0,0,0,-1,1504,344,0,0
287,680,0,0,0,0,0,0,0,0,0,-1,1511,344,0,0
294,680,0,0,0,0,0,0,0,0,0,-1,1518,344,0,0
301,680,0,0,0,0,0,0,0,0,0,-1,1525,344,0,0
308,680,0,0,0,0,0,0,0,0,0,-1,1532,344,0,0
315,680,0,0,0,0,0,0,0,0,0,-1,1539,344,0,0
322,680,0,0,0,0,0,0,0,0,0,-1,1546,344,0,0
329,680,0,0,0,0,0,0,0,0,0,-1,1553,344,0,0
336,680,0,0,0,0,0,0,0,0,0,-1,1560,344,0,0
343,680,0,0,0,0,0,0,0,0,0,-1,1567,344,0,0
350,680,0,0,0,0,0,0,0,0,0,-1,1574,344,0,0
357,680,0,0,0,0,0,0,0,0,0,-1,1581,344,0,0
364,680,0,0,0,0,0,0,0,0,0,-1,1588,344,0,0
371,680,0,0,0,0,0,0,0,0,0,-1,1595,344,0,0
378,680,0,0,0,0,0,0,0,0,0,-1,1602,344,0,0
385,680,0,0,0,0,0,0,0,0,0,-1,1609,344,0,0
392,680,0,0,0,0,0,0,0,0,0,-1,1616,344,0,0
399,680,0,0,0,0,0,0,0,0,0,-1,1623,344,0,0
406,680,0,0,0,0,0,0,0,0,0,-1,1630,344,0,0
413,680,0,0,0,0,0,0,0,0,0,-1,1637,344,0,0
420,680,0,0,0,0,0,0,0,0,0,-1,1644,344,0,0
427,680,0,0,0,0,0,0,0,0,0,-1,1651,344,0,0
434,680,0,0,0,0,0,0,0,0,0,-1,1658,344,0,0
441,680,0,0,0,0,0,0,0,0,0,-1,1665,344,0,0
448,680,0,0,0,0,0,0,0,0,0,-1,1672,344,0,0
455,680,0,0,0,0,0,0,0,0,0,-1,1679,344,0,0
462,680,0,0,0,0,0,0,0,0,0,-1,1686,344,0,0
469,680,0,0,0,0,0,0,0,0,0,-1,1693,344,0,0
476,680,0,0,0,0,0,0,0,0,0,-1,1700,344,0,0
483,680,0,0,0,0,0,0,0,0,0,-1,1707,344,0,0
490,680,0,0,0,0,0,0,0,0,0,-1,1714,344,0,0
497,680,0,0,0,0,0,0,0,0,0,-1,1721,344,0,0
504,680,0,0,0,0,0,0,0,0,0,-1,1728,344,0,0
511,680,0,0,0,0,0,0,0,0,0,-1,1735,344,0,0
518,680,0,0,0,0,0,0,0,0,0,-1,1742,344,0,0
525,680,0,0,0,0,0,0,0,0,0,-1,1749,344,0,0
532,680,0,0,0,0,0,0,0,0,0,-1,1756,344,0,0
539,680,0,0,0,0,0,0,0,0,0,-1,1763,344,0,0
546,680,0,0,0,0,0,0,0,0,0,-1,1770,344,0,0
553,680,0,0,0,0,0,0,0,0,0,-1,1777,344,0,0
560,680,0,0,0,0,0,0,0,0,0,-1,1784,344,0,0
567,680,0,0,0,0,0,0,0,0,0,-1,1791,344,0,0
574,680,0,0,0,0,0,0,0,0,0,-1,1798,344,0,0
581,680,0,0,0,0,0,0,0,0,0,-1,1805,344,0,0
588,680,0,0,0,0,0,0,0,0,0,-1,1812,344,0,0
595,680,0,0,0,0,0,0,0,0,0,-1,1819,344,0,0
602,680,0,0,0,0,0,0,0,0,0,-1,1826,344,0,0
609,680,0,0,0,0,0,0,0,0,0,-1,1833,344,0,0
616,680,0,0,0,0,0,0,0,0,0,-1,1840,344,0,0
623,680,0,0,0,0,0,0,0,0,0,-1,1847,344,0,0
630,680,0,0,0,0,0,0,0,0,0,-1,1854,344,0,0
637,680,0,0,0,0,0,0,0,0,0,-1,1861,344,0,0
644,680,0,0,0,0,0,0,0,0,0,-1,1868,344,0,0
651,680,0,0,0,0,0,0,0,0,0,-1,1875,344,0,0
658,680,0,0,0,0,0,0,0,0,0,-1,1882,344,0,0
665,680,0,0,0,0,0,0,0,0,0,-1,1889,344,0,0
672,680,0,0,0,0,0,0,0,0,0,-1,1896,344,0,0
679,680,0,0,0,0,0,0,0,0,0,-1,1903,344,0,0
686,680,0,0,0,0,0,0,0,0,0,-1,1910,344,0,0
693,680,0,0,0,0,0,0,0,0,0,-1,1917,344,0,0
700,680,0,0,0,0,0,0,0,0,0,-1,1924,344,0,0
707,680,0,0,0,0,0,0,0,0,0,-1,1931,344,0,0
714,680,0,0,0,0,0,0,0,0,0,-1,1938,344,0,0
721,680,0,0,0,0,0,0,0,0,0,-1,1945,344,0,0
728,680,0,0,0,0,0,0,0,0,0,-1,1952,344,0,0
735,680,0,0,0,0,0,0,0,0,0,-1,1959,344,0,0
742,680,0,0,0,0,0,0,0,0,0,-1,1966,344,0,0
749,680,0,0,0,0,0,0,0,0,0,-1,1973,344,0,0
756,680,0,0,0,0,0,0,0,0,0,-1,1980,344,0,0
763,680,0,0,0,0,0,0,0,0,0,-1,1987,344,0,0
770,680,0,0,0,0,0,0,0,0,0,-1,1994,344,0,0
777,680,0,0,0,0,0,0,0,0,0,-1,2001,344,0,0
784,680,0,0,0,0,0,0,0,0,0,-1,2008,344,0,0
791,680,0,0,0,0,0,0,0,0,0,-1,2015,344,0,0
798,680,0,0,0,0,0,0,0,0,0,-1,2022,344,0,0
805,680,0,0,0,0,0,0,0,0,0,-1,2029,344,0,0
812,680,0,0,0,0,0,0,0,0,0,-1,2036,344,0,0
-700,673,0,0,0,0,0,0,0,0,0,-1,524,351,0,0
-693,673,0,0,0,0,0,0,0,0,0,-1,531,351,0,0
-686,673,0,0,0,0,0,0,0,0,0,-1,538,351,0,0
-679,673,0,0,0,0,0,0,0,0,0,-1,545,351,0,0
-672,673,0,0,0,0,0,0,0,0,0,-1,552,351,0,0
-665,673,0,0,0,0,0,0,0,0,0,-1,559,351,0,0
-658,673,0,0,0,0,0,0,0,0,0,-1,566,351,0,0
-651,673,0,0,0,0,0,0,0,0,0,-1,573,351,0,0
-644,673,0,0,0,0,0,0,0,0,0,-1,580,351,0,0
-637,673,0,0,0,0,0,0,0,0,0,-1,587,351,0,0
-630,673,0,0,0,0,0,0,0,0,0,-1,594,351,0,0
-623,673,0,0,0,0,0,0,0,0,0,-1,601,351,0,0
-616,673,0,0,0,0,0,0,0,0,0,-1,608,351,0,0
-609,673,0,0,0,0,0,0,0,0,0,-1,615,351,0,0
-602,673,0,0,0,0,0,0,0,0,0,-1,622,351,0,0
-595,673,0,0,0,0,0,0,0,0,0,-1,629,351,0,0
-588,673,0,0,0,0,0,0,0,0,0,-1,636,351,0,0
-581,673,0,0,0,0,0,0,0,0,0,-1,643,351,0,0
-574,673,0,0,0,0,0,0,0,0,0,-1,650,351,0,0
-567,673,0,0,0,0,0,0,0,0,0,-1,657,351,0,0
-560,673,0,0,0,0,0,0,0,0,0,-1,664,351,0,0
-553,673,0,0,0,0,0,0,0,0,0,-1,671,351,0,0
-546,673,0,0,0,0,0,0,0,0,0,-1,678,351,0,0
-539,673,0,0,0,0,0,0,0,0,0,-1,685,351,0,0
-532,673,0,0,0,0,0,0,0,0,0,-1,692,351,0,0
-525,673,0,0,0,0,0,0,0,0,0,-1,699,351,0,0
-518,673,0,0,0,0,0,0,0,0,0,-1,706,351,0,0
-511,673,0,0,0,0,0,0,0,0,0,-1,713,351,0,0
-504,673,0,0,0,0,0,0,0,0,0,-1,720,351,0,0
-497,673,0,0,0,0,0,0,0,0,0,-1,727,351,0,0
-490,673,0,0,0,0,0,0,0,0,0,-1,734,351,0,0
-483,673,0,0,0,0,0,0,0,0,0,-1,741,351,0,0
-476,673,0,0,0,0,0,0,0,0,0,-1,748,351,0,0
-469,673,0,0,0,0,0,0,0,0,0,-1,755,351,0,0
-462,673,0,0,0,0,0,0,0,0,0,-1,762,351,0,0
-455,673,0,0,0,0,0,0,0,0,0,-1,769,351,0,0
-448,673,0,0,0,0,0,0,0,0,0,-1,776,351,0,0
-441,673,0,0,0,0,0,0,0,0,0,-1,783,351,0,0
-434,673,0,0,0,0,0,0,0,0,0,-1,790,351,0,0
-427,673,0,0,0,0,0,0,0,0,0,-1,797,351,0,0
-420,673,0,0,0,0,0,0,0,0,0,-1,804,351,0,0
-413,673,0,0,0,0,0,0,0,0,0,-1,811,351,0,0
-406,673,0,0,0,0,0,0,0,0,0,-1,818,351,0,0
-399,673,0,0,0,0,0,0,0,0,0,-1,825,351,0,0
-392,673,0,0,0,0,0,0,0,0,0,-1,832,351,0,0
-385,673,0,0,0,0,0,0,0,0,0,-1,839,351,0,0
-378,673,0,0,0,0,0,0,0,0,0,-1,846,351,0,0
-371,673,0,0,0,0,0,0,0,0,0,-1,853,351,0,0
-364,673,0,0,0,0,0,0,0,0,0,-1,860,351,0,0
-357,673,0,0,0,0,0,0,0,0,0,-1,867,351,0,0
-350,673,0,0,0,0,0,0,0,0,0,-1,874,351,0,0
-343,673,0,0,0,0,0,0,0,0,0,-1,881,351,0,0
-336,673,0,0,0,0,0,0,0,0,0,-1,888,351,0,0
-329,673,0,0,0,0,0,0,0,0,0,-1,895,351,0,0
-322,673,0,0,0,0,0,0,0,0,0,-1,902,351,0,0
-315,673,0,0,0,0,0,0,0,0,0,-1,909,351,0,0
-308,673,0,0,0,0,0,0,0,0,0,-1,916,351,0,0
-301,673,0,0,0,0,0,0,0,0,0,-1,923,351,0,0
-294,673,0,0,0,0,0,0,0,0,0,-1,930,351,0,0
-287,673,0,0,0,0,0,0,0,0,0,-1,937,351,0,0
-280,673,0,0,0,0,0,0,0,0,0,-1,944,351,0,0
-273,673,0,0,0,0,0,0,0,0,0,-1,951,351,0,0
-266,673,0,0,0,0,0,0,0,0,0,-1,958,351,0,0
-259,673,0,0,0,0,0,0,0,0,0,-1,965,351,0,0
-252,673,0,0,0,0,0,0,0,0,0,-1,972,351,0,0
-245,673,0,0,0,0,0,0,0,0,0,-1,979,351,0,0
-238,673,0,0,0,0,0,0,0,0,0,-1,986,351,0,0
-231,673,0,0,0,0,0,0,0,0,0,-1,993,351,0,0
-224,673,0,0,0,0,0,0,0,0,0,-1,1000,351,0,0
-217,673,0,0,0,0,0,0,0,0,0,-1,1007,351,0,0
-210,673,0,0,0,0,0,0,0,0,0,-1,1014,351,0,0
-203,673,0,0,0,0,0,0,0,0,0,-1,1021,351,0,0
-196,673,0,0,0,0,0,0,0,0,0,-1,1028,351,0,0
-189,673,0,0,0,0,0,0,0,0,0,-1,1035,351,0,0
-182,673,0,0,0,0,0,0,0,0,0,-1,1042,351,0,0
-175,673,7.10449,-31.8279,0,0,0,0,0,0,0,-1,1049,351,7.10448,31.8279
-168,673,7.33081,-32.7122,0,0,0,0,0,0,0,-1,1056,351,7.33085,32.7122
-161,673,7.8938,-33.5352,0,0,0,0,0,0,0,-1,1063,351,7.89385,33.5352
-154,673,8.80566,-35.3518,0,0,0,0,0,0,0,-1,1070,351,8.80563,35.3518
-147,673,2.89221,-37.7351,0,0,0,0,0,0,0,-1,1077,351,2.89224,37.7351
-140,673,3.35046,-37.7151,0,0,0,0,0,0,0,-1,1084,351,3.35046,37.715
-133,673,3.35339,-39.0288,0,0,0,0,0,0,0,-1,1091,351,3.35342,39.0288
-126,673,3.7533,-38.0453,0,0,0,0,0,0,0,-1,1098,351,3.7533,38.0453
-119,673,4.1532,-37.0618,0,0,0,0,0,0,0,-1,1105,351,4.15318,37.0618
-112,673,7.27234,-32.5801,0,0,0,0,0,0,0,-1,1112,351,7.27231,32.5801
-105,673,21.1144,-43.3143,0,0,0,0,0,0,0,-1,1119,351,21.1143,43.3143
-98,673,14.8014,-36.7519,0,0,0,0,0,0,0,-1,1126,351,14.8014,36.7519
-91,673,8.54944,-29.9639,0,0,0,0,0,0,0,-1,1133,351,8.54949,29.9639
-84,673,2.17102,-24.3204,0,0,0,0,0,0,0,-1,1140,351,2.17107,24.3204
-77,673,-4.25378,-18.8346,0,0,0,0,0,0,0,-1,1147,351,-4.25381,18.8346
-70,673,-10.7933,-13.6681,0,0,0,0,0,0,0,-1,1154,351,-10.7934,13.6681
-63,673,-17.3896,-8.24469,0,0,0,0,0,0,0,-1,1161,351,-17.3896,8.2447
-56,673,-18.0282,2.79053,0,0,0,0,0,0,0,-1,1168,351,-18.0283,-2.79052
-49,673,-0.926758,-0.115448,0,0,0,0,0,0,0,-1,1175,351,-0.926732,0.115444
-42,673,-1.15015,0.289917,0,0,0,0,0,0,0,-1,1182,351,-1.15017,-0.289932
-35,673,-0.919556,-1.00711,0,0,0,0,0,0,0,-1,1189,351,-0.919514,1.00711
-28,673,5.28918,-39.2331,0,0,0,0,0,0,0,-1,1196,351,5.28924,39.2331
-21,673,9.30481,-60.8943,0,0,0,0,0,0,0,-1,1203,351,9.30483,60.8944
-14,673,8.99182,-61.1721,-0.0161503,0.0593616,-0.0137543,0.0617889,-0.0185776,-1.39612,0.0485839,0.0464962,1210,351,8.99182,61.1721
-7,673,8.8822,-61.7002,-0.0166944,0.0622791,-0.0123879,0.0641767,-0.018592,-1.4188,0.0501441,0.0485974,1217,351,8.88217,61.7002
0,673,8.74329,-61.9388,0,0,0,0,0,0,0,-1,1224,351,8.74326,61.9388
7,673,8.56287,-62.0358,0,0,0,0,0,0,0,-1,1231,351,8.5629,62.0358
14,673,8.65356,-61.9416,-0.0168766,0.0699824,-0.00770567,0.0706607,-0.0175549,-1.483,0.0539199,0.048556,1238,351,8.65359,61.9416
21,673,8.55347,-62.2418,-0.0159931,0.0721899,-0.00624534,0.07263,-0.0164332,-1.50044,0.0547264,0.0374934,1245,351,8.55341,62.2418
28,673,8.46924,-62.4848,-0.0145843,0.0738472,-0.00432092,0.0740579,-0.0147949,-1.52209,0.0549713,0.0354073,1252,351,8.46924,62.4848
35,673,8.22473,-62.4874,0,0,0,0,0,0,0,-1,1259,351,8.22477,62.4874
42,673,8.06665,-62.6332,-0.0121214,0.0774863,-0.000224338,0.0774868,-0.0121219,-1.56829,0.0561365,0.0399894,1266,351,8.06666,62.6332
49,673,7.91309,-62.7815,-0.0108131,0.0818785,0.00198106,0.0819208,-0.0108554,1.54944,0.0585686,0.0245587,1273,351,7.91313,62.7815
56,673,7.896,-62.7928,-0.00908691,0.0866004,0.00388315,0.0867577,-0.00924423,1.5303,0.0611532,0.0187988,1280,351,7.89605,62.7929
63,673,7.91553,-62.5537,-0.00749525,0.0911902,0.00573898,0.0915228,-0.00782787,1.5129,0.0637848,0.0232333,1287,351,7.91556,62.5537
70,673,7.82922,-62.4978,-0.00670418,0.0972698,0.00736503,0.0977889,-0.00722329,1.50043,0.0677289,0.0362453,1294,351,7.82924,62.4978
77,673,7.81335,-62.2989,-0.00586357,0.103695,0.00875776,0.104391,-0.00655922,1.49153,0.0718801,0.0396643,1301,351,7.81338,62.2989
84,673,7.70508,-62.1313,-0.00592039,0.111521,0.010134,0.112389,-0.00678843,1.48535,0.0772885,0.0451278,1308,351,7.70506,62.1313
91,673,7.62842,-62.8745,0,0,0,0,0,0,0,-1,1315,351,7.62838,62.8745
98,673,7.3241,-62.8765,0,0,0,0,0,0,0,-1,1322,351,7.32404,62.8765
105,673,6.91345,-62.5611,0,0,0,0,0,0,0,-1,1329,351,6.9134,62.5611
112,673,6.8866,-61.1848,0,0,0,0,0,0,0,-1,1336,351,6.8866,61.1847
119,673,5.33801,-61.3758,0,0,0,0,0,0,0,-1,1343,351,5.33798,61.3758
126,673,3.35681,-61.6391,0,0,0,0,0,0,0,-1,1350,351,3.35686,61.6391
133,673,2.0387,-61.9546,0,0,0,0,0,0,0,-1,1357,351,2.03865,61.9546
140,673,6.29211,-61.3719,0,0,0,0,0,0,0,-1,1364,351,6.29215,61.3719
147,673,5.98645,-60.8537,-0.00727992,0.12598,0.0143045,0.127498,-0.00879811,1.46506,0.0880782,0.049241,1371,351,5.98644,60.8537
154,673,6.10657,-59.8293,-0.00717979,0.117697,0.0151682,0.119513,-0.00899579,1.45164,0.082837,0.0466109,1378,351,6.10653,59.8293
161,673,6.26843,-59.834,0,0,0,0,0,0,0,-1,1385,351,6.26841,59.834
168,673,6.87061,1.83954,0,0,0,0,0,0,0,-1,1392,351,6.87063,-1.83953
175,673,6.6228,1.1459,0,0,0,0,0,0,0,-1,1399,351,6.62276,-1.14591
182,673,6.37244,0.796112,0,0,0,0,0,0,0,-1,1406,351,6.3724,-0.796102
189,673,6.12097,0.265472,0,0,0,0,0,0,0,-1,1413,351,6.121,-0.265482
196,673,6.02173,3.12717,0,0,0,0,0,0,0,-1,1420,351,6.02176,-3.12717
203,673,5.04456,1.6351,0,0,0,0,0,0,0,-1,1427,351,5.04455,-1.63509
210,673,4.79224,0.447479,0,0,0,0,0,0,0,-1,1434,351,4.79229,-0.447469
217,673,2.01648,0.972687,0,0,0,0,0,0,0,-1,1441,351,2.01644,-0.972691
224,673,2.3689,-1.80539,0,0,0,0,0,0,0,-1,1448,351,2.36896,1.80539
231,673,2.65857,-2.18497,0,0,0,0,0,0,0,-1,1455,351,2.65852,2.18496
238,673,3.77844,-2.06088,0,0,0,0,0,0,0,-1,1462,351,3.77839,2.06088
245,673,3.5376,-0.190399,0,0,0,0,0,0,0,-1,1469,351,3.53759,0.1904
252,673,3.80518,0.55603,0,0,0,0,0,0,0,-1,1476,351,3.80519,-0.556022
259,673,3.88562,1.29617,0,0,0,0,0,0,0,-1,1483,351,3.88562,-1.29618
266,673,4.22424,2.04834,0,0,0,0,0,0,0,-1,1490,351,4.22429,-2.04834
273,673,6.07886,0.385895,0,0,0,0,0,0,0,-1,1497,351,6.0789,-0.385906
280,673,6.97534,-0.0820007,0,0,0,0,0,0,0,-1,1504,351,6.97536,0.0820122
287,673,7.66968,-0.348541,0,0,0,0,0,0,0,-1,1511,351,7.66969,0.348534
294,673,8.20996,0.28537,0,0,0,0,0,0,0,-1,1518,351,8.20993,-0.28536
301,673,0,0,0,0,0,0,0,0,0,-1,1525,351,0,0
308,673,0,0,0,0,0,0,0,0,0,-1,1532,351,0,0
315,673,0,0,0,0,0,0,0,0,0,-1,1539,351,0,0
322,673,0,0,0,0,0,0,0,0,0,-1,1546,351,0,0
329,673,0,0,0,0,0,0,0,0,0,-1,1553,351,0,0
336,673,0,0,0,0,0,0,0,0,0,-1,1560,351,0,0
343,673,0,0,0,0,0,0,0,0,0,-1,1567,351,0,0
350,673,0,0,0,0,0,0,0,0,0,-1,1574,351,0,0
357,673,0,0,0,0,0,0,0,0,0,-1,1581,351,0,0
364,673,0,0,0,0,0,0,0,0,0,-1,1588,351,0,0
371,673,0,0,0,0,0,0,0,0,0,-1,1595,351,0,0
378,673,0,0,0,0,0,0,0,0,0,-1,1602,351,0,0
385,673,0,0,0,0,0,0,0,0,0,-1,1609,351,0,0
392,673,0,0,0,0,0,0,0,0,0,-1,1616,351,0,0
399,673,0,0,0,0,0,0,0,0,0,-1,1623,351,0,0
406,673,0,0,0,0,0,0,0,0,0,-1,1630,351,0,0
413,673,0,0,0,0,0,0,0,0,0,-1,1637,351,0,0
420,673,0,0,0,0,0,0,0,0,0,-1,1644,351,0,0
427,673,0,0,0,0,0,0,0,0,0,-1,1651,351,0,0
434,673,0,0,0,0,0,0,0,0,0,-1,1658,351,0,0
441,673,0,0,0,0,0,0,0,0,0,-1,1665,351,0,0
448,673,0,0,0,0,0,0,0,0,0,-1,1672,351,0,0
455,673,0,0,0,0,0,0,0,0,0,-1,1679,351,0,0
462,673,0,0,0,0,0,0,0,0,0,-1,1686,351,0,0
469,673,0,0,0,0,0,0,0,0,0,-1,1693,351,0,0
476,673,0,0,0,0,0,0,0,0,0,-1,1700,351,0,0
483,673,0,0,0,0,0,0,0,0,0,-1,1707,351,0,0
490,673,0,0,0,0,0,0,0,0,0,-1,1714,351,0,0
497,673,0,0,0,0,0,0,0,0,0,-1,1721,351,0,0
504,673,0,0,0,0,0,0,0,0,0,-1,1728,351,0,0
511,673,0,0,0,0,0,0,0,0,0,-1,1735,351,0,0
518,673,0,0,0,0,0,0,0,0,0,-1,1742,351,0,0
525,673,0,0,0,0,0,0,0,0,0,-1,1749,351,0,0
532,673,0,0,0,0,0,0,0,0,0,-1,1756,351,0,0
539,673,0,0,0,0,0,0,0,0,0,-1,1763,351,0,0
546,673,0,0,0,0,0,0,0,0,0,-1,1770,351,0,0
553,673,0,0,0,0,0,0,0,0,0,-1,1777,351,0,0
560,673,0,0,0,0,0,0,0,0,0,-1,1784,351,0,0
567,673,0,0,0,0,0,0,0,0,0,-1,1791,351,0,0
574,673,0,0,0,0,0,0,0,0,0,-1,1798,351,0,0
581,673,0,0,0,0,0,0,0,0,0,-1,1805,351,0,0
588,673,0,0,0,0,0,0,0,0,0,-1,1812,351,0,0
595,673,0,0,0,0,0,0,0,0,0,-1,1819,351,0,0
602,673,0,0,0,0,0,0,0,0,0,-1,1826,351,0,0
609,673,0,0,0,0,0,0,0,0,0,-1,1833,351,0,0
616,673,0,0,0,0,0,0,0,0,0,-1,1840,351,0,0
623,673,0,0,0,0,0,0,0,0,0,-1,1847,351,0,0
630,673,0,0,0,0,0,0,0,0,0,-1,1854,351,0,0
637,673,0,0,0,0,0,0,0,0,0,-1,1861,351,0,0
644,673,0,0,0,0,0,0,0,0,0,-1,1868,351,0,0
651,673,0,0,0,0,0,0,0,0,0,-1,1875,351,0,0
658,673,0,0,0,0,0,0,0,0,0,-1,1882,351,0,0
665,673,0,0,0,0,0,0,0,0,0,-1,1889,351,0,0
672,673,0,0,0,0,0,0,0,0,0,-1,1896,351,0,0
679,673,0,0,0,0,0,0,0,0,0,-1,1903,351,0,0
686,673,0,0,0,0,0,0,0,0,0,-1,1910,351,0,0
693,673,0,0,0,0,0,0,0,0,0,-1,1917,351,0,0
700,673,0,0,0,0,0,0,0,0,0,-1,1924,351,0,0
707,673,0,0,0,0,0,0,0,0,0,-1,1931,351,0,0
714,673,0,0,0,0,0,0,0,0,0,-1,1938,351,0,0
721,673,0,0,0,0,0,0,0,0,0,-1,1945,351,0,0
728,673,0,0,0,0,0,0,0,0,0,-1,1952,351,0,0
735,673,0,0,0,0,0,0,0,0,0,-1,1959,351,0,0
742,673,0,0,0,0,0,0,0,0,0,-1,1966,351,0,0
749,673,0,0,0,0,0,0,0,0,0,-1,1973,351,0,0
756,673,0,0,0,0,0,0,0,0,0,-1,1980,351,0,0
763,673,0,0,0,0,0,0,0,0,0,-1,1987,351,0,0
770,673,0,0,0,0,0,0,0,0,0,-1,1994,351,0,0
777,673,0,0,0,0,0,0,0,0,0,-1,2001,351,0,0
784,673,0,0,0,0,0,0,0,0,0,-1,2008,351,0,0
791,673,0,0,0,0,0,0,0,0,0,-1,2015,351,0,0
798,673,0,0,0,0,0,0,0,0,0,-1,2022,351,0,0
805,673,0,0,0,0,0,0,0,0,0,-1,2029,351,0,0
812,673,0,0,0,0,0,0,0,0,0,-1,2036,351,0,0
-700,666,0,0,0,0,0,0,0,0,0,-1,524,358,0,0
-693,666,0,0,0,0,0,0,0,0,0,-1,531,358,0,0
-686,666,0,0,0,0,0,0,0,0,0,-1,538,358,0,0
-679,666,0,0,0,0,0,0,0,0,0,-1,545,358,0,0
-672,666,0,0,0,0,0,0,0,0,0,-1,552,358,0,0
-665,666,0,0,0,0,0,0,0,0,0,-1,559,358,0,0
-658,666,0,0,0,0,0,0,0,0,0,-1,566,358,0,0
-651,666,0,0,0,0,0,0,0,0,0,-1,573,358,0,0
-644,666,0,0,0,0,0,0,0,0,0,-1,580,358,0,0
-637,666,0,0,0,0,0,0,0,0,0,-1,587,358,0,0
-630,666,0,0,0,0,0,0,0,0,0,-1,594,358,0,0
-623,666,0,0,0,0,0,0,0,0,0,-1,601,358,0,0
-616,666,0,0,0,0,0,0,0,0,0,-1,608,358,0,0
-609,666,0,0,0,0,0,0,0,0,0,-1,615,358,0,0
-602,666,0,0,0,0,0,0,0,0,0,-1,622,358,0,0
-595,666,0,0,0,0,0,0,0,0,0,-1,629,358,0,0
-588,666,0,0,0,0,0,0,0,0,0,-1,636,358,0,0
-581,666,0,0,0,0,0,0,0,0,0,-1,643,358,0,0
-574,666,0,0,0,0,0,0,0,0,0,-1,650,358,0,0
-567,666,0,0,0,0,0,0,0,0,0,-1,657,358,0,0
-560,666,0,0,0,0,0,0,0,0,0,-1,664,358,0,0
-553,666,0,0,0,0,0,0,0,0,0,-1,671,358,0,0
-546,666,0,0,0,0,0,0,0,0,0,-1,678,358,0,0
-539,666,0,0,0,0,0,0,0,0,0,-1,685,358,0,0
-532,666,0,0,0,0,0,0,0,0,0,-1,692,358,0,0
-525,666,0,0,0,0,0,0,0,0,0,-1,699,358,0,0
-518,666,0,0,0,0,0,0,0,0,0,-1,706,358,0,0
-511,666,0,0,0,0,0,0,0,0,0,-1,713,358,0,0
-504,666,0,0,0,0,0,0,0,0,0,-1,720,358,0,0
-497,666,0,0,0,0,0,0,0,0,0,-1,727,358,0,0
-490,666,0,0,0,0,0,0,0,0,0,-1,734,358,0,0
-483,666,0,0,0,0,0,0,0,0,0,-1,741,358,0,0
-476,666,0,0,0,0,0,0,0,0,0,-1,748,358,0,0
-469,666,0,0,0,0,0,0,0,0,0,-1,755,358,0,0
-462,666,0,0,0,0,0,0,0,0,0,-1,762,358,0,0
-455,666,0,0,0,0,0,0,0,0,0,-1,769,358,0,0
-448,666,0,0,0,0,0,0,0,0,0,-1,776,358,0,0
-441,666,0,0,0,0,0,0,0,0,0,-1,783,358,0,0
-434,666,0,0,0,0,0,0,0,0,0,-1,790,358,0,0
-427,666,0,0,0,0,0,0,0,0,0,-1,797,358,0,0
-420,666,0,0,0,0,0,0,0,0,0,-1,804,358,0,0
-413,666,0,0,0,0,0,0,0,0,0,-1,811,358,0,0
-406,666,0,0,0,0,0,0,0,0,0,-1,818,358,0,0
-399,666,0,0,0,0,0,0,0,0,0,-1,825,358,0,0
-392,666,0,0,0,0,0,0,0,0,0,-1,832,358,0,0
-385,666,0,0,0,0,0,0,0,0,0,-1,839,358,0,0
-378,666,0,0,0,0,0,0,0,0,0,-1,846,358,0,0
-371,666,0,0,0,0,0,0,0,0,0,-1,853,358,0,0
-364,666,0,0,0,0,0,0,0,0,0,-1,860,358,0,0
-357,666,0,0,0,0,0,0,0,0,0,-1,867,358,0,0
-350,666,0,0,0,0,0,0,0,0,0,-1,874,358,0,0
-343,666,0,0,0,0,0,0,0,0,0,-1,881,358,0,0
-336,666,0,0,0,0,0,0,0,0,0,-1,888,358,0,0
-329,666,0,0,0,0,0,0,0,0,0,-1,895,358,0,0
-322,666,0,0,0,0,0,0,0,0,0,-1,902,358,0,0
-315,666,0,0,0,0,0,0,0,0,0,-1,909,358,0,0
-308,666,0,0,0,0,0,0,0,0,0,-1,916,358,0,0
-301,666,0,0,0,0,0,0,0,0,0,-1,923,358,0,0
-294,666,0,0,0,0,0,0,0,0,0,-1,930,358,0,0
-287,666,0,0,0,0,0,0,0,0,0,-1,937,358,0,0
-280,666,0,0,0,0,0,0,0,0,0,-1,944,358,0,0
-273,666,0,0,0,0,0,0,0,0,0,-1,951,358,0,0
-266,666,0,0,0,0,0,0,0,0,0,-1,958,358,0,0
-259,666,0,0,0,0,0,0,0,0,0,-1,965,358,0,0
-252,666,0,0,0,0,0,0,0,0,0,-1,972,358,0,0
-245,666,0,0,0,0,0,0,0,0,0,-1,979,358,0,0
-238,666,0,0,0,0,0,0,0,0,0,-1,986,358,0,0
-231,666,0,0,0,0,0,0,0,0,0,-1,993,358,0,0
-224,666,0,0,0,0,0,0,0,0,0,-1,1000,358,0,0
-217,666,0,0,0,0,0,0,0,0,0,-1,1007,358,0,0
-210,666,0,0,0,0,0,0,0,0,0,-1,1014,358,0,0
-203,666,0,0,0,0,0,0,0,0,0,-1,1021,358,0,0
-196,666,4.03418,-28.8724,0,0,0,0,0,0,0,-1,1028,358,4.03422,28.8724
-189,666,5.00366,-29.597,0,0,0,0,0,0,0,-1,1035,358,5.00363,29.597
-182,666,6.83252,-30.9843,0,0,0,0,0,0,0,-1,1042,358,6.83247,30.9844
-175,666,7.01611,-31.8763,0,0,0,0,0,0,0,-1,1049,358,7.01617,31.8762
-168,666,7.21545,-32.7414,0,0,0,0,0,0,0,-1,1056,358,7.2154,32.7414
-161,666,7.69116,-33.6269,0,0,0,0,0,0,0,-1,1063,358,7.69121,33.6269
-154,666,3.79041,-37.9204,0,0,0,0,0,0,0,-1,1070,358,3.79034,37.9204
-147,666,4.17908,-37.7466,0,0,0,0,0,0,0,-1,1077,358,4.17912,37.7466
-140,666,4.54309,-37.735,0,0,0,0,0,0,0,-1,1084,358,4.54304,37.735
-133,666,4.65723,-39.0643,0,0,0,0,0,0,0,-1,1091,358,4.65727,39.0643
-126,666,5.02368,-38.0699,0,0,0,0,0,0,0,-1,1098,358,5.02363,38.0698
-119,666,5.39001,-37.0754,0,0,0,0,0,0,0,-1,1105,358,5.38999,37.0754
-112,666,6.77014,-32.8165,0,0,0,0,0,0,0,-1,1112,358,6.77013,32.8165
-105,666,6.30908,-29.0855,0,0,0,0,0,0,0,-1,1119,358,6.30905,29.0855
-98,666,15.4427,-31.5168,0,0,0,0,0,0,0,-1,1126,358,15.4428,31.5168
-91,666,9.5127,-25.1347,0,0,0,0,0,0,0,-1,1133,358,9.51269,25.1347
-84,666,2.91589,-19.4071,0,0,0,0,0,0,0,-1,1140,358,2.91592,19.4071
-77,666,-3.48083,-14.0782,0,0,0,0,0,0,0,-1,1147,358,-3.48081,14.0782
-70,666,-9.99438,-8.90146,0,0,0,0,0,0,0,-1,1154,358,-9.99433,8.90146
-63,666,-11.7778,-0.975189,0,0,0,0,0,0,0,-1,1161,358,-11.7778,0.97519
-56,666,0.424683,-2.04132,0,0,0,0,0,0,0,-1,1168,358,0.424665,2.04132
-49,666,0.754395,-2.23169,0,0,0,0,0,0,0,-1,1175,358,0.754383,2.23169
-42,666,1.34473,-3.53897,0,0,0,0,0,0,0,-1,1182,358,1.34476,3.53896
-35,666,8.85217,-61.2044,0,0,0,0,0,0,0,-1,1189,358,8.85222,61.2044
-28,666,8.97864,-61.3183,0,0,0,0,0,0,0,-1,1196,358,8.97868,61.3183
-21,666,8.96851,-61.3595,-0.0135661,0.0446975,-0.0113318,0.0468238,-0.0156925,-1.38531,0.0375559,0.0450851,1203,358,8.96853,61.3595
-14,666,8.7561,-61.6665,-0.0138148,0.0469058,-0.0106179,0.048709,-0.015618,-1.40258,0.0387426,0.0406633,1210,358,8.75608,61.6665
-7,666,8.61682,-61.9546,-0.0140517,0.0489947,-0.00971844,0.0504588,-0.0155158,-1.42127,0.0398315,0.0252245,1217,358,8.61686,61.9546
0,666,8.58496,-62.2472,-0.0141923,0.0509789,-0.00873364,0.052129,-0.0153424,-1.43986,0.040839,0.0163774,1224,358,8.58491,62.2472
7,666,8.46472,-62.3914,-0.0140884,0.0527298,-0.00751553,0.0535647,-0.0149233,-1.46016,0.0415866,0.0220626,1231,358,8.46471,62.3914
14,666,8.3772,-62.4648,-0.0137507,0.0546815,-0.00623437,0.0552449,-0.014314,-1.48068,0.0424142,0.0213311,1238,358,8.37717,62.4648
21,666,8.27771,-62.7431,-0.012988,0.0565246,-0.00505538,0.0568904,-0.0133537,-1.49858,0.0430738,0.017944,1245,358,8.27767,62.7431
28,666,8.19165,-62.9373,-0.0118314,0.0579818,-0.00345647,0.0581525,-0.0120022,-1.52145,0.0433268,0.0234584,1252,358,8.19167,62.9372
35,666,8.18787,-62.9262,-0.0108284,0.0600504,-0.00166667,0.0600896,-0.0108675,-1.5473,0.0441305,0.021074,1259,358,8.18785,62.9262
42,666,8.05945,-63.0447,-0.00984029,0.0612572,-3.74024e-05,0.0612572,-0.00984031,-1.57027,0.0444826,0.0173117,1266,358,8.05948,63.0447
49,666,7.93542,-63.14,-0.00881065,0.064757,0.00179807,0.0648009,-0.00885458,1.54637,0.0464344,0.0167613,1273,358,7.93544,63.14
56,666,7.88477,-63.1895,-0.00748845,0.068567,0.00338635,0.0687175,-0.00763893,1.52639,0.0485587,0.017242,1280,358,7.88475,63.1895
63,666,7.82092,-63.2946,-0.00628471,0.0722609,0.00493795,0.0725701,-0.00659392,1.50826,0.0507211,0.0198668,1287,358,7.82092,63.2946
70,666,7.75134,-63.2694,-0.00569092,0.0769649,0.00628623,0.0774402,-0.00616628,1.49532,0.0538002,0.0192997,1294,358,7.75134,63.2695
77,666,7.70654,-63.0446,-0.00509202,0.0817288,0.00742156,0.0823586,-0.00572185,1.48613,0.056909,0.0211573,1301,358,7.70653,63.0446
84,666,7.70166,-63.0283,-0.00516583,0.0873244,0.00846817,0.0880933,-0.00593476,1.48024,0.0608038,0.0304272,1308,358,7.70163,63.0283
91,666,7.56177,-63.1198,-0.00553092,0.0923045,0.00918222,0.0931588,-0.00638524,1.47802,0.06434,0.0281677,1315,358,7.56172,63.1198
98,666,7.36133,-63.0375,-0.00569905,0.0964411,0.0099265,0.0973969,-0.00665481,1.47481,0.0672593,0.0239048,1322,358,7.36135,63.0375
105,666,7.16907,-62.8133,-0.00586871,0.0998583,0.0105317,0.100897,-0.00690758,1.47247,0.0696815,0.0282192,1329,358,7.16911,62.8132
112,666,7.08728,-62.624,0,0,0,0,0,0,0,-1,1336,358,7.08724,62.624
119,666,7.04785,-62.3969,0,0,0,0,0,0,0,-1,1343,358,7.04785,62.3969
126,666,6.95984,-62.1605,0,0,0,0,0,0,0,-1,1350,358,6.95985,62.1605
133,666,6.7677,-61.8571,0,0,0,0,0,0,0,-1,1357,358,6.76771,61.8572
140,666,6.64636,-61.6956,-0.0068204,0.0962729,0.0108282,0.0973979,-0.00794545,1.46727,0.0677359,0.0445008,1364,358,6.64635,61.6956
147,666,6.47351,-61.3809,-0.00651928,0.0912964,0.0113284,0.0925912,-0.00781412,1.45699,0.0644902,0.0323303,1371,358,6.47355,61.3809
154,666,6.45679,-60.7989,-0.0065284,0.083429,0.0118295,0.0849586,-0.008058,1.44221,0.0595072,0.0291799,1378,358,6.45675,60.7989
161,666,6.46448,-60.433,-0.00657056,0.0743481,0.0126327,0.0762745,-0.00849688,1.41948,0.0539056,0.0380299,1385,358,6.46453,60.433
168,666,6.4082,-60.0498,0,0,0,0,0,0,0,-1,1392,358,6.4082,60.0498
175,666,6.47754,-60.1613,0,0,0,0,0,0,0,-1,1399,358,6.47751,60.1613
182,666,2.60876,-5.17068,0,0,0,0,0,0,0,-1,1406,358,2.6088,5.17068
189,666,2.46973,-5.49979,0,0,0,0,0,0,0,-1,1413,358,2.46975,5.49979
196,666,2.32458,-5.23651,0,0,0,0,0,0,0,-1,1420,358,2.32461,5.23653
203,666,2.28064,-3.88004,0,0,0,0,0,0,0,-1,1427,358,2.28059,3.88003
210,666,3.02576,-5.83548,0,0,0,0,0,0,0,-1,1434,358,3.02581,5.83547
217,666,2.30444,-5.36011,0,0,0,0,0,0,0,-1,1441,358,2.30447,5.3601
224,666,1.82324,-6.03101,0,0,0,0,0,0,0,-1,1448,358,1.82322,6.031
231,666,2.29797,-10.1093,0,0,0,0,0,0,0,-1,1455,358,2.29801,10.1093
238,666,2.52429,-6.10568,0,0,0,0,0,0,0,-1,1462,358,2.52423,6.10567
245,666,4.53345,-1.38205,0,0,0,0,0,0,0,-1,1469,358,4.53349,1.38204
252,666,4.77405,-0.246979,0,0,0,0,0,0,0,-1,1476,358,4.77405,0.246993
259,666,4.83655,1.14087,0,0,0,0,0,0,0,-1,1483,358,4.83652,-1.14087
266,666,6.14148,0.749512,0,0,0,0,0,0,0,-1,1490,358,6.14144,-0.749519
273,666,3.17737,-33.7881,0,0,0,0,0,0,0,-1,1497,358,3.17735,33.7881
280,666,3.37268,-35.2123,0,0,0,0,0,0,0,-1,1504,358,3.37266,35.2123
287,666,-7.06934,-20.3464,0,0,0,0,0,0,0,-1,1511,358,-7.06933,20.3464
294,666,-2.11157,-23.2753,0,0,0,0,0,0,0,-1,1518,358,-2.11162,23.2753
301,666,-3.16162,-22.2271,0,0,0,0,0,0,0,-1,1525,358,-3.16161,22.2271
308,666,-4.24951,-20.9112,0,0,0,0,0,0,0,-1,1532,358,-4.24948,20.9112
315,666,-5.64954,-19.5784,0,0,0,0,0,0,0,-1,1539,358,-5.64959,19.5784
322,666,0,0,0,0,0,0,0,0,0,-1,1546,358,0,0
329,666,0,0,0,0,0,0,0,0,0,-1,1553,358,0,0
336,666,0,0,0,0,0,0,0,0,0,-1,1560,358,0,0
343,666,0,0,0,0,0,0,0,0,0,-1,1567,358,0,0
350,666,0,0,0,0,0,0,0,0,0,-1,1574,358,0,0
357,666,0,0,0,0,0,0,0,0,0,-1,1581,358,0,0
364,666,0,0,0,0,0,0,0,0,0,-1,1588,358,0,0
371,666,0,0,0,0,0,0,0,0,0,-1,1595,358,0,0
378,666,0,0,0,0,0,0,0,0,0,-1,1602,358,0,0
385,666,0,0,0,0,0,0,0,0,0,-1,1609,358,0,0
392,666,0,0,0,0,0,0,0,0,0,-1,1616,358,0,0
399,666,0,0,0,0,0,0,0,0,0,-1,1623,358,0,0
406,666,0,0,0,0,0,0,0,0,0,-1,1630,358,0,0
413,666,0,0,0,0,0,0,0,0,0,-1,1637,358,0,0
420,666,0,0,0,0,0,0,0,0,0,-1,1644,358,0,0
427,666,0,0,0,0,0,0,0,0,0,-1,1651,358,0,0
434,666,0,0,0,0,0,0,0,0,0,-1,1658,358,0,0
441,666,0,0,0,0,0,0,0,0,0,-1,1665,358,0,0
448,666,0,0,0,0,0,0,0,0,0,-1,1672,358,0,0
455,666,0,0,0,0,0,0,0,0,0,-1,1679,358,0,0
462,666,0,0,0,0,0,0,0,0,0,-1,1686,358,0,0
469,666,0,0,0,0,0,0,0,0,0,-1,1693,358,0,0
476,666,0,0,0,0,0,0,0,0,0,-1,1700,358,0,0
483,666,0,0,0,0,0,0,0,0,0,-1,1707,358,0,0
490,666,0,0,0,0,0,0,0,0,0,-1,1714,358,0,0
497,666,0,0,0,0,0,0,0,0,0,-1,1721,358,0,0
504,666,0,0,0,0,0,0,0,0,0,-1,1728,358,0,0
511,666,0,0,0,0,0,0,0,0,0,-1,1735,358,0,0
518,666,0,0,0,0,0,0,0,0,0,-1,1742,358,0,0
525,666,0,0,0,0,0,0,0,0,0,-1,1749,358,0,0
532,666,0,0,0,0,0,0,0,0,0,-1,1756,358,0,0
539,666,0,0,0,0,0,0,0,0,0,-1,1763,358,0,0
546,666,0,0,0,0,0,0,0,0,0,-1,1770,358,0,0
553,666,0,0,0,0,0,0,0,0,0,-1,1777,358,0,0
560,666,0,0,0,0,0,0,0,0,0,-1,1784,358,0,0
567,666,0,0,0,0,0,0,0,0,0,-1,1791,358,0,0
574,666,0,0,0,0,0,0,0,0,0,-1,1798,358,0,0
581,666,0,0,0,0,0,0,0,0,0,-1,1805,358,0,0
588,666,0,0,0,0,0,0,0,0,0,-1,1812,358,0,0
595,666,0,0,0,0,0,0,0,0,0,-1,1819,358,0,0
602,666,0,0,0,0,0,0,0,0,0,-1,1826,358,0,0
609,666,0,0,0,0,0,0,0,0,0,-1,1833,358,0,0
616,666,0,0,0,0,0,0,0,0,0,-1,1840,358,0,0
623,666,0,0,0,0,0,0,0,0,0,-1,1847,358,0,0
630,666,0,0,0,0,0,0,0,0,0,-1,1854,358,0,0
637,666,0,0,0,0,0,0,0,0,0,-1,1861,358,0,0
644,666,0,0,0,0,0,0,0,0,0,-1,1868,358,0,0
651,666,0,0,0,0,0,0,0,0,0,-1,1875,358,0,0
658,666,0,0,0,0,0,0,0,0,0,-1,1882,358,0,0
665,666,0,0,0,0,0,0,0,0,0,-1,1889,358,0,0
672,666,0,0,0,0,0,0,0,0,0,-1,1896,358,0,0
679,666,0,0,0,0,0,0,0,0,0,-1,1903,358,0,0
686,666,0,0,0,0,0,0,0,0,0,-1,1910,358,0,0
693,666,0,0,0,0,0,0,0,0,0,-1,1917,358,0,0
700,666,0,0,0,0,0,0,0,0,0,-1,1924,358,0,0
707,666,0,0,0,0,0,0,0,0,0,-1,1931,358,0,0
714,666,0,0,0,0,0,0,0,0,0,-1,1938,358,0,0
721,666,0,0,0,0,0,0,0,0,0,-1,1945,358,0,0
728,666,0,0,0,0,0,0,0,0,0,-1,1952,358,0,0
735,666,0,0,0,0,0,0,0,0,0,-1,1959,358,0,0
742,666,0,0,0,0,0,0,0,0,0,-1,1966,358,0,0
749,666,0,0,0,0,0,0,0,0,0,-1,1973,358,0,0
756,666,0,0,0,0,0,0,0,0,0,-1,1980,358,0,0
763,666,0,0,0,0,0,0,0,0,0,-1,1987,358,0,0
770,666,0,0,0,0,0,0,0,0,0,-1,1994,358,0,0
777,666,0,0,0,0,0,0,0,0,0,-1,2001,358,0,0
784,666,0,0,0,0,0,0,0,0,0,-1,2008,358,0,0
791,666,0,0,0,0,0,0,0,0,0,-1,2015,358,0,0
798,666,0,0,0,0,0,0,0,0,0,-1,2022,358,0,0
805,666,0,0,0,0,0,0,0,0,0,-1,2029,358,0,0
812,666,0,0,0,0,0,0,0,0,0,-1,2036,358,0,0
-700,659,0,0,0,0,0,0,0,0,0,-1,524,365,0,0
-693,659,0,0,0,0,0,0,0,0,0,-1,531,365,0,0
-686,659,0,0,0,0,0,0,0,0,0,-1,538,365,0,0
-679,659,0,0,0,0,0,0,0,0,0,-1,545,365,0,0
-672,659,0,0,0,0,0,0,0,0,0,-1,552,365,0,0
-665,659,0,0,0,0,0,0,0,0,0,-1,559,365,0,0
-658,659,0,0,0,0,0,0,0,0,0,-1,566,365,0,0
-651,659,0,0,0,0,0,0,0,0,0,-1,573,365,0,0
-644,659,0,0,0,0,0,0,0,0,0,-1,580,365,0,0
-637,659,0,0,0,0,0,0,0,0,0,-1,587,365,0,0
-630,659,0,0,0,0,0,0,0,0,0,-1,594,365,0,0
-623,659,0,0,0,0,0,0,0,0,0,-1,601,365,0,0
-616,659,0,0,0,0,0,0,0,0,0,-1,608,365,0,0
-609,659,0,0,0,0,0,0,0,0,0,-1,615,365,0,0
-602,659,0,0,0,0,0,0,0,0,0,-1,622,365,0,0
-595,659,0,0,0,0,0,0,0,0,0,-1,629,365,0,0
-588,659,0,0,0,0,0,0,0,0,0,-1,636,365,0,0
-581,659,0,0,0,0,0,0,0,0,0,-1,643,365,0,0
-574,659,0,0,0,0,0,0,0,0,0,-1,650,365,0,0
-567,659,0,0,0,0,0,0,0,0,0,-1,657,365,0,0
-560,659,0,0,0,0,0,0,0,0,0,-1,664,365,0,0
-553,659,0,0,0,0,0,0,0,0,0,-1,671,365,0,0
-546,659,0,0,0,0,0,0,0,0,0,-1,678,365,0,0
-539,659,0,0,0,0,0,0,0,0,0,-1,685,365,0,0
-532,659,0,0,0,0,0,0,0,0,0,-1,692,365,0,0
-525,659,0,0,0,0,0,0,0,0,0,-1,699,365,0,0
-518,659,0,0,0,0,0,0,0,0,0,-1,706,365,0,0
-511,659,0,0,0,0,0,0,0,0,0,-1,713,365,0,0
-504,659,0,0,0,0,0,0,0,0,0,-1,720,365,0,0
-497,659,0,0,0,0,0,0,0,0,0,-1,727,365,0,0
-490,659,0,0,0,0,0,0,0,0,0,-1,734,365,0,0
-483,659,0,0,0,0,0,0,0,0,0,-1,741,365,0,0
-476,659,0,0,0,0,0,0,0,0,0,-1,748,365,0,0
-469,659,0,0,0,0,0,0,0,0,0,-1,755,365,0,0
-462,659,0,0,0,0,0,0,0,0,0,-1,762,365,0,0
-455,659,0,0,0,0,0,0,0,0,0,-1,769,365,0,0
-448,659,0,0,0,0,0,0,0,0,0,-1,776,365,0,0
-441,659,0,0,0,0,0,0,0,0,0,-1,783,365,0,0
-434,659,0,0,0,0,0,0,0,0,0,-1,790,365,0,0
-427,659,0,0,0,0,0,0,0,0,0,-1,797,365,0,0
-420,659,0,0,0,0,0,0,0,0,0,-1,804,365,0,0
-413,659,0,0,0,0,0,0,0,0,0,-1,811,365,0,0
-406,659,0,0,0,0,0,0,0,0,0,-1,818,365,0,0
-399,659,0,0,0,0,0,0,0,0,0,-1,825,365,0,0
-392,659,0,0,0,0,0,0,0,0,0,-1,832,365,0,0
-385,659,0,0,0,0,0,0,0,0,0,-1,839,365,0,0
-378,659,0,0,0,0,0,0,0,0,0,-1,846,365,0,0
-371,659,0,0,0,0,0,0,0,0,0,-1,853,365,0,0
-364,659,0,0,0,0,0,0,0,0,0,-1,860,365,0,0
-357,659,0,0,0,0,0,0,0,0,0,-1,867,365,0,0
-350,659,0,0,0,0,0,0,0,0,0,-1,874,365,0,0
-343,659,0,0,0,0,0,0,0,0,0,-1,881,365,0,0
-336,659,0,0,0,0,0,0,0,0,0,-1,888,365,0,0
-329,659,0,0,0,0,0,0,0,0,0,-1,895,365,0,0
-322,659,0,0,0,0,0,0,0,0,0,-1,902,365,0,0
-315,659,0,0,0,0,0,0,0,0,0,-1,909,365,0,0
-308,659,0,0,0,0,0,0,0,0,0,-1,916,365,0,0
-301,659,0,0,0,0,0,0,0,0,0,-1,923,365,0,0
-294,659,0,0,0,0,0,0,0,0,0,-1,930,365,0,0
-287,659,0,0,0,0,0,0,0,0,0,-1,937,365,0,0
-280,659,0,0,0,0,0,0,0,0,0,-1,944,365,0,0
-273,659,0,0,0,0,0,0,0,0,0,-1,951,365,0,0
-266,659,0,0,0,0,0,0,0,0,0,-1,958,365,0,0
-259,659,0,0,0,0,0,0,0,0,0,-1,965,365,0,0
-252,659,0,0,0,0,0,0,0,0,0,-1,972,365,0,0
-245,659,0,0,0,0,0,0,0,0,0,-1,979,365,0,0
-238,659,0,0,0,0,0,0,0,0,0,-1,986,365,0,0
-231,659,0,0,0,0,0,0,0,0,0,-1,993,365,0,0
-224,659,0,0,0,0,0,0,0,0,0,-1,1000,365,0,0
-217,659,10.1305,-25.2622,0,0,0,0,0,0,0,-1,1007,365,10.1305,25.2622
-210,659,9.65643,-25.515,0,0,0,0,0,0,0,-1,1014,365,9.65642,25.515
-203,659,8.58911,-25.7432,0,0,0,0,0,0,0,-1,1021,365,8.58916,25.7432
-196,659,2.68323,-27.8121,0,0,0,0,0,0,0,-1,1028,365,2.6832,27.8121
-189,659,6.88049,-28.9412,0,0,0,0,0,0,0,-1,1035,365,6.88045,28.9412
-182,659,6.94189,-30.6316,0,0,0,0,0,0,0,-1,1042,365,6.94189,30.6316
-175,659,6.948,-32.0092,0,0,0,0,0,0,0,-1,1049,365,6.94798,32.0093
-168,659,7.1416,-32.7405,0,0,0,0,0,0,0,-1,1056,365,7.14157,32.7405
-161,659,7.57361,-33.7099,0,0,0,0,0,0,0,-1,1063,365,7.57355,33.7099
-154,659,7.71448,-34.8995,0,0,0,0,0,0,0,-1,1070,365,7.7145,34.8995
-147,659,5.46606,-37.758,0,0,0,0,0,0,0,-1,1077,365,5.46601,37.758
-140,659,5.7356,-37.755,0,0,0,0,0,0,0,-1,1084,365,5.73562,37.755
-133,659,5.91455,-37.9017,0,0,0,0,0,0,0,-1,1091,365,5.9146,37.9017
-126,659,6.31226,-37.9904,0,0,0,0,0,0,0,-1,1098,365,6.3122,37.9904
-119,659,6.26941,-35.0837,0,0,0,0,0,0,0,-1,1105,365,6.26943,35.0837
-112,659,6.24353,-35.0562,0,0,0,0,0,0,0,-1,1112,365,6.24349,35.0562
-105,659,5.38696,-30.5854,0,0,0,0,0,0,0,-1,1119,365,5.387,30.5854
-98,659,4.68042,-26.2438,0,0,0,0,0,0,0,-1,1126,365,4.68041,26.2438
-91,659,4.20776,-20.8654,0,0,0,0,0,0,0,-1,1133,365,4.20777,20.8654
-84,659,2.8584,-17.8303,0,0,0,0,0,0,0,-1,1140,365,2.85836,17.8303
-77,659,2.80139,-15.3457,0,0,0,0,0,0,0,-1,1147,365,2.80139,15.3457
-70,659,2.9353,-12.7028,0,0,0,0,0,0,0,-1,1154,365,2.93533,12.7028
-63,659,2.11267,-9.7796,0,0,0,0,0,0,0,-1,1161,365,2.11266,9.7796
-56,659,2.11182,-9.91541,0,0,0,0,0,0,0,-1,1168,365,2.11178,9.91541
-49,659,8.90588,-60.4341,0,0,0,0,0,0,0,-1,1175,365,8.90585,60.4341
-42,659,8.86951,-60.7747,0,0,0,0,0,0,0,-1,1182,365,8.86952,60.7747
-35,659,8.76099,-61.1297,-0.0109898,0.0297068,-0.00887821,0.0315593,-0.0128423,-1.36509,0.0263836,0.0418471,1189,365,8.76095,61.1297
-28,659,8.73987,-61.3747,-0.0111746,0.0324679,-0.00846159,0.034051,-0.0127577,-1.38584,0.0279415,0.0169634,1196,365,8.73989,61.3747
-21,659,8.66931,-61.7056,-0.0110998,0.0340882,-0.0083005,0.0355646,-0.0125763,-1.39476,0.0288311,0.0157427,1203,365,8.66931,61.7056
-14,659,8.54907,-62.0036,-0.0111118,0.0356991,-0.00783679,0.0369763,-0.0123889,-1.40925,0.029656,0.013162,1210,365,8.54911,62.0036
-7,659,8.44922,-62.2469,-0.0111223,0.0371818,-0.00727451,0.0382536,-0.0121941,-1.42452,0.0303937,0.0125983,1217,365,8.44925,62.2469
0,659,8.40063,-62.4637,-0.0110644,0.038487,-0.00662495,0.0393574,-0.0119349,-1.44015,0.0309923,0.0103372,1224,365,8.40062,62.4637
7,659,8.34607,-62.6452,-0.0108533,0.0396774,-0.00575657,0.0403249,-0.0115008,-1.45879,0.0314263,0.0100474,1231,365,8.34612,62.6452
14,659,8.27185,-62.7643,-0.0105246,0.0411792,-0.0047918,0.0416196,-0.0109649,-1.47916,0.0320331,0.0129145,1238,365,8.27191,62.7643
21,659,8.19897,-62.9288,-0.00988611,0.042637,-0.0038777,0.0429218,-0.0101709,-1.4975,0.032539,0.0126975,1245,365,8.19899,62.9288
28,659,8.09998,-63.0953,-0.00895507,0.0438349,-0.00260381,0.043963,-0.00908319,-1.52163,0.0327589,0.0116907,1252,365,8.10001,63.0953
35,659,8.06067,-63.1971,-0.00814082,0.0455843,-0.00118397,0.0456104,-0.0081669,-1.54877,0.0334631,0.0128632,1259,365,8.06061,63.1972
42,659,8.01306,-63.2849,-0.00739138,0.0466075,0.00012921,0.0466078,-0.00739168,1.5684,0.0338062,0.0146331,1266,365,8.01301,63.2849
49,659,7.90735,-63.3587,-0.00661406,0.049328,0.00159267,0.0493733,-0.00665936,1.54236,0.035345,0.0155734,1273,365,7.90733,63.3587
56,659,7.82129,-63.4066,-0.00564282,0.0523192,0.00285677,0.0524596,-0.00578328,1.52167,0.0370516,0.0188069,1280,365,7.82133,63.4066
63,659,7.79187,-63.4489,-0.00476817,0.0551981,0.00409007,0.0554757,-0.00504586,1.50301,0.0387754,0.0176835,1287,365,7.79192,63.4488
70,659,7.69629,-63.4515,-0.00434759,0.0587099,0.00514969,0.0591277,-0.00476538,1.48984,0.0410991,0.0191823,1294,365,7.69634,63.4515
77,659,7.59656,-63.4394,-0.00394241,0.0621291,0.00602468,0.062674,-0.00448727,1.4806,0.0433559,0.0217402,1301,365,7.59659,63.4394
84,659,7.5791,-63.3547,-0.00403702,0.0659686,0.00677586,0.0666184,-0.00468682,1.47519,0.0460541,0.0149381,1308,365,7.57912,63.3547
91,659,7.49902,-63.3036,-0.00438748,0.0691826,0.00726355,0.0698929,-0.00509775,1.47332,0.0483841,0.0119465,1315,365,7.49903,63.3036
98,659,7.41211,-63.1779,-0.00455367,0.0717707,0.00783876,0.0725674,-0.00535042,1.4695,0.0502568,0.00901891,1322,365,7.41209,63.1778
105,659,7.35754,-62.9959,-0.00469314,0.0739134,0.00832895,0.0747863,-0.00556596,1.46638,0.0518126,0.0105178,1329,365,7.35751,62.9959
112,659,7.27954,-62.8142,-0.00494894,0.0751531,0.00849451,0.076044,-0.00583984,1.4663,0.0527505,0.0152367,1336,365,7.27956,62.8142
119,659,7.19177,-62.6086,-0.00517032,0.0749804,0.00866383,0.0759062,-0.00609614,1.46434,0.0527537,0.0175476,1343,365,7.19173,62.6086
126,659,7.11523,-62.3569,-0.00556212,0.0736434,0.00879831,0.0746089,-0.00652768,1.46149,0.0520518,0.0181928,1350,365,7.11526,62.3569
133,659,7.02075,-62.1335,-0.00587902,0.0716138,0.00857447,0.0725512,-0.00681644,1.4619,0.0507923,0.0190603,1357,365,7.02078,62.1335
140,659,6.93164,-61.9341,-0.00565074,0.0677302,0.00835136,0.0686687,-0.00658919,1.45889,0.0481261,0.0138602,1364,365,6.93161,61.934
147,659,6.87561,-61.6544,-0.00548826,0.0638633,0.00869712,0.0649374,-0.0065623,1.44792,0.0456366,0.0111662,1371,365,6.87564,61.6544
154,659,6.77942,-61.3061,-0.00555978,0.0576608,0.0090101,0.0589199,-0.00681881,1.43196,0.0417389,0.0132802,1378,365,6.77946,61.3061
161,659,6.70593,-60.9619,-0.00565007,0.0510391,0.00948131,0.0525828,-0.00719379,1.4094,0.0376827,0.0149463,1385,365,6.70599,60.9619
168,659,6.65857,-60.577,-0.00561913,0.0446931,0.00945853,0.0464125,-0.00733854,1.39098,0.0336556,0.0205413,1392,365,6.6586,60.577
175,659,6.60657,-60.1931,-0.00500291,0.0352949,0.00990772,0.0375991,-0.0073071,1.34229,0.0278234,0.043824,1399,365,6.60662,60.1931
182,659,6.44482,-59.8003,0,0,0,0,0,0,0,-1,1406,365,6.44477,59.8003
189,659,6.47937,-59.2407,0,0,0,0,0,0,0,-1,1413,365,6.47938,59.2407
196,659,2.41248,-13.4371,0,0,0,0,0,0,0,-1,1420,365,2.41243,13.4371
203,659,2.38623,-12.2163,0,0,0,0,0,0,0,-1,1427,365,2.38617,12.2163
210,659,2.20789,-13.9792,0,0,0,0,0,0,0,-1,1434,365,2.20794,13.9792
217,659,2.24121,-13.487,0,0,0,0,0,0,0,-1,1441,365,2.24116,13.487
224,659,2.3479,-15.2926,0,0,0,0,0,0,0,-1,1448,365,2.34793,15.2926
231,659,2.47974,-17.8629,0,0,0,0,0,0,0,-1,1455,365,2.47976,17.8628
238,659,3.57886,-21.1258,0,0,0,0,0,0,0,-1,1462,365,3.57889,21.1258
245,659,3.29883,-25.0283,0,0,0,0,0,0,0,-1,1469,365,3.29889,25.0283
252,659,2.81909,-24.1604,0,0,0,0,0,0,0,-1,1476,365,2.81905,24.1604
259,659,2.33069,-3.36703,0,0,0,0,0,0,0,-1,1483,365,2.33073,3.36702
266,659,3.40918,-35.2544,0,0,0,0,0,0,0,-1,1490,365,3.40913,35.2544
273,659,4.45557,-42.3683,0,0,0,0,0,0,0,-1,1497,365,4.45554,42.3683
280,659,4.87903,-41.4995,0,0,0,0,0,0,0,-1,1504,365,4.87898,41.4995
287,659,1.09851,-23.7787,0,0,0,0,0,0,0,-1,1511,365,1.09847,23.7787
294,659,0.115601,-24.0352,0,0,0,0,0,0,0,-1,1518,365,0.115612,24.0352
301,659,-1.21362,-22.6162,0,0,0,0,0,0,0,-1,1525,365,-1.21358,22.6162
308,659,-2.32605,-21.2737,0,0,0,0,0,0,0,-1,1532,365,-2.32606,21.2737
315,659,-3.69629,-19.8803,0,0,0,0,0,0,0,-1,1539,365,-3.69631,19.8803
322,659,-4.9646,-18.5258,0,0,0,0,0,0,0,-1,1546,365,-4.96464,18.5257
329,659,-7.67749,-23.0449,0,0,0,0,0,0,0,-1,1553,365,-7.67745,23.0449
336,659,-7.71436,-22.4188,0,0,0,0,0,0,0,-1,1560,365,-7.71432,22.4188
343,659,0,0,0,0,0,0,0,0,0,-1,1567,365,0,0
350,659,0,0,0,0,0,0,0,0,0,-1,1574,365,0,0
357,659,0,0,0,0,0,0,0,0,0,-1,1581,365,0,0
364,659,0,0,0,0,0,0,0,0,0,-1,1588,365,0,0
371,659,0,0,0,0,0,0,0,0,0,-1,1595,365,0,0
378,659,0,0,0,0,0,0,0,0,0,-1,1602,365,0,0
385,659,0,0,0,0,0,0,0,0,0,-1,1609,365,0,0
392,659,0,0,0,0,0,0,0,0,0,-1,1616,365,0,0
399,659,0,0,0,0,0,0,0,0,0,-1,1623,365,0,0
406,659,0,0,0,0,0,0,0,0,0,-1,1630,365,0,0
413,659,0,0,0,0,0,0,0,0,0,-1,1637,365,0,0
420,659,0,0,0,0,0,0,0,0,0,-1,1644,365,0,0
427,659,0,0,0,0,0,0,0,0,0,-1,1651,365,0,0
434,659,0,0,0,0,0,0,0,0,0,-1,1658,365,0,0
441,659,0,0,0,0,0,0,0,0,0,-1,1665,365,0,0
448,659,0,0,0,0,0,0,0,0,0,-1,1672,365,0,0
455,659,0,0,0,0,0,0,0,0,0,-1,1679,365,0,0
462,659,0,0,0,0,0,0,0,0,0,-1,1686,365,0,0
469,659,0,0,0,0,0,0,0,0,0,-1,1693,365,0,0
476,659,0,0,0,0,0,0,0,0,0,-1,1700,365,0,0
483,659,0,0,0,0,0,0,0,0,0,-1,1707,365,0,0
490,659,0,0,0,0,0,0,0,0,0,-1,1714,365,0,0
497,659,0,0,0,0,0,0,0,0,0,-1,1721,365,0,0
504,659,0,0,0,0,0,0,0,0,0,-1,1728,365,0,0
511,659,0,0,0,0,0,0,0,0,0,-1,1735,365,0,0
518,659,0,0,0,0,0,0,0,0,0,-1,1742,365,0,0
525,659,0,0,0,0,0,0,0,0,0,-1,1749,365,0,0
532,659,0,0,0,0,0,0,0,0,0,-1,1756,365,0,0
539,659,0,0,0,0,0,0,0,0,0,-1,1763,365,0,0
546,659,0,0,0,0,0,0,0,0,0,-1,1770,365,0,0
553,659,0,0,0,0,0,0,0,0,0,-1,1777,365,0,0
560,659,0,0,0,0,0,0,0,0,0,-1,1784,365,0,0
567,659,0,0,0,0,0,0,0,0,0,-1,1791,365,0,0
574,659,0,0,0,0,0,0,0,0,0,-1,1798,365,0,0
581,659,0,0,0,0,0,0,0,0,0,-1,1805,365,0,0
588,659,0,0,0,0,0,0,0,0,0,-1,1812,365,0,0
595,659,0,0,0,0,0,0,0,0,0,-1,1819,365,0,0
602,659,0,0,0,0,0,0,0,0,0,-1,1826,365,0,0
609,659,0,0,0,0,0,0,0,0,0,-1,1833,365,0,0
616,659,0,0,0,0,0,0,0,0,0,-1,1840,365,0,0
623,659,0,0,0,0,0,0,0,0,0,-1,1847,365,0,0
630,659,0,0,0,0,0,0,0,0,0,-1,1854,365,0,0
637,659,0,0,0,0,0,0,0,0,0,-1,1861,365,0,0
644,659,0,0,0,0,0,0,0,0,0,-1,1868,365,0,0
651,659,0,0,0,0,0,0,0,0,0,-1,1875,365,0,0
658,659,0,0,0,0,0,0,0,0,0,-1,1882,365,0,0
665,659,0,0,0,0,0,0,0,0,0,-1,1889,365,0,0
672,659,0,0,0,0,0,0,0,0,0,-1,1896,365,0,0
679,659,0,0,0,0,0,0,0,0,0,-1,1903,365,0,0
686,659,0,0,0,0,0,0,0,0,0,-1,1910,365,0,0
693,659,0,0,0,0,0,0,0,0,0,-1,1917,365,0,0
700,659,0,0,0,0,0,0,0,0,0,-1,1924,365,0,0
707,659,0,0,0,0,0,0,0,0,0,-1,1931,365,0,0
714,659,0,0,0,0,0,0,0,0,0,-1,1938,365,0,0
721,659,0,0,0,0,0,0,0,0,0,-1,1945,365,0,0
728,659,0,0,0,0,0,0,0,0,0,-1,1952,365,0,0
735,659,0,0,0,0,0,0,0,0,0,-1,1959,365,0,0
742,659,0,0,0,0,0,0,0,0,0,-1,1966,365,0,0
749,659,0,0,0,0,0,0,0,0,0,-1,1973,365,0,0
756,659,0,0,0,0,0,0,0,0,0,-1,1980,365,0,0
763,659,0,0,0,0,0,0,0,0,0,-1,1987,365,0,0
770,659,0,0,0,0,0,0,0,0,0,-1,1994,365,0,0
777,659,0,0,0,0,0,0,0,0,0,-1,2001,365,0,0
784,659,0,0,0,0,0,0,0,0,0,-1,2008,365,0,0
791,659,0,0,0,0,0,0,0,0,0,-1,2015,365,0,0
798,659,0,0,0,0,0,0,0,0,0,-1,2022,365,0,0
805,659,0,0,0,0,0,0,0,0,0,-1,2029,365,0,0
812,659,0,0,0,0,0,0,0,0,0,-1,2036,365,0,0
-700,652,0,0,0,0,0,0,0,0,0,-1,524,372,0,0
-693,652,0,0,0,0,0,0,0,0,0,-1,531,372,0,0
-686,652,0,0,0,0,0,0,0,0,0,-1,538,372,0,0
-679,652,0,0,0,0,0,0,0,0,0,-1,545,372,0,0
-672,652,0,0,0,0,0,0,0,0,0,-1,552,372,0,0
-665,652,0,0,0,0,0,0,0,0,0,-1,559,372,0,0
-658,652,0,0,0,0,0,0,0,0,0,-1,566,372,0,0
-651,652,0,0,0,0,0,0,0,0,0,-1,573,372,0,0
-644,652,0,0,0,0,0,0,0,0,0,-1,580,372,0,0
-637,652,0,0,0,0,0,0,0,0,0,-1,587,372,0,0
-630,652,0,0,0,0,0,0,0,0,0,-1,594,372,0,0
-623,652,0,0,0,0,0,0,0,0,0,-1,601,372,0,0
-616,652,0,0,0,0,0,0,0,0,0,-1,608,372,0,0
-609,652,0,0,0,0,0,0,0,0,0,-1,615,372,0,0
-602,652,0,0,0,0,0,0,0,0,0,-1,622,372,0,0
-595,652,0,0,0,0,0,0,0,0,0,-1,629,372,0,0
-588,652,0,0,0,0,0,0,0,0,0,-1,636,372,0,0
-581,652,0,0,0,0,0,0,0,0,0,-1,643,372,0,0
-574,652,0,0,0,0,0,0,0,0,0,-1,650,372,0,0
-567,652,0,0,0,0,0,0,0,0,0,-1,657,372,0,0
-560,652,0,0,0,0,0,0,0,0,0,-1,664,372,0,0
-553,652,0,0,0,0,0,0,0,0,0,-1,671,372,0,0
-546,652,0,0,0,0,0,0,0,0,0,-1,678,372,0,0
-539,652,0,0,0,0,0,0,0,0,0,-1,685,372,0,0
-532,652,0,0,0,0,0,0,0,0,0,-1,692,372,0,0
-525,652,0,0,0,0,0,0,0,0,0,-1,699,372,0,0
-518,652,0,0,0,0,0,0,0,0,0,-1,706,372,0,0
-511,652,0,0,0,0,0,0,0,0,0,-1,713,372,0,0
-504,652,0,0,0,0,0,0,0,0,0,-1,720,372,0,0
-497,652,0,0,0,0,0,0,0,0,0,-1,727,372,0,0
-490,652,0,0,0,0,0,0,0,0,0,-1,734,372,0,0
-483,652,0,0,0,0,0,0,0,0,0,-1,741,372,0,0
-476,652,0,0,0,0,0,0,0,0,0,-1,748,372,0,0
-469,652,0,0,0,0,0,0,0,0,0,-1,755,372,0,0
-462,652,0,0,0,0,0,0,0,0,0,-1,762,372,0,0
-455,652,0,0,0,0,0,0,0,0,0,-1,769,372,0,0
-448,652,0,0,0,0,0,0,0,0,0,-1,776,372,0,0
-441,652,0,0,0,0,0,0,0,0,0,-1,783,372,0,0
-434,652,0,0,0,0,0,0,0,0,0,-1,790,372,0,0
-427,652,0,0,0,0,0,0,0,0,0,-1,797,372,0,0
-420,652,0,0,0,0,0,0,0,0,0,-1,804,372,0,0
-413,652,0,0,0,0,0,0,0,0,0,-1,811,372,0,0
-406,652,0,0,0,0,0,0,0,0,0,-1,818,372,0,0
-399,652,0,0,0,0,0,0,0,0,0,-1,825,372,0,0
-392,652,0,0,0,0,0,0,0,0,0,-1,832,372,0,0
-385,652,0,0,0,0,0,0,0,0,0,-1,839,372,0,0
-378,652,0,0,0,0,0,0,0,0,0,-1,846,372,0,0
-371,652,0,0,0,0,0,0,0,0,0,-1,853,372,0,0
-364,652,0,0,0,0,0,0,0,0,0,-1,860,372,0,0
-357,652,0,0,0,0,0,0,0,0,0,-1,867,372,0,0
-350,652,0,0,0,0,0,0,0,0,0,-1,874,372,0,0
-343,652,0,0,0,0,0,0,0,0,0,-1,881,372,0,0
-336,652,0,0,0,0,0,0,0,0,0,-1,888,372,0,0
-329,652,0,0,0,0,0,0,0,0,0,-1,895,372,0,0
-322,652,0,0,0,0,0,0,0,0,0,-1,902,372,0,0
-315,652,0,0,0,0,0,0,0,0,0,-1,909,372,0,0
-308,652,0,0,0,0,0,0,0,0,0,-1,916,372,0,0
-301,652,0,0,0,0,0,0,0,0,0,-1,923,372,0,0
-294,652,0,0,0,0,0,0,0,0,0,-1,930,372,0,0
-287,652,0,0,0,0,0,0,0,0,0,-1,937,372,0,0
-280,652,0,0,0,0,0,0,0,0,0,-1,944,372,0,0
-273,652,0,0,0,0,0,0,0,0,0,-1,951,372,0,0
-266,652,0,0,0,0,0,0,0,0,0,-1,958,372,0,0
-259,652,0,0,0,0,0,0,0,0,0,-1,965,372,0,0
-252,652,0,0,0,0,0,0,0,0,0,-1,972,372,0,0
-245,652,0,0,0,0,0,0,0,0,0,-1,979,372,0,0
-238,652,0,0,0,0,0,0,0,0,0,-1,986,372,0,0
-231,652,8.79358,-27.1656,0,0,0,0,0,0,0,-1,993,372,8.79357,27.1656
-224,652,8.84552,-27.675,0,0,0,0,0,0,0,-1,1000,372,8.84555,27.675
-217,652,9.03113,-27.7474,0,0,0,0,0,0,0,-1,1007,372,9.0311,27.7474
-210,652,9.72803,-30.4624,0,0,0,0,0,0,0,-1,1014,372,9.72805,30.4624
-203,652,7.2677,-26.0732,0,0,0,0,0,0,0,-1,1021,372,7.26775,26.0732
-196,652,5.90686,-26.957,0,0,0,0,0,0,0,-1,1028,372,5.9068,26.957
-189,652,6.21326,-28.3035,0,0,0,0,0,0,0,-1,1035,372,6.21331,28.3035
-182,652,6.45068,-29.9377,0,0,0,0,0,0,0,-1,1042,372,6.45074,29.9377
-175,652,6.72559,-31.6948,0,0,0,0,0,0,0,-1,1049,372,6.72563,31.6948
-168,652,7.08533,-32.8669,0,0,0,0,0,0,0,-1,1056,372,7.08532,32.8669
-161,652,7.85291,-37.3545,0,0,0,0,0,0,0,-1,1063,372,7.85294,37.3545
-154,652,7.54639,-37.9586,0,0,0,0,0,0,0,-1,1070,372,7.54642,37.9586
-147,652,7.85571,-42.3712,0,0,0,0,0,0,0,-1,1077,372,7.8557,42.3712
-140,652,5.6842,-33.9781,0,0,0,0,0,0,0,-1,1084,372,5.68421,33.9781
-133,652,6.3009,-35.2887,0,0,0,0,0,0,0,-1,1091,372,6.30093,35.2887
-126,652,5.86841,-37.0981,0,0,0,0,0,0,0,-1,1098,372,5.86845,37.0981
-119,652,8.18018,-49.52,0,0,0,0,0,0,0,-1,1105,372,8.18015,49.52
-112,652,7.81982,-48.4793,0,0,0,0,0,0,0,-1,1112,372,7.81981,48.4793
-105,652,6.63855,-39.9965,0,0,0,0,0,0,0,-1,1119,372,6.63852,39.9965
-98,652,5.84302,-35.2455,0,0,0,0,0,0,0,-1,1126,372,5.84307,35.2455
-91,652,5.66296,-32.9003,0,0,0,0,0,0,0,-1,1133,372,5.66297,32.9003
-84,652,5.46057,-34.9186,0,0,0,0,0,0,0,-1,1140,372,5.46057,34.9186
-77,652,8.95166,-58.5656,0,0,0,0,0,0,0,-1,1147,372,8.95161,58.5656
-70,652,8.86877,-59.134,0,0,0,0,0,0,0,-1,1154,372,8.86879,59.134
-63,652,8.8136,-59.5992,0,0,0,0,0,0,0,-1,1161,372,8.8136,59.5992
-56,652,8.64294,-60.0575,0,0,0,0,0,0,0,-1,1168,372,8.64291,60.0575
-49,652,8.64795,-60.4707,-0.00893522,0.0167125,-0.00586958,0.017992,-0.0102147,-1.35617,0.0164902,0.0378765,1175,372,8.64797,60.4707
-42,652,8.552,-60.7683,-0.00879002,0.0184554,-0.0060676,0.0197455,-0.0100802,-1.36128,0.0175187,0.0136725,1182,372,8.55195,60.7683
-35,652,8.51184,-61.1038,-0.00864492,0.0210482,-0.00607095,0.0222415,-0.00983821,-1.37671,0.0189771,0.0104045,1189,372,8.5118,61.1038
-28,652,8.45093,-61.4403,-0.00864411,0.0231457,-0.00577827,0.0241634,-0.00966182,-1.39646,0.0201183,0.00862672,1196,372,8.45098,61.4403
-21,652,8.37683,-61.7774,-0.00843697,0.0243728,-0.00566133,0.0253222,-0.00938636,-1.40464,0.0207311,0.00946244,1203,372,8.37679,61.7774
-14,652,8.32166,-62.0573,-0.0083108,0.0254797,-0.00538832,0.0263181,-0.00914923,-1.41643,0.0212618,0.0116107,1210,372,8.3217,62.0573
-7,652,8.24817,-62.3177,-0.00818595,0.0264675,-0.0050768,0.0271959,-0.00891439,-1.42828,0.0217207,0.013913,1217,372,8.24819,62.3177
0,652,8.19336,-62.5314,-0.00801486,0.0272234,-0.00469189,0.0278374,-0.00862887,-1.44067,0.0220059,0.0133318,1224,372,8.19339,62.5314
7,652,8.1615,-62.6745,-0.00776499,0.0279071,-0.00411224,0.0283751,-0.00823291,-1.4575,0.0221764,0.0144935,1231,372,8.16155,62.6745
14,652,8.12939,-62.8647,-0.00745659,0.0288987,-0.00343553,0.0292205,-0.0077784,-1.4774,0.0225253,0.0128632,1238,372,8.1294,62.8647
21,652,8.06238,-63.0461,-0.00693234,0.0298931,-0.00277349,0.0301009,-0.00714005,-1.49604,0.0228226,0.0114783,1245,372,8.06234,63.0461
28,652,8.0116,-63.2123,-0.00618952,0.0307291,-0.00181018,0.0308176,-0.00627806,-1.52192,0.0229261,0.0104254,1252,372,8.01164,63.2123
35,652,7.95715,-63.3024,-0.0055248,0.0320363,-0.000733912,0.0320506,-0.00553913,-1.55127,0.0234327,0.0110638,1259,372,7.95716,63.3024
42,652,7.90308,-63.3677,-0.00496098,0.0327914,0.000280481,0.0327935,-0.00496307,1.56337,0.0236906,0.0114863,1266,372,7.90302,63.3677
49,652,7.87915,-63.4367,-0.00438019,0.0347204,0.00137647,0.0347688,-0.00442858,1.53565,0.0247876,0.0137376,1273,372,7.87916,63.4368
56,652,7.82654,-63.4638,-0.00368143,0.036855,0.00232922,0.0369884,-0.00381483,1.51359,0.0260239,0.0162842,1280,372,7.82655,63.4638
63,652,7.76843,-63.507,-0.00305689,0.0389596,0.00325595,0.0392104,-0.0033077,1.49392,0.0273097,0.0203858,1287,372,7.76846,63.5071
70,652,7.70117,-63.4809,-0.00273567,0.0413439,0.00403928,0.041711,-0.00310276,1.48017,0.0288972,0.0186244,1294,372,7.70115,63.4809
77,652,7.62244,-63.4733,-0.00245073,0.0436058,0.00467757,0.0440761,-0.00292099,1.4706,0.0304045,0.0175676,1301,372,7.62239,63.4733
84,652,7.60754,-63.4367,-0.00249568,0.0460382,0.00519526,0.0465881,-0.00304557,1.46534,0.0321221,0.014411,1308,372,7.60753,63.4367
91,652,7.55627,-63.4229,-0.00277122,0.04792,0.00549543,0.048509,-0.00336014,1.46404,0.0335155,0.0170658,1315,372,7.55626,63.4228
98,652,7.52869,-63.2834,-0.00290842,0.0494003,0.00592305,0.0500626,-0.00357071,1.45944,0.0346267,0.0138162,1322,372,7.5287,63.2834
105,652,7.47229,-63.0995,-0.0030017,0.0507303,0.00632331,0.0514644,-0.00373582,1.45522,0.0356202,0.0115086,1329,372,7.47226,63.0995
112,652,7.41174,-62.9186,-0.00320724,0.0512905,0.00642033,0.0520367,-0.00395339,1.4551,0.0360812,0.00978663,1336,372,7.41172,62.9186
119,652,7.36047,-62.7119,-0.00340324,0.0506778,0.00652028,0.0514528,-0.00417825,1.45249,0.0357761,0.0107357,1343,372,7.36049,62.7119
126,652,7.29358,-62.483,-0.0037428,0.0493936,0.0066163,0.050205,-0.00455424,1.44876,0.0350868,0.0130664,1350,372,7.29355,62.483
133,652,7.22693,-62.2531,-0.00405165,0.0476649,0.00641975,0.0484499,-0.00483664,1.44912,0.0340269,0.0137267,1357,372,7.22687,62.2532
140,652,7.17773,-62.0053,-0.00400256,0.0446036,0.00623189,0.0453898,-0.00478885,1.44529,0.0319759,0.0104307,1364,372,7.17771,62.0053
147,652,7.13916,-61.7102,-0.00397131,0.0421039,0.00649399,0.0430017,-0.0048691,1.43342,0.030421,0.00956428,1371,372,7.13915,61.7102
154,652,7.08435,-61.382,-0.00412061,0.0380378,0.00671358,0.0390811,-0.00516391,1.41663,0.0279349,0.0102501,1378,372,7.08441,61.382
161,652,6.99585,-61.0461,-0.00428652,0.0340456,0.00702072,0.035291,-0.00553194,1.39523,0.0255716,0.0121352,1385,372,6.99586,61.0461
168,652,6.92505,-60.679,-0.00446014,0.0303958,0.00707181,0.0317759,-0.00584027,1.37806,0.0233752,0.0129803,1392,372,6.92509,60.679
175,652,6.8761,-60.2848,-0.00447739,0.0259523,0.00738848,0.0276514,-0.00617648,1.34476,0.0208011,0.0132224,1399,372,6.87615,60.2848
182,652,6.80933,-59.9174,-0.00491614,0.0252903,0.00766186,0.0271225,-0.00674843,1.33606,0.0207011,0.0195244,1406,372,6.80936,59.9174
189,652,6.79504,-59.4969,-0.00527272,0.0242733,0.00794206,0.0262728,-0.00727225,1.32416,0.0203766,0.0323332,1413,372,6.79506,59.4969
196,652,6.67737,-59.0573,0,0,0,0,0,0,0,-1,1420,372,6.67741,59.0572
203,652,6.61353,-58.5687,0,0,0,0,0,0,0,-1,1427,372,6.61354,58.5687
210,652,6.65393,-57.9543,0,0,0,0,0,0,0,-1,1434,372,6.65388,57.9543
217,652,5.88513,-53.8912,0,0,0,0,0,0,0,-1,1441,372,5.88513,53.8913
224,652,3.63794,-31.2791,0,0,0,0,0,0,0,-1,1448,372,3.63799,31.2791
231,652,3.83936,-30.4812,0,0,0,0,0,0,0,-1,1455,372,3.8393,30.4812
238,652,4.42358,-36.4103,0,0,0,0,0,0,0,-1,1462,372,4.4236,36.4103
245,652,4.53296,-41.8512,0,0,0,0,0,0,0,-1,1469,372,4.5329,41.8512
252,652,5.00793,-47.7065,0,0,0,0,0,0,0,-1,1476,372,5.00791,47.7064
259,652,3.44922,-31.2655,0,0,0,0,0,0,0,-1,1483,372,3.44921,31.2655
266,652,5.5387,-50.3915,0,0,0,0,0,0,0,-1,1490,372,5.53875,50.3915
273,652,5.75989,-52.7007,0,0,0,0,0,0,0,-1,1497,372,5.7599,52.7007
280,652,4.05066,-24.6993,0,0,0,0,0,0,0,-1,1504,372,4.05066,24.6993
287,652,3.0979,-23.6951,0,0,0,0,0,0,0,-1,1511,372,3.09796,23.6951
294,652,2.06946,-24.1711,0,0,0,0,0,0,0,-1,1518,372,2.0694,24.1711
301,652,0.770264,-23.0697,0,0,0,0,0,0,0,-1,1525,372,0.770217,23.0697
308,652,-0.706299,-22.1083,0,0,0,0,0,0,0,-1,1532,372,-0.706291,22.1083
315,652,-1.65198,-21.8662,0,0,0,0,0,0,0,-1,1539,372,-1.65204,21.8662
322,652,-2.66101,-21.728,0,0,0,0,0,0,0,-1,1546,372,-2.66097,21.728
329,652,-7.12329,-21.7065,0,0,0,0,0,0,0,-1,1553,372,-7.12334,21.7065
336,652,-3.56519,-22.3688,0,0,0,0,0,0,0,-1,1560,372,-3.56517,22.3688
343,652,-3.58069,-21.9185,0,0,0,0,0,0,0,-1,1567,372,-3.58069,21.9185
350,652,5.28394,-25.6715,0,0,0,0,0,0,0,-1,1574,372,5.28393,25.6715
357,652,0,0,0,0,0,0,0,0,0,-1,1581,372,0,0
364,652,0,0,0,0,0,0,0,0,0,-1,1588,372,0,0
371,652,0,0,0,0,0,0,0,0,0,-1,1595,372,0,0
378,652,0,0,0,0,0,0,0,0,0,-1,1602,372,0,0
385,652,0,0,0,0,0,0,0,0,0,-1,1609,372,0,0
392,652,0,0,0,0,0,0,0,0,0,-1,1616,372,0,0
399,652,0,0,0,0,0,0,0,0,0,-1,1623,372,0,0
406,652,0,0,0,0,0,0,0,0,0,-1,1630,372,0,0
413,652,0,0,0,0,0,0,0,0,0,-1,1637,372,0,0
420,652,0,0,0,0,0,0,0,0,0,-1,1644,372,0,0
427,652,0,0,0,0,0,0,0,0,0,-1,1651,372,0,0
434,652,0,0,0,0,0,0,0,0,0,-1,1658,372,0,0
441,652,0,0,0,0,0,0,0,0,0,-1,1665,372,0,0
448,652,0,0,0,0,0,0,0,0,0,-1,1672,372,0,0
455,652,0,0,0,0,0,0,0,0,0,-1,1679,372,0,0
462,652,0,0,0,0,0,0,0,0,0,-1,1686,372,0,0
469,652,0,0,0,0,0,0,0,0,0,-1,1693,372,0,0
476,652,0,0,0,0,0,0,0,0,0,-1,1700,372,0,0
483,652,0,0,0,0,0,0,0,0,0,-1,1707,372,0,0
490,652,0,0,0,0,0,0,0,0,0,-1,1714,372,0,0
497,652,0,0,0,0,0,0,0,0,0,-1,1721,372,0,0
504,652,0,0,0,0,0,0,0,0,0,-1,1728,372,0,0
511,652,0,0,0,0,0,0,0,0,0,-1,1735,372,0,0
518,652,0,0,0,0,0,0,0,0,0,-1,1742,372,0,0
525,652,0,0,0,0,0,0,0,0,0,-1,1749,372,0,0
532,652,0,0,0,0,0,0,0,0,0,-1,1756,372,0,0
539,652,0,0,0,0,0,0,0,0,0,-1,1763,372,0,0
546,652,0,0,0,0,0,0,0,0,0,-1,1770,372,0,0
553,652,0,0,0,0,0,0,0,0,0,-1,1777,372,0,0
560,652,0,0,0,0,0,0,0,0,0,-1,1784,372,0,0
567,652,0,0,0,0,0,0,0,0,0,-1,1791,372,0,0
574,652,0,0,0,0,0,0,0,0,0,-1,1798,372,0,0
581,652,0,0,0,0,0,0,0,0,0,-1,1805,372,0,0
588,652,0,0,0,0,0,0,0,0,0,-1,1812,372,0,0
595,652,0,0,0,0,0,0,0,0,0,-1,1819,372,0,0
602,652,0,0,0,0,0,0,0,0,0,-1,1826,372,0,0
609,652,0,0,0,0,0,0,0,0,0,-1,1833,372,0,0
616,652,0,0,0,0,0,0,0,0,0,-1,1840,372,0,0
623,652,0,0,0,0,0,0,0,0,0,-1,1847,372,0,0
630,652,0,0,0,0,0,0,0,0,0,-1,1854,372,0,0
637,652,0,0,0,0,0,0,0,0,0,-1,1861,372,0,0
644,652,0,0,0,0,0,0,0,0,0,-1,1868,372,0,0
651,652,0,0,0,0,0,0,0,0,0,-1,1875,372,0,0
658,652,0,0,0,0,0,0,0,0,0,-1,1882,372,0,0
665,652,0,0,0,0,0,0,0,0,0,-1,1889,372,0,0
672,652,0,0,0,0,0,0,0,0,0,-1,1896,372,0,0
679,652,0,0,0,0,0,0,0,0,0,-1,1903,372,0,0
686,652,0,0,0,0,0,0,0,0,0,-1,1910,372,0,0
693,652,0,0,0,0,0,0,0,0,0,-1,1917,372,0,0
700,652,0,0,0,0,0,0,0,0,0,-1,1924,372,0,0
707,652,0,0,0,0,0,0,0,0,0,-1,1931,372,0,0
714,652,0,0,0,0,0,0,0,0,0,-1,1938,372,0,0
721,652,0,0,0,0,0,0,0,0,0,-1,1945,372,0,0
728,652,0,0,0,0,0,0,0,0,0,-1,1952,372,0,0
735,652,0,0,0,0,0,0,0,0,0,-1,1959,372,0,0
742,652,0,0,0,0,0,0,0,0,0,-1,1966,372,0,0
749,652,0,0,0,0,0,0,0,0,0,-1,1973,372,0,0
756,652,0,0,0,0,0,0,0,0,0,-1,1980,372,0,0
763,652,0,0,0,0,0,0,0,0,0,-1,1987,372,0,0
770,652,0,0,0,0,0,0,0,0,0,-1,1994,372,0,0
777,652,0,0,0,0,0,0,0,0,0,-1,2001,372,0,0
784,652,0,0,0,0,0,0,0,0,0,-1,2008,372,0,0
791,652,0,0,0,0,0,0,0,0,0,-1,2015,372,0,0
798,652,0,0,0,0,0,0,0,0,0,-1,2022,372,0,0
805,652,0,0,0,0,0,0,0,0,0,-1,2029,372,0,0
812,652,0,0,0,0,0,0,0,0,0,-1,2036,372,0,0
-700,645,0,0,0,0,0,0,0,0,0,-1,524,379,0,0
-693,645,0,0,0,0,0,0,0,0,0,-1,531,379,0,0
-686,645,0,0,0,0,0,0,0,0,0,-1,538,379,0,0
-679,645,0,0,0,0,0,0,0,0,0,-1,545,379,0,0
-672,645,0,0,0,0,0,0,0,0,0,-1,552,379,0,0
-665,645,0,0,0,0,0,0,0,0,0,-1,559,379,0,0
-658,645,0,0,0,0,0,0,0,0,0,-1,566,379,0,0
-651,645,0,0,0,0,0,0,0,0,0,-1,573,379,0,0
-644,645,0,0,0,0,0,0,0,0,0,-1,580,379,0,0
-637,645,0,0,0,0,0,0,0,0,0,-1,587,379,0,0
-630,645,0,0,0,0,0,0,0,0,0,-1,594,379,0,0
-623,645,0,0,0,0,0,0,0,0,0,-1,601,379,0,0
-616,645,0,0,0,0,0,0,0,0,0,-1,608,379,0,0
-609,645,0,0,0,0,0,0,0,0,0,-1,615,379,0,0
-602,645,0,0,0,0,0,0,0,0,0,-1,622,379,0,0
-595,645,0,0,0,0,0,0,0,0,0,-1,629,379,0,0
-588,645,0,0,0,0,0,0,0,0,0,-1,636,379,0,0
-581,645,0,0,0,0,0,0,0,0,0,-1,643,379,0,0
-574,645,0,0,0,0,0,0,0,0,0,-1,650,379,0,0
-567,645,0,0,0,0,0,0,0,0,0,-1,657,379,0,0
-560,645,0,0,0,0,0,0,0,0,0,-1,664,379,0,0
-553,645,0,0,0,0,0,0,0,0,0,-1,671,379,0,0
-546,645,0,0,0,0,0,0,0,0,0,-1,678,379,0,0
-539,645,0,0,0,0,0,0,0,0,0,-1,685,379,0,0
-532,645,0,0,0,0,0,0,0,0,0,-1,692,379,0,0
-525,645,0,0,0,0,0,0,0,0,0,-1,699,379,0,0
-518,645,0,0,0,0,0,0,0,0,0,-1,706,379,0,0
-511,645,0,0,0,0,0,0,0,0,0,-1,713,379,0,0
-504,645,0,0,0,0,0,0,0,0,0,-1,720,379,0,0
-497,645,0,0,0,0,0,0,0,0,0,-1,727,379,0,0
-490,645,0,0,0,0,0,0,0,0,0,-1,734,379,0,0
-483,645,0,0,0,0,0,0,0,0,0,-1,741,379,0,0
-476,645,0,0,0,0,0,0,0,0,0,-1,748,379,0,0
-469,645,0,0,0,0,0,0,0,0,0,-1,755,379,0,0
-462,645,0,0,0,0,0,0,0,0,0,-1,762,379,0,0
-455,645,0,0,0,0,0,0,0,0,0,-1,769,379,0,0
-448,645,0,0,0,0,0,0,0,0,0,-1,776,379,0,0
-441,645,0,0,0,0,0,0,0,0,0,-1,783,379,0,0
-434,645,0,0,0,0,0,0,0,0,0,-1,790,379,0,0
-427,645,0,0,0,0,0,0,0,0,0,-1,797,379,0,0
-420,645,0,0,0,0,0,0,0,0,0,-1,804,379,0,0
-413,645,0,0,0,0,0,0,0,0,0,-1,811,379,0,0
-406,645,0,0,0,0,0,0,0,0,0,-1,818,379,0,0
-399,645,0,0,0,0,0,0,0,0,0,-1,825,379,0,0
-392,645,0,0,0,0,0,0,0,0,0,-1,832,379,0,0
-385,645,0,0,0,0,0,0,0,0,0,-1,839,379,0,0
-378,645,0,0,0,0,0,0,0,0,0,-1,846,379,0,0
-371,645,0,0,0,0,0,0,0,0,0,-1,853,379,0,0
-364,645,0,0,0,0,0,0,0,0,0,-1,860,379,0,0
-357,645,0,0,0,0,0,0,0,0,0,-1,867,379,0,0
-350,645,0,0,0,0,0,0,0,0,0,-1,874,379,0,0
-343,645,0,0,0,0,0,0,0,0,0,-1,881,379,0,0
-336,645,0,0,0,0,0,0,0,0,0,-1,888,379,0,0
-329,645,0,0,0,0,0,0,0,0,0,-1,895,379,0,0
-322,645,0,0,0,0,0,0,0,0,0,-1,902,379,0,0
-315,645,0,0,0,0,0,0,0,0,0,-1,909,379,0,0
-308,645,0,0,0,0,0,0,0,0,0,-1,916,379,0,0
-301,645,0,0,0,0,0,0,0,0,0,-1,923,379,0,0
-294,645,0,0,0,0,0,0,0,0,0,-1,930,379,0,0
-287,645,0,0,0,0,0,0,0,0,0,-1,937,379,0,0
-280,645,0,0,0,0,0,0,0,0,0,-1,944,379,0,0
-273,645,0,0,0,0,0,0,0,0,0,-1,951,379,0,0
-266,645,0,0,0,0,0,0,0,0,0,-1,958,379,0,0
-259,645,0,0,0,0,0,0,0,0,0,-1,965,379,0,0
-252,645,2.95691,-26.9133,0,0,0,0,0,0,0,-1,972,379,2.9569,26.9133
-245,645,2.73169,-27.0215,0,0,0,0,0,0,0,-1,979,379,2.73172,27.0215
-238,645,2.6665,-26.9464,0,0,0,0,0,0,0,-1,986,379,2.66649,26.9464
-231,645,7.26807,-29.1054,0,0,0,0,0,0,0,-1,993,379,7.26806,29.1054
-224,645,7.69073,-29.5737,0,0,0,0,0,0,0,-1,1000,379,7.69071,29.5737
-217,645,8.65485,-33.4136,0,0,0,0,0,0,0,-1,1007,379,8.65487,33.4136
-210,645,9.21594,-32.5157,0,0,0,0,0,0,0,-1,1014,379,9.21591,32.5156
-203,645,9.77698,-31.6176,0,0,0,0,0,0,0,-1,1021,379,9.77696,31.6177
-196,645,10.2664,-29.7741,0,0,0,0,0,0,0,-1,1028,379,10.2664,29.7741
-189,645,5.88062,-28.2191,0,0,0,0,0,0,0,-1,1035,379,5.88062,28.2191
-182,645,6.34167,-29.2525,0,0,0,0,0,0,0,-1,1042,379,6.3417,29.2525
-175,645,6.36462,-35.5586,0,0,0,0,0,0,0,-1,1049,379,6.3646,35.5586
-168,645,7.19116,-39.5785,0,0,0,0,0,0,0,-1,1056,379,7.19115,39.5785
-161,645,7.22083,-37.6093,0,0,0,0,0,0,0,-1,1063,379,7.22085,37.6094
-154,645,7.42102,-41.6806,0,0,0,0,0,0,0,-1,1070,379,7.42105,41.6806
-147,645,8.89526,-50.6488,0,0,0,0,0,0,0,-1,1077,379,8.89521,50.6488
-140,645,9.01819,-53.3387,0,0,0,0,0,0,0,-1,1084,379,9.01818,53.3387
-133,645,9.04602,-54.3466,0,0,0,0,0,0,0,-1,1091,379,9.04603,54.3466
-126,645,9.07532,-54.8429,0,0,0,0,0,0,0,-1,1098,379,9.07526,54.8429
-119,645,8.91577,-55.3765,0,0,0,0,0,0,0,-1,1105,379,8.91573,55.3765
-112,645,8.81299,-56.0659,0,0,0,0,0,0,0,-1,1112,379,8.81303,56.0659
-105,645,8.7699,-56.7559,0,0,0,0,0,0,0,-1,1119,379,8.76987,56.7559
-98,645,8.67749,-57.2848,0,0,0,0,0,0,0,-1,1126,379,8.67751,57.2848
-91,645,8.55322,-57.8463,0,0,0,0,0,0,0,-1,1133,379,8.55323,57.8464
-84,645,8.4989,-58.3495,0,0,0,0,0,0,0,-1,1140,379,8.49887,58.3495
-77,645,8.55664,-58.7896,-0.00742338,0.00526819,-0.00216158,0.00562624,-0.00778143,-1.40664,0.00777419,0.0442086,1147,379,8.5566,58.7896
-70,645,8.45313,-59.2327,-0.00741404,0.00610371,-0.00198494,0.00638916,-0.00769948,-1.42797,0.0081458,0.0159484,1154,379,8.45306,59.2327
-63,645,8.41309,-59.6314,-0.00715367,0.00895686,-0.00266386,0.0093859,-0.00758271,-1.41111,0.00981526,0.0115725,1161,379,8.41306,59.6314
-56,645,8.35181,-60.019,-0.00652368,0.010757,-0.00357088,0.0114658,-0.00723249,-1.37485,0.0108873,0.0141281,1168,379,8.35183,60.019
-49,645,8.29395,-60.4267,-0.00619388,0.0116666,-0.00401996,0.0125297,-0.00705696,-1.35931,0.0114546,0.0130183,1175,379,8.29401,60.4267
-42,645,8.21423,-60.7917,-0.0059474,0.0123891,-0.00419523,0.0133033,-0.00686165,-1.35623,0.0118386,0.0122917,1182,379,8.21425,60.7917
-35,645,8.17676,-61.1635,-0.00570088,0.0136187,-0.00425862,0.0145158,-0.00659795,-1.36318,0.0124725,0.0112084,1189,379,8.17677,61.1635
-28,645,8.13,-61.5199,-0.00555849,0.0145288,-0.00414932,0.0153521,-0.00638185,-1.37491,0.0128995,0.00952442,1196,379,8.13006,61.5199
-21,645,8.078,-61.8169,-0.00527352,0.0150629,-0.00410283,0.0158594,-0.00607006,-1.37904,0.0130748,0.0111275,1203,379,8.07797,61.8169
-14,645,8.04883,-62.1125,-0.00506022,0.0154424,-0.00398113,0.0161883,-0.00580612,-1.38558,0.0131616,0.0105715,1210,379,8.0488,62.1125
-7,645,8.03833,-62.3876,-0.004859,0.0157272,-0.00385081,0.0164239,-0.00555574,-1.3918,0.013197,0.0138,1217,379,8.03832,62.3876
0,645,8.01855,-62.5573,-0.00467585,0.0158385,-0.00365271,0.0164695,-0.00530684,-1.39974,0.0131116,0.0256088,1224,379,8.01857,62.5572
7,645,7.95764,-62.7466,-0.00444596,0.015984,-0.00329551,0.0165024,-0.00496439,-1.41476,0.0129769,0.0179053,1231,379,7.95765,62.7465
14,645,7.92249,-62.9171,-0.00420585,0.0164664,-0.00283397,0.0168479,-0.00458732,-1.43699,0.013033,0.0168193,1238,379,7.92249,62.9171
21,645,7.88367,-63.0944,-0.00383735,0.0170675,-0.00234711,0.0173278,-0.00409763,-1.46035,0.0131326,0.0114607,1245,379,7.8837,63.0944
28,645,7.87378,-63.2469,-0.00331118,0.0176417,-0.00161885,0.017766,-0.00343552,-1.49414,0.0131398,0.00989727,1252,379,7.87381,63.2469
35,645,7.84534,-63.3556,-0.0028489,0.0186397,-0.000820128,0.018671,-0.00288015,-1.5327,0.0135101,0.00978167,1259,379,7.84539,63.3555
42,645,7.82568,-63.4496,-0.00248328,0.0192805,-5.3148e-05,0.0192807,-0.00248341,-1.56835,0.0137565,0.00921451,1266,379,7.82567,63.4496
49,645,7.8324,-63.509,-0.00213572,0.0206544,0.000753205,0.0206793,-0.00216059,1.53779,0.0145599,0.012476,1273,379,7.83238,63.509
56,645,7.82092,-63.5161,-0.00171381,0.0222196,0.0014342,0.0223052,-0.00179945,1.51116,0.0155048,0.013192,1280,379,7.82087,63.5161
63,645,7.79431,-63.5549,-0.00131355,0.0237355,0.00207125,0.0239056,-0.00148367,1.48885,0.0164539,0.0126372,1287,379,7.79429,63.5549
70,645,7.72839,-63.5577,-0.00109788,0.0253088,0.00258003,0.0255585,-0.0013476,1.47431,0.0175055,0.0161764,1294,379,7.72835,63.5577
77,645,7.71118,-63.527,-0.00091993,0.0267639,0.00298855,0.0270828,-0.00123888,1.46448,0.018482,0.0186995,1301,379,7.7112,63.527
84,645,7.70642,-63.4662,-0.000929108,0.0280793,0.00327019,0.0284434,-0.0012932,1.45992,0.0194077,0.0144583,1308,379,7.70647,63.4662
91,645,7.64282,-63.4269,-0.00114867,0.0289251,0.00338324,0.029301,-0.00152458,1.46014,0.0200615,0.0171239,1315,379,7.64284,63.4269
98,645,7.62817,-63.3037,-0.00127358,0.0295595,0.00363023,0.0299811,-0.00169523,1.45516,0.0205758,0.0146277,1322,379,7.62815,63.3037
105,645,7.59851,-63.1371,-0.00130011,0.0302238,0.00389373,0.0306976,-0.00177392,1.4497,0.0210813,0.0107418,1329,379,7.59854,63.1371
112,645,7.56018,-62.9704,-0.00146203,0.0303702,0.00394016,0.0308506,-0.00194249,1.44946,0.0212442,0.00930333,1336,379,7.56021,62.9704
119,645,7.54712,-62.7705,-0.00162103,0.0297236,0.00399217,0.030224,-0.0021215,1.44608,0.0208925,0.00916981,1343,379,7.54714,62.7705
126,645,7.49805,-62.5352,-0.0018682,0.0288252,0.004061,0.0293534,-0.00239641,1.44145,0.0204147,0.0115615,1350,379,7.498,62.5352
133,645,7.47058,-62.2957,-0.00211356,0.0278005,0.00394558,0.0283122,-0.00262522,1.44184,0.0198079,0.012673,1357,379,7.47056,62.2956
140,645,7.44434,-62.0494,-0.00212282,0.0260514,0.00389202,0.0265791,-0.00265059,1.43602,0.0186658,0.0128656,1364,379,7.44439,62.0494
147,645,7.39807,-61.7653,-0.00215653,0.0250139,0.00413946,0.0256306,-0.00277318,1.42291,0.0180825,0.0143809,1371,379,7.39808,61.7653
154,645,7.37854,-61.4432,-0.00230631,0.0231087,0.00436089,0.0238361,-0.00303376,1.40551,0.0169925,0.0129263,1378,379,7.37849,61.4432
161,645,7.3053,-61.1031,-0.00247862,0.0214027,0.00463789,0.0222718,-0.0033477,1.38556,0.0160803,0.01573,1385,379,7.30531,61.1031
168,645,7.24988,-60.7396,-0.00276573,0.0200185,0.00480265,0.0209894,-0.0037367,1.37131,0.0153905,0.017346,1392,379,7.24983,60.7396
175,645,7.25073,-60.3879,-0.00305351,0.0183088,0.00513987,0.0194812,-0.00422585,1.34655,0.0146013,0.0145574,1399,379,7.25077,60.3879
182,645,7.20251,-59.9837,-0.00349846,0.0181057,0.00543479,0.0193958,-0.00478861,1.33772,0.0147875,0.0110883,1406,379,7.20254,59.9837
189,645,7.15564,-59.5182,-0.00385765,0.0176383,0.00575746,0.0190832,-0.00530259,1.32491,0.0148096,0.0121799,1413,379,7.15568,59.5182
196,645,7.07227,-59.1099,-0.00413544,0.0171131,0.00609265,0.0187361,-0.00575843,1.31046,0.0147888,0.0125878,1420,379,7.07223,59.1099
203,645,6.98108,-58.6348,-0.00482265,0.0159227,0.00614383,0.0176057,-0.00650564,1.30342,0.014404,0.0125433,1427,379,6.98104,58.6348
210,645,6.9762,-58.0386,-0.00565439,0.0134536,0.00615708,0.0152657,-0.0074665,1.28456,0.0133795,0.0229133,1434,379,6.97621,58.0386
217,645,6.99084,-57.4356,0,0,0,0,0,0,0,-1,1441,379,6.99085,57.4356
224,645,6.83459,-57.1454,0,0,0,0,0,0,0,-1,1448,379,6.83463,57.1454
231,645,6.70447,-56.5369,0,0,0,0,0,0,0,-1,1455,379,6.70452,56.5369
238,645,6.60083,-55.964,0,0,0,0,0,0,0,-1,1462,379,6.60079,55.964
245,645,6.64282,-55.1841,0,0,0,0,0,0,0,-1,1469,379,6.64281,55.1841
252,645,6.27942,-52.6305,0,0,0,0,0,0,0,-1,1476,379,6.27947,52.6305
259,645,6.5321,-54.0518,0,0,0,0,0,0,0,-1,1483,379,6.53211,54.0518
266,645,6.28967,-53.53,0,0,0,0,0,0,0,-1,1490,379,6.28966,53.53
273,645,6.31982,-52.8738,0,0,0,0,0,0,0,-1,1497,379,6.31978,52.8738
280,645,6.427,-52.4223,0,0,0,0,0,0,0,-1,1504,379,6.42705,52.4223
287,645,5.25439,-22.6157,0,0,0,0,0,0,0,-1,1511,379,5.25445,22.6157
294,645,3.76428,-22.9539,0,0,0,0,0,0,0,-1,1518,379,3.7643,22.9539
301,645,2.74219,-23.503,0,0,0,0,0,0,0,-1,1525,379,2.74222,23.503
308,645,1.82227,-23.9479,0,0,0,0,0,0,0,-1,1532,379,1.82227,23.9479
315,645,0.990356,-24.8735,0,0,0,0,0,0,0,-1,1539,379,0.990376,24.8735
322,645,-0.256714,-24.7577,0,0,0,0,0,0,0,-1,1546,379,-0.256653,24.7577
329,645,-4.45581,-22.707,0,0,0,0,0,0,0,-1,1553,379,-4.45579,22.707
336,645,-5.83154,-22.8404,0,0,0,0,0,0,0,-1,1560,379,-5.83149,22.8404
343,645,4.03186,-38.0623,0,0,0,0,0,0,0,-1,1567,379,4.03187,38.0623
350,645,4.76404,-22.1987,0,0,0,0,0,0,0,-1,1574,379,4.76399,22.1987
357,645,4.61316,-21.967,0,0,0,0,0,0,0,-1,1581,379,4.61316,21.967
364,645,-0.0794678,-3.22021,0,0,0,0,0,0,0,-1,1588,379,-0.0794987,3.22021
371,645,0,0,0,0,0,0,0,0,0,-1,1595,379,0,0
378,645,0,0,0,0,0,0,0,0,0,-1,1602,379,0,0
385,645,0,0,0,0,0,0,0,0,0,-1,1609,379,0,0
392,645,0,0,0,0,0,0,0,0,0,-1,1616,379,0,0
399,645,0,0,0,0,0,0,0,0,0,-1,1623,379,0,0
406,645,0,0,0,0,0,0,0,0,0,-1,1630,379,0,0
413,645,0,0,0,0,0,0,0,0,0,-1,1637,379,0,0
420,645,0,0,0,0,0,0,0,0,0,-1,1644,379,0,0
427,645,0,0,0,0,0,0,0,0,0,-1,1651,379,0,0
434,645,0,0,0,0,0,0,0,0,0,-1,1658,379,0,0
441,645,0,0,0,0,0,0,0,0,0,-1,1665,379,0,0
448,645,0,0,0,0,0,0,0,0,0,-1,1672,379,0,0
455,645,0,0,0,0,0,0,0,0,0,-1,1679,379,0,0
462,645,0,0,0,0,0,0,0,0,0,-1,1686,379,0,0
469,645,0,0,0,0,0,0,0,0,0,-1,1693,379,0,0
476,645,0,0,0,0,0,0,0,0,0,-1,1700,379,0,0
483,645,0,0,0,0,0,0,0,0,0,-1,1707,379,0,0
490,645,0,0,0,0,0,0,0,0,0,-1,1714,379,0,0
497,645,0,0,0,0,0,0,0,0,0,-1,1721,379,0,0
504,645,0,0,0,0,0,0,0,0,0,-1,1728,379,0,0
511,645,0,0,0,0,0,0,0,0,0,-1,1735,379,0,0
518,645,0,0,0,0,0,0,0,0,0,-1,1742,379,0,0
525,645,0,0,0,0,0,0,0,0,0,-1,1749,379,0,0
532,645,0,0,0,0,0,0,0,0,0,-1,1756,379,0,0
539,645,0,0,0,0,0,0,0,0,0,-1,1763,379,0,0
546,645,0,0,0,0,0,0,0,0,0,-1,1770,379,0,0
553,645,0,0,0,0,0,0,0,0,0,-1,1777,379,0,0
560,645,0,0,0,0,0,0,0,0,0,-1,1784,379,0,0
567,645,0,0,0,0,0,0,0,0,0,-1,1791,379,0,0
574,645,0,0,0,0,0,0,0,0,0,-1,1798,379,0,0
581,645,0,0,0,0,0,0,0,0,0,-1,1805,379,0,0
588,645,0,0,0,0,0,0,0,0,0,-1,1812,379,0,0
595,645,0,0,0,0,0,0,0,0,0,-1,1819,379,0,0
602,645,0,0,0,0,0,0,0,0,0,-1,1826,379,0,0
609,645,0,0,0,0,0,0,0,0,0,-1,1833,379,0,0
616,645,0,0,0,0,0,0,0,0,0,-1,1840,379,0,0
623,645,0,0,0,0,0,0,0,0,0,-1,1847,379,0,0
630,645,0,0,0,0,0,0,0,0,0,-1,1854,379,0,0
637,645,0,0,0,0,0,0,0,0,0,-1,1861,379,0,0
644,645,0,0,0,0,0,0,0,0,0,-1,1868,379,0,0
651,645,0,0,0,0,0,0,0,0,0,-1,1875,379,0,0
658,645,0,0,0,0,0,0,0,0,0,-1,1882,379,0,0
665,645,0,0,0,0,0,0,0,0,0,-1,1889,379,0,0
672,645,0,0,0,0,0,0,0,0,0,-1,1896,379,0,0
679,645,0,0,0,0,0,0,0,0,0,-1,1903,379,0,0
686,645,0,0,0,0,0,0,0,0,0,-1,1910,379,0,0
693,645,0,0,0,0,0,0,0,0,0,-1,1917,379,0,0
700,645,0,0,0,0,0,0,0,0,0,-1,1924,379,0,0
707,645,0,0,0,0,0,0,0,0,0,-1,1931,379,0,0
714,645,0,0,0,0,0,0,0,0,0,-1,1938,379,0,0
721,645,0,0,0,0,0,0,0,0,0,-1,1945,379,0,0
728,645,0,0,0,0,0,0,0,0,0,-1,1952,379,0,0
735,645,0,0,0,0,0,0,0,0,0,-1,1959,379,0,0
742,645,0,0,0,0,0,0,0,0,0,-1,1966,379,0,0
749,645,0,0,0,0,0,0,0,0,0,-1,1973,379,0,0
756,645,0,0,0,0,0,0,0,0,0,-1,1980,379,0,0
763,645,0,0,0,0,0,0,0,0,0,-1,1987,379,0,0
770,645,0,0,0,0,0,0,0,0,0,-1,1994,379,0,0
777,645,0,0,0,0,0,0,0,0,0,-1,2001,379,0,0
784,645,0,0,0,0,0,0,0,0,0,-1,2008,379,0,0
791,645,0,0,0,0,0,0,0,0,0,-1,2015,379,0,0
798,645,0,0,0,0,0,0,0,0,0,-1,2022,379,0,0
805,645,0,0,0,0,0,0,0,0,0,-1,2029,379,0,0
812,645,0,0,0,0,0,0,0,0,0,-1,2036,379,0,0
-700,638,0,0,0,0,0,0,0,0,0,-1,524,386,0,0
-693,638,0,0,0,0,0,0,0,0,0,-1,531,386,0,0
-686,638,0,0,0,0,0,0,0,0,0,-1,538,386,0,0
-679,638,0,0,0,0,0,0,0,0,0,-1,545,386,0,0
-672,638,0,0,0,0,0,0,0,0,0,-1,552,386,0,0
-665,638,0,0,0,0,0,0,0,0,0,-1,559,386,0,0
-658,638,0,0,0,0,0,0,0,0,0,-1,566,386,0,0
-651,638,0,0,0,0,0,0,0,0,0,-1,573,386,0,0
-644,638,0,0,0,0,0,0,0,0,0,-1,580,386,0,0
-637,638,0,0,0,0,0,0,0,0,0,-1,587,386,0,0
-630,638,0,0,0,0,0,0,0,0,0,-1,594,386,0,0
-623,638,0,0,0,0,0,0,0,0,0,-1,601,386,0,0
-616,638,0,0,0,0,0,0,0,0,0,-1,608,386,0,0
-609,638,0,0,0,0,0,0,0,0,0,-1,615,386,0,0
-602,638,0,0,0,0,0,0,0,0,0,-1,622,386,0,0
-595,638,0,0,0,0,0,0,0,0,0,-1,629,386,0,0
-588,638,0,0,0,0,0,0,0,0,0,-1,636,386,0,0
-581,638,0,0,0,0,0,0,0,0,0,-1,643,386,0,0
-574,638,0,0,0,0,0,0,0,0,0,-1,650,386,0,0
-567,638,0,0,0,0,0,0,0,0,0,-1,657,386,0,0
-560,638,0,0,0,0,0,0,0,0,0,-1,664,386,0,0
-553,638,0,0,0,0,0,0,0,0,0,-1,671,386,0,0
-546,638,0,0,0,0,0,0,0,0,0,-1,678,386,0,0
-539,638,0,0,0,0,0,0,0,0,0,-1,685,386,0,0
-532,638,0,0,0,0,0,0,0,0,0,-1,692,386,0,0
-525,638,0,0,0,0,0,0,0,0,0,-1,699,386,0,0
-518,638,0,0,0,0,0,0,0,0,0,-1,706,386,0,0
-511,638,0,0,0,0,0,0,0,0,0,-1,713,386,0,0
-504,638,0,0,0,0,0,0,0,0,0,-1,720,386,0,0
-497,638,0,0,0,0,0,0,0,0,0,-1,727,386,0,0
-490,638,0,0,0,0,0,0,0,0,0,-1,734,386,0,0
-483,638,0,0,0,0,0,0,0,0,0,-1,741,386,0,0
-476,638,0,0,0,0,0,0,0,0,0,-1,748,386,0,0
-469,638,0,0,0,0,0,0,0,0,0,-1,755,386,0,0
-462,638,0,0,0,0,0,0,0,0,0,-1,762,386,0,0
-455,638,0,0,0,0,0,0,0,0,0,-1,769,386,0,0
-448,638,0,0,0,0,0,0,0,0,0,-1,776,386,0,0
-441,638,0,0,0,0,0,0,0,0,0,-1,783,386,0,0
-434,638,0,0,0,0,0,0,0,0,0,-1,790,386,0,0
-427,638,0,0,0,0,0,0,0,0,0,-1,797,386,0,0
-420,638,0,0,0,0,0,0,0,0,0,-1,804,386,0,0
-413,638,0,0,0,0,0,0,0,0,0,-1,811,386,0,0
-406,638,0,0,0,0,0,0,0,0,0,-1,818,386,0,0
-399,638,0,0,0,0,0,0,0,0,0,-1,825,386,0,0
-392,638,0,0,0,0,0,0,0,0,0,-1,832,386,0,0
-385,638,0,0,0,0,0,0,0,0,0,-1,839,386,0,0
-378,638,0,0,0,0,0,0,0,0,0,-1,846,386,0,0
-371,638,0,0,0,0,0,0,0,0,0,-1,853,386,0,0
-364,638,0,0,0,0,0,0,0,0,0,-1,860,386,0,0
-357,638,0,0,0,0,0,0,0,0,0,-1,867,386,0,0
-350,638,0,0,0,0,0,0,0,0,0,-1,874,386,0,0
-343,638,0,0,0,0,0,0,0,0,0,-1,881,386,0,0
-336,638,0,0,0,0,0,0,0,0,0,-1,888,386,0,0
-329,638,0,0,0,0,0,0,0,0,0,-1,895,386,0,0
-322,638,0,0,0,0,0,0,0,0,0,-1,902,386,0,0
-315,638,0,0,0,0,0,0,0,0,0,-1,909,386,0,0
-308,638,0,0,0,0,0,0,0,0,0,-1,916,386,0,0
-301,638,0,0,0,0,0,0,0,0,0,-1,923,386,0,0
-294,638,0,0,0,0,0,0,0,0,0,-1,930,386,0,0
-287,638,0,0,0,0,0,0,0,0,0,-1,937,386,0,0
-280,638,0,0,0,0,0,0,0,0,0,-1,944,386,0,0
-273,638,0,0,0,0,0,0,0,0,0,-1,951,386,0,0
-266,638,10.1613,-36.3326,0,0,0,0,0,0,0,-1,958,386,10.1612,36.3326
-259,638,9.95282,-34.6103,0,0,0,0,0,0,0,-1,965,386,9.9528,34.6103
-252,638,9.95746,-33.6964,0,0,0,0,0,0,0,-1,972,386,9.95744,33.6965
-245,638,9.84143,-32.9009,0,0,0,0,0,0,0,-1,979,386,9.84145,32.9009
-238,638,2.93518,-26.3649,0,0,0,0,0,0,0,-1,986,386,2.93516,26.3649
-231,638,2.36829,-26.0088,0,0,0,0,0,0,0,-1,993,386,2.3683,26.0088
-224,638,6.3465,-30.9124,0,0,0,0,0,0,0,-1,1000,386,6.34648,30.9124
-217,638,7.41205,-32.7263,0,0,0,0,0,0,0,-1,1007,386,7.41204,32.7262
-210,638,8.7038,-34.5688,0,0,0,0,0,0,0,-1,1014,386,8.70378,34.5689
-203,638,4.32593,-27.5803,0,0,0,0,0,0,0,-1,1021,386,4.32594,27.5803
-196,638,6.0614,-28.4651,0,0,0,0,0,0,0,-1,1028,386,6.06143,28.4651
-189,638,11.4561,-30.1556,0,0,0,0,0,0,0,-1,1035,386,11.456,30.1556
-182,638,6.45471,-33.4271,0,0,0,0,0,0,0,-1,1042,386,6.45473,33.427
-175,638,8.39648,-48.7238,0,0,0,0,0,0,0,-1,1049,386,8.39643,48.7238
-168,638,8.85693,-51.5608,0,0,0,0,0,0,0,-1,1056,386,8.85697,51.5608
-161,638,8.8866,-52.2571,0,0,0,0,0,0,0,-1,1063,386,8.88659,52.2571
-154,638,8.75403,-52.7822,0,0,0,0,0,0,0,-1,1070,386,8.75405,52.7822
-147,638,8.70142,-53.3676,0,0,0,0,0,0,0,-1,1077,386,8.70147,53.3676
-140,638,8.62,-53.5862,-0.00526298,0.015718,-0.00885636,0.0189565,-0.0085015,-1.22023,0.0162314,0.0445595,1084,386,8.61996,53.5862
-133,638,8.52637,-54.5114,-0.00530187,0.0140776,-0.00791168,0.0168973,-0.00812156,-1.22844,0.0147379,0.0378374,1091,386,8.52635,54.5114
-126,638,8.45776,-55.0655,-0.00542215,0.0123194,-0.0068441,0.0146527,-0.0077555,-1.24223,0.0131401,0.0253806,1098,386,8.45771,55.0655
-119,638,8.38672,-55.6791,-0.00553496,0.0104145,-0.00580048,0.0123009,-0.00742135,-1.25637,0.0115022,0.0257464,1105,386,8.38673,55.6791
-112,638,8.35059,-56.2609,-0.00547766,0.00888821,-0.0048964,0.0103983,-0.00698778,-1.27164,0.0101021,0.0221917,1112,386,8.35062,56.2609
-105,638,8.30688,-56.8179,-0.0053224,0.00767368,-0.00420395,0.008915,-0.00656372,-1.28368,0.00897095,0.0188283,1119,386,8.30686,56.8179
-98,638,8.22205,-57.3337,-0.00529901,0.00652466,-0.00351894,0.00749271,-0.00626706,-1.30234,0.0079547,0.0175023,1126,386,8.222,57.3337
-91,638,8.13513,-57.8368,-0.00524157,0.00565872,-0.00292182,0.00639251,-0.00597536,-1.32474,0.00714195,0.0135243,1133,386,8.1351,57.8368
-84,638,8.08801,-58.3239,-0.00502726,0.00421201,-0.00222353,0.00471927,-0.00553452,-1.3465,0.00592626,0.0154121,1140,386,8.08798,58.3238
-77,638,8.03125,-58.8014,-0.00476863,0.00407311,-0.00185581,0.00444683,-0.00514235,-1.37207,0.00554117,0.013495,1147,386,8.03125,58.8014
-70,638,8.00366,-59.2539,-0.00464113,0.00446434,-0.00166126,0.00475796,-0.00493475,-1.39586,0.0055964,0.0137296,1154,386,8.00368,59.2539
-63,638,7.99414,-59.6779,-0.00436519,0.00591209,-0.00188666,0.00624749,-0.00470059,-1.39486,0.00634187,0.0128019,1161,386,7.9941,59.6779
-56,638,7.97949,-60.0799,-0.00406787,0.00689456,-0.00210086,0.00728338,-0.00445669,-1.38779,0.00684331,0.0161248,1168,386,7.97946,60.0799
-49,638,7.93494,-60.4674,-0.00377714,0.00724759,-0.00212262,0.00764214,-0.00417169,-1.38701,0.00691812,0.0144207,1175,386,7.93495,60.4674
-42,638,7.8772,-60.8419,-0.00343073,0.00738939,-0.00208067,0.0077757,-0.00381704,-1.38722,0.00682191,0.0134517,1182,386,7.87722,60.842
-35,638,7.85425,-61.1902,-0.00307411,0.00780405,-0.00201101,0.00816392,-0.00343398,-1.39372,0.00687916,0.0117061,1189,386,7.85425,61.1902
-28,638,7.83423,-61.5205,-0.00276592,0.00795746,-0.00190671,0.0082864,-0.00309486,-1.39996,0.00679503,0.0107042,1196,386,7.83428,61.5205
-21,638,7.79529,-61.8234,-0.00239562,0.00794628,-0.00186996,0.00827401,-0.00272335,-1.3973,0.00661342,0.0116009,1203,386,7.79527,61.8234
-14,638,7.76196,-62.139,-0.00206082,0.00788649,-0.0018148,0.00820725,-0.00238157,-1.39586,0.00641446,0.0114306,1210,386,7.76192,62.139
-7,638,7.7821,-62.4329,-0.00173464,0.007658,-0.00180812,0.00799405,-0.00207069,-1.38704,0.00613716,0.0179839,1217,386,7.78205,62.4329
0,638,7.84412,-62.5296,-0.0015131,0.00726449,-0.00177792,0.00761094,-0.00185955,-1.37835,0.00579414,0.0364344,1224,386,7.84406,62.5296
7,638,7.76355,-62.7526,-0.00125683,0.00697975,-0.00166576,0.00730387,-0.00158096,-1.37862,0.00547289,0.0275048,1231,386,7.76356,62.7526
14,638,7.70532,-62.9716,-0.00103508,0.00693667,-0.00149013,0.00720611,-0.00130452,-1.39191,0.00529277,0.0139068,1238,386,7.70536,62.9716
21,638,7.72754,-63.1365,-0.000785575,0.00703018,-0.00127881,0.0072341,-0.000989493,-1.41267,0.00518414,0.011672,1245,386,7.7275,63.1365
28,638,7.73792,-63.2724,-0.00046742,0.00714299,-0.000909645,0.00725021,-0.000574637,-1.45347,0.00503596,0.00953625,1252,386,7.73786,63.2724
35,638,7.73706,-63.3928,-0.000198376,0.00761293,-0.000503377,0.00764524,-0.000230682,-1.50671,0.00517543,0.0115862,1259,386,7.73705,63.3928
42,638,7.76086,-63.493,-2.75999e-05,0.00797539,-8.72591e-05,0.00797634,-2.85511e-05,-1.55989,0.0053271,0.0108214,1266,386,7.76087,63.493
49,638,7.78418,-63.5294,0.000155801,0.00877712,0.000320314,0.00878901,0.000143916,1.53371,0.00581196,0.00948528,1273,386,7.78416,63.5294
56,638,7.7771,-63.5525,0.000361801,0.00972157,0.000669189,0.00976918,0.000314198,1.49978,0.00641062,0.012713,1280,386,7.7771,63.5525
63,638,7.75952,-63.5724,0.000561643,0.010647,0.000992919,0.0107438,0.000464818,1.47359,0.00701275,0.0149938,1287,386,7.75956,63.5724
70,638,7.75061,-63.5998,0.000678669,0.0115596,0.00123074,0.0116971,0.000541197,1.45956,0.00762407,0.0189626,1294,386,7.75062,63.5998
77,638,7.78003,-63.5462,0.000791544,0.0124859,0.00142968,0.0126581,0.000619296,1.45089,0.00824008,0.0180029,1301,386,7.78004,63.5462
84,638,7.80127,-63.4753,0.000850147,0.0131738,0.00155487,0.0133669,0.000656996,1.44721,0.00870057,0.0136248,1308,386,7.80128,63.4753
91,638,7.77844,-63.3794,0.000707767,0.0134447,0.00155497,0.0136317,0.000520678,1.45106,0.00891934,0.0159908,1315,386,7.77838,63.3794
98,638,7.75159,-63.2729,0.000610524,0.0136927,0.00167495,0.0139037,0.000399478,1.44546,0.00913889,0.0138094,1322,386,7.75161,63.2729
105,638,7.73511,-63.1674,0.0006756,0.0140314,0.00183052,0.0142778,0.000429256,1.43702,0.0093787,0.0103352,1329,386,7.73511,63.1674
112,638,7.72351,-63.0046,0.000569731,0.0140277,0.00187741,0.0142847,0.000312737,1.43475,0.00942061,0.0100155,1336,386,7.7235,63.0046
119,638,7.7406,-62.7894,0.00044847,0.013602,0.00193024,0.0138794,0.000171063,1.42806,0.00919646,0.0119473,1343,386,7.7406,62.7894
126,638,7.74426,-62.5426,0.000286168,0.0131827,0.00197126,0.0134773,-8.4145e-06,1.42246,0.00898768,0.015139,1350,386,7.74424,62.5426
133,638,7.72339,-62.316,0.000115803,0.0128891,0.00193339,0.0131753,-0.000170425,1.42382,0.00884088,0.0158063,1357,386,7.72339,62.316
140,638,7.68665,-62.0917,2.24608e-05,0.0122994,0.00198676,0.0126129,-0.000291048,1.41429,0.00850726,0.0176264,1364,386,7.68669,62.0917
147,638,7.65088,-61.8311,-9.76272e-05,0.0123041,0.00219521,0.0126812,-0.000474728,1.40067,0.00861677,0.0205147,1371,386,7.65085,61.8311
154,638,7.6532,-61.5231,-0.000304192,0.0119519,0.00239057,0.0124017,-0.000753968,1.38482,0.00853025,0.0178537,1378,386,7.65314,61.5231
161,638,7.625,-61.1257,-0.000523947,0.0118078,0.0026239,0.0123429,-0.00105903,1.36963,0.00860337,0.0200188,1385,386,7.62498,61.1257
168,638,7.62378,-60.7318,-0.000864562,0.0118241,0.00281947,0.0124224,-0.00146285,1.3617,0.00880979,0.0242946,1392,386,7.62381,60.7318
175,638,7.63232,-60.4123,-0.00125986,0.0116657,0.0031219,0.0123802,-0.00197439,1.34579,0.0089842,0.019824,1399,386,7.63238,60.4123
182,638,7.57739,-60.0029,-0.00173972,0.0118778,0.00342534,0.0126909,-0.00255278,1.33774,0.00942745,0.0139368,1406,386,7.57734,60.0029
189,638,7.54431,-59.5624,-0.00214395,0.0119229,0.0037701,0.0128696,-0.00309067,1.32477,0.00977421,0.01278,1413,386,7.54425,59.5624
196,638,7.47754,-59.14,-0.00244333,0.0119255,0.00414485,0.0130354,-0.00355323,1.30916,0.0100855,0.0155606,1420,386,7.47758,59.14
203,638,7.39685,-58.7322,-0.00301259,0.0114648,0.00433068,0.0126614,-0.00420915,1.30122,0.0101395,0.0214775,1427,386,7.39684,58.7322
210,638,7.3656,-58.2515,-0.00369898,0.0102244,0.0045314,0.0115693,-0.00504384,1.28229,0.00983512,0.0177721,1434,386,7.36563,58.2515
217,638,7.34314,-57.7262,-0.00405619,0.00996606,0.00478332,0.0114423,-0.00553246,1.27144,0.00999643,0.0139733,1441,386,7.34311,57.7262
224,638,7.30188,-57.167,-0.00421819,0.0103346,0.0050015,0.0118878,-0.00577134,1.2697,0.0103973,0.0121008,1448,386,7.3019,57.167
231,638,7.20593,-56.5981,-0.00425148,0.0105767,0.00533679,0.0122977,-0.00597249,1.25884,0.0107569,0.0130076,1455,386,7.20595,56.5981
238,638,7.12695,-56.0576,-0.00447944,0.0109268,0.005658,0.0127814,-0.0063341,1.25404,0.0112437,0.0158949,1462,386,7.12694,56.0576
245,638,7.11157,-55.4062,-0.00470068,0.0115131,0.00601304,0.0134997,-0.00668727,1.25171,0.0118741,0.0298382,1469,386,7.11163,55.4062
252,638,7.14282,-54.6449,0,0,0,0,0,0,0,-1,1476,386,7.14278,54.6449
259,638,7.08618,-54.3288,-0.00487987,0.0130901,0.00692033,0.0154462,-0.007236,1.24264,0.0133785,0.0489916,1483,386,7.08623,54.3288
266,638,6.88989,-53.658,-0.00503593,0.0138568,0.00739668,0.0164081,-0.00758726,1.23865,0.0141623,0.0211684,1490,386,6.88988,53.658
273,638,6.84668,-53.0521,-0.00504896,0.0151673,0.00814846,0.0180427,-0.00792434,1.23156,0.0153668,0.0136491,1497,386,6.84666,53.0521
280,638,6.89978,-52.3781,-0.00495108,0.0165863,0.0089415,0.0198146,-0.00817936,1.22432,0.0166212,0.025528,1504,386,6.89976,52.3781
287,638,6.77649,-51.563,0,0,0,0,0,0,0,-1,1511,386,6.77653,51.563
294,638,6.63037,-50.851,0,0,0,0,0,0,0,-1,1518,386,6.63037,50.851
301,638,6.40723,-50.0796,0,0,0,0,0,0,0,-1,1525,386,6.40721,50.0796
308,638,6.65808,-48.441,0,0,0,0,0,0,0,-1,1532,386,6.65812,48.441
315,638,3.3927,-28.2032,0,0,0,0,0,0,0,-1,1539,386,3.39269,28.2032
322,638,6.1698,-44.6835,0,0,0,0,0,0,0,-1,1546,386,6.16984,44.6835
329,638,6.06885,-44.2856,0,0,0,0,0,0,0,-1,1553,386,6.06881,44.2855
336,638,5.15234,-38.1966,0,0,0,0,0,0,0,-1,1560,386,5.15238,38.1966
343,638,4.8208,-37.2159,0,0,0,0,0,0,0,-1,1567,386,4.82078,37.2159
350,638,4.35254,-37.1565,0,0,0,0,0,0,0,-1,1574,386,4.35259,37.1565
357,638,0.387329,-3.01077,0,0,0,0,0,0,0,-1,1581,386,0.387332,3.01077
364,638,3.78149,-6.45215,0,0,0,0,0,0,0,-1,1588,386,3.78155,6.45216
371,638,4.18604,-6.71164,0,0,0,0,0,0,0,-1,1595,386,4.18598,6.71164
378,638,4.59045,-6.97113,0,0,0,0,0,0,0,-1,1602,386,4.5904,6.97112
385,638,0,0,0,0,0,0,0,0,0,-1,1609,386,0,0
392,638,0,0,0,0,0,0,0,0,0,-1,1616,386,0,0
399,638,0,0,0,0,0,0,0,0,0,-1,1623,386,0,0
406,638,0,0,0,0,0,0,0,0,0,-1,1630,386,0,0
413,638,0,0,0,0,0,0,0,0,0,-1,1637,386,0,0
420,638,0,0,0,0,0,0,0,0,0,-1,1644,386,0,0
427,638,0,0,0,0,0,0,0,0,0,-1,1651,386,0,0
434,638,0,0,0,0,0,0,0,0,0,-1,1658,386,0,0
441,638,0,0,0,0,0,0,0,0,0,-1,1665,386,0,0
448,638,0,0,0,0,0,0,0,0,0,-1,1672,386,0,0
455,638,0,0,0,0,0,0,0,0,0,-1,1679,386,0,0
462,638,0,0,0,0,0,0,0,0,0,-1,1686,386,0,0
469,638,0,0,0,0,0,0,0,0,0,-1,1693,386,0,0
476,638,0,0,0,0,0,0,0,0,0,-1,1700,386,0,0
483,638,0,0,0,0,0,0,0,0,0,-1,1707,386,0,0
490,638,0,0,0,0,0,0,0,0,0,-1,1714,386,0,0
497,638,0,0,0,0,0,0,0,0,0,-1,1721,386,0,0
504,638,0,0,0,0,0,0,0,0,0,-1,1728,386,0,0
511,638,0,0,0,0,0,0,0,0,0,-1,1735,386,0,0
518,638,0,0,0,0,0,0,0,0,0,-1,1742,386,0,0
525,638,0,0,0,0,0,0,0,0,0,-1,1749,386,0,0
532,638,0,0,0,0,0,0,0,0,0,-1,1756,386,0,0
539,638,0,0,0,0,0,0,0,0,0,-1,1763,386,0,0
546,638,0,0,0,0,0,0,0,0,0,-1,1770,386,0,0
553,638,0,0,0,0,0,0,0,0,0,-1,1777,386,0,0
560,638,0,0,0,0,0,0,0,0,0,-1,1784,386,0,0
567,638,0,0,0,0,0,0,0,0,0,-1,1791,386,0,0
574,638,0,0,0,0,0,0,0,0,0,-1,1798,386,0,0
581,638,0,0,0,0,0,0,0,0,0,-1,1805,386,0,0
588,638,0,0,0,0,0,0,0,0,0,-1,1812,386,0,0
595,638,0,0,0,0,0,0,0,0,0,-1,1819,386,0,0
602,638,0,0,0,0,0,0,0,0,0,-1,1826,386,0,0
609,638,0,0,0,0,0,0,0,0,0,-1,1833,386,0,0
616,638,0,0,0,0,0,0,0,0,0,-1,1840,386,0,0
623,638,0,0,0,0,0,0,0,0,0,-1,1847,386,0,0
630,638,0,0,0,0,0,0,0,0,0,-1,1854,386,0,0
637,638,0,0,0,0,0,0,0,0,0,-1,1861,386,0,0
644,638,0,0,0,0,0,0,0,0,0,-1,1868,386,0,0
651,638,0,0,0,0,0,0,0,0,0,-1,1875,386,0,0
658,638,0,0,0,0,0,0,0,0,0,-1,1882,386,0,0
665,638,0,0,0,0,0,0,0,0,0,-1,1889,386,0,0
672,638,0,0,0,0,0,0,0,0,0,-1,1896,386,0,0
679,638,0,0,0,0,0,0,0,0,0,-1,1903,386,0,0
686,638,0,0,0,0,0,0,0,0,0,-1,1910,386,0,0
693,638,0,0,0,0,0,0,0,0,0,-1,1917,386,0,0
700,638,0,0,0,0,0,0,0,0,0,-1,1924,386,0,0
707,638,0,0,0,0,0,0,0,0,0,-1,1931,386,0,0
714,638,0,0,0,0,0,0,0,0,0,-1,1938,386,0,0
721,638,0,0,0,0,0,0,0,0,0,-1,1945,386,0,0
728,638,0,0,0,0,0,0,0,0,0,-1,1952,386,0,0
735,638,0,0,0,0,0,0,0,0,0,-1,1959,386,0,0
742,638,0,0,0,0,0,0,0,0,0,-1,1966,386,0,0
749,638,0,0,0,0,0,0,0,0,0,-1,1973,386,0,0
756,638,0,0,0,0,0,0,0,0,0,-1,1980,386,0,0
763,638,0,0,0,0,0,0,0,0,0,-1,1987,386,0,0
770,638,0,0,0,0,0,0,0,0,0,-1,1994,386,0,0
777,638,0,0,0,0,0,0,0,0,0,-1,2001,386,0,0
784,638,0,0,0,0,0,0,0,0,0,-1,2008,386,0,0
791,638,0,0,0,0,0,0,0,0,0,-1,2015,386,0,0
798,638,0,0,0,0,0,0,0,0,0,-1,2022,386,0,0
805,638,0,0,0,0,0,0,0,0,0,-1,2029,386,0,0
812,638,0,0,0,0,0,0,0,0,0,-1,2036,386,0,0
-700,631,0,0,0,0,0,0,0,0,0,-1,524,393,0,0
-693,631,0,0,0,0,0,0,0,0,0,-1,531,393,0,0
-686,631,0,0,0,0,0,0,0,0,0,-1,538,393,0,0
-679,631,0,0,0,0,0,0,0,0,0,-1,545,393,0,0
-672,631,0,0,0,0,0,0,0,0,0,-1,552,393,0,0
-665,631,0,0,0,0,0,0,0,0,0,-1,559,393,0,0
-658,631,0,0,0,0,0,0,0,0,0,-1,566,393,0,0
-651,631,0,0,0,0,0,0,0,0,0,-1,573,393,0,0
-644,631,0,0,0,0,0,0,0,0,0,-1,580,393,0,0
-637,631,0,0,0,0,0,0,0,0,0,-1,587,393,0,0
-630,631,0,0,0,0,0,0,0,0,0,-1,594,393,0,0
-623,631,0,0,0,0,0,0,0,0,0,-1,601,393,0,0
-616,631,0,0,0,0,0,0,0,0,0,-1,608,393,0,0
-609,631,0,0,0,0,0,0,0,0,0,-1,615,393,0,0
-602,631,0,0,0,0,0,0,0,0,0,-1,622,393,0,0
-595,631,0,0,0,0,0,0,0,0,0,-1,629,393,0,0
-588,631,0,0,0,0,0,0,0,0,0,-1,636,393,0,0
-581,631,0,0,0,0,0,0,0,0,0,-1,643,393,0,0
-574,631,0,0,0,0,0,0,0,0,0,-1,650,393,0,0
-567,631,0,0,0,0,0,0,0,0,0,-1,657,393,0,0
-560,631,0,0,0,0,0,0,0,0,0,-1,664,393,0,0
-553,631,0,0,0,0,0,0,0,0,0,-1,671,393,0,0
-546,631,0,0,0,0,0,0,0,0,0,-1,678,393,0,0
-539,631,0,0,0,0,0,0,0,0,0,-1,685,393,0,0
-532,631,0,0,0,0,0,0,0,0,0,-1,692,393,0,0
-525,631,0,0,0,0,0,0,0,0,0,-1,699,393,0,0
-518,631,0,0,0,0,0,0,0,0,0,-1,706,393,0,0
-511,631,0,0,0,0,0,0,0,0,0,-1,713,393,0,0
-504,631,0,0,0,0,0,0,0,0,0,-1,720,393,0,0
-497,631,0,0,0,0,0,0,0,0,0,-1,727,393,0,0
-490,631,0,0,0,0,0,0,0,0,0,-1,734,393,0,0
-483,631,0,0,0,0,0,0,0,0,0,-1,741,393,0,0
-476,631,0,0,0,0,0,0,0,0,0,-1,748,393,0,0
-469,631,0,0,0,0,0,0,0,0,0,-1,755,393,0,0
-462,631,0,0,0,0,0,0,0,0,0,-1,762,393,0,0
-455,631,0,0,0,0,0,0,0,0,0,-1,769,393,0,0
-448,631,0,0,0,0,0,0,0,0,0,-1,776,393,0,0
-441,631,0,0,0,0,0,0,0,0,0,-1,783,393,0,0
-434,631,0,0,0,0,0,0,0,0,0,-1,790,393,0,0
-427,631,0,0,0,0,0,0,0,0,0,-1,797,393,0,0
-420,631,0,0,0,0,0,0,0,0,0,-1,804,393,0,0
-413,631,0,0,0,0,0,0,0,0,0,-1,811,393,0,0
-406,631,0,0,0,0,0,0,0,0,0,-1,818,393,0,0
-399,631,0,0,0,0,0,0,0,0,0,-1,825,393,0,0
-392,631,0,0,0,0,0,0,0,0,0,-1,832,393,0,0
-385,631,0,0,0,0,0,0,0,0,0,-1,839,393,0,0
-378,631,0,0,0,0,0,0,0,0,0,-1,846,393,0,0
-371,631,0,0,0,0,0,0,0,0,0,-1,853,393,0,0
-364,631,0,0,0,0,0,0,0,0,0,-1,860,393,0,0
-357,631,0,0,0,0,0,0,0,0,0,-1,867,393,0,0
-350,631,0,0,0,0,0,0,0,0,0,-1,874,393,0,0
-343,631,0,0,0,0,0,0,0,0,0,-1,881,393,0,0
-336,631,0,0,0,0,0,0,0,0,0,-1,888,393,0,0
-329,631,0,0,0,0,0,0,0,0,0,-1,895,393,0,0
-322,631,0,0,0,0,0,0,0,0,0,-1,902,393,0,0
-315,631,0,0,0,0,0,0,0,0,0,-1,909,393,0,0
-308,631,0,0,0,0,0,0,0,0,0,-1,916,393,0,0
-301,631,0,0,0,0,0,0,0,0,0,-1,923,393,0,0
-294,631,0,0,0,0,0,0,0,0,0,-1,930,393,0,0
-287,631,0,0,0,0,0,0,0,0,0,-1,937,393,0,0
-280,631,7.71283,-34.969,0,0,0,0,0,0,0,-1,944,393,7.71282,34.969
-273,631,8.04437,-34.934,0,0,0,0,0,0,0,-1,951,393,8.04436,34.9339
-266,631,8.40277,-34.7584,0,0,0,0,0,0,0,-1,958,393,8.40275,34.7584
-259,631,8.56659,-34.037,0,0,0,0,0,0,0,-1,965,393,8.56662,34.037
-252,631,8.44446,-33.2643,0,0,0,0,0,0,0,-1,972,393,8.44445,33.2644
-245,631,8.34705,-32.527,0,0,0,0,0,0,0,-1,979,393,8.34704,32.527
-238,631,8.41888,-31.8855,0,0,0,0,0,0,0,-1,986,393,8.41887,31.8855
-231,631,2.14966,-25.2306,0,0,0,0,0,0,0,-1,993,393,2.14968,25.2306
-224,631,6.83575,-19.7909,0,0,0,0,0,0,0,-1,1000,393,6.83575,19.7909
-217,631,5.05188,-18.3867,0,0,0,0,0,0,0,-1,1007,393,5.0519,18.3866
-210,631,3.37842,-26.3769,0,0,0,0,0,0,0,-1,1014,393,3.37839,26.3769
-203,631,8.59509,-47.1953,0,0,0,0,0,0,0,-1,1021,393,8.5951,47.1954
-196,631,8.51001,-47.9163,0,0,0,0,0,0,0,-1,1028,393,8.50997,47.9163
-189,631,6.57983,-42.4494,0,0,0,0,0,0,0,-1,1035,393,6.57983,42.4494
-182,631,8.0531,-47.8031,0,0,0,0,0,0,0,-1,1042,393,8.05311,47.8031
-175,631,8.42749,-50.5811,0,0,0,0,0,0,0,-1,1049,393,8.42748,50.5811
-168,631,8.30249,-51.294,-0.00340388,0.0176484,-0.0108121,0.022212,-0.0079675,-1.1714,0.0180595,0.041933,1056,393,8.30246,51.294
-161,631,8.25757,-52.0647,-0.00363417,0.0161848,-0.00975134,0.020178,-0.00762745,-1.18212,0.0165897,0.0230374,1063,393,8.25752,52.0647
-154,631,8.16919,-52.769,-0.00388109,0.0146192,-0.00869107,0.0180616,-0.00732345,-1.19367,0.0150868,0.0201692,1070,393,8.16914,52.7691
-147,631,8.10547,-53.3866,-0.00400586,0.013296,-0.00777339,0.0162754,-0.00698524,-1.20479,0.013782,0.0171002,1077,393,8.10544,53.3866
-140,631,8.0603,-53.984,-0.00393769,0.0119579,-0.00698101,0.0145885,-0.00656826,-1.21043,0.012504,0.011885,1084,393,8.06028,53.984
-133,631,7.98218,-54.5767,-0.00382875,0.0106758,-0.00620786,0.0129699,-0.00612284,-1.21682,0.011257,0.00878649,1091,393,7.9822,54.5767
-126,631,7.92419,-55.1737,-0.00377067,0.00933865,-0.00536462,0.0112541,-0.00568612,-1.22785,0.00995498,0.012286,1098,393,7.92424,55.1737
-119,631,7.87512,-55.7332,-0.00370866,0.0078577,-0.00452208,0.0094158,-0.00526676,-1.23898,0.00858906,0.0161064,1105,393,7.87513,55.7332
-112,631,7.82739,-56.287,-0.0035124,0.00667298,-0.0038065,0.00793836,-0.00477777,-1.24986,0.00741687,0.015555,1112,393,7.82738,56.287
-105,631,7.83032,-56.8279,-0.00324246,0.00572453,-0.0032633,0.00678638,-0.00430431,-1.25621,0.00645644,0.0205085,1119,393,7.83028,56.8279
-98,631,7.75696,-57.3462,-0.00305835,0.00484319,-0.00274852,0.00570521,-0.00392037,-1.26688,0.00558909,0.0183882,1126,393,7.75693,57.3462
-91,631,7.71594,-57.8223,-0.00286392,0.00416449,-0.0022913,0.00484548,-0.00354491,-1.2819,0.00486356,0.0197801,1133,393,7.71594,57.8223
-84,631,7.67529,-58.3258,-0.0025568,0.00310058,-0.00175204,0.00359922,-0.00305544,-1.29352,0.00384634,0.0187052,1140,393,7.67525,58.3259
-77,631,7.61169,-58.8135,-0.0022116,0.00286987,-0.00143457,0.0032469,-0.00258862,-1.31379,0.00337628,0.013108,1147,393,7.61167,58.8135
-70,631,7.57959,-59.2643,-0.00192441,0.00289359,-0.00121893,0.00318442,-0.00221523,-1.33658,0.00313419,0.0153537,1154,393,7.57958,59.2643
-63,631,7.57556,-59.7036,-0.00157805,0.00322604,-0.0011143,0.00347192,-0.00182393,-1.35362,0.00310652,0.0154888,1161,393,7.57558,59.7036
-56,631,7.55469,-60.1394,-0.00121182,0.00331202,-0.000983027,0.0035164,-0.0014162,-1.36581,0.00293262,0.0160298,1168,393,7.55473,60.1394
-49,631,7.55627,-60.5068,-0.000811923,0.00316146,-0.000792862,0.00331383,-0.000964291,-1.38094,0.00259116,0.0121156,1175,393,7.55632,60.5068
-42,631,7.55457,-60.8537,-0.000392942,0.00293179,-0.000605772,0.00303873,-0.000499876,-1.39607,0.00221136,0.0099464,1182,393,7.55458,60.8537
-35,631,7.53943,-61.1868,2.33985e-05,0.00284727,-0.000442228,0.00291491,-4.42361e-05,-1.41903,0.00195818,0.0107956,1189,393,7.53938,61.1868
-28,631,7.54395,-61.5037,0.000440045,0.00246245,-0.000327785,0.00251425,0.000388245,-1.41406,0.00156291,0.0139973,1196,393,7.54392,61.5037
-21,631,7.51587,-61.8232,0.000859601,0.00197638,-0.000317037,0.0020601,0.000775876,-1.3126,0.00120141,0.0121824,1203,393,7.51591,61.8232
-14,631,7.48572,-62.1285,0.00125942,0.00160397,-0.000332196,0.00180591,0.00105748,-1.02461,0.00104772,0.013926,1210,393,7.48577,62.1285
-7,631,7.52686,-62.42,0.00162222,0.000914591,-0.000430623,0.00182574,0.000711072,-0.441503,0.00106264,0.0222831,1217,393,7.5268,62.42
0,631,7.53625,-62.6371,0.0017457,2.13068e-05,-0.000529316,0.00189522,-0.000128207,-0.275294,0.00130831,0.027131,1224,393,7.53623,62.6371
7,631,7.51892,-62.8154,0.00193907,-0.00063007,-0.000596273,0.00207072,-0.000761713,-0.217292,0.00169252,0.0211979,1231,393,7.51888,62.8154
14,631,7.54565,-63.0139,0.00206224,-0.00118383,-0.000632775,0.00218123,-0.00130282,-0.185872,0.00203271,0.0120768,1238,393,7.54563,63.0139
21,631,7.59412,-63.1555,0.00216944,-0.00162732,-0.000625884,0.00226996,-0.00172783,-0.159236,0.00231519,0.014758,1245,393,7.59415,63.1555
28,631,7.59802,-63.2521,0.00232102,-0.00202539,-0.00052852,0.00238437,-0.00208874,-0.119283,0.00258443,0.016252,1252,393,7.59805,63.2521
35,631,7.63904,-63.369,0.00241428,-0.00214632,-0.000443144,0.00245694,-0.00218898,-0.0959717,0.00268381,0.0155157,1259,393,7.63909,63.369
42,631,7.70142,-63.4711,0.00244601,-0.00207588,-0.000305601,0.00246657,-0.00209644,-0.0671754,0.00263734,0.0134384,1266,393,7.70146,63.4711
49,631,7.73218,-63.5473,0.00250371,-0.00167638,-0.000172278,0.0025108,-0.00168347,-0.041121,0.00243721,0.0120458,1273,393,7.73218,63.5473
56,631,7.75256,-63.6068,0.00261113,-0.00115322,-6.11112e-05,0.00261212,-0.00115421,-0.0162285,0.00222813,0.0144901,1280,393,7.75254,63.6067
63,631,7.73914,-63.6533,0.00277186,-0.00055411,-1.2489e-06,0.00277186,-0.000554111,-0.000375499,0.00205763,0.0181057,1287,393,7.73912,63.6533
70,631,7.76672,-63.6055,0.00292427,0.000100944,-1.41296e-05,0.00292435,0.000100873,-0.00500443,0.00191682,0.0176272,1294,393,7.76669,63.6055
77,631,7.81555,-63.5423,0.00308734,0.000980943,-1.59662e-05,0.00308746,0.000980822,-0.00757929,0.00182162,0.0157647,1301,393,7.8156,63.5423
84,631,7.8595,-63.4826,0.00328155,0.00160846,-3.64448e-05,0.00328234,0.00160767,-0.0217692,0.00189519,0.0133658,1308,393,7.85948,63.4826
91,631,7.87183,-63.3826,0.00325036,0.00179019,-0.000165718,0.00326893,0.00177162,-0.111601,0.00188953,0.0169341,1315,393,7.87183,63.3826
98,631,7.8916,-63.2863,0.00320109,0.00213427,-0.000201385,0.00323784,0.00209752,-0.1805,0.0018964,0.0138151,1322,393,7.89158,63.2863
105,631,7.87292,-63.176,0.00339351,0.00254038,-0.000183376,0.00343126,0.00250263,-0.203002,0.00204934,0.0111545,1329,393,7.87298,63.176
112,631,7.90051,-63.0287,0.00329029,0.00253721,-0.000149607,0.00331892,0.00250857,-0.189097,0.00199805,0.0118373,1336,393,7.90053,63.0286
119,631,7.91895,-62.8383,0.00315521,0.00242761,-8.86644e-05,0.00316586,0.00241697,-0.11953,0.00191051,0.0128025,1343,393,7.91899,62.8383
126,631,7.93787,-62.5974,0.00299062,0.0024331,-5.93177e-05,0.00299687,0.00242685,-0.10483,0.00183762,0.0177305,1350,393,7.93786,62.5974
133,631,7.95728,-62.3531,0.00277663,0.00266294,-1.22372e-05,0.00277794,0.00266164,-0.106018,0.00181443,0.0191426,1357,393,7.95729,62.3531
140,631,7.94812,-62.1246,0.00258423,0.00284705,0.000160371,0.00292298,0.0025083,1.12864,0.00182619,0.0208188,1364,393,7.94815,62.1246
147,631,7.90894,-61.8265,0.00234845,0.00331286,0.000338922,0.00342005,0.00224126,1.26447,0.00200608,0.0245712,1371,393,7.90895,61.8265
154,631,7.92126,-61.4908,0.00206344,0.0037615,0.000500692,0.00389814,0.0019268,1.30438,0.00225064,0.0231915,1378,393,7.92129,61.4907
161,631,7.98682,-61.1075,0.00175284,0.00441857,0.000706316,0.00459415,0.00157726,1.32715,0.0026955,0.0249597,1385,393,7.9868,61.1075
168,631,7.99207,-60.73,0.00131838,0.00513053,0.000940584,0.00534997,0.00109894,1.34159,0.00326262,0.0290646,1392,393,7.99212,60.7301
175,631,7.98499,-60.4284,0.000823242,0.00577917,0.00124344,0.00607365,0.000528761,1.33825,0.00388486,0.0217269,1399,393,7.98503,60.4284
182,631,7.96082,-60.048,0.000283215,0.00637403,0.00154708,0.00674447,-8.72191e-05,1.33578,0.00452567,0.0119867,1406,393,7.96079,60.048
189,631,7.93018,-59.5907,-0.000203403,0.00689464,0.00189728,0.00736995,-0.000678709,1.32533,0.00515445,0.0113748,1413,393,7.9302,59.5907
196,631,7.88391,-59.1564,-0.000545578,0.00739311,0.00231103,0.00801687,-0.00116933,1.30717,0.00577396,0.0125289,1420,393,7.88386,59.1564
203,631,7.88428,-58.7167,-0.00105207,0.00755062,0.00261027,0.00828068,-0.00178214,1.29808,0.00620047,0.0146465,1427,393,7.88425,58.7167
210,631,7.84924,-58.2436,-0.00169513,0.00721619,0.00293819,0.00809775,-0.00257669,1.27931,0.0064318,0.0170403,1434,393,7.84926,58.2436
217,631,7.81482,-57.7726,-0.00211786,0.00732667,0.00325156,0.00833786,-0.00312905,1.26929,0.00684431,0.018679,1441,393,7.81487,57.7725
224,631,7.78064,-57.2248,-0.00236883,0.0077326,0.00353324,0.00884577,-0.003482,1.26558,0.00733857,0.0146621,1448,393,7.78062,57.2248
231,631,7.72009,-56.6721,-0.00252858,0.00804483,0.00390042,0.00932795,-0.00381169,1.25298,0.00780584,0.0119355,1455,393,7.72013,56.6721
238,631,7.66467,-56.0947,-0.00280674,0.00840799,0.00423107,0.00982519,-0.00422394,1.24759,0.00832338,0.0184619,1462,393,7.66461,56.0947
245,631,7.62878,-55.5278,-0.00306186,0.00892491,0.00457405,0.0104709,-0.00460788,1.24485,0.00892242,0.0197703,1469,393,7.6288,55.5278
252,631,7.58374,-54.9794,-0.00324613,0.00971428,0.00499279,0.0114146,-0.00494645,1.24256,0.00968899,0.0187055,1476,393,7.58375,54.9794
259,631,7.54492,-54.3632,-0.00346785,0.0103512,0.00543519,0.0122328,-0.00534939,1.23753,0.0104071,0.0137652,1483,393,7.54489,54.3632
266,631,7.50586,-53.7383,-0.00372692,0.0110479,0.00589859,0.0131139,-0.00579293,1.23389,0.0111853,0.0123628,1490,393,7.50586,53.7383
273,631,7.45813,-53.1136,-0.00387528,0.0121167,0.0065481,0.0144558,-0.00621435,1.22771,0.012246,0.0153565,1497,393,7.45813,53.1136
280,631,7.41931,-52.4315,-0.00391712,0.0132431,0.00722866,0.0158823,-0.00655627,1.22074,0.0133226,0.0153542,1504,393,7.41933,52.4315
287,631,7.32129,-51.7532,-0.00383045,0.0147974,0.00815684,0.0178643,-0.00689728,1.21116,0.0147561,0.0168928,1511,393,7.3213,51.7532
294,631,7.21936,-51.0047,-0.00383896,0.0162963,0.00905614,0.0197701,-0.00731279,1.20452,0.0161783,0.0212676,1518,393,7.21931,51.0047
301,631,7.09705,-50.1767,-0.0037549,0.0178032,0.0100427,0.0217565,-0.00770824,1.19577,0.0176442,0.0357403,1525,393,7.09701,50.1767
308,631,7.13599,-49.3969,0,0,0,0,0,0,0,-1,1532,393,7.13595,49.3969
315,631,7.27917,-48.8644,0,0,0,0,0,0,0,-1,1539,393,7.27923,48.8644
322,631,7.19238,-48.333,0,0,0,0,0,0,0,-1,1546,393,7.19233,48.333
329,631,5.70972,-38.2651,0,0,0,0,0,0,0,-1,1553,393,5.70967,38.2651
336,631,5.38281,-39.6306,0,0,0,0,0,0,0,-1,1560,393,5.38277,39.6306
343,631,6.21558,-38.7278,0,0,0,0,0,0,0,-1,1567,393,6.21558,38.7278
350,631,5.18359,-35.9677,0,0,0,0,0,0,0,-1,1574,393,5.18355,35.9677
357,631,2.6449,-9.60303,0,0,0,0,0,0,0,-1,1581,393,2.64491,9.60304
364,631,3.39136,-5.7594,0,0,0,0,0,0,0,-1,1588,393,3.39137,5.75939
371,631,3.72839,-6.0574,0,0,0,0,0,0,0,-1,1595,393,3.72845,6.05742
378,631,4.06555,-6.35544,0,0,0,0,0,0,0,-1,1602,393,4.06553,6.35544
385,631,3.90442,-3.58298,0,0,0,0,0,0,0,-1,1609,393,3.90437,3.58299
392,631,0.352295,-2.21301,0,0,0,0,0,0,0,-1,1616,393,0.352345,2.213
399,631,0,0,0,0,0,0,0,0,0,-1,1623,393,0,0
406,631,0,0,0,0,0,0,0,0,0,-1,1630,393,0,0
413,631,0,0,0,0,0,0,0,0,0,-1,1637,393,0,0
420,631,0,0,0,0,0,0,0,0,0,-1,1644,393,0,0
427,631,0,0,0,0,0,0,0,0,0,-1,1651,393,0,0
434,631,0,0,0,0,0,0,0,0,0,-1,1658,393,0,0
441,631,0,0,0,0,0,0,0,0,0,-1,1665,393,0,0
448,631,0,0,0,0,0,0,0,0,0,-1,1672,393,0,0
455,631,0,0,0,0,0,0,0,0,0,-1,1679,393,0,0
462,631,0,0,0,0,0,0,0,0,0,-1,1686,393,0,0
469,631,0,0,0,0,0,0,0,0,0,-1,1693,393,0,0
476,631,0,0,0,0,0,0,0,0,0,-1,1700,393,0,0
483,631,0,0,0,0,0,0,0,0,0,-1,1707,393,0,0
490,631,0,0,0,0,0,0,0,0,0,-1,1714,393,0,0
497,631,0,0,0,0,0,0,0,0,0,-1,1721,393,0,0
504,631,0,0,0,0,0,0,0,0,0,-1,1728,393,0,0
511,631,0,0,0,0,0,0,0,0,0,-1,1735,393,0,0
518,631,0,0,0,0,0,0,0,0,0,-1,1742,393,0,0
525,631,0,0,0,0,0,0,0,0,0,-1,1749,393,0,0
532,631,0,0,0,0,0,0,0,0,0,-1,1756,393,0,0
539,631,0,0,0,0,0,0,0,0,0,-1,1763,393,0,0
546,631,0,0,0,0,0,0,0,0,0,-1,1770,393,0,0
553,631,0,0,0,0,0,0,0,0,0,-1,1777,393,0,0
560,631,0,0,0,0,0,0,0,0,0,-1,1784,393,0,0
567,631,0,0,0,0,0,0,0,0,0,-1,1791,393,0,0
574,631,0,0,0,0,0,0,0,0,0,-1,1798,393,0,0
581,631,0,0,0,0,0,0,0,0,0,-1,1805,393,0,0
588,631,0,0,0,0,0,0,0,0,0,-1,1812,393,0,0
595,631,0,0,0,0,0,0,0,0,0,-1,1819,393,0,0
602,631,0,0,0,0,0,0,0,0,0,-1,1826,393,0,0
609,631,0,0,0,0,0,0,0,0,0,-1,1833,393,0,0
616,631,0,0,0,0,0,0,0,0,0,-1,1840,393,0,0
623,631,0,0,0,0,0,0,0,0,0,-1,1847,393,0,0
630,631,0,0,0,0,0,0,0,0,0,-1,1854,393,0,0
637,631,0,0,0,0,0,0,0,0,0,-1,1861,393,0,0
644,631,0,0,0,0,0,0,0,0,0,-1,1868,393,0,0
651,631,0,0,0,0,0,0,0,0,0,-1,1875,393,0,0
658,631,0,0,0,0,0,0,0,0,0,-1,1882,393,0,0
665,631,0,0,0,0,0,0,0,0,0,-1,1889,393,0,0
672,631,0,0,0,0,0,0,0,0,0,-1,1896,393,0,0
679,631,0,0,0,0,0,0,0,0,0,-1,1903,393,0,0
686,631,0,0,0,0,0,0,0,0,0,-1,1910,393,0,0
693,631,0,0,0,0,0,0,0,0,0,-1,1917,393,0,0
700,631,0,0,0,0,0,0,0,0,0,-1,1924,393,0,0
707,631,0,0,0,0,0,0,0,0,0,-1,1931,393,0,0
714,631,0,0,0,0,0,0,0,0,0,-1,1938,393,0,0
721,631,0,0,0,0,0,0,0,0,0,-1,1945,393,0,0
728,631,0,0,0,0,0,0,0,0,0,-1,1952,393,0,0
735,631,0,0,0,0,0,0,0,0,0,-1,1959,393,0,0
742,631,0,0,0,0,0,0,0,0,0,-1,1966,393,0,0
749,631,0,0,0,0,0,0,0,0,0,-1,1973,393,0,0
756,631,0,0,0,0,0,0,0,0,0,-1,1980,393,0,0
763,631,0,0,0,0,0,0,0,0,0,-1,1987,393,0,0
770,631,0,0,0,0,0,0,0,0,0,-1,1994,393,0,0
777,631,0,0,0,0,0,0,0,0,0,-1,2001,393,0,0
784,631,0,0,0,0,0,0,0,0,0,-1,2008,393,0,0
791,631,0,0,0,0,0,0,0,0,0,-1,2015,393,0,0
798,631,0,0,0,0,0,0,0,0,0,-1,2022,393,0,0
805,631,0,0,0,0,0,0,0,0,0,-1,2029,393,0,0
812,631,0,0,0,0,0,0,0,0,0,-1,2036,393,0,0
-700,624,0,0,0,0,0,0,0,0,0,-1,524,400,0,0
-693,624,0,0,0,0,0,0,0,0,0,-1,531,400,0,0
-686,624,0,0,0,0,0,0,0,0,0,-1,538,400,0,0
-679,624,0,0,0,0,0,0,0,0,0,-1,545,400,0,0
-672,624,0,0,0,0,0,0,0,0,0,-1,552,400,0,0
-665,624,0,0,0,0,0,0,0,0,0,-1,559,400,0,0
-658,624,0,0,0,0,0,0,0,0,0,-1,566,400,0,0
-651,624,0,0,0,0,0,0,0,0,0,-1,573,400,0,0
-644,624,0,0,0,0,0,0,0,0,0,-1,580,400,0,0
-637,624,0,0,0,0,0,0,0,0,0,-1,587,400,0,0
-630,624,0,0,0,0,0,0,0,0,0,-1,594,400,0,0
-623,624,0,0,0,0,0,0,0,0,0,-1,601,400,0,0
-616,624,0,0,0,0,0,0,0,0,0,-1,608,400,0,0
-609,624,0,0,0,0,0,0,0,0,0,-1,615,400,0,0
-602,624,0,0,0,0,0,0,0,0,0,-1,622,400,0,0
-595,624,0,0,0,0,0,0,0,0,0,-1,629,400,0,0
-588,624,0,0,0,0,0,0,0,0,0,-1,636,400,0,0
-581,624,0,0,0,0,0,0,0,0,0,-1,643,400,0,0
-574,624,0,0,0,0,0,0,0,0,0,-1,650,400,0,0
-567,624,0,0,0,0,0,0,0,0,0,-1,657,400,0,0
-560,624,0,0,0,0,0,0,0,0,0,-1,664,400,0,0
-553,624,0,0,0,0,0,0,0,0,0,-1,671,400,0,0
-546,624,0,0,0,0,0,0,0,0,0,-1,678,400,0,0
-539,624,0,0,0,0,0,0,0,0,0,-1,685,400,0,0
-532,624,0,0,0,0,0,0,0,0,0,-1,692,400,0,0
-525,624,0,0,0,0,0,0,0,0,0,-1,699,400,0,0
-518,624,0,0,0,0,0,0,0,0,0,-1,706,400,0,0
-511,624,0,0,0,0,0,0,0,0,0,-1,713,400,0,0
-504,624,0,0,0,0,0,0,0,0,0,-1,720,400,0,0
-497,624,0,0,0,0,0,0,0,0,0,-1,727,400,0,0
-490,624,0,0,0,0,0,0,0,0,0,-1,734,400,0,0
-483,624,0,0,0,0,0,0,0,0,0,-1,741,400,0,0
-476,624,0,0,0,0,0,0,0,0,0,-1,748,400,0,0
-469,624,0,0,0,0,0,0,0,0,0,-1,755,400,0,0
-462,624,0,0,0,0,0,0,0,0,0,-1,762,400,0,0
-455,624,0,0,0,0,0,0,0,0,0,-1,769,400,0,0
-448,624,0,0,0,0,0,0,0,0,0,-1,776,400,0,0
-441,624,0,0,0,0,0,0,0,0,0,-1,783,400,0,0
-434,624,0,0,0,0,0,0,0,0,0,-1,790,400,0,0
-427,624,0,0,0,0,0,0,0,0,0,-1,797,400,0,0
-420,624,0,0,0,0,0,0,0,0,0,-1,804,400,0,0
-413,624,0,0,0,0,0,0,0,0,0,-1,811,400,0,0
-406,624,0,0,0,0,0,0,0,0,0,-1,818,400,0,0
-399,624,0,0,0,0,0,0,0,0,0,-1,825,400,0,0
-392,624,0,0,0,0,0,0,0,0,0,-1,832,400,0,0
-385,624,0,0,0,0,0,0,0,0,0,-1,839,400,0,0
-378,624,0,0,0,0,0,0,0,0,0,-1,846,400,0,0
-371,624,0,0,0,0,0,0,0,0,0,-1,853,400,0,0
-364,624,0,0,0,0,0,0,0,0,0,-1,860,400,0,0
-357,624,0,0,0,0,0,0,0,0,0,-1,867,400,0,0
-350,624,0,0,0,0,0,0,0,0,0,-1,874,400,0,0
-343,624,0,0,0,0,0,0,0,0,0,-1,881,400,0,0
-336,624,0,0,0,0,0,0,0,0,0,-1,888,400,0,0
-329,624,0,0,0,0,0,0,0,0,0,-1,895,400,0,0
-322,624,0,0,0,0,0,0,0,0,0,-1,902,400,0,0
-315,624,0,0,0,0,0,0,0,0,0,-1,909,400,0,0
-308,624,0,0,0,0,0,0,0,0,0,-1,916,400,0,0
-301,624,0,0,0,0,0,0,0,0,0,-1,923,400,0,0
-294,624,5.08527,-28.5311,0,0,0,0,0,0,0,-1,930,400,5.08525,28.5311
-287,624,6.70825,-33.8,0,0,0,0,0,0,0,-1,937,400,6.70827,33.8
-280,624,6.92474,-33.8738,0,0,0,0,0,0,0,-1,944,400,6.92477,33.8739
-273,624,8.617,-37.3463,0,0,0,0,0,0,0,-1,951,400,8.61697,37.3463
-266,624,7.71747,-37.0599,0,0,0,0,0,0,0,-1,958,400,7.7175,37.0599
-259,624,7.33569,-33.1199,0,0,0,0,0,0,0,-1,965,400,7.33567,33.1199
-252,624,7.5528,-32.8158,0,0,0,0,0,0,0,-1,972,400,7.5528,32.8158
-245,624,6.8396,-32.02,0,0,0,0,0,0,0,-1,979,400,6.83963,32.02
-238,624,6.99402,-31.5278,0,0,0,0,0,0,0,-1,986,400,6.99404,31.5278
-231,624,3.86121,-29.6032,0,0,0,0,0,0,0,-1,993,400,3.86122,29.6032
-224,624,4.59351,-27.4048,0,0,0,0,0,0,0,-1,1000,400,4.59353,27.4048
-217,624,5.90167,-32.048,0,0,0,0,0,0,0,-1,1007,400,5.90167,32.048
-210,624,8.01807,-46.7321,0,0,0,0,0,0,0,-1,1014,400,8.01806,46.7321
-203,624,7.99182,-47.6665,0,0,0,0,0,0,0,-1,1021,400,7.99178,47.6665
-196,624,7.99976,-48.4615,0,0,0,0,0,0,0,-1,1028,400,7.99978,48.4615
-189,624,7.90063,-49.2362,0,0,0,0,0,0,0,-1,1035,400,7.90065,49.2362
-182,624,7.43628,-49.6949,0,0,0,0,0,0,0,-1,1042,400,7.43626,49.6949
-175,624,7.67798,-50.541,-0.00239544,0.0150685,-0.00950997,0.0192473,-0.00657419,-1.15679,0.015495,0.0317086,1049,400,7.67803,50.541
-168,624,7.75427,-51.4056,-0.00260695,0.0134696,-0.0086133,0.0172128,-0.00635014,-1.16084,0.0140777,0.0231299,1056,400,7.75427,51.4056
-161,624,7.64441,-52.1217,-0.00268709,0.0121815,-0.00774071,0.0154798,-0.00598532,-1.168,0.0127906,0.0123221,1063,400,7.6444,52.1217
-154,624,7.58203,-52.7585,-0.00278594,0.0108349,-0.00683626,0.0136741,-0.0056252,-1.17715,0.0114609,0.0105161,1070,400,7.58205,52.7585
-147,624,7.53723,-53.4048,-0.0027656,0.00971631,-0.00604922,0.0121669,-0.00521616,-1.1859,0.0103001,0.011417,1077,400,7.53729,53.4048
-140,624,7.49097,-53.9999,-0.00257152,0.00856993,-0.00535176,0.0107241,-0.00472571,-1.18812,0.00914131,0.0101067,1084,400,7.49093,53.9999
-133,624,7.42542,-54.5982,-0.00234746,0.00750908,-0.00467444,0.00937333,-0.00421171,-1.19131,0.00802982,0.0111514,1091,400,7.42547,54.5982
-126,624,7.37256,-55.1676,-0.00214814,0.00645917,-0.00397316,0.00801277,-0.00370174,-1.19805,0.00691435,0.0135492,1098,400,7.37259,55.1676
-119,624,7.31958,-55.7278,-0.00193339,0.00531965,-0.00327326,0.0065784,-0.00319214,-1.20367,0.00575285,0.0163754,1105,400,7.31957,55.7277
-112,624,7.31042,-56.2669,-0.00161669,0.00442729,-0.00269347,0.00545341,-0.00264281,-1.2068,0.00476732,0.0190191,1112,400,7.31038,56.2669
-105,624,7.33154,-56.8151,-0.00124502,0.00372815,-0.00226095,0.00460237,-0.00211924,-1.20184,0.00396801,0.0140064,1119,400,7.33151,56.8151
-98,624,7.26855,-57.3231,-0.000916529,0.00309963,-0.00187307,0.00383759,-0.0016545,-1.19548,0.00325329,0.0146568,1126,400,7.26857,57.3231
-91,624,7.25745,-57.8143,-0.000580269,0.00262425,-0.00153937,0.0032439,-0.00119992,-1.1881,0.00265457,0.0229029,1133,400,7.25739,57.8143
-84,624,7.25061,-58.3234,-0.000152148,0.00193652,-0.00115565,0.0024498,-0.000665431,-1.15282,0.00189438,0.0214161,1140,400,7.25062,58.3234
-77,624,7.22131,-58.7996,0.000302191,0.00165333,-0.00090832,0.00210977,-0.000154246,-1.10515,0.00146064,0.0157413,1147,400,7.22137,58.7996
-70,624,7.22815,-59.2263,0.000763166,0.00137938,-0.000671224,0.00180984,0.000332713,-1.00056,0.00111236,0.017696,1154,400,7.22816,59.2263
-63,624,7.23169,-59.7006,0.00126863,0.000989698,-0.000428223,0.00157953,0.000678803,-0.62797,0.000914937,0.0193214,1161,400,7.23165,59.7006
-56,624,7.17981,-60.1246,0.00172741,0.000446346,-0.000164669,0.00174823,0.000425518,-0.125817,0.00105272,0.0154919,1168,400,7.17987,60.1246
-49,624,7.18652,-60.5262,0.00219588,-0.000127042,9.03326e-05,0.00219939,-0.00013055,0.0388094,0.00151165,0.0112767,1175,400,7.18647,60.5262
-42,624,7.18372,-60.8559,0.00270962,-0.000701365,0.000328562,0.00274098,-0.000732725,0.0951589,0.00211431,0.00995162,1182,400,7.18375,60.8559
-35,624,7.20178,-61.1753,0.00318791,-0.0011703,0.000495117,0.00324345,-0.00122584,0.111709,0.00266655,0.0153449,1189,400,7.20183,61.1753
-28,624,7.21069,-61.5251,0.00364673,-0.00211878,0.000590998,0.00370669,-0.00217874,0.101105,0.00343591,0.0203385,1196,400,7.21066,61.5251
-21,624,7.21228,-61.8276,0.00409837,-0.00314998,0.000534337,0.00413755,-0.00318915,0.0731911,0.00424187,0.0147773,1203,400,7.21234,61.8276
-14,624,7.24365,-62.1124,0.00453833,-0.00388429,0.000417696,0.004559,-0.00390495,0.0494305,0.00489152,0.015573,1210,400,7.2436,62.1124
-7,624,7.27649,-62.35,0.00488663,-0.00512895,0.000196705,0.00489049,-0.00513281,0.0196298,0.00578752,0.020506,1217,400,7.27654,62.35
0,624,7.32727,-62.5818,0.00480447,-0.00663073,-2.34577e-05,0.00480452,-0.00663077,-0.00205134,0.00663017,0.0210071,1224,400,7.32731,62.5818
7,624,7.33179,-62.7918,0.00487143,-0.00776215,-0.000234565,0.00487579,-0.00776651,-0.0185583,0.00736236,0.0152602,1231,400,7.33179,62.7918
14,624,7.40308,-63.0036,0.00485138,-0.00884603,-0.000421089,0.00486431,-0.00885897,-0.0307036,0.00803425,0.0130314,1238,400,7.40309,63.0036
21,624,7.44556,-63.148,0.00481046,-0.00982471,-0.000564222,0.00483218,-0.00984643,-0.0384764,0.00863795,0.0153606,1245,400,7.44557,63.148
28,624,7.45142,-63.2759,0.00480732,-0.0107033,-0.000623627,0.00483236,-0.0107283,-0.0401201,0.00919643,0.0143397,1252,400,7.45136,63.2759
35,624,7.49084,-63.3633,0.00474384,-0.0112813,-0.000688195,0.00477334,-0.0113108,-0.0428397,0.00953842,0.0172251,1259,400,7.49082,63.3633
42,624,7.58911,-63.4707,0.00467368,-0.0113635,-0.000679368,0.0047024,-0.0113922,-0.0422612,0.00955605,0.0187616,1266,400,7.58916,63.4707
49,624,7.68481,-63.5335,0.00471351,-0.0110458,-0.000655967,0.00474077,-0.0110731,-0.0415283,0.00937094,0.0192993,1273,400,7.68482,63.5335
56,624,7.71143,-63.617,0.00486363,-0.010519,-0.000633954,0.00488972,-0.0105451,-0.0411194,0.00910848,0.020106,1280,400,7.71137,63.617
63,624,7.75549,-63.6234,0.00511457,-0.00979148,-0.000716047,0.00514888,-0.0098258,-0.0478904,0.00878507,0.0168618,1287,400,7.75545,63.6234
70,624,7.78394,-63.6464,0.00542474,-0.0088404,-0.000893202,0.00548045,-0.00889611,-0.0622901,0.00837804,0.0152883,1294,400,7.78389,63.6464
77,624,7.83984,-63.588,0.00577827,-0.00744949,-0.00103266,0.0058584,-0.00752962,-0.0774427,0.00774962,0.0156539,1301,400,7.8398,63.588
84,624,7.9165,-63.4849,0.00621796,-0.00639476,-0.00114639,0.00632131,-0.00649811,-0.0899094,0.00740153,0.0132305,1308,400,7.9165,63.4849
91,624,7.96655,-63.3752,0.00637716,-0.00598946,-0.00141746,0.00653755,-0.00614985,-0.112673,0.00732621,0.0134556,1315,400,7.96659,63.3752
98,624,8.00793,-63.2959,0.00643825,-0.00527852,-0.00162988,0.00666075,-0.00550102,-0.135676,0.00703224,0.0126926,1322,400,8.00794,63.2959
105,624,8.04395,-63.2132,0.00684419,-0.00465473,-0.00179891,0.00711905,-0.00492959,-0.151617,0.00699446,0.0136083,1329,400,8.0439,63.2132
112,624,8.09229,-63.0706,0.00669891,-0.00473507,-0.00188421,0.0070014,-0.00503757,-0.159184,0.00698146,0.014544,1336,400,8.09227,63.0706
119,624,8.11133,-62.8885,0.00648198,-0.00475046,-0.00189852,0.0067942,-0.00506267,-0.162991,0.00686986,0.0151108,1343,400,8.11131,62.8884
126,624,8.14392,-62.6423,0.00622262,-0.00462507,-0.00193625,0.00655787,-0.00496032,-0.171443,0.00667132,0.0187677,1350,400,8.14388,62.6423
133,624,8.20874,-62.3447,0.00588309,-0.00422659,-0.00189905,0.00622805,-0.00457154,-0.179688,0.00625955,0.0192278,1357,400,8.20869,62.3447
140,624,8.22205,-62.1068,0.00553502,-0.00377318,-0.00171843,0.00584214,-0.00408029,-0.176851,0.00575874,0.0191719,1364,400,8.22211,62.1068
147,624,8.17932,-61.7847,0.00514036,-0.00326715,-0.00154571,0.00541554,-0.00354232,-0.176177,0.00520938,0.0235183,1371,400,8.17936,61.7847
154,624,8.26062,-61.4687,0.00470532,-0.00258635,-0.00138807,0.00496061,-0.00284165,-0.181891,0.00455968,0.0262535,1378,400,8.26058,61.4687
161,624,8.36011,-61.1425,0.00426064,-0.0016183,-0.00117979,0.00448857,-0.00184623,-0.190839,0.00376196,0.024993,1385,400,8.3601,61.1425
168,624,8.36536,-60.7652,0.00372259,-0.000556304,-0.00089288,0.00390144,-0.000735147,-0.197683,0.00287748,0.0238488,1392,400,8.36535,60.7652
175,624,8.36865,-60.4527,0.00313082,0.000439301,-0.00057114,0.003247,0.00032312,-0.200681,0.00206541,0.017448,1399,400,8.36867,60.4527
182,624,8.36584,-60.0742,0.00250741,0.0014025,-0.000269427,0.00256961,0.0013403,-0.226876,0.00148402,0.0106047,1406,400,8.3658,60.0742
189,624,8.34045,-59.6261,0.00190399,0.00237946,7.70244e-05,0.00239162,0.00189182,1.41414,0.00145668,0.0100694,1413,400,8.3405,59.6261
196,624,8.31006,-59.1715,0.00150014,0.00335463,0.000536931,0.00349887,0.0013559,1.30836,0.00203704,0.0117207,1420,400,8.31006,59.1715
203,624,8.32983,-58.6821,0.00101716,0.00403714,0.000941445,0.00430659,0.000747717,1.29204,0.00265712,0.015175,1427,400,8.32987,58.6821
210,624,8.34692,-58.2203,0.000350228,0.00439189,0.00137589,0.00481581,-7.36951e-05,1.27192,0.00323539,0.0196368,1434,400,8.34687,58.2203
217,624,8.29675,-57.7347,-0.00017136,0.00480524,0.00178429,0.00537886,-0.000744974,1.25975,0.00385828,0.0230457,1441,400,8.29679,57.7347
224,624,8.25525,-57.2075,-0.000527296,0.0053013,0.00215913,0.00601398,-0.00123997,1.25198,0.00448021,0.0177404,1448,400,8.25529,57.2075
231,624,8.24707,-56.6793,-0.000816658,0.00572658,0.00259737,0.00663226,-0.00172234,1.23529,0.00509362,0.0126348,1455,400,8.24701,56.6793
238,624,8.22974,-56.1391,-0.00114305,0.00615388,0.00297845,0.00721524,-0.00220441,1.22848,0.00568915,0.0188371,1462,400,8.22968,56.1391
245,624,8.19641,-55.5883,-0.00143095,0.0066692,0.00333774,0.00786733,-0.00262908,1.22616,0.00630664,0.0196817,1469,400,8.19644,55.5883
252,624,8.16003,-54.9965,-0.00169608,0.00739043,0.00374145,0.00873272,-0.00303837,1.22634,0.00705613,0.0139795,1476,400,8.16007,54.9965
259,624,8.10718,-54.3986,-0.00201941,0.00800065,0.00417509,0.00951226,-0.00353102,1.22342,0.00779,0.00997696,1483,400,8.10715,54.3986
266,624,8.08008,-53.7527,-0.00236479,0.00863733,0.00461836,0.010319,-0.00404641,1.2216,0.00855334,0.0139456,1490,400,8.08004,53.7527
273,624,8.03223,-53.132,-0.00261769,0.00954269,0.00518351,0.0114523,-0.00452734,1.21782,0.00951026,0.0169493,1497,400,8.03222,53.1319
280,624,7.96875,-52.5085,-0.00276993,0.0104877,0.00577341,0.0126494,-0.00493165,1.21253,0.0104714,0.0152481,1504,400,7.9688,52.5085
287,624,7.90259,-51.856,-0.00280317,0.0117704,0.00655083,0.0142821,-0.00531489,1.20466,0.0117025,0.0120356,1511,400,7.9026,51.856
294,624,7.84961,-51.1785,-0.00292031,0.01297,0.00728457,0.015804,-0.00575432,1.19977,0.0128896,0.0109102,1518,400,7.84964,51.1785
301,624,7.79663,-50.4433,-0.00295261,0.0141691,0.00807717,0.0173781,-0.00616159,1.19263,0.0140955,0.0131957,1525,400,7.79668,50.4433
308,624,7.79456,-49.6694,-0.00258338,0.0159514,0.00902034,0.0196166,-0.00624854,1.18485,0.0155839,0.0209997,1532,400,7.79457,49.6694
315,624,7.77686,-48.9516,-0.00158792,0.0181007,0.010223,0.0224487,-0.00593588,1.16866,0.0172875,0.0276095,1539,400,7.77684,48.9516
322,624,7.71887,-48.2689,-0.000708889,0.0201139,0.0114751,0.0251969,-0.00579182,1.15382,0.0190247,0.0470715,1546,400,7.71892,48.2689
329,624,7.65894,-47.5738,0,0,0,0,0,0,0,-1,1553,400,7.65899,47.5738
336,624,7.45862,-46.3167,0,0,0,0,0,0,0,-1,1560,400,7.45866,46.3167
343,624,6.53369,-39.5615,0,0,0,0,0,0,0,-1,1567,400,6.53364,39.5615
350,624,1.99194,-7.29742,0,0,0,0,0,0,0,-1,1574,400,1.99198,7.29741
357,624,2.64075,-3.13092,0,0,0,0,0,0,0,-1,1581,400,2.64076,3.13091
364,624,3.16565,-4.9458,0,0,0,0,0,0,0,-1,1588,400,3.16564,4.94579
371,624,3.37561,-5.23529,0,0,0,0,0,0,0,-1,1595,400,3.37563,5.23529
378,624,1.50439,-5.22165,0,0,0,0,0,0,0,-1,1602,400,1.50438,5.22164
385,624,1.2301,-10.5866,0,0,0,0,0,0,0,-1,1609,400,1.2301,10.5866
392,624,4.26819,-5.14236,0,0,0,0,0,0,0,-1,1616,400,4.26818,5.14236
399,624,2.22168,-9.19293,0,0,0,0,0,0,0,-1,1623,400,2.22173,9.19294
406,624,2.68213,-9.91171,0,0,0,0,0,0,0,-1,1630,400,2.68213,9.91171
413,624,0,0,0,0,0,0,0,0,0,-1,1637,400,0,0
420,624,0,0,0,0,0,0,0,0,0,-1,1644,400,0,0
427,624,0,0,0,0,0,0,0,0,0,-1,1651,400,0,0
434,624,0,0,0,0,0,0,0,0,0,-1,1658,400,0,0
441,624,0,0,0,0,0,0,0,0,0,-1,1665,400,0,0
448,624,0,0,0,0,0,0,0,0,0,-1,1672,400,0,0
455,624,0,0,0,0,0,0,0,0,0,-1,1679,400,0,0
462,624,0,0,0,0,0,0,0,0,0,-1,1686,400,0,0
469,624,0,0,0,0,0,0,0,0,0,-1,1693,400,0,0
476,624,0,0,0,0,0,0,0,0,0,-1,1700,400,0,0
483,624,0,0,0,0,0,0,0,0,0,-1,1707,400,0,0
490,624,0,0,0,0,0,0,0,0,0,-1,1714,400,0,0
497,624,0,0,0,0,0,0,0,0,0,-1,1721,400,0,0
504,624,0,0,0,0,0,0,0,0,0,-1,1728,400,0,0
511,624,0,0,0,0,0,0,0,0,0,-1,1735,400,0,0
518,624,0,0,0,0,0,0,0,0,0,-1,1742,400,0,0
525,624,0,0,0,0,0,0,0,0,0,-1,1749,400,0,0
532,624,0,0,0,0,0,0,0,0,0,-1,1756,400,0,0
539,624,0,0,0,0,0,0,0,0,0,-1,1763,400,0,0
546,624,0,0,0,0,0,0,0,0,0,-1,1770,400,0,0
553,624,0,0,0,0,0,0,0,0,0,-1,1777,400,0,0
560,624,0,0,0,0,0,0,0,0,0,-1,1784,400,0,0
567,624,0,0,0,0,0,0,0,0,0,-1,1791,400,0,0
574,624,0,0,0,0,0,0,0,0,0,-1,1798,400,0,0
581,624,0,0,0,0,0,0,0,0,0,-1,1805,400,0,0
588,624,0,0,0,0,0,0,0,0,0,-1,1812,400,0,0
595,624,0,0,0,0,0,0,0,0,0,-1,1819,400,0,0
602,624,0,0,0,0,0,0,0,0,0,-1,1826,400,0,0
609,624,0,0,0,0,0,0,0,0,0,-1,1833,400,0,0
616,624,0,0,0,0,0,0,0,0,0,-1,1840,400,0,0
623,624,0,0,0,0,0,0,0,0,0,-1,1847,400,0,0
630,624,0,0,0,0,0,0,0,0,0,-1,1854,400,0,0
637,624,0,0,0,0,0,0,0,0,0,-1,1861,400,0,0
644,624,0,0,0,0,0,0,0,0,0,-1,1868,400,0,0
651,624,0,0,0,0,0,0,0,0,0,-1,1875,400,0,0
658,624,0,0,0,0,0,0,0,0,0,-1,1882,400,0,0
665,624,0,0,0,0,0,0,0,0,0,-1,1889,400,0,0
672,624,0,0,0,0,0,0,0,0,0,-1,1896,400,0,0
679,624,0,0,0,0,0,0,0,0,0,-1,1903,400,0,0
686,624,0,0,0,0,0,0,0,0,0,-1,1910,400,0,0
693,624,0,0,0,0,0,0,0,0,0,-1,1917,400,0,0
700,624,0,0,0,0,0,0,0,0,0,-1,1924,400,0,0
707,624,0,0,0,0,0,0,0,0,0,-1,1931,400,0,0
714,624,0,0,0,0,0,0,0,0,0,-1,1938,400,0,0
721,624,0,0,0,0,0,0,0,0,0,-1,1945,400,0,0
728,624,0,0,0,0,0,0,0,0,0,-1,1952,400,0,0
735,624,0,0,0,0,0,0,0,0,0,-1,1959,400,0,0
742,624,0,0,0,0,0,0,0,0,0,-1,1966,400,0,0
749,624,0,0,0,0,0,0,0,0,0,-1,1973,400,0,0
756,624,0,0,0,0,0,0,0,0,0,-1,1980,400,0,0
763,624,0,0,0,0,0,0,0,0,0,-1,1987,400,0,0
770,624,0,0,0,0,0,0,0,0,0,-1,1994,400,0,0
777,624,0,0,0,0,0,0,0,0,0,-1,2001,400,0,0
784,624,0,0,0,0,0,0,0,0,0,-1,2008,400,0,0
791,624,0,0,0,0,0,0,0,0,0,-1,2015,400,0,0
798,624,0,0,0,0,0,0,0,0,0,-1,2022,400,0,0
805,624,0,0,0,0,0,0,0,0,0,-1,2029,400,0,0
812,624,0,0,0,0,0,0,0,0,0,-1,2036,400,0,0
-700,617,0,0,0,0,0,0,0,0,0,-1,524,407,0,0
-693,617,0,0,0,0,0,0,0,0,0,-1,531,407,0,0
-686,617,0,0,0,0,0,0,0,0,0,-1,538,407,0,0
-679,617,0,0,0,0,0,0,0,0,0,-1,545,407,0,0
-672,617,0,0,0,0,0,0,0,0,0,-1,552,407,0,0
-665,617,0,0,0,0,0,0,0,0,0,-1,559,407,0,0
-658,617,0,0,0,0,0,0,0,0,0,-1,566,407,0,0
-651,617,0,0,0,0,0,0,0,0,0,-1,573,407,0,0
-644,617,0,0,0,0,0,0,0,0,0,-1,580,407,0,0
-637,617,0,0,0,0,0,0,0,0,0,-1,587,407,0,0
-630,617,0,0,0,0,0,0,0,0,0,-1,594,407,0,0
-623,617,0,0,0,0,0,0,0,0,0,-1,601,407,0,0
-616,617,0,0,0,0,0,0,0,0,0,-1,608,407,0,0
-609,617,0,0,0,0,0,0,0,0,0,-1,615,407,0,0
-602,617,0,0,0,0,0,0,0,0,0,-1,622,407,0,0
-595,617,0,0,0,0,0,0,0,0,0,-1,629,407,0,0
-588,617,0,0,0,0,0,0,0,0,0,-1,636,407,0,0
-581,617,0,0,0,0,0,0,0,0,0,-1,643,407,0,0
-574,617,0,0,0,0,0,0,0,0,0,-1,650,407,0,0
-567,617,0,0,0,0,0,0,0,0,0,-1,657,407,0,0
-560,617,0,0,0,0,0,0,0,0,0,-1,664,407,0,0
-553,617,0,0,0,0,0,0,0,0,0,-1,671,407,0,0
-546,617,0,0,0,0,0,0,0,0,0,-1,678,407,0,0
-539,617,0,0,0,0,0,0,0,0,0,-1,685,407,0,0
-532,617,0,0,0,0,0,0,0,0,0,-1,692,407,0,0
-525,617,0,0,0,0,0,0,0,0,0,-1,699,407,0,0
-518,617,0,0,0,0,0,0,0,0,0,-1,706,407,0,0
-511,617,0,0,0,0,0,0,0,0,0,-1,713,407,0,0
-504,617,0,0,0,0,0,0,0,0,0,-1,720,407,0,0
-497,617,0,0,0,0,0,0,0,0,0,-1,727,407,0,0
-490,617,0,0,0,0,0,0,0,0,0,-1,734,407,0,0
-483,617,0,0,0,0,0,0,0,0,0,-1,741,407,0,0
-476,617,0,0,0,0,0,0,0,0,0,-1,748,407,0,0
-469,617,0,0,0,0,0,0,0,0,0,-1,755,407,0,0
-462,617,0,0,0,0,0,0,0,0,0,-1,762,407,0,0
-455,617,0,0,0,0,0,0,0,0,0,-1,769,407,0,0
-448,617,0,0,0,0,0,0,0,0,0,-1,776,407,0,0
-441,617,0,0,0,0,0,0,0,0,0,-1,783,407,0,0
-434,617,0,0,0,0,0,0,0,0,0,-1,790,407,0,0
-427,617,0,0,0,0,0,0,0,0,0,-1,797,407,0,0
-420,617,0,0,0,0,0,0,0,0,0,-1,804,407,0,0
-413,617,0,0,0,0,0,0,0,0,0,-1,811,407,0,0
-406,617,0,0,0,0,0,0,0,0,0,-1,818,407,0,0
-399,617,0,0,0,0,0,0,0,0,0,-1,825,407,0,0
-392,617,0,0,0,0,0,0,0,0,0,-1,832,407,0,0
-385,617,0,0,0,0,0,0,0,0,0,-1,839,407,0,0
-378,617,0,0,0,0,0,0,0,0,0,-1,846,407,0,0
-371,617,0,0,0,0,0,0,0,0,0,-1,853,407,0,0
-364,617,0,0,0,0,0,0,0,0,0,-1,860,407,0,0
-357,617,0,0,0,0,0,0,0,0,0,-1,867,407,0,0
-350,617,0,0,0,0,0,0,0,0,0,-1,874,407,0,0
-343,617,0,0,0,0,0,0,0,0,0,-1,881,407,0,0
-336,617,0,0,0,0,0,0,0,0,0,-1,888,407,0,0
-329,617,0,0,0,0,0,0,0,0,0,-1,895,407,0,0
-322,617,0,0,0,0,0,0,0,0,0,-1,902,407,0,0
-315,617,0,0,0,0,0,0,0,0,0,-1,909,407,0,0
-308,617,0,0,0,0,0,0,0,0,0,-1,916,407,0,0
-301,617,6.81897,-24.525,0,0,0,0,0,0,0,-1,923,407,6.81899,24.525
-294,617,6.19263,-26.917,0,0,0,0,0,0,0,-1,930,407,6.19261,26.917
-287,617,7.00409,-31.9773,0,0,0,0,0,0,0,-1,937,407,7.00406,31.9773
-280,617,9.1106,-36.5021,0,0,0,0,0,0,0,-1,944,407,9.11059,36.5021
-273,617,8.35004,-36.2751,0,0,0,0,0,0,0,-1,951,407,8.35003,36.2751
-266,617,7.61749,-36.1671,0,0,0,0,0,0,0,-1,958,407,7.61746,36.1671
-259,617,6.83643,-36.3605,0,0,0,0,0,0,0,-1,965,407,6.83643,36.3605
-252,617,6.02264,-36.5001,0,0,0,0,0,0,0,-1,972,407,6.02265,36.5001
-245,617,6.72626,-34.4465,0,0,0,0,0,0,0,-1,979,407,6.72627,34.4465
-238,617,5.6474,-34.6842,0,0,0,0,0,0,0,-1,986,407,5.64741,34.6842
-231,617,7.4007,-43.5836,0,0,0,0,0,0,0,-1,993,407,7.40069,43.5836
-224,617,7.41321,-45.2992,0,0,0,0,0,0,0,-1,1000,407,7.4132,45.2992
-217,617,7.42657,-46.2039,0,0,0,0,0,0,0,-1,1007,407,7.42656,46.2039
-210,617,7.39258,-47.062,-0.00107408,0.0203547,-0.0105194,0.0246555,-0.00537487,-1.18269,0.0184909,0.033925,1014,407,7.39258,47.062
-203,617,7.3811,-47.944,-0.00117823,0.0178679,-0.00966309,0.0219119,-0.00522219,-1.17445,0.0166243,0.0248032,1021,407,7.38106,47.944
-196,617,7.32788,-48.6166,-0.00122895,0.0155752,-0.00886593,0.0193879,-0.00504161,-1.16467,0.014893,0.0194178,1028,407,7.32786,48.6166
-189,617,7.24683,-49.355,-0.0011935,0.0142217,-0.0084865,0.0179783,-0.00495009,-1.15407,0.0139319,0.0168699,1035,407,7.24681,49.3551
-182,617,7.18298,-50.0699,-0.00122986,0.0126132,-0.00798579,0.0162596,-0.00487623,-1.14246,0.0127791,0.0185187,1042,407,7.18292,50.07
-175,617,7.17139,-50.7505,-0.00132558,0.0112445,-0.00726621,0.0145667,-0.00464781,-1.14196,0.0115757,0.0165528,1049,407,7.17139,50.7505
-168,617,7.10986,-51.4551,-0.00140961,0.00979104,-0.00649814,0.0127691,-0.00438772,-1.14106,0.010292,0.0125273,1056,407,7.10985,51.4551
-161,617,7.02209,-52.1459,-0.00140865,0.00859141,-0.00572361,0.0111914,-0.00400862,-1.14441,0.00909647,0.010999,1063,407,7.02211,52.1459
-154,617,6.95532,-52.7639,-0.00143405,0.0073818,-0.00490172,0.00956604,-0.00361829,-1.1516,0.00786593,0.0116528,1070,407,6.95529,52.7639
-147,617,6.91675,-53.3829,-0.00135971,0.00639664,-0.0041757,0.0082173,-0.00318037,-1.15963,0.00679126,0.0160456,1077,407,6.91679,53.3829
-140,617,6.89197,-54.0467,-0.00113821,0.00538906,-0.00351062,0.00691873,-0.00266788,-1.15988,0.00571333,0.0128042,1084,407,6.892,54.0467
-133,617,6.85376,-54.63,-0.000886138,0.00449388,-0.00288014,0.00574486,-0.00213711,-1.16104,0.00470688,0.0147485,1091,407,6.85373,54.63
-126,617,6.82837,-55.1545,-0.000631379,0.00366593,-0.00227473,0.00464635,-0.0016118,-1.16385,0.00375206,0.0149514,1098,407,6.82832,55.1545
-119,617,6.77026,-55.7157,-0.000328955,0.00282559,-0.00169454,0.00356333,-0.00106669,-1.16018,0.00279969,0.0159668,1105,407,6.77024,55.7157
-112,617,6.76245,-56.2756,6.15977e-05,0.00220549,-0.00123944,0.00277223,-0.00050514,-1.14193,0.00203751,0.0170496,1112,407,6.7625,56.2756
-105,617,6.77686,-56.8033,0.000497294,0.00175253,-0.000921311,0.00223968,1.01397e-05,-1.0844,0.00148975,0.017047,1119,407,6.77683,56.8033
-98,617,6.74133,-57.3279,0.000943898,0.00134818,-0.000666485,0.00184251,0.000449574,-0.932637,0.00110927,0.0140146,1126,407,6.74128,57.3279
-91,617,6.76135,-57.8204,0.00145751,0.00108878,-0.000498175,0.00180434,0.00074195,-0.608173,0.0010472,0.020408,1133,407,6.76131,57.8204
-84,617,6.79114,-58.3228,0.00209693,0.000775413,-0.000342046,0.00218021,0.000692131,-0.238836,0.00128641,0.0204387,1140,407,6.79113,58.3228
-77,617,6.77698,-58.7818,0.00276592,0.000454767,-0.000296314,0.00280331,0.000417381,-0.125506,0.00174645,0.0163758,1147,407,6.77701,58.7818
-70,617,6.81726,-59.2447,0.00341922,-7.78734e-05,-2.54257e-05,0.0034194,-7.80583e-05,-0.00727001,0.00230606,0.0190309,1154,407,6.81729,59.2447
-63,617,6.86707,-59.7209,0.00411735,-0.00096363,0.000283679,0.00413313,-0.000979419,0.0556013,0.00313334,0.0220545,1161,407,6.86704,59.7209
-56,617,6.80237,-60.1075,0.00466202,-0.00196129,0.000591668,0.00471446,-0.00201373,0.0883986,0.00398747,0.0161175,1168,407,6.80236,60.1075
-49,617,6.81116,-60.508,0.00516333,-0.00287462,0.00084453,0.00525111,-0.00296239,0.103561,0.00480304,0.0120422,1175,407,6.81111,60.508
-42,617,6.83337,-60.8682,0.00573888,-0.00377185,0.00109422,0.00586315,-0.00389612,0.113083,0.00567254,0.0124904,1182,407,6.83333,60.8682
-35,617,6.88599,-61.1834,0.0062682,-0.00453958,0.001234,0.0064073,-0.00467869,0.112253,0.00642638,0.0175336,1189,407,6.88602,61.1834
-28,617,6.90063,-61.5084,0.00675955,-0.00604155,0.00128163,0.00688661,-0.0061686,0.0988121,0.00754123,0.0194281,1196,407,6.90069,61.5084
-21,617,6.94751,-61.79,0.00723966,-0.00764381,0.00112753,0.00732459,-0.00772874,0.0751851,0.00869209,0.0140395,1203,407,6.94747,61.79
-14,617,6.99915,-62.0741,0.0077125,-0.00878758,0.000877536,0.00775904,-0.00883412,0.0529845,0.00958676,0.0161033,1210,407,6.99913,62.0741
-7,617,7.00745,-62.2858,0.0080142,-0.0106713,0.000489182,0.008027,-0.0106841,0.0261559,0.0108391,0.0197562,1217,407,7.0075,62.2858
0,617,7.08716,-62.5072,0.00762561,-0.0129312,0.000122767,0.00762634,-0.0129319,0.00597178,0.0120003,0.0170663,1224,407,7.08711,62.5072
7,617,7.18335,-62.7939,0.00753723,-0.0146606,-0.000220824,0.00753943,-0.0146628,-0.00994671,0.0130365,0.0129295,1231,407,7.18337,62.7939
14,617,7.24292,-63.0109,0.00735088,-0.0163051,-0.000532341,0.00736285,-0.0163171,-0.0224883,0.0139936,0.0154584,1238,407,7.24286,63.0109
21,617,7.30627,-63.1415,0.00715214,-0.0178259,-0.000803125,0.00717794,-0.0178517,-0.032109,0.0148824,0.0146091,1245,407,7.30631,63.1415
28,617,7.35181,-63.3047,0.0069753,-0.0191751,-0.000957193,0.00701029,-0.0192101,-0.0365382,0.0156751,0.0131135,1252,407,7.35182,63.3046
35,617,7.36841,-63.4334,0.00673271,-0.0200814,-0.00110252,0.00677796,-0.0201267,-0.0410249,0.0161581,0.0158117,1259,407,7.36835,63.4334
42,617,7.49731,-63.4645,0.00655936,-0.0202017,-0.00113877,0.00660773,-0.0202501,-0.0424507,0.0161594,0.023117,1266,407,7.49725,63.4645
49,617,7.60815,-63.5225,0.00661167,-0.0197101,-0.00113022,0.00666011,-0.0197586,-0.0428334,0.0158654,0.0225624,1273,407,7.60819,63.5225
56,617,7.65027,-63.5728,0.00685335,-0.0188656,-0.00111104,0.00690125,-0.0189135,-0.0430924,0.0154326,0.0161544,1280,407,7.65024,63.5728
63,617,7.72961,-63.6182,0.00726998,-0.0176961,-0.00126779,0.0073342,-0.0177603,-0.0506071,0.0148993,0.0123921,1287,407,7.72959,63.6181
70,617,7.81592,-63.6551,0.00782255,-0.0161909,-0.00158023,0.00792609,-0.0162945,-0.0654299,0.0142592,0.0182483,1294,407,7.81589,63.6551
77,617,7.9198,-63.5726,0.00843865,-0.0140428,-0.00183173,0.00858692,-0.014191,-0.0807677,0.0132829,0.0171142,1301,407,7.91982,63.5726
84,617,7.99353,-63.476,0.00921468,-0.0124486,-0.00200724,0.00939909,-0.012633,-0.0916169,0.0127659,0.0126892,1308,407,7.99349,63.476
91,617,8.04846,-63.3936,0.0096376,-0.0118657,-0.00242886,0.00990853,-0.0121366,-0.111088,0.0127494,0.0114409,1315,407,8.0485,63.3936
98,617,8.1145,-63.3084,0.0099057,-0.0108398,-0.00278158,0.0102722,-0.0112063,-0.130999,0.0124045,0.0122696,1322,407,8.11455,63.3084
105,617,8.19751,-63.1838,0.0107017,-0.00994394,-0.00308709,0.0111534,-0.0103957,-0.145295,0.0124439,0.0135008,1329,407,8.1975,63.1838
112,617,8.28223,-63.0291,0.0105143,-0.0102621,-0.00330171,0.0110264,-0.0107742,-0.153868,0.0125869,0.0164763,1336,407,8.28218,63.0291
119,617,8.32861,-62.8294,0.0102123,-0.0104293,-0.00339399,0.010756,-0.010973,-0.158855,0.0125455,0.0189058,1343,407,8.32862,62.8294
126,617,8.39063,-62.5805,0.00984412,-0.010402,-0.00350431,0.0104335,-0.0109914,-0.16663,0.0123711,0.0211296,1350,407,8.39057,62.5805
133,617,8.47095,-62.3215,0.00937723,-0.0100008,-0.00351946,0.00999664,-0.0106202,-0.174212,0.0119049,0.0189721,1357,407,8.47097,62.3215
140,617,8.51062,-62.0892,0.00887386,-0.00950884,-0.00336357,0.00946997,-0.010105,-0.175406,0.0113036,0.0168363,1364,407,8.51063,62.0892
147,617,8.50574,-61.7621,0.00830935,-0.00902703,-0.00321558,0.00888656,-0.00960425,-0.177613,0.0106784,0.0210086,1371,407,8.5057,61.7621
154,617,8.60596,-61.4777,0.00769939,-0.00826636,-0.00309382,0.00827794,-0.00884491,-0.184867,0.00988769,0.0246263,1378,407,8.60598,61.4776
161,617,8.67212,-61.2042,0.00709274,-0.00708543,-0.00293011,0.00767442,-0.00766711,-0.195971,0.00885744,0.0247438,1385,407,8.67208,61.2042
168,617,8.71313,-60.8569,0.00641916,-0.00568733,-0.0026339,0.00696737,-0.00623554,-0.205206,0.0076266,0.0218755,1392,407,8.71315,60.8569
175,617,8.72778,-60.4734,0.00569572,-0.00435313,-0.00229958,0.00619696,-0.00485436,-0.214611,0.00639616,0.0174757,1399,407,8.72776,60.4734
182,617,8.77112,-60.0523,0.00494337,-0.00305935,-0.00201723,0.00542309,-0.00353907,-0.233475,0.00521228,0.0116912,1406,407,8.77111,60.0523
189,617,8.78088,-59.6295,0.0041701,-0.00166998,-0.00169676,0.00462728,-0.00212716,-0.263193,0.00398773,0.0112407,1413,407,8.78086,59.6295
196,617,8.75037,-59.174,0.00367021,-0.000262361,-0.00119409,0.00400439,-0.000596536,-0.272878,0.00288904,0.0155756,1420,407,8.75037,59.174
203,617,8.75037,-58.7328,0.00316273,0.000833948,-0.00069942,0.00335665,0.000640034,-0.270457,0.00205787,0.0166914,1427,407,8.7504,58.7328
210,617,8.78577,-58.2349,0.00241529,0.00170809,-0.000171316,0.0024546,0.00166877,-0.225581,0.00144741,0.0159607,1434,407,8.78579,58.2349
217,617,8.78821,-57.7281,0.00176781,0.00237241,0.000353414,0.00253518,0.00160504,1.1392,0.00148087,0.020744,1441,407,8.78824,57.7282
224,617,8.77783,-57.2295,0.00129855,0.00298403,0.000832631,0.00332598,0.000956602,1.18111,0.00197716,0.0197918,1448,407,8.77785,57.2295
231,617,8.78821,-56.6965,0.00089065,0.00352397,0.00137344,0.00410992,0.000304701,1.16755,0.00264424,0.0144362,1455,407,8.78827,56.6965
238,617,8.78125,-56.1765,0.000530048,0.00401558,0.00180755,0.00478369,-0.000238052,1.16898,0.00327136,0.0163633,1462,407,8.78128,56.1765
245,617,8.78674,-55.6282,0.000220134,0.00451342,0.00217004,0.00541917,-0.000685621,1.17539,0.00386166,0.0135605,1469,407,8.78679,55.6282
252,617,8.7561,-55.007,-0.000109352,0.00514384,0.00255088,0.00617866,-0.00114418,1.18541,0.00454872,0.0136249,1476,407,8.75613,55.007
259,617,8.68457,-54.3988,-0.000519918,0.00570089,0.00296517,0.0068878,-0.00170682,1.19005,0.00525405,0.0120613,1483,407,8.68459,54.3988
266,617,8.6394,-53.7607,-0.000941748,0.00625399,0.00337432,0.00758874,-0.0022765,1.19412,0.00596461,0.0148421,1490,407,8.63936,53.7607
273,617,8.62866,-53.1101,-0.00128189,0.00702696,0.003862,0.00854477,-0.0027997,1.19633,0.00682395,0.015578,1497,407,8.6287,53.1101
280,617,8.5813,-52.4876,-0.00153053,0.00784285,0.00437507,0.00956758,-0.00325526,1.19528,0.00769647,0.0137743,1504,407,8.58128,52.4876
287,617,8.52869,-51.8361,-0.00167108,0.00892576,0.00503087,0.0109337,-0.00367903,1.19105,0.0087764,0.0124363,1511,407,8.52874,51.8361
294,617,8.48999,-51.1732,-0.00188022,0.00993958,0.00564596,0.012203,-0.00414367,1.18952,0.00981268,0.010173,1518,407,8.49002,51.1732
301,617,8.43616,-50.4954,-0.00201333,0.0109612,0.00630507,0.0135204,-0.00457253,1.18522,0.0108634,0.008209,1525,407,8.43618,50.4954
308,617,8.36646,-49.7922,-0.00180394,0.0124629,0.00707077,0.0153734,-0.0047145,1.1803,0.0121298,0.00889449,1532,407,8.3665,49.7922
315,617,8.30554,-49.0996,-0.00112481,0.0142048,0.00803942,0.0176477,-0.00456772,1.16617,0.0135469,0.0108585,1539,407,8.30548,49.0996
322,617,8.23523,-48.3686,-0.000581462,0.0158335,0.00899373,0.0198018,-0.00454977,1.15526,0.0149504,0.0170118,1546,407,8.23523,48.3686
329,617,8.19543,-47.6094,0.000165449,0.0174721,0.0100073,0.0220485,-0.00441101,1.14188,0.0163687,0.0222317,1553,407,8.19545,47.6094
336,617,8.22607,-46.6873,0.00130917,0.0195295,0.0112165,0.0248695,-0.00403078,1.12647,0.0180737,0.0461223,1560,407,8.22613,46.6873
343,617,8.01843,-46.2446,0,0,0,0,0,0,0,-1,1567,407,8.01838,46.2446
350,617,7.85107,-45.3657,0,0,0,0,0,0,0,-1,1574,407,7.85105,45.3657
357,617,7.84937,-44.0641,0,0,0,0,0,0,0,-1,1581,407,7.84937,44.0641
364,617,8.52002,-43.2061,0,0,0,0,0,0,0,-1,1588,407,8.52005,43.2061
371,617,2.60266,-6.20667,0,0,0,0,0,0,0,-1,1595,407,2.60261,6.20668
378,617,1.56921,-10.3601,0,0,0,0,0,0,0,-1,1602,407,1.56918,10.3601
385,617,1.74146,-10.3561,0,0,0,0,0,0,0,-1,1609,407,1.7414,10.3561
392,617,1.96936,-5.10449,0,0,0,0,0,0,0,-1,1616,407,1.96931,5.10451
399,617,2.48889,-5.81256,0,0,0,0,0,0,0,-1,1623,407,2.48888,5.81255
406,617,3.01465,-6.51642,0,0,0,0,0,0,0,-1,1630,407,3.01461,6.51643
413,617,3.6427,-7.2074,0,0,0,0,0,0,0,-1,1637,407,3.64274,7.20739
420,617,3.42737,-4.47391,0,0,0,0,0,0,0,-1,1644,407,3.42737,4.47391
427,617,0,0,0,0,0,0,0,0,0,-1,1651,407,0,0
434,617,0,0,0,0,0,0,0,0,0,-1,1658,407,0,0
441,617,0,0,0,0,0,0,0,0,0,-1,1665,407,0,0
448,617,0,0,0,0,0,0,0,0,0,-1,1672,407,0,0
455,617,0,0,0,0,0,0,0,0,0,-1,1679,407,0,0
462,617,0,0,0,0,0,0,0,0,0,-1,1686,407,0,0
469,617,0,0,0,0,0,0,0,0,0,-1,1693,407,0,0
476,617,0,0,0,0,0,0,0,0,0,-1,1700,407,0,0
483,617,0,0,0,0,0,0,0,0,0,-1,1707,407,0,0
490,617,0,0,0,0,0,0,0,0,0,-1,1714,407,0,0
497,617,0,0,0,0,0,0,0,0,0,-1,1721,407,0,0
504,617,0,0,0,0,0,0,0,0,0,-1,1728,407,0,0
511,617,0,0,0,0,0,0,0,0,0,-1,1735,407,0,0
518,617,0,0,0,0,0,0,0,0,0,-1,1742,407,0,0
525,617,0,0,0,0,0,0,0,0,0,-1,1749,407,0,0
532,617,0,0,0,0,0,0,0,0,0,-1,1756,407,0,0
539,617,0,0,0,0,0,0,0,0,0,-1,1763,407,0,0
546,617,0,0,0,0,0,0,0,0,0,-1,1770,407,0,0
553,617,0,0,0,0,0,0,0,0,0,-1,1777,407,0,0
560,617,0,0,0,0,0,0,0,0,0,-1,1784,407,0,0
567,617,0,0,0,0,0,0,0,0,0,-1,1791,407,0,0
574,617,0,0,0,0,0,0,0,0,0,-1,1798,407,0,0
581,617,0,0,0,0,0,0,0,0,0,-1,1805,407,0,0
588,617,0,0,0,0,0,0,0,0,0,-1,1812,407,0,0
595,617,0,0,0,0,0,0,0,0,0,-1,1819,407,0,0
602,617,0,0,0,0,0,0,0,0,0,-1,1826,407,0,0
609,617,0,0,0,0,0,0,0,0,0,-1,1833,407,0,0
616,617,0,0,0,0,0,0,0,0,0,-1,1840,407,0,0
623,617,0,0,0,0,0,0,0,0,0,-1,1847,407,0,0
630,617,0,0,0,0,0,0,0,0,0,-1,1854,407,0,0
637,617,0,0,0,0,0,0,0,0,0,-1,1861,407,0,0
644,617,0,0,0,0,0,0,0,0,0,-1,1868,407,0,0
651,617,0,0,0,0,0,0,0,0,0,-1,1875,407,0,0
658,617,0,0,0,0,0,0,0,0,0,-1,1882,407,0,0
665,617,0,0,0,0,0,0,0,0,0,-1,1889,407,0,0
672,617,0,0,0,0,0,0,0,0,0,-1,1896,407,0,0
679,617,0,0,0,0,0,0,0,0,0,-1,1903,407,0,0
686,617,0,0,0,0,0,0,0,0,0,-1,1910,407,0,0
693,617,0,0,0,0,0,0,0,0,0,-1,1917,407,0,0
700,617,0,0,0,0,0,0,0,0,0,-1,1924,407,0,0
707,617,0,0,0,0,0,0,0,0,0,-1,1931,407,0,0
714,617,0,0,0,0,0,0,0,0,0,-1,1938,407,0,0
721,617,0,0,0,0,0,0,0,0,0,-1,1945,407,0,0
728,617,0,0,0,0,0,0,0,0,0,-1,1952,407,0,0
735,617,0,0,0,0,0,0,0,0,0,-1,1959,407,0,0
742,617,0,0,0,0,0,0,0,0,0,-1,1966,407,0,0
749,617,0,0,0,0,0,0,0,0,0,-1,1973,407,0,0
756,617,0,0,0,0,0,0,0,0,0,-1,1980,407,0,0
763,617,0,0,0,0,0,0,0,0,0,-1,1987,407,0,0
770,617,0,0,0,0,0,0,0,0,0,-1,1994,407,0,0
777,617,0,0,0,0,0,0,0,0,0,-1,2001,407,0,0
784,617,0,0,0,0,0,0,0,0,0,-1,2008,407,0,0
791,617,0,0,0,0,0,0,0,0,0,-1,2015,407,0,0
798,617,0,0,0,0,0,0,0,0,0,-1,2022,407,0,0
805,617,0,0,0,0,0,0,0,0,0,-1,2029,407,0,0
812,617,0,0,0,0,0,0,0,0,0,-1,2036,407,0,0
-700,610,0,0,0,0,0,0,0,0,0,-1,524,414,0,0
-693,610,0,0,0,0,0,0,0,0,0,-1,531,414,0,0
-686,610,0,0,0,0,0,0,0,0,0,-1,538,414,0,0
-679,610,0,0,0,0,0,0,0,0,0,-1,545,414,0,0
-672,610,0,0,0,0,0,0,0,0,0,-1,552,414,0,0
-665,610,0,0,0,0,0,0,0,0,0,-1,559,414,0,0
-658,610,0,0,0,0,0,0,0,0,0,-1,566,414,0,0
-651,610,0,0,0,0,0,0,0,0,0,-1,573,414,0,0
-644,610,0,0,0,0,0,0,0,0,0,-1,580,414,0,0
-637,610,0,0,0,0,0,0,0,0,0,-1,587,414,0,0
-630,610,0,0,0,0,0,0,0,0,0,-1,594,414,0,0
-623,610,0,0,0,0,0,0,0,0,0,-1,601,414,0,0
-616,610,0,0,0,0,0,0,0,0,0,-1,608,414,0,0
-609,610,0,0,0,0,0,0,0,0,0,-1,615,414,0,0
-602,610,0,0,0,0,0,0,0,0,0,-1,622,414,0,0
-595,610,0,0,0,0,0,0,0,0,0,-1,629,414,0,0
-588,610,0,0,0,0,0,0,0,0,0,-1,636,414,0,0
-581,610,0,0,0,0,0,0,0,0,0,-1,643,414,0,0
-574,610,0,0,0,0,0,0,0,0,0,-1,650,414,0,0
-567,610,0,0,0,0,0,0,0,0,0,-1,657,414,0,0
-560,610,0,0,0,0,0,0,0,0,0,-1,664,414,0,0
-553,610,0,0,0,0,0,0,0,0,0,-1,671,414,0,0
-546,610,0,0,0,0,0,0,0,0,0,-1,678,414,0,0
-539,610,0,0,0,0,0,0,0,0,0,-1,685,414,0,0
-532,610,0,0,0,0,0,0,0,0,0,-1,692,414,0,0
-525,610,0,0,0,0,0,0,0,0,0,-1,699,414,0,0
-518,610,0,0,0,0,0,0,0,0,0,-1,706,414,0,0
-511,610,0,0,0,0,0,0,0,0,0,-1,713,414,0,0
-504,610,0,0,0,0,0,0,0,0,0,-1,720,414,0,0
-497,610,0,0,0,0,0,0,0,0,0,-1,727,414,0,0
-490,610,0,0,0,0,0,0,0,0,0,-1,734,414,0,0
-483,610,0,0,0,0,0,0,0,0,0,-1,741,414,0,0
-476,610,0,0,0,0,0,0,0,0,0,-1,748,414,0,0
-469,610,0,0,0,0,0,0,0,0,0,-1,755,414,0,0
-462,610,0,0,0,0,0,0,0,0,0,-1,762,414,0,0
-455,610,0,0,0,0,0,0,0,0,0,-1,769,414,0,0
-448,610,0,0,0,0,0,0,0,0,0,-1,776,414,0,0
-441,610,0,0,0,0,0,0,0,0,0,-1,783,414,0,0
-434,610,0,0,0,0,0,0,0,0,0,-1,790,414,0,0
-427,610,0,0,0,0,0,0,0,0,0,-1,797,414,0,0
-420,610,0,0,0,0,0,0,0,0,0,-1,804,414,0,0
-413,610,0,0,0,0,0,0,0,0,0,-1,811,414,0,0
-406,610,0,0,0,0,0,0,0,0,0,-1,818,414,0,0
-399,610,0,0,0,0,0,0,0,0,0,-1,825,414,0,0
-392,610,0,0,0,0,0,0,0,0,0,-1,832,414,0,0
-385,610,0,0,0,0,0,0,0,0,0,-1,839,414,0,0
-378,610,0,0,0,0,0,0,0,0,0,-1,846,414,0,0
-371,610,0,0,0,0,0,0,0,0,0,-1,853,414,0,0
-364,610,0,0,0,0,0,0,0,0,0,-1,860,414,0,0
-357,610,0,0,0,0,0,0,0,0,0,-1,867,414,0,0
-350,610,0,0,0,0,0,0,0,0,0,-1,874,414,0,0
-343,610,0,0,0,0,0,0,0,0,0,-1,881,414,0,0
-336,610,0,0,0,0,0,0,0,0,0,-1,888,414,0,0
-329,610,0,0,0,0,0,0,0,0,0,-1,895,414,0,0
-322,610,0,0,0,0,0,0,0,0,0,-1,902,414,0,0
-315,610,7.68475,-21.5402,0,0,0,0,0,0,0,-1,909,414,7.68475,21.5402
-308,610,3.97211,-23.4133,0,0,0,0,0,0,0,-1,916,414,3.9721,23.4133
-301,610,7.38513,-22.4166,0,0,0,0,0,0,0,-1,923,414,7.38516,22.4166
-294,610,6.77832,-24.1945,0,0,0,0,0,0,0,-1,930,414,6.77829,24.1946
-287,610,3.39276,-28.5804,0,0,0,0,0,0,0,-1,937,414,3.39276,28.5803
-280,610,8.8728,-35.4336,0,0,0,0,0,0,0,-1,944,414,8.87283,35.4336
-273,610,8.14722,-35.5264,0,0,0,0,0,0,0,-1,951,414,8.14723,35.5264
-266,610,7.38361,-35.6366,0,0,0,0,0,0,0,-1,958,414,7.38359,35.6366
-259,610,6.47375,-35.762,0,0,0,0,0,0,0,-1,965,414,6.47373,35.762
-252,610,5.65308,-35.8931,0,0,0,0,0,0,0,-1,972,414,5.65305,35.8931
-245,610,7.31689,-43.3431,0,0,0,0,0,0,0,-1,979,414,7.31692,43.3431
-238,610,6.96655,-44.0915,0,0,0,0,0,0,0,-1,986,414,6.96657,44.0915
-231,610,6.96497,-44.6961,0,0,0,0,0,0,0,-1,993,414,6.96497,44.6961
-224,610,6.83411,-45.5346,-0.00110958,0.0195938,-0.00938141,0.0232124,-0.00472815,-1.20266,0.0172681,0.0321103,1000,414,6.8341,45.5346
-217,610,6.80573,-46.4049,-0.000893971,0.0176827,-0.00873313,0.0211435,-0.00435479,-1.1935,0.0157492,0.0216443,1007,414,6.80573,46.4049
-210,610,6.75037,-47.2745,-0.000841081,0.0158062,-0.00805428,0.0190651,-0.00409995,-1.18632,0.0142743,0.015351,1014,414,6.75034,47.2745
-203,610,6.73499,-48.0381,-0.00081374,0.0138407,-0.00734993,0.0168918,-0.00386484,-1.17732,0.0127463,0.0173954,1021,414,6.73494,48.0381
-196,610,6.67175,-48.7234,-0.000767723,0.0119421,-0.00667578,0.0148041,-0.00362969,-1.16579,0.0112757,0.0158105,1028,414,6.67174,48.7234
-189,610,6.61584,-49.3965,-0.000652145,0.0105958,-0.00628466,0.0134054,-0.0034618,-1.15039,0.0102869,0.0132269,1035,414,6.61586,49.3965
-182,610,6.56921,-50.0869,-0.000590928,0.00910185,-0.00577265,0.0117928,-0.00328184,-1.13459,0.00915404,0.0147664,1042,414,6.56917,50.0869
-175,610,6.5238,-50.7575,-0.000590601,0.00777739,-0.00510561,0.0101944,-0.00300759,-1.12865,0.00798976,0.0154305,1049,414,6.52379,50.7575
-168,610,6.45544,-51.4398,-0.000612752,0.00641129,-0.00437733,0.00851134,-0.0027128,-1.12348,0.00676237,0.0133843,1056,414,6.45551,51.4398
-161,610,6.39807,-52.148,-0.00057163,0.00526138,-0.00362711,0.00699912,-0.00230936,-1.12401,0.00559699,0.0118355,1063,414,6.39804,52.148
-154,610,6.35083,-52.7796,-0.000538901,0.00415131,-0.00282983,0.00548145,-0.00186904,-1.1314,0.00441134,0.015043,1070,414,6.35081,52.7796
-147,610,6.33276,-53.3579,-0.000400807,0.0032674,-0.00212011,0.00423665,-0.00137006,-1.142,0.00337512,0.0175862,1077,414,6.33275,53.3579
-140,610,6.32251,-54.002,-0.000134287,0.00237628,-0.00145644,0.00304374,-0.000801746,-1.14108,0.0023426,0.0136431,1084,414,6.32247,54.002
-133,610,6.29968,-54.5742,0.000166912,0.00162291,-0.000849968,0.00201403,-0.000224209,-1.13953,0.00142332,0.0143436,1091,414,6.29964,54.5742
-126,610,6.27197,-55.1089,0.000509317,0.000987775,-0.000320749,0.00114868,0.000348407,-1.10582,0.000680083,0.0129867,1098,414,6.27203,55.1089
-119,610,6.25024,-55.6781,0.000947429,0.000423952,0.000139918,0.00098248,0.000388901,0.24546,0.000571323,0.0117325,1105,414,6.25029,55.6781
-112,610,6.2478,-56.2363,0.00144974,5.42841e-05,0.000462834,0.00158929,-8.52688e-05,0.292849,0.00108907,0.0204989,1112,414,6.24781,56.2363
-105,610,6.23535,-56.7744,0.00198426,-0.000166436,0.000651622,0.00216629,-0.00034846,0.272396,0.00157326,0.0207961,1119,414,6.23536,56.7744
-98,610,6.24463,-57.2954,0.00258299,-0.000377857,0.00075972,0.00276654,-0.000561413,0.237067,0.00205719,0.0142901,1126,414,6.24466,57.2954
-91,610,6.26111,-57.8026,0.00332766,-0.000425826,0.000732406,0.00346551,-0.000563676,0.186038,0.00251934,0.0154611,1133,414,6.26106,57.8026
-84,610,6.28748,-58.2827,0.00423976,-0.0003848,0.000623729,0.0043224,-0.000467448,0.131738,0.00304939,0.0155896,1140,414,6.28749,58.2827
-77,610,6.29199,-58.7877,0.0051697,-0.000718496,0.000393116,0.00519583,-0.000744626,0.0663709,0.0037369,0.0131574,1147,414,6.29202,58.7877
-70,610,6.33276,-59.2648,0.00601922,-0.00142153,0.000710786,0.00608651,-0.00148882,0.0943886,0.00463436,0.0163667,1154,414,6.33278,59.2648
-63,610,6.36829,-59.6808,0.00692417,-0.00266129,0.00107651,0.00704358,-0.0027807,0.110473,0.00584733,0.0166131,1161,414,6.36834,59.6808
-56,610,6.39648,-60.0677,0.00754863,-0.00398942,0.00141595,0.00771985,-0.00416064,0.120341,0.00696105,0.0146334,1168,414,6.39645,60.0677
-49,610,6.42847,-60.4535,0.00806978,-0.00514142,0.00166079,0.00827536,-0.005347,0.123158,0.00792522,0.0141145,1175,414,6.42849,60.4535
-42,610,6.48413,-60.8177,0.0086941,-0.00628042,0.00194027,0.00894142,-0.00652774,0.126783,0.00896729,0.0169531,1182,414,6.48418,60.8177
-35,610,6.53638,-61.1587,0.00926154,-0.00722088,0.00206045,0.00951521,-0.00747455,0.122498,0.0098326,0.0173867,1189,414,6.53638,61.1587
-28,610,6.59998,-61.4851,0.00978382,-0.0092415,0.00204839,0.0100019,-0.00945954,0.106047,0.0112375,0.0140926,1196,414,6.59996,61.4851
-21,610,6.67139,-61.7466,0.0103114,-0.0114306,0.00178474,0.0104569,-0.0115761,0.0813615,0.0127262,0.0117629,1203,414,6.67136,61.7466
-14,610,6.729,-62.0149,0.0108334,-0.0130152,0.0013732,0.0109122,-0.013094,0.0573275,0.013879,0.0141894,1210,414,6.72903,62.0149
-7,610,6.81042,-62.2479,0.011064,-0.0156491,0.000761263,0.0110857,-0.0156708,0.0284669,0.0155233,0.0170842,1217,414,6.81048,62.2479
0,610,6.8822,-62.4969,0.0102247,-0.0188833,0.000196926,0.010226,-0.0188846,0.00676497,0.017053,0.0139012,1224,414,6.88222,62.4969
7,610,6.96338,-62.7725,0.00991106,-0.0214066,-0.000325772,0.00991445,-0.02141,-0.0104007,0.0184867,0.0168138,1231,414,6.96339,62.7725
14,610,7.15552,-62.8893,0.00947353,-0.0237961,-0.000800452,0.00949277,-0.0238153,-0.024041,0.0198142,0.0237774,1238,414,7.15555,62.8892
21,610,7.22778,-63.0055,0.00902146,-0.0260344,-0.00122528,0.00906423,-0.0260771,-0.0348956,0.0210665,0.0237683,1245,414,7.22776,63.0054
28,610,7.2135,-63.1948,0.00857157,-0.0279741,-0.00147704,0.00863117,-0.0280337,-0.0403287,0.0221344,0.0208453,1252,414,7.21353,63.1948
35,610,7.39111,-63.3255,0.00807052,-0.0292544,-0.00170427,0.00814818,-0.0293321,-0.0455342,0.0227622,0.0228678,1259,414,7.39114,63.3255
42,610,7.4104,-63.3465,0.00772414,-0.0294207,-0.00176418,0.00780774,-0.0295043,-0.0473526,0.0227237,0.0214341,1266,414,7.41036,63.3465
49,610,7.45605,-63.4817,0.00774557,-0.0286694,-0.00172657,0.00782725,-0.0287511,-0.0472723,0.0222404,0.0226027,1273,414,7.45611,63.4817
56,610,7.56458,-63.5122,0.00806371,-0.0273586,-0.00166499,0.0081418,-0.0274367,-0.0468663,0.0215246,0.0220721,1280,414,7.56459,63.5122
63,610,7.67432,-63.5706,0.00871167,-0.0255461,-0.00188899,0.00881551,-0.0256499,-0.0549185,0.0206747,0.0288639,1287,414,7.67431,63.5707
70,610,7.83972,-63.5378,0.00960844,-0.0233208,-0.00235888,0.00977656,-0.023489,-0.0711506,0.0197423,0.0409016,1294,414,7.83973,63.5378
77,610,8.00061,-63.3083,0.0105737,-0.0202209,-0.00272578,0.0108131,-0.0204603,-0.087607,0.0183399,0.0490547,1301,414,8.00056,63.3083
84,610,8.14673,-63.3047,0.0118151,-0.0180117,-0.00295394,0.0121048,-0.0183015,-0.0977709,0.0176762,0.043432,1308,414,8.14675,63.3047
91,610,8.13586,-63.4172,0.0126105,-0.0173268,-0.00355541,0.0130269,-0.0177432,-0.116601,0.0178346,0.0324423,1315,414,8.13589,63.4172
98,610,8.29395,-63.336,0.0131774,-0.0159958,-0.0040771,0.0137365,-0.0165548,-0.136277,0.0175139,0.0283254,1322,414,8.29401,63.336
105,610,8.39441,-63.1463,0.0145794,-0.0146811,-0.00455038,0.0152707,-0.0153724,-0.150771,0.0176918,0.0222711,1329,414,8.39443,63.1463
112,610,8.46716,-62.9666,0.0143818,-0.0152784,-0.00490958,0.0151734,-0.0160699,-0.159849,0.0180408,0.0143678,1336,414,8.46713,62.9666
119,610,8.5575,-62.7821,0.014016,-0.0156775,-0.00508545,0.0148628,-0.0165243,-0.165002,0.0181298,0.0199191,1343,414,8.55745,62.7821
126,610,8.66113,-62.5651,0.0135722,-0.0157766,-0.0052756,0.0144917,-0.0166961,-0.172561,0.0180213,0.0279057,1350,414,8.66119,62.5651
133,610,8.74463,-62.3591,0.0130102,-0.0153538,-0.00534025,0.0139823,-0.0163259,-0.180065,0.0175159,0.0220253,1357,414,8.74466,62.3591
140,610,8.8269,-62.114,0.0123859,-0.0147943,-0.0051785,0.0133391,-0.0157475,-0.182032,0.0168123,0.0197908,1364,414,8.82693,62.114
147,610,8.83716,-61.756,0.0116868,-0.0142281,-0.00502611,0.0126275,-0.0151688,-0.185013,0.0160705,0.0217366,1371,414,8.83716,61.756
154,610,8.88269,-61.4221,0.010921,-0.0132848,-0.00492231,0.0118836,-0.0142474,-0.193137,0.0151074,0.025674,1378,414,8.88273,61.4221
161,610,8.96912,-61.1316,0.0101587,-0.0118119,-0.00478435,0.0111553,-0.0128085,-0.205376,0.0138465,0.0278902,1385,414,8.96909,61.1316
168,610,9.04724,-60.793,0.00933477,-0.0100219,-0.0044555,0.0103111,-0.0109982,-0.215717,0.0123051,0.0261449,1392,414,9.04725,60.793
175,610,9.10547,-60.4241,0.00845693,-0.00834451,-0.00408291,0.00939657,-0.00928415,-0.2262,0.0107854,0.0217321,1399,414,9.10546,60.4241
182,610,9.1709,-60.0251,0.00754809,-0.00675895,-0.0037937,0.00849179,-0.00770265,-0.243807,0.00935356,0.0160152,1406,414,9.17095,60.0251
189,610,9.20496,-59.6105,0.00656719,-0.00502687,-0.00348442,0.00753379,-0.00599348,-0.270603,0.00782683,0.0145628,1413,414,9.20492,59.6105
196,610,9.22156,-59.1645,0.00595796,-0.00328264,-0.00290951,0.00679773,-0.00412241,-0.280994,0.00636751,0.0151468,1420,414,9.22161,59.1645
203,610,9.21899,-58.7129,0.00538456,-0.0019523,-0.00231464,0.00605375,-0.00262149,-0.281438,0.00513766,0.0151994,1427,414,9.21899,58.7129
210,610,9.23364,-58.2601,0.00448741,-0.000811464,-0.00170659,0.00498947,-0.00131353,-0.286119,0.00383979,0.0110459,1434,414,9.23364,58.2601
217,610,9.30725,-57.7418,0.00368427,2.78458e-05,-0.00104661,0.00396265,-0.00025054,-0.259969,0.00272912,0.0171379,1441,414,9.30725,57.7418
224,610,9.33752,-57.2301,0.00309436,0.000778891,-0.000452404,0.00317961,0.000693638,-0.186261,0.00193052,0.0199653,1448,414,9.33747,57.2301
231,610,9.31494,-56.6982,0.00258028,0.00143447,0.000217791,0.00262028,0.00139447,0.18164,0.00151386,0.0153087,1455,414,9.315,56.6981
238,610,9.29993,-56.1505,0.00220323,0.0020874,0.000748963,0.00289651,0.00139412,0.746813,0.00167269,0.0116273,1462,414,9.2999,56.1505
245,610,9.32458,-55.5754,0.00187031,0.00253789,0.00112222,0.00337491,0.00103329,0.929949,0.00199671,0.0122954,1469,414,9.32455,55.5754
252,610,9.302,-54.9845,0.00147254,0.00299692,0.00145598,0.00387814,0.000591319,1.02653,0.0024126,0.0133593,1476,414,9.30205,54.9845
259,610,9.28735,-54.3615,0.00098326,0.00346196,0.00183641,0.0044381,7.11996e-06,1.08223,0.00295636,0.0120305,1483,414,9.28732,54.3615
266,610,9.24121,-53.7325,0.000494307,0.00388984,0.00218665,0.00496045,-0.000576296,1.1155,0.00351485,0.0126185,1490,414,9.24117,53.7325
273,610,9.22693,-53.1177,8.09728e-05,0.00452107,0.00258982,0.00571214,-0.0011101,1.13973,0.004227,0.0108978,1497,414,9.22688,53.1177
280,610,9.19116,-52.4666,-0.000245229,0.0052137,0.0030235,0.0065575,-0.00158904,1.15256,0.00498647,0.0104725,1504,414,9.19122,52.4665
287,610,9.13892,-51.8046,-0.000470822,0.00612093,0.00356462,0.00767988,-0.00202977,1.15852,0.00591379,0.0127489,1511,414,9.13896,51.8046
294,610,9.11572,-51.1482,-0.000744618,0.00701191,0.00408223,0.00876441,-0.00249712,1.16529,0.00682923,0.0111804,1518,414,9.11574,51.1482
301,610,9.09473,-50.4919,-0.000949439,0.00794109,0.00464435,0.00992469,-0.00293304,1.16715,0.00778066,0.0106255,1525,414,9.09474,50.4918
308,610,9.03638,-49.8008,-0.000865882,0.00928084,0.0052948,0.0115405,-0.00312559,1.16742,0.00892,0.012711,1532,414,9.03637,49.8008
315,610,8.9574,-49.1373,-0.00043454,0.0107952,0.00611298,0.0134807,-0.00311998,1.15687,0.0101876,0.0137103,1539,414,8.95738,49.1373
322,610,8.89563,-48.3986,-0.000140015,0.0122459,0.00690135,0.0153255,-0.00321967,1.15107,0.0114422,0.0130537,1546,414,8.89562,48.3985
329,610,8.83826,-47.6456,0.000322789,0.0136485,0.00773924,0.0171978,-0.00322658,1.1408,0.0126784,0.0125693,1553,414,8.83821,47.6456
336,610,8.80347,-46.9297,0.00108918,0.0153595,0.00873015,0.0194994,-0.00305067,1.128,0.0141267,0.0144483,1560,414,8.8035,46.9297
343,610,8.73596,-46.1831,0.00224699,0.0172793,0.00999879,0.0222719,-0.00274559,1.10769,0.0158426,0.022758,1567,414,8.73598,46.1831
350,610,8.63293,-45.3563,0.00350589,0.0194203,0.011338,0.0253147,-0.0023885,1.09137,0.0177264,0.0319341,1574,414,8.63289,45.3563
357,610,8.62195,-44.3202,0.00490653,0.0212272,0.0127059,0.0281676,-0.00203382,1.07085,0.0194917,0.039049,1581,414,8.62196,44.3202
364,610,8.88611,-43.5132,0.00639115,0.0237176,0.0142668,0.0317455,-0.00163677,1.05826,0.0217298,0.0452121,1588,414,8.88612,43.5132
371,610,8.89893,-42.4044,0,0,0,0,0,0,0,-1,1595,414,8.89894,42.4044
378,610,8.64465,-42.1627,0,0,0,0,0,0,0,-1,1602,414,8.64462,42.1626
385,610,2.57104,-10.3878,0,0,0,0,0,0,0,-1,1609,414,2.57109,10.3878
392,610,1.99744,-1.83582,0,0,0,0,0,0,0,-1,1616,414,1.99741,1.8358
399,610,2.77136,-2.60333,0,0,0,0,0,0,0,-1,1623,414,2.77133,2.60332
406,610,3.54529,-3.37085,0,0,0,0,0,0,0,-1,1630,414,3.54525,3.37084
413,610,3.01929,-3.20306,0,0,0,0,0,0,0,-1,1637,414,3.01929,3.20306
420,610,4.78149,-3.64041,0,0,0,0,0,0,0,-1,1644,414,4.78152,3.64042
427,610,8.85168,-23.3853,0,0,0,0,0,0,0,-1,1651,414,8.85174,23.3853
434,610,8.73706,-22.6227,0,0,0,0,0,0,0,-1,1658,414,8.73703,22.6227
441,610,0,0,0,0,0,0,0,0,0,-1,1665,414,0,0
448,610,0,0,0,0,0,0,0,0,0,-1,1672,414,0,0
455,610,0,0,0,0,0,0,0,0,0,-1,1679,414,0,0
462,610,0,0,0,0,0,0,0,0,0,-1,1686,414,0,0
469,610,0,0,0,0,0,0,0,0,0,-1,1693,414,0,0
476,610,0,0,0,0,0,0,0,0,0,-1,1700,414,0,0
483,610,0,0,0,0,0,0,0,0,0,-1,1707,414,0,0
490,610,0,0,0,0,0,0,0,0,0,-1,1714,414,0,0
497,610,0,0,0,0,0,0,0,0,0,-1,1721,414,0,0
504,610,0,0,0,0,0,0,0,0,0,-1,1728,414,0,0
511,610,0,0,0,0,0,0,0,0,0,-1,1735,414,0,0
518,610,0,0,0,0,0,0,0,0,0,-1,1742,414,0,0
525,610,0,0,0,0,0,0,0,0,0,-1,1749,414,0,0
532,610,0,0,0,0,0,0,0,0,0,-1,1756,414,0,0
539,610,0,0,0,0,0,0,0,0,0,-1,1763,414,0,0
546,610,0,0,0,0,0,0,0,0,0,-1,1770,414,0,0
553,610,0,0,0,0,0,0,0,0,0,-1,1777,414,0,0
560,610,0,0,0,0,0,0,0,0,0,-1,1784,414,0,0
567,610,0,0,0,0,0,0,0,0,0,-1,1791,414,0,0
574,610,0,0,0,0,0,0,0,0,0,-1,1798,414,0,0
581,610,0,0,0,0,0,0,0,0,0,-1,1805,414,0,0
588,610,0,0,0,0,0,0,0,0,0,-1,1812,414,0,0
595,610,0,0,0,0,0,0,0,0,0,-1,1819,414,0,0
602,610,0,0,0,0,0,0,0,0,0,-1,1826,414,0,0
609,610,0,0,0,0,0,0,0,0,0,-1,1833,414,0,0
616,610,0,0,0,0,0,0,0,0,0,-1,1840,414,0,0
623,610,0,0,0,0,0,0,0,0,0,-1,1847,414,0,0
630,610,0,0,0,0,0,0,0,0,0,-1,1854,414,0,0
637,610,0,0,0,0,0,0,0,0,0,-1,1861,414,0,0
644,610,0,0,0,0,0,0,0,0,0,-1,1868,414,0,0
651,610,0,0,0,0,0,0,0,0,0,-1,1875,414,0,0
658,610,0,0,0,0,0,0,0,0,0,-1,1882,414,0,0
665,610,0,0,0,0,0,0,0,0,0,-1,1889,414,0,0
672,610,0,0,0,0,0,0,0,0,0,-1,1896,414,0,0
679,610,0,0,0,0,0,0,0,0,0,-1,1903,414,0,0
686,610,0,0,0,0,0,0,0,0,0,-1,1910,414,0,0
693,610,0,0,0,0,0,0,0,0,0,-1,1917,414,0,0
700,610,0,0,0,0,0,0,0,0,0,-1,1924,414,0,0
707,610,0,0,0,0,0,0,0,0,0,-1,1931,414,0,0
714,610,0,0,0,0,0,0,0,0,0,-1,1938,414,0,0
721,610,0,0,0,0,0,0,0,0,0,-1,1945,414,0,0
728,610,0,0,0,0,0,0,0,0,0,-1,1952,414,0,0
735,610,0,0,0,0,0,0,0,0,0,-1,1959,414,0,0
742,610,0,0,0,0,0,0,0,0,0,-1,1966,414,0,0
749,610,0,0,0,0,0,0,0,0,0,-1,1973,414,0,0
756,610,0,0,0,0,0,0,0,0,0,-1,1980,414,0,0
763,610,0,0,0,0,0,0,0,0,0,-1,1987,414,0,0
770,610,0,0,0,0,0,0,0,0,0,-1,1994,414,0,0
777,610,0,0,0,0,0,0,0,0,0,-1,2001,414,0,0
784,610,0,0,0,0,0,0,0,0,0,-1,2008,414,0,0
791,610,0,0,0,0,0,0,0,0,0,-1,2015,414,0,0
798,610,0,0,0,0,0,0,0,0,0,-1,2022,414,0,0
805,610,0,0,0,0,0,0,0,0,0,-1,2029,414,0,0
812,610,0,0,0,0,0,0,0,0,0,-1,2036,414,0,0
-700,603,0,0,0,0,0,0,0,0,0,-1,524,421,0,0
-693,603,0,0,0,0,0,0,0,0,0,-1,531,421,0,0
-686,603,0,0,0,0,0,0,0,0,0,-1,538,421,0,0
-679,603,0,0,0,0,0,0,0,0,0,-1,545,421,0,0
-672,603,0,0,0,0,0,0,0,0,0,-1,552,421,0,0
-665,603,0,0,0,0,0,0,0,0,0,-1,559,421,0,0
-658,603,0,0,0,0,0,0,0,0,0,-1,566,421,0,0
-651,603,0,0,0,0,0,0,0,0,0,-1,573,421,0,0
-644,603,0,0,0,0,0,0,0,0,0,-1,580,421,0,0
-637,603,0,0,0,0,0,0,0,0,0,-1,587,421,0,0
-630,603,0,0,0,0,0,0,0,0,0,-1,594,421,0,0
-623,603,0,0,0,0,0,0,0,0,0,-1,601,421,0,0
-616,603,0,0,0,0,0,0,0,0,0,-1,608,421,0,0
-609,603,0,0,0,0,0,0,0,0,0,-1,615,421,0,0
-602,603,0,0,0,0,0,0,0,0,0,-1,622,421,0,0
-595,603,0,0,0,0,0,0,0,0,0,-1,629,421,0,0
-588,603,0,0,0,0,0,0,0,0,0,-1,636,421,0,0
-581,603,0,0,0,0,0,0,0,0,0,-1,643,421,0,0
-574,603,0,0,0,0,0,0,0,0,0,-1,650,421,0,0
-567,603,0,0,0,0,0,0,0,0,0,-1,657,421,0,0
-560,603,0,0,0,0,0,0,0,0,0,-1,664,421,0,0
-553,603,0,0,0,0,0,0,0,0,0,-1,671,421,0,0
-546,603,0,0,0,0,0,0,0,0,0,-1,678,421,0,0
-539,603,0,0,0,0,0,0,0,0,0,-1,685,421,0,0
-532,603,0,0,0,0,0,0,0,0,0,-1,692,421,0,0
-525,603,0,0,0,0,0,0,0,0,0,-1,699,421,0,0
-518,603,0,0,0,0,0,0,0,0,0,-1,706,421,0,0
-511,603,0,0,0,0,0,0,0,0,0,-1,713,421,0,0
-504,603,0,0,0,0,0,0,0,0,0,-1,720,421,0,0
-497,603,0,0,0,0,0,0,0,0,0,-1,727,421,0,0
-490,603,0,0,0,0,0,0,0,0,0,-1,734,421,0,0
-483,603,0,0,0,0,0,0,0,0,0,-1,741,421,0,0
-476,603,0,0,0,0,0,0,0,0,0,-1,748,421,0,0
-469,603,0,0,0,0,0,0,0,0,0,-1,755,421,0,0
-462,603,0,0,0,0,0,0,0,0,0,-1,762,421,0,0
-455,603,0,0,0,0,0,0,0,0,0,-1,769,421,0,0
-448,603,0,0,0,0,0,0,0,0,0,-1,776,421,0,0
-441,603,0,0,0,0,0,0,0,0,0,-1,783,421,0,0
-434,603,0,0,0,0,0,0,0,0,0,-1,790,421,0,0
-427,603,0,0,0,0,0,0,0,0,0,-1,797,421,0,0
-420,603,0,0,0,0,0,0,0,0,0,-1,804,421,0,0
-413,603,0,0,0,0,0,0,0,0,0,-1,811,421,0,0
-406,603,0,0,0,0,0,0,0,0,0,-1,818,421,0,0
-399,603,0,0,0,0,0,0,0,0,0,-1,825,421,0,0
-392,603,0,0,0,0,0,0,0,0,0,-1,832,421,0,0
-385,603,0,0,0,0,0,0,0,0,0,-1,839,421,0,0
-378,603,0,0,0,0,0,0,0,0,0,-1,846,421,0,0
-371,603,0,0,0,0,0,0,0,0,0,-1,853,421,0,0
-364,603,0,0,0,0,0,0,0,0,0,-1,860,421,0,0
-357,603,0,0,0,0,0,0,0,0,0,-1,867,421,0,0
-350,603,0,0,0,0,0,0,0,0,0,-1,874,421,0,0
-343,603,0,0,0,0,0,0,0,0,0,-1,881,421,0,0
-336,603,0,0,0,0,0,0,0,0,0,-1,888,421,0,0
-329,603,4.09686,-17.9702,0,0,0,0,0,0,0,-1,895,421,4.09687,17.9702
-322,603,8.83179,-28.7376,0,0,0,0,0,0,0,-1,902,421,8.83179,28.7376
-315,603,5.99744,-20.4501,0,0,0,0,0,0,0,-1,909,421,5.99745,20.4501
-308,603,5.92249,-20.778,0,0,0,0,0,0,0,-1,916,421,5.92248,20.778
-301,603,2.72424,-20.9059,0,0,0,0,0,0,0,-1,923,421,2.72424,20.9059
-294,603,2.41553,-20.6767,0,0,0,0,0,0,0,-1,930,421,2.41554,20.6767
-287,603,1.91766,-21.2242,0,0,0,0,0,0,0,-1,937,421,1.91767,21.2242
-280,603,2.36121,-27.3314,0,0,0,0,0,0,0,-1,944,421,2.36119,27.3314
-273,603,7.96613,-34.8225,0,0,0,0,0,0,0,-1,951,421,7.96613,34.8225
-266,603,7.18787,-34.9736,0,0,0,0,0,0,0,-1,958,421,7.18788,34.9736
-259,603,5.44666,-36.8901,0,0,0,0,0,0,0,-1,965,421,5.44664,36.8901
-252,603,6.42712,-42.6798,0,0,0,0,0,0,0,-1,972,421,6.42712,42.6798
-245,603,6.44196,-43.3441,-0.00153865,0.0194499,-0.00976157,0.0232881,-0.00537678,-1.19618,0.0175937,0.0426336,979,421,6.44198,43.3441
-238,603,6.32288,-44.1494,-0.00147412,0.0178811,-0.0088104,0.0212909,-0.00488388,-1.20153,0.0160712,0.0256954,986,421,6.32287,44.1494
-231,603,6.23218,-44.9625,-0.00133123,0.016298,-0.00786329,0.0192956,-0.00432884,-1.20659,0.0145234,0.0148387,993,421,6.2322,44.9625
-224,603,6.17847,-45.7427,-0.000929963,0.0150024,-0.00727467,0.0178242,-0.00375178,-1.20077,0.0133108,0.014796,1000,421,6.17848,45.7427
-217,603,6.13513,-46.5002,-0.000668731,0.0133919,-0.0066682,0.0160513,-0.00332811,-1.19131,0.0119655,0.0141154,1007,421,6.13513,46.5002
-210,603,6.0929,-47.2837,-0.000510634,0.0117671,-0.00606578,0.0142584,-0.00300191,-1.18109,0.0106482,0.0118414,1014,421,6.09291,47.2837
-203,603,6.06616,-48.0619,-0.000372137,0.0100796,-0.00544666,0.0124019,-0.0026945,-1.16775,0.0092972,0.0169864,1021,421,6.06612,48.0619
-196,603,6.03564,-48.7857,-0.000249261,0.00839677,-0.00483142,0.0105569,-0.00240938,-1.15036,0.00796349,0.0195493,1028,421,6.0357,48.7857
-189,603,5.99219,-49.3943,-8.27187e-05,0.007033,-0.00438798,0.00912428,-0.002174,-1.12605,0.00692226,0.0173748,1035,421,5.9922,49.3944
-182,603,5.91638,-50.0785,4.4999e-05,0.0055986,-0.00380276,0.00753047,-0.00188687,-1.10075,0.00575335,0.0131057,1042,421,5.91638,50.0785
-175,603,5.85999,-50.7642,0.000118133,0.00429961,-0.00312592,0.00596953,-0.00155179,-1.08015,0.00458533,0.0126699,1049,421,5.86003,50.7642
-168,603,5.81079,-51.4115,0.00013761,0.00302024,-0.00237865,0.00436018,-0.00120233,-1.05779,0.00337962,0.0152899,1056,421,5.81077,51.4115
-161,603,5.78259,-52.0848,0.000196271,0.00193278,-0.00159393,0.00287959,-0.000750546,-1.03479,0.00221275,0.0147533,1063,421,5.78264,52.0848
-154,603,5.75562,-52.7395,0.00026207,0.000938001,-0.000764427,0.00143584,-0.000235769,-0.993537,0.00104472,0.0136714,1070,421,5.75559,52.7395
-147,603,5.73828,-53.343,0.000434064,0.000177146,-1.20036e-05,0.000434623,0.000176586,-0.0465862,0.000252394,0.0160392,1077,421,5.73829,53.343
-140,603,5.75488,-53.9421,0.000705926,-0.000584578,0.000710459,0.00102041,-0.000899067,0.41673,0.00110895,0.0142137,1084,421,5.75485,53.9421
-133,603,5.72888,-54.5234,0.00102048,-0.00118304,0.00134892,0.0016604,-0.00182296,0.442956,0.00201185,0.0137114,1091,421,5.72885,54.5234
-126,603,5.71948,-55.0676,0.00142609,-0.00161783,0.00184905,0.00229899,-0.00249073,0.441062,0.00276608,0.0121128,1098,421,5.71946,55.0676
-119,603,5.7229,-55.6358,0.00198277,-0.00192484,0.00222084,0.00298692,-0.00292899,0.424639,0.00341561,0.0122513,1105,421,5.7229,55.6358
-112,603,5.73352,-56.2186,0.00258547,-0.00206048,0.00243257,0.00362607,-0.00310108,0.40422,0.00388786,0.0177381,1112,421,5.73355,56.2186
-105,603,5.73438,-56.7498,0.00321083,-0.0020614,0.0025034,0.00421011,-0.00306068,0.379792,0.00421524,0.0177115,1119,421,5.73441,56.7498
-98,603,5.71411,-57.2333,0.00395693,-0.00211078,0.00247684,0.00483958,-0.00299343,0.342331,0.00456407,0.0149536,1126,421,5.71411,57.2333
-91,603,5.74084,-57.746,0.00496919,-0.00195193,0.00223904,0.00563037,-0.00261311,0.287138,0.00486449,0.0109452,1133,421,5.74088,57.746
-84,603,5.78784,-58.2702,0.00623187,-0.00157464,0.00182111,0.0066358,-0.00197857,0.218271,0.00521016,0.0119223,1140,421,5.78788,58.2702
-77,603,5.85217,-58.7807,0.00752191,-0.00187734,0.00116498,0.00766415,-0.00201957,0.121494,0.00589901,0.0177201,1147,421,5.85214,58.7807
-70,603,5.90979,-59.2902,0,0,0,0,0,0,0,-1,1154,421,5.90973,59.2902
-63,603,5.82446,-59.5478,0,0,0,0,0,0,0,-1,1161,421,5.8245,59.5478
-56,603,5.9375,-59.9873,0,0,0,0,0,0,0,-1,1168,421,5.93744,59.9873
-49,603,6.05164,-60.4,0,0,0,0,0,0,0,-1,1175,421,6.05162,60.4
-42,603,6.146,-60.7537,0,0,0,0,0,0,0,-1,1182,421,6.14601,60.7537
-35,603,6.09937,-61.0448,0.0124716,-0.00992637,0.0031011,0.012893,-0.0103478,0.13507,0.0134449,0.0457856,1189,421,6.09935,61.0448
-28,603,6.18396,-61.3214,0.0130121,-0.0125355,0.00301949,0.0133641,-0.0128875,0.116061,0.0151572,0.0322871,1196,421,6.18396,61.3214
-21,603,6.28369,-61.6263,0.0135737,-0.0154265,0.00260448,0.0138057,-0.0156585,0.0888615,0.0170224,0.026858,1203,421,6.28369,61.6263
-14,603,6.41138,-61.8839,0.0141344,-0.0175484,0.00196399,0.0142557,-0.0176697,0.0616745,0.0184672,0.0259224,1210,421,6.41143,61.8839
-7,603,6.54297,-62.1292,0.0142182,-0.0211474,0.00103271,0.0142484,-0.0211775,0.029168,0.0205831,0.0313386,1217,421,6.54297,62.1292
0,603,6.573,-62.4555,0.0126218,-0.0256825,0.000180978,0.0126227,-0.0256833,0.00472459,0.0225404,0.0395771,1224,421,6.57306,62.4555
7,603,6.61255,-62.7036,0,0,0,0,0,0,0,-1,1231,421,6.6126,62.7036
14,603,6.95337,-62.4601,0,0,0,0,0,0,0,-1,1238,421,6.95332,62.4601
21,603,7.06421,-62.3452,0.0101074,-0.0360754,-0.00196079,0.0101905,-0.0361585,-0.0423555,0.0281248,0.0457134,1245,421,7.06417,62.3451
28,603,7.20959,-62.5837,0.00917121,-0.038899,-0.00234986,0.00928581,-0.0390136,-0.0487291,0.029594,0.0488653,1252,421,7.20955,62.5837
35,603,7.52856,-63.0961,0,0,0,0,0,0,0,-1,1259,421,7.52853,63.0961
42,603,7.40613,-62.6703,0.00756444,-0.0412048,-0.00273506,0.00771735,-0.0413577,-0.0558483,0.0304717,0.0464394,1266,421,7.40614,62.6703
49,603,7.30371,-62.8791,0.00749136,-0.040261,-0.00262061,0.00763474,-0.0404044,-0.0546603,0.0298089,0.0252272,1273,421,7.30374,62.8791
56,603,7.3905,-63.1913,0,0,0,0,0,0,0,-1,1280,421,7.39054,63.1913
63,603,7.56226,-63.4561,0,0,0,0,0,0,0,-1,1287,421,7.56228,63.4561
70,603,7.77966,-63.3488,0,0,0,0,0,0,0,-1,1294,421,7.77961,63.3488
77,603,8.08569,-62.9896,0,0,0,0,0,0,0,-1,1301,421,8.08563,62.9896
84,603,8.28113,-63.1842,0,0,0,0,0,0,0,-1,1308,421,8.28118,63.1842
91,603,8.2019,-63.4754,0,0,0,0,0,0,0,-1,1315,421,8.20185,63.4754
98,603,8.49878,-63.5135,0,0,0,0,0,0,0,-1,1322,421,8.49879,63.5135
105,603,8.62695,-63.2169,0,0,0,0,0,0,0,-1,1329,421,8.6269,63.2169
112,603,8.83472,-62.6666,0.0185939,-0.0211814,-0.00691827,0.0197628,-0.0223503,-0.167387,0.0243294,0.0456258,1336,421,8.83474,62.6666
119,603,9.00977,-62.544,0.0181367,-0.0218243,-0.00720521,0.0193961,-0.0230837,-0.173049,0.0245566,0.0472055,1343,421,9.00981,62.544
126,603,8.94324,-62.4839,0,0,0,0,0,0,0,-1,1350,421,8.94327,62.4839
133,603,9.02551,-62.026,0.0169065,-0.0215292,-0.00760993,0.0183584,-0.022981,-0.188519,0.023917,0.0480531,1357,421,9.02548,62.026
140,603,9.30579,-61.6484,0.0161145,-0.0208076,-0.0074296,0.0175535,-0.0222465,-0.191307,0.0230317,0.0425882,1364,421,9.30584,61.6484
147,603,9.21729,-61.4233,0.0152371,-0.0200452,-0.00724823,0.0166681,-0.0214762,-0.194921,0.0220808,0.0344418,1371,421,9.21729,61.4233
154,603,9.12061,-61.3047,0.0142665,-0.01877,-0.00713925,0.0157433,-0.0202468,-0.203978,0.0208331,0.0397608,1378,421,9.12061,61.3047
161,603,9.3916,-61.0203,0.0133077,-0.0168411,-0.00699547,0.0148518,-0.0183852,-0.217243,0.0192255,0.0347456,1385,421,9.39159,61.0203
168,603,9.51062,-60.6915,0.0123136,-0.0145049,-0.00658239,0.0138421,-0.0160334,-0.228164,0.0172641,0.0365203,1392,421,9.51064,60.6915
175,603,9.72119,-60.3204,0.0112611,-0.0123688,-0.00611335,0.012749,-0.0138567,-0.238745,0.0153653,0.0415506,1399,421,9.72118,60.3204
182,603,9.79443,-59.9486,0.0101757,-0.0103906,-0.00575528,0.0116767,-0.0118916,-0.255123,0.0136074,0.0478677,1406,421,9.79444,59.9486
189,603,9.75757,-59.5169,0.00896455,-0.00825457,-0.00540563,0.0105209,-0.0098109,-0.280328,0.0117409,0.0399091,1413,421,9.75763,59.517
196,603,9.68335,-59.0467,0.00823489,-0.00613718,-0.00469812,0.0096344,-0.00753669,-0.289516,0.00993836,0.0285114,1420,421,9.68333,59.0467
203,603,9.71497,-58.6337,0.00759663,-0.00457993,-0.00395163,0.00876663,-0.00574992,-0.287856,0.00844124,0.0173069,1427,421,9.71496,58.6337
210,603,9.7511,-58.2938,0.00654178,-0.00318131,-0.00321707,0.00750983,-0.00414936,-0.292291,0.006824,0.013742,1434,421,9.75107,58.2938
217,603,9.78918,-57.7459,0.00556906,-0.00222404,-0.00241038,0.00625433,-0.0029093,-0.27699,0.00540684,0.0146593,1441,421,9.78922,57.7459
224,603,9.84717,-57.2125,0.00485409,-0.00132016,-0.00170076,0.00529159,-0.00175765,-0.251775,0.00423693,0.0179838,1448,421,9.84711,57.2125
231,603,9.8418,-56.676,0.00425193,-0.00055683,-0.000874689,0.00440609,-0.000710989,-0.174453,0.00320082,0.0153425,1455,421,9.84176,56.676
238,603,9.84985,-56.12,0.00388082,0.000280621,-0.000237498,0.00389642,0.000265022,-0.0655893,0.00251393,0.0112795,1462,421,9.84982,56.12
245,603,9.88342,-55.5663,0.00353494,0.000669675,0.000144549,0.00354221,0.000662401,0.0502787,0.00217457,0.0116329,1469,421,9.88348,55.5664
252,603,9.89551,-54.9596,0.00307089,0.00093255,0.000424787,0.00315218,0.000851255,0.189091,0.00188297,0.0106103,1476,421,9.89545,54.9596
259,603,9.86829,-54.3443,0.00250713,0.0012882,0.000768172,0.00287824,0.000917081,0.450048,0.00169781,0.0104664,1483,421,9.86831,54.3443
266,603,9.84363,-53.7356,0.00190205,0.0015354,0.00102165,0.00275669,0.00068076,0.696622,0.00165813,0.0118621,1490,421,9.84361,53.7356
273,603,9.84216,-53.1206,0.0013796,0.00198508,0.0013245,0.003041,0.000323682,0.897754,0.00192851,0.0109964,1497,421,9.84216,53.1206
280,603,9.82922,-52.4846,0.000949795,0.00252845,0.00166617,0.00358281,-0.000104562,1.00661,0.00242414,0.0121753,1504,421,9.8292,52.4846
287,603,9.79126,-51.7896,0.000614064,0.00323989,0.00208136,0.00438783,-0.000533879,1.06678,0.00311845,0.0110351,1511,421,9.79125,51.7896
294,603,9.75012,-51.1322,0.000256361,0.00400459,0.00250418,0.00525829,-0.00099734,1.10663,0.00388093,0.0100382,1518,421,9.75017,51.1322
301,603,9.73633,-50.4663,-2.68038e-05,0.00483673,0.00298186,0.00625269,-0.00144276,1.12746,0.00472341,0.012255,1525,421,9.73627,50.4663
308,603,9.6936,-49.7702,-5.45067e-05,0.00602534,0.00354474,0.00765514,-0.00168431,1.13984,0.00574772,0.0173319,1532,421,9.69357,49.7702
315,603,9.62683,-49.1,0.000192006,0.00735654,0.00425697,0.00933794,-0.0017894,1.13517,0.00689955,0.0159831,1539,421,9.62682,49.1
322,603,9.57117,-48.3885,0.00033442,0.00869212,0.00496259,0.011001,-0.00197442,1.13533,0.008073,0.0152869,1546,421,9.57117,48.3885
329,603,9.52844,-47.6382,0.000628917,0.00996509,0.00572831,0.0126865,-0.00209249,1.12728,0.00923453,0.0113501,1553,421,9.52847,47.6382
336,603,9.49902,-46.9348,0.00116025,0.0114778,0.00662472,0.0147155,-0.00207739,1.11621,0.010571,0.0095933,1560,421,9.49899,46.9348
343,603,9.45569,-46.1953,0.00195186,0.0131192,0.00775109,0.0170884,-0.00201732,1.09753,0.0121208,0.0113448,1567,421,9.45568,46.1953
350,603,9.40161,-45.4217,0.00279255,0.0150164,0.00894884,0.0197413,-0.00193238,1.08501,0.01385,0.0129907,1574,421,9.4016,45.4217
357,603,9.35059,-44.6221,0.00370316,0.0166181,0.0101514,0.0221918,-0.00187057,1.06867,0.0154558,0.0148758,1581,421,9.35054,44.6221
364,603,9.33325,-43.7857,0.00465752,0.0185955,0.0114792,0.0250556,-0.00180254,1.05821,0.0173358,0.0193074,1588,421,9.33329,43.7857
371,603,9.25476,-42.9816,0.00558721,0.0206066,0.0128444,0.0279755,-0.00178173,1.04993,0.0192717,0.0263291,1595,421,9.25472,42.9816
378,603,9.23682,-42.2971,0.00655432,0.0228744,0.0143844,0.0312521,-0.00182344,1.04341,0.0214684,0.0450979,1602,421,9.23686,42.2972
385,603,9.18945,-41.6826,0,0,0,0,0,0,0,-1,1609,421,9.18939,41.6826
392,603,9.54688,-40.689,0,0,0,0,0,0,0,-1,1616,421,9.54689,40.689
399,603,8.81067,-39.5928,0,0,0,0,0,0,0,-1,1623,421,8.81065,39.5928
406,603,8.73022,-39.0013,0,0,0,0,0,0,0,-1,1630,421,8.73025,39.0013
413,603,2.38928,-2.41275,0,0,0,0,0,0,0,-1,1637,421,2.38926,2.41274
420,603,8.22217,-23.7068,0,0,0,0,0,0,0,-1,1644,421,8.22215,23.7068
427,603,8.20386,-23.1278,0,0,0,0,0,0,0,-1,1651,421,8.2039,23.1278
434,603,8.01489,-22.5655,0,0,0,0,0,0,0,-1,1658,421,8.01493,22.5655
441,603,8.00122,-22.3072,0,0,0,0,0,0,0,-1,1665,421,8.00116,22.3071
448,603,1.14355,-4.59842,0,0,0,0,0,0,0,-1,1672,421,1.14355,4.59841
455,603,0,0,0,0,0,0,0,0,0,-1,1679,421,0,0
462,603,0,0,0,0,0,0,0,0,0,-1,1686,421,0,0
469,603,0,0,0,0,0,0,0,0,0,-1,1693,421,0,0
476,603,0,0,0,0,0,0,0,0,0,-1,1700,421,0,0
483,603,0,0,0,0,0,0,0,0,0,-1,1707,421,0,0
490,603,0,0,0,0,0,0,0,0,0,-1,1714,421,0,0
497,603,0,0,0,0,0,0,0,0,0,-1,1721,421,0,0
504,603,0,0,0,0,0,0,0,0,0,-1,1728,421,0,0
511,603,0,0,0,0,0,0,0,0,0,-1,1735,421,0,0
518,603,0,0,0,0,0,0,0,0,0,-1,1742,421,0,0
525,603,0,0,0,0,0,0,0,0,0,-1,1749,421,0,0
532,603,0,0,0,0,0,0,0,0,0,-1,1756,421,0,0
539,603,0,0,0,0,0,0,0,0,0,-1,1763,421,0,0
546,603,0,0,0,0,0,0,0,0,0,-1,1770,421,0,0
553,603,0,0,0,0,0,0,0,0,0,-1,1777,421,0,0
560,603,0,0,0,0,0,0,0,0,0,-1,1784,421,0,0
567,603,0,0,0,0,0,0,0,0,0,-1,1791,421,0,0
574,603,0,0,0,0,0,0,0,0,0,-1,1798,421,0,0
581,603,0,0,0,0,0,0,0,0,0,-1,1805,421,0,0
588,603,0,0,0,0,0,0,0,0,0,-1,1812,421,0,0
595,603,0,0,0,0,0,0,0,0,0,-1,1819,421,0,0
602,603,0,0,0,0,0,0,0,0,0,-1,1826,421,0,0
609,603,0,0,0,0,0,0,0,0,0,-1,1833,421,0,0
616,603,0,0,0,0,0,0,0,0,0,-1,1840,421,0,0
623,603,0,0,0,0,0,0,0,0,0,-1,1847,421,0,0
630,603,0,0,0,0,0,0,0,0,0,-1,1854,421,0,0
637,603,0,0,0,0,0,0,0,0,0,-1,1861,421,0,0
644,603,0,0,0,0,0,0,0,0,0,-1,1868,421,0,0
651,603,0,0,0,0,0,0,0,0,0,-1,1875,421,0,0
658,603,0,0,0,0,0,0,0,0,0,-1,1882,421,0,0
665,603,0,0,0,0,0,0,0,0,0,-1,1889,421,0,0
672,603,0,0,0,0,0,0,0,0,0,-1,1896,421,0,0
679,603,0,0,0,0,0,0,0,0,0,-1,1903,421,0,0
686,603,0,0,0,0,0,0,0,0,0,-1,1910,421,0,0
693,603,0,0,0,0,0,0,0,0,0,-1,1917,421,0,0
700,603,0,0,0,0,0,0,0,0,0,-1,1924,421,0,0
707,603,0,0,0,0,0,0,0,0,0,-1,1931,421,0,0
714,603,0,0,0,0,0,0,0,0,0,-1,1938,421,0,0
721,603,0,0,0,0,0,0,0,0,0,-1,1945,421,0,0
728,603,0,0,0,0,0,0,0,0,0,-1,1952,421,0,0
735,603,0,0,0,0,0,0,0,0,0,-1,1959,421,0,0
742,603,0,0,0,0,0,0,0,0,0,-1,1966,421,0,0
749,603,0,0,0,0,0,0,0,0,0,-1,1973,421,0,0
756,603,0,0,0,0,0,0,0,0,0,-1,1980,421,0,0
763,603,0,0,0,0,0,0,0,0,0,-1,1987,421,0,0
770,603,0,0,0,0,0,0,0,0,0,-1,1994,421,0,0
777,603,0,0,0,0,0,0,0,0,0,-1,2001,421,0,0
784,603,0,0,0,0,0,0,0,0,0,-1,2008,421,0,0
791,603,0,0,0,0,0,0,0,0,0,-1,2015,421,0,0
798,603,0,0,0,0,0,0,0,0,0,-1,2022,421,0,0
805,603,0,0,0,0,0,0,0,0,0,-1,2029,421,0,0
812,603,0,0,0,0,0,0,0,0,0,-1,2036,421,0,0
-700,596,0,0,0,0,0,0,0,0,0,-1,524,428,0,0
-693,596,0,0,0,0,0,0,0,0,0,-1,531,428,0,0
-686,596,0,0,0,0,0,0,0,0,0,-1,538,428,0,0
-679,596,0,0,0,0,0,0,0,0,0,-1,545,428,0,0
-672,596,0,0,0,0,0,0,0,0,0,-1,552,428,0,0
-665,596,0,0,0,0,0,0,0,0,0,-1,559,428,0,0
-658,596,0,0,0,0,0,0,0,0,0,-1,566,428,0,0
-651,596,0,0,0,0,0,0,0,0,0,-1,573,428,0,0
-644,596,0,0,0,0,0,0,0,0,0,-1,580,428,0,0
-637,596,0,0,0,0,0,0,0,0,0,-1,587,428,0,0
-630,596,0,0,0,0,0,0,0,0,0,-1,594,428,0,0
-623,596,0,0,0,0,0,0,0,0,0,-1,601,428,0,0
-616,596,0,0,0,0,0,0,0,0,0,-1,608,428,0,0
-609,596,0,0,0,0,0,0,0,0,0,-1,615,428,0,0
-602,596,0,0,0,0,0,0,0,0,0,-1,622,428,0,0
-595,596,0,0,0,0,0,0,0,0,0,-1,629,428,0,0
-588,596,0,0,0,0,0,0,0,0,0,-1,636,428,0,0
-581,596,0,0,0,0,0,0,0,0,0,-1,643,428,0,0
-574,596,0,0,0,0,0,0,0,0,0,-1,650,428,0,0
-567,596,0,0,0,0,0,0,0,0,0,-1,657,428,0,0
-560,596,0,0,0,0,0,0,0,0,0,-1,664,428,0,0
-553,596,0,0,0,0,0,0,0,0,0,-1,671,428,0,0
-546,596,0,0,0,0,0,0,0,0,0,-1,678,428,0,0
-539,596,0,0,0,0,0,0,0,0,0,-1,685,428,0,0
-532,596,0,0,0,0,0,0,0,0,0,-1,692,428,0,0
-525,596,0,0,0,0,0,0,0,0,0,-1,699,428,0,0
-518,596,0,0,0,0,0,0,0,0,0,-1,706,428,0,0
-511,596,0,0,0,0,0,0,0,0,0,-1,713,428,0,0
-504,596,0,0,0,0,0,0,0,0,0,-1,720,428,0,0
-497,596,0,0,0,0,0,0,0,0,0,-1,727,428,0,0
-490,596,0,0,0,0,0,0,0,0,0,-1,734,428,0,0
-483,596,0,0,0,0,0,0,0,0,0,-1,741,428,0,0
-476,596,0,0,0,0,0,0,0,0,0,-1,748,428,0,0
-469,596,0,0,0,0,0,0,0,0,0,-1,755,428,0,0
-462,596,0,0,0,0,0,0,0,0,0,-1,762,428,0,0
-455,596,0,0,0,0,0,0,0,0,0,-1,769,428,0,0
-448,596,0,0,0,0,0,0,0,0,0,-1,776,428,0,0
-441,596,0,0,0,0,0,0,0,0,0,-1,783,428,0,0
-434,596,0,0,0,0,0,0,0,0,0,-1,790,428,0,0
-427,596,0,0,0,0,0,0,0,0,0,-1,797,428,0,0
-420,596,0,0,0,0,0,0,0,0,0,-1,804,428,0,0
-413,596,0,0,0,0,0,0,0,0,0,-1,811,428,0,0
-406,596,0,0,0,0,0,0,0,0,0,-1,818,428,0,0
-399,596,0,0,0,0,0,0,0,0,0,-1,825,428,0,0
-392,596,0,0,0,0,0,0,0,0,0,-1,832,428,0,0
-385,596,0,0,0,0,0,0,0,0,0,-1,839,428,0,0
-378,596,0,0,0,0,0,0,0,0,0,-1,846,428,0,0
-371,596,0,0,0,0,0,0,0,0,0,-1,853,428,0,0
-364,596,0,0,0,0,0,0,0,0,0,-1,860,428,0,0
-357,596,0,0,0,0,0,0,0,0,0,-1,867,428,0,0
-350,596,0,0,0,0,0,0,0,0,0,-1,874,428,0,0
-343,596,0,0,0,0,0,0,0,0,0,-1,881,428,0,0
-336,596,6.81445,-30.5258,0,0,0,0,0,0,0,-1,888,428,6.81446,30.5258
-329,596,6.84772,-28.9253,0,0,0,0,0,0,0,-1,895,428,6.84773,28.9253
-322,596,6.97449,-27.9047,0,0,0,0,0,0,0,-1,902,428,6.97451,27.9047
-315,596,7.10132,-26.8841,0,0,0,0,0,0,0,-1,909,428,7.10129,26.8841
-308,596,0.254761,-20.841,0,0,0,0,0,0,0,-1,916,428,0.254731,20.841
-301,596,3.43213,-26.756,0,0,0,0,0,0,0,-1,923,428,3.43214,26.756
-294,596,4.1767,-27.6454,0,0,0,0,0,0,0,-1,930,428,4.17667,27.6454
-287,596,4.36041,-27.6119,0,0,0,0,0,0,0,-1,937,428,4.3604,27.6119
-280,596,5.95911,-39.6006,0,0,0,0,0,0,0,-1,944,428,5.95913,39.6006
-273,596,5.67279,-40.2213,0,0,0,0,0,0,0,-1,951,428,5.67281,40.2214
-266,596,5.59967,-40.9874,0,0,0,0,0,0,0,-1,958,428,5.59964,40.9874
-259,596,5.67621,-41.709,0,0,0,0,0,0,0,-1,965,428,5.67618,41.709
-252,596,5.62305,-42.6187,-0.00140498,0.0160293,-0.00869635,0.0196254,-0.00500105,-1.17869,0.0150305,0.0246947,972,428,5.62303,42.6186
-245,596,5.63019,-43.4884,-0.00125138,0.0148575,-0.0078768,0.0180688,-0.00446273,-1.18367,0.0137765,0.0153875,979,428,5.63017,43.4884
-238,596,5.59534,-44.2759,-0.00107847,0.0134896,-0.0070559,0.0163467,-0.00393559,-1.18605,0.0124193,0.0124318,986,428,5.59535,44.2759
-231,596,5.50244,-45.0407,-0.000869565,0.0120734,-0.0062016,0.0145651,-0.00336134,-1.18874,0.011003,0.0133392,993,428,5.50244,45.0407
-224,596,5.44379,-45.7816,-0.000486816,0.0108432,-0.00560056,0.0131443,-0.0027879,-1.18096,0.0098249,0.0140408,1000,428,5.44378,45.7816
-217,596,5.40222,-46.5265,-0.000180188,0.00933813,-0.00498674,0.0114722,-0.0023143,-1.16642,0.00852495,0.0151222,1007,428,5.40221,46.5265
-210,596,5.41254,-47.2838,5.89211e-05,0.00780283,-0.00439454,0.00978784,-0.00192608,-1.14653,0.00725301,0.0134181,1014,428,5.41256,47.2838
-203,596,5.38428,-48.0281,0.000277838,0.00625433,-0.00379646,0.00809752,-0.00156534,-1.11882,0.00598871,0.0162127,1021,428,5.38425,48.0281
-196,596,5.34521,-48.7032,0.000443702,0.00469969,-0.00318356,0.00640098,-0.00125759,-1.08001,0.00474243,0.0167269,1028,428,5.34523,48.7032
-189,596,5.28943,-49.355,0.000614718,0.00333978,-0.00265045,0.00495742,-0.00100292,-1.02282,0.00368503,0.0141746,1035,428,5.28938,49.355
-182,596,5.24817,-50.0396,0.000754513,0.00197444,-0.00194236,0.00340036,-0.00067141,-0.937538,0.0025207,0.0128982,1042,428,5.24817,50.0396
-175,596,5.2113,-50.7331,0.000852421,0.000729342,-0.00121026,0.0020027,-0.000420941,-0.759996,0.00149533,0.0153553,1049,428,5.21135,50.7331
-168,596,5.17798,-51.3991,0.000868335,-0.000430743,-0.000401077,0.000982185,-0.000544593,-0.276587,0.000893473,0.0184102,1056,428,5.17798,51.3991
-161,596,5.17676,-52.0404,0.00089789,-0.00141703,0.000462513,0.000986878,-0.00150602,0.190078,0.00144964,0.0164621,1063,428,5.17677,52.0404
-154,596,5.14514,-52.6939,0.000945751,-0.00226623,0.00136987,0.00145062,-0.0027711,0.353109,0.00247684,0.0128785,1070,428,5.14517,52.6939
-147,596,5.15894,-53.2891,0.00109956,-0.00287146,0.00221786,0.00209082,-0.00386272,0.420309,0.00348765,0.0136991,1077,428,5.15891,53.2891
-140,596,5.18225,-53.8891,0.00133575,-0.00350372,0.00305986,0.00281702,-0.00498499,0.450845,0.00456209,0.0168828,1084,428,5.18226,53.8891
-133,596,5.18164,-54.5055,0.00162415,-0.00395086,0.00378879,0.00354037,-0.00586709,0.468247,0.00548649,0.0168562,1091,428,5.18166,54.5055
-126,596,5.16711,-55.0738,0.00206114,-0.00419658,0.00431357,0.00426113,-0.00639657,0.471628,0.00619426,0.0123036,1098,428,5.16711,55.0737
-119,596,5.17554,-55.6587,0.00271632,-0.00426226,0.00463612,0.0050295,-0.00657545,0.462807,0.00671991,0.0148563,1105,428,5.17555,55.6586
-112,596,5.16016,-56.2082,0.00340526,-0.00417682,0.00476159,0.00570066,-0.00647222,0.449197,0.00703272,0.0164421,1112,428,5.16015,56.2082
-105,596,5.17346,-56.7689,0.00411135,-0.00396808,0.00472856,0.00629084,-0.00614757,0.431899,0.00718148,0.0235936,1119,428,5.17352,56.7689
-98,596,5.2301,-57.3068,0.00499411,-0.00389194,0.00458637,0.00693664,-0.00583447,0.400636,0.00738255,0.0349055,1126,428,5.23013,57.3068
-91,596,5.17236,-57.9571,0,0,0,0,0,0,0,-1,1133,428,5.17238,57.9571
-84,596,5.28687,-58.257,0,0,0,0,0,0,0,-1,1140,428,5.28685,58.257
-77,596,5.39465,-58.797,0,0,0,0,0,0,0,-1,1147,428,5.39462,58.797
-70,596,3.50696,-32.137,0,0,0,0,0,0,0,-1,1154,428,3.50696,32.137
-63,596,1.95569,-12.2758,0,0,0,0,0,0,0,-1,1161,428,1.95563,12.2759
-56,596,1.60107,-10.5827,0,0,0,0,0,0,0,-1,1168,428,1.60108,10.5827
-49,596,1.59473,-10.0393,0,0,0,0,0,0,0,-1,1175,428,1.59472,10.0393
-42,596,1.99585,-6.6246,0,0,0,0,0,0,0,-1,1182,428,1.99586,6.62459
-35,596,5.49048,-60.7436,0,0,0,0,0,0,0,-1,1189,428,5.49051,60.7436
-28,596,5.78796,-61.1142,0,0,0,0,0,0,0,-1,1196,428,5.78792,61.1142
-21,596,5.87769,-61.4464,0,0,0,0,0,0,0,-1,1203,428,5.87774,61.4463
-14,596,6.06812,-61.7055,0,0,0,0,0,0,0,-1,1210,428,6.0681,61.7055
-7,596,6.23352,-61.9113,0,0,0,0,0,0,0,-1,1217,428,6.23352,61.9113
0,596,6.22937,-62.3898,0,0,0,0,0,0,0,-1,1224,428,6.22939,62.3898
7,596,9.91699,-57.4923,0,0,0,0,0,0,0,-1,1231,428,9.91704,57.4923
14,596,8.41003,-60.6939,0,0,0,0,0,0,0,-1,1238,428,8.41003,60.694
21,596,6.90466,-61.3101,0,0,0,0,0,0,0,-1,1245,428,6.90469,61.3101
28,596,7.16772,-61.7601,0,0,0,0,0,0,0,-1,1252,428,7.16766,61.7601
35,596,7.7384,-60.9329,0,0,0,0,0,0,0,-1,1259,428,7.73846,60.9329
42,596,7.33179,-62.0472,0,0,0,0,0,0,0,-1,1266,428,7.3318,62.0472
49,596,7.2749,-62.294,0.00497384,-0.0563138,-0.00401449,0.00523568,-0.0565757,-0.0651314,0.0395779,0.0485967,1273,428,7.27496,62.294
56,596,6.80713,-62.3705,0,0,0,0,0,0,0,-1,1280,428,6.80714,62.3705
63,596,6.30042,-62.2563,0,0,0,0,0,0,0,-1,1287,428,6.30046,62.2563
70,596,6.40369,-61.0024,0,0,0,0,0,0,0,-1,1294,428,6.40372,61.0024
77,596,7.3136,-63.9751,0,0,0,0,0,0,0,-1,1301,428,7.31365,63.9751
84,596,7.30554,-64.6859,0,0,0,0,0,0,0,-1,1308,428,7.30556,64.6859
91,596,8.7616,-66.8226,0,0,0,0,0,0,0,-1,1315,428,8.76156,66.8226
98,596,8.26611,-67.5074,0,0,0,0,0,0,0,-1,1322,428,8.26617,67.5075
105,596,9.22363,-63.3698,0,0,0,0,0,0,0,-1,1329,428,9.22365,63.3698
112,596,9.19507,-62.3523,0,0,0,0,0,0,0,-1,1336,428,9.19512,62.3523
119,596,9.50464,-62.1502,0,0,0,0,0,0,0,-1,1343,428,9.50459,62.1502
126,596,6.12146,-57.7535,0,0,0,0,0,0,0,-1,1350,428,6.12145,57.7535
133,596,9.3866,-61.5759,0,0,0,0,0,0,0,-1,1357,428,9.38654,61.5759
140,596,9.8739,-60.8984,0,0,0,0,0,0,0,-1,1364,428,9.87389,60.8984
147,596,9.57434,-60.6648,0,0,0,0,0,0,0,-1,1371,428,9.57439,60.6648
154,596,9.15698,-60.9448,0,0,0,0,0,0,0,-1,1378,428,9.15698,60.9448
161,596,9.90198,-60.7144,0,0,0,0,0,0,0,-1,1385,428,9.90193,60.7143
168,596,10.0759,-60.2368,0,0,0,0,0,0,0,-1,1392,428,10.0759,60.2368
175,596,10.2446,-59.9188,0,0,0,0,0,0,0,-1,1399,428,10.2447,59.9188
182,596,10.3748,-59.7752,0,0,0,0,0,0,0,-1,1406,428,10.3747,59.7752
189,596,10.2999,-59.331,0,0,0,0,0,0,0,-1,1413,428,10.2999,59.331
196,596,10.2263,-58.6978,0,0,0,0,0,0,0,-1,1420,428,10.2263,58.6978
203,596,10.1606,-58.5467,0,0,0,0,0,0,0,-1,1427,428,10.1607,58.5466
210,596,10.2301,-58.3047,0,0,0,0,0,0,0,-1,1434,428,10.23,58.3047
217,596,10.2739,-57.7206,0,0,0,0,0,0,0,-1,1441,428,10.274,57.7206
224,596,10.3519,-57.1938,0,0,0,0,0,0,0,-1,1448,428,10.3519,57.1938
231,596,10.4479,-56.6727,0.00591784,-0.0024755,-0.00190849,0.00633142,-0.00288907,-0.213404,0.00544571,0.0279482,1455,428,10.4478,56.6727
238,596,10.4409,-56.0764,0.00557439,-0.00138025,-0.00113893,0.00575616,-0.00156201,-0.158259,0.00445044,0.0170581,1462,428,10.4409,56.0764
245,596,10.4717,-55.5326,0.00521841,-0.00108773,-0.00074866,0.00530607,-0.00117539,-0.116561,0.00398735,0.0140028,1469,428,10.4716,55.5326
252,596,10.4908,-54.9336,0.00468321,-0.00107138,-0.000538278,0.00473312,-0.0011213,-0.0924701,0.00358807,0.0106936,1476,428,10.4908,54.9336
259,596,10.4662,-54.322,0.00404983,-0.000846181,-0.000238573,0.00406143,-0.000857778,-0.0485746,0.00303423,0.00904983,1483,428,10.4661,54.322
266,596,10.4449,-53.726,0.00332851,-0.00079966,-9.45903e-05,0.00333067,-0.000801826,-0.0228974,0.00253043,0.0106401,1490,428,10.4449,53.726
273,596,10.465,-53.1194,0.00269138,-0.000543024,0.000101466,0.00269456,-0.000546204,0.0313298,0.00200342,0.0121197,1497,428,10.465,53.1194
280,596,10.4779,-52.5001,0.00214876,-0.000160247,0.000343587,0.0021988,-0.000210289,0.144629,0.00154076,0.0129357,1504,428,10.4779,52.5001
287,596,10.4539,-51.8132,0.00165421,0.000345759,0.000595376,0.00188457,0.000115404,0.369169,0.00121973,0.0116989,1511,428,10.4539,51.8132
294,596,10.3989,-51.1327,0.00115939,0.000936031,0.000910423,0.00196496,0.000130465,0.724368,0.00126872,0.00990854,1518,428,10.3989,51.1327
301,596,10.3754,-50.4511,0.00074665,0.00163746,0.00128919,0.00255601,-0.000171909,0.951724,0.00176411,0.0116246,1525,428,10.3754,50.4511
308,596,10.3594,-49.7459,0.000560901,0.00265678,0.00175407,0.00365211,-0.000434427,1.05466,0.00259171,0.0174493,1532,428,10.3593,49.7459
315,596,10.2837,-49.0496,0.000594194,0.00381142,0.00235321,0.00505328,-0.000647671,1.08521,0.0036042,0.0174509,1539,428,10.2837,49.0496
322,596,10.2714,-48.3418,0.000572998,0.00505979,0.00298757,0.00655248,-0.000919699,1.10744,0.00470495,0.0150415,1546,428,10.2713,48.3418
329,596,10.2336,-47.6309,0.000709728,0.00627955,0.00370258,0.00812765,-0.00113838,1.10784,0.00583503,0.010903,1553,428,10.2336,47.6309
336,596,10.1732,-46.9304,0.00105409,0.00771693,0.00453128,0.0100096,-0.00123862,1.10238,0.00712196,0.00919966,1560,428,10.1732,46.9304
343,596,10.1537,-46.2013,0.00159886,0.00924425,0.00555934,0.0121684,-0.00132524,1.08658,0.00858813,0.011487,1567,428,10.1537,46.2013
350,596,10.1223,-45.4259,0.00219826,0.0110903,0.00667212,0.014662,-0.00137346,1.07929,0.0102632,0.0115515,1574,428,10.1223,45.4259
357,596,10.0583,-44.6601,0.00284829,0.0126957,0.00778262,0.0169813,-0.00143735,1.06744,0.0118292,0.00942575,1581,428,10.0584,44.6601
364,596,9.99536,-43.8669,0.00351505,0.0144609,0.00895876,0.0194862,-0.00151024,1.0596,0.0135223,0.0105268,1588,428,9.99538,43.8669
371,596,9.94055,-43.0917,0.00411943,0.0162054,0.0101368,0.0219637,-0.00163894,1.05419,0.0152183,0.0113853,1595,428,9.94049,43.0917
378,596,9.88098,-42.3134,0.00468398,0.0180625,0.0113569,0.0245538,-0.00180725,1.05155,0.0170036,0.0164395,1602,428,9.88097,42.3135
385,596,9.92834,-41.3336,0.0050717,0.0197651,0.0123129,0.0267565,-0.00191971,1.05438,0.0185108,0.0394602,1609,428,9.92833,41.3336
392,596,10.0248,-40.404,0.00548195,0.0211773,0.0131332,0.0286288,-0.00196961,1.0547,0.0197752,0.0487979,1616,428,10.0248,40.404
399,596,9.78149,-39.1007,0,0,0,0,0,0,0,-1,1623,428,9.78147,39.1007
406,596,9.47791,-38.9109,0,0,0,0,0,0,0,-1,1630,428,9.47786,38.9109
413,596,9.35498,-38.384,0,0,0,0,0,0,0,-1,1637,428,9.355,38.384
420,596,2.6344,-3.06308,0,0,0,0,0,0,0,-1,1644,428,2.63439,3.06308
427,596,7.61975,-22.7222,0,0,0,0,0,0,0,-1,1651,428,7.61974,22.7222
434,596,5.09753,-22.5213,0,0,0,0,0,0,0,-1,1658,428,5.09755,22.5213
441,596,7.19043,-22.087,0,0,0,0,0,0,0,-1,1665,428,7.19046,22.087
448,596,1.0769,0.0083313,0,0,0,0,0,0,0,-1,1672,428,1.07684,-0.00832231
455,596,2.00769,-1.43329,0,0,0,0,0,0,0,-1,1679,428,2.00765,1.4333
462,596,0,0,0,0,0,0,0,0,0,-1,1686,428,0,0
469,596,0,0,0,0,0,0,0,0,0,-1,1693,428,0,0
476,596,0,0,0,0,0,0,0,0,0,-1,1700,428,0,0
483,596,0,0,0,0,0,0,0,0,0,-1,1707,428,0,0
490,596,0,0,0,0,0,0,0,0,0,-1,1714,428,0,0
497,596,0,0,0,0,0,0,0,0,0,-1,1721,428,0,0
504,596,0,0,0,0,0,0,0,0,0,-1,1728,428,0,0
511,596,0,0,0,0,0,0,0,0,0,-1,1735,428,0,0
518,596,0,0,0,0,0,0,0,0,0,-1,1742,428,0,0
525,596,0,0,0,0,0,0,0,0,0,-1,1749,428,0,0
532,596,0,0,0,0,0,0,0,0,0,-1,1756,428,0,0
539,596,0,0,0,0,0,0,0,0,0,-1,1763,428,0,0
546,596,0,0,0,0,0,0,0,0,0,-1,1770,428,0,0
553,596,0,0,0,0,0,0,0,0,0,-1,1777,428,0,0
560,596,0,0,0,0,0,0,0,0,0,-1,1784,428,0,0
567,596,0,0,0,0,0,0,0,0,0,-1,1791,428,0,0
574,596,0,0,0,0,0,0,0,0,0,-1,1798,428,0,0
581,596,0,0,0,0,0,0,0,0,0,-1,1805,428,0,0
588,596,0,0,0,0,0,0,0,0,0,-1,1812,428,0,0
595,596,0,0,0,0,0,0,0,0,0,-1,1819,428,0,0
602,596,0,0,0,0,0,0,0,0,0,-1,1826,428,0,0
609,596,0,0,0,0,0,0,0,0,0,-1,1833,428,0,0
616,596,0,0,0,0,0,0,0,0,0,-1,1840,428,0,0
623,596,0,0,0,0,0,0,0,0,0,-1,1847,428,0,0
630,596,0,0,0,0,0,0,0,0,0,-1,1854,428,0,0
637,596,0,0,0,0,0,0,0,0,0,-1,1861,428,0,0
644,596,0,0,0,0,0,0,0,0,0,-1,1868,428,0,0
651,596,0,0,0,0,0,0,0,0,0,-1,1875,428,0,0
658,596,0,0,0,0,0,0,0,0,0,-1,1882,428,0,0
665,596,0,0,0,0,0,0,0,0,0,-1,1889,428,0,0
672,596,0,0,0,0,0,0,0,0,0,-1,1896,428,0,0
679,596,0,0,0,0,0,0,0,0,0,-1,1903,428,0,0
686,596,0,0,0,0,0,0,0,0,0,-1,1910,428,0,0
693,596,0,0,0,0,0,0,0,0,0,-1,1917,428,0,0
700,596,0,0,0,0,0,0,0,0,0,-1,1924,428,0,0
707,596,0,0,0,0,0,0,0,0,0,-1,1931,428,0,0
714,596,0,0,0,0,0,0,0,0,0,-1,1938,428,0,0
721,596,0,0,0,0,0,0,0,0,0,-1,1945,428,0,0
728,596,0,0,0,0,0,0,0,0,0,-1,1952,428,0,0
735,596,0,0,0,0,0,0,0,0,0,-1,1959,428,0,0
742,596,0,0,0,0,0,0,0,0,0,-1,1966,428,0,0
749,596,0,0,0,0,0,0,0,0,0,-1,1973,428,0,0
756,596,0,0,0,0,0,0,0,0,0,-1,1980,428,0,0
763,596,0,0,0,0,0,0,0,0,0,-1,1987,428,0,0
770,596,0,0,0,0,0,0,0,0,0,-1,1994,428,0,0
777,596,0,0,0,0,0,0,0,0,0,-1,2001,428,0,0
784,596,0,0,0,0,0,0,0,0,0,-1,2008,428,0,0
791,596,0,0,0,0,0,0,0,0,0,-1,2015,428,0,0
798,596,0,0,0,0,0,0,0,0,0,-1,2022,428,0,0
805,596,0,0,0,0,0,0,0,0,0,-1,2029,428,0,0
812,596,0,0,0,0,0,0,0,0,0,-1,2036,428,0,0
-700,589,0,0,0,0,0,0,0,0,0,-1,524,435,0,0
-693,589,0,0,0,0,0,0,0,0,0,-1,531,435,0,0
-686,589,0,0,0,0,0,0,0,0,0,-1,538,435,0,0
-679,589,0,0,0,0,0,0,0,0,0,-1,545,435,0,0
-672,589,0,0,0,0,0,0,0,0,0,-1,552,435,0,0
-665,589,0,0,0,0,0,0,0,0,0,-1,559,435,0,0
-658,589,0,0,0,0,0,0,0,0,0,-1,566,435,0,0
-651,589,0,0,0,0,0,0,0,0,0,-1,573,435,0,0
-644,589,0,0,0,0,0,0,0,0,0,-1,580,435,0,0
-637,589,0,0,0,0,0,0,0,0,0,-1,587,435,0,0
-630,589,0,0,0,0,0,0,0,0,0,-1,594,435,0,0
-623,589,0,0,0,0,0,0,0,0,0,-1,601,435,0,0
-616,589,0,0,0,0,0,0,0,0,0,-1,608,435,0,0
-609,589,0,0,0,0,0,0,0,0,0,-1,615,435,0,0
-602,589,0,0,0,0,0,0,0,0,0,-1,622,435,0,0
-595,589,0,0,0,0,0,0,0,0,0,-1,629,435,0,0
-588,589,0,0,0,0,0,0,0,0,0,-1,636,435,0,0
-581,589,0,0,0,0,0,0,0,0,0,-1,643,435,0,0
-574,589,0,0,0,0,0,0,0,0,0,-1,650,435,0,0
-567,589,0,0,0,0,0,0,0,0,0,-1,657,435,0,0
-560,589,0,0,0,0,0,0,0,0,0,-1,664,435,0,0
-553,589,0,0,0,0,0,0,0,0,0,-1,671,435,0,0
-546,589,0,0,0,0,0,0,0,0,0,-1,678,435,0,0
-539,589,0,0,0,0,0,0,0,0,0,-1,685,435,0,0
-532,589,0,0,0,0,0,0,0,0,0,-1,692,435,0,0
-525,589,0,0,0,0,0,0,0,0,0,-1,699,435,0,0
-518,589,0,0,0,0,0,0,0,0,0,-1,706,435,0,0
-511,589,0,0,0,0,0,0,0,0,0,-1,713,435,0,0
-504,589,0,0,0,0,0,0,0,0,0,-1,720,435,0,0
-497,589,0,0,0,0,0,0,0,0,0,-1,727,435,0,0
-490,589,0,0,0,0,0,0,0,0,0,-1,734,435,0,0
-483,589,0,0,0,0,0,0,0,0,0,-1,741,435,0,0
-476,589,0,0,0,0,0,0,0,0,0,-1,748,435,0,0
-469,589,0,0,0,0,0,0,0,0,0,-1,755,435,0,0
-462,589,0,0,0,0,0,0,0,0,0,-1,762,435,0,0
-455,589,0,0,0,0,0,0,0,0,0,-1,769,435,0,0
-448,589,0,0,0,0,0,0,0,0,0,-1,776,435,0,0
-441,589,0,0,0,0,0,0,0,0,0,-1,783,435,0,0
-434,589,0,0,0,0,0,0,0,0,0,-1,790,435,0,0
-427,589,0,0,0,0,0,0,0,0,0,-1,797,435,0,0
-420,589,0,0,0,0,0,0,0,0,0,-1,804,435,0,0
-413,589,0,0,0,0,0,0,0,0,0,-1,811,435,0,0
-406,589,0,0,0,0,0,0,0,0,0,-1,818,435,0,0
-399,589,0,0,0,0,0,0,0,0,0,-1,825,435,0,0
-392,589,0,0,0,0,0,0,0,0,0,-1,832,435,0,0
-385,589,0,0,0,0,0,0,0,0,0,-1,839,435,0,0
-378,589,0,0,0,0,0,0,0,0,0,-1,846,435,0,0
-371,589,0,0,0,0,0,0,0,0,0,-1,853,435,0,0
-364,589,0,0,0,0,0,0,0,0,0,-1,860,435,0,0
-357,589,0,0,0,0,0,0,0,0,0,-1,867,435,0,0
-350,589,-0.799927,-20.664,0,0,0,0,0,0,0,-1,874,435,-0.799952,20.664
-343,589,5.15289,-30.4847,0,0,0,0,0,0,0,-1,881,435,5.15291,30.4847
-336,589,5.07684,-29.2368,0,0,0,0,0,0,0,-1,888,435,5.07687,29.2368
-329,589,4.9624,-28.1366,0,0,0,0,0,0,0,-1,895,435,4.96242,28.1366
-322,589,5.10156,-27.065,0,0,0,0,0,0,0,-1,902,435,5.10155,27.065
-315,589,4.22705,-27.9655,0,0,0,0,0,0,0,-1,909,435,4.22705,27.9655
-308,589,4.46698,-29.037,0,0,0,0,0,0,0,-1,916,435,4.46696,29.037
-301,589,4.94867,-33.7458,0,0,0,0,0,0,0,-1,923,435,4.94869,33.7458
-294,589,4.1037,-31.2976,0,0,0,0,0,0,0,-1,930,435,4.10371,31.2976
-287,589,5.10071,-38.5746,0,0,0,0,0,0,0,-1,937,435,5.1007,38.5747
-280,589,5.15973,-39.394,-0.000859955,0.0166191,-0.00927431,0.0206229,-0.00486375,-1.16326,0.0156243,0.049585,944,435,5.15973,39.394
-273,589,5.06274,-40.1737,-0.00102696,0.0155342,-0.00876149,0.0193089,-0.00480175,-1.16399,0.0147363,0.0296969,951,435,5.06273,40.1737
-266,589,5.03748,-41.0481,-0.00136058,0.0142812,-0.00824049,0.0178213,-0.00490068,-1.16504,0.0138074,0.028364,958,435,5.0375,41.0481
-259,589,4.97717,-41.8949,-0.00127948,0.0130554,-0.0077418,0.0164382,-0.00466228,-1.15884,0.0127992,0.0240758,965,435,4.97717,41.8949
-252,589,4.96381,-42.7675,-0.00106687,0.0121876,-0.00699485,0.0151962,-0.00407541,-1.16461,0.0117277,0.0119487,972,435,4.96381,42.7675
-245,589,4.94354,-43.5586,-0.000823666,0.0110384,-0.00625677,0.0137285,-0.00351379,-1.16474,0.010521,0.0110167,979,435,4.94352,43.5586
-238,589,4.86401,-44.3069,-0.000552865,0.00967111,-0.00548546,0.0120573,-0.00293906,-1.16048,0.00917615,0.0149658,986,435,4.86399,44.3069
-231,589,4.7998,-45.0186,-0.000275276,0.00822903,-0.00465568,0.0102821,-0.00232837,-1.15546,0.00774838,0.0152138,993,435,4.79981,45.0186
-224,589,4.74658,-45.7486,0.000116492,0.00691341,-0.00400225,0.00876544,-0.00173553,-1.13739,0.00649983,0.0151843,1000,435,4.74657,45.7486
-217,589,4.70056,-46.5257,0.00047792,0.00537018,-0.00334425,0.00706743,-0.00121932,-1.10116,0.00516625,0.0162836,1007,435,4.70055,46.5257
-210,589,4.69708,-47.2705,0.000795412,0.00380462,-0.00272646,0.00541408,-0.000814053,-1.03753,0.0039091,0.0162149,1014,435,4.69707,47.2705
-203,589,4.6748,-47.9724,0.00108956,0.00229368,-0.00212388,0.00389918,-0.000515946,-0.923511,0.0027874,0.0118581,1021,435,4.67484,47.9724
-196,589,4.62781,-48.6547,0.00128829,0.000798828,-0.00149997,0.00256337,-0.000476248,-0.704531,0.00188779,0.0142298,1028,435,4.6278,48.6547
-189,589,4.58545,-49.3759,0.00144058,-0.000554989,-0.000880285,0.00177339,-0.000887797,-0.361458,0.00156454,0.0189233,1035,435,4.58544,49.3759
-182,589,4.57263,-50.0039,0.00155485,-0.00184495,-4.03767e-05,0.00155533,-0.00184543,-0.011874,0.00196581,0.0140619,1042,435,4.57262,50.0039
-175,589,4.55701,-50.6801,0.00163662,-0.00300754,0.000754153,0.00175602,-0.00312694,0.157014,0.00285597,0.0182622,1049,435,4.55702,50.6801
-168,589,4.5542,-51.3834,0.00160425,-0.00401671,0.0016289,0.00204217,-0.00445463,0.262635,0.00383616,0.0157905,1056,435,4.55423,51.3834
-161,589,4.55176,-52.0139,0.00154946,-0.00486632,0.00258532,0.00246157,-0.00577843,0.339172,0.00488415,0.0138805,1063,435,4.55178,52.014
-154,589,4.50708,-52.6442,0.00150669,-0.00554381,0.00361025,0.00302736,-0.00706448,0.398655,0.00597991,0.0129726,1070,435,4.50712,52.6442
-147,589,4.53381,-53.2454,0.00156176,-0.00595976,0.0046066,0.00374777,-0.00814577,0.443072,0.00702148,0.012981,1077,435,4.53382,53.2454
-140,589,4.57642,-53.821,0.00170802,-0.00645646,0.00564433,0.00459163,-0.00934007,0.47232,0.00819773,0.0154168,1084,435,4.57647,53.821
-133,589,4.5697,-54.4464,0.00191735,-0.00674277,0.00654079,0.00543149,-0.0102569,0.493013,0.0091994,0.0158678,1091,435,4.56969,54.4464
-126,589,4.60461,-55.0475,0.0023479,-0.00679072,0.00715649,0.00626941,-0.0107122,0.50128,0.00991557,0.0120651,1098,435,4.60466,55.0475
-119,589,4.52332,-55.6292,0.0030747,-0.00662822,0.00748165,0.00714018,-0.0106937,0.497757,0.0103643,0.0250497,1105,435,4.52331,55.6292
-112,589,4.5791,-56.1964,0,0,0,0,0,0,0,-1,1112,435,4.57912,56.1964
-105,589,4.59778,-56.7858,0,0,0,0,0,0,0,-1,1119,435,4.59774,56.7858
-98,589,4.66089,-57.6602,0,0,0,0,0,0,0,-1,1126,435,4.66091,57.6602
-91,589,3.39563,-37.8231,0,0,0,0,0,0,0,-1,1133,435,3.39565,37.8231
-84,589,2.76538,-22.6013,0,0,0,0,0,0,0,-1,1140,435,2.76539,22.6014
-77,589,2.18152,-14.8023,0,0,0,0,0,0,0,-1,1147,435,2.18155,14.8023
-70,589,1.48267,-9.90961,0,0,0,0,0,0,0,-1,1154,435,1.48264,9.9096
-63,589,0.880127,-5.50586,0,0,0,0,0,0,0,-1,1161,435,0.880186,5.50587
-56,589,-2.78052,-7.28082,0,0,0,0,0,0,0,-1,1168,435,-2.78053,7.28082
-49,589,-0.525757,-2.76703,0,0,0,0,0,0,0,-1,1175,435,-0.525771,2.76702
-42,589,-2.7738,-2.87921,0,0,0,0,0,0,0,-1,1182,435,-2.77383,2.87922
-35,589,-2.55225,-3.27551,0,0,0,0,0,0,0,-1,1189,435,-2.55223,3.27552
-28,589,-0.0632324,-3.42938,0,0,0,0,0,0,0,-1,1196,435,-0.063241,3.42938
-21,589,-4.27417,-58.132,0,0,0,0,0,0,0,-1,1203,435,-4.27422,58.1321
-14,589,9.172,-56.6683,0,0,0,0,0,0,0,-1,1210,435,9.17197,56.6683
-7,589,3.8208,-58.8023,0,0,0,0,0,0,0,-1,1217,435,3.8208,58.8023
0,589,11.4479,-56.2525,0,0,0,0,0,0,0,-1,1224,435,11.4478,56.2525
7,589,7.89661,-59.7263,0,0,0,0,0,0,0,-1,1231,435,7.89663,59.7263
14,589,8.7417,-59.3434,0,0,0,0,0,0,0,-1,1238,435,8.74173,59.3434
21,589,8.32581,-60.0482,0,0,0,0,0,0,0,-1,1245,435,8.32576,60.0482
28,589,7.70557,-60.598,0,0,0,0,0,0,0,-1,1252,435,7.70558,60.598
35,589,7.32703,-60.816,0,0,0,0,0,0,0,-1,1259,435,7.32703,60.816
42,589,7.02551,-61.181,0,0,0,0,0,0,0,-1,1266,435,7.02553,61.181
49,589,7.20496,-61.7786,0,0,0,0,0,0,0,-1,1273,435,7.20499,61.7786
56,589,6.74426,-62.0296,0,0,0,0,0,0,0,-1,1280,435,6.74423,62.0296
63,589,6.39722,-62.3958,0,0,0,0,0,0,0,-1,1287,435,6.39717,62.3958
70,589,6.11401,-62.782,0,0,0,0,0,0,0,-1,1294,435,6.11396,62.782
77,589,7.20105,-63.3469,0,0,0,0,0,0,0,-1,1301,435,7.20109,63.3469
84,589,7.24622,-64.1028,0,0,0,0,0,0,0,-1,1308,435,7.2462,64.1028
91,589,7.88452,-65.5381,0,0,0,0,0,0,0,-1,1315,435,7.88455,65.5381
98,589,7.6416,-66.2182,0,0,0,0,0,0,0,-1,1322,435,7.6416,66.2182
105,589,8.4696,-63.9171,0,0,0,0,0,0,0,-1,1329,435,8.46956,63.9171
112,589,8.70337,-65.0091,0,0,0,0,0,0,0,-1,1336,435,8.70332,65.0091
119,589,8.62793,-65.6712,0,0,0,0,0,0,0,-1,1343,435,8.62796,65.6712
126,589,8.93127,-66.2076,0,0,0,0,0,0,0,-1,1350,435,8.93128,66.2076
133,589,6.14307,-91.8835,0,0,0,0,0,0,0,-1,1357,435,6.14312,91.8835
140,589,7.14893,-67.4295,0,0,0,0,0,0,0,-1,1364,435,7.1489,67.4295
147,589,-4.59558,-57.3534,0,0,0,0,0,0,0,-1,1371,435,-4.5956,57.3534
154,589,4.91272,-99.4741,0,0,0,0,0,0,0,-1,1378,435,4.91267,99.474
161,589,-6.32788,-58.6489,0,0,0,0,0,0,0,-1,1385,435,-6.32789,58.6489
168,589,20.0441,-47.9614,0,0,0,0,0,0,0,-1,1392,435,20.044,47.9613
175,589,8.66992,-7.65527,0,0,0,0,0,0,0,-1,1399,435,8.66994,7.65528
182,589,3.8136,-2.45389,0,0,0,0,0,0,0,-1,1406,435,3.81363,2.4539
189,589,3.69983,-3.68149,0,0,0,0,0,0,0,-1,1413,435,3.69987,3.68147
196,589,3.31055,-5.31677,0,0,0,0,0,0,0,-1,1420,435,3.31059,5.31678
203,589,2.72559,-8.84338,0,0,0,0,0,0,0,-1,1427,435,2.72558,8.84338
210,589,3.62378,-14.4032,0,0,0,0,0,0,0,-1,1434,435,3.62378,14.4032
217,589,4.65601,-22.3745,0,0,0,0,0,0,0,-1,1441,435,4.65607,22.3745
224,589,6.79028,-33.9412,0,0,0,0,0,0,0,-1,1448,435,6.79028,33.9412
231,589,11.0688,-56.708,0,0,0,0,0,0,0,-1,1455,435,11.0689,56.708
238,589,11.0369,-56.0461,0,0,0,0,0,0,0,-1,1462,435,11.0369,56.0461
245,589,11.0658,-55.4768,0,0,0,0,0,0,0,-1,1469,435,11.0658,55.4768
252,589,11.0812,-54.8567,0.006314,-0.00303218,-0.00142809,0.00652734,-0.00324552,-0.148293,0.00574743,0.0292732,1476,435,11.0812,54.8567
259,589,11.0693,-54.3096,0.00561205,-0.00296599,-0.00118201,0.00577195,-0.00312589,-0.134457,0.00521234,0.0111305,1483,435,11.0693,54.3096
266,589,11.0658,-53.6902,0.00475052,-0.00315604,-0.00117272,0.00492079,-0.00332632,-0.144188,0.00479104,0.00999288,1490,435,11.0658,53.6902
273,589,11.0853,-53.101,0.00397672,-0.00312583,-0.00109874,0.00414281,-0.00329192,-0.150026,0.0043018,0.0120185,1497,435,11.0854,53.101
280,589,11.0933,-52.4651,0.00330432,-0.00292989,-0.000971077,0.00345208,-0.00307765,-0.151001,0.00377201,0.0134002,1504,435,11.0932,52.4651
287,589,11.0995,-51.8145,0.00263764,-0.00263914,-0.000891499,0.00278419,-0.00278568,-0.162925,0.00321577,0.012016,1511,435,11.0994,51.8145
294,589,11.0752,-51.1177,0.0020304,-0.00236302,-0.000701437,0.00213967,-0.00247229,-0.15454,0.00266502,0.0108443,1518,435,11.0752,51.1177
301,589,11.0519,-50.4272,0.00150551,-0.00187605,-0.000452542,0.00156502,-0.00193557,-0.130761,0.00202484,0.0119251,1525,435,11.0518,50.4272
308,589,11.0398,-49.734,0.00116505,-0.00107403,-0.000102721,0.00116975,-0.00107873,-0.0457484,0.00129852,0.0115538,1532,435,11.0398,49.734
315,589,11.0062,-49.0322,0.000996116,-0.000109202,0.000380177,0.00111425,-0.000227339,0.301281,0.000829071,0.0118695,1539,435,11.0063,49.0322
322,589,10.9972,-48.3349,0.000821341,0.00106101,0.000956995,0.00190565,-2.32924e-05,0.847685,0.00127827,0.0132747,1546,435,10.9971,48.3349
329,589,10.9572,-47.6127,0.000796208,0.00227376,0.00164273,0.00333619,-0.000266226,0.99671,0.00231797,0.0110621,1553,435,10.9571,47.6127
336,589,10.9141,-46.9022,0.000941297,0.00371241,0.0024292,0.00512342,-0.00046971,1.04457,0.00358246,0.00982157,1560,435,10.914,46.9022
343,589,10.8839,-46.1943,0.00124177,0.00522394,0.00339753,0.00717083,-0.000705117,1.05044,0.00503208,0.0108035,1567,435,10.884,46.1943
350,589,10.8564,-45.443,0.00161425,0.0071437,0.00447918,0.0096427,-0.000884748,1.0619,0.00674276,0.0160972,1574,435,10.8564,45.443
357,589,10.8123,-44.6631,0.00203384,0.00889997,0.00557402,0.0120133,-0.00107952,1.06141,0.0083919,0.0144075,1581,435,10.8122,44.6631
364,589,10.7668,-43.8815,0.00245163,0.0106615,0.00669077,0.0144062,-0.00129309,1.06055,0.0100629,0.0117144,1588,435,10.7668,43.8815
371,589,10.7017,-43.1016,0.00280812,0.0123704,0.00779674,0.0167352,-0.00155669,1.06044,0.0117103,0.0113407,1595,435,10.7017,43.1016
378,589,10.6412,-42.3105,0.00309425,0.0140809,0.00884783,0.019002,-0.00182687,1.06321,0.0133188,0.0125368,1602,435,10.6412,42.3105
385,589,10.6006,-41.4971,0.0032502,0.0155386,0.00961167,0.0208021,-0.0020133,1.06979,0.0145855,0.022828,1609,435,10.6006,41.4971
392,589,10.5449,-40.5179,0.00345801,0.0166961,0.0102743,0.0222989,-0.00214481,1.07155,0.01563,0.0315609,1616,435,10.5449,40.5179
399,589,10.5598,-39.4904,0.00399775,0.0174248,0.011222,0.0237882,-0.00236558,1.05496,0.0167032,0.0390253,1623,435,10.5599,39.4905
406,589,10.5905,-38.5824,0,0,0,0,0,0,0,-1,1630,435,10.5904,38.5824
413,589,5.61377,-19.0606,0,0,0,0,0,0,0,-1,1637,435,5.61372,19.0606
420,589,2.79724,-5.79956,0,0,0,0,0,0,0,-1,1644,435,2.7973,5.79955
427,589,9.70715,-36.5872,0,0,0,0,0,0,0,-1,1651,435,9.70718,36.5872
434,589,9.14709,-34.4435,0,0,0,0,0,0,0,-1,1658,435,9.1471,34.4435
441,589,7.85901,-29.8665,0,0,0,0,0,0,0,-1,1665,435,7.85898,29.8666
448,589,0.453735,-3.2868,0,0,0,0,0,0,0,-1,1672,435,0.453701,3.28681
455,589,0.664307,-3.46848,0,0,0,0,0,0,0,-1,1679,435,0.66425,3.46846
462,589,3.46716,-4.41891,0,0,0,0,0,0,0,-1,1686,435,3.4672,4.41891
469,589,0.0238037,-3.81497,0,0,0,0,0,0,0,-1,1693,435,0.0237965,3.81498
476,589,0,0,0,0,0,0,0,0,0,-1,1700,435,0,0
483,589,0,0,0,0,0,0,0,0,0,-1,1707,435,0,0
490,589,0,0,0,0,0,0,0,0,0,-1,1714,435,0,0
497,589,0,0,0,0,0,0,0,0,0,-1,1721,435,0,0
504,589,0,0,0,0,0,0,0,0,0,-1,1728,435,0,0
511,589,0,0,0,0,0,0,0,0,0,-1,1735,435,0,0
518,589,0,0,0,0,0,0,0,0,0,-1,1742,435,0,0
525,589,0,0,0,0,0,0,0,0,0,-1,1749,435,0,0
532,589,0,0,0,0,0,0,0,0,0,-1,1756,435,0,0
539,589,0,0,0,0,0,0,0,0,0,-1,1763,435,0,0
546,589,0,0,0,0,0,0,0,0,0,-1,1770,435,0,0
553,589,0,0,0,0,0,0,0,0,0,-1,1777,435,0,0
560,589,0,0,0,0,0,0,0,0,0,-1,1784,435,0,0
567,589,0,0,0,0,0,0,0,0,0,-1,1791,435,0,0
574,589,0,0,0,0,0,0,0,0,0,-1,1798,435,0,0
581,589,0,0,0,0,0,0,0,0,0,-1,1805,435,0,0
588,589,0,0,0,0,0,0,0,0,0,-1,1812,435,0,0
595,589,0,0,0,0,0,0,0,0,0,-1,1819,435,0,0
602,589,0,0,0,0,0,0,0,0,0,-1,1826,435,0,0
609,589,0,0,0,0,0,0,0,0,0,-1,1833,435,0,0
616,589,0,0,0,0,0,0,0,0,0,-1,1840,435,0,0
623,589,0,0,0,0,0,0,0,0,0,-1,1847,435,0,0
630,589,0,0,0,0,0,0,0,0,0,-1,1854,435,0,0
637,589,0,0,0,0,0,0,0,0,0,-1,1861,435,0,0
644,589,0,0,0,0,0,0,0,0,0,-1,1868,435,0,0
651,589,0,0,0,0,0,0,0,0,0,-1,1875,435,0,0
658,589,0,0,0,0,0,0,0,0,0,-1,1882,435,0,0
665,589,0,0,0,0,0,0,0,0,0,-1,1889,435,0,0
672,589,0,0,0,0,0,0,0,0,0,-1,1896,435,0,0
679,589,0,0,0,0,0,0,0,0,0,-1,1903,435,0,0
686,589,0,0,0,0,0,0,0,0,0,-1,1910,435,0,0
693,589,0,0,0,0,0,0,0,0,0,-1,1917,435,0,0
700,589,0,0,0,0,0,0,0,0,0,-1,1924,435,0,0
707,589,0,0,0,0,0,0,0,0,0,-1,1931,435,0,0
714,589,0,0,0,0,0,0,0,0,0,-1,1938,435,0,0
721,589,0,0,0,0,0,0,0,0,0,-1,1945,435,0,0
728,589,0,0,0,0,0,0,0,0,0,-1,1952,435,0,0
735,589,0,0,0,0,0,0,0,0,0,-1,1959,435,0,0
742,589,0,0,0,0,0,0,0,0,0,-1,1966,435,0,0
749,589,0,0,0,0,0,0,0,0,0,-1,1973,435,0,0
756,589,0,0,0,0,0,0,0,0,0,-1,1980,435,0,0
763,589,0,0,0,0,0,0,0,0,0,-1,1987,435,0,0
770,589,0,0,0,0,0,0,0,0,0,-1,1994,435,0,0
777,589,0,0,0,0,0,0,0,0,0,-1,2001,435,0,0
784,589,0,0,0,0,0,0,0,0,0,-1,2008,435,0,0
791,589,0,0,0,0,0,0,0,0,0,-1,2015,435,0,0
798,589,0,0,0,0,0,0,0,0,0,-1,2022,435,0,0
805,589,0,0,0,0,0,0,0,0,0,-1,2029,435,0,0
812,589,0,0,0,0,0,0,0,0,0,-1,2036,435,0,0
-700,582,0,0,0,0,0,0,0,0,0,-1,524,442,0,0
-693,582,0,0,0,0,0,0,0,0,0,-1,531,442,0,0
-686,582,0,0,0,0,0,0,0,0,0,-1,538,442,0,0
-679,582,0,0,0,0,0,0,0,0,0,-1,545,442,0,0
-672,582,0,0,0,0,0,0,0,0,0,-1,552,442,0,0
-665,582,0,0,0,0,0,0,0,0,0,-1,559,442,0,0
-658,582,0,0,0,0,0,0,0,0,0,-1,566,442,0,0
-651,582,0,0,0,0,0,0,0,0,0,-1,573,442,0,0
-644,582,0,0,0,0,0,0,0,0,0,-1,580,442,0,0
-637,582,0,0,0,0,0,0,0,0,0,-1,587,442,0,0
-630,582,0,0,0,0,0,0,0,0,0,-1,594,442,0,0
-623,582,0,0,0,0,0,0,0,0,0,-1,601,442,0,0
-616,582,0,0,0,0,0,0,0,0,0,-1,608,442,0,0
-609,582,0,0,0,0,0,0,0,0,0,-1,615,442,0,0
-602,582,0,0,0,0,0,0,0,0,0,-1,622,442,0,0
-595,582,0,0,0,0,0,0,0,0,0,-1,629,442,0,0
-588,582,0,0,0,0,0,0,0,0,0,-1,636,442,0,0
-581,582,0,0,0,0,0,0,0,0,0,-1,643,442,0,0
-574,582,0,0,0,0,0,0,0,0,0,-1,650,442,0,0
-567,582,0,0,0,0,0,0,0,0,0,-1,657,442,0,0
-560,582,0,0,0,0,0,0,0,0,0,-1,664,442,0,0
-553,582,0,0,0,0,0,0,0,0,0,-1,671,442,0,0
-546,582,0,0,0,0,0,0,0,0,0,-1,678,442,0,0
-539,582,0,0,0,0,0,0,0,0,0,-1,685,442,0,0
-532,582,0,0,0,0,0,0,0,0,0,-1,692,442,0,0
-525,582,0,0,0,0,0,0,0,0,0,-1,699,442,0,0
-518,582,0,0,0,0,0,0,0,0,0,-1,706,442,0,0
-511,582,0,0,0,0,0,0,0,0,0,-1,713,442,0,0
-504,582,0,0,0,0,0,0,0,0,0,-1,720,442,0,0
-497,582,0,0,0,0,0,0,0,0,0,-1,727,442,0,0
-490,582,0,0,0,0,0,0,0,0,0,-1,734,442,0,0
-483,582,0,0,0,0,0,0,0,0,0,-1,741,442,0,0
-476,582,0,0,0,0,0,0,0,0,0,-1,748,442,0,0
-469,582,0,0,0,0,0,0,0,0,0,-1,755,442,0,0
-462,582,0,0,0,0,0,0,0,0,0,-1,762,442,0,0
-455,582,0,0,0,0,0,0,0,0,0,-1,769,442,0,0
-448,582,0,0,0,0,0,0,0,0,0,-1,776,442,0,0
-441,582,0,0,0,0,0,0,0,0,0,-1,783,442,0,0
-434,582,0,0,0,0,0,0,0,0,0,-1,790,442,0,0
-427,582,0,0,0,0,0,0,0,0,0,-1,797,442,0,0
-420,582,0,0,0,0,0,0,0,0,0,-1,804,442,0,0
-413,582,0,0,0,0,0,0,0,0,0,-1,811,442,0,0
-406,582,0,0,0,0,0,0,0,0,0,-1,818,442,0,0
-399,582,0,0,0,0,0,0,0,0,0,-1,825,442,0,0
-392,582,0,0,0,0,0,0,0,0,0,-1,832,442,0,0
-385,582,0,0,0,0,0,0,0,0,0,-1,839,442,0,0
-378,582,0,0,0,0,0,0,0,0,0,-1,846,442,0,0
-371,582,0,0,0,0,0,0,0,0,0,-1,853,442,0,0
-364,582,0,0,0,0,0,0,0,0,0,-1,860,442,0,0
-357,582,-1.4903,-21.5295,0,0,0,0,0,0,0,-1,867,442,-1.49031,21.5295
-350,582,-0.880859,-19.7966,0,0,0,0,0,0,0,-1,874,442,-0.880885,19.7966
-343,582,0.939941,-19.1705,0,0,0,0,0,0,0,-1,881,442,0.939935,19.1705
-336,582,3.33929,-27.9479,0,0,0,0,0,0,0,-1,888,442,3.33928,27.9479
-329,582,3.63544,-26.4736,0,0,0,0,0,0,0,-1,895,442,3.63546,26.4736
-322,582,3.67145,-27.1796,0,0,0,0,0,0,0,-1,902,442,3.67143,27.1796
-315,582,3.90686,-27.6446,0,0,0,0,0,0,0,-1,909,442,3.90689,27.6446
-308,582,4.07587,-33.1895,0,0,0,0,0,0,0,-1,916,442,4.07588,33.1895
-301,582,4.73688,-36.9584,0,0,0,0,0,0,0,-1,923,442,4.73688,36.9584
-294,582,4.42743,-37.5205,0,0,0,0,0,0,0,-1,930,442,4.42742,37.5205
-287,582,4.4447,-38.4956,-0.000653315,0.014491,-0.00784901,0.017825,-0.00398732,-1.16912,0.0134115,0.0395083,937,442,4.44469,38.4956
-280,582,4.42798,-39.4007,-0.00072515,0.0132077,-0.00740873,0.0164108,-0.00392831,-1.16272,0.0124582,0.019853,944,442,4.42799,39.4007
-273,582,4.42444,-40.3064,-0.000731653,0.0122271,-0.00702086,0.0153015,-0.00380606,-1.15805,0.0116783,0.0138166,951,442,4.42447,40.3064
-266,582,4.3576,-41.1236,-0.000926051,0.0110368,-0.00659266,0.0139571,-0.00384634,-1.15381,0.0108173,0.0116778,958,442,4.35758,41.1236
-259,582,4.29138,-41.9342,-0.000774585,0.00971487,-0.00609129,0.0125082,-0.00356796,-1.14083,0.00974828,0.00981156,965,442,4.29136,41.9342
-252,582,4.24072,-42.7479,-0.000508387,0.00871899,-0.00533729,0.0111603,-0.00294968,-1.1418,0.00859384,0.00882571,972,442,4.2407,42.7479
-245,582,4.19995,-43.4952,-0.000223649,0.00746745,-0.00459615,0.00961463,-0.00237083,-1.13376,0.00732899,0.0120698,979,442,4.19993,43.4952
-238,582,4.14056,-44.2323,8.86548e-05,0.00597416,-0.00380889,0.00784467,-0.00178185,-1.1143,0.0059139,0.017437,986,442,4.14058,44.2323
-231,582,4.08185,-44.9721,0.000389443,0.00438811,-0.00295977,0.00596055,-0.001183,-1.08245,0.00442111,0.0144093,993,442,4.08187,44.9721
-224,582,4.03265,-45.7432,0.000764609,0.00289742,-0.00224107,0.00431287,-0.000650842,-1.00747,0.00311494,0.0109805,1000,442,4.03266,45.7432
-217,582,3.98969,-46.5015,0.00114453,0.00123202,-0.00153813,0.00272703,-0.000350482,-0.799615,0.0019454,0.0128695,1007,442,3.9897,46.5015
-210,582,3.98102,-47.2132,0.00150464,-0.00043119,-0.000901658,0.00185954,-0.000786093,-0.374987,0.00156881,0.014378,1014,442,3.98101,47.2132
-203,582,3.98254,-47.9254,0.00184961,-0.00195933,-0.000308991,0.00187452,-0.00198423,-0.0804218,0.00222815,0.0114634,1021,442,3.9826,47.9254
-196,582,3.95105,-48.6735,0.00207085,-0.00343031,0.00030318,0.00208751,-0.00344697,0.0548904,0.0032273,0.0173453,1028,442,3.95108,48.6735
-189,582,3.91943,-49.3682,0.00219165,-0.00478542,0.000984317,0.00232786,-0.00492162,0.137504,0.00427386,0.0262904,1035,442,3.91949,49.3682
-182,582,3.90454,-50.012,0.00226478,-0.00597193,0.00194417,0.00270062,-0.00640777,0.220529,0.00540196,0.0182153,1042,442,3.90448,50.012
-175,582,3.87854,-50.6418,0.00233898,-0.0069756,0.00278337,0.00310732,-0.00774395,0.269341,0.0064528,0.0159938,1049,442,3.87857,50.6418
-168,582,3.88745,-51.3298,0.00225687,-0.00778096,0.00371327,0.00348118,-0.00900527,0.318488,0.0074405,0.0128031,1056,442,3.88746,51.3298
-161,582,3.8822,-51.9746,0.0020834,-0.00844535,0.00476315,0.00391841,-0.0102804,0.367727,0.00846752,0.0136355,1063,442,3.88217,51.9746
-154,582,3.86987,-52.5933,0.00188636,-0.0089149,0.00595385,0.00452409,-0.0115526,0.417041,0.00957301,0.0129521,1070,442,3.86987,52.5933
-147,582,3.89563,-53.2115,0.00176388,-0.00907941,0.00716109,0.00532419,-0.0126397,0.461384,0.0106543,0.0121541,1077,442,3.89567,53.2115
-140,582,3.88733,-53.7745,0.00173096,-0.00937557,0.00847729,0.00631195,-0.0139566,0.495431,0.0119763,0.0142734,1084,442,3.88731,53.7745
-133,582,3.94983,-54.3797,0.00175361,-0.00941424,0.00964126,0.00731123,-0.0149719,0.522917,0.0131161,0.0211938,1091,442,3.94987,54.3797
-126,582,3.99878,-54.8734,0.00205626,-0.00916902,0.010467,0.00832048,-0.0154332,0.539296,0.0139177,0.0202499,1098,442,3.99878,54.8735
-119,582,4.0072,-55.4316,0,0,0,0,0,0,0,-1,1105,442,4.00721,55.4316
-112,582,3.47888,-53.7394,0,0,0,0,0,0,0,-1,1112,442,3.47883,53.7394
-105,582,2.87219,-43.073,0,0,0,0,0,0,0,-1,1119,442,2.87217,43.073
-98,582,2.61938,-32.8673,0,0,0,0,0,0,0,-1,1126,442,2.61944,32.8673
-91,582,2.16492,-24.1119,0,0,0,0,0,0,0,-1,1133,442,2.16496,24.1119
-84,582,2.10278,-16.7533,0,0,0,0,0,0,0,-1,1140,442,2.10279,16.7533
-77,582,2.30212,-11.4907,0,0,0,0,0,0,0,-1,1147,442,2.30207,11.4907
-70,582,1.49255,-6.36548,0,0,0,0,0,0,0,-1,1154,442,1.49251,6.36549
-63,582,-4.62915,-4.0347,0,0,0,0,0,0,0,-1,1161,442,-4.6292,4.03471
-56,582,-5.81714,-5.24149,0,0,0,0,0,0,0,-1,1168,442,-5.81718,5.24149
-49,582,-3.88672,-10.1064,0,0,0,0,0,0,0,-1,1175,442,-3.88678,10.1064
-42,582,-0.948975,1.13968,0,0,0,0,0,0,0,-1,1182,442,-0.949003,-1.13969
-35,582,-2.58435,-3.86911,0,0,0,0,0,0,0,-1,1189,442,-2.58437,3.86912
-28,582,-0.825317,-3.45941,0,0,0,0,0,0,0,-1,1196,442,-0.825377,3.45942
-21,582,6.59546,-58.0933,0,0,0,0,0,0,0,-1,1203,442,6.59548,58.0932
-14,582,7.25928,-57.6792,0,0,0,0,0,0,0,-1,1210,442,7.25929,57.6792
-7,582,7.57715,-57.6945,0,0,0,0,0,0,0,-1,1217,442,7.57709,57.6945
0,582,8.09692,-57.7658,0,0,0,0,0,0,0,-1,1224,442,8.09688,57.7658
7,582,8.63098,-57.8768,0,0,0,0,0,0,0,-1,1231,442,8.63093,57.8768
14,582,9.18384,-57.9967,0,0,0,0,0,0,0,-1,1238,442,9.18378,57.9967
21,582,7.95068,-60.2253,0,0,0,0,0,0,0,-1,1245,442,7.95067,60.2253
28,582,7.16028,-60.7377,0,0,0,0,0,0,0,-1,1252,442,7.16023,60.7377
35,582,6.74939,-60.7141,0,0,0,0,0,0,0,-1,1259,442,6.7494,60.7141
42,582,6.40466,-61.1324,0,0,0,0,0,0,0,-1,1266,442,6.40464,61.1324
49,582,6.79175,-61.3176,0,0,0,0,0,0,0,-1,1273,442,6.79173,61.3176
56,582,6.67297,-61.6319,0,0,0,0,0,0,0,-1,1280,442,6.67294,61.6319
63,582,6.32068,-61.9427,0,0,0,0,0,0,0,-1,1287,442,6.32065,61.9427
70,582,6.5542,-62.2084,0,0,0,0,0,0,0,-1,1294,442,6.55423,62.2084
77,582,6.97083,-62.6562,0,0,0,0,0,0,0,-1,1301,442,6.97086,62.6562
84,582,6.97961,-63.454,0,0,0,0,0,0,0,-1,1308,442,6.97964,63.454
91,582,7.0647,-64.2015,0,0,0,0,0,0,0,-1,1315,442,7.06469,64.2015
98,582,7.0155,-64.9038,0,0,0,0,0,0,0,-1,1322,442,7.0155,64.9038
105,582,7.43921,-64.5529,0,0,0,0,0,0,0,-1,1329,442,7.43923,64.5529
112,582,7.72717,-65.0623,0,0,0,0,0,0,0,-1,1336,442,7.72722,65.0623
119,582,8.02979,-65.5062,0,0,0,0,0,0,0,-1,1343,442,8.02981,65.5062
126,582,8.33154,-66.0327,0,0,0,0,0,0,0,-1,1350,442,8.3315,66.0326
133,582,8.66382,-66.5813,0,0,0,0,0,0,0,-1,1357,442,8.66384,66.5813
140,582,7.45911,-67.64,0,0,0,0,0,0,0,-1,1364,442,7.4591,67.64
147,582,7.22876,-68.7025,0,0,0,0,0,0,0,-1,1371,442,7.2288,68.7025
154,582,7.19885,-69.5715,0,0,0,0,0,0,0,-1,1378,442,7.19885,69.5715
161,582,4.90588,-99.9568,0,0,0,0,0,0,0,-1,1385,442,4.90585,99.9568
168,582,0.081665,-40.4535,0,0,0,0,0,0,0,-1,1392,442,0.0816215,40.4535
175,582,6.50549,-2.00424,0,0,0,0,0,0,0,-1,1399,442,6.50546,2.00425
182,582,5.18958,-2.18652,0,0,0,0,0,0,0,-1,1406,442,5.1896,2.18652
189,582,6.19751,-0.880951,0,0,0,0,0,0,0,-1,1413,442,6.19754,0.88096
196,582,4.87354,-2.22327,0,0,0,0,0,0,0,-1,1420,442,4.87348,2.22325
203,582,3.11401,-4.48257,0,0,0,0,0,0,0,-1,1427,442,3.11404,4.48259
210,582,2.93115,-11.0731,0,0,0,0,0,0,0,-1,1434,442,2.93113,11.0731
217,582,4.94092,-16.5476,0,0,0,0,0,0,0,-1,1441,442,4.94087,16.5476
224,582,5.21008,-20.9908,0,0,0,0,0,0,0,-1,1448,442,5.21006,20.9908
231,582,5.70032,-25.622,0,0,0,0,0,0,0,-1,1455,442,5.70026,25.6221
238,582,6.44189,-30.7028,0,0,0,0,0,0,0,-1,1462,442,6.44195,30.7028
245,582,10.0378,-45.1569,0,0,0,0,0,0,0,-1,1469,442,10.0379,45.1568
252,582,11.7264,-54.9541,0,0,0,0,0,0,0,-1,1476,442,11.7264,54.9541
259,582,11.678,-54.3553,0.00726303,-0.00507674,-0.00198476,0.00757441,-0.00538812,-0.155615,0.00751932,0.0367394,1483,442,11.678,54.3554
266,582,11.7072,-53.657,0.0062088,-0.00559041,-0.00219108,0.00660254,-0.00598415,-0.177803,0.00726985,0.0138381,1490,442,11.7072,53.657
273,582,11.7323,-53.0488,0.00525382,-0.00583615,-0.00227819,0.00570358,-0.00628592,-0.194915,0.00692486,0.0112233,1497,442,11.7323,53.0488
280,582,11.743,-52.4321,0.0044146,-0.00585679,-0.00229209,0.00490287,-0.00634506,-0.209889,0.00651177,0.0115758,1504,442,11.7431,52.4321
287,582,11.7523,-51.7806,0.00352827,-0.00578712,-0.00241715,0.00411812,-0.00637697,-0.239349,0.00610595,0.0112331,1511,442,11.7523,51.7806
294,582,11.755,-51.0941,0.00276713,-0.00582321,-0.00236149,0.0033735,-0.00642958,-0.251345,0.00575076,0.00937479,1518,442,11.755,51.0941
301,582,11.7521,-50.3907,0.00210549,-0.00554242,-0.00224301,0.00271479,-0.00615171,-0.265242,0.00524571,0.0106366,1525,442,11.7521,50.3906
308,582,11.7462,-49.7032,0.0016056,-0.00494148,-0.00200422,0.00217041,-0.00550629,-0.274689,0.00456951,0.0132486,1532,442,11.7462,49.7032
315,582,11.7224,-49.0201,0.00124913,-0.00415338,-0.00162738,0.00170147,-0.00460572,-0.271111,0.00376795,0.0146199,1539,442,11.7225,49.0201
322,582,11.6963,-48.3005,0.000950464,-0.00306207,-0.00109744,0.001231,-0.00334261,-0.250272,0.00273278,0.0117742,1546,442,11.6963,48.3005
329,582,11.6646,-47.5885,0.000812679,-0.00186592,-0.000431317,0.000880418,-0.00193366,-0.155779,0.00166221,0.0108008,1553,442,11.6646,47.5885
336,582,11.6437,-46.8755,0.00082613,-0.000437258,0.000325322,0.00090498,-0.000516107,0.237787,0.000830641,0.0109045,1560,442,11.6437,46.8755
343,582,11.624,-46.1398,0.000966611,0.00103614,0.00124258,0.00224444,-0.00024169,0.799383,0.00158302,0.0132545,1567,442,11.624,46.1398
350,582,11.5984,-45.3986,0.0012158,0.00300516,0.00230329,0.00458143,-0.000360472,0.970647,0.00318126,0.0165145,1574,442,11.5984,45.3986
357,582,11.5615,-44.627,0.00152285,0.00488495,0.00340023,0.00699699,-0.00058919,1.01497,0.00487294,0.0149245,1581,442,11.5615,44.627
364,582,11.5037,-43.8512,0.00181254,0.00664989,0.00448202,0.0093242,-0.000861761,1.03283,0.00652239,0.0113915,1588,442,11.5036,43.8512
371,582,11.4313,-43.0869,0.00206295,0.0083566,0.00555355,0.0115929,-0.00117336,1.04316,0.00814794,0.0158938,1595,442,11.4312,43.0869
378,582,11.3699,-42.3146,0.00222077,0.0100035,0.00650223,0.0136899,-0.00146557,1.05504,0.00965225,0.0170394,1602,442,11.3698,42.3146
385,582,11.3385,-41.5143,0.00227142,0.0113579,0.00716801,0.0153012,-0.00167189,1.06786,0.0108013,0.0121404,1609,442,11.3385,41.5142
392,582,11.2791,-40.6956,0.00239719,0.0124172,0.00776279,0.0166463,-0.0018319,1.07196,0.0117559,0.0109059,1616,442,11.279,40.6957
399,582,11.2095,-39.9001,0.00278323,0.0130916,0.00853195,0.0179054,-0.00203052,1.05711,0.0126681,0.019275,1623,442,11.2095,39.9001
406,582,11.1638,-38.9869,0.00276326,0.0136821,0.00897613,0.0187287,-0.00228333,1.05862,0.0133123,0.0347326,1630,442,11.1638,38.9869
413,582,11.14,-38.0498,0,0,0,0,0,0,0,-1,1637,442,11.1401,38.0498
420,582,10.9104,-37.306,0,0,0,0,0,0,0,-1,1644,442,10.9104,37.306
427,582,10.7354,-36.47,0,0,0,0,0,0,0,-1,1651,442,10.7354,36.47
434,582,10.5055,-35.7839,0,0,0,0,0,0,0,-1,1658,442,10.5055,35.7839
441,582,10.3079,-34.5727,0,0,0,0,0,0,0,-1,1665,442,10.3079,34.5727
448,582,11.2651,-32.8669,0,0,0,0,0,0,0,-1,1672,442,11.2651,32.8668
455,582,6.4585,-19.4734,0,0,0,0,0,0,0,-1,1679,442,6.45854,19.4734
462,582,5.35022,-19.2616,0,0,0,0,0,0,0,-1,1686,442,5.35025,19.2616
469,582,6.28601,-21.5695,0,0,0,0,0,0,0,-1,1693,442,6.28597,21.5695
476,582,1.93579,-8.53891,0,0,0,0,0,0,0,-1,1700,442,1.93579,8.53892
483,582,0,0,0,0,0,0,0,0,0,-1,1707,442,0,0
490,582,0,0,0,0,0,0,0,0,0,-1,1714,442,0,0
497,582,0,0,0,0,0,0,0,0,0,-1,1721,442,0,0
504,582,0,0,0,0,0,0,0,0,0,-1,1728,442,0,0
511,582,0,0,0,0,0,0,0,0,0,-1,1735,442,0,0
518,582,0,0,0,0,0,0,0,0,0,-1,1742,442,0,0
525,582,0,0,0,0,0,0,0,0,0,-1,1749,442,0,0
532,582,0,0,0,0,0,0,0,0,0,-1,1756,442,0,0
539,582,0,0,0,0,0,0,0,0,0,-1,1763,442,0,0
546,582,0,0,0,0,0,0,0,0,0,-1,1770,442,0,0
553,582,0,0,0,0,0,0,0,0,0,-1,1777,442,0,0
560,582,0,0,0,0,0,0,0,0,0,-1,1784,442,0,0
567,582,0,0,0,0,0,0,0,0,0,-1,1791,442,0,0
574,582,0,0,0,0,0,0,0,0,0,-1,1798,442,0,0
581,582,0,0,0,0,0,0,0,0,0,-1,1805,442,0,0
588,582,0,0,0,0,0,0,0,0,0,-1,1812,442,0,0
595,582,0,0,0,0,0,0,0,0,0,-1,1819,442,0,0
602,582,0,0,0,0,0,0,0,0,0,-1,1826,442,0,0
609,582,0,0,0,0,0,0,0,0,0,-1,1833,442,0,0
616,582,0,0,0,0,0,0,0,0,0,-1,1840,442,0,0
623,582,0,0,0,0,0,0,0,0,0,-1,1847,442,0,0
630,582,0,0,0,0,0,0,0,0,0,-1,1854,442,0,0
637,582,0,0,0,0,0,0,0,0,0,-1,1861,442,0,0
644,582,0,0,0,0,0,0,0,0,0,-1,1868,442,0,0
651,582,0,0,0,0,0,0,0,0,0,-1,1875,442,0,0
658,582,0,0,0,0,0,0,0,0,0,-1,1882,442,0,0
665,582,0,0,0,0,0,0,0,0,0,-1,1889,442,0,0
672,582,0,0,0,0,0,0,0,0,0,-1,1896,442,0,0
679,582,0,0,0,0,0,0,0,0,0,-1,1903,442,0,0
686,582,0,0,0,0,0,0,0,0,0,-1,1910,442,0,0
693,582,0,0,0,0,0,0,0,0,0,-1,1917,442,0,0
700,582,0,0,0,0,0,0,0,0,0,-1,1924,442,0,0
707,582,0,0,0,0,0,0,0,0,0,-1,1931,442,0,0
714,582,0,0,0,0,0,0,0,0,0,-1,1938,442,0,0
721,582,0,0,0,0,0,0,0,0,0,-1,1945,442,0,0
728,582,0,0,0,0,0,0,0,0,0,-1,1952,442,0,0
735,582,0,0,0,0,0,0,0,0,0,-1,1959,442,0,0
742,582,0,0,0,0,0,0,0,0,0,-1,1966,442,0,0
749,582,0,0,0,0,0,0,0,0,0,-1,1973,442,0,0
756,582,0,0,0,0,0,0,0,0,0,-1,1980,442,0,0
763,582,0,0,0,0,0,0,0,0,0,-1,1987,442,0,0
770,582,0,0,0,0,0,0,0,0,0,-1,1994,442,0,0
777,582,0,0,0,0,0,0,0,0,0,-1,2001,442,0,0
784,582,0,0,0,0,0,0,0,0,0,-1,2008,442,0,0
791,582,0,0,0,0,0,0,0,0,0,-1,2015,442,0,0
798,582,0,0,0,0,0,0,0,0,0,-1,2022,442,0,0
805,582,0,0,0,0,0,0,0,0,0,-1,2029,442,0,0
812,582,0,0,0,0,0,0,0,0,0,-1,2036,442,0,0
-700,575,0,0,0,0,0,0,0,0,0,-1,524,449,0,0
-693,575,0,0,0,0,0,0,0,0,0,-1,531,449,0,0
-686,575,0,0,0,0,0,0,0,0,0,-1,538,449,0,0
-679,575,0,0,0,0,0,0,0,0,0,-1,545,449,0,0
-672,575,0,0,0,0,0,0,0,0,0,-1,552,449,0,0
-665,575,0,0,0,0,0,0,0,0,0,-1,559,449,0,0
-658,575,0,0,0,0,0,0,0,0,0,-1,566,449,0,0
-651,575,0,0,0,0,0,0,0,0,0,-1,573,449,0,0
-644,575,0,0,0,0,0,0,0,0,0,-1,580,449,0,0
-637,575,0,0,0,0,0,0,0,0,0,-1,587,449,0,0
-630,575,0,0,0,0,0,0,0,0,0,-1,594,449,0,0
-623,575,0,0,0,0,0,0,0,0,0,-1,601,449,0,0
-616,575,0,0,0,0,0,0,0,0,0,-1,608,449,0,0
-609,575,0,0,0,0,0,0,0,0,0,-1,615,449,0,0
-602,575,0,0,0,0,0,0,0,0,0,-1,622,449,0,0
-595,575,0,0,0,0,0,0,0,0,0,-1,629,449,0,0
-588,575,0,0,0,0,0,0,0,0,0,-1,636,449,0,0
-581,575,0,0,0,0,0,0,0,0,0,-1,643,449,0,0
-574,575,0,0,0,0,0,0,0,0,0,-1,650,449,0,0
-567,575,0,0,0,0,0,0,0,0,0,-1,657,449,0,0
-560,575,0,0,0,0,0,0,0,0,0,-1,664,449,0,0
-553,575,0,0,0,0,0,0,0,0,0,-1,671,449,0,0
-546,575,0,0,0,0,0,0,0,0,0,-1,678,449,0,0
-539,575,0,0,0,0,0,0,0,0,0,-1,685,449,0,0
-532,575,0,0,0,0,0,0,0,0,0,-1,692,449,0,0
-525,575,0,0,0,0,0,0,0,0,0,-1,699,449,0,0
-518,575,0,0,0,0,0,0,0,0,0,-1,706,449,0,0
-511,575,0,0,0,0,0,0,0,0,0,-1,713,449,0,0
-504,575,0,0,0,0,0,0,0,0,0,-1,720,449,0,0
-497,575,0,0,0,0,0,0,0,0,0,-1,727,449,0,0
-490,575,0,0,0,0,0,0,0,0,0,-1,734,449,0,0
-483,575,0,0,0,0,0,0,0,0,0,-1,741,449,0,0
-476,575,0,0,0,0,0,0,0,0,0,-1,748,449,0,0
-469,575,0,0,0,0,0,0,0,0,0,-1,755,449,0,0
-462,575,0,0,0,0,0,0,0,0,0,-1,762,449,0,0
-455,575,0,0,0,0,0,0,0,0,0,-1,769,449,0,0
-448,575,0,0,0,0,0,0,0,0,0,-1,776,449,0,0
-441,575,0,0,0,0,0,0,0,0,0,-1,783,449,0,0
-434,575,0,0,0,0,0,0,0,0,0,-1,790,449,0,0
-427,575,0,0,0,0,0,0,0,0,0,-1,797,449,0,0
-420,575,0,0,0,0,0,0,0,0,0,-1,804,449,0,0
-413,575,0,0,0,0,0,0,0,0,0,-1,811,449,0,0
-406,575,0,0,0,0,0,0,0,0,0,-1,818,449,0,0
-399,575,0,0,0,0,0,0,0,0,0,-1,825,449,0,0
-392,575,0,0,0,0,0,0,0,0,0,-1,832,449,0,0
-385,575,0,0,0,0,0,0,0,0,0,-1,839,449,0,0
-378,575,0,0,0,0,0,0,0,0,0,-1,846,449,0,0
-371,575,0.56897,-3.52304,0,0,0,0,0,0,0,-1,853,449,0.568955,3.52306
-364,575,1.49805,-4.67191,0,0,0,0,0,0,0,-1,860,449,1.49803,4.6719
-357,575,3.15521,-8.29892,0,0,0,0,0,0,0,-1,867,449,3.15521,8.29891
-350,575,-0.825928,-18.5347,0,0,0,0,0,0,0,-1,874,449,-0.825948,18.5347
-343,575,0.465393,-16.3569,0,0,0,0,0,0,0,-1,881,449,0.465397,16.3569
-336,575,3.1994,-17.5725,0,0,0,0,0,0,0,-1,888,449,3.19941,17.5725
-329,575,2.81946,-29.1576,0,0,0,0,0,0,0,-1,895,449,2.81945,29.1576
-322,575,4.28943,-27.9487,0,0,0,0,0,0,0,-1,902,449,4.28944,27.9487
-315,575,5.53546,-33.0593,0,0,0,0,0,0,0,-1,909,449,5.53547,33.0593
-308,575,3.77985,-36.3065,0,0,0,0,0,0,0,-1,916,449,3.77988,36.3065
-301,575,3.94751,-37.0211,1.82889e-05,0.0150477,-0.00714932,0.0179052,-0.00283925,-1.19055,0.0129871,0.0433011,923,449,3.94748,37.0211
-294,575,3.87433,-37.7272,-0.000336403,0.0129635,-0.00660038,0.015683,-0.00305592,-1.17997,0.0116088,0.0264388,930,449,3.87433,37.7272
-287,575,3.76813,-38.6189,-0.000642562,0.0114098,-0.00607207,0.0139384,-0.00317119,-1.1762,0.0105101,0.0175153,937,449,3.76813,38.6189
-280,575,3.73511,-39.4956,-0.000626155,0.0101642,-0.00568212,0.0126045,-0.00306644,-1.16515,0.00958996,0.0140756,944,449,3.73508,39.4956
-273,575,3.68414,-40.3178,-0.00056584,0.00913951,-0.00530812,0.0114788,-0.00290514,-1.1557,0.00878258,0.0130291,951,449,3.68415,40.3178
-266,575,3.63403,-41.1192,-0.000662341,0.00791147,-0.0048752,0.0101165,-0.00286736,-1.14604,0.00787606,0.014055,958,449,3.63403,41.1192
-259,575,3.54779,-41.9131,-0.000442519,0.00648585,-0.00435447,0.00858602,-0.00254269,-1.12141,0.00673355,0.0136752,965,449,3.54782,41.9132
-252,575,3.4632,-42.6883,-0.000104702,0.0053267,-0.00358412,0.00710776,-0.00188577,-1.1096,0.00547642,0.0122133,972,449,3.46318,42.6883
-245,575,3.40204,-43.4429,0.000246654,0.00394361,-0.00283079,0.005476,-0.00128573,-1.07464,0.00414623,0.0149789,979,449,3.40201,43.4429
-238,575,3.38263,-44.1892,0.000636111,0.00230309,-0.00203028,0.00366431,-0.000725107,-0.980174,0.00271702,0.0152355,986,449,3.38265,44.1892
-231,575,3.35352,-44.9478,0.00100798,0.000546065,-0.00117245,0.001972,-0.000417959,-0.68815,0.00147388,0.0139167,993,449,3.35351,44.9478
-224,575,3.29877,-45.705,0.00142344,-0.00114324,-0.000407177,0.00148649,-0.00120629,-0.153616,0.00155748,0.0133701,1000,449,3.29875,45.705
-217,575,3.28528,-46.4433,0.00186703,-0.00296724,0.000329941,0.00188944,-0.00298966,0.0678311,0.00284072,0.0112345,1007,449,3.2853,46.4433
-210,575,3.29877,-47.1877,0.0022999,-0.00477013,0.000976571,0.00243231,-0.00490255,0.134767,0.00431409,0.0100795,1014,449,3.29876,47.1877
-203,575,3.28284,-47.8972,0.00271235,-0.00636107,0.00155451,0.00297128,-0.00662,0.165056,0.00566952,0.0130461,1021,449,3.28281,47.8972
-196,575,3.26782,-48.6184,0.00296345,-0.00783927,0.00214238,0.00337281,-0.00824863,0.188802,0.00690368,0.017903,1028,449,3.26776,48.6184
-189,575,3.23315,-49.3121,0.00304246,-0.00919063,0.00285968,0.00367794,-0.00982611,0.218668,0.00806142,0.0192961,1035,449,3.2331,49.3121
-182,575,3.19434,-49.9482,0.00304205,-0.0102959,0.00394049,0.00411921,-0.0113731,0.266839,0.00926552,0.0171502,1042,449,3.19436,49.9482
-175,575,3.20276,-50.6029,0.00306155,-0.011164,0.00483574,0.0045497,-0.0126522,0.298542,0.0102922,0.0141155,1049,449,3.20276,50.6029
-168,575,3.18494,-51.2715,0.00287102,-0.01179,0.00584224,0.00491431,-0.0138333,0.336446,0.0112248,0.0119348,1056,449,3.18493,51.2715
-161,575,3.18799,-51.9244,0.00249732,-0.0122783,0.00703087,0.00530817,-0.0150892,0.380323,0.0122194,0.0162413,1063,449,3.18803,51.9244
-154,575,3.21802,-52.5423,0.00202035,-0.0125404,0.00847967,0.00591624,-0.0164363,0.430675,0.0133732,0.0170927,1070,449,3.21805,52.5423
-147,575,3.23413,-53.1139,0.00154836,-0.0124263,0.010055,0.00680546,-0.0176834,0.481748,0.0145962,0.0145344,1077,449,3.23418,53.1139
-140,575,3.17737,-53.6092,0.00116977,-0.012538,0.0118918,0.00804142,-0.0194097,0.523972,0.0162956,0.0237445,1084,449,3.17736,53.6092
-133,575,3.30566,-54.0359,0.000815673,-0.0123358,0.0136243,0.00936817,-0.0208883,0.560564,0.0178856,0.041213,1091,449,3.30568,54.0359
-126,575,3.28992,-54.4557,0,0,0,0,0,0,0,-1,1098,449,3.28993,54.4557
-119,575,3.00208,-52.3971,0,0,0,0,0,0,0,-1,1105,449,3.00204,52.3971
-112,575,2.70337,-43.3701,0,0,0,0,0,0,0,-1,1112,449,2.70333,43.3701
-105,575,2.18347,-36.5414,0,0,0,0,0,0,0,-1,1119,449,2.18351,36.5414
-98,575,1.521,-25.6961,0,0,0,0,0,0,0,-1,1126,449,1.52105,25.6961
-91,575,1.60803,-16.4247,0,0,0,0,0,0,0,-1,1133,449,1.60802,16.4247
-84,575,1.16553,-11.9056,0,0,0,0,0,0,0,-1,1140,449,1.16558,11.9056
-77,575,0.205078,-11.2584,0,0,0,0,0,0,0,-1,1147,449,0.205117,11.2584
-70,575,-4.2467,-1.78738,0,0,0,0,0,0,0,-1,1154,449,-4.24674,1.78739
-63,575,-4.52209,-3.48798,0,0,0,0,0,0,0,-1,1161,449,-4.5221,3.48796
-56,575,-5.5968,-5.4928,0,0,0,0,0,0,0,-1,1168,449,-5.59683,5.49281
-49,575,-5.96863,-7.17612,0,0,0,0,0,0,0,-1,1175,449,-5.96868,7.1761
-42,575,-0.830322,0.773499,0,0,0,0,0,0,0,-1,1182,449,-0.83038,-0.77351
-35,575,-0.62085,0.205139,0,0,0,0,0,0,0,-1,1189,449,-0.620855,-0.205126
-28,575,0.49292,-3.87988,0,0,0,0,0,0,0,-1,1196,449,0.492941,3.87989
-21,575,4.89075,-58.5182,0,0,0,0,0,0,0,-1,1203,449,4.8907,58.5182
-14,575,5.43884,-58.5741,0,0,0,0,0,0,0,-1,1210,449,5.43879,58.5741
-7,575,5.72974,-58.4173,0,0,0,0,0,0,0,-1,1217,449,5.72979,58.4173
0,575,6.22888,-58.5089,0,0,0,0,0,0,0,-1,1224,449,6.22888,58.5089
7,575,6.77454,-58.6004,0,0,0,0,0,0,0,-1,1231,449,6.77451,58.6004
14,575,7.34131,-58.7918,0,0,0,0,0,0,0,-1,1238,449,7.3413,58.7918
21,575,7.86523,-60.844,0,0,0,0,0,0,0,-1,1245,449,7.86524,60.844
28,575,7.01782,-60.8227,0,0,0,0,0,0,0,-1,1252,449,7.01788,60.8227
35,575,6.00439,-60.8322,0,0,0,0,0,0,0,-1,1259,449,6.00439,60.8322
42,575,5.55872,-61.1915,0,0,0,0,0,0,0,-1,1266,449,5.55875,61.1915
49,575,5.44763,-61.3572,0,0,0,0,0,0,0,-1,1273,449,5.44768,61.3572
56,575,5.396,-61.5241,0,0,0,0,0,0,0,-1,1280,449,5.39595,61.5241
63,575,6.05322,-61.3638,0,0,0,0,0,0,0,-1,1287,449,6.05326,61.3638
70,575,6.69116,-61.5875,0,0,0,0,0,0,0,-1,1294,449,6.69116,61.5875
77,575,7.02466,-61.9539,0,0,0,0,0,0,0,-1,1301,449,7.0246,61.9539
84,575,6.37732,-62.5042,0,0,0,0,0,0,0,-1,1308,449,6.37737,62.5042
91,575,6.35754,-63.1191,0,0,0,0,0,0,0,-1,1315,449,6.35753,63.1191
98,575,6.34473,-63.7518,0,0,0,0,0,0,0,-1,1322,449,6.34475,63.7517
105,575,6.65063,-64.5006,0,0,0,0,0,0,0,-1,1329,449,6.65069,64.5006
112,575,7.12146,-64.899,0,0,0,0,0,0,0,-1,1336,449,7.12143,64.8991
119,575,7.46606,-65.3339,0,0,0,0,0,0,0,-1,1343,449,7.46605,65.3339
126,575,7.83984,-65.8038,0,0,0,0,0,0,0,-1,1350,449,7.83979,65.8038
133,575,8.224,-66.2567,0,0,0,0,0,0,0,-1,1357,449,8.22403,66.2567
140,575,7.76953,-67.8608,0,0,0,0,0,0,0,-1,1364,449,7.76955,67.8608
147,575,7.4574,-69.0998,0,0,0,0,0,0,0,-1,1371,449,7.45738,69.0998
154,575,7.19714,-69.9615,0,0,0,0,0,0,0,-1,1378,449,7.1971,69.9615
161,575,6.91699,-70.7592,0,0,0,0,0,0,0,-1,1385,449,6.91697,70.7592
168,575,7.5509,-35.3165,0,0,0,0,0,0,0,-1,1392,449,7.5509,35.3165
175,575,4.32617,1.93634,0,0,0,0,0,0,0,-1,1399,449,4.32612,-1.93634
182,575,6.3147,-2.88345,0,0,0,0,0,0,0,-1,1406,449,6.31466,2.88346
189,575,6.10449,-1.30817,0,0,0,0,0,0,0,-1,1413,449,6.10455,1.30817
196,575,5.79895,0.818359,0,0,0,0,0,0,0,-1,1420,449,5.79895,-0.81837
203,575,3.29724,-1.46378,0,0,0,0,0,0,0,-1,1427,449,3.29722,1.46377
210,575,2.32739,-7.74503,0,0,0,0,0,0,0,-1,1434,449,2.32741,7.74502
217,575,3.33618,-11.5521,0,0,0,0,0,0,0,-1,1441,449,3.3362,11.5521
224,575,5.51709,-16.3903,0,0,0,0,0,0,0,-1,1448,449,5.51713,16.3903
231,575,5.48572,-20.4595,0,0,0,0,0,0,0,-1,1455,449,5.48571,20.4595
238,575,5.33484,-22.3575,0,0,0,0,0,0,0,-1,1462,449,5.33478,22.3575
245,575,5.59741,-23.513,0,0,0,0,0,0,0,-1,1469,449,5.5974,23.513
252,575,10.5602,-44.9309,0,0,0,0,0,0,0,-1,1476,449,10.5602,44.9309
259,575,12.3333,-54.4838,0,0,0,0,0,0,0,-1,1483,449,12.3333,54.4838
266,575,12.3315,-53.5379,0.00752543,-0.00779447,-0.00303554,0.00810498,-0.00837402,-0.18865,0.00951458,0.036016,1490,449,12.3316,53.5379
273,575,12.4019,-52.9727,0.00633549,-0.00848252,-0.00335681,0.00706046,-0.00920749,-0.212703,0.00941953,0.0192404,1497,449,12.4019,52.9726
280,575,12.4388,-52.3232,0.00530953,-0.00885083,-0.00357897,0.0061627,-0.009704,-0.234016,0.00923638,0.0150069,1504,449,12.4388,52.3232
287,575,12.4171,-51.7196,0.00417303,-0.00908836,-0.00398865,0.00528026,-0.0101956,-0.270777,0.00908397,0.0140639,1511,449,12.4171,51.7196
294,575,12.4464,-51.0691,0.00327272,-0.00960145,-0.00410798,0.00447183,-0.0108006,-0.284008,0.00906637,0.0118642,1518,449,12.4464,51.0691
301,575,12.4611,-50.3752,0.00249885,-0.00960964,-0.00415504,0.00378751,-0.0108983,-0.300736,0.00880393,0.0107078,1525,449,12.4611,50.3753
308,575,12.4531,-49.6696,0.00186787,-0.00924022,-0.00404108,0.00318243,-0.0105548,-0.314503,0.00830317,0.0114389,1532,449,12.4532,49.6696
315,575,12.4233,-48.9901,0.00137825,-0.00861456,-0.00376356,0.00263711,-0.00987343,-0.32279,0.00761508,0.0117817,1539,449,12.4233,48.9901
322,575,12.4124,-48.2802,0.00100571,-0.00757931,-0.00325826,0.00210225,-0.00867585,-0.324636,0.00659726,0.0106129,1546,449,12.4124,48.2802
329,575,12.405,-47.5752,0.000793593,-0.00635433,-0.00258582,0.00163094,-0.00719168,-0.313168,0.00542052,0.0108144,1553,449,12.405,47.5752
336,575,12.3802,-46.8504,0.000711716,-0.00487589,-0.00183627,0.00126115,-0.00542532,-0.290733,0.0041024,0.0123577,1560,449,12.3803,46.8504
343,575,12.3657,-46.0794,0.000741538,-0.00338448,-0.000943495,0.000947051,-0.00358999,-0.21447,0.00276364,0.0131068,1567,449,12.3657,46.0794
350,575,12.3406,-45.3312,0.000925047,-0.00127298,0.00014045,0.000933985,-0.00128191,0.0635538,0.0012846,0.0124413,1574,449,12.3406,45.3312
357,575,12.298,-44.5714,0.0011735,0.000837376,0.00128572,0.0023021,-0.000291226,0.720411,0.00164045,0.0117967,1581,449,12.298,44.5714
364,575,12.2401,-43.8115,0.00138722,0.00271656,0.00237622,0.00451932,-0.000415541,0.921772,0.00316051,0.0111233,1588,449,12.2402,43.8115
371,575,12.1747,-43.0748,0.00159369,0.00453987,0.00346377,0.00683077,-0.000697223,0.986454,0.00480315,0.0207289,1595,449,12.1747,43.0748
378,575,12.1215,-42.2937,0.00168187,0.00625216,0.00436801,0.00889666,-0.000962627,1.0264,0.00627664,0.0199264,1602,449,12.1215,42.2937
385,575,12.0763,-41.4765,0.00167008,0.00763715,0.00500785,0.0104829,-0.00117562,1.05405,0.00741159,0.0125898,1609,449,12.0762,41.4765
392,575,12.0199,-40.6956,0.00175329,0.00871888,0.00560463,0.0118347,-0.00136253,1.06341,0.00838098,0.0103926,1616,449,12.0199,40.6956
399,575,11.9559,-39.9321,0.0020192,0.00949454,0.00627346,0.0130594,-0.00154563,1.05406,0.00926454,0.0110532,1623,449,11.9559,39.9321
406,575,11.9232,-39.0836,0.00193062,0.0100694,0.00666037,0.0138052,-0.00180514,1.05963,0.00986041,0.0132422,1630,449,11.9233,39.0836
413,575,11.8845,-38.2475,0.00135768,0.010185,0.00668866,0.013785,-0.0022423,1.07704,0.0100214,0.0148216,1637,449,11.8845,38.2475
420,575,11.7888,-37.4036,0.000577421,0.0100866,0.00656064,0.0134344,-0.00277035,1.09896,0.0100083,0.0151198,1644,449,11.7888,37.4036
427,575,11.6887,-36.4861,7.8423e-05,0.0100598,0.00665444,0.0133871,-0.00324886,1.10714,0.0101819,0.0192474,1651,449,11.6887,36.4861
434,575,11.5454,-35.7402,-0.000666481,0.0100513,0.00658737,0.0131843,-0.00379942,1.12686,0.0102925,0.0308834,1658,449,11.5454,35.7402
441,575,11.6547,-35.0079,0,0,0,0,0,0,0,-1,1665,449,11.6547,35.0079
448,575,12.0911,-33.869,0,0,0,0,0,0,0,-1,1672,449,12.0911,33.869
455,575,11.7931,-31.6917,0,0,0,0,0,0,0,-1,1679,449,11.793,31.6917
462,575,7.12781,-21.7179,0,0,0,0,0,0,0,-1,1686,449,7.12778,21.7178
469,575,10.0648,-31.97,0,0,0,0,0,0,0,-1,1693,449,10.0648,31.97
476,575,10.3063,-31.0265,0,0,0,0,0,0,0,-1,1700,449,10.3063,31.0265
483,575,8.44177,-29.4231,0,0,0,0,0,0,0,-1,1707,449,8.44173,29.4231
490,575,7.42871,-25.5027,0,0,0,0,0,0,0,-1,1714,449,7.42869,25.5027
497,575,0,0,0,0,0,0,0,0,0,-1,1721,449,0,0
504,575,0,0,0,0,0,0,0,0,0,-1,1728,449,0,0
511,575,0,0,0,0,0,0,0,0,0,-1,1735,449,0,0
518,575,0,0,0,0,0,0,0,0,0,-1,1742,449,0,0
525,575,0,0,0,0,0,0,0,0,0,-1,1749,449,0,0
532,575,0,0,0,0,0,0,0,0,0,-1,1756,449,0,0
539,575,0,0,0,0,0,0,0,0,0,-1,1763,449,0,0
546,575,0,0,0,0,0,0,0,0,0,-1,1770,449,0,0
553,575,0,0,0,0,0,0,0,0,0,-1,1777,449,0,0
560,575,0,0,0,0,0,0,0,0,0,-1,1784,449,0,0
567,575,0,0,0,0,0,0,0,0,0,-1,1791,449,0,0
574,575,0,0,0,0,0,0,0,0,0,-1,1798,449,0,0
581,575,0,0,0,0,0,0,0,0,0,-1,1805,449,0,0
588,575,0,0,0,0,0,0,0,0,0,-1,1812,449,0,0
595,575,0,0,0,0,0,0,0,0,0,-1,1819,449,0,0
602,575,0,0,0,0,0,0,0,0,0,-1,1826,449,0,0
609,575,0,0,0,0,0,0,0,0,0,-1,1833,449,0,0
616,575,0,0,0,0,0,0,0,0,0,-1,1840,449,0,0
623,575,0,0,0,0,0,0,0,0,0,-1,1847,449,0,0
630,575,0,0,0,0,0,0,0,0,0,-1,1854,449,0,0
637,575,0,0,0,0,0,0,0,0,0,-1,1861,449,0,0
644,575,0,0,0,0,0,0,0,0,0,-1,1868,449,0,0
651,575,0,0,0,0,0,0,0,0,0,-1,1875,449,0,0
658,575,0,0,0,0,0,0,0,0,0,-1,1882,449,0,0
665,575,0,0,0,0,0,0,0,0,0,-1,1889,449,0,0
672,575,0,0,0,0,0,0,0,0,0,-1,1896,449,0,0
679,575,0,0,0,0,0,0,0,0,0,-1,1903,449,0,0
686,575,0,0,0,0,0,0,0,0,0,-1,1910,449,0,0
693,575,0,0,0,0,0,0,0,0,0,-1,1917,449,0,0
700,575,0,0,0,0,0,0,0,0,0,-1,1924,449,0,0
707,575,0,0,0,0,0,0,0,0,0,-1,1931,449,0,0
714,575,0,0,0,0,0,0,0,0,0,-1,1938,449,0,0
721,575,0,0,0,0,0,0,0,0,0,-1,1945,449,0,0
728,575,0,0,0,0,0,0,0,0,0,-1,1952,449,0,0
735,575,0,0,0,0,0,0,0,0,0,-1,1959,449,0,0
742,575,0,0,0,0,0,0,0,0,0,-1,1966,449,0,0
749,575,0,0,0,0,0,0,0,0,0,-1,1973,449,0,0
756,575,0,0,0,0,0,0,0,0,0,-1,1980,449,0,0
763,575,0,0,0,0,0,0,0,0,0,-1,1987,449,0,0
770,575,0,0,0,0,0,0,0,0,0,-1,1994,449,0,0
777,575,0,0,0,0,0,0,0,0,0,-1,2001,449,0,0
784,575,0,0,0,0,0,0,0,0,0,-1,2008,449,0,0
791,575,0,0,0,0,0,0,0,0,0,-1,2015,449,0,0
798,575,0,0,0,0,0,0,0,0,0,-1,2022,449,0,0
805,575,0,0,0,0,0,0,0,0,0,-1,2029,449,0,0
812,575,0,0,0,0,0,0,0,0,0,-1,2036,449,0,0
-700,568,0,0,0,0,0,0,0,0,0,-1,524,456,0,0
-693,568,0,0,0,0,0,0,0,0,0,-1,531,456,0,0
-686,568,0,0,0,0,0,0,0,0,0,-1,538,456,0,0
-679,568,0,0,0,0,0,0,0,0,0,-1,545,456,0,0
-672,568,0,0,0,0,0,0,0,0,0,-1,552,456,0,0
-665,568,0,0,0,0,0,0,0,0,0,-1,559,456,0,0
-658,568,0,0,0,0,0,0,0,0,0,-1,566,456,0,0
-651,568,0,0,0,0,0,0,0,0,0,-1,573,456,0,0
-644,568,0,0,0,0,0,0,0,0,0,-1,580,456,0,0
-637,568,0,0,0,0,0,0,0,0,0,-1,587,456,0,0
-630,568,0,0,0,0,0,0,0,0,0,-1,594,456,0,0
-623,568,0,0,0,0,0,0,0,0,0,-1,601,456,0,0
-616,568,0,0,0,0,0,0,0,0,0,-1,608,456,0,0
-609,568,0,0,0,0,0,0,0,0,0,-1,615,456,0,0
-602,568,0,0,0,0,0,0,0,0,0,-1,622,456,0,0
-595,568,0,0,0,0,0,0,0,0,0,-1,629,456,0,0
-588,568,0,0,0,0,0,0,0,0,0,-1,636,456,0,0
-581,568,0,0,0,0,0,0,0,0,0,-1,643,456,0,0
-574,568,0,0,0,0,0,0,0,0,0,-1,650,456,0,0
-567,568,0,0,0,0,0,0,0,0,0,-1,657,456,0,0
-560,568,0,0,0,0,0,0,0,0,0,-1,664,456,0,0
-553,568,0,0,0,0,0,0,0,0,0,-1,671,456,0,0
-546,568,0,0,0,0,0,0,0,0,0,-1,678,456,0,0
-539,568,0,0,0,0,0,0,0,0,0,-1,685,456,0,0
-532,568,0,0,0,0,0,0,0,0,0,-1,692,456,0,0
-525,568,0,0,0,0,0,0,0,0,0,-1,699,456,0,0
-518,568,0,0,0,0,0,0,0,0,0,-1,706,456,0,0
-511,568,0,0,0,0,0,0,0,0,0,-1,713,456,0,0
-504,568,0,0,0,0,0,0,0,0,0,-1,720,456,0,0
-497,568,0,0,0,0,0,0,0,0,0,-1,727,456,0,0
-490,568,0,0,0,0,0,0,0,0,0,-1,734,456,0,0
-483,568,0,0,0,0,0,0,0,0,0,-1,741,456,0,0
-476,568,0,0,0,0,0,0,0,0,0,-1,748,456,0,0
-469,568,0,0,0,0,0,0,0,0,0,-1,755,456,0,0
-462,568,0,0,0,0,0,0,0,0,0,-1,762,456,0,0
-455,568,0,0,0,0,0,0,0,0,0,-1,769,456,0,0
-448,568,0,0,0,0,0,0,0,0,0,-1,776,456,0,0
-441,568,0,0,0,0,0,0,0,0,0,-1,783,456,0,0
-434,568,0,0,0,0,0,0,0,0,0,-1,790,456,0,0
-427,568,0,0,0,0,0,0,0,0,0,-1,797,456,0,0
-420,568,0,0,0,0,0,0,0,0,0,-1,804,456,0,0
-413,568,0,0,0,0,0,0,0,0,0,-1,811,456,0,0
-406,568,0,0,0,0,0,0,0,0,0,-1,818,456,0,0
-399,568,0,0,0,0,0,0,0,0,0,-1,825,456,0,0
-392,568,0,0,0,0,0,0,0,0,0,-1,832,456,0,0
-385,568,0,0,0,0,0,0,0,0,0,-1,839,456,0,0
-378,568,0.321777,-7.29929,0,0,0,0,0,0,0,-1,846,456,0.321806,7.29927
-371,568,1.09595,-7.46707,0,0,0,0,0,0,0,-1,853,456,1.09597,7.46707
-364,568,2.70746,-23.4782,0,0,0,0,0,0,0,-1,860,456,2.70746,23.4782
-357,568,2.14166,-7.67645,0,0,0,0,0,0,0,-1,867,456,2.14167,7.67646
-350,568,2.7467,-11.2507,0,0,0,0,0,0,0,-1,874,456,2.7467,11.2507
-343,568,2.16516,-11.3762,0,0,0,0,0,0,0,-1,881,456,2.16514,11.3762
-336,568,1.14984,-29.3232,0,0,0,0,0,0,0,-1,888,456,1.14984,29.3231
-329,568,2.80359,-32.459,0,0,0,0,0,0,0,-1,895,456,2.80357,32.4591
-322,568,3.02112,-34.0055,0,0,0,0,0,0,0,-1,902,456,3.0211,34.0055
-315,568,3.24774,-34.9502,0,0,0,0,0,0,0,-1,909,456,3.24774,34.9502
-308,568,3.20831,-36.1697,0.000320829,0.0151811,-0.00639892,0.0175568,-0.0020548,-1.21531,0.0124461,0.0499878,916,456,3.20834,36.1697
-301,568,3.15857,-37.017,-2.49705e-06,0.0123265,-0.00573548,0.014582,-0.00225802,-1.19611,0.0105548,0.0254573,923,456,3.15857,37.017
-294,568,3.07275,-37.8205,-0.000221094,0.0103482,-0.00515072,0.0124431,-0.00231597,-1.18451,0.00916544,0.0142452,930,456,3.07275,37.8205
-287,568,3.01758,-38.6711,-0.00041887,0.00886522,-0.00460853,0.0107644,-0.00231801,-1.17991,0.00806079,0.0122174,937,456,3.0176,38.6711
-280,568,2.98004,-39.5052,-0.00036934,0.00760558,-0.00421208,0.00941825,-0.002182,-1.1644,0.00711852,0.0122357,944,456,2.98005,39.5053
-273,568,2.92542,-40.3266,-0.00029303,0.00648895,-0.00379522,0.00818742,-0.00199149,-1.15,0.00622914,0.0139792,951,456,2.92543,40.3266
-266,568,2.86432,-41.1182,-0.000330264,0.00515492,-0.0032935,0.00669823,-0.00187357,-1.13259,0.00520369,0.013456,958,456,2.8643,41.1182
-259,568,2.78815,-41.8878,-7.3371e-05,0.00357288,-0.0027003,0.00500788,-0.00150837,-1.08233,0.00393886,0.0131632,965,456,2.78813,41.8878
-252,568,2.71442,-42.641,0.000311267,0.0021536,-0.00186539,0.00331287,-0.000848008,-1.01474,0.0025389,0.0127762,972,456,2.71439,42.641
-245,568,2.664,-43.3673,0.000706913,0.000549652,-0.00105122,0.00168244,-0.000425874,-0.748068,0.00128728,0.0148554,979,456,2.66403,43.3673
-238,568,2.6438,-44.1293,0.00115911,-0.00132467,-0.000192735,0.00117397,-0.00133953,-0.0769835,0.00145222,0.0139112,986,456,2.64382,44.1293
-231,568,2.60852,-44.8934,0.00160127,-0.00333669,0.000710417,0.00170145,-0.00343686,0.140084,0.00302248,0.0130996,993,456,2.6085,44.8934
-224,568,2.55334,-45.6438,0.00206341,-0.00531648,0.00156068,0.00237988,-0.00563296,0.200069,0.0047516,0.014481,1000,456,2.55332,45.6438
-217,568,2.56757,-46.3798,0.00257967,-0.00736981,0.00235199,0.00310765,-0.00789779,0.22082,0.00655154,0.0120815,1007,456,2.56754,46.3798
-210,568,2.58923,-47.1138,0.00309658,-0.00937999,0.00302289,0.0037904,-0.0100738,0.225614,0.00827399,0.012399,1014,456,2.58925,47.1138
-203,568,2.56543,-47.8292,0.00358739,-0.0111045,0.00359177,0.00441847,-0.0119355,0.227383,0.00976882,0.0111058,1021,456,2.56541,47.8292
-196,568,2.55493,-48.5219,0.00388268,-0.0126522,0.00415096,0.00486625,-0.0136358,0.232657,0.0110749,0.0156087,1028,456,2.55494,48.5219
-189,568,2.52869,-49.2041,0.00393098,-0.0140295,0.00488825,0.00517521,-0.0152737,0.249241,0.0122767,0.0159981,1035,456,2.52865,49.2041
-182,568,2.51941,-49.9082,0.0038565,-0.0150679,0.00608073,0.0056419,-0.0168533,0.285589,0.0135146,0.017305,1042,456,2.51938,49.9082
-175,568,2.53479,-50.5525,0.00382755,-0.0157784,0.00701768,0.00608053,-0.0180314,0.31065,0.0144798,0.0169633,1049,456,2.53484,50.5525
-168,568,2.52405,-51.1019,0.00352178,-0.0162171,0.00808529,0.00641078,-0.0191061,0.343177,0.0153279,0.0228963,1056,456,2.52408,51.1019
-161,568,2.4989,-51.7318,0.00289158,-0.0165195,0.00941113,0.00670518,-0.0203331,0.385,0.016258,0.0328162,1063,456,2.49893,51.7318
-154,568,2.5686,-52.5073,0.00199185,-0.0165646,0.0111989,0.00725667,-0.0218294,0.43946,0.0174813,0.0376333,1070,456,2.56856,52.5073
-147,568,2.54895,-52.9721,0.000939607,-0.016116,0.0133024,0.00821295,-0.0233893,0.500361,0.0189339,0.0405045,1077,456,2.549,52.9721
-140,568,2.29309,-53.4072,-6.66397e-06,-0.0160535,0.0159469,0.00982149,-0.0258817,0.552322,0.0212971,0.0445807,1084,456,2.2931,53.4072
-133,568,2.04041,-53.8873,-0.00101293,-0.0156184,0.0186231,0.0116881,-0.0283194,0.598545,0.0237543,0.0484405,1091,456,2.04038,53.8873
-126,568,1.76453,-54.0552,0,0,0,0,0,0,0,-1,1098,456,1.76458,54.0552
-119,568,1.89978,-50.8443,0,0,0,0,0,0,0,-1,1105,456,1.89978,50.8443
-112,568,1.98242,-35.0942,0,0,0,0,0,0,0,-1,1112,456,1.98247,35.0942
-105,568,2.02454,-25.038,0,0,0,0,0,0,0,-1,1119,456,2.02459,25.038
-98,568,1.58618,-14.7874,0,0,0,0,0,0,0,-1,1126,456,1.58617,14.7874
-91,568,1.11621,-11.1853,0,0,0,0,0,0,0,-1,1133,456,1.11626,11.1853
-84,568,0.461792,-9.7959,0,0,0,0,0,0,0,-1,1140,456,0.461793,9.7959
-77,568,-1.13806,-8.57822,0,0,0,0,0,0,0,-1,1147,456,-1.13807,8.57821
-70,568,-4.09766,-1.42911,0,0,0,0,0,0,0,-1,1154,456,-4.09767,1.4291
-63,568,-5.92273,-3.70752,0,0,0,0,0,0,0,-1,1161,456,-5.92272,3.70751
-56,568,-5.24158,-6.01385,0,0,0,0,0,0,0,-1,1168,456,-5.24161,6.01386
-49,568,-5.24365,-8.33557,0,0,0,0,0,0,0,-1,1175,456,-5.24371,8.33557
-42,568,-0.664795,0.521973,0,0,0,0,0,0,0,-1,1182,456,-0.664829,-0.521984
-35,568,-0.153076,-1.67731,0,0,0,0,0,0,0,-1,1189,456,-0.153068,1.67731
-28,568,1.25439,-4.48798,0,0,0,0,0,0,0,-1,1196,456,1.2544,4.48797
-21,568,3.11328,-59.2897,0,0,0,0,0,0,0,-1,1203,456,3.11323,59.2897
-14,568,3.7157,-59.3091,0,0,0,0,0,0,0,-1,1210,456,3.71572,59.3092
-7,568,4.10034,-59.4512,0,0,0,0,0,0,0,-1,1217,456,4.1003,59.4512
0,568,4.47583,-59.2167,0,0,0,0,0,0,0,-1,1224,456,4.47578,59.2167
7,568,5.02966,-59.4261,0,0,0,0,0,0,0,-1,1231,456,5.02966,59.4261
14,568,5.55261,-59.671,0,0,0,0,0,0,0,-1,1238,456,5.55265,59.671
21,568,4.68848,-61.0557,0,0,0,0,0,0,0,-1,1245,456,4.68851,61.0557
28,568,4.80017,-61.2591,0,0,0,0,0,0,0,-1,1252,456,4.80014,61.2591
35,568,4.61401,-61.3933,0,0,0,0,0,0,0,-1,1259,456,4.61396,61.3933
42,568,4.65942,-61.3599,0,0,0,0,0,0,0,-1,1266,456,4.65948,61.3599
49,568,4.83545,-61.4399,0,0,0,0,0,0,0,-1,1273,456,4.8354,61.44
56,568,5.17004,-61.4836,0,0,0,0,0,0,0,-1,1280,456,5.17003,61.4836
63,568,6.00366,-60.9451,0,0,0,0,0,0,0,-1,1287,456,6.00363,60.9451
70,568,6.75916,-61.0734,0,0,0,0,0,0,0,-1,1294,456,6.75918,61.0734
77,568,7.25146,-61.4747,0,0,0,0,0,0,0,-1,1301,456,7.25148,61.4747
84,568,5.77991,-61.643,0,0,0,0,0,0,0,-1,1308,456,5.77989,61.643
91,568,5.78064,-62.3948,0,0,0,0,0,0,0,-1,1315,456,5.78069,62.3948
98,568,5.43396,-63.1884,0,0,0,0,0,0,0,-1,1322,456,5.43401,63.1884
105,568,5.73804,-64.1356,0,0,0,0,0,0,0,-1,1329,456,5.73799,64.1356
112,568,6.30408,-64.8483,0,0,0,0,0,0,0,-1,1336,456,6.30411,64.8483
119,568,6.7428,-65.4022,0,0,0,0,0,0,0,-1,1343,456,6.74278,65.4022
126,568,7.19971,-65.6184,0,0,0,0,0,0,0,-1,1350,456,7.19965,65.6184
133,568,8.39624,-66.7678,0,0,0,0,0,0,0,-1,1357,456,8.39626,66.7677
140,568,7.92419,-68.0323,0,0,0,0,0,0,0,-1,1364,456,7.92424,68.0324
147,568,7.40576,-69.291,0,0,0,0,0,0,0,-1,1371,456,7.40572,69.291
154,568,7.0498,-70.2614,0,0,0,0,0,0,0,-1,1378,456,7.04986,70.2614
161,568,6.81262,-71.2542,0,0,0,0,0,0,0,-1,1385,456,6.81266,71.2541
168,568,-1.74231,-39.2641,0,0,0,0,0,0,0,-1,1392,456,-1.74226,39.2641
175,568,10.5151,0.747498,0,0,0,0,0,0,0,-1,1399,456,10.5152,-0.747501
182,568,6.35095,-3.63361,0,0,0,0,0,0,0,-1,1406,456,6.35093,3.63359
189,568,6.17493,-1.70911,0,0,0,0,0,0,0,-1,1413,456,6.17497,1.70911
196,568,6.04724,0.200836,0,0,0,0,0,0,0,-1,1420,456,6.04724,-0.200835
203,568,5.9281,2.08649,0,0,0,0,0,0,0,-1,1427,456,5.92812,-2.08648
210,568,1.46216,-2.50446,0,0,0,0,0,0,0,-1,1434,456,1.46219,2.50446
217,568,2.62366,-7.86703,0,0,0,0,0,0,0,-1,1441,456,2.62365,7.86704
224,568,3.43494,-12.1555,0,0,0,0,0,0,0,-1,1448,456,3.43492,12.1555
231,568,4.38245,-9.3205,0,0,0,0,0,0,0,-1,1455,456,4.38244,9.32048
238,568,5.88879,-20.7448,0,0,0,0,0,0,0,-1,1462,456,5.88876,20.7449
245,568,3.34387,-10.6774,0,0,0,0,0,0,0,-1,1469,456,3.34389,10.6774
252,568,3.56946,-9.28928,0,0,0,0,0,0,0,-1,1476,456,3.56948,9.28928
259,568,3.38843,-8.73068,0,0,0,0,0,0,0,-1,1483,456,3.38842,8.73068
266,568,12.9482,-53.3988,0,0,0,0,0,0,0,-1,1490,456,12.9482,53.3988
273,568,13.0106,-52.8941,0,0,0,0,0,0,0,-1,1497,456,13.0106,52.8941
280,568,13.0364,-52.2318,0.00611923,-0.012166,-0.00488554,0.00734271,-0.0133895,-0.245382,0.0121382,0.0376862,1504,456,13.0364,52.2318
287,568,13.1141,-51.4695,0.0046031,-0.0127439,-0.00567433,0.00629432,-0.0144352,-0.289665,0.012272,0.0271258,1511,456,13.1141,51.4695
294,568,13.2046,-50.8818,0.00352642,-0.0139285,-0.00600298,0.00539162,-0.0157936,-0.301255,0.0127133,0.0233541,1518,456,13.2045,50.8818
301,568,13.1743,-50.2703,0.00263106,-0.014288,-0.00625076,0.00468988,-0.0163468,-0.31818,0.012752,0.0206153,1525,456,13.1743,50.2703
308,568,13.1393,-49.603,0.00187223,-0.0141473,-0.00627161,0.00403544,-0.0163105,-0.332143,0.012439,0.0145604,1532,456,13.1393,49.603
315,568,13.1283,-48.9577,0.00128326,-0.0136409,-0.00607869,0.00344579,-0.0158034,-0.341793,0.0118524,0.00845037,1539,456,13.1282,48.9577
322,568,13.1276,-48.2509,0.000890315,-0.0126106,-0.0055726,0.00289329,-0.0146136,-0.345053,0.0108364,0.0100293,1546,456,13.1276,48.2509
329,568,13.1283,-47.5187,0.000662998,-0.0112927,-0.00486834,0.00239459,-0.0130243,-0.341729,0.00958132,0.0108351,1553,456,13.1282,47.5187
336,568,13.1252,-46.7813,0.000548987,-0.00968899,-0.00409836,0.00198748,-0.0111275,-0.337559,0.00816189,0.0111828,1560,456,13.1252,46.7814
343,568,13.123,-46.0398,0.000534047,-0.00810788,-0.00320122,0.00159068,-0.00916451,-0.318812,0.00670311,0.0124633,1567,456,13.1231,46.0398
350,568,13.0823,-45.3087,0.000712834,-0.00577487,-0.0020636,0.00131359,-0.00637562,-0.283291,0.00474922,0.0114662,1574,456,13.0822,45.3087
357,568,13.0381,-44.5403,0.000966623,-0.00332627,-0.000822282,0.00111874,-0.00347839,-0.182922,0.00276825,0.0106015,1581,456,13.0381,44.5403
364,568,13.0067,-43.784,0.00115064,-0.00120056,0.000328109,0.00119557,-0.00124549,0.136087,0.00140944,0.0127828,1588,456,13.0067,43.784
371,568,12.9572,-43.0132,0.00136128,0.000875774,0.00148722,0.00262543,-0.000388379,0.704499,0.00189307,0.0213816,1595,456,12.9571,43.0131
378,568,12.903,-42.2148,0.00142163,0.00278343,0.00240944,0.00460633,-0.000401279,0.923106,0.00321301,0.0197542,1602,456,12.9029,42.2148
385,568,12.8309,-41.429,0.00137914,0.00432296,0.00309627,0.00627938,-0.000577278,1.00728,0.00439134,0.0105767,1609,456,12.8309,41.429
392,568,12.7595,-40.6782,0.00145115,0.00553247,0.00376678,0.00777584,-0.000792228,1.03364,0.00546714,0.0116509,1616,456,12.7596,40.6782
399,568,12.6931,-39.9547,0.00162112,0.00654197,0.00440965,0.00913117,-0.000968082,1.03987,0.00643446,0.0191183,1623,456,12.6931,39.9547
406,568,12.7061,-39.0849,0.00150064,0.00718592,0.00482203,0.00994083,-0.00125428,1.05173,0.00708243,0.0179051,1630,456,12.706,39.0849
413,568,12.6884,-38.2127,0.00100071,0.00738691,0.00492393,0.0100625,-0.00167484,1.07305,0.00733064,0.0137426,1637,456,12.6883,38.2127
420,568,12.6115,-37.3893,0.000344165,0.00735887,0.00490851,0.00988434,-0.00218131,1.09561,0.00742426,0.0124991,1644,456,12.6115,37.3893
427,568,12.5375,-36.5339,-0.000151531,0.00736759,0.0050379,0.0098941,-0.00267804,1.10595,0.0076467,0.01484,1651,456,12.5374,36.5339
434,568,12.5127,-35.6664,-0.000801564,0.00736191,0.00507076,0.00978964,-0.0032293,1.12428,0.00782813,0.0209524,1658,456,12.5127,35.6664
441,568,12.5295,-34.8769,-0.00177375,0.00702659,0.00494063,0.00924241,-0.00398957,1.1492,0.00783757,0.0270763,1665,456,12.5295,34.8769
448,568,12.6866,-33.8767,-0.0030144,0.0065227,0.00464638,0.00841207,-0.00490378,1.18458,0.00777634,0.0393613,1672,456,12.6866,33.8767
455,568,12.7046,-32.9034,0,0,0,0,0,0,0,-1,1679,456,12.7045,32.9033
462,568,11.985,-32.3204,0,0,0,0,0,0,0,-1,1686,456,11.985,32.3204
469,568,11.4248,-31.7599,0,0,0,0,0,0,0,-1,1693,456,11.4249,31.7599
476,568,11.5505,-30.7061,0,0,0,0,0,0,0,-1,1700,456,11.5505,30.7062
483,568,10.9017,-29.747,0,0,0,0,0,0,0,-1,1707,456,10.9018,29.747
490,568,9.21021,-25.4427,0,0,0,0,0,0,0,-1,1714,456,9.21025,25.4427
497,568,9.19275,-22.8114,0,0,0,0,0,0,0,-1,1721,456,9.19273,22.8114
504,568,0,0,0,0,0,0,0,0,0,-1,1728,456,0,0
511,568,0,0,0,0,0,0,0,0,0,-1,1735,456,0,0
518,568,0,0,0,0,0,0,0,0,0,-1,1742,456,0,0
525,568,0,0,0,0,0,0,0,0,0,-1,1749,456,0,0
532,568,0,0,0,0,0,0,0,0,0,-1,1756,456,0,0
539,568,0,0,0,0,0,0,0,0,0,-1,1763,456,0,0
546,568,0,0,0,0,0,0,0,0,0,-1,1770,456,0,0
553,568,0,0,0,0,0,0,0,0,0,-1,1777,456,0,0
560,568,0,0,0,0,0,0,0,0,0,-1,1784,456,0,0
567,568,0,0,0,0,0,0,0,0,0,-1,1791,456,0,0
574,568,0,0,0,0,0,0,0,0,0,-1,1798,456,0,0
581,568,0,0,0,0,0,0,0,0,0,-1,1805,456,0,0
588,568,0,0,0,0,0,0,0,0,0,-1,1812,456,0,0
595,568,0,0,0,0,0,0,0,0,0,-1,1819,456,0,0
602,568,0,0,0,0,0,0,0,0,0,-1,1826,456,0,0
609,568,0,0,0,0,0,0,0,0,0,-1,1833,456,0,0
616,568,0,0,0,0,0,0,0,0,0,-1,1840,456,0,0
623,568,0,0,0,0,0,0,0,0,0,-1,1847,456,0,0
630,568,0,0,0,0,0,0,0,0,0,-1,1854,456,0,0
637,568,0,0,0,0,0,0,0,0,0,-1,1861,456,0,0
644,568,0,0,0,0,0,0,0,0,0,-1,1868,456,0,0
651,568,0,0,0,0,0,0,0,0,0,-1,1875,456,0,0
658,568,0,0,0,0,0,0,0,0,0,-1,1882,456,0,0
665,568,0,0,0,0,0,0,0,0,0,-1,1889,456,0,0
672,568,0,0,0,0,0,0,0,0,0,-1,1896,456,0,0
679,568,0,0,0,0,0,0,0,0,0,-1,1903,456,0,0
686,568,0,0,0,0,0,0,0,0,0,-1,1910,456,0,0
693,568,0,0,0,0,0,0,0,0,0,-1,1917,456,0,0
700,568,0,0,0,0,0,0,0,0,0,-1,1924,456,0,0
707,568,0,0,0,0,0,0,0,0,0,-1,1931,456,0,0
714,568,0,0,0,0,0,0,0,0,0,-1,1938,456,0,0
721,568,0,0,0,0,0,0,0,0,0,-1,1945,456,0,0
728,568,0,0,0,0,0,0,0,0,0,-1,1952,456,0,0
735,568,0,0,0,0,0,0,0,0,0,-1,1959,456,0,0
742,568,0,0,0,0,0,0,0,0,0,-1,1966,456,0,0
749,568,0,0,0,0,0,0,0,0,0,-1,1973,456,0,0
756,568,0,0,0,0,0,0,0,0,0,-1,1980,456,0,0
763,568,0,0,0,0,0,0,0,0,0,-1,1987,456,0,0
770,568,0,0,0,0,0,0,0,0,0,-1,1994,456,0,0
777,568,0,0,0,0,0,0,0,0,0,-1,2001,456,0,0
784,568,0,0,0,0,0,0,0,0,0,-1,2008,456,0,0
791,568,0,0,0,0,0,0,0,0,0,-1,2015,456,0,0
798,568,0,0,0,0,0,0,0,0,0,-1,2022,456,0,0
805,568,0,0,0,0,0,0,0,0,0,-1,2029,456,0,0
812,568,0,0,0,0,0,0,0,0,0,-1,2036,456,0,0
-700,561,0,0,0,0,0,0,0,0,0,-1,524,463,0,0
-693,561,0,0,0,0,0,0,0,0,0,-1,531,463,0,0
-686,561,0,0,0,0,0,0,0,0,0,-1,538,463,0,0
-679,561,0,0,0,0,0,0,0,0,0,-1,545,463,0,0
-672,561,0,0,0,0,0,0,0,0,0,-1,552,463,0,0
-665,561,0,0,0,0,0,0,0,0,0,-1,559,463,0,0
-658,561,0,0,0,0,0,0,0,0,0,-1,566,463,0,0
-651,561,0,0,0,0,0,0,0,0,0,-1,573,463,0,0
-644,561,0,0,0,0,0,0,0,0,0,-1,580,463,0,0
-637,561,0,0,0,0,0,0,0,0,0,-1,587,463,0,0
-630,561,0,0,0,0,0,0,0,0,0,-1,594,463,0,0
-623,561,0,0,0,0,0,0,0,0,0,-1,601,463,0,0
-616,561,0,0,0,0,0,0,0,0,0,-1,608,463,0,0
-609,561,0,0,0,0,0,0,0,0,0,-1,615,463,0,0
-602,561,0,0,0,0,0,0,0,0,0,-1,622,463,0,0
-595,561,0,0,0,0,0,0,0,0,0,-1,629,463,0,0
-588,561,0,0,0,0,0,0,0,0,0,-1,636,463,0,0
-581,561,0,0,0,0,0,0,0,0,0,-1,643,463,0,0
-574,561,0,0,0,0,0,0,0,0,0,-1,650,463,0,0
-567,561,0,0,0,0,0,0,0,0,0,-1,657,463,0,0
-560,561,0,0,0,0,0,0,0,0,0,-1,664,463,0,0
-553,561,0,0,0,0,0,0,0,0,0,-1,671,463,0,0
-546,561,0,0,0,0,0,0,0,0,0,-1,678,463,0,0
-539,561,0,0,0,0,0,0,0,0,0,-1,685,463,0,0
-532,561,0,0,0,0,0,0,0,0,0,-1,692,463,0,0
-525,561,0,0,0,0,0,0,0,0,0,-1,699,463,0,0
-518,561,0,0,0,0,0,0,0,0,0,-1,706,463,0,0
-511,561,0,0,0,0,0,0,0,0,0,-1,713,463,0,0
-504,561,0,0,0,0,0,0,0,0,0,-1,720,463,0,0
-497,561,0,0,0,0,0,0,0,0,0,-1,727,463,0,0
-490,561,0,0,0,0,0,0,0,0,0,-1,734,463,0,0
-483,561,0,0,0,0,0,0,0,0,0,-1,741,463,0,0
-476,561,0,0,0,0,0,0,0,0,0,-1,748,463,0,0
-469,561,0,0,0,0,0,0,0,0,0,-1,755,463,0,0
-462,561,0,0,0,0,0,0,0,0,0,-1,762,463,0,0
-455,561,0,0,0,0,0,0,0,0,0,-1,769,463,0,0
-448,561,0,0,0,0,0,0,0,0,0,-1,776,463,0,0
-441,561,0,0,0,0,0,0,0,0,0,-1,783,463,0,0
-434,561,0,0,0,0,0,0,0,0,0,-1,790,463,0,0
-427,561,0,0,0,0,0,0,0,0,0,-1,797,463,0,0
-420,561,0,0,0,0,0,0,0,0,0,-1,804,463,0,0
-413,561,0,0,0,0,0,0,0,0,0,-1,811,463,0,0
-406,561,0,0,0,0,0,0,0,0,0,-1,818,463,0,0
-399,561,0,0,0,0,0,0,0,0,0,-1,825,463,0,0
-392,561,4.92407,-2.54578,0,0,0,0,0,0,0,-1,832,463,4.92408,2.54576
-385,561,5.55634,-1.02338,0,0,0,0,0,0,0,-1,839,463,5.55634,1.02338
-378,561,0.160522,-4.51785,0,0,0,0,0,0,0,-1,846,463,0.160542,4.51785
-371,561,2.20026,-26.5992,0,0,0,0,0,0,0,-1,853,463,2.20026,26.5992
-364,561,3.72742,-26.3703,0,0,0,0,0,0,0,-1,860,463,3.72739,26.3703
-357,561,2.16742,-23.5582,0,0,0,0,0,0,0,-1,867,463,2.1674,23.5582
-350,561,1.33124,-11.9406,0,0,0,0,0,0,0,-1,874,463,1.33127,11.9406
-343,561,1.13214,-14.1837,0,0,0,0,0,0,0,-1,881,463,1.13217,14.1837
-336,561,2.83032,-32.4996,0,0,0,0,0,0,0,-1,888,463,2.83033,32.4996
-329,561,2.53723,-33.7099,0,0,0,0,0,0,0,-1,895,463,2.53722,33.7099
-322,561,2.35889,-34.3514,0.00224008,0.0190616,-0.00806445,0.0223031,-0.00100146,-1.18861,0.0152136,0.0475146,902,463,2.35887,34.3514
-315,561,2.65845,-34.9442,0.00119592,0.0154392,-0.00646578,0.0179365,-0.00130138,-1.20221,0.0124142,0.0342837,909,463,2.65845,34.9442
-308,561,2.46594,-35.95,0.000380604,0.0124949,-0.00529419,0.0144825,-0.00160696,-1.21165,0.0102328,0.0301009,916,463,2.46594,35.95
-301,561,2.35876,-37.0252,0.000102318,0.00986182,-0.00453443,0.0116434,-0.00167924,-1.19643,0.00837828,0.0174665,923,463,2.35879,37.0252
-294,561,2.2724,-37.8737,-3.69221e-05,0.0080227,-0.00389532,0.00959761,-0.00161183,-1.18658,0.00699784,0.0123035,930,463,2.27242,37.8737
-287,561,2.22083,-38.6668,-0.000165675,0.00661277,-0.00331506,0.00796448,-0.00151739,-1.18363,0.00588107,0.0103231,937,463,2.22084,38.6668
-280,561,2.16394,-39.4525,-0.000118464,0.00531197,-0.00287353,0.00655018,-0.00135668,-1.16394,0.00488225,0.0129299,944,463,2.16394,39.4525
-273,561,2.09552,-40.2371,-5.1925e-05,0.0040787,-0.00237587,0.00516145,-0.00113467,-1.14319,0.00387497,0.0159661,951,463,2.09549,40.2371
-266,561,2.0697,-41.0305,-3.77218e-05,0.0026024,-0.00176099,0.00348317,-0.000918491,-1.10702,0.00268124,0.0105472,958,463,2.06971,41.0305
-259,561,2.02557,-41.8213,0.000248628,0.000827167,-0.00105253,0.00162945,-0.000553655,-0.919504,0.00131044,0.010434,965,463,2.02558,41.8213
-252,561,1.98059,-42.5817,0.000676304,-0.000921262,-0.000117957,0.000684966,-0.000929925,-0.073306,0.000935926,0.0145278,972,463,1.98061,42.5817
-245,561,1.93317,-43.3331,0.00110902,-0.00282126,0.000796159,0.00126417,-0.00297641,0.192465,0.00251395,0.0161599,979,463,1.93316,43.3331
-238,561,1.91394,-44.1086,0.00162577,-0.00500508,0.00175247,0.00206044,-0.00543975,0.243124,0.00447435,0.0128761,986,463,1.91394,44.1086
-231,561,1.85797,-44.8802,0.00215568,-0.0073417,0.00273104,0.002885,-0.00807102,0.26096,0.00655742,0.0125415,993,463,1.85799,44.8802
-224,561,1.82135,-45.614,0.00268579,-0.00966885,0.00368746,0.00370268,-0.0106857,0.269082,0.00862711,0.0125501,1000,463,1.82137,45.6139
-217,561,1.83649,-46.343,0.00329496,-0.0120227,0.00455831,0.00454881,-0.0132765,0.268431,0.0106948,0.012782,1007,463,1.8365,46.343
-210,561,1.85797,-47.0628,0.00391322,-0.0143142,0.00527863,0.00533153,-0.0157326,0.262491,0.0126459,0.013494,1014,463,1.85797,47.0628
-203,561,1.8504,-47.7543,0.00450148,-0.0162601,0.00586179,0.00604216,-0.0178008,0.25702,0.0143129,0.0143668,1021,463,1.8504,47.7543
-196,561,1.755,-48.4138,0.00486171,-0.0179643,0.00640462,0.00653595,-0.0196385,0.255689,0.0157303,0.0171972,1028,463,1.75495,48.4138
-189,561,1.84253,-49.0701,0.0048787,-0.0194564,0.00717429,0.00683629,-0.021414,0.266378,0.0170188,0.0241822,1035,463,1.84257,49.0701
-182,561,1.9624,-49.6987,0.00468976,-0.020492,0.00851884,0.00730088,-0.0231032,0.29742,0.0183271,0.0286969,1042,463,1.96242,49.6988
-175,561,1.83667,-50.3339,0.00456011,-0.0210611,0.00954559,0.00772542,-0.0242264,0.320189,0.0192499,0.0440645,1049,463,1.8367,50.3339
-168,561,1.69031,-50.9594,0,0,0,0,0,0,0,-1,1056,463,1.69029,50.9594
-161,561,1.82898,-51.5644,0,0,0,0,0,0,0,-1,1063,463,1.82903,51.5644
-154,561,1.97888,-52.5657,0,0,0,0,0,0,0,-1,1070,463,1.97889,52.5657
-147,561,1.84106,-52.8472,0,0,0,0,0,0,0,-1,1077,463,1.84111,52.8472
-140,561,1.49402,-53.1541,0,0,0,0,0,0,0,-1,1084,463,1.49397,53.154
-133,561,1.2207,-53.6099,0,0,0,0,0,0,0,-1,1091,463,1.22072,53.6099
-126,561,1.77014,-49.4318,0,0,0,0,0,0,0,-1,1098,463,1.7702,49.4318
-119,561,-0.336304,-35.422,0,0,0,0,0,0,0,-1,1105,463,-0.336245,35.422
-112,561,1.24365,-29.1982,0,0,0,0,0,0,0,-1,1112,463,1.2437,29.1981
-105,561,0.530518,-13.5379,0,0,0,0,0,0,0,-1,1119,463,0.530477,13.5379
-98,561,1.5387,-7.54352,0,0,0,0,0,0,0,-1,1126,463,1.53871,7.54351
-91,561,1.29553,-6.57968,0,0,0,0,0,0,0,-1,1133,463,1.29549,6.5797
-84,561,1.23364,-5.84555,0,0,0,0,0,0,0,-1,1140,463,1.23363,5.84556
-77,561,-2.36023,1.00204,0,0,0,0,0,0,0,-1,1147,463,-2.3602,-1.00205
-70,561,-3.90015,-1.41541,0,0,0,0,0,0,0,-1,1154,463,-3.90009,1.4154
-63,561,-6.95691,-4.02756,0,0,0,0,0,0,0,-1,1161,463,-6.95696,4.02756
-56,561,-5.37988,-6.66855,0,0,0,0,0,0,0,-1,1168,463,-5.37988,6.66854
-49,561,-5.7439,-9.11029,0,0,0,0,0,0,0,-1,1175,463,-5.74387,9.1103
-42,561,-1.72644,-5.63065,0,0,0,0,0,0,0,-1,1182,463,-1.72648,5.63064
-35,561,-1.65674,-4.87994,0,0,0,0,0,0,0,-1,1189,463,-1.6567,4.87993
-28,561,-1.91418,-3.86896,0,0,0,0,0,0,0,-1,1196,463,-1.91414,3.86895
-21,561,1.02661,-59.9158,0,0,0,0,0,0,0,-1,1203,463,1.02663,59.9158
-14,561,1.89575,-59.8683,0,0,0,0,0,0,0,-1,1210,463,1.89579,59.8683
-7,561,2.21448,-60.2162,0,0,0,0,0,0,0,-1,1217,463,2.21449,60.2162
0,561,4.99316,-58.4216,0,0,0,0,0,0,0,-1,1224,463,4.99316,58.4216
7,561,4.58154,-59.2634,0,0,0,0,0,0,0,-1,1231,463,4.58158,59.2634
14,561,4.28821,-59.9702,0,0,0,0,0,0,0,-1,1238,463,4.28825,59.9701
21,561,4.104,-60.4806,0,0,0,0,0,0,0,-1,1245,463,4.10406,60.4806
28,561,3.88757,-61.0453,0,0,0,0,0,0,0,-1,1252,463,3.88756,61.0453
35,561,3.82104,-61.315,0,0,0,0,0,0,0,-1,1259,463,3.82105,61.315
42,561,3.58557,-61.2612,0,0,0,0,0,0,0,-1,1266,463,3.58551,61.2612
49,561,3.97974,-61.5597,0,0,0,0,0,0,0,-1,1273,463,3.97971,61.5597
56,561,4.02661,-60.076,0,0,0,0,0,0,0,-1,1280,463,4.0266,60.076
63,561,6.026,-60.636,0,0,0,0,0,0,0,-1,1287,463,6.026,60.636
70,561,7.05334,-60.9297,0,0,0,0,0,0,0,-1,1294,463,7.0534,60.9298
77,561,7.73169,-61.1979,0,0,0,0,0,0,0,-1,1301,463,7.73171,61.1979
84,561,5.04016,-61.0428,0,0,0,0,0,0,0,-1,1308,463,5.04016,61.0428
91,561,5.29541,-61.9839,0,0,0,0,0,0,0,-1,1315,463,5.29537,61.9839
98,561,4.54004,-62.5192,0,0,0,0,0,0,0,-1,1322,463,4.54003,62.5192
105,561,4.87683,-63.4846,0,0,0,0,0,0,0,-1,1329,463,4.87685,63.4846
112,561,5.3457,-65.0913,0,0,0,0,0,0,0,-1,1336,463,5.34575,65.0913
119,561,6.08154,-65.784,0,0,0,0,0,0,0,-1,1343,463,6.0816,65.784
126,561,6.36841,-66.4967,0,0,0,0,0,0,0,-1,1350,463,6.36838,66.4967
133,561,6.271,-67.1338,0,0,0,0,0,0,0,-1,1357,463,6.27106,67.1338
140,561,7.70837,-68.4924,0,0,0,0,0,0,0,-1,1364,463,7.70842,68.4924
147,561,7.27393,-69.5847,0,0,0,0,0,0,0,-1,1371,463,7.27389,69.5847
154,561,7.08386,-70.4794,0,0,0,0,0,0,0,-1,1378,463,7.08383,70.4795
161,561,7.03406,-71.6577,0,0,0,0,0,0,0,-1,1385,463,7.03403,71.6577
168,561,-4.55249,-57.0839,0,0,0,0,0,0,0,-1,1392,463,-4.55245,57.084
175,561,10.4185,0.276398,0,0,0,0,0,0,0,-1,1399,463,10.4185,-0.276394
182,561,6.45703,-4.02127,0,0,0,0,0,0,0,-1,1406,463,6.45704,4.02127
189,561,6.50854,-2.08685,0,0,0,0,0,0,0,-1,1413,463,6.50851,2.08686
196,561,6.44775,-0.27182,0,0,0,0,0,0,0,-1,1420,463,6.44773,0.271814
203,561,6.18591,1.1301,0,0,0,0,0,0,0,-1,1427,463,6.18592,-1.13009
210,561,5.68713,2.68427,0,0,0,0,0,0,0,-1,1434,463,5.6871,-2.68425
217,561,3.61743,-7.33582,0,0,0,0,0,0,0,-1,1441,463,3.61738,7.33581
224,561,4.27466,-8.59171,0,0,0,0,0,0,0,-1,1448,463,4.27466,8.59171
231,561,4.93188,-9.8476,0,0,0,0,0,0,0,-1,1455,463,4.93193,9.84761
238,561,2.18018,-5.18359,0,0,0,0,0,0,0,-1,1462,463,2.18023,5.18359
245,561,3.07568,-3.50238,0,0,0,0,0,0,0,-1,1469,463,3.0757,3.50238
252,561,3.47412,-3.71109,0,0,0,0,0,0,0,-1,1476,463,3.47413,3.71109
259,561,3.42212,-3.2334,0,0,0,0,0,0,0,-1,1483,463,3.42214,3.2334
266,561,4.44373,-5.90027,0,0,0,0,0,0,0,-1,1490,463,4.44372,5.90026
273,561,2.59485,-3.65268,0,0,0,0,0,0,0,-1,1497,463,2.5948,3.65268
280,561,13.6406,-52.0989,0,0,0,0,0,0,0,-1,1504,463,13.6406,52.0989
287,561,14.0381,-51.7038,0.00456056,-0.0173064,-0.00752399,0.00689928,-0.0196451,-0.301367,0.0159034,0.0468044,1511,463,14.038,51.7038
294,561,14.0205,-50.5776,0.00335776,-0.0193957,-0.00810003,0.00594672,-0.0219846,-0.309362,0.0169892,0.0409407,1518,463,14.0205,50.5776
301,561,13.8702,-49.928,0.00240939,-0.0201178,-0.00859436,0.00531377,-0.0230222,-0.325891,0.0173921,0.0366326,1525,463,13.8703,49.928
308,561,13.8508,-49.419,0.0015802,-0.0201372,-0.00876071,0.00467361,-0.0232306,-0.339434,0.0172572,0.0279721,1532,463,13.8509,49.419
315,561,13.8661,-48.8774,0.000964788,-0.0196379,-0.00862945,0.00410164,-0.0227747,-0.348656,0.0167189,0.0146196,1539,463,13.8661,48.8774
322,561,13.8451,-48.2133,0.000631734,-0.0184947,-0.00809023,0.00359477,-0.0214577,-0.351076,0.0156417,0.015144,1546,463,13.8451,48.2133
329,561,13.8514,-47.4757,0.000460128,-0.0169568,-0.00732148,0.00312889,-0.0196256,-0.349544,0.0142417,0.0122491,1553,463,13.8514,47.4757
336,561,13.8678,-46.7271,0.000375847,-0.015093,-0.00649383,0.0027405,-0.0174576,-0.349214,0.0126512,0.0107986,1560,463,13.8678,46.7271
343,561,13.8519,-46.0131,0.000369964,-0.0132969,-0.00555728,0.00234444,-0.0152713,-0.341385,0.0110456,0.0109682,1567,463,13.852,46.0131
350,561,13.7966,-45.2574,0.000590874,-0.0106096,-0.00432259,0.00206506,-0.0120837,-0.328673,0.00882509,0.0106179,1574,463,13.7967,45.2574
357,561,13.7667,-44.4786,0.000880913,-0.00770735,-0.00294451,0.00179348,-0.00861992,-0.300534,0.00642838,0.0108053,1581,463,13.7667,44.4786
364,561,13.7534,-43.7485,0.00106226,-0.00521849,-0.0016943,0.00149016,-0.00564639,-0.247382,0.00434697,0.010208,1588,463,13.7534,43.7485
371,561,13.717,-42.9662,0.00131094,-0.00274533,-0.00041265,0.00135249,-0.00278689,-0.100361,0.00243723,0.017228,1595,463,13.7171,42.9662
378,561,13.6473,-42.1851,0.00137149,-0.000498697,0.000587177,0.00154056,-0.000667767,0.280353,0.00130775,0.0129932,1602,463,13.6473,42.1851
385,561,13.6002,-41.3884,0.00131394,0.00132933,0.0013876,0.00270926,-6.59891e-05,0.788171,0.00182856,0.0113615,1609,463,13.6002,41.3884
392,561,13.5551,-40.5891,0.00139203,0.00279688,0.00219337,0.00439755,-0.000208648,0.940363,0.00300367,0.015786,1616,463,13.555,40.5891
399,561,13.5439,-39.8114,0.00147031,0.00418319,0.00285722,0.0059896,-0.000336099,1.00702,0.00410968,0.0224581,1623,463,13.5439,39.8114
406,561,13.5217,-39.0189,0.00133657,0.00499057,0.00333886,0.00696961,-0.000642464,1.03574,0.0048747,0.0203838,1630,463,13.5217,39.0188
413,561,13.4973,-38.1947,0.000922965,0.00532803,0.00354473,0.00729878,-0.00104778,1.06338,0.00525008,0.018297,1637,463,13.4973,38.1947
420,561,13.411,-37.3734,0.000377337,0.00540826,0.00363741,0.00731528,-0.00152968,1.08792,0.00545866,0.0148254,1644,463,13.4111,37.3733
427,561,13.3646,-36.5076,-8.75251e-05,0.00548518,0.00381409,0.00742229,-0.00202463,1.10086,0.00574328,0.0116152,1651,463,13.3646,36.5076
434,561,13.3361,-35.6573,-0.000636447,0.00552143,0.00393761,0.00744095,-0.00255597,1.11721,0.00599703,0.0125456,1658,463,13.336,35.6573
441,561,13.3157,-34.8202,-0.00141826,0.00539419,0.00399029,0.00723437,-0.00325844,1.1387,0.0062013,0.0144413,1665,463,13.3156,34.8202
448,561,13.2908,-33.9229,-0.00240074,0.00512577,0.00394597,0.00681529,-0.00409026,1.16625,0.0063615,0.0214749,1672,463,13.2908,33.9229
455,561,13.3,-33.0507,-0.0034601,0.00464118,0.00401578,0.00629442,-0.00511334,1.18026,0.00659803,0.0413512,1679,463,13.3,33.0507
462,561,12.9298,-32.358,-0.00454093,0.00462908,0.00424374,0.0062916,-0.00620345,1.19741,0.00721408,0.0394982,1686,463,12.9298,32.358
469,561,12.7676,-31.5387,-0.00556236,0.00473452,0.00449272,0.00641916,-0.007247,1.21205,0.00789499,0.0279356,1693,463,12.7676,31.5387
476,561,12.7202,-30.6361,0,0,0,0,0,0,0,-1,1700,463,12.7202,30.6361
483,561,12.0585,-30.3756,0,0,0,0,0,0,0,-1,1707,463,12.0584,30.3756
490,561,10.2549,-20.4551,0,0,0,0,0,0,0,-1,1714,463,10.2548,20.4551
497,561,11.7618,-20.3894,0,0,0,0,0,0,0,-1,1721,463,11.7618,20.3894
504,561,12.9351,-20.1285,0,0,0,0,0,0,0,-1,1728,463,12.935,20.1285
511,561,0,0,0,0,0,0,0,0,0,-1,1735,463,0,0
518,561,0,0,0,0,0,0,0,0,0,-1,1742,463,0,0
525,561,0,0,0,0,0,0,0,0,0,-1,1749,463,0,0
532,561,0,0,0,0,0,0,0,0,0,-1,1756,463,0,0
539,561,0,0,0,0,0,0,0,0,0,-1,1763,463,0,0
546,561,0,0,0,0,0,0,0,0,0,-1,1770,463,0,0
553,561,0,0,0,0,0,0,0,0,0,-1,1777,463,0,0
560,561,0,0,0,0,0,0,0,0,0,-1,1784,463,0,0
567,561,0,0,0,0,0,0,0,0,0,-1,1791,463,0,0
574,561,0,0,0,0,0,0,0,0,0,-1,1798,463,0,0
581,561,0,0,0,0,0,0,0,0,0,-1,1805,463,0,0
588,561,0,0,0,0,0,0,0,0,0,-1,1812,463,0,0
595,561,0,0,0,0,0,0,0,0,0,-1,1819,463,0,0
602,561,0,0,0,0,0,0,0,0,0,-1,1826,463,0,0
609,561,0,0,0,0,0,0,0,0,0,-1,1833,463,0,0
616,561,0,0,0,0,0,0,0,0,0,-1,1840,463,0,0
623,561,0,0,0,0,0,0,0,0,0,-1,1847,463,0,0
630,561,0,0,0,0,0,0,0,0,0,-1,1854,463,0,0
637,561,0,0,0,0,0,0,0,0,0,-1,1861,463,0,0
644,561,0,0,0,0,0,0,0,0,0,-1,1868,463,0,0
651,561,0,0,0,0,0,0,0,0,0,-1,1875,463,0,0
658,561,0,0,0,0,0,0,0,0,0,-1,1882,463,0,0
665,561,0,0,0,0,0,0,0,0,0,-1,1889,463,0,0
672,561,0,0,0,0,0,0,0,0,0,-1,1896,463,0,0
679,561,0,0,0,0,0,0,0,0,0,-1,1903,463,0,0
686,561,0,0,0,0,0,0,0,0,0,-1,1910,463,0,0
693,561,0,0,0,0,0,0,0,0,0,-1,1917,463,0,0
700,561,0,0,0,0,0,0,0,0,0,-1,1924,463,0,0
707,561,0,0,0,0,0,0,0,0,0,-1,1931,463,0,0
714,561,0,0,0,0,0,0,0,0,0,-1,1938,463,0,0
721,561,0,0,0,0,0,0,0,0,0,-1,1945,463,0,0
728,561,0,0,0,0,0,0,0,0,0,-1,1952,463,0,0
735,561,0,0,0,0,0,0,0,0,0,-1,1959,463,0,0
742,561,0,0,0,0,0,0,0,0,0,-1,1966,463,0,0
749,561,0,0,0,0,0,0,0,0,0,-1,1973,463,0,0
756,561,0,0,0,0,0,0,0,0,0,-1,1980,463,0,0
763,561,0,0,0,0,0,0,0,0,0,-1,1987,463,0,0
770,561,0,0,0,0,0,0,0,0,0,-1,1994,463,0,0
777,561,0,0,0,0,0,0,0,0,0,-1,2001,463,0,0
784,561,0,0,0,0,0,0,0,0,0,-1,2008,463,0,0
791,561,0,0,0,0,0,0,0,0,0,-1,2015,463,0,0
798,561,0,0,0,0,0,0,0,0,0,-1,2022,463,0,0
805,561,0,0,0,0,0,0,0,0,0,-1,2029,463,0,0
812,561,0,0,0,0,0,0,0,0,0,-1,2036,463,0,0
-700,554,0,0,0,0,0,0,0,0,0,-1,524,470,0,0
-693,554,0,0,0,0,0,0,0,0,0,-1,531,470,0,0
-686,554,0,0,0,0,0,0,0,0,0,-1,538,470,0,0
-679,554,0,0,0,0,0,0,0,0,0,-1,545,470,0,0
-672,554,0,0,0,0,0,0,0,0,0,-1,552,470,0,0
-665,554,0,0,0,0,0,0,0,0,0,-1,559,470,0,0
-658,554,0,0,0,0,0,0,0,0,0,-1,566,470,0,0
-651,554,0,0,0,0,0,0,0,0,0,-1,573,470,0,0
-644,554,0,0,0,0,0,0,0,0,0,-1,580,470,0,0
-637,554,0,0,0,0,0,0,0,0,0,-1,587,470,0,0
-630,554,0,0,0,0,0,0,0,0,0,-1,594,470,0,0
-623,554,0,0,0,0,0,0,0,0,0,-1,601,470,0,0
-616,554,0,0,0,0,0,0,0,0,0,-1,608,470,0,0
-609,554,0,0,0,0,0,0,0,0,0,-1,615,470,0,0
-602,554,0,0,0,0,0,0,0,0,0,-1,622,470,0,0
-595,554,0,0,0,0,0,0,0,0,0,-1,629,470,0,0
-588,554,0,0,0,0,0,0,0,0,0,-1,636,470,0,0
-581,554,0,0,0,0,0,0,0,0,0,-1,643,470,0,0
-574,554,0,0,0,0,0,0,0,0,0,-1,650,470,0,0
-567,554,0,0,0,0,0,0,0,0,0,-1,657,470,0,0
-560,554,0,0,0,0,0,0,0,0,0,-1,664,470,0,0
-553,554,0,0,0,0,0,0,0,0,0,-1,671,470,0,0
-546,554,0,0,0,0,0,0,0,0,0,-1,678,470,0,0
-539,554,0,0,0,0,0,0,0,0,0,-1,685,470,0,0
-532,554,0,0,0,0,0,0,0,0,0,-1,692,470,0,0
-525,554,0,0,0,0,0,0,0,0,0,-1,699,470,0,0
-518,554,0,0,0,0,0,0,0,0,0,-1,706,470,0,0
-511,554,0,0,0,0,0,0,0,0,0,-1,713,470,0,0
-504,554,0,0,0,0,0,0,0,0,0,-1,720,470,0,0
-497,554,0,0,0,0,0,0,0,0,0,-1,727,470,0,0
-490,554,0,0,0,0,0,0,0,0,0,-1,734,470,0,0
-483,554,0,0,0,0,0,0,0,0,0,-1,741,470,0,0
-476,554,0,0,0,0,0,0,0,0,0,-1,748,470,0,0
-469,554,0,0,0,0,0,0,0,0,0,-1,755,470,0,0
-462,554,0,0,0,0,0,0,0,0,0,-1,762,470,0,0
-455,554,0,0,0,0,0,0,0,0,0,-1,769,470,0,0
-448,554,0,0,0,0,0,0,0,0,0,-1,776,470,0,0
-441,554,0,0,0,0,0,0,0,0,0,-1,783,470,0,0
-434,554,0,0,0,0,0,0,0,0,0,-1,790,470,0,0
-427,554,0,0,0,0,0,0,0,0,0,-1,797,470,0,0
-420,554,0,0,0,0,0,0,0,0,0,-1,804,470,0,0
-413,554,0,0,0,0,0,0,0,0,0,-1,811,470,0,0
-406,554,0,0,0,0,0,0,0,0,0,-1,818,470,0,0
-399,554,-1.32275,-3.95142,0,0,0,0,0,0,0,-1,825,470,-1.32275,3.95141
-392,554,-1.35632,-3.7406,0,0,0,0,0,0,0,-1,832,470,-1.35632,3.7406
-385,554,-0.849243,-4.14447,0,0,0,0,0,0,0,-1,839,470,-0.849262,4.14446
-378,554,0.715332,-26.4245,0,0,0,0,0,0,0,-1,846,470,0.715328,26.4245
-371,554,2.8454,-26.7032,0,0,0,0,0,0,0,-1,853,470,2.8454,26.7031
-364,554,2.67352,-27.3007,0,0,0,0,0,0,0,-1,860,470,2.67352,27.3007
-357,554,2.57129,-28.2612,0,0,0,0,0,0,0,-1,867,470,2.57129,28.2612
-350,554,1.17157,-18.1341,0,0,0,0,0,0,0,-1,874,470,1.17156,18.1341
-343,554,1.78052,-31.5493,0,0,0,0,0,0,0,-1,881,470,1.78049,31.5493
-336,554,1.95538,-32.6216,0.00452034,0.0245303,-0.0115276,0.0297891,-0.000738514,-1.1428,0.0201101,0.0407247,888,470,1.95537,32.6215
-329,554,1.76837,-33.6284,0.00312298,0.019766,-0.00901323,0.0237118,-0.000822783,-1.15816,0.0160891,0.0221006,895,470,1.76837,33.6284
-322,554,1.67157,-34.507,0.0019226,0.0157998,-0.00693862,0.0186739,-0.000951482,-1.1781,0.0127782,0.0161832,902,470,1.67157,34.507
-315,554,1.64026,-35.3105,0.00100722,0.0125729,-0.00533339,0.0146568,-0.00107672,-1.1983,0.0101492,0.0152977,909,470,1.64027,35.3105
-308,554,1.59509,-36.149,0.00032706,0.0099565,-0.00415754,0.0115031,-0.00121956,-1.21466,0.00810591,0.0151348,916,470,1.59512,36.149
-301,554,1.53381,-37.0199,0.000126544,0.00757576,-0.00337435,0.00887698,-0.00117468,-1.20275,0.00634589,0.0157126,923,470,1.53381,37.0199
-294,554,1.4599,-37.8388,8.95025e-05,0.00590516,-0.00272248,0.00698072,-0.000986055,-1.19455,0.00501491,0.0132541,930,470,1.45988,37.8388
-287,554,1.41852,-38.6354,5.66664e-05,0.00457876,-0.00213116,0.00542483,-0.000789403,-1.19288,0.00390636,0.0124962,937,470,1.41854,38.6354
-280,554,1.37018,-39.4295,0.000116715,0.00322304,-0.00164538,0.00393253,-0.000592773,-1.16369,0.00283997,0.0127832,944,470,1.3702,39.4295
-273,554,1.30457,-40.2285,0.000177292,0.0018418,-0.00104815,0.00234793,-0.000328837,-1.12094,0.00168562,0.0163174,951,470,1.30458,40.2285
-266,554,1.26874,-41.009,0.000250127,0.000185923,-0.000282851,0.000502691,-6.66419e-05,-0.728893,0.000359407,0.0133851,958,470,1.26872,41.009
-259,554,1.23352,-41.7316,0.000572207,-0.00178852,0.00056829,0.000701886,-0.0019182,0.22435,0.0015661,0.0128965,965,470,1.23354,41.7316
-252,554,1.19336,-42.491,0.0010374,-0.0039163,0.00163488,0.00152831,-0.00440721,0.291709,0.00355871,0.0145404,972,470,1.19335,42.491
-245,554,1.15863,-43.2845,0.00148595,-0.00617718,0.00269751,0.00234027,-0.00703149,0.306711,0.00563222,0.0152525,979,470,1.15864,43.2845
-238,554,1.14526,-44.0947,0.00204386,-0.00873558,0.0038004,0.003249,-0.00994071,0.307077,0.00793505,0.0111356,986,470,1.14528,44.0947
-231,554,1.11755,-44.8641,0.00264964,-0.0114783,0.00490879,0.00418776,-0.0130164,0.30365,0.0103596,0.0107019,993,470,1.11756,44.8641
-224,554,1.10358,-45.5774,0.00325217,-0.014254,0.00602862,0.00512739,-0.0161292,0.301565,0.0128087,0.0111959,1000,470,1.10358,45.5774
-217,554,1.10388,-46.2874,0.00396369,-0.0170228,0.00703896,0.00610591,-0.0191651,0.295432,0.0152257,0.0112476,1007,470,1.10387,46.2874
-210,554,1.13422,-46.9767,0.00469815,-0.0197205,0.0078664,0.00701287,-0.0220352,0.286176,0.0175025,0.0146494,1014,470,1.13419,46.9767
-203,554,1.11652,-47.605,0.00540107,-0.0220284,0.00851821,0.00783111,-0.0244585,0.277895,0.0194488,0.0238081,1021,470,1.1165,47.605
-196,554,1.1709,-48.2191,0.00585243,-0.0240226,0.00907593,0.00839353,-0.0265637,0.272992,0.0210718,0.0331887,1028,470,1.17086,48.219
-189,554,1.28748,-48.7962,0.00584198,-0.0257641,0.00990602,0.00869008,-0.0286122,0.279962,0.0225371,0.039713,1035,470,1.28751,48.7962
-182,554,1.30139,-49.3649,0.00550086,-0.026905,0.0114649,0.00914685,-0.030551,0.307899,0.0240044,0.0486292,1042,470,1.30144,49.3649
-175,554,1.2323,-49.8333,0,0,0,0,0,0,0,-1,1049,470,1.23231,49.8333
-168,554,1.8866,-48.7592,0,0,0,0,0,0,0,-1,1056,470,1.88665,48.7591
-161,554,1.09583,-42.015,0,0,0,0,0,0,0,-1,1063,470,1.09577,42.015
-154,554,1.03186,-42.7216,0,0,0,0,0,0,0,-1,1070,470,1.03187,42.7216
-147,554,1.4552,-41.5187,0,0,0,0,0,0,0,-1,1077,470,1.45525,41.5187
-140,554,0.428101,-38.9893,0,0,0,0,0,0,0,-1,1084,470,0.428152,38.9893
-133,554,2.67163,-32.8187,0,0,0,0,0,0,0,-1,1091,470,2.67161,32.8187
-126,554,0.851929,-33.5393,0,0,0,0,0,0,0,-1,1098,470,0.851942,33.5393
-119,554,-1.03479,-32.1628,0,0,0,0,0,0,0,-1,1105,470,-1.03476,32.1628
-112,554,1.03162,-24.5784,0,0,0,0,0,0,0,-1,1112,470,1.03156,24.5784
-105,554,0.608765,-21.0475,0,0,0,0,0,0,0,-1,1119,470,0.608728,21.0475
-98,554,1.51929,-7.3624,0,0,0,0,0,0,0,-1,1126,470,1.51928,7.36241
-91,554,1.41089,-6.5864,0,0,0,0,0,0,0,-1,1133,470,1.41093,6.58638
-84,554,1.62305,-5.87186,0,0,0,0,0,0,0,-1,1140,470,1.62299,5.87186
-77,554,-2.56958,1.33258,0,0,0,0,0,0,0,-1,1147,470,-2.56959,-1.33257
-70,554,-3.68164,-1.18332,0,0,0,0,0,0,0,-1,1154,470,-3.68158,1.18331
-63,554,-4.86853,-3.88708,0,0,0,0,0,0,0,-1,1161,470,-4.86853,3.88708
-56,554,-5.69958,-6.45422,0,0,0,0,0,0,0,-1,1168,470,-5.69955,6.45422
-49,554,-6.23645,-8.8569,0,0,0,0,0,0,0,-1,1175,470,-6.23643,8.85689
-42,554,-6.62524,-11.5382,0,0,0,0,0,0,0,-1,1182,470,-6.62522,11.5382
-35,554,-2.40173,-4.59482,0,0,0,0,0,0,0,-1,1189,470,-2.40169,4.59481
-28,554,-0.760132,-1.65555,0,0,0,0,0,0,0,-1,1196,470,-0.760095,1.65556
-21,554,7.92444,-43.2634,0,0,0,0,0,0,0,-1,1203,470,7.92438,43.2634
-14,554,4.43188,-57.3478,0,0,0,0,0,0,0,-1,1210,470,4.43193,57.3478
-7,554,4.10291,-57.9823,0,0,0,0,0,0,0,-1,1217,470,4.10297,57.9823
0,554,3.93152,-58.5786,0,0,0,0,0,0,0,-1,1224,470,3.93154,58.5786
7,554,3.47668,-59.1713,0,0,0,0,0,0,0,-1,1231,470,3.47671,59.1713
14,554,2.88049,-60.02,0,0,0,0,0,0,0,-1,1238,470,2.88054,60.0199
21,554,2.49683,-60.6917,0,0,0,0,0,0,0,-1,1245,470,2.49685,60.6917
28,554,2.36365,-61.1967,0,0,0,0,0,0,0,-1,1252,470,2.36364,61.1966
35,554,2.52722,-61.8244,0,0,0,0,0,0,0,-1,1259,470,2.52719,61.8244
42,554,2.52856,-61.3603,0,0,0,0,0,0,0,-1,1266,470,2.52851,61.3603
49,554,2.4386,-60.8357,0,0,0,0,0,0,0,-1,1273,470,2.43859,60.8357
56,554,2.71741,-60.3277,0,0,0,0,0,0,0,-1,1280,470,2.71742,60.3277
63,554,3.15894,-59.7413,0,0,0,0,0,0,0,-1,1287,470,3.15899,59.7413
70,554,7.02161,-60.7407,0,0,0,0,0,0,0,-1,1294,470,7.02166,60.7407
77,554,8.12695,-60.865,0,0,0,0,0,0,0,-1,1301,470,8.1269,60.865
84,554,4.05286,-60.3292,0,0,0,0,0,0,0,-1,1308,470,4.05281,60.3292
91,554,4.23376,-61.7517,0,0,0,0,0,0,0,-1,1315,470,4.23375,61.7517
98,554,3.854,-61.704,0,0,0,0,0,0,0,-1,1322,470,3.85396,61.704
105,554,3.52625,-65.5538,0,0,0,0,0,0,0,-1,1329,470,3.52622,65.5538
112,554,4.4541,-65.7621,0,0,0,0,0,0,0,-1,1336,470,4.45407,65.7622
119,554,5.36304,-66.0568,0,0,0,0,0,0,0,-1,1343,470,5.36305,66.0567
126,554,6.09082,-66.7286,0,0,0,0,0,0,0,-1,1350,470,6.09077,66.7286
133,554,6.78613,-67.4269,0,0,0,0,0,0,0,-1,1357,470,6.78614,67.4269
140,554,7.44641,-68.097,0,0,0,0,0,0,0,-1,1364,470,7.44647,68.097
147,554,7.18152,-69.7967,0,0,0,0,0,0,0,-1,1371,470,7.18155,69.7967
154,554,7.15149,-70.8268,0,0,0,0,0,0,0,-1,1378,470,7.15147,70.8268
161,554,7.0127,-71.9655,0,0,0,0,0,0,0,-1,1385,470,7.01269,71.9655
168,554,7.22803,-73.0658,0,0,0,0,0,0,0,-1,1392,470,7.22805,73.0658
175,554,10.663,0.286957,0,0,0,0,0,0,0,-1,1399,470,10.663,-0.286966
182,554,6.71106,-4.50217,0,0,0,0,0,0,0,-1,1406,470,6.71107,4.50215
189,554,6.90479,-2.50348,0,0,0,0,0,0,0,-1,1413,470,6.90477,2.50348
196,554,6.96216,-0.740906,0,0,0,0,0,0,0,-1,1420,470,6.96214,0.740912
203,554,6.43518,0.414154,0,0,0,0,0,0,0,-1,1427,470,6.43523,-0.414141
210,554,6.21167,1.96707,0,0,0,0,0,0,0,-1,1434,470,6.21165,-1.96706
217,554,5.64551,3.4989,0,0,0,0,0,0,0,-1,1441,470,5.64555,-3.49891
224,554,4.85144,-8.85172,0,0,0,0,0,0,0,-1,1448,470,4.85146,8.85173
231,554,3.25073,-5.29642,0,0,0,0,0,0,0,-1,1455,470,3.25078,5.29642
238,554,4.28625,-3.25253,0,0,0,0,0,0,0,-1,1462,470,4.28622,3.25252
245,554,4.0752,-2.90033,0,0,0,0,0,0,0,-1,1469,470,4.07515,2.90032
252,554,3.52112,-0.934998,0,0,0,0,0,0,0,-1,1476,470,3.52113,0.934996
259,554,3.96448,-2.16425,0,0,0,0,0,0,0,-1,1483,470,3.96446,2.16424
266,554,3.0592,-2.71716,0,0,0,0,0,0,0,-1,1490,470,3.05923,2.71718
273,554,2.58521,-3.06876,0,0,0,0,0,0,0,-1,1497,470,2.58524,3.06874
280,554,2.83301,-0.991699,0,0,0,0,0,0,0,-1,1504,470,2.83303,0.991704
287,554,15.0872,-51.8229,0,0,0,0,0,0,0,-1,1511,470,15.0871,51.8229
294,554,14.9233,-50.1505,0,0,0,0,0,0,0,-1,1518,470,14.9233,50.1505
301,554,15.0814,-48.906,0,0,0,0,0,0,0,-1,1525,470,15.0815,48.906
308,554,14.5806,-49.2349,0,0,0,0,0,0,0,-1,1532,470,14.5805,49.2349
315,554,14.939,-48.4527,0.00038945,-0.0272711,-0.0117435,0.00470269,-0.0315844,-0.351991,0.0227861,0.0492386,1539,470,14.939,48.4527
322,554,14.6388,-47.8563,0.00027215,-0.0258065,-0.0110733,0.00433963,-0.029874,-0.352022,0.021509,0.0377933,1546,470,14.6388,47.8563
329,554,14.6241,-47.2802,0.000285088,-0.0238075,-0.0101374,0.00398298,-0.0275054,-0.349779,0.0197986,0.0234832,1553,470,14.6241,47.2801
336,554,14.5977,-46.6655,0.000330937,-0.0214218,-0.0091459,0.00366523,-0.0247561,-0.349592,0.0178517,0.0143087,1560,470,14.5977,46.6654
343,554,14.5775,-45.9716,0.000404387,-0.0191685,-0.00807723,0.00330716,-0.0220713,-0.345004,0.0159314,0.0113764,1567,470,14.5775,45.9716
350,554,14.5433,-45.1987,0.000709798,-0.0158893,-0.00665099,0.00304595,-0.0182254,-0.337787,0.0132825,0.0109364,1574,470,14.5433,45.1987
357,554,14.5298,-44.4323,0.00104849,-0.012322,-0.00505729,0.00274589,-0.0140194,-0.32382,0.0103833,0.0117639,1581,470,14.5298,44.4322
364,554,14.5039,-43.7208,0.00121986,-0.00930399,-0.00364992,0.00236182,-0.010446,-0.303225,0.00787027,0.00946522,1588,470,14.5039,43.7208
371,554,14.4727,-42.937,0.00148964,-0.00631358,-0.00220575,0.00206999,-0.00689392,-0.257273,0.00541936,0.00931199,1595,470,14.4726,42.937
378,554,14.4384,-42.1252,0.00151997,-0.00359016,-0.00107134,0.00173549,-0.00380568,-0.198517,0.00327277,0.0109504,1602,470,14.4383,42.1252
385,554,14.4143,-41.3384,0.00141636,-0.00137262,-0.000100711,0.00141999,-0.00137625,-0.0360479,0.00161447,0.0101607,1609,470,14.4143,41.3384
392,554,14.3988,-40.5378,0.00147255,0.000422233,0.000869754,0.0019634,-6.86115e-05,0.513793,0.00133239,0.0139664,1616,470,14.3988,40.5378
399,554,14.3718,-39.7128,0.00143686,0.0022849,0.00158419,0.00350084,0.000220929,0.916161,0.00226385,0.0187307,1623,470,14.3718,39.7128
406,554,14.3317,-38.9133,0.00128929,0.00331042,0.0021601,0.00468465,-8.49389e-05,1.00419,0.0031518,0.0180497,1630,470,14.3317,38.9133
413,554,14.2726,-38.1313,0.000976606,0.00382414,0.00248042,0.00526037,-0.000459628,1.04594,0.00366973,0.0164765,1637,470,14.2726,38.1313
420,554,14.226,-37.3296,0.000550925,0.00403803,0.00266982,0.00548319,-0.000894235,1.07466,0.00398711,0.0170692,1644,470,14.2259,37.3296
427,554,14.1897,-36.4834,0.00011724,0.00418149,0.00287459,0.0056697,-0.00137097,1.09308,0.0043101,0.012163,1651,470,14.1896,36.4834
434,554,14.1322,-35.6729,-0.00034583,0.00426234,0.00305274,0.00578292,-0.00186641,1.10867,0.00460526,0.0103084,1658,470,14.1322,35.6729
441,554,14.0771,-34.8437,-0.000971588,0.00427519,0.00321078,0.00579803,-0.00249443,1.12793,0.00491267,0.0111596,1665,470,14.0771,34.8437
448,554,14.0198,-33.9456,-0.00174797,0.00414625,0.00330036,0.00562382,-0.00322554,1.14986,0.00517134,0.0155151,1672,470,14.0198,33.9456
455,554,13.9771,-33.099,-0.0025631,0.00391238,0.00346174,0.00541454,-0.00406526,1.16139,0.00549161,0.0171412,1679,470,13.977,33.099
462,554,13.8606,-32.3116,-0.00329774,0.00397609,0.00371437,0.00553761,-0.00485926,1.17283,0.00600689,0.0199349,1686,470,13.8606,32.3116
469,554,13.6331,-31.4921,-0.00380811,0.00416778,0.00397564,0.00581094,-0.00545127,1.17887,0.00650335,0.0264925,1693,470,13.6331,31.4921
476,554,13.528,-30.4947,-0.00418392,0.00441878,0.00422912,0.00614961,-0.00591474,1.18233,0.00696579,0.0463076,1700,470,13.5279,30.4947
483,554,13.4467,-29.4896,0,0,0,0,0,0,0,-1,1707,470,13.4466,29.4896
490,554,12.5504,-17.9805,0,0,0,0,0,0,0,-1,1714,470,12.5505,17.9805
497,554,14.3204,-17.9055,0,0,0,0,0,0,0,-1,1721,470,14.3204,17.9055
504,554,2.13257,-3.81628,0,0,0,0,0,0,0,-1,1728,470,2.1326,3.8163
511,554,1.31396,-4.02713,0,0,0,0,0,0,0,-1,1735,470,1.31398,4.02712
518,554,5.04236,-5.9472,0,0,0,0,0,0,0,-1,1742,470,5.04231,5.94721
525,554,0,0,0,0,0,0,0,0,0,-1,1749,470,0,0
532,554,0,0,0,0,0,0,0,0,0,-1,1756,470,0,0
539,554,0,0,0,0,0,0,0,0,0,-1,1763,470,0,0
546,554,0,0,0,0,0,0,0,0,0,-1,1770,470,0,0
553,554,0,0,0,0,0,0,0,0,0,-1,1777,470,0,0
560,554,0,0,0,0,0,0,0,0,0,-1,1784,470,0,0
567,554,0,0,0,0,0,0,0,0,0,-1,1791,470,0,0
574,554,0,0,0,0,0,0,0,0,0,-1,1798,470,0,0
581,554,0,0,0,0,0,0,0,0,0,-1,1805,470,0,0
588,554,0,0,0,0,0,0,0,0,0,-1,1812,470,0,0
595,554,0,0,0,0,0,0,0,0,0,-1,1819,470,0,0
602,554,0,0,0,0,0,0,0,0,0,-1,1826,470,0,0
609,554,0,0,0,0,0,0,0,0,0,-1,1833,470,0,0
616,554,0,0,0,0,0,0,0,0,0,-1,1840,470,0,0
623,554,0,0,0,0,0,0,0,0,0,-1,1847,470,0,0
630,554,0,0,0,0,0,0,0,0,0,-1,1854,470,0,0
637,554,0,0,0,0,0,0,0,0,0,-1,1861,470,0,0
644,554,0,0,0,0,0,0,0,0,0,-1,1868,470,0,0
651,554,0,0,0,0,0,0,0,0,0,-1,1875,470,0,0
658,554,0,0,0,0,0,0,0,0,0,-1,1882,470,0,0
665,554,0,0,0,0,0,0,0,0,0,-1,1889,470,0,0
672,554,0,0,0,0,0,0,0,0,0,-1,1896,470,0,0
679,554,0,0,0,0,0,0,0,0,0,-1,1903,470,0,0
686,554,0,0,0,0,0,0,0,0,0,-1,1910,470,0,0
693,554,0,0,0,0,0,0,0,0,0,-1,1917,470,0,0
700,554,0,0,0,0,0,0,0,0,0,-1,1924,470,0,0
707,554,0,0,0,0,0,0,0,0,0,-1,1931,470,0,0
714,554,0,0,0,0,0,0,0,0,0,-1,1938,470,0,0
721,554,0,0,0,0,0,0,0,0,0,-1,1945,470,0,0
728,554,0,0,0,0,0,0,0,0,0,-1,1952,470,0,0
735,554,0,0,0,0,0,0,0,0,0,-1,1959,470,0,0
742,554,0,0,0,0,0,0,0,0,0,-1,1966,470,0,0
749,554,0,0,0,0,0,0,0,0,0,-1,1973,470,0,0
756,554,0,0,0,0,0,0,0,0,0,-1,1980,470,0,0
763,554,0,0,0,0,0,0,0,0,0,-1,1987,470,0,0
770,554,0,0,0,0,0,0,0,0,0,-1,1994,470,0,0
777,554,0,0,0,0,0,0,0,0,0,-1,2001,470,0,0
784,554,0,0,0,0,0,0,0,0,0,-1,2008,470,0,0
791,554,0,0,0,0,0,0,0,0,0,-1,2015,470,0,0
798,554,0,0,0,0,0,0,0,0,0,-1,2022,470,0,0
805,554,0,0,0,0,0,0,0,0,0,-1,2029,470,0,0
812,554,0,0,0,0,0,0,0,0,0,-1,2036,470,0,0
-700,547,0,0,0,0,0,0,0,0,0,-1,524,477,0,0
-693,547,0,0,0,0,0,0,0,0,0,-1,531,477,0,0
-686,547,0,0,0,0,0,0,0,0,0,-1,538,477,0,0
-679,547,0,0,0,0,0,0,0,0,0,-1,545,477,0,0
-672,547,0,0,0,0,0,0,0,0,0,-1,552,477,0,0
-665,547,0,0,0,0,0,0,0,0,0,-1,559,477,0,0
-658,547,0,0,0,0,0,0,0,0,0,-1,566,477,0,0
-651,547,0,0,0,0,0,0,0,0,0,-1,573,477,0,0
-644,547,0,0,0,0,0,0,0,0,0,-1,580,477,0,0
-637,547,0,0,0,0,0,0,0,0,0,-1,587,477,0,0
-630,547,0,0,0,0,0,0,0,0,0,-1,594,477,0,0
-623,547,0,0,0,0,0,0,0,0,0,-1,601,477,0,0
-616,547,0,0,0,0,0,0,0,0,0,-1,608,477,0,0
-609,547,0,0,0,0,0,0,0,0,0,-1,615,477,0,0
-602,547,0,0,0,0,0,0,0,0,0,-1,622,477,0,0
-595,547,0,0,0,0,0,0,0,0,0,-1,629,477,0,0
-588,547,0,0,0,0,0,0,0,0,0,-1,636,477,0,0
-581,547,0,0,0,0,0,0,0,0,0,-1,643,477,0,0
-574,547,0,0,0,0,0,0,0,0,0,-1,650,477,0,0
-567,547,0,0,0,0,0,0,0,0,0,-1,657,477,0,0
-560,547,0,0,0,0,0,0,0,0,0,-1,664,477,0,0
-553,547,0,0,0,0,0,0,0,0,0,-1,671,477,0,0
-546,547,0,0,0,0,0,0,0,0,0,-1,678,477,0,0
-539,547,0,0,0,0,0,0,0,0,0,-1,685,477,0,0
-532,547,0,0,0,0,0,0,0,0,0,-1,692,477,0,0
-525,547,0,0,0,0,0,0,0,0,0,-1,699,477,0,0
-518,547,0,0,0,0,0,0,0,0,0,-1,706,477,0,0
-511,547,0,0,0,0,0,0,0,0,0,-1,713,477,0,0
-504,547,0,0,0,0,0,0,0,0,0,-1,720,477,0,0
-497,547,0,0,0,0,0,0,0,0,0,-1,727,477,0,0
-490,547,0,0,0,0,0,0,0,0,0,-1,734,477,0,0
-483,547,0,0,0,0,0,0,0,0,0,-1,741,477,0,0
-476,547,0,0,0,0,0,0,0,0,0,-1,748,477,0,0
-469,547,0,0,0,0,0,0,0,0,0,-1,755,477,0,0
-462,547,0,0,0,0,0,0,0,0,0,-1,762,477,0,0
-455,547,0,0,0,0,0,0,0,0,0,-1,769,477,0,0
-448,547,0,0,0,0,0,0,0,0,0,-1,776,477,0,0
-441,547,0,0,0,0,0,0,0,0,0,-1,783,477,0,0
-434,547,0,0,0,0,0,0,0,0,0,-1,790,477,0,0
-427,547,0,0,0,0,0,0,0,0,0,-1,797,477,0,0
-420,547,0,0,0,0,0,0,0,0,0,-1,804,477,0,0
-413,547,0,0,0,0,0,0,0,0,0,-1,811,477,0,0
-406,547,0.144592,-11.0292,0,0,0,0,0,0,0,-1,818,477,0.144583,11.0292
-399,547,0.775513,-10.0294,0,0,0,0,0,0,0,-1,825,477,0.775482,10.0295
-392,547,-1.52271,-4.41675,0,0,0,0,0,0,0,-1,832,477,-1.52273,4.41674
-385,547,-1.73743,-4.6431,0,0,0,0,0,0,0,-1,839,477,-1.73743,4.64308
-378,547,2.09747,-26.8325,0,0,0,0,0,0,0,-1,846,477,2.09746,26.8325
-371,547,1.90076,-27.524,0,0,0,0,0,0,0,-1,853,477,1.90078,27.5241
-364,547,1.6582,-28.2067,0,0,0,0,0,0,0,-1,860,477,1.6582,28.2067
-357,547,1.54974,-28.8367,0,0,0,0,0,0,0,-1,867,477,1.54973,28.8367
-350,547,1.07037,-30.6064,0,0,0,0,0,0,0,-1,874,477,1.0704,30.6064
-343,547,1.02277,-31.6323,0.00566012,0.0252374,-0.0129875,0.031712,-0.000814432,-1.10833,0.0214179,0.0460526,881,477,1.02277,31.6323
-336,547,1.0564,-32.703,0.00403571,0.0204251,-0.0101408,0.0252684,-0.000807586,-1.12523,0.0171211,0.0186258,888,477,1.05638,32.703
-329,547,0.944153,-33.5888,0.0027818,0.0163236,-0.007813,0.0198914,-0.000785972,-1.14243,0.0135305,0.0110886,895,477,0.944125,33.5888
-322,547,0.894531,-34.4496,0.00167738,0.0127616,-0.00580352,0.0152442,-0.000805212,-1.16658,0.0104416,0.0114262,902,477,0.894517,34.4496
-315,547,0.845581,-35.3272,0.000869401,0.00988005,-0.00423184,0.0115559,-0.00080641,-1.19374,0.00798629,0.0101008,909,477,0.845581,35.3272
-308,547,0.791443,-36.1552,0.000311206,0.00755987,-0.00308259,0.0086935,-0.000822422,-1.2184,0.00608835,0.0120072,916,477,0.791469,36.1552
-301,547,0.726379,-36.9704,0.000176078,0.00544821,-0.00229934,0.00631011,-0.000685826,-1.21216,0.00445299,0.0123729,923,477,0.726404,36.9704
-294,547,0.651306,-37.7739,0.00022839,0.00394852,-0.00164463,0.00457133,-0.000394415,-1.20879,0.00318717,0.0103879,930,477,0.651323,37.7739
-287,547,0.619324,-38.5739,0.000287455,0.00269612,-0.00104565,0.00308672,-0.000103143,-1.2133,0.00209304,0.0123458,937,477,0.619325,38.5739
-280,547,0.600647,-39.377,0.000350371,0.00126165,-0.000507097,0.00148774,0.000124282,-1.1514,0.000953106,0.0148239,944,477,0.600633,39.377
-273,547,0.543701,-40.1743,0.000395584,-0.000273529,0.00019952,0.000450561,-0.000328506,0.268873,0.000451631,0.0140032,951,477,0.543711,40.1743
-266,547,0.492065,-40.9486,0.000522746,-0.0021199,0.00114184,0.00094776,-0.00254492,0.35633,0.00208559,0.013467,958,477,0.492081,40.9486
-259,547,0.452271,-41.6978,0.000870232,-0.00428651,0.00216918,0.00166133,-0.00507761,0.34971,0.00405396,0.0120627,965,477,0.452271,41.6978
-252,547,0.445251,-42.4776,0.00135443,-0.00683156,0.00340968,0.00258858,-0.00806571,0.347287,0.00641648,0.0114269,972,477,0.445237,42.4776
-245,547,0.429138,-43.2597,0.00178439,-0.00951136,0.00467597,0.00346885,-0.0111958,0.345766,0.00884976,0.0122162,979,477,0.429131,43.2597
-238,547,0.402527,-44.0537,0.00234665,-0.0125356,0.00600395,0.0044668,-0.0146557,0.339456,0.011551,0.00868267,986,477,0.402506,44.0537
-231,547,0.367249,-44.8054,0.00300646,-0.0158046,0.00733464,0.00552825,-0.0183264,0.331157,0.0144181,0.00844892,993,477,0.367228,44.8054
-224,547,0.344543,-45.4943,0.00366075,-0.019208,0.00873985,0.00661838,-0.0221656,0.326311,0.0174078,0.0108794,1000,477,0.344541,45.4943
-217,547,0.346069,-46.1475,0.00446493,-0.0225943,0.0100182,0.00777022,-0.0258996,0.318684,0.0203569,0.016345,1007,477,0.346083,46.1475
-210,547,0.392273,-46.7397,0.00531724,-0.025928,0.0110836,0.00884957,-0.0294604,0.308522,0.0231607,0.0262904,1014,477,0.392295,46.7397
-203,547,0.500366,-47.1781,0.00614453,-0.0288497,0.0119291,0.00982409,-0.0325293,0.299194,0.0255972,0.0396562,1021,477,0.50038,47.1781
-196,547,0.659058,-47.8596,0,0,0,0,0,0,0,-1,1028,477,0.659027,47.8595
-189,547,0.744385,-48.3256,0,0,0,0,0,0,0,-1,1035,477,0.744327,48.3256
-182,547,0.627441,-48.9017,0,0,0,0,0,0,0,-1,1042,477,0.627392,48.9017
-175,547,1.37634,-47.526,0,0,0,0,0,0,0,-1,1049,477,1.3763,47.526
-168,547,0.761719,-32.9387,0,0,0,0,0,0,0,-1,1056,477,0.761738,32.9387
-161,547,0.0430908,-34.6016,0,0,0,0,0,0,0,-1,1063,477,0.0431231,34.6016
-154,547,-0.284424,-31.1176,0,0,0,0,0,0,0,-1,1070,477,-0.284395,31.1176
-147,547,3.69434,-26.413,0,0,0,0,0,0,0,-1,1077,477,3.69437,26.413
-140,547,1.55676,-22.5229,0,0,0,0,0,0,0,-1,1084,477,1.5568,22.5229
-133,547,2.31665,-17.9421,0,0,0,0,0,0,0,-1,1091,477,2.31667,17.9421
-126,547,-1.15271,-30.6984,0,0,0,0,0,0,0,-1,1098,477,-1.15267,30.6984
-119,547,0.967651,-24.9351,0,0,0,0,0,0,0,-1,1105,477,0.967657,24.9351
-112,547,1.15674,-22.2276,0,0,0,0,0,0,0,-1,1112,477,1.15677,22.2276
-105,547,0.966797,-20.5777,0,0,0,0,0,0,0,-1,1119,477,0.966804,20.5777
-98,547,0.70166,-18.9755,0,0,0,0,0,0,0,-1,1126,477,0.701713,18.9755
-91,547,1.37805,-7.12024,0,0,0,0,0,0,0,-1,1133,477,1.37804,7.12025
-84,547,1.94202,-6.66241,0,0,0,0,0,0,0,-1,1140,477,1.94201,6.66241
-77,547,-2.28357,1.8588,0,0,0,0,0,0,0,-1,1147,477,-2.28356,-1.85879
-70,547,-3.70178,-0.874908,0,0,0,0,0,0,0,-1,1154,477,-3.70182,0.874918
-63,547,-5.12012,-3.60861,0,0,0,0,0,0,0,-1,1161,477,-5.12009,3.60862
-56,547,-6.01917,-6.2399,0,0,0,0,0,0,0,-1,1168,477,-6.01921,6.23991
-49,547,-6.729,-8.60349,0,0,0,0,0,0,0,-1,1175,477,-6.72899,8.60348
-42,547,-2.41736,-5.53012,0,0,0,0,0,0,0,-1,1182,477,-2.41734,5.53011
-35,547,-2.96838,-4.45734,0,0,0,0,0,0,0,-1,1189,477,-2.96839,4.45734
-28,547,-0.869141,-1.29901,0,0,0,0,0,0,0,-1,1196,477,-0.869135,1.29901
-21,547,-7.68262,-30.8089,0,0,0,0,0,0,0,-1,1203,477,-7.68256,30.8089
-14,547,3.06543,-57.4219,0,0,0,0,0,0,0,-1,1210,477,3.06539,57.4219
-7,547,2.78979,-57.99,0,0,0,0,0,0,0,-1,1217,477,2.78985,57.99
0,547,2.7229,-58.3349,0,0,0,0,0,0,0,-1,1224,477,2.72295,58.3349
7,547,2.13452,-59.0328,0,0,0,0,0,0,0,-1,1231,477,2.13447,59.0328
14,547,0,0,0,0,0,0,0,0,0,-1,1238,477,0,0
21,547,0,0,0,0,0,0,0,0,0,-1,1245,477,0,0
28,547,0,0,0,0,0,0,0,0,0,-1,1252,477,0,0
35,547,0,0,0,0,0,0,0,0,0,-1,1259,477,0,0
42,547,0,0,0,0,0,0,0,0,0,-1,1266,477,0,0
49,547,0,0,0,0,0,0,0,0,0,-1,1273,477,0,0
56,547,0,0,0,0,0,0,0,0,0,-1,1280,477,0,0
63,547,0,0,0,0,0,0,0,0,0,-1,1287,477,0,0
70,547,0,0,0,0,0,0,0,0,0,-1,1294,477,0,0
77,547,0,0,0,0,0,0,0,0,0,-1,1301,477,0,0
84,547,0,0,0,0,0,0,0,0,0,-1,1308,477,0,0
91,547,0,0,0,0,0,0,0,0,0,-1,1315,477,0,0
98,547,0,0,0,0,0,0,0,0,0,-1,1322,477,0,0
105,547,2.1228,-65.6545,0,0,0,0,0,0,0,-1,1329,477,2.12279,65.6545
112,547,3.23364,-65.7172,0,0,0,0,0,0,0,-1,1336,477,3.2337,65.7172
119,547,4.77478,-66.5185,0,0,0,0,0,0,0,-1,1343,477,4.77474,66.5185
126,547,5.89429,-66.9139,0,0,0,0,0,0,0,-1,1350,477,5.89429,66.9139
133,547,6.42419,-67.7249,0,0,0,0,0,0,0,-1,1357,477,6.42425,67.7249
140,547,6.77332,-68.9095,0,0,0,0,0,0,0,-1,1364,477,6.77336,68.9095
147,547,7.08533,-69.9784,0,0,0,0,0,0,0,-1,1371,477,7.08539,69.9784
154,547,7.20117,-71.0496,0,0,0,0,0,0,0,-1,1378,477,7.20113,71.0496
161,547,7.37061,-72.2669,0,0,0,0,0,0,0,-1,1385,477,7.37065,72.2669
168,547,0.68689,-68.7853,0,0,0,0,0,0,0,-1,1392,477,0.68688,68.7854
175,547,3.35034,-0.26532,0,0,0,0,0,0,0,-1,1399,477,3.3503,0.265306
182,547,4.26038,3.72672,0,0,0,0,0,0,0,-1,1406,477,4.26039,-3.7267
189,547,3.40454,1.28671,0,0,0,0,0,0,0,-1,1413,477,3.40457,-1.28673
196,547,3.53931,1.87793,0,0,0,0,0,0,0,-1,1420,477,3.53928,-1.87794
203,547,6.49414,-0.425842,0,0,0,0,0,0,0,-1,1427,477,6.4941,0.425844
210,547,4.82092,0.53595,0,0,0,0,0,0,0,-1,1434,477,4.82096,-0.535942
217,547,4.68579,0.480072,0,0,0,0,0,0,0,-1,1441,477,4.68577,-0.480069
224,547,4.55615,0.739807,0,0,0,0,0,0,0,-1,1448,477,4.55613,-0.73981
231,547,5.90869,-3.57721,0,0,0,0,0,0,0,-1,1455,477,5.90871,3.57722
238,547,5.50049,-3.15356,0,0,0,0,0,0,0,-1,1462,477,5.50045,3.15356
245,547,5.13708,-2.65213,0,0,0,0,0,0,0,-1,1469,477,5.13708,2.65212
252,547,3.73511,-0.645233,0,0,0,0,0,0,0,-1,1476,477,3.73515,0.645237
259,547,5.86816,-3.20816,0,0,0,0,0,0,0,-1,1483,477,5.86815,3.20816
266,547,5.40222,-2.45731,0,0,0,0,0,0,0,-1,1490,477,5.40221,2.45732
273,547,3.05737,0.495789,0,0,0,0,0,0,0,-1,1497,477,3.05742,-0.49578
280,547,2.0885,1.47797,0,0,0,0,0,0,0,-1,1504,477,2.08848,-1.47795
287,547,2.31177,-2.21716,0,0,0,0,0,0,0,-1,1511,477,2.31174,2.21717
294,547,2.4823,-3.03659,0,0,0,0,0,0,0,-1,1518,477,2.48229,3.0366
301,547,16.2847,-48.0674,0,0,0,0,0,0,0,-1,1525,477,16.2846,48.0674
308,547,14.5352,-46.2472,0,0,0,0,0,0,0,-1,1532,477,14.5351,46.2472
315,547,16.0662,-48.0747,0,0,0,0,0,0,0,-1,1539,477,16.0661,48.0747
322,547,15.4285,-47.4945,0,0,0,0,0,0,0,-1,1546,477,15.4284,47.4945
329,547,15.3948,-47.0616,0,0,0,0,0,0,0,-1,1553,477,15.3948,47.0616
336,547,15.699,-46.4469,9.50831e-05,-0.0294894,-0.0124003,0.00460511,-0.0339995,-0.34883,0.024347,0.0447983,1560,477,15.699,46.4469
343,547,15.4633,-45.9343,0.000358612,-0.0263832,-0.0110634,0.00434224,-0.0303668,-0.34562,0.0218363,0.0352089,1567,477,15.4633,45.9344
350,547,15.3391,-45.1835,0.000849428,-0.0220973,-0.0092862,0.00413653,-0.0253845,-0.340214,0.018457,0.0238849,1574,477,15.3391,45.1834
357,547,15.3201,-44.4288,0.00131978,-0.0174673,-0.00732664,0.00383918,-0.0199867,-0.331202,0.0147715,0.0159949,1581,477,15.3201,44.4288
364,547,15.2925,-43.6878,0.00154805,-0.0135981,-0.00564032,0.00341768,-0.0154677,-0.320078,0.0116198,0.0116687,1588,477,15.2924,43.6878
371,547,15.2789,-42.8936,0.00189068,-0.00982387,-0.00393547,0.00309001,-0.0110232,-0.295807,0.00856662,0.0100988,1595,477,15.2789,42.8936
378,547,15.2451,-42.0957,0.00192157,-0.00644264,-0.0025882,0.00265767,-0.00717874,-0.277091,0.00587561,0.0108393,1602,477,15.2451,42.0957
385,547,15.1974,-41.3046,0.00181842,-0.00370723,-0.00135828,0.00213425,-0.00402306,-0.228464,0.00361025,0.0110996,1609,477,15.1974,41.3046
392,547,15.1833,-40.5165,0.00187293,-0.00154461,-0.000182869,0.00188269,-0.00155436,-0.053306,0.0019874,0.0122727,1616,477,15.1834,40.5165
399,547,15.1388,-39.7161,0.00171126,0.000851259,0.000605628,0.00202402,0.000538505,0.476692,0.00121045,0.0141092,1623,477,15.1388,39.7161
406,547,15.1193,-38.9154,0.00153569,0.00209245,0.00128207,0.00312601,0.000502119,0.892305,0.00193844,0.0144199,1630,477,15.1193,38.9154
413,547,15.0824,-38.1201,0.00128446,0.00274092,0.0017074,0.00386891,0.000156473,0.986973,0.00252873,0.0146148,1637,477,15.0823,38.1201
420,547,15.0598,-37.3005,0.000905299,0.00305403,0.00196468,0.00421891,-0.000259584,1.03561,0.00290301,0.0168535,1644,477,15.0599,37.3005
427,547,15.0306,-36.4446,0.000480839,0.00326162,0.00218867,0.00446419,-0.000721734,1.06837,0.00324358,0.0164466,1651,477,15.0307,36.4446
434,547,14.9324,-35.6581,5.95741e-05,0.00338393,0.00240057,0.00464161,-0.0011981,1.08821,0.00356159,0.0107818,1658,477,14.9324,35.6582
441,547,14.8556,-34.8571,-0.000472876,0.00349717,0.00262078,0.00479982,-0.00177553,1.10951,0.00392785,0.0105283,1665,477,14.8556,34.8571
448,547,14.7987,-33.982,-0.00112188,0.0034637,0.00278272,0.00477652,-0.0024347,1.12998,0.00423594,0.0113662,1672,477,14.7987,33.982
455,547,14.7621,-33.1222,-0.00177949,0.00339008,0.00298951,0.00475729,-0.00314671,1.14186,0.00459485,0.0119958,1679,477,14.762,33.1222
462,547,14.6814,-32.2803,-0.0022884,0.00351866,0.00325315,0.00497558,-0.00374531,1.14973,0.00505168,0.0119358,1686,477,14.6814,32.2803
469,547,14.5358,-31.4174,-0.00251811,0.00377748,0.00353455,0.00536272,-0.00410335,1.14919,0.00548134,0.0212503,1693,477,14.5358,31.4174
476,547,14.4081,-30.4116,-0.00268734,0.00411878,0.00380702,0.00582201,-0.00439057,1.15011,0.00591551,0.0360051,1700,477,14.4081,30.4116
483,547,14.3597,-29.3378,0,0,0,0,0,0,0,-1,1707,477,14.3597,29.3378
490,547,3.65271,-3.71707,0,0,0,0,0,0,0,-1,1714,477,3.65277,3.71708
497,547,2.55481,-3.81421,0,0,0,0,0,0,0,-1,1721,477,2.55476,3.8142
504,547,4.01953,-2.22714,0,0,0,0,0,0,0,-1,1728,477,4.0195,2.22713
511,547,5.2146,-6.9552,0,0,0,0,0,0,0,-1,1735,477,5.21464,6.95521
518,547,5.24243,-6.56122,0,0,0,0,0,0,0,-1,1742,477,5.24241,6.56121
525,547,5.89368,-5.49866,0,0,0,0,0,0,0,-1,1749,477,5.89372,5.49866
532,547,0,0,0,0,0,0,0,0,0,-1,1756,477,0,0
539,547,0,0,0,0,0,0,0,0,0,-1,1763,477,0,0
546,547,0,0,0,0,0,0,0,0,0,-1,1770,477,0,0
553,547,0,0,0,0,0,0,0,0,0,-1,1777,477,0,0
560,547,0,0,0,0,0,0,0,0,0,-1,1784,477,0,0
567,547,0,0,0,0,0,0,0,0,0,-1,1791,477,0,0
574,547,0,0,0,0,0,0,0,0,0,-1,1798,477,0,0
581,547,0,0,0,0,0,0,0,0,0,-1,1805,477,0,0
588,547,0,0,0,0,0,0,0,0,0,-1,1812,477,0,0
595,547,0,0,0,0,0,0,0,0,0,-1,1819,477,0,0
602,547,0,0,0,0,0,0,0,0,0,-1,1826,477,0,0
609,547,0,0,0,0,0,0,0,0,0,-1,1833,477,0,0
616,547,0,0,0,0,0,0,0,0,0,-1,1840,477,0,0
623,547,0,0,0,0,0,0,0,0,0,-1,1847,477,0,0
630,547,0,0,0,0,0,0,0,0,0,-1,1854,477,0,0
637,547,0,0,0,0,0,0,0,0,0,-1,1861,477,0,0
644,547,0,0,0,0,0,0,0,0,0,-1,1868,477,0,0
651,547,0,0,0,0,0,0,0,0,0,-1,1875,477,0,0
658,547,0,0,0,0,0,0,0,0,0,-1,1882,477,0,0
665,547,0,0,0,0,0,0,0,0,0,-1,1889,477,0,0
672,547,0,0,0,0,0,0,0,0,0,-1,1896,477,0,0
679,547,0,0,0,0,0,0,0,0,0,-1,1903,477,0,0
686,547,0,0,0,0,0,0,0,0,0,-1,1910,477,0,0
693,547,0,0,0,0,0,0,0,0,0,-1,1917,477,0,0
700,547,0,0,0,0,0,0,0,0,0,-1,1924,477,0,0
707,547,0,0,0,0,0,0,0,0,0,-1,1931,477,0,0
714,547,0,0,0,0,0,0,0,0,0,-1,1938,477,0,0
721,547,0,0,0,0,0,0,0,0,0,-1,1945,477,0,0
728,547,0,0,0,0,0,0,0,0,0,-1,1952,477,0,0
735,547,0,0,0,0,0,0,0,0,0,-1,1959,477,0,0
742,547,0,0,0,0,0,0,0,0,0,-1,1966,477,0,0
749,547,0,0,0,0,0,0,0,0,0,-1,1973,477,0,0
756,547,0,0,0,0,0,0,0,0,0,-1,1980,477,0,0
763,547,0,0,0,0,0,0,0,0,0,-1,1987,477,0,0
770,547,0,0,0,0,0,0,0,0,0,-1,1994,477,0,0
777,547,0,0,0,0,0,0,0,0,0,-1,2001,477,0,0
784,547,0,0,0,0,0,0,0,0,0,-1,2008,477,0,0
791,547,0,0,0,0,0,0,0,0,0,-1,2015,477,0,0
798,547,0,0,0,0,0,0,0,0,0,-1,2022,477,0,0
805,547,0,0,0,0,0,0,0,0,0,-1,2029,477,0,0
812,547,0,0,0,0,0,0,0,0,0,-1,2036,477,0,0
-700,540,0,0,0,0,0,0,0,0,0,-1,524,484,0,0
-693,540,0,0,0,0,0,0,0,0,0,-1,531,484,0,0
-686,540,0,0,0,0,0,0,0,0,0,-1,538,484,0,0
-679,540,0,0,0,0,0,0,0,0,0,-1,545,484,0,0
-672,540,0,0,0,0,0,0,0,0,0,-1,552,484,0,0
-665,540,0,0,0,0,0,0,0,0,0,-1,559,484,0,0
-658,540,0,0,0,0,0,0,0,0,0,-1,566,484,0,0
-651,540,0,0,0,0,0,0,0,0,0,-1,573,484,0,0
-644,540,0,0,0,0,0,0,0,0,0,-1,580,484,0,0
-637,540,0,0,0,0,0,0,0,0,0,-1,587,484,0,0
-630,540,0,0,0,0,0,0,0,0,0,-1,594,484,0,0
-623,540,0,0,0,0,0,0,0,0,0,-1,601,484,0,0
-616,540,0,0,0,0,0,0,0,0,0,-1,608,484,0,0
-609,540,0,0,0,0,0,0,0,0,0,-1,615,484,0,0
-602,540,0,0,0,0,0,0,0,0,0,-1,622,484,0,0
-595,540,0,0,0,0,0,0,0,0,0,-1,629,484,0,0
-588,540,0,0,0,0,0,0,0,0,0,-1,636,484,0,0
-581,540,0,0,0,0,0,0,0,0,0,-1,643,484,0,0
-574,540,0,0,0,0,0,0,0,0,0,-1,650,484,0,0
-567,540,0,0,0,0,0,0,0,0,0,-1,657,484,0,0
-560,540,0,0,0,0,0,0,0,0,0,-1,664,484,0,0
-553,540,0,0,0,0,0,0,0,0,0,-1,671,484,0,0
-546,540,0,0,0,0,0,0,0,0,0,-1,678,484,0,0
-539,540,0,0,0,0,0,0,0,0,0,-1,685,484,0,0
-532,540,0,0,0,0,0,0,0,0,0,-1,692,484,0,0
-525,540,0,0,0,0,0,0,0,0,0,-1,699,484,0,0
-518,540,0,0,0,0,0,0,0,0,0,-1,706,484,0,0
-511,540,0,0,0,0,0,0,0,0,0,-1,713,484,0,0
-504,540,0,0,0,0,0,0,0,0,0,-1,720,484,0,0
-497,540,0,0,0,0,0,0,0,0,0,-1,727,484,0,0
-490,540,0,0,0,0,0,0,0,0,0,-1,734,484,0,0
-483,540,0,0,0,0,0,0,0,0,0,-1,741,484,0,0
-476,540,0,0,0,0,0,0,0,0,0,-1,748,484,0,0
-469,540,0,0,0,0,0,0,0,0,0,-1,755,484,0,0
-462,540,0,0,0,0,0,0,0,0,0,-1,762,484,0,0
-455,540,0,0,0,0,0,0,0,0,0,-1,769,484,0,0
-448,540,0,0,0,0,0,0,0,0,0,-1,776,484,0,0
-441,540,0,0,0,0,0,0,0,0,0,-1,783,484,0,0
-434,540,0,0,0,0,0,0,0,0,0,-1,790,484,0,0
-427,540,0,0,0,0,0,0,0,0,0,-1,797,484,0,0
-420,540,0.227051,-10.0402,0,0,0,0,0,0,0,-1,804,484,0.227063,10.0402
-413,540,-0.0393677,-10.3862,0,0,0,0,0,0,0,-1,811,484,-0.0393683,10.3862
-406,540,-0.518372,-11.5288,0,0,0,0,0,0,0,-1,818,484,-0.518402,11.5288
-399,540,0.0863037,-11.3801,0,0,0,0,0,0,0,-1,825,484,0.0863201,11.3801
-392,540,-0.517395,-10.6735,0,0,0,0,0,0,0,-1,832,484,-0.517377,10.6735
-385,540,-2.29407,-5.03418,0,0,0,0,0,0,0,-1,839,484,-2.29408,5.03418
-378,540,-1.60217,-27.8152,0,0,0,0,0,0,0,-1,846,484,-1.60218,27.8153
-371,540,0.986694,-28.3668,0,0,0,0,0,0,0,-1,853,484,0.986693,28.3667
-364,540,0.648682,-28.3965,0,0,0,0,0,0,0,-1,860,484,0.648697,28.3966
-357,540,0.536316,-29.4421,0.00967731,0.0314933,-0.0182007,0.0418044,-0.000633776,-1.05536,0.0280833,0.0496312,867,484,0.536343,29.4421
-350,540,0.374023,-30.584,0.00702638,0.025663,-0.0143831,0.0334825,-0.000793137,-1.07283,0.0225907,0.0360449,874,484,0.374017,30.584
-343,540,0.272949,-31.7581,0.00503446,0.0207205,-0.011191,0.0265432,-0.000788179,-1.09104,0.017964,0.0188366,881,484,0.272954,31.7581
-336,540,0.181763,-32.7756,0.00359873,0.0165826,-0.00863781,0.0208961,-0.000714741,-1.10765,0.014175,0.0131908,888,484,0.181779,32.7756
-329,540,0.110107,-33.606,0.00247292,0.0130334,-0.00651382,0.0161383,-0.000631983,-1.12599,0.0109756,0.0106882,895,484,0.110129,33.606
-322,540,0.0695801,-34.4553,0.00145966,0.00983989,-0.00460972,0.0118793,-0.000579713,-1.15427,0.00811965,0.0145052,902,484,0.0696101,34.4553
-315,540,0.0200195,-35.2918,0.000751571,0.00727641,-0.00310973,0.00852107,-0.00049309,-1.19008,0.00585201,0.0131985,909,484,0.0200411,35.2918
-308,540,-0.0114746,-36.1071,0.000311895,0.00523575,-0.0020183,0.00595732,-0.000409672,-1.22745,0.00411491,0.0126278,916,484,-0.0114561,36.1071
-301,540,-0.09021,-36.8934,0.000228474,0.00340343,-0.0012519,0.00383767,-0.000205764,-1.23692,0.00262972,0.0132118,923,484,-0.0902002,36.8934
-294,540,-0.1297,-37.7048,0.000338244,0.00209945,-0.000601325,0.00228517,0.000152519,-1.27123,0.00147524,0.0118528,930,484,-0.129672,37.7048
-287,540,-0.152405,-38.5178,0.000473985,0.000940188,-3.84306e-06,0.000940219,0.000473953,-1.56255,0.000542842,0.00916013,937,484,-0.152411,38.5178
-280,540,-0.195251,-39.3185,0.000529848,-0.000566355,0.00059147,0.000788129,-0.000824636,0.411718,0.000931209,0.0105781,944,484,-0.195247,39.3185
-273,540,-0.233154,-40.1171,0.00054555,-0.00225499,0.00141881,0.00113872,-0.00284816,0.395988,0.0023713,0.0128516,951,484,-0.233125,40.1171
-266,540,-0.253784,-40.8944,0.00072265,-0.00429674,0.00256252,0.00179974,-0.00537383,0.397906,0.00430961,0.0137666,958,484,-0.253766,40.8944
-259,540,-0.294312,-41.6713,0.00109695,-0.00665001,0.00379887,0.0026489,-0.00820196,0.387837,0.00653248,0.0130393,965,484,-0.294339,41.6713
-252,540,-0.319092,-42.4334,0.00159934,-0.00965961,0.00525225,0.00366903,-0.0117293,0.375373,0.00928735,0.0125076,972,484,-0.3191,42.4334
-245,540,-0.329773,-43.2017,0.00199279,-0.0128696,0.00679311,0.00462981,-0.0155067,0.370284,0.012178,0.0129225,979,484,-0.329759,43.2017
-238,540,-0.38324,-43.9562,0.00253915,-0.0165103,0.00844519,0.00574399,-0.0197151,0.362698,0.0154189,0.0107858,986,484,-0.383226,43.9562
-231,540,-0.40564,-44.6641,0.00325122,-0.0204949,0.0101163,0.00697652,-0.0242202,0.352838,0.0189064,0.0134017,993,484,-0.405653,44.6641
-224,540,-0.434937,-45.3345,0.00394828,-0.0247975,0.0119714,0.00828088,-0.0291301,0.347247,0.0226898,0.0186405,1000,484,-0.434938,45.3345
-217,540,-0.445984,-45.8688,0.00485194,-0.02909,0.0136925,0.00968687,-0.0339249,0.339442,0.0264438,0.030432,1007,484,-0.445961,45.8688
-210,540,-0.364868,-46.4464,0.0058455,-0.0333772,0.0151827,0.0110357,-0.0385674,0.329398,0.0300729,0.0435253,1014,484,-0.364838,46.4464
-203,540,-0.194519,-46.8369,0.00683233,-0.0372526,0.0164143,0.0122726,-0.0426928,0.32004,0.033315,0.0453255,1021,484,-0.19455,46.8369
-196,540,-0.176025,-47.2128,0,0,0,0,0,0,0,-1,1028,484,-0.176042,47.2128
-189,540,-0.540161,-47.8568,0,0,0,0,0,0,0,-1,1035,484,-0.540144,47.8568
-182,540,-0.826782,-43.3494,0,0,0,0,0,0,0,-1,1042,484,-0.826777,43.3494
-175,540,1.73413,-10.728,0,0,0,0,0,0,0,-1,1049,484,1.73414,10.728
-168,540,1.18164,-7.65347,0,0,0,0,0,0,0,-1,1056,484,1.18163,7.65347
-161,540,-0.405884,-9.86481,0,0,0,0,0,0,0,-1,1063,484,-0.405886,9.8648
-154,540,1.96863,-22.0727,0,0,0,0,0,0,0,-1,1070,484,1.96859,22.0727
-147,540,1.32764,-21.9952,0,0,0,0,0,0,0,-1,1077,484,1.32762,21.9952
-140,540,1.40735,-15.6289,0,0,0,0,0,0,0,-1,1084,484,1.4073,15.6289
-133,540,2.28345,-17.6413,0,0,0,0,0,0,0,-1,1091,484,2.2835,17.6413
-126,540,1.25293,-23.9108,0,0,0,0,0,0,0,-1,1098,484,1.25288,23.9108
-119,540,1.55969,-23.0125,0,0,0,0,0,0,0,-1,1105,484,1.55968,23.0125
-112,540,1.4801,-21.6515,0,0,0,0,0,0,0,-1,1112,484,1.4801,21.6515
-105,540,1.30078,-19.8938,0,0,0,0,0,0,0,-1,1119,484,1.30077,19.8938
-98,540,1.08105,-18.1304,0,0,0,0,0,0,0,-1,1126,484,1.08101,18.1304
-91,540,1.56519,-7.48666,0,0,0,0,0,0,0,-1,1133,484,1.56514,7.48667
-84,540,-0.945923,4.43073,0,0,0,0,0,0,0,-1,1140,484,-0.945891,-4.43074
-77,540,-2.28894,2.14368,0,0,0,0,0,0,0,-1,1147,484,-2.28894,-2.14368
-70,540,-3.75244,-0.452576,0,0,0,0,0,0,0,-1,1154,484,-3.75244,0.452576
-63,540,-5.26257,-3.04767,0,0,0,0,0,0,0,-1,1161,484,-5.26262,3.04766
-56,540,-5.19055,-6.12595,0,0,0,0,0,0,0,-1,1168,484,-5.19057,6.12595
-49,540,-5.63867,-8.52298,0,0,0,0,0,0,0,-1,1175,484,-5.63871,8.52298
-42,540,0,0,0,0,0,0,0,0,0,-1,1182,484,0,0
-35,540,0,0,0,0,0,0,0,0,0,-1,1189,484,0,0
-28,540,0,0,0,0,0,0,0,0,0,-1,1196,484,0,0
-21,540,0,0,0,0,0,0,0,0,0,-1,1203,484,0,0
-14,540,0,0,0,0,0,0,0,0,0,-1,1210,484,0,0
-7,540,0,0,0,0,0,0,0,0,0,-1,1217,484,0,0
0,540,0,0,0,0,0,0,0,0,0,-1,1224,484,0,0
7,540,0,0,0,0,0,0,0,0,0,-1,1231,484,0,0
14,540,0,0,0,0,0,0,0,0,0,-1,1238,484,0,0
21,540,0,0,0,0,0,0,0,0,0,-1,1245,484,0,0
28,540,0,0,0,0,0,0,0,0,0,-1,1252,484,0,0
35,540,0,0,0,0,0,0,0,0,0,-1,1259,484,0,0
42,540,0,0,0,0,0,0,0,0,0,-1,1266,484,0,0
49,540,0,0,0,0,0,0,0,0,0,-1,1273,484,0,0
56,540,0,0,0,0,0,0,0,0,0,-1,1280,484,0,0
63,540,0,0,0,0,0,0,0,0,0,-1,1287,484,0,0
70,540,0,0,0,0,0,0,0,0,0,-1,1294,484,0,0
77,540,0,0,0,0,0,0,0,0,0,-1,1301,484,0,0
84,540,0,0,0,0,0,0,0,0,0,-1,1308,484,0,0
91,540,0,0,0,0,0,0,0,0,0,-1,1315,484,0,0
98,540,0,0,0,0,0,0,0,0,0,-1,1322,484,0,0
105,540,0,0,0,0,0,0,0,0,0,-1,1329,484,0,0
112,540,0,0,0,0,0,0,0,0,0,-1,1336,484,0,0
119,540,0,0,0,0,0,0,0,0,0,-1,1343,484,0,0
126,540,0,0,0,0,0,0,0,0,0,-1,1350,484,0,0
133,540,0,0,0,0,0,0,0,0,0,-1,1357,484,0,0
140,540,0,0,0,0,0,0,0,0,0,-1,1364,484,0,0
147,540,0,0,0,0,0,0,0,0,0,-1,1371,484,0,0
154,540,0,0,0,0,0,0,0,0,0,-1,1378,484,0,0
161,540,0,0,0,0,0,0,0,0,0,-1,1385,484,0,0
168,540,3.05078,-0.0010376,0,0,0,0,0,0,0,-1,1392,484,3.05084,0.00102554
175,540,3.37708,0.617035,0,0,0,0,0,0,0,-1,1399,484,3.37707,-0.617046
182,540,3.32678,1.23267,0,0,0,0,0,0,0,-1,1406,484,3.32678,-1.23266
189,540,3.5813,2.15619,0,0,0,0,0,0,0,-1,1413,484,3.58129,-2.1562
196,540,1.84448,-0.801483,0,0,0,0,0,0,0,-1,1420,484,1.84446,0.80148
203,540,4.14648,0.702087,0,0,0,0,0,0,0,-1,1427,484,4.14645,-0.702089
210,540,4.50671,-0.56076,0,0,0,0,0,0,0,-1,1434,484,4.50667,0.560771
217,540,5.00452,-0.278717,0,0,0,0,0,0,0,-1,1441,484,5.00452,0.278709
224,540,6.44458,-2.83527,0,0,0,0,0,0,0,-1,1448,484,6.44457,2.83525
231,540,6.9231,-3.10504,0,0,0,0,0,0,0,-1,1455,484,6.92307,3.10505
238,540,6.4823,-2.58365,0,0,0,0,0,0,0,-1,1462,484,6.48225,2.58363
245,540,6.02087,-1.97916,0,0,0,0,0,0,0,-1,1469,484,6.02088,1.97915
252,540,6.50647,-3.56006,0,0,0,0,0,0,0,-1,1476,484,6.50649,3.56006
259,540,6.01941,-2.798,0,0,0,0,0,0,0,-1,1483,484,6.01941,2.79801
266,540,5.5332,-2.02853,0,0,0,0,0,0,0,-1,1490,484,5.53323,2.02855
273,540,5.06787,-1.28137,0,0,0,0,0,0,0,-1,1497,484,5.06786,1.28136
280,540,1.62903,-2.14609,0,0,0,0,0,0,0,-1,1504,484,1.62906,2.1461
287,540,1.97156,-2.45053,0,0,0,0,0,0,0,-1,1511,484,1.97159,2.45053
294,540,2.44165,-2.6185,0,0,0,0,0,0,0,-1,1518,484,2.44167,2.6185
301,540,4.36169,-2.54272,0,0,0,0,0,0,0,-1,1525,484,4.36165,2.54272
308,540,4.2019,-4.30469,0,0,0,0,0,0,0,-1,1532,484,4.20193,4.3047
315,540,4.45923,-5.32101,0,0,0,0,0,0,0,-1,1539,484,4.45923,5.32103
322,540,4.71655,-6.33737,0,0,0,0,0,0,0,-1,1546,484,4.71653,6.33736
329,540,15.0289,-44.3801,0,0,0,0,0,0,0,-1,1553,484,15.0289,44.3801
336,540,16.0326,-45.197,0,0,0,0,0,0,0,-1,1560,484,16.0326,45.197
343,540,15.8665,-44.8508,0.00056622,-0.0357577,-0.014623,0.00572141,-0.0409129,-0.338935,0.0293688,0.0497026,1567,484,15.8665,44.8508
350,540,16.1215,-44.6621,0.00133018,-0.0298506,-0.0122454,0.00556423,-0.0340847,-0.3329,0.0247869,0.0455518,1574,484,16.1215,44.6621
357,540,16.1344,-44.1624,0.00197279,-0.0235564,-0.00969726,0.00523854,-0.0268221,-0.32484,0.0198593,0.0355776,1581,484,16.1344,44.1624
364,540,16.0295,-43.5726,0.00226698,-0.0183618,-0.00757113,0.00474745,-0.0208423,-0.316602,0.0157182,0.0227484,1588,484,16.0295,43.5726
371,540,16.032,-42.8406,0.00266228,-0.0134086,-0.00549355,0.00436067,-0.015107,-0.29984,0.0117966,0.0182429,1595,484,16.032,42.8407
378,540,16.0299,-42.0525,0.00263644,-0.00907901,-0.00385205,0.00378951,-0.0102321,-0.29085,0.00837537,0.0144466,1602,484,16.0299,42.0525
385,540,15.9846,-41.2729,0.00246051,-0.00567984,-0.00233124,0.00308086,-0.00630019,-0.260075,0.00552144,0.0144971,1609,484,15.9846,41.2729
392,540,15.9463,-40.4763,0.00241499,-0.00316841,-0.00102229,0.00259628,-0.0033497,-0.175512,0.00344209,0.013073,1616,484,15.9463,40.4763
399,540,15.9237,-39.7037,0.00204512,-0.00022381,-0.00022201,0.00206664,-0.000245329,-0.0966266,0.00146639,0.0177878,1623,484,15.9237,39.7038
406,540,15.9336,-38.8968,0.00180371,0.0011871,0.000508694,0.00209024,0.000900575,0.51296,0.00121064,0.0191567,1630,484,15.9336,38.8968
413,540,15.889,-38.0834,0.00159853,0.00190498,0.000994012,0.0027575,0.000745999,0.86187,0.00164698,0.0158061,1637,484,15.8891,38.0834
420,540,15.8561,-37.2227,0.00126312,0.00226171,0.00128177,0.003138,0.000386828,0.971124,0.00197572,0.0154496,1644,484,15.8561,37.2227
427,540,15.8009,-36.4099,0.000858218,0.00248852,0.00152234,0.00340021,-5.3474e-05,1.0312,0.00228484,0.0164366,1651,484,15.8009,36.4099
434,540,15.7234,-35.6185,0.000485858,0.00263246,0.00177619,0.00363445,-0.000516128,1.05718,0.00261206,0.0182975,1658,484,15.7234,35.6185
441,540,15.7081,-34.7761,5.87151e-05,0.00281671,0.00206224,0.00391853,-0.00104311,1.0801,0.0030207,0.0203446,1665,484,15.7081,34.776
448,540,15.6508,-33.9514,-0.000452498,0.00285482,0.00230679,0.00403945,-0.00163712,1.09638,0.00337378,0.0117586,1672,484,15.6507,33.9513
455,540,15.5997,-33.0836,-0.000964901,0.00289041,0.0025683,0.00417398,-0.00224848,1.10733,0.00376315,0.0107072,1679,484,15.5997,33.0836
462,540,15.5109,-32.2305,-0.0012872,0.00308481,0.00287489,0.0045104,-0.00271279,1.11045,0.00421314,0.0112163,1686,484,15.5109,32.2304
469,540,15.4246,-31.3537,-0.00130149,0.00342242,0.00321261,0.00504791,-0.00292698,1.10238,0.00465826,0.0155289,1693,484,15.4245,31.3537
476,540,15.358,-30.5024,-0.00128902,0.00385171,0.00354645,0.00566131,-0.00309862,1.09898,0.00512918,0.0222432,1700,484,15.358,30.5025
483,540,15.37,-29.5818,-0.000983266,0.00448277,0.00395736,0.00655913,-0.00305962,1.0876,0.00567458,0.039617,1707,484,15.37,29.5818
490,540,15.5227,-28.575,0,0,0,0,0,0,0,-1,1714,484,15.5227,28.575
497,540,10.3452,-16.9359,0,0,0,0,0,0,0,-1,1721,484,10.3453,16.9359
504,540,12.519,-18.0764,0,0,0,0,0,0,0,-1,1728,484,12.519,18.0765
511,540,5.82471,-6.83521,0,0,0,0,0,0,0,-1,1735,484,5.82465,6.83522
518,540,9.98181,-12.4608,0,0,0,0,0,0,0,-1,1742,484,9.98187,12.4608
525,540,12.4843,-16.3481,0,0,0,0,0,0,0,-1,1749,484,12.4842,16.3481
532,540,2.84265,-1.07925,0,0,0,0,0,0,0,-1,1756,484,2.84269,1.07927
539,540,0,0,0,0,0,0,0,0,0,-1,1763,484,0,0
546,540,0,0,0,0,0,0,0,0,0,-1,1770,484,0,0
553,540,0,0,0,0,0,0,0,0,0,-1,1777,484,0,0
560,540,0,0,0,0,0,0,0,0,0,-1,1784,484,0,0
567,540,0,0,0,0,0,0,0,0,0,-1,1791,484,0,0
574,540,0,0,0,0,0,0,0,0,0,-1,1798,484,0,0
581,540,0,0,0,0,0,0,0,0,0,-1,1805,484,0,0
588,540,0,0,0,0,0,0,0,0,0,-1,1812,484,0,0
595,540,0,0,0,0,0,0,0,0,0,-1,1819,484,0,0
602,540,0,0,0,0,0,0,0,0,0,-1,1826,484,0,0
609,540,0,0,0,0,0,0,0,0,0,-1,1833,484,0,0
616,540,0,0,0,0,0,0,0,0,0,-1,1840,484,0,0
623,540,0,0,0,0,0,0,0,0,0,-1,1847,484,0,0
630,540,0,0,0,0,0,0,0,0,0,-1,1854,484,0,0
637,540,0,0,0,0,0,0,0,0,0,-1,1861,484,0,0
644,540,0,0,0,0,0,0,0,0,0,-1,1868,484,0,0
651,540,0,0,0,0,0,0,0,0,0,-1,1875,484,0,0
658,540,0,0,0,0,0,0,0,0,0,-1,1882,484,0,0
665,540,0,0,0,0,0,0,0,0,0,-1,1889,484,0,0
672,540,0,0,0,0,0,0,0,0,0,-1,1896,484,0,0
679,540,0,0,0,0,0,0,0,0,0,-1,1903,484,0,0
686,540,0,0,0,0,0,0,0,0,0,-1,1910,484,0,0
693,540,0,0,0,0,0,0,0,0,0,-1,1917,484,0,0
700,540,0,0,0,0,0,0,0,0,0,-1,1924,484,0,0
707,540,0,0,0,0,0,0,0,0,0,-1,1931,484,0,0
714,540,0,0,0,0,0,0,0,0,0,-1,1938,484,0,0
721,540,0,0,0,0,0,0,0,0,0,-1,1945,484,0,0
728,540,0,0,0,0,0,0,0,0,0,-1,1952,484,0,0
735,540,0,0,0,0,0,0,0,0,0,-1,1959,484,0,0
742,540,0,0,0,0,0,0,0,0,0,-1,1966,484,0,0
749,540,0,0,0,0,0,0,0,0,0,-1,1973,484,0,0
756,540,0,0,0,0,0,0,0,0,0,-1,1980,484,0,0
763,540,0,0,0,0,0,0,0,0,0,-1,1987,484,0,0
770,540,0,0,0,0,0,0,0,0,0,-1,1994,484,0,0
777,540,0,0,0,0,0,0,0,0,0,-1,2001,484,0,0
784,540,0,0,0,0,0,0,0,0,0,-1,2008,484,0,0
791,540,0,0,0,0,0,0,0,0,0,-1,2015,484,0,0
798,540,0,0,0,0,0,0,0,0,0,-1,2022,484,0,0
805,540,0,0,0,0,0,0,0,0,0,-1,2029,484,0,0
812,540,0,0,0,0,0,0,0,0,0,-1,2036,484,0,0
-700,533,0,0,0,0,0,0,0,0,0,-1,524,491,0,0
-693,533,0,0,0,0,0,0,0,0,0,-1,531,491,0,0
-686,533,0,0,0,0,0,0,0,0,0,-1,538,491,0,0
-679,533,0,0,0,0,0,0,0,0,0,-1,545,491,0,0
-672,533,0,0,0,0,0,0,0,0,0,-1,552,491,0,0
-665,533,0,0,0,0,0,0,0,0,0,-1,559,491,0,0
-658,533,0,0,0,0,0,0,0,0,0,-1,566,491,0,0
-651,533,0,0,0,0,0,0,0,0,0,-1,573,491,0,0
-644,533,0,0,0,0,0,0,0,0,0,-1,580,491,0,0
-637,533,0,0,0,0,0,0,0,0,0,-1,587,491,0,0
-630,533,0,0,0,0,0,0,0,0,0,-1,594,491,0,0
-623,533,0,0,0,0,0,0,0,0,0,-1,601,491,0,0
-616,533,0,0,0,0,0,0,0,0,0,-1,608,491,0,0
-609,533,0,0,0,0,0,0,0,0,0,-1,615,491,0,0
-602,533,0,0,0,0,0,0,0,0,0,-1,622,491,0,0
-595,533,0,0,0,0,0,0,0,0,0,-1,629,491,0,0
-588,533,0,0,0,0,0,0,0,0,0,-1,636,491,0,0
-581,533,0,0,0,0,0,0,0,0,0,-1,643,491,0,0
-574,533,0,0,0,0,0,0,0,0,0,-1,650,491,0,0
-567,533,0,0,0,0,0,0,0,0,0,-1,657,491,0,0
-560,533,0,0,0,0,0,0,0,0,0,-1,664,491,0,0
-553,533,0,0,0,0,0,0,0,0,0,-1,671,491,0,0
-546,533,0,0,0,0,0,0,0,0,0,-1,678,491,0,0
-539,533,0,0,0,0,0,0,0,0,0,-1,685,491,0,0
-532,533,0,0,0,0,0,0,0,0,0,-1,692,491,0,0
-525,533,0,0,0,0,0,0,0,0,0,-1,699,491,0,0
-518,533,0,0,0,0,0,0,0,0,0,-1,706,491,0,0
-511,533,0,0,0,0,0,0,0,0,0,-1,713,491,0,0
-504,533,0,0,0,0,0,0,0,0,0,-1,720,491,0,0
-497,533,0,0,0,0,0,0,0,0,0,-1,727,491,0,0
-490,533,0,0,0,0,0,0,0,0,0,-1,734,491,0,0
-483,533,0,0,0,0,0,0,0,0,0,-1,741,491,0,0
-476,533,0,0,0,0,0,0,0,0,0,-1,748,491,0,0
-469,533,0,0,0,0,0,0,0,0,0,-1,755,491,0,0
-462,533,0,0,0,0,0,0,0,0,0,-1,762,491,0,0
-455,533,0,0,0,0,0,0,0,0,0,-1,769,491,0,0
-448,533,0,0,0,0,0,0,0,0,0,-1,776,491,0,0
-441,533,0,0,0,0,0,0,0,0,0,-1,783,491,0,0
-434,533,0,0,0,0,0,0,0,0,0,-1,790,491,0,0
-427,533,0.559814,-4.40222,0,0,0,0,0,0,0,-1,797,491,0.559816,4.40222
-420,533,-1.11127,-10.9054,0,0,0,0,0,0,0,-1,804,491,-1.11124,10.9054
-413,533,-0.704773,-11.0942,0,0,0,0,0,0,0,-1,811,491,-0.704742,11.0942
-406,533,-0.670898,-12.0899,0,0,0,0,0,0,0,-1,818,491,-0.670908,12.0899
-399,533,-0.455017,-12.4423,0,0,0,0,0,0,0,-1,825,491,-0.455032,12.4423
-392,533,-1.89661,-10.3905,0,0,0,0,0,0,0,-1,832,491,-1.89661,10.3905
-385,533,0.797729,-17.0485,0,0,0,0,0,0,0,-1,839,491,0.797746,17.0485
-378,533,-1.89435,-19.6771,0,0,0,0,0,0,0,-1,846,491,-1.89433,19.6771
-371,533,-0.815735,-27.6581,0,0,0,0,0,0,0,-1,853,491,-0.815722,27.6581
-364,533,-0.613464,-28.827,0.0106547,0.0304583,-0.01867,0.0416898,-0.000576761,-1.02922,0.0279874,0.0493765,860,491,-0.61348,28.827
-357,533,-0.418884,-29.9575,0.00818888,0.0252197,-0.0151511,0.0340844,-0.000675803,-1.04142,0.0229515,0.0266882,867,491,-0.41889,29.9575
-350,533,-0.477539,-30.9176,0.00606191,0.0205472,-0.0120015,0.0273221,-0.000712955,-1.05689,0.018457,0.0139067,874,491,-0.477536,30.9176
-343,533,-0.54303,-31.853,0.00441312,0.0164105,-0.00929183,0.0214718,-0.00064813,-1.07203,0.0145354,0.0121326,881,491,-0.54303,31.853
-336,533,-0.644043,-32.7484,0.00315721,0.0128801,-0.00702999,0.0165658,-0.000528542,-1.08791,0.0112242,0.0161341,888,491,-0.64407,32.7484
-329,533,-0.704102,-33.5677,0.0021612,0.00984326,-0.00512203,0.0124045,-0.00040001,-1.10712,0.00840616,0.0146491,895,491,-0.704078,33.5678
-322,533,-0.7453,-34.4017,0.00124885,0.00701883,-0.00335554,0.00855909,-0.000291404,-1.14047,0.00580563,0.0118706,902,491,-0.745321,34.4017
-315,533,-0.806274,-35.2378,0.000643235,0.00477532,-0.00195939,0.00555669,-0.000138133,-1.19134,0.00375135,0.0130071,909,491,-0.806252,35.2378
-308,533,-0.855774,-36.0533,0.00032118,0.00301495,-0.000948547,0.00331544,2.06911e-05,-1.26401,0.00220343,0.0124234,916,491,-0.855793,36.0533
-301,533,-0.913696,-36.8471,0.000284462,0.00149435,-0.000222492,0.00153396,0.000244844,-1.39458,0.000951586,0.0136927,923,491,-0.913673,36.8471
-294,533,-0.929077,-37.6564,0.000434387,0.000405686,0.000406679,0.000826968,1.31047e-05,0.767762,0.000546996,0.0122607,930,491,-0.929047,37.6564
-287,533,-0.946655,-38.4736,0.000631342,-0.00064984,0.000986956,0.00116737,-0.00118587,0.497542,0.00135866,0.0100876,937,491,-0.946652,38.4737
-280,533,-0.987,-39.2897,0.000667468,-0.00223485,0.00163615,0.00140328,-0.00297066,0.422624,0.00257878,0.00953948,944,491,-0.986999,39.2897
-273,533,-1.02362,-40.069,0.000639791,-0.00409614,0.00258181,0.00177511,-0.00523146,0.414287,0.00420611,0.0126342,951,491,-1.02363,40.069
-266,533,-1.05615,-40.8486,0.00085338,-0.0063779,0.00394642,0.00259004,-0.00811455,0.414556,0.00644881,0.0120346,958,491,-1.05617,40.8486
-259,533,-1.07684,-41.6399,0.00124129,-0.00896766,0.00543522,0.00359317,-0.0113195,0.408384,0.0089868,0.0126011,965,491,-1.07684,41.6399
-252,533,-1.09961,-42.4177,0.00173576,-0.0125828,0.00717069,0.0047093,-0.0155563,0.393097,0.0122463,0.0173066,972,491,-1.09963,42.4177
-245,533,-1.15564,-43.1348,0.00203485,-0.0165526,0.00910307,0.00575033,-0.0202681,0.387517,0.015782,0.0251413,979,491,-1.15564,43.1348
-238,533,-1.09583,-43.7136,0.00251035,-0.0210857,0.0112333,0.0070028,-0.0255782,0.380441,0.0198035,0.0267571,986,491,-1.09579,43.7135
-231,533,-1.17719,-44.1934,0.00324646,-0.0260973,0.0134203,0.00845846,-0.0313093,0.370437,0.0241904,0.0340774,993,491,-1.17721,44.1934
-224,533,-1.49304,-44.8231,0.00394056,-0.0316283,0.0159294,0.0100315,-0.0377192,0.365215,0.0290727,0.0389595,1000,491,-1.49304,44.8231
-217,533,-1.54779,-45.4724,0.00490118,-0.037174,0.0183279,0.0117651,-0.0440379,0.358337,0.0339664,0.0436271,1007,491,-1.54777,45.4724
-210,533,-1.65833,-46.0218,0,0,0,0,0,0,0,-1,1014,491,-1.65833,46.0218
-203,533,-0.884521,-46.5433,0,0,0,0,0,0,0,-1,1021,491,-0.884543,46.5433
-196,533,-1.10034,-47.4579,0,0,0,0,0,0,0,-1,1028,491,-1.1004,47.4579
-189,533,-1.75317,-43.4744,0,0,0,0,0,0,0,-1,1035,491,-1.75312,43.4744
-182,533,1.26123,-11.4969,0,0,0,0,0,0,0,-1,1042,491,1.26128,11.4969
-175,533,0.937744,-7.36966,0,0,0,0,0,0,0,-1,1049,491,0.937769,7.36965
-168,533,2.64807,-2.7543,0,0,0,0,0,0,0,-1,1056,491,2.64812,2.7543
-161,533,1.91833,-1.76553,0,0,0,0,0,0,0,-1,1063,491,1.91836,1.76554
-154,533,0.376709,-11.0633,0,0,0,0,0,0,0,-1,1070,491,0.376715,11.0632
-147,533,0.383789,-12.1586,0,0,0,0,0,0,0,-1,1077,491,0.383829,12.1586
-140,533,1.14001,-15.4608,0,0,0,0,0,0,0,-1,1084,491,1.14005,15.4608
-133,533,0.189941,-16.0795,0,0,0,0,0,0,0,-1,1091,491,0.18994,16.0795
-126,533,2.89612,-2.59003,0,0,0,0,0,0,0,-1,1098,491,2.89608,2.59003
-119,533,1.78284,-22.5394,0,0,0,0,0,0,0,-1,1105,491,1.78279,22.5394
-112,533,1.83862,-21.2401,0,0,0,0,0,0,0,-1,1112,491,1.83859,21.24
-105,533,1.67554,-19.4018,0,0,0,0,0,0,0,-1,1119,491,1.6755,19.4018
-98,533,-1.39392,-5.16367,0,0,0,0,0,0,0,-1,1126,491,-1.39394,5.16367
-91,533,0.367432,4.49753,0,0,0,0,0,0,0,-1,1133,491,0.367468,-4.49754
-84,533,-0.88623,3.03604,0,0,0,0,0,0,0,-1,1140,491,-0.886288,-3.03605
-77,533,0,0,0,0,0,0,0,0,0,-1,1147,491,0,0
-70,533,0,0,0,0,0,0,0,0,0,-1,1154,491,0,0
-63,533,0,0,0,0,0,0,0,0,0,-1,1161,491,0,0
-56,533,0,0,0,0,0,0,0,0,0,-1,1168,491,0,0
-49,533,0,0,0,0,0,0,0,0,0,-1,1175,491,0,0
-42,533,0,0,0,0,0,0,0,0,0,-1,1182,491,0,0
-35,533,0,0,0,0,0,0,0,0,0,-1,1189,491,0,0
-28,533,0,0,0,0,0,0,0,0,0,-1,1196,491,0,0
-21,533,0,0,0,0,0,0,0,0,0,-1,1203,491,0,0
-14,533,0,0,0,0,0,0,0,0,0,-1,1210,491,0,0
-7,533,0,0,0,0,0,0,0,0,0,-1,1217,491,0,0
0,533,0,0,0,0,0,0,0,0,0,-1,1224,491,0,0
7,533,0,0,0,0,0,0,0,0,0,-1,1231,491,0,0
14,533,0,0,0,0,0,0,0,0,0,-1,1238,491,0,0
21,533,0,0,0,0,0,0,0,0,0,-1,1245,491,0,0
28,533,0,0,0,0,0,0,0,0,0,-1,1252,491,0,0
35,533,0,0,0,0,0,0,0,0,0,-1,1259,491,0,0
42,533,0,0,0,0,0,0,0,0,0,-1,1266,491,0,0
49,533,0,0,0,0,0,0,0,0,0,-1,1273,491,0,0
56,533,0,0,0,0,0,0,0,0,0,-1,1280,491,0,0
63,533,0,0,0,0,0,0,0,0,0,-1,1287,491,0,0
70,533,0,0,0,0,0,0,0,0,0,-1,1294,491,0,0
77,533,0,0,0,0,0,0,0,0,0,-1,1301,491,0,0
84,533,0,0,0,0,0,0,0,0,0,-1,1308,491,0,0
91,533,0,0,0,0,0,0,0,0,0,-1,1315,491,0,0
98,533,0,0,0,0,0,0,0,0,0,-1,1322,491,0,0
105,533,0,0,0,0,0,0,0,0,0,-1,1329,491,0,0
112,533,0,0,0,0,0,0,0,0,0,-1,1336,491,0,0
119,533,0,0,0,0,0,0,0,0,0,-1,1343,491,0,0
126,533,0,0,0,0,0,0,0,0,0,-1,1350,491,0,0
133,533,0,0,0,0,0,0,0,0,0,-1,1357,491,0,0
140,533,0,0,0,0,0,0,0,0,0,-1,1364,491,0,0
147,533,0,0,0,0,0,0,0,0,0,-1,1371,491,0,0
154,533,0,0,0,0,0,0,0,0,0,-1,1378,491,0,0
161,533,0,0,0,0,0,0,0,0,0,-1,1385,491,0,0
168,533,0,0,0,0,0,0,0,0,0,-1,1392,491,0,0
175,533,0,0,0,0,0,0,0,0,0,-1,1399,491,0,0
182,533,0,0,0,0,0,0,0,0,0,-1,1406,491,0,0
189,533,0,0,0,0,0,0,0,0,0,-1,1413,491,0,0
196,533,0,0,0,0,0,0,0,0,0,-1,1420,491,0,0
203,533,3.7887,1.16193,0,0,0,0,0,0,0,-1,1427,491,3.78872,-1.16193
210,533,5.09558,-0.216034,0,0,0,0,0,0,0,-1,1434,491,5.09559,0.216028
217,533,6.91614,-2.46814,0,0,0,0,0,0,0,-1,1441,491,6.91618,2.46814
224,533,7.23621,-2.1857,0,0,0,0,0,0,0,-1,1448,491,7.23621,2.1857
231,533,7.23474,-1.92282,0,0,0,0,0,0,0,-1,1455,491,7.2347,1.92282
238,533,7.23535,-1.67258,0,0,0,0,0,0,0,-1,1462,491,7.23539,1.67258
245,533,6.86682,-1.2301,0,0,0,0,0,0,0,-1,1469,491,6.86686,1.23011
252,533,6.63354,-3.07825,0,0,0,0,0,0,0,-1,1476,491,6.6335,3.07824
259,533,6.16431,-2.35037,0,0,0,0,0,0,0,-1,1483,491,6.1643,2.35037
266,533,5.68884,-1.6214,0,0,0,0,0,0,0,-1,1490,491,5.68885,1.6214
273,533,5.21399,-0.864227,0,0,0,0,0,0,0,-1,1497,491,5.21403,0.864227
280,533,1.41089,-1.97946,0,0,0,0,0,0,0,-1,1504,491,1.41087,1.97946
287,533,1.6814,-2.44443,0,0,0,0,0,0,0,-1,1511,491,1.6814,2.44444
294,533,2.2384,-2.57626,0,0,0,0,0,0,0,-1,1518,491,2.23839,2.57625
301,533,3.39941,-4.0817,0,0,0,0,0,0,0,-1,1525,491,3.3994,4.08171
308,533,4.13733,-4.14752,0,0,0,0,0,0,0,-1,1532,491,4.13727,4.14752
315,533,4.80762,-5.29349,0,0,0,0,0,0,0,-1,1539,491,4.80762,5.29347
322,533,5.47803,-6.43942,0,0,0,0,0,0,0,-1,1546,491,5.47798,6.43943
329,533,3.88477,-3.86301,0,0,0,0,0,0,0,-1,1553,491,3.88475,3.86299
336,533,14.5214,-40.908,0,0,0,0,0,0,0,-1,1560,491,14.5214,40.908
343,533,16.0271,-43.9245,0,0,0,0,0,0,0,-1,1567,491,16.027,43.9245
350,533,16.7186,-44.069,0,0,0,0,0,0,0,-1,1574,491,16.7187,44.069
357,533,16.8696,-43.9108,0,0,0,0,0,0,0,-1,1581,491,16.8697,43.9108
364,533,16.6976,-43.5616,0,0,0,0,0,0,0,-1,1588,491,16.6977,43.5617
371,533,16.7693,-42.8216,0,0,0,0,0,0,0,-1,1595,491,16.7693,42.8216
378,533,16.8213,-41.9733,0,0,0,0,0,0,0,-1,1602,491,16.8213,41.9733
385,533,16.8083,-41.1928,0.0032753,-0.00697637,-0.00286785,0.00402303,-0.00772409,-0.255049,0.00689349,0.0381802,1609,491,16.8083,41.1928
392,533,16.7733,-40.4192,0.00312909,-0.00414996,-0.00145711,0.00340994,-0.0044308,-0.190407,0.00453963,0.0156223,1616,491,16.7733,40.4192
399,533,16.749,-39.676,0.00254358,-0.000722069,-0.000694924,0.00268531,-0.000863797,-0.201188,0.00213714,0.0138067,1623,491,16.7491,39.676
406,533,16.7283,-38.8716,0.00224349,0.000742799,3.60626e-05,0.00224436,0.000741933,0.0240121,0.00132035,0.0172697,1630,491,16.7282,38.8717
413,533,16.6882,-38.0189,0.00208294,0.00141865,0.000519535,0.00236743,0.00113416,0.500988,0.00136723,0.0154267,1637,491,16.6882,38.0189
420,533,16.6439,-37.1738,0.00177045,0.00172787,0.000784356,0.0025338,0.000964516,0.77183,0.00147672,0.0156566,1644,491,16.6439,37.1738
427,533,16.6099,-36.3542,0.00135401,0.00189969,0.000998173,0.00266164,0.000592057,0.918809,0.00161369,0.0161687,1651,491,16.6099,36.3542
434,533,16.5557,-35.574,0.000982597,0.00201571,0.00124061,0.00284301,0.000155296,0.982668,0.00184575,0.0136032,1658,491,16.5556,35.574
441,533,16.5422,-34.7215,0.000598572,0.00220248,0.00153198,0.00312972,-0.000328665,1.02652,0.00220422,0.0153592,1665,491,16.5423,34.7215
448,533,16.5012,-33.8882,0.000160282,0.00226677,0.0018006,0.00329955,-0.000872495,1.05003,0.00254096,0.0161403,1672,491,16.5012,33.8882
455,533,16.4421,-33.0425,-0.000254462,0.00237685,0.00208689,0.00352819,-0.0014058,1.06665,0.00293517,0.01553,1679,491,16.4421,33.0425
462,533,16.365,-32.1685,-0.000469304,0.00258918,0.00239584,0.00390224,-0.00178236,1.06945,0.00335721,0.0151099,1686,491,16.365,32.1685
469,533,16.3048,-31.3391,-0.000374171,0.0029496,0.00274712,0.0044984,-0.00192298,1.05743,0.00380548,0.0102433,1693,491,16.3048,31.3391
476,533,16.2509,-30.4543,-0.00028654,0.00339204,0.00310217,0.0051592,-0.0020537,1.05299,0.0042911,0.0122183,1700,491,16.2509,30.4544
483,533,16.2452,-29.5307,8.18295e-05,0.00401145,0.0035517,0.00610558,-0.0020123,1.03805,0.00488143,0.0229438,1707,491,16.2452,29.5307
490,533,16.3275,-28.4621,0,0,0,0,0,0,0,-1,1714,491,16.3275,28.4621
497,533,15.4799,-26.3297,0,0,0,0,0,0,0,-1,1721,491,15.4799,26.3297
504,533,14.6896,-22.6455,0,0,0,0,0,0,0,-1,1728,491,14.6895,22.6455
511,533,13.6221,-19.2798,0,0,0,0,0,0,0,-1,1735,491,13.6221,19.2798
518,533,14.1954,-19.4995,0,0,0,0,0,0,0,-1,1742,491,14.1955,19.4995
525,533,13.7935,-19.6901,0,0,0,0,0,0,0,-1,1749,491,13.7934,19.6901
532,533,15.4377,-17.9016,0,0,0,0,0,0,0,-1,1756,491,15.4377,17.9015
539,533,12.8733,-18.2556,0,0,0,0,0,0,0,-1,1763,491,12.8733,18.2556
546,533,3.59607,1.65799,0,0,0,0,0,0,0,-1,1770,491,3.59605,-1.658
553,533,0,0,0,0,0,0,0,0,0,-1,1777,491,0,0
560,533,0,0,0,0,0,0,0,0,0,-1,1784,491,0,0
567,533,0,0,0,0,0,0,0,0,0,-1,1791,491,0,0
574,533,0,0,0,0,0,0,0,0,0,-1,1798,491,0,0
581,533,0,0,0,0,0,0,0,0,0,-1,1805,491,0,0
588,533,0,0,0,0,0,0,0,0,0,-1,1812,491,0,0
595,533,0,0,0,0,0,0,0,0,0,-1,1819,491,0,0
602,533,0,0,0,0,0,0,0,0,0,-1,1826,491,0,0
609,533,0,0,0,0,0,0,0,0,0,-1,1833,491,0,0
616,533,0,0,0,0,0,0,0,0,0,-1,1840,491,0,0
623,533,0,0,0,0,0,0,0,0,0,-1,1847,491,0,0
630,533,0,0,0,0,0,0,0,0,0,-1,1854,491,0,0
637,533,0,0,0,0,0,0,0,0,0,-1,1861,491,0,0
644,533,0,0,0,0,0,0,0,0,0,-1,1868,491,0,0
651,533,0,0,0,0,0,0,0,0,0,-1,1875,491,0,0
658,533,0,0,0,0,0,0,0,0,0,-1,1882,491,0,0
665,533,0,0,0,0,0,0,0,0,0,-1,1889,491,0,0
672,533,0,0,0,0,0,0,0,0,0,-1,1896,491,0,0
679,533,0,0,0,0,0,0,0,0,0,-1,1903,491,0,0
686,533,0,0,0,0,0,0,0,0,0,-1,1910,491,0,0
693,533,0,0,0,0,0,0,0,0,0,-1,1917,491,0,0
700,533,0,0,0,0,0,0,0,0,0,-1,1924,491,0,0
707,533,0,0,0,0,0,0,0,0,0,-1,1931,491,0,0
714,533,0,0,0,0,0,0,0,0,0,-1,1938,491,0,0
721,533,0,0,0,0,0,0,0,0,0,-1,1945,491,0,0
728,533,0,0,0,0,0,0,0,0,0,-1,1952,491,0,0
735,533,0,0,0,0,0,0,0,0,0,-1,1959,491,0,0
742,533,0,0,0,0,0,0,0,0,0,-1,1966,491,0,0
749,533,0,0,0,0,0,0,0,0,0,-1,1973,491,0,0
756,533,0,0,0,0,0,0,0,0,0,-1,1980,491,0,0
763,533,0,0,0,0,0,0,0,0,0,-1,1987,491,0,0
770,533,0,0,0,0,0,0,0,0,0,-1,1994,491,0,0
777,533,0,0,0,0,0,0,0,0,0,-1,2001,491,0,0
784,533,0,0,0,0,0,0,0,0,0,-1,2008,491,0,0
791,533,0,0,0,0,0,0,0,0,0,-1,2015,491,0,0
798,533,0,0,0,0,0,0,0,0,0,-1,2022,491,0,0
805,533,0,0,0,0,0,0,0,0,0,-1,2029,491,0,0
812,533,0,0,0,0,0,0,0,0,0,-1,2036,491,0,0
-700,526,0,0,0,0,0,0,0,0,0,-1,524,498,0,0
-693,526,0,0,0,0,0,0,0,0,0,-1,531,498,0,0
-686,526,0,0,0,0,0,0,0,0,0,-1,538,498,0,0
-679,526,0,0,0,0,0,0,0,0,0,-1,545,498,0,0
-672,526,0,0,0,0,0,0,0,0,0,-1,552,498,0,0
-665,526,0,0,0,0,0,0,0,0,0,-1,559,498,0,0
-658,526,0,0,0,0,0,0,0,0,0,-1,566,498,0,0
-651,526,0,0,0,0,0,0,0,0,0,-1,573,498,0,0
-644,526,0,0,0,0,0,0,0,0,0,-1,580,498,0,0
-637,526,0,0,0,0,0,0,0,0,0,-1,587,498,0,0
-630,526,0,0,0,0,0,0,0,0,0,-1,594,498,0,0
-623,526,0,0,0,0,0,0,0,0,0,-1,601,498,0,0
-616,526,0,0,0,0,0,0,0,0,0,-1,608,498,0,0
-609,526,0,0,0,0,0,0,0,0,0,-1,615,498,0,0
-602,526,0,0,0,0,0,0,0,0,0,-1,622,498,0,0
-595,526,0,0,0,0,0,0,0,0,0,-1,629,498,0,0
-588,526,0,0,0,0,0,0,0,0,0,-1,636,498,0,0
-581,526,0,0,0,0,0,0,0,0,0,-1,643,498,0,0
-574,526,0,0,0,0,0,0,0,0,0,-1,650,498,0,0
-567,526,0,0,0,0,0,0,0,0,0,-1,657,498,0,0
-560,526,0,0,0,0,0,0,0,0,0,-1,664,498,0,0
-553,526,0,0,0,0,0,0,0,0,0,-1,671,498,0,0
-546,526,0,0,0,0,0,0,0,0,0,-1,678,498,0,0
-539,526,0,0,0,0,0,0,0,0,0,-1,685,498,0,0
-532,526,0,0,0,0,0,0,0,0,0,-1,692,498,0,0
-525,526,0,0,0,0,0,0,0,0,0,-1,699,498,0,0
-518,526,0,0,0,0,0,0,0,0,0,-1,706,498,0,0
-511,526,0,0,0,0,0,0,0,0,0,-1,713,498,0,0
-504,526,0,0,0,0,0,0,0,0,0,-1,720,498,0,0
-497,526,0,0,0,0,0,0,0,0,0,-1,727,498,0,0
-490,526,0,0,0,0,0,0,0,0,0,-1,734,498,0,0
-483,526,0,0,0,0,0,0,0,0,0,-1,741,498,0,0
-476,526,0,0,0,0,0,0,0,0,0,-1,748,498,0,0
-469,526,0,0,0,0,0,0,0,0,0,-1,755,498,0,0
-462,526,0,0,0,0,0,0,0,0,0,-1,762,498,0,0
-455,526,0,0,0,0,0,0,0,0,0,-1,769,498,0,0
-448,526,0,0,0,0,0,0,0,0,0,-1,776,498,0,0
-441,526,0,0,0,0,0,0,0,0,0,-1,783,498,0,0
-434,526,-0.153564,-5.96649,0,0,0,0,0,0,0,-1,790,498,-0.153589,5.9665
-427,526,1.23206,-4.59808,0,0,0,0,0,0,0,-1,797,498,1.23208,4.59809
-420,526,-1.76373,-11.6241,0,0,0,0,0,0,0,-1,804,498,-1.76373,11.6241
-413,526,-1.38965,-11.7916,0,0,0,0,0,0,0,-1,811,498,-1.38963,11.7916
-406,526,-1.35187,-12.5182,0,0,0,0,0,0,0,-1,818,498,-1.35185,12.5181
-399,526,-1.32715,-13.2116,0,0,0,0,0,0,0,-1,825,498,-1.32713,13.2116
-392,526,0.197571,-15.303,0,0,0,0,0,0,0,-1,832,498,0.197598,15.303
-385,526,-2.69397,-19.6176,0,0,0,0,0,0,0,-1,839,498,-2.69399,19.6176
-378,526,-1.54602,-26.5429,0,0,0,0,0,0,0,-1,846,498,-1.54605,26.5429
-371,526,-1.47656,-27.7843,0.0103079,0.0277351,-0.0181518,0.0391564,-0.00111337,-1.00917,0.0264832,0.0459614,853,498,-1.47657,27.7843
-364,526,-1.33044,-29.0392,0.00843185,0.023658,-0.0150129,0.0328778,-0.000787934,-1.02006,0.0221859,0.0218975,860,498,-1.33047,29.0392
-357,526,-1.2854,-30.0266,0.0066344,0.019582,-0.0122144,0.0269322,-0.000715793,-1.02908,0.0181981,0.0135819,867,498,-1.28542,30.0266
-350,526,-1.31964,-30.9105,0.00502748,0.0158479,-0.00965091,0.0215016,-0.000626237,-1.04087,0.0145476,0.0131692,874,498,-1.31965,30.9105
-343,526,-1.39856,-31.8054,0.00374338,0.0124075,-0.00738306,0.0166356,-0.000484735,-1.05071,0.0112554,0.0175875,881,498,-1.39856,31.8054
-336,526,-1.46924,-32.6699,0.00270336,0.00941204,-0.00540232,0.0124167,-0.000301279,-1.06322,0.00838002,0.0172315,888,498,-1.46924,32.6699
-329,526,-1.51752,-33.5095,0.00185439,0.00681885,-0.00370573,0.00879688,-0.000123633,-1.0805,0.00590623,0.0167555,895,498,-1.51753,33.5095
-322,526,-1.55304,-34.3214,0.00107102,0.0043607,-0.00210718,0.00538901,4.27153e-05,-1.11679,0.00357852,0.0106927,902,498,-1.55304,34.3214
-315,526,-1.61121,-35.17,0.000585261,0.00242699,-0.000843697,0.00275505,0.0002572,-1.19995,0.00175725,0.00937257,909,498,-1.6112,35.1701
-308,526,-1.66876,-36.033,0.000387256,0.00093488,6.56146e-05,0.000942632,0.000379504,1.4532,0.00054766,0.00891462,916,498,-1.66877,36.033
-301,526,-1.72406,-36.8193,0.000392135,-0.000257668,0.000736853,0.000872537,-0.00073807,0.577755,0.000930964,0.00995909,923,498,-1.72403,36.8193
-294,526,-1.73596,-37.6177,0.000556033,-0.0011224,0.00132728,0.00128716,-0.00185352,0.50349,0.00182307,0.0100281,930,498,-1.73595,37.6177
-287,526,-1.75568,-38.4255,0.000786299,-0.00207603,0.00187424,0.00171332,-0.00300305,0.459325,0.00275672,0.0110957,937,498,-1.75569,38.4255
-280,526,-1.81042,-39.2182,0.000776797,-0.00376588,0.0025838,0.00194566,-0.00493475,0.424833,0.00409545,0.0141405,944,498,-1.81041,39.2182
-273,526,-1.84412,-40.0179,0.000693586,-0.00584245,0.0036406,0.0023178,-0.00746666,0.419638,0.00590403,0.011454,951,498,-1.84413,40.018
-266,526,-1.86859,-40.8102,0.000933144,-0.00844144,0.00526055,0.00329171,-0.0108,0.421481,0.00851211,0.0181277,958,498,-1.86856,40.8102
-259,526,-1.81805,-41.5888,0.00131494,-0.0113445,0.00707843,0.00448098,-0.0145105,0.42059,0.0114631,0.0467766,965,498,-1.81803,41.5888
-252,526,-1.86261,-42.4198,0,0,0,0,0,0,0,-1,972,498,-1.86263,42.4198
-245,526,-1.89496,-43.0565,0,0,0,0,0,0,0,-1,979,498,-1.89498,43.0564
-238,526,-1.80017,-43.4691,0,0,0,0,0,0,0,-1,986,498,-1.80014,43.4691
-231,526,-2.13965,-43.3248,0,0,0,0,0,0,0,-1,993,498,-2.13966,43.3248
-224,526,-2.52997,-44.3269,0,0,0,0,0,0,0,-1,1000,498,-2.52999,44.3269
-217,526,-2.51575,-45.1426,0,0,0,0,0,0,0,-1,1007,498,-2.51575,45.1426
-210,526,-1.77289,-44.7313,0,0,0,0,0,0,0,-1,1014,498,-1.77289,44.7313
-203,526,-0.659302,-18.8818,0,0,0,0,0,0,0,-1,1021,498,-0.659273,18.8818
-196,526,-0.328247,-12.179,0,0,0,0,0,0,0,-1,1028,498,-0.328238,12.179
-189,526,0.401245,-5.96826,0,0,0,0,0,0,0,-1,1035,498,0.401197,5.96826
-182,526,1.7323,-2.99405,0,0,0,0,0,0,0,-1,1042,498,1.73226,2.99404
-175,526,2.27637,-2.07983,0,0,0,0,0,0,0,-1,1049,498,2.27639,2.07984
-168,526,2.12036,-1.66049,0,0,0,0,0,0,0,-1,1056,498,2.12035,1.66048
-161,526,2.09082,-1.20572,0,0,0,0,0,0,0,-1,1063,498,2.09086,1.2057
-154,526,-1.3446,-5.37799,0,0,0,0,0,0,0,-1,1070,498,-1.34457,5.37799
-147,526,-0.472656,-6.64996,0,0,0,0,0,0,0,-1,1077,498,-0.472659,6.64997
-140,526,0.422852,-8.03339,0,0,0,0,0,0,0,-1,1084,498,0.422844,8.0334
-133,526,1.09583,-9.2215,0,0,0,0,0,0,0,-1,1091,498,1.09581,9.2215
-126,526,3.42529,-2.36053,0,0,0,0,0,0,0,-1,1098,498,3.42523,2.36052
-119,526,2.7771,-0.764099,0,0,0,0,0,0,0,-1,1105,498,2.7771,0.764107
-112,526,2.57715,-1.1893,0,0,0,0,0,0,0,-1,1112,498,2.57718,1.1893
-105,526,0,0,0,0,0,0,0,0,0,-1,1119,498,0,0
-98,526,0,0,0,0,0,0,0,0,0,-1,1126,498,0,0
-91,526,0,0,0,0,0,0,0,0,0,-1,1133,498,0,0
-84,526,0,0,0,0,0,0,0,0,0,-1,1140,498,0,0
-77,526,0,0,0,0,0,0,0,0,0,-1,1147,498,0,0
-70,526,0,0,0,0,0,0,0,0,0,-1,1154,498,0,0
-63,526,0,0,0,0,0,0,0,0,0,-1,1161,498,0,0
-56,526,0,0,0,0,0,0,0,0,0,-1,1168,498,0,0
-49,526,0,0,0,0,0,0,0,0,0,-1,1175,498,0,0
-42,526,0,0,0,0,0,0,0,0,0,-1,1182,498,0,0
-35,526,0,0,0,0,0,0,0,0,0,-1,1189,498,0,0
-28,526,0,0,0,0,0,0,0,0,0,-1,1196,498,0,0
-21,526,0,0,0,0,0,0,0,0,0,-1,1203,498,0,0
-14,526,0,0,0,0,0,0,0,0,0,-1,1210,498,0,0
-7,526,0,0,0,0,0,0,0,0,0,-1,1217,498,0,0
0,526,0,0,0,0,0,0,0,0,0,-1,1224,498,0,0
7,526,0,0,0,0,0,0,0,0,0,-1,1231,498,0,0
14,526,0,0,0,0,0,0,0,0,0,-1,1238,498,0,0
21,526,0,0,0,0,0,0,0,0,0,-1,1245,498,0,0
28,526,0,0,0,0,0,0,0,0,0,-1,1252,498,0,0
35,526,0,0,0,0,0,0,0,0,0,-1,1259,498,0,0
42,526,0,0,0,0,0,0,0,0,0,-1,1266,498,0,0
49,526,0,0,0,0,0,0,0,0,0,-1,1273,498,0,0
56,526,0,0,0,0,0,0,0,0,0,-1,1280,498,0,0
63,526,0,0,0,0,0,0,0,0,0,-1,1287,498,0,0
70,526,0,0,0,0,0,0,0,0,0,-1,1294,498,0,0
77,526,0,0,0,0,0,0,0,0,0,-1,1301,498,0,0
84,526,0,0,0,0,0,0,0,0,0,-1,1308,498,0,0
91,526,0,0,0,0,0,0,0,0,0,-1,1315,498,0,0
98,526,0,0,0,0,0,0,0,0,0,-1,1322,498,0,0
105,526,0,0,0,0,0,0,0,0,0,-1,1329,498,0,0
112,526,0,0,0,0,0,0,0,0,0,-1,1336,498,0,0
119,526,0,0,0,0,0,0,0,0,0,-1,1343,498,0,0
126,526,0,0,0,0,0,0,0,0,0,-1,1350,498,0,0
133,526,0,0,0,0,0,0,0,0,0,-1,1357,498,0,0
140,526,0,0,0,0,0,0,0,0,0,-1,1364,498,0,0
147,526,0,0,0,0,0,0,0,0,0,-1,1371,498,0,0
154,526,0,0,0,0,0,0,0,0,0,-1,1378,498,0,0
161,526,0,0,0,0,0,0,0,0,0,-1,1385,498,0,0
168,526,0,0,0,0,0,0,0,0,0,-1,1392,498,0,0
175,526,0,0,0,0,0,0,0,0,0,-1,1399,498,0,0
182,526,0,0,0,0,0,0,0,0,0,-1,1406,498,0,0
189,526,0,0,0,0,0,0,0,0,0,-1,1413,498,0,0
196,526,0,0,0,0,0,0,0,0,0,-1,1420,498,0,0
203,526,0,0,0,0,0,0,0,0,0,-1,1427,498,0,0
210,526,0,0,0,0,0,0,0,0,0,-1,1434,498,0,0
217,526,0,0,0,0,0,0,0,0,0,-1,1441,498,0,0
224,526,0,0,0,0,0,0,0,0,0,-1,1448,498,0,0
231,526,7.93237,-1.30618,0,0,0,0,0,0,0,-1,1455,498,7.93238,1.30618
238,526,7.97717,-1.08197,0,0,0,0,0,0,0,-1,1462,498,7.97723,1.08196
245,526,7.2793,-0.792938,0,0,0,0,0,0,0,-1,1469,498,7.27931,0.792926
252,526,6.73523,-2.23608,0,0,0,0,0,0,0,-1,1476,498,6.73525,2.23608
259,526,6.22949,-1.84967,0,0,0,0,0,0,0,-1,1483,498,6.22953,1.84968
266,526,5.72375,-1.46329,0,0,0,0,0,0,0,-1,1490,498,5.72381,1.46328
273,526,4.33984,0.49173,0,0,0,0,0,0,0,-1,1497,498,4.33979,-0.491727
280,526,1.4585,-1.59897,0,0,0,0,0,0,0,-1,1504,498,1.45846,1.59895
287,526,1.46411,-2.40134,0,0,0,0,0,0,0,-1,1511,498,1.46406,2.40133
294,526,5.57471,-4.59085,0,0,0,0,0,0,0,-1,1518,498,5.57466,4.59084
301,526,4.42786,-3.99677,0,0,0,0,0,0,0,-1,1525,498,4.42788,3.99676
308,526,5.79529,-4.19366,0,0,0,0,0,0,0,-1,1532,498,5.79528,4.19368
315,526,5.09851,-5.20068,0,0,0,0,0,0,0,-1,1539,498,5.09851,5.20068
322,526,5.50708,-4.72348,0,0,0,0,0,0,0,-1,1546,498,5.50713,4.72347
329,526,3.88672,-4.345,0,0,0,0,0,0,0,-1,1553,498,3.88674,4.34501
336,526,4.97876,-2.23828,0,0,0,0,0,0,0,-1,1560,498,4.97877,2.23828
343,526,3.31665,-2.69696,0,0,0,0,0,0,0,-1,1567,498,3.31667,2.69696
350,526,6.06287,-6.12015,0,0,0,0,0,0,0,-1,1574,498,6.06286,6.12014
357,526,12.9944,-29.1665,0,0,0,0,0,0,0,-1,1581,498,12.9943,29.1665
364,526,13.2582,-29.5416,0,0,0,0,0,0,0,-1,1588,498,13.2581,29.5416
371,526,12.4481,-29.0131,0,0,0,0,0,0,0,-1,1595,498,12.4481,29.0131
378,526,15.619,-39.1503,0,0,0,0,0,0,0,-1,1602,498,15.619,39.1503
385,526,17.5061,-41.3532,0,0,0,0,0,0,0,-1,1609,498,17.5061,41.3532
392,526,17.5817,-40.405,0,0,0,0,0,0,0,-1,1616,498,17.5817,40.405
399,526,17.4939,-39.6294,0.00305827,-0.000815902,-0.00100487,0.0033034,-0.00106103,-0.239269,0.00262833,0.0267927,1623,498,17.4939,39.6294
406,526,17.5068,-38.7819,0.0027363,0.000659465,-0.000262768,0.00276903,0.000626734,-0.123922,0.00167662,0.0141434,1630,498,17.5069,38.7819
413,526,17.4755,-37.9674,0.00264144,0.00124221,0.000210867,0.00267252,0.00121112,0.146372,0.00154524,0.0140583,1637,498,17.4754,37.9674
420,526,17.4426,-37.1556,0.00235204,0.00145203,0.000436757,0.00252914,0.00127493,0.385227,0.00146022,0.0152656,1644,498,17.4427,37.1556
427,526,17.4307,-36.3372,0.00191436,0.00152582,0.000601596,0.00235227,0.0010879,0.629223,0.00135936,0.0149291,1651,498,17.4307,36.3372
434,526,17.3777,-35.5182,0.00151643,0.00157635,0.000800044,0.00234699,0.000745784,0.804112,0.00138471,0.0121859,1658,498,17.3777,35.5182
441,526,17.3221,-34.6581,0.00114086,0.00171374,0.00105678,0.00252221,0.000332391,0.917745,0.00158236,0.0113695,1665,498,17.3221,34.6581
448,526,17.3051,-33.8397,0.000737105,0.00177106,0.00131114,0.00266347,-0.000155302,0.973188,0.00182961,0.0104727,1672,498,17.3051,33.8396
455,526,17.2495,-33.033,0.000371778,0.00190088,0.00158602,0.00289701,-0.000624349,1.00999,0.00216961,0.0132763,1679,498,17.2495,33.033
462,526,17.2015,-32.1529,0.000213752,0.00212766,0.00188875,0.00328805,-0.000946638,1.01988,0.00256645,0.0109021,1686,498,17.2015,32.1529
469,526,17.16,-31.3001,0.000343151,0.0024921,0.00224137,0.00390323,-0.00106798,1.00891,0.00302173,0.008455,1693,498,17.16,31.3001
476,526,17.0997,-30.4323,0.000432446,0.00291762,0.00259848,0.00455533,-0.00120527,1.00842,0.00350834,0.00976503,1700,498,17.0997,30.4323
483,526,17.0579,-29.4987,0.000787302,0.00347814,0.00305163,0.00546777,-0.00120233,0.993023,0.00410508,0.0140534,1707,498,17.0578,29.4987
490,526,17.1113,-28.5025,0.00139767,0.00409772,0.00361918,0.00661048,-0.00111508,0.963914,0.00482185,0.0375561,1714,498,17.1114,28.5025
497,526,17.2118,-27.6082,0,0,0,0,0,0,0,-1,1721,498,17.2118,27.6082
504,526,17.0548,-26.8323,0,0,0,0,0,0,0,-1,1728,498,17.0548,26.8324
511,526,16.8915,-24.8813,0,0,0,0,0,0,0,-1,1735,498,16.8914,24.8813
518,526,14.7889,-20.4046,0,0,0,0,0,0,0,-1,1742,498,14.7889,20.4046
525,526,14.7009,-19.7487,0,0,0,0,0,0,0,-1,1749,498,14.7009,19.7486
532,526,15.7457,-17.9624,0,0,0,0,0,0,0,-1,1756,498,15.7458,17.9624
539,526,16.1064,-16.42,0,0,0,0,0,0,0,-1,1763,498,16.1065,16.42
546,526,12.4675,-17.1617,0,0,0,0,0,0,0,-1,1770,498,12.4675,17.1617
553,526,3.40796,1.37137,0,0,0,0,0,0,0,-1,1777,498,3.40792,-1.37138
560,526,0,0,0,0,0,0,0,0,0,-1,1784,498,0,0
567,526,0,0,0,0,0,0,0,0,0,-1,1791,498,0,0
574,526,0,0,0,0,0,0,0,0,0,-1,1798,498,0,0
581,526,0,0,0,0,0,0,0,0,0,-1,1805,498,0,0
588,526,0,0,0,0,0,0,0,0,0,-1,1812,498,0,0
595,526,0,0,0,0,0,0,0,0,0,-1,1819,498,0,0
602,526,0,0,0,0,0,0,0,0,0,-1,1826,498,0,0
609,526,0,0,0,0,0,0,0,0,0,-1,1833,498,0,0
616,526,0,0,0,0,0,0,0,0,0,-1,1840,498,0,0
623,526,0,0,0,0,0,0,0,0,0,-1,1847,498,0,0
630,526,0,0,0,0,0,0,0,0,0,-1,1854,498,0,0
637,526,0,0,0,0,0,0,0,0,0,-1,1861,498,0,0
644,526,0,0,0,0,0,0,0,0,0,-1,1868,498,0,0
651,526,0,0,0,0,0,0,0,0,0,-1,1875,498,0,0
658,526,0,0,0,0,0,0,0,0,0,-1,1882,498,0,0
665,526,0,0,0,0,0,0,0,0,0,-1,1889,498,0,0
672,526,0,0,0,0,0,0,0,0,0,-1,1896,498,0,0
679,526,0,0,0,0,0,0,0,0,0,-1,1903,498,0,0
686,526,0,0,0,0,0,0,0,0,0,-1,1910,498,0,0
693,526,0,0,0,0,0,0,0,0,0,-1,1917,498,0,0
700,526,0,0,0,0,0,0,0,0,0,-1,1924,498,0,0
707,526,0,0,0,0,0,0,0,0,0,-1,1931,498,0,0
714,526,0,0,0,0,0,0,0,0,0,-1,1938,498,0,0
721,526,0,0,0,0,0,0,0,0,0,-1,1945,498,0,0
728,526,0,0,0,0,0,0,0,0,0,-1,1952,498,0,0
735,526,0,0,0,0,0,0,0,0,0,-1,1959,498,0,0
742,526,0,0,0,0,0,0,0,0,0,-1,1966,498,0,0
749,526,0,0,0,0,0,0,0,0,0,-1,1973,498,0,0
756,526,0,0,0,0,0,0,0,0,0,-1,1980,498,0,0
763,526,0,0,0,0,0,0,0,0,0,-1,1987,498,0,0
770,526,0,0,0,0,0,0,0,0,0,-1,1994,498,0,0
777,526,0,0,0,0,0,0,0,0,0,-1,2001,498,0,0
784,526,0,0,0,0,0,0,0,0,0,-1,2008,498,0,0
791,526,0,0,0,0,0,0,0,0,0,-1,2015,498,0,0
798,526,0,0,0,0,0,0,0,0,0,-1,2022,498,0,0
805,526,0,0,0,0,0,0,0,0,0,-1,2029,498,0,0
812,526,0,0,0,0,0,0,0,0,0,-1,2036,498,0,0
-700,519,0,0,0,0,0,0,0,0,0,-1,524,505,0,0
-693,519,0,0,0,0,0,0,0,0,0,-1,531,505,0,0
-686,519,0,0,0,0,0,0,0,0,0,-1,538,505,0,0
-679,519,0,0,0,0,0,0,0,0,0,-1,545,505,0,0
-672,519,0,0,0,0,0,0,0,0,0,-1,552,505,0,0
-665,519,0,0,0,0,0,0,0,0,0,-1,559,505,0,0
-658,519,0,0,0,0,0,0,0,0,0,-1,566,505,0,0
-651,519,0,0,0,0,0,0,0,0,0,-1,573,505,0,0
-644,519,0,0,0,0,0,0,0,0,0,-1,580,505,0,0
-637,519,0,0,0,0,0,0,0,0,0,-1,587,505,0,0
-630,519,0,0,0,0,0,0,0,0,0,-1,594,505,0,0
-623,519,0,0,0,0,0,0,0,0,0,-1,601,505,0,0
-616,519,0,0,0,0,0,0,0,0,0,-1,608,505,0,0
-609,519,0,0,0,0,0,0,0,0,0,-1,615,505,0,0
-602,519,0,0,0,0,0,0,0,0,0,-1,622,505,0,0
-595,519,0,0,0,0,0,0,0,0,0,-1,629,505,0,0
-588,519,0,0,0,0,0,0,0,0,0,-1,636,505,0,0
-581,519,0,0,0,0,0,0,0,0,0,-1,643,505,0,0
-574,519,0,0,0,0,0,0,0,0,0,-1,650,505,0,0
-567,519,0,0,0,0,0,0,0,0,0,-1,657,505,0,0
-560,519,0,0,0,0,0,0,0,0,0,-1,664,505,0,0
-553,519,0,0,0,0,0,0,0,0,0,-1,671,505,0,0
-546,519,0,0,0,0,0,0,0,0,0,-1,678,505,0,0
-539,519,0,0,0,0,0,0,0,0,0,-1,685,505,0,0
-532,519,0,0,0,0,0,0,0,0,0,-1,692,505,0,0
-525,519,0,0,0,0,0,0,0,0,0,-1,699,505,0,0
-518,519,0,0,0,0,0,0,0,0,0,-1,706,505,0,0
-511,519,0,0,0,0,0,0,0,0,0,-1,713,505,0,0
-504,519,0,0,0,0,0,0,0,0,0,-1,720,505,0,0
-497,519,0,0,0,0,0,0,0,0,0,-1,727,505,0,0
-490,519,0,0,0,0,0,0,0,0,0,-1,734,505,0,0
-483,519,0,0,0,0,0,0,0,0,0,-1,741,505,0,0
-476,519,0,0,0,0,0,0,0,0,0,-1,748,505,0,0
-469,519,0,0,0,0,0,0,0,0,0,-1,755,505,0,0
-462,519,0,0,0,0,0,0,0,0,0,-1,762,505,0,0
-455,519,0,0,0,0,0,0,0,0,0,-1,769,505,0,0
-448,519,0,0,0,0,0,0,0,0,0,-1,776,505,0,0
-441,519,1.34839,-5.29346,0,0,0,0,0,0,0,-1,783,505,1.3484,5.29347
-434,519,0.949585,-5.77313,0,0,0,0,0,0,0,-1,790,505,0.949598,5.77315
-427,519,-0.0523682,-9.31567,0,0,0,0,0,0,0,-1,797,505,-0.0523854,9.31568
-420,519,-2.38867,-12.1938,0,0,0,0,0,0,0,-1,804,505,-2.38867,12.1938
-413,519,-2.2298,-12.4998,0,0,0,0,0,0,0,-1,811,505,-2.22979,12.4998
-406,519,-1.44373,-12.3475,0,0,0,0,0,0,0,-1,818,505,-1.44376,12.3475
-399,519,-1.60516,-15.0849,0,0,0,0,0,0,0,-1,825,505,-1.60518,15.0849
-392,519,-1.94183,-24.8959,0,0,0,0,0,0,0,-1,832,505,-1.94183,24.8958
-385,519,-2.84442,-25.6489,0,0,0,0,0,0,0,-1,839,505,-2.84443,25.649
-378,519,-2.40845,-26.8212,0.00913349,0.0248768,-0.0166012,0.035378,-0.00136773,-1.00678,0.0240542,0.0412134,846,505,-2.40843,26.8211
-371,519,-2.09528,-28.055,0.00795115,0.0213185,-0.0142828,0.0304041,-0.00113443,-1.00424,0.0206579,0.0205679,853,505,-2.09529,28.055
-364,519,-2.09918,-29.092,0.00663946,0.0179825,-0.0118472,0.0254457,-0.0008238,-1.00864,0.017245,0.0110989,860,505,-2.09921,29.092
-357,519,-2.10669,-30.0264,0.00532656,0.0147227,-0.0095878,0.0207016,-0.000652353,-1.01321,0.0140236,0.0110142,867,505,-2.10668,30.0264
-350,519,-2.16748,-30.895,0.00412285,0.0116933,-0.00748744,0.0162979,-0.000481773,-1.01944,0.0110294,0.0140037,874,505,-2.16748,30.895
-343,519,-2.26239,-31.7345,0.00313132,0.00879275,-0.00557806,0.0122172,-0.000293178,-1.0202,0.0082443,0.0173636,881,505,-2.26239,31.7345
-336,519,-2.33478,-32.5792,0.00227721,0.00622294,-0.00384137,0.00856844,-6.82967e-05,-1.02263,0.00573519,0.0177032,888,505,-2.33479,32.5792
-329,519,-2.35321,-33.4285,0.00156461,0.00398552,-0.00233441,0.00540465,0.000145489,-1.02458,0.0035556,0.0154086,895,505,-2.35322,33.4285
-322,519,-2.37201,-34.2697,0.000915959,0.00186363,-0.000911921,0.00241747,0.000362118,-1.025,0.00150553,0.0119898,902,505,-2.37203,34.2697
-315,519,-2.41602,-35.1259,0.000549921,0.000210982,0.000212981,0.00065263,0.000108274,0.449341,0.000403862,0.0100093,909,505,-2.41599,35.1259
-308,519,-2.47333,-35.9882,0.00047019,-0.00103823,0.00102475,0.000988362,-0.0015564,0.468161,0.00148137,0.00847899,916,505,-2.4733,35.9881
-301,519,-2.53271,-36.7907,0.00049103,-0.00190554,0.00166454,0.00134374,-0.00275825,0.473424,0.00241476,0.0123637,923,505,-2.5327,36.7907
-294,519,-2.55804,-37.5601,0.000609453,-0.00255042,0.00225564,0.00178345,-0.00372441,0.479889,0.00324511,0.01615,930,505,-2.55803,37.5601
-287,519,-2.60541,-38.364,0.000812181,-0.00339755,0.00279481,0.00220609,-0.00479146,0.462646,0.00413093,0.0125487,937,505,-2.60538,38.364
-280,519,-2.65326,-39.1672,0.000687635,-0.00520956,0.00360735,0.00239813,-0.00692006,0.442772,0.00558703,0.0258802,944,505,-2.65326,39.1672
-273,519,-2.68011,-39.9958,0,0,0,0,0,0,0,-1,951,505,-2.6801,39.9958
-266,519,-2.68555,-40.897,0,0,0,0,0,0,0,-1,958,505,-2.68556,40.8971
-259,519,-2.479,-41.8018,0,0,0,0,0,0,0,-1,965,505,-2.47898,41.8018
-252,519,-1.84009,-26.8372,0,0,0,0,0,0,0,-1,972,505,-1.8401,26.8372
-245,519,-1.23254,-23.2696,0,0,0,0,0,0,0,-1,979,505,-1.23256,23.2696
-238,519,-0.645386,-38.9008,0,0,0,0,0,0,0,-1,986,505,-0.645375,38.9008
-231,519,-2.96686,-42.5311,0,0,0,0,0,0,0,-1,993,505,-2.96685,42.5311
-224,519,-3.65875,-43.6212,0,0,0,0,0,0,0,-1,1000,505,-3.65877,43.6211
-217,519,-2.87396,-38.149,0,0,0,0,0,0,0,-1,1007,505,-2.87394,38.149
-210,519,-0.883362,-34.799,0,0,0,0,0,0,0,-1,1014,505,-0.883379,34.799
-203,519,-0.513611,-5.39017,0,0,0,0,0,0,0,-1,1021,505,-0.513585,5.39017
-196,519,-0.374023,-5.41635,0,0,0,0,0,0,0,-1,1028,505,-0.374047,5.41635
-189,519,-0.234497,-5.44254,0,0,0,0,0,0,0,-1,1035,505,-0.234508,5.44253
-182,519,2.76697,-1.19659,0,0,0,0,0,0,0,-1,1042,505,2.76696,1.19661
-175,519,2.31323,-0.960938,0,0,0,0,0,0,0,-1,1049,505,2.31319,0.960941
-168,519,2.01074,-0.721405,0,0,0,0,0,0,0,-1,1056,505,2.01072,0.721407
-161,519,2.32056,-0.522339,0,0,0,0,0,0,0,-1,1063,505,2.32057,0.522328
-154,519,2.55566,0.116669,0,0,0,0,0,0,0,-1,1070,505,2.55563,-0.116661
-147,519,-0.55127,-6.14001,0,0,0,0,0,0,0,-1,1077,505,-0.551252,6.14001
-140,519,0.240601,-7.53503,0,0,0,0,0,0,0,-1,1084,505,0.240653,7.53501
-133,519,2.70911,-4.4516,0,0,0,0,0,0,0,-1,1091,505,2.70915,4.45161
-126,519,0,0,0,0,0,0,0,0,0,-1,1098,505,0,0
-119,519,0,0,0,0,0,0,0,0,0,-1,1105,505,0,0
-112,519,0,0,0,0,0,0,0,0,0,-1,1112,505,0,0
-105,519,0,0,0,0,0,0,0,0,0,-1,1119,505,0,0
-98,519,0,0,0,0,0,0,0,0,0,-1,1126,505,0,0
-91,519,0,0,0,0,0,0,0,0,0,-1,1133,505,0,0
-84,519,0,0,0,0,0,0,0,0,0,-1,1140,505,0,0
-77,519,0,0,0,0,0,0,0,0,0,-1,1147,505,0,0
-70,519,0,0,0,0,0,0,0,0,0,-1,1154,505,0,0
-63,519,0,0,0,0,0,0,0,0,0,-1,1161,505,0,0
-56,519,0,0,0,0,0,0,0,0,0,-1,1168,505,0,0
-49,519,0,0,0,0,0,0,0,0,0,-1,1175,505,0,0
-42,519,0,0,0,0,0,0,0,0,0,-1,1182,505,0,0
-35,519,0,0,0,0,0,0,0,0,0,-1,1189,505,0,0
-28,519,0,0,0,0,0,0,0,0,0,-1,1196,505,0,0
-21,519,0,0,0,0,0,0,0,0,0,-1,1203,505,0,0
-14,519,0,0,0,0,0,0,0,0,0,-1,1210,505,0,0
-7,519,0,0,0,0,0,0,0,0,0,-1,1217,505,0,0
0,519,0,0,0,0,0,0,0,0,0,-1,1224,505,0,0
7,519,0,0,0,0,0,0,0,0,0,-1,1231,505,0,0
14,519,0,0,0,0,0,0,0,0,0,-1,1238,505,0,0
21,519,0,0,0,0,0,0,0,0,0,-1,1245,505,0,0
28,519,0,0,0,0,0,0,0,0,0,-1,1252,505,0,0
35,519,0,0,0,0,0,0,0,0,0,-1,1259,505,0,0
42,519,0,0,0,0,0,0,0,0,0,-1,1266,505,0,0
49,519,0,0,0,0,0,0,0,0,0,-1,1273,505,0,0
56,519,0,0,0,0,0,0,0,0,0,-1,1280,505,0,0
63,519,0,0,0,0,0,0,0,0,0,-1,1287,505,0,0
70,519,0,0,0,0,0,0,0,0,0,-1,1294,505,0,0
77,519,0,0,0,0,0,0,0,0,0,-1,1301,505,0,0
84,519,0,0,0,0,0,0,0,0,0,-1,1308,505,0,0
91,519,0,0,0,0,0,0,0,0,0,-1,1315,505,0,0
98,519,0,0,0,0,0,0,0,0,0,-1,1322,505,0,0
105,519,0,0,0,0,0,0,0,0,0,-1,1329,505,0,0
112,519,0,0,0,0,0,0,0,0,0,-1,1336,505,0,0
119,519,0,0,0,0,0,0,0,0,0,-1,1343,505,0,0
126,519,0,0,0,0,0,0,0,0,0,-1,1350,505,0,0
133,519,0,0,0,0,0,0,0,0,0,-1,1357,505,0,0
140,519,0,0,0,0,0,0,0,0,0,-1,1364,505,0,0
147,519,0,0,0,0,0,0,0,0,0,-1,1371,505,0,0
154,519,0,0,0,0,0,0,0,0,0,-1,1378,505,0,0
161,519,0,0,0,0,0,0,0,0,0,-1,1385,505,0,0
168,519,0,0,0,0,0,0,0,0,0,-1,1392,505,0,0
175,519,0,0,0,0,0,0,0,0,0,-1,1399,505,0,0
182,519,0,0,0,0,0,0,0,0,0,-1,1406,505,0,0
189,519,0,0,0,0,0,0,0,0,0,-1,1413,505,0,0
196,519,0,0,0,0,0,0,0,0,0,-1,1420,505,0,0
203,519,0,0,0,0,0,0,0,0,0,-1,1427,505,0,0
210,519,0,0,0,0,0,0,0,0,0,-1,1434,505,0,0
217,519,0,0,0,0,0,0,0,0,0,-1,1441,505,0,0
224,519,0,0,0,0,0,0,0,0,0,-1,1448,505,0,0
231,519,0,0,0,0,0,0,0,0,0,-1,1455,505,0,0
238,519,0,0,0,0,0,0,0,0,0,-1,1462,505,0,0
245,519,0,0,0,0,0,0,0,0,0,-1,1469,505,0,0
252,519,5.26208,0.0938416,0,0,0,0,0,0,0,-1,1476,505,5.26207,-0.0938493
259,519,6.14246,-1.36441,0,0,0,0,0,0,0,-1,1483,505,6.14241,1.36441
266,519,5.31909,-0.400787,0,0,0,0,0,0,0,-1,1490,505,5.31912,0.400773
273,519,4.02393,0.325531,0,0,0,0,0,0,0,-1,1497,505,4.0239,-0.325522
280,519,4.68848,0.53006,0,0,0,0,0,0,0,-1,1504,505,4.68842,-0.530073
287,519,7.9519,-3.80801,0,0,0,0,0,0,0,-1,1511,505,7.95193,3.808
294,519,6.92273,-3.38889,0,0,0,0,0,0,0,-1,1518,505,6.92268,3.38888
301,519,5.35669,-2.92661,0,0,0,0,0,0,0,-1,1525,505,5.35675,2.9266
308,519,7.37549,-5.64529,0,0,0,0,0,0,0,-1,1532,505,7.3755,5.64529
315,519,6.30029,-4.53754,0,0,0,0,0,0,0,-1,1539,505,6.30024,4.53753
322,519,5.84302,-5.45117,0,0,0,0,0,0,0,-1,1546,505,5.84303,5.45116
329,519,4.92407,0.62384,0,0,0,0,0,0,0,-1,1553,505,4.92403,-0.623832
336,519,3.10095,-0.329285,0,0,0,0,0,0,0,-1,1560,505,3.1009,0.329283
343,519,2.49146,-2.31119,0,0,0,0,0,0,0,-1,1567,505,2.49145,2.31119
350,519,3.47729,-2.22516,0,0,0,0,0,0,0,-1,1574,505,3.47726,2.22515
357,519,13.271,-29.6344,0,0,0,0,0,0,0,-1,1581,505,13.271,29.6344
364,519,12.8292,-28.3627,0,0,0,0,0,0,0,-1,1588,505,12.8292,28.3627
371,519,12.3875,-27.0911,0,0,0,0,0,0,0,-1,1595,505,12.3874,27.091
378,519,6.36597,-10.0967,0,0,0,0,0,0,0,-1,1602,505,6.36597,10.0967
385,519,6.24756,-9.72186,0,0,0,0,0,0,0,-1,1609,505,6.24752,9.72183
392,519,16.8391,-37.6736,0,0,0,0,0,0,0,-1,1616,505,16.8391,37.6737
399,519,18.1752,-39.6251,0,0,0,0,0,0,0,-1,1623,505,18.1751,39.6251
406,519,18.3242,-38.798,0.00309454,0.000711091,-0.000618392,0.00324543,0.0005602,-0.239328,0.00200317,0.0379936,1630,505,18.3242,38.798
413,519,18.3401,-37.9584,0.00312459,0.00120989,-0.000131985,0.00313364,0.00120084,-0.0685009,0.00182559,0.0165224,1637,505,18.3401,37.9584
420,519,18.276,-37.1271,0.00289254,0.00130693,7.53151e-05,0.00289611,0.00130336,0.0473571,0.00167485,0.0163598,1644,505,18.2761,37.1271
427,519,18.2687,-36.3329,0.00245311,0.00125173,0.000208395,0.00248823,0.00121661,0.166966,0.0014367,0.0150034,1651,505,18.2686,36.3329
434,519,18.2083,-35.4858,0.00201975,0.00121638,0.000368825,0.00216339,0.00107274,0.37139,0.00124905,0.0134741,1658,505,18.2082,35.4858
441,519,18.1379,-34.6118,0.00163898,0.00128255,0.000590802,0.00207786,0.000843666,0.638912,0.0012067,0.0125301,1665,505,18.1379,34.6118
448,519,18.1171,-33.7915,0.00125673,0.0013194,0.000831594,0.00212025,0.000455885,0.80423,0.00128871,0.00961049,1672,505,18.1171,33.7915
455,519,18.0613,-32.9794,0.000916899,0.0014463,0.00108626,0.00229964,6.35562e-05,0.904909,0.00151235,0.0110631,1679,505,18.0613,32.9794
462,519,18.0303,-32.1125,0.000772183,0.00167436,0.00137646,0.00267177,-0.000225222,0.943741,0.0018608,0.0112954,1686,505,18.0303,32.1125
469,519,18.0183,-31.2352,0.000883747,0.00203308,0.00172823,0.00327968,-0.000362856,0.945906,0.0023169,0.011725,1693,505,18.0183,31.2353
476,519,17.9783,-30.3569,0.000940296,0.00243744,0.00208739,0.00390642,-0.000528684,0.957564,0.00279721,0.0134678,1700,505,17.9783,30.3569
483,519,17.9257,-29.4862,0.0012388,0.00294271,0.002528,0.00475845,-0.000576945,0.947925,0.00338107,0.0149138,1707,505,17.9257,29.4862
490,519,17.8789,-28.585,0.00172476,0.00349827,0.00303078,0.00576936,-0.000546334,0.927717,0.00404068,0.0135451,1714,505,17.8789,28.585
497,519,17.8207,-27.8303,0.00234412,0.00385145,0.00332659,0.00650868,-0.000313108,0.896796,0.00444716,0.0378088,1721,505,17.8207,27.8303
504,519,17.7766,-26.7414,0,0,0,0,0,0,0,-1,1728,505,17.7766,26.7414
511,519,17.8967,-25.6387,0,0,0,0,0,0,0,-1,1735,505,17.8968,25.6387
518,519,17.8844,-24.7505,0,0,0,0,0,0,0,-1,1742,505,17.8844,24.7505
525,519,15.9647,-20.5714,0,0,0,0,0,0,0,-1,1749,505,15.9648,20.5714
532,519,15.825,-19.0025,0,0,0,0,0,0,0,-1,1756,505,15.8249,19.0025
539,519,16.5902,-16.8075,0,0,0,0,0,0,0,-1,1763,505,16.5903,16.8075
546,519,12.4001,-16.5616,0,0,0,0,0,0,0,-1,1770,505,12.4002,16.5616
553,519,4.14136,0.0667419,0,0,0,0,0,0,0,-1,1777,505,4.14141,-0.0667503
560,519,3.77856,0.279724,0,0,0,0,0,0,0,-1,1784,505,3.77861,-0.279731
567,519,0,0,0,0,0,0,0,0,0,-1,1791,505,0,0
574,519,0,0,0,0,0,0,0,0,0,-1,1798,505,0,0
581,519,0,0,0,0,0,0,0,0,0,-1,1805,505,0,0
588,519,0,0,0,0,0,0,0,0,0,-1,1812,505,0,0
595,519,0,0,0,0,0,0,0,0,0,-1,1819,505,0,0
602,519,0,0,0,0,0,0,0,0,0,-1,1826,505,0,0
609,519,0,0,0,0,0,0,0,0,0,-1,1833,505,0,0
616,519,0,0,0,0,0,0,0,0,0,-1,1840,505,0,0
623,519,0,0,0,0,0,0,0,0,0,-1,1847,505,0,0
630,519,0,0,0,0,0,0,0,0,0,-1,1854,505,0,0
637,519,0,0,0,0,0,0,0,0,0,-1,1861,505,0,0
644,519,0,0,0,0,0,0,0,0,0,-1,1868,505,0,0
651,519,0,0,0,0,0,0,0,0,0,-1,1875,505,0,0
658,519,0,0,0,0,0,0,0,0,0,-1,1882,505,0,0
665,519,0,0,0,0,0,0,0,0,0,-1,1889,505,0,0
672,519,0,0,0,0,0,0,0,0,0,-1,1896,505,0,0
679,519,0,0,0,0,0,0,0,0,0,-1,1903,505,0,0
686,519,0,0,0,0,0,0,0,0,0,-1,1910,505,0,0
693,519,0,0,0,0,0,0,0,0,0,-1,1917,505,0,0
700,519,0,0,0,0,0,0,0,0,0,-1,1924,505,0,0
707,519,0,0,0,0,0,0,0,0,0,-1,1931,505,0,0
714,519,0,0,0,0,0,0,0,0,0,-1,1938,505,0,0
721,519,0,0,0,0,0,0,0,0,0,-1,1945,505,0,0
728,519,0,0,0,0,0,0,0,0,0,-1,1952,505,0,0
735,519,0,0,0,0,0,0,0,0,0,-1,1959,505,0,0
742,519,0,0,0,0,0,0,0,0,0,-1,1966,505,0,0
749,519,0,0,0,0,0,0,0,0,0,-1,1973,505,0,0
756,519,0,0,0,0,0,0,0,0,0,-1,1980,505,0,0
763,519,0,0,0,0,0,0,0,0,0,-1,1987,505,0,0
770,519,0,0,0,0,0,0,0,0,0,-1,1994,505,0,0
777,519,0,0,0,0,0,0,0,0,0,-1,2001,505,0,0
784,519,0,0,0,0,0,0,0,0,0,-1,2008,505,0,0
791,519,0,0,0,0,0,0,0,0,0,-1,2015,505,0,0
798,519,0,0,0,0,0,0,0,0,0,-1,2022,505,0,0
805,519,0,0,0,0,0,0,0,0,0,-1,2029,505,0,0
812,519,0,0,0,0,0,0,0,0,0,-1,2036,505,0,0
-700,512,0,0,0,0,0,0,0,0,0,-1,524,512,0,0
-693,512,0,0,0,0,0,0,0,0,0,-1,531,512,0,0
-686,512,0,0,0,0,0,0,0,0,0,-1,538,512,0,0
-679,512,0,0,0,0,0,0,0,0,0,-1,545,512,0,0
-672,512,0,0,0,0,0,0,0,0,0,-1,552,512,0,0
-665,512,0,0,0,0,0,0,0,0,0,-1,559,512,0,0
-658,512,0,0,0,0,0,0,0,0,0,-1,566,512,0,0
-651,512,0,0,0,0,0,0,0,0,0,-1,573,512,0,0
-644,512,0,0,0,0,0,0,0,0,0,-1,580,512,0,0
-637,512,0,0,0,0,0,0,0,0,0,-1,587,512,0,0
-630,512,0,0,0,0,0,0,0,0,0,-1,594,512,0,0
-623,512,0,0,0,0,0,0,0,0,0,-1,601,512,0,0
-616,512,0,0,0,0,0,0,0,0,0,-1,608,512,0,0
-609,512,0,0,0,0,0,0,0,0,0,-1,615,512,0,0
-602,512,0,0,0,0,0,0,0,0,0,-1,622,512,0,0
-595,512,0,0,0,0,0,0,0,0,0,-1,629,512,0,0
-588,512,0,0,0,0,0,0,0,0,0,-1,636,512,0,0
-581,512,0,0,0,0,0,0,0,0,0,-1,643,512,0,0
-574,512,0,0,0,0,0,0,0,0,0,-1,650,512,0,0
-567,512,0,0,0,0,0,0,0,0,0,-1,657,512,0,0
-560,512,0,0,0,0,0,0,0,0,0,-1,664,512,0,0
-553,512,0,0,0,0,0,0,0,0,0,-1,671,512,0,0
-546,512,0,0,0,0,0,0,0,0,0,-1,678,512,0,0
-539,512,0,0,0,0,0,0,0,0,0,-1,685,512,0,0
-532,512,0,0,0,0,0,0,0,0,0,-1,692,512,0,0
-525,512,0,0,0,0,0,0,0,0,0,-1,699,512,0,0
-518,512,0,0,0,0,0,0,0,0,0,-1,706,512,0,0
-511,512,0,0,0,0,0,0,0,0,0,-1,713,512,0,0
-504,512,0,0,0,0,0,0,0,0,0,-1,720,512,0,0
-497,512,0,0,0,0,0,0,0,0,0,-1,727,512,0,0
-490,512,0,0,0,0,0,0,0,0,0,-1,734,512,0,0
-483,512,0,0,0,0,0,0,0,0,0,-1,741,512,0,0
-476,512,0,0,0,0,0,0,0,0,0,-1,748,512,0,0
-469,512,0,0,0,0,0,0,0,0,0,-1,755,512,0,0
-462,512,0,0,0,0,0,0,0,0,0,-1,762,512,0,0
-455,512,0,0,0,0,0,0,0,0,0,-1,769,512,0,0
-448,512,1.96283,-4.15674,0,0,0,0,0,0,0,-1,776,512,1.96285,4.15677
-441,512,1.78198,-4.88824,0,0,0,0,0,0,0,-1,783,512,1.78201,4.88826
-434,512,0.0726929,-9.85822,0,0,0,0,0,0,0,-1,790,512,0.0727008,9.85819
-427,512,-0.384583,-9.94824,0,0,0,0,0,0,0,-1,797,512,-0.384552,9.94823
-420,512,-2.93219,-12.4855,0,0,0,0,0,0,0,-1,804,512,-2.93219,12.4855
-413,512,-2.22711,-11.4485,0,0,0,0,0,0,0,-1,811,512,-2.22712,11.4485
-406,512,-2.38037,-13.5743,0,0,0,0,0,0,0,-1,818,512,-2.38034,13.5743
-399,512,-3.13367,-23.934,0,0,0,0,0,0,0,-1,825,512,-3.13368,23.934
-392,512,-2.73596,-25.5414,0,0,0,0,0,0,0,-1,832,512,-2.73595,25.5414
-385,512,-2.81842,-26.3856,0.00717493,0.0214805,-0.0142812,0.0303,-0.00164456,-1.01756,0.0207699,0.0253435,839,512,-2.81841,26.3856
-378,512,-2.86707,-27.2261,0.00655364,0.018655,-0.0126423,0.0266199,-0.0014113,-1.00859,0.0182352,0.0198809,846,512,-2.86705,27.2261
-371,512,-2.89886,-28.1578,0.00587435,0.0158389,-0.0109091,0.0228496,-0.00113636,-0.999607,0.0156256,0.0140314,853,512,-2.89888,28.1579
-364,512,-2.9303,-29.1282,0.00504301,0.0131055,-0.00902187,0.0189558,-0.000807296,-0.995506,0.0129147,0.00953976,860,512,-2.93028,29.1282
-357,512,-2.9624,-30.0074,0.0041633,0.010521,-0.00720978,0.0152216,-0.000537309,-0.993033,0.0103315,0.0108603,867,512,-2.96238,30.0074
-350,512,-3.0271,-30.858,0.00331918,0.00804677,-0.00548574,0.0116563,-0.000290371,-0.988826,0.00786946,0.0121128,874,512,-3.02709,30.858
-343,512,-3.11993,-31.6987,0.00259068,0.00559927,-0.00387796,0.00825448,-6.45318e-05,-0.970418,0.00552462,0.0142054,881,512,-3.11996,31.6987
-336,512,-3.19452,-32.5676,0.00190653,0.00337999,-0.00235631,0.00511206,0.000174464,-0.936915,0.0033514,0.0157139,888,512,-3.19452,32.5676
-329,512,-3.17908,-33.3989,0.00132038,0.00142648,-0.00101602,0.00239083,0.000356028,-0.811482,0.00148946,0.0169779,895,512,-3.17907,33.3989
-322,512,-3.21295,-34.2247,0.000811739,-0.000402594,0.000227431,0.000852936,-0.000443791,0.1792,0.000760987,0.0142153,902,512,-3.21293,34.2247
-315,512,-3.25629,-35.0878,0.000567434,-0.00183371,0.00120683,0.00106916,-0.00233543,0.393998,0.00201045,0.012215,909,512,-3.25629,35.0878
-308,512,-3.32422,-35.9235,0.000604771,-0.00292106,0.00192,0.00144844,-0.00376473,0.414012,0.00310728,0.0119369,916,512,-3.32424,35.9235
-301,512,-3.37256,-36.7331,0.000618717,-0.00354637,0.00254885,0.00182762,-0.00475527,0.442872,0.00392392,0.0159586,923,512,-3.37257,36.7331
-294,512,-3.38232,-37.5089,0.000613687,-0.00408079,0.00319128,0.00222799,-0.00569509,0.468315,0.00471813,0.0165409,930,512,-3.38235,37.5089
-287,512,-3.54333,-38.1851,0.000736625,-0.00492721,0.00374902,0.0026031,-0.00679368,0.461932,0.00560218,0.0398753,937,512,-3.54335,38.1851
-280,512,-3.44348,-39.2148,0,0,0,0,0,0,0,-1,944,512,-3.44347,39.2149
-273,512,-2.90118,-34.7153,0,0,0,0,0,0,0,-1,951,512,-2.90121,34.7153
-266,512,-2.33594,-25.9839,0,0,0,0,0,0,0,-1,958,512,-2.33592,25.9839
-259,512,-0.525452,-14.0815,0,0,0,0,0,0,0,-1,965,512,-0.525475,14.0815
-252,512,1.45941,-3.43475,0,0,0,0,0,0,0,-1,972,512,1.45938,3.43475
-245,512,-1.6731,-22.8959,0,0,0,0,0,0,0,-1,979,512,-1.67312,22.8959
-238,512,0.227051,-8.92969,0,0,0,0,0,0,0,-1,986,512,0.227073,8.92968
-231,512,-1.90576,-38.0918,0,0,0,0,0,0,0,-1,993,512,-1.90575,38.0918
-224,512,-1.29974,-33.6304,0,0,0,0,0,0,0,-1,1000,512,-1.29974,33.6304
-217,512,-0.963196,-34.1697,0,0,0,0,0,0,0,-1,1007,512,-0.963226,34.1697
-210,512,-3.76642,-1.94702,0,0,0,0,0,0,0,-1,1014,512,-3.76641,1.94702
-203,512,-2.48328,-5.19061,0,0,0,0,0,0,0,-1,1021,512,-2.48328,5.19059
-196,512,-1.14929,-4.63202,0,0,0,0,0,0,0,-1,1028,512,-1.14934,4.632
-189,512,0.197998,4.55505,0,0,0,0,0,0,0,-1,1035,512,0.197996,-4.55506
-182,512,2.73938,0.0778503,0,0,0,0,0,0,0,-1,1042,512,2.73944,-0.077852
-175,512,2.29565,0.209808,0,0,0,0,0,0,0,-1,1049,512,2.29565,-0.209813
-168,512,2.09399,-0.302856,0,0,0,0,0,0,0,-1,1056,512,2.09403,0.302826
-161,512,2.76636,0.0921021,0,0,0,0,0,0,0,-1,1063,512,2.76633,-0.0921104
-154,512,3.41382,0.466187,0,0,0,0,0,0,0,-1,1070,512,3.41382,-0.466178
-147,512,0,0,0,0,0,0,0,0,0,-1,1077,512,0,0
-140,512,0,0,0,0,0,0,0,0,0,-1,1084,512,0,0
-133,512,0,0,0,0,0,0,0,0,0,-1,1091,512,0,0
-126,512,0,0,0,0,0,0,0,0,0,-1,1098,512,0,0
-119,512,0,0,0,0,0,0,0,0,0,-1,1105,512,0,0
-112,512,0,0,0,0,0,0,0,0,0,-1,1112,512,0,0
-105,512,0,0,0,0,0,0,0,0,0,-1,1119,512,0,0
-98,512,0,0,0,0,0,0,0,0,0,-1,1126,512,0,0
-91,512,0,0,0,0,0,0,0,0,0,-1,1133,512,0,0
-84,512,0,0,0,0,0,0,0,0,0,-1,1140,512,0,0
-77,512,0,0,0,0,0,0,0,0,0,-1,1147,512,0,0
-70,512,0,0,0,0,0,0,0,0,0,-1,1154,512,0,0
-63,512,0,0,0,0,0,0,0,0,0,-1,1161,512,0,0
-56,512,0,0,0,0,0,0,0,0,0,-1,1168,512,0,0
-49,512,0,0,0,0,0,0,0,0,0,-1,1175,512,0,0
-42,512,0,0,0,0,0,0,0,0,0,-1,1182,512,0,0
-35,512,0,0,0,0,0,0,0,0,0,-1,1189,512,0,0
-28,512,0,0,0,0,0,0,0,0,0,-1,1196,512,0,0
-21,512,0,0,0,0,0,0,0,0,0,-1,1203,512,0,0
-14,512,0,0,0,0,0,0,0,0,0,-1,1210,512,0,0
-7,512,0,0,0,0,0,0,0,0,0,-1,1217,512,0,0
0,512,0,0,0,0,0,0,0,0,0,-1,1224,512,0,0
7,512,0,0,0,0,0,0,0,0,0,-1,1231,512,0,0
14,512,0,0,0,0,0,0,0,0,0,-1,1238,512,0,0
21,512,0,0,0,0,0,0,0,0,0,-1,1245,512,0,0
28,512,0,0,0,0,0,0,0,0,0,-1,1252,512,0,0
35,512,0,0,0,0,0,0,0,0,0,-1,1259,512,0,0
42,512,0,0,0,0,0,0,0,0,0,-1,1266,512,0,0
49,512,0,0,0,0,0,0,0,0,0,-1,1273,512,0,0
56,512,0,0,0,0,0,0,0,0,0,-1,1280,512,0,0
63,512,0,0,0,0,0,0,0,0,0,-1,1287,512,0,0
70,512,0,0,0,0,0,0,0,0,0,-1,1294,512,0,0
77,512,0,0,0,0,0,0,0,0,0,-1,1301,512,0,0
84,512,0,0,0,0,0,0,0,0,0,-1,1308,512,0,0
91,512,0,0,0,0,0,0,0,0,0,-1,1315,512,0,0
98,512,0,0,0,0,0,0,0,0,0,-1,1322,512,0,0
105,512,0,0,0,0,0,0,0,0,0,-1,1329,512,0,0
112,512,0,0,0,0,0,0,0,0,0,-1,1336,512,0,0
119,512,0,0,0,0,0,0,0,0,0,-1,1343,512,0,0
126,512,0,0,0,0,0,0,0,0,0,-1,1350,512,0,0
133,512,0,0,0,0,0,0,0,0,0,-1,1357,512,0,0
140,512,0,0,0,0,0,0,0,0,0,-1,1364,512,0,0
147,512,0,0,0,0,0,0,0,0,0,-1,1371,512,0,0
154,512,0,0,0,0,0,0,0,0,0,-1,1378,512,0,0
161,512,0,0,0,0,0,0,0,0,0,-1,1385,512,0,0
168,512,0,0,0,0,0,0,0,0,0,-1,1392,512,0,0
175,512,0,0,0,0,0,0,0,0,0,-1,1399,512,0,0
182,512,0,0,0,0,0,0,0,0,0,-1,1406,512,0,0
189,512,0,0,0,0,0,0,0,0,0,-1,1413,512,0,0
196,512,0,0,0,0,0,0,0,0,0,-1,1420,512,0,0
203,512,0,0,0,0,0,0,0,0,0,-1,1427,512,0,0
210,512,0,0,0,0,0,0,0,0,0,-1,1434,512,0,0
217,512,0,0,0,0,0,0,0,0,0,-1,1441,512,0,0
224,512,0,0,0,0,0,0,0,0,0,-1,1448,512,0,0
231,512,0,0,0,0,0,0,0,0,0,-1,1455,512,0,0
238,512,0,0,0,0,0,0,0,0,0,-1,1462,512,0,0
245,512,0,0,0,0,0,0,0,0,0,-1,1469,512,0,0
252,512,0,0,0,0,0,0,0,0,0,-1,1476,512,0,0
259,512,0,0,0,0,0,0,0,0,0,-1,1483,512,0,0
266,512,0,0,0,0,0,0,0,0,0,-1,1490,512,0,0
273,512,4.00745,0.618622,0,0,0,0,0,0,0,-1,1497,512,4.00747,-0.618611
280,512,4.49609,0.649841,0,0,0,0,0,0,0,-1,1504,512,4.49612,-0.649834
287,512,4.77234,0.458069,0,0,0,0,0,0,0,-1,1511,512,4.77233,-0.458083
294,512,8.54956,-2.36273,0,0,0,0,0,0,0,-1,1518,512,8.54952,2.36274
301,512,6.302,-1.69092,0,0,0,0,0,0,0,-1,1525,512,6.30196,1.69093
308,512,8.2439,-6.22754,0,0,0,0,0,0,0,-1,1532,512,8.24394,6.22757
315,512,7.53687,-6.04211,0,0,0,0,0,0,0,-1,1539,512,7.53691,6.04211
322,512,6.82983,-5.85663,0,0,0,0,0,0,0,-1,1546,512,6.82988,5.85666
329,512,4.38147,-0.329651,0,0,0,0,0,0,0,-1,1553,512,4.38144,0.329662
336,512,4.41467,-0.741455,0,0,0,0,0,0,0,-1,1560,512,4.41467,0.741442
343,512,4.44727,-1.21667,0,0,0,0,0,0,0,-1,1567,512,4.44732,1.21666
350,512,4.55469,-1.65082,0,0,0,0,0,0,0,-1,1574,512,4.5547,1.65083
357,512,5.79993,-2.67456,0,0,0,0,0,0,0,-1,1581,512,5.79991,2.67454
364,512,13.118,-28.5485,0,0,0,0,0,0,0,-1,1588,512,13.1181,28.5485
371,512,5.28467,-7.69269,0,0,0,0,0,0,0,-1,1595,512,5.28464,7.69269
378,512,6.29407,-9.88055,0,0,0,0,0,0,0,-1,1602,512,6.29412,9.88057
385,512,6.45569,-9.32233,0,0,0,0,0,0,0,-1,1609,512,6.45565,9.3223
392,512,6.35522,-8.98425,0,0,0,0,0,0,0,-1,1616,512,6.35526,8.98422
399,512,16.9089,-33.7311,0,0,0,0,0,0,0,-1,1623,512,16.9089,33.7311
406,512,19.2412,-38.923,0,0,0,0,0,0,0,-1,1630,512,19.2412,38.923
413,512,19.2229,-37.9933,0,0,0,0,0,0,0,-1,1637,512,19.223,37.9933
420,512,19.1522,-37.1614,0.00385569,0.00114421,-0.000161492,0.00386528,0.00113463,-0.0592795,0.00229416,0.0285635,1644,512,19.1522,37.1614
427,512,19.1172,-36.3021,0.00324472,0.000961113,-0.000113605,0.00325036,0.000955475,-0.0495848,0.00192897,0.0169254,1651,512,19.1172,36.3021
434,512,19.0532,-35.4506,0.00262349,0.000840699,-4.91509e-05,0.00262485,0.000839345,-0.0275417,0.00154793,0.0126506,1658,512,19.0532,35.4506
441,512,18.972,-34.5875,0.00210822,0.000850039,0.000101384,0.00211634,0.000841922,0.079893,0.00123034,0.0132439,1665,512,18.9721,34.5875
448,512,18.9349,-33.772,0.00165608,0.000879486,0.000307054,0.00176281,0.000772751,0.334546,0.00102033,0.0100733,1672,512,18.935,33.772
455,512,18.8984,-32.9193,0.00127356,0.00100417,0.000525558,0.00168141,0.000596318,0.659953,0.000984337,0.0100039,1679,512,18.8984,32.9192
462,512,18.8785,-32.0582,0.00108118,0.0012269,0.000798409,0.00195577,0.000352314,0.8309,0.00120372,0.0103889,1686,512,18.8785,32.0582
469,512,18.8311,-31.1849,0.00112208,0.00157698,0.0011497,0.00252152,0.000177544,0.883053,0.00162507,0.0119698,1693,512,18.8311,31.1849
476,512,18.7856,-30.3192,0.00113066,0.00195629,0.00151122,0.00311006,-2.31109e-05,0.918729,0.00208112,0.0151122,1700,512,18.7857,30.3191
483,512,18.7548,-29.4332,0.0013681,0.00240255,0.00193633,0.00388954,-0.000118899,0.915909,0.00263356,0.0145037,1707,512,18.7548,29.4332
490,512,18.725,-28.5721,0.00173614,0.00290479,0.0023775,0.00476872,-0.000127794,0.905896,0.00322259,0.0116373,1714,512,18.725,28.5722
497,512,18.6536,-27.6938,0.00222046,0.00326634,0.00268404,0.00547791,8.88947e-06,0.88161,0.00364898,0.0122414,1721,512,18.6536,27.6938
504,512,18.5619,-26.7783,0.0028555,0.00372284,0.0029515,0.00627236,0.000305988,0.858342,0.0040834,0.0179383,1728,512,18.5619,26.7783
511,512,18.5238,-25.8143,0.00363511,0.00420535,0.00321008,0.00714294,0.000697519,0.829692,0.00454732,0.0278323,1735,512,18.5238,25.8143
518,512,18.6401,-24.9346,0.00456181,0.00481313,0.00338038,0.00807018,0.00130476,0.803976,0.00500225,0.0369123,1742,512,18.6401,24.9346
525,512,18.8674,-24.0385,0,0,0,0,0,0,0,-1,1749,512,18.8675,24.0385
532,512,16.6807,-19.0635,0,0,0,0,0,0,0,-1,1756,512,16.6807,19.0635
539,512,12.6367,-16.4022,0,0,0,0,0,0,0,-1,1763,512,12.6367,16.4021
546,512,2.77551,-0.66449,0,0,0,0,0,0,0,-1,1770,512,2.77548,0.664503
553,512,3.927,-0.448853,0,0,0,0,0,0,0,-1,1777,512,3.92704,0.448843
560,512,3.55762,-0.201233,0,0,0,0,0,0,0,-1,1784,512,3.55768,0.201259
567,512,3.09045,0.191193,0,0,0,0,0,0,0,-1,1791,512,3.09045,-0.191203
574,512,0,0,0,0,0,0,0,0,0,-1,1798,512,0,0
581,512,0,0,0,0,0,0,0,0,0,-1,1805,512,0,0
588,512,0,0,0,0,0,0,0,0,0,-1,1812,512,0,0
595,512,0,0,0,0,0,0,0,0,0,-1,1819,512,0,0
602,512,0,0,0,0,0,0,0,0,0,-1,1826,512,0,0
609,512,0,0,0,0,0,0,0,0,0,-1,1833,512,0,0
616,512,0,0,0,0,0,0,0,0,0,-1,1840,512,0,0
623,512,0,0,0,0,0,0,0,0,0,-1,1847,512,0,0
630,512,0,0,0,0,0,0,0,0,0,-1,1854,512,0,0
637,512,0,0,0,0,0,0,0,0,0,-1,1861,512,0,0
644,512,0,0,0,0,0,0,0,0,0,-1,1868,512,0,0
651,512,0,0,0,0,0,0,0,0,0,-1,1875,512,0,0
658,512,0,0,0,0,0,0,0,0,0,-1,1882,512,0,0
665,512,0,0,0,0,0,0,0,0,0,-1,1889,512,0,0
672,512,0,0,0,0,0,0,0,0,0,-1,1896,512,0,0
679,512,0,0,0,0,0,0,0,0,0,-1,1903,512,0,0
686,512,0,0,0,0,0,0,0,0,0,-1,1910,512,0,0
693,512,0,0,0,0,0,0,0,0,0,-1,1917,512,0,0
700,512,0,0,0,0,0,0,0,0,0,-1,1924,512,0,0
707,512,0,0,0,0,0,0,0,0,0,-1,1931,512,0,0
714,512,0,0,0,0,0,0,0,0,0,-1,1938,512,0,0
721,512,0,0,0,0,0,0,0,0,0,-1,1945,512,0,0
728,512,0,0,0,0,0,0,0,0,0,-1,1952,512,0,0
735,512,0,0,0,0,0,0,0,0,0,-1,1959,512,0,0
742,512,0,0,0,0,0,0,0,0,0,-1,1966,512,0,0
749,512,0,0,0,0,0,0,0,0,0,-1,1973,512,0,0
756,512,0,0,0,0,0,0,0,0,0,-1,1980,512,0,0
763,512,0,0,0,0,0,0,0,0,0,-1,1987,512,0,0
770,512,0,0,0,0,0,0,0,0,0,-1,1994,512,0,0
777,512,0,0,0,0,0,0,0,0,0,-1,2001,512,0,0
784,512,0,0,0,0,0,0,0,0,0,-1,2008,512,0,0
791,512,0,0,0,0,0,0,0,0,0,-1,2015,512,0,0
798,512,0,0,0,0,0,0,0,0,0,-1,2022,512,0,0
805,512,0,0,0,0,0,0,0,0,0,-1,2029,512,0,0
812,512,0,0,0,0,0,0,0,0,0,-1,2036,512,0,0
-700,505,0,0,0,0,0,0,0,0,0,-1,524,519,0,0
-693,505,0,0,0,0,0,0,0,0,0,-1,531,519,0,0
-686,505,0,0,0,0,0,0,0,0,0,-1,538,519,0,0
-679,505,0,0,0,0,0,0,0,0,0,-1,545,519,0,0
-672,505,0,0,0,0,0,0,0,0,0,-1,552,519,0,0
-665,505,0,0,0,0,0,0,0,0,0,-1,559,519,0,0
-658,505,0,0,0,0,0,0,0,0,0,-1,566,519,0,0
-651,505,0,0,0,0,0,0,0,0,0,-1,573,519,0,0
-644,505,0,0,0,0,0,0,0,0,0,-1,580,519,0,0
-637,505,0,0,0,0,0,0,0,0,0,-1,587,519,0,0
-630,505,0,0,0,0,0,0,0,0,0,-1,594,519,0,0
-623,505,0,0,0,0,0,0,0,0,0,-1,601,519,0,0
-616,505,0,0,0,0,0,0,0,0,0,-1,608,519,0,0
-609,505,0,0,0,0,0,0,0,0,0,-1,615,519,0,0
-602,505,0,0,0,0,0,0,0,0,0,-1,622,519,0,0
-595,505,0,0,0,0,0,0,0,0,0,-1,629,519,0,0
-588,505,0,0,0,0,0,0,0,0,0,-1,636,519,0,0
-581,505,0,0,0,0,0,0,0,0,0,-1,643,519,0,0
-574,505,0,0,0,0,0,0,0,0,0,-1,650,519,0,0
-567,505,0,0,0,0,0,0,0,0,0,-1,657,519,0,0
-560,505,0,0,0,0,0,0,0,0,0,-1,664,519,0,0
-553,505,0,0,0,0,0,0,0,0,0,-1,671,519,0,0
-546,505,0,0,0,0,0,0,0,0,0,-1,678,519,0,0
-539,505,0,0,0,0,0,0,0,0,0,-1,685,519,0,0
-532,505,0,0,0,0,0,0,0,0,0,-1,692,519,0,0
-525,505,0,0,0,0,0,0,0,0,0,-1,699,519,0,0
-518,505,0,0,0,0,0,0,0,0,0,-1,706,519,0,0
-511,505,0,0,0,0,0,0,0,0,0,-1,713,519,0,0
-504,505,0,0,0,0,0,0,0,0,0,-1,720,519,0,0
-497,505,0,0,0,0,0,0,0,0,0,-1,727,519,0,0
-490,505,0,0,0,0,0,0,0,0,0,-1,734,519,0,0
-483,505,0,0,0,0,0,0,0,0,0,-1,741,519,0,0
-476,505,0,0,0,0,0,0,0,0,0,-1,748,519,0,0
-469,505,0,0,0,0,0,0,0,0,0,-1,755,519,0,0
-462,505,0,0,0,0,0,0,0,0,0,-1,762,519,0,0
-455,505,2.72137,-3.26379,0,0,0,0,0,0,0,-1,769,519,2.72135,3.26377
-448,505,2.51111,-3.94989,0,0,0,0,0,0,0,-1,776,519,2.51112,3.94986
-441,505,2.80212,-6.8902,0,0,0,0,0,0,0,-1,783,519,2.80209,6.89019
-434,505,-0.155212,-10.6374,0,0,0,0,0,0,0,-1,790,519,-0.155194,10.6374
-427,505,-0.474426,-10.4702,0,0,0,0,0,0,0,-1,797,519,-0.474433,10.4702
-420,505,-0.922546,-10.1928,0,0,0,0,0,0,0,-1,804,519,-0.92257,10.1928
-413,505,-3.33948,-13.6183,0,0,0,0,0,0,0,-1,811,519,-3.33949,13.6184
-406,505,-3.2439,-18.3408,0,0,0,0,0,0,0,-1,818,519,-3.24389,18.3408
-399,505,-3.48834,-24.4147,0,0,0,0,0,0,0,-1,825,519,-3.48836,24.4147
-392,505,-3.53009,-25.4058,0.00505749,0.0184113,-0.0120076,0.0254735,-0.00200478,-1.03914,0.0176885,0.0284695,832,519,-3.53008,25.4058
-385,505,-3.64441,-26.3587,0.00491048,0.0160008,-0.0107535,0.0225547,-0.00164337,-1.02345,0.0156131,0.0117213,839,519,-3.64442,26.3587
-378,505,-3.73035,-27.2621,0.00464965,0.0136944,-0.00947186,0.0196681,-0.00132408,-1.00812,0.013575,0.012419,846,519,-3.73033,27.2622
-371,505,-3.76794,-28.1788,0.00425086,0.0113588,-0.00813873,0.0166857,-0.00107604,-0.991256,0.0114993,0.0142563,853,519,-3.76795,28.1788
-364,505,-3.81201,-29.0844,0.00372672,0.00899471,-0.00664288,0.0135067,-0.000785318,-0.974147,0.00927735,0.0145714,860,519,-3.812,29.0843
-357,505,-3.82782,-29.9768,0.0031512,0.00682636,-0.005146,0.010453,-0.000475474,-0.956886,0.00713246,0.0125274,867,519,-3.82784,29.9768
-350,505,-3.89557,-30.8087,0.00257682,0.00472915,-0.00369959,0.00750592,-0.000199952,-0.926936,0.00507191,0.0122802,874,519,-3.89556,30.8087
-343,505,-3.96185,-31.6559,0.00205627,0.00262705,-0.00232301,0.00468214,1.17952e-06,-0.846519,0.00312103,0.0116309,881,519,-3.96188,31.6559
-336,505,-4.00671,-32.5317,0.00152717,0.000684918,-0.000965718,0.00215959,5.24999e-05,-0.57979,0.00142255,0.014588,888,519,-4.00671,32.5317
-329,505,-4.01422,-33.3473,0.001086,-0.00102193,0.000253893,0.00111615,-0.00105208,0.118195,0.00125201,0.0190614,895,519,-4.01424,33.3473
-322,505,-4.05054,-34.2107,0.00077219,-0.00252378,0.0013408,0.00124873,-0.00300032,0.34149,0.00252171,0.0229516,902,519,-4.05055,34.2107
-315,505,-4.10675,-35.0641,0.000719568,-0.00366332,0.00219515,0.00162992,-0.00457367,0.393121,0.00371363,0.0179334,909,519,-4.10672,35.0641
-308,505,-4.16931,-35.8442,0.000950875,-0.00448639,0.00283482,0.00215999,-0.0056955,0.403158,0.00468598,0.0135622,916,519,-4.16931,35.8442
-301,505,-4.19666,-36.6721,0.00103198,-0.0047096,0.00350007,0.00268799,-0.00636562,0.441927,0.00536893,0.0198342,923,519,-4.19665,36.6721
-294,505,-4.20502,-37.4397,0,0,0,0,0,0,0,-1,930,519,-4.205,37.4397
-287,505,-4.32745,-38.3264,0,0,0,0,0,0,0,-1,937,519,-4.32746,38.3263
-280,505,-2.79846,-27.7252,0,0,0,0,0,0,0,-1,944,519,-2.79845,27.7252
-273,505,-0.0680542,-9.44867,0,0,0,0,0,0,0,-1,951,519,-0.0680462,9.44866
-266,505,-0.036377,-9.07922,0,0,0,0,0,0,0,-1,958,519,-0.0364055,9.0792
-259,505,0.10321,-6.69824,0,0,0,0,0,0,0,-1,965,519,0.103235,6.69826
-252,505,6.82312,-15.6972,0,0,0,0,0,0,0,-1,972,519,6.82314,15.6972
-245,505,4.26727,-12.9861,0,0,0,0,0,0,0,-1,979,519,4.2673,12.9861
-238,505,1.67432,-11.2307,0,0,0,0,0,0,0,-1,986,519,1.67429,11.2307
-231,505,-0.958435,-8.3075,0,0,0,0,0,0,0,-1,993,519,-0.958421,8.30751
-224,505,-1.46399,-33.4399,0,0,0,0,0,0,0,-1,1000,519,-1.46397,33.4399
-217,505,-6.34302,-1.65533,0,0,0,0,0,0,0,-1,1007,519,-6.34299,1.65535
-210,505,-3.06128,-0.396301,0,0,0,0,0,0,0,-1,1014,519,-3.06129,0.396294
-203,505,-4.26465,2.03607,0,0,0,0,0,0,0,-1,1021,519,-4.26462,-2.03606
-196,505,-5.47595,4.27295,0,0,0,0,0,0,0,-1,1028,519,-5.47597,-4.27292
-189,505,1.51526,5.56207,0,0,0,0,0,0,0,-1,1035,519,1.51523,-5.56209
-182,505,2.97815,7.5097,0,0,0,0,0,0,0,-1,1042,519,2.97812,-7.5097
-175,505,-2.38416,-2.17548,0,0,0,0,0,0,0,-1,1049,519,-2.38411,2.1755
-168,505,0,0,0,0,0,0,0,0,0,-1,1056,519,0,0
-161,505,0,0,0,0,0,0,0,0,0,-1,1063,519,0,0
-154,505,0,0,0,0,0,0,0,0,0,-1,1070,519,0,0
-147,505,0,0,0,0,0,0,0,0,0,-1,1077,519,0,0
-140,505,0,0,0,0,0,0,0,0,0,-1,1084,519,0,0
-133,505,0,0,0,0,0,0,0,0,0,-1,1091,519,0,0
-126,505,0,0,0,0,0,0,0,0,0,-1,1098,519,0,0
-119,505,0,0,0,0,0,0,0,0,0,-1,1105,519,0,0
-112,505,0,0,0,0,0,0,0,0,0,-1,1112,519,0,0
-105,505,0,0,0,0,0,0,0,0,0,-1,1119,519,0,0
-98,505,0,0,0,0,0,0,0,0,0,-1,1126,519,0,0
-91,505,0,0,0,0,0,0,0,0,0,-1,1133,519,0,0
-84,505,0,0,0,0,0,0,0,0,0,-1,1140,519,0,0
-77,505,0,0,0,0,0,0,0,0,0,-1,1147,519,0,0
-70,505,0,0,0,0,0,0,0,0,0,-1,1154,519,0,0
-63,505,0,0,0,0,0,0,0,0,0,-1,1161,519,0,0
-56,505,0,0,0,0,0,0,0,0,0,-1,1168,519,0,0
-49,505,0,0,0,0,0,0,0,0,0,-1,1175,519,0,0
-42,505,0,0,0,0,0,0,0,0,0,-1,1182,519,0,0
-35,505,0,0,0,0,0,0,0,0,0,-1,1189,519,0,0
-28,505,0,0,0,0,0,0,0,0,0,-1,1196,519,0,0
-21,505,0,0,0,0,0,0,0,0,0,-1,1203,519,0,0
-14,505,0,0,0,0,0,0,0,0,0,-1,1210,519,0,0
-7,505,0,0,0,0,0,0,0,0,0,-1,1217,519,0,0
0,505,0,0,0,0,0,0,0,0,0,-1,1224,519,0,0
7,505,0,0,0,0,0,0,0,0,0,-1,1231,519,0,0
14,505,0,0,0,0,0,0,0,0,0,-1,1238,519,0,0
21,505,0,0,0,0,0,0,0,0,0,-1,1245,519,0,0
28,505,0,0,0,0,0,0,0,0,0,-1,1252,519,0,0
35,505,0,0,0,0,0,0,0,0,0,-1,1259,519,0,0
42,505,0,0,0,0,0,0,0,0,0,-1,1266,519,0,0
49,505,0,0,0,0,0,0,0,0,0,-1,1273,519,0,0
56,505,0,0,0,0,0,0,0,0,0,-1,1280,519,0,0
63,505,0,0,0,0,0,0,0,0,0,-1,1287,519,0,0
70,505,0,0,0,0,0,0,0,0,0,-1,1294,519,0,0
77,505,0,0,0,0,0,0,0,0,0,-1,1301,519,0,0
84,505,0,0,0,0,0,0,0,0,0,-1,1308,519,0,0
91,505,0,0,0,0,0,0,0,0,0,-1,1315,519,0,0
98,505,0,0,0,0,0,0,0,0,0,-1,1322,519,0,0
105,505,0,0,0,0,0,0,0,0,0,-1,1329,519,0,0
112,505,0,0,0,0,0,0,0,0,0,-1,1336,519,0,0
119,505,0,0,0,0,0,0,0,0,0,-1,1343,519,0,0
126,505,0,0,0,0,0,0,0,0,0,-1,1350,519,0,0
133,505,0,0,0,0,0,0,0,0,0,-1,1357,519,0,0
140,505,0,0,0,0,0,0,0,0,0,-1,1364,519,0,0
147,505,0,0,0,0,0,0,0,0,0,-1,1371,519,0,0
154,505,0,0,0,0,0,0,0,0,0,-1,1378,519,0,0
161,505,0,0,0,0,0,0,0,0,0,-1,1385,519,0,0
168,505,0,0,0,0,0,0,0,0,0,-1,1392,519,0,0
175,505,0,0,0,0,0,0,0,0,0,-1,1399,519,0,0
182,505,0,0,0,0,0,0,0,0,0,-1,1406,519,0,0
189,505,0,0,0,0,0,0,0,0,0,-1,1413,519,0,0
196,505,0,0,0,0,0,0,0,0,0,-1,1420,519,0,0
203,505,0,0,0,0,0,0,0,0,0,-1,1427,519,0,0
210,505,0,0,0,0,0,0,0,0,0,-1,1434,519,0,0
217,505,0,0,0,0,0,0,0,0,0,-1,1441,519,0,0
224,505,0,0,0,0,0,0,0,0,0,-1,1448,519,0,0
231,505,0,0,0,0,0,0,0,0,0,-1,1455,519,0,0
238,505,0,0,0,0,0,0,0,0,0,-1,1462,519,0,0
245,505,0,0,0,0,0,0,0,0,0,-1,1469,519,0,0
252,505,0,0,0,0,0,0,0,0,0,-1,1476,519,0,0
259,505,0,0,0,0,0,0,0,0,0,-1,1483,519,0,0
266,505,0,0,0,0,0,0,0,0,0,-1,1490,519,0,0
273,505,0,0,0,0,0,0,0,0,0,-1,1497,519,0,0
280,505,0,0,0,0,0,0,0,0,0,-1,1504,519,0,0
287,505,4.39478,0.499512,0,0,0,0,0,0,0,-1,1511,519,4.39476,-0.499506
294,505,4.88867,0.0822754,0,0,0,0,0,0,0,-1,1518,519,4.88871,-0.0822748
301,505,4.82153,-0.0704346,0,0,0,0,0,0,0,-1,1525,519,4.82156,0.0704312
308,505,4.67761,-0.29187,0,0,0,0,0,0,0,-1,1532,519,4.67762,0.291845
315,505,8.44055,-6.54352,0,0,0,0,0,0,0,-1,1539,519,8.44059,6.54349
322,505,4.78955,-0.594116,0,0,0,0,0,0,0,-1,1546,519,4.78957,0.594096
329,505,5.16321,0.434631,0,0,0,0,0,0,0,-1,1553,519,5.16316,-0.434614
336,505,4.94495,-0.920471,0,0,0,0,0,0,0,-1,1560,519,4.945,0.920495
343,505,5.01855,-1.4823,0,0,0,0,0,0,0,-1,1567,519,5.01851,1.48227
350,505,5.33154,-1.77838,0,0,0,0,0,0,0,-1,1574,519,5.33152,1.77838
357,505,5.56567,-1.9425,0,0,0,0,0,0,0,-1,1581,519,5.56562,1.94248
364,505,5.85205,-2.6579,0,0,0,0,0,0,0,-1,1588,519,5.85211,2.65788
371,505,5.88477,-7.00922,0,0,0,0,0,0,0,-1,1595,519,5.88473,7.00924
378,505,5.44104,-7.10162,0,0,0,0,0,0,0,-1,1602,519,5.44099,7.10162
385,505,6.64661,-8.65015,0,0,0,0,0,0,0,-1,1609,519,6.64662,8.65014
392,505,6.34558,-8.3429,0,0,0,0,0,0,0,-1,1616,519,6.34554,8.34288
399,505,7.45898,-9.70386,0,0,0,0,0,0,0,-1,1623,519,7.45899,9.70388
406,505,7.08679,-9.4928,0,0,0,0,0,0,0,-1,1630,519,7.08678,9.49278
413,505,8.4032,-14.0308,0,0,0,0,0,0,0,-1,1637,519,8.4032,14.0308
420,505,19.9602,-37.3307,0,0,0,0,0,0,0,-1,1644,519,19.9603,37.3308
427,505,19.9631,-36.3745,0.00372661,0.000603434,-0.000500295,0.0038048,0.00052525,-0.155022,0.00238084,0.0333093,1651,519,19.9632,36.3744
434,505,19.8947,-35.4333,0.00296468,0.000412951,-0.000544294,0.00307593,0.000301701,-0.201616,0.00195781,0.0136105,1658,519,19.8947,35.4333
441,505,19.8578,-34.526,0.00238547,0.000362907,-0.000467509,0.0024883,0.000260073,-0.216515,0.00157933,0.0113857,1665,519,19.8578,34.526
448,505,19.7986,-33.6943,0.00195025,0.000408372,-0.000280021,0.00199953,0.000359092,-0.174202,0.00123091,0.0118451,1672,519,19.7985,33.6943
455,505,19.7677,-32.8492,0.00160877,0.000541341,-7.30451e-05,0.00161375,0.000536366,-0.0680081,0.000948991,0.0122943,1679,519,19.7677,32.8492
462,505,19.7262,-31.9929,0.00142179,0.000763445,0.000204563,0.00148018,0.00070506,0.27802,0.000854898,0.01173,1686,519,19.7262,31.9928
469,505,19.6779,-31.129,0.00142218,0.00111016,0.000579648,0.00186645,0.000665895,0.653939,0.00109223,0.0122864,1693,519,19.6779,31.129
476,505,19.6229,-30.2845,0.00142168,0.00147336,0.000971792,0.00241965,0.000475384,0.79869,0.00148031,0.0126413,1700,519,19.6229,30.2845
483,505,19.6079,-29.4281,0.00161093,0.00187364,0.00140801,0.00315641,0.000328166,0.831909,0.00200386,0.0136085,1707,519,19.6079,29.4281
490,505,19.5713,-28.5484,0.00185296,0.00235117,0.00182775,0.00394671,0.000257419,0.853126,0.00254967,0.0127212,1714,519,19.5713,28.5484
497,505,19.4851,-27.6755,0.00217208,0.00275207,0.00218069,0.00466196,0.000262187,0.851502,0.00302437,0.0122812,1721,519,19.4851,27.6755
504,505,19.4108,-26.747,0.00260227,0.00313739,0.00249707,0.00538119,0.00035847,0.83877,0.00347414,0.0138305,1728,519,19.4108,26.747
511,505,19.3713,-25.8392,0.00302818,0.00358686,0.00277733,0.00609886,0.000516178,0.835519,0.00390524,0.0163594,1735,519,19.3714,25.8392
518,505,19.4994,-25.0081,0.00340465,0.00411936,0.00290273,0.00668665,0.000837357,0.846646,0.00420652,0.0424147,1742,519,19.4994,25.0081
525,505,19.2281,-24.0731,0,0,0,0,0,0,0,-1,1749,519,19.2281,24.0731
532,505,19.1443,-23.0954,0,0,0,0,0,0,0,-1,1756,519,19.1443,23.0954
539,505,13.9879,-13.9018,0,0,0,0,0,0,0,-1,1763,519,13.988,13.9018
546,505,7.94946,-6.64539,0,0,0,0,0,0,0,-1,1770,519,7.94947,6.64539
553,505,2.82837,0.162659,0,0,0,0,0,0,0,-1,1777,519,2.82841,-0.162672
560,505,3.66223,-0.479797,0,0,0,0,0,0,0,-1,1784,519,3.66219,0.47982
567,505,4.65271,-0.950256,0,0,0,0,0,0,0,-1,1791,519,4.65274,0.95028
574,505,5.54443,-1.19977,0,0,0,0,0,0,0,-1,1798,519,5.54443,1.19974
581,505,0,0,0,0,0,0,0,0,0,-1,1805,519,0,0
588,505,0,0,0,0,0,0,0,0,0,-1,1812,519,0,0
595,505,0,0,0,0,0,0,0,0,0,-1,1819,519,0,0
602,505,0,0,0,0,0,0,0,0,0,-1,1826,519,0,0
609,505,0,0,0,0,0,0,0,0,0,-1,1833,519,0,0
616,505,0,0,0,0,0,0,0,0,0,-1,1840,519,0,0
623,505,0,0,0,0,0,0,0,0,0,-1,1847,519,0,0
630,505,0,0,0,0,0,0,0,0,0,-1,1854,519,0,0
637,505,0,0,0,0,0,0,0,0,0,-1,1861,519,0,0
644,505,0,0,0,0,0,0,0,0,0,-1,1868,519,0,0
651,505,0,0,0,0,0,0,0,0,0,-1,1875,519,0,0
658,505,0,0,0,0,0,0,0,0,0,-1,1882,519,0,0
665,505,0,0,0,0,0,0,0,0,0,-1,1889,519,0,0
672,505,0,0,0,0,0,0,0,0,0,-1,1896,519,0,0
679,505,0,0,0,0,0,0,0,0,0,-1,1903,519,0,0
686,505,0,0,0,0,0,0,0,0,0,-1,1910,519,0,0
693,505,0,0,0,0,0,0,0,0,0,-1,1917,519,0,0
700,505,0,0,0,0,0,0,0,0,0,-1,1924,519,0,0
707,505,0,0,0,0,0,0,0,0,0,-1,1931,519,0,0
714,505,0,0,0,0,0,0,0,0,0,-1,1938,519,0,0
721,505,0,0,0,0,0,0,0,0,0,-1,1945,519,0,0
728,505,0,0,0,0,0,0,0,0,0,-1,1952,519,0,0
735,505,0,0,0,0,0,0,0,0,0,-1,1959,519,0,0
742,505,0,0,0,0,0,0,0,0,0,-1,1966,519,0,0
749,505,0,0,0,0,0,0,0,0,0,-1,1973,519,0,0
756,505,0,0,0,0,0,0,0,0,0,-1,1980,519,0,0
763,505,0,0,0,0,0,0,0,0,0,-1,1987,519,0,0
770,505,0,0,0,0,0,0,0,0,0,-1,1994,519,0,0
777,505,0,0,0,0,0,0,0,0,0,-1,2001,519,0,0
784,505,0,0,0,0,0,0,0,0,0,-1,2008,519,0,0
791,505,0,0,0,0,0,0,0,0,0,-1,2015,519,0,0
798,505,0,0,0,0,0,0,0,0,0,-1,2022,519,0,0
805,505,0,0,0,0,0,0,0,0,0,-1,2029,519,0,0
812,505,0,0,0,0,0,0,0,0,0,-1,2036,519,0,0
-700,498,0,0,0,0,0,0,0,0,0,-1,524,526,0,0
-693,498,0,0,0,0,0,0,0,0,0,-1,531,526,0,0
-686,498,0,0,0,0,0,0,0,0,0,-1,538,526,0,0
-679,498,0,0,0,0,0,0,0,0,0,-1,545,526,0,0
-672,498,0,0,0,0,0,0,0,0,0,-1,552,526,0,0
-665,498,0,0,0,0,0,0,0,0,0,-1,559,526,0,0
-658,498,0,0,0,0,0,0,0,0,0,-1,566,526,0,0
-651,498,0,0,0,0,0,0,0,0,0,-1,573,526,0,0
-644,498,0,0,0,0,0,0,0,0,0,-1,580,526,0,0
-637,498,0,0,0,0,0,0,0,0,0,-1,587,526,0,0
-630,498,0,0,0,0,0,0,0,0,0,-1,594,526,0,0
-623,498,0,0,0,0,0,0,0,0,0,-1,601,526,0,0
-616,498,0,0,0,0,0,0,0,0,0,-1,608,526,0,0
-609,498,0,0,0,0,0,0,0,0,0,-1,615,526,0,0
-602,498,0,0,0,0,0,0,0,0,0,-1,622,526,0,0
-595,498,0,0,0,0,0,0,0,0,0,-1,629,526,0,0
-588,498,0,0,0,0,0,0,0,0,0,-1,636,526,0,0
-581,498,0,0,0,0,0,0,0,0,0,-1,643,526,0,0
-574,498,0,0,0,0,0,0,0,0,0,-1,650,526,0,0
-567,498,0,0,0,0,0,0,0,0,0,-1,657,526,0,0
-560,498,0,0,0,0,0,0,0,0,0,-1,664,526,0,0
-553,498,0,0,0,0,0,0,0,0,0,-1,671,526,0,0
-546,498,0,0,0,0,0,0,0,0,0,-1,678,526,0,0
-539,498,0,0,0,0,0,0,0,0,0,-1,685,526,0,0
-532,498,0,0,0,0,0,0,0,0,0,-1,692,526,0,0
-525,498,0,0,0,0,0,0,0,0,0,-1,699,526,0,0
-518,498,0,0,0,0,0,0,0,0,0,-1,706,526,0,0
-511,498,0,0,0,0,0,0,0,0,0,-1,713,526,0,0
-504,498,0,0,0,0,0,0,0,0,0,-1,720,526,0,0
-497,498,0,0,0,0,0,0,0,0,0,-1,727,526,0,0
-490,498,0,0,0,0,0,0,0,0,0,-1,734,526,0,0
-483,498,0,0,0,0,0,0,0,0,0,-1,741,526,0,0
-476,498,0,0,0,0,0,0,0,0,0,-1,748,526,0,0
-469,498,0,0,0,0,0,0,0,0,0,-1,755,526,0,0
-462,498,6.81024,1.15515,0,0,0,0,0,0,0,-1,762,526,6.81026,-1.15514
-455,498,3.25757,-3.0592,0,0,0,0,0,0,0,-1,769,526,3.25754,3.05921
-448,498,3.05939,-3.74298,0,0,0,0,0,0,0,-1,776,526,3.05939,3.74296
-441,498,2.77191,-6.08209,0,0,0,0,0,0,0,-1,783,526,2.77189,6.08207
-434,498,2.10681,-6.95929,0,0,0,0,0,0,0,-1,790,526,2.10682,6.9593
-427,498,-0.368042,-10.7726,0,0,0,0,0,0,0,-1,797,526,-0.36807,10.7726
-420,498,-1.05035,-10.5142,0,0,0,0,0,0,0,-1,804,526,-1.05034,10.5142
-413,498,-4.52112,-18.8354,0,0,0,0,0,0,0,-1,811,526,-4.52111,18.8354
-406,498,-4.16278,-23.3337,0,0,0,0,0,0,0,-1,818,526,-4.16276,23.3337
-399,498,-4.25848,-24.3971,0.00305916,0.015655,-0.00958222,0.0208236,-0.00210952,-1.07613,0.0146364,0.0340198,825,526,-4.25851,24.3971
-392,498,-4.42169,-25.4208,0.0032242,0.0136132,-0.0088263,0.0186601,-0.00182271,-1.05137,0.01309,0.0177403,832,526,-4.42167,25.4208
-385,498,-4.49286,-26.3391,0.00332167,0.0116316,-0.00788557,0.0163899,-0.00143659,-1.02787,0.0114356,0.0103559,839,526,-4.49287,26.339
-378,498,-4.5553,-27.2512,0.00330325,0.00970163,-0.00686567,0.0140769,-0.00107201,-1.00343,0.00976157,0.0109921,846,526,-4.55532,27.2512
-371,498,-4.60699,-28.1376,0.00314507,0.00771383,-0.00579612,0.0116595,-0.000800591,-0.973112,0.00805313,0.0162065,853,526,-4.60701,28.1376
-364,498,-4.67322,-29.0203,0.0028651,0.00565079,-0.00457252,0.0090379,-0.000522004,-0.933239,0.00620659,0.0160914,860,526,-4.67321,29.0203
-357,498,-4.68591,-29.9027,0.00252112,0.00378245,-0.00332522,0.00653628,-0.000232712,-0.879115,0.00443712,0.0119578,867,526,-4.68589,29.9027
-350,498,-4.73651,-30.7439,0.00215553,0.00196365,-0.00210519,0.00416697,-4.77866e-05,-0.762628,0.00279404,0.0124682,874,526,-4.7365,30.7439
-343,498,-4.79584,-31.6541,0.00177783,0.000136301,-0.000920766,0.00219054,-0.000276411,-0.421379,0.00156068,0.0154103,881,526,-4.79582,31.6541
-336,498,-4.83868,-32.5309,0.00132817,-0.0016008,0.000294195,0.00135743,-0.00163005,0.099124,0.00172722,0.0207929,888,526,-4.83871,32.5309
-329,498,-4.87207,-33.2804,0.000943093,-0.00314001,0.00140752,0.00138127,-0.00357818,0.301801,0.0029555,0.026778,895,526,-4.87207,33.2804
-322,498,-4.90869,-34.1382,0.000732028,-0.00436612,0.00232554,0.00163345,-0.00526754,0.369786,0.00416436,0.0272924,902,526,-4.90871,34.1382
-315,498,-4.95782,-34.9871,0.00075997,-0.00527584,0.0030342,0.00202156,-0.00653744,0.394045,0.00516572,0.0209491,909,526,-4.95783,34.9871
-308,498,-4.99994,-35.7825,0.00107519,-0.00589091,0.00358204,0.0025884,-0.00740412,0.399704,0.00598835,0.0224039,916,526,-4.99996,35.7825
-301,498,-5.01465,-36.6552,0,0,0,0,0,0,0,-1,923,526,-5.01462,36.6551
-294,498,-4.84161,-37.1085,0,0,0,0,0,0,0,-1,930,526,-4.8416,37.1085
-287,498,-0.91394,-13.4327,0,0,0,0,0,0,0,-1,937,526,-0.913935,13.4327
-280,498,-0.341614,-8.66608,0,0,0,0,0,0,0,-1,944,526,-0.341589,8.66606
-273,498,-0.988892,-8.62921,0,0,0,0,0,0,0,-1,951,526,-0.988906,8.62922
-266,498,0.362488,-6.33545,0,0,0,0,0,0,0,-1,958,526,0.362478,6.33547
-259,498,10.9454,-17.3615,0,0,0,0,0,0,0,-1,965,526,10.9454,17.3614
-252,498,8.56586,-14.6886,0,0,0,0,0,0,0,-1,972,526,8.56584,14.6886
-245,498,5.97382,-11.928,0,0,0,0,0,0,0,-1,979,526,5.97381,11.928
-238,498,2.24841,-13.8145,0,0,0,0,0,0,0,-1,986,526,2.24838,13.8145
-231,498,0.665894,-10.4898,0,0,0,0,0,0,0,-1,993,526,0.665863,10.4898
-224,498,-2.11243,-4.76312,0,0,0,0,0,0,0,-1,1000,526,-2.11245,4.76314
-217,498,-3.82239,-1.42841,0,0,0,0,0,0,0,-1,1007,526,-3.82241,1.42843
-210,498,-1.80591,-0.358215,0,0,0,0,0,0,0,-1,1014,526,-1.8059,0.3582
-203,498,-3.17316,1.06641,0,0,0,0,0,0,0,-1,1021,526,-3.17313,-1.0664
-196,498,-0.103271,5.40527,0,0,0,0,0,0,0,-1,1028,526,-0.103285,-5.40528
-189,498,3.00256,6.47137,0,0,0,0,0,0,0,-1,1035,526,3.00256,-6.47139
-182,498,0,0,0,0,0,0,0,0,0,-1,1042,526,0,0
-175,498,0,0,0,0,0,0,0,0,0,-1,1049,526,0,0
-168,498,0,0,0,0,0,0,0,0,0,-1,1056,526,0,0
-161,498,0,0,0,0,0,0,0,0,0,-1,1063,526,0,0
-154,498,0,0,0,0,0,0,0,0,0,-1,1070,526,0,0
-147,498,0,0,0,0,0,0,0,0,0,-1,1077,526,0,0
-140,498,0,0,0,0,0,0,0,0,0,-1,1084,526,0,0
-133,498,0,0,0,0,0,0,0,0,0,-1,1091,526,0,0
-126,498,0,0,0,0,0,0,0,0,0,-1,1098,526,0,0
-119,498,0,0,0,0,0,0,0,0,0,-1,1105,526,0,0
-112,498,0,0,0,0,0,0,0,0,0,-1,1112,526,0,0
-105,498,0,0,0,0,0,0,0,0,0,-1,1119,526,0,0
-98,498,0,0,0,0,0,0,0,0,0,-1,1126,526,0,0
-91,498,0,0,0,0,0,0,0,0,0,-1,1133,526,0,0
-84,498,0,0,0,0,0,0,0,0,0,-1,1140,526,0,0
-77,498,0,0,0,0,0,0,0,0,0,-1,1147,526,0,0
-70,498,0,0,0,0,0,0,0,0,0,-1,1154,526,0,0
-63,498,0,0,0,0,0,0,0,0,0,-1,1161,526,0,0
-56,498,0,0,0,0,0,0,0,0,0,-1,1168,526,0,0
-49,498,0,0,0,0,0,0,0,0,0,-1,1175,526,0,0
-42,498,0,0,0,0,0,0,0,0,0,-1,1182,526,0,0
-35,498,0,0,0,0,0,0,0,0,0,-1,1189,526,0,0
-28,498,0,0,0,0,0,0,0,0,0,-1,1196,526,0,0
-21,498,0,0,0,0,0,0,0,0,0,-1,1203,526,0,0
-14,498,0,0,0,0,0,0,0,0,0,-1,1210,526,0,0
-7,498,0,0,0,0,0,0,0,0,0,-1,1217,526,0,0
0,498,0,0,0,0,0,0,0,0,0,-1,1224,526,0,0
7,498,0,0,0,0,0,0,0,0,0,-1,1231,526,0,0
14,498,0,0,0,0,0,0,0,0,0,-1,1238,526,0,0
21,498,0,0,0,0,0,0,0,0,0,-1,1245,526,0,0
28,498,0,0,0,0,0,0,0,0,0,-1,1252,526,0,0
35,498,0,0,0,0,0,0,0,0,0,-1,1259,526,0,0
42,498,0,0,0,0,0,0,0,0,0,-1,1266,526,0,0
49,498,0,0,0,0,0,0,0,0,0,-1,1273,526,0,0
56,498,0,0,0,0,0,0,0,0,0,-1,1280,526,0,0
63,498,0,0,0,0,0,0,0,0,0,-1,1287,526,0,0
70,498,0,0,0,0,0,0,0,0,0,-1,1294,526,0,0
77,498,0,0,0,0,0,0,0,0,0,-1,1301,526,0,0
84,498,0,0,0,0,0,0,0,0,0,-1,1308,526,0,0
91,498,0,0,0,0,0,0,0,0,0,-1,1315,526,0,0
98,498,0,0,0,0,0,0,0,0,0,-1,1322,526,0,0
105,498,0,0,0,0,0,0,0,0,0,-1,1329,526,0,0
112,498,0,0,0,0,0,0,0,0,0,-1,1336,526,0,0
119,498,0,0,0,0,0,0,0,0,0,-1,1343,526,0,0
126,498,0,0,0,0,0,0,0,0,0,-1,1350,526,0,0
133,498,0,0,0,0,0,0,0,0,0,-1,1357,526,0,0
140,498,0,0,0,0,0,0,0,0,0,-1,1364,526,0,0
147,498,0,0,0,0,0,0,0,0,0,-1,1371,526,0,0
154,498,0,0,0,0,0,0,0,0,0,-1,1378,526,0,0
161,498,0,0,0,0,0,0,0,0,0,-1,1385,526,0,0
168,498,0,0,0,0,0,0,0,0,0,-1,1392,526,0,0
175,498,0,0,0,0,0,0,0,0,0,-1,1399,526,0,0
182,498,0,0,0,0,0,0,0,0,0,-1,1406,526,0,0
189,498,0,0,0,0,0,0,0,0,0,-1,1413,526,0,0
196,498,0,0,0,0,0,0,0,0,0,-1,1420,526,0,0
203,498,0,0,0,0,0,0,0,0,0,-1,1427,526,0,0
210,498,0,0,0,0,0,0,0,0,0,-1,1434,526,0,0
217,498,0,0,0,0,0,0,0,0,0,-1,1441,526,0,0
224,498,0,0,0,0,0,0,0,0,0,-1,1448,526,0,0
231,498,0,0,0,0,0,0,0,0,0,-1,1455,526,0,0
238,498,0,0,0,0,0,0,0,0,0,-1,1462,526,0,0
245,498,0,0,0,0,0,0,0,0,0,-1,1469,526,0,0
252,498,0,0,0,0,0,0,0,0,0,-1,1476,526,0,0
259,498,0,0,0,0,0,0,0,0,0,-1,1483,526,0,0
266,498,0,0,0,0,0,0,0,0,0,-1,1490,526,0,0
273,498,0,0,0,0,0,0,0,0,0,-1,1497,526,0,0
280,498,0,0,0,0,0,0,0,0,0,-1,1504,526,0,0
287,498,0,0,0,0,0,0,0,0,0,-1,1511,526,0,0
294,498,0,0,0,0,0,0,0,0,0,-1,1518,526,0,0
301,498,0,0,0,0,0,0,0,0,0,-1,1525,526,0,0
308,498,4.77942,-0.293884,0,0,0,0,0,0,0,-1,1532,526,4.77939,0.293899
315,498,4.56091,-0.564148,0,0,0,0,0,0,0,-1,1539,526,4.56097,0.564142
322,498,4.52344,-0.447266,0,0,0,0,0,0,0,-1,1546,526,4.52341,0.447295
329,498,4.63232,-0.156982,0,0,0,0,0,0,0,-1,1553,526,4.63238,0.156991
336,498,5.22644,0.0925903,0,0,0,0,0,0,0,-1,1560,526,5.22648,-0.0926188
343,498,6.22607,-1.67615,0,0,0,0,0,0,0,-1,1567,526,6.22605,1.67617
350,498,6.19373,-1.59906,0,0,0,0,0,0,0,-1,1574,526,6.19367,1.59906
357,498,6.21472,-1.58929,0,0,0,0,0,0,0,-1,1581,526,6.21476,1.58927
364,498,5.73547,-1.2019,0,0,0,0,0,0,0,-1,1588,526,5.73547,1.20192
371,498,3.27087,-4.55334,0,0,0,0,0,0,0,-1,1595,526,3.27089,4.55332
378,498,8.42944,-4.70624,0,0,0,0,0,0,0,-1,1602,526,8.42942,4.70624
385,498,4.7793,-5.15314,0,0,0,0,0,0,0,-1,1609,526,4.77935,5.15311
392,498,9.12439,-8.57953,0,0,0,0,0,0,0,-1,1616,526,9.12443,8.57955
399,498,7.98938,-9.46021,0,0,0,0,0,0,0,-1,1623,526,7.98936,9.4602
406,498,7.58081,-9.26819,0,0,0,0,0,0,0,-1,1630,526,7.58085,9.26817
413,498,7.17236,-9.07611,0,0,0,0,0,0,0,-1,1637,526,7.17234,9.07614
420,498,11.4314,-16.1147,0,0,0,0,0,0,0,-1,1644,526,11.4313,16.1147
427,498,20.6615,-36.4087,0,0,0,0,0,0,0,-1,1651,526,20.6615,36.4087
434,498,20.6217,-35.4008,0.00314266,-0.000156179,-0.00111702,0.00348531,-0.000498826,-0.297637,0.00250641,0.0407664,1658,526,20.6217,35.4008
441,498,20.7117,-34.5004,0.00246247,-0.000231972,-0.00110717,0.00285905,-0.000628551,-0.343953,0.00214645,0.0138233,1665,526,20.7116,34.5004
448,498,20.6736,-33.6295,0.00202502,-0.00011524,-0.000924359,0.00236896,-0.000459189,-0.356221,0.00175254,0.011031,1672,526,20.6736,33.6295
455,498,20.616,-32.782,0.00170621,6.39445e-05,-0.000726086,0.00198119,-0.000211034,-0.362023,0.00139646,0.0152521,1679,526,20.6159,32.7821
462,498,20.5951,-31.9492,0.00149596,0.000308896,-0.000440629,0.00164164,0.000163216,-0.319305,0.00104428,0.0173514,1686,526,20.5951,31.9492
469,498,20.5569,-31.1077,0.00142326,0.000656711,-4.40836e-05,0.00142579,0.000654184,-0.0572576,0.000824108,0.0152422,1693,526,20.5569,31.1077
476,498,20.5017,-30.2557,0.0014146,0.0010153,0.000379692,0.00164394,0.000785972,0.543354,0.00094943,0.0113147,1700,526,20.5017,30.2557
483,498,20.4446,-29.394,0.00155471,0.00138513,0.000821451,0.00229573,0.000644104,0.733971,0.00136733,0.00962813,1707,526,20.4445,29.3941
490,498,20.3813,-28.512,0.00169029,0.00184792,0.00122409,0.00299572,0.00054248,0.817548,0.00184313,0.0117747,1714,526,20.3813,28.512
497,498,20.3247,-27.6082,0.00189448,0.00230139,0.00163,0.00374058,0.00045529,0.847487,0.00235666,0.0130781,1721,526,20.3247,27.6082
504,498,20.2758,-26.6938,0.00218768,0.00262113,0.00197875,0.00439499,0.000413819,0.839944,0.00280226,0.0153942,1728,526,20.2758,26.6939
511,498,20.2343,-25.8044,0.00241242,0.00302002,0.00227555,0.00501197,0.000420483,0.851759,0.00321034,0.0168199,1735,526,20.2343,25.8044
518,498,20.2842,-24.9056,0.00250424,0.00348142,0.00241973,0.00546139,0.000524265,0.885018,0.00347936,0.0242421,1742,526,20.2842,24.9056
525,498,20.0662,-24.0373,0.00251324,0.00397759,0.00253949,0.00588834,0.000602485,0.92575,0.00374094,0.0428921,1749,526,20.0662,24.0373
532,498,19.9756,-23.0732,0,0,0,0,0,0,0,-1,1756,526,19.9756,23.0732
539,498,19.2417,-22.2049,0,0,0,0,0,0,0,-1,1763,526,19.2417,22.2049
546,498,10.2014,-8.47589,0,0,0,0,0,0,0,-1,1770,526,10.2014,8.47589
553,498,5.93958,-1.71448,0,0,0,0,0,0,0,-1,1777,526,5.93956,1.71447
560,498,3.69385,-0.615112,0,0,0,0,0,0,0,-1,1784,526,3.69381,0.615118
567,498,5.12695,-0.581604,0,0,0,0,0,0,0,-1,1791,526,5.12699,0.58159
574,498,3.88,0.0286255,0,0,0,0,0,0,0,-1,1798,526,3.87999,-0.0286535
581,498,10.8722,2.58551,0,0,0,0,0,0,0,-1,1805,526,10.8723,-2.58551
588,498,0,0,0,0,0,0,0,0,0,-1,1812,526,0,0
595,498,0,0,0,0,0,0,0,0,0,-1,1819,526,0,0
602,498,0,0,0,0,0,0,0,0,0,-1,1826,526,0,0
609,498,0,0,0,0,0,0,0,0,0,-1,1833,526,0,0
616,498,0,0,0,0,0,0,0,0,0,-1,1840,526,0,0
623,498,0,0,0,0,0,0,0,0,0,-1,1847,526,0,0
630,498,0,0,0,0,0,0,0,0,0,-1,1854,526,0,0
637,498,0,0,0,0,0,0,0,0,0,-1,1861,526,0,0
644,498,0,0,0,0,0,0,0,0,0,-1,1868,526,0,0
651,498,0,0,0,0,0,0,0,0,0,-1,1875,526,0,0
658,498,0,0,0,0,0,0,0,0,0,-1,1882,526,0,0
665,498,0,0,0,0,0,0,0,0,0,-1,1889,526,0,0
672,498,0,0,0,0,0,0,0,0,0,-1,1896,526,0,0
679,498,0,0,0,0,0,0,0,0,0,-1,1903,526,0,0
686,498,0,0,0,0,0,0,0,0,0,-1,1910,526,0,0
693,498,0,0,0,0,0,0,0,0,0,-1,1917,526,0,0
700,498,0,0,0,0,0,0,0,0,0,-1,1924,526,0,0
707,498,0,0,0,0,0,0,0,0,0,-1,1931,526,0,0
714,498,0,0,0,0,0,0,0,0,0,-1,1938,526,0,0
721,498,0,0,0,0,0,0,0,0,0,-1,1945,526,0,0
728,498,0,0,0,0,0,0,0,0,0,-1,1952,526,0,0
735,498,0,0,0,0,0,0,0,0,0,-1,1959,526,0,0
742,498,0,0,0,0,0,0,0,0,0,-1,1966,526,0,0
749,498,0,0,0,0,0,0,0,0,0,-1,1973,526,0,0
756,498,0,0,0,0,0,0,0,0,0,-1,1980,526,0,0
763,498,0,0,0,0,0,0,0,0,0,-1,1987,526,0,0
770,498,0,0,0,0,0,0,0,0,0,-1,1994,526,0,0
777,498,0,0,0,0,0,0,0,0,0,-1,2001,526,0,0
784,498,0,0,0,0,0,0,0,0,0,-1,2008,526,0,0
791,498,0,0,0,0,0,0,0,0,0,-1,2015,526,0,0
798,498,0,0,0,0,0,0,0,0,0,-1,2022,526,0,0
805,498,0,0,0,0,0,0,0,0,0,-1,2029,526,0,0
812,498,0,0,0,0,0,0,0,0,0,-1,2036,526,0,0
-700,491,0,0,0,0,0,0,0,0,0,-1,524,533,0,0
-693,491,0,0,0,0,0,0,0,0,0,-1,531,533,0,0
-686,491,0,0,0,0,0,0,0,0,0,-1,538,533,0,0
-679,491,0,0,0,0,0,0,0,0,0,-1,545,533,0,0
-672,491,0,0,0,0,0,0,0,0,0,-1,552,533,0,0
-665,491,0,0,0,0,0,0,0,0,0,-1,559,533,0,0
-658,491,0,0,0,0,0,0,0,0,0,-1,566,533,0,0
-651,491,0,0,0,0,0,0,0,0,0,-1,573,533,0,0
-644,491,0,0,0,0,0,0,0,0,0,-1,580,533,0,0
-637,491,0,0,0,0,0,0,0,0,0,-1,587,533,0,0
-630,491,0,0,0,0,0,0,0,0,0,-1,594,533,0,0
-623,491,0,0,0,0,0,0,0,0,0,-1,601,533,0,0
-616,491,0,0,0,0,0,0,0,0,0,-1,608,533,0,0
-609,491,0,0,0,0,0,0,0,0,0,-1,615,533,0,0
-602,491,0,0,0,0,0,0,0,0,0,-1,622,533,0,0
-595,491,0,0,0,0,0,0,0,0,0,-1,629,533,0,0
-588,491,0,0,0,0,0,0,0,0,0,-1,636,533,0,0
-581,491,0,0,0,0,0,0,0,0,0,-1,643,533,0,0
-574,491,0,0,0,0,0,0,0,0,0,-1,650,533,0,0
-567,491,0,0,0,0,0,0,0,0,0,-1,657,533,0,0
-560,491,0,0,0,0,0,0,0,0,0,-1,664,533,0,0
-553,491,0,0,0,0,0,0,0,0,0,-1,671,533,0,0
-546,491,0,0,0,0,0,0,0,0,0,-1,678,533,0,0
-539,491,0,0,0,0,0,0,0,0,0,-1,685,533,0,0
-532,491,0,0,0,0,0,0,0,0,0,-1,692,533,0,0
-525,491,0,0,0,0,0,0,0,0,0,-1,699,533,0,0
-518,491,0,0,0,0,0,0,0,0,0,-1,706,533,0,0
-511,491,0,0,0,0,0,0,0,0,0,-1,713,533,0,0
-504,491,0,0,0,0,0,0,0,0,0,-1,720,533,0,0
-497,491,0,0,0,0,0,0,0,0,0,-1,727,533,0,0
-490,491,0,0,0,0,0,0,0,0,0,-1,734,533,0,0
-483,491,0,0,0,0,0,0,0,0,0,-1,741,533,0,0
-476,491,0,0,0,0,0,0,0,0,0,-1,748,533,0,0
-469,491,-5.85913,4.55011,0,0,0,0,0,0,0,-1,755,533,-5.8591,-4.55009
-462,491,-9.93713,4.90381,0,0,0,0,0,0,0,-1,762,533,-9.93716,-4.9038
-455,491,1.9494,-0.27887,0,0,0,0,0,0,0,-1,769,533,1.94941,0.27885
-448,491,2.68909,-1.8999,0,0,0,0,0,0,0,-1,776,533,2.6891,1.89988
-441,491,3.46069,-3.51855,0,0,0,0,0,0,0,-1,783,533,3.46071,3.51854
-434,491,2.67145,-7.44061,0,0,0,0,0,0,0,-1,790,533,2.67146,7.44061
-427,491,2.27136,-8.34546,0,0,0,0,0,0,0,-1,797,533,2.27136,8.34546
-420,491,-5.78558,-21.1282,0,0,0,0,0,0,0,-1,804,533,-5.78557,21.1282
-413,491,-5.19373,-22.546,0,0,0,0,0,0,0,-1,811,533,-5.19375,22.546
-406,491,-5.15149,-23.6296,0.00170878,0.0134579,-0.00755531,0.0171538,-0.00198709,-1.11585,0.0121525,0.0283643,818,533,-5.1515,23.6296
-399,491,-5.19012,-24.5745,0.00182799,0.0115871,-0.00695673,0.0152049,-0.00178989,-1.09123,0.0107829,0.0149197,825,533,-5.19013,24.5745
-392,491,-5.30579,-25.4606,0.00202207,0.00982574,-0.00632692,0.0133572,-0.00150942,-1.0617,0.00944823,0.0119937,832,533,-5.3058,25.4606
-385,491,-5.36041,-26.3353,0.00221215,0.00814184,-0.00558017,0.0114959,-0.00114192,-1.02959,0.00807155,0.00993937,839,533,-5.3604,26.3353
-378,491,-5.40265,-27.2131,0.0023154,0.00646882,-0.00473567,0.00956311,-0.000778902,-0.992033,0.00665027,0.0143453,846,533,-5.40264,27.2131
-371,491,-5.44434,-28.0834,0.00230783,0.0047367,-0.00385285,0.00756198,-0.000517447,-0.938072,0.00522235,0.0154487,853,533,-5.44436,28.0834
-364,491,-5.51215,-28.9632,0.00219842,0.00292241,-0.00282933,0.0054128,-0.00029198,-0.849024,0.0037097,0.0142472,860,533,-5.51217,28.9632
-357,491,-5.54529,-29.8237,0.00203148,0.00129042,-0.00178239,0.00348145,-0.000159545,-0.682916,0.00237593,0.0130004,867,533,-5.54531,29.8237
-350,491,-5.58087,-30.6585,0.00184192,-0.000316352,-0.000754586,0.00207958,-0.000554006,-0.305111,0.00160328,0.0159676,874,533,-5.58086,30.6585
-343,491,-5.61865,-31.5635,0.00159698,-0.00191397,0.000259345,0.00161604,-0.00193302,0.0733371,0.00205177,0.026899,881,533,-5.61865,31.5635
-336,491,-5.70972,-32.4116,0.00124139,-0.00349865,0.00133775,0.00159287,-0.00385013,0.256933,0.00323134,0.0288597,888,533,-5.7097,32.4115
-329,491,-5.76617,-33.1871,0.000945917,-0.00494259,0.00234688,0.00176683,-0.00576351,0.336487,0.00454718,0.0287101,895,533,-5.7662,33.187
-322,491,-5.79095,-34.0251,0.00090183,-0.00595887,0.00307749,0.00207998,-0.00713702,0.365615,0.00558204,0.0227918,902,533,-5.79098,34.0251
-315,491,-5.82782,-34.8279,0.00109473,-0.00673386,0.00359874,0.00249764,-0.00813676,0.371711,0.00642107,0.0217041,909,533,-5.82785,34.8279
-308,491,-5.83246,-35.7589,0,0,0,0,0,0,0,-1,916,533,-5.83245,35.7589
-301,491,-5.7821,-36.6475,0,0,0,0,0,0,0,-1,923,533,-5.78208,36.6475
-294,491,-0.777283,-8.60913,0,0,0,0,0,0,0,-1,930,533,-0.777288,8.6091
-287,491,-0.26123,-8.69055,0,0,0,0,0,0,0,-1,937,533,-0.261204,8.69053
-280,491,0.2948,-5.99219,0,0,0,0,0,0,0,-1,944,533,0.294811,5.99221
-273,491,0.369995,-5.33691,0,0,0,0,0,0,0,-1,951,533,0.369985,5.33693
-266,491,1.1167,-5.0321,0,0,0,0,0,0,0,-1,958,533,1.11668,5.0321
-259,491,12.0862,-16.9615,0,0,0,0,0,0,0,-1,965,533,12.0862,16.9615
-252,491,9.72443,-13.8417,0,0,0,0,0,0,0,-1,972,533,9.72444,13.8418
-245,491,5.27258,-14.3619,0,0,0,0,0,0,0,-1,979,533,5.27255,14.3619
-238,491,3.65381,-11.1472,0,0,0,0,0,0,0,-1,986,533,3.6538,11.1472
-231,491,2.17719,-7.86835,0,0,0,0,0,0,0,-1,993,533,2.17719,7.86832
-224,491,0.554626,-4.61725,0,0,0,0,0,0,0,-1,1000,533,0.554608,4.61727
-217,491,-2.92743,-1.0766,0,0,0,0,0,0,0,-1,1007,533,-2.92743,1.07659
-210,491,-0.92395,0.374512,0,0,0,0,0,0,0,-1,1014,533,-0.923959,-0.374531
-203,491,0.417419,4.77161,0,0,0,0,0,0,0,-1,1021,533,0.417446,-4.77162
-196,491,0,0,0,0,0,0,0,0,0,-1,1028,533,0,0
-189,491,0,0,0,0,0,0,0,0,0,-1,1035,533,0,0
-182,491,0,0,0,0,0,0,0,0,0,-1,1042,533,0,0
-175,491,0,0,0,0,0,0,0,0,0,-1,1049,533,0,0
-168,491,0,0,0,0,0,0,0,0,0,-1,1056,533,0,0
-161,491,0,0,0,0,0,0,0,0,0,-1,1063,533,0,0
-154,491,0,0,0,0,0,0,0,0,0,-1,1070,533,0,0
-147,491,0,0,0,0,0,0,0,0,0,-1,1077,533,0,0
-140,491,0,0,0,0,0,0,0,0,0,-1,1084,533,0,0
-133,491,0,0,0,0,0,0,0,0,0,-1,1091,533,0,0
-126,491,0,0,0,0,0,0,0,0,0,-1,1098,533,0,0
-119,491,0,0,0,0,0,0,0,0,0,-1,1105,533,0,0
-112,491,0,0,0,0,0,0,0,0,0,-1,1112,533,0,0
-105,491,0,0,0,0,0,0,0,0,0,-1,1119,533,0,0
-98,491,0,0,0,0,0,0,0,0,0,-1,1126,533,0,0
-91,491,0,0,0,0,0,0,0,0,0,-1,1133,533,0,0
-84,491,0,0,0,0,0,0,0,0,0,-1,1140,533,0,0
-77,491,0,0,0,0,0,0,0,0,0,-1,1147,533,0,0
-70,491,0,0,0,0,0,0,0,0,0,-1,1154,533,0,0
-63,491,0,0,0,0,0,0,0,0,0,-1,1161,533,0,0
-56,491,0,0,0,0,0,0,0,0,0,-1,1168,533,0,0
-49,491,0,0,0,0,0,0,0,0,0,-1,1175,533,0,0
-42,491,0,0,0,0,0,0,0,0,0,-1,1182,533,0,0
-35,491,0,0,0,0,0,0,0,0,0,-1,1189,533,0,0
-28,491,0,0,0,0,0,0,0,0,0,-1,1196,533,0,0
-21,491,0,0,0,0,0,0,0,0,0,-1,1203,533,0,0
-14,491,0,0,0,0,0,0,0,0,0,-1,1210,533,0,0
-7,491,0,0,0,0,0,0,0,0,0,-1,1217,533,0,0
0,491,0,0,0,0,0,0,0,0,0,-1,1224,533,0,0
7,491,0,0,0,0,0,0,0,0,0,-1,1231,533,0,0
14,491,0,0,0,0,0,0,0,0,0,-1,1238,533,0,0
21,491,0,0,0,0,0,0,0,0,0,-1,1245,533,0,0
28,491,0,0,0,0,0,0,0,0,0,-1,1252,533,0,0
35,491,0,0,0,0,0,0,0,0,0,-1,1259,533,0,0
42,491,0,0,0,0,0,0,0,0,0,-1,1266,533,0,0
49,491,0,0,0,0,0,0,0,0,0,-1,1273,533,0,0
56,491,0,0,0,0,0,0,0,0,0,-1,1280,533,0,0
63,491,0,0,0,0,0,0,0,0,0,-1,1287,533,0,0
70,491,0,0,0,0,0,0,0,0,0,-1,1294,533,0,0
77,491,0,0,0,0,0,0,0,0,0,-1,1301,533,0,0
84,491,0,0,0,0,0,0,0,0,0,-1,1308,533,0,0
91,491,0,0,0,0,0,0,0,0,0,-1,1315,533,0,0
98,491,0,0,0,0,0,0,0,0,0,-1,1322,533,0,0
105,491,0,0,0,0,0,0,0,0,0,-1,1329,533,0,0
112,491,0,0,0,0,0,0,0,0,0,-1,1336,533,0,0
119,491,0,0,0,0,0,0,0,0,0,-1,1343,533,0,0
126,491,0,0,0,0,0,0,0,0,0,-1,1350,533,0,0
133,491,0,0,0,0,0,0,0,0,0,-1,1357,533,0,0
140,491,0,0,0,0,0,0,0,0,0,-1,1364,533,0,0
147,491,0,0,0,0,0,0,0,0,0,-1,1371,533,0,0
154,491,0,0,0,0,0,0,0,0,0,-1,1378,533,0,0
161,491,0,0,0,0,0,0,0,0,0,-1,1385,533,0,0
168,491,0,0,0,0,0,0,0,0,0,-1,1392,533,0,0
175,491,0,0,0,0,0,0,0,0,0,-1,1399,533,0,0
182,491,0,0,0,0,0,0,0,0,0,-1,1406,533,0,0
189,491,0,0,0,0,0,0,0,0,0,-1,1413,533,0,0
196,491,0,0,0,0,0,0,0,0,0,-1,1420,533,0,0
203,491,0,0,0,0,0,0,0,0,0,-1,1427,533,0,0
210,491,0,0,0,0,0,0,0,0,0,-1,1434,533,0,0
217,491,0,0,0,0,0,0,0,0,0,-1,1441,533,0,0
224,491,0,0,0,0,0,0,0,0,0,-1,1448,533,0,0
231,491,0,0,0,0,0,0,0,0,0,-1,1455,533,0,0
238,491,0,0,0,0,0,0,0,0,0,-1,1462,533,0,0
245,491,0,0,0,0,0,0,0,0,0,-1,1469,533,0,0
252,491,0,0,0,0,0,0,0,0,0,-1,1476,533,0,0
259,491,0,0,0,0,0,0,0,0,0,-1,1483,533,0,0
266,491,0,0,0,0,0,0,0,0,0,-1,1490,533,0,0
273,491,0,0,0,0,0,0,0,0,0,-1,1497,533,0,0
280,491,0,0,0,0,0,0,0,0,0,-1,1504,533,0,0
287,491,0,0,0,0,0,0,0,0,0,-1,1511,533,0,0
294,491,0,0,0,0,0,0,0,0,0,-1,1518,533,0,0
301,491,0,0,0,0,0,0,0,0,0,-1,1525,533,0,0
308,491,0,0,0,0,0,0,0,0,0,-1,1532,533,0,0
315,491,0,0,0,0,0,0,0,0,0,-1,1539,533,0,0
322,491,4.26331,-0.734314,0,0,0,0,0,0,0,-1,1546,533,4.26326,0.734324
329,491,4.25354,-0.783752,0,0,0,0,0,0,0,-1,1553,533,4.25359,0.783734
336,491,4.81604,-0.722107,0,0,0,0,0,0,0,-1,1560,533,4.81605,0.722115
343,491,6.14478,-1.44281,0,0,0,0,0,0,0,-1,1567,533,6.14474,1.44281
350,491,6.36353,-1.30792,0,0,0,0,0,0,0,-1,1574,533,6.36352,1.3079
357,491,6.69482,-1.06018,0,0,0,0,0,0,0,-1,1581,533,6.69489,1.06018
364,491,8.01086,-1.69604,0,0,0,0,0,0,0,-1,1588,533,8.01087,1.69607
371,491,8.2135,-0.539307,0,0,0,0,0,0,0,-1,1595,533,8.21348,0.53929
378,491,13.3589,2.17267,0,0,0,0,0,0,0,-1,1602,533,13.3589,-2.17264
385,491,8.08228,-4.95471,0,0,0,0,0,0,0,-1,1609,533,8.08227,4.95474
392,491,2.88721,-4.30988,0,0,0,0,0,0,0,-1,1616,533,2.88716,4.30986
399,491,8.95862,-8.55518,0,0,0,0,0,0,0,-1,1623,533,8.95864,8.55516
406,491,8.16541,-9.00806,0,0,0,0,0,0,0,-1,1630,533,8.16535,9.00807
413,491,5.31848,-3.7124,0,0,0,0,0,0,0,-1,1637,533,5.31849,3.7124
420,491,4.86389,-3.95892,0,0,0,0,0,0,0,-1,1644,533,4.86387,3.95893
427,491,11.5096,-15.2742,0,0,0,0,0,0,0,-1,1651,533,11.5096,15.2742
434,491,21.4218,-35.3588,0,0,0,0,0,0,0,-1,1658,533,21.4217,35.3588
441,491,21.5768,-34.1741,0.00229721,-0.000978601,-0.00189589,0.00316473,-0.00184612,-0.429137,0.00292621,0.0370106,1665,533,21.5768,34.1741
448,491,21.5168,-33.6055,0.00186684,-0.000683084,-0.00166929,0.00269237,-0.00150861,-0.459269,0.00245733,0.0212049,1672,533,21.5169,33.6055
455,491,21.4629,-32.7416,0.00159183,-0.000399641,-0.00144193,0.00234842,-0.00115624,-0.483218,0.00206207,0.0147401,1679,533,21.4629,32.7417
462,491,21.4716,-31.8975,0.00135984,-0.000108978,-0.00111432,0.00196,-0.000709134,-0.494037,0.00159644,0.0159914,1686,533,21.4716,31.8975
469,491,21.4265,-31.0635,0.00119648,0.00024278,-0.00067239,0.00154394,-0.000104685,-0.476966,0.00106591,0.015637,1693,533,21.4265,31.0635
476,491,21.364,-30.2058,0.00120168,0.000590838,-0.000196815,0.0012596,0.000532916,-0.286215,0.000730095,0.0114886,1700,533,21.364,30.2058
483,491,21.2957,-29.309,0.00131097,0.000922693,0.000258015,0.00143973,0.000793936,0.462869,0.000832694,0.0131523,1707,533,21.2957,29.309
490,491,21.2404,-28.4569,0.00137423,0.00135237,0.000653052,0.00201644,0.000710158,0.777032,0.00118103,0.0115236,1714,533,21.2404,28.4569
497,491,21.2013,-27.572,0.00151257,0.00184051,0.00111676,0.00280528,0.0005478,0.85829,0.00171696,0.0124845,1721,533,21.2013,27.572
504,491,21.1697,-26.6688,0.00172239,0.0020826,0.00149314,0.00340645,0.000398535,0.845418,0.00215047,0.0139583,1728,533,21.1697,26.6688
511,491,21.1223,-25.7733,0.00182922,0.00241491,0.00180764,0.00395327,0.000290858,0.865703,0.00254411,0.0133984,1735,533,21.1223,25.7733
518,491,21.0748,-24.9054,0.00177388,0.00280684,0.00199348,0.00434966,0.000231067,0.912154,0.0028259,0.0108915,1742,533,21.0748,24.9054
525,491,21.0326,-24.0051,0.00167879,0.00321978,0.00217098,0.00475294,0.000145632,0.955918,0.00312121,0.0117547,1749,533,21.0326,24.0051
532,491,20.9475,-23.0589,0,0,0,0,0,0,0,-1,1756,533,20.9475,23.0589
539,491,20.9402,-22.1207,0,0,0,0,0,0,0,-1,1763,533,20.9401,22.1207
546,491,20.1299,-21.3778,0,0,0,0,0,0,0,-1,1770,533,20.1298,21.3778
553,491,10.5021,-7.77869,0,0,0,0,0,0,0,-1,1777,533,10.502,7.77871
560,491,6.28455,-1.43585,0,0,0,0,0,0,0,-1,1784,533,6.28458,1.43586
567,491,5.67651,-1.3562,0,0,0,0,0,0,0,-1,1791,533,5.67649,1.3562
574,491,8.0719,1.58325,0,0,0,0,0,0,0,-1,1798,533,8.07195,-1.58326
581,491,9.44812,1.60931,0,0,0,0,0,0,0,-1,1805,533,9.44808,-1.60933
588,491,11.0497,1.54962,0,0,0,0,0,0,0,-1,1812,533,11.0496,-1.54963
595,491,0,0,0,0,0,0,0,0,0,-1,1819,533,0,0
602,491,0,0,0,0,0,0,0,0,0,-1,1826,533,0,0
609,491,0,0,0,0,0,0,0,0,0,-1,1833,533,0,0
616,491,0,0,0,0,0,0,0,0,0,-1,1840,533,0,0
623,491,0,0,0,0,0,0,0,0,0,-1,1847,533,0,0
630,491,0,0,0,0,0,0,0,0,0,-1,1854,533,0,0
637,491,0,0,0,0,0,0,0,0,0,-1,1861,533,0,0
644,491,0,0,0,0,0,0,0,0,0,-1,1868,533,0,0
651,491,0,0,0,0,0,0,0,0,0,-1,1875,533,0,0
658,491,0,0,0,0,0,0,0,0,0,-1,1882,533,0,0
665,491,0,0,0,0,0,0,0,0,0,-1,1889,533,0,0
672,491,0,0,0,0,0,0,0,0,0,-1,1896,533,0,0
679,491,0,0,0,0,0,0,0,0,0,-1,1903,533,0,0
686,491,0,0,0,0,0,0,0,0,0,-1,1910,533,0,0
693,491,0,0,0,0,0,0,0,0,0,-1,1917,533,0,0
700,491,0,0,0,0,0,0,0,0,0,-1,1924,533,0,0
707,491,0,0,0,0,0,0,0,0,0,-1,1931,533,0,0
714,491,0,0,0,0,0,0,0,0,0,-1,1938,533,0,0
721,491,0,0,0,0,0,0,0,0,0,-1,1945,533,0,0
728,491,0,0,0,0,0,0,0,0,0,-1,1952,533,0,0
735,491,0,0,0,0,0,0,0,0,0,-1,1959,533,0,0
742,491,0,0,0,0,0,0,0,0,0,-1,1966,533,0,0
749,491,0,0,0,0,0,0,0,0,0,-1,1973,533,0,0
756,491,0,0,0,0,0,0,0,0,0,-1,1980,533,0,0
763,491,0,0,0,0,0,0,0,0,0,-1,1987,533,0,0
770,491,0,0,0,0,0,0,0,0,0,-1,1994,533,0,0
777,491,0,0,0,0,0,0,0,0,0,-1,2001,533,0,0
784,491,0,0,0,0,0,0,0,0,0,-1,2008,533,0,0
791,491,0,0,0,0,0,0,0,0,0,-1,2015,533,0,0
798,491,0,0,0,0,0,0,0,0,0,-1,2022,533,0,0
805,491,0,0,0,0,0,0,0,0,0,-1,2029,533,0,0
812,491,0,0,0,0,0,0,0,0,0,-1,2036,533,0,0
-700,484,0,0,0,0,0,0,0,0,0,-1,524,540,0,0
-693,484,0,0,0,0,0,0,0,0,0,-1,531,540,0,0
-686,484,0,0,0,0,0,0,0,0,0,-1,538,540,0,0
-679,484,0,0,0,0,0,0,0,0,0,-1,545,540,0,0
-672,484,0,0,0,0,0,0,0,0,0,-1,552,540,0,0
-665,484,0,0,0,0,0,0,0,0,0,-1,559,540,0,0
-658,484,0,0,0,0,0,0,0,0,0,-1,566,540,0,0
-651,484,0,0,0,0,0,0,0,0,0,-1,573,540,0,0
-644,484,0,0,0,0,0,0,0,0,0,-1,580,540,0,0
-637,484,0,0,0,0,0,0,0,0,0,-1,587,540,0,0
-630,484,0,0,0,0,0,0,0,0,0,-1,594,540,0,0
-623,484,0,0,0,0,0,0,0,0,0,-1,601,540,0,0
-616,484,0,0,0,0,0,0,0,0,0,-1,608,540,0,0
-609,484,0,0,0,0,0,0,0,0,0,-1,615,540,0,0
-602,484,0,0,0,0,0,0,0,0,0,-1,622,540,0,0
-595,484,0,0,0,0,0,0,0,0,0,-1,629,540,0,0
-588,484,0,0,0,0,0,0,0,0,0,-1,636,540,0,0
-581,484,0,0,0,0,0,0,0,0,0,-1,643,540,0,0
-574,484,0,0,0,0,0,0,0,0,0,-1,650,540,0,0
-567,484,0,0,0,0,0,0,0,0,0,-1,657,540,0,0
-560,484,0,0,0,0,0,0,0,0,0,-1,664,540,0,0
-553,484,0,0,0,0,0,0,0,0,0,-1,671,540,0,0
-546,484,0,0,0,0,0,0,0,0,0,-1,678,540,0,0
-539,484,0,0,0,0,0,0,0,0,0,-1,685,540,0,0
-532,484,0,0,0,0,0,0,0,0,0,-1,692,540,0,0
-525,484,0,0,0,0,0,0,0,0,0,-1,699,540,0,0
-518,484,0,0,0,0,0,0,0,0,0,-1,706,540,0,0
-511,484,0,0,0,0,0,0,0,0,0,-1,713,540,0,0
-504,484,0,0,0,0,0,0,0,0,0,-1,720,540,0,0
-497,484,0,0,0,0,0,0,0,0,0,-1,727,540,0,0
-490,484,0,0,0,0,0,0,0,0,0,-1,734,540,0,0
-483,484,0,0,0,0,0,0,0,0,0,-1,741,540,0,0
-476,484,-8.46552,1.44702,0,0,0,0,0,0,0,-1,748,540,-8.46554,-1.44702
-469,484,-7.82343,1.70355,0,0,0,0,0,0,0,-1,755,540,-7.82345,-1.70355
-462,484,-8.36987,3.08612,0,0,0,0,0,0,0,-1,762,540,-8.36988,-3.0861
-455,484,-6.77197,2.07092,0,0,0,0,0,0,0,-1,769,540,-6.77197,-2.07094
-448,484,3.54895,-1.40106,0,0,0,0,0,0,0,-1,776,540,3.54897,1.40106
-441,484,4.28906,-3.05884,0,0,0,0,0,0,0,-1,783,540,4.28905,3.05883
-434,484,-2.17548,-5.07245,0,0,0,0,0,0,0,-1,790,540,-2.17546,5.07243
-427,484,-5.93982,-20.269,0,0,0,0,0,0,0,-1,797,540,-5.93983,20.269
-420,484,-5.81122,-21.0126,0,0,0,0,0,0,0,-1,804,540,-5.81121,21.0126
-413,484,-5.88177,-22.5679,0.000881019,0.0115351,-0.00576629,0.0140584,-0.00164226,-1.15831,0.00996487,0.0331608,811,540,-5.88176,22.568
-406,484,-5.98773,-23.5822,0.00107597,0.00988307,-0.00543259,0.0124727,-0.00151363,-1.12598,0.00886286,0.0185296,818,540,-5.98774,23.5821
-399,484,-6.11816,-24.506,0.00118027,0.00822003,-0.00490087,0.0107341,-0.00133376,-1.09682,0.00763953,0.0176506,825,540,-6.11819,24.5061
-392,484,-6.17657,-25.3956,0.00138582,0.00666078,-0.0043524,0.00911248,-0.00106587,-1.0578,0.00645966,0.0203662,832,540,-6.17655,25.3956
-385,484,-6.23151,-26.2881,0.00162628,0.00519816,-0.00373645,0.00755356,-0.000729117,-1.00834,0.0052955,0.0139808,839,540,-6.23149,26.2882
-378,484,-6.27057,-27.1617,0.00179423,0.00372584,-0.00301333,0.00592436,-0.000404281,-0.940482,0.00409099,0.0151876,846,540,-6.27055,27.1618
-371,484,-6.31659,-28.01,0.00188241,0.00222301,-0.00226622,0.00432532,-0.0002199,-0.822901,0.00295957,0.017241,853,540,-6.31659,28.01
-364,484,-6.37982,-28.8698,0.00188329,0.000677377,-0.00141091,0.00281468,-0.000254013,-0.583467,0.0019666,0.0126837,860,540,-6.37982,28.8698
-357,484,-6.42999,-29.7491,0.00182682,-0.000683646,-0.000551063,0.00194245,-0.000799282,-0.20684,0.00162816,0.0135041,867,540,-6.43001,29.7491
-350,484,-6.47705,-30.5968,0.00174072,-0.00201942,0.000281287,0.00176165,-0.00204035,0.0742566,0.00219705,0.0148006,874,540,-6.47705,30.5968
-343,484,-6.48462,-31.4683,0.00154987,-0.00328427,0.00110702,0.00179131,-0.00352572,0.214744,0.00312375,0.0231112,881,540,-6.48459,31.4683
-336,484,-6.53485,-32.3024,0.00120757,-0.00460967,0.00201376,0.00183665,-0.00523875,0.302784,0.00423947,0.0265816,888,540,-6.53485,32.3025
-329,484,-6.60822,-33.0788,0.000924479,-0.00585645,0.00287628,0.00198016,-0.00691213,0.351766,0.00539077,0.0367593,895,540,-6.60819,33.0788
-322,484,-6.57672,-33.9283,0,0,0,0,0,0,0,-1,902,540,-6.5767,33.9283
-315,484,-6.47113,-34.83,0,0,0,0,0,0,0,-1,909,540,-6.47111,34.83
-308,484,-1.32623,-8.9317,0,0,0,0,0,0,0,-1,916,540,-1.32626,8.93173
-301,484,-1.33453,-6.52667,0,0,0,0,0,0,0,-1,923,540,-1.33454,6.5267
-294,484,-1.61224,-8.17059,0,0,0,0,0,0,0,-1,930,540,-1.61227,8.17058
-287,484,-0.715759,-5.62103,0,0,0,0,0,0,0,-1,937,540,-0.715772,5.62105
-280,484,2.66742,-1.6795,0,0,0,0,0,0,0,-1,944,540,2.6674,1.67949
-273,484,2.53125,-2.22296,0,0,0,0,0,0,0,-1,951,540,2.53128,2.22295
-266,484,2.6778,-2.72058,0,0,0,0,0,0,0,-1,958,540,2.6778,2.72061
-259,484,2.41718,-2.59894,0,0,0,0,0,0,0,-1,965,540,2.41717,2.59892
-252,484,10.6069,-11.696,0,0,0,0,0,0,0,-1,972,540,10.6069,11.696
-245,484,6.34106,-11.6107,0,0,0,0,0,0,0,-1,979,540,6.34104,11.6107
-238,484,4.89319,-8.54059,0,0,0,0,0,0,0,-1,986,540,4.89321,8.5406
-231,484,3.47675,-5.22064,0,0,0,0,0,0,0,-1,993,540,3.47676,5.22067
-224,484,1.71344,-2.03473,0,0,0,0,0,0,0,-1,1000,540,1.71342,2.03472
-217,484,-0.745056,1.17358,0,0,0,0,0,0,0,-1,1007,540,-0.745043,-1.17359
-210,484,0,0,0,0,0,0,0,0,0,-1,1014,540,0,0
-203,484,0,0,0,0,0,0,0,0,0,-1,1021,540,0,0
-196,484,0,0,0,0,0,0,0,0,0,-1,1028,540,0,0
-189,484,0,0,0,0,0,0,0,0,0,-1,1035,540,0,0
-182,484,0,0,0,0,0,0,0,0,0,-1,1042,540,0,0
-175,484,0,0,0,0,0,0,0,0,0,-1,1049,540,0,0
-168,484,0,0,0,0,0,0,0,0,0,-1,1056,540,0,0
-161,484,0,0,0,0,0,0,0,0,0,-1,1063,540,0,0
-154,484,0,0,0,0,0,0,0,0,0,-1,1070,540,0,0
-147,484,0,0,0,0,0,0,0,0,0,-1,1077,540,0,0
-140,484,0,0,0,0,0,0,0,0,0,-1,1084,540,0,0
-133,484,0,0,0,0,0,0,0,0,0,-1,1091,540,0,0
-126,484,0,0,0,0,0,0,0,0,0,-1,1098,540,0,0
-119,484,0,0,0,0,0,0,0,0,0,-1,1105,540,0,0
-112,484,0,0,0,0,0,0,0,0,0,-1,1112,540,0,0
-105,484,0,0,0,0,0,0,0,0,0,-1,1119,540,0,0
-98,484,0,0,0,0,0,0,0,0,0,-1,1126,540,0,0
-91,484,0,0,0,0,0,0,0,0,0,-1,1133,540,0,0
-84,484,0,0,0,0,0,0,0,0,0,-1,1140,540,0,0
-77,484,0,0,0,0,0,0,0,0,0,-1,1147,540,0,0
-70,484,0,0,0,0,0,0,0,0,0,-1,1154,540,0,0
-63,484,0,0,0,0,0,0,0,0,0,-1,1161,540,0,0
-56,484,0,0,0,0,0,0,0,0,0,-1,1168,540,0,0
-49,484,0,0,0,0,0,0,0,0,0,-1,1175,540,0,0
-42,484,0,0,0,0,0,0,0,0,0,-1,1182,540,0,0
-35,484,0,0,0,0,0,0,0,0,0,-1,1189,540,0,0
-28,484,0,0,0,0,0,0,0,0,0,-1,1196,540,0,0
-21,484,0,0,0,0,0,0,0,0,0,-1,1203,540,0,0
-14,484,0,0,0,0,0,0,0,0,0,-1,1210,540,0,0
-7,484,0,0,0,0,0,0,0,0,0,-1,1217,540,0,0
0,484,0,0,0,0,0,0,0,0,0,-1,1224,540,0,0
7,484,0,0,0,0,0,0,0,0,0,-1,1231,540,0,0
14,484,0,0,0,0,0,0,0,0,0,-1,1238,540,0,0
21,484,0,0,0,0,0,0,0,0,0,-1,1245,540,0,0
28,484,0,0,0,0,0,0,0,0,0,-1,1252,540,0,0
35,484,0,0,0,0,0,0,0,0,0,-1,1259,540,0,0
42,484,0,0,0,0,0,0,0,0,0,-1,1266,540,0,0
49,484,0,0,0,0,0,0,0,0,0,-1,1273,540,0,0
56,484,0,0,0,0,0,0,0,0,0,-1,1280,540,0,0
63,484,0,0,0,0,0,0,0,0,0,-1,1287,540,0,0
70,484,0,0,0,0,0,0,0,0,0,-1,1294,540,0,0
77,484,0,0,0,0,0,0,0,0,0,-1,1301,540,0,0
84,484,0,0,0,0,0,0,0,0,0,-1,1308,540,0,0
91,484,0,0,0,0,0,0,0,0,0,-1,1315,540,0,0
98,484,0,0,0,0,0,0,0,0,0,-1,1322,540,0,0
105,484,0,0,0,0,0,0,0,0,0,-1,1329,540,0,0
112,484,0,0,0,0,0,0,0,0,0,-1,1336,540,0,0
119,484,0,0,0,0,0,0,0,0,0,-1,1343,540,0,0
126,484,0,0,0,0,0,0,0,0,0,-1,1350,540,0,0
133,484,0,0,0,0,0,0,0,0,0,-1,1357,540,0,0
140,484,0,0,0,0,0,0,0,0,0,-1,1364,540,0,0
147,484,0,0,0,0,0,0,0,0,0,-1,1371,540,0,0
154,484,0,0,0,0,0,0,0,0,0,-1,1378,540,0,0
161,484,0,0,0,0,0,0,0,0,0,-1,1385,540,0,0
168,484,0,0,0,0,0,0,0,0,0,-1,1392,540,0,0
175,484,0,0,0,0,0,0,0,0,0,-1,1399,540,0,0
182,484,0,0,0,0,0,0,0,0,0,-1,1406,540,0,0
189,484,0,0,0,0,0,0,0,0,0,-1,1413,540,0,0
196,484,0,0,0,0,0,0,0,0,0,-1,1420,540,0,0
203,484,0,0,0,0,0,0,0,0,0,-1,1427,540,0,0
210,484,0,0,0,0,0,0,0,0,0,-1,1434,540,0,0
217,484,0,0,0,0,0,0,0,0,0,-1,1441,540,0,0
224,484,0,0,0,0,0,0,0,0,0,-1,1448,540,0,0
231,484,0,0,0,0,0,0,0,0,0,-1,1455,540,0,0
238,484,0,0,0,0,0,0,0,0,0,-1,1462,540,0,0
245,484,0,0,0,0,0,0,0,0,0,-1,1469,540,0,0
252,484,0,0,0,0,0,0,0,0,0,-1,1476,540,0,0
259,484,0,0,0,0,0,0,0,0,0,-1,1483,540,0,0
266,484,0,0,0,0,0,0,0,0,0,-1,1490,540,0,0
273,484,0,0,0,0,0,0,0,0,0,-1,1497,540,0,0
280,484,0,0,0,0,0,0,0,0,0,-1,1504,540,0,0
287,484,0,0,0,0,0,0,0,0,0,-1,1511,540,0,0
294,484,0,0,0,0,0,0,0,0,0,-1,1518,540,0,0
301,484,0,0,0,0,0,0,0,0,0,-1,1525,540,0,0
308,484,0,0,0,0,0,0,0,0,0,-1,1532,540,0,0
315,484,0,0,0,0,0,0,0,0,0,-1,1539,540,0,0
322,484,0,0,0,0,0,0,0,0,0,-1,1546,540,0,0
329,484,0,0,0,0,0,0,0,0,0,-1,1553,540,0,0
336,484,4.38708,-1.64136,0,0,0,0,0,0,0,-1,1560,540,4.38704,1.64138
343,484,7.57996,-1.05457,0,0,0,0,0,0,0,-1,1567,540,7.57995,1.05454
350,484,8.10425,-1.18878,0,0,0,0,0,0,0,-1,1574,540,8.1043,1.18877
357,484,7.74902,-3.80286,0,0,0,0,0,0,0,-1,1581,540,7.74901,3.80287
364,484,6.31262,-3.87213,0,0,0,0,0,0,0,-1,1588,540,6.31263,3.87215
371,484,7.21008,0.973511,0,0,0,0,0,0,0,-1,1595,540,7.21014,-0.973541
378,484,11.0563,1.5014,0,0,0,0,0,0,0,-1,1602,540,11.0563,-1.5014
385,484,14.3469,2.5545,0,0,0,0,0,0,0,-1,1609,540,14.3469,-2.55453
392,484,7.39453,-4.95026,0,0,0,0,0,0,0,-1,1616,540,7.39448,4.95023
399,484,7.14417,-2.5639,0,0,0,0,0,0,0,-1,1623,540,7.14417,2.56391
406,484,7.88953,-2.47321,0,0,0,0,0,0,0,-1,1630,540,7.88954,2.47323
413,484,4.4895,-1.08673,0,0,0,0,0,0,0,-1,1637,540,4.48952,1.08674
420,484,4.50012,-2.11255,0,0,0,0,0,0,0,-1,1644,540,4.50012,2.11256
427,484,5.28601,-3.54053,0,0,0,0,0,0,0,-1,1651,540,5.28599,3.54051
434,484,11.1488,-13.5359,0,0,0,0,0,0,0,-1,1658,540,11.1489,13.5359
441,484,22.3708,-33.7609,0,0,0,0,0,0,0,-1,1665,540,22.3709,33.7609
448,484,22.3429,-33.6487,0,0,0,0,0,0,0,-1,1672,540,22.3428,33.6487
455,484,22.3358,-32.7307,0,0,0,0,0,0,0,-1,1679,540,22.3358,32.7307
462,484,22.3457,-31.8334,0.00122428,-0.000514344,-0.00192925,0.00247103,-0.00176109,-0.573723,0.00245485,0.029814,1686,540,22.3457,31.8334
469,484,22.319,-31.0065,0.000932023,-0.000109277,-0.00134092,0.00184982,-0.00102708,-0.600218,0.00168347,0.0193181,1693,540,22.319,31.0065
476,484,22.2269,-30.1055,0.000962556,0.000263952,-0.000731491,0.00142387,-0.000197357,-0.562647,0.0010214,0.0172376,1700,540,22.2269,30.1055
483,484,22.1631,-29.2333,0.0010445,0.000572779,-0.000219598,0.0011309,0.000486377,-0.374852,0.000655053,0.0140839,1707,540,22.1631,29.2333
490,484,22.1284,-28.4073,0.00105697,0.000975,0.000203334,0.00122341,0.000808561,0.685949,0.000718423,0.0134169,1714,540,22.1284,28.4073
497,484,22.0845,-27.5396,0.00115744,0.00149307,0.000739949,0.002084,0.000566516,0.896909,0.00124425,0.0143531,1721,540,22.0844,27.5395
504,484,22.0336,-26.6443,0.00130203,0.00165667,0.00113525,0.00262836,0.000330341,0.862871,0.00165317,0.0168492,1728,540,22.0336,26.6444
511,484,22.0101,-25.7534,0.00132794,0.00190873,0.00145081,0.00309792,0.000138752,0.884175,0.00202062,0.0197987,1735,540,22.0101,25.7534
518,484,21.9423,-24.8696,0.00119102,0.00221533,0.00165197,0.00343271,-2.63682e-05,0.935713,0.00229732,0.0171869,1742,540,21.9423,24.8696
525,484,21.8696,-23.9801,0.00104461,0.00253569,0.0018325,0.00376851,-0.00018821,0.978594,0.00257737,0.015115,1749,540,21.8697,23.9801
532,484,21.8256,-23.048,0.000829095,0.00300385,0.00201424,0.00420548,-0.000372531,1.03291,0.00293572,0.0165815,1756,540,21.8255,23.048
539,484,21.7296,-22.1074,0.000462552,0.00360334,0.00210364,0.0046581,-0.000592212,1.10603,0.00332046,0.0431731,1763,540,21.7296,22.1073
546,484,21.7189,-21.1656,0,0,0,0,0,0,0,-1,1770,540,21.7189,21.1656
553,484,12.4246,-8.96423,0,0,0,0,0,0,0,-1,1777,540,12.4246,8.96422
560,484,10.0549,-5.47931,0,0,0,0,0,0,0,-1,1784,540,10.055,5.47928
567,484,7.78223,-1.38312,0,0,0,0,0,0,0,-1,1791,540,7.78224,1.38311
574,484,5.74463,1.50922,0,0,0,0,0,0,0,-1,1798,540,5.74463,-1.50924
581,484,10.34,2.9491,0,0,0,0,0,0,0,-1,1805,540,10.34,-2.94912
588,484,10.6669,2.88568,0,0,0,0,0,0,0,-1,1812,540,10.6669,-2.88567
595,484,10.7233,1.04767,0,0,0,0,0,0,0,-1,1819,540,10.7233,-1.04766
602,484,0,0,0,0,0,0,0,0,0,-1,1826,540,0,0
609,484,0,0,0,0,0,0,0,0,0,-1,1833,540,0,0
616,484,0,0,0,0,0,0,0,0,0,-1,1840,540,0,0
623,484,0,0,0,0,0,0,0,0,0,-1,1847,540,0,0
630,484,0,0,0,0,0,0,0,0,0,-1,1854,540,0,0
637,484,0,0,0,0,0,0,0,0,0,-1,1861,540,0,0
644,484,0,0,0,0,0,0,0,0,0,-1,1868,540,0,0
651,484,0,0,0,0,0,0,0,0,0,-1,1875,540,0,0
658,484,0,0,0,0,0,0,0,0,0,-1,1882,540,0,0
665,484,0,0,0,0,0,0,0,0,0,-1,1889,540,0,0
672,484,0,0,0,0,0,0,0,0,0,-1,1896,540,0,0
679,484,0,0,0,0,0,0,0,0,0,-1,1903,540,0,0
686,484,0,0,0,0,0,0,0,0,0,-1,1910,540,0,0
693,484,0,0,0,0,0,0,0,0,0,-1,1917,540,0,0
700,484,0,0,0,0,0,0,0,0,0,-1,1924,540,0,0
707,484,0,0,0,0,0,0,0,0,0,-1,1931,540,0,0
714,484,0,0,0,0,0,0,0,0,0,-1,1938,540,0,0
721,484,0,0,0,0,0,0,0,0,0,-1,1945,540,0,0
728,484,0,0,0,0,0,0,0,0,0,-1,1952,540,0,0
735,484,0,0,0,0,0,0,0,0,0,-1,1959,540,0,0
742,484,0,0,0,0,0,0,0,0,0,-1,1966,540,0,0
749,484,0,0,0,0,0,0,0,0,0,-1,1973,540,0,0
756,484,0,0,0,0,0,0,0,0,0,-1,1980,540,0,0
763,484,0,0,0,0,0,0,0,0,0,-1,1987,540,0,0
770,484,0,0,0,0,0,0,0,0,0,-1,1994,540,0,0
777,484,0,0,0,0,0,0,0,0,0,-1,2001,540,0,0
784,484,0,0,0,0,0,0,0,0,0,-1,2008,540,0,0
791,484,0,0,0,0,0,0,0,0,0,-1,2015,540,0,0
798,484,0,0,0,0,0,0,0,0,0,-1,2022,540,0,0
805,484,0,0,0,0,0,0,0,0,0,-1,2029,540,0,0
812,484,0,0,0,0,0,0,0,0,0,-1,2036,540,0,0
-700,477,0,0,0,0,0,0,0,0,0,-1,524,547,0,0
-693,477,0,0,0,0,0,0,0,0,0,-1,531,547,0,0
-686,477,0,0,0,0,0,0,0,0,0,-1,538,547,0,0
-679,477,0,0,0,0,0,0,0,0,0,-1,545,547,0,0
-672,477,0,0,0,0,0,0,0,0,0,-1,552,547,0,0
-665,477,0,0,0,0,0,0,0,0,0,-1,559,547,0,0
-658,477,0,0,0,0,0,0,0,0,0,-1,566,547,0,0
-651,477,0,0,0,0,0,0,0,0,0,-1,573,547,0,0
-644,477,0,0,0,0,0,0,0,0,0,-1,580,547,0,0
-637,477,0,0,0,0,0,0,0,0,0,-1,587,547,0,0
-630,477,0,0,0,0,0,0,0,0,0,-1,594,547,0,0
-623,477,0,0,0,0,0,0,0,0,0,-1,601,547,0,0
-616,477,0,0,0,0,0,0,0,0,0,-1,608,547,0,0
-609,477,0,0,0,0,0,0,0,0,0,-1,615,547,0,0
-602,477,0,0,0,0,0,0,0,0,0,-1,622,547,0,0
-595,477,0,0,0,0,0,0,0,0,0,-1,629,547,0,0
-588,477,0,0,0,0,0,0,0,0,0,-1,636,547,0,0
-581,477,0,0,0,0,0,0,0,0,0,-1,643,547,0,0
-574,477,0,0,0,0,0,0,0,0,0,-1,650,547,0,0
-567,477,0,0,0,0,0,0,0,0,0,-1,657,547,0,0
-560,477,0,0,0,0,0,0,0,0,0,-1,664,547,0,0
-553,477,0,0,0,0,0,0,0,0,0,-1,671,547,0,0
-546,477,0,0,0,0,0,0,0,0,0,-1,678,547,0,0
-539,477,0,0,0,0,0,0,0,0,0,-1,685,547,0,0
-532,477,0,0,0,0,0,0,0,0,0,-1,692,547,0,0
-525,477,0,0,0,0,0,0,0,0,0,-1,699,547,0,0
-518,477,0,0,0,0,0,0,0,0,0,-1,706,547,0,0
-511,477,0,0,0,0,0,0,0,0,0,-1,713,547,0,0
-504,477,0,0,0,0,0,0,0,0,0,-1,720,547,0,0
-497,477,0,0,0,0,0,0,0,0,0,-1,727,547,0,0
-490,477,0,0,0,0,0,0,0,0,0,-1,734,547,0,0
-483,477,-7.73151,-0.224182,0,0,0,0,0,0,0,-1,741,547,-7.73152,0.224176
-476,477,-6.25806,-0.310547,0,0,0,0,0,0,0,-1,748,547,-6.25804,0.310549
-469,477,-7.26617,0.525085,0,0,0,0,0,0,0,-1,755,547,-7.2662,-0.525111
-462,477,-6.65143,1.06042,0,0,0,0,0,0,0,-1,762,547,-6.65143,-1.06043
-455,477,-5.31757,0.429016,0,0,0,0,0,0,0,-1,769,547,-5.31756,-0.42902
-448,477,-4.0697,0.273376,0,0,0,0,0,0,0,-1,776,547,-4.06971,-0.273363
-441,477,-2.47504,-4.76971,0,0,0,0,0,0,0,-1,783,547,-2.47505,4.76973
-434,477,-6.51953,-20.0808,0,0,0,0,0,0,0,-1,790,547,-6.51954,20.0808
-427,477,-6.74744,-20.6069,0.000225374,0.011674,-0.00397482,0.0129187,-0.00101931,-1.26733,0.00897156,0.0478316,797,547,-6.74743,20.6069
-420,477,-6.79126,-21.3683,0.000349413,0.0101509,-0.00416688,0.0116829,-0.00118259,-1.21847,0.00821121,0.0378757,804,547,-6.79129,21.3683
-413,477,-6.79663,-22.5446,0.000525635,0.00864218,-0.00412283,0.010369,-0.00120118,-1.17415,0.00734587,0.022192,811,547,-6.7966,22.5446
-406,477,-6.91205,-23.5351,0.000631731,0.00714951,-0.00378796,0.00888752,-0.00110628,-1.14063,0.0063261,0.0117162,818,547,-6.91202,23.5351
-399,477,-6.96289,-24.4271,0.000719024,0.00571632,-0.0033228,0.0073751,-0.000939757,-1.10778,0.00525805,0.020689,825,547,-6.96288,24.4271
-392,477,-7.0321,-25.3258,0.000922759,0.00435754,-0.00285635,0.00597304,-0.000692744,-1.05607,0.00423189,0.0198666,832,547,-7.0321,25.3258
-385,477,-7.07764,-26.2067,0.00119497,0.00309822,-0.00235282,0.00468458,-0.000391391,-0.977571,0.00326135,0.0159419,839,547,-7.07763,26.2067
-378,477,-7.11554,-27.0936,0.00142256,0.00180604,-0.00173789,0.00336273,-0.000134142,-0.84034,0.00228785,0.0138683,846,547,-7.11551,27.0936
-371,477,-7.1734,-27.935,0.00162573,0.000513981,-0.00110812,0.00230958,-0.000169876,-0.552921,0.00159936,0.0134921,853,547,-7.17338,27.935
-364,477,-7.22638,-28.7805,0.00178269,-0.000778474,-0.000406629,0.0018457,-0.000841483,-0.153732,0.00158715,0.0138276,860,547,-7.22641,28.7804
-357,477,-7.29852,-29.675,0.00190381,-0.00192289,0.000283554,0.00192471,-0.00194378,0.0735635,0.00223348,0.0117044,867,547,-7.29851,29.675
-350,477,-7.35419,-30.55,0.00200662,-0.00306844,0.000944697,0.00217677,-0.00323858,0.178196,0.00314653,0.0105174,874,547,-7.35416,30.55
-343,477,-7.30054,-31.4341,0.00196689,-0.00407471,0.00162176,0.0023747,-0.00448251,0.246351,0.00402087,0.0204292,881,547,-7.30056,31.4341
-336,477,-7.25842,-32.2962,0.00174216,-0.00525525,0.00240374,0.00248832,-0.00600141,0.300987,0.0050395,0.0421605,888,547,-7.25841,32.2962
-329,477,-7.30426,-33.1227,0,0,0,0,0,0,0,-1,895,547,-7.30424,33.1227
-322,477,-5.91638,-27.4468,0,0,0,0,0,0,0,-1,902,547,-5.91639,27.4468
-315,477,-1.67358,-9.15253,0,0,0,0,0,0,0,-1,909,547,-1.67356,9.15253
-308,477,-1.30127,-6.55188,0,0,0,0,0,0,0,-1,916,547,-1.30128,6.55185
-301,477,-1.21185,-6.28351,0,0,0,0,0,0,0,-1,923,547,-1.21184,6.28352
-294,477,-0.352905,3.27142,0,0,0,0,0,0,0,-1,930,547,-0.35292,-3.27144
-287,477,3.54364,2.15399,0,0,0,0,0,0,0,-1,937,547,3.54362,-2.15396
-280,477,1.97308,-0.954163,0,0,0,0,0,0,0,-1,944,547,1.9731,0.954178
-273,477,2.11621,-3.76709,0,0,0,0,0,0,0,-1,951,547,2.11619,3.76706
-266,477,2.04669,-3.42389,0,0,0,0,0,0,0,-1,958,547,2.04671,3.42391
-259,477,-1.33478,-3.41205,0,0,0,0,0,0,0,-1,965,547,-1.3348,3.41206
-252,477,0.597168,-5.32922,0,0,0,0,0,0,0,-1,972,547,0.597144,5.32924
-245,477,8.2309,-8.48492,0,0,0,0,0,0,0,-1,979,547,8.23091,8.48494
-238,477,6.60938,-5.64063,0,0,0,0,0,0,0,-1,986,547,6.60938,5.64063
-231,477,4.71716,-2.52484,0,0,0,0,0,0,0,-1,993,547,4.71716,2.52483
-224,477,0,0,0,0,0,0,0,0,0,-1,1000,547,0,0
-217,477,0,0,0,0,0,0,0,0,0,-1,1007,547,0,0
-210,477,0,0,0,0,0,0,0,0,0,-1,1014,547,0,0
-203,477,0,0,0,0,0,0,0,0,0,-1,1021,547,0,0
-196,477,0,0,0,0,0,0,0,0,0,-1,1028,547,0,0
-189,477,0,0,0,0,0,0,0,0,0,-1,1035,547,0,0
-182,477,0,0,0,0,0,0,0,0,0,-1,1042,547,0,0
-175,477,0,0,0,0,0,0,0,0,0,-1,1049,547,0,0
-168,477,0,0,0,0,0,0,0,0,0,-1,1056,547,0,0
-161,477,0,0,0,0,0,0,0,0,0,-1,1063,547,0,0
-154,477,0,0,0,0,0,0,0,0,0,-1,1070,547,0,0
-147,477,0,0,0,0,0,0,0,0,0,-1,1077,547,0,0
-140,477,0,0,0,0,0,0,0,0,0,-1,1084,547,0,0
-133,477,0,0,0,0,0,0,0,0,0,-1,1091,547,0,0
-126,477,0,0,0,0,0,0,0,0,0,-1,1098,547,0,0
-119,477,0,0,0,0,0,0,0,0,0,-1,1105,547,0,0
-112,477,0,0,0,0,0,0,0,0,0,-1,1112,547,0,0
-105,477,0,0,0,0,0,0,0,0,0,-1,1119,547,0,0
-98,477,0,0,0,0,0,0,0,0,0,-1,1126,547,0,0
-91,477,0,0,0,0,0,0,0,0,0,-1,1133,547,0,0
-84,477,0,0,0,0,0,0,0,0,0,-1,1140,547,0,0
-77,477,0,0,0,0,0,0,0,0,0,-1,1147,547,0,0
-70,477,0,0,0,0,0,0,0,0,0,-1,1154,547,0,0
-63,477,0,0,0,0,0,0,0,0,0,-1,1161,547,0,0
-56,477,0,0,0,0,0,0,0,0,0,-1,1168,547,0,0
-49,477,0,0,0,0,0,0,0,0,0,-1,1175,547,0,0
-42,477,0,0,0,0,0,0,0,0,0,-1,1182,547,0,0
-35,477,0,0,0,0,0,0,0,0,0,-1,1189,547,0,0
-28,477,0,0,0,0,0,0,0,0,0,-1,1196,547,0,0
-21,477,0,0,0,0,0,0,0,0,0,-1,1203,547,0,0
-14,477,0,0,0,0,0,0,0,0,0,-1,1210,547,0,0
-7,477,0,0,0,0,0,0,0,0,0,-1,1217,547,0,0
0,477,0,0,0,0,0,0,0,0,0,-1,1224,547,0,0
7,477,0,0,0,0,0,0,0,0,0,-1,1231,547,0,0
14,477,0,0,0,0,0,0,0,0,0,-1,1238,547,0,0
21,477,0,0,0,0,0,0,0,0,0,-1,1245,547,0,0
28,477,0,0,0,0,0,0,0,0,0,-1,1252,547,0,0
35,477,0,0,0,0,0,0,0,0,0,-1,1259,547,0,0
42,477,0,0,0,0,0,0,0,0,0,-1,1266,547,0,0
49,477,0,0,0,0,0,0,0,0,0,-1,1273,547,0,0
56,477,0,0,0,0,0,0,0,0,0,-1,1280,547,0,0
63,477,0,0,0,0,0,0,0,0,0,-1,1287,547,0,0
70,477,0,0,0,0,0,0,0,0,0,-1,1294,547,0,0
77,477,0,0,0,0,0,0,0,0,0,-1,1301,547,0,0
84,477,0,0,0,0,0,0,0,0,0,-1,1308,547,0,0
91,477,0,0,0,0,0,0,0,0,0,-1,1315,547,0,0
98,477,0,0,0,0,0,0,0,0,0,-1,1322,547,0,0
105,477,0,0,0,0,0,0,0,0,0,-1,1329,547,0,0
112,477,0,0,0,0,0,0,0,0,0,-1,1336,547,0,0
119,477,0,0,0,0,0,0,0,0,0,-1,1343,547,0,0
126,477,0,0,0,0,0,0,0,0,0,-1,1350,547,0,0
133,477,0,0,0,0,0,0,0,0,0,-1,1357,547,0,0
140,477,0,0,0,0,0,0,0,0,0,-1,1364,547,0,0
147,477,0,0,0,0,0,0,0,0,0,-1,1371,547,0,0
154,477,0,0,0,0,0,0,0,0,0,-1,1378,547,0,0
161,477,0,0,0,0,0,0,0,0,0,-1,1385,547,0,0
168,477,0,0,0,0,0,0,0,0,0,-1,1392,547,0,0
175,477,0,0,0,0,0,0,0,0,0,-1,1399,547,0,0
182,477,0,0,0,0,0,0,0,0,0,-1,1406,547,0,0
189,477,0,0,0,0,0,0,0,0,0,-1,1413,547,0,0
196,477,0,0,0,0,0,0,0,0,0,-1,1420,547,0,0
203,477,0,0,0,0,0,0,0,0,0,-1,1427,547,0,0
210,477,0,0,0,0,0,0,0,0,0,-1,1434,547,0,0
217,477,0,0,0,0,0,0,0,0,0,-1,1441,547,0,0
224,477,0,0,0,0,0,0,0,0,0,-1,1448,547,0,0
231,477,0,0,0,0,0,0,0,0,0,-1,1455,547,0,0
238,477,0,0,0,0,0,0,0,0,0,-1,1462,547,0,0
245,477,0,0,0,0,0,0,0,0,0,-1,1469,547,0,0
252,477,0,0,0,0,0,0,0,0,0,-1,1476,547,0,0
259,477,0,0,0,0,0,0,0,0,0,-1,1483,547,0,0
266,477,0,0,0,0,0,0,0,0,0,-1,1490,547,0,0
273,477,0,0,0,0,0,0,0,0,0,-1,1497,547,0,0
280,477,0,0,0,0,0,0,0,0,0,-1,1504,547,0,0
287,477,0,0,0,0,0,0,0,0,0,-1,1511,547,0,0
294,477,0,0,0,0,0,0,0,0,0,-1,1518,547,0,0
301,477,0,0,0,0,0,0,0,0,0,-1,1525,547,0,0
308,477,0,0,0,0,0,0,0,0,0,-1,1532,547,0,0
315,477,0,0,0,0,0,0,0,0,0,-1,1539,547,0,0
322,477,0,0,0,0,0,0,0,0,0,-1,1546,547,0,0
329,477,0,0,0,0,0,0,0,0,0,-1,1553,547,0,0
336,477,0,0,0,0,0,0,0,0,0,-1,1560,547,0,0
343,477,0,0,0,0,0,0,0,0,0,-1,1567,547,0,0
350,477,1.7699,-3.32275,0,0,0,0,0,0,0,-1,1574,547,1.7699,3.32272
357,477,3.073,-4.83313,0,0,0,0,0,0,0,-1,1581,547,3.07303,4.83316
364,477,4.30127,-4.22864,0,0,0,0,0,0,0,-1,1588,547,4.30125,4.22865
371,477,4.57703,0.283264,0,0,0,0,0,0,0,-1,1595,547,4.57706,-0.283262
378,477,8.57947,1.05969,0,0,0,0,0,0,0,-1,1602,547,8.5795,-1.05972
385,477,12.3726,2.02356,0,0,0,0,0,0,0,-1,1609,547,12.3725,-2.02355
392,477,16.4678,2.76843,0,0,0,0,0,0,0,-1,1616,547,16.4678,-2.76845
399,477,8.00037,-2.29523,0,0,0,0,0,0,0,-1,1623,547,8.00031,2.2952
406,477,4.82495,2.7475,0,0,0,0,0,0,0,-1,1630,547,4.825,-2.74752
413,477,4.88171,-0.336426,0,0,0,0,0,0,0,-1,1637,547,4.88169,0.336398
420,477,3.34875,0.102722,0,0,0,0,0,0,0,-1,1644,547,3.34871,-0.1027
427,477,1.66772,-0.373108,0,0,0,0,0,0,0,-1,1651,547,1.66768,0.373104
434,477,3.76978,-2.30798,0,0,0,0,0,0,0,-1,1658,547,3.76974,2.30801
441,477,4.05444,-2.80402,0,0,0,0,0,0,0,-1,1665,547,4.05444,2.804
448,477,10.4247,-11.7421,0,0,0,0,0,0,0,-1,1672,547,10.4247,11.7421
455,477,13.3054,-16.8109,0,0,0,0,0,0,0,-1,1679,547,13.3054,16.8109
462,477,23.1848,-31.976,0,0,0,0,0,0,0,-1,1686,547,23.1848,31.9759
469,477,23.2109,-30.9604,0,0,0,0,0,0,0,-1,1693,547,23.211,30.9605
476,477,23.1211,-30.099,0.000828663,5.05032e-06,-0.00112668,0.00161643,-0.00078272,-0.610188,0.00141275,0.029544,1700,547,23.1211,30.099
483,477,23.0817,-29.2064,0.000950613,0.000322647,-0.0005381,0.00125964,1.36234e-05,-0.521298,0.000835254,0.0146862,1707,547,23.0817,29.2064
490,477,23.0131,-28.3767,0.000967213,0.000713962,-8.39942e-05,0.000992538,0.000688637,-0.292843,0.000587217,0.0138936,1714,547,23.0131,28.3767
497,477,22.9595,-27.4772,0.00106865,0.00127291,0.0005225,0.00170317,0.000638391,0.881916,0.000993543,0.0139498,1721,547,22.9594,27.4772
504,477,22.9103,-26.5911,0.00116226,0.00137345,0.000921865,0.00219575,0.00033996,0.842422,0.0013647,0.0185823,1728,547,22.9103,26.5911
511,477,22.9258,-25.735,0.00112615,0.00154607,0.00122033,0.00257437,9.78467e-05,0.870589,0.00168458,0.0232242,1735,547,22.9258,25.7351
518,477,22.859,-24.8428,0.000928748,0.00177268,0.00141467,0.00282698,-0.00012555,0.930336,0.00192787,0.0212073,1742,547,22.859,24.8428
525,477,22.7422,-23.9175,0.000721918,0.00201428,0.00156548,0.0030617,-0.000325503,0.98113,0.00215783,0.0188542,1749,547,22.7422,23.9175
532,477,22.6503,-23.0222,0.000462551,0.00239188,0.001709,0.00338968,-0.000535245,1.04234,0.00245771,0.0204867,1756,547,22.6502,23.0222
539,477,22.6232,-22.0374,9.86402e-05,0.00290039,0.00179515,0.00377658,-0.000777549,1.11672,0.00281295,0.0203823,1763,547,22.6231,22.0374
546,477,22.4998,-21.2017,-0.000279681,0.00367447,0.00191094,0.00444704,-0.00105225,1.1866,0.00337064,0.0437826,1770,547,22.4998,21.2017
553,477,22.5403,-20.1802,0,0,0,0,0,0,0,-1,1777,547,22.5403,20.1802
560,477,19.4597,-16.1135,0,0,0,0,0,0,0,-1,1784,547,19.4597,16.1135
567,477,13.9529,-8.70972,0,0,0,0,0,0,0,-1,1791,547,13.9529,8.7097
574,477,6.82593,-0.916992,0,0,0,0,0,0,0,-1,1798,547,6.82598,0.916977
581,477,9.29321,-0.557007,0,0,0,0,0,0,0,-1,1805,547,9.29324,0.55703
588,477,9.75195,0.422729,0,0,0,0,0,0,0,-1,1812,547,9.75198,-0.42273
595,477,9.89172,1.21326,0,0,0,0,0,0,0,-1,1819,547,9.89174,-1.21328
602,477,6.5271,-0.964417,0,0,0,0,0,0,0,-1,1826,547,6.52706,0.964427
609,477,0,0,0,0,0,0,0,0,0,-1,1833,547,0,0
616,477,0,0,0,0,0,0,0,0,0,-1,1840,547,0,0
623,477,0,0,0,0,0,0,0,0,0,-1,1847,547,0,0
630,477,0,0,0,0,0,0,0,0,0,-1,1854,547,0,0
637,477,0,0,0,0,0,0,0,0,0,-1,1861,547,0,0
644,477,0,0,0,0,0,0,0,0,0,-1,1868,547,0,0
651,477,0,0,0,0,0,0,0,0,0,-1,1875,547,0,0
658,477,0,0,0,0,0,0,0,0,0,-1,1882,547,0,0
665,477,0,0,0,0,0,0,0,0,0,-1,1889,547,0,0
672,477,0,0,0,0,0,0,0,0,0,-1,1896,547,0,0
679,477,0,0,0,0,0,0,0,0,0,-1,1903,547,0,0
686,477,0,0,0,0,0,0,0,0,0,-1,1910,547,0,0
693,477,0,0,0,0,0,0,0,0,0,-1,1917,547,0,0
700,477,0,0,0,0,0,0,0,0,0,-1,1924,547,0,0
707,477,0,0,0,0,0,0,0,0,0,-1,1931,547,0,0
714,477,0,0,0,0,0,0,0,0,0,-1,1938,547,0,0
721,477,0,0,0,0,0,0,0,0,0,-1,1945,547,0,0
728,477,0,0,0,0,0,0,0,0,0,-1,1952,547,0,0
735,477,0,0,0,0,0,0,0,0,0,-1,1959,547,0,0
742,477,0,0,0,0,0,0,0,0,0,-1,1966,547,0,0
749,477,0,0,0,0,0,0,0,0,0,-1,1973,547,0,0
756,477,0,0,0,0,0,0,0,0,0,-1,1980,547,0,0
763,477,0,0,0,0,0,0,0,0,0,-1,1987,547,0,0
770,477,0,0,0,0,0,0,0,0,0,-1,1994,547,0,0
777,477,0,0,0,0,0,0,0,0,0,-1,2001,547,0,0
784,477,0,0,0,0,0,0,0,0,0,-1,2008,547,0,0
791,477,0,0,0,0,0,0,0,0,0,-1,2015,547,0,0
798,477,0,0,0,0,0,0,0,0,0,-1,2022,547,0,0
805,477,0,0,0,0,0,0,0,0,0,-1,2029,547,0,0
812,477,0,0,0,0,0,0,0,0,0,-1,2036,547,0,0
-700,470,0,0,0,0,0,0,0,0,0,-1,524,554,0,0
-693,470,0,0,0,0,0,0,0,0,0,-1,531,554,0,0
-686,470,0,0,0,0,0,0,0,0,0,-1,538,554,0,0
-679,470,0,0,0,0,0,0,0,0,0,-1,545,554,0,0
-672,470,0,0,0,0,0,0,0,0,0,-1,552,554,0,0
-665,470,0,0,0,0,0,0,0,0,0,-1,559,554,0,0
-658,470,0,0,0,0,0,0,0,0,0,-1,566,554,0,0
-651,470,0,0,0,0,0,0,0,0,0,-1,573,554,0,0
-644,470,0,0,0,0,0,0,0,0,0,-1,580,554,0,0
-637,470,0,0,0,0,0,0,0,0,0,-1,587,554,0,0
-630,470,0,0,0,0,0,0,0,0,0,-1,594,554,0,0
-623,470,0,0,0,0,0,0,0,0,0,-1,601,554,0,0
-616,470,0,0,0,0,0,0,0,0,0,-1,608,554,0,0
-609,470,0,0,0,0,0,0,0,0,0,-1,615,554,0,0
-602,470,0,0,0,0,0,0,0,0,0,-1,622,554,0,0
-595,470,0,0,0,0,0,0,0,0,0,-1,629,554,0,0
-588,470,0,0,0,0,0,0,0,0,0,-1,636,554,0,0
-581,470,0,0,0,0,0,0,0,0,0,-1,643,554,0,0
-574,470,0,0,0,0,0,0,0,0,0,-1,650,554,0,0
-567,470,0,0,0,0,0,0,0,0,0,-1,657,554,0,0
-560,470,0,0,0,0,0,0,0,0,0,-1,664,554,0,0
-553,470,0,0,0,0,0,0,0,0,0,-1,671,554,0,0
-546,470,0,0,0,0,0,0,0,0,0,-1,678,554,0,0
-539,470,0,0,0,0,0,0,0,0,0,-1,685,554,0,0
-532,470,0,0,0,0,0,0,0,0,0,-1,692,554,0,0
-525,470,0,0,0,0,0,0,0,0,0,-1,699,554,0,0
-518,470,0,0,0,0,0,0,0,0,0,-1,706,554,0,0
-511,470,0,0,0,0,0,0,0,0,0,-1,713,554,0,0
-504,470,0,0,0,0,0,0,0,0,0,-1,720,554,0,0
-497,470,0,0,0,0,0,0,0,0,0,-1,727,554,0,0
-490,470,-9.13263,-1.03125,0,0,0,0,0,0,0,-1,734,554,-9.1326,1.03127
-483,470,-7.68677,-1.03955,0,0,0,0,0,0,0,-1,741,554,-7.68678,1.03958
-476,470,-6.17969,-1.03394,0,0,0,0,0,0,0,-1,748,554,-6.17971,1.03395
-469,470,-6.23016,-0.651855,0,0,0,0,0,0,0,-1,755,554,-6.23014,0.651829
-462,470,-4.87915,-1.03705,0,0,0,0,0,0,0,-1,762,554,-4.87914,1.03702
-455,470,-4.14777,-1.37079,0,0,0,0,0,0,0,-1,769,554,-4.14779,1.37078
-448,470,-2.9314,-5.74518,0,0,0,0,0,0,0,-1,776,554,-2.93137,5.74518
-441,470,-7.10535,-17.8693,0,0,0,0,0,0,0,-1,783,554,-7.10533,17.8693
-434,470,-7.59131,-19.7926,0,0,0,0,0,0,0,-1,790,554,-7.59129,19.7926
-427,470,-7.65698,-20.7078,0.000178981,0.00877018,-0.00288524,0.00964921,-0.000700048,-1.27507,0.0066784,0.0278248,797,554,-7.657,20.7078
-420,470,-7.6673,-21.6456,0.000308146,0.00756904,-0.00298207,0.00863678,-0.000759589,-1.22697,0.00602702,0.0187758,804,554,-7.66728,21.6456
-413,470,-7.72864,-22.5734,0.000404945,0.00632745,-0.0028678,0.00748849,-0.000756095,-1.18611,0.0052625,0.015538,811,554,-7.72864,22.5734
-406,470,-7.76794,-23.4774,0.000433998,0.00504665,-0.00250445,0.00614494,-0.000664288,-1.15752,0.00433505,0.0135861,818,554,-7.76795,23.4774
-399,470,-7.81744,-24.3768,0.000512366,0.00384612,-0.00207807,0.00484324,-0.000484749,-1.12342,0.00340194,0.0172001,825,554,-7.81746,24.3768
-392,470,-7.86078,-25.2516,0.000724793,0.00268591,-0.00166633,0.00363878,-0.00022808,-1.05134,0.00250534,0.015848,832,554,-7.86079,25.2516
-385,470,-7.94763,-26.1323,0.00103703,0.00161875,-0.00125569,0.00261682,3.89575e-05,-0.899208,0.00173171,0.0120718,839,554,-7.94763,26.1323
-378,470,-7.99054,-27.0314,0.00133954,0.000502789,-0.000752776,0.00178239,5.99389e-05,-0.531764,0.00116879,0.0163825,846,554,-7.99056,27.0314
-371,470,-8.03912,-27.896,0.00168235,-0.000583198,-0.000256811,0.0017111,-0.000611944,-0.111471,0.00139035,0.0140817,853,554,-8.0391,27.896
-364,470,-8.09045,-28.7252,0.00203145,-0.00162676,0.000254445,0.00204906,-0.00164438,0.0691108,0.00213667,0.014843,860,554,-8.09046,28.7252
-357,470,-8.17273,-29.5809,0.00237651,-0.00260961,0.000725186,0.00247984,-0.00271294,0.141536,0.00299906,0.0149848,867,554,-8.17275,29.5809
-350,470,-8.19666,-30.4941,0.00273078,-0.00368013,0.00116263,0.00293512,-0.00388446,0.173973,0.00394998,0.0130112,874,554,-8.19666,30.4941
-343,470,-8.11859,-31.3973,0,0,0,0,0,0,0,-1,881,554,-8.11857,31.3973
-336,470,-7.90021,-32.3217,0,0,0,0,0,0,0,-1,888,554,-7.90023,32.3216
-329,470,-2.78516,-12.3594,0,0,0,0,0,0,0,-1,895,554,-2.78517,12.3594
-322,470,-2.30829,-11.4527,0,0,0,0,0,0,0,-1,902,554,-2.30827,11.4527
-315,470,-1.04797,-8.29529,0,0,0,0,0,0,0,-1,909,554,-1.04797,8.29526
-308,470,-1.39368,-6.68152,0,0,0,0,0,0,0,-1,916,554,-1.39369,6.68149
-301,470,-0.0340576,3.34888,0,0,0,0,0,0,0,-1,923,554,-0.0340496,-3.3489
-294,470,-1.18378,3.22266,0,0,0,0,0,0,0,-1,930,554,-1.18376,-3.22268
-287,470,-2.15454,3.2204,0,0,0,0,0,0,0,-1,937,554,-2.15452,-3.22037
-280,470,-3.00537,3.099,0,0,0,0,0,0,0,-1,944,554,-3.00536,-3.09898
-273,470,-12.3932,3.65009,0,0,0,0,0,0,0,-1,951,554,-12.3932,-3.65011
-266,470,-11.5706,1.16028,0,0,0,0,0,0,0,-1,958,554,-11.5706,-1.16031
-259,470,-7.50415,-2.77167,0,0,0,0,0,0,0,-1,965,554,-7.50413,2.7717
-252,470,-0.371155,-5.87823,0,0,0,0,0,0,0,-1,972,554,-0.37114,5.87821
-245,470,1.33221,-6.81122,0,0,0,0,0,0,0,-1,979,554,1.33223,6.8112
-238,470,0,0,0,0,0,0,0,0,0,-1,986,554,0,0
-231,470,0,0,0,0,0,0,0,0,0,-1,993,554,0,0
-224,470,0,0,0,0,0,0,0,0,0,-1,1000,554,0,0
-217,470,0,0,0,0,0,0,0,0,0,-1,1007,554,0,0
-210,470,0,0,0,0,0,0,0,0,0,-1,1014,554,0,0
-203,470,0,0,0,0,0,0,0,0,0,-1,1021,554,0,0
-196,470,0,0,0,0,0,0,0,0,0,-1,1028,554,0,0
-189,470,0,0,0,0,0,0,0,0,0,-1,1035,554,0,0
-182,470,0,0,0,0,0,0,0,0,0,-1,1042,554,0,0
-175,470,0,0,0,0,0,0,0,0,0,-1,1049,554,0,0
-168,470,0,0,0,0,0,0,0,0,0,-1,1056,554,0,0
-161,470,0,0,0,0,0,0,0,0,0,-1,1063,554,0,0
-154,470,0,0,0,0,0,0,0,0,0,-1,1070,554,0,0
-147,470,0,0,0,0,0,0,0,0,0,-1,1077,554,0,0
-140,470,0,0,0,0,0,0,0,0,0,-1,1084,554,0,0
-133,470,0,0,0,0,0,0,0,0,0,-1,1091,554,0,0
-126,470,0,0,0,0,0,0,0,0,0,-1,1098,554,0,0
-119,470,0,0,0,0,0,0,0,0,0,-1,1105,554,0,0
-112,470,0,0,0,0,0,0,0,0,0,-1,1112,554,0,0
-105,470,0,0,0,0,0,0,0,0,0,-1,1119,554,0,0
-98,470,0,0,0,0,0,0,0,0,0,-1,1126,554,0,0
-91,470,0,0,0,0,0,0,0,0,0,-1,1133,554,0,0
-84,470,0,0,0,0,0,0,0,0,0,-1,1140,554,0,0
-77,470,0,0,0,0,0,0,0,0,0,-1,1147,554,0,0
-70,470,0,0,0,0,0,0,0,0,0,-1,1154,554,0,0
-63,470,0,0,0,0,0,0,0,0,0,-1,1161,554,0,0
-56,470,0,0,0,0,0,0,0,0,0,-1,1168,554,0,0
-49,470,0,0,0,0,0,0,0,0,0,-1,1175,554,0,0
-42,470,0,0,0,0,0,0,0,0,0,-1,1182,554,0,0
-35,470,0,0,0,0,0,0,0,0,0,-1,1189,554,0,0
-28,470,0,0,0,0,0,0,0,0,0,-1,1196,554,0,0
-21,470,0,0,0,0,0,0,0,0,0,-1,1203,554,0,0
-14,470,0,0,0,0,0,0,0,0,0,-1,1210,554,0,0
-7,470,0,0,0,0,0,0,0,0,0,-1,1217,554,0,0
0,470,0,0,0,0,0,0,0,0,0,-1,1224,554,0,0
7,470,0,0,0,0,0,0,0,0,0,-1,1231,554,0,0
14,470,0,0,0,0,0,0,0,0,0,-1,1238,554,0,0
21,470,0,0,0,0,0,0,0,0,0,-1,1245,554,0,0
28,470,0,0,0,0,0,0,0,0,0,-1,1252,554,0,0
35,470,0,0,0,0,0,0,0,0,0,-1,1259,554,0,0
42,470,0,0,0,0,0,0,0,0,0,-1,1266,554,0,0
49,470,0,0,0,0,0,0,0,0,0,-1,1273,554,0,0
56,470,0,0,0,0,0,0,0,0,0,-1,1280,554,0,0
63,470,0,0,0,0,0,0,0,0,0,-1,1287,554,0,0
70,470,0,0,0,0,0,0,0,0,0,-1,1294,554,0,0
77,470,0,0,0,0,0,0,0,0,0,-1,1301,554,0,0
84,470,0,0,0,0,0,0,0,0,0,-1,1308,554,0,0
91,470,0,0,0,0,0,0,0,0,0,-1,1315,554,0,0
98,470,0,0,0,0,0,0,0,0,0,-1,1322,554,0,0
105,470,0,0,0,0,0,0,0,0,0,-1,1329,554,0,0
112,470,0,0,0,0,0,0,0,0,0,-1,1336,554,0,0
119,470,0,0,0,0,0,0,0,0,0,-1,1343,554,0,0
126,470,0,0,0,0,0,0,0,0,0,-1,1350,554,0,0
133,470,0,0,0,0,0,0,0,0,0,-1,1357,554,0,0
140,470,0,0,0,0,0,0,0,0,0,-1,1364,554,0,0
147,470,0,0,0,0,0,0,0,0,0,-1,1371,554,0,0
154,470,0,0,0,0,0,0,0,0,0,-1,1378,554,0,0
161,470,0,0,0,0,0,0,0,0,0,-1,1385,554,0,0
168,470,0,0,0,0,0,0,0,0,0,-1,1392,554,0,0
175,470,0,0,0,0,0,0,0,0,0,-1,1399,554,0,0
182,470,0,0,0,0,0,0,0,0,0,-1,1406,554,0,0
189,470,0,0,0,0,0,0,0,0,0,-1,1413,554,0,0
196,470,0,0,0,0,0,0,0,0,0,-1,1420,554,0,0
203,470,0,0,0,0,0,0,0,0,0,-1,1427,554,0,0
210,470,0,0,0,0,0,0,0,0,0,-1,1434,554,0,0
217,470,0,0,0,0,0,0,0,0,0,-1,1441,554,0,0
224,470,0,0,0,0,0,0,0,0,0,-1,1448,554,0,0
231,470,0,0,0,0,0,0,0,0,0,-1,1455,554,0,0
238,470,0,0,0,0,0,0,0,0,0,-1,1462,554,0,0
245,470,0,0,0,0,0,0,0,0,0,-1,1469,554,0,0
252,470,0,0,0,0,0,0,0,0,0,-1,1476,554,0,0
259,470,0,0,0,0,0,0,0,0,0,-1,1483,554,0,0
266,470,0,0,0,0,0,0,0,0,0,-1,1490,554,0,0
273,470,0,0,0,0,0,0,0,0,0,-1,1497,554,0,0
280,470,0,0,0,0,0,0,0,0,0,-1,1504,554,0,0
287,470,0,0,0,0,0,0,0,0,0,-1,1511,554,0,0
294,470,0,0,0,0,0,0,0,0,0,-1,1518,554,0,0
301,470,0,0,0,0,0,0,0,0,0,-1,1525,554,0,0
308,470,0,0,0,0,0,0,0,0,0,-1,1532,554,0,0
315,470,0,0,0,0,0,0,0,0,0,-1,1539,554,0,0
322,470,0,0,0,0,0,0,0,0,0,-1,1546,554,0,0
329,470,0,0,0,0,0,0,0,0,0,-1,1553,554,0,0
336,470,0,0,0,0,0,0,0,0,0,-1,1560,554,0,0
343,470,0,0,0,0,0,0,0,0,0,-1,1567,554,0,0
350,470,0,0,0,0,0,0,0,0,0,-1,1574,554,0,0
357,470,0,0,0,0,0,0,0,0,0,-1,1581,554,0,0
364,470,1.33423,0.293335,0,0,0,0,0,0,0,-1,1588,554,1.33422,-0.293348
371,470,2.22498,-0.0305176,0,0,0,0,0,0,0,-1,1595,554,2.22494,0.0305046
378,470,6.27051,0.710083,0,0,0,0,0,0,0,-1,1602,554,6.27054,-0.710093
385,470,10.3657,1.47296,0,0,0,0,0,0,0,-1,1609,554,10.3657,-1.47299
392,470,15.3881,3.01935,0,0,0,0,0,0,0,-1,1616,554,15.388,-3.01937
399,470,18.4479,2.93793,0,0,0,0,0,0,0,-1,1623,554,18.4479,-2.93792
406,470,15.1896,1.36676,0,0,0,0,0,0,0,-1,1630,554,15.1896,-1.36679
413,470,6.55383,1.99207,0,0,0,0,0,0,0,-1,1637,554,6.5538,-1.99208
420,470,4.47095,0.845703,0,0,0,0,0,0,0,-1,1644,554,4.47098,-0.845718
427,470,3.51038,1.19684,0,0,0,0,0,0,0,-1,1651,554,3.51039,-1.19684
434,470,3.31775,-1.37427,0,0,0,0,0,0,0,-1,1658,554,3.31781,1.37426
441,470,2.55457,-2.05902,0,0,0,0,0,0,0,-1,1665,554,2.55461,2.05904
448,470,3.27258,-2.64032,0,0,0,0,0,0,0,-1,1672,554,3.27257,2.64029
455,470,10.3658,-9.82233,0,0,0,0,0,0,0,-1,1679,554,10.3659,9.82233
462,470,11.0651,-11.9958,0,0,0,0,0,0,0,-1,1686,554,11.0651,11.9958
469,470,15.4242,-19.0521,0,0,0,0,0,0,0,-1,1693,554,15.4242,19.0521
476,470,23.9641,-30.1561,0,0,0,0,0,0,0,-1,1700,554,23.9641,30.1561
483,470,23.9834,-29.1804,0.00112399,0.000272564,-0.000595327,0.00143016,-3.36005e-05,-0.475006,0.000964834,0.0213992,1707,554,23.9834,29.1804
490,470,23.8971,-28.3185,0.00115961,0.000625438,-0.000159201,0.00120346,0.00058159,-0.268761,0.000694948,0.0133158,1714,554,23.8971,28.3185
497,470,23.8508,-27.4315,0.00125503,0.00119927,0.000473195,0.00170117,0.000753134,0.755971,0.000984315,0.0135027,1721,554,23.8508,27.4315
504,470,23.826,-26.5875,0.00128193,0.00122845,0.000838212,0.00209383,0.000416551,0.769451,0.00127983,0.0196814,1728,554,23.826,26.5875
511,470,23.8314,-25.6928,0.00119476,0.00130467,0.0010961,0.00234719,0.000152241,0.810447,0.0015166,0.0272593,1735,554,23.8315,25.6928
518,470,23.7977,-24.7987,0.000967148,0.00144618,0.00128062,0.00250949,-9.61588e-05,0.877846,0.00170595,0.0269548,1742,554,23.7978,24.7987
525,470,23.6814,-23.868,0.000718782,0.00161801,0.00140537,0.00264394,-0.000307145,0.940216,0.00187342,0.0167055,1749,554,23.6815,23.868
532,470,23.5693,-22.9055,0.000430273,0.00192309,0.00152003,0.00287008,-0.000516722,1.01363,0.00210686,0.0148494,1756,554,23.5694,22.9054
539,470,23.4972,-22.003,8.56358e-05,0.00236569,0.00160432,0.00319379,-0.000742461,1.0943,0.00241503,0.018408,1763,554,23.4971,22.003
546,470,23.4308,-21.1115,-0.00022734,0.00306295,0.00171319,0.00379299,-0.000957384,1.16797,0.00290094,0.0168993,1770,554,23.4307,21.1115
553,470,23.4407,-20.1851,-0.000453378,0.00396096,0.00189983,0.004666,-0.00115842,1.21544,0.00356019,0.0263766,1777,554,23.4407,20.1851
560,470,23.5088,-19.0513,0,0,0,0,0,0,0,-1,1784,554,23.5088,19.0513
567,470,23.351,-18.0048,0,0,0,0,0,0,0,-1,1791,554,23.351,18.0047
574,470,14.2793,-8.07147,0,0,0,0,0,0,0,-1,1798,554,14.2793,8.07147
581,470,8.24646,-4.06317,0,0,0,0,0,0,0,-1,1805,554,8.24648,4.06318
588,470,11.1803,1.74927,0,0,0,0,0,0,0,-1,1812,554,11.1803,-1.74926
595,470,4.72192,3.44116,0,0,0,0,0,0,0,-1,1819,554,4.72191,-3.44116
602,470,14.4307,2.76141,0,0,0,0,0,0,0,-1,1826,554,14.4306,-2.76139
609,470,20.9181,4.41058,0,0,0,0,0,0,0,-1,1833,554,20.9181,-4.4106
616,470,0,0,0,0,0,0,0,0,0,-1,1840,554,0,0
623,470,0,0,0,0,0,0,0,0,0,-1,1847,554,0,0
630,470,0,0,0,0,0,0,0,0,0,-1,1854,554,0,0
637,470,0,0,0,0,0,0,0,0,0,-1,1861,554,0,0
644,470,0,0,0,0,0,0,0,0,0,-1,1868,554,0,0
651,470,0,0,0,0,0,0,0,0,0,-1,1875,554,0,0
658,470,0,0,0,0,0,0,0,0,0,-1,1882,554,0,0
665,470,0,0,0,0,0,0,0,0,0,-1,1889,554,0,0
672,470,0,0,0,0,0,0,0,0,0,-1,1896,554,0,0
679,470,0,0,0,0,0,0,0,0,0,-1,1903,554,0,0
686,470,0,0,0,0,0,0,0,0,0,-1,1910,554,0,0
693,470,0,0,0,0,0,0,0,0,0,-1,1917,554,0,0
700,470,0,0,0,0,0,0,0,0,0,-1,1924,554,0,0
707,470,0,0,0,0,0,0,0,0,0,-1,1931,554,0,0
714,470,0,0,0,0,0,0,0,0,0,-1,1938,554,0,0
721,470,0,0,0,0,0,0,0,0,0,-1,1945,554,0,0
728,470,0,0,0,0,0,0,0,0,0,-1,1952,554,0,0
735,470,0,0,0,0,0,0,0,0,0,-1,1959,554,0,0
742,470,0,0,0,0,0,0,0,0,0,-1,1966,554,0,0
749,470,0,0,0,0,0,0,0,0,0,-1,1973,554,0,0
756,470,0,0,0,0,0,0,0,0,0,-1,1980,554,0,0
763,470,0,0,0,0,0,0,0,0,0,-1,1987,554,0,0
770,470,0,0,0,0,0,0,0,0,0,-1,1994,554,0,0
777,470,0,0,0,0,0,0,0,0,0,-1,2001,554,0,0
784,470,0,0,0,0,0,0,0,0,0,-1,2008,554,0,0
791,470,0,0,0,0,0,0,0,0,0,-1,2015,554,0,0
798,470,0,0,0,0,0,0,0,0,0,-1,2022,554,0,0
805,470,0,0,0,0,0,0,0,0,0,-1,2029,554,0,0
812,470,0,0,0,0,0,0,0,0,0,-1,2036,554,0,0
-700,463,0,0,0,0,0,0,0,0,0,-1,524,561,0,0
-693,463,0,0,0,0,0,0,0,0,0,-1,531,561,0,0
-686,463,0,0,0,0,0,0,0,0,0,-1,538,561,0,0
-679,463,0,0,0,0,0,0,0,0,0,-1,545,561,0,0
-672,463,0,0,0,0,0,0,0,0,0,-1,552,561,0,0
-665,463,0,0,0,0,0,0,0,0,0,-1,559,561,0,0
-658,463,0,0,0,0,0,0,0,0,0,-1,566,561,0,0
-651,463,0,0,0,0,0,0,0,0,0,-1,573,561,0,0
-644,463,0,0,0,0,0,0,0,0,0,-1,580,561,0,0
-637,463,0,0,0,0,0,0,0,0,0,-1,587,561,0,0
-630,463,0,0,0,0,0,0,0,0,0,-1,594,561,0,0
-623,463,0,0,0,0,0,0,0,0,0,-1,601,561,0,0
-616,463,0,0,0,0,0,0,0,0,0,-1,608,561,0,0
-609,463,0,0,0,0,0,0,0,0,0,-1,615,561,0,0
-602,463,0,0,0,0,0,0,0,0,0,-1,622,561,0,0
-595,463,0,0,0,0,0,0,0,0,0,-1,629,561,0,0
-588,463,0,0,0,0,0,0,0,0,0,-1,636,561,0,0
-581,463,0,0,0,0,0,0,0,0,0,-1,643,561,0,0
-574,463,0,0,0,0,0,0,0,0,0,-1,650,561,0,0
-567,463,0,0,0,0,0,0,0,0,0,-1,657,561,0,0
-560,463,0,0,0,0,0,0,0,0,0,-1,664,561,0,0
-553,463,0,0,0,0,0,0,0,0,0,-1,671,561,0,0
-546,463,0,0,0,0,0,0,0,0,0,-1,678,561,0,0
-539,463,0,0,0,0,0,0,0,0,0,-1,685,561,0,0
-532,463,0,0,0,0,0,0,0,0,0,-1,692,561,0,0
-525,463,0,0,0,0,0,0,0,0,0,-1,699,561,0,0
-518,463,0,0,0,0,0,0,0,0,0,-1,706,561,0,0
-511,463,0,0,0,0,0,0,0,0,0,-1,713,561,0,0
-504,463,0,0,0,0,0,0,0,0,0,-1,720,561,0,0
-497,463,-9.81451,-1.67126,0,0,0,0,0,0,0,-1,727,561,-9.81452,1.67127
-490,463,-8.57043,-1.58942,0,0,0,0,0,0,0,-1,734,561,-8.57045,1.58944
-483,463,-7.29224,-1.7226,0,0,0,0,0,0,0,-1,741,561,-7.29226,1.72261
-476,463,-5.77704,-1.7312,0,0,0,0,0,0,0,-1,748,561,-5.77703,1.73121
-469,463,-5.14545,-2.138,0,0,0,0,0,0,0,-1,755,561,-5.14546,2.13799
-462,463,-3.13672,-3.07977,0,0,0,0,0,0,0,-1,762,561,-3.13672,3.07974
-455,463,-2.91406,-5.61798,0,0,0,0,0,0,0,-1,769,561,-2.91406,5.61801
-448,463,-4.00177,-8.54681,0,0,0,0,0,0,0,-1,776,561,-4.00175,8.54683
-441,463,-8.57635,-18.563,0,0,0,0,0,0,0,-1,783,561,-8.57634,18.5631
-434,463,-8.4668,-19.7815,-0.000120668,0.0071017,-0.00168257,0.00747444,-0.000493411,-1.35278,0.00515531,0.0390143,790,561,-8.46681,19.7815
-427,463,-8.5108,-20.726,5.30531e-05,0.00628165,-0.00187904,0.00680461,-0.000469907,-1.29935,0.00470088,0.0122396,797,561,-8.5108,20.726
-420,463,-8.53992,-21.6219,0.000203509,0.00540616,-0.00197404,0.00607037,-0.000460701,-1.24622,0.00420889,0.0106789,804,561,-8.53993,21.6219
-413,463,-8.61304,-22.519,0.000298414,0.00444031,-0.00187451,0.00516268,-0.000423952,-1.20297,0.00359145,0.0112577,811,561,-8.61302,22.519
-406,463,-8.67102,-23.4231,0.000324873,0.00339751,-0.00155147,0.00404461,-0.000322232,-1.17564,0.00280998,0.011698,818,561,-8.67103,23.4231
-399,463,-8.71332,-24.3203,0.000453873,0.00243925,-0.00120981,0.00301151,-0.000118392,-1.12897,0.00204828,0.0124315,825,561,-8.71332,24.3203
-392,463,-8.78381,-25.1946,0.000732108,0.0014966,-0.00088809,0.00208121,0.000147496,-0.988622,0.00134102,0.0119155,832,561,-8.78381,25.1946
-385,463,-8.85474,-26.0952,0.00114505,0.000639934,-0.000599557,0.00154307,0.000241913,-0.586056,0.00095831,0.012537,839,561,-8.85476,26.0952
-378,463,-8.89368,-26.9786,0.00159399,-0.00026345,-0.000242637,0.00162516,-0.000294622,-0.127774,0.00119383,0.0131003,846,561,-8.89366,26.9786
-371,463,-8.92859,-27.8608,0.00216059,-0.00108739,8.40102e-05,0.00216276,-0.00108956,0.0258423,0.00191151,0.0127318,853,561,-8.92857,27.8608
-364,463,-8.96405,-28.6782,0.00279772,-0.0017943,0.000359341,0.00282567,-0.00182225,0.0776237,0.00270424,0.0152,860,561,-8.96406,28.6782
-357,463,-9.04828,-29.4904,0.00346368,-0.00253811,0.000566284,0.00351664,-0.00259107,0.0932559,0.00353976,0.0213652,867,561,-9.0483,29.4904
-350,463,-9.00323,-30.4467,0.00417051,-0.00353431,0.000761133,0.00424498,-0.00360878,0.0975305,0.00453933,0.0451279,874,561,-9.00323,30.4467
-343,463,-8.65375,-31.4287,0,0,0,0,0,0,0,-1,881,561,-8.65377,31.4287
-336,463,-2.94928,-12.2127,0,0,0,0,0,0,0,-1,888,561,-2.94925,12.2127
-329,463,-2.64307,-12.7037,0,0,0,0,0,0,0,-1,895,561,-2.64307,12.7038
-322,463,-1.82898,-9.11957,0,0,0,0,0,0,0,-1,902,561,-1.829,9.11957
-315,463,-0.944763,-5.96234,0,0,0,0,0,0,0,-1,909,561,-0.94479,5.96237
-308,463,-1.1535,-3.17889,0,0,0,0,0,0,0,-1,916,561,-1.15352,3.17889
-301,463,-1.50366,-3.15338,0,0,0,0,0,0,0,-1,923,561,-1.50364,3.15341
-294,463,-2.35889,-3.93463,0,0,0,0,0,0,0,-1,930,561,-2.35886,3.93465
-287,463,-2.80322,2.73999,0,0,0,0,0,0,0,-1,937,561,-2.80322,-2.74
-280,463,-12.864,5.25146,0,0,0,0,0,0,0,-1,944,561,-12.864,-5.25149
-273,463,-12.4598,3.39178,0,0,0,0,0,0,0,-1,951,561,-12.4598,-3.3918
-266,463,-8.78101,-3.7356,0,0,0,0,0,0,0,-1,958,561,-8.78098,3.73562
-259,463,-6.23285,-5.68842,0,0,0,0,0,0,0,-1,965,561,-6.23288,5.68843
-252,463,0,0,0,0,0,0,0,0,0,-1,972,561,0,0
-245,463,0,0,0,0,0,0,0,0,0,-1,979,561,0,0
-238,463,0,0,0,0,0,0,0,0,0,-1,986,561,0,0
-231,463,0,0,0,0,0,0,0,0,0,-1,993,561,0,0
-224,463,0,0,0,0,0,0,0,0,0,-1,1000,561,0,0
-217,463,0,0,0,0,0,0,0,0,0,-1,1007,561,0,0
-210,463,0,0,0,0,0,0,0,0,0,-1,1014,561,0,0
-203,463,0,0,0,0,0,0,0,0,0,-1,1021,561,0,0
-196,463,0,0,0,0,0,0,0,0,0,-1,1028,561,0,0
-189,463,0,0,0,0,0,0,0,0,0,-1,1035,561,0,0
-182,463,0,0,0,0,0,0,0,0,0,-1,1042,561,0,0
-175,463,0,0,0,0,0,0,0,0,0,-1,1049,561,0,0
-168,463,0,0,0,0,0,0,0,0,0,-1,1056,561,0,0
-161,463,0,0,0,0,0,0,0,0,0,-1,1063,561,0,0
-154,463,0,0,0,0,0,0,0,0,0,-1,1070,561,0,0
-147,463,0,0,0,0,0,0,0,0,0,-1,1077,561,0,0
-140,463,0,0,0,0,0,0,0,0,0,-1,1084,561,0,0
-133,463,0,0,0,0,0,0,0,0,0,-1,1091,561,0,0
-126,463,0,0,0,0,0,0,0,0,0,-1,1098,561,0,0
-119,463,0,0,0,0,0,0,0,0,0,-1,1105,561,0,0
-112,463,0,0,0,0,0,0,0,0,0,-1,1112,561,0,0
-105,463,0,0,0,0,0,0,0,0,0,-1,1119,561,0,0
-98,463,0,0,0,0,0,0,0,0,0,-1,1126,561,0,0
-91,463,0,0,0,0,0,0,0,0,0,-1,1133,561,0,0
-84,463,0,0,0,0,0,0,0,0,0,-1,1140,561,0,0
-77,463,0,0,0,0,0,0,0,0,0,-1,1147,561,0,0
-70,463,0,0,0,0,0,0,0,0,0,-1,1154,561,0,0
-63,463,0,0,0,0,0,0,0,0,0,-1,1161,561,0,0
-56,463,0,0,0,0,0,0,0,0,0,-1,1168,561,0,0
-49,463,0,0,0,0,0,0,0,0,0,-1,1175,561,0,0
-42,463,0,0,0,0,0,0,0,0,0,-1,1182,561,0,0
-35,463,0,0,0,0,0,0,0,0,0,-1,1189,561,0,0
-28,463,0,0,0,0,0,0,0,0,0,-1,1196,561,0,0
-21,463,0,0,0,0,0,0,0,0,0,-1,1203,561,0,0
-14,463,0,0,0,0,0,0,0,0,0,-1,1210,561,0,0
-7,463,0,0,0,0,0,0,0,0,0,-1,1217,561,0,0
0,463,0,0,0,0,0,0,0,0,0,-1,1224,561,0,0
7,463,0,0,0,0,0,0,0,0,0,-1,1231,561,0,0
14,463,0,0,0,0,0,0,0,0,0,-1,1238,561,0,0
21,463,0,0,0,0,0,0,0,0,0,-1,1245,561,0,0
28,463,0,0,0,0,0,0,0,0,0,-1,1252,561,0,0
35,463,0,0,0,0,0,0,0,0,0,-1,1259,561,0,0
42,463,0,0,0,0,0,0,0,0,0,-1,1266,561,0,0
49,463,0,0,0,0,0,0,0,0,0,-1,1273,561,0,0
56,463,0,0,0,0,0,0,0,0,0,-1,1280,561,0,0
63,463,0,0,0,0,0,0,0,0,0,-1,1287,561,0,0
70,463,0,0,0,0,0,0,0,0,0,-1,1294,561,0,0
77,463,0,0,0,0,0,0,0,0,0,-1,1301,561,0,0
84,463,0,0,0,0,0,0,0,0,0,-1,1308,561,0,0
91,463,0,0,0,0,0,0,0,0,0,-1,1315,561,0,0
98,463,0,0,0,0,0,0,0,0,0,-1,1322,561,0,0
105,463,0,0,0,0,0,0,0,0,0,-1,1329,561,0,0
112,463,0,0,0,0,0,0,0,0,0,-1,1336,561,0,0
119,463,0,0,0,0,0,0,0,0,0,-1,1343,561,0,0
126,463,0,0,0,0,0,0,0,0,0,-1,1350,561,0,0
133,463,0,0,0,0,0,0,0,0,0,-1,1357,561,0,0
140,463,0,0,0,0,0,0,0,0,0,-1,1364,561,0,0
147,463,0,0,0,0,0,0,0,0,0,-1,1371,561,0,0
154,463,0,0,0,0,0,0,0,0,0,-1,1378,561,0,0
161,463,0,0,0,0,0,0,0,0,0,-1,1385,561,0,0
168,463,0,0,0,0,0,0,0,0,0,-1,1392,561,0,0
175,463,0,0,0,0,0,0,0,0,0,-1,1399,561,0,0
182,463,0,0,0,0,0,0,0,0,0,-1,1406,561,0,0
189,463,0,0,0,0,0,0,0,0,0,-1,1413,561,0,0
196,463,0,0,0,0,0,0,0,0,0,-1,1420,561,0,0
203,463,0,0,0,0,0,0,0,0,0,-1,1427,561,0,0
210,463,0,0,0,0,0,0,0,0,0,-1,1434,561,0,0
217,463,0,0,0,0,0,0,0,0,0,-1,1441,561,0,0
224,463,0,0,0,0,0,0,0,0,0,-1,1448,561,0,0
231,463,0,0,0,0,0,0,0,0,0,-1,1455,561,0,0
238,463,0,0,0,0,0,0,0,0,0,-1,1462,561,0,0
245,463,0,0,0,0,0,0,0,0,0,-1,1469,561,0,0
252,463,0,0,0,0,0,0,0,0,0,-1,1476,561,0,0
259,463,0,0,0,0,0,0,0,0,0,-1,1483,561,0,0
266,463,0,0,0,0,0,0,0,0,0,-1,1490,561,0,0
273,463,0,0,0,0,0,0,0,0,0,-1,1497,561,0,0
280,463,0,0,0,0,0,0,0,0,0,-1,1504,561,0,0
287,463,0,0,0,0,0,0,0,0,0,-1,1511,561,0,0
294,463,0,0,0,0,0,0,0,0,0,-1,1518,561,0,0
301,463,0,0,0,0,0,0,0,0,0,-1,1525,561,0,0
308,463,0,0,0,0,0,0,0,0,0,-1,1532,561,0,0
315,463,0,0,0,0,0,0,0,0,0,-1,1539,561,0,0
322,463,0,0,0,0,0,0,0,0,0,-1,1546,561,0,0
329,463,0,0,0,0,0,0,0,0,0,-1,1553,561,0,0
336,463,0,0,0,0,0,0,0,0,0,-1,1560,561,0,0
343,463,0,0,0,0,0,0,0,0,0,-1,1567,561,0,0
350,463,0,0,0,0,0,0,0,0,0,-1,1574,561,0,0
357,463,0,0,0,0,0,0,0,0,0,-1,1581,561,0,0
364,463,0,0,0,0,0,0,0,0,0,-1,1588,561,0,0
371,463,1.75842,0.152588,0,0,0,0,0,0,0,-1,1595,561,1.75844,-0.152558
378,463,4.58813,-0.0444336,0,0,0,0,0,0,0,-1,1602,561,4.58809,0.0444505
385,463,8.88574,1.65057,0,0,0,0,0,0,0,-1,1609,561,8.88575,-1.65055
392,463,14.0912,2.50513,0,0,0,0,0,0,0,-1,1616,561,14.0912,-2.5051
399,463,21.4769,2.7002,0,0,0,0,0,0,0,-1,1623,561,21.477,-2.70017
406,463,26.2987,4.32318,0,0,0,0,0,0,0,-1,1630,561,26.2987,-4.3232
413,463,26.5011,2.65222,0,0,0,0,0,0,0,-1,1637,561,26.5011,-2.65224
420,463,8.849,2.26611,0,0,0,0,0,0,0,-1,1644,561,8.84899,-2.26613
427,463,5.12207,1.69183,0,0,0,0,0,0,0,-1,1651,561,5.12206,-1.69184
434,463,4.59814,1.81995,0,0,0,0,0,0,0,-1,1658,561,4.59812,-1.81994
441,463,1.76392,-5.99225,0,0,0,0,0,0,0,-1,1665,561,1.7639,5.99225
448,463,2.49939,-4.30536,0,0,0,0,0,0,0,-1,1672,561,2.49941,4.30536
455,463,4.40295,-3.02557,0,0,0,0,0,0,0,-1,1679,561,4.40299,3.02558
462,463,5.38293,-4.06445,0,0,0,0,0,0,0,-1,1686,561,5.38289,4.06444
469,463,5.94373,-4.50647,0,0,0,0,0,0,0,-1,1693,561,5.94368,4.50646
476,463,15.2559,-17.3189,0,0,0,0,0,0,0,-1,1700,561,15.2558,17.3189
483,463,24.8427,-29.2559,0,0,0,0,0,0,0,-1,1707,561,24.8426,29.2559
490,463,24.8048,-28.3406,0.00143319,0.00057425,-0.000161127,0.00146243,0.000545019,-0.179462,0.000853407,0.0335538,1714,561,24.8048,28.3406
497,463,24.7209,-27.3611,0.00159987,0.00122143,0.000533928,0.00197712,0.000844185,0.615109,0.00114554,0.0158116,1721,561,24.721,27.3611
504,463,24.6951,-26.4994,0.00159561,0.00123049,0.0008843,0.002316,0.000510106,0.683605,0.00140518,0.0170251,1728,561,24.6951,26.4994
511,463,24.6652,-25.6149,0.00149351,0.00122309,0.0011098,0.00247631,0.000240289,0.72478,0.00157689,0.0245886,1735,561,24.6651,25.6148
518,463,24.653,-24.7112,0.00127216,0.00128468,0.00129014,0.00256858,-1.17365e-05,0.787825,0.00171631,0.0254884,1742,561,24.6529,24.7112
525,463,24.5591,-23.8125,0.00100298,0.00140016,0.00138417,0.00259992,-0.00019678,0.856648,0.00180245,0.0198778,1749,561,24.5591,23.8125
532,463,24.5212,-22.8643,0.000702661,0.00163881,0.00146087,0.00270476,-0.000363293,0.940434,0.00193567,0.0178472,1756,561,24.5213,22.8643
539,463,24.4197,-21.9419,0.000376787,0.00201476,0.00152843,0.0029298,-0.000538251,1.03135,0.00215514,0.0205632,1763,561,24.4197,21.9419
546,463,24.3323,-21.0937,9.63395e-05,0.00261713,0.00161241,0.0034033,-0.000689836,1.11713,0.00253036,0.0162119,1770,561,24.3323,21.0937
553,463,24.3151,-20.1505,-0.000115619,0.00338074,0.00176028,0.00411343,-0.000848311,1.17637,0.00306445,0.011728,1777,561,24.3151,20.1505
560,463,24.3138,-19.0871,-0.000176762,0.00434163,0.00201122,0.00510717,-0.000942295,1.2071,0.00375846,0.0237971,1784,561,24.3139,19.0871
567,463,24.1132,-18.1851,-0.00015959,0.00553918,0.00238538,0.00640585,-0.00102626,1.2223,0.00465055,0.0405948,1791,561,24.1132,18.1851
574,463,24.2004,-17.2677,0,0,0,0,0,0,0,-1,1798,561,24.2004,17.2677
581,463,9.4939,-3.88245,0,0,0,0,0,0,0,-1,1805,561,9.49392,3.88245
588,463,1.97424,2.16016,0,0,0,0,0,0,0,-1,1812,561,1.97422,-2.16013
595,463,9.98657,2.99854,0,0,0,0,0,0,0,-1,1819,561,9.98662,-2.99856
602,463,17.2202,4.91302,0,0,0,0,0,0,0,-1,1826,561,17.2202,-4.91305
609,463,17.96,4.03131,0,0,0,0,0,0,0,-1,1833,561,17.96,-4.03132
616,463,20.8352,3.15131,0,0,0,0,0,0,0,-1,1840,561,20.8352,-3.1513
623,463,0,0,0,0,0,0,0,0,0,-1,1847,561,0,0
630,463,0,0,0,0,0,0,0,0,0,-1,1854,561,0,0
637,463,0,0,0,0,0,0,0,0,0,-1,1861,561,0,0
644,463,0,0,0,0,0,0,0,0,0,-1,1868,561,0,0
651,463,0,0,0,0,0,0,0,0,0,-1,1875,561,0,0
658,463,0,0,0,0,0,0,0,0,0,-1,1882,561,0,0
665,463,0,0,0,0,0,0,0,0,0,-1,1889,561,0,0
672,463,0,0,0,0,0,0,0,0,0,-1,1896,561,0,0
679,463,0,0,0,0,0,0,0,0,0,-1,1903,561,0,0
686,463,0,0,0,0,0,0,0,0,0,-1,1910,561,0,0
693,463,0,0,0,0,0,0,0,0,0,-1,1917,561,0,0
700,463,0,0,0,0,0,0,0,0,0,-1,1924,561,0,0
707,463,0,0,0,0,0,0,0,0,0,-1,1931,561,0,0
714,463,0,0,0,0,0,0,0,0,0,-1,1938,561,0,0
721,463,0,0,0,0,0,0,0,0,0,-1,1945,561,0,0
728,463,0,0,0,0,0,0,0,0,0,-1,1952,561,0,0
735,463,0,0,0,0,0,0,0,0,0,-1,1959,561,0,0
742,463,0,0,0,0,0,0,0,0,0,-1,1966,561,0,0
749,463,0,0,0,0,0,0,0,0,0,-1,1973,561,0,0
756,463,0,0,0,0,0,0,0,0,0,-1,1980,561,0,0
763,463,0,0,0,0,0,0,0,0,0,-1,1987,561,0,0
770,463,0,0,0,0,0,0,0,0,0,-1,1994,561,0,0
777,463,0,0,0,0,0,0,0,0,0,-1,2001,561,0,0
784,463,0,0,0,0,0,0,0,0,0,-1,2008,561,0,0
791,463,0,0,0,0,0,0,0,0,0,-1,2015,561,0,0
798,463,0,0,0,0,0,0,0,0,0,-1,2022,561,0,0
805,463,0,0,0,0,0,0,0,0,0,-1,2029,561,0,0
812,463,0,0,0,0,0,0,0,0,0,-1,2036,561,0,0
-700,456,0,0,0,0,0,0,0,0,0,-1,524,568,0,0
-693,456,0,0,0,0,0,0,0,0,0,-1,531,568,0,0
-686,456,0,0,0,0,0,0,0,0,0,-1,538,568,0,0
-679,456,0,0,0,0,0,0,0,0,0,-1,545,568,0,0
-672,456,0,0,0,0,0,0,0,0,0,-1,552,568,0,0
-665,456,0,0,0,0,0,0,0,0,0,-1,559,568,0,0
-658,456,0,0,0,0,0,0,0,0,0,-1,566,568,0,0
-651,456,0,0,0,0,0,0,0,0,0,-1,573,568,0,0
-644,456,0,0,0,0,0,0,0,0,0,-1,580,568,0,0
-637,456,0,0,0,0,0,0,0,0,0,-1,587,568,0,0
-630,456,0,0,0,0,0,0,0,0,0,-1,594,568,0,0
-623,456,0,0,0,0,0,0,0,0,0,-1,601,568,0,0
-616,456,0,0,0,0,0,0,0,0,0,-1,608,568,0,0
-609,456,0,0,0,0,0,0,0,0,0,-1,615,568,0,0
-602,456,0,0,0,0,0,0,0,0,0,-1,622,568,0,0
-595,456,0,0,0,0,0,0,0,0,0,-1,629,568,0,0
-588,456,0,0,0,0,0,0,0,0,0,-1,636,568,0,0
-581,456,0,0,0,0,0,0,0,0,0,-1,643,568,0,0
-574,456,0,0,0,0,0,0,0,0,0,-1,650,568,0,0
-567,456,0,0,0,0,0,0,0,0,0,-1,657,568,0,0
-560,456,0,0,0,0,0,0,0,0,0,-1,664,568,0,0
-553,456,0,0,0,0,0,0,0,0,0,-1,671,568,0,0
-546,456,0,0,0,0,0,0,0,0,0,-1,678,568,0,0
-539,456,0,0,0,0,0,0,0,0,0,-1,685,568,0,0
-532,456,0,0,0,0,0,0,0,0,0,-1,692,568,0,0
-525,456,0,0,0,0,0,0,0,0,0,-1,699,568,0,0
-518,456,0,0,0,0,0,0,0,0,0,-1,706,568,0,0
-511,456,0,0,0,0,0,0,0,0,0,-1,713,568,0,0
-504,456,-10.3994,-2.34839,0,0,0,0,0,0,0,-1,720,568,-10.3994,2.3484
-497,456,-9.21375,-2.38068,0,0,0,0,0,0,0,-1,727,568,-9.21372,2.38069
-490,456,-8.09058,-2.31824,0,0,0,0,0,0,0,-1,734,568,-8.09057,2.31821
-483,456,-6.66119,-2.24329,0,0,0,0,0,0,0,-1,741,568,-6.66121,2.24331
-476,456,-5.1499,-2.21185,0,0,0,0,0,0,0,-1,748,568,-5.14992,2.21184
-469,456,-2.81238,-3.51501,0,0,0,0,0,0,0,-1,755,568,-2.81237,3.51501
-462,456,-4.2431,-5.27478,0,0,0,0,0,0,0,-1,762,568,-4.24312,5.27476
-455,456,-5.98364,-8.72119,0,0,0,0,0,0,0,-1,769,568,-5.98364,8.72122
-448,456,-8.57849,-16.2391,0,0,0,0,0,0,0,-1,776,568,-8.57846,16.2392
-441,456,-9.44464,-18.717,0,0,0,0,0,0,0,-1,783,568,-9.44463,18.717
-434,456,-9.36237,-19.7565,-0.000154476,0.00520771,-0.00118156,0.00545652,-0.000403288,-1.36325,0.00377929,0.0230773,790,568,-9.36234,19.7565
-427,456,-9.39667,-20.6604,0.000122219,0.0045667,-0.00134544,0.00494225,-0.00025334,-1.29859,0.00338245,0.00965409,797,568,-9.39666,20.6604
-420,456,-9.44452,-21.5555,0.000356633,0.00390202,-0.00143323,0.00440894,-0.000150279,-1.23084,0.00299064,0.00957409,804,568,-9.44451,21.5555
-413,456,-9.50488,-22.4623,0.000491364,0.00312885,-0.00134016,0.0036903,-7.00846e-05,-1.17407,0.00248389,0.0100625,811,568,-9.50488,22.4623
-406,456,-9.58496,-23.3585,0.000544211,0.00226423,-0.001049,0.0027607,4.77445e-05,-1.12876,0.00182476,0.010406,818,568,-9.58495,23.3584
-399,456,-9.6319,-24.2449,0.000718185,0.00149497,-0.000769172,0.00196825,0.000244909,-1.0192,0.00123863,0.0120301,825,568,-9.63189,24.2449
-392,456,-9.67078,-25.1247,0.00103415,0.000728713,-0.000502141,0.00140628,0.000356581,-0.637774,0.000844152,0.0116968,832,568,-9.67078,25.1247
-385,456,-9.73218,-26.023,0.00148987,3.25711e-05,-0.000275604,0.00154025,-1.78093e-05,-0.180804,0.00103282,0.0111055,839,568,-9.73219,26.023
-378,456,-9.789,-26.9269,0.00200139,-0.000698923,9.75045e-06,0.00200143,-0.000698958,0.0036108,0.00161839,0.011664,846,568,-9.78902,26.927
-371,456,-9.82721,-27.7944,0.00268313,-0.00128827,0.000261994,0.00270034,-0.00130548,0.0655914,0.00235903,0.0121303,853,568,-9.82721,27.7944
-364,456,-9.85236,-28.6047,0.00347907,-0.00166194,0.000406837,0.00351107,-0.00169394,0.0784846,0.00306555,0.0228505,860,568,-9.85238,28.6047
-357,456,-9.87219,-29.517,0,0,0,0,0,0,0,-1,867,568,-9.87217,29.517
-350,456,-9.74457,-30.6524,0,0,0,0,0,0,0,-1,874,568,-9.74458,30.6524
-343,456,-3.39081,-12.0217,0,0,0,0,0,0,0,-1,881,568,-3.39078,12.0217
-336,456,-3.04517,-12.4623,0,0,0,0,0,0,0,-1,888,568,-3.04519,12.4624
-329,456,-1.06183,-10.7184,0,0,0,0,0,0,0,-1,895,568,-1.06184,10.7184
-322,456,-0.662537,-7.66632,0,0,0,0,0,0,0,-1,902,568,-0.662564,7.66633
-315,456,-0.675476,-3.38397,0,0,0,0,0,0,0,-1,909,568,-0.675473,3.38399
-308,456,-1.1618,-3.15314,0,0,0,0,0,0,0,-1,916,568,-1.16178,3.15314
-301,456,-1.83551,-3.26447,0,0,0,0,0,0,0,-1,923,568,-1.8355,3.26449
-294,456,-2.93414,-3.35449,0,0,0,0,0,0,0,-1,930,568,-2.93413,3.35451
-287,456,-3.7569,-3.53101,0,0,0,0,0,0,0,-1,937,568,-3.75692,3.53101
-280,456,-13.072,4.52856,0,0,0,0,0,0,0,-1,944,568,-13.072,-4.52855
-273,456,-8.26538,-6.66748,0,0,0,0,0,0,0,-1,951,568,-8.26536,6.66745
-266,456,-5.71527,-9.36884,0,0,0,0,0,0,0,-1,958,568,-5.71529,9.36885
-259,456,0,0,0,0,0,0,0,0,0,-1,965,568,0,0
-252,456,0,0,0,0,0,0,0,0,0,-1,972,568,0,0
-245,456,0,0,0,0,0,0,0,0,0,-1,979,568,0,0
-238,456,0,0,0,0,0,0,0,0,0,-1,986,568,0,0
-231,456,0,0,0,0,0,0,0,0,0,-1,993,568,0,0
-224,456,0,0,0,0,0,0,0,0,0,-1,1000,568,0,0
-217,456,0,0,0,0,0,0,0,0,0,-1,1007,568,0,0
-210,456,0,0,0,0,0,0,0,0,0,-1,1014,568,0,0
-203,456,0,0,0,0,0,0,0,0,0,-1,1021,568,0,0
-196,456,0,0,0,0,0,0,0,0,0,-1,1028,568,0,0
-189,456,0,0,0,0,0,0,0,0,0,-1,1035,568,0,0
-182,456,0,0,0,0,0,0,0,0,0,-1,1042,568,0,0
-175,456,0,0,0,0,0,0,0,0,0,-1,1049,568,0,0
-168,456,0,0,0,0,0,0,0,0,0,-1,1056,568,0,0
-161,456,0,0,0,0,0,0,0,0,0,-1,1063,568,0,0
-154,456,0,0,0,0,0,0,0,0,0,-1,1070,568,0,0
-147,456,0,0,0,0,0,0,0,0,0,-1,1077,568,0,0
-140,456,0,0,0,0,0,0,0,0,0,-1,1084,568,0,0
-133,456,0,0,0,0,0,0,0,0,0,-1,1091,568,0,0
-126,456,0,0,0,0,0,0,0,0,0,-1,1098,568,0,0
-119,456,0,0,0,0,0,0,0,0,0,-1,1105,568,0,0
-112,456,0,0,0,0,0,0,0,0,0,-1,1112,568,0,0
-105,456,0,0,0,0,0,0,0,0,0,-1,1119,568,0,0
-98,456,0,0,0,0,0,0,0,0,0,-1,1126,568,0,0
-91,456,0,0,0,0,0,0,0,0,0,-1,1133,568,0,0
-84,456,0,0,0,0,0,0,0,0,0,-1,1140,568,0,0
-77,456,0,0,0,0,0,0,0,0,0,-1,1147,568,0,0
-70,456,0,0,0,0,0,0,0,0,0,-1,1154,568,0,0
-63,456,0,0,0,0,0,0,0,0,0,-1,1161,568,0,0
-56,456,0,0,0,0,0,0,0,0,0,-1,1168,568,0,0
-49,456,0,0,0,0,0,0,0,0,0,-1,1175,568,0,0
-42,456,0,0,0,0,0,0,0,0,0,-1,1182,568,0,0
-35,456,0,0,0,0,0,0,0,0,0,-1,1189,568,0,0
-28,456,0,0,0,0,0,0,0,0,0,-1,1196,568,0,0
-21,456,0,0,0,0,0,0,0,0,0,-1,1203,568,0,0
-14,456,0,0,0,0,0,0,0,0,0,-1,1210,568,0,0
-7,456,0,0,0,0,0,0,0,0,0,-1,1217,568,0,0
0,456,0,0,0,0,0,0,0,0,0,-1,1224,568,0,0
7,456,0,0,0,0,0,0,0,0,0,-1,1231,568,0,0
14,456,0,0,0,0,0,0,0,0,0,-1,1238,568,0,0
21,456,0,0,0,0,0,0,0,0,0,-1,1245,568,0,0
28,456,0,0,0,0,0,0,0,0,0,-1,1252,568,0,0
35,456,0,0,0,0,0,0,0,0,0,-1,1259,568,0,0
42,456,0,0,0,0,0,0,0,0,0,-1,1266,568,0,0
49,456,0,0,0,0,0,0,0,0,0,-1,1273,568,0,0
56,456,0,0,0,0,0,0,0,0,0,-1,1280,568,0,0
63,456,0,0,0,0,0,0,0,0,0,-1,1287,568,0,0
70,456,0,0,0,0,0,0,0,0,0,-1,1294,568,0,0
77,456,0,0,0,0,0,0,0,0,0,-1,1301,568,0,0
84,456,0,0,0,0,0,0,0,0,0,-1,1308,568,0,0
91,456,0,0,0,0,0,0,0,0,0,-1,1315,568,0,0
98,456,0,0,0,0,0,0,0,0,0,-1,1322,568,0,0
105,456,0,0,0,0,0,0,0,0,0,-1,1329,568,0,0
112,456,0,0,0,0,0,0,0,0,0,-1,1336,568,0,0
119,456,0,0,0,0,0,0,0,0,0,-1,1343,568,0,0
126,456,0,0,0,0,0,0,0,0,0,-1,1350,568,0,0
133,456,0,0,0,0,0,0,0,0,0,-1,1357,568,0,0
140,456,0,0,0,0,0,0,0,0,0,-1,1364,568,0,0
147,456,0,0,0,0,0,0,0,0,0,-1,1371,568,0,0
154,456,0,0,0,0,0,0,0,0,0,-1,1378,568,0,0
161,456,0,0,0,0,0,0,0,0,0,-1,1385,568,0,0
168,456,0,0,0,0,0,0,0,0,0,-1,1392,568,0,0
175,456,0,0,0,0,0,0,0,0,0,-1,1399,568,0,0
182,456,0,0,0,0,0,0,0,0,0,-1,1406,568,0,0
189,456,0,0,0,0,0,0,0,0,0,-1,1413,568,0,0
196,456,0,0,0,0,0,0,0,0,0,-1,1420,568,0,0
203,456,0,0,0,0,0,0,0,0,0,-1,1427,568,0,0
210,456,0,0,0,0,0,0,0,0,0,-1,1434,568,0,0
217,456,0,0,0,0,0,0,0,0,0,-1,1441,568,0,0
224,456,0,0,0,0,0,0,0,0,0,-1,1448,568,0,0
231,456,0,0,0,0,0,0,0,0,0,-1,1455,568,0,0
238,456,0,0,0,0,0,0,0,0,0,-1,1462,568,0,0
245,456,0,0,0,0,0,0,0,0,0,-1,1469,568,0,0
252,456,0,0,0,0,0,0,0,0,0,-1,1476,568,0,0
259,456,0,0,0,0,0,0,0,0,0,-1,1483,568,0,0
266,456,0,0,0,0,0,0,0,0,0,-1,1490,568,0,0
273,456,0,0,0,0,0,0,0,0,0,-1,1497,568,0,0
280,456,0,0,0,0,0,0,0,0,0,-1,1504,568,0,0
287,456,0,0,0,0,0,0,0,0,0,-1,1511,568,0,0
294,456,0,0,0,0,0,0,0,0,0,-1,1518,568,0,0
301,456,0,0,0,0,0,0,0,0,0,-1,1525,568,0,0
308,456,0,0,0,0,0,0,0,0,0,-1,1532,568,0,0
315,456,0,0,0,0,0,0,0,0,0,-1,1539,568,0,0
322,456,0,0,0,0,0,0,0,0,0,-1,1546,568,0,0
329,456,0,0,0,0,0,0,0,0,0,-1,1553,568,0,0
336,456,0,0,0,0,0,0,0,0,0,-1,1560,568,0,0
343,456,0,0,0,0,0,0,0,0,0,-1,1567,568,0,0
350,456,0,0,0,0,0,0,0,0,0,-1,1574,568,0,0
357,456,0,0,0,0,0,0,0,0,0,-1,1581,568,0,0
364,456,0,0,0,0,0,0,0,0,0,-1,1588,568,0,0
371,456,0,0,0,0,0,0,0,0,0,-1,1595,568,0,0
378,456,0,0,0,0,0,0,0,0,0,-1,1602,568,0,0
385,456,5.66284,0.660645,0,0,0,0,0,0,0,-1,1609,568,5.66285,-0.660615
392,456,17.5027,4.32971,0,0,0,0,0,0,0,-1,1616,568,17.5026,-4.32971
399,456,24.1917,5.99652,0,0,0,0,0,0,0,-1,1623,568,24.1916,-5.99651
406,456,24.446,4.53003,0,0,0,0,0,0,0,-1,1630,568,24.446,-4.53005
413,456,24.9418,2.90521,0,0,0,0,0,0,0,-1,1637,568,24.9418,-2.90524
420,456,25.3048,1.04712,0,0,0,0,0,0,0,-1,1644,568,25.3048,-1.04713
427,456,6.21375,2.02905,0,0,0,0,0,0,0,-1,1651,568,6.21372,-2.02904
434,456,3.0719,-4.86285,0,0,0,0,0,0,0,-1,1658,568,3.07184,4.86287
441,456,2.90344,-4.70459,0,0,0,0,0,0,0,-1,1665,568,2.90346,4.7046
448,456,3.06995,-4.93689,0,0,0,0,0,0,0,-1,1672,568,3.06991,4.93687
455,456,3.46582,-3.43701,0,0,0,0,0,0,0,-1,1679,568,3.46585,3.43698
462,456,4.68445,-4.45831,0,0,0,0,0,0,0,-1,1686,568,4.68439,4.45833
469,456,4.93201,-2.289,0,0,0,0,0,0,0,-1,1693,568,4.93197,2.28903
476,456,4.8363,-2.79364,0,0,0,0,0,0,0,-1,1700,568,4.83636,2.79363
483,456,12.8522,-13.692,0,0,0,0,0,0,0,-1,1707,568,12.8522,13.6919
490,456,25.5454,-28.615,0,0,0,0,0,0,0,-1,1714,568,25.5454,28.615
497,456,25.5389,-27.291,0,0,0,0,0,0,0,-1,1721,568,25.5389,27.291
504,456,25.5353,-26.4293,0.00230353,0.00155848,0.00113624,0.00312675,0.000735252,0.626991,0.00188777,0.0168096,1728,568,25.5353,26.4293
511,456,25.5353,-25.5469,0.00207626,0.0013572,0.00126152,0.00302848,0.00040498,0.646579,0.00189845,0.015563,1735,568,25.5353,25.5469
518,456,25.5182,-24.6782,0.00176674,0.00125682,0.00138838,0.00292338,0.000100184,0.694591,0.0019164,0.0180984,1742,568,25.5182,24.6782
525,456,25.4547,-23.7479,0.00139228,0.00126456,0.00141307,0.00274293,-8.60939e-05,0.762816,0.00185798,0.0175483,1749,568,25.4547,23.7479
532,456,25.4261,-22.7885,0.00101885,0.00139975,0.00142436,0.00264634,-0.000227745,0.851858,0.00184483,0.0179285,1756,568,25.4261,22.7885
539,456,25.3306,-21.8401,0.000672499,0.00167841,0.00145005,0.00271025,-0.000359342,0.952333,0.00193775,0.0249649,1763,568,25.3305,21.8401
546,456,25.2062,-20.9826,0.000403911,0.0021617,0.00149075,0.00301335,-0.000447738,1.05175,0.00217357,0.0281439,1770,568,25.2062,20.9826
553,456,25.1409,-20.0453,0.00019673,0.00281305,0.00160512,0.00357556,-0.000565781,1.12731,0.00259296,0.0148326,1777,568,25.1409,20.0453
560,456,25.1426,-19.1492,0.000141105,0.00364803,0.00184294,0.0044384,-0.000649258,1.16566,0.0031974,0.0108792,1784,568,25.1426,19.1492
567,456,25.1145,-18.2029,0.000284204,0.00474404,0.0022657,0.0056931,-0.000664862,1.17412,0.00403532,0.0231877,1791,568,25.1145,18.2029
574,456,25.0686,-17.3158,0,0,0,0,0,0,0,-1,1798,568,25.0686,17.3158
581,456,16.2228,-9.08563,0,0,0,0,0,0,0,-1,1805,568,16.2228,9.08562
588,456,5.23901,-0.0901489,0,0,0,0,0,0,0,-1,1812,568,5.23906,0.0901656
595,456,6.90063,3.14886,0,0,0,0,0,0,0,-1,1819,568,6.90066,-3.14887
602,456,16.894,4.10938,0,0,0,0,0,0,0,-1,1826,568,16.8941,-4.1094
609,456,14.9966,3.5708,0,0,0,0,0,0,0,-1,1833,568,14.9966,-3.57083
616,456,17.7407,2.6579,0,0,0,0,0,0,0,-1,1840,568,17.7408,-2.6579
623,456,20.6838,1.7121,0,0,0,0,0,0,0,-1,1847,568,20.6838,-1.71208
630,456,0,0,0,0,0,0,0,0,0,-1,1854,568,0,0
637,456,0,0,0,0,0,0,0,0,0,-1,1861,568,0,0
644,456,0,0,0,0,0,0,0,0,0,-1,1868,568,0,0
651,456,0,0,0,0,0,0,0,0,0,-1,1875,568,0,0
658,456,0,0,0,0,0,0,0,0,0,-1,1882,568,0,0
665,456,0,0,0,0,0,0,0,0,0,-1,1889,568,0,0
672,456,0,0,0,0,0,0,0,0,0,-1,1896,568,0,0
679,456,0,0,0,0,0,0,0,0,0,-1,1903,568,0,0
686,456,0,0,0,0,0,0,0,0,0,-1,1910,568,0,0
693,456,0,0,0,0,0,0,0,0,0,-1,1917,568,0,0
700,456,0,0,0,0,0,0,0,0,0,-1,1924,568,0,0
707,456,0,0,0,0,0,0,0,0,0,-1,1931,568,0,0
714,456,0,0,0,0,0,0,0,0,0,-1,1938,568,0,0
721,456,0,0,0,0,0,0,0,0,0,-1,1945,568,0,0
728,456,0,0,0,0,0,0,0,0,0,-1,1952,568,0,0
735,456,0,0,0,0,0,0,0,0,0,-1,1959,568,0,0
742,456,0,0,0,0,0,0,0,0,0,-1,1966,568,0,0
749,456,0,0,0,0,0,0,0,0,0,-1,1973,568,0,0
756,456,0,0,0,0,0,0,0,0,0,-1,1980,568,0,0
763,456,0,0,0,0,0,0,0,0,0,-1,1987,568,0,0
770,456,0,0,0,0,0,0,0,0,0,-1,1994,568,0,0
777,456,0,0,0,0,0,0,0,0,0,-1,2001,568,0,0
784,456,0,0,0,0,0,0,0,0,0,-1,2008,568,0,0
791,456,0,0,0,0,0,0,0,0,0,-1,2015,568,0,0
798,456,0,0,0,0,0,0,0,0,0,-1,2022,568,0,0
805,456,0,0,0,0,0,0,0,0,0,-1,2029,568,0,0
812,456,0,0,0,0,0,0,0,0,0,-1,2036,568,0,0
-700,449,0,0,0,0,0,0,0,0,0,-1,524,575,0,0
-693,449,0,0,0,0,0,0,0,0,0,-1,531,575,0,0
-686,449,0,0,0,0,0,0,0,0,0,-1,538,575,0,0
-679,449,0,0,0,0,0,0,0,0,0,-1,545,575,0,0
-672,449,0,0,0,0,0,0,0,0,0,-1,552,575,0,0
-665,449,0,0,0,0,0,0,0,0,0,-1,559,575,0,0
-658,449,0,0,0,0,0,0,0,0,0,-1,566,575,0,0
-651,449,0,0,0,0,0,0,0,0,0,-1,573,575,0,0
-644,449,0,0,0,0,0,0,0,0,0,-1,580,575,0,0
-637,449,0,0,0,0,0,0,0,0,0,-1,587,575,0,0
-630,449,0,0,0,0,0,0,0,0,0,-1,594,575,0,0
-623,449,0,0,0,0,0,0,0,0,0,-1,601,575,0,0
-616,449,0,0,0,0,0,0,0,0,0,-1,608,575,0,0
-609,449,0,0,0,0,0,0,0,0,0,-1,615,575,0,0
-602,449,0,0,0,0,0,0,0,0,0,-1,622,575,0,0
-595,449,0,0,0,0,0,0,0,0,0,-1,629,575,0,0
-588,449,0,0,0,0,0,0,0,0,0,-1,636,575,0,0
-581,449,0,0,0,0,0,0,0,0,0,-1,643,575,0,0
-574,449,0,0,0,0,0,0,0,0,0,-1,650,575,0,0
-567,449,0,0,0,0,0,0,0,0,0,-1,657,575,0,0
-560,449,0,0,0,0,0,0,0,0,0,-1,664,575,0,0
-553,449,0,0,0,0,0,0,0,0,0,-1,671,575,0,0
-546,449,0,0,0,0,0,0,0,0,0,-1,678,575,0,0
-539,449,0,0,0,0,0,0,0,0,0,-1,685,575,0,0
-532,449,0,0,0,0,0,0,0,0,0,-1,692,575,0,0
-525,449,0,0,0,0,0,0,0,0,0,-1,699,575,0,0
-518,449,0,0,0,0,0,0,0,0,0,-1,706,575,0,0
-511,449,-0.941345,-4.4519,0,0,0,0,0,0,0,-1,713,575,-0.941356,4.45191
-504,449,-14.1078,0.318237,0,0,0,0,0,0,0,-1,720,575,-14.1078,-0.318231
-497,449,-8.61292,-3.09009,0,0,0,0,0,0,0,-1,727,575,-8.61291,3.09011
-490,449,-7.50995,-2.96252,0,0,0,0,0,0,0,-1,734,575,-7.50995,2.96251
-483,449,-5.77789,-2.50061,0,0,0,0,0,0,0,-1,741,575,-5.77792,2.50059
-476,449,-4.1723,-2.07739,0,0,0,0,0,0,0,-1,748,575,-4.17228,2.0774
-469,449,-5.0976,-5.78448,0,0,0,0,0,0,0,-1,755,575,-5.09758,5.78451
-462,449,-6.54181,-9.54535,0,0,0,0,0,0,0,-1,762,575,-6.54178,9.54536
-455,449,-8.67291,-13.2226,0,0,0,0,0,0,0,-1,769,575,-8.67289,13.2226
-448,449,-10.1476,-17.773,0,0,0,0,0,0,0,-1,776,575,-10.1476,17.773
-441,449,-10.1563,-18.8637,-0.000677307,0.00422045,-0.000477574,0.00426659,-0.000723441,-1.4745,0.00311368,0.0256467,783,575,-10.1563,18.8637
-434,449,-10.2678,-19.7161,-0.000120542,0.003726,-0.000795268,0.00388394,-0.000278477,-1.37475,0.00268693,0.0148072,790,575,-10.2679,19.7161
-427,449,-10.2979,-20.5987,0.000233357,0.00326236,-0.000956458,0.00353909,-4.3378e-05,-1.28915,0.00237399,0.0137561,797,575,-10.2979,20.5987
-420,449,-10.3427,-21.5109,0.00054401,0.0027871,-0.00105994,0.00320872,0.000122395,-1.19221,0.00209953,0.0124803,804,575,-10.3427,21.5109
-413,449,-10.3893,-22.4145,0.000719347,0.00220026,-0.000988321,0.00269473,0.000224872,-1.10689,0.00172642,0.0115182,811,575,-10.3893,22.4145
-406,449,-10.4623,-23.3121,0.000800821,0.00152166,-0.00074624,0.00198996,0.00033252,-1.01037,0.00123086,0.0115872,818,575,-10.4623,23.3121
-399,449,-10.5331,-24.1908,0.00101631,0.00093376,-0.00054051,0.00151712,0.000432951,-0.747291,0.000902406,0.0102568,825,575,-10.5331,24.1908
-392,449,-10.5742,-25.0739,0.00135846,0.000335177,-0.000338351,0.00146022,0.000233419,-0.292141,0.000905752,0.0105651,832,575,-10.5742,25.0739
-385,449,-10.6105,-25.9711,0.00183588,-0.000232712,-0.000171743,0.00185004,-0.000246873,-0.0822732,0.00132335,0.0111335,839,575,-10.6105,25.9711
-378,449,-10.6854,-26.8436,0.00239731,-0.000818135,4.12024e-05,0.00239784,-0.000818663,0.0128111,0.00193021,0.010494,846,575,-10.6854,26.8435
-371,449,-10.7078,-27.7249,0.00318214,-0.001201,0.000228417,0.00319401,-0.00121287,0.0519251,0.00262862,0.0190438,853,575,-10.7078,27.7249
-364,449,-10.6364,-28.6509,0,0,0,0,0,0,0,-1,860,575,-10.6363,28.6509
-357,449,-5.88049,-15.8704,0,0,0,0,0,0,0,-1,867,575,-5.88051,15.8704
-350,449,-2.8764,-9.90204,0,0,0,0,0,0,0,-1,874,575,-2.87638,9.90203
-343,449,-2.98492,-9.2254,0,0,0,0,0,0,0,-1,881,575,-2.98491,9.22541
-336,449,-1.29523,-9.54626,0,0,0,0,0,0,0,-1,888,575,-1.29525,9.54626
-329,449,-0.733398,-7.78937,0,0,0,0,0,0,0,-1,895,575,-0.733398,7.78937
-322,449,-0.628845,-3.16669,0,0,0,0,0,0,0,-1,902,575,-0.628861,3.16667
-315,449,-0.540344,-3.21918,0,0,0,0,0,0,0,-1,909,575,-0.540336,3.21917
-308,449,-1.04413,-2.99341,0,0,0,0,0,0,0,-1,916,575,-1.04415,2.99338
-301,449,-1.58691,-2.80725,0,0,0,0,0,0,0,-1,923,575,-1.58692,2.80728
-294,449,-3.71118,-2.76086,0,0,0,0,0,0,0,-1,930,575,-3.71119,2.76087
-287,449,-4.4082,-2.69525,0,0,0,0,0,0,0,-1,937,575,-4.40822,2.69526
-280,449,0.723999,-14.2697,0,0,0,0,0,0,0,-1,944,575,0.723977,14.2696
-273,449,0,0,0,0,0,0,0,0,0,-1,951,575,0,0
-266,449,0,0,0,0,0,0,0,0,0,-1,958,575,0,0
-259,449,0,0,0,0,0,0,0,0,0,-1,965,575,0,0
-252,449,0,0,0,0,0,0,0,0,0,-1,972,575,0,0
-245,449,0,0,0,0,0,0,0,0,0,-1,979,575,0,0
-238,449,0,0,0,0,0,0,0,0,0,-1,986,575,0,0
-231,449,0,0,0,0,0,0,0,0,0,-1,993,575,0,0
-224,449,0,0,0,0,0,0,0,0,0,-1,1000,575,0,0
-217,449,0,0,0,0,0,0,0,0,0,-1,1007,575,0,0
-210,449,0,0,0,0,0,0,0,0,0,-1,1014,575,0,0
-203,449,0,0,0,0,0,0,0,0,0,-1,1021,575,0,0
-196,449,0,0,0,0,0,0,0,0,0,-1,1028,575,0,0
-189,449,0,0,0,0,0,0,0,0,0,-1,1035,575,0,0
-182,449,0,0,0,0,0,0,0,0,0,-1,1042,575,0,0
-175,449,0,0,0,0,0,0,0,0,0,-1,1049,575,0,0
-168,449,0,0,0,0,0,0,0,0,0,-1,1056,575,0,0
-161,449,0,0,0,0,0,0,0,0,0,-1,1063,575,0,0
-154,449,0,0,0,0,0,0,0,0,0,-1,1070,575,0,0
-147,449,0,0,0,0,0,0,0,0,0,-1,1077,575,0,0
-140,449,0,0,0,0,0,0,0,0,0,-1,1084,575,0,0
-133,449,0,0,0,0,0,0,0,0,0,-1,1091,575,0,0
-126,449,0,0,0,0,0,0,0,0,0,-1,1098,575,0,0
-119,449,0,0,0,0,0,0,0,0,0,-1,1105,575,0,0
-112,449,0,0,0,0,0,0,0,0,0,-1,1112,575,0,0
-105,449,0,0,0,0,0,0,0,0,0,-1,1119,575,0,0
-98,449,0,0,0,0,0,0,0,0,0,-1,1126,575,0,0
-91,449,0,0,0,0,0,0,0,0,0,-1,1133,575,0,0
-84,449,0,0,0,0,0,0,0,0,0,-1,1140,575,0,0
-77,449,0,0,0,0,0,0,0,0,0,-1,1147,575,0,0
-70,449,0,0,0,0,0,0,0,0,0,-1,1154,575,0,0
-63,449,0,0,0,0,0,0,0,0,0,-1,1161,575,0,0
-56,449,0,0,0,0,0,0,0,0,0,-1,1168,575,0,0
-49,449,0,0,0,0,0,0,0,0,0,-1,1175,575,0,0
-42,449,0,0,0,0,0,0,0,0,0,-1,1182,575,0,0
-35,449,0,0,0,0,0,0,0,0,0,-1,1189,575,0,0
-28,449,0,0,0,0,0,0,0,0,0,-1,1196,575,0,0
-21,449,0,0,0,0,0,0,0,0,0,-1,1203,575,0,0
-14,449,0,0,0,0,0,0,0,0,0,-1,1210,575,0,0
-7,449,0,0,0,0,0,0,0,0,0,-1,1217,575,0,0
0,449,0,0,0,0,0,0,0,0,0,-1,1224,575,0,0
7,449,0,0,0,0,0,0,0,0,0,-1,1231,575,0,0
14,449,0,0,0,0,0,0,0,0,0,-1,1238,575,0,0
21,449,0,0,0,0,0,0,0,0,0,-1,1245,575,0,0
28,449,0,0,0,0,0,0,0,0,0,-1,1252,575,0,0
35,449,0,0,0,0,0,0,0,0,0,-1,1259,575,0,0
42,449,0,0,0,0,0,0,0,0,0,-1,1266,575,0,0
49,449,0,0,0,0,0,0,0,0,0,-1,1273,575,0,0
56,449,0,0,0,0,0,0,0,0,0,-1,1280,575,0,0
63,449,0,0,0,0,0,0,0,0,0,-1,1287,575,0,0
70,449,0,0,0,0,0,0,0,0,0,-1,1294,575,0,0
77,449,0,0,0,0,0,0,0,0,0,-1,1301,575,0,0
84,449,0,0,0,0,0,0,0,0,0,-1,1308,575,0,0
91,449,0,0,0,0,0,0,0,0,0,-1,1315,575,0,0
98,449,0,0,0,0,0,0,0,0,0,-1,1322,575,0,0
105,449,0,0,0,0,0,0,0,0,0,-1,1329,575,0,0
112,449,0,0,0,0,0,0,0,0,0,-1,1336,575,0,0
119,449,0,0,0,0,0,0,0,0,0,-1,1343,575,0,0
126,449,0,0,0,0,0,0,0,0,0,-1,1350,575,0,0
133,449,0,0,0,0,0,0,0,0,0,-1,1357,575,0,0
140,449,0,0,0,0,0,0,0,0,0,-1,1364,575,0,0
147,449,0,0,0,0,0,0,0,0,0,-1,1371,575,0,0
154,449,0,0,0,0,0,0,0,0,0,-1,1378,575,0,0
161,449,0,0,0,0,0,0,0,0,0,-1,1385,575,0,0
168,449,0,0,0,0,0,0,0,0,0,-1,1392,575,0,0
175,449,0,0,0,0,0,0,0,0,0,-1,1399,575,0,0
182,449,0,0,0,0,0,0,0,0,0,-1,1406,575,0,0
189,449,0,0,0,0,0,0,0,0,0,-1,1413,575,0,0
196,449,0,0,0,0,0,0,0,0,0,-1,1420,575,0,0
203,449,0,0,0,0,0,0,0,0,0,-1,1427,575,0,0
210,449,0,0,0,0,0,0,0,0,0,-1,1434,575,0,0
217,449,0,0,0,0,0,0,0,0,0,-1,1441,575,0,0
224,449,0,0,0,0,0,0,0,0,0,-1,1448,575,0,0
231,449,0,0,0,0,0,0,0,0,0,-1,1455,575,0,0
238,449,0,0,0,0,0,0,0,0,0,-1,1462,575,0,0
245,449,0,0,0,0,0,0,0,0,0,-1,1469,575,0,0
252,449,0,0,0,0,0,0,0,0,0,-1,1476,575,0,0
259,449,0,0,0,0,0,0,0,0,0,-1,1483,575,0,0
266,449,0,0,0,0,0,0,0,0,0,-1,1490,575,0,0
273,449,0,0,0,0,0,0,0,0,0,-1,1497,575,0,0
280,449,0,0,0,0,0,0,0,0,0,-1,1504,575,0,0
287,449,0,0,0,0,0,0,0,0,0,-1,1511,575,0,0
294,449,0,0,0,0,0,0,0,0,0,-1,1518,575,0,0
301,449,0,0,0,0,0,0,0,0,0,-1,1525,575,0,0
308,449,0,0,0,0,0,0,0,0,0,-1,1532,575,0,0
315,449,0,0,0,0,0,0,0,0,0,-1,1539,575,0,0
322,449,0,0,0,0,0,0,0,0,0,-1,1546,575,0,0
329,449,0,0,0,0,0,0,0,0,0,-1,1553,575,0,0
336,449,0,0,0,0,0,0,0,0,0,-1,1560,575,0,0
343,449,0,0,0,0,0,0,0,0,0,-1,1567,575,0,0
350,449,0,0,0,0,0,0,0,0,0,-1,1574,575,0,0
357,449,0,0,0,0,0,0,0,0,0,-1,1581,575,0,0
364,449,0,0,0,0,0,0,0,0,0,-1,1588,575,0,0
371,449,0,0,0,0,0,0,0,0,0,-1,1595,575,0,0
378,449,0,0,0,0,0,0,0,0,0,-1,1602,575,0,0
385,449,0,0,0,0,0,0,0,0,0,-1,1609,575,0,0
392,449,7.95471,3.66217,0,0,0,0,0,0,0,-1,1616,575,7.95471,-3.66218
399,449,19.9791,5.565,0,0,0,0,0,0,0,-1,1623,575,19.9791,-5.56499
406,449,24.9847,4.55969,0,0,0,0,0,0,0,-1,1630,575,24.9848,-4.55968
413,449,30.4159,3.15027,0,0,0,0,0,0,0,-1,1637,575,30.4159,-3.15028
420,449,23.9675,1.29718,0,0,0,0,0,0,0,-1,1644,575,23.9675,-1.29721
427,449,24.4276,-0.596558,0,0,0,0,0,0,0,-1,1651,575,24.4277,0.596569
434,449,25.61,-2.96594,0,0,0,0,0,0,0,-1,1658,575,25.61,2.96595
441,449,3.89856,-6.06458,0,0,0,0,0,0,0,-1,1665,575,3.89855,6.06459
448,449,4.03198,-5.18207,0,0,0,0,0,0,0,-1,1672,575,4.03197,5.18207
455,449,4.21948,-4.09467,0,0,0,0,0,0,0,-1,1679,575,4.21952,4.09465
462,449,4.23181,-2.96924,0,0,0,0,0,0,0,-1,1686,575,4.23185,2.96926
469,449,4.51672,-2.95135,0,0,0,0,0,0,0,-1,1693,575,4.51672,2.95135
476,449,4.71838,-1.86688,0,0,0,0,0,0,0,-1,1700,575,4.71842,1.86689
483,449,4.87878,-1.73126,0,0,0,0,0,0,0,-1,1707,575,4.87875,1.73128
490,449,5.73279,-2.74573,0,0,0,0,0,0,0,-1,1714,575,5.73282,2.74575
497,449,17.2095,-16.4381,0,0,0,0,0,0,0,-1,1721,575,17.2094,16.4381
504,449,26.3812,-26.4461,0,0,0,0,0,0,0,-1,1728,575,26.3813,26.4461
511,449,26.4417,-25.4945,0.00306605,0.00163056,0.00161483,0.00411546,0.000581152,0.576276,0.00257191,0.0173914,1735,575,26.4416,25.4945
518,449,26.4183,-24.6069,0.00263749,0.00136651,0.00167272,0.00379137,0.000212632,0.603862,0.00245977,0.0146693,1742,575,26.4183,24.607
525,449,26.3369,-23.6805,0.00212333,0.0012788,0.00160354,0.00335928,4.28555e-05,0.656656,0.00222537,0.0144093,1749,575,26.3369,23.6805
532,449,26.266,-22.761,0.00163571,0.00131576,0.00152214,0.00300626,-5.47833e-05,0.73304,0.00202268,0.0123295,1756,575,26.266,22.7611
539,449,26.1827,-21.8641,0.00122006,0.00149851,0.0014775,0.00284333,-0.000124753,0.832375,0.00193847,0.01813,1763,575,26.1827,21.864
546,449,26.1143,-20.903,0.00089598,0.00186145,0.0014431,0.00290042,-0.000142986,0.946804,0.00198299,0.0320312,1770,575,26.1143,20.903
553,449,26.0448,-20.0159,0.000614533,0.00240393,0.00148311,0.00324131,-0.000222848,1.0568,0.00223886,0.0210137,1777,575,26.0448,20.0159
560,449,26.0436,-19.1488,0.000456905,0.00310623,0.00164419,0.00389299,-0.000329855,1.12449,0.00271197,0.0144335,1784,575,26.0435,19.1488
567,449,25.9945,-18.2175,0.000515765,0.00406238,0.00199999,0.00496201,-0.000383862,1.1481,0.0034431,0.010579,1791,575,25.9945,18.2174
574,449,25.9653,-17.2587,0.000638472,0.00525104,0.00248671,0.00633631,-0.000446802,1.15928,0.00438074,0.0276273,1798,575,25.9654,17.2587
581,449,25.9988,-16.1331,0,0,0,0,0,0,0,-1,1805,575,25.9988,16.1331
588,449,12.3274,-4.5672,0,0,0,0,0,0,0,-1,1812,575,12.3274,4.5672
595,449,15.9352,-5.65479,0,0,0,0,0,0,0,-1,1819,575,15.9352,5.65478
602,449,9.46167,4.17444,0,0,0,0,0,0,0,-1,1826,575,9.46164,-4.17442
609,449,12.2028,3.18652,0,0,0,0,0,0,0,-1,1833,575,12.2027,-3.18655
616,449,14.9438,2.19867,0,0,0,0,0,0,0,-1,1840,575,14.9438,-2.19867
623,449,9.83789,-0.0820313,0,0,0,0,0,0,0,-1,1847,575,9.83794,0.0820443
630,449,8.90686,4.99329,0,0,0,0,0,0,0,-1,1854,575,8.90685,-4.99327
637,449,0,0,0,0,0,0,0,0,0,-1,1861,575,0,0
644,449,0,0,0,0,0,0,0,0,0,-1,1868,575,0,0
651,449,0,0,0,0,0,0,0,0,0,-1,1875,575,0,0
658,449,0,0,0,0,0,0,0,0,0,-1,1882,575,0,0
665,449,0,0,0,0,0,0,0,0,0,-1,1889,575,0,0
672,449,0,0,0,0,0,0,0,0,0,-1,1896,575,0,0
679,449,0,0,0,0,0,0,0,0,0,-1,1903,575,0,0
686,449,0,0,0,0,0,0,0,0,0,-1,1910,575,0,0
693,449,0,0,0,0,0,0,0,0,0,-1,1917,575,0,0
700,449,0,0,0,0,0,0,0,0,0,-1,1924,575,0,0
707,449,0,0,0,0,0,0,0,0,0,-1,1931,575,0,0
714,449,0,0,0,0,0,0,0,0,0,-1,1938,575,0,0
721,449,0,0,0,0,0,0,0,0,0,-1,1945,575,0,0
728,449,0,0,0,0,0,0,0,0,0,-1,1952,575,0,0
735,449,0,0,0,0,0,0,0,0,0,-1,1959,575,0,0
742,449,0,0,0,0,0,0,0,0,0,-1,1966,575,0,0
749,449,0,0,0,0,0,0,0,0,0,-1,1973,575,0,0
756,449,0,0,0,0,0,0,0,0,0,-1,1980,575,0,0
763,449,0,0,0,0,0,0,0,0,0,-1,1987,575,0,0
770,449,0,0,0,0,0,0,0,0,0,-1,1994,575,0,0
777,449,0,0,0,0,0,0,0,0,0,-1,2001,575,0,0
784,449,0,0,0,0,0,0,0,0,0,-1,2008,575,0,0
791,449,0,0,0,0,0,0,0,0,0,-1,2015,575,0,0
798,449,0,0,0,0,0,0,0,0,0,-1,2022,575,0,0
805,449,0,0,0,0,0,0,0,0,0,-1,2029,575,0,0
812,449,0,0,0,0,0,0,0,0,0,-1,2036,575,0,0
-700,442,0,0,0,0,0,0,0,0,0,-1,524,582,0,0
-693,442,0,0,0,0,0,0,0,0,0,-1,531,582,0,0
-686,442,0,0,0,0,0,0,0,0,0,-1,538,582,0,0
-679,442,0,0,0,0,0,0,0,0,0,-1,545,582,0,0
-672,442,0,0,0,0,0,0,0,0,0,-1,552,582,0,0
-665,442,0,0,0,0,0,0,0,0,0,-1,559,582,0,0
-658,442,0,0,0,0,0,0,0,0,0,-1,566,582,0,0
-651,442,0,0,0,0,0,0,0,0,0,-1,573,582,0,0
-644,442,0,0,0,0,0,0,0,0,0,-1,580,582,0,0
-637,442,0,0,0,0,0,0,0,0,0,-1,587,582,0,0
-630,442,0,0,0,0,0,0,0,0,0,-1,594,582,0,0
-623,442,0,0,0,0,0,0,0,0,0,-1,601,582,0,0
-616,442,0,0,0,0,0,0,0,0,0,-1,608,582,0,0
-609,442,0,0,0,0,0,0,0,0,0,-1,615,582,0,0
-602,442,0,0,0,0,0,0,0,0,0,-1,622,582,0,0
-595,442,0,0,0,0,0,0,0,0,0,-1,629,582,0,0
-588,442,0,0,0,0,0,0,0,0,0,-1,636,582,0,0
-581,442,0,0,0,0,0,0,0,0,0,-1,643,582,0,0
-574,442,0,0,0,0,0,0,0,0,0,-1,650,582,0,0
-567,442,0,0,0,0,0,0,0,0,0,-1,657,582,0,0
-560,442,0,0,0,0,0,0,0,0,0,-1,664,582,0,0
-553,442,0,0,0,0,0,0,0,0,0,-1,671,582,0,0
-546,442,0,0,0,0,0,0,0,0,0,-1,678,582,0,0
-539,442,0,0,0,0,0,0,0,0,0,-1,685,582,0,0
-532,442,0,0,0,0,0,0,0,0,0,-1,692,582,0,0
-525,442,0,0,0,0,0,0,0,0,0,-1,699,582,0,0
-518,442,-0.493774,-5.72943,0,0,0,0,0,0,0,-1,706,582,-0.493791,5.72946
-511,442,-1.33008,-6.18512,0,0,0,0,0,0,0,-1,713,582,-1.33006,6.18511
-504,442,-3.20807,-6.34082,0,0,0,0,0,0,0,-1,720,582,-3.2081,6.34083
-497,442,-13.6886,-0.250122,0,0,0,0,0,0,0,-1,727,582,-13.6886,0.250143
-490,442,-9.09039,-3.64862,0,0,0,0,0,0,0,-1,734,582,-9.09037,3.64861
-483,442,-7.36499,-1.01892,0,0,0,0,0,0,0,-1,741,582,-7.365,1.01895
-476,442,-4.84784,-4.44141,0,0,0,0,0,0,0,-1,748,582,-4.84787,4.44138
-469,442,-11.0942,-14.124,0,0,0,0,0,0,0,-1,755,582,-11.0943,14.124
-462,442,-10.2018,-14.6873,0,0,0,0,0,0,0,-1,762,582,-10.2019,14.6873
-455,442,-11.0298,-16.7678,0,0,0,0,0,0,0,-1,769,582,-11.0298,16.7678
-448,442,-11.0036,-17.7945,-0.00143999,0.00339633,0.000191032,0.00340386,-0.00144752,1.53138,0.00287586,0.0231091,776,582,-11.0036,17.7945
-441,442,-11.0806,-18.7307,-0.000569278,0.00297891,-0.000260063,0.00299787,-0.000588238,-1.49802,0.00222078,0.0142982,783,582,-11.0806,18.7307
-434,442,-11.1469,-19.6536,1.33729e-05,0.00258441,-0.000538327,0.00269257,-9.47923e-05,-1.37251,0.00182747,0.0141291,790,582,-11.1469,19.6536
-427,442,-11.2028,-20.5557,0.000422915,0.00226153,-0.000707015,0.00250196,0.000182483,-1.243,0.0016106,0.0135419,797,582,-11.2028,20.5557
-420,442,-11.2524,-21.4614,0.000783901,0.00195042,-0.000831246,0.00238262,0.0003517,-1.09132,0.00148513,0.0131775,804,582,-11.2524,21.4613
-413,442,-11.2972,-22.362,0.000980544,0.00154692,-0.000787827,0.00210091,0.000426554,-0.957935,0.00128229,0.0114768,811,582,-11.2972,22.362
-406,442,-11.3658,-23.264,0.00107922,0.00108259,-0.000613937,0.00169484,0.000466964,-0.786772,0.00101086,0.0106874,818,582,-11.3658,23.264
-399,442,-11.4366,-24.1406,0.00132155,0.000704446,-0.000503193,0.00160326,0.000422736,-0.51037,0.000959486,0.00907583,825,582,-11.4366,24.1406
-392,442,-11.4833,-25.0021,0.00167143,0.000323306,-0.000389919,0.00177608,0.000218653,-0.262216,0.00111832,0.0114499,832,582,-11.4834,25.0021
-385,442,-11.5263,-25.8798,0.00214648,-6.63703e-05,-0.000314278,0.00219025,-0.000110139,-0.138379,0.00149823,0.0142883,839,582,-11.5263,25.8797
-378,442,-11.546,-26.788,0.00273761,-0.000431085,-0.000220024,0.00275282,-0.00044629,-0.0689955,0.00200064,0.0198194,846,582,-11.546,26.788
-371,442,-11.5953,-27.7855,0,0,0,0,0,0,0,-1,853,582,-11.5953,27.7855
-364,442,-6.89764,-17.5333,0,0,0,0,0,0,0,-1,860,582,-6.89765,17.5333
-357,442,-4.9115,-11.2649,0,0,0,0,0,0,0,-1,867,582,-4.91147,11.2649
-350,442,-1.75372,-6.27618,0,0,0,0,0,0,0,-1,874,582,-1.75371,6.27618
-343,442,-1.4599,-4.63605,0,0,0,0,0,0,0,-1,881,582,-1.4599,4.63607
-336,442,-1.4054,-2.64313,0,0,0,0,0,0,0,-1,888,582,-1.40539,2.64315
-329,442,-0.952576,-2.76923,0,0,0,0,0,0,0,-1,895,582,-0.952571,2.7692
-322,442,-0.972534,-2.63208,0,0,0,0,0,0,0,-1,902,582,-0.972512,2.6321
-315,442,-0.445557,-2.89764,0,0,0,0,0,0,0,-1,909,582,-0.445582,2.89765
-308,442,-0.654175,-3.07831,0,0,0,0,0,0,0,-1,916,582,-0.654145,3.07832
-301,442,-1.37427,-2.41455,0,0,0,0,0,0,0,-1,923,582,-1.37425,2.41453
-294,442,-2.99963,-2.07855,0,0,0,0,0,0,0,-1,930,582,-2.99964,2.07857
-287,442,3.91034,-10.1913,0,0,0,0,0,0,0,-1,937,582,3.91034,10.1913
-280,442,0,0,0,0,0,0,0,0,0,-1,944,582,0,0
-273,442,0,0,0,0,0,0,0,0,0,-1,951,582,0,0
-266,442,0,0,0,0,0,0,0,0,0,-1,958,582,0,0
-259,442,0,0,0,0,0,0,0,0,0,-1,965,582,0,0
-252,442,0,0,0,0,0,0,0,0,0,-1,972,582,0,0
-245,442,0,0,0,0,0,0,0,0,0,-1,979,582,0,0
-238,442,0,0,0,0,0,0,0,0,0,-1,986,582,0,0
-231,442,0,0,0,0,0,0,0,0,0,-1,993,582,0,0
-224,442,0,0,0,0,0,0,0,0,0,-1,1000,582,0,0
-217,442,0,0,0,0,0,0,0,0,0,-1,1007,582,0,0
-210,442,0,0,0,0,0,0,0,0,0,-1,1014,582,0,0
-203,442,0,0,0,0,0,0,0,0,0,-1,1021,582,0,0
-196,442,0,0,0,0,0,0,0,0,0,-1,1028,582,0,0
-189,442,0,0,0,0,0,0,0,0,0,-1,1035,582,0,0
-182,442,0,0,0,0,0,0,0,0,0,-1,1042,582,0,0
-175,442,0,0,0,0,0,0,0,0,0,-1,1049,582,0,0
-168,442,0,0,0,0,0,0,0,0,0,-1,1056,582,0,0
-161,442,0,0,0,0,0,0,0,0,0,-1,1063,582,0,0
-154,442,0,0,0,0,0,0,0,0,0,-1,1070,582,0,0
-147,442,0,0,0,0,0,0,0,0,0,-1,1077,582,0,0
-140,442,0,0,0,0,0,0,0,0,0,-1,1084,582,0,0
-133,442,0,0,0,0,0,0,0,0,0,-1,1091,582,0,0
-126,442,0,0,0,0,0,0,0,0,0,-1,1098,582,0,0
-119,442,0,0,0,0,0,0,0,0,0,-1,1105,582,0,0
-112,442,0,0,0,0,0,0,0,0,0,-1,1112,582,0,0
-105,442,0,0,0,0,0,0,0,0,0,-1,1119,582,0,0
-98,442,0,0,0,0,0,0,0,0,0,-1,1126,582,0,0
-91,442,0,0,0,0,0,0,0,0,0,-1,1133,582,0,0
-84,442,0,0,0,0,0,0,0,0,0,-1,1140,582,0,0
-77,442,0,0,0,0,0,0,0,0,0,-1,1147,582,0,0
-70,442,0,0,0,0,0,0,0,0,0,-1,1154,582,0,0
-63,442,0,0,0,0,0,0,0,0,0,-1,1161,582,0,0
-56,442,0,0,0,0,0,0,0,0,0,-1,1168,582,0,0
-49,442,0,0,0,0,0,0,0,0,0,-1,1175,582,0,0
-42,442,0,0,0,0,0,0,0,0,0,-1,1182,582,0,0
-35,442,0,0,0,0,0,0,0,0,0,-1,1189,582,0,0
-28,442,0,0,0,0,0,0,0,0,0,-1,1196,582,0,0
-21,442,0,0,0,0,0,0,0,0,0,-1,1203,582,0,0
-14,442,0,0,0,0,0,0,0,0,0,-1,1210,582,0,0
-7,442,0,0,0,0,0,0,0,0,0,-1,1217,582,0,0
0,442,0,0,0,0,0,0,0,0,0,-1,1224,582,0,0
7,442,0,0,0,0,0,0,0,0,0,-1,1231,582,0,0
14,442,0,0,0,0,0,0,0,0,0,-1,1238,582,0,0
21,442,0,0,0,0,0,0,0,0,0,-1,1245,582,0,0
28,442,0,0,0,0,0,0,0,0,0,-1,1252,582,0,0
35,442,0,0,0,0,0,0,0,0,0,-1,1259,582,0,0
42,442,0,0,0,0,0,0,0,0,0,-1,1266,582,0,0
49,442,0,0,0,0,0,0,0,0,0,-1,1273,582,0,0
56,442,0,0,0,0,0,0,0,0,0,-1,1280,582,0,0
63,442,0,0,0,0,0,0,0,0,0,-1,1287,582,0,0
70,442,0,0,0,0,0,0,0,0,0,-1,1294,582,0,0
77,442,0,0,0,0,0,0,0,0,0,-1,1301,582,0,0
84,442,0,0,0,0,0,0,0,0,0,-1,1308,582,0,0
91,442,0,0,0,0,0,0,0,0,0,-1,1315,582,0,0
98,442,0,0,0,0,0,0,0,0,0,-1,1322,582,0,0
105,442,0,0,0,0,0,0,0,0,0,-1,1329,582,0,0
112,442,0,0,0,0,0,0,0,0,0,-1,1336,582,0,0
119,442,0,0,0,0,0,0,0,0,0,-1,1343,582,0,0
126,442,0,0,0,0,0,0,0,0,0,-1,1350,582,0,0
133,442,0,0,0,0,0,0,0,0,0,-1,1357,582,0,0
140,442,0,0,0,0,0,0,0,0,0,-1,1364,582,0,0
147,442,0,0,0,0,0,0,0,0,0,-1,1371,582,0,0
154,442,0,0,0,0,0,0,0,0,0,-1,1378,582,0,0
161,442,0,0,0,0,0,0,0,0,0,-1,1385,582,0,0
168,442,0,0,0,0,0,0,0,0,0,-1,1392,582,0,0
175,442,0,0,0,0,0,0,0,0,0,-1,1399,582,0,0
182,442,0,0,0,0,0,0,0,0,0,-1,1406,582,0,0
189,442,0,0,0,0,0,0,0,0,0,-1,1413,582,0,0
196,442,0,0,0,0,0,0,0,0,0,-1,1420,582,0,0
203,442,0,0,0,0,0,0,0,0,0,-1,1427,582,0,0
210,442,0,0,0,0,0,0,0,0,0,-1,1434,582,0,0
217,442,0,0,0,0,0,0,0,0,0,-1,1441,582,0,0
224,442,0,0,0,0,0,0,0,0,0,-1,1448,582,0,0
231,442,0,0,0,0,0,0,0,0,0,-1,1455,582,0,0
238,442,0,0,0,0,0,0,0,0,0,-1,1462,582,0,0
245,442,0,0,0,0,0,0,0,0,0,-1,1469,582,0,0
252,442,0,0,0,0,0,0,0,0,0,-1,1476,582,0,0
259,442,0,0,0,0,0,0,0,0,0,-1,1483,582,0,0
266,442,0,0,0,0,0,0,0,0,0,-1,1490,582,0,0
273,442,0,0,0,0,0,0,0,0,0,-1,1497,582,0,0
280,442,0,0,0,0,0,0,0,0,0,-1,1504,582,0,0
287,442,0,0,0,0,0,0,0,0,0,-1,1511,582,0,0
294,442,0,0,0,0,0,0,0,0,0,-1,1518,582,0,0
301,442,0,0,0,0,0,0,0,0,0,-1,1525,582,0,0
308,442,0,0,0,0,0,0,0,0,0,-1,1532,582,0,0
315,442,0,0,0,0,0,0,0,0,0,-1,1539,582,0,0
322,442,0,0,0,0,0,0,0,0,0,-1,1546,582,0,0
329,442,0,0,0,0,0,0,0,0,0,-1,1553,582,0,0
336,442,0,0,0,0,0,0,0,0,0,-1,1560,582,0,0
343,442,0,0,0,0,0,0,0,0,0,-1,1567,582,0,0
350,442,0,0,0,0,0,0,0,0,0,-1,1574,582,0,0
357,442,0,0,0,0,0,0,0,0,0,-1,1581,582,0,0
364,442,0,0,0,0,0,0,0,0,0,-1,1588,582,0,0
371,442,0,0,0,0,0,0,0,0,0,-1,1595,582,0,0
378,442,0,0,0,0,0,0,0,0,0,-1,1602,582,0,0
385,442,0,0,0,0,0,0,0,0,0,-1,1609,582,0,0
392,442,0,0,0,0,0,0,0,0,0,-1,1616,582,0,0
399,442,0,0,0,0,0,0,0,0,0,-1,1623,582,0,0
406,442,17.6321,4.08295,0,0,0,0,0,0,0,-1,1630,582,17.6321,-4.08293
413,442,25.4768,2.74445,0,0,0,0,0,0,0,-1,1637,582,25.4768,-2.74444
420,442,22.7478,1.55011,0,0,0,0,0,0,0,-1,1644,582,22.7478,-1.55009
427,442,23.2969,-0.456787,0,0,0,0,0,0,0,-1,1651,582,23.2968,0.456769
434,442,23.9512,-2.49365,0,0,0,0,0,0,0,-1,1658,582,23.9512,2.49366
441,442,24.8251,-4.43958,0,0,0,0,0,0,0,-1,1665,582,24.8251,4.43956
448,442,4.7749,-5.88562,0,0,0,0,0,0,0,-1,1672,582,4.7749,5.8856
455,442,4.87024,-4.60687,0,0,0,0,0,0,0,-1,1679,582,4.87019,4.60686
462,442,5.02307,-3.72821,0,0,0,0,0,0,0,-1,1686,582,5.02311,3.7282
469,442,5.12976,-2.98834,0,0,0,0,0,0,0,-1,1693,582,5.12971,2.98834
476,442,5.4624,1.76947,0,0,0,0,0,0,0,-1,1700,582,5.46234,-1.76944
483,442,5.98486,1.87042,0,0,0,0,0,0,0,-1,1707,582,5.98492,-1.87045
490,442,5.04407,-2.35834,0,0,0,0,0,0,0,-1,1714,582,5.04411,2.35837
497,442,6.20984,-3.07831,0,0,0,0,0,0,0,-1,1721,582,6.2098,3.07833
504,442,20.9276,-19.7709,0,0,0,0,0,0,0,-1,1728,582,20.9276,19.771
511,442,27.3369,-25.4426,0,0,0,0,0,0,0,-1,1735,582,27.3369,25.4426
518,442,27.2999,-24.4825,0.00352117,0.00163108,0.00209687,0.00487612,0.000276132,0.573684,0.00316272,0.0172352,1742,582,27.3,24.4825
525,442,27.2104,-23.6108,0.0029404,0.00142168,0.00190533,0.00423212,0.000129965,0.595773,0.00277911,0.0114552,1749,582,27.2105,23.6108
532,442,27.1611,-22.7141,0.00238418,0.00133535,0.00170955,0.00364794,7.1583e-05,0.636576,0.00240846,0.0124522,1756,582,27.1612,22.7141
539,442,27.114,-21.7896,0.00192828,0.00140935,0.00157652,0.00326654,7.10906e-05,0.703837,0.00215439,0.0157542,1763,582,27.114,21.7896
546,442,27.0911,-20.8481,0.00155957,0.00164504,0.00145807,0.003061,0.000143615,0.800049,0.00199452,0.0212042,1770,582,27.0911,20.8481
553,442,26.9948,-19.9506,0.00121499,0.00206817,0.00141962,0.00312391,0.000159247,0.931354,0.0020316,0.0211277,1777,582,26.9948,19.9506
560,442,26.9707,-19.0696,0.000969073,0.00263552,0.00149905,0.00351735,8.72464e-05,1.03905,0.00231636,0.0163759,1784,582,26.9707,19.0696
567,442,26.9053,-18.1754,0.000945696,0.00343368,0.00178249,0.00436334,1.60341e-05,1.09005,0.00290357,0.0116294,1791,582,26.9053,18.1754
574,442,26.8501,-17.2574,0.00101144,0.00444207,0.0021943,0.00551194,-5.84372e-05,1.11714,0.00369426,0.0131883,1798,582,26.8501,17.2574
581,442,26.8658,-16.2332,0.0013311,0.00578585,0.00294211,0.00724862,-0.000131674,1.1094,0.0048769,0.0304647,1805,582,26.8659,16.2332
588,442,26.9585,-15.178,0,0,0,0,0,0,0,-1,1812,582,26.9585,15.178
595,442,16.27,-6.47083,0,0,0,0,0,0,0,-1,1819,582,16.27,6.47082
602,442,16.2213,-4.49225,0,0,0,0,0,0,0,-1,1826,582,16.2213,4.49223
609,442,12.761,2.97223,0,0,0,0,0,0,0,-1,1833,582,12.761,-2.97221
616,442,9.78345,-0.103394,0,0,0,0,0,0,0,-1,1840,582,9.78341,0.103424
623,442,9.23828,0.326721,0,0,0,0,0,0,0,-1,1847,582,9.23829,-0.326727
630,442,7.74304,2.3924,0,0,0,0,0,0,0,-1,1854,582,7.7431,-2.39238
637,442,5.87805,1.84027,0,0,0,0,0,0,0,-1,1861,582,5.87807,-1.84025
644,442,0,0,0,0,0,0,0,0,0,-1,1868,582,0,0
651,442,0,0,0,0,0,0,0,0,0,-1,1875,582,0,0
658,442,0,0,0,0,0,0,0,0,0,-1,1882,582,0,0
665,442,0,0,0,0,0,0,0,0,0,-1,1889,582,0,0
672,442,0,0,0,0,0,0,0,0,0,-1,1896,582,0,0
679,442,0,0,0,0,0,0,0,0,0,-1,1903,582,0,0
686,442,0,0,0,0,0,0,0,0,0,-1,1910,582,0,0
693,442,0,0,0,0,0,0,0,0,0,-1,1917,582,0,0
700,442,0,0,0,0,0,0,0,0,0,-1,1924,582,0,0
707,442,0,0,0,0,0,0,0,0,0,-1,1931,582,0,0
714,442,0,0,0,0,0,0,0,0,0,-1,1938,582,0,0
721,442,0,0,0,0,0,0,0,0,0,-1,1945,582,0,0
728,442,0,0,0,0,0,0,0,0,0,-1,1952,582,0,0
735,442,0,0,0,0,0,0,0,0,0,-1,1959,582,0,0
742,442,0,0,0,0,0,0,0,0,0,-1,1966,582,0,0
749,442,0,0,0,0,0,0,0,0,0,-1,1973,582,0,0
756,442,0,0,0,0,0,0,0,0,0,-1,1980,582,0,0
763,442,0,0,0,0,0,0,0,0,0,-1,1987,582,0,0
770,442,0,0,0,0,0,0,0,0,0,-1,1994,582,0,0
777,442,0,0,0,0,0,0,0,0,0,-1,2001,582,0,0
784,442,0,0,0,0,0,0,0,0,0,-1,2008,582,0,0
791,442,0,0,0,0,0,0,0,0,0,-1,2015,582,0,0
798,442,0,0,0,0,0,0,0,0,0,-1,2022,582,0,0
805,442,0,0,0,0,0,0,0,0,0,-1,2029,582,0,0
812,442,0,0,0,0,0,0,0,0,0,-1,2036,582,0,0
-700,435,0,0,0,0,0,0,0,0,0,-1,524,589,0,0
-693,435,0,0,0,0,0,0,0,0,0,-1,531,589,0,0
-686,435,0,0,0,0,0,0,0,0,0,-1,538,589,0,0
-679,435,0,0,0,0,0,0,0,0,0,-1,545,589,0,0
-672,435,0,0,0,0,0,0,0,0,0,-1,552,589,0,0
-665,435,0,0,0,0,0,0,0,0,0,-1,559,589,0,0
-658,435,0,0,0,0,0,0,0,0,0,-1,566,589,0,0
-651,435,0,0,0,0,0,0,0,0,0,-1,573,589,0,0
-644,435,0,0,0,0,0,0,0,0,0,-1,580,589,0,0
-637,435,0,0,0,0,0,0,0,0,0,-1,587,589,0,0
-630,435,0,0,0,0,0,0,0,0,0,-1,594,589,0,0
-623,435,0,0,0,0,0,0,0,0,0,-1,601,589,0,0
-616,435,0,0,0,0,0,0,0,0,0,-1,608,589,0,0
-609,435,0,0,0,0,0,0,0,0,0,-1,615,589,0,0
-602,435,0,0,0,0,0,0,0,0,0,-1,622,589,0,0
-595,435,0,0,0,0,0,0,0,0,0,-1,629,589,0,0
-588,435,0,0,0,0,0,0,0,0,0,-1,636,589,0,0
-581,435,0,0,0,0,0,0,0,0,0,-1,643,589,0,0
-574,435,0,0,0,0,0,0,0,0,0,-1,650,589,0,0
-567,435,0,0,0,0,0,0,0,0,0,-1,657,589,0,0
-560,435,0,0,0,0,0,0,0,0,0,-1,664,589,0,0
-553,435,0,0,0,0,0,0,0,0,0,-1,671,589,0,0
-546,435,0,0,0,0,0,0,0,0,0,-1,678,589,0,0
-539,435,0,0,0,0,0,0,0,0,0,-1,685,589,0,0
-532,435,0,0,0,0,0,0,0,0,0,-1,692,589,0,0
-525,435,-10.0776,10.0547,0,0,0,0,0,0,0,-1,699,589,-10.0776,-10.0547
-518,435,-1.83093,-5.82367,0,0,0,0,0,0,0,-1,706,589,-1.83093,5.8237
-511,435,-2.45154,-5.33118,0,0,0,0,0,0,0,-1,713,589,-2.45151,5.33115
-504,435,-3.07208,-4.83862,0,0,0,0,0,0,0,-1,720,589,-3.0721,4.8386
-497,435,-6.31012,-5.84698,0,0,0,0,0,0,0,-1,727,589,-6.31012,5.84697
-490,435,-5.81903,-0.458679,0,0,0,0,0,0,0,-1,734,589,-5.81902,0.458684
-483,435,-6.96503,-3.01624,0,0,0,0,0,0,0,-1,741,589,-6.96505,3.01623
-476,435,-12.1931,-13.3786,0,0,0,0,0,0,0,-1,748,589,-12.1931,13.3786
-469,435,-11.822,-14.5432,0,0,0,0,0,0,0,-1,755,589,-11.8219,14.5431
-462,435,-11.8865,-15.5958,0,0,0,0,0,0,0,-1,762,589,-11.8865,15.5958
-455,435,-11.9286,-16.7921,-0.00233098,0.00281837,0.000817579,0.00294506,-0.00245767,1.41706,0.0031235,0.0298053,769,589,-11.9286,16.7921
-448,435,-11.9271,-17.7667,-0.00120751,0.00250078,0.000230535,0.00251506,-0.00122178,1.50895,0.00220011,0.0144223,776,589,-11.9271,17.7667
-441,435,-11.9814,-18.6708,-0.000373673,0.00217815,-0.000180169,0.00219081,-0.000386331,-1.50066,0.00160489,0.0118968,783,589,-11.9814,18.6708
-434,435,-12.04,-19.565,0.000206201,0.00186999,-0.000445891,0.00198195,9.42382e-05,-1.32478,0.00129103,0.0129753,790,589,-12.0399,19.565
-427,435,-12.101,-20.509,0.000645129,0.00166314,-0.000639198,0.00197124,0.00033703,-1.12164,0.00121747,0.0110013,797,589,-12.101,20.509
-420,435,-12.1349,-21.4095,0.00103067,0.00148656,-0.00078939,0.00208026,0.000436977,-0.925955,0.00126656,0.0111042,804,589,-12.1349,21.4096
-413,435,-12.1821,-22.3092,0.00123793,0.00124549,-0.000779508,0.00202123,0.000462191,-0.787822,0.00122289,0.0113412,811,589,-12.1822,22.3092
-406,435,-12.2423,-23.2003,0.00136418,0.000984651,-0.000688212,0.00188831,0.000460522,-0.650872,0.0011369,0.0114469,818,589,-12.2423,23.2003
-399,435,-12.3224,-24.0845,0.00165586,0.000789414,-0.000685258,0.00203335,0.00041192,-0.503518,0.00124126,0.00983212,825,589,-12.3224,24.0845
-392,435,-12.3848,-24.9609,0.00204763,0.000609237,-0.000667689,0.00230979,0.000347081,-0.374138,0.00143819,0.0120066,832,589,-12.3848,24.9609
-385,435,-12.4143,-25.8523,0.00255423,0.000364486,-0.000670595,0.00274328,0.000175441,-0.274775,0.00177327,0.0242868,839,589,-12.4143,25.8523
-378,435,-12.3536,-26.8259,0,0,0,0,0,0,0,-1,846,589,-12.3536,26.8259
-371,435,-10.247,-21.7153,0,0,0,0,0,0,0,-1,853,589,-10.247,21.7153
-364,435,-5.62848,-11.5937,0,0,0,0,0,0,0,-1,860,589,-5.62847,11.5937
-357,435,-5.57343,-10.9666,0,0,0,0,0,0,0,-1,867,589,-5.57342,10.9666
-350,435,-0.86676,-3.69836,0,0,0,0,0,0,0,-1,874,589,-0.866784,3.69834
-343,435,-1.60706,-2.36835,0,0,0,0,0,0,0,-1,881,589,-1.60706,2.36838
-336,435,-2.07263,-1.94012,0,0,0,0,0,0,0,-1,888,589,-2.07265,1.94014
-329,435,-2.55963,-1.5517,0,0,0,0,0,0,0,-1,895,589,-2.5596,1.55168
-322,435,-3.08545,-1.55255,0,0,0,0,0,0,0,-1,902,589,-3.08544,1.55254
-315,435,-0.404297,-2.63763,0,0,0,0,0,0,0,-1,909,589,-0.404276,2.63761
-308,435,-1.70056,-1.90369,0,0,0,0,0,0,0,-1,916,589,-1.70056,1.90367
-301,435,-1.19391,-2.41632,0,0,0,0,0,0,0,-1,923,589,-1.1939,2.41635
-294,435,3.78278,-10.3275,0,0,0,0,0,0,0,-1,930,589,3.78281,10.3275
-287,435,0,0,0,0,0,0,0,0,0,-1,937,589,0,0
-280,435,0,0,0,0,0,0,0,0,0,-1,944,589,0,0
-273,435,0,0,0,0,0,0,0,0,0,-1,951,589,0,0
-266,435,0,0,0,0,0,0,0,0,0,-1,958,589,0,0
-259,435,0,0,0,0,0,0,0,0,0,-1,965,589,0,0
-252,435,0,0,0,0,0,0,0,0,0,-1,972,589,0,0
-245,435,0,0,0,0,0,0,0,0,0,-1,979,589,0,0
-238,435,0,0,0,0,0,0,0,0,0,-1,986,589,0,0
-231,435,0,0,0,0,0,0,0,0,0,-1,993,589,0,0
-224,435,0,0,0,0,0,0,0,0,0,-1,1000,589,0,0
-217,435,0,0,0,0,0,0,0,0,0,-1,1007,589,0,0
-210,435,0,0,0,0,0,0,0,0,0,-1,1014,589,0,0
-203,435,0,0,0,0,0,0,0,0,0,-1,1021,589,0,0
-196,435,0,0,0,0,0,0,0,0,0,-1,1028,589,0,0
-189,435,0,0,0,0,0,0,0,0,0,-1,1035,589,0,0
-182,435,0,0,0,0,0,0,0,0,0,-1,1042,589,0,0
-175,435,0,0,0,0,0,0,0,0,0,-1,1049,589,0,0
-168,435,0,0,0,0,0,0,0,0,0,-1,1056,589,0,0
-161,435,0,0,0,0,0,0,0,0,0,-1,1063,589,0,0
-154,435,0,0,0,0,0,0,0,0,0,-1,1070,589,0,0
-147,435,0,0,0,0,0,0,0,0,0,-1,1077,589,0,0
-140,435,0,0,0,0,0,0,0,0,0,-1,1084,589,0,0
-133,435,0,0,0,0,0,0,0,0,0,-1,1091,589,0,0
-126,435,0,0,0,0,0,0,0,0,0,-1,1098,589,0,0
-119,435,0,0,0,0,0,0,0,0,0,-1,1105,589,0,0
-112,435,0,0,0,0,0,0,0,0,0,-1,1112,589,0,0
-105,435,0,0,0,0,0,0,0,0,0,-1,1119,589,0,0
-98,435,0,0,0,0,0,0,0,0,0,-1,1126,589,0,0
-91,435,0,0,0,0,0,0,0,0,0,-1,1133,589,0,0
-84,435,0,0,0,0,0,0,0,0,0,-1,1140,589,0,0
-77,435,0,0,0,0,0,0,0,0,0,-1,1147,589,0,0
-70,435,0,0,0,0,0,0,0,0,0,-1,1154,589,0,0
-63,435,0,0,0,0,0,0,0,0,0,-1,1161,589,0,0
-56,435,0,0,0,0,0,0,0,0,0,-1,1168,589,0,0
-49,435,0,0,0,0,0,0,0,0,0,-1,1175,589,0,0
-42,435,0,0,0,0,0,0,0,0,0,-1,1182,589,0,0
-35,435,0,0,0,0,0,0,0,0,0,-1,1189,589,0,0
-28,435,0,0,0,0,0,0,0,0,0,-1,1196,589,0,0
-21,435,0,0,0,0,0,0,0,0,0,-1,1203,589,0,0
-14,435,0,0,0,0,0,0,0,0,0,-1,1210,589,0,0
-7,435,0,0,0,0,0,0,0,0,0,-1,1217,589,0,0
0,435,0,0,0,0,0,0,0,0,0,-1,1224,589,0,0
7,435,0,0,0,0,0,0,0,0,0,-1,1231,589,0,0
14,435,0,0,0,0,0,0,0,0,0,-1,1238,589,0,0
21,435,0,0,0,0,0,0,0,0,0,-1,1245,589,0,0
28,435,0,0,0,0,0,0,0,0,0,-1,1252,589,0,0
35,435,0,0,0,0,0,0,0,0,0,-1,1259,589,0,0
42,435,0,0,0,0,0,0,0,0,0,-1,1266,589,0,0
49,435,0,0,0,0,0,0,0,0,0,-1,1273,589,0,0
56,435,0,0,0,0,0,0,0,0,0,-1,1280,589,0,0
63,435,0,0,0,0,0,0,0,0,0,-1,1287,589,0,0
70,435,0,0,0,0,0,0,0,0,0,-1,1294,589,0,0
77,435,0,0,0,0,0,0,0,0,0,-1,1301,589,0,0
84,435,0,0,0,0,0,0,0,0,0,-1,1308,589,0,0
91,435,0,0,0,0,0,0,0,0,0,-1,1315,589,0,0
98,435,0,0,0,0,0,0,0,0,0,-1,1322,589,0,0
105,435,0,0,0,0,0,0,0,0,0,-1,1329,589,0,0
112,435,0,0,0,0,0,0,0,0,0,-1,1336,589,0,0
119,435,0,0,0,0,0,0,0,0,0,-1,1343,589,0,0
126,435,0,0,0,0,0,0,0,0,0,-1,1350,589,0,0
133,435,0,0,0,0,0,0,0,0,0,-1,1357,589,0,0
140,435,0,0,0,0,0,0,0,0,0,-1,1364,589,0,0
147,435,0,0,0,0,0,0,0,0,0,-1,1371,589,0,0
154,435,0,0,0,0,0,0,0,0,0,-1,1378,589,0,0
161,435,0,0,0,0,0,0,0,0,0,-1,1385,589,0,0
168,435,0,0,0,0,0,0,0,0,0,-1,1392,589,0,0
175,435,0,0,0,0,0,0,0,0,0,-1,1399,589,0,0
182,435,0,0,0,0,0,0,0,0,0,-1,1406,589,0,0
189,435,0,0,0,0,0,0,0,0,0,-1,1413,589,0,0
196,435,0,0,0,0,0,0,0,0,0,-1,1420,589,0,0
203,435,0,0,0,0,0,0,0,0,0,-1,1427,589,0,0
210,435,0,0,0,0,0,0,0,0,0,-1,1434,589,0,0
217,435,0,0,0,0,0,0,0,0,0,-1,1441,589,0,0
224,435,0,0,0,0,0,0,0,0,0,-1,1448,589,0,0
231,435,0,0,0,0,0,0,0,0,0,-1,1455,589,0,0
238,435,0,0,0,0,0,0,0,0,0,-1,1462,589,0,0
245,435,0,0,0,0,0,0,0,0,0,-1,1469,589,0,0
252,435,0,0,0,0,0,0,0,0,0,-1,1476,589,0,0
259,435,0,0,0,0,0,0,0,0,0,-1,1483,589,0,0
266,435,0,0,0,0,0,0,0,0,0,-1,1490,589,0,0
273,435,0,0,0,0,0,0,0,0,0,-1,1497,589,0,0
280,435,0,0,0,0,0,0,0,0,0,-1,1504,589,0,0
287,435,0,0,0,0,0,0,0,0,0,-1,1511,589,0,0
294,435,0,0,0,0,0,0,0,0,0,-1,1518,589,0,0
301,435,0,0,0,0,0,0,0,0,0,-1,1525,589,0,0
308,435,0,0,0,0,0,0,0,0,0,-1,1532,589,0,0
315,435,0,0,0,0,0,0,0,0,0,-1,1539,589,0,0
322,435,0,0,0,0,0,0,0,0,0,-1,1546,589,0,0
329,435,0,0,0,0,0,0,0,0,0,-1,1553,589,0,0
336,435,0,0,0,0,0,0,0,0,0,-1,1560,589,0,0
343,435,0,0,0,0,0,0,0,0,0,-1,1567,589,0,0
350,435,0,0,0,0,0,0,0,0,0,-1,1574,589,0,0
357,435,0,0,0,0,0,0,0,0,0,-1,1581,589,0,0
364,435,0,0,0,0,0,0,0,0,0,-1,1588,589,0,0
371,435,0,0,0,0,0,0,0,0,0,-1,1595,589,0,0
378,435,0,0,0,0,0,0,0,0,0,-1,1602,589,0,0
385,435,0,0,0,0,0,0,0,0,0,-1,1609,589,0,0
392,435,0,0,0,0,0,0,0,0,0,-1,1616,589,0,0
399,435,0,0,0,0,0,0,0,0,0,-1,1623,589,0,0
406,435,0,0,0,0,0,0,0,0,0,-1,1630,589,0,0
413,435,20.4565,3.49835,0,0,0,0,0,0,0,-1,1637,589,20.4565,-3.49836
420,435,21.4015,1.49609,0,0,0,0,0,0,0,-1,1644,589,21.4015,-1.49609
427,435,22.0464,-0.373962,0,0,0,0,0,0,0,-1,1651,589,22.0464,0.373972
434,435,22.1863,-1.54407,0,0,0,0,0,0,0,-1,1658,589,22.1862,1.54405
441,435,22.3992,-2.38287,0,0,0,0,0,0,0,-1,1665,589,22.3992,2.38289
448,435,7.4585,-0.00292969,0,0,0,0,0,0,0,-1,1672,589,7.45848,0.00294131
455,435,5.49915,-5.047,0,0,0,0,0,0,0,-1,1679,589,5.49914,5.04703
462,435,5.60669,-4.71466,0,0,0,0,0,0,0,-1,1686,589,5.60675,4.71469
469,435,5.87708,1.22351,0,0,0,0,0,0,0,-1,1693,589,5.87703,-1.22351
476,435,6.14136,1.37714,0,0,0,0,0,0,0,-1,1700,589,6.14138,-1.37712
483,435,6.49243,1.36169,0,0,0,0,0,0,0,-1,1707,589,6.49242,-1.36171
490,435,4.38391,-1.36218,0,0,0,0,0,0,0,-1,1714,589,4.38389,1.3622
497,435,7.23499,-3.64551,0,0,0,0,0,0,0,-1,1721,589,7.23495,3.64551
504,435,7.31189,-3.75909,0,0,0,0,0,0,0,-1,1728,589,7.31184,3.75911
511,435,27.9341,-25.5654,0,0,0,0,0,0,0,-1,1735,589,27.9341,25.5654
518,435,28.1842,-24.4852,0.00466354,0.00207913,0.00269981,0.00636446,0.000378208,0.562196,0.00412269,0.0465124,1742,589,28.1842,24.4852
525,435,28.1154,-23.5534,0.00388817,0.00167321,0.00232885,0.00535946,0.000201925,0.56345,0.0035076,0.0129172,1749,589,28.1154,23.5534
532,435,28.0925,-22.6412,0.00317801,0.00142004,0.00196813,0.00445452,0.000143526,0.575383,0.00292301,0.0151133,1756,589,28.0926,22.6412
539,435,28.0385,-21.7101,0.00261831,0.00136699,0.00171245,0.00381581,0.000169482,0.610252,0.0024893,0.0173372,1763,589,28.0385,21.7102
546,435,27.9976,-20.806,0.0021491,0.00146233,0.00148969,0.00333447,0.000276964,0.672123,0.00213665,0.0174093,1770,589,27.9975,20.806
553,435,27.9344,-19.9224,0.00171551,0.00176013,0.00136522,0.00310322,0.00037242,0.793569,0.00195652,0.0122142,1777,589,27.9345,19.9224
560,435,27.8782,-19.0204,0.00137738,0.00219871,0.00137041,0.00321867,0.00035742,0.930974,0.00203712,0.010592,1784,589,27.8781,19.0204
567,435,27.8215,-18.0976,0.0012618,0.00286227,0.00159618,0.00384757,0.000276489,1.01776,0.00247803,0.00993253,1791,589,27.8216,18.0976
574,435,27.7593,-17.1865,0.00128654,0.00372299,0.00194956,0.00480365,0.000205891,1.06465,0.00313605,0.0103921,1798,589,27.7593,17.1865
581,435,27.6956,-16.2742,0.00157986,0.00484549,0.0025893,0.00627381,0.00015154,1.06671,0.00413295,0.0180474,1805,589,27.6956,16.2743
588,435,27.6354,-15.3149,0,0,0,0,0,0,0,-1,1812,589,27.6354,15.3149
595,435,27.4425,-14.0685,0,0,0,0,0,0,0,-1,1819,589,27.4425,14.0685
602,435,16.8671,-6.39026,0,0,0,0,0,0,0,-1,1826,589,16.867,6.39024
609,435,15.2611,-3.42242,0,0,0,0,0,0,0,-1,1833,589,15.2611,3.42242
616,435,5.05151,-2.75269,0,0,0,0,0,0,0,-1,1840,589,5.05157,2.7527
623,435,11.7588,3.9704,0,0,0,0,0,0,0,-1,1847,589,11.7587,-3.97043
630,435,4.72742,-0.87561,0,0,0,0,0,0,0,-1,1854,589,4.7274,0.875636
637,435,5.05286,1.48792,0,0,0,0,0,0,0,-1,1861,589,5.05291,-1.48792
644,435,0,0,0,0,0,0,0,0,0,-1,1868,589,0,0
651,435,0,0,0,0,0,0,0,0,0,-1,1875,589,0,0
658,435,0,0,0,0,0,0,0,0,0,-1,1882,589,0,0
665,435,0,0,0,0,0,0,0,0,0,-1,1889,589,0,0
672,435,0,0,0,0,0,0,0,0,0,-1,1896,589,0,0
679,435,0,0,0,0,0,0,0,0,0,-1,1903,589,0,0
686,435,0,0,0,0,0,0,0,0,0,-1,1910,589,0,0
693,435,0,0,0,0,0,0,0,0,0,-1,1917,589,0,0
700,435,0,0,0,0,0,0,0,0,0,-1,1924,589,0,0
707,435,0,0,0,0,0,0,0,0,0,-1,1931,589,0,0
714,435,0,0,0,0,0,0,0,0,0,-1,1938,589,0,0
721,435,0,0,0,0,0,0,0,0,0,-1,1945,589,0,0
728,435,0,0,0,0,0,0,0,0,0,-1,1952,589,0,0
735,435,0,0,0,0,0,0,0,0,0,-1,1959,589,0,0
742,435,0,0,0,0,0,0,0,0,0,-1,1966,589,0,0
749,435,0,0,0,0,0,0,0,0,0,-1,1973,589,0,0
756,435,0,0,0,0,0,0,0,0,0,-1,1980,589,0,0
763,435,0,0,0,0,0,0,0,0,0,-1,1987,589,0,0
770,435,0,0,0,0,0,0,0,0,0,-1,1994,589,0,0
777,435,0,0,0,0,0,0,0,0,0,-1,2001,589,0,0
784,435,0,0,0,0,0,0,0,0,0,-1,2008,589,0,0
791,435,0,0,0,0,0,0,0,0,0,-1,2015,589,0,0
798,435,0,0,0,0,0,0,0,0,0,-1,2022,589,0,0
805,435,0,0,0,0,0,0,0,0,0,-1,2029,589,0,0
812,435,0,0,0,0,0,0,0,0,0,-1,2036,589,0,0
-700,428,0,0,0,0,0,0,0,0,0,-1,524,596,0,0
-693,428,0,0,0,0,0,0,0,0,0,-1,531,596,0,0
-686,428,0,0,0,0,0,0,0,0,0,-1,538,596,0,0
-679,428,0,0,0,0,0,0,0,0,0,-1,545,596,0,0
-672,428,0,0,0,0,0,0,0,0,0,-1,552,596,0,0
-665,428,0,0,0,0,0,0,0,0,0,-1,559,596,0,0
-658,428,0,0,0,0,0,0,0,0,0,-1,566,596,0,0
-651,428,0,0,0,0,0,0,0,0,0,-1,573,596,0,0
-644,428,0,0,0,0,0,0,0,0,0,-1,580,596,0,0
-637,428,0,0,0,0,0,0,0,0,0,-1,587,596,0,0
-630,428,0,0,0,0,0,0,0,0,0,-1,594,596,0,0
-623,428,0,0,0,0,0,0,0,0,0,-1,601,596,0,0
-616,428,0,0,0,0,0,0,0,0,0,-1,608,596,0,0
-609,428,0,0,0,0,0,0,0,0,0,-1,615,596,0,0
-602,428,0,0,0,0,0,0,0,0,0,-1,622,596,0,0
-595,428,0,0,0,0,0,0,0,0,0,-1,629,596,0,0
-588,428,0,0,0,0,0,0,0,0,0,-1,636,596,0,0
-581,428,0,0,0,0,0,0,0,0,0,-1,643,596,0,0
-574,428,0,0,0,0,0,0,0,0,0,-1,650,596,0,0
-567,428,0,0,0,0,0,0,0,0,0,-1,657,596,0,0
-560,428,0,0,0,0,0,0,0,0,0,-1,664,596,0,0
-553,428,0,0,0,0,0,0,0,0,0,-1,671,596,0,0
-546,428,0,0,0,0,0,0,0,0,0,-1,678,596,0,0
-539,428,0,0,0,0,0,0,0,0,0,-1,685,596,0,0
-532,428,0,0,0,0,0,0,0,0,0,-1,692,596,0,0
-525,428,-9.59918,7.58618,0,0,0,0,0,0,0,-1,699,596,-9.59918,-7.5862
-518,428,-2.92285,-4.81854,0,0,0,0,0,0,0,-1,706,596,-2.92285,4.81856
-511,428,-3.68811,-4.79474,0,0,0,0,0,0,0,-1,713,596,-3.68811,4.79474
-504,428,-4.45337,-4.77094,0,0,0,0,0,0,0,-1,720,596,-4.45337,4.77092
-497,428,-2.98108,-3.77502,0,0,0,0,0,0,0,-1,727,596,-2.98106,3.77505
-490,428,-6.39044,-2.80481,0,0,0,0,0,0,0,-1,734,596,-6.39047,2.80483
-483,428,-10.8474,-9.11322,0,0,0,0,0,0,0,-1,741,596,-10.8473,9.11321
-476,428,-12.4859,-13.9016,0,0,0,0,0,0,0,-1,748,596,-12.4859,13.9016
-469,428,-12.4879,-14.862,-0.0046951,0.00309375,0.00214969,0.00364766,-0.00524902,1.31861,0.00516416,0.0360744,755,596,-12.4879,14.862
-462,428,-12.6984,-15.7012,-0.00309941,0.00274374,0.00127283,0.00300896,-0.00336464,1.36536,0.00368171,0.0392054,762,596,-12.6984,15.7012
-455,428,-12.8031,-16.7266,-0.00181483,0.00216896,0.000681994,0.00228247,-0.00192834,1.40586,0.00243398,0.0186404,769,596,-12.8031,16.7266
-448,428,-12.8453,-17.674,-0.000792163,0.00187217,0.00018029,0.00188432,-0.000804307,1.50354,0.00159348,0.0122992,776,596,-12.8453,17.674
-441,428,-12.9081,-18.5883,-6.18988e-06,0.00161444,-0.000191521,0.00163677,-2.85156e-05,-1.45475,0.00110081,0.0141014,783,596,-12.9081,18.5883
-434,428,-12.9538,-19.5454,0.000561363,0.00138437,-0.000453247,0.00158505,0.000360683,-1.15398,0.000959343,0.0109119,790,596,-12.9538,19.5454
-427,428,-12.9946,-20.4921,0.00101354,0.00128066,-0.000681705,0.00184177,0.000452434,-0.882133,0.00110826,0.0121084,797,596,-12.9947,20.4921
-420,428,-13.0253,-21.3489,0.00139304,0.00122245,-0.000865536,0.00217747,0.000438013,-0.736284,0.00132991,0.0126591,804,596,-13.0254,21.349
-413,428,-13.0656,-22.2234,0.0015826,0.00114227,-0.000904905,0.00229374,0.000431133,-0.666068,0.00140763,0.0149982,811,596,-13.0656,22.2234
-406,428,-13.134,-23.1222,0.00171838,0.00109527,-0.000934101,0.00239151,0.000422134,-0.624432,0.00147392,0.0173182,818,596,-13.134,23.1222
-399,428,-13.1855,-24.0301,0.00203898,0.00106962,-0.00109666,0.00275329,0.000355311,-0.577325,0.0017293,0.0172561,825,596,-13.1855,24.0301
-392,428,-13.2269,-24.9684,0.00242902,0.00106702,-0.00123668,0.0031598,0.000336232,-0.533721,0.00200388,0.0379425,832,596,-13.2269,24.9685
-385,428,-13.3004,-25.9321,0,0,0,0,0,0,0,-1,839,596,-13.3004,25.9321
-378,428,-10.8172,-20.952,0,0,0,0,0,0,0,-1,846,596,-10.8172,20.952
-371,428,-5.96155,-11.0703,0,0,0,0,0,0,0,-1,853,596,-5.96154,11.0702
-364,428,-6.33643,-10.7223,0,0,0,0,0,0,0,-1,860,596,-6.33645,10.7223
-357,428,-3.20996,-4.70966,0,0,0,0,0,0,0,-1,867,596,-3.20997,4.70965
-350,428,-1.62793,-3.94055,0,0,0,0,0,0,0,-1,874,596,-1.62794,3.94055
-343,428,-0.0567017,-4.80994,0,0,0,0,0,0,0,-1,881,596,-0.0567096,4.80996
-336,428,-3.29175,-1.39569,0,0,0,0,0,0,0,-1,888,596,-3.29172,1.39568
-329,428,-3.71564,-0.791321,0,0,0,0,0,0,0,-1,895,596,-3.71564,0.791299
-322,428,-5.52863,-3.59827,0,0,0,0,0,0,0,-1,902,596,-5.52865,3.59829
-315,428,-4.57172,-1.22052,0,0,0,0,0,0,0,-1,909,596,-4.57171,1.22052
-308,428,-5.60742,-3.40961,0,0,0,0,0,0,0,-1,916,596,-5.60744,3.40959
-301,428,0,0,0,0,0,0,0,0,0,-1,923,596,0,0
-294,428,0,0,0,0,0,0,0,0,0,-1,930,596,0,0
-287,428,0,0,0,0,0,0,0,0,0,-1,937,596,0,0
-280,428,0,0,0,0,0,0,0,0,0,-1,944,596,0,0
-273,428,0,0,0,0,0,0,0,0,0,-1,951,596,0,0
-266,428,0,0,0,0,0,0,0,0,0,-1,958,596,0,0
-259,428,0,0,0,0,0,0,0,0,0,-1,965,596,0,0
-252,428,0,0,0,0,0,0,0,0,0,-1,972,596,0,0
-245,428,0,0,0,0,0,0,0,0,0,-1,979,596,0,0
-238,428,0,0,0,0,0,0,0,0,0,-1,986,596,0,0
-231,428,0,0,0,0,0,0,0,0,0,-1,993,596,0,0
-224,428,0,0,0,0,0,0,0,0,0,-1,1000,596,0,0
-217,428,0,0,0,0,0,0,0,0,0,-1,1007,596,0,0
-210,428,0,0,0,0,0,0,0,0,0,-1,1014,596,0,0
-203,428,0,0,0,0,0,0,0,0,0,-1,1021,596,0,0
-196,428,0,0,0,0,0,0,0,0,0,-1,1028,596,0,0
-189,428,0,0,0,0,0,0,0,0,0,-1,1035,596,0,0
-182,428,0,0,0,0,0,0,0,0,0,-1,1042,596,0,0
-175,428,0,0,0,0,0,0,0,0,0,-1,1049,596,0,0
-168,428,0,0,0,0,0,0,0,0,0,-1,1056,596,0,0
-161,428,0,0,0,0,0,0,0,0,0,-1,1063,596,0,0
-154,428,0,0,0,0,0,0,0,0,0,-1,1070,596,0,0
-147,428,0,0,0,0,0,0,0,0,0,-1,1077,596,0,0
-140,428,0,0,0,0,0,0,0,0,0,-1,1084,596,0,0
-133,428,0,0,0,0,0,0,0,0,0,-1,1091,596,0,0
-126,428,0,0,0,0,0,0,0,0,0,-1,1098,596,0,0
-119,428,0,0,0,0,0,0,0,0,0,-1,1105,596,0,0
-112,428,0,0,0,0,0,0,0,0,0,-1,1112,596,0,0
-105,428,0,0,0,0,0,0,0,0,0,-1,1119,596,0,0
-98,428,0,0,0,0,0,0,0,0,0,-1,1126,596,0,0
-91,428,0,0,0,0,0,0,0,0,0,-1,1133,596,0,0
-84,428,0,0,0,0,0,0,0,0,0,-1,1140,596,0,0
-77,428,0,0,0,0,0,0,0,0,0,-1,1147,596,0,0
-70,428,0,0,0,0,0,0,0,0,0,-1,1154,596,0,0
-63,428,0,0,0,0,0,0,0,0,0,-1,1161,596,0,0
-56,428,0,0,0,0,0,0,0,0,0,-1,1168,596,0,0
-49,428,0,0,0,0,0,0,0,0,0,-1,1175,596,0,0
-42,428,0,0,0,0,0,0,0,0,0,-1,1182,596,0,0
-35,428,0,0,0,0,0,0,0,0,0,-1,1189,596,0,0
-28,428,0,0,0,0,0,0,0,0,0,-1,1196,596,0,0
-21,428,0,0,0,0,0,0,0,0,0,-1,1203,596,0,0
-14,428,0,0,0,0,0,0,0,0,0,-1,1210,596,0,0
-7,428,0,0,0,0,0,0,0,0,0,-1,1217,596,0,0
0,428,0,0,0,0,0,0,0,0,0,-1,1224,596,0,0
7,428,0,0,0,0,0,0,0,0,0,-1,1231,596,0,0
14,428,0,0,0,0,0,0,0,0,0,-1,1238,596,0,0
21,428,0,0,0,0,0,0,0,0,0,-1,1245,596,0,0
28,428,0,0,0,0,0,0,0,0,0,-1,1252,596,0,0
35,428,0,0,0,0,0,0,0,0,0,-1,1259,596,0,0
42,428,0,0,0,0,0,0,0,0,0,-1,1266,596,0,0
49,428,0,0,0,0,0,0,0,0,0,-1,1273,596,0,0
56,428,0,0,0,0,0,0,0,0,0,-1,1280,596,0,0
63,428,0,0,0,0,0,0,0,0,0,-1,1287,596,0,0
70,428,0,0,0,0,0,0,0,0,0,-1,1294,596,0,0
77,428,0,0,0,0,0,0,0,0,0,-1,1301,596,0,0
84,428,0,0,0,0,0,0,0,0,0,-1,1308,596,0,0
91,428,0,0,0,0,0,0,0,0,0,-1,1315,596,0,0
98,428,0,0,0,0,0,0,0,0,0,-1,1322,596,0,0
105,428,0,0,0,0,0,0,0,0,0,-1,1329,596,0,0
112,428,0,0,0,0,0,0,0,0,0,-1,1336,596,0,0
119,428,0,0,0,0,0,0,0,0,0,-1,1343,596,0,0
126,428,0,0,0,0,0,0,0,0,0,-1,1350,596,0,0
133,428,0,0,0,0,0,0,0,0,0,-1,1357,596,0,0
140,428,0,0,0,0,0,0,0,0,0,-1,1364,596,0,0
147,428,0,0,0,0,0,0,0,0,0,-1,1371,596,0,0
154,428,0,0,0,0,0,0,0,0,0,-1,1378,596,0,0
161,428,0,0,0,0,0,0,0,0,0,-1,1385,596,0,0
168,428,0,0,0,0,0,0,0,0,0,-1,1392,596,0,0
175,428,0,0,0,0,0,0,0,0,0,-1,1399,596,0,0
182,428,0,0,0,0,0,0,0,0,0,-1,1406,596,0,0
189,428,0,0,0,0,0,0,0,0,0,-1,1413,596,0,0
196,428,0,0,0,0,0,0,0,0,0,-1,1420,596,0,0
203,428,0,0,0,0,0,0,0,0,0,-1,1427,596,0,0
210,428,0,0,0,0,0,0,0,0,0,-1,1434,596,0,0
217,428,0,0,0,0,0,0,0,0,0,-1,1441,596,0,0
224,428,0,0,0,0,0,0,0,0,0,-1,1448,596,0,0
231,428,0,0,0,0,0,0,0,0,0,-1,1455,596,0,0
238,428,0,0,0,0,0,0,0,0,0,-1,1462,596,0,0
245,428,0,0,0,0,0,0,0,0,0,-1,1469,596,0,0
252,428,0,0,0,0,0,0,0,0,0,-1,1476,596,0,0
259,428,0,0,0,0,0,0,0,0,0,-1,1483,596,0,0
266,428,0,0,0,0,0,0,0,0,0,-1,1490,596,0,0
273,428,0,0,0,0,0,0,0,0,0,-1,1497,596,0,0
280,428,0,0,0,0,0,0,0,0,0,-1,1504,596,0,0
287,428,0,0,0,0,0,0,0,0,0,-1,1511,596,0,0
294,428,0,0,0,0,0,0,0,0,0,-1,1518,596,0,0
301,428,0,0,0,0,0,0,0,0,0,-1,1525,596,0,0
308,428,0,0,0,0,0,0,0,0,0,-1,1532,596,0,0
315,428,0,0,0,0,0,0,0,0,0,-1,1539,596,0,0
322,428,0,0,0,0,0,0,0,0,0,-1,1546,596,0,0
329,428,0,0,0,0,0,0,0,0,0,-1,1553,596,0,0
336,428,0,0,0,0,0,0,0,0,0,-1,1560,596,0,0
343,428,0,0,0,0,0,0,0,0,0,-1,1567,596,0,0
350,428,0,0,0,0,0,0,0,0,0,-1,1574,596,0,0
357,428,0,0,0,0,0,0,0,0,0,-1,1581,596,0,0
364,428,0,0,0,0,0,0,0,0,0,-1,1588,596,0,0
371,428,0,0,0,0,0,0,0,0,0,-1,1595,596,0,0
378,428,0,0,0,0,0,0,0,0,0,-1,1602,596,0,0
385,428,0,0,0,0,0,0,0,0,0,-1,1609,596,0,0
392,428,0,0,0,0,0,0,0,0,0,-1,1616,596,0,0
399,428,0,0,0,0,0,0,0,0,0,-1,1623,596,0,0
406,428,0,0,0,0,0,0,0,0,0,-1,1630,596,0,0
413,428,0,0,0,0,0,0,0,0,0,-1,1637,596,0,0
420,428,19.8469,1.3399,0,0,0,0,0,0,0,-1,1644,596,19.8469,-1.33992
427,428,20.7299,-0.225281,0,0,0,0,0,0,0,-1,1651,596,20.7299,0.225262
434,428,19.8915,-0.583069,0,0,0,0,0,0,0,-1,1658,596,19.8915,0.583075
441,428,8.17993,0.607483,0,0,0,0,0,0,0,-1,1665,596,8.17997,-0.607513
448,428,7.84338,-0.385986,0,0,0,0,0,0,0,-1,1672,596,7.84336,0.385978
455,428,6.64038,2.1123,0,0,0,0,0,0,0,-1,1679,596,6.64037,-2.11229
462,428,4.84106,4.12341,0,0,0,0,0,0,0,-1,1686,596,4.84107,-4.12339
469,428,7.83789,3.10083,0,0,0,0,0,0,0,-1,1693,596,7.83785,-3.10086
476,428,7.61255,1.73956,0,0,0,0,0,0,0,-1,1700,596,7.61252,-1.73958
483,428,7.22766,1.05121,0,0,0,0,0,0,0,-1,1707,596,7.2277,-1.05121
490,428,5.4071,-3.2793,0,0,0,0,0,0,0,-1,1714,596,5.40707,3.27929
497,428,7.84106,-3.65491,0,0,0,0,0,0,0,-1,1721,596,7.84107,3.65491
504,428,6.92139,-2.83356,0,0,0,0,0,0,0,-1,1728,596,6.92137,2.83353
511,428,7.88501,-3.78723,0,0,0,0,0,0,0,-1,1735,596,7.88502,3.78722
518,428,28.983,-24.5328,0,0,0,0,0,0,0,-1,1742,596,28.983,24.5328
525,428,28.915,-23.5995,0.00496123,0.00199169,0.00295473,0.00678327,0.000169651,0.552573,0.0044667,0.0430166,1749,596,28.915,23.5995
532,428,28.9568,-22.5645,0.00406387,0.00154456,0.00232939,0.00545238,0.000156044,0.537535,0.00358404,0.0207948,1756,596,28.9568,22.5645
539,428,28.941,-21.6217,0.00337738,0.00135393,0.0018951,0.00451391,0.000217402,0.540212,0.00293949,0.0219247,1763,596,28.941,21.6217
546,428,28.8853,-20.762,0.00277738,0.00130042,0.00153666,0.0037438,0.000333997,0.561404,0.00239232,0.0171009,1770,596,28.8852,20.762
553,428,28.8265,-19.9002,0.00223777,0.00147492,0.00130847,0.00321928,0.000493417,0.643576,0.00200208,0.0115956,1777,596,28.8265,19.9002
560,428,28.7838,-18.9905,0.00179131,0.00179101,0.0012327,0.00302386,0.000558457,0.785337,0.00185794,0.0125702,1784,596,28.7838,18.9905
567,428,28.7372,-18.0468,0.00156444,0.00232971,0.00139755,0.00339606,0.000498091,0.919019,0.00211763,0.0122502,1791,596,28.7372,18.0468
574,428,28.6843,-17.1425,0.00150993,0.00305566,0.00170063,0.00415081,0.000414783,0.998675,0.00263983,0.0142976,1798,596,28.6843,17.1424
581,428,28.6136,-16.234,0.00169559,0.00398839,0.0022633,0.00537906,0.000304915,1.01982,0.00348885,0.012013,1805,596,28.6136,16.234
588,428,28.546,-15.2726,0.00218478,0.00525774,0.00313517,0.00721268,0.000229826,1.01324,0.00473371,0.0191007,1812,596,28.5461,15.2726
595,428,28.4772,-14.2918,0.00291021,0.00669255,0.0041585,0.00936971,0.000233049,0.998806,0.00617026,0.0318936,1819,596,28.4771,14.2918
602,428,28.5922,-13.2752,0,0,0,0,0,0,0,-1,1826,596,28.5922,13.2752
609,428,17.2073,-4.82446,0,0,0,0,0,0,0,-1,1833,596,17.2073,4.82447
616,428,15.7817,-3.09558,0,0,0,0,0,0,0,-1,1840,596,15.7817,3.09556
623,428,9.53577,1.12518,0,0,0,0,0,0,0,-1,1847,596,9.5358,-1.1252
630,428,7.07996,6.88562,0,0,0,0,0,0,0,-1,1854,596,7.0799,-6.88565
637,428,3.95435,1.90857,0,0,0,0,0,0,0,-1,1861,596,3.95439,-1.90858
644,428,5.75476,0.888977,0,0,0,0,0,0,0,-1,1868,596,5.75472,-0.888955
651,428,0,0,0,0,0,0,0,0,0,-1,1875,596,0,0
658,428,0,0,0,0,0,0,0,0,0,-1,1882,596,0,0
665,428,0,0,0,0,0,0,0,0,0,-1,1889,596,0,0
672,428,0,0,0,0,0,0,0,0,0,-1,1896,596,0,0
679,428,0,0,0,0,0,0,0,0,0,-1,1903,596,0,0
686,428,0,0,0,0,0,0,0,0,0,-1,1910,596,0,0
693,428,0,0,0,0,0,0,0,0,0,-1,1917,596,0,0
700,428,0,0,0,0,0,0,0,0,0,-1,1924,596,0,0
707,428,0,0,0,0,0,0,0,0,0,-1,1931,596,0,0
714,428,0,0,0,0,0,0,0,0,0,-1,1938,596,0,0
721,428,0,0,0,0,0,0,0,0,0,-1,1945,596,0,0
728,428,0,0,0,0,0,0,0,0,0,-1,1952,596,0,0
735,428,0,0,0,0,0,0,0,0,0,-1,1959,596,0,0
742,428,0,0,0,0,0,0,0,0,0,-1,1966,596,0,0
749,428,0,0,0,0,0,0,0,0,0,-1,1973,596,0,0
756,428,0,0,0,0,0,0,0,0,0,-1,1980,596,0,0
763,428,0,0,0,0,0,0,0,0,0,-1,1987,596,0,0
770,428,0,0,0,0,0,0,0,0,0,-1,1994,596,0,0
777,428,0,0,0,0,0,0,0,0,0,-1,2001,596,0,0
784,428,0,0,0,0,0,0,0,0,0,-1,2008,596,0,0
791,428,0,0,0,0,0,0,0,0,0,-1,2015,596,0,0
798,428,0,0,0,0,0,0,0,0,0,-1,2022,596,0,0
805,428,0,0,0,0,0,0,0,0,0,-1,2029,596,0,0
812,428,0,0,0,0,0,0,0,0,0,-1,2036,596,0,0
-700,421,0,0,0,0,0,0,0,0,0,-1,524,603,0,0
-693,421,0,0,0,0,0,0,0,0,0,-1,531,603,0,0
-686,421,0,0,0,0,0,0,0,0,0,-1,538,603,0,0
-679,421,0,0,0,0,0,0,0,0,0,-1,545,603,0,0
-672,421,0,0,0,0,0,0,0,0,0,-1,552,603,0,0
-665,421,0,0,0,0,0,0,0,0,0,-1,559,603,0,0
-658,421,0,0,0,0,0,0,0,0,0,-1,566,603,0,0
-651,421,0,0,0,0,0,0,0,0,0,-1,573,603,0,0
-644,421,0,0,0,0,0,0,0,0,0,-1,580,603,0,0
-637,421,0,0,0,0,0,0,0,0,0,-1,587,603,0,0
-630,421,0,0,0,0,0,0,0,0,0,-1,594,603,0,0
-623,421,0,0,0,0,0,0,0,0,0,-1,601,603,0,0
-616,421,0,0,0,0,0,0,0,0,0,-1,608,603,0,0
-609,421,0,0,0,0,0,0,0,0,0,-1,615,603,0,0
-602,421,0,0,0,0,0,0,0,0,0,-1,622,603,0,0
-595,421,0,0,0,0,0,0,0,0,0,-1,629,603,0,0
-588,421,0,0,0,0,0,0,0,0,0,-1,636,603,0,0
-581,421,0,0,0,0,0,0,0,0,0,-1,643,603,0,0
-574,421,0,0,0,0,0,0,0,0,0,-1,650,603,0,0
-567,421,0,0,0,0,0,0,0,0,0,-1,657,603,0,0
-560,421,0,0,0,0,0,0,0,0,0,-1,664,603,0,0
-553,421,0,0,0,0,0,0,0,0,0,-1,671,603,0,0
-546,421,0,0,0,0,0,0,0,0,0,-1,678,603,0,0
-539,421,0,0,0,0,0,0,0,0,0,-1,685,603,0,0
-532,421,-8.97382,6.95636,0,0,0,0,0,0,0,-1,692,603,-8.97384,-6.95634
-525,421,-2.11481,-8.04272,0,0,0,0,0,0,0,-1,699,603,-2.11483,8.0427
-518,421,-3.05908,-5.07233,0,0,0,0,0,0,0,-1,706,603,-3.0591,5.07235
-511,421,-4.63525,-4.08447,0,0,0,0,0,0,0,-1,713,603,-4.63524,4.08449
-504,421,-5.17029,-4.94458,0,0,0,0,0,0,0,-1,720,603,-5.17029,4.9446
-497,421,-6.63141,-2.32501,0,0,0,0,0,0,0,-1,727,603,-6.6314,2.32498
-490,421,-6.7616,-4.14783,0,0,0,0,0,0,0,-1,734,603,-6.76159,4.1478
-483,421,-13.184,-13.2487,0,0,0,0,0,0,0,-1,741,603,-13.184,13.2486
-476,421,-13.3708,-14.0447,-0.00495181,0.00273141,0.00238371,0.00341086,-0.00563127,1.29312,0.00527268,0.0442614,748,603,-13.3708,14.0447
-469,421,-13.608,-14.7629,-0.00357637,0.0023305,0.00156726,0.00272058,-0.00396645,1.32686,0.00388303,0.0361239,755,603,-13.6081,14.763
-462,421,-13.6449,-15.7793,-0.0023131,0.00192397,0.000936787,0.00212185,-0.00251097,1.36263,0.0026779,0.0236573,762,603,-13.6449,15.7793
-455,421,-13.6721,-16.7256,-0.0012408,0.00146283,0.000457331,0.00153809,-0.00131607,1.40769,0.00164951,0.0215693,769,603,-13.6721,16.7256
-448,421,-13.7481,-17.6206,-0.000337145,0.00119523,4.25216e-05,0.00119641,-0.000338324,1.54308,0.000931101,0.0198898,776,603,-13.7481,17.6206
-441,421,-13.8098,-18.5477,0.000393391,0.00101992,-0.000288922,0.00113281,0.000280497,-1.1983,0.000681238,0.014602,783,603,-13.8098,18.5477
-434,421,-13.871,-19.4918,0.000953631,0.0009107,-0.000550208,0.00148279,0.000381538,-0.765901,0.00088907,0.0109464,790,603,-13.871,19.4918
-427,421,-13.8918,-20.4072,0.00143073,0.000971204,-0.000817563,0.0020502,0.000351733,-0.648414,0.00126595,0.0105561,797,603,-13.8918,20.4072
-420,421,-13.9285,-21.2758,0.00181321,0.00111417,-0.00103683,0.00255784,0.000369532,-0.622828,0.00159637,0.0121405,804,603,-13.9285,21.2758
-413,421,-13.9918,-22.1683,0.00200814,0.00132602,-0.00114143,0.00285838,0.000475782,-0.640221,0.00176846,0.0153319,811,603,-13.9918,22.1683
-406,421,-14.0918,-23.0943,0.00221041,0.0016839,-0.00133879,0.00331158,0.00058273,-0.688317,0.00204139,0.022988,818,603,-14.0918,23.0943
-399,421,-14.0517,-23.9426,0,0,0,0,0,0,0,-1,825,603,-14.0517,23.9426
-392,421,-14.0081,-25.0006,0,0,0,0,0,0,0,-1,832,603,-14.0081,25.0006
-385,421,-11.5825,-18.8583,0,0,0,0,0,0,0,-1,839,603,-11.5825,18.8583
-378,421,-4.94733,-8.87909,0,0,0,0,0,0,0,-1,846,603,-4.94731,8.87906
-371,421,-5.65082,-7.01849,0,0,0,0,0,0,0,-1,853,603,-5.65082,7.0185
-364,421,-5.94189,-7.09875,0,0,0,0,0,0,0,-1,860,603,-5.94192,7.09878
-357,421,-7.62531,-8.26337,0,0,0,0,0,0,0,-1,867,603,-7.62532,8.26337
-350,421,-5.38019,-3.75024,0,0,0,0,0,0,0,-1,874,603,-5.38017,3.75026
-343,421,-6.22797,-2.57123,0,0,0,0,0,0,0,-1,881,603,-6.22798,2.57121
-336,421,-6.22882,-2.59369,0,0,0,0,0,0,0,-1,888,603,-6.22883,2.5937
-329,421,-4.50134,-1.49469,0,0,0,0,0,0,0,-1,895,603,-4.50137,1.49468
-322,421,-7.55817,1.13263,0,0,0,0,0,0,0,-1,902,603,-7.55818,-1.13263
-315,421,-4.16144,-1.96649,0,0,0,0,0,0,0,-1,909,603,-4.16146,1.9665
-308,421,0,0,0,0,0,0,0,0,0,-1,916,603,0,0
-301,421,0,0,0,0,0,0,0,0,0,-1,923,603,0,0
-294,421,0,0,0,0,0,0,0,0,0,-1,930,603,0,0
-287,421,0,0,0,0,0,0,0,0,0,-1,937,603,0,0
-280,421,0,0,0,0,0,0,0,0,0,-1,944,603,0,0
-273,421,0,0,0,0,0,0,0,0,0,-1,951,603,0,0
-266,421,0,0,0,0,0,0,0,0,0,-1,958,603,0,0
-259,421,0,0,0,0,0,0,0,0,0,-1,965,603,0,0
-252,421,0,0,0,0,0,0,0,0,0,-1,972,603,0,0
-245,421,0,0,0,0,0,0,0,0,0,-1,979,603,0,0
-238,421,0,0,0,0,0,0,0,0,0,-1,986,603,0,0
-231,421,0,0,0,0,0,0,0,0,0,-1,993,603,0,0
-224,421,0,0,0,0,0,0,0,0,0,-1,1000,603,0,0
-217,421,0,0,0,0,0,0,0,0,0,-1,1007,603,0,0
-210,421,0,0,0,0,0,0,0,0,0,-1,1014,603,0,0
-203,421,0,0,0,0,0,0,0,0,0,-1,1021,603,0,0
-196,421,0,0,0,0,0,0,0,0,0,-1,1028,603,0,0
-189,421,0,0,0,0,0,0,0,0,0,-1,1035,603,0,0
-182,421,0,0,0,0,0,0,0,0,0,-1,1042,603,0,0
-175,421,0,0,0,0,0,0,0,0,0,-1,1049,603,0,0
-168,421,0,0,0,0,0,0,0,0,0,-1,1056,603,0,0
-161,421,0,0,0,0,0,0,0,0,0,-1,1063,603,0,0
-154,421,0,0,0,0,0,0,0,0,0,-1,1070,603,0,0
-147,421,0,0,0,0,0,0,0,0,0,-1,1077,603,0,0
-140,421,0,0,0,0,0,0,0,0,0,-1,1084,603,0,0
-133,421,0,0,0,0,0,0,0,0,0,-1,1091,603,0,0
-126,421,0,0,0,0,0,0,0,0,0,-1,1098,603,0,0
-119,421,0,0,0,0,0,0,0,0,0,-1,1105,603,0,0
-112,421,0,0,0,0,0,0,0,0,0,-1,1112,603,0,0
-105,421,0,0,0,0,0,0,0,0,0,-1,1119,603,0,0
-98,421,0,0,0,0,0,0,0,0,0,-1,1126,603,0,0
-91,421,0,0,0,0,0,0,0,0,0,-1,1133,603,0,0
-84,421,0,0,0,0,0,0,0,0,0,-1,1140,603,0,0
-77,421,0,0,0,0,0,0,0,0,0,-1,1147,603,0,0
-70,421,0,0,0,0,0,0,0,0,0,-1,1154,603,0,0
-63,421,0,0,0,0,0,0,0,0,0,-1,1161,603,0,0
-56,421,0,0,0,0,0,0,0,0,0,-1,1168,603,0,0
-49,421,0,0,0,0,0,0,0,0,0,-1,1175,603,0,0
-42,421,0,0,0,0,0,0,0,0,0,-1,1182,603,0,0
-35,421,0,0,0,0,0,0,0,0,0,-1,1189,603,0,0
-28,421,0,0,0,0,0,0,0,0,0,-1,1196,603,0,0
-21,421,0,0,0,0,0,0,0,0,0,-1,1203,603,0,0
-14,421,0,0,0,0,0,0,0,0,0,-1,1210,603,0,0
-7,421,0,0,0,0,0,0,0,0,0,-1,1217,603,0,0
0,421,0,0,0,0,0,0,0,0,0,-1,1224,603,0,0
7,421,0,0,0,0,0,0,0,0,0,-1,1231,603,0,0
14,421,0,0,0,0,0,0,0,0,0,-1,1238,603,0,0
21,421,0,0,0,0,0,0,0,0,0,-1,1245,603,0,0
28,421,0,0,0,0,0,0,0,0,0,-1,1252,603,0,0
35,421,0,0,0,0,0,0,0,0,0,-1,1259,603,0,0
42,421,0,0,0,0,0,0,0,0,0,-1,1266,603,0,0
49,421,0,0,0,0,0,0,0,0,0,-1,1273,603,0,0
56,421,0,0,0,0,0,0,0,0,0,-1,1280,603,0,0
63,421,0,0,0,0,0,0,0,0,0,-1,1287,603,0,0
70,421,0,0,0,0,0,0,0,0,0,-1,1294,603,0,0
77,421,0,0,0,0,0,0,0,0,0,-1,1301,603,0,0
84,421,0,0,0,0,0,0,0,0,0,-1,1308,603,0,0
91,421,0,0,0,0,0,0,0,0,0,-1,1315,603,0,0
98,421,0,0,0,0,0,0,0,0,0,-1,1322,603,0,0
105,421,0,0,0,0,0,0,0,0,0,-1,1329,603,0,0
112,421,0,0,0,0,0,0,0,0,0,-1,1336,603,0,0
119,421,0,0,0,0,0,0,0,0,0,-1,1343,603,0,0
126,421,0,0,0,0,0,0,0,0,0,-1,1350,603,0,0
133,421,0,0,0,0,0,0,0,0,0,-1,1357,603,0,0
140,421,0,0,0,0,0,0,0,0,0,-1,1364,603,0,0
147,421,0,0,0,0,0,0,0,0,0,-1,1371,603,0,0
154,421,0,0,0,0,0,0,0,0,0,-1,1378,603,0,0
161,421,0,0,0,0,0,0,0,0,0,-1,1385,603,0,0
168,421,0,0,0,0,0,0,0,0,0,-1,1392,603,0,0
175,421,0,0,0,0,0,0,0,0,0,-1,1399,603,0,0
182,421,0,0,0,0,0,0,0,0,0,-1,1406,603,0,0
189,421,0,0,0,0,0,0,0,0,0,-1,1413,603,0,0
196,421,0,0,0,0,0,0,0,0,0,-1,1420,603,0,0
203,421,0,0,0,0,0,0,0,0,0,-1,1427,603,0,0
210,421,0,0,0,0,0,0,0,0,0,-1,1434,603,0,0
217,421,0,0,0,0,0,0,0,0,0,-1,1441,603,0,0
224,421,0,0,0,0,0,0,0,0,0,-1,1448,603,0,0
231,421,0,0,0,0,0,0,0,0,0,-1,1455,603,0,0
238,421,0,0,0,0,0,0,0,0,0,-1,1462,603,0,0
245,421,0,0,0,0,0,0,0,0,0,-1,1469,603,0,0
252,421,0,0,0,0,0,0,0,0,0,-1,1476,603,0,0
259,421,0,0,0,0,0,0,0,0,0,-1,1483,603,0,0
266,421,0,0,0,0,0,0,0,0,0,-1,1490,603,0,0
273,421,0,0,0,0,0,0,0,0,0,-1,1497,603,0,0
280,421,0,0,0,0,0,0,0,0,0,-1,1504,603,0,0
287,421,0,0,0,0,0,0,0,0,0,-1,1511,603,0,0
294,421,0,0,0,0,0,0,0,0,0,-1,1518,603,0,0
301,421,0,0,0,0,0,0,0,0,0,-1,1525,603,0,0
308,421,0,0,0,0,0,0,0,0,0,-1,1532,603,0,0
315,421,0,0,0,0,0,0,0,0,0,-1,1539,603,0,0
322,421,0,0,0,0,0,0,0,0,0,-1,1546,603,0,0
329,421,0,0,0,0,0,0,0,0,0,-1,1553,603,0,0
336,421,0,0,0,0,0,0,0,0,0,-1,1560,603,0,0
343,421,0,0,0,0,0,0,0,0,0,-1,1567,603,0,0
350,421,0,0,0,0,0,0,0,0,0,-1,1574,603,0,0
357,421,0,0,0,0,0,0,0,0,0,-1,1581,603,0,0
364,421,0,0,0,0,0,0,0,0,0,-1,1588,603,0,0
371,421,0,0,0,0,0,0,0,0,0,-1,1595,603,0,0
378,421,0,0,0,0,0,0,0,0,0,-1,1602,603,0,0
385,421,0,0,0,0,0,0,0,0,0,-1,1609,603,0,0
392,421,0,0,0,0,0,0,0,0,0,-1,1616,603,0,0
399,421,0,0,0,0,0,0,0,0,0,-1,1623,603,0,0
406,421,0,0,0,0,0,0,0,0,0,-1,1630,603,0,0
413,421,0,0,0,0,0,0,0,0,0,-1,1637,603,0,0
420,421,0,0,0,0,0,0,0,0,0,-1,1644,603,0,0
427,421,0,0,0,0,0,0,0,0,0,-1,1651,603,0,0
434,421,3.68176,-0.0327759,0,0,0,0,0,0,0,-1,1658,603,3.6818,0.0328037
441,421,8.06689,0.527832,0,0,0,0,0,0,0,-1,1665,603,8.06693,-0.527851
448,421,6.93921,0.802246,0,0,0,0,0,0,0,-1,1672,603,6.93923,-0.802251
455,421,7.29456,2.14825,0,0,0,0,0,0,0,-1,1679,603,7.29461,-2.14827
462,421,7.86902,3.53174,0,0,0,0,0,0,0,-1,1686,603,7.869,-3.53173
469,421,8.06604,2.81213,0,0,0,0,0,0,0,-1,1693,603,8.06606,-2.81212
476,421,8.26306,2.09253,0,0,0,0,0,0,0,-1,1700,603,8.26312,-2.09251
483,421,8.05322,0.798096,0,0,0,0,0,0,0,-1,1707,603,8.05323,-0.7981
490,421,7.51233,0.213074,0,0,0,0,0,0,0,-1,1714,603,7.51235,-0.213043
497,421,7.49634,-2.86688,0,0,0,0,0,0,0,-1,1721,603,7.4963,2.86688
504,421,6.90491,-2.18671,0,0,0,0,0,0,0,-1,1728,603,6.90491,2.18669
511,421,6.31348,-1.50653,0,0,0,0,0,0,0,-1,1735,603,6.31353,1.5065
518,421,6.27588,-2.49878,0,0,0,0,0,0,0,-1,1742,603,6.2759,2.4988
525,421,29.76,-23.8365,0,0,0,0,0,0,0,-1,1749,603,29.7601,23.8366
532,421,29.7847,-22.5848,0.00494293,0.00162919,0.00266891,0.00642744,0.000144678,0.507611,0.00423756,0.0475216,1756,603,29.7847,22.5848
539,421,29.8473,-21.5718,0.00410606,0.00133286,0.00205701,0.00520018,0.000238739,0.488838,0.00339001,0.0255096,1763,603,29.8472,21.5718
546,421,29.7902,-20.7147,0.00335331,0.00114292,0.00157099,0.00416892,0.000327315,0.478863,0.00267685,0.0144348,1770,603,29.7901,20.7146
553,421,29.7291,-19.8172,0.00271061,0.00121351,0.00125054,0.00341951,0.00050461,0.51571,0.00213148,0.0131194,1777,603,29.7291,19.8172
560,421,29.6843,-18.911,0.00216136,0.00141753,0.00110309,0.00295355,0.000625343,0.622804,0.00179722,0.0152323,1784,603,29.6843,18.911
567,421,29.6497,-18.0043,0.00182747,0.00182481,0.00120497,0.00303111,0.000621175,0.784846,0.0018488,0.018196,1791,603,29.6497,18.0043
574,421,29.5884,-17.1066,0.00170051,0.00242331,0.00146724,0.00357301,0.000550815,0.90615,0.00222128,0.0213397,1798,603,29.5884,17.1066
581,421,29.5313,-16.1762,0.00179481,0.00318511,0.00195485,0.00456473,0.000415196,0.956227,0.00291463,0.0204238,1805,603,29.5312,16.1762
588,421,29.4628,-15.2731,0.00216384,0.0042836,0.00271946,0.00614242,0.000305017,0.971213,0.00399716,0.013482,1812,603,29.4628,15.2731
595,421,29.4761,-14.3337,0.00279336,0.00555527,0.00367557,0.00810075,0.000247883,0.965095,0.0053198,0.0206749,1819,603,29.4761,14.3337
602,421,29.4821,-13.3528,0,0,0,0,0,0,0,-1,1826,603,29.4821,13.3529
609,421,22.8762,-8.37524,0,0,0,0,0,0,0,-1,1833,603,22.8762,8.37525
616,421,17.7633,-4.72491,0,0,0,0,0,0,0,-1,1840,603,17.7633,4.7249
623,421,6.19885,0.376648,0,0,0,0,0,0,0,-1,1847,603,6.19881,-0.376624
630,421,6.54993,0.778748,0,0,0,0,0,0,0,-1,1854,603,6.54991,-0.778744
637,421,3.74512,1.65405,0,0,0,0,0,0,0,-1,1861,603,3.74517,-1.65407
644,421,3.58081,0.354675,0,0,0,0,0,0,0,-1,1868,603,3.58082,-0.354704
651,421,3.28687,3.66351,0,0,0,0,0,0,0,-1,1875,603,3.28688,-3.66353
658,421,0,0,0,0,0,0,0,0,0,-1,1882,603,0,0
665,421,0,0,0,0,0,0,0,0,0,-1,1889,603,0,0
672,421,0,0,0,0,0,0,0,0,0,-1,1896,603,0,0
679,421,0,0,0,0,0,0,0,0,0,-1,1903,603,0,0
686,421,0,0,0,0,0,0,0,0,0,-1,1910,603,0,0
693,421,0,0,0,0,0,0,0,0,0,-1,1917,603,0,0
700,421,0,0,0,0,0,0,0,0,0,-1,1924,603,0,0
707,421,0,0,0,0,0,0,0,0,0,-1,1931,603,0,0
714,421,0,0,0,0,0,0,0,0,0,-1,1938,603,0,0
721,421,0,0,0,0,0,0,0,0,0,-1,1945,603,0,0
728,421,0,0,0,0,0,0,0,0,0,-1,1952,603,0,0
735,421,0,0,0,0,0,0,0,0,0,-1,1959,603,0,0
742,421,0,0,0,0,0,0,0,0,0,-1,1966,603,0,0
749,421,0,0,0,0,0,0,0,0,0,-1,1973,603,0,0
756,421,0,0,0,0,0,0,0,0,0,-1,1980,603,0,0
763,421,0,0,0,0,0,0,0,0,0,-1,1987,603,0,0
770,421,0,0,0,0,0,0,0,0,0,-1,1994,603,0,0
777,421,0,0,0,0,0,0,0,0,0,-1,2001,603,0,0
784,421,0,0,0,0,0,0,0,0,0,-1,2008,603,0,0
791,421,0,0,0,0,0,0,0,0,0,-1,2015,603,0,0
798,421,0,0,0,0,0,0,0,0,0,-1,2022,603,0,0
805,421,0,0,0,0,0,0,0,0,0,-1,2029,603,0,0
812,421,0,0,0,0,0,0,0,0,0,-1,2036,603,0,0
-700,414,0,0,0,0,0,0,0,0,0,-1,524,610,0,0
-693,414,0,0,0,0,0,0,0,0,0,-1,531,610,0,0
-686,414,0,0,0,0,0,0,0,0,0,-1,538,610,0,0
-679,414,0,0,0,0,0,0,0,0,0,-1,545,610,0,0
-672,414,0,0,0,0,0,0,0,0,0,-1,552,610,0,0
-665,414,0,0,0,0,0,0,0,0,0,-1,559,610,0,0
-658,414,0,0,0,0,0,0,0,0,0,-1,566,610,0,0
-651,414,0,0,0,0,0,0,0,0,0,-1,573,610,0,0
-644,414,0,0,0,0,0,0,0,0,0,-1,580,610,0,0
-637,414,0,0,0,0,0,0,0,0,0,-1,587,610,0,0
-630,414,0,0,0,0,0,0,0,0,0,-1,594,610,0,0
-623,414,0,0,0,0,0,0,0,0,0,-1,601,610,0,0
-616,414,0,0,0,0,0,0,0,0,0,-1,608,610,0,0
-609,414,0,0,0,0,0,0,0,0,0,-1,615,610,0,0
-602,414,0,0,0,0,0,0,0,0,0,-1,622,610,0,0
-595,414,0,0,0,0,0,0,0,0,0,-1,629,610,0,0
-588,414,0,0,0,0,0,0,0,0,0,-1,636,610,0,0
-581,414,0,0,0,0,0,0,0,0,0,-1,643,610,0,0
-574,414,0,0,0,0,0,0,0,0,0,-1,650,610,0,0
-567,414,0,0,0,0,0,0,0,0,0,-1,657,610,0,0
-560,414,0,0,0,0,0,0,0,0,0,-1,664,610,0,0
-553,414,0,0,0,0,0,0,0,0,0,-1,671,610,0,0
-546,414,0,0,0,0,0,0,0,0,0,-1,678,610,0,0
-539,414,-7.50146,5.65619,0,0,0,0,0,0,0,-1,685,610,-7.50149,-5.65617
-532,414,-8.15204,4.01605,0,0,0,0,0,0,0,-1,692,610,-8.15206,-4.01606
-525,414,-3.47137,-3.27924,0,0,0,0,0,0,0,-1,699,610,-3.47136,3.27922
-518,414,-4.12909,-4.36908,0,0,0,0,0,0,0,-1,706,610,-4.12909,4.36909
-511,414,-3.92542,-4.97021,0,0,0,0,0,0,0,-1,713,610,-3.92542,4.97023
-504,414,-9.35394,-5.49896,0,0,0,0,0,0,0,-1,720,610,-9.35394,5.49898
-497,414,-9.67627,-6.54761,0,0,0,0,0,0,0,-1,727,610,-9.6763,6.5476
-490,414,-10.9006,-8.3277,0,0,0,0,0,0,0,-1,734,610,-10.9006,8.3277
-483,414,-14.2571,-13.0469,0,0,0,0,0,0,0,-1,741,610,-14.2571,13.0469
-476,414,-14.4534,-13.9279,-0.00350774,0.00223126,0.00160482,0.00264954,-0.00392601,1.31583,0.00382017,0.0259282,748,610,-14.4534,13.9279
-469,414,-14.5487,-14.8006,-0.00249254,0.00179775,0.00107243,0.00205088,-0.00274567,1.339,0.00277896,0.015833,755,610,-14.5487,14.8006
-462,414,-14.542,-15.7194,-0.0014995,0.00139108,0.000620188,0.00151853,-0.00162695,1.36812,0.0018164,0.024832,762,610,-14.542,15.7194
-455,414,-14.5845,-16.6721,-0.00061613,0.00104569,0.00022835,0.00107649,-0.000646936,1.4367,0.00100527,0.0273291,769,610,-14.5845,16.6721
-448,414,-14.6315,-17.6063,0.000187347,0.000819126,-0.000125263,0.000843056,0.000163417,-1.38204,0.000516259,0.0259275,776,610,-14.6315,17.6063
-441,414,-14.6874,-18.5249,0.000880924,0.000717544,-0.000441543,0.00124827,0.000350198,-0.693927,0.000743468,0.0176014,783,610,-14.6874,18.5249
-434,414,-14.7774,-19.4258,0.00145655,0.000712738,-0.000729106,0.00190312,0.000266163,-0.549558,0.00118999,0.0101105,790,610,-14.7774,19.4258
-427,414,-14.8104,-20.3303,0.00197659,0.000900243,-0.00105775,0.0026252,0.000251626,-0.550071,0.00167258,0.0109653,797,610,-14.8104,20.3303
-420,414,-14.8532,-21.2197,0.00236954,0.00119625,-0.00132267,0.00322982,0.000335961,-0.576667,0.00205042,0.0109183,804,610,-14.8532,21.2197
-413,414,-14.9246,-22.1556,0.00259684,0.0016693,-0.00151659,0.00371898,0.000547149,-0.637015,0.00231856,0.0120074,811,610,-14.9246,22.1556
-406,414,-14.944,-23.237,0.00291324,0.00244239,-0.00192932,0.00462144,0.00073419,-0.724686,0.00286773,0.0418539,818,610,-14.944,23.237
-399,414,-14.8629,-24.3315,0,0,0,0,0,0,0,-1,825,610,-14.8629,24.3315
-392,414,-9.43781,-14.5624,0,0,0,0,0,0,0,-1,832,610,-9.43779,14.5624
-385,414,-8.14691,-13.0653,0,0,0,0,0,0,0,-1,839,610,-8.14692,13.0653
-378,414,-8.04907,-11.3331,0,0,0,0,0,0,0,-1,846,610,-8.04905,11.3331
-371,414,-5.20886,-8.05151,0,0,0,0,0,0,0,-1,853,610,-5.20887,8.05153
-364,414,-6.76282,-6.58759,0,0,0,0,0,0,0,-1,860,610,-6.7628,6.58756
-357,414,-9.08685,-8.86188,0,0,0,0,0,0,0,-1,867,610,-9.08688,8.86187
-350,414,-6.4502,-2.41821,0,0,0,0,0,0,0,-1,874,610,-6.45021,2.41822
-343,414,-6.80249,-2.32117,0,0,0,0,0,0,0,-1,881,610,-6.80252,2.32116
-336,414,-7.11017,-2.52026,0,0,0,0,0,0,0,-1,888,610,-7.11016,2.52026
-329,414,-7.59747,-2.70313,0,0,0,0,0,0,0,-1,895,610,-7.59747,2.70315
-322,414,-4.42236,-1.29163,0,0,0,0,0,0,0,-1,902,610,-4.42238,1.2916
-315,414,0,0,0,0,0,0,0,0,0,-1,909,610,0,0
-308,414,0,0,0,0,0,0,0,0,0,-1,916,610,0,0
-301,414,0,0,0,0,0,0,0,0,0,-1,923,610,0,0
-294,414,0,0,0,0,0,0,0,0,0,-1,930,610,0,0
-287,414,0,0,0,0,0,0,0,0,0,-1,937,610,0,0
-280,414,0,0,0,0,0,0,0,0,0,-1,944,610,0,0
-273,414,0,0,0,0,0,0,0,0,0,-1,951,610,0,0
-266,414,0,0,0,0,0,0,0,0,0,-1,958,610,0,0
-259,414,0,0,0,0,0,0,0,0,0,-1,965,610,0,0
-252,414,0,0,0,0,0,0,0,0,0,-1,972,610,0,0
-245,414,0,0,0,0,0,0,0,0,0,-1,979,610,0,0
-238,414,0,0,0,0,0,0,0,0,0,-1,986,610,0,0
-231,414,0,0,0,0,0,0,0,0,0,-1,993,610,0,0
-224,414,0,0,0,0,0,0,0,0,0,-1,1000,610,0,0
-217,414,0,0,0,0,0,0,0,0,0,-1,1007,610,0,0
-210,414,0,0,0,0,0,0,0,0,0,-1,1014,610,0,0
-203,414,0,0,0,0,0,0,0,0,0,-1,1021,610,0,0
-196,414,0,0,0,0,0,0,0,0,0,-1,1028,610,0,0
-189,414,0,0,0,0,0,0,0,0,0,-1,1035,610,0,0
-182,414,0,0,0,0,0,0,0,0,0,-1,1042,610,0,0
-175,414,0,0,0,0,0,0,0,0,0,-1,1049,610,0,0
-168,414,0,0,0,0,0,0,0,0,0,-1,1056,610,0,0
-161,414,0,0,0,0,0,0,0,0,0,-1,1063,610,0,0
-154,414,0,0,0,0,0,0,0,0,0,-1,1070,610,0,0
-147,414,0,0,0,0,0,0,0,0,0,-1,1077,610,0,0
-140,414,0,0,0,0,0,0,0,0,0,-1,1084,610,0,0
-133,414,0,0,0,0,0,0,0,0,0,-1,1091,610,0,0
-126,414,0,0,0,0,0,0,0,0,0,-1,1098,610,0,0
-119,414,0,0,0,0,0,0,0,0,0,-1,1105,610,0,0
-112,414,0,0,0,0,0,0,0,0,0,-1,1112,610,0,0
-105,414,0,0,0,0,0,0,0,0,0,-1,1119,610,0,0
-98,414,0,0,0,0,0,0,0,0,0,-1,1126,610,0,0
-91,414,0,0,0,0,0,0,0,0,0,-1,1133,610,0,0
-84,414,0,0,0,0,0,0,0,0,0,-1,1140,610,0,0
-77,414,0,0,0,0,0,0,0,0,0,-1,1147,610,0,0
-70,414,0,0,0,0,0,0,0,0,0,-1,1154,610,0,0
-63,414,0,0,0,0,0,0,0,0,0,-1,1161,610,0,0
-56,414,0,0,0,0,0,0,0,0,0,-1,1168,610,0,0
-49,414,0,0,0,0,0,0,0,0,0,-1,1175,610,0,0
-42,414,0,0,0,0,0,0,0,0,0,-1,1182,610,0,0
-35,414,0,0,0,0,0,0,0,0,0,-1,1189,610,0,0
-28,414,0,0,0,0,0,0,0,0,0,-1,1196,610,0,0
-21,414,0,0,0,0,0,0,0,0,0,-1,1203,610,0,0
-14,414,0,0,0,0,0,0,0,0,0,-1,1210,610,0,0
-7,414,0,0,0,0,0,0,0,0,0,-1,1217,610,0,0
0,414,0,0,0,0,0,0,0,0,0,-1,1224,610,0,0
7,414,0,0,0,0,0,0,0,0,0,-1,1231,610,0,0
14,414,0,0,0,0,0,0,0,0,0,-1,1238,610,0,0
21,414,0,0,0,0,0,0,0,0,0,-1,1245,610,0,0
28,414,0,0,0,0,0,0,0,0,0,-1,1252,610,0,0
35,414,0,0,0,0,0,0,0,0,0,-1,1259,610,0,0
42,414,0,0,0,0,0,0,0,0,0,-1,1266,610,0,0
49,414,0,0,0,0,0,0,0,0,0,-1,1273,610,0,0
56,414,0,0,0,0,0,0,0,0,0,-1,1280,610,0,0
63,414,0,0,0,0,0,0,0,0,0,-1,1287,610,0,0
70,414,0,0,0,0,0,0,0,0,0,-1,1294,610,0,0
77,414,0,0,0,0,0,0,0,0,0,-1,1301,610,0,0
84,414,0,0,0,0,0,0,0,0,0,-1,1308,610,0,0
91,414,0,0,0,0,0,0,0,0,0,-1,1315,610,0,0
98,414,0,0,0,0,0,0,0,0,0,-1,1322,610,0,0
105,414,0,0,0,0,0,0,0,0,0,-1,1329,610,0,0
112,414,0,0,0,0,0,0,0,0,0,-1,1336,610,0,0
119,414,0,0,0,0,0,0,0,0,0,-1,1343,610,0,0
126,414,0,0,0,0,0,0,0,0,0,-1,1350,610,0,0
133,414,0,0,0,0,0,0,0,0,0,-1,1357,610,0,0
140,414,0,0,0,0,0,0,0,0,0,-1,1364,610,0,0
147,414,0,0,0,0,0,0,0,0,0,-1,1371,610,0,0
154,414,0,0,0,0,0,0,0,0,0,-1,1378,610,0,0
161,414,0,0,0,0,0,0,0,0,0,-1,1385,610,0,0
168,414,0,0,0,0,0,0,0,0,0,-1,1392,610,0,0
175,414,0,0,0,0,0,0,0,0,0,-1,1399,610,0,0
182,414,0,0,0,0,0,0,0,0,0,-1,1406,610,0,0
189,414,0,0,0,0,0,0,0,0,0,-1,1413,610,0,0
196,414,0,0,0,0,0,0,0,0,0,-1,1420,610,0,0
203,414,0,0,0,0,0,0,0,0,0,-1,1427,610,0,0
210,414,0,0,0,0,0,0,0,0,0,-1,1434,610,0,0
217,414,0,0,0,0,0,0,0,0,0,-1,1441,610,0,0
224,414,0,0,0,0,0,0,0,0,0,-1,1448,610,0,0
231,414,0,0,0,0,0,0,0,0,0,-1,1455,610,0,0
238,414,0,0,0,0,0,0,0,0,0,-1,1462,610,0,0
245,414,0,0,0,0,0,0,0,0,0,-1,1469,610,0,0
252,414,0,0,0,0,0,0,0,0,0,-1,1476,610,0,0
259,414,0,0,0,0,0,0,0,0,0,-1,1483,610,0,0
266,414,0,0,0,0,0,0,0,0,0,-1,1490,610,0,0
273,414,0,0,0,0,0,0,0,0,0,-1,1497,610,0,0
280,414,0,0,0,0,0,0,0,0,0,-1,1504,610,0,0
287,414,0,0,0,0,0,0,0,0,0,-1,1511,610,0,0
294,414,0,0,0,0,0,0,0,0,0,-1,1518,610,0,0
301,414,0,0,0,0,0,0,0,0,0,-1,1525,610,0,0
308,414,0,0,0,0,0,0,0,0,0,-1,1532,610,0,0
315,414,0,0,0,0,0,0,0,0,0,-1,1539,610,0,0
322,414,0,0,0,0,0,0,0,0,0,-1,1546,610,0,0
329,414,0,0,0,0,0,0,0,0,0,-1,1553,610,0,0
336,414,0,0,0,0,0,0,0,0,0,-1,1560,610,0,0
343,414,0,0,0,0,0,0,0,0,0,-1,1567,610,0,0
350,414,0,0,0,0,0,0,0,0,0,-1,1574,610,0,0
357,414,0,0,0,0,0,0,0,0,0,-1,1581,610,0,0
364,414,0,0,0,0,0,0,0,0,0,-1,1588,610,0,0
371,414,0,0,0,0,0,0,0,0,0,-1,1595,610,0,0
378,414,0,0,0,0,0,0,0,0,0,-1,1602,610,0,0
385,414,0,0,0,0,0,0,0,0,0,-1,1609,610,0,0
392,414,0,0,0,0,0,0,0,0,0,-1,1616,610,0,0
399,414,0,0,0,0,0,0,0,0,0,-1,1623,610,0,0
406,414,0,0,0,0,0,0,0,0,0,-1,1630,610,0,0
413,414,0,0,0,0,0,0,0,0,0,-1,1637,610,0,0
420,414,0,0,0,0,0,0,0,0,0,-1,1644,610,0,0
427,414,0,0,0,0,0,0,0,0,0,-1,1651,610,0,0
434,414,0,0,0,0,0,0,0,0,0,-1,1658,610,0,0
441,414,7.84375,0.584412,0,0,0,0,0,0,0,-1,1665,610,7.84379,-0.584394
448,414,7.40808,1.25446,0,0,0,0,0,0,0,-1,1672,610,7.40807,-1.25446
455,414,6.3512,1.73846,0,0,0,0,0,0,0,-1,1679,610,6.3512,-1.73847
462,414,8.18103,3.22113,0,0,0,0,0,0,0,-1,1686,610,8.18108,-3.22112
469,414,8.38513,2.49579,0,0,0,0,0,0,0,-1,1693,610,8.38516,-2.49576
476,414,8.64099,1.71161,0,0,0,0,0,0,0,-1,1700,610,8.64097,-1.71164
483,414,8.62744,0.687622,0,0,0,0,0,0,0,-1,1707,610,8.62749,-0.687615
490,414,8.38831,-0.0302734,0,0,0,0,0,0,0,-1,1714,610,8.38835,0.0302913
497,414,4.71094,-0.110046,0,0,0,0,0,0,0,-1,1721,610,4.71089,0.110024
504,414,7.19568,-1.43835,0,0,0,0,0,0,0,-1,1728,610,7.19563,1.43836
511,414,5.94153,-1.28772,0,0,0,0,0,0,0,-1,1735,610,5.94151,1.28769
518,414,4.53381,-0.0996704,0,0,0,0,0,0,0,-1,1742,610,4.53378,0.0996819
525,414,6.18811,-1.64056,0,0,0,0,0,0,0,-1,1749,610,6.18814,1.64055
532,414,30.72,-22.8458,0,0,0,0,0,0,0,-1,1756,610,30.72,22.8458
539,414,30.7585,-21.5822,0,0,0,0,0,0,0,-1,1763,610,30.7585,21.5822
546,414,30.6842,-20.6716,0.00402185,0.00108552,0.00168526,0.00478877,0.000318604,0.427066,0.00309179,0.0191135,1770,610,30.6842,20.6716
553,414,30.6544,-19.7714,0.00321532,0.00102802,0.00126013,0.0037902,0.000453144,0.428004,0.00239011,0.0147394,1777,610,30.6544,19.7714
560,414,30.6188,-18.8652,0.00252073,0.00109845,0.00102743,0.00305913,0.000560055,0.482677,0.00188074,0.0168075,1784,610,30.6188,18.8652
567,414,30.5632,-17.9324,0.00203953,0.00135087,0.00103649,0.00278738,0.000603013,0.62503,0.00169342,0.0260437,1791,610,30.5632,17.9324
574,414,30.4927,-17.0273,0.0018084,0.00181713,0.00122939,0.00304216,0.00058337,0.787174,0.00186433,0.0230237,1798,610,30.4927,17.0273
581,414,30.4514,-16.1219,0.00178708,0.00243288,0.00161788,0.00375977,0.000460193,0.883894,0.00236807,0.0193638,1805,610,30.4514,16.1219
588,414,30.3881,-15.2274,0.00202039,0.00337837,0.00224901,0.00504865,0.000350108,0.932,0.00325534,0.0181639,1812,610,30.388,15.2274
595,414,30.3329,-14.2427,0.00254002,0.00450246,0.00308556,0.00675907,0.000283419,0.939343,0.0044146,0.0211631,1819,610,30.3329,14.2427
602,414,30.2769,-13.309,0.00330452,0.00596671,0.0040943,0.00894086,0.000330372,0.942563,0.00585356,0.0279305,1826,610,30.2769,13.3089
609,414,30.2473,-12.3623,0,0,0,0,0,0,0,-1,1833,610,30.2473,12.3623
616,414,30.5587,-11.1138,0,0,0,0,0,0,0,-1,1840,610,30.5587,11.1138
623,414,9.6969,0.0378418,0,0,0,0,0,0,0,-1,1847,610,9.69685,-0.0378644
630,414,5.47144,0.499329,0,0,0,0,0,0,0,-1,1854,610,5.47142,-0.499303
637,414,8.36707,4.16278,0,0,0,0,0,0,0,-1,1861,610,8.36709,-4.16278
644,414,5.87073,1.51422,0,0,0,0,0,0,0,-1,1868,610,5.87076,-1.51424
651,414,3.6377,0.820557,0,0,0,0,0,0,0,-1,1875,610,3.6377,-0.820543
658,414,2.29761,3.87323,0,0,0,0,0,0,0,-1,1882,610,2.29758,-3.87325
665,414,0,0,0,0,0,0,0,0,0,-1,1889,610,0,0
672,414,0,0,0,0,0,0,0,0,0,-1,1896,610,0,0
679,414,0,0,0,0,0,0,0,0,0,-1,1903,610,0,0
686,414,0,0,0,0,0,0,0,0,0,-1,1910,610,0,0
693,414,0,0,0,0,0,0,0,0,0,-1,1917,610,0,0
700,414,0,0,0,0,0,0,0,0,0,-1,1924,610,0,0
707,414,0,0,0,0,0,0,0,0,0,-1,1931,610,0,0
714,414,0,0,0,0,0,0,0,0,0,-1,1938,610,0,0
721,414,0,0,0,0,0,0,0,0,0,-1,1945,610,0,0
728,414,0,0,0,0,0,0,0,0,0,-1,1952,610,0,0
735,414,0,0,0,0,0,0,0,0,0,-1,1959,610,0,0
742,414,0,0,0,0,0,0,0,0,0,-1,1966,610,0,0
749,414,0,0,0,0,0,0,0,0,0,-1,1973,610,0,0
756,414,0,0,0,0,0,0,0,0,0,-1,1980,610,0,0
763,414,0,0,0,0,0,0,0,0,0,-1,1987,610,0,0
770,414,0,0,0,0,0,0,0,0,0,-1,1994,610,0,0
777,414,0,0,0,0,0,0,0,0,0,-1,2001,610,0,0
784,414,0,0,0,0,0,0,0,0,0,-1,2008,610,0,0
791,414,0,0,0,0,0,0,0,0,0,-1,2015,610,0,0
798,414,0,0,0,0,0,0,0,0,0,-1,2022,610,0,0
805,414,0,0,0,0,0,0,0,0,0,-1,2029,610,0,0
812,414,0,0,0,0,0,0,0,0,0,-1,2036,610,0,0
-700,407,0,0,0,0,0,0,0,0,0,-1,524,617,0,0
-693,407,0,0,0,0,0,0,0,0,0,-1,531,617,0,0
-686,407,0,0,0,0,0,0,0,0,0,-1,538,617,0,0
-679,407,0,0,0,0,0,0,0,0,0,-1,545,617,0,0
-672,407,0,0,0,0,0,0,0,0,0,-1,552,617,0,0
-665,407,0,0,0,0,0,0,0,0,0,-1,559,617,0,0
-658,407,0,0,0,0,0,0,0,0,0,-1,566,617,0,0
-651,407,0,0,0,0,0,0,0,0,0,-1,573,617,0,0
-644,407,0,0,0,0,0,0,0,0,0,-1,580,617,0,0
-637,407,0,0,0,0,0,0,0,0,0,-1,587,617,0,0
-630,407,0,0,0,0,0,0,0,0,0,-1,594,617,0,0
-623,407,0,0,0,0,0,0,0,0,0,-1,601,617,0,0
-616,407,0,0,0,0,0,0,0,0,0,-1,608,617,0,0
-609,407,0,0,0,0,0,0,0,0,0,-1,615,617,0,0
-602,407,0,0,0,0,0,0,0,0,0,-1,622,617,0,0
-595,407,0,0,0,0,0,0,0,0,0,-1,629,617,0,0
-588,407,0,0,0,0,0,0,0,0,0,-1,636,617,0,0
-581,407,0,0,0,0,0,0,0,0,0,-1,643,617,0,0
-574,407,0,0,0,0,0,0,0,0,0,-1,650,617,0,0
-567,407,0,0,0,0,0,0,0,0,0,-1,657,617,0,0
-560,407,0,0,0,0,0,0,0,0,0,-1,664,617,0,0
-553,407,0,0,0,0,0,0,0,0,0,-1,671,617,0,0
-546,407,-8.54517,-0.658142,0,0,0,0,0,0,0,-1,678,617,-8.54515,0.658112
-539,407,-6.09442,-1.01154,0,0,0,0,0,0,0,-1,685,617,-6.09441,1.01155
-532,407,-7.75665,1.62152,0,0,0,0,0,0,0,-1,692,617,-7.75667,-1.62154
-525,407,-3.78247,-2.67639,0,0,0,0,0,0,0,-1,699,617,-3.78246,2.67638
-518,407,-5.013,-5.87323,0,0,0,0,0,0,0,-1,706,617,-5.013,5.87324
-511,407,-9.42743,-4.94189,0,0,0,0,0,0,0,-1,713,617,-9.42745,4.94191
-504,407,-10.8291,-8.05927,0,0,0,0,0,0,0,-1,720,617,-10.8291,8.05927
-497,407,-9.84467,-6.81641,0,0,0,0,0,0,0,-1,727,617,-9.84468,6.8164
-490,407,-15.3448,-11.6487,0,0,0,0,0,0,0,-1,734,617,-15.3448,11.6487
-483,407,-15.2443,-12.9047,-0.00291823,0.00218092,0.00139091,0.00253565,-0.00327296,1.32109,0.00336259,0.0334326,741,617,-15.2443,12.9047
-476,407,-15.3169,-13.8204,-0.00229575,0.00175913,0.0010363,0.00200863,-0.00254525,1.33454,0.00263526,0.0169531,748,617,-15.3169,13.8204
-469,407,-15.4043,-14.7266,-0.0015299,0.00134972,0.000678439,0.00150155,-0.00168173,1.35062,0.00183885,0.0143976,755,617,-15.4043,14.7266
-462,407,-15.4887,-15.6555,-0.000732902,0.000966849,0.00034207,0.00103311,-0.00079916,1.37947,0.00106073,0.021902,762,617,-15.4887,15.6555
-455,407,-15.5361,-16.6285,1.72672e-05,0.000723651,7.75604e-07,0.000723652,1.72663e-05,1.5697,0.000476783,0.023198,769,617,-15.5361,16.6285
-448,407,-15.5182,-17.5765,0.000750768,0.000546617,-0.000321741,0.000986237,0.000311148,-0.63179,0.000582184,0.0198376,776,617,-15.5182,17.5765
-441,407,-15.6105,-18.4371,0.00142771,0.000511727,-0.00064329,0.00175939,0.000180049,-0.476047,0.00111775,0.0147642,783,617,-15.6105,18.4371
-434,407,-15.6908,-19.3307,0.00204268,0.000606275,-0.000978842,0.00253854,0.000110415,-0.468896,0.00165678,0.0112994,790,617,-15.6908,19.3307
-427,407,-15.7276,-20.2431,0.00262293,0.000887789,-0.00138391,0.00338872,0.000121997,-0.505416,0.0022196,0.0121044,797,617,-15.7276,20.2431
-420,407,-15.7664,-21.1405,0.00302823,0.00128606,-0.00170388,0.00407078,0.000243508,-0.5491,0.00263643,0.0122926,804,617,-15.7664,21.1405
-413,407,-15.8084,-22.0527,0.00330187,0.00198363,-0.00201082,0.00475883,0.000526661,-0.627023,0.00301239,0.0195358,811,617,-15.8084,22.0527
-406,407,-15.6656,-23.116,0,0,0,0,0,0,0,-1,818,617,-15.6656,23.116
-399,407,-15.6417,-22.1682,0,0,0,0,0,0,0,-1,825,617,-15.6417,22.1681
-392,407,-8.33612,-12.195,0,0,0,0,0,0,0,-1,832,617,-8.33611,12.195
-385,407,-7.65765,-10.7744,0,0,0,0,0,0,0,-1,839,617,-7.65767,10.7744
-378,407,-6.08655,-7.42291,0,0,0,0,0,0,0,-1,846,617,-6.08652,7.42292
-371,407,-7.4007,-5.79449,0,0,0,0,0,0,0,-1,853,617,-7.40072,5.79447
-364,407,-10.0638,-6.6228,0,0,0,0,0,0,0,-1,860,617,-10.0639,6.62279
-357,407,-6.64447,-1.83337,0,0,0,0,0,0,0,-1,867,617,-6.64446,1.8334
-350,407,-7.03351,-1.77551,0,0,0,0,0,0,0,-1,874,617,-7.03349,1.77551
-343,407,-7.40967,-1.95026,0,0,0,0,0,0,0,-1,881,617,-7.40969,1.95026
-336,407,-8.10229,-2.40662,0,0,0,0,0,0,0,-1,888,617,-8.10229,2.40664
-329,407,-8.81232,-2.76331,0,0,0,0,0,0,0,-1,895,617,-8.81235,2.76331
-322,407,0,0,0,0,0,0,0,0,0,-1,902,617,0,0
-315,407,0,0,0,0,0,0,0,0,0,-1,909,617,0,0
-308,407,0,0,0,0,0,0,0,0,0,-1,916,617,0,0
-301,407,0,0,0,0,0,0,0,0,0,-1,923,617,0,0
-294,407,0,0,0,0,0,0,0,0,0,-1,930,617,0,0
-287,407,0,0,0,0,0,0,0,0,0,-1,937,617,0,0
-280,407,0,0,0,0,0,0,0,0,0,-1,944,617,0,0
-273,407,0,0,0,0,0,0,0,0,0,-1,951,617,0,0
-266,407,0,0,0,0,0,0,0,0,0,-1,958,617,0,0
-259,407,0,0,0,0,0,0,0,0,0,-1,965,617,0,0
-252,407,0,0,0,0,0,0,0,0,0,-1,972,617,0,0
-245,407,0,0,0,0,0,0,0,0,0,-1,979,617,0,0
-238,407,0,0,0,0,0,0,0,0,0,-1,986,617,0,0
-231,407,0,0,0,0,0,0,0,0,0,-1,993,617,0,0
-224,407,0,0,0,0,0,0,0,0,0,-1,1000,617,0,0
-217,407,0,0,0,0,0,0,0,0,0,-1,1007,617,0,0
-210,407,0,0,0,0,0,0,0,0,0,-1,1014,617,0,0
-203,407,0,0,0,0,0,0,0,0,0,-1,1021,617,0,0
-196,407,0,0,0,0,0,0,0,0,0,-1,1028,617,0,0
-189,407,0,0,0,0,0,0,0,0,0,-1,1035,617,0,0
-182,407,0,0,0,0,0,0,0,0,0,-1,1042,617,0,0
-175,407,0,0,0,0,0,0,0,0,0,-1,1049,617,0,0
-168,407,0,0,0,0,0,0,0,0,0,-1,1056,617,0,0
-161,407,0,0,0,0,0,0,0,0,0,-1,1063,617,0,0
-154,407,0,0,0,0,0,0,0,0,0,-1,1070,617,0,0
-147,407,0,0,0,0,0,0,0,0,0,-1,1077,617,0,0
-140,407,0,0,0,0,0,0,0,0,0,-1,1084,617,0,0
-133,407,0,0,0,0,0,0,0,0,0,-1,1091,617,0,0
-126,407,0,0,0,0,0,0,0,0,0,-1,1098,617,0,0
-119,407,0,0,0,0,0,0,0,0,0,-1,1105,617,0,0
-112,407,0,0,0,0,0,0,0,0,0,-1,1112,617,0,0
-105,407,0,0,0,0,0,0,0,0,0,-1,1119,617,0,0
-98,407,0,0,0,0,0,0,0,0,0,-1,1126,617,0,0
-91,407,0,0,0,0,0,0,0,0,0,-1,1133,617,0,0
-84,407,0,0,0,0,0,0,0,0,0,-1,1140,617,0,0
-77,407,0,0,0,0,0,0,0,0,0,-1,1147,617,0,0
-70,407,0,0,0,0,0,0,0,0,0,-1,1154,617,0,0
-63,407,0,0,0,0,0,0,0,0,0,-1,1161,617,0,0
-56,407,0,0,0,0,0,0,0,0,0,-1,1168,617,0,0
-49,407,0,0,0,0,0,0,0,0,0,-1,1175,617,0,0
-42,407,0,0,0,0,0,0,0,0,0,-1,1182,617,0,0
-35,407,0,0,0,0,0,0,0,0,0,-1,1189,617,0,0
-28,407,0,0,0,0,0,0,0,0,0,-1,1196,617,0,0
-21,407,0,0,0,0,0,0,0,0,0,-1,1203,617,0,0
-14,407,0,0,0,0,0,0,0,0,0,-1,1210,617,0,0
-7,407,0,0,0,0,0,0,0,0,0,-1,1217,617,0,0
0,407,0,0,0,0,0,0,0,0,0,-1,1224,617,0,0
7,407,0,0,0,0,0,0,0,0,0,-1,1231,617,0,0
14,407,0,0,0,0,0,0,0,0,0,-1,1238,617,0,0
21,407,0,0,0,0,0,0,0,0,0,-1,1245,617,0,0
28,407,0,0,0,0,0,0,0,0,0,-1,1252,617,0,0
35,407,0,0,0,0,0,0,0,0,0,-1,1259,617,0,0
42,407,0,0,0,0,0,0,0,0,0,-1,1266,617,0,0
49,407,0,0,0,0,0,0,0,0,0,-1,1273,617,0,0
56,407,0,0,0,0,0,0,0,0,0,-1,1280,617,0,0
63,407,0,0,0,0,0,0,0,0,0,-1,1287,617,0,0
70,407,0,0,0,0,0,0,0,0,0,-1,1294,617,0,0
77,407,0,0,0,0,0,0,0,0,0,-1,1301,617,0,0
84,407,0,0,0,0,0,0,0,0,0,-1,1308,617,0,0
91,407,0,0,0,0,0,0,0,0,0,-1,1315,617,0,0
98,407,0,0,0,0,0,0,0,0,0,-1,1322,617,0,0
105,407,0,0,0,0,0,0,0,0,0,-1,1329,617,0,0
112,407,0,0,0,0,0,0,0,0,0,-1,1336,617,0,0
119,407,0,0,0,0,0,0,0,0,0,-1,1343,617,0,0
126,407,0,0,0,0,0,0,0,0,0,-1,1350,617,0,0
133,407,0,0,0,0,0,0,0,0,0,-1,1357,617,0,0
140,407,0,0,0,0,0,0,0,0,0,-1,1364,617,0,0
147,407,0,0,0,0,0,0,0,0,0,-1,1371,617,0,0
154,407,0,0,0,0,0,0,0,0,0,-1,1378,617,0,0
161,407,0,0,0,0,0,0,0,0,0,-1,1385,617,0,0
168,407,0,0,0,0,0,0,0,0,0,-1,1392,617,0,0
175,407,0,0,0,0,0,0,0,0,0,-1,1399,617,0,0
182,407,0,0,0,0,0,0,0,0,0,-1,1406,617,0,0
189,407,0,0,0,0,0,0,0,0,0,-1,1413,617,0,0
196,407,0,0,0,0,0,0,0,0,0,-1,1420,617,0,0
203,407,0,0,0,0,0,0,0,0,0,-1,1427,617,0,0
210,407,0,0,0,0,0,0,0,0,0,-1,1434,617,0,0
217,407,0,0,0,0,0,0,0,0,0,-1,1441,617,0,0
224,407,0,0,0,0,0,0,0,0,0,-1,1448,617,0,0
231,407,0,0,0,0,0,0,0,0,0,-1,1455,617,0,0
238,407,0,0,0,0,0,0,0,0,0,-1,1462,617,0,0
245,407,0,0,0,0,0,0,0,0,0,-1,1469,617,0,0
252,407,0,0,0,0,0,0,0,0,0,-1,1476,617,0,0
259,407,0,0,0,0,0,0,0,0,0,-1,1483,617,0,0
266,407,0,0,0,0,0,0,0,0,0,-1,1490,617,0,0
273,407,0,0,0,0,0,0,0,0,0,-1,1497,617,0,0
280,407,0,0,0,0,0,0,0,0,0,-1,1504,617,0,0
287,407,0,0,0,0,0,0,0,0,0,-1,1511,617,0,0
294,407,0,0,0,0,0,0,0,0,0,-1,1518,617,0,0
301,407,0,0,0,0,0,0,0,0,0,-1,1525,617,0,0
308,407,0,0,0,0,0,0,0,0,0,-1,1532,617,0,0
315,407,0,0,0,0,0,0,0,0,0,-1,1539,617,0,0
322,407,0,0,0,0,0,0,0,0,0,-1,1546,617,0,0
329,407,0,0,0,0,0,0,0,0,0,-1,1553,617,0,0
336,407,0,0,0,0,0,0,0,0,0,-1,1560,617,0,0
343,407,0,0,0,0,0,0,0,0,0,-1,1567,617,0,0
350,407,0,0,0,0,0,0,0,0,0,-1,1574,617,0,0
357,407,0,0,0,0,0,0,0,0,0,-1,1581,617,0,0
364,407,0,0,0,0,0,0,0,0,0,-1,1588,617,0,0
371,407,0,0,0,0,0,0,0,0,0,-1,1595,617,0,0
378,407,0,0,0,0,0,0,0,0,0,-1,1602,617,0,0
385,407,0,0,0,0,0,0,0,0,0,-1,1609,617,0,0
392,407,0,0,0,0,0,0,0,0,0,-1,1616,617,0,0
399,407,0,0,0,0,0,0,0,0,0,-1,1623,617,0,0
406,407,0,0,0,0,0,0,0,0,0,-1,1630,617,0,0
413,407,0,0,0,0,0,0,0,0,0,-1,1637,617,0,0
420,407,0,0,0,0,0,0,0,0,0,-1,1644,617,0,0
427,407,0,0,0,0,0,0,0,0,0,-1,1651,617,0,0
434,407,0,0,0,0,0,0,0,0,0,-1,1658,617,0,0
441,407,0,0,0,0,0,0,0,0,0,-1,1665,617,0,0
448,407,7.02893,2.13843,0,0,0,0,0,0,0,-1,1672,617,7.02899,-2.13844
455,407,7.55237,2.29242,0,0,0,0,0,0,0,-1,1679,617,7.55236,-2.29244
462,407,8.2926,2.46173,0,0,0,0,0,0,0,-1,1686,617,8.29261,-2.46174
469,407,8.71509,2.22681,0,0,0,0,0,0,0,-1,1693,617,8.71511,-2.22681
476,407,8.89917,1.47766,0,0,0,0,0,0,0,-1,1700,617,8.89914,-1.47768
483,407,9.02612,0.682983,0,0,0,0,0,0,0,-1,1707,617,9.02608,-0.683004
490,407,9.12659,0.000671387,0,0,0,0,0,0,0,-1,1714,617,9.12653,-0.000675931
497,407,7.76819,0.855835,0,0,0,0,0,0,0,-1,1721,617,7.7682,-0.855865
504,407,4.69336,0.160706,0,0,0,0,0,0,0,-1,1728,617,4.69337,-0.1607
511,407,4.07104,-0.00140381,0,0,0,0,0,0,0,-1,1735,617,4.07109,0.00141425
518,407,6.09534,1.9411,0,0,0,0,0,0,0,-1,1742,617,6.09532,-1.94113
525,407,5.72534,-1.35986,0,0,0,0,0,0,0,-1,1749,617,5.72529,1.35988
532,407,18.5767,-10.6388,0,0,0,0,0,0,0,-1,1756,617,18.5766,10.6388
539,407,31.5413,-21.6312,0,0,0,0,0,0,0,-1,1763,617,31.5412,21.6311
546,407,31.6218,-20.6424,0.00452386,0.00117576,0.00184326,0.0053398,0.000359819,0.416734,0.00344619,0.031183,1770,617,31.6218,20.6424
553,407,31.5444,-19.745,0.00359229,0.000944713,0.00128241,0.0041116,0.000425408,0.384761,0.00261084,0.0190368,1777,617,31.5444,19.745
560,407,31.54,-18.8064,0.00280004,0.000853827,0.000935575,0.00317683,0.000477031,0.382869,0.00197815,0.0191905,1784,617,31.54,18.8064
567,407,31.5,-17.8767,0.0022118,0.000934597,0.000825439,0.00261682,0.000529568,0.456166,0.00159756,0.0327115,1791,617,31.5001,17.8767
574,407,31.4227,-16.9904,0.00191898,0.00127288,0.000949058,0.00259847,0.000593402,0.621354,0.00157229,0.0265377,1798,617,31.4228,16.9903
581,407,31.3608,-16.0275,0.00182251,0.001771,0.0012555,0.00305252,0.000540994,0.775143,0.0018808,0.0182128,1805,617,31.3608,16.0275
588,407,31.2731,-15.1502,0.00196591,0.00259172,0.00178579,0.00409181,0.000465817,0.872128,0.00258662,0.0142887,1812,617,31.2731,15.1502
595,407,31.2645,-14.2373,0.00240648,0.00358982,0.00253426,0.00560056,0.000395741,0.900078,0.00360903,0.0284588,1819,617,31.2646,14.2373
602,407,31.214,-13.2211,0.0030973,0.00485714,0.00343787,0.0075259,0.000428529,0.910683,0.0048807,0.0236921,1826,617,31.214,13.2211
609,407,31.0842,-12.2768,0.00417571,0.00641064,0.00458791,0.0100152,0.000571139,0.904856,0.00649481,0.021859,1833,617,31.0843,12.2768
616,407,31.1467,-11.2106,0.00566434,0.00830021,0.00593657,0.0130634,0.00090117,0.894628,0.00842461,0.0399868,1840,617,31.1467,11.2106
623,407,31.452,-9.99713,0,0,0,0,0,0,0,-1,1847,617,31.4521,9.99716
630,407,7.06177,0.814575,0,0,0,0,0,0,0,-1,1854,617,7.06178,-0.814579
637,407,11.1063,0.391846,0,0,0,0,0,0,0,-1,1861,617,11.1063,-0.391862
644,407,5.09766,2.27747,0,0,0,0,0,0,0,-1,1868,617,5.09764,-2.27746
651,407,7.37524,0.0513916,0,0,0,0,0,0,0,-1,1875,617,7.3752,-0.0513923
658,407,3.76685,0.594177,0,0,0,0,0,0,0,-1,1882,617,3.76683,-0.594184
665,407,5.76123,0.375061,0,0,0,0,0,0,0,-1,1889,617,5.76118,-0.37509
672,407,0,0,0,0,0,0,0,0,0,-1,1896,617,0,0
679,407,0,0,0,0,0,0,0,0,0,-1,1903,617,0,0
686,407,0,0,0,0,0,0,0,0,0,-1,1910,617,0,0
693,407,0,0,0,0,0,0,0,0,0,-1,1917,617,0,0
700,407,0,0,0,0,0,0,0,0,0,-1,1924,617,0,0
707,407,0,0,0,0,0,0,0,0,0,-1,1931,617,0,0
714,407,0,0,0,0,0,0,0,0,0,-1,1938,617,0,0
721,407,0,0,0,0,0,0,0,0,0,-1,1945,617,0,0
728,407,0,0,0,0,0,0,0,0,0,-1,1952,617,0,0
735,407,0,0,0,0,0,0,0,0,0,-1,1959,617,0,0
742,407,0,0,0,0,0,0,0,0,0,-1,1966,617,0,0
749,407,0,0,0,0,0,0,0,0,0,-1,1973,617,0,0
756,407,0,0,0,0,0,0,0,0,0,-1,1980,617,0,0
763,407,0,0,0,0,0,0,0,0,0,-1,1987,617,0,0
770,407,0,0,0,0,0,0,0,0,0,-1,1994,617,0,0
777,407,0,0,0,0,0,0,0,0,0,-1,2001,617,0,0
784,407,0,0,0,0,0,0,0,0,0,-1,2008,617,0,0
791,407,0,0,0,0,0,0,0,0,0,-1,2015,617,0,0
798,407,0,0,0,0,0,0,0,0,0,-1,2022,617,0,0
805,407,0,0,0,0,0,0,0,0,0,-1,2029,617,0,0
812,407,0,0,0,0,0,0,0,0,0,-1,2036,617,0,0
-700,400,0,0,0,0,0,0,0,0,0,-1,524,624,0,0
-693,400,0,0,0,0,0,0,0,0,0,-1,531,624,0,0
-686,400,0,0,0,0,0,0,0,0,0,-1,538,624,0,0
-679,400,0,0,0,0,0,0,0,0,0,-1,545,624,0,0
-672,400,0,0,0,0,0,0,0,0,0,-1,552,624,0,0
-665,400,0,0,0,0,0,0,0,0,0,-1,559,624,0,0
-658,400,0,0,0,0,0,0,0,0,0,-1,566,624,0,0
-651,400,0,0,0,0,0,0,0,0,0,-1,573,624,0,0
-644,400,0,0,0,0,0,0,0,0,0,-1,580,624,0,0
-637,400,0,0,0,0,0,0,0,0,0,-1,587,624,0,0
-630,400,0,0,0,0,0,0,0,0,0,-1,594,624,0,0
-623,400,0,0,0,0,0,0,0,0,0,-1,601,624,0,0
-616,400,0,0,0,0,0,0,0,0,0,-1,608,624,0,0
-609,400,0,0,0,0,0,0,0,0,0,-1,615,624,0,0
-602,400,0,0,0,0,0,0,0,0,0,-1,622,624,0,0
-595,400,0,0,0,0,0,0,0,0,0,-1,629,624,0,0
-588,400,0,0,0,0,0,0,0,0,0,-1,636,624,0,0
-581,400,0,0,0,0,0,0,0,0,0,-1,643,624,0,0
-574,400,0,0,0,0,0,0,0,0,0,-1,650,624,0,0
-567,400,0,0,0,0,0,0,0,0,0,-1,657,624,0,0
-560,400,0,0,0,0,0,0,0,0,0,-1,664,624,0,0
-553,400,0,0,0,0,0,0,0,0,0,-1,671,624,0,0
-546,400,-8.41174,-1.4599,0,0,0,0,0,0,0,-1,678,624,-8.41173,1.45989
-539,400,-5.69104,-1.7337,0,0,0,0,0,0,0,-1,685,624,-5.69103,1.7337
-532,400,-3.03632,-2.03912,0,0,0,0,0,0,0,-1,692,624,-3.03632,2.03909
-525,400,-6.20813,-7.04071,0,0,0,0,0,0,0,-1,699,624,-6.20814,7.04071
-518,400,-5.26544,-1.58661,0,0,0,0,0,0,0,-1,706,624,-5.26544,1.58658
-511,400,-10.6307,-6.7121,0,0,0,0,0,0,0,-1,713,624,-10.6307,6.71209
-504,400,-10.2663,-6.55109,0,0,0,0,0,0,0,-1,720,624,-10.2663,6.55106
-497,400,-16.3551,-10.7208,0,0,0,0,0,0,0,-1,727,624,-16.3551,10.7208
-490,400,-16.1406,-11.7795,-0.00210841,0.00211237,0.00104178,0.0023555,-0.00235154,1.34152,0.00271761,0.0451067,734,624,-16.1406,11.7795
-483,400,-16.1844,-12.8076,-0.00177821,0.00165474,0.000843073,0.00185061,-0.00197408,1.34252,0.00220857,0.0186092,741,624,-16.1844,12.8076
-476,400,-16.2341,-13.7272,-0.00131462,0.00128211,0.000604171,0.0014158,-0.00144831,1.35303,0.00165363,0.0158816,748,624,-16.2341,13.7272
-469,400,-16.3264,-14.6723,-0.000699667,0.000922059,0.000337793,0.000989605,-0.000767213,1.37344,0.001017,0.0161836,755,624,-16.3264,14.6723
-462,400,-16.3755,-15.6485,-3.08187e-05,0.000576327,6.4538e-05,0.000583111,-3.76031e-05,1.46606,0.000401862,0.0205317,762,624,-16.3755,15.6485
-455,400,-16.4094,-16.5839,0.000645703,0.000421121,-0.000258643,0.000815379,0.000251445,-0.580598,0.000482145,0.0210754,769,624,-16.4093,16.584
-448,400,-16.4529,-17.4927,0.00134729,0.000291844,-0.000573452,0.00159889,4.02484e-05,-0.41345,0.00105277,0.0156228,776,624,-16.4529,17.4927
-441,400,-16.5306,-18.3414,0.00203197,0.000316353,-0.000912387,0.00242647,-7.81509e-05,-0.408111,0.00164432,0.0148604,783,624,-16.5306,18.3415
-434,400,-16.5964,-19.2352,0.00271457,0.00051964,-0.00130533,0.00332248,-8.82725e-05,-0.435847,0.00224499,0.0125348,790,624,-16.5965,19.2352
-427,400,-16.6445,-20.1381,0.00338071,0.000888686,-0.00178295,0.00430989,-4.04916e-05,-0.480422,0.00288685,0.0110952,797,624,-16.6445,20.1381
-420,400,-16.642,-21.0946,0.0038103,0.00137784,-0.00215372,0.00506747,0.000120665,-0.528364,0.00333882,0.0246925,804,624,-16.642,21.0946
-413,400,-16.6251,-22.139,0,0,0,0,0,0,0,-1,811,624,-16.625,22.139
-406,400,-17.1451,-22.4775,0,0,0,0,0,0,0,-1,818,624,-17.1451,22.4775
-399,400,-11.0176,-13.2944,0,0,0,0,0,0,0,-1,825,624,-11.0176,13.2944
-392,400,-4.92285,-6.63354,0,0,0,0,0,0,0,-1,832,624,-4.92285,6.63354
-385,400,-3.68738,-5.04205,0,0,0,0,0,0,0,-1,839,624,-3.68736,5.04207
-378,400,-6.84064,-1.28662,0,0,0,0,0,0,0,-1,846,624,-6.84062,1.28662
-371,400,-6.98865,-1.2572,0,0,0,0,0,0,0,-1,853,624,-6.98865,1.25721
-364,400,-6.97247,-1.24133,0,0,0,0,0,0,0,-1,860,624,-6.97249,1.24135
-357,400,-7.18329,-1.23218,0,0,0,0,0,0,0,-1,867,624,-7.18327,1.2322
-350,400,-7.40186,-1.19409,0,0,0,0,0,0,0,-1,874,624,-7.40187,1.19407
-343,400,-8.09357,-1.51147,0,0,0,0,0,0,0,-1,881,624,-8.09355,1.51148
-336,400,0,0,0,0,0,0,0,0,0,-1,888,624,0,0
-329,400,0,0,0,0,0,0,0,0,0,-1,895,624,0,0
-322,400,0,0,0,0,0,0,0,0,0,-1,902,624,0,0
-315,400,0,0,0,0,0,0,0,0,0,-1,909,624,0,0
-308,400,0,0,0,0,0,0,0,0,0,-1,916,624,0,0
-301,400,0,0,0,0,0,0,0,0,0,-1,923,624,0,0
-294,400,0,0,0,0,0,0,0,0,0,-1,930,624,0,0
-287,400,0,0,0,0,0,0,0,0,0,-1,937,624,0,0
-280,400,0,0,0,0,0,0,0,0,0,-1,944,624,0,0
-273,400,0,0,0,0,0,0,0,0,0,-1,951,624,0,0
-266,400,0,0,0,0,0,0,0,0,0,-1,958,624,0,0
-259,400,0,0,0,0,0,0,0,0,0,-1,965,624,0,0
-252,400,0,0,0,0,0,0,0,0,0,-1,972,624,0,0
-245,400,0,0,0,0,0,0,0,0,0,-1,979,624,0,0
-238,400,0,0,0,0,0,0,0,0,0,-1,986,624,0,0
-231,400,0,0,0,0,0,0,0,0,0,-1,993,624,0,0
-224,400,0,0,0,0,0,0,0,0,0,-1,1000,624,0,0
-217,400,0,0,0,0,0,0,0,0,0,-1,1007,624,0,0
-210,400,0,0,0,0,0,0,0,0,0,-1,1014,624,0,0
-203,400,0,0,0,0,0,0,0,0,0,-1,1021,624,0,0
-196,400,0,0,0,0,0,0,0,0,0,-1,1028,624,0,0
-189,400,0,0,0,0,0,0,0,0,0,-1,1035,624,0,0
-182,400,0,0,0,0,0,0,0,0,0,-1,1042,624,0,0
-175,400,0,0,0,0,0,0,0,0,0,-1,1049,624,0,0
-168,400,0,0,0,0,0,0,0,0,0,-1,1056,624,0,0
-161,400,0,0,0,0,0,0,0,0,0,-1,1063,624,0,0
-154,400,0,0,0,0,0,0,0,0,0,-1,1070,624,0,0
-147,400,0,0,0,0,0,0,0,0,0,-1,1077,624,0,0
-140,400,0,0,0,0,0,0,0,0,0,-1,1084,624,0,0
-133,400,0,0,0,0,0,0,0,0,0,-1,1091,624,0,0
-126,400,0,0,0,0,0,0,0,0,0,-1,1098,624,0,0
-119,400,0,0,0,0,0,0,0,0,0,-1,1105,624,0,0
-112,400,0,0,0,0,0,0,0,0,0,-1,1112,624,0,0
-105,400,0,0,0,0,0,0,0,0,0,-1,1119,624,0,0
-98,400,0,0,0,0,0,0,0,0,0,-1,1126,624,0,0
-91,400,0,0,0,0,0,0,0,0,0,-1,1133,624,0,0
-84,400,0,0,0,0,0,0,0,0,0,-1,1140,624,0,0
-77,400,0,0,0,0,0,0,0,0,0,-1,1147,624,0,0
-70,400,0,0,0,0,0,0,0,0,0,-1,1154,624,0,0
-63,400,0,0,0,0,0,0,0,0,0,-1,1161,624,0,0
-56,400,0,0,0,0,0,0,0,0,0,-1,1168,624,0,0
-49,400,0,0,0,0,0,0,0,0,0,-1,1175,624,0,0
-42,400,0,0,0,0,0,0,0,0,0,-1,1182,624,0,0
-35,400,0,0,0,0,0,0,0,0,0,-1,1189,624,0,0
-28,400,0,0,0,0,0,0,0,0,0,-1,1196,624,0,0
-21,400,0,0,0,0,0,0,0,0,0,-1,1203,624,0,0
-14,400,0,0,0,0,0,0,0,0,0,-1,1210,624,0,0
-7,400,0,0,0,0,0,0,0,0,0,-1,1217,624,0,0
0,400,0,0,0,0,0,0,0,0,0,-1,1224,624,0,0
7,400,0,0,0,0,0,0,0,0,0,-1,1231,624,0,0
14,400,0,0,0,0,0,0,0,0,0,-1,1238,624,0,0
21,400,0,0,0,0,0,0,0,0,0,-1,1245,624,0,0
28,400,0,0,0,0,0,0,0,0,0,-1,1252,624,0,0
35,400,0,0,0,0,0,0,0,0,0,-1,1259,624,0,0
42,400,0,0,0,0,0,0,0,0,0,-1,1266,624,0,0
49,400,0,0,0,0,0,0,0,0,0,-1,1273,624,0,0
56,400,0,0,0,0,0,0,0,0,0,-1,1280,624,0,0
63,400,0,0,0,0,0,0,0,0,0,-1,1287,624,0,0
70,400,0,0,0,0,0,0,0,0,0,-1,1294,624,0,0
77,400,0,0,0,0,0,0,0,0,0,-1,1301,624,0,0
84,400,0,0,0,0,0,0,0,0,0,-1,1308,624,0,0
91,400,0,0,0,0,0,0,0,0,0,-1,1315,624,0,0
98,400,0,0,0,0,0,0,0,0,0,-1,1322,624,0,0
105,400,0,0,0,0,0,0,0,0,0,-1,1329,624,0,0
112,400,0,0,0,0,0,0,0,0,0,-1,1336,624,0,0
119,400,0,0,0,0,0,0,0,0,0,-1,1343,624,0,0
126,400,0,0,0,0,0,0,0,0,0,-1,1350,624,0,0
133,400,0,0,0,0,0,0,0,0,0,-1,1357,624,0,0
140,400,0,0,0,0,0,0,0,0,0,-1,1364,624,0,0
147,400,0,0,0,0,0,0,0,0,0,-1,1371,624,0,0
154,400,0,0,0,0,0,0,0,0,0,-1,1378,624,0,0
161,400,0,0,0,0,0,0,0,0,0,-1,1385,624,0,0
168,400,0,0,0,0,0,0,0,0,0,-1,1392,624,0,0
175,400,0,0,0,0,0,0,0,0,0,-1,1399,624,0,0
182,400,0,0,0,0,0,0,0,0,0,-1,1406,624,0,0
189,400,0,0,0,0,0,0,0,0,0,-1,1413,624,0,0
196,400,0,0,0,0,0,0,0,0,0,-1,1420,624,0,0
203,400,0,0,0,0,0,0,0,0,0,-1,1427,624,0,0
210,400,0,0,0,0,0,0,0,0,0,-1,1434,624,0,0
217,400,0,0,0,0,0,0,0,0,0,-1,1441,624,0,0
224,400,0,0,0,0,0,0,0,0,0,-1,1448,624,0,0
231,400,0,0,0,0,0,0,0,0,0,-1,1455,624,0,0
238,400,0,0,0,0,0,0,0,0,0,-1,1462,624,0,0
245,400,0,0,0,0,0,0,0,0,0,-1,1469,624,0,0
252,400,0,0,0,0,0,0,0,0,0,-1,1476,624,0,0
259,400,0,0,0,0,0,0,0,0,0,-1,1483,624,0,0
266,400,0,0,0,0,0,0,0,0,0,-1,1490,624,0,0
273,400,0,0,0,0,0,0,0,0,0,-1,1497,624,0,0
280,400,0,0,0,0,0,0,0,0,0,-1,1504,624,0,0
287,400,0,0,0,0,0,0,0,0,0,-1,1511,624,0,0
294,400,0,0,0,0,0,0,0,0,0,-1,1518,624,0,0
301,400,0,0,0,0,0,0,0,0,0,-1,1525,624,0,0
308,400,0,0,0,0,0,0,0,0,0,-1,1532,624,0,0
315,400,0,0,0,0,0,0,0,0,0,-1,1539,624,0,0
322,400,0,0,0,0,0,0,0,0,0,-1,1546,624,0,0
329,400,0,0,0,0,0,0,0,0,0,-1,1553,624,0,0
336,400,0,0,0,0,0,0,0,0,0,-1,1560,624,0,0
343,400,0,0,0,0,0,0,0,0,0,-1,1567,624,0,0
350,400,0,0,0,0,0,0,0,0,0,-1,1574,624,0,0
357,400,0,0,0,0,0,0,0,0,0,-1,1581,624,0,0
364,400,0,0,0,0,0,0,0,0,0,-1,1588,624,0,0
371,400,0,0,0,0,0,0,0,0,0,-1,1595,624,0,0
378,400,0,0,0,0,0,0,0,0,0,-1,1602,624,0,0
385,400,0,0,0,0,0,0,0,0,0,-1,1609,624,0,0
392,400,0,0,0,0,0,0,0,0,0,-1,1616,624,0,0
399,400,0,0,0,0,0,0,0,0,0,-1,1623,624,0,0
406,400,0,0,0,0,0,0,0,0,0,-1,1630,624,0,0
413,400,0,0,0,0,0,0,0,0,0,-1,1637,624,0,0
420,400,0,0,0,0,0,0,0,0,0,-1,1644,624,0,0
427,400,0,0,0,0,0,0,0,0,0,-1,1651,624,0,0
434,400,0,0,0,0,0,0,0,0,0,-1,1658,624,0,0
441,400,0,0,0,0,0,0,0,0,0,-1,1665,624,0,0
448,400,0,0,0,0,0,0,0,0,0,-1,1672,624,0,0
455,400,8.91309,2.75885,0,0,0,0,0,0,0,-1,1679,624,8.91312,-2.75885
462,400,8.90356,2.37878,0,0,0,0,0,0,0,-1,1686,624,8.90353,-2.37878
469,400,9.14429,1.76849,0,0,0,0,0,0,0,-1,1693,624,9.14432,-1.76847
476,400,9.23254,1.25995,0,0,0,0,0,0,0,-1,1700,624,9.23252,-1.25994
483,400,9.59766,0.562439,0,0,0,0,0,0,0,-1,1707,624,9.59771,-0.56242
490,400,9.92578,-0.213745,0,0,0,0,0,0,0,-1,1714,624,9.92579,0.21376
497,400,9.19141,0.175232,0,0,0,0,0,0,0,-1,1721,624,9.19138,-0.175209
504,400,9.23438,0.00823975,0,0,0,0,0,0,0,-1,1728,624,9.23436,-0.00823766
511,400,6.16687,3.3501,0,0,0,0,0,0,0,-1,1735,624,6.16682,-3.35007
518,400,6.55237,1.74994,0,0,0,0,0,0,0,-1,1742,624,6.55236,-1.74993
525,400,6.99731,1.08783,0,0,0,0,0,0,0,-1,1749,624,6.99736,-1.08785
532,400,6.96582,-1.74982,0,0,0,0,0,0,0,-1,1756,624,6.96585,1.74983
539,400,21.2305,-10.5841,0,0,0,0,0,0,0,-1,1763,624,21.2304,10.5841
546,400,32.5697,-20.6174,0,0,0,0,0,0,0,-1,1770,624,32.5697,20.6174
553,400,32.3771,-19.7003,0.0041366,0.000950749,0.00127016,0.00458101,0.000506344,0.336569,0.0029,0.0468694,1777,624,32.3771,19.7003
560,400,32.4369,-18.7318,0.00318775,0.000724341,0.000810996,0.00343077,0.000481322,0.29114,0.00214482,0.0185388,1784,624,32.4368,18.7317
567,400,32.4275,-17.83,0.00240996,0.00064391,0.000573291,0.00257973,0.000474131,0.28792,0.00158559,0.0199201,1791,624,32.4275,17.83
574,400,32.3623,-16.9082,0.0019854,0.000865119,0.000637172,0.00227363,0.000576881,0.424824,0.00136473,0.0215651,1798,624,32.3623,16.9082
581,400,32.264,-15.9931,0.00175857,0.00126723,0.000877874,0.0024245,0.000601301,0.648967,0.00145784,0.0225445,1805,624,32.264,15.9931
588,400,32.1447,-15.0096,0.001776,0.00196479,0.00132904,0.00320279,0.000538006,0.820851,0.00198037,0.0199077,1812,624,32.1446,15.0097
595,400,32.1509,-14.1027,0.00210148,0.0028352,0.00200022,0.00450193,0.000434757,0.876095,0.00286737,0.0185754,1819,624,32.1508,14.1026
602,400,32.1136,-13.1994,0.00266929,0.00390816,0.00281154,0.00616768,0.000409757,0.893825,0.00398224,0.0179801,1826,624,32.1137,13.1994
609,400,31.9756,-12.2604,0.00350449,0.00518417,0.0037827,0.00821914,0.000469515,0.894637,0.00532982,0.0167825,1833,624,31.9756,12.2604
616,400,31.928,-11.3213,0.00467128,0.00672725,0.00491773,0.0107233,0.000675245,0.888433,0.00693474,0.0187086,1840,624,31.928,11.3213
623,400,31.9291,-10.3599,0,0,0,0,0,0,0,-1,1847,624,31.9291,10.3599
630,400,11.9432,0.09021,0,0,0,0,0,0,0,-1,1854,624,11.9432,-0.0902007
637,400,6.92896,1.01917,0,0,0,0,0,0,0,-1,1861,624,6.92899,-1.01918
644,400,8.65381,1.4599,0,0,0,0,0,0,0,-1,1868,624,8.65379,-1.45991
651,400,7.90601,0.424072,0,0,0,0,0,0,0,-1,1875,624,7.90598,-0.424097
658,400,8.69031,1.0484,0,0,0,0,0,0,0,-1,1882,624,8.6903,-1.0484
665,400,5.98438,0.522522,0,0,0,0,0,0,0,-1,1889,624,5.98442,-0.522552
672,400,0,0,0,0,0,0,0,0,0,-1,1896,624,0,0
679,400,0,0,0,0,0,0,0,0,0,-1,1903,624,0,0
686,400,0,0,0,0,0,0,0,0,0,-1,1910,624,0,0
693,400,0,0,0,0,0,0,0,0,0,-1,1917,624,0,0
700,400,0,0,0,0,0,0,0,0,0,-1,1924,624,0,0
707,400,0,0,0,0,0,0,0,0,0,-1,1931,624,0,0
714,400,0,0,0,0,0,0,0,0,0,-1,1938,624,0,0
721,400,0,0,0,0,0,0,0,0,0,-1,1945,624,0,0
728,400,0,0,0,0,0,0,0,0,0,-1,1952,624,0,0
735,400,0,0,0,0,0,0,0,0,0,-1,1959,624,0,0
742,400,0,0,0,0,0,0,0,0,0,-1,1966,624,0,0
749,400,0,0,0,0,0,0,0,0,0,-1,1973,624,0,0
756,400,0,0,0,0,0,0,0,0,0,-1,1980,624,0,0
763,400,0,0,0,0,0,0,0,0,0,-1,1987,624,0,0
770,400,0,0,0,0,0,0,0,0,0,-1,1994,624,0,0
777,400,0,0,0,0,0,0,0,0,0,-1,2001,624,0,0
784,400,0,0,0,0,0,0,0,0,0,-1,2008,624,0,0
791,400,0,0,0,0,0,0,0,0,0,-1,2015,624,0,0
798,400,0,0,0,0,0,0,0,0,0,-1,2022,624,0,0
805,400,0,0,0,0,0,0,0,0,0,-1,2029,624,0,0
812,400,0,0,0,0,0,0,0,0,0,-1,2036,624,0,0
-700,393,0,0,0,0,0,0,0,0,0,-1,524,631,0,0
-693,393,0,0,0,0,0,0,0,0,0,-1,531,631,0,0
-686,393,0,0,0,0,0,0,0,0,0,-1,538,631,0,0
-679,393,0,0,0,0,0,0,0,0,0,-1,545,631,0,0
-672,393,0,0,0,0,0,0,0,0,0,-1,552,631,0,0
-665,393,0,0,0,0,0,0,0,0,0,-1,559,631,0,0
-658,393,0,0,0,0,0,0,0,0,0,-1,566,631,0,0
-651,393,0,0,0,0,0,0,0,0,0,-1,573,631,0,0
-644,393,0,0,0,0,0,0,0,0,0,-1,580,631,0,0
-637,393,0,0,0,0,0,0,0,0,0,-1,587,631,0,0
-630,393,0,0,0,0,0,0,0,0,0,-1,594,631,0,0
-623,393,0,0,0,0,0,0,0,0,0,-1,601,631,0,0
-616,393,0,0,0,0,0,0,0,0,0,-1,608,631,0,0
-609,393,0,0,0,0,0,0,0,0,0,-1,615,631,0,0
-602,393,0,0,0,0,0,0,0,0,0,-1,622,631,0,0
-595,393,0,0,0,0,0,0,0,0,0,-1,629,631,0,0
-588,393,0,0,0,0,0,0,0,0,0,-1,636,631,0,0
-581,393,0,0,0,0,0,0,0,0,0,-1,643,631,0,0
-574,393,0,0,0,0,0,0,0,0,0,-1,650,631,0,0
-567,393,0,0,0,0,0,0,0,0,0,-1,657,631,0,0
-560,393,0,0,0,0,0,0,0,0,0,-1,664,631,0,0
-553,393,-2.35107,3.92633,0,0,0,0,0,0,0,-1,671,631,-2.35108,-3.92634
-546,393,-1.78778,2.4856,0,0,0,0,0,0,0,-1,678,631,-1.78778,-2.48557
-539,393,-5.2113,-2.20245,0,0,0,0,0,0,0,-1,685,631,-5.21128,2.20247
-532,393,-2.83643,-2.01624,0,0,0,0,0,0,0,-1,692,631,-2.83642,2.01626
-525,393,-5.9505,-0.952698,0,0,0,0,0,0,0,-1,699,631,-5.95053,0.95268
-518,393,-5.80219,-1.57739,0,0,0,0,0,0,0,-1,706,631,-5.80219,1.57738
-511,393,-6.15527,-2.09906,0,0,0,0,0,0,0,-1,713,631,-6.15526,2.09903
-504,393,-13.6063,-6.95947,0,0,0,0,0,0,0,-1,720,631,-13.6063,6.95946
-497,393,-17.1469,-10.8123,0,0,0,0,0,0,0,-1,727,631,-17.1469,10.8123
-490,393,-17.0721,-11.8087,-0.00112965,0.00148071,0.000562518,0.00159677,-0.00124571,1.36733,0.00164527,0.0274283,734,631,-17.0721,11.8087
-483,393,-17.1135,-12.7562,-0.000878337,0.00116516,0.000432652,0.00125299,-0.000966164,1.37052,0.00128479,0.0223316,741,631,-17.1135,12.7562
-476,393,-17.1845,-13.6744,-0.000490114,0.000884818,0.000252508,0.000929724,-0.000535021,1.39479,0.000855844,0.0187233,748,631,-17.1845,13.6744
-469,393,-17.2337,-14.6087,3.62035e-05,0.000599456,3.63305e-05,0.00060179,3.38698e-05,1.50665,0.000390394,0.0134641,755,631,-17.2337,14.6087
-462,393,-17.2913,-15.5844,0.000625383,0.000305391,-0.000200663,0.000722028,0.000208746,-0.448841,0.000429045,0.0148746,762,631,-17.2912,15.5844
-455,393,-17.3489,-16.5299,0.00125618,0.000216339,-0.000514345,0.0014676,4.91185e-06,-0.390005,0.000976768,0.0147693,769,631,-17.3489,16.5299
-448,393,-17.4119,-17.4276,0.00193598,0.000116598,-0.00082723,0.00225586,-0.000203282,-0.368979,0.00157604,0.0142126,776,631,-17.4119,17.4276
-441,393,-17.4672,-18.2945,0.00263002,0.000175267,-0.00118767,0.00311058,-0.000305286,-0.38448,0.00218261,0.0133588,783,631,-17.4671,18.2945
-434,393,-17.5201,-19.1693,0.00338993,0.000476513,-0.00164734,0.00413225,-0.000265806,-0.423367,0.00284757,0.0126482,790,631,-17.5201,19.1693
-427,393,-17.5034,-20.1263,0.00415032,0.000903138,-0.00219807,0.00525941,-0.000205953,-0.467301,0.0035769,0.0255751,797,631,-17.5034,20.1263
-420,393,-17.4086,-21.1402,0,0,0,0,0,0,0,-1,804,631,-17.4086,21.1402
-413,393,-15.0913,-18.3777,0,0,0,0,0,0,0,-1,811,631,-15.0913,18.3777
-406,393,-11.826,-12.7987,0,0,0,0,0,0,0,-1,818,631,-11.8261,12.7987
-399,393,-5.07343,-5.92365,0,0,0,0,0,0,0,-1,825,631,-5.07344,5.92364
-392,393,-2.08063,-3.02386,0,0,0,0,0,0,0,-1,832,631,-2.08063,3.02384
-385,393,-3.16931,-0.624756,0,0,0,0,0,0,0,-1,839,631,-3.16928,0.624764
-378,393,-7.33081,-0.872314,0,0,0,0,0,0,0,-1,846,631,-7.33081,0.872325
-371,393,-7.47858,-0.811096,0,0,0,0,0,0,0,-1,853,631,-7.47859,0.811075
-364,393,-7.64917,-0.662415,0,0,0,0,0,0,0,-1,860,631,-7.64917,0.662406
-357,393,-8.09686,-0.726013,0,0,0,0,0,0,0,-1,867,631,-8.09689,0.726029
-350,393,-8.38788,-0.511841,0,0,0,0,0,0,0,-1,874,631,-8.38785,0.511811
-343,393,0,0,0,0,0,0,0,0,0,-1,881,631,0,0
-336,393,0,0,0,0,0,0,0,0,0,-1,888,631,0,0
-329,393,0,0,0,0,0,0,0,0,0,-1,895,631,0,0
-322,393,0,0,0,0,0,0,0,0,0,-1,902,631,0,0
-315,393,0,0,0,0,0,0,0,0,0,-1,909,631,0,0
-308,393,0,0,0,0,0,0,0,0,0,-1,916,631,0,0
-301,393,0,0,0,0,0,0,0,0,0,-1,923,631,0,0
-294,393,0,0,0,0,0,0,0,0,0,-1,930,631,0,0
-287,393,0,0,0,0,0,0,0,0,0,-1,937,631,0,0
-280,393,0,0,0,0,0,0,0,0,0,-1,944,631,0,0
-273,393,0,0,0,0,0,0,0,0,0,-1,951,631,0,0
-266,393,0,0,0,0,0,0,0,0,0,-1,958,631,0,0
-259,393,0,0,0,0,0,0,0,0,0,-1,965,631,0,0
-252,393,0,0,0,0,0,0,0,0,0,-1,972,631,0,0
-245,393,0,0,0,0,0,0,0,0,0,-1,979,631,0,0
-238,393,0,0,0,0,0,0,0,0,0,-1,986,631,0,0
-231,393,0,0,0,0,0,0,0,0,0,-1,993,631,0,0
-224,393,0,0,0,0,0,0,0,0,0,-1,1000,631,0,0
-217,393,0,0,0,0,0,0,0,0,0,-1,1007,631,0,0
-210,393,0,0,0,0,0,0,0,0,0,-1,1014,631,0,0
-203,393,0,0,0,0,0,0,0,0,0,-1,1021,631,0,0
-196,393,0,0,0,0,0,0,0,0,0,-1,1028,631,0,0
-189,393,0,0,0,0,0,0,0,0,0,-1,1035,631,0,0
-182,393,0,0,0,0,0,0,0,0,0,-1,1042,631,0,0
-175,393,0,0,0,0,0,0,0,0,0,-1,1049,631,0,0
-168,393,0,0,0,0,0,0,0,0,0,-1,1056,631,0,0
-161,393,0,0,0,0,0,0,0,0,0,-1,1063,631,0,0
-154,393,0,0,0,0,0,0,0,0,0,-1,1070,631,0,0
-147,393,0,0,0,0,0,0,0,0,0,-1,1077,631,0,0
-140,393,0,0,0,0,0,0,0,0,0,-1,1084,631,0,0
-133,393,0,0,0,0,0,0,0,0,0,-1,1091,631,0,0
-126,393,0,0,0,0,0,0,0,0,0,-1,1098,631,0,0
-119,393,0,0,0,0,0,0,0,0,0,-1,1105,631,0,0
-112,393,0,0,0,0,0,0,0,0,0,-1,1112,631,0,0
-105,393,0,0,0,0,0,0,0,0,0,-1,1119,631,0,0
-98,393,0,0,0,0,0,0,0,0,0,-1,1126,631,0,0
-91,393,0,0,0,0,0,0,0,0,0,-1,1133,631,0,0
-84,393,0,0,0,0,0,0,0,0,0,-1,1140,631,0,0
-77,393,0,0,0,0,0,0,0,0,0,-1,1147,631,0,0
-70,393,0,0,0,0,0,0,0,0,0,-1,1154,631,0,0
-63,393,0,0,0,0,0,0,0,0,0,-1,1161,631,0,0
-56,393,0,0,0,0,0,0,0,0,0,-1,1168,631,0,0
-49,393,0,0,0,0,0,0,0,0,0,-1,1175,631,0,0
-42,393,0,0,0,0,0,0,0,0,0,-1,1182,631,0,0
-35,393,0,0,0,0,0,0,0,0,0,-1,1189,631,0,0
-28,393,0,0,0,0,0,0,0,0,0,-1,1196,631,0,0
-21,393,0,0,0,0,0,0,0,0,0,-1,1203,631,0,0
-14,393,0,0,0,0,0,0,0,0,0,-1,1210,631,0,0
-7,393,0,0,0,0,0,0,0,0,0,-1,1217,631,0,0
0,393,0,0,0,0,0,0,0,0,0,-1,1224,631,0,0
7,393,0,0,0,0,0,0,0,0,0,-1,1231,631,0,0
14,393,0,0,0,0,0,0,0,0,0,-1,1238,631,0,0
21,393,0,0,0,0,0,0,0,0,0,-1,1245,631,0,0
28,393,0,0,0,0,0,0,0,0,0,-1,1252,631,0,0
35,393,0,0,0,0,0,0,0,0,0,-1,1259,631,0,0
42,393,0,0,0,0,0,0,0,0,0,-1,1266,631,0,0
49,393,0,0,0,0,0,0,0,0,0,-1,1273,631,0,0
56,393,0,0,0,0,0,0,0,0,0,-1,1280,631,0,0
63,393,0,0,0,0,0,0,0,0,0,-1,1287,631,0,0
70,393,0,0,0,0,0,0,0,0,0,-1,1294,631,0,0
77,393,0,0,0,0,0,0,0,0,0,-1,1301,631,0,0
84,393,0,0,0,0,0,0,0,0,0,-1,1308,631,0,0
91,393,0,0,0,0,0,0,0,0,0,-1,1315,631,0,0
98,393,0,0,0,0,0,0,0,0,0,-1,1322,631,0,0
105,393,0,0,0,0,0,0,0,0,0,-1,1329,631,0,0
112,393,0,0,0,0,0,0,0,0,0,-1,1336,631,0,0
119,393,0,0,0,0,0,0,0,0,0,-1,1343,631,0,0
126,393,0,0,0,0,0,0,0,0,0,-1,1350,631,0,0
133,393,0,0,0,0,0,0,0,0,0,-1,1357,631,0,0
140,393,0,0,0,0,0,0,0,0,0,-1,1364,631,0,0
147,393,0,0,0,0,0,0,0,0,0,-1,1371,631,0,0
154,393,0,0,0,0,0,0,0,0,0,-1,1378,631,0,0
161,393,0,0,0,0,0,0,0,0,0,-1,1385,631,0,0
168,393,0,0,0,0,0,0,0,0,0,-1,1392,631,0,0
175,393,0,0,0,0,0,0,0,0,0,-1,1399,631,0,0
182,393,0,0,0,0,0,0,0,0,0,-1,1406,631,0,0
189,393,0,0,0,0,0,0,0,0,0,-1,1413,631,0,0
196,393,0,0,0,0,0,0,0,0,0,-1,1420,631,0,0
203,393,0,0,0,0,0,0,0,0,0,-1,1427,631,0,0
210,393,0,0,0,0,0,0,0,0,0,-1,1434,631,0,0
217,393,0,0,0,0,0,0,0,0,0,-1,1441,631,0,0
224,393,0,0,0,0,0,0,0,0,0,-1,1448,631,0,0
231,393,0,0,0,0,0,0,0,0,0,-1,1455,631,0,0
238,393,0,0,0,0,0,0,0,0,0,-1,1462,631,0,0
245,393,0,0,0,0,0,0,0,0,0,-1,1469,631,0,0
252,393,0,0,0,0,0,0,0,0,0,-1,1476,631,0,0
259,393,0,0,0,0,0,0,0,0,0,-1,1483,631,0,0
266,393,0,0,0,0,0,0,0,0,0,-1,1490,631,0,0
273,393,0,0,0,0,0,0,0,0,0,-1,1497,631,0,0
280,393,0,0,0,0,0,0,0,0,0,-1,1504,631,0,0
287,393,0,0,0,0,0,0,0,0,0,-1,1511,631,0,0
294,393,0,0,0,0,0,0,0,0,0,-1,1518,631,0,0
301,393,0,0,0,0,0,0,0,0,0,-1,1525,631,0,0
308,393,0,0,0,0,0,0,0,0,0,-1,1532,631,0,0
315,393,0,0,0,0,0,0,0,0,0,-1,1539,631,0,0
322,393,0,0,0,0,0,0,0,0,0,-1,1546,631,0,0
329,393,0,0,0,0,0,0,0,0,0,-1,1553,631,0,0
336,393,0,0,0,0,0,0,0,0,0,-1,1560,631,0,0
343,393,0,0,0,0,0,0,0,0,0,-1,1567,631,0,0
350,393,0,0,0,0,0,0,0,0,0,-1,1574,631,0,0
357,393,0,0,0,0,0,0,0,0,0,-1,1581,631,0,0
364,393,0,0,0,0,0,0,0,0,0,-1,1588,631,0,0
371,393,0,0,0,0,0,0,0,0,0,-1,1595,631,0,0
378,393,0,0,0,0,0,0,0,0,0,-1,1602,631,0,0
385,393,0,0,0,0,0,0,0,0,0,-1,1609,631,0,0
392,393,0,0,0,0,0,0,0,0,0,-1,1616,631,0,0
399,393,0,0,0,0,0,0,0,0,0,-1,1623,631,0,0
406,393,0,0,0,0,0,0,0,0,0,-1,1630,631,0,0
413,393,0,0,0,0,0,0,0,0,0,-1,1637,631,0,0
420,393,0,0,0,0,0,0,0,0,0,-1,1644,631,0,0
427,393,0,0,0,0,0,0,0,0,0,-1,1651,631,0,0
434,393,0,0,0,0,0,0,0,0,0,-1,1658,631,0,0
441,393,0,0,0,0,0,0,0,0,0,-1,1665,631,0,0
448,393,0,0,0,0,0,0,0,0,0,-1,1672,631,0,0
455,393,0,0,0,0,0,0,0,0,0,-1,1679,631,0,0
462,393,8.51099,1.89502,0,0,0,0,0,0,0,-1,1686,631,8.51103,-1.89504
469,393,9.39465,1.51703,0,0,0,0,0,0,0,-1,1693,631,9.39465,-1.51703
476,393,9.95569,1.185,0,0,0,0,0,0,0,-1,1700,631,9.95575,-1.18497
483,393,10.5267,0.887329,0,0,0,0,0,0,0,-1,1707,631,10.5267,-0.887321
490,393,10.9303,0.761414,0,0,0,0,0,0,0,-1,1714,631,10.9303,-0.761386
497,393,8.32153,1.88104,0,0,0,0,0,0,0,-1,1721,631,8.32148,-1.88103
504,393,9.46985,1.78711,0,0,0,0,0,0,0,-1,1728,631,9.46986,-1.78713
511,393,9.66565,-0.375977,0,0,0,0,0,0,0,-1,1735,631,9.66571,0.375949
518,393,7.01599,1.62482,0,0,0,0,0,0,0,-1,1742,631,7.01597,-1.62483
525,393,7.88245,-1.13422,0,0,0,0,0,0,0,-1,1749,631,7.88246,1.13423
532,393,7.06335,-1.18103,0,0,0,0,0,0,0,-1,1756,631,7.06332,1.18101
539,393,9.91626,-2.46301,0,0,0,0,0,0,0,-1,1763,631,9.91625,2.46302
546,393,16.4094,-8.04651,0,0,0,0,0,0,0,-1,1770,631,16.4094,8.04649
553,393,33.0254,-19.8844,0,0,0,0,0,0,0,-1,1777,631,33.0254,19.8844
560,393,33.3201,-18.7087,0.00352114,0.00061308,0.000638319,0.00365508,0.000479138,0.206834,0.00229375,0.0439003,1784,631,33.3201,18.7088
567,393,33.296,-17.7634,0.00250367,0.000346267,0.000273725,0.00253786,0.000312079,0.124254,0.00159807,0.0174894,1791,631,33.296,17.7633
574,393,33.2726,-16.8547,0.00193047,0.000439074,0.000288535,0.00198435,0.000385198,0.184595,0.00121503,0.0162963,1798,631,33.2725,16.8547
581,393,33.1417,-15.9011,0.00157657,0.000768311,0.000476676,0.00179737,0.000547508,0.433788,0.0010638,0.0193048,1805,631,33.1418,15.901
588,393,33.0726,-14.9089,0.00150713,0.00136043,0.000864983,0.00230187,0.000565696,0.743099,0.00138507,0.0226076,1812,631,33.0726,14.909
595,393,33.0702,-14.0496,0.00177102,0.00213651,0.00146491,0.00343003,0.0004775,0.847452,0.00214531,0.0188053,1819,631,33.0702,14.0496
602,393,33.02,-13.1707,0.0022829,0.0030786,0.0021917,0.00490826,0.000453236,0.875184,0.00313205,0.020013,1826,631,33.02,13.1707
609,393,32.9237,-12.2007,0.00297835,0.00419433,0.00301152,0.00665862,0.000514064,0.885003,0.00427803,0.0179217,1833,631,32.9238,12.2007
616,393,32.8569,-11.2545,0.0038941,0.00554686,0.00391537,0.00872211,0.000718848,0.889402,0.00559055,0.0157667,1840,631,32.857,11.2545
623,393,32.8281,-10.2125,0.00497336,0.00702298,0.00491258,0.0110165,0.000979836,0.888228,0.00704049,0.0358689,1847,631,32.8281,10.2125
630,393,33.0902,-9.21625,0,0,0,0,0,0,0,-1,1854,631,33.0902,9.21627
637,393,11.4626,0.608887,0,0,0,0,0,0,0,-1,1861,631,11.4627,-0.608904
644,393,8.97583,1.30585,0,0,0,0,0,0,0,-1,1868,631,8.97586,-1.30584
651,393,11.348,0.53302,0,0,0,0,0,0,0,-1,1875,631,11.348,-0.53305
658,393,9.21338,1.50836,0,0,0,0,0,0,0,-1,1882,631,9.21338,-1.50834
665,393,6.1001,2.32129,0,0,0,0,0,0,0,-1,1889,631,6.10012,-2.3213
672,393,7.14575,2.43225,0,0,0,0,0,0,0,-1,1896,631,7.14572,-2.43222
679,393,0,0,0,0,0,0,0,0,0,-1,1903,631,0,0
686,393,0,0,0,0,0,0,0,0,0,-1,1910,631,0,0
693,393,0,0,0,0,0,0,0,0,0,-1,1917,631,0,0
700,393,0,0,0,0,0,0,0,0,0,-1,1924,631,0,0
707,393,0,0,0,0,0,0,0,0,0,-1,1931,631,0,0
714,393,0,0,0,0,0,0,0,0,0,-1,1938,631,0,0
721,393,0,0,0,0,0,0,0,0,0,-1,1945,631,0,0
728,393,0,0,0,0,0,0,0,0,0,-1,1952,631,0,0
735,393,0,0,0,0,0,0,0,0,0,-1,1959,631,0,0
742,393,0,0,0,0,0,0,0,0,0,-1,1966,631,0,0
749,393,0,0,0,0,0,0,0,0,0,-1,1973,631,0,0
756,393,0,0,0,0,0,0,0,0,0,-1,1980,631,0,0
763,393,0,0,0,0,0,0,0,0,0,-1,1987,631,0,0
770,393,0,0,0,0,0,0,0,0,0,-1,1994,631,0,0
777,393,0,0,0,0,0,0,0,0,0,-1,2001,631,0,0
784,393,0,0,0,0,0,0,0,0,0,-1,2008,631,0,0
791,393,0,0,0,0,0,0,0,0,0,-1,2015,631,0,0
798,393,0,0,0,0,0,0,0,0,0,-1,2022,631,0,0
805,393,0,0,0,0,0,0,0,0,0,-1,2029,631,0,0
812,393,0,0,0,0,0,0,0,0,0,-1,2036,631,0,0
-700,386,0,0,0,0,0,0,0,0,0,-1,524,638,0,0
-693,386,0,0,0,0,0,0,0,0,0,-1,531,638,0,0
-686,386,0,0,0,0,0,0,0,0,0,-1,538,638,0,0
-679,386,0,0,0,0,0,0,0,0,0,-1,545,638,0,0
-672,386,0,0,0,0,0,0,0,0,0,-1,552,638,0,0
-665,386,0,0,0,0,0,0,0,0,0,-1,559,638,0,0
-658,386,0,0,0,0,0,0,0,0,0,-1,566,638,0,0
-651,386,0,0,0,0,0,0,0,0,0,-1,573,638,0,0
-644,386,0,0,0,0,0,0,0,0,0,-1,580,638,0,0
-637,386,0,0,0,0,0,0,0,0,0,-1,587,638,0,0
-630,386,0,0,0,0,0,0,0,0,0,-1,594,638,0,0
-623,386,0,0,0,0,0,0,0,0,0,-1,601,638,0,0
-616,386,0,0,0,0,0,0,0,0,0,-1,608,638,0,0
-609,386,0,0,0,0,0,0,0,0,0,-1,615,638,0,0
-602,386,0,0,0,0,0,0,0,0,0,-1,622,638,0,0
-595,386,0,0,0,0,0,0,0,0,0,-1,629,638,0,0
-588,386,0,0,0,0,0,0,0,0,0,-1,636,638,0,0
-581,386,0,0,0,0,0,0,0,0,0,-1,643,638,0,0
-574,386,0,0,0,0,0,0,0,0,0,-1,650,638,0,0
-567,386,0,0,0,0,0,0,0,0,0,-1,657,638,0,0
-560,386,-3.97229,-5.13898,0,0,0,0,0,0,0,-1,664,638,-3.97232,5.13897
-553,386,-4.94244,-5.54309,0,0,0,0,0,0,0,-1,671,638,-4.94242,5.5431
-546,386,-1.78668,1.72827,0,0,0,0,0,0,0,-1,678,638,-1.78668,-1.72829
-539,386,-0.879456,-2.90009,0,0,0,0,0,0,0,-1,685,638,-0.879442,2.90008
-532,386,-5.4884,1.73328,0,0,0,0,0,0,0,-1,692,638,-5.4884,-1.73325
-525,386,-6.64148,-1.50604,0,0,0,0,0,0,0,-1,699,638,-6.64149,1.50603
-518,386,-11.1217,-4.10382,0,0,0,0,0,0,0,-1,706,638,-11.1217,4.1038
-511,386,-13.0612,-5.05151,0,0,0,0,0,0,0,-1,713,638,-13.0612,5.05149
-504,386,-18.0121,-9.74231,0,0,0,0,0,0,0,-1,720,638,-18.0121,9.7423
-497,386,-17.9638,-10.9049,0,0,0,0,0,0,0,-1,727,638,-17.9638,10.9049
-490,386,-17.9853,-11.8549,-0.000333225,0.000983958,0.0002077,0.00101593,-0.0003652,1.41805,0.000826374,0.0149079,734,638,-17.9853,11.8549
-483,386,-18.0218,-12.7734,-0.00014121,0.000766869,0.000124734,0.000783691,-0.000158032,1.43674,0.00058233,0.0186504,741,638,-18.0218,12.7734
-476,386,-18.0995,-13.6713,0.000190496,0.000556204,-1.84991e-05,0.000557138,0.000189563,-1.52038,0.000327091,0.0171966,748,638,-18.0995,13.6713
-469,386,-18.1651,-14.5766,0.000645052,0.000328751,-0.000202884,0.000744144,0.00022966,-0.454336,0.000439997,0.0119622,755,638,-18.1651,14.5766
-462,386,-18.2149,-15.5197,0.0011781,8.84157e-05,-0.000426067,0.00132491,-5.83967e-05,-0.331835,0.000903369,0.0111341,762,638,-18.2149,15.5196
-455,386,-18.274,-16.4555,0.00178894,5.19736e-05,-0.000744893,0.00206463,-0.000223715,-0.354472,0.00145673,0.0133474,769,638,-18.274,16.4555
-448,386,-18.3324,-17.3525,0.00246884,-1.42694e-05,-0.00107947,0.00287249,-0.000417928,-0.357841,0.00206843,0.0127587,776,638,-18.3324,17.3525
-441,386,-18.3841,-18.2458,0.00320135,9.0248e-05,-0.00150239,0.00380841,-0.000516817,-0.384007,0.00272759,0.0135685,783,638,-18.3841,18.2458
-434,386,-18.3869,-19.1949,0.00408461,0.000522335,-0.00208407,0.00504497,-0.000438022,-0.431806,0.00351842,0.033007,790,638,-18.3869,19.1949
-427,386,-18.3278,-20.243,0,0,0,0,0,0,0,-1,797,638,-18.3278,20.2431
-420,386,-14.5338,-16.0451,0,0,0,0,0,0,0,-1,804,638,-14.5338,16.0451
-413,386,-5.45691,-5.35785,0,0,0,0,0,0,0,-1,811,638,-5.45691,5.35783
-406,386,-4.51135,-4.10999,0,0,0,0,0,0,0,-1,818,638,-4.51135,4.10996
-399,386,-3.57117,-3.42126,0,0,0,0,0,0,0,-1,825,638,-3.57116,3.42129
-392,386,-4.00977,0.403625,0,0,0,0,0,0,0,-1,832,638,-4.0098,-0.403616
-385,386,-3.2406,-0.118469,0,0,0,0,0,0,0,-1,839,638,-3.24058,0.118485
-378,386,-2.55243,-1.22748,0,0,0,0,0,0,0,-1,846,638,-2.55243,1.22748
-371,386,-7.95807,-0.330261,0,0,0,0,0,0,0,-1,853,638,-7.95806,0.330284
-364,386,-8.90637,-0.665955,0,0,0,0,0,0,0,-1,860,638,-8.90635,0.665951
-357,386,-9.10364,-0.388733,0,0,0,0,0,0,0,-1,867,638,-9.10364,0.388744
-350,386,0,0,0,0,0,0,0,0,0,-1,874,638,0,0
-343,386,0,0,0,0,0,0,0,0,0,-1,881,638,0,0
-336,386,0,0,0,0,0,0,0,0,0,-1,888,638,0,0
-329,386,0,0,0,0,0,0,0,0,0,-1,895,638,0,0
-322,386,0,0,0,0,0,0,0,0,0,-1,902,638,0,0
-315,386,0,0,0,0,0,0,0,0,0,-1,909,638,0,0
-308,386,0,0,0,0,0,0,0,0,0,-1,916,638,0,0
-301,386,0,0,0,0,0,0,0,0,0,-1,923,638,0,0
-294,386,0,0,0,0,0,0,0,0,0,-1,930,638,0,0
-287,386,0,0,0,0,0,0,0,0,0,-1,937,638,0,0
-280,386,0,0,0,0,0,0,0,0,0,-1,944,638,0,0
-273,386,0,0,0,0,0,0,0,0,0,-1,951,638,0,0
-266,386,0,0,0,0,0,0,0,0,0,-1,958,638,0,0
-259,386,0,0,0,0,0,0,0,0,0,-1,965,638,0,0
-252,386,0,0,0,0,0,0,0,0,0,-1,972,638,0,0
-245,386,0,0,0,0,0,0,0,0,0,-1,979,638,0,0
-238,386,0,0,0,0,0,0,0,0,0,-1,986,638,0,0
-231,386,0,0,0,0,0,0,0,0,0,-1,993,638,0,0
-224,386,0,0,0,0,0,0,0,0,0,-1,1000,638,0,0
-217,386,0,0,0,0,0,0,0,0,0,-1,1007,638,0,0
-210,386,0,0,0,0,0,0,0,0,0,-1,1014,638,0,0
-203,386,0,0,0,0,0,0,0,0,0,-1,1021,638,0,0
-196,386,0,0,0,0,0,0,0,0,0,-1,1028,638,0,0
-189,386,0,0,0,0,0,0,0,0,0,-1,1035,638,0,0
-182,386,0,0,0,0,0,0,0,0,0,-1,1042,638,0,0
-175,386,0,0,0,0,0,0,0,0,0,-1,1049,638,0,0
-168,386,0,0,0,0,0,0,0,0,0,-1,1056,638,0,0
-161,386,0,0,0,0,0,0,0,0,0,-1,1063,638,0,0
-154,386,0,0,0,0,0,0,0,0,0,-1,1070,638,0,0
-147,386,0,0,0,0,0,0,0,0,0,-1,1077,638,0,0
-140,386,0,0,0,0,0,0,0,0,0,-1,1084,638,0,0
-133,386,0,0,0,0,0,0,0,0,0,-1,1091,638,0,0
-126,386,0,0,0,0,0,0,0,0,0,-1,1098,638,0,0
-119,386,0,0,0,0,0,0,0,0,0,-1,1105,638,0,0
-112,386,0,0,0,0,0,0,0,0,0,-1,1112,638,0,0
-105,386,0,0,0,0,0,0,0,0,0,-1,1119,638,0,0
-98,386,0,0,0,0,0,0,0,0,0,-1,1126,638,0,0
-91,386,0,0,0,0,0,0,0,0,0,-1,1133,638,0,0
-84,386,0,0,0,0,0,0,0,0,0,-1,1140,638,0,0
-77,386,0,0,0,0,0,0,0,0,0,-1,1147,638,0,0
-70,386,0,0,0,0,0,0,0,0,0,-1,1154,638,0,0
-63,386,0,0,0,0,0,0,0,0,0,-1,1161,638,0,0
-56,386,0,0,0,0,0,0,0,0,0,-1,1168,638,0,0
-49,386,0,0,0,0,0,0,0,0,0,-1,1175,638,0,0
-42,386,0,0,0,0,0,0,0,0,0,-1,1182,638,0,0
-35,386,0,0,0,0,0,0,0,0,0,-1,1189,638,0,0
-28,386,0,0,0,0,0,0,0,0,0,-1,1196,638,0,0
-21,386,0,0,0,0,0,0,0,0,0,-1,1203,638,0,0
-14,386,0,0,0,0,0,0,0,0,0,-1,1210,638,0,0
-7,386,0,0,0,0,0,0,0,0,0,-1,1217,638,0,0
0,386,0,0,0,0,0,0,0,0,0,-1,1224,638,0,0
7,386,0,0,0,0,0,0,0,0,0,-1,1231,638,0,0
14,386,0,0,0,0,0,0,0,0,0,-1,1238,638,0,0
21,386,0,0,0,0,0,0,0,0,0,-1,1245,638,0,0
28,386,0,0,0,0,0,0,0,0,0,-1,1252,638,0,0
35,386,0,0,0,0,0,0,0,0,0,-1,1259,638,0,0
42,386,0,0,0,0,0,0,0,0,0,-1,1266,638,0,0
49,386,0,0,0,0,0,0,0,0,0,-1,1273,638,0,0
56,386,0,0,0,0,0,0,0,0,0,-1,1280,638,0,0
63,386,0,0,0,0,0,0,0,0,0,-1,1287,638,0,0
70,386,0,0,0,0,0,0,0,0,0,-1,1294,638,0,0
77,386,0,0,0,0,0,0,0,0,0,-1,1301,638,0,0
84,386,0,0,0,0,0,0,0,0,0,-1,1308,638,0,0
91,386,0,0,0,0,0,0,0,0,0,-1,1315,638,0,0
98,386,0,0,0,0,0,0,0,0,0,-1,1322,638,0,0
105,386,0,0,0,0,0,0,0,0,0,-1,1329,638,0,0
112,386,0,0,0,0,0,0,0,0,0,-1,1336,638,0,0
119,386,0,0,0,0,0,0,0,0,0,-1,1343,638,0,0
126,386,0,0,0,0,0,0,0,0,0,-1,1350,638,0,0
133,386,0,0,0,0,0,0,0,0,0,-1,1357,638,0,0
140,386,0,0,0,0,0,0,0,0,0,-1,1364,638,0,0
147,386,0,0,0,0,0,0,0,0,0,-1,1371,638,0,0
154,386,0,0,0,0,0,0,0,0,0,-1,1378,638,0,0
161,386,0,0,0,0,0,0,0,0,0,-1,1385,638,0,0
168,386,0,0,0,0,0,0,0,0,0,-1,1392,638,0,0
175,386,0,0,0,0,0,0,0,0,0,-1,1399,638,0,0
182,386,0,0,0,0,0,0,0,0,0,-1,1406,638,0,0
189,386,0,0,0,0,0,0,0,0,0,-1,1413,638,0,0
196,386,0,0,0,0,0,0,0,0,0,-1,1420,638,0,0
203,386,0,0,0,0,0,0,0,0,0,-1,1427,638,0,0
210,386,0,0,0,0,0,0,0,0,0,-1,1434,638,0,0
217,386,0,0,0,0,0,0,0,0,0,-1,1441,638,0,0
224,386,0,0,0,0,0,0,0,0,0,-1,1448,638,0,0
231,386,0,0,0,0,0,0,0,0,0,-1,1455,638,0,0
238,386,0,0,0,0,0,0,0,0,0,-1,1462,638,0,0
245,386,0,0,0,0,0,0,0,0,0,-1,1469,638,0,0
252,386,0,0,0,0,0,0,0,0,0,-1,1476,638,0,0
259,386,0,0,0,0,0,0,0,0,0,-1,1483,638,0,0
266,386,0,0,0,0,0,0,0,0,0,-1,1490,638,0,0
273,386,0,0,0,0,0,0,0,0,0,-1,1497,638,0,0
280,386,0,0,0,0,0,0,0,0,0,-1,1504,638,0,0
287,386,0,0,0,0,0,0,0,0,0,-1,1511,638,0,0
294,386,0,0,0,0,0,0,0,0,0,-1,1518,638,0,0
301,386,0,0,0,0,0,0,0,0,0,-1,1525,638,0,0
308,386,0,0,0,0,0,0,0,0,0,-1,1532,638,0,0
315,386,0,0,0,0,0,0,0,0,0,-1,1539,638,0,0
322,386,0,0,0,0,0,0,0,0,0,-1,1546,638,0,0
329,386,0,0,0,0,0,0,0,0,0,-1,1553,638,0,0
336,386,0,0,0,0,0,0,0,0,0,-1,1560,638,0,0
343,386,0,0,0,0,0,0,0,0,0,-1,1567,638,0,0
350,386,0,0,0,0,0,0,0,0,0,-1,1574,638,0,0
357,386,0,0,0,0,0,0,0,0,0,-1,1581,638,0,0
364,386,0,0,0,0,0,0,0,0,0,-1,1588,638,0,0
371,386,0,0,0,0,0,0,0,0,0,-1,1595,638,0,0
378,386,0,0,0,0,0,0,0,0,0,-1,1602,638,0,0
385,386,0,0,0,0,0,0,0,0,0,-1,1609,638,0,0
392,386,0,0,0,0,0,0,0,0,0,-1,1616,638,0,0
399,386,0,0,0,0,0,0,0,0,0,-1,1623,638,0,0
406,386,0,0,0,0,0,0,0,0,0,-1,1630,638,0,0
413,386,0,0,0,0,0,0,0,0,0,-1,1637,638,0,0
420,386,0,0,0,0,0,0,0,0,0,-1,1644,638,0,0
427,386,0,0,0,0,0,0,0,0,0,-1,1651,638,0,0
434,386,0,0,0,0,0,0,0,0,0,-1,1658,638,0,0
441,386,0,0,0,0,0,0,0,0,0,-1,1665,638,0,0
448,386,0,0,0,0,0,0,0,0,0,-1,1672,638,0,0
455,386,0,0,0,0,0,0,0,0,0,-1,1679,638,0,0
462,386,0,0,0,0,0,0,0,0,0,-1,1686,638,0,0
469,386,9.84692,1.55804,0,0,0,0,0,0,0,-1,1693,638,9.84691,-1.55807
476,386,10.6145,0.986511,0,0,0,0,0,0,0,-1,1700,638,10.6145,-0.986529
483,386,11.4113,0.732971,0,0,0,0,0,0,0,-1,1707,638,11.4112,-0.732958
490,386,7.79785,1.79572,0,0,0,0,0,0,0,-1,1714,638,7.79788,-1.7957
497,386,8.96362,1.77081,0,0,0,0,0,0,0,-1,1721,638,8.96357,-1.77081
504,386,10.0555,1.69427,0,0,0,0,0,0,0,-1,1728,638,10.0555,-1.69426
511,386,11.2172,1.534,0,0,0,0,0,0,0,-1,1735,638,11.2172,-1.53398
518,386,7.41553,1.75238,0,0,0,0,0,0,0,-1,1742,638,7.41547,-1.75238
525,386,8.82422,-1.1449,0,0,0,0,0,0,0,-1,1749,638,8.82426,1.14492
532,386,10.6432,0.617371,0,0,0,0,0,0,0,-1,1756,638,10.6432,-0.617359
539,386,9.62061,-0.393616,0,0,0,0,0,0,0,-1,1763,638,9.62059,0.393634
546,386,10.7963,-2.854,0,0,0,0,0,0,0,-1,1770,638,10.7962,2.854
553,386,16.9939,-7.27942,0,0,0,0,0,0,0,-1,1777,638,16.9939,7.27944
560,386,34.1434,-18.8052,0,0,0,0,0,0,0,-1,1784,638,34.1435,18.8052
567,386,34.1108,-17.7191,0,0,0,0,0,0,0,-1,1791,638,34.1109,17.7191
574,386,34.1425,-16.7553,0.00190645,7.30763e-05,3.1174e-05,0.00190698,7.25464e-05,0.016997,0.00124784,0.0155613,1798,638,34.1424,16.7553
581,386,34.0579,-15.8931,0.00140584,0.000337207,0.000150335,0.00142659,0.000316461,0.137135,0.000865085,0.0165996,1805,638,34.0578,15.8931
588,386,34.0575,-14.9545,0.00124745,0.000811445,0.000463644,0.00154179,0.00051711,0.565638,0.000906087,0.0149763,1812,638,34.0574,14.9546
595,386,33.9872,-14.0244,0.00143696,0.00149217,0.000971119,0.00243607,0.000493052,0.799606,0.0014872,0.0167422,1819,638,33.9872,14.0244
602,386,33.9141,-13.1284,0.00186805,0.00231107,0.00158732,0.00369226,0.000486854,0.854725,0.00231634,0.0175282,1826,638,33.9141,13.1284
609,386,33.8835,-12.1799,0.00242656,0.00328209,0.00224723,0.0051419,0.000566751,0.879449,0.00325551,0.0155899,1833,638,33.8836,12.1799
616,386,33.8174,-11.2155,0.00315136,0.00445,0.00293576,0.00680739,0.000793971,0.894235,0.00429812,0.0129661,1840,638,33.8174,11.2155
623,386,33.7333,-10.2957,0.00401805,0.00566831,0.00366942,0.00860422,0.00108213,0.895992,0.00541162,0.0110174,1847,638,33.7333,10.2956
630,386,33.819,-9.33191,0.00489563,0.00695438,0.00431161,0.0103578,0.00149222,0.902577,0.00646545,0.0376081,1854,638,33.819,9.33191
637,386,33.9825,-8.32019,0,0,0,0,0,0,0,-1,1861,638,33.9826,8.32018
644,386,11.6521,0.723328,0,0,0,0,0,0,0,-1,1868,638,11.6521,-0.723355
651,386,9.3866,1.31097,0,0,0,0,0,0,0,-1,1875,638,9.3866,-1.31095
658,386,12.0731,-0.00415039,0,0,0,0,0,0,0,-1,1882,638,12.0731,0.00412803
665,386,6.33167,1.78601,0,0,0,0,0,0,0,-1,1889,638,6.33171,-1.78601
672,386,7.23352,2.14435,0,0,0,0,0,0,0,-1,1896,638,7.23353,-2.14433
679,386,8.07764,2.57104,0,0,0,0,0,0,0,-1,1903,638,8.07758,-2.57103
686,386,0,0,0,0,0,0,0,0,0,-1,1910,638,0,0
693,386,0,0,0,0,0,0,0,0,0,-1,1917,638,0,0
700,386,0,0,0,0,0,0,0,0,0,-1,1924,638,0,0
707,386,0,0,0,0,0,0,0,0,0,-1,1931,638,0,0
714,386,0,0,0,0,0,0,0,0,0,-1,1938,638,0,0
721,386,0,0,0,0,0,0,0,0,0,-1,1945,638,0,0
728,386,0,0,0,0,0,0,0,0,0,-1,1952,638,0,0
735,386,0,0,0,0,0,0,0,0,0,-1,1959,638,0,0
742,386,0,0,0,0,0,0,0,0,0,-1,1966,638,0,0
749,386,0,0,0,0,0,0,0,0,0,-1,1973,638,0,0
756,386,0,0,0,0,0,0,0,0,0,-1,1980,638,0,0
763,386,0,0,0,0,0,0,0,0,0,-1,1987,638,0,0
770,386,0,0,0,0,0,0,0,0,0,-1,1994,638,0,0
777,386,0,0,0,0,0,0,0,0,0,-1,2001,638,0,0
784,386,0,0,0,0,0,0,0,0,0,-1,2008,638,0,0
791,386,0,0,0,0,0,0,0,0,0,-1,2015,638,0,0
798,386,0,0,0,0,0,0,0,0,0,-1,2022,638,0,0
805,386,0,0,0,0,0,0,0,0,0,-1,2029,638,0,0
812,386,0,0,0,0,0,0,0,0,0,-1,2036,638,0,0
-700,379,0,0,0,0,0,0,0,0,0,-1,524,645,0,0
-693,379,0,0,0,0,0,0,0,0,0,-1,531,645,0,0
-686,379,0,0,0,0,0,0,0,0,0,-1,538,645,0,0
-679,379,0,0,0,0,0,0,0,0,0,-1,545,645,0,0
-672,379,0,0,0,0,0,0,0,0,0,-1,552,645,0,0
-665,379,0,0,0,0,0,0,0,0,0,-1,559,645,0,0
-658,379,0,0,0,0,0,0,0,0,0,-1,566,645,0,0
-651,379,0,0,0,0,0,0,0,0,0,-1,573,645,0,0
-644,379,0,0,0,0,0,0,0,0,0,-1,580,645,0,0
-637,379,0,0,0,0,0,0,0,0,0,-1,587,645,0,0
-630,379,0,0,0,0,0,0,0,0,0,-1,594,645,0,0
-623,379,0,0,0,0,0,0,0,0,0,-1,601,645,0,0
-616,379,0,0,0,0,0,0,0,0,0,-1,608,645,0,0
-609,379,0,0,0,0,0,0,0,0,0,-1,615,645,0,0
-602,379,0,0,0,0,0,0,0,0,0,-1,622,645,0,0
-595,379,0,0,0,0,0,0,0,0,0,-1,629,645,0,0
-588,379,0,0,0,0,0,0,0,0,0,-1,636,645,0,0
-581,379,0,0,0,0,0,0,0,0,0,-1,643,645,0,0
-574,379,0,0,0,0,0,0,0,0,0,-1,650,645,0,0
-567,379,-8.78058,0.59668,0,0,0,0,0,0,0,-1,657,645,-8.7806,-0.596692
-560,379,-9.53485,-0.211304,0,0,0,0,0,0,0,-1,664,645,-9.53487,0.211282
-553,379,-5.17108,-4.53119,0,0,0,0,0,0,0,-1,671,645,-5.17106,4.53117
-546,379,-6.23053,-4.92102,0,0,0,0,0,0,0,-1,678,645,-6.23054,4.92105
-539,379,-0.71698,-2.19427,0,0,0,0,0,0,0,-1,685,645,-0.716959,2.19427
-532,379,-7.69611,0.217224,0,0,0,0,0,0,0,-1,692,645,-7.69614,-0.217204
-525,379,-7.09833,-1.13043,0,0,0,0,0,0,0,-1,699,645,-7.0983,1.13041
-518,379,-13.126,-5.33893,0,0,0,0,0,0,0,-1,706,645,-13.126,5.33895
-511,379,-18.7533,-8.91711,0,0,0,0,0,0,0,-1,713,645,-18.7533,8.91711
-504,379,-18.7622,-9.9342,0.000319429,0.000750231,-0.000139808,0.000791625,0.000278035,-1.28294,0.000463741,0.0360152,720,645,-18.7622,9.93421
-497,379,-18.8797,-10.837,0.000256989,0.000768026,-8.84936e-05,0.000782916,0.000242098,-1.4041,0.000462854,0.0160049,727,645,-18.8797,10.837
-490,379,-18.9093,-11.7906,0.000286977,0.000633208,-5.09945e-05,0.000640563,0.000279622,-1.42756,0.000370821,0.0119096,734,645,-18.9093,11.7906
-483,379,-18.9442,-12.7037,0.000434225,0.000462161,-9.66809e-05,0.000545878,0.000350509,-0.857141,0.000319377,0.0134843,741,645,-18.9442,12.7038
-476,379,-18.9858,-13.5861,0.000718826,0.000288138,-0.000210869,0.000804877,0.000202087,-0.38745,0.000483511,0.0139598,748,645,-18.9858,13.5861
-469,379,-19.0623,-14.4902,0.00113421,0.000102586,-0.0003911,0.00126572,-2.89202e-05,-0.324371,0.000853615,0.0125437,755,645,-19.0623,14.4902
-462,379,-19.1364,-15.4351,0.00165013,-9.03495e-05,-0.000627982,0.00185305,-0.000293273,-0.312544,0.00134384,0.0098849,762,645,-19.1363,15.4351
-455,379,-19.2061,-16.3456,0.00228408,-9.24176e-05,-0.000973567,0.00263198,-0.000440323,-0.343209,0.00191835,0.0105912,769,645,-19.2061,16.3456
-448,379,-19.2451,-17.2324,0.00301998,-0.000124218,-0.00135738,0.00352489,-0.00062913,-0.356117,0.00258528,0.012483,776,645,-19.2451,17.2325
-441,379,-19.2494,-18.2018,0.00386357,3.02608e-05,-0.00187864,0.00463073,-0.000736895,-0.387691,0.00335983,0.0240034,783,645,-19.2494,18.2018
-434,379,-19.1699,-19.2387,0,0,0,0,0,0,0,-1,790,645,-19.1698,19.2387
-427,379,-4.16113,-4.13452,0,0,0,0,0,0,0,-1,797,645,-4.16116,4.1345
-420,379,-4.63953,-3.46869,0,0,0,0,0,0,0,-1,804,645,-4.63953,3.46872
-413,379,-4.62543,-3.7912,0,0,0,0,0,0,0,-1,811,645,-4.62541,3.79123
-406,379,-4.64063,-4.38489,0,0,0,0,0,0,0,-1,818,645,-4.64065,4.3849
-399,379,-2.93536,-1.40118,0,0,0,0,0,0,0,-1,825,645,-2.93534,1.40119
-392,379,-4.16711,-0.466003,0,0,0,0,0,0,0,-1,832,645,-4.16714,0.465992
-385,379,-3.51862,0.441101,0,0,0,0,0,0,0,-1,839,645,-3.51859,-0.441072
-378,379,-5.3504,0.212219,0,0,0,0,0,0,0,-1,846,645,-5.35038,-0.212241
-371,379,-4.32092,-0.186707,0,0,0,0,0,0,0,-1,853,645,-4.3209,0.186707
-364,379,-3.40887,-0.549805,0,0,0,0,0,0,0,-1,860,645,-3.4089,0.549802
-357,379,0,0,0,0,0,0,0,0,0,-1,867,645,0,0
-350,379,0,0,0,0,0,0,0,0,0,-1,874,645,0,0
-343,379,0,0,0,0,0,0,0,0,0,-1,881,645,0,0
-336,379,0,0,0,0,0,0,0,0,0,-1,888,645,0,0
-329,379,0,0,0,0,0,0,0,0,0,-1,895,645,0,0
-322,379,0,0,0,0,0,0,0,0,0,-1,902,645,0,0
-315,379,0,0,0,0,0,0,0,0,0,-1,909,645,0,0
-308,379,0,0,0,0,0,0,0,0,0,-1,916,645,0,0
-301,379,0,0,0,0,0,0,0,0,0,-1,923,645,0,0
-294,379,0,0,0,0,0,0,0,0,0,-1,930,645,0,0
-287,379,0,0,0,0,0,0,0,0,0,-1,937,645,0,0
-280,379,0,0,0,0,0,0,0,0,0,-1,944,645,0,0
-273,379,0,0,0,0,0,0,0,0,0,-1,951,645,0,0
-266,379,0,0,0,0,0,0,0,0,0,-1,958,645,0,0
-259,379,0,0,0,0,0,0,0,0,0,-1,965,645,0,0
-252,379,0,0,0,0,0,0,0,0,0,-1,972,645,0,0
-245,379,0,0,0,0,0,0,0,0,0,-1,979,645,0,0
-238,379,0,0,0,0,0,0,0,0,0,-1,986,645,0,0
-231,379,0,0,0,0,0,0,0,0,0,-1,993,645,0,0
-224,379,0,0,0,0,0,0,0,0,0,-1,1000,645,0,0
-217,379,0,0,0,0,0,0,0,0,0,-1,1007,645,0,0
-210,379,0,0,0,0,0,0,0,0,0,-1,1014,645,0,0
-203,379,0,0,0,0,0,0,0,0,0,-1,1021,645,0,0
-196,379,0,0,0,0,0,0,0,0,0,-1,1028,645,0,0
-189,379,0,0,0,0,0,0,0,0,0,-1,1035,645,0,0
-182,379,0,0,0,0,0,0,0,0,0,-1,1042,645,0,0
-175,379,0,0,0,0,0,0,0,0,0,-1,1049,645,0,0
-168,379,0,0,0,0,0,0,0,0,0,-1,1056,645,0,0
-161,379,0,0,0,0,0,0,0,0,0,-1,1063,645,0,0
-154,379,0,0,0,0,0,0,0,0,0,-1,1070,645,0,0
-147,379,0,0,0,0,0,0,0,0,0,-1,1077,645,0,0
-140,379,0,0,0,0,0,0,0,0,0,-1,1084,645,0,0
-133,379,0,0,0,0,0,0,0,0,0,-1,1091,645,0,0
-126,379,0,0,0,0,0,0,0,0,0,-1,1098,645,0,0
-119,379,0,0,0,0,0,0,0,0,0,-1,1105,645,0,0
-112,379,0,0,0,0,0,0,0,0,0,-1,1112,645,0,0
-105,379,0,0,0,0,0,0,0,0,0,-1,1119,645,0,0
-98,379,0,0,0,0,0,0,0,0,0,-1,1126,645,0,0
-91,379,0,0,0,0,0,0,0,0,0,-1,1133,645,0,0
-84,379,0,0,0,0,0,0,0,0,0,-1,1140,645,0,0
-77,379,0,0,0,0,0,0,0,0,0,-1,1147,645,0,0
-70,379,0,0,0,0,0,0,0,0,0,-1,1154,645,0,0
-63,379,0,0,0,0,0,0,0,0,0,-1,1161,645,0,0
-56,379,0,0,0,0,0,0,0,0,0,-1,1168,645,0,0
-49,379,0,0,0,0,0,0,0,0,0,-1,1175,645,0,0
-42,379,0,0,0,0,0,0,0,0,0,-1,1182,645,0,0
-35,379,0,0,0,0,0,0,0,0,0,-1,1189,645,0,0
-28,379,0,0,0,0,0,0,0,0,0,-1,1196,645,0,0
-21,379,0,0,0,0,0,0,0,0,0,-1,1203,645,0,0
-14,379,0,0,0,0,0,0,0,0,0,-1,1210,645,0,0
-7,379,0,0,0,0,0,0,0,0,0,-1,1217,645,0,0
0,379,0,0,0,0,0,0,0,0,0,-1,1224,645,0,0
7,379,0,0,0,0,0,0,0,0,0,-1,1231,645,0,0
14,379,0,0,0,0,0,0,0,0,0,-1,1238,645,0,0
21,379,0,0,0,0,0,0,0,0,0,-1,1245,645,0,0
28,379,0,0,0,0,0,0,0,0,0,-1,1252,645,0,0
35,379,0,0,0,0,0,0,0,0,0,-1,1259,645,0,0
42,379,0,0,0,0,0,0,0,0,0,-1,1266,645,0,0
49,379,0,0,0,0,0,0,0,0,0,-1,1273,645,0,0
56,379,0,0,0,0,0,0,0,0,0,-1,1280,645,0,0
63,379,0,0,0,0,0,0,0,0,0,-1,1287,645,0,0
70,379,0,0,0,0,0,0,0,0,0,-1,1294,645,0,0
77,379,0,0,0,0,0,0,0,0,0,-1,1301,645,0,0
84,379,0,0,0,0,0,0,0,0,0,-1,1308,645,0,0
91,379,0,0,0,0,0,0,0,0,0,-1,1315,645,0,0
98,379,0,0,0,0,0,0,0,0,0,-1,1322,645,0,0
105,379,0,0,0,0,0,0,0,0,0,-1,1329,645,0,0
112,379,0,0,0,0,0,0,0,0,0,-1,1336,645,0,0
119,379,0,0,0,0,0,0,0,0,0,-1,1343,645,0,0
126,379,0,0,0,0,0,0,0,0,0,-1,1350,645,0,0
133,379,0,0,0,0,0,0,0,0,0,-1,1357,645,0,0
140,379,0,0,0,0,0,0,0,0,0,-1,1364,645,0,0
147,379,0,0,0,0,0,0,0,0,0,-1,1371,645,0,0
154,379,0,0,0,0,0,0,0,0,0,-1,1378,645,0,0
161,379,0,0,0,0,0,0,0,0,0,-1,1385,645,0,0
168,379,0,0,0,0,0,0,0,0,0,-1,1392,645,0,0
175,379,0,0,0,0,0,0,0,0,0,-1,1399,645,0,0
182,379,0,0,0,0,0,0,0,0,0,-1,1406,645,0,0
189,379,0,0,0,0,0,0,0,0,0,-1,1413,645,0,0
196,379,0,0,0,0,0,0,0,0,0,-1,1420,645,0,0
203,379,0,0,0,0,0,0,0,0,0,-1,1427,645,0,0
210,379,0,0,0,0,0,0,0,0,0,-1,1434,645,0,0
217,379,0,0,0,0,0,0,0,0,0,-1,1441,645,0,0
224,379,0,0,0,0,0,0,0,0,0,-1,1448,645,0,0
231,379,0,0,0,0,0,0,0,0,0,-1,1455,645,0,0
238,379,0,0,0,0,0,0,0,0,0,-1,1462,645,0,0
245,379,0,0,0,0,0,0,0,0,0,-1,1469,645,0,0
252,379,0,0,0,0,0,0,0,0,0,-1,1476,645,0,0
259,379,0,0,0,0,0,0,0,0,0,-1,1483,645,0,0
266,379,0,0,0,0,0,0,0,0,0,-1,1490,645,0,0
273,379,0,0,0,0,0,0,0,0,0,-1,1497,645,0,0
280,379,0,0,0,0,0,0,0,0,0,-1,1504,645,0,0
287,379,0,0,0,0,0,0,0,0,0,-1,1511,645,0,0
294,379,0,0,0,0,0,0,0,0,0,-1,1518,645,0,0
301,379,0,0,0,0,0,0,0,0,0,-1,1525,645,0,0
308,379,0,0,0,0,0,0,0,0,0,-1,1532,645,0,0
315,379,0,0,0,0,0,0,0,0,0,-1,1539,645,0,0
322,379,0,0,0,0,0,0,0,0,0,-1,1546,645,0,0
329,379,0,0,0,0,0,0,0,0,0,-1,1553,645,0,0
336,379,0,0,0,0,0,0,0,0,0,-1,1560,645,0,0
343,379,0,0,0,0,0,0,0,0,0,-1,1567,645,0,0
350,379,0,0,0,0,0,0,0,0,0,-1,1574,645,0,0
357,379,0,0,0,0,0,0,0,0,0,-1,1581,645,0,0
364,379,0,0,0,0,0,0,0,0,0,-1,1588,645,0,0
371,379,0,0,0,0,0,0,0,0,0,-1,1595,645,0,0
378,379,0,0,0,0,0,0,0,0,0,-1,1602,645,0,0
385,379,0,0,0,0,0,0,0,0,0,-1,1609,645,0,0
392,379,0,0,0,0,0,0,0,0,0,-1,1616,645,0,0
399,379,0,0,0,0,0,0,0,0,0,-1,1623,645,0,0
406,379,0,0,0,0,0,0,0,0,0,-1,1630,645,0,0
413,379,0,0,0,0,0,0,0,0,0,-1,1637,645,0,0
420,379,0,0,0,0,0,0,0,0,0,-1,1644,645,0,0
427,379,0,0,0,0,0,0,0,0,0,-1,1651,645,0,0
434,379,0,0,0,0,0,0,0,0,0,-1,1658,645,0,0
441,379,0,0,0,0,0,0,0,0,0,-1,1665,645,0,0
448,379,0,0,0,0,0,0,0,0,0,-1,1672,645,0,0
455,379,0,0,0,0,0,0,0,0,0,-1,1679,645,0,0
462,379,0,0,0,0,0,0,0,0,0,-1,1686,645,0,0
469,379,0,0,0,0,0,0,0,0,0,-1,1693,645,0,0
476,379,11.1787,0.830383,0,0,0,0,0,0,0,-1,1700,645,11.1787,-0.830365
483,379,7.4231,1.54321,0,0,0,0,0,0,0,-1,1707,645,7.42314,-1.54324
490,379,8.52881,1.56677,0,0,0,0,0,0,0,-1,1714,645,8.52878,-1.56677
497,379,9.63599,1.49573,0,0,0,0,0,0,0,-1,1721,645,9.63604,-1.4957
504,379,10.0833,1.35229,0,0,0,0,0,0,0,-1,1728,645,10.0832,-1.35227
511,379,8.14343,1.59912,0,0,0,0,0,0,0,-1,1735,645,8.14347,-1.59912
518,379,12.7955,-0.324097,0,0,0,0,0,0,0,-1,1742,645,12.7955,0.324101
525,379,6.03711,1.10352,0,0,0,0,0,0,0,-1,1749,645,6.03711,-1.10351
532,379,8.70947,0.887817,0,0,0,0,0,0,0,-1,1756,645,8.70953,-0.887808
539,379,9.87097,0.111389,0,0,0,0,0,0,0,-1,1763,645,9.87095,-0.111395
546,379,8.42383,-0.730652,0,0,0,0,0,0,0,-1,1770,645,8.42378,0.730638
553,379,19.2905,-7.67834,0,0,0,0,0,0,0,-1,1777,645,19.2905,7.67837
560,379,22.5734,-10.4749,0,0,0,0,0,0,0,-1,1784,645,22.5734,10.4749
567,379,35.0883,-17.6397,0,0,0,0,0,0,0,-1,1791,645,35.0882,17.6397
574,379,35.0573,-16.671,0.0018489,-0.000291648,-0.00030817,0.00189238,-0.000335132,-0.140176,0.00138686,0.0189047,1798,645,35.0572,16.671
581,379,35.0266,-15.8244,0.00125329,-5.40003e-05,-0.000189723,0.00128027,-8.09775e-05,-0.141246,0.000881744,0.0170712,1805,645,35.0267,15.8244
588,379,34.9919,-14.8867,0.00104859,0.000303917,9.87154e-05,0.00106146,0.000291053,0.12958,0.00063332,0.0176778,1812,645,34.9919,14.8866
595,379,34.9312,-13.953,0.00118346,0.000910448,0.000547712,0.00161142,0.000482488,0.663272,0.000954982,0.0146896,1819,645,34.9311,13.953
602,379,34.8612,-13.0457,0.00154156,0.00162565,0.00108117,0.00266559,0.000501611,0.804832,0.0016357,0.0174468,1826,645,34.8612,13.0456
609,379,34.8013,-12.1615,0.00197418,0.00246534,0.00162468,0.00386289,0.000576629,0.860409,0.00240619,0.0192072,1833,645,34.8013,12.1615
616,379,34.7129,-11.2354,0.00252816,0.00345938,0.00216808,0.00521128,0.000776257,0.89117,0.00324652,0.0150303,1840,645,34.7129,11.2354
623,379,34.6787,-10.2404,0.00322691,0.00444408,0.00273671,0.00663905,0.00103193,0.894807,0.00412531,0.012513,1847,645,34.6787,10.2404
630,379,34.6329,-9.31915,0.00389356,0.00548876,0.00322971,0.0080179,0.00136442,0.906454,0.0049535,0.0140344,1854,645,34.633,9.31918
637,379,34.6014,-8.25647,0.00447796,0.00660613,0.00366244,0.00935593,0.00172816,0.926775,0.00574849,0.0446782,1861,645,34.6015,8.25649
644,379,34.7854,-7.06696,0,0,0,0,0,0,0,-1,1868,645,34.7853,7.06698
651,379,12.9515,0.220825,0,0,0,0,0,0,0,-1,1875,645,12.9515,-0.220814
658,379,13.7498,0.37439,0,0,0,0,0,0,0,-1,1882,645,13.7498,-0.374371
665,379,11.9719,0.353333,0,0,0,0,0,0,0,-1,1889,645,11.9719,-0.353321
672,379,7.57605,2.15326,0,0,0,0,0,0,0,-1,1896,645,7.57599,-2.15326
679,379,8.55078,2.50409,0,0,0,0,0,0,0,-1,1903,645,8.55073,-2.50406
686,379,0,0,0,0,0,0,0,0,0,-1,1910,645,0,0
693,379,0,0,0,0,0,0,0,0,0,-1,1917,645,0,0
700,379,0,0,0,0,0,0,0,0,0,-1,1924,645,0,0
707,379,0,0,0,0,0,0,0,0,0,-1,1931,645,0,0
714,379,0,0,0,0,0,0,0,0,0,-1,1938,645,0,0
721,379,0,0,0,0,0,0,0,0,0,-1,1945,645,0,0
728,379,0,0,0,0,0,0,0,0,0,-1,1952,645,0,0
735,379,0,0,0,0,0,0,0,0,0,-1,1959,645,0,0
742,379,0,0,0,0,0,0,0,0,0,-1,1966,645,0,0
749,379,0,0,0,0,0,0,0,0,0,-1,1973,645,0,0
756,379,0,0,0,0,0,0,0,0,0,-1,1980,645,0,0
763,379,0,0,0,0,0,0,0,0,0,-1,1987,645,0,0
770,379,0,0,0,0,0,0,0,0,0,-1,1994,645,0,0
777,379,0,0,0,0,0,0,0,0,0,-1,2001,645,0,0
784,379,0,0,0,0,0,0,0,0,0,-1,2008,645,0,0
791,379,0,0,0,0,0,0,0,0,0,-1,2015,645,0,0
798,379,0,0,0,0,0,0,0,0,0,-1,2022,645,0,0
805,379,0,0,0,0,0,0,0,0,0,-1,2029,645,0,0
812,379,0,0,0,0,0,0,0,0,0,-1,2036,645,0,0
-700,372,0,0,0,0,0,0,0,0,0,-1,524,652,0,0
-693,372,0,0,0,0,0,0,0,0,0,-1,531,652,0,0
-686,372,0,0,0,0,0,0,0,0,0,-1,538,652,0,0
-679,372,0,0,0,0,0,0,0,0,0,-1,545,652,0,0
-672,372,0,0,0,0,0,0,0,0,0,-1,552,652,0,0
-665,372,0,0,0,0,0,0,0,0,0,-1,559,652,0,0
-658,372,0,0,0,0,0,0,0,0,0,-1,566,652,0,0
-651,372,0,0,0,0,0,0,0,0,0,-1,573,652,0,0
-644,372,0,0,0,0,0,0,0,0,0,-1,580,652,0,0
-637,372,0,0,0,0,0,0,0,0,0,-1,587,652,0,0
-630,372,0,0,0,0,0,0,0,0,0,-1,594,652,0,0
-623,372,0,0,0,0,0,0,0,0,0,-1,601,652,0,0
-616,372,0,0,0,0,0,0,0,0,0,-1,608,652,0,0
-609,372,0,0,0,0,0,0,0,0,0,-1,615,652,0,0
-602,372,0,0,0,0,0,0,0,0,0,-1,622,652,0,0
-595,372,0,0,0,0,0,0,0,0,0,-1,629,652,0,0
-588,372,0,0,0,0,0,0,0,0,0,-1,636,652,0,0
-581,372,0,0,0,0,0,0,0,0,0,-1,643,652,0,0
-574,372,0,0,0,0,0,0,0,0,0,-1,650,652,0,0
-567,372,-7.93744,0.73407,0,0,0,0,0,0,0,-1,657,652,-7.93741,-0.734076
-560,372,-8.78552,-0.158203,0,0,0,0,0,0,0,-1,664,652,-8.78552,0.158216
-553,372,-7.95551,1.61694,0,0,0,0,0,0,0,-1,671,652,-7.95552,-1.61697
-546,372,-4.2403,-3.75372,0,0,0,0,0,0,0,-1,678,652,-4.24028,3.75369
-539,372,-7.92285,-0.0650024,0,0,0,0,0,0,0,-1,685,652,-7.92287,0.0649772
-532,372,-8.59589,-0.419556,0,0,0,0,0,0,0,-1,692,652,-8.59591,0.419539
-525,372,-8.03674,-1.36804,0,0,0,0,0,0,0,-1,699,652,-8.03676,1.36806
-518,372,-19.6459,-7.85681,0,0,0,0,0,0,0,-1,706,652,-19.6459,7.85682
-511,372,-19.6436,-8.94617,0.00088208,0.000627898,-0.000824804,0.00158953,-7.95491e-05,-0.708956,0.00108717,0.0414601,713,652,-19.6436,8.94619
-504,372,-19.7269,-9.83008,0.00083996,0.000578721,-0.000542501,0.00126734,0.000151336,-0.66726,0.000799241,0.0191466,720,652,-19.7269,9.8301
-497,372,-19.7675,-10.8114,0.000822006,0.000475443,-0.000381066,0.00106734,0.00023011,-0.572009,0.000648608,0.0134707,727,652,-19.7674,10.8114
-490,372,-19.8205,-11.7287,0.000864144,0.000316933,-0.000285144,0.000985718,0.000195359,-0.403023,0.000602674,0.0138286,734,652,-19.8205,11.7287
-483,372,-19.8643,-12.6192,0.0010055,0.000162584,-0.000286749,0.0010938,7.42853e-05,-0.298716,0.000705744,0.0123816,741,652,-19.8642,12.6192
-476,372,-19.9224,-13.4922,0.00125059,3.55369e-05,-0.000372678,0.00135578,-6.96623e-05,-0.275121,0.000927949,0.0137522,748,652,-19.9224,13.4922
-469,372,-19.998,-14.3857,0.00160173,-8.06643e-05,-0.000547025,0.00176396,-0.000242885,-0.28829,0.00126473,0.0119835,755,652,-19.998,14.3858
-462,372,-20.0444,-15.3299,0.00205288,-0.000186226,-0.000795734,0.00230686,-0.000440206,-0.308955,0.00170371,0.010571,762,652,-20.0444,15.3299
-455,372,-20.1227,-16.2524,0.00264678,-0.000122031,-0.00116599,0.00307238,-0.000547629,-0.349984,0.00225309,0.0114222,769,652,-20.1227,16.2524
-448,372,-20.1533,-17.1644,0.00335324,-6.10169e-05,-0.00160118,0.00398663,-0.000694412,-0.376692,0.00291691,0.0166292,776,652,-20.1533,17.1644
-441,372,-20.1099,-18.2045,0,0,0,0,0,0,0,-1,783,652,-20.1099,18.2045
-434,372,-9.86865,-9.68494,0,0,0,0,0,0,0,-1,790,652,-9.86863,9.68492
-427,372,-4.54248,-3.56268,0,0,0,0,0,0,0,-1,797,652,-4.54247,3.56266
-420,372,-4.66168,-2.93597,0,0,0,0,0,0,0,-1,804,652,-4.66166,2.93599
-413,372,-4.74762,-3.29541,0,0,0,0,0,0,0,-1,811,652,-4.74763,3.29542
-406,372,-0.885437,-0.583923,0,0,0,0,0,0,0,-1,818,652,-0.885437,0.5839
-399,372,-3.97357,-0.825012,0,0,0,0,0,0,0,-1,825,652,-3.97359,0.825037
-392,372,-7.64337,0.173035,0,0,0,0,0,0,0,-1,832,652,-7.64337,-0.173019
-385,372,-6.48871,-0.0271606,0,0,0,0,0,0,0,-1,839,652,-6.48874,0.0271353
-378,372,-5.33044,-0.242432,0,0,0,0,0,0,0,-1,846,652,-5.33042,0.242457
-371,372,-4.40802,-0.495667,0,0,0,0,0,0,0,-1,853,652,-4.40802,0.495661
-364,372,0,0,0,0,0,0,0,0,0,-1,860,652,0,0
-357,372,0,0,0,0,0,0,0,0,0,-1,867,652,0,0
-350,372,0,0,0,0,0,0,0,0,0,-1,874,652,0,0
-343,372,0,0,0,0,0,0,0,0,0,-1,881,652,0,0
-336,372,0,0,0,0,0,0,0,0,0,-1,888,652,0,0
-329,372,0,0,0,0,0,0,0,0,0,-1,895,652,0,0
-322,372,0,0,0,0,0,0,0,0,0,-1,902,652,0,0
-315,372,0,0,0,0,0,0,0,0,0,-1,909,652,0,0
-308,372,0,0,0,0,0,0,0,0,0,-1,916,652,0,0
-301,372,0,0,0,0,0,0,0,0,0,-1,923,652,0,0
-294,372,0,0,0,0,0,0,0,0,0,-1,930,652,0,0
-287,372,0,0,0,0,0,0,0,0,0,-1,937,652,0,0
-280,372,0,0,0,0,0,0,0,0,0,-1,944,652,0,0
-273,372,0,0,0,0,0,0,0,0,0,-1,951,652,0,0
-266,372,0,0,0,0,0,0,0,0,0,-1,958,652,0,0
-259,372,0,0,0,0,0,0,0,0,0,-1,965,652,0,0
-252,372,0,0,0,0,0,0,0,0,0,-1,972,652,0,0
-245,372,0,0,0,0,0,0,0,0,0,-1,979,652,0,0
-238,372,0,0,0,0,0,0,0,0,0,-1,986,652,0,0
-231,372,0,0,0,0,0,0,0,0,0,-1,993,652,0,0
-224,372,0,0,0,0,0,0,0,0,0,-1,1000,652,0,0
-217,372,0,0,0,0,0,0,0,0,0,-1,1007,652,0,0
-210,372,0,0,0,0,0,0,0,0,0,-1,1014,652,0,0
-203,372,0,0,0,0,0,0,0,0,0,-1,1021,652,0,0
-196,372,0,0,0,0,0,0,0,0,0,-1,1028,652,0,0
-189,372,0,0,0,0,0,0,0,0,0,-1,1035,652,0,0
-182,372,0,0,0,0,0,0,0,0,0,-1,1042,652,0,0
-175,372,0,0,0,0,0,0,0,0,0,-1,1049,652,0,0
-168,372,0,0,0,0,0,0,0,0,0,-1,1056,652,0,0
-161,372,0,0,0,0,0,0,0,0,0,-1,1063,652,0,0
-154,372,0,0,0,0,0,0,0,0,0,-1,1070,652,0,0
-147,372,0,0,0,0,0,0,0,0,0,-1,1077,652,0,0
-140,372,0,0,0,0,0,0,0,0,0,-1,1084,652,0,0
-133,372,0,0,0,0,0,0,0,0,0,-1,1091,652,0,0
-126,372,0,0,0,0,0,0,0,0,0,-1,1098,652,0,0
-119,372,0,0,0,0,0,0,0,0,0,-1,1105,652,0,0
-112,372,0,0,0,0,0,0,0,0,0,-1,1112,652,0,0
-105,372,0,0,0,0,0,0,0,0,0,-1,1119,652,0,0
-98,372,0,0,0,0,0,0,0,0,0,-1,1126,652,0,0
-91,372,0,0,0,0,0,0,0,0,0,-1,1133,652,0,0
-84,372,0,0,0,0,0,0,0,0,0,-1,1140,652,0,0
-77,372,0,0,0,0,0,0,0,0,0,-1,1147,652,0,0
-70,372,0,0,0,0,0,0,0,0,0,-1,1154,652,0,0
-63,372,0,0,0,0,0,0,0,0,0,-1,1161,652,0,0
-56,372,0,0,0,0,0,0,0,0,0,-1,1168,652,0,0
-49,372,0,0,0,0,0,0,0,0,0,-1,1175,652,0,0
-42,372,0,0,0,0,0,0,0,0,0,-1,1182,652,0,0
-35,372,0,0,0,0,0,0,0,0,0,-1,1189,652,0,0
-28,372,0,0,0,0,0,0,0,0,0,-1,1196,652,0,0
-21,372,0,0,0,0,0,0,0,0,0,-1,1203,652,0,0
-14,372,0,0,0,0,0,0,0,0,0,-1,1210,652,0,0
-7,372,0,0,0,0,0,0,0,0,0,-1,1217,652,0,0
0,372,0,0,0,0,0,0,0,0,0,-1,1224,652,0,0
7,372,0,0,0,0,0,0,0,0,0,-1,1231,652,0,0
14,372,0,0,0,0,0,0,0,0,0,-1,1238,652,0,0
21,372,0,0,0,0,0,0,0,0,0,-1,1245,652,0,0
28,372,0,0,0,0,0,0,0,0,0,-1,1252,652,0,0
35,372,0,0,0,0,0,0,0,0,0,-1,1259,652,0,0
42,372,0,0,0,0,0,0,0,0,0,-1,1266,652,0,0
49,372,0,0,0,0,0,0,0,0,0,-1,1273,652,0,0
56,372,0,0,0,0,0,0,0,0,0,-1,1280,652,0,0
63,372,0,0,0,0,0,0,0,0,0,-1,1287,652,0,0
70,372,0,0,0,0,0,0,0,0,0,-1,1294,652,0,0
77,372,0,0,0,0,0,0,0,0,0,-1,1301,652,0,0
84,372,0,0,0,0,0,0,0,0,0,-1,1308,652,0,0
91,372,0,0,0,0,0,0,0,0,0,-1,1315,652,0,0
98,372,0,0,0,0,0,0,0,0,0,-1,1322,652,0,0
105,372,0,0,0,0,0,0,0,0,0,-1,1329,652,0,0
112,372,0,0,0,0,0,0,0,0,0,-1,1336,652,0,0
119,372,0,0,0,0,0,0,0,0,0,-1,1343,652,0,0
126,372,0,0,0,0,0,0,0,0,0,-1,1350,652,0,0
133,372,0,0,0,0,0,0,0,0,0,-1,1357,652,0,0
140,372,0,0,0,0,0,0,0,0,0,-1,1364,652,0,0
147,372,0,0,0,0,0,0,0,0,0,-1,1371,652,0,0
154,372,0,0,0,0,0,0,0,0,0,-1,1378,652,0,0
161,372,0,0,0,0,0,0,0,0,0,-1,1385,652,0,0
168,372,0,0,0,0,0,0,0,0,0,-1,1392,652,0,0
175,372,0,0,0,0,0,0,0,0,0,-1,1399,652,0,0
182,372,0,0,0,0,0,0,0,0,0,-1,1406,652,0,0
189,372,0,0,0,0,0,0,0,0,0,-1,1413,652,0,0
196,372,0,0,0,0,0,0,0,0,0,-1,1420,652,0,0
203,372,0,0,0,0,0,0,0,0,0,-1,1427,652,0,0
210,372,0,0,0,0,0,0,0,0,0,-1,1434,652,0,0
217,372,0,0,0,0,0,0,0,0,0,-1,1441,652,0,0
224,372,0,0,0,0,0,0,0,0,0,-1,1448,652,0,0
231,372,0,0,0,0,0,0,0,0,0,-1,1455,652,0,0
238,372,0,0,0,0,0,0,0,0,0,-1,1462,652,0,0
245,372,0,0,0,0,0,0,0,0,0,-1,1469,652,0,0
252,372,0,0,0,0,0,0,0,0,0,-1,1476,652,0,0
259,372,0,0,0,0,0,0,0,0,0,-1,1483,652,0,0
266,372,0,0,0,0,0,0,0,0,0,-1,1490,652,0,0
273,372,0,0,0,0,0,0,0,0,0,-1,1497,652,0,0
280,372,0,0,0,0,0,0,0,0,0,-1,1504,652,0,0
287,372,0,0,0,0,0,0,0,0,0,-1,1511,652,0,0
294,372,0,0,0,0,0,0,0,0,0,-1,1518,652,0,0
301,372,0,0,0,0,0,0,0,0,0,-1,1525,652,0,0
308,372,0,0,0,0,0,0,0,0,0,-1,1532,652,0,0
315,372,0,0,0,0,0,0,0,0,0,-1,1539,652,0,0
322,372,0,0,0,0,0,0,0,0,0,-1,1546,652,0,0
329,372,0,0,0,0,0,0,0,0,0,-1,1553,652,0,0
336,372,0,0,0,0,0,0,0,0,0,-1,1560,652,0,0
343,372,0,0,0,0,0,0,0,0,0,-1,1567,652,0,0
350,372,0,0,0,0,0,0,0,0,0,-1,1574,652,0,0
357,372,0,0,0,0,0,0,0,0,0,-1,1581,652,0,0
364,372,0,0,0,0,0,0,0,0,0,-1,1588,652,0,0
371,372,0,0,0,0,0,0,0,0,0,-1,1595,652,0,0
378,372,0,0,0,0,0,0,0,0,0,-1,1602,652,0,0
385,372,0,0,0,0,0,0,0,0,0,-1,1609,652,0,0
392,372,0,0,0,0,0,0,0,0,0,-1,1616,652,0,0
399,372,0,0,0,0,0,0,0,0,0,-1,1623,652,0,0
406,372,0,0,0,0,0,0,0,0,0,-1,1630,652,0,0
413,372,0,0,0,0,0,0,0,0,0,-1,1637,652,0,0
420,372,0,0,0,0,0,0,0,0,0,-1,1644,652,0,0
427,372,0,0,0,0,0,0,0,0,0,-1,1651,652,0,0
434,372,0,0,0,0,0,0,0,0,0,-1,1658,652,0,0
441,372,0,0,0,0,0,0,0,0,0,-1,1665,652,0,0
448,372,0,0,0,0,0,0,0,0,0,-1,1672,652,0,0
455,372,0,0,0,0,0,0,0,0,0,-1,1679,652,0,0
462,372,0,0,0,0,0,0,0,0,0,-1,1686,652,0,0
469,372,0,0,0,0,0,0,0,0,0,-1,1693,652,0,0
476,372,0,0,0,0,0,0,0,0,0,-1,1700,652,0,0
483,372,8.74182,1.53125,0,0,0,0,0,0,0,-1,1707,652,8.74186,-1.53126
490,372,9.78455,1.67096,0,0,0,0,0,0,0,-1,1714,652,9.7846,-1.67093
497,372,9.97644,1.46069,0,0,0,0,0,0,0,-1,1721,652,9.97647,-1.46071
504,372,10.1216,1.28375,0,0,0,0,0,0,0,-1,1728,652,10.1216,-1.28376
511,372,11.7367,-0.0272217,0,0,0,0,0,0,0,-1,1735,652,11.7367,0.0272326
518,372,12.0657,-0.0995483,0,0,0,0,0,0,0,-1,1742,652,12.0657,0.0995285
525,372,12.3947,-0.171814,0,0,0,0,0,0,0,-1,1749,652,12.3946,0.171824
532,372,9.36597,1.72034,0,0,0,0,0,0,0,-1,1756,652,9.36597,-1.72036
539,372,7.82886,-0.0865479,0,0,0,0,0,0,0,-1,1763,652,7.82882,0.0865771
546,372,10.953,-0.187195,0,0,0,0,0,0,0,-1,1770,652,10.953,0.187181
553,372,14.1201,-4.83234,0,0,0,0,0,0,0,-1,1777,652,14.1201,4.83235
560,372,20.1057,-8.06934,0,0,0,0,0,0,0,-1,1784,652,20.1058,8.06936
567,372,36.061,-17.7643,0,0,0,0,0,0,0,-1,1791,652,36.061,17.7643
574,372,36.0098,-16.5679,0.00178578,-0.000677591,-0.000692345,0.00196703,-0.000858842,-0.256047,0.00167281,0.0452645,1798,652,36.0098,16.5679
581,372,35.9651,-15.7405,0.00115903,-0.000460563,-0.000496552,0.00129914,-0.00060068,-0.275028,0.0011213,0.0228425,1805,652,35.9651,15.7406
588,372,35.8949,-14.8325,0.000945645,-0.00024254,-0.00020004,0.000978419,-0.000275314,-0.162395,0.00076084,0.0167889,1812,652,35.8949,14.8325
595,372,35.8297,-13.9225,0.0010368,0.000290482,0.000194277,0.00108434,0.000242938,0.240007,0.000657062,0.0141262,1819,652,35.8297,13.9225
602,372,35.8086,-13.0218,0.00132244,0.000908909,0.000651313,0.00179902,0.00043233,0.631699,0.00108436,0.018447,1826,652,35.8086,13.0218
609,372,35.6781,-12.1226,0.00163994,0.00163514,0.00110279,0.00274034,0.000534748,0.78431,0.0016773,0.02023,1833,652,35.6781,12.1226
616,372,35.6184,-11.1682,0.00203112,0.00248539,0.00153713,0.00381208,0.000704435,0.858751,0.00234216,0.0184083,1840,652,35.6184,11.1682
623,372,35.6022,-10.1796,0.0025503,0.00330658,0.00198925,0.00495332,0.000903562,0.879324,0.00304603,0.0136429,1847,652,35.6022,10.1795
630,372,35.571,-9.24377,0.00300222,0.00419032,0.0023879,0.00605696,0.00113559,0.907311,0.00371771,0.0173827,1854,652,35.5711,9.24378
637,372,35.5621,-8.35516,0.00336358,0.00509067,0.00271487,0.00707603,0.00137822,0.939378,0.00433166,0.0274946,1861,652,35.5621,8.35517
644,372,35.682,-7.42902,0,0,0,0,0,0,0,-1,1868,652,35.682,7.42899
651,372,21.3998,-0.888,0,0,0,0,0,0,0,-1,1875,652,21.3998,0.887992
658,372,14.157,0.280273,0,0,0,0,0,0,0,-1,1882,652,14.157,-0.280264
665,372,15.2286,0.463867,0,0,0,0,0,0,0,-1,1889,652,15.2287,-0.463854
672,372,9.34106,1.48444,0,0,0,0,0,0,0,-1,1896,652,9.34109,-1.48444
679,372,10.7308,2.32391,0,0,0,0,0,0,0,-1,1903,652,10.7309,-2.3239
686,372,11.6295,2.52997,0,0,0,0,0,0,0,-1,1910,652,11.6296,-2.52996
693,372,0,0,0,0,0,0,0,0,0,-1,1917,652,0,0
700,372,0,0,0,0,0,0,0,0,0,-1,1924,652,0,0
707,372,0,0,0,0,0,0,0,0,0,-1,1931,652,0,0
714,372,0,0,0,0,0,0,0,0,0,-1,1938,652,0,0
721,372,0,0,0,0,0,0,0,0,0,-1,1945,652,0,0
728,372,0,0,0,0,0,0,0,0,0,-1,1952,652,0,0
735,372,0,0,0,0,0,0,0,0,0,-1,1959,652,0,0
742,372,0,0,0,0,0,0,0,0,0,-1,1966,652,0,0
749,372,0,0,0,0,0,0,0,0,0,-1,1973,652,0,0
756,372,0,0,0,0,0,0,0,0,0,-1,1980,652,0,0
763,372,0,0,0,0,0,0,0,0,0,-1,1987,652,0,0
770,372,0,0,0,0,0,0,0,0,0,-1,1994,652,0,0
777,372,0,0,0,0,0,0,0,0,0,-1,2001,652,0,0
784,372,0,0,0,0,0,0,0,0,0,-1,2008,652,0,0
791,372,0,0,0,0,0,0,0,0,0,-1,2015,652,0,0
798,372,0,0,0,0,0,0,0,0,0,-1,2022,652,0,0
805,372,0,0,0,0,0,0,0,0,0,-1,2029,652,0,0
812,372,0,0,0,0,0,0,0,0,0,-1,2036,652,0,0
-700,365,0,0,0,0,0,0,0,0,0,-1,524,659,0,0
-693,365,0,0,0,0,0,0,0,0,0,-1,531,659,0,0
-686,365,0,0,0,0,0,0,0,0,0,-1,538,659,0,0
-679,365,0,0,0,0,0,0,0,0,0,-1,545,659,0,0
-672,365,0,0,0,0,0,0,0,0,0,-1,552,659,0,0
-665,365,0,0,0,0,0,0,0,0,0,-1,559,659,0,0
-658,365,0,0,0,0,0,0,0,0,0,-1,566,659,0,0
-651,365,0,0,0,0,0,0,0,0,0,-1,573,659,0,0
-644,365,0,0,0,0,0,0,0,0,0,-1,580,659,0,0
-637,365,0,0,0,0,0,0,0,0,0,-1,587,659,0,0
-630,365,0,0,0,0,0,0,0,0,0,-1,594,659,0,0
-623,365,0,0,0,0,0,0,0,0,0,-1,601,659,0,0
-616,365,0,0,0,0,0,0,0,0,0,-1,608,659,0,0
-609,365,0,0,0,0,0,0,0,0,0,-1,615,659,0,0
-602,365,0,0,0,0,0,0,0,0,0,-1,622,659,0,0
-595,365,0,0,0,0,0,0,0,0,0,-1,629,659,0,0
-588,365,0,0,0,0,0,0,0,0,0,-1,636,659,0,0
-581,365,0,0,0,0,0,0,0,0,0,-1,643,659,0,0
-574,365,-7.69281,1.59015,0,0,0,0,0,0,0,-1,650,659,-7.69282,-1.59018
-567,365,-8.2583,1.72638,0,0,0,0,0,0,0,-1,657,659,-8.25827,-1.72637
-560,365,-7.17767,0.275757,0,0,0,0,0,0,0,-1,664,659,-7.17768,-0.27577
-553,365,-10.0349,-0.169617,0,0,0,0,0,0,0,-1,671,659,-10.0349,0.169593
-546,365,-10.6303,-1.51642,0,0,0,0,0,0,0,-1,678,659,-10.6303,1.5164
-539,365,-8.38599,1.52936,0,0,0,0,0,0,0,-1,685,659,-8.38598,-1.52935
-532,365,-8.52863,0.166504,0,0,0,0,0,0,0,-1,692,659,-8.52863,-0.166501
-525,365,-9.28229,-2.62726,0,0,0,0,0,0,0,-1,699,659,-9.28227,2.62724
-518,365,-20.5283,-7.77051,0,0,0,0,0,0,0,-1,706,659,-20.5283,7.7705
-511,365,-20.5881,-8.82251,0.00129529,0.000669675,-0.0011241,0.00214929,-0.000184324,-0.649693,0.00149809,0.0394326,713,659,-20.588,8.8225
-504,365,-20.5975,-9.77271,0.00127351,0.000470198,-0.000802312,0.00176909,-2.5381e-05,-0.553325,0.00118794,0.0135304,720,659,-20.5975,9.77271
-497,365,-20.6478,-10.7335,0.00126636,0.00028845,-0.000595545,0.00154796,6.85279e-06,-0.441684,0.00102969,0.0144763,727,659,-20.6478,10.7335
-490,365,-20.7209,-11.6667,0.00130262,0.000120531,-0.000475011,0.00146984,-4.66919e-05,-0.338491,0.000995823,0.0153736,734,659,-20.721,11.6667
-483,365,-20.7899,-12.5541,0.00142338,-7.41152e-06,-0.000453567,0.00155505,-0.000139077,-0.282525,0.00108603,0.01303,741,659,-20.7899,12.5541
-476,365,-20.8125,-13.4559,0.0016224,-7.99332e-05,-0.000520547,0.00176896,-0.00022649,-0.274441,0.0012616,0.0184046,748,659,-20.8125,13.4559
-469,365,-20.895,-14.3709,0.00191506,-0.000118406,-0.00068564,0.00212464,-0.000327988,-0.296654,0.00153746,0.019287,755,659,-20.895,14.3709
-462,365,-20.9835,-15.2652,0.00231975,-0.000127683,-0.000939291,0.00263867,-0.000446611,-0.327327,0.00192533,0.0159853,762,659,-20.9835,15.2652
-455,365,-21.0228,-16.1791,0.00290942,-2.38685e-05,-0.00131304,0.00341131,-0.000525756,-0.365097,0.00246819,0.0194776,769,659,-21.0228,16.1791
-448,365,-21.0567,-17.1945,0,0,0,0,0,0,0,-1,776,659,-21.0567,17.1945
-441,365,-16.9571,-15.1896,0,0,0,0,0,0,0,-1,783,659,-16.9571,15.1896
-434,365,-5.45056,-3.98041,0,0,0,0,0,0,0,-1,790,659,-5.45055,3.98042
-427,365,-5.05377,-4.74689,0,0,0,0,0,0,0,-1,797,659,-5.05376,4.7469
-420,365,-4.58813,-3.16376,0,0,0,0,0,0,0,-1,804,659,-4.58816,3.16374
-413,365,0.141357,0.672729,0,0,0,0,0,0,0,-1,811,659,0.141365,-0.672714
-406,365,-1.75067,-0.934448,0,0,0,0,0,0,0,-1,818,659,-1.7507,0.934424
-399,365,-4.10242,-1.25439,0,0,0,0,0,0,0,-1,825,659,-4.10244,1.25438
-392,365,-7.46545,-0.779724,0,0,0,0,0,0,0,-1,832,659,-7.46543,0.779744
-385,365,-6.27875,-0.887573,0,0,0,0,0,0,0,-1,839,659,-6.27874,0.887545
-378,365,-5.34503,-0.263306,0,0,0,0,0,0,0,-1,846,659,-5.34504,0.263275
-371,365,0,0,0,0,0,0,0,0,0,-1,853,659,0,0
-364,365,0,0,0,0,0,0,0,0,0,-1,860,659,0,0
-357,365,0,0,0,0,0,0,0,0,0,-1,867,659,0,0
-350,365,0,0,0,0,0,0,0,0,0,-1,874,659,0,0
-343,365,0,0,0,0,0,0,0,0,0,-1,881,659,0,0
-336,365,0,0,0,0,0,0,0,0,0,-1,888,659,0,0
-329,365,0,0,0,0,0,0,0,0,0,-1,895,659,0,0
-322,365,0,0,0,0,0,0,0,0,0,-1,902,659,0,0
-315,365,0,0,0,0,0,0,0,0,0,-1,909,659,0,0
-308,365,0,0,0,0,0,0,0,0,0,-1,916,659,0,0
-301,365,0,0,0,0,0,0,0,0,0,-1,923,659,0,0
-294,365,0,0,0,0,0,0,0,0,0,-1,930,659,0,0
-287,365,0,0,0,0,0,0,0,0,0,-1,937,659,0,0
-280,365,0,0,0,0,0,0,0,0,0,-1,944,659,0,0
-273,365,0,0,0,0,0,0,0,0,0,-1,951,659,0,0
-266,365,0,0,0,0,0,0,0,0,0,-1,958,659,0,0
-259,365,0,0,0,0,0,0,0,0,0,-1,965,659,0,0
-252,365,0,0,0,0,0,0,0,0,0,-1,972,659,0,0
-245,365,0,0,0,0,0,0,0,0,0,-1,979,659,0,0
-238,365,0,0,0,0,0,0,0,0,0,-1,986,659,0,0
-231,365,0,0,0,0,0,0,0,0,0,-1,993,659,0,0
-224,365,0,0,0,0,0,0,0,0,0,-1,1000,659,0,0
-217,365,0,0,0,0,0,0,0,0,0,-1,1007,659,0,0
-210,365,0,0,0,0,0,0,0,0,0,-1,1014,659,0,0
-203,365,0,0,0,0,0,0,0,0,0,-1,1021,659,0,0
-196,365,0,0,0,0,0,0,0,0,0,-1,1028,659,0,0
-189,365,0,0,0,0,0,0,0,0,0,-1,1035,659,0,0
-182,365,0,0,0,0,0,0,0,0,0,-1,1042,659,0,0
-175,365,0,0,0,0,0,0,0,0,0,-1,1049,659,0,0
-168,365,0,0,0,0,0,0,0,0,0,-1,1056,659,0,0
-161,365,0,0,0,0,0,0,0,0,0,-1,1063,659,0,0
-154,365,0,0,0,0,0,0,0,0,0,-1,1070,659,0,0
-147,365,0,0,0,0,0,0,0,0,0,-1,1077,659,0,0
-140,365,0,0,0,0,0,0,0,0,0,-1,1084,659,0,0
-133,365,0,0,0,0,0,0,0,0,0,-1,1091,659,0,0
-126,365,0,0,0,0,0,0,0,0,0,-1,1098,659,0,0
-119,365,0,0,0,0,0,0,0,0,0,-1,1105,659,0,0
-112,365,0,0,0,0,0,0,0,0,0,-1,1112,659,0,0
-105,365,0,0,0,0,0,0,0,0,0,-1,1119,659,0,0
-98,365,0,0,0,0,0,0,0,0,0,-1,1126,659,0,0
-91,365,0,0,0,0,0,0,0,0,0,-1,1133,659,0,0
-84,365,0,0,0,0,0,0,0,0,0,-1,1140,659,0,0
-77,365,0,0,0,0,0,0,0,0,0,-1,1147,659,0,0
-70,365,0,0,0,0,0,0,0,0,0,-1,1154,659,0,0
-63,365,0,0,0,0,0,0,0,0,0,-1,1161,659,0,0
-56,365,0,0,0,0,0,0,0,0,0,-1,1168,659,0,0
-49,365,0,0,0,0,0,0,0,0,0,-1,1175,659,0,0
-42,365,0,0,0,0,0,0,0,0,0,-1,1182,659,0,0
-35,365,0,0,0,0,0,0,0,0,0,-1,1189,659,0,0
-28,365,0,0,0,0,0,0,0,0,0,-1,1196,659,0,0
-21,365,0,0,0,0,0,0,0,0,0,-1,1203,659,0,0
-14,365,0,0,0,0,0,0,0,0,0,-1,1210,659,0,0
-7,365,0,0,0,0,0,0,0,0,0,-1,1217,659,0,0
0,365,0,0,0,0,0,0,0,0,0,-1,1224,659,0,0
7,365,0,0,0,0,0,0,0,0,0,-1,1231,659,0,0
14,365,0,0,0,0,0,0,0,0,0,-1,1238,659,0,0
21,365,0,0,0,0,0,0,0,0,0,-1,1245,659,0,0
28,365,0,0,0,0,0,0,0,0,0,-1,1252,659,0,0
35,365,0,0,0,0,0,0,0,0,0,-1,1259,659,0,0
42,365,0,0,0,0,0,0,0,0,0,-1,1266,659,0,0
49,365,0,0,0,0,0,0,0,0,0,-1,1273,659,0,0
56,365,0,0,0,0,0,0,0,0,0,-1,1280,659,0,0
63,365,0,0,0,0,0,0,0,0,0,-1,1287,659,0,0
70,365,0,0,0,0,0,0,0,0,0,-1,1294,659,0,0
77,365,0,0,0,0,0,0,0,0,0,-1,1301,659,0,0
84,365,0,0,0,0,0,0,0,0,0,-1,1308,659,0,0
91,365,0,0,0,0,0,0,0,0,0,-1,1315,659,0,0
98,365,0,0,0,0,0,0,0,0,0,-1,1322,659,0,0
105,365,0,0,0,0,0,0,0,0,0,-1,1329,659,0,0
112,365,0,0,0,0,0,0,0,0,0,-1,1336,659,0,0
119,365,0,0,0,0,0,0,0,0,0,-1,1343,659,0,0
126,365,0,0,0,0,0,0,0,0,0,-1,1350,659,0,0
133,365,0,0,0,0,0,0,0,0,0,-1,1357,659,0,0
140,365,0,0,0,0,0,0,0,0,0,-1,1364,659,0,0
147,365,0,0,0,0,0,0,0,0,0,-1,1371,659,0,0
154,365,0,0,0,0,0,0,0,0,0,-1,1378,659,0,0
161,365,0,0,0,0,0,0,0,0,0,-1,1385,659,0,0
168,365,0,0,0,0,0,0,0,0,0,-1,1392,659,0,0
175,365,0,0,0,0,0,0,0,0,0,-1,1399,659,0,0
182,365,0,0,0,0,0,0,0,0,0,-1,1406,659,0,0
189,365,0,0,0,0,0,0,0,0,0,-1,1413,659,0,0
196,365,0,0,0,0,0,0,0,0,0,-1,1420,659,0,0
203,365,0,0,0,0,0,0,0,0,0,-1,1427,659,0,0
210,365,0,0,0,0,0,0,0,0,0,-1,1434,659,0,0
217,365,0,0,0,0,0,0,0,0,0,-1,1441,659,0,0
224,365,0,0,0,0,0,0,0,0,0,-1,1448,659,0,0
231,365,0,0,0,0,0,0,0,0,0,-1,1455,659,0,0
238,365,0,0,0,0,0,0,0,0,0,-1,1462,659,0,0
245,365,0,0,0,0,0,0,0,0,0,-1,1469,659,0,0
252,365,0,0,0,0,0,0,0,0,0,-1,1476,659,0,0
259,365,0,0,0,0,0,0,0,0,0,-1,1483,659,0,0
266,365,0,0,0,0,0,0,0,0,0,-1,1490,659,0,0
273,365,0,0,0,0,0,0,0,0,0,-1,1497,659,0,0
280,365,0,0,0,0,0,0,0,0,0,-1,1504,659,0,0
287,365,0,0,0,0,0,0,0,0,0,-1,1511,659,0,0
294,365,0,0,0,0,0,0,0,0,0,-1,1518,659,0,0
301,365,0,0,0,0,0,0,0,0,0,-1,1525,659,0,0
308,365,0,0,0,0,0,0,0,0,0,-1,1532,659,0,0
315,365,0,0,0,0,0,0,0,0,0,-1,1539,659,0,0
322,365,0,0,0,0,0,0,0,0,0,-1,1546,659,0,0
329,365,0,0,0,0,0,0,0,0,0,-1,1553,659,0,0
336,365,0,0,0,0,0,0,0,0,0,-1,1560,659,0,0
343,365,0,0,0,0,0,0,0,0,0,-1,1567,659,0,0
350,365,0,0,0,0,0,0,0,0,0,-1,1574,659,0,0
357,365,0,0,0,0,0,0,0,0,0,-1,1581,659,0,0
364,365,0,0,0,0,0,0,0,0,0,-1,1588,659,0,0
371,365,0,0,0,0,0,0,0,0,0,-1,1595,659,0,0
378,365,0,0,0,0,0,0,0,0,0,-1,1602,659,0,0
385,365,0,0,0,0,0,0,0,0,0,-1,1609,659,0,0
392,365,0,0,0,0,0,0,0,0,0,-1,1616,659,0,0
399,365,0,0,0,0,0,0,0,0,0,-1,1623,659,0,0
406,365,0,0,0,0,0,0,0,0,0,-1,1630,659,0,0
413,365,0,0,0,0,0,0,0,0,0,-1,1637,659,0,0
420,365,0,0,0,0,0,0,0,0,0,-1,1644,659,0,0
427,365,0,0,0,0,0,0,0,0,0,-1,1651,659,0,0
434,365,0,0,0,0,0,0,0,0,0,-1,1658,659,0,0
441,365,0,0,0,0,0,0,0,0,0,-1,1665,659,0,0
448,365,0,0,0,0,0,0,0,0,0,-1,1672,659,0,0
455,365,0,0,0,0,0,0,0,0,0,-1,1679,659,0,0
462,365,0,0,0,0,0,0,0,0,0,-1,1686,659,0,0
469,365,0,0,0,0,0,0,0,0,0,-1,1693,659,0,0
476,365,0,0,0,0,0,0,0,0,0,-1,1700,659,0,0
483,365,0,0,0,0,0,0,0,0,0,-1,1707,659,0,0
490,365,8.39551,0.471252,0,0,0,0,0,0,0,-1,1714,659,8.39551,-0.471241
497,365,9.89233,1.35394,0,0,0,0,0,0,0,-1,1721,659,9.89237,-1.35396
504,365,10.1414,1.18005,0,0,0,0,0,0,0,-1,1728,659,10.1413,-1.18004
511,365,10.5151,0.993896,0,0,0,0,0,0,0,-1,1735,659,10.5152,-0.993894
518,365,11.2029,0.398132,0,0,0,0,0,0,0,-1,1742,659,11.2029,-0.398136
525,365,15.5748,3.85303,0,0,0,0,0,0,0,-1,1749,659,15.5748,-3.85303
532,365,11.2446,1.00629,0,0,0,0,0,0,0,-1,1756,659,11.2446,-1.00631
539,365,12.6301,1.03204,0,0,0,0,0,0,0,-1,1763,659,12.6302,-1.03204
546,365,11.647,0.84198,0,0,0,0,0,0,0,-1,1770,659,11.6469,-0.841955
553,365,12.028,-0.558899,0,0,0,0,0,0,0,-1,1777,659,12.028,0.558873
560,365,14.5372,-4.55548,0,0,0,0,0,0,0,-1,1784,659,14.5373,4.55547
567,365,20.5676,-7.53888,0,0,0,0,0,0,0,-1,1791,659,20.5676,7.53887
574,365,37.1924,-16.4882,0,0,0,0,0,0,0,-1,1798,659,37.1924,16.4882
581,365,36.889,-15.6464,0,0,0,0,0,0,0,-1,1805,659,36.8891,15.6464
588,365,36.7863,-14.862,0.000812299,-0.000767058,-0.000430233,0.000921894,-0.000876652,-0.249429,0.0010385,0.0236848,1812,659,36.7863,14.862
595,365,36.7544,-13.8786,0.000861317,-0.000261138,-8.2345e-05,0.000867326,-0.000267146,-0.0728417,0.00068486,0.0143016,1819,659,36.7544,13.8786
602,365,36.6868,-12.9251,0.00107973,0.000281213,0.000303414,0.00118193,0.000179006,0.324918,0.000735584,0.0182335,1826,659,36.6867,12.9251
609,365,36.5688,-11.9755,0.001321,0.000911137,0.000683303,0.00182944,0.000402696,0.639709,0.00111002,0.0203634,1833,659,36.5688,11.9755
616,365,36.5522,-11.0212,0.00160454,0.00163302,0.00103453,0.00265341,0.000584149,0.792278,0.00160995,0.0204854,1840,659,36.5522,11.0212
623,365,36.5446,-10.1082,0.00200557,0.0023217,0.00138717,0.00355978,0.000767487,0.842126,0.00216323,0.0124846,1847,659,36.5446,10.1081
630,365,36.4894,-9.20325,0.00232767,0.00306851,0.00170826,0.00444605,0.000950134,0.892166,0.00270356,0.0160958,1854,659,36.4894,9.20324
637,365,36.4302,-8.32178,0.00256637,0.00380066,0.00194266,0.00522185,0.00114518,0.939197,0.00316924,0.022218,1861,659,36.4302,8.32181
644,365,36.4008,-7.41284,0.00272571,0.00462658,0.00215083,0.00602761,0.00132468,0.993443,0.0036577,0.0282,1868,659,36.4007,7.41283
651,365,36.5604,-6.29175,0,0,0,0,0,0,0,-1,1875,659,36.5605,6.29177
658,365,24.745,-2.13275,0,0,0,0,0,0,0,-1,1882,659,24.745,2.13277
665,365,14.0961,0.769043,0,0,0,0,0,0,0,-1,1889,659,14.0961,-0.769063
672,365,10.0579,2.15088,0,0,0,0,0,0,0,-1,1896,659,10.0579,-2.15088
679,365,10.9718,2.19208,0,0,0,0,0,0,0,-1,1903,659,10.9718,-2.19211
686,365,12.2134,2.17108,0,0,0,0,0,0,0,-1,1910,659,12.2134,-2.17109
693,365,13.7141,1.98279,0,0,0,0,0,0,0,-1,1917,659,13.7141,-1.98278
700,365,0,0,0,0,0,0,0,0,0,-1,1924,659,0,0
707,365,0,0,0,0,0,0,0,0,0,-1,1931,659,0,0
714,365,0,0,0,0,0,0,0,0,0,-1,1938,659,0,0
721,365,0,0,0,0,0,0,0,0,0,-1,1945,659,0,0
728,365,0,0,0,0,0,0,0,0,0,-1,1952,659,0,0
735,365,0,0,0,0,0,0,0,0,0,-1,1959,659,0,0
742,365,0,0,0,0,0,0,0,0,0,-1,1966,659,0,0
749,365,0,0,0,0,0,0,0,0,0,-1,1973,659,0,0
756,365,0,0,0,0,0,0,0,0,0,-1,1980,659,0,0
763,365,0,0,0,0,0,0,0,0,0,-1,1987,659,0,0
770,365,0,0,0,0,0,0,0,0,0,-1,1994,659,0,0
777,365,0,0,0,0,0,0,0,0,0,-1,2001,659,0,0
784,365,0,0,0,0,0,0,0,0,0,-1,2008,659,0,0
791,365,0,0,0,0,0,0,0,0,0,-1,2015,659,0,0
798,365,0,0,0,0,0,0,0,0,0,-1,2022,659,0,0
805,365,0,0,0,0,0,0,0,0,0,-1,2029,659,0,0
812,365,0,0,0,0,0,0,0,0,0,-1,2036,659,0,0
-700,358,0,0,0,0,0,0,0,0,0,-1,524,666,0,0
-693,358,0,0,0,0,0,0,0,0,0,-1,531,666,0,0
-686,358,0,0,0,0,0,0,0,0,0,-1,538,666,0,0
-679,358,0,0,0,0,0,0,0,0,0,-1,545,666,0,0
-672,358,0,0,0,0,0,0,0,0,0,-1,552,666,0,0
-665,358,0,0,0,0,0,0,0,0,0,-1,559,666,0,0
-658,358,0,0,0,0,0,0,0,0,0,-1,566,666,0,0
-651,358,0,0,0,0,0,0,0,0,0,-1,573,666,0,0
-644,358,0,0,0,0,0,0,0,0,0,-1,580,666,0,0
-637,358,0,0,0,0,0,0,0,0,0,-1,587,666,0,0
-630,358,0,0,0,0,0,0,0,0,0,-1,594,666,0,0
-623,358,0,0,0,0,0,0,0,0,0,-1,601,666,0,0
-616,358,0,0,0,0,0,0,0,0,0,-1,608,666,0,0
-609,358,0,0,0,0,0,0,0,0,0,-1,615,666,0,0
-602,358,0,0,0,0,0,0,0,0,0,-1,622,666,0,0
-595,358,0,0,0,0,0,0,0,0,0,-1,629,666,0,0
-588,358,0,0,0,0,0,0,0,0,0,-1,636,666,0,0
-581,358,-8.31616,1.61993,0,0,0,0,0,0,0,-1,643,666,-8.31614,-1.61993
-574,358,-8.22406,1.75385,0,0,0,0,0,0,0,-1,650,666,-8.22408,-1.75383
-567,358,-8.14215,1.91577,0,0,0,0,0,0,0,-1,657,666,-8.14214,-1.91579
-560,358,-10.6086,2.18872,0,0,0,0,0,0,0,-1,664,666,-10.6086,-2.18873
-553,358,-13.4767,1.09552,0,0,0,0,0,0,0,-1,671,666,-13.4767,-1.09551
-546,358,-13.3743,-0.185059,0,0,0,0,0,0,0,-1,678,666,-13.3743,0.185037
-539,358,-9.43884,-2.04785,0,0,0,0,0,0,0,-1,685,666,-9.43884,2.04785
-532,358,-12.4141,-2.36572,0,0,0,0,0,0,0,-1,692,666,-12.4141,2.3657
-525,358,-12.731,-3.88031,0,0,0,0,0,0,0,-1,699,666,-12.731,3.88029
-518,358,-21.4042,-7.74939,0,0,0,0,0,0,0,-1,706,666,-21.4042,7.74941
-511,358,-21.4929,-8.76794,0.00167612,0.000727698,-0.00127027,0.00255781,-0.000153991,-0.606752,0.00175878,0.0172804,713,666,-21.4929,8.76791
-504,358,-21.5388,-9.69397,0.00156369,0.000433942,-0.000876589,0.00204165,-4.40117e-05,-0.499183,0.001376,0.0125528,720,666,-21.5388,9.69398
-497,358,-21.5775,-10.6519,0.00151834,0.000207203,-0.000620239,0.00176525,-3.97061e-05,-0.378856,0.00119029,0.0124406,727,666,-21.5774,10.6519
-490,358,-21.6384,-11.5882,0.00153063,4.04816e-05,-0.000479277,0.00167147,-0.000100357,-0.285812,0.00114923,0.0118252,734,666,-21.6384,11.5882
-483,358,-21.7161,-12.4748,0.00166386,-4.2595e-05,-0.000473614,0.00178649,-0.00016523,-0.25337,0.00124972,0.0106463,741,666,-21.7161,12.4748
-476,358,-21.7079,-13.3629,0.00188797,-5.33924e-05,-0.000578811,0.00204745,-0.000212863,-0.268844,0.00144117,0.0146061,748,666,-21.7079,13.3629
-469,358,-21.8185,-14.2831,0.00221475,-1.31241e-05,-0.000799631,0.00247204,-0.000270414,-0.3113,0.00174516,0.0194041,755,666,-21.8185,14.2831
-462,358,-21.8983,-15.2119,0.0026664,8.23653e-05,-0.00112323,0.00308638,-0.000337623,-0.357815,0.00217887,0.0209277,762,666,-21.8983,15.2119
-455,358,-21.9132,-16.1722,0,0,0,0,0,0,0,-1,769,666,-21.9132,16.1722
-448,358,-17.7847,-14.434,0,0,0,0,0,0,0,-1,776,666,-17.7847,14.434
-441,358,-5.56293,-3.98041,0,0,0,0,0,0,0,-1,783,666,-5.56291,3.98043
-434,358,-5.21558,-4.43127,0,0,0,0,0,0,0,-1,790,666,-5.21559,4.43125
-427,358,-3.56189,-3.15729,0,0,0,0,0,0,0,-1,797,666,-3.56192,3.15729
-420,358,0.200195,1.08234,0,0,0,0,0,0,0,-1,804,666,0.200174,-1.08231
-413,358,0.0325317,0.161072,0,0,0,0,0,0,0,-1,811,666,0.0325501,-0.161098
-406,358,-3.85846,0.753113,0,0,0,0,0,0,0,-1,818,666,-3.85846,-0.753129
-399,358,-1.31213,0.190735,0,0,0,0,0,0,0,-1,825,666,-1.31215,-0.190763
-392,358,-3.73914,-0.832214,0,0,0,0,0,0,0,-1,832,666,-3.73915,0.832202
-385,358,-5.95178,-1.69141,0,0,0,0,0,0,0,-1,839,666,-5.9518,1.69143
-378,358,0,0,0,0,0,0,0,0,0,-1,846,666,0,0
-371,358,0,0,0,0,0,0,0,0,0,-1,853,666,0,0
-364,358,0,0,0,0,0,0,0,0,0,-1,860,666,0,0
-357,358,0,0,0,0,0,0,0,0,0,-1,867,666,0,0
-350,358,0,0,0,0,0,0,0,0,0,-1,874,666,0,0
-343,358,0,0,0,0,0,0,0,0,0,-1,881,666,0,0
-336,358,0,0,0,0,0,0,0,0,0,-1,888,666,0,0
-329,358,0,0,0,0,0,0,0,0,0,-1,895,666,0,0
-322,358,0,0,0,0,0,0,0,0,0,-1,902,666,0,0
-315,358,0,0,0,0,0,0,0,0,0,-1,909,666,0,0
-308,358,0,0,0,0,0,0,0,0,0,-1,916,666,0,0
-301,358,0,0,0,0,0,0,0,0,0,-1,923,666,0,0
-294,358,0,0,0,0,0,0,0,0,0,-1,930,666,0,0
-287,358,0,0,0,0,0,0,0,0,0,-1,937,666,0,0
-280,358,0,0,0,0,0,0,0,0,0,-1,944,666,0,0
-273,358,0,0,0,0,0,0,0,0,0,-1,951,666,0,0
-266,358,0,0,0,0,0,0,0,0,0,-1,958,666,0,0
-259,358,0,0,0,0,0,0,0,0,0,-1,965,666,0,0
-252,358,0,0,0,0,0,0,0,0,0,-1,972,666,0,0
-245,358,0,0,0,0,0,0,0,0,0,-1,979,666,0,0
-238,358,0,0,0,0,0,0,0,0,0,-1,986,666,0,0
-231,358,0,0,0,0,0,0,0,0,0,-1,993,666,0,0
-224,358,0,0,0,0,0,0,0,0,0,-1,1000,666,0,0
-217,358,0,0,0,0,0,0,0,0,0,-1,1007,666,0,0
-210,358,0,0,0,0,0,0,0,0,0,-1,1014,666,0,0
-203,358,0,0,0,0,0,0,0,0,0,-1,1021,666,0,0
-196,358,0,0,0,0,0,0,0,0,0,-1,1028,666,0,0
-189,358,0,0,0,0,0,0,0,0,0,-1,1035,666,0,0
-182,358,0,0,0,0,0,0,0,0,0,-1,1042,666,0,0
-175,358,0,0,0,0,0,0,0,0,0,-1,1049,666,0,0
-168,358,0,0,0,0,0,0,0,0,0,-1,1056,666,0,0
-161,358,0,0,0,0,0,0,0,0,0,-1,1063,666,0,0
-154,358,0,0,0,0,0,0,0,0,0,-1,1070,666,0,0
-147,358,0,0,0,0,0,0,0,0,0,-1,1077,666,0,0
-140,358,0,0,0,0,0,0,0,0,0,-1,1084,666,0,0
-133,358,0,0,0,0,0,0,0,0,0,-1,1091,666,0,0
-126,358,0,0,0,0,0,0,0,0,0,-1,1098,666,0,0
-119,358,0,0,0,0,0,0,0,0,0,-1,1105,666,0,0
-112,358,0,0,0,0,0,0,0,0,0,-1,1112,666,0,0
-105,358,0,0,0,0,0,0,0,0,0,-1,1119,666,0,0
-98,358,0,0,0,0,0,0,0,0,0,-1,1126,666,0,0
-91,358,0,0,0,0,0,0,0,0,0,-1,1133,666,0,0
-84,358,0,0,0,0,0,0,0,0,0,-1,1140,666,0,0
-77,358,0,0,0,0,0,0,0,0,0,-1,1147,666,0,0
-70,358,0,0,0,0,0,0,0,0,0,-1,1154,666,0,0
-63,358,0,0,0,0,0,0,0,0,0,-1,1161,666,0,0
-56,358,0,0,0,0,0,0,0,0,0,-1,1168,666,0,0
-49,358,0,0,0,0,0,0,0,0,0,-1,1175,666,0,0
-42,358,0,0,0,0,0,0,0,0,0,-1,1182,666,0,0
-35,358,0,0,0,0,0,0,0,0,0,-1,1189,666,0,0
-28,358,0,0,0,0,0,0,0,0,0,-1,1196,666,0,0
-21,358,0,0,0,0,0,0,0,0,0,-1,1203,666,0,0
-14,358,0,0,0,0,0,0,0,0,0,-1,1210,666,0,0
-7,358,0,0,0,0,0,0,0,0,0,-1,1217,666,0,0
0,358,0,0,0,0,0,0,0,0,0,-1,1224,666,0,0
7,358,0,0,0,0,0,0,0,0,0,-1,1231,666,0,0
14,358,0,0,0,0,0,0,0,0,0,-1,1238,666,0,0
21,358,0,0,0,0,0,0,0,0,0,-1,1245,666,0,0
28,358,0,0,0,0,0,0,0,0,0,-1,1252,666,0,0
35,358,0,0,0,0,0,0,0,0,0,-1,1259,666,0,0
42,358,0,0,0,0,0,0,0,0,0,-1,1266,666,0,0
49,358,0,0,0,0,0,0,0,0,0,-1,1273,666,0,0
56,358,0,0,0,0,0,0,0,0,0,-1,1280,666,0,0
63,358,0,0,0,0,0,0,0,0,0,-1,1287,666,0,0
70,358,0,0,0,0,0,0,0,0,0,-1,1294,666,0,0
77,358,0,0,0,0,0,0,0,0,0,-1,1301,666,0,0
84,358,0,0,0,0,0,0,0,0,0,-1,1308,666,0,0
91,358,0,0,0,0,0,0,0,0,0,-1,1315,666,0,0
98,358,0,0,0,0,0,0,0,0,0,-1,1322,666,0,0
105,358,0,0,0,0,0,0,0,0,0,-1,1329,666,0,0
112,358,0,0,0,0,0,0,0,0,0,-1,1336,666,0,0
119,358,0,0,0,0,0,0,0,0,0,-1,1343,666,0,0
126,358,0,0,0,0,0,0,0,0,0,-1,1350,666,0,0
133,358,0,0,0,0,0,0,0,0,0,-1,1357,666,0,0
140,358,0,0,0,0,0,0,0,0,0,-1,1364,666,0,0
147,358,0,0,0,0,0,0,0,0,0,-1,1371,666,0,0
154,358,0,0,0,0,0,0,0,0,0,-1,1378,666,0,0
161,358,0,0,0,0,0,0,0,0,0,-1,1385,666,0,0
168,358,0,0,0,0,0,0,0,0,0,-1,1392,666,0,0
175,358,0,0,0,0,0,0,0,0,0,-1,1399,666,0,0
182,358,0,0,0,0,0,0,0,0,0,-1,1406,666,0,0
189,358,0,0,0,0,0,0,0,0,0,-1,1413,666,0,0
196,358,0,0,0,0,0,0,0,0,0,-1,1420,666,0,0
203,358,0,0,0,0,0,0,0,0,0,-1,1427,666,0,0
210,358,0,0,0,0,0,0,0,0,0,-1,1434,666,0,0
217,358,0,0,0,0,0,0,0,0,0,-1,1441,666,0,0
224,358,0,0,0,0,0,0,0,0,0,-1,1448,666,0,0
231,358,0,0,0,0,0,0,0,0,0,-1,1455,666,0,0
238,358,0,0,0,0,0,0,0,0,0,-1,1462,666,0,0
245,358,0,0,0,0,0,0,0,0,0,-1,1469,666,0,0
252,358,0,0,0,0,0,0,0,0,0,-1,1476,666,0,0
259,358,0,0,0,0,0,0,0,0,0,-1,1483,666,0,0
266,358,0,0,0,0,0,0,0,0,0,-1,1490,666,0,0
273,358,0,0,0,0,0,0,0,0,0,-1,1497,666,0,0
280,358,0,0,0,0,0,0,0,0,0,-1,1504,666,0,0
287,358,0,0,0,0,0,0,0,0,0,-1,1511,666,0,0
294,358,0,0,0,0,0,0,0,0,0,-1,1518,666,0,0
301,358,0,0,0,0,0,0,0,0,0,-1,1525,666,0,0
308,358,0,0,0,0,0,0,0,0,0,-1,1532,666,0,0
315,358,0,0,0,0,0,0,0,0,0,-1,1539,666,0,0
322,358,0,0,0,0,0,0,0,0,0,-1,1546,666,0,0
329,358,0,0,0,0,0,0,0,0,0,-1,1553,666,0,0
336,358,0,0,0,0,0,0,0,0,0,-1,1560,666,0,0
343,358,0,0,0,0,0,0,0,0,0,-1,1567,666,0,0
350,358,0,0,0,0,0,0,0,0,0,-1,1574,666,0,0
357,358,0,0,0,0,0,0,0,0,0,-1,1581,666,0,0
364,358,0,0,0,0,0,0,0,0,0,-1,1588,666,0,0
371,358,0,0,0,0,0,0,0,0,0,-1,1595,666,0,0
378,358,0,0,0,0,0,0,0,0,0,-1,1602,666,0,0
385,358,0,0,0,0,0,0,0,0,0,-1,1609,666,0,0
392,358,0,0,0,0,0,0,0,0,0,-1,1616,666,0,0
399,358,0,0,0,0,0,0,0,0,0,-1,1623,666,0,0
406,358,0,0,0,0,0,0,0,0,0,-1,1630,666,0,0
413,358,0,0,0,0,0,0,0,0,0,-1,1637,666,0,0
420,358,0,0,0,0,0,0,0,0,0,-1,1644,666,0,0
427,358,0,0,0,0,0,0,0,0,0,-1,1651,666,0,0
434,358,0,0,0,0,0,0,0,0,0,-1,1658,666,0,0
441,358,0,0,0,0,0,0,0,0,0,-1,1665,666,0,0
448,358,0,0,0,0,0,0,0,0,0,-1,1672,666,0,0
455,358,0,0,0,0,0,0,0,0,0,-1,1679,666,0,0
462,358,0,0,0,0,0,0,0,0,0,-1,1686,666,0,0
469,358,0,0,0,0,0,0,0,0,0,-1,1693,666,0,0
476,358,0,0,0,0,0,0,0,0,0,-1,1700,666,0,0
483,358,0,0,0,0,0,0,0,0,0,-1,1707,666,0,0
490,358,0,0,0,0,0,0,0,0,0,-1,1714,666,0,0
497,358,8.57239,1.1322,0,0,0,0,0,0,0,-1,1721,666,8.57234,-1.13219
504,358,10.5972,0.832947,0,0,0,0,0,0,0,-1,1728,666,10.5972,-0.832968
511,358,10.6873,0.868469,0,0,0,0,0,0,0,-1,1735,666,10.6872,-0.868484
518,358,16.5884,2.34894,0,0,0,0,0,0,0,-1,1742,666,16.5884,-2.34894
525,358,15.7626,3.65344,0,0,0,0,0,0,0,-1,1749,666,15.7626,-3.65342
532,358,14.9368,4.95789,0,0,0,0,0,0,0,-1,1756,666,14.9367,-4.9579
539,358,15.1597,3.42694,0,0,0,0,0,0,0,-1,1763,666,15.1597,-3.42692
546,358,12.3792,1.53558,0,0,0,0,0,0,0,-1,1770,666,12.3792,-1.5356
553,358,11.6584,1.26172,0,0,0,0,0,0,0,-1,1777,666,11.6585,-1.26175
560,358,10.8234,1.43042,0,0,0,0,0,0,0,-1,1784,666,10.8233,-1.43041
567,358,10.1333,-0.955139,0,0,0,0,0,0,0,-1,1791,666,10.1333,0.955132
574,358,14.7886,-2.69293,0,0,0,0,0,0,0,-1,1798,666,14.7885,2.6929
581,358,20.1738,-6.76135,0,0,0,0,0,0,0,-1,1805,666,20.1738,6.76137
588,358,37.7024,-14.7775,0,0,0,0,0,0,0,-1,1812,666,37.7024,14.7775
595,358,37.6685,-13.7949,0.000734857,-0.000792324,-0.000258767,0.000777511,-0.000834979,-0.163368,0.000931168,0.0169831,1819,666,37.6685,13.7949
602,358,37.5862,-12.8087,0.000929584,-0.000282953,4.38163e-05,0.000931165,-0.000284534,0.0360733,0.000734235,0.0146668,1826,666,37.5862,12.8087
609,358,37.4811,-11.89,0.00114336,0.000290579,0.000358643,0.00127414,0.000159804,0.349656,0.000801484,0.0201489,1833,666,37.4811,11.8899
616,358,37.4417,-10.9708,0.00135327,0.000918274,0.000648527,0.0018198,0.000451744,0.623607,0.00109416,0.0177502,1840,666,37.4417,10.9708
623,358,37.46,-10.0687,0.00165189,0.00151349,0.000925842,0.00251111,0.000654265,0.748096,0.00150419,0.0140769,1847,666,37.46,10.0687
630,358,37.4014,-9.17377,0.00188708,0.00216566,0.0011983,0.00323273,0.000820004,0.84326,0.00194046,0.0175474,1854,666,37.4014,9.17375
637,358,37.3018,-8.30157,0.00205079,0.00277762,0.0013794,0.00384068,0.000987735,0.9142,0.00230293,0.026004,1861,666,37.3018,8.30161
644,358,37.2653,-7.36121,0.0021555,0.00342027,0.00151289,0.00442762,0.00114815,0.983361,0.00265318,0.0214196,1868,666,37.2652,7.36118
651,358,37.254,-6.27081,0,0,0,0,0,0,0,-1,1875,666,37.254,6.27079
658,358,37.0814,-5.13281,0,0,0,0,0,0,0,-1,1882,666,37.0814,5.13283
665,358,28.0272,-2.07764,0,0,0,0,0,0,0,-1,1889,666,28.0272,2.07764
672,358,12.4299,1.47272,0,0,0,0,0,0,0,-1,1896,666,12.4299,-1.4727
679,358,12.1294,2.19702,0,0,0,0,0,0,0,-1,1903,666,12.1294,-2.19703
686,358,11.9557,2.2002,0,0,0,0,0,0,0,-1,1910,666,11.9557,-2.20021
693,358,13.188,2.52203,0,0,0,0,0,0,0,-1,1917,666,13.188,-2.52202
700,358,0,0,0,0,0,0,0,0,0,-1,1924,666,0,0
707,358,0,0,0,0,0,0,0,0,0,-1,1931,666,0,0
714,358,0,0,0,0,0,0,0,0,0,-1,1938,666,0,0
721,358,0,0,0,0,0,0,0,0,0,-1,1945,666,0,0
728,358,0,0,0,0,0,0,0,0,0,-1,1952,666,0,0
735,358,0,0,0,0,0,0,0,0,0,-1,1959,666,0,0
742,358,0,0,0,0,0,0,0,0,0,-1,1966,666,0,0
749,358,0,0,0,0,0,0,0,0,0,-1,1973,666,0,0
756,358,0,0,0,0,0,0,0,0,0,-1,1980,666,0,0
763,358,0,0,0,0,0,0,0,0,0,-1,1987,666,0,0
770,358,0,0,0,0,0,0,0,0,0,-1,1994,666,0,0
777,358,0,0,0,0,0,0,0,0,0,-1,2001,666,0,0
784,358,0,0,0,0,0,0,0,0,0,-1,2008,666,0,0
791,358,0,0,0,0,0,0,0,0,0,-1,2015,666,0,0
798,358,0,0,0,0,0,0,0,0,0,-1,2022,666,0,0
805,358,0,0,0,0,0,0,0,0,0,-1,2029,666,0,0
812,358,0,0,0,0,0,0,0,0,0,-1,2036,666,0,0
-700,351,0,0,0,0,0,0,0,0,0,-1,524,673,0,0
-693,351,0,0,0,0,0,0,0,0,0,-1,531,673,0,0
-686,351,0,0,0,0,0,0,0,0,0,-1,538,673,0,0
-679,351,0,0,0,0,0,0,0,0,0,-1,545,673,0,0
-672,351,0,0,0,0,0,0,0,0,0,-1,552,673,0,0
-665,351,0,0,0,0,0,0,0,0,0,-1,559,673,0,0
-658,351,0,0,0,0,0,0,0,0,0,-1,566,673,0,0
-651,351,0,0,0,0,0,0,0,0,0,-1,573,673,0,0
-644,351,0,0,0,0,0,0,0,0,0,-1,580,673,0,0
-637,351,0,0,0,0,0,0,0,0,0,-1,587,673,0,0
-630,351,0,0,0,0,0,0,0,0,0,-1,594,673,0,0
-623,351,0,0,0,0,0,0,0,0,0,-1,601,673,0,0
-616,351,0,0,0,0,0,0,0,0,0,-1,608,673,0,0
-609,351,0,0,0,0,0,0,0,0,0,-1,615,673,0,0
-602,351,0,0,0,0,0,0,0,0,0,-1,622,673,0,0
-595,351,0,0,0,0,0,0,0,0,0,-1,629,673,0,0
-588,351,0,0,0,0,0,0,0,0,0,-1,636,673,0,0
-581,351,-9.0647,1.71906,0,0,0,0,0,0,0,-1,643,673,-9.06472,-1.71908
-574,351,-8.23584,2.64764,0,0,0,0,0,0,0,-1,650,673,-8.23584,-2.64764
-567,351,-10.8027,4.56836,0,0,0,0,0,0,0,-1,657,673,-10.8027,-4.56839
-560,351,-14.2001,2.17084,0,0,0,0,0,0,0,-1,664,673,-14.2002,-2.17086
-553,351,-13.4979,0.779541,0,0,0,0,0,0,0,-1,671,673,-13.4978,-0.779519
-546,351,-14.0065,0.73645,0,0,0,0,0,0,0,-1,678,673,-14.0065,-0.736473
-539,351,-12.8123,-1.46393,0,0,0,0,0,0,0,-1,685,673,-12.8123,1.46395
-532,351,-16.0198,-4.03937,0,0,0,0,0,0,0,-1,692,673,-16.0198,4.03936
-525,351,-22.4156,-6.83942,0,0,0,0,0,0,0,-1,699,673,-22.4156,6.83944
-518,351,-22.3794,-7.74652,0.00225854,0.00147119,-0.00205701,0.00395921,-0.000229483,-0.690851,0.00271919,0.0231856,706,673,-22.3794,7.74652
-511,351,-22.4025,-8.71393,0.00195885,0.000839017,-0.00130687,0.0028207,-2.28361e-05,-0.583009,0.00188812,0.011946,713,673,-22.4025,8.71392
-504,351,-22.4721,-9.6333,0.00177819,0.000434151,-0.000858977,0.00219679,1.55511e-05,-0.453455,0.00145937,0.0111191,720,673,-22.4721,9.63327
-497,351,-22.5251,-10.5649,0.00169275,0.000134613,-0.000559317,0.00187273,-4.53726e-05,-0.31133,0.00126388,0.010997,727,673,-22.5251,10.5649
-490,351,-22.5839,-11.4972,0.00169854,-4.0131e-05,-0.000420408,0.00179486,-0.000136449,-0.22522,0.00124455,0.0107844,734,673,-22.5839,11.4972
-483,351,-22.6288,-12.3889,0.00183817,-8.7883e-05,-0.000444851,0.00193595,-0.000185664,-0.216365,0.00135676,0.0133619,741,673,-22.6288,12.3889
-476,351,-22.6749,-13.2866,0.00207714,-4.04542e-05,-0.000614455,0.00224252,-0.000205833,-0.262917,0.00156813,0.0125185,748,673,-22.6749,13.2866
-469,351,-22.7081,-14.1841,0.00243177,8.35427e-05,-0.000925891,0.00275292,-0.000237609,-0.333871,0.00191939,0.014452,755,673,-22.7081,14.1841
-462,351,-22.741,-15.1785,0.00293279,0.000321719,-0.00138892,0.00353344,-0.000278921,-0.408166,0.00245389,0.0410575,762,673,-22.741,15.1784
-455,351,-22.7123,-16.226,0,0,0,0,0,0,0,-1,769,673,-22.7123,16.2259
-448,351,-6.61456,-4.38654,0,0,0,0,0,0,0,-1,776,673,-6.61456,4.38654
-441,351,-4.31567,-2.3009,0,0,0,0,0,0,0,-1,783,673,-4.31565,2.30089
-434,351,-3.81708,-2.28003,0,0,0,0,0,0,0,-1,790,673,-3.81706,2.28006
-427,351,-2.05157,-2.7785,0,0,0,0,0,0,0,-1,797,673,-2.05157,2.77848
-420,351,-1.06989,-2.43665,0,0,0,0,0,0,0,-1,804,673,-1.06991,2.43663
-413,351,-0.392334,-2.06671,0,0,0,0,0,0,0,-1,811,673,-0.392363,2.06672
-406,351,-1.86316,-2.58105,0,0,0,0,0,0,0,-1,818,673,-1.86313,2.58106
-399,351,1.00952,-1.53455,0,0,0,0,0,0,0,-1,825,673,1.00954,1.53457
-392,351,-1.02197,0.877136,0,0,0,0,0,0,0,-1,832,673,-1.02195,-0.877143
-385,351,-1.47205,1.04437,0,0,0,0,0,0,0,-1,839,673,-1.47207,-1.04435
-378,351,0,0,0,0,0,0,0,0,0,-1,846,673,0,0
-371,351,0,0,0,0,0,0,0,0,0,-1,853,673,0,0
-364,351,0,0,0,0,0,0,0,0,0,-1,860,673,0,0
-357,351,0,0,0,0,0,0,0,0,0,-1,867,673,0,0
-350,351,0,0,0,0,0,0,0,0,0,-1,874,673,0,0
-343,351,0,0,0,0,0,0,0,0,0,-1,881,673,0,0
-336,351,0,0,0,0,0,0,0,0,0,-1,888,673,0,0
-329,351,0,0,0,0,0,0,0,0,0,-1,895,673,0,0
-322,351,0,0,0,0,0,0,0,0,0,-1,902,673,0,0
-315,351,0,0,0,0,0,0,0,0,0,-1,909,673,0,0
-308,351,0,0,0,0,0,0,0,0,0,-1,916,673,0,0
-301,351,0,0,0,0,0,0,0,0,0,-1,923,673,0,0
-294,351,0,0,0,0,0,0,0,0,0,-1,930,673,0,0
-287,351,0,0,0,0,0,0,0,0,0,-1,937,673,0,0
-280,351,0,0,0,0,0,0,0,0,0,-1,944,673,0,0
-273,351,0,0,0,0,0,0,0,0,0,-1,951,673,0,0
-266,351,0,0,0,0,0,0,0,0,0,-1,958,673,0,0
-259,351,0,0,0,0,0,0,0,0,0,-1,965,673,0,0
-252,351,0,0,0,0,0,0,0,0,0,-1,972,673,0,0
-245,351,0,0,0,0,0,0,0,0,0,-1,979,673,0,0
-238,351,0,0,0,0,0,0,0,0,0,-1,986,673,0,0
-231,351,0,0,0,0,0,0,0,0,0,-1,993,673,0,0
-224,351,0,0,0,0,0,0,0,0,0,-1,1000,673,0,0
-217,351,0,0,0,0,0,0,0,0,0,-1,1007,673,0,0
-210,351,0,0,0,0,0,0,0,0,0,-1,1014,673,0,0
-203,351,0,0,0,0,0,0,0,0,0,-1,1021,673,0,0
-196,351,0,0,0,0,0,0,0,0,0,-1,1028,673,0,0
-189,351,0,0,0,0,0,0,0,0,0,-1,1035,673,0,0
-182,351,0,0,0,0,0,0,0,0,0,-1,1042,673,0,0
-175,351,0,0,0,0,0,0,0,0,0,-1,1049,673,0,0
-168,351,0,0,0,0,0,0,0,0,0,-1,1056,673,0,0
-161,351,0,0,0,0,0,0,0,0,0,-1,1063,673,0,0
-154,351,0,0,0,0,0,0,0,0,0,-1,1070,673,0,0
-147,351,0,0,0,0,0,0,0,0,0,-1,1077,673,0,0
-140,351,0,0,0,0,0,0,0,0,0,-1,1084,673,0,0
-133,351,0,0,0,0,0,0,0,0,0,-1,1091,673,0,0
-126,351,0,0,0,0,0,0,0,0,0,-1,1098,673,0,0
-119,351,0,0,0,0,0,0,0,0,0,-1,1105,673,0,0
-112,351,0,0,0,0,0,0,0,0,0,-1,1112,673,0,0
-105,351,0,0,0,0,0,0,0,0,0,-1,1119,673,0,0
-98,351,0,0,0,0,0,0,0,0,0,-1,1126,673,0,0
-91,351,0,0,0,0,0,0,0,0,0,-1,1133,673,0,0
-84,351,0,0,0,0,0,0,0,0,0,-1,1140,673,0,0
-77,351,0,0,0,0,0,0,0,0,0,-1,1147,673,0,0
-70,351,0,0,0,0,0,0,0,0,0,-1,1154,673,0,0
-63,351,0,0,0,0,0,0,0,0,0,-1,1161,673,0,0
-56,351,0,0,0,0,0,0,0,0,0,-1,1168,673,0,0
-49,351,0,0,0,0,0,0,0,0,0,-1,1175,673,0,0
-42,351,0,0,0,0,0,0,0,0,0,-1,1182,673,0,0
-35,351,0,0,0,0,0,0,0,0,0,-1,1189,673,0,0
-28,351,0,0,0,0,0,0,0,0,0,-1,1196,673,0,0
-21,351,0,0,0,0,0,0,0,0,0,-1,1203,673,0,0
-14,351,0,0,0,0,0,0,0,0,0,-1,1210,673,0,0
-7,351,0,0,0,0,0,0,0,0,0,-1,1217,673,0,0
0,351,0,0,0,0,0,0,0,0,0,-1,1224,673,0,0
7,351,0,0,0,0,0,0,0,0,0,-1,1231,673,0,0
14,351,0,0,0,0,0,0,0,0,0,-1,1238,673,0,0
21,351,0,0,0,0,0,0,0,0,0,-1,1245,673,0,0
28,351,0,0,0,0,0,0,0,0,0,-1,1252,673,0,0
35,351,0,0,0,0,0,0,0,0,0,-1,1259,673,0,0
42,351,0,0,0,0,0,0,0,0,0,-1,1266,673,0,0
49,351,0,0,0,0,0,0,0,0,0,-1,1273,673,0,0
56,351,0,0,0,0,0,0,0,0,0,-1,1280,673,0,0
63,351,0,0,0,0,0,0,0,0,0,-1,1287,673,0,0
70,351,0,0,0,0,0,0,0,0,0,-1,1294,673,0,0
77,351,0,0,0,0,0,0,0,0,0,-1,1301,673,0,0
84,351,0,0,0,0,0,0,0,0,0,-1,1308,673,0,0
91,351,0,0,0,0,0,0,0,0,0,-1,1315,673,0,0
98,351,0,0,0,0,0,0,0,0,0,-1,1322,673,0,0
105,351,0,0,0,0,0,0,0,0,0,-1,1329,673,0,0
112,351,0,0,0,0,0,0,0,0,0,-1,1336,673,0,0
119,351,0,0,0,0,0,0,0,0,0,-1,1343,673,0,0
126,351,0,0,0,0,0,0,0,0,0,-1,1350,673,0,0
133,351,0,0,0,0,0,0,0,0,0,-1,1357,673,0,0
140,351,0,0,0,0,0,0,0,0,0,-1,1364,673,0,0
147,351,0,0,0,0,0,0,0,0,0,-1,1371,673,0,0
154,351,0,0,0,0,0,0,0,0,0,-1,1378,673,0,0
161,351,0,0,0,0,0,0,0,0,0,-1,1385,673,0,0
168,351,0,0,0,0,0,0,0,0,0,-1,1392,673,0,0
175,351,0,0,0,0,0,0,0,0,0,-1,1399,673,0,0
182,351,0,0,0,0,0,0,0,0,0,-1,1406,673,0,0
189,351,0,0,0,0,0,0,0,0,0,-1,1413,673,0,0
196,351,0,0,0,0,0,0,0,0,0,-1,1420,673,0,0
203,351,0,0,0,0,0,0,0,0,0,-1,1427,673,0,0
210,351,0,0,0,0,0,0,0,0,0,-1,1434,673,0,0
217,351,0,0,0,0,0,0,0,0,0,-1,1441,673,0,0
224,351,0,0,0,0,0,0,0,0,0,-1,1448,673,0,0
231,351,0,0,0,0,0,0,0,0,0,-1,1455,673,0,0
238,351,0,0,0,0,0,0,0,0,0,-1,1462,673,0,0
245,351,0,0,0,0,0,0,0,0,0,-1,1469,673,0,0
252,351,0,0,0,0,0,0,0,0,0,-1,1476,673,0,0
259,351,0,0,0,0,0,0,0,0,0,-1,1483,673,0,0
266,351,0,0,0,0,0,0,0,0,0,-1,1490,673,0,0
273,351,0,0,0,0,0,0,0,0,0,-1,1497,673,0,0
280,351,0,0,0,0,0,0,0,0,0,-1,1504,673,0,0
287,351,0,0,0,0,0,0,0,0,0,-1,1511,673,0,0
294,351,0,0,0,0,0,0,0,0,0,-1,1518,673,0,0
301,351,0,0,0,0,0,0,0,0,0,-1,1525,673,0,0
308,351,0,0,0,0,0,0,0,0,0,-1,1532,673,0,0
315,351,0,0,0,0,0,0,0,0,0,-1,1539,673,0,0
322,351,0,0,0,0,0,0,0,0,0,-1,1546,673,0,0
329,351,0,0,0,0,0,0,0,0,0,-1,1553,673,0,0
336,351,0,0,0,0,0,0,0,0,0,-1,1560,673,0,0
343,351,0,0,0,0,0,0,0,0,0,-1,1567,673,0,0
350,351,0,0,0,0,0,0,0,0,0,-1,1574,673,0,0
357,351,0,0,0,0,0,0,0,0,0,-1,1581,673,0,0
364,351,0,0,0,0,0,0,0,0,0,-1,1588,673,0,0
371,351,0,0,0,0,0,0,0,0,0,-1,1595,673,0,0
378,351,0,0,0,0,0,0,0,0,0,-1,1602,673,0,0
385,351,0,0,0,0,0,0,0,0,0,-1,1609,673,0,0
392,351,0,0,0,0,0,0,0,0,0,-1,1616,673,0,0
399,351,0,0,0,0,0,0,0,0,0,-1,1623,673,0,0
406,351,0,0,0,0,0,0,0,0,0,-1,1630,673,0,0
413,351,0,0,0,0,0,0,0,0,0,-1,1637,673,0,0
420,351,0,0,0,0,0,0,0,0,0,-1,1644,673,0,0
427,351,0,0,0,0,0,0,0,0,0,-1,1651,673,0,0
434,351,0,0,0,0,0,0,0,0,0,-1,1658,673,0,0
441,351,0,0,0,0,0,0,0,0,0,-1,1665,673,0,0
448,351,0,0,0,0,0,0,0,0,0,-1,1672,673,0,0
455,351,0,0,0,0,0,0,0,0,0,-1,1679,673,0,0
462,351,0,0,0,0,0,0,0,0,0,-1,1686,673,0,0
469,351,0,0,0,0,0,0,0,0,0,-1,1693,673,0,0
476,351,0,0,0,0,0,0,0,0,0,-1,1700,673,0,0
483,351,0,0,0,0,0,0,0,0,0,-1,1707,673,0,0
490,351,0,0,0,0,0,0,0,0,0,-1,1714,673,0,0
497,351,0,0,0,0,0,0,0,0,0,-1,1721,673,0,0
504,351,10.8842,1.61615,0,0,0,0,0,0,0,-1,1728,673,10.8842,-1.61618
511,351,15.4548,0.0236816,0,0,0,0,0,0,0,-1,1735,673,15.4549,-0.0236664
518,351,16.7448,2.49268,0,0,0,0,0,0,0,-1,1742,673,16.7448,-2.49269
525,351,16.0701,3.43225,0,0,0,0,0,0,0,-1,1749,673,16.07,-3.43227
532,351,32.3822,3.03021,0,0,0,0,0,0,0,-1,1756,673,32.3822,-3.03019
539,351,15.3387,3.54486,0,0,0,0,0,0,0,-1,1763,673,15.3387,-3.54485
546,351,13.9387,4.59357,0,0,0,0,0,0,0,-1,1770,673,13.9388,-4.59359
553,351,12.0682,2.02832,0,0,0,0,0,0,0,-1,1777,673,12.0683,-2.02831
560,351,12.0173,0.55304,0,0,0,0,0,0,0,-1,1784,673,12.0174,-0.553028
567,351,10.7827,0.130188,0,0,0,0,0,0,0,-1,1791,673,10.7827,-0.130183
574,351,13.405,-1.09204,0,0,0,0,0,0,0,-1,1798,673,13.405,1.09207
581,351,15.2351,-3.06049,0,0,0,0,0,0,0,-1,1805,673,15.2351,3.06046
588,351,38.4567,-14.7849,0,0,0,0,0,0,0,-1,1812,673,38.4566,14.7849
595,351,38.5483,-13.7685,0.000753159,-0.00120225,-0.000228236,0.000779445,-0.00122854,-0.114667,0.00116894,0.042983,1819,673,38.5484,13.7685
602,351,38.5366,-12.7983,0.000876115,-0.000766993,-9.40443e-05,0.00088148,-0.000772359,-0.0569876,0.000955536,0.0190012,1826,673,38.5366,12.7983
609,351,38.4989,-11.9028,0.00105167,-0.000281485,0.000109759,0.00106065,-0.000290461,0.081598,0.000821222,0.019631,1833,673,38.4989,11.9028
616,351,38.411,-10.9909,0.00118121,0.000235007,0.000321416,0.00128006,0.000136153,0.298377,0.000811805,0.0153442,1840,673,38.411,10.9909
623,351,38.3804,-10.0591,0.00136585,0.000751096,0.000515106,0.00165832,0.000458628,0.516392,0.000988786,0.01453,1847,673,38.3804,10.0591
630,351,38.3339,-9.13849,0.00151996,0.00131929,0.000736293,0.00216272,0.000676525,0.717681,0.00127748,0.0238844,1854,673,38.3339,9.13847
637,351,38.2507,-8.23315,0.0016339,0.00186315,0.000892781,0.00264863,0.000848416,0.849243,0.00156175,0.0301814,1861,673,38.2507,8.23317
644,351,38.1655,-7.29657,0.00171772,0.00239849,0.00100283,0.00311713,0.000999087,0.949009,0.00183792,0.02202,1868,673,38.1655,7.29659
651,351,38.163,-6.2608,0.00182895,0.0029438,0.00109261,0.00361297,0.00115978,1.02128,0.00213004,0.0173204,1875,673,38.1629,6.26083
658,351,38.0353,-5.27777,0.00186543,0.00342292,0.00106957,0.00396721,0.00132114,1.10006,0.00233266,0.0462877,1882,673,38.0352,5.27776
665,351,37.6093,-4.18701,0,0,0,0,0,0,0,-1,1889,673,37.6093,4.18703
672,351,34.9646,-3.1748,0,0,0,0,0,0,0,-1,1896,673,34.9646,3.17482
679,351,14.1252,1.85681,0,0,0,0,0,0,0,-1,1903,673,14.1253,-1.85682
686,351,13.0294,2.1189,0,0,0,0,0,0,0,-1,1910,673,13.0294,-2.11892
693,351,13.5187,2.34595,0,0,0,0,0,0,0,-1,1917,673,13.5187,-2.34596
700,351,14.5629,-2.40173,0,0,0,0,0,0,0,-1,1924,673,14.5629,2.40172
707,351,0,0,0,0,0,0,0,0,0,-1,1931,673,0,0
714,351,0,0,0,0,0,0,0,0,0,-1,1938,673,0,0
721,351,0,0,0,0,0,0,0,0,0,-1,1945,673,0,0
728,351,0,0,0,0,0,0,0,0,0,-1,1952,673,0,0
735,351,0,0,0,0,0,0,0,0,0,-1,1959,673,0,0
742,351,0,0,0,0,0,0,0,0,0,-1,1966,673,0,0
749,351,0,0,0,0,0,0,0,0,0,-1,1973,673,0,0
756,351,0,0,0,0,0,0,0,0,0,-1,1980,673,0,0
763,351,0,0,0,0,0,0,0,0,0,-1,1987,673,0,0
770,351,0,0,0,0,0,0,0,0,0,-1,1994,673,0,0
777,351,0,0,0,0,0,0,0,0,0,-1,2001,673,0,0
784,351,0,0,0,0,0,0,0,0,0,-1,2008,673,0,0
791,351,0,0,0,0,0,0,0,0,0,-1,2015,673,0,0
798,351,0,0,0,0,0,0,0,0,0,-1,2022,673,0,0
805,351,0,0,0,0,0,0,0,0,0,-1,2029,673,0,0
812,351,0,0,0,0,0,0,0,0,0,-1,2036,673,0,0
-700,344,0,0,0,0,0,0,0,0,0,-1,524,680,0,0
-693,344,0,0,0,0,0,0,0,0,0,-1,531,680,0,0
-686,344,0,0,0,0,0,0,0,0,0,-1,538,680,0,0
-679,344,0,0,0,0,0,0,0,0,0,-1,545,680,0,0
-672,344,0,0,0,0,0,0,0,0,0,-1,552,680,0,0
-665,344,0,0,0,0,0,0,0,0,0,-1,559,680,0,0
-658,344,0,0,0,0,0,0,0,0,0,-1,566,680,0,0
-651,344,0,0,0,0,0,0,0,0,0,-1,573,680,0,0
-644,344,0,0,0,0,0,0,0,0,0,-1,580,680,0,0
-637,344,0,0,0,0,0,0,0,0,0,-1,587,680,0,0
-630,344,0,0,0,0,0,0,0,0,0,-1,594,680,0,0
-623,344,0,0,0,0,0,0,0,0,0,-1,601,680,0,0
-616,344,0,0,0,0,0,0,0,0,0,-1,608,680,0,0
-609,344,0,0,0,0,0,0,0,0,0,-1,615,680,0,0
-602,344,0,0,0,0,0,0,0,0,0,-1,622,680,0,0
-595,344,0,0,0,0,0,0,0,0,0,-1,629,680,0,0
-588,344,-9.27826,1.47302,0,0,0,0,0,0,0,-1,636,680,-9.27829,-1.473
-581,344,-10.0098,1.71753,0,0,0,0,0,0,0,-1,643,680,-10.0098,-1.7175
-574,344,-10.2208,3.04871,0,0,0,0,0,0,0,-1,650,680,-10.2208,-3.04869
-567,344,-14.3779,2.29016,0,0,0,0,0,0,0,-1,657,680,-14.3779,-2.29014
-560,344,-14.1238,1.8374,0,0,0,0,0,0,0,-1,664,680,-14.1238,-1.83743
-553,344,-14.7884,2.00116,0,0,0,0,0,0,0,-1,671,680,-14.7884,-2.00115
-546,344,-17.4192,0.157654,0,0,0,0,0,0,0,-1,678,680,-17.4192,-0.157635
-539,344,-17.2671,-2.75714,0,0,0,0,0,0,0,-1,685,680,-17.2671,2.75712
-532,344,-18.4417,-4.38605,0,0,0,0,0,0,0,-1,692,680,-18.4417,4.38603
-525,344,-23.2577,-6.80725,0,0,0,0,0,0,0,-1,699,680,-23.2577,6.80726
-518,344,-23.2986,-7.71722,0.00240411,0.00155989,-0.0019396,0.003967,-3.00049e-06,-0.678255,0.00264567,0.021804,706,680,-23.2987,7.71724
-511,344,-23.3711,-8.67706,0.00204512,0.000793525,-0.00120278,0.00277517,6.34809e-05,-0.545523,0.00182932,0.0169325,713,680,-23.3711,8.67707
-504,344,-23.4327,-9.61127,0.00181945,0.000255182,-0.000718307,0.00209925,-2.46145e-05,-0.371442,0.00140778,0.0172362,720,680,-23.4328,9.61127
-497,344,-23.4551,-10.5305,0.00171314,-0.000108812,-0.000396778,0.0017958,-0.000191471,-0.205388,0.00126586,0.0159236,727,680,-23.4551,10.5304
-490,344,-23.4998,-11.4491,0.00171979,-0.000292159,-0.00027315,0.00175622,-0.000328584,-0.132567,0.00129432,0.0145735,734,680,-23.4998,11.4491
-483,344,-23.5133,-12.3444,0.00186682,-0.00029412,-0.000342069,0.00191967,-0.000346976,-0.153305,0.00140975,0.0150703,741,680,-23.5133,12.3444
-476,344,-23.5683,-13.2469,0.00213459,-0.000167136,-0.000603237,0.0022831,-0.00031565,-0.241394,0.00163746,0.0156788,748,680,-23.5683,13.2469
-469,344,-23.5902,-14.2104,0.00252939,9.03267e-05,-0.00103455,0.00290909,-0.000289373,-0.351757,0.0020427,0.0230604,755,680,-23.5902,14.2104
-462,344,-23.6314,-15.1702,0,0,0,0,0,0,0,-1,762,680,-23.6314,15.1701
-455,344,-12.1653,-7.99176,0,0,0,0,0,0,0,-1,769,680,-12.1653,7.99174
-448,344,-5.67657,-2.72864,0,0,0,0,0,0,0,-1,776,680,-5.6766,2.72863
-441,344,-5.09229,-2.34167,0,0,0,0,0,0,0,-1,783,680,-5.09229,2.34168
-434,344,-4.28778,-2.08807,0,0,0,0,0,0,0,-1,790,680,-4.28778,2.08809
-427,344,-3.06506,-1.45404,0,0,0,0,0,0,0,-1,797,680,-3.06505,1.45402
-420,344,-1.96582,-1.57574,0,0,0,0,0,0,0,-1,804,680,-1.96579,1.57574
-413,344,-0.817993,-1.4751,0,0,0,0,0,0,0,-1,811,680,-0.818017,1.47511
-406,344,-0.00714111,-1.25189,0,0,0,0,0,0,0,-1,818,680,-0.00714956,1.25191
-399,344,0.240051,-1.75769,0,0,0,0,0,0,0,-1,825,680,0.240079,1.75767
-392,344,1.11353,-2.05615,0,0,0,0,0,0,0,-1,832,680,1.11351,2.05616
-385,344,0,0,0,0,0,0,0,0,0,-1,839,680,0,0
-378,344,0,0,0,0,0,0,0,0,0,-1,846,680,0,0
-371,344,0,0,0,0,0,0,0,0,0,-1,853,680,0,0
-364,344,0,0,0,0,0,0,0,0,0,-1,860,680,0,0
-357,344,0,0,0,0,0,0,0,0,0,-1,867,680,0,0
-350,344,0,0,0,0,0,0,0,0,0,-1,874,680,0,0
-343,344,0,0,0,0,0,0,0,0,0,-1,881,680,0,0
-336,344,0,0,0,0,0,0,0,0,0,-1,888,680,0,0
-329,344,0,0,0,0,0,0,0,0,0,-1,895,680,0,0
-322,344,0,0,0,0,0,0,0,0,0,-1,902,680,0,0
-315,344,0,0,0,0,0,0,0,0,0,-1,909,680,0,0
-308,344,0,0,0,0,0,0,0,0,0,-1,916,680,0,0
-301,344,0,0,0,0,0,0,0,0,0,-1,923,680,0,0
-294,344,0,0,0,0,0,0,0,0,0,-1,930,680,0,0
-287,344,0,0,0,0,0,0,0,0,0,-1,937,680,0,0
-280,344,0,0,0,0,0,0,0,0,0,-1,944,680,0,0
-273,344,0,0,0,0,0,0,0,0,0,-1,951,680,0,0
-266,344,0,0,0,0,0,0,0,0,0,-1,958,680,0,0
-259,344,0,0,0,0,0,0,0,0,0,-1,965,680,0,0
-252,344,0,0,0,0,0,0,0,0,0,-1,972,680,0,0
-245,344,0,0,0,0,0,0,0,0,0,-1,979,680,0,0
-238,344,0,0,0,0,0,0,0,0,0,-1,986,680,0,0
-231,344,0,0,0,0,0,0,0,0,0,-1,993,680,0,0
-224,344,0,0,0,0,0,0,0,0,0,-1,1000,680,0,0
-217,344,0,0,0,0,0,0,0,0,0,-1,1007,680,0,0
-210,344,0,0,0,0,0,0,0,0,0,-1,1014,680,0,0
-203,344,0,0,0,0,0,0,0,0,0,-1,1021,680,0,0
-196,344,0,0,0,0,0,0,0,0,0,-1,1028,680,0,0
-189,344,0,0,0,0,0,0,0,0,0,-1,1035,680,0,0
-182,344,0,0,0,0,0,0,0,0,0,-1,1042,680,0,0
-175,344,0,0,0,0,0,0,0,0,0,-1,1049,680,0,0
-168,344,0,0,0,0,0,0,0,0,0,-1,1056,680,0,0
-161,344,0,0,0,0,0,0,0,0,0,-1,1063,680,0,0
-154,344,0,0,0,0,0,0,0,0,0,-1,1070,680,0,0
-147,344,0,0,0,0,0,0,0,0,0,-1,1077,680,0,0
-140,344,0,0,0,0,0,0,0,0,0,-1,1084,680,0,0
-133,344,0,0,0,0,0,0,0,0,0,-1,1091,680,0,0
-126,344,0,0,0,0,0,0,0,0,0,-1,1098,680,0,0
-119,344,0,0,0,0,0,0,0,0,0,-1,1105,680,0,0
-112,344,0,0,0,0,0,0,0,0,0,-1,1112,680,0,0
-105,344,0,0,0,0,0,0,0,0,0,-1,1119,680,0,0
-98,344,0,0,0,0,0,0,0,0,0,-1,1126,680,0,0
-91,344,0,0,0,0,0,0,0,0,0,-1,1133,680,0,0
-84,344,0,0,0,0,0,0,0,0,0,-1,1140,680,0,0
-77,344,0,0,0,0,0,0,0,0,0,-1,1147,680,0,0
-70,344,0,0,0,0,0,0,0,0,0,-1,1154,680,0,0
-63,344,0,0,0,0,0,0,0,0,0,-1,1161,680,0,0
-56,344,0,0,0,0,0,0,0,0,0,-1,1168,680,0,0
-49,344,0,0,0,0,0,0,0,0,0,-1,1175,680,0,0
-42,344,0,0,0,0,0,0,0,0,0,-1,1182,680,0,0
-35,344,0,0,0,0,0,0,0,0,0,-1,1189,680,0,0
-28,344,0,0,0,0,0,0,0,0,0,-1,1196,680,0,0
-21,344,0,0,0,0,0,0,0,0,0,-1,1203,680,0,0
-14,344,0,0,0,0,0,0,0,0,0,-1,1210,680,0,0
-7,344,0,0,0,0,0,0,0,0,0,-1,1217,680,0,0
0,344,0,0,0,0,0,0,0,0,0,-1,1224,680,0,0
7,344,0,0,0,0,0,0,0,0,0,-1,1231,680,0,0
14,344,0,0,0,0,0,0,0,0,0,-1,1238,680,0,0
21,344,0,0,0,0,0,0,0,0,0,-1,1245,680,0,0
28,344,0,0,0,0,0,0,0,0,0,-1,1252,680,0,0
35,344,0,0,0,0,0,0,0,0,0,-1,1259,680,0,0
42,344,0,0,0,0,0,0,0,0,0,-1,1266,680,0,0
49,344,0,0,0,0,0,0,0,0,0,-1,1273,680,0,0
56,344,0,0,0,0,0,0,0,0,0,-1,1280,680,0,0
63,344,0,0,0,0,0,0,0,0,0,-1,1287,680,0,0
70,344,0,0,0,0,0,0,0,0,0,-1,1294,680,0,0
77,344,0,0,0,0,0,0,0,0,0,-1,1301,680,0,0
84,344,0,0,0,0,0,0,0,0,0,-1,1308,680,0,0
91,344,0,0,0,0,0,0,0,0,0,-1,1315,680,0,0
98,344,0,0,0,0,0,0,0,0,0,-1,1322,680,0,0
105,344,0,0,0,0,0,0,0,0,0,-1,1329,680,0,0
112,344,0,0,0,0,0,0,0,0,0,-1,1336,680,0,0
119,344,0,0,0,0,0,0,0,0,0,-1,1343,680,0,0
126,344,0,0,0,0,0,0,0,0,0,-1,1350,680,0,0
133,344,0,0,0,0,0,0,0,0,0,-1,1357,680,0,0
140,344,0,0,0,0,0,0,0,0,0,-1,1364,680,0,0
147,344,0,0,0,0,0,0,0,0,0,-1,1371,680,0,0
154,344,0,0,0,0,0,0,0,0,0,-1,1378,680,0,0
161,344,0,0,0,0,0,0,0,0,0,-1,1385,680,0,0
168,344,0,0,0,0,0,0,0,0,0,-1,1392,680,0,0
175,344,0,0,0,0,0,0,0,0,0,-1,1399,680,0,0
182,344,0,0,0,0,0,0,0,0,0,-1,1406,680,0,0
189,344,0,0,0,0,0,0,0,0,0,-1,1413,680,0,0
196,344,0,0,0,0,0,0,0,0,0,-1,1420,680,0,0
203,344,0,0,0,0,0,0,0,0,0,-1,1427,680,0,0
210,344,0,0,0,0,0,0,0,0,0,-1,1434,680,0,0
217,344,0,0,0,0,0,0,0,0,0,-1,1441,680,0,0
224,344,0,0,0,0,0,0,0,0,0,-1,1448,680,0,0
231,344,0,0,0,0,0,0,0,0,0,-1,1455,680,0,0
238,344,0,0,0,0,0,0,0,0,0,-1,1462,680,0,0
245,344,0,0,0,0,0,0,0,0,0,-1,1469,680,0,0
252,344,0,0,0,0,0,0,0,0,0,-1,1476,680,0,0
259,344,0,0,0,0,0,0,0,0,0,-1,1483,680,0,0
266,344,0,0,0,0,0,0,0,0,0,-1,1490,680,0,0
273,344,0,0,0,0,0,0,0,0,0,-1,1497,680,0,0
280,344,0,0,0,0,0,0,0,0,0,-1,1504,680,0,0
287,344,0,0,0,0,0,0,0,0,0,-1,1511,680,0,0
294,344,0,0,0,0,0,0,0,0,0,-1,1518,680,0,0
301,344,0,0,0,0,0,0,0,0,0,-1,1525,680,0,0
308,344,0,0,0,0,0,0,0,0,0,-1,1532,680,0,0
315,344,0,0,0,0,0,0,0,0,0,-1,1539,680,0,0
322,344,0,0,0,0,0,0,0,0,0,-1,1546,680,0,0
329,344,0,0,0,0,0,0,0,0,0,-1,1553,680,0,0
336,344,0,0,0,0,0,0,0,0,0,-1,1560,680,0,0
343,344,0,0,0,0,0,0,0,0,0,-1,1567,680,0,0
350,344,0,0,0,0,0,0,0,0,0,-1,1574,680,0,0
357,344,0,0,0,0,0,0,0,0,0,-1,1581,680,0,0
364,344,0,0,0,0,0,0,0,0,0,-1,1588,680,0,0
371,344,0,0,0,0,0,0,0,0,0,-1,1595,680,0,0
378,344,0,0,0,0,0,0,0,0,0,-1,1602,680,0,0
385,344,0,0,0,0,0,0,0,0,0,-1,1609,680,0,0
392,344,0,0,0,0,0,0,0,0,0,-1,1616,680,0,0
399,344,0,0,0,0,0,0,0,0,0,-1,1623,680,0,0
406,344,0,0,0,0,0,0,0,0,0,-1,1630,680,0,0
413,344,0,0,0,0,0,0,0,0,0,-1,1637,680,0,0
420,344,0,0,0,0,0,0,0,0,0,-1,1644,680,0,0
427,344,0,0,0,0,0,0,0,0,0,-1,1651,680,0,0
434,344,0,0,0,0,0,0,0,0,0,-1,1658,680,0,0
441,344,0,0,0,0,0,0,0,0,0,-1,1665,680,0,0
448,344,0,0,0,0,0,0,0,0,0,-1,1672,680,0,0
455,344,0,0,0,0,0,0,0,0,0,-1,1679,680,0,0
462,344,0,0,0,0,0,0,0,0,0,-1,1686,680,0,0
469,344,0,0,0,0,0,0,0,0,0,-1,1693,680,0,0
476,344,0,0,0,0,0,0,0,0,0,-1,1700,680,0,0
483,344,0,0,0,0,0,0,0,0,0,-1,1707,680,0,0
490,344,0,0,0,0,0,0,0,0,0,-1,1714,680,0,0
497,344,0,0,0,0,0,0,0,0,0,-1,1721,680,0,0
504,344,0,0,0,0,0,0,0,0,0,-1,1728,680,0,0
511,344,15.4819,0.452637,0,0,0,0,0,0,0,-1,1735,680,15.4819,-0.452656
518,344,17.1357,2.31207,0,0,0,0,0,0,0,-1,1742,680,17.1358,-2.31207
525,344,31.5201,2.6217,0,0,0,0,0,0,0,-1,1749,680,31.5201,-2.62168
532,344,31.9766,2.61047,0,0,0,0,0,0,0,-1,1756,680,31.9765,-2.6105
539,344,32.4379,2.65314,0,0,0,0,0,0,0,-1,1763,680,32.4378,-2.65316
546,344,14.6722,4.30243,0,0,0,0,0,0,0,-1,1770,680,14.6722,-4.30241
553,344,14.8136,4.35681,0,0,0,0,0,0,0,-1,1777,680,14.8136,-4.35679
560,344,11.9363,2.14185,0,0,0,0,0,0,0,-1,1784,680,11.9362,-2.14182
567,344,11.397,0.925842,0,0,0,0,0,0,0,-1,1791,680,11.397,-0.92583
574,344,10.0004,0.504639,0,0,0,0,0,0,0,-1,1798,680,10.0004,-0.504645
581,344,13.6709,-0.969604,0,0,0,0,0,0,0,-1,1805,680,13.6709,0.969629
588,344,16.1447,-3.15948,0,0,0,0,0,0,0,-1,1812,680,16.1447,3.15946
595,344,39.3771,-13.724,0,0,0,0,0,0,0,-1,1819,680,39.377,13.724
602,344,39.5713,-12.7277,0.000845076,-0.00123681,-0.000232618,0.000870751,-0.00126248,-0.109928,0.00123853,0.0351912,1826,680,39.5712,12.7277
609,344,39.4366,-11.8383,0.00109989,-0.000819788,-6.49004e-05,0.00110208,-0.00082198,-0.0337565,0.00111478,0.0170384,1833,680,39.4366,11.8383
616,344,39.3229,-10.9078,0.00119893,-0.000383596,0.00013322,0.00121006,-0.000394732,0.0834001,0.000965568,0.0230962,1840,680,39.3228,10.9078
623,344,39.3212,-9.99982,0.00128654,9.88543e-05,0.000291448,0.0013542,3.11903e-05,0.228124,0.000892586,0.0194441,1847,680,39.3211,9.99979
630,344,39.287,-9.08392,0.00137988,0.000614945,0.000486746,0.00161644,0.000378378,0.452399,0.000976258,0.0243119,1854,680,39.287,9.08393
637,344,39.2065,-8.16748,0.00145888,0.00112628,0.000636383,0.00195033,0.000634824,0.657594,0.00114866,0.0246952,1861,680,39.2065,8.16746
644,344,39.1316,-7.22015,0.00153496,0.00161151,0.000741067,0.00231529,0.000831179,0.811198,0.00135433,0.0179021,1868,680,39.1315,7.22016
651,344,39.076,-6.24121,0.00166933,0.00212481,0.000828333,0.00275614,0.001038,0.919551,0.00160733,0.0121138,1875,680,39.076,6.24121
658,344,39.015,-5.18213,0.00181798,0.00261535,0.000856874,0.00316175,0.00127158,1.00314,0.00183705,0.0278463,1882,680,39.015,5.18213
665,344,38.8213,-4.30115,0.00220691,0.00298445,0.000776184,0.00346379,0.00172758,1.01757,0.00199982,0.0487532,1889,680,38.8213,4.30112
672,344,39.0289,-3.86725,0,0,0,0,0,0,0,-1,1896,680,39.0289,3.86724
679,344,36.7468,-2.59857,0,0,0,0,0,0,0,-1,1903,680,36.7468,2.59857
686,344,15.024,1.82709,0,0,0,0,0,0,0,-1,1910,680,15.024,-1.82706
693,344,12.4362,-1.42346,0,0,0,0,0,0,0,-1,1917,680,12.4361,1.42348
700,344,17.5396,2.61206,0,0,0,0,0,0,0,-1,1924,680,17.5396,-2.61204
707,344,18.5829,3.29352,0,0,0,0,0,0,0,-1,1931,680,18.5828,-3.2935
714,344,0,0,0,0,0,0,0,0,0,-1,1938,680,0,0
721,344,0,0,0,0,0,0,0,0,0,-1,1945,680,0,0
728,344,0,0,0,0,0,0,0,0,0,-1,1952,680,0,0
735,344,0,0,0,0,0,0,0,0,0,-1,1959,680,0,0
742,344,0,0,0,0,0,0,0,0,0,-1,1966,680,0,0
749,344,0,0,0,0,0,0,0,0,0,-1,1973,680,0,0
756,344,0,0,0,0,0,0,0,0,0,-1,1980,680,0,0
763,344,0,0,0,0,0,0,0,0,0,-1,1987,680,0,0
770,344,0,0,0,0,0,0,0,0,0,-1,1994,680,0,0
777,344,0,0,0,0,0,0,0,0,0,-1,2001,680,0,0
784,344,0,0,0,0,0,0,0,0,0,-1,2008,680,0,0
791,344,0,0,0,0,0,0,0,0,0,-1,2015,680,0,0
798,344,0,0,0,0,0,0,0,0,0,-1,2022,680,0,0
805,344,0,0,0,0,0,0,0,0,0,-1,2029,680,0,0
812,344,0,0,0,0,0,0,0,0,0,-1,2036,680,0,0
-700,337,0,0,0,0,0,0,0,0,0,-1,524,687,0,0
-693,337,0,0,0,0,0,0,0,0,0,-1,531,687,0,0
-686,337,0,0,0,0,0,0,0,0,0,-1,538,687,0,0
-679,337,0,0,0,0,0,0,0,0,0,-1,545,687,0,0
-672,337,0,0,0,0,0,0,0,0,0,-1,552,687,0,0
-665,337,0,0,0,0,0,0,0,0,0,-1,559,687,0,0
-658,337,0,0,0,0,0,0,0,0,0,-1,566,687,0,0
-651,337,0,0,0,0,0,0,0,0,0,-1,573,687,0,0
-644,337,0,0,0,0,0,0,0,0,0,-1,580,687,0,0
-637,337,0,0,0,0,0,0,0,0,0,-1,587,687,0,0
-630,337,0,0,0,0,0,0,0,0,0,-1,594,687,0,0
-623,337,0,0,0,0,0,0,0,0,0,-1,601,687,0,0
-616,337,0,0,0,0,0,0,0,0,0,-1,608,687,0,0
-609,337,0,0,0,0,0,0,0,0,0,-1,615,687,0,0
-602,337,0,0,0,0,0,0,0,0,0,-1,622,687,0,0
-595,337,0,0,0,0,0,0,0,0,0,-1,629,687,0,0
-588,337,-10.8413,1.27863,0,0,0,0,0,0,0,-1,636,687,-10.8413,-1.27861
-581,337,-11.2157,1.31567,0,0,0,0,0,0,0,-1,643,687,-11.2157,-1.3157
-574,337,-6.03339,2.0321,0,0,0,0,0,0,0,-1,650,687,-6.03337,-2.03213
-567,337,-13.8102,1.56787,0,0,0,0,0,0,0,-1,657,687,-13.8102,-1.56789
-560,337,-15.5435,2.34247,0,0,0,0,0,0,0,-1,664,687,-15.5435,-2.34247
-553,337,-18.0128,1.12927,0,0,0,0,0,0,0,-1,671,687,-18.0128,-1.12926
-546,337,-18.0244,-2.03845,0,0,0,0,0,0,0,-1,678,687,-18.0244,2.03846
-539,337,-19.2426,-3.53815,0,0,0,0,0,0,0,-1,685,687,-19.2426,3.53813
-532,337,-24.1798,-5.77411,0,0,0,0,0,0,0,-1,692,687,-24.1798,5.77408
-525,337,-24.2158,-6.72272,0.00265473,0.00251884,-0.0026938,0.00528144,-0.000107869,-0.77279,0.00355746,0.0221097,699,687,-24.2157,6.7227
-518,337,-24.2316,-7.66278,0.00224642,0.00138235,-0.00174687,0.00361388,1.48866e-05,-0.664172,0.00240431,0.0245198,706,687,-24.2316,7.66275
-511,337,-24.3016,-8.6167,0.00198704,0.000555213,-0.00102633,0.00252248,1.97769e-05,-0.480858,0.0016751,0.0238719,713,687,-24.3017,8.61671
-504,337,-24.3667,-9.55945,0.00178227,-6.20577e-05,-0.000485651,0.00190233,-0.000182124,-0.242367,0.00133308,0.0234569,720,687,-24.3667,9.55944
-497,337,-24.374,-10.4821,0.00168551,-0.000475452,-0.000114463,0.00169156,-0.000481498,-0.0527717,0.00131786,0.0176704,727,687,-24.374,10.482
-490,337,-24.418,-11.4,0.00172347,-0.000674405,3.8871e-05,0.0017241,-0.000675035,0.0162049,0.0014286,0.0153135,734,687,-24.418,11.4
-483,337,-24.4318,-12.314,0.00188192,-0.000646686,-2.17218e-05,0.0018821,-0.000646872,-0.0085896,0.00151705,0.0154651,741,687,-24.4318,12.314
-476,337,-24.475,-13.2742,0.0021636,-0.000466102,-0.000331343,0.00220471,-0.000507209,-0.12343,0.00166483,0.018762,748,687,-24.475,13.2742
-469,337,-24.4799,-14.252,0,0,0,0,0,0,0,-1,755,687,-24.4799,14.2519
-462,337,-14.186,-8.89264,0,0,0,0,0,0,0,-1,762,687,-14.186,8.89266
-455,337,-6.00574,-3.12933,0,0,0,0,0,0,0,-1,769,687,-6.00576,3.12934
-448,337,-5.30627,-2.07202,0,0,0,0,0,0,0,-1,776,687,-5.30628,2.07205
-441,337,-4.24762,-1.49597,0,0,0,0,0,0,0,-1,783,687,-4.24762,1.49598
-434,337,-6.86908,1.37531,0,0,0,0,0,0,0,-1,790,687,-6.86908,-1.3753
-427,337,-9.92004,2.487,0,0,0,0,0,0,0,-1,797,687,-9.92002,-2.48701
-420,337,-2.95996,-1.76697,0,0,0,0,0,0,0,-1,804,687,-2.95998,1.76696
-413,337,-1.29169,-1.99487,0,0,0,0,0,0,0,-1,811,687,-1.29171,1.9949
-406,337,-1.02356,-1.89563,0,0,0,0,0,0,0,-1,818,687,-1.02357,1.89564
-399,337,-0.472839,-2.21338,0,0,0,0,0,0,0,-1,825,687,-0.472837,2.2134
-392,337,0,0,0,0,0,0,0,0,0,-1,832,687,0,0
-385,337,0,0,0,0,0,0,0,0,0,-1,839,687,0,0
-378,337,0,0,0,0,0,0,0,0,0,-1,846,687,0,0
-371,337,0,0,0,0,0,0,0,0,0,-1,853,687,0,0
-364,337,0,0,0,0,0,0,0,0,0,-1,860,687,0,0
-357,337,0,0,0,0,0,0,0,0,0,-1,867,687,0,0
-350,337,0,0,0,0,0,0,0,0,0,-1,874,687,0,0
-343,337,0,0,0,0,0,0,0,0,0,-1,881,687,0,0
-336,337,0,0,0,0,0,0,0,0,0,-1,888,687,0,0
-329,337,0,0,0,0,0,0,0,0,0,-1,895,687,0,0
-322,337,0,0,0,0,0,0,0,0,0,-1,902,687,0,0
-315,337,0,0,0,0,0,0,0,0,0,-1,909,687,0,0
-308,337,0,0,0,0,0,0,0,0,0,-1,916,687,0,0
-301,337,0,0,0,0,0,0,0,0,0,-1,923,687,0,0
-294,337,0,0,0,0,0,0,0,0,0,-1,930,687,0,0
-287,337,0,0,0,0,0,0,0,0,0,-1,937,687,0,0
-280,337,0,0,0,0,0,0,0,0,0,-1,944,687,0,0
-273,337,0,0,0,0,0,0,0,0,0,-1,951,687,0,0
-266,337,0,0,0,0,0,0,0,0,0,-1,958,687,0,0
-259,337,0,0,0,0,0,0,0,0,0,-1,965,687,0,0
-252,337,0,0,0,0,0,0,0,0,0,-1,972,687,0,0
-245,337,0,0,0,0,0,0,0,0,0,-1,979,687,0,0
-238,337,0,0,0,0,0,0,0,0,0,-1,986,687,0,0
-231,337,0,0,0,0,0,0,0,0,0,-1,993,687,0,0
-224,337,0,0,0,0,0,0,0,0,0,-1,1000,687,0,0
-217,337,0,0,0,0,0,0,0,0,0,-1,1007,687,0,0
-210,337,0,0,0,0,0,0,0,0,0,-1,1014,687,0,0
-203,337,0,0,0,0,0,0,0,0,0,-1,1021,687,0,0
-196,337,0,0,0,0,0,0,0,0,0,-1,1028,687,0,0
-189,337,0,0,0,0,0,0,0,0,0,-1,1035,687,0,0
-182,337,0,0,0,0,0,0,0,0,0,-1,1042,687,0,0
-175,337,0,0,0,0,0,0,0,0,0,-1,1049,687,0,0
-168,337,0,0,0,0,0,0,0,0,0,-1,1056,687,0,0
-161,337,0,0,0,0,0,0,0,0,0,-1,1063,687,0,0
-154,337,0,0,0,0,0,0,0,0,0,-1,1070,687,0,0
-147,337,0,0,0,0,0,0,0,0,0,-1,1077,687,0,0
-140,337,0,0,0,0,0,0,0,0,0,-1,1084,687,0,0
-133,337,0,0,0,0,0,0,0,0,0,-1,1091,687,0,0
-126,337,0,0,0,0,0,0,0,0,0,-1,1098,687,0,0
-119,337,0,0,0,0,0,0,0,0,0,-1,1105,687,0,0
-112,337,0,0,0,0,0,0,0,0,0,-1,1112,687,0,0
-105,337,0,0,0,0,0,0,0,0,0,-1,1119,687,0,0
-98,337,0,0,0,0,0,0,0,0,0,-1,1126,687,0,0
-91,337,0,0,0,0,0,0,0,0,0,-1,1133,687,0,0
-84,337,0,0,0,0,0,0,0,0,0,-1,1140,687,0,0
-77,337,0,0,0,0,0,0,0,0,0,-1,1147,687,0,0
-70,337,0,0,0,0,0,0,0,0,0,-1,1154,687,0,0
-63,337,0,0,0,0,0,0,0,0,0,-1,1161,687,0,0
-56,337,0,0,0,0,0,0,0,0,0,-1,1168,687,0,0
-49,337,0,0,0,0,0,0,0,0,0,-1,1175,687,0,0
-42,337,0,0,0,0,0,0,0,0,0,-1,1182,687,0,0
-35,337,0,0,0,0,0,0,0,0,0,-1,1189,687,0,0
-28,337,0,0,0,0,0,0,0,0,0,-1,1196,687,0,0
-21,337,0,0,0,0,0,0,0,0,0,-1,1203,687,0,0
-14,337,0,0,0,0,0,0,0,0,0,-1,1210,687,0,0
-7,337,0,0,0,0,0,0,0,0,0,-1,1217,687,0,0
0,337,0,0,0,0,0,0,0,0,0,-1,1224,687,0,0
7,337,0,0,0,0,0,0,0,0,0,-1,1231,687,0,0
14,337,0,0,0,0,0,0,0,0,0,-1,1238,687,0,0
21,337,0,0,0,0,0,0,0,0,0,-1,1245,687,0,0
28,337,0,0,0,0,0,0,0,0,0,-1,1252,687,0,0
35,337,0,0,0,0,0,0,0,0,0,-1,1259,687,0,0
42,337,0,0,0,0,0,0,0,0,0,-1,1266,687,0,0
49,337,0,0,0,0,0,0,0,0,0,-1,1273,687,0,0
56,337,0,0,0,0,0,0,0,0,0,-1,1280,687,0,0
63,337,0,0,0,0,0,0,0,0,0,-1,1287,687,0,0
70,337,0,0,0,0,0,0,0,0,0,-1,1294,687,0,0
77,337,0,0,0,0,0,0,0,0,0,-1,1301,687,0,0
84,337,0,0,0,0,0,0,0,0,0,-1,1308,687,0,0
91,337,0,0,0,0,0,0,0,0,0,-1,1315,687,0,0
98,337,0,0,0,0,0,0,0,0,0,-1,1322,687,0,0
105,337,0,0,0,0,0,0,0,0,0,-1,1329,687,0,0
112,337,0,0,0,0,0,0,0,0,0,-1,1336,687,0,0
119,337,0,0,0,0,0,0,0,0,0,-1,1343,687,0,0
126,337,0,0,0,0,0,0,0,0,0,-1,1350,687,0,0
133,337,0,0,0,0,0,0,0,0,0,-1,1357,687,0,0
140,337,0,0,0,0,0,0,0,0,0,-1,1364,687,0,0
147,337,0,0,0,0,0,0,0,0,0,-1,1371,687,0,0
154,337,0,0,0,0,0,0,0,0,0,-1,1378,687,0,0
161,337,0,0,0,0,0,0,0,0,0,-1,1385,687,0,0
168,337,0,0,0,0,0,0,0,0,0,-1,1392,687,0,0
175,337,0,0,0,0,0,0,0,0,0,-1,1399,687,0,0
182,337,0,0,0,0,0,0,0,0,0,-1,1406,687,0,0
189,337,0,0,0,0,0,0,0,0,0,-1,1413,687,0,0
196,337,0,0,0,0,0,0,0,0,0,-1,1420,687,0,0
203,337,0,0,0,0,0,0,0,0,0,-1,1427,687,0,0
210,337,0,0,0,0,0,0,0,0,0,-1,1434,687,0,0
217,337,0,0,0,0,0,0,0,0,0,-1,1441,687,0,0
224,337,0,0,0,0,0,0,0,0,0,-1,1448,687,0,0
231,337,0,0,0,0,0,0,0,0,0,-1,1455,687,0,0
238,337,0,0,0,0,0,0,0,0,0,-1,1462,687,0,0
245,337,0,0,0,0,0,0,0,0,0,-1,1469,687,0,0
252,337,0,0,0,0,0,0,0,0,0,-1,1476,687,0,0
259,337,0,0,0,0,0,0,0,0,0,-1,1483,687,0,0
266,337,0,0,0,0,0,0,0,0,0,-1,1490,687,0,0
273,337,0,0,0,0,0,0,0,0,0,-1,1497,687,0,0
280,337,0,0,0,0,0,0,0,0,0,-1,1504,687,0,0
287,337,0,0,0,0,0,0,0,0,0,-1,1511,687,0,0
294,337,0,0,0,0,0,0,0,0,0,-1,1518,687,0,0
301,337,0,0,0,0,0,0,0,0,0,-1,1525,687,0,0
308,337,0,0,0,0,0,0,0,0,0,-1,1532,687,0,0
315,337,0,0,0,0,0,0,0,0,0,-1,1539,687,0,0
322,337,0,0,0,0,0,0,0,0,0,-1,1546,687,0,0
329,337,0,0,0,0,0,0,0,0,0,-1,1553,687,0,0
336,337,0,0,0,0,0,0,0,0,0,-1,1560,687,0,0
343,337,0,0,0,0,0,0,0,0,0,-1,1567,687,0,0
350,337,0,0,0,0,0,0,0,0,0,-1,1574,687,0,0
357,337,0,0,0,0,0,0,0,0,0,-1,1581,687,0,0
364,337,0,0,0,0,0,0,0,0,0,-1,1588,687,0,0
371,337,0,0,0,0,0,0,0,0,0,-1,1595,687,0,0
378,337,0,0,0,0,0,0,0,0,0,-1,1602,687,0,0
385,337,0,0,0,0,0,0,0,0,0,-1,1609,687,0,0
392,337,0,0,0,0,0,0,0,0,0,-1,1616,687,0,0
399,337,0,0,0,0,0,0,0,0,0,-1,1623,687,0,0
406,337,0,0,0,0,0,0,0,0,0,-1,1630,687,0,0
413,337,0,0,0,0,0,0,0,0,0,-1,1637,687,0,0
420,337,0,0,0,0,0,0,0,0,0,-1,1644,687,0,0
427,337,0,0,0,0,0,0,0,0,0,-1,1651,687,0,0
434,337,0,0,0,0,0,0,0,0,0,-1,1658,687,0,0
441,337,0,0,0,0,0,0,0,0,0,-1,1665,687,0,0
448,337,0,0,0,0,0,0,0,0,0,-1,1672,687,0,0
455,337,0,0,0,0,0,0,0,0,0,-1,1679,687,0,0
462,337,0,0,0,0,0,0,0,0,0,-1,1686,687,0,0
469,337,0,0,0,0,0,0,0,0,0,-1,1693,687,0,0
476,337,0,0,0,0,0,0,0,0,0,-1,1700,687,0,0
483,337,0,0,0,0,0,0,0,0,0,-1,1707,687,0,0
490,337,0,0,0,0,0,0,0,0,0,-1,1714,687,0,0
497,337,0,0,0,0,0,0,0,0,0,-1,1721,687,0,0
504,337,0,0,0,0,0,0,0,0,0,-1,1728,687,0,0
511,337,0,0,0,0,0,0,0,0,0,-1,1735,687,0,0
518,337,18.0369,1.64581,0,0,0,0,0,0,0,-1,1742,687,18.0368,-1.64581
525,337,31.0717,2.13745,0,0,0,0,0,0,0,-1,1749,687,31.0717,-2.13747
532,337,31.5126,2.13904,0,0,0,0,0,0,0,-1,1756,687,31.5125,-2.13905
539,337,31.9684,2.15594,0,0,0,0,0,0,0,-1,1763,687,31.9684,-2.15596
546,337,32.3584,1.43719,0,0,0,0,0,0,0,-1,1770,687,32.3585,-1.43722
553,337,32.1809,1.36395,0,0,0,0,0,0,0,-1,1777,687,32.181,-1.36396
560,337,18.4053,3.62793,0,0,0,0,0,0,0,-1,1784,687,18.4052,-3.6279
567,337,11.9288,1.38776,0,0,0,0,0,0,0,-1,1791,687,11.9288,-1.38777
574,337,10.704,1.19476,0,0,0,0,0,0,0,-1,1798,687,10.704,-1.19478
581,337,8.50427,0.561768,0,0,0,0,0,0,0,-1,1805,687,8.5043,-0.561754
588,337,8.5885,-0.0536499,0,0,0,0,0,0,0,-1,1812,687,8.58844,0.0536788
595,337,40.1649,-13.8609,0,0,0,0,0,0,0,-1,1819,687,40.1649,13.8609
602,337,40.4065,-12.661,0.000998295,-0.00171775,-0.000319304,0.00103533,-0.00175478,-0.115465,0.00162863,0.0458386,1826,687,40.4065,12.661
609,337,40.3345,-11.7142,0.00126133,-0.00137169,-0.000206189,0.00127738,-0.00138774,-0.0776782,0.00153914,0.0241912,1833,687,40.3344,11.7142
616,337,40.2482,-10.7933,0.00129784,-0.000996401,-2.97751e-06,0.00129784,-0.000996405,-0.00129782,0.00132839,0.0192869,1840,687,40.2482,10.7933
623,337,40.2483,-9.90991,0.00126555,-0.000519035,0.00012789,0.00127467,-0.000528153,0.0711789,0.00107019,0.0162131,1847,687,40.2482,9.90992
630,337,40.2142,-8.98566,0.00129412,-3.27265e-05,0.000297688,0.00135785,-9.64541e-05,0.210892,0.000939038,0.0200696,1854,687,40.2143,8.98566
637,337,40.1522,-8.06671,0.00134034,0.000472844,0.000447227,0.00152961,0.000283576,0.400347,0.00093959,0.0181543,1861,687,40.1523,8.06672
644,337,40.0773,-7.12317,0.00142548,0.000975819,0.000576809,0.00181972,0.00058157,0.599566,0.00107317,0.0128635,1868,687,40.0773,7.12319
651,337,40.0043,-6.17627,0.00158804,0.00151016,0.000695837,0.00224602,0.000852172,0.757445,0.00130925,0.0116883,1875,687,40.0042,6.17625
658,337,39.9625,-5.23145,0.0018366,0.00206009,0.000810875,0.00276688,0.0011298,0.853871,0.00160638,0.0132246,1882,687,39.9625,5.23143
665,337,39.942,-4.31555,0.0023394,0.00256277,0.000893028,0.00335107,0.0015511,0.847608,0.00193652,0.0182389,1889,687,39.942,4.31555
672,337,39.9282,-3.46906,0.00322949,0.00309078,0.000783986,0.00394718,0.00237309,0.741282,0.00229442,0.044215,1896,687,39.9282,3.46907
679,337,40.4105,-2.63739,0,0,0,0,0,0,0,-1,1903,687,40.4105,2.6374
686,337,18.5614,1.68597,0,0,0,0,0,0,0,-1,1910,687,18.5614,-1.68598
693,337,16.5415,2.21411,0,0,0,0,0,0,0,-1,1917,687,16.5415,-2.2141
700,337,17.2661,2.44379,0,0,0,0,0,0,0,-1,1924,687,17.2661,-2.44378
707,337,17.3544,5.61853,0,0,0,0,0,0,0,-1,1931,687,17.3543,-5.61851
714,337,0,0,0,0,0,0,0,0,0,-1,1938,687,0,0
721,337,0,0,0,0,0,0,0,0,0,-1,1945,687,0,0
728,337,0,0,0,0,0,0,0,0,0,-1,1952,687,0,0
735,337,0,0,0,0,0,0,0,0,0,-1,1959,687,0,0
742,337,0,0,0,0,0,0,0,0,0,-1,1966,687,0,0
749,337,0,0,0,0,0,0,0,0,0,-1,1973,687,0,0
756,337,0,0,0,0,0,0,0,0,0,-1,1980,687,0,0
763,337,0,0,0,0,0,0,0,0,0,-1,1987,687,0,0
770,337,0,0,0,0,0,0,0,0,0,-1,1994,687,0,0
777,337,0,0,0,0,0,0,0,0,0,-1,2001,687,0,0
784,337,0,0,0,0,0,0,0,0,0,-1,2008,687,0,0
791,337,0,0,0,0,0,0,0,0,0,-1,2015,687,0,0
798,337,0,0,0,0,0,0,0,0,0,-1,2022,687,0,0
805,337,0,0,0,0,0,0,0,0,0,-1,2029,687,0,0
812,337,0,0,0,0,0,0,0,0,0,-1,2036,687,0,0
-700,330,0,0,0,0,0,0,0,0,0,-1,524,694,0,0
-693,330,0,0,0,0,0,0,0,0,0,-1,531,694,0,0
-686,330,0,0,0,0,0,0,0,0,0,-1,538,694,0,0
-679,330,0,0,0,0,0,0,0,0,0,-1,545,694,0,0
-672,330,0,0,0,0,0,0,0,0,0,-1,552,694,0,0
-665,330,0,0,0,0,0,0,0,0,0,-1,559,694,0,0
-658,330,0,0,0,0,0,0,0,0,0,-1,566,694,0,0
-651,330,0,0,0,0,0,0,0,0,0,-1,573,694,0,0
-644,330,0,0,0,0,0,0,0,0,0,-1,580,694,0,0
-637,330,0,0,0,0,0,0,0,0,0,-1,587,694,0,0
-630,330,0,0,0,0,0,0,0,0,0,-1,594,694,0,0
-623,330,0,0,0,0,0,0,0,0,0,-1,601,694,0,0
-616,330,0,0,0,0,0,0,0,0,0,-1,608,694,0,0
-609,330,0,0,0,0,0,0,0,0,0,-1,615,694,0,0
-602,330,0,0,0,0,0,0,0,0,0,-1,622,694,0,0
-595,330,-4.67883,1.65515,0,0,0,0,0,0,0,-1,629,694,-4.67881,-1.65515
-588,330,-8.5047,2.67346,0,0,0,0,0,0,0,-1,636,694,-8.50469,-2.67348
-581,330,-12.4227,0.947083,0,0,0,0,0,0,0,-1,643,694,-12.4227,-0.947109
-574,330,-9.02118,1.87952,0,0,0,0,0,0,0,-1,650,694,-9.02115,-1.87953
-567,330,-8.35577,0.909973,0,0,0,0,0,0,0,-1,657,694,-8.35575,-0.909945
-560,330,-13.1036,-0.584656,0,0,0,0,0,0,0,-1,664,694,-13.1035,0.584658
-553,330,-17.5484,-1.21545,0,0,0,0,0,0,0,-1,671,694,-17.5484,1.21547
-546,330,-24.7861,-3.61237,0,0,0,0,0,0,0,-1,678,694,-24.7861,3.61235
-539,330,-25.1438,-4.71814,0,0,0,0,0,0,0,-1,685,694,-25.1438,4.71814
-532,330,-25.1067,-5.72687,0.00272393,0.00341388,-0.00315758,0.00624528,-0.000107468,-0.839809,0.0041998,0.0269373,692,694,-25.1067,5.72685
-525,330,-25.0929,-6.72162,0.00237682,0.00209455,-0.00220862,0.00444881,2.25615e-05,-0.75349,0.00295838,0.0110053,699,694,-25.0929,6.72164
-518,330,-25.1397,-7.6275,0.00207962,0.00105777,-0.00138061,0.00304082,9.6578e-05,-0.608177,0.0019958,0.0155629,706,694,-25.1397,7.62751
-511,330,-25.1802,-8.55438,0.00183786,0.000266952,-0.000729722,0.00212452,-1.97093e-05,-0.374316,0.00142296,0.0205349,713,694,-25.1802,8.55439
-504,330,-25.2205,-9.48895,0.00160816,-0.000339212,-0.000189256,0.00162638,-0.000357435,-0.0959889,0.00122096,0.0182311,720,694,-25.2205,9.48896
-497,330,-25.3019,-10.3912,0.00149253,-0.000743738,0.000190854,0.00150871,-0.00075991,0.0845301,0.00133336,0.0139551,727,694,-25.3019,10.3912
-490,330,-25.3381,-11.3251,0.00154003,-0.000926511,0.000356256,0.00159045,-0.000976937,0.140608,0.00149632,0.0146396,734,694,-25.3381,11.3251
-483,330,-25.3508,-12.2726,0.00167753,-0.000865079,0.000318942,0.00171693,-0.000904477,0.122902,0.00153751,0.0155453,741,694,-25.3508,12.2726
-476,330,-25.3733,-13.2635,0,0,0,0,0,0,0,-1,748,694,-25.3733,13.2635
-469,330,-16.1478,-9.23303,0,0,0,0,0,0,0,-1,755,694,-16.1478,9.23301
-462,330,-7.26733,-3.84833,0,0,0,0,0,0,0,-1,762,694,-7.26731,3.84832
-455,330,-5.04254,-1.79303,0,0,0,0,0,0,0,-1,769,694,-5.04252,1.79305
-448,330,-4.89886,-1.66156,0,0,0,0,0,0,0,-1,776,694,-4.89886,1.66157
-441,330,-5.30676,-2.34045,0,0,0,0,0,0,0,-1,783,694,-5.30679,2.34048
-434,330,-7.20428,1.00024,0,0,0,0,0,0,0,-1,790,694,-7.20431,-1.00027
-427,330,-16.0428,2.89258,0,0,0,0,0,0,0,-1,797,694,-16.0428,-2.89259
-420,330,-29.0331,0.271606,0,0,0,0,0,0,0,-1,804,694,-29.0331,-0.27158
-413,330,-29.0896,0.56366,0,0,0,0,0,0,0,-1,811,694,-29.0896,-0.563671
-406,330,-1.65375,-1.74371,0,0,0,0,0,0,0,-1,818,694,-1.65375,1.74371
-399,330,0,0,0,0,0,0,0,0,0,-1,825,694,0,0
-392,330,0,0,0,0,0,0,0,0,0,-1,832,694,0,0
-385,330,0,0,0,0,0,0,0,0,0,-1,839,694,0,0
-378,330,0,0,0,0,0,0,0,0,0,-1,846,694,0,0
-371,330,0,0,0,0,0,0,0,0,0,-1,853,694,0,0
-364,330,0,0,0,0,0,0,0,0,0,-1,860,694,0,0
-357,330,0,0,0,0,0,0,0,0,0,-1,867,694,0,0
-350,330,0,0,0,0,0,0,0,0,0,-1,874,694,0,0
-343,330,0,0,0,0,0,0,0,0,0,-1,881,694,0,0
-336,330,0,0,0,0,0,0,0,0,0,-1,888,694,0,0
-329,330,0,0,0,0,0,0,0,0,0,-1,895,694,0,0
-322,330,0,0,0,0,0,0,0,0,0,-1,902,694,0,0
-315,330,0,0,0,0,0,0,0,0,0,-1,909,694,0,0
-308,330,0,0,0,0,0,0,0,0,0,-1,916,694,0,0
-301,330,0,0,0,0,0,0,0,0,0,-1,923,694,0,0
-294,330,0,0,0,0,0,0,0,0,0,-1,930,694,0,0
-287,330,0,0,0,0,0,0,0,0,0,-1,937,694,0,0
-280,330,0,0,0,0,0,0,0,0,0,-1,944,694,0,0
-273,330,0,0,0,0,0,0,0,0,0,-1,951,694,0,0
-266,330,0,0,0,0,0,0,0,0,0,-1,958,694,0,0
-259,330,0,0,0,0,0,0,0,0,0,-1,965,694,0,0
-252,330,0,0,0,0,0,0,0,0,0,-1,972,694,0,0
-245,330,0,0,0,0,0,0,0,0,0,-1,979,694,0,0
-238,330,0,0,0,0,0,0,0,0,0,-1,986,694,0,0
-231,330,0,0,0,0,0,0,0,0,0,-1,993,694,0,0
-224,330,0,0,0,0,0,0,0,0,0,-1,1000,694,0,0
-217,330,0,0,0,0,0,0,0,0,0,-1,1007,694,0,0
-210,330,0,0,0,0,0,0,0,0,0,-1,1014,694,0,0
-203,330,0,0,0,0,0,0,0,0,0,-1,1021,694,0,0
-196,330,0,0,0,0,0,0,0,0,0,-1,1028,694,0,0
-189,330,0,0,0,0,0,0,0,0,0,-1,1035,694,0,0
-182,330,0,0,0,0,0,0,0,0,0,-1,1042,694,0,0
-175,330,0,0,0,0,0,0,0,0,0,-1,1049,694,0,0
-168,330,0,0,0,0,0,0,0,0,0,-1,1056,694,0,0
-161,330,0,0,0,0,0,0,0,0,0,-1,1063,694,0,0
-154,330,0,0,0,0,0,0,0,0,0,-1,1070,694,0,0
-147,330,0,0,0,0,0,0,0,0,0,-1,1077,694,0,0
-140,330,0,0,0,0,0,0,0,0,0,-1,1084,694,0,0
-133,330,0,0,0,0,0,0,0,0,0,-1,1091,694,0,0
-126,330,0,0,0,0,0,0,0,0,0,-1,1098,694,0,0
-119,330,0,0,0,0,0,0,0,0,0,-1,1105,694,0,0
-112,330,0,0,0,0,0,0,0,0,0,-1,1112,694,0,0
-105,330,0,0,0,0,0,0,0,0,0,-1,1119,694,0,0
-98,330,0,0,0,0,0,0,0,0,0,-1,1126,694,0,0
-91,330,0,0,0,0,0,0,0,0,0,-1,1133,694,0,0
-84,330,0,0,0,0,0,0,0,0,0,-1,1140,694,0,0
-77,330,0,0,0,0,0,0,0,0,0,-1,1147,694,0,0
-70,330,0,0,0,0,0,0,0,0,0,-1,1154,694,0,0
-63,330,0,0,0,0,0,0,0,0,0,-1,1161,694,0,0
-56,330,0,0,0,0,0,0,0,0,0,-1,1168,694,0,0
-49,330,0,0,0,0,0,0,0,0,0,-1,1175,694,0,0
-42,330,0,0,0,0,0,0,0,0,0,-1,1182,694,0,0
-35,330,0,0,0,0,0,0,0,0,0,-1,1189,694,0,0
-28,330,0,0,0,0,0,0,0,0,0,-1,1196,694,0,0
-21,330,0,0,0,0,0,0,0,0,0,-1,1203,694,0,0
-14,330,0,0,0,0,0,0,0,0,0,-1,1210,694,0,0
-7,330,0,0,0,0,0,0,0,0,0,-1,1217,694,0,0
0,330,0,0,0,0,0,0,0,0,0,-1,1224,694,0,0
7,330,0,0,0,0,0,0,0,0,0,-1,1231,694,0,0
14,330,0,0,0,0,0,0,0,0,0,-1,1238,694,0,0
21,330,0,0,0,0,0,0,0,0,0,-1,1245,694,0,0
28,330,0,0,0,0,0,0,0,0,0,-1,1252,694,0,0
35,330,0,0,0,0,0,0,0,0,0,-1,1259,694,0,0
42,330,0,0,0,0,0,0,0,0,0,-1,1266,694,0,0
49,330,0,0,0,0,0,0,0,0,0,-1,1273,694,0,0
56,330,0,0,0,0,0,0,0,0,0,-1,1280,694,0,0
63,330,0,0,0,0,0,0,0,0,0,-1,1287,694,0,0
70,330,0,0,0,0,0,0,0,0,0,-1,1294,694,0,0
77,330,0,0,0,0,0,0,0,0,0,-1,1301,694,0,0
84,330,0,0,0,0,0,0,0,0,0,-1,1308,694,0,0
91,330,0,0,0,0,0,0,0,0,0,-1,1315,694,0,0
98,330,0,0,0,0,0,0,0,0,0,-1,1322,694,0,0
105,330,0,0,0,0,0,0,0,0,0,-1,1329,694,0,0
112,330,0,0,0,0,0,0,0,0,0,-1,1336,694,0,0
119,330,0,0,0,0,0,0,0,0,0,-1,1343,694,0,0
126,330,0,0,0,0,0,0,0,0,0,-1,1350,694,0,0
133,330,0,0,0,0,0,0,0,0,0,-1,1357,694,0,0
140,330,0,0,0,0,0,0,0,0,0,-1,1364,694,0,0
147,330,0,0,0,0,0,0,0,0,0,-1,1371,694,0,0
154,330,0,0,0,0,0,0,0,0,0,-1,1378,694,0,0
161,330,0,0,0,0,0,0,0,0,0,-1,1385,694,0,0
168,330,0,0,0,0,0,0,0,0,0,-1,1392,694,0,0
175,330,0,0,0,0,0,0,0,0,0,-1,1399,694,0,0
182,330,0,0,0,0,0,0,0,0,0,-1,1406,694,0,0
189,330,0,0,0,0,0,0,0,0,0,-1,1413,694,0,0
196,330,0,0,0,0,0,0,0,0,0,-1,1420,694,0,0
203,330,0,0,0,0,0,0,0,0,0,-1,1427,694,0,0
210,330,0,0,0,0,0,0,0,0,0,-1,1434,694,0,0
217,330,0,0,0,0,0,0,0,0,0,-1,1441,694,0,0
224,330,0,0,0,0,0,0,0,0,0,-1,1448,694,0,0
231,330,0,0,0,0,0,0,0,0,0,-1,1455,694,0,0
238,330,0,0,0,0,0,0,0,0,0,-1,1462,694,0,0
245,330,0,0,0,0,0,0,0,0,0,-1,1469,694,0,0
252,330,0,0,0,0,0,0,0,0,0,-1,1476,694,0,0
259,330,0,0,0,0,0,0,0,0,0,-1,1483,694,0,0
266,330,0,0,0,0,0,0,0,0,0,-1,1490,694,0,0
273,330,0,0,0,0,0,0,0,0,0,-1,1497,694,0,0
280,330,0,0,0,0,0,0,0,0,0,-1,1504,694,0,0
287,330,0,0,0,0,0,0,0,0,0,-1,1511,694,0,0
294,330,0,0,0,0,0,0,0,0,0,-1,1518,694,0,0
301,330,0,0,0,0,0,0,0,0,0,-1,1525,694,0,0
308,330,0,0,0,0,0,0,0,0,0,-1,1532,694,0,0
315,330,0,0,0,0,0,0,0,0,0,-1,1539,694,0,0
322,330,0,0,0,0,0,0,0,0,0,-1,1546,694,0,0
329,330,0,0,0,0,0,0,0,0,0,-1,1553,694,0,0
336,330,0,0,0,0,0,0,0,0,0,-1,1560,694,0,0
343,330,0,0,0,0,0,0,0,0,0,-1,1567,694,0,0
350,330,0,0,0,0,0,0,0,0,0,-1,1574,694,0,0
357,330,0,0,0,0,0,0,0,0,0,-1,1581,694,0,0
364,330,0,0,0,0,0,0,0,0,0,-1,1588,694,0,0
371,330,0,0,0,0,0,0,0,0,0,-1,1595,694,0,0
378,330,0,0,0,0,0,0,0,0,0,-1,1602,694,0,0
385,330,0,0,0,0,0,0,0,0,0,-1,1609,694,0,0
392,330,0,0,0,0,0,0,0,0,0,-1,1616,694,0,0
399,330,0,0,0,0,0,0,0,0,0,-1,1623,694,0,0
406,330,0,0,0,0,0,0,0,0,0,-1,1630,694,0,0
413,330,0,0,0,0,0,0,0,0,0,-1,1637,694,0,0
420,330,0,0,0,0,0,0,0,0,0,-1,1644,694,0,0
427,330,0,0,0,0,0,0,0,0,0,-1,1651,694,0,0
434,330,0,0,0,0,0,0,0,0,0,-1,1658,694,0,0
441,330,0,0,0,0,0,0,0,0,0,-1,1665,694,0,0
448,330,0,0,0,0,0,0,0,0,0,-1,1672,694,0,0
455,330,0,0,0,0,0,0,0,0,0,-1,1679,694,0,0
462,330,0,0,0,0,0,0,0,0,0,-1,1686,694,0,0
469,330,0,0,0,0,0,0,0,0,0,-1,1693,694,0,0
476,330,0,0,0,0,0,0,0,0,0,-1,1700,694,0,0
483,330,0,0,0,0,0,0,0,0,0,-1,1707,694,0,0
490,330,0,0,0,0,0,0,0,0,0,-1,1714,694,0,0
497,330,0,0,0,0,0,0,0,0,0,-1,1721,694,0,0
504,330,0,0,0,0,0,0,0,0,0,-1,1728,694,0,0
511,330,0,0,0,0,0,0,0,0,0,-1,1735,694,0,0
518,330,0,0,0,0,0,0,0,0,0,-1,1742,694,0,0
525,330,30.6694,0.69519,0,0,0,0,0,0,0,-1,1749,694,30.6694,-0.695206
532,330,30.9469,1.32501,0,0,0,0,0,0,0,-1,1756,694,30.9469,-1.32501
539,330,31.5155,1.62506,0,0,0,0,0,0,0,-1,1763,694,31.5155,-1.62507
546,330,31.4187,1.85651,0,0,0,0,0,0,0,-1,1770,694,31.4187,-1.85651
553,330,31.8452,1.81476,0,0,0,0,0,0,0,-1,1777,694,31.8452,-1.81475
560,330,32.2401,2.43225,0,0,0,0,0,0,0,-1,1784,694,32.2401,-2.43227
567,330,18.0321,3.98578,0,0,0,0,0,0,0,-1,1791,694,18.0321,-3.98576
574,330,12.0454,2.1662,0,0,0,0,0,0,0,-1,1798,694,12.0455,-2.16618
581,330,11.4215,4.50836,0,0,0,0,0,0,0,-1,1805,694,11.4215,-4.50837
588,330,6.45667,-0.0630493,0,0,0,0,0,0,0,-1,1812,694,6.45661,0.0630695
595,330,8.23193,-0.258484,0,0,0,0,0,0,0,-1,1819,694,8.23188,0.258459
602,330,41.1801,-12.6923,0,0,0,0,0,0,0,-1,1826,694,41.1801,12.6923
609,330,41.2368,-11.6897,0.00166314,-0.00179598,-0.000223895,0.00167757,-0.00181041,-0.0643681,0.00201427,0.0288705,1833,694,41.2368,11.6897
616,330,41.2286,-10.7657,0.00156573,-0.00146218,-3.31107e-05,0.00156609,-0.00146254,-0.0109334,0.00174892,0.0134256,1840,694,41.2287,10.7657
623,330,41.17,-9.84692,0.00135673,-0.000959011,6.28318e-05,0.00135843,-0.000960715,0.0271059,0.00134551,0.0147446,1847,694,41.17,9.84693
630,330,41.1227,-8.91748,0.00128801,-0.000493657,0.000199004,0.00130997,-0.000515614,0.109891,0.00108675,0.015127,1854,694,41.1227,8.91745
637,330,41.0806,-7.99847,0.00127269,8.05556e-06,0.000337089,0.00135693,-7.6184e-05,0.244888,0.000931055,0.0142403,1861,694,41.0806,7.99845
644,330,41.0048,-7.07355,0.00132622,0.000520338,0.000481626,0.00155123,0.000295326,0.437059,0.000951121,0.00926366,1868,694,41.0047,7.07357
651,330,40.9535,-6.1225,0.00147146,0.00106027,0.000624868,0.00192368,0.000608039,0.626466,0.00113541,0.0128651,1875,694,40.9535,6.12249
658,330,40.8826,-5.20007,0.0017437,0.00163047,0.000790469,0.00247958,0.00089459,0.749646,0.00144996,0.0137523,1882,694,40.8825,5.20007
665,330,40.808,-4.27661,0.00224958,0.00219696,0.000970082,0.00319371,0.00125283,0.771841,0.0018581,0.0126145,1889,694,40.8079,4.27661
672,330,40.8778,-3.32147,0.0030813,0.00281194,0.00106669,0.00402178,0.00187145,0.7226,0.00232384,0.0395408,1896,694,40.8778,3.32146
679,330,41.0651,-2.28772,0,0,0,0,0,0,0,-1,1903,694,41.0651,2.28772
686,330,30.6691,0.582825,0,0,0,0,0,0,0,-1,1910,694,30.6691,-0.582798
693,330,17.3999,2.5976,0,0,0,0,0,0,0,-1,1917,694,17.4,-2.59759
700,330,17.1072,4.13,0,0,0,0,0,0,0,-1,1924,694,17.1071,-4.13002
707,330,16.663,4.88672,0,0,0,0,0,0,0,-1,1931,694,16.6629,-4.88673
714,330,16.5454,5.80896,0,0,0,0,0,0,0,-1,1938,694,16.5454,-5.80899
721,330,0,0,0,0,0,0,0,0,0,-1,1945,694,0,0
728,330,0,0,0,0,0,0,0,0,0,-1,1952,694,0,0
735,330,0,0,0,0,0,0,0,0,0,-1,1959,694,0,0
742,330,0,0,0,0,0,0,0,0,0,-1,1966,694,0,0
749,330,0,0,0,0,0,0,0,0,0,-1,1973,694,0,0
756,330,0,0,0,0,0,0,0,0,0,-1,1980,694,0,0
763,330,0,0,0,0,0,0,0,0,0,-1,1987,694,0,0
770,330,0,0,0,0,0,0,0,0,0,-1,1994,694,0,0
777,330,0,0,0,0,0,0,0,0,0,-1,2001,694,0,0
784,330,0,0,0,0,0,0,0,0,0,-1,2008,694,0,0
791,330,0,0,0,0,0,0,0,0,0,-1,2015,694,0,0
798,330,0,0,0,0,0,0,0,0,0,-1,2022,694,0,0
805,330,0,0,0,0,0,0,0,0,0,-1,2029,694,0,0
812,330,0,0,0,0,0,0,0,0,0,-1,2036,694,0,0
-700,323,0,0,0,0,0,0,0,0,0,-1,524,701,0,0
-693,323,0,0,0,0,0,0,0,0,0,-1,531,701,0,0
-686,323,0,0,0,0,0,0,0,0,0,-1,538,701,0,0
-679,323,0,0,0,0,0,0,0,0,0,-1,545,701,0,0
-672,323,0,0,0,0,0,0,0,0,0,-1,552,701,0,0
-665,323,0,0,0,0,0,0,0,0,0,-1,559,701,0,0
-658,323,0,0,0,0,0,0,0,0,0,-1,566,701,0,0
-651,323,0,0,0,0,0,0,0,0,0,-1,573,701,0,0
-644,323,0,0,0,0,0,0,0,0,0,-1,580,701,0,0
-637,323,0,0,0,0,0,0,0,0,0,-1,587,701,0,0
-630,323,0,0,0,0,0,0,0,0,0,-1,594,701,0,0
-623,323,0,0,0,0,0,0,0,0,0,-1,601,701,0,0
-616,323,0,0,0,0,0,0,0,0,0,-1,608,701,0,0
-609,323,0,0,0,0,0,0,0,0,0,-1,615,701,0,0
-602,323,-4.15833,2.12256,0,0,0,0,0,0,0,-1,622,701,-4.1583,-2.12257
-595,323,-4.052,1.79156,0,0,0,0,0,0,0,-1,629,701,-4.05198,-1.79158
-588,323,-4.07019,1.94543,0,0,0,0,0,0,0,-1,636,701,-4.07019,-1.94542
-581,323,-6.63727,0.562805,0,0,0,0,0,0,0,-1,643,701,-6.63728,-0.56279
-574,323,-6.15887,0.426697,0,0,0,0,0,0,0,-1,650,701,-6.15887,-0.426727
-567,323,-10.0015,0.0371094,0,0,0,0,0,0,0,-1,657,701,-10.0015,-0.037126
-560,323,-16.3503,-1.16956,0,0,0,0,0,0,0,-1,664,701,-16.3503,1.16957
-553,323,-25.9568,-3.10785,0,0,0,0,0,0,0,-1,671,701,-25.9568,3.10783
-546,323,-25.8723,-3.87695,0,0,0,0,0,0,0,-1,678,701,-25.8723,3.87698
-539,323,-25.8413,-4.70068,0.00236678,0.00390071,-0.0032133,0.00643731,-0.000169816,-0.902549,0.00434925,0.031324,685,701,-25.8413,4.70066
-532,323,-25.9458,-5.69849,0.0022462,0.00269628,-0.00243959,0.00492118,2.12977e-05,-0.83139,0.00327371,0.0123122,692,701,-25.9458,5.69851
-525,323,-26.0252,-6.66724,0.00203943,0.00162428,-0.00168679,0.00353137,0.000132346,-0.724177,0.00231139,0.00822467,699,701,-26.0252,6.66722
-518,323,-26.0543,-7.56641,0.00184227,0.000744429,-0.0010106,0.0024434,0.000143295,-0.536609,0.00158333,0.0105217,706,701,-26.0543,7.56643
-511,323,-26.0972,-8.47791,0.00158759,3.22105e-05,-0.00044691,0.00170686,-8.70558e-05,-0.260791,0.001168,0.0146446,713,701,-26.0972,8.47789
-504,323,-26.183,-9.38037,0.00129429,-0.00053765,6.2836e-05,0.00129644,-0.000539803,0.0342466,0.00108974,0.0153355,720,701,-26.183,9.38035
-497,323,-26.2476,-10.2888,0.00111033,-0.000920162,0.000435899,0.00119995,-0.00100978,0.202776,0.00127736,0.0127905,727,701,-26.2475,10.2888
-490,323,-26.2991,-11.2367,0.00111582,-0.0010927,0.000618286,0.00127713,-0.00125401,0.25521,0.00146137,0.0146131,734,701,-26.2991,11.2367
-483,323,-26.3197,-12.1595,0.00118913,-0.000979081,0.000616872,0.00135235,-0.0011423,0.258662,0.00144199,0.0333992,741,701,-26.3197,12.1595
-476,323,-26.3218,-13.1064,0,0,0,0,0,0,0,-1,748,701,-26.3218,13.1064
-469,323,-8.33301,-3.64001,0,0,0,0,0,0,0,-1,755,701,-8.33298,3.64
-462,323,-5.29431,-1.45697,0,0,0,0,0,0,0,-1,762,701,-5.29431,1.45699
-455,323,-5.0658,-1.36639,0,0,0,0,0,0,0,-1,769,701,-5.06578,1.3664
-448,323,-4.91608,-1.59601,0,0,0,0,0,0,0,-1,776,701,-4.91606,1.59604
-441,323,-14.4006,0.535217,0,0,0,0,0,0,0,-1,783,701,-14.4006,-0.535203
-434,323,-15.3158,2.479,0,0,0,0,0,0,0,-1,790,701,-15.3158,-2.47898
-427,323,-28.3923,1.16797,0,0,0,0,0,0,0,-1,797,701,-28.3923,-1.16796
-420,323,-28.7292,1.09302,0,0,0,0,0,0,0,-1,804,701,-28.7292,-1.09304
-413,323,-28.7955,1.22418,0,0,0,0,0,0,0,-1,811,701,-28.7956,-1.22419
-406,323,0,0,0,0,0,0,0,0,0,-1,818,701,0,0
-399,323,0,0,0,0,0,0,0,0,0,-1,825,701,0,0
-392,323,0,0,0,0,0,0,0,0,0,-1,832,701,0,0
-385,323,0,0,0,0,0,0,0,0,0,-1,839,701,0,0
-378,323,0,0,0,0,0,0,0,0,0,-1,846,701,0,0
-371,323,0,0,0,0,0,0,0,0,0,-1,853,701,0,0
-364,323,0,0,0,0,0,0,0,0,0,-1,860,701,0,0
-357,323,0,0,0,0,0,0,0,0,0,-1,867,701,0,0
-350,323,0,0,0,0,0,0,0,0,0,-1,874,701,0,0
-343,323,0,0,0,0,0,0,0,0,0,-1,881,701,0,0
-336,323,0,0,0,0,0,0,0,0,0,-1,888,701,0,0
-329,323,0,0,0,0,0,0,0,0,0,-1,895,701,0,0
-322,323,0,0,0,0,0,0,0,0,0,-1,902,701,0,0
-315,323,0,0,0,0,0,0,0,0,0,-1,909,701,0,0
-308,323,0,0,0,0,0,0,0,0,0,-1,916,701,0,0
-301,323,0,0,0,0,0,0,0,0,0,-1,923,701,0,0
-294,323,0,0,0,0,0,0,0,0,0,-1,930,701,0,0
-287,323,0,0,0,0,0,0,0,0,0,-1,937,701,0,0
-280,323,0,0,0,0,0,0,0,0,0,-1,944,701,0,0
-273,323,0,0,0,0,0,0,0,0,0,-1,951,701,0,0
-266,323,0,0,0,0,0,0,0,0,0,-1,958,701,0,0
-259,323,0,0,0,0,0,0,0,0,0,-1,965,701,0,0
-252,323,0,0,0,0,0,0,0,0,0,-1,972,701,0,0
-245,323,0,0,0,0,0,0,0,0,0,-1,979,701,0,0
-238,323,0,0,0,0,0,0,0,0,0,-1,986,701,0,0
-231,323,0,0,0,0,0,0,0,0,0,-1,993,701,0,0
-224,323,0,0,0,0,0,0,0,0,0,-1,1000,701,0,0
-217,323,0,0,0,0,0,0,0,0,0,-1,1007,701,0,0
-210,323,0,0,0,0,0,0,0,0,0,-1,1014,701,0,0
-203,323,0,0,0,0,0,0,0,0,0,-1,1021,701,0,0
-196,323,0,0,0,0,0,0,0,0,0,-1,1028,701,0,0
-189,323,0,0,0,0,0,0,0,0,0,-1,1035,701,0,0
-182,323,0,0,0,0,0,0,0,0,0,-1,1042,701,0,0
-175,323,0,0,0,0,0,0,0,0,0,-1,1049,701,0,0
-168,323,0,0,0,0,0,0,0,0,0,-1,1056,701,0,0
-161,323,0,0,0,0,0,0,0,0,0,-1,1063,701,0,0
-154,323,0,0,0,0,0,0,0,0,0,-1,1070,701,0,0
-147,323,0,0,0,0,0,0,0,0,0,-1,1077,701,0,0
-140,323,0,0,0,0,0,0,0,0,0,-1,1084,701,0,0
-133,323,0,0,0,0,0,0,0,0,0,-1,1091,701,0,0
-126,323,0,0,0,0,0,0,0,0,0,-1,1098,701,0,0
-119,323,0,0,0,0,0,0,0,0,0,-1,1105,701,0,0
-112,323,0,0,0,0,0,0,0,0,0,-1,1112,701,0,0
-105,323,0,0,0,0,0,0,0,0,0,-1,1119,701,0,0
-98,323,0,0,0,0,0,0,0,0,0,-1,1126,701,0,0
-91,323,0,0,0,0,0,0,0,0,0,-1,1133,701,0,0
-84,323,0,0,0,0,0,0,0,0,0,-1,1140,701,0,0
-77,323,0,0,0,0,0,0,0,0,0,-1,1147,701,0,0
-70,323,0,0,0,0,0,0,0,0,0,-1,1154,701,0,0
-63,323,0,0,0,0,0,0,0,0,0,-1,1161,701,0,0
-56,323,0,0,0,0,0,0,0,0,0,-1,1168,701,0,0
-49,323,0,0,0,0,0,0,0,0,0,-1,1175,701,0,0
-42,323,0,0,0,0,0,0,0,0,0,-1,1182,701,0,0
-35,323,0,0,0,0,0,0,0,0,0,-1,1189,701,0,0
-28,323,0,0,0,0,0,0,0,0,0,-1,1196,701,0,0
-21,323,0,0,0,0,0,0,0,0,0,-1,1203,701,0,0
-14,323,0,0,0,0,0,0,0,0,0,-1,1210,701,0,0
-7,323,0,0,0,0,0,0,0,0,0,-1,1217,701,0,0
0,323,0,0,0,0,0,0,0,0,0,-1,1224,701,0,0
7,323,0,0,0,0,0,0,0,0,0,-1,1231,701,0,0
14,323,0,0,0,0,0,0,0,0,0,-1,1238,701,0,0
21,323,0,0,0,0,0,0,0,0,0,-1,1245,701,0,0
28,323,0,0,0,0,0,0,0,0,0,-1,1252,701,0,0
35,323,0,0,0,0,0,0,0,0,0,-1,1259,701,0,0
42,323,0,0,0,0,0,0,0,0,0,-1,1266,701,0,0
49,323,0,0,0,0,0,0,0,0,0,-1,1273,701,0,0
56,323,0,0,0,0,0,0,0,0,0,-1,1280,701,0,0
63,323,0,0,0,0,0,0,0,0,0,-1,1287,701,0,0
70,323,0,0,0,0,0,0,0,0,0,-1,1294,701,0,0
77,323,0,0,0,0,0,0,0,0,0,-1,1301,701,0,0
84,323,0,0,0,0,0,0,0,0,0,-1,1308,701,0,0
91,323,0,0,0,0,0,0,0,0,0,-1,1315,701,0,0
98,323,0,0,0,0,0,0,0,0,0,-1,1322,701,0,0
105,323,0,0,0,0,0,0,0,0,0,-1,1329,701,0,0
112,323,0,0,0,0,0,0,0,0,0,-1,1336,701,0,0
119,323,0,0,0,0,0,0,0,0,0,-1,1343,701,0,0
126,323,0,0,0,0,0,0,0,0,0,-1,1350,701,0,0
133,323,0,0,0,0,0,0,0,0,0,-1,1357,701,0,0
140,323,0,0,0,0,0,0,0,0,0,-1,1364,701,0,0
147,323,0,0,0,0,0,0,0,0,0,-1,1371,701,0,0
154,323,0,0,0,0,0,0,0,0,0,-1,1378,701,0,0
161,323,0,0,0,0,0,0,0,0,0,-1,1385,701,0,0
168,323,0,0,0,0,0,0,0,0,0,-1,1392,701,0,0
175,323,0,0,0,0,0,0,0,0,0,-1,1399,701,0,0
182,323,0,0,0,0,0,0,0,0,0,-1,1406,701,0,0
189,323,0,0,0,0,0,0,0,0,0,-1,1413,701,0,0
196,323,0,0,0,0,0,0,0,0,0,-1,1420,701,0,0
203,323,0,0,0,0,0,0,0,0,0,-1,1427,701,0,0
210,323,0,0,0,0,0,0,0,0,0,-1,1434,701,0,0
217,323,0,0,0,0,0,0,0,0,0,-1,1441,701,0,0
224,323,0,0,0,0,0,0,0,0,0,-1,1448,701,0,0
231,323,0,0,0,0,0,0,0,0,0,-1,1455,701,0,0
238,323,0,0,0,0,0,0,0,0,0,-1,1462,701,0,0
245,323,0,0,0,0,0,0,0,0,0,-1,1469,701,0,0
252,323,0,0,0,0,0,0,0,0,0,-1,1476,701,0,0
259,323,0,0,0,0,0,0,0,0,0,-1,1483,701,0,0
266,323,0,0,0,0,0,0,0,0,0,-1,1490,701,0,0
273,323,0,0,0,0,0,0,0,0,0,-1,1497,701,0,0
280,323,0,0,0,0,0,0,0,0,0,-1,1504,701,0,0
287,323,0,0,0,0,0,0,0,0,0,-1,1511,701,0,0
294,323,0,0,0,0,0,0,0,0,0,-1,1518,701,0,0
301,323,0,0,0,0,0,0,0,0,0,-1,1525,701,0,0
308,323,0,0,0,0,0,0,0,0,0,-1,1532,701,0,0
315,323,0,0,0,0,0,0,0,0,0,-1,1539,701,0,0
322,323,0,0,0,0,0,0,0,0,0,-1,1546,701,0,0
329,323,0,0,0,0,0,0,0,0,0,-1,1553,701,0,0
336,323,0,0,0,0,0,0,0,0,0,-1,1560,701,0,0
343,323,0,0,0,0,0,0,0,0,0,-1,1567,701,0,0
350,323,0,0,0,0,0,0,0,0,0,-1,1574,701,0,0
357,323,0,0,0,0,0,0,0,0,0,-1,1581,701,0,0
364,323,0,0,0,0,0,0,0,0,0,-1,1588,701,0,0
371,323,0,0,0,0,0,0,0,0,0,-1,1595,701,0,0
378,323,0,0,0,0,0,0,0,0,0,-1,1602,701,0,0
385,323,0,0,0,0,0,0,0,0,0,-1,1609,701,0,0
392,323,0,0,0,0,0,0,0,0,0,-1,1616,701,0,0
399,323,0,0,0,0,0,0,0,0,0,-1,1623,701,0,0
406,323,0,0,0,0,0,0,0,0,0,-1,1630,701,0,0
413,323,0,0,0,0,0,0,0,0,0,-1,1637,701,0,0
420,323,0,0,0,0,0,0,0,0,0,-1,1644,701,0,0
427,323,0,0,0,0,0,0,0,0,0,-1,1651,701,0,0
434,323,0,0,0,0,0,0,0,0,0,-1,1658,701,0,0
441,323,0,0,0,0,0,0,0,0,0,-1,1665,701,0,0
448,323,0,0,0,0,0,0,0,0,0,-1,1672,701,0,0
455,323,0,0,0,0,0,0,0,0,0,-1,1679,701,0,0
462,323,0,0,0,0,0,0,0,0,0,-1,1686,701,0,0
469,323,0,0,0,0,0,0,0,0,0,-1,1693,701,0,0
476,323,0,0,0,0,0,0,0,0,0,-1,1700,701,0,0
483,323,0,0,0,0,0,0,0,0,0,-1,1707,701,0,0
490,323,0,0,0,0,0,0,0,0,0,-1,1714,701,0,0
497,323,0,0,0,0,0,0,0,0,0,-1,1721,701,0,0
504,323,0,0,0,0,0,0,0,0,0,-1,1728,701,0,0
511,323,0,0,0,0,0,0,0,0,0,-1,1735,701,0,0
518,323,0,0,0,0,0,0,0,0,0,-1,1742,701,0,0
525,323,0,0,0,0,0,0,0,0,0,-1,1749,701,0,0
532,323,33.6193,1.69446,0,0,0,0,0,0,0,-1,1756,701,33.6193,-1.69444
539,323,32.2698,2.44037,0,0,0,0,0,0,0,-1,1763,701,32.2697,-2.44036
546,323,31.1644,3.9444,0,0,0,0,0,0,0,-1,1770,701,31.1644,-3.94438
553,323,30.2488,5.8775,0,0,0,0,0,0,0,-1,1777,701,30.2487,-5.87752
560,323,40.6711,1.25153,0,0,0,0,0,0,0,-1,1784,701,40.6711,-1.25154
567,323,42.1637,2.01208,0,0,0,0,0,0,0,-1,1791,701,42.1637,-2.01207
574,323,12.514,5.89685,0,0,0,0,0,0,0,-1,1798,701,12.5141,-5.89683
581,323,11.821,5.3476,0,0,0,0,0,0,0,-1,1805,701,11.821,-5.34762
588,323,11.7933,7.00818,0,0,0,0,0,0,0,-1,1812,701,11.7933,-7.00819
595,323,6.67847,0.06604,0,0,0,0,0,0,0,-1,1819,701,6.67841,-0.0660418
602,323,41.9362,-12.5183,0,0,0,0,0,0,0,-1,1826,701,41.9362,12.5183
609,323,42.1017,-11.574,0.00216521,-0.00191108,-8.88071e-05,0.00216714,-0.00191302,-0.0217725,0.0023572,0.0413993,1833,701,42.1017,11.5739
616,323,42.1487,-10.6714,0.00197827,-0.00165014,7.48023e-05,0.00197981,-0.00165169,0.0206041,0.00209949,0.0143761,1840,701,42.1487,10.6714
623,323,42.0948,-9.77148,0.00161105,-0.0011481,0.000120304,0.00161628,-0.00115333,0.043492,0.00160647,0.0137762,1847,701,42.0948,9.77149
630,323,42.0254,-8.84827,0.00147001,-0.000735132,0.000203975,0.00148872,-0.000753841,0.0914655,0.00131771,0.0142199,1854,701,42.0254,8.84826
637,323,41.9916,-7.92218,0.00139452,-0.00027777,0.000313019,0.00145119,-0.000334441,0.179105,0.00109608,0.0115486,1861,701,41.9915,7.9222
644,323,41.9413,-7.0282,0.00140378,0.000204566,0.000450396,0.0015541,5.42498e-05,0.322118,0.00101847,0.00879519,1868,701,41.9413,7.02821
651,323,41.9138,-6.08032,0.00149485,0.000722637,0.00059161,0.0018152,0.000402288,0.496283,0.00110082,0.0135017,1875,701,41.9138,6.08035
658,323,41.7848,-5.12299,0.00167819,0.00130875,0.000740708,0.00225686,0.000730078,0.663201,0.00132979,0.0236633,1882,701,41.7848,5.12301
665,323,41.6797,-4.20447,0.00204813,0.00192212,0.000929249,0.0029165,0.00105374,0.751548,0.0017053,0.0193614,1889,701,41.6797,4.20447
672,323,41.7014,-3.20697,0.0026252,0.00261995,0.00107979,0.00370238,0.00154278,0.784182,0.00214743,0.0230083,1896,701,41.7015,3.20699
679,323,41.7576,-2.10089,0,0,0,0,0,0,0,-1,1903,701,41.7576,2.10089
686,323,30.4916,0.378235,0,0,0,0,0,0,0,-1,1910,701,30.4916,-0.37825
693,323,23.8806,1.08844,0,0,0,0,0,0,0,-1,1917,701,23.8806,-1.08845
700,323,10.7705,0.828613,0,0,0,0,0,0,0,-1,1924,701,10.7705,-0.828591
707,323,16.9005,4.79193,0,0,0,0,0,0,0,-1,1931,701,16.9005,-4.7919
714,323,16.2346,6.25958,0,0,0,0,0,0,0,-1,1938,701,16.2346,-6.25956
721,323,0,0,0,0,0,0,0,0,0,-1,1945,701,0,0
728,323,0,0,0,0,0,0,0,0,0,-1,1952,701,0,0
735,323,0,0,0,0,0,0,0,0,0,-1,1959,701,0,0
742,323,0,0,0,0,0,0,0,0,0,-1,1966,701,0,0
749,323,0,0,0,0,0,0,0,0,0,-1,1973,701,0,0
756,323,0,0,0,0,0,0,0,0,0,-1,1980,701,0,0
763,323,0,0,0,0,0,0,0,0,0,-1,1987,701,0,0
770,323,0,0,0,0,0,0,0,0,0,-1,1994,701,0,0
777,323,0,0,0,0,0,0,0,0,0,-1,2001,701,0,0
784,323,0,0,0,0,0,0,0,0,0,-1,2008,701,0,0
791,323,0,0,0,0,0,0,0,0,0,-1,2015,701,0,0
798,323,0,0,0,0,0,0,0,0,0,-1,2022,701,0,0
805,323,0,0,0,0,0,0,0,0,0,-1,2029,701,0,0
812,323,0,0,0,0,0,0,0,0,0,-1,2036,701,0,0
-700,316,0,0,0,0,0,0,0,0,0,-1,524,708,0,0
-693,316,0,0,0,0,0,0,0,0,0,-1,531,708,0,0
-686,316,0,0,0,0,0,0,0,0,0,-1,538,708,0,0
-679,316,0,0,0,0,0,0,0,0,0,-1,545,708,0,0
-672,316,0,0,0,0,0,0,0,0,0,-1,552,708,0,0
-665,316,0,0,0,0,0,0,0,0,0,-1,559,708,0,0
-658,316,0,0,0,0,0,0,0,0,0,-1,566,708,0,0
-651,316,0,0,0,0,0,0,0,0,0,-1,573,708,0,0
-644,316,0,0,0,0,0,0,0,0,0,-1,580,708,0,0
-637,316,0,0,0,0,0,0,0,0,0,-1,587,708,0,0
-630,316,0,0,0,0,0,0,0,0,0,-1,594,708,0,0
-623,316,0,0,0,0,0,0,0,0,0,-1,601,708,0,0
-616,316,0,0,0,0,0,0,0,0,0,-1,608,708,0,0
-609,316,0,0,0,0,0,0,0,0,0,-1,615,708,0,0
-602,316,-0.451782,-0.0494995,0,0,0,0,0,0,0,-1,622,708,-0.451768,0.0495022
-595,316,-3.3761,2.17188,0,0,0,0,0,0,0,-1,629,708,-3.37609,-2.17189
-588,316,-5.00177,2.60675,0,0,0,0,0,0,0,-1,636,708,-5.00175,-2.60676
-581,316,-3.94653,0.393433,0,0,0,0,0,0,0,-1,643,708,-3.94655,-0.39342
-574,316,-9.67395,1.06067,0,0,0,0,0,0,0,-1,650,708,-9.67396,-1.06065
-567,316,-10.1962,0.448425,0,0,0,0,0,0,0,-1,657,708,-10.1962,-0.448411
-560,316,-18.9941,-1.75067,0,0,0,0,0,0,0,-1,664,708,-18.9941,1.75068
-553,316,-25.6896,-2.78827,0,0,0,0,0,0,0,-1,671,708,-25.6896,2.78827
-546,316,-26.6923,-3.74078,0,0,0,0,0,0,0,-1,678,708,-26.6923,3.74076
-539,316,-26.7697,-4.72375,0.00160678,0.00335515,-0.00250088,0.00513024,-0.000168299,-0.953535,0.00347762,0.013749,685,708,-26.7696,4.72378
-532,316,-26.8557,-5.65619,0.00168867,0.00222431,-0.00186854,0.00384412,6.88622e-05,-0.856579,0.00254011,0.010809,692,708,-26.8556,5.65618
-525,316,-26.9183,-6.55865,0.00161178,0.00119188,-0.00123144,0.00265104,0.000152623,-0.700966,0.00171874,0.00998873,699,708,-26.9184,6.55867
-518,316,-26.9492,-7.48364,0.00150786,0.000370161,-0.000631951,0.00178928,8.87453e-05,-0.418949,0.0011644,0.0101879,706,708,-26.9492,7.48363
-511,316,-27.013,-8.40759,0.00127785,-0.000336868,-9.19307e-05,0.00128307,-0.000342085,-0.0566887,0.000989322,0.012052,713,708,-27.013,8.40761
-504,316,-27.0965,-9.32269,0.000972847,-0.000937972,0.000432781,0.0010663,-0.00103142,0.212665,0.00121117,0.0161326,720,708,-27.0965,9.3227
-497,316,-27.1541,-10.2097,0.000771016,-0.00136992,0.000836804,0.00105928,-0.00165818,0.331747,0.00158157,0.01437,727,708,-27.1541,10.2097
-490,316,-27.2026,-11.1392,0.000801874,-0.00159883,0.00105297,0.00119827,-0.00199522,0.360042,0.0018628,0.0194138,734,708,-27.2026,11.1391
-483,316,-27.2234,-12.1601,0,0,0,0,0,0,0,-1,741,708,-27.2234,12.1601
-476,316,-8.90894,-3.31207,0,0,0,0,0,0,0,-1,748,708,-8.90896,3.31206
-469,316,-6.24194,-1.42725,0,0,0,0,0,0,0,-1,755,708,-6.24192,1.42725
-462,316,-5.74237,-1.40039,0,0,0,0,0,0,0,-1,762,708,-5.74238,1.40039
-455,316,-5.44745,-1.21899,0,0,0,0,0,0,0,-1,769,708,-5.44746,1.21898
-448,316,-14.8945,0.655396,0,0,0,0,0,0,0,-1,776,708,-14.8946,-0.655396
-441,316,-14.9626,0.576111,0,0,0,0,0,0,0,-1,783,708,-14.9626,-0.576115
-434,316,-27.7723,1.15576,0,0,0,0,0,0,0,-1,790,708,-27.7723,-1.15579
-427,316,-28.0504,1.31427,0,0,0,0,0,0,0,-1,797,708,-28.0504,-1.31427
-420,316,-28.198,1.62891,0,0,0,0,0,0,0,-1,804,708,-28.198,-1.62889
-413,316,0,0,0,0,0,0,0,0,0,-1,811,708,0,0
-406,316,0,0,0,0,0,0,0,0,0,-1,818,708,0,0
-399,316,0,0,0,0,0,0,0,0,0,-1,825,708,0,0
-392,316,0,0,0,0,0,0,0,0,0,-1,832,708,0,0
-385,316,0,0,0,0,0,0,0,0,0,-1,839,708,0,0
-378,316,0,0,0,0,0,0,0,0,0,-1,846,708,0,0
-371,316,0,0,0,0,0,0,0,0,0,-1,853,708,0,0
-364,316,0,0,0,0,0,0,0,0,0,-1,860,708,0,0
-357,316,0,0,0,0,0,0,0,0,0,-1,867,708,0,0
-350,316,0,0,0,0,0,0,0,0,0,-1,874,708,0,0
-343,316,0,0,0,0,0,0,0,0,0,-1,881,708,0,0
-336,316,0,0,0,0,0,0,0,0,0,-1,888,708,0,0
-329,316,0,0,0,0,0,0,0,0,0,-1,895,708,0,0
-322,316,0,0,0,0,0,0,0,0,0,-1,902,708,0,0
-315,316,0,0,0,0,0,0,0,0,0,-1,909,708,0,0
-308,316,0,0,0,0,0,0,0,0,0,-1,916,708,0,0
-301,316,0,0,0,0,0,0,0,0,0,-1,923,708,0,0
-294,316,0,0,0,0,0,0,0,0,0,-1,930,708,0,0
-287,316,0,0,0,0,0,0,0,0,0,-1,937,708,0,0
-280,316,0,0,0,0,0,0,0,0,0,-1,944,708,0,0
-273,316,0,0,0,0,0,0,0,0,0,-1,951,708,0,0
-266,316,0,0,0,0,0,0,0,0,0,-1,958,708,0,0
-259,316,0,0,0,0,0,0,0,0,0,-1,965,708,0,0
-252,316,0,0,0,0,0,0,0,0,0,-1,972,708,0,0
-245,316,0,0,0,0,0,0,0,0,0,-1,979,708,0,0
-238,316,0,0,0,0,0,0,0,0,0,-1,986,708,0,0
-231,316,0,0,0,0,0,0,0,0,0,-1,993,708,0,0
-224,316,0,0,0,0,0,0,0,0,0,-1,1000,708,0,0
-217,316,0,0,0,0,0,0,0,0,0,-1,1007,708,0,0
-210,316,0,0,0,0,0,0,0,0,0,-1,1014,708,0,0
-203,316,0,0,0,0,0,0,0,0,0,-1,1021,708,0,0
-196,316,0,0,0,0,0,0,0,0,0,-1,1028,708,0,0
-189,316,0,0,0,0,0,0,0,0,0,-1,1035,708,0,0
-182,316,0,0,0,0,0,0,0,0,0,-1,1042,708,0,0
-175,316,0,0,0,0,0,0,0,0,0,-1,1049,708,0,0
-168,316,0,0,0,0,0,0,0,0,0,-1,1056,708,0,0
-161,316,0,0,0,0,0,0,0,0,0,-1,1063,708,0,0
-154,316,0,0,0,0,0,0,0,0,0,-1,1070,708,0,0
-147,316,0,0,0,0,0,0,0,0,0,-1,1077,708,0,0
-140,316,0,0,0,0,0,0,0,0,0,-1,1084,708,0,0
-133,316,0,0,0,0,0,0,0,0,0,-1,1091,708,0,0
-126,316,0,0,0,0,0,0,0,0,0,-1,1098,708,0,0
-119,316,0,0,0,0,0,0,0,0,0,-1,1105,708,0,0
-112,316,0,0,0,0,0,0,0,0,0,-1,1112,708,0,0
-105,316,0,0,0,0,0,0,0,0,0,-1,1119,708,0,0
-98,316,0,0,0,0,0,0,0,0,0,-1,1126,708,0,0
-91,316,0,0,0,0,0,0,0,0,0,-1,1133,708,0,0
-84,316,0,0,0,0,0,0,0,0,0,-1,1140,708,0,0
-77,316,0,0,0,0,0,0,0,0,0,-1,1147,708,0,0
-70,316,0,0,0,0,0,0,0,0,0,-1,1154,708,0,0
-63,316,0,0,0,0,0,0,0,0,0,-1,1161,708,0,0
-56,316,0,0,0,0,0,0,0,0,0,-1,1168,708,0,0
-49,316,0,0,0,0,0,0,0,0,0,-1,1175,708,0,0
-42,316,0,0,0,0,0,0,0,0,0,-1,1182,708,0,0
-35,316,0,0,0,0,0,0,0,0,0,-1,1189,708,0,0
-28,316,0,0,0,0,0,0,0,0,0,-1,1196,708,0,0
-21,316,0,0,0,0,0,0,0,0,0,-1,1203,708,0,0
-14,316,0,0,0,0,0,0,0,0,0,-1,1210,708,0,0
-7,316,0,0,0,0,0,0,0,0,0,-1,1217,708,0,0
0,316,0,0,0,0,0,0,0,0,0,-1,1224,708,0,0
7,316,0,0,0,0,0,0,0,0,0,-1,1231,708,0,0
14,316,0,0,0,0,0,0,0,0,0,-1,1238,708,0,0
21,316,0,0,0,0,0,0,0,0,0,-1,1245,708,0,0
28,316,0,0,0,0,0,0,0,0,0,-1,1252,708,0,0
35,316,0,0,0,0,0,0,0,0,0,-1,1259,708,0,0
42,316,0,0,0,0,0,0,0,0,0,-1,1266,708,0,0
49,316,0,0,0,0,0,0,0,0,0,-1,1273,708,0,0
56,316,0,0,0,0,0,0,0,0,0,-1,1280,708,0,0
63,316,0,0,0,0,0,0,0,0,0,-1,1287,708,0,0
70,316,0,0,0,0,0,0,0,0,0,-1,1294,708,0,0
77,316,0,0,0,0,0,0,0,0,0,-1,1301,708,0,0
84,316,0,0,0,0,0,0,0,0,0,-1,1308,708,0,0
91,316,0,0,0,0,0,0,0,0,0,-1,1315,708,0,0
98,316,0,0,0,0,0,0,0,0,0,-1,1322,708,0,0
105,316,0,0,0,0,0,0,0,0,0,-1,1329,708,0,0
112,316,0,0,0,0,0,0,0,0,0,-1,1336,708,0,0
119,316,0,0,0,0,0,0,0,0,0,-1,1343,708,0,0
126,316,0,0,0,0,0,0,0,0,0,-1,1350,708,0,0
133,316,0,0,0,0,0,0,0,0,0,-1,1357,708,0,0
140,316,0,0,0,0,0,0,0,0,0,-1,1364,708,0,0
147,316,0,0,0,0,0,0,0,0,0,-1,1371,708,0,0
154,316,0,0,0,0,0,0,0,0,0,-1,1378,708,0,0
161,316,0,0,0,0,0,0,0,0,0,-1,1385,708,0,0
168,316,0,0,0,0,0,0,0,0,0,-1,1392,708,0,0
175,316,0,0,0,0,0,0,0,0,0,-1,1399,708,0,0
182,316,0,0,0,0,0,0,0,0,0,-1,1406,708,0,0
189,316,0,0,0,0,0,0,0,0,0,-1,1413,708,0,0
196,316,0,0,0,0,0,0,0,0,0,-1,1420,708,0,0
203,316,0,0,0,0,0,0,0,0,0,-1,1427,708,0,0
210,316,0,0,0,0,0,0,0,0,0,-1,1434,708,0,0
217,316,0,0,0,0,0,0,0,0,0,-1,1441,708,0,0
224,316,0,0,0,0,0,0,0,0,0,-1,1448,708,0,0
231,316,0,0,0,0,0,0,0,0,0,-1,1455,708,0,0
238,316,0,0,0,0,0,0,0,0,0,-1,1462,708,0,0
245,316,0,0,0,0,0,0,0,0,0,-1,1469,708,0,0
252,316,0,0,0,0,0,0,0,0,0,-1,1476,708,0,0
259,316,0,0,0,0,0,0,0,0,0,-1,1483,708,0,0
266,316,0,0,0,0,0,0,0,0,0,-1,1490,708,0,0
273,316,0,0,0,0,0,0,0,0,0,-1,1497,708,0,0
280,316,0,0,0,0,0,0,0,0,0,-1,1504,708,0,0
287,316,0,0,0,0,0,0,0,0,0,-1,1511,708,0,0
294,316,0,0,0,0,0,0,0,0,0,-1,1518,708,0,0
301,316,0,0,0,0,0,0,0,0,0,-1,1525,708,0,0
308,316,0,0,0,0,0,0,0,0,0,-1,1532,708,0,0
315,316,0,0,0,0,0,0,0,0,0,-1,1539,708,0,0
322,316,0,0,0,0,0,0,0,0,0,-1,1546,708,0,0
329,316,0,0,0,0,0,0,0,0,0,-1,1553,708,0,0
336,316,0,0,0,0,0,0,0,0,0,-1,1560,708,0,0
343,316,0,0,0,0,0,0,0,0,0,-1,1567,708,0,0
350,316,0,0,0,0,0,0,0,0,0,-1,1574,708,0,0
357,316,0,0,0,0,0,0,0,0,0,-1,1581,708,0,0
364,316,0,0,0,0,0,0,0,0,0,-1,1588,708,0,0
371,316,0,0,0,0,0,0,0,0,0,-1,1595,708,0,0
378,316,0,0,0,0,0,0,0,0,0,-1,1602,708,0,0
385,316,0,0,0,0,0,0,0,0,0,-1,1609,708,0,0
392,316,0,0,0,0,0,0,0,0,0,-1,1616,708,0,0
399,316,0,0,0,0,0,0,0,0,0,-1,1623,708,0,0
406,316,0,0,0,0,0,0,0,0,0,-1,1630,708,0,0
413,316,0,0,0,0,0,0,0,0,0,-1,1637,708,0,0
420,316,0,0,0,0,0,0,0,0,0,-1,1644,708,0,0
427,316,0,0,0,0,0,0,0,0,0,-1,1651,708,0,0
434,316,0,0,0,0,0,0,0,0,0,-1,1658,708,0,0
441,316,0,0,0,0,0,0,0,0,0,-1,1665,708,0,0
448,316,0,0,0,0,0,0,0,0,0,-1,1672,708,0,0
455,316,0,0,0,0,0,0,0,0,0,-1,1679,708,0,0
462,316,0,0,0,0,0,0,0,0,0,-1,1686,708,0,0
469,316,0,0,0,0,0,0,0,0,0,-1,1693,708,0,0
476,316,0,0,0,0,0,0,0,0,0,-1,1700,708,0,0
483,316,0,0,0,0,0,0,0,0,0,-1,1707,708,0,0
490,316,0,0,0,0,0,0,0,0,0,-1,1714,708,0,0
497,316,0,0,0,0,0,0,0,0,0,-1,1721,708,0,0
504,316,0,0,0,0,0,0,0,0,0,-1,1728,708,0,0
511,316,0,0,0,0,0,0,0,0,0,-1,1735,708,0,0
518,316,0,0,0,0,0,0,0,0,0,-1,1742,708,0,0
525,316,0,0,0,0,0,0,0,0,0,-1,1749,708,0,0
532,316,33.8604,0.531128,0,0,0,0,0,0,0,-1,1756,708,33.8604,-0.531151
539,316,44.4543,2.73468,0,0,0,0,0,0,0,-1,1763,708,44.4543,-2.7347
546,316,44.713,3.35498,0,0,0,0,0,0,0,-1,1770,708,44.7131,-3.35501
553,316,39.9031,6.57275,0,0,0,0,0,0,0,-1,1777,708,39.9031,-6.57274
560,316,39.1196,1.10046,0,0,0,0,0,0,0,-1,1784,708,39.1197,-1.10048
567,316,47.3683,6.04919,0,0,0,0,0,0,0,-1,1791,708,47.3683,-6.04918
574,316,45.9872,6.7655,0,0,0,0,0,0,0,-1,1798,708,45.9871,-6.76552
581,316,24.6815,7.77496,0,0,0,0,0,0,0,-1,1805,708,24.6815,-7.77499
588,316,19.7659,2.90198,0,0,0,0,0,0,0,-1,1812,708,19.7659,-2.902
595,316,12.5363,1.50702,0,0,0,0,0,0,0,-1,1819,708,12.5363,-1.50701
602,316,7.79919,0.0422363,0,0,0,0,0,0,0,-1,1826,708,7.79923,-0.0422066
609,316,42.9592,-11.4188,0,0,0,0,0,0,0,-1,1833,708,42.9592,11.4188
616,316,43.0549,-10.569,0.00243272,-0.00184693,0.000123717,0.00243629,-0.00185051,0.028876,0.00248268,0.0168086,1840,708,43.0549,10.569
623,316,43.0079,-9.68622,0.00187684,-0.00128759,0.000163882,0.00188531,-0.00129606,0.0516047,0.00184723,0.0127557,1847,708,43.008,9.68621
630,316,42.9441,-8.81061,0.00165954,-0.000885428,0.000228046,0.00167982,-0.000905701,0.0886651,0.00151489,0.0135986,1854,708,42.9441,8.81062
637,316,42.8966,-7.84222,0.00152514,-0.000442336,0.000338237,0.00158167,-0.00049886,0.165583,0.00125425,0.0124342,1861,708,42.8966,7.8422
644,316,42.8767,-6.91321,0.00149191,4.23374e-05,0.000488387,0.0016411,-0.000106854,0.296475,0.00113137,0.0127834,1868,708,42.8767,6.91319
651,316,42.8066,-5.99475,0.00154894,0.000564638,0.000646398,0.00186922,0.000244358,0.460029,0.0011732,0.0189994,1875,708,42.8067,5.99474
658,316,42.6954,-4.99957,0.00169474,0.00117322,0.000796122,0.00227172,0.000596241,0.627136,0.00136002,0.0398082,1882,708,42.6955,4.99955
665,316,42.5542,-4.0697,0.00198828,0.00183191,0.000998614,0.00291176,0.000908423,0.746332,0.00172027,0.028063,1889,708,42.5542,4.0697
672,316,42.5889,-3.18231,0.00244733,0.00259885,0.00119573,0.00372121,0.00132496,0.817036,0.00217792,0.0151658,1896,708,42.5888,3.1823
679,316,42.6055,-2.27802,0,0,0,0,0,0,0,-1,1903,708,42.6055,2.27803
686,316,34.0828,0.223206,0,0,0,0,0,0,0,-1,1910,708,34.0828,-0.223183
693,316,26.4315,1.80652,0,0,0,0,0,0,0,-1,1917,708,26.4315,-1.80651
700,316,12.8749,2.89136,0,0,0,0,0,0,0,-1,1924,708,12.8748,-2.89137
707,316,15.7089,5.41486,0,0,0,0,0,0,0,-1,1931,708,15.7088,-5.41487
714,316,16.1727,5.52045,0,0,0,0,0,0,0,-1,1938,708,16.1728,-5.52042
721,316,16.7094,6.53351,0,0,0,0,0,0,0,-1,1945,708,16.7094,-6.5335
728,316,0,0,0,0,0,0,0,0,0,-1,1952,708,0,0
735,316,0,0,0,0,0,0,0,0,0,-1,1959,708,0,0
742,316,0,0,0,0,0,0,0,0,0,-1,1966,708,0,0
749,316,0,0,0,0,0,0,0,0,0,-1,1973,708,0,0
756,316,0,0,0,0,0,0,0,0,0,-1,1980,708,0,0
763,316,0,0,0,0,0,0,0,0,0,-1,1987,708,0,0
770,316,0,0,0,0,0,0,0,0,0,-1,1994,708,0,0
777,316,0,0,0,0,0,0,0,0,0,-1,2001,708,0,0
784,316,0,0,0,0,0,0,0,0,0,-1,2008,708,0,0
791,316,0,0,0,0,0,0,0,0,0,-1,2015,708,0,0
798,316,0,0,0,0,0,0,0,0,0,-1,2022,708,0,0
805,316,0,0,0,0,0,0,0,0,0,-1,2029,708,0,0
812,316,0,0,0,0,0,0,0,0,0,-1,2036,708,0,0
-700,309,0,0,0,0,0,0,0,0,0,-1,524,715,0,0
-693,309,0,0,0,0,0,0,0,0,0,-1,531,715,0,0
-686,309,0,0,0,0,0,0,0,0,0,-1,538,715,0,0
-679,309,0,0,0,0,0,0,0,0,0,-1,545,715,0,0
-672,309,0,0,0,0,0,0,0,0,0,-1,552,715,0,0
-665,309,0,0,0,0,0,0,0,0,0,-1,559,715,0,0
-658,309,0,0,0,0,0,0,0,0,0,-1,566,715,0,0
-651,309,0,0,0,0,0,0,0,0,0,-1,573,715,0,0
-644,309,0,0,0,0,0,0,0,0,0,-1,580,715,0,0
-637,309,0,0,0,0,0,0,0,0,0,-1,587,715,0,0
-630,309,0,0,0,0,0,0,0,0,0,-1,594,715,0,0
-623,309,0,0,0,0,0,0,0,0,0,-1,601,715,0,0
-616,309,0,0,0,0,0,0,0,0,0,-1,608,715,0,0
-609,309,-5.95392,-3.93689,0,0,0,0,0,0,0,-1,615,715,-5.95392,3.93686
-602,309,-4.99786,-3.31287,0,0,0,0,0,0,0,-1,622,715,-4.99786,3.31284
-595,309,-6.80847,2.4046,0,0,0,0,0,0,0,-1,629,715,-6.80845,-2.40458
-588,309,-6.08795,2.19324,0,0,0,0,0,0,0,-1,636,715,-6.08793,-2.19325
-581,309,-5.97552,1.3277,0,0,0,0,0,0,0,-1,643,715,-5.97552,-1.32769
-574,309,-8.73602,0.208435,0,0,0,0,0,0,0,-1,650,715,-8.73604,-0.208437
-567,309,-10.3909,0.85968,0,0,0,0,0,0,0,-1,657,715,-10.3909,-0.859696
-560,309,-18.6088,-1.73389,0,0,0,0,0,0,0,-1,664,715,-18.6088,1.73389
-553,309,-27.9545,-2.70056,0,0,0,0,0,0,0,-1,671,715,-27.9545,2.70057
-546,309,-27.8102,-3.67285,0.000960048,0.00411095,-0.00247118,0.00546616,-0.000395164,-1.06918,0.00378272,0.0404563,678,715,-27.8102,3.67285
-539,309,-27.7122,-4.67883,0.00120624,0.0028418,-0.00188911,0.00408254,-3.45011e-05,-0.989666,0.00273327,0.0154917,685,715,-27.7122,4.67881
-532,309,-27.7557,-5.60193,0.00119165,0.00168944,-0.00126594,0.00273072,0.00015037,-0.882466,0.00177248,0.0123616,692,715,-27.7558,5.60192
-525,309,-27.8265,-6.51697,0.0011048,0.000715842,-0.000696111,0.00163309,0.000187554,-0.649181,0.00103191,0.0162841,699,715,-27.8265,6.51697
-518,309,-27.8741,-7.43195,0.00101346,-5.02878e-05,-0.000141643,0.001032,-6.88251e-05,-0.130134,0.000712051,0.0168472,706,715,-27.8742,7.43196
-511,309,-27.9488,-8.3338,0.000751702,-0.00074097,0.000400971,0.000852594,-0.000841862,0.246502,0.000978301,0.0133335,713,715,-27.9488,8.33383
-504,309,-28.0163,-9.25787,0.000410932,-0.00135287,0.000954389,0.000828495,-0.00177044,0.412426,0.00153299,0.0110456,720,715,-28.0163,9.25789
-497,309,-28.0609,-10.1494,0.000192212,-0.00182112,0.00139567,0.000906381,-0.00253529,0.472966,0.0020599,0.015572,727,715,-28.0609,10.1494
-490,309,-28.0424,-11.0812,0,0,0,0,0,0,0,-1,734,715,-28.0424,11.0812
-483,309,-17.7261,-7.75836,0,0,0,0,0,0,0,-1,741,715,-17.7261,7.75839
-476,309,-5.29486,-1.2262,0,0,0,0,0,0,0,-1,748,715,-5.29484,1.22622
-469,309,-4.22717,-0.592896,0,0,0,0,0,0,0,-1,755,715,-4.2272,0.592905
-462,309,-10.428,2.46948,0,0,0,0,0,0,0,-1,762,715,-10.428,-2.46947
-455,309,-15.8216,0.00915527,0,0,0,0,0,0,0,-1,769,715,-15.8216,-0.00913359
-448,309,-37.3543,-1.02441,0,0,0,0,0,0,0,-1,776,715,-37.3543,1.02444
-441,309,-19.8181,1.4425,0,0,0,0,0,0,0,-1,783,715,-19.8181,-1.44249
-434,309,-46.7953,1.72064,0,0,0,0,0,0,0,-1,790,715,-46.7953,-1.72067
-427,309,-27.8553,1.40332,0,0,0,0,0,0,0,-1,797,715,-27.8553,-1.40334
-420,309,-27.3148,1.90747,0,0,0,0,0,0,0,-1,804,715,-27.3148,-1.90745
-413,309,0,0,0,0,0,0,0,0,0,-1,811,715,0,0
-406,309,0,0,0,0,0,0,0,0,0,-1,818,715,0,0
-399,309,0,0,0,0,0,0,0,0,0,-1,825,715,0,0
-392,309,0,0,0,0,0,0,0,0,0,-1,832,715,0,0
-385,309,0,0,0,0,0,0,0,0,0,-1,839,715,0,0
-378,309,0,0,0,0,0,0,0,0,0,-1,846,715,0,0
-371,309,0,0,0,0,0,0,0,0,0,-1,853,715,0,0
-364,309,0,0,0,0,0,0,0,0,0,-1,860,715,0,0
-357,309,0,0,0,0,0,0,0,0,0,-1,867,715,0,0
-350,309,0,0,0,0,0,0,0,0,0,-1,874,715,0,0
-343,309,0,0,0,0,0,0,0,0,0,-1,881,715,0,0
-336,309,0,0,0,0,0,0,0,0,0,-1,888,715,0,0
-329,309,0,0,0,0,0,0,0,0,0,-1,895,715,0,0
-322,309,0,0,0,0,0,0,0,0,0,-1,902,715,0,0
-315,309,0,0,0,0,0,0,0,0,0,-1,909,715,0,0
-308,309,0,0,0,0,0,0,0,0,0,-1,916,715,0,0
-301,309,0,0,0,0,0,0,0,0,0,-1,923,715,0,0
-294,309,0,0,0,0,0,0,0,0,0,-1,930,715,0,0
-287,309,0,0,0,0,0,0,0,0,0,-1,937,715,0,0
-280,309,0,0,0,0,0,0,0,0,0,-1,944,715,0,0
-273,309,0,0,0,0,0,0,0,0,0,-1,951,715,0,0
-266,309,0,0,0,0,0,0,0,0,0,-1,958,715,0,0
-259,309,0,0,0,0,0,0,0,0,0,-1,965,715,0,0
-252,309,0,0,0,0,0,0,0,0,0,-1,972,715,0,0
-245,309,0,0,0,0,0,0,0,0,0,-1,979,715,0,0
-238,309,0,0,0,0,0,0,0,0,0,-1,986,715,0,0
-231,309,0,0,0,0,0,0,0,0,0,-1,993,715,0,0
-224,309,0,0,0,0,0,0,0,0,0,-1,1000,715,0,0
-217,309,0,0,0,0,0,0,0,0,0,-1,1007,715,0,0
-210,309,0,0,0,0,0,0,0,0,0,-1,1014,715,0,0
-203,309,0,0,0,0,0,0,0,0,0,-1,1021,715,0,0
-196,309,0,0,0,0,0,0,0,0,0,-1,1028,715,0,0
-189,309,0,0,0,0,0,0,0,0,0,-1,1035,715,0,0
-182,309,0,0,0,0,0,0,0,0,0,-1,1042,715,0,0
-175,309,0,0,0,0,0,0,0,0,0,-1,1049,715,0,0
-168,309,0,0,0,0,0,0,0,0,0,-1,1056,715,0,0
-161,309,0,0,0,0,0,0,0,0,0,-1,1063,715,0,0
-154,309,0,0,0,0,0,0,0,0,0,-1,1070,715,0,0
-147,309,0,0,0,0,0,0,0,0,0,-1,1077,715,0,0
-140,309,0,0,0,0,0,0,0,0,0,-1,1084,715,0,0
-133,309,0,0,0,0,0,0,0,0,0,-1,1091,715,0,0
-126,309,0,0,0,0,0,0,0,0,0,-1,1098,715,0,0
-119,309,0,0,0,0,0,0,0,0,0,-1,1105,715,0,0
-112,309,0,0,0,0,0,0,0,0,0,-1,1112,715,0,0
-105,309,0,0,0,0,0,0,0,0,0,-1,1119,715,0,0
-98,309,0,0,0,0,0,0,0,0,0,-1,1126,715,0,0
-91,309,0,0,0,0,0,0,0,0,0,-1,1133,715,0,0
-84,309,0,0,0,0,0,0,0,0,0,-1,1140,715,0,0
-77,309,0,0,0,0,0,0,0,0,0,-1,1147,715,0,0
-70,309,0,0,0,0,0,0,0,0,0,-1,1154,715,0,0
-63,309,0,0,0,0,0,0,0,0,0,-1,1161,715,0,0
-56,309,0,0,0,0,0,0,0,0,0,-1,1168,715,0,0
-49,309,0,0,0,0,0,0,0,0,0,-1,1175,715,0,0
-42,309,0,0,0,0,0,0,0,0,0,-1,1182,715,0,0
-35,309,0,0,0,0,0,0,0,0,0,-1,1189,715,0,0
-28,309,0,0,0,0,0,0,0,0,0,-1,1196,715,0,0
-21,309,0,0,0,0,0,0,0,0,0,-1,1203,715,0,0
-14,309,0,0,0,0,0,0,0,0,0,-1,1210,715,0,0
-7,309,0,0,0,0,0,0,0,0,0,-1,1217,715,0,0
0,309,0,0,0,0,0,0,0,0,0,-1,1224,715,0,0
7,309,0,0,0,0,0,0,0,0,0,-1,1231,715,0,0
14,309,0,0,0,0,0,0,0,0,0,-1,1238,715,0,0
21,309,0,0,0,0,0,0,0,0,0,-1,1245,715,0,0
28,309,0,0,0,0,0,0,0,0,0,-1,1252,715,0,0
35,309,0,0,0,0,0,0,0,0,0,-1,1259,715,0,0
42,309,0,0,0,0,0,0,0,0,0,-1,1266,715,0,0
49,309,0,0,0,0,0,0,0,0,0,-1,1273,715,0,0
56,309,0,0,0,0,0,0,0,0,0,-1,1280,715,0,0
63,309,0,0,0,0,0,0,0,0,0,-1,1287,715,0,0
70,309,0,0,0,0,0,0,0,0,0,-1,1294,715,0,0
77,309,0,0,0,0,0,0,0,0,0,-1,1301,715,0,0
84,309,0,0,0,0,0,0,0,0,0,-1,1308,715,0,0
91,309,0,0,0,0,0,0,0,0,0,-1,1315,715,0,0
98,309,0,0,0,0,0,0,0,0,0,-1,1322,715,0,0
105,309,0,0,0,0,0,0,0,0,0,-1,1329,715,0,0
112,309,0,0,0,0,0,0,0,0,0,-1,1336,715,0,0
119,309,0,0,0,0,0,0,0,0,0,-1,1343,715,0,0
126,309,0,0,0,0,0,0,0,0,0,-1,1350,715,0,0
133,309,0,0,0,0,0,0,0,0,0,-1,1357,715,0,0
140,309,0,0,0,0,0,0,0,0,0,-1,1364,715,0,0
147,309,0,0,0,0,0,0,0,0,0,-1,1371,715,0,0
154,309,0,0,0,0,0,0,0,0,0,-1,1378,715,0,0
161,309,0,0,0,0,0,0,0,0,0,-1,1385,715,0,0
168,309,0,0,0,0,0,0,0,0,0,-1,1392,715,0,0
175,309,0,0,0,0,0,0,0,0,0,-1,1399,715,0,0
182,309,0,0,0,0,0,0,0,0,0,-1,1406,715,0,0
189,309,0,0,0,0,0,0,0,0,0,-1,1413,715,0,0
196,309,0,0,0,0,0,0,0,0,0,-1,1420,715,0,0
203,309,0,0,0,0,0,0,0,0,0,-1,1427,715,0,0
210,309,0,0,0,0,0,0,0,0,0,-1,1434,715,0,0
217,309,0,0,0,0,0,0,0,0,0,-1,1441,715,0,0
224,309,0,0,0,0,0,0,0,0,0,-1,1448,715,0,0
231,309,0,0,0,0,0,0,0,0,0,-1,1455,715,0,0
238,309,0,0,0,0,0,0,0,0,0,-1,1462,715,0,0
245,309,0,0,0,0,0,0,0,0,0,-1,1469,715,0,0
252,309,0,0,0,0,0,0,0,0,0,-1,1476,715,0,0
259,309,0,0,0,0,0,0,0,0,0,-1,1483,715,0,0
266,309,0,0,0,0,0,0,0,0,0,-1,1490,715,0,0
273,309,0,0,0,0,0,0,0,0,0,-1,1497,715,0,0
280,309,0,0,0,0,0,0,0,0,0,-1,1504,715,0,0
287,309,0,0,0,0,0,0,0,0,0,-1,1511,715,0,0
294,309,0,0,0,0,0,0,0,0,0,-1,1518,715,0,0
301,309,0,0,0,0,0,0,0,0,0,-1,1525,715,0,0
308,309,0,0,0,0,0,0,0,0,0,-1,1532,715,0,0
315,309,0,0,0,0,0,0,0,0,0,-1,1539,715,0,0
322,309,0,0,0,0,0,0,0,0,0,-1,1546,715,0,0
329,309,0,0,0,0,0,0,0,0,0,-1,1553,715,0,0
336,309,0,0,0,0,0,0,0,0,0,-1,1560,715,0,0
343,309,0,0,0,0,0,0,0,0,0,-1,1567,715,0,0
350,309,0,0,0,0,0,0,0,0,0,-1,1574,715,0,0
357,309,0,0,0,0,0,0,0,0,0,-1,1581,715,0,0
364,309,0,0,0,0,0,0,0,0,0,-1,1588,715,0,0
371,309,0,0,0,0,0,0,0,0,0,-1,1595,715,0,0
378,309,0,0,0,0,0,0,0,0,0,-1,1602,715,0,0
385,309,0,0,0,0,0,0,0,0,0,-1,1609,715,0,0
392,309,0,0,0,0,0,0,0,0,0,-1,1616,715,0,0
399,309,0,0,0,0,0,0,0,0,0,-1,1623,715,0,0
406,309,0,0,0,0,0,0,0,0,0,-1,1630,715,0,0
413,309,0,0,0,0,0,0,0,0,0,-1,1637,715,0,0
420,309,0,0,0,0,0,0,0,0,0,-1,1644,715,0,0
427,309,0,0,0,0,0,0,0,0,0,-1,1651,715,0,0
434,309,0,0,0,0,0,0,0,0,0,-1,1658,715,0,0
441,309,0,0,0,0,0,0,0,0,0,-1,1665,715,0,0
448,309,0,0,0,0,0,0,0,0,0,-1,1672,715,0,0
455,309,0,0,0,0,0,0,0,0,0,-1,1679,715,0,0
462,309,0,0,0,0,0,0,0,0,0,-1,1686,715,0,0
469,309,0,0,0,0,0,0,0,0,0,-1,1693,715,0,0
476,309,0,0,0,0,0,0,0,0,0,-1,1700,715,0,0
483,309,0,0,0,0,0,0,0,0,0,-1,1707,715,0,0
490,309,0,0,0,0,0,0,0,0,0,-1,1714,715,0,0
497,309,0,0,0,0,0,0,0,0,0,-1,1721,715,0,0
504,309,0,0,0,0,0,0,0,0,0,-1,1728,715,0,0
511,309,0,0,0,0,0,0,0,0,0,-1,1735,715,0,0
518,309,0,0,0,0,0,0,0,0,0,-1,1742,715,0,0
525,309,0,0,0,0,0,0,0,0,0,-1,1749,715,0,0
532,309,0,0,0,0,0,0,0,0,0,-1,1756,715,0,0
539,309,44.2073,2.66235,0,0,0,0,0,0,0,-1,1763,715,44.2073,-2.66238
546,309,44.4976,3.25531,0,0,0,0,0,0,0,-1,1770,715,44.4976,-3.25533
553,309,47.9611,4.06433,0,0,0,0,0,0,0,-1,1777,715,47.9611,-4.06434
560,309,47.9784,4.64801,0,0,0,0,0,0,0,-1,1784,715,47.9784,-4.64799
567,309,47.0073,5.43121,0,0,0,0,0,0,0,-1,1791,715,47.0073,-5.43121
574,309,45.8746,6.53271,0,0,0,0,0,0,0,-1,1798,715,45.8747,-6.53269
581,309,45.0629,7.73468,0,0,0,0,0,0,0,-1,1805,715,45.0629,-7.73471
588,309,26.2064,7.76422,0,0,0,0,0,0,0,-1,1812,715,26.2064,-7.7642
595,309,19.585,3.71558,0,0,0,0,0,0,0,-1,1819,715,19.5849,-3.71555
602,309,11.0811,3.47772,0,0,0,0,0,0,0,-1,1826,715,11.0811,-3.47772
609,309,44.0114,-11.3978,0,0,0,0,0,0,0,-1,1833,715,44.0113,11.3978
616,309,43.9736,-10.4973,0.00269041,-0.00202363,-2.03927e-05,0.0026905,-0.00202372,-0.00432585,0.00273081,0.0336965,1840,715,43.9737,10.4973
623,309,43.9346,-9.6142,0.001962,-0.00139046,8.09525e-05,0.00196395,-0.00139241,0.0241285,0.00194714,0.0127879,1847,715,43.9346,9.61422
630,309,43.8527,-8.73096,0.00168154,-0.000989273,0.000166691,0.0016919,-0.000999636,0.0620911,0.001571,0.0122195,1854,715,43.8527,8.73099
637,309,43.7832,-7.79486,0.00149882,-0.000561454,0.000292636,0.00153958,-0.000602213,0.138391,0.00127543,0.0146873,1861,715,43.7832,7.79485
644,309,43.7158,-6.85815,0.00143593,-7.40263e-05,0.000459901,0.00156498,-0.000203073,0.273563,0.00111718,0.0148726,1868,715,43.7159,6.85817
651,309,43.6726,-5.93317,0.00147813,0.000447409,0.000640365,0.00178476,0.000140781,0.44657,0.0011458,0.0154656,1875,715,43.6726,5.93318
658,309,43.6133,-4.95551,0.00161253,0.00106208,0.000806776,0.00218974,0.000484876,0.621015,0.00132804,0.0225246,1882,715,43.6133,4.95553
665,309,43.576,-4.03113,0.00187652,0.0017353,0.00102703,0.00283536,0.000776458,0.751076,0.00169189,0.019646,1889,715,43.5761,4.03113
672,309,43.5128,-3.15582,0.00229144,0.00252373,0.00126871,0.0036816,0.00113357,0.831044,0.00217724,0.0176414,1896,715,43.5129,3.15581
679,309,43.5057,-2.17291,0.00281058,0.00348016,0.0015344,0.00471587,0.00157487,0.89281,0.0027723,0.0303952,1903,715,43.5057,2.17291
686,309,43.5267,-1.07068,0,0,0,0,0,0,0,-1,1910,715,43.5268,1.07066
693,309,32.7026,1.51727,0,0,0,0,0,0,0,-1,1917,715,32.7026,-1.51727
700,309,23.0179,3.08337,0,0,0,0,0,0,0,-1,1924,715,23.018,-3.08336
707,309,15.6318,4.58655,0,0,0,0,0,0,0,-1,1931,715,15.6318,-4.58657
714,309,16.7573,6.68286,0,0,0,0,0,0,0,-1,1938,715,16.7574,-6.68284
721,309,16.8337,5.4458,0,0,0,0,0,0,0,-1,1945,715,16.8338,-5.44582
728,309,0,0,0,0,0,0,0,0,0,-1,1952,715,0,0
735,309,0,0,0,0,0,0,0,0,0,-1,1959,715,0,0
742,309,0,0,0,0,0,0,0,0,0,-1,1966,715,0,0
749,309,0,0,0,0,0,0,0,0,0,-1,1973,715,0,0
756,309,0,0,0,0,0,0,0,0,0,-1,1980,715,0,0
763,309,0,0,0,0,0,0,0,0,0,-1,1987,715,0,0
770,309,0,0,0,0,0,0,0,0,0,-1,1994,715,0,0
777,309,0,0,0,0,0,0,0,0,0,-1,2001,715,0,0
784,309,0,0,0,0,0,0,0,0,0,-1,2008,715,0,0
791,309,0,0,0,0,0,0,0,0,0,-1,2015,715,0,0
798,309,0,0,0,0,0,0,0,0,0,-1,2022,715,0,0
805,309,0,0,0,0,0,0,0,0,0,-1,2029,715,0,0
812,309,0,0,0,0,0,0,0,0,0,-1,2036,715,0,0
-700,302,0,0,0,0,0,0,0,0,0,-1,524,722,0,0
-693,302,0,0,0,0,0,0,0,0,0,-1,531,722,0,0
-686,302,0,0,0,0,0,0,0,0,0,-1,538,722,0,0
-679,302,0,0,0,0,0,0,0,0,0,-1,545,722,0,0
-672,302,0,0,0,0,0,0,0,0,0,-1,552,722,0,0
-665,302,0,0,0,0,0,0,0,0,0,-1,559,722,0,0
-658,302,0,0,0,0,0,0,0,0,0,-1,566,722,0,0
-651,302,0,0,0,0,0,0,0,0,0,-1,573,722,0,0
-644,302,0,0,0,0,0,0,0,0,0,-1,580,722,0,0
-637,302,0,0,0,0,0,0,0,0,0,-1,587,722,0,0
-630,302,0,0,0,0,0,0,0,0,0,-1,594,722,0,0
-623,302,0,0,0,0,0,0,0,0,0,-1,601,722,0,0
-616,302,0,0,0,0,0,0,0,0,0,-1,608,722,0,0
-609,302,-7.79266,-3.71649,0,0,0,0,0,0,0,-1,615,722,-7.79267,3.7165
-602,302,0.92865,-1.99158,0,0,0,0,0,0,0,-1,622,722,0.928637,1.99157
-595,302,-7.89941,2.13641,0,0,0,0,0,0,0,-1,629,722,-7.89939,-2.13639
-588,302,-7.10895,1.79163,0,0,0,0,0,0,0,-1,636,722,-7.10896,-1.79163
-581,302,-9.17566,1.09448,0,0,0,0,0,0,0,-1,643,722,-9.17569,-1.09445
-574,302,-11.5183,-0.344543,0,0,0,0,0,0,0,-1,650,722,-11.5183,0.344557
-567,302,-12.1534,-0.672241,0,0,0,0,0,0,0,-1,657,722,-12.1535,0.672246
-560,302,-28.534,-1.65131,0,0,0,0,0,0,0,-1,664,722,-28.534,1.65131
-553,302,-28.6361,-2.7251,0.000334806,0.00384716,-0.00221107,0.00491463,-0.000732668,-1.12101,0.00354597,0.0422645,671,722,-28.6361,2.72508
-546,302,-28.6252,-3.68579,0.000682232,0.00294548,-0.00176391,0.00390955,-0.000281842,-1.0706,0.00270521,0.0193303,678,722,-28.6252,3.68578
-539,302,-28.6523,-4.58765,0.000775279,0.0021809,-0.00123459,0.00289871,5.74746e-05,-1.04416,0.0019136,0.0156843,685,722,-28.6523,4.58767
-532,302,-28.7057,-5.51282,0.000678594,0.00114123,-0.000702529,0.00164954,0.000170278,-0.944439,0.00104756,0.0153389,692,722,-28.7057,5.51283
-525,302,-28.7316,-6.48218,0.000554435,0.000314327,-0.000237879,0.000700838,0.000167924,-0.551704,0.000422524,0.0207697,699,722,-28.7316,6.48216
-518,302,-28.8007,-7.37238,0.00041964,-0.00033063,0.000245506,0.000492834,-0.000403825,0.289747,0.000518536,0.0220773,706,722,-28.8007,7.37239
-511,302,-28.8638,-8.26324,7.00687e-05,-0.000940409,0.000768304,0.000484372,-0.00135471,0.494548,0.00110072,0.0114773,713,722,-28.8638,8.26326
-504,302,-28.9354,-9.20465,-0.000345032,-0.00149926,0.00132179,0.000520139,-0.00236443,0.579564,0.00177525,0.0100699,720,722,-28.9353,9.20462
-497,302,-29.0192,-10.0959,-0.000614764,-0.00194763,0.0017928,0.000631461,-0.00319385,0.607449,0.00236796,0.0162385,727,722,-29.0192,10.0959
-490,302,-29.0939,-10.9807,0,0,0,0,0,0,0,-1,734,722,-29.0939,10.9807
-483,302,-9.53412,-3.1673,0,0,0,0,0,0,0,-1,741,722,-9.53411,3.1673
-476,302,-4.29749,-0.203491,0,0,0,0,0,0,0,-1,748,722,-4.29751,0.203464
-469,302,-12.369,1.42859,0,0,0,0,0,0,0,-1,755,722,-12.3689,-1.42857
-462,302,-17.4766,0.310791,0,0,0,0,0,0,0,-1,762,722,-17.4766,-0.310788
-455,302,-36.7368,-2.97418,0,0,0,0,0,0,0,-1,769,722,-36.7368,2.97416
-448,302,-42.1174,-1.44232,0,0,0,0,0,0,0,-1,776,722,-42.1174,1.44229
-441,302,-46.7637,0.580078,0,0,0,0,0,0,0,-1,783,722,-46.7636,-0.58007
-434,302,-46.574,1.30511,0,0,0,0,0,0,0,-1,790,722,-46.574,-1.30509
-427,302,-46.7514,1.51532,0,0,0,0,0,0,0,-1,797,722,-46.7514,-1.51532
-420,302,0,0,0,0,0,0,0,0,0,-1,804,722,0,0
-413,302,0,0,0,0,0,0,0,0,0,-1,811,722,0,0
-406,302,0,0,0,0,0,0,0,0,0,-1,818,722,0,0
-399,302,0,0,0,0,0,0,0,0,0,-1,825,722,0,0
-392,302,0,0,0,0,0,0,0,0,0,-1,832,722,0,0
-385,302,0,0,0,0,0,0,0,0,0,-1,839,722,0,0
-378,302,0,0,0,0,0,0,0,0,0,-1,846,722,0,0
-371,302,0,0,0,0,0,0,0,0,0,-1,853,722,0,0
-364,302,0,0,0,0,0,0,0,0,0,-1,860,722,0,0
-357,302,0,0,0,0,0,0,0,0,0,-1,867,722,0,0
-350,302,0,0,0,0,0,0,0,0,0,-1,874,722,0,0
-343,302,0,0,0,0,0,0,0,0,0,-1,881,722,0,0
-336,302,0,0,0,0,0,0,0,0,0,-1,888,722,0,0
-329,302,0,0,0,0,0,0,0,0,0,-1,895,722,0,0
-322,302,0,0,0,0,0,0,0,0,0,-1,902,722,0,0
-315,302,0,0,0,0,0,0,0,0,0,-1,909,722,0,0
-308,302,0,0,0,0,0,0,0,0,0,-1,916,722,0,0
-301,302,0,0,0,0,0,0,0,0,0,-1,923,722,0,0
-294,302,0,0,0,0,0,0,0,0,0,-1,930,722,0,0
-287,302,0,0,0,0,0,0,0,0,0,-1,937,722,0,0
-280,302,0,0,0,0,0,0,0,0,0,-1,944,722,0,0
-273,302,0,0,0,0,0,0,0,0,0,-1,951,722,0,0
-266,302,0,0,0,0,0,0,0,0,0,-1,958,722,0,0
-259,302,0,0,0,0,0,0,0,0,0,-1,965,722,0,0
-252,302,0,0,0,0,0,0,0,0,0,-1,972,722,0,0
-245,302,0,0,0,0,0,0,0,0,0,-1,979,722,0,0
-238,302,0,0,0,0,0,0,0,0,0,-1,986,722,0,0
-231,302,0,0,0,0,0,0,0,0,0,-1,993,722,0,0
-224,302,0,0,0,0,0,0,0,0,0,-1,1000,722,0,0
-217,302,0,0,0,0,0,0,0,0,0,-1,1007,722,0,0
-210,302,0,0,0,0,0,0,0,0,0,-1,1014,722,0,0
-203,302,0,0,0,0,0,0,0,0,0,-1,1021,722,0,0
-196,302,0,0,0,0,0,0,0,0,0,-1,1028,722,0,0
-189,302,0,0,0,0,0,0,0,0,0,-1,1035,722,0,0
-182,302,0,0,0,0,0,0,0,0,0,-1,1042,722,0,0
-175,302,0,0,0,0,0,0,0,0,0,-1,1049,722,0,0
-168,302,0,0,0,0,0,0,0,0,0,-1,1056,722,0,0
-161,302,0,0,0,0,0,0,0,0,0,-1,1063,722,0,0
-154,302,0,0,0,0,0,0,0,0,0,-1,1070,722,0,0
-147,302,0,0,0,0,0,0,0,0,0,-1,1077,722,0,0
-140,302,0,0,0,0,0,0,0,0,0,-1,1084,722,0,0
-133,302,0,0,0,0,0,0,0,0,0,-1,1091,722,0,0
-126,302,0,0,0,0,0,0,0,0,0,-1,1098,722,0,0
-119,302,0,0,0,0,0,0,0,0,0,-1,1105,722,0,0
-112,302,0,0,0,0,0,0,0,0,0,-1,1112,722,0,0
-105,302,0,0,0,0,0,0,0,0,0,-1,1119,722,0,0
-98,302,0,0,0,0,0,0,0,0,0,-1,1126,722,0,0
-91,302,0,0,0,0,0,0,0,0,0,-1,1133,722,0,0
-84,302,0,0,0,0,0,0,0,0,0,-1,1140,722,0,0
-77,302,0,0,0,0,0,0,0,0,0,-1,1147,722,0,0
-70,302,0,0,0,0,0,0,0,0,0,-1,1154,722,0,0
-63,302,0,0,0,0,0,0,0,0,0,-1,1161,722,0,0
-56,302,0,0,0,0,0,0,0,0,0,-1,1168,722,0,0
-49,302,0,0,0,0,0,0,0,0,0,-1,1175,722,0,0
-42,302,0,0,0,0,0,0,0,0,0,-1,1182,722,0,0
-35,302,0,0,0,0,0,0,0,0,0,-1,1189,722,0,0
-28,302,0,0,0,0,0,0,0,0,0,-1,1196,722,0,0
-21,302,0,0,0,0,0,0,0,0,0,-1,1203,722,0,0
-14,302,0,0,0,0,0,0,0,0,0,-1,1210,722,0,0
-7,302,0,0,0,0,0,0,0,0,0,-1,1217,722,0,0
0,302,0,0,0,0,0,0,0,0,0,-1,1224,722,0,0
7,302,0,0,0,0,0,0,0,0,0,-1,1231,722,0,0
14,302,0,0,0,0,0,0,0,0,0,-1,1238,722,0,0
21,302,0,0,0,0,0,0,0,0,0,-1,1245,722,0,0
28,302,0,0,0,0,0,0,0,0,0,-1,1252,722,0,0
35,302,0,0,0,0,0,0,0,0,0,-1,1259,722,0,0
42,302,0,0,0,0,0,0,0,0,0,-1,1266,722,0,0
49,302,0,0,0,0,0,0,0,0,0,-1,1273,722,0,0
56,302,0,0,0,0,0,0,0,0,0,-1,1280,722,0,0
63,302,0,0,0,0,0,0,0,0,0,-1,1287,722,0,0
70,302,0,0,0,0,0,0,0,0,0,-1,1294,722,0,0
77,302,0,0,0,0,0,0,0,0,0,-1,1301,722,0,0
84,302,0,0,0,0,0,0,0,0,0,-1,1308,722,0,0
91,302,0,0,0,0,0,0,0,0,0,-1,1315,722,0,0
98,302,0,0,0,0,0,0,0,0,0,-1,1322,722,0,0
105,302,0,0,0,0,0,0,0,0,0,-1,1329,722,0,0
112,302,0,0,0,0,0,0,0,0,0,-1,1336,722,0,0
119,302,0,0,0,0,0,0,0,0,0,-1,1343,722,0,0
126,302,0,0,0,0,0,0,0,0,0,-1,1350,722,0,0
133,302,0,0,0,0,0,0,0,0,0,-1,1357,722,0,0
140,302,0,0,0,0,0,0,0,0,0,-1,1364,722,0,0
147,302,0,0,0,0,0,0,0,0,0,-1,1371,722,0,0
154,302,0,0,0,0,0,0,0,0,0,-1,1378,722,0,0
161,302,0,0,0,0,0,0,0,0,0,-1,1385,722,0,0
168,302,0,0,0,0,0,0,0,0,0,-1,1392,722,0,0
175,302,0,0,0,0,0,0,0,0,0,-1,1399,722,0,0
182,302,0,0,0,0,0,0,0,0,0,-1,1406,722,0,0
189,302,0,0,0,0,0,0,0,0,0,-1,1413,722,0,0
196,302,0,0,0,0,0,0,0,0,0,-1,1420,722,0,0
203,302,0,0,0,0,0,0,0,0,0,-1,1427,722,0,0
210,302,0,0,0,0,0,0,0,0,0,-1,1434,722,0,0
217,302,0,0,0,0,0,0,0,0,0,-1,1441,722,0,0
224,302,0,0,0,0,0,0,0,0,0,-1,1448,722,0,0
231,302,0,0,0,0,0,0,0,0,0,-1,1455,722,0,0
238,302,0,0,0,0,0,0,0,0,0,-1,1462,722,0,0
245,302,0,0,0,0,0,0,0,0,0,-1,1469,722,0,0
252,302,0,0,0,0,0,0,0,0,0,-1,1476,722,0,0
259,302,0,0,0,0,0,0,0,0,0,-1,1483,722,0,0
266,302,0,0,0,0,0,0,0,0,0,-1,1490,722,0,0
273,302,0,0,0,0,0,0,0,0,0,-1,1497,722,0,0
280,302,0,0,0,0,0,0,0,0,0,-1,1504,722,0,0
287,302,0,0,0,0,0,0,0,0,0,-1,1511,722,0,0
294,302,0,0,0,0,0,0,0,0,0,-1,1518,722,0,0
301,302,0,0,0,0,0,0,0,0,0,-1,1525,722,0,0
308,302,0,0,0,0,0,0,0,0,0,-1,1532,722,0,0
315,302,0,0,0,0,0,0,0,0,0,-1,1539,722,0,0
322,302,0,0,0,0,0,0,0,0,0,-1,1546,722,0,0
329,302,0,0,0,0,0,0,0,0,0,-1,1553,722,0,0
336,302,0,0,0,0,0,0,0,0,0,-1,1560,722,0,0
343,302,0,0,0,0,0,0,0,0,0,-1,1567,722,0,0
350,302,0,0,0,0,0,0,0,0,0,-1,1574,722,0,0
357,302,0,0,0,0,0,0,0,0,0,-1,1581,722,0,0
364,302,0,0,0,0,0,0,0,0,0,-1,1588,722,0,0
371,302,0,0,0,0,0,0,0,0,0,-1,1595,722,0,0
378,302,0,0,0,0,0,0,0,0,0,-1,1602,722,0,0
385,302,0,0,0,0,0,0,0,0,0,-1,1609,722,0,0
392,302,0,0,0,0,0,0,0,0,0,-1,1616,722,0,0
399,302,0,0,0,0,0,0,0,0,0,-1,1623,722,0,0
406,302,0,0,0,0,0,0,0,0,0,-1,1630,722,0,0
413,302,0,0,0,0,0,0,0,0,0,-1,1637,722,0,0
420,302,0,0,0,0,0,0,0,0,0,-1,1644,722,0,0
427,302,0,0,0,0,0,0,0,0,0,-1,1651,722,0,0
434,302,0,0,0,0,0,0,0,0,0,-1,1658,722,0,0
441,302,0,0,0,0,0,0,0,0,0,-1,1665,722,0,0
448,302,0,0,0,0,0,0,0,0,0,-1,1672,722,0,0
455,302,0,0,0,0,0,0,0,0,0,-1,1679,722,0,0
462,302,0,0,0,0,0,0,0,0,0,-1,1686,722,0,0
469,302,0,0,0,0,0,0,0,0,0,-1,1693,722,0,0
476,302,0,0,0,0,0,0,0,0,0,-1,1700,722,0,0
483,302,0,0,0,0,0,0,0,0,0,-1,1707,722,0,0
490,302,0,0,0,0,0,0,0,0,0,-1,1714,722,0,0
497,302,0,0,0,0,0,0,0,0,0,-1,1721,722,0,0
504,302,0,0,0,0,0,0,0,0,0,-1,1728,722,0,0
511,302,0,0,0,0,0,0,0,0,0,-1,1735,722,0,0
518,302,0,0,0,0,0,0,0,0,0,-1,1742,722,0,0
525,302,0,0,0,0,0,0,0,0,0,-1,1749,722,0,0
532,302,0,0,0,0,0,0,0,0,0,-1,1756,722,0,0
539,302,0,0,0,0,0,0,0,0,0,-1,1763,722,0,0
546,302,48.9873,1.50562,0,0,0,0,0,0,0,-1,1770,722,48.9873,-1.50562
553,302,56.7844,3.46533,0,0,0,0,0,0,0,-1,1777,722,56.7844,-3.4653
560,302,56.7115,3.84808,0,0,0,0,0,0,0,-1,1784,722,56.7116,-3.84806
567,302,55.9475,4.24542,0,0,0,0,0,0,0,-1,1791,722,55.9475,-4.24542
574,302,45.9537,6.00867,0,0,0,0,0,0,0,-1,1798,722,45.9537,-6.00864
581,302,45.137,7.38043,0,0,0,0,0,0,0,-1,1805,722,45.1369,-7.38044
588,302,26.9731,7.19983,0,0,0,0,0,0,0,-1,1812,722,26.9732,-7.19981
595,302,27.3826,8.13104,0,0,0,0,0,0,0,-1,1819,722,27.3825,-8.13102
602,302,14.7349,5.21246,0,0,0,0,0,0,0,-1,1826,722,14.7349,-5.21247
609,302,31.1039,-6.34253,0,0,0,0,0,0,0,-1,1833,722,31.1039,6.34254
616,302,44.8945,-10.4274,0,0,0,0,0,0,0,-1,1840,722,44.8945,10.4274
623,302,44.8333,-9.54968,0.00212589,-0.00143344,0.000107656,0.00212914,-0.00143669,0.0302094,0.00207163,0.0174106,1847,722,44.8332,9.54967
630,302,44.7563,-8.65234,0.00176874,-0.00105663,0.000187387,0.00178112,-0.001069,0.0659382,0.00166255,0.0122207,1854,722,44.7563,8.65234
637,302,44.6765,-7.72699,0.0015191,-0.000659036,0.000298737,0.00155933,-0.000699265,0.13386,0.00133515,0.0157544,1861,722,44.6765,7.72699
644,302,44.6315,-6.80847,0.00139951,-0.000192074,0.000439704,0.00151291,-0.000305471,0.252394,0.00112435,0.0155977,1868,722,44.6315,6.8085
651,302,44.6063,-5.88,0.00140196,0.000325233,0.000611506,0.00167832,4.8873e-05,0.424461,0.00110295,0.0147984,1875,722,44.6063,5.88
658,302,44.5752,-4.95319,0.00149767,0.000936997,0.000762614,0.00202984,0.000404827,0.609264,0.0012405,0.0161736,1882,722,44.5752,4.9532
665,302,44.5045,-4.03339,0.00170334,0.00160413,0.000962454,0.00261747,0.000690007,0.759651,0.00156648,0.0155936,1889,722,44.5045,4.03341
672,302,44.4313,-3.12665,0.00204363,0.00236725,0.00119812,0.00341443,0.000996444,0.852519,0.00202747,0.0126308,1896,722,44.4313,3.12666
679,302,44.3789,-2.18134,0.0024829,0.00327908,0.00145579,0.00439023,0.00137175,0.91886,0.00259346,0.0102224,1903,722,44.3789,2.18133
686,302,44.3538,-1.1861,0.00303191,0.00430287,0.00176001,0.00553861,0.00179617,0.958647,0.00326286,0.0256113,1910,722,44.3538,1.18612
693,302,44.278,-0.198486,0,0,0,0,0,0,0,-1,1917,722,44.278,0.198504
700,302,25.4069,1.97308,0,0,0,0,0,0,0,-1,1924,722,25.4068,-1.97311
707,302,16.7321,4.76685,0,0,0,0,0,0,0,-1,1931,722,16.7321,-4.76687
714,302,17.2,5.77594,0,0,0,0,0,0,0,-1,1938,722,17.2,-5.77595
721,302,17.7914,6.60394,0,0,0,0,0,0,0,-1,1945,722,17.7914,-6.60395
728,302,17.2798,4.81702,0,0,0,0,0,0,0,-1,1952,722,17.2798,-4.81703
735,302,0,0,0,0,0,0,0,0,0,-1,1959,722,0,0
742,302,0,0,0,0,0,0,0,0,0,-1,1966,722,0,0
749,302,0,0,0,0,0,0,0,0,0,-1,1973,722,0,0
756,302,0,0,0,0,0,0,0,0,0,-1,1980,722,0,0
763,302,0,0,0,0,0,0,0,0,0,-1,1987,722,0,0
770,302,0,0,0,0,0,0,0,0,0,-1,1994,722,0,0
777,302,0,0,0,0,0,0,0,0,0,-1,2001,722,0,0
784,302,0,0,0,0,0,0,0,0,0,-1,2008,722,0,0
791,302,0,0,0,0,0,0,0,0,0,-1,2015,722,0,0
798,302,0,0,0,0,0,0,0,0,0,-1,2022,722,0,0
805,302,0,0,0,0,0,0,0,0,0,-1,2029,722,0,0
812,302,0,0,0,0,0,0,0,0,0,-1,2036,722,0,0
-700,295,0,0,0,0,0,0,0,0,0,-1,524,729,0,0
-693,295,0,0,0,0,0,0,0,0,0,-1,531,729,0,0
-686,295,0,0,0,0,0,0,0,0,0,-1,538,729,0,0
-679,295,0,0,0,0,0,0,0,0,0,-1,545,729,0,0
-672,295,0,0,0,0,0,0,0,0,0,-1,552,729,0,0
-665,295,0,0,0,0,0,0,0,0,0,-1,559,729,0,0
-658,295,0,0,0,0,0,0,0,0,0,-1,566,729,0,0
-651,295,0,0,0,0,0,0,0,0,0,-1,573,729,0,0
-644,295,0,0,0,0,0,0,0,0,0,-1,580,729,0,0
-637,295,0,0,0,0,0,0,0,0,0,-1,587,729,0,0
-630,295,0,0,0,0,0,0,0,0,0,-1,594,729,0,0
-623,295,0,0,0,0,0,0,0,0,0,-1,601,729,0,0
-616,295,-13.4911,1.31738,0,0,0,0,0,0,0,-1,608,729,-13.4911,-1.3174
-609,295,-10.2864,0.832031,0,0,0,0,0,0,0,-1,615,729,-10.2863,-0.832034
-602,295,-8.19006,3.01587,0,0,0,0,0,0,0,-1,622,729,-8.19005,-3.01588
-595,295,-0.615479,-1.95447,0,0,0,0,0,0,0,-1,629,729,-0.615481,1.95445
-588,295,-7.98999,1.56903,0,0,0,0,0,0,0,-1,636,729,-7.98997,-1.56905
-581,295,-12.0404,0.150574,0,0,0,0,0,0,0,-1,643,729,-12.0404,-0.150604
-574,295,-12.1605,-0.0739746,0,0,0,0,0,0,0,-1,650,729,-12.1605,0.0739856
-567,295,-29.164,-0.702698,0,0,0,0,0,0,0,-1,657,729,-29.164,0.702725
-560,295,-29.4069,-1.82159,-0.000579172,0.00375531,-0.00281597,0.00514146,-0.00196533,-1.11337,0.00423749,0.0400917,664,729,-29.4069,1.82157
-553,295,-29.4474,-2.77228,-4.45114e-05,0.0027433,-0.00199371,0.00378206,-0.00108327,-1.09048,0.00294954,0.0219499,671,729,-29.4474,2.77226
-546,295,-29.5652,-3.6449,0.000211304,0.00205688,-0.00139272,0.00280478,-0.0005366,-1.07798,0.00207202,0.0214593,678,729,-29.5652,3.64489
-539,295,-29.6006,-4.51575,0.000267433,0.0015857,-0.00073333,0.00191259,-5.94507e-05,-1.15148,0.00129533,0.0203076,685,729,-29.6006,4.51574
-532,295,-29.6656,-5.42365,0.000155882,0.000664816,-0.000207362,0.000738606,8.20922e-05,-1.22892,0.000467449,0.0176195,692,729,-29.6656,5.42363
-525,295,-29.7012,-6.39734,2.83447e-05,-5.49579e-05,0.000193992,0.000185107,-0.00021172,0.679651,0.00022928,0.0162611,699,729,-29.7013,6.39732
-518,295,-29.7078,-7.3053,-0.000148701,-0.000617301,0.000641013,0.000299491,-0.00106549,0.610184,0.000828405,0.0115994,706,729,-29.7078,7.30528
-511,295,-29.7722,-8.19916,-0.000597058,-0.00117243,0.00118176,0.000331526,-0.00210101,0.666001,0.00152326,0.00985435,713,729,-29.7721,8.19913
-504,295,-29.8491,-9.09802,-0.00110282,-0.0017053,0.00176533,0.000386785,-0.0031949,0.700892,0.00226988,0.0115614,720,729,-29.8491,9.09804
-497,295,-29.9572,-9.93079,-0.00147666,-0.00216711,0.00231439,0.00051811,-0.00416188,0.711361,0.00296243,0.025223,727,729,-29.9572,9.9308
-490,295,-30.0671,-10.7318,0,0,0,0,0,0,0,-1,734,729,-30.0671,10.7317
-483,295,-6.84503,-0.454651,0,0,0,0,0,0,0,-1,741,729,-6.84505,0.454639
-476,295,-13.1738,-0.836243,0,0,0,0,0,0,0,-1,748,729,-13.1738,0.836223
-469,295,-26.5608,-0.466187,0,0,0,0,0,0,0,-1,755,729,-26.5608,0.466162
-462,295,-29.7701,-0.792664,0,0,0,0,0,0,0,-1,762,729,-29.7701,0.792642
-455,295,-45.11,-2.79272,0,0,0,0,0,0,0,-1,769,729,-45.11,2.79272
-448,295,-48.0288,1.41229,0,0,0,0,0,0,0,-1,776,729,-48.0288,-1.41227
-441,295,-47.1089,1.03058,0,0,0,0,0,0,0,-1,783,729,-47.109,-1.0306
-434,295,-46.2319,1.10614,0,0,0,0,0,0,0,-1,790,729,-46.2319,-1.10612
-427,295,0,0,0,0,0,0,0,0,0,-1,797,729,0,0
-420,295,0,0,0,0,0,0,0,0,0,-1,804,729,0,0
-413,295,0,0,0,0,0,0,0,0,0,-1,811,729,0,0
-406,295,0,0,0,0,0,0,0,0,0,-1,818,729,0,0
-399,295,0,0,0,0,0,0,0,0,0,-1,825,729,0,0
-392,295,0,0,0,0,0,0,0,0,0,-1,832,729,0,0
-385,295,0,0,0,0,0,0,0,0,0,-1,839,729,0,0
-378,295,0,0,0,0,0,0,0,0,0,-1,846,729,0,0
-371,295,0,0,0,0,0,0,0,0,0,-1,853,729,0,0
-364,295,0,0,0,0,0,0,0,0,0,-1,860,729,0,0
-357,295,0,0,0,0,0,0,0,0,0,-1,867,729,0,0
-350,295,0,0,0,0,0,0,0,0,0,-1,874,729,0,0
-343,295,0,0,0,0,0,0,0,0,0,-1,881,729,0,0
-336,295,0,0,0,0,0,0,0,0,0,-1,888,729,0,0
-329,295,0,0,0,0,0,0,0,0,0,-1,895,729,0,0
-322,295,0,0,0,0,0,0,0,0,0,-1,902,729,0,0
-315,295,0,0,0,0,0,0,0,0,0,-1,909,729,0,0
-308,295,0,0,0,0,0,0,0,0,0,-1,916,729,0,0
-301,295,0,0,0,0,0,0,0,0,0,-1,923,729,0,0
-294,295,0,0,0,0,0,0,0,0,0,-1,930,729,0,0
-287,295,0,0,0,0,0,0,0,0,0,-1,937,729,0,0
-280,295,0,0,0,0,0,0,0,0,0,-1,944,729,0,0
-273,295,0,0,0,0,0,0,0,0,0,-1,951,729,0,0
-266,295,0,0,0,0,0,0,0,0,0,-1,958,729,0,0
-259,295,0,0,0,0,0,0,0,0,0,-1,965,729,0,0
-252,295,0,0,0,0,0,0,0,0,0,-1,972,729,0,0
-245,295,0,0,0,0,0,0,0,0,0,-1,979,729,0,0
-238,295,0,0,0,0,0,0,0,0,0,-1,986,729,0,0
-231,295,0,0,0,0,0,0,0,0,0,-1,993,729,0,0
-224,295,0,0,0,0,0,0,0,0,0,-1,1000,729,0,0
-217,295,0,0,0,0,0,0,0,0,0,-1,1007,729,0,0
-210,295,0,0,0,0,0,0,0,0,0,-1,1014,729,0,0
-203,295,0,0,0,0,0,0,0,0,0,-1,1021,729,0,0
-196,295,0,0,0,0,0,0,0,0,0,-1,1028,729,0,0
-189,295,0,0,0,0,0,0,0,0,0,-1,1035,729,0,0
-182,295,0,0,0,0,0,0,0,0,0,-1,1042,729,0,0
-175,295,0,0,0,0,0,0,0,0,0,-1,1049,729,0,0
-168,295,0,0,0,0,0,0,0,0,0,-1,1056,729,0,0
-161,295,0,0,0,0,0,0,0,0,0,-1,1063,729,0,0
-154,295,0,0,0,0,0,0,0,0,0,-1,1070,729,0,0
-147,295,0,0,0,0,0,0,0,0,0,-1,1077,729,0,0
-140,295,0,0,0,0,0,0,0,0,0,-1,1084,729,0,0
-133,295,0,0,0,0,0,0,0,0,0,-1,1091,729,0,0
-126,295,0,0,0,0,0,0,0,0,0,-1,1098,729,0,0
-119,295,0,0,0,0,0,0,0,0,0,-1,1105,729,0,0
-112,295,0,0,0,0,0,0,0,0,0,-1,1112,729,0,0
-105,295,0,0,0,0,0,0,0,0,0,-1,1119,729,0,0
-98,295,0,0,0,0,0,0,0,0,0,-1,1126,729,0,0
-91,295,0,0,0,0,0,0,0,0,0,-1,1133,729,0,0
-84,295,0,0,0,0,0,0,0,0,0,-1,1140,729,0,0
-77,295,0,0,0,0,0,0,0,0,0,-1,1147,729,0,0
-70,295,0,0,0,0,0,0,0,0,0,-1,1154,729,0,0
-63,295,0,0,0,0,0,0,0,0,0,-1,1161,729,0,0
-56,295,0,0,0,0,0,0,0,0,0,-1,1168,729,0,0
-49,295,0,0,0,0,0,0,0,0,0,-1,1175,729,0,0
-42,295,0,0,0,0,0,0,0,0,0,-1,1182,729,0,0
-35,295,0,0,0,0,0,0,0,0,0,-1,1189,729,0,0
-28,295,0,0,0,0,0,0,0,0,0,-1,1196,729,0,0
-21,295,0,0,0,0,0,0,0,0,0,-1,1203,729,0,0
-14,295,0,0,0,0,0,0,0,0,0,-1,1210,729,0,0
-7,295,0,0,0,0,0,0,0,0,0,-1,1217,729,0,0
0,295,0,0,0,0,0,0,0,0,0,-1,1224,729,0,0
7,295,0,0,0,0,0,0,0,0,0,-1,1231,729,0,0
14,295,0,0,0,0,0,0,0,0,0,-1,1238,729,0,0
21,295,0,0,0,0,0,0,0,0,0,-1,1245,729,0,0
28,295,0,0,0,0,0,0,0,0,0,-1,1252,729,0,0
35,295,0,0,0,0,0,0,0,0,0,-1,1259,729,0,0
42,295,0,0,0,0,0,0,0,0,0,-1,1266,729,0,0
49,295,0,0,0,0,0,0,0,0,0,-1,1273,729,0,0
56,295,0,0,0,0,0,0,0,0,0,-1,1280,729,0,0
63,295,0,0,0,0,0,0,0,0,0,-1,1287,729,0,0
70,295,0,0,0,0,0,0,0,0,0,-1,1294,729,0,0
77,295,0,0,0,0,0,0,0,0,0,-1,1301,729,0,0
84,295,0,0,0,0,0,0,0,0,0,-1,1308,729,0,0
91,295,0,0,0,0,0,0,0,0,0,-1,1315,729,0,0
98,295,0,0,0,0,0,0,0,0,0,-1,1322,729,0,0
105,295,0,0,0,0,0,0,0,0,0,-1,1329,729,0,0
112,295,0,0,0,0,0,0,0,0,0,-1,1336,729,0,0
119,295,0,0,0,0,0,0,0,0,0,-1,1343,729,0,0
126,295,0,0,0,0,0,0,0,0,0,-1,1350,729,0,0
133,295,0,0,0,0,0,0,0,0,0,-1,1357,729,0,0
140,295,0,0,0,0,0,0,0,0,0,-1,1364,729,0,0
147,295,0,0,0,0,0,0,0,0,0,-1,1371,729,0,0
154,295,0,0,0,0,0,0,0,0,0,-1,1378,729,0,0
161,295,0,0,0,0,0,0,0,0,0,-1,1385,729,0,0
168,295,0,0,0,0,0,0,0,0,0,-1,1392,729,0,0
175,295,0,0,0,0,0,0,0,0,0,-1,1399,729,0,0
182,295,0,0,0,0,0,0,0,0,0,-1,1406,729,0,0
189,295,0,0,0,0,0,0,0,0,0,-1,1413,729,0,0
196,295,0,0,0,0,0,0,0,0,0,-1,1420,729,0,0
203,295,0,0,0,0,0,0,0,0,0,-1,1427,729,0,0
210,295,0,0,0,0,0,0,0,0,0,-1,1434,729,0,0
217,295,0,0,0,0,0,0,0,0,0,-1,1441,729,0,0
224,295,0,0,0,0,0,0,0,0,0,-1,1448,729,0,0
231,295,0,0,0,0,0,0,0,0,0,-1,1455,729,0,0
238,295,0,0,0,0,0,0,0,0,0,-1,1462,729,0,0
245,295,0,0,0,0,0,0,0,0,0,-1,1469,729,0,0
252,295,0,0,0,0,0,0,0,0,0,-1,1476,729,0,0
259,295,0,0,0,0,0,0,0,0,0,-1,1483,729,0,0
266,295,0,0,0,0,0,0,0,0,0,-1,1490,729,0,0
273,295,0,0,0,0,0,0,0,0,0,-1,1497,729,0,0
280,295,0,0,0,0,0,0,0,0,0,-1,1504,729,0,0
287,295,0,0,0,0,0,0,0,0,0,-1,1511,729,0,0
294,295,0,0,0,0,0,0,0,0,0,-1,1518,729,0,0
301,295,0,0,0,0,0,0,0,0,0,-1,1525,729,0,0
308,295,0,0,0,0,0,0,0,0,0,-1,1532,729,0,0
315,295,0,0,0,0,0,0,0,0,0,-1,1539,729,0,0
322,295,0,0,0,0,0,0,0,0,0,-1,1546,729,0,0
329,295,0,0,0,0,0,0,0,0,0,-1,1553,729,0,0
336,295,0,0,0,0,0,0,0,0,0,-1,1560,729,0,0
343,295,0,0,0,0,0,0,0,0,0,-1,1567,729,0,0
350,295,0,0,0,0,0,0,0,0,0,-1,1574,729,0,0
357,295,0,0,0,0,0,0,0,0,0,-1,1581,729,0,0
364,295,0,0,0,0,0,0,0,0,0,-1,1588,729,0,0
371,295,0,0,0,0,0,0,0,0,0,-1,1595,729,0,0
378,295,0,0,0,0,0,0,0,0,0,-1,1602,729,0,0
385,295,0,0,0,0,0,0,0,0,0,-1,1609,729,0,0
392,295,0,0,0,0,0,0,0,0,0,-1,1616,729,0,0
399,295,0,0,0,0,0,0,0,0,0,-1,1623,729,0,0
406,295,0,0,0,0,0,0,0,0,0,-1,1630,729,0,0
413,295,0,0,0,0,0,0,0,0,0,-1,1637,729,0,0
420,295,0,0,0,0,0,0,0,0,0,-1,1644,729,0,0
427,295,0,0,0,0,0,0,0,0,0,-1,1651,729,0,0
434,295,0,0,0,0,0,0,0,0,0,-1,1658,729,0,0
441,295,0,0,0,0,0,0,0,0,0,-1,1665,729,0,0
448,295,0,0,0,0,0,0,0,0,0,-1,1672,729,0,0
455,295,0,0,0,0,0,0,0,0,0,-1,1679,729,0,0
462,295,0,0,0,0,0,0,0,0,0,-1,1686,729,0,0
469,295,0,0,0,0,0,0,0,0,0,-1,1693,729,0,0
476,295,0,0,0,0,0,0,0,0,0,-1,1700,729,0,0
483,295,0,0,0,0,0,0,0,0,0,-1,1707,729,0,0
490,295,0,0,0,0,0,0,0,0,0,-1,1714,729,0,0
497,295,0,0,0,0,0,0,0,0,0,-1,1721,729,0,0
504,295,0,0,0,0,0,0,0,0,0,-1,1728,729,0,0
511,295,0,0,0,0,0,0,0,0,0,-1,1735,729,0,0
518,295,0,0,0,0,0,0,0,0,0,-1,1742,729,0,0
525,295,0,0,0,0,0,0,0,0,0,-1,1749,729,0,0
532,295,0,0,0,0,0,0,0,0,0,-1,1756,729,0,0
539,295,0,0,0,0,0,0,0,0,0,-1,1763,729,0,0
546,295,57.4674,2.36884,0,0,0,0,0,0,0,-1,1770,729,57.4674,-2.36883
553,295,57.1969,2.73846,0,0,0,0,0,0,0,-1,1777,729,57.197,-2.73843
560,295,57.0291,3.27454,0,0,0,0,0,0,0,-1,1784,729,57.029,-3.27454
567,295,56.6243,3.88239,0,0,0,0,0,0,0,-1,1791,729,56.6242,-3.8824
574,295,56.5275,4.755,0,0,0,0,0,0,0,-1,1798,729,56.5274,-4.75501
581,295,37.8191,2.19592,0,0,0,0,0,0,0,-1,1805,729,37.8191,-2.19594
588,295,39.0542,2.45679,0,0,0,0,0,0,0,-1,1812,729,39.0542,-2.45676
595,295,27.2102,6.99121,0,0,0,0,0,0,0,-1,1819,729,27.2103,-6.99121
602,295,26.9065,7.82141,0,0,0,0,0,0,0,-1,1826,729,26.9064,-7.8214
609,295,11.7737,2.19989,0,0,0,0,0,0,0,-1,1833,729,11.7736,-2.19988
616,295,45.2537,-10.4867,0,0,0,0,0,0,0,-1,1840,729,45.2537,10.4867
623,295,45.717,-9.51868,0,0,0,0,0,0,0,-1,1847,729,45.7171,9.51869
630,295,45.6796,-8.58527,0.00264268,-0.000858915,0.000260453,0.00266195,-0.000878182,0.0738396,0.00212863,0.0151684,1854,729,45.6795,8.58527
637,295,45.6161,-7.65125,0.00201696,-0.000595197,0.00032982,0.00205796,-0.000636197,0.123678,0.00162607,0.0158445,1861,729,45.6161,7.65125
644,295,45.5952,-6.73303,0.00158316,-0.000244691,0.00041753,0.00167401,-0.00033555,0.214269,0.00124305,0.0137274,1868,729,45.5952,6.73304
651,295,45.5507,-5.81476,0.00143771,0.000206115,0.000543158,0.00164303,7.9954e-07,0.361401,0.00109509,0.0142977,1875,729,45.5507,5.81474
658,295,45.4873,-4.89435,0.00147925,0.000786337,0.000662278,0.00188022,0.000385369,0.544409,0.00114681,0.0142825,1882,729,45.4873,4.89436
665,295,45.4023,-3.99158,0.00159266,0.00142492,0.000827084,0.00234011,0.00067746,0.734868,0.0013904,0.0121229,1889,729,45.4024,3.99157
672,295,45.338,-3.08289,0.00183399,0.00214567,0.00105488,0.00305616,0.0009235,0.858734,0.00180993,0.0141736,1896,729,45.338,3.08286
679,295,45.2903,-2.14331,0.00214975,0.00300751,0.00130432,0.00395165,0.00120561,0.944238,0.00233856,0.0114155,1903,729,45.2903,2.1433
686,295,45.2806,-1.22144,0.00254267,0.00397552,0.00159476,0.00500739,0.0015108,0.996508,0.00296583,0.0123789,1910,729,45.2807,1.22143
693,295,45.2872,-0.302002,0,0,0,0,0,0,0,-1,1917,729,45.2873,0.302016
700,295,31.3757,2.06982,0,0,0,0,0,0,0,-1,1924,729,31.3758,-2.0698
707,295,22.2661,3.05206,0,0,0,0,0,0,0,-1,1931,729,22.2662,-3.05207
714,295,17.4906,4.63068,0,0,0,0,0,0,0,-1,1938,729,17.4906,-4.63066
721,295,18.3792,5.32281,0,0,0,0,0,0,0,-1,1945,729,18.3791,-5.32283
728,295,17.379,3.74866,0,0,0,0,0,0,0,-1,1952,729,17.379,-3.74863
735,295,0,0,0,0,0,0,0,0,0,-1,1959,729,0,0
742,295,0,0,0,0,0,0,0,0,0,-1,1966,729,0,0
749,295,0,0,0,0,0,0,0,0,0,-1,1973,729,0,0
756,295,0,0,0,0,0,0,0,0,0,-1,1980,729,0,0
763,295,0,0,0,0,0,0,0,0,0,-1,1987,729,0,0
770,295,0,0,0,0,0,0,0,0,0,-1,1994,729,0,0
777,295,0,0,0,0,0,0,0,0,0,-1,2001,729,0,0
784,295,0,0,0,0,0,0,0,0,0,-1,2008,729,0,0
791,295,0,0,0,0,0,0,0,0,0,-1,2015,729,0,0
798,295,0,0,0,0,0,0,0,0,0,-1,2022,729,0,0
805,295,0,0,0,0,0,0,0,0,0,-1,2029,729,0,0
812,295,0,0,0,0,0,0,0,0,0,-1,2036,729,0,0
-700,288,0,0,0,0,0,0,0,0,0,-1,524,736,0,0
-693,288,0,0,0,0,0,0,0,0,0,-1,531,736,0,0
-686,288,0,0,0,0,0,0,0,0,0,-1,538,736,0,0
-679,288,0,0,0,0,0,0,0,0,0,-1,545,736,0,0
-672,288,0,0,0,0,0,0,0,0,0,-1,552,736,0,0
-665,288,0,0,0,0,0,0,0,0,0,-1,559,736,0,0
-658,288,0,0,0,0,0,0,0,0,0,-1,566,736,0,0
-651,288,0,0,0,0,0,0,0,0,0,-1,573,736,0,0
-644,288,0,0,0,0,0,0,0,0,0,-1,580,736,0,0
-637,288,0,0,0,0,0,0,0,0,0,-1,587,736,0,0
-630,288,0,0,0,0,0,0,0,0,0,-1,594,736,0,0
-623,288,0,0,0,0,0,0,0,0,0,-1,601,736,0,0
-616,288,-11.7584,2.4425,0,0,0,0,0,0,0,-1,608,736,-11.7584,-2.44251
-609,288,-10.3007,2.32178,0,0,0,0,0,0,0,-1,615,736,-10.3007,-2.32178
-602,288,-10.1458,-1.85559,0,0,0,0,0,0,0,-1,622,736,-10.1458,1.85556
-595,288,-7.63208,1.81769,0,0,0,0,0,0,0,-1,629,736,-7.63205,-1.81766
-588,288,-8.19269,1.50598,0,0,0,0,0,0,0,-1,636,736,-8.19268,-1.50601
-581,288,-13.1915,0.659241,0,0,0,0,0,0,0,-1,643,736,-13.1915,-0.659228
-574,288,-29.9975,0.022644,0,0,0,0,0,0,0,-1,650,736,-29.9975,-0.0226248
-567,288,-30.0654,-0.864014,-0.000595503,0.0032571,-0.00432413,0.00606458,-0.00340299,-0.994941,0.00553764,0.0375154,657,736,-30.0654,0.863991
-560,288,-30.3249,-1.86151,-0.000472058,0.00276507,-0.00287229,0.00444344,-0.00215043,-1.04198,0.00388294,0.0178477,664,736,-30.3249,1.86152
-553,288,-30.3386,-2.71118,-0.000243377,0.00203241,-0.0018233,0.00304376,-0.00125472,-1.06437,0.00255237,0.0199066,671,736,-30.3385,2.71117
-546,288,-30.4399,-3.57983,-0.000160784,0.00143065,-0.00104834,0.00195106,-0.000681187,-1.11003,0.00157757,0.0222343,678,736,-30.4399,3.57982
-539,288,-30.5137,-4.46545,-0.000218869,0.00108997,-0.000242547,0.00113347,-0.000262371,-1.39333,0.000856605,0.0194582,685,736,-30.5137,4.46544
-532,288,-30.5317,-5.36816,-0.000406766,0.000257251,0.0003234,0.000388726,-0.000538241,1.18466,0.000537501,0.0166278,692,736,-30.5317,5.36814
-525,288,-30.5889,-6.30774,-0.000586047,-0.000379888,0.000717827,0.000242223,-0.00120816,0.85671,0.000897146,0.0146443,699,736,-30.5889,6.30776
-518,288,-30.6498,-7.23633,-0.000862481,-0.000884893,0.00116301,0.000289375,-0.00203675,0.780581,0.00146386,0.0120348,706,736,-30.6498,7.23631
-511,288,-30.7171,-8.12067,-0.0014463,-0.00139711,0.00172176,0.000300238,-0.00314364,0.79254,0.00220267,0.00955526,713,736,-30.7171,8.12064
-504,288,-30.7955,-9.02759,-0.00206001,-0.00193109,0.00232284,0.000328186,-0.00431929,0.79927,0.00299492,0.0121807,720,736,-30.7955,9.02759
-497,288,-30.7922,-9.74072,-0.00256104,-0.00246054,0.00292296,0.0004126,-0.00543418,0.793993,0.00376786,0.0381913,727,736,-30.7922,9.74071
-490,288,-30.6284,-10.3895,0,0,0,0,0,0,0,-1,734,736,-30.6284,10.3895
-483,288,-17.3287,0.564758,0,0,0,0,0,0,0,-1,741,736,-17.3287,-0.56477
-476,288,-26.136,0.452148,0,0,0,0,0,0,0,-1,748,736,-26.136,-0.452177
-469,288,-27.7904,0.649841,0,0,0,0,0,0,0,-1,755,736,-27.7904,-0.649854
-462,288,-44.999,-2.65112,0,0,0,0,0,0,0,-1,762,736,-44.999,2.65111
-455,288,-49.1631,1.86432,0,0,0,0,0,0,0,-1,769,736,-49.1632,-1.8643
-448,288,-55.5283,0.0455933,0,0,0,0,0,0,0,-1,776,736,-55.5284,-0.0456
-441,288,-55.0096,0.39325,0,0,0,0,0,0,0,-1,783,736,-55.0096,-0.393269
-434,288,-46.7119,1.66388,0,0,0,0,0,0,0,-1,790,736,-46.7119,-1.66385
-427,288,0,0,0,0,0,0,0,0,0,-1,797,736,0,0
-420,288,0,0,0,0,0,0,0,0,0,-1,804,736,0,0
-413,288,0,0,0,0,0,0,0,0,0,-1,811,736,0,0
-406,288,0,0,0,0,0,0,0,0,0,-1,818,736,0,0
-399,288,0,0,0,0,0,0,0,0,0,-1,825,736,0,0
-392,288,0,0,0,0,0,0,0,0,0,-1,832,736,0,0
-385,288,0,0,0,0,0,0,0,0,0,-1,839,736,0,0
-378,288,0,0,0,0,0,0,0,0,0,-1,846,736,0,0
-371,288,0,0,0,0,0,0,0,0,0,-1,853,736,0,0
-364,288,0,0,0,0,0,0,0,0,0,-1,860,736,0,0
-357,288,0,0,0,0,0,0,0,0,0,-1,867,736,0,0
-350,288,0,0,0,0,0,0,0,0,0,-1,874,736,0,0
-343,288,0,0,0,0,0,0,0,0,0,-1,881,736,0,0
-336,288,0,0,0,0,0,0,0,0,0,-1,888,736,0,0
-329,288,0,0,0,0,0,0,0,0,0,-1,895,736,0,0
-322,288,0,0,0,0,0,0,0,0,0,-1,902,736,0,0
-315,288,0,0,0,0,0,0,0,0,0,-1,909,736,0,0
-308,288,0,0,0,0,0,0,0,0,0,-1,916,736,0,0
-301,288,0,0,0,0,0,0,0,0,0,-1,923,736,0,0
-294,288,0,0,0,0,0,0,0,0,0,-1,930,736,0,0
-287,288,0,0,0,0,0,0,0,0,0,-1,937,736,0,0
-280,288,0,0,0,0,0,0,0,0,0,-1,944,736,0,0
-273,288,0,0,0,0,0,0,0,0,0,-1,951,736,0,0
-266,288,0,0,0,0,0,0,0,0,0,-1,958,736,0,0
-259,288,0,0,0,0,0,0,0,0,0,-1,965,736,0,0
-252,288,0,0,0,0,0,0,0,0,0,-1,972,736,0,0
-245,288,0,0,0,0,0,0,0,0,0,-1,979,736,0,0
-238,288,0,0,0,0,0,0,0,0,0,-1,986,736,0,0
-231,288,0,0,0,0,0,0,0,0,0,-1,993,736,0,0
-224,288,0,0,0,0,0,0,0,0,0,-1,1000,736,0,0
-217,288,0,0,0,0,0,0,0,0,0,-1,1007,736,0,0
-210,288,0,0,0,0,0,0,0,0,0,-1,1014,736,0,0
-203,288,0,0,0,0,0,0,0,0,0,-1,1021,736,0,0
-196,288,0,0,0,0,0,0,0,0,0,-1,1028,736,0,0
-189,288,0,0,0,0,0,0,0,0,0,-1,1035,736,0,0
-182,288,0,0,0,0,0,0,0,0,0,-1,1042,736,0,0
-175,288,0,0,0,0,0,0,0,0,0,-1,1049,736,0,0
-168,288,0,0,0,0,0,0,0,0,0,-1,1056,736,0,0
-161,288,0,0,0,0,0,0,0,0,0,-1,1063,736,0,0
-154,288,0,0,0,0,0,0,0,0,0,-1,1070,736,0,0
-147,288,0,0,0,0,0,0,0,0,0,-1,1077,736,0,0
-140,288,0,0,0,0,0,0,0,0,0,-1,1084,736,0,0
-133,288,0,0,0,0,0,0,0,0,0,-1,1091,736,0,0
-126,288,0,0,0,0,0,0,0,0,0,-1,1098,736,0,0
-119,288,0,0,0,0,0,0,0,0,0,-1,1105,736,0,0
-112,288,0,0,0,0,0,0,0,0,0,-1,1112,736,0,0
-105,288,0,0,0,0,0,0,0,0,0,-1,1119,736,0,0
-98,288,0,0,0,0,0,0,0,0,0,-1,1126,736,0,0
-91,288,0,0,0,0,0,0,0,0,0,-1,1133,736,0,0
-84,288,0,0,0,0,0,0,0,0,0,-1,1140,736,0,0
-77,288,0,0,0,0,0,0,0,0,0,-1,1147,736,0,0
-70,288,0,0,0,0,0,0,0,0,0,-1,1154,736,0,0
-63,288,0,0,0,0,0,0,0,0,0,-1,1161,736,0,0
-56,288,0,0,0,0,0,0,0,0,0,-1,1168,736,0,0
-49,288,0,0,0,0,0,0,0,0,0,-1,1175,736,0,0
-42,288,0,0,0,0,0,0,0,0,0,-1,1182,736,0,0
-35,288,0,0,0,0,0,0,0,0,0,-1,1189,736,0,0
-28,288,0,0,0,0,0,0,0,0,0,-1,1196,736,0,0
-21,288,0,0,0,0,0,0,0,0,0,-1,1203,736,0,0
-14,288,0,0,0,0,0,0,0,0,0,-1,1210,736,0,0
-7,288,0,0,0,0,0,0,0,0,0,-1,1217,736,0,0
0,288,0,0,0,0,0,0,0,0,0,-1,1224,736,0,0
7,288,0,0,0,0,0,0,0,0,0,-1,1231,736,0,0
14,288,0,0,0,0,0,0,0,0,0,-1,1238,736,0,0
21,288,0,0,0,0,0,0,0,0,0,-1,1245,736,0,0
28,288,0,0,0,0,0,0,0,0,0,-1,1252,736,0,0
35,288,0,0,0,0,0,0,0,0,0,-1,1259,736,0,0
42,288,0,0,0,0,0,0,0,0,0,-1,1266,736,0,0
49,288,0,0,0,0,0,0,0,0,0,-1,1273,736,0,0
56,288,0,0,0,0,0,0,0,0,0,-1,1280,736,0,0
63,288,0,0,0,0,0,0,0,0,0,-1,1287,736,0,0
70,288,0,0,0,0,0,0,0,0,0,-1,1294,736,0,0
77,288,0,0,0,0,0,0,0,0,0,-1,1301,736,0,0
84,288,0,0,0,0,0,0,0,0,0,-1,1308,736,0,0
91,288,0,0,0,0,0,0,0,0,0,-1,1315,736,0,0
98,288,0,0,0,0,0,0,0,0,0,-1,1322,736,0,0
105,288,0,0,0,0,0,0,0,0,0,-1,1329,736,0,0
112,288,0,0,0,0,0,0,0,0,0,-1,1336,736,0,0
119,288,0,0,0,0,0,0,0,0,0,-1,1343,736,0,0
126,288,0,0,0,0,0,0,0,0,0,-1,1350,736,0,0
133,288,0,0,0,0,0,0,0,0,0,-1,1357,736,0,0
140,288,0,0,0,0,0,0,0,0,0,-1,1364,736,0,0
147,288,0,0,0,0,0,0,0,0,0,-1,1371,736,0,0
154,288,0,0,0,0,0,0,0,0,0,-1,1378,736,0,0
161,288,0,0,0,0,0,0,0,0,0,-1,1385,736,0,0
168,288,0,0,0,0,0,0,0,0,0,-1,1392,736,0,0
175,288,0,0,0,0,0,0,0,0,0,-1,1399,736,0,0
182,288,0,0,0,0,0,0,0,0,0,-1,1406,736,0,0
189,288,0,0,0,0,0,0,0,0,0,-1,1413,736,0,0
196,288,0,0,0,0,0,0,0,0,0,-1,1420,736,0,0
203,288,0,0,0,0,0,0,0,0,0,-1,1427,736,0,0
210,288,0,0,0,0,0,0,0,0,0,-1,1434,736,0,0
217,288,0,0,0,0,0,0,0,0,0,-1,1441,736,0,0
224,288,0,0,0,0,0,0,0,0,0,-1,1448,736,0,0
231,288,0,0,0,0,0,0,0,0,0,-1,1455,736,0,0
238,288,0,0,0,0,0,0,0,0,0,-1,1462,736,0,0
245,288,0,0,0,0,0,0,0,0,0,-1,1469,736,0,0
252,288,0,0,0,0,0,0,0,0,0,-1,1476,736,0,0
259,288,0,0,0,0,0,0,0,0,0,-1,1483,736,0,0
266,288,0,0,0,0,0,0,0,0,0,-1,1490,736,0,0
273,288,0,0,0,0,0,0,0,0,0,-1,1497,736,0,0
280,288,0,0,0,0,0,0,0,0,0,-1,1504,736,0,0
287,288,0,0,0,0,0,0,0,0,0,-1,1511,736,0,0
294,288,0,0,0,0,0,0,0,0,0,-1,1518,736,0,0
301,288,0,0,0,0,0,0,0,0,0,-1,1525,736,0,0
308,288,0,0,0,0,0,0,0,0,0,-1,1532,736,0,0
315,288,0,0,0,0,0,0,0,0,0,-1,1539,736,0,0
322,288,0,0,0,0,0,0,0,0,0,-1,1546,736,0,0
329,288,0,0,0,0,0,0,0,0,0,-1,1553,736,0,0
336,288,0,0,0,0,0,0,0,0,0,-1,1560,736,0,0
343,288,0,0,0,0,0,0,0,0,0,-1,1567,736,0,0
350,288,0,0,0,0,0,0,0,0,0,-1,1574,736,0,0
357,288,0,0,0,0,0,0,0,0,0,-1,1581,736,0,0
364,288,0,0,0,0,0,0,0,0,0,-1,1588,736,0,0
371,288,0,0,0,0,0,0,0,0,0,-1,1595,736,0,0
378,288,0,0,0,0,0,0,0,0,0,-1,1602,736,0,0
385,288,0,0,0,0,0,0,0,0,0,-1,1609,736,0,0
392,288,0,0,0,0,0,0,0,0,0,-1,1616,736,0,0
399,288,0,0,0,0,0,0,0,0,0,-1,1623,736,0,0
406,288,0,0,0,0,0,0,0,0,0,-1,1630,736,0,0
413,288,0,0,0,0,0,0,0,0,0,-1,1637,736,0,0
420,288,0,0,0,0,0,0,0,0,0,-1,1644,736,0,0
427,288,0,0,0,0,0,0,0,0,0,-1,1651,736,0,0
434,288,0,0,0,0,0,0,0,0,0,-1,1658,736,0,0
441,288,0,0,0,0,0,0,0,0,0,-1,1665,736,0,0
448,288,0,0,0,0,0,0,0,0,0,-1,1672,736,0,0
455,288,0,0,0,0,0,0,0,0,0,-1,1679,736,0,0
462,288,0,0,0,0,0,0,0,0,0,-1,1686,736,0,0
469,288,0,0,0,0,0,0,0,0,0,-1,1693,736,0,0
476,288,0,0,0,0,0,0,0,0,0,-1,1700,736,0,0
483,288,0,0,0,0,0,0,0,0,0,-1,1707,736,0,0
490,288,0,0,0,0,0,0,0,0,0,-1,1714,736,0,0
497,288,0,0,0,0,0,0,0,0,0,-1,1721,736,0,0
504,288,0,0,0,0,0,0,0,0,0,-1,1728,736,0,0
511,288,0,0,0,0,0,0,0,0,0,-1,1735,736,0,0
518,288,0,0,0,0,0,0,0,0,0,-1,1742,736,0,0
525,288,0,0,0,0,0,0,0,0,0,-1,1749,736,0,0
532,288,0,0,0,0,0,0,0,0,0,-1,1756,736,0,0
539,288,0,0,0,0,0,0,0,0,0,-1,1763,736,0,0
546,288,0,0,0,0,0,0,0,0,0,-1,1770,736,0,0
553,288,57.4934,2.28064,0,0,0,0,0,0,0,-1,1777,736,57.4934,-2.28064
560,288,57.3807,3.02881,0,0,0,0,0,0,0,-1,1784,736,57.3808,-3.0288
567,288,57.2081,3.74274,0,0,0,0,0,0,0,-1,1791,736,57.2081,-3.74273
574,288,56.9817,4.36981,0,0,0,0,0,0,0,-1,1798,736,56.9816,-4.36984
581,288,53.4904,5.33215,0,0,0,0,0,0,0,-1,1805,736,53.4904,-5.33218
588,288,54.9313,3.29852,0,0,0,0,0,0,0,-1,1812,736,54.9313,-3.29849
595,288,47.035,3.35156,0,0,0,0,0,0,0,-1,1819,736,47.035,-3.35157
602,288,26.7634,7.61279,0,0,0,0,0,0,0,-1,1826,736,26.7635,-7.61279
609,288,17.5223,4.86414,0,0,0,0,0,0,0,-1,1833,736,17.5223,-4.86412
616,288,13.4886,0.801331,0,0,0,0,0,0,0,-1,1840,736,13.4886,-0.80132
623,288,46.6479,-9.35736,0,0,0,0,0,0,0,-1,1847,736,46.648,9.35738
630,288,46.5872,-8.46625,0.00339131,0.000290942,0.000371014,0.00343509,0.000247162,0.117458,0.00221228,0.0356541,1854,736,46.5872,8.46627
637,288,46.5499,-7.58228,0.00254957,7.66078e-05,0.000396031,0.00261145,1.47338e-05,0.154982,0.00173607,0.0132653,1861,736,46.5499,7.58229
644,288,46.5037,-6.67426,0.00182444,1.50559e-05,0.000453313,0.00193166,-9.21611e-05,0.232251,0.00131957,0.0113933,1868,736,46.5036,6.67425
651,288,46.4481,-5.76056,0.00154547,0.000187063,0.000498441,0.00170874,2.37934e-05,0.316546,0.00113131,0.0132106,1875,736,46.4482,5.76056
658,288,46.3888,-4.80646,0.00155056,0.00058429,0.000586319,0.00182715,0.000307695,0.440792,0.00112959,0.0184867,1882,736,46.3888,4.80645
665,288,46.3578,-3.92047,0.00157949,0.00114866,0.00073255,0.00212764,0.000600507,0.642397,0.00126663,0.0174207,1889,736,46.3578,3.92046
672,288,46.276,-3.03564,0.00171525,0.00179986,0.000942919,0.00270142,0.000813684,0.807816,0.00160023,0.0173236,1896,736,46.276,3.03565
679,288,46.223,-2.08813,0.00190499,0.00259491,0.00116688,0.00346676,0.00103314,0.929116,0.00205525,0.0149295,1903,736,46.2231,2.08813
686,288,46.16,-1.19708,0.00213598,0.0035039,0.0014142,0.00439085,0.00124902,1.01063,0.00261239,0.0118534,1910,736,46.16,1.19711
693,288,46.1637,-0.172363,0.0025582,0.00474821,0.00177848,0.00574175,0.00156466,1.06134,0.00342747,0.0275013,1917,736,46.1637,0.172356
700,288,46.1721,0.930176,0,0,0,0,0,0,0,-1,1924,736,46.1721,-0.930147
707,288,30.9496,3.07977,0,0,0,0,0,0,0,-1,1931,736,30.9496,-3.07975
714,288,23.0149,3.82544,0,0,0,0,0,0,0,-1,1938,736,23.0149,-3.82541
721,288,18.0732,3.69385,0,0,0,0,0,0,0,-1,1945,736,18.0732,-3.69387
728,288,19.3208,3.91455,0,0,0,0,0,0,0,-1,1952,736,19.3209,-3.91455
735,288,18.7712,3.51312,0,0,0,0,0,0,0,-1,1959,736,18.7713,-3.51309
742,288,0,0,0,0,0,0,0,0,0,-1,1966,736,0,0
749,288,0,0,0,0,0,0,0,0,0,-1,1973,736,0,0
756,288,0,0,0,0,0,0,0,0,0,-1,1980,736,0,0
763,288,0,0,0,0,0,0,0,0,0,-1,1987,736,0,0
770,288,0,0,0,0,0,0,0,0,0,-1,1994,736,0,0
777,288,0,0,0,0,0,0,0,0,0,-1,2001,736,0,0
784,288,0,0,0,0,0,0,0,0,0,-1,2008,736,0,0
791,288,0,0,0,0,0,0,0,0,0,-1,2015,736,0,0
798,288,0,0,0,0,0,0,0,0,0,-1,2022,736,0,0
805,288,0,0,0,0,0,0,0,0,0,-1,2029,736,0,0
812,288,0,0,0,0,0,0,0,0,0,-1,2036,736,0,0
-700,281,0,0,0,0,0,0,0,0,0,-1,524,743,0,0
-693,281,0,0,0,0,0,0,0,0,0,-1,531,743,0,0
-686,281,0,0,0,0,0,0,0,0,0,-1,538,743,0,0
-679,281,0,0,0,0,0,0,0,0,0,-1,545,743,0,0
-672,281,0,0,0,0,0,0,0,0,0,-1,552,743,0,0
-665,281,0,0,0,0,0,0,0,0,0,-1,559,743,0,0
-658,281,0,0,0,0,0,0,0,0,0,-1,566,743,0,0
-651,281,0,0,0,0,0,0,0,0,0,-1,573,743,0,0
-644,281,0,0,0,0,0,0,0,0,0,-1,580,743,0,0
-637,281,0,0,0,0,0,0,0,0,0,-1,587,743,0,0
-630,281,0,0,0,0,0,0,0,0,0,-1,594,743,0,0
-623,281,-19.1697,5.67017,0,0,0,0,0,0,0,-1,601,743,-19.1697,-5.67019
-616,281,-11.5906,2.6853,0,0,0,0,0,0,0,-1,608,743,-11.5906,-2.68529
-609,281,-16.1972,4.14838,0,0,0,0,0,0,0,-1,615,743,-16.1972,-4.14837
-602,281,-21.9772,6.77417,0,0,0,0,0,0,0,-1,622,743,-21.9771,-6.77415
-595,281,-10.4797,-1.07404,0,0,0,0,0,0,0,-1,629,743,-10.4798,1.07402
-588,281,-13.277,1.49817,0,0,0,0,0,0,0,-1,636,743,-13.2771,-1.49817
-581,281,-31.0369,1.01117,0,0,0,0,0,0,0,-1,643,743,-31.0369,-1.01116
-574,281,-30.9471,0.0723267,-0.000114259,0.00221691,-0.00663835,0.00779123,-0.00568858,-0.872304,0.00781407,0.0452117,650,743,-30.9471,-0.0723484
-567,281,-31.1629,-0.810852,-0.000304927,0.00213211,-0.00422123,0.00530718,-0.00348,-0.925911,0.00510971,0.0224626,657,743,-31.1629,0.810874
-560,281,-31.2532,-1.74005,-0.000440153,0.00188458,-0.00261967,0.00358818,-0.00214375,-0.994202,0.00334418,0.00922149,664,743,-31.2531,1.74004
-553,281,-31.2725,-2.64038,-0.000435131,0.00139637,-0.00147021,0.0022127,-0.00125146,-1.06393,0.00202554,0.0155245,671,743,-31.2724,2.64037
-546,281,-31.3421,-3.48712,-0.000485517,0.000893535,-0.000616053,0.00112865,-0.000720636,-1.20621,0.00107632,0.0176871,678,743,-31.3421,3.48714
-539,281,-31.4225,-4.40094,-0.000638739,0.000678647,0.000241929,0.00072167,-0.000681763,1.3948,0.000810382,0.0158327,685,743,-31.4225,4.40096
-532,281,-31.4616,-5.2843,-0.000894211,-5.92361e-05,0.0008018,0.000427256,-0.0013807,1.02543,0.00109114,0.0165801,692,743,-31.4616,5.28428
-525,281,-31.5521,-6.22015,-0.0011269,-0.000585076,0.00117522,0.00035005,-0.00206203,0.898679,0.001505,0.0189876,699,743,-31.5521,6.22017
-518,281,-31.583,-7.15759,-0.00152257,-0.000984669,0.00160156,0.000370363,-0.0028776,0.868587,0.00205302,0.0128267,706,743,-31.583,7.15757
-511,281,-31.6248,-8.08807,-0.00226534,-0.00140059,0.00216607,0.000375841,-0.00404177,0.883909,0.00282813,0.0128488,713,743,-31.6248,8.08807
-504,281,-31.743,-9.02118,-0.00299996,-0.001868,0.00276229,0.000385694,-0.00525365,0.886447,0.00363782,0.0181529,720,743,-31.743,9.02116
-497,281,-31.8394,-9.94189,0,0,0,0,0,0,0,-1,727,743,-31.8394,9.94191
-490,281,-27.6985,-9.63165,0,0,0,0,0,0,0,-1,734,743,-27.6986,9.63165
-483,281,-22.1078,-2.34973,0,0,0,0,0,0,0,-1,741,743,-22.1078,2.3497
-476,281,-28.0016,2.17786,0,0,0,0,0,0,0,-1,748,743,-28.0016,-2.17786
-469,281,-34.6448,0.171692,0,0,0,0,0,0,0,-1,755,743,-34.6448,-0.171685
-462,281,-46.6214,0.0193481,0,0,0,0,0,0,0,-1,762,743,-46.6214,-0.0193665
-455,281,-56.0239,-0.1521,0,0,0,0,0,0,0,-1,769,743,-56.024,0.152123
-448,281,-55.8145,0.304321,0,0,0,0,0,0,0,-1,776,743,-55.8145,-0.304294
-441,281,-55.4486,0.766052,0,0,0,0,0,0,0,-1,783,743,-55.4486,-0.766078
-434,281,0,0,0,0,0,0,0,0,0,-1,790,743,0,0
-427,281,0,0,0,0,0,0,0,0,0,-1,797,743,0,0
-420,281,0,0,0,0,0,0,0,0,0,-1,804,743,0,0
-413,281,0,0,0,0,0,0,0,0,0,-1,811,743,0,0
-406,281,0,0,0,0,0,0,0,0,0,-1,818,743,0,0
-399,281,0,0,0,0,0,0,0,0,0,-1,825,743,0,0
-392,281,0,0,0,0,0,0,0,0,0,-1,832,743,0,0
-385,281,0,0,0,0,0,0,0,0,0,-1,839,743,0,0
-378,281,0,0,0,0,0,0,0,0,0,-1,846,743,0,0
-371,281,0,0,0,0,0,0,0,0,0,-1,853,743,0,0
-364,281,0,0,0,0,0,0,0,0,0,-1,860,743,0,0
-357,281,0,0,0,0,0,0,0,0,0,-1,867,743,0,0
-350,281,0,0,0,0,0,0,0,0,0,-1,874,743,0,0
-343,281,0,0,0,0,0,0,0,0,0,-1,881,743,0,0
-336,281,0,0,0,0,0,0,0,0,0,-1,888,743,0,0
-329,281,0,0,0,0,0,0,0,0,0,-1,895,743,0,0
-322,281,0,0,0,0,0,0,0,0,0,-1,902,743,0,0
-315,281,0,0,0,0,0,0,0,0,0,-1,909,743,0,0
-308,281,0,0,0,0,0,0,0,0,0,-1,916,743,0,0
-301,281,0,0,0,0,0,0,0,0,0,-1,923,743,0,0
-294,281,0,0,0,0,0,0,0,0,0,-1,930,743,0,0
-287,281,0,0,0,0,0,0,0,0,0,-1,937,743,0,0
-280,281,0,0,0,0,0,0,0,0,0,-1,944,743,0,0
-273,281,0,0,0,0,0,0,0,0,0,-1,951,743,0,0
-266,281,0,0,0,0,0,0,0,0,0,-1,958,743,0,0
-259,281,0,0,0,0,0,0,0,0,0,-1,965,743,0,0
-252,281,0,0,0,0,0,0,0,0,0,-1,972,743,0,0
-245,281,0,0,0,0,0,0,0,0,0,-1,979,743,0,0
-238,281,0,0,0,0,0,0,0,0,0,-1,986,743,0,0
-231,281,0,0,0,0,0,0,0,0,0,-1,993,743,0,0
-224,281,0,0,0,0,0,0,0,0,0,-1,1000,743,0,0
-217,281,0,0,0,0,0,0,0,0,0,-1,1007,743,0,0
-210,281,0,0,0,0,0,0,0,0,0,-1,1014,743,0,0
-203,281,0,0,0,0,0,0,0,0,0,-1,1021,743,0,0
-196,281,0,0,0,0,0,0,0,0,0,-1,1028,743,0,0
-189,281,0,0,0,0,0,0,0,0,0,-1,1035,743,0,0
-182,281,0,0,0,0,0,0,0,0,0,-1,1042,743,0,0
-175,281,0,0,0,0,0,0,0,0,0,-1,1049,743,0,0
-168,281,0,0,0,0,0,0,0,0,0,-1,1056,743,0,0
-161,281,0,0,0,0,0,0,0,0,0,-1,1063,743,0,0
-154,281,0,0,0,0,0,0,0,0,0,-1,1070,743,0,0
-147,281,0,0,0,0,0,0,0,0,0,-1,1077,743,0,0
-140,281,0,0,0,0,0,0,0,0,0,-1,1084,743,0,0
-133,281,0,0,0,0,0,0,0,0,0,-1,1091,743,0,0
-126,281,0,0,0,0,0,0,0,0,0,-1,1098,743,0,0
-119,281,0,0,0,0,0,0,0,0,0,-1,1105,743,0,0
-112,281,0,0,0,0,0,0,0,0,0,-1,1112,743,0,0
-105,281,0,0,0,0,0,0,0,0,0,-1,1119,743,0,0
-98,281,0,0,0,0,0,0,0,0,0,-1,1126,743,0,0
-91,281,0,0,0,0,0,0,0,0,0,-1,1133,743,0,0
-84,281,0,0,0,0,0,0,0,0,0,-1,1140,743,0,0
-77,281,0,0,0,0,0,0,0,0,0,-1,1147,743,0,0
-70,281,0,0,0,0,0,0,0,0,0,-1,1154,743,0,0
-63,281,0,0,0,0,0,0,0,0,0,-1,1161,743,0,0
-56,281,0,0,0,0,0,0,0,0,0,-1,1168,743,0,0
-49,281,0,0,0,0,0,0,0,0,0,-1,1175,743,0,0
-42,281,0,0,0,0,0,0,0,0,0,-1,1182,743,0,0
-35,281,0,0,0,0,0,0,0,0,0,-1,1189,743,0,0
-28,281,0,0,0,0,0,0,0,0,0,-1,1196,743,0,0
-21,281,0,0,0,0,0,0,0,0,0,-1,1203,743,0,0
-14,281,0,0,0,0,0,0,0,0,0,-1,1210,743,0,0
-7,281,0,0,0,0,0,0,0,0,0,-1,1217,743,0,0
0,281,0,0,0,0,0,0,0,0,0,-1,1224,743,0,0
7,281,0,0,0,0,0,0,0,0,0,-1,1231,743,0,0
14,281,0,0,0,0,0,0,0,0,0,-1,1238,743,0,0
21,281,0,0,0,0,0,0,0,0,0,-1,1245,743,0,0
28,281,0,0,0,0,0,0,0,0,0,-1,1252,743,0,0
35,281,0,0,0,0,0,0,0,0,0,-1,1259,743,0,0
42,281,0,0,0,0,0,0,0,0,0,-1,1266,743,0,0
49,281,0,0,0,0,0,0,0,0,0,-1,1273,743,0,0
56,281,0,0,0,0,0,0,0,0,0,-1,1280,743,0,0
63,281,0,0,0,0,0,0,0,0,0,-1,1287,743,0,0
70,281,0,0,0,0,0,0,0,0,0,-1,1294,743,0,0
77,281,0,0,0,0,0,0,0,0,0,-1,1301,743,0,0
84,281,0,0,0,0,0,0,0,0,0,-1,1308,743,0,0
91,281,0,0,0,0,0,0,0,0,0,-1,1315,743,0,0
98,281,0,0,0,0,0,0,0,0,0,-1,1322,743,0,0
105,281,0,0,0,0,0,0,0,0,0,-1,1329,743,0,0
112,281,0,0,0,0,0,0,0,0,0,-1,1336,743,0,0
119,281,0,0,0,0,0,0,0,0,0,-1,1343,743,0,0
126,281,0,0,0,0,0,0,0,0,0,-1,1350,743,0,0
133,281,0,0,0,0,0,0,0,0,0,-1,1357,743,0,0
140,281,0,0,0,0,0,0,0,0,0,-1,1364,743,0,0
147,281,0,0,0,0,0,0,0,0,0,-1,1371,743,0,0
154,281,0,0,0,0,0,0,0,0,0,-1,1378,743,0,0
161,281,0,0,0,0,0,0,0,0,0,-1,1385,743,0,0
168,281,0,0,0,0,0,0,0,0,0,-1,1392,743,0,0
175,281,0,0,0,0,0,0,0,0,0,-1,1399,743,0,0
182,281,0,0,0,0,0,0,0,0,0,-1,1406,743,0,0
189,281,0,0,0,0,0,0,0,0,0,-1,1413,743,0,0
196,281,0,0,0,0,0,0,0,0,0,-1,1420,743,0,0
203,281,0,0,0,0,0,0,0,0,0,-1,1427,743,0,0
210,281,0,0,0,0,0,0,0,0,0,-1,1434,743,0,0
217,281,0,0,0,0,0,0,0,0,0,-1,1441,743,0,0
224,281,0,0,0,0,0,0,0,0,0,-1,1448,743,0,0
231,281,0,0,0,0,0,0,0,0,0,-1,1455,743,0,0
238,281,0,0,0,0,0,0,0,0,0,-1,1462,743,0,0
245,281,0,0,0,0,0,0,0,0,0,-1,1469,743,0,0
252,281,0,0,0,0,0,0,0,0,0,-1,1476,743,0,0
259,281,0,0,0,0,0,0,0,0,0,-1,1483,743,0,0
266,281,0,0,0,0,0,0,0,0,0,-1,1490,743,0,0
273,281,0,0,0,0,0,0,0,0,0,-1,1497,743,0,0
280,281,0,0,0,0,0,0,0,0,0,-1,1504,743,0,0
287,281,0,0,0,0,0,0,0,0,0,-1,1511,743,0,0
294,281,0,0,0,0,0,0,0,0,0,-1,1518,743,0,0
301,281,0,0,0,0,0,0,0,0,0,-1,1525,743,0,0
308,281,0,0,0,0,0,0,0,0,0,-1,1532,743,0,0
315,281,0,0,0,0,0,0,0,0,0,-1,1539,743,0,0
322,281,0,0,0,0,0,0,0,0,0,-1,1546,743,0,0
329,281,0,0,0,0,0,0,0,0,0,-1,1553,743,0,0
336,281,0,0,0,0,0,0,0,0,0,-1,1560,743,0,0
343,281,0,0,0,0,0,0,0,0,0,-1,1567,743,0,0
350,281,0,0,0,0,0,0,0,0,0,-1,1574,743,0,0
357,281,0,0,0,0,0,0,0,0,0,-1,1581,743,0,0
364,281,0,0,0,0,0,0,0,0,0,-1,1588,743,0,0
371,281,0,0,0,0,0,0,0,0,0,-1,1595,743,0,0
378,281,0,0,0,0,0,0,0,0,0,-1,1602,743,0,0
385,281,0,0,0,0,0,0,0,0,0,-1,1609,743,0,0
392,281,0,0,0,0,0,0,0,0,0,-1,1616,743,0,0
399,281,0,0,0,0,0,0,0,0,0,-1,1623,743,0,0
406,281,0,0,0,0,0,0,0,0,0,-1,1630,743,0,0
413,281,0,0,0,0,0,0,0,0,0,-1,1637,743,0,0
420,281,0,0,0,0,0,0,0,0,0,-1,1644,743,0,0
427,281,0,0,0,0,0,0,0,0,0,-1,1651,743,0,0
434,281,0,0,0,0,0,0,0,0,0,-1,1658,743,0,0
441,281,0,0,0,0,0,0,0,0,0,-1,1665,743,0,0
448,281,0,0,0,0,0,0,0,0,0,-1,1672,743,0,0
455,281,0,0,0,0,0,0,0,0,0,-1,1679,743,0,0
462,281,0,0,0,0,0,0,0,0,0,-1,1686,743,0,0
469,281,0,0,0,0,0,0,0,0,0,-1,1693,743,0,0
476,281,0,0,0,0,0,0,0,0,0,-1,1700,743,0,0
483,281,0,0,0,0,0,0,0,0,0,-1,1707,743,0,0
490,281,0,0,0,0,0,0,0,0,0,-1,1714,743,0,0
497,281,0,0,0,0,0,0,0,0,0,-1,1721,743,0,0
504,281,0,0,0,0,0,0,0,0,0,-1,1728,743,0,0
511,281,0,0,0,0,0,0,0,0,0,-1,1735,743,0,0
518,281,0,0,0,0,0,0,0,0,0,-1,1742,743,0,0
525,281,0,0,0,0,0,0,0,0,0,-1,1749,743,0,0
532,281,0,0,0,0,0,0,0,0,0,-1,1756,743,0,0
539,281,0,0,0,0,0,0,0,0,0,-1,1763,743,0,0
546,281,0,0,0,0,0,0,0,0,0,-1,1770,743,0,0
553,281,0,0,0,0,0,0,0,0,0,-1,1777,743,0,0
560,281,57.8354,3.06482,0,0,0,0,0,0,0,-1,1784,743,57.8354,-3.06479
567,281,57.6156,3.64508,0,0,0,0,0,0,0,-1,1791,743,57.6156,-3.64511
574,281,57.3431,4.17767,0,0,0,0,0,0,0,-1,1798,743,57.3431,-4.17769
581,281,57.0648,4.53906,0,0,0,0,0,0,0,-1,1805,743,57.0648,-4.53908
588,281,53.5422,6.00092,0,0,0,0,0,0,0,-1,1812,743,53.5422,-6.00092
595,281,54.8569,3.32269,0,0,0,0,0,0,0,-1,1819,743,54.857,-3.32269
602,281,45.9985,3.98254,0,0,0,0,0,0,0,-1,1826,743,45.9985,-3.98254
609,281,32.7925,1.28723,0,0,0,0,0,0,0,-1,1833,743,32.7925,-1.28722
616,281,21.3191,-0.253906,0,0,0,0,0,0,0,-1,1840,743,21.3191,0.253931
623,281,31.8741,-4.74182,0,0,0,0,0,0,0,-1,1847,743,31.8741,4.74184
630,281,47.4697,-8.31158,0,0,0,0,0,0,0,-1,1854,743,47.4697,8.31161
637,281,47.4,-7.52661,0.00249457,0.00100354,0.00045794,0.00262398,0.000874121,0.275419,0.00154282,0.0246035,1861,743,47.4001,7.52663
644,281,47.4009,-6.62451,0.00168483,0.000526655,0.000509901,0.00187733,0.000334159,0.360975,0.00115637,0.0116851,1868,743,47.4009,6.62448
651,281,47.359,-5.69855,0.00135797,0.000317365,0.00044843,0.00152455,0.000150787,0.355671,0.000970016,0.0130102,1875,743,47.359,5.69855
658,281,47.3372,-4.77515,0.00142378,0.00041667,0.000484468,0.00161899,0.000221456,0.383042,0.0010136,0.0214212,1882,743,47.3372,4.77513
665,281,47.2952,-3.89417,0.00141386,0.000876309,0.000604812,0.00180693,0.000483239,0.576308,0.00108019,0.0214835,1889,743,47.2952,3.89416
672,281,47.2131,-2.9519,0.00145098,0.00148436,0.00079396,0.00226181,0.000673534,0.795905,0.00134098,0.0142576,1896,743,47.2131,2.95192
679,281,47.1542,-2.05011,0.00154493,0.00223009,0.000991034,0.00293608,0.000838932,0.951809,0.00174626,0.0222024,1903,743,47.1542,2.05014
686,281,47.0178,-1.17151,0.00168058,0.00308951,0.00119914,0.0037758,0.000994288,1.05098,0.0022599,0.0176167,1910,743,47.0179,1.17149
693,281,46.99,-0.240234,0.00195596,0.00418559,0.00147501,0.00491968,0.00122187,1.109,0.00295785,0.0134233,1917,743,46.99,0.240241
700,281,46.9487,0.772583,0.00234993,0.0054781,0.0018177,0.00631202,0.00151602,1.14067,0.00380472,0.047633,1924,743,46.9488,-0.772566
707,281,47.0588,1.75903,0,0,0,0,0,0,0,-1,1931,743,47.0589,-1.75901
714,281,25.0125,2.5105,0,0,0,0,0,0,0,-1,1938,743,25.0124,-2.51053
721,281,16.9656,3.22174,0,0,0,0,0,0,0,-1,1945,743,16.9656,-3.22172
728,281,19.0251,3.63934,0,0,0,0,0,0,0,-1,1952,743,19.0252,-3.63932
735,281,19.0869,2.50311,0,0,0,0,0,0,0,-1,1959,743,19.0869,-2.5031
742,281,0,0,0,0,0,0,0,0,0,-1,1966,743,0,0
749,281,0,0,0,0,0,0,0,0,0,-1,1973,743,0,0
756,281,0,0,0,0,0,0,0,0,0,-1,1980,743,0,0
763,281,0,0,0,0,0,0,0,0,0,-1,1987,743,0,0
770,281,0,0,0,0,0,0,0,0,0,-1,1994,743,0,0
777,281,0,0,0,0,0,0,0,0,0,-1,2001,743,0,0
784,281,0,0,0,0,0,0,0,0,0,-1,2008,743,0,0
791,281,0,0,0,0,0,0,0,0,0,-1,2015,743,0,0
798,281,0,0,0,0,0,0,0,0,0,-1,2022,743,0,0
805,281,0,0,0,0,0,0,0,0,0,-1,2029,743,0,0
812,281,0,0,0,0,0,0,0,0,0,-1,2036,743,0,0
-700,274,0,0,0,0,0,0,0,0,0,-1,524,750,0,0
-693,274,0,0,0,0,0,0,0,0,0,-1,531,750,0,0
-686,274,0,0,0,0,0,0,0,0,0,-1,538,750,0,0
-679,274,0,0,0,0,0,0,0,0,0,-1,545,750,0,0
-672,274,0,0,0,0,0,0,0,0,0,-1,552,750,0,0
-665,274,0,0,0,0,0,0,0,0,0,-1,559,750,0,0
-658,274,0,0,0,0,0,0,0,0,0,-1,566,750,0,0
-651,274,0,0,0,0,0,0,0,0,0,-1,573,750,0,0
-644,274,0,0,0,0,0,0,0,0,0,-1,580,750,0,0
-637,274,0,0,0,0,0,0,0,0,0,-1,587,750,0,0
-630,274,0,0,0,0,0,0,0,0,0,-1,594,750,0,0
-623,274,-19.6909,5.12701,0,0,0,0,0,0,0,-1,601,750,-19.6908,-5.12703
-616,274,-17.9133,3.9024,0,0,0,0,0,0,0,-1,608,750,-17.9133,-3.90239
-609,274,-26.0861,5.57306,0,0,0,0,0,0,0,-1,615,750,-26.0861,-5.57307
-602,274,-25.7372,3.73846,0,0,0,0,0,0,0,-1,622,750,-25.7372,-3.73849
-595,274,-25.258,2.53473,0,0,0,0,0,0,0,-1,629,750,-25.258,-2.53474
-588,274,-24.9805,2.2334,0,0,0,0,0,0,0,-1,636,750,-24.9805,-2.23341
-581,274,-31.8962,0.969849,0,0,0,0,0,0,0,-1,643,750,-31.8962,-0.969872
-574,274,-31.802,0.0620728,0.000566514,0.000860169,-0.00672898,0.00744393,-0.00601724,-0.796307,0.00778635,0.0303744,650,750,-31.802,-0.062103
-567,274,-32.0905,-0.788818,5.35802e-05,0.00114823,-0.00414252,0.00477942,-0.00357761,-0.851079,0.00484154,0.0296603,657,750,-32.0904,0.788822
-560,274,-32.1393,-1.66498,-0.000309978,0.00115796,-0.00239283,0.00292686,-0.00207888,-0.93421,0.00290386,0.0150127,664,750,-32.1394,1.66499
-553,274,-32.1948,-2.58307,-0.000510915,0.000930851,-0.00113789,0.00155699,-0.00113706,-1.06775,0.0015617,0.0100761,671,750,-32.1948,2.58309
-546,274,-32.2675,-3.46606,-0.000694669,0.000573718,-0.000196587,0.000603488,-0.000724439,-1.4205,0.000767739,0.0123035,678,750,-32.2675,3.46609
-539,274,-32.3347,-4.36719,-0.000955431,0.000469389,0.000716377,0.000767288,-0.00125333,1.17671,0.0011778,0.0131466,685,750,-32.3347,4.36719
-532,274,-32.3925,-5.25708,-0.00127685,-0.00013082,0.00126667,0.00068642,-0.00209409,0.997812,0.0016725,0.0147943,692,750,-32.3924,5.25707
-525,274,-32.4557,-6.14355,-0.00156991,-0.000501942,0.00162439,0.000673978,-0.00274583,0.944198,0.00209172,0.0153502,699,750,-32.4557,6.14356
-518,274,-32.4945,-7.09406,-0.0021186,-0.000776488,0.00203804,0.000698132,-0.00359322,0.944441,0.00265892,0.0134445,706,750,-32.4945,7.09408
-511,274,-32.5361,-8.06195,-0.00305208,-0.00106129,0.00260189,0.000729106,-0.00484248,0.968093,0.00349678,0.0209476,713,750,-32.5361,8.06194
-504,274,-32.6949,-9.08307,-0.00392327,-0.0013995,0.00316038,0.000741607,-0.00606438,0.975342,0.00431143,0.0392234,720,750,-32.695,9.08308
-497,274,-32.9515,-10.1559,0,0,0,0,0,0,0,-1,727,750,-32.9515,10.1559
-490,274,-13.6545,-3.58826,0,0,0,0,0,0,0,-1,734,750,-13.6546,3.58825
-483,274,-27.8608,1.30981,0,0,0,0,0,0,0,-1,741,750,-27.8608,-1.30979
-476,274,-33.7561,-0.508606,0,0,0,0,0,0,0,-1,748,750,-33.7561,0.508636
-469,274,-41.1387,0.907715,0,0,0,0,0,0,0,-1,755,750,-41.1387,-0.907744
-462,274,-56.4362,0.240723,0,0,0,0,0,0,0,-1,762,750,-56.4362,-0.240732
-455,274,-56.3354,0.39563,0,0,0,0,0,0,0,-1,769,750,-56.3354,-0.395609
-448,274,-56.1052,0.421143,0,0,0,0,0,0,0,-1,776,750,-56.1052,-0.421134
-441,274,0,0,0,0,0,0,0,0,0,-1,783,750,0,0
-434,274,0,0,0,0,0,0,0,0,0,-1,790,750,0,0
-427,274,0,0,0,0,0,0,0,0,0,-1,797,750,0,0
-420,274,0,0,0,0,0,0,0,0,0,-1,804,750,0,0
-413,274,0,0,0,0,0,0,0,0,0,-1,811,750,0,0
-406,274,0,0,0,0,0,0,0,0,0,-1,818,750,0,0
-399,274,0,0,0,0,0,0,0,0,0,-1,825,750,0,0
-392,274,0,0,0,0,0,0,0,0,0,-1,832,750,0,0
-385,274,0,0,0,0,0,0,0,0,0,-1,839,750,0,0
-378,274,0,0,0,0,0,0,0,0,0,-1,846,750,0,0
-371,274,0,0,0,0,0,0,0,0,0,-1,853,750,0,0
-364,274,0,0,0,0,0,0,0,0,0,-1,860,750,0,0
-357,274,0,0,0,0,0,0,0,0,0,-1,867,750,0,0
-350,274,0,0,0,0,0,0,0,0,0,-1,874,750,0,0
-343,274,0,0,0,0,0,0,0,0,0,-1,881,750,0,0
-336,274,0,0,0,0,0,0,0,0,0,-1,888,750,0,0
-329,274,0,0,0,0,0,0,0,0,0,-1,895,750,0,0
-322,274,0,0,0,0,0,0,0,0,0,-1,902,750,0,0
-315,274,0,0,0,0,0,0,0,0,0,-1,909,750,0,0
-308,274,0,0,0,0,0,0,0,0,0,-1,916,750,0,0
-301,274,0,0,0,0,0,0,0,0,0,-1,923,750,0,0
-294,274,0,0,0,0,0,0,0,0,0,-1,930,750,0,0
-287,274,0,0,0,0,0,0,0,0,0,-1,937,750,0,0
-280,274,0,0,0,0,0,0,0,0,0,-1,944,750,0,0
-273,274,0,0,0,0,0,0,0,0,0,-1,951,750,0,0
-266,274,0,0,0,0,0,0,0,0,0,-1,958,750,0,0
-259,274,0,0,0,0,0,0,0,0,0,-1,965,750,0,0
-252,274,0,0,0,0,0,0,0,0,0,-1,972,750,0,0
-245,274,0,0,0,0,0,0,0,0,0,-1,979,750,0,0
-238,274,0,0,0,0,0,0,0,0,0,-1,986,750,0,0
-231,274,0,0,0,0,0,0,0,0,0,-1,993,750,0,0
-224,274,0,0,0,0,0,0,0,0,0,-1,1000,750,0,0
-217,274,0,0,0,0,0,0,0,0,0,-1,1007,750,0,0
-210,274,0,0,0,0,0,0,0,0,0,-1,1014,750,0,0
-203,274,0,0,0,0,0,0,0,0,0,-1,1021,750,0,0
-196,274,0,0,0,0,0,0,0,0,0,-1,1028,750,0,0
-189,274,0,0,0,0,0,0,0,0,0,-1,1035,750,0,0
-182,274,0,0,0,0,0,0,0,0,0,-1,1042,750,0,0
-175,274,0,0,0,0,0,0,0,0,0,-1,1049,750,0,0
-168,274,0,0,0,0,0,0,0,0,0,-1,1056,750,0,0
-161,274,0,0,0,0,0,0,0,0,0,-1,1063,750,0,0
-154,274,0,0,0,0,0,0,0,0,0,-1,1070,750,0,0
-147,274,0,0,0,0,0,0,0,0,0,-1,1077,750,0,0
-140,274,0,0,0,0,0,0,0,0,0,-1,1084,750,0,0
-133,274,0,0,0,0,0,0,0,0,0,-1,1091,750,0,0
-126,274,0,0,0,0,0,0,0,0,0,-1,1098,750,0,0
-119,274,0,0,0,0,0,0,0,0,0,-1,1105,750,0,0
-112,274,0,0,0,0,0,0,0,0,0,-1,1112,750,0,0
-105,274,0,0,0,0,0,0,0,0,0,-1,1119,750,0,0
-98,274,0,0,0,0,0,0,0,0,0,-1,1126,750,0,0
-91,274,0,0,0,0,0,0,0,0,0,-1,1133,750,0,0
-84,274,0,0,0,0,0,0,0,0,0,-1,1140,750,0,0
-77,274,0,0,0,0,0,0,0,0,0,-1,1147,750,0,0
-70,274,0,0,0,0,0,0,0,0,0,-1,1154,750,0,0
-63,274,0,0,0,0,0,0,0,0,0,-1,1161,750,0,0
-56,274,0,0,0,0,0,0,0,0,0,-1,1168,750,0,0
-49,274,0,0,0,0,0,0,0,0,0,-1,1175,750,0,0
-42,274,0,0,0,0,0,0,0,0,0,-1,1182,750,0,0
-35,274,0,0,0,0,0,0,0,0,0,-1,1189,750,0,0
-28,274,0,0,0,0,0,0,0,0,0,-1,1196,750,0,0
-21,274,0,0,0,0,0,0,0,0,0,-1,1203,750,0,0
-14,274,0,0,0,0,0,0,0,0,0,-1,1210,750,0,0
-7,274,0,0,0,0,0,0,0,0,0,-1,1217,750,0,0
0,274,0,0,0,0,0,0,0,0,0,-1,1224,750,0,0
7,274,0,0,0,0,0,0,0,0,0,-1,1231,750,0,0
14,274,0,0,0,0,0,0,0,0,0,-1,1238,750,0,0
21,274,0,0,0,0,0,0,0,0,0,-1,1245,750,0,0
28,274,0,0,0,0,0,0,0,0,0,-1,1252,750,0,0
35,274,0,0,0,0,0,0,0,0,0,-1,1259,750,0,0
42,274,0,0,0,0,0,0,0,0,0,-1,1266,750,0,0
49,274,0,0,0,0,0,0,0,0,0,-1,1273,750,0,0
56,274,0,0,0,0,0,0,0,0,0,-1,1280,750,0,0
63,274,0,0,0,0,0,0,0,0,0,-1,1287,750,0,0
70,274,0,0,0,0,0,0,0,0,0,-1,1294,750,0,0
77,274,0,0,0,0,0,0,0,0,0,-1,1301,750,0,0
84,274,0,0,0,0,0,0,0,0,0,-1,1308,750,0,0
91,274,0,0,0,0,0,0,0,0,0,-1,1315,750,0,0
98,274,0,0,0,0,0,0,0,0,0,-1,1322,750,0,0
105,274,0,0,0,0,0,0,0,0,0,-1,1329,750,0,0
112,274,0,0,0,0,0,0,0,0,0,-1,1336,750,0,0
119,274,0,0,0,0,0,0,0,0,0,-1,1343,750,0,0
126,274,0,0,0,0,0,0,0,0,0,-1,1350,750,0,0
133,274,0,0,0,0,0,0,0,0,0,-1,1357,750,0,0
140,274,0,0,0,0,0,0,0,0,0,-1,1364,750,0,0
147,274,0,0,0,0,0,0,0,0,0,-1,1371,750,0,0
154,274,0,0,0,0,0,0,0,0,0,-1,1378,750,0,0
161,274,0,0,0,0,0,0,0,0,0,-1,1385,750,0,0
168,274,0,0,0,0,0,0,0,0,0,-1,1392,750,0,0
175,274,0,0,0,0,0,0,0,0,0,-1,1399,750,0,0
182,274,0,0,0,0,0,0,0,0,0,-1,1406,750,0,0
189,274,0,0,0,0,0,0,0,0,0,-1,1413,750,0,0
196,274,0,0,0,0,0,0,0,0,0,-1,1420,750,0,0
203,274,0,0,0,0,0,0,0,0,0,-1,1427,750,0,0
210,274,0,0,0,0,0,0,0,0,0,-1,1434,750,0,0
217,274,0,0,0,0,0,0,0,0,0,-1,1441,750,0,0
224,274,0,0,0,0,0,0,0,0,0,-1,1448,750,0,0
231,274,0,0,0,0,0,0,0,0,0,-1,1455,750,0,0
238,274,0,0,0,0,0,0,0,0,0,-1,1462,750,0,0
245,274,0,0,0,0,0,0,0,0,0,-1,1469,750,0,0
252,274,0,0,0,0,0,0,0,0,0,-1,1476,750,0,0
259,274,0,0,0,0,0,0,0,0,0,-1,1483,750,0,0
266,274,0,0,0,0,0,0,0,0,0,-1,1490,750,0,0
273,274,0,0,0,0,0,0,0,0,0,-1,1497,750,0,0
280,274,0,0,0,0,0,0,0,0,0,-1,1504,750,0,0
287,274,0,0,0,0,0,0,0,0,0,-1,1511,750,0,0
294,274,0,0,0,0,0,0,0,0,0,-1,1518,750,0,0
301,274,0,0,0,0,0,0,0,0,0,-1,1525,750,0,0
308,274,0,0,0,0,0,0,0,0,0,-1,1532,750,0,0
315,274,0,0,0,0,0,0,0,0,0,-1,1539,750,0,0
322,274,0,0,0,0,0,0,0,0,0,-1,1546,750,0,0
329,274,0,0,0,0,0,0,0,0,0,-1,1553,750,0,0
336,274,0,0,0,0,0,0,0,0,0,-1,1560,750,0,0
343,274,0,0,0,0,0,0,0,0,0,-1,1567,750,0,0
350,274,0,0,0,0,0,0,0,0,0,-1,1574,750,0,0
357,274,0,0,0,0,0,0,0,0,0,-1,1581,750,0,0
364,274,0,0,0,0,0,0,0,0,0,-1,1588,750,0,0
371,274,0,0,0,0,0,0,0,0,0,-1,1595,750,0,0
378,274,0,0,0,0,0,0,0,0,0,-1,1602,750,0,0
385,274,0,0,0,0,0,0,0,0,0,-1,1609,750,0,0
392,274,0,0,0,0,0,0,0,0,0,-1,1616,750,0,0
399,274,0,0,0,0,0,0,0,0,0,-1,1623,750,0,0
406,274,0,0,0,0,0,0,0,0,0,-1,1630,750,0,0
413,274,0,0,0,0,0,0,0,0,0,-1,1637,750,0,0
420,274,0,0,0,0,0,0,0,0,0,-1,1644,750,0,0
427,274,0,0,0,0,0,0,0,0,0,-1,1651,750,0,0
434,274,0,0,0,0,0,0,0,0,0,-1,1658,750,0,0
441,274,0,0,0,0,0,0,0,0,0,-1,1665,750,0,0
448,274,0,0,0,0,0,0,0,0,0,-1,1672,750,0,0
455,274,0,0,0,0,0,0,0,0,0,-1,1679,750,0,0
462,274,0,0,0,0,0,0,0,0,0,-1,1686,750,0,0
469,274,0,0,0,0,0,0,0,0,0,-1,1693,750,0,0
476,274,0,0,0,0,0,0,0,0,0,-1,1700,750,0,0
483,274,0,0,0,0,0,0,0,0,0,-1,1707,750,0,0
490,274,0,0,0,0,0,0,0,0,0,-1,1714,750,0,0
497,274,0,0,0,0,0,0,0,0,0,-1,1721,750,0,0
504,274,0,0,0,0,0,0,0,0,0,-1,1728,750,0,0
511,274,0,0,0,0,0,0,0,0,0,-1,1735,750,0,0
518,274,0,0,0,0,0,0,0,0,0,-1,1742,750,0,0
525,274,0,0,0,0,0,0,0,0,0,-1,1749,750,0,0
532,274,0,0,0,0,0,0,0,0,0,-1,1756,750,0,0
539,274,0,0,0,0,0,0,0,0,0,-1,1763,750,0,0
546,274,0,0,0,0,0,0,0,0,0,-1,1770,750,0,0
553,274,0,0,0,0,0,0,0,0,0,-1,1777,750,0,0
560,274,57.9182,3.24518,0,0,0,0,0,0,0,-1,1784,750,57.9182,-3.24516
567,274,57.8315,3.4137,0,0,0,0,0,0,0,-1,1791,750,57.8315,-3.41368
574,274,58.2571,3.11115,0,0,0,0,0,0,0,-1,1798,750,58.2571,-3.11114
581,274,54.4941,4.68127,0,0,0,0,0,0,0,-1,1805,750,54.4941,-4.68125
588,274,53.9908,5.6676,0,0,0,0,0,0,0,-1,1812,750,53.9908,-5.66763
595,274,66.2316,2.66986,0,0,0,0,0,0,0,-1,1819,750,66.2315,-2.66988
602,274,55.6321,2.56519,0,0,0,0,0,0,0,-1,1826,750,55.6321,-2.56521
609,274,44.6676,3.10461,0,0,0,0,0,0,0,-1,1833,750,44.6676,-3.1046
616,274,32.7869,1.78436,0,0,0,0,0,0,0,-1,1840,750,32.7868,-1.78437
623,274,24.8231,-1.80353,0,0,0,0,0,0,0,-1,1847,750,24.8232,1.80351
630,274,48.3912,-8.49237,0,0,0,0,0,0,0,-1,1854,750,48.3912,8.49238
637,274,48.2676,-7.5769,0.00228788,0.00121648,0.000741123,0.00266664,0.000837723,0.47246,0.00157464,0.0330781,1861,750,48.2676,7.57692
644,274,48.2885,-6.59161,0.00151293,0.000754099,0.000794954,0.00201437,0.000252659,0.562744,0.00126712,0.0150289,1868,750,48.2885,6.59161
651,274,48.2509,-5.66882,0.00118357,0.000399999,0.00057613,0.00148851,9.50629e-05,0.486799,0.000962219,0.013694,1875,750,48.2509,5.66885
658,274,48.2079,-4.74817,0.00135964,0.000239506,0.000435731,0.00150918,8.99699e-05,0.33059,0.000977509,0.0167606,1882,750,48.2079,4.74814
665,274,48.1632,-3.8017,0.00137175,0.000556221,0.000435436,0.00156054,0.000367433,0.409101,0.000942078,0.0174568,1889,750,48.1632,3.80171
672,274,48.1538,-2.89801,0.00132409,0.00110174,0.000533438,0.00175782,0.000668016,0.682663,0.00102457,0.0148459,1896,750,48.1539,2.89803
679,274,48.0781,-1.98303,0.00130839,0.00177724,0.000665619,0.00224851,0.000837124,0.954709,0.00131221,0.0156308,1903,750,48.0782,1.98306
686,274,47.9711,-1.07446,0.00133453,0.00256884,0.000810556,0.00297045,0.000932918,1.11078,0.00175407,0.0178203,1910,750,47.971,1.07445
693,274,47.8887,-0.157776,0.00146499,0.00350057,0.000989797,0.00390249,0.00106307,1.18507,0.00232961,0.0136452,1917,750,47.8887,0.157801
700,274,47.8948,0.806519,0.00171699,0.00457649,0.00122268,0.00502799,0.00126548,1.21705,0.00301988,0.0208363,1924,750,47.8948,-0.806501
707,274,47.6813,1.72845,0.00188055,0.0055725,0.00127282,0.00596878,0.00148427,1.26897,0.00358826,0.0486685,1931,750,47.6812,-1.72843
714,274,47.3774,2.76727,0,0,0,0,0,0,0,-1,1938,750,47.3775,-2.7673
721,274,25.6215,3.91144,0,0,0,0,0,0,0,-1,1945,750,25.6214,-3.91141
728,274,19.2209,3.95154,0,0,0,0,0,0,0,-1,1952,750,19.221,-3.95151
735,274,20.6608,4.10931,0,0,0,0,0,0,0,-1,1959,750,20.6607,-4.10932
742,274,11.7815,-0.740234,0,0,0,0,0,0,0,-1,1966,750,11.7815,0.740253
749,274,0,0,0,0,0,0,0,0,0,-1,1973,750,0,0
756,274,0,0,0,0,0,0,0,0,0,-1,1980,750,0,0
763,274,0,0,0,0,0,0,0,0,0,-1,1987,750,0,0
770,274,0,0,0,0,0,0,0,0,0,-1,1994,750,0,0
777,274,0,0,0,0,0,0,0,0,0,-1,2001,750,0,0
784,274,0,0,0,0,0,0,0,0,0,-1,2008,750,0,0
791,274,0,0,0,0,0,0,0,0,0,-1,2015,750,0,0
798,274,0,0,0,0,0,0,0,0,0,-1,2022,750,0,0
805,274,0,0,0,0,0,0,0,0,0,-1,2029,750,0,0
812,274,0,0,0,0,0,0,0,0,0,-1,2036,750,0,0
-700,267,0,0,0,0,0,0,0,0,0,-1,524,757,0,0
-693,267,0,0,0,0,0,0,0,0,0,-1,531,757,0,0
-686,267,0,0,0,0,0,0,0,0,0,-1,538,757,0,0
-679,267,0,0,0,0,0,0,0,0,0,-1,545,757,0,0
-672,267,0,0,0,0,0,0,0,0,0,-1,552,757,0,0
-665,267,0,0,0,0,0,0,0,0,0,-1,559,757,0,0
-658,267,0,0,0,0,0,0,0,0,0,-1,566,757,0,0
-651,267,0,0,0,0,0,0,0,0,0,-1,573,757,0,0
-644,267,0,0,0,0,0,0,0,0,0,-1,580,757,0,0
-637,267,0,0,0,0,0,0,0,0,0,-1,587,757,0,0
-630,267,-21.3979,5.17529,0,0,0,0,0,0,0,-1,594,757,-21.3979,-5.17529
-623,267,-20.043,4.43115,0,0,0,0,0,0,0,-1,601,757,-20.043,-4.43116
-616,267,-27.1628,5.9325,0,0,0,0,0,0,0,-1,608,757,-27.1629,-5.93249
-609,267,-26.9868,4.99658,0,0,0,0,0,0,0,-1,615,757,-26.9868,-4.99656
-602,267,-26.6637,3.74072,0,0,0,0,0,0,0,-1,622,757,-26.6637,-3.74075
-595,267,-32.7299,2.1203,0,0,0,0,0,0,0,-1,629,757,-32.7299,-2.12028
-588,267,-32.6389,2.39282,0,0,0,0,0,0,0,-1,636,757,-32.6388,-2.39281
-581,267,-32.7203,1.29468,0.00246839,-0.001749,-0.0101037,0.010681,-0.00996166,-0.682522,0.0119205,0.0455244,643,757,-32.7203,-1.29468
-574,267,-32.8061,0.233521,0.00135239,-0.000295813,-0.00651647,0.00709666,-0.00604008,-0.7225,0.00759267,0.0267347,650,757,-32.8061,-0.233513
-567,267,-32.9745,-0.633423,0.000556116,0.000359449,-0.00392503,0.00438405,-0.00346848,-0.772874,0.00454392,0.0310516,657,757,-32.9746,0.6334
-560,267,-33.0298,-1.565,-3.77237e-05,0.00063624,-0.00211839,0.00244428,-0.00184577,-0.864275,0.00248488,0.0228567,664,757,-33.0298,1.56499
-553,267,-33.0812,-2.48431,-0.000475181,0.000675162,-0.000807704,0.00109156,-0.000891578,-1.0948,0.0011469,0.0179454,671,757,-33.0812,2.48433
-546,267,-33.1653,-3.4126,-0.000852158,0.000509366,0.000192306,0.000536007,-0.000878799,1.43314,0.000824792,0.0121039,678,757,-33.1653,3.41262
-539,267,-33.2047,-4.33179,-0.00128188,0.000479012,0.0011255,0.00102753,-0.00183039,1.11732,0.00167159,0.0124903,685,757,-33.2047,4.33177
-532,267,-33.2295,-5.23505,-0.00172418,4.01821e-05,0.00165737,0.00103553,-0.00271953,1.02997,0.00223948,0.0137867,692,757,-33.2295,5.23504
-525,267,-33.3336,-6.09424,-0.00214239,-0.000168368,0.00203187,0.00110354,-0.00341429,1.01149,0.00271972,0.0129459,699,757,-33.3336,6.09421
-518,267,-33.4161,-7.02032,-0.00294253,-0.000330307,0.00248015,0.00116663,-0.00443947,1.02776,0.00341559,0.0158493,706,757,-33.4161,7.02032
-511,267,-33.3953,-7.98395,-0.00417959,-0.000491805,0.00309548,0.00126735,-0.00593875,1.05401,0.00444229,0.034675,713,757,-33.3953,7.98392
-504,267,-33.5953,-9.02374,0,0,0,0,0,0,0,-1,720,757,-33.5953,9.02376
-497,267,-31.5913,-8.72119,0,0,0,0,0,0,0,-1,727,757,-31.5913,8.72117
-490,267,-23.4949,-0.494995,0,0,0,0,0,0,0,-1,734,757,-23.4949,0.494981
-483,267,-33.2785,-0.448425,0,0,0,0,0,0,0,-1,741,757,-33.2785,0.448407
-476,267,-40.2954,0.52002,0,0,0,0,0,0,0,-1,748,757,-40.2954,-0.520037
-469,267,-52.9857,0.187744,0,0,0,0,0,0,0,-1,755,757,-52.9857,-0.187726
-462,267,-58.0247,0.0516357,0,0,0,0,0,0,0,-1,762,757,-58.0247,-0.0516229
-455,267,-56.5999,0.790771,0,0,0,0,0,0,0,-1,769,757,-56.5999,-0.790769
-448,267,-56.4718,0.802429,0,0,0,0,0,0,0,-1,776,757,-56.4718,-0.802434
-441,267,0,0,0,0,0,0,0,0,0,-1,783,757,0,0
-434,267,0,0,0,0,0,0,0,0,0,-1,790,757,0,0
-427,267,0,0,0,0,0,0,0,0,0,-1,797,757,0,0
-420,267,0,0,0,0,0,0,0,0,0,-1,804,757,0,0
-413,267,0,0,0,0,0,0,0,0,0,-1,811,757,0,0
-406,267,0,0,0,0,0,0,0,0,0,-1,818,757,0,0
-399,267,0,0,0,0,0,0,0,0,0,-1,825,757,0,0
-392,267,0,0,0,0,0,0,0,0,0,-1,832,757,0,0
-385,267,0,0,0,0,0,0,0,0,0,-1,839,757,0,0
-378,267,0,0,0,0,0,0,0,0,0,-1,846,757,0,0
-371,267,0,0,0,0,0,0,0,0,0,-1,853,757,0,0
-364,267,0,0,0,0,0,0,0,0,0,-1,860,757,0,0
-357,267,0,0,0,0,0,0,0,0,0,-1,867,757,0,0
-350,267,0,0,0,0,0,0,0,0,0,-1,874,757,0,0
-343,267,0,0,0,0,0,0,0,0,0,-1,881,757,0,0
-336,267,0,0,0,0,0,0,0,0,0,-1,888,757,0,0
-329,267,0,0,0,0,0,0,0,0,0,-1,895,757,0,0
-322,267,0,0,0,0,0,0,0,0,0,-1,902,757,0,0
-315,267,0,0,0,0,0,0,0,0,0,-1,909,757,0,0
-308,267,0,0,0,0,0,0,0,0,0,-1,916,757,0,0
-301,267,0,0,0,0,0,0,0,0,0,-1,923,757,0,0
-294,267,0,0,0,0,0,0,0,0,0,-1,930,757,0,0
-287,267,0,0,0,0,0,0,0,0,0,-1,937,757,0,0
-280,267,0,0,0,0,0,0,0,0,0,-1,944,757,0,0
-273,267,0,0,0,0,0,0,0,0,0,-1,951,757,0,0
-266,267,0,0,0,0,0,0,0,0,0,-1,958,757,0,0
-259,267,0,0,0,0,0,0,0,0,0,-1,965,757,0,0
-252,267,0,0,0,0,0,0,0,0,0,-1,972,757,0,0
-245,267,0,0,0,0,0,0,0,0,0,-1,979,757,0,0
-238,267,0,0,0,0,0,0,0,0,0,-1,986,757,0,0
-231,267,0,0,0,0,0,0,0,0,0,-1,993,757,0,0
-224,267,0,0,0,0,0,0,0,0,0,-1,1000,757,0,0
-217,267,0,0,0,0,0,0,0,0,0,-1,1007,757,0,0
-210,267,0,0,0,0,0,0,0,0,0,-1,1014,757,0,0
-203,267,0,0,0,0,0,0,0,0,0,-1,1021,757,0,0
-196,267,0,0,0,0,0,0,0,0,0,-1,1028,757,0,0
-189,267,0,0,0,0,0,0,0,0,0,-1,1035,757,0,0
-182,267,0,0,0,0,0,0,0,0,0,-1,1042,757,0,0
-175,267,0,0,0,0,0,0,0,0,0,-1,1049,757,0,0
-168,267,0,0,0,0,0,0,0,0,0,-1,1056,757,0,0
-161,267,0,0,0,0,0,0,0,0,0,-1,1063,757,0,0
-154,267,0,0,0,0,0,0,0,0,0,-1,1070,757,0,0
-147,267,0,0,0,0,0,0,0,0,0,-1,1077,757,0,0
-140,267,0,0,0,0,0,0,0,0,0,-1,1084,757,0,0
-133,267,0,0,0,0,0,0,0,0,0,-1,1091,757,0,0
-126,267,0,0,0,0,0,0,0,0,0,-1,1098,757,0,0
-119,267,0,0,0,0,0,0,0,0,0,-1,1105,757,0,0
-112,267,0,0,0,0,0,0,0,0,0,-1,1112,757,0,0
-105,267,0,0,0,0,0,0,0,0,0,-1,1119,757,0,0
-98,267,0,0,0,0,0,0,0,0,0,-1,1126,757,0,0
-91,267,0,0,0,0,0,0,0,0,0,-1,1133,757,0,0
-84,267,0,0,0,0,0,0,0,0,0,-1,1140,757,0,0
-77,267,0,0,0,0,0,0,0,0,0,-1,1147,757,0,0
-70,267,0,0,0,0,0,0,0,0,0,-1,1154,757,0,0
-63,267,0,0,0,0,0,0,0,0,0,-1,1161,757,0,0
-56,267,0,0,0,0,0,0,0,0,0,-1,1168,757,0,0
-49,267,0,0,0,0,0,0,0,0,0,-1,1175,757,0,0
-42,267,0,0,0,0,0,0,0,0,0,-1,1182,757,0,0
-35,267,0,0,0,0,0,0,0,0,0,-1,1189,757,0,0
-28,267,0,0,0,0,0,0,0,0,0,-1,1196,757,0,0
-21,267,0,0,0,0,0,0,0,0,0,-1,1203,757,0,0
-14,267,0,0,0,0,0,0,0,0,0,-1,1210,757,0,0
-7,267,0,0,0,0,0,0,0,0,0,-1,1217,757,0,0
0,267,0,0,0,0,0,0,0,0,0,-1,1224,757,0,0
7,267,0,0,0,0,0,0,0,0,0,-1,1231,757,0,0
14,267,0,0,0,0,0,0,0,0,0,-1,1238,757,0,0
21,267,0,0,0,0,0,0,0,0,0,-1,1245,757,0,0
28,267,0,0,0,0,0,0,0,0,0,-1,1252,757,0,0
35,267,0,0,0,0,0,0,0,0,0,-1,1259,757,0,0
42,267,0,0,0,0,0,0,0,0,0,-1,1266,757,0,0
49,267,0,0,0,0,0,0,0,0,0,-1,1273,757,0,0
56,267,0,0,0,0,0,0,0,0,0,-1,1280,757,0,0
63,267,0,0,0,0,0,0,0,0,0,-1,1287,757,0,0
70,267,0,0,0,0,0,0,0,0,0,-1,1294,757,0,0
77,267,0,0,0,0,0,0,0,0,0,-1,1301,757,0,0
84,267,0,0,0,0,0,0,0,0,0,-1,1308,757,0,0
91,267,0,0,0,0,0,0,0,0,0,-1,1315,757,0,0
98,267,0,0,0,0,0,0,0,0,0,-1,1322,757,0,0
105,267,0,0,0,0,0,0,0,0,0,-1,1329,757,0,0
112,267,0,0,0,0,0,0,0,0,0,-1,1336,757,0,0
119,267,0,0,0,0,0,0,0,0,0,-1,1343,757,0,0
126,267,0,0,0,0,0,0,0,0,0,-1,1350,757,0,0
133,267,0,0,0,0,0,0,0,0,0,-1,1357,757,0,0
140,267,0,0,0,0,0,0,0,0,0,-1,1364,757,0,0
147,267,0,0,0,0,0,0,0,0,0,-1,1371,757,0,0
154,267,0,0,0,0,0,0,0,0,0,-1,1378,757,0,0
161,267,0,0,0,0,0,0,0,0,0,-1,1385,757,0,0
168,267,0,0,0,0,0,0,0,0,0,-1,1392,757,0,0
175,267,0,0,0,0,0,0,0,0,0,-1,1399,757,0,0
182,267,0,0,0,0,0,0,0,0,0,-1,1406,757,0,0
189,267,0,0,0,0,0,0,0,0,0,-1,1413,757,0,0
196,267,0,0,0,0,0,0,0,0,0,-1,1420,757,0,0
203,267,0,0,0,0,0,0,0,0,0,-1,1427,757,0,0
210,267,0,0,0,0,0,0,0,0,0,-1,1434,757,0,0
217,267,0,0,0,0,0,0,0,0,0,-1,1441,757,0,0
224,267,0,0,0,0,0,0,0,0,0,-1,1448,757,0,0
231,267,0,0,0,0,0,0,0,0,0,-1,1455,757,0,0
238,267,0,0,0,0,0,0,0,0,0,-1,1462,757,0,0
245,267,0,0,0,0,0,0,0,0,0,-1,1469,757,0,0
252,267,0,0,0,0,0,0,0,0,0,-1,1476,757,0,0
259,267,0,0,0,0,0,0,0,0,0,-1,1483,757,0,0
266,267,0,0,0,0,0,0,0,0,0,-1,1490,757,0,0
273,267,0,0,0,0,0,0,0,0,0,-1,1497,757,0,0
280,267,0,0,0,0,0,0,0,0,0,-1,1504,757,0,0
287,267,0,0,0,0,0,0,0,0,0,-1,1511,757,0,0
294,267,0,0,0,0,0,0,0,0,0,-1,1518,757,0,0
301,267,0,0,0,0,0,0,0,0,0,-1,1525,757,0,0
308,267,0,0,0,0,0,0,0,0,0,-1,1532,757,0,0
315,267,0,0,0,0,0,0,0,0,0,-1,1539,757,0,0
322,267,0,0,0,0,0,0,0,0,0,-1,1546,757,0,0
329,267,0,0,0,0,0,0,0,0,0,-1,1553,757,0,0
336,267,0,0,0,0,0,0,0,0,0,-1,1560,757,0,0
343,267,0,0,0,0,0,0,0,0,0,-1,1567,757,0,0
350,267,0,0,0,0,0,0,0,0,0,-1,1574,757,0,0
357,267,0,0,0,0,0,0,0,0,0,-1,1581,757,0,0
364,267,0,0,0,0,0,0,0,0,0,-1,1588,757,0,0
371,267,0,0,0,0,0,0,0,0,0,-1,1595,757,0,0
378,267,0,0,0,0,0,0,0,0,0,-1,1602,757,0,0
385,267,0,0,0,0,0,0,0,0,0,-1,1609,757,0,0
392,267,0,0,0,0,0,0,0,0,0,-1,1616,757,0,0
399,267,0,0,0,0,0,0,0,0,0,-1,1623,757,0,0
406,267,0,0,0,0,0,0,0,0,0,-1,1630,757,0,0
413,267,0,0,0,0,0,0,0,0,0,-1,1637,757,0,0
420,267,0,0,0,0,0,0,0,0,0,-1,1644,757,0,0
427,267,0,0,0,0,0,0,0,0,0,-1,1651,757,0,0
434,267,0,0,0,0,0,0,0,0,0,-1,1658,757,0,0
441,267,0,0,0,0,0,0,0,0,0,-1,1665,757,0,0
448,267,0,0,0,0,0,0,0,0,0,-1,1672,757,0,0
455,267,0,0,0,0,0,0,0,0,0,-1,1679,757,0,0
462,267,0,0,0,0,0,0,0,0,0,-1,1686,757,0,0
469,267,0,0,0,0,0,0,0,0,0,-1,1693,757,0,0
476,267,0,0,0,0,0,0,0,0,0,-1,1700,757,0,0
483,267,0,0,0,0,0,0,0,0,0,-1,1707,757,0,0
490,267,0,0,0,0,0,0,0,0,0,-1,1714,757,0,0
497,267,0,0,0,0,0,0,0,0,0,-1,1721,757,0,0
504,267,0,0,0,0,0,0,0,0,0,-1,1728,757,0,0
511,267,0,0,0,0,0,0,0,0,0,-1,1735,757,0,0
518,267,0,0,0,0,0,0,0,0,0,-1,1742,757,0,0
525,267,0,0,0,0,0,0,0,0,0,-1,1749,757,0,0
532,267,0,0,0,0,0,0,0,0,0,-1,1756,757,0,0
539,267,0,0,0,0,0,0,0,0,0,-1,1763,757,0,0
546,267,0,0,0,0,0,0,0,0,0,-1,1770,757,0,0
553,267,0,0,0,0,0,0,0,0,0,-1,1777,757,0,0
560,267,0,0,0,0,0,0,0,0,0,-1,1784,757,0,0
567,267,58.0104,3.24304,0,0,0,0,0,0,0,-1,1791,757,58.0104,-3.24306
574,267,64.5414,2.91858,0,0,0,0,0,0,0,-1,1798,757,64.5414,-2.91855
581,267,58.374,2.95636,0,0,0,0,0,0,0,-1,1805,757,58.3741,-2.95639
588,267,65.9681,2.6438,0,0,0,0,0,0,0,-1,1812,757,65.9682,-2.64382
595,267,66.191,2.60791,0,0,0,0,0,0,0,-1,1819,757,66.191,-2.60792
602,267,66.4139,2.57202,0,0,0,0,0,0,0,-1,1826,757,66.4139,-2.57203
609,267,54.5498,3.24054,0,0,0,0,0,0,0,-1,1833,757,54.5498,-3.24052
616,267,44.2543,3.28918,0,0,0,0,0,0,0,-1,1840,757,44.2542,-3.28918
623,267,24.1475,-1.1391,0,0,0,0,0,0,0,-1,1847,757,24.1475,1.13913
630,267,40.7198,-5.42108,0,0,0,0,0,0,0,-1,1854,757,40.7198,5.4211
637,267,49.0863,-7.38892,0,0,0,0,0,0,0,-1,1861,757,49.0863,7.38891
644,267,49.1975,-6.58362,0.00148859,0.000614415,0.00105041,0.00218922,-8.62145e-05,0.588238,0.00148905,0.0230754,1868,757,49.1975,6.5836
651,267,49.1384,-5.58136,0.00114558,0.000315892,0.000771238,0.00160647,-0.000144994,0.538647,0.00112244,0.0161936,1875,757,49.1385,5.58134
658,267,49.1135,-4.67035,0.00141584,3.726e-05,0.000469937,0.0015608,-0.000107693,0.299192,0.00107822,0.0147746,1882,757,49.1135,4.67035
665,267,49.0648,-3.74139,0.00150091,0.000239601,0.000323268,0.00157894,0.000161576,0.236835,0.00100311,0.0157644,1889,757,49.0648,3.74141
672,267,49.0479,-2.84869,0.00139132,0.000718365,0.000308097,0.00151106,0.000598618,0.370699,0.000878663,0.01424,1896,757,49.0479,2.84872
679,267,48.9987,-1.92719,0.00128511,0.0013024,0.000368285,0.00166214,0.000925369,0.797133,0.000961695,0.0126469,1903,757,48.9987,1.92721
686,267,48.9122,-0.992249,0.001229,0.00201668,0.000454845,0.0022245,0.00102118,1.14222,0.00128575,0.0178328,1910,757,48.9123,0.992235
693,267,48.7977,-0.122437,0.00126107,0.0027933,0.0005649,0.00297905,0.00107533,1.25312,0.00174198,0.0178981,1917,757,48.7977,0.122417
700,267,48.7755,0.77887,0.00142399,0.00367607,0.000728114,0.00389097,0.00120909,1.2838,0.00229947,0.0164374,1924,757,48.7755,-0.778897
707,267,48.7922,1.68378,0.00155799,0.00448476,0.000772699,0.00467623,0.00136651,1.32789,0.00277644,0.0236325,1931,757,48.7922,-1.68377
714,267,48.7476,2.56238,0,0,0,0,0,0,0,-1,1938,757,48.7476,-2.56237
721,267,47.0829,3.73804,0,0,0,0,0,0,0,-1,1945,757,47.0828,-3.73803
728,267,26.7886,3.90027,0,0,0,0,0,0,0,-1,1952,757,26.7886,-3.90028
735,267,24.6713,2.82483,0,0,0,0,0,0,0,-1,1959,757,24.6713,-2.82483
742,267,18.1177,3.56561,0,0,0,0,0,0,0,-1,1966,757,18.1176,-3.56564
749,267,0,0,0,0,0,0,0,0,0,-1,1973,757,0,0
756,267,0,0,0,0,0,0,0,0,0,-1,1980,757,0,0
763,267,0,0,0,0,0,0,0,0,0,-1,1987,757,0,0
770,267,0,0,0,0,0,0,0,0,0,-1,1994,757,0,0
777,267,0,0,0,0,0,0,0,0,0,-1,2001,757,0,0
784,267,0,0,0,0,0,0,0,0,0,-1,2008,757,0,0
791,267,0,0,0,0,0,0,0,0,0,-1,2015,757,0,0
798,267,0,0,0,0,0,0,0,0,0,-1,2022,757,0,0
805,267,0,0,0,0,0,0,0,0,0,-1,2029,757,0,0
812,267,0,0,0,0,0,0,0,0,0,-1,2036,757,0,0
-700,260,0,0,0,0,0,0,0,0,0,-1,524,764,0,0
-693,260,0,0,0,0,0,0,0,0,0,-1,531,764,0,0
-686,260,0,0,0,0,0,0,0,0,0,-1,538,764,0,0
-679,260,0,0,0,0,0,0,0,0,0,-1,545,764,0,0
-672,260,0,0,0,0,0,0,0,0,0,-1,552,764,0,0
-665,260,0,0,0,0,0,0,0,0,0,-1,559,764,0,0
-658,260,0,0,0,0,0,0,0,0,0,-1,566,764,0,0
-651,260,0,0,0,0,0,0,0,0,0,-1,573,764,0,0
-644,260,0,0,0,0,0,0,0,0,0,-1,580,764,0,0
-637,260,0,0,0,0,0,0,0,0,0,-1,587,764,0,0
-630,260,-21.8905,4.49341,0,0,0,0,0,0,0,-1,594,764,-21.8905,-4.49342
-623,260,-20.3127,3.53546,0,0,0,0,0,0,0,-1,601,764,-20.3127,-3.53544
-616,260,-23.4346,3.65009,0,0,0,0,0,0,0,-1,608,764,-23.4345,-3.65008
-609,260,-27.8874,4.42004,0,0,0,0,0,0,0,-1,615,764,-27.8874,-4.42005
-602,260,-32.8671,3.61243,0,0,0,0,0,0,0,-1,622,764,-32.867,-3.61241
-595,260,-34.3037,3.54144,0,0,0,0,0,0,0,-1,629,764,-34.3037,-3.54142
-588,260,-34.0571,2.30548,0.00437268,-0.00480688,-0.0138875,0.0144092,-0.0148435,-0.625801,0.0168897,0.0482224,636,764,-34.0571,-2.30546
-581,260,-33.8099,1.11066,0.00267881,-0.00216533,-0.00963836,0.0101948,-0.00968129,-0.6623,0.0114767,0.0308262,643,764,-33.8099,-1.11064
-574,260,-33.8507,0.241577,0.00158724,-0.000709997,-0.00622315,0.00676689,-0.00588964,-0.694139,0.0073131,0.0206338,650,764,-33.8507,-0.241597
-567,260,-33.8886,-0.577637,0.000729001,4.10695e-05,-0.003663,0.00406415,-0.00329408,-0.738584,0.00425603,0.0190121,657,764,-33.8886,0.577613
-560,260,-33.9569,-1.48767,6.19298e-05,0.000379897,-0.00179215,0.0020201,-0.00157827,-0.829638,0.00208273,0.0211242,664,764,-33.9569,1.48767
-553,260,-34.0218,-2.40997,-0.000478913,0.000503353,-0.000401761,0.000646746,-0.000622306,-1.22798,0.000732733,0.0182646,671,764,-34.0218,2.41
-546,260,-34.0829,-3.35022,-0.00096232,0.000401485,0.000709879,0.00070392,-0.00126475,1.16805,0.00115189,0.0118671,678,764,-34.083,3.35024
-539,260,-34.0957,-4.25574,-0.00148954,0.000289825,0.0016881,0.00130834,-0.00250806,1.02792,0.0022394,0.0139581,685,764,-34.0957,4.25575
-532,260,-34.1041,-5.10583,-0.00197944,-5.60893e-05,0.0022431,0.00142279,-0.00345832,0.98791,0.00289864,0.0189714,692,764,-34.1041,5.10581
-525,260,-34.2296,-5.99103,-0.00247441,-0.000152148,0.00270612,0.00163143,-0.00425799,0.988057,0.00351117,0.0189365,699,764,-34.2296,5.99104
-518,260,-34.4553,-6.89728,-0.00350392,-0.000243653,0.00327161,0.00178145,-0.00552903,1.01653,0.00440168,0.0298531,706,764,-34.4553,6.89726
-511,260,-34.5184,-7.81128,-0.00504176,-0.000295554,0.00402818,0.00200658,-0.0073439,1.05159,0.0056841,0.0496915,713,764,-34.5184,7.81129
-504,260,-34.7117,-8.67163,0,0,0,0,0,0,0,-1,720,764,-34.7117,8.6716
-497,260,-16.6542,-3.67334,0,0,0,0,0,0,0,-1,727,764,-16.6542,3.67331
-490,260,-29.4557,0.921387,0,0,0,0,0,0,0,-1,734,764,-29.4557,-0.921369
-483,260,-40.8972,1.04193,0,0,0,0,0,0,0,-1,741,764,-40.8972,-1.04193
-476,260,-53.8282,0.00378418,0,0,0,0,0,0,0,-1,748,764,-53.8283,-0.00378825
-469,260,-58.0835,0.493225,0,0,0,0,0,0,0,-1,755,764,-58.0835,-0.49325
-462,260,-58.0533,0.0831299,0,0,0,0,0,0,0,-1,762,764,-58.0533,-0.0831578
-455,260,-58.0157,0.299377,0,0,0,0,0,0,0,-1,769,764,-58.0157,-0.299348
-448,260,0,0,0,0,0,0,0,0,0,-1,776,764,0,0
-441,260,0,0,0,0,0,0,0,0,0,-1,783,764,0,0
-434,260,0,0,0,0,0,0,0,0,0,-1,790,764,0,0
-427,260,0,0,0,0,0,0,0,0,0,-1,797,764,0,0
-420,260,0,0,0,0,0,0,0,0,0,-1,804,764,0,0
-413,260,0,0,0,0,0,0,0,0,0,-1,811,764,0,0
-406,260,0,0,0,0,0,0,0,0,0,-1,818,764,0,0
-399,260,0,0,0,0,0,0,0,0,0,-1,825,764,0,0
-392,260,0,0,0,0,0,0,0,0,0,-1,832,764,0,0
-385,260,0,0,0,0,0,0,0,0,0,-1,839,764,0,0
-378,260,0,0,0,0,0,0,0,0,0,-1,846,764,0,0
-371,260,0,0,0,0,0,0,0,0,0,-1,853,764,0,0
-364,260,0,0,0,0,0,0,0,0,0,-1,860,764,0,0
-357,260,0,0,0,0,0,0,0,0,0,-1,867,764,0,0
-350,260,0,0,0,0,0,0,0,0,0,-1,874,764,0,0
-343,260,0,0,0,0,0,0,0,0,0,-1,881,764,0,0
-336,260,0,0,0,0,0,0,0,0,0,-1,888,764,0,0
-329,260,0,0,0,0,0,0,0,0,0,-1,895,764,0,0
-322,260,0,0,0,0,0,0,0,0,0,-1,902,764,0,0
-315,260,0,0,0,0,0,0,0,0,0,-1,909,764,0,0
-308,260,0,0,0,0,0,0,0,0,0,-1,916,764,0,0
-301,260,0,0,0,0,0,0,0,0,0,-1,923,764,0,0
-294,260,0,0,0,0,0,0,0,0,0,-1,930,764,0,0
-287,260,0,0,0,0,0,0,0,0,0,-1,937,764,0,0
-280,260,0,0,0,0,0,0,0,0,0,-1,944,764,0,0
-273,260,0,0,0,0,0,0,0,0,0,-1,951,764,0,0
-266,260,0,0,0,0,0,0,0,0,0,-1,958,764,0,0
-259,260,0,0,0,0,0,0,0,0,0,-1,965,764,0,0
-252,260,0,0,0,0,0,0,0,0,0,-1,972,764,0,0
-245,260,0,0,0,0,0,0,0,0,0,-1,979,764,0,0
-238,260,0,0,0,0,0,0,0,0,0,-1,986,764,0,0
-231,260,0,0,0,0,0,0,0,0,0,-1,993,764,0,0
-224,260,0,0,0,0,0,0,0,0,0,-1,1000,764,0,0
-217,260,0,0,0,0,0,0,0,0,0,-1,1007,764,0,0
-210,260,0,0,0,0,0,0,0,0,0,-1,1014,764,0,0
-203,260,0,0,0,0,0,0,0,0,0,-1,1021,764,0,0
-196,260,0,0,0,0,0,0,0,0,0,-1,1028,764,0,0
-189,260,0,0,0,0,0,0,0,0,0,-1,1035,764,0,0
-182,260,0,0,0,0,0,0,0,0,0,-1,1042,764,0,0
-175,260,0,0,0,0,0,0,0,0,0,-1,1049,764,0,0
-168,260,0,0,0,0,0,0,0,0,0,-1,1056,764,0,0
-161,260,0,0,0,0,0,0,0,0,0,-1,1063,764,0,0
-154,260,0,0,0,0,0,0,0,0,0,-1,1070,764,0,0
-147,260,0,0,0,0,0,0,0,0,0,-1,1077,764,0,0
-140,260,0,0,0,0,0,0,0,0,0,-1,1084,764,0,0
-133,260,0,0,0,0,0,0,0,0,0,-1,1091,764,0,0
-126,260,0,0,0,0,0,0,0,0,0,-1,1098,764,0,0
-119,260,0,0,0,0,0,0,0,0,0,-1,1105,764,0,0
-112,260,0,0,0,0,0,0,0,0,0,-1,1112,764,0,0
-105,260,0,0,0,0,0,0,0,0,0,-1,1119,764,0,0
-98,260,0,0,0,0,0,0,0,0,0,-1,1126,764,0,0
-91,260,0,0,0,0,0,0,0,0,0,-1,1133,764,0,0
-84,260,0,0,0,0,0,0,0,0,0,-1,1140,764,0,0
-77,260,0,0,0,0,0,0,0,0,0,-1,1147,764,0,0
-70,260,0,0,0,0,0,0,0,0,0,-1,1154,764,0,0
-63,260,0,0,0,0,0,0,0,0,0,-1,1161,764,0,0
-56,260,0,0,0,0,0,0,0,0,0,-1,1168,764,0,0
-49,260,0,0,0,0,0,0,0,0,0,-1,1175,764,0,0
-42,260,0,0,0,0,0,0,0,0,0,-1,1182,764,0,0
-35,260,0,0,0,0,0,0,0,0,0,-1,1189,764,0,0
-28,260,0,0,0,0,0,0,0,0,0,-1,1196,764,0,0
-21,260,0,0,0,0,0,0,0,0,0,-1,1203,764,0,0
-14,260,0,0,0,0,0,0,0,0,0,-1,1210,764,0,0
-7,260,0,0,0,0,0,0,0,0,0,-1,1217,764,0,0
0,260,0,0,0,0,0,0,0,0,0,-1,1224,764,0,0
7,260,0,0,0,0,0,0,0,0,0,-1,1231,764,0,0
14,260,0,0,0,0,0,0,0,0,0,-1,1238,764,0,0
21,260,0,0,0,0,0,0,0,0,0,-1,1245,764,0,0
28,260,0,0,0,0,0,0,0,0,0,-1,1252,764,0,0
35,260,0,0,0,0,0,0,0,0,0,-1,1259,764,0,0
42,260,0,0,0,0,0,0,0,0,0,-1,1266,764,0,0
49,260,0,0,0,0,0,0,0,0,0,-1,1273,764,0,0
56,260,0,0,0,0,0,0,0,0,0,-1,1280,764,0,0
63,260,0,0,0,0,0,0,0,0,0,-1,1287,764,0,0
70,260,0,0,0,0,0,0,0,0,0,-1,1294,764,0,0
77,260,0,0,0,0,0,0,0,0,0,-1,1301,764,0,0
84,260,0,0,0,0,0,0,0,0,0,-1,1308,764,0,0
91,260,0,0,0,0,0,0,0,0,0,-1,1315,764,0,0
98,260,0,0,0,0,0,0,0,0,0,-1,1322,764,0,0
105,260,0,0,0,0,0,0,0,0,0,-1,1329,764,0,0
112,260,0,0,0,0,0,0,0,0,0,-1,1336,764,0,0
119,260,0,0,0,0,0,0,0,0,0,-1,1343,764,0,0
126,260,0,0,0,0,0,0,0,0,0,-1,1350,764,0,0
133,260,0,0,0,0,0,0,0,0,0,-1,1357,764,0,0
140,260,0,0,0,0,0,0,0,0,0,-1,1364,764,0,0
147,260,0,0,0,0,0,0,0,0,0,-1,1371,764,0,0
154,260,0,0,0,0,0,0,0,0,0,-1,1378,764,0,0
161,260,0,0,0,0,0,0,0,0,0,-1,1385,764,0,0
168,260,0,0,0,0,0,0,0,0,0,-1,1392,764,0,0
175,260,0,0,0,0,0,0,0,0,0,-1,1399,764,0,0
182,260,0,0,0,0,0,0,0,0,0,-1,1406,764,0,0
189,260,0,0,0,0,0,0,0,0,0,-1,1413,764,0,0
196,260,0,0,0,0,0,0,0,0,0,-1,1420,764,0,0
203,260,0,0,0,0,0,0,0,0,0,-1,1427,764,0,0
210,260,0,0,0,0,0,0,0,0,0,-1,1434,764,0,0
217,260,0,0,0,0,0,0,0,0,0,-1,1441,764,0,0
224,260,0,0,0,0,0,0,0,0,0,-1,1448,764,0,0
231,260,0,0,0,0,0,0,0,0,0,-1,1455,764,0,0
238,260,0,0,0,0,0,0,0,0,0,-1,1462,764,0,0
245,260,0,0,0,0,0,0,0,0,0,-1,1469,764,0,0
252,260,0,0,0,0,0,0,0,0,0,-1,1476,764,0,0
259,260,0,0,0,0,0,0,0,0,0,-1,1483,764,0,0
266,260,0,0,0,0,0,0,0,0,0,-1,1490,764,0,0
273,260,0,0,0,0,0,0,0,0,0,-1,1497,764,0,0
280,260,0,0,0,0,0,0,0,0,0,-1,1504,764,0,0
287,260,0,0,0,0,0,0,0,0,0,-1,1511,764,0,0
294,260,0,0,0,0,0,0,0,0,0,-1,1518,764,0,0
301,260,0,0,0,0,0,0,0,0,0,-1,1525,764,0,0
308,260,0,0,0,0,0,0,0,0,0,-1,1532,764,0,0
315,260,0,0,0,0,0,0,0,0,0,-1,1539,764,0,0
322,260,0,0,0,0,0,0,0,0,0,-1,1546,764,0,0
329,260,0,0,0,0,0,0,0,0,0,-1,1553,764,0,0
336,260,0,0,0,0,0,0,0,0,0,-1,1560,764,0,0
343,260,0,0,0,0,0,0,0,0,0,-1,1567,764,0,0
350,260,0,0,0,0,0,0,0,0,0,-1,1574,764,0,0
357,260,0,0,0,0,0,0,0,0,0,-1,1581,764,0,0
364,260,0,0,0,0,0,0,0,0,0,-1,1588,764,0,0
371,260,0,0,0,0,0,0,0,0,0,-1,1595,764,0,0
378,260,0,0,0,0,0,0,0,0,0,-1,1602,764,0,0
385,260,0,0,0,0,0,0,0,0,0,-1,1609,764,0,0
392,260,0,0,0,0,0,0,0,0,0,-1,1616,764,0,0
399,260,0,0,0,0,0,0,0,0,0,-1,1623,764,0,0
406,260,0,0,0,0,0,0,0,0,0,-1,1630,764,0,0
413,260,0,0,0,0,0,0,0,0,0,-1,1637,764,0,0
420,260,0,0,0,0,0,0,0,0,0,-1,1644,764,0,0
427,260,0,0,0,0,0,0,0,0,0,-1,1651,764,0,0
434,260,0,0,0,0,0,0,0,0,0,-1,1658,764,0,0
441,260,0,0,0,0,0,0,0,0,0,-1,1665,764,0,0
448,260,0,0,0,0,0,0,0,0,0,-1,1672,764,0,0
455,260,0,0,0,0,0,0,0,0,0,-1,1679,764,0,0
462,260,0,0,0,0,0,0,0,0,0,-1,1686,764,0,0
469,260,0,0,0,0,0,0,0,0,0,-1,1693,764,0,0
476,260,0,0,0,0,0,0,0,0,0,-1,1700,764,0,0
483,260,0,0,0,0,0,0,0,0,0,-1,1707,764,0,0
490,260,0,0,0,0,0,0,0,0,0,-1,1714,764,0,0
497,260,0,0,0,0,0,0,0,0,0,-1,1721,764,0,0
504,260,0,0,0,0,0,0,0,0,0,-1,1728,764,0,0
511,260,0,0,0,0,0,0,0,0,0,-1,1735,764,0,0
518,260,0,0,0,0,0,0,0,0,0,-1,1742,764,0,0
525,260,0,0,0,0,0,0,0,0,0,-1,1749,764,0,0
532,260,0,0,0,0,0,0,0,0,0,-1,1756,764,0,0
539,260,0,0,0,0,0,0,0,0,0,-1,1763,764,0,0
546,260,0,0,0,0,0,0,0,0,0,-1,1770,764,0,0
553,260,0,0,0,0,0,0,0,0,0,-1,1777,764,0,0
560,260,0,0,0,0,0,0,0,0,0,-1,1784,764,0,0
567,260,0,0,0,0,0,0,0,0,0,-1,1791,764,0,0
574,260,74.4984,2.41479,0,0,0,0,0,0,0,-1,1798,764,74.4984,-2.41478
581,260,74.6149,2.37372,0,0,0,0,0,0,0,-1,1805,764,74.6148,-2.37369
588,260,70.8303,2.6853,0,0,0,0,0,0,0,-1,1812,764,70.8304,-2.6853
595,260,66.1678,2.56989,0,0,0,0,0,0,0,-1,1819,764,66.1678,-2.56989
602,260,65.9274,2.69824,0,0,0,0,0,0,0,-1,1826,764,65.9274,-2.69825
609,260,65.4674,3.08105,0,0,0,0,0,0,0,-1,1833,764,65.4673,-3.08107
616,260,46.0709,2.74542,0,0,0,0,0,0,0,-1,1840,764,46.0709,-2.74545
623,260,32.2268,3.25836,0,0,0,0,0,0,0,-1,1847,764,32.2268,-3.25833
630,260,24.3739,-0.536316,0,0,0,0,0,0,0,-1,1854,764,24.3739,0.536343
637,260,42.7155,-5.35486,0,0,0,0,0,0,0,-1,1861,764,42.7154,5.35488
644,260,50.1947,-6.61365,0,0,0,0,0,0,0,-1,1868,764,50.1946,6.61365
651,260,50.2493,-5.46368,0.00100569,0.000248534,0.000899244,0.0016028,-0.000348572,0.58616,0.00120169,0.0271378,1875,764,50.2493,5.46367
658,260,50.0525,-4.54651,0.00138318,-0.000105922,0.000518396,0.00154587,-0.000268615,0.304104,0.0011308,0.016661,1882,764,50.0525,4.54654
665,260,49.9462,-3.67859,0.00159479,-3.20937e-05,0.000261416,0.00163577,-7.30676e-05,0.155473,0.00111566,0.0152068,1889,764,49.9462,3.67861
672,260,49.9185,-2.77527,0.00148069,0.000334896,0.000161026,0.00150289,0.000312696,0.137001,0.000915669,0.0136632,1896,764,49.9184,2.77526
679,260,49.868,-1.85193,0.00133987,0.000794478,0.000172305,0.00138975,0.000744604,0.281756,0.000803057,0.0125818,1903,764,49.868,1.85194
686,260,49.7749,-0.926575,0.00125545,0.00143316,0.000237339,0.00159773,0.00109088,0.964508,0.00094277,0.0229114,1910,764,49.7749,0.926567
693,260,49.6611,-0.0837402,0.00125413,0.00208338,0.000327982,0.00219742,0.00114009,1.23617,0.00126898,0.0229324,1917,764,49.6612,0.0837296
700,260,49.6123,0.803223,0.00141318,0.00282189,0.000478499,0.00296905,0.00126602,1.27243,0.00172036,0.0171014,1924,764,49.6123,-0.803199
707,260,49.6464,1.73022,0.00162675,0.00351689,0.000584061,0.00368281,0.00146084,1.29402,0.00214135,0.0171296,1931,764,49.6464,-1.7302
714,260,49.6204,2.60077,0.00183467,0.00406317,0.000768008,0.00430221,0.00159563,1.26906,0.00251133,0.0368249,1938,764,49.6204,-2.60074
721,260,49.6063,3.47382,0,0,0,0,0,0,0,-1,1945,764,49.6063,-3.47384
728,260,33.4344,5.75409,0,0,0,0,0,0,0,-1,1952,764,33.4345,-5.75408
735,260,26.9788,4.85681,0,0,0,0,0,0,0,-1,1959,764,26.9787,-4.85678
742,260,32.1443,1.73688,0,0,0,0,0,0,0,-1,1966,764,32.1442,-1.73688
749,260,33.6013,2.94733,0,0,0,0,0,0,0,-1,1973,764,33.6013,-2.9473
756,260,0,0,0,0,0,0,0,0,0,-1,1980,764,0,0
763,260,0,0,0,0,0,0,0,0,0,-1,1987,764,0,0
770,260,0,0,0,0,0,0,0,0,0,-1,1994,764,0,0
777,260,0,0,0,0,0,0,0,0,0,-1,2001,764,0,0
784,260,0,0,0,0,0,0,0,0,0,-1,2008,764,0,0
791,260,0,0,0,0,0,0,0,0,0,-1,2015,764,0,0
798,260,0,0,0,0,0,0,0,0,0,-1,2022,764,0,0
805,260,0,0,0,0,0,0,0,0,0,-1,2029,764,0,0
812,260,0,0,0,0,0,0,0,0,0,-1,2036,764,0,0
-700,253,0,0,0,0,0,0,0,0,0,-1,524,771,0,0
-693,253,0,0,0,0,0,0,0,0,0,-1,531,771,0,0
-686,253,0,0,0,0,0,0,0,0,0,-1,538,771,0,0
-679,253,0,0,0,0,0,0,0,0,0,-1,545,771,0,0
-672,253,0,0,0,0,0,0,0,0,0,-1,552,771,0,0
-665,253,0,0,0,0,0,0,0,0,0,-1,559,771,0,0
-658,253,0,0,0,0,0,0,0,0,0,-1,566,771,0,0
-651,253,0,0,0,0,0,0,0,0,0,-1,573,771,0,0
-644,253,0,0,0,0,0,0,0,0,0,-1,580,771,0,0
-637,253,-24.7979,-0.491394,0,0,0,0,0,0,0,-1,587,771,-24.7978,0.491371
-630,253,-25.156,0.540405,0,0,0,0,0,0,0,-1,594,771,-25.156,-0.540421
-623,253,-20.808,2.84314,0,0,0,0,0,0,0,-1,601,771,-20.8081,-2.84312
-616,253,-25.0877,2.96875,0,0,0,0,0,0,0,-1,608,771,-25.0877,-2.96876
-609,253,-24.28,2.08228,0,0,0,0,0,0,0,-1,615,771,-24.2801,-2.08227
-602,253,-35.1124,3.7359,0,0,0,0,0,0,0,-1,622,771,-35.1124,-3.73589
-595,253,-34.9593,2.88129,0.00529139,-0.00849311,-0.0175579,0.0172614,-0.0204631,-0.598367,0.0218064,0.0474697,629,771,-34.9593,-2.88131
-588,253,-34.8094,2.02002,0.00386034,-0.0046385,-0.0124858,0.0128,-0.0135782,-0.621377,0.0152317,0.0422508,636,771,-34.8094,-2.02003
-581,253,-34.7153,1.12689,0.00256815,-0.0022471,-0.00872979,0.00921623,-0.00889519,-0.650846,0.0104572,0.0286512,643,771,-34.7154,-1.12687
-574,253,-34.7576,0.26416,0.00162573,-0.000856597,-0.0056093,0.00612954,-0.00536041,-0.676518,0.00663868,0.0233952,650,771,-34.7576,-0.26413
-567,253,-34.8221,-0.6203,0.000816125,-6.36847e-05,-0.00319776,0.0036041,-0.00285166,-0.717044,0.00373566,0.0184892,657,771,-34.8222,0.620281
-560,253,-34.847,-1.43604,0.000160392,0.000314272,-0.00136046,0.00159997,-0.0011253,-0.813645,0.00158137,0.0144987,664,771,-34.847,1.43604
-553,253,-34.9135,-2.33698,-0.000415739,0.000503704,3.34138e-05,0.000504917,-0.000416952,1.53452,0.000533048,0.0134041,671,771,-34.9134,2.337
-546,253,-34.9847,-3.2536,-0.000956209,0.000463048,0.00119511,0.00114334,-0.0016365,1.05331,0.00161333,0.0116998,678,771,-34.9847,3.25361
-539,253,-35.0626,-4.1795,-0.00153565,0.000221093,0.00213272,0.00164924,-0.0029638,0.98074,0.00269915,0.0138021,685,771,-35.0626,4.17952
-532,253,-35.0704,-5.08313,-0.00202874,-4.1705e-06,0.00266747,0.00183663,-0.00386954,0.96675,0.00336343,0.0203043,692,771,-35.0704,5.08314
-525,253,-35.1794,-5.94904,-0.0025674,2.96883e-05,0.0032313,0.0022136,-0.00475131,0.976454,0.0041092,0.0291069,699,771,-35.1795,5.94902
-518,253,-35.4114,-6.94635,-0.00380761,2.8187e-06,0.00395271,0.00248551,-0.00629031,1.00997,0.00522304,0.0468438,706,771,-35.4114,6.94638
-511,253,-35.8723,-7.89612,0,0,0,0,0,0,0,-1,713,771,-35.8723,7.89614
-504,253,-19.317,-4.1723,0,0,0,0,0,0,0,-1,720,771,-19.317,4.1723
-497,253,-21.7737,-1.76837,0,0,0,0,0,0,0,-1,727,771,-21.7738,1.7684
-490,253,-29.7674,0.438354,0,0,0,0,0,0,0,-1,734,771,-29.7674,-0.438339
-483,253,-45.4489,1.59302,0,0,0,0,0,0,0,-1,741,771,-45.4489,-1.59303
-476,253,-57.8438,0.703125,0,0,0,0,0,0,0,-1,748,771,-57.8438,-0.703135
-469,253,-58.0974,0.331299,0,0,0,0,0,0,0,-1,755,771,-58.0973,-0.33131
-462,253,-58.107,0.104919,0,0,0,0,0,0,0,-1,762,771,-58.107,-0.104893
-455,253,-57.998,0.343689,0,0,0,0,0,0,0,-1,769,771,-57.9981,-0.343679
-448,253,0,0,0,0,0,0,0,0,0,-1,776,771,0,0
-441,253,0,0,0,0,0,0,0,0,0,-1,783,771,0,0
-434,253,0,0,0,0,0,0,0,0,0,-1,790,771,0,0
-427,253,0,0,0,0,0,0,0,0,0,-1,797,771,0,0
-420,253,0,0,0,0,0,0,0,0,0,-1,804,771,0,0
-413,253,0,0,0,0,0,0,0,0,0,-1,811,771,0,0
-406,253,0,0,0,0,0,0,0,0,0,-1,818,771,0,0
-399,253,0,0,0,0,0,0,0,0,0,-1,825,771,0,0
-392,253,0,0,0,0,0,0,0,0,0,-1,832,771,0,0
-385,253,0,0,0,0,0,0,0,0,0,-1,839,771,0,0
-378,253,0,0,0,0,0,0,0,0,0,-1,846,771,0,0
-371,253,0,0,0,0,0,0,0,0,0,-1,853,771,0,0
-364,253,0,0,0,0,0,0,0,0,0,-1,860,771,0,0
-357,253,0,0,0,0,0,0,0,0,0,-1,867,771,0,0
-350,253,0,0,0,0,0,0,0,0,0,-1,874,771,0,0
-343,253,0,0,0,0,0,0,0,0,0,-1,881,771,0,0
-336,253,0,0,0,0,0,0,0,0,0,-1,888,771,0,0
-329,253,0,0,0,0,0,0,0,0,0,-1,895,771,0,0
-322,253,0,0,0,0,0,0,0,0,0,-1,902,771,0,0
-315,253,0,0,0,0,0,0,0,0,0,-1,909,771,0,0
-308,253,0,0,0,0,0,0,0,0,0,-1,916,771,0,0
-301,253,0,0,0,0,0,0,0,0,0,-1,923,771,0,0
-294,253,0,0,0,0,0,0,0,0,0,-1,930,771,0,0
-287,253,0,0,0,0,0,0,0,0,0,-1,937,771,0,0
-280,253,0,0,0,0,0,0,0,0,0,-1,944,771,0,0
-273,253,0,0,0,0,0,0,0,0,0,-1,951,771,0,0
-266,253,0,0,0,0,0,0,0,0,0,-1,958,771,0,0
-259,253,0,0,0,0,0,0,0,0,0,-1,965,771,0,0
-252,253,0,0,0,0,0,0,0,0,0,-1,972,771,0,0
-245,253,0,0,0,0,0,0,0,0,0,-1,979,771,0,0
-238,253,0,0,0,0,0,0,0,0,0,-1,986,771,0,0
-231,253,0,0,0,0,0,0,0,0,0,-1,993,771,0,0
-224,253,0,0,0,0,0,0,0,0,0,-1,1000,771,0,0
-217,253,0,0,0,0,0,0,0,0,0,-1,1007,771,0,0
-210,253,0,0,0,0,0,0,0,0,0,-1,1014,771,0,0
-203,253,0,0,0,0,0,0,0,0,0,-1,1021,771,0,0
-196,253,0,0,0,0,0,0,0,0,0,-1,1028,771,0,0
-189,253,0,0,0,0,0,0,0,0,0,-1,1035,771,0,0
-182,253,0,0,0,0,0,0,0,0,0,-1,1042,771,0,0
-175,253,0,0,0,0,0,0,0,0,0,-1,1049,771,0,0
-168,253,0,0,0,0,0,0,0,0,0,-1,1056,771,0,0
-161,253,0,0,0,0,0,0,0,0,0,-1,1063,771,0,0
-154,253,0,0,0,0,0,0,0,0,0,-1,1070,771,0,0
-147,253,0,0,0,0,0,0,0,0,0,-1,1077,771,0,0
-140,253,0,0,0,0,0,0,0,0,0,-1,1084,771,0,0
-133,253,0,0,0,0,0,0,0,0,0,-1,1091,771,0,0
-126,253,0,0,0,0,0,0,0,0,0,-1,1098,771,0,0
-119,253,0,0,0,0,0,0,0,0,0,-1,1105,771,0,0
-112,253,0,0,0,0,0,0,0,0,0,-1,1112,771,0,0
-105,253,0,0,0,0,0,0,0,0,0,-1,1119,771,0,0
-98,253,0,0,0,0,0,0,0,0,0,-1,1126,771,0,0
-91,253,0,0,0,0,0,0,0,0,0,-1,1133,771,0,0
-84,253,0,0,0,0,0,0,0,0,0,-1,1140,771,0,0
-77,253,0,0,0,0,0,0,0,0,0,-1,1147,771,0,0
-70,253,0,0,0,0,0,0,0,0,0,-1,1154,771,0,0
-63,253,0,0,0,0,0,0,0,0,0,-1,1161,771,0,0
-56,253,0,0,0,0,0,0,0,0,0,-1,1168,771,0,0
-49,253,0,0,0,0,0,0,0,0,0,-1,1175,771,0,0
-42,253,0,0,0,0,0,0,0,0,0,-1,1182,771,0,0
-35,253,0,0,0,0,0,0,0,0,0,-1,1189,771,0,0
-28,253,0,0,0,0,0,0,0,0,0,-1,1196,771,0,0
-21,253,0,0,0,0,0,0,0,0,0,-1,1203,771,0,0
-14,253,0,0,0,0,0,0,0,0,0,-1,1210,771,0,0
-7,253,0,0,0,0,0,0,0,0,0,-1,1217,771,0,0
0,253,0,0,0,0,0,0,0,0,0,-1,1224,771,0,0
7,253,0,0,0,0,0,0,0,0,0,-1,1231,771,0,0
14,253,0,0,0,0,0,0,0,0,0,-1,1238,771,0,0
21,253,0,0,0,0,0,0,0,0,0,-1,1245,771,0,0
28,253,0,0,0,0,0,0,0,0,0,-1,1252,771,0,0
35,253,0,0,0,0,0,0,0,0,0,-1,1259,771,0,0
42,253,0,0,0,0,0,0,0,0,0,-1,1266,771,0,0
49,253,0,0,0,0,0,0,0,0,0,-1,1273,771,0,0
56,253,0,0,0,0,0,0,0,0,0,-1,1280,771,0,0
63,253,0,0,0,0,0,0,0,0,0,-1,1287,771,0,0
70,253,0,0,0,0,0,0,0,0,0,-1,1294,771,0,0
77,253,0,0,0,0,0,0,0,0,0,-1,1301,771,0,0
84,253,0,0,0,0,0,0,0,0,0,-1,1308,771,0,0
91,253,0,0,0,0,0,0,0,0,0,-1,1315,771,0,0
98,253,0,0,0,0,0,0,0,0,0,-1,1322,771,0,0
105,253,0,0,0,0,0,0,0,0,0,-1,1329,771,0,0
112,253,0,0,0,0,0,0,0,0,0,-1,1336,771,0,0
119,253,0,0,0,0,0,0,0,0,0,-1,1343,771,0,0
126,253,0,0,0,0,0,0,0,0,0,-1,1350,771,0,0
133,253,0,0,0,0,0,0,0,0,0,-1,1357,771,0,0
140,253,0,0,0,0,0,0,0,0,0,-1,1364,771,0,0
147,253,0,0,0,0,0,0,0,0,0,-1,1371,771,0,0
154,253,0,0,0,0,0,0,0,0,0,-1,1378,771,0,0
161,253,0,0,0,0,0,0,0,0,0,-1,1385,771,0,0
168,253,0,0,0,0,0,0,0,0,0,-1,1392,771,0,0
175,253,0,0,0,0,0,0,0,0,0,-1,1399,771,0,0
182,253,0,0,0,0,0,0,0,0,0,-1,1406,771,0,0
189,253,0,0,0,0,0,0,0,0,0,-1,1413,771,0,0
196,253,0,0,0,0,0,0,0,0,0,-1,1420,771,0,0
203,253,0,0,0,0,0,0,0,0,0,-1,1427,771,0,0
210,253,0,0,0,0,0,0,0,0,0,-1,1434,771,0,0
217,253,0,0,0,0,0,0,0,0,0,-1,1441,771,0,0
224,253,0,0,0,0,0,0,0,0,0,-1,1448,771,0,0
231,253,0,0,0,0,0,0,0,0,0,-1,1455,771,0,0
238,253,0,0,0,0,0,0,0,0,0,-1,1462,771,0,0
245,253,0,0,0,0,0,0,0,0,0,-1,1469,771,0,0
252,253,0,0,0,0,0,0,0,0,0,-1,1476,771,0,0
259,253,0,0,0,0,0,0,0,0,0,-1,1483,771,0,0
266,253,0,0,0,0,0,0,0,0,0,-1,1490,771,0,0
273,253,0,0,0,0,0,0,0,0,0,-1,1497,771,0,0
280,253,0,0,0,0,0,0,0,0,0,-1,1504,771,0,0
287,253,0,0,0,0,0,0,0,0,0,-1,1511,771,0,0
294,253,0,0,0,0,0,0,0,0,0,-1,1518,771,0,0
301,253,0,0,0,0,0,0,0,0,0,-1,1525,771,0,0
308,253,0,0,0,0,0,0,0,0,0,-1,1532,771,0,0
315,253,0,0,0,0,0,0,0,0,0,-1,1539,771,0,0
322,253,0,0,0,0,0,0,0,0,0,-1,1546,771,0,0
329,253,0,0,0,0,0,0,0,0,0,-1,1553,771,0,0
336,253,0,0,0,0,0,0,0,0,0,-1,1560,771,0,0
343,253,0,0,0,0,0,0,0,0,0,-1,1567,771,0,0
350,253,0,0,0,0,0,0,0,0,0,-1,1574,771,0,0
357,253,0,0,0,0,0,0,0,0,0,-1,1581,771,0,0
364,253,0,0,0,0,0,0,0,0,0,-1,1588,771,0,0
371,253,0,0,0,0,0,0,0,0,0,-1,1595,771,0,0
378,253,0,0,0,0,0,0,0,0,0,-1,1602,771,0,0
385,253,0,0,0,0,0,0,0,0,0,-1,1609,771,0,0
392,253,0,0,0,0,0,0,0,0,0,-1,1616,771,0,0
399,253,0,0,0,0,0,0,0,0,0,-1,1623,771,0,0
406,253,0,0,0,0,0,0,0,0,0,-1,1630,771,0,0
413,253,0,0,0,0,0,0,0,0,0,-1,1637,771,0,0
420,253,0,0,0,0,0,0,0,0,0,-1,1644,771,0,0
427,253,0,0,0,0,0,0,0,0,0,-1,1651,771,0,0
434,253,0,0,0,0,0,0,0,0,0,-1,1658,771,0,0
441,253,0,0,0,0,0,0,0,0,0,-1,1665,771,0,0
448,253,0,0,0,0,0,0,0,0,0,-1,1672,771,0,0
455,253,0,0,0,0,0,0,0,0,0,-1,1679,771,0,0
462,253,0,0,0,0,0,0,0,0,0,-1,1686,771,0,0
469,253,0,0,0,0,0,0,0,0,0,-1,1693,771,0,0
476,253,0,0,0,0,0,0,0,0,0,-1,1700,771,0,0
483,253,0,0,0,0,0,0,0,0,0,-1,1707,771,0,0
490,253,0,0,0,0,0,0,0,0,0,-1,1714,771,0,0
497,253,0,0,0,0,0,0,0,0,0,-1,1721,771,0,0
504,253,0,0,0,0,0,0,0,0,0,-1,1728,771,0,0
511,253,0,0,0,0,0,0,0,0,0,-1,1735,771,0,0
518,253,0,0,0,0,0,0,0,0,0,-1,1742,771,0,0
525,253,0,0,0,0,0,0,0,0,0,-1,1749,771,0,0
532,253,0,0,0,0,0,0,0,0,0,-1,1756,771,0,0
539,253,0,0,0,0,0,0,0,0,0,-1,1763,771,0,0
546,253,0,0,0,0,0,0,0,0,0,-1,1770,771,0,0
553,253,0,0,0,0,0,0,0,0,0,-1,1777,771,0,0
560,253,0,0,0,0,0,0,0,0,0,-1,1784,771,0,0
567,253,0,0,0,0,0,0,0,0,0,-1,1791,771,0,0
574,253,74.5398,2.33185,0,0,0,0,0,0,0,-1,1798,771,74.5398,-2.33183
581,253,74.5781,2.37354,0,0,0,0,0,0,0,-1,1805,771,74.5782,-2.37351
588,253,74.6869,2.36334,0,0,0,0,0,0,0,-1,1812,771,74.6869,-2.36334
595,253,75.0725,2.32861,0,0,0,0,0,0,0,-1,1819,771,75.0725,-2.32864
602,253,66.4502,2.6098,0,0,0,0,0,0,0,-1,1826,771,66.4502,-2.60979
609,253,65.2542,3.18195,0,0,0,0,0,0,0,-1,1833,771,65.2541,-3.18193
616,253,58.416,2.69031,0,0,0,0,0,0,0,-1,1840,771,58.4161,-2.69031
623,253,48.8328,3.01001,0,0,0,0,0,0,0,-1,1847,771,48.8328,-3.01002
630,253,33.561,2.96838,0,0,0,0,0,0,0,-1,1854,771,33.561,-2.96836
637,253,22.3192,-0.604004,0,0,0,0,0,0,0,-1,1861,771,22.3192,0.603986
644,253,48.2843,-5.22784,0,0,0,0,0,0,0,-1,1868,771,48.2843,5.22783
651,253,51.123,-5.18207,0,0,0,0,0,0,0,-1,1875,771,51.123,5.18207
658,253,50.917,-4.45496,0.00112119,0.000207426,0.000482888,0.00132908,-4.64148e-07,0.406532,0.000886208,0.0261276,1882,771,50.917,4.45495
665,253,50.7716,-3.63275,0.00142447,4.94755e-05,0.000208987,0.00145554,1.8413e-05,0.147553,0.000964278,0.0214438,1889,771,50.7716,3.63273
672,253,50.759,-2.75903,0.00133108,0.000142055,8.01371e-05,0.00133646,0.000136678,0.0669935,0.000849088,0.016907,1896,771,50.7591,2.75903
679,253,50.7697,-1.8092,0.0011937,0.000360582,5.09971e-05,0.00119681,0.000357472,0.0609093,0.000709401,0.0135576,1903,771,50.7697,1.80917
686,253,50.6687,-0.879456,0.00112525,0.000875459,7.25178e-05,0.00114478,0.000855933,0.263022,0.000687439,0.0256899,1910,771,50.6687,0.879435
693,253,50.5739,-0.015686,0.00118432,0.00140564,0.000124731,0.00146172,0.00112823,1.14825,0.000884529,0.0248351,1917,771,50.5738,0.0156563
700,253,50.5425,0.858215,0.00143099,0.00204572,0.000230747,0.0021227,0.00135402,1.24881,0.00124097,0.0176204,1924,771,50.5425,-0.858187
707,253,50.5289,1.7785,0.00181411,0.00265767,0.000336973,0.00277575,0.00169603,1.23375,0.0016157,0.0159995,1931,771,50.529,-1.77849
714,253,50.4841,2.65186,0.00227868,0.00313097,0.000510533,0.00336984,0.00203981,1.13317,0.00195991,0.0257607,1938,771,50.4841,-2.65184
721,253,50.442,3.53503,0.00368454,0.00369957,0.00089843,0.00459052,0.00279359,0.78958,0.00267108,0.045085,1945,771,50.442,-3.53506
728,253,50.4293,4.4408,0,0,0,0,0,0,0,-1,1952,771,50.4294,-4.44082
735,253,34.5735,6.15118,0,0,0,0,0,0,0,-1,1959,771,34.5734,-6.1512
742,253,31.0571,5.7337,0,0,0,0,0,0,0,-1,1966,771,31.0571,-5.73373
749,253,33.7754,3.21533,0,0,0,0,0,0,0,-1,1973,771,33.7754,-3.21533
756,253,0,0,0,0,0,0,0,0,0,-1,1980,771,0,0
763,253,0,0,0,0,0,0,0,0,0,-1,1987,771,0,0
770,253,0,0,0,0,0,0,0,0,0,-1,1994,771,0,0
777,253,0,0,0,0,0,0,0,0,0,-1,2001,771,0,0
784,253,0,0,0,0,0,0,0,0,0,-1,2008,771,0,0
791,253,0,0,0,0,0,0,0,0,0,-1,2015,771,0,0
798,253,0,0,0,0,0,0,0,0,0,-1,2022,771,0,0
805,253,0,0,0,0,0,0,0,0,0,-1,2029,771,0,0
812,253,0,0,0,0,0,0,0,0,0,-1,2036,771,0,0
-700,246,0,0,0,0,0,0,0,0,0,-1,524,778,0,0
-693,246,0,0,0,0,0,0,0,0,0,-1,531,778,0,0
-686,246,0,0,0,0,0,0,0,0,0,-1,538,778,0,0
-679,246,0,0,0,0,0,0,0,0,0,-1,545,778,0,0
-672,246,0,0,0,0,0,0,0,0,0,-1,552,778,0,0
-665,246,0,0,0,0,0,0,0,0,0,-1,559,778,0,0
-658,246,0,0,0,0,0,0,0,0,0,-1,566,778,0,0
-651,246,0,0,0,0,0,0,0,0,0,-1,573,778,0,0
-644,246,0,0,0,0,0,0,0,0,0,-1,580,778,0,0
-637,246,-24.1234,0.130432,0,0,0,0,0,0,0,-1,587,778,-24.1234,-0.130438
-630,246,-24.0781,1.38916,0,0,0,0,0,0,0,-1,594,778,-24.0781,-1.38913
-623,246,-23.9183,2.49573,0,0,0,0,0,0,0,-1,601,778,-23.9183,-2.49575
-616,246,-26.8182,2.0705,0,0,0,0,0,0,0,-1,608,778,-26.8182,-2.07052
-609,246,-26.0615,1.16388,0,0,0,0,0,0,0,-1,615,778,-26.0615,-1.16388
-602,246,-35.1125,5.49323,0,0,0,0,0,0,0,-1,622,778,-35.1125,-5.49325
-595,246,-35.3098,3.94055,0.00411864,-0.00746397,-0.0151588,0.0145547,-0.0179001,-0.602933,0.018771,0.046493,629,778,-35.3098,-3.94055
-588,246,-35.5714,2.08319,0.00330218,-0.00414549,-0.0109391,0.0111339,-0.0119773,-0.621343,0.0133462,0.0334375,636,778,-35.5714,-2.08319
-581,246,-35.6437,1.28815,0.00240416,-0.00203731,-0.00765803,0.00815695,-0.00779009,-0.644275,0.00920784,0.0201359,643,778,-35.6437,-1.28814
-574,246,-35.6165,0.297791,0.00165056,-0.000744629,-0.00484293,0.00544177,-0.00453584,-0.664186,0.00576849,0.0206795,650,778,-35.6165,-0.297789
-567,246,-35.6633,-0.580811,0.000930157,5.59372e-05,-0.00259735,0.00312692,-0.00214083,-0.702034,0.00305905,0.0268749,657,778,-35.6633,0.580782
-560,246,-35.7495,-1.42218,0.000312231,0.000455882,-0.00080725,0.0011945,-0.000426383,-0.829769,0.000970209,0.0206603,664,778,-35.7495,1.42216
-553,246,-35.7952,-2.25995,-0.000279772,0.000692761,0.000593036,0.000973402,-0.000560413,1.1288,0.000896185,0.0139653,671,778,-35.7952,2.25993
-546,246,-35.8729,-3.15289,-0.000871426,0.00070772,0.00181223,0.00189492,-0.00205862,0.990843,0.00228323,0.0117601,678,778,-35.8729,3.15291
-539,246,-35.9582,-4.10748,-0.00150683,0.000284739,0.00268048,0.00221516,-0.00343724,0.946658,0.00328874,0.0129224,685,778,-35.9582,4.10749
-532,246,-36.0071,-5.04956,-0.00200806,0.000190162,0.00319648,0.00247122,-0.00428912,0.950991,0.00394984,0.0301366,692,778,-36.0071,5.04959
-525,246,-36.0288,-5.90454,0,0,0,0,0,0,0,-1,699,778,-36.0288,5.90457
-518,246,-36.3909,-7.25928,0,0,0,0,0,0,0,-1,706,778,-36.3909,7.25929
-511,246,-28.5886,-5.38635,0,0,0,0,0,0,0,-1,713,778,-28.5886,5.38633
-504,246,-20.0047,-2.88214,0,0,0,0,0,0,0,-1,720,778,-20.0047,2.88216
-497,246,-29.4669,1.82684,0,0,0,0,0,0,0,-1,727,778,-29.4669,-1.82687
-490,246,-40.4299,1.04309,0,0,0,0,0,0,0,-1,734,778,-40.4299,-1.04308
-483,246,-55.5514,-0.0795898,0,0,0,0,0,0,0,-1,741,778,-55.5514,0.0795595
-476,246,-57.7935,0.614868,0,0,0,0,0,0,0,-1,748,778,-57.7935,-0.614874
-469,246,-57.9755,0.215759,0,0,0,0,0,0,0,-1,755,778,-57.9755,-0.215772
-462,246,-58.0264,0.234314,0,0,0,0,0,0,0,-1,762,778,-58.0264,-0.234317
-455,246,0,0,0,0,0,0,0,0,0,-1,769,778,0,0
-448,246,0,0,0,0,0,0,0,0,0,-1,776,778,0,0
-441,246,0,0,0,0,0,0,0,0,0,-1,783,778,0,0
-434,246,0,0,0,0,0,0,0,0,0,-1,790,778,0,0
-427,246,0,0,0,0,0,0,0,0,0,-1,797,778,0,0
-420,246,0,0,0,0,0,0,0,0,0,-1,804,778,0,0
-413,246,0,0,0,0,0,0,0,0,0,-1,811,778,0,0
-406,246,0,0,0,0,0,0,0,0,0,-1,818,778,0,0
-399,246,0,0,0,0,0,0,0,0,0,-1,825,778,0,0
-392,246,0,0,0,0,0,0,0,0,0,-1,832,778,0,0
-385,246,0,0,0,0,0,0,0,0,0,-1,839,778,0,0
-378,246,0,0,0,0,0,0,0,0,0,-1,846,778,0,0
-371,246,0,0,0,0,0,0,0,0,0,-1,853,778,0,0
-364,246,0,0,0,0,0,0,0,0,0,-1,860,778,0,0
-357,246,0,0,0,0,0,0,0,0,0,-1,867,778,0,0
-350,246,0,0,0,0,0,0,0,0,0,-1,874,778,0,0
-343,246,0,0,0,0,0,0,0,0,0,-1,881,778,0,0
-336,246,0,0,0,0,0,0,0,0,0,-1,888,778,0,0
-329,246,0,0,0,0,0,0,0,0,0,-1,895,778,0,0
-322,246,0,0,0,0,0,0,0,0,0,-1,902,778,0,0
-315,246,0,0,0,0,0,0,0,0,0,-1,909,778,0,0
-308,246,0,0,0,0,0,0,0,0,0,-1,916,778,0,0
-301,246,0,0,0,0,0,0,0,0,0,-1,923,778,0,0
-294,246,0,0,0,0,0,0,0,0,0,-1,930,778,0,0
-287,246,0,0,0,0,0,0,0,0,0,-1,937,778,0,0
-280,246,0,0,0,0,0,0,0,0,0,-1,944,778,0,0
-273,246,0,0,0,0,0,0,0,0,0,-1,951,778,0,0
-266,246,0,0,0,0,0,0,0,0,0,-1,958,778,0,0
-259,246,0,0,0,0,0,0,0,0,0,-1,965,778,0,0
-252,246,0,0,0,0,0,0,0,0,0,-1,972,778,0,0
-245,246,0,0,0,0,0,0,0,0,0,-1,979,778,0,0
-238,246,0,0,0,0,0,0,0,0,0,-1,986,778,0,0
-231,246,0,0,0,0,0,0,0,0,0,-1,993,778,0,0
-224,246,0,0,0,0,0,0,0,0,0,-1,1000,778,0,0
-217,246,0,0,0,0,0,0,0,0,0,-1,1007,778,0,0
-210,246,0,0,0,0,0,0,0,0,0,-1,1014,778,0,0
-203,246,0,0,0,0,0,0,0,0,0,-1,1021,778,0,0
-196,246,0,0,0,0,0,0,0,0,0,-1,1028,778,0,0
-189,246,0,0,0,0,0,0,0,0,0,-1,1035,778,0,0
-182,246,0,0,0,0,0,0,0,0,0,-1,1042,778,0,0
-175,246,0,0,0,0,0,0,0,0,0,-1,1049,778,0,0
-168,246,0,0,0,0,0,0,0,0,0,-1,1056,778,0,0
-161,246,0,0,0,0,0,0,0,0,0,-1,1063,778,0,0
-154,246,0,0,0,0,0,0,0,0,0,-1,1070,778,0,0
-147,246,0,0,0,0,0,0,0,0,0,-1,1077,778,0,0
-140,246,0,0,0,0,0,0,0,0,0,-1,1084,778,0,0
-133,246,0,0,0,0,0,0,0,0,0,-1,1091,778,0,0
-126,246,0,0,0,0,0,0,0,0,0,-1,1098,778,0,0
-119,246,0,0,0,0,0,0,0,0,0,-1,1105,778,0,0
-112,246,0,0,0,0,0,0,0,0,0,-1,1112,778,0,0
-105,246,0,0,0,0,0,0,0,0,0,-1,1119,778,0,0
-98,246,0,0,0,0,0,0,0,0,0,-1,1126,778,0,0
-91,246,0,0,0,0,0,0,0,0,0,-1,1133,778,0,0
-84,246,0,0,0,0,0,0,0,0,0,-1,1140,778,0,0
-77,246,0,0,0,0,0,0,0,0,0,-1,1147,778,0,0
-70,246,0,0,0,0,0,0,0,0,0,-1,1154,778,0,0
-63,246,0,0,0,0,0,0,0,0,0,-1,1161,778,0,0
-56,246,0,0,0,0,0,0,0,0,0,-1,1168,778,0,0
-49,246,0,0,0,0,0,0,0,0,0,-1,1175,778,0,0
-42,246,0,0,0,0,0,0,0,0,0,-1,1182,778,0,0
-35,246,0,0,0,0,0,0,0,0,0,-1,1189,778,0,0
-28,246,0,0,0,0,0,0,0,0,0,-1,1196,778,0,0
-21,246,0,0,0,0,0,0,0,0,0,-1,1203,778,0,0
-14,246,0,0,0,0,0,0,0,0,0,-1,1210,778,0,0
-7,246,0,0,0,0,0,0,0,0,0,-1,1217,778,0,0
0,246,0,0,0,0,0,0,0,0,0,-1,1224,778,0,0
7,246,0,0,0,0,0,0,0,0,0,-1,1231,778,0,0
14,246,0,0,0,0,0,0,0,0,0,-1,1238,778,0,0
21,246,0,0,0,0,0,0,0,0,0,-1,1245,778,0,0
28,246,0,0,0,0,0,0,0,0,0,-1,1252,778,0,0
35,246,0,0,0,0,0,0,0,0,0,-1,1259,778,0,0
42,246,0,0,0,0,0,0,0,0,0,-1,1266,778,0,0
49,246,0,0,0,0,0,0,0,0,0,-1,1273,778,0,0
56,246,0,0,0,0,0,0,0,0,0,-1,1280,778,0,0
63,246,0,0,0,0,0,0,0,0,0,-1,1287,778,0,0
70,246,0,0,0,0,0,0,0,0,0,-1,1294,778,0,0
77,246,0,0,0,0,0,0,0,0,0,-1,1301,778,0,0
84,246,0,0,0,0,0,0,0,0,0,-1,1308,778,0,0
91,246,0,0,0,0,0,0,0,0,0,-1,1315,778,0,0
98,246,0,0,0,0,0,0,0,0,0,-1,1322,778,0,0
105,246,0,0,0,0,0,0,0,0,0,-1,1329,778,0,0
112,246,0,0,0,0,0,0,0,0,0,-1,1336,778,0,0
119,246,0,0,0,0,0,0,0,0,0,-1,1343,778,0,0
126,246,0,0,0,0,0,0,0,0,0,-1,1350,778,0,0
133,246,0,0,0,0,0,0,0,0,0,-1,1357,778,0,0
140,246,0,0,0,0,0,0,0,0,0,-1,1364,778,0,0
147,246,0,0,0,0,0,0,0,0,0,-1,1371,778,0,0
154,246,0,0,0,0,0,0,0,0,0,-1,1378,778,0,0
161,246,0,0,0,0,0,0,0,0,0,-1,1385,778,0,0
168,246,0,0,0,0,0,0,0,0,0,-1,1392,778,0,0
175,246,0,0,0,0,0,0,0,0,0,-1,1399,778,0,0
182,246,0,0,0,0,0,0,0,0,0,-1,1406,778,0,0
189,246,0,0,0,0,0,0,0,0,0,-1,1413,778,0,0
196,246,0,0,0,0,0,0,0,0,0,-1,1420,778,0,0
203,246,0,0,0,0,0,0,0,0,0,-1,1427,778,0,0
210,246,0,0,0,0,0,0,0,0,0,-1,1434,778,0,0
217,246,0,0,0,0,0,0,0,0,0,-1,1441,778,0,0
224,246,0,0,0,0,0,0,0,0,0,-1,1448,778,0,0
231,246,0,0,0,0,0,0,0,0,0,-1,1455,778,0,0
238,246,0,0,0,0,0,0,0,0,0,-1,1462,778,0,0
245,246,0,0,0,0,0,0,0,0,0,-1,1469,778,0,0
252,246,0,0,0,0,0,0,0,0,0,-1,1476,778,0,0
259,246,0,0,0,0,0,0,0,0,0,-1,1483,778,0,0
266,246,0,0,0,0,0,0,0,0,0,-1,1490,778,0,0
273,246,0,0,0,0,0,0,0,0,0,-1,1497,778,0,0
280,246,0,0,0,0,0,0,0,0,0,-1,1504,778,0,0
287,246,0,0,0,0,0,0,0,0,0,-1,1511,778,0,0
294,246,0,0,0,0,0,0,0,0,0,-1,1518,778,0,0
301,246,0,0,0,0,0,0,0,0,0,-1,1525,778,0,0
308,246,0,0,0,0,0,0,0,0,0,-1,1532,778,0,0
315,246,0,0,0,0,0,0,0,0,0,-1,1539,778,0,0
322,246,0,0,0,0,0,0,0,0,0,-1,1546,778,0,0
329,246,0,0,0,0,0,0,0,0,0,-1,1553,778,0,0
336,246,0,0,0,0,0,0,0,0,0,-1,1560,778,0,0
343,246,0,0,0,0,0,0,0,0,0,-1,1567,778,0,0
350,246,0,0,0,0,0,0,0,0,0,-1,1574,778,0,0
357,246,0,0,0,0,0,0,0,0,0,-1,1581,778,0,0
364,246,0,0,0,0,0,0,0,0,0,-1,1588,778,0,0
371,246,0,0,0,0,0,0,0,0,0,-1,1595,778,0,0
378,246,0,0,0,0,0,0,0,0,0,-1,1602,778,0,0
385,246,0,0,0,0,0,0,0,0,0,-1,1609,778,0,0
392,246,0,0,0,0,0,0,0,0,0,-1,1616,778,0,0
399,246,0,0,0,0,0,0,0,0,0,-1,1623,778,0,0
406,246,0,0,0,0,0,0,0,0,0,-1,1630,778,0,0
413,246,0,0,0,0,0,0,0,0,0,-1,1637,778,0,0
420,246,0,0,0,0,0,0,0,0,0,-1,1644,778,0,0
427,246,0,0,0,0,0,0,0,0,0,-1,1651,778,0,0
434,246,0,0,0,0,0,0,0,0,0,-1,1658,778,0,0
441,246,0,0,0,0,0,0,0,0,0,-1,1665,778,0,0
448,246,0,0,0,0,0,0,0,0,0,-1,1672,778,0,0
455,246,0,0,0,0,0,0,0,0,0,-1,1679,778,0,0
462,246,0,0,0,0,0,0,0,0,0,-1,1686,778,0,0
469,246,0,0,0,0,0,0,0,0,0,-1,1693,778,0,0
476,246,0,0,0,0,0,0,0,0,0,-1,1700,778,0,0
483,246,0,0,0,0,0,0,0,0,0,-1,1707,778,0,0
490,246,0,0,0,0,0,0,0,0,0,-1,1714,778,0,0
497,246,0,0,0,0,0,0,0,0,0,-1,1721,778,0,0
504,246,0,0,0,0,0,0,0,0,0,-1,1728,778,0,0
511,246,0,0,0,0,0,0,0,0,0,-1,1735,778,0,0
518,246,0,0,0,0,0,0,0,0,0,-1,1742,778,0,0
525,246,0,0,0,0,0,0,0,0,0,-1,1749,778,0,0
532,246,0,0,0,0,0,0,0,0,0,-1,1756,778,0,0
539,246,0,0,0,0,0,0,0,0,0,-1,1763,778,0,0
546,246,0,0,0,0,0,0,0,0,0,-1,1770,778,0,0
553,246,0,0,0,0,0,0,0,0,0,-1,1777,778,0,0
560,246,0,0,0,0,0,0,0,0,0,-1,1784,778,0,0
567,246,0,0,0,0,0,0,0,0,0,-1,1791,778,0,0
574,246,0,0,0,0,0,0,0,0,0,-1,1798,778,0,0
581,246,74.5521,2.40344,0,0,0,0,0,0,0,-1,1805,778,74.5522,-2.40342
588,246,74.625,2.36652,0.0141747,0.00444178,-0.0014252,0.0143791,0.00423738,-0.142447,0.0085319,0.0455432,1812,778,74.625,-2.36653
595,246,74.855,2.28198,0.0109105,0.00403045,-0.000326584,0.0109259,0.00401498,-0.0473267,0.00638152,0.048003,1819,778,74.855,-2.28197
602,246,74.7345,2.51752,0,0,0,0,0,0,0,-1,1826,778,74.7345,-2.51749
609,246,65.04,3.03278,0,0,0,0,0,0,0,-1,1833,778,65.04,-3.03277
616,246,60.4568,3.98492,0,0,0,0,0,0,0,-1,1840,778,60.4568,-3.98491
623,246,55.8947,3.95953,0,0,0,0,0,0,0,-1,1847,778,55.8947,-3.95952
630,246,49.5938,1.99902,0,0,0,0,0,0,0,-1,1854,778,49.5937,-1.999
637,246,29.5785,0.837585,0,0,0,0,0,0,0,-1,1861,778,29.5785,-0.837606
644,246,28.1232,-1.43188,0,0,0,0,0,0,0,-1,1868,778,28.1232,1.43188
651,246,48.5865,-4.32922,0,0,0,0,0,0,0,-1,1875,778,48.5865,4.32921
658,246,51.7288,-4.36737,0,0,0,0,0,0,0,-1,1882,778,51.7287,4.36735
665,246,51.6536,-3.61194,0.00139912,0.000346123,0.000184759,0.0014306,0.000314646,0.168747,0.000868071,0.030573,1889,778,51.6536,3.61195
672,246,51.7185,-2.69043,0.00133042,0.000189604,8.09306e-05,0.00133613,0.000183891,0.0704705,0.000836227,0.0219118,1896,778,51.7185,2.6904
679,246,51.7159,-1.74084,0.00119021,0.000141583,3.23499e-05,0.00119121,0.000140586,0.0308107,0.000751673,0.0214598,1903,778,51.716,1.74087
686,246,51.6228,-0.800293,0.00109417,0.00049826,-5.53773e-06,0.00109422,0.000498209,-0.00929189,0.000632588,0.0221541,1910,778,51.6228,0.800274
693,246,51.5603,0.0375977,0.00115798,0.00090262,1.82031e-05,0.00115927,0.000901329,0.070806,0.000702827,0.0182468,1917,778,51.5603,-0.0376108
700,246,51.5088,0.902527,0.00143795,0.00148208,0.000112985,0.00157513,0.00134489,0.881831,0.000982376,0.0149886,1924,778,51.5088,-0.902508
707,246,51.4403,1.82654,0.00189377,0.00205291,0.000255078,0.00224054,0.00170614,0.936583,0.00135126,0.0142701,1931,778,51.4403,-1.82655
714,246,51.3646,2.75122,0.00249142,0.00252071,0.000478469,0.00298476,0.00202737,0.800697,0.00175977,0.0149079,1938,778,51.3646,-2.75119
721,246,51.3019,3.60144,0.00390723,0.00304883,0.00092363,0.00449651,0.00245955,0.567899,0.00259988,0.0197939,1945,778,51.3019,-3.60141
728,246,51.4152,4.81396,0,0,0,0,0,0,0,-1,1952,778,51.4151,-4.81394
735,246,51.6282,6.14026,0,0,0,0,0,0,0,-1,1959,778,51.6281,-6.14027
742,246,31.7356,6.70013,0,0,0,0,0,0,0,-1,1966,778,31.7356,-6.70011
749,246,32.3883,7.69324,0,0,0,0,0,0,0,-1,1973,778,32.3883,-7.69322
756,246,33.6919,3.45264,0,0,0,0,0,0,0,-1,1980,778,33.6919,-3.45262
763,246,0,0,0,0,0,0,0,0,0,-1,1987,778,0,0
770,246,0,0,0,0,0,0,0,0,0,-1,1994,778,0,0
777,246,0,0,0,0,0,0,0,0,0,-1,2001,778,0,0
784,246,0,0,0,0,0,0,0,0,0,-1,2008,778,0,0
791,246,0,0,0,0,0,0,0,0,0,-1,2015,778,0,0
798,246,0,0,0,0,0,0,0,0,0,-1,2022,778,0,0
805,246,0,0,0,0,0,0,0,0,0,-1,2029,778,0,0
812,246,0,0,0,0,0,0,0,0,0,-1,2036,778,0,0
-700,239,0,0,0,0,0,0,0,0,0,-1,524,785,0,0
-693,239,0,0,0,0,0,0,0,0,0,-1,531,785,0,0
-686,239,0,0,0,0,0,0,0,0,0,-1,538,785,0,0
-679,239,0,0,0,0,0,0,0,0,0,-1,545,785,0,0
-672,239,0,0,0,0,0,0,0,0,0,-1,552,785,0,0
-665,239,0,0,0,0,0,0,0,0,0,-1,559,785,0,0
-658,239,0,0,0,0,0,0,0,0,0,-1,566,785,0,0
-651,239,0,0,0,0,0,0,0,0,0,-1,573,785,0,0
-644,239,0,0,0,0,0,0,0,0,0,-1,580,785,0,0
-637,239,-23.2709,0.465088,0,0,0,0,0,0,0,-1,587,785,-23.271,-0.465116
-630,239,-23.4006,0.956299,0,0,0,0,0,0,0,-1,594,785,-23.4005,-0.956285
-623,239,-30.6328,2.52185,0,0,0,0,0,0,0,-1,601,785,-30.6328,-2.52183
-616,239,-29.1425,1.42139,0,0,0,0,0,0,0,-1,608,785,-29.1425,-1.42139
-609,239,-27.8569,0.322937,0,0,0,0,0,0,0,-1,615,785,-27.857,-0.322963
-602,239,-36.0258,5.36353,0,0,0,0,0,0,0,-1,622,785,-36.0258,-5.36355
-595,239,-36.1865,3.85327,0.00280793,-0.00621579,-0.01244,0.011529,-0.0149369,-0.611431,0.0153223,0.0418947,629,785,-36.1865,-3.8533
-588,239,-36.394,2.35535,0.00263671,-0.00341889,-0.00913947,0.00923687,-0.010019,-0.625444,0.0111205,0.0216102,636,785,-36.3941,-2.35533
-581,239,-36.5389,1.34015,0.0022005,-0.00159572,-0.00641245,0.00698987,-0.00638509,-0.641505,0.00772467,0.012159,643,785,-36.5389,-1.34017
-574,239,-36.5611,0.390503,0.00172785,-0.000409208,-0.00397929,0.00477957,-0.00346093,-0.654231,0.00477792,0.0132695,650,785,-36.5611,-0.390498
-567,239,-36.5727,-0.50592,0.00117736,0.000383832,-0.00196125,0.00278157,-0.00122038,-0.685594,0.00236841,0.0194613,657,785,-36.5727,0.505928
-560,239,-36.659,-1.35675,0.000654277,0.000802142,-0.000264819,0.00100316,0.000453264,-0.921522,0.000580067,0.0200323,664,785,-36.659,1.35674
-553,239,-36.7273,-2.21796,8.56594e-05,0.00107641,0.00111916,0.00180493,-0.00064286,0.993752,0.00146536,0.0149676,671,785,-36.7273,2.21795
-546,239,-36.7724,-3.10675,-0.000546086,0.00114228,0.00239766,0.00284003,-0.00224384,0.954664,0.00294189,0.0164115,678,785,-36.7724,3.10676
-539,239,-36.9532,-4.03149,-0.00124953,0.000508059,0.00317451,0.00292316,-0.00366464,0.920431,0.00381149,0.0330493,685,785,-36.9533,4.0315
-532,239,-37.2314,-4.90912,-0.00179012,0.000548891,0.00368647,0.00324692,-0.00448815,0.938998,0.00448497,0.0365353,692,785,-37.2314,4.90912
-525,239,-37.1124,-5.50024,0,0,0,0,0,0,0,-1,699,785,-37.1124,5.50027
-518,239,-37.2117,-6.00946,0,0,0,0,0,0,0,-1,706,785,-37.2117,6.00948
-511,239,-20.9849,-2.09235,0,0,0,0,0,0,0,-1,713,785,-20.9848,2.09234
-504,239,-25.5015,2.00421,0,0,0,0,0,0,0,-1,720,785,-25.5015,-2.00422
-497,239,-40.2453,1.4447,0,0,0,0,0,0,0,-1,727,785,-40.2453,-1.4447
-490,239,-55.7633,-0.30426,0,0,0,0,0,0,0,-1,734,785,-55.7633,0.304271
-483,239,-57.9081,0.449463,0,0,0,0,0,0,0,-1,741,785,-57.9081,-0.44949
-476,239,-57.8561,0.473328,0,0,0,0,0,0,0,-1,748,785,-57.8561,-0.473303
-469,239,-57.9795,0.252991,0,0,0,0,0,0,0,-1,755,785,-57.9795,-0.252981
-462,239,-58.1237,0.193359,0,0,0,0,0,0,0,-1,762,785,-58.1237,-0.193372
-455,239,0,0,0,0,0,0,0,0,0,-1,769,785,0,0
-448,239,0,0,0,0,0,0,0,0,0,-1,776,785,0,0
-441,239,0,0,0,0,0,0,0,0,0,-1,783,785,0,0
-434,239,0,0,0,0,0,0,0,0,0,-1,790,785,0,0
-427,239,0,0,0,0,0,0,0,0,0,-1,797,785,0,0
-420,239,0,0,0,0,0,0,0,0,0,-1,804,785,0,0
-413,239,0,0,0,0,0,0,0,0,0,-1,811,785,0,0
-406,239,0,0,0,0,0,0,0,0,0,-1,818,785,0,0
-399,239,0,0,0,0,0,0,0,0,0,-1,825,785,0,0
-392,239,0,0,0,0,0,0,0,0,0,-1,832,785,0,0
-385,239,0,0,0,0,0,0,0,0,0,-1,839,785,0,0
-378,239,0,0,0,0,0,0,0,0,0,-1,846,785,0,0
-371,239,0,0,0,0,0,0,0,0,0,-1,853,785,0,0
-364,239,0,0,0,0,0,0,0,0,0,-1,860,785,0,0
-357,239,0,0,0,0,0,0,0,0,0,-1,867,785,0,0
-350,239,0,0,0,0,0,0,0,0,0,-1,874,785,0,0
-343,239,0,0,0,0,0,0,0,0,0,-1,881,785,0,0
-336,239,0,0,0,0,0,0,0,0,0,-1,888,785,0,0
-329,239,0,0,0,0,0,0,0,0,0,-1,895,785,0,0
-322,239,0,0,0,0,0,0,0,0,0,-1,902,785,0,0
-315,239,0,0,0,0,0,0,0,0,0,-1,909,785,0,0
-308,239,0,0,0,0,0,0,0,0,0,-1,916,785,0,0
-301,239,0,0,0,0,0,0,0,0,0,-1,923,785,0,0
-294,239,0,0,0,0,0,0,0,0,0,-1,930,785,0,0
-287,239,0,0,0,0,0,0,0,0,0,-1,937,785,0,0
-280,239,0,0,0,0,0,0,0,0,0,-1,944,785,0,0
-273,239,0,0,0,0,0,0,0,0,0,-1,951,785,0,0
-266,239,0,0,0,0,0,0,0,0,0,-1,958,785,0,0
-259,239,0,0,0,0,0,0,0,0,0,-1,965,785,0,0
-252,239,0,0,0,0,0,0,0,0,0,-1,972,785,0,0
-245,239,0,0,0,0,0,0,0,0,0,-1,979,785,0,0
-238,239,0,0,0,0,0,0,0,0,0,-1,986,785,0,0
-231,239,0,0,0,0,0,0,0,0,0,-1,993,785,0,0
-224,239,0,0,0,0,0,0,0,0,0,-1,1000,785,0,0
-217,239,0,0,0,0,0,0,0,0,0,-1,1007,785,0,0
-210,239,0,0,0,0,0,0,0,0,0,-1,1014,785,0,0
-203,239,0,0,0,0,0,0,0,0,0,-1,1021,785,0,0
-196,239,0,0,0,0,0,0,0,0,0,-1,1028,785,0,0
-189,239,0,0,0,0,0,0,0,0,0,-1,1035,785,0,0
-182,239,0,0,0,0,0,0,0,0,0,-1,1042,785,0,0
-175,239,0,0,0,0,0,0,0,0,0,-1,1049,785,0,0
-168,239,0,0,0,0,0,0,0,0,0,-1,1056,785,0,0
-161,239,0,0,0,0,0,0,0,0,0,-1,1063,785,0,0
-154,239,0,0,0,0,0,0,0,0,0,-1,1070,785,0,0
-147,239,0,0,0,0,0,0,0,0,0,-1,1077,785,0,0
-140,239,0,0,0,0,0,0,0,0,0,-1,1084,785,0,0
-133,239,0,0,0,0,0,0,0,0,0,-1,1091,785,0,0
-126,239,0,0,0,0,0,0,0,0,0,-1,1098,785,0,0
-119,239,0,0,0,0,0,0,0,0,0,-1,1105,785,0,0
-112,239,0,0,0,0,0,0,0,0,0,-1,1112,785,0,0
-105,239,0,0,0,0,0,0,0,0,0,-1,1119,785,0,0
-98,239,0,0,0,0,0,0,0,0,0,-1,1126,785,0,0
-91,239,0,0,0,0,0,0,0,0,0,-1,1133,785,0,0
-84,239,0,0,0,0,0,0,0,0,0,-1,1140,785,0,0
-77,239,0,0,0,0,0,0,0,0,0,-1,1147,785,0,0
-70,239,0,0,0,0,0,0,0,0,0,-1,1154,785,0,0
-63,239,0,0,0,0,0,0,0,0,0,-1,1161,785,0,0
-56,239,0,0,0,0,0,0,0,0,0,-1,1168,785,0,0
-49,239,0,0,0,0,0,0,0,0,0,-1,1175,785,0,0
-42,239,0,0,0,0,0,0,0,0,0,-1,1182,785,0,0
-35,239,0,0,0,0,0,0,0,0,0,-1,1189,785,0,0
-28,239,0,0,0,0,0,0,0,0,0,-1,1196,785,0,0
-21,239,0,0,0,0,0,0,0,0,0,-1,1203,785,0,0
-14,239,0,0,0,0,0,0,0,0,0,-1,1210,785,0,0
-7,239,0,0,0,0,0,0,0,0,0,-1,1217,785,0,0
0,239,0,0,0,0,0,0,0,0,0,-1,1224,785,0,0
7,239,0,0,0,0,0,0,0,0,0,-1,1231,785,0,0
14,239,0,0,0,0,0,0,0,0,0,-1,1238,785,0,0
21,239,0,0,0,0,0,0,0,0,0,-1,1245,785,0,0
28,239,0,0,0,0,0,0,0,0,0,-1,1252,785,0,0
35,239,0,0,0,0,0,0,0,0,0,-1,1259,785,0,0
42,239,0,0,0,0,0,0,0,0,0,-1,1266,785,0,0
49,239,0,0,0,0,0,0,0,0,0,-1,1273,785,0,0
56,239,0,0,0,0,0,0,0,0,0,-1,1280,785,0,0
63,239,0,0,0,0,0,0,0,0,0,-1,1287,785,0,0
70,239,0,0,0,0,0,0,0,0,0,-1,1294,785,0,0
77,239,0,0,0,0,0,0,0,0,0,-1,1301,785,0,0
84,239,0,0,0,0,0,0,0,0,0,-1,1308,785,0,0
91,239,0,0,0,0,0,0,0,0,0,-1,1315,785,0,0
98,239,0,0,0,0,0,0,0,0,0,-1,1322,785,0,0
105,239,0,0,0,0,0,0,0,0,0,-1,1329,785,0,0
112,239,0,0,0,0,0,0,0,0,0,-1,1336,785,0,0
119,239,0,0,0,0,0,0,0,0,0,-1,1343,785,0,0
126,239,0,0,0,0,0,0,0,0,0,-1,1350,785,0,0
133,239,0,0,0,0,0,0,0,0,0,-1,1357,785,0,0
140,239,0,0,0,0,0,0,0,0,0,-1,1364,785,0,0
147,239,0,0,0,0,0,0,0,0,0,-1,1371,785,0,0
154,239,0,0,0,0,0,0,0,0,0,-1,1378,785,0,0
161,239,0,0,0,0,0,0,0,0,0,-1,1385,785,0,0
168,239,0,0,0,0,0,0,0,0,0,-1,1392,785,0,0
175,239,0,0,0,0,0,0,0,0,0,-1,1399,785,0,0
182,239,0,0,0,0,0,0,0,0,0,-1,1406,785,0,0
189,239,0,0,0,0,0,0,0,0,0,-1,1413,785,0,0
196,239,0,0,0,0,0,0,0,0,0,-1,1420,785,0,0
203,239,0,0,0,0,0,0,0,0,0,-1,1427,785,0,0
210,239,0,0,0,0,0,0,0,0,0,-1,1434,785,0,0
217,239,0,0,0,0,0,0,0,0,0,-1,1441,785,0,0
224,239,0,0,0,0,0,0,0,0,0,-1,1448,785,0,0
231,239,0,0,0,0,0,0,0,0,0,-1,1455,785,0,0
238,239,0,0,0,0,0,0,0,0,0,-1,1462,785,0,0
245,239,0,0,0,0,0,0,0,0,0,-1,1469,785,0,0
252,239,0,0,0,0,0,0,0,0,0,-1,1476,785,0,0
259,239,0,0,0,0,0,0,0,0,0,-1,1483,785,0,0
266,239,0,0,0,0,0,0,0,0,0,-1,1490,785,0,0
273,239,0,0,0,0,0,0,0,0,0,-1,1497,785,0,0
280,239,0,0,0,0,0,0,0,0,0,-1,1504,785,0,0
287,239,0,0,0,0,0,0,0,0,0,-1,1511,785,0,0
294,239,0,0,0,0,0,0,0,0,0,-1,1518,785,0,0
301,239,0,0,0,0,0,0,0,0,0,-1,1525,785,0,0
308,239,0,0,0,0,0,0,0,0,0,-1,1532,785,0,0
315,239,0,0,0,0,0,0,0,0,0,-1,1539,785,0,0
322,239,0,0,0,0,0,0,0,0,0,-1,1546,785,0,0
329,239,0,0,0,0,0,0,0,0,0,-1,1553,785,0,0
336,239,0,0,0,0,0,0,0,0,0,-1,1560,785,0,0
343,239,0,0,0,0,0,0,0,0,0,-1,1567,785,0,0
350,239,0,0,0,0,0,0,0,0,0,-1,1574,785,0,0
357,239,0,0,0,0,0,0,0,0,0,-1,1581,785,0,0
364,239,0,0,0,0,0,0,0,0,0,-1,1588,785,0,0
371,239,0,0,0,0,0,0,0,0,0,-1,1595,785,0,0
378,239,0,0,0,0,0,0,0,0,0,-1,1602,785,0,0
385,239,0,0,0,0,0,0,0,0,0,-1,1609,785,0,0
392,239,0,0,0,0,0,0,0,0,0,-1,1616,785,0,0
399,239,0,0,0,0,0,0,0,0,0,-1,1623,785,0,0
406,239,0,0,0,0,0,0,0,0,0,-1,1630,785,0,0
413,239,0,0,0,0,0,0,0,0,0,-1,1637,785,0,0
420,239,0,0,0,0,0,0,0,0,0,-1,1644,785,0,0
427,239,0,0,0,0,0,0,0,0,0,-1,1651,785,0,0
434,239,0,0,0,0,0,0,0,0,0,-1,1658,785,0,0
441,239,0,0,0,0,0,0,0,0,0,-1,1665,785,0,0
448,239,0,0,0,0,0,0,0,0,0,-1,1672,785,0,0
455,239,0,0,0,0,0,0,0,0,0,-1,1679,785,0,0
462,239,0,0,0,0,0,0,0,0,0,-1,1686,785,0,0
469,239,0,0,0,0,0,0,0,0,0,-1,1693,785,0,0
476,239,0,0,0,0,0,0,0,0,0,-1,1700,785,0,0
483,239,0,0,0,0,0,0,0,0,0,-1,1707,785,0,0
490,239,0,0,0,0,0,0,0,0,0,-1,1714,785,0,0
497,239,0,0,0,0,0,0,0,0,0,-1,1721,785,0,0
504,239,0,0,0,0,0,0,0,0,0,-1,1728,785,0,0
511,239,0,0,0,0,0,0,0,0,0,-1,1735,785,0,0
518,239,0,0,0,0,0,0,0,0,0,-1,1742,785,0,0
525,239,0,0,0,0,0,0,0,0,0,-1,1749,785,0,0
532,239,0,0,0,0,0,0,0,0,0,-1,1756,785,0,0
539,239,0,0,0,0,0,0,0,0,0,-1,1763,785,0,0
546,239,0,0,0,0,0,0,0,0,0,-1,1770,785,0,0
553,239,0,0,0,0,0,0,0,0,0,-1,1777,785,0,0
560,239,0,0,0,0,0,0,0,0,0,-1,1784,785,0,0
567,239,0,0,0,0,0,0,0,0,0,-1,1791,785,0,0
574,239,0,0,0,0,0,0,0,0,0,-1,1798,785,0,0
581,239,74.5165,2.46014,0,0,0,0,0,0,0,-1,1805,785,74.5164,-2.46012
588,239,74.5953,2.34607,0.0110136,0.0029672,-0.00141653,0.0112557,0.00272511,-0.169268,0.00678048,0.0400599,1812,785,74.5954,-2.34608
595,239,74.7456,2.23499,0.00837812,0.00333794,-7.85695e-05,0.00837935,0.00333672,-0.0155836,0.00487112,0.0349053,1819,785,74.7456,-2.23501
602,239,74.6985,2.35834,0.00619247,0.00309829,0.000548938,0.00628697,0.00300379,0.170481,0.00363098,0.0471241,1826,785,74.6985,-2.35836
609,239,74.4169,2.67822,0,0,0,0,0,0,0,-1,1833,785,74.4169,-2.67823
616,239,55.8469,3.72443,0,0,0,0,0,0,0,-1,1840,785,55.8469,-3.72445
623,239,65.0618,2.66516,0,0,0,0,0,0,0,-1,1847,785,65.0617,-2.66519
630,239,54.5767,3.64667,0,0,0,0,0,0,0,-1,1854,785,54.5766,-3.64667
637,239,39.5542,2.54114,0,0,0,0,0,0,0,-1,1861,785,39.5543,-2.54114
644,239,18.3466,0.735413,0,0,0,0,0,0,0,-1,1868,785,18.3465,-0.735414
651,239,34.2471,-2.15778,0,0,0,0,0,0,0,-1,1875,785,34.2471,2.1578
658,239,52.3618,-4.65277,0,0,0,0,0,0,0,-1,1882,785,52.3618,4.65275
665,239,52.5773,-3.57196,0.00110868,0.000278641,0.000338524,0.00122923,0.000158087,0.342115,0.000772207,0.042763,1889,785,52.5772,3.57193
672,239,52.7012,-2.58417,0.000993365,0.000142863,0.00023551,0.00105422,8.20042e-05,0.252883,0.000677139,0.0230122,1896,785,52.7011,2.58417
679,239,52.6288,-1.64069,0.000868451,5.74431e-05,0.000146476,0.000894095,3.17992e-05,0.173317,0.000585752,0.0227953,1903,785,52.6288,1.64067
686,239,52.5221,-0.709412,0.000800181,0.000345878,1.78731e-05,0.000800883,0.000345176,0.039261,0.000463856,0.0239771,1910,785,52.5221,0.709394
693,239,52.465,0.0906982,0.000954006,0.000621966,-1.86792e-06,0.000954016,0.000621955,-0.00562534,0.000559214,0.0164419,1917,785,52.4649,-0.0906772
700,239,52.4119,0.972656,0.00135743,0.00113224,6.37805e-05,0.00137424,0.00111543,0.257696,0.000843235,0.0120516,1924,785,52.4119,-0.97265
707,239,52.3677,1.89581,0.00196818,0.00167677,0.000218614,0.0020852,0.00155976,0.491457,0.00125228,0.0115661,1931,785,52.3677,-1.89579
714,239,52.3071,2.77563,0.00278823,0.00215882,0.000447537,0.00302063,0.00192641,0.478963,0.00176589,0.0110419,1938,785,52.3071,-2.77561
721,239,52.2329,3.68347,0.00430719,0.00268664,0.000862338,0.0046802,0.00231363,0.408258,0.00270217,0.0212253,1945,785,52.2329,-3.68348
728,239,52.1489,4.60913,0,0,0,0,0,0,0,-1,1952,785,52.1489,-4.60911
735,239,51.7294,5.82245,0,0,0,0,0,0,0,-1,1959,785,51.7294,-5.82247
742,239,32.4141,7.6665,0,0,0,0,0,0,0,-1,1966,785,32.4141,-7.6665
749,239,32.1489,3.4411,0,0,0,0,0,0,0,-1,1973,785,32.149,-3.44109
756,239,32.9064,3.6687,0,0,0,0,0,0,0,-1,1980,785,32.9063,-3.66873
763,239,0,0,0,0,0,0,0,0,0,-1,1987,785,0,0
770,239,0,0,0,0,0,0,0,0,0,-1,1994,785,0,0
777,239,0,0,0,0,0,0,0,0,0,-1,2001,785,0,0
784,239,0,0,0,0,0,0,0,0,0,-1,2008,785,0,0
791,239,0,0,0,0,0,0,0,0,0,-1,2015,785,0,0
798,239,0,0,0,0,0,0,0,0,0,-1,2022,785,0,0
805,239,0,0,0,0,0,0,0,0,0,-1,2029,785,0,0
812,239,0,0,0,0,0,0,0,0,0,-1,2036,785,0,0
-700,232,0,0,0,0,0,0,0,0,0,-1,524,792,0,0
-693,232,0,0,0,0,0,0,0,0,0,-1,531,792,0,0
-686,232,0,0,0,0,0,0,0,0,0,-1,538,792,0,0
-679,232,0,0,0,0,0,0,0,0,0,-1,545,792,0,0
-672,232,0,0,0,0,0,0,0,0,0,-1,552,792,0,0
-665,232,0,0,0,0,0,0,0,0,0,-1,559,792,0,0
-658,232,0,0,0,0,0,0,0,0,0,-1,566,792,0,0
-651,232,0,0,0,0,0,0,0,0,0,-1,573,792,0,0
-644,232,-41.2348,4.28168,0,0,0,0,0,0,0,-1,580,792,-41.2348,-4.28166
-637,232,-42.1427,3.51453,0,0,0,0,0,0,0,-1,587,792,-42.1427,-3.51452
-630,232,-32.2345,1.80212,0,0,0,0,0,0,0,-1,594,792,-32.2345,-1.80211
-623,232,-31.5665,1.05115,0,0,0,0,0,0,0,-1,601,792,-31.5664,-1.05112
-616,232,-30.6812,0.432861,0,0,0,0,0,0,0,-1,608,792,-30.6812,-0.432881
-609,232,-29.7142,-0.478943,0,0,0,0,0,0,0,-1,615,792,-29.7142,0.478965
-602,232,-36.6399,4.69055,0,0,0,0,0,0,0,-1,622,792,-36.6399,-4.69057
-595,232,-37.3716,3.33545,0,0,0,0,0,0,0,-1,629,792,-37.3716,-3.33547
-588,232,-37.37,2.34668,0.00248039,-0.00221419,-0.00759981,0.00808715,-0.00782095,-0.635615,0.00918498,0.0141374,636,792,-37.37,-2.34667
-581,232,-37.4142,1.35901,0.00228236,-0.000816866,-0.005253,0.00620955,-0.00474405,-0.641968,0.0063429,0.00922335,643,792,-37.4142,-1.359
-574,232,-37.4611,0.481018,0.00196918,0.000150899,-0.00310869,0.00429894,-0.00217886,-0.64314,0.00380615,0.00905397,650,792,-37.4611,-0.480996
-567,232,-37.5161,-0.415405,0.00151764,0.000843482,-0.00126545,0.00249013,-0.000129016,-0.655236,0.00170472,0.011498,657,792,-37.5161,0.41543
-560,232,-37.5894,-1.29395,0.00102643,0.00119125,0.000382838,0.00150044,0.00071723,0.891411,0.000866561,0.016983,664,792,-37.5894,1.29397
-553,232,-37.6898,-2.17841,0.000428375,0.0014448,0.00177921,0.00278696,-0.000913786,0.924513,0.00222599,0.0157523,671,792,-37.6898,2.17841
-546,232,-37.6635,-3.04651,-0.000310984,0.00149551,0.00313697,0.00385669,-0.00267216,0.925575,0.00379006,0.0321419,678,792,-37.6635,3.04652
-539,232,-37.9344,-3.93329,0,0,0,0,0,0,0,-1,685,792,-37.9344,3.9333
-532,232,-38.4042,-4.60229,0,0,0,0,0,0,0,-1,692,792,-38.4042,4.60228
-525,232,-38.1688,-5.68805,0,0,0,0,0,0,0,-1,699,792,-38.1688,5.68805
-518,232,-20.8098,-3.08154,0,0,0,0,0,0,0,-1,706,792,-20.8098,3.08155
-511,232,-21.6708,-0.962708,0,0,0,0,0,0,0,-1,713,792,-21.6708,0.962731
-504,232,-34.2155,0.346985,0,0,0,0,0,0,0,-1,720,792,-34.2155,-0.346955
-497,232,-52.7195,0.518677,0,0,0,0,0,0,0,-1,727,792,-52.7195,-0.518678
-490,232,-57.9117,0.452942,0,0,0,0,0,0,0,-1,734,792,-57.9117,-0.452972
-483,232,-57.903,0.375549,0,0,0,0,0,0,0,-1,741,792,-57.9029,-0.375526
-476,232,-57.9278,0.294983,0,0,0,0,0,0,0,-1,748,792,-57.9278,-0.294969
-469,232,-57.9494,0.269165,0,0,0,0,0,0,0,-1,755,792,-57.9494,-0.26915
-462,232,0,0,0,0,0,0,0,0,0,-1,762,792,0,0
-455,232,0,0,0,0,0,0,0,0,0,-1,769,792,0,0
-448,232,0,0,0,0,0,0,0,0,0,-1,776,792,0,0
-441,232,0,0,0,0,0,0,0,0,0,-1,783,792,0,0
-434,232,0,0,0,0,0,0,0,0,0,-1,790,792,0,0
-427,232,0,0,0,0,0,0,0,0,0,-1,797,792,0,0
-420,232,0,0,0,0,0,0,0,0,0,-1,804,792,0,0
-413,232,0,0,0,0,0,0,0,0,0,-1,811,792,0,0
-406,232,0,0,0,0,0,0,0,0,0,-1,818,792,0,0
-399,232,0,0,0,0,0,0,0,0,0,-1,825,792,0,0
-392,232,0,0,0,0,0,0,0,0,0,-1,832,792,0,0
-385,232,0,0,0,0,0,0,0,0,0,-1,839,792,0,0
-378,232,0,0,0,0,0,0,0,0,0,-1,846,792,0,0
-371,232,0,0,0,0,0,0,0,0,0,-1,853,792,0,0
-364,232,0,0,0,0,0,0,0,0,0,-1,860,792,0,0
-357,232,0,0,0,0,0,0,0,0,0,-1,867,792,0,0
-350,232,0,0,0,0,0,0,0,0,0,-1,874,792,0,0
-343,232,0,0,0,0,0,0,0,0,0,-1,881,792,0,0
-336,232,0,0,0,0,0,0,0,0,0,-1,888,792,0,0
-329,232,0,0,0,0,0,0,0,0,0,-1,895,792,0,0
-322,232,0,0,0,0,0,0,0,0,0,-1,902,792,0,0
-315,232,0,0,0,0,0,0,0,0,0,-1,909,792,0,0
-308,232,0,0,0,0,0,0,0,0,0,-1,916,792,0,0
-301,232,0,0,0,0,0,0,0,0,0,-1,923,792,0,0
-294,232,0,0,0,0,0,0,0,0,0,-1,930,792,0,0
-287,232,0,0,0,0,0,0,0,0,0,-1,937,792,0,0
-280,232,0,0,0,0,0,0,0,0,0,-1,944,792,0,0
-273,232,0,0,0,0,0,0,0,0,0,-1,951,792,0,0
-266,232,0,0,0,0,0,0,0,0,0,-1,958,792,0,0
-259,232,0,0,0,0,0,0,0,0,0,-1,965,792,0,0
-252,232,0,0,0,0,0,0,0,0,0,-1,972,792,0,0
-245,232,0,0,0,0,0,0,0,0,0,-1,979,792,0,0
-238,232,0,0,0,0,0,0,0,0,0,-1,986,792,0,0
-231,232,0,0,0,0,0,0,0,0,0,-1,993,792,0,0
-224,232,0,0,0,0,0,0,0,0,0,-1,1000,792,0,0
-217,232,0,0,0,0,0,0,0,0,0,-1,1007,792,0,0
-210,232,0,0,0,0,0,0,0,0,0,-1,1014,792,0,0
-203,232,0,0,0,0,0,0,0,0,0,-1,1021,792,0,0
-196,232,0,0,0,0,0,0,0,0,0,-1,1028,792,0,0
-189,232,0,0,0,0,0,0,0,0,0,-1,1035,792,0,0
-182,232,0,0,0,0,0,0,0,0,0,-1,1042,792,0,0
-175,232,0,0,0,0,0,0,0,0,0,-1,1049,792,0,0
-168,232,0,0,0,0,0,0,0,0,0,-1,1056,792,0,0
-161,232,0,0,0,0,0,0,0,0,0,-1,1063,792,0,0
-154,232,0,0,0,0,0,0,0,0,0,-1,1070,792,0,0
-147,232,0,0,0,0,0,0,0,0,0,-1,1077,792,0,0
-140,232,0,0,0,0,0,0,0,0,0,-1,1084,792,0,0
-133,232,0,0,0,0,0,0,0,0,0,-1,1091,792,0,0
-126,232,0,0,0,0,0,0,0,0,0,-1,1098,792,0,0
-119,232,0,0,0,0,0,0,0,0,0,-1,1105,792,0,0
-112,232,0,0,0,0,0,0,0,0,0,-1,1112,792,0,0
-105,232,0,0,0,0,0,0,0,0,0,-1,1119,792,0,0
-98,232,0,0,0,0,0,0,0,0,0,-1,1126,792,0,0
-91,232,0,0,0,0,0,0,0,0,0,-1,1133,792,0,0
-84,232,0,0,0,0,0,0,0,0,0,-1,1140,792,0,0
-77,232,0,0,0,0,0,0,0,0,0,-1,1147,792,0,0
-70,232,0,0,0,0,0,0,0,0,0,-1,1154,792,0,0
-63,232,0,0,0,0,0,0,0,0,0,-1,1161,792,0,0
-56,232,0,0,0,0,0,0,0,0,0,-1,1168,792,0,0
-49,232,0,0,0,0,0,0,0,0,0,-1,1175,792,0,0
-42,232,0,0,0,0,0,0,0,0,0,-1,1182,792,0,0
-35,232,0,0,0,0,0,0,0,0,0,-1,1189,792,0,0
-28,232,0,0,0,0,0,0,0,0,0,-1,1196,792,0,0
-21,232,0,0,0,0,0,0,0,0,0,-1,1203,792,0,0
-14,232,0,0,0,0,0,0,0,0,0,-1,1210,792,0,0
-7,232,0,0,0,0,0,0,0,0,0,-1,1217,792,0,0
0,232,0,0,0,0,0,0,0,0,0,-1,1224,792,0,0
7,232,0,0,0,0,0,0,0,0,0,-1,1231,792,0,0
14,232,0,0,0,0,0,0,0,0,0,-1,1238,792,0,0
21,232,0,0,0,0,0,0,0,0,0,-1,1245,792,0,0
28,232,0,0,0,0,0,0,0,0,0,-1,1252,792,0,0
35,232,0,0,0,0,0,0,0,0,0,-1,1259,792,0,0
42,232,0,0,0,0,0,0,0,0,0,-1,1266,792,0,0
49,232,0,0,0,0,0,0,0,0,0,-1,1273,792,0,0
56,232,0,0,0,0,0,0,0,0,0,-1,1280,792,0,0
63,232,0,0,0,0,0,0,0,0,0,-1,1287,792,0,0
70,232,0,0,0,0,0,0,0,0,0,-1,1294,792,0,0
77,232,0,0,0,0,0,0,0,0,0,-1,1301,792,0,0
84,232,0,0,0,0,0,0,0,0,0,-1,1308,792,0,0
91,232,0,0,0,0,0,0,0,0,0,-1,1315,792,0,0
98,232,0,0,0,0,0,0,0,0,0,-1,1322,792,0,0
105,232,0,0,0,0,0,0,0,0,0,-1,1329,792,0,0
112,232,0,0,0,0,0,0,0,0,0,-1,1336,792,0,0
119,232,0,0,0,0,0,0,0,0,0,-1,1343,792,0,0
126,232,0,0,0,0,0,0,0,0,0,-1,1350,792,0,0
133,232,0,0,0,0,0,0,0,0,0,-1,1357,792,0,0
140,232,0,0,0,0,0,0,0,0,0,-1,1364,792,0,0
147,232,0,0,0,0,0,0,0,0,0,-1,1371,792,0,0
154,232,0,0,0,0,0,0,0,0,0,-1,1378,792,0,0
161,232,0,0,0,0,0,0,0,0,0,-1,1385,792,0,0
168,232,0,0,0,0,0,0,0,0,0,-1,1392,792,0,0
175,232,0,0,0,0,0,0,0,0,0,-1,1399,792,0,0
182,232,0,0,0,0,0,0,0,0,0,-1,1406,792,0,0
189,232,0,0,0,0,0,0,0,0,0,-1,1413,792,0,0
196,232,0,0,0,0,0,0,0,0,0,-1,1420,792,0,0
203,232,0,0,0,0,0,0,0,0,0,-1,1427,792,0,0
210,232,0,0,0,0,0,0,0,0,0,-1,1434,792,0,0
217,232,0,0,0,0,0,0,0,0,0,-1,1441,792,0,0
224,232,0,0,0,0,0,0,0,0,0,-1,1448,792,0,0
231,232,0,0,0,0,0,0,0,0,0,-1,1455,792,0,0
238,232,0,0,0,0,0,0,0,0,0,-1,1462,792,0,0
245,232,0,0,0,0,0,0,0,0,0,-1,1469,792,0,0
252,232,0,0,0,0,0,0,0,0,0,-1,1476,792,0,0
259,232,0,0,0,0,0,0,0,0,0,-1,1483,792,0,0
266,232,0,0,0,0,0,0,0,0,0,-1,1490,792,0,0
273,232,0,0,0,0,0,0,0,0,0,-1,1497,792,0,0
280,232,0,0,0,0,0,0,0,0,0,-1,1504,792,0,0
287,232,0,0,0,0,0,0,0,0,0,-1,1511,792,0,0
294,232,0,0,0,0,0,0,0,0,0,-1,1518,792,0,0
301,232,0,0,0,0,0,0,0,0,0,-1,1525,792,0,0
308,232,0,0,0,0,0,0,0,0,0,-1,1532,792,0,0
315,232,0,0,0,0,0,0,0,0,0,-1,1539,792,0,0
322,232,0,0,0,0,0,0,0,0,0,-1,1546,792,0,0
329,232,0,0,0,0,0,0,0,0,0,-1,1553,792,0,0
336,232,0,0,0,0,0,0,0,0,0,-1,1560,792,0,0
343,232,0,0,0,0,0,0,0,0,0,-1,1567,792,0,0
350,232,0,0,0,0,0,0,0,0,0,-1,1574,792,0,0
357,232,0,0,0,0,0,0,0,0,0,-1,1581,792,0,0
364,232,0,0,0,0,0,0,0,0,0,-1,1588,792,0,0
371,232,0,0,0,0,0,0,0,0,0,-1,1595,792,0,0
378,232,0,0,0,0,0,0,0,0,0,-1,1602,792,0,0
385,232,0,0,0,0,0,0,0,0,0,-1,1609,792,0,0
392,232,0,0,0,0,0,0,0,0,0,-1,1616,792,0,0
399,232,0,0,0,0,0,0,0,0,0,-1,1623,792,0,0
406,232,0,0,0,0,0,0,0,0,0,-1,1630,792,0,0
413,232,0,0,0,0,0,0,0,0,0,-1,1637,792,0,0
420,232,0,0,0,0,0,0,0,0,0,-1,1644,792,0,0
427,232,0,0,0,0,0,0,0,0,0,-1,1651,792,0,0
434,232,0,0,0,0,0,0,0,0,0,-1,1658,792,0,0
441,232,0,0,0,0,0,0,0,0,0,-1,1665,792,0,0
448,232,0,0,0,0,0,0,0,0,0,-1,1672,792,0,0
455,232,0,0,0,0,0,0,0,0,0,-1,1679,792,0,0
462,232,0,0,0,0,0,0,0,0,0,-1,1686,792,0,0
469,232,0,0,0,0,0,0,0,0,0,-1,1693,792,0,0
476,232,0,0,0,0,0,0,0,0,0,-1,1700,792,0,0
483,232,0,0,0,0,0,0,0,0,0,-1,1707,792,0,0
490,232,0,0,0,0,0,0,0,0,0,-1,1714,792,0,0
497,232,0,0,0,0,0,0,0,0,0,-1,1721,792,0,0
504,232,0,0,0,0,0,0,0,0,0,-1,1728,792,0,0
511,232,0,0,0,0,0,0,0,0,0,-1,1735,792,0,0
518,232,0,0,0,0,0,0,0,0,0,-1,1742,792,0,0
525,232,0,0,0,0,0,0,0,0,0,-1,1749,792,0,0
532,232,0,0,0,0,0,0,0,0,0,-1,1756,792,0,0
539,232,0,0,0,0,0,0,0,0,0,-1,1763,792,0,0
546,232,0,0,0,0,0,0,0,0,0,-1,1770,792,0,0
553,232,0,0,0,0,0,0,0,0,0,-1,1777,792,0,0
560,232,0,0,0,0,0,0,0,0,0,-1,1784,792,0,0
567,232,0,0,0,0,0,0,0,0,0,-1,1791,792,0,0
574,232,0,0,0,0,0,0,0,0,0,-1,1798,792,0,0
581,232,0,0,0,0,0,0,0,0,0,-1,1805,792,0,0
588,232,74.6935,2.21063,0.00909649,0.000549534,-0.00220243,0.00963064,1.53817e-05,-0.237934,0.00641531,0.0413633,1812,792,74.6935,-2.21062
595,232,74.7533,2.14771,0.00663641,0.00202619,-0.000419745,0.00667431,0.00198829,-0.0900601,0.00395695,0.0366144,1819,792,74.7533,-2.14768
602,232,74.7275,2.19037,0.00473743,0.00248289,0.000501988,0.00484415,0.00237617,0.209475,0.00279694,0.0379789,1826,792,74.7275,-2.19037
609,232,74.5707,2.35028,0.00317177,0.00220118,0.000887169,0.0036977,0.00167525,0.535124,0.002138,0.048734,1833,792,74.5707,-2.35027
616,232,74.6704,2.36041,0,0,0,0,0,0,0,-1,1840,792,74.6705,-2.3604
623,232,74.6001,2.35565,0,0,0,0,0,0,0,-1,1847,792,74.6001,-2.35566
630,232,64.9034,2.97992,0,0,0,0,0,0,0,-1,1854,792,64.9035,-2.9799
637,232,47.0471,4.04309,0,0,0,0,0,0,0,-1,1861,792,47.0471,-4.04309
644,232,30.7756,4.24139,0,0,0,0,0,0,0,-1,1868,792,30.7757,-4.24141
651,232,31.6797,-0.564087,0,0,0,0,0,0,0,-1,1875,792,31.6797,0.564059
658,232,46.7423,-3.10736,0,0,0,0,0,0,0,-1,1882,792,46.7423,3.10735
665,232,53.2968,-3.50555,0,0,0,0,0,0,0,-1,1889,792,53.2968,3.50556
672,232,53.479,-2.50958,0,0,0,0,0,0,0,-1,1896,792,53.479,2.50956
679,232,53.4749,-1.57867,0.000396429,-7.68099e-05,0.000113919,0.000422424,-0.000102805,0.224347,0.000321412,0.0216918,1903,792,53.4749,1.57867
686,232,53.3962,-0.676575,0.00031719,0.000143724,-5.43338e-05,0.000332804,0.000128111,-0.27982,0.000193833,0.019742,1910,792,53.3962,0.676603
693,232,53.3545,0.146851,0.000573784,0.000301179,-9.26954e-05,0.000602317,0.000272646,-0.298612,0.000348267,0.0117511,1917,792,53.3545,-0.146825
700,232,53.3175,1.02954,0.00118015,0.000761857,-5.45387e-05,0.00118715,0.000754863,-0.127543,0.000693783,0.0136742,1924,792,53.3175,-1.02953
707,232,53.2623,1.93024,0.00203867,0.00133124,0.000135115,0.00206359,0.00130631,0.182442,0.00120539,0.0132612,1931,792,53.2624,-1.93021
714,232,53.2147,2.7973,0.00319287,0.0018871,0.000413963,0.00331304,0.00176692,0.282541,0.0019142,0.0143079,1938,792,53.2147,-2.79732
721,232,53.1604,3.69714,0.00497379,0.0024847,0.000860649,0.00524239,0.0022161,0.302512,0.00303872,0.021282,1945,792,53.1603,-3.69713
728,232,53.0757,4.63544,0,0,0,0,0,0,0,-1,1952,792,53.0757,-4.63543
735,232,52.6239,5.60266,0,0,0,0,0,0,0,-1,1959,792,52.6239,-5.60266
742,232,25.6461,6.00684,0,0,0,0,0,0,0,-1,1966,792,25.6461,-6.00684
749,232,31.2874,3.74713,0,0,0,0,0,0,0,-1,1973,792,31.2874,-3.74713
756,232,34.9586,15.3984,0,0,0,0,0,0,0,-1,1980,792,34.9586,-15.3984
763,232,33.09,17.3107,0,0,0,0,0,0,0,-1,1987,792,33.0899,-17.3106
770,232,0,0,0,0,0,0,0,0,0,-1,1994,792,0,0
777,232,0,0,0,0,0,0,0,0,0,-1,2001,792,0,0
784,232,0,0,0,0,0,0,0,0,0,-1,2008,792,0,0
791,232,0,0,0,0,0,0,0,0,0,-1,2015,792,0,0
798,232,0,0,0,0,0,0,0,0,0,-1,2022,792,0,0
805,232,0,0,0,0,0,0,0,0,0,-1,2029,792,0,0
812,232,0,0,0,0,0,0,0,0,0,-1,2036,792,0,0
-700,225,0,0,0,0,0,0,0,0,0,-1,524,799,0,0
-693,225,0,0,0,0,0,0,0,0,0,-1,531,799,0,0
-686,225,0,0,0,0,0,0,0,0,0,-1,538,799,0,0
-679,225,0,0,0,0,0,0,0,0,0,-1,545,799,0,0
-672,225,0,0,0,0,0,0,0,0,0,-1,552,799,0,0
-665,225,0,0,0,0,0,0,0,0,0,-1,559,799,0,0
-658,225,0,0,0,0,0,0,0,0,0,-1,566,799,0,0
-651,225,0,0,0,0,0,0,0,0,0,-1,573,799,0,0
-644,225,-40.8898,4.14661,0,0,0,0,0,0,0,-1,580,799,-40.8898,-4.14661
-637,225,-41.61,3.36749,0,0,0,0,0,0,0,-1,587,799,-41.61,-3.36751
-630,225,-30.244,4.82196,0,0,0,0,0,0,0,-1,594,799,-30.244,-4.82193
-623,225,-32.8276,-0.00836182,0,0,0,0,0,0,0,-1,601,799,-32.8276,0.00837668
-616,225,-32.0569,-0.549255,0,0,0,0,0,0,0,-1,608,799,-32.0569,0.549265
-609,225,-37.6722,5.46124,0,0,0,0,0,0,0,-1,615,799,-37.6722,-5.46126
-602,225,-38.2995,4.29144,0,0,0,0,0,0,0,-1,622,799,-38.2995,-4.29142
-595,225,-38.2836,3.28204,0.00293924,-0.00219307,-0.00851341,0.00926484,-0.00851867,-0.639016,0.0102703,0.0319349,629,799,-38.2836,-3.28207
-588,225,-38.2802,2.28528,0.00274944,-0.000891573,-0.00616283,0.00735503,-0.00549717,-0.641782,0.00744602,0.0130085,636,799,-38.2802,-2.2853
-581,225,-38.3113,1.40424,0.00248988,4.96885e-05,-0.00406986,0.0055186,-0.00297903,-0.639767,0.0049786,0.0112051,643,799,-38.3113,-1.40421
-574,225,-38.3633,0.535767,0.00214184,0.000750081,-0.00213306,0.00368966,-0.00079774,-0.627724,0.00276432,0.00885152,650,799,-38.3633,-0.535747
-567,225,-38.4182,-0.361633,0.00172782,0.00131519,-0.000443823,0.00201094,0.00103207,-0.567829,0.00116115,0.0124144,657,799,-38.4182,0.361643
-560,225,-38.4662,-1.24884,0.00129208,0.00159327,0.00113487,0.00258749,0.000297858,0.851363,0.00163478,0.0151111,664,799,-38.4662,1.24884
-553,225,-38.5404,-2.13062,0.000708817,0.00180741,0.00257277,0.00388886,-0.00137264,0.890571,0.0031514,0.0133392,671,799,-38.5404,2.13063
-546,225,-38.4926,-2.91376,-8.42462e-05,0.00176033,0.00404606,0.00498789,-0.00331181,0.897457,0.00482429,0.0352528,678,799,-38.4926,2.91374
-539,225,-38.3937,-3.51782,0,0,0,0,0,0,0,-1,685,799,-38.3937,3.51781
-532,225,-39.7219,-4.45441,0,0,0,0,0,0,0,-1,692,799,-39.7219,4.45438
-525,225,-29.1705,-3.88239,0,0,0,0,0,0,0,-1,699,799,-29.1705,3.88237
-518,225,-21.963,0.171326,0,0,0,0,0,0,0,-1,706,799,-21.9629,-0.171319
-511,225,-33.0002,0.660217,0,0,0,0,0,0,0,-1,713,799,-33.0002,-0.660239
-504,225,-50.4542,0.524109,0,0,0,0,0,0,0,-1,720,799,-50.4542,-0.524105
-497,225,-58.1214,0.281555,0,0,0,0,0,0,0,-1,727,799,-58.1214,-0.281579
-490,225,-57.9653,0.352722,0,0,0,0,0,0,0,-1,734,799,-57.9653,-0.352711
-483,225,-57.9014,0.315247,0,0,0,0,0,0,0,-1,741,799,-57.9014,-0.315243
-476,225,-57.8421,0.327271,0,0,0,0,0,0,0,-1,748,799,-57.8421,-0.327249
-469,225,-57.8315,0.313965,0,0,0,0,0,0,0,-1,755,799,-57.8316,-0.313969
-462,225,0,0,0,0,0,0,0,0,0,-1,762,799,0,0
-455,225,0,0,0,0,0,0,0,0,0,-1,769,799,0,0
-448,225,0,0,0,0,0,0,0,0,0,-1,776,799,0,0
-441,225,0,0,0,0,0,0,0,0,0,-1,783,799,0,0
-434,225,0,0,0,0,0,0,0,0,0,-1,790,799,0,0
-427,225,0,0,0,0,0,0,0,0,0,-1,797,799,0,0
-420,225,0,0,0,0,0,0,0,0,0,-1,804,799,0,0
-413,225,0,0,0,0,0,0,0,0,0,-1,811,799,0,0
-406,225,0,0,0,0,0,0,0,0,0,-1,818,799,0,0
-399,225,0,0,0,0,0,0,0,0,0,-1,825,799,0,0
-392,225,0,0,0,0,0,0,0,0,0,-1,832,799,0,0
-385,225,0,0,0,0,0,0,0,0,0,-1,839,799,0,0
-378,225,0,0,0,0,0,0,0,0,0,-1,846,799,0,0
-371,225,0,0,0,0,0,0,0,0,0,-1,853,799,0,0
-364,225,0,0,0,0,0,0,0,0,0,-1,860,799,0,0
-357,225,0,0,0,0,0,0,0,0,0,-1,867,799,0,0
-350,225,0,0,0,0,0,0,0,0,0,-1,874,799,0,0
-343,225,0,0,0,0,0,0,0,0,0,-1,881,799,0,0
-336,225,0,0,0,0,0,0,0,0,0,-1,888,799,0,0
-329,225,0,0,0,0,0,0,0,0,0,-1,895,799,0,0
-322,225,0,0,0,0,0,0,0,0,0,-1,902,799,0,0
-315,225,0,0,0,0,0,0,0,0,0,-1,909,799,0,0
-308,225,0,0,0,0,0,0,0,0,0,-1,916,799,0,0
-301,225,0,0,0,0,0,0,0,0,0,-1,923,799,0,0
-294,225,0,0,0,0,0,0,0,0,0,-1,930,799,0,0
-287,225,0,0,0,0,0,0,0,0,0,-1,937,799,0,0
-280,225,0,0,0,0,0,0,0,0,0,-1,944,799,0,0
-273,225,0,0,0,0,0,0,0,0,0,-1,951,799,0,0
-266,225,0,0,0,0,0,0,0,0,0,-1,958,799,0,0
-259,225,0,0,0,0,0,0,0,0,0,-1,965,799,0,0
-252,225,0,0,0,0,0,0,0,0,0,-1,972,799,0,0
-245,225,0,0,0,0,0,0,0,0,0,-1,979,799,0,0
-238,225,0,0,0,0,0,0,0,0,0,-1,986,799,0,0
-231,225,0,0,0,0,0,0,0,0,0,-1,993,799,0,0
-224,225,0,0,0,0,0,0,0,0,0,-1,1000,799,0,0
-217,225,0,0,0,0,0,0,0,0,0,-1,1007,799,0,0
-210,225,0,0,0,0,0,0,0,0,0,-1,1014,799,0,0
-203,225,0,0,0,0,0,0,0,0,0,-1,1021,799,0,0
-196,225,0,0,0,0,0,0,0,0,0,-1,1028,799,0,0
-189,225,0,0,0,0,0,0,0,0,0,-1,1035,799,0,0
-182,225,0,0,0,0,0,0,0,0,0,-1,1042,799,0,0
-175,225,0,0,0,0,0,0,0,0,0,-1,1049,799,0,0
-168,225,0,0,0,0,0,0,0,0,0,-1,1056,799,0,0
-161,225,0,0,0,0,0,0,0,0,0,-1,1063,799,0,0
-154,225,0,0,0,0,0,0,0,0,0,-1,1070,799,0,0
-147,225,0,0,0,0,0,0,0,0,0,-1,1077,799,0,0
-140,225,0,0,0,0,0,0,0,0,0,-1,1084,799,0,0
-133,225,0,0,0,0,0,0,0,0,0,-1,1091,799,0,0
-126,225,0,0,0,0,0,0,0,0,0,-1,1098,799,0,0
-119,225,0,0,0,0,0,0,0,0,0,-1,1105,799,0,0
-112,225,0,0,0,0,0,0,0,0,0,-1,1112,799,0,0
-105,225,0,0,0,0,0,0,0,0,0,-1,1119,799,0,0
-98,225,0,0,0,0,0,0,0,0,0,-1,1126,799,0,0
-91,225,0,0,0,0,0,0,0,0,0,-1,1133,799,0,0
-84,225,0,0,0,0,0,0,0,0,0,-1,1140,799,0,0
-77,225,0,0,0,0,0,0,0,0,0,-1,1147,799,0,0
-70,225,0,0,0,0,0,0,0,0,0,-1,1154,799,0,0
-63,225,0,0,0,0,0,0,0,0,0,-1,1161,799,0,0
-56,225,0,0,0,0,0,0,0,0,0,-1,1168,799,0,0
-49,225,0,0,0,0,0,0,0,0,0,-1,1175,799,0,0
-42,225,0,0,0,0,0,0,0,0,0,-1,1182,799,0,0
-35,225,0,0,0,0,0,0,0,0,0,-1,1189,799,0,0
-28,225,0,0,0,0,0,0,0,0,0,-1,1196,799,0,0
-21,225,0,0,0,0,0,0,0,0,0,-1,1203,799,0,0
-14,225,0,0,0,0,0,0,0,0,0,-1,1210,799,0,0
-7,225,0,0,0,0,0,0,0,0,0,-1,1217,799,0,0
0,225,0,0,0,0,0,0,0,0,0,-1,1224,799,0,0
7,225,0,0,0,0,0,0,0,0,0,-1,1231,799,0,0
14,225,0,0,0,0,0,0,0,0,0,-1,1238,799,0,0
21,225,0,0,0,0,0,0,0,0,0,-1,1245,799,0,0
28,225,0,0,0,0,0,0,0,0,0,-1,1252,799,0,0
35,225,0,0,0,0,0,0,0,0,0,-1,1259,799,0,0
42,225,0,0,0,0,0,0,0,0,0,-1,1266,799,0,0
49,225,0,0,0,0,0,0,0,0,0,-1,1273,799,0,0
56,225,0,0,0,0,0,0,0,0,0,-1,1280,799,0,0
63,225,0,0,0,0,0,0,0,0,0,-1,1287,799,0,0
70,225,0,0,0,0,0,0,0,0,0,-1,1294,799,0,0
77,225,0,0,0,0,0,0,0,0,0,-1,1301,799,0,0
84,225,0,0,0,0,0,0,0,0,0,-1,1308,799,0,0
91,225,0,0,0,0,0,0,0,0,0,-1,1315,799,0,0
98,225,0,0,0,0,0,0,0,0,0,-1,1322,799,0,0
105,225,0,0,0,0,0,0,0,0,0,-1,1329,799,0,0
112,225,0,0,0,0,0,0,0,0,0,-1,1336,799,0,0
119,225,0,0,0,0,0,0,0,0,0,-1,1343,799,0,0
126,225,0,0,0,0,0,0,0,0,0,-1,1350,799,0,0
133,225,0,0,0,0,0,0,0,0,0,-1,1357,799,0,0
140,225,0,0,0,0,0,0,0,0,0,-1,1364,799,0,0
147,225,0,0,0,0,0,0,0,0,0,-1,1371,799,0,0
154,225,0,0,0,0,0,0,0,0,0,-1,1378,799,0,0
161,225,0,0,0,0,0,0,0,0,0,-1,1385,799,0,0
168,225,0,0,0,0,0,0,0,0,0,-1,1392,799,0,0
175,225,0,0,0,0,0,0,0,0,0,-1,1399,799,0,0
182,225,0,0,0,0,0,0,0,0,0,-1,1406,799,0,0
189,225,0,0,0,0,0,0,0,0,0,-1,1413,799,0,0
196,225,0,0,0,0,0,0,0,0,0,-1,1420,799,0,0
203,225,0,0,0,0,0,0,0,0,0,-1,1427,799,0,0
210,225,0,0,0,0,0,0,0,0,0,-1,1434,799,0,0
217,225,0,0,0,0,0,0,0,0,0,-1,1441,799,0,0
224,225,0,0,0,0,0,0,0,0,0,-1,1448,799,0,0
231,225,0,0,0,0,0,0,0,0,0,-1,1455,799,0,0
238,225,0,0,0,0,0,0,0,0,0,-1,1462,799,0,0
245,225,0,0,0,0,0,0,0,0,0,-1,1469,799,0,0
252,225,0,0,0,0,0,0,0,0,0,-1,1476,799,0,0
259,225,0,0,0,0,0,0,0,0,0,-1,1483,799,0,0
266,225,0,0,0,0,0,0,0,0,0,-1,1490,799,0,0
273,225,0,0,0,0,0,0,0,0,0,-1,1497,799,0,0
280,225,0,0,0,0,0,0,0,0,0,-1,1504,799,0,0
287,225,0,0,0,0,0,0,0,0,0,-1,1511,799,0,0
294,225,0,0,0,0,0,0,0,0,0,-1,1518,799,0,0
301,225,0,0,0,0,0,0,0,0,0,-1,1525,799,0,0
308,225,0,0,0,0,0,0,0,0,0,-1,1532,799,0,0
315,225,0,0,0,0,0,0,0,0,0,-1,1539,799,0,0
322,225,0,0,0,0,0,0,0,0,0,-1,1546,799,0,0
329,225,0,0,0,0,0,0,0,0,0,-1,1553,799,0,0
336,225,0,0,0,0,0,0,0,0,0,-1,1560,799,0,0
343,225,0,0,0,0,0,0,0,0,0,-1,1567,799,0,0
350,225,0,0,0,0,0,0,0,0,0,-1,1574,799,0,0
357,225,0,0,0,0,0,0,0,0,0,-1,1581,799,0,0
364,225,0,0,0,0,0,0,0,0,0,-1,1588,799,0,0
371,225,0,0,0,0,0,0,0,0,0,-1,1595,799,0,0
378,225,0,0,0,0,0,0,0,0,0,-1,1602,799,0,0
385,225,0,0,0,0,0,0,0,0,0,-1,1609,799,0,0
392,225,0,0,0,0,0,0,0,0,0,-1,1616,799,0,0
399,225,0,0,0,0,0,0,0,0,0,-1,1623,799,0,0
406,225,0,0,0,0,0,0,0,0,0,-1,1630,799,0,0
413,225,0,0,0,0,0,0,0,0,0,-1,1637,799,0,0
420,225,0,0,0,0,0,0,0,0,0,-1,1644,799,0,0
427,225,0,0,0,0,0,0,0,0,0,-1,1651,799,0,0
434,225,0,0,0,0,0,0,0,0,0,-1,1658,799,0,0
441,225,0,0,0,0,0,0,0,0,0,-1,1665,799,0,0
448,225,0,0,0,0,0,0,0,0,0,-1,1672,799,0,0
455,225,0,0,0,0,0,0,0,0,0,-1,1679,799,0,0
462,225,0,0,0,0,0,0,0,0,0,-1,1686,799,0,0
469,225,0,0,0,0,0,0,0,0,0,-1,1693,799,0,0
476,225,0,0,0,0,0,0,0,0,0,-1,1700,799,0,0
483,225,0,0,0,0,0,0,0,0,0,-1,1707,799,0,0
490,225,0,0,0,0,0,0,0,0,0,-1,1714,799,0,0
497,225,0,0,0,0,0,0,0,0,0,-1,1721,799,0,0
504,225,0,0,0,0,0,0,0,0,0,-1,1728,799,0,0
511,225,0,0,0,0,0,0,0,0,0,-1,1735,799,0,0
518,225,0,0,0,0,0,0,0,0,0,-1,1742,799,0,0
525,225,0,0,0,0,0,0,0,0,0,-1,1749,799,0,0
532,225,0,0,0,0,0,0,0,0,0,-1,1756,799,0,0
539,225,0,0,0,0,0,0,0,0,0,-1,1763,799,0,0
546,225,0,0,0,0,0,0,0,0,0,-1,1770,799,0,0
553,225,0,0,0,0,0,0,0,0,0,-1,1777,799,0,0
560,225,0,0,0,0,0,0,0,0,0,-1,1784,799,0,0
567,225,0,0,0,0,0,0,0,0,0,-1,1791,799,0,0
574,225,0,0,0,0,0,0,0,0,0,-1,1798,799,0,0
581,225,0,0,0,0,0,0,0,0,0,-1,1805,799,0,0
588,225,74.6787,2.27808,0.00814265,-0.00263574,-0.0030036,0.00892315,-0.00341623,-0.25423,0.00735683,0.0398714,1812,799,74.6787,-2.27808
595,225,74.7007,2.16095,0.00578241,-0.000477658,-0.00109407,0.00596812,-0.000663358,-0.168132,0.00421729,0.0363686,1819,799,74.7006,-2.16095
602,225,74.7413,2.10101,0.00390752,0.000912819,0.000194528,0.00392011,0.000900236,0.0645954,0.002371,0.032192,1826,799,74.7413,-2.101
609,225,74.7014,2.24286,0.00237814,0.00130651,0.000787674,0.00279496,0.000889678,0.486724,0.0016488,0.031992,1833,799,74.7014,-2.24288
616,225,74.6622,2.3244,0.00184025,0.00124835,0.000991967,0.00257947,0.000509129,0.64043,0.00157757,0.0383208,1840,799,74.6622,-2.32441
623,225,74.6313,2.35754,0.0017258,0.000959766,0.000959228,0.00237565,0.000309912,0.595449,0.00149124,0.0463989,1847,799,74.6314,-2.35752
630,225,74.7225,2.25317,0,0,0,0,0,0,0,-1,1854,799,74.7225,-2.25319
637,225,55.6359,2.8064,0,0,0,0,0,0,0,-1,1861,799,55.6359,-2.80637
644,225,42.0298,2.46411,0,0,0,0,0,0,0,-1,1868,799,42.0298,-2.4641
651,225,27.9657,0.579529,0,0,0,0,0,0,0,-1,1875,799,27.9657,-0.579541
658,225,47.9047,-1.92926,0,0,0,0,0,0,0,-1,1882,799,47.9047,1.92927
665,225,47.541,-2.27985,0,0,0,0,0,0,0,-1,1889,799,47.5411,2.27983
672,225,54.4034,-2.71686,0,0,0,0,0,0,0,-1,1896,799,54.4034,2.71689
679,225,54.2904,-1.50891,-0.000196212,-0.000216739,5.13101e-06,-0.000195001,-0.00021795,0.231794,0.000138286,0.045315,1903,799,54.2904,1.50889
686,225,54.2844,-0.650513,-0.000323136,-0.000184267,-0.000175042,-6.53916e-05,-0.000442012,-0.974216,0.000275477,0.012718,1910,799,54.2844,0.650531
693,225,54.2476,0.214661,4.69885e-05,-0.000113737,-0.000236031,0.000215963,-0.000282711,-0.621316,0.000288768,0.0106713,1917,799,54.2475,-0.214659
700,225,54.2053,1.09882,0.000840597,0.000364659,-0.000209984,0.000919996,0.00028526,-0.361503,0.000543784,0.0122587,1924,799,54.2054,-1.0988
707,225,54.1198,1.97943,0.00193931,0.00101689,4.06225e-05,0.0019411,0.0010151,0.0439254,0.00112109,0.0122414,1931,799,54.1198,-1.97943
714,225,54.0918,2.87854,0.0034121,0.00170363,0.000428272,0.00351344,0.00160228,0.232364,0.0020311,0.0131585,1938,799,54.0918,-2.87853
721,225,54.0824,3.7608,0.00544003,0.00242853,0.000987365,0.00573489,0.00213368,0.290196,0.00334698,0.0168989,1945,799,54.0824,-3.76082
728,225,54.0524,4.66046,0,0,0,0,0,0,0,-1,1952,799,54.0524,-4.66044
735,225,53.493,5.29071,0,0,0,0,0,0,0,-1,1959,799,53.4931,-5.29068
742,225,29.0922,3.2132,0,0,0,0,0,0,0,-1,1966,799,29.0921,-3.21322
749,225,29.9529,4.45538,0,0,0,0,0,0,0,-1,1973,799,29.9529,-4.45537
756,225,39.1752,11.743,0,0,0,0,0,0,0,-1,1980,799,39.1751,-11.743
763,225,39.9703,12.194,0,0,0,0,0,0,0,-1,1987,799,39.9703,-12.194
770,225,0,0,0,0,0,0,0,0,0,-1,1994,799,0,0
777,225,0,0,0,0,0,0,0,0,0,-1,2001,799,0,0
784,225,0,0,0,0,0,0,0,0,0,-1,2008,799,0,0
791,225,0,0,0,0,0,0,0,0,0,-1,2015,799,0,0
798,225,0,0,0,0,0,0,0,0,0,-1,2022,799,0,0
805,225,0,0,0,0,0,0,0,0,0,-1,2029,799,0,0
812,225,0,0,0,0,0,0,0,0,0,-1,2036,799,0,0
-700,218,0,0,0,0,0,0,0,0,0,-1,524,806,0,0
-693,218,0,0,0,0,0,0,0,0,0,-1,531,806,0,0
-686,218,0,0,0,0,0,0,0,0,0,-1,538,806,0,0
-679,218,0,0,0,0,0,0,0,0,0,-1,545,806,0,0
-672,218,0,0,0,0,0,0,0,0,0,-1,552,806,0,0
-665,218,0,0,0,0,0,0,0,0,0,-1,559,806,0,0
-658,218,0,0,0,0,0,0,0,0,0,-1,566,806,0,0
-651,218,-40.3778,5.1792,0,0,0,0,0,0,0,-1,573,806,-40.3778,-5.1792
-644,218,-40.7704,4.19714,0,0,0,0,0,0,0,-1,580,806,-40.7704,-4.19714
-637,218,-41.541,3.36328,0,0,0,0,0,0,0,-1,587,806,-41.541,-3.36326
-630,218,-42.1423,2.85565,0,0,0,0,0,0,0,-1,594,806,-42.1423,-2.85567
-623,218,-42.7292,2.59015,0,0,0,0,0,0,0,-1,601,806,-42.7292,-2.59015
-616,218,-20.0258,1.87585,0,0,0,0,0,0,0,-1,608,806,-20.0258,-1.87585
-609,218,-39.0475,4.73761,0,0,0,0,0,0,0,-1,615,806,-39.0475,-4.73761
-602,218,-39.1229,3.92676,0.00441797,-0.000452492,-0.00927278,0.01157,-0.00760448,-0.656987,0.011149,0.0432228,622,806,-39.1229,-3.92677
-595,218,-39.1617,3.203,0.00345115,-0.000145446,-0.00690643,0.00878957,-0.00548386,-0.658036,0.00831411,0.0181642,629,806,-39.1617,-3.20301
-588,218,-39.1704,2.32477,0.00297807,0.000442941,-0.00479282,0.00666811,-0.0032471,-0.656122,0.00583702,0.0116997,636,806,-39.1704,-2.32476
-581,218,-39.2108,1.46106,0.00261399,0.000908459,-0.00287779,0.00476271,-0.00124026,-0.641357,0.0036593,0.0117514,643,806,-39.2107,-1.46107
-574,218,-39.2668,0.611877,0.00224911,0.00136149,-0.00112055,0.00301053,0.00060006,-0.596843,0.00183991,0.0102055,650,806,-39.2668,-0.611889
-567,218,-39.3074,-0.277405,0.00188555,0.00179247,0.00043049,0.00227201,0.00140601,0.73155,0.00132404,0.0177546,657,806,-39.3074,0.27741
-560,218,-39.3328,-1.16956,0.00151956,0.0019992,0.00194057,0.00371471,-0.000195951,0.846877,0.00254431,0.0191053,664,806,-39.3328,1.16956
-553,218,-39.2905,-2.31976,0.000947653,0.0021368,0.00347093,0.00506371,-0.00197926,0.870225,0.00419423,0.0214271,671,806,-39.2905,2.31974
-546,218,-39.4806,-3.24744,7.34675e-05,0.00191685,0.00512124,0.00619868,-0.00420836,0.874432,0.00604502,0.030939,678,806,-39.4806,3.24741
-539,218,-39.6395,-3.95557,-0.00100286,0.000379395,0.00580822,0.00553746,-0.00616093,0.844615,0.00675726,0.0346422,685,806,-39.6395,3.95554
-532,218,-39.6257,-4.54053,0,0,0,0,0,0,0,-1,692,806,-39.6257,4.54054
-525,218,-29.3521,-3.64417,0,0,0,0,0,0,0,-1,699,806,-29.3521,3.64414
-518,218,-23.61,2.54181,0,0,0,0,0,0,0,-1,706,806,-23.61,-2.54183
-511,218,-41.0953,1.06879,0,0,0,0,0,0,0,-1,713,806,-41.0953,-1.06876
-504,218,-57.0665,0.508179,0,0,0,0,0,0,0,-1,720,806,-57.0666,-0.508175
-497,218,-57.6529,0.619751,0,0,0,0,0,0,0,-1,727,806,-57.6529,-0.619764
-490,218,-57.8929,0.311401,0,0,0,0,0,0,0,-1,734,806,-57.8929,-0.311393
-483,218,-57.8557,0.34137,0,0,0,0,0,0,0,-1,741,806,-57.8556,-0.341388
-476,218,-57.6879,0.469971,0,0,0,0,0,0,0,-1,748,806,-57.6878,-0.469959
-469,218,0,0,0,0,0,0,0,0,0,-1,755,806,0,0
-462,218,0,0,0,0,0,0,0,0,0,-1,762,806,0,0
-455,218,0,0,0,0,0,0,0,0,0,-1,769,806,0,0
-448,218,0,0,0,0,0,0,0,0,0,-1,776,806,0,0
-441,218,0,0,0,0,0,0,0,0,0,-1,783,806,0,0
-434,218,0,0,0,0,0,0,0,0,0,-1,790,806,0,0
-427,218,0,0,0,0,0,0,0,0,0,-1,797,806,0,0
-420,218,0,0,0,0,0,0,0,0,0,-1,804,806,0,0
-413,218,0,0,0,0,0,0,0,0,0,-1,811,806,0,0
-406,218,0,0,0,0,0,0,0,0,0,-1,818,806,0,0
-399,218,0,0,0,0,0,0,0,0,0,-1,825,806,0,0
-392,218,0,0,0,0,0,0,0,0,0,-1,832,806,0,0
-385,218,0,0,0,0,0,0,0,0,0,-1,839,806,0,0
-378,218,0,0,0,0,0,0,0,0,0,-1,846,806,0,0
-371,218,0,0,0,0,0,0,0,0,0,-1,853,806,0,0
-364,218,0,0,0,0,0,0,0,0,0,-1,860,806,0,0
-357,218,0,0,0,0,0,0,0,0,0,-1,867,806,0,0
-350,218,0,0,0,0,0,0,0,0,0,-1,874,806,0,0
-343,218,0,0,0,0,0,0,0,0,0,-1,881,806,0,0
-336,218,0,0,0,0,0,0,0,0,0,-1,888,806,0,0
-329,218,0,0,0,0,0,0,0,0,0,-1,895,806,0,0
-322,218,0,0,0,0,0,0,0,0,0,-1,902,806,0,0
-315,218,0,0,0,0,0,0,0,0,0,-1,909,806,0,0
-308,218,0,0,0,0,0,0,0,0,0,-1,916,806,0,0
-301,218,0,0,0,0,0,0,0,0,0,-1,923,806,0,0
-294,218,0,0,0,0,0,0,0,0,0,-1,930,806,0,0
-287,218,0,0,0,0,0,0,0,0,0,-1,937,806,0,0
-280,218,0,0,0,0,0,0,0,0,0,-1,944,806,0,0
-273,218,0,0,0,0,0,0,0,0,0,-1,951,806,0,0
-266,218,0,0,0,0,0,0,0,0,0,-1,958,806,0,0
-259,218,0,0,0,0,0,0,0,0,0,-1,965,806,0,0
-252,218,0,0,0,0,0,0,0,0,0,-1,972,806,0,0
-245,218,0,0,0,0,0,0,0,0,0,-1,979,806,0,0
-238,218,0,0,0,0,0,0,0,0,0,-1,986,806,0,0
-231,218,0,0,0,0,0,0,0,0,0,-1,993,806,0,0
-224,218,0,0,0,0,0,0,0,0,0,-1,1000,806,0,0
-217,218,0,0,0,0,0,0,0,0,0,-1,1007,806,0,0
-210,218,0,0,0,0,0,0,0,0,0,-1,1014,806,0,0
-203,218,0,0,0,0,0,0,0,0,0,-1,1021,806,0,0
-196,218,0,0,0,0,0,0,0,0,0,-1,1028,806,0,0
-189,218,0,0,0,0,0,0,0,0,0,-1,1035,806,0,0
-182,218,0,0,0,0,0,0,0,0,0,-1,1042,806,0,0
-175,218,0,0,0,0,0,0,0,0,0,-1,1049,806,0,0
-168,218,0,0,0,0,0,0,0,0,0,-1,1056,806,0,0
-161,218,0,0,0,0,0,0,0,0,0,-1,1063,806,0,0
-154,218,0,0,0,0,0,0,0,0,0,-1,1070,806,0,0
-147,218,0,0,0,0,0,0,0,0,0,-1,1077,806,0,0
-140,218,0,0,0,0,0,0,0,0,0,-1,1084,806,0,0
-133,218,0,0,0,0,0,0,0,0,0,-1,1091,806,0,0
-126,218,0,0,0,0,0,0,0,0,0,-1,1098,806,0,0
-119,218,0,0,0,0,0,0,0,0,0,-1,1105,806,0,0
-112,218,0,0,0,0,0,0,0,0,0,-1,1112,806,0,0
-105,218,0,0,0,0,0,0,0,0,0,-1,1119,806,0,0
-98,218,0,0,0,0,0,0,0,0,0,-1,1126,806,0,0
-91,218,0,0,0,0,0,0,0,0,0,-1,1133,806,0,0
-84,218,0,0,0,0,0,0,0,0,0,-1,1140,806,0,0
-77,218,0,0,0,0,0,0,0,0,0,-1,1147,806,0,0
-70,218,0,0,0,0,0,0,0,0,0,-1,1154,806,0,0
-63,218,0,0,0,0,0,0,0,0,0,-1,1161,806,0,0
-56,218,0,0,0,0,0,0,0,0,0,-1,1168,806,0,0
-49,218,0,0,0,0,0,0,0,0,0,-1,1175,806,0,0
-42,218,0,0,0,0,0,0,0,0,0,-1,1182,806,0,0
-35,218,0,0,0,0,0,0,0,0,0,-1,1189,806,0,0
-28,218,0,0,0,0,0,0,0,0,0,-1,1196,806,0,0
-21,218,0,0,0,0,0,0,0,0,0,-1,1203,806,0,0
-14,218,0,0,0,0,0,0,0,0,0,-1,1210,806,0,0
-7,218,0,0,0,0,0,0,0,0,0,-1,1217,806,0,0
0,218,0,0,0,0,0,0,0,0,0,-1,1224,806,0,0
7,218,0,0,0,0,0,0,0,0,0,-1,1231,806,0,0
14,218,0,0,0,0,0,0,0,0,0,-1,1238,806,0,0
21,218,0,0,0,0,0,0,0,0,0,-1,1245,806,0,0
28,218,0,0,0,0,0,0,0,0,0,-1,1252,806,0,0
35,218,0,0,0,0,0,0,0,0,0,-1,1259,806,0,0
42,218,0,0,0,0,0,0,0,0,0,-1,1266,806,0,0
49,218,0,0,0,0,0,0,0,0,0,-1,1273,806,0,0
56,218,0,0,0,0,0,0,0,0,0,-1,1280,806,0,0
63,218,0,0,0,0,0,0,0,0,0,-1,1287,806,0,0
70,218,0,0,0,0,0,0,0,0,0,-1,1294,806,0,0
77,218,0,0,0,0,0,0,0,0,0,-1,1301,806,0,0
84,218,0,0,0,0,0,0,0,0,0,-1,1308,806,0,0
91,218,0,0,0,0,0,0,0,0,0,-1,1315,806,0,0
98,218,0,0,0,0,0,0,0,0,0,-1,1322,806,0,0
105,218,0,0,0,0,0,0,0,0,0,-1,1329,806,0,0
112,218,0,0,0,0,0,0,0,0,0,-1,1336,806,0,0
119,218,0,0,0,0,0,0,0,0,0,-1,1343,806,0,0
126,218,0,0,0,0,0,0,0,0,0,-1,1350,806,0,0
133,218,0,0,0,0,0,0,0,0,0,-1,1357,806,0,0
140,218,0,0,0,0,0,0,0,0,0,-1,1364,806,0,0
147,218,0,0,0,0,0,0,0,0,0,-1,1371,806,0,0
154,218,0,0,0,0,0,0,0,0,0,-1,1378,806,0,0
161,218,0,0,0,0,0,0,0,0,0,-1,1385,806,0,0
168,218,0,0,0,0,0,0,0,0,0,-1,1392,806,0,0
175,218,0,0,0,0,0,0,0,0,0,-1,1399,806,0,0
182,218,0,0,0,0,0,0,0,0,0,-1,1406,806,0,0
189,218,0,0,0,0,0,0,0,0,0,-1,1413,806,0,0
196,218,0,0,0,0,0,0,0,0,0,-1,1420,806,0,0
203,218,0,0,0,0,0,0,0,0,0,-1,1427,806,0,0
210,218,0,0,0,0,0,0,0,0,0,-1,1434,806,0,0
217,218,0,0,0,0,0,0,0,0,0,-1,1441,806,0,0
224,218,0,0,0,0,0,0,0,0,0,-1,1448,806,0,0
231,218,0,0,0,0,0,0,0,0,0,-1,1455,806,0,0
238,218,0,0,0,0,0,0,0,0,0,-1,1462,806,0,0
245,218,0,0,0,0,0,0,0,0,0,-1,1469,806,0,0
252,218,0,0,0,0,0,0,0,0,0,-1,1476,806,0,0
259,218,0,0,0,0,0,0,0,0,0,-1,1483,806,0,0
266,218,0,0,0,0,0,0,0,0,0,-1,1490,806,0,0
273,218,0,0,0,0,0,0,0,0,0,-1,1497,806,0,0
280,218,0,0,0,0,0,0,0,0,0,-1,1504,806,0,0
287,218,0,0,0,0,0,0,0,0,0,-1,1511,806,0,0
294,218,0,0,0,0,0,0,0,0,0,-1,1518,806,0,0
301,218,0,0,0,0,0,0,0,0,0,-1,1525,806,0,0
308,218,0,0,0,0,0,0,0,0,0,-1,1532,806,0,0
315,218,0,0,0,0,0,0,0,0,0,-1,1539,806,0,0
322,218,0,0,0,0,0,0,0,0,0,-1,1546,806,0,0
329,218,0,0,0,0,0,0,0,0,0,-1,1553,806,0,0
336,218,0,0,0,0,0,0,0,0,0,-1,1560,806,0,0
343,218,0,0,0,0,0,0,0,0,0,-1,1567,806,0,0
350,218,0,0,0,0,0,0,0,0,0,-1,1574,806,0,0
357,218,0,0,0,0,0,0,0,0,0,-1,1581,806,0,0
364,218,0,0,0,0,0,0,0,0,0,-1,1588,806,0,0
371,218,0,0,0,0,0,0,0,0,0,-1,1595,806,0,0
378,218,0,0,0,0,0,0,0,0,0,-1,1602,806,0,0
385,218,0,0,0,0,0,0,0,0,0,-1,1609,806,0,0
392,218,0,0,0,0,0,0,0,0,0,-1,1616,806,0,0
399,218,0,0,0,0,0,0,0,0,0,-1,1623,806,0,0
406,218,0,0,0,0,0,0,0,0,0,-1,1630,806,0,0
413,218,0,0,0,0,0,0,0,0,0,-1,1637,806,0,0
420,218,0,0,0,0,0,0,0,0,0,-1,1644,806,0,0
427,218,0,0,0,0,0,0,0,0,0,-1,1651,806,0,0
434,218,0,0,0,0,0,0,0,0,0,-1,1658,806,0,0
441,218,0,0,0,0,0,0,0,0,0,-1,1665,806,0,0
448,218,0,0,0,0,0,0,0,0,0,-1,1672,806,0,0
455,218,0,0,0,0,0,0,0,0,0,-1,1679,806,0,0
462,218,0,0,0,0,0,0,0,0,0,-1,1686,806,0,0
469,218,0,0,0,0,0,0,0,0,0,-1,1693,806,0,0
476,218,0,0,0,0,0,0,0,0,0,-1,1700,806,0,0
483,218,0,0,0,0,0,0,0,0,0,-1,1707,806,0,0
490,218,0,0,0,0,0,0,0,0,0,-1,1714,806,0,0
497,218,0,0,0,0,0,0,0,0,0,-1,1721,806,0,0
504,218,0,0,0,0,0,0,0,0,0,-1,1728,806,0,0
511,218,0,0,0,0,0,0,0,0,0,-1,1735,806,0,0
518,218,0,0,0,0,0,0,0,0,0,-1,1742,806,0,0
525,218,0,0,0,0,0,0,0,0,0,-1,1749,806,0,0
532,218,0,0,0,0,0,0,0,0,0,-1,1756,806,0,0
539,218,0,0,0,0,0,0,0,0,0,-1,1763,806,0,0
546,218,0,0,0,0,0,0,0,0,0,-1,1770,806,0,0
553,218,0,0,0,0,0,0,0,0,0,-1,1777,806,0,0
560,218,0,0,0,0,0,0,0,0,0,-1,1784,806,0,0
567,218,0,0,0,0,0,0,0,0,0,-1,1791,806,0,0
574,218,0,0,0,0,0,0,0,0,0,-1,1798,806,0,0
581,218,0,0,0,0,0,0,0,0,0,-1,1805,806,0,0
588,218,0,0,0,0,0,0,0,0,0,-1,1812,806,0,0
595,218,74.6035,2.3313,0.00603525,-0.00251225,-0.00211709,0.00653088,-0.00300788,-0.229969,0.00563102,0.0357535,1819,806,74.6035,-2.33129
602,218,74.6469,2.28223,0.00394596,-0.000610579,-0.000504859,0.00400123,-0.000665846,-0.109037,0.00291489,0.0315572,1826,806,74.6469,-2.28223
609,218,74.6382,2.32068,0.00215831,0.000434592,0.000427775,0.00225863,0.00033427,0.230358,0.00140762,0.0290203,1833,806,74.6382,-2.32068
616,218,74.5989,2.37036,0.00136747,0.000837233,0.000817927,0.00196217,0.000242531,0.628673,0.00123523,0.0312384,1840,806,74.5989,-2.37034
623,218,74.6353,2.31592,0.00122074,0.000852376,0.000871868,0.00192767,0.000145447,0.681305,0.00123948,0.0357719,1847,806,74.6353,-2.31589
630,218,74.6957,2.28516,0.00115221,0.000646231,0.000950115,0.00188244,-8.40003e-05,0.655281,0.00128388,0.0478073,1854,806,74.6956,-2.28516
637,218,74.73,2.26337,0,0,0,0,0,0,0,-1,1861,806,74.73,-2.26335
644,218,52.4042,2.47949,0,0,0,0,0,0,0,-1,1868,806,52.4041,-2.47949
651,218,41.7338,1.99164,0,0,0,0,0,0,0,-1,1875,806,41.7338,-1.99162
658,218,28.41,0.514954,0,0,0,0,0,0,0,-1,1882,806,28.41,-0.514983
665,218,52.1176,-2.84406,0,0,0,0,0,0,0,-1,1889,806,52.1176,2.84404
672,218,52.8506,-2.1853,0,0,0,0,0,0,0,-1,1896,806,52.8506,2.18533
679,218,55.1996,-1.7478,0,0,0,0,0,0,0,-1,1903,806,55.1996,1.74779
686,218,55.1724,-0.615479,-0.000781428,-0.000327495,-0.00015394,-0.000280214,-0.000828708,-1.27281,0.00048674,0.0251954,1910,806,55.1724,0.615481
693,218,55.1361,0.277222,-0.000317206,-0.000417349,-0.000287715,-7.5238e-05,-0.000659316,-0.699245,0.000416735,0.0121008,1917,806,55.1361,-0.277208
700,218,55.0768,1.15192,0.0005535,-9.75667e-06,-0.000302995,0.000685539,-0.000141795,-0.410965,0.000510893,0.00994497,1924,806,55.0768,-1.15194
707,218,55.0211,2.02618,0.00176743,0.000659171,-2.36144e-05,0.00176793,0.000658668,-0.0212948,0.00103171,0.00864,1931,806,55.0211,-2.02621
714,218,54.9844,2.92419,0.00340359,0.00142327,0.000432391,0.00349388,0.00133297,0.205864,0.00203598,0.0104987,1938,806,54.9844,-2.92422
721,218,54.9569,3.80084,0.00547886,0.00221895,0.00103318,0.00577873,0.00191908,0.282477,0.00339848,0.0141704,1945,806,54.9569,-3.80084
728,218,54.9026,4.71582,0.00810795,0.00304049,0.00178296,0.0086724,0.00247604,0.306598,0.0051583,0.0310679,1952,806,54.9026,-4.71579
735,218,55.0023,5.70715,0,0,0,0,0,0,0,-1,1959,806,55.0023,-5.70715
742,218,47.8733,6.84155,0,0,0,0,0,0,0,-1,1966,806,47.8733,-6.84158
749,218,42.0249,6.64703,0,0,0,0,0,0,0,-1,1973,806,42.0249,-6.64703
756,218,52.5194,6.16064,0,0,0,0,0,0,0,-1,1980,806,52.5194,-6.16066
763,218,44.9403,8.54736,0,0,0,0,0,0,0,-1,1987,806,44.9403,-8.54737
770,218,0,0,0,0,0,0,0,0,0,-1,1994,806,0,0
777,218,0,0,0,0,0,0,0,0,0,-1,2001,806,0,0
784,218,0,0,0,0,0,0,0,0,0,-1,2008,806,0,0
791,218,0,0,0,0,0,0,0,0,0,-1,2015,806,0,0
798,218,0,0,0,0,0,0,0,0,0,-1,2022,806,0,0
805,218,0,0,0,0,0,0,0,0,0,-1,2029,806,0,0
812,218,0,0,0,0,0,0,0,0,0,-1,2036,806,0,0
-700,211,0,0,0,0,0,0,0,0,0,-1,524,813,0,0
-693,211,0,0,0,0,0,0,0,0,0,-1,531,813,0,0
-686,211,0,0,0,0,0,0,0,0,0,-1,538,813,0,0
-679,211,0,0,0,0,0,0,0,0,0,-1,545,813,0,0
-672,211,0,0,0,0,0,0,0,0,0,-1,552,813,0,0
-665,211,0,0,0,0,0,0,0,0,0,-1,559,813,0,0
-658,211,0,0,0,0,0,0,0,0,0,-1,566,813,0,0
-651,211,-40.2495,5.20386,0,0,0,0,0,0,0,-1,573,813,-40.2494,-5.20384
-644,211,-40.6288,4.32092,0,0,0,0,0,0,0,-1,580,813,-40.6288,-4.3209
-637,211,-41.3664,3.51849,0,0,0,0,0,0,0,-1,587,813,-41.3664,-3.51847
-630,211,-41.9262,2.94977,0,0,0,0,0,0,0,-1,594,813,-41.9262,-2.94975
-623,211,-42.5012,2.62903,0,0,0,0,0,0,0,-1,601,813,-42.5011,-2.629
-616,211,-39.6804,5.88428,0,0,0,0,0,0,0,-1,608,813,-39.6804,-5.88429
-609,211,-39.6963,4.99103,0.00811193,0.00327824,-0.010613,0.0165798,-0.00518964,-0.673445,0.0131295,0.0442632,615,813,-39.6963,-4.99105
-602,211,-39.8693,4.12726,0.00556249,0.0018239,-0.00762138,0.0115405,-0.00415407,-0.665137,0.0093898,0.0226132,622,813,-39.8693,-4.12723
-595,211,-40.0004,3.27893,0.00399555,0.00134772,-0.00544439,0.00827468,-0.00293142,-0.666128,0.00671052,0.0111413,629,813,-40.0004,-3.27892
-588,211,-40.0627,2.38116,0.00311843,0.00134166,-0.00352848,0.00586865,-0.00140856,-0.662074,0.00445677,0.0118449,636,813,-40.0628,-2.38114
-581,211,-40.1086,1.5014,0.00255603,0.00140898,-0.00177209,0.00384509,0.000119921,-0.628896,0.00252437,0.0125478,643,813,-40.1086,-1.50142
-574,211,-40.1534,0.641541,0.00214206,0.00167145,-0.000186783,0.00220718,0.00160633,-0.335468,0.00131766,0.013278,650,813,-40.1534,-0.641526
-567,211,-40.2221,-0.228149,0.00185416,0.00203004,0.00122699,0.00317224,0.000711961,0.821173,0.00192198,0.0212916,657,813,-40.2221,0.228152
-560,211,-40.2726,-1.19507,0.00160444,0.00225583,0.00263648,0.00458666,-0.000726384,0.846854,0.00332644,0.0387833,664,813,-40.2727,1.19509
-553,211,-40.0068,-2.60095,0,0,0,0,0,0,0,-1,671,813,-40.0068,2.60094
-546,211,-40.5027,-3.1203,0.000132478,0.00211758,0.00604071,0.00724674,-0.00499668,0.866826,0.00710842,0.0499803,678,813,-40.5027,3.1203
-539,211,-40.502,-3.8374,-0.00109533,0.000473787,0.00675486,0.00648949,-0.00711104,0.843213,0.007855,0.0301622,685,813,-40.502,3.83743
-532,211,-40.4717,-4.49982,0,0,0,0,0,0,0,-1,692,813,-40.4717,4.49984
-525,211,-14.3009,2.3233,0,0,0,0,0,0,0,-1,699,813,-14.3009,-2.3233
-518,211,-34.952,1.93011,0,0,0,0,0,0,0,-1,706,813,-34.952,-1.9301
-511,211,-53.0876,0.677734,0,0,0,0,0,0,0,-1,713,813,-53.0876,-0.677737
-504,211,-57.6233,0.462524,0,0,0,0,0,0,0,-1,720,813,-57.6233,-0.462522
-497,211,-57.8032,0.364197,0,0,0,0,0,0,0,-1,727,813,-57.8032,-0.3642
-490,211,-57.8597,0.324707,0,0,0,0,0,0,0,-1,734,813,-57.8597,-0.324696
-483,211,-57.7011,0.728149,0,0,0,0,0,0,0,-1,741,813,-57.7011,-0.728168
-476,211,-57.5996,0.799805,0,0,0,0,0,0,0,-1,748,813,-57.5996,-0.799821
-469,211,0,0,0,0,0,0,0,0,0,-1,755,813,0,0
-462,211,0,0,0,0,0,0,0,0,0,-1,762,813,0,0
-455,211,0,0,0,0,0,0,0,0,0,-1,769,813,0,0
-448,211,0,0,0,0,0,0,0,0,0,-1,776,813,0,0
-441,211,0,0,0,0,0,0,0,0,0,-1,783,813,0,0
-434,211,0,0,0,0,0,0,0,0,0,-1,790,813,0,0
-427,211,0,0,0,0,0,0,0,0,0,-1,797,813,0,0
-420,211,0,0,0,0,0,0,0,0,0,-1,804,813,0,0
-413,211,0,0,0,0,0,0,0,0,0,-1,811,813,0,0
-406,211,0,0,0,0,0,0,0,0,0,-1,818,813,0,0
-399,211,0,0,0,0,0,0,0,0,0,-1,825,813,0,0
-392,211,0,0,0,0,0,0,0,0,0,-1,832,813,0,0
-385,211,0,0,0,0,0,0,0,0,0,-1,839,813,0,0
-378,211,0,0,0,0,0,0,0,0,0,-1,846,813,0,0
-371,211,0,0,0,0,0,0,0,0,0,-1,853,813,0,0
-364,211,0,0,0,0,0,0,0,0,0,-1,860,813,0,0
-357,211,0,0,0,0,0,0,0,0,0,-1,867,813,0,0
-350,211,0,0,0,0,0,0,0,0,0,-1,874,813,0,0
-343,211,0,0,0,0,0,0,0,0,0,-1,881,813,0,0
-336,211,0,0,0,0,0,0,0,0,0,-1,888,813,0,0
-329,211,0,0,0,0,0,0,0,0,0,-1,895,813,0,0
-322,211,0,0,0,0,0,0,0,0,0,-1,902,813,0,0
-315,211,0,0,0,0,0,0,0,0,0,-1,909,813,0,0
-308,211,0,0,0,0,0,0,0,0,0,-1,916,813,0,0
-301,211,0,0,0,0,0,0,0,0,0,-1,923,813,0,0
-294,211,0,0,0,0,0,0,0,0,0,-1,930,813,0,0
-287,211,0,0,0,0,0,0,0,0,0,-1,937,813,0,0
-280,211,0,0,0,0,0,0,0,0,0,-1,944,813,0,0
-273,211,0,0,0,0,0,0,0,0,0,-1,951,813,0,0
-266,211,0,0,0,0,0,0,0,0,0,-1,958,813,0,0
-259,211,0,0,0,0,0,0,0,0,0,-1,965,813,0,0
-252,211,0,0,0,0,0,0,0,0,0,-1,972,813,0,0
-245,211,0,0,0,0,0,0,0,0,0,-1,979,813,0,0
-238,211,0,0,0,0,0,0,0,0,0,-1,986,813,0,0
-231,211,0,0,0,0,0,0,0,0,0,-1,993,813,0,0
-224,211,0,0,0,0,0,0,0,0,0,-1,1000,813,0,0
-217,211,0,0,0,0,0,0,0,0,0,-1,1007,813,0,0
-210,211,0,0,0,0,0,0,0,0,0,-1,1014,813,0,0
-203,211,0,0,0,0,0,0,0,0,0,-1,1021,813,0,0
-196,211,0,0,0,0,0,0,0,0,0,-1,1028,813,0,0
-189,211,0,0,0,0,0,0,0,0,0,-1,1035,813,0,0
-182,211,0,0,0,0,0,0,0,0,0,-1,1042,813,0,0
-175,211,0,0,0,0,0,0,0,0,0,-1,1049,813,0,0
-168,211,0,0,0,0,0,0,0,0,0,-1,1056,813,0,0
-161,211,0,0,0,0,0,0,0,0,0,-1,1063,813,0,0
-154,211,0,0,0,0,0,0,0,0,0,-1,1070,813,0,0
-147,211,0,0,0,0,0,0,0,0,0,-1,1077,813,0,0
-140,211,0,0,0,0,0,0,0,0,0,-1,1084,813,0,0
-133,211,0,0,0,0,0,0,0,0,0,-1,1091,813,0,0
-126,211,0,0,0,0,0,0,0,0,0,-1,1098,813,0,0
-119,211,0,0,0,0,0,0,0,0,0,-1,1105,813,0,0
-112,211,0,0,0,0,0,0,0,0,0,-1,1112,813,0,0
-105,211,0,0,0,0,0,0,0,0,0,-1,1119,813,0,0
-98,211,0,0,0,0,0,0,0,0,0,-1,1126,813,0,0
-91,211,0,0,0,0,0,0,0,0,0,-1,1133,813,0,0
-84,211,0,0,0,0,0,0,0,0,0,-1,1140,813,0,0
-77,211,0,0,0,0,0,0,0,0,0,-1,1147,813,0,0
-70,211,0,0,0,0,0,0,0,0,0,-1,1154,813,0,0
-63,211,0,0,0,0,0,0,0,0,0,-1,1161,813,0,0
-56,211,0,0,0,0,0,0,0,0,0,-1,1168,813,0,0
-49,211,0,0,0,0,0,0,0,0,0,-1,1175,813,0,0
-42,211,0,0,0,0,0,0,0,0,0,-1,1182,813,0,0
-35,211,0,0,0,0,0,0,0,0,0,-1,1189,813,0,0
-28,211,0,0,0,0,0,0,0,0,0,-1,1196,813,0,0
-21,211,0,0,0,0,0,0,0,0,0,-1,1203,813,0,0
-14,211,0,0,0,0,0,0,0,0,0,-1,1210,813,0,0
-7,211,0,0,0,0,0,0,0,0,0,-1,1217,813,0,0
0,211,0,0,0,0,0,0,0,0,0,-1,1224,813,0,0
7,211,0,0,0,0,0,0,0,0,0,-1,1231,813,0,0
14,211,0,0,0,0,0,0,0,0,0,-1,1238,813,0,0
21,211,0,0,0,0,0,0,0,0,0,-1,1245,813,0,0
28,211,0,0,0,0,0,0,0,0,0,-1,1252,813,0,0
35,211,0,0,0,0,0,0,0,0,0,-1,1259,813,0,0
42,211,0,0,0,0,0,0,0,0,0,-1,1266,813,0,0
49,211,0,0,0,0,0,0,0,0,0,-1,1273,813,0,0
56,211,0,0,0,0,0,0,0,0,0,-1,1280,813,0,0
63,211,0,0,0,0,0,0,0,0,0,-1,1287,813,0,0
70,211,0,0,0,0,0,0,0,0,0,-1,1294,813,0,0
77,211,0,0,0,0,0,0,0,0,0,-1,1301,813,0,0
84,211,0,0,0,0,0,0,0,0,0,-1,1308,813,0,0
91,211,0,0,0,0,0,0,0,0,0,-1,1315,813,0,0
98,211,0,0,0,0,0,0,0,0,0,-1,1322,813,0,0
105,211,0,0,0,0,0,0,0,0,0,-1,1329,813,0,0
112,211,0,0,0,0,0,0,0,0,0,-1,1336,813,0,0
119,211,0,0,0,0,0,0,0,0,0,-1,1343,813,0,0
126,211,0,0,0,0,0,0,0,0,0,-1,1350,813,0,0
133,211,0,0,0,0,0,0,0,0,0,-1,1357,813,0,0
140,211,0,0,0,0,0,0,0,0,0,-1,1364,813,0,0
147,211,0,0,0,0,0,0,0,0,0,-1,1371,813,0,0
154,211,0,0,0,0,0,0,0,0,0,-1,1378,813,0,0
161,211,0,0,0,0,0,0,0,0,0,-1,1385,813,0,0
168,211,0,0,0,0,0,0,0,0,0,-1,1392,813,0,0
175,211,0,0,0,0,0,0,0,0,0,-1,1399,813,0,0
182,211,0,0,0,0,0,0,0,0,0,-1,1406,813,0,0
189,211,0,0,0,0,0,0,0,0,0,-1,1413,813,0,0
196,211,0,0,0,0,0,0,0,0,0,-1,1420,813,0,0
203,211,0,0,0,0,0,0,0,0,0,-1,1427,813,0,0
210,211,0,0,0,0,0,0,0,0,0,-1,1434,813,0,0
217,211,0,0,0,0,0,0,0,0,0,-1,1441,813,0,0
224,211,0,0,0,0,0,0,0,0,0,-1,1448,813,0,0
231,211,0,0,0,0,0,0,0,0,0,-1,1455,813,0,0
238,211,0,0,0,0,0,0,0,0,0,-1,1462,813,0,0
245,211,0,0,0,0,0,0,0,0,0,-1,1469,813,0,0
252,211,0,0,0,0,0,0,0,0,0,-1,1476,813,0,0
259,211,0,0,0,0,0,0,0,0,0,-1,1483,813,0,0
266,211,0,0,0,0,0,0,0,0,0,-1,1490,813,0,0
273,211,0,0,0,0,0,0,0,0,0,-1,1497,813,0,0
280,211,0,0,0,0,0,0,0,0,0,-1,1504,813,0,0
287,211,0,0,0,0,0,0,0,0,0,-1,1511,813,0,0
294,211,0,0,0,0,0,0,0,0,0,-1,1518,813,0,0
301,211,0,0,0,0,0,0,0,0,0,-1,1525,813,0,0
308,211,0,0,0,0,0,0,0,0,0,-1,1532,813,0,0
315,211,0,0,0,0,0,0,0,0,0,-1,1539,813,0,0
322,211,0,0,0,0,0,0,0,0,0,-1,1546,813,0,0
329,211,0,0,0,0,0,0,0,0,0,-1,1553,813,0,0
336,211,0,0,0,0,0,0,0,0,0,-1,1560,813,0,0
343,211,0,0,0,0,0,0,0,0,0,-1,1567,813,0,0
350,211,0,0,0,0,0,0,0,0,0,-1,1574,813,0,0
357,211,0,0,0,0,0,0,0,0,0,-1,1581,813,0,0
364,211,0,0,0,0,0,0,0,0,0,-1,1588,813,0,0
371,211,0,0,0,0,0,0,0,0,0,-1,1595,813,0,0
378,211,0,0,0,0,0,0,0,0,0,-1,1602,813,0,0
385,211,0,0,0,0,0,0,0,0,0,-1,1609,813,0,0
392,211,0,0,0,0,0,0,0,0,0,-1,1616,813,0,0
399,211,0,0,0,0,0,0,0,0,0,-1,1623,813,0,0
406,211,0,0,0,0,0,0,0,0,0,-1,1630,813,0,0
413,211,0,0,0,0,0,0,0,0,0,-1,1637,813,0,0
420,211,0,0,0,0,0,0,0,0,0,-1,1644,813,0,0
427,211,0,0,0,0,0,0,0,0,0,-1,1651,813,0,0
434,211,0,0,0,0,0,0,0,0,0,-1,1658,813,0,0
441,211,0,0,0,0,0,0,0,0,0,-1,1665,813,0,0
448,211,0,0,0,0,0,0,0,0,0,-1,1672,813,0,0
455,211,0,0,0,0,0,0,0,0,0,-1,1679,813,0,0
462,211,0,0,0,0,0,0,0,0,0,-1,1686,813,0,0
469,211,0,0,0,0,0,0,0,0,0,-1,1693,813,0,0
476,211,0,0,0,0,0,0,0,0,0,-1,1700,813,0,0
483,211,0,0,0,0,0,0,0,0,0,-1,1707,813,0,0
490,211,0,0,0,0,0,0,0,0,0,-1,1714,813,0,0
497,211,0,0,0,0,0,0,0,0,0,-1,1721,813,0,0
504,211,0,0,0,0,0,0,0,0,0,-1,1728,813,0,0
511,211,0,0,0,0,0,0,0,0,0,-1,1735,813,0,0
518,211,0,0,0,0,0,0,0,0,0,-1,1742,813,0,0
525,211,0,0,0,0,0,0,0,0,0,-1,1749,813,0,0
532,211,0,0,0,0,0,0,0,0,0,-1,1756,813,0,0
539,211,0,0,0,0,0,0,0,0,0,-1,1763,813,0,0
546,211,0,0,0,0,0,0,0,0,0,-1,1770,813,0,0
553,211,0,0,0,0,0,0,0,0,0,-1,1777,813,0,0
560,211,0,0,0,0,0,0,0,0,0,-1,1784,813,0,0
567,211,0,0,0,0,0,0,0,0,0,-1,1791,813,0,0
574,211,0,0,0,0,0,0,0,0,0,-1,1798,813,0,0
581,211,0,0,0,0,0,0,0,0,0,-1,1805,813,0,0
588,211,0,0,0,0,0,0,0,0,0,-1,1812,813,0,0
595,211,74.6191,2.38367,0.00662452,-0.00385005,-0.00309933,0.00747288,-0.00469841,-0.267177,0.00708769,0.0364629,1819,813,74.6191,-2.38367
602,211,74.5958,2.31433,0.00458656,-0.00178306,-0.00140116,0.00488115,-0.00207765,-0.207233,0.00412492,0.0362843,1826,813,74.5958,-2.31431
609,211,74.5869,2.40662,0.00267433,-0.000252544,-0.000126151,0.00267976,-0.000257971,-0.0429945,0.00187841,0.0375298,1833,813,74.5869,-2.40664
616,211,74.5681,2.43054,0.00140842,0.000657475,0.000622593,0.00176,0.000305898,0.514058,0.00108582,0.0303597,1840,813,74.5682,-2.43057
623,211,74.6104,2.34534,0.000971479,0.00105585,0.000912436,0.00192708,0.000100254,0.808499,0.00125264,0.0306124,1847,813,74.6103,-2.34535
630,211,74.5994,2.34711,0.000865553,0.00104696,0.00106526,0.00202537,-0.000112857,0.82787,0.0013894,0.0368279,1854,813,74.5994,-2.34711
637,211,74.4349,2.50189,0,0,0,0,0,0,0,-1,1861,813,74.4349,-2.50187
644,211,66.401,2.3595,0,0,0,0,0,0,0,-1,1868,813,66.401,-2.35952
651,211,48.5043,2.95557,0,0,0,0,0,0,0,-1,1875,813,48.5043,-2.95558
658,211,27.7909,1.52234,0,0,0,0,0,0,0,-1,1882,813,27.7909,-1.52234
665,211,42.2053,-0.745605,0,0,0,0,0,0,0,-1,1889,813,42.2054,0.745605
672,211,53.189,-1.99603,0,0,0,0,0,0,0,-1,1896,813,53.189,1.99603
679,211,56.076,-1.33636,0,0,0,0,0,0,0,-1,1903,813,56.0761,1.33634
686,211,56.1104,-0.583069,-0.00126364,-0.000270126,-0.000241412,-0.000214572,-0.00131919,-1.34461,0.000817378,0.030291,1910,813,56.1103,0.583052
693,211,56.0205,0.288147,-0.000893403,-0.000605831,-0.000514966,-0.000214954,-0.00128428,-0.921538,0.000794291,0.0147846,1917,813,56.0205,-0.288156
700,211,55.9023,1.15417,-0.00013863,-0.000362334,-0.000604935,0.000364707,-0.000865671,-0.693981,0.000729722,0.0141064,1924,813,55.9023,-1.15416
707,211,55.9161,2.0766,0.00106454,0.000251296,-0.000326571,0.00117945,0.000136391,-0.338323,0.000745008,0.0228517,1931,813,55.9161,-2.07658
714,211,55.884,2.98529,0.00283319,0.0010743,0.000188418,0.00285315,0.00105434,0.105528,0.00166585,0.0233668,1938,813,55.884,-2.98532
721,211,55.8319,3.81244,0.00499192,0.00192692,0.000819512,0.00519728,0.00172156,0.245532,0.00305709,0.0185101,1945,813,55.8319,-3.81247
728,211,55.7755,4.70355,0.00765786,0.00280307,0.00157406,0.00812354,0.00233738,0.287645,0.00482896,0.0201664,1952,813,55.7756,-4.70353
735,211,55.8466,5.64233,0.0108739,0.00367252,0.0024966,0.0116547,0.00289166,0.303131,0.00700771,0.0373972,1959,813,55.8465,-5.64234
742,211,55.9215,6.16461,0,0,0,0,0,0,0,-1,1966,813,55.9215,-6.16461
749,211,54.3651,5.98053,0,0,0,0,0,0,0,-1,1973,813,54.3651,-5.98056
756,211,53.679,6.68317,0,0,0,0,0,0,0,-1,1980,813,53.6789,-6.68316
763,211,53.2612,7.49786,0,0,0,0,0,0,0,-1,1987,813,53.2612,-7.49788
770,211,46.2148,12.9099,0,0,0,0,0,0,0,-1,1994,813,46.2148,-12.9099
777,211,0,0,0,0,0,0,0,0,0,-1,2001,813,0,0
784,211,0,0,0,0,0,0,0,0,0,-1,2008,813,0,0
791,211,0,0,0,0,0,0,0,0,0,-1,2015,813,0,0
798,211,0,0,0,0,0,0,0,0,0,-1,2022,813,0,0
805,211,0,0,0,0,0,0,0,0,0,-1,2029,813,0,0
812,211,0,0,0,0,0,0,0,0,0,-1,2036,813,0,0
-700,204,0,0,0,0,0,0,0,0,0,-1,524,820,0,0
-693,204,0,0,0,0,0,0,0,0,0,-1,531,820,0,0
-686,204,0,0,0,0,0,0,0,0,0,-1,538,820,0,0
-679,204,0,0,0,0,0,0,0,0,0,-1,545,820,0,0
-672,204,0,0,0,0,0,0,0,0,0,-1,552,820,0,0
-665,204,0,0,0,0,0,0,0,0,0,-1,559,820,0,0
-658,204,0,0,0,0,0,0,0,0,0,-1,566,820,0,0
-651,204,-40.064,5.25806,0,0,0,0,0,0,0,-1,573,820,-40.064,-5.25806
-644,204,-40.4117,4.54321,0,0,0,0,0,0,0,-1,580,820,-40.4117,-4.54323
-637,204,-40.8671,3.93817,0,0,0,0,0,0,0,-1,587,820,-40.8671,-3.93819
-630,204,-41.7101,3.04382,0,0,0,0,0,0,0,-1,594,820,-41.7101,-3.04383
-623,204,-41.8597,2.11951,0,0,0,0,0,0,0,-1,601,820,-41.8597,-2.11951
-616,204,-40.8043,5.8653,0,0,0,0,0,0,0,-1,608,820,-40.8043,-5.8653
-609,204,-40.7218,5.02155,0.00876328,0.0050426,-0.00906715,0.016159,-0.00235309,-0.684215,0.0116366,0.0393036,615,820,-40.7218,-5.02153
-602,204,-40.7952,4.19086,0.00573822,0.00312876,-0.00623322,0.0108018,-0.00193482,-0.682228,0.00792526,0.0185255,622,820,-40.7952,-4.19084
-595,204,-40.8992,3.31952,0.00378365,0.00213969,-0.00410514,0.00714829,-0.00122495,-0.686589,0.00522196,0.016487,629,820,-40.8992,-3.3195
-588,204,-40.9553,2.43903,0.00263986,0.00170225,-0.00228953,0.00450809,-0.000165982,-0.684414,0.00306222,0.0141597,636,820,-40.9552,-2.43905
-581,204,-41.0114,1.54633,0.00198917,0.00149976,-0.000650595,0.00243956,0.00104937,-0.60552,0.00141305,0.0135929,643,820,-41.0114,-1.54634
-574,204,-41.0338,0.672852,0.00168015,0.00163937,0.000778911,0.00243894,0.000880585,0.772314,0.00142613,0.0148576,650,820,-41.0338,-0.67286
-567,204,-41.0746,-0.17572,0.00165082,0.00196211,0.00204758,0.00385995,-0.000247019,0.823331,0.00265946,0.0164265,657,820,-41.0746,0.175706
-560,204,-40.9183,-1.13391,0.00172822,0.00229812,0.00329123,0.00531671,-0.00129037,0.82858,0.00404381,0.0359939,664,820,-40.9183,1.13389
-553,204,-41.2698,-2.04706,0,0,0,0,0,0,0,-1,671,820,-41.2699,2.04704
-546,204,-41.5527,-2.72137,0,0,0,0,0,0,0,-1,678,820,-41.5527,2.72139
-539,204,-41.3356,-3.56378,0,0,0,0,0,0,0,-1,685,820,-41.3357,3.56379
-532,204,-30.0565,-3.29065,0,0,0,0,0,0,0,-1,692,820,-30.0565,3.29063
-525,204,-25.7137,1.52496,0,0,0,0,0,0,0,-1,699,820,-25.7137,-1.52496
-518,204,-43.4591,0.383972,0,0,0,0,0,0,0,-1,706,820,-43.4591,-0.383942
-511,204,-57.6236,0.391418,0,0,0,0,0,0,0,-1,713,820,-57.6236,-0.391424
-504,204,-57.687,0.479614,0,0,0,0,0,0,0,-1,720,820,-57.687,-0.479593
-497,204,-57.9043,0.235962,0,0,0,0,0,0,0,-1,727,820,-57.9043,-0.23598
-490,204,-57.9221,0.133606,0,0,0,0,0,0,0,-1,734,820,-57.9221,-0.133612
-483,204,-57.7722,0.357239,0,0,0,0,0,0,0,-1,741,820,-57.7722,-0.357209
-476,204,0,0,0,0,0,0,0,0,0,-1,748,820,0,0
-469,204,0,0,0,0,0,0,0,0,0,-1,755,820,0,0
-462,204,0,0,0,0,0,0,0,0,0,-1,762,820,0,0
-455,204,0,0,0,0,0,0,0,0,0,-1,769,820,0,0
-448,204,0,0,0,0,0,0,0,0,0,-1,776,820,0,0
-441,204,0,0,0,0,0,0,0,0,0,-1,783,820,0,0
-434,204,0,0,0,0,0,0,0,0,0,-1,790,820,0,0
-427,204,0,0,0,0,0,0,0,0,0,-1,797,820,0,0
-420,204,0,0,0,0,0,0,0,0,0,-1,804,820,0,0
-413,204,0,0,0,0,0,0,0,0,0,-1,811,820,0,0
-406,204,0,0,0,0,0,0,0,0,0,-1,818,820,0,0
-399,204,0,0,0,0,0,0,0,0,0,-1,825,820,0,0
-392,204,0,0,0,0,0,0,0,0,0,-1,832,820,0,0
-385,204,0,0,0,0,0,0,0,0,0,-1,839,820,0,0
-378,204,0,0,0,0,0,0,0,0,0,-1,846,820,0,0
-371,204,0,0,0,0,0,0,0,0,0,-1,853,820,0,0
-364,204,0,0,0,0,0,0,0,0,0,-1,860,820,0,0
-357,204,0,0,0,0,0,0,0,0,0,-1,867,820,0,0
-350,204,0,0,0,0,0,0,0,0,0,-1,874,820,0,0
-343,204,0,0,0,0,0,0,0,0,0,-1,881,820,0,0
-336,204,0,0,0,0,0,0,0,0,0,-1,888,820,0,0
-329,204,0,0,0,0,0,0,0,0,0,-1,895,820,0,0
-322,204,0,0,0,0,0,0,0,0,0,-1,902,820,0,0
-315,204,0,0,0,0,0,0,0,0,0,-1,909,820,0,0
-308,204,0,0,0,0,0,0,0,0,0,-1,916,820,0,0
-301,204,0,0,0,0,0,0,0,0,0,-1,923,820,0,0
-294,204,0,0,0,0,0,0,0,0,0,-1,930,820,0,0
-287,204,0,0,0,0,0,0,0,0,0,-1,937,820,0,0
-280,204,0,0,0,0,0,0,0,0,0,-1,944,820,0,0
-273,204,0,0,0,0,0,0,0,0,0,-1,951,820,0,0
-266,204,0,0,0,0,0,0,0,0,0,-1,958,820,0,0
-259,204,0,0,0,0,0,0,0,0,0,-1,965,820,0,0
-252,204,0,0,0,0,0,0,0,0,0,-1,972,820,0,0
-245,204,0,0,0,0,0,0,0,0,0,-1,979,820,0,0
-238,204,0,0,0,0,0,0,0,0,0,-1,986,820,0,0
-231,204,0,0,0,0,0,0,0,0,0,-1,993,820,0,0
-224,204,0,0,0,0,0,0,0,0,0,-1,1000,820,0,0
-217,204,0,0,0,0,0,0,0,0,0,-1,1007,820,0,0
-210,204,0,0,0,0,0,0,0,0,0,-1,1014,820,0,0
-203,204,0,0,0,0,0,0,0,0,0,-1,1021,820,0,0
-196,204,0,0,0,0,0,0,0,0,0,-1,1028,820,0,0
-189,204,0,0,0,0,0,0,0,0,0,-1,1035,820,0,0
-182,204,0,0,0,0,0,0,0,0,0,-1,1042,820,0,0
-175,204,0,0,0,0,0,0,0,0,0,-1,1049,820,0,0
-168,204,0,0,0,0,0,0,0,0,0,-1,1056,820,0,0
-161,204,0,0,0,0,0,0,0,0,0,-1,1063,820,0,0
-154,204,0,0,0,0,0,0,0,0,0,-1,1070,820,0,0
-147,204,0,0,0,0,0,0,0,0,0,-1,1077,820,0,0
-140,204,0,0,0,0,0,0,0,0,0,-1,1084,820,0,0
-133,204,0,0,0,0,0,0,0,0,0,-1,1091,820,0,0
-126,204,0,0,0,0,0,0,0,0,0,-1,1098,820,0,0
-119,204,0,0,0,0,0,0,0,0,0,-1,1105,820,0,0
-112,204,0,0,0,0,0,0,0,0,0,-1,1112,820,0,0
-105,204,0,0,0,0,0,0,0,0,0,-1,1119,820,0,0
-98,204,0,0,0,0,0,0,0,0,0,-1,1126,820,0,0
-91,204,0,0,0,0,0,0,0,0,0,-1,1133,820,0,0
-84,204,0,0,0,0,0,0,0,0,0,-1,1140,820,0,0
-77,204,0,0,0,0,0,0,0,0,0,-1,1147,820,0,0
-70,204,0,0,0,0,0,0,0,0,0,-1,1154,820,0,0
-63,204,0,0,0,0,0,0,0,0,0,-1,1161,820,0,0
-56,204,0,0,0,0,0,0,0,0,0,-1,1168,820,0,0
-49,204,0,0,0,0,0,0,0,0,0,-1,1175,820,0,0
-42,204,0,0,0,0,0,0,0,0,0,-1,1182,820,0,0
-35,204,0,0,0,0,0,0,0,0,0,-1,1189,820,0,0
-28,204,0,0,0,0,0,0,0,0,0,-1,1196,820,0,0
-21,204,0,0,0,0,0,0,0,0,0,-1,1203,820,0,0
-14,204,0,0,0,0,0,0,0,0,0,-1,1210,820,0,0
-7,204,0,0,0,0,0,0,0,0,0,-1,1217,820,0,0
0,204,0,0,0,0,0,0,0,0,0,-1,1224,820,0,0
7,204,0,0,0,0,0,0,0,0,0,-1,1231,820,0,0
14,204,0,0,0,0,0,0,0,0,0,-1,1238,820,0,0
21,204,0,0,0,0,0,0,0,0,0,-1,1245,820,0,0
28,204,0,0,0,0,0,0,0,0,0,-1,1252,820,0,0
35,204,0,0,0,0,0,0,0,0,0,-1,1259,820,0,0
42,204,0,0,0,0,0,0,0,0,0,-1,1266,820,0,0
49,204,0,0,0,0,0,0,0,0,0,-1,1273,820,0,0
56,204,0,0,0,0,0,0,0,0,0,-1,1280,820,0,0
63,204,0,0,0,0,0,0,0,0,0,-1,1287,820,0,0
70,204,0,0,0,0,0,0,0,0,0,-1,1294,820,0,0
77,204,0,0,0,0,0,0,0,0,0,-1,1301,820,0,0
84,204,0,0,0,0,0,0,0,0,0,-1,1308,820,0,0
91,204,0,0,0,0,0,0,0,0,0,-1,1315,820,0,0
98,204,0,0,0,0,0,0,0,0,0,-1,1322,820,0,0
105,204,0,0,0,0,0,0,0,0,0,-1,1329,820,0,0
112,204,0,0,0,0,0,0,0,0,0,-1,1336,820,0,0
119,204,0,0,0,0,0,0,0,0,0,-1,1343,820,0,0
126,204,0,0,0,0,0,0,0,0,0,-1,1350,820,0,0
133,204,0,0,0,0,0,0,0,0,0,-1,1357,820,0,0
140,204,0,0,0,0,0,0,0,0,0,-1,1364,820,0,0
147,204,0,0,0,0,0,0,0,0,0,-1,1371,820,0,0
154,204,0,0,0,0,0,0,0,0,0,-1,1378,820,0,0
161,204,0,0,0,0,0,0,0,0,0,-1,1385,820,0,0
168,204,0,0,0,0,0,0,0,0,0,-1,1392,820,0,0
175,204,0,0,0,0,0,0,0,0,0,-1,1399,820,0,0
182,204,0,0,0,0,0,0,0,0,0,-1,1406,820,0,0
189,204,0,0,0,0,0,0,0,0,0,-1,1413,820,0,0
196,204,0,0,0,0,0,0,0,0,0,-1,1420,820,0,0
203,204,0,0,0,0,0,0,0,0,0,-1,1427,820,0,0
210,204,0,0,0,0,0,0,0,0,0,-1,1434,820,0,0
217,204,0,0,0,0,0,0,0,0,0,-1,1441,820,0,0
224,204,0,0,0,0,0,0,0,0,0,-1,1448,820,0,0
231,204,0,0,0,0,0,0,0,0,0,-1,1455,820,0,0
238,204,0,0,0,0,0,0,0,0,0,-1,1462,820,0,0
245,204,0,0,0,0,0,0,0,0,0,-1,1469,820,0,0
252,204,0,0,0,0,0,0,0,0,0,-1,1476,820,0,0
259,204,0,0,0,0,0,0,0,0,0,-1,1483,820,0,0
266,204,0,0,0,0,0,0,0,0,0,-1,1490,820,0,0
273,204,0,0,0,0,0,0,0,0,0,-1,1497,820,0,0
280,204,0,0,0,0,0,0,0,0,0,-1,1504,820,0,0
287,204,0,0,0,0,0,0,0,0,0,-1,1511,820,0,0
294,204,0,0,0,0,0,0,0,0,0,-1,1518,820,0,0
301,204,0,0,0,0,0,0,0,0,0,-1,1525,820,0,0
308,204,0,0,0,0,0,0,0,0,0,-1,1532,820,0,0
315,204,0,0,0,0,0,0,0,0,0,-1,1539,820,0,0
322,204,0,0,0,0,0,0,0,0,0,-1,1546,820,0,0
329,204,0,0,0,0,0,0,0,0,0,-1,1553,820,0,0
336,204,0,0,0,0,0,0,0,0,0,-1,1560,820,0,0
343,204,0,0,0,0,0,0,0,0,0,-1,1567,820,0,0
350,204,0,0,0,0,0,0,0,0,0,-1,1574,820,0,0
357,204,0,0,0,0,0,0,0,0,0,-1,1581,820,0,0
364,204,0,0,0,0,0,0,0,0,0,-1,1588,820,0,0
371,204,0,0,0,0,0,0,0,0,0,-1,1595,820,0,0
378,204,0,0,0,0,0,0,0,0,0,-1,1602,820,0,0
385,204,0,0,0,0,0,0,0,0,0,-1,1609,820,0,0
392,204,0,0,0,0,0,0,0,0,0,-1,1616,820,0,0
399,204,0,0,0,0,0,0,0,0,0,-1,1623,820,0,0
406,204,0,0,0,0,0,0,0,0,0,-1,1630,820,0,0
413,204,0,0,0,0,0,0,0,0,0,-1,1637,820,0,0
420,204,0,0,0,0,0,0,0,0,0,-1,1644,820,0,0
427,204,0,0,0,0,0,0,0,0,0,-1,1651,820,0,0
434,204,0,0,0,0,0,0,0,0,0,-1,1658,820,0,0
441,204,0,0,0,0,0,0,0,0,0,-1,1665,820,0,0
448,204,0,0,0,0,0,0,0,0,0,-1,1672,820,0,0
455,204,0,0,0,0,0,0,0,0,0,-1,1679,820,0,0
462,204,0,0,0,0,0,0,0,0,0,-1,1686,820,0,0
469,204,0,0,0,0,0,0,0,0,0,-1,1693,820,0,0
476,204,0,0,0,0,0,0,0,0,0,-1,1700,820,0,0
483,204,0,0,0,0,0,0,0,0,0,-1,1707,820,0,0
490,204,0,0,0,0,0,0,0,0,0,-1,1714,820,0,0
497,204,0,0,0,0,0,0,0,0,0,-1,1721,820,0,0
504,204,0,0,0,0,0,0,0,0,0,-1,1728,820,0,0
511,204,0,0,0,0,0,0,0,0,0,-1,1735,820,0,0
518,204,0,0,0,0,0,0,0,0,0,-1,1742,820,0,0
525,204,0,0,0,0,0,0,0,0,0,-1,1749,820,0,0
532,204,0,0,0,0,0,0,0,0,0,-1,1756,820,0,0
539,204,0,0,0,0,0,0,0,0,0,-1,1763,820,0,0
546,204,0,0,0,0,0,0,0,0,0,-1,1770,820,0,0
553,204,0,0,0,0,0,0,0,0,0,-1,1777,820,0,0
560,204,0,0,0,0,0,0,0,0,0,-1,1784,820,0,0
567,204,0,0,0,0,0,0,0,0,0,-1,1791,820,0,0
574,204,0,0,0,0,0,0,0,0,0,-1,1798,820,0,0
581,204,0,0,0,0,0,0,0,0,0,-1,1805,820,0,0
588,204,0,0,0,0,0,0,0,0,0,-1,1812,820,0,0
595,204,0,0,0,0,0,0,0,0,0,-1,1819,820,0,0
602,204,74.6412,2.41394,0.004917,-0.00277813,-0.00249911,0.00565739,-0.00351852,-0.288023,0.00534547,0.0389276,1826,820,74.6413,-2.41393
609,204,74.5797,2.4328,0.00323414,-0.00099296,-0.000961063,0.00344238,-0.00120121,-0.213384,0.00278312,0.0407549,1833,820,74.5797,-2.43281
616,204,74.5939,2.34033,0.00179346,0.000358851,0.000235367,0.00183109,0.000321223,0.158528,0.00112899,0.0357628,1840,820,74.5939,-2.34035
623,204,74.5847,2.31866,0.00108232,0.0011768,0.000956797,0.00208752,0.000171598,0.810063,0.00133816,0.0273202,1847,820,74.5847,-2.31865
630,204,74.5641,2.3811,0.000836257,0.00139512,0.00132225,0.00246714,-0.000235765,0.889531,0.00172872,0.0283959,1854,820,74.5641,-2.38108
637,204,74.574,2.38422,0.000341195,0.00118189,0.000936024,0.00178762,-0.000264534,0.996441,0.001289,0.0380215,1861,820,74.574,-2.38421
644,204,74.5807,2.36652,0,0,0,0,0,0,0,-1,1868,820,74.5806,-2.36649
651,204,53.7611,2.32251,0,0,0,0,0,0,0,-1,1875,820,53.7611,-2.32249
658,204,34.9631,1.64844,0,0,0,0,0,0,0,-1,1882,820,34.9631,-1.64842
665,204,21.8292,1.51099,0,0,0,0,0,0,0,-1,1889,820,21.8292,-1.51099
672,204,57.1526,-2.04083,0,0,0,0,0,0,0,-1,1896,820,57.1526,2.04085
679,204,57.1384,-1.29199,0,0,0,0,0,0,0,-1,1903,820,57.1384,1.29198
686,204,57.1086,-0.513184,-0.00148609,-0.000273898,-0.000142967,-0.000257265,-0.00150272,-1.45497,0.000928024,0.0275386,1910,820,57.1086,0.513182
693,204,56.7838,0.347656,-0.00120692,-0.000783362,-0.000588154,-0.00037002,-0.00162026,-0.958208,0.000980393,0.0280842,1917,820,56.7838,-0.347646
700,204,56.8217,1.2431,-0.000635353,-0.000731536,-0.000853778,0.000171687,-0.00153858,-0.757264,0.00108747,0.0187961,1924,820,56.8216,-1.24309
707,204,56.7804,2.1546,0.000427109,-0.000207696,-0.000676369,0.000856848,-0.000637434,-0.566015,0.000865819,0.0170459,1931,820,56.7804,-2.15459
714,204,56.7504,3.09277,0.00217817,0.000665958,-0.000213592,0.00220776,0.000636368,-0.137658,0.0013122,0.0257053,1938,820,56.7504,-3.09276
721,204,56.7051,3.90015,0.004301,0.00159656,0.000366802,0.00434987,0.00154769,0.132442,0.00254597,0.0247143,1945,820,56.7051,-3.90014
728,204,56.6307,4.73096,0.00684138,0.00254166,0.00102187,0.00707188,0.00231116,0.221854,0.0041638,0.0146627,1952,820,56.6307,-4.73095
735,204,56.526,5.61963,0.00980806,0.00346825,0.00173828,0.0102534,0.00302292,0.250795,0.00608367,0.0170497,1959,820,56.526,-5.61964
742,204,56.6323,6.3551,0.0132811,0.00440347,0.00243803,0.0139065,0.00377799,0.251135,0.00830331,0.0325378,1966,820,56.6323,-6.35508
749,204,56.5917,7.461,0,0,0,0,0,0,0,-1,1973,820,56.5917,-7.46098
756,204,54.8983,7.14246,0,0,0,0,0,0,0,-1,1980,820,54.8984,-7.14247
763,204,54.1107,7.71759,0,0,0,0,0,0,0,-1,1987,820,54.1107,-7.71761
770,204,53.3718,8.26947,0,0,0,0,0,0,0,-1,1994,820,53.3718,-8.26946
777,204,0,0,0,0,0,0,0,0,0,-1,2001,820,0,0
784,204,0,0,0,0,0,0,0,0,0,-1,2008,820,0,0
791,204,0,0,0,0,0,0,0,0,0,-1,2015,820,0,0
798,204,0,0,0,0,0,0,0,0,0,-1,2022,820,0,0
805,204,0,0,0,0,0,0,0,0,0,-1,2029,820,0,0
812,204,0,0,0,0,0,0,0,0,0,-1,2036,820,0,0
-700,197,0,0,0,0,0,0,0,0,0,-1,524,827,0,0
-693,197,0,0,0,0,0,0,0,0,0,-1,531,827,0,0
-686,197,0,0,0,0,0,0,0,0,0,-1,538,827,0,0
-679,197,0,0,0,0,0,0,0,0,0,-1,545,827,0,0
-672,197,0,0,0,0,0,0,0,0,0,-1,552,827,0,0
-665,197,0,0,0,0,0,0,0,0,0,-1,559,827,0,0
-658,197,-39.9774,5.66638,0,0,0,0,0,0,0,-1,566,827,-39.9774,-5.66637
-651,197,-39.9665,5.23578,0,0,0,0,0,0,0,-1,573,827,-39.9665,-5.23575
-644,197,-38.9225,4.75665,0,0,0,0,0,0,0,-1,580,827,-38.9225,-4.75665
-637,197,-45.2572,7.41498,0,0,0,0,0,0,0,-1,587,827,-45.2572,-7.415
-630,197,-40.4908,2.45648,0,0,0,0,0,0,0,-1,594,827,-40.4908,-2.45649
-623,197,-41.5259,6.49707,0,0,0,0,0,0,0,-1,601,827,-41.5259,-6.49705
-616,197,-41.7128,5.97937,0,0,0,0,0,0,0,-1,608,827,-41.7129,-5.97937
-609,197,-41.6236,5.07269,0.00921375,0.0078495,-0.0080156,0.0165762,0.00048705,-0.742951,0.0108921,0.0386231,615,827,-41.6236,-5.0727
-602,197,-41.6691,4.19006,0.00584407,0.00533075,-0.00524353,0.0108372,0.000337605,-0.760944,0.00711495,0.0208702,622,827,-41.6691,-4.19008
-595,197,-41.7967,3.35944,0.00359263,0.00364175,-0.00307998,0.00669727,0.000537108,-0.789385,0.00429701,0.0197381,629,827,-41.7967,-3.35945
-588,197,-41.8349,2.47302,0.00222299,0.00251772,-0.00127573,0.00365457,0.00108614,-0.842901,0.00216705,0.021666,636,827,-41.8349,-2.47305
-581,197,-41.8962,1.60016,0.00148149,0.00174474,0.000311222,0.00195103,0.00127521,0.985455,0.00114401,0.0132781,643,827,-41.8962,-1.60014
-574,197,-41.9219,0.728088,0.00130789,0.00143194,0.0016289,0.003,-0.000260167,0.804428,0.00209212,0.0147532,650,827,-41.922,-0.728085
-567,197,-41.8572,-0.110474,0.00160383,0.00135082,0.00280639,0.00428656,-0.00133191,0.762875,0.00339004,0.0213613,657,827,-41.8572,0.110466
-560,197,-41.7637,-1.10461,0,0,0,0,0,0,0,-1,664,827,-41.7637,1.10463
-553,197,-33.1771,-1.4881,0,0,0,0,0,0,0,-1,671,827,-33.1771,1.4881
-546,197,-42.5589,-2.46393,0,0,0,0,0,0,0,-1,678,827,-42.5589,2.46394
-539,197,-32.8993,-2.61737,0,0,0,0,0,0,0,-1,685,827,-32.8993,2.61737
-532,197,-16.0519,0.0410156,0,0,0,0,0,0,0,-1,692,827,-16.0519,-0.0410415
-525,197,-35.3785,2.11829,0,0,0,0,0,0,0,-1,699,827,-35.3785,-2.11826
-518,197,-57.6698,0.308533,0,0,0,0,0,0,0,-1,706,827,-57.6698,-0.308561
-511,197,-57.7189,0.399536,0,0,0,0,0,0,0,-1,713,827,-57.7189,-0.399559
-504,197,-57.7734,0.516968,0,0,0,0,0,0,0,-1,720,827,-57.7734,-0.516961
-497,197,-57.9674,0.235718,0,0,0,0,0,0,0,-1,727,827,-57.9674,-0.235696
-490,197,-57.9524,0.0866089,0,0,0,0,0,0,0,-1,734,827,-57.9524,-0.0865888
-483,197,-57.83,0.0509644,0,0,0,0,0,0,0,-1,741,827,-57.8299,-0.0509557
-476,197,0,0,0,0,0,0,0,0,0,-1,748,827,0,0
-469,197,0,0,0,0,0,0,0,0,0,-1,755,827,0,0
-462,197,0,0,0,0,0,0,0,0,0,-1,762,827,0,0
-455,197,0,0,0,0,0,0,0,0,0,-1,769,827,0,0
-448,197,0,0,0,0,0,0,0,0,0,-1,776,827,0,0
-441,197,0,0,0,0,0,0,0,0,0,-1,783,827,0,0
-434,197,0,0,0,0,0,0,0,0,0,-1,790,827,0,0
-427,197,0,0,0,0,0,0,0,0,0,-1,797,827,0,0
-420,197,0,0,0,0,0,0,0,0,0,-1,804,827,0,0
-413,197,0,0,0,0,0,0,0,0,0,-1,811,827,0,0
-406,197,0,0,0,0,0,0,0,0,0,-1,818,827,0,0
-399,197,0,0,0,0,0,0,0,0,0,-1,825,827,0,0
-392,197,0,0,0,0,0,0,0,0,0,-1,832,827,0,0
-385,197,0,0,0,0,0,0,0,0,0,-1,839,827,0,0
-378,197,0,0,0,0,0,0,0,0,0,-1,846,827,0,0
-371,197,0,0,0,0,0,0,0,0,0,-1,853,827,0,0
-364,197,0,0,0,0,0,0,0,0,0,-1,860,827,0,0
-357,197,0,0,0,0,0,0,0,0,0,-1,867,827,0,0
-350,197,0,0,0,0,0,0,0,0,0,-1,874,827,0,0
-343,197,0,0,0,0,0,0,0,0,0,-1,881,827,0,0
-336,197,0,0,0,0,0,0,0,0,0,-1,888,827,0,0
-329,197,0,0,0,0,0,0,0,0,0,-1,895,827,0,0
-322,197,0,0,0,0,0,0,0,0,0,-1,902,827,0,0
-315,197,0,0,0,0,0,0,0,0,0,-1,909,827,0,0
-308,197,0,0,0,0,0,0,0,0,0,-1,916,827,0,0
-301,197,0,0,0,0,0,0,0,0,0,-1,923,827,0,0
-294,197,0,0,0,0,0,0,0,0,0,-1,930,827,0,0
-287,197,0,0,0,0,0,0,0,0,0,-1,937,827,0,0
-280,197,0,0,0,0,0,0,0,0,0,-1,944,827,0,0
-273,197,0,0,0,0,0,0,0,0,0,-1,951,827,0,0
-266,197,0,0,0,0,0,0,0,0,0,-1,958,827,0,0
-259,197,0,0,0,0,0,0,0,0,0,-1,965,827,0,0
-252,197,0,0,0,0,0,0,0,0,0,-1,972,827,0,0
-245,197,0,0,0,0,0,0,0,0,0,-1,979,827,0,0
-238,197,0,0,0,0,0,0,0,0,0,-1,986,827,0,0
-231,197,0,0,0,0,0,0,0,0,0,-1,993,827,0,0
-224,197,0,0,0,0,0,0,0,0,0,-1,1000,827,0,0
-217,197,0,0,0,0,0,0,0,0,0,-1,1007,827,0,0
-210,197,0,0,0,0,0,0,0,0,0,-1,1014,827,0,0
-203,197,0,0,0,0,0,0,0,0,0,-1,1021,827,0,0
-196,197,0,0,0,0,0,0,0,0,0,-1,1028,827,0,0
-189,197,0,0,0,0,0,0,0,0,0,-1,1035,827,0,0
-182,197,0,0,0,0,0,0,0,0,0,-1,1042,827,0,0
-175,197,0,0,0,0,0,0,0,0,0,-1,1049,827,0,0
-168,197,0,0,0,0,0,0,0,0,0,-1,1056,827,0,0
-161,197,0,0,0,0,0,0,0,0,0,-1,1063,827,0,0
-154,197,0,0,0,0,0,0,0,0,0,-1,1070,827,0,0
-147,197,0,0,0,0,0,0,0,0,0,-1,1077,827,0,0
-140,197,0,0,0,0,0,0,0,0,0,-1,1084,827,0,0
-133,197,0,0,0,0,0,0,0,0,0,-1,1091,827,0,0
-126,197,0,0,0,0,0,0,0,0,0,-1,1098,827,0,0
-119,197,0,0,0,0,0,0,0,0,0,-1,1105,827,0,0
-112,197,0,0,0,0,0,0,0,0,0,-1,1112,827,0,0
-105,197,0,0,0,0,0,0,0,0,0,-1,1119,827,0,0
-98,197,0,0,0,0,0,0,0,0,0,-1,1126,827,0,0
-91,197,0,0,0,0,0,0,0,0,0,-1,1133,827,0,0
-84,197,0,0,0,0,0,0,0,0,0,-1,1140,827,0,0
-77,197,0,0,0,0,0,0,0,0,0,-1,1147,827,0,0
-70,197,0,0,0,0,0,0,0,0,0,-1,1154,827,0,0
-63,197,0,0,0,0,0,0,0,0,0,-1,1161,827,0,0
-56,197,0,0,0,0,0,0,0,0,0,-1,1168,827,0,0
-49,197,0,0,0,0,0,0,0,0,0,-1,1175,827,0,0
-42,197,0,0,0,0,0,0,0,0,0,-1,1182,827,0,0
-35,197,0,0,0,0,0,0,0,0,0,-1,1189,827,0,0
-28,197,0,0,0,0,0,0,0,0,0,-1,1196,827,0,0
-21,197,0,0,0,0,0,0,0,0,0,-1,1203,827,0,0
-14,197,0,0,0,0,0,0,0,0,0,-1,1210,827,0,0
-7,197,0,0,0,0,0,0,0,0,0,-1,1217,827,0,0
0,197,0,0,0,0,0,0,0,0,0,-1,1224,827,0,0
7,197,0,0,0,0,0,0,0,0,0,-1,1231,827,0,0
14,197,0,0,0,0,0,0,0,0,0,-1,1238,827,0,0
21,197,0,0,0,0,0,0,0,0,0,-1,1245,827,0,0
28,197,0,0,0,0,0,0,0,0,0,-1,1252,827,0,0
35,197,0,0,0,0,0,0,0,0,0,-1,1259,827,0,0
42,197,0,0,0,0,0,0,0,0,0,-1,1266,827,0,0
49,197,0,0,0,0,0,0,0,0,0,-1,1273,827,0,0
56,197,0,0,0,0,0,0,0,0,0,-1,1280,827,0,0
63,197,0,0,0,0,0,0,0,0,0,-1,1287,827,0,0
70,197,0,0,0,0,0,0,0,0,0,-1,1294,827,0,0
77,197,0,0,0,0,0,0,0,0,0,-1,1301,827,0,0
84,197,0,0,0,0,0,0,0,0,0,-1,1308,827,0,0
91,197,0,0,0,0,0,0,0,0,0,-1,1315,827,0,0
98,197,0,0,0,0,0,0,0,0,0,-1,1322,827,0,0
105,197,0,0,0,0,0,0,0,0,0,-1,1329,827,0,0
112,197,0,0,0,0,0,0,0,0,0,-1,1336,827,0,0
119,197,0,0,0,0,0,0,0,0,0,-1,1343,827,0,0
126,197,0,0,0,0,0,0,0,0,0,-1,1350,827,0,0
133,197,0,0,0,0,0,0,0,0,0,-1,1357,827,0,0
140,197,0,0,0,0,0,0,0,0,0,-1,1364,827,0,0
147,197,0,0,0,0,0,0,0,0,0,-1,1371,827,0,0
154,197,0,0,0,0,0,0,0,0,0,-1,1378,827,0,0
161,197,0,0,0,0,0,0,0,0,0,-1,1385,827,0,0
168,197,0,0,0,0,0,0,0,0,0,-1,1392,827,0,0
175,197,0,0,0,0,0,0,0,0,0,-1,1399,827,0,0
182,197,0,0,0,0,0,0,0,0,0,-1,1406,827,0,0
189,197,0,0,0,0,0,0,0,0,0,-1,1413,827,0,0
196,197,0,0,0,0,0,0,0,0,0,-1,1420,827,0,0
203,197,0,0,0,0,0,0,0,0,0,-1,1427,827,0,0
210,197,0,0,0,0,0,0,0,0,0,-1,1434,827,0,0
217,197,0,0,0,0,0,0,0,0,0,-1,1441,827,0,0
224,197,0,0,0,0,0,0,0,0,0,-1,1448,827,0,0
231,197,0,0,0,0,0,0,0,0,0,-1,1455,827,0,0
238,197,0,0,0,0,0,0,0,0,0,-1,1462,827,0,0
245,197,0,0,0,0,0,0,0,0,0,-1,1469,827,0,0
252,197,0,0,0,0,0,0,0,0,0,-1,1476,827,0,0
259,197,0,0,0,0,0,0,0,0,0,-1,1483,827,0,0
266,197,0,0,0,0,0,0,0,0,0,-1,1490,827,0,0
273,197,0,0,0,0,0,0,0,0,0,-1,1497,827,0,0
280,197,0,0,0,0,0,0,0,0,0,-1,1504,827,0,0
287,197,0,0,0,0,0,0,0,0,0,-1,1511,827,0,0
294,197,0,0,0,0,0,0,0,0,0,-1,1518,827,0,0
301,197,0,0,0,0,0,0,0,0,0,-1,1525,827,0,0
308,197,0,0,0,0,0,0,0,0,0,-1,1532,827,0,0
315,197,0,0,0,0,0,0,0,0,0,-1,1539,827,0,0
322,197,0,0,0,0,0,0,0,0,0,-1,1546,827,0,0
329,197,0,0,0,0,0,0,0,0,0,-1,1553,827,0,0
336,197,0,0,0,0,0,0,0,0,0,-1,1560,827,0,0
343,197,0,0,0,0,0,0,0,0,0,-1,1567,827,0,0
350,197,0,0,0,0,0,0,0,0,0,-1,1574,827,0,0
357,197,0,0,0,0,0,0,0,0,0,-1,1581,827,0,0
364,197,0,0,0,0,0,0,0,0,0,-1,1588,827,0,0
371,197,0,0,0,0,0,0,0,0,0,-1,1595,827,0,0
378,197,0,0,0,0,0,0,0,0,0,-1,1602,827,0,0
385,197,0,0,0,0,0,0,0,0,0,-1,1609,827,0,0
392,197,0,0,0,0,0,0,0,0,0,-1,1616,827,0,0
399,197,0,0,0,0,0,0,0,0,0,-1,1623,827,0,0
406,197,0,0,0,0,0,0,0,0,0,-1,1630,827,0,0
413,197,0,0,0,0,0,0,0,0,0,-1,1637,827,0,0
420,197,0,0,0,0,0,0,0,0,0,-1,1644,827,0,0
427,197,0,0,0,0,0,0,0,0,0,-1,1651,827,0,0
434,197,0,0,0,0,0,0,0,0,0,-1,1658,827,0,0
441,197,0,0,0,0,0,0,0,0,0,-1,1665,827,0,0
448,197,0,0,0,0,0,0,0,0,0,-1,1672,827,0,0
455,197,0,0,0,0,0,0,0,0,0,-1,1679,827,0,0
462,197,0,0,0,0,0,0,0,0,0,-1,1686,827,0,0
469,197,0,0,0,0,0,0,0,0,0,-1,1693,827,0,0
476,197,0,0,0,0,0,0,0,0,0,-1,1700,827,0,0
483,197,0,0,0,0,0,0,0,0,0,-1,1707,827,0,0
490,197,0,0,0,0,0,0,0,0,0,-1,1714,827,0,0
497,197,0,0,0,0,0,0,0,0,0,-1,1721,827,0,0
504,197,0,0,0,0,0,0,0,0,0,-1,1728,827,0,0
511,197,0,0,0,0,0,0,0,0,0,-1,1735,827,0,0
518,197,0,0,0,0,0,0,0,0,0,-1,1742,827,0,0
525,197,0,0,0,0,0,0,0,0,0,-1,1749,827,0,0
532,197,0,0,0,0,0,0,0,0,0,-1,1756,827,0,0
539,197,0,0,0,0,0,0,0,0,0,-1,1763,827,0,0
546,197,0,0,0,0,0,0,0,0,0,-1,1770,827,0,0
553,197,0,0,0,0,0,0,0,0,0,-1,1777,827,0,0
560,197,0,0,0,0,0,0,0,0,0,-1,1784,827,0,0
567,197,0,0,0,0,0,0,0,0,0,-1,1791,827,0,0
574,197,0,0,0,0,0,0,0,0,0,-1,1798,827,0,0
581,197,0,0,0,0,0,0,0,0,0,-1,1805,827,0,0
588,197,0,0,0,0,0,0,0,0,0,-1,1812,827,0,0
595,197,0,0,0,0,0,0,0,0,0,-1,1819,827,0,0
602,197,74.4816,2.54218,0.0051952,-0.00391648,-0.00370642,0.00651245,-0.00523373,-0.341475,0.00679504,0.0406579,1826,827,74.4816,-2.54218
609,197,74.5339,2.33435,0.00364075,-0.00199447,-0.0020577,0.00431213,-0.00266585,-0.315387,0.00406594,0.0407407,1833,827,74.5339,-2.33436
616,197,74.6516,2.17828,0.00211631,-0.000298604,-0.0005539,0.0022373,-0.000419589,-0.215046,0.00164928,0.0376354,1840,827,74.6516,-2.1783
623,197,74.5991,2.17255,0.00109765,0.000958306,0.000620375,0.00165225,0.0004037,0.729481,0.000994628,0.0332336,1847,827,74.5992,-2.17255
630,197,74.6805,2.19501,0.000559637,0.00154722,0.00136064,0.0025009,-0.000394041,0.959463,0.00181294,0.0312606,1854,827,74.6806,-2.195
637,197,74.6506,2.30609,-2.26516e-05,0.00134387,0.00106647,0.00192718,-0.000605959,1.07029,0.00152738,0.0295688,1861,827,74.6506,-2.30606
644,197,74.6077,2.36987,0,0,0,0,0,0,0,-1,1868,827,74.6077,-2.36988
651,197,73.8147,2.2644,0,0,0,0,0,0,0,-1,1875,827,73.8147,-2.26442
658,197,40.4694,3.05927,0,0,0,0,0,0,0,-1,1882,827,40.4694,-3.05926
665,197,14.0618,1.80304,0,0,0,0,0,0,0,-1,1889,827,14.0617,-1.80303
672,197,57.7158,-2.75641,0,0,0,0,0,0,0,-1,1896,827,57.7158,2.75642
679,197,57.8445,-1.46729,0,0,0,0,0,0,0,-1,1903,827,57.8445,1.46728
686,197,57.9701,-0.338318,0,0,0,0,0,0,0,-1,1910,827,57.9701,0.338333
693,197,57.7198,0.354309,0,0,0,0,0,0,0,-1,1917,827,57.7199,-0.354283
700,197,57.6816,1.28461,-0.00135442,-0.00104889,-0.000933162,-0.000256071,-0.00214724,-0.866533,0.00135423,0.0326568,1924,827,57.6817,-1.28459
707,197,57.6764,2.21143,-0.00050108,-0.000656375,-0.000885068,0.000309739,-0.0014672,-0.741645,0.00109606,0.0107673,1931,827,57.6764,-2.21144
714,197,57.6177,3.04834,0.00130435,0.000229059,-0.000537471,0.00152693,6.48206e-06,-0.392618,0.0010158,0.0133113,1938,827,57.6177,-3.04835
721,197,57.5828,3.89807,0.00357389,0.00124907,-7.34553e-05,0.00357621,0.00124675,-0.0315542,0.00209603,0.01342,1945,827,57.5827,-3.89805
728,197,57.5088,4.77521,0.00626951,0.00228074,0.000429969,0.00631534,0.00223492,0.10617,0.00369769,0.010986,1952,827,57.5088,-4.77521
735,197,57.412,5.6582,0.0093766,0.00327916,0.000911318,0.00950989,0.00314587,0.145232,0.00559435,0.0119077,1959,827,57.4119,-5.65822
742,197,57.3816,6.52582,0.0130076,0.00425149,0.00127546,0.0131896,0.00406948,0.141743,0.00779887,0.0229789,1966,827,57.3816,-6.52582
749,197,57.4543,7.56744,0.0176198,0.00515029,0.00176209,0.017864,0.00490607,0.13772,0.0106573,0.0475608,1973,827,57.4543,-7.56744
756,197,57.4969,8.60522,0,0,0,0,0,0,0,-1,1980,827,57.497,-8.60523
763,197,54.9149,7.823,0,0,0,0,0,0,0,-1,1987,827,54.9149,-7.82302
770,197,54.2329,8.28735,0,0,0,0,0,0,0,-1,1994,827,54.233,-8.28735
777,197,0,0,0,0,0,0,0,0,0,-1,2001,827,0,0
784,197,0,0,0,0,0,0,0,0,0,-1,2008,827,0,0
791,197,0,0,0,0,0,0,0,0,0,-1,2015,827,0,0
798,197,0,0,0,0,0,0,0,0,0,-1,2022,827,0,0
805,197,0,0,0,0,0,0,0,0,0,-1,2029,827,0,0
812,197,0,0,0,0,0,0,0,0,0,-1,2036,827,0,0
-700,190,0,0,0,0,0,0,0,0,0,-1,524,834,0,0
-693,190,0,0,0,0,0,0,0,0,0,-1,531,834,0,0
-686,190,0,0,0,0,0,0,0,0,0,-1,538,834,0,0
-679,190,0,0,0,0,0,0,0,0,0,-1,545,834,0,0
-672,190,0,0,0,0,0,0,0,0,0,-1,552,834,0,0
-665,190,0,0,0,0,0,0,0,0,0,-1,559,834,0,0
-658,190,-41.9736,5.50092,0,0,0,0,0,0,0,-1,566,834,-41.9736,-5.50089
-651,190,-40.1895,4.99677,0,0,0,0,0,0,0,-1,573,834,-40.1894,-4.99677
-644,190,-43.4772,11.1134,0,0,0,0,0,0,0,-1,580,834,-43.4771,-11.1134
-637,190,-43.1797,9.53918,0,0,0,0,0,0,0,-1,587,834,-43.1797,-9.53917
-630,190,-44.6104,8.45123,0,0,0,0,0,0,0,-1,594,834,-44.6103,-8.45125
-623,190,-43.3047,6.46576,0,0,0,0,0,0,0,-1,601,834,-43.3047,-6.46578
-616,190,-42.6035,5.92212,0,0,0,0,0,0,0,-1,608,834,-42.6034,-5.92213
-609,190,-42.5197,5.0946,0.009962,0.00905099,-0.00664291,0.016165,0.00284799,-0.751166,0.00996395,0.0292851,615,834,-42.5197,-5.09459
-602,190,-42.5718,4.24933,0.00597499,0.00623483,-0.00394688,0.0100539,0.0021559,-0.801851,0.00611207,0.0187444,622,834,-42.5718,-4.24936
-595,190,-42.6752,3.36829,0.00312353,0.00415036,-0.00181346,0.00552169,0.0017522,-0.923345,0.00325809,0.0205178,629,834,-42.6751,-3.36827
-588,190,-42.7255,2.50641,0.00121244,0.00259855,-9.74104e-05,0.00260536,0.00120563,-1.50098,0.0015056,0.0218223,636,834,-42.7255,-2.5064
-581,190,-42.758,1.65356,5.34146e-05,0.00147248,0.00132493,0.0022659,-0.000740006,1.03123,0.00180846,0.0160724,643,834,-42.758,-1.65359
-574,190,-42.7885,0.796509,-0.000257799,0.000866135,0.0023715,0.00274134,-0.00213301,0.901736,0.0028215,0.0147643,650,834,-42.7885,-0.796479
-567,190,-42.6575,-0.212585,7.00608e-05,0.000498134,0.00324725,0.00353839,-0.0029702,0.818307,0.00376251,0.0331684,657,834,-42.6575,0.212594
-560,190,-42.4277,-1.24908,0,0,0,0,0,0,0,-1,664,834,-42.4277,1.2491
-553,190,-33.9625,-1.6355,0,0,0,0,0,0,0,-1,671,834,-33.9625,1.63552
-546,190,-33.7621,-2.04889,0,0,0,0,0,0,0,-1,678,834,-33.7621,2.04886
-539,190,-16.4624,-0.542542,0,0,0,0,0,0,0,-1,685,834,-16.4624,0.542527
-532,190,-21.6292,2.06122,0,0,0,0,0,0,0,-1,692,834,-21.6292,-2.06123
-525,190,-38.9377,1.03369,0,0,0,0,0,0,0,-1,699,834,-38.9377,-1.0337
-518,190,-57.8617,0.169617,0,0,0,0,0,0,0,-1,706,834,-57.8617,-0.169599
-511,190,-57.715,0.427124,0,0,0,0,0,0,0,-1,713,834,-57.715,-0.427103
-504,190,-57.7784,0.763123,0,0,0,0,0,0,0,-1,720,834,-57.7784,-0.763122
-497,190,-57.8939,0.691406,0,0,0,0,0,0,0,-1,727,834,-57.894,-0.691404
-490,190,-57.7988,0.270142,0,0,0,0,0,0,0,-1,734,834,-57.7988,-0.270172
-483,190,0,0,0,0,0,0,0,0,0,-1,741,834,0,0
-476,190,0,0,0,0,0,0,0,0,0,-1,748,834,0,0
-469,190,0,0,0,0,0,0,0,0,0,-1,755,834,0,0
-462,190,0,0,0,0,0,0,0,0,0,-1,762,834,0,0
-455,190,0,0,0,0,0,0,0,0,0,-1,769,834,0,0
-448,190,0,0,0,0,0,0,0,0,0,-1,776,834,0,0
-441,190,0,0,0,0,0,0,0,0,0,-1,783,834,0,0
-434,190,0,0,0,0,0,0,0,0,0,-1,790,834,0,0
-427,190,0,0,0,0,0,0,0,0,0,-1,797,834,0,0
-420,190,0,0,0,0,0,0,0,0,0,-1,804,834,0,0
-413,190,0,0,0,0,0,0,0,0,0,-1,811,834,0,0
-406,190,0,0,0,0,0,0,0,0,0,-1,818,834,0,0
-399,190,0,0,0,0,0,0,0,0,0,-1,825,834,0,0
-392,190,0,0,0,0,0,0,0,0,0,-1,832,834,0,0
-385,190,0,0,0,0,0,0,0,0,0,-1,839,834,0,0
-378,190,0,0,0,0,0,0,0,0,0,-1,846,834,0,0
-371,190,0,0,0,0,0,0,0,0,0,-1,853,834,0,0
-364,190,0,0,0,0,0,0,0,0,0,-1,860,834,0,0
-357,190,0,0,0,0,0,0,0,0,0,-1,867,834,0,0
-350,190,0,0,0,0,0,0,0,0,0,-1,874,834,0,0
-343,190,0,0,0,0,0,0,0,0,0,-1,881,834,0,0
-336,190,0,0,0,0,0,0,0,0,0,-1,888,834,0,0
-329,190,0,0,0,0,0,0,0,0,0,-1,895,834,0,0
-322,190,0,0,0,0,0,0,0,0,0,-1,902,834,0,0
-315,190,0,0,0,0,0,0,0,0,0,-1,909,834,0,0
-308,190,0,0,0,0,0,0,0,0,0,-1,916,834,0,0
-301,190,0,0,0,0,0,0,0,0,0,-1,923,834,0,0
-294,190,0,0,0,0,0,0,0,0,0,-1,930,834,0,0
-287,190,0,0,0,0,0,0,0,0,0,-1,937,834,0,0
-280,190,0,0,0,0,0,0,0,0,0,-1,944,834,0,0
-273,190,0,0,0,0,0,0,0,0,0,-1,951,834,0,0
-266,190,0,0,0,0,0,0,0,0,0,-1,958,834,0,0
-259,190,0,0,0,0,0,0,0,0,0,-1,965,834,0,0
-252,190,0,0,0,0,0,0,0,0,0,-1,972,834,0,0
-245,190,0,0,0,0,0,0,0,0,0,-1,979,834,0,0
-238,190,0,0,0,0,0,0,0,0,0,-1,986,834,0,0
-231,190,0,0,0,0,0,0,0,0,0,-1,993,834,0,0
-224,190,0,0,0,0,0,0,0,0,0,-1,1000,834,0,0
-217,190,0,0,0,0,0,0,0,0,0,-1,1007,834,0,0
-210,190,0,0,0,0,0,0,0,0,0,-1,1014,834,0,0
-203,190,0,0,0,0,0,0,0,0,0,-1,1021,834,0,0
-196,190,0,0,0,0,0,0,0,0,0,-1,1028,834,0,0
-189,190,0,0,0,0,0,0,0,0,0,-1,1035,834,0,0
-182,190,0,0,0,0,0,0,0,0,0,-1,1042,834,0,0
-175,190,0,0,0,0,0,0,0,0,0,-1,1049,834,0,0
-168,190,0,0,0,0,0,0,0,0,0,-1,1056,834,0,0
-161,190,0,0,0,0,0,0,0,0,0,-1,1063,834,0,0
-154,190,0,0,0,0,0,0,0,0,0,-1,1070,834,0,0
-147,190,0,0,0,0,0,0,0,0,0,-1,1077,834,0,0
-140,190,0,0,0,0,0,0,0,0,0,-1,1084,834,0,0
-133,190,0,0,0,0,0,0,0,0,0,-1,1091,834,0,0
-126,190,0,0,0,0,0,0,0,0,0,-1,1098,834,0,0
-119,190,0,0,0,0,0,0,0,0,0,-1,1105,834,0,0
-112,190,0,0,0,0,0,0,0,0,0,-1,1112,834,0,0
-105,190,0,0,0,0,0,0,0,0,0,-1,1119,834,0,0
-98,190,0,0,0,0,0,0,0,0,0,-1,1126,834,0,0
-91,190,0,0,0,0,0,0,0,0,0,-1,1133,834,0,0
-84,190,0,0,0,0,0,0,0,0,0,-1,1140,834,0,0
-77,190,0,0,0,0,0,0,0,0,0,-1,1147,834,0,0
-70,190,0,0,0,0,0,0,0,0,0,-1,1154,834,0,0
-63,190,0,0,0,0,0,0,0,0,0,-1,1161,834,0,0
-56,190,0,0,0,0,0,0,0,0,0,-1,1168,834,0,0
-49,190,0,0,0,0,0,0,0,0,0,-1,1175,834,0,0
-42,190,0,0,0,0,0,0,0,0,0,-1,1182,834,0,0
-35,190,0,0,0,0,0,0,0,0,0,-1,1189,834,0,0
-28,190,0,0,0,0,0,0,0,0,0,-1,1196,834,0,0
-21,190,0,0,0,0,0,0,0,0,0,-1,1203,834,0,0
-14,190,0,0,0,0,0,0,0,0,0,-1,1210,834,0,0
-7,190,0,0,0,0,0,0,0,0,0,-1,1217,834,0,0
0,190,0,0,0,0,0,0,0,0,0,-1,1224,834,0,0
7,190,0,0,0,0,0,0,0,0,0,-1,1231,834,0,0
14,190,0,0,0,0,0,0,0,0,0,-1,1238,834,0,0
21,190,0,0,0,0,0,0,0,0,0,-1,1245,834,0,0
28,190,0,0,0,0,0,0,0,0,0,-1,1252,834,0,0
35,190,0,0,0,0,0,0,0,0,0,-1,1259,834,0,0
42,190,0,0,0,0,0,0,0,0,0,-1,1266,834,0,0
49,190,0,0,0,0,0,0,0,0,0,-1,1273,834,0,0
56,190,0,0,0,0,0,0,0,0,0,-1,1280,834,0,0
63,190,0,0,0,0,0,0,0,0,0,-1,1287,834,0,0
70,190,0,0,0,0,0,0,0,0,0,-1,1294,834,0,0
77,190,0,0,0,0,0,0,0,0,0,-1,1301,834,0,0
84,190,0,0,0,0,0,0,0,0,0,-1,1308,834,0,0
91,190,0,0,0,0,0,0,0,0,0,-1,1315,834,0,0
98,190,0,0,0,0,0,0,0,0,0,-1,1322,834,0,0
105,190,0,0,0,0,0,0,0,0,0,-1,1329,834,0,0
112,190,0,0,0,0,0,0,0,0,0,-1,1336,834,0,0
119,190,0,0,0,0,0,0,0,0,0,-1,1343,834,0,0
126,190,0,0,0,0,0,0,0,0,0,-1,1350,834,0,0
133,190,0,0,0,0,0,0,0,0,0,-1,1357,834,0,0
140,190,0,0,0,0,0,0,0,0,0,-1,1364,834,0,0
147,190,0,0,0,0,0,0,0,0,0,-1,1371,834,0,0
154,190,0,0,0,0,0,0,0,0,0,-1,1378,834,0,0
161,190,0,0,0,0,0,0,0,0,0,-1,1385,834,0,0
168,190,0,0,0,0,0,0,0,0,0,-1,1392,834,0,0
175,190,0,0,0,0,0,0,0,0,0,-1,1399,834,0,0
182,190,0,0,0,0,0,0,0,0,0,-1,1406,834,0,0
189,190,0,0,0,0,0,0,0,0,0,-1,1413,834,0,0
196,190,0,0,0,0,0,0,0,0,0,-1,1420,834,0,0
203,190,0,0,0,0,0,0,0,0,0,-1,1427,834,0,0
210,190,0,0,0,0,0,0,0,0,0,-1,1434,834,0,0
217,190,0,0,0,0,0,0,0,0,0,-1,1441,834,0,0
224,190,0,0,0,0,0,0,0,0,0,-1,1448,834,0,0
231,190,0,0,0,0,0,0,0,0,0,-1,1455,834,0,0
238,190,0,0,0,0,0,0,0,0,0,-1,1462,834,0,0
245,190,0,0,0,0,0,0,0,0,0,-1,1469,834,0,0
252,190,0,0,0,0,0,0,0,0,0,-1,1476,834,0,0
259,190,0,0,0,0,0,0,0,0,0,-1,1483,834,0,0
266,190,0,0,0,0,0,0,0,0,0,-1,1490,834,0,0
273,190,0,0,0,0,0,0,0,0,0,-1,1497,834,0,0
280,190,0,0,0,0,0,0,0,0,0,-1,1504,834,0,0
287,190,0,0,0,0,0,0,0,0,0,-1,1511,834,0,0
294,190,0,0,0,0,0,0,0,0,0,-1,1518,834,0,0
301,190,0,0,0,0,0,0,0,0,0,-1,1525,834,0,0
308,190,0,0,0,0,0,0,0,0,0,-1,1532,834,0,0
315,190,0,0,0,0,0,0,0,0,0,-1,1539,834,0,0
322,190,0,0,0,0,0,0,0,0,0,-1,1546,834,0,0
329,190,0,0,0,0,0,0,0,0,0,-1,1553,834,0,0
336,190,0,0,0,0,0,0,0,0,0,-1,1560,834,0,0
343,190,0,0,0,0,0,0,0,0,0,-1,1567,834,0,0
350,190,0,0,0,0,0,0,0,0,0,-1,1574,834,0,0
357,190,0,0,0,0,0,0,0,0,0,-1,1581,834,0,0
364,190,0,0,0,0,0,0,0,0,0,-1,1588,834,0,0
371,190,0,0,0,0,0,0,0,0,0,-1,1595,834,0,0
378,190,0,0,0,0,0,0,0,0,0,-1,1602,834,0,0
385,190,0,0,0,0,0,0,0,0,0,-1,1609,834,0,0
392,190,0,0,0,0,0,0,0,0,0,-1,1616,834,0,0
399,190,0,0,0,0,0,0,0,0,0,-1,1623,834,0,0
406,190,0,0,0,0,0,0,0,0,0,-1,1630,834,0,0
413,190,0,0,0,0,0,0,0,0,0,-1,1637,834,0,0
420,190,0,0,0,0,0,0,0,0,0,-1,1644,834,0,0
427,190,0,0,0,0,0,0,0,0,0,-1,1651,834,0,0
434,190,0,0,0,0,0,0,0,0,0,-1,1658,834,0,0
441,190,0,0,0,0,0,0,0,0,0,-1,1665,834,0,0
448,190,0,0,0,0,0,0,0,0,0,-1,1672,834,0,0
455,190,0,0,0,0,0,0,0,0,0,-1,1679,834,0,0
462,190,0,0,0,0,0,0,0,0,0,-1,1686,834,0,0
469,190,0,0,0,0,0,0,0,0,0,-1,1693,834,0,0
476,190,0,0,0,0,0,0,0,0,0,-1,1700,834,0,0
483,190,0,0,0,0,0,0,0,0,0,-1,1707,834,0,0
490,190,0,0,0,0,0,0,0,0,0,-1,1714,834,0,0
497,190,0,0,0,0,0,0,0,0,0,-1,1721,834,0,0
504,190,0,0,0,0,0,0,0,0,0,-1,1728,834,0,0
511,190,0,0,0,0,0,0,0,0,0,-1,1735,834,0,0
518,190,0,0,0,0,0,0,0,0,0,-1,1742,834,0,0
525,190,0,0,0,0,0,0,0,0,0,-1,1749,834,0,0
532,190,0,0,0,0,0,0,0,0,0,-1,1756,834,0,0
539,190,0,0,0,0,0,0,0,0,0,-1,1763,834,0,0
546,190,0,0,0,0,0,0,0,0,0,-1,1770,834,0,0
553,190,0,0,0,0,0,0,0,0,0,-1,1777,834,0,0
560,190,0,0,0,0,0,0,0,0,0,-1,1784,834,0,0
567,190,0,0,0,0,0,0,0,0,0,-1,1791,834,0,0
574,190,0,0,0,0,0,0,0,0,0,-1,1798,834,0,0
581,190,0,0,0,0,0,0,0,0,0,-1,1805,834,0,0
588,190,0,0,0,0,0,0,0,0,0,-1,1812,834,0,0
595,190,0,0,0,0,0,0,0,0,0,-1,1819,834,0,0
602,190,74.4163,2.49872,0.00490117,-0.00503035,-0.00495851,0.00695293,-0.00708211,-0.392334,0.00810325,0.0425881,1826,834,74.4163,-2.49874
609,190,74.4865,2.23132,0.00356606,-0.00299446,-0.00318265,0.00485628,-0.00428469,-0.385148,0.00528098,0.0401074,1833,834,74.4865,-2.23131
616,190,74.7013,2.06116,0.00219191,-0.00115463,-0.00154274,0.00279457,-0.0017573,-0.372417,0.00265067,0.0368941,1840,834,74.7013,-2.06117
623,190,74.7057,2.12756,0.00100137,0.000373673,-7.04333e-05,0.00100918,0.000365867,-0.11038,0.000589943,0.0376813,1847,834,74.7057,-2.12757
630,190,74.7344,2.2276,0.000116254,0.00140452,0.00106194,0.00200241,-0.000481639,1.05801,0.00152112,0.0426764,1854,834,74.7344,-2.2276
637,190,74.6716,2.31458,-0.000618888,0.001418,0.00105118,0.00186318,-0.00106407,1.17019,0.00171092,0.0356368,1861,834,74.6716,-2.31455
644,190,74.6206,2.38367,-0.00112129,0.00103279,0.000963915,0.00140114,-0.00148963,1.20578,0.00166925,0.0309255,1868,834,74.6206,-2.38366
651,190,74.623,2.54187,0,0,0,0,0,0,0,-1,1875,834,74.623,-2.54186
658,190,54.0599,3.0943,0,0,0,0,0,0,0,-1,1882,834,54.0599,-3.09428
665,190,25.9916,3.05157,0,0,0,0,0,0,0,-1,1889,834,25.9916,-3.05156
672,190,27.2662,1.70862,0,0,0,0,0,0,0,-1,1896,834,27.2662,-1.70861
679,190,58.8054,-1.14026,0,0,0,0,0,0,0,-1,1903,834,58.8054,1.14028
686,190,58.8384,-0.265076,-0.00227789,-0.000315317,-5.81711e-05,-0.000313594,-0.00227961,-1.54119,0.00142674,0.0296209,1910,834,58.8383,0.265072
693,190,58.8134,0.613953,-0.00199689,-0.000766856,-0.000591721,-0.000528422,-0.00223533,-1.18775,0.00134903,0.0364886,1917,834,58.8134,-0.613964
700,190,58.515,1.38849,-0.00174986,-0.000943124,-0.00105573,-0.000216322,-0.00247666,-0.967876,0.00158393,0.0248226,1924,834,58.515,-1.38848
707,190,58.5013,2.24829,-0.0011197,-0.000677869,-0.00112271,0.000245451,-0.00204302,-0.882542,0.00145077,0.0149206,1931,834,58.5014,-2.24829
714,190,58.4938,3.08801,0.000575514,9.6629e-05,-0.000897837,0.00126529,-0.000593146,-0.655087,0.00109611,0.0136077,1938,834,58.4938,-3.088
721,190,58.4453,3.93707,0.00278532,0.00105059,-0.000566203,0.00295377,0.000882138,-0.289164,0.00175085,0.0118388,1945,834,58.4453,-3.93705
728,190,58.3892,4.81512,0.005416,0.00203617,-0.000191175,0.00542678,0.00202539,-0.056324,0.00316655,0.0132927,1952,834,58.3891,-4.81511
735,190,58.345,5.66071,0.00844752,0.00299539,0.00011634,0.00845,0.00299291,0.0213255,0.00494727,0.0137117,1959,834,58.345,-5.66068
742,190,58.2524,6.54956,0.0119183,0.00386977,0.000252311,0.0119262,0.00386187,0.0313078,0.00702664,0.0194898,1966,834,58.2524,-6.54954
749,190,58.3745,7.54773,0.0162482,0.00456793,0.000319091,0.0162569,0.00455921,0.0272918,0.00968284,0.0427012,1973,834,58.3745,-7.54775
756,190,58.4833,8.57196,0,0,0,0,0,0,0,-1,1980,834,58.4833,-8.57198
763,190,55.6498,8.02094,0,0,0,0,0,0,0,-1,1987,834,55.6498,-8.02092
770,190,54.7947,10.1494,0,0,0,0,0,0,0,-1,1994,834,54.7947,-10.1494
777,190,51.4365,10.3331,0,0,0,0,0,0,0,-1,2001,834,51.4366,-10.3331
784,190,0,0,0,0,0,0,0,0,0,-1,2008,834,0,0
791,190,0,0,0,0,0,0,0,0,0,-1,2015,834,0,0
798,190,0,0,0,0,0,0,0,0,0,-1,2022,834,0,0
805,190,0,0,0,0,0,0,0,0,0,-1,2029,834,0,0
812,190,0,0,0,0,0,0,0,0,0,-1,2036,834,0,0
-700,183,0,0,0,0,0,0,0,0,0,-1,524,841,0,0
-693,183,0,0,0,0,0,0,0,0,0,-1,531,841,0,0
-686,183,0,0,0,0,0,0,0,0,0,-1,538,841,0,0
-679,183,0,0,0,0,0,0,0,0,0,-1,545,841,0,0
-672,183,0,0,0,0,0,0,0,0,0,-1,552,841,0,0
-665,183,0,0,0,0,0,0,0,0,0,-1,559,841,0,0
-658,183,-56.7401,1.32843,0,0,0,0,0,0,0,-1,566,841,-56.7401,-1.32844
-651,183,-44.3059,12.2423,0,0,0,0,0,0,0,-1,573,841,-44.3059,-12.2423
-644,183,-44.0252,10.6679,0,0,0,0,0,0,0,-1,580,841,-44.0252,-10.6679
-637,183,-44.7339,9.56293,0,0,0,0,0,0,0,-1,587,841,-44.7339,-9.5629
-630,183,-44.7769,8.30768,0,0,0,0,0,0,0,-1,594,841,-44.7769,-8.30766
-623,183,-43.7302,7.55334,0,0,0,0,0,0,0,-1,601,841,-43.7302,-7.55333
-616,183,-43.5786,6.34137,0.0151184,0.0126817,-0.00934248,0.0233217,0.0044785,-0.720559,0.0142908,0.0409281,608,841,-43.5786,-6.34137
-609,183,-43.4561,5.14575,0.00958198,0.00901908,-0.00583913,0.0151464,0.00345462,-0.761317,0.00916573,0.0201221,615,841,-43.4561,-5.14572
-602,183,-43.4756,4.29529,0.00532938,0.00607196,-0.00306283,0.00878592,0.00261542,-0.845716,0.00520914,0.0125097,622,841,-43.4756,-4.29529
-595,183,-43.5189,3.41193,0.00215484,0.00380123,-0.000816403,0.00413742,0.00181866,-1.18017,0.00239455,0.0125386,629,841,-43.5189,-3.41196
-588,183,-43.549,2.55139,-8.26823e-05,0.0020499,0.000970169,0.0024252,-0.00045799,1.20168,0.00178911,0.0163692,636,841,-43.549,-2.5514
-581,183,-43.6332,1.71942,-0.00150905,0.000843612,0.00234646,0.00229209,-0.00295753,1.01775,0.00303898,0.0172813,643,841,-43.6332,-1.7194
-574,183,-43.6607,0.879028,-0.001794,0.00020425,0.00319717,0.00255478,-0.00414453,0.936842,0.00390398,0.0226067,650,841,-43.6607,-0.879042
-567,183,-43.5127,-0.265686,0,0,0,0,0,0,0,-1,657,841,-43.5127,0.265667
-560,183,-34.0303,-1.05511,0,0,0,0,0,0,0,-1,664,841,-34.0303,1.05511
-553,183,-32.2224,-1.71942,0,0,0,0,0,0,0,-1,671,841,-32.2224,1.71944
-546,183,-27.8053,-1.91199,0,0,0,0,0,0,0,-1,678,841,-27.8053,1.91201
-539,183,-16.8032,-0.417297,0,0,0,0,0,0,0,-1,685,841,-16.8032,0.41732
-532,183,-29.9686,0.953613,0,0,0,0,0,0,0,-1,692,841,-29.9686,-0.953627
-525,183,-55.6847,0.842468,0,0,0,0,0,0,0,-1,699,841,-55.6847,-0.842446
-518,183,-57.8281,0.253845,0,0,0,0,0,0,0,-1,706,841,-57.828,-0.253855
-511,183,-57.6868,0.375183,0,0,0,0,0,0,0,-1,713,841,-57.6867,-0.375214
-504,183,-57.767,0.586426,0,0,0,0,0,0,0,-1,720,841,-57.767,-0.586424
-497,183,-57.881,0.716736,0,0,0,0,0,0,0,-1,727,841,-57.8811,-0.716749
-490,183,-57.6957,0.244324,0,0,0,0,0,0,0,-1,734,841,-57.6957,-0.244304
-483,183,0,0,0,0,0,0,0,0,0,-1,741,841,0,0
-476,183,0,0,0,0,0,0,0,0,0,-1,748,841,0,0
-469,183,0,0,0,0,0,0,0,0,0,-1,755,841,0,0
-462,183,0,0,0,0,0,0,0,0,0,-1,762,841,0,0
-455,183,0,0,0,0,0,0,0,0,0,-1,769,841,0,0
-448,183,0,0,0,0,0,0,0,0,0,-1,776,841,0,0
-441,183,0,0,0,0,0,0,0,0,0,-1,783,841,0,0
-434,183,0,0,0,0,0,0,0,0,0,-1,790,841,0,0
-427,183,0,0,0,0,0,0,0,0,0,-1,797,841,0,0
-420,183,0,0,0,0,0,0,0,0,0,-1,804,841,0,0
-413,183,0,0,0,0,0,0,0,0,0,-1,811,841,0,0
-406,183,0,0,0,0,0,0,0,0,0,-1,818,841,0,0
-399,183,0,0,0,0,0,0,0,0,0,-1,825,841,0,0
-392,183,0,0,0,0,0,0,0,0,0,-1,832,841,0,0
-385,183,0,0,0,0,0,0,0,0,0,-1,839,841,0,0
-378,183,0,0,0,0,0,0,0,0,0,-1,846,841,0,0
-371,183,0,0,0,0,0,0,0,0,0,-1,853,841,0,0
-364,183,0,0,0,0,0,0,0,0,0,-1,860,841,0,0
-357,183,0,0,0,0,0,0,0,0,0,-1,867,841,0,0
-350,183,0,0,0,0,0,0,0,0,0,-1,874,841,0,0
-343,183,0,0,0,0,0,0,0,0,0,-1,881,841,0,0
-336,183,0,0,0,0,0,0,0,0,0,-1,888,841,0,0
-329,183,0,0,0,0,0,0,0,0,0,-1,895,841,0,0
-322,183,0,0,0,0,0,0,0,0,0,-1,902,841,0,0
-315,183,0,0,0,0,0,0,0,0,0,-1,909,841,0,0
-308,183,0,0,0,0,0,0,0,0,0,-1,916,841,0,0
-301,183,0,0,0,0,0,0,0,0,0,-1,923,841,0,0
-294,183,0,0,0,0,0,0,0,0,0,-1,930,841,0,0
-287,183,0,0,0,0,0,0,0,0,0,-1,937,841,0,0
-280,183,0,0,0,0,0,0,0,0,0,-1,944,841,0,0
-273,183,0,0,0,0,0,0,0,0,0,-1,951,841,0,0
-266,183,0,0,0,0,0,0,0,0,0,-1,958,841,0,0
-259,183,0,0,0,0,0,0,0,0,0,-1,965,841,0,0
-252,183,0,0,0,0,0,0,0,0,0,-1,972,841,0,0
-245,183,0,0,0,0,0,0,0,0,0,-1,979,841,0,0
-238,183,0,0,0,0,0,0,0,0,0,-1,986,841,0,0
-231,183,0,0,0,0,0,0,0,0,0,-1,993,841,0,0
-224,183,0,0,0,0,0,0,0,0,0,-1,1000,841,0,0
-217,183,0,0,0,0,0,0,0,0,0,-1,1007,841,0,0
-210,183,0,0,0,0,0,0,0,0,0,-1,1014,841,0,0
-203,183,0,0,0,0,0,0,0,0,0,-1,1021,841,0,0
-196,183,0,0,0,0,0,0,0,0,0,-1,1028,841,0,0
-189,183,0,0,0,0,0,0,0,0,0,-1,1035,841,0,0
-182,183,0,0,0,0,0,0,0,0,0,-1,1042,841,0,0
-175,183,0,0,0,0,0,0,0,0,0,-1,1049,841,0,0
-168,183,0,0,0,0,0,0,0,0,0,-1,1056,841,0,0
-161,183,0,0,0,0,0,0,0,0,0,-1,1063,841,0,0
-154,183,0,0,0,0,0,0,0,0,0,-1,1070,841,0,0
-147,183,0,0,0,0,0,0,0,0,0,-1,1077,841,0,0
-140,183,0,0,0,0,0,0,0,0,0,-1,1084,841,0,0
-133,183,0,0,0,0,0,0,0,0,0,-1,1091,841,0,0
-126,183,0,0,0,0,0,0,0,0,0,-1,1098,841,0,0
-119,183,0,0,0,0,0,0,0,0,0,-1,1105,841,0,0
-112,183,0,0,0,0,0,0,0,0,0,-1,1112,841,0,0
-105,183,0,0,0,0,0,0,0,0,0,-1,1119,841,0,0
-98,183,0,0,0,0,0,0,0,0,0,-1,1126,841,0,0
-91,183,0,0,0,0,0,0,0,0,0,-1,1133,841,0,0
-84,183,0,0,0,0,0,0,0,0,0,-1,1140,841,0,0
-77,183,0,0,0,0,0,0,0,0,0,-1,1147,841,0,0
-70,183,0,0,0,0,0,0,0,0,0,-1,1154,841,0,0
-63,183,0,0,0,0,0,0,0,0,0,-1,1161,841,0,0
-56,183,0,0,0,0,0,0,0,0,0,-1,1168,841,0,0
-49,183,0,0,0,0,0,0,0,0,0,-1,1175,841,0,0
-42,183,0,0,0,0,0,0,0,0,0,-1,1182,841,0,0
-35,183,0,0,0,0,0,0,0,0,0,-1,1189,841,0,0
-28,183,0,0,0,0,0,0,0,0,0,-1,1196,841,0,0
-21,183,0,0,0,0,0,0,0,0,0,-1,1203,841,0,0
-14,183,0,0,0,0,0,0,0,0,0,-1,1210,841,0,0
-7,183,0,0,0,0,0,0,0,0,0,-1,1217,841,0,0
0,183,0,0,0,0,0,0,0,0,0,-1,1224,841,0,0
7,183,0,0,0,0,0,0,0,0,0,-1,1231,841,0,0
14,183,0,0,0,0,0,0,0,0,0,-1,1238,841,0,0
21,183,0,0,0,0,0,0,0,0,0,-1,1245,841,0,0
28,183,0,0,0,0,0,0,0,0,0,-1,1252,841,0,0
35,183,0,0,0,0,0,0,0,0,0,-1,1259,841,0,0
42,183,0,0,0,0,0,0,0,0,0,-1,1266,841,0,0
49,183,0,0,0,0,0,0,0,0,0,-1,1273,841,0,0
56,183,0,0,0,0,0,0,0,0,0,-1,1280,841,0,0
63,183,0,0,0,0,0,0,0,0,0,-1,1287,841,0,0
70,183,0,0,0,0,0,0,0,0,0,-1,1294,841,0,0
77,183,0,0,0,0,0,0,0,0,0,-1,1301,841,0,0
84,183,0,0,0,0,0,0,0,0,0,-1,1308,841,0,0
91,183,0,0,0,0,0,0,0,0,0,-1,1315,841,0,0
98,183,0,0,0,0,0,0,0,0,0,-1,1322,841,0,0
105,183,0,0,0,0,0,0,0,0,0,-1,1329,841,0,0
112,183,0,0,0,0,0,0,0,0,0,-1,1336,841,0,0
119,183,0,0,0,0,0,0,0,0,0,-1,1343,841,0,0
126,183,0,0,0,0,0,0,0,0,0,-1,1350,841,0,0
133,183,0,0,0,0,0,0,0,0,0,-1,1357,841,0,0
140,183,0,0,0,0,0,0,0,0,0,-1,1364,841,0,0
147,183,0,0,0,0,0,0,0,0,0,-1,1371,841,0,0
154,183,0,0,0,0,0,0,0,0,0,-1,1378,841,0,0
161,183,0,0,0,0,0,0,0,0,0,-1,1385,841,0,0
168,183,0,0,0,0,0,0,0,0,0,-1,1392,841,0,0
175,183,0,0,0,0,0,0,0,0,0,-1,1399,841,0,0
182,183,0,0,0,0,0,0,0,0,0,-1,1406,841,0,0
189,183,0,0,0,0,0,0,0,0,0,-1,1413,841,0,0
196,183,0,0,0,0,0,0,0,0,0,-1,1420,841,0,0
203,183,0,0,0,0,0,0,0,0,0,-1,1427,841,0,0
210,183,0,0,0,0,0,0,0,0,0,-1,1434,841,0,0
217,183,0,0,0,0,0,0,0,0,0,-1,1441,841,0,0
224,183,0,0,0,0,0,0,0,0,0,-1,1448,841,0,0
231,183,0,0,0,0,0,0,0,0,0,-1,1455,841,0,0
238,183,0,0,0,0,0,0,0,0,0,-1,1462,841,0,0
245,183,0,0,0,0,0,0,0,0,0,-1,1469,841,0,0
252,183,0,0,0,0,0,0,0,0,0,-1,1476,841,0,0
259,183,0,0,0,0,0,0,0,0,0,-1,1483,841,0,0
266,183,0,0,0,0,0,0,0,0,0,-1,1490,841,0,0
273,183,0,0,0,0,0,0,0,0,0,-1,1497,841,0,0
280,183,0,0,0,0,0,0,0,0,0,-1,1504,841,0,0
287,183,0,0,0,0,0,0,0,0,0,-1,1511,841,0,0
294,183,0,0,0,0,0,0,0,0,0,-1,1518,841,0,0
301,183,0,0,0,0,0,0,0,0,0,-1,1525,841,0,0
308,183,0,0,0,0,0,0,0,0,0,-1,1532,841,0,0
315,183,0,0,0,0,0,0,0,0,0,-1,1539,841,0,0
322,183,0,0,0,0,0,0,0,0,0,-1,1546,841,0,0
329,183,0,0,0,0,0,0,0,0,0,-1,1553,841,0,0
336,183,0,0,0,0,0,0,0,0,0,-1,1560,841,0,0
343,183,0,0,0,0,0,0,0,0,0,-1,1567,841,0,0
350,183,0,0,0,0,0,0,0,0,0,-1,1574,841,0,0
357,183,0,0,0,0,0,0,0,0,0,-1,1581,841,0,0
364,183,0,0,0,0,0,0,0,0,0,-1,1588,841,0,0
371,183,0,0,0,0,0,0,0,0,0,-1,1595,841,0,0
378,183,0,0,0,0,0,0,0,0,0,-1,1602,841,0,0
385,183,0,0,0,0,0,0,0,0,0,-1,1609,841,0,0
392,183,0,0,0,0,0,0,0,0,0,-1,1616,841,0,0
399,183,0,0,0,0,0,0,0,0,0,-1,1623,841,0,0
406,183,0,0,0,0,0,0,0,0,0,-1,1630,841,0,0
413,183,0,0,0,0,0,0,0,0,0,-1,1637,841,0,0
420,183,0,0,0,0,0,0,0,0,0,-1,1644,841,0,0
427,183,0,0,0,0,0,0,0,0,0,-1,1651,841,0,0
434,183,0,0,0,0,0,0,0,0,0,-1,1658,841,0,0
441,183,0,0,0,0,0,0,0,0,0,-1,1665,841,0,0
448,183,0,0,0,0,0,0,0,0,0,-1,1672,841,0,0
455,183,0,0,0,0,0,0,0,0,0,-1,1679,841,0,0
462,183,0,0,0,0,0,0,0,0,0,-1,1686,841,0,0
469,183,0,0,0,0,0,0,0,0,0,-1,1693,841,0,0
476,183,0,0,0,0,0,0,0,0,0,-1,1700,841,0,0
483,183,0,0,0,0,0,0,0,0,0,-1,1707,841,0,0
490,183,0,0,0,0,0,0,0,0,0,-1,1714,841,0,0
497,183,0,0,0,0,0,0,0,0,0,-1,1721,841,0,0
504,183,0,0,0,0,0,0,0,0,0,-1,1728,841,0,0
511,183,0,0,0,0,0,0,0,0,0,-1,1735,841,0,0
518,183,0,0,0,0,0,0,0,0,0,-1,1742,841,0,0
525,183,0,0,0,0,0,0,0,0,0,-1,1749,841,0,0
532,183,0,0,0,0,0,0,0,0,0,-1,1756,841,0,0
539,183,0,0,0,0,0,0,0,0,0,-1,1763,841,0,0
546,183,0,0,0,0,0,0,0,0,0,-1,1770,841,0,0
553,183,0,0,0,0,0,0,0,0,0,-1,1777,841,0,0
560,183,0,0,0,0,0,0,0,0,0,-1,1784,841,0,0
567,183,0,0,0,0,0,0,0,0,0,-1,1791,841,0,0
574,183,0,0,0,0,0,0,0,0,0,-1,1798,841,0,0
581,183,0,0,0,0,0,0,0,0,0,-1,1805,841,0,0
588,183,0,0,0,0,0,0,0,0,0,-1,1812,841,0,0
595,183,0,0,0,0,0,0,0,0,0,-1,1819,841,0,0
602,183,0,0,0,0,0,0,0,0,0,-1,1826,841,0,0
609,183,74.4984,2.17767,0.00341957,-0.00389461,-0.0041612,0.00530233,-0.00577737,-0.424894,0.00639883,0.0394986,1833,841,74.4984,-2.17769
616,183,74.5328,2.34039,0.0023183,-0.00200817,-0.00247034,0.00343868,-0.00312856,-0.42579,0.003793,0.0379178,1840,841,74.5328,-2.34042
623,183,74.6671,2.5191,0.00111733,-0.00039876,-0.000867182,0.00151108,-0.000792513,-0.426225,0.00135138,0.0416637,1847,841,74.6672,-2.51913
630,183,74.6482,2.54388,1.68943e-05,0.00092978,0.000527896,0.0011712,-0.000224527,1.14187,0.000865407,0.0420027,1854,841,74.6481,-2.54386
637,183,74.672,2.36676,-0.00092111,0.00128578,0.000898963,0.00160562,-0.00124094,1.22898,0.00164795,0.0363621,1861,841,74.672,-2.36678
644,183,74.5852,2.30548,-0.00151286,0.000966718,0.000903426,0.00126096,-0.00180711,1.25593,0.00178068,0.0300368,1868,841,74.5852,-2.30545
651,183,74.5903,2.41125,-0.001734,0.000504715,0.000576961,0.000644661,-0.00187394,1.33283,0.00151075,0.0359095,1875,841,74.5903,-2.41123
658,183,74.6128,2.51489,0,0,0,0,0,0,0,-1,1882,841,74.6128,-2.51491
665,183,38.4337,2.66992,0,0,0,0,0,0,0,-1,1889,841,38.4337,-2.6699
672,183,29.168,1.54572,0,0,0,0,0,0,0,-1,1896,841,29.168,-1.54574
679,183,59.7277,-0.979492,0,0,0,0,0,0,0,-1,1903,841,59.7276,0.979512
686,183,59.7073,-0.172729,-0.00244012,-0.000407025,-0.000229868,-0.00038136,-0.00246578,-1.4596,0.00153263,0.0381229,1910,841,59.7073,0.172717
693,183,59.626,0.584595,-0.0020698,-0.000745228,-0.000759853,-0.000399546,-0.00241548,-1.14385,0.00149504,0.0358961,1917,841,59.626,-0.584579
700,183,59.4424,1.45374,-0.00182276,-0.000849372,-0.0012264,-1.66222e-05,-0.00265551,-0.974292,0.00176483,0.042015,1924,841,59.4424,-1.45372
707,183,59.3439,2.31415,-0.0013761,-0.000628707,-0.00138666,0.000433733,-0.00243854,-0.917017,0.00178789,0.0139795,1931,841,59.3439,-2.31415
714,183,59.3558,3.14069,9.18643e-05,7.02662e-05,-0.00125721,0.00133832,-0.00117619,-0.781103,0.00145276,0.0181278,1938,841,59.3559,-3.14067
721,183,59.3248,4.0022,0.00207506,0.000933404,-0.00103214,0.0026837,0.000324761,-0.532806,0.0016913,0.0169734,1945,841,59.3248,-4.00223
728,183,59.2496,4.85742,0.00444355,0.00183648,-0.000765302,0.0046516,0.00162843,-0.265439,0.00272555,0.0146549,1952,841,59.2496,-4.85741
735,183,59.2273,5.68665,0.00721454,0.00273232,-0.0006083,0.00729562,0.00265123,-0.132521,0.00426421,0.0134267,1959,841,59.2273,-5.68666
742,183,59.2096,6.53955,0.010328,0.00353247,-0.000674666,0.0103943,0.00346614,-0.098006,0.00611113,0.0133526,1966,841,59.2096,-6.53956
749,183,59.4713,7.57422,0.0141008,0.00410764,-0.000971369,0.0141943,0.00401409,-0.0960058,0.00844893,0.0350764,1973,841,59.4713,-7.57421
756,183,59.8718,8.61511,0,0,0,0,0,0,0,-1,1980,841,59.8718,-8.61509
763,183,60.1219,9.49005,0,0,0,0,0,0,0,-1,1987,841,60.1219,-9.49005
770,183,51.5659,9.50665,0,0,0,0,0,0,0,-1,1994,841,51.5659,-9.50663
777,183,42.1948,7.22906,0,0,0,0,0,0,0,-1,2001,841,42.1948,-7.22905
784,183,0,0,0,0,0,0,0,0,0,-1,2008,841,0,0
791,183,0,0,0,0,0,0,0,0,0,-1,2015,841,0,0
798,183,0,0,0,0,0,0,0,0,0,-1,2022,841,0,0
805,183,0,0,0,0,0,0,0,0,0,-1,2029,841,0,0
812,183,0,0,0,0,0,0,0,0,0,-1,2036,841,0,0
-700,176,0,0,0,0,0,0,0,0,0,-1,524,848,0,0
-693,176,0,0,0,0,0,0,0,0,0,-1,531,848,0,0
-686,176,0,0,0,0,0,0,0,0,0,-1,538,848,0,0
-679,176,0,0,0,0,0,0,0,0,0,-1,545,848,0,0
-672,176,0,0,0,0,0,0,0,0,0,-1,552,848,0,0
-665,176,-59.6962,8.75854,0,0,0,0,0,0,0,-1,559,848,-59.6962,-8.75853
-658,176,-59.6349,7.95142,0,0,0,0,0,0,0,-1,566,848,-59.6349,-7.95144
-651,176,-44.4019,11.7273,0,0,0,0,0,0,0,-1,573,848,-44.4018,-11.7273
-644,176,-44.2437,10.2178,0,0,0,0,0,0,0,-1,580,848,-44.2437,-10.2178
-637,176,-44.9133,9.27612,0,0,0,0,0,0,0,-1,587,848,-44.9133,-9.27612
-630,176,-44.9045,8.08679,0.0292944,0.0229821,-0.017783,0.0441991,0.00807741,-0.697572,0.0271767,0.0420251,594,848,-44.9045,-8.08676
-623,176,-44.5514,6.99506,0.0206282,0.0171358,-0.0130027,0.0320015,0.00576255,-0.718651,0.0196965,0.038755,601,848,-44.5514,-6.99503
-616,176,-44.243,6.09137,0.0137107,0.0124624,-0.0087194,0.0218283,0.00434483,-0.749668,0.0133418,0.0286573,608,848,-44.243,-6.09137
-609,176,-44.3277,5.15619,0.00827591,0.00873325,-0.00517738,0.013687,0.00332215,-0.807467,0.00824353,0.0135766,615,848,-44.3277,-5.1562
-602,176,-44.3579,4.29962,0.00394134,0.00567061,-0.00225593,0.00722193,0.00239002,-0.9684,0.00424829,0.013492,622,848,-44.3579,-4.29962
-595,176,-44.391,3.43982,0.00057523,0.00324035,0.00019456,0.00325447,0.000561101,1.49831,0.00200891,0.0131577,629,848,-44.391,-3.43984
-588,176,-44.4081,2.61243,-0.00191477,0.00132684,0.00219277,0.0024328,-0.00302073,1.10366,0.00315469,0.0158436,636,848,-44.4081,-2.61244
-581,176,-44.5148,1.82245,-0.00359077,6.71074e-05,0.00376065,0.00241997,-0.00594364,1.01173,0.00496953,0.0152261,643,848,-44.5148,-1.82245
-574,176,-44.652,1.01825,-0.00387473,-0.000597398,0.00468519,0.00272742,-0.00719956,0.953626,0.00592204,0.0311422,650,848,-44.652,-1.01824
-567,176,-44.2008,0.267578,0,0,0,0,0,0,0,-1,657,848,-44.2008,-0.267607
-560,176,-31.6935,-0.0994873,0,0,0,0,0,0,0,-1,664,848,-31.6936,0.0994584
-553,176,-29.4605,-1.50214,0,0,0,0,0,0,0,-1,671,848,-29.4605,1.50211
-546,176,-16.657,-0.403198,0,0,0,0,0,0,0,-1,678,848,-16.657,0.403182
-539,176,-22.7061,1.48657,0,0,0,0,0,0,0,-1,685,848,-22.7061,-1.48657
-532,176,-38.8326,1.29749,0,0,0,0,0,0,0,-1,692,848,-38.8326,-1.29747
-525,176,-57.7865,0.226501,0,0,0,0,0,0,0,-1,699,848,-57.7865,-0.226525
-518,176,-57.7631,0.242188,0,0,0,0,0,0,0,-1,706,848,-57.7631,-0.242204
-511,176,-57.7265,0.300964,0,0,0,0,0,0,0,-1,713,848,-57.7265,-0.300951
-504,176,-57.8329,0.368896,0,0,0,0,0,0,0,-1,720,848,-57.8329,-0.368902
-497,176,-57.9728,0.510254,0,0,0,0,0,0,0,-1,727,848,-57.9728,-0.510248
-490,176,-57.9022,0.328552,0,0,0,0,0,0,0,-1,734,848,-57.9022,-0.328572
-483,176,0,0,0,0,0,0,0,0,0,-1,741,848,0,0
-476,176,0,0,0,0,0,0,0,0,0,-1,748,848,0,0
-469,176,0,0,0,0,0,0,0,0,0,-1,755,848,0,0
-462,176,0,0,0,0,0,0,0,0,0,-1,762,848,0,0
-455,176,0,0,0,0,0,0,0,0,0,-1,769,848,0,0
-448,176,0,0,0,0,0,0,0,0,0,-1,776,848,0,0
-441,176,0,0,0,0,0,0,0,0,0,-1,783,848,0,0
-434,176,0,0,0,0,0,0,0,0,0,-1,790,848,0,0
-427,176,0,0,0,0,0,0,0,0,0,-1,797,848,0,0
-420,176,0,0,0,0,0,0,0,0,0,-1,804,848,0,0
-413,176,0,0,0,0,0,0,0,0,0,-1,811,848,0,0
-406,176,0,0,0,0,0,0,0,0,0,-1,818,848,0,0
-399,176,0,0,0,0,0,0,0,0,0,-1,825,848,0,0
-392,176,0,0,0,0,0,0,0,0,0,-1,832,848,0,0
-385,176,0,0,0,0,0,0,0,0,0,-1,839,848,0,0
-378,176,0,0,0,0,0,0,0,0,0,-1,846,848,0,0
-371,176,0,0,0,0,0,0,0,0,0,-1,853,848,0,0
-364,176,0,0,0,0,0,0,0,0,0,-1,860,848,0,0
-357,176,0,0,0,0,0,0,0,0,0,-1,867,848,0,0
-350,176,0,0,0,0,0,0,0,0,0,-1,874,848,0,0
-343,176,0,0,0,0,0,0,0,0,0,-1,881,848,0,0
-336,176,0,0,0,0,0,0,0,0,0,-1,888,848,0,0
-329,176,0,0,0,0,0,0,0,0,0,-1,895,848,0,0
-322,176,0,0,0,0,0,0,0,0,0,-1,902,848,0,0
-315,176,0,0,0,0,0,0,0,0,0,-1,909,848,0,0
-308,176,0,0,0,0,0,0,0,0,0,-1,916,848,0,0
-301,176,0,0,0,0,0,0,0,0,0,-1,923,848,0,0
-294,176,0,0,0,0,0,0,0,0,0,-1,930,848,0,0
-287,176,0,0,0,0,0,0,0,0,0,-1,937,848,0,0
-280,176,0,0,0,0,0,0,0,0,0,-1,944,848,0,0
-273,176,0,0,0,0,0,0,0,0,0,-1,951,848,0,0
-266,176,0,0,0,0,0,0,0,0,0,-1,958,848,0,0
-259,176,0,0,0,0,0,0,0,0,0,-1,965,848,0,0
-252,176,0,0,0,0,0,0,0,0,0,-1,972,848,0,0
-245,176,0,0,0,0,0,0,0,0,0,-1,979,848,0,0
-238,176,0,0,0,0,0,0,0,0,0,-1,986,848,0,0
-231,176,0,0,0,0,0,0,0,0,0,-1,993,848,0,0
-224,176,0,0,0,0,0,0,0,0,0,-1,1000,848,0,0
-217,176,0,0,0,0,0,0,0,0,0,-1,1007,848,0,0
-210,176,0,0,0,0,0,0,0,0,0,-1,1014,848,0,0
-203,176,0,0,0,0,0,0,0,0,0,-1,1021,848,0,0
-196,176,0,0,0,0,0,0,0,0,0,-1,1028,848,0,0
-189,176,0,0,0,0,0,0,0,0,0,-1,1035,848,0,0
-182,176,0,0,0,0,0,0,0,0,0,-1,1042,848,0,0
-175,176,0,0,0,0,0,0,0,0,0,-1,1049,848,0,0
-168,176,0,0,0,0,0,0,0,0,0,-1,1056,848,0,0
-161,176,0,0,0,0,0,0,0,0,0,-1,1063,848,0,0
-154,176,0,0,0,0,0,0,0,0,0,-1,1070,848,0,0
-147,176,0,0,0,0,0,0,0,0,0,-1,1077,848,0,0
-140,176,0,0,0,0,0,0,0,0,0,-1,1084,848,0,0
-133,176,0,0,0,0,0,0,0,0,0,-1,1091,848,0,0
-126,176,0,0,0,0,0,0,0,0,0,-1,1098,848,0,0
-119,176,0,0,0,0,0,0,0,0,0,-1,1105,848,0,0
-112,176,0,0,0,0,0,0,0,0,0,-1,1112,848,0,0
-105,176,0,0,0,0,0,0,0,0,0,-1,1119,848,0,0
-98,176,0,0,0,0,0,0,0,0,0,-1,1126,848,0,0
-91,176,0,0,0,0,0,0,0,0,0,-1,1133,848,0,0
-84,176,0,0,0,0,0,0,0,0,0,-1,1140,848,0,0
-77,176,0,0,0,0,0,0,0,0,0,-1,1147,848,0,0
-70,176,0,0,0,0,0,0,0,0,0,-1,1154,848,0,0
-63,176,0,0,0,0,0,0,0,0,0,-1,1161,848,0,0
-56,176,0,0,0,0,0,0,0,0,0,-1,1168,848,0,0
-49,176,0,0,0,0,0,0,0,0,0,-1,1175,848,0,0
-42,176,0,0,0,0,0,0,0,0,0,-1,1182,848,0,0
-35,176,0,0,0,0,0,0,0,0,0,-1,1189,848,0,0
-28,176,0,0,0,0,0,0,0,0,0,-1,1196,848,0,0
-21,176,0,0,0,0,0,0,0,0,0,-1,1203,848,0,0
-14,176,0,0,0,0,0,0,0,0,0,-1,1210,848,0,0
-7,176,0,0,0,0,0,0,0,0,0,-1,1217,848,0,0
0,176,0,0,0,0,0,0,0,0,0,-1,1224,848,0,0
7,176,0,0,0,0,0,0,0,0,0,-1,1231,848,0,0
14,176,0,0,0,0,0,0,0,0,0,-1,1238,848,0,0
21,176,0,0,0,0,0,0,0,0,0,-1,1245,848,0,0
28,176,0,0,0,0,0,0,0,0,0,-1,1252,848,0,0
35,176,0,0,0,0,0,0,0,0,0,-1,1259,848,0,0
42,176,0,0,0,0,0,0,0,0,0,-1,1266,848,0,0
49,176,0,0,0,0,0,0,0,0,0,-1,1273,848,0,0
56,176,0,0,0,0,0,0,0,0,0,-1,1280,848,0,0
63,176,0,0,0,0,0,0,0,0,0,-1,1287,848,0,0
70,176,0,0,0,0,0,0,0,0,0,-1,1294,848,0,0
77,176,0,0,0,0,0,0,0,0,0,-1,1301,848,0,0
84,176,0,0,0,0,0,0,0,0,0,-1,1308,848,0,0
91,176,0,0,0,0,0,0,0,0,0,-1,1315,848,0,0
98,176,0,0,0,0,0,0,0,0,0,-1,1322,848,0,0
105,176,0,0,0,0,0,0,0,0,0,-1,1329,848,0,0
112,176,0,0,0,0,0,0,0,0,0,-1,1336,848,0,0
119,176,0,0,0,0,0,0,0,0,0,-1,1343,848,0,0
126,176,0,0,0,0,0,0,0,0,0,-1,1350,848,0,0
133,176,0,0,0,0,0,0,0,0,0,-1,1357,848,0,0
140,176,0,0,0,0,0,0,0,0,0,-1,1364,848,0,0
147,176,0,0,0,0,0,0,0,0,0,-1,1371,848,0,0
154,176,0,0,0,0,0,0,0,0,0,-1,1378,848,0,0
161,176,0,0,0,0,0,0,0,0,0,-1,1385,848,0,0
168,176,0,0,0,0,0,0,0,0,0,-1,1392,848,0,0
175,176,0,0,0,0,0,0,0,0,0,-1,1399,848,0,0
182,176,0,0,0,0,0,0,0,0,0,-1,1406,848,0,0
189,176,0,0,0,0,0,0,0,0,0,-1,1413,848,0,0
196,176,0,0,0,0,0,0,0,0,0,-1,1420,848,0,0
203,176,0,0,0,0,0,0,0,0,0,-1,1427,848,0,0
210,176,0,0,0,0,0,0,0,0,0,-1,1434,848,0,0
217,176,0,0,0,0,0,0,0,0,0,-1,1441,848,0,0
224,176,0,0,0,0,0,0,0,0,0,-1,1448,848,0,0
231,176,0,0,0,0,0,0,0,0,0,-1,1455,848,0,0
238,176,0,0,0,0,0,0,0,0,0,-1,1462,848,0,0
245,176,0,0,0,0,0,0,0,0,0,-1,1469,848,0,0
252,176,0,0,0,0,0,0,0,0,0,-1,1476,848,0,0
259,176,0,0,0,0,0,0,0,0,0,-1,1483,848,0,0
266,176,0,0,0,0,0,0,0,0,0,-1,1490,848,0,0
273,176,0,0,0,0,0,0,0,0,0,-1,1497,848,0,0
280,176,0,0,0,0,0,0,0,0,0,-1,1504,848,0,0
287,176,0,0,0,0,0,0,0,0,0,-1,1511,848,0,0
294,176,0,0,0,0,0,0,0,0,0,-1,1518,848,0,0
301,176,0,0,0,0,0,0,0,0,0,-1,1525,848,0,0
308,176,0,0,0,0,0,0,0,0,0,-1,1532,848,0,0
315,176,0,0,0,0,0,0,0,0,0,-1,1539,848,0,0
322,176,0,0,0,0,0,0,0,0,0,-1,1546,848,0,0
329,176,0,0,0,0,0,0,0,0,0,-1,1553,848,0,0
336,176,0,0,0,0,0,0,0,0,0,-1,1560,848,0,0
343,176,0,0,0,0,0,0,0,0,0,-1,1567,848,0,0
350,176,0,0,0,0,0,0,0,0,0,-1,1574,848,0,0
357,176,0,0,0,0,0,0,0,0,0,-1,1581,848,0,0
364,176,0,0,0,0,0,0,0,0,0,-1,1588,848,0,0
371,176,0,0,0,0,0,0,0,0,0,-1,1595,848,0,0
378,176,0,0,0,0,0,0,0,0,0,-1,1602,848,0,0
385,176,0,0,0,0,0,0,0,0,0,-1,1609,848,0,0
392,176,0,0,0,0,0,0,0,0,0,-1,1616,848,0,0
399,176,0,0,0,0,0,0,0,0,0,-1,1623,848,0,0
406,176,0,0,0,0,0,0,0,0,0,-1,1630,848,0,0
413,176,0,0,0,0,0,0,0,0,0,-1,1637,848,0,0
420,176,0,0,0,0,0,0,0,0,0,-1,1644,848,0,0
427,176,0,0,0,0,0,0,0,0,0,-1,1651,848,0,0
434,176,0,0,0,0,0,0,0,0,0,-1,1658,848,0,0
441,176,0,0,0,0,0,0,0,0,0,-1,1665,848,0,0
448,176,0,0,0,0,0,0,0,0,0,-1,1672,848,0,0
455,176,0,0,0,0,0,0,0,0,0,-1,1679,848,0,0
462,176,0,0,0,0,0,0,0,0,0,-1,1686,848,0,0
469,176,0,0,0,0,0,0,0,0,0,-1,1693,848,0,0
476,176,0,0,0,0,0,0,0,0,0,-1,1700,848,0,0
483,176,0,0,0,0,0,0,0,0,0,-1,1707,848,0,0
490,176,0,0,0,0,0,0,0,0,0,-1,1714,848,0,0
497,176,0,0,0,0,0,0,0,0,0,-1,1721,848,0,0
504,176,0,0,0,0,0,0,0,0,0,-1,1728,848,0,0
511,176,0,0,0,0,0,0,0,0,0,-1,1735,848,0,0
518,176,0,0,0,0,0,0,0,0,0,-1,1742,848,0,0
525,176,0,0,0,0,0,0,0,0,0,-1,1749,848,0,0
532,176,0,0,0,0,0,0,0,0,0,-1,1756,848,0,0
539,176,0,0,0,0,0,0,0,0,0,-1,1763,848,0,0
546,176,0,0,0,0,0,0,0,0,0,-1,1770,848,0,0
553,176,0,0,0,0,0,0,0,0,0,-1,1777,848,0,0
560,176,0,0,0,0,0,0,0,0,0,-1,1784,848,0,0
567,176,0,0,0,0,0,0,0,0,0,-1,1791,848,0,0
574,176,0,0,0,0,0,0,0,0,0,-1,1798,848,0,0
581,176,0,0,0,0,0,0,0,0,0,-1,1805,848,0,0
588,176,0,0,0,0,0,0,0,0,0,-1,1812,848,0,0
595,176,0,0,0,0,0,0,0,0,0,-1,1819,848,0,0
602,176,0,0,0,0,0,0,0,0,0,-1,1826,848,0,0
609,176,74.5496,2.41272,0.00336879,-0.00453906,-0.00526146,0.0059964,-0.00716667,-0.463172,0.0076097,0.0391076,1833,848,74.5496,-2.41271
616,176,74.4202,2.43134,0.00242056,-0.00256633,-0.00341538,0.00415583,-0.00430161,-0.470089,0.00488315,0.0382992,1840,848,74.4202,-2.43134
623,176,74.6407,2.51587,0.00129876,-0.00096848,-0.00170153,0.00220972,-0.00187943,-0.491545,0.00236344,0.041867,1847,848,74.6408,-2.51589
630,176,74.7958,2.4425,0.00025601,0.000408332,-0.000187246,0.000534313,0.000130029,-0.978551,0.000321747,0.0421888,1854,848,74.7958,-2.44249
637,176,74.6985,2.31128,-0.000711889,0.00107475,0.000564855,0.00123835,-0.00087549,1.28888,0.00122641,0.0337999,1861,848,74.6984,-2.31129
644,176,74.5557,2.33575,-0.00138342,0.000915597,0.000736458,0.00113128,-0.0015991,1.2859,0.00158408,0.0322646,1868,848,74.5556,-2.33576
651,176,74.5486,2.38666,-0.00170937,0.000487476,0.000456336,0.000578496,-0.00180039,1.37392,0.00143257,0.0340322,1875,848,74.5486,-2.38668
658,176,74.5929,2.38593,0,0,0,0,0,0,0,-1,1882,848,74.5929,-2.38594
665,176,54.3333,2.34277,0,0,0,0,0,0,0,-1,1889,848,54.3333,-2.34279
672,176,16.9304,2.80719,0,0,0,0,0,0,0,-1,1896,848,16.9305,-2.80719
679,176,50.9341,0.315979,0,0,0,0,0,0,0,-1,1903,848,50.9341,-0.315984
686,176,60.5314,-0.085083,0,0,0,0,0,0,0,-1,1910,848,60.5314,0.0851042
693,176,60.5155,0.748291,-0.00189159,-0.000741218,-0.000951714,-0.000204378,-0.00242843,-1.05721,0.00155531,0.0351649,1917,848,60.5155,-0.748284
700,176,60.4114,1.7038,-0.00167369,-0.000848332,-0.0013956,0.000194328,-0.00271635,-0.929151,0.00187903,0.0417856,1924,848,60.4114,-1.7038
707,176,60.3601,2.4776,-0.00141306,-0.000779241,-0.00161954,0.000554108,-0.00274641,-0.882017,0.00204087,0.0304858,1931,848,60.3601,-2.47763
714,176,60.2003,3.19788,-0.000267619,-0.000199941,-0.00158813,0.00135471,-0.00182227,-0.79605,0.00184084,0.0151085,1938,848,60.2003,-3.19785
721,176,60.1809,4.02002,0.00134302,0.000611217,-0.00147386,0.00249571,-0.000541481,-0.663728,0.00187061,0.0145725,1945,848,60.1809,-4.02004
728,176,60.1124,4.88934,0.00333389,0.00152121,-0.00133521,0.00404132,0.000813787,-0.487221,0.00246808,0.0172629,1952,848,60.1124,-4.88933
735,176,60.0641,5.73541,0.00578671,0.00248849,-0.00134,0.00626249,0.00201271,-0.341176,0.00369174,0.01509,1959,848,60.0641,-5.73542
742,176,60.0156,6.58142,0.00854755,0.00339038,-0.0016086,0.00900816,0.00292977,-0.278879,0.00530571,0.0225047,1966,848,60.0156,-6.58144
749,176,60.3138,7.55853,0.0118057,0.00409015,-0.00222191,0.0123998,0.00349603,-0.261277,0.00738246,0.033976,1973,848,60.3139,-7.55853
756,176,60.7081,8.59479,0,0,0,0,0,0,0,-1,1980,848,60.7082,-8.59481
763,176,44.4343,7.70581,0,0,0,0,0,0,0,-1,1987,848,44.4343,-7.70578
770,176,36.4186,4.25641,0,0,0,0,0,0,0,-1,1994,848,36.4186,-4.25639
777,176,43.8328,7.50177,0,0,0,0,0,0,0,-1,2001,848,43.8328,-7.50178
784,176,0,0,0,0,0,0,0,0,0,-1,2008,848,0,0
791,176,0,0,0,0,0,0,0,0,0,-1,2015,848,0,0
798,176,0,0,0,0,0,0,0,0,0,-1,2022,848,0,0
805,176,0,0,0,0,0,0,0,0,0,-1,2029,848,0,0
812,176,0,0,0,0,0,0,0,0,0,-1,2036,848,0,0
-700,169,0,0,0,0,0,0,0,0,0,-1,524,855,0,0
-693,169,0,0,0,0,0,0,0,0,0,-1,531,855,0,0
-686,169,0,0,0,0,0,0,0,0,0,-1,538,855,0,0
-679,169,0,0,0,0,0,0,0,0,0,-1,545,855,0,0
-672,169,0,0,0,0,0,0,0,0,0,-1,552,855,0,0
-665,169,-50.4697,8.3269,0,0,0,0,0,0,0,-1,559,855,-50.4697,-8.32688
-658,169,-58.8608,8.22839,0,0,0,0,0,0,0,-1,566,855,-58.8608,-8.2284
-651,169,-45.7366,10.7646,0,0,0,0,0,0,0,-1,573,855,-45.7366,-10.7647
-644,169,-45.5977,10.3019,0,0,0,0,0,0,0,-1,580,855,-45.5977,-10.3019
-637,169,-45.5289,9.14014,0.0327877,0.0283269,-0.0210046,0.05168,0.00943456,-0.732503,0.0317788,0.0470078,587,855,-45.5289,-9.14013
-630,169,-45.4421,7.94122,0.0251353,0.0222491,-0.0159768,0.0397341,0.00765035,-0.740358,0.0243433,0.0443644,594,855,-45.4421,-7.94125
-623,169,-45.1408,6.87268,0.0175794,0.0165902,-0.0115713,0.0286667,0.00550287,-0.76404,0.0175665,0.0369821,601,855,-45.1408,-6.87269
-616,169,-45.0966,6.03979,0.0114084,0.0119819,-0.00754043,0.019241,0.00414924,-0.804403,0.0116923,0.0234403,608,855,-45.0965,-6.03979
-609,169,-45.1655,5.22711,0.0064453,0.00818115,-0.004101,0.0115051,0.00312139,-0.889678,0.00687015,0.0147188,615,855,-45.1655,-5.22712
-602,169,-45.2322,4.35779,0.0023968,0.00496218,-0.00115772,0.00540738,0.0019516,-1.20368,0.00316196,0.0145725,622,855,-45.2323,-4.35776
-595,169,-45.2637,3.49048,-0.000832461,0.00227466,0.00139171,0.00280687,-0.00136467,1.20555,0.00245594,0.0135716,629,855,-45.2637,-3.49051
-588,169,-45.2672,2.66754,-0.00328489,7.03772e-05,0.00353557,0.00230614,-0.00552066,1.00692,0.00464411,0.0121203,636,855,-45.2672,-2.66752
-581,169,-45.3633,1.8681,-0.00494985,-0.00141454,0.00525853,0.00236548,-0.00872987,0.94754,0.00674805,0.0269544,643,855,-45.3633,-1.86812
-574,169,-45.738,1.02368,-0.00497251,-0.00234948,0.00624534,0.00272057,-0.0100426,0.888894,0.00776247,0.0437159,650,855,-45.738,-1.0237
-567,169,-45.5367,0.163391,0,0,0,0,0,0,0,-1,657,855,-45.5367,-0.163417
-560,169,-45.5684,-0.578125,0,0,0,0,0,0,0,-1,664,855,-45.5684,0.578101
-553,169,-32.1944,-0.787964,0,0,0,0,0,0,0,-1,671,855,-32.1944,0.787959
-546,169,-19.0852,-1.05609,0,0,0,0,0,0,0,-1,678,855,-19.0852,1.05612
-539,169,-33.2307,1.10706,0,0,0,0,0,0,0,-1,685,855,-33.2307,-1.10708
-532,169,-57.7924,0.239685,0,0,0,0,0,0,0,-1,692,855,-57.7924,-0.239714
-525,169,-57.7692,0.252075,0,0,0,0,0,0,0,-1,699,855,-57.7692,-0.252054
-518,169,-57.7379,0.301514,0,0,0,0,0,0,0,-1,706,855,-57.7379,-0.301491
-511,169,-57.7415,0.472229,0,0,0,0,0,0,0,-1,713,855,-57.7414,-0.472239
-504,169,-57.9143,0.40863,0,0,0,0,0,0,0,-1,720,855,-57.9143,-0.408618
-497,169,-57.9742,0.436646,0,0,0,0,0,0,0,-1,727,855,-57.9742,-0.436667
-490,169,0,0,0,0,0,0,0,0,0,-1,734,855,0,0
-483,169,0,0,0,0,0,0,0,0,0,-1,741,855,0,0
-476,169,0,0,0,0,0,0,0,0,0,-1,748,855,0,0
-469,169,0,0,0,0,0,0,0,0,0,-1,755,855,0,0
-462,169,0,0,0,0,0,0,0,0,0,-1,762,855,0,0
-455,169,0,0,0,0,0,0,0,0,0,-1,769,855,0,0
-448,169,0,0,0,0,0,0,0,0,0,-1,776,855,0,0
-441,169,0,0,0,0,0,0,0,0,0,-1,783,855,0,0
-434,169,0,0,0,0,0,0,0,0,0,-1,790,855,0,0
-427,169,0,0,0,0,0,0,0,0,0,-1,797,855,0,0
-420,169,0,0,0,0,0,0,0,0,0,-1,804,855,0,0
-413,169,0,0,0,0,0,0,0,0,0,-1,811,855,0,0
-406,169,0,0,0,0,0,0,0,0,0,-1,818,855,0,0
-399,169,0,0,0,0,0,0,0,0,0,-1,825,855,0,0
-392,169,0,0,0,0,0,0,0,0,0,-1,832,855,0,0
-385,169,0,0,0,0,0,0,0,0,0,-1,839,855,0,0
-378,169,0,0,0,0,0,0,0,0,0,-1,846,855,0,0
-371,169,0,0,0,0,0,0,0,0,0,-1,853,855,0,0
-364,169,0,0,0,0,0,0,0,0,0,-1,860,855,0,0
-357,169,0,0,0,0,0,0,0,0,0,-1,867,855,0,0
-350,169,0,0,0,0,0,0,0,0,0,-1,874,855,0,0
-343,169,0,0,0,0,0,0,0,0,0,-1,881,855,0,0
-336,169,0,0,0,0,0,0,0,0,0,-1,888,855,0,0
-329,169,0,0,0,0,0,0,0,0,0,-1,895,855,0,0
-322,169,0,0,0,0,0,0,0,0,0,-1,902,855,0,0
-315,169,0,0,0,0,0,0,0,0,0,-1,909,855,0,0
-308,169,0,0,0,0,0,0,0,0,0,-1,916,855,0,0
-301,169,0,0,0,0,0,0,0,0,0,-1,923,855,0,0
-294,169,0,0,0,0,0,0,0,0,0,-1,930,855,0,0
-287,169,0,0,0,0,0,0,0,0,0,-1,937,855,0,0
-280,169,0,0,0,0,0,0,0,0,0,-1,944,855,0,0
-273,169,0,0,0,0,0,0,0,0,0,-1,951,855,0,0
-266,169,0,0,0,0,0,0,0,0,0,-1,958,855,0,0
-259,169,0,0,0,0,0,0,0,0,0,-1,965,855,0,0
-252,169,0,0,0,0,0,0,0,0,0,-1,972,855,0,0
-245,169,0,0,0,0,0,0,0,0,0,-1,979,855,0,0
-238,169,0,0,0,0,0,0,0,0,0,-1,986,855,0,0
-231,169,0,0,0,0,0,0,0,0,0,-1,993,855,0,0
-224,169,0,0,0,0,0,0,0,0,0,-1,1000,855,0,0
-217,169,0,0,0,0,0,0,0,0,0,-1,1007,855,0,0
-210,169,0,0,0,0,0,0,0,0,0,-1,1014,855,0,0
-203,169,0,0,0,0,0,0,0,0,0,-1,1021,855,0,0
-196,169,0,0,0,0,0,0,0,0,0,-1,1028,855,0,0
-189,169,0,0,0,0,0,0,0,0,0,-1,1035,855,0,0
-182,169,0,0,0,0,0,0,0,0,0,-1,1042,855,0,0
-175,169,0,0,0,0,0,0,0,0,0,-1,1049,855,0,0
-168,169,0,0,0,0,0,0,0,0,0,-1,1056,855,0,0
-161,169,0,0,0,0,0,0,0,0,0,-1,1063,855,0,0
-154,169,0,0,0,0,0,0,0,0,0,-1,1070,855,0,0
-147,169,0,0,0,0,0,0,0,0,0,-1,1077,855,0,0
-140,169,0,0,0,0,0,0,0,0,0,-1,1084,855,0,0
-133,169,0,0,0,0,0,0,0,0,0,-1,1091,855,0,0
-126,169,0,0,0,0,0,0,0,0,0,-1,1098,855,0,0
-119,169,0,0,0,0,0,0,0,0,0,-1,1105,855,0,0
-112,169,0,0,0,0,0,0,0,0,0,-1,1112,855,0,0
-105,169,0,0,0,0,0,0,0,0,0,-1,1119,855,0,0
-98,169,0,0,0,0,0,0,0,0,0,-1,1126,855,0,0
-91,169,0,0,0,0,0,0,0,0,0,-1,1133,855,0,0
-84,169,0,0,0,0,0,0,0,0,0,-1,1140,855,0,0
-77,169,0,0,0,0,0,0,0,0,0,-1,1147,855,0,0
-70,169,0,0,0,0,0,0,0,0,0,-1,1154,855,0,0
-63,169,0,0,0,0,0,0,0,0,0,-1,1161,855,0,0
-56,169,0,0,0,0,0,0,0,0,0,-1,1168,855,0,0
-49,169,0,0,0,0,0,0,0,0,0,-1,1175,855,0,0
-42,169,0,0,0,0,0,0,0,0,0,-1,1182,855,0,0
-35,169,0,0,0,0,0,0,0,0,0,-1,1189,855,0,0
-28,169,0,0,0,0,0,0,0,0,0,-1,1196,855,0,0
-21,169,0,0,0,0,0,0,0,0,0,-1,1203,855,0,0
-14,169,0,0,0,0,0,0,0,0,0,-1,1210,855,0,0
-7,169,0,0,0,0,0,0,0,0,0,-1,1217,855,0,0
0,169,0,0,0,0,0,0,0,0,0,-1,1224,855,0,0
7,169,0,0,0,0,0,0,0,0,0,-1,1231,855,0,0
14,169,0,0,0,0,0,0,0,0,0,-1,1238,855,0,0
21,169,0,0,0,0,0,0,0,0,0,-1,1245,855,0,0
28,169,0,0,0,0,0,0,0,0,0,-1,1252,855,0,0
35,169,0,0,0,0,0,0,0,0,0,-1,1259,855,0,0
42,169,0,0,0,0,0,0,0,0,0,-1,1266,855,0,0
49,169,0,0,0,0,0,0,0,0,0,-1,1273,855,0,0
56,169,0,0,0,0,0,0,0,0,0,-1,1280,855,0,0
63,169,0,0,0,0,0,0,0,0,0,-1,1287,855,0,0
70,169,0,0,0,0,0,0,0,0,0,-1,1294,855,0,0
77,169,0,0,0,0,0,0,0,0,0,-1,1301,855,0,0
84,169,0,0,0,0,0,0,0,0,0,-1,1308,855,0,0
91,169,0,0,0,0,0,0,0,0,0,-1,1315,855,0,0
98,169,0,0,0,0,0,0,0,0,0,-1,1322,855,0,0
105,169,0,0,0,0,0,0,0,0,0,-1,1329,855,0,0
112,169,0,0,0,0,0,0,0,0,0,-1,1336,855,0,0
119,169,0,0,0,0,0,0,0,0,0,-1,1343,855,0,0
126,169,0,0,0,0,0,0,0,0,0,-1,1350,855,0,0
133,169,0,0,0,0,0,0,0,0,0,-1,1357,855,0,0
140,169,0,0,0,0,0,0,0,0,0,-1,1364,855,0,0
147,169,0,0,0,0,0,0,0,0,0,-1,1371,855,0,0
154,169,0,0,0,0,0,0,0,0,0,-1,1378,855,0,0
161,169,0,0,0,0,0,0,0,0,0,-1,1385,855,0,0
168,169,0,0,0,0,0,0,0,0,0,-1,1392,855,0,0
175,169,0,0,0,0,0,0,0,0,0,-1,1399,855,0,0
182,169,0,0,0,0,0,0,0,0,0,-1,1406,855,0,0
189,169,0,0,0,0,0,0,0,0,0,-1,1413,855,0,0
196,169,0,0,0,0,0,0,0,0,0,-1,1420,855,0,0
203,169,0,0,0,0,0,0,0,0,0,-1,1427,855,0,0
210,169,0,0,0,0,0,0,0,0,0,-1,1434,855,0,0
217,169,0,0,0,0,0,0,0,0,0,-1,1441,855,0,0
224,169,0,0,0,0,0,0,0,0,0,-1,1448,855,0,0
231,169,0,0,0,0,0,0,0,0,0,-1,1455,855,0,0
238,169,0,0,0,0,0,0,0,0,0,-1,1462,855,0,0
245,169,0,0,0,0,0,0,0,0,0,-1,1469,855,0,0
252,169,0,0,0,0,0,0,0,0,0,-1,1476,855,0,0
259,169,0,0,0,0,0,0,0,0,0,-1,1483,855,0,0
266,169,0,0,0,0,0,0,0,0,0,-1,1490,855,0,0
273,169,0,0,0,0,0,0,0,0,0,-1,1497,855,0,0
280,169,0,0,0,0,0,0,0,0,0,-1,1504,855,0,0
287,169,0,0,0,0,0,0,0,0,0,-1,1511,855,0,0
294,169,0,0,0,0,0,0,0,0,0,-1,1518,855,0,0
301,169,0,0,0,0,0,0,0,0,0,-1,1525,855,0,0
308,169,0,0,0,0,0,0,0,0,0,-1,1532,855,0,0
315,169,0,0,0,0,0,0,0,0,0,-1,1539,855,0,0
322,169,0,0,0,0,0,0,0,0,0,-1,1546,855,0,0
329,169,0,0,0,0,0,0,0,0,0,-1,1553,855,0,0
336,169,0,0,0,0,0,0,0,0,0,-1,1560,855,0,0
343,169,0,0,0,0,0,0,0,0,0,-1,1567,855,0,0
350,169,0,0,0,0,0,0,0,0,0,-1,1574,855,0,0
357,169,0,0,0,0,0,0,0,0,0,-1,1581,855,0,0
364,169,0,0,0,0,0,0,0,0,0,-1,1588,855,0,0
371,169,0,0,0,0,0,0,0,0,0,-1,1595,855,0,0
378,169,0,0,0,0,0,0,0,0,0,-1,1602,855,0,0
385,169,0,0,0,0,0,0,0,0,0,-1,1609,855,0,0
392,169,0,0,0,0,0,0,0,0,0,-1,1616,855,0,0
399,169,0,0,0,0,0,0,0,0,0,-1,1623,855,0,0
406,169,0,0,0,0,0,0,0,0,0,-1,1630,855,0,0
413,169,0,0,0,0,0,0,0,0,0,-1,1637,855,0,0
420,169,0,0,0,0,0,0,0,0,0,-1,1644,855,0,0
427,169,0,0,0,0,0,0,0,0,0,-1,1651,855,0,0
434,169,0,0,0,0,0,0,0,0,0,-1,1658,855,0,0
441,169,0,0,0,0,0,0,0,0,0,-1,1665,855,0,0
448,169,0,0,0,0,0,0,0,0,0,-1,1672,855,0,0
455,169,0,0,0,0,0,0,0,0,0,-1,1679,855,0,0
462,169,0,0,0,0,0,0,0,0,0,-1,1686,855,0,0
469,169,0,0,0,0,0,0,0,0,0,-1,1693,855,0,0
476,169,0,0,0,0,0,0,0,0,0,-1,1700,855,0,0
483,169,0,0,0,0,0,0,0,0,0,-1,1707,855,0,0
490,169,0,0,0,0,0,0,0,0,0,-1,1714,855,0,0
497,169,0,0,0,0,0,0,0,0,0,-1,1721,855,0,0
504,169,0,0,0,0,0,0,0,0,0,-1,1728,855,0,0
511,169,0,0,0,0,0,0,0,0,0,-1,1735,855,0,0
518,169,0,0,0,0,0,0,0,0,0,-1,1742,855,0,0
525,169,0,0,0,0,0,0,0,0,0,-1,1749,855,0,0
532,169,0,0,0,0,0,0,0,0,0,-1,1756,855,0,0
539,169,0,0,0,0,0,0,0,0,0,-1,1763,855,0,0
546,169,0,0,0,0,0,0,0,0,0,-1,1770,855,0,0
553,169,0,0,0,0,0,0,0,0,0,-1,1777,855,0,0
560,169,0,0,0,0,0,0,0,0,0,-1,1784,855,0,0
567,169,0,0,0,0,0,0,0,0,0,-1,1791,855,0,0
574,169,0,0,0,0,0,0,0,0,0,-1,1798,855,0,0
581,169,0,0,0,0,0,0,0,0,0,-1,1805,855,0,0
588,169,0,0,0,0,0,0,0,0,0,-1,1812,855,0,0
595,169,0,0,0,0,0,0,0,0,0,-1,1819,855,0,0
602,169,0,0,0,0,0,0,0,0,0,-1,1826,855,0,0
609,169,0,0,0,0,0,0,0,0,0,-1,1833,855,0,0
616,169,74.5963,2.2934,0.00201974,-0.00285749,-0.00438081,0.00459494,-0.00543269,-0.531428,0.00579619,0.0401043,1840,855,74.5963,-2.29338
623,169,74.7452,2.23712,0.001054,-0.00127877,-0.00255674,0.00269784,-0.00292261,-0.571399,0.00324583,0.0458432,1847,855,74.7452,-2.2371
630,169,74.7866,2.06964,0.000186337,9.54185e-05,-0.000971316,0.00111326,-0.000831502,-0.762014,0.00112673,0.045784,1854,855,74.7866,-2.06965
637,169,74.6772,2.27179,-0.00066123,0.00100509,7.51813e-05,0.00100847,-0.000664615,1.5258,0.000972735,0.0378032,1861,855,74.6772,-2.2718
644,169,74.5365,2.42877,-0.00133932,0.00104393,0.000451171,0.00112648,-0.00142187,1.38983,0.00147458,0.0350095,1868,855,74.5364,-2.42877
651,169,74.5371,2.45618,-0.0017362,0.000694297,0.00027782,0.000725649,-0.00176755,1.45842,0.00148076,0.0365548,1875,855,74.5371,-2.45616
658,169,74.6357,2.354,0,0,0,0,0,0,0,-1,1882,855,74.6357,-2.35402
665,169,74.1068,1.9809,0,0,0,0,0,0,0,-1,1889,855,74.1069,-1.98093
672,169,31.2465,2.96387,0,0,0,0,0,0,0,-1,1896,855,31.2464,-2.9639
679,169,38.4297,1.08197,0,0,0,0,0,0,0,-1,1903,855,38.4296,-1.08194
686,169,61.3354,-0.0518799,0,0,0,0,0,0,0,-1,1910,855,61.3354,0.0519101
693,169,61.4963,0.871887,-0.0018851,-0.000458307,-0.00110446,0.000143122,-0.00248653,-1.07215,0.00170739,0.041137,1917,855,61.4964,-0.87191
700,169,61.512,1.82458,-0.00171352,-0.000548804,-0.00147208,0.000451927,-0.00271425,-0.973753,0.00197743,0.0341674,1924,855,61.5119,-1.82457
707,169,61.6868,2.87958,0,0,0,0,0,0,0,-1,1931,855,61.6868,-2.87961
714,169,61.0304,3.25336,-0.00067664,-0.000318833,-0.00180044,0.00131157,-0.00230704,-0.834919,0.00211539,0.0218532,1938,855,61.0304,-3.25333
721,169,61.0305,4.06244,0.000565732,0.000364938,-0.00180292,0.00227105,-0.00134038,-0.757584,0.00210801,0.0197703,1945,855,61.0305,-4.06242
728,169,60.9786,4.92706,0.00214526,0.00121676,-0.00181383,0.00355331,-0.000191291,-0.660113,0.00243514,0.0153205,1952,855,60.9786,-4.92709
735,169,60.912,5.79645,0.00423835,0.0021873,-0.00200122,0.00546151,0.000964141,-0.54862,0.00336597,0.0198058,1959,855,60.912,-5.79645
742,169,60.8892,6.63361,0.0066733,0.00315317,-0.00245415,0.00793328,0.00189319,-0.474317,0.00478432,0.0175718,1966,855,60.8892,-6.63359
749,169,60.8348,7.40228,0.00946963,0.00391965,-0.00331184,0.0110154,0.00237389,-0.436685,0.00669411,0.0283421,1973,855,60.8348,-7.40228
756,169,60.942,8.17261,0,0,0,0,0,0,0,-1,1980,855,60.9421,-8.17264
763,169,45.1978,7.5675,0,0,0,0,0,0,0,-1,1987,855,45.1977,-7.56751
770,169,37.2059,3.97021,0,0,0,0,0,0,0,-1,1994,855,37.2059,-3.97022
777,169,41.7505,8.7085,0,0,0,0,0,0,0,-1,2001,855,41.7505,-8.70852
784,169,40.7385,9.24359,0,0,0,0,0,0,0,-1,2008,855,40.7384,-9.24361
791,169,0,0,0,0,0,0,0,0,0,-1,2015,855,0,0
798,169,0,0,0,0,0,0,0,0,0,-1,2022,855,0,0
805,169,0,0,0,0,0,0,0,0,0,-1,2029,855,0,0
812,169,0,0,0,0,0,0,0,0,0,-1,2036,855,0,0
-700,162,0,0,0,0,0,0,0,0,0,-1,524,862,0,0
-693,162,0,0,0,0,0,0,0,0,0,-1,531,862,0,0
-686,162,0,0,0,0,0,0,0,0,0,-1,538,862,0,0
-679,162,0,0,0,0,0,0,0,0,0,-1,545,862,0,0
-672,162,0,0,0,0,0,0,0,0,0,-1,552,862,0,0
-665,162,-50.6751,7.18884,0,0,0,0,0,0,0,-1,559,862,-50.6751,-7.18885
-658,162,-50.7888,6.02673,0,0,0,0,0,0,0,-1,566,862,-50.7888,-6.02673
-651,162,-46.6468,10.7962,0,0,0,0,0,0,0,-1,573,862,-46.6468,-10.7962
-644,162,-46.5665,9.83966,0,0,0,0,0,0,0,-1,580,862,-46.5665,-9.83966
-637,162,-46.4473,8.89063,0.026703,0.0268155,-0.0181737,0.044933,0.00858543,-0.786946,0.0275432,0.0481387,587,862,-46.4474,-8.89065
-630,162,-46.3432,7.81628,0.020604,0.0212352,-0.0138383,0.0347616,0.00707767,-0.7968,0.0212125,0.0466246,594,862,-46.3432,-7.81631
-623,162,-45.8817,6.87604,0.0142447,0.0159028,-0.009878,0.0249865,0.00516104,-0.827264,0.0152316,0.0349568,601,862,-45.8817,-6.87606
-616,162,-45.8981,6.07654,0.0089217,0.0114501,-0.00613653,0.0164513,0.00392048,-0.886981,0.00992231,0.0213691,608,862,-45.8981,-6.07657
-609,162,-46.0139,5.24969,0.00454133,0.00765253,-0.00282498,0.0093219,0.00287197,-1.03707,0.00551256,0.0142801,615,862,-46.0138,-5.24968
-602,162,-46.1,4.40601,0.000876143,0.00430645,0.000145887,0.00431264,0.00086995,1.52837,0.00263345,0.0126018,622,862,-46.1,-4.40598
-595,162,-46.1164,3.56915,-0.00211833,0.00134179,0.00283565,0.00293348,-0.00371001,1.05931,0.00384435,0.0123698,629,862,-46.1164,-3.56914
-588,162,-46.1033,2.73114,-0.00445303,-0.00123785,0.00522397,0.00262029,-0.00831117,0.934666,0.0065902,0.0174846,636,862,-46.1033,-2.73116
-581,162,-46.4026,1.89441,-0.00601232,-0.00310472,0.00726703,0.0028525,-0.0119695,0.884122,0.00908111,0.0470367,643,862,-46.4026,-1.89443
-574,162,-46.5981,1.07513,0,0,0,0,0,0,0,-1,650,862,-46.5981,-1.07511
-567,162,-46.8726,0.0592041,0,0,0,0,0,0,0,-1,657,862,-46.8726,-0.0592269
-560,162,-36.5075,-0.831665,0,0,0,0,0,0,0,-1,664,862,-36.5075,0.831657
-553,162,-35.9823,-1.60956,0,0,0,0,0,0,0,-1,671,862,-35.9823,1.60954
-546,162,-22.8181,-1.51154,0,0,0,0,0,0,0,-1,678,862,-22.8181,1.51155
-539,162,-53.0229,0.9328,0,0,0,0,0,0,0,-1,685,862,-53.0229,-0.932798
-532,162,-57.7926,0.238342,0,0,0,0,0,0,0,-1,692,862,-57.7926,-0.238362
-525,162,-57.7696,0.290955,0,0,0,0,0,0,0,-1,699,862,-57.7696,-0.290944
-518,162,-57.7849,0.467285,0,0,0,0,0,0,0,-1,706,862,-57.7849,-0.467313
-511,162,-57.8782,0.645325,0,0,0,0,0,0,0,-1,713,862,-57.8782,-0.645297
-504,162,-58.1224,0.424438,0,0,0,0,0,0,0,-1,720,862,-58.1224,-0.424459
-497,162,-58.0167,0.451538,0,0,0,0,0,0,0,-1,727,862,-58.0167,-0.45156
-490,162,0,0,0,0,0,0,0,0,0,-1,734,862,0,0
-483,162,0,0,0,0,0,0,0,0,0,-1,741,862,0,0
-476,162,0,0,0,0,0,0,0,0,0,-1,748,862,0,0
-469,162,0,0,0,0,0,0,0,0,0,-1,755,862,0,0
-462,162,0,0,0,0,0,0,0,0,0,-1,762,862,0,0
-455,162,0,0,0,0,0,0,0,0,0,-1,769,862,0,0
-448,162,0,0,0,0,0,0,0,0,0,-1,776,862,0,0
-441,162,0,0,0,0,0,0,0,0,0,-1,783,862,0,0
-434,162,0,0,0,0,0,0,0,0,0,-1,790,862,0,0
-427,162,0,0,0,0,0,0,0,0,0,-1,797,862,0,0
-420,162,0,0,0,0,0,0,0,0,0,-1,804,862,0,0
-413,162,0,0,0,0,0,0,0,0,0,-1,811,862,0,0
-406,162,0,0,0,0,0,0,0,0,0,-1,818,862,0,0
-399,162,0,0,0,0,0,0,0,0,0,-1,825,862,0,0
-392,162,0,0,0,0,0,0,0,0,0,-1,832,862,0,0
-385,162,0,0,0,0,0,0,0,0,0,-1,839,862,0,0
-378,162,0,0,0,0,0,0,0,0,0,-1,846,862,0,0
-371,162,0,0,0,0,0,0,0,0,0,-1,853,862,0,0
-364,162,0,0,0,0,0,0,0,0,0,-1,860,862,0,0
-357,162,0,0,0,0,0,0,0,0,0,-1,867,862,0,0
-350,162,0,0,0,0,0,0,0,0,0,-1,874,862,0,0
-343,162,0,0,0,0,0,0,0,0,0,-1,881,862,0,0
-336,162,0,0,0,0,0,0,0,0,0,-1,888,862,0,0
-329,162,0,0,0,0,0,0,0,0,0,-1,895,862,0,0
-322,162,0,0,0,0,0,0,0,0,0,-1,902,862,0,0
-315,162,0,0,0,0,0,0,0,0,0,-1,909,862,0,0
-308,162,0,0,0,0,0,0,0,0,0,-1,916,862,0,0
-301,162,0,0,0,0,0,0,0,0,0,-1,923,862,0,0
-294,162,0,0,0,0,0,0,0,0,0,-1,930,862,0,0
-287,162,0,0,0,0,0,0,0,0,0,-1,937,862,0,0
-280,162,0,0,0,0,0,0,0,0,0,-1,944,862,0,0
-273,162,0,0,0,0,0,0,0,0,0,-1,951,862,0,0
-266,162,0,0,0,0,0,0,0,0,0,-1,958,862,0,0
-259,162,0,0,0,0,0,0,0,0,0,-1,965,862,0,0
-252,162,0,0,0,0,0,0,0,0,0,-1,972,862,0,0
-245,162,0,0,0,0,0,0,0,0,0,-1,979,862,0,0
-238,162,0,0,0,0,0,0,0,0,0,-1,986,862,0,0
-231,162,0,0,0,0,0,0,0,0,0,-1,993,862,0,0
-224,162,0,0,0,0,0,0,0,0,0,-1,1000,862,0,0
-217,162,0,0,0,0,0,0,0,0,0,-1,1007,862,0,0
-210,162,0,0,0,0,0,0,0,0,0,-1,1014,862,0,0
-203,162,0,0,0,0,0,0,0,0,0,-1,1021,862,0,0
-196,162,0,0,0,0,0,0,0,0,0,-1,1028,862,0,0
-189,162,0,0,0,0,0,0,0,0,0,-1,1035,862,0,0
-182,162,0,0,0,0,0,0,0,0,0,-1,1042,862,0,0
-175,162,0,0,0,0,0,0,0,0,0,-1,1049,862,0,0
-168,162,0,0,0,0,0,0,0,0,0,-1,1056,862,0,0
-161,162,0,0,0,0,0,0,0,0,0,-1,1063,862,0,0
-154,162,0,0,0,0,0,0,0,0,0,-1,1070,862,0,0
-147,162,0,0,0,0,0,0,0,0,0,-1,1077,862,0,0
-140,162,0,0,0,0,0,0,0,0,0,-1,1084,862,0,0
-133,162,0,0,0,0,0,0,0,0,0,-1,1091,862,0,0
-126,162,0,0,0,0,0,0,0,0,0,-1,1098,862,0,0
-119,162,0,0,0,0,0,0,0,0,0,-1,1105,862,0,0
-112,162,0,0,0,0,0,0,0,0,0,-1,1112,862,0,0
-105,162,0,0,0,0,0,0,0,0,0,-1,1119,862,0,0
-98,162,0,0,0,0,0,0,0,0,0,-1,1126,862,0,0
-91,162,0,0,0,0,0,0,0,0,0,-1,1133,862,0,0
-84,162,0,0,0,0,0,0,0,0,0,-1,1140,862,0,0
-77,162,0,0,0,0,0,0,0,0,0,-1,1147,862,0,0
-70,162,0,0,0,0,0,0,0,0,0,-1,1154,862,0,0
-63,162,0,0,0,0,0,0,0,0,0,-1,1161,862,0,0
-56,162,0,0,0,0,0,0,0,0,0,-1,1168,862,0,0
-49,162,0,0,0,0,0,0,0,0,0,-1,1175,862,0,0
-42,162,0,0,0,0,0,0,0,0,0,-1,1182,862,0,0
-35,162,0,0,0,0,0,0,0,0,0,-1,1189,862,0,0
-28,162,0,0,0,0,0,0,0,0,0,-1,1196,862,0,0
-21,162,0,0,0,0,0,0,0,0,0,-1,1203,862,0,0
-14,162,0,0,0,0,0,0,0,0,0,-1,1210,862,0,0
-7,162,0,0,0,0,0,0,0,0,0,-1,1217,862,0,0
0,162,0,0,0,0,0,0,0,0,0,-1,1224,862,0,0
7,162,0,0,0,0,0,0,0,0,0,-1,1231,862,0,0
14,162,0,0,0,0,0,0,0,0,0,-1,1238,862,0,0
21,162,0,0,0,0,0,0,0,0,0,-1,1245,862,0,0
28,162,0,0,0,0,0,0,0,0,0,-1,1252,862,0,0
35,162,0,0,0,0,0,0,0,0,0,-1,1259,862,0,0
42,162,0,0,0,0,0,0,0,0,0,-1,1266,862,0,0
49,162,0,0,0,0,0,0,0,0,0,-1,1273,862,0,0
56,162,0,0,0,0,0,0,0,0,0,-1,1280,862,0,0
63,162,0,0,0,0,0,0,0,0,0,-1,1287,862,0,0
70,162,0,0,0,0,0,0,0,0,0,-1,1294,862,0,0
77,162,0,0,0,0,0,0,0,0,0,-1,1301,862,0,0
84,162,0,0,0,0,0,0,0,0,0,-1,1308,862,0,0
91,162,0,0,0,0,0,0,0,0,0,-1,1315,862,0,0
98,162,0,0,0,0,0,0,0,0,0,-1,1322,862,0,0
105,162,0,0,0,0,0,0,0,0,0,-1,1329,862,0,0
112,162,0,0,0,0,0,0,0,0,0,-1,1336,862,0,0
119,162,0,0,0,0,0,0,0,0,0,-1,1343,862,0,0
126,162,0,0,0,0,0,0,0,0,0,-1,1350,862,0,0
133,162,0,0,0,0,0,0,0,0,0,-1,1357,862,0,0
140,162,0,0,0,0,0,0,0,0,0,-1,1364,862,0,0
147,162,0,0,0,0,0,0,0,0,0,-1,1371,862,0,0
154,162,0,0,0,0,0,0,0,0,0,-1,1378,862,0,0
161,162,0,0,0,0,0,0,0,0,0,-1,1385,862,0,0
168,162,0,0,0,0,0,0,0,0,0,-1,1392,862,0,0
175,162,0,0,0,0,0,0,0,0,0,-1,1399,862,0,0
182,162,0,0,0,0,0,0,0,0,0,-1,1406,862,0,0
189,162,0,0,0,0,0,0,0,0,0,-1,1413,862,0,0
196,162,0,0,0,0,0,0,0,0,0,-1,1420,862,0,0
203,162,0,0,0,0,0,0,0,0,0,-1,1427,862,0,0
210,162,0,0,0,0,0,0,0,0,0,-1,1434,862,0,0
217,162,0,0,0,0,0,0,0,0,0,-1,1441,862,0,0
224,162,0,0,0,0,0,0,0,0,0,-1,1448,862,0,0
231,162,0,0,0,0,0,0,0,0,0,-1,1455,862,0,0
238,162,0,0,0,0,0,0,0,0,0,-1,1462,862,0,0
245,162,0,0,0,0,0,0,0,0,0,-1,1469,862,0,0
252,162,0,0,0,0,0,0,0,0,0,-1,1476,862,0,0
259,162,0,0,0,0,0,0,0,0,0,-1,1483,862,0,0
266,162,0,0,0,0,0,0,0,0,0,-1,1490,862,0,0
273,162,0,0,0,0,0,0,0,0,0,-1,1497,862,0,0
280,162,0,0,0,0,0,0,0,0,0,-1,1504,862,0,0
287,162,0,0,0,0,0,0,0,0,0,-1,1511,862,0,0
294,162,0,0,0,0,0,0,0,0,0,-1,1518,862,0,0
301,162,0,0,0,0,0,0,0,0,0,-1,1525,862,0,0
308,162,0,0,0,0,0,0,0,0,0,-1,1532,862,0,0
315,162,0,0,0,0,0,0,0,0,0,-1,1539,862,0,0
322,162,0,0,0,0,0,0,0,0,0,-1,1546,862,0,0
329,162,0,0,0,0,0,0,0,0,0,-1,1553,862,0,0
336,162,0,0,0,0,0,0,0,0,0,-1,1560,862,0,0
343,162,0,0,0,0,0,0,0,0,0,-1,1567,862,0,0
350,162,0,0,0,0,0,0,0,0,0,-1,1574,862,0,0
357,162,0,0,0,0,0,0,0,0,0,-1,1581,862,0,0
364,162,0,0,0,0,0,0,0,0,0,-1,1588,862,0,0
371,162,0,0,0,0,0,0,0,0,0,-1,1595,862,0,0
378,162,0,0,0,0,0,0,0,0,0,-1,1602,862,0,0
385,162,0,0,0,0,0,0,0,0,0,-1,1609,862,0,0
392,162,0,0,0,0,0,0,0,0,0,-1,1616,862,0,0
399,162,0,0,0,0,0,0,0,0,0,-1,1623,862,0,0
406,162,0,0,0,0,0,0,0,0,0,-1,1630,862,0,0
413,162,0,0,0,0,0,0,0,0,0,-1,1637,862,0,0
420,162,0,0,0,0,0,0,0,0,0,-1,1644,862,0,0
427,162,0,0,0,0,0,0,0,0,0,-1,1651,862,0,0
434,162,0,0,0,0,0,0,0,0,0,-1,1658,862,0,0
441,162,0,0,0,0,0,0,0,0,0,-1,1665,862,0,0
448,162,0,0,0,0,0,0,0,0,0,-1,1672,862,0,0
455,162,0,0,0,0,0,0,0,0,0,-1,1679,862,0,0
462,162,0,0,0,0,0,0,0,0,0,-1,1686,862,0,0
469,162,0,0,0,0,0,0,0,0,0,-1,1693,862,0,0
476,162,0,0,0,0,0,0,0,0,0,-1,1700,862,0,0
483,162,0,0,0,0,0,0,0,0,0,-1,1707,862,0,0
490,162,0,0,0,0,0,0,0,0,0,-1,1714,862,0,0
497,162,0,0,0,0,0,0,0,0,0,-1,1721,862,0,0
504,162,0,0,0,0,0,0,0,0,0,-1,1728,862,0,0
511,162,0,0,0,0,0,0,0,0,0,-1,1735,862,0,0
518,162,0,0,0,0,0,0,0,0,0,-1,1742,862,0,0
525,162,0,0,0,0,0,0,0,0,0,-1,1749,862,0,0
532,162,0,0,0,0,0,0,0,0,0,-1,1756,862,0,0
539,162,0,0,0,0,0,0,0,0,0,-1,1763,862,0,0
546,162,0,0,0,0,0,0,0,0,0,-1,1770,862,0,0
553,162,0,0,0,0,0,0,0,0,0,-1,1777,862,0,0
560,162,0,0,0,0,0,0,0,0,0,-1,1784,862,0,0
567,162,0,0,0,0,0,0,0,0,0,-1,1791,862,0,0
574,162,0,0,0,0,0,0,0,0,0,-1,1798,862,0,0
581,162,0,0,0,0,0,0,0,0,0,-1,1805,862,0,0
588,162,0,0,0,0,0,0,0,0,0,-1,1812,862,0,0
595,162,0,0,0,0,0,0,0,0,0,-1,1819,862,0,0
602,162,0,0,0,0,0,0,0,0,0,-1,1826,862,0,0
609,162,0,0,0,0,0,0,0,0,0,-1,1833,862,0,0
616,162,74.6718,2.25519,0.00177413,-0.00335145,-0.00525833,0.00506095,-0.00663827,-0.558649,0.00677498,0.0436208,1840,862,74.6718,-2.25521
623,162,74.7565,2.216,0.000858534,-0.00174796,-0.00333217,0.00313325,-0.00402267,-0.598988,0.00414209,0.0473485,1847,862,74.7565,-2.21603
630,162,74.67,1.96771,5.95219e-05,-0.000347972,-0.0017069,0.0015748,-0.00186325,-0.725996,0.00198728,0.0448231,1854,862,74.67,-1.96769
637,162,74.5846,2.12848,-0.000674051,0.000752613,-0.000500335,0.000910588,-0.000832027,-1.26496,0.00100644,0.0409532,1861,862,74.5845,-2.12847
644,162,74.5643,2.33459,-0.00130333,0.00103717,7.41377e-05,0.00103951,-0.00130567,1.53916,0.0013569,0.0375079,1868,862,74.5643,-2.33461
651,162,74.619,2.36157,-0.00171209,0.000820182,5.55178e-05,0.000821399,-0.00171331,1.54889,0.00149331,0.0362851,1875,862,74.619,-2.36154
658,162,74.6527,2.30884,-0.00212343,0.000337503,-0.000334927,0.000382271,-0.0021682,-1.43792,0.0015883,0.0373832,1882,862,74.6527,-2.30882
665,162,74.593,2.31152,0,0,0,0,0,0,0,-1,1889,862,74.5931,-2.3115
672,162,56.9712,3.04034,0,0,0,0,0,0,0,-1,1896,862,56.9711,-3.04034
679,162,26.5077,2.54785,0,0,0,0,0,0,0,-1,1903,862,26.5077,-2.54787
686,162,61.8193,-0.184265,0,0,0,0,0,0,0,-1,1910,862,61.8193,0.184278
693,162,62.3704,1.03912,-0.0017582,-0.000243258,-0.00119153,0.000411191,-0.00241265,-1.06853,0.00176157,0.0464189,1917,862,62.3704,-1.03911
700,162,62.3616,1.83881,-0.00160473,-0.000241998,-0.0014493,0.000678112,-0.00252484,-1.00513,0.00194899,0.0464688,1924,862,62.3616,-1.83879
707,162,62.1859,2.61853,-0.00147236,-0.000442781,-0.00167117,0.000791088,-0.00270623,-0.934808,0.00211769,0.0320682,1931,862,62.1859,-2.6185
714,162,61.9086,3.23053,-0.00075233,-0.000281241,-0.00182934,0.00132765,-0.00236122,-0.849426,0.00215746,0.0369285,1938,862,61.9086,-3.23051
721,162,61.7751,4.17365,0.00014274,0.000279462,-0.0019433,0.0021556,-0.0017334,-0.80298,0.00224972,0.034284,1945,862,61.7751,-4.17364
728,162,61.7615,5.00378,0.00124465,0.00104538,-0.00208311,0.00323051,-0.000940477,-0.761502,0.00252621,0.0259348,1952,862,61.7615,-5.00377
735,162,61.7521,5.8382,0.00285446,0.00196216,-0.00243325,0.00488211,-6.55039e-05,-0.694727,0.0032768,0.0112634,1959,862,61.7521,-5.83822
742,162,61.7223,6.64136,0.00485101,0.00294161,-0.00304471,0.00708719,0.000705425,-0.633473,0.00450809,0.0125918,1966,862,61.7222,-6.64135
749,162,61.6478,7.42651,0.00709858,0.00373825,-0.00405106,0.00980409,0.00103275,-0.588821,0.00622045,0.0197326,1973,862,61.6478,-7.42653
756,162,61.5127,8.07513,0.00955623,0.00439879,-0.00570012,0.0132338,0.00072122,-0.572975,0.00859222,0.0450623,1980,862,61.5127,-8.07516
763,162,61.425,8.78052,0,0,0,0,0,0,0,-1,1987,862,61.4251,-8.7805
770,162,54.8257,9.36987,0,0,0,0,0,0,0,-1,1994,862,54.8256,-9.36988
777,162,54.9807,10.2266,0,0,0,0,0,0,0,-1,2001,862,54.9806,-10.2265
784,162,55.02,11.0949,0,0,0,0,0,0,0,-1,2008,862,55.0201,-11.0949
791,162,0,0,0,0,0,0,0,0,0,-1,2015,862,0,0
798,162,0,0,0,0,0,0,0,0,0,-1,2022,862,0,0
805,162,0,0,0,0,0,0,0,0,0,-1,2029,862,0,0
812,162,0,0,0,0,0,0,0,0,0,-1,2036,862,0,0
-700,155,0,0,0,0,0,0,0,0,0,-1,524,869,0,0
-693,155,0,0,0,0,0,0,0,0,0,-1,531,869,0,0
-686,155,0,0,0,0,0,0,0,0,0,-1,538,869,0,0
-679,155,0,0,0,0,0,0,0,0,0,-1,545,869,0,0
-672,155,0,0,0,0,0,0,0,0,0,-1,552,869,0,0
-665,155,-50.9639,6.01917,0,0,0,0,0,0,0,-1,559,869,-50.9639,-6.01917
-658,155,-51.2028,4.90723,0,0,0,0,0,0,0,-1,566,869,-51.2028,-4.90722
-651,155,-51.22,3.81226,0,0,0,0,0,0,0,-1,573,869,-51.2201,-3.81228
-644,155,-47.5779,9.1366,0,0,0,0,0,0,0,-1,580,869,-47.5779,-9.13658
-637,155,-47.4189,8.37805,0,0,0,0,0,0,0,-1,587,869,-47.4189,-8.37807
-630,155,-47.0968,7.63141,0,0,0,0,0,0,0,-1,594,869,-47.0968,-7.63138
-623,155,-46.6857,6.9566,0.010658,0.0150245,-0.00803676,0.0211693,0.00451325,-0.918026,0.0128749,0.0315433,601,869,-46.6857,-6.95663
-616,155,-46.7437,6.13397,0.00633958,0.0107526,-0.00462691,0.0136722,0.00342,-1.00789,0.00821562,0.0174359,608,869,-46.7436,-6.13395
-609,155,-46.8608,5.25836,0.00269734,0.00699532,-0.00150779,0.00747151,0.00222115,-1.26489,0.00443028,0.0155657,615,869,-46.8608,-5.25834
-602,155,-46.9327,4.42957,-0.000432249,0.00359325,0.00138852,0.00402573,-0.000864728,1.26885,0.0030137,0.01435,622,869,-46.9327,-4.42958
-595,155,-46.9899,3.61951,-0.00310317,0.000515303,0.0040771,0.00316657,-0.00575444,0.994223,0.00522229,0.0137786,629,869,-46.9899,-3.61952
-588,155,-46.9954,2.84375,-0.00534462,-0.00225888,0.00655809,0.00293538,-0.0105389,0.900928,0.00818183,0.0250729,636,869,-46.9954,-2.84374
-581,155,-47.3027,2.21405,-0.00691752,-0.00426288,0.00874678,0.00325672,-0.0144371,0.860698,0.0108741,0.0480818,643,869,-47.3027,-2.21407
-574,155,-47.5728,1.71344,0,0,0,0,0,0,0,-1,650,869,-47.5728,-1.71345
-567,155,-38.0134,0.582214,0,0,0,0,0,0,0,-1,657,869,-38.0134,-0.582192
-560,155,-37.1416,-0.708008,0,0,0,0,0,0,0,-1,664,869,-37.1416,0.70801
-553,155,-36.7729,-1.71521,0,0,0,0,0,0,0,-1,671,869,-36.7729,1.71523
-546,155,-22.7988,0.873657,0,0,0,0,0,0,0,-1,678,869,-22.7988,-0.873645
-539,155,-57.8889,-0.0574341,0,0,0,0,0,0,0,-1,685,869,-57.8889,0.0574642
-532,155,-57.7753,0.128357,0,0,0,0,0,0,0,-1,692,869,-57.7753,-0.128335
-525,155,-57.7692,0.306946,0,0,0,0,0,0,0,-1,699,869,-57.7692,-0.306975
-518,155,-57.7723,0.457214,0,0,0,0,0,0,0,-1,706,869,-57.7723,-0.457201
-511,155,-57.8808,0.572327,0,0,0,0,0,0,0,-1,713,869,-57.8808,-0.572325
-504,155,-58.0552,0.384277,0,0,0,0,0,0,0,-1,720,869,-58.0552,-0.38425
-497,155,0,0,0,0,0,0,0,0,0,-1,727,869,0,0
-490,155,0,0,0,0,0,0,0,0,0,-1,734,869,0,0
-483,155,0,0,0,0,0,0,0,0,0,-1,741,869,0,0
-476,155,0,0,0,0,0,0,0,0,0,-1,748,869,0,0
-469,155,0,0,0,0,0,0,0,0,0,-1,755,869,0,0
-462,155,0,0,0,0,0,0,0,0,0,-1,762,869,0,0
-455,155,0,0,0,0,0,0,0,0,0,-1,769,869,0,0
-448,155,0,0,0,0,0,0,0,0,0,-1,776,869,0,0
-441,155,0,0,0,0,0,0,0,0,0,-1,783,869,0,0
-434,155,0,0,0,0,0,0,0,0,0,-1,790,869,0,0
-427,155,0,0,0,0,0,0,0,0,0,-1,797,869,0,0
-420,155,0,0,0,0,0,0,0,0,0,-1,804,869,0,0
-413,155,0,0,0,0,0,0,0,0,0,-1,811,869,0,0
-406,155,0,0,0,0,0,0,0,0,0,-1,818,869,0,0
-399,155,0,0,0,0,0,0,0,0,0,-1,825,869,0,0
-392,155,0,0,0,0,0,0,0,0,0,-1,832,869,0,0
-385,155,0,0,0,0,0,0,0,0,0,-1,839,869,0,0
-378,155,0,0,0,0,0,0,0,0,0,-1,846,869,0,0
-371,155,0,0,0,0,0,0,0,0,0,-1,853,869,0,0
-364,155,0,0,0,0,0,0,0,0,0,-1,860,869,0,0
-357,155,0,0,0,0,0,0,0,0,0,-1,867,869,0,0
-350,155,0,0,0,0,0,0,0,0,0,-1,874,869,0,0
-343,155,0,0,0,0,0,0,0,0,0,-1,881,869,0,0
-336,155,0,0,0,0,0,0,0,0,0,-1,888,869,0,0
-329,155,0,0,0,0,0,0,0,0,0,-1,895,869,0,0
-322,155,0,0,0,0,0,0,0,0,0,-1,902,869,0,0
-315,155,0,0,0,0,0,0,0,0,0,-1,909,869,0,0
-308,155,0,0,0,0,0,0,0,0,0,-1,916,869,0,0
-301,155,0,0,0,0,0,0,0,0,0,-1,923,869,0,0
-294,155,0,0,0,0,0,0,0,0,0,-1,930,869,0,0
-287,155,0,0,0,0,0,0,0,0,0,-1,937,869,0,0
-280,155,0,0,0,0,0,0,0,0,0,-1,944,869,0,0
-273,155,0,0,0,0,0,0,0,0,0,-1,951,869,0,0
-266,155,0,0,0,0,0,0,0,0,0,-1,958,869,0,0
-259,155,0,0,0,0,0,0,0,0,0,-1,965,869,0,0
-252,155,0,0,0,0,0,0,0,0,0,-1,972,869,0,0
-245,155,0,0,0,0,0,0,0,0,0,-1,979,869,0,0
-238,155,0,0,0,0,0,0,0,0,0,-1,986,869,0,0
-231,155,0,0,0,0,0,0,0,0,0,-1,993,869,0,0
-224,155,0,0,0,0,0,0,0,0,0,-1,1000,869,0,0
-217,155,0,0,0,0,0,0,0,0,0,-1,1007,869,0,0
-210,155,0,0,0,0,0,0,0,0,0,-1,1014,869,0,0
-203,155,0,0,0,0,0,0,0,0,0,-1,1021,869,0,0
-196,155,0,0,0,0,0,0,0,0,0,-1,1028,869,0,0
-189,155,0,0,0,0,0,0,0,0,0,-1,1035,869,0,0
-182,155,0,0,0,0,0,0,0,0,0,-1,1042,869,0,0
-175,155,0,0,0,0,0,0,0,0,0,-1,1049,869,0,0
-168,155,0,0,0,0,0,0,0,0,0,-1,1056,869,0,0
-161,155,0,0,0,0,0,0,0,0,0,-1,1063,869,0,0
-154,155,0,0,0,0,0,0,0,0,0,-1,1070,869,0,0
-147,155,0,0,0,0,0,0,0,0,0,-1,1077,869,0,0
-140,155,0,0,0,0,0,0,0,0,0,-1,1084,869,0,0
-133,155,0,0,0,0,0,0,0,0,0,-1,1091,869,0,0
-126,155,0,0,0,0,0,0,0,0,0,-1,1098,869,0,0
-119,155,0,0,0,0,0,0,0,0,0,-1,1105,869,0,0
-112,155,0,0,0,0,0,0,0,0,0,-1,1112,869,0,0
-105,155,0,0,0,0,0,0,0,0,0,-1,1119,869,0,0
-98,155,0,0,0,0,0,0,0,0,0,-1,1126,869,0,0
-91,155,0,0,0,0,0,0,0,0,0,-1,1133,869,0,0
-84,155,0,0,0,0,0,0,0,0,0,-1,1140,869,0,0
-77,155,0,0,0,0,0,0,0,0,0,-1,1147,869,0,0
-70,155,0,0,0,0,0,0,0,0,0,-1,1154,869,0,0
-63,155,0,0,0,0,0,0,0,0,0,-1,1161,869,0,0
-56,155,0,0,0,0,0,0,0,0,0,-1,1168,869,0,0
-49,155,0,0,0,0,0,0,0,0,0,-1,1175,869,0,0
-42,155,0,0,0,0,0,0,0,0,0,-1,1182,869,0,0
-35,155,0,0,0,0,0,0,0,0,0,-1,1189,869,0,0
-28,155,0,0,0,0,0,0,0,0,0,-1,1196,869,0,0
-21,155,0,0,0,0,0,0,0,0,0,-1,1203,869,0,0
-14,155,0,0,0,0,0,0,0,0,0,-1,1210,869,0,0
-7,155,0,0,0,0,0,0,0,0,0,-1,1217,869,0,0
0,155,0,0,0,0,0,0,0,0,0,-1,1224,869,0,0
7,155,0,0,0,0,0,0,0,0,0,-1,1231,869,0,0
14,155,0,0,0,0,0,0,0,0,0,-1,1238,869,0,0
21,155,0,0,0,0,0,0,0,0,0,-1,1245,869,0,0
28,155,0,0,0,0,0,0,0,0,0,-1,1252,869,0,0
35,155,0,0,0,0,0,0,0,0,0,-1,1259,869,0,0
42,155,0,0,0,0,0,0,0,0,0,-1,1266,869,0,0
49,155,0,0,0,0,0,0,0,0,0,-1,1273,869,0,0
56,155,0,0,0,0,0,0,0,0,0,-1,1280,869,0,0
63,155,0,0,0,0,0,0,0,0,0,-1,1287,869,0,0
70,155,0,0,0,0,0,0,0,0,0,-1,1294,869,0,0
77,155,0,0,0,0,0,0,0,0,0,-1,1301,869,0,0
84,155,0,0,0,0,0,0,0,0,0,-1,1308,869,0,0
91,155,0,0,0,0,0,0,0,0,0,-1,1315,869,0,0
98,155,0,0,0,0,0,0,0,0,0,-1,1322,869,0,0
105,155,0,0,0,0,0,0,0,0,0,-1,1329,869,0,0
112,155,0,0,0,0,0,0,0,0,0,-1,1336,869,0,0
119,155,0,0,0,0,0,0,0,0,0,-1,1343,869,0,0
126,155,0,0,0,0,0,0,0,0,0,-1,1350,869,0,0
133,155,0,0,0,0,0,0,0,0,0,-1,1357,869,0,0
140,155,0,0,0,0,0,0,0,0,0,-1,1364,869,0,0
147,155,0,0,0,0,0,0,0,0,0,-1,1371,869,0,0
154,155,0,0,0,0,0,0,0,0,0,-1,1378,869,0,0
161,155,0,0,0,0,0,0,0,0,0,-1,1385,869,0,0
168,155,0,0,0,0,0,0,0,0,0,-1,1392,869,0,0
175,155,0,0,0,0,0,0,0,0,0,-1,1399,869,0,0
182,155,0,0,0,0,0,0,0,0,0,-1,1406,869,0,0
189,155,0,0,0,0,0,0,0,0,0,-1,1413,869,0,0
196,155,0,0,0,0,0,0,0,0,0,-1,1420,869,0,0
203,155,0,0,0,0,0,0,0,0,0,-1,1427,869,0,0
210,155,0,0,0,0,0,0,0,0,0,-1,1434,869,0,0
217,155,0,0,0,0,0,0,0,0,0,-1,1441,869,0,0
224,155,0,0,0,0,0,0,0,0,0,-1,1448,869,0,0
231,155,0,0,0,0,0,0,0,0,0,-1,1455,869,0,0
238,155,0,0,0,0,0,0,0,0,0,-1,1462,869,0,0
245,155,0,0,0,0,0,0,0,0,0,-1,1469,869,0,0
252,155,0,0,0,0,0,0,0,0,0,-1,1476,869,0,0
259,155,0,0,0,0,0,0,0,0,0,-1,1483,869,0,0
266,155,0,0,0,0,0,0,0,0,0,-1,1490,869,0,0
273,155,0,0,0,0,0,0,0,0,0,-1,1497,869,0,0
280,155,0,0,0,0,0,0,0,0,0,-1,1504,869,0,0
287,155,0,0,0,0,0,0,0,0,0,-1,1511,869,0,0
294,155,0,0,0,0,0,0,0,0,0,-1,1518,869,0,0
301,155,0,0,0,0,0,0,0,0,0,-1,1525,869,0,0
308,155,0,0,0,0,0,0,0,0,0,-1,1532,869,0,0
315,155,0,0,0,0,0,0,0,0,0,-1,1539,869,0,0
322,155,0,0,0,0,0,0,0,0,0,-1,1546,869,0,0
329,155,0,0,0,0,0,0,0,0,0,-1,1553,869,0,0
336,155,0,0,0,0,0,0,0,0,0,-1,1560,869,0,0
343,155,0,0,0,0,0,0,0,0,0,-1,1567,869,0,0
350,155,0,0,0,0,0,0,0,0,0,-1,1574,869,0,0
357,155,0,0,0,0,0,0,0,0,0,-1,1581,869,0,0
364,155,0,0,0,0,0,0,0,0,0,-1,1588,869,0,0
371,155,0,0,0,0,0,0,0,0,0,-1,1595,869,0,0
378,155,0,0,0,0,0,0,0,0,0,-1,1602,869,0,0
385,155,0,0,0,0,0,0,0,0,0,-1,1609,869,0,0
392,155,0,0,0,0,0,0,0,0,0,-1,1616,869,0,0
399,155,0,0,0,0,0,0,0,0,0,-1,1623,869,0,0
406,155,0,0,0,0,0,0,0,0,0,-1,1630,869,0,0
413,155,0,0,0,0,0,0,0,0,0,-1,1637,869,0,0
420,155,0,0,0,0,0,0,0,0,0,-1,1644,869,0,0
427,155,0,0,0,0,0,0,0,0,0,-1,1651,869,0,0
434,155,0,0,0,0,0,0,0,0,0,-1,1658,869,0,0
441,155,0,0,0,0,0,0,0,0,0,-1,1665,869,0,0
448,155,0,0,0,0,0,0,0,0,0,-1,1672,869,0,0
455,155,0,0,0,0,0,0,0,0,0,-1,1679,869,0,0
462,155,0,0,0,0,0,0,0,0,0,-1,1686,869,0,0
469,155,0,0,0,0,0,0,0,0,0,-1,1693,869,0,0
476,155,0,0,0,0,0,0,0,0,0,-1,1700,869,0,0
483,155,0,0,0,0,0,0,0,0,0,-1,1707,869,0,0
490,155,0,0,0,0,0,0,0,0,0,-1,1714,869,0,0
497,155,0,0,0,0,0,0,0,0,0,-1,1721,869,0,0
504,155,0,0,0,0,0,0,0,0,0,-1,1728,869,0,0
511,155,0,0,0,0,0,0,0,0,0,-1,1735,869,0,0
518,155,0,0,0,0,0,0,0,0,0,-1,1742,869,0,0
525,155,0,0,0,0,0,0,0,0,0,-1,1749,869,0,0
532,155,0,0,0,0,0,0,0,0,0,-1,1756,869,0,0
539,155,0,0,0,0,0,0,0,0,0,-1,1763,869,0,0
546,155,0,0,0,0,0,0,0,0,0,-1,1770,869,0,0
553,155,0,0,0,0,0,0,0,0,0,-1,1777,869,0,0
560,155,0,0,0,0,0,0,0,0,0,-1,1784,869,0,0
567,155,0,0,0,0,0,0,0,0,0,-1,1791,869,0,0
574,155,0,0,0,0,0,0,0,0,0,-1,1798,869,0,0
581,155,0,0,0,0,0,0,0,0,0,-1,1805,869,0,0
588,155,0,0,0,0,0,0,0,0,0,-1,1812,869,0,0
595,155,0,0,0,0,0,0,0,0,0,-1,1819,869,0,0
602,155,0,0,0,0,0,0,0,0,0,-1,1826,869,0,0
609,155,0,0,0,0,0,0,0,0,0,-1,1833,869,0,0
616,155,74.7419,2.26013,0.00159859,-0.00402156,-0.00546951,0.00493767,-0.00736064,-0.548096,0.00714622,0.0446013,1840,869,74.7419,-2.26015
623,155,74.6658,2.10858,0.000696067,-0.00243375,-0.00350193,0.00296684,-0.00470452,-0.575274,0.00446678,0.0461118,1847,869,74.6657,-2.10861
630,155,74.5371,1.87732,-5.23754e-05,-0.00103143,-0.00193363,0.00145273,-0.00253653,-0.661421,0.00233136,0.0462288,1854,869,74.5371,-1.87735
637,155,74.5273,2.07465,-0.000665551,0.000198529,-0.000777033,0.000655555,-0.00112258,-1.03912,0.00103834,0.0415893,1861,869,74.5273,-2.07466
644,155,74.6215,2.29401,-0.00120283,0.000744488,-0.000140694,0.0007546,-0.00121295,-1.49904,0.00114619,0.0371425,1868,869,74.6214,-2.294
651,155,74.6693,2.29492,-0.00158694,0.000743463,-4.12452e-05,0.000744193,-0.00158767,-1.5531,0.00137535,0.0353991,1875,869,74.6693,-2.29494
658,155,74.6558,2.26923,-0.00200643,0.000365786,-0.000365725,0.00042089,-0.00206154,-1.42125,0.00153402,0.029532,1882,869,74.6558,-2.2692
665,155,74.5732,2.28772,-0.00221362,0.000281995,-0.000442774,0.000358224,-0.00228985,-1.40031,0.00165891,0.0385234,1889,869,74.5732,-2.28771
672,155,74.5173,2.33167,0,0,0,0,0,0,0,-1,1896,869,74.5174,-2.33164
679,155,35.1565,2.78528,0,0,0,0,0,0,0,-1,1903,869,35.1565,-2.7853
686,155,43.6101,1.63361,0,0,0,0,0,0,0,-1,1910,869,43.6101,-1.63362
693,155,63.3635,1.25616,0,0,0,0,0,0,0,-1,1917,869,63.3636,-1.25615
700,155,63.0819,1.78369,0,0,0,0,0,0,0,-1,1924,869,63.0819,-1.78368
707,155,63.1304,2.75641,0,0,0,0,0,0,0,-1,1931,869,63.1304,-2.75639
714,155,62.8417,3.22229,0,0,0,0,0,0,0,-1,1938,869,62.8417,-3.22227
721,155,62.657,4.2348,-0.000117568,0.00028329,-0.00213952,0.00223175,-0.00206603,-0.832101,0.00248194,0.04719,1945,869,62.657,-4.23481
728,155,62.6716,5.08044,0.000505252,0.0010195,-0.00234167,0.00311812,-0.00159337,-0.840081,0.00276726,0.020047,1952,869,62.6716,-5.08045
735,155,62.6259,5.88654,0.00158825,0.00195453,-0.0027789,0.00455632,-0.00101354,-0.818303,0.00342574,0.0160677,1959,869,62.6258,-5.88656
742,155,62.5685,6.69293,0.0031127,0.00302345,-0.00348666,0.00655502,-0.000418866,-0.779,0.00451611,0.0182765,1966,869,62.5685,-6.69291
749,155,62.479,7.46259,0.00487896,0.00392549,-0.00454764,0.00897479,-0.000170339,-0.733174,0.00604077,0.0178451,1973,869,62.479,-7.46259
756,155,62.3716,8.26563,0.00679871,0.00473915,-0.00611964,0.0119746,-0.000436744,-0.702042,0.00813256,0.0305356,1980,869,62.3716,-8.26564
763,155,62.1641,8.87854,0.00861595,0.00527203,-0.00838902,0.015498,-0.00161002,-0.687035,0.0109083,0.0488773,1987,869,62.1642,-8.87856
770,155,61.8293,9.44342,0,0,0,0,0,0,0,-1,1994,869,61.8293,-9.4434
777,155,54.6055,10.1432,0,0,0,0,0,0,0,-1,2001,869,54.6055,-10.1433
784,155,54.8704,11.0088,0,0,0,0,0,0,0,-1,2008,869,54.8704,-11.0088
791,155,0,0,0,0,0,0,0,0,0,-1,2015,869,0,0
798,155,0,0,0,0,0,0,0,0,0,-1,2022,869,0,0
805,155,0,0,0,0,0,0,0,0,0,-1,2029,869,0,0
812,155,0,0,0,0,0,0,0,0,0,-1,2036,869,0,0
-700,148,0,0,0,0,0,0,0,0,0,-1,524,876,0,0
-693,148,0,0,0,0,0,0,0,0,0,-1,531,876,0,0
-686,148,0,0,0,0,0,0,0,0,0,-1,538,876,0,0
-679,148,0,0,0,0,0,0,0,0,0,-1,545,876,0,0
-672,148,-48.1407,-0.726746,0,0,0,0,0,0,0,-1,552,876,-48.1407,0.726755
-665,148,-48.2041,-3.97095,0,0,0,0,0,0,0,-1,559,876,-48.2041,3.97096
-658,148,-51.7661,3.82794,0,0,0,0,0,0,0,-1,566,876,-51.7661,-3.82797
-651,148,-52.0392,2.79663,0,0,0,0,0,0,0,-1,573,876,-52.0392,-2.79661
-644,148,-52.2687,1.81482,0,0,0,0,0,0,0,-1,580,876,-52.2687,-1.81482
-637,148,-52.5708,0.881165,0,0,0,0,0,0,0,-1,587,876,-52.5708,-0.88117
-630,148,-47.17,8.09918,0,0,0,0,0,0,0,-1,594,876,-47.17,-8.09916
-623,148,-47.3846,7.10095,0.00633603,0.0140733,-0.00555691,0.0169756,0.00343375,-1.08948,0.0103639,0.0300953,601,876,-47.3846,-7.10095
-616,148,-47.5767,6.14911,0.00334776,0.00995977,-0.00275345,0.0109562,0.00235131,-1.22357,0.0066602,0.0149813,608,876,-47.5767,-6.14912
-609,148,-47.7252,5.28479,0.000753795,0.00623058,-9.4171e-05,0.0062322,0.000752177,-1.55361,0.00392815,0.0144504,615,876,-47.7252,-5.28482
-602,148,-47.8157,4.46436,-0.0015713,0.00276945,0.00246844,0.00388598,-0.00268783,1.14601,0.00381635,0.0167764,622,876,-47.8156,-4.46435
-595,148,-47.8363,3.65558,-0.00367121,-0.000446547,0.00493686,0.0031346,-0.00725236,0.943233,0.00615199,0.0149761,629,876,-47.8363,-3.65557
-588,148,-47.8632,2.76587,-0.00558508,-0.00343332,0.00731588,0.00288537,-0.0119038,0.858405,0.00905224,0.034808,636,876,-47.8633,-2.76586
-581,148,-47.8604,2.54236,0,0,0,0,0,0,0,-1,643,876,-47.8603,-2.54239
-574,148,-47.358,1.59131,0,0,0,0,0,0,0,-1,650,876,-47.358,-1.59132
-567,148,-35.6293,0.615784,0,0,0,0,0,0,0,-1,657,876,-35.6293,-0.615792
-560,148,-37.7973,-0.588135,0,0,0,0,0,0,0,-1,664,876,-37.7973,0.588143
-553,148,-18.3896,-0.00280762,0,0,0,0,0,0,0,-1,671,876,-18.3897,0.00278524
-546,148,-57.8741,0.0328979,0,0,0,0,0,0,0,-1,678,876,-57.8742,-0.0329239
-539,148,-57.8029,0.0526123,0,0,0,0,0,0,0,-1,685,876,-57.8028,-0.0526125
-532,148,-57.7906,0.164551,0,0,0,0,0,0,0,-1,692,876,-57.7907,-0.164523
-525,148,-57.7697,0.293091,0,0,0,0,0,0,0,-1,699,876,-57.7697,-0.293106
-518,148,-57.7859,0.423218,0,0,0,0,0,0,0,-1,706,876,-57.7859,-0.423218
-511,148,-57.7974,0.532104,0,0,0,0,0,0,0,-1,713,876,-57.7974,-0.53212
-504,148,-57.8416,0.495239,0,0,0,0,0,0,0,-1,720,876,-57.8416,-0.495261
-497,148,0,0,0,0,0,0,0,0,0,-1,727,876,0,0
-490,148,0,0,0,0,0,0,0,0,0,-1,734,876,0,0
-483,148,0,0,0,0,0,0,0,0,0,-1,741,876,0,0
-476,148,0,0,0,0,0,0,0,0,0,-1,748,876,0,0
-469,148,0,0,0,0,0,0,0,0,0,-1,755,876,0,0
-462,148,0,0,0,0,0,0,0,0,0,-1,762,876,0,0
-455,148,0,0,0,0,0,0,0,0,0,-1,769,876,0,0
-448,148,0,0,0,0,0,0,0,0,0,-1,776,876,0,0
-441,148,0,0,0,0,0,0,0,0,0,-1,783,876,0,0
-434,148,0,0,0,0,0,0,0,0,0,-1,790,876,0,0
-427,148,0,0,0,0,0,0,0,0,0,-1,797,876,0,0
-420,148,0,0,0,0,0,0,0,0,0,-1,804,876,0,0
-413,148,0,0,0,0,0,0,0,0,0,-1,811,876,0,0
-406,148,0,0,0,0,0,0,0,0,0,-1,818,876,0,0
-399,148,0,0,0,0,0,0,0,0,0,-1,825,876,0,0
-392,148,0,0,0,0,0,0,0,0,0,-1,832,876,0,0
-385,148,0,0,0,0,0,0,0,0,0,-1,839,876,0,0
-378,148,0,0,0,0,0,0,0,0,0,-1,846,876,0,0
-371,148,0,0,0,0,0,0,0,0,0,-1,853,876,0,0
-364,148,0,0,0,0,0,0,0,0,0,-1,860,876,0,0
-357,148,0,0,0,0,0,0,0,0,0,-1,867,876,0,0
-350,148,0,0,0,0,0,0,0,0,0,-1,874,876,0,0
-343,148,0,0,0,0,0,0,0,0,0,-1,881,876,0,0
-336,148,0,0,0,0,0,0,0,0,0,-1,888,876,0,0
-329,148,0,0,0,0,0,0,0,0,0,-1,895,876,0,0
-322,148,0,0,0,0,0,0,0,0,0,-1,902,876,0,0
-315,148,0,0,0,0,0,0,0,0,0,-1,909,876,0,0
-308,148,0,0,0,0,0,0,0,0,0,-1,916,876,0,0
-301,148,0,0,0,0,0,0,0,0,0,-1,923,876,0,0
-294,148,0,0,0,0,0,0,0,0,0,-1,930,876,0,0
-287,148,0,0,0,0,0,0,0,0,0,-1,937,876,0,0
-280,148,0,0,0,0,0,0,0,0,0,-1,944,876,0,0
-273,148,0,0,0,0,0,0,0,0,0,-1,951,876,0,0
-266,148,0,0,0,0,0,0,0,0,0,-1,958,876,0,0
-259,148,0,0,0,0,0,0,0,0,0,-1,965,876,0,0
-252,148,0,0,0,0,0,0,0,0,0,-1,972,876,0,0
-245,148,0,0,0,0,0,0,0,0,0,-1,979,876,0,0
-238,148,0,0,0,0,0,0,0,0,0,-1,986,876,0,0
-231,148,0,0,0,0,0,0,0,0,0,-1,993,876,0,0
-224,148,0,0,0,0,0,0,0,0,0,-1,1000,876,0,0
-217,148,0,0,0,0,0,0,0,0,0,-1,1007,876,0,0
-210,148,0,0,0,0,0,0,0,0,0,-1,1014,876,0,0
-203,148,0,0,0,0,0,0,0,0,0,-1,1021,876,0,0
-196,148,0,0,0,0,0,0,0,0,0,-1,1028,876,0,0
-189,148,0,0,0,0,0,0,0,0,0,-1,1035,876,0,0
-182,148,0,0,0,0,0,0,0,0,0,-1,1042,876,0,0
-175,148,0,0,0,0,0,0,0,0,0,-1,1049,876,0,0
-168,148,0,0,0,0,0,0,0,0,0,-1,1056,876,0,0
-161,148,0,0,0,0,0,0,0,0,0,-1,1063,876,0,0
-154,148,0,0,0,0,0,0,0,0,0,-1,1070,876,0,0
-147,148,0,0,0,0,0,0,0,0,0,-1,1077,876,0,0
-140,148,0,0,0,0,0,0,0,0,0,-1,1084,876,0,0
-133,148,0,0,0,0,0,0,0,0,0,-1,1091,876,0,0
-126,148,0,0,0,0,0,0,0,0,0,-1,1098,876,0,0
-119,148,0,0,0,0,0,0,0,0,0,-1,1105,876,0,0
-112,148,0,0,0,0,0,0,0,0,0,-1,1112,876,0,0
-105,148,0,0,0,0,0,0,0,0,0,-1,1119,876,0,0
-98,148,0,0,0,0,0,0,0,0,0,-1,1126,876,0,0
-91,148,0,0,0,0,0,0,0,0,0,-1,1133,876,0,0
-84,148,0,0,0,0,0,0,0,0,0,-1,1140,876,0,0
-77,148,0,0,0,0,0,0,0,0,0,-1,1147,876,0,0
-70,148,0,0,0,0,0,0,0,0,0,-1,1154,876,0,0
-63,148,0,0,0,0,0,0,0,0,0,-1,1161,876,0,0
-56,148,0,0,0,0,0,0,0,0,0,-1,1168,876,0,0
-49,148,0,0,0,0,0,0,0,0,0,-1,1175,876,0,0
-42,148,0,0,0,0,0,0,0,0,0,-1,1182,876,0,0
-35,148,0,0,0,0,0,0,0,0,0,-1,1189,876,0,0
-28,148,0,0,0,0,0,0,0,0,0,-1,1196,876,0,0
-21,148,0,0,0,0,0,0,0,0,0,-1,1203,876,0,0
-14,148,0,0,0,0,0,0,0,0,0,-1,1210,876,0,0
-7,148,0,0,0,0,0,0,0,0,0,-1,1217,876,0,0
0,148,0,0,0,0,0,0,0,0,0,-1,1224,876,0,0
7,148,0,0,0,0,0,0,0,0,0,-1,1231,876,0,0
14,148,0,0,0,0,0,0,0,0,0,-1,1238,876,0,0
21,148,0,0,0,0,0,0,0,0,0,-1,1245,876,0,0
28,148,0,0,0,0,0,0,0,0,0,-1,1252,876,0,0
35,148,0,0,0,0,0,0,0,0,0,-1,1259,876,0,0
42,148,0,0,0,0,0,0,0,0,0,-1,1266,876,0,0
49,148,0,0,0,0,0,0,0,0,0,-1,1273,876,0,0
56,148,0,0,0,0,0,0,0,0,0,-1,1280,876,0,0
63,148,0,0,0,0,0,0,0,0,0,-1,1287,876,0,0
70,148,0,0,0,0,0,0,0,0,0,-1,1294,876,0,0
77,148,0,0,0,0,0,0,0,0,0,-1,1301,876,0,0
84,148,0,0,0,0,0,0,0,0,0,-1,1308,876,0,0
91,148,0,0,0,0,0,0,0,0,0,-1,1315,876,0,0
98,148,0,0,0,0,0,0,0,0,0,-1,1322,876,0,0
105,148,0,0,0,0,0,0,0,0,0,-1,1329,876,0,0
112,148,0,0,0,0,0,0,0,0,0,-1,1336,876,0,0
119,148,0,0,0,0,0,0,0,0,0,-1,1343,876,0,0
126,148,0,0,0,0,0,0,0,0,0,-1,1350,876,0,0
133,148,0,0,0,0,0,0,0,0,0,-1,1357,876,0,0
140,148,0,0,0,0,0,0,0,0,0,-1,1364,876,0,0
147,148,0,0,0,0,0,0,0,0,0,-1,1371,876,0,0
154,148,0,0,0,0,0,0,0,0,0,-1,1378,876,0,0
161,148,0,0,0,0,0,0,0,0,0,-1,1385,876,0,0
168,148,0,0,0,0,0,0,0,0,0,-1,1392,876,0,0
175,148,0,0,0,0,0,0,0,0,0,-1,1399,876,0,0
182,148,0,0,0,0,0,0,0,0,0,-1,1406,876,0,0
189,148,0,0,0,0,0,0,0,0,0,-1,1413,876,0,0
196,148,0,0,0,0,0,0,0,0,0,-1,1420,876,0,0
203,148,0,0,0,0,0,0,0,0,0,-1,1427,876,0,0
210,148,0,0,0,0,0,0,0,0,0,-1,1434,876,0,0
217,148,0,0,0,0,0,0,0,0,0,-1,1441,876,0,0
224,148,0,0,0,0,0,0,0,0,0,-1,1448,876,0,0
231,148,0,0,0,0,0,0,0,0,0,-1,1455,876,0,0
238,148,0,0,0,0,0,0,0,0,0,-1,1462,876,0,0
245,148,0,0,0,0,0,0,0,0,0,-1,1469,876,0,0
252,148,0,0,0,0,0,0,0,0,0,-1,1476,876,0,0
259,148,0,0,0,0,0,0,0,0,0,-1,1483,876,0,0
266,148,0,0,0,0,0,0,0,0,0,-1,1490,876,0,0
273,148,0,0,0,0,0,0,0,0,0,-1,1497,876,0,0
280,148,0,0,0,0,0,0,0,0,0,-1,1504,876,0,0
287,148,0,0,0,0,0,0,0,0,0,-1,1511,876,0,0
294,148,0,0,0,0,0,0,0,0,0,-1,1518,876,0,0
301,148,0,0,0,0,0,0,0,0,0,-1,1525,876,0,0
308,148,0,0,0,0,0,0,0,0,0,-1,1532,876,0,0
315,148,0,0,0,0,0,0,0,0,0,-1,1539,876,0,0
322,148,0,0,0,0,0,0,0,0,0,-1,1546,876,0,0
329,148,0,0,0,0,0,0,0,0,0,-1,1553,876,0,0
336,148,0,0,0,0,0,0,0,0,0,-1,1560,876,0,0
343,148,0,0,0,0,0,0,0,0,0,-1,1567,876,0,0
350,148,0,0,0,0,0,0,0,0,0,-1,1574,876,0,0
357,148,0,0,0,0,0,0,0,0,0,-1,1581,876,0,0
364,148,0,0,0,0,0,0,0,0,0,-1,1588,876,0,0
371,148,0,0,0,0,0,0,0,0,0,-1,1595,876,0,0
378,148,0,0,0,0,0,0,0,0,0,-1,1602,876,0,0
385,148,0,0,0,0,0,0,0,0,0,-1,1609,876,0,0
392,148,0,0,0,0,0,0,0,0,0,-1,1616,876,0,0
399,148,0,0,0,0,0,0,0,0,0,-1,1623,876,0,0
406,148,0,0,0,0,0,0,0,0,0,-1,1630,876,0,0
413,148,0,0,0,0,0,0,0,0,0,-1,1637,876,0,0
420,148,0,0,0,0,0,0,0,0,0,-1,1644,876,0,0
427,148,0,0,0,0,0,0,0,0,0,-1,1651,876,0,0
434,148,0,0,0,0,0,0,0,0,0,-1,1658,876,0,0
441,148,0,0,0,0,0,0,0,0,0,-1,1665,876,0,0
448,148,0,0,0,0,0,0,0,0,0,-1,1672,876,0,0
455,148,0,0,0,0,0,0,0,0,0,-1,1679,876,0,0
462,148,0,0,0,0,0,0,0,0,0,-1,1686,876,0,0
469,148,0,0,0,0,0,0,0,0,0,-1,1693,876,0,0
476,148,0,0,0,0,0,0,0,0,0,-1,1700,876,0,0
483,148,0,0,0,0,0,0,0,0,0,-1,1707,876,0,0
490,148,0,0,0,0,0,0,0,0,0,-1,1714,876,0,0
497,148,0,0,0,0,0,0,0,0,0,-1,1721,876,0,0
504,148,0,0,0,0,0,0,0,0,0,-1,1728,876,0,0
511,148,0,0,0,0,0,0,0,0,0,-1,1735,876,0,0
518,148,0,0,0,0,0,0,0,0,0,-1,1742,876,0,0
525,148,0,0,0,0,0,0,0,0,0,-1,1749,876,0,0
532,148,0,0,0,0,0,0,0,0,0,-1,1756,876,0,0
539,148,0,0,0,0,0,0,0,0,0,-1,1763,876,0,0
546,148,0,0,0,0,0,0,0,0,0,-1,1770,876,0,0
553,148,0,0,0,0,0,0,0,0,0,-1,1777,876,0,0
560,148,0,0,0,0,0,0,0,0,0,-1,1784,876,0,0
567,148,0,0,0,0,0,0,0,0,0,-1,1791,876,0,0
574,148,0,0,0,0,0,0,0,0,0,-1,1798,876,0,0
581,148,0,0,0,0,0,0,0,0,0,-1,1805,876,0,0
588,148,0,0,0,0,0,0,0,0,0,-1,1812,876,0,0
595,148,0,0,0,0,0,0,0,0,0,-1,1819,876,0,0
602,148,0,0,0,0,0,0,0,0,0,-1,1826,876,0,0
609,148,0,0,0,0,0,0,0,0,0,-1,1833,876,0,0
616,148,0,0,0,0,0,0,0,0,0,-1,1840,876,0,0
623,148,74.661,2.4444,0.000823591,-0.0028864,-0.00387589,0.00326552,-0.00532833,-0.562208,0.00500908,0.0436015,1847,876,74.661,-2.44441
630,148,74.5623,2.08887,7.24528e-05,-0.00152757,-0.00230265,0.00171011,-0.00316523,-0.618206,0.00285626,0.0439614,1854,876,74.5622,-2.08888
637,148,74.494,2.13843,-0.000518528,-0.000292601,-0.00117238,0.000772248,-0.00158338,-0.833427,0.00138664,0.037932,1861,876,74.4941,-2.13843
644,148,74.5487,2.24249,-0.00100477,0.000449433,-0.000465353,0.000585599,-0.00114093,-1.28613,0.00101386,0.0362899,1868,876,74.5487,-2.24248
651,148,74.6068,2.27087,-0.00136004,0.000690361,-0.000240248,0.000718135,-0.00138782,-1.4557,0.00123619,0.0388809,1875,876,74.6069,-2.27088
658,148,74.6489,2.30585,-0.00175057,0.000504367,-0.000465798,0.000596798,-0.001843,-1.37491,0.00146859,0.0352169,1882,876,74.6489,-2.30582
665,148,74.545,2.34637,-0.00192684,0.000438784,-0.000497016,0.000538964,-0.00202702,-1.3719,0.0015623,0.0262165,1889,876,74.545,-2.34638
672,148,74.462,2.3056,0,0,0,0,0,0,0,-1,1896,876,74.4621,-2.30562
679,148,74.366,2.40851,0,0,0,0,0,0,0,-1,1903,876,74.366,-2.4085
686,148,21.6195,2.40845,0,0,0,0,0,0,0,-1,1910,876,21.6196,-2.40846
693,148,48.1387,1.97351,0,0,0,0,0,0,0,-1,1917,876,48.1387,-1.97351
700,148,64.0187,2.37756,0,0,0,0,0,0,0,-1,1924,876,64.0187,-2.37759
707,148,63.9967,2.98206,0,0,0,0,0,0,0,-1,1931,876,63.9968,-2.98207
714,148,63.8662,3.63257,-0.000640626,-5.66837e-05,-0.00197712,0.0016499,-0.00234721,-0.858706,0.00231941,0.043672,1938,876,63.8662,-3.63257
721,148,63.5126,4.40656,-0.000175482,0.000358691,-0.00221214,0.00231981,-0.0021366,-0.845476,0.00257364,0.0347542,1945,876,63.5126,-4.40657
728,148,63.4998,5.15955,0.000127465,0.00107345,-0.00244936,0.00309507,-0.00189415,-0.880779,0.00290821,0.0227638,1952,876,63.4997,-5.15957
735,148,63.479,5.95508,0.00101393,0.00220008,-0.00296334,0.00462911,-0.0014151,-0.884162,0.00365038,0.0220103,1959,876,63.479,-5.95509
742,148,63.408,6.74188,0.00271566,0.00391084,-0.00379884,0.00715881,-0.000532312,-0.863413,0.00495951,0.0227807,1966,876,63.4079,-6.74187
749,148,63.2832,7.48273,0.00499652,0.00571921,-0.00495019,0.0103212,0.000394499,-0.821831,0.00675316,0.0215823,1973,876,63.2832,-7.48271
756,148,63.1437,8.32196,0.008086,0.00802806,-0.00655271,0.0146098,0.00150426,-0.783188,0.00927918,0.0266124,1980,876,63.1437,-8.32197
763,148,63.5137,9.00787,0.0121255,0.010985,-0.00875107,0.0203249,0.00278566,-0.752863,0.0127234,0.0462508,1987,876,63.5137,-9.00786
770,148,63.8557,9.71295,0,0,0,0,0,0,0,-1,1994,876,63.8556,-9.71293
777,148,62.2063,11.4755,0,0,0,0,0,0,0,-1,2001,876,62.2063,-11.4755
784,148,53.6711,11.5901,0,0,0,0,0,0,0,-1,2008,876,53.6711,-11.5901
791,148,57.4717,12.5975,0,0,0,0,0,0,0,-1,2015,876,57.4717,-12.5974
798,148,0,0,0,0,0,0,0,0,0,-1,2022,876,0,0
805,148,0,0,0,0,0,0,0,0,0,-1,2029,876,0,0
812,148,0,0,0,0,0,0,0,0,0,-1,2036,876,0,0
-700,141,0,0,0,0,0,0,0,0,0,-1,524,883,0,0
-693,141,0,0,0,0,0,0,0,0,0,-1,531,883,0,0
-686,141,0,0,0,0,0,0,0,0,0,-1,538,883,0,0
-679,141,0,0,0,0,0,0,0,0,0,-1,545,883,0,0
-672,141,-48.7804,-0.600891,0,0,0,0,0,0,0,-1,552,883,-48.7804,0.600898
-665,141,-48.764,-3.67065,0,0,0,0,0,0,0,-1,559,883,-48.764,3.67066
-658,141,-52.3438,3.12531,0,0,0,0,0,0,0,-1,566,883,-52.3438,-3.1253
-651,141,-53.1779,1.50293,0,0,0,0,0,0,0,-1,573,883,-53.1778,-1.50292
-644,141,-52.4205,-0.191956,0,0,0,0,0,0,0,-1,580,883,-52.4205,0.191941
-637,141,-52.859,0.400024,0,0,0,0,0,0,0,-1,587,883,-52.859,-0.400006
-630,141,-47.9099,8.05463,0,0,0,0,0,0,0,-1,594,883,-47.9099,-8.05464
-623,141,-48.1653,7.01208,0.00387482,0.0126292,-0.00398257,0.0141698,0.00233418,-1.20168,0.0087726,0.0361395,601,883,-48.1653,-7.01211
-616,141,-48.4351,6.10889,0.00129292,0.00875598,-0.00130801,0.00897858,0.00107031,-1.40222,0.00566277,0.0151114,608,883,-48.4351,-6.10886
-609,141,-48.5737,5.31403,-0.000773478,0.00530494,0.00108539,0.00549294,-0.000961476,1.39929,0.00402095,0.0153965,615,883,-48.5738,-5.31404
-602,141,-48.6381,4.50385,-0.00269899,0.00201669,0.0033266,0.00373631,-0.0044186,1.0937,0.00471373,0.0169208,622,883,-48.6381,-4.50384
-595,141,-48.5964,3.66846,-0.00464578,-0.0013125,0.00543861,0.0027091,-0.00866738,0.934078,0.00686193,0.0209808,629,883,-48.5964,-3.66845
-588,141,-49.071,2.81146,-0.00671694,-0.00453473,0.00754909,0.00200171,-0.0132534,0.857168,0.00957283,0.0401251,636,883,-49.071,-2.81148
-581,141,-49.4827,1.92572,0,0,0,0,0,0,0,-1,643,883,-49.4827,-1.92571
-574,141,-42.7302,0.864685,0,0,0,0,0,0,0,-1,650,883,-42.7301,-0.864692
-567,141,-30.5335,0.480103,0,0,0,0,0,0,0,-1,657,883,-30.5335,-0.480081
-560,141,-30.5542,0.23175,0,0,0,0,0,0,0,-1,664,883,-30.5542,-0.231742
-553,141,-32.0876,1.39459,0,0,0,0,0,0,0,-1,671,883,-32.0876,-1.3946
-546,141,-57.7534,0.11792,0,0,0,0,0,0,0,-1,678,883,-57.7534,-0.117899
-539,141,-57.7643,0.176819,0,0,0,0,0,0,0,-1,685,883,-57.7643,-0.176813
-532,141,-57.7966,0.198792,0,0,0,0,0,0,0,-1,692,883,-57.7966,-0.198795
-525,141,-57.7836,0.258606,0,0,0,0,0,0,0,-1,699,883,-57.7836,-0.258611
-518,141,-57.7711,0.387634,0,0,0,0,0,0,0,-1,706,883,-57.7711,-0.387643
-511,141,-57.7804,0.371765,0,0,0,0,0,0,0,-1,713,883,-57.7804,-0.371754
-504,141,-57.7206,0.495361,0,0,0,0,0,0,0,-1,720,883,-57.7206,-0.495352
-497,141,0,0,0,0,0,0,0,0,0,-1,727,883,0,0
-490,141,0,0,0,0,0,0,0,0,0,-1,734,883,0,0
-483,141,0,0,0,0,0,0,0,0,0,-1,741,883,0,0
-476,141,0,0,0,0,0,0,0,0,0,-1,748,883,0,0
-469,141,0,0,0,0,0,0,0,0,0,-1,755,883,0,0
-462,141,0,0,0,0,0,0,0,0,0,-1,762,883,0,0
-455,141,0,0,0,0,0,0,0,0,0,-1,769,883,0,0
-448,141,0,0,0,0,0,0,0,0,0,-1,776,883,0,0
-441,141,0,0,0,0,0,0,0,0,0,-1,783,883,0,0
-434,141,0,0,0,0,0,0,0,0,0,-1,790,883,0,0
-427,141,0,0,0,0,0,0,0,0,0,-1,797,883,0,0
-420,141,0,0,0,0,0,0,0,0,0,-1,804,883,0,0
-413,141,0,0,0,0,0,0,0,0,0,-1,811,883,0,0
-406,141,0,0,0,0,0,0,0,0,0,-1,818,883,0,0
-399,141,0,0,0,0,0,0,0,0,0,-1,825,883,0,0
-392,141,0,0,0,0,0,0,0,0,0,-1,832,883,0,0
-385,141,0,0,0,0,0,0,0,0,0,-1,839,883,0,0
-378,141,0,0,0,0,0,0,0,0,0,-1,846,883,0,0
-371,141,0,0,0,0,0,0,0,0,0,-1,853,883,0,0
-364,141,0,0,0,0,0,0,0,0,0,-1,860,883,0,0
-357,141,0,0,0,0,0,0,0,0,0,-1,867,883,0,0
-350,141,0,0,0,0,0,0,0,0,0,-1,874,883,0,0
-343,141,0,0,0,0,0,0,0,0,0,-1,881,883,0,0
-336,141,0,0,0,0,0,0,0,0,0,-1,888,883,0,0
-329,141,0,0,0,0,0,0,0,0,0,-1,895,883,0,0
-322,141,0,0,0,0,0,0,0,0,0,-1,902,883,0,0
-315,141,0,0,0,0,0,0,0,0,0,-1,909,883,0,0
-308,141,0,0,0,0,0,0,0,0,0,-1,916,883,0,0
-301,141,0,0,0,0,0,0,0,0,0,-1,923,883,0,0
-294,141,0,0,0,0,0,0,0,0,0,-1,930,883,0,0
-287,141,0,0,0,0,0,0,0,0,0,-1,937,883,0,0
-280,141,0,0,0,0,0,0,0,0,0,-1,944,883,0,0
-273,141,0,0,0,0,0,0,0,0,0,-1,951,883,0,0
-266,141,0,0,0,0,0,0,0,0,0,-1,958,883,0,0
-259,141,0,0,0,0,0,0,0,0,0,-1,965,883,0,0
-252,141,0,0,0,0,0,0,0,0,0,-1,972,883,0,0
-245,141,0,0,0,0,0,0,0,0,0,-1,979,883,0,0
-238,141,0,0,0,0,0,0,0,0,0,-1,986,883,0,0
-231,141,0,0,0,0,0,0,0,0,0,-1,993,883,0,0
-224,141,0,0,0,0,0,0,0,0,0,-1,1000,883,0,0
-217,141,0,0,0,0,0,0,0,0,0,-1,1007,883,0,0
-210,141,0,0,0,0,0,0,0,0,0,-1,1014,883,0,0
-203,141,0,0,0,0,0,0,0,0,0,-1,1021,883,0,0
-196,141,0,0,0,0,0,0,0,0,0,-1,1028,883,0,0
-189,141,0,0,0,0,0,0,0,0,0,-1,1035,883,0,0
-182,141,0,0,0,0,0,0,0,0,0,-1,1042,883,0,0
-175,141,0,0,0,0,0,0,0,0,0,-1,1049,883,0,0
-168,141,0,0,0,0,0,0,0,0,0,-1,1056,883,0,0
-161,141,0,0,0,0,0,0,0,0,0,-1,1063,883,0,0
-154,141,0,0,0,0,0,0,0,0,0,-1,1070,883,0,0
-147,141,0,0,0,0,0,0,0,0,0,-1,1077,883,0,0
-140,141,0,0,0,0,0,0,0,0,0,-1,1084,883,0,0
-133,141,0,0,0,0,0,0,0,0,0,-1,1091,883,0,0
-126,141,0,0,0,0,0,0,0,0,0,-1,1098,883,0,0
-119,141,0,0,0,0,0,0,0,0,0,-1,1105,883,0,0
-112,141,0,0,0,0,0,0,0,0,0,-1,1112,883,0,0
-105,141,0,0,0,0,0,0,0,0,0,-1,1119,883,0,0
-98,141,0,0,0,0,0,0,0,0,0,-1,1126,883,0,0
-91,141,0,0,0,0,0,0,0,0,0,-1,1133,883,0,0
-84,141,0,0,0,0,0,0,0,0,0,-1,1140,883,0,0
-77,141,0,0,0,0,0,0,0,0,0,-1,1147,883,0,0
-70,141,0,0,0,0,0,0,0,0,0,-1,1154,883,0,0
-63,141,0,0,0,0,0,0,0,0,0,-1,1161,883,0,0
-56,141,0,0,0,0,0,0,0,0,0,-1,1168,883,0,0
-49,141,0,0,0,0,0,0,0,0,0,-1,1175,883,0,0
-42,141,0,0,0,0,0,0,0,0,0,-1,1182,883,0,0
-35,141,0,0,0,0,0,0,0,0,0,-1,1189,883,0,0
-28,141,0,0,0,0,0,0,0,0,0,-1,1196,883,0,0
-21,141,0,0,0,0,0,0,0,0,0,-1,1203,883,0,0
-14,141,0,0,0,0,0,0,0,0,0,-1,1210,883,0,0
-7,141,0,0,0,0,0,0,0,0,0,-1,1217,883,0,0
0,141,0,0,0,0,0,0,0,0,0,-1,1224,883,0,0
7,141,0,0,0,0,0,0,0,0,0,-1,1231,883,0,0
14,141,0,0,0,0,0,0,0,0,0,-1,1238,883,0,0
21,141,0,0,0,0,0,0,0,0,0,-1,1245,883,0,0
28,141,0,0,0,0,0,0,0,0,0,-1,1252,883,0,0
35,141,0,0,0,0,0,0,0,0,0,-1,1259,883,0,0
42,141,0,0,0,0,0,0,0,0,0,-1,1266,883,0,0
49,141,0,0,0,0,0,0,0,0,0,-1,1273,883,0,0
56,141,0,0,0,0,0,0,0,0,0,-1,1280,883,0,0
63,141,0,0,0,0,0,0,0,0,0,-1,1287,883,0,0
70,141,0,0,0,0,0,0,0,0,0,-1,1294,883,0,0
77,141,0,0,0,0,0,0,0,0,0,-1,1301,883,0,0
84,141,0,0,0,0,0,0,0,0,0,-1,1308,883,0,0
91,141,0,0,0,0,0,0,0,0,0,-1,1315,883,0,0
98,141,0,0,0,0,0,0,0,0,0,-1,1322,883,0,0
105,141,0,0,0,0,0,0,0,0,0,-1,1329,883,0,0
112,141,0,0,0,0,0,0,0,0,0,-1,1336,883,0,0
119,141,0,0,0,0,0,0,0,0,0,-1,1343,883,0,0
126,141,0,0,0,0,0,0,0,0,0,-1,1350,883,0,0
133,141,0,0,0,0,0,0,0,0,0,-1,1357,883,0,0
140,141,0,0,0,0,0,0,0,0,0,-1,1364,883,0,0
147,141,0,0,0,0,0,0,0,0,0,-1,1371,883,0,0
154,141,0,0,0,0,0,0,0,0,0,-1,1378,883,0,0
161,141,0,0,0,0,0,0,0,0,0,-1,1385,883,0,0
168,141,0,0,0,0,0,0,0,0,0,-1,1392,883,0,0
175,141,0,0,0,0,0,0,0,0,0,-1,1399,883,0,0
182,141,0,0,0,0,0,0,0,0,0,-1,1406,883,0,0
189,141,0,0,0,0,0,0,0,0,0,-1,1413,883,0,0
196,141,0,0,0,0,0,0,0,0,0,-1,1420,883,0,0
203,141,0,0,0,0,0,0,0,0,0,-1,1427,883,0,0
210,141,0,0,0,0,0,0,0,0,0,-1,1434,883,0,0
217,141,0,0,0,0,0,0,0,0,0,-1,1441,883,0,0
224,141,0,0,0,0,0,0,0,0,0,-1,1448,883,0,0
231,141,0,0,0,0,0,0,0,0,0,-1,1455,883,0,0
238,141,0,0,0,0,0,0,0,0,0,-1,1462,883,0,0
245,141,0,0,0,0,0,0,0,0,0,-1,1469,883,0,0
252,141,0,0,0,0,0,0,0,0,0,-1,1476,883,0,0
259,141,0,0,0,0,0,0,0,0,0,-1,1483,883,0,0
266,141,0,0,0,0,0,0,0,0,0,-1,1490,883,0,0
273,141,0,0,0,0,0,0,0,0,0,-1,1497,883,0,0
280,141,0,0,0,0,0,0,0,0,0,-1,1504,883,0,0
287,141,0,0,0,0,0,0,0,0,0,-1,1511,883,0,0
294,141,0,0,0,0,0,0,0,0,0,-1,1518,883,0,0
301,141,0,0,0,0,0,0,0,0,0,-1,1525,883,0,0
308,141,0,0,0,0,0,0,0,0,0,-1,1532,883,0,0
315,141,0,0,0,0,0,0,0,0,0,-1,1539,883,0,0
322,141,0,0,0,0,0,0,0,0,0,-1,1546,883,0,0
329,141,0,0,0,0,0,0,0,0,0,-1,1553,883,0,0
336,141,0,0,0,0,0,0,0,0,0,-1,1560,883,0,0
343,141,0,0,0,0,0,0,0,0,0,-1,1567,883,0,0
350,141,0,0,0,0,0,0,0,0,0,-1,1574,883,0,0
357,141,0,0,0,0,0,0,0,0,0,-1,1581,883,0,0
364,141,0,0,0,0,0,0,0,0,0,-1,1588,883,0,0
371,141,0,0,0,0,0,0,0,0,0,-1,1595,883,0,0
378,141,0,0,0,0,0,0,0,0,0,-1,1602,883,0,0
385,141,0,0,0,0,0,0,0,0,0,-1,1609,883,0,0
392,141,0,0,0,0,0,0,0,0,0,-1,1616,883,0,0
399,141,0,0,0,0,0,0,0,0,0,-1,1623,883,0,0
406,141,0,0,0,0,0,0,0,0,0,-1,1630,883,0,0
413,141,0,0,0,0,0,0,0,0,0,-1,1637,883,0,0
420,141,0,0,0,0,0,0,0,0,0,-1,1644,883,0,0
427,141,0,0,0,0,0,0,0,0,0,-1,1651,883,0,0
434,141,0,0,0,0,0,0,0,0,0,-1,1658,883,0,0
441,141,0,0,0,0,0,0,0,0,0,-1,1665,883,0,0
448,141,0,0,0,0,0,0,0,0,0,-1,1672,883,0,0
455,141,0,0,0,0,0,0,0,0,0,-1,1679,883,0,0
462,141,0,0,0,0,0,0,0,0,0,-1,1686,883,0,0
469,141,0,0,0,0,0,0,0,0,0,-1,1693,883,0,0
476,141,0,0,0,0,0,0,0,0,0,-1,1700,883,0,0
483,141,0,0,0,0,0,0,0,0,0,-1,1707,883,0,0
490,141,0,0,0,0,0,0,0,0,0,-1,1714,883,0,0
497,141,0,0,0,0,0,0,0,0,0,-1,1721,883,0,0
504,141,0,0,0,0,0,0,0,0,0,-1,1728,883,0,0
511,141,0,0,0,0,0,0,0,0,0,-1,1735,883,0,0
518,141,0,0,0,0,0,0,0,0,0,-1,1742,883,0,0
525,141,0,0,0,0,0,0,0,0,0,-1,1749,883,0,0
532,141,0,0,0,0,0,0,0,0,0,-1,1756,883,0,0
539,141,0,0,0,0,0,0,0,0,0,-1,1763,883,0,0
546,141,0,0,0,0,0,0,0,0,0,-1,1770,883,0,0
553,141,0,0,0,0,0,0,0,0,0,-1,1777,883,0,0
560,141,0,0,0,0,0,0,0,0,0,-1,1784,883,0,0
567,141,0,0,0,0,0,0,0,0,0,-1,1791,883,0,0
574,141,0,0,0,0,0,0,0,0,0,-1,1798,883,0,0
581,141,0,0,0,0,0,0,0,0,0,-1,1805,883,0,0
588,141,0,0,0,0,0,0,0,0,0,-1,1812,883,0,0
595,141,0,0,0,0,0,0,0,0,0,-1,1819,883,0,0
602,141,0,0,0,0,0,0,0,0,0,-1,1826,883,0,0
609,141,0,0,0,0,0,0,0,0,0,-1,1833,883,0,0
616,141,0,0,0,0,0,0,0,0,0,-1,1840,883,0,0
623,141,74.6694,2.48181,0.000983522,-0.00304349,-0.00401946,0.0034656,-0.00552557,-0.553199,0.00523627,0.0460313,1847,883,74.6694,-2.48183
630,141,74.5966,2.30493,0.000268649,-0.00173298,-0.00249276,0.001954,-0.00341833,-0.594504,0.00313989,0.045935,1854,883,74.5966,-2.30493
637,141,74.5546,2.35614,-0.000302529,-0.000571583,-0.00143883,0.00100804,-0.00188216,-0.738785,0.00169391,0.0425073,1861,883,74.5546,-2.35613
644,141,74.5972,2.17883,-0.000819914,0.000212044,-0.000703066,0.000568152,-0.00117602,-1.10196,0.00102718,0.0403639,1868,883,74.5972,-2.17881
651,141,74.7356,2.30182,-0.0012185,0.000563792,-0.000365503,0.000635835,-0.00129054,-1.37618,0.0011334,0.0412125,1875,883,74.7356,-2.30181
658,141,74.7168,2.23077,-0.00162902,0.000508124,-0.000440362,0.000595305,-0.0017162,-1.37535,0.00138586,0.0391348,1882,883,74.7168,-2.2308
665,141,74.4858,2.26849,-0.00178547,0.000429003,-0.000395998,0.000497686,-0.00185416,-1.39906,0.00143114,0.0308034,1889,883,74.4858,-2.26848
672,141,74.5231,2.29456,-0.00166093,9.63921e-05,-0.000587827,0.000274891,-0.00183943,-1.27599,0.00132744,0.0263836,1896,883,74.5231,-2.29458
679,141,74.5129,2.28192,-0.00147179,-9.38351e-05,-0.000671029,0.000178941,-0.00174456,-1.1847,0.00122705,0.0422773,1903,883,74.5129,-2.28194
686,141,74.5271,2.1593,0,0,0,0,0,0,0,-1,1910,883,74.5271,-2.15928
693,141,51.7202,1.76593,0,0,0,0,0,0,0,-1,1917,883,51.7202,-1.76595
700,141,62.7651,1.95361,0,0,0,0,0,0,0,-1,1924,883,62.7651,-1.95364
707,141,64.613,2.98682,0,0,0,0,0,0,0,-1,1931,883,64.613,-2.98682
714,141,64.2799,3.66711,-0.00086197,-0.000253742,-0.00194599,0.00141175,-0.00252746,-0.86291,0.00230451,0.0410829,1938,883,64.2799,-3.6671
721,141,64.2648,4.37909,-0.000531894,0.000138872,-0.00224563,0.00207403,-0.00246705,-0.859525,0.00262506,0.0227122,1945,883,64.2648,-4.37909
728,141,64.3734,5.11249,-0.000469002,0.00085959,-0.0025303,0.00281134,-0.00242075,-0.91377,0.00302355,0.0187425,1952,883,64.3734,-5.11251
735,141,64.3214,6.0163,0.000308785,0.00219695,-0.00313548,0.0045274,-0.00202166,-0.931629,0.00387226,0.0222439,1959,883,64.3214,-6.01631
742,141,64.2177,6.77301,0.00226756,0.00463403,-0.00414242,0.00775889,-0.000857306,-0.924513,0.00548076,0.0218971,1966,883,64.2177,-6.77303
749,141,64.167,7.47333,0.0051103,0.00749274,-0.00542735,0.0118581,0.000744982,-0.893427,0.00766911,0.0146209,1973,883,64.1669,-7.4733
756,141,64.1245,8.289,0.00930151,0.0113503,-0.00717965,0.0175783,0.00307353,-0.85626,0.0108405,0.0209731,1980,883,64.1245,-8.28899
763,141,64.3608,9.04761,0.0151764,0.0165333,-0.00954833,0.0254273,0.00628249,-0.820866,0.0152937,0.0439178,1987,883,64.3608,-9.04761
770,141,64.5676,9.79279,0,0,0,0,0,0,0,-1,1994,883,64.5677,-9.7928
777,141,57.1121,8.90594,0,0,0,0,0,0,0,-1,2001,883,57.1121,-8.90597
784,141,57.4124,11.4894,0,0,0,0,0,0,0,-1,2008,883,57.4123,-11.4894
791,141,57.7126,14.0729,0,0,0,0,0,0,0,-1,2015,883,57.7125,-14.0729
798,141,0,0,0,0,0,0,0,0,0,-1,2022,883,0,0
805,141,0,0,0,0,0,0,0,0,0,-1,2029,883,0,0
812,141,0,0,0,0,0,0,0,0,0,-1,2036,883,0,0
-700,134,0,0,0,0,0,0,0,0,0,-1,524,890,0,0
-693,134,0,0,0,0,0,0,0,0,0,-1,531,890,0,0
-686,134,0,0,0,0,0,0,0,0,0,-1,538,890,0,0
-679,134,0,0,0,0,0,0,0,0,0,-1,545,890,0,0
-672,134,-49.3306,-0.500671,0,0,0,0,0,0,0,-1,552,890,-49.3306,0.500651
-665,134,-49.3356,-3.00098,0,0,0,0,0,0,0,-1,559,890,-49.3356,3.00096
-658,134,-49.3368,-5.46246,0,0,0,0,0,0,0,-1,566,890,-49.3368,5.46248
-651,134,-53.0905,0.530762,0,0,0,0,0,0,0,-1,573,890,-53.0905,-0.530792
-644,134,-51.8253,-1.26782,0,0,0,0,0,0,0,-1,580,890,-51.8253,1.26783
-637,134,-50.5067,-2.83545,0,0,0,0,0,0,0,-1,587,890,-50.5066,2.83545
-630,134,-48.838,7.50903,0,0,0,0,0,0,0,-1,594,890,-48.838,-7.50906
-623,134,-49.0196,6.85681,0.000837284,0.011509,-0.00242925,0.012036,0.000310326,-1.35718,0.00792259,0.0350939,601,890,-49.0196,-6.85681
-616,134,-49.2968,6.11566,-0.00085996,0.00780735,4.21002e-06,0.00780735,-0.000859962,1.57031,0.00551395,0.0153194,608,890,-49.2967,-6.11564
-609,134,-49.4321,5.3396,-0.00202311,0.00453884,0.00210272,0.00515482,-0.00263909,1.28583,0.00457728,0.0131432,615,890,-49.4321,-5.33961
-602,134,-49.4484,4.52405,-0.0030745,0.00129489,0.00405698,0.00371801,-0.00549762,1.03238,0.00535361,0.013975,622,890,-49.4484,-4.52404
-595,134,-49.3315,3.77356,-0.0043898,-0.00228618,0.00583676,0.00259278,-0.00926876,0.874544,0.00720075,0.0312606,629,890,-49.3315,-3.77353
-588,134,-49.2931,3.01215,0,0,0,0,0,0,0,-1,636,890,-49.2931,-3.01213
-581,134,-48.0867,1.87549,0,0,0,0,0,0,0,-1,643,890,-48.0867,-1.8755
-574,134,-31.1517,0.757751,0,0,0,0,0,0,0,-1,650,890,-31.1517,-0.757758
-567,134,-30.9003,0.296326,0,0,0,0,0,0,0,-1,657,890,-30.9002,-0.296302
-560,134,-22.9123,0.106567,0,0,0,0,0,0,0,-1,664,890,-22.9123,-0.106594
-553,134,-57.708,0.177979,0,0,0,0,0,0,0,-1,671,890,-57.708,-0.178002
-546,134,-57.7354,0.179443,0,0,0,0,0,0,0,-1,678,890,-57.7354,-0.179413
-539,134,-57.7407,0.182983,0,0,0,0,0,0,0,-1,685,890,-57.7407,-0.183008
-532,134,-57.7474,0.261169,0,0,0,0,0,0,0,-1,692,890,-57.7475,-0.261176
-525,134,-57.7339,0.311096,0,0,0,0,0,0,0,-1,699,890,-57.7339,-0.311124
-518,134,-57.6401,0.215271,0,0,0,0,0,0,0,-1,706,890,-57.6401,-0.215292
-511,134,-57.6859,0.382629,0,0,0,0,0,0,0,-1,713,890,-57.6859,-0.3826
-504,134,0,0,0,0,0,0,0,0,0,-1,720,890,0,0
-497,134,0,0,0,0,0,0,0,0,0,-1,727,890,0,0
-490,134,0,0,0,0,0,0,0,0,0,-1,734,890,0,0
-483,134,0,0,0,0,0,0,0,0,0,-1,741,890,0,0
-476,134,0,0,0,0,0,0,0,0,0,-1,748,890,0,0
-469,134,0,0,0,0,0,0,0,0,0,-1,755,890,0,0
-462,134,0,0,0,0,0,0,0,0,0,-1,762,890,0,0
-455,134,0,0,0,0,0,0,0,0,0,-1,769,890,0,0
-448,134,0,0,0,0,0,0,0,0,0,-1,776,890,0,0
-441,134,0,0,0,0,0,0,0,0,0,-1,783,890,0,0
-434,134,0,0,0,0,0,0,0,0,0,-1,790,890,0,0
-427,134,0,0,0,0,0,0,0,0,0,-1,797,890,0,0
-420,134,0,0,0,0,0,0,0,0,0,-1,804,890,0,0
-413,134,0,0,0,0,0,0,0,0,0,-1,811,890,0,0
-406,134,0,0,0,0,0,0,0,0,0,-1,818,890,0,0
-399,134,0,0,0,0,0,0,0,0,0,-1,825,890,0,0
-392,134,0,0,0,0,0,0,0,0,0,-1,832,890,0,0
-385,134,0,0,0,0,0,0,0,0,0,-1,839,890,0,0
-378,134,0,0,0,0,0,0,0,0,0,-1,846,890,0,0
-371,134,0,0,0,0,0,0,0,0,0,-1,853,890,0,0
-364,134,0,0,0,0,0,0,0,0,0,-1,860,890,0,0
-357,134,0,0,0,0,0,0,0,0,0,-1,867,890,0,0
-350,134,0,0,0,0,0,0,0,0,0,-1,874,890,0,0
-343,134,0,0,0,0,0,0,0,0,0,-1,881,890,0,0
-336,134,0,0,0,0,0,0,0,0,0,-1,888,890,0,0
-329,134,0,0,0,0,0,0,0,0,0,-1,895,890,0,0
-322,134,0,0,0,0,0,0,0,0,0,-1,902,890,0,0
-315,134,0,0,0,0,0,0,0,0,0,-1,909,890,0,0
-308,134,0,0,0,0,0,0,0,0,0,-1,916,890,0,0
-301,134,0,0,0,0,0,0,0,0,0,-1,923,890,0,0
-294,134,0,0,0,0,0,0,0,0,0,-1,930,890,0,0
-287,134,0,0,0,0,0,0,0,0,0,-1,937,890,0,0
-280,134,0,0,0,0,0,0,0,0,0,-1,944,890,0,0
-273,134,0,0,0,0,0,0,0,0,0,-1,951,890,0,0
-266,134,0,0,0,0,0,0,0,0,0,-1,958,890,0,0
-259,134,0,0,0,0,0,0,0,0,0,-1,965,890,0,0
-252,134,0,0,0,0,0,0,0,0,0,-1,972,890,0,0
-245,134,0,0,0,0,0,0,0,0,0,-1,979,890,0,0
-238,134,0,0,0,0,0,0,0,0,0,-1,986,890,0,0
-231,134,0,0,0,0,0,0,0,0,0,-1,993,890,0,0
-224,134,0,0,0,0,0,0,0,0,0,-1,1000,890,0,0
-217,134,0,0,0,0,0,0,0,0,0,-1,1007,890,0,0
-210,134,0,0,0,0,0,0,0,0,0,-1,1014,890,0,0
-203,134,0,0,0,0,0,0,0,0,0,-1,1021,890,0,0
-196,134,0,0,0,0,0,0,0,0,0,-1,1028,890,0,0
-189,134,0,0,0,0,0,0,0,0,0,-1,1035,890,0,0
-182,134,0,0,0,0,0,0,0,0,0,-1,1042,890,0,0
-175,134,0,0,0,0,0,0,0,0,0,-1,1049,890,0,0
-168,134,0,0,0,0,0,0,0,0,0,-1,1056,890,0,0
-161,134,0,0,0,0,0,0,0,0,0,-1,1063,890,0,0
-154,134,0,0,0,0,0,0,0,0,0,-1,1070,890,0,0
-147,134,0,0,0,0,0,0,0,0,0,-1,1077,890,0,0
-140,134,0,0,0,0,0,0,0,0,0,-1,1084,890,0,0
-133,134,0,0,0,0,0,0,0,0,0,-1,1091,890,0,0
-126,134,0,0,0,0,0,0,0,0,0,-1,1098,890,0,0
-119,134,0,0,0,0,0,0,0,0,0,-1,1105,890,0,0
-112,134,0,0,0,0,0,0,0,0,0,-1,1112,890,0,0
-105,134,0,0,0,0,0,0,0,0,0,-1,1119,890,0,0
-98,134,0,0,0,0,0,0,0,0,0,-1,1126,890,0,0
-91,134,0,0,0,0,0,0,0,0,0,-1,1133,890,0,0
-84,134,0,0,0,0,0,0,0,0,0,-1,1140,890,0,0
-77,134,0,0,0,0,0,0,0,0,0,-1,1147,890,0,0
-70,134,0,0,0,0,0,0,0,0,0,-1,1154,890,0,0
-63,134,0,0,0,0,0,0,0,0,0,-1,1161,890,0,0
-56,134,0,0,0,0,0,0,0,0,0,-1,1168,890,0,0
-49,134,0,0,0,0,0,0,0,0,0,-1,1175,890,0,0
-42,134,0,0,0,0,0,0,0,0,0,-1,1182,890,0,0
-35,134,0,0,0,0,0,0,0,0,0,-1,1189,890,0,0
-28,134,0,0,0,0,0,0,0,0,0,-1,1196,890,0,0
-21,134,0,0,0,0,0,0,0,0,0,-1,1203,890,0,0
-14,134,0,0,0,0,0,0,0,0,0,-1,1210,890,0,0
-7,134,0,0,0,0,0,0,0,0,0,-1,1217,890,0,0
0,134,0,0,0,0,0,0,0,0,0,-1,1224,890,0,0
7,134,0,0,0,0,0,0,0,0,0,-1,1231,890,0,0
14,134,0,0,0,0,0,0,0,0,0,-1,1238,890,0,0
21,134,0,0,0,0,0,0,0,0,0,-1,1245,890,0,0
28,134,0,0,0,0,0,0,0,0,0,-1,1252,890,0,0
35,134,0,0,0,0,0,0,0,0,0,-1,1259,890,0,0
42,134,0,0,0,0,0,0,0,0,0,-1,1266,890,0,0
49,134,0,0,0,0,0,0,0,0,0,-1,1273,890,0,0
56,134,0,0,0,0,0,0,0,0,0,-1,1280,890,0,0
63,134,0,0,0,0,0,0,0,0,0,-1,1287,890,0,0
70,134,0,0,0,0,0,0,0,0,0,-1,1294,890,0,0
77,134,0,0,0,0,0,0,0,0,0,-1,1301,890,0,0
84,134,0,0,0,0,0,0,0,0,0,-1,1308,890,0,0
91,134,0,0,0,0,0,0,0,0,0,-1,1315,890,0,0
98,134,0,0,0,0,0,0,0,0,0,-1,1322,890,0,0
105,134,0,0,0,0,0,0,0,0,0,-1,1329,890,0,0
112,134,0,0,0,0,0,0,0,0,0,-1,1336,890,0,0
119,134,0,0,0,0,0,0,0,0,0,-1,1343,890,0,0
126,134,0,0,0,0,0,0,0,0,0,-1,1350,890,0,0
133,134,0,0,0,0,0,0,0,0,0,-1,1357,890,0,0
140,134,0,0,0,0,0,0,0,0,0,-1,1364,890,0,0
147,134,0,0,0,0,0,0,0,0,0,-1,1371,890,0,0
154,134,0,0,0,0,0,0,0,0,0,-1,1378,890,0,0
161,134,0,0,0,0,0,0,0,0,0,-1,1385,890,0,0
168,134,0,0,0,0,0,0,0,0,0,-1,1392,890,0,0
175,134,0,0,0,0,0,0,0,0,0,-1,1399,890,0,0
182,134,0,0,0,0,0,0,0,0,0,-1,1406,890,0,0
189,134,0,0,0,0,0,0,0,0,0,-1,1413,890,0,0
196,134,0,0,0,0,0,0,0,0,0,-1,1420,890,0,0
203,134,0,0,0,0,0,0,0,0,0,-1,1427,890,0,0
210,134,0,0,0,0,0,0,0,0,0,-1,1434,890,0,0
217,134,0,0,0,0,0,0,0,0,0,-1,1441,890,0,0
224,134,0,0,0,0,0,0,0,0,0,-1,1448,890,0,0
231,134,0,0,0,0,0,0,0,0,0,-1,1455,890,0,0
238,134,0,0,0,0,0,0,0,0,0,-1,1462,890,0,0
245,134,0,0,0,0,0,0,0,0,0,-1,1469,890,0,0
252,134,0,0,0,0,0,0,0,0,0,-1,1476,890,0,0
259,134,0,0,0,0,0,0,0,0,0,-1,1483,890,0,0
266,134,0,0,0,0,0,0,0,0,0,-1,1490,890,0,0
273,134,0,0,0,0,0,0,0,0,0,-1,1497,890,0,0
280,134,0,0,0,0,0,0,0,0,0,-1,1504,890,0,0
287,134,0,0,0,0,0,0,0,0,0,-1,1511,890,0,0
294,134,0,0,0,0,0,0,0,0,0,-1,1518,890,0,0
301,134,0,0,0,0,0,0,0,0,0,-1,1525,890,0,0
308,134,0,0,0,0,0,0,0,0,0,-1,1532,890,0,0
315,134,0,0,0,0,0,0,0,0,0,-1,1539,890,0,0
322,134,0,0,0,0,0,0,0,0,0,-1,1546,890,0,0
329,134,0,0,0,0,0,0,0,0,0,-1,1553,890,0,0
336,134,0,0,0,0,0,0,0,0,0,-1,1560,890,0,0
343,134,0,0,0,0,0,0,0,0,0,-1,1567,890,0,0
350,134,0,0,0,0,0,0,0,0,0,-1,1574,890,0,0
357,134,0,0,0,0,0,0,0,0,0,-1,1581,890,0,0
364,134,0,0,0,0,0,0,0,0,0,-1,1588,890,0,0
371,134,0,0,0,0,0,0,0,0,0,-1,1595,890,0,0
378,134,0,0,0,0,0,0,0,0,0,-1,1602,890,0,0
385,134,0,0,0,0,0,0,0,0,0,-1,1609,890,0,0
392,134,0,0,0,0,0,0,0,0,0,-1,1616,890,0,0
399,134,0,0,0,0,0,0,0,0,0,-1,1623,890,0,0
406,134,0,0,0,0,0,0,0,0,0,-1,1630,890,0,0
413,134,0,0,0,0,0,0,0,0,0,-1,1637,890,0,0
420,134,0,0,0,0,0,0,0,0,0,-1,1644,890,0,0
427,134,0,0,0,0,0,0,0,0,0,-1,1651,890,0,0
434,134,0,0,0,0,0,0,0,0,0,-1,1658,890,0,0
441,134,0,0,0,0,0,0,0,0,0,-1,1665,890,0,0
448,134,0,0,0,0,0,0,0,0,0,-1,1672,890,0,0
455,134,0,0,0,0,0,0,0,0,0,-1,1679,890,0,0
462,134,0,0,0,0,0,0,0,0,0,-1,1686,890,0,0
469,134,0,0,0,0,0,0,0,0,0,-1,1693,890,0,0
476,134,0,0,0,0,0,0,0,0,0,-1,1700,890,0,0
483,134,0,0,0,0,0,0,0,0,0,-1,1707,890,0,0
490,134,0,0,0,0,0,0,0,0,0,-1,1714,890,0,0
497,134,0,0,0,0,0,0,0,0,0,-1,1721,890,0,0
504,134,0,0,0,0,0,0,0,0,0,-1,1728,890,0,0
511,134,0,0,0,0,0,0,0,0,0,-1,1735,890,0,0
518,134,0,0,0,0,0,0,0,0,0,-1,1742,890,0,0
525,134,0,0,0,0,0,0,0,0,0,-1,1749,890,0,0
532,134,0,0,0,0,0,0,0,0,0,-1,1756,890,0,0
539,134,0,0,0,0,0,0,0,0,0,-1,1763,890,0,0
546,134,0,0,0,0,0,0,0,0,0,-1,1770,890,0,0
553,134,0,0,0,0,0,0,0,0,0,-1,1777,890,0,0
560,134,0,0,0,0,0,0,0,0,0,-1,1784,890,0,0
567,134,0,0,0,0,0,0,0,0,0,-1,1791,890,0,0
574,134,0,0,0,0,0,0,0,0,0,-1,1798,890,0,0
581,134,0,0,0,0,0,0,0,0,0,-1,1805,890,0,0
588,134,0,0,0,0,0,0,0,0,0,-1,1812,890,0,0
595,134,0,0,0,0,0,0,0,0,0,-1,1819,890,0,0
602,134,0,0,0,0,0,0,0,0,0,-1,1826,890,0,0
609,134,0,0,0,0,0,0,0,0,0,-1,1833,890,0,0
616,134,0,0,0,0,0,0,0,0,0,-1,1840,890,0,0
623,134,74.6495,2.4375,0.000929152,-0.00271372,-0.00387885,0.00339293,-0.0051775,-0.565889,0.00498377,0.0467632,1847,890,74.6495,-2.43752
630,134,74.5281,2.45746,0.000362845,-0.00142885,-0.00245456,0.00207993,-0.00314594,-0.610423,0.00303801,0.0454136,1854,890,74.5281,-2.45744
637,134,74.6437,2.47998,-9.61503e-05,-0.000389497,-0.00153336,0.00129754,-0.00178319,-0.737716,0.00178601,0.0431664,1861,890,74.6437,-2.48
644,134,74.7166,2.28577,-0.000602644,0.000336505,-0.000827362,0.00081826,-0.0010844,-1.04351,0.00110208,0.0390891,1868,890,74.7166,-2.28579
651,134,74.7246,2.34454,-0.000993835,0.000647251,-0.000421974,0.000749396,-0.00109598,-1.3333,0.00107167,0.0410985,1875,890,74.7246,-2.34457
658,134,74.6595,2.4007,-0.00138679,0.000591488,-0.00036364,0.000656213,-0.00145151,-1.39465,0.00124544,0.037673,1882,890,74.6596,-2.40067
665,134,74.4963,2.23669,-0.00151107,0.000438903,-0.000239427,0.000467871,-0.00154004,-1.45039,0.00121311,0.0361766,1889,890,74.4964,-2.23667
672,134,74.546,2.27277,-0.00140181,4.33166e-05,-0.000387997,0.0001409,-0.00149939,-1.3244,0.00104972,0.0268953,1896,890,74.546,-2.27274
679,134,74.585,2.21796,-0.00124914,-0.000243105,-0.000476789,-5.30466e-05,-0.0014392,-1.19148,0.00094228,0.0254401,1903,890,74.585,-2.21798
686,134,74.6171,2.12897,0,0,0,0,0,0,0,-1,1910,890,74.6171,-2.12896
693,134,34.5778,2.48096,0,0,0,0,0,0,0,-1,1917,890,34.5777,-2.48099
700,134,64.9001,1.62848,0,0,0,0,0,0,0,-1,1924,890,64.9001,-1.6285
707,134,64.9236,2.40863,0,0,0,0,0,0,0,-1,1931,890,64.9235,-2.4086
714,134,65.0488,3.36121,-0.00103166,-0.000460587,-0.00182847,0.0011045,-0.00259675,-0.862854,0.00219405,0.0294283,1938,890,65.0488,-3.36118
721,134,65.1837,4.22083,-0.00085472,-6.77874e-05,-0.00218509,0.00175898,-0.00268149,-0.874478,0.00258208,0.0278232,1945,890,65.1837,-4.2208
728,134,65.2206,5.04248,-0.0010478,0.000686356,-0.00250514,0.00247023,-0.00283168,-0.952005,0.00306343,0.024001,1952,890,65.2206,-5.04247
735,134,65.1344,5.98889,-0.000524803,0.00213933,-0.00314577,0.00422344,-0.00260891,-0.985675,0.0039812,0.0311659,1959,890,65.1344,-5.98891
742,134,65.0297,6.79834,0.00131041,0.00500093,-0.00420458,0.00774734,-0.00143601,-0.992178,0.00570414,0.0202323,1966,890,65.0297,-6.79837
749,134,65.0149,7.50427,0.00418848,0.00855976,-0.0054752,0.0122694,0.000478795,-0.975302,0.0080248,0.0130558,1973,890,65.0149,-7.50426
756,134,64.9634,8.23486,0.00867247,0.0133327,-0.00715116,0.0185238,0.0034814,-0.942894,0.0113678,0.0171867,1980,890,64.9633,-8.23486
763,134,64.9463,8.92902,0.0150398,0.0196323,-0.00936947,0.0269828,0.0076893,-0.905568,0.0160515,0.0376078,1987,890,64.9464,-8.92899
770,134,64.9182,9.61523,0,0,0,0,0,0,0,-1,1994,890,64.9182,-9.61526
777,134,60.8262,8.9353,0,0,0,0,0,0,0,-1,2001,890,60.8261,-8.93532
784,134,61.7583,11.2997,0,0,0,0,0,0,0,-1,2008,890,61.7584,-11.2998
791,134,61.1899,13.6417,0,0,0,0,0,0,0,-1,2015,890,61.1898,-13.6418
798,134,0,0,0,0,0,0,0,0,0,-1,2022,890,0,0
805,134,0,0,0,0,0,0,0,0,0,-1,2029,890,0,0
812,134,0,0,0,0,0,0,0,0,0,-1,2036,890,0,0
-700,127,0,0,0,0,0,0,0,0,0,-1,524,897,0,0
-693,127,0,0,0,0,0,0,0,0,0,-1,531,897,0,0
-686,127,0,0,0,0,0,0,0,0,0,-1,538,897,0,0
-679,127,-52.0821,4.30957,0,0,0,0,0,0,0,-1,545,897,-52.0821,-4.30955
-672,127,-50.373,4.8219,0,0,0,0,0,0,0,-1,552,897,-50.373,-4.8219
-665,127,-49.6271,-2.44153,0,0,0,0,0,0,0,-1,559,897,-49.6271,2.44154
-658,127,-48.965,-4.18744,0,0,0,0,0,0,0,-1,566,897,-48.965,4.18745
-651,127,-52.9149,-0.455505,0,0,0,0,0,0,0,-1,573,897,-52.9149,0.455524
-644,127,-51.6913,-2.33765,0,0,0,0,0,0,0,-1,580,897,-51.6914,2.33763
-637,127,-50.3104,-4.18658,0,0,0,0,0,0,0,-1,587,897,-50.3104,4.18656
-630,127,-49.9496,7.35126,0,0,0,0,0,0,0,-1,594,897,-49.9496,-7.35126
-623,127,-50.0484,6.76855,-0.00221403,0.0105887,-0.000569916,0.0106141,-0.00223935,-1.5264,0.00792861,0.0229638,601,897,-50.0484,-6.76855
-616,127,-50.1569,6.11359,-0.00300472,0.00692623,0.00145095,0.00713388,-0.00321236,1.42865,0.00611476,0.012663,608,897,-50.1569,-6.11356
-609,127,-50.2586,5.34283,-0.00314556,0.00378921,0.00313746,0.00499798,-0.00435433,1.20305,0.00540382,0.015186,615,897,-50.2586,-5.34286
-602,127,-50.2552,4.57349,-0.00317845,0.000555179,0.00462999,0.00368054,-0.00630381,0.977029,0.00583041,0.0173906,622,897,-50.2553,-4.5735
-595,127,-50.1868,3.88153,-0.0037131,-0.00320543,0.0059011,0.00244729,-0.00936582,0.806892,0.00719965,0.0363972,629,897,-50.1868,-3.88153
-588,127,-50.1153,3.54584,0,0,0,0,0,0,0,-1,636,897,-50.1153,-3.54581
-581,127,-47.7609,1.60126,0,0,0,0,0,0,0,-1,643,897,-47.761,-1.60125
-574,127,-25.2603,0.511169,0,0,0,0,0,0,0,-1,650,897,-25.2603,-0.51117
-567,127,-24.5417,-0.0447388,0,0,0,0,0,0,0,-1,657,897,-24.5417,0.0447226
-560,127,-18.9678,1.21667,0,0,0,0,0,0,0,-1,664,897,-18.9677,-1.2167
-553,127,-57.7224,0.210083,0,0,0,0,0,0,0,-1,671,897,-57.7224,-0.210082
-546,127,-57.6875,0.205261,0,0,0,0,0,0,0,-1,678,897,-57.6875,-0.205255
-539,127,-57.6568,0.218445,0,0,0,0,0,0,0,-1,685,897,-57.6568,-0.218423
-532,127,-57.6403,0.254578,0,0,0,0,0,0,0,-1,692,897,-57.6403,-0.254587
-525,127,-57.6356,0.326477,0,0,0,0,0,0,0,-1,699,897,-57.6356,-0.326461
-518,127,-57.6022,0.311462,0,0,0,0,0,0,0,-1,706,897,-57.6023,-0.311457
-511,127,-57.642,0.47229,0,0,0,0,0,0,0,-1,713,897,-57.642,-0.47227
-504,127,0,0,0,0,0,0,0,0,0,-1,720,897,0,0
-497,127,0,0,0,0,0,0,0,0,0,-1,727,897,0,0
-490,127,0,0,0,0,0,0,0,0,0,-1,734,897,0,0
-483,127,0,0,0,0,0,0,0,0,0,-1,741,897,0,0
-476,127,0,0,0,0,0,0,0,0,0,-1,748,897,0,0
-469,127,0,0,0,0,0,0,0,0,0,-1,755,897,0,0
-462,127,0,0,0,0,0,0,0,0,0,-1,762,897,0,0
-455,127,0,0,0,0,0,0,0,0,0,-1,769,897,0,0
-448,127,0,0,0,0,0,0,0,0,0,-1,776,897,0,0
-441,127,0,0,0,0,0,0,0,0,0,-1,783,897,0,0
-434,127,0,0,0,0,0,0,0,0,0,-1,790,897,0,0
-427,127,0,0,0,0,0,0,0,0,0,-1,797,897,0,0
-420,127,0,0,0,0,0,0,0,0,0,-1,804,897,0,0
-413,127,0,0,0,0,0,0,0,0,0,-1,811,897,0,0
-406,127,0,0,0,0,0,0,0,0,0,-1,818,897,0,0
-399,127,0,0,0,0,0,0,0,0,0,-1,825,897,0,0
-392,127,0,0,0,0,0,0,0,0,0,-1,832,897,0,0
-385,127,0,0,0,0,0,0,0,0,0,-1,839,897,0,0
-378,127,0,0,0,0,0,0,0,0,0,-1,846,897,0,0
-371,127,0,0,0,0,0,0,0,0,0,-1,853,897,0,0
-364,127,0,0,0,0,0,0,0,0,0,-1,860,897,0,0
-357,127,0,0,0,0,0,0,0,0,0,-1,867,897,0,0
-350,127,0,0,0,0,0,0,0,0,0,-1,874,897,0,0
-343,127,0,0,0,0,0,0,0,0,0,-1,881,897,0,0
-336,127,0,0,0,0,0,0,0,0,0,-1,888,897,0,0
-329,127,0,0,0,0,0,0,0,0,0,-1,895,897,0,0
-322,127,0,0,0,0,0,0,0,0,0,-1,902,897,0,0
-315,127,0,0,0,0,0,0,0,0,0,-1,909,897,0,0
-308,127,0,0,0,0,0,0,0,0,0,-1,916,897,0,0
-301,127,0,0,0,0,0,0,0,0,0,-1,923,897,0,0
-294,127,0,0,0,0,0,0,0,0,0,-1,930,897,0,0
-287,127,0,0,0,0,0,0,0,0,0,-1,937,897,0,0
-280,127,0,0,0,0,0,0,0,0,0,-1,944,897,0,0
-273,127,0,0,0,0,0,0,0,0,0,-1,951,897,0,0
-266,127,0,0,0,0,0,0,0,0,0,-1,958,897,0,0
-259,127,0,0,0,0,0,0,0,0,0,-1,965,897,0,0
-252,127,0,0,0,0,0,0,0,0,0,-1,972,897,0,0
-245,127,0,0,0,0,0,0,0,0,0,-1,979,897,0,0
-238,127,0,0,0,0,0,0,0,0,0,-1,986,897,0,0
-231,127,0,0,0,0,0,0,0,0,0,-1,993,897,0,0
-224,127,0,0,0,0,0,0,0,0,0,-1,1000,897,0,0
-217,127,0,0,0,0,0,0,0,0,0,-1,1007,897,0,0
-210,127,0,0,0,0,0,0,0,0,0,-1,1014,897,0,0
-203,127,0,0,0,0,0,0,0,0,0,-1,1021,897,0,0
-196,127,0,0,0,0,0,0,0,0,0,-1,1028,897,0,0
-189,127,0,0,0,0,0,0,0,0,0,-1,1035,897,0,0
-182,127,0,0,0,0,0,0,0,0,0,-1,1042,897,0,0
-175,127,0,0,0,0,0,0,0,0,0,-1,1049,897,0,0
-168,127,0,0,0,0,0,0,0,0,0,-1,1056,897,0,0
-161,127,0,0,0,0,0,0,0,0,0,-1,1063,897,0,0
-154,127,0,0,0,0,0,0,0,0,0,-1,1070,897,0,0
-147,127,0,0,0,0,0,0,0,0,0,-1,1077,897,0,0
-140,127,0,0,0,0,0,0,0,0,0,-1,1084,897,0,0
-133,127,0,0,0,0,0,0,0,0,0,-1,1091,897,0,0
-126,127,0,0,0,0,0,0,0,0,0,-1,1098,897,0,0
-119,127,0,0,0,0,0,0,0,0,0,-1,1105,897,0,0
-112,127,0,0,0,0,0,0,0,0,0,-1,1112,897,0,0
-105,127,0,0,0,0,0,0,0,0,0,-1,1119,897,0,0
-98,127,0,0,0,0,0,0,0,0,0,-1,1126,897,0,0
-91,127,0,0,0,0,0,0,0,0,0,-1,1133,897,0,0
-84,127,0,0,0,0,0,0,0,0,0,-1,1140,897,0,0
-77,127,0,0,0,0,0,0,0,0,0,-1,1147,897,0,0
-70,127,0,0,0,0,0,0,0,0,0,-1,1154,897,0,0
-63,127,0,0,0,0,0,0,0,0,0,-1,1161,897,0,0
-56,127,0,0,0,0,0,0,0,0,0,-1,1168,897,0,0
-49,127,0,0,0,0,0,0,0,0,0,-1,1175,897,0,0
-42,127,0,0,0,0,0,0,0,0,0,-1,1182,897,0,0
-35,127,0,0,0,0,0,0,0,0,0,-1,1189,897,0,0
-28,127,0,0,0,0,0,0,0,0,0,-1,1196,897,0,0
-21,127,0,0,0,0,0,0,0,0,0,-1,1203,897,0,0
-14,127,0,0,0,0,0,0,0,0,0,-1,1210,897,0,0
-7,127,0,0,0,0,0,0,0,0,0,-1,1217,897,0,0
0,127,0,0,0,0,0,0,0,0,0,-1,1224,897,0,0
7,127,0,0,0,0,0,0,0,0,0,-1,1231,897,0,0
14,127,0,0,0,0,0,0,0,0,0,-1,1238,897,0,0
21,127,0,0,0,0,0,0,0,0,0,-1,1245,897,0,0
28,127,0,0,0,0,0,0,0,0,0,-1,1252,897,0,0
35,127,0,0,0,0,0,0,0,0,0,-1,1259,897,0,0
42,127,0,0,0,0,0,0,0,0,0,-1,1266,897,0,0
49,127,0,0,0,0,0,0,0,0,0,-1,1273,897,0,0
56,127,0,0,0,0,0,0,0,0,0,-1,1280,897,0,0
63,127,0,0,0,0,0,0,0,0,0,-1,1287,897,0,0
70,127,0,0,0,0,0,0,0,0,0,-1,1294,897,0,0
77,127,0,0,0,0,0,0,0,0,0,-1,1301,897,0,0
84,127,0,0,0,0,0,0,0,0,0,-1,1308,897,0,0
91,127,0,0,0,0,0,0,0,0,0,-1,1315,897,0,0
98,127,0,0,0,0,0,0,0,0,0,-1,1322,897,0,0
105,127,0,0,0,0,0,0,0,0,0,-1,1329,897,0,0
112,127,0,0,0,0,0,0,0,0,0,-1,1336,897,0,0
119,127,0,0,0,0,0,0,0,0,0,-1,1343,897,0,0
126,127,0,0,0,0,0,0,0,0,0,-1,1350,897,0,0
133,127,0,0,0,0,0,0,0,0,0,-1,1357,897,0,0
140,127,0,0,0,0,0,0,0,0,0,-1,1364,897,0,0
147,127,0,0,0,0,0,0,0,0,0,-1,1371,897,0,0
154,127,0,0,0,0,0,0,0,0,0,-1,1378,897,0,0
161,127,0,0,0,0,0,0,0,0,0,-1,1385,897,0,0
168,127,0,0,0,0,0,0,0,0,0,-1,1392,897,0,0
175,127,0,0,0,0,0,0,0,0,0,-1,1399,897,0,0
182,127,0,0,0,0,0,0,0,0,0,-1,1406,897,0,0
189,127,0,0,0,0,0,0,0,0,0,-1,1413,897,0,0
196,127,0,0,0,0,0,0,0,0,0,-1,1420,897,0,0
203,127,0,0,0,0,0,0,0,0,0,-1,1427,897,0,0
210,127,0,0,0,0,0,0,0,0,0,-1,1434,897,0,0
217,127,0,0,0,0,0,0,0,0,0,-1,1441,897,0,0
224,127,0,0,0,0,0,0,0,0,0,-1,1448,897,0,0
231,127,0,0,0,0,0,0,0,0,0,-1,1455,897,0,0
238,127,0,0,0,0,0,0,0,0,0,-1,1462,897,0,0
245,127,0,0,0,0,0,0,0,0,0,-1,1469,897,0,0
252,127,0,0,0,0,0,0,0,0,0,-1,1476,897,0,0
259,127,0,0,0,0,0,0,0,0,0,-1,1483,897,0,0
266,127,0,0,0,0,0,0,0,0,0,-1,1490,897,0,0
273,127,0,0,0,0,0,0,0,0,0,-1,1497,897,0,0
280,127,0,0,0,0,0,0,0,0,0,-1,1504,897,0,0
287,127,0,0,0,0,0,0,0,0,0,-1,1511,897,0,0
294,127,0,0,0,0,0,0,0,0,0,-1,1518,897,0,0
301,127,0,0,0,0,0,0,0,0,0,-1,1525,897,0,0
308,127,0,0,0,0,0,0,0,0,0,-1,1532,897,0,0
315,127,0,0,0,0,0,0,0,0,0,-1,1539,897,0,0
322,127,0,0,0,0,0,0,0,0,0,-1,1546,897,0,0
329,127,0,0,0,0,0,0,0,0,0,-1,1553,897,0,0
336,127,0,0,0,0,0,0,0,0,0,-1,1560,897,0,0
343,127,0,0,0,0,0,0,0,0,0,-1,1567,897,0,0
350,127,0,0,0,0,0,0,0,0,0,-1,1574,897,0,0
357,127,0,0,0,0,0,0,0,0,0,-1,1581,897,0,0
364,127,0,0,0,0,0,0,0,0,0,-1,1588,897,0,0
371,127,0,0,0,0,0,0,0,0,0,-1,1595,897,0,0
378,127,0,0,0,0,0,0,0,0,0,-1,1602,897,0,0
385,127,0,0,0,0,0,0,0,0,0,-1,1609,897,0,0
392,127,0,0,0,0,0,0,0,0,0,-1,1616,897,0,0
399,127,0,0,0,0,0,0,0,0,0,-1,1623,897,0,0
406,127,0,0,0,0,0,0,0,0,0,-1,1630,897,0,0
413,127,0,0,0,0,0,0,0,0,0,-1,1637,897,0,0
420,127,0,0,0,0,0,0,0,0,0,-1,1644,897,0,0
427,127,0,0,0,0,0,0,0,0,0,-1,1651,897,0,0
434,127,0,0,0,0,0,0,0,0,0,-1,1658,897,0,0
441,127,0,0,0,0,0,0,0,0,0,-1,1665,897,0,0
448,127,0,0,0,0,0,0,0,0,0,-1,1672,897,0,0
455,127,0,0,0,0,0,0,0,0,0,-1,1679,897,0,0
462,127,0,0,0,0,0,0,0,0,0,-1,1686,897,0,0
469,127,0,0,0,0,0,0,0,0,0,-1,1693,897,0,0
476,127,0,0,0,0,0,0,0,0,0,-1,1700,897,0,0
483,127,0,0,0,0,0,0,0,0,0,-1,1707,897,0,0
490,127,0,0,0,0,0,0,0,0,0,-1,1714,897,0,0
497,127,0,0,0,0,0,0,0,0,0,-1,1721,897,0,0
504,127,0,0,0,0,0,0,0,0,0,-1,1728,897,0,0
511,127,0,0,0,0,0,0,0,0,0,-1,1735,897,0,0
518,127,0,0,0,0,0,0,0,0,0,-1,1742,897,0,0
525,127,0,0,0,0,0,0,0,0,0,-1,1749,897,0,0
532,127,0,0,0,0,0,0,0,0,0,-1,1756,897,0,0
539,127,0,0,0,0,0,0,0,0,0,-1,1763,897,0,0
546,127,0,0,0,0,0,0,0,0,0,-1,1770,897,0,0
553,127,0,0,0,0,0,0,0,0,0,-1,1777,897,0,0
560,127,0,0,0,0,0,0,0,0,0,-1,1784,897,0,0
567,127,0,0,0,0,0,0,0,0,0,-1,1791,897,0,0
574,127,0,0,0,0,0,0,0,0,0,-1,1798,897,0,0
581,127,0,0,0,0,0,0,0,0,0,-1,1805,897,0,0
588,127,0,0,0,0,0,0,0,0,0,-1,1812,897,0,0
595,127,0,0,0,0,0,0,0,0,0,-1,1819,897,0,0
602,127,0,0,0,0,0,0,0,0,0,-1,1826,897,0,0
609,127,0,0,0,0,0,0,0,0,0,-1,1833,897,0,0
616,127,0,0,0,0,0,0,0,0,0,-1,1840,897,0,0
623,127,0,0,0,0,0,0,0,0,0,-1,1847,897,0,0
630,127,74.568,2.35516,0.000558281,-0.000612098,-0.00266415,0.00270075,-0.00275457,-0.677288,0.00314968,0.041607,1854,897,74.5679,-2.35516
637,127,74.5671,2.34723,0.000157739,0.000171757,-0.00171543,0.0018802,-0.0015507,-0.787441,0.00198387,0.0381273,1861,897,74.5671,-2.34724
644,127,74.7124,2.33783,-0.00034598,0.000732792,-0.000953033,0.00128849,-0.000901678,-1.04291,0.00127105,0.0389717,1868,897,74.7124,-2.33783
651,127,74.6293,2.42139,-0.000752975,0.000940233,-0.000451825,0.00105326,-0.000865998,-1.32568,0.00110984,0.0417167,1875,897,74.6293,-2.42141
658,127,74.5367,2.48621,-0.00114062,0.000877753,-0.000235029,0.00090476,-0.00116762,-1.45639,0.00119969,0.039303,1882,897,74.5368,-2.4862
665,127,74.5017,2.35925,-0.0012552,0.000671401,-1.95034e-05,0.000671598,-0.0012554,-1.56067,0.00112944,0.0386962,1889,897,74.5017,-2.35928
672,127,74.5148,2.19348,-0.00117245,0.000222976,-0.000101079,0.000230259,-0.00117973,-1.49886,0.000873418,0.0341848,1896,897,74.5147,-2.19348
679,127,74.6069,2.20282,-0.00105711,-0.000144294,-0.000184977,-0.000108234,-0.00109317,-1.37827,0.000695515,0.0276902,1903,897,74.6069,-2.20282
686,127,74.605,2.203,0,0,0,0,0,0,0,-1,1910,897,74.605,-2.203
693,127,59.2523,2.33673,0,0,0,0,0,0,0,-1,1917,897,59.2524,-2.33674
700,127,58.717,1.80957,0,0,0,0,0,0,0,-1,1924,897,58.717,-1.80956
707,127,65.7734,2.39728,0,0,0,0,0,0,0,-1,1931,897,65.7734,-2.39726
714,127,66.1362,3.4491,-0.00132029,-0.000377603,-0.00167397,0.000890114,-0.00258801,-0.922631,0.00208633,0.0277239,1938,897,66.1362,-3.44908
721,127,66.1891,4.43536,-0.00127142,-1.65647e-05,-0.00209074,0.00153886,-0.00282685,-0.931172,0.00255685,0.0282614,1945,897,66.1891,-4.43538
728,127,66.0255,5.17816,-0.00165741,0.000722443,-0.00243983,0.00224705,-0.00318202,-1.01228,0.00314993,0.0253608,1952,897,66.0255,-5.17818
735,127,65.9307,5.98962,-0.00134722,0.00223857,-0.00310099,0.00402766,-0.00313632,-1.0475,0.00414678,0.0213278,1959,897,65.9306,-5.98964
742,127,65.865,6.77527,0.000353577,0.00542519,-0.0041967,0.00779271,-0.00201394,-1.05716,0.00598057,0.0198094,1966,897,65.865,-6.77529
749,127,65.8097,7.53094,0.00325035,0.00963823,-0.0054515,0.0127625,0.000126055,-1.05039,0.00846665,0.013727,1973,897,65.8097,-7.53094
756,127,65.7155,8.21912,0.00800751,0.0152998,-0.00705624,0.0195963,0.00371106,-1.02387,0.0120197,0.0164549,1980,897,65.7155,-8.21912
763,127,65.6282,8.90662,0.0148512,0.0226305,-0.00913528,0.0286697,0.00881195,-0.986666,0.016957,0.0259974,1987,897,65.6282,-8.9066
770,127,65.6187,9.59534,0,0,0,0,0,0,0,-1,1994,897,65.6187,-9.59534
777,127,42.703,5.33789,0,0,0,0,0,0,0,-1,2001,897,42.7031,-5.33791
784,127,65.8442,10.991,0,0,0,0,0,0,0,-1,2008,897,65.8442,-10.991
791,127,63.4036,12.2262,0,0,0,0,0,0,0,-1,2015,897,63.4036,-12.2262
798,127,0,0,0,0,0,0,0,0,0,-1,2022,897,0,0
805,127,0,0,0,0,0,0,0,0,0,-1,2029,897,0,0
812,127,0,0,0,0,0,0,0,0,0,-1,2036,897,0,0
-700,120,0,0,0,0,0,0,0,0,0,-1,524,904,0,0
-693,120,0,0,0,0,0,0,0,0,0,-1,531,904,0,0
-686,120,0,0,0,0,0,0,0,0,0,-1,538,904,0,0
-679,120,-52.0888,4.76025,0,0,0,0,0,0,0,-1,545,904,-52.0888,-4.76024
-672,120,-51.1454,5.42755,0,0,0,0,0,0,0,-1,552,904,-51.1454,-5.42753
-665,120,-50.2376,-2.67987,0,0,0,0,0,0,0,-1,559,904,-50.2376,2.67988
-658,120,-54.6443,7.5307,0,0,0,0,0,0,0,-1,566,904,-54.6443,-7.53071
-651,120,-52.9452,-1.22644,0,0,0,0,0,0,0,-1,573,904,-52.9452,1.22647
-644,120,-51.6526,-3.15863,0,0,0,0,0,0,0,-1,580,904,-51.6526,3.15864
-637,120,-50.7862,7.99701,0,0,0,0,0,0,0,-1,587,904,-50.7862,-7.99699
-630,120,-50.7996,7.41382,-0.00291175,0.0173785,-0.000305121,0.0173831,-0.00291634,-1.55576,0.0126732,0.040219,594,904,-50.7996,-7.41381
-623,120,-50.9072,6.76337,-0.00481458,0.0114103,0.00206562,0.0116692,-0.00507343,1.44613,0.00991322,0.0137844,601,904,-50.9073,-6.76339
-616,120,-50.9713,6.07526,-0.00487676,0.00693838,0.00322772,0.00776264,-0.00570102,1.32077,0.00780357,0.0113689,608,904,-50.9712,-6.07525
-609,120,-51.0341,5.33704,-0.00409177,0.00316953,0.00404156,0.00497173,-0.00589397,1.15134,0.00628084,0.0147949,615,904,-51.0341,-5.33703
-602,120,-51.0728,4.60034,-0.00305269,-0.000339911,0.00500432,0.00348858,-0.00688118,0.917741,0.00609285,0.017961,622,904,-51.0728,-4.60033
-595,120,-50.993,3.90991,-0.00274178,-0.00443017,0.00576342,0.00223895,-0.0094109,0.712678,0.00713827,0.0370807,629,904,-50.993,-3.9099
-588,120,-50.8007,2.94104,-0.00354792,-0.00863925,0.00671947,0.00109194,-0.0132791,0.604328,0.00923825,0.0493213,636,904,-50.8006,-2.94102
-581,120,-50.2462,1.64838,0,0,0,0,0,0,0,-1,643,904,-50.2462,-1.64839
-574,120,-27.5438,0.505066,0,0,0,0,0,0,0,-1,650,904,-27.5438,-0.505085
-567,120,-25.2822,-0.410645,0,0,0,0,0,0,0,-1,657,904,-25.2821,0.410629
-560,120,-27.3358,1.10327,0,0,0,0,0,0,0,-1,664,904,-27.3358,-1.10324
-553,120,-57.6725,0.152222,0,0,0,0,0,0,0,-1,671,904,-57.6726,-0.1522
-546,120,-57.6238,0.27063,0,0,0,0,0,0,0,-1,678,904,-57.6238,-0.270617
-539,120,-57.6056,0.256409,0,0,0,0,0,0,0,-1,685,904,-57.6056,-0.25642
-532,120,-57.5536,0.25531,0,0,0,0,0,0,0,-1,692,904,-57.5536,-0.255338
-525,120,-57.6245,0.340332,0,0,0,0,0,0,0,-1,699,904,-57.6245,-0.340321
-518,120,-57.7305,0.520081,0,0,0,0,0,0,0,-1,706,904,-57.7305,-0.520096
-511,120,-57.7451,0.677368,0,0,0,0,0,0,0,-1,713,904,-57.7451,-0.677363
-504,120,0,0,0,0,0,0,0,0,0,-1,720,904,0,0
-497,120,0,0,0,0,0,0,0,0,0,-1,727,904,0,0
-490,120,0,0,0,0,0,0,0,0,0,-1,734,904,0,0
-483,120,0,0,0,0,0,0,0,0,0,-1,741,904,0,0
-476,120,0,0,0,0,0,0,0,0,0,-1,748,904,0,0
-469,120,0,0,0,0,0,0,0,0,0,-1,755,904,0,0
-462,120,0,0,0,0,0,0,0,0,0,-1,762,904,0,0
-455,120,0,0,0,0,0,0,0,0,0,-1,769,904,0,0
-448,120,0,0,0,0,0,0,0,0,0,-1,776,904,0,0
-441,120,0,0,0,0,0,0,0,0,0,-1,783,904,0,0
-434,120,0,0,0,0,0,0,0,0,0,-1,790,904,0,0
-427,120,0,0,0,0,0,0,0,0,0,-1,797,904,0,0
-420,120,0,0,0,0,0,0,0,0,0,-1,804,904,0,0
-413,120,0,0,0,0,0,0,0,0,0,-1,811,904,0,0
-406,120,0,0,0,0,0,0,0,0,0,-1,818,904,0,0
-399,120,0,0,0,0,0,0,0,0,0,-1,825,904,0,0
-392,120,0,0,0,0,0,0,0,0,0,-1,832,904,0,0
-385,120,0,0,0,0,0,0,0,0,0,-1,839,904,0,0
-378,120,0,0,0,0,0,0,0,0,0,-1,846,904,0,0
-371,120,0,0,0,0,0,0,0,0,0,-1,853,904,0,0
-364,120,0,0,0,0,0,0,0,0,0,-1,860,904,0,0
-357,120,0,0,0,0,0,0,0,0,0,-1,867,904,0,0
-350,120,0,0,0,0,0,0,0,0,0,-1,874,904,0,0
-343,120,0,0,0,0,0,0,0,0,0,-1,881,904,0,0
-336,120,0,0,0,0,0,0,0,0,0,-1,888,904,0,0
-329,120,0,0,0,0,0,0,0,0,0,-1,895,904,0,0
-322,120,0,0,0,0,0,0,0,0,0,-1,902,904,0,0
-315,120,0,0,0,0,0,0,0,0,0,-1,909,904,0,0
-308,120,0,0,0,0,0,0,0,0,0,-1,916,904,0,0
-301,120,0,0,0,0,0,0,0,0,0,-1,923,904,0,0
-294,120,0,0,0,0,0,0,0,0,0,-1,930,904,0,0
-287,120,0,0,0,0,0,0,0,0,0,-1,937,904,0,0
-280,120,0,0,0,0,0,0,0,0,0,-1,944,904,0,0
-273,120,0,0,0,0,0,0,0,0,0,-1,951,904,0,0
-266,120,0,0,0,0,0,0,0,0,0,-1,958,904,0,0
-259,120,0,0,0,0,0,0,0,0,0,-1,965,904,0,0
-252,120,0,0,0,0,0,0,0,0,0,-1,972,904,0,0
-245,120,0,0,0,0,0,0,0,0,0,-1,979,904,0,0
-238,120,0,0,0,0,0,0,0,0,0,-1,986,904,0,0
-231,120,0,0,0,0,0,0,0,0,0,-1,993,904,0,0
-224,120,0,0,0,0,0,0,0,0,0,-1,1000,904,0,0
-217,120,0,0,0,0,0,0,0,0,0,-1,1007,904,0,0
-210,120,0,0,0,0,0,0,0,0,0,-1,1014,904,0,0
-203,120,0,0,0,0,0,0,0,0,0,-1,1021,904,0,0
-196,120,0,0,0,0,0,0,0,0,0,-1,1028,904,0,0
-189,120,0,0,0,0,0,0,0,0,0,-1,1035,904,0,0
-182,120,0,0,0,0,0,0,0,0,0,-1,1042,904,0,0
-175,120,0,0,0,0,0,0,0,0,0,-1,1049,904,0,0
-168,120,0,0,0,0,0,0,0,0,0,-1,1056,904,0,0
-161,120,0,0,0,0,0,0,0,0,0,-1,1063,904,0,0
-154,120,0,0,0,0,0,0,0,0,0,-1,1070,904,0,0
-147,120,0,0,0,0,0,0,0,0,0,-1,1077,904,0,0
-140,120,0,0,0,0,0,0,0,0,0,-1,1084,904,0,0
-133,120,0,0,0,0,0,0,0,0,0,-1,1091,904,0,0
-126,120,0,0,0,0,0,0,0,0,0,-1,1098,904,0,0
-119,120,0,0,0,0,0,0,0,0,0,-1,1105,904,0,0
-112,120,0,0,0,0,0,0,0,0,0,-1,1112,904,0,0
-105,120,0,0,0,0,0,0,0,0,0,-1,1119,904,0,0
-98,120,0,0,0,0,0,0,0,0,0,-1,1126,904,0,0
-91,120,0,0,0,0,0,0,0,0,0,-1,1133,904,0,0
-84,120,0,0,0,0,0,0,0,0,0,-1,1140,904,0,0
-77,120,0,0,0,0,0,0,0,0,0,-1,1147,904,0,0
-70,120,0,0,0,0,0,0,0,0,0,-1,1154,904,0,0
-63,120,0,0,0,0,0,0,0,0,0,-1,1161,904,0,0
-56,120,0,0,0,0,0,0,0,0,0,-1,1168,904,0,0
-49,120,0,0,0,0,0,0,0,0,0,-1,1175,904,0,0
-42,120,0,0,0,0,0,0,0,0,0,-1,1182,904,0,0
-35,120,0,0,0,0,0,0,0,0,0,-1,1189,904,0,0
-28,120,0,0,0,0,0,0,0,0,0,-1,1196,904,0,0
-21,120,0,0,0,0,0,0,0,0,0,-1,1203,904,0,0
-14,120,0,0,0,0,0,0,0,0,0,-1,1210,904,0,0
-7,120,0,0,0,0,0,0,0,0,0,-1,1217,904,0,0
0,120,0,0,0,0,0,0,0,0,0,-1,1224,904,0,0
7,120,0,0,0,0,0,0,0,0,0,-1,1231,904,0,0
14,120,0,0,0,0,0,0,0,0,0,-1,1238,904,0,0
21,120,0,0,0,0,0,0,0,0,0,-1,1245,904,0,0
28,120,0,0,0,0,0,0,0,0,0,-1,1252,904,0,0
35,120,0,0,0,0,0,0,0,0,0,-1,1259,904,0,0
42,120,0,0,0,0,0,0,0,0,0,-1,1266,904,0,0
49,120,0,0,0,0,0,0,0,0,0,-1,1273,904,0,0
56,120,0,0,0,0,0,0,0,0,0,-1,1280,904,0,0
63,120,0,0,0,0,0,0,0,0,0,-1,1287,904,0,0
70,120,0,0,0,0,0,0,0,0,0,-1,1294,904,0,0
77,120,0,0,0,0,0,0,0,0,0,-1,1301,904,0,0
84,120,0,0,0,0,0,0,0,0,0,-1,1308,904,0,0
91,120,0,0,0,0,0,0,0,0,0,-1,1315,904,0,0
98,120,0,0,0,0,0,0,0,0,0,-1,1322,904,0,0
105,120,0,0,0,0,0,0,0,0,0,-1,1329,904,0,0
112,120,0,0,0,0,0,0,0,0,0,-1,1336,904,0,0
119,120,0,0,0,0,0,0,0,0,0,-1,1343,904,0,0
126,120,0,0,0,0,0,0,0,0,0,-1,1350,904,0,0
133,120,0,0,0,0,0,0,0,0,0,-1,1357,904,0,0
140,120,0,0,0,0,0,0,0,0,0,-1,1364,904,0,0
147,120,0,0,0,0,0,0,0,0,0,-1,1371,904,0,0
154,120,0,0,0,0,0,0,0,0,0,-1,1378,904,0,0
161,120,0,0,0,0,0,0,0,0,0,-1,1385,904,0,0
168,120,0,0,0,0,0,0,0,0,0,-1,1392,904,0,0
175,120,0,0,0,0,0,0,0,0,0,-1,1399,904,0,0
182,120,0,0,0,0,0,0,0,0,0,-1,1406,904,0,0
189,120,0,0,0,0,0,0,0,0,0,-1,1413,904,0,0
196,120,0,0,0,0,0,0,0,0,0,-1,1420,904,0,0
203,120,0,0,0,0,0,0,0,0,0,-1,1427,904,0,0
210,120,0,0,0,0,0,0,0,0,0,-1,1434,904,0,0
217,120,0,0,0,0,0,0,0,0,0,-1,1441,904,0,0
224,120,0,0,0,0,0,0,0,0,0,-1,1448,904,0,0
231,120,0,0,0,0,0,0,0,0,0,-1,1455,904,0,0
238,120,0,0,0,0,0,0,0,0,0,-1,1462,904,0,0
245,120,0,0,0,0,0,0,0,0,0,-1,1469,904,0,0
252,120,0,0,0,0,0,0,0,0,0,-1,1476,904,0,0
259,120,0,0,0,0,0,0,0,0,0,-1,1483,904,0,0
266,120,0,0,0,0,0,0,0,0,0,-1,1490,904,0,0
273,120,0,0,0,0,0,0,0,0,0,-1,1497,904,0,0
280,120,0,0,0,0,0,0,0,0,0,-1,1504,904,0,0
287,120,0,0,0,0,0,0,0,0,0,-1,1511,904,0,0
294,120,0,0,0,0,0,0,0,0,0,-1,1518,904,0,0
301,120,0,0,0,0,0,0,0,0,0,-1,1525,904,0,0
308,120,0,0,0,0,0,0,0,0,0,-1,1532,904,0,0
315,120,0,0,0,0,0,0,0,0,0,-1,1539,904,0,0
322,120,0,0,0,0,0,0,0,0,0,-1,1546,904,0,0
329,120,0,0,0,0,0,0,0,0,0,-1,1553,904,0,0
336,120,0,0,0,0,0,0,0,0,0,-1,1560,904,0,0
343,120,0,0,0,0,0,0,0,0,0,-1,1567,904,0,0
350,120,0,0,0,0,0,0,0,0,0,-1,1574,904,0,0
357,120,0,0,0,0,0,0,0,0,0,-1,1581,904,0,0
364,120,0,0,0,0,0,0,0,0,0,-1,1588,904,0,0
371,120,0,0,0,0,0,0,0,0,0,-1,1595,904,0,0
378,120,0,0,0,0,0,0,0,0,0,-1,1602,904,0,0
385,120,0,0,0,0,0,0,0,0,0,-1,1609,904,0,0
392,120,0,0,0,0,0,0,0,0,0,-1,1616,904,0,0
399,120,0,0,0,0,0,0,0,0,0,-1,1623,904,0,0
406,120,0,0,0,0,0,0,0,0,0,-1,1630,904,0,0
413,120,0,0,0,0,0,0,0,0,0,-1,1637,904,0,0
420,120,0,0,0,0,0,0,0,0,0,-1,1644,904,0,0
427,120,0,0,0,0,0,0,0,0,0,-1,1651,904,0,0
434,120,0,0,0,0,0,0,0,0,0,-1,1658,904,0,0
441,120,0,0,0,0,0,0,0,0,0,-1,1665,904,0,0
448,120,0,0,0,0,0,0,0,0,0,-1,1672,904,0,0
455,120,0,0,0,0,0,0,0,0,0,-1,1679,904,0,0
462,120,0,0,0,0,0,0,0,0,0,-1,1686,904,0,0
469,120,0,0,0,0,0,0,0,0,0,-1,1693,904,0,0
476,120,0,0,0,0,0,0,0,0,0,-1,1700,904,0,0
483,120,0,0,0,0,0,0,0,0,0,-1,1707,904,0,0
490,120,0,0,0,0,0,0,0,0,0,-1,1714,904,0,0
497,120,0,0,0,0,0,0,0,0,0,-1,1721,904,0,0
504,120,0,0,0,0,0,0,0,0,0,-1,1728,904,0,0
511,120,0,0,0,0,0,0,0,0,0,-1,1735,904,0,0
518,120,0,0,0,0,0,0,0,0,0,-1,1742,904,0,0
525,120,0,0,0,0,0,0,0,0,0,-1,1749,904,0,0
532,120,0,0,0,0,0,0,0,0,0,-1,1756,904,0,0
539,120,0,0,0,0,0,0,0,0,0,-1,1763,904,0,0
546,120,0,0,0,0,0,0,0,0,0,-1,1770,904,0,0
553,120,0,0,0,0,0,0,0,0,0,-1,1777,904,0,0
560,120,0,0,0,0,0,0,0,0,0,-1,1784,904,0,0
567,120,0,0,0,0,0,0,0,0,0,-1,1791,904,0,0
574,120,0,0,0,0,0,0,0,0,0,-1,1798,904,0,0
581,120,0,0,0,0,0,0,0,0,0,-1,1805,904,0,0
588,120,0,0,0,0,0,0,0,0,0,-1,1812,904,0,0
595,120,0,0,0,0,0,0,0,0,0,-1,1819,904,0,0
602,120,0,0,0,0,0,0,0,0,0,-1,1826,904,0,0
609,120,0,0,0,0,0,0,0,0,0,-1,1833,904,0,0
616,120,0,0,0,0,0,0,0,0,0,-1,1840,904,0,0
623,120,0,0,0,0,0,0,0,0,0,-1,1847,904,0,0
630,120,74.6531,2.26337,0.000994452,-8.0046e-05,-0.00249521,0.00300959,-0.00209519,-0.679361,0.00296297,0.0402334,1854,904,74.6531,-2.26336
637,120,74.5466,2.28082,0.00060082,0.0005013,-0.00161721,0.00216903,-0.00106691,-0.770018,0.00190405,0.0408546,1861,904,74.5466,-2.28085
644,120,74.6383,2.30298,7.76637e-05,0.000929119,-0.000900356,0.00149933,-0.000492543,-1.00624,0.00119797,0.0405079,1868,904,74.6383,-2.30295
651,120,74.688,2.11053,-0.000387255,0.00106725,-0.000401791,0.00117086,-0.000490865,-1.31842,0.000985808,0.0413448,1875,904,74.6879,-2.11055
658,120,74.5114,2.3335,-0.000822869,0.00104121,-0.00010071,0.00104663,-0.000828294,-1.51698,0.00108493,0.0392618,1882,904,74.5113,-2.33351
665,120,74.5287,2.35382,-0.000983512,0.000840052,0.000175652,0.000856818,-0.00100028,1.47564,0.00107326,0.0362072,1889,904,74.5287,-2.35381
672,120,74.5671,2.20007,-0.00101435,0.00038257,0.000168614,0.000402634,-0.00103441,1.45236,0.00085599,0.0352108,1896,904,74.5671,-2.20009
679,120,74.5775,2.14069,-0.00098324,-3.45604e-05,0.000110216,-2.1924e-05,-0.000995877,1.45664,0.000656732,0.0322942,1903,904,74.5775,-2.14071
686,120,74.5509,2.23779,-0.00108416,-0.000219055,-0.00013881,-0.000197328,-0.00110589,-1.41553,0.00068108,0.033719,1910,904,74.5508,-2.23777
693,120,74.6674,2.21582,0,0,0,0,0,0,0,-1,1917,904,74.6673,-2.21585
700,120,42.2007,3.00946,0,0,0,0,0,0,0,-1,1924,904,42.2007,-3.00944
707,120,66.8478,3.06818,0,0,0,0,0,0,0,-1,1931,904,66.8478,-3.06816
714,120,67.0696,3.92389,-0.00178332,-0.000227635,-0.00151471,0.000697277,-0.00270823,-1.0226,0.0020773,0.0293734,1938,904,67.0695,-3.92386
721,120,66.9683,4.6629,-0.00184543,0.000125799,-0.00197922,0.00135124,-0.00307087,-1.01641,0.00261666,0.0260664,1945,904,66.9683,-4.66293
728,120,66.8135,5.39502,-0.00235251,0.00083759,-0.0023425,0.00207653,-0.00359145,-1.0843,0.00331114,0.0172132,1952,904,66.8135,-5.39503
735,120,66.7437,6.05194,-0.00215263,0.00239754,-0.00301321,0.00389809,-0.00365318,-1.10876,0.00436049,0.0140365,1959,904,66.7437,-6.05197
742,120,66.6704,6.81653,-0.000525953,0.00579837,-0.00413893,0.00784485,-0.00257244,-1.1116,0.00626594,0.0146683,1966,904,66.6704,-6.81655
749,120,66.6208,7.53369,0.00242183,0.0105684,-0.00540702,0.0132647,-0.000274486,-1.10821,0.00893605,0.0114348,1973,904,66.6209,-7.53366
756,120,66.5001,8.23193,0.00743224,0.0170476,-0.00698312,0.020718,0.00376185,-1.08687,0.0127445,0.015397,1980,904,66.5001,-8.23191
763,120,66.3545,8.94519,0.0146679,0.0253013,-0.00896885,0.0304109,0.00955828,-1.05295,0.0179568,0.0344135,1987,904,66.3546,-8.94517
770,120,66.2644,9.68719,0,0,0,0,0,0,0,-1,1994,904,66.2645,-9.68717
777,120,59.313,9.57587,0,0,0,0,0,0,0,-1,2001,904,59.3129,-9.57587
784,120,60.7788,13.7254,0,0,0,0,0,0,0,-1,2008,904,60.7789,-13.7254
791,120,62.675,12.8759,0,0,0,0,0,0,0,-1,2015,904,62.6751,-12.8759
798,120,62.2224,11.3201,0,0,0,0,0,0,0,-1,2022,904,62.2225,-11.3201
805,120,0,0,0,0,0,0,0,0,0,-1,2029,904,0,0
812,120,0,0,0,0,0,0,0,0,0,-1,2036,904,0,0
-700,113,0,0,0,0,0,0,0,0,0,-1,524,911,0,0
-693,113,0,0,0,0,0,0,0,0,0,-1,531,911,0,0
-686,113,0,0,0,0,0,0,0,0,0,-1,538,911,0,0
-679,113,-52.3769,5.17334,0,0,0,0,0,0,0,-1,545,911,-52.3769,-5.17337
-672,113,-51.7917,5.76129,0,0,0,0,0,0,0,-1,552,911,-51.7918,-5.76129
-665,113,-54.9309,7.34125,0,0,0,0,0,0,0,-1,559,911,-54.9309,-7.34123
-658,113,-54.1535,7.58624,0,0,0,0,0,0,0,-1,566,911,-54.1535,-7.58627
-651,113,-53.3762,7.8313,0,0,0,0,0,0,0,-1,573,911,-53.3762,-7.8313
-644,113,-48.5211,7.83691,0,0,0,0,0,0,0,-1,580,911,-48.5211,-7.83694
-637,113,-51.5563,8.1673,0,0,0,0,0,0,0,-1,587,911,-51.5563,-8.1673
-630,113,-51.6233,7.44696,-0.00543218,0.0199101,0.00276507,0.0202082,-0.00573036,1.46337,0.0157341,0.0255366,594,911,-51.6233,-7.44693
-623,113,-51.7447,6.75336,-0.00644502,0.0129059,0.00455614,0.013925,-0.00746409,1.35075,0.0125354,0.0137827,601,911,-51.7447,-6.75336
-616,113,-51.7808,6.05096,-0.00555559,0.00746086,0.0049706,0.00914188,-0.00723662,1.24468,0.00947744,0.0126089,608,911,-51.7808,-6.05095
-609,113,-51.8046,5.3949,-0.00416657,0.00278731,0.0048943,0.00531397,-0.00669323,1.09424,0.00694759,0.0129366,615,911,-51.8046,-5.39493
-602,113,-51.8528,4.64703,-0.00264327,-0.00126797,0.00521934,0.00330883,-0.00722007,0.850896,0.0062171,0.0218694,622,911,-51.8528,-4.64706
-595,113,-51.8862,4.05243,-0.00183442,-0.00573942,0.00557082,0.00211615,-0.00968999,0.616844,0.00726879,0.0298651,629,911,-51.8863,-4.05244
-588,113,-51.7985,3.25568,-0.00223349,-0.0103658,0.00620374,0.00111791,-0.0137172,0.495305,0.00953927,0.0372368,636,911,-51.7985,-3.2557
-581,113,-51.8289,2.5343,0,0,0,0,0,0,0,-1,643,911,-51.8289,-2.53432
-574,113,-51.8253,1.5932,0,0,0,0,0,0,0,-1,650,911,-51.8253,-1.59321
-567,113,-21.8396,0.437378,0,0,0,0,0,0,0,-1,657,911,-21.8396,-0.437351
-560,113,-57.6203,0.261108,0,0,0,0,0,0,0,-1,664,911,-57.6203,-0.261127
-553,113,-57.6279,0.193848,0,0,0,0,0,0,0,-1,671,911,-57.6279,-0.193872
-546,113,-57.6523,0.171753,0,0,0,0,0,0,0,-1,678,911,-57.6523,-0.171774
-539,113,-57.6379,0.280945,0,0,0,0,0,0,0,-1,685,911,-57.6379,-0.280958
-532,113,-57.4918,0.312683,0,0,0,0,0,0,0,-1,692,911,-57.4918,-0.312684
-525,113,-57.5931,0.437622,0,0,0,0,0,0,0,-1,699,911,-57.5932,-0.437629
-518,113,-57.7409,0.615601,0,0,0,0,0,0,0,-1,706,911,-57.7409,-0.615572
-511,113,-57.9206,0.780151,0,0,0,0,0,0,0,-1,713,911,-57.9206,-0.780159
-504,113,0,0,0,0,0,0,0,0,0,-1,720,911,0,0
-497,113,0,0,0,0,0,0,0,0,0,-1,727,911,0,0
-490,113,0,0,0,0,0,0,0,0,0,-1,734,911,0,0
-483,113,0,0,0,0,0,0,0,0,0,-1,741,911,0,0
-476,113,0,0,0,0,0,0,0,0,0,-1,748,911,0,0
-469,113,0,0,0,0,0,0,0,0,0,-1,755,911,0,0
-462,113,0,0,0,0,0,0,0,0,0,-1,762,911,0,0
-455,113,0,0,0,0,0,0,0,0,0,-1,769,911,0,0
-448,113,0,0,0,0,0,0,0,0,0,-1,776,911,0,0
-441,113,0,0,0,0,0,0,0,0,0,-1,783,911,0,0
-434,113,0,0,0,0,0,0,0,0,0,-1,790,911,0,0
-427,113,0,0,0,0,0,0,0,0,0,-1,797,911,0,0
-420,113,0,0,0,0,0,0,0,0,0,-1,804,911,0,0
-413,113,0,0,0,0,0,0,0,0,0,-1,811,911,0,0
-406,113,0,0,0,0,0,0,0,0,0,-1,818,911,0,0
-399,113,0,0,0,0,0,0,0,0,0,-1,825,911,0,0
-392,113,0,0,0,0,0,0,0,0,0,-1,832,911,0,0
-385,113,0,0,0,0,0,0,0,0,0,-1,839,911,0,0
-378,113,0,0,0,0,0,0,0,0,0,-1,846,911,0,0
-371,113,0,0,0,0,0,0,0,0,0,-1,853,911,0,0
-364,113,0,0,0,0,0,0,0,0,0,-1,860,911,0,0
-357,113,0,0,0,0,0,0,0,0,0,-1,867,911,0,0
-350,113,0,0,0,0,0,0,0,0,0,-1,874,911,0,0
-343,113,0,0,0,0,0,0,0,0,0,-1,881,911,0,0
-336,113,0,0,0,0,0,0,0,0,0,-1,888,911,0,0
-329,113,0,0,0,0,0,0,0,0,0,-1,895,911,0,0
-322,113,0,0,0,0,0,0,0,0,0,-1,902,911,0,0
-315,113,0,0,0,0,0,0,0,0,0,-1,909,911,0,0
-308,113,0,0,0,0,0,0,0,0,0,-1,916,911,0,0
-301,113,0,0,0,0,0,0,0,0,0,-1,923,911,0,0
-294,113,0,0,0,0,0,0,0,0,0,-1,930,911,0,0
-287,113,0,0,0,0,0,0,0,0,0,-1,937,911,0,0
-280,113,0,0,0,0,0,0,0,0,0,-1,944,911,0,0
-273,113,0,0,0,0,0,0,0,0,0,-1,951,911,0,0
-266,113,0,0,0,0,0,0,0,0,0,-1,958,911,0,0
-259,113,0,0,0,0,0,0,0,0,0,-1,965,911,0,0
-252,113,0,0,0,0,0,0,0,0,0,-1,972,911,0,0
-245,113,0,0,0,0,0,0,0,0,0,-1,979,911,0,0
-238,113,0,0,0,0,0,0,0,0,0,-1,986,911,0,0
-231,113,0,0,0,0,0,0,0,0,0,-1,993,911,0,0
-224,113,0,0,0,0,0,0,0,0,0,-1,1000,911,0,0
-217,113,0,0,0,0,0,0,0,0,0,-1,1007,911,0,0
-210,113,0,0,0,0,0,0,0,0,0,-1,1014,911,0,0
-203,113,0,0,0,0,0,0,0,0,0,-1,1021,911,0,0
-196,113,0,0,0,0,0,0,0,0,0,-1,1028,911,0,0
-189,113,0,0,0,0,0,0,0,0,0,-1,1035,911,0,0
-182,113,0,0,0,0,0,0,0,0,0,-1,1042,911,0,0
-175,113,0,0,0,0,0,0,0,0,0,-1,1049,911,0,0
-168,113,0,0,0,0,0,0,0,0,0,-1,1056,911,0,0
-161,113,0,0,0,0,0,0,0,0,0,-1,1063,911,0,0
-154,113,0,0,0,0,0,0,0,0,0,-1,1070,911,0,0
-147,113,0,0,0,0,0,0,0,0,0,-1,1077,911,0,0
-140,113,0,0,0,0,0,0,0,0,0,-1,1084,911,0,0
-133,113,0,0,0,0,0,0,0,0,0,-1,1091,911,0,0
-126,113,0,0,0,0,0,0,0,0,0,-1,1098,911,0,0
-119,113,0,0,0,0,0,0,0,0,0,-1,1105,911,0,0
-112,113,0,0,0,0,0,0,0,0,0,-1,1112,911,0,0
-105,113,0,0,0,0,0,0,0,0,0,-1,1119,911,0,0
-98,113,0,0,0,0,0,0,0,0,0,-1,1126,911,0,0
-91,113,0,0,0,0,0,0,0,0,0,-1,1133,911,0,0
-84,113,0,0,0,0,0,0,0,0,0,-1,1140,911,0,0
-77,113,0,0,0,0,0,0,0,0,0,-1,1147,911,0,0
-70,113,0,0,0,0,0,0,0,0,0,-1,1154,911,0,0
-63,113,0,0,0,0,0,0,0,0,0,-1,1161,911,0,0
-56,113,0,0,0,0,0,0,0,0,0,-1,1168,911,0,0
-49,113,0,0,0,0,0,0,0,0,0,-1,1175,911,0,0
-42,113,0,0,0,0,0,0,0,0,0,-1,1182,911,0,0
-35,113,0,0,0,0,0,0,0,0,0,-1,1189,911,0,0
-28,113,0,0,0,0,0,0,0,0,0,-1,1196,911,0,0
-21,113,0,0,0,0,0,0,0,0,0,-1,1203,911,0,0
-14,113,0,0,0,0,0,0,0,0,0,-1,1210,911,0,0
-7,113,0,0,0,0,0,0,0,0,0,-1,1217,911,0,0
0,113,0,0,0,0,0,0,0,0,0,-1,1224,911,0,0
7,113,0,0,0,0,0,0,0,0,0,-1,1231,911,0,0
14,113,0,0,0,0,0,0,0,0,0,-1,1238,911,0,0
21,113,0,0,0,0,0,0,0,0,0,-1,1245,911,0,0
28,113,0,0,0,0,0,0,0,0,0,-1,1252,911,0,0
35,113,0,0,0,0,0,0,0,0,0,-1,1259,911,0,0
42,113,0,0,0,0,0,0,0,0,0,-1,1266,911,0,0
49,113,0,0,0,0,0,0,0,0,0,-1,1273,911,0,0
56,113,0,0,0,0,0,0,0,0,0,-1,1280,911,0,0
63,113,0,0,0,0,0,0,0,0,0,-1,1287,911,0,0
70,113,0,0,0,0,0,0,0,0,0,-1,1294,911,0,0
77,113,0,0,0,0,0,0,0,0,0,-1,1301,911,0,0
84,113,0,0,0,0,0,0,0,0,0,-1,1308,911,0,0
91,113,0,0,0,0,0,0,0,0,0,-1,1315,911,0,0
98,113,0,0,0,0,0,0,0,0,0,-1,1322,911,0,0
105,113,0,0,0,0,0,0,0,0,0,-1,1329,911,0,0
112,113,0,0,0,0,0,0,0,0,0,-1,1336,911,0,0
119,113,0,0,0,0,0,0,0,0,0,-1,1343,911,0,0
126,113,0,0,0,0,0,0,0,0,0,-1,1350,911,0,0
133,113,0,0,0,0,0,0,0,0,0,-1,1357,911,0,0
140,113,0,0,0,0,0,0,0,0,0,-1,1364,911,0,0
147,113,0,0,0,0,0,0,0,0,0,-1,1371,911,0,0
154,113,0,0,0,0,0,0,0,0,0,-1,1378,911,0,0
161,113,0,0,0,0,0,0,0,0,0,-1,1385,911,0,0
168,113,0,0,0,0,0,0,0,0,0,-1,1392,911,0,0
175,113,0,0,0,0,0,0,0,0,0,-1,1399,911,0,0
182,113,0,0,0,0,0,0,0,0,0,-1,1406,911,0,0
189,113,0,0,0,0,0,0,0,0,0,-1,1413,911,0,0
196,113,0,0,0,0,0,0,0,0,0,-1,1420,911,0,0
203,113,0,0,0,0,0,0,0,0,0,-1,1427,911,0,0
210,113,0,0,0,0,0,0,0,0,0,-1,1434,911,0,0
217,113,0,0,0,0,0,0,0,0,0,-1,1441,911,0,0
224,113,0,0,0,0,0,0,0,0,0,-1,1448,911,0,0
231,113,0,0,0,0,0,0,0,0,0,-1,1455,911,0,0
238,113,0,0,0,0,0,0,0,0,0,-1,1462,911,0,0
245,113,0,0,0,0,0,0,0,0,0,-1,1469,911,0,0
252,113,0,0,0,0,0,0,0,0,0,-1,1476,911,0,0
259,113,0,0,0,0,0,0,0,0,0,-1,1483,911,0,0
266,113,0,0,0,0,0,0,0,0,0,-1,1490,911,0,0
273,113,0,0,0,0,0,0,0,0,0,-1,1497,911,0,0
280,113,0,0,0,0,0,0,0,0,0,-1,1504,911,0,0
287,113,0,0,0,0,0,0,0,0,0,-1,1511,911,0,0
294,113,0,0,0,0,0,0,0,0,0,-1,1518,911,0,0
301,113,0,0,0,0,0,0,0,0,0,-1,1525,911,0,0
308,113,0,0,0,0,0,0,0,0,0,-1,1532,911,0,0
315,113,0,0,0,0,0,0,0,0,0,-1,1539,911,0,0
322,113,0,0,0,0,0,0,0,0,0,-1,1546,911,0,0
329,113,0,0,0,0,0,0,0,0,0,-1,1553,911,0,0
336,113,0,0,0,0,0,0,0,0,0,-1,1560,911,0,0
343,113,0,0,0,0,0,0,0,0,0,-1,1567,911,0,0
350,113,0,0,0,0,0,0,0,0,0,-1,1574,911,0,0
357,113,0,0,0,0,0,0,0,0,0,-1,1581,911,0,0
364,113,0,0,0,0,0,0,0,0,0,-1,1588,911,0,0
371,113,0,0,0,0,0,0,0,0,0,-1,1595,911,0,0
378,113,0,0,0,0,0,0,0,0,0,-1,1602,911,0,0
385,113,0,0,0,0,0,0,0,0,0,-1,1609,911,0,0
392,113,0,0,0,0,0,0,0,0,0,-1,1616,911,0,0
399,113,0,0,0,0,0,0,0,0,0,-1,1623,911,0,0
406,113,0,0,0,0,0,0,0,0,0,-1,1630,911,0,0
413,113,0,0,0,0,0,0,0,0,0,-1,1637,911,0,0
420,113,0,0,0,0,0,0,0,0,0,-1,1644,911,0,0
427,113,0,0,0,0,0,0,0,0,0,-1,1651,911,0,0
434,113,0,0,0,0,0,0,0,0,0,-1,1658,911,0,0
441,113,0,0,0,0,0,0,0,0,0,-1,1665,911,0,0
448,113,0,0,0,0,0,0,0,0,0,-1,1672,911,0,0
455,113,0,0,0,0,0,0,0,0,0,-1,1679,911,0,0
462,113,0,0,0,0,0,0,0,0,0,-1,1686,911,0,0
469,113,0,0,0,0,0,0,0,0,0,-1,1693,911,0,0
476,113,0,0,0,0,0,0,0,0,0,-1,1700,911,0,0
483,113,0,0,0,0,0,0,0,0,0,-1,1707,911,0,0
490,113,0,0,0,0,0,0,0,0,0,-1,1714,911,0,0
497,113,0,0,0,0,0,0,0,0,0,-1,1721,911,0,0
504,113,0,0,0,0,0,0,0,0,0,-1,1728,911,0,0
511,113,0,0,0,0,0,0,0,0,0,-1,1735,911,0,0
518,113,0,0,0,0,0,0,0,0,0,-1,1742,911,0,0
525,113,0,0,0,0,0,0,0,0,0,-1,1749,911,0,0
532,113,0,0,0,0,0,0,0,0,0,-1,1756,911,0,0
539,113,0,0,0,0,0,0,0,0,0,-1,1763,911,0,0
546,113,0,0,0,0,0,0,0,0,0,-1,1770,911,0,0
553,113,0,0,0,0,0,0,0,0,0,-1,1777,911,0,0
560,113,0,0,0,0,0,0,0,0,0,-1,1784,911,0,0
567,113,0,0,0,0,0,0,0,0,0,-1,1791,911,0,0
574,113,0,0,0,0,0,0,0,0,0,-1,1798,911,0,0
581,113,0,0,0,0,0,0,0,0,0,-1,1805,911,0,0
588,113,0,0,0,0,0,0,0,0,0,-1,1812,911,0,0
595,113,0,0,0,0,0,0,0,0,0,-1,1819,911,0,0
602,113,0,0,0,0,0,0,0,0,0,-1,1826,911,0,0
609,113,0,0,0,0,0,0,0,0,0,-1,1833,911,0,0
616,113,0,0,0,0,0,0,0,0,0,-1,1840,911,0,0
623,113,0,0,0,0,0,0,0,0,0,-1,1847,911,0,0
630,113,74.5692,2.29919,0.00147038,0.000219829,-0.00228922,0.00321818,-0.00152798,-0.652081,0.00279752,0.0393249,1854,911,74.5692,-2.29921
637,113,74.6331,2.44531,0.00110353,0.000701621,-0.00150154,0.0024175,-0.000612349,-0.718878,0.00184988,0.039087,1861,911,74.6331,-2.44532
644,113,74.8073,2.39844,0.000566667,0.00106095,-0.000836306,0.00168586,-5.82515e-05,-0.929066,0.00114382,0.0378691,1868,911,74.8072,-2.39843
651,113,74.6941,2.00195,3.02081e-05,0.00113753,-0.000347089,0.00123733,-6.9592e-05,-1.29081,0.000849035,0.040082,1875,911,74.6941,-2.00194
658,113,74.5773,1.88123,-0.000504966,0.00109699,-7.67806e-06,0.00109703,-0.000505003,-1.566,0.00094575,0.0395533,1882,911,74.5773,-1.88123
665,113,74.6038,2.24347,-0.00080073,0.000884133,0.000296098,0.000934654,-0.000851252,1.4018,0.00103147,0.035143,1889,911,74.6038,-2.24344
672,113,74.5988,2.26392,-0.00104856,0.000404274,0.000354797,0.000486289,-0.00113057,1.34363,0.000957881,0.0343859,1896,911,74.5987,-2.26393
679,113,74.5547,2.08179,-0.0011986,-8.16949e-05,0.000321753,4.36394e-06,-0.00128465,1.30945,0.000857895,0.0300667,1903,911,74.5547,-2.08176
686,113,74.5531,2.21466,-0.00139219,-0.000334627,5.94233e-05,-0.000331298,-0.00139551,1.51484,0.000841926,0.0309089,1910,911,74.5531,-2.21465
693,113,74.4764,2.40967,0,0,0,0,0,0,0,-1,1917,911,74.4765,-2.40968
700,113,43.897,2.79669,0,0,0,0,0,0,0,-1,1924,911,43.897,-2.79671
707,113,67.5747,3.1994,0,0,0,0,0,0,0,-1,1931,911,67.5748,-3.19943
714,113,67.5931,3.93677,-0.00244335,-0.000224656,-0.00141582,0.00046466,-0.00313267,-1.11771,0.00225931,0.0315373,1938,911,67.5932,-3.93676
721,113,67.6055,4.64587,-0.00257304,0.000177776,-0.00191132,0.00115713,-0.00355239,-1.09728,0.00283384,0.0263168,1945,911,67.6054,-4.64586
728,113,67.6541,5.41583,-0.00312086,0.00091651,-0.00227403,0.0019386,-0.00414295,-1.14839,0.00358725,0.0267503,1952,911,67.654,-5.41581
735,113,67.5428,6.11957,-0.00289208,0.00255667,-0.00293551,0.00383722,-0.00417263,-1.15945,0.00462584,0.0223065,1959,911,67.5428,-6.11959
742,113,67.432,6.79205,-0.00126402,0.0061042,-0.00406402,0.00790543,-0.00306525,-1.1536,0.00653618,0.0132658,1966,911,67.432,-6.79208
749,113,67.4083,7.51752,0.00173118,0.0112943,-0.00532843,0.0136721,-0.000646549,-1.15108,0.00933769,0.0105059,1973,911,67.4083,-7.51754
756,113,67.3051,8.26172,0.00692635,0.0184405,-0.00687318,0.0216492,0.0037177,-1.13403,0.013367,0.0158045,1980,911,67.3051,-8.26174
763,113,67.1057,9.16766,0.0143836,0.0274349,-0.00879428,0.0318602,0.0099583,-1.10459,0.0188204,0.0380893,1987,911,67.1057,-9.16765
770,113,66.9617,10.0915,0,0,0,0,0,0,0,-1,1994,911,66.9616,-10.0915
777,113,58.1719,9.65338,0,0,0,0,0,0,0,-1,2001,911,58.172,-9.6534
784,113,59.4839,11.6239,0,0,0,0,0,0,0,-1,2008,911,59.4839,-11.6239
791,113,63.7207,8.32813,0,0,0,0,0,0,0,-1,2015,911,63.7207,-8.32813
798,113,66.377,11.5531,0,0,0,0,0,0,0,-1,2022,911,66.3771,-11.5531
805,113,0,0,0,0,0,0,0,0,0,-1,2029,911,0,0
812,113,0,0,0,0,0,0,0,0,0,-1,2036,911,0,0
-700,106,0,0,0,0,0,0,0,0,0,-1,524,918,0,0
-693,106,0,0,0,0,0,0,0,0,0,-1,531,918,0,0
-686,106,0,0,0,0,0,0,0,0,0,-1,538,918,0,0
-679,106,-53.7393,12.3137,0,0,0,0,0,0,0,-1,545,918,-53.7393,-12.3137
-672,106,-54.5009,10.8069,0,0,0,0,0,0,0,-1,552,918,-54.501,-10.8069
-665,106,-55.0218,7.04712,0,0,0,0,0,0,0,-1,559,918,-55.0218,-7.04711
-658,106,-54.4028,9.60437,0,0,0,0,0,0,0,-1,566,918,-54.4028,-9.60437
-651,106,-52.8008,8.01733,0,0,0,0,0,0,0,-1,573,918,-52.8008,-8.01734
-644,106,-50.4526,8.63843,0,0,0,0,0,0,0,-1,580,918,-50.4526,-8.63842
-637,106,-51.9635,8.20203,0,0,0,0,0,0,0,-1,587,918,-51.9635,-8.20202
-630,106,-52.3168,7.53491,-0.00669437,0.020613,0.00411281,0.021219,-0.00730036,1.42451,0.0171068,0.0190264,594,918,-52.3168,-7.53494
-623,106,-52.5548,6.70563,-0.00721698,0.0133133,0.00565593,0.0147684,-0.00867202,1.319,0.013685,0.0196832,601,918,-52.5548,-6.70565
-616,106,-52.6252,5.99652,-0.0058529,0.00751554,0.00576778,0.00966003,-0.00799738,1.21483,0.0102096,0.0196666,608,918,-52.6252,-5.99654
-609,106,-52.5908,5.38831,-0.00403547,0.00245919,0.00534244,0.00546381,-0.00704009,1.05848,0.00723822,0.0139116,615,918,-52.5908,-5.38828
-602,106,-52.6228,4.67987,-0.00206556,-0.00189804,0.00540226,0.00342111,-0.00738471,0.79315,0.0063771,0.0236573,622,918,-52.6228,-4.67989
-595,106,-52.7988,4.00238,-0.000828903,-0.00661398,0.00556248,0.00254816,-0.00999105,0.545635,0.00765283,0.0288877,629,918,-52.7988,-4.00236
-588,106,-52.8282,3.25208,-0.000836551,-0.0114532,0.00602453,0.00188465,-0.0141744,0.424255,0.0101364,0.0345914,636,918,-52.8282,-3.25209
-581,106,-52.3639,2.61017,0,0,0,0,0,0,0,-1,643,918,-52.3639,-2.61019
-574,106,-52.6068,1.49738,0,0,0,0,0,0,0,-1,650,918,-52.6068,-1.49737
-567,106,-41.3706,0.420776,0,0,0,0,0,0,0,-1,657,918,-41.3706,-0.420794
-560,106,-57.5766,0.311584,0,0,0,0,0,0,0,-1,664,918,-57.5766,-0.311571
-553,106,-57.6406,0.324585,0,0,0,0,0,0,0,-1,671,918,-57.6405,-0.324603
-546,106,-57.6996,0.322083,0,0,0,0,0,0,0,-1,678,918,-57.6996,-0.322095
-539,106,-57.6997,0.323547,0,0,0,0,0,0,0,-1,685,918,-57.6997,-0.32357
-532,106,-57.6392,0.349487,0,0,0,0,0,0,0,-1,692,918,-57.6392,-0.3495
-525,106,-57.6244,0.430908,0,0,0,0,0,0,0,-1,699,918,-57.6244,-0.430894
-518,106,-57.6796,0.39032,0,0,0,0,0,0,0,-1,706,918,-57.6796,-0.390323
-511,106,0,0,0,0,0,0,0,0,0,-1,713,918,0,0
-504,106,0,0,0,0,0,0,0,0,0,-1,720,918,0,0
-497,106,0,0,0,0,0,0,0,0,0,-1,727,918,0,0
-490,106,0,0,0,0,0,0,0,0,0,-1,734,918,0,0
-483,106,0,0,0,0,0,0,0,0,0,-1,741,918,0,0
-476,106,0,0,0,0,0,0,0,0,0,-1,748,918,0,0
-469,106,0,0,0,0,0,0,0,0,0,-1,755,918,0,0
-462,106,0,0,0,0,0,0,0,0,0,-1,762,918,0,0
-455,106,0,0,0,0,0,0,0,0,0,-1,769,918,0,0
-448,106,0,0,0,0,0,0,0,0,0,-1,776,918,0,0
-441,106,0,0,0,0,0,0,0,0,0,-1,783,918,0,0
-434,106,0,0,0,0,0,0,0,0,0,-1,790,918,0,0
-427,106,0,0,0,0,0,0,0,0,0,-1,797,918,0,0
-420,106,0,0,0,0,0,0,0,0,0,-1,804,918,0,0
-413,106,0,0,0,0,0,0,0,0,0,-1,811,918,0,0
-406,106,0,0,0,0,0,0,0,0,0,-1,818,918,0,0
-399,106,0,0,0,0,0,0,0,0,0,-1,825,918,0,0
-392,106,0,0,0,0,0,0,0,0,0,-1,832,918,0,0
-385,106,0,0,0,0,0,0,0,0,0,-1,839,918,0,0
-378,106,0,0,0,0,0,0,0,0,0,-1,846,918,0,0
-371,106,0,0,0,0,0,0,0,0,0,-1,853,918,0,0
-364,106,0,0,0,0,0,0,0,0,0,-1,860,918,0,0
-357,106,0,0,0,0,0,0,0,0,0,-1,867,918,0,0
-350,106,0,0,0,0,0,0,0,0,0,-1,874,918,0,0
-343,106,0,0,0,0,0,0,0,0,0,-1,881,918,0,0
-336,106,0,0,0,0,0,0,0,0,0,-1,888,918,0,0
-329,106,0,0,0,0,0,0,0,0,0,-1,895,918,0,0
-322,106,0,0,0,0,0,0,0,0,0,-1,902,918,0,0
-315,106,0,0,0,0,0,0,0,0,0,-1,909,918,0,0
-308,106,0,0,0,0,0,0,0,0,0,-1,916,918,0,0
-301,106,0,0,0,0,0,0,0,0,0,-1,923,918,0,0
-294,106,0,0,0,0,0,0,0,0,0,-1,930,918,0,0
-287,106,0,0,0,0,0,0,0,0,0,-1,937,918,0,0
-280,106,0,0,0,0,0,0,0,0,0,-1,944,918,0,0
-273,106,0,0,0,0,0,0,0,0,0,-1,951,918,0,0
-266,106,0,0,0,0,0,0,0,0,0,-1,958,918,0,0
-259,106,0,0,0,0,0,0,0,0,0,-1,965,918,0,0
-252,106,0,0,0,0,0,0,0,0,0,-1,972,918,0,0
-245,106,0,0,0,0,0,0,0,0,0,-1,979,918,0,0
-238,106,0,0,0,0,0,0,0,0,0,-1,986,918,0,0
-231,106,0,0,0,0,0,0,0,0,0,-1,993,918,0,0
-224,106,0,0,0,0,0,0,0,0,0,-1,1000,918,0,0
-217,106,0,0,0,0,0,0,0,0,0,-1,1007,918,0,0
-210,106,0,0,0,0,0,0,0,0,0,-1,1014,918,0,0
-203,106,0,0,0,0,0,0,0,0,0,-1,1021,918,0,0
-196,106,0,0,0,0,0,0,0,0,0,-1,1028,918,0,0
-189,106,0,0,0,0,0,0,0,0,0,-1,1035,918,0,0
-182,106,0,0,0,0,0,0,0,0,0,-1,1042,918,0,0
-175,106,0,0,0,0,0,0,0,0,0,-1,1049,918,0,0
-168,106,0,0,0,0,0,0,0,0,0,-1,1056,918,0,0
-161,106,0,0,0,0,0,0,0,0,0,-1,1063,918,0,0
-154,106,0,0,0,0,0,0,0,0,0,-1,1070,918,0,0
-147,106,0,0,0,0,0,0,0,0,0,-1,1077,918,0,0
-140,106,0,0,0,0,0,0,0,0,0,-1,1084,918,0,0
-133,106,0,0,0,0,0,0,0,0,0,-1,1091,918,0,0
-126,106,0,0,0,0,0,0,0,0,0,-1,1098,918,0,0
-119,106,0,0,0,0,0,0,0,0,0,-1,1105,918,0,0
-112,106,0,0,0,0,0,0,0,0,0,-1,1112,918,0,0
-105,106,0,0,0,0,0,0,0,0,0,-1,1119,918,0,0
-98,106,0,0,0,0,0,0,0,0,0,-1,1126,918,0,0
-91,106,0,0,0,0,0,0,0,0,0,-1,1133,918,0,0
-84,106,0,0,0,0,0,0,0,0,0,-1,1140,918,0,0
-77,106,0,0,0,0,0,0,0,0,0,-1,1147,918,0,0
-70,106,0,0,0,0,0,0,0,0,0,-1,1154,918,0,0
-63,106,0,0,0,0,0,0,0,0,0,-1,1161,918,0,0
-56,106,0,0,0,0,0,0,0,0,0,-1,1168,918,0,0
-49,106,0,0,0,0,0,0,0,0,0,-1,1175,918,0,0
-42,106,0,0,0,0,0,0,0,0,0,-1,1182,918,0,0
-35,106,0,0,0,0,0,0,0,0,0,-1,1189,918,0,0
-28,106,0,0,0,0,0,0,0,0,0,-1,1196,918,0,0
-21,106,0,0,0,0,0,0,0,0,0,-1,1203,918,0,0
-14,106,0,0,0,0,0,0,0,0,0,-1,1210,918,0,0
-7,106,0,0,0,0,0,0,0,0,0,-1,1217,918,0,0
0,106,0,0,0,0,0,0,0,0,0,-1,1224,918,0,0
7,106,0,0,0,0,0,0,0,0,0,-1,1231,918,0,0
14,106,0,0,0,0,0,0,0,0,0,-1,1238,918,0,0
21,106,0,0,0,0,0,0,0,0,0,-1,1245,918,0,0
28,106,0,0,0,0,0,0,0,0,0,-1,1252,918,0,0
35,106,0,0,0,0,0,0,0,0,0,-1,1259,918,0,0
42,106,0,0,0,0,0,0,0,0,0,-1,1266,918,0,0
49,106,0,0,0,0,0,0,0,0,0,-1,1273,918,0,0
56,106,0,0,0,0,0,0,0,0,0,-1,1280,918,0,0
63,106,0,0,0,0,0,0,0,0,0,-1,1287,918,0,0
70,106,0,0,0,0,0,0,0,0,0,-1,1294,918,0,0
77,106,0,0,0,0,0,0,0,0,0,-1,1301,918,0,0
84,106,0,0,0,0,0,0,0,0,0,-1,1308,918,0,0
91,106,0,0,0,0,0,0,0,0,0,-1,1315,918,0,0
98,106,0,0,0,0,0,0,0,0,0,-1,1322,918,0,0
105,106,0,0,0,0,0,0,0,0,0,-1,1329,918,0,0
112,106,0,0,0,0,0,0,0,0,0,-1,1336,918,0,0
119,106,0,0,0,0,0,0,0,0,0,-1,1343,918,0,0
126,106,0,0,0,0,0,0,0,0,0,-1,1350,918,0,0
133,106,0,0,0,0,0,0,0,0,0,-1,1357,918,0,0
140,106,0,0,0,0,0,0,0,0,0,-1,1364,918,0,0
147,106,0,0,0,0,0,0,0,0,0,-1,1371,918,0,0
154,106,0,0,0,0,0,0,0,0,0,-1,1378,918,0,0
161,106,0,0,0,0,0,0,0,0,0,-1,1385,918,0,0
168,106,0,0,0,0,0,0,0,0,0,-1,1392,918,0,0
175,106,0,0,0,0,0,0,0,0,0,-1,1399,918,0,0
182,106,0,0,0,0,0,0,0,0,0,-1,1406,918,0,0
189,106,0,0,0,0,0,0,0,0,0,-1,1413,918,0,0
196,106,0,0,0,0,0,0,0,0,0,-1,1420,918,0,0
203,106,0,0,0,0,0,0,0,0,0,-1,1427,918,0,0
210,106,0,0,0,0,0,0,0,0,0,-1,1434,918,0,0
217,106,0,0,0,0,0,0,0,0,0,-1,1441,918,0,0
224,106,0,0,0,0,0,0,0,0,0,-1,1448,918,0,0
231,106,0,0,0,0,0,0,0,0,0,-1,1455,918,0,0
238,106,0,0,0,0,0,0,0,0,0,-1,1462,918,0,0
245,106,0,0,0,0,0,0,0,0,0,-1,1469,918,0,0
252,106,0,0,0,0,0,0,0,0,0,-1,1476,918,0,0
259,106,0,0,0,0,0,0,0,0,0,-1,1483,918,0,0
266,106,0,0,0,0,0,0,0,0,0,-1,1490,918,0,0
273,106,0,0,0,0,0,0,0,0,0,-1,1497,918,0,0
280,106,0,0,0,0,0,0,0,0,0,-1,1504,918,0,0
287,106,0,0,0,0,0,0,0,0,0,-1,1511,918,0,0
294,106,0,0,0,0,0,0,0,0,0,-1,1518,918,0,0
301,106,0,0,0,0,0,0,0,0,0,-1,1525,918,0,0
308,106,0,0,0,0,0,0,0,0,0,-1,1532,918,0,0
315,106,0,0,0,0,0,0,0,0,0,-1,1539,918,0,0
322,106,0,0,0,0,0,0,0,0,0,-1,1546,918,0,0
329,106,0,0,0,0,0,0,0,0,0,-1,1553,918,0,0
336,106,0,0,0,0,0,0,0,0,0,-1,1560,918,0,0
343,106,0,0,0,0,0,0,0,0,0,-1,1567,918,0,0
350,106,0,0,0,0,0,0,0,0,0,-1,1574,918,0,0
357,106,0,0,0,0,0,0,0,0,0,-1,1581,918,0,0
364,106,0,0,0,0,0,0,0,0,0,-1,1588,918,0,0
371,106,0,0,0,0,0,0,0,0,0,-1,1595,918,0,0
378,106,0,0,0,0,0,0,0,0,0,-1,1602,918,0,0
385,106,0,0,0,0,0,0,0,0,0,-1,1609,918,0,0
392,106,0,0,0,0,0,0,0,0,0,-1,1616,918,0,0
399,106,0,0,0,0,0,0,0,0,0,-1,1623,918,0,0
406,106,0,0,0,0,0,0,0,0,0,-1,1630,918,0,0
413,106,0,0,0,0,0,0,0,0,0,-1,1637,918,0,0
420,106,0,0,0,0,0,0,0,0,0,-1,1644,918,0,0
427,106,0,0,0,0,0,0,0,0,0,-1,1651,918,0,0
434,106,0,0,0,0,0,0,0,0,0,-1,1658,918,0,0
441,106,0,0,0,0,0,0,0,0,0,-1,1665,918,0,0
448,106,0,0,0,0,0,0,0,0,0,-1,1672,918,0,0
455,106,0,0,0,0,0,0,0,0,0,-1,1679,918,0,0
462,106,0,0,0,0,0,0,0,0,0,-1,1686,918,0,0
469,106,0,0,0,0,0,0,0,0,0,-1,1693,918,0,0
476,106,0,0,0,0,0,0,0,0,0,-1,1700,918,0,0
483,106,0,0,0,0,0,0,0,0,0,-1,1707,918,0,0
490,106,0,0,0,0,0,0,0,0,0,-1,1714,918,0,0
497,106,0,0,0,0,0,0,0,0,0,-1,1721,918,0,0
504,106,0,0,0,0,0,0,0,0,0,-1,1728,918,0,0
511,106,0,0,0,0,0,0,0,0,0,-1,1735,918,0,0
518,106,0,0,0,0,0,0,0,0,0,-1,1742,918,0,0
525,106,0,0,0,0,0,0,0,0,0,-1,1749,918,0,0
532,106,0,0,0,0,0,0,0,0,0,-1,1756,918,0,0
539,106,0,0,0,0,0,0,0,0,0,-1,1763,918,0,0
546,106,0,0,0,0,0,0,0,0,0,-1,1770,918,0,0
553,106,0,0,0,0,0,0,0,0,0,-1,1777,918,0,0
560,106,0,0,0,0,0,0,0,0,0,-1,1784,918,0,0
567,106,0,0,0,0,0,0,0,0,0,-1,1791,918,0,0
574,106,0,0,0,0,0,0,0,0,0,-1,1798,918,0,0
581,106,0,0,0,0,0,0,0,0,0,-1,1805,918,0,0
588,106,0,0,0,0,0,0,0,0,0,-1,1812,918,0,0
595,106,0,0,0,0,0,0,0,0,0,-1,1819,918,0,0
602,106,0,0,0,0,0,0,0,0,0,-1,1826,918,0,0
609,106,0,0,0,0,0,0,0,0,0,-1,1833,918,0,0
616,106,0,0,0,0,0,0,0,0,0,-1,1840,918,0,0
623,106,0,0,0,0,0,0,0,0,0,-1,1847,918,0,0
630,106,74.6362,2.29584,0.00208174,0.00129293,-0.00209722,0.00382133,-0.000446651,-0.692453,0.00270874,0.042102,1854,918,74.6363,-2.29586
637,106,74.7095,2.49719,0.00165365,0.00148107,-0.00127859,0.00284886,0.000285857,-0.751706,0.00181149,0.0389626,1861,918,74.7095,-2.49718
644,106,74.6982,2.62018,0.00103972,0.00163662,-0.000614717,0.00202151,0.000654833,-1.01139,0.00119099,0.036231,1868,918,74.6983,-2.6202
651,106,74.7644,1.83185,0,0,0,0,0,0,0,-1,1875,918,74.7645,-1.83184
658,106,74.6871,1.89313,-0.000169633,0.00136932,0.000275648,0.0014172,-0.000217516,1.3988,0.00102503,0.0399082,1882,918,74.6872,-1.89312
665,106,74.603,2.22369,-0.000524791,0.00107584,0.000615988,0.00128545,-0.0007344,1.24281,0.00118054,0.0400712,1889,918,74.6031,-2.22372
672,106,74.5123,2.28699,-0.000901838,0.000541833,0.000742239,0.000855355,-0.00121536,1.17113,0.00120154,0.0379663,1896,918,74.5123,-2.287
679,106,74.5576,2.17664,-0.00117723,-3.06717e-05,0.000740573,0.000332585,-0.00154048,1.11477,0.00115394,0.0330728,1903,918,74.5576,-2.17666
686,106,74.597,2.25549,-0.00142236,-0.000372248,0.00045704,-0.000201194,-0.00159341,1.21267,0.00100197,0.0354043,1910,918,74.5971,-2.25551
693,106,74.5917,2.10693,-0.00181515,-0.000456923,0.000131952,-0.000444222,-0.00182785,1.47484,0.00110079,0.0439825,1917,918,74.5916,-2.10693
700,106,74.9097,1.79926,0,0,0,0,0,0,0,-1,1924,918,74.9096,-1.79926
707,106,59.4137,3.22595,0,0,0,0,0,0,0,-1,1931,918,59.4136,-3.22598
714,106,68.1049,3.86932,0,0,0,0,0,0,0,-1,1938,918,68.1048,-3.86933
721,106,68.4148,4.74506,-0.00292809,0.000345035,-0.00170816,0.00107409,-0.00365714,-1.16739,0.00286407,0.0337353,1945,918,68.4147,-4.74507
728,106,68.4775,5.50531,-0.00355042,0.00112727,-0.00210878,0.00193758,-0.00436073,-1.20394,0.00372496,0.0324879,1952,918,68.4775,-5.50529
735,106,68.3624,6.18756,-0.00334271,0.00283633,-0.00278117,0.00390374,-0.00441012,-1.20434,0.00480297,0.0275842,1959,918,68.3624,-6.18758
742,106,68.2283,6.80011,-0.00186411,0.00641385,-0.00392483,0.00797886,-0.00342911,-1.19137,0.00675874,0.0132169,1966,918,68.2283,-6.80014
749,106,68.1663,7.49268,0.000926179,0.0118414,-0.00520046,0.0139224,-0.00115479,-1.19016,0.00968949,0.0110893,1973,918,68.1662,-7.49265
756,106,68.0742,8.19629,0.00604105,0.0194687,-0.00670945,0.0222466,0.00326319,-1.17826,0.0138719,0.0142831,1980,918,68.0741,-8.19627
763,106,67.9512,9.06458,0.0134507,0.0289868,-0.00855853,0.0327769,0.00966056,-1.15391,0.019448,0.0314943,1987,918,67.9511,-9.06457
770,106,67.8696,9.96826,0,0,0,0,0,0,0,-1,1994,918,67.8696,-9.96825
777,106,69.2842,10.3057,0,0,0,0,0,0,0,-1,2001,918,69.2841,-10.3057
784,106,69.9578,10.5533,0,0,0,0,0,0,0,-1,2008,918,69.9578,-10.5533
791,106,70.3933,11.3838,0,0,0,0,0,0,0,-1,2015,918,70.3934,-11.3838
798,106,66.1538,10.1818,0,0,0,0,0,0,0,-1,2022,918,66.1539,-10.1818
805,106,0,0,0,0,0,0,0,0,0,-1,2029,918,0,0
812,106,0,0,0,0,0,0,0,0,0,-1,2036,918,0,0
-700,99,0,0,0,0,0,0,0,0,0,-1,524,925,0,0
-693,99,0,0,0,0,0,0,0,0,0,-1,531,925,0,0
-686,99,0,0,0,0,0,0,0,0,0,-1,538,925,0,0
-679,99,-55.6398,10.0591,0,0,0,0,0,0,0,-1,545,925,-55.6398,-10.0591
-672,99,-54.5944,10.0848,0,0,0,0,0,0,0,-1,552,925,-54.5944,-10.0848
-665,99,-55.178,9.35095,0,0,0,0,0,0,0,-1,559,925,-55.178,-9.35098
-658,99,-54.4213,9.13782,0,0,0,0,0,0,0,-1,566,925,-54.4213,-9.13783
-651,99,-53.7476,8.50555,0,0,0,0,0,0,0,-1,573,925,-53.7476,-8.50555
-644,99,-52.7078,8.62823,0,0,0,0,0,0,0,-1,580,925,-52.7078,-8.62824
-637,99,-52.8352,8.03473,-0.00391537,0.0303572,0.00274806,0.0305762,-0.00413432,1.49129,0.0218927,0.0372305,587,925,-52.8352,-8.03473
-630,99,-53.0753,7.45813,-0.00654035,0.021818,0.00536892,0.0228004,-0.00752278,1.38981,0.0182327,0.020275,594,925,-53.0753,-7.45811
-623,99,-53.3558,6.72479,-0.0068236,0.0140584,0.00651854,0.0159262,-0.00869137,1.29174,0.0144161,0.0138715,601,925,-53.3558,-6.7248
-616,99,-53.3753,6.02576,-0.00532281,0.0077798,0.00630278,0.0103194,-0.00786242,1.18776,0.0105292,0.0160579,608,925,-53.3753,-6.02578
-609,99,-53.3549,5.42206,-0.00343959,0.00224422,0.00555784,0.00564459,-0.00683996,1.02173,0.00721896,0.0126513,615,925,-53.3549,-5.42207
-602,99,-53.3558,4.80005,-0.00138833,-0.00250911,0.00537258,0.00345301,-0.00735045,0.733433,0.00637124,0.0193624,622,925,-53.3557,-4.80006
-595,99,-53.51,4.14087,-4.18265e-05,-0.00749826,0.00537719,0.00277318,-0.0103133,0.482278,0.00796254,0.0265948,629,925,-53.51,-4.14087
-588,99,-53.5065,3.4267,4.24615e-05,-0.0125879,0.0056675,0.00221269,-0.0147581,0.3657,0.0106532,0.0302946,636,925,-53.5065,-3.42667
-581,99,-53.6511,2.52472,-0.00173968,-0.0173753,0.00692446,0.000885995,-0.020001,0.362437,0.0136389,0.0291685,643,925,-53.6511,-2.52473
-574,99,-54.1597,1.67334,0,0,0,0,0,0,0,-1,650,925,-54.1597,-1.67334
-567,99,-50.5977,0.659485,0,0,0,0,0,0,0,-1,657,925,-50.5977,-0.659461
-560,99,-57.5635,0.210815,0,0,0,0,0,0,0,-1,664,925,-57.5636,-0.210836
-553,99,-57.6528,0.42041,0,0,0,0,0,0,0,-1,671,925,-57.6528,-0.420404
-546,99,-57.6699,0.51239,0,0,0,0,0,0,0,-1,678,925,-57.6698,-0.512381
-539,99,-57.7311,0.320618,0,0,0,0,0,0,0,-1,685,925,-57.7311,-0.320604
-532,99,-57.7438,0.171936,0,0,0,0,0,0,0,-1,692,925,-57.7438,-0.171943
-525,99,-57.6862,0.196289,0,0,0,0,0,0,0,-1,699,925,-57.6862,-0.19627
-518,99,-57.3898,-0.0299683,0,0,0,0,0,0,0,-1,706,925,-57.3897,0.0299516
-511,99,0,0,0,0,0,0,0,0,0,-1,713,925,0,0
-504,99,0,0,0,0,0,0,0,0,0,-1,720,925,0,0
-497,99,0,0,0,0,0,0,0,0,0,-1,727,925,0,0
-490,99,0,0,0,0,0,0,0,0,0,-1,734,925,0,0
-483,99,0,0,0,0,0,0,0,0,0,-1,741,925,0,0
-476,99,0,0,0,0,0,0,0,0,0,-1,748,925,0,0
-469,99,0,0,0,0,0,0,0,0,0,-1,755,925,0,0
-462,99,0,0,0,0,0,0,0,0,0,-1,762,925,0,0
-455,99,0,0,0,0,0,0,0,0,0,-1,769,925,0,0
-448,99,0,0,0,0,0,0,0,0,0,-1,776,925,0,0
-441,99,0,0,0,0,0,0,0,0,0,-1,783,925,0,0
-434,99,0,0,0,0,0,0,0,0,0,-1,790,925,0,0
-427,99,0,0,0,0,0,0,0,0,0,-1,797,925,0,0
-420,99,0,0,0,0,0,0,0,0,0,-1,804,925,0,0
-413,99,0,0,0,0,0,0,0,0,0,-1,811,925,0,0
-406,99,0,0,0,0,0,0,0,0,0,-1,818,925,0,0
-399,99,0,0,0,0,0,0,0,0,0,-1,825,925,0,0
-392,99,0,0,0,0,0,0,0,0,0,-1,832,925,0,0
-385,99,0,0,0,0,0,0,0,0,0,-1,839,925,0,0
-378,99,0,0,0,0,0,0,0,0,0,-1,846,925,0,0
-371,99,0,0,0,0,0,0,0,0,0,-1,853,925,0,0
-364,99,0,0,0,0,0,0,0,0,0,-1,860,925,0,0
-357,99,0,0,0,0,0,0,0,0,0,-1,867,925,0,0
-350,99,0,0,0,0,0,0,0,0,0,-1,874,925,0,0
-343,99,0,0,0,0,0,0,0,0,0,-1,881,925,0,0
-336,99,0,0,0,0,0,0,0,0,0,-1,888,925,0,0
-329,99,0,0,0,0,0,0,0,0,0,-1,895,925,0,0
-322,99,0,0,0,0,0,0,0,0,0,-1,902,925,0,0
-315,99,0,0,0,0,0,0,0,0,0,-1,909,925,0,0
-308,99,0,0,0,0,0,0,0,0,0,-1,916,925,0,0
-301,99,0,0,0,0,0,0,0,0,0,-1,923,925,0,0
-294,99,0,0,0,0,0,0,0,0,0,-1,930,925,0,0
-287,99,0,0,0,0,0,0,0,0,0,-1,937,925,0,0
-280,99,0,0,0,0,0,0,0,0,0,-1,944,925,0,0
-273,99,0,0,0,0,0,0,0,0,0,-1,951,925,0,0
-266,99,0,0,0,0,0,0,0,0,0,-1,958,925,0,0
-259,99,0,0,0,0,0,0,0,0,0,-1,965,925,0,0
-252,99,0,0,0,0,0,0,0,0,0,-1,972,925,0,0
-245,99,0,0,0,0,0,0,0,0,0,-1,979,925,0,0
-238,99,0,0,0,0,0,0,0,0,0,-1,986,925,0,0
-231,99,0,0,0,0,0,0,0,0,0,-1,993,925,0,0
-224,99,0,0,0,0,0,0,0,0,0,-1,1000,925,0,0
-217,99,0,0,0,0,0,0,0,0,0,-1,1007,925,0,0
-210,99,0,0,0,0,0,0,0,0,0,-1,1014,925,0,0
-203,99,0,0,0,0,0,0,0,0,0,-1,1021,925,0,0
-196,99,0,0,0,0,0,0,0,0,0,-1,1028,925,0,0
-189,99,0,0,0,0,0,0,0,0,0,-1,1035,925,0,0
-182,99,0,0,0,0,0,0,0,0,0,-1,1042,925,0,0
-175,99,0,0,0,0,0,0,0,0,0,-1,1049,925,0,0
-168,99,0,0,0,0,0,0,0,0,0,-1,1056,925,0,0
-161,99,0,0,0,0,0,0,0,0,0,-1,1063,925,0,0
-154,99,0,0,0,0,0,0,0,0,0,-1,1070,925,0,0
-147,99,0,0,0,0,0,0,0,0,0,-1,1077,925,0,0
-140,99,0,0,0,0,0,0,0,0,0,-1,1084,925,0,0
-133,99,0,0,0,0,0,0,0,0,0,-1,1091,925,0,0
-126,99,0,0,0,0,0,0,0,0,0,-1,1098,925,0,0
-119,99,0,0,0,0,0,0,0,0,0,-1,1105,925,0,0
-112,99,0,0,0,0,0,0,0,0,0,-1,1112,925,0,0
-105,99,0,0,0,0,0,0,0,0,0,-1,1119,925,0,0
-98,99,0,0,0,0,0,0,0,0,0,-1,1126,925,0,0
-91,99,0,0,0,0,0,0,0,0,0,-1,1133,925,0,0
-84,99,0,0,0,0,0,0,0,0,0,-1,1140,925,0,0
-77,99,0,0,0,0,0,0,0,0,0,-1,1147,925,0,0
-70,99,0,0,0,0,0,0,0,0,0,-1,1154,925,0,0
-63,99,0,0,0,0,0,0,0,0,0,-1,1161,925,0,0
-56,99,0,0,0,0,0,0,0,0,0,-1,1168,925,0,0
-49,99,0,0,0,0,0,0,0,0,0,-1,1175,925,0,0
-42,99,0,0,0,0,0,0,0,0,0,-1,1182,925,0,0
-35,99,0,0,0,0,0,0,0,0,0,-1,1189,925,0,0
-28,99,0,0,0,0,0,0,0,0,0,-1,1196,925,0,0
-21,99,0,0,0,0,0,0,0,0,0,-1,1203,925,0,0
-14,99,0,0,0,0,0,0,0,0,0,-1,1210,925,0,0
-7,99,0,0,0,0,0,0,0,0,0,-1,1217,925,0,0
0,99,0,0,0,0,0,0,0,0,0,-1,1224,925,0,0
7,99,0,0,0,0,0,0,0,0,0,-1,1231,925,0,0
14,99,0,0,0,0,0,0,0,0,0,-1,1238,925,0,0
21,99,0,0,0,0,0,0,0,0,0,-1,1245,925,0,0
28,99,0,0,0,0,0,0,0,0,0,-1,1252,925,0,0
35,99,0,0,0,0,0,0,0,0,0,-1,1259,925,0,0
42,99,0,0,0,0,0,0,0,0,0,-1,1266,925,0,0
49,99,0,0,0,0,0,0,0,0,0,-1,1273,925,0,0
56,99,0,0,0,0,0,0,0,0,0,-1,1280,925,0,0
63,99,0,0,0,0,0,0,0,0,0,-1,1287,925,0,0
70,99,0,0,0,0,0,0,0,0,0,-1,1294,925,0,0
77,99,0,0,0,0,0,0,0,0,0,-1,1301,925,0,0
84,99,0,0,0,0,0,0,0,0,0,-1,1308,925,0,0
91,99,0,0,0,0,0,0,0,0,0,-1,1315,925,0,0
98,99,0,0,0,0,0,0,0,0,0,-1,1322,925,0,0
105,99,0,0,0,0,0,0,0,0,0,-1,1329,925,0,0
112,99,0,0,0,0,0,0,0,0,0,-1,1336,925,0,0
119,99,0,0,0,0,0,0,0,0,0,-1,1343,925,0,0
126,99,0,0,0,0,0,0,0,0,0,-1,1350,925,0,0
133,99,0,0,0,0,0,0,0,0,0,-1,1357,925,0,0
140,99,0,0,0,0,0,0,0,0,0,-1,1364,925,0,0
147,99,0,0,0,0,0,0,0,0,0,-1,1371,925,0,0
154,99,0,0,0,0,0,0,0,0,0,-1,1378,925,0,0
161,99,0,0,0,0,0,0,0,0,0,-1,1385,925,0,0
168,99,0,0,0,0,0,0,0,0,0,-1,1392,925,0,0
175,99,0,0,0,0,0,0,0,0,0,-1,1399,925,0,0
182,99,0,0,0,0,0,0,0,0,0,-1,1406,925,0,0
189,99,0,0,0,0,0,0,0,0,0,-1,1413,925,0,0
196,99,0,0,0,0,0,0,0,0,0,-1,1420,925,0,0
203,99,0,0,0,0,0,0,0,0,0,-1,1427,925,0,0
210,99,0,0,0,0,0,0,0,0,0,-1,1434,925,0,0
217,99,0,0,0,0,0,0,0,0,0,-1,1441,925,0,0
224,99,0,0,0,0,0,0,0,0,0,-1,1448,925,0,0
231,99,0,0,0,0,0,0,0,0,0,-1,1455,925,0,0
238,99,0,0,0,0,0,0,0,0,0,-1,1462,925,0,0
245,99,0,0,0,0,0,0,0,0,0,-1,1469,925,0,0
252,99,0,0,0,0,0,0,0,0,0,-1,1476,925,0,0
259,99,0,0,0,0,0,0,0,0,0,-1,1483,925,0,0
266,99,0,0,0,0,0,0,0,0,0,-1,1490,925,0,0
273,99,0,0,0,0,0,0,0,0,0,-1,1497,925,0,0
280,99,0,0,0,0,0,0,0,0,0,-1,1504,925,0,0
287,99,0,0,0,0,0,0,0,0,0,-1,1511,925,0,0
294,99,0,0,0,0,0,0,0,0,0,-1,1518,925,0,0
301,99,0,0,0,0,0,0,0,0,0,-1,1525,925,0,0
308,99,0,0,0,0,0,0,0,0,0,-1,1532,925,0,0
315,99,0,0,0,0,0,0,0,0,0,-1,1539,925,0,0
322,99,0,0,0,0,0,0,0,0,0,-1,1546,925,0,0
329,99,0,0,0,0,0,0,0,0,0,-1,1553,925,0,0
336,99,0,0,0,0,0,0,0,0,0,-1,1560,925,0,0
343,99,0,0,0,0,0,0,0,0,0,-1,1567,925,0,0
350,99,0,0,0,0,0,0,0,0,0,-1,1574,925,0,0
357,99,0,0,0,0,0,0,0,0,0,-1,1581,925,0,0
364,99,0,0,0,0,0,0,0,0,0,-1,1588,925,0,0
371,99,0,0,0,0,0,0,0,0,0,-1,1595,925,0,0
378,99,0,0,0,0,0,0,0,0,0,-1,1602,925,0,0
385,99,0,0,0,0,0,0,0,0,0,-1,1609,925,0,0
392,99,0,0,0,0,0,0,0,0,0,-1,1616,925,0,0
399,99,0,0,0,0,0,0,0,0,0,-1,1623,925,0,0
406,99,0,0,0,0,0,0,0,0,0,-1,1630,925,0,0
413,99,0,0,0,0,0,0,0,0,0,-1,1637,925,0,0
420,99,0,0,0,0,0,0,0,0,0,-1,1644,925,0,0
427,99,0,0,0,0,0,0,0,0,0,-1,1651,925,0,0
434,99,0,0,0,0,0,0,0,0,0,-1,1658,925,0,0
441,99,0,0,0,0,0,0,0,0,0,-1,1665,925,0,0
448,99,0,0,0,0,0,0,0,0,0,-1,1672,925,0,0
455,99,0,0,0,0,0,0,0,0,0,-1,1679,925,0,0
462,99,0,0,0,0,0,0,0,0,0,-1,1686,925,0,0
469,99,0,0,0,0,0,0,0,0,0,-1,1693,925,0,0
476,99,0,0,0,0,0,0,0,0,0,-1,1700,925,0,0
483,99,0,0,0,0,0,0,0,0,0,-1,1707,925,0,0
490,99,0,0,0,0,0,0,0,0,0,-1,1714,925,0,0
497,99,0,0,0,0,0,0,0,0,0,-1,1721,925,0,0
504,99,0,0,0,0,0,0,0,0,0,-1,1728,925,0,0
511,99,0,0,0,0,0,0,0,0,0,-1,1735,925,0,0
518,99,0,0,0,0,0,0,0,0,0,-1,1742,925,0,0
525,99,0,0,0,0,0,0,0,0,0,-1,1749,925,0,0
532,99,0,0,0,0,0,0,0,0,0,-1,1756,925,0,0
539,99,0,0,0,0,0,0,0,0,0,-1,1763,925,0,0
546,99,0,0,0,0,0,0,0,0,0,-1,1770,925,0,0
553,99,0,0,0,0,0,0,0,0,0,-1,1777,925,0,0
560,99,0,0,0,0,0,0,0,0,0,-1,1784,925,0,0
567,99,0,0,0,0,0,0,0,0,0,-1,1791,925,0,0
574,99,0,0,0,0,0,0,0,0,0,-1,1798,925,0,0
581,99,0,0,0,0,0,0,0,0,0,-1,1805,925,0,0
588,99,0,0,0,0,0,0,0,0,0,-1,1812,925,0,0
595,99,0,0,0,0,0,0,0,0,0,-1,1819,925,0,0
602,99,0,0,0,0,0,0,0,0,0,-1,1826,925,0,0
609,99,0,0,0,0,0,0,0,0,0,-1,1833,925,0,0
616,99,0,0,0,0,0,0,0,0,0,-1,1840,925,0,0
623,99,0,0,0,0,0,0,0,0,0,-1,1847,925,0,0
630,99,0,0,0,0,0,0,0,0,0,-1,1854,925,0,0
637,99,74.5758,2.68542,0.00205793,0.00257009,-0.000932476,0.00328101,0.00134701,-0.919406,0.00190437,0.044537,1861,925,74.5758,-2.6854
644,99,74.7134,2.55023,0.00139346,0.00248244,-0.000306448,0.00256275,0.00131315,-1.31448,0.00147976,0.0376121,1868,925,74.7134,-2.5502
651,99,74.7886,2.24573,0.000774222,0.00217656,0.000172519,0.00219748,0.00075331,1.45017,0.00128944,0.0361236,1875,925,74.7886,-2.24573
658,99,74.7622,2.04675,0.000194155,0.00186006,0.000545247,0.00202265,3.15653e-05,1.281,0.00133803,0.0400332,1882,925,74.7622,-2.04675
665,99,74.613,2.10834,-0.000204596,0.00147588,0.00086185,0.00183929,-0.000568014,1.17175,0.00145303,0.0426179,1889,925,74.6131,-2.10831
672,99,74.5951,2.19287,-0.000739506,0.000883638,0.00103584,0.00138797,-0.00124384,1.11769,0.00152024,0.0408744,1896,925,74.5951,-2.19285
679,99,74.6241,2.22571,-0.00117962,0.000220331,0.00106972,0.000798739,-0.00175803,1.07511,0.00151039,0.0354429,1903,925,74.6241,-2.22573
686,99,74.5691,2.27209,-0.00151201,-0.000231013,0.000785954,0.000142372,-0.0018854,1.12729,0.00130698,0.0305767,1910,925,74.569,-2.27209
693,99,74.5519,2.25342,-0.00194273,-0.000423213,0.000457841,-0.000295925,-0.00207002,1.29963,0.00129271,0.0396649,1917,925,74.5519,-2.25341
700,99,74.6014,2.21515,0,0,0,0,0,0,0,-1,1924,925,74.6014,-2.21513
707,99,47.9915,3.27429,0,0,0,0,0,0,0,-1,1931,925,47.9914,-3.27427
714,99,68.9526,3.81403,0,0,0,0,0,0,0,-1,1938,925,68.9527,-3.81405
721,99,69.1986,4.6994,-0.00347375,0.00061275,-0.00152183,0.00111721,-0.00397822,-1.25071,0.00309256,0.0378968,1945,925,69.1987,-4.69942
728,99,69.1797,5.44061,-0.00414507,0.00147129,-0.00195982,0.00208754,-0.00476133,-1.26614,0.0040534,0.0304783,1952,925,69.1796,-5.44063
735,99,69.0939,6.17786,-0.0039075,0.00326192,-0.00263925,0.0041287,-0.00477429,-1.25347,0.00514465,0.024049,1959,925,69.0938,-6.17786
742,99,68.9943,6.83478,-0.00250013,0.00677064,-0.00378587,0.00812021,-0.00384969,-1.22837,0.00705591,0.0153661,1966,925,68.9942,-6.83481
749,99,68.9142,7.48102,7.13786e-05,0.0120469,-0.00507707,0.0139096,-0.00179133,-1.21916,0.00992423,0.0138201,1973,925,68.9142,-7.48099
756,99,68.8333,8.10547,0.00503247,0.0195362,-0.00655217,0.0220578,0.00251089,-1.20342,0.0139438,0.0146421,1980,925,68.8333,-8.10546
763,99,68.8245,8.77124,0.0123076,0.0288725,-0.00833033,0.0323371,0.00884299,-1.17666,0.019298,0.0188788,1987,925,68.8246,-8.77122
770,99,69.1382,9.41376,0.0224626,0.0402792,-0.0105819,0.0452032,0.0175386,-1.13527,0.0263155,0.0339394,1994,925,69.1381,-9.41375
777,99,70.0186,9.57788,0,0,0,0,0,0,0,-1,2001,925,70.0185,-9.57791
784,99,70.8503,9.79266,0.0589414,0.0747815,-0.0179113,0.0864457,0.0472772,-0.993564,0.0499826,0.0469656,2008,925,70.8504,-9.79265
791,99,71.7319,10.3193,0.0893839,0.0995141,-0.0247889,0.11975,0.0691479,-0.886175,0.0694136,0.0491538,2015,925,71.732,-10.3193
798,99,72.5664,10.6335,0,0,0,0,0,0,0,-1,2022,925,72.5664,-10.6335
805,99,0,0,0,0,0,0,0,0,0,-1,2029,925,0,0
812,99,0,0,0,0,0,0,0,0,0,-1,2036,925,0,0
-700,92,0,0,0,0,0,0,0,0,0,-1,524,932,0,0
-693,92,0,0,0,0,0,0,0,0,0,-1,531,932,0,0
-686,92,-55.7951,9.05341,0.0715447,0.116691,-0.0571372,0.155552,0.0326833,-0.973522,0.0947061,0.0450795,538,932,-55.7951,-9.05339
-679,92,-55.0422,9.05249,0.0512273,0.0986429,-0.0398505,0.121305,0.0285657,-1.05374,0.0732292,0.0445168,545,932,-55.0422,-9.05248
-672,92,-54.4846,9.0531,0.0334517,0.0863725,-0.0255258,0.0966778,0.0231463,-1.18708,0.058289,0.044394,552,932,-54.4845,-9.05308
-665,92,-54.2741,9.05591,0.0199546,0.0743955,-0.0147964,0.0781571,0.016193,-1.32185,0.0476335,0.0456505,559,932,-54.2741,-9.05589
-658,92,-54.1413,8.79803,0.00994607,0.0627895,-0.00684588,0.063662,0.00907359,-1.44403,0.0397634,0.049761,566,932,-54.1413,-8.79806
-651,92,-54.0513,8.47906,0.00284021,0.0517785,-0.00114813,0.0518054,0.00281329,-1.54735,0.0336384,0.0488324,573,932,-54.0514,-8.47908
-644,92,-54.0059,8.28668,-0.00181634,0.0415621,0.00261044,0.0417186,-0.00197287,1.51091,0.0284928,0.0442981,580,932,-54.0059,-8.28671
-637,92,-53.8431,8.00464,-0.00444588,0.0321435,0.00484494,0.0327741,-0.00507655,1.44135,0.0237234,0.0302694,587,932,-53.8431,-8.00464
-630,92,-53.87,7.34698,-0.00657746,0.0231124,0.00677906,0.024587,-0.00805208,1.35661,0.0196337,0.0161069,594,932,-53.87,-7.34698
-623,92,-54.0293,6.71405,-0.00657203,0.0148072,0.00745501,0.0171501,-0.00891487,1.2663,0.0152969,0.0104536,601,932,-54.0293,-6.71405
-616,92,-54.0615,6.07892,-0.00493905,0.00798414,0.00689114,0.0109692,-0.00792415,1.16202,0.0109552,0.00985443,608,932,-54.0615,-6.0789
-609,92,-54.103,5.46356,-0.00305065,0.00190386,0.00584721,0.00577693,-0.00692372,0.985768,0.00734268,0.00923395,615,932,-54.103,-5.46353
-602,92,-54.0855,4.81195,-0.00104082,-0.00332295,0.00545667,0.00339281,-0.00775659,0.682327,0.00659941,0.0123944,622,932,-54.0855,-4.81194
-595,92,-54.0021,4.05817,0.000234961,-0.00865596,0.00537059,0.00276125,-0.0111822,0.439684,0.00852563,0.026542,629,932,-54.0021,-4.05817
-588,92,-53.9775,3.43445,0.000197608,-0.014098,0.00559095,0.00212449,-0.0160248,0.331894,0.0114572,0.0360749,636,932,-53.9775,-3.43448
-581,92,-54.8079,2.75854,-0.0017979,-0.0192426,0.00677436,0.000523808,-0.0215643,0.330176,0.0145539,0.0462596,643,932,-54.8079,-2.75852
-574,92,-55.712,1.92694,0,0,0,0,0,0,0,-1,650,932,-55.7121,-1.92691
-567,92,-57.6035,0.193298,0,0,0,0,0,0,0,-1,657,932,-57.6034,-0.19329
-560,92,-57.5632,0.161438,0,0,0,0,0,0,0,-1,664,932,-57.5632,-0.161428
-553,92,-57.6809,0.295959,0,0,0,0,0,0,0,-1,671,932,-57.6809,-0.295952
-546,92,-57.696,0.410461,0,0,0,0,0,0,0,-1,678,932,-57.696,-0.410469
-539,92,-57.6609,0.295349,0,0,0,0,0,0,0,-1,685,932,-57.661,-0.295374
-532,92,-57.6938,0.213989,0,0,0,0,0,0,0,-1,692,932,-57.6938,-0.213991
-525,92,-57.6136,0.277588,0,0,0,0,0,0,0,-1,699,932,-57.6136,-0.277577
-518,92,-57.2273,0.129761,0,0,0,0,0,0,0,-1,706,932,-57.2273,-0.12979
-511,92,0,0,0,0,0,0,0,0,0,-1,713,932,0,0
-504,92,0,0,0,0,0,0,0,0,0,-1,720,932,0,0
-497,92,0,0,0,0,0,0,0,0,0,-1,727,932,0,0
-490,92,0,0,0,0,0,0,0,0,0,-1,734,932,0,0
-483,92,0,0,0,0,0,0,0,0,0,-1,741,932,0,0
-476,92,0,0,0,0,0,0,0,0,0,-1,748,932,0,0
-469,92,0,0,0,0,0,0,0,0,0,-1,755,932,0,0
-462,92,0,0,0,0,0,0,0,0,0,-1,762,932,0,0
-455,92,0,0,0,0,0,0,0,0,0,-1,769,932,0,0
-448,92,0,0,0,0,0,0,0,0,0,-1,776,932,0,0
-441,92,0,0,0,0,0,0,0,0,0,-1,783,932,0,0
-434,92,0,0,0,0,0,0,0,0,0,-1,790,932,0,0
-427,92,0,0,0,0,0,0,0,0,0,-1,797,932,0,0
-420,92,0,0,0,0,0,0,0,0,0,-1,804,932,0,0
-413,92,0,0,0,0,0,0,0,0,0,-1,811,932,0,0
-406,92,0,0,0,0,0,0,0,0,0,-1,818,932,0,0
-399,92,0,0,0,0,0,0,0,0,0,-1,825,932,0,0
-392,92,0,0,0,0,0,0,0,0,0,-1,832,932,0,0
-385,92,0,0,0,0,0,0,0,0,0,-1,839,932,0,0
-378,92,0,0,0,0,0,0,0,0,0,-1,846,932,0,0
-371,92,0,0,0,0,0,0,0,0,0,-1,853,932,0,0
-364,92,0,0,0,0,0,0,0,0,0,-1,860,932,0,0
-357,92,0,0,0,0,0,0,0,0,0,-1,867,932,0,0
-350,92,0,0,0,0,0,0,0,0,0,-1,874,932,0,0
-343,92,0,0,0,0,0,0,0,0,0,-1,881,932,0,0
-336,92,0,0,0,0,0,0,0,0,0,-1,888,932,0,0
-329,92,0,0,0,0,0,0,0,0,0,-1,895,932,0,0
-322,92,0,0,0,0,0,0,0,0,0,-1,902,932,0,0
-315,92,0,0,0,0,0,0,0,0,0,-1,909,932,0,0
-308,92,0,0,0,0,0,0,0,0,0,-1,916,932,0,0
-301,92,0,0,0,0,0,0,0,0,0,-1,923,932,0,0
-294,92,0,0,0,0,0,0,0,0,0,-1,930,932,0,0
-287,92,0,0,0,0,0,0,0,0,0,-1,937,932,0,0
-280,92,0,0,0,0,0,0,0,0,0,-1,944,932,0,0
-273,92,0,0,0,0,0,0,0,0,0,-1,951,932,0,0
-266,92,0,0,0,0,0,0,0,0,0,-1,958,932,0,0
-259,92,0,0,0,0,0,0,0,0,0,-1,965,932,0,0
-252,92,0,0,0,0,0,0,0,0,0,-1,972,932,0,0
-245,92,0,0,0,0,0,0,0,0,0,-1,979,932,0,0
-238,92,0,0,0,0,0,0,0,0,0,-1,986,932,0,0
-231,92,0,0,0,0,0,0,0,0,0,-1,993,932,0,0
-224,92,0,0,0,0,0,0,0,0,0,-1,1000,932,0,0
-217,92,0,0,0,0,0,0,0,0,0,-1,1007,932,0,0
-210,92,0,0,0,0,0,0,0,0,0,-1,1014,932,0,0
-203,92,0,0,0,0,0,0,0,0,0,-1,1021,932,0,0
-196,92,0,0,0,0,0,0,0,0,0,-1,1028,932,0,0
-189,92,0,0,0,0,0,0,0,0,0,-1,1035,932,0,0
-182,92,0,0,0,0,0,0,0,0,0,-1,1042,932,0,0
-175,92,0,0,0,0,0,0,0,0,0,-1,1049,932,0,0
-168,92,0,0,0,0,0,0,0,0,0,-1,1056,932,0,0
-161,92,0,0,0,0,0,0,0,0,0,-1,1063,932,0,0
-154,92,0,0,0,0,0,0,0,0,0,-1,1070,932,0,0
-147,92,0,0,0,0,0,0,0,0,0,-1,1077,932,0,0
-140,92,0,0,0,0,0,0,0,0,0,-1,1084,932,0,0
-133,92,0,0,0,0,0,0,0,0,0,-1,1091,932,0,0
-126,92,0,0,0,0,0,0,0,0,0,-1,1098,932,0,0
-119,92,0,0,0,0,0,0,0,0,0,-1,1105,932,0,0
-112,92,0,0,0,0,0,0,0,0,0,-1,1112,932,0,0
-105,92,0,0,0,0,0,0,0,0,0,-1,1119,932,0,0
-98,92,0,0,0,0,0,0,0,0,0,-1,1126,932,0,0
-91,92,0,0,0,0,0,0,0,0,0,-1,1133,932,0,0
-84,92,0,0,0,0,0,0,0,0,0,-1,1140,932,0,0
-77,92,0,0,0,0,0,0,0,0,0,-1,1147,932,0,0
-70,92,0,0,0,0,0,0,0,0,0,-1,1154,932,0,0
-63,92,0,0,0,0,0,0,0,0,0,-1,1161,932,0,0
-56,92,0,0,0,0,0,0,0,0,0,-1,1168,932,0,0
-49,92,0,0,0,0,0,0,0,0,0,-1,1175,932,0,0
-42,92,0,0,0,0,0,0,0,0,0,-1,1182,932,0,0
-35,92,0,0,0,0,0,0,0,0,0,-1,1189,932,0,0
-28,92,0,0,0,0,0,0,0,0,0,-1,1196,932,0,0
-21,92,0,0,0,0,0,0,0,0,0,-1,1203,932,0,0
-14,92,0,0,0,0,0,0,0,0,0,-1,1210,932,0,0
-7,92,0,0,0,0,0,0,0,0,0,-1,1217,932,0,0
0,92,0,0,0,0,0,0,0,0,0,-1,1224,932,0,0
7,92,0,0,0,0,0,0,0,0,0,-1,1231,932,0,0
14,92,0,0,0,0,0,0,0,0,0,-1,1238,932,0,0
21,92,0,0,0,0,0,0,0,0,0,-1,1245,932,0,0
28,92,0,0,0,0,0,0,0,0,0,-1,1252,932,0,0
35,92,0,0,0,0,0,0,0,0,0,-1,1259,932,0,0
42,92,0,0,0,0,0,0,0,0,0,-1,1266,932,0,0
49,92,0,0,0,0,0,0,0,0,0,-1,1273,932,0,0
56,92,0,0,0,0,0,0,0,0,0,-1,1280,932,0,0
63,92,0,0,0,0,0,0,0,0,0,-1,1287,932,0,0
70,92,0,0,0,0,0,0,0,0,0,-1,1294,932,0,0
77,92,0,0,0,0,0,0,0,0,0,-1,1301,932,0,0
84,92,0,0,0,0,0,0,0,0,0,-1,1308,932,0,0
91,92,0,0,0,0,0,0,0,0,0,-1,1315,932,0,0
98,92,0,0,0,0,0,0,0,0,0,-1,1322,932,0,0
105,92,0,0,0,0,0,0,0,0,0,-1,1329,932,0,0
112,92,0,0,0,0,0,0,0,0,0,-1,1336,932,0,0
119,92,0,0,0,0,0,0,0,0,0,-1,1343,932,0,0
126,92,0,0,0,0,0,0,0,0,0,-1,1350,932,0,0
133,92,0,0,0,0,0,0,0,0,0,-1,1357,932,0,0
140,92,0,0,0,0,0,0,0,0,0,-1,1364,932,0,0
147,92,0,0,0,0,0,0,0,0,0,-1,1371,932,0,0
154,92,0,0,0,0,0,0,0,0,0,-1,1378,932,0,0
161,92,0,0,0,0,0,0,0,0,0,-1,1385,932,0,0
168,92,0,0,0,0,0,0,0,0,0,-1,1392,932,0,0
175,92,0,0,0,0,0,0,0,0,0,-1,1399,932,0,0
182,92,0,0,0,0,0,0,0,0,0,-1,1406,932,0,0
189,92,0,0,0,0,0,0,0,0,0,-1,1413,932,0,0
196,92,0,0,0,0,0,0,0,0,0,-1,1420,932,0,0
203,92,0,0,0,0,0,0,0,0,0,-1,1427,932,0,0
210,92,0,0,0,0,0,0,0,0,0,-1,1434,932,0,0
217,92,0,0,0,0,0,0,0,0,0,-1,1441,932,0,0
224,92,0,0,0,0,0,0,0,0,0,-1,1448,932,0,0
231,92,0,0,0,0,0,0,0,0,0,-1,1455,932,0,0
238,92,0,0,0,0,0,0,0,0,0,-1,1462,932,0,0
245,92,0,0,0,0,0,0,0,0,0,-1,1469,932,0,0
252,92,0,0,0,0,0,0,0,0,0,-1,1476,932,0,0
259,92,0,0,0,0,0,0,0,0,0,-1,1483,932,0,0
266,92,0,0,0,0,0,0,0,0,0,-1,1490,932,0,0
273,92,0,0,0,0,0,0,0,0,0,-1,1497,932,0,0
280,92,0,0,0,0,0,0,0,0,0,-1,1504,932,0,0
287,92,0,0,0,0,0,0,0,0,0,-1,1511,932,0,0
294,92,0,0,0,0,0,0,0,0,0,-1,1518,932,0,0
301,92,0,0,0,0,0,0,0,0,0,-1,1525,932,0,0
308,92,0,0,0,0,0,0,0,0,0,-1,1532,932,0,0
315,92,0,0,0,0,0,0,0,0,0,-1,1539,932,0,0
322,92,0,0,0,0,0,0,0,0,0,-1,1546,932,0,0
329,92,0,0,0,0,0,0,0,0,0,-1,1553,932,0,0
336,92,0,0,0,0,0,0,0,0,0,-1,1560,932,0,0
343,92,0,0,0,0,0,0,0,0,0,-1,1567,932,0,0
350,92,0,0,0,0,0,0,0,0,0,-1,1574,932,0,0
357,92,0,0,0,0,0,0,0,0,0,-1,1581,932,0,0
364,92,0,0,0,0,0,0,0,0,0,-1,1588,932,0,0
371,92,0,0,0,0,0,0,0,0,0,-1,1595,932,0,0
378,92,0,0,0,0,0,0,0,0,0,-1,1602,932,0,0
385,92,0,0,0,0,0,0,0,0,0,-1,1609,932,0,0
392,92,0,0,0,0,0,0,0,0,0,-1,1616,932,0,0
399,92,0,0,0,0,0,0,0,0,0,-1,1623,932,0,0
406,92,0,0,0,0,0,0,0,0,0,-1,1630,932,0,0
413,92,0,0,0,0,0,0,0,0,0,-1,1637,932,0,0
420,92,0,0,0,0,0,0,0,0,0,-1,1644,932,0,0
427,92,0,0,0,0,0,0,0,0,0,-1,1651,932,0,0
434,92,0,0,0,0,0,0,0,0,0,-1,1658,932,0,0
441,92,0,0,0,0,0,0,0,0,0,-1,1665,932,0,0
448,92,0,0,0,0,0,0,0,0,0,-1,1672,932,0,0
455,92,0,0,0,0,0,0,0,0,0,-1,1679,932,0,0
462,92,0,0,0,0,0,0,0,0,0,-1,1686,932,0,0
469,92,0,0,0,0,0,0,0,0,0,-1,1693,932,0,0
476,92,0,0,0,0,0,0,0,0,0,-1,1700,932,0,0
483,92,0,0,0,0,0,0,0,0,0,-1,1707,932,0,0
490,92,0,0,0,0,0,0,0,0,0,-1,1714,932,0,0
497,92,0,0,0,0,0,0,0,0,0,-1,1721,932,0,0
504,92,0,0,0,0,0,0,0,0,0,-1,1728,932,0,0
511,92,0,0,0,0,0,0,0,0,0,-1,1735,932,0,0
518,92,0,0,0,0,0,0,0,0,0,-1,1742,932,0,0
525,92,0,0,0,0,0,0,0,0,0,-1,1749,932,0,0
532,92,0,0,0,0,0,0,0,0,0,-1,1756,932,0,0
539,92,0,0,0,0,0,0,0,0,0,-1,1763,932,0,0
546,92,0,0,0,0,0,0,0,0,0,-1,1770,932,0,0
553,92,0,0,0,0,0,0,0,0,0,-1,1777,932,0,0
560,92,0,0,0,0,0,0,0,0,0,-1,1784,932,0,0
567,92,0,0,0,0,0,0,0,0,0,-1,1791,932,0,0
574,92,0,0,0,0,0,0,0,0,0,-1,1798,932,0,0
581,92,0,0,0,0,0,0,0,0,0,-1,1805,932,0,0
588,92,0,0,0,0,0,0,0,0,0,-1,1812,932,0,0
595,92,0,0,0,0,0,0,0,0,0,-1,1819,932,0,0
602,92,0,0,0,0,0,0,0,0,0,-1,1826,932,0,0
609,92,0,0,0,0,0,0,0,0,0,-1,1833,932,0,0
616,92,0,0,0,0,0,0,0,0,0,-1,1840,932,0,0
623,92,0,0,0,0,0,0,0,0,0,-1,1847,932,0,0
630,92,0,0,0,0,0,0,0,0,0,-1,1854,932,0,0
637,92,74.5106,2.57526,0.00235951,0.00351664,-0.000726004,0.00386642,0.00200973,-1.12183,0.00223286,0.0458855,1861,932,74.5107,-2.57525
644,92,74.6256,2.21906,0.00172508,0.00307857,-0.000170267,0.00309966,0.00170399,-1.44756,0.00179254,0.0376158,1868,932,74.6256,-2.21904
651,92,74.6956,2.09705,0.00113563,0.00252441,0.000275002,0.00257688,0.00108316,1.38225,0.00149404,0.0363166,1875,932,74.6955,-2.09704
658,92,74.6299,2.11798,0.000585874,0.00205201,0.000645679,0.00229582,0.000342064,1.20975,0.00143022,0.0408443,1882,932,74.6299,-2.11799
665,92,74.5898,2.18445,0.00018493,0.00157882,0.000941508,0.00205327,-0.000289521,1.10401,0.00147486,0.0427524,1889,932,74.5898,-2.18446
672,92,74.6655,2.1897,-0.000420215,0.000944869,0.00115786,0.00160639,-0.00108173,1.05173,0.00156181,0.0416142,1896,932,74.6655,-2.18968
679,92,74.6665,2.22864,-0.000959875,0.000219101,0.00123313,0.000996403,-0.00173718,1.00836,0.00159743,0.0375304,1903,932,74.6665,-2.22867
686,92,74.5031,2.19153,-0.00133575,-0.000314211,0.000966096,0.000267826,-0.00191779,1.02857,0.00137651,0.0294834,1910,932,74.503,-2.19151
693,92,74.537,2.33014,-0.00177761,-0.000592169,0.000638691,-0.000313544,-0.00205624,1.15944,0.00127918,0.0302127,1917,932,74.537,-2.33011
700,92,74.6064,2.31982,0,0,0,0,0,0,0,-1,1924,932,74.6065,-2.3198
707,92,32.9893,3.26874,0,0,0,0,0,0,0,-1,1931,932,32.9893,-3.26874
714,92,70.3063,4.12567,0,0,0,0,0,0,0,-1,1938,932,70.3063,-4.12565
721,92,70.0822,4.91559,-0.00377089,0.000688952,-0.00139852,0.00109122,-0.00417316,-1.29072,0.00320831,0.0365843,1945,932,70.0821,-4.9156
728,92,69.8489,5.59869,-0.00451789,0.00163986,-0.00184397,0.00214981,-0.00502784,-1.30099,0.00425361,0.028937,1952,932,69.8488,-5.59868
735,92,69.7854,6.2124,-0.00439139,0.00348595,-0.00251146,0.00421853,-0.00512397,-1.28698,0.00540233,0.0222571,1959,932,69.7854,-6.21238
742,92,69.7827,6.83875,-0.00325396,0.00686134,-0.00365784,0.00804545,-0.00443808,-1.25772,0.00730699,0.0219866,1966,932,69.7827,-6.83876
749,92,69.6689,7.4729,-0.00118163,0.0118259,-0.00499461,0.0135225,-0.00287818,-1.24335,0.0101119,0.0199869,1973,932,69.669,-7.47289
756,92,69.5491,8.06439,0.00315294,0.0188909,-0.00652494,0.0212442,0.000799604,-1.22465,0.013904,0.0169563,1980,932,69.5492,-8.06439
763,92,69.5579,8.67584,0.00976562,0.0277431,-0.00834091,0.0310168,0.00649189,-1.19678,0.0188895,0.0199284,1987,932,69.5579,-8.67581
770,92,69.5552,9.26794,0.0188605,0.0380944,-0.0106108,0.0427979,0.014157,-1.15355,0.0251766,0.0301367,1994,932,69.5551,-9.26792
777,92,69.6262,9.83655,0,0,0,0,0,0,0,-1,2001,932,69.6261,-9.83656
784,92,71.7524,9.03778,0.0504663,0.0670504,-0.017562,0.0781796,0.0393371,-1.00596,0.0451373,0.0484199,2008,932,71.7524,-9.03778
791,92,72.6631,9.28796,0.0765813,0.0865782,-0.0237501,0.10585,0.0573094,-0.889115,0.0611825,0.0472767,2015,932,72.6631,-9.28798
798,92,73.4846,9.56061,0,0,0,0,0,0,0,-1,2022,932,73.4846,-9.56063
805,92,0,0,0,0,0,0,0,0,0,-1,2029,932,0,0
812,92,0,0,0,0,0,0,0,0,0,-1,2036,932,0,0
-700,85,0,0,0,0,0,0,0,0,0,-1,524,939,0,0
-693,85,0,0,0,0,0,0,0,0,0,-1,531,939,0,0
-686,85,-54.8445,8.26807,0.0479582,0.141253,-0.0381895,0.154892,0.0343195,-1.22778,0.0939349,0.0454755,538,939,-54.8445,-8.26805
-679,85,-54.2832,8.29059,0.0345728,0.116997,-0.0244142,0.123685,0.0278841,-1.30339,0.0749126,0.0477664,545,939,-54.2832,-8.29058
-672,85,-54.1727,8.32465,0.0223277,0.0984626,-0.0141193,0.100997,0.0197936,-1.39321,0.0617991,0.0446817,552,939,-54.1727,-8.32465
-665,85,-54.095,8.58807,0.0123948,0.0827382,-0.00638298,0.0833127,0.0118203,-1.48103,0.052051,0.0405921,559,939,-54.095,-8.58806
-658,85,-53.6062,9.17749,0.0049096,0.0686935,-0.000709092,0.0687014,0.00490172,-1.55968,0.0442576,0.045311,566,939,-53.6062,-9.17746
-651,85,-53.7929,8.76917,-0.0003594,0.0559888,0.00321928,0.0561721,-0.00054273,1.51391,0.0376303,0.0436158,573,939,-53.7929,-8.76915
-644,85,-54.2626,8.22412,-0.00365092,0.0445458,0.00565567,0.0452006,-0.00430569,1.45554,0.0316667,0.0368837,580,939,-54.2626,-8.22414
-637,85,-54.4925,7.83978,-0.00531041,0.034209,0.0068994,0.0353789,-0.0064803,1.40283,0.0260165,0.0232272,587,939,-54.4925,-7.83977
-630,85,-54.6087,7.25531,-0.00677511,0.0245365,0.00807873,0.026498,-0.00873663,1.33261,0.0211867,0.0144322,594,939,-54.6087,-7.2553
-623,85,-54.7217,6.64203,-0.00637172,0.0156085,0.00823897,0.0183539,-0.00911708,1.24915,0.0161565,0.0104255,601,939,-54.7217,-6.64204
-616,85,-54.7463,6.05023,-0.00452347,0.0081915,0.00731759,0.0115276,-0.00785953,1.14305,0.0112597,0.0104498,608,939,-54.7463,-6.05025
-609,85,-54.7776,5.4679,-0.00255519,0.00155943,0.00600792,0.00585253,-0.00684828,0.950357,0.00734033,0.0121888,615,939,-54.7776,-5.46789
-602,85,-54.8071,4.83911,-0.000516387,-0.00416655,0.00542202,0.00337947,-0.00806241,0.623052,0.0067879,0.0171398,622,939,-54.8071,-4.83913
-595,85,-54.7145,4.17963,0.000785574,-0.00981358,0.00527541,0.00296366,-0.0119917,0.391557,0.00914386,0.0219714,629,939,-54.7145,-4.17962
-588,85,-54.6392,3.54126,0.000801806,-0.0155188,0.00544293,0.00245048,-0.0171675,0.294117,0.0123432,0.0279817,636,939,-54.6391,-3.54124
-581,85,-54.5757,2.84918,0,0,0,0,0,0,0,-1,643,939,-54.5757,-2.84918
-574,85,-53.3043,1.55475,0,0,0,0,0,0,0,-1,650,939,-53.3043,-1.55477
-567,85,-57.5778,0.207031,0,0,0,0,0,0,0,-1,657,939,-57.5777,-0.207058
-560,85,-57.5628,0.162903,0,0,0,0,0,0,0,-1,664,939,-57.5628,-0.162933
-553,85,-57.5934,0.131714,0,0,0,0,0,0,0,-1,671,939,-57.5934,-0.131715
-546,85,-57.6573,0.195129,0,0,0,0,0,0,0,-1,678,939,-57.6573,-0.195148
-539,85,-57.6306,0.319031,0,0,0,0,0,0,0,-1,685,939,-57.6305,-0.319054
-532,85,-57.6268,0.187622,0,0,0,0,0,0,0,-1,692,939,-57.6268,-0.187597
-525,85,-57.6031,0.261719,0,0,0,0,0,0,0,-1,699,939,-57.6031,-0.261724
-518,85,-57.5599,0.363464,0,0,0,0,0,0,0,-1,706,939,-57.5599,-0.363462
-511,85,0,0,0,0,0,0,0,0,0,-1,713,939,0,0
-504,85,0,0,0,0,0,0,0,0,0,-1,720,939,0,0
-497,85,0,0,0,0,0,0,0,0,0,-1,727,939,0,0
-490,85,0,0,0,0,0,0,0,0,0,-1,734,939,0,0
-483,85,0,0,0,0,0,0,0,0,0,-1,741,939,0,0
-476,85,0,0,0,0,0,0,0,0,0,-1,748,939,0,0
-469,85,0,0,0,0,0,0,0,0,0,-1,755,939,0,0
-462,85,0,0,0,0,0,0,0,0,0,-1,762,939,0,0
-455,85,0,0,0,0,0,0,0,0,0,-1,769,939,0,0
-448,85,0,0,0,0,0,0,0,0,0,-1,776,939,0,0
-441,85,0,0,0,0,0,0,0,0,0,-1,783,939,0,0
-434,85,0,0,0,0,0,0,0,0,0,-1,790,939,0,0
-427,85,0,0,0,0,0,0,0,0,0,-1,797,939,0,0
-420,85,0,0,0,0,0,0,0,0,0,-1,804,939,0,0
-413,85,0,0,0,0,0,0,0,0,0,-1,811,939,0,0
-406,85,0,0,0,0,0,0,0,0,0,-1,818,939,0,0
-399,85,0,0,0,0,0,0,0,0,0,-1,825,939,0,0
-392,85,0,0,0,0,0,0,0,0,0,-1,832,939,0,0
-385,85,0,0,0,0,0,0,0,0,0,-1,839,939,0,0
-378,85,0,0,0,0,0,0,0,0,0,-1,846,939,0,0
-371,85,0,0,0,0,0,0,0,0,0,-1,853,939,0,0
-364,85,0,0,0,0,0,0,0,0,0,-1,860,939,0,0
-357,85,0,0,0,0,0,0,0,0,0,-1,867,939,0,0
-350,85,0,0,0,0,0,0,0,0,0,-1,874,939,0,0
-343,85,0,0,0,0,0,0,0,0,0,-1,881,939,0,0
-336,85,0,0,0,0,0,0,0,0,0,-1,888,939,0,0
-329,85,0,0,0,0,0,0,0,0,0,-1,895,939,0,0
-322,85,0,0,0,0,0,0,0,0,0,-1,902,939,0,0
-315,85,0,0,0,0,0,0,0,0,0,-1,909,939,0,0
-308,85,0,0,0,0,0,0,0,0,0,-1,916,939,0,0
-301,85,0,0,0,0,0,0,0,0,0,-1,923,939,0,0
-294,85,0,0,0,0,0,0,0,0,0,-1,930,939,0,0
-287,85,0,0,0,0,0,0,0,0,0,-1,937,939,0,0
-280,85,0,0,0,0,0,0,0,0,0,-1,944,939,0,0
-273,85,0,0,0,0,0,0,0,0,0,-1,951,939,0,0
-266,85,0,0,0,0,0,0,0,0,0,-1,958,939,0,0
-259,85,0,0,0,0,0,0,0,0,0,-1,965,939,0,0
-252,85,0,0,0,0,0,0,0,0,0,-1,972,939,0,0
-245,85,0,0,0,0,0,0,0,0,0,-1,979,939,0,0
-238,85,0,0,0,0,0,0,0,0,0,-1,986,939,0,0
-231,85,0,0,0,0,0,0,0,0,0,-1,993,939,0,0
-224,85,0,0,0,0,0,0,0,0,0,-1,1000,939,0,0
-217,85,0,0,0,0,0,0,0,0,0,-1,1007,939,0,0
-210,85,0,0,0,0,0,0,0,0,0,-1,1014,939,0,0
-203,85,0,0,0,0,0,0,0,0,0,-1,1021,939,0,0
-196,85,0,0,0,0,0,0,0,0,0,-1,1028,939,0,0
-189,85,0,0,0,0,0,0,0,0,0,-1,1035,939,0,0
-182,85,0,0,0,0,0,0,0,0,0,-1,1042,939,0,0
-175,85,0,0,0,0,0,0,0,0,0,-1,1049,939,0,0
-168,85,0,0,0,0,0,0,0,0,0,-1,1056,939,0,0
-161,85,0,0,0,0,0,0,0,0,0,-1,1063,939,0,0
-154,85,0,0,0,0,0,0,0,0,0,-1,1070,939,0,0
-147,85,0,0,0,0,0,0,0,0,0,-1,1077,939,0,0
-140,85,0,0,0,0,0,0,0,0,0,-1,1084,939,0,0
-133,85,0,0,0,0,0,0,0,0,0,-1,1091,939,0,0
-126,85,0,0,0,0,0,0,0,0,0,-1,1098,939,0,0
-119,85,0,0,0,0,0,0,0,0,0,-1,1105,939,0,0
-112,85,0,0,0,0,0,0,0,0,0,-1,1112,939,0,0
-105,85,0,0,0,0,0,0,0,0,0,-1,1119,939,0,0
-98,85,0,0,0,0,0,0,0,0,0,-1,1126,939,0,0
-91,85,0,0,0,0,0,0,0,0,0,-1,1133,939,0,0
-84,85,0,0,0,0,0,0,0,0,0,-1,1140,939,0,0
-77,85,0,0,0,0,0,0,0,0,0,-1,1147,939,0,0
-70,85,0,0,0,0,0,0,0,0,0,-1,1154,939,0,0
-63,85,0,0,0,0,0,0,0,0,0,-1,1161,939,0,0
-56,85,0,0,0,0,0,0,0,0,0,-1,1168,939,0,0
-49,85,0,0,0,0,0,0,0,0,0,-1,1175,939,0,0
-42,85,0,0,0,0,0,0,0,0,0,-1,1182,939,0,0
-35,85,0,0,0,0,0,0,0,0,0,-1,1189,939,0,0
-28,85,0,0,0,0,0,0,0,0,0,-1,1196,939,0,0
-21,85,0,0,0,0,0,0,0,0,0,-1,1203,939,0,0
-14,85,0,0,0,0,0,0,0,0,0,-1,1210,939,0,0
-7,85,0,0,0,0,0,0,0,0,0,-1,1217,939,0,0
0,85,0,0,0,0,0,0,0,0,0,-1,1224,939,0,0
7,85,0,0,0,0,0,0,0,0,0,-1,1231,939,0,0
14,85,0,0,0,0,0,0,0,0,0,-1,1238,939,0,0
21,85,0,0,0,0,0,0,0,0,0,-1,1245,939,0,0
28,85,0,0,0,0,0,0,0,0,0,-1,1252,939,0,0
35,85,0,0,0,0,0,0,0,0,0,-1,1259,939,0,0
42,85,0,0,0,0,0,0,0,0,0,-1,1266,939,0,0
49,85,0,0,0,0,0,0,0,0,0,-1,1273,939,0,0
56,85,0,0,0,0,0,0,0,0,0,-1,1280,939,0,0
63,85,0,0,0,0,0,0,0,0,0,-1,1287,939,0,0
70,85,0,0,0,0,0,0,0,0,0,-1,1294,939,0,0
77,85,0,0,0,0,0,0,0,0,0,-1,1301,939,0,0
84,85,0,0,0,0,0,0,0,0,0,-1,1308,939,0,0
91,85,0,0,0,0,0,0,0,0,0,-1,1315,939,0,0
98,85,0,0,0,0,0,0,0,0,0,-1,1322,939,0,0
105,85,0,0,0,0,0,0,0,0,0,-1,1329,939,0,0
112,85,0,0,0,0,0,0,0,0,0,-1,1336,939,0,0
119,85,0,0,0,0,0,0,0,0,0,-1,1343,939,0,0
126,85,0,0,0,0,0,0,0,0,0,-1,1350,939,0,0
133,85,0,0,0,0,0,0,0,0,0,-1,1357,939,0,0
140,85,0,0,0,0,0,0,0,0,0,-1,1364,939,0,0
147,85,0,0,0,0,0,0,0,0,0,-1,1371,939,0,0
154,85,0,0,0,0,0,0,0,0,0,-1,1378,939,0,0
161,85,0,0,0,0,0,0,0,0,0,-1,1385,939,0,0
168,85,0,0,0,0,0,0,0,0,0,-1,1392,939,0,0
175,85,0,0,0,0,0,0,0,0,0,-1,1399,939,0,0
182,85,0,0,0,0,0,0,0,0,0,-1,1406,939,0,0
189,85,0,0,0,0,0,0,0,0,0,-1,1413,939,0,0
196,85,0,0,0,0,0,0,0,0,0,-1,1420,939,0,0
203,85,0,0,0,0,0,0,0,0,0,-1,1427,939,0,0
210,85,0,0,0,0,0,0,0,0,0,-1,1434,939,0,0
217,85,0,0,0,0,0,0,0,0,0,-1,1441,939,0,0
224,85,0,0,0,0,0,0,0,0,0,-1,1448,939,0,0
231,85,0,0,0,0,0,0,0,0,0,-1,1455,939,0,0
238,85,0,0,0,0,0,0,0,0,0,-1,1462,939,0,0
245,85,0,0,0,0,0,0,0,0,0,-1,1469,939,0,0
252,85,0,0,0,0,0,0,0,0,0,-1,1476,939,0,0
259,85,0,0,0,0,0,0,0,0,0,-1,1483,939,0,0
266,85,0,0,0,0,0,0,0,0,0,-1,1490,939,0,0
273,85,0,0,0,0,0,0,0,0,0,-1,1497,939,0,0
280,85,0,0,0,0,0,0,0,0,0,-1,1504,939,0,0
287,85,0,0,0,0,0,0,0,0,0,-1,1511,939,0,0
294,85,0,0,0,0,0,0,0,0,0,-1,1518,939,0,0
301,85,0,0,0,0,0,0,0,0,0,-1,1525,939,0,0
308,85,0,0,0,0,0,0,0,0,0,-1,1532,939,0,0
315,85,0,0,0,0,0,0,0,0,0,-1,1539,939,0,0
322,85,0,0,0,0,0,0,0,0,0,-1,1546,939,0,0
329,85,0,0,0,0,0,0,0,0,0,-1,1553,939,0,0
336,85,0,0,0,0,0,0,0,0,0,-1,1560,939,0,0
343,85,0,0,0,0,0,0,0,0,0,-1,1567,939,0,0
350,85,0,0,0,0,0,0,0,0,0,-1,1574,939,0,0
357,85,0,0,0,0,0,0,0,0,0,-1,1581,939,0,0
364,85,0,0,0,0,0,0,0,0,0,-1,1588,939,0,0
371,85,0,0,0,0,0,0,0,0,0,-1,1595,939,0,0
378,85,0,0,0,0,0,0,0,0,0,-1,1602,939,0,0
385,85,0,0,0,0,0,0,0,0,0,-1,1609,939,0,0
392,85,0,0,0,0,0,0,0,0,0,-1,1616,939,0,0
399,85,0,0,0,0,0,0,0,0,0,-1,1623,939,0,0
406,85,0,0,0,0,0,0,0,0,0,-1,1630,939,0,0
413,85,0,0,0,0,0,0,0,0,0,-1,1637,939,0,0
420,85,0,0,0,0,0,0,0,0,0,-1,1644,939,0,0
427,85,0,0,0,0,0,0,0,0,0,-1,1651,939,0,0
434,85,0,0,0,0,0,0,0,0,0,-1,1658,939,0,0
441,85,0,0,0,0,0,0,0,0,0,-1,1665,939,0,0
448,85,0,0,0,0,0,0,0,0,0,-1,1672,939,0,0
455,85,0,0,0,0,0,0,0,0,0,-1,1679,939,0,0
462,85,0,0,0,0,0,0,0,0,0,-1,1686,939,0,0
469,85,0,0,0,0,0,0,0,0,0,-1,1693,939,0,0
476,85,0,0,0,0,0,0,0,0,0,-1,1700,939,0,0
483,85,0,0,0,0,0,0,0,0,0,-1,1707,939,0,0
490,85,0,0,0,0,0,0,0,0,0,-1,1714,939,0,0
497,85,0,0,0,0,0,0,0,0,0,-1,1721,939,0,0
504,85,0,0,0,0,0,0,0,0,0,-1,1728,939,0,0
511,85,0,0,0,0,0,0,0,0,0,-1,1735,939,0,0
518,85,0,0,0,0,0,0,0,0,0,-1,1742,939,0,0
525,85,0,0,0,0,0,0,0,0,0,-1,1749,939,0,0
532,85,0,0,0,0,0,0,0,0,0,-1,1756,939,0,0
539,85,0,0,0,0,0,0,0,0,0,-1,1763,939,0,0
546,85,0,0,0,0,0,0,0,0,0,-1,1770,939,0,0
553,85,0,0,0,0,0,0,0,0,0,-1,1777,939,0,0
560,85,0,0,0,0,0,0,0,0,0,-1,1784,939,0,0
567,85,0,0,0,0,0,0,0,0,0,-1,1791,939,0,0
574,85,0,0,0,0,0,0,0,0,0,-1,1798,939,0,0
581,85,0,0,0,0,0,0,0,0,0,-1,1805,939,0,0
588,85,0,0,0,0,0,0,0,0,0,-1,1812,939,0,0
595,85,0,0,0,0,0,0,0,0,0,-1,1819,939,0,0
602,85,0,0,0,0,0,0,0,0,0,-1,1826,939,0,0
609,85,0,0,0,0,0,0,0,0,0,-1,1833,939,0,0
616,85,0,0,0,0,0,0,0,0,0,-1,1840,939,0,0
623,85,0,0,0,0,0,0,0,0,0,-1,1847,939,0,0
630,85,0,0,0,0,0,0,0,0,0,-1,1854,939,0,0
637,85,74.5149,2.42487,0.00223813,0.00412105,-0.00050152,0.0042463,0.00211288,-1.32606,0.00245161,0.0482664,1861,939,74.5149,-2.42489
644,85,74.439,2.20996,0.00170269,0.00333585,2.25584e-05,0.00333616,0.00170238,1.55699,0.00192627,0.0402573,1868,939,74.439,-2.20998
651,85,74.5643,2.07092,0.001193,0.00254423,0.000445167,0.00267771,0.00105953,1.27949,0.00155715,0.0390591,1875,939,74.5643,-2.07094
658,85,74.5249,2.23578,0.000723317,0.00193506,0.000804688,0.00233647,0.000321914,1.10808,0.0014622,0.0413157,1882,939,74.5249,-2.23576
665,85,74.514,2.43976,0.000349913,0.00138275,0.00108159,0.00206488,-0.000332215,1.00813,0.00149964,0.0419492,1889,939,74.514,-2.43978
672,85,74.5975,2.44415,-0.000312925,0.000701311,0.00132394,0.00161194,-0.00122355,0.968297,0.00164218,0.0400043,1896,939,74.5975,-2.44416
679,85,74.576,2.32404,-0.000933534,-7.80526e-05,0.0014453,0.00100147,-0.00201306,0.929268,0.00177281,0.03794,1903,939,74.576,-2.32405
686,85,74.4733,2.2699,-0.00134948,-0.000684867,0.00121365,0.000241147,-0.00227549,0.919027,0.00160343,0.0333363,1910,939,74.4733,-2.26992
693,85,74.4858,2.37305,-0.00181271,-0.00104023,0.000899157,-0.000447864,-0.00240507,0.98826,0.0014769,0.0326484,1917,939,74.4858,-2.37304
700,85,74.5345,2.33783,-0.00250035,-0.00107249,0.000552379,-0.000883749,-0.0026891,1.24154,0.00158265,0.0468685,1924,939,74.5345,-2.33783
707,85,74.6985,2.289,0,0,0,0,0,0,0,-1,1931,939,74.6984,-2.28901
714,85,71.1045,4.26324,0,0,0,0,0,0,0,-1,1938,939,71.1045,-4.26323
721,85,70.7802,5.01593,-0.00416965,0.000445589,-0.00118814,0.000733501,-0.00445756,-1.33306,0.00324397,0.0343079,1945,939,70.7801,-5.01594
728,85,70.4998,5.83691,-0.00497183,0.00152429,-0.00164154,0.00191553,-0.00536307,-1.33682,0.0043566,0.0360809,1952,939,70.4997,-5.83689
735,85,70.4908,6.32947,-0.00495668,0.00343567,-0.00229558,0.00402254,-0.00554356,-1.3205,0.00554621,0.0342268,1959,939,70.4908,-6.32947
742,85,70.5264,6.88782,-0.00406404,0.00668258,-0.00343583,0.00768715,-0.00506862,-1.28634,0.00741609,0.0237704,1966,939,70.5264,-6.88781
749,85,70.4033,7.48315,-0.00245811,0.0113633,-0.00481148,0.0128733,-0.00396811,-1.2667,0.0101664,0.0165831,1973,939,70.4033,-7.48315
756,85,70.2502,8.03949,0.00118792,0.018017,-0.00638703,0.0201665,-0.000961564,-1.24616,0.0137761,0.0144072,1980,939,70.2502,-8.0395
763,85,70.1887,8.58191,0.00702793,0.0264116,-0.00823922,0.0294405,0.00399906,-1.21852,0.0184391,0.015827,1987,939,70.1888,-8.58193
770,85,70.0637,9.12708,0.0150767,0.0359238,-0.0105,0.0402956,0.010705,-1.17627,0.0241013,0.0227408,1994,939,70.0638,-9.12708
777,85,69.751,9.76843,0.0262035,0.047197,-0.0133122,0.053653,0.0197474,-1.11924,0.031334,0.0456608,2001,939,69.751,-9.76842
784,85,69.5957,10.4392,0,0,0,0,0,0,0,-1,2008,939,69.5957,-10.4392
791,85,73.3916,8.35565,0,0,0,0,0,0,0,-1,2015,939,73.3915,-8.35566
798,85,70.4397,9.56995,0,0,0,0,0,0,0,-1,2022,939,70.4396,-9.56996
805,85,67.4045,8.44751,0,0,0,0,0,0,0,-1,2029,939,67.4046,-8.4475
812,85,0,0,0,0,0,0,0,0,0,-1,2036,939,0,0
-700,78,0,0,0,0,0,0,0,0,0,-1,524,946,0,0
-693,78,0,0,0,0,0,0,0,0,0,-1,531,946,0,0
-686,78,-53.8355,7.44275,0,0,0,0,0,0,0,-1,538,946,-53.8355,-7.44274
-679,78,-53.9764,7.60559,0,0,0,0,0,0,0,-1,545,946,-53.9764,-7.60559
-672,78,-54.0061,8.0752,0.0118848,0.110267,-0.00478759,0.1105,0.0116524,-1.52229,0.070106,0.0491261,552,946,-54.0061,-8.07518
-665,78,-53.9108,8.37946,0.00496227,0.0914864,0.000897112,0.0914957,0.00495297,1.56043,0.059415,0.0455263,559,946,-53.9108,-8.37944
-658,78,-53.7443,8.93268,0,0,0,0,0,0,0,-1,566,946,-53.7443,-8.9327
-651,78,-54.2286,8.52252,-0.00378597,0.0606282,0.00724727,0.0614336,-0.0045913,1.46013,0.0425688,0.0465484,573,946,-54.2286,-8.52253
-644,78,-54.7321,8.10095,-0.00584765,0.0478254,0.00850554,0.049141,-0.00716327,1.41733,0.0353909,0.0318615,580,946,-54.732,-8.10096
-637,78,-55.1259,7.63214,-0.00663194,0.0364938,0.00886002,0.0382431,-0.00838124,1.37587,0.0287,0.0215623,587,946,-55.1259,-7.63214
-630,78,-55.324,7.11609,-0.00740056,0.0261028,0.00927742,0.0285002,-0.00979802,1.31791,0.0229735,0.0190325,594,946,-55.324,-7.11608
-623,78,-55.3928,6.55487,-0.00663184,0.0165345,0.00891734,0.0195694,-0.00966677,1.24275,0.0171992,0.0147884,601,946,-55.3928,-6.55486
-616,78,-55.4191,5.99945,-0.0046412,0.00852353,0.00764317,0.0120281,-0.00814573,1.14088,0.011719,0.0137676,608,946,-55.4191,-5.99948
-609,78,-55.4105,5.48962,-0.00270765,0.00137186,0.0061078,0.0057715,-0.00710728,0.946555,0.00744889,0.0132264,615,946,-55.4105,-5.48965
-602,78,-55.4418,4.90784,-0.000793877,-0.00484888,0.00535126,0.0029011,-0.00854386,0.604313,0.00687025,0.0176742,622,946,-55.4418,-4.90784
-595,78,-55.3558,4.25012,0.000376484,-0.0107909,0.00519312,0.00241815,-0.0128325,0.374587,0.00946461,0.0174334,629,946,-55.3558,-4.25013
-588,78,-55.3321,3.70142,0.000261998,-0.0167392,0.00537452,0.00181851,-0.0182958,0.281898,0.0128463,0.015406,636,946,-55.3321,-3.70141
-581,78,-55.278,3.07178,0,0,0,0,0,0,0,-1,643,946,-55.278,-3.0718
-574,78,-57.622,0.114197,0,0,0,0,0,0,0,-1,650,946,-57.622,-0.11417
-567,78,-57.5851,0.158081,0,0,0,0,0,0,0,-1,657,946,-57.5851,-0.158104
-560,78,-57.5894,0.172668,0,0,0,0,0,0,0,-1,664,946,-57.5893,-0.172682
-553,78,-57.5567,0.128845,0,0,0,0,0,0,0,-1,671,946,-57.5567,-0.128872
-546,78,-57.6354,0.131226,0,0,0,0,0,0,0,-1,678,946,-57.6354,-0.131244
-539,78,-57.6462,0.30249,0,0,0,0,0,0,0,-1,685,946,-57.6462,-0.302508
-532,78,-57.5076,0.249573,0,0,0,0,0,0,0,-1,692,946,-57.5076,-0.249577
-525,78,-57.4473,0.431458,0,0,0,0,0,0,0,-1,699,946,-57.4473,-0.431452
-518,78,-57.4735,0.324768,0,0,0,0,0,0,0,-1,706,946,-57.4735,-0.324741
-511,78,0,0,0,0,0,0,0,0,0,-1,713,946,0,0
-504,78,0,0,0,0,0,0,0,0,0,-1,720,946,0,0
-497,78,0,0,0,0,0,0,0,0,0,-1,727,946,0,0
-490,78,0,0,0,0,0,0,0,0,0,-1,734,946,0,0
-483,78,0,0,0,0,0,0,0,0,0,-1,741,946,0,0
-476,78,0,0,0,0,0,0,0,0,0,-1,748,946,0,0
-469,78,0,0,0,0,0,0,0,0,0,-1,755,946,0,0
-462,78,0,0,0,0,0,0,0,0,0,-1,762,946,0,0
-455,78,0,0,0,0,0,0,0,0,0,-1,769,946,0,0
-448,78,0,0,0,0,0,0,0,0,0,-1,776,946,0,0
-441,78,0,0,0,0,0,0,0,0,0,-1,783,946,0,0
-434,78,0,0,0,0,0,0,0,0,0,-1,790,946,0,0
-427,78,0,0,0,0,0,0,0,0,0,-1,797,946,0,0
-420,78,0,0,0,0,0,0,0,0,0,-1,804,946,0,0
-413,78,0,0,0,0,0,0,0,0,0,-1,811,946,0,0
-406,78,0,0,0,0,0,0,0,0,0,-1,818,946,0,0
-399,78,0,0,0,0,0,0,0,0,0,-1,825,946,0,0
-392,78,0,0,0,0,0,0,0,0,0,-1,832,946,0,0
-385,78,0,0,0,0,0,0,0,0,0,-1,839,946,0,0
-378,78,0,0,0,0,0,0,0,0,0,-1,846,946,0,0
-371,78,0,0,0,0,0,0,0,0,0,-1,853,946,0,0
-364,78,0,0,0,0,0,0,0,0,0,-1,860,946,0,0
-357,78,0,0,0,0,0,0,0,0,0,-1,867,946,0,0
-350,78,0,0,0,0,0,0,0,0,0,-1,874,946,0,0
-343,78,0,0,0,0,0,0,0,0,0,-1,881,946,0,0
-336,78,0,0,0,0,0,0,0,0,0,-1,888,946,0,0
-329,78,0,0,0,0,0,0,0,0,0,-1,895,946,0,0
-322,78,0,0,0,0,0,0,0,0,0,-1,902,946,0,0
-315,78,0,0,0,0,0,0,0,0,0,-1,909,946,0,0
-308,78,0,0,0,0,0,0,0,0,0,-1,916,946,0,0
-301,78,0,0,0,0,0,0,0,0,0,-1,923,946,0,0
-294,78,0,0,0,0,0,0,0,0,0,-1,930,946,0,0
-287,78,0,0,0,0,0,0,0,0,0,-1,937,946,0,0
-280,78,0,0,0,0,0,0,0,0,0,-1,944,946,0,0
-273,78,0,0,0,0,0,0,0,0,0,-1,951,946,0,0
-266,78,0,0,0,0,0,0,0,0,0,-1,958,946,0,0
-259,78,0,0,0,0,0,0,0,0,0,-1,965,946,0,0
-252,78,0,0,0,0,0,0,0,0,0,-1,972,946,0,0
-245,78,0,0,0,0,0,0,0,0,0,-1,979,946,0,0
-238,78,0,0,0,0,0,0,0,0,0,-1,986,946,0,0
-231,78,0,0,0,0,0,0,0,0,0,-1,993,946,0,0
-224,78,0,0,0,0,0,0,0,0,0,-1,1000,946,0,0
-217,78,0,0,0,0,0,0,0,0,0,-1,1007,946,0,0
-210,78,0,0,0,0,0,0,0,0,0,-1,1014,946,0,0
-203,78,0,0,0,0,0,0,0,0,0,-1,1021,946,0,0
-196,78,0,0,0,0,0,0,0,0,0,-1,1028,946,0,0
-189,78,0,0,0,0,0,0,0,0,0,-1,1035,946,0,0
-182,78,0,0,0,0,0,0,0,0,0,-1,1042,946,0,0
-175,78,0,0,0,0,0,0,0,0,0,-1,1049,946,0,0
-168,78,0,0,0,0,0,0,0,0,0,-1,1056,946,0,0
-161,78,0,0,0,0,0,0,0,0,0,-1,1063,946,0,0
-154,78,0,0,0,0,0,0,0,0,0,-1,1070,946,0,0
-147,78,0,0,0,0,0,0,0,0,0,-1,1077,946,0,0
-140,78,0,0,0,0,0,0,0,0,0,-1,1084,946,0,0
-133,78,0,0,0,0,0,0,0,0,0,-1,1091,946,0,0
-126,78,0,0,0,0,0,0,0,0,0,-1,1098,946,0,0
-119,78,0,0,0,0,0,0,0,0,0,-1,1105,946,0,0
-112,78,0,0,0,0,0,0,0,0,0,-1,1112,946,0,0
-105,78,0,0,0,0,0,0,0,0,0,-1,1119,946,0,0
-98,78,0,0,0,0,0,0,0,0,0,-1,1126,946,0,0
-91,78,0,0,0,0,0,0,0,0,0,-1,1133,946,0,0
-84,78,0,0,0,0,0,0,0,0,0,-1,1140,946,0,0
-77,78,0,0,0,0,0,0,0,0,0,-1,1147,946,0,0
-70,78,0,0,0,0,0,0,0,0,0,-1,1154,946,0,0
-63,78,0,0,0,0,0,0,0,0,0,-1,1161,946,0,0
-56,78,0,0,0,0,0,0,0,0,0,-1,1168,946,0,0
-49,78,0,0,0,0,0,0,0,0,0,-1,1175,946,0,0
-42,78,0,0,0,0,0,0,0,0,0,-1,1182,946,0,0
-35,78,0,0,0,0,0,0,0,0,0,-1,1189,946,0,0
-28,78,0,0,0,0,0,0,0,0,0,-1,1196,946,0,0
-21,78,0,0,0,0,0,0,0,0,0,-1,1203,946,0,0
-14,78,0,0,0,0,0,0,0,0,0,-1,1210,946,0,0
-7,78,0,0,0,0,0,0,0,0,0,-1,1217,946,0,0
0,78,0,0,0,0,0,0,0,0,0,-1,1224,946,0,0
7,78,0,0,0,0,0,0,0,0,0,-1,1231,946,0,0
14,78,0,0,0,0,0,0,0,0,0,-1,1238,946,0,0
21,78,0,0,0,0,0,0,0,0,0,-1,1245,946,0,0
28,78,0,0,0,0,0,0,0,0,0,-1,1252,946,0,0
35,78,0,0,0,0,0,0,0,0,0,-1,1259,946,0,0
42,78,0,0,0,0,0,0,0,0,0,-1,1266,946,0,0
49,78,0,0,0,0,0,0,0,0,0,-1,1273,946,0,0
56,78,0,0,0,0,0,0,0,0,0,-1,1280,946,0,0
63,78,0,0,0,0,0,0,0,0,0,-1,1287,946,0,0
70,78,0,0,0,0,0,0,0,0,0,-1,1294,946,0,0
77,78,0,0,0,0,0,0,0,0,0,-1,1301,946,0,0
84,78,0,0,0,0,0,0,0,0,0,-1,1308,946,0,0
91,78,0,0,0,0,0,0,0,0,0,-1,1315,946,0,0
98,78,0,0,0,0,0,0,0,0,0,-1,1322,946,0,0
105,78,0,0,0,0,0,0,0,0,0,-1,1329,946,0,0
112,78,0,0,0,0,0,0,0,0,0,-1,1336,946,0,0
119,78,0,0,0,0,0,0,0,0,0,-1,1343,946,0,0
126,78,0,0,0,0,0,0,0,0,0,-1,1350,946,0,0
133,78,0,0,0,0,0,0,0,0,0,-1,1357,946,0,0
140,78,0,0,0,0,0,0,0,0,0,-1,1364,946,0,0
147,78,0,0,0,0,0,0,0,0,0,-1,1371,946,0,0
154,78,0,0,0,0,0,0,0,0,0,-1,1378,946,0,0
161,78,0,0,0,0,0,0,0,0,0,-1,1385,946,0,0
168,78,0,0,0,0,0,0,0,0,0,-1,1392,946,0,0
175,78,0,0,0,0,0,0,0,0,0,-1,1399,946,0,0
182,78,0,0,0,0,0,0,0,0,0,-1,1406,946,0,0
189,78,0,0,0,0,0,0,0,0,0,-1,1413,946,0,0
196,78,0,0,0,0,0,0,0,0,0,-1,1420,946,0,0
203,78,0,0,0,0,0,0,0,0,0,-1,1427,946,0,0
210,78,0,0,0,0,0,0,0,0,0,-1,1434,946,0,0
217,78,0,0,0,0,0,0,0,0,0,-1,1441,946,0,0
224,78,0,0,0,0,0,0,0,0,0,-1,1448,946,0,0
231,78,0,0,0,0,0,0,0,0,0,-1,1455,946,0,0
238,78,0,0,0,0,0,0,0,0,0,-1,1462,946,0,0
245,78,0,0,0,0,0,0,0,0,0,-1,1469,946,0,0
252,78,0,0,0,0,0,0,0,0,0,-1,1476,946,0,0
259,78,0,0,0,0,0,0,0,0,0,-1,1483,946,0,0
266,78,0,0,0,0,0,0,0,0,0,-1,1490,946,0,0
273,78,0,0,0,0,0,0,0,0,0,-1,1497,946,0,0
280,78,0,0,0,0,0,0,0,0,0,-1,1504,946,0,0
287,78,0,0,0,0,0,0,0,0,0,-1,1511,946,0,0
294,78,0,0,0,0,0,0,0,0,0,-1,1518,946,0,0
301,78,0,0,0,0,0,0,0,0,0,-1,1525,946,0,0
308,78,0,0,0,0,0,0,0,0,0,-1,1532,946,0,0
315,78,0,0,0,0,0,0,0,0,0,-1,1539,946,0,0
322,78,0,0,0,0,0,0,0,0,0,-1,1546,946,0,0
329,78,0,0,0,0,0,0,0,0,0,-1,1553,946,0,0
336,78,0,0,0,0,0,0,0,0,0,-1,1560,946,0,0
343,78,0,0,0,0,0,0,0,0,0,-1,1567,946,0,0
350,78,0,0,0,0,0,0,0,0,0,-1,1574,946,0,0
357,78,0,0,0,0,0,0,0,0,0,-1,1581,946,0,0
364,78,0,0,0,0,0,0,0,0,0,-1,1588,946,0,0
371,78,0,0,0,0,0,0,0,0,0,-1,1595,946,0,0
378,78,0,0,0,0,0,0,0,0,0,-1,1602,946,0,0
385,78,0,0,0,0,0,0,0,0,0,-1,1609,946,0,0
392,78,0,0,0,0,0,0,0,0,0,-1,1616,946,0,0
399,78,0,0,0,0,0,0,0,0,0,-1,1623,946,0,0
406,78,0,0,0,0,0,0,0,0,0,-1,1630,946,0,0
413,78,0,0,0,0,0,0,0,0,0,-1,1637,946,0,0
420,78,0,0,0,0,0,0,0,0,0,-1,1644,946,0,0
427,78,0,0,0,0,0,0,0,0,0,-1,1651,946,0,0
434,78,0,0,0,0,0,0,0,0,0,-1,1658,946,0,0
441,78,0,0,0,0,0,0,0,0,0,-1,1665,946,0,0
448,78,0,0,0,0,0,0,0,0,0,-1,1672,946,0,0
455,78,0,0,0,0,0,0,0,0,0,-1,1679,946,0,0
462,78,0,0,0,0,0,0,0,0,0,-1,1686,946,0,0
469,78,0,0,0,0,0,0,0,0,0,-1,1693,946,0,0
476,78,0,0,0,0,0,0,0,0,0,-1,1700,946,0,0
483,78,0,0,0,0,0,0,0,0,0,-1,1707,946,0,0
490,78,0,0,0,0,0,0,0,0,0,-1,1714,946,0,0
497,78,0,0,0,0,0,0,0,0,0,-1,1721,946,0,0
504,78,0,0,0,0,0,0,0,0,0,-1,1728,946,0,0
511,78,0,0,0,0,0,0,0,0,0,-1,1735,946,0,0
518,78,0,0,0,0,0,0,0,0,0,-1,1742,946,0,0
525,78,0,0,0,0,0,0,0,0,0,-1,1749,946,0,0
532,78,0,0,0,0,0,0,0,0,0,-1,1756,946,0,0
539,78,0,0,0,0,0,0,0,0,0,-1,1763,946,0,0
546,78,0,0,0,0,0,0,0,0,0,-1,1770,946,0,0
553,78,0,0,0,0,0,0,0,0,0,-1,1777,946,0,0
560,78,0,0,0,0,0,0,0,0,0,-1,1784,946,0,0
567,78,0,0,0,0,0,0,0,0,0,-1,1791,946,0,0
574,78,0,0,0,0,0,0,0,0,0,-1,1798,946,0,0
581,78,0,0,0,0,0,0,0,0,0,-1,1805,946,0,0
588,78,0,0,0,0,0,0,0,0,0,-1,1812,946,0,0
595,78,0,0,0,0,0,0,0,0,0,-1,1819,946,0,0
602,78,0,0,0,0,0,0,0,0,0,-1,1826,946,0,0
609,78,0,0,0,0,0,0,0,0,0,-1,1833,946,0,0
616,78,0,0,0,0,0,0,0,0,0,-1,1840,946,0,0
623,78,0,0,0,0,0,0,0,0,0,-1,1847,946,0,0
630,78,0,0,0,0,0,0,0,0,0,-1,1854,946,0,0
637,78,74.4747,2.37152,0.00215921,0.00472138,-0.000324556,0.00476185,0.00211874,-1.44673,0.00275481,0.04744,1861,946,74.4748,-2.3715
644,78,74.2606,2.23322,0.00172632,0.00374374,0.000167533,0.00375756,0.0017125,1.4885,0.00217226,0.0434434,1868,946,74.2606,-2.2332
651,78,74.4281,1.88641,0.0012757,0.0028219,0.000560112,0.00300347,0.00109412,1.25731,0.00175522,0.041014,1875,946,74.4281,-1.88643
658,78,74.504,2.13947,0.00085254,0.0021321,0.000894882,0.00259238,0.00039226,1.09574,0.00161347,0.0404186,1882,946,74.5041,-2.13945
665,78,74.5264,2.40192,0.000488363,0.00153983,0.00114652,0.0022754,-0.000247212,1.00037,0.0016057,0.0404494,1889,946,74.5264,-2.40194
672,78,74.4827,2.55853,-0.000217719,0.000843692,0.00140104,0.00181117,-0.0011852,0.966445,0.00174249,0.0393521,1896,946,74.4826,-2.55852
679,78,74.4807,2.3927,-0.000898002,1.82026e-05,0.00155986,0.00118584,-0.00206564,0.928223,0.00190001,0.039424,1903,946,74.4808,-2.39271
686,78,74.5198,2.29462,-0.00134127,-0.000663478,0.00137263,0.000411473,-0.00241622,0.906425,0.00176404,0.0372978,1910,946,74.5198,-2.29462
693,78,74.4886,2.27246,-0.00181596,-0.00110109,0.00108225,-0.000318783,-0.00259827,0.944893,0.0016363,0.0333287,1917,946,74.4886,-2.27248
700,78,74.4579,2.28674,-0.00252566,-0.00117437,0.000737609,-0.000849736,-0.00285029,1.15619,0.00168974,0.0310218,1924,946,74.4579,-2.28672
707,78,74.5464,2.39575,0,0,0,0,0,0,0,-1,1931,946,74.5464,-2.39577
714,78,71.5178,4.37787,0,0,0,0,0,0,0,-1,1938,946,71.5179,-4.37786
721,78,71.3275,5.05487,-0.00441356,0.000412797,-0.00102661,0.00062209,-0.00462286,-1.36968,0.00330882,0.032809,1945,946,71.3275,-5.05485
728,78,71.2151,5.8891,-0.00523583,0.00159423,-0.00146971,0.00189706,-0.00553866,-1.36759,0.00446133,0.045249,1952,946,71.2151,-5.88908
735,78,71.2391,6.41626,-0.00533916,0.00348498,-0.0020905,0.00395518,-0.00580936,-1.34956,0.00567134,0.0310011,1959,946,71.2392,-6.41629
742,78,71.2094,6.90814,-0.0046859,0.00653047,-0.00320139,0.00737989,-0.00553532,-1.31144,0.0074819,0.0241107,1966,946,71.2093,-6.90813
749,78,71.0585,7.45868,-0.00350608,0.010868,-0.00457608,0.0122011,-0.00483926,-1.28731,0.0101397,0.0178374,1973,946,71.0585,-7.45869
756,78,70.9734,7.95117,-0.000550709,0.0170063,-0.00613697,0.0189388,-0.00248316,-1.26574,0.0135297,0.0155134,1980,946,70.9734,-7.95118
763,78,70.8455,8.42596,0.00442924,0.024782,-0.0079636,0.0275276,0.00168364,-1.23879,0.0178171,0.0175984,1987,946,70.8454,-8.42597
770,78,70.7061,8.9212,0.0113946,0.0333294,-0.0101598,0.0373121,0.00741193,-1.1972,0.0228091,0.0244393,1994,946,70.7059,-8.92118
777,78,70.5723,9.68903,0.0208591,0.0429009,-0.0128241,0.0487891,0.0149709,-1.14036,0.0288605,0.0452803,2001,946,70.5722,-9.68906
784,78,70.5012,10.4951,0,0,0,0,0,0,0,-1,2008,946,70.5013,-10.495
791,78,68.3289,9.49677,0,0,0,0,0,0,0,-1,2015,946,68.3288,-9.49674
798,78,67.9287,7.90448,0,0,0,0,0,0,0,-1,2022,946,67.9287,-7.90446
805,78,68.5852,7.34106,0,0,0,0,0,0,0,-1,2029,946,68.5853,-7.34105
812,78,0,0,0,0,0,0,0,0,0,-1,2036,946,0,0
-700,71,0,0,0,0,0,0,0,0,0,-1,524,953,0,0
-693,71,0,0,0,0,0,0,0,0,0,-1,531,953,0,0
-686,71,-53.8902,7.84259,0,0,0,0,0,0,0,-1,538,953,-53.8902,-7.84262
-679,71,-53.7747,7.6842,0.0103522,0.139207,-0.00501046,0.139402,0.0101576,-1.53199,0.0897404,0.0474192,545,953,-53.7747,-7.68418
-672,71,-53.8607,7.50043,0.00407451,0.11685,0.00224786,0.116895,0.00402973,1.55087,0.076622,0.0471418,552,953,-53.8608,-7.50042
-665,71,-53.4305,8.24371,-0.00107739,0.0971384,0.00674617,0.0975996,-0.0015386,1.50254,0.0655853,0.046744,559,953,-53.4304,-8.2437
-658,71,-56.7493,7.33557,0,0,0,0,0,0,0,-1,566,953,-56.7493,-7.33554
-651,71,-54.8804,8.69391,-0.00703256,0.0640728,0.0107436,0.0656606,-0.0086204,1.42406,0.046912,0.0494203,573,953,-54.8804,-8.69393
-644,71,-55.3522,8.16656,-0.00816171,0.0503379,0.0110257,0.052347,-0.0101708,1.39056,0.0387359,0.0371653,580,953,-55.3522,-8.16654
-637,71,-55.7691,7.58246,-0.00823767,0.0382511,0.0105968,0.0405527,-0.0105392,1.35693,0.0311483,0.0202771,587,953,-55.7691,-7.58245
-630,71,-55.9387,7.01794,-0.0083574,0.0273035,0.0102863,0.0300579,-0.0111117,1.30917,0.0245939,0.0184321,594,953,-55.9387,-7.01794
-623,71,-55.998,6.49927,-0.0072513,0.0172429,0.00941589,0.0204441,-0.0104525,1.24308,0.0181464,0.015898,601,953,-55.998,-6.49928
-616,71,-56.0431,5.93896,-0.00516416,0.00877452,0.00779451,0.0122611,-0.00865073,1.15018,0.0121333,0.0163413,608,953,-56.0431,-5.93899
-609,71,-56.0244,5.4483,-0.00322367,0.00118991,0.00607393,0.00544552,-0.00747927,0.959645,0.00749286,0.017314,615,953,-56.0243,-5.44828
-602,71,-56.0122,4.97705,-0.00139441,-0.00549595,0.00514113,0.00208988,-0.00898025,0.595622,0.0067915,0.0179814,622,953,-56.0122,-4.97704
-595,71,-55.9831,4.47491,-0.000312541,-0.0116807,0.0049812,0.00156124,-0.0135544,0.359796,0.00959912,0.022046,629,953,-55.9831,-4.47492
-588,71,-55.9377,3.96295,-0.000541527,-0.0178487,0.00517351,0.000887035,-0.0192773,0.269417,0.0131572,0.0295021,636,953,-55.9377,-3.96294
-581,71,-55.7209,3.36987,0,0,0,0,0,0,0,-1,643,953,-55.7209,-3.36986
-574,71,-57.5998,0.139771,0,0,0,0,0,0,0,-1,650,953,-57.5998,-0.139797
-567,71,-57.574,0.174622,0,0,0,0,0,0,0,-1,657,953,-57.574,-0.174616
-560,71,-57.5834,0.244141,0,0,0,0,0,0,0,-1,664,953,-57.5834,-0.244113
-553,71,-57.6024,0.324463,0,0,0,0,0,0,0,-1,671,953,-57.6024,-0.324481
-546,71,-57.6479,0.42749,0,0,0,0,0,0,0,-1,678,953,-57.6479,-0.427481
-539,71,-57.5969,0.32489,0,0,0,0,0,0,0,-1,685,953,-57.5969,-0.324907
-532,71,-57.4722,0.280762,0,0,0,0,0,0,0,-1,692,953,-57.4722,-0.280785
-525,71,-57.3726,0.409851,0,0,0,0,0,0,0,-1,699,953,-57.3726,-0.409827
-518,71,0,0,0,0,0,0,0,0,0,-1,706,953,0,0
-511,71,0,0,0,0,0,0,0,0,0,-1,713,953,0,0
-504,71,0,0,0,0,0,0,0,0,0,-1,720,953,0,0
-497,71,0,0,0,0,0,0,0,0,0,-1,727,953,0,0
-490,71,0,0,0,0,0,0,0,0,0,-1,734,953,0,0
-483,71,0,0,0,0,0,0,0,0,0,-1,741,953,0,0
-476,71,0,0,0,0,0,0,0,0,0,-1,748,953,0,0
-469,71,0,0,0,0,0,0,0,0,0,-1,755,953,0,0
-462,71,0,0,0,0,0,0,0,0,0,-1,762,953,0,0
-455,71,0,0,0,0,0,0,0,0,0,-1,769,953,0,0
-448,71,0,0,0,0,0,0,0,0,0,-1,776,953,0,0
-441,71,0,0,0,0,0,0,0,0,0,-1,783,953,0,0
-434,71,0,0,0,0,0,0,0,0,0,-1,790,953,0,0
-427,71,0,0,0,0,0,0,0,0,0,-1,797,953,0,0
-420,71,0,0,0,0,0,0,0,0,0,-1,804,953,0,0
-413,71,0,0,0,0,0,0,0,0,0,-1,811,953,0,0
-406,71,0,0,0,0,0,0,0,0,0,-1,818,953,0,0
-399,71,0,0,0,0,0,0,0,0,0,-1,825,953,0,0
-392,71,0,0,0,0,0,0,0,0,0,-1,832,953,0,0
-385,71,0,0,0,0,0,0,0,0,0,-1,839,953,0,0
-378,71,0,0,0,0,0,0,0,0,0,-1,846,953,0,0
-371,71,0,0,0,0,0,0,0,0,0,-1,853,953,0,0
-364,71,0,0,0,0,0,0,0,0,0,-1,860,953,0,0
-357,71,0,0,0,0,0,0,0,0,0,-1,867,953,0,0
-350,71,0,0,0,0,0,0,0,0,0,-1,874,953,0,0
-343,71,0,0,0,0,0,0,0,0,0,-1,881,953,0,0
-336,71,0,0,0,0,0,0,0,0,0,-1,888,953,0,0
-329,71,0,0,0,0,0,0,0,0,0,-1,895,953,0,0
-322,71,0,0,0,0,0,0,0,0,0,-1,902,953,0,0
-315,71,0,0,0,0,0,0,0,0,0,-1,909,953,0,0
-308,71,0,0,0,0,0,0,0,0,0,-1,916,953,0,0
-301,71,0,0,0,0,0,0,0,0,0,-1,923,953,0,0
-294,71,0,0,0,0,0,0,0,0,0,-1,930,953,0,0
-287,71,0,0,0,0,0,0,0,0,0,-1,937,953,0,0
-280,71,0,0,0,0,0,0,0,0,0,-1,944,953,0,0
-273,71,0,0,0,0,0,0,0,0,0,-1,951,953,0,0
-266,71,0,0,0,0,0,0,0,0,0,-1,958,953,0,0
-259,71,0,0,0,0,0,0,0,0,0,-1,965,953,0,0
-252,71,0,0,0,0,0,0,0,0,0,-1,972,953,0,0
-245,71,0,0,0,0,0,0,0,0,0,-1,979,953,0,0
-238,71,0,0,0,0,0,0,0,0,0,-1,986,953,0,0
-231,71,0,0,0,0,0,0,0,0,0,-1,993,953,0,0
-224,71,0,0,0,0,0,0,0,0,0,-1,1000,953,0,0
-217,71,0,0,0,0,0,0,0,0,0,-1,1007,953,0,0
-210,71,0,0,0,0,0,0,0,0,0,-1,1014,953,0,0
-203,71,0,0,0,0,0,0,0,0,0,-1,1021,953,0,0
-196,71,0,0,0,0,0,0,0,0,0,-1,1028,953,0,0
-189,71,0,0,0,0,0,0,0,0,0,-1,1035,953,0,0
-182,71,0,0,0,0,0,0,0,0,0,-1,1042,953,0,0
-175,71,0,0,0,0,0,0,0,0,0,-1,1049,953,0,0
-168,71,0,0,0,0,0,0,0,0,0,-1,1056,953,0,0
-161,71,0,0,0,0,0,0,0,0,0,-1,1063,953,0,0
-154,71,0,0,0,0,0,0,0,0,0,-1,1070,953,0,0
-147,71,0,0,0,0,0,0,0,0,0,-1,1077,953,0,0
-140,71,0,0,0,0,0,0,0,0,0,-1,1084,953,0,0
-133,71,0,0,0,0,0,0,0,0,0,-1,1091,953,0,0
-126,71,0,0,0,0,0,0,0,0,0,-1,1098,953,0,0
-119,71,0,0,0,0,0,0,0,0,0,-1,1105,953,0,0
-112,71,0,0,0,0,0,0,0,0,0,-1,1112,953,0,0
-105,71,0,0,0,0,0,0,0,0,0,-1,1119,953,0,0
-98,71,0,0,0,0,0,0,0,0,0,-1,1126,953,0,0
-91,71,0,0,0,0,0,0,0,0,0,-1,1133,953,0,0
-84,71,0,0,0,0,0,0,0,0,0,-1,1140,953,0,0
-77,71,0,0,0,0,0,0,0,0,0,-1,1147,953,0,0
-70,71,0,0,0,0,0,0,0,0,0,-1,1154,953,0,0
-63,71,0,0,0,0,0,0,0,0,0,-1,1161,953,0,0
-56,71,0,0,0,0,0,0,0,0,0,-1,1168,953,0,0
-49,71,0,0,0,0,0,0,0,0,0,-1,1175,953,0,0
-42,71,0,0,0,0,0,0,0,0,0,-1,1182,953,0,0
-35,71,0,0,0,0,0,0,0,0,0,-1,1189,953,0,0
-28,71,0,0,0,0,0,0,0,0,0,-1,1196,953,0,0
-21,71,0,0,0,0,0,0,0,0,0,-1,1203,953,0,0
-14,71,0,0,0,0,0,0,0,0,0,-1,1210,953,0,0
-7,71,0,0,0,0,0,0,0,0,0,-1,1217,953,0,0
0,71,0,0,0,0,0,0,0,0,0,-1,1224,953,0,0
7,71,0,0,0,0,0,0,0,0,0,-1,1231,953,0,0
14,71,0,0,0,0,0,0,0,0,0,-1,1238,953,0,0
21,71,0,0,0,0,0,0,0,0,0,-1,1245,953,0,0
28,71,0,0,0,0,0,0,0,0,0,-1,1252,953,0,0
35,71,0,0,0,0,0,0,0,0,0,-1,1259,953,0,0
42,71,0,0,0,0,0,0,0,0,0,-1,1266,953,0,0
49,71,0,0,0,0,0,0,0,0,0,-1,1273,953,0,0
56,71,0,0,0,0,0,0,0,0,0,-1,1280,953,0,0
63,71,0,0,0,0,0,0,0,0,0,-1,1287,953,0,0
70,71,0,0,0,0,0,0,0,0,0,-1,1294,953,0,0
77,71,0,0,0,0,0,0,0,0,0,-1,1301,953,0,0
84,71,0,0,0,0,0,0,0,0,0,-1,1308,953,0,0
91,71,0,0,0,0,0,0,0,0,0,-1,1315,953,0,0
98,71,0,0,0,0,0,0,0,0,0,-1,1322,953,0,0
105,71,0,0,0,0,0,0,0,0,0,-1,1329,953,0,0
112,71,0,0,0,0,0,0,0,0,0,-1,1336,953,0,0
119,71,0,0,0,0,0,0,0,0,0,-1,1343,953,0,0
126,71,0,0,0,0,0,0,0,0,0,-1,1350,953,0,0
133,71,0,0,0,0,0,0,0,0,0,-1,1357,953,0,0
140,71,0,0,0,0,0,0,0,0,0,-1,1364,953,0,0
147,71,0,0,0,0,0,0,0,0,0,-1,1371,953,0,0
154,71,0,0,0,0,0,0,0,0,0,-1,1378,953,0,0
161,71,0,0,0,0,0,0,0,0,0,-1,1385,953,0,0
168,71,0,0,0,0,0,0,0,0,0,-1,1392,953,0,0
175,71,0,0,0,0,0,0,0,0,0,-1,1399,953,0,0
182,71,0,0,0,0,0,0,0,0,0,-1,1406,953,0,0
189,71,0,0,0,0,0,0,0,0,0,-1,1413,953,0,0
196,71,0,0,0,0,0,0,0,0,0,-1,1420,953,0,0
203,71,0,0,0,0,0,0,0,0,0,-1,1427,953,0,0
210,71,0,0,0,0,0,0,0,0,0,-1,1434,953,0,0
217,71,0,0,0,0,0,0,0,0,0,-1,1441,953,0,0
224,71,0,0,0,0,0,0,0,0,0,-1,1448,953,0,0
231,71,0,0,0,0,0,0,0,0,0,-1,1455,953,0,0
238,71,0,0,0,0,0,0,0,0,0,-1,1462,953,0,0
245,71,0,0,0,0,0,0,0,0,0,-1,1469,953,0,0
252,71,0,0,0,0,0,0,0,0,0,-1,1476,953,0,0
259,71,0,0,0,0,0,0,0,0,0,-1,1483,953,0,0
266,71,0,0,0,0,0,0,0,0,0,-1,1490,953,0,0
273,71,0,0,0,0,0,0,0,0,0,-1,1497,953,0,0
280,71,0,0,0,0,0,0,0,0,0,-1,1504,953,0,0
287,71,0,0,0,0,0,0,0,0,0,-1,1511,953,0,0
294,71,0,0,0,0,0,0,0,0,0,-1,1518,953,0,0
301,71,0,0,0,0,0,0,0,0,0,-1,1525,953,0,0
308,71,0,0,0,0,0,0,0,0,0,-1,1532,953,0,0
315,71,0,0,0,0,0,0,0,0,0,-1,1539,953,0,0
322,71,0,0,0,0,0,0,0,0,0,-1,1546,953,0,0
329,71,0,0,0,0,0,0,0,0,0,-1,1553,953,0,0
336,71,0,0,0,0,0,0,0,0,0,-1,1560,953,0,0
343,71,0,0,0,0,0,0,0,0,0,-1,1567,953,0,0
350,71,0,0,0,0,0,0,0,0,0,-1,1574,953,0,0
357,71,0,0,0,0,0,0,0,0,0,-1,1581,953,0,0
364,71,0,0,0,0,0,0,0,0,0,-1,1588,953,0,0
371,71,0,0,0,0,0,0,0,0,0,-1,1595,953,0,0
378,71,0,0,0,0,0,0,0,0,0,-1,1602,953,0,0
385,71,0,0,0,0,0,0,0,0,0,-1,1609,953,0,0
392,71,0,0,0,0,0,0,0,0,0,-1,1616,953,0,0
399,71,0,0,0,0,0,0,0,0,0,-1,1623,953,0,0
406,71,0,0,0,0,0,0,0,0,0,-1,1630,953,0,0
413,71,0,0,0,0,0,0,0,0,0,-1,1637,953,0,0
420,71,0,0,0,0,0,0,0,0,0,-1,1644,953,0,0
427,71,0,0,0,0,0,0,0,0,0,-1,1651,953,0,0
434,71,0,0,0,0,0,0,0,0,0,-1,1658,953,0,0
441,71,0,0,0,0,0,0,0,0,0,-1,1665,953,0,0
448,71,0,0,0,0,0,0,0,0,0,-1,1672,953,0,0
455,71,0,0,0,0,0,0,0,0,0,-1,1679,953,0,0
462,71,0,0,0,0,0,0,0,0,0,-1,1686,953,0,0
469,71,0,0,0,0,0,0,0,0,0,-1,1693,953,0,0
476,71,0,0,0,0,0,0,0,0,0,-1,1700,953,0,0
483,71,0,0,0,0,0,0,0,0,0,-1,1707,953,0,0
490,71,0,0,0,0,0,0,0,0,0,-1,1714,953,0,0
497,71,0,0,0,0,0,0,0,0,0,-1,1721,953,0,0
504,71,0,0,0,0,0,0,0,0,0,-1,1728,953,0,0
511,71,0,0,0,0,0,0,0,0,0,-1,1735,953,0,0
518,71,0,0,0,0,0,0,0,0,0,-1,1742,953,0,0
525,71,0,0,0,0,0,0,0,0,0,-1,1749,953,0,0
532,71,0,0,0,0,0,0,0,0,0,-1,1756,953,0,0
539,71,0,0,0,0,0,0,0,0,0,-1,1763,953,0,0
546,71,0,0,0,0,0,0,0,0,0,-1,1770,953,0,0
553,71,0,0,0,0,0,0,0,0,0,-1,1777,953,0,0
560,71,0,0,0,0,0,0,0,0,0,-1,1784,953,0,0
567,71,0,0,0,0,0,0,0,0,0,-1,1791,953,0,0
574,71,0,0,0,0,0,0,0,0,0,-1,1798,953,0,0
581,71,0,0,0,0,0,0,0,0,0,-1,1805,953,0,0
588,71,0,0,0,0,0,0,0,0,0,-1,1812,953,0,0
595,71,0,0,0,0,0,0,0,0,0,-1,1819,953,0,0
602,71,0,0,0,0,0,0,0,0,0,-1,1826,953,0,0
609,71,0,0,0,0,0,0,0,0,0,-1,1833,953,0,0
616,71,0,0,0,0,0,0,0,0,0,-1,1840,953,0,0
623,71,0,0,0,0,0,0,0,0,0,-1,1847,953,0,0
630,71,0,0,0,0,0,0,0,0,0,-1,1854,953,0,0
637,71,74.4077,2.18951,0.00194438,0.00513554,-8.52086e-05,0.00513781,0.00194211,-1.54412,0.00299561,0.0427428,1861,953,74.4078,-2.1895
644,71,74.3068,2.25934,0.00169391,0.0040999,0.000328968,0.00414407,0.00164974,1.43733,0.00240908,0.042897,1868,953,74.3068,-2.25933
651,71,74.3558,2.15106,0.00133018,0.00315693,0.000668476,0.00337542,0.00111169,1.2549,0.00198627,0.0392992,1875,953,74.3559,-2.15108
658,71,74.5018,2.14911,0.000955908,0.00243982,0.000959616,0.00291086,0.000484866,1.11448,0.00180084,0.0375487,1882,953,74.5018,-2.14913
665,71,74.5903,2.28577,0.00061828,0.00185059,0.00116502,0.00255236,-8.34843e-05,1.02864,0.00173007,0.0379572,1889,953,74.5903,-2.28579
672,71,74.4854,2.44775,-6.75716e-05,0.00120957,0.0013962,0.0021063,-0.000964299,0.999879,0.00181322,0.0396609,1896,953,74.4853,-2.44777
679,71,74.467,2.35486,-0.000735095,0.000417173,0.00157583,0.00151888,-0.00183681,0.960654,0.0019403,0.0406642,1903,953,74.4671,-2.35487
686,71,74.5836,2.16577,-0.00116179,-0.000285353,0.0014352,0.000777045,-0.00222419,0.93357,0.00179865,0.0389182,1910,953,74.5836,-2.16574
693,71,74.5692,2.10071,-0.00161707,-0.000772974,0.0011803,5.84625e-05,-0.00244851,0.957103,0.00165217,0.0350959,1917,953,74.5692,-2.10072
700,71,74.474,2.18347,-0.00230489,-0.000866726,0.000860417,-0.000464471,-0.00270714,1.13348,0.00167159,0.0369826,1924,953,74.474,-2.18347
707,71,74.4663,2.41742,0,0,0,0,0,0,0,-1,1931,953,74.4663,-2.4174
714,71,72.4042,4.52545,0,0,0,0,0,0,0,-1,1938,953,72.4041,-4.52547
721,71,72.0165,5.1933,-0.00436348,0.000759909,-0.000891729,0.000910677,-0.00451425,-1.40331,0.00335452,0.0394942,1945,953,72.0165,-5.1933
728,71,71.748,5.9339,-0.00522206,0.00201306,-0.00130717,0.00224199,-0.00545098,-1.39742,0.00456853,0.0374549,1952,953,71.7481,-5.93389
735,71,71.7698,6.48267,-0.00551519,0.00381283,-0.00185432,0.00416793,-0.0058703,-1.38159,0.00582329,0.0258407,1959,953,71.7698,-6.48268
742,71,71.7794,6.95038,-0.00517897,0.00658993,-0.00291666,0.0072731,-0.00586214,-1.34071,0.00759821,0.0256268,1966,953,71.7794,-6.95035
749,71,71.7096,7.41962,-0.00447762,0.0105173,-0.00427723,0.0116516,-0.00561189,-1.31158,0.0101683,0.0223818,1973,953,71.7096,-7.4196
756,71,71.6226,7.85687,-0.00228321,0.0160575,-0.00580196,0.0177388,-0.0039645,-1.28874,0.0133451,0.0187648,1980,953,71.6226,-7.85689
763,71,71.5061,8.34894,0.00172193,0.0231014,-0.00758445,0.0255187,-0.000695362,-1.26226,0.0172489,0.0217235,1987,953,71.5061,-8.34894
770,71,71.2478,8.78424,0.00757039,0.0306492,-0.0097129,0.0341929,0.00402675,-1.22096,0.0215786,0.0260099,1994,953,71.2479,-8.78424
777,71,71.1677,9.52679,0.0155051,0.0386252,-0.0122472,0.0439064,0.0102238,-1.16367,0.026528,0.045901,2001,953,71.1678,-9.5268
784,71,71.155,10.3401,0,0,0,0,0,0,0,-1,2008,953,71.1551,-10.3401
791,71,69.6638,10.1818,0,0,0,0,0,0,0,-1,2015,953,69.6638,-10.1818
798,71,68.2634,9.50574,0,0,0,0,0,0,0,-1,2022,953,68.2634,-9.50571
805,71,59.978,6.41992,0,0,0,0,0,0,0,-1,2029,953,59.9781,-6.41992
812,71,0,0,0,0,0,0,0,0,0,-1,2036,953,0,0
-700,64,0,0,0,0,0,0,0,0,0,-1,524,960,0,0
-693,64,0,0,0,0,0,0,0,0,0,-1,531,960,0,0
-686,64,-53.44,6.50073,0,0,0,0,0,0,0,-1,538,960,-53.44,-6.50071
-679,64,-53.4928,6.68616,0.170812,0.124488,0.0234111,0.180582,0.114717,0.395372,0.105523,0.0456008,545,960,-53.4928,-6.68618
-672,64,-53.54,6.65271,0.107833,0.109359,0.0224068,0.131016,0.0861762,0.802414,0.0768867,0.0473328,552,960,-53.54,-6.65269
-665,64,-58.3022,6.2099,0.0646783,0.0938316,0.0208299,0.104679,0.0538312,1.09069,0.0604444,0.0489669,559,960,-58.3022,-6.20988
-658,64,-57.6277,6.88123,0,0,0,0,0,0,0,-1,566,960,-57.6277,-6.88125
-651,64,-57.1315,7.51624,0.0171044,0.0641991,0.0171222,0.0697661,0.0115374,1.25644,0.0431818,0.047994,573,960,-57.1314,-7.51622
-644,64,-56.5743,7.69147,0.00560512,0.0509176,0.0151004,0.0554887,0.00103403,1.27685,0.0366526,0.0390663,580,960,-56.5743,-7.69144
-637,64,-56.4319,7.3252,-0.00080567,0.0388822,0.0130736,0.0428017,-0.00472517,1.27952,0.0302329,0.0206699,587,960,-56.4319,-7.3252
-630,64,-56.5115,6.88226,-0.00719719,0.0279524,0.0112224,0.0312298,-0.0104746,1.28665,0.0250523,0.0157445,594,960,-56.5115,-6.88226
-623,64,-56.5612,6.45392,-0.00785802,0.0177075,0.00958938,0.0209045,-0.0110551,1.24899,0.0187417,0.015477,601,960,-56.5611,-6.45394
-616,64,-56.5914,5.98108,-0.00577647,0.00890463,0.00768023,0.0121881,-0.00905993,1.16679,0.0123118,0.019654,608,960,-56.5914,-5.98109
-609,64,-56.5767,5.53369,-0.00389317,0.000981645,0.00586341,0.00489408,-0.00780561,0.982381,0.00739612,0.0192762,615,960,-56.5766,-5.53368
-602,64,-56.5781,5.07001,-0.00221918,-0.00613473,0.00479594,0.0010032,-0.00935711,0.591614,0.00659794,0.0179864,622,960,-56.578,-5.06998
-595,64,-56.5915,4.65375,-0.00132792,-0.0125136,0.0046899,0.000378218,-0.0142197,0.348907,0.00960835,0.0296713,629,960,-56.5915,-4.65375
-588,64,-56.4275,4.20911,-0.00179284,-0.0188801,0.00492978,-0.000472582,-0.0202003,0.261673,0.0133122,0.0458104,636,960,-56.4275,-4.20913
-581,64,-56.1296,3.62537,0,0,0,0,0,0,0,-1,643,960,-56.1297,-3.62537
-574,64,-57.5741,0.0957031,0,0,0,0,0,0,0,-1,650,960,-57.5741,-0.0957142
-567,64,-57.5486,0.157288,0,0,0,0,0,0,0,-1,657,960,-57.5486,-0.15726
-560,64,-57.5182,0.357117,0,0,0,0,0,0,0,-1,664,960,-57.5183,-0.357135
-553,64,-57.5958,0.470642,0,0,0,0,0,0,0,-1,671,960,-57.5958,-0.470632
-546,64,-57.6776,0.375366,0,0,0,0,0,0,0,-1,678,960,-57.6776,-0.375339
-539,64,-57.6545,0.28009,0,0,0,0,0,0,0,-1,685,960,-57.6545,-0.280106
-532,64,-57.5471,0.177124,0,0,0,0,0,0,0,-1,692,960,-57.5471,-0.177096
-525,64,-57.3476,0.411316,0,0,0,0,0,0,0,-1,699,960,-57.3476,-0.411294
-518,64,0,0,0,0,0,0,0,0,0,-1,706,960,0,0
-511,64,0,0,0,0,0,0,0,0,0,-1,713,960,0,0
-504,64,0,0,0,0,0,0,0,0,0,-1,720,960,0,0
-497,64,0,0,0,0,0,0,0,0,0,-1,727,960,0,0
-490,64,0,0,0,0,0,0,0,0,0,-1,734,960,0,0
-483,64,0,0,0,0,0,0,0,0,0,-1,741,960,0,0
-476,64,0,0,0,0,0,0,0,0,0,-1,748,960,0,0
-469,64,0,0,0,0,0,0,0,0,0,-1,755,960,0,0
-462,64,0,0,0,0,0,0,0,0,0,-1,762,960,0,0
-455,64,0,0,0,0,0,0,0,0,0,-1,769,960,0,0
-448,64,0,0,0,0,0,0,0,0,0,-1,776,960,0,0
-441,64,0,0,0,0,0,0,0,0,0,-1,783,960,0,0
-434,64,0,0,0,0,0,0,0,0,0,-1,790,960,0,0
-427,64,0,0,0,0,0,0,0,0,0,-1,797,960,0,0
-420,64,0,0,0,0,0,0,0,0,0,-1,804,960,0,0
-413,64,0,0,0,0,0,0,0,0,0,-1,811,960,0,0
-406,64,0,0,0,0,0,0,0,0,0,-1,818,960,0,0
-399,64,0,0,0,0,0,0,0,0,0,-1,825,960,0,0
-392,64,0,0,0,0,0,0,0,0,0,-1,832,960,0,0
-385,64,0,0,0,0,0,0,0,0,0,-1,839,960,0,0
-378,64,0,0,0,0,0,0,0,0,0,-1,846,960,0,0
-371,64,0,0,0,0,0,0,0,0,0,-1,853,960,0,0
-364,64,0,0,0,0,0,0,0,0,0,-1,860,960,0,0
-357,64,0,0,0,0,0,0,0,0,0,-1,867,960,0,0
-350,64,0,0,0,0,0,0,0,0,0,-1,874,960,0,0
-343,64,0,0,0,0,0,0,0,0,0,-1,881,960,0,0
-336,64,0,0,0,0,0,0,0,0,0,-1,888,960,0,0
-329,64,0,0,0,0,0,0,0,0,0,-1,895,960,0,0
-322,64,0,0,0,0,0,0,0,0,0,-1,902,960,0,0
-315,64,0,0,0,0,0,0,0,0,0,-1,909,960,0,0
-308,64,0,0,0,0,0,0,0,0,0,-1,916,960,0,0
-301,64,0,0,0,0,0,0,0,0,0,-1,923,960,0,0
-294,64,0,0,0,0,0,0,0,0,0,-1,930,960,0,0
-287,64,0,0,0,0,0,0,0,0,0,-1,937,960,0,0
-280,64,0,0,0,0,0,0,0,0,0,-1,944,960,0,0
-273,64,0,0,0,0,0,0,0,0,0,-1,951,960,0,0
-266,64,0,0,0,0,0,0,0,0,0,-1,958,960,0,0
-259,64,0,0,0,0,0,0,0,0,0,-1,965,960,0,0
-252,64,0,0,0,0,0,0,0,0,0,-1,972,960,0,0
-245,64,0,0,0,0,0,0,0,0,0,-1,979,960,0,0
-238,64,0,0,0,0,0,0,0,0,0,-1,986,960,0,0
-231,64,0,0,0,0,0,0,0,0,0,-1,993,960,0,0
-224,64,0,0,0,0,0,0,0,0,0,-1,1000,960,0,0
-217,64,0,0,0,0,0,0,0,0,0,-1,1007,960,0,0
-210,64,0,0,0,0,0,0,0,0,0,-1,1014,960,0,0
-203,64,0,0,0,0,0,0,0,0,0,-1,1021,960,0,0
-196,64,0,0,0,0,0,0,0,0,0,-1,1028,960,0,0
-189,64,0,0,0,0,0,0,0,0,0,-1,1035,960,0,0
-182,64,0,0,0,0,0,0,0,0,0,-1,1042,960,0,0
-175,64,0,0,0,0,0,0,0,0,0,-1,1049,960,0,0
-168,64,0,0,0,0,0,0,0,0,0,-1,1056,960,0,0
-161,64,0,0,0,0,0,0,0,0,0,-1,1063,960,0,0
-154,64,0,0,0,0,0,0,0,0,0,-1,1070,960,0,0
-147,64,0,0,0,0,0,0,0,0,0,-1,1077,960,0,0
-140,64,0,0,0,0,0,0,0,0,0,-1,1084,960,0,0
-133,64,0,0,0,0,0,0,0,0,0,-1,1091,960,0,0
-126,64,0,0,0,0,0,0,0,0,0,-1,1098,960,0,0
-119,64,0,0,0,0,0,0,0,0,0,-1,1105,960,0,0
-112,64,0,0,0,0,0,0,0,0,0,-1,1112,960,0,0
-105,64,0,0,0,0,0,0,0,0,0,-1,1119,960,0,0
-98,64,0,0,0,0,0,0,0,0,0,-1,1126,960,0,0
-91,64,0,0,0,0,0,0,0,0,0,-1,1133,960,0,0
-84,64,0,0,0,0,0,0,0,0,0,-1,1140,960,0,0
-77,64,0,0,0,0,0,0,0,0,0,-1,1147,960,0,0
-70,64,0,0,0,0,0,0,0,0,0,-1,1154,960,0,0
-63,64,0,0,0,0,0,0,0,0,0,-1,1161,960,0,0
-56,64,0,0,0,0,0,0,0,0,0,-1,1168,960,0,0
-49,64,0,0,0,0,0,0,0,0,0,-1,1175,960,0,0
-42,64,0,0,0,0,0,0,0,0,0,-1,1182,960,0,0
-35,64,0,0,0,0,0,0,0,0,0,-1,1189,960,0,0
-28,64,0,0,0,0,0,0,0,0,0,-1,1196,960,0,0
-21,64,0,0,0,0,0,0,0,0,0,-1,1203,960,0,0
-14,64,0,0,0,0,0,0,0,0,0,-1,1210,960,0,0
-7,64,0,0,0,0,0,0,0,0,0,-1,1217,960,0,0
0,64,0,0,0,0,0,0,0,0,0,-1,1224,960,0,0
7,64,0,0,0,0,0,0,0,0,0,-1,1231,960,0,0
14,64,0,0,0,0,0,0,0,0,0,-1,1238,960,0,0
21,64,0,0,0,0,0,0,0,0,0,-1,1245,960,0,0
28,64,0,0,0,0,0,0,0,0,0,-1,1252,960,0,0
35,64,0,0,0,0,0,0,0,0,0,-1,1259,960,0,0
42,64,0,0,0,0,0,0,0,0,0,-1,1266,960,0,0
49,64,0,0,0,0,0,0,0,0,0,-1,1273,960,0,0
56,64,0,0,0,0,0,0,0,0,0,-1,1280,960,0,0
63,64,0,0,0,0,0,0,0,0,0,-1,1287,960,0,0
70,64,0,0,0,0,0,0,0,0,0,-1,1294,960,0,0
77,64,0,0,0,0,0,0,0,0,0,-1,1301,960,0,0
84,64,0,0,0,0,0,0,0,0,0,-1,1308,960,0,0
91,64,0,0,0,0,0,0,0,0,0,-1,1315,960,0,0
98,64,0,0,0,0,0,0,0,0,0,-1,1322,960,0,0
105,64,0,0,0,0,0,0,0,0,0,-1,1329,960,0,0
112,64,0,0,0,0,0,0,0,0,0,-1,1336,960,0,0
119,64,0,0,0,0,0,0,0,0,0,-1,1343,960,0,0
126,64,0,0,0,0,0,0,0,0,0,-1,1350,960,0,0
133,64,0,0,0,0,0,0,0,0,0,-1,1357,960,0,0
140,64,0,0,0,0,0,0,0,0,0,-1,1364,960,0,0
147,64,0,0,0,0,0,0,0,0,0,-1,1371,960,0,0
154,64,0,0,0,0,0,0,0,0,0,-1,1378,960,0,0
161,64,0,0,0,0,0,0,0,0,0,-1,1385,960,0,0
168,64,0,0,0,0,0,0,0,0,0,-1,1392,960,0,0
175,64,0,0,0,0,0,0,0,0,0,-1,1399,960,0,0
182,64,0,0,0,0,0,0,0,0,0,-1,1406,960,0,0
189,64,0,0,0,0,0,0,0,0,0,-1,1413,960,0,0
196,64,0,0,0,0,0,0,0,0,0,-1,1420,960,0,0
203,64,0,0,0,0,0,0,0,0,0,-1,1427,960,0,0
210,64,0,0,0,0,0,0,0,0,0,-1,1434,960,0,0
217,64,0,0,0,0,0,0,0,0,0,-1,1441,960,0,0
224,64,0,0,0,0,0,0,0,0,0,-1,1448,960,0,0
231,64,0,0,0,0,0,0,0,0,0,-1,1455,960,0,0
238,64,0,0,0,0,0,0,0,0,0,-1,1462,960,0,0
245,64,0,0,0,0,0,0,0,0,0,-1,1469,960,0,0
252,64,0,0,0,0,0,0,0,0,0,-1,1476,960,0,0
259,64,0,0,0,0,0,0,0,0,0,-1,1483,960,0,0
266,64,0,0,0,0,0,0,0,0,0,-1,1490,960,0,0
273,64,0,0,0,0,0,0,0,0,0,-1,1497,960,0,0
280,64,0,0,0,0,0,0,0,0,0,-1,1504,960,0,0
287,64,0,0,0,0,0,0,0,0,0,-1,1511,960,0,0
294,64,0,0,0,0,0,0,0,0,0,-1,1518,960,0,0
301,64,0,0,0,0,0,0,0,0,0,-1,1525,960,0,0
308,64,0,0,0,0,0,0,0,0,0,-1,1532,960,0,0
315,64,0,0,0,0,0,0,0,0,0,-1,1539,960,0,0
322,64,0,0,0,0,0,0,0,0,0,-1,1546,960,0,0
329,64,0,0,0,0,0,0,0,0,0,-1,1553,960,0,0
336,64,0,0,0,0,0,0,0,0,0,-1,1560,960,0,0
343,64,0,0,0,0,0,0,0,0,0,-1,1567,960,0,0
350,64,0,0,0,0,0,0,0,0,0,-1,1574,960,0,0
357,64,0,0,0,0,0,0,0,0,0,-1,1581,960,0,0
364,64,0,0,0,0,0,0,0,0,0,-1,1588,960,0,0
371,64,0,0,0,0,0,0,0,0,0,-1,1595,960,0,0
378,64,0,0,0,0,0,0,0,0,0,-1,1602,960,0,0
385,64,0,0,0,0,0,0,0,0,0,-1,1609,960,0,0
392,64,0,0,0,0,0,0,0,0,0,-1,1616,960,0,0
399,64,0,0,0,0,0,0,0,0,0,-1,1623,960,0,0
406,64,0,0,0,0,0,0,0,0,0,-1,1630,960,0,0
413,64,0,0,0,0,0,0,0,0,0,-1,1637,960,0,0
420,64,0,0,0,0,0,0,0,0,0,-1,1644,960,0,0
427,64,0,0,0,0,0,0,0,0,0,-1,1651,960,0,0
434,64,0,0,0,0,0,0,0,0,0,-1,1658,960,0,0
441,64,0,0,0,0,0,0,0,0,0,-1,1665,960,0,0
448,64,0,0,0,0,0,0,0,0,0,-1,1672,960,0,0
455,64,0,0,0,0,0,0,0,0,0,-1,1679,960,0,0
462,64,0,0,0,0,0,0,0,0,0,-1,1686,960,0,0
469,64,0,0,0,0,0,0,0,0,0,-1,1693,960,0,0
476,64,0,0,0,0,0,0,0,0,0,-1,1700,960,0,0
483,64,0,0,0,0,0,0,0,0,0,-1,1707,960,0,0
490,64,0,0,0,0,0,0,0,0,0,-1,1714,960,0,0
497,64,0,0,0,0,0,0,0,0,0,-1,1721,960,0,0
504,64,0,0,0,0,0,0,0,0,0,-1,1728,960,0,0
511,64,0,0,0,0,0,0,0,0,0,-1,1735,960,0,0
518,64,0,0,0,0,0,0,0,0,0,-1,1742,960,0,0
525,64,0,0,0,0,0,0,0,0,0,-1,1749,960,0,0
532,64,0,0,0,0,0,0,0,0,0,-1,1756,960,0,0
539,64,0,0,0,0,0,0,0,0,0,-1,1763,960,0,0
546,64,0,0,0,0,0,0,0,0,0,-1,1770,960,0,0
553,64,0,0,0,0,0,0,0,0,0,-1,1777,960,0,0
560,64,0,0,0,0,0,0,0,0,0,-1,1784,960,0,0
567,64,0,0,0,0,0,0,0,0,0,-1,1791,960,0,0
574,64,0,0,0,0,0,0,0,0,0,-1,1798,960,0,0
581,64,0,0,0,0,0,0,0,0,0,-1,1805,960,0,0
588,64,0,0,0,0,0,0,0,0,0,-1,1812,960,0,0
595,64,0,0,0,0,0,0,0,0,0,-1,1819,960,0,0
602,64,0,0,0,0,0,0,0,0,0,-1,1826,960,0,0
609,64,0,0,0,0,0,0,0,0,0,-1,1833,960,0,0
616,64,0,0,0,0,0,0,0,0,0,-1,1840,960,0,0
623,64,0,0,0,0,0,0,0,0,0,-1,1847,960,0,0
630,64,0,0,0,0,0,0,0,0,0,-1,1854,960,0,0
637,64,0,0,0,0,0,0,0,0,0,-1,1861,960,0,0
644,64,74.4906,2.15906,0.0019862,0.00447963,0.000224051,0.0044996,0.00196623,1.48189,0.00260472,0.0427106,1868,960,74.4906,-2.15907
651,64,74.5327,2.32721,0.00163378,0.00342015,0.000574267,0.00358883,0.0014651,1.2851,0.00208361,0.0376901,1875,960,74.5328,-2.32722
658,64,74.5435,2.31464,0.00124814,0.00261294,0.000872987,0.00303859,0.00082249,1.11714,0.00181479,0.0348617,1882,960,74.5434,-2.31461
665,64,74.5265,2.29498,0.000904564,0.0019777,0.00107205,0.00263996,0.0002423,1.01742,0.00168502,0.0395753,1889,960,74.5265,-2.29497
672,64,74.5859,2.28381,0.000253579,0.00135575,0.00128974,0.0022072,-0.000597874,0.987301,0.00170604,0.0415211,1896,960,74.5859,-2.28378
679,64,74.5962,2.24646,-0.000381551,0.000583279,0.00149054,0.00166753,-0.0014658,0.941903,0.00181028,0.039549,1903,960,74.5962,-2.24648
686,64,74.5413,2.0614,-0.000776494,-0.000138884,0.00141293,0.000990758,-0.00190614,0.896357,0.00170013,0.0354976,1910,960,74.5413,-2.06139
693,64,74.5245,2.03149,-0.00119936,-0.00068374,0.00120465,0.000290375,-0.00217347,0.890814,0.00155484,0.0329051,1917,960,74.5246,-2.03151
700,64,74.5093,2.15765,-0.00184081,-0.000811465,0.000919885,-0.000272062,-0.00238022,1.04045,0.00150435,0.0346666,1924,960,74.5092,-2.15763
707,64,74.5015,2.42426,0,0,0,0,0,0,0,-1,1931,960,74.5014,-2.42424
714,64,73.2601,4.75458,0,0,0,0,0,0,0,-1,1938,960,73.2601,-4.7546
721,64,72.5544,5.30615,-0.00404855,0.00089941,-0.000777308,0.00101865,-0.00416779,-1.41858,0.00317305,0.0402642,1945,960,72.5545,-5.30616
728,64,72.2103,5.9491,-0.00497342,0.00222425,-0.00115799,0.00240596,-0.00515513,-1.41514,0.00446055,0.026998,1952,960,72.2103,-5.94912
735,64,72.1725,6.53326,-0.00550211,0.00396138,-0.00162594,0.00423294,-0.00577367,-1.40531,0.0058001,0.0351113,1959,960,72.1725,-6.53327
742,64,72.324,6.9245,-0.00549927,0.00654664,-0.00263567,0.00709809,-0.00605071,-1.36455,0.00759949,0.0298063,1966,960,72.3239,-6.92453
749,64,72.2815,7.38092,-0.00528012,0.0101452,-0.00397141,0.0111076,-0.00624255,-1.33304,0.0101475,0.0179254,1973,960,72.2815,-7.3809
756,64,72.1934,7.81427,-0.00386933,0.0151682,-0.00544785,0.0166169,-0.00531807,-1.31088,0.0132123,0.0164491,1980,960,72.1933,-7.81427
763,64,72.1318,8.28375,-0.000925838,0.0215273,-0.00717141,0.0236223,-0.00302087,-1.28657,0.0168457,0.0191316,1987,960,72.1319,-8.28375
770,64,71.8635,8.64246,0.00379547,0.0282093,-0.0092349,0.031309,0.000695782,-1.24696,0.0206446,0.0200798,1994,960,71.8634,-8.64245
777,64,71.7332,9.11804,0.0103183,0.0348287,-0.0116571,0.0394874,0.00565962,-1.1906,0.0246559,0.0371396,2001,960,71.7331,-9.11803
784,64,71.707,9.65222,0,0,0,0,0,0,0,-1,2008,960,71.7071,-9.65223
791,64,71.5715,10.1779,0,0,0,0,0,0,0,-1,2015,960,71.5714,-10.1778
798,64,70.9221,7.01788,0,0,0,0,0,0,0,-1,2022,960,70.9221,-7.01791
805,64,71.8018,7.16925,0,0,0,0,0,0,0,-1,2029,960,71.8016,-7.16926
812,64,0,0,0,0,0,0,0,0,0,-1,2036,960,0,0
-700,57,0,0,0,0,0,0,0,0,0,-1,524,967,0,0
-693,57,0,0,0,0,0,0,0,0,0,-1,531,967,0,0
-686,57,-53.1282,5.49811,0,0,0,0,0,0,0,-1,538,967,-53.1282,-5.49809
-679,57,-53.1553,5.75092,0,0,0,0,0,0,0,-1,545,967,-53.1553,-5.75094
-672,57,-53.3279,5.89252,0,0,0,0,0,0,0,-1,552,967,-53.3278,-5.89251
-665,57,-59.2086,5.76245,0,0,0,0,0,0,0,-1,559,967,-59.2086,-5.76246
-658,57,-58.5062,6.42694,0,0,0,0,0,0,0,-1,566,967,-58.5062,-6.42695
-651,57,-57.2106,7.47321,0,0,0,0,0,0,0,-1,573,967,-57.2107,-7.47318
-644,57,-57.0505,7.28937,0.0238735,0.0512824,0.0190596,0.061053,0.0141029,1.09709,0.0369103,0.0400456,580,967,-57.0505,-7.28935
-637,57,-56.9651,7.06787,0.00919371,0.0394193,0.015291,0.0458056,0.00280738,1.17517,0.0296456,0.0230063,587,967,-56.9651,-7.06787
-630,57,-57.043,6.72479,-0.00491174,0.0284996,0.0118239,0.0322606,-0.00867275,1.26283,0.0249065,0.0153595,594,967,-57.043,-6.72479
-623,57,-57.0997,6.36865,-0.00847886,0.017742,0.00946358,0.0208007,-0.0115376,1.25818,0.0189241,0.0147013,601,967,-57.0997,-6.36864
-616,57,-57.0914,5.99719,-0.00642166,0.00875439,0.00731824,0.0117084,-0.00937568,1.18715,0.0121977,0.0167863,608,967,-57.0914,-5.99721
-609,57,-57.0945,5.58429,-0.0045266,0.000560912,0.00543171,0.00401501,-0.00798069,1.00439,0.00705075,0.016438,615,967,-57.0946,-5.5843
-602,57,-57.0923,5.10889,-0.00293162,-0.00695719,0.00421305,-0.00027524,-0.00961357,0.562553,0.0063193,0.0117539,622,967,-57.0923,-5.10891
-595,57,-57.0972,4.68866,-0.00216525,-0.0135324,0.00411041,-0.000834657,-0.014863,0.313066,0.0096425,0.0210422,629,967,-57.0973,-4.68865
-588,57,-56.9021,4.35364,-0.00284858,-0.0201071,0.00432526,-0.00182528,-0.0211304,0.232316,0.0135197,0.0363443,636,967,-56.9021,-4.35362
-581,57,-56.7141,3.88104,0,0,0,0,0,0,0,-1,643,967,-56.714,-3.88103
-574,57,-57.5231,0.0949707,0,0,0,0,0,0,0,-1,650,967,-57.5231,-0.094995
-567,57,-57.485,0.163025,0,0,0,0,0,0,0,-1,657,967,-57.485,-0.163007
-560,57,-57.2229,0.450867,0,0,0,0,0,0,0,-1,664,967,-57.2229,-0.450869
-553,57,-56.9056,0.76062,0,0,0,0,0,0,0,-1,671,967,-56.9057,-0.76064
-546,57,-57.4681,0.308411,0,0,0,0,0,0,0,-1,678,967,-57.4681,-0.308407
-539,57,-57.6416,0.203308,0,0,0,0,0,0,0,-1,685,967,-57.6416,-0.203325
-532,57,-57.6865,0.0664673,0,0,0,0,0,0,0,-1,692,967,-57.6865,-0.066474
-525,57,-57.4217,0.196228,0,0,0,0,0,0,0,-1,699,967,-57.4217,-0.196254
-518,57,0,0,0,0,0,0,0,0,0,-1,706,967,0,0
-511,57,0,0,0,0,0,0,0,0,0,-1,713,967,0,0
-504,57,0,0,0,0,0,0,0,0,0,-1,720,967,0,0
-497,57,0,0,0,0,0,0,0,0,0,-1,727,967,0,0
-490,57,0,0,0,0,0,0,0,0,0,-1,734,967,0,0
-483,57,0,0,0,0,0,0,0,0,0,-1,741,967,0,0
-476,57,0,0,0,0,0,0,0,0,0,-1,748,967,0,0
-469,57,0,0,0,0,0,0,0,0,0,-1,755,967,0,0
-462,57,0,0,0,0,0,0,0,0,0,-1,762,967,0,0
-455,57,0,0,0,0,0,0,0,0,0,-1,769,967,0,0
-448,57,0,0,0,0,0,0,0,0,0,-1,776,967,0,0
-441,57,0,0,0,0,0,0,0,0,0,-1,783,967,0,0
-434,57,0,0,0,0,0,0,0,0,0,-1,790,967,0,0
-427,57,0,0,0,0,0,0,0,0,0,-1,797,967,0,0
-420,57,0,0,0,0,0,0,0,0,0,-1,804,967,0,0
-413,57,0,0,0,0,0,0,0,0,0,-1,811,967,0,0
-406,57,0,0,0,0,0,0,0,0,0,-1,818,967,0,0
-399,57,0,0,0,0,0,0,0,0,0,-1,825,967,0,0
-392,57,0,0,0,0,0,0,0,0,0,-1,832,967,0,0
-385,57,0,0,0,0,0,0,0,0,0,-1,839,967,0,0
-378,57,0,0,0,0,0,0,0,0,0,-1,846,967,0,0
-371,57,0,0,0,0,0,0,0,0,0,-1,853,967,0,0
-364,57,0,0,0,0,0,0,0,0,0,-1,860,967,0,0
-357,57,0,0,0,0,0,0,0,0,0,-1,867,967,0,0
-350,57,0,0,0,0,0,0,0,0,0,-1,874,967,0,0
-343,57,0,0,0,0,0,0,0,0,0,-1,881,967,0,0
-336,57,0,0,0,0,0,0,0,0,0,-1,888,967,0,0
-329,57,0,0,0,0,0,0,0,0,0,-1,895,967,0,0
-322,57,0,0,0,0,0,0,0,0,0,-1,902,967,0,0
-315,57,0,0,0,0,0,0,0,0,0,-1,909,967,0,0
-308,57,0,0,0,0,0,0,0,0,0,-1,916,967,0,0
-301,57,0,0,0,0,0,0,0,0,0,-1,923,967,0,0
-294,57,0,0,0,0,0,0,0,0,0,-1,930,967,0,0
-287,57,0,0,0,0,0,0,0,0,0,-1,937,967,0,0
-280,57,0,0,0,0,0,0,0,0,0,-1,944,967,0,0
-273,57,0,0,0,0,0,0,0,0,0,-1,951,967,0,0
-266,57,0,0,0,0,0,0,0,0,0,-1,958,967,0,0
-259,57,0,0,0,0,0,0,0,0,0,-1,965,967,0,0
-252,57,0,0,0,0,0,0,0,0,0,-1,972,967,0,0
-245,57,0,0,0,0,0,0,0,0,0,-1,979,967,0,0
-238,57,0,0,0,0,0,0,0,0,0,-1,986,967,0,0
-231,57,0,0,0,0,0,0,0,0,0,-1,993,967,0,0
-224,57,0,0,0,0,0,0,0,0,0,-1,1000,967,0,0
-217,57,0,0,0,0,0,0,0,0,0,-1,1007,967,0,0
-210,57,0,0,0,0,0,0,0,0,0,-1,1014,967,0,0
-203,57,0,0,0,0,0,0,0,0,0,-1,1021,967,0,0
-196,57,0,0,0,0,0,0,0,0,0,-1,1028,967,0,0
-189,57,0,0,0,0,0,0,0,0,0,-1,1035,967,0,0
-182,57,0,0,0,0,0,0,0,0,0,-1,1042,967,0,0
-175,57,0,0,0,0,0,0,0,0,0,-1,1049,967,0,0
-168,57,0,0,0,0,0,0,0,0,0,-1,1056,967,0,0
-161,57,0,0,0,0,0,0,0,0,0,-1,1063,967,0,0
-154,57,0,0,0,0,0,0,0,0,0,-1,1070,967,0,0
-147,57,0,0,0,0,0,0,0,0,0,-1,1077,967,0,0
-140,57,0,0,0,0,0,0,0,0,0,-1,1084,967,0,0
-133,57,0,0,0,0,0,0,0,0,0,-1,1091,967,0,0
-126,57,0,0,0,0,0,0,0,0,0,-1,1098,967,0,0
-119,57,0,0,0,0,0,0,0,0,0,-1,1105,967,0,0
-112,57,0,0,0,0,0,0,0,0,0,-1,1112,967,0,0
-105,57,0,0,0,0,0,0,0,0,0,-1,1119,967,0,0
-98,57,0,0,0,0,0,0,0,0,0,-1,1126,967,0,0
-91,57,0,0,0,0,0,0,0,0,0,-1,1133,967,0,0
-84,57,0,0,0,0,0,0,0,0,0,-1,1140,967,0,0
-77,57,0,0,0,0,0,0,0,0,0,-1,1147,967,0,0
-70,57,0,0,0,0,0,0,0,0,0,-1,1154,967,0,0
-63,57,0,0,0,0,0,0,0,0,0,-1,1161,967,0,0
-56,57,0,0,0,0,0,0,0,0,0,-1,1168,967,0,0
-49,57,0,0,0,0,0,0,0,0,0,-1,1175,967,0,0
-42,57,0,0,0,0,0,0,0,0,0,-1,1182,967,0,0
-35,57,0,0,0,0,0,0,0,0,0,-1,1189,967,0,0
-28,57,0,0,0,0,0,0,0,0,0,-1,1196,967,0,0
-21,57,0,0,0,0,0,0,0,0,0,-1,1203,967,0,0
-14,57,0,0,0,0,0,0,0,0,0,-1,1210,967,0,0
-7,57,0,0,0,0,0,0,0,0,0,-1,1217,967,0,0
0,57,0,0,0,0,0,0,0,0,0,-1,1224,967,0,0
7,57,0,0,0,0,0,0,0,0,0,-1,1231,967,0,0
14,57,0,0,0,0,0,0,0,0,0,-1,1238,967,0,0
21,57,0,0,0,0,0,0,0,0,0,-1,1245,967,0,0
28,57,0,0,0,0,0,0,0,0,0,-1,1252,967,0,0
35,57,0,0,0,0,0,0,0,0,0,-1,1259,967,0,0
42,57,0,0,0,0,0,0,0,0,0,-1,1266,967,0,0
49,57,0,0,0,0,0,0,0,0,0,-1,1273,967,0,0
56,57,0,0,0,0,0,0,0,0,0,-1,1280,967,0,0
63,57,0,0,0,0,0,0,0,0,0,-1,1287,967,0,0
70,57,0,0,0,0,0,0,0,0,0,-1,1294,967,0,0
77,57,0,0,0,0,0,0,0,0,0,-1,1301,967,0,0
84,57,0,0,0,0,0,0,0,0,0,-1,1308,967,0,0
91,57,0,0,0,0,0,0,0,0,0,-1,1315,967,0,0
98,57,0,0,0,0,0,0,0,0,0,-1,1322,967,0,0
105,57,0,0,0,0,0,0,0,0,0,-1,1329,967,0,0
112,57,0,0,0,0,0,0,0,0,0,-1,1336,967,0,0
119,57,0,0,0,0,0,0,0,0,0,-1,1343,967,0,0
126,57,0,0,0,0,0,0,0,0,0,-1,1350,967,0,0
133,57,0,0,0,0,0,0,0,0,0,-1,1357,967,0,0
140,57,0,0,0,0,0,0,0,0,0,-1,1364,967,0,0
147,57,0,0,0,0,0,0,0,0,0,-1,1371,967,0,0
154,57,0,0,0,0,0,0,0,0,0,-1,1378,967,0,0
161,57,0,0,0,0,0,0,0,0,0,-1,1385,967,0,0
168,57,0,0,0,0,0,0,0,0,0,-1,1392,967,0,0
175,57,0,0,0,0,0,0,0,0,0,-1,1399,967,0,0
182,57,0,0,0,0,0,0,0,0,0,-1,1406,967,0,0
189,57,0,0,0,0,0,0,0,0,0,-1,1413,967,0,0
196,57,0,0,0,0,0,0,0,0,0,-1,1420,967,0,0
203,57,0,0,0,0,0,0,0,0,0,-1,1427,967,0,0
210,57,0,0,0,0,0,0,0,0,0,-1,1434,967,0,0
217,57,0,0,0,0,0,0,0,0,0,-1,1441,967,0,0
224,57,0,0,0,0,0,0,0,0,0,-1,1448,967,0,0
231,57,0,0,0,0,0,0,0,0,0,-1,1455,967,0,0
238,57,0,0,0,0,0,0,0,0,0,-1,1462,967,0,0
245,57,0,0,0,0,0,0,0,0,0,-1,1469,967,0,0
252,57,0,0,0,0,0,0,0,0,0,-1,1476,967,0,0
259,57,0,0,0,0,0,0,0,0,0,-1,1483,967,0,0
266,57,0,0,0,0,0,0,0,0,0,-1,1490,967,0,0
273,57,0,0,0,0,0,0,0,0,0,-1,1497,967,0,0
280,57,0,0,0,0,0,0,0,0,0,-1,1504,967,0,0
287,57,0,0,0,0,0,0,0,0,0,-1,1511,967,0,0
294,57,0,0,0,0,0,0,0,0,0,-1,1518,967,0,0
301,57,0,0,0,0,0,0,0,0,0,-1,1525,967,0,0
308,57,0,0,0,0,0,0,0,0,0,-1,1532,967,0,0
315,57,0,0,0,0,0,0,0,0,0,-1,1539,967,0,0
322,57,0,0,0,0,0,0,0,0,0,-1,1546,967,0,0
329,57,0,0,0,0,0,0,0,0,0,-1,1553,967,0,0
336,57,0,0,0,0,0,0,0,0,0,-1,1560,967,0,0
343,57,0,0,0,0,0,0,0,0,0,-1,1567,967,0,0
350,57,0,0,0,0,0,0,0,0,0,-1,1574,967,0,0
357,57,0,0,0,0,0,0,0,0,0,-1,1581,967,0,0
364,57,0,0,0,0,0,0,0,0,0,-1,1588,967,0,0
371,57,0,0,0,0,0,0,0,0,0,-1,1595,967,0,0
378,57,0,0,0,0,0,0,0,0,0,-1,1602,967,0,0
385,57,0,0,0,0,0,0,0,0,0,-1,1609,967,0,0
392,57,0,0,0,0,0,0,0,0,0,-1,1616,967,0,0
399,57,0,0,0,0,0,0,0,0,0,-1,1623,967,0,0
406,57,0,0,0,0,0,0,0,0,0,-1,1630,967,0,0
413,57,0,0,0,0,0,0,0,0,0,-1,1637,967,0,0
420,57,0,0,0,0,0,0,0,0,0,-1,1644,967,0,0
427,57,0,0,0,0,0,0,0,0,0,-1,1651,967,0,0
434,57,0,0,0,0,0,0,0,0,0,-1,1658,967,0,0
441,57,0,0,0,0,0,0,0,0,0,-1,1665,967,0,0
448,57,0,0,0,0,0,0,0,0,0,-1,1672,967,0,0
455,57,0,0,0,0,0,0,0,0,0,-1,1679,967,0,0
462,57,0,0,0,0,0,0,0,0,0,-1,1686,967,0,0
469,57,0,0,0,0,0,0,0,0,0,-1,1693,967,0,0
476,57,0,0,0,0,0,0,0,0,0,-1,1700,967,0,0
483,57,0,0,0,0,0,0,0,0,0,-1,1707,967,0,0
490,57,0,0,0,0,0,0,0,0,0,-1,1714,967,0,0
497,57,0,0,0,0,0,0,0,0,0,-1,1721,967,0,0
504,57,0,0,0,0,0,0,0,0,0,-1,1728,967,0,0
511,57,0,0,0,0,0,0,0,0,0,-1,1735,967,0,0
518,57,0,0,0,0,0,0,0,0,0,-1,1742,967,0,0
525,57,0,0,0,0,0,0,0,0,0,-1,1749,967,0,0
532,57,0,0,0,0,0,0,0,0,0,-1,1756,967,0,0
539,57,0,0,0,0,0,0,0,0,0,-1,1763,967,0,0
546,57,0,0,0,0,0,0,0,0,0,-1,1770,967,0,0
553,57,0,0,0,0,0,0,0,0,0,-1,1777,967,0,0
560,57,0,0,0,0,0,0,0,0,0,-1,1784,967,0,0
567,57,0,0,0,0,0,0,0,0,0,-1,1791,967,0,0
574,57,0,0,0,0,0,0,0,0,0,-1,1798,967,0,0
581,57,0,0,0,0,0,0,0,0,0,-1,1805,967,0,0
588,57,0,0,0,0,0,0,0,0,0,-1,1812,967,0,0
595,57,0,0,0,0,0,0,0,0,0,-1,1819,967,0,0
602,57,0,0,0,0,0,0,0,0,0,-1,1826,967,0,0
609,57,0,0,0,0,0,0,0,0,0,-1,1833,967,0,0
616,57,0,0,0,0,0,0,0,0,0,-1,1840,967,0,0
623,57,0,0,0,0,0,0,0,0,0,-1,1847,967,0,0
630,57,0,0,0,0,0,0,0,0,0,-1,1854,967,0,0
637,57,0,0,0,0,0,0,0,0,0,-1,1861,967,0,0
644,57,74.4922,2.18292,0.00219736,0.00502606,-8.37768e-05,0.00502854,0.00219488,-1.54121,0.00291103,0.0419802,1868,967,74.4922,-2.18294
651,57,74.5436,2.17871,0.00189502,0.00374861,0.000313173,0.00380009,0.00184354,1.40786,0.00219431,0.0347014,1875,967,74.5436,-2.17873
658,57,74.5194,2.39203,0.00150951,0.00276393,0.000640556,0.00303322,0.00124023,1.17283,0.0017609,0.032658,1882,967,74.5194,-2.392
665,57,74.382,2.30444,0.00115851,0.00200105,0.000849967,0.00252842,0.000631142,1.01547,0.00151957,0.041121,1889,967,74.382,-2.30446
672,57,74.5264,2.23901,0.000529449,0.0013031,0.0010562,0.00204108,-0.00020853,0.960935,0.00143529,0.0431215,1896,967,74.5264,-2.23903
679,57,74.6627,2.17511,-8.98958e-05,0.00048266,0.00126631,0.00149465,-0.00110188,0.896566,0.00150481,0.0421627,1903,967,74.6627,-2.17512
686,57,74.4343,1.90546,-0.000465679,-0.00028829,0.00124731,0.000873473,-0.00162744,0.820893,0.00146561,0.0380285,1910,967,74.4343,-1.90546
693,57,74.4138,2.02917,-0.000868666,-0.00088994,0.00108849,0.000209243,-0.00196785,0.780512,0.00138692,0.0312518,1917,967,74.4138,-2.0292
700,57,74.4661,2.18066,-0.00147347,-0.00106588,0.000850454,-0.000395142,-0.0021442,0.902997,0.00131766,0.0277443,1924,967,74.466,-2.18069
707,57,74.568,2.38147,0,0,0,0,0,0,0,-1,1931,967,74.568,-2.38145
714,57,72.0231,3.23383,0,0,0,0,0,0,0,-1,1938,967,72.023,-3.23382
721,57,73.2114,5.34607,0,0,0,0,0,0,0,-1,1945,967,73.2114,-5.34608
728,57,72.7894,6.07446,-0.00484183,0.00223907,-0.00107265,0.002398,-0.00500076,-1.42371,0.00435889,0.0251108,1952,967,72.7894,-6.07448
735,57,72.7944,6.57922,-0.00561312,0.00396862,-0.00145034,0.00418334,-0.00582784,-1.42382,0.00580589,0.0311814,1959,967,72.7944,-6.57923
742,57,72.8403,6.89301,-0.00593387,0.0064047,-0.00238485,0.00684961,-0.00637878,-1.38636,0.00763903,0.0235866,1966,967,72.8404,-6.893
749,57,72.783,7.35773,-0.00614428,0.00973733,-0.00366301,0.0105415,-0.00694842,-1.35469,0.0101686,0.0161688,1973,967,72.783,-7.35774
756,57,72.7036,7.78192,-0.00544144,0.0143236,-0.00506652,0.0155467,-0.0066645,-1.33393,0.013161,0.0127466,1980,967,72.7036,-7.78191
763,57,72.5764,8.17444,-0.00348449,0.0200968,-0.00672419,0.0218795,-0.00526713,-1.31165,0.0166225,0.0135628,1987,967,72.5765,-8.17441
770,57,72.4072,8.52191,0.000227541,0.0260846,-0.00874562,0.0287648,-0.00245267,-1.27342,0.0200442,0.013638,1994,967,72.4072,-8.52193
777,57,72.2981,8.83728,0.00556883,0.0316741,-0.0110972,0.0357539,0.00148903,-1.21849,0.0233554,0.0292529,2001,967,72.298,-8.8373
784,57,72.4016,9.46649,0,0,0,0,0,0,0,-1,2008,967,72.4016,-9.46652
791,57,71.8342,9.30542,0,0,0,0,0,0,0,-1,2015,967,71.8343,-9.30542
798,57,72.0266,10.1381,0,0,0,0,0,0,0,-1,2022,967,72.0266,-10.1381
805,57,72.4939,10.9913,0,0,0,0,0,0,0,-1,2029,967,72.4939,-10.9913
812,57,0,0,0,0,0,0,0,0,0,-1,2036,967,0,0
-700,50,0,0,0,0,0,0,0,0,0,-1,524,974,0,0
-693,50,-54.0315,0.366699,0,0,0,0,0,0,0,-1,531,974,-54.0315,-0.366708
-686,50,-74.1836,-2.89618,0,0,0,0,0,0,0,-1,538,974,-74.1836,2.89617
-679,50,-52.8586,4.81293,0,0,0,0,0,0,0,-1,545,974,-52.8586,-4.81296
-672,50,-57.1591,3.89862,0,0,0,0,0,0,0,-1,552,974,-57.1591,-3.89863
-665,50,-59.9923,5.35925,0,0,0,0,0,0,0,-1,559,974,-59.9923,-5.35923
-658,50,-56.1021,7.23474,0,0,0,0,0,0,0,-1,566,974,-56.1021,-7.23473
-651,50,-57.004,7.29034,0,0,0,0,0,0,0,-1,573,974,-57.004,-7.29035
-644,50,-57.2354,7.0907,0.0373153,0.0529256,0.0250952,0.0714015,0.0188395,0.936167,0.0427287,0.0363398,580,974,-57.2354,-7.0907
-637,50,-57.4053,6.85626,0.0166659,0.0405211,0.0187896,0.0508492,0.00633784,1.0682,0.0319967,0.0207799,587,974,-57.4053,-6.85628
-630,50,-57.5016,6.59009,-0.00371267,0.0291907,0.0131616,0.0338076,-0.00832961,1.23342,0.0257677,0.0124702,594,974,-57.5017,-6.59006
-623,50,-57.5429,6.31122,-0.00921105,0.0176402,0.009432,0.0206222,-0.0121931,1.26458,0.0191531,0.0138133,601,974,-57.5429,-6.3112
-616,50,-57.5601,5.98621,-0.00704236,0.00830499,0.00679196,0.010879,-0.00961642,1.20854,0.0118405,0.0141116,608,974,-57.5601,-5.98623
-609,50,-57.5583,5.56158,-0.00512159,-4.62481e-05,0.00491761,0.00294986,-0.0081177,1.0236,0.00661798,0.0121851,615,974,-57.5583,-5.56159
-602,50,-57.5666,5.14819,-0.00359222,-0.00787009,0.00360544,-0.00153899,-0.00992332,0.517676,0.0061669,0.0125554,622,974,-57.5666,-5.14818
-595,50,-57.5963,4.7713,-0.00296082,-0.0146019,0.00350612,-0.00198639,-0.0155763,0.271081,0.00978949,0.0170536,629,974,-57.5962,-4.77131
-588,50,-57.5652,4.10498,0,0,0,0,0,0,0,-1,636,974,-57.5652,-4.10499
-581,50,-57.428,1.48712,0,0,0,0,0,0,0,-1,643,974,-57.4281,-1.48713
-574,50,-57.5458,-0.60553,0,0,0,0,0,0,0,-1,650,974,-57.5458,0.605508
-567,50,-57.4561,0.218262,0,0,0,0,0,0,0,-1,657,974,-57.456,-0.218291
-560,50,-57.268,0.475647,0,0,0,0,0,0,0,-1,664,974,-57.268,-0.475617
-553,50,-57.2704,0.309814,0,0,0,0,0,0,0,-1,671,974,-57.2704,-0.309794
-546,50,-57.4371,0.355103,0,0,0,0,0,0,0,-1,678,974,-57.4371,-0.355078
-539,50,-57.3923,0.491638,0,0,0,0,0,0,0,-1,685,974,-57.3923,-0.491647
-532,50,-57.6057,0.11084,0,0,0,0,0,0,0,-1,692,974,-57.6056,-0.11085
-525,50,-57.4868,-0.0220947,0,0,0,0,0,0,0,-1,699,974,-57.4868,0.0221062
-518,50,0,0,0,0,0,0,0,0,0,-1,706,974,0,0
-511,50,0,0,0,0,0,0,0,0,0,-1,713,974,0,0
-504,50,0,0,0,0,0,0,0,0,0,-1,720,974,0,0
-497,50,0,0,0,0,0,0,0,0,0,-1,727,974,0,0
-490,50,0,0,0,0,0,0,0,0,0,-1,734,974,0,0
-483,50,0,0,0,0,0,0,0,0,0,-1,741,974,0,0
-476,50,0,0,0,0,0,0,0,0,0,-1,748,974,0,0
-469,50,0,0,0,0,0,0,0,0,0,-1,755,974,0,0
-462,50,0,0,0,0,0,0,0,0,0,-1,762,974,0,0
-455,50,0,0,0,0,0,0,0,0,0,-1,769,974,0,0
-448,50,0,0,0,0,0,0,0,0,0,-1,776,974,0,0
-441,50,0,0,0,0,0,0,0,0,0,-1,783,974,0,0
-434,50,0,0,0,0,0,0,0,0,0,-1,790,974,0,0
-427,50,0,0,0,0,0,0,0,0,0,-1,797,974,0,0
-420,50,0,0,0,0,0,0,0,0,0,-1,804,974,0,0
-413,50,0,0,0,0,0,0,0,0,0,-1,811,974,0,0
-406,50,0,0,0,0,0,0,0,0,0,-1,818,974,0,0
-399,50,0,0,0,0,0,0,0,0,0,-1,825,974,0,0
-392,50,0,0,0,0,0,0,0,0,0,-1,832,974,0,0
-385,50,0,0,0,0,0,0,0,0,0,-1,839,974,0,0
-378,50,0,0,0,0,0,0,0,0,0,-1,846,974,0,0
-371,50,0,0,0,0,0,0,0,0,0,-1,853,974,0,0
-364,50,0,0,0,0,0,0,0,0,0,-1,860,974,0,0
-357,50,0,0,0,0,0,0,0,0,0,-1,867,974,0,0
-350,50,0,0,0,0,0,0,0,0,0,-1,874,974,0,0
-343,50,0,0,0,0,0,0,0,0,0,-1,881,974,0,0
-336,50,0,0,0,0,0,0,0,0,0,-1,888,974,0,0
-329,50,0,0,0,0,0,0,0,0,0,-1,895,974,0,0
-322,50,0,0,0,0,0,0,0,0,0,-1,902,974,0,0
-315,50,0,0,0,0,0,0,0,0,0,-1,909,974,0,0
-308,50,0,0,0,0,0,0,0,0,0,-1,916,974,0,0
-301,50,0,0,0,0,0,0,0,0,0,-1,923,974,0,0
-294,50,0,0,0,0,0,0,0,0,0,-1,930,974,0,0
-287,50,0,0,0,0,0,0,0,0,0,-1,937,974,0,0
-280,50,0,0,0,0,0,0,0,0,0,-1,944,974,0,0
-273,50,0,0,0,0,0,0,0,0,0,-1,951,974,0,0
-266,50,0,0,0,0,0,0,0,0,0,-1,958,974,0,0
-259,50,0,0,0,0,0,0,0,0,0,-1,965,974,0,0
-252,50,0,0,0,0,0,0,0,0,0,-1,972,974,0,0
-245,50,0,0,0,0,0,0,0,0,0,-1,979,974,0,0
-238,50,0,0,0,0,0,0,0,0,0,-1,986,974,0,0
-231,50,0,0,0,0,0,0,0,0,0,-1,993,974,0,0
-224,50,0,0,0,0,0,0,0,0,0,-1,1000,974,0,0
-217,50,0,0,0,0,0,0,0,0,0,-1,1007,974,0,0
-210,50,0,0,0,0,0,0,0,0,0,-1,1014,974,0,0
-203,50,0,0,0,0,0,0,0,0,0,-1,1021,974,0,0
-196,50,0,0,0,0,0,0,0,0,0,-1,1028,974,0,0
-189,50,0,0,0,0,0,0,0,0,0,-1,1035,974,0,0
-182,50,0,0,0,0,0,0,0,0,0,-1,1042,974,0,0
-175,50,0,0,0,0,0,0,0,0,0,-1,1049,974,0,0
-168,50,0,0,0,0,0,0,0,0,0,-1,1056,974,0,0
-161,50,0,0,0,0,0,0,0,0,0,-1,1063,974,0,0
-154,50,0,0,0,0,0,0,0,0,0,-1,1070,974,0,0
-147,50,0,0,0,0,0,0,0,0,0,-1,1077,974,0,0
-140,50,0,0,0,0,0,0,0,0,0,-1,1084,974,0,0
-133,50,0,0,0,0,0,0,0,0,0,-1,1091,974,0,0
-126,50,0,0,0,0,0,0,0,0,0,-1,1098,974,0,0
-119,50,0,0,0,0,0,0,0,0,0,-1,1105,974,0,0
-112,50,0,0,0,0,0,0,0,0,0,-1,1112,974,0,0
-105,50,0,0,0,0,0,0,0,0,0,-1,1119,974,0,0
-98,50,0,0,0,0,0,0,0,0,0,-1,1126,974,0,0
-91,50,0,0,0,0,0,0,0,0,0,-1,1133,974,0,0
-84,50,0,0,0,0,0,0,0,0,0,-1,1140,974,0,0
-77,50,0,0,0,0,0,0,0,0,0,-1,1147,974,0,0
-70,50,0,0,0,0,0,0,0,0,0,-1,1154,974,0,0
-63,50,0,0,0,0,0,0,0,0,0,-1,1161,974,0,0
-56,50,0,0,0,0,0,0,0,0,0,-1,1168,974,0,0
-49,50,0,0,0,0,0,0,0,0,0,-1,1175,974,0,0
-42,50,0,0,0,0,0,0,0,0,0,-1,1182,974,0,0
-35,50,0,0,0,0,0,0,0,0,0,-1,1189,974,0,0
-28,50,0,0,0,0,0,0,0,0,0,-1,1196,974,0,0
-21,50,0,0,0,0,0,0,0,0,0,-1,1203,974,0,0
-14,50,0,0,0,0,0,0,0,0,0,-1,1210,974,0,0
-7,50,0,0,0,0,0,0,0,0,0,-1,1217,974,0,0
0,50,0,0,0,0,0,0,0,0,0,-1,1224,974,0,0
7,50,0,0,0,0,0,0,0,0,0,-1,1231,974,0,0
14,50,0,0,0,0,0,0,0,0,0,-1,1238,974,0,0
21,50,0,0,0,0,0,0,0,0,0,-1,1245,974,0,0
28,50,0,0,0,0,0,0,0,0,0,-1,1252,974,0,0
35,50,0,0,0,0,0,0,0,0,0,-1,1259,974,0,0
42,50,0,0,0,0,0,0,0,0,0,-1,1266,974,0,0
49,50,0,0,0,0,0,0,0,0,0,-1,1273,974,0,0
56,50,0,0,0,0,0,0,0,0,0,-1,1280,974,0,0
63,50,0,0,0,0,0,0,0,0,0,-1,1287,974,0,0
70,50,0,0,0,0,0,0,0,0,0,-1,1294,974,0,0
77,50,0,0,0,0,0,0,0,0,0,-1,1301,974,0,0
84,50,0,0,0,0,0,0,0,0,0,-1,1308,974,0,0
91,50,0,0,0,0,0,0,0,0,0,-1,1315,974,0,0
98,50,0,0,0,0,0,0,0,0,0,-1,1322,974,0,0
105,50,0,0,0,0,0,0,0,0,0,-1,1329,974,0,0
112,50,0,0,0,0,0,0,0,0,0,-1,1336,974,0,0
119,50,0,0,0,0,0,0,0,0,0,-1,1343,974,0,0
126,50,0,0,0,0,0,0,0,0,0,-1,1350,974,0,0
133,50,0,0,0,0,0,0,0,0,0,-1,1357,974,0,0
140,50,0,0,0,0,0,0,0,0,0,-1,1364,974,0,0
147,50,0,0,0,0,0,0,0,0,0,-1,1371,974,0,0
154,50,0,0,0,0,0,0,0,0,0,-1,1378,974,0,0
161,50,0,0,0,0,0,0,0,0,0,-1,1385,974,0,0
168,50,0,0,0,0,0,0,0,0,0,-1,1392,974,0,0
175,50,0,0,0,0,0,0,0,0,0,-1,1399,974,0,0
182,50,0,0,0,0,0,0,0,0,0,-1,1406,974,0,0
189,50,0,0,0,0,0,0,0,0,0,-1,1413,974,0,0
196,50,0,0,0,0,0,0,0,0,0,-1,1420,974,0,0
203,50,0,0,0,0,0,0,0,0,0,-1,1427,974,0,0
210,50,0,0,0,0,0,0,0,0,0,-1,1434,974,0,0
217,50,0,0,0,0,0,0,0,0,0,-1,1441,974,0,0
224,50,0,0,0,0,0,0,0,0,0,-1,1448,974,0,0
231,50,0,0,0,0,0,0,0,0,0,-1,1455,974,0,0
238,50,0,0,0,0,0,0,0,0,0,-1,1462,974,0,0
245,50,0,0,0,0,0,0,0,0,0,-1,1469,974,0,0
252,50,0,0,0,0,0,0,0,0,0,-1,1476,974,0,0
259,50,0,0,0,0,0,0,0,0,0,-1,1483,974,0,0
266,50,0,0,0,0,0,0,0,0,0,-1,1490,974,0,0
273,50,0,0,0,0,0,0,0,0,0,-1,1497,974,0,0
280,50,0,0,0,0,0,0,0,0,0,-1,1504,974,0,0
287,50,0,0,0,0,0,0,0,0,0,-1,1511,974,0,0
294,50,0,0,0,0,0,0,0,0,0,-1,1518,974,0,0
301,50,0,0,0,0,0,0,0,0,0,-1,1525,974,0,0
308,50,0,0,0,0,0,0,0,0,0,-1,1532,974,0,0
315,50,0,0,0,0,0,0,0,0,0,-1,1539,974,0,0
322,50,0,0,0,0,0,0,0,0,0,-1,1546,974,0,0
329,50,0,0,0,0,0,0,0,0,0,-1,1553,974,0,0
336,50,0,0,0,0,0,0,0,0,0,-1,1560,974,0,0
343,50,0,0,0,0,0,0,0,0,0,-1,1567,974,0,0
350,50,0,0,0,0,0,0,0,0,0,-1,1574,974,0,0
357,50,0,0,0,0,0,0,0,0,0,-1,1581,974,0,0
364,50,0,0,0,0,0,0,0,0,0,-1,1588,974,0,0
371,50,0,0,0,0,0,0,0,0,0,-1,1595,974,0,0
378,50,0,0,0,0,0,0,0,0,0,-1,1602,974,0,0
385,50,0,0,0,0,0,0,0,0,0,-1,1609,974,0,0
392,50,0,0,0,0,0,0,0,0,0,-1,1616,974,0,0
399,50,0,0,0,0,0,0,0,0,0,-1,1623,974,0,0
406,50,0,0,0,0,0,0,0,0,0,-1,1630,974,0,0
413,50,0,0,0,0,0,0,0,0,0,-1,1637,974,0,0
420,50,0,0,0,0,0,0,0,0,0,-1,1644,974,0,0
427,50,0,0,0,0,0,0,0,0,0,-1,1651,974,0,0
434,50,0,0,0,0,0,0,0,0,0,-1,1658,974,0,0
441,50,0,0,0,0,0,0,0,0,0,-1,1665,974,0,0
448,50,0,0,0,0,0,0,0,0,0,-1,1672,974,0,0
455,50,0,0,0,0,0,0,0,0,0,-1,1679,974,0,0
462,50,0,0,0,0,0,0,0,0,0,-1,1686,974,0,0
469,50,0,0,0,0,0,0,0,0,0,-1,1693,974,0,0
476,50,0,0,0,0,0,0,0,0,0,-1,1700,974,0,0
483,50,0,0,0,0,0,0,0,0,0,-1,1707,974,0,0
490,50,0,0,0,0,0,0,0,0,0,-1,1714,974,0,0
497,50,0,0,0,0,0,0,0,0,0,-1,1721,974,0,0
504,50,0,0,0,0,0,0,0,0,0,-1,1728,974,0,0
511,50,0,0,0,0,0,0,0,0,0,-1,1735,974,0,0
518,50,0,0,0,0,0,0,0,0,0,-1,1742,974,0,0
525,50,0,0,0,0,0,0,0,0,0,-1,1749,974,0,0
532,50,0,0,0,0,0,0,0,0,0,-1,1756,974,0,0
539,50,0,0,0,0,0,0,0,0,0,-1,1763,974,0,0
546,50,0,0,0,0,0,0,0,0,0,-1,1770,974,0,0
553,50,0,0,0,0,0,0,0,0,0,-1,1777,974,0,0
560,50,0,0,0,0,0,0,0,0,0,-1,1784,974,0,0
567,50,0,0,0,0,0,0,0,0,0,-1,1791,974,0,0
574,50,0,0,0,0,0,0,0,0,0,-1,1798,974,0,0
581,50,0,0,0,0,0,0,0,0,0,-1,1805,974,0,0
588,50,0,0,0,0,0,0,0,0,0,-1,1812,974,0,0
595,50,0,0,0,0,0,0,0,0,0,-1,1819,974,0,0
602,50,0,0,0,0,0,0,0,0,0,-1,1826,974,0,0
609,50,0,0,0,0,0,0,0,0,0,-1,1833,974,0,0
616,50,0,0,0,0,0,0,0,0,0,-1,1840,974,0,0
623,50,0,0,0,0,0,0,0,0,0,-1,1847,974,0,0
630,50,0,0,0,0,0,0,0,0,0,-1,1854,974,0,0
637,50,0,0,0,0,0,0,0,0,0,-1,1861,974,0,0
644,50,74.3854,2.13647,0.00250104,0.00568348,-0.000684737,0.00582456,0.00235996,-1.36761,0.00338291,0.0392805,1868,974,74.3853,-2.13649
651,50,74.3479,2.06915,0.00216503,0.00428281,-0.000149947,0.00429337,0.00215447,-1.50046,0.00247879,0.0333414,1875,974,74.3479,-2.06918
658,50,74.3597,2.19177,0.00172002,0.00316366,0.000273462,0.00321372,0.00166996,1.38972,0.00185592,0.0353456,1882,974,74.3598,-2.19178
665,50,74.2091,2.14886,0.00132261,0.00229039,0.000545903,0.00253599,0.001077,1.14803,0.00146968,0.0414313,1889,974,74.2091,-2.14887
672,50,74.186,2.16852,0.000703153,0.00151207,0.000790034,0.00199516,0.000220063,1.02198,0.00126316,0.0429916,1896,974,74.186,-2.16853
679,50,74.5509,2.17145,0.000106878,0.000622872,0.00103318,0.00142978,-0.000700032,0.907752,0.00125348,0.0419559,1903,974,74.5509,-2.17146
686,50,74.381,1.81482,-0.000240017,-0.000229186,0.00108165,0.000847059,-0.00131626,0.787901,0.00125875,0.0409331,1910,974,74.381,-1.8148
693,50,74.3822,2.06659,-0.000608691,-0.000914663,0.00098433,0.000234471,-0.00175783,0.708304,0.00125735,0.0369872,1917,974,74.3822,-2.06656
700,50,74.4143,2.2547,-0.00115245,-0.00116284,0.000801753,-0.000355876,-0.00195942,0.782159,0.00120529,0.0237686,1924,974,74.4143,-2.25472
707,50,74.4762,2.36511,-0.00193216,-0.000961633,0.000420442,-0.000804828,-0.00208896,1.21382,0.0012166,0.0391552,1931,974,74.4762,-2.36512
714,50,74.428,2.49878,0,0,0,0,0,0,0,-1,1938,974,74.4279,-2.4988
721,50,73.2646,5.64996,0,0,0,0,0,0,0,-1,1945,974,73.2647,-5.64995
728,50,73.3127,6.10681,-0.00478531,0.00227132,-0.000997067,0.00240949,-0.00492349,-1.43309,0.00431583,0.0215313,1952,974,73.3127,-6.10683
735,50,73.3326,6.54633,-0.00579587,0.00398895,-0.00129683,0.00415791,-0.00596482,-1.44124,0.00587532,0.0222523,1959,974,73.3326,-6.5463
742,50,73.3099,6.97162,-0.00645653,0.00628945,-0.00216449,0.00664699,-0.00681407,-1.40709,0.00777195,0.0176692,1966,974,73.31,-6.97164
749,50,73.2535,7.32678,-0.00709329,0.00939348,-0.003376,0.010058,-0.0077578,-1.37644,0.0103145,0.0183682,1973,974,73.2536,-7.32677
756,50,73.1677,7.67352,-0.00705672,0.0136225,-0.00468972,0.0146363,-0.00807057,-1.35789,0.0132913,0.0157383,1980,974,73.1678,-7.67351
763,50,73.0349,8.0423,-0.0060445,0.0189256,-0.00626753,0.0204104,-0.00752936,-1.33817,0.0166927,0.0151474,1987,974,73.0349,-8.04231
770,50,72.8879,8.37524,-0.00328788,0.0244076,-0.00823953,0.0266735,-0.00555378,-1.30243,0.0198937,0.014943,1994,974,72.8878,-8.37522
777,50,72.8308,8.73743,0.00101291,0.0292923,-0.0105272,0.0327808,-0.00247561,-1.2508,0.0227241,0.0281469,2001,974,72.8309,-8.7374
784,50,72.8428,8.99207,0,0,0,0,0,0,0,-1,2008,974,72.8428,-8.99208
791,50,72.8843,9.37671,0.0192316,0.0352597,-0.0171229,0.0461511,0.00834019,-1.00427,0.0283986,0.0491659,2015,974,72.8844,-9.37671
798,50,73.0969,10.1241,0.0336765,0.0354243,-0.0218888,0.0564566,0.0126442,-0.805349,0.0342109,0.0483554,2022,974,73.0968,-10.1241
805,50,73.4294,10.9781,0.0509047,0.0333655,-0.0275107,0.0710097,0.0132605,-0.631105,0.0435971,0.0488082,2029,974,73.4296,-10.9782
812,50,0,0,0,0,0,0,0,0,0,-1,2036,974,0,0
-700,43,0,0,0,0,0,0,0,0,0,-1,524,981,0,0
-693,43,-73.9099,-5.63873,0,0,0,0,0,0,0,-1,531,981,-73.9099,5.63874
-686,43,-73.2479,-2.8576,0,0,0,0,0,0,0,-1,538,981,-73.2479,2.85763
-679,43,-72.5858,-0.0765381,0,0,0,0,0,0,0,-1,545,981,-72.5858,0.0765161
-672,43,-54.7086,-1.5506,0,0,0,0,0,0,0,-1,552,981,-54.7086,1.55062
-665,43,-55.2656,-1.75293,0,0,0,0,0,0,0,-1,559,981,-55.2656,1.75292
-658,43,-56.9814,7.33063,0,0,0,0,0,0,0,-1,566,981,-56.9814,-7.33065
-651,43,-57.3044,7.12994,0.0909423,0.0638841,0.0377579,0.117522,0.0373046,0.613368,0.0693426,0.0462372,573,981,-57.3044,-7.12993
-644,43,-57.6301,6.92163,0.0523105,0.051314,0.0282701,0.0800867,0.0235377,0.776587,0.0475294,0.0280376,580,981,-57.6301,-6.92166
-637,43,-57.8359,6.69104,0.025865,0.0395356,0.0204929,0.0543031,0.0110975,0.946368,0.0331284,0.0199418,587,981,-57.836,-6.69103
-630,43,-57.8918,6.46454,-0.00156987,0.0286317,0.0133276,0.0336718,-0.00661004,1.20924,0.0249449,0.0157703,594,981,-57.8918,-6.46455
-623,43,-57.9166,6.20758,-0.0095812,0.0170969,0.00877909,0.0197267,-0.012211,1.27975,0.0186086,0.01399,601,981,-57.9165,-6.20758
-616,43,-57.9344,5.89832,-0.00746324,0.00760736,0.00601938,0.00971642,-0.0095723,1.23378,0.0111365,0.0129644,608,981,-57.9344,-5.89831
-609,43,-57.9449,5.54547,-0.00556409,-0.000739435,0.00423847,0.00172512,-0.00802864,1.04411,0.00601057,0.0145989,615,981,-57.945,-5.54546
-602,43,-57.9204,5.22186,-0.00410961,-0.00881665,0.0029334,-0.0027023,-0.010224,0.447322,0.00611751,0.017404,622,981,-57.9204,-5.22184
-595,43,-58.0975,4.90198,-0.00362036,-0.0157214,0.00288812,-0.00296641,-0.0163754,0.222675,0.0100748,0.0196794,629,981,-58.0975,-4.90197
-588,43,-58.4129,4.71179,0,0,0,0,0,0,0,-1,636,981,-58.4129,-4.71179
-581,43,-57.5745,0.80127,0,0,0,0,0,0,0,-1,643,981,-57.5745,-0.801249
-574,43,-57.5249,0.111755,0,0,0,0,0,0,0,-1,650,981,-57.5249,-0.111745
-567,43,-57.4744,0.263062,0,0,0,0,0,0,0,-1,657,981,-57.4744,-0.263044
-560,43,-57.3124,0.40625,0,0,0,0,0,0,0,-1,664,981,-57.3124,-0.406222
-553,43,-57.3824,0.299561,0,0,0,0,0,0,0,-1,671,981,-57.3824,-0.299534
-546,43,-57.6557,0.267883,0,0,0,0,0,0,0,-1,678,981,-57.6557,-0.267909
-539,43,-57.6827,0.332947,0,0,0,0,0,0,0,-1,685,981,-57.6827,-0.332933
-532,43,-57.7183,0.165161,0,0,0,0,0,0,0,-1,692,981,-57.7183,-0.165145
-525,43,-57.4794,0.0622559,0,0,0,0,0,0,0,-1,699,981,-57.4794,-0.0622829
-518,43,0,0,0,0,0,0,0,0,0,-1,706,981,0,0
-511,43,0,0,0,0,0,0,0,0,0,-1,713,981,0,0
-504,43,0,0,0,0,0,0,0,0,0,-1,720,981,0,0
-497,43,0,0,0,0,0,0,0,0,0,-1,727,981,0,0
-490,43,0,0,0,0,0,0,0,0,0,-1,734,981,0,0
-483,43,0,0,0,0,0,0,0,0,0,-1,741,981,0,0
-476,43,0,0,0,0,0,0,0,0,0,-1,748,981,0,0
-469,43,0,0,0,0,0,0,0,0,0,-1,755,981,0,0
-462,43,0,0,0,0,0,0,0,0,0,-1,762,981,0,0
-455,43,0,0,0,0,0,0,0,0,0,-1,769,981,0,0
-448,43,0,0,0,0,0,0,0,0,0,-1,776,981,0,0
-441,43,0,0,0,0,0,0,0,0,0,-1,783,981,0,0
-434,43,0,0,0,0,0,0,0,0,0,-1,790,981,0,0
-427,43,0,0,0,0,0,0,0,0,0,-1,797,981,0,0
-420,43,0,0,0,0,0,0,0,0,0,-1,804,981,0,0
-413,43,0,0,0,0,0,0,0,0,0,-1,811,981,0,0
-406,43,0,0,0,0,0,0,0,0,0,-1,818,981,0,0
-399,43,0,0,0,0,0,0,0,0,0,-1,825,981,0,0
-392,43,0,0,0,0,0,0,0,0,0,-1,832,981,0,0
-385,43,0,0,0,0,0,0,0,0,0,-1,839,981,0,0
-378,43,0,0,0,0,0,0,0,0,0,-1,846,981,0,0
-371,43,0,0,0,0,0,0,0,0,0,-1,853,981,0,0
-364,43,0,0,0,0,0,0,0,0,0,-1,860,981,0,0
-357,43,0,0,0,0,0,0,0,0,0,-1,867,981,0,0
-350,43,0,0,0,0,0,0,0,0,0,-1,874,981,0,0
-343,43,0,0,0,0,0,0,0,0,0,-1,881,981,0,0
-336,43,0,0,0,0,0,0,0,0,0,-1,888,981,0,0
-329,43,0,0,0,0,0,0,0,0,0,-1,895,981,0,0
-322,43,0,0,0,0,0,0,0,0,0,-1,902,981,0,0
-315,43,0,0,0,0,0,0,0,0,0,-1,909,981,0,0
-308,43,0,0,0,0,0,0,0,0,0,-1,916,981,0,0
-301,43,0,0,0,0,0,0,0,0,0,-1,923,981,0,0
-294,43,0,0,0,0,0,0,0,0,0,-1,930,981,0,0
-287,43,0,0,0,0,0,0,0,0,0,-1,937,981,0,0
-280,43,0,0,0,0,0,0,0,0,0,-1,944,981,0,0
-273,43,0,0,0,0,0,0,0,0,0,-1,951,981,0,0
-266,43,0,0,0,0,0,0,0,0,0,-1,958,981,0,0
-259,43,0,0,0,0,0,0,0,0,0,-1,965,981,0,0
-252,43,0,0,0,0,0,0,0,0,0,-1,972,981,0,0
-245,43,0,0,0,0,0,0,0,0,0,-1,979,981,0,0
-238,43,0,0,0,0,0,0,0,0,0,-1,986,981,0,0
-231,43,0,0,0,0,0,0,0,0,0,-1,993,981,0,0
-224,43,0,0,0,0,0,0,0,0,0,-1,1000,981,0,0
-217,43,0,0,0,0,0,0,0,0,0,-1,1007,981,0,0
-210,43,0,0,0,0,0,0,0,0,0,-1,1014,981,0,0
-203,43,0,0,0,0,0,0,0,0,0,-1,1021,981,0,0
-196,43,0,0,0,0,0,0,0,0,0,-1,1028,981,0,0
-189,43,0,0,0,0,0,0,0,0,0,-1,1035,981,0,0
-182,43,0,0,0,0,0,0,0,0,0,-1,1042,981,0,0
-175,43,0,0,0,0,0,0,0,0,0,-1,1049,981,0,0
-168,43,0,0,0,0,0,0,0,0,0,-1,1056,981,0,0
-161,43,0,0,0,0,0,0,0,0,0,-1,1063,981,0,0
-154,43,0,0,0,0,0,0,0,0,0,-1,1070,981,0,0
-147,43,0,0,0,0,0,0,0,0,0,-1,1077,981,0,0
-140,43,0,0,0,0,0,0,0,0,0,-1,1084,981,0,0
-133,43,0,0,0,0,0,0,0,0,0,-1,1091,981,0,0
-126,43,0,0,0,0,0,0,0,0,0,-1,1098,981,0,0
-119,43,0,0,0,0,0,0,0,0,0,-1,1105,981,0,0
-112,43,0,0,0,0,0,0,0,0,0,-1,1112,981,0,0
-105,43,0,0,0,0,0,0,0,0,0,-1,1119,981,0,0
-98,43,0,0,0,0,0,0,0,0,0,-1,1126,981,0,0
-91,43,0,0,0,0,0,0,0,0,0,-1,1133,981,0,0
-84,43,0,0,0,0,0,0,0,0,0,-1,1140,981,0,0
-77,43,0,0,0,0,0,0,0,0,0,-1,1147,981,0,0
-70,43,0,0,0,0,0,0,0,0,0,-1,1154,981,0,0
-63,43,0,0,0,0,0,0,0,0,0,-1,1161,981,0,0
-56,43,0,0,0,0,0,0,0,0,0,-1,1168,981,0,0
-49,43,0,0,0,0,0,0,0,0,0,-1,1175,981,0,0
-42,43,0,0,0,0,0,0,0,0,0,-1,1182,981,0,0
-35,43,0,0,0,0,0,0,0,0,0,-1,1189,981,0,0
-28,43,0,0,0,0,0,0,0,0,0,-1,1196,981,0,0
-21,43,0,0,0,0,0,0,0,0,0,-1,1203,981,0,0
-14,43,0,0,0,0,0,0,0,0,0,-1,1210,981,0,0
-7,43,0,0,0,0,0,0,0,0,0,-1,1217,981,0,0
0,43,0,0,0,0,0,0,0,0,0,-1,1224,981,0,0
7,43,0,0,0,0,0,0,0,0,0,-1,1231,981,0,0
14,43,0,0,0,0,0,0,0,0,0,-1,1238,981,0,0
21,43,0,0,0,0,0,0,0,0,0,-1,1245,981,0,0
28,43,0,0,0,0,0,0,0,0,0,-1,1252,981,0,0
35,43,0,0,0,0,0,0,0,0,0,-1,1259,981,0,0
42,43,0,0,0,0,0,0,0,0,0,-1,1266,981,0,0
49,43,0,0,0,0,0,0,0,0,0,-1,1273,981,0,0
56,43,0,0,0,0,0,0,0,0,0,-1,1280,981,0,0
63,43,0,0,0,0,0,0,0,0,0,-1,1287,981,0,0
70,43,0,0,0,0,0,0,0,0,0,-1,1294,981,0,0
77,43,0,0,0,0,0,0,0,0,0,-1,1301,981,0,0
84,43,0,0,0,0,0,0,0,0,0,-1,1308,981,0,0
91,43,0,0,0,0,0,0,0,0,0,-1,1315,981,0,0
98,43,0,0,0,0,0,0,0,0,0,-1,1322,981,0,0
105,43,0,0,0,0,0,0,0,0,0,-1,1329,981,0,0
112,43,0,0,0,0,0,0,0,0,0,-1,1336,981,0,0
119,43,0,0,0,0,0,0,0,0,0,-1,1343,981,0,0
126,43,0,0,0,0,0,0,0,0,0,-1,1350,981,0,0
133,43,0,0,0,0,0,0,0,0,0,-1,1357,981,0,0
140,43,0,0,0,0,0,0,0,0,0,-1,1364,981,0,0
147,43,0,0,0,0,0,0,0,0,0,-1,1371,981,0,0
154,43,0,0,0,0,0,0,0,0,0,-1,1378,981,0,0
161,43,0,0,0,0,0,0,0,0,0,-1,1385,981,0,0
168,43,0,0,0,0,0,0,0,0,0,-1,1392,981,0,0
175,43,0,0,0,0,0,0,0,0,0,-1,1399,981,0,0
182,43,0,0,0,0,0,0,0,0,0,-1,1406,981,0,0
189,43,0,0,0,0,0,0,0,0,0,-1,1413,981,0,0
196,43,0,0,0,0,0,0,0,0,0,-1,1420,981,0,0
203,43,0,0,0,0,0,0,0,0,0,-1,1427,981,0,0
210,43,0,0,0,0,0,0,0,0,0,-1,1434,981,0,0
217,43,0,0,0,0,0,0,0,0,0,-1,1441,981,0,0
224,43,0,0,0,0,0,0,0,0,0,-1,1448,981,0,0
231,43,0,0,0,0,0,0,0,0,0,-1,1455,981,0,0
238,43,0,0,0,0,0,0,0,0,0,-1,1462,981,0,0
245,43,0,0,0,0,0,0,0,0,0,-1,1469,981,0,0
252,43,0,0,0,0,0,0,0,0,0,-1,1476,981,0,0
259,43,0,0,0,0,0,0,0,0,0,-1,1483,981,0,0
266,43,0,0,0,0,0,0,0,0,0,-1,1490,981,0,0
273,43,0,0,0,0,0,0,0,0,0,-1,1497,981,0,0
280,43,0,0,0,0,0,0,0,0,0,-1,1504,981,0,0
287,43,0,0,0,0,0,0,0,0,0,-1,1511,981,0,0
294,43,0,0,0,0,0,0,0,0,0,-1,1518,981,0,0
301,43,0,0,0,0,0,0,0,0,0,-1,1525,981,0,0
308,43,0,0,0,0,0,0,0,0,0,-1,1532,981,0,0
315,43,0,0,0,0,0,0,0,0,0,-1,1539,981,0,0
322,43,0,0,0,0,0,0,0,0,0,-1,1546,981,0,0
329,43,0,0,0,0,0,0,0,0,0,-1,1553,981,0,0
336,43,0,0,0,0,0,0,0,0,0,-1,1560,981,0,0
343,43,0,0,0,0,0,0,0,0,0,-1,1567,981,0,0
350,43,0,0,0,0,0,0,0,0,0,-1,1574,981,0,0
357,43,0,0,0,0,0,0,0,0,0,-1,1581,981,0,0
364,43,0,0,0,0,0,0,0,0,0,-1,1588,981,0,0
371,43,0,0,0,0,0,0,0,0,0,-1,1595,981,0,0
378,43,0,0,0,0,0,0,0,0,0,-1,1602,981,0,0
385,43,0,0,0,0,0,0,0,0,0,-1,1609,981,0,0
392,43,0,0,0,0,0,0,0,0,0,-1,1616,981,0,0
399,43,0,0,0,0,0,0,0,0,0,-1,1623,981,0,0
406,43,0,0,0,0,0,0,0,0,0,-1,1630,981,0,0
413,43,0,0,0,0,0,0,0,0,0,-1,1637,981,0,0
420,43,0,0,0,0,0,0,0,0,0,-1,1644,981,0,0
427,43,0,0,0,0,0,0,0,0,0,-1,1651,981,0,0
434,43,0,0,0,0,0,0,0,0,0,-1,1658,981,0,0
441,43,0,0,0,0,0,0,0,0,0,-1,1665,981,0,0
448,43,0,0,0,0,0,0,0,0,0,-1,1672,981,0,0
455,43,0,0,0,0,0,0,0,0,0,-1,1679,981,0,0
462,43,0,0,0,0,0,0,0,0,0,-1,1686,981,0,0
469,43,0,0,0,0,0,0,0,0,0,-1,1693,981,0,0
476,43,0,0,0,0,0,0,0,0,0,-1,1700,981,0,0
483,43,0,0,0,0,0,0,0,0,0,-1,1707,981,0,0
490,43,0,0,0,0,0,0,0,0,0,-1,1714,981,0,0
497,43,0,0,0,0,0,0,0,0,0,-1,1721,981,0,0
504,43,0,0,0,0,0,0,0,0,0,-1,1728,981,0,0
511,43,0,0,0,0,0,0,0,0,0,-1,1735,981,0,0
518,43,0,0,0,0,0,0,0,0,0,-1,1742,981,0,0
525,43,0,0,0,0,0,0,0,0,0,-1,1749,981,0,0
532,43,0,0,0,0,0,0,0,0,0,-1,1756,981,0,0
539,43,0,0,0,0,0,0,0,0,0,-1,1763,981,0,0
546,43,0,0,0,0,0,0,0,0,0,-1,1770,981,0,0
553,43,0,0,0,0,0,0,0,0,0,-1,1777,981,0,0
560,43,0,0,0,0,0,0,0,0,0,-1,1784,981,0,0
567,43,0,0,0,0,0,0,0,0,0,-1,1791,981,0,0
574,43,0,0,0,0,0,0,0,0,0,-1,1798,981,0,0
581,43,0,0,0,0,0,0,0,0,0,-1,1805,981,0,0
588,43,0,0,0,0,0,0,0,0,0,-1,1812,981,0,0
595,43,0,0,0,0,0,0,0,0,0,-1,1819,981,0,0
602,43,0,0,0,0,0,0,0,0,0,-1,1826,981,0,0
609,43,0,0,0,0,0,0,0,0,0,-1,1833,981,0,0
616,43,0,0,0,0,0,0,0,0,0,-1,1840,981,0,0
623,43,0,0,0,0,0,0,0,0,0,-1,1847,981,0,0
630,43,0,0,0,0,0,0,0,0,0,-1,1854,981,0,0
637,43,0,0,0,0,0,0,0,0,0,-1,1861,981,0,0
644,43,74.2379,2.30316,0.00262689,0.00550022,-0.000764637,0.00569103,0.00243608,-1.32625,0.00329704,0.0401349,1868,981,74.238,-2.30316
651,43,74.1823,2.21002,0.00222688,0.00423254,-0.000160642,0.00424532,0.00221409,-1.49138,0.00245179,0.0373796,1875,981,74.1823,-2.21
658,43,74.4819,2.07062,0.00172275,0.00318488,0.000282255,0.00323748,0.00167015,1.38657,0.00186947,0.0385315,1882,981,74.4819,-2.07059
665,43,74.4398,2.08557,0.001296,0.0023595,0.000531865,0.00257984,0.00107566,1.17804,0.0014963,0.0413627,1889,981,74.4398,-2.08555
672,43,74.2207,2.11639,0.000719664,0.00162643,0.00071704,0.0020214,0.000324694,1.06731,0.00125347,0.0416096,1896,981,74.2207,-2.11639
679,43,74.3213,1.99585,0.000185307,0.000765781,0.000897352,0.00141867,-0.000467578,0.941807,0.00113423,0.0398301,1903,981,74.3212,-1.99584
686,43,74.4862,1.98499,-0.00011155,-0.000107735,0.000927345,0.000817704,-0.00103699,0.786427,0.0010733,0.0385538,1910,981,74.4862,-1.98501
693,43,74.5203,2.18951,-0.000422019,-0.000846669,0.000831151,0.000223499,-0.00149219,0.660343,0.00107705,0.0361838,1917,981,74.5202,-2.1895
700,43,74.4323,2.24695,-0.000886978,-0.0011541,0.000667283,-0.000340021,-0.00170106,0.686625,0.00103941,0.0344823,1924,981,74.4323,-2.24693
707,43,74.5239,2.29755,-0.00166071,-0.000943181,0.00032511,-0.000817788,-0.0017861,1.20268,0.00103243,0.0342989,1931,981,74.524,-2.29756
714,43,74.4736,2.42377,0,0,0,0,0,0,0,-1,1938,981,74.4736,-2.42379
721,43,73.6727,5.71661,0,0,0,0,0,0,0,-1,1945,981,73.6727,-5.71659
728,43,73.7277,6.15356,-0.00489998,0.00247614,-0.00103275,0.00261801,-0.00504185,-1.43428,0.00449562,0.0192176,1952,981,73.7276,-6.15355
735,43,73.7708,6.56989,-0.00621698,0.00416963,-0.00123346,0.0043141,-0.00636145,-1.4542,0.0062012,0.0156837,1959,981,73.7707,-6.5699
742,43,73.7271,6.96649,-0.00730266,0.00632284,-0.0019746,0.00660323,-0.00758305,-1.42974,0.00819696,0.0172594,1966,981,73.727,-6.96648
749,43,73.6769,7.30676,-0.00845375,0.0091955,-0.00305066,0.00970793,-0.00896618,-1.40438,0.0107843,0.0196287,1973,981,73.6769,-7.30677
756,43,73.6294,7.58728,-0.00921581,0.0130605,-0.00420872,0.0138292,-0.00998445,-1.39016,0.0138084,0.0236021,1980,981,73.6293,-7.58731
763,43,73.5327,7.85297,-0.00937788,0.0178579,-0.00562716,0.0189747,-0.0104947,-1.37487,0.0172474,0.0270537,1987,981,73.5327,-7.85298
770,43,73.3877,8.2215,-0.00790101,0.0227532,-0.00748496,0.0244832,-0.009631,-1.34366,0.0203085,0.0230385,1994,981,73.3878,-8.2215
777,43,73.4131,8.61304,-0.00487149,0.0268836,-0.00966479,0.0295938,-0.0075817,-1.2974,0.0226828,0.0285519,2001,981,73.4131,-8.61305
784,43,73.4626,8.99121,0,0,0,0,0,0,0,-1,2008,981,73.4628,-8.99122
791,43,74.0542,9.55011,0.0107125,0.0305422,-0.0159695,0.0394244,0.00183027,-1.06321,0.0256946,0.0466955,2015,981,74.0542,-9.55011
798,43,74.1626,10.1732,0.0239757,0.0292619,-0.0205274,0.0473157,0.00592192,-0.849425,0.0297669,0.0459384,2022,981,74.1626,-10.1732
805,43,74.4111,10.8161,0.0402943,0.0258638,-0.0259232,0.0599876,0.00617045,-0.649668,0.0381019,0.0479159,2029,981,74.4111,-10.8161
812,43,74.6548,11.4489,0,0,0,0,0,0,0,-1,2036,981,74.6549,-11.4488
-700,36,0,0,0,0,0,0,0,0,0,-1,524,988,0,0
-693,36,-72.9533,-5.49408,0,0,0,0,0,0,0,-1,531,988,-72.9533,5.49406
-686,36,-72.3343,-2.78955,0,0,0,0,0,0,0,-1,538,988,-72.3343,2.78957
-679,36,-71.7153,-0.085083,0,0,0,0,0,0,0,-1,545,988,-71.7153,0.0850845
-672,36,-55.0911,-1.58173,0,0,0,0,0,0,0,-1,552,988,-55.0911,1.58172
-665,36,-55.481,-1.90393,0,0,0,0,0,0,0,-1,559,988,-55.481,1.90391
-658,36,-57.3072,7.0575,0,0,0,0,0,0,0,-1,566,988,-57.3072,-7.05748
-651,36,-57.6467,6.82465,0.108774,0.0606002,0.0437368,0.134618,0.0347563,0.533699,0.0806945,0.0456067,573,988,-57.6467,-6.82462
-644,36,-57.9782,6.61139,0.0647568,0.0490053,0.0321754,0.0900064,0.0237557,0.665371,0.0538612,0.0302078,580,988,-57.9782,-6.61136
-637,36,-58.1907,6.47046,0.0337051,0.0380259,0.0226729,0.0586411,0.0130899,0.832898,0.0355435,0.0233621,587,988,-58.1907,-6.47044
-630,36,-58.2523,6.34735,0.000149992,0.0277328,0.0136959,0.033378,-0.00549519,1.17983,0.0242918,0.0172931,594,988,-58.2523,-6.34734
-623,36,-58.3025,6.11713,-0.00990406,0.0162902,0.00811385,0.0185999,-0.0122137,1.29347,0.0179172,0.0146132,601,988,-58.3025,-6.11715
-616,36,-58.2985,5.87933,-0.00764971,0.00693804,0.00507748,0.00853132,-0.00924298,1.26673,0.0102647,0.0120138,608,988,-58.2985,-5.87936
-609,36,-58.2085,5.63452,-0.00556414,-0.00155445,0.00331194,0.000312183,-0.00743077,1.05757,0.00506112,0.0179241,615,988,-58.2085,-5.63454
-602,36,-58.272,5.30505,-0.00389984,-0.0098943,0.00202274,-0.00328115,-0.010513,0.296831,0.00621089,0.0223836,622,988,-58.2721,-5.30503
-595,36,-58.5816,4.97076,-0.00303741,-0.0169489,0.00198849,-0.00275876,-0.0172276,0.139225,0.0106849,0.0270437,629,988,-58.5816,-4.97077
-588,36,-58.8858,4.76666,0,0,0,0,0,0,0,-1,636,988,-58.8858,-4.76665
-581,36,-57.4951,0.271545,0,0,0,0,0,0,0,-1,643,988,-57.495,-0.27153
-574,36,-57.4927,0.18866,0,0,0,0,0,0,0,-1,650,988,-57.4927,-0.188663
-567,36,-57.4929,0.158569,0,0,0,0,0,0,0,-1,657,988,-57.4928,-0.158554
-560,36,-57.3973,0.211609,0,0,0,0,0,0,0,-1,664,988,-57.3973,-0.211631
-553,36,-57.5161,0.265259,0,0,0,0,0,0,0,-1,671,988,-57.516,-0.265268
-546,36,-57.6844,0.278503,0,0,0,0,0,0,0,-1,678,988,-57.6844,-0.278499
-539,36,-57.7928,0.255798,0,0,0,0,0,0,0,-1,685,988,-57.7928,-0.255775
-532,36,-57.9005,0.204407,0,0,0,0,0,0,0,-1,692,988,-57.9005,-0.204436
-525,36,-57.452,0.330872,0,0,0,0,0,0,0,-1,699,988,-57.452,-0.330901
-518,36,0,0,0,0,0,0,0,0,0,-1,706,988,0,0
-511,36,0,0,0,0,0,0,0,0,0,-1,713,988,0,0
-504,36,0,0,0,0,0,0,0,0,0,-1,720,988,0,0
-497,36,0,0,0,0,0,0,0,0,0,-1,727,988,0,0
-490,36,0,0,0,0,0,0,0,0,0,-1,734,988,0,0
-483,36,0,0,0,0,0,0,0,0,0,-1,741,988,0,0
-476,36,0,0,0,0,0,0,0,0,0,-1,748,988,0,0
-469,36,0,0,0,0,0,0,0,0,0,-1,755,988,0,0
-462,36,0,0,0,0,0,0,0,0,0,-1,762,988,0,0
-455,36,0,0,0,0,0,0,0,0,0,-1,769,988,0,0
-448,36,0,0,0,0,0,0,0,0,0,-1,776,988,0,0
-441,36,0,0,0,0,0,0,0,0,0,-1,783,988,0,0
-434,36,0,0,0,0,0,0,0,0,0,-1,790,988,0,0
-427,36,0,0,0,0,0,0,0,0,0,-1,797,988,0,0
-420,36,0,0,0,0,0,0,0,0,0,-1,804,988,0,0
-413,36,0,0,0,0,0,0,0,0,0,-1,811,988,0,0
-406,36,0,0,0,0,0,0,0,0,0,-1,818,988,0,0
-399,36,0,0,0,0,0,0,0,0,0,-1,825,988,0,0
-392,36,0,0,0,0,0,0,0,0,0,-1,832,988,0,0
-385,36,0,0,0,0,0,0,0,0,0,-1,839,988,0,0
-378,36,0,0,0,0,0,0,0,0,0,-1,846,988,0,0
-371,36,0,0,0,0,0,0,0,0,0,-1,853,988,0,0
-364,36,0,0,0,0,0,0,0,0,0,-1,860,988,0,0
-357,36,0,0,0,0,0,0,0,0,0,-1,867,988,0,0
-350,36,0,0,0,0,0,0,0,0,0,-1,874,988,0,0
-343,36,0,0,0,0,0,0,0,0,0,-1,881,988,0,0
-336,36,0,0,0,0,0,0,0,0,0,-1,888,988,0,0
-329,36,0,0,0,0,0,0,0,0,0,-1,895,988,0,0
-322,36,0,0,0,0,0,0,0,0,0,-1,902,988,0,0
-315,36,0,0,0,0,0,0,0,0,0,-1,909,988,0,0
-308,36,0,0,0,0,0,0,0,0,0,-1,916,988,0,0
-301,36,0,0,0,0,0,0,0,0,0,-1,923,988,0,0
-294,36,0,0,0,0,0,0,0,0,0,-1,930,988,0,0
-287,36,0,0,0,0,0,0,0,0,0,-1,937,988,0,0
-280,36,0,0,0,0,0,0,0,0,0,-1,944,988,0,0
-273,36,0,0,0,0,0,0,0,0,0,-1,951,988,0,0
-266,36,0,0,0,0,0,0,0,0,0,-1,958,988,0,0
-259,36,0,0,0,0,0,0,0,0,0,-1,965,988,0,0
-252,36,0,0,0,0,0,0,0,0,0,-1,972,988,0,0
-245,36,0,0,0,0,0,0,0,0,0,-1,979,988,0,0
-238,36,0,0,0,0,0,0,0,0,0,-1,986,988,0,0
-231,36,0,0,0,0,0,0,0,0,0,-1,993,988,0,0
-224,36,0,0,0,0,0,0,0,0,0,-1,1000,988,0,0
-217,36,0,0,0,0,0,0,0,0,0,-1,1007,988,0,0
-210,36,0,0,0,0,0,0,0,0,0,-1,1014,988,0,0
-203,36,0,0,0,0,0,0,0,0,0,-1,1021,988,0,0
-196,36,0,0,0,0,0,0,0,0,0,-1,1028,988,0,0
-189,36,0,0,0,0,0,0,0,0,0,-1,1035,988,0,0
-182,36,0,0,0,0,0,0,0,0,0,-1,1042,988,0,0
-175,36,0,0,0,0,0,0,0,0,0,-1,1049,988,0,0
-168,36,0,0,0,0,0,0,0,0,0,-1,1056,988,0,0
-161,36,0,0,0,0,0,0,0,0,0,-1,1063,988,0,0
-154,36,0,0,0,0,0,0,0,0,0,-1,1070,988,0,0
-147,36,0,0,0,0,0,0,0,0,0,-1,1077,988,0,0
-140,36,0,0,0,0,0,0,0,0,0,-1,1084,988,0,0
-133,36,0,0,0,0,0,0,0,0,0,-1,1091,988,0,0
-126,36,0,0,0,0,0,0,0,0,0,-1,1098,988,0,0
-119,36,0,0,0,0,0,0,0,0,0,-1,1105,988,0,0
-112,36,0,0,0,0,0,0,0,0,0,-1,1112,988,0,0
-105,36,0,0,0,0,0,0,0,0,0,-1,1119,988,0,0
-98,36,0,0,0,0,0,0,0,0,0,-1,1126,988,0,0
-91,36,0,0,0,0,0,0,0,0,0,-1,1133,988,0,0
-84,36,0,0,0,0,0,0,0,0,0,-1,1140,988,0,0
-77,36,0,0,0,0,0,0,0,0,0,-1,1147,988,0,0
-70,36,0,0,0,0,0,0,0,0,0,-1,1154,988,0,0
-63,36,0,0,0,0,0,0,0,0,0,-1,1161,988,0,0
-56,36,0,0,0,0,0,0,0,0,0,-1,1168,988,0,0
-49,36,0,0,0,0,0,0,0,0,0,-1,1175,988,0,0
-42,36,0,0,0,0,0,0,0,0,0,-1,1182,988,0,0
-35,36,0,0,0,0,0,0,0,0,0,-1,1189,988,0,0
-28,36,0,0,0,0,0,0,0,0,0,-1,1196,988,0,0
-21,36,0,0,0,0,0,0,0,0,0,-1,1203,988,0,0
-14,36,0,0,0,0,0,0,0,0,0,-1,1210,988,0,0
-7,36,0,0,0,0,0,0,0,0,0,-1,1217,988,0,0
0,36,0,0,0,0,0,0,0,0,0,-1,1224,988,0,0
7,36,0,0,0,0,0,0,0,0,0,-1,1231,988,0,0
14,36,0,0,0,0,0,0,0,0,0,-1,1238,988,0,0
21,36,0,0,0,0,0,0,0,0,0,-1,1245,988,0,0
28,36,0,0,0,0,0,0,0,0,0,-1,1252,988,0,0
35,36,0,0,0,0,0,0,0,0,0,-1,1259,988,0,0
42,36,0,0,0,0,0,0,0,0,0,-1,1266,988,0,0
49,36,0,0,0,0,0,0,0,0,0,-1,1273,988,0,0
56,36,0,0,0,0,0,0,0,0,0,-1,1280,988,0,0
63,36,0,0,0,0,0,0,0,0,0,-1,1287,988,0,0
70,36,0,0,0,0,0,0,0,0,0,-1,1294,988,0,0
77,36,0,0,0,0,0,0,0,0,0,-1,1301,988,0,0
84,36,0,0,0,0,0,0,0,0,0,-1,1308,988,0,0
91,36,0,0,0,0,0,0,0,0,0,-1,1315,988,0,0
98,36,0,0,0,0,0,0,0,0,0,-1,1322,988,0,0
105,36,0,0,0,0,0,0,0,0,0,-1,1329,988,0,0
112,36,0,0,0,0,0,0,0,0,0,-1,1336,988,0,0
119,36,0,0,0,0,0,0,0,0,0,-1,1343,988,0,0
126,36,0,0,0,0,0,0,0,0,0,-1,1350,988,0,0
133,36,0,0,0,0,0,0,0,0,0,-1,1357,988,0,0
140,36,0,0,0,0,0,0,0,0,0,-1,1364,988,0,0
147,36,0,0,0,0,0,0,0,0,0,-1,1371,988,0,0
154,36,0,0,0,0,0,0,0,0,0,-1,1378,988,0,0
161,36,0,0,0,0,0,0,0,0,0,-1,1385,988,0,0
168,36,0,0,0,0,0,0,0,0,0,-1,1392,988,0,0
175,36,0,0,0,0,0,0,0,0,0,-1,1399,988,0,0
182,36,0,0,0,0,0,0,0,0,0,-1,1406,988,0,0
189,36,0,0,0,0,0,0,0,0,0,-1,1413,988,0,0
196,36,0,0,0,0,0,0,0,0,0,-1,1420,988,0,0
203,36,0,0,0,0,0,0,0,0,0,-1,1427,988,0,0
210,36,0,0,0,0,0,0,0,0,0,-1,1434,988,0,0
217,36,0,0,0,0,0,0,0,0,0,-1,1441,988,0,0
224,36,0,0,0,0,0,0,0,0,0,-1,1448,988,0,0
231,36,0,0,0,0,0,0,0,0,0,-1,1455,988,0,0
238,36,0,0,0,0,0,0,0,0,0,-1,1462,988,0,0
245,36,0,0,0,0,0,0,0,0,0,-1,1469,988,0,0
252,36,0,0,0,0,0,0,0,0,0,-1,1476,988,0,0
259,36,0,0,0,0,0,0,0,0,0,-1,1483,988,0,0
266,36,0,0,0,0,0,0,0,0,0,-1,1490,988,0,0
273,36,0,0,0,0,0,0,0,0,0,-1,1497,988,0,0
280,36,0,0,0,0,0,0,0,0,0,-1,1504,988,0,0
287,36,0,0,0,0,0,0,0,0,0,-1,1511,988,0,0
294,36,0,0,0,0,0,0,0,0,0,-1,1518,988,0,0
301,36,0,0,0,0,0,0,0,0,0,-1,1525,988,0,0
308,36,0,0,0,0,0,0,0,0,0,-1,1532,988,0,0
315,36,0,0,0,0,0,0,0,0,0,-1,1539,988,0,0
322,36,0,0,0,0,0,0,0,0,0,-1,1546,988,0,0
329,36,0,0,0,0,0,0,0,0,0,-1,1553,988,0,0
336,36,0,0,0,0,0,0,0,0,0,-1,1560,988,0,0
343,36,0,0,0,0,0,0,0,0,0,-1,1567,988,0,0
350,36,0,0,0,0,0,0,0,0,0,-1,1574,988,0,0
357,36,0,0,0,0,0,0,0,0,0,-1,1581,988,0,0
364,36,0,0,0,0,0,0,0,0,0,-1,1588,988,0,0
371,36,0,0,0,0,0,0,0,0,0,-1,1595,988,0,0
378,36,0,0,0,0,0,0,0,0,0,-1,1602,988,0,0
385,36,0,0,0,0,0,0,0,0,0,-1,1609,988,0,0
392,36,0,0,0,0,0,0,0,0,0,-1,1616,988,0,0
399,36,0,0,0,0,0,0,0,0,0,-1,1623,988,0,0
406,36,0,0,0,0,0,0,0,0,0,-1,1630,988,0,0
413,36,0,0,0,0,0,0,0,0,0,-1,1637,988,0,0
420,36,0,0,0,0,0,0,0,0,0,-1,1644,988,0,0
427,36,0,0,0,0,0,0,0,0,0,-1,1651,988,0,0
434,36,0,0,0,0,0,0,0,0,0,-1,1658,988,0,0
441,36,0,0,0,0,0,0,0,0,0,-1,1665,988,0,0
448,36,0,0,0,0,0,0,0,0,0,-1,1672,988,0,0
455,36,0,0,0,0,0,0,0,0,0,-1,1679,988,0,0
462,36,0,0,0,0,0,0,0,0,0,-1,1686,988,0,0
469,36,0,0,0,0,0,0,0,0,0,-1,1693,988,0,0
476,36,0,0,0,0,0,0,0,0,0,-1,1700,988,0,0
483,36,0,0,0,0,0,0,0,0,0,-1,1707,988,0,0
490,36,0,0,0,0,0,0,0,0,0,-1,1714,988,0,0
497,36,0,0,0,0,0,0,0,0,0,-1,1721,988,0,0
504,36,0,0,0,0,0,0,0,0,0,-1,1728,988,0,0
511,36,0,0,0,0,0,0,0,0,0,-1,1735,988,0,0
518,36,0,0,0,0,0,0,0,0,0,-1,1742,988,0,0
525,36,0,0,0,0,0,0,0,0,0,-1,1749,988,0,0
532,36,0,0,0,0,0,0,0,0,0,-1,1756,988,0,0
539,36,0,0,0,0,0,0,0,0,0,-1,1763,988,0,0
546,36,0,0,0,0,0,0,0,0,0,-1,1770,988,0,0
553,36,0,0,0,0,0,0,0,0,0,-1,1777,988,0,0
560,36,0,0,0,0,0,0,0,0,0,-1,1784,988,0,0
567,36,0,0,0,0,0,0,0,0,0,-1,1791,988,0,0
574,36,0,0,0,0,0,0,0,0,0,-1,1798,988,0,0
581,36,0,0,0,0,0,0,0,0,0,-1,1805,988,0,0
588,36,0,0,0,0,0,0,0,0,0,-1,1812,988,0,0
595,36,0,0,0,0,0,0,0,0,0,-1,1819,988,0,0
602,36,0,0,0,0,0,0,0,0,0,-1,1826,988,0,0
609,36,0,0,0,0,0,0,0,0,0,-1,1833,988,0,0
616,36,0,0,0,0,0,0,0,0,0,-1,1840,988,0,0
623,36,0,0,0,0,0,0,0,0,0,-1,1847,988,0,0
630,36,0,0,0,0,0,0,0,0,0,-1,1854,988,0,0
637,36,0,0,0,0,0,0,0,0,0,-1,1861,988,0,0
644,36,74.3073,2.34009,0.00274297,0.00472418,-0.000838338,0.00503131,0.00243585,-1.21963,0.00290531,0.0432149,1868,988,74.3072,-2.34007
651,36,74.3027,2.44086,0.00221818,0.0037602,-0.000194402,0.00378433,0.00219405,-1.4473,0.00219413,0.0398143,1875,988,74.3028,-2.44088
658,36,74.8798,2.03302,0,0,0,0,0,0,0,-1,1882,988,74.8798,-2.03303
665,36,74.59,2.21796,0.00115675,0.00224424,0.000478823,0.00242502,0.000975977,1.2098,0.00140894,0.0403963,1889,988,74.5899,-2.21794
672,36,74.4139,2.36798,0.000624018,0.0016493,0.00061553,0.0019377,0.00033561,1.13262,0.00119574,0.0397995,1896,988,74.414,-2.36797
679,36,74.437,2.30157,0.000170288,0.000901865,0.00075035,0.00137084,-0.000298685,1.01219,0.00102802,0.0401651,1903,988,74.437,-2.30159
686,36,74.5023,2.29547,-6.07341e-05,6.54306e-05,0.000770067,0.000774995,-0.000770299,0.826266,0.000892177,0.036807,1910,988,74.5024,-2.29545
693,36,74.5016,2.40417,-0.000285377,-0.000657581,0.000695271,0.000248267,-0.00119123,0.65463,0.000888544,0.0378424,1917,988,74.5016,-2.40419
700,36,74.4146,2.36768,-0.000640952,-0.000997571,0.000581312,-0.000211217,-0.00142731,0.636586,0.00088953,0.0364537,1924,988,74.4145,-2.36766
707,36,74.5092,2.27411,-0.00137543,-0.000756719,0.000300422,-0.000634851,-0.0014973,1.18542,0.000867791,0.0309279,1931,988,74.5092,-2.27411
714,36,74.51,2.24658,0,0,0,0,0,0,0,-1,1938,988,74.51,-2.24657
721,36,73.9233,5.80945,0,0,0,0,0,0,0,-1,1945,988,73.9234,-5.80944
728,36,73.983,6.24298,-0.00480258,0.00284298,-0.000987465,0.00296845,-0.00492806,-1.4444,0.00460561,0.0240585,1952,988,73.9831,-6.24295
735,36,74.0503,6.66949,-0.00625664,0.00451124,-0.00112424,0.00462737,-0.00637277,-1.46787,0.00637753,0.0208343,1959,988,74.0503,-6.66949
742,36,73.9805,6.93628,-0.00753595,0.00652932,-0.00174062,0.00674152,-0.00774816,-1.44948,0.00837235,0.0171613,1966,988,73.9805,-6.93626
749,36,73.9745,7.26361,-0.00891282,0.00925518,-0.0027089,0.00965049,-0.00930812,-1.42589,0.0109464,0.018909,1973,988,73.9744,-7.26362
756,36,73.9204,7.54413,-0.0101443,0.0128503,-0.00374655,0.0134453,-0.0107394,-1.41329,0.0139922,0.0186805,1980,988,73.9205,-7.54411
763,36,73.8103,7.73822,-0.0110566,0.0172759,-0.00502903,0.0181421,-0.0119228,-1.40024,0.0174813,0.0211759,1987,988,73.8104,-7.73821
770,36,73.729,8.03711,-0.010482,0.0217818,-0.00675387,0.0231385,-0.0118388,-1.37255,0.0205424,0.0179271,1994,988,73.7291,-8.0371
777,36,73.6855,8.42279,-0.00829077,0.0254523,-0.00879801,0.0276084,-0.0104469,-1.33046,0.0227038,0.0273202,2001,988,73.6854,-8.42279
784,36,73.6067,8.77185,0,0,0,0,0,0,0,-1,2008,988,73.6066,-8.77188
791,36,73.4875,9.12225,0,0,0,0,0,0,0,-1,2015,988,73.4875,-9.12225
798,36,75.0598,10.2466,0,0,0,0,0,0,0,-1,2022,988,75.0599,-10.2466
805,36,75.3137,10.7913,0,0,0,0,0,0,0,-1,2029,988,75.3138,-10.7913
812,36,71.4768,9.2749,0,0,0,0,0,0,0,-1,2036,988,71.4769,-9.27489
-700,29,0,0,0,0,0,0,0,0,0,-1,524,995,0,0
-693,29,-72.0915,-5.29596,0,0,0,0,0,0,0,-1,531,995,-72.0915,5.29595
-686,29,-71.477,-2.59906,0,0,0,0,0,0,0,-1,538,995,-71.477,2.59905
-679,29,-70.9157,-0.0524292,0,0,0,0,0,0,0,-1,545,995,-70.9157,0.0524263
-672,29,-59.3404,4.76837,0,0,0,0,0,0,0,-1,552,995,-59.3404,-4.76836
-665,29,-59.0006,5.09985,0,0,0,0,0,0,0,-1,559,995,-59.0006,-5.09983
-658,29,-55.8938,-2.22638,0,0,0,0,0,0,0,-1,566,995,-55.8938,2.22638
-651,29,-57.9611,6.43536,0,0,0,0,0,0,0,-1,573,995,-57.9611,-6.43534
-644,29,-58.1986,6.13727,0.0775707,0.0473245,0.0350754,0.100644,0.0242509,0.58186,0.0606508,0.0486393,580,995,-58.1986,-6.13725
-637,29,-58.4733,6.26208,0.0423187,0.037031,0.0243091,0.0641273,0.0152224,0.731231,0.0386888,0.0285399,587,995,-58.4733,-6.26206
-630,29,-58.5167,6.18951,0.00250445,0.0271332,0.013725,0.0332584,-0.00362078,1.15104,0.0234725,0.0151814,594,995,-58.5167,-6.18949
-623,29,-58.5203,6.06976,-0.00982349,0.0155796,0.0072164,0.0174864,-0.0117304,1.31246,0.0169771,0.0133794,601,995,-58.5203,-6.06974
-616,29,-58.5581,5.85681,-0.00778897,0.00625456,0.00402096,0.00732435,-0.00885876,1.31077,0.00935731,0.0163326,608,995,-58.5581,-5.85681
-609,29,-58.5082,5.70959,-0.00601152,-0.00232112,0.00230163,-0.00121636,-0.00711628,1.12328,0.0043952,0.0275272,615,995,-58.5083,-5.70957
-602,29,-58.68,5.4621,-0.00472719,-0.0107242,0.00103491,-0.00455362,-0.0108978,0.166171,0.00632007,0.0284831,622,995,-58.68,-5.4621
-595,29,-58.9785,5.15088,-0.00410568,-0.0178684,0.000919818,-0.00404447,-0.0179296,0.0664403,0.0108589,0.0289704,629,995,-58.9785,-5.15087
-588,29,-59.2546,4.83331,0,0,0,0,0,0,0,-1,636,995,-59.2546,-4.83334
-581,29,-57.4495,0.427124,0,0,0,0,0,0,0,-1,643,995,-57.4496,-0.42715
-574,29,-57.4701,0.281128,0,0,0,0,0,0,0,-1,650,995,-57.4701,-0.281127
-567,29,-57.5148,-0.0299072,0,0,0,0,0,0,0,-1,657,995,-57.5148,0.0299049
-560,29,-57.5961,0.131104,0,0,0,0,0,0,0,-1,664,995,-57.5961,-0.131114
-553,29,-57.6605,0.245972,0,0,0,0,0,0,0,-1,671,995,-57.6605,-0.245976
-546,29,-57.5536,0.235718,0,0,0,0,0,0,0,-1,678,995,-57.5536,-0.23573
-539,29,-57.6644,0.0180664,0,0,0,0,0,0,0,-1,685,995,-57.6644,-0.018047
-532,29,-57.4152,0.392578,0,0,0,0,0,0,0,-1,692,995,-57.4152,-0.392592
-525,29,-57.4017,0.287842,0,0,0,0,0,0,0,-1,699,995,-57.4018,-0.287829
-518,29,0,0,0,0,0,0,0,0,0,-1,706,995,0,0
-511,29,0,0,0,0,0,0,0,0,0,-1,713,995,0,0
-504,29,0,0,0,0,0,0,0,0,0,-1,720,995,0,0
-497,29,0,0,0,0,0,0,0,0,0,-1,727,995,0,0
-490,29,0,0,0,0,0,0,0,0,0,-1,734,995,0,0
-483,29,0,0,0,0,0,0,0,0,0,-1,741,995,0,0
-476,29,0,0,0,0,0,0,0,0,0,-1,748,995,0,0
-469,29,0,0,0,0,0,0,0,0,0,-1,755,995,0,0
-462,29,0,0,0,0,0,0,0,0,0,-1,762,995,0,0
-455,29,0,0,0,0,0,0,0,0,0,-1,769,995,0,0
-448,29,0,0,0,0,0,0,0,0,0,-1,776,995,0,0
-441,29,0,0,0,0,0,0,0,0,0,-1,783,995,0,0
-434,29,0,0,0,0,0,0,0,0,0,-1,790,995,0,0
-427,29,0,0,0,0,0,0,0,0,0,-1,797,995,0,0
-420,29,0,0,0,0,0,0,0,0,0,-1,804,995,0,0
-413,29,0,0,0,0,0,0,0,0,0,-1,811,995,0,0
-406,29,0,0,0,0,0,0,0,0,0,-1,818,995,0,0
-399,29,0,0,0,0,0,0,0,0,0,-1,825,995,0,0
-392,29,0,0,0,0,0,0,0,0,0,-1,832,995,0,0
-385,29,0,0,0,0,0,0,0,0,0,-1,839,995,0,0
-378,29,0,0,0,0,0,0,0,0,0,-1,846,995,0,0
-371,29,0,0,0,0,0,0,0,0,0,-1,853,995,0,0
-364,29,0,0,0,0,0,0,0,0,0,-1,860,995,0,0
-357,29,0,0,0,0,0,0,0,0,0,-1,867,995,0,0
-350,29,0,0,0,0,0,0,0,0,0,-1,874,995,0,0
-343,29,0,0,0,0,0,0,0,0,0,-1,881,995,0,0
-336,29,0,0,0,0,0,0,0,0,0,-1,888,995,0,0
-329,29,0,0,0,0,0,0,0,0,0,-1,895,995,0,0
-322,29,0,0,0,0,0,0,0,0,0,-1,902,995,0,0
-315,29,0,0,0,0,0,0,0,0,0,-1,909,995,0,0
-308,29,0,0,0,0,0,0,0,0,0,-1,916,995,0,0
-301,29,0,0,0,0,0,0,0,0,0,-1,923,995,0,0
-294,29,0,0,0,0,0,0,0,0,0,-1,930,995,0,0
-287,29,0,0,0,0,0,0,0,0,0,-1,937,995,0,0
-280,29,0,0,0,0,0,0,0,0,0,-1,944,995,0,0
-273,29,0,0,0,0,0,0,0,0,0,-1,951,995,0,0
-266,29,0,0,0,0,0,0,0,0,0,-1,958,995,0,0
-259,29,0,0,0,0,0,0,0,0,0,-1,965,995,0,0
-252,29,0,0,0,0,0,0,0,0,0,-1,972,995,0,0
-245,29,0,0,0,0,0,0,0,0,0,-1,979,995,0,0
-238,29,0,0,0,0,0,0,0,0,0,-1,986,995,0,0
-231,29,0,0,0,0,0,0,0,0,0,-1,993,995,0,0
-224,29,0,0,0,0,0,0,0,0,0,-1,1000,995,0,0
-217,29,0,0,0,0,0,0,0,0,0,-1,1007,995,0,0
-210,29,0,0,0,0,0,0,0,0,0,-1,1014,995,0,0
-203,29,0,0,0,0,0,0,0,0,0,-1,1021,995,0,0
-196,29,0,0,0,0,0,0,0,0,0,-1,1028,995,0,0
-189,29,0,0,0,0,0,0,0,0,0,-1,1035,995,0,0
-182,29,0,0,0,0,0,0,0,0,0,-1,1042,995,0,0
-175,29,0,0,0,0,0,0,0,0,0,-1,1049,995,0,0
-168,29,0,0,0,0,0,0,0,0,0,-1,1056,995,0,0
-161,29,0,0,0,0,0,0,0,0,0,-1,1063,995,0,0
-154,29,0,0,0,0,0,0,0,0,0,-1,1070,995,0,0
-147,29,0,0,0,0,0,0,0,0,0,-1,1077,995,0,0
-140,29,0,0,0,0,0,0,0,0,0,-1,1084,995,0,0
-133,29,0,0,0,0,0,0,0,0,0,-1,1091,995,0,0
-126,29,0,0,0,0,0,0,0,0,0,-1,1098,995,0,0
-119,29,0,0,0,0,0,0,0,0,0,-1,1105,995,0,0
-112,29,0,0,0,0,0,0,0,0,0,-1,1112,995,0,0
-105,29,0,0,0,0,0,0,0,0,0,-1,1119,995,0,0
-98,29,0,0,0,0,0,0,0,0,0,-1,1126,995,0,0
-91,29,0,0,0,0,0,0,0,0,0,-1,1133,995,0,0
-84,29,0,0,0,0,0,0,0,0,0,-1,1140,995,0,0
-77,29,0,0,0,0,0,0,0,0,0,-1,1147,995,0,0
-70,29,0,0,0,0,0,0,0,0,0,-1,1154,995,0,0
-63,29,0,0,0,0,0,0,0,0,0,-1,1161,995,0,0
-56,29,0,0,0,0,0,0,0,0,0,-1,1168,995,0,0
-49,29,0,0,0,0,0,0,0,0,0,-1,1175,995,0,0
-42,29,0,0,0,0,0,0,0,0,0,-1,1182,995,0,0
-35,29,0,0,0,0,0,0,0,0,0,-1,1189,995,0,0
-28,29,0,0,0,0,0,0,0,0,0,-1,1196,995,0,0
-21,29,0,0,0,0,0,0,0,0,0,-1,1203,995,0,0
-14,29,0,0,0,0,0,0,0,0,0,-1,1210,995,0,0
-7,29,0,0,0,0,0,0,0,0,0,-1,1217,995,0,0
0,29,0,0,0,0,0,0,0,0,0,-1,1224,995,0,0
7,29,0,0,0,0,0,0,0,0,0,-1,1231,995,0,0
14,29,0,0,0,0,0,0,0,0,0,-1,1238,995,0,0
21,29,0,0,0,0,0,0,0,0,0,-1,1245,995,0,0
28,29,0,0,0,0,0,0,0,0,0,-1,1252,995,0,0
35,29,0,0,0,0,0,0,0,0,0,-1,1259,995,0,0
42,29,0,0,0,0,0,0,0,0,0,-1,1266,995,0,0
49,29,0,0,0,0,0,0,0,0,0,-1,1273,995,0,0
56,29,0,0,0,0,0,0,0,0,0,-1,1280,995,0,0
63,29,0,0,0,0,0,0,0,0,0,-1,1287,995,0,0
70,29,0,0,0,0,0,0,0,0,0,-1,1294,995,0,0
77,29,0,0,0,0,0,0,0,0,0,-1,1301,995,0,0
84,29,0,0,0,0,0,0,0,0,0,-1,1308,995,0,0
91,29,0,0,0,0,0,0,0,0,0,-1,1315,995,0,0
98,29,0,0,0,0,0,0,0,0,0,-1,1322,995,0,0
105,29,0,0,0,0,0,0,0,0,0,-1,1329,995,0,0
112,29,0,0,0,0,0,0,0,0,0,-1,1336,995,0,0
119,29,0,0,0,0,0,0,0,0,0,-1,1343,995,0,0
126,29,0,0,0,0,0,0,0,0,0,-1,1350,995,0,0
133,29,0,0,0,0,0,0,0,0,0,-1,1357,995,0,0
140,29,0,0,0,0,0,0,0,0,0,-1,1364,995,0,0
147,29,0,0,0,0,0,0,0,0,0,-1,1371,995,0,0
154,29,0,0,0,0,0,0,0,0,0,-1,1378,995,0,0
161,29,0,0,0,0,0,0,0,0,0,-1,1385,995,0,0
168,29,0,0,0,0,0,0,0,0,0,-1,1392,995,0,0
175,29,0,0,0,0,0,0,0,0,0,-1,1399,995,0,0
182,29,0,0,0,0,0,0,0,0,0,-1,1406,995,0,0
189,29,0,0,0,0,0,0,0,0,0,-1,1413,995,0,0
196,29,0,0,0,0,0,0,0,0,0,-1,1420,995,0,0
203,29,0,0,0,0,0,0,0,0,0,-1,1427,995,0,0
210,29,0,0,0,0,0,0,0,0,0,-1,1434,995,0,0
217,29,0,0,0,0,0,0,0,0,0,-1,1441,995,0,0
224,29,0,0,0,0,0,0,0,0,0,-1,1448,995,0,0
231,29,0,0,0,0,0,0,0,0,0,-1,1455,995,0,0
238,29,0,0,0,0,0,0,0,0,0,-1,1462,995,0,0
245,29,0,0,0,0,0,0,0,0,0,-1,1469,995,0,0
252,29,0,0,0,0,0,0,0,0,0,-1,1476,995,0,0
259,29,0,0,0,0,0,0,0,0,0,-1,1483,995,0,0
266,29,0,0,0,0,0,0,0,0,0,-1,1490,995,0,0
273,29,0,0,0,0,0,0,0,0,0,-1,1497,995,0,0
280,29,0,0,0,0,0,0,0,0,0,-1,1504,995,0,0
287,29,0,0,0,0,0,0,0,0,0,-1,1511,995,0,0
294,29,0,0,0,0,0,0,0,0,0,-1,1518,995,0,0
301,29,0,0,0,0,0,0,0,0,0,-1,1525,995,0,0
308,29,0,0,0,0,0,0,0,0,0,-1,1532,995,0,0
315,29,0,0,0,0,0,0,0,0,0,-1,1539,995,0,0
322,29,0,0,0,0,0,0,0,0,0,-1,1546,995,0,0
329,29,0,0,0,0,0,0,0,0,0,-1,1553,995,0,0
336,29,0,0,0,0,0,0,0,0,0,-1,1560,995,0,0
343,29,0,0,0,0,0,0,0,0,0,-1,1567,995,0,0
350,29,0,0,0,0,0,0,0,0,0,-1,1574,995,0,0
357,29,0,0,0,0,0,0,0,0,0,-1,1581,995,0,0
364,29,0,0,0,0,0,0,0,0,0,-1,1588,995,0,0
371,29,0,0,0,0,0,0,0,0,0,-1,1595,995,0,0
378,29,0,0,0,0,0,0,0,0,0,-1,1602,995,0,0
385,29,0,0,0,0,0,0,0,0,0,-1,1609,995,0,0
392,29,0,0,0,0,0,0,0,0,0,-1,1616,995,0,0
399,29,0,0,0,0,0,0,0,0,0,-1,1623,995,0,0
406,29,0,0,0,0,0,0,0,0,0,-1,1630,995,0,0
413,29,0,0,0,0,0,0,0,0,0,-1,1637,995,0,0
420,29,0,0,0,0,0,0,0,0,0,-1,1644,995,0,0
427,29,0,0,0,0,0,0,0,0,0,-1,1651,995,0,0
434,29,0,0,0,0,0,0,0,0,0,-1,1658,995,0,0
441,29,0,0,0,0,0,0,0,0,0,-1,1665,995,0,0
448,29,0,0,0,0,0,0,0,0,0,-1,1672,995,0,0
455,29,0,0,0,0,0,0,0,0,0,-1,1679,995,0,0
462,29,0,0,0,0,0,0,0,0,0,-1,1686,995,0,0
469,29,0,0,0,0,0,0,0,0,0,-1,1693,995,0,0
476,29,0,0,0,0,0,0,0,0,0,-1,1700,995,0,0
483,29,0,0,0,0,0,0,0,0,0,-1,1707,995,0,0
490,29,0,0,0,0,0,0,0,0,0,-1,1714,995,0,0
497,29,0,0,0,0,0,0,0,0,0,-1,1721,995,0,0
504,29,0,0,0,0,0,0,0,0,0,-1,1728,995,0,0
511,29,0,0,0,0,0,0,0,0,0,-1,1735,995,0,0
518,29,0,0,0,0,0,0,0,0,0,-1,1742,995,0,0
525,29,0,0,0,0,0,0,0,0,0,-1,1749,995,0,0
532,29,0,0,0,0,0,0,0,0,0,-1,1756,995,0,0
539,29,0,0,0,0,0,0,0,0,0,-1,1763,995,0,0
546,29,0,0,0,0,0,0,0,0,0,-1,1770,995,0,0
553,29,0,0,0,0,0,0,0,0,0,-1,1777,995,0,0
560,29,0,0,0,0,0,0,0,0,0,-1,1784,995,0,0
567,29,0,0,0,0,0,0,0,0,0,-1,1791,995,0,0
574,29,0,0,0,0,0,0,0,0,0,-1,1798,995,0,0
581,29,0,0,0,0,0,0,0,0,0,-1,1805,995,0,0
588,29,0,0,0,0,0,0,0,0,0,-1,1812,995,0,0
595,29,0,0,0,0,0,0,0,0,0,-1,1819,995,0,0
602,29,0,0,0,0,0,0,0,0,0,-1,1826,995,0,0
609,29,0,0,0,0,0,0,0,0,0,-1,1833,995,0,0
616,29,0,0,0,0,0,0,0,0,0,-1,1840,995,0,0
623,29,0,0,0,0,0,0,0,0,0,-1,1847,995,0,0
630,29,0,0,0,0,0,0,0,0,0,-1,1854,995,0,0
637,29,0,0,0,0,0,0,0,0,0,-1,1861,995,0,0
644,29,74.4797,2.255,0.0033609,0.00436374,-0.00115837,0.00512456,0.00260008,-0.989654,0.00295877,0.0429357,1868,995,74.4797,-2.25498
651,29,74.4803,2.37653,0.00256025,0.00355823,-0.000382502,0.00368796,0.00243051,-1.24379,0.00216485,0.0398197,1875,995,74.4803,-2.37651
658,29,74.6274,2.23602,0.00175588,0.00280439,0.000137173,0.00282204,0.00173823,1.44284,0.00164384,0.0423223,1882,995,74.6274,-2.23602
665,29,74.6958,2.47485,0.0011456,0.0022205,0.000402213,0.00235434,0.00101176,1.24957,0.00136374,0.0395637,1889,995,74.6957,-2.47483
672,29,74.4603,2.58569,0.000567547,0.00171155,0.000537291,0.00192432,0.000354776,1.19374,0.00118249,0.0372659,1896,995,74.4603,-2.58568
679,29,74.4584,2.3739,0.00012332,0.00105057,0.000654284,0.00138884,-0.000214951,1.09363,0.00100523,0.0384447,1903,995,74.4584,-2.3739
686,29,74.483,2.34888,-0.000128527,0.000243431,0.00066664,0.000749548,-0.000634644,0.921429,0.000800081,0.037708,1910,995,74.483,-2.34889
693,29,74.4475,2.43671,-0.000337987,-0.000482269,0.000607682,0.000201821,-0.00102208,0.726317,0.000757672,0.0388192,1917,995,74.4475,-2.43668
700,29,74.4486,2.32996,-0.000614494,-0.000870964,0.000537928,-0.000189728,-0.00129573,0.668389,0.000808037,0.0350443,1924,995,74.4487,-2.32993
707,29,74.4469,2.28284,-0.00133471,-0.000618781,0.000310436,-0.000502922,-0.00145057,1.21359,0.000850506,0.0260516,1931,995,74.4469,-2.28284
714,29,74.4583,2.22144,0,0,0,0,0,0,0,-1,1938,995,74.4582,-2.22146
721,29,73.9785,6.15881,0,0,0,0,0,0,0,-1,1945,995,73.9785,-6.15879
728,29,74.2649,6.47546,-0.00495998,0.00313723,-0.000895866,0.00323516,-0.00505791,-1.46191,0.00482641,0.0417781,1952,995,74.2649,-6.47547
735,29,74.2903,6.76025,-0.00642828,0.0048035,-0.000997109,0.00489134,-0.00651611,-1.48294,0.00660832,0.0178513,1959,995,74.2902,-6.76028
742,29,74.2518,6.96252,-0.00768368,0.00674618,-0.00153598,0.00690786,-0.00784536,-1.46592,0.00852351,0.0156176,1966,995,74.2519,-6.96254
749,29,74.2244,7.23212,-0.00896227,0.0094699,-0.00247529,0.00979652,-0.00928889,-1.4396,0.0110203,0.0168784,1973,995,74.2244,-7.23211
756,29,74.1873,7.47052,-0.0102262,0.0130193,-0.00347236,0.0135269,-0.0107338,-1.42564,0.0140379,0.0160459,1980,995,74.1873,-7.47054
763,29,74.1255,7.61395,-0.0111472,0.0174784,-0.00476269,0.01825,-0.0119188,-1.41018,0.0175454,0.013401,1987,995,74.1254,-7.61395
770,29,74.01,7.75842,-0.0104929,0.0222675,-0.00658369,0.0235411,-0.0117665,-1.37971,0.0207592,0.0191226,1994,995,74.0099,-7.75843
777,29,73.8335,8.06696,-0.00804866,0.0263362,-0.00881378,0.0284638,-0.0101762,-1.33394,0.0231267,0.0333788,2001,995,73.8335,-8.06698
784,29,73.7505,8.55255,0,0,0,0,0,0,0,-1,2008,995,73.7505,-8.55254
791,29,72.6665,7.6507,0,0,0,0,0,0,0,-1,2015,995,72.6666,-7.65069
798,29,72.9392,9.93542,0,0,0,0,0,0,0,-1,2022,995,72.9393,-9.9354
805,29,71.6021,9.65118,0,0,0,0,0,0,0,-1,2029,995,71.6021,-9.65116
812,29,71.2014,6.55267,0,0,0,0,0,0,0,-1,2036,995,71.2014,-6.55267
-700,22,0,0,0,0,0,0,0,0,0,-1,524,1002,0,0
-693,22,-70.8194,-4.94739,0,0,0,0,0,0,0,-1,531,1002,-70.8194,4.94738
-686,22,-70.3534,-2.4563,0,0,0,0,0,0,0,-1,538,1002,-70.3534,2.45631
-679,22,-59.8091,4.41956,0,0,0,0,0,0,0,-1,545,1002,-59.8092,-4.41953
-672,22,-59.425,4.79077,0.380694,0.085768,0.10314,0.413185,0.0532776,0.305172,0.259527,0.0489017,552,1002,-59.4249,-4.79074
-665,22,-59.0871,5.10864,0,0,0,0,0,0,0,-1,559,1002,-59.0871,-5.10862
-658,22,-58.7256,5.39417,0,0,0,0,0,0,0,-1,566,1002,-58.7256,-5.39416
-651,22,-57.5017,5.5863,0,0,0,0,0,0,0,-1,573,1002,-57.5017,-5.58628
-644,22,-58.267,5.82953,0.0839308,0.0446951,0.035385,0.104772,0.0238535,0.532286,0.0634106,0.0453358,580,1002,-58.267,-5.82956
-637,22,-58.7343,6.01849,0.0471711,0.0352861,0.0244364,0.0663772,0.0160801,0.666122,0.0399842,0.0291817,587,1002,-58.7343,-6.01849
-630,22,-58.7134,6.02643,0.00411058,0.0259143,0.0132511,0.0321718,-0.00214687,1.12962,0.0221981,0.0156266,594,1002,-58.7134,-6.02644
-623,22,-58.7383,5.94037,-0.009541,0.0145815,0.00623116,0.016096,-0.0110555,1.33237,0.0157657,0.0132384,601,1002,-58.7383,-5.94036
-616,22,-58.7363,5.73615,-0.00762196,0.00557056,0.00300368,0.00622225,-0.00827364,1.35714,0.00839709,0.021641,608,1002,-58.7363,-5.73614
-609,22,-58.83,5.67358,-0.00600909,-0.00291813,0.00135129,-0.00241069,-0.00651653,1.21157,0.00380452,0.0363666,615,1002,-58.83,-5.67359
-602,22,-59.062,5.5647,-0.00492475,-0.0113408,0.000125855,-0.00492228,-0.0113433,0.0196056,0.00656807,0.0343402,622,1002,-59.062,-5.56472
-595,22,-59.3019,5.21423,-0.00431068,-0.0185485,-0.000153432,-0.00430903,-0.0185501,-0.0107747,0.0112099,0.0391555,629,1002,-59.3019,-5.2142
-588,22,-59.3574,4.75653,0,0,0,0,0,0,0,-1,636,1002,-59.3574,-4.75653
-581,22,-57.4539,0.291687,0,0,0,0,0,0,0,-1,643,1002,-57.4539,-0.291678
-574,22,-57.4775,0.338135,0,0,0,0,0,0,0,-1,650,1002,-57.4775,-0.338135
-567,22,-57.4208,0.0175171,0,0,0,0,0,0,0,-1,657,1002,-57.4208,-0.0174967
-560,22,-57.5037,0.202942,0,0,0,0,0,0,0,-1,664,1002,-57.5037,-0.20293
-553,22,-57.5783,0.400391,0,0,0,0,0,0,0,-1,671,1002,-57.5783,-0.400399
-546,22,-57.5285,0.259888,0,0,0,0,0,0,0,-1,678,1002,-57.5285,-0.259895
-539,22,-57.6664,0.151917,0,0,0,0,0,0,0,-1,685,1002,-57.6664,-0.151946
-532,22,-57.6392,0.254395,0,0,0,0,0,0,0,-1,692,1002,-57.6392,-0.254376
-525,22,0,0,0,0,0,0,0,0,0,-1,699,1002,0,0
-518,22,0,0,0,0,0,0,0,0,0,-1,706,1002,0,0
-511,22,0,0,0,0,0,0,0,0,0,-1,713,1002,0,0
-504,22,0,0,0,0,0,0,0,0,0,-1,720,1002,0,0
-497,22,0,0,0,0,0,0,0,0,0,-1,727,1002,0,0
-490,22,0,0,0,0,0,0,0,0,0,-1,734,1002,0,0
-483,22,0,0,0,0,0,0,0,0,0,-1,741,1002,0,0
-476,22,0,0,0,0,0,0,0,0,0,-1,748,1002,0,0
-469,22,0,0,0,0,0,0,0,0,0,-1,755,1002,0,0
-462,22,0,0,0,0,0,0,0,0,0,-1,762,1002,0,0
-455,22,0,0,0,0,0,0,0,0,0,-1,769,1002,0,0
-448,22,0,0,0,0,0,0,0,0,0,-1,776,1002,0,0
-441,22,0,0,0,0,0,0,0,0,0,-1,783,1002,0,0
-434,22,0,0,0,0,0,0,0,0,0,-1,790,1002,0,0
-427,22,0,0,0,0,0,0,0,0,0,-1,797,1002,0,0
-420,22,0,0,0,0,0,0,0,0,0,-1,804,1002,0,0
-413,22,0,0,0,0,0,0,0,0,0,-1,811,1002,0,0
-406,22,0,0,0,0,0,0,0,0,0,-1,818,1002,0,0
-399,22,0,0,0,0,0,0,0,0,0,-1,825,1002,0,0
-392,22,0,0,0,0,0,0,0,0,0,-1,832,1002,0,0
-385,22,0,0,0,0,0,0,0,0,0,-1,839,1002,0,0
-378,22,0,0,0,0,0,0,0,0,0,-1,846,1002,0,0
-371,22,0,0,0,0,0,0,0,0,0,-1,853,1002,0,0
-364,22,0,0,0,0,0,0,0,0,0,-1,860,1002,0,0
-357,22,0,0,0,0,0,0,0,0,0,-1,867,1002,0,0
-350,22,0,0,0,0,0,0,0,0,0,-1,874,1002,0,0
-343,22,0,0,0,0,0,0,0,0,0,-1,881,1002,0,0
-336,22,0,0,0,0,0,0,0,0,0,-1,888,1002,0,0
-329,22,0,0,0,0,0,0,0,0,0,-1,895,1002,0,0
-322,22,0,0,0,0,0,0,0,0,0,-1,902,1002,0,0
-315,22,0,0,0,0,0,0,0,0,0,-1,909,1002,0,0
-308,22,0,0,0,0,0,0,0,0,0,-1,916,1002,0,0
-301,22,0,0,0,0,0,0,0,0,0,-1,923,1002,0,0
-294,22,0,0,0,0,0,0,0,0,0,-1,930,1002,0,0
-287,22,0,0,0,0,0,0,0,0,0,-1,937,1002,0,0
-280,22,0,0,0,0,0,0,0,0,0,-1,944,1002,0,0
-273,22,0,0,0,0,0,0,0,0,0,-1,951,1002,0,0
-266,22,0,0,0,0,0,0,0,0,0,-1,958,1002,0,0
-259,22,0,0,0,0,0,0,0,0,0,-1,965,1002,0,0
-252,22,0,0,0,0,0,0,0,0,0,-1,972,1002,0,0
-245,22,0,0,0,0,0,0,0,0,0,-1,979,1002,0,0
-238,22,0,0,0,0,0,0,0,0,0,-1,986,1002,0,0
-231,22,0,0,0,0,0,0,0,0,0,-1,993,1002,0,0
-224,22,0,0,0,0,0,0,0,0,0,-1,1000,1002,0,0
-217,22,0,0,0,0,0,0,0,0,0,-1,1007,1002,0,0
-210,22,0,0,0,0,0,0,0,0,0,-1,1014,1002,0,0
-203,22,0,0,0,0,0,0,0,0,0,-1,1021,1002,0,0
-196,22,0,0,0,0,0,0,0,0,0,-1,1028,1002,0,0
-189,22,0,0,0,0,0,0,0,0,0,-1,1035,1002,0,0
-182,22,0,0,0,0,0,0,0,0,0,-1,1042,1002,0,0
-175,22,0,0,0,0,0,0,0,0,0,-1,1049,1002,0,0
-168,22,0,0,0,0,0,0,0,0,0,-1,1056,1002,0,0
-161,22,0,0,0,0,0,0,0,0,0,-1,1063,1002,0,0
-154,22,0,0,0,0,0,0,0,0,0,-1,1070,1002,0,0
-147,22,0,0,0,0,0,0,0,0,0,-1,1077,1002,0,0
-140,22,0,0,0,0,0,0,0,0,0,-1,1084,1002,0,0
-133,22,0,0,0,0,0,0,0,0,0,-1,1091,1002,0,0
-126,22,0,0,0,0,0,0,0,0,0,-1,1098,1002,0,0
-119,22,0,0,0,0,0,0,0,0,0,-1,1105,1002,0,0
-112,22,0,0,0,0,0,0,0,0,0,-1,1112,1002,0,0
-105,22,0,0,0,0,0,0,0,0,0,-1,1119,1002,0,0
-98,22,0,0,0,0,0,0,0,0,0,-1,1126,1002,0,0
-91,22,0,0,0,0,0,0,0,0,0,-1,1133,1002,0,0
-84,22,0,0,0,0,0,0,0,0,0,-1,1140,1002,0,0
-77,22,0,0,0,0,0,0,0,0,0,-1,1147,1002,0,0
-70,22,0,0,0,0,0,0,0,0,0,-1,1154,1002,0,0
-63,22,0,0,0,0,0,0,0,0,0,-1,1161,1002,0,0
-56,22,0,0,0,0,0,0,0,0,0,-1,1168,1002,0,0
-49,22,0,0,0,0,0,0,0,0,0,-1,1175,1002,0,0
-42,22,0,0,0,0,0,0,0,0,0,-1,1182,1002,0,0
-35,22,0,0,0,0,0,0,0,0,0,-1,1189,1002,0,0
-28,22,0,0,0,0,0,0,0,0,0,-1,1196,1002,0,0
-21,22,0,0,0,0,0,0,0,0,0,-1,1203,1002,0,0
-14,22,0,0,0,0,0,0,0,0,0,-1,1210,1002,0,0
-7,22,0,0,0,0,0,0,0,0,0,-1,1217,1002,0,0
0,22,0,0,0,0,0,0,0,0,0,-1,1224,1002,0,0
7,22,0,0,0,0,0,0,0,0,0,-1,1231,1002,0,0
14,22,0,0,0,0,0,0,0,0,0,-1,1238,1002,0,0
21,22,0,0,0,0,0,0,0,0,0,-1,1245,1002,0,0
28,22,0,0,0,0,0,0,0,0,0,-1,1252,1002,0,0
35,22,0,0,0,0,0,0,0,0,0,-1,1259,1002,0,0
42,22,0,0,0,0,0,0,0,0,0,-1,1266,1002,0,0
49,22,0,0,0,0,0,0,0,0,0,-1,1273,1002,0,0
56,22,0,0,0,0,0,0,0,0,0,-1,1280,1002,0,0
63,22,0,0,0,0,0,0,0,0,0,-1,1287,1002,0,0
70,22,0,0,0,0,0,0,0,0,0,-1,1294,1002,0,0
77,22,0,0,0,0,0,0,0,0,0,-1,1301,1002,0,0
84,22,0,0,0,0,0,0,0,0,0,-1,1308,1002,0,0
91,22,0,0,0,0,0,0,0,0,0,-1,1315,1002,0,0
98,22,0,0,0,0,0,0,0,0,0,-1,1322,1002,0,0
105,22,0,0,0,0,0,0,0,0,0,-1,1329,1002,0,0
112,22,0,0,0,0,0,0,0,0,0,-1,1336,1002,0,0
119,22,0,0,0,0,0,0,0,0,0,-1,1343,1002,0,0
126,22,0,0,0,0,0,0,0,0,0,-1,1350,1002,0,0
133,22,0,0,0,0,0,0,0,0,0,-1,1357,1002,0,0
140,22,0,0,0,0,0,0,0,0,0,-1,1364,1002,0,0
147,22,0,0,0,0,0,0,0,0,0,-1,1371,1002,0,0
154,22,0,0,0,0,0,0,0,0,0,-1,1378,1002,0,0
161,22,0,0,0,0,0,0,0,0,0,-1,1385,1002,0,0
168,22,0,0,0,0,0,0,0,0,0,-1,1392,1002,0,0
175,22,0,0,0,0,0,0,0,0,0,-1,1399,1002,0,0
182,22,0,0,0,0,0,0,0,0,0,-1,1406,1002,0,0
189,22,0,0,0,0,0,0,0,0,0,-1,1413,1002,0,0
196,22,0,0,0,0,0,0,0,0,0,-1,1420,1002,0,0
203,22,0,0,0,0,0,0,0,0,0,-1,1427,1002,0,0
210,22,0,0,0,0,0,0,0,0,0,-1,1434,1002,0,0
217,22,0,0,0,0,0,0,0,0,0,-1,1441,1002,0,0
224,22,0,0,0,0,0,0,0,0,0,-1,1448,1002,0,0
231,22,0,0,0,0,0,0,0,0,0,-1,1455,1002,0,0
238,22,0,0,0,0,0,0,0,0,0,-1,1462,1002,0,0
245,22,0,0,0,0,0,0,0,0,0,-1,1469,1002,0,0
252,22,0,0,0,0,0,0,0,0,0,-1,1476,1002,0,0
259,22,0,0,0,0,0,0,0,0,0,-1,1483,1002,0,0
266,22,0,0,0,0,0,0,0,0,0,-1,1490,1002,0,0
273,22,0,0,0,0,0,0,0,0,0,-1,1497,1002,0,0
280,22,0,0,0,0,0,0,0,0,0,-1,1504,1002,0,0
287,22,0,0,0,0,0,0,0,0,0,-1,1511,1002,0,0
294,22,0,0,0,0,0,0,0,0,0,-1,1518,1002,0,0
301,22,0,0,0,0,0,0,0,0,0,-1,1525,1002,0,0
308,22,0,0,0,0,0,0,0,0,0,-1,1532,1002,0,0
315,22,0,0,0,0,0,0,0,0,0,-1,1539,1002,0,0
322,22,0,0,0,0,0,0,0,0,0,-1,1546,1002,0,0
329,22,0,0,0,0,0,0,0,0,0,-1,1553,1002,0,0
336,22,0,0,0,0,0,0,0,0,0,-1,1560,1002,0,0
343,22,0,0,0,0,0,0,0,0,0,-1,1567,1002,0,0
350,22,0,0,0,0,0,0,0,0,0,-1,1574,1002,0,0
357,22,0,0,0,0,0,0,0,0,0,-1,1581,1002,0,0
364,22,0,0,0,0,0,0,0,0,0,-1,1588,1002,0,0
371,22,0,0,0,0,0,0,0,0,0,-1,1595,1002,0,0
378,22,0,0,0,0,0,0,0,0,0,-1,1602,1002,0,0
385,22,0,0,0,0,0,0,0,0,0,-1,1609,1002,0,0
392,22,0,0,0,0,0,0,0,0,0,-1,1616,1002,0,0
399,22,0,0,0,0,0,0,0,0,0,-1,1623,1002,0,0
406,22,0,0,0,0,0,0,0,0,0,-1,1630,1002,0,0
413,22,0,0,0,0,0,0,0,0,0,-1,1637,1002,0,0
420,22,0,0,0,0,0,0,0,0,0,-1,1644,1002,0,0
427,22,0,0,0,0,0,0,0,0,0,-1,1651,1002,0,0
434,22,0,0,0,0,0,0,0,0,0,-1,1658,1002,0,0
441,22,0,0,0,0,0,0,0,0,0,-1,1665,1002,0,0
448,22,0,0,0,0,0,0,0,0,0,-1,1672,1002,0,0
455,22,0,0,0,0,0,0,0,0,0,-1,1679,1002,0,0
462,22,0,0,0,0,0,0,0,0,0,-1,1686,1002,0,0
469,22,0,0,0,0,0,0,0,0,0,-1,1693,1002,0,0
476,22,0,0,0,0,0,0,0,0,0,-1,1700,1002,0,0
483,22,0,0,0,0,0,0,0,0,0,-1,1707,1002,0,0
490,22,0,0,0,0,0,0,0,0,0,-1,1714,1002,0,0
497,22,0,0,0,0,0,0,0,0,0,-1,1721,1002,0,0
504,22,0,0,0,0,0,0,0,0,0,-1,1728,1002,0,0
511,22,0,0,0,0,0,0,0,0,0,-1,1735,1002,0,0
518,22,0,0,0,0,0,0,0,0,0,-1,1742,1002,0,0
525,22,0,0,0,0,0,0,0,0,0,-1,1749,1002,0,0
532,22,0,0,0,0,0,0,0,0,0,-1,1756,1002,0,0
539,22,0,0,0,0,0,0,0,0,0,-1,1763,1002,0,0
546,22,0,0,0,0,0,0,0,0,0,-1,1770,1002,0,0
553,22,0,0,0,0,0,0,0,0,0,-1,1777,1002,0,0
560,22,0,0,0,0,0,0,0,0,0,-1,1784,1002,0,0
567,22,0,0,0,0,0,0,0,0,0,-1,1791,1002,0,0
574,22,0,0,0,0,0,0,0,0,0,-1,1798,1002,0,0
581,22,0,0,0,0,0,0,0,0,0,-1,1805,1002,0,0
588,22,0,0,0,0,0,0,0,0,0,-1,1812,1002,0,0
595,22,0,0,0,0,0,0,0,0,0,-1,1819,1002,0,0
602,22,0,0,0,0,0,0,0,0,0,-1,1826,1002,0,0
609,22,0,0,0,0,0,0,0,0,0,-1,1833,1002,0,0
616,22,0,0,0,0,0,0,0,0,0,-1,1840,1002,0,0
623,22,0,0,0,0,0,0,0,0,0,-1,1847,1002,0,0
630,22,0,0,0,0,0,0,0,0,0,-1,1854,1002,0,0
637,22,0,0,0,0,0,0,0,0,0,-1,1861,1002,0,0
644,22,74.399,2.28082,0.00423925,0.00399436,-0.0011658,0.00528902,0.0029446,-0.733074,0.00306016,0.039954,1868,1002,74.3991,-2.28084
651,22,74.384,2.02875,0.0030515,0.00329212,-0.000298219,0.00349338,0.00285024,-0.977126,0.00214689,0.0392075,1875,1002,74.384,-2.02874
658,22,74.5256,1.95612,0.00197322,0.0026151,0.00025483,0.00270397,0.00188435,1.23526,0.00160097,0.0407261,1882,1002,74.5257,-1.95609
665,22,74.687,2.47418,0.00118812,0.00209646,0.000523023,0.00233498,0.000949598,1.14293,0.00135591,0.0380181,1889,1002,74.6871,-2.47416
672,22,74.4908,2.58112,0.000531294,0.00165722,0.00063407,0.00194218,0.000246334,1.14843,0.00122099,0.0385475,1896,1002,74.4909,-2.58109
679,22,74.4567,2.32294,5.38723e-05,0.00108315,0.00070908,0.00144466,-0.000307645,1.09931,0.00108036,0.0387217,1903,1002,74.4566,-2.32295
686,22,74.5553,2.15076,-0.000250894,0.000315839,0.000697659,0.000785483,-0.000720538,0.978304,0.000869771,0.0367281,1910,1002,74.5553,-2.15073
693,22,74.4803,2.27197,-0.000468841,-0.000405187,0.000633776,0.000197561,-0.00107159,0.810486,0.000788539,0.0377232,1917,1002,74.4803,-2.272
700,22,74.504,2.27722,-0.000688003,-0.000841752,0.00058291,-0.00017692,-0.00135283,0.719836,0.000849082,0.0346229,1924,1002,74.504,-2.27722
707,22,74.455,2.28302,-0.00141276,-0.000585408,0.000388104,-0.000431852,-0.00156632,1.19404,0.000934151,0.0348252,1931,1002,74.455,-2.28305
714,22,74.3256,2.34406,0,0,0,0,0,0,0,-1,1938,1002,74.3256,-2.34406
721,22,73.734,2.45129,0,0,0,0,0,0,0,-1,1945,1002,73.734,-2.45128
728,22,74.0688,6.73969,0,0,0,0,0,0,0,-1,1952,1002,74.0688,-6.73968
735,22,74.4895,6.88782,-0.00670127,0.00495025,-0.000793748,0.00500407,-0.00675509,-1.50309,0.0068142,0.0185504,1959,1002,74.4894,-6.8878
742,22,74.5033,7.00946,-0.00787318,0.00681881,-0.0012911,0.00693141,-0.00798577,-1.48381,0.00861961,0.0195438,1966,1002,74.5033,-7.00947
749,22,74.425,7.18988,-0.00894414,0.00960141,-0.00229957,0.00988229,-0.00922503,-1.44925,0.0110338,0.0148232,1973,1002,74.425,-7.18988
756,22,74.4041,7.36444,-0.010137,0.0131436,-0.0033148,0.0136063,-0.0105998,-1.43208,0.0140113,0.0202506,1980,1002,74.4041,-7.36441
763,22,74.3342,7.52631,-0.0109083,0.0176965,-0.00471778,0.0184546,-0.0116663,-1.41149,0.0175369,0.020521,1987,1002,74.3342,-7.5263
770,22,74.0955,7.64032,-0.00996109,0.0228974,-0.00682252,0.0242577,-0.0113214,-1.374,0.0209893,0.0217044,1994,1002,74.0955,-7.64035
777,22,73.6802,7.63727,-0.00700831,0.0275794,-0.00950401,0.0300189,-0.00944777,-1.31954,0.0237955,0.0453924,2001,1002,73.6803,-7.63726
784,22,73.3306,7.69281,0,0,0,0,0,0,0,-1,2008,1002,73.3305,-7.69281
791,22,72.6064,7.42291,0,0,0,0,0,0,0,-1,2015,1002,72.6064,-7.42293
798,22,69.7305,8.89307,0,0,0,0,0,0,0,-1,2022,1002,69.7306,-8.89308
805,22,71.0569,6.38745,0,0,0,0,0,0,0,-1,2029,1002,71.057,-6.38747
812,22,71.2473,5.70734,0,0,0,0,0,0,0,-1,2036,1002,71.2472,-5.70732
-700,15,0,0,0,0,0,0,0,0,0,-1,524,1009,0,0
-693,15,-70.0776,-4.84076,0,0,0,0,0,0,0,-1,531,1009,-70.0776,4.84076
-686,15,-69.4113,-2.55273,0.709978,0.0903589,0.157534,0.74773,0.0526069,0.235207,0.481909,0.0477779,538,1009,-69.4113,2.55274
-679,15,-59.8005,4.40851,0.537567,0.0839746,0.128807,0.571592,0.0499493,0.258257,0.365551,0.0494565,545,1009,-59.8005,-4.40851
-672,15,-59.5018,4.77869,0.405202,0.0758761,0.104327,0.43547,0.0456081,0.282373,0.276368,0.0496104,552,1009,-59.5018,-4.77866
-665,15,-59.3424,4.46161,0,0,0,0,0,0,0,-1,559,1009,-59.3424,-4.46161
-658,15,-59.0594,4.48022,0,0,0,0,0,0,0,-1,566,1009,-59.0594,-4.48023
-651,15,-51.4943,3.62128,0,0,0,0,0,0,0,-1,573,1009,-51.4943,-3.62128
-644,15,-58.5656,5.70007,0,0,0,0,0,0,0,-1,580,1009,-58.5656,-5.70006
-637,15,-58.7732,5.95819,0.0528575,0.0319059,0.0235983,0.0682007,0.0165626,0.576505,0.0410749,0.0328923,587,1009,-58.7732,-5.9582
-630,15,-58.8106,5.88995,0.00643936,0.0235255,0.0122571,0.029923,4.18741e-05,1.08975,0.0199347,0.0180907,594,1009,-58.8106,-5.88994
-623,15,-58.8577,5.81427,-0.00900817,0.013099,0.00495701,0.0141596,-0.0100688,1.36001,0.0140546,0.0116558,601,1009,-58.8577,-5.81429
-616,15,-58.8857,5.72754,-0.00718811,0.00492716,0.00198968,0.00524556,-0.00750651,1.41212,0.00740088,0.0189969,608,1009,-58.8857,-5.72752
-609,15,-59.0071,5.68768,-0.00578009,-0.00326097,0.000441165,-0.00318595,-0.00585511,1.40235,0.00338484,0.0263971,615,1009,-59.0072,-5.68767
-602,15,-59.1104,5.63464,-0.00491364,-0.0114915,-0.00065927,-0.00484822,-0.011557,-0.0989144,0.00670117,0.0257638,622,1009,-59.1104,-5.63464
-595,15,-59.5943,5.16461,0,0,0,0,0,0,0,-1,629,1009,-59.5943,-5.16461
-588,15,-57.4258,0.225403,0,0,0,0,0,0,0,-1,636,1009,-57.4258,-0.22539
-581,15,-57.4412,0.173096,0,0,0,0,0,0,0,-1,643,1009,-57.4412,-0.173096
-574,15,-57.4605,0.100464,0,0,0,0,0,0,0,-1,650,1009,-57.4605,-0.100483
-567,15,-57.479,-0.00933838,0,0,0,0,0,0,0,-1,657,1009,-57.479,0.00935806
-560,15,-57.4164,0.295044,0,0,0,0,0,0,0,-1,664,1009,-57.4165,-0.295044
-553,15,-57.4535,0.562561,0,0,0,0,0,0,0,-1,671,1009,-57.4535,-0.562574
-546,15,-57.4758,0.506042,0,0,0,0,0,0,0,-1,678,1009,-57.4758,-0.506024
-539,15,-57.5213,0.346863,0,0,0,0,0,0,0,-1,685,1009,-57.5213,-0.346848
-532,15,-57.633,0.404053,0,0,0,0,0,0,0,-1,692,1009,-57.633,-0.404045
-525,15,0,0,0,0,0,0,0,0,0,-1,699,1009,0,0
-518,15,0,0,0,0,0,0,0,0,0,-1,706,1009,0,0
-511,15,0,0,0,0,0,0,0,0,0,-1,713,1009,0,0
-504,15,0,0,0,0,0,0,0,0,0,-1,720,1009,0,0
-497,15,0,0,0,0,0,0,0,0,0,-1,727,1009,0,0
-490,15,0,0,0,0,0,0,0,0,0,-1,734,1009,0,0
-483,15,0,0,0,0,0,0,0,0,0,-1,741,1009,0,0
-476,15,0,0,0,0,0,0,0,0,0,-1,748,1009,0,0
-469,15,0,0,0,0,0,0,0,0,0,-1,755,1009,0,0
-462,15,0,0,0,0,0,0,0,0,0,-1,762,1009,0,0
-455,15,0,0,0,0,0,0,0,0,0,-1,769,1009,0,0
-448,15,0,0,0,0,0,0,0,0,0,-1,776,1009,0,0
-441,15,0,0,0,0,0,0,0,0,0,-1,783,1009,0,0
-434,15,0,0,0,0,0,0,0,0,0,-1,790,1009,0,0
-427,15,0,0,0,0,0,0,0,0,0,-1,797,1009,0,0
-420,15,0,0,0,0,0,0,0,0,0,-1,804,1009,0,0
-413,15,0,0,0,0,0,0,0,0,0,-1,811,1009,0,0
-406,15,0,0,0,0,0,0,0,0,0,-1,818,1009,0,0
-399,15,0,0,0,0,0,0,0,0,0,-1,825,1009,0,0
-392,15,0,0,0,0,0,0,0,0,0,-1,832,1009,0,0
-385,15,0,0,0,0,0,0,0,0,0,-1,839,1009,0,0
-378,15,0,0,0,0,0,0,0,0,0,-1,846,1009,0,0
-371,15,0,0,0,0,0,0,0,0,0,-1,853,1009,0,0
-364,15,0,0,0,0,0,0,0,0,0,-1,860,1009,0,0
-357,15,0,0,0,0,0,0,0,0,0,-1,867,1009,0,0
-350,15,0,0,0,0,0,0,0,0,0,-1,874,1009,0,0
-343,15,0,0,0,0,0,0,0,0,0,-1,881,1009,0,0
-336,15,0,0,0,0,0,0,0,0,0,-1,888,1009,0,0
-329,15,0,0,0,0,0,0,0,0,0,-1,895,1009,0,0
-322,15,0,0,0,0,0,0,0,0,0,-1,902,1009,0,0
-315,15,0,0,0,0,0,0,0,0,0,-1,909,1009,0,0
-308,15,0,0,0,0,0,0,0,0,0,-1,916,1009,0,0
-301,15,0,0,0,0,0,0,0,0,0,-1,923,1009,0,0
-294,15,0,0,0,0,0,0,0,0,0,-1,930,1009,0,0
-287,15,0,0,0,0,0,0,0,0,0,-1,937,1009,0,0
-280,15,0,0,0,0,0,0,0,0,0,-1,944,1009,0,0
-273,15,0,0,0,0,0,0,0,0,0,-1,951,1009,0,0
-266,15,0,0,0,0,0,0,0,0,0,-1,958,1009,0,0
-259,15,0,0,0,0,0,0,0,0,0,-1,965,1009,0,0
-252,15,0,0,0,0,0,0,0,0,0,-1,972,1009,0,0
-245,15,0,0,0,0,0,0,0,0,0,-1,979,1009,0,0
-238,15,0,0,0,0,0,0,0,0,0,-1,986,1009,0,0
-231,15,0,0,0,0,0,0,0,0,0,-1,993,1009,0,0
-224,15,0,0,0,0,0,0,0,0,0,-1,1000,1009,0,0
-217,15,0,0,0,0,0,0,0,0,0,-1,1007,1009,0,0
-210,15,0,0,0,0,0,0,0,0,0,-1,1014,1009,0,0
-203,15,0,0,0,0,0,0,0,0,0,-1,1021,1009,0,0
-196,15,0,0,0,0,0,0,0,0,0,-1,1028,1009,0,0
-189,15,0,0,0,0,0,0,0,0,0,-1,1035,1009,0,0
-182,15,0,0,0,0,0,0,0,0,0,-1,1042,1009,0,0
-175,15,0,0,0,0,0,0,0,0,0,-1,1049,1009,0,0
-168,15,0,0,0,0,0,0,0,0,0,-1,1056,1009,0,0
-161,15,0,0,0,0,0,0,0,0,0,-1,1063,1009,0,0
-154,15,0,0,0,0,0,0,0,0,0,-1,1070,1009,0,0
-147,15,0,0,0,0,0,0,0,0,0,-1,1077,1009,0,0
-140,15,0,0,0,0,0,0,0,0,0,-1,1084,1009,0,0
-133,15,0,0,0,0,0,0,0,0,0,-1,1091,1009,0,0
-126,15,0,0,0,0,0,0,0,0,0,-1,1098,1009,0,0
-119,15,0,0,0,0,0,0,0,0,0,-1,1105,1009,0,0
-112,15,0,0,0,0,0,0,0,0,0,-1,1112,1009,0,0
-105,15,0,0,0,0,0,0,0,0,0,-1,1119,1009,0,0
-98,15,0,0,0,0,0,0,0,0,0,-1,1126,1009,0,0
-91,15,0,0,0,0,0,0,0,0,0,-1,1133,1009,0,0
-84,15,0,0,0,0,0,0,0,0,0,-1,1140,1009,0,0
-77,15,0,0,0,0,0,0,0,0,0,-1,1147,1009,0,0
-70,15,0,0,0,0,0,0,0,0,0,-1,1154,1009,0,0
-63,15,0,0,0,0,0,0,0,0,0,-1,1161,1009,0,0
-56,15,0,0,0,0,0,0,0,0,0,-1,1168,1009,0,0
-49,15,0,0,0,0,0,0,0,0,0,-1,1175,1009,0,0
-42,15,0,0,0,0,0,0,0,0,0,-1,1182,1009,0,0
-35,15,0,0,0,0,0,0,0,0,0,-1,1189,1009,0,0
-28,15,0,0,0,0,0,0,0,0,0,-1,1196,1009,0,0
-21,15,0,0,0,0,0,0,0,0,0,-1,1203,1009,0,0
-14,15,0,0,0,0,0,0,0,0,0,-1,1210,1009,0,0
-7,15,0,0,0,0,0,0,0,0,0,-1,1217,1009,0,0
0,15,0,0,0,0,0,0,0,0,0,-1,1224,1009,0,0
7,15,0,0,0,0,0,0,0,0,0,-1,1231,1009,0,0
14,15,0,0,0,0,0,0,0,0,0,-1,1238,1009,0,0
21,15,0,0,0,0,0,0,0,0,0,-1,1245,1009,0,0
28,15,0,0,0,0,0,0,0,0,0,-1,1252,1009,0,0
35,15,0,0,0,0,0,0,0,0,0,-1,1259,1009,0,0
42,15,0,0,0,0,0,0,0,0,0,-1,1266,1009,0,0
49,15,0,0,0,0,0,0,0,0,0,-1,1273,1009,0,0
56,15,0,0,0,0,0,0,0,0,0,-1,1280,1009,0,0
63,15,0,0,0,0,0,0,0,0,0,-1,1287,1009,0,0
70,15,0,0,0,0,0,0,0,0,0,-1,1294,1009,0,0
77,15,0,0,0,0,0,0,0,0,0,-1,1301,1009,0,0
84,15,0,0,0,0,0,0,0,0,0,-1,1308,1009,0,0
91,15,0,0,0,0,0,0,0,0,0,-1,1315,1009,0,0
98,15,0,0,0,0,0,0,0,0,0,-1,1322,1009,0,0
105,15,0,0,0,0,0,0,0,0,0,-1,1329,1009,0,0
112,15,0,0,0,0,0,0,0,0,0,-1,1336,1009,0,0
119,15,0,0,0,0,0,0,0,0,0,-1,1343,1009,0,0
126,15,0,0,0,0,0,0,0,0,0,-1,1350,1009,0,0
133,15,0,0,0,0,0,0,0,0,0,-1,1357,1009,0,0
140,15,0,0,0,0,0,0,0,0,0,-1,1364,1009,0,0
147,15,0,0,0,0,0,0,0,0,0,-1,1371,1009,0,0
154,15,0,0,0,0,0,0,0,0,0,-1,1378,1009,0,0
161,15,0,0,0,0,0,0,0,0,0,-1,1385,1009,0,0
168,15,0,0,0,0,0,0,0,0,0,-1,1392,1009,0,0
175,15,0,0,0,0,0,0,0,0,0,-1,1399,1009,0,0
182,15,0,0,0,0,0,0,0,0,0,-1,1406,1009,0,0
189,15,0,0,0,0,0,0,0,0,0,-1,1413,1009,0,0
196,15,0,0,0,0,0,0,0,0,0,-1,1420,1009,0,0
203,15,0,0,0,0,0,0,0,0,0,-1,1427,1009,0,0
210,15,0,0,0,0,0,0,0,0,0,-1,1434,1009,0,0
217,15,0,0,0,0,0,0,0,0,0,-1,1441,1009,0,0
224,15,0,0,0,0,0,0,0,0,0,-1,1448,1009,0,0
231,15,0,0,0,0,0,0,0,0,0,-1,1455,1009,0,0
238,15,0,0,0,0,0,0,0,0,0,-1,1462,1009,0,0
245,15,0,0,0,0,0,0,0,0,0,-1,1469,1009,0,0
252,15,0,0,0,0,0,0,0,0,0,-1,1476,1009,0,0
259,15,0,0,0,0,0,0,0,0,0,-1,1483,1009,0,0
266,15,0,0,0,0,0,0,0,0,0,-1,1490,1009,0,0
273,15,0,0,0,0,0,0,0,0,0,-1,1497,1009,0,0
280,15,0,0,0,0,0,0,0,0,0,-1,1504,1009,0,0
287,15,0,0,0,0,0,0,0,0,0,-1,1511,1009,0,0
294,15,0,0,0,0,0,0,0,0,0,-1,1518,1009,0,0
301,15,0,0,0,0,0,0,0,0,0,-1,1525,1009,0,0
308,15,0,0,0,0,0,0,0,0,0,-1,1532,1009,0,0
315,15,0,0,0,0,0,0,0,0,0,-1,1539,1009,0,0
322,15,0,0,0,0,0,0,0,0,0,-1,1546,1009,0,0
329,15,0,0,0,0,0,0,0,0,0,-1,1553,1009,0,0
336,15,0,0,0,0,0,0,0,0,0,-1,1560,1009,0,0
343,15,0,0,0,0,0,0,0,0,0,-1,1567,1009,0,0
350,15,0,0,0,0,0,0,0,0,0,-1,1574,1009,0,0
357,15,0,0,0,0,0,0,0,0,0,-1,1581,1009,0,0
364,15,0,0,0,0,0,0,0,0,0,-1,1588,1009,0,0
371,15,0,0,0,0,0,0,0,0,0,-1,1595,1009,0,0
378,15,0,0,0,0,0,0,0,0,0,-1,1602,1009,0,0
385,15,0,0,0,0,0,0,0,0,0,-1,1609,1009,0,0
392,15,0,0,0,0,0,0,0,0,0,-1,1616,1009,0,0
399,15,0,0,0,0,0,0,0,0,0,-1,1623,1009,0,0
406,15,0,0,0,0,0,0,0,0,0,-1,1630,1009,0,0
413,15,0,0,0,0,0,0,0,0,0,-1,1637,1009,0,0
420,15,0,0,0,0,0,0,0,0,0,-1,1644,1009,0,0
427,15,0,0,0,0,0,0,0,0,0,-1,1651,1009,0,0
434,15,0,0,0,0,0,0,0,0,0,-1,1658,1009,0,0
441,15,0,0,0,0,0,0,0,0,0,-1,1665,1009,0,0
448,15,0,0,0,0,0,0,0,0,0,-1,1672,1009,0,0
455,15,0,0,0,0,0,0,0,0,0,-1,1679,1009,0,0
462,15,0,0,0,0,0,0,0,0,0,-1,1686,1009,0,0
469,15,0,0,0,0,0,0,0,0,0,-1,1693,1009,0,0
476,15,0,0,0,0,0,0,0,0,0,-1,1700,1009,0,0
483,15,0,0,0,0,0,0,0,0,0,-1,1707,1009,0,0
490,15,0,0,0,0,0,0,0,0,0,-1,1714,1009,0,0
497,15,0,0,0,0,0,0,0,0,0,-1,1721,1009,0,0
504,15,0,0,0,0,0,0,0,0,0,-1,1728,1009,0,0
511,15,0,0,0,0,0,0,0,0,0,-1,1735,1009,0,0
518,15,0,0,0,0,0,0,0,0,0,-1,1742,1009,0,0
525,15,0,0,0,0,0,0,0,0,0,-1,1749,1009,0,0
532,15,0,0,0,0,0,0,0,0,0,-1,1756,1009,0,0
539,15,0,0,0,0,0,0,0,0,0,-1,1763,1009,0,0
546,15,0,0,0,0,0,0,0,0,0,-1,1770,1009,0,0
553,15,0,0,0,0,0,0,0,0,0,-1,1777,1009,0,0
560,15,0,0,0,0,0,0,0,0,0,-1,1784,1009,0,0
567,15,0,0,0,0,0,0,0,0,0,-1,1791,1009,0,0
574,15,0,0,0,0,0,0,0,0,0,-1,1798,1009,0,0
581,15,0,0,0,0,0,0,0,0,0,-1,1805,1009,0,0
588,15,0,0,0,0,0,0,0,0,0,-1,1812,1009,0,0
595,15,0,0,0,0,0,0,0,0,0,-1,1819,1009,0,0
602,15,0,0,0,0,0,0,0,0,0,-1,1826,1009,0,0
609,15,0,0,0,0,0,0,0,0,0,-1,1833,1009,0,0
616,15,0,0,0,0,0,0,0,0,0,-1,1840,1009,0,0
623,15,0,0,0,0,0,0,0,0,0,-1,1847,1009,0,0
630,15,0,0,0,0,0,0,0,0,0,-1,1854,1009,0,0
637,15,0,0,0,0,0,0,0,0,0,-1,1861,1009,0,0
644,15,74.2463,2.26001,0.00476487,0.0033662,-0.00125971,0.00550635,0.00262473,-0.532001,0.00318025,0.0388784,1868,1009,74.2463,-2.26004
651,15,74.231,1.82532,0.0032904,0.00291541,-0.000260761,0.00342407,0.00278173,-0.473709,0.00210158,0.0376888,1875,1009,74.2309,-1.82529
658,15,74.458,1.75769,0.00202177,0.00242007,0.000344735,0.00261904,0.00182279,1.04733,0.00155034,0.0393242,1882,1009,74.458,-1.75772
665,15,74.5907,2.18079,0.00111544,0.00202879,0.000631055,0.00235108,0.000793155,1.09861,0.00138112,0.0397095,1889,1009,74.5907,-2.18077
672,15,74.4751,2.37909,0.000417608,0.00169523,0.000741225,0.00203494,7.7903e-05,1.14106,0.00133142,0.0398255,1896,1009,74.4751,-2.37909
679,15,74.5977,2.15802,-6.13535e-05,0.00123524,0.000788868,0.00160802,-0.000434135,1.12935,0.00124228,0.0390941,1903,1009,74.5976,-2.15801
686,15,74.6108,2.12292,-0.000392411,0.000531324,0.000747335,0.000947995,-0.000809083,1.06218,0.00101551,0.0401139,1910,1009,74.6108,-2.12294
693,15,74.4806,2.16962,-0.00060024,-0.000153718,0.000677197,0.000336072,-0.00109003,0.944629,0.000860862,0.0400818,1917,1009,74.4806,-2.16959
700,15,74.5066,2.25317,-0.000758386,-0.000620135,0.000641345,-4.42005e-05,-0.00133432,0.839082,0.000875185,0.033584,1924,1009,74.5066,-2.2532
707,15,74.4625,2.28906,-0.00148225,-0.000364354,0.000470262,-0.000192844,-0.00165376,1.22108,0.00104418,0.0337605,1931,1009,74.4625,-2.28906
714,15,74.4515,2.30603,-0.00253398,0.000417418,0.000111392,0.000421616,-0.00253818,1.53313,0.00184875,0.0443476,1938,1009,74.4516,-2.30604
721,15,74.4287,2.25464,0,0,0,0,0,0,0,-1,1945,1009,74.4287,-2.25462
728,15,74.6683,6.86871,0,0,0,0,0,0,0,-1,1952,1009,74.6683,-6.86871
735,15,74.587,7.01837,-0.00690118,0.00520172,-0.000550831,0.00522674,-0.0069262,-1.52541,0.00703933,0.022719,1959,1009,74.587,-7.01836
742,15,74.6366,7.177,-0.00803041,0.00704213,-0.000966566,0.00710387,-0.00809214,-1.50702,0.0087796,0.0479144,1966,1009,74.6366,-7.17698
749,15,74.6011,7.25195,-0.00903201,0.00982085,-0.0019441,0.0100192,-0.00923039,-1.4691,0.0111169,0.0293753,1973,1009,74.601,-7.25198
756,15,74.5833,7.1825,-0.0102657,0.0133318,-0.00287873,0.0136779,-0.0106118,-1.45114,0.0140608,0.020387,1980,1009,74.5832,-7.18248
763,15,74.4829,7.35004,-0.0110833,0.0179165,-0.00421346,0.0185163,-0.0116831,-1.4294,0.0175837,0.0155095,1987,1009,74.4828,-7.35004
770,15,74.2896,7.35883,-0.0101748,0.0234477,-0.0063257,0.0245984,-0.0113255,-1.39085,0.0212073,0.021974,1994,1009,74.2895,-7.35883
777,15,73.7849,7.41327,-0.00716261,0.0287099,-0.0091037,0.030888,-0.0093407,-1.33596,0.0243112,0.0482837,2001,1009,73.7849,-7.41327
784,15,73.3191,7.53021,0,0,0,0,0,0,0,-1,2008,1009,73.3191,-7.53018
791,15,71.5635,6.11658,0,0,0,0,0,0,0,-1,2015,1009,71.5636,-6.1166
798,15,71.0186,6.25922,0,0,0,0,0,0,0,-1,2022,1009,71.0185,-6.25922
805,15,71.0474,5.50488,0,0,0,0,0,0,0,-1,2029,1009,71.0473,-5.5049
812,15,71.2588,4.82483,0,0,0,0,0,0,0,-1,2036,1009,71.2588,-4.82483
-700,8,0,0,0,0,0,0,0,0,0,-1,524,1016,0,0
-693,8,-69.2416,-5.01489,0.90948,0.0786392,0.183991,0.948401,0.0397176,0.208468,0.619453,0.0477902,531,1016,-69.2416,5.01487
-686,8,-68.7694,-2.52966,0.700531,0.0774076,0.153696,0.736378,0.0415599,0.229141,0.477669,0.0450743,538,1016,-68.7694,2.52968
-679,8,-59.8243,4.43701,0.534221,0.0724615,0.125345,0.566052,0.0406307,0.248688,0.36458,0.0470562,545,1016,-59.8243,-4.43704
-672,8,-59.5292,4.77765,0.402873,0.0659308,0.100765,0.430708,0.0380959,0.269515,0.27532,0.0456536,552,1016,-59.5292,-4.77765
-665,8,-59.1773,4.76471,0,0,0,0,0,0,0,-1,559,1016,-59.1773,-4.76471
-658,8,-58.8746,4.82581,0,0,0,0,0,0,0,-1,566,1016,-58.8746,-4.82578
-651,8,-58.2461,5.43817,0,0,0,0,0,0,0,-1,573,1016,-58.2461,-5.43819
-644,8,-58.5742,5.46191,0,0,0,0,0,0,0,-1,580,1016,-58.5742,-5.46193
-637,8,-58.6188,5.61285,0.0527809,0.0286362,0.021713,0.0655519,0.0158652,0.531681,0.0394899,0.0465693,587,1016,-58.6188,-5.61285
-630,8,-58.8535,5.73425,0.00670435,0.021139,0.0107151,0.0268408,0.00100255,1.08178,0.0175692,0.0280715,594,1016,-58.8535,-5.73426
-623,8,-58.8382,5.78619,-0.00888837,0.0116737,0.00348491,0.0122483,-0.00946295,1.40739,0.0125693,0.0178858,601,1016,-58.8382,-5.78617
-616,8,-58.9105,5.7196,-0.00694145,0.00433262,0.00083809,0.00439458,-0.00700341,1.497,0.00663784,0.020131,608,1016,-58.9104,-5.71963
-609,8,-59.0048,5.61792,-0.00535568,-0.00348346,-0.000431909,-0.00338862,-0.00545051,-1.35465,0.00317778,0.0237842,615,1016,-59.0048,-5.61792
-602,8,-58.9323,5.72168,-0.00447379,-0.011422,-0.00128358,-0.00424425,-0.0116516,-0.176956,0.00680917,0.0270441,622,1016,-58.9322,-5.72171
-595,8,-59.0053,5.66437,0,0,0,0,0,0,0,-1,629,1016,-59.0053,-5.66435
-588,8,-57.3176,0.0437012,0,0,0,0,0,0,0,-1,636,1016,-57.3176,-0.0437096
-581,8,-57.4352,0.164673,0,0,0,0,0,0,0,-1,643,1016,-57.4352,-0.164648
-574,8,-57.4781,0.219849,0,0,0,0,0,0,0,-1,650,1016,-57.4781,-0.219869
-567,8,-57.3757,0.00415039,0,0,0,0,0,0,0,-1,657,1016,-57.3757,-0.00413727
-560,8,-57.3784,0.33844,0,0,0,0,0,0,0,-1,664,1016,-57.3784,-0.338458
-553,8,-57.4606,0.592529,0,0,0,0,0,0,0,-1,671,1016,-57.4606,-0.592532
-546,8,-57.3809,0.571411,0,0,0,0,0,0,0,-1,678,1016,-57.3809,-0.571392
-539,8,-57.3199,0.535645,0,0,0,0,0,0,0,-1,685,1016,-57.32,-0.535629
-532,8,-57.3419,0.494507,0,0,0,0,0,0,0,-1,692,1016,-57.3419,-0.494516
-525,8,0,0,0,0,0,0,0,0,0,-1,699,1016,0,0
-518,8,0,0,0,0,0,0,0,0,0,-1,706,1016,0,0
-511,8,0,0,0,0,0,0,0,0,0,-1,713,1016,0,0
-504,8,0,0,0,0,0,0,0,0,0,-1,720,1016,0,0
-497,8,0,0,0,0,0,0,0,0,0,-1,727,1016,0,0
-490,8,0,0,0,0,0,0,0,0,0,-1,734,1016,0,0
-483,8,0,0,0,0,0,0,0,0,0,-1,741,1016,0,0
-476,8,0,0,0,0,0,0,0,0,0,-1,748,1016,0,0
-469,8,0,0,0,0,0,0,0,0,0,-1,755,1016,0,0
-462,8,0,0,0,0,0,0,0,0,0,-1,762,1016,0,0
-455,8,0,0,0,0,0,0,0,0,0,-1,769,1016,0,0
-448,8,0,0,0,0,0,0,0,0,0,-1,776,1016,0,0
-441,8,0,0,0,0,0,0,0,0,0,-1,783,1016,0,0
-434,8,0,0,0,0,0,0,0,0,0,-1,790,1016,0,0
-427,8,0,0,0,0,0,0,0,0,0,-1,797,1016,0,0
-420,8,0,0,0,0,0,0,0,0,0,-1,804,1016,0,0
-413,8,0,0,0,0,0,0,0,0,0,-1,811,1016,0,0
-406,8,0,0,0,0,0,0,0,0,0,-1,818,1016,0,0
-399,8,0,0,0,0,0,0,0,0,0,-1,825,1016,0,0
-392,8,0,0,0,0,0,0,0,0,0,-1,832,1016,0,0
-385,8,0,0,0,0,0,0,0,0,0,-1,839,1016,0,0
-378,8,0,0,0,0,0,0,0,0,0,-1,846,1016,0,0
-371,8,0,0,0,0,0,0,0,0,0,-1,853,1016,0,0
-364,8,0,0,0,0,0,0,0,0,0,-1,860,1016,0,0
-357,8,0,0,0,0,0,0,0,0,0,-1,867,1016,0,0
-350,8,0,0,0,0,0,0,0,0,0,-1,874,1016,0,0
-343,8,0,0,0,0,0,0,0,0,0,-1,881,1016,0,0
-336,8,0,0,0,0,0,0,0,0,0,-1,888,1016,0,0
-329,8,0,0,0,0,0,0,0,0,0,-1,895,1016,0,0
-322,8,0,0,0,0,0,0,0,0,0,-1,902,1016,0,0
-315,8,0,0,0,0,0,0,0,0,0,-1,909,1016,0,0
-308,8,0,0,0,0,0,0,0,0,0,-1,916,1016,0,0
-301,8,0,0,0,0,0,0,0,0,0,-1,923,1016,0,0
-294,8,0,0,0,0,0,0,0,0,0,-1,930,1016,0,0
-287,8,0,0,0,0,0,0,0,0,0,-1,937,1016,0,0
-280,8,0,0,0,0,0,0,0,0,0,-1,944,1016,0,0
-273,8,0,0,0,0,0,0,0,0,0,-1,951,1016,0,0
-266,8,0,0,0,0,0,0,0,0,0,-1,958,1016,0,0
-259,8,0,0,0,0,0,0,0,0,0,-1,965,1016,0,0
-252,8,0,0,0,0,0,0,0,0,0,-1,972,1016,0,0
-245,8,0,0,0,0,0,0,0,0,0,-1,979,1016,0,0
-238,8,0,0,0,0,0,0,0,0,0,-1,986,1016,0,0
-231,8,0,0,0,0,0,0,0,0,0,-1,993,1016,0,0
-224,8,0,0,0,0,0,0,0,0,0,-1,1000,1016,0,0
-217,8,0,0,0,0,0,0,0,0,0,-1,1007,1016,0,0
-210,8,0,0,0,0,0,0,0,0,0,-1,1014,1016,0,0
-203,8,0,0,0,0,0,0,0,0,0,-1,1021,1016,0,0
-196,8,0,0,0,0,0,0,0,0,0,-1,1028,1016,0,0
-189,8,0,0,0,0,0,0,0,0,0,-1,1035,1016,0,0
-182,8,0,0,0,0,0,0,0,0,0,-1,1042,1016,0,0
-175,8,0,0,0,0,0,0,0,0,0,-1,1049,1016,0,0
-168,8,0,0,0,0,0,0,0,0,0,-1,1056,1016,0,0
-161,8,0,0,0,0,0,0,0,0,0,-1,1063,1016,0,0
-154,8,0,0,0,0,0,0,0,0,0,-1,1070,1016,0,0
-147,8,0,0,0,0,0,0,0,0,0,-1,1077,1016,0,0
-140,8,0,0,0,0,0,0,0,0,0,-1,1084,1016,0,0
-133,8,0,0,0,0,0,0,0,0,0,-1,1091,1016,0,0
-126,8,0,0,0,0,0,0,0,0,0,-1,1098,1016,0,0
-119,8,0,0,0,0,0,0,0,0,0,-1,1105,1016,0,0
-112,8,0,0,0,0,0,0,0,0,0,-1,1112,1016,0,0
-105,8,0,0,0,0,0,0,0,0,0,-1,1119,1016,0,0
-98,8,0,0,0,0,0,0,0,0,0,-1,1126,1016,0,0
-91,8,0,0,0,0,0,0,0,0,0,-1,1133,1016,0,0
-84,8,0,0,0,0,0,0,0,0,0,-1,1140,1016,0,0
-77,8,0,0,0,0,0,0,0,0,0,-1,1147,1016,0,0
-70,8,0,0,0,0,0,0,0,0,0,-1,1154,1016,0,0
-63,8,0,0,0,0,0,0,0,0,0,-1,1161,1016,0,0
-56,8,0,0,0,0,0,0,0,0,0,-1,1168,1016,0,0
-49,8,0,0,0,0,0,0,0,0,0,-1,1175,1016,0,0
-42,8,0,0,0,0,0,0,0,0,0,-1,1182,1016,0,0
-35,8,0,0,0,0,0,0,0,0,0,-1,1189,1016,0,0
-28,8,0,0,0,0,0,0,0,0,0,-1,1196,1016,0,0
-21,8,0,0,0,0,0,0,0,0,0,-1,1203,1016,0,0
-14,8,0,0,0,0,0,0,0,0,0,-1,1210,1016,0,0
-7,8,0,0,0,0,0,0,0,0,0,-1,1217,1016,0,0
0,8,0,0,0,0,0,0,0,0,0,-1,1224,1016,0,0
7,8,0,0,0,0,0,0,0,0,0,-1,1231,1016,0,0
14,8,0,0,0,0,0,0,0,0,0,-1,1238,1016,0,0
21,8,0,0,0,0,0,0,0,0,0,-1,1245,1016,0,0
28,8,0,0,0,0,0,0,0,0,0,-1,1252,1016,0,0
35,8,0,0,0,0,0,0,0,0,0,-1,1259,1016,0,0
42,8,0,0,0,0,0,0,0,0,0,-1,1266,1016,0,0
49,8,0,0,0,0,0,0,0,0,0,-1,1273,1016,0,0
56,8,0,0,0,0,0,0,0,0,0,-1,1280,1016,0,0
63,8,0,0,0,0,0,0,0,0,0,-1,1287,1016,0,0
70,8,0,0,0,0,0,0,0,0,0,-1,1294,1016,0,0
77,8,0,0,0,0,0,0,0,0,0,-1,1301,1016,0,0
84,8,0,0,0,0,0,0,0,0,0,-1,1308,1016,0,0
91,8,0,0,0,0,0,0,0,0,0,-1,1315,1016,0,0
98,8,0,0,0,0,0,0,0,0,0,-1,1322,1016,0,0
105,8,0,0,0,0,0,0,0,0,0,-1,1329,1016,0,0
112,8,0,0,0,0,0,0,0,0,0,-1,1336,1016,0,0
119,8,0,0,0,0,0,0,0,0,0,-1,1343,1016,0,0
126,8,0,0,0,0,0,0,0,0,0,-1,1350,1016,0,0
133,8,0,0,0,0,0,0,0,0,0,-1,1357,1016,0,0
140,8,0,0,0,0,0,0,0,0,0,-1,1364,1016,0,0
147,8,0,0,0,0,0,0,0,0,0,-1,1371,1016,0,0
154,8,0,0,0,0,0,0,0,0,0,-1,1378,1016,0,0
161,8,0,0,0,0,0,0,0,0,0,-1,1385,1016,0,0
168,8,0,0,0,0,0,0,0,0,0,-1,1392,1016,0,0
175,8,0,0,0,0,0,0,0,0,0,-1,1399,1016,0,0
182,8,0,0,0,0,0,0,0,0,0,-1,1406,1016,0,0
189,8,0,0,0,0,0,0,0,0,0,-1,1413,1016,0,0
196,8,0,0,0,0,0,0,0,0,0,-1,1420,1016,0,0
203,8,0,0,0,0,0,0,0,0,0,-1,1427,1016,0,0
210,8,0,0,0,0,0,0,0,0,0,-1,1434,1016,0,0
217,8,0,0,0,0,0,0,0,0,0,-1,1441,1016,0,0
224,8,0,0,0,0,0,0,0,0,0,-1,1448,1016,0,0
231,8,0,0,0,0,0,0,0,0,0,-1,1455,1016,0,0
238,8,0,0,0,0,0,0,0,0,0,-1,1462,1016,0,0
245,8,0,0,0,0,0,0,0,0,0,-1,1469,1016,0,0
252,8,0,0,0,0,0,0,0,0,0,-1,1476,1016,0,0
259,8,0,0,0,0,0,0,0,0,0,-1,1483,1016,0,0
266,8,0,0,0,0,0,0,0,0,0,-1,1490,1016,0,0
273,8,0,0,0,0,0,0,0,0,0,-1,1497,1016,0,0
280,8,0,0,0,0,0,0,0,0,0,-1,1504,1016,0,0
287,8,0,0,0,0,0,0,0,0,0,-1,1511,1016,0,0
294,8,0,0,0,0,0,0,0,0,0,-1,1518,1016,0,0
301,8,0,0,0,0,0,0,0,0,0,-1,1525,1016,0,0
308,8,0,0,0,0,0,0,0,0,0,-1,1532,1016,0,0
315,8,0,0,0,0,0,0,0,0,0,-1,1539,1016,0,0
322,8,0,0,0,0,0,0,0,0,0,-1,1546,1016,0,0
329,8,0,0,0,0,0,0,0,0,0,-1,1553,1016,0,0
336,8,0,0,0,0,0,0,0,0,0,-1,1560,1016,0,0
343,8,0,0,0,0,0,0,0,0,0,-1,1567,1016,0,0
350,8,0,0,0,0,0,0,0,0,0,-1,1574,1016,0,0
357,8,0,0,0,0,0,0,0,0,0,-1,1581,1016,0,0
364,8,0,0,0,0,0,0,0,0,0,-1,1588,1016,0,0
371,8,0,0,0,0,0,0,0,0,0,-1,1595,1016,0,0
378,8,0,0,0,0,0,0,0,0,0,-1,1602,1016,0,0
385,8,0,0,0,0,0,0,0,0,0,-1,1609,1016,0,0
392,8,0,0,0,0,0,0,0,0,0,-1,1616,1016,0,0
399,8,0,0,0,0,0,0,0,0,0,-1,1623,1016,0,0
406,8,0,0,0,0,0,0,0,0,0,-1,1630,1016,0,0
413,8,0,0,0,0,0,0,0,0,0,-1,1637,1016,0,0
420,8,0,0,0,0,0,0,0,0,0,-1,1644,1016,0,0
427,8,0,0,0,0,0,0,0,0,0,-1,1651,1016,0,0
434,8,0,0,0,0,0,0,0,0,0,-1,1658,1016,0,0
441,8,0,0,0,0,0,0,0,0,0,-1,1665,1016,0,0
448,8,0,0,0,0,0,0,0,0,0,-1,1672,1016,0,0
455,8,0,0,0,0,0,0,0,0,0,-1,1679,1016,0,0
462,8,0,0,0,0,0,0,0,0,0,-1,1686,1016,0,0
469,8,0,0,0,0,0,0,0,0,0,-1,1693,1016,0,0
476,8,0,0,0,0,0,0,0,0,0,-1,1700,1016,0,0
483,8,0,0,0,0,0,0,0,0,0,-1,1707,1016,0,0
490,8,0,0,0,0,0,0,0,0,0,-1,1714,1016,0,0
497,8,0,0,0,0,0,0,0,0,0,-1,1721,1016,0,0
504,8,0,0,0,0,0,0,0,0,0,-1,1728,1016,0,0
511,8,0,0,0,0,0,0,0,0,0,-1,1735,1016,0,0
518,8,0,0,0,0,0,0,0,0,0,-1,1742,1016,0,0
525,8,0,0,0,0,0,0,0,0,0,-1,1749,1016,0,0
532,8,0,0,0,0,0,0,0,0,0,-1,1756,1016,0,0
539,8,0,0,0,0,0,0,0,0,0,-1,1763,1016,0,0
546,8,0,0,0,0,0,0,0,0,0,-1,1770,1016,0,0
553,8,0,0,0,0,0,0,0,0,0,-1,1777,1016,0,0
560,8,0,0,0,0,0,0,0,0,0,-1,1784,1016,0,0
567,8,0,0,0,0,0,0,0,0,0,-1,1791,1016,0,0
574,8,0,0,0,0,0,0,0,0,0,-1,1798,1016,0,0
581,8,0,0,0,0,0,0,0,0,0,-1,1805,1016,0,0
588,8,0,0,0,0,0,0,0,0,0,-1,1812,1016,0,0
595,8,0,0,0,0,0,0,0,0,0,-1,1819,1016,0,0
602,8,0,0,0,0,0,0,0,0,0,-1,1826,1016,0,0
609,8,0,0,0,0,0,0,0,0,0,-1,1833,1016,0,0
616,8,0,0,0,0,0,0,0,0,0,-1,1840,1016,0,0
623,8,0,0,0,0,0,0,0,0,0,-1,1847,1016,0,0
630,8,0,0,0,0,0,0,0,0,0,-1,1854,1016,0,0
637,8,0,0,0,0,0,0,0,0,0,-1,1861,1016,0,0
644,8,74.3251,2.12579,0.00480814,0.00269119,-0.00110447,0.00527945,0.00221988,-0.40333,0.00306092,0.0409036,1868,1016,74.3251,-2.12582
651,8,74.4088,1.85541,0.00327825,0.00249674,-7.79885e-05,0.00328595,0.00248903,-0.0984983,0.00197922,0.03783,1875,1016,74.4088,-1.8554
658,8,74.4707,1.91772,0.00194369,0.00224386,0.000527085,0.00264181,0.00154574,0.924101,0.0015326,0.0399266,1882,1016,74.4708,-1.91775
665,8,74.5105,2.20374,0.000989112,0.00203482,0.000800224,0.00246786,0.000556071,1.07477,0.00149477,0.0420144,1889,1016,74.5105,-2.20371
672,8,74.5847,2.42633,0.000285012,0.00185687,0.000892527,0.00226018,-0.000118298,1.14639,0.00154773,0.0429541,1896,1016,74.5847,-2.42635
679,8,74.6412,2.31232,-0.00018277,0.00156365,0.00090954,0.00195129,-0.000570416,1.16791,0.00152694,0.0402449,1903,1016,74.6412,-2.31229
686,8,74.6519,2.16821,-0.000552614,0.00095552,0.000838014,0.00132879,-0.000925882,1.15176,0.00130864,0.0410094,1910,1016,74.6519,-2.16824
693,8,74.5189,2.17651,-0.000775202,0.000310223,0.000767322,0.000707361,-0.00117234,1.0932,0.00109626,0.0392239,1917,1016,74.5189,-2.17654
700,8,74.4855,2.24005,-0.000891442,-0.000182287,0.000759379,0.000301218,-0.00137495,1.00382,0.0010318,0.0310678,1924,1016,74.4855,-2.24007
707,8,74.4447,2.24683,-0.00162244,4.99298e-05,0.000623223,0.000256632,-0.00182914,1.25055,0.00131335,0.0261648,1931,1016,74.4447,-2.24681
714,8,74.4794,2.18494,-0.00268011,0.000821722,0.000318862,0.000850519,-0.0027089,1.48073,0.00214637,0.0373835,1938,1016,74.4793,-2.18493
721,8,74.5696,2.11963,0,0,0,0,0,0,0,-1,1945,1016,74.5696,-2.11963
728,8,52.1681,5.36774,0,0,0,0,0,0,0,-1,1952,1016,52.168,-5.36773
735,8,74.6627,7.18219,0,0,0,0,0,0,0,-1,1959,1016,74.6628,-7.18219
742,8,74.5438,7.33179,0,0,0,0,0,0,0,-1,1966,1016,74.5438,-7.3318
749,8,74.8092,7.33221,0,0,0,0,0,0,0,-1,1973,1016,74.8092,-7.33221
756,8,74.6479,7.03107,-0.0102143,0.0134825,-0.0024801,0.0137393,-0.0104711,-1.46763,0.0140202,0.0416306,1980,1016,74.6479,-7.03106
763,8,74.6042,7.16394,-0.0109432,0.0180889,-0.00381143,0.018581,-0.0114352,-1.44241,0.0174928,0.0175908,1987,1016,74.6041,-7.16395
770,8,74.4648,7.11279,-0.00989269,0.0239408,-0.00602425,0.0249814,-0.0109333,-1.39974,0.0212576,0.0225972,1994,1016,74.4649,-7.11282
777,8,74.0525,7.11157,-0.00663207,0.029851,-0.00902834,0.031963,-0.00874402,-1.341,0.0247438,0.0378921,2001,1016,74.0524,-7.11158
784,8,73.6157,7.14001,0,0,0,0,0,0,0,-1,2008,1016,73.6157,-7.14001
791,8,71.9575,6.31183,0,0,0,0,0,0,0,-1,2015,1016,71.9575,-6.31184
798,8,71.3855,5.50989,0,0,0,0,0,0,0,-1,2022,1016,71.3856,-5.50991
805,8,71.4963,4.70709,0,0,0,0,0,0,0,-1,2029,1016,71.4962,-4.7071
812,8,71.5762,3.87109,0,0,0,0,0,0,0,-1,2036,1016,71.5761,-3.87109
-700,1,0,0,0,0,0,0,0,0,0,-1,524,1023,0,0
-693,1,-68.1547,-5.27759,0,0,0,0,0,0,0,-1,531,1023,-68.1547,5.27762
-686,1,-67.2436,-3.32556,0,0,0,0,0,0,0,-1,538,1023,-67.2436,3.32553
-679,1,-56.7238,0.455078,0.457258,0.0701001,0.109622,0.486142,0.0412161,0.257632,0.311267,0.0477613,545,1023,-56.7238,-0.455081
-672,1,-59.5455,4.8078,0.349278,0.0644591,0.0897664,0.375209,0.0385282,0.281215,0.238337,0.0445863,552,1023,-59.5455,-4.80781
-665,1,-58.5768,4.57343,0,0,0,0,0,0,0,-1,559,1023,-58.5768,-4.57344
-658,1,-58.5141,4.94678,0,0,0,0,0,0,0,-1,566,1023,-58.5141,-4.94677
-651,1,-58.5157,5.35773,0,0,0,0,0,0,0,-1,573,1023,-58.5157,-5.35774
-644,1,-58.3663,5.65594,0,0,0,0,0,0,0,-1,580,1023,-58.3663,-5.65594
-637,1,-58.5994,5.51703,0.0470324,0.0284796,0.0203867,0.0601539,0.015358,0.571887,0.0360895,0.0444762,587,1023,-58.5994,-5.51706
-630,1,-58.9257,5.6286,0.00578005,0.020815,0.0101185,0.025903,0.000692112,1.10488,0.0170426,0.0401796,594,1023,-58.9257,-5.6286
-623,1,-58.7772,5.71722,-0.00830168,0.0113593,0.00292709,0.0117858,-0.00872821,1.4261,0.0118875,0.0192095,601,1023,-58.7772,-5.71724
-616,1,-58.9477,5.61652,-0.00634866,0.00384416,-4.73846e-06,0.00384416,-0.00634867,-1.57033,0.00594375,0.0251225,608,1023,-58.9477,-5.61655
-609,1,-58.9941,5.68604,-0.00491859,-0.00410089,-0.00158607,-0.00287182,-0.00614766,-0.911539,0.00355191,0.0270784,615,1023,-58.9941,-5.68602
-602,1,-58.7557,5.84595,-0.00418873,-0.0120269,-0.00253519,-0.00344023,-0.0127754,-0.28709,0.00763314,0.0176652,622,1023,-58.7558,-5.84597
-595,1,-58.7353,5.91669,0,0,0,0,0,0,0,-1,629,1023,-58.7353,-5.91667
-588,1,-58.6891,6.11707,0,0,0,0,0,0,0,-1,636,1023,-58.6891,-6.11706
-581,1,-57.4389,0.226074,0,0,0,0,0,0,0,-1,643,1023,-57.4389,-0.226102
-574,1,-57.4105,0.383972,0,0,0,0,0,0,0,-1,650,1023,-57.4105,-0.383983
-567,1,-57.2908,0.258728,0,0,0,0,0,0,0,-1,657,1023,-57.2908,-0.258703
-560,1,-57.3232,0.264954,0,0,0,0,0,0,0,-1,664,1023,-57.3232,-0.264945
-553,1,-57.4293,0.3797,0,0,0,0,0,0,0,-1,671,1023,-57.4293,-0.379694
-546,1,-57.3347,0.415771,0,0,0,0,0,0,0,-1,678,1023,-57.3347,-0.415761
-539,1,-57.2045,0.38031,0,0,0,0,0,0,0,-1,685,1023,-57.2045,-0.380302
-532,1,-57.317,0.369812,0,0,0,0,0,0,0,-1,692,1023,-57.317,-0.369828
-525,1,0,0,0,0,0,0,0,0,0,-1,699,1023,0,0
-518,1,0,0,0,0,0,0,0,0,0,-1,706,1023,0,0
-511,1,0,0,0,0,0,0,0,0,0,-1,713,1023,0,0
-504,1,0,0,0,0,0,0,0,0,0,-1,720,1023,0,0
-497,1,0,0,0,0,0,0,0,0,0,-1,727,1023,0,0
-490,1,0,0,0,0,0,0,0,0,0,-1,734,1023,0,0
-483,1,0,0,0,0,0,0,0,0,0,-1,741,1023,0,0
-476,1,0,0,0,0,0,0,0,0,0,-1,748,1023,0,0
-469,1,0,0,0,0,0,0,0,0,0,-1,755,1023,0,0
-462,1,0,0,0,0,0,0,0,0,0,-1,762,1023,0,0
-455,1,0,0,0,0,0,0,0,0,0,-1,769,1023,0,0
-448,1,0,0,0,0,0,0,0,0,0,-1,776,1023,0,0
-441,1,0,0,0,0,0,0,0,0,0,-1,783,1023,0,0
-434,1,0,0,0,0,0,0,0,0,0,-1,790,1023,0,0
-427,1,0,0,0,0,0,0,0,0,0,-1,797,1023,0,0
-420,1,0,0,0,0,0,0,0,0,0,-1,804,1023,0,0
-413,1,0,0,0,0,0,0,0,0,0,-1,811,1023,0,0
-406,1,0,0,0,0,0,0,0,0,0,-1,818,1023,0,0
-399,1,0,0,0,0,0,0,0,0,0,-1,825,1023,0,0
-392,1,0,0,0,0,0,0,0,0,0,-1,832,1023,0,0
-385,1,0,0,0,0,0,0,0,0,0,-1,839,1023,0,0
-378,1,0,0,0,0,0,0,0,0,0,-1,846,1023,0,0
-371,1,0,0,0,0,0,0,0,0,0,-1,853,1023,0,0
-364,1,0,0,0,0,0,0,0,0,0,-1,860,1023,0,0
-357,1,0,0,0,0,0,0,0,0,0,-1,867,1023,0,0
-350,1,0,0,0,0,0,0,0,0,0,-1,874,1023,0,0
-343,1,0,0,0,0,0,0,0,0,0,-1,881,1023,0,0
-336,1,0,0,0,0,0,0,0,0,0,-1,888,1023,0,0
-329,1,0,0,0,0,0,0,0,0,0,-1,895,1023,0,0
-322,1,0,0,0,0,0,0,0,0,0,-1,902,1023,0,0
-315,1,0,0,0,0,0,0,0,0,0,-1,909,1023,0,0
-308,1,0,0,0,0,0,0,0,0,0,-1,916,1023,0,0
-301,1,0,0,0,0,0,0,0,0,0,-1,923,1023,0,0
-294,1,0,0,0,0,0,0,0,0,0,-1,930,1023,0,0
-287,1,0,0,0,0,0,0,0,0,0,-1,937,1023,0,0
-280,1,0,0,0,0,0,0,0,0,0,-1,944,1023,0,0
-273,1,0,0,0,0,0,0,0,0,0,-1,951,1023,0,0
-266,1,0,0,0,0,0,0,0,0,0,-1,958,1023,0,0
-259,1,0,0,0,0,0,0,0,0,0,-1,965,1023,0,0
-252,1,0,0,0,0,0,0,0,0,0,-1,972,1023,0,0
-245,1,0,0,0,0,0,0,0,0,0,-1,979,1023,0,0
-238,1,0,0,0,0,0,0,0,0,0,-1,986,1023,0,0
-231,1,0,0,0,0,0,0,0,0,0,-1,993,1023,0,0
-224,1,0,0,0,0,0,0,0,0,0,-1,1000,1023,0,0
-217,1,0,0,0,0,0,0,0,0,0,-1,1007,1023,0,0
-210,1,0,0,0,0,0,0,0,0,0,-1,1014,1023,0,0
-203,1,0,0,0,0,0,0,0,0,0,-1,1021,1023,0,0
-196,1,0,0,0,0,0,0,0,0,0,-1,1028,1023,0,0
-189,1,0,0,0,0,0,0,0,0,0,-1,1035,1023,0,0
-182,1,0,0,0,0,0,0,0,0,0,-1,1042,1023,0,0
-175,1,0,0,0,0,0,0,0,0,0,-1,1049,1023,0,0
-168,1,0,0,0,0,0,0,0,0,0,-1,1056,1023,0,0
-161,1,0,0,0,0,0,0,0,0,0,-1,1063,1023,0,0
-154,1,0,0,0,0,0,0,0,0,0,-1,1070,1023,0,0
-147,1,0,0,0,0,0,0,0,0,0,-1,1077,1023,0,0
-140,1,0,0,0,0,0,0,0,0,0,-1,1084,1023,0,0
-133,1,0,0,0,0,0,0,0,0,0,-1,1091,1023,0,0
-126,1,0,0,0,0,0,0,0,0,0,-1,1098,1023,0,0
-119,1,0,0,0,0,0,0,0,0,0,-1,1105,1023,0,0
-112,1,0,0,0,0,0,0,0,0,0,-1,1112,1023,0,0
-105,1,0,0,0,0,0,0,0,0,0,-1,1119,1023,0,0
-98,1,0,0,0,0,0,0,0,0,0,-1,1126,1023,0,0
-91,1,0,0,0,0,0,0,0,0,0,-1,1133,1023,0,0
-84,1,0,0,0,0,0,0,0,0,0,-1,1140,1023,0,0
-77,1,0,0,0,0,0,0,0,0,0,-1,1147,1023,0,0
-70,1,0,0,0,0,0,0,0,0,0,-1,1154,1023,0,0
-63,1,0,0,0,0,0,0,0,0,0,-1,1161,1023,0,0
-56,1,0,0,0,0,0,0,0,0,0,-1,1168,1023,0,0
-49,1,0,0,0,0,0,0,0,0,0,-1,1175,1023,0,0
-42,1,0,0,0,0,0,0,0,0,0,-1,1182,1023,0,0
-35,1,0,0,0,0,0,0,0,0,0,-1,1189,1023,0,0
-28,1,0,0,0,0,0,0,0,0,0,-1,1196,1023,0,0
-21,1,0,0,0,0,0,0,0,0,0,-1,1203,1023,0,0
-14,1,0,0,0,0,0,0,0,0,0,-1,1210,1023,0,0
-7,1,0,0,0,0,0,0,0,0,0,-1,1217,1023,0,0
0,1,0,0,0,0,0,0,0,0,0,-1,1224,1023,0,0
7,1,0,0,0,0,0,0,0,0,0,-1,1231,1023,0,0
14,1,0,0,0,0,0,0,0,0,0,-1,1238,1023,0,0
21,1,0,0,0,0,0,0,0,0,0,-1,1245,1023,0,0
28,1,0,0,0,0,0,0,0,0,0,-1,1252,1023,0,0
35,1,0,0,0,0,0,0,0,0,0,-1,1259,1023,0,0
42,1,0,0,0,0,0,0,0,0,0,-1,1266,1023,0,0
49,1,0,0,0,0,0,0,0,0,0,-1,1273,1023,0,0
56,1,0,0,0,0,0,0,0,0,0,-1,1280,1023,0,0
63,1,0,0,0,0,0,0,0,0,0,-1,1287,1023,0,0
70,1,0,0,0,0,0,0,0,0,0,-1,1294,1023,0,0
77,1,0,0,0,0,0,0,0,0,0,-1,1301,1023,0,0
84,1,0,0,0,0,0,0,0,0,0,-1,1308,1023,0,0
91,1,0,0,0,0,0,0,0,0,0,-1,1315,1023,0,0
98,1,0,0,0,0,0,0,0,0,0,-1,1322,1023,0,0
105,1,0,0,0,0,0,0,0,0,0,-1,1329,1023,0,0
112,1,0,0,0,0,0,0,0,0,0,-1,1336,1023,0,0
119,1,0,0,0,0,0,0,0,0,0,-1,1343,1023,0,0
126,1,0,0,0,0,0,0,0,0,0,-1,1350,1023,0,0
133,1,0,0,0,0,0,0,0,0,0,-1,1357,1023,0,0
140,1,0,0,0,0,0,0,0,0,0,-1,1364,1023,0,0
147,1,0,0,0,0,0,0,0,0,0,-1,1371,1023,0,0
154,1,0,0,0,0,0,0,0,0,0,-1,1378,1023,0,0
161,1,0,0,0,0,0,0,0,0,0,-1,1385,1023,0,0
168,1,0,0,0,0,0,0,0,0,0,-1,1392,1023,0,0
175,1,0,0,0,0,0,0,0,0,0,-1,1399,1023,0,0
182,1,0,0,0,0,0,0,0,0,0,-1,1406,1023,0,0
189,1,0,0,0,0,0,0,0,0,0,-1,1413,1023,0,0
196,1,0,0,0,0,0,0,0,0,0,-1,1420,1023,0,0
203,1,0,0,0,0,0,0,0,0,0,-1,1427,1023,0,0
210,1,0,0,0,0,0,0,0,0,0,-1,1434,1023,0,0
217,1,0,0,0,0,0,0,0,0,0,-1,1441,1023,0,0
224,1,0,0,0,0,0,0,0,0,0,-1,1448,1023,0,0
231,1,0,0,0,0,0,0,0,0,0,-1,1455,1023,0,0
238,1,0,0,0,0,0,0,0,0,0,-1,1462,1023,0,0
245,1,0,0,0,0,0,0,0,0,0,-1,1469,1023,0,0
252,1,0,0,0,0,0,0,0,0,0,-1,1476,1023,0,0
259,1,0,0,0,0,0,0,0,0,0,-1,1483,1023,0,0
266,1,0,0,0,0,0,0,0,0,0,-1,1490,1023,0,0
273,1,0,0,0,0,0,0,0,0,0,-1,1497,1023,0,0
280,1,0,0,0,0,0,0,0,0,0,-1,1504,1023,0,0
287,1,0,0,0,0,0,0,0,0,0,-1,1511,1023,0,0
294,1,0,0,0,0,0,0,0,0,0,-1,1518,1023,0,0
301,1,0,0,0,0,0,0,0,0,0,-1,1525,1023,0,0
308,1,0,0,0,0,0,0,0,0,0,-1,1532,1023,0,0
315,1,0,0,0,0,0,0,0,0,0,-1,1539,1023,0,0
322,1,0,0,0,0,0,0,0,0,0,-1,1546,1023,0,0
329,1,0,0,0,0,0,0,0,0,0,-1,1553,1023,0,0
336,1,0,0,0,0,0,0,0,0,0,-1,1560,1023,0,0
343,1,0,0,0,0,0,0,0,0,0,-1,1567,1023,0,0
350,1,0,0,0,0,0,0,0,0,0,-1,1574,1023,0,0
357,1,0,0,0,0,0,0,0,0,0,-1,1581,1023,0,0
364,1,0,0,0,0,0,0,0,0,0,-1,1588,1023,0,0
371,1,0,0,0,0,0,0,0,0,0,-1,1595,1023,0,0
378,1,0,0,0,0,0,0,0,0,0,-1,1602,1023,0,0
385,1,0,0,0,0,0,0,0,0,0,-1,1609,1023,0,0
392,1,0,0,0,0,0,0,0,0,0,-1,1616,1023,0,0
399,1,0,0,0,0,0,0,0,0,0,-1,1623,1023,0,0
406,1,0,0,0,0,0,0,0,0,0,-1,1630,1023,0,0
413,1,0,0,0,0,0,0,0,0,0,-1,1637,1023,0,0
420,1,0,0,0,0,0,0,0,0,0,-1,1644,1023,0,0
427,1,0,0,0,0,0,0,0,0,0,-1,1651,1023,0,0
434,1,0,0,0,0,0,0,0,0,0,-1,1658,1023,0,0
441,1,0,0,0,0,0,0,0,0,0,-1,1665,1023,0,0
448,1,0,0,0,0,0,0,0,0,0,-1,1672,1023,0,0
455,1,0,0,0,0,0,0,0,0,0,-1,1679,1023,0,0
462,1,0,0,0,0,0,0,0,0,0,-1,1686,1023,0,0
469,1,0,0,0,0,0,0,0,0,0,-1,1693,1023,0,0
476,1,0,0,0,0,0,0,0,0,0,-1,1700,1023,0,0
483,1,0,0,0,0,0,0,0,0,0,-1,1707,1023,0,0
490,1,0,0,0,0,0,0,0,0,0,-1,1714,1023,0,0
497,1,0,0,0,0,0,0,0,0,0,-1,1721,1023,0,0
504,1,0,0,0,0,0,0,0,0,0,-1,1728,1023,0,0
511,1,0,0,0,0,0,0,0,0,0,-1,1735,1023,0,0
518,1,0,0,0,0,0,0,0,0,0,-1,1742,1023,0,0
525,1,0,0,0,0,0,0,0,0,0,-1,1749,1023,0,0
532,1,0,0,0,0,0,0,0,0,0,-1,1756,1023,0,0
539,1,0,0,0,0,0,0,0,0,0,-1,1763,1023,0,0
546,1,0,0,0,0,0,0,0,0,0,-1,1770,1023,0,0
553,1,0,0,0,0,0,0,0,0,0,-1,1777,1023,0,0
560,1,0,0,0,0,0,0,0,0,0,-1,1784,1023,0,0
567,1,0,0,0,0,0,0,0,0,0,-1,1791,1023,0,0
574,1,0,0,0,0,0,0,0,0,0,-1,1798,1023,0,0
581,1,0,0,0,0,0,0,0,0,0,-1,1805,1023,0,0
588,1,0,0,0,0,0,0,0,0,0,-1,1812,1023,0,0
595,1,0,0,0,0,0,0,0,0,0,-1,1819,1023,0,0
602,1,0,0,0,0,0,0,0,0,0,-1,1826,1023,0,0
609,1,0,0,0,0,0,0,0,0,0,-1,1833,1023,0,0
616,1,0,0,0,0,0,0,0,0,0,-1,1840,1023,0,0
623,1,0,0,0,0,0,0,0,0,0,-1,1847,1023,0,0
630,1,0,0,0,0,0,0,0,0,0,-1,1854,1023,0,0
637,1,0,0,0,0,0,0,0,0,0,-1,1861,1023,0,0
644,1,0,0,0,0,0,0,0,0,0,-1,1868,1023,0,0
651,1,74.623,1.83417,0.0029442,0.00134962,-2.66889e-05,0.00294465,0.00134918,-0.016731,0.00170208,0.0362682,1875,1023,74.623,-1.83418
658,1,74.6505,1.90497,0.00166117,0.00142887,0.000530868,0.00208845,0.00100159,0.677698,0.0012061,0.0397463,1882,1023,74.6505,-1.90495
665,1,74.5988,2.25775,0.000743578,0.0014957,0.00079029,0.00199484,0.000244436,1.00747,0.00125637,0.0413676,1889,1023,74.5988,-2.25778
672,1,74.6836,2.55933,8.77291e-05,0.0015651,0.000892121,0.00198467,-0.000331832,1.13119,0.00144646,0.0445133,1896,1023,74.6836,-2.55936
679,1,74.5792,2.52972,-0.000364082,0.0015261,0.000932388,0.00190862,-0.0007466,1.18148,0.00158117,0.041126,1903,1023,74.5792,-2.52973
686,1,74.5033,2.30481,-0.000799918,0.00108614,0.000894419,0.00144284,-0.00115661,1.19132,0.00150382,0.0388916,1910,1023,74.5033,-2.30479
693,1,74.5231,2.31158,-0.00107989,0.000541578,0.000869889,0.00091996,-0.00145827,1.16051,0.00138475,0.0358656,1917,1023,74.523,-2.31159
700,1,74.484,2.354,-0.00120534,6.35512e-05,0.000916969,0.000544163,-0.00168595,1.08803,0.00134263,0.0306804,1924,1023,74.484,-2.35399
707,1,74.4114,2.27216,-0.0019489,0.000278639,0.000840539,0.000560214,-0.00223048,1.24755,0.00170469,0.0270082,1931,1023,74.4114,-2.27218
714,1,74.4358,2.18408,-0.00300268,0.00102784,0.000608227,0.00111762,-0.00309247,1.42424,0.00251826,0.0329442,1938,1023,74.4358,-2.18409
721,1,74.5479,2.19617,0,0,0,0,0,0,0,-1,1945,1023,74.5479,-2.19617
728,1,52.4639,5.59277,0,0,0,0,0,0,0,-1,1952,1023,52.4639,-5.59276
735,1,53.3617,6.10699,0,0,0,0,0,0,0,-1,1959,1023,53.3617,-6.10698
742,1,52.4393,5.81525,0,0,0,0,0,0,0,-1,1966,1023,52.4393,-5.81527
749,1,74.8947,6.96582,0,0,0,0,0,0,0,-1,1973,1023,74.8947,-6.96582
756,1,74.7754,7.159,-0.0099264,0.0134405,-0.00206695,0.013622,-0.0101078,-1.48325,0.0137504,0.0456188,1980,1023,74.7754,-7.15899
763,1,74.5554,7.02759,-0.0103522,0.0180325,-0.00343013,0.0184411,-0.0107608,-1.45223,0.017053,0.0185747,1987,1023,74.5553,-7.02761
770,1,74.4824,6.93439,-0.00888281,0.0240987,-0.00576683,0.025078,-0.00986206,-1.40259,0.0208005,0.0199542,1994,1023,74.4825,-6.93441
777,1,74.1606,6.79437,-0.0050986,0.0305833,-0.00903286,0.0327397,-0.00725495,-1.33646,0.0246039,0.0278642,2001,1023,74.1606,-6.79437
784,1,73.8413,6.64856,0,0,0,0,0,0,0,-1,2008,1023,73.8414,-6.64854
791,1,72.2021,6.55743,0,0,0,0,0,0,0,-1,2015,1023,72.202,-6.55744
798,1,71.4812,6.32281,0,0,0,0,0,0,0,-1,2022,1023,71.4812,-6.3228
805,1,72.9294,2.81091,0,0,0,0,0,0,0,-1,2029,1023,72.9295,-2.8109
812,1,71.8843,1.81885,0,0,0,0,0,0,0,-1,2036,1023,71.8842,-1.81886
-700,-6,0,0,0,0,0,0,0,0,0,-1,524,1030,0,0
-693,-6,-67.2183,-5.43787,0,0,0,0,0,0,0,-1,531,1030,-67.2183,5.43784
-686,-6,-66.2718,-3.52441,0,0,0,0,0,0,0,-1,538,1030,-66.2718,3.5244
-679,-6,-56.519,1.1947,0.384964,0.0681322,0.0937475,0.410625,0.0424716,0.267177,0.260748,0.0459012,545,1030,-56.519,-1.19472
-672,-6,-56.8263,1.5835,0.296937,0.0633338,0.0784104,0.320815,0.0394556,0.295606,0.202013,0.0469768,552,1030,-56.8263,-1.58345
-665,-6,-56.9084,2.08838,0.22262,0.0572566,0.0637594,0.244349,0.035528,0.328448,0.152443,0.0483323,559,1030,-56.9084,-2.08838
-658,-6,-58.9435,4.78992,0,0,0,0,0,0,0,-1,566,1030,-58.9435,-4.78993
-651,-6,-58.5959,5.01733,0,0,0,0,0,0,0,-1,573,1030,-58.596,-5.01734
-644,-6,-58.2484,5.24475,0,0,0,0,0,0,0,-1,580,1030,-58.2484,-5.24476
-637,-6,-58.8242,5.65967,0,0,0,0,0,0,0,-1,587,1030,-58.8241,-5.65969
-630,-6,-58.7305,5.5459,0.00507409,0.0205677,0.00978344,0.0253,0.000341763,1.12027,0.0167539,0.0280194,594,1030,-58.7305,-5.54593
-623,-6,-58.6993,5.63159,-0.00718151,0.0110692,0.00273258,0.0114695,-0.00758186,1.42532,0.0110754,0.0211723,601,1030,-58.6993,-5.63154
-616,-6,-58.8052,5.64014,-0.00515583,0.00324409,-0.000581997,0.00328422,-0.00519597,-1.50195,0.00493733,0.0243067,608,1030,-58.8052,-5.64019
-609,-6,-58.7971,5.79419,-0.00370352,-0.00476766,-0.00258717,-0.00159427,-0.0068769,-0.683984,0.00415638,0.0237521,615,1030,-58.7971,-5.79419
-602,-6,-58.6487,5.93884,-0.00282099,-0.0125795,-0.00367146,-0.00159395,-0.0138065,-0.322538,0.00872173,0.0149243,622,1030,-58.6487,-5.93881
-595,-6,-58.6881,6.039,0,0,0,0,0,0,0,-1,629,1030,-58.6881,-6.039
-588,-6,-57.3917,0.260498,0,0,0,0,0,0,0,-1,636,1030,-57.3917,-0.260489
-581,-6,-57.4321,0.20459,0,0,0,0,0,0,0,-1,643,1030,-57.432,-0.204557
-574,-6,-57.4708,0.231323,0,0,0,0,0,0,0,-1,650,1030,-57.4708,-0.231314
-567,-6,-57.5064,0.0606689,0,0,0,0,0,0,0,-1,657,1030,-57.5064,-0.0606585
-560,-6,-57.4253,-0.078125,0,0,0,0,0,0,0,-1,664,1030,-57.4253,0.0781837
-553,-6,-57.3429,-0.0189209,0,0,0,0,0,0,0,-1,671,1030,-57.3429,0.0189196
-546,-6,-57.2898,0.259888,0,0,0,0,0,0,0,-1,678,1030,-57.2898,-0.259868
-539,-6,-57.237,0.375488,0,0,0,0,0,0,0,-1,685,1030,-57.237,-0.375521
-532,-6,-57.363,0.352295,0,0,0,0,0,0,0,-1,692,1030,-57.3631,-0.352277
-525,-6,0,0,0,0,0,0,0,0,0,-1,699,1030,0,0
-518,-6,0,0,0,0,0,0,0,0,0,-1,706,1030,0,0
-511,-6,0,0,0,0,0,0,0,0,0,-1,713,1030,0,0
-504,-6,0,0,0,0,0,0,0,0,0,-1,720,1030,0,0
-497,-6,0,0,0,0,0,0,0,0,0,-1,727,1030,0,0
-490,-6,0,0,0,0,0,0,0,0,0,-1,734,1030,0,0
-483,-6,0,0,0,0,0,0,0,0,0,-1,741,1030,0,0
-476,-6,0,0,0,0,0,0,0,0,0,-1,748,1030,0,0
-469,-6,0,0,0,0,0,0,0,0,0,-1,755,1030,0,0
-462,-6,0,0,0,0,0,0,0,0,0,-1,762,1030,0,0
-455,-6,0,0,0,0,0,0,0,0,0,-1,769,1030,0,0
-448,-6,0,0,0,0,0,0,0,0,0,-1,776,1030,0,0
-441,-6,0,0,0,0,0,0,0,0,0,-1,783,1030,0,0
-434,-6,0,0,0,0,0,0,0,0,0,-1,790,1030,0,0
-427,-6,0,0,0,0,0,0,0,0,0,-1,797,1030,0,0
-420,-6,0,0,0,0,0,0,0,0,0,-1,804,1030,0,0
-413,-6,0,0,0,0,0,0,0,0,0,-1,811,1030,0,0
-406,-6,0,0,0,0,0,0,0,0,0,-1,818,1030,0,0
-399,-6,0,0,0,0,0,0,0,0,0,-1,825,1030,0,0
-392,-6,0,0,0,0,0,0,0,0,0,-1,832,1030,0,0
-385,-6,0,0,0,0,0,0,0,0,0,-1,839,1030,0,0
-378,-6,0,0,0,0,0,0,0,0,0,-1,846,1030,0,0
-371,-6,0,0,0,0,0,0,0,0,0,-1,853,1030,0,0
-364,-6,0,0,0,0,0,0,0,0,0,-1,860,1030,0,0
-357,-6,0,0,0,0,0,0,0,0,0,-1,867,1030,0,0
-350,-6,0,0,0,0,0,0,0,0,0,-1,874,1030,0,0
-343,-6,0,0,0,0,0,0,0,0,0,-1,881,1030,0,0
-336,-6,0,0,0,0,0,0,0,0,0,-1,888,1030,0,0
-329,-6,0,0,0,0,0,0,0,0,0,-1,895,1030,0,0
-322,-6,0,0,0,0,0,0,0,0,0,-1,902,1030,0,0
-315,-6,0,0,0,0,0,0,0,0,0,-1,909,1030,0,0
-308,-6,0,0,0,0,0,0,0,0,0,-1,916,1030,0,0
-301,-6,0,0,0,0,0,0,0,0,0,-1,923,1030,0,0
-294,-6,0,0,0,0,0,0,0,0,0,-1,930,1030,0,0
-287,-6,0,0,0,0,0,0,0,0,0,-1,937,1030,0,0
-280,-6,0,0,0,0,0,0,0,0,0,-1,944,1030,0,0
-273,-6,0,0,0,0,0,0,0,0,0,-1,951,1030,0,0
-266,-6,0,0,0,0,0,0,0,0,0,-1,958,1030,0,0
-259,-6,0,0,0,0,0,0,0,0,0,-1,965,1030,0,0
-252,-6,0,0,0,0,0,0,0,0,0,-1,972,1030,0,0
-245,-6,0,0,0,0,0,0,0,0,0,-1,979,1030,0,0
-238,-6,0,0,0,0,0,0,0,0,0,-1,986,1030,0,0
-231,-6,0,0,0,0,0,0,0,0,0,-1,993,1030,0,0
-224,-6,0,0,0,0,0,0,0,0,0,-1,1000,1030,0,0
-217,-6,0,0,0,0,0,0,0,0,0,-1,1007,1030,0,0
-210,-6,0,0,0,0,0,0,0,0,0,-1,1014,1030,0,0
-203,-6,0,0,0,0,0,0,0,0,0,-1,1021,1030,0,0
-196,-6,0,0,0,0,0,0,0,0,0,-1,1028,1030,0,0
-189,-6,0,0,0,0,0,0,0,0,0,-1,1035,1030,0,0
-182,-6,0,0,0,0,0,0,0,0,0,-1,1042,1030,0,0
-175,-6,0,0,0,0,0,0,0,0,0,-1,1049,1030,0,0
-168,-6,0,0,0,0,0,0,0,0,0,-1,1056,1030,0,0
-161,-6,0,0,0,0,0,0,0,0,0,-1,1063,1030,0,0
-154,-6,0,0,0,0,0,0,0,0,0,-1,1070,1030,0,0
-147,-6,0,0,0,0,0,0,0,0,0,-1,1077,1030,0,0
-140,-6,0,0,0,0,0,0,0,0,0,-1,1084,1030,0,0
-133,-6,0,0,0,0,0,0,0,0,0,-1,1091,1030,0,0
-126,-6,0,0,0,0,0,0,0,0,0,-1,1098,1030,0,0
-119,-6,0,0,0,0,0,0,0,0,0,-1,1105,1030,0,0
-112,-6,0,0,0,0,0,0,0,0,0,-1,1112,1030,0,0
-105,-6,0,0,0,0,0,0,0,0,0,-1,1119,1030,0,0
-98,-6,0,0,0,0,0,0,0,0,0,-1,1126,1030,0,0
-91,-6,0,0,0,0,0,0,0,0,0,-1,1133,1030,0,0
-84,-6,0,0,0,0,0,0,0,0,0,-1,1140,1030,0,0
-77,-6,0,0,0,0,0,0,0,0,0,-1,1147,1030,0,0
-70,-6,0,0,0,0,0,0,0,0,0,-1,1154,1030,0,0
-63,-6,0,0,0,0,0,0,0,0,0,-1,1161,1030,0,0
-56,-6,0,0,0,0,0,0,0,0,0,-1,1168,1030,0,0
-49,-6,0,0,0,0,0,0,0,0,0,-1,1175,1030,0,0
-42,-6,0,0,0,0,0,0,0,0,0,-1,1182,1030,0,0
-35,-6,0,0,0,0,0,0,0,0,0,-1,1189,1030,0,0
-28,-6,0,0,0,0,0,0,0,0,0,-1,1196,1030,0,0
-21,-6,0,0,0,0,0,0,0,0,0,-1,1203,1030,0,0
-14,-6,0,0,0,0,0,0,0,0,0,-1,1210,1030,0,0
-7,-6,0,0,0,0,0,0,0,0,0,-1,1217,1030,0,0
0,-6,0,0,0,0,0,0,0,0,0,-1,1224,1030,0,0
7,-6,0,0,0,0,0,0,0,0,0,-1,1231,1030,0,0
14,-6,0,0,0,0,0,0,0,0,0,-1,1238,1030,0,0
21,-6,0,0,0,0,0,0,0,0,0,-1,1245,1030,0,0
28,-6,0,0,0,0,0,0,0,0,0,-1,1252,1030,0,0
35,-6,0,0,0,0,0,0,0,0,0,-1,1259,1030,0,0
42,-6,0,0,0,0,0,0,0,0,0,-1,1266,1030,0,0
49,-6,0,0,0,0,0,0,0,0,0,-1,1273,1030,0,0
56,-6,0,0,0,0,0,0,0,0,0,-1,1280,1030,0,0
63,-6,0,0,0,0,0,0,0,0,0,-1,1287,1030,0,0
70,-6,0,0,0,0,0,0,0,0,0,-1,1294,1030,0,0
77,-6,0,0,0,0,0,0,0,0,0,-1,1301,1030,0,0
84,-6,0,0,0,0,0,0,0,0,0,-1,1308,1030,0,0
91,-6,0,0,0,0,0,0,0,0,0,-1,1315,1030,0,0
98,-6,0,0,0,0,0,0,0,0,0,-1,1322,1030,0,0
105,-6,0,0,0,0,0,0,0,0,0,-1,1329,1030,0,0
112,-6,0,0,0,0,0,0,0,0,0,-1,1336,1030,0,0
119,-6,0,0,0,0,0,0,0,0,0,-1,1343,1030,0,0
126,-6,0,0,0,0,0,0,0,0,0,-1,1350,1030,0,0
133,-6,0,0,0,0,0,0,0,0,0,-1,1357,1030,0,0
140,-6,0,0,0,0,0,0,0,0,0,-1,1364,1030,0,0
147,-6,0,0,0,0,0,0,0,0,0,-1,1371,1030,0,0
154,-6,0,0,0,0,0,0,0,0,0,-1,1378,1030,0,0
161,-6,0,0,0,0,0,0,0,0,0,-1,1385,1030,0,0
168,-6,0,0,0,0,0,0,0,0,0,-1,1392,1030,0,0
175,-6,0,0,0,0,0,0,0,0,0,-1,1399,1030,0,0
182,-6,0,0,0,0,0,0,0,0,0,-1,1406,1030,0,0
189,-6,0,0,0,0,0,0,0,0,0,-1,1413,1030,0,0
196,-6,0,0,0,0,0,0,0,0,0,-1,1420,1030,0,0
203,-6,0,0,0,0,0,0,0,0,0,-1,1427,1030,0,0
210,-6,0,0,0,0,0,0,0,0,0,-1,1434,1030,0,0
217,-6,0,0,0,0,0,0,0,0,0,-1,1441,1030,0,0
224,-6,0,0,0,0,0,0,0,0,0,-1,1448,1030,0,0
231,-6,0,0,0,0,0,0,0,0,0,-1,1455,1030,0,0
238,-6,0,0,0,0,0,0,0,0,0,-1,1462,1030,0,0
245,-6,0,0,0,0,0,0,0,0,0,-1,1469,1030,0,0
252,-6,0,0,0,0,0,0,0,0,0,-1,1476,1030,0,0
259,-6,0,0,0,0,0,0,0,0,0,-1,1483,1030,0,0
266,-6,0,0,0,0,0,0,0,0,0,-1,1490,1030,0,0
273,-6,0,0,0,0,0,0,0,0,0,-1,1497,1030,0,0
280,-6,0,0,0,0,0,0,0,0,0,-1,1504,1030,0,0
287,-6,0,0,0,0,0,0,0,0,0,-1,1511,1030,0,0
294,-6,0,0,0,0,0,0,0,0,0,-1,1518,1030,0,0
301,-6,0,0,0,0,0,0,0,0,0,-1,1525,1030,0,0
308,-6,0,0,0,0,0,0,0,0,0,-1,1532,1030,0,0
315,-6,0,0,0,0,0,0,0,0,0,-1,1539,1030,0,0
322,-6,0,0,0,0,0,0,0,0,0,-1,1546,1030,0,0
329,-6,0,0,0,0,0,0,0,0,0,-1,1553,1030,0,0
336,-6,0,0,0,0,0,0,0,0,0,-1,1560,1030,0,0
343,-6,0,0,0,0,0,0,0,0,0,-1,1567,1030,0,0
350,-6,0,0,0,0,0,0,0,0,0,-1,1574,1030,0,0
357,-6,0,0,0,0,0,0,0,0,0,-1,1581,1030,0,0
364,-6,0,0,0,0,0,0,0,0,0,-1,1588,1030,0,0
371,-6,0,0,0,0,0,0,0,0,0,-1,1595,1030,0,0
378,-6,0,0,0,0,0,0,0,0,0,-1,1602,1030,0,0
385,-6,0,0,0,0,0,0,0,0,0,-1,1609,1030,0,0
392,-6,0,0,0,0,0,0,0,0,0,-1,1616,1030,0,0
399,-6,0,0,0,0,0,0,0,0,0,-1,1623,1030,0,0
406,-6,0,0,0,0,0,0,0,0,0,-1,1630,1030,0,0
413,-6,0,0,0,0,0,0,0,0,0,-1,1637,1030,0,0
420,-6,0,0,0,0,0,0,0,0,0,-1,1644,1030,0,0
427,-6,0,0,0,0,0,0,0,0,0,-1,1651,1030,0,0
434,-6,0,0,0,0,0,0,0,0,0,-1,1658,1030,0,0
441,-6,0,0,0,0,0,0,0,0,0,-1,1665,1030,0,0
448,-6,0,0,0,0,0,0,0,0,0,-1,1672,1030,0,0
455,-6,0,0,0,0,0,0,0,0,0,-1,1679,1030,0,0
462,-6,0,0,0,0,0,0,0,0,0,-1,1686,1030,0,0
469,-6,0,0,0,0,0,0,0,0,0,-1,1693,1030,0,0
476,-6,0,0,0,0,0,0,0,0,0,-1,1700,1030,0,0
483,-6,0,0,0,0,0,0,0,0,0,-1,1707,1030,0,0
490,-6,0,0,0,0,0,0,0,0,0,-1,1714,1030,0,0
497,-6,0,0,0,0,0,0,0,0,0,-1,1721,1030,0,0
504,-6,0,0,0,0,0,0,0,0,0,-1,1728,1030,0,0
511,-6,0,0,0,0,0,0,0,0,0,-1,1735,1030,0,0
518,-6,0,0,0,0,0,0,0,0,0,-1,1742,1030,0,0
525,-6,0,0,0,0,0,0,0,0,0,-1,1749,1030,0,0
532,-6,0,0,0,0,0,0,0,0,0,-1,1756,1030,0,0
539,-6,0,0,0,0,0,0,0,0,0,-1,1763,1030,0,0
546,-6,0,0,0,0,0,0,0,0,0,-1,1770,1030,0,0
553,-6,0,0,0,0,0,0,0,0,0,-1,1777,1030,0,0
560,-6,0,0,0,0,0,0,0,0,0,-1,1784,1030,0,0
567,-6,0,0,0,0,0,0,0,0,0,-1,1791,1030,0,0
574,-6,0,0,0,0,0,0,0,0,0,-1,1798,1030,0,0
581,-6,0,0,0,0,0,0,0,0,0,-1,1805,1030,0,0
588,-6,0,0,0,0,0,0,0,0,0,-1,1812,1030,0,0
595,-6,0,0,0,0,0,0,0,0,0,-1,1819,1030,0,0
602,-6,0,0,0,0,0,0,0,0,0,-1,1826,1030,0,0
609,-6,0,0,0,0,0,0,0,0,0,-1,1833,1030,0,0
616,-6,0,0,0,0,0,0,0,0,0,-1,1840,1030,0,0
623,-6,0,0,0,0,0,0,0,0,0,-1,1847,1030,0,0
630,-6,0,0,0,0,0,0,0,0,0,-1,1854,1030,0,0
637,-6,0,0,0,0,0,0,0,0,0,-1,1861,1030,0,0
644,-6,0,0,0,0,0,0,0,0,0,-1,1868,1030,0,0
651,-6,74.7977,1.91602,0.00274907,0.000271103,2.00161e-05,0.00274923,0.000270942,0.00807693,0.00174951,0.0371717,1875,1030,74.7977,-1.91597
658,-6,74.8104,1.93823,0.00146314,0.000541146,0.000471393,0.00166149,0.000342803,0.398273,0.00101291,0.0392278,1882,1030,74.8104,-1.93823
665,-6,74.653,2.03857,0.000540133,0.000771811,0.000684562,0.00135026,-3.83215e-05,0.869212,0.000913219,0.0411644,1889,1030,74.653,-2.03862
672,-6,74.6403,2.20276,-9.64988e-05,0.000995606,0.000792897,0.00141229,-0.000513181,1.08694,0.00115136,0.0399274,1896,1030,74.6402,-2.20271
679,-6,74.5476,2.52173,-0.000543671,0.00112744,0.000866299,0.00149547,-0.000911705,1.16907,0.00140334,0.0405428,1903,1030,74.5476,-2.52172
686,-6,74.4274,2.25366,-0.00102767,0.000825763,0.00087671,0.00117475,-0.00137666,1.19196,0.00147459,0.0373135,1910,1030,74.4274,-2.25362
693,-6,74.4545,2.22083,-0.0013395,0.000392556,0.000911105,0.000783555,-0.0017305,1.16542,0.00148541,0.0345334,1917,1030,74.4544,-2.22084
700,-6,74.4333,2.24158,-0.00147202,-2.28533e-05,0.00102709,0.000509518,-0.00200439,1.09259,0.00153456,0.03127,1924,1030,74.4333,-2.24155
707,-6,74.4181,2.26367,-0.00222122,0.00019715,0.00101787,0.00056853,-0.0025926,1.22094,0.00194579,0.0302496,1931,1030,74.418,-2.26365
714,-6,74.4327,2.09119,-0.00325038,0.000939699,0.000864371,0.00111101,-0.00342169,1.37514,0.00272795,0.0424139,1938,1030,74.4327,-2.09115
721,-6,74.4823,1.97241,0,0,0,0,0,0,0,-1,1945,1030,74.4824,-1.97246
728,-6,53.1713,6.25494,0,0,0,0,0,0,0,-1,1952,1030,53.1713,-6.25495
735,-6,74.5072,7.19299,0,0,0,0,0,0,0,-1,1959,1030,74.5072,-7.19302
742,-6,74.6567,7.44336,0,0,0,0,0,0,0,-1,1966,1030,74.6568,-7.44337
749,-6,74.679,7.31683,0,0,0,0,0,0,0,-1,1973,1030,74.6789,-7.31683
756,-6,74.7026,6.96826,-0.00983396,0.0133624,-0.00152695,0.0134625,-0.00993405,-1.50535,0.0135591,0.0384132,1980,1030,74.7027,-6.96823
763,-6,74.4805,6.82855,-0.0101426,0.0180897,-0.00288572,0.0183816,-0.0104345,-1.46997,0.0168466,0.0239869,1987,1030,74.4805,-6.82856
770,-6,74.3528,6.73248,-0.00856825,0.0245575,-0.00529615,0.0253837,-0.00939439,-1.41605,0.0207745,0.0205638,1994,1030,74.3529,-6.73248
777,-6,74.2183,6.65851,-0.0046882,0.0318648,-0.00876947,0.0338598,-0.00668321,-1.34711,0.0250993,0.0211616,2001,1030,74.2182,-6.6585
784,-6,74.0908,6.5321,0.00149699,0.0392187,-0.013189,0.0433726,-0.00265698,-1.26568,0.0298402,0.0484125,2008,1030,74.0907,-6.53208
791,-6,73.9841,6.40192,0,0,0,0,0,0,0,-1,2015,1030,73.9842,-6.40191
798,-6,74.5796,5.54614,0,0,0,0,0,0,0,-1,2022,1030,74.5796,-5.54612
805,-6,73.0505,2.79187,0,0,0,0,0,0,0,-1,2029,1030,73.0504,-2.79185
812,-6,75.9521,5.96399,0,0,0,0,0,0,0,-1,2036,1030,75.9521,-5.96398
-700,-13,0,0,0,0,0,0,0,0,0,-1,524,1037,0,0
-693,-13,-66.1397,-5.81311,0,0,0,0,0,0,0,-1,531,1037,-66.1397,5.81308
-686,-13,-66.0693,-3.97852,0,0,0,0,0,0,0,-1,538,1037,-66.0693,3.97855
-679,-13,-65.2463,-2.0094,0,0,0,0,0,0,0,-1,545,1037,-65.2463,2.00935
-672,-13,-56.6397,2.34387,0.249903,0.0621056,0.0677031,0.271765,0.040243,0.312349,0.169364,0.04922,552,1037,-56.6397,-2.34386
-665,-13,-56.9384,2.83118,0.18848,0.056315,0.0559252,0.208968,0.0358266,0.351169,0.129039,0.0482146,559,1037,-56.9384,-2.83121
-658,-13,-58.6813,4.86255,0,0,0,0,0,0,0,-1,566,1037,-58.6814,-4.86254
-651,-13,-58.4377,4.89038,0.0944218,0.0423955,0.0343432,0.111492,0.0253257,0.461273,0.0674888,0.0413627,573,1037,-58.4378,-4.89038
-644,-13,-58.2118,5.11829,0.0600922,0.0348117,0.0249351,0.0754079,0.0194959,0.550812,0.0451973,0.0368946,580,1037,-58.2118,-5.11833
-637,-13,-58.3484,5.26599,0.0350997,0.0279914,0.0175055,0.0494082,0.0136829,0.685245,0.0294569,0.0309496,587,1037,-58.3484,-5.26595
-630,-13,-58.5226,5.32446,0.00446623,0.0200184,0.00901889,0.0241506,0.000334007,1.14117,0.0159902,0.0186954,594,1037,-58.5226,-5.32447
-623,-13,-58.5748,5.52734,-0.00602135,0.010696,0.00226693,0.0109979,-0.0063233,1.43838,0.0101211,0.0153169,601,1037,-58.5748,-5.52737
-616,-13,-58.5894,5.72803,-0.00384696,0.00281011,-0.00123201,0.0030308,-0.00406765,-1.39355,0.00411284,0.0139274,608,1037,-58.5894,-5.72803
-609,-13,-58.5692,5.87732,-0.00232148,-0.00498842,-0.00347424,6.64012e-05,-0.0073763,-0.602159,0.00493982,0.0180064,615,1037,-58.5692,-5.87731
-602,-13,-58.5128,6.01025,-0.00122233,-0.0125002,-0.00463196,0.00043617,-0.0141587,-0.343834,0.00958786,0.0136591,622,1037,-58.5128,-6.01022
-595,-13,-58.5212,6.11389,0,0,0,0,0,0,0,-1,629,1037,-58.5212,-6.11393
-588,-13,-57.3215,0.289185,0,0,0,0,0,0,0,-1,636,1037,-57.3215,-0.289205
-581,-13,-57.416,0.102417,0,0,0,0,0,0,0,-1,643,1037,-57.416,-0.102402
-574,-13,-57.4606,0.088501,0,0,0,0,0,0,0,-1,650,1037,-57.4606,-0.0884727
-567,-13,-57.5446,-0.0445557,0,0,0,0,0,0,0,-1,657,1037,-57.5446,0.044541
-560,-13,-57.532,-0.362793,0,0,0,0,0,0,0,-1,664,1037,-57.532,0.362737
-553,-13,-57.3245,-0.215332,0,0,0,0,0,0,0,-1,671,1037,-57.3245,0.215376
-546,-13,-57.2688,0.29248,0,0,0,0,0,0,0,-1,678,1037,-57.2688,-0.292472
-539,-13,-57.2808,0.404297,0,0,0,0,0,0,0,-1,685,1037,-57.2808,-0.404304
-532,-13,-57.2834,0.22522,0,0,0,0,0,0,0,-1,692,1037,-57.2834,-0.225264
-525,-13,0,0,0,0,0,0,0,0,0,-1,699,1037,0,0
-518,-13,0,0,0,0,0,0,0,0,0,-1,706,1037,0,0
-511,-13,0,0,0,0,0,0,0,0,0,-1,713,1037,0,0
-504,-13,0,0,0,0,0,0,0,0,0,-1,720,1037,0,0
-497,-13,0,0,0,0,0,0,0,0,0,-1,727,1037,0,0
-490,-13,0,0,0,0,0,0,0,0,0,-1,734,1037,0,0
-483,-13,0,0,0,0,0,0,0,0,0,-1,741,1037,0,0
-476,-13,0,0,0,0,0,0,0,0,0,-1,748,1037,0,0
-469,-13,0,0,0,0,0,0,0,0,0,-1,755,1037,0,0
-462,-13,0,0,0,0,0,0,0,0,0,-1,762,1037,0,0
-455,-13,0,0,0,0,0,0,0,0,0,-1,769,1037,0,0
-448,-13,0,0,0,0,0,0,0,0,0,-1,776,1037,0,0
-441,-13,0,0,0,0,0,0,0,0,0,-1,783,1037,0,0
-434,-13,0,0,0,0,0,0,0,0,0,-1,790,1037,0,0
-427,-13,0,0,0,0,0,0,0,0,0,-1,797,1037,0,0
-420,-13,0,0,0,0,0,0,0,0,0,-1,804,1037,0,0
-413,-13,0,0,0,0,0,0,0,0,0,-1,811,1037,0,0
-406,-13,0,0,0,0,0,0,0,0,0,-1,818,1037,0,0
-399,-13,0,0,0,0,0,0,0,0,0,-1,825,1037,0,0
-392,-13,0,0,0,0,0,0,0,0,0,-1,832,1037,0,0
-385,-13,0,0,0,0,0,0,0,0,0,-1,839,1037,0,0
-378,-13,0,0,0,0,0,0,0,0,0,-1,846,1037,0,0
-371,-13,0,0,0,0,0,0,0,0,0,-1,853,1037,0,0
-364,-13,0,0,0,0,0,0,0,0,0,-1,860,1037,0,0
-357,-13,0,0,0,0,0,0,0,0,0,-1,867,1037,0,0
-350,-13,0,0,0,0,0,0,0,0,0,-1,874,1037,0,0
-343,-13,0,0,0,0,0,0,0,0,0,-1,881,1037,0,0
-336,-13,0,0,0,0,0,0,0,0,0,-1,888,1037,0,0
-329,-13,0,0,0,0,0,0,0,0,0,-1,895,1037,0,0
-322,-13,0,0,0,0,0,0,0,0,0,-1,902,1037,0,0
-315,-13,0,0,0,0,0,0,0,0,0,-1,909,1037,0,0
-308,-13,0,0,0,0,0,0,0,0,0,-1,916,1037,0,0
-301,-13,0,0,0,0,0,0,0,0,0,-1,923,1037,0,0
-294,-13,0,0,0,0,0,0,0,0,0,-1,930,1037,0,0
-287,-13,0,0,0,0,0,0,0,0,0,-1,937,1037,0,0
-280,-13,0,0,0,0,0,0,0,0,0,-1,944,1037,0,0
-273,-13,0,0,0,0,0,0,0,0,0,-1,951,1037,0,0
-266,-13,0,0,0,0,0,0,0,0,0,-1,958,1037,0,0
-259,-13,0,0,0,0,0,0,0,0,0,-1,965,1037,0,0
-252,-13,0,0,0,0,0,0,0,0,0,-1,972,1037,0,0
-245,-13,0,0,0,0,0,0,0,0,0,-1,979,1037,0,0
-238,-13,0,0,0,0,0,0,0,0,0,-1,986,1037,0,0
-231,-13,0,0,0,0,0,0,0,0,0,-1,993,1037,0,0
-224,-13,0,0,0,0,0,0,0,0,0,-1,1000,1037,0,0
-217,-13,0,0,0,0,0,0,0,0,0,-1,1007,1037,0,0
-210,-13,0,0,0,0,0,0,0,0,0,-1,1014,1037,0,0
-203,-13,0,0,0,0,0,0,0,0,0,-1,1021,1037,0,0
-196,-13,0,0,0,0,0,0,0,0,0,-1,1028,1037,0,0
-189,-13,0,0,0,0,0,0,0,0,0,-1,1035,1037,0,0
-182,-13,0,0,0,0,0,0,0,0,0,-1,1042,1037,0,0
-175,-13,0,0,0,0,0,0,0,0,0,-1,1049,1037,0,0
-168,-13,0,0,0,0,0,0,0,0,0,-1,1056,1037,0,0
-161,-13,0,0,0,0,0,0,0,0,0,-1,1063,1037,0,0
-154,-13,0,0,0,0,0,0,0,0,0,-1,1070,1037,0,0
-147,-13,0,0,0,0,0,0,0,0,0,-1,1077,1037,0,0
-140,-13,0,0,0,0,0,0,0,0,0,-1,1084,1037,0,0
-133,-13,0,0,0,0,0,0,0,0,0,-1,1091,1037,0,0
-126,-13,0,0,0,0,0,0,0,0,0,-1,1098,1037,0,0
-119,-13,0,0,0,0,0,0,0,0,0,-1,1105,1037,0,0
-112,-13,0,0,0,0,0,0,0,0,0,-1,1112,1037,0,0
-105,-13,0,0,0,0,0,0,0,0,0,-1,1119,1037,0,0
-98,-13,0,0,0,0,0,0,0,0,0,-1,1126,1037,0,0
-91,-13,0,0,0,0,0,0,0,0,0,-1,1133,1037,0,0
-84,-13,0,0,0,0,0,0,0,0,0,-1,1140,1037,0,0
-77,-13,0,0,0,0,0,0,0,0,0,-1,1147,1037,0,0
-70,-13,0,0,0,0,0,0,0,0,0,-1,1154,1037,0,0
-63,-13,0,0,0,0,0,0,0,0,0,-1,1161,1037,0,0
-56,-13,0,0,0,0,0,0,0,0,0,-1,1168,1037,0,0
-49,-13,0,0,0,0,0,0,0,0,0,-1,1175,1037,0,0
-42,-13,0,0,0,0,0,0,0,0,0,-1,1182,1037,0,0
-35,-13,0,0,0,0,0,0,0,0,0,-1,1189,1037,0,0
-28,-13,0,0,0,0,0,0,0,0,0,-1,1196,1037,0,0
-21,-13,0,0,0,0,0,0,0,0,0,-1,1203,1037,0,0
-14,-13,0,0,0,0,0,0,0,0,0,-1,1210,1037,0,0
-7,-13,0,0,0,0,0,0,0,0,0,-1,1217,1037,0,0
0,-13,0,0,0,0,0,0,0,0,0,-1,1224,1037,0,0
7,-13,0,0,0,0,0,0,0,0,0,-1,1231,1037,0,0
14,-13,0,0,0,0,0,0,0,0,0,-1,1238,1037,0,0
21,-13,0,0,0,0,0,0,0,0,0,-1,1245,1037,0,0
28,-13,0,0,0,0,0,0,0,0,0,-1,1252,1037,0,0
35,-13,0,0,0,0,0,0,0,0,0,-1,1259,1037,0,0
42,-13,0,0,0,0,0,0,0,0,0,-1,1266,1037,0,0
49,-13,0,0,0,0,0,0,0,0,0,-1,1273,1037,0,0
56,-13,0,0,0,0,0,0,0,0,0,-1,1280,1037,0,0
63,-13,0,0,0,0,0,0,0,0,0,-1,1287,1037,0,0
70,-13,0,0,0,0,0,0,0,0,0,-1,1294,1037,0,0
77,-13,0,0,0,0,0,0,0,0,0,-1,1301,1037,0,0
84,-13,0,0,0,0,0,0,0,0,0,-1,1308,1037,0,0
91,-13,0,0,0,0,0,0,0,0,0,-1,1315,1037,0,0
98,-13,0,0,0,0,0,0,0,0,0,-1,1322,1037,0,0
105,-13,0,0,0,0,0,0,0,0,0,-1,1329,1037,0,0
112,-13,0,0,0,0,0,0,0,0,0,-1,1336,1037,0,0
119,-13,0,0,0,0,0,0,0,0,0,-1,1343,1037,0,0
126,-13,0,0,0,0,0,0,0,0,0,-1,1350,1037,0,0
133,-13,0,0,0,0,0,0,0,0,0,-1,1357,1037,0,0
140,-13,0,0,0,0,0,0,0,0,0,-1,1364,1037,0,0
147,-13,0,0,0,0,0,0,0,0,0,-1,1371,1037,0,0
154,-13,0,0,0,0,0,0,0,0,0,-1,1378,1037,0,0
161,-13,0,0,0,0,0,0,0,0,0,-1,1385,1037,0,0
168,-13,0,0,0,0,0,0,0,0,0,-1,1392,1037,0,0
175,-13,0,0,0,0,0,0,0,0,0,-1,1399,1037,0,0
182,-13,0,0,0,0,0,0,0,0,0,-1,1406,1037,0,0
189,-13,0,0,0,0,0,0,0,0,0,-1,1413,1037,0,0
196,-13,0,0,0,0,0,0,0,0,0,-1,1420,1037,0,0
203,-13,0,0,0,0,0,0,0,0,0,-1,1427,1037,0,0
210,-13,0,0,0,0,0,0,0,0,0,-1,1434,1037,0,0
217,-13,0,0,0,0,0,0,0,0,0,-1,1441,1037,0,0
224,-13,0,0,0,0,0,0,0,0,0,-1,1448,1037,0,0
231,-13,0,0,0,0,0,0,0,0,0,-1,1455,1037,0,0
238,-13,0,0,0,0,0,0,0,0,0,-1,1462,1037,0,0
245,-13,0,0,0,0,0,0,0,0,0,-1,1469,1037,0,0
252,-13,0,0,0,0,0,0,0,0,0,-1,1476,1037,0,0
259,-13,0,0,0,0,0,0,0,0,0,-1,1483,1037,0,0
266,-13,0,0,0,0,0,0,0,0,0,-1,1490,1037,0,0
273,-13,0,0,0,0,0,0,0,0,0,-1,1497,1037,0,0
280,-13,0,0,0,0,0,0,0,0,0,-1,1504,1037,0,0
287,-13,0,0,0,0,0,0,0,0,0,-1,1511,1037,0,0
294,-13,0,0,0,0,0,0,0,0,0,-1,1518,1037,0,0
301,-13,0,0,0,0,0,0,0,0,0,-1,1525,1037,0,0
308,-13,0,0,0,0,0,0,0,0,0,-1,1532,1037,0,0
315,-13,0,0,0,0,0,0,0,0,0,-1,1539,1037,0,0
322,-13,0,0,0,0,0,0,0,0,0,-1,1546,1037,0,0
329,-13,0,0,0,0,0,0,0,0,0,-1,1553,1037,0,0
336,-13,0,0,0,0,0,0,0,0,0,-1,1560,1037,0,0
343,-13,0,0,0,0,0,0,0,0,0,-1,1567,1037,0,0
350,-13,0,0,0,0,0,0,0,0,0,-1,1574,1037,0,0
357,-13,0,0,0,0,0,0,0,0,0,-1,1581,1037,0,0
364,-13,0,0,0,0,0,0,0,0,0,-1,1588,1037,0,0
371,-13,0,0,0,0,0,0,0,0,0,-1,1595,1037,0,0
378,-13,0,0,0,0,0,0,0,0,0,-1,1602,1037,0,0
385,-13,0,0,0,0,0,0,0,0,0,-1,1609,1037,0,0
392,-13,0,0,0,0,0,0,0,0,0,-1,1616,1037,0,0
399,-13,0,0,0,0,0,0,0,0,0,-1,1623,1037,0,0
406,-13,0,0,0,0,0,0,0,0,0,-1,1630,1037,0,0
413,-13,0,0,0,0,0,0,0,0,0,-1,1637,1037,0,0
420,-13,0,0,0,0,0,0,0,0,0,-1,1644,1037,0,0
427,-13,0,0,0,0,0,0,0,0,0,-1,1651,1037,0,0
434,-13,0,0,0,0,0,0,0,0,0,-1,1658,1037,0,0
441,-13,0,0,0,0,0,0,0,0,0,-1,1665,1037,0,0
448,-13,0,0,0,0,0,0,0,0,0,-1,1672,1037,0,0
455,-13,0,0,0,0,0,0,0,0,0,-1,1679,1037,0,0
462,-13,0,0,0,0,0,0,0,0,0,-1,1686,1037,0,0
469,-13,0,0,0,0,0,0,0,0,0,-1,1693,1037,0,0
476,-13,0,0,0,0,0,0,0,0,0,-1,1700,1037,0,0
483,-13,0,0,0,0,0,0,0,0,0,-1,1707,1037,0,0
490,-13,0,0,0,0,0,0,0,0,0,-1,1714,1037,0,0
497,-13,0,0,0,0,0,0,0,0,0,-1,1721,1037,0,0
504,-13,0,0,0,0,0,0,0,0,0,-1,1728,1037,0,0
511,-13,0,0,0,0,0,0,0,0,0,-1,1735,1037,0,0
518,-13,0,0,0,0,0,0,0,0,0,-1,1742,1037,0,0
525,-13,0,0,0,0,0,0,0,0,0,-1,1749,1037,0,0
532,-13,0,0,0,0,0,0,0,0,0,-1,1756,1037,0,0
539,-13,0,0,0,0,0,0,0,0,0,-1,1763,1037,0,0
546,-13,0,0,0,0,0,0,0,0,0,-1,1770,1037,0,0
553,-13,0,0,0,0,0,0,0,0,0,-1,1777,1037,0,0
560,-13,0,0,0,0,0,0,0,0,0,-1,1784,1037,0,0
567,-13,0,0,0,0,0,0,0,0,0,-1,1791,1037,0,0
574,-13,0,0,0,0,0,0,0,0,0,-1,1798,1037,0,0
581,-13,0,0,0,0,0,0,0,0,0,-1,1805,1037,0,0
588,-13,0,0,0,0,0,0,0,0,0,-1,1812,1037,0,0
595,-13,0,0,0,0,0,0,0,0,0,-1,1819,1037,0,0
602,-13,0,0,0,0,0,0,0,0,0,-1,1826,1037,0,0
609,-13,0,0,0,0,0,0,0,0,0,-1,1833,1037,0,0
616,-13,0,0,0,0,0,0,0,0,0,-1,1840,1037,0,0
623,-13,0,0,0,0,0,0,0,0,0,-1,1847,1037,0,0
630,-13,0,0,0,0,0,0,0,0,0,-1,1854,1037,0,0
637,-13,0,0,0,0,0,0,0,0,0,-1,1861,1037,0,0
644,-13,0,0,0,0,0,0,0,0,0,-1,1868,1037,0,0
651,-13,74.7737,2.2793,0.00256991,-0.000388397,0.000576591,0.00267832,-0.000496805,0.185846,0.00197212,0.0411964,1875,1037,74.7737,-2.27927
658,-13,74.7521,2.24548,0.00130726,7.42885e-05,0.00084709,0.00173845,-0.000356897,0.470838,0.00129444,0.0444644,1882,1037,74.752,-2.24548
665,-13,74.545,2.10791,0.000392679,0.000441476,0.000937237,0.00135463,-0.000520477,0.798411,0.00111773,0.0438753,1889,1037,74.545,-2.1079
672,-13,74.5111,2.10718,-0.000219575,0.000771163,0.000973665,0.00136823,-0.000816641,1.02072,0.00127476,0.0370579,1896,1037,74.5111,-2.1072
679,-13,74.4646,2.26013,-0.000660596,0.00101323,0.000997343,0.00147829,-0.00112565,1.13448,0.00150797,0.0368102,1903,1037,74.4646,-2.26009
686,-13,74.3945,2.29468,-0.00119722,0.000805554,0.000988485,0.00121125,-0.00160291,1.18134,0.00162999,0.0386697,1910,1037,74.3945,-2.29469
693,-13,74.4653,2.15039,-0.00155782,0.000439435,0.00102919,0.000874857,-0.00199324,1.17056,0.00169734,0.0363588,1917,1037,74.4654,-2.15039
700,-13,74.4631,2.17761,-0.00172928,7.32024e-05,0.00118846,0.000663495,-0.00231957,1.1098,0.00180858,0.0348847,1924,1037,74.4632,-2.17765
707,-13,74.4777,2.20142,-0.00248707,0.000268506,0.00122696,0.000735635,-0.0029542,1.20702,0.00225503,0.0328304,1931,1037,74.4777,-2.20137
714,-13,74.4504,2.37097,-0.00348185,0.000964497,0.00113021,0.00123529,-0.00375265,1.33563,0.00299955,0.0364698,1938,1037,74.4505,-2.37091
721,-13,74.2654,2.54578,0,0,0,0,0,0,0,-1,1945,1037,74.2654,-2.54579
728,-13,74.5157,7.33105,0,0,0,0,0,0,0,-1,1952,1037,74.5158,-7.33102
735,-13,74.4056,7.29175,-0.00759342,0.00515245,0.000997697,0.00523007,-0.00767104,1.49315,0.00749277,0.0465695,1959,1037,74.4056,-7.29174
742,-13,74.3943,7.20081,-0.00820477,0.00694137,0.000724773,0.00697597,-0.00823937,1.52309,0.00879467,0.0313032,1966,1037,74.3943,-7.20082
749,-13,74.5577,7.03137,-0.0086095,0.00968973,-0.000227709,0.00969257,-0.00861233,-1.55836,0.0105745,0.0412039,1973,1037,74.5577,-7.03141
756,-13,74.5088,6.88672,-0.00925278,0.0129912,-0.0010761,0.0130432,-0.00930471,-1.52257,0.0129626,0.0238547,1980,1037,74.5089,-6.88672
763,-13,74.4412,6.75586,-0.00910185,0.0176193,-0.00243893,0.0178401,-0.00932264,-1.48052,0.0159373,0.0330075,1987,1037,74.4412,-6.75585
770,-13,74.3193,6.61987,-0.00685251,0.0239678,-0.00489498,0.0247266,-0.00761127,-1.41701,0.0195225,0.0272468,1994,1037,74.3194,-6.61983
777,-13,74.0984,6.43018,-0.00205632,0.0313525,-0.00849673,0.0333892,-0.00409309,-1.33552,0.0237417,0.0184615,2001,1037,74.0984,-6.43017
784,-13,73.9985,6.22522,0.00492561,0.0389152,-0.0130413,0.0433423,0.000498513,-1.24353,0.0287301,0.0372081,2008,1037,73.9984,-6.22522
791,-13,74.3352,5.74695,0.0157124,0.0470073,-0.019775,0.0565768,0.00614292,-1.1201,0.0358461,0.0471717,2015,1037,74.3351,-5.74694
798,-13,74.4907,5.37769,0.032305,0.0559199,-0.0287953,0.0752345,0.0129903,-0.979968,0.0464359,0.0456778,2022,1037,74.4906,-5.37768
805,-13,75.1541,5.14526,0,0,0,0,0,0,0,-1,2029,1037,75.154,-5.14526
812,-13,75.8162,4.74023,0,0,0,0,0,0,0,-1,2036,1037,75.8163,-4.74028
-700,-20,-65.5175,-8.01013,0,0,0,0,0,0,0,-1,524,1044,-65.5175,8.01017
-693,-20,-64.9594,-5.89331,0.397505,0.062732,0.070346,0.411686,0.0485509,0.198925,0.25979,0.0438145,531,1044,-64.9594,5.89326
-686,-20,-64.5216,-3.66785,0.327804,0.0665938,0.0710084,0.345859,0.0485386,0.248992,0.216217,0.0417842,538,1044,-64.5216,3.66783
-679,-20,-63.9843,-1.53845,0,0,0,0,0,0,0,-1,545,1044,-63.9842,1.53841
-672,-20,-55.9873,3.58533,0,0,0,0,0,0,0,-1,552,1044,-55.9873,-3.5853
-665,-20,-56.6573,3.5968,0,0,0,0,0,0,0,-1,559,1044,-56.6573,-3.59683
-658,-20,-58.3615,4.21692,0,0,0,0,0,0,0,-1,566,1044,-58.3614,-4.21695
-651,-20,-58.175,4.56226,0.0788424,0.0419889,0.0305603,0.0961015,0.0247298,0.5141,0.0576213,0.0432278,573,1044,-58.175,-4.56224
-644,-20,-58.0345,4.77197,0.0504445,0.0344297,0.0224114,0.0662361,0.0186382,0.61382,0.039441,0.0295915,580,1044,-58.0345,-4.77193
-637,-20,-58.1318,4.87476,0.0296272,0.0276375,0.0159294,0.0445928,0.0126719,0.754212,0.0265332,0.0223572,587,1044,-58.1318,-4.87478
-630,-20,-58.2806,5.20496,0.00389331,0.0195797,0.0082976,0.0231543,0.000318724,1.16403,0.0153311,0.0177912,594,1044,-58.2806,-5.205
-623,-20,-58.355,5.49219,-0.00488824,0.0104544,0.00183341,0.0106704,-0.00510428,1.4535,0.00929459,0.0155351,601,1044,-58.3551,-5.4922
-616,-20,-58.3608,5.71606,-0.00256835,0.00253378,-0.00183273,0.00312386,-0.00315843,-1.25931,0.00362711,0.0149911,608,1044,-58.3608,-5.7161
-609,-20,-58.3852,5.90747,-0.000921256,-0.00496872,-0.00428894,0.00179743,-0.0076874,-0.564961,0.00581739,0.0160486,615,1044,-58.3852,-5.90746
-602,-20,-58.3273,6.09094,0.000465975,-0.0120932,-0.00551636,0.00254482,-0.0141721,-0.360393,0.0104006,0.0151084,622,1044,-58.3273,-6.091
-595,-20,-58.215,6.35913,0,0,0,0,0,0,0,-1,629,1044,-58.2151,-6.35913
-588,-20,-57.3567,0.164063,0,0,0,0,0,0,0,-1,636,1044,-57.3567,-0.164043
-581,-20,-57.389,0.11853,0,0,0,0,0,0,0,-1,643,1044,-57.3889,-0.118578
-574,-20,-57.3639,0.102539,0,0,0,0,0,0,0,-1,650,1044,-57.3639,-0.102526
-567,-20,-57.3652,-0.210693,0,0,0,0,0,0,0,-1,657,1044,-57.3652,0.210751
-560,-20,-57.5323,-0.589233,0,0,0,0,0,0,0,-1,664,1044,-57.5323,0.589282
-553,-20,-57.3132,-0.358643,0,0,0,0,0,0,0,-1,671,1044,-57.3132,0.358662
-546,-20,-57.2377,0.244385,0,0,0,0,0,0,0,-1,678,1044,-57.2377,-0.244407
-539,-20,-57.3732,0.330811,0,0,0,0,0,0,0,-1,685,1044,-57.3732,-0.330794
-532,-20,-57.4573,0.500977,0,0,0,0,0,0,0,-1,692,1044,-57.4573,-0.500937
-525,-20,0,0,0,0,0,0,0,0,0,-1,699,1044,0,0
-518,-20,0,0,0,0,0,0,0,0,0,-1,706,1044,0,0
-511,-20,0,0,0,0,0,0,0,0,0,-1,713,1044,0,0
-504,-20,0,0,0,0,0,0,0,0,0,-1,720,1044,0,0
-497,-20,0,0,0,0,0,0,0,0,0,-1,727,1044,0,0
-490,-20,0,0,0,0,0,0,0,0,0,-1,734,1044,0,0
-483,-20,0,0,0,0,0,0,0,0,0,-1,741,1044,0,0
-476,-20,0,0,0,0,0,0,0,0,0,-1,748,1044,0,0
-469,-20,0,0,0,0,0,0,0,0,0,-1,755,1044,0,0
-462,-20,0,0,0,0,0,0,0,0,0,-1,762,1044,0,0
-455,-20,0,0,0,0,0,0,0,0,0,-1,769,1044,0,0
-448,-20,0,0,0,0,0,0,0,0,0,-1,776,1044,0,0
-441,-20,0,0,0,0,0,0,0,0,0,-1,783,1044,0,0
-434,-20,0,0,0,0,0,0,0,0,0,-1,790,1044,0,0
-427,-20,0,0,0,0,0,0,0,0,0,-1,797,1044,0,0
-420,-20,0,0,0,0,0,0,0,0,0,-1,804,1044,0,0
-413,-20,0,0,0,0,0,0,0,0,0,-1,811,1044,0,0
-406,-20,0,0,0,0,0,0,0,0,0,-1,818,1044,0,0
-399,-20,0,0,0,0,0,0,0,0,0,-1,825,1044,0,0
-392,-20,0,0,0,0,0,0,0,0,0,-1,832,1044,0,0
-385,-20,0,0,0,0,0,0,0,0,0,-1,839,1044,0,0
-378,-20,0,0,0,0,0,0,0,0,0,-1,846,1044,0,0
-371,-20,0,0,0,0,0,0,0,0,0,-1,853,1044,0,0
-364,-20,0,0,0,0,0,0,0,0,0,-1,860,1044,0,0
-357,-20,0,0,0,0,0,0,0,0,0,-1,867,1044,0,0
-350,-20,0,0,0,0,0,0,0,0,0,-1,874,1044,0,0
-343,-20,0,0,0,0,0,0,0,0,0,-1,881,1044,0,0
-336,-20,0,0,0,0,0,0,0,0,0,-1,888,1044,0,0
-329,-20,0,0,0,0,0,0,0,0,0,-1,895,1044,0,0
-322,-20,0,0,0,0,0,0,0,0,0,-1,902,1044,0,0
-315,-20,0,0,0,0,0,0,0,0,0,-1,909,1044,0,0
-308,-20,0,0,0,0,0,0,0,0,0,-1,916,1044,0,0
-301,-20,0,0,0,0,0,0,0,0,0,-1,923,1044,0,0
-294,-20,0,0,0,0,0,0,0,0,0,-1,930,1044,0,0
-287,-20,0,0,0,0,0,0,0,0,0,-1,937,1044,0,0
-280,-20,0,0,0,0,0,0,0,0,0,-1,944,1044,0,0
-273,-20,0,0,0,0,0,0,0,0,0,-1,951,1044,0,0
-266,-20,0,0,0,0,0,0,0,0,0,-1,958,1044,0,0
-259,-20,0,0,0,0,0,0,0,0,0,-1,965,1044,0,0
-252,-20,0,0,0,0,0,0,0,0,0,-1,972,1044,0,0
-245,-20,0,0,0,0,0,0,0,0,0,-1,979,1044,0,0
-238,-20,0,0,0,0,0,0,0,0,0,-1,986,1044,0,0
-231,-20,0,0,0,0,0,0,0,0,0,-1,993,1044,0,0
-224,-20,0,0,0,0,0,0,0,0,0,-1,1000,1044,0,0
-217,-20,0,0,0,0,0,0,0,0,0,-1,1007,1044,0,0
-210,-20,0,0,0,0,0,0,0,0,0,-1,1014,1044,0,0
-203,-20,0,0,0,0,0,0,0,0,0,-1,1021,1044,0,0
-196,-20,0,0,0,0,0,0,0,0,0,-1,1028,1044,0,0
-189,-20,0,0,0,0,0,0,0,0,0,-1,1035,1044,0,0
-182,-20,0,0,0,0,0,0,0,0,0,-1,1042,1044,0,0
-175,-20,0,0,0,0,0,0,0,0,0,-1,1049,1044,0,0
-168,-20,0,0,0,0,0,0,0,0,0,-1,1056,1044,0,0
-161,-20,0,0,0,0,0,0,0,0,0,-1,1063,1044,0,0
-154,-20,0,0,0,0,0,0,0,0,0,-1,1070,1044,0,0
-147,-20,0,0,0,0,0,0,0,0,0,-1,1077,1044,0,0
-140,-20,0,0,0,0,0,0,0,0,0,-1,1084,1044,0,0
-133,-20,0,0,0,0,0,0,0,0,0,-1,1091,1044,0,0
-126,-20,0,0,0,0,0,0,0,0,0,-1,1098,1044,0,0
-119,-20,0,0,0,0,0,0,0,0,0,-1,1105,1044,0,0
-112,-20,0,0,0,0,0,0,0,0,0,-1,1112,1044,0,0
-105,-20,0,0,0,0,0,0,0,0,0,-1,1119,1044,0,0
-98,-20,0,0,0,0,0,0,0,0,0,-1,1126,1044,0,0
-91,-20,0,0,0,0,0,0,0,0,0,-1,1133,1044,0,0
-84,-20,0,0,0,0,0,0,0,0,0,-1,1140,1044,0,0
-77,-20,0,0,0,0,0,0,0,0,0,-1,1147,1044,0,0
-70,-20,0,0,0,0,0,0,0,0,0,-1,1154,1044,0,0
-63,-20,0,0,0,0,0,0,0,0,0,-1,1161,1044,0,0
-56,-20,0,0,0,0,0,0,0,0,0,-1,1168,1044,0,0
-49,-20,0,0,0,0,0,0,0,0,0,-1,1175,1044,0,0
-42,-20,0,0,0,0,0,0,0,0,0,-1,1182,1044,0,0
-35,-20,0,0,0,0,0,0,0,0,0,-1,1189,1044,0,0
-28,-20,0,0,0,0,0,0,0,0,0,-1,1196,1044,0,0
-21,-20,0,0,0,0,0,0,0,0,0,-1,1203,1044,0,0
-14,-20,0,0,0,0,0,0,0,0,0,-1,1210,1044,0,0
-7,-20,0,0,0,0,0,0,0,0,0,-1,1217,1044,0,0
0,-20,0,0,0,0,0,0,0,0,0,-1,1224,1044,0,0
7,-20,0,0,0,0,0,0,0,0,0,-1,1231,1044,0,0
14,-20,0,0,0,0,0,0,0,0,0,-1,1238,1044,0,0
21,-20,0,0,0,0,0,0,0,0,0,-1,1245,1044,0,0
28,-20,0,0,0,0,0,0,0,0,0,-1,1252,1044,0,0
35,-20,0,0,0,0,0,0,0,0,0,-1,1259,1044,0,0
42,-20,0,0,0,0,0,0,0,0,0,-1,1266,1044,0,0
49,-20,0,0,0,0,0,0,0,0,0,-1,1273,1044,0,0
56,-20,0,0,0,0,0,0,0,0,0,-1,1280,1044,0,0
63,-20,0,0,0,0,0,0,0,0,0,-1,1287,1044,0,0
70,-20,0,0,0,0,0,0,0,0,0,-1,1294,1044,0,0
77,-20,0,0,0,0,0,0,0,0,0,-1,1301,1044,0,0
84,-20,0,0,0,0,0,0,0,0,0,-1,1308,1044,0,0
91,-20,0,0,0,0,0,0,0,0,0,-1,1315,1044,0,0
98,-20,0,0,0,0,0,0,0,0,0,-1,1322,1044,0,0
105,-20,0,0,0,0,0,0,0,0,0,-1,1329,1044,0,0
112,-20,0,0,0,0,0,0,0,0,0,-1,1336,1044,0,0
119,-20,0,0,0,0,0,0,0,0,0,-1,1343,1044,0,0
126,-20,0,0,0,0,0,0,0,0,0,-1,1350,1044,0,0
133,-20,0,0,0,0,0,0,0,0,0,-1,1357,1044,0,0
140,-20,0,0,0,0,0,0,0,0,0,-1,1364,1044,0,0
147,-20,0,0,0,0,0,0,0,0,0,-1,1371,1044,0,0
154,-20,0,0,0,0,0,0,0,0,0,-1,1378,1044,0,0
161,-20,0,0,0,0,0,0,0,0,0,-1,1385,1044,0,0
168,-20,0,0,0,0,0,0,0,0,0,-1,1392,1044,0,0
175,-20,0,0,0,0,0,0,0,0,0,-1,1399,1044,0,0
182,-20,0,0,0,0,0,0,0,0,0,-1,1406,1044,0,0
189,-20,0,0,0,0,0,0,0,0,0,-1,1413,1044,0,0
196,-20,0,0,0,0,0,0,0,0,0,-1,1420,1044,0,0
203,-20,0,0,0,0,0,0,0,0,0,-1,1427,1044,0,0
210,-20,0,0,0,0,0,0,0,0,0,-1,1434,1044,0,0
217,-20,0,0,0,0,0,0,0,0,0,-1,1441,1044,0,0
224,-20,0,0,0,0,0,0,0,0,0,-1,1448,1044,0,0
231,-20,0,0,0,0,0,0,0,0,0,-1,1455,1044,0,0
238,-20,0,0,0,0,0,0,0,0,0,-1,1462,1044,0,0
245,-20,0,0,0,0,0,0,0,0,0,-1,1469,1044,0,0
252,-20,0,0,0,0,0,0,0,0,0,-1,1476,1044,0,0
259,-20,0,0,0,0,0,0,0,0,0,-1,1483,1044,0,0
266,-20,0,0,0,0,0,0,0,0,0,-1,1490,1044,0,0
273,-20,0,0,0,0,0,0,0,0,0,-1,1497,1044,0,0
280,-20,0,0,0,0,0,0,0,0,0,-1,1504,1044,0,0
287,-20,0,0,0,0,0,0,0,0,0,-1,1511,1044,0,0
294,-20,0,0,0,0,0,0,0,0,0,-1,1518,1044,0,0
301,-20,0,0,0,0,0,0,0,0,0,-1,1525,1044,0,0
308,-20,0,0,0,0,0,0,0,0,0,-1,1532,1044,0,0
315,-20,0,0,0,0,0,0,0,0,0,-1,1539,1044,0,0
322,-20,0,0,0,0,0,0,0,0,0,-1,1546,1044,0,0
329,-20,0,0,0,0,0,0,0,0,0,-1,1553,1044,0,0
336,-20,0,0,0,0,0,0,0,0,0,-1,1560,1044,0,0
343,-20,0,0,0,0,0,0,0,0,0,-1,1567,1044,0,0
350,-20,0,0,0,0,0,0,0,0,0,-1,1574,1044,0,0
357,-20,0,0,0,0,0,0,0,0,0,-1,1581,1044,0,0
364,-20,0,0,0,0,0,0,0,0,0,-1,1588,1044,0,0
371,-20,0,0,0,0,0,0,0,0,0,-1,1595,1044,0,0
378,-20,0,0,0,0,0,0,0,0,0,-1,1602,1044,0,0
385,-20,0,0,0,0,0,0,0,0,0,-1,1609,1044,0,0
392,-20,0,0,0,0,0,0,0,0,0,-1,1616,1044,0,0
399,-20,0,0,0,0,0,0,0,0,0,-1,1623,1044,0,0
406,-20,0,0,0,0,0,0,0,0,0,-1,1630,1044,0,0
413,-20,0,0,0,0,0,0,0,0,0,-1,1637,1044,0,0
420,-20,0,0,0,0,0,0,0,0,0,-1,1644,1044,0,0
427,-20,0,0,0,0,0,0,0,0,0,-1,1651,1044,0,0
434,-20,0,0,0,0,0,0,0,0,0,-1,1658,1044,0,0
441,-20,0,0,0,0,0,0,0,0,0,-1,1665,1044,0,0
448,-20,0,0,0,0,0,0,0,0,0,-1,1672,1044,0,0
455,-20,0,0,0,0,0,0,0,0,0,-1,1679,1044,0,0
462,-20,0,0,0,0,0,0,0,0,0,-1,1686,1044,0,0
469,-20,0,0,0,0,0,0,0,0,0,-1,1693,1044,0,0
476,-20,0,0,0,0,0,0,0,0,0,-1,1700,1044,0,0
483,-20,0,0,0,0,0,0,0,0,0,-1,1707,1044,0,0
490,-20,0,0,0,0,0,0,0,0,0,-1,1714,1044,0,0
497,-20,0,0,0,0,0,0,0,0,0,-1,1721,1044,0,0
504,-20,0,0,0,0,0,0,0,0,0,-1,1728,1044,0,0
511,-20,0,0,0,0,0,0,0,0,0,-1,1735,1044,0,0
518,-20,0,0,0,0,0,0,0,0,0,-1,1742,1044,0,0
525,-20,0,0,0,0,0,0,0,0,0,-1,1749,1044,0,0
532,-20,0,0,0,0,0,0,0,0,0,-1,1756,1044,0,0
539,-20,0,0,0,0,0,0,0,0,0,-1,1763,1044,0,0
546,-20,0,0,0,0,0,0,0,0,0,-1,1770,1044,0,0
553,-20,0,0,0,0,0,0,0,0,0,-1,1777,1044,0,0
560,-20,0,0,0,0,0,0,0,0,0,-1,1784,1044,0,0
567,-20,0,0,0,0,0,0,0,0,0,-1,1791,1044,0,0
574,-20,0,0,0,0,0,0,0,0,0,-1,1798,1044,0,0
581,-20,0,0,0,0,0,0,0,0,0,-1,1805,1044,0,0
588,-20,0,0,0,0,0,0,0,0,0,-1,1812,1044,0,0
595,-20,0,0,0,0,0,0,0,0,0,-1,1819,1044,0,0
602,-20,0,0,0,0,0,0,0,0,0,-1,1826,1044,0,0
609,-20,0,0,0,0,0,0,0,0,0,-1,1833,1044,0,0
616,-20,0,0,0,0,0,0,0,0,0,-1,1840,1044,0,0
623,-20,0,0,0,0,0,0,0,0,0,-1,1847,1044,0,0
630,-20,0,0,0,0,0,0,0,0,0,-1,1854,1044,0,0
637,-20,0,0,0,0,0,0,0,0,0,-1,1861,1044,0,0
644,-20,0,0,0,0,0,0,0,0,0,-1,1868,1044,0,0
651,-20,74.5023,2.43665,0.0024547,-0.00109515,0.000677597,0.00257964,-0.00122009,0.182342,0.0022401,0.0428831,1875,1044,74.5024,-2.43669
658,-20,74.5303,2.37476,0.0013057,-0.000381985,0.000847884,0.00165809,-0.000734378,0.393894,0.00141519,0.0446498,1882,1044,74.5303,-2.37474
665,-20,74.4557,2.32031,0.000450341,0.000157476,0.000895842,0.00121164,-0.000603822,0.704386,0.00106756,0.0412896,1889,1044,74.4557,-2.32036
672,-20,74.4771,2.20825,-0.000117185,0.000607866,0.000927576,0.00124124,-0.000750562,0.971687,0.00116154,0.0276441,1896,1044,74.477,-2.2083
679,-20,74.4608,2.20557,-0.000546316,0.000968507,0.000961724,0.00143526,-0.00101307,1.11895,0.00142054,0.0296582,1903,1044,74.4609,-2.20552
686,-20,74.5131,2.09729,-0.00114211,0.000847489,0.0009872,0.00125419,-0.0015488,1.18001,0.00162128,0.0389538,1910,1044,74.513,-2.09724
693,-20,74.4601,2.09131,-0.00159374,0.000540213,0.00107589,0.000988488,-0.00204202,1.17602,0.00178456,0.0427823,1917,1044,74.4601,-2.09126
700,-20,74.4053,2.1582,-0.00184894,0.00022447,0.00130051,0.000850917,-0.00247538,1.1219,0.00199532,0.0396692,1924,1044,74.4053,-2.1582
707,-20,74.3894,2.16272,-0.00262117,0.000392743,0.00140139,0.000943653,-0.00317208,1.19624,0.00248961,0.0339202,1931,1044,74.3893,-2.16278
714,-20,74.4435,2.35278,-0.00360718,0.00102463,0.00138584,0.00140761,-0.00399016,1.30117,0.00323312,0.0353048,1938,1044,74.4434,-2.3528
721,-20,74.3224,2.3562,0,0,0,0,0,0,0,-1,1945,1044,74.3223,-2.35621
728,-20,74.8325,7.50354,0,0,0,0,0,0,0,-1,1952,1044,74.8325,-7.50359
735,-20,74.4763,7.35681,-0.00759561,0.00483817,0.00139452,0.00499266,-0.00775009,1.46047,0.00741422,0.0346546,1959,1044,74.4763,-7.35686
742,-20,74.1667,7.05774,-0.0079705,0.00657392,0.00112995,0.00666118,-0.00805776,1.49372,0.00851072,0.0370044,1966,1044,74.1667,-7.05772
749,-20,74.3281,6.97083,-0.00808985,0.00922636,0.000179883,0.00922823,-0.00809172,1.56041,0.0100068,0.036543,1973,1044,74.3282,-6.97085
756,-20,74.3301,6.83997,-0.00829354,0.0123433,-0.000683814,0.0123659,-0.00831617,-1.53771,0.0120169,0.0225757,1980,1044,74.3301,-6.84001
763,-20,74.2209,6.67163,-0.00749956,0.01672,-0.00207899,0.0168971,-0.00767672,-1.48579,0.0145168,0.0334286,1987,1044,74.2209,-6.67158
770,-20,74.0977,6.56848,-0.00435122,0.0226443,-0.00459256,0.0234042,-0.00511113,-1.40682,0.0175563,0.0273386,1994,1044,74.0977,-6.56854
777,-20,73.9128,6.25854,0.00171688,0.02963,-0.00833245,0.0319281,-0.000581263,-1.30168,0.0214818,0.0186509,2001,1044,73.9128,-6.2586
784,-20,73.8542,6.03918,0.00992975,0.0367596,-0.0129949,0.0420216,0.00466776,-1.18605,0.0265954,0.0229724,2008,1044,73.8544,-6.03913
791,-20,73.9009,5.76001,0.0219199,0.0442856,-0.0197103,0.0557644,0.0104411,-1.04344,0.0342309,0.0374508,2015,1044,73.9008,-5.75996
798,-20,74.488,4.91675,0.0393875,0.0524212,-0.0286254,0.0752622,0.0165465,-0.897321,0.0456696,0.0428656,2022,1044,74.4881,-4.91673
805,-20,74.9961,4.11841,0,0,0,0,0,0,0,-1,2029,1044,74.9961,-4.11837
812,-20,75.3167,3.58899,0,0,0,0,0,0,0,-1,2036,1044,75.3166,-3.58898
-700,-27,-62.8328,-7.18799,0,0,0,0,0,0,0,-1,524,1051,-62.8328,7.188
-693,-27,-62.8478,-5.44043,0.31695,0.0619325,0.0506998,0.32666,0.0522226,0.189226,0.202621,0.0489018,531,1051,-62.8478,5.44041
-686,-27,-62.7907,-3.66077,0.261625,0.0661696,0.054728,0.275906,0.051889,0.255246,0.169312,0.044053,538,1051,-62.7907,3.66082
-679,-27,-55.5428,3.35522,0,0,0,0,0,0,0,-1,545,1051,-55.5428,-3.35517
-672,-27,-56.149,3.49097,0,0,0,0,0,0,0,-1,552,1051,-56.149,-3.49093
-665,-27,-56.7624,3.59668,0,0,0,0,0,0,0,-1,559,1051,-56.7624,-3.59665
-658,-27,-57.3261,3.69604,0.0913591,0.0492635,0.0339784,0.110281,0.030342,0.5081,0.0657818,0.0430927,566,1051,-57.3261,-3.69605
-651,-27,-57.7888,4.0824,0.0633028,0.0420023,0.0268375,0.081526,0.0237791,0.596507,0.0484118,0.0379336,573,1051,-57.7888,-4.08235
-644,-27,-57.8309,4.48462,0.0406183,0.0343201,0.0199205,0.0576371,0.0173013,0.707005,0.0341511,0.0187429,580,1051,-57.8309,-4.48468
-637,-27,-57.8966,4.72803,0.0238528,0.0274008,0.0143488,0.0400849,0.0111687,0.846904,0.0238872,0.016033,587,1051,-57.8966,-4.72799
-630,-27,-58.0291,5.16064,0.00299124,0.019164,0.00757657,0.0221589,-3.61726e-06,1.19437,0.0147738,0.0214715,594,1051,-58.0291,-5.16067
-623,-27,-58.0801,5.47034,-0.00398062,0.0101641,0.00148362,0.010318,-0.00413456,1.46741,0.008595,0.0193598,601,1051,-58.0802,-5.47028
-616,-27,-58.07,5.73169,-0.0014801,0.00213366,-0.00228669,0.00324119,-0.00258763,-1.11976,0.00337232,0.0161318,608,1051,-58.07,-5.73173
-609,-27,-58.0302,5.9563,0.000336619,-0.00514684,-0.00489829,0.0032083,-0.00801852,-0.530256,0.00667718,0.014424,615,1051,-58.0302,-5.95626
-602,-27,-57.9855,6.20483,0.00203526,-0.0119284,-0.0061856,0.00438121,-0.0142744,-0.362501,0.0112643,0.0138541,622,1051,-57.9855,-6.20488
-595,-27,-58.012,6.45898,0.00458625,-0.0173235,-0.00696673,0.00661385,-0.0193511,-0.283216,0.0155805,0.0248877,629,1051,-58.012,-6.459
-588,-27,-58.2385,6.67334,0,0,0,0,0,0,0,-1,636,1051,-58.2385,-6.67333
-581,-27,-57.2947,0.18042,0,0,0,0,0,0,0,-1,643,1051,-57.2948,-0.18045
-574,-27,-57.3283,0.173828,0,0,0,0,0,0,0,-1,650,1051,-57.3283,-0.173832
-567,-27,-57.3508,-0.303833,0,0,0,0,0,0,0,-1,657,1051,-57.3508,0.3038
-560,-27,-57.367,-0.526123,0,0,0,0,0,0,0,-1,664,1051,-57.367,0.526119
-553,-27,-57.2248,-0.30188,0,0,0,0,0,0,0,-1,671,1051,-57.2248,0.30189
-546,-27,-57.2385,-0.0678711,0,0,0,0,0,0,0,-1,678,1051,-57.2385,0.0678429
-539,-27,-57.6675,0.589233,0,0,0,0,0,0,0,-1,685,1051,-57.6675,-0.589256
-532,-27,-57.4487,0.110596,0,0,0,0,0,0,0,-1,692,1051,-57.4487,-0.110628
-525,-27,0,0,0,0,0,0,0,0,0,-1,699,1051,0,0
-518,-27,0,0,0,0,0,0,0,0,0,-1,706,1051,0,0
-511,-27,0,0,0,0,0,0,0,0,0,-1,713,1051,0,0
-504,-27,0,0,0,0,0,0,0,0,0,-1,720,1051,0,0
-497,-27,0,0,0,0,0,0,0,0,0,-1,727,1051,0,0
-490,-27,0,0,0,0,0,0,0,0,0,-1,734,1051,0,0
-483,-27,0,0,0,0,0,0,0,0,0,-1,741,1051,0,0
-476,-27,0,0,0,0,0,0,0,0,0,-1,748,1051,0,0
-469,-27,0,0,0,0,0,0,0,0,0,-1,755,1051,0,0
-462,-27,0,0,0,0,0,0,0,0,0,-1,762,1051,0,0
-455,-27,0,0,0,0,0,0,0,0,0,-1,769,1051,0,0
-448,-27,0,0,0,0,0,0,0,0,0,-1,776,1051,0,0
-441,-27,0,0,0,0,0,0,0,0,0,-1,783,1051,0,0
-434,-27,0,0,0,0,0,0,0,0,0,-1,790,1051,0,0
-427,-27,0,0,0,0,0,0,0,0,0,-1,797,1051,0,0
-420,-27,0,0,0,0,0,0,0,0,0,-1,804,1051,0,0
-413,-27,0,0,0,0,0,0,0,0,0,-1,811,1051,0,0
-406,-27,0,0,0,0,0,0,0,0,0,-1,818,1051,0,0
-399,-27,0,0,0,0,0,0,0,0,0,-1,825,1051,0,0
-392,-27,0,0,0,0,0,0,0,0,0,-1,832,1051,0,0
-385,-27,0,0,0,0,0,0,0,0,0,-1,839,1051,0,0
-378,-27,0,0,0,0,0,0,0,0,0,-1,846,1051,0,0
-371,-27,0,0,0,0,0,0,0,0,0,-1,853,1051,0,0
-364,-27,0,0,0,0,0,0,0,0,0,-1,860,1051,0,0
-357,-27,0,0,0,0,0,0,0,0,0,-1,867,1051,0,0
-350,-27,0,0,0,0,0,0,0,0,0,-1,874,1051,0,0
-343,-27,0,0,0,0,0,0,0,0,0,-1,881,1051,0,0
-336,-27,0,0,0,0,0,0,0,0,0,-1,888,1051,0,0
-329,-27,0,0,0,0,0,0,0,0,0,-1,895,1051,0,0
-322,-27,0,0,0,0,0,0,0,0,0,-1,902,1051,0,0
-315,-27,0,0,0,0,0,0,0,0,0,-1,909,1051,0,0
-308,-27,0,0,0,0,0,0,0,0,0,-1,916,1051,0,0
-301,-27,0,0,0,0,0,0,0,0,0,-1,923,1051,0,0
-294,-27,0,0,0,0,0,0,0,0,0,-1,930,1051,0,0
-287,-27,0,0,0,0,0,0,0,0,0,-1,937,1051,0,0
-280,-27,0,0,0,0,0,0,0,0,0,-1,944,1051,0,0
-273,-27,0,0,0,0,0,0,0,0,0,-1,951,1051,0,0
-266,-27,0,0,0,0,0,0,0,0,0,-1,958,1051,0,0
-259,-27,0,0,0,0,0,0,0,0,0,-1,965,1051,0,0
-252,-27,0,0,0,0,0,0,0,0,0,-1,972,1051,0,0
-245,-27,0,0,0,0,0,0,0,0,0,-1,979,1051,0,0
-238,-27,0,0,0,0,0,0,0,0,0,-1,986,1051,0,0
-231,-27,0,0,0,0,0,0,0,0,0,-1,993,1051,0,0
-224,-27,0,0,0,0,0,0,0,0,0,-1,1000,1051,0,0
-217,-27,0,0,0,0,0,0,0,0,0,-1,1007,1051,0,0
-210,-27,0,0,0,0,0,0,0,0,0,-1,1014,1051,0,0
-203,-27,0,0,0,0,0,0,0,0,0,-1,1021,1051,0,0
-196,-27,0,0,0,0,0,0,0,0,0,-1,1028,1051,0,0
-189,-27,0,0,0,0,0,0,0,0,0,-1,1035,1051,0,0
-182,-27,0,0,0,0,0,0,0,0,0,-1,1042,1051,0,0
-175,-27,0,0,0,0,0,0,0,0,0,-1,1049,1051,0,0
-168,-27,0,0,0,0,0,0,0,0,0,-1,1056,1051,0,0
-161,-27,0,0,0,0,0,0,0,0,0,-1,1063,1051,0,0
-154,-27,0,0,0,0,0,0,0,0,0,-1,1070,1051,0,0
-147,-27,0,0,0,0,0,0,0,0,0,-1,1077,1051,0,0
-140,-27,0,0,0,0,0,0,0,0,0,-1,1084,1051,0,0
-133,-27,0,0,0,0,0,0,0,0,0,-1,1091,1051,0,0
-126,-27,0,0,0,0,0,0,0,0,0,-1,1098,1051,0,0
-119,-27,0,0,0,0,0,0,0,0,0,-1,1105,1051,0,0
-112,-27,0,0,0,0,0,0,0,0,0,-1,1112,1051,0,0
-105,-27,0,0,0,0,0,0,0,0,0,-1,1119,1051,0,0
-98,-27,0,0,0,0,0,0,0,0,0,-1,1126,1051,0,0
-91,-27,0,0,0,0,0,0,0,0,0,-1,1133,1051,0,0
-84,-27,0,0,0,0,0,0,0,0,0,-1,1140,1051,0,0
-77,-27,0,0,0,0,0,0,0,0,0,-1,1147,1051,0,0
-70,-27,0,0,0,0,0,0,0,0,0,-1,1154,1051,0,0
-63,-27,0,0,0,0,0,0,0,0,0,-1,1161,1051,0,0
-56,-27,0,0,0,0,0,0,0,0,0,-1,1168,1051,0,0
-49,-27,0,0,0,0,0,0,0,0,0,-1,1175,1051,0,0
-42,-27,0,0,0,0,0,0,0,0,0,-1,1182,1051,0,0
-35,-27,0,0,0,0,0,0,0,0,0,-1,1189,1051,0,0
-28,-27,0,0,0,0,0,0,0,0,0,-1,1196,1051,0,0
-21,-27,0,0,0,0,0,0,0,0,0,-1,1203,1051,0,0
-14,-27,0,0,0,0,0,0,0,0,0,-1,1210,1051,0,0
-7,-27,0,0,0,0,0,0,0,0,0,-1,1217,1051,0,0
0,-27,0,0,0,0,0,0,0,0,0,-1,1224,1051,0,0
7,-27,0,0,0,0,0,0,0,0,0,-1,1231,1051,0,0
14,-27,0,0,0,0,0,0,0,0,0,-1,1238,1051,0,0
21,-27,0,0,0,0,0,0,0,0,0,-1,1245,1051,0,0
28,-27,0,0,0,0,0,0,0,0,0,-1,1252,1051,0,0
35,-27,0,0,0,0,0,0,0,0,0,-1,1259,1051,0,0
42,-27,0,0,0,0,0,0,0,0,0,-1,1266,1051,0,0
49,-27,0,0,0,0,0,0,0,0,0,-1,1273,1051,0,0
56,-27,0,0,0,0,0,0,0,0,0,-1,1280,1051,0,0
63,-27,0,0,0,0,0,0,0,0,0,-1,1287,1051,0,0
70,-27,0,0,0,0,0,0,0,0,0,-1,1294,1051,0,0
77,-27,0,0,0,0,0,0,0,0,0,-1,1301,1051,0,0
84,-27,0,0,0,0,0,0,0,0,0,-1,1308,1051,0,0
91,-27,0,0,0,0,0,0,0,0,0,-1,1315,1051,0,0
98,-27,0,0,0,0,0,0,0,0,0,-1,1322,1051,0,0
105,-27,0,0,0,0,0,0,0,0,0,-1,1329,1051,0,0
112,-27,0,0,0,0,0,0,0,0,0,-1,1336,1051,0,0
119,-27,0,0,0,0,0,0,0,0,0,-1,1343,1051,0,0
126,-27,0,0,0,0,0,0,0,0,0,-1,1350,1051,0,0
133,-27,0,0,0,0,0,0,0,0,0,-1,1357,1051,0,0
140,-27,0,0,0,0,0,0,0,0,0,-1,1364,1051,0,0
147,-27,0,0,0,0,0,0,0,0,0,-1,1371,1051,0,0
154,-27,0,0,0,0,0,0,0,0,0,-1,1378,1051,0,0
161,-27,0,0,0,0,0,0,0,0,0,-1,1385,1051,0,0
168,-27,0,0,0,0,0,0,0,0,0,-1,1392,1051,0,0
175,-27,0,0,0,0,0,0,0,0,0,-1,1399,1051,0,0
182,-27,0,0,0,0,0,0,0,0,0,-1,1406,1051,0,0
189,-27,0,0,0,0,0,0,0,0,0,-1,1413,1051,0,0
196,-27,0,0,0,0,0,0,0,0,0,-1,1420,1051,0,0
203,-27,0,0,0,0,0,0,0,0,0,-1,1427,1051,0,0
210,-27,0,0,0,0,0,0,0,0,0,-1,1434,1051,0,0
217,-27,0,0,0,0,0,0,0,0,0,-1,1441,1051,0,0
224,-27,0,0,0,0,0,0,0,0,0,-1,1448,1051,0,0
231,-27,0,0,0,0,0,0,0,0,0,-1,1455,1051,0,0
238,-27,0,0,0,0,0,0,0,0,0,-1,1462,1051,0,0
245,-27,0,0,0,0,0,0,0,0,0,-1,1469,1051,0,0
252,-27,0,0,0,0,0,0,0,0,0,-1,1476,1051,0,0
259,-27,0,0,0,0,0,0,0,0,0,-1,1483,1051,0,0
266,-27,0,0,0,0,0,0,0,0,0,-1,1490,1051,0,0
273,-27,0,0,0,0,0,0,0,0,0,-1,1497,1051,0,0
280,-27,0,0,0,0,0,0,0,0,0,-1,1504,1051,0,0
287,-27,0,0,0,0,0,0,0,0,0,-1,1511,1051,0,0
294,-27,0,0,0,0,0,0,0,0,0,-1,1518,1051,0,0
301,-27,0,0,0,0,0,0,0,0,0,-1,1525,1051,0,0
308,-27,0,0,0,0,0,0,0,0,0,-1,1532,1051,0,0
315,-27,0,0,0,0,0,0,0,0,0,-1,1539,1051,0,0
322,-27,0,0,0,0,0,0,0,0,0,-1,1546,1051,0,0
329,-27,0,0,0,0,0,0,0,0,0,-1,1553,1051,0,0
336,-27,0,0,0,0,0,0,0,0,0,-1,1560,1051,0,0
343,-27,0,0,0,0,0,0,0,0,0,-1,1567,1051,0,0
350,-27,0,0,0,0,0,0,0,0,0,-1,1574,1051,0,0
357,-27,0,0,0,0,0,0,0,0,0,-1,1581,1051,0,0
364,-27,0,0,0,0,0,0,0,0,0,-1,1588,1051,0,0
371,-27,0,0,0,0,0,0,0,0,0,-1,1595,1051,0,0
378,-27,0,0,0,0,0,0,0,0,0,-1,1602,1051,0,0
385,-27,0,0,0,0,0,0,0,0,0,-1,1609,1051,0,0
392,-27,0,0,0,0,0,0,0,0,0,-1,1616,1051,0,0
399,-27,0,0,0,0,0,0,0,0,0,-1,1623,1051,0,0
406,-27,0,0,0,0,0,0,0,0,0,-1,1630,1051,0,0
413,-27,0,0,0,0,0,0,0,0,0,-1,1637,1051,0,0
420,-27,0,0,0,0,0,0,0,0,0,-1,1644,1051,0,0
427,-27,0,0,0,0,0,0,0,0,0,-1,1651,1051,0,0
434,-27,0,0,0,0,0,0,0,0,0,-1,1658,1051,0,0
441,-27,0,0,0,0,0,0,0,0,0,-1,1665,1051,0,0
448,-27,0,0,0,0,0,0,0,0,0,-1,1672,1051,0,0
455,-27,0,0,0,0,0,0,0,0,0,-1,1679,1051,0,0
462,-27,0,0,0,0,0,0,0,0,0,-1,1686,1051,0,0
469,-27,0,0,0,0,0,0,0,0,0,-1,1693,1051,0,0
476,-27,0,0,0,0,0,0,0,0,0,-1,1700,1051,0,0
483,-27,0,0,0,0,0,0,0,0,0,-1,1707,1051,0,0
490,-27,0,0,0,0,0,0,0,0,0,-1,1714,1051,0,0
497,-27,0,0,0,0,0,0,0,0,0,-1,1721,1051,0,0
504,-27,0,0,0,0,0,0,0,0,0,-1,1728,1051,0,0
511,-27,0,0,0,0,0,0,0,0,0,-1,1735,1051,0,0
518,-27,0,0,0,0,0,0,0,0,0,-1,1742,1051,0,0
525,-27,0,0,0,0,0,0,0,0,0,-1,1749,1051,0,0
532,-27,0,0,0,0,0,0,0,0,0,-1,1756,1051,0,0
539,-27,0,0,0,0,0,0,0,0,0,-1,1763,1051,0,0
546,-27,0,0,0,0,0,0,0,0,0,-1,1770,1051,0,0
553,-27,0,0,0,0,0,0,0,0,0,-1,1777,1051,0,0
560,-27,0,0,0,0,0,0,0,0,0,-1,1784,1051,0,0
567,-27,0,0,0,0,0,0,0,0,0,-1,1791,1051,0,0
574,-27,0,0,0,0,0,0,0,0,0,-1,1798,1051,0,0
581,-27,0,0,0,0,0,0,0,0,0,-1,1805,1051,0,0
588,-27,0,0,0,0,0,0,0,0,0,-1,1812,1051,0,0
595,-27,0,0,0,0,0,0,0,0,0,-1,1819,1051,0,0
602,-27,0,0,0,0,0,0,0,0,0,-1,1826,1051,0,0
609,-27,0,0,0,0,0,0,0,0,0,-1,1833,1051,0,0
616,-27,0,0,0,0,0,0,0,0,0,-1,1840,1051,0,0
623,-27,0,0,0,0,0,0,0,0,0,-1,1847,1051,0,0
630,-27,0,0,0,0,0,0,0,0,0,-1,1854,1051,0,0
637,-27,0,0,0,0,0,0,0,0,0,-1,1861,1051,0,0
644,-27,0,0,0,0,0,0,0,0,0,-1,1868,1051,0,0
651,-27,74.3302,2.13892,0.00190525,-0.00157728,0.000465535,0.0019664,-0.00163844,0.130622,0.00208412,0.0410229,1875,1051,74.3302,-2.13895
658,-27,74.4398,2.39575,0.000975526,-0.000894519,0.000565568,0.00113327,-0.00105226,0.271997,0.0012621,0.0405832,1882,1051,74.4398,-2.3958
665,-27,74.395,2.37781,0.000276956,-0.000353029,0.000605284,0.000644305,-0.000720378,0.54548,0.000788308,0.0369629,1889,1051,74.3951,-2.37779
672,-27,74.3843,2.28796,-0.000175178,0.000119523,0.000662457,0.000650819,-0.000706473,0.894832,0.000783853,0.0297231,1896,1051,74.3843,-2.28798
679,-27,74.418,2.12048,-0.000524851,0.000537827,0.000744031,0.000920765,-0.000907789,1.09547,0.00105573,0.0303856,1903,1051,74.418,-2.12044
686,-27,74.4385,1.98938,-0.00110741,0.000488823,0.000842877,0.000851494,-0.00147009,1.16446,0.00135613,0.0434132,1910,1051,74.4385,-1.98938
693,-27,74.4279,2.10022,-0.00160683,0.000254996,0.00102194,0.000706457,-0.0020583,1.15481,0.00165862,0.0463357,1917,1051,74.4279,-2.10024
700,-27,74.3054,2.20557,-0.00191446,1.70643e-05,0.00133764,0.000701143,-0.00259853,1.09806,0.00200731,0.0418603,1924,1051,74.3054,-2.20551
707,-27,74.3401,2.17981,-0.00267537,0.000202532,0.00152705,0.000861788,-0.00333462,1.16325,0.00255918,0.0278659,1931,1051,74.3401,-2.17981
714,-27,74.432,2.31335,-0.00363137,0.000818944,0.00162882,0.00135139,-0.00416382,1.25486,0.00331934,0.0275123,1938,1051,74.4321,-2.31339
721,-27,74.4043,2.46216,0,0,0,0,0,0,0,-1,1945,1051,74.4042,-2.46211
728,-27,74.7407,7.58813,0,0,0,0,0,0,0,-1,1952,1051,74.7407,-7.58809
735,-27,74.2523,7.47437,-0.0074202,0.00439111,0.00184767,0.0046734,-0.00770249,1.41919,0.00721621,0.0300548,1959,1051,74.2523,-7.47432
742,-27,74.0326,7.28345,-0.00759917,0.00610235,0.00160748,0.00628842,-0.00778524,1.45556,0.00814073,0.0224161,1966,1051,74.0325,-7.28349
749,-27,74.09,7.00012,-0.00742486,0.00867441,0.000674701,0.00870264,-0.00745309,1.52899,0.00933681,0.0168826,1973,1051,74.09,-7.00011
756,-27,74.0483,6.76465,-0.0071803,0.011657,-0.000228879,0.0116598,-0.00718309,-1.55865,0.0109808,0.0166302,1980,1051,74.0484,-6.76465
763,-27,73.937,6.51379,-0.00571582,0.0160049,-0.00174649,0.0161445,-0.00585535,-1.49107,0.0131565,0.0168818,1987,1051,73.937,-6.5138
770,-27,73.822,6.26514,-0.00168313,0.0218835,-0.00445096,0.0226961,-0.00249575,-1.39021,0.0160276,0.0169499,1994,1051,73.822,-6.26516
777,-27,73.6978,6.12878,0.00565449,0.0290684,-0.00851784,0.0318393,0.00288366,-1.2563,0.0203332,0.0221797,2001,1051,73.6977,-6.12874
784,-27,73.6309,5.98804,0.0151924,0.0366297,-0.0135518,0.0431894,0.00863268,-1.11999,0.0263903,0.0317046,2008,1051,73.6308,-5.98803
791,-27,73.6384,5.74316,0.0285511,0.0449469,-0.0205721,0.0588943,0.0146036,-0.975003,0.0354133,0.0439051,2015,1051,73.6385,-5.7432
798,-27,74.3215,4.0686,0.0471875,0.0544133,-0.0298592,0.0808773,0.0207234,-0.845604,0.0485091,0.0472288,2022,1051,74.3216,-4.06857
805,-27,74.7913,3.39746,0,0,0,0,0,0,0,-1,2029,1051,74.7912,-3.39741
812,-27,74.8472,2.48962,0,0,0,0,0,0,0,-1,2036,1051,74.8473,-2.48959
-700,-34,-60.3241,-7.28943,0,0,0,0,0,0,0,-1,524,1058,-60.3241,7.28946
-693,-34,-60.9313,-5.6781,0,0,0,0,0,0,0,-1,531,1058,-60.9313,5.6781
-686,-34,-60.7932,-4.12622,0.206599,0.0672595,0.0411124,0.217825,0.0560336,0.266556,0.130608,0.0464202,538,1058,-60.7932,4.12625
-679,-34,-56.6692,-0.55249,0.16713,0.0664526,0.0419389,0.182311,0.0512713,0.347312,0.108564,0.0468342,545,1058,-56.6692,0.552549
-672,-34,-56.2313,3.26965,0,0,0,0,0,0,0,-1,552,1058,-56.2313,-3.26965
-665,-34,-57.5468,3.0603,0,0,0,0,0,0,0,-1,559,1058,-57.5468,-3.06029
-658,-34,-57.5459,3.52637,0.0729435,0.0501725,0.0297314,0.0933949,0.0297211,0.602539,0.0550965,0.0445395,566,1058,-57.5459,-3.52638
-651,-34,-57.5811,3.9458,0.0504763,0.0426434,0.0239,0.0707786,0.0223412,0.704186,0.0417796,0.0324112,573,1058,-57.5811,-3.9458
-644,-34,-57.6117,4.31018,0.0324361,0.0346763,0.0179923,0.0515833,0.0155291,0.816485,0.0305574,0.0150025,580,1058,-57.6117,-4.31019
-637,-34,-57.6429,4.62805,0.0190252,0.0274855,0.0131638,0.0370821,0.00942861,0.940859,0.0222546,0.0166923,587,1058,-57.6429,-4.62806
-630,-34,-57.6833,5.04187,0.00220311,0.0189716,0.00709562,0.0215712,-0.000396421,1.21962,0.0145147,0.0204194,594,1058,-57.6834,-5.04185
-623,-34,-57.6956,5.39197,-0.00318087,0.00996969,0.00133886,0.0101046,-0.00331579,1.47036,0.00807197,0.01606,601,1058,-57.6956,-5.39193
-616,-34,-57.6718,5.77466,-0.000449157,0.00174557,-0.00251189,0.00338934,-0.00209293,-0.991338,0.00319455,0.0225444,608,1058,-57.6717,-5.77465
-609,-34,-57.6293,6.07043,0.00156799,-0.0053986,-0.00523519,0.00437282,-0.00820343,-0.491849,0.00737232,0.0204546,615,1058,-57.6293,-6.07049
-602,-34,-57.6473,6.28223,0.0035815,-0.0119035,-0.00656316,0.00598894,-0.0143109,-0.351573,0.012044,0.0157441,622,1058,-57.6473,-6.28218
-595,-34,-57.7629,6.55432,0.00649397,-0.0169819,-0.00721951,0.00853647,-0.0190244,-0.275709,0.0162918,0.0199629,629,1058,-57.7629,-6.55428
-588,-34,-58.1232,6.80737,0,0,0,0,0,0,0,-1,636,1058,-58.1231,-6.80737
-581,-34,-57.3051,0.172485,0,0,0,0,0,0,0,-1,643,1058,-57.3051,-0.172523
-574,-34,-57.3304,0.0606689,0,0,0,0,0,0,0,-1,650,1058,-57.3304,-0.0607144
-567,-34,-57.2554,-0.0540771,0,0,0,0,0,0,0,-1,657,1058,-57.2555,0.0540573
-560,-34,-57.3024,-0.0429688,0,0,0,0,0,0,0,-1,664,1058,-57.3025,0.0430142
-553,-34,-57.2189,-0.046875,0,0,0,0,0,0,0,-1,671,1058,-57.2189,0.046822
-546,-34,-57.2427,0.161987,0,0,0,0,0,0,0,-1,678,1058,-57.2427,-0.161986
-539,-34,-57.3118,0.158081,0,0,0,0,0,0,0,-1,685,1058,-57.3118,-0.158115
-532,-34,-57.2863,-0.0615234,0,0,0,0,0,0,0,-1,692,1058,-57.2863,0.0615603
-525,-34,0,0,0,0,0,0,0,0,0,-1,699,1058,0,0
-518,-34,0,0,0,0,0,0,0,0,0,-1,706,1058,0,0
-511,-34,0,0,0,0,0,0,0,0,0,-1,713,1058,0,0
-504,-34,0,0,0,0,0,0,0,0,0,-1,720,1058,0,0
-497,-34,0,0,0,0,0,0,0,0,0,-1,727,1058,0,0
-490,-34,0,0,0,0,0,0,0,0,0,-1,734,1058,0,0
-483,-34,0,0,0,0,0,0,0,0,0,-1,741,1058,0,0
-476,-34,0,0,0,0,0,0,0,0,0,-1,748,1058,0,0
-469,-34,0,0,0,0,0,0,0,0,0,-1,755,1058,0,0
-462,-34,0,0,0,0,0,0,0,0,0,-1,762,1058,0,0
-455,-34,0,0,0,0,0,0,0,0,0,-1,769,1058,0,0
-448,-34,0,0,0,0,0,0,0,0,0,-1,776,1058,0,0
-441,-34,0,0,0,0,0,0,0,0,0,-1,783,1058,0,0
-434,-34,0,0,0,0,0,0,0,0,0,-1,790,1058,0,0
-427,-34,0,0,0,0,0,0,0,0,0,-1,797,1058,0,0
-420,-34,0,0,0,0,0,0,0,0,0,-1,804,1058,0,0
-413,-34,0,0,0,0,0,0,0,0,0,-1,811,1058,0,0
-406,-34,0,0,0,0,0,0,0,0,0,-1,818,1058,0,0
-399,-34,0,0,0,0,0,0,0,0,0,-1,825,1058,0,0
-392,-34,0,0,0,0,0,0,0,0,0,-1,832,1058,0,0
-385,-34,0,0,0,0,0,0,0,0,0,-1,839,1058,0,0
-378,-34,0,0,0,0,0,0,0,0,0,-1,846,1058,0,0
-371,-34,0,0,0,0,0,0,0,0,0,-1,853,1058,0,0
-364,-34,0,0,0,0,0,0,0,0,0,-1,860,1058,0,0
-357,-34,0,0,0,0,0,0,0,0,0,-1,867,1058,0,0
-350,-34,0,0,0,0,0,0,0,0,0,-1,874,1058,0,0
-343,-34,0,0,0,0,0,0,0,0,0,-1,881,1058,0,0
-336,-34,0,0,0,0,0,0,0,0,0,-1,888,1058,0,0
-329,-34,0,0,0,0,0,0,0,0,0,-1,895,1058,0,0
-322,-34,0,0,0,0,0,0,0,0,0,-1,902,1058,0,0
-315,-34,0,0,0,0,0,0,0,0,0,-1,909,1058,0,0
-308,-34,0,0,0,0,0,0,0,0,0,-1,916,1058,0,0
-301,-34,0,0,0,0,0,0,0,0,0,-1,923,1058,0,0
-294,-34,0,0,0,0,0,0,0,0,0,-1,930,1058,0,0
-287,-34,0,0,0,0,0,0,0,0,0,-1,937,1058,0,0
-280,-34,0,0,0,0,0,0,0,0,0,-1,944,1058,0,0
-273,-34,0,0,0,0,0,0,0,0,0,-1,951,1058,0,0
-266,-34,0,0,0,0,0,0,0,0,0,-1,958,1058,0,0
-259,-34,0,0,0,0,0,0,0,0,0,-1,965,1058,0,0
-252,-34,0,0,0,0,0,0,0,0,0,-1,972,1058,0,0
-245,-34,0,0,0,0,0,0,0,0,0,-1,979,1058,0,0
-238,-34,0,0,0,0,0,0,0,0,0,-1,986,1058,0,0
-231,-34,0,0,0,0,0,0,0,0,0,-1,993,1058,0,0
-224,-34,0,0,0,0,0,0,0,0,0,-1,1000,1058,0,0
-217,-34,0,0,0,0,0,0,0,0,0,-1,1007,1058,0,0
-210,-34,0,0,0,0,0,0,0,0,0,-1,1014,1058,0,0
-203,-34,0,0,0,0,0,0,0,0,0,-1,1021,1058,0,0
-196,-34,0,0,0,0,0,0,0,0,0,-1,1028,1058,0,0
-189,-34,0,0,0,0,0,0,0,0,0,-1,1035,1058,0,0
-182,-34,0,0,0,0,0,0,0,0,0,-1,1042,1058,0,0
-175,-34,0,0,0,0,0,0,0,0,0,-1,1049,1058,0,0
-168,-34,0,0,0,0,0,0,0,0,0,-1,1056,1058,0,0
-161,-34,0,0,0,0,0,0,0,0,0,-1,1063,1058,0,0
-154,-34,0,0,0,0,0,0,0,0,0,-1,1070,1058,0,0
-147,-34,0,0,0,0,0,0,0,0,0,-1,1077,1058,0,0
-140,-34,0,0,0,0,0,0,0,0,0,-1,1084,1058,0,0
-133,-34,0,0,0,0,0,0,0,0,0,-1,1091,1058,0,0
-126,-34,0,0,0,0,0,0,0,0,0,-1,1098,1058,0,0
-119,-34,0,0,0,0,0,0,0,0,0,-1,1105,1058,0,0
-112,-34,0,0,0,0,0,0,0,0,0,-1,1112,1058,0,0
-105,-34,0,0,0,0,0,0,0,0,0,-1,1119,1058,0,0
-98,-34,0,0,0,0,0,0,0,0,0,-1,1126,1058,0,0
-91,-34,0,0,0,0,0,0,0,0,0,-1,1133,1058,0,0
-84,-34,0,0,0,0,0,0,0,0,0,-1,1140,1058,0,0
-77,-34,0,0,0,0,0,0,0,0,0,-1,1147,1058,0,0
-70,-34,0,0,0,0,0,0,0,0,0,-1,1154,1058,0,0
-63,-34,0,0,0,0,0,0,0,0,0,-1,1161,1058,0,0
-56,-34,0,0,0,0,0,0,0,0,0,-1,1168,1058,0,0
-49,-34,0,0,0,0,0,0,0,0,0,-1,1175,1058,0,0
-42,-34,0,0,0,0,0,0,0,0,0,-1,1182,1058,0,0
-35,-34,0,0,0,0,0,0,0,0,0,-1,1189,1058,0,0
-28,-34,0,0,0,0,0,0,0,0,0,-1,1196,1058,0,0
-21,-34,0,0,0,0,0,0,0,0,0,-1,1203,1058,0,0
-14,-34,0,0,0,0,0,0,0,0,0,-1,1210,1058,0,0
-7,-34,0,0,0,0,0,0,0,0,0,-1,1217,1058,0,0
0,-34,0,0,0,0,0,0,0,0,0,-1,1224,1058,0,0
7,-34,0,0,0,0,0,0,0,0,0,-1,1231,1058,0,0
14,-34,0,0,0,0,0,0,0,0,0,-1,1238,1058,0,0
21,-34,0,0,0,0,0,0,0,0,0,-1,1245,1058,0,0
28,-34,0,0,0,0,0,0,0,0,0,-1,1252,1058,0,0
35,-34,0,0,0,0,0,0,0,0,0,-1,1259,1058,0,0
42,-34,0,0,0,0,0,0,0,0,0,-1,1266,1058,0,0
49,-34,0,0,0,0,0,0,0,0,0,-1,1273,1058,0,0
56,-34,0,0,0,0,0,0,0,0,0,-1,1280,1058,0,0
63,-34,0,0,0,0,0,0,0,0,0,-1,1287,1058,0,0
70,-34,0,0,0,0,0,0,0,0,0,-1,1294,1058,0,0
77,-34,0,0,0,0,0,0,0,0,0,-1,1301,1058,0,0
84,-34,0,0,0,0,0,0,0,0,0,-1,1308,1058,0,0
91,-34,0,0,0,0,0,0,0,0,0,-1,1315,1058,0,0
98,-34,0,0,0,0,0,0,0,0,0,-1,1322,1058,0,0
105,-34,0,0,0,0,0,0,0,0,0,-1,1329,1058,0,0
112,-34,0,0,0,0,0,0,0,0,0,-1,1336,1058,0,0
119,-34,0,0,0,0,0,0,0,0,0,-1,1343,1058,0,0
126,-34,0,0,0,0,0,0,0,0,0,-1,1350,1058,0,0
133,-34,0,0,0,0,0,0,0,0,0,-1,1357,1058,0,0
140,-34,0,0,0,0,0,0,0,0,0,-1,1364,1058,0,0
147,-34,0,0,0,0,0,0,0,0,0,-1,1371,1058,0,0
154,-34,0,0,0,0,0,0,0,0,0,-1,1378,1058,0,0
161,-34,0,0,0,0,0,0,0,0,0,-1,1385,1058,0,0
168,-34,0,0,0,0,0,0,0,0,0,-1,1392,1058,0,0
175,-34,0,0,0,0,0,0,0,0,0,-1,1399,1058,0,0
182,-34,0,0,0,0,0,0,0,0,0,-1,1406,1058,0,0
189,-34,0,0,0,0,0,0,0,0,0,-1,1413,1058,0,0
196,-34,0,0,0,0,0,0,0,0,0,-1,1420,1058,0,0
203,-34,0,0,0,0,0,0,0,0,0,-1,1427,1058,0,0
210,-34,0,0,0,0,0,0,0,0,0,-1,1434,1058,0,0
217,-34,0,0,0,0,0,0,0,0,0,-1,1441,1058,0,0
224,-34,0,0,0,0,0,0,0,0,0,-1,1448,1058,0,0
231,-34,0,0,0,0,0,0,0,0,0,-1,1455,1058,0,0
238,-34,0,0,0,0,0,0,0,0,0,-1,1462,1058,0,0
245,-34,0,0,0,0,0,0,0,0,0,-1,1469,1058,0,0
252,-34,0,0,0,0,0,0,0,0,0,-1,1476,1058,0,0
259,-34,0,0,0,0,0,0,0,0,0,-1,1483,1058,0,0
266,-34,0,0,0,0,0,0,0,0,0,-1,1490,1058,0,0
273,-34,0,0,0,0,0,0,0,0,0,-1,1497,1058,0,0
280,-34,0,0,0,0,0,0,0,0,0,-1,1504,1058,0,0
287,-34,0,0,0,0,0,0,0,0,0,-1,1511,1058,0,0
294,-34,0,0,0,0,0,0,0,0,0,-1,1518,1058,0,0
301,-34,0,0,0,0,0,0,0,0,0,-1,1525,1058,0,0
308,-34,0,0,0,0,0,0,0,0,0,-1,1532,1058,0,0
315,-34,0,0,0,0,0,0,0,0,0,-1,1539,1058,0,0
322,-34,0,0,0,0,0,0,0,0,0,-1,1546,1058,0,0
329,-34,0,0,0,0,0,0,0,0,0,-1,1553,1058,0,0
336,-34,0,0,0,0,0,0,0,0,0,-1,1560,1058,0,0
343,-34,0,0,0,0,0,0,0,0,0,-1,1567,1058,0,0
350,-34,0,0,0,0,0,0,0,0,0,-1,1574,1058,0,0
357,-34,0,0,0,0,0,0,0,0,0,-1,1581,1058,0,0
364,-34,0,0,0,0,0,0,0,0,0,-1,1588,1058,0,0
371,-34,0,0,0,0,0,0,0,0,0,-1,1595,1058,0,0
378,-34,0,0,0,0,0,0,0,0,0,-1,1602,1058,0,0
385,-34,0,0,0,0,0,0,0,0,0,-1,1609,1058,0,0
392,-34,0,0,0,0,0,0,0,0,0,-1,1616,1058,0,0
399,-34,0,0,0,0,0,0,0,0,0,-1,1623,1058,0,0
406,-34,0,0,0,0,0,0,0,0,0,-1,1630,1058,0,0
413,-34,0,0,0,0,0,0,0,0,0,-1,1637,1058,0,0
420,-34,0,0,0,0,0,0,0,0,0,-1,1644,1058,0,0
427,-34,0,0,0,0,0,0,0,0,0,-1,1651,1058,0,0
434,-34,0,0,0,0,0,0,0,0,0,-1,1658,1058,0,0
441,-34,0,0,0,0,0,0,0,0,0,-1,1665,1058,0,0
448,-34,0,0,0,0,0,0,0,0,0,-1,1672,1058,0,0
455,-34,0,0,0,0,0,0,0,0,0,-1,1679,1058,0,0
462,-34,0,0,0,0,0,0,0,0,0,-1,1686,1058,0,0
469,-34,0,0,0,0,0,0,0,0,0,-1,1693,1058,0,0
476,-34,0,0,0,0,0,0,0,0,0,-1,1700,1058,0,0
483,-34,0,0,0,0,0,0,0,0,0,-1,1707,1058,0,0
490,-34,0,0,0,0,0,0,0,0,0,-1,1714,1058,0,0
497,-34,0,0,0,0,0,0,0,0,0,-1,1721,1058,0,0
504,-34,0,0,0,0,0,0,0,0,0,-1,1728,1058,0,0
511,-34,0,0,0,0,0,0,0,0,0,-1,1735,1058,0,0
518,-34,0,0,0,0,0,0,0,0,0,-1,1742,1058,0,0
525,-34,0,0,0,0,0,0,0,0,0,-1,1749,1058,0,0
532,-34,0,0,0,0,0,0,0,0,0,-1,1756,1058,0,0
539,-34,0,0,0,0,0,0,0,0,0,-1,1763,1058,0,0
546,-34,0,0,0,0,0,0,0,0,0,-1,1770,1058,0,0
553,-34,0,0,0,0,0,0,0,0,0,-1,1777,1058,0,0
560,-34,0,0,0,0,0,0,0,0,0,-1,1784,1058,0,0
567,-34,0,0,0,0,0,0,0,0,0,-1,1791,1058,0,0
574,-34,0,0,0,0,0,0,0,0,0,-1,1798,1058,0,0
581,-34,0,0,0,0,0,0,0,0,0,-1,1805,1058,0,0
588,-34,0,0,0,0,0,0,0,0,0,-1,1812,1058,0,0
595,-34,0,0,0,0,0,0,0,0,0,-1,1819,1058,0,0
602,-34,0,0,0,0,0,0,0,0,0,-1,1826,1058,0,0
609,-34,0,0,0,0,0,0,0,0,0,-1,1833,1058,0,0
616,-34,0,0,0,0,0,0,0,0,0,-1,1840,1058,0,0
623,-34,0,0,0,0,0,0,0,0,0,-1,1847,1058,0,0
630,-34,0,0,0,0,0,0,0,0,0,-1,1854,1058,0,0
637,-34,0,0,0,0,0,0,0,0,0,-1,1861,1058,0,0
644,-34,0,0,0,0,0,0,0,0,0,-1,1868,1058,0,0
651,-34,74.3621,2.27173,0.00167836,-0.00190889,0.000739618,0.00182487,-0.0020554,0.195558,0.00224159,0.0386192,1875,1058,74.3621,-2.2717
658,-34,74.4044,2.4176,0.000839847,-0.00136287,0.000617208,0.001001,-0.00152402,0.255399,0.00146821,0.0402141,1882,1058,74.4044,-2.4176
665,-34,74.4348,2.39319,0.00022578,-0.000903731,0.000534563,0.000438653,-0.0011166,0.37897,0.000925929,0.0379853,1889,1058,74.4348,-2.39317
672,-34,74.4032,2.17517,-0.000164218,-0.0004612,0.000523547,0.000231489,-0.000856907,0.647215,0.000662064,0.0350414,1896,1058,74.4032,-2.17519
679,-34,74.4797,1.97803,-0.000465993,-4.77631e-05,0.00056713,0.000347576,-0.000861333,0.962027,0.000718666,0.0380012,1903,1058,74.4797,-1.97808
686,-34,74.4608,1.8634,-0.00103591,-6.87569e-05,0.000676222,0.000279004,-0.00138367,1.0958,0.00102815,0.0467525,1910,1058,74.4608,-1.86338
693,-34,74.3993,2.06824,-0.00153987,-0.000253586,0.000909222,0.000216967,-0.00201042,1.09322,0.00141815,0.0464399,1917,1058,74.3992,-2.06819
700,-34,74.3728,2.23145,-0.00186585,-0.000405578,0.00127401,0.000332688,-0.00260412,1.0456,0.00185694,0.0421941,1924,1058,74.3728,-2.2314
707,-34,74.3826,2.23303,-0.00258508,-0.000205741,0.00153488,0.000546542,-0.00333736,1.11508,0.00242768,0.0272191,1931,1058,74.3826,-2.23302
714,-34,74.3867,2.33618,-0.00347076,0.000375758,0.00174381,0.00104861,-0.00414361,1.20255,0.00317029,0.0252991,1938,1058,74.3867,-2.33614
721,-34,74.3591,2.43384,0,0,0,0,0,0,0,-1,1945,1058,74.3591,-2.43386
728,-34,73.9906,7.78796,0,0,0,0,0,0,0,-1,1952,1058,73.9907,-7.78796
735,-34,73.8619,7.56702,-0.00695084,0.00379798,0.00223783,0.00424527,-0.00739813,1.37352,0.00680398,0.0227476,1959,1058,73.862,-7.56696
742,-34,73.7894,7.28186,-0.00690762,0.00546803,0.00204086,0.0057959,-0.00723549,1.4115,0.00753896,0.0204802,1966,1058,73.7894,-7.28181
749,-34,73.7794,7.01868,-0.00646889,0.00793113,0.00119149,0.00802905,-0.00656681,1.4888,0.00844101,0.0170923,1973,1058,73.7794,-7.01873
756,-34,73.752,6.70239,-0.00581959,0.0107491,0.000308288,0.0107548,-0.00582532,1.5522,0.00971257,0.0125128,1980,1058,73.7519,-6.70245
763,-34,73.6443,6.41406,-0.0038534,0.014934,-0.00123675,0.0150151,-0.00393446,-1.50534,0.0115472,0.013634,1987,1058,73.6442,-6.41408
770,-34,73.4832,6.1344,0.000778074,0.0205431,-0.00399321,0.0213194,1.79745e-06,-1.37879,0.0142123,0.018926,1994,1058,73.4831,-6.13444
777,-34,73.272,5.97119,0.00884205,0.0274218,-0.00812173,0.0304715,0.00579238,-1.21159,0.0186852,0.0236041,2001,1058,73.272,-5.97116
784,-34,73.272,5.79272,0.0191676,0.0347041,-0.0131945,0.0422473,0.0116244,-1.05145,0.0252002,0.0435077,2008,1058,73.2719,-5.79271
791,-34,73.062,5.6322,0.0333192,0.0427362,-0.0200927,0.0586647,0.0173906,-0.900491,0.0347931,0.0484629,2015,1058,73.062,-5.63215
798,-34,74.1287,3.34521,0,0,0,0,0,0,0,-1,2022,1058,74.1287,-3.34526
805,-34,73.5806,2.92395,0,0,0,0,0,0,0,-1,2029,1058,73.5806,-2.92396
812,-34,74.5815,1.16077,0,0,0,0,0,0,0,-1,2036,1058,74.5814,-1.16079
-700,-41,-58.7014,-7.61292,0,0,0,0,0,0,0,-1,524,1065,-58.7015,7.61287
-693,-41,-58.9855,-6.03052,0.174655,0.065246,0.0183194,0.177641,0.0622601,0.16157,0.104078,0.0444891,531,1065,-58.9855,6.03052
-686,-41,-58.9245,-4.55701,0.143235,0.0696001,0.0275773,0.152418,0.0604173,0.321438,0.0886262,0.0428957,538,1065,-58.9245,4.55704
-679,-41,-55.6177,-0.813599,0.114482,0.0685758,0.0309289,0.130045,0.0530135,0.466176,0.0755069,0.0450887,545,1065,-55.6177,0.813626
-672,-41,-56.5664,0.0411377,0.0887403,0.0644753,0.0308324,0.109741,0.0434742,0.597954,0.0638131,0.0449746,552,1065,-56.5664,-0.0411549
-665,-41,-57.5882,1.11707,0.066252,0.0585076,0.0286021,0.0912428,0.0335167,0.718117,0.0532936,0.0421592,559,1065,-57.5882,-1.11712
-658,-41,-57.3397,3.36108,0,0,0,0,0,0,0,-1,566,1065,-57.3397,-3.36112
-651,-41,-57.082,3.77087,0.0316637,0.0433939,0.0205946,0.0589423,0.0161153,0.924119,0.0351759,0.0347706,573,1065,-57.082,-3.77083
-644,-41,-57.197,4.21313,0.0195915,0.035068,0.015829,0.044949,0.00971052,1.01275,0.0273108,0.0165301,580,1065,-57.197,-4.21309
-637,-41,-57.2795,4.55334,0.0106913,0.0275498,0.0118546,0.0336665,0.00457464,1.09445,0.0210855,0.0182107,587,1065,-57.2795,-4.55335
-630,-41,-57.3222,4.96387,0.000157518,0.018742,0.00676458,0.0209435,-0.00204394,1.25617,0.0146911,0.0180482,594,1065,-57.3222,-4.96382
-623,-41,-57.2914,5.35754,-0.00280164,0.009783,0.00152986,0.00996631,-0.00298495,1.45154,0.00783117,0.0145326,601,1065,-57.2914,-5.35757
-616,-41,-57.3176,5.77881,0.00010478,0.00153087,-0.00233662,0.00326082,-0.00162517,-0.933491,0.00287313,0.0175309,608,1065,-57.3177,-5.77875
-609,-41,-57.2665,6.13635,0.00229921,-0.00540343,-0.00511278,0.00484892,-0.00795314,-0.462602,0.00746335,0.0242981,615,1065,-57.2665,-6.13633
-602,-41,-57.3002,6.39197,0.00453474,-0.0115591,-0.00648454,0.00682234,-0.0138467,-0.339146,0.0121608,0.0152858,622,1065,-57.3002,-6.39191
-595,-41,-57.4388,6.6272,0.00760765,-0.0164249,-0.00701458,0.00950523,-0.0183225,-0.264195,0.0163329,0.0263666,629,1065,-57.4388,-6.6272
-588,-41,-57.8638,6.71289,0,0,0,0,0,0,0,-1,636,1065,-57.8638,-6.71288
-581,-41,-57.3182,0.15918,0,0,0,0,0,0,0,-1,643,1065,-57.3182,-0.159125
-574,-41,-57.4391,-0.0142822,0,0,0,0,0,0,0,-1,650,1065,-57.4391,0.0142509
-567,-41,-57.2389,0.0336914,0,0,0,0,0,0,0,-1,657,1065,-57.2389,-0.0336746
-560,-41,-57.3129,0.346924,0,0,0,0,0,0,0,-1,664,1065,-57.3128,-0.346895
-553,-41,-57.3073,0.0289307,0,0,0,0,0,0,0,-1,671,1065,-57.3073,-0.0288891
-546,-41,-57.2413,-0.138672,0,0,0,0,0,0,0,-1,678,1065,-57.2414,0.138664
-539,-41,-57.2782,0.139038,0,0,0,0,0,0,0,-1,685,1065,-57.2782,-0.139015
-532,-41,-57.3377,-0.0330811,0,0,0,0,0,0,0,-1,692,1065,-57.3377,0.033055
-525,-41,0,0,0,0,0,0,0,0,0,-1,699,1065,0,0
-518,-41,0,0,0,0,0,0,0,0,0,-1,706,1065,0,0
-511,-41,0,0,0,0,0,0,0,0,0,-1,713,1065,0,0
-504,-41,0,0,0,0,0,0,0,0,0,-1,720,1065,0,0
-497,-41,0,0,0,0,0,0,0,0,0,-1,727,1065,0,0
-490,-41,0,0,0,0,0,0,0,0,0,-1,734,1065,0,0
-483,-41,0,0,0,0,0,0,0,0,0,-1,741,1065,0,0
-476,-41,0,0,0,0,0,0,0,0,0,-1,748,1065,0,0
-469,-41,0,0,0,0,0,0,0,0,0,-1,755,1065,0,0
-462,-41,0,0,0,0,0,0,0,0,0,-1,762,1065,0,0
-455,-41,0,0,0,0,0,0,0,0,0,-1,769,1065,0,0
-448,-41,0,0,0,0,0,0,0,0,0,-1,776,1065,0,0
-441,-41,0,0,0,0,0,0,0,0,0,-1,783,1065,0,0
-434,-41,0,0,0,0,0,0,0,0,0,-1,790,1065,0,0
-427,-41,0,0,0,0,0,0,0,0,0,-1,797,1065,0,0
-420,-41,0,0,0,0,0,0,0,0,0,-1,804,1065,0,0
-413,-41,0,0,0,0,0,0,0,0,0,-1,811,1065,0,0
-406,-41,0,0,0,0,0,0,0,0,0,-1,818,1065,0,0
-399,-41,0,0,0,0,0,0,0,0,0,-1,825,1065,0,0
-392,-41,0,0,0,0,0,0,0,0,0,-1,832,1065,0,0
-385,-41,0,0,0,0,0,0,0,0,0,-1,839,1065,0,0
-378,-41,0,0,0,0,0,0,0,0,0,-1,846,1065,0,0
-371,-41,0,0,0,0,0,0,0,0,0,-1,853,1065,0,0
-364,-41,0,0,0,0,0,0,0,0,0,-1,860,1065,0,0
-357,-41,0,0,0,0,0,0,0,0,0,-1,867,1065,0,0
-350,-41,0,0,0,0,0,0,0,0,0,-1,874,1065,0,0
-343,-41,0,0,0,0,0,0,0,0,0,-1,881,1065,0,0
-336,-41,0,0,0,0,0,0,0,0,0,-1,888,1065,0,0
-329,-41,0,0,0,0,0,0,0,0,0,-1,895,1065,0,0
-322,-41,0,0,0,0,0,0,0,0,0,-1,902,1065,0,0
-315,-41,0,0,0,0,0,0,0,0,0,-1,909,1065,0,0
-308,-41,0,0,0,0,0,0,0,0,0,-1,916,1065,0,0
-301,-41,0,0,0,0,0,0,0,0,0,-1,923,1065,0,0
-294,-41,0,0,0,0,0,0,0,0,0,-1,930,1065,0,0
-287,-41,0,0,0,0,0,0,0,0,0,-1,937,1065,0,0
-280,-41,0,0,0,0,0,0,0,0,0,-1,944,1065,0,0
-273,-41,0,0,0,0,0,0,0,0,0,-1,951,1065,0,0
-266,-41,0,0,0,0,0,0,0,0,0,-1,958,1065,0,0
-259,-41,0,0,0,0,0,0,0,0,0,-1,965,1065,0,0
-252,-41,0,0,0,0,0,0,0,0,0,-1,972,1065,0,0
-245,-41,0,0,0,0,0,0,0,0,0,-1,979,1065,0,0
-238,-41,0,0,0,0,0,0,0,0,0,-1,986,1065,0,0
-231,-41,0,0,0,0,0,0,0,0,0,-1,993,1065,0,0
-224,-41,0,0,0,0,0,0,0,0,0,-1,1000,1065,0,0
-217,-41,0,0,0,0,0,0,0,0,0,-1,1007,1065,0,0
-210,-41,0,0,0,0,0,0,0,0,0,-1,1014,1065,0,0
-203,-41,0,0,0,0,0,0,0,0,0,-1,1021,1065,0,0
-196,-41,0,0,0,0,0,0,0,0,0,-1,1028,1065,0,0
-189,-41,0,0,0,0,0,0,0,0,0,-1,1035,1065,0,0
-182,-41,0,0,0,0,0,0,0,0,0,-1,1042,1065,0,0
-175,-41,0,0,0,0,0,0,0,0,0,-1,1049,1065,0,0
-168,-41,0,0,0,0,0,0,0,0,0,-1,1056,1065,0,0
-161,-41,0,0,0,0,0,0,0,0,0,-1,1063,1065,0,0
-154,-41,0,0,0,0,0,0,0,0,0,-1,1070,1065,0,0
-147,-41,0,0,0,0,0,0,0,0,0,-1,1077,1065,0,0
-140,-41,0,0,0,0,0,0,0,0,0,-1,1084,1065,0,0
-133,-41,0,0,0,0,0,0,0,0,0,-1,1091,1065,0,0
-126,-41,0,0,0,0,0,0,0,0,0,-1,1098,1065,0,0
-119,-41,0,0,0,0,0,0,0,0,0,-1,1105,1065,0,0
-112,-41,0,0,0,0,0,0,0,0,0,-1,1112,1065,0,0
-105,-41,0,0,0,0,0,0,0,0,0,-1,1119,1065,0,0
-98,-41,0,0,0,0,0,0,0,0,0,-1,1126,1065,0,0
-91,-41,0,0,0,0,0,0,0,0,0,-1,1133,1065,0,0
-84,-41,0,0,0,0,0,0,0,0,0,-1,1140,1065,0,0
-77,-41,0,0,0,0,0,0,0,0,0,-1,1147,1065,0,0
-70,-41,0,0,0,0,0,0,0,0,0,-1,1154,1065,0,0
-63,-41,0,0,0,0,0,0,0,0,0,-1,1161,1065,0,0
-56,-41,0,0,0,0,0,0,0,0,0,-1,1168,1065,0,0
-49,-41,0,0,0,0,0,0,0,0,0,-1,1175,1065,0,0
-42,-41,0,0,0,0,0,0,0,0,0,-1,1182,1065,0,0
-35,-41,0,0,0,0,0,0,0,0,0,-1,1189,1065,0,0
-28,-41,0,0,0,0,0,0,0,0,0,-1,1196,1065,0,0
-21,-41,0,0,0,0,0,0,0,0,0,-1,1203,1065,0,0
-14,-41,0,0,0,0,0,0,0,0,0,-1,1210,1065,0,0
-7,-41,0,0,0,0,0,0,0,0,0,-1,1217,1065,0,0
0,-41,0,0,0,0,0,0,0,0,0,-1,1224,1065,0,0
7,-41,0,0,0,0,0,0,0,0,0,-1,1231,1065,0,0
14,-41,0,0,0,0,0,0,0,0,0,-1,1238,1065,0,0
21,-41,0,0,0,0,0,0,0,0,0,-1,1245,1065,0,0
28,-41,0,0,0,0,0,0,0,0,0,-1,1252,1065,0,0
35,-41,0,0,0,0,0,0,0,0,0,-1,1259,1065,0,0
42,-41,0,0,0,0,0,0,0,0,0,-1,1266,1065,0,0
49,-41,0,0,0,0,0,0,0,0,0,-1,1273,1065,0,0
56,-41,0,0,0,0,0,0,0,0,0,-1,1280,1065,0,0
63,-41,0,0,0,0,0,0,0,0,0,-1,1287,1065,0,0
70,-41,0,0,0,0,0,0,0,0,0,-1,1294,1065,0,0
77,-41,0,0,0,0,0,0,0,0,0,-1,1301,1065,0,0
84,-41,0,0,0,0,0,0,0,0,0,-1,1308,1065,0,0
91,-41,0,0,0,0,0,0,0,0,0,-1,1315,1065,0,0
98,-41,0,0,0,0,0,0,0,0,0,-1,1322,1065,0,0
105,-41,0,0,0,0,0,0,0,0,0,-1,1329,1065,0,0
112,-41,0,0,0,0,0,0,0,0,0,-1,1336,1065,0,0
119,-41,0,0,0,0,0,0,0,0,0,-1,1343,1065,0,0
126,-41,0,0,0,0,0,0,0,0,0,-1,1350,1065,0,0
133,-41,0,0,0,0,0,0,0,0,0,-1,1357,1065,0,0
140,-41,0,0,0,0,0,0,0,0,0,-1,1364,1065,0,0
147,-41,0,0,0,0,0,0,0,0,0,-1,1371,1065,0,0
154,-41,0,0,0,0,0,0,0,0,0,-1,1378,1065,0,0
161,-41,0,0,0,0,0,0,0,0,0,-1,1385,1065,0,0
168,-41,0,0,0,0,0,0,0,0,0,-1,1392,1065,0,0
175,-41,0,0,0,0,0,0,0,0,0,-1,1399,1065,0,0
182,-41,0,0,0,0,0,0,0,0,0,-1,1406,1065,0,0
189,-41,0,0,0,0,0,0,0,0,0,-1,1413,1065,0,0
196,-41,0,0,0,0,0,0,0,0,0,-1,1420,1065,0,0
203,-41,0,0,0,0,0,0,0,0,0,-1,1427,1065,0,0
210,-41,0,0,0,0,0,0,0,0,0,-1,1434,1065,0,0
217,-41,0,0,0,0,0,0,0,0,0,-1,1441,1065,0,0
224,-41,0,0,0,0,0,0,0,0,0,-1,1448,1065,0,0
231,-41,0,0,0,0,0,0,0,0,0,-1,1455,1065,0,0
238,-41,0,0,0,0,0,0,0,0,0,-1,1462,1065,0,0
245,-41,0,0,0,0,0,0,0,0,0,-1,1469,1065,0,0
252,-41,0,0,0,0,0,0,0,0,0,-1,1476,1065,0,0
259,-41,0,0,0,0,0,0,0,0,0,-1,1483,1065,0,0
266,-41,0,0,0,0,0,0,0,0,0,-1,1490,1065,0,0
273,-41,0,0,0,0,0,0,0,0,0,-1,1497,1065,0,0
280,-41,0,0,0,0,0,0,0,0,0,-1,1504,1065,0,0
287,-41,0,0,0,0,0,0,0,0,0,-1,1511,1065,0,0
294,-41,0,0,0,0,0,0,0,0,0,-1,1518,1065,0,0
301,-41,0,0,0,0,0,0,0,0,0,-1,1525,1065,0,0
308,-41,0,0,0,0,0,0,0,0,0,-1,1532,1065,0,0
315,-41,0,0,0,0,0,0,0,0,0,-1,1539,1065,0,0
322,-41,0,0,0,0,0,0,0,0,0,-1,1546,1065,0,0
329,-41,0,0,0,0,0,0,0,0,0,-1,1553,1065,0,0
336,-41,0,0,0,0,0,0,0,0,0,-1,1560,1065,0,0
343,-41,0,0,0,0,0,0,0,0,0,-1,1567,1065,0,0
350,-41,0,0,0,0,0,0,0,0,0,-1,1574,1065,0,0
357,-41,0,0,0,0,0,0,0,0,0,-1,1581,1065,0,0
364,-41,0,0,0,0,0,0,0,0,0,-1,1588,1065,0,0
371,-41,0,0,0,0,0,0,0,0,0,-1,1595,1065,0,0
378,-41,0,0,0,0,0,0,0,0,0,-1,1602,1065,0,0
385,-41,0,0,0,0,0,0,0,0,0,-1,1609,1065,0,0
392,-41,0,0,0,0,0,0,0,0,0,-1,1616,1065,0,0
399,-41,0,0,0,0,0,0,0,0,0,-1,1623,1065,0,0
406,-41,0,0,0,0,0,0,0,0,0,-1,1630,1065,0,0
413,-41,0,0,0,0,0,0,0,0,0,-1,1637,1065,0,0
420,-41,0,0,0,0,0,0,0,0,0,-1,1644,1065,0,0
427,-41,0,0,0,0,0,0,0,0,0,-1,1651,1065,0,0
434,-41,0,0,0,0,0,0,0,0,0,-1,1658,1065,0,0
441,-41,0,0,0,0,0,0,0,0,0,-1,1665,1065,0,0
448,-41,0,0,0,0,0,0,0,0,0,-1,1672,1065,0,0
455,-41,0,0,0,0,0,0,0,0,0,-1,1679,1065,0,0
462,-41,0,0,0,0,0,0,0,0,0,-1,1686,1065,0,0
469,-41,0,0,0,0,0,0,0,0,0,-1,1693,1065,0,0
476,-41,0,0,0,0,0,0,0,0,0,-1,1700,1065,0,0
483,-41,0,0,0,0,0,0,0,0,0,-1,1707,1065,0,0
490,-41,0,0,0,0,0,0,0,0,0,-1,1714,1065,0,0
497,-41,0,0,0,0,0,0,0,0,0,-1,1721,1065,0,0
504,-41,0,0,0,0,0,0,0,0,0,-1,1728,1065,0,0
511,-41,0,0,0,0,0,0,0,0,0,-1,1735,1065,0,0
518,-41,0,0,0,0,0,0,0,0,0,-1,1742,1065,0,0
525,-41,0,0,0,0,0,0,0,0,0,-1,1749,1065,0,0
532,-41,0,0,0,0,0,0,0,0,0,-1,1756,1065,0,0
539,-41,0,0,0,0,0,0,0,0,0,-1,1763,1065,0,0
546,-41,0,0,0,0,0,0,0,0,0,-1,1770,1065,0,0
553,-41,0,0,0,0,0,0,0,0,0,-1,1777,1065,0,0
560,-41,0,0,0,0,0,0,0,0,0,-1,1784,1065,0,0
567,-41,0,0,0,0,0,0,0,0,0,-1,1791,1065,0,0
574,-41,0,0,0,0,0,0,0,0,0,-1,1798,1065,0,0
581,-41,0,0,0,0,0,0,0,0,0,-1,1805,1065,0,0
588,-41,0,0,0,0,0,0,0,0,0,-1,1812,1065,0,0
595,-41,0,0,0,0,0,0,0,0,0,-1,1819,1065,0,0
602,-41,0,0,0,0,0,0,0,0,0,-1,1826,1065,0,0
609,-41,0,0,0,0,0,0,0,0,0,-1,1833,1065,0,0
616,-41,0,0,0,0,0,0,0,0,0,-1,1840,1065,0,0
623,-41,0,0,0,0,0,0,0,0,0,-1,1847,1065,0,0
630,-41,0,0,0,0,0,0,0,0,0,-1,1854,1065,0,0
637,-41,0,0,0,0,0,0,0,0,0,-1,1861,1065,0,0
644,-41,0,0,0,0,0,0,0,0,0,-1,1868,1065,0,0
651,-41,74.4027,2.18628,0.00136936,-0.00201665,0.0009398,0.00161272,-0.00226,0.253378,0.0022463,0.0347306,1875,1065,74.4027,-2.18629
658,-41,74.399,2.2522,0.00067677,-0.00152763,0.000656555,0.0008575,-0.00170836,0.268618,0.0015083,0.0391012,1882,1065,74.3991,-2.25223
665,-41,74.3704,2.28247,0.000165529,-0.0011325,0.000458641,0.000311228,-0.0012782,0.307595,0.00097262,0.0400298,1889,1065,74.3703,-2.2825
672,-41,74.4518,2.01306,-0.000160984,-0.000742415,0.000360651,1.15333e-05,-0.000914933,0.446178,0.000613836,0.0385301,1896,1065,74.4517,-2.01305
679,-41,74.4812,1.95398,-0.000421368,-0.000374363,0.000331398,-6.56349e-05,-0.000730096,0.820799,0.000466394,0.0384255,1903,1065,74.4812,-1.95402
686,-41,74.5516,1.91541,-0.000952713,-0.000390559,0.000386171,-0.000194004,-0.00114927,1.09999,0.000710397,0.0434094,1910,1065,74.5517,-1.91543
693,-41,74.5049,1.94873,-0.00140935,-0.000547396,0.000609026,-0.00023228,-0.00172446,1.09332,0.00108057,0.0463886,1917,1065,74.5049,-1.94874
700,-41,74.4164,2.28552,-0.00169752,-0.000619332,0.000983847,-3.65616e-05,-0.00228029,1.03603,0.00150815,0.041239,1924,1065,74.4164,-2.28556
707,-41,74.4215,2.26331,-0.00234248,-0.000417551,0.0012975,0.00023549,-0.00299552,1.10451,0.00207996,0.0299282,1931,1065,74.4216,-2.2633
714,-41,74.3947,2.24512,-0.0031389,9.92902e-05,0.00158818,0.000748186,-0.00378779,1.18292,0.00280802,0.0297482,1938,1065,74.3946,-2.24517
721,-41,74.3877,2.271,0,0,0,0,0,0,0,-1,1945,1065,74.3877,-2.27103
728,-41,73.6166,7.86243,0,0,0,0,0,0,0,-1,1952,1065,73.6165,-7.86238
735,-41,73.4988,7.54211,-0.00630532,0.0033235,0.00236379,0.00387249,-0.00685431,1.34259,0.00627237,0.0241861,1959,1065,73.4988,-7.54216
742,-41,73.4261,7.20972,-0.00609661,0.00490925,0.00224885,0.00535103,-0.00653838,1.37682,0.00687576,0.0208949,1966,1065,73.4262,-7.20976
749,-41,73.3969,6.98193,-0.00545507,0.00719963,0.00153522,0.00738321,-0.00563866,1.45178,0.00754064,0.0178728,1973,1065,73.3968,-6.98197
756,-41,73.4128,6.70728,-0.00448857,0.00977527,0.000744434,0.00981401,-0.00452731,1.51879,0.00846542,0.0151535,1980,1065,73.4129,-6.70725
763,-41,73.2864,6.34753,-0.00216084,0.013725,-0.000745689,0.0137599,-0.00219576,-1.52399,0.00998599,0.0126066,1987,1065,73.2863,-6.34756
770,-41,73.1206,6.0531,0.00285717,0.01896,-0.00346665,0.0196746,0.00214257,-1.36751,0.0124637,0.0138368,1994,1065,73.1206,-6.05306
777,-41,72.8899,5.74146,0.0112292,0.0253226,-0.00752137,0.0285826,0.00796926,-1.16181,0.0170319,0.0184989,2001,1065,72.8899,-5.74143
784,-41,72.7559,5.33093,0.021835,0.0320767,-0.0124822,0.0404477,0.013464,-0.980055,0.0237833,0.0306885,2008,1065,72.7559,-5.33093
791,-41,72.8618,4.87927,0.0361152,0.039553,-0.0191315,0.0570426,0.0186255,-0.830202,0.0335879,0.0458065,2015,1065,72.8617,-4.87924
798,-41,73.1147,4.37134,0,0,0,0,0,0,0,-1,2022,1065,73.1148,-4.37138
805,-41,71.667,2.04858,0,0,0,0,0,0,0,-1,2029,1065,71.667,-2.04858
812,-41,73.8101,2.06104,0,0,0,0,0,0,0,-1,2036,1065,73.81,-2.06107
-700,-48,-57.2585,-7.59375,0,0,0,0,0,0,0,-1,524,1072,-57.2585,7.59379
-693,-48,-57.1907,-6.13623,0.140837,0.0638328,0.00929515,0.141943,0.0627267,0.118443,0.082135,0.0416147,531,1072,-57.1907,6.13627
-686,-48,-57.3499,-4.901,0.113495,0.0674244,0.019926,0.120917,0.060002,0.356578,0.0698121,0.0431564,538,1072,-57.3499,4.90099
-679,-48,-56.2149,-1.73035,0,0,0,0,0,0,0,-1,545,1072,-56.215,1.73029
-672,-48,-56.4034,-0.609985,0.0671884,0.0621759,0.0258128,0.0906164,0.0387479,0.737003,0.0524999,0.0494298,552,1072,-56.4034,0.609924
-665,-48,-56.661,0.532593,0.0486446,0.0564249,0.0247464,0.077585,0.0274845,0.863361,0.0454237,0.0469887,559,1072,-56.661,-0.532616
-658,-48,-56.7392,1.62891,0.0333093,0.0494973,0.0221452,0.0649813,0.0178252,0.960604,0.03877,0.0455468,566,1072,-56.7392,-1.62895
-651,-48,-56.5807,3.12573,0.0212534,0.0418124,0.0185626,0.0527517,0.0103141,1.03827,0.0322837,0.0414151,573,1072,-56.5807,-3.12573
-644,-48,-56.6788,4.17493,0.0123275,0.033739,0.0144673,0.0410309,0.00503561,1.10393,0.0258395,0.0235601,580,1072,-56.6788,-4.17497
-637,-48,-56.7687,4.4585,0.0059549,0.0263404,0.0110182,0.0311574,0.00113789,1.15865,0.0204029,0.0257045,587,1072,-56.7687,-4.45849
-630,-48,-56.845,4.88196,-0.00134996,0.0177786,0.00650747,0.0197825,-0.00335385,1.27207,0.0144368,0.0317113,594,1072,-56.845,-4.88194
-623,-48,-56.9083,5.29944,-0.00262281,0.00940937,0.00170235,0.00964558,-0.00285902,1.43292,0.00756566,0.0153817,601,1072,-56.9082,-5.29941
-616,-48,-56.9093,5.6886,0.00036928,0.00138643,-0.00205313,0.00299304,-0.00123733,-0.906808,0.00251154,0.0127012,608,1072,-56.9093,-5.68855
-609,-48,-56.8659,6.11084,0.0026557,-0.00526958,-0.00474177,0.00487262,-0.00748649,-0.437335,0.00718854,0.0148198,615,1072,-56.8659,-6.11087
-602,-48,-56.8574,6.48193,0.00501387,-0.0110422,-0.00605642,0.00704215,-0.0130705,-0.323158,0.0117846,0.0154202,622,1072,-56.8574,-6.48188
-595,-48,-56.9113,6.77197,0.00815287,-0.0156997,-0.00642243,0.00977221,-0.0173191,-0.246989,0.0158422,0.0370734,629,1072,-56.9113,-6.77193
-588,-48,-57.1992,6.97253,0,0,0,0,0,0,0,-1,636,1072,-57.1992,-6.97253
-581,-48,-57.2869,0.151123,0,0,0,0,0,0,0,-1,643,1072,-57.2869,-0.151161
-574,-48,-57.42,0.0570068,0,0,0,0,0,0,0,-1,650,1072,-57.42,-0.0570187
-567,-48,-57.3525,0.419556,0,0,0,0,0,0,0,-1,657,1072,-57.3525,-0.419573
-560,-48,-57.3507,0.352905,0,0,0,0,0,0,0,-1,664,1072,-57.3507,-0.352919
-553,-48,-57.4653,0.00195313,0,0,0,0,0,0,0,-1,671,1072,-57.4652,-0.00195805
-546,-48,-57.4414,-0.0834961,0,0,0,0,0,0,0,-1,678,1072,-57.4414,0.0834546
-539,-48,-57.3331,0.108765,0,0,0,0,0,0,0,-1,685,1072,-57.3331,-0.108781
-532,-48,-57.4277,0.0509033,0,0,0,0,0,0,0,-1,692,1072,-57.4277,-0.0509389
-525,-48,0,0,0,0,0,0,0,0,0,-1,699,1072,0,0
-518,-48,0,0,0,0,0,0,0,0,0,-1,706,1072,0,0
-511,-48,0,0,0,0,0,0,0,0,0,-1,713,1072,0,0
-504,-48,0,0,0,0,0,0,0,0,0,-1,720,1072,0,0
-497,-48,0,0,0,0,0,0,0,0,0,-1,727,1072,0,0
-490,-48,0,0,0,0,0,0,0,0,0,-1,734,1072,0,0
-483,-48,0,0,0,0,0,0,0,0,0,-1,741,1072,0,0
-476,-48,0,0,0,0,0,0,0,0,0,-1,748,1072,0,0
-469,-48,0,0,0,0,0,0,0,0,0,-1,755,1072,0,0
-462,-48,0,0,0,0,0,0,0,0,0,-1,762,1072,0,0
-455,-48,0,0,0,0,0,0,0,0,0,-1,769,1072,0,0
-448,-48,0,0,0,0,0,0,0,0,0,-1,776,1072,0,0
-441,-48,0,0,0,0,0,0,0,0,0,-1,783,1072,0,0
-434,-48,0,0,0,0,0,0,0,0,0,-1,790,1072,0,0
-427,-48,0,0,0,0,0,0,0,0,0,-1,797,1072,0,0
-420,-48,0,0,0,0,0,0,0,0,0,-1,804,1072,0,0
-413,-48,0,0,0,0,0,0,0,0,0,-1,811,1072,0,0
-406,-48,0,0,0,0,0,0,0,0,0,-1,818,1072,0,0
-399,-48,0,0,0,0,0,0,0,0,0,-1,825,1072,0,0
-392,-48,0,0,0,0,0,0,0,0,0,-1,832,1072,0,0
-385,-48,0,0,0,0,0,0,0,0,0,-1,839,1072,0,0
-378,-48,0,0,0,0,0,0,0,0,0,-1,846,1072,0,0
-371,-48,0,0,0,0,0,0,0,0,0,-1,853,1072,0,0
-364,-48,0,0,0,0,0,0,0,0,0,-1,860,1072,0,0
-357,-48,0,0,0,0,0,0,0,0,0,-1,867,1072,0,0
-350,-48,0,0,0,0,0,0,0,0,0,-1,874,1072,0,0
-343,-48,0,0,0,0,0,0,0,0,0,-1,881,1072,0,0
-336,-48,0,0,0,0,0,0,0,0,0,-1,888,1072,0,0
-329,-48,0,0,0,0,0,0,0,0,0,-1,895,1072,0,0
-322,-48,0,0,0,0,0,0,0,0,0,-1,902,1072,0,0
-315,-48,0,0,0,0,0,0,0,0,0,-1,909,1072,0,0
-308,-48,0,0,0,0,0,0,0,0,0,-1,916,1072,0,0
-301,-48,0,0,0,0,0,0,0,0,0,-1,923,1072,0,0
-294,-48,0,0,0,0,0,0,0,0,0,-1,930,1072,0,0
-287,-48,0,0,0,0,0,0,0,0,0,-1,937,1072,0,0
-280,-48,0,0,0,0,0,0,0,0,0,-1,944,1072,0,0
-273,-48,0,0,0,0,0,0,0,0,0,-1,951,1072,0,0
-266,-48,0,0,0,0,0,0,0,0,0,-1,958,1072,0,0
-259,-48,0,0,0,0,0,0,0,0,0,-1,965,1072,0,0
-252,-48,0,0,0,0,0,0,0,0,0,-1,972,1072,0,0
-245,-48,0,0,0,0,0,0,0,0,0,-1,979,1072,0,0
-238,-48,0,0,0,0,0,0,0,0,0,-1,986,1072,0,0
-231,-48,0,0,0,0,0,0,0,0,0,-1,993,1072,0,0
-224,-48,0,0,0,0,0,0,0,0,0,-1,1000,1072,0,0
-217,-48,0,0,0,0,0,0,0,0,0,-1,1007,1072,0,0
-210,-48,0,0,0,0,0,0,0,0,0,-1,1014,1072,0,0
-203,-48,0,0,0,0,0,0,0,0,0,-1,1021,1072,0,0
-196,-48,0,0,0,0,0,0,0,0,0,-1,1028,1072,0,0
-189,-48,0,0,0,0,0,0,0,0,0,-1,1035,1072,0,0
-182,-48,0,0,0,0,0,0,0,0,0,-1,1042,1072,0,0
-175,-48,0,0,0,0,0,0,0,0,0,-1,1049,1072,0,0
-168,-48,0,0,0,0,0,0,0,0,0,-1,1056,1072,0,0
-161,-48,0,0,0,0,0,0,0,0,0,-1,1063,1072,0,0
-154,-48,0,0,0,0,0,0,0,0,0,-1,1070,1072,0,0
-147,-48,0,0,0,0,0,0,0,0,0,-1,1077,1072,0,0
-140,-48,0,0,0,0,0,0,0,0,0,-1,1084,1072,0,0
-133,-48,0,0,0,0,0,0,0,0,0,-1,1091,1072,0,0
-126,-48,0,0,0,0,0,0,0,0,0,-1,1098,1072,0,0
-119,-48,0,0,0,0,0,0,0,0,0,-1,1105,1072,0,0
-112,-48,0,0,0,0,0,0,0,0,0,-1,1112,1072,0,0
-105,-48,0,0,0,0,0,0,0,0,0,-1,1119,1072,0,0
-98,-48,0,0,0,0,0,0,0,0,0,-1,1126,1072,0,0
-91,-48,0,0,0,0,0,0,0,0,0,-1,1133,1072,0,0
-84,-48,0,0,0,0,0,0,0,0,0,-1,1140,1072,0,0
-77,-48,0,0,0,0,0,0,0,0,0,-1,1147,1072,0,0
-70,-48,0,0,0,0,0,0,0,0,0,-1,1154,1072,0,0
-63,-48,0,0,0,0,0,0,0,0,0,-1,1161,1072,0,0
-56,-48,0,0,0,0,0,0,0,0,0,-1,1168,1072,0,0
-49,-48,0,0,0,0,0,0,0,0,0,-1,1175,1072,0,0
-42,-48,0,0,0,0,0,0,0,0,0,-1,1182,1072,0,0
-35,-48,0,0,0,0,0,0,0,0,0,-1,1189,1072,0,0
-28,-48,0,0,0,0,0,0,0,0,0,-1,1196,1072,0,0
-21,-48,0,0,0,0,0,0,0,0,0,-1,1203,1072,0,0
-14,-48,0,0,0,0,0,0,0,0,0,-1,1210,1072,0,0
-7,-48,0,0,0,0,0,0,0,0,0,-1,1217,1072,0,0
0,-48,0,0,0,0,0,0,0,0,0,-1,1224,1072,0,0
7,-48,0,0,0,0,0,0,0,0,0,-1,1231,1072,0,0
14,-48,0,0,0,0,0,0,0,0,0,-1,1238,1072,0,0
21,-48,0,0,0,0,0,0,0,0,0,-1,1245,1072,0,0
28,-48,0,0,0,0,0,0,0,0,0,-1,1252,1072,0,0
35,-48,0,0,0,0,0,0,0,0,0,-1,1259,1072,0,0
42,-48,0,0,0,0,0,0,0,0,0,-1,1266,1072,0,0
49,-48,0,0,0,0,0,0,0,0,0,-1,1273,1072,0,0
56,-48,0,0,0,0,0,0,0,0,0,-1,1280,1072,0,0
63,-48,0,0,0,0,0,0,0,0,0,-1,1287,1072,0,0
70,-48,0,0,0,0,0,0,0,0,0,-1,1294,1072,0,0
77,-48,0,0,0,0,0,0,0,0,0,-1,1301,1072,0,0
84,-48,0,0,0,0,0,0,0,0,0,-1,1308,1072,0,0
91,-48,0,0,0,0,0,0,0,0,0,-1,1315,1072,0,0
98,-48,0,0,0,0,0,0,0,0,0,-1,1322,1072,0,0
105,-48,0,0,0,0,0,0,0,0,0,-1,1329,1072,0,0
112,-48,0,0,0,0,0,0,0,0,0,-1,1336,1072,0,0
119,-48,0,0,0,0,0,0,0,0,0,-1,1343,1072,0,0
126,-48,0,0,0,0,0,0,0,0,0,-1,1350,1072,0,0
133,-48,0,0,0,0,0,0,0,0,0,-1,1357,1072,0,0
140,-48,0,0,0,0,0,0,0,0,0,-1,1364,1072,0,0
147,-48,0,0,0,0,0,0,0,0,0,-1,1371,1072,0,0
154,-48,0,0,0,0,0,0,0,0,0,-1,1378,1072,0,0
161,-48,0,0,0,0,0,0,0,0,0,-1,1385,1072,0,0
168,-48,0,0,0,0,0,0,0,0,0,-1,1392,1072,0,0
175,-48,0,0,0,0,0,0,0,0,0,-1,1399,1072,0,0
182,-48,0,0,0,0,0,0,0,0,0,-1,1406,1072,0,0
189,-48,0,0,0,0,0,0,0,0,0,-1,1413,1072,0,0
196,-48,0,0,0,0,0,0,0,0,0,-1,1420,1072,0,0
203,-48,0,0,0,0,0,0,0,0,0,-1,1427,1072,0,0
210,-48,0,0,0,0,0,0,0,0,0,-1,1434,1072,0,0
217,-48,0,0,0,0,0,0,0,0,0,-1,1441,1072,0,0
224,-48,0,0,0,0,0,0,0,0,0,-1,1448,1072,0,0
231,-48,0,0,0,0,0,0,0,0,0,-1,1455,1072,0,0
238,-48,0,0,0,0,0,0,0,0,0,-1,1462,1072,0,0
245,-48,0,0,0,0,0,0,0,0,0,-1,1469,1072,0,0
252,-48,0,0,0,0,0,0,0,0,0,-1,1476,1072,0,0
259,-48,0,0,0,0,0,0,0,0,0,-1,1483,1072,0,0
266,-48,0,0,0,0,0,0,0,0,0,-1,1490,1072,0,0
273,-48,0,0,0,0,0,0,0,0,0,-1,1497,1072,0,0
280,-48,0,0,0,0,0,0,0,0,0,-1,1504,1072,0,0
287,-48,0,0,0,0,0,0,0,0,0,-1,1511,1072,0,0
294,-48,0,0,0,0,0,0,0,0,0,-1,1518,1072,0,0
301,-48,0,0,0,0,0,0,0,0,0,-1,1525,1072,0,0
308,-48,0,0,0,0,0,0,0,0,0,-1,1532,1072,0,0
315,-48,0,0,0,0,0,0,0,0,0,-1,1539,1072,0,0
322,-48,0,0,0,0,0,0,0,0,0,-1,1546,1072,0,0
329,-48,0,0,0,0,0,0,0,0,0,-1,1553,1072,0,0
336,-48,0,0,0,0,0,0,0,0,0,-1,1560,1072,0,0
343,-48,0,0,0,0,0,0,0,0,0,-1,1567,1072,0,0
350,-48,0,0,0,0,0,0,0,0,0,-1,1574,1072,0,0
357,-48,0,0,0,0,0,0,0,0,0,-1,1581,1072,0,0
364,-48,0,0,0,0,0,0,0,0,0,-1,1588,1072,0,0
371,-48,0,0,0,0,0,0,0,0,0,-1,1595,1072,0,0
378,-48,0,0,0,0,0,0,0,0,0,-1,1602,1072,0,0
385,-48,0,0,0,0,0,0,0,0,0,-1,1609,1072,0,0
392,-48,0,0,0,0,0,0,0,0,0,-1,1616,1072,0,0
399,-48,0,0,0,0,0,0,0,0,0,-1,1623,1072,0,0
406,-48,0,0,0,0,0,0,0,0,0,-1,1630,1072,0,0
413,-48,0,0,0,0,0,0,0,0,0,-1,1637,1072,0,0
420,-48,0,0,0,0,0,0,0,0,0,-1,1644,1072,0,0
427,-48,0,0,0,0,0,0,0,0,0,-1,1651,1072,0,0
434,-48,0,0,0,0,0,0,0,0,0,-1,1658,1072,0,0
441,-48,0,0,0,0,0,0,0,0,0,-1,1665,1072,0,0
448,-48,0,0,0,0,0,0,0,0,0,-1,1672,1072,0,0
455,-48,0,0,0,0,0,0,0,0,0,-1,1679,1072,0,0
462,-48,0,0,0,0,0,0,0,0,0,-1,1686,1072,0,0
469,-48,0,0,0,0,0,0,0,0,0,-1,1693,1072,0,0
476,-48,0,0,0,0,0,0,0,0,0,-1,1700,1072,0,0
483,-48,0,0,0,0,0,0,0,0,0,-1,1707,1072,0,0
490,-48,0,0,0,0,0,0,0,0,0,-1,1714,1072,0,0
497,-48,0,0,0,0,0,0,0,0,0,-1,1721,1072,0,0
504,-48,0,0,0,0,0,0,0,0,0,-1,1728,1072,0,0
511,-48,0,0,0,0,0,0,0,0,0,-1,1735,1072,0,0
518,-48,0,0,0,0,0,0,0,0,0,-1,1742,1072,0,0
525,-48,0,0,0,0,0,0,0,0,0,-1,1749,1072,0,0
532,-48,0,0,0,0,0,0,0,0,0,-1,1756,1072,0,0
539,-48,0,0,0,0,0,0,0,0,0,-1,1763,1072,0,0
546,-48,0,0,0,0,0,0,0,0,0,-1,1770,1072,0,0
553,-48,0,0,0,0,0,0,0,0,0,-1,1777,1072,0,0
560,-48,0,0,0,0,0,0,0,0,0,-1,1784,1072,0,0
567,-48,0,0,0,0,0,0,0,0,0,-1,1791,1072,0,0
574,-48,0,0,0,0,0,0,0,0,0,-1,1798,1072,0,0
581,-48,0,0,0,0,0,0,0,0,0,-1,1805,1072,0,0
588,-48,0,0,0,0,0,0,0,0,0,-1,1812,1072,0,0
595,-48,0,0,0,0,0,0,0,0,0,-1,1819,1072,0,0
602,-48,0,0,0,0,0,0,0,0,0,-1,1826,1072,0,0
609,-48,0,0,0,0,0,0,0,0,0,-1,1833,1072,0,0
616,-48,0,0,0,0,0,0,0,0,0,-1,1840,1072,0,0
623,-48,0,0,0,0,0,0,0,0,0,-1,1847,1072,0,0
630,-48,0,0,0,0,0,0,0,0,0,-1,1854,1072,0,0
637,-48,0,0,0,0,0,0,0,0,0,-1,1861,1072,0,0
644,-48,0,0,0,0,0,0,0,0,0,-1,1868,1072,0,0
651,-48,74.4508,2.17896,0.00132128,-0.00179289,0.000771033,0.00150172,-0.00197333,0.229891,0.00201247,0.0327963,1875,1072,74.4508,-2.17895
658,-48,74.3204,2.18628,0.000704182,-0.00135564,0.000493168,0.000816169,-0.00146762,0.223291,0.00133631,0.0367282,1882,1072,74.3204,-2.18634
665,-48,74.3199,2.19849,0.000229956,-0.00103146,0.000284283,0.000291064,-0.00109257,0.211733,0.000842332,0.0428224,1889,1072,74.32,-2.19845
672,-48,74.3988,1.99731,-9.38755e-05,-0.00070989,0.000154678,-5.72179e-05,-0.000746547,0.232699,0.000479764,0.0411452,1896,1072,74.3988,-1.99731
679,-48,74.3556,1.98962,-0.000372725,-0.000410883,7.99165e-05,-0.000309642,-0.000473967,0.668224,0.000277899,0.0391678,1903,1072,74.3556,-1.98956
686,-48,74.3364,1.9425,-0.00090215,-0.000447462,7.60952e-05,-0.000435065,-0.000914547,1.4093,0.000528221,0.0416086,1910,1072,74.3364,-1.94246
693,-48,74.4686,1.83386,-0.00133661,-0.000618849,0.000265839,-0.000531114,-0.00142435,1.25202,0.00083116,0.0422119,1917,1072,74.4686,-1.83388
700,-48,74.4904,2.04907,-0.00160011,-0.000669891,0.000615434,-0.000363582,-0.00190642,1.10898,0.00116876,0.0347821,1924,1072,74.4903,-2.04901
707,-48,74.4552,2.21753,-0.00217355,-0.000492836,0.000954007,-6.18431e-05,-0.00260454,1.14647,0.00171612,0.0286319,1931,1072,74.4552,-2.21757
714,-48,74.4149,2.14893,-0.00288939,-6.84435e-05,0.00129741,0.000437518,-0.00339535,1.19896,0.00242261,0.0468215,1938,1072,74.4149,-2.14891
721,-48,74.4244,2.06213,0,0,0,0,0,0,0,-1,1945,1072,74.4244,-2.06214
728,-48,73.2352,8.1123,0,0,0,0,0,0,0,-1,1952,1072,73.2352,-8.1123
735,-48,73.1091,7.74011,-0.00574244,0.00283519,0.00227048,0.00339911,-0.00630636,1.32735,0.00568664,0.0253334,1959,1072,73.1091,-7.74016
742,-48,72.9651,7.33594,-0.00541791,0.00430312,0.00225281,0.00479982,-0.00591461,1.35379,0.00619713,0.0194767,1966,1072,72.9651,-7.33589
749,-48,72.9614,6.98291,-0.00464261,0.00637356,0.0017053,0.0066315,-0.00490055,1.42068,0.00668299,0.0166775,1973,1072,72.9615,-6.9829
756,-48,72.9402,6.65491,-0.00343395,0.00869405,0.00103289,0.00878139,-0.00352129,1.48644,0.00731616,0.0145441,1980,1072,72.9402,-6.65494
763,-48,72.834,6.29846,-0.000844778,0.0124471,-0.000365693,0.0124571,-0.000854831,-1.54331,0.00860386,0.0135946,1987,1072,72.834,-6.29848
770,-48,72.7649,5.95129,0.00436842,0.0173576,-0.00296803,0.0180037,0.00372236,-1.35647,0.0109742,0.0147103,1994,1072,72.7648,-5.95125
777,-48,72.5789,5.55322,0.0126925,0.0232596,-0.00681155,0.0265965,0.00935557,-1.11526,0.0155789,0.0144276,2001,1072,72.579,-5.55317
784,-48,72.4565,5.13184,0.0231958,0.0295569,-0.0115366,0.0383433,0.0144093,-0.919904,0.022364,0.0272753,2008,1072,72.4564,-5.13184
791,-48,72.9763,4.55505,0.0371389,0.0365587,-0.0178094,0.0546606,0.0190371,-0.777254,0.0320389,0.0427299,2015,1072,72.9763,-4.55502
798,-48,73.376,4.00256,0,0,0,0,0,0,0,-1,2022,1072,73.376,-4.0026
805,-48,71.1545,2.0625,0,0,0,0,0,0,0,-1,2029,1072,71.1545,-2.06256
812,-48,73.4529,1.46277,0,0,0,0,0,0,0,-1,2036,1072,73.4529,-1.46283
-700,-55,-55.8795,-7.63623,0,0,0,0,0,0,0,-1,524,1079,-55.8795,7.63626
-693,-55,-55.803,-6.42847,0.119234,0.054252,0.00811937,0.120234,0.0532529,0.12244,0.0695675,0.0487793,531,1079,-55.803,6.4285
-686,-55,-55.7867,-5.08533,0.0976653,0.0576464,0.0173602,0.104146,0.0511652,0.357312,0.060132,0.0451499,538,1079,-55.7867,5.08527
-679,-55,-55.7014,-3.49902,0.0776521,0.0571178,0.021312,0.0910411,0.0437287,0.560925,0.0525762,0.0490288,545,1079,-55.7014,3.499
-672,-55,-55.7699,-1.92908,0.0593467,0.0541936,0.0223083,0.0792268,0.0343135,0.727904,0.0458778,0.0486646,552,1079,-55.7699,1.92912
-665,-55,-55.9588,-0.536255,0.0431554,0.049677,0.0214454,0.0681081,0.0247243,0.860846,0.0398111,0.0466692,559,1079,-55.9588,0.536201
-658,-55,-56.4082,0.888428,0.0294805,0.0439916,0.0192779,0.0573342,0.0161379,0.965381,0.0341395,0.0471789,566,1079,-56.4082,-0.8884
-651,-55,-56.2797,2.57935,0.0185626,0.0374618,0.0162233,0.0467869,0.00923742,1.04911,0.0286135,0.0495164,573,1079,-56.2797,-2.57935
-644,-55,-56.2709,4.02319,0.0105053,0.0304155,0.0126836,0.0365842,0.00433662,1.11813,0.0230802,0.0304323,580,1079,-56.2709,-4.0232
-637,-55,-56.3458,4.36572,0.00481091,0.0237476,0.00966042,0.027806,0.000752499,1.17308,0.0182917,0.0243191,587,1079,-56.3458,-4.36569
-630,-55,-56.3972,4.8363,-0.00164339,0.0160229,0.00567362,0.0176881,-0.00330855,1.28532,0.0130356,0.0277119,594,1079,-56.3971,-4.83633
-623,-55,-56.5652,5.32825,-0.00263183,0.00862593,0.00156515,0.00883948,-0.00284538,1.43519,0.00703592,0.0208338,601,1079,-56.5652,-5.32821
-616,-55,-56.5683,5.71802,0.000308641,0.00117541,-0.00186779,0.00265943,-0.00117539,-0.899396,0.00226862,0.0194828,608,1079,-56.5683,-5.71805
-609,-55,-56.4951,6.19824,0.00270182,-0.00516832,-0.00438612,0.00465936,-0.00712586,-0.419775,0.00685369,0.0210935,615,1079,-56.4951,-6.19822
-602,-55,-56.4166,6.59863,0.00524094,-0.0105725,-0.00557373,0.00700803,-0.0123396,-0.307015,0.0113109,0.0165344,622,1079,-56.4166,-6.5986
-595,-55,-56.2512,7.01465,0.00860561,-0.0150513,-0.0057619,0.00993435,-0.0163801,-0.226646,0.0153438,0.0345616,629,1079,-56.2512,-7.01471
-588,-55,-56.2611,7.5033,0,0,0,0,0,0,0,-1,636,1079,-56.2611,-7.50326
-581,-55,-57.3128,0.371216,0,0,0,0,0,0,0,-1,643,1079,-57.3128,-0.371236
-574,-55,-57.2589,0.354614,0,0,0,0,0,0,0,-1,650,1079,-57.2589,-0.354643
-567,-55,-57.2084,0.207153,0,0,0,0,0,0,0,-1,657,1079,-57.2084,-0.207206
-560,-55,-57.2532,0.152466,0,0,0,0,0,0,0,-1,664,1079,-57.2531,-0.15245
-553,-55,-57.3597,0.0632324,0,0,0,0,0,0,0,-1,671,1079,-57.3597,-0.0632359
-546,-55,-57.4483,0.143921,0,0,0,0,0,0,0,-1,678,1079,-57.4483,-0.14397
-539,-55,-57.323,0.258179,0,0,0,0,0,0,0,-1,685,1079,-57.323,-0.258158
-532,-55,-57.319,0.297729,0,0,0,0,0,0,0,-1,692,1079,-57.319,-0.297673
-525,-55,0,0,0,0,0,0,0,0,0,-1,699,1079,0,0
-518,-55,0,0,0,0,0,0,0,0,0,-1,706,1079,0,0
-511,-55,0,0,0,0,0,0,0,0,0,-1,713,1079,0,0
-504,-55,0,0,0,0,0,0,0,0,0,-1,720,1079,0,0
-497,-55,0,0,0,0,0,0,0,0,0,-1,727,1079,0,0
-490,-55,0,0,0,0,0,0,0,0,0,-1,734,1079,0,0
-483,-55,0,0,0,0,0,0,0,0,0,-1,741,1079,0,0
-476,-55,0,0,0,0,0,0,0,0,0,-1,748,1079,0,0
-469,-55,0,0,0,0,0,0,0,0,0,-1,755,1079,0,0
-462,-55,0,0,0,0,0,0,0,0,0,-1,762,1079,0,0
-455,-55,0,0,0,0,0,0,0,0,0,-1,769,1079,0,0
-448,-55,0,0,0,0,0,0,0,0,0,-1,776,1079,0,0
-441,-55,0,0,0,0,0,0,0,0,0,-1,783,1079,0,0
-434,-55,0,0,0,0,0,0,0,0,0,-1,790,1079,0,0
-427,-55,0,0,0,0,0,0,0,0,0,-1,797,1079,0,0
-420,-55,0,0,0,0,0,0,0,0,0,-1,804,1079,0,0
-413,-55,0,0,0,0,0,0,0,0,0,-1,811,1079,0,0
-406,-55,0,0,0,0,0,0,0,0,0,-1,818,1079,0,0
-399,-55,0,0,0,0,0,0,0,0,0,-1,825,1079,0,0
-392,-55,0,0,0,0,0,0,0,0,0,-1,832,1079,0,0
-385,-55,0,0,0,0,0,0,0,0,0,-1,839,1079,0,0
-378,-55,0,0,0,0,0,0,0,0,0,-1,846,1079,0,0
-371,-55,0,0,0,0,0,0,0,0,0,-1,853,1079,0,0
-364,-55,0,0,0,0,0,0,0,0,0,-1,860,1079,0,0
-357,-55,0,0,0,0,0,0,0,0,0,-1,867,1079,0,0
-350,-55,0,0,0,0,0,0,0,0,0,-1,874,1079,0,0
-343,-55,0,0,0,0,0,0,0,0,0,-1,881,1079,0,0
-336,-55,0,0,0,0,0,0,0,0,0,-1,888,1079,0,0
-329,-55,0,0,0,0,0,0,0,0,0,-1,895,1079,0,0
-322,-55,0,0,0,0,0,0,0,0,0,-1,902,1079,0,0
-315,-55,0,0,0,0,0,0,0,0,0,-1,909,1079,0,0
-308,-55,0,0,0,0,0,0,0,0,0,-1,916,1079,0,0
-301,-55,0,0,0,0,0,0,0,0,0,-1,923,1079,0,0
-294,-55,0,0,0,0,0,0,0,0,0,-1,930,1079,0,0
-287,-55,0,0,0,0,0,0,0,0,0,-1,937,1079,0,0
-280,-55,0,0,0,0,0,0,0,0,0,-1,944,1079,0,0
-273,-55,0,0,0,0,0,0,0,0,0,-1,951,1079,0,0
-266,-55,0,0,0,0,0,0,0,0,0,-1,958,1079,0,0
-259,-55,0,0,0,0,0,0,0,0,0,-1,965,1079,0,0
-252,-55,0,0,0,0,0,0,0,0,0,-1,972,1079,0,0
-245,-55,0,0,0,0,0,0,0,0,0,-1,979,1079,0,0
-238,-55,0,0,0,0,0,0,0,0,0,-1,986,1079,0,0
-231,-55,0,0,0,0,0,0,0,0,0,-1,993,1079,0,0
-224,-55,0,0,0,0,0,0,0,0,0,-1,1000,1079,0,0
-217,-55,0,0,0,0,0,0,0,0,0,-1,1007,1079,0,0
-210,-55,0,0,0,0,0,0,0,0,0,-1,1014,1079,0,0
-203,-55,0,0,0,0,0,0,0,0,0,-1,1021,1079,0,0
-196,-55,0,0,0,0,0,0,0,0,0,-1,1028,1079,0,0
-189,-55,0,0,0,0,0,0,0,0,0,-1,1035,1079,0,0
-182,-55,0,0,0,0,0,0,0,0,0,-1,1042,1079,0,0
-175,-55,0,0,0,0,0,0,0,0,0,-1,1049,1079,0,0
-168,-55,0,0,0,0,0,0,0,0,0,-1,1056,1079,0,0
-161,-55,0,0,0,0,0,0,0,0,0,-1,1063,1079,0,0
-154,-55,0,0,0,0,0,0,0,0,0,-1,1070,1079,0,0
-147,-55,0,0,0,0,0,0,0,0,0,-1,1077,1079,0,0
-140,-55,0,0,0,0,0,0,0,0,0,-1,1084,1079,0,0
-133,-55,0,0,0,0,0,0,0,0,0,-1,1091,1079,0,0
-126,-55,0,0,0,0,0,0,0,0,0,-1,1098,1079,0,0
-119,-55,0,0,0,0,0,0,0,0,0,-1,1105,1079,0,0
-112,-55,0,0,0,0,0,0,0,0,0,-1,1112,1079,0,0
-105,-55,0,0,0,0,0,0,0,0,0,-1,1119,1079,0,0
-98,-55,0,0,0,0,0,0,0,0,0,-1,1126,1079,0,0
-91,-55,0,0,0,0,0,0,0,0,0,-1,1133,1079,0,0
-84,-55,0,0,0,0,0,0,0,0,0,-1,1140,1079,0,0
-77,-55,0,0,0,0,0,0,0,0,0,-1,1147,1079,0,0
-70,-55,0,0,0,0,0,0,0,0,0,-1,1154,1079,0,0
-63,-55,0,0,0,0,0,0,0,0,0,-1,1161,1079,0,0
-56,-55,0,0,0,0,0,0,0,0,0,-1,1168,1079,0,0
-49,-55,0,0,0,0,0,0,0,0,0,-1,1175,1079,0,0
-42,-55,0,0,0,0,0,0,0,0,0,-1,1182,1079,0,0
-35,-55,0,0,0,0,0,0,0,0,0,-1,1189,1079,0,0
-28,-55,0,0,0,0,0,0,0,0,0,-1,1196,1079,0,0
-21,-55,0,0,0,0,0,0,0,0,0,-1,1203,1079,0,0
-14,-55,0,0,0,0,0,0,0,0,0,-1,1210,1079,0,0
-7,-55,0,0,0,0,0,0,0,0,0,-1,1217,1079,0,0
0,-55,0,0,0,0,0,0,0,0,0,-1,1224,1079,0,0
7,-55,0,0,0,0,0,0,0,0,0,-1,1231,1079,0,0
14,-55,0,0,0,0,0,0,0,0,0,-1,1238,1079,0,0
21,-55,0,0,0,0,0,0,0,0,0,-1,1245,1079,0,0
28,-55,0,0,0,0,0,0,0,0,0,-1,1252,1079,0,0
35,-55,0,0,0,0,0,0,0,0,0,-1,1259,1079,0,0
42,-55,0,0,0,0,0,0,0,0,0,-1,1266,1079,0,0
49,-55,0,0,0,0,0,0,0,0,0,-1,1273,1079,0,0
56,-55,0,0,0,0,0,0,0,0,0,-1,1280,1079,0,0
63,-55,0,0,0,0,0,0,0,0,0,-1,1287,1079,0,0
70,-55,0,0,0,0,0,0,0,0,0,-1,1294,1079,0,0
77,-55,0,0,0,0,0,0,0,0,0,-1,1301,1079,0,0
84,-55,0,0,0,0,0,0,0,0,0,-1,1308,1079,0,0
91,-55,0,0,0,0,0,0,0,0,0,-1,1315,1079,0,0
98,-55,0,0,0,0,0,0,0,0,0,-1,1322,1079,0,0
105,-55,0,0,0,0,0,0,0,0,0,-1,1329,1079,0,0
112,-55,0,0,0,0,0,0,0,0,0,-1,1336,1079,0,0
119,-55,0,0,0,0,0,0,0,0,0,-1,1343,1079,0,0
126,-55,0,0,0,0,0,0,0,0,0,-1,1350,1079,0,0
133,-55,0,0,0,0,0,0,0,0,0,-1,1357,1079,0,0
140,-55,0,0,0,0,0,0,0,0,0,-1,1364,1079,0,0
147,-55,0,0,0,0,0,0,0,0,0,-1,1371,1079,0,0
154,-55,0,0,0,0,0,0,0,0,0,-1,1378,1079,0,0
161,-55,0,0,0,0,0,0,0,0,0,-1,1385,1079,0,0
168,-55,0,0,0,0,0,0,0,0,0,-1,1392,1079,0,0
175,-55,0,0,0,0,0,0,0,0,0,-1,1399,1079,0,0
182,-55,0,0,0,0,0,0,0,0,0,-1,1406,1079,0,0
189,-55,0,0,0,0,0,0,0,0,0,-1,1413,1079,0,0
196,-55,0,0,0,0,0,0,0,0,0,-1,1420,1079,0,0
203,-55,0,0,0,0,0,0,0,0,0,-1,1427,1079,0,0
210,-55,0,0,0,0,0,0,0,0,0,-1,1434,1079,0,0
217,-55,0,0,0,0,0,0,0,0,0,-1,1441,1079,0,0
224,-55,0,0,0,0,0,0,0,0,0,-1,1448,1079,0,0
231,-55,0,0,0,0,0,0,0,0,0,-1,1455,1079,0,0
238,-55,0,0,0,0,0,0,0,0,0,-1,1462,1079,0,0
245,-55,0,0,0,0,0,0,0,0,0,-1,1469,1079,0,0
252,-55,0,0,0,0,0,0,0,0,0,-1,1476,1079,0,0
259,-55,0,0,0,0,0,0,0,0,0,-1,1483,1079,0,0
266,-55,0,0,0,0,0,0,0,0,0,-1,1490,1079,0,0
273,-55,0,0,0,0,0,0,0,0,0,-1,1497,1079,0,0
280,-55,0,0,0,0,0,0,0,0,0,-1,1504,1079,0,0
287,-55,0,0,0,0,0,0,0,0,0,-1,1511,1079,0,0
294,-55,0,0,0,0,0,0,0,0,0,-1,1518,1079,0,0
301,-55,0,0,0,0,0,0,0,0,0,-1,1525,1079,0,0
308,-55,0,0,0,0,0,0,0,0,0,-1,1532,1079,0,0
315,-55,0,0,0,0,0,0,0,0,0,-1,1539,1079,0,0
322,-55,0,0,0,0,0,0,0,0,0,-1,1546,1079,0,0
329,-55,0,0,0,0,0,0,0,0,0,-1,1553,1079,0,0
336,-55,0,0,0,0,0,0,0,0,0,-1,1560,1079,0,0
343,-55,0,0,0,0,0,0,0,0,0,-1,1567,1079,0,0
350,-55,0,0,0,0,0,0,0,0,0,-1,1574,1079,0,0
357,-55,0,0,0,0,0,0,0,0,0,-1,1581,1079,0,0
364,-55,0,0,0,0,0,0,0,0,0,-1,1588,1079,0,0
371,-55,0,0,0,0,0,0,0,0,0,-1,1595,1079,0,0
378,-55,0,0,0,0,0,0,0,0,0,-1,1602,1079,0,0
385,-55,0,0,0,0,0,0,0,0,0,-1,1609,1079,0,0
392,-55,0,0,0,0,0,0,0,0,0,-1,1616,1079,0,0
399,-55,0,0,0,0,0,0,0,0,0,-1,1623,1079,0,0
406,-55,0,0,0,0,0,0,0,0,0,-1,1630,1079,0,0
413,-55,0,0,0,0,0,0,0,0,0,-1,1637,1079,0,0
420,-55,0,0,0,0,0,0,0,0,0,-1,1644,1079,0,0
427,-55,0,0,0,0,0,0,0,0,0,-1,1651,1079,0,0
434,-55,0,0,0,0,0,0,0,0,0,-1,1658,1079,0,0
441,-55,0,0,0,0,0,0,0,0,0,-1,1665,1079,0,0
448,-55,0,0,0,0,0,0,0,0,0,-1,1672,1079,0,0
455,-55,0,0,0,0,0,0,0,0,0,-1,1679,1079,0,0
462,-55,0,0,0,0,0,0,0,0,0,-1,1686,1079,0,0
469,-55,0,0,0,0,0,0,0,0,0,-1,1693,1079,0,0
476,-55,0,0,0,0,0,0,0,0,0,-1,1700,1079,0,0
483,-55,0,0,0,0,0,0,0,0,0,-1,1707,1079,0,0
490,-55,0,0,0,0,0,0,0,0,0,-1,1714,1079,0,0
497,-55,0,0,0,0,0,0,0,0,0,-1,1721,1079,0,0
504,-55,0,0,0,0,0,0,0,0,0,-1,1728,1079,0,0
511,-55,0,0,0,0,0,0,0,0,0,-1,1735,1079,0,0
518,-55,0,0,0,0,0,0,0,0,0,-1,1742,1079,0,0
525,-55,0,0,0,0,0,0,0,0,0,-1,1749,1079,0,0
532,-55,0,0,0,0,0,0,0,0,0,-1,1756,1079,0,0
539,-55,0,0,0,0,0,0,0,0,0,-1,1763,1079,0,0
546,-55,0,0,0,0,0,0,0,0,0,-1,1770,1079,0,0
553,-55,0,0,0,0,0,0,0,0,0,-1,1777,1079,0,0
560,-55,0,0,0,0,0,0,0,0,0,-1,1784,1079,0,0
567,-55,0,0,0,0,0,0,0,0,0,-1,1791,1079,0,0
574,-55,0,0,0,0,0,0,0,0,0,-1,1798,1079,0,0
581,-55,0,0,0,0,0,0,0,0,0,-1,1805,1079,0,0
588,-55,0,0,0,0,0,0,0,0,0,-1,1812,1079,0,0
595,-55,0,0,0,0,0,0,0,0,0,-1,1819,1079,0,0
602,-55,0,0,0,0,0,0,0,0,0,-1,1826,1079,0,0
609,-55,0,0,0,0,0,0,0,0,0,-1,1833,1079,0,0
616,-55,0,0,0,0,0,0,0,0,0,-1,1840,1079,0,0
623,-55,0,0,0,0,0,0,0,0,0,-1,1847,1079,0,0
630,-55,0,0,0,0,0,0,0,0,0,-1,1854,1079,0,0
637,-55,0,0,0,0,0,0,0,0,0,-1,1861,1079,0,0
644,-55,0,0,0,0,0,0,0,0,0,-1,1868,1079,0,0
651,-55,74.4886,2.31409,0.00196753,-0.00117466,0.000217755,0.00198255,-0.00118968,0.0688615,0.00185046,0.0356623,1875,1079,74.4886,-2.31404
658,-55,74.5092,2.25012,0.00120665,-0.00101232,0.000124193,0.00121358,-0.00101925,0.0557369,0.00129075,0.0326104,1882,1079,74.5092,-2.25011
665,-55,74.4037,2.23486,0.000623693,-0.000885198,5.23772e-06,0.000623712,-0.000885217,0.00347118,0.00087553,0.0381727,1889,1079,74.4037,-2.23486
672,-55,74.4374,2.23254,0.000196277,-0.000713622,-9.65787e-05,0.000206416,-0.00072376,-0.10459,0.000564045,0.0387709,1896,1079,74.4373,-2.23254
679,-55,74.4393,2.26392,-0.000176281,-0.000535246,-0.000187272,-9.63706e-05,-0.000615157,-0.403317,0.000382054,0.0373709,1903,1079,74.4394,-2.26396
686,-55,74.3756,2.16833,-0.000737124,-0.000613771,-0.000237652,-0.000429922,-0.000920972,-0.912359,0.000532114,0.0406393,1910,1079,74.3756,-2.16838
693,-55,74.3859,2.12915,-0.00117505,-0.000804107,-7.14971e-05,-0.000790804,-0.00118836,-1.38683,0.000698508,0.0396782,1917,1079,74.3859,-2.1291
700,-55,74.4615,2.18762,-0.00143517,-0.000828974,0.000258564,-0.000733671,-0.00153048,1.21766,0.000883872,0.0340976,1924,1079,74.4615,-2.18758
707,-55,74.4434,2.17175,-0.00193063,-0.000657152,0.000633983,-0.000395353,-0.00219243,1.17918,0.00134928,0.0296772,1931,1079,74.4433,-2.17174
714,-55,74.3298,2.0874,0,0,0,0,0,0,0,-1,1938,1079,74.3299,-2.08745
721,-55,73.8516,2.10364,0,0,0,0,0,0,0,-1,1945,1079,73.8515,-2.10362
728,-55,72.7037,8.30127,0,0,0,0,0,0,0,-1,1952,1079,72.7038,-8.30123
735,-55,72.5859,7.84448,-0.00515154,0.00244004,0.00213226,0.00299793,-0.00570943,1.31489,0.0051078,0.0242057,1959,1079,72.586,-7.84445
742,-55,72.5984,7.4303,-0.00473961,0.00380512,0.0022509,0.00436179,-0.00529629,1.32835,0.00558479,0.0242635,1966,1079,72.5984,-7.43033
749,-55,72.6179,7.02393,-0.00391567,0.00566757,0.0019094,0.00603399,-0.0042821,1.3812,0.00598455,0.0160895,1973,1079,72.6179,-7.02394
756,-55,72.4683,6.62781,-0.00258435,0.00776983,0.00138353,0.00795151,-0.00276603,1.44023,0.00642466,0.0133598,1980,1079,72.4682,-6.62781
763,-55,72.374,6.25635,0.000195809,0.0113648,9.16881e-05,0.0113655,0.000195057,1.56259,0.00751284,0.0156694,1987,1079,72.374,-6.25632
770,-55,72.2976,5.84949,0.00561788,0.0160469,-0.00239732,0.0165716,0.0050932,-1.35533,0.0098015,0.0173424,1994,1079,72.2977,-5.84945
777,-55,72.1924,5.45203,0.0139965,0.0216348,-0.00606507,0.024983,0.0106483,-1.06639,0.0144762,0.0145427,2001,1079,72.1925,-5.45201
784,-55,72.3215,4.9353,0,0,0,0,0,0,0,-1,2008,1079,72.3216,-4.93534
791,-55,72.8264,4.32361,0,0,0,0,0,0,0,-1,2015,1079,72.8265,-4.32364
798,-55,73.3313,3.71191,0,0,0,0,0,0,0,-1,2022,1079,73.3314,-3.71194
805,-55,74.29,2.8595,0,0,0,0,0,0,0,-1,2029,1079,74.29,-2.85951
812,-55,73.2124,1.2356,0,0,0,0,0,0,0,-1,2036,1079,73.2125,-1.23554
-700,-62,-54.5005,-7.67871,0,0,0,0,0,0,0,-1,524,1086,-54.5005,7.67873
-693,-62,-54.3923,-6.61072,0,0,0,0,0,0,0,-1,531,1086,-54.3923,6.61075
-686,-62,-54.0065,-5.15369,0,0,0,0,0,0,0,-1,538,1086,-54.0065,5.15364
-679,-62,-53.8032,-3.60962,0.064532,0.0500288,0.0196603,0.0782354,0.0363254,0.608716,0.0452076,0.0497007,545,1086,-53.8032,3.60966
-672,-62,-54.5285,-2.36108,0.0498557,0.048754,0.0210724,0.0703844,0.0282252,0.772331,0.0409011,0.0489789,552,1086,-54.5285,2.36104
-665,-62,-55.3403,-1.29993,0,0,0,0,0,0,0,-1,559,1086,-55.3403,1.29992
-658,-62,-56.1765,0.435791,0,0,0,0,0,0,0,-1,566,1086,-56.1765,-0.435791
-651,-62,-55.8533,2.25366,0,0,0,0,0,0,0,-1,573,1086,-55.8532,-2.25362
-644,-62,-55.8424,3.8573,0.00748349,0.0284737,0.0121525,0.0340357,0.00192148,1.14157,0.0220779,0.0399331,580,1086,-55.8424,-3.85736
-637,-62,-55.9194,4.37842,0.00260986,0.0221292,0.009153,0.0257497,-0.00101063,1.19413,0.017513,0.017011,587,1086,-55.9195,-4.37847
-630,-62,-56.0055,4.82764,-0.00276353,0.0148231,0.00528693,0.0162901,-0.00423053,1.30013,0.012511,0.01729,594,1086,-56.0055,-4.82764
-623,-62,-56.0983,5.35291,-0.00317936,0.00782613,0.00139476,0.00800015,-0.00335337,1.44668,0.00673548,0.0191132,601,1086,-56.0984,-5.35296
-616,-62,-56.0939,5.85974,-0.00018653,0.000888639,-0.00184538,0.00227314,-0.00157103,-0.927133,0.00223174,0.0202774,608,1086,-56.0938,-5.85975
-609,-62,-56.0396,6.28748,0.00236861,-0.00506284,-0.00410721,0.00419146,-0.00688569,-0.4177,0.00645814,0.0214156,615,1086,-56.0396,-6.28747
-602,-62,-55.8917,6.6709,0.0051652,-0.0100672,-0.00508401,0.00670616,-0.0116082,-0.294298,0.0106993,0.0177422,622,1086,-55.8916,-6.67089
-595,-62,-55.7874,7.17505,0.00884701,-0.0143263,-0.00502799,0.00989092,-0.0153702,-0.204712,0.0146984,0.0402457,629,1086,-55.7874,-7.17499
-588,-62,-55.7216,7.69836,0,0,0,0,0,0,0,-1,636,1086,-55.7216,-7.6984
-581,-62,-57.2937,0.28479,0,0,0,0,0,0,0,-1,643,1086,-57.2937,-0.284759
-574,-62,-57.3091,0.397095,0,0,0,0,0,0,0,-1,650,1086,-57.3092,-0.397097
-567,-62,-57.1772,0.316284,0,0,0,0,0,0,0,-1,657,1086,-57.1772,-0.316224
-560,-62,-57.1807,0.311035,0,0,0,0,0,0,0,-1,664,1086,-57.1807,-0.31105
-553,-62,-57.2383,0.258301,0,0,0,0,0,0,0,-1,671,1086,-57.2383,-0.258342
-546,-62,-57.3459,0.30835,0,0,0,0,0,0,0,-1,678,1086,-57.3459,-0.308334
-539,-62,-57.3449,0.379028,0,0,0,0,0,0,0,-1,685,1086,-57.3449,-0.379047
-532,-62,-57.2249,0.492554,0,0,0,0,0,0,0,-1,692,1086,-57.2248,-0.492569
-525,-62,0,0,0,0,0,0,0,0,0,-1,699,1086,0,0
-518,-62,0,0,0,0,0,0,0,0,0,-1,706,1086,0,0
-511,-62,0,0,0,0,0,0,0,0,0,-1,713,1086,0,0
-504,-62,0,0,0,0,0,0,0,0,0,-1,720,1086,0,0
-497,-62,0,0,0,0,0,0,0,0,0,-1,727,1086,0,0
-490,-62,0,0,0,0,0,0,0,0,0,-1,734,1086,0,0
-483,-62,0,0,0,0,0,0,0,0,0,-1,741,1086,0,0
-476,-62,0,0,0,0,0,0,0,0,0,-1,748,1086,0,0
-469,-62,0,0,0,0,0,0,0,0,0,-1,755,1086,0,0
-462,-62,0,0,0,0,0,0,0,0,0,-1,762,1086,0,0
-455,-62,0,0,0,0,0,0,0,0,0,-1,769,1086,0,0
-448,-62,0,0,0,0,0,0,0,0,0,-1,776,1086,0,0
-441,-62,0,0,0,0,0,0,0,0,0,-1,783,1086,0,0
-434,-62,0,0,0,0,0,0,0,0,0,-1,790,1086,0,0
-427,-62,0,0,0,0,0,0,0,0,0,-1,797,1086,0,0
-420,-62,0,0,0,0,0,0,0,0,0,-1,804,1086,0,0
-413,-62,0,0,0,0,0,0,0,0,0,-1,811,1086,0,0
-406,-62,0,0,0,0,0,0,0,0,0,-1,818,1086,0,0
-399,-62,0,0,0,0,0,0,0,0,0,-1,825,1086,0,0
-392,-62,0,0,0,0,0,0,0,0,0,-1,832,1086,0,0
-385,-62,0,0,0,0,0,0,0,0,0,-1,839,1086,0,0
-378,-62,0,0,0,0,0,0,0,0,0,-1,846,1086,0,0
-371,-62,0,0,0,0,0,0,0,0,0,-1,853,1086,0,0
-364,-62,0,0,0,0,0,0,0,0,0,-1,860,1086,0,0
-357,-62,0,0,0,0,0,0,0,0,0,-1,867,1086,0,0
-350,-62,0,0,0,0,0,0,0,0,0,-1,874,1086,0,0
-343,-62,0,0,0,0,0,0,0,0,0,-1,881,1086,0,0
-336,-62,0,0,0,0,0,0,0,0,0,-1,888,1086,0,0
-329,-62,0,0,0,0,0,0,0,0,0,-1,895,1086,0,0
-322,-62,0,0,0,0,0,0,0,0,0,-1,902,1086,0,0
-315,-62,0,0,0,0,0,0,0,0,0,-1,909,1086,0,0
-308,-62,0,0,0,0,0,0,0,0,0,-1,916,1086,0,0
-301,-62,0,0,0,0,0,0,0,0,0,-1,923,1086,0,0
-294,-62,0,0,0,0,0,0,0,0,0,-1,930,1086,0,0
-287,-62,0,0,0,0,0,0,0,0,0,-1,937,1086,0,0
-280,-62,0,0,0,0,0,0,0,0,0,-1,944,1086,0,0
-273,-62,0,0,0,0,0,0,0,0,0,-1,951,1086,0,0
-266,-62,0,0,0,0,0,0,0,0,0,-1,958,1086,0,0
-259,-62,0,0,0,0,0,0,0,0,0,-1,965,1086,0,0
-252,-62,0,0,0,0,0,0,0,0,0,-1,972,1086,0,0
-245,-62,0,0,0,0,0,0,0,0,0,-1,979,1086,0,0
-238,-62,0,0,0,0,0,0,0,0,0,-1,986,1086,0,0
-231,-62,0,0,0,0,0,0,0,0,0,-1,993,1086,0,0
-224,-62,0,0,0,0,0,0,0,0,0,-1,1000,1086,0,0
-217,-62,0,0,0,0,0,0,0,0,0,-1,1007,1086,0,0
-210,-62,0,0,0,0,0,0,0,0,0,-1,1014,1086,0,0
-203,-62,0,0,0,0,0,0,0,0,0,-1,1021,1086,0,0
-196,-62,0,0,0,0,0,0,0,0,0,-1,1028,1086,0,0
-189,-62,0,0,0,0,0,0,0,0,0,-1,1035,1086,0,0
-182,-62,0,0,0,0,0,0,0,0,0,-1,1042,1086,0,0
-175,-62,0,0,0,0,0,0,0,0,0,-1,1049,1086,0,0
-168,-62,0,0,0,0,0,0,0,0,0,-1,1056,1086,0,0
-161,-62,0,0,0,0,0,0,0,0,0,-1,1063,1086,0,0
-154,-62,0,0,0,0,0,0,0,0,0,-1,1070,1086,0,0
-147,-62,0,0,0,0,0,0,0,0,0,-1,1077,1086,0,0
-140,-62,0,0,0,0,0,0,0,0,0,-1,1084,1086,0,0
-133,-62,0,0,0,0,0,0,0,0,0,-1,1091,1086,0,0
-126,-62,0,0,0,0,0,0,0,0,0,-1,1098,1086,0,0
-119,-62,0,0,0,0,0,0,0,0,0,-1,1105,1086,0,0
-112,-62,0,0,0,0,0,0,0,0,0,-1,1112,1086,0,0
-105,-62,0,0,0,0,0,0,0,0,0,-1,1119,1086,0,0
-98,-62,0,0,0,0,0,0,0,0,0,-1,1126,1086,0,0
-91,-62,0,0,0,0,0,0,0,0,0,-1,1133,1086,0,0
-84,-62,0,0,0,0,0,0,0,0,0,-1,1140,1086,0,0
-77,-62,0,0,0,0,0,0,0,0,0,-1,1147,1086,0,0
-70,-62,0,0,0,0,0,0,0,0,0,-1,1154,1086,0,0
-63,-62,0,0,0,0,0,0,0,0,0,-1,1161,1086,0,0
-56,-62,0,0,0,0,0,0,0,0,0,-1,1168,1086,0,0
-49,-62,0,0,0,0,0,0,0,0,0,-1,1175,1086,0,0
-42,-62,0,0,0,0,0,0,0,0,0,-1,1182,1086,0,0
-35,-62,0,0,0,0,0,0,0,0,0,-1,1189,1086,0,0
-28,-62,0,0,0,0,0,0,0,0,0,-1,1196,1086,0,0
-21,-62,0,0,0,0,0,0,0,0,0,-1,1203,1086,0,0
-14,-62,0,0,0,0,0,0,0,0,0,-1,1210,1086,0,0
-7,-62,0,0,0,0,0,0,0,0,0,-1,1217,1086,0,0
0,-62,0,0,0,0,0,0,0,0,0,-1,1224,1086,0,0
7,-62,0,0,0,0,0,0,0,0,0,-1,1231,1086,0,0
14,-62,0,0,0,0,0,0,0,0,0,-1,1238,1086,0,0
21,-62,0,0,0,0,0,0,0,0,0,-1,1245,1086,0,0
28,-62,0,0,0,0,0,0,0,0,0,-1,1252,1086,0,0
35,-62,0,0,0,0,0,0,0,0,0,-1,1259,1086,0,0
42,-62,0,0,0,0,0,0,0,0,0,-1,1266,1086,0,0
49,-62,0,0,0,0,0,0,0,0,0,-1,1273,1086,0,0
56,-62,0,0,0,0,0,0,0,0,0,-1,1280,1086,0,0
63,-62,0,0,0,0,0,0,0,0,0,-1,1287,1086,0,0
70,-62,0,0,0,0,0,0,0,0,0,-1,1294,1086,0,0
77,-62,0,0,0,0,0,0,0,0,0,-1,1301,1086,0,0
84,-62,0,0,0,0,0,0,0,0,0,-1,1308,1086,0,0
91,-62,0,0,0,0,0,0,0,0,0,-1,1315,1086,0,0
98,-62,0,0,0,0,0,0,0,0,0,-1,1322,1086,0,0
105,-62,0,0,0,0,0,0,0,0,0,-1,1329,1086,0,0
112,-62,0,0,0,0,0,0,0,0,0,-1,1336,1086,0,0
119,-62,0,0,0,0,0,0,0,0,0,-1,1343,1086,0,0
126,-62,0,0,0,0,0,0,0,0,0,-1,1350,1086,0,0
133,-62,0,0,0,0,0,0,0,0,0,-1,1357,1086,0,0
140,-62,0,0,0,0,0,0,0,0,0,-1,1364,1086,0,0
147,-62,0,0,0,0,0,0,0,0,0,-1,1371,1086,0,0
154,-62,0,0,0,0,0,0,0,0,0,-1,1378,1086,0,0
161,-62,0,0,0,0,0,0,0,0,0,-1,1385,1086,0,0
168,-62,0,0,0,0,0,0,0,0,0,-1,1392,1086,0,0
175,-62,0,0,0,0,0,0,0,0,0,-1,1399,1086,0,0
182,-62,0,0,0,0,0,0,0,0,0,-1,1406,1086,0,0
189,-62,0,0,0,0,0,0,0,0,0,-1,1413,1086,0,0
196,-62,0,0,0,0,0,0,0,0,0,-1,1420,1086,0,0
203,-62,0,0,0,0,0,0,0,0,0,-1,1427,1086,0,0
210,-62,0,0,0,0,0,0,0,0,0,-1,1434,1086,0,0
217,-62,0,0,0,0,0,0,0,0,0,-1,1441,1086,0,0
224,-62,0,0,0,0,0,0,0,0,0,-1,1448,1086,0,0
231,-62,0,0,0,0,0,0,0,0,0,-1,1455,1086,0,0
238,-62,0,0,0,0,0,0,0,0,0,-1,1462,1086,0,0
245,-62,0,0,0,0,0,0,0,0,0,-1,1469,1086,0,0
252,-62,0,0,0,0,0,0,0,0,0,-1,1476,1086,0,0
259,-62,0,0,0,0,0,0,0,0,0,-1,1483,1086,0,0
266,-62,0,0,0,0,0,0,0,0,0,-1,1490,1086,0,0
273,-62,0,0,0,0,0,0,0,0,0,-1,1497,1086,0,0
280,-62,0,0,0,0,0,0,0,0,0,-1,1504,1086,0,0
287,-62,0,0,0,0,0,0,0,0,0,-1,1511,1086,0,0
294,-62,0,0,0,0,0,0,0,0,0,-1,1518,1086,0,0
301,-62,0,0,0,0,0,0,0,0,0,-1,1525,1086,0,0
308,-62,0,0,0,0,0,0,0,0,0,-1,1532,1086,0,0
315,-62,0,0,0,0,0,0,0,0,0,-1,1539,1086,0,0
322,-62,0,0,0,0,0,0,0,0,0,-1,1546,1086,0,0
329,-62,0,0,0,0,0,0,0,0,0,-1,1553,1086,0,0
336,-62,0,0,0,0,0,0,0,0,0,-1,1560,1086,0,0
343,-62,0,0,0,0,0,0,0,0,0,-1,1567,1086,0,0
350,-62,0,0,0,0,0,0,0,0,0,-1,1574,1086,0,0
357,-62,0,0,0,0,0,0,0,0,0,-1,1581,1086,0,0
364,-62,0,0,0,0,0,0,0,0,0,-1,1588,1086,0,0
371,-62,0,0,0,0,0,0,0,0,0,-1,1595,1086,0,0
378,-62,0,0,0,0,0,0,0,0,0,-1,1602,1086,0,0
385,-62,0,0,0,0,0,0,0,0,0,-1,1609,1086,0,0
392,-62,0,0,0,0,0,0,0,0,0,-1,1616,1086,0,0
399,-62,0,0,0,0,0,0,0,0,0,-1,1623,1086,0,0
406,-62,0,0,0,0,0,0,0,0,0,-1,1630,1086,0,0
413,-62,0,0,0,0,0,0,0,0,0,-1,1637,1086,0,0
420,-62,0,0,0,0,0,0,0,0,0,-1,1644,1086,0,0
427,-62,0,0,0,0,0,0,0,0,0,-1,1651,1086,0,0
434,-62,0,0,0,0,0,0,0,0,0,-1,1658,1086,0,0
441,-62,0,0,0,0,0,0,0,0,0,-1,1665,1086,0,0
448,-62,0,0,0,0,0,0,0,0,0,-1,1672,1086,0,0
455,-62,0,0,0,0,0,0,0,0,0,-1,1679,1086,0,0
462,-62,0,0,0,0,0,0,0,0,0,-1,1686,1086,0,0
469,-62,0,0,0,0,0,0,0,0,0,-1,1693,1086,0,0
476,-62,0,0,0,0,0,0,0,0,0,-1,1700,1086,0,0
483,-62,0,0,0,0,0,0,0,0,0,-1,1707,1086,0,0
490,-62,0,0,0,0,0,0,0,0,0,-1,1714,1086,0,0
497,-62,0,0,0,0,0,0,0,0,0,-1,1721,1086,0,0
504,-62,0,0,0,0,0,0,0,0,0,-1,1728,1086,0,0
511,-62,0,0,0,0,0,0,0,0,0,-1,1735,1086,0,0
518,-62,0,0,0,0,0,0,0,0,0,-1,1742,1086,0,0
525,-62,0,0,0,0,0,0,0,0,0,-1,1749,1086,0,0
532,-62,0,0,0,0,0,0,0,0,0,-1,1756,1086,0,0
539,-62,0,0,0,0,0,0,0,0,0,-1,1763,1086,0,0
546,-62,0,0,0,0,0,0,0,0,0,-1,1770,1086,0,0
553,-62,0,0,0,0,0,0,0,0,0,-1,1777,1086,0,0
560,-62,0,0,0,0,0,0,0,0,0,-1,1784,1086,0,0
567,-62,0,0,0,0,0,0,0,0,0,-1,1791,1086,0,0
574,-62,0,0,0,0,0,0,0,0,0,-1,1798,1086,0,0
581,-62,0,0,0,0,0,0,0,0,0,-1,1805,1086,0,0
588,-62,0,0,0,0,0,0,0,0,0,-1,1812,1086,0,0
595,-62,0,0,0,0,0,0,0,0,0,-1,1819,1086,0,0
602,-62,0,0,0,0,0,0,0,0,0,-1,1826,1086,0,0
609,-62,0,0,0,0,0,0,0,0,0,-1,1833,1086,0,0
616,-62,0,0,0,0,0,0,0,0,0,-1,1840,1086,0,0
623,-62,0,0,0,0,0,0,0,0,0,-1,1847,1086,0,0
630,-62,0,0,0,0,0,0,0,0,0,-1,1854,1086,0,0
637,-62,0,0,0,0,0,0,0,0,0,-1,1861,1086,0,0
644,-62,0,0,0,0,0,0,0,0,0,-1,1868,1086,0,0
651,-62,74.4215,2.32141,0.00310575,-0.000538563,-8.11907e-05,0.00310756,-0.000540371,-0.022264,0.00227334,0.0403689,1875,1086,74.4215,-2.32146
658,-62,74.5042,2.16919,0.002023,-0.00063059,-4.81845e-05,0.00202387,-0.000631465,-0.0181503,0.00160178,0.0395961,1882,1086,74.5041,-2.16918
665,-62,74.5092,2.13318,0.00120346,-0.000702926,-0.000119873,0.00121097,-0.000710434,-0.0625511,0.0011218,0.0395061,1889,1086,74.5091,-2.1332
672,-62,74.5775,2.36938,0.000581217,-0.000691499,-0.000221148,0.000618549,-0.00072883,-0.167232,0.000778778,0.0385897,1896,1086,74.5775,-2.36936
679,-62,74.6022,2.50171,6.70403e-05,-0.000658078,-0.000346625,0.000206077,-0.000797115,-0.381467,0.000611783,0.0368211,1903,1086,74.6022,-2.50165
686,-62,74.5649,2.45679,-0.000524633,-0.000785772,-0.000448338,-0.000188238,-0.00112217,-0.643702,0.000693928,0.0387642,1910,1086,74.5649,-2.45674
693,-62,74.4104,2.46326,-0.000949492,-0.000996037,-0.000310967,-0.000660928,-0.0012846,-0.748048,0.000741769,0.0383489,1917,1086,74.4104,-2.4633
700,-62,74.4343,2.29089,-0.00119046,-0.00099073,-1.29716e-05,-0.000989891,-0.0011913,-1.50621,0.000736303,0.0339143,1924,1086,74.4343,-2.29094
707,-62,74.3732,2.15833,-0.0016119,-0.00084199,0.000366811,-0.000695212,-0.00175868,1.19016,0.00102277,0.0270038,1931,1086,74.3732,-2.15827
714,-62,74.4022,2.03845,-0.00216079,-0.000512878,0.000773109,-0.000206967,-0.00246671,1.19401,0.00158001,0.0427044,1938,1086,74.4022,-2.0385
721,-62,74.4674,1.92603,0,0,0,0,0,0,0,-1,1945,1086,74.4674,-1.92607
728,-62,72.2561,8.46033,0,0,0,0,0,0,0,-1,1952,1086,72.2561,-8.46028
735,-62,72.1542,7.85547,-0.00453896,0.0020467,0.00190897,0.00256003,-0.0050523,1.3081,0.00447281,0.0326434,1959,1086,72.1542,-7.85547
742,-62,72.0969,7.4895,-0.00411885,0.00336516,0.00210689,0.00391752,-0.00467121,1.3144,0.00496507,0.0344394,1966,1086,72.097,-7.48952
749,-62,72.1152,7.05273,-0.00331728,0.00519725,0.00190917,0.00560574,-0.00372577,1.36001,0.00542387,0.0261132,1973,1086,72.1152,-7.05275
756,-62,71.9648,6.67554,-0.0019907,0.0072075,0.00149852,0.00744548,-0.00222868,1.41331,0.00584981,0.0168828,1980,1086,71.9649,-6.67553
763,-62,71.9072,6.2229,0.0008614,0.0107848,0.000274386,0.0107924,0.00085382,1.54317,0.00692788,0.0192463,1987,1086,71.9073,-6.22296
770,-62,71.8486,5.75281,0.00631527,0.0154485,-0.00212532,0.0159188,0.00584492,-1.353,0.00929822,0.0170439,1994,1086,71.8487,-5.75285
777,-62,71.6743,5.29846,0.0145356,0.0210204,-0.00562121,0.0242673,0.0112887,-1.04699,0.014022,0.0170885,2001,1086,71.6742,-5.29846
784,-62,71.7449,4.8689,0,0,0,0,0,0,0,-1,2008,1086,71.7449,-4.86885
791,-62,72.3301,4.22656,0.0384476,0.0338101,-0.0156222,0.0519221,0.0203355,-0.711722,0.0302109,0.0467212,2015,1086,72.33,-4.22658
798,-62,73.1177,3.46411,0.0565114,0.0416858,-0.0229757,0.0732405,0.0249567,-0.629352,0.0429944,0.0494538,2022,1086,73.1178,-3.46408
805,-62,73.6904,2.88037,0.0802809,0.0513093,-0.0323418,0.101233,0.0303574,-0.574846,0.059987,0.0493675,2029,1086,73.6905,-2.88033
812,-62,74.2952,2.25562,0,0,0,0,0,0,0,-1,2036,1086,74.295,-2.2556
-700,-69,-56.0667,-7.70728,0,0,0,0,0,0,0,-1,524,1093,-56.0667,7.70727
-693,-69,-52.0797,-6.36023,0,0,0,0,0,0,0,-1,531,1093,-52.0797,6.36018
-686,-69,-53.3814,-4.61987,0,0,0,0,0,0,0,-1,538,1093,-53.3814,4.61987
-679,-69,-51.9681,-3.56482,0,0,0,0,0,0,0,-1,545,1093,-51.9681,3.56481
-672,-69,-53.4972,-2.80273,0,0,0,0,0,0,0,-1,552,1093,-53.4972,2.80276
-665,-69,-54.1162,-0.905029,0,0,0,0,0,0,0,-1,559,1093,-54.1162,0.905009
-658,-69,-53.2145,0.578979,0,0,0,0,0,0,0,-1,566,1093,-53.2146,-0.578971
-651,-69,-54.2253,3.4093,0,0,0,0,0,0,0,-1,573,1093,-54.2253,-3.40934
-644,-69,-55.1354,3.85107,0.00411912,0.0258476,0.0111874,0.0305779,-0.000611191,1.17077,0.020592,0.0473062,580,1093,-55.1354,-3.85103
-637,-69,-55.3538,4.32581,0.000166566,0.0200227,0.00827044,0.0230162,-0.00282693,1.22351,0.016368,0.0195806,587,1093,-55.3538,-4.32586
-630,-69,-55.3978,4.77588,-0.00404856,0.0132766,0.0045976,0.014421,-0.00519303,1.32683,0.0117345,0.016427,594,1093,-55.3978,-4.77584
-623,-69,-55.4028,5.27087,-0.00390147,0.00686275,0.000982126,0.00695162,-0.00399034,1.48055,0.006394,0.0202998,601,1093,-55.4028,-5.27087
-616,-69,-55.4227,5.74695,-0.000903541,0.00047426,-0.00201606,0.00191587,-0.00234515,-0.950032,0.00246426,0.0252667,608,1093,-55.4227,-5.74697
-609,-69,-55.4374,6.21838,0.00177355,-0.00491958,-0.00401502,0.00365382,-0.00679986,-0.437976,0.00612586,0.0233765,615,1093,-55.4374,-6.21844
-602,-69,-55.3777,6.74341,0.00476481,-0.00940767,-0.0047513,0.00621025,-0.0108531,-0.295325,0.00997236,0.0219982,622,1093,-55.3777,-6.74344
-595,-69,-55.2696,7.12109,0.00862418,-0.0133527,-0.00440199,0.00947311,-0.0142016,-0.190513,0.0137592,0.0480359,629,1093,-55.2696,-7.12105
-588,-69,-55.3206,7.42529,0,0,0,0,0,0,0,-1,636,1093,-55.3206,-7.42524
-581,-69,-57.2684,0.174194,0,0,0,0,0,0,0,-1,643,1093,-57.2684,-0.174162
-574,-69,-57.2959,0.326294,0,0,0,0,0,0,0,-1,650,1093,-57.2959,-0.326236
-567,-69,-57.2329,0.437866,0,0,0,0,0,0,0,-1,657,1093,-57.2329,-0.437817
-560,-69,-57.3052,0.466675,0,0,0,0,0,0,0,-1,664,1093,-57.3052,-0.466667
-553,-69,-57.3112,0.392334,0,0,0,0,0,0,0,-1,671,1093,-57.3112,-0.392283
-546,-69,-57.2453,0.403687,0,0,0,0,0,0,0,-1,678,1093,-57.2453,-0.403733
-539,-69,-57.2336,0.330078,0,0,0,0,0,0,0,-1,685,1093,-57.2337,-0.330128
-532,-69,-57.0107,0.42749,0,0,0,0,0,0,0,-1,692,1093,-57.0108,-0.427436
-525,-69,0,0,0,0,0,0,0,0,0,-1,699,1093,0,0
-518,-69,0,0,0,0,0,0,0,0,0,-1,706,1093,0,0
-511,-69,0,0,0,0,0,0,0,0,0,-1,713,1093,0,0
-504,-69,0,0,0,0,0,0,0,0,0,-1,720,1093,0,0
-497,-69,0,0,0,0,0,0,0,0,0,-1,727,1093,0,0
-490,-69,0,0,0,0,0,0,0,0,0,-1,734,1093,0,0
-483,-69,0,0,0,0,0,0,0,0,0,-1,741,1093,0,0
-476,-69,0,0,0,0,0,0,0,0,0,-1,748,1093,0,0
-469,-69,0,0,0,0,0,0,0,0,0,-1,755,1093,0,0
-462,-69,0,0,0,0,0,0,0,0,0,-1,762,1093,0,0
-455,-69,0,0,0,0,0,0,0,0,0,-1,769,1093,0,0
-448,-69,0,0,0,0,0,0,0,0,0,-1,776,1093,0,0
-441,-69,0,0,0,0,0,0,0,0,0,-1,783,1093,0,0
-434,-69,0,0,0,0,0,0,0,0,0,-1,790,1093,0,0
-427,-69,0,0,0,0,0,0,0,0,0,-1,797,1093,0,0
-420,-69,0,0,0,0,0,0,0,0,0,-1,804,1093,0,0
-413,-69,0,0,0,0,0,0,0,0,0,-1,811,1093,0,0
-406,-69,0,0,0,0,0,0,0,0,0,-1,818,1093,0,0
-399,-69,0,0,0,0,0,0,0,0,0,-1,825,1093,0,0
-392,-69,0,0,0,0,0,0,0,0,0,-1,832,1093,0,0
-385,-69,0,0,0,0,0,0,0,0,0,-1,839,1093,0,0
-378,-69,0,0,0,0,0,0,0,0,0,-1,846,1093,0,0
-371,-69,0,0,0,0,0,0,0,0,0,-1,853,1093,0,0
-364,-69,0,0,0,0,0,0,0,0,0,-1,860,1093,0,0
-357,-69,0,0,0,0,0,0,0,0,0,-1,867,1093,0,0
-350,-69,0,0,0,0,0,0,0,0,0,-1,874,1093,0,0
-343,-69,0,0,0,0,0,0,0,0,0,-1,881,1093,0,0
-336,-69,0,0,0,0,0,0,0,0,0,-1,888,1093,0,0
-329,-69,0,0,0,0,0,0,0,0,0,-1,895,1093,0,0
-322,-69,0,0,0,0,0,0,0,0,0,-1,902,1093,0,0
-315,-69,0,0,0,0,0,0,0,0,0,-1,909,1093,0,0
-308,-69,0,0,0,0,0,0,0,0,0,-1,916,1093,0,0
-301,-69,0,0,0,0,0,0,0,0,0,-1,923,1093,0,0
-294,-69,0,0,0,0,0,0,0,0,0,-1,930,1093,0,0
-287,-69,0,0,0,0,0,0,0,0,0,-1,937,1093,0,0
-280,-69,0,0,0,0,0,0,0,0,0,-1,944,1093,0,0
-273,-69,0,0,0,0,0,0,0,0,0,-1,951,1093,0,0
-266,-69,0,0,0,0,0,0,0,0,0,-1,958,1093,0,0
-259,-69,0,0,0,0,0,0,0,0,0,-1,965,1093,0,0
-252,-69,0,0,0,0,0,0,0,0,0,-1,972,1093,0,0
-245,-69,0,0,0,0,0,0,0,0,0,-1,979,1093,0,0
-238,-69,0,0,0,0,0,0,0,0,0,-1,986,1093,0,0
-231,-69,0,0,0,0,0,0,0,0,0,-1,993,1093,0,0
-224,-69,0,0,0,0,0,0,0,0,0,-1,1000,1093,0,0
-217,-69,0,0,0,0,0,0,0,0,0,-1,1007,1093,0,0
-210,-69,0,0,0,0,0,0,0,0,0,-1,1014,1093,0,0
-203,-69,0,0,0,0,0,0,0,0,0,-1,1021,1093,0,0
-196,-69,0,0,0,0,0,0,0,0,0,-1,1028,1093,0,0
-189,-69,0,0,0,0,0,0,0,0,0,-1,1035,1093,0,0
-182,-69,0,0,0,0,0,0,0,0,0,-1,1042,1093,0,0
-175,-69,0,0,0,0,0,0,0,0,0,-1,1049,1093,0,0
-168,-69,0,0,0,0,0,0,0,0,0,-1,1056,1093,0,0
-161,-69,0,0,0,0,0,0,0,0,0,-1,1063,1093,0,0
-154,-69,0,0,0,0,0,0,0,0,0,-1,1070,1093,0,0
-147,-69,0,0,0,0,0,0,0,0,0,-1,1077,1093,0,0
-140,-69,0,0,0,0,0,0,0,0,0,-1,1084,1093,0,0
-133,-69,0,0,0,0,0,0,0,0,0,-1,1091,1093,0,0
-126,-69,0,0,0,0,0,0,0,0,0,-1,1098,1093,0,0
-119,-69,0,0,0,0,0,0,0,0,0,-1,1105,1093,0,0
-112,-69,0,0,0,0,0,0,0,0,0,-1,1112,1093,0,0
-105,-69,0,0,0,0,0,0,0,0,0,-1,1119,1093,0,0
-98,-69,0,0,0,0,0,0,0,0,0,-1,1126,1093,0,0
-91,-69,0,0,0,0,0,0,0,0,0,-1,1133,1093,0,0
-84,-69,0,0,0,0,0,0,0,0,0,-1,1140,1093,0,0
-77,-69,0,0,0,0,0,0,0,0,0,-1,1147,1093,0,0
-70,-69,0,0,0,0,0,0,0,0,0,-1,1154,1093,0,0
-63,-69,0,0,0,0,0,0,0,0,0,-1,1161,1093,0,0
-56,-69,0,0,0,0,0,0,0,0,0,-1,1168,1093,0,0
-49,-69,0,0,0,0,0,0,0,0,0,-1,1175,1093,0,0
-42,-69,0,0,0,0,0,0,0,0,0,-1,1182,1093,0,0
-35,-69,0,0,0,0,0,0,0,0,0,-1,1189,1093,0,0
-28,-69,0,0,0,0,0,0,0,0,0,-1,1196,1093,0,0
-21,-69,0,0,0,0,0,0,0,0,0,-1,1203,1093,0,0
-14,-69,0,0,0,0,0,0,0,0,0,-1,1210,1093,0,0
-7,-69,0,0,0,0,0,0,0,0,0,-1,1217,1093,0,0
0,-69,0,0,0,0,0,0,0,0,0,-1,1224,1093,0,0
7,-69,0,0,0,0,0,0,0,0,0,-1,1231,1093,0,0
14,-69,0,0,0,0,0,0,0,0,0,-1,1238,1093,0,0
21,-69,0,0,0,0,0,0,0,0,0,-1,1245,1093,0,0
28,-69,0,0,0,0,0,0,0,0,0,-1,1252,1093,0,0
35,-69,0,0,0,0,0,0,0,0,0,-1,1259,1093,0,0
42,-69,0,0,0,0,0,0,0,0,0,-1,1266,1093,0,0
49,-69,0,0,0,0,0,0,0,0,0,-1,1273,1093,0,0
56,-69,0,0,0,0,0,0,0,0,0,-1,1280,1093,0,0
63,-69,0,0,0,0,0,0,0,0,0,-1,1287,1093,0,0
70,-69,0,0,0,0,0,0,0,0,0,-1,1294,1093,0,0
77,-69,0,0,0,0,0,0,0,0,0,-1,1301,1093,0,0
84,-69,0,0,0,0,0,0,0,0,0,-1,1308,1093,0,0
91,-69,0,0,0,0,0,0,0,0,0,-1,1315,1093,0,0
98,-69,0,0,0,0,0,0,0,0,0,-1,1322,1093,0,0
105,-69,0,0,0,0,0,0,0,0,0,-1,1329,1093,0,0
112,-69,0,0,0,0,0,0,0,0,0,-1,1336,1093,0,0
119,-69,0,0,0,0,0,0,0,0,0,-1,1343,1093,0,0
126,-69,0,0,0,0,0,0,0,0,0,-1,1350,1093,0,0
133,-69,0,0,0,0,0,0,0,0,0,-1,1357,1093,0,0
140,-69,0,0,0,0,0,0,0,0,0,-1,1364,1093,0,0
147,-69,0,0,0,0,0,0,0,0,0,-1,1371,1093,0,0
154,-69,0,0,0,0,0,0,0,0,0,-1,1378,1093,0,0
161,-69,0,0,0,0,0,0,0,0,0,-1,1385,1093,0,0
168,-69,0,0,0,0,0,0,0,0,0,-1,1392,1093,0,0
175,-69,0,0,0,0,0,0,0,0,0,-1,1399,1093,0,0
182,-69,0,0,0,0,0,0,0,0,0,-1,1406,1093,0,0
189,-69,0,0,0,0,0,0,0,0,0,-1,1413,1093,0,0
196,-69,0,0,0,0,0,0,0,0,0,-1,1420,1093,0,0
203,-69,0,0,0,0,0,0,0,0,0,-1,1427,1093,0,0
210,-69,0,0,0,0,0,0,0,0,0,-1,1434,1093,0,0
217,-69,0,0,0,0,0,0,0,0,0,-1,1441,1093,0,0
224,-69,0,0,0,0,0,0,0,0,0,-1,1448,1093,0,0
231,-69,0,0,0,0,0,0,0,0,0,-1,1455,1093,0,0
238,-69,0,0,0,0,0,0,0,0,0,-1,1462,1093,0,0
245,-69,0,0,0,0,0,0,0,0,0,-1,1469,1093,0,0
252,-69,0,0,0,0,0,0,0,0,0,-1,1476,1093,0,0
259,-69,0,0,0,0,0,0,0,0,0,-1,1483,1093,0,0
266,-69,0,0,0,0,0,0,0,0,0,-1,1490,1093,0,0
273,-69,0,0,0,0,0,0,0,0,0,-1,1497,1093,0,0
280,-69,0,0,0,0,0,0,0,0,0,-1,1504,1093,0,0
287,-69,0,0,0,0,0,0,0,0,0,-1,1511,1093,0,0
294,-69,0,0,0,0,0,0,0,0,0,-1,1518,1093,0,0
301,-69,0,0,0,0,0,0,0,0,0,-1,1525,1093,0,0
308,-69,0,0,0,0,0,0,0,0,0,-1,1532,1093,0,0
315,-69,0,0,0,0,0,0,0,0,0,-1,1539,1093,0,0
322,-69,0,0,0,0,0,0,0,0,0,-1,1546,1093,0,0
329,-69,0,0,0,0,0,0,0,0,0,-1,1553,1093,0,0
336,-69,0,0,0,0,0,0,0,0,0,-1,1560,1093,0,0
343,-69,0,0,0,0,0,0,0,0,0,-1,1567,1093,0,0
350,-69,0,0,0,0,0,0,0,0,0,-1,1574,1093,0,0
357,-69,0,0,0,0,0,0,0,0,0,-1,1581,1093,0,0
364,-69,0,0,0,0,0,0,0,0,0,-1,1588,1093,0,0
371,-69,0,0,0,0,0,0,0,0,0,-1,1595,1093,0,0
378,-69,0,0,0,0,0,0,0,0,0,-1,1602,1093,0,0
385,-69,0,0,0,0,0,0,0,0,0,-1,1609,1093,0,0
392,-69,0,0,0,0,0,0,0,0,0,-1,1616,1093,0,0
399,-69,0,0,0,0,0,0,0,0,0,-1,1623,1093,0,0
406,-69,0,0,0,0,0,0,0,0,0,-1,1630,1093,0,0
413,-69,0,0,0,0,0,0,0,0,0,-1,1637,1093,0,0
420,-69,0,0,0,0,0,0,0,0,0,-1,1644,1093,0,0
427,-69,0,0,0,0,0,0,0,0,0,-1,1651,1093,0,0
434,-69,0,0,0,0,0,0,0,0,0,-1,1658,1093,0,0
441,-69,0,0,0,0,0,0,0,0,0,-1,1665,1093,0,0
448,-69,0,0,0,0,0,0,0,0,0,-1,1672,1093,0,0
455,-69,0,0,0,0,0,0,0,0,0,-1,1679,1093,0,0
462,-69,0,0,0,0,0,0,0,0,0,-1,1686,1093,0,0
469,-69,0,0,0,0,0,0,0,0,0,-1,1693,1093,0,0
476,-69,0,0,0,0,0,0,0,0,0,-1,1700,1093,0,0
483,-69,0,0,0,0,0,0,0,0,0,-1,1707,1093,0,0
490,-69,0,0,0,0,0,0,0,0,0,-1,1714,1093,0,0
497,-69,0,0,0,0,0,0,0,0,0,-1,1721,1093,0,0
504,-69,0,0,0,0,0,0,0,0,0,-1,1728,1093,0,0
511,-69,0,0,0,0,0,0,0,0,0,-1,1735,1093,0,0
518,-69,0,0,0,0,0,0,0,0,0,-1,1742,1093,0,0
525,-69,0,0,0,0,0,0,0,0,0,-1,1749,1093,0,0
532,-69,0,0,0,0,0,0,0,0,0,-1,1756,1093,0,0
539,-69,0,0,0,0,0,0,0,0,0,-1,1763,1093,0,0
546,-69,0,0,0,0,0,0,0,0,0,-1,1770,1093,0,0
553,-69,0,0,0,0,0,0,0,0,0,-1,1777,1093,0,0
560,-69,0,0,0,0,0,0,0,0,0,-1,1784,1093,0,0
567,-69,0,0,0,0,0,0,0,0,0,-1,1791,1093,0,0
574,-69,0,0,0,0,0,0,0,0,0,-1,1798,1093,0,0
581,-69,0,0,0,0,0,0,0,0,0,-1,1805,1093,0,0
588,-69,0,0,0,0,0,0,0,0,0,-1,1812,1093,0,0
595,-69,0,0,0,0,0,0,0,0,0,-1,1819,1093,0,0
602,-69,0,0,0,0,0,0,0,0,0,-1,1826,1093,0,0
609,-69,0,0,0,0,0,0,0,0,0,-1,1833,1093,0,0
616,-69,0,0,0,0,0,0,0,0,0,-1,1840,1093,0,0
623,-69,0,0,0,0,0,0,0,0,0,-1,1847,1093,0,0
630,-69,0,0,0,0,0,0,0,0,0,-1,1854,1093,0,0
637,-69,0,0,0,0,0,0,0,0,0,-1,1861,1093,0,0
644,-69,0,0,0,0,0,0,0,0,0,-1,1868,1093,0,0
651,-69,74.3091,2.42383,0.00422785,-0.000701134,-0.00043077,0.00426521,-0.000738498,-0.0865212,0.00311892,0.0418296,1875,1093,74.3091,-2.42387
658,-69,74.3196,2.32397,0.00283378,-0.000794691,-0.000138041,0.00283902,-0.000799935,-0.0379707,0.00220816,0.0446436,1882,1093,74.3196,-2.32399
665,-69,74.4243,2.12463,0.00177441,-0.000854186,-9.76006e-05,0.00177803,-0.000857805,-0.0370623,0.00155241,0.0437625,1889,1093,74.4243,-2.1246
672,-69,74.3401,2.25049,0.000952038,-0.000830129,-0.000184559,0.00097095,-0.000849041,-0.102115,0.00105156,0.0384968,1896,1093,74.34,-2.25053
679,-69,74.3827,2.44153,0.000293759,-0.000790184,-0.000364007,0.000404653,-0.000901078,-0.295717,0.000771812,0.0368335,1903,1093,74.3828,-2.44155
686,-69,74.4498,2.52527,-0.000322291,-0.000867093,-0.000550084,1.91444e-05,-0.00120853,-0.555498,0.000812142,0.0366446,1910,1093,74.4499,-2.52521
693,-69,74.3966,2.48816,-0.000735615,-0.00106435,-0.000481272,-0.000391418,-0.00140855,-0.620843,0.000839548,0.0344265,1917,1093,74.3966,-2.48818
700,-69,74.3811,2.24451,-0.000961116,-0.00103946,-0.000229748,-0.000767224,-0.00123335,-0.700961,0.000719113,0.0311649,1924,1093,74.3811,-2.24456
707,-69,74.3535,2.14282,-0.00133747,-0.000906828,0.000135562,-0.000867709,-0.00137659,1.28985,0.000803727,0.0253317,1931,1093,74.3536,-2.14279
714,-69,74.3749,2.02026,-0.00185199,-0.000592791,0.000539099,-0.000393522,-0.00205126,1.21674,0.00125704,0.0374603,1938,1093,74.3749,-2.02031
721,-69,74.4152,1.85522,0,0,0,0,0,0,0,-1,1945,1093,74.4152,-1.85528
728,-69,71.2881,8.59094,0,0,0,0,0,0,0,-1,1952,1093,71.288,-8.59095
735,-69,71.6475,8.01538,-0.00403514,0.00176706,0.00156868,0.00216401,-0.00443209,1.32295,0.00388258,0.0463481,1959,1093,71.6474,-8.01536
742,-69,71.5392,7.64709,-0.0036444,0.00308155,0.00176875,0.00351833,-0.00408117,1.3287,0.00439158,0.0351285,1966,1093,71.5392,-7.6471
749,-69,71.3337,7.1239,-0.00296621,0.00491461,0.00165501,0.00524807,-0.00329966,1.37198,0.00497758,0.0370176,1973,1093,71.3337,-7.12393
756,-69,71.4341,6.65869,-0.00176613,0.00689687,0.00131493,0.00709206,-0.00196132,1.42343,0.00549965,0.0191335,1980,1093,71.4342,-6.65873
763,-69,71.406,6.18921,0.00102246,0.0105552,0.000106155,0.0105564,0.00102127,1.55966,0.00672305,0.0201062,1987,1093,71.406,-6.18923
770,-69,71.2952,5.75732,0.00632729,0.0153735,-0.00229571,0.0159227,0.00577804,-1.33596,0.0093075,0.0213565,1994,1093,71.2952,-5.75733
777,-69,71.123,5.34607,0.0141987,0.0211424,-0.00575259,0.0243896,0.0109515,-1.0569,0.0141057,0.0263928,2001,1093,71.123,-5.34607
784,-69,71.251,4.63318,0,0,0,0,0,0,0,-1,2008,1093,71.2511,-4.6332
791,-69,71.991,4.06384,0.0372283,0.0345294,-0.0155193,0.0514567,0.020301,-0.742031,0.0299281,0.0437148,2015,1093,71.9909,-4.0639
798,-69,72.7686,3.63782,0.0545356,0.0427626,-0.0225706,0.0719747,0.0253235,-0.657839,0.0421583,0.0478901,2022,1093,72.7686,-3.63785
805,-69,73.3528,3.25781,0.0771949,0.0526893,-0.0314352,0.0986809,0.0312034,-0.599566,0.0582424,0.0495903,2029,1093,73.3529,-3.25785
812,-69,73.8049,2.70728,0,0,0,0,0,0,0,-1,2036,1093,73.8049,-2.70727
-700,-76,0,0,0,0,0,0,0,0,0,-1,524,1100,0,0
-693,-76,-51.6884,0.510254,0,0,0,0,0,0,0,-1,531,1100,-51.6884,-0.510274
-686,-76,-57.0943,-4.83875,0,0,0,0,0,0,0,-1,538,1100,-57.0943,4.83877
-679,-76,-56.2668,-3.92224,0,0,0,0,0,0,0,-1,545,1100,-56.2668,3.92229
-672,-76,-55.2764,-2.72656,0,0,0,0,0,0,0,-1,552,1100,-55.2764,2.72657
-665,-76,-54.0982,-1.30701,0,0,0,0,0,0,0,-1,559,1100,-54.0982,1.30702
-658,-76,-53.0479,-0.166138,0,0,0,0,0,0,0,-1,566,1100,-53.0479,0.166151
-651,-76,-53.4824,3.56763,0,0,0,0,0,0,0,-1,573,1100,-53.4824,-3.56763
-644,-76,-54.4102,3.83423,0.00140584,0.0215824,0.0106131,0.0261368,-0.00314865,1.16542,0.0185633,0.0464314,580,1100,-54.4102,-3.83427
-637,-76,-54.7488,4.22205,-0.00162926,0.016583,0.00757857,0.019324,-0.00437034,1.22375,0.0145598,0.0244374,587,1100,-54.7488,-4.2221
-630,-76,-54.803,4.71753,-0.00465187,0.0108513,0.00402262,0.0118329,-0.00563346,1.33145,0.0102938,0.0154408,594,1100,-54.803,-4.71757
-623,-76,-54.8394,5.22498,-0.00410792,0.00545665,0.000658851,0.00550182,-0.00415309,1.50234,0.00559237,0.0215846,601,1100,-54.8394,-5.225
-616,-76,-54.9035,5.78015,-0.00139294,-3.55358e-05,-0.0020848,0.00147826,-0.00290674,-0.942762,0.00257607,0.0225401,608,1100,-54.9035,-5.7802
-609,-76,-54.9059,6.28467,0.00110717,-0.00478022,-0.00381983,0.00298597,-0.00665901,-0.457109,0.00570154,0.0222889,615,1100,-54.9059,-6.28465
-602,-76,-54.8277,6.83826,0.00401647,-0.00874137,-0.00430601,0.00533381,-0.0100587,-0.296888,0.00902535,0.0220489,622,1100,-54.8277,-6.83828
-595,-76,-54.8272,7.30249,0.00797786,-0.0124677,-0.00358371,0.00858782,-0.0130776,-0.168587,0.0125978,0.0434496,629,1100,-54.8272,-7.30255
-588,-76,-54.9503,7.78784,0,0,0,0,0,0,0,-1,636,1100,-54.9502,-7.78782
-581,-76,-57.2435,0.0306396,0,0,0,0,0,0,0,-1,643,1100,-57.2435,-0.0306295
-574,-76,-57.2559,0.161621,0,0,0,0,0,0,0,-1,650,1100,-57.2559,-0.161604
-567,-76,-57.0916,0.367432,0,0,0,0,0,0,0,-1,657,1100,-57.0916,-0.367432
-560,-76,-57.2402,0.439819,0,0,0,0,0,0,0,-1,664,1100,-57.2402,-0.439783
-553,-76,-57.2953,0.311523,0,0,0,0,0,0,0,-1,671,1100,-57.2953,-0.311573
-546,-76,-57.2408,0.281738,0,0,0,0,0,0,0,-1,678,1100,-57.2409,-0.281765
-539,-76,-57.0129,0.160278,0,0,0,0,0,0,0,-1,685,1100,-57.0129,-0.160339
-532,-76,-56.859,0.233154,0,0,0,0,0,0,0,-1,692,1100,-56.859,-0.233204
-525,-76,0,0,0,0,0,0,0,0,0,-1,699,1100,0,0
-518,-76,0,0,0,0,0,0,0,0,0,-1,706,1100,0,0
-511,-76,0,0,0,0,0,0,0,0,0,-1,713,1100,0,0
-504,-76,0,0,0,0,0,0,0,0,0,-1,720,1100,0,0
-497,-76,0,0,0,0,0,0,0,0,0,-1,727,1100,0,0
-490,-76,0,0,0,0,0,0,0,0,0,-1,734,1100,0,0
-483,-76,0,0,0,0,0,0,0,0,0,-1,741,1100,0,0
-476,-76,0,0,0,0,0,0,0,0,0,-1,748,1100,0,0
-469,-76,0,0,0,0,0,0,0,0,0,-1,755,1100,0,0
-462,-76,0,0,0,0,0,0,0,0,0,-1,762,1100,0,0
-455,-76,0,0,0,0,0,0,0,0,0,-1,769,1100,0,0
-448,-76,0,0,0,0,0,0,0,0,0,-1,776,1100,0,0
-441,-76,0,0,0,0,0,0,0,0,0,-1,783,1100,0,0
-434,-76,0,0,0,0,0,0,0,0,0,-1,790,1100,0,0
-427,-76,0,0,0,0,0,0,0,0,0,-1,797,1100,0,0
-420,-76,0,0,0,0,0,0,0,0,0,-1,804,1100,0,0
-413,-76,0,0,0,0,0,0,0,0,0,-1,811,1100,0,0
-406,-76,0,0,0,0,0,0,0,0,0,-1,818,1100,0,0
-399,-76,0,0,0,0,0,0,0,0,0,-1,825,1100,0,0
-392,-76,0,0,0,0,0,0,0,0,0,-1,832,1100,0,0
-385,-76,0,0,0,0,0,0,0,0,0,-1,839,1100,0,0
-378,-76,0,0,0,0,0,0,0,0,0,-1,846,1100,0,0
-371,-76,0,0,0,0,0,0,0,0,0,-1,853,1100,0,0
-364,-76,0,0,0,0,0,0,0,0,0,-1,860,1100,0,0
-357,-76,0,0,0,0,0,0,0,0,0,-1,867,1100,0,0
-350,-76,0,0,0,0,0,0,0,0,0,-1,874,1100,0,0
-343,-76,0,0,0,0,0,0,0,0,0,-1,881,1100,0,0
-336,-76,0,0,0,0,0,0,0,0,0,-1,888,1100,0,0
-329,-76,0,0,0,0,0,0,0,0,0,-1,895,1100,0,0
-322,-76,0,0,0,0,0,0,0,0,0,-1,902,1100,0,0
-315,-76,0,0,0,0,0,0,0,0,0,-1,909,1100,0,0
-308,-76,0,0,0,0,0,0,0,0,0,-1,916,1100,0,0
-301,-76,0,0,0,0,0,0,0,0,0,-1,923,1100,0,0
-294,-76,0,0,0,0,0,0,0,0,0,-1,930,1100,0,0
-287,-76,0,0,0,0,0,0,0,0,0,-1,937,1100,0,0
-280,-76,0,0,0,0,0,0,0,0,0,-1,944,1100,0,0
-273,-76,0,0,0,0,0,0,0,0,0,-1,951,1100,0,0
-266,-76,0,0,0,0,0,0,0,0,0,-1,958,1100,0,0
-259,-76,0,0,0,0,0,0,0,0,0,-1,965,1100,0,0
-252,-76,0,0,0,0,0,0,0,0,0,-1,972,1100,0,0
-245,-76,0,0,0,0,0,0,0,0,0,-1,979,1100,0,0
-238,-76,0,0,0,0,0,0,0,0,0,-1,986,1100,0,0
-231,-76,0,0,0,0,0,0,0,0,0,-1,993,1100,0,0
-224,-76,0,0,0,0,0,0,0,0,0,-1,1000,1100,0,0
-217,-76,0,0,0,0,0,0,0,0,0,-1,1007,1100,0,0
-210,-76,0,0,0,0,0,0,0,0,0,-1,1014,1100,0,0
-203,-76,0,0,0,0,0,0,0,0,0,-1,1021,1100,0,0
-196,-76,0,0,0,0,0,0,0,0,0,-1,1028,1100,0,0
-189,-76,0,0,0,0,0,0,0,0,0,-1,1035,1100,0,0
-182,-76,0,0,0,0,0,0,0,0,0,-1,1042,1100,0,0
-175,-76,0,0,0,0,0,0,0,0,0,-1,1049,1100,0,0
-168,-76,0,0,0,0,0,0,0,0,0,-1,1056,1100,0,0
-161,-76,0,0,0,0,0,0,0,0,0,-1,1063,1100,0,0
-154,-76,0,0,0,0,0,0,0,0,0,-1,1070,1100,0,0
-147,-76,0,0,0,0,0,0,0,0,0,-1,1077,1100,0,0
-140,-76,0,0,0,0,0,0,0,0,0,-1,1084,1100,0,0
-133,-76,0,0,0,0,0,0,0,0,0,-1,1091,1100,0,0
-126,-76,0,0,0,0,0,0,0,0,0,-1,1098,1100,0,0
-119,-76,0,0,0,0,0,0,0,0,0,-1,1105,1100,0,0
-112,-76,0,0,0,0,0,0,0,0,0,-1,1112,1100,0,0
-105,-76,0,0,0,0,0,0,0,0,0,-1,1119,1100,0,0
-98,-76,0,0,0,0,0,0,0,0,0,-1,1126,1100,0,0
-91,-76,0,0,0,0,0,0,0,0,0,-1,1133,1100,0,0
-84,-76,0,0,0,0,0,0,0,0,0,-1,1140,1100,0,0
-77,-76,0,0,0,0,0,0,0,0,0,-1,1147,1100,0,0
-70,-76,0,0,0,0,0,0,0,0,0,-1,1154,1100,0,0
-63,-76,0,0,0,0,0,0,0,0,0,-1,1161,1100,0,0
-56,-76,0,0,0,0,0,0,0,0,0,-1,1168,1100,0,0
-49,-76,0,0,0,0,0,0,0,0,0,-1,1175,1100,0,0
-42,-76,0,0,0,0,0,0,0,0,0,-1,1182,1100,0,0
-35,-76,0,0,0,0,0,0,0,0,0,-1,1189,1100,0,0
-28,-76,0,0,0,0,0,0,0,0,0,-1,1196,1100,0,0
-21,-76,0,0,0,0,0,0,0,0,0,-1,1203,1100,0,0
-14,-76,0,0,0,0,0,0,0,0,0,-1,1210,1100,0,0
-7,-76,0,0,0,0,0,0,0,0,0,-1,1217,1100,0,0
0,-76,0,0,0,0,0,0,0,0,0,-1,1224,1100,0,0
7,-76,0,0,0,0,0,0,0,0,0,-1,1231,1100,0,0
14,-76,0,0,0,0,0,0,0,0,0,-1,1238,1100,0,0
21,-76,0,0,0,0,0,0,0,0,0,-1,1245,1100,0,0
28,-76,0,0,0,0,0,0,0,0,0,-1,1252,1100,0,0
35,-76,0,0,0,0,0,0,0,0,0,-1,1259,1100,0,0
42,-76,0,0,0,0,0,0,0,0,0,-1,1266,1100,0,0
49,-76,0,0,0,0,0,0,0,0,0,-1,1273,1100,0,0
56,-76,0,0,0,0,0,0,0,0,0,-1,1280,1100,0,0
63,-76,0,0,0,0,0,0,0,0,0,-1,1287,1100,0,0
70,-76,0,0,0,0,0,0,0,0,0,-1,1294,1100,0,0
77,-76,0,0,0,0,0,0,0,0,0,-1,1301,1100,0,0
84,-76,0,0,0,0,0,0,0,0,0,-1,1308,1100,0,0
91,-76,0,0,0,0,0,0,0,0,0,-1,1315,1100,0,0
98,-76,0,0,0,0,0,0,0,0,0,-1,1322,1100,0,0
105,-76,0,0,0,0,0,0,0,0,0,-1,1329,1100,0,0
112,-76,0,0,0,0,0,0,0,0,0,-1,1336,1100,0,0
119,-76,0,0,0,0,0,0,0,0,0,-1,1343,1100,0,0
126,-76,0,0,0,0,0,0,0,0,0,-1,1350,1100,0,0
133,-76,0,0,0,0,0,0,0,0,0,-1,1357,1100,0,0
140,-76,0,0,0,0,0,0,0,0,0,-1,1364,1100,0,0
147,-76,0,0,0,0,0,0,0,0,0,-1,1371,1100,0,0
154,-76,0,0,0,0,0,0,0,0,0,-1,1378,1100,0,0
161,-76,0,0,0,0,0,0,0,0,0,-1,1385,1100,0,0
168,-76,0,0,0,0,0,0,0,0,0,-1,1392,1100,0,0
175,-76,0,0,0,0,0,0,0,0,0,-1,1399,1100,0,0
182,-76,0,0,0,0,0,0,0,0,0,-1,1406,1100,0,0
189,-76,0,0,0,0,0,0,0,0,0,-1,1413,1100,0,0
196,-76,0,0,0,0,0,0,0,0,0,-1,1420,1100,0,0
203,-76,0,0,0,0,0,0,0,0,0,-1,1427,1100,0,0
210,-76,0,0,0,0,0,0,0,0,0,-1,1434,1100,0,0
217,-76,0,0,0,0,0,0,0,0,0,-1,1441,1100,0,0
224,-76,0,0,0,0,0,0,0,0,0,-1,1448,1100,0,0
231,-76,0,0,0,0,0,0,0,0,0,-1,1455,1100,0,0
238,-76,0,0,0,0,0,0,0,0,0,-1,1462,1100,0,0
245,-76,0,0,0,0,0,0,0,0,0,-1,1469,1100,0,0
252,-76,0,0,0,0,0,0,0,0,0,-1,1476,1100,0,0
259,-76,0,0,0,0,0,0,0,0,0,-1,1483,1100,0,0
266,-76,0,0,0,0,0,0,0,0,0,-1,1490,1100,0,0
273,-76,0,0,0,0,0,0,0,0,0,-1,1497,1100,0,0
280,-76,0,0,0,0,0,0,0,0,0,-1,1504,1100,0,0
287,-76,0,0,0,0,0,0,0,0,0,-1,1511,1100,0,0
294,-76,0,0,0,0,0,0,0,0,0,-1,1518,1100,0,0
301,-76,0,0,0,0,0,0,0,0,0,-1,1525,1100,0,0
308,-76,0,0,0,0,0,0,0,0,0,-1,1532,1100,0,0
315,-76,0,0,0,0,0,0,0,0,0,-1,1539,1100,0,0
322,-76,0,0,0,0,0,0,0,0,0,-1,1546,1100,0,0
329,-76,0,0,0,0,0,0,0,0,0,-1,1553,1100,0,0
336,-76,0,0,0,0,0,0,0,0,0,-1,1560,1100,0,0
343,-76,0,0,0,0,0,0,0,0,0,-1,1567,1100,0,0
350,-76,0,0,0,0,0,0,0,0,0,-1,1574,1100,0,0
357,-76,0,0,0,0,0,0,0,0,0,-1,1581,1100,0,0
364,-76,0,0,0,0,0,0,0,0,0,-1,1588,1100,0,0
371,-76,0,0,0,0,0,0,0,0,0,-1,1595,1100,0,0
378,-76,0,0,0,0,0,0,0,0,0,-1,1602,1100,0,0
385,-76,0,0,0,0,0,0,0,0,0,-1,1609,1100,0,0
392,-76,0,0,0,0,0,0,0,0,0,-1,1616,1100,0,0
399,-76,0,0,0,0,0,0,0,0,0,-1,1623,1100,0,0
406,-76,0,0,0,0,0,0,0,0,0,-1,1630,1100,0,0
413,-76,0,0,0,0,0,0,0,0,0,-1,1637,1100,0,0
420,-76,0,0,0,0,0,0,0,0,0,-1,1644,1100,0,0
427,-76,0,0,0,0,0,0,0,0,0,-1,1651,1100,0,0
434,-76,0,0,0,0,0,0,0,0,0,-1,1658,1100,0,0
441,-76,0,0,0,0,0,0,0,0,0,-1,1665,1100,0,0
448,-76,0,0,0,0,0,0,0,0,0,-1,1672,1100,0,0
455,-76,0,0,0,0,0,0,0,0,0,-1,1679,1100,0,0
462,-76,0,0,0,0,0,0,0,0,0,-1,1686,1100,0,0
469,-76,0,0,0,0,0,0,0,0,0,-1,1693,1100,0,0
476,-76,0,0,0,0,0,0,0,0,0,-1,1700,1100,0,0
483,-76,0,0,0,0,0,0,0,0,0,-1,1707,1100,0,0
490,-76,0,0,0,0,0,0,0,0,0,-1,1714,1100,0,0
497,-76,0,0,0,0,0,0,0,0,0,-1,1721,1100,0,0
504,-76,0,0,0,0,0,0,0,0,0,-1,1728,1100,0,0
511,-76,0,0,0,0,0,0,0,0,0,-1,1735,1100,0,0
518,-76,0,0,0,0,0,0,0,0,0,-1,1742,1100,0,0
525,-76,0,0,0,0,0,0,0,0,0,-1,1749,1100,0,0
532,-76,0,0,0,0,0,0,0,0,0,-1,1756,1100,0,0
539,-76,0,0,0,0,0,0,0,0,0,-1,1763,1100,0,0
546,-76,0,0,0,0,0,0,0,0,0,-1,1770,1100,0,0
553,-76,0,0,0,0,0,0,0,0,0,-1,1777,1100,0,0
560,-76,0,0,0,0,0,0,0,0,0,-1,1784,1100,0,0
567,-76,0,0,0,0,0,0,0,0,0,-1,1791,1100,0,0
574,-76,0,0,0,0,0,0,0,0,0,-1,1798,1100,0,0
581,-76,0,0,0,0,0,0,0,0,0,-1,1805,1100,0,0
588,-76,0,0,0,0,0,0,0,0,0,-1,1812,1100,0,0
595,-76,0,0,0,0,0,0,0,0,0,-1,1819,1100,0,0
602,-76,0,0,0,0,0,0,0,0,0,-1,1826,1100,0,0
609,-76,0,0,0,0,0,0,0,0,0,-1,1833,1100,0,0
616,-76,0,0,0,0,0,0,0,0,0,-1,1840,1100,0,0
623,-76,0,0,0,0,0,0,0,0,0,-1,1847,1100,0,0
630,-76,0,0,0,0,0,0,0,0,0,-1,1854,1100,0,0
637,-76,0,0,0,0,0,0,0,0,0,-1,1861,1100,0,0
644,-76,0,0,0,0,0,0,0,0,0,-1,1868,1100,0,0
651,-76,74.5325,2.33203,0.00508946,-0.00140517,-0.000470777,0.00512341,-0.00143912,-0.0719855,0.00398294,0.0404832,1875,1100,74.5325,-2.33208
658,-76,74.5269,2.38342,0.00344643,-0.00125741,-4.553e-05,0.00344687,-0.00125785,-0.00967812,0.00281257,0.0410719,1882,1100,74.5269,-2.38347
665,-76,74.4264,2.26208,0.00219829,-0.0011286,3.22397e-05,0.0021986,-0.00112891,0.00968945,0.00195395,0.0374169,1889,1100,74.4264,-2.26211
672,-76,74.316,2.32813,0.00122393,-0.000961788,-8.89619e-05,0.00122754,-0.000965403,-0.0406119,0.00126911,0.0353204,1896,1100,74.316,-2.32817
679,-76,74.376,2.38696,0.000475741,-0.000837415,-0.000343504,0.000560169,-0.000921843,-0.241007,0.000864091,0.0370912,1903,1100,74.3759,-2.38691
686,-76,74.5544,2.34839,-8.72042e-05,-0.000831408,-0.000617321,0.000261489,-0.0011801,-0.514172,0.000886842,0.0345693,1910,1100,74.5544,-2.34838
693,-76,74.4641,2.26038,-0.000434139,-0.000991157,-0.000598183,-5.28069e-05,-0.00137249,-0.567526,0.000897908,0.034952,1917,1100,74.4641,-2.26038
700,-76,74.3829,2.14221,-0.000619692,-0.00095566,-0.000390969,-0.000362146,-0.00121321,-0.582493,0.000719154,0.0338145,1924,1100,74.3829,-2.14217
707,-76,74.3564,2.1499,-0.000935802,-0.000833703,-4.03944e-05,-0.000819655,-0.000949851,-1.2361,0.000594606,0.0265093,1931,1100,74.3565,-2.14988
714,-76,74.4069,2.14417,0,0,0,0,0,0,0,-1,1938,1100,74.4069,-2.1442
721,-76,45.1713,3.04919,0,0,0,0,0,0,0,-1,1945,1100,45.1713,-3.04915
728,-76,60.937,8.08447,0,0,0,0,0,0,0,-1,1952,1100,60.937,-8.08446
735,-76,70.8706,8.29297,0,0,0,0,0,0,0,-1,1959,1100,70.8706,-8.29292
742,-76,70.9447,7.72192,-0.00301873,0.00282665,0.00152255,0.00319945,-0.00339153,1.33067,0.00380584,0.036051,1966,1100,70.9446,-7.72193
749,-76,70.7737,7.15808,-0.00249987,0.00458807,0.00151294,0.0048975,-0.0028093,1.36905,0.00450364,0.0339485,1973,1100,70.7737,-7.15807
756,-76,70.8594,6.66992,-0.00149152,0.00649962,0.00126267,0.00669439,-0.00168629,1.41775,0.00511847,0.0185873,1980,1100,70.8593,-6.66988
763,-76,70.8157,6.16077,0.00113252,0.0101554,0.000118911,0.010157,0.00113095,1.55762,0.00642761,0.0185972,1987,1100,70.8157,-6.16074
770,-76,70.7021,5.70239,0.00608305,0.0149889,-0.0021789,0.0154934,0.00557855,-1.34326,0.00906118,0.0193067,1994,1100,70.7023,-5.70241
777,-76,70.542,5.33838,0.0133324,0.0207362,-0.00544169,0.0236158,0.0104528,-1.08409,0.0136645,0.0233086,2001,1100,70.542,-5.3384
784,-76,70.4587,4.63489,0.0226721,0.0270508,-0.00947112,0.0345823,0.0151406,-0.898982,0.0200175,0.0348615,2008,1100,70.4588,-4.63485
791,-76,71.5764,3.62537,0,0,0,0,0,0,0,-1,2015,1100,71.5763,-3.62542
798,-76,72.8411,3.03284,0.0509723,0.0427096,-0.0212372,0.0684763,0.0252056,-0.689331,0.0399908,0.0433308,2022,1100,72.8411,-3.03284
805,-76,73.5486,2.61011,0.071991,0.0528962,-0.0295243,0.0934732,0.031414,-0.629018,0.0549251,0.0477042,2029,1100,73.5485,-2.61007
812,-76,74.4365,1.90234,0.098177,0.0657755,-0.0397328,0.124885,0.0390676,-0.591817,0.0737671,0.0488869,2036,1100,74.4366,-1.90232
-700,-83,0,0,0,0,0,0,0,0,0,-1,524,1107,0,0
-693,-83,-51.5942,-0.0551758,0,0,0,0,0,0,0,-1,531,1107,-51.5942,0.0551577
-686,-83,-52.002,0.320801,0,0,0,0,0,0,0,-1,538,1107,-52.002,-0.320759
-679,-83,-55.7735,-4.28455,0,0,0,0,0,0,0,-1,545,1107,-55.7735,4.28454
-672,-83,-54.9203,-3.14282,0,0,0,0,0,0,0,-1,552,1107,-54.9204,3.14281
-665,-83,-52.8182,-0.243774,0,0,0,0,0,0,0,-1,559,1107,-52.8182,0.243811
-658,-83,-53.5201,2.1416,0,0,0,0,0,0,0,-1,566,1107,-53.5201,-2.14157
-651,-83,-53.4661,3.27637,0,0,0,0,0,0,0,-1,573,1107,-53.4661,-3.27642
-644,-83,-53.8763,3.69995,0.000278485,0.0169868,0.0100757,0.0217213,-0.00445594,1.13153,0.0161721,0.0329846,580,1107,-53.8764,-3.6999
-637,-83,-54.1371,4.17871,-0.00231508,0.0130449,0.00682591,0.0156399,-0.00491008,1.2075,0.0123919,0.0159174,587,1107,-54.1371,-4.17865
-630,-83,-54.1945,4.71802,-0.00466359,0.00849749,0.00334704,0.00929978,-0.00546588,1.33553,0.00862021,0.0171817,594,1107,-54.1945,-4.71808
-623,-83,-54.2559,5.23364,-0.00410184,0.00415176,0.0002259,0.00415794,-0.00410802,1.54345,0.00477238,0.021701,601,1107,-54.2559,-5.23367
-616,-83,-54.3769,5.80151,-0.00197305,-0.000473034,-0.00222582,0.00112574,-0.00357182,-0.947903,0.00283205,0.018414,608,1107,-54.3769,-5.80152
-609,-83,-54.3271,6.31189,6.87295e-05,-0.00456671,-0.00367286,0.00209402,-0.006592,-0.503933,0.00523421,0.0232289,615,1107,-54.3272,-6.31186
-602,-83,-54.2994,6.8999,0.00271502,-0.00802489,-0.00395505,0.00401431,-0.00932418,-0.317407,0.00790176,0.0206653,622,1107,-54.2995,-6.89995
-595,-83,-54.21,7.48425,0.00674413,-0.0115834,-0.00290734,0.00719427,-0.0120335,-0.15361,0.0112178,0.031112,629,1107,-54.21,-7.48422
-588,-83,-54.2782,7.92371,0,0,0,0,0,0,0,-1,636,1107,-54.2782,-7.92365
-581,-83,-57.2495,0.00952148,0,0,0,0,0,0,0,-1,643,1107,-57.2495,-0.00951622
-574,-83,-57.2212,0.0090332,0,0,0,0,0,0,0,-1,650,1107,-57.2212,-0.0090122
-567,-83,-57.186,0.199585,0,0,0,0,0,0,0,-1,657,1107,-57.186,-0.199537
-560,-83,-57.2048,0.372559,0,0,0,0,0,0,0,-1,664,1107,-57.2048,-0.372566
-553,-83,-57.2924,0.271973,0,0,0,0,0,0,0,-1,671,1107,-57.2923,-0.27192
-546,-83,-57.164,0.563843,0,0,0,0,0,0,0,-1,678,1107,-57.164,-0.563842
-539,-83,-56.851,-0.112061,0,0,0,0,0,0,0,-1,685,1107,-56.851,0.11209
-532,-83,-57.0213,0.154419,0,0,0,0,0,0,0,-1,692,1107,-57.0213,-0.154389
-525,-83,0,0,0,0,0,0,0,0,0,-1,699,1107,0,0
-518,-83,0,0,0,0,0,0,0,0,0,-1,706,1107,0,0
-511,-83,0,0,0,0,0,0,0,0,0,-1,713,1107,0,0
-504,-83,0,0,0,0,0,0,0,0,0,-1,720,1107,0,0
-497,-83,0,0,0,0,0,0,0,0,0,-1,727,1107,0,0
-490,-83,0,0,0,0,0,0,0,0,0,-1,734,1107,0,0
-483,-83,0,0,0,0,0,0,0,0,0,-1,741,1107,0,0
-476,-83,0,0,0,0,0,0,0,0,0,-1,748,1107,0,0
-469,-83,0,0,0,0,0,0,0,0,0,-1,755,1107,0,0
-462,-83,0,0,0,0,0,0,0,0,0,-1,762,1107,0,0
-455,-83,0,0,0,0,0,0,0,0,0,-1,769,1107,0,0
-448,-83,0,0,0,0,0,0,0,0,0,-1,776,1107,0,0
-441,-83,0,0,0,0,0,0,0,0,0,-1,783,1107,0,0
-434,-83,0,0,0,0,0,0,0,0,0,-1,790,1107,0,0
-427,-83,0,0,0,0,0,0,0,0,0,-1,797,1107,0,0
-420,-83,0,0,0,0,0,0,0,0,0,-1,804,1107,0,0
-413,-83,0,0,0,0,0,0,0,0,0,-1,811,1107,0,0
-406,-83,0,0,0,0,0,0,0,0,0,-1,818,1107,0,0
-399,-83,0,0,0,0,0,0,0,0,0,-1,825,1107,0,0
-392,-83,0,0,0,0,0,0,0,0,0,-1,832,1107,0,0
-385,-83,0,0,0,0,0,0,0,0,0,-1,839,1107,0,0
-378,-83,0,0,0,0,0,0,0,0,0,-1,846,1107,0,0
-371,-83,0,0,0,0,0,0,0,0,0,-1,853,1107,0,0
-364,-83,0,0,0,0,0,0,0,0,0,-1,860,1107,0,0
-357,-83,0,0,0,0,0,0,0,0,0,-1,867,1107,0,0
-350,-83,0,0,0,0,0,0,0,0,0,-1,874,1107,0,0
-343,-83,0,0,0,0,0,0,0,0,0,-1,881,1107,0,0
-336,-83,0,0,0,0,0,0,0,0,0,-1,888,1107,0,0
-329,-83,0,0,0,0,0,0,0,0,0,-1,895,1107,0,0
-322,-83,0,0,0,0,0,0,0,0,0,-1,902,1107,0,0
-315,-83,0,0,0,0,0,0,0,0,0,-1,909,1107,0,0
-308,-83,0,0,0,0,0,0,0,0,0,-1,916,1107,0,0
-301,-83,0,0,0,0,0,0,0,0,0,-1,923,1107,0,0
-294,-83,0,0,0,0,0,0,0,0,0,-1,930,1107,0,0
-287,-83,0,0,0,0,0,0,0,0,0,-1,937,1107,0,0
-280,-83,0,0,0,0,0,0,0,0,0,-1,944,1107,0,0
-273,-83,0,0,0,0,0,0,0,0,0,-1,951,1107,0,0
-266,-83,0,0,0,0,0,0,0,0,0,-1,958,1107,0,0
-259,-83,0,0,0,0,0,0,0,0,0,-1,965,1107,0,0
-252,-83,0,0,0,0,0,0,0,0,0,-1,972,1107,0,0
-245,-83,0,0,0,0,0,0,0,0,0,-1,979,1107,0,0
-238,-83,0,0,0,0,0,0,0,0,0,-1,986,1107,0,0
-231,-83,0,0,0,0,0,0,0,0,0,-1,993,1107,0,0
-224,-83,0,0,0,0,0,0,0,0,0,-1,1000,1107,0,0
-217,-83,0,0,0,0,0,0,0,0,0,-1,1007,1107,0,0
-210,-83,0,0,0,0,0,0,0,0,0,-1,1014,1107,0,0
-203,-83,0,0,0,0,0,0,0,0,0,-1,1021,1107,0,0
-196,-83,0,0,0,0,0,0,0,0,0,-1,1028,1107,0,0
-189,-83,0,0,0,0,0,0,0,0,0,-1,1035,1107,0,0
-182,-83,0,0,0,0,0,0,0,0,0,-1,1042,1107,0,0
-175,-83,0,0,0,0,0,0,0,0,0,-1,1049,1107,0,0
-168,-83,0,0,0,0,0,0,0,0,0,-1,1056,1107,0,0
-161,-83,0,0,0,0,0,0,0,0,0,-1,1063,1107,0,0
-154,-83,0,0,0,0,0,0,0,0,0,-1,1070,1107,0,0
-147,-83,0,0,0,0,0,0,0,0,0,-1,1077,1107,0,0
-140,-83,0,0,0,0,0,0,0,0,0,-1,1084,1107,0,0
-133,-83,0,0,0,0,0,0,0,0,0,-1,1091,1107,0,0
-126,-83,0,0,0,0,0,0,0,0,0,-1,1098,1107,0,0
-119,-83,0,0,0,0,0,0,0,0,0,-1,1105,1107,0,0
-112,-83,0,0,0,0,0,0,0,0,0,-1,1112,1107,0,0
-105,-83,0,0,0,0,0,0,0,0,0,-1,1119,1107,0,0
-98,-83,0,0,0,0,0,0,0,0,0,-1,1126,1107,0,0
-91,-83,0,0,0,0,0,0,0,0,0,-1,1133,1107,0,0
-84,-83,0,0,0,0,0,0,0,0,0,-1,1140,1107,0,0
-77,-83,0,0,0,0,0,0,0,0,0,-1,1147,1107,0,0
-70,-83,0,0,0,0,0,0,0,0,0,-1,1154,1107,0,0
-63,-83,0,0,0,0,0,0,0,0,0,-1,1161,1107,0,0
-56,-83,0,0,0,0,0,0,0,0,0,-1,1168,1107,0,0
-49,-83,0,0,0,0,0,0,0,0,0,-1,1175,1107,0,0
-42,-83,0,0,0,0,0,0,0,0,0,-1,1182,1107,0,0
-35,-83,0,0,0,0,0,0,0,0,0,-1,1189,1107,0,0
-28,-83,0,0,0,0,0,0,0,0,0,-1,1196,1107,0,0
-21,-83,0,0,0,0,0,0,0,0,0,-1,1203,1107,0,0
-14,-83,0,0,0,0,0,0,0,0,0,-1,1210,1107,0,0
-7,-83,0,0,0,0,0,0,0,0,0,-1,1217,1107,0,0
0,-83,0,0,0,0,0,0,0,0,0,-1,1224,1107,0,0
7,-83,0,0,0,0,0,0,0,0,0,-1,1231,1107,0,0
14,-83,0,0,0,0,0,0,0,0,0,-1,1238,1107,0,0
21,-83,0,0,0,0,0,0,0,0,0,-1,1245,1107,0,0
28,-83,0,0,0,0,0,0,0,0,0,-1,1252,1107,0,0
35,-83,0,0,0,0,0,0,0,0,0,-1,1259,1107,0,0
42,-83,0,0,0,0,0,0,0,0,0,-1,1266,1107,0,0
49,-83,0,0,0,0,0,0,0,0,0,-1,1273,1107,0,0
56,-83,0,0,0,0,0,0,0,0,0,-1,1280,1107,0,0
63,-83,0,0,0,0,0,0,0,0,0,-1,1287,1107,0,0
70,-83,0,0,0,0,0,0,0,0,0,-1,1294,1107,0,0
77,-83,0,0,0,0,0,0,0,0,0,-1,1301,1107,0,0
84,-83,0,0,0,0,0,0,0,0,0,-1,1308,1107,0,0
91,-83,0,0,0,0,0,0,0,0,0,-1,1315,1107,0,0
98,-83,0,0,0,0,0,0,0,0,0,-1,1322,1107,0,0
105,-83,0,0,0,0,0,0,0,0,0,-1,1329,1107,0,0
112,-83,0,0,0,0,0,0,0,0,0,-1,1336,1107,0,0
119,-83,0,0,0,0,0,0,0,0,0,-1,1343,1107,0,0
126,-83,0,0,0,0,0,0,0,0,0,-1,1350,1107,0,0
133,-83,0,0,0,0,0,0,0,0,0,-1,1357,1107,0,0
140,-83,0,0,0,0,0,0,0,0,0,-1,1364,1107,0,0
147,-83,0,0,0,0,0,0,0,0,0,-1,1371,1107,0,0
154,-83,0,0,0,0,0,0,0,0,0,-1,1378,1107,0,0
161,-83,0,0,0,0,0,0,0,0,0,-1,1385,1107,0,0
168,-83,0,0,0,0,0,0,0,0,0,-1,1392,1107,0,0
175,-83,0,0,0,0,0,0,0,0,0,-1,1399,1107,0,0
182,-83,0,0,0,0,0,0,0,0,0,-1,1406,1107,0,0
189,-83,0,0,0,0,0,0,0,0,0,-1,1413,1107,0,0
196,-83,0,0,0,0,0,0,0,0,0,-1,1420,1107,0,0
203,-83,0,0,0,0,0,0,0,0,0,-1,1427,1107,0,0
210,-83,0,0,0,0,0,0,0,0,0,-1,1434,1107,0,0
217,-83,0,0,0,0,0,0,0,0,0,-1,1441,1107,0,0
224,-83,0,0,0,0,0,0,0,0,0,-1,1448,1107,0,0
231,-83,0,0,0,0,0,0,0,0,0,-1,1455,1107,0,0
238,-83,0,0,0,0,0,0,0,0,0,-1,1462,1107,0,0
245,-83,0,0,0,0,0,0,0,0,0,-1,1469,1107,0,0
252,-83,0,0,0,0,0,0,0,0,0,-1,1476,1107,0,0
259,-83,0,0,0,0,0,0,0,0,0,-1,1483,1107,0,0
266,-83,0,0,0,0,0,0,0,0,0,-1,1490,1107,0,0
273,-83,0,0,0,0,0,0,0,0,0,-1,1497,1107,0,0
280,-83,0,0,0,0,0,0,0,0,0,-1,1504,1107,0,0
287,-83,0,0,0,0,0,0,0,0,0,-1,1511,1107,0,0
294,-83,0,0,0,0,0,0,0,0,0,-1,1518,1107,0,0
301,-83,0,0,0,0,0,0,0,0,0,-1,1525,1107,0,0
308,-83,0,0,0,0,0,0,0,0,0,-1,1532,1107,0,0
315,-83,0,0,0,0,0,0,0,0,0,-1,1539,1107,0,0
322,-83,0,0,0,0,0,0,0,0,0,-1,1546,1107,0,0
329,-83,0,0,0,0,0,0,0,0,0,-1,1553,1107,0,0
336,-83,0,0,0,0,0,0,0,0,0,-1,1560,1107,0,0
343,-83,0,0,0,0,0,0,0,0,0,-1,1567,1107,0,0
350,-83,0,0,0,0,0,0,0,0,0,-1,1574,1107,0,0
357,-83,0,0,0,0,0,0,0,0,0,-1,1581,1107,0,0
364,-83,0,0,0,0,0,0,0,0,0,-1,1588,1107,0,0
371,-83,0,0,0,0,0,0,0,0,0,-1,1595,1107,0,0
378,-83,0,0,0,0,0,0,0,0,0,-1,1602,1107,0,0
385,-83,0,0,0,0,0,0,0,0,0,-1,1609,1107,0,0
392,-83,0,0,0,0,0,0,0,0,0,-1,1616,1107,0,0
399,-83,0,0,0,0,0,0,0,0,0,-1,1623,1107,0,0
406,-83,0,0,0,0,0,0,0,0,0,-1,1630,1107,0,0
413,-83,0,0,0,0,0,0,0,0,0,-1,1637,1107,0,0
420,-83,0,0,0,0,0,0,0,0,0,-1,1644,1107,0,0
427,-83,0,0,0,0,0,0,0,0,0,-1,1651,1107,0,0
434,-83,0,0,0,0,0,0,0,0,0,-1,1658,1107,0,0
441,-83,0,0,0,0,0,0,0,0,0,-1,1665,1107,0,0
448,-83,0,0,0,0,0,0,0,0,0,-1,1672,1107,0,0
455,-83,0,0,0,0,0,0,0,0,0,-1,1679,1107,0,0
462,-83,0,0,0,0,0,0,0,0,0,-1,1686,1107,0,0
469,-83,0,0,0,0,0,0,0,0,0,-1,1693,1107,0,0
476,-83,0,0,0,0,0,0,0,0,0,-1,1700,1107,0,0
483,-83,0,0,0,0,0,0,0,0,0,-1,1707,1107,0,0
490,-83,0,0,0,0,0,0,0,0,0,-1,1714,1107,0,0
497,-83,0,0,0,0,0,0,0,0,0,-1,1721,1107,0,0
504,-83,0,0,0,0,0,0,0,0,0,-1,1728,1107,0,0
511,-83,0,0,0,0,0,0,0,0,0,-1,1735,1107,0,0
518,-83,0,0,0,0,0,0,0,0,0,-1,1742,1107,0,0
525,-83,0,0,0,0,0,0,0,0,0,-1,1749,1107,0,0
532,-83,0,0,0,0,0,0,0,0,0,-1,1756,1107,0,0
539,-83,0,0,0,0,0,0,0,0,0,-1,1763,1107,0,0
546,-83,0,0,0,0,0,0,0,0,0,-1,1770,1107,0,0
553,-83,0,0,0,0,0,0,0,0,0,-1,1777,1107,0,0
560,-83,0,0,0,0,0,0,0,0,0,-1,1784,1107,0,0
567,-83,0,0,0,0,0,0,0,0,0,-1,1791,1107,0,0
574,-83,0,0,0,0,0,0,0,0,0,-1,1798,1107,0,0
581,-83,0,0,0,0,0,0,0,0,0,-1,1805,1107,0,0
588,-83,0,0,0,0,0,0,0,0,0,-1,1812,1107,0,0
595,-83,0,0,0,0,0,0,0,0,0,-1,1819,1107,0,0
602,-83,0,0,0,0,0,0,0,0,0,-1,1826,1107,0,0
609,-83,0,0,0,0,0,0,0,0,0,-1,1833,1107,0,0
616,-83,0,0,0,0,0,0,0,0,0,-1,1840,1107,0,0
623,-83,0,0,0,0,0,0,0,0,0,-1,1847,1107,0,0
630,-83,0,0,0,0,0,0,0,0,0,-1,1854,1107,0,0
637,-83,0,0,0,0,0,0,0,0,0,-1,1861,1107,0,0
644,-83,74.4076,1.98828,0.00753011,-0.00175137,-0.00166378,0.00781934,-0.0020406,-0.172121,0.00600971,0.0352124,1868,1107,74.4076,-1.98826
651,-83,74.5399,2.03284,0.00513642,-0.00145987,-0.000556464,0.00518304,-0.00150648,-0.083573,0.00405197,0.0395998,1875,1107,74.54,-2.03282
658,-83,74.5736,2.29736,0.00349207,-0.00128957,-2.60038e-05,0.00349221,-0.00128971,-0.00543805,0.00285679,0.0410521,1882,1107,74.5736,-2.29732
665,-83,74.3922,2.33167,0.00222135,-0.00112433,0.000104965,0.00222464,-0.00112762,0.031332,0.00196967,0.0385947,1889,1107,74.3922,-2.33166
672,-83,74.3142,2.2417,0.00121133,-0.0009266,-1.46948e-05,0.00121144,-0.000926701,-0.00687292,0.0012381,0.0377242,1896,1107,74.3142,-2.24166
679,-83,74.3961,2.36755,0.000461442,-0.000820087,-0.000289799,0.000523928,-0.000882574,-0.21237,0.000820797,0.0384392,1903,1107,74.3961,-2.36756
686,-83,74.5194,2.21448,-1.86236e-05,-0.000805154,-0.000619316,0.000321739,-0.00114552,-0.502519,0.000890513,0.0340364,1910,1107,74.5195,-2.21447
693,-83,74.4869,2.1593,-0.00028369,-0.000943985,-0.000631795,9.90176e-05,-0.00132669,-0.544634,0.000919246,0.0344312,1917,1107,74.487,-2.15925
700,-83,74.3593,2.18665,-0.000398532,-0.000901029,-0.00046209,-0.000123803,-0.00117576,-0.536393,0.000746004,0.0334014,1924,1107,74.3593,-2.18659
707,-83,74.3733,2.13757,-0.000646113,-0.000798534,-0.000126773,-0.000574406,-0.000870241,-0.514764,0.000510943,0.0244304,1931,1107,74.3733,-2.13751
714,-83,74.4073,2.09656,0,0,0,0,0,0,0,-1,1938,1107,74.4073,-2.09655
721,-83,49.1162,7.36719,0,0,0,0,0,0,0,-1,1945,1107,49.1162,-7.36721
728,-83,66.6315,8.32141,0,0,0,0,0,0,0,-1,1952,1107,66.6314,-8.32147
735,-83,70.1334,8.2804,0,0,0,0,0,0,0,-1,1959,1107,70.1334,-8.28034
742,-83,70.2522,7.73352,-0.00245944,0.0026312,0.00129305,0.00294081,-0.00276905,1.33578,0.00329708,0.0311878,1966,1107,70.2522,-7.73349
749,-83,70.3462,7.20203,-0.00208182,0.00432796,0.00136185,0.00460531,-0.00235917,1.36989,0.00409005,0.0215428,1973,1107,70.3462,-7.20205
756,-83,70.3313,6.64917,-0.00124911,0.00618779,0.00116004,0.00636453,-0.00142586,1.4196,0.00478958,0.0189855,1980,1107,70.3312,-6.64914
763,-83,70.2883,6.10376,0.0011697,0.00980826,5.95301e-05,0.00980867,0.00116929,1.56391,0.00618629,0.0142095,1987,1107,70.2883,-6.10373
770,-83,70.1772,5.64282,0.0056549,0.0145762,-0.00213195,0.0150595,0.00517161,-1.34787,0.00883561,0.0163573,1994,1107,70.1773,-5.64276
777,-83,70.0212,5.13501,0.0121483,0.0201805,-0.00519252,0.0227288,0.00960004,-1.11457,0.0131751,0.0183226,2001,1107,70.0214,-5.13502
784,-83,69.8232,4.60461,0.0206078,0.0263652,-0.00896881,0.032906,0.014067,-0.94069,0.0190647,0.0278849,2008,1107,69.8232,-4.60462
791,-83,69.9294,3.90173,0.0316915,0.0334643,-0.0138075,0.0464138,0.018742,-0.817451,0.0269618,0.0432418,2015,1107,69.9295,-3.90175
798,-83,72.7666,2.17114,0,0,0,0,0,0,0,-1,2022,1107,72.7665,-2.17117
805,-83,73.4631,1.69116,0,0,0,0,0,0,0,-1,2029,1107,73.4631,-1.69118
812,-83,74.7817,0.405762,0,0,0,0,0,0,0,-1,2036,1107,74.7817,-0.405736
-700,-90,0,0,0,0,0,0,0,0,0,-1,524,1114,0,0
-693,-90,-51.2136,-0.703979,0,0,0,0,0,0,0,-1,531,1114,-51.2136,0.703985
-686,-90,-51.6351,-0.257202,0,0,0,0,0,0,0,-1,538,1114,-51.6351,0.257187
-679,-90,-51.8642,-0.0598145,0,0,0,0,0,0,0,-1,545,1114,-51.8642,0.0598395
-672,-90,-51.9781,-0.206787,0,0,0,0,0,0,0,-1,552,1114,-51.9782,0.206756
-665,-90,-52.4082,0.473755,0,0,0,0,0,0,0,-1,559,1114,-52.4082,-0.473797
-658,-90,-52.7641,1.49854,0,0,0,0,0,0,0,-1,566,1114,-52.7641,-1.4985
-651,-90,-53.3051,2.67896,-0.00436758,0.0132887,0.0124022,0.0196839,-0.0107628,1.09471,0.0178282,0.0402855,573,1114,-53.305,-2.67891
-644,-90,-53.4286,3.46155,-0.00546788,0.0121576,0.00884703,0.0158322,-0.00914251,1.17713,0.0145906,0.0219222,580,1114,-53.4287,-3.46155
-637,-90,-53.5123,4.13354,-0.00577956,0.0096136,0.00573232,0.0115137,-0.00767969,1.25072,0.0111548,0.0162276,587,1114,-53.5123,-4.13356
-630,-90,-53.5714,4.71875,-0.0056607,0.0063658,0.00253421,0.00687799,-0.00617289,1.37137,0.00753859,0.0125896,594,1114,-53.5713,-4.71873
-623,-90,-53.6069,5.30493,-0.00440963,0.00305847,-0.000263415,0.00306775,-0.00441891,-1.53558,0.00434583,0.0142126,601,1114,-53.6069,-5.30489
-616,-90,-53.6829,5.88391,-0.00275732,-0.000792987,-0.00241448,0.000831451,-0.00438175,-0.978567,0.00323414,0.0161041,608,1114,-53.6828,-5.88389
-609,-90,-53.657,6.45154,-0.00108379,-0.00428504,-0.00359621,0.00125192,-0.00662076,-0.576018,0.00488492,0.0249803,615,1114,-53.657,-6.45153
-602,-90,-53.7446,6.98914,0.00124161,-0.00729822,-0.00373644,0.00264559,-0.00870221,-0.359432,0.00685566,0.0246125,622,1114,-53.7446,-6.9892
-595,-90,-53.6293,7.65527,0.00517601,-0.0106834,-0.00240416,0.00553245,-0.0110399,-0.147188,0.00974256,0.0247183,629,1114,-53.6294,-7.65532
-588,-90,-53.7364,8.17102,0,0,0,0,0,0,0,-1,636,1114,-53.7364,-8.17104
-581,-90,-57.2487,0.119873,0,0,0,0,0,0,0,-1,643,1114,-57.2487,-0.119911
-574,-90,-57.2158,0.118408,0,0,0,0,0,0,0,-1,650,1114,-57.2158,-0.118354
-567,-90,-57.2567,0.224121,0,0,0,0,0,0,0,-1,657,1114,-57.2567,-0.224093
-560,-90,-57.376,0.396484,0,0,0,0,0,0,0,-1,664,1114,-57.376,-0.396488
-553,-90,-57.2932,0.580933,0,0,0,0,0,0,0,-1,671,1114,-57.2931,-0.580993
-546,-90,-57.1188,0.184937,0,0,0,0,0,0,0,-1,678,1114,-57.1188,-0.184931
-539,-90,-57.1581,0.0698242,0,0,0,0,0,0,0,-1,685,1114,-57.1581,-0.0697756
-532,-90,-57.2181,0.216797,0,0,0,0,0,0,0,-1,692,1114,-57.2181,-0.216826
-525,-90,0,0,0,0,0,0,0,0,0,-1,699,1114,0,0
-518,-90,0,0,0,0,0,0,0,0,0,-1,706,1114,0,0
-511,-90,0,0,0,0,0,0,0,0,0,-1,713,1114,0,0
-504,-90,0,0,0,0,0,0,0,0,0,-1,720,1114,0,0
-497,-90,0,0,0,0,0,0,0,0,0,-1,727,1114,0,0
-490,-90,0,0,0,0,0,0,0,0,0,-1,734,1114,0,0
-483,-90,0,0,0,0,0,0,0,0,0,-1,741,1114,0,0
-476,-90,0,0,0,0,0,0,0,0,0,-1,748,1114,0,0
-469,-90,0,0,0,0,0,0,0,0,0,-1,755,1114,0,0
-462,-90,0,0,0,0,0,0,0,0,0,-1,762,1114,0,0
-455,-90,0,0,0,0,0,0,0,0,0,-1,769,1114,0,0
-448,-90,0,0,0,0,0,0,0,0,0,-1,776,1114,0,0
-441,-90,0,0,0,0,0,0,0,0,0,-1,783,1114,0,0
-434,-90,0,0,0,0,0,0,0,0,0,-1,790,1114,0,0
-427,-90,0,0,0,0,0,0,0,0,0,-1,797,1114,0,0
-420,-90,0,0,0,0,0,0,0,0,0,-1,804,1114,0,0
-413,-90,0,0,0,0,0,0,0,0,0,-1,811,1114,0,0
-406,-90,0,0,0,0,0,0,0,0,0,-1,818,1114,0,0
-399,-90,0,0,0,0,0,0,0,0,0,-1,825,1114,0,0
-392,-90,0,0,0,0,0,0,0,0,0,-1,832,1114,0,0
-385,-90,0,0,0,0,0,0,0,0,0,-1,839,1114,0,0
-378,-90,0,0,0,0,0,0,0,0,0,-1,846,1114,0,0
-371,-90,0,0,0,0,0,0,0,0,0,-1,853,1114,0,0
-364,-90,0,0,0,0,0,0,0,0,0,-1,860,1114,0,0
-357,-90,0,0,0,0,0,0,0,0,0,-1,867,1114,0,0
-350,-90,0,0,0,0,0,0,0,0,0,-1,874,1114,0,0
-343,-90,0,0,0,0,0,0,0,0,0,-1,881,1114,0,0
-336,-90,0,0,0,0,0,0,0,0,0,-1,888,1114,0,0
-329,-90,0,0,0,0,0,0,0,0,0,-1,895,1114,0,0
-322,-90,0,0,0,0,0,0,0,0,0,-1,902,1114,0,0
-315,-90,0,0,0,0,0,0,0,0,0,-1,909,1114,0,0
-308,-90,0,0,0,0,0,0,0,0,0,-1,916,1114,0,0
-301,-90,0,0,0,0,0,0,0,0,0,-1,923,1114,0,0
-294,-90,0,0,0,0,0,0,0,0,0,-1,930,1114,0,0
-287,-90,0,0,0,0,0,0,0,0,0,-1,937,1114,0,0
-280,-90,0,0,0,0,0,0,0,0,0,-1,944,1114,0,0
-273,-90,0,0,0,0,0,0,0,0,0,-1,951,1114,0,0
-266,-90,0,0,0,0,0,0,0,0,0,-1,958,1114,0,0
-259,-90,0,0,0,0,0,0,0,0,0,-1,965,1114,0,0
-252,-90,0,0,0,0,0,0,0,0,0,-1,972,1114,0,0
-245,-90,0,0,0,0,0,0,0,0,0,-1,979,1114,0,0
-238,-90,0,0,0,0,0,0,0,0,0,-1,986,1114,0,0
-231,-90,0,0,0,0,0,0,0,0,0,-1,993,1114,0,0
-224,-90,0,0,0,0,0,0,0,0,0,-1,1000,1114,0,0
-217,-90,0,0,0,0,0,0,0,0,0,-1,1007,1114,0,0
-210,-90,0,0,0,0,0,0,0,0,0,-1,1014,1114,0,0
-203,-90,0,0,0,0,0,0,0,0,0,-1,1021,1114,0,0
-196,-90,0,0,0,0,0,0,0,0,0,-1,1028,1114,0,0
-189,-90,0,0,0,0,0,0,0,0,0,-1,1035,1114,0,0
-182,-90,0,0,0,0,0,0,0,0,0,-1,1042,1114,0,0
-175,-90,0,0,0,0,0,0,0,0,0,-1,1049,1114,0,0
-168,-90,0,0,0,0,0,0,0,0,0,-1,1056,1114,0,0
-161,-90,0,0,0,0,0,0,0,0,0,-1,1063,1114,0,0
-154,-90,0,0,0,0,0,0,0,0,0,-1,1070,1114,0,0
-147,-90,0,0,0,0,0,0,0,0,0,-1,1077,1114,0,0
-140,-90,0,0,0,0,0,0,0,0,0,-1,1084,1114,0,0
-133,-90,0,0,0,0,0,0,0,0,0,-1,1091,1114,0,0
-126,-90,0,0,0,0,0,0,0,0,0,-1,1098,1114,0,0
-119,-90,0,0,0,0,0,0,0,0,0,-1,1105,1114,0,0
-112,-90,0,0,0,0,0,0,0,0,0,-1,1112,1114,0,0
-105,-90,0,0,0,0,0,0,0,0,0,-1,1119,1114,0,0
-98,-90,0,0,0,0,0,0,0,0,0,-1,1126,1114,0,0
-91,-90,0,0,0,0,0,0,0,0,0,-1,1133,1114,0,0
-84,-90,0,0,0,0,0,0,0,0,0,-1,1140,1114,0,0
-77,-90,0,0,0,0,0,0,0,0,0,-1,1147,1114,0,0
-70,-90,0,0,0,0,0,0,0,0,0,-1,1154,1114,0,0
-63,-90,0,0,0,0,0,0,0,0,0,-1,1161,1114,0,0
-56,-90,0,0,0,0,0,0,0,0,0,-1,1168,1114,0,0
-49,-90,0,0,0,0,0,0,0,0,0,-1,1175,1114,0,0
-42,-90,0,0,0,0,0,0,0,0,0,-1,1182,1114,0,0
-35,-90,0,0,0,0,0,0,0,0,0,-1,1189,1114,0,0
-28,-90,0,0,0,0,0,0,0,0,0,-1,1196,1114,0,0
-21,-90,0,0,0,0,0,0,0,0,0,-1,1203,1114,0,0
-14,-90,0,0,0,0,0,0,0,0,0,-1,1210,1114,0,0
-7,-90,0,0,0,0,0,0,0,0,0,-1,1217,1114,0,0
0,-90,0,0,0,0,0,0,0,0,0,-1,1224,1114,0,0
7,-90,0,0,0,0,0,0,0,0,0,-1,1231,1114,0,0
14,-90,0,0,0,0,0,0,0,0,0,-1,1238,1114,0,0
21,-90,0,0,0,0,0,0,0,0,0,-1,1245,1114,0,0
28,-90,0,0,0,0,0,0,0,0,0,-1,1252,1114,0,0
35,-90,0,0,0,0,0,0,0,0,0,-1,1259,1114,0,0
42,-90,0,0,0,0,0,0,0,0,0,-1,1266,1114,0,0
49,-90,0,0,0,0,0,0,0,0,0,-1,1273,1114,0,0
56,-90,0,0,0,0,0,0,0,0,0,-1,1280,1114,0,0
63,-90,0,0,0,0,0,0,0,0,0,-1,1287,1114,0,0
70,-90,0,0,0,0,0,0,0,0,0,-1,1294,1114,0,0
77,-90,0,0,0,0,0,0,0,0,0,-1,1301,1114,0,0
84,-90,0,0,0,0,0,0,0,0,0,-1,1308,1114,0,0
91,-90,0,0,0,0,0,0,0,0,0,-1,1315,1114,0,0
98,-90,0,0,0,0,0,0,0,0,0,-1,1322,1114,0,0
105,-90,0,0,0,0,0,0,0,0,0,-1,1329,1114,0,0
112,-90,0,0,0,0,0,0,0,0,0,-1,1336,1114,0,0
119,-90,0,0,0,0,0,0,0,0,0,-1,1343,1114,0,0
126,-90,0,0,0,0,0,0,0,0,0,-1,1350,1114,0,0
133,-90,0,0,0,0,0,0,0,0,0,-1,1357,1114,0,0
140,-90,0,0,0,0,0,0,0,0,0,-1,1364,1114,0,0
147,-90,0,0,0,0,0,0,0,0,0,-1,1371,1114,0,0
154,-90,0,0,0,0,0,0,0,0,0,-1,1378,1114,0,0
161,-90,0,0,0,0,0,0,0,0,0,-1,1385,1114,0,0
168,-90,0,0,0,0,0,0,0,0,0,-1,1392,1114,0,0
175,-90,0,0,0,0,0,0,0,0,0,-1,1399,1114,0,0
182,-90,0,0,0,0,0,0,0,0,0,-1,1406,1114,0,0
189,-90,0,0,0,0,0,0,0,0,0,-1,1413,1114,0,0
196,-90,0,0,0,0,0,0,0,0,0,-1,1420,1114,0,0
203,-90,0,0,0,0,0,0,0,0,0,-1,1427,1114,0,0
210,-90,0,0,0,0,0,0,0,0,0,-1,1434,1114,0,0
217,-90,0,0,0,0,0,0,0,0,0,-1,1441,1114,0,0
224,-90,0,0,0,0,0,0,0,0,0,-1,1448,1114,0,0
231,-90,0,0,0,0,0,0,0,0,0,-1,1455,1114,0,0
238,-90,0,0,0,0,0,0,0,0,0,-1,1462,1114,0,0
245,-90,0,0,0,0,0,0,0,0,0,-1,1469,1114,0,0
252,-90,0,0,0,0,0,0,0,0,0,-1,1476,1114,0,0
259,-90,0,0,0,0,0,0,0,0,0,-1,1483,1114,0,0
266,-90,0,0,0,0,0,0,0,0,0,-1,1490,1114,0,0
273,-90,0,0,0,0,0,0,0,0,0,-1,1497,1114,0,0
280,-90,0,0,0,0,0,0,0,0,0,-1,1504,1114,0,0
287,-90,0,0,0,0,0,0,0,0,0,-1,1511,1114,0,0
294,-90,0,0,0,0,0,0,0,0,0,-1,1518,1114,0,0
301,-90,0,0,0,0,0,0,0,0,0,-1,1525,1114,0,0
308,-90,0,0,0,0,0,0,0,0,0,-1,1532,1114,0,0
315,-90,0,0,0,0,0,0,0,0,0,-1,1539,1114,0,0
322,-90,0,0,0,0,0,0,0,0,0,-1,1546,1114,0,0
329,-90,0,0,0,0,0,0,0,0,0,-1,1553,1114,0,0
336,-90,0,0,0,0,0,0,0,0,0,-1,1560,1114,0,0
343,-90,0,0,0,0,0,0,0,0,0,-1,1567,1114,0,0
350,-90,0,0,0,0,0,0,0,0,0,-1,1574,1114,0,0
357,-90,0,0,0,0,0,0,0,0,0,-1,1581,1114,0,0
364,-90,0,0,0,0,0,0,0,0,0,-1,1588,1114,0,0
371,-90,0,0,0,0,0,0,0,0,0,-1,1595,1114,0,0
378,-90,0,0,0,0,0,0,0,0,0,-1,1602,1114,0,0
385,-90,0,0,0,0,0,0,0,0,0,-1,1609,1114,0,0
392,-90,0,0,0,0,0,0,0,0,0,-1,1616,1114,0,0
399,-90,0,0,0,0,0,0,0,0,0,-1,1623,1114,0,0
406,-90,0,0,0,0,0,0,0,0,0,-1,1630,1114,0,0
413,-90,0,0,0,0,0,0,0,0,0,-1,1637,1114,0,0
420,-90,0,0,0,0,0,0,0,0,0,-1,1644,1114,0,0
427,-90,0,0,0,0,0,0,0,0,0,-1,1651,1114,0,0
434,-90,0,0,0,0,0,0,0,0,0,-1,1658,1114,0,0
441,-90,0,0,0,0,0,0,0,0,0,-1,1665,1114,0,0
448,-90,0,0,0,0,0,0,0,0,0,-1,1672,1114,0,0
455,-90,0,0,0,0,0,0,0,0,0,-1,1679,1114,0,0
462,-90,0,0,0,0,0,0,0,0,0,-1,1686,1114,0,0
469,-90,0,0,0,0,0,0,0,0,0,-1,1693,1114,0,0
476,-90,0,0,0,0,0,0,0,0,0,-1,1700,1114,0,0
483,-90,0,0,0,0,0,0,0,0,0,-1,1707,1114,0,0
490,-90,0,0,0,0,0,0,0,0,0,-1,1714,1114,0,0
497,-90,0,0,0,0,0,0,0,0,0,-1,1721,1114,0,0
504,-90,0,0,0,0,0,0,0,0,0,-1,1728,1114,0,0
511,-90,0,0,0,0,0,0,0,0,0,-1,1735,1114,0,0
518,-90,0,0,0,0,0,0,0,0,0,-1,1742,1114,0,0
525,-90,0,0,0,0,0,0,0,0,0,-1,1749,1114,0,0
532,-90,0,0,0,0,0,0,0,0,0,-1,1756,1114,0,0
539,-90,0,0,0,0,0,0,0,0,0,-1,1763,1114,0,0
546,-90,0,0,0,0,0,0,0,0,0,-1,1770,1114,0,0
553,-90,0,0,0,0,0,0,0,0,0,-1,1777,1114,0,0
560,-90,0,0,0,0,0,0,0,0,0,-1,1784,1114,0,0
567,-90,0,0,0,0,0,0,0,0,0,-1,1791,1114,0,0
574,-90,0,0,0,0,0,0,0,0,0,-1,1798,1114,0,0
581,-90,0,0,0,0,0,0,0,0,0,-1,1805,1114,0,0
588,-90,0,0,0,0,0,0,0,0,0,-1,1812,1114,0,0
595,-90,0,0,0,0,0,0,0,0,0,-1,1819,1114,0,0
602,-90,0,0,0,0,0,0,0,0,0,-1,1826,1114,0,0
609,-90,0,0,0,0,0,0,0,0,0,-1,1833,1114,0,0
616,-90,0,0,0,0,0,0,0,0,0,-1,1840,1114,0,0
623,-90,0,0,0,0,0,0,0,0,0,-1,1847,1114,0,0
630,-90,0,0,0,0,0,0,0,0,0,-1,1854,1114,0,0
637,-90,0,0,0,0,0,0,0,0,0,-1,1861,1114,0,0
644,-90,74.3464,2.21643,0.00788329,-0.00163058,-0.00163863,0.00815761,-0.0019049,-0.165871,0.00617215,0.0337414,1868,1114,74.3464,-2.21642
651,-90,74.382,2.06287,0.00537114,-0.00143955,-0.000413693,0.00539617,-0.00146459,-0.0604455,0.00417223,0.0391353,1875,1114,74.382,-2.06287
658,-90,74.4268,1.95569,0.00367343,-0.00129704,0.000172756,0.00367942,-0.00130304,0.0347006,0.0029837,0.0429836,1882,1114,74.4267,-1.95571
665,-90,74.3458,2.28101,0.00234423,-0.00112014,0.000326246,0.00237468,-0.0011506,0.0930814,0.00207582,0.0439123,1889,1114,74.3458,-2.28101
672,-90,74.3966,2.30054,0.00128314,-0.000898217,0.000189636,0.00129951,-0.00091458,0.0860745,0.00128473,0.0445077,1896,1114,74.3966,-2.30058
679,-90,74.4209,2.32397,0.000535566,-0.000806447,-0.000109373,0.000544421,-0.000815302,-0.0807887,0.000790212,0.0395492,1903,1114,74.4209,-2.324
686,-90,74.467,2.1936,0.000147371,-0.000806402,-0.000494326,0.000357346,-0.00101638,-0.401676,0.00082298,0.0344049,1910,1114,74.467,-2.19363
693,-90,74.4336,2.19556,-3.70567e-05,-0.000947744,-0.000562655,0.000231422,-0.00121622,-0.445212,0.000897952,0.0344789,1917,1114,74.4336,-2.19555
700,-90,74.3677,2.24561,-9.21114e-05,-0.000924962,-0.000440438,9.7595e-05,-0.00111467,-0.406707,0.000777688,0.0313375,1924,1114,74.3677,-2.24564
707,-90,74.3685,2.06458,-0.000290881,-0.000855249,-0.000136661,-0.00025953,-0.0008866,-0.225504,0.000526336,0.0237182,1931,1114,74.3685,-2.06452
714,-90,74.3577,1.83142,0,0,0,0,0,0,0,-1,1938,1114,74.3577,-1.83147
721,-90,63.521,8.76965,0,0,0,0,0,0,0,-1,1945,1114,63.521,-8.7697
728,-90,69.5814,8.8252,0,0,0,0,0,0,0,-1,1952,1114,69.5815,-8.82525
735,-90,69.4364,8.3374,-0.00205199,0.00114138,0.000746024,0.00130706,-0.00221768,1.35225,0.00205752,0.0403803,1959,1114,69.4364,-8.33745
742,-90,69.5684,7.73279,-0.00182275,0.00227254,0.00101366,0.00250971,-0.00205992,1.34096,0.00264253,0.0378059,1966,1114,69.5684,-7.73278
749,-90,69.9113,7.04272,-0.00155105,0.00392268,0.00108481,0.00412983,-0.0017582,1.38211,0.00349017,0.0243649,1973,1114,69.9113,-7.04276
756,-90,69.843,6.55981,-0.000855476,0.0057746,0.000853038,0.0058826,-0.000963471,1.44487,0.0042792,0.0201551,1980,1114,69.8431,-6.55982
763,-90,69.7512,6.0625,0.00144058,0.00941685,-0.000341144,0.00943141,0.00142602,-1.52813,0.00587029,0.0137747,1987,1114,69.7512,-6.06254
770,-90,69.665,5.52429,0.00559291,0.0141891,-0.00261503,0.0149221,0.0048599,-1.2975,0.00878809,0.0169357,1994,1114,69.6651,-5.52432
777,-90,69.5332,5.00684,0.0115142,0.0197231,-0.0057004,0.0226429,0.00859434,-1.09742,0.0131987,0.0168983,2001,1114,69.5332,-5.00681
784,-90,69.374,4.55542,0.0192535,0.0258508,-0.00948709,0.0325964,0.012508,-0.952711,0.0189884,0.0299521,2008,1114,69.374,-4.55543
791,-90,69.364,4.20483,0.0294366,0.0328903,-0.0143106,0.0455779,0.0167491,-0.845443,0.0266207,0.0439106,2015,1114,69.364,-4.20485
798,-90,69.5139,3.45581,0.0428911,0.0411492,-0.0204074,0.0624461,0.0215942,-0.764072,0.0366203,0.0474321,2022,1114,69.5139,-3.45581
805,-90,69.6409,2.3418,0.0603561,0.051024,-0.0280137,0.0840897,0.0272904,-0.702874,0.0495356,0.0466981,2029,1114,69.6408,-2.34181
812,-90,69.5933,1.51013,0,0,0,0,0,0,0,-1,2036,1114,69.5931,-1.51012
-700,-97,0,0,0,0,0,0,0,0,0,-1,524,1121,0,0
-693,-97,-51.1975,-1.37524,0,0,0,0,0,0,0,-1,531,1121,-51.1975,1.3752
-686,-97,-51.5932,-1.08984,0,0,0,0,0,0,0,-1,538,1121,-51.5932,1.08984
-679,-97,-51.315,-0.0308838,0,0,0,0,0,0,0,-1,545,1121,-51.315,0.0309288
-672,-97,-51.6873,0.662231,-0.00417069,-0.0136638,0.0206017,0.0122242,-0.0300587,0.672176,0.0251255,0.0455487,552,1121,-51.6873,-0.662228
-665,-97,-52.0668,1.31885,0,0,0,0,0,0,0,-1,559,1121,-52.0668,-1.31885
-658,-97,-52.476,2.0542,0,0,0,0,0,0,0,-1,566,1121,-52.476,-2.05416
-651,-97,-52.7924,2.80225,-0.00541316,0.00572859,0.0116845,0.0131023,-0.0127869,1.00785,0.0149475,0.0391317,573,1121,-52.7924,-2.80221
-644,-97,-52.8684,3.47424,-0.00571832,0.00671993,0.0080399,0.0106653,-0.00966371,1.11459,0.0117417,0.0167139,580,1121,-52.8684,-3.47419
-637,-97,-52.9018,4.10938,-0.00560524,0.00585931,0.00488071,0.00765567,-0.00740159,1.21813,0.00869372,0.0158372,587,1121,-52.9018,-4.10935
-630,-97,-52.9439,4.68726,-0.00521749,0.00417969,0.00187648,0.00454054,-0.00557834,1.38081,0.00585237,0.0110221,594,1121,-52.9439,-4.68722
-623,-97,-52.9935,5.20569,-0.00449952,0.0021019,-0.000720359,0.0021796,-0.00457721,-1.46336,0.00398207,0.0150761,601,1121,-52.9934,-5.2057
-616,-97,-53.0988,5.88306,-0.00365756,-0.000920979,-0.00264924,0.000692461,-0.005271,-1.02377,0.0037661,0.0223835,608,1121,-53.0988,-5.88309
-609,-97,-53.1638,6.53674,-0.00248417,-0.00377756,-0.00370106,0.000626271,-0.006888,-0.698905,0.00481436,0.0316085,615,1121,-53.1638,-6.53679
-602,-97,-53.2529,7.03455,-0.000690026,-0.00628496,-0.00376701,0.00120465,-0.00817963,-0.466017,0.0058958,0.0321599,622,1121,-53.2529,-7.03457
-595,-97,-53.2437,7.68311,0.00309024,-0.00963466,-0.00220314,0.00346089,-0.0100053,-0.166675,0.00807496,0.0280967,629,1121,-53.2436,-7.68312
-588,-97,-53.5911,8.26392,0,0,0,0,0,0,0,-1,636,1121,-53.5911,-8.26396
-581,-97,-51.2355,3.23926,0,0,0,0,0,0,0,-1,643,1121,-51.2355,-3.23926
-574,-97,-57.2278,0.218384,0,0,0,0,0,0,0,-1,650,1121,-57.2278,-0.218345
-567,-97,-57.3038,0.178589,0,0,0,0,0,0,0,-1,657,1121,-57.3037,-0.178539
-560,-97,-57.4615,0.364136,0,0,0,0,0,0,0,-1,664,1121,-57.4615,-0.364164
-553,-97,-57.2131,0.46167,0,0,0,0,0,0,0,-1,671,1121,-57.2132,-0.461637
-546,-97,-57.1959,0.206665,0,0,0,0,0,0,0,-1,678,1121,-57.1959,-0.206684
-539,-97,-57.272,-0.027832,0,0,0,0,0,0,0,-1,685,1121,-57.272,0.0278409
-532,-97,-57.2444,0.190063,0,0,0,0,0,0,0,-1,692,1121,-57.2444,-0.190096
-525,-97,0,0,0,0,0,0,0,0,0,-1,699,1121,0,0
-518,-97,0,0,0,0,0,0,0,0,0,-1,706,1121,0,0
-511,-97,0,0,0,0,0,0,0,0,0,-1,713,1121,0,0
-504,-97,0,0,0,0,0,0,0,0,0,-1,720,1121,0,0
-497,-97,0,0,0,0,0,0,0,0,0,-1,727,1121,0,0
-490,-97,0,0,0,0,0,0,0,0,0,-1,734,1121,0,0
-483,-97,0,0,0,0,0,0,0,0,0,-1,741,1121,0,0
-476,-97,0,0,0,0,0,0,0,0,0,-1,748,1121,0,0
-469,-97,0,0,0,0,0,0,0,0,0,-1,755,1121,0,0
-462,-97,0,0,0,0,0,0,0,0,0,-1,762,1121,0,0
-455,-97,0,0,0,0,0,0,0,0,0,-1,769,1121,0,0
-448,-97,0,0,0,0,0,0,0,0,0,-1,776,1121,0,0
-441,-97,0,0,0,0,0,0,0,0,0,-1,783,1121,0,0
-434,-97,0,0,0,0,0,0,0,0,0,-1,790,1121,0,0
-427,-97,0,0,0,0,0,0,0,0,0,-1,797,1121,0,0
-420,-97,0,0,0,0,0,0,0,0,0,-1,804,1121,0,0
-413,-97,0,0,0,0,0,0,0,0,0,-1,811,1121,0,0
-406,-97,0,0,0,0,0,0,0,0,0,-1,818,1121,0,0
-399,-97,0,0,0,0,0,0,0,0,0,-1,825,1121,0,0
-392,-97,0,0,0,0,0,0,0,0,0,-1,832,1121,0,0
-385,-97,0,0,0,0,0,0,0,0,0,-1,839,1121,0,0
-378,-97,0,0,0,0,0,0,0,0,0,-1,846,1121,0,0
-371,-97,0,0,0,0,0,0,0,0,0,-1,853,1121,0,0
-364,-97,0,0,0,0,0,0,0,0,0,-1,860,1121,0,0
-357,-97,0,0,0,0,0,0,0,0,0,-1,867,1121,0,0
-350,-97,0,0,0,0,0,0,0,0,0,-1,874,1121,0,0
-343,-97,0,0,0,0,0,0,0,0,0,-1,881,1121,0,0
-336,-97,0,0,0,0,0,0,0,0,0,-1,888,1121,0,0
-329,-97,0,0,0,0,0,0,0,0,0,-1,895,1121,0,0
-322,-97,0,0,0,0,0,0,0,0,0,-1,902,1121,0,0
-315,-97,0,0,0,0,0,0,0,0,0,-1,909,1121,0,0
-308,-97,0,0,0,0,0,0,0,0,0,-1,916,1121,0,0
-301,-97,0,0,0,0,0,0,0,0,0,-1,923,1121,0,0
-294,-97,0,0,0,0,0,0,0,0,0,-1,930,1121,0,0
-287,-97,0,0,0,0,0,0,0,0,0,-1,937,1121,0,0
-280,-97,0,0,0,0,0,0,0,0,0,-1,944,1121,0,0
-273,-97,0,0,0,0,0,0,0,0,0,-1,951,1121,0,0
-266,-97,0,0,0,0,0,0,0,0,0,-1,958,1121,0,0
-259,-97,0,0,0,0,0,0,0,0,0,-1,965,1121,0,0
-252,-97,0,0,0,0,0,0,0,0,0,-1,972,1121,0,0
-245,-97,0,0,0,0,0,0,0,0,0,-1,979,1121,0,0
-238,-97,0,0,0,0,0,0,0,0,0,-1,986,1121,0,0
-231,-97,0,0,0,0,0,0,0,0,0,-1,993,1121,0,0
-224,-97,0,0,0,0,0,0,0,0,0,-1,1000,1121,0,0
-217,-97,0,0,0,0,0,0,0,0,0,-1,1007,1121,0,0
-210,-97,0,0,0,0,0,0,0,0,0,-1,1014,1121,0,0
-203,-97,0,0,0,0,0,0,0,0,0,-1,1021,1121,0,0
-196,-97,0,0,0,0,0,0,0,0,0,-1,1028,1121,0,0
-189,-97,0,0,0,0,0,0,0,0,0,-1,1035,1121,0,0
-182,-97,0,0,0,0,0,0,0,0,0,-1,1042,1121,0,0
-175,-97,0,0,0,0,0,0,0,0,0,-1,1049,1121,0,0
-168,-97,0,0,0,0,0,0,0,0,0,-1,1056,1121,0,0
-161,-97,0,0,0,0,0,0,0,0,0,-1,1063,1121,0,0
-154,-97,0,0,0,0,0,0,0,0,0,-1,1070,1121,0,0
-147,-97,0,0,0,0,0,0,0,0,0,-1,1077,1121,0,0
-140,-97,0,0,0,0,0,0,0,0,0,-1,1084,1121,0,0
-133,-97,0,0,0,0,0,0,0,0,0,-1,1091,1121,0,0
-126,-97,0,0,0,0,0,0,0,0,0,-1,1098,1121,0,0
-119,-97,0,0,0,0,0,0,0,0,0,-1,1105,1121,0,0
-112,-97,0,0,0,0,0,0,0,0,0,-1,1112,1121,0,0
-105,-97,0,0,0,0,0,0,0,0,0,-1,1119,1121,0,0
-98,-97,0,0,0,0,0,0,0,0,0,-1,1126,1121,0,0
-91,-97,0,0,0,0,0,0,0,0,0,-1,1133,1121,0,0
-84,-97,0,0,0,0,0,0,0,0,0,-1,1140,1121,0,0
-77,-97,0,0,0,0,0,0,0,0,0,-1,1147,1121,0,0
-70,-97,0,0,0,0,0,0,0,0,0,-1,1154,1121,0,0
-63,-97,0,0,0,0,0,0,0,0,0,-1,1161,1121,0,0
-56,-97,0,0,0,0,0,0,0,0,0,-1,1168,1121,0,0
-49,-97,0,0,0,0,0,0,0,0,0,-1,1175,1121,0,0
-42,-97,0,0,0,0,0,0,0,0,0,-1,1182,1121,0,0
-35,-97,0,0,0,0,0,0,0,0,0,-1,1189,1121,0,0
-28,-97,0,0,0,0,0,0,0,0,0,-1,1196,1121,0,0
-21,-97,0,0,0,0,0,0,0,0,0,-1,1203,1121,0,0
-14,-97,0,0,0,0,0,0,0,0,0,-1,1210,1121,0,0
-7,-97,0,0,0,0,0,0,0,0,0,-1,1217,1121,0,0
0,-97,0,0,0,0,0,0,0,0,0,-1,1224,1121,0,0
7,-97,0,0,0,0,0,0,0,0,0,-1,1231,1121,0,0
14,-97,0,0,0,0,0,0,0,0,0,-1,1238,1121,0,0
21,-97,0,0,0,0,0,0,0,0,0,-1,1245,1121,0,0
28,-97,0,0,0,0,0,0,0,0,0,-1,1252,1121,0,0
35,-97,0,0,0,0,0,0,0,0,0,-1,1259,1121,0,0
42,-97,0,0,0,0,0,0,0,0,0,-1,1266,1121,0,0
49,-97,0,0,0,0,0,0,0,0,0,-1,1273,1121,0,0
56,-97,0,0,0,0,0,0,0,0,0,-1,1280,1121,0,0
63,-97,0,0,0,0,0,0,0,0,0,-1,1287,1121,0,0
70,-97,0,0,0,0,0,0,0,0,0,-1,1294,1121,0,0
77,-97,0,0,0,0,0,0,0,0,0,-1,1301,1121,0,0
84,-97,0,0,0,0,0,0,0,0,0,-1,1308,1121,0,0
91,-97,0,0,0,0,0,0,0,0,0,-1,1315,1121,0,0
98,-97,0,0,0,0,0,0,0,0,0,-1,1322,1121,0,0
105,-97,0,0,0,0,0,0,0,0,0,-1,1329,1121,0,0
112,-97,0,0,0,0,0,0,0,0,0,-1,1336,1121,0,0
119,-97,0,0,0,0,0,0,0,0,0,-1,1343,1121,0,0
126,-97,0,0,0,0,0,0,0,0,0,-1,1350,1121,0,0
133,-97,0,0,0,0,0,0,0,0,0,-1,1357,1121,0,0
140,-97,0,0,0,0,0,0,0,0,0,-1,1364,1121,0,0
147,-97,0,0,0,0,0,0,0,0,0,-1,1371,1121,0,0
154,-97,0,0,0,0,0,0,0,0,0,-1,1378,1121,0,0
161,-97,0,0,0,0,0,0,0,0,0,-1,1385,1121,0,0
168,-97,0,0,0,0,0,0,0,0,0,-1,1392,1121,0,0
175,-97,0,0,0,0,0,0,0,0,0,-1,1399,1121,0,0
182,-97,0,0,0,0,0,0,0,0,0,-1,1406,1121,0,0
189,-97,0,0,0,0,0,0,0,0,0,-1,1413,1121,0,0
196,-97,0,0,0,0,0,0,0,0,0,-1,1420,1121,0,0
203,-97,0,0,0,0,0,0,0,0,0,-1,1427,1121,0,0
210,-97,0,0,0,0,0,0,0,0,0,-1,1434,1121,0,0
217,-97,0,0,0,0,0,0,0,0,0,-1,1441,1121,0,0
224,-97,0,0,0,0,0,0,0,0,0,-1,1448,1121,0,0
231,-97,0,0,0,0,0,0,0,0,0,-1,1455,1121,0,0
238,-97,0,0,0,0,0,0,0,0,0,-1,1462,1121,0,0
245,-97,0,0,0,0,0,0,0,0,0,-1,1469,1121,0,0
252,-97,0,0,0,0,0,0,0,0,0,-1,1476,1121,0,0
259,-97,0,0,0,0,0,0,0,0,0,-1,1483,1121,0,0
266,-97,0,0,0,0,0,0,0,0,0,-1,1490,1121,0,0
273,-97,0,0,0,0,0,0,0,0,0,-1,1497,1121,0,0
280,-97,0,0,0,0,0,0,0,0,0,-1,1504,1121,0,0
287,-97,0,0,0,0,0,0,0,0,0,-1,1511,1121,0,0
294,-97,0,0,0,0,0,0,0,0,0,-1,1518,1121,0,0
301,-97,0,0,0,0,0,0,0,0,0,-1,1525,1121,0,0
308,-97,0,0,0,0,0,0,0,0,0,-1,1532,1121,0,0
315,-97,0,0,0,0,0,0,0,0,0,-1,1539,1121,0,0
322,-97,0,0,0,0,0,0,0,0,0,-1,1546,1121,0,0
329,-97,0,0,0,0,0,0,0,0,0,-1,1553,1121,0,0
336,-97,0,0,0,0,0,0,0,0,0,-1,1560,1121,0,0
343,-97,0,0,0,0,0,0,0,0,0,-1,1567,1121,0,0
350,-97,0,0,0,0,0,0,0,0,0,-1,1574,1121,0,0
357,-97,0,0,0,0,0,0,0,0,0,-1,1581,1121,0,0
364,-97,0,0,0,0,0,0,0,0,0,-1,1588,1121,0,0
371,-97,0,0,0,0,0,0,0,0,0,-1,1595,1121,0,0
378,-97,0,0,0,0,0,0,0,0,0,-1,1602,1121,0,0
385,-97,0,0,0,0,0,0,0,0,0,-1,1609,1121,0,0
392,-97,0,0,0,0,0,0,0,0,0,-1,1616,1121,0,0
399,-97,0,0,0,0,0,0,0,0,0,-1,1623,1121,0,0
406,-97,0,0,0,0,0,0,0,0,0,-1,1630,1121,0,0
413,-97,0,0,0,0,0,0,0,0,0,-1,1637,1121,0,0
420,-97,0,0,0,0,0,0,0,0,0,-1,1644,1121,0,0
427,-97,0,0,0,0,0,0,0,0,0,-1,1651,1121,0,0
434,-97,0,0,0,0,0,0,0,0,0,-1,1658,1121,0,0
441,-97,0,0,0,0,0,0,0,0,0,-1,1665,1121,0,0
448,-97,0,0,0,0,0,0,0,0,0,-1,1672,1121,0,0
455,-97,0,0,0,0,0,0,0,0,0,-1,1679,1121,0,0
462,-97,0,0,0,0,0,0,0,0,0,-1,1686,1121,0,0
469,-97,0,0,0,0,0,0,0,0,0,-1,1693,1121,0,0
476,-97,0,0,0,0,0,0,0,0,0,-1,1700,1121,0,0
483,-97,0,0,0,0,0,0,0,0,0,-1,1707,1121,0,0
490,-97,0,0,0,0,0,0,0,0,0,-1,1714,1121,0,0
497,-97,0,0,0,0,0,0,0,0,0,-1,1721,1121,0,0
504,-97,0,0,0,0,0,0,0,0,0,-1,1728,1121,0,0
511,-97,0,0,0,0,0,0,0,0,0,-1,1735,1121,0,0
518,-97,0,0,0,0,0,0,0,0,0,-1,1742,1121,0,0
525,-97,0,0,0,0,0,0,0,0,0,-1,1749,1121,0,0
532,-97,0,0,0,0,0,0,0,0,0,-1,1756,1121,0,0
539,-97,0,0,0,0,0,0,0,0,0,-1,1763,1121,0,0
546,-97,0,0,0,0,0,0,0,0,0,-1,1770,1121,0,0
553,-97,0,0,0,0,0,0,0,0,0,-1,1777,1121,0,0
560,-97,0,0,0,0,0,0,0,0,0,-1,1784,1121,0,0
567,-97,0,0,0,0,0,0,0,0,0,-1,1791,1121,0,0
574,-97,0,0,0,0,0,0,0,0,0,-1,1798,1121,0,0
581,-97,0,0,0,0,0,0,0,0,0,-1,1805,1121,0,0
588,-97,0,0,0,0,0,0,0,0,0,-1,1812,1121,0,0
595,-97,0,0,0,0,0,0,0,0,0,-1,1819,1121,0,0
602,-97,0,0,0,0,0,0,0,0,0,-1,1826,1121,0,0
609,-97,0,0,0,0,0,0,0,0,0,-1,1833,1121,0,0
616,-97,0,0,0,0,0,0,0,0,0,-1,1840,1121,0,0
623,-97,0,0,0,0,0,0,0,0,0,-1,1847,1121,0,0
630,-97,0,0,0,0,0,0,0,0,0,-1,1854,1121,0,0
637,-97,0,0,0,0,0,0,0,0,0,-1,1861,1121,0,0
644,-97,74.3756,2.40967,0.00816489,-0.00227427,-0.00156588,0.00839471,-0.0025041,-0.145729,0.00659167,0.0365495,1868,1121,74.3756,-2.40963
651,-97,74.4091,2.24084,0.00556624,-0.00193841,-0.000308257,0.00557888,-0.00195106,-0.0409834,0.00451246,0.0373977,1875,1121,74.4091,-2.24088
658,-97,74.4725,1.95911,0.00382395,-0.00165403,0.000289316,0.00383919,-0.00166927,0.0526193,0.00326152,0.0401618,1882,1121,74.4725,-1.95915
665,-97,74.521,1.99463,0.00243814,-0.0013434,0.000450115,0.00249098,-0.00139624,0.116854,0.00227376,0.0444353,1889,1121,74.521,-1.99464
672,-97,74.5126,2.34692,0.0013331,-0.0010008,0.000303916,0.00137203,-0.00103972,0.127388,0.00139682,0.0438759,1896,1121,74.5126,-2.34691
679,-97,74.4517,2.46216,0.000607423,-0.000860331,9.64701e-06,0.000607486,-0.000860394,0.00657226,0.000851664,0.0407958,1903,1121,74.4517,-2.46212
686,-97,74.376,2.24927,0.000311978,-0.000839538,-0.000373283,0.000422397,-0.000949956,-0.287601,0.000811609,0.035762,1910,1121,74.3759,-2.24933
693,-97,74.3782,2.16357,0.00016999,-0.000964522,-0.000442829,0.000322371,-0.0011169,-0.331415,0.00087215,0.0337622,1917,1121,74.3782,-2.1636
700,-97,74.3713,2.14868,0.000134984,-0.000973407,-0.000336287,0.000229034,-0.00106746,-0.272703,0.000799,0.0280907,1924,1121,74.3713,-2.14868
707,-97,74.3586,2.08728,-4.23477e-05,-0.000935576,-5.1939e-05,-3.93378e-05,-0.000938586,-0.0578875,0.000613032,0.02687,1931,1121,74.3587,-2.08724
714,-97,74.3347,1.92285,0,0,0,0,0,0,0,-1,1938,1121,74.3347,-1.92284
721,-97,69.3352,9.15662,0,0,0,0,0,0,0,-1,1945,1121,69.3352,-9.15662
728,-97,69.2863,8.7937,-0.00131186,0.000368637,0.000383438,0.000451992,-0.00139522,1.35674,0.00111187,0.040534,1952,1121,69.2863,-8.79376
735,-97,69.1969,8.19629,-0.00147803,0.000797825,0.000663132,0.000976949,-0.00165715,1.30698,0.00153761,0.0310623,1959,1121,69.1969,-8.19633
742,-97,69.1394,7.69421,-0.00129065,0.00178535,0.00095735,0.00205897,-0.00156427,1.29241,0.00209837,0.0275196,1966,1121,69.1393,-7.69421
749,-97,69.2241,7.12671,-0.00114421,0.0033414,0.00103889,0.00357033,-0.00137314,1.3539,0.00294658,0.0265011,1973,1121,69.2242,-7.1267
756,-97,69.2075,6.56653,-0.000588193,0.00522622,0.000803316,0.00533516,-0.000697137,1.436,0.00381047,0.0179356,1980,1121,69.2075,-6.56653
763,-97,69.1016,6.06006,0.00161884,0.00887195,-0.000440074,0.00889856,0.00159224,-1.51042,0.00547929,0.0136402,1987,1121,69.1015,-6.06012
770,-97,69.0259,5.54175,0.00550697,0.0135791,-0.00271609,0.0144079,0.00467817,-1.27462,0.0084871,0.0132022,1994,1121,69.0259,-5.54173
777,-97,68.9451,4.99036,0.0109694,0.0189647,-0.00574472,0.0219658,0.00796827,-1.08938,0.0128402,0.0178161,2001,1121,68.945,-4.99038
784,-97,68.8733,4.42285,0.0181099,0.0249589,-0.00948079,0.0316147,0.0114541,-0.958709,0.0184821,0.0366942,2008,1121,68.8732,-4.42286
791,-97,68.8721,4.11914,0.027517,0.0318689,-0.0142573,0.0441154,0.0152706,-0.861123,0.0258688,0.0452649,2015,1121,68.872,-4.11915
798,-97,68.9116,3.37646,0.0399265,0.0399947,-0.0203397,0.0603003,0.0196209,-0.786236,0.035515,0.0476233,2022,1121,68.9115,-3.37651
805,-97,68.7605,2.63342,0.0560464,0.0496414,-0.0279894,0.0810159,0.0246719,-0.728437,0.0479512,0.0471457,2029,1121,68.7606,-2.63344
812,-97,68.793,1.66797,0,0,0,0,0,0,0,-1,2036,1121,68.7929,-1.66797
-700,-104,0,0,0,0,0,0,0,0,0,-1,524,1128,0,0
-693,-104,-51.1479,-2.05701,0,0,0,0,0,0,0,-1,531,1128,-51.1479,2.05702
-686,-104,-51.1889,-0.213013,0,0,0,0,0,0,0,-1,538,1128,-51.1889,0.212981
-679,-104,-51.3776,0.6073,-0.00213182,-0.0510924,0.0258453,0.00898654,-0.0622107,0.406257,0.044771,0.0465747,545,1128,-51.3776,-0.607255
-672,-104,-51.4391,1.50024,-0.00181351,-0.0326218,0.0228546,0.0103435,-0.0447788,0.488864,0.0338316,0.0473417,552,1128,-51.439,-1.50025
-665,-104,-51.8188,2.17859,0,0,0,0,0,0,0,-1,559,1128,-51.8189,-2.17854
-658,-104,-52.2167,2.21448,0,0,0,0,0,0,0,-1,566,1128,-52.2166,-2.21452
-651,-104,-52.1996,2.81299,-0.00339096,-0.00348274,0.0107222,0.00728548,-0.0141592,0.783258,0.0125913,0.0489615,573,1128,-52.1996,-2.81294
-644,-104,-52.208,3.46863,-0.00426634,0.000297025,0.00689488,0.00527795,-0.00924726,0.945188,0.00848987,0.0185979,580,1128,-52.208,-3.46857
-637,-104,-52.2533,4.0813,-0.00466792,0.00175521,0.00373807,0.00347186,-0.00638457,1.14029,0.00577284,0.0141147,587,1128,-52.2533,-4.08128
-630,-104,-52.274,4.59961,-0.00489006,0.00204537,0.000975568,0.00217998,-0.00502468,1.43368,0.00426632,0.0199477,594,1128,-52.274,-4.59959
-623,-104,-52.4006,5.22375,-0.00485192,0.00146054,-0.00129558,0.0017161,-0.00510748,-1.37604,0.00409858,0.0217324,601,1128,-52.4006,-5.22381
-616,-104,-52.769,5.9646,-0.00474225,-0.000640947,-0.00287798,0.000842229,-0.00622542,-1.09494,0.00445763,0.031589,608,1128,-52.769,-5.96456
-609,-104,-52.8884,6.48877,-0.00421131,-0.00285084,-0.00375829,0.00028828,-0.00735044,-0.874927,0.00499916,0.0422816,615,1128,-52.8884,-6.4888
-602,-104,-52.9884,7.11084,0,0,0,0,0,0,0,-1,622,1128,-52.9884,-7.11084
-595,-104,-52.5222,7.80127,0,0,0,0,0,0,0,-1,629,1128,-52.5222,-7.80122
-588,-104,-52.7324,8.55396,0,0,0,0,0,0,0,-1,636,1128,-52.7324,-8.55393
-581,-104,-23.9373,2.85864,0,0,0,0,0,0,0,-1,643,1128,-23.9373,-2.85861
-574,-104,-57.1373,0.00415039,0,0,0,0,0,0,0,-1,650,1128,-57.1373,-0.00417498
-567,-104,-57.3253,0.170898,0,0,0,0,0,0,0,-1,657,1128,-57.3252,-0.170917
-560,-104,-57.3538,0.43396,0,0,0,0,0,0,0,-1,664,1128,-57.3537,-0.433999
-553,-104,-57.4037,0.6073,0,0,0,0,0,0,0,-1,671,1128,-57.4037,-0.60731
-546,-104,-57.4988,0.520264,0,0,0,0,0,0,0,-1,678,1128,-57.4988,-0.520319
-539,-104,-57.5118,0.353882,0,0,0,0,0,0,0,-1,685,1128,-57.5118,-0.35389
-532,-104,-57.3209,0.207397,0,0,0,0,0,0,0,-1,692,1128,-57.3209,-0.207439
-525,-104,-57.2886,0.318115,0,0,0,0,0,0,0,-1,699,1128,-57.2885,-0.318059
-518,-104,0,0,0,0,0,0,0,0,0,-1,706,1128,0,0
-511,-104,0,0,0,0,0,0,0,0,0,-1,713,1128,0,0
-504,-104,0,0,0,0,0,0,0,0,0,-1,720,1128,0,0
-497,-104,0,0,0,0,0,0,0,0,0,-1,727,1128,0,0
-490,-104,0,0,0,0,0,0,0,0,0,-1,734,1128,0,0
-483,-104,0,0,0,0,0,0,0,0,0,-1,741,1128,0,0
-476,-104,0,0,0,0,0,0,0,0,0,-1,748,1128,0,0
-469,-104,0,0,0,0,0,0,0,0,0,-1,755,1128,0,0
-462,-104,0,0,0,0,0,0,0,0,0,-1,762,1128,0,0
-455,-104,0,0,0,0,0,0,0,0,0,-1,769,1128,0,0
-448,-104,0,0,0,0,0,0,0,0,0,-1,776,1128,0,0
-441,-104,0,0,0,0,0,0,0,0,0,-1,783,1128,0,0
-434,-104,0,0,0,0,0,0,0,0,0,-1,790,1128,0,0
-427,-104,0,0,0,0,0,0,0,0,0,-1,797,1128,0,0
-420,-104,0,0,0,0,0,0,0,0,0,-1,804,1128,0,0
-413,-104,0,0,0,0,0,0,0,0,0,-1,811,1128,0,0
-406,-104,0,0,0,0,0,0,0,0,0,-1,818,1128,0,0
-399,-104,0,0,0,0,0,0,0,0,0,-1,825,1128,0,0
-392,-104,0,0,0,0,0,0,0,0,0,-1,832,1128,0,0
-385,-104,0,0,0,0,0,0,0,0,0,-1,839,1128,0,0
-378,-104,0,0,0,0,0,0,0,0,0,-1,846,1128,0,0
-371,-104,0,0,0,0,0,0,0,0,0,-1,853,1128,0,0
-364,-104,0,0,0,0,0,0,0,0,0,-1,860,1128,0,0
-357,-104,0,0,0,0,0,0,0,0,0,-1,867,1128,0,0
-350,-104,0,0,0,0,0,0,0,0,0,-1,874,1128,0,0
-343,-104,0,0,0,0,0,0,0,0,0,-1,881,1128,0,0
-336,-104,0,0,0,0,0,0,0,0,0,-1,888,1128,0,0
-329,-104,0,0,0,0,0,0,0,0,0,-1,895,1128,0,0
-322,-104,0,0,0,0,0,0,0,0,0,-1,902,1128,0,0
-315,-104,0,0,0,0,0,0,0,0,0,-1,909,1128,0,0
-308,-104,0,0,0,0,0,0,0,0,0,-1,916,1128,0,0
-301,-104,0,0,0,0,0,0,0,0,0,-1,923,1128,0,0
-294,-104,0,0,0,0,0,0,0,0,0,-1,930,1128,0,0
-287,-104,0,0,0,0,0,0,0,0,0,-1,937,1128,0,0
-280,-104,0,0,0,0,0,0,0,0,0,-1,944,1128,0,0
-273,-104,0,0,0,0,0,0,0,0,0,-1,951,1128,0,0
-266,-104,0,0,0,0,0,0,0,0,0,-1,958,1128,0,0
-259,-104,0,0,0,0,0,0,0,0,0,-1,965,1128,0,0
-252,-104,0,0,0,0,0,0,0,0,0,-1,972,1128,0,0
-245,-104,0,0,0,0,0,0,0,0,0,-1,979,1128,0,0
-238,-104,0,0,0,0,0,0,0,0,0,-1,986,1128,0,0
-231,-104,0,0,0,0,0,0,0,0,0,-1,993,1128,0,0
-224,-104,0,0,0,0,0,0,0,0,0,-1,1000,1128,0,0
-217,-104,0,0,0,0,0,0,0,0,0,-1,1007,1128,0,0
-210,-104,0,0,0,0,0,0,0,0,0,-1,1014,1128,0,0
-203,-104,0,0,0,0,0,0,0,0,0,-1,1021,1128,0,0
-196,-104,0,0,0,0,0,0,0,0,0,-1,1028,1128,0,0
-189,-104,0,0,0,0,0,0,0,0,0,-1,1035,1128,0,0
-182,-104,0,0,0,0,0,0,0,0,0,-1,1042,1128,0,0
-175,-104,0,0,0,0,0,0,0,0,0,-1,1049,1128,0,0
-168,-104,0,0,0,0,0,0,0,0,0,-1,1056,1128,0,0
-161,-104,0,0,0,0,0,0,0,0,0,-1,1063,1128,0,0
-154,-104,0,0,0,0,0,0,0,0,0,-1,1070,1128,0,0
-147,-104,0,0,0,0,0,0,0,0,0,-1,1077,1128,0,0
-140,-104,0,0,0,0,0,0,0,0,0,-1,1084,1128,0,0
-133,-104,0,0,0,0,0,0,0,0,0,-1,1091,1128,0,0
-126,-104,0,0,0,0,0,0,0,0,0,-1,1098,1128,0,0
-119,-104,0,0,0,0,0,0,0,0,0,-1,1105,1128,0,0
-112,-104,0,0,0,0,0,0,0,0,0,-1,1112,1128,0,0
-105,-104,0,0,0,0,0,0,0,0,0,-1,1119,1128,0,0
-98,-104,0,0,0,0,0,0,0,0,0,-1,1126,1128,0,0
-91,-104,0,0,0,0,0,0,0,0,0,-1,1133,1128,0,0
-84,-104,0,0,0,0,0,0,0,0,0,-1,1140,1128,0,0
-77,-104,0,0,0,0,0,0,0,0,0,-1,1147,1128,0,0
-70,-104,0,0,0,0,0,0,0,0,0,-1,1154,1128,0,0
-63,-104,0,0,0,0,0,0,0,0,0,-1,1161,1128,0,0
-56,-104,0,0,0,0,0,0,0,0,0,-1,1168,1128,0,0
-49,-104,0,0,0,0,0,0,0,0,0,-1,1175,1128,0,0
-42,-104,0,0,0,0,0,0,0,0,0,-1,1182,1128,0,0
-35,-104,0,0,0,0,0,0,0,0,0,-1,1189,1128,0,0
-28,-104,0,0,0,0,0,0,0,0,0,-1,1196,1128,0,0
-21,-104,0,0,0,0,0,0,0,0,0,-1,1203,1128,0,0
-14,-104,0,0,0,0,0,0,0,0,0,-1,1210,1128,0,0
-7,-104,0,0,0,0,0,0,0,0,0,-1,1217,1128,0,0
0,-104,0,0,0,0,0,0,0,0,0,-1,1224,1128,0,0
7,-104,0,0,0,0,0,0,0,0,0,-1,1231,1128,0,0
14,-104,0,0,0,0,0,0,0,0,0,-1,1238,1128,0,0
21,-104,0,0,0,0,0,0,0,0,0,-1,1245,1128,0,0
28,-104,0,0,0,0,0,0,0,0,0,-1,1252,1128,0,0
35,-104,0,0,0,0,0,0,0,0,0,-1,1259,1128,0,0
42,-104,0,0,0,0,0,0,0,0,0,-1,1266,1128,0,0
49,-104,0,0,0,0,0,0,0,0,0,-1,1273,1128,0,0
56,-104,0,0,0,0,0,0,0,0,0,-1,1280,1128,0,0
63,-104,0,0,0,0,0,0,0,0,0,-1,1287,1128,0,0
70,-104,0,0,0,0,0,0,0,0,0,-1,1294,1128,0,0
77,-104,0,0,0,0,0,0,0,0,0,-1,1301,1128,0,0
84,-104,0,0,0,0,0,0,0,0,0,-1,1308,1128,0,0
91,-104,0,0,0,0,0,0,0,0,0,-1,1315,1128,0,0
98,-104,0,0,0,0,0,0,0,0,0,-1,1322,1128,0,0
105,-104,0,0,0,0,0,0,0,0,0,-1,1329,1128,0,0
112,-104,0,0,0,0,0,0,0,0,0,-1,1336,1128,0,0
119,-104,0,0,0,0,0,0,0,0,0,-1,1343,1128,0,0
126,-104,0,0,0,0,0,0,0,0,0,-1,1350,1128,0,0
133,-104,0,0,0,0,0,0,0,0,0,-1,1357,1128,0,0
140,-104,0,0,0,0,0,0,0,0,0,-1,1364,1128,0,0
147,-104,0,0,0,0,0,0,0,0,0,-1,1371,1128,0,0
154,-104,0,0,0,0,0,0,0,0,0,-1,1378,1128,0,0
161,-104,0,0,0,0,0,0,0,0,0,-1,1385,1128,0,0
168,-104,0,0,0,0,0,0,0,0,0,-1,1392,1128,0,0
175,-104,0,0,0,0,0,0,0,0,0,-1,1399,1128,0,0
182,-104,0,0,0,0,0,0,0,0,0,-1,1406,1128,0,0
189,-104,0,0,0,0,0,0,0,0,0,-1,1413,1128,0,0
196,-104,0,0,0,0,0,0,0,0,0,-1,1420,1128,0,0
203,-104,0,0,0,0,0,0,0,0,0,-1,1427,1128,0,0
210,-104,0,0,0,0,0,0,0,0,0,-1,1434,1128,0,0
217,-104,0,0,0,0,0,0,0,0,0,-1,1441,1128,0,0
224,-104,0,0,0,0,0,0,0,0,0,-1,1448,1128,0,0
231,-104,0,0,0,0,0,0,0,0,0,-1,1455,1128,0,0
238,-104,0,0,0,0,0,0,0,0,0,-1,1462,1128,0,0
245,-104,0,0,0,0,0,0,0,0,0,-1,1469,1128,0,0
252,-104,0,0,0,0,0,0,0,0,0,-1,1476,1128,0,0
259,-104,0,0,0,0,0,0,0,0,0,-1,1483,1128,0,0
266,-104,0,0,0,0,0,0,0,0,0,-1,1490,1128,0,0
273,-104,0,0,0,0,0,0,0,0,0,-1,1497,1128,0,0
280,-104,0,0,0,0,0,0,0,0,0,-1,1504,1128,0,0
287,-104,0,0,0,0,0,0,0,0,0,-1,1511,1128,0,0
294,-104,0,0,0,0,0,0,0,0,0,-1,1518,1128,0,0
301,-104,0,0,0,0,0,0,0,0,0,-1,1525,1128,0,0
308,-104,0,0,0,0,0,0,0,0,0,-1,1532,1128,0,0
315,-104,0,0,0,0,0,0,0,0,0,-1,1539,1128,0,0
322,-104,0,0,0,0,0,0,0,0,0,-1,1546,1128,0,0
329,-104,0,0,0,0,0,0,0,0,0,-1,1553,1128,0,0
336,-104,0,0,0,0,0,0,0,0,0,-1,1560,1128,0,0
343,-104,0,0,0,0,0,0,0,0,0,-1,1567,1128,0,0
350,-104,0,0,0,0,0,0,0,0,0,-1,1574,1128,0,0
357,-104,0,0,0,0,0,0,0,0,0,-1,1581,1128,0,0
364,-104,0,0,0,0,0,0,0,0,0,-1,1588,1128,0,0
371,-104,0,0,0,0,0,0,0,0,0,-1,1595,1128,0,0
378,-104,0,0,0,0,0,0,0,0,0,-1,1602,1128,0,0
385,-104,0,0,0,0,0,0,0,0,0,-1,1609,1128,0,0
392,-104,0,0,0,0,0,0,0,0,0,-1,1616,1128,0,0
399,-104,0,0,0,0,0,0,0,0,0,-1,1623,1128,0,0
406,-104,0,0,0,0,0,0,0,0,0,-1,1630,1128,0,0
413,-104,0,0,0,0,0,0,0,0,0,-1,1637,1128,0,0
420,-104,0,0,0,0,0,0,0,0,0,-1,1644,1128,0,0
427,-104,0,0,0,0,0,0,0,0,0,-1,1651,1128,0,0
434,-104,0,0,0,0,0,0,0,0,0,-1,1658,1128,0,0
441,-104,0,0,0,0,0,0,0,0,0,-1,1665,1128,0,0
448,-104,0,0,0,0,0,0,0,0,0,-1,1672,1128,0,0
455,-104,0,0,0,0,0,0,0,0,0,-1,1679,1128,0,0
462,-104,0,0,0,0,0,0,0,0,0,-1,1686,1128,0,0
469,-104,0,0,0,0,0,0,0,0,0,-1,1693,1128,0,0
476,-104,0,0,0,0,0,0,0,0,0,-1,1700,1128,0,0
483,-104,0,0,0,0,0,0,0,0,0,-1,1707,1128,0,0
490,-104,0,0,0,0,0,0,0,0,0,-1,1714,1128,0,0
497,-104,0,0,0,0,0,0,0,0,0,-1,1721,1128,0,0
504,-104,0,0,0,0,0,0,0,0,0,-1,1728,1128,0,0
511,-104,0,0,0,0,0,0,0,0,0,-1,1735,1128,0,0
518,-104,0,0,0,0,0,0,0,0,0,-1,1742,1128,0,0
525,-104,0,0,0,0,0,0,0,0,0,-1,1749,1128,0,0
532,-104,0,0,0,0,0,0,0,0,0,-1,1756,1128,0,0
539,-104,0,0,0,0,0,0,0,0,0,-1,1763,1128,0,0
546,-104,0,0,0,0,0,0,0,0,0,-1,1770,1128,0,0
553,-104,0,0,0,0,0,0,0,0,0,-1,1777,1128,0,0
560,-104,0,0,0,0,0,0,0,0,0,-1,1784,1128,0,0
567,-104,0,0,0,0,0,0,0,0,0,-1,1791,1128,0,0
574,-104,0,0,0,0,0,0,0,0,0,-1,1798,1128,0,0
581,-104,0,0,0,0,0,0,0,0,0,-1,1805,1128,0,0
588,-104,0,0,0,0,0,0,0,0,0,-1,1812,1128,0,0
595,-104,0,0,0,0,0,0,0,0,0,-1,1819,1128,0,0
602,-104,0,0,0,0,0,0,0,0,0,-1,1826,1128,0,0
609,-104,0,0,0,0,0,0,0,0,0,-1,1833,1128,0,0
616,-104,0,0,0,0,0,0,0,0,0,-1,1840,1128,0,0
623,-104,0,0,0,0,0,0,0,0,0,-1,1847,1128,0,0
630,-104,0,0,0,0,0,0,0,0,0,-1,1854,1128,0,0
637,-104,0,0,0,0,0,0,0,0,0,-1,1861,1128,0,0
644,-104,74.2968,2.31226,0.0080986,-0.00264487,-0.00129718,0.008253,-0.00279927,-0.118473,0.00663494,0.0365588,1868,1128,74.2968,-2.31222
651,-104,74.4327,2.2356,0.00555206,-0.00219889,-5.86815e-05,0.00555251,-0.00219934,-0.0075703,0.00461299,0.0373094,1875,1128,74.4328,-2.23556
658,-104,74.4888,1.94495,0.00382784,-0.00179205,0.00051791,0.00387517,-0.00183938,0.0911339,0.00336836,0.0425518,1882,1128,74.4887,-1.945
665,-104,74.5052,2.01733,0.00241596,-0.00137812,0.000658267,0.00252692,-0.00148908,0.166999,0.0023443,0.0467395,1889,1128,74.5053,-2.0173
672,-104,74.4618,2.46545,0.00127917,-0.000943742,0.000480011,0.00137839,-0.00104297,0.20384,0.00140244,0.044378,1896,1128,74.4617,-2.46551
679,-104,74.423,2.55615,0.000584171,-0.000786915,0.000181034,0.000607671,-0.000810415,0.12909,0.000821517,0.0415824,1903,1128,74.4229,-2.55609
686,-104,74.2944,2.28918,0.000395861,-0.000784592,-0.000188164,0.000425129,-0.000813859,-0.154307,0.000726971,0.03914,1910,1128,74.2945,-2.28923
693,-104,74.3179,2.13184,0.000314535,-0.000904043,-0.000231089,0.000356886,-0.000946395,-0.181257,0.000777685,0.0343462,1917,1128,74.3178,-2.13183
700,-104,74.3984,2.12158,0.000313138,-0.000942098,-0.000119264,0.000324369,-0.000953329,-0.0938939,0.000766893,0.027638,1924,1128,74.3985,-2.12163
707,-104,74.353,2.15869,0,0,0,0,0,0,0,-1,1931,1128,74.353,-2.15869
714,-104,45.5221,2.32166,0,0,0,0,0,0,0,-1,1938,1128,45.5221,-2.3216
721,-104,68.5514,9.5387,0,0,0,0,0,0,0,-1,1945,1128,68.5513,-9.53866
728,-104,68.7335,8.87219,0,0,0,0,0,0,0,-1,1952,1128,68.7335,-8.87222
735,-104,68.936,7.98975,0,0,0,0,0,0,0,-1,1959,1128,68.936,-7.98974
742,-104,68.6713,7.7019,-0.00081634,0.00134056,0.00107443,0.00178443,-0.00126021,1.17903,0.00176649,0.0248415,1966,1128,68.6713,-7.70185
749,-104,68.5385,7.1875,-0.000831164,0.00277931,0.00119527,0.00313915,-0.001191,1.27837,0.00258298,0.0232857,1973,1128,68.5384,-7.18753
756,-104,68.5457,6.5968,-0.000469966,0.00474129,0.000965165,0.0049143,-0.000642979,1.39342,0.00351021,0.0178411,1980,1128,68.5457,-6.59686
763,-104,68.4614,6.04871,0.00152212,0.00841149,-0.000281993,0.00842301,0.0015106,-1.52996,0.00518568,0.0185013,1987,1128,68.4613,-6.04865
770,-104,68.3833,5.52588,0.00500552,0.0130208,-0.00247794,0.013725,0.00430132,-1.29391,0.00810598,0.0171415,1994,1128,68.3834,-5.52586
777,-104,68.2705,4.93347,0.0098957,0.0182193,-0.00536194,0.020845,0.00726994,-1.11542,0.012217,0.0251568,2001,1128,68.2706,-4.93344
784,-104,68.1675,4.36365,0.0163499,0.024008,-0.00895844,0.0299214,0.0104365,-0.987359,0.0175364,0.040828,2008,1128,68.1674,-4.36366
791,-104,68.4277,3.77649,0.0249386,0.0306657,-0.0136019,0.0417022,0.0139021,-0.889146,0.0245184,0.0449939,2015,1128,68.4278,-3.77644
798,-104,67.9985,3.82507,0,0,0,0,0,0,0,-1,2022,1128,67.9985,-3.82512
805,-104,67.8362,2.82861,0,0,0,0,0,0,0,-1,2029,1128,67.8362,-2.82856
812,-104,67.6738,1.83203,0,0,0,0,0,0,0,-1,2036,1128,67.6739,-1.83199
-700,-111,0,0,0,0,0,0,0,0,0,-1,524,1135,0,0
-693,-111,-50.9321,-2.71606,0,0,0,0,0,0,0,-1,531,1135,-50.9321,2.7161
-686,-111,-50.7681,0.663452,0,0,0,0,0,0,0,-1,538,1135,-50.7681,-0.663494
-679,-111,-50.9714,1.43445,0,0,0,0,0,0,0,-1,545,1135,-50.9714,-1.43446
-672,-111,-51.0917,2.26489,0,0,0,0,0,0,0,-1,552,1135,-51.0917,-2.26493
-665,-111,-56.3783,-3.26331,0,0,0,0,0,0,0,-1,559,1135,-56.3783,3.26332
-658,-111,-51.3997,2.39331,0,0,0,0,0,0,0,-1,566,1135,-51.3997,-2.39333
-651,-111,-51.4788,2.67749,0,0,0,0,0,0,0,-1,573,1135,-51.4787,-2.67753
-644,-111,-51.4522,3.43201,-0.00262951,-0.00622897,0.00533594,0.00120204,-0.0100605,0.622747,0.00714149,0.0291386,580,1135,-51.4522,-3.43197
-637,-111,-51.5826,4.08081,-0.00352119,-0.00187574,0.00238662,-0.000174018,-0.00522291,0.951382,0.00342541,0.0141551,587,1135,-51.5826,-4.08077
-630,-111,-51.6445,4.59839,-0.0044759,0.000525765,-2.48799e-05,0.000525889,-0.00447602,-1.56582,0.00317387,0.0299999,594,1135,-51.6445,-4.59841
-623,-111,-51.6849,5.2915,-0.00532347,0.00139798,-0.00191709,0.00190633,-0.00583181,-1.3116,0.00465529,0.0259484,601,1135,-51.6849,-5.29147
-616,-111,-52.0716,5.91785,-0.00620062,9.81786e-05,-0.00312075,0.00138249,-0.00748494,-1.18038,0.00550892,0.0310695,608,1135,-52.0716,-5.91789
-609,-111,-52.2828,6.4729,-0.00649521,-0.0016618,-0.00391446,0.000521867,-0.00867888,-1.06195,0.00596749,0.0389644,615,1135,-52.2828,-6.47287
-602,-111,-52.2147,7.21057,0,0,0,0,0,0,0,-1,622,1135,-52.2146,-7.21058
-595,-111,-51.8142,7.82654,0,0,0,0,0,0,0,-1,629,1135,-51.8142,-7.82659
-588,-111,-51.4717,8.70178,0,0,0,0,0,0,0,-1,636,1135,-51.4717,-8.70177
-581,-111,-21.0555,3.14551,0,0,0,0,0,0,0,-1,643,1135,-21.0555,-3.14548
-574,-111,-57.1627,0.0955811,0,0,0,0,0,0,0,-1,650,1135,-57.1626,-0.0955909
-567,-111,-57.1987,0.223389,0,0,0,0,0,0,0,-1,657,1135,-57.1987,-0.223344
-560,-111,-57.2368,0.448608,0,0,0,0,0,0,0,-1,664,1135,-57.2368,-0.44855
-553,-111,-57.3853,0.468018,0,0,0,0,0,0,0,-1,671,1135,-57.3853,-0.467959
-546,-111,-57.7367,0.545898,0,0,0,0,0,0,0,-1,678,1135,-57.7367,-0.545958
-539,-111,-57.7313,0.455078,0,0,0,0,0,0,0,-1,685,1135,-57.7313,-0.45508
-532,-111,-57.3842,0.369751,0,0,0,0,0,0,0,-1,692,1135,-57.3842,-0.369776
-525,-111,-57.3851,0.384399,0,0,0,0,0,0,0,-1,699,1135,-57.3851,-0.384419
-518,-111,0,0,0,0,0,0,0,0,0,-1,706,1135,0,0
-511,-111,0,0,0,0,0,0,0,0,0,-1,713,1135,0,0
-504,-111,0,0,0,0,0,0,0,0,0,-1,720,1135,0,0
-497,-111,0,0,0,0,0,0,0,0,0,-1,727,1135,0,0
-490,-111,0,0,0,0,0,0,0,0,0,-1,734,1135,0,0
-483,-111,0,0,0,0,0,0,0,0,0,-1,741,1135,0,0
-476,-111,0,0,0,0,0,0,0,0,0,-1,748,1135,0,0
-469,-111,0,0,0,0,0,0,0,0,0,-1,755,1135,0,0
-462,-111,0,0,0,0,0,0,0,0,0,-1,762,1135,0,0
-455,-111,0,0,0,0,0,0,0,0,0,-1,769,1135,0,0
-448,-111,0,0,0,0,0,0,0,0,0,-1,776,1135,0,0
-441,-111,0,0,0,0,0,0,0,0,0,-1,783,1135,0,0
-434,-111,0,0,0,0,0,0,0,0,0,-1,790,1135,0,0
-427,-111,0,0,0,0,0,0,0,0,0,-1,797,1135,0,0
-420,-111,0,0,0,0,0,0,0,0,0,-1,804,1135,0,0
-413,-111,0,0,0,0,0,0,0,0,0,-1,811,1135,0,0
-406,-111,0,0,0,0,0,0,0,0,0,-1,818,1135,0,0
-399,-111,0,0,0,0,0,0,0,0,0,-1,825,1135,0,0
-392,-111,0,0,0,0,0,0,0,0,0,-1,832,1135,0,0
-385,-111,0,0,0,0,0,0,0,0,0,-1,839,1135,0,0
-378,-111,0,0,0,0,0,0,0,0,0,-1,846,1135,0,0
-371,-111,0,0,0,0,0,0,0,0,0,-1,853,1135,0,0
-364,-111,0,0,0,0,0,0,0,0,0,-1,860,1135,0,0
-357,-111,0,0,0,0,0,0,0,0,0,-1,867,1135,0,0
-350,-111,0,0,0,0,0,0,0,0,0,-1,874,1135,0,0
-343,-111,0,0,0,0,0,0,0,0,0,-1,881,1135,0,0
-336,-111,0,0,0,0,0,0,0,0,0,-1,888,1135,0,0
-329,-111,0,0,0,0,0,0,0,0,0,-1,895,1135,0,0
-322,-111,0,0,0,0,0,0,0,0,0,-1,902,1135,0,0
-315,-111,0,0,0,0,0,0,0,0,0,-1,909,1135,0,0
-308,-111,0,0,0,0,0,0,0,0,0,-1,916,1135,0,0
-301,-111,0,0,0,0,0,0,0,0,0,-1,923,1135,0,0
-294,-111,0,0,0,0,0,0,0,0,0,-1,930,1135,0,0
-287,-111,0,0,0,0,0,0,0,0,0,-1,937,1135,0,0
-280,-111,0,0,0,0,0,0,0,0,0,-1,944,1135,0,0
-273,-111,0,0,0,0,0,0,0,0,0,-1,951,1135,0,0
-266,-111,0,0,0,0,0,0,0,0,0,-1,958,1135,0,0
-259,-111,0,0,0,0,0,0,0,0,0,-1,965,1135,0,0
-252,-111,0,0,0,0,0,0,0,0,0,-1,972,1135,0,0
-245,-111,0,0,0,0,0,0,0,0,0,-1,979,1135,0,0
-238,-111,0,0,0,0,0,0,0,0,0,-1,986,1135,0,0
-231,-111,0,0,0,0,0,0,0,0,0,-1,993,1135,0,0
-224,-111,0,0,0,0,0,0,0,0,0,-1,1000,1135,0,0
-217,-111,0,0,0,0,0,0,0,0,0,-1,1007,1135,0,0
-210,-111,0,0,0,0,0,0,0,0,0,-1,1014,1135,0,0
-203,-111,0,0,0,0,0,0,0,0,0,-1,1021,1135,0,0
-196,-111,0,0,0,0,0,0,0,0,0,-1,1028,1135,0,0
-189,-111,0,0,0,0,0,0,0,0,0,-1,1035,1135,0,0
-182,-111,0,0,0,0,0,0,0,0,0,-1,1042,1135,0,0
-175,-111,0,0,0,0,0,0,0,0,0,-1,1049,1135,0,0
-168,-111,0,0,0,0,0,0,0,0,0,-1,1056,1135,0,0
-161,-111,0,0,0,0,0,0,0,0,0,-1,1063,1135,0,0
-154,-111,0,0,0,0,0,0,0,0,0,-1,1070,1135,0,0
-147,-111,0,0,0,0,0,0,0,0,0,-1,1077,1135,0,0
-140,-111,0,0,0,0,0,0,0,0,0,-1,1084,1135,0,0
-133,-111,0,0,0,0,0,0,0,0,0,-1,1091,1135,0,0
-126,-111,0,0,0,0,0,0,0,0,0,-1,1098,1135,0,0
-119,-111,0,0,0,0,0,0,0,0,0,-1,1105,1135,0,0
-112,-111,0,0,0,0,0,0,0,0,0,-1,1112,1135,0,0
-105,-111,0,0,0,0,0,0,0,0,0,-1,1119,1135,0,0
-98,-111,0,0,0,0,0,0,0,0,0,-1,1126,1135,0,0
-91,-111,0,0,0,0,0,0,0,0,0,-1,1133,1135,0,0
-84,-111,0,0,0,0,0,0,0,0,0,-1,1140,1135,0,0
-77,-111,0,0,0,0,0,0,0,0,0,-1,1147,1135,0,0
-70,-111,0,0,0,0,0,0,0,0,0,-1,1154,1135,0,0
-63,-111,0,0,0,0,0,0,0,0,0,-1,1161,1135,0,0
-56,-111,0,0,0,0,0,0,0,0,0,-1,1168,1135,0,0
-49,-111,0,0,0,0,0,0,0,0,0,-1,1175,1135,0,0
-42,-111,0,0,0,0,0,0,0,0,0,-1,1182,1135,0,0
-35,-111,0,0,0,0,0,0,0,0,0,-1,1189,1135,0,0
-28,-111,0,0,0,0,0,0,0,0,0,-1,1196,1135,0,0
-21,-111,0,0,0,0,0,0,0,0,0,-1,1203,1135,0,0
-14,-111,0,0,0,0,0,0,0,0,0,-1,1210,1135,0,0
-7,-111,0,0,0,0,0,0,0,0,0,-1,1217,1135,0,0
0,-111,0,0,0,0,0,0,0,0,0,-1,1224,1135,0,0
7,-111,0,0,0,0,0,0,0,0,0,-1,1231,1135,0,0
14,-111,0,0,0,0,0,0,0,0,0,-1,1238,1135,0,0
21,-111,0,0,0,0,0,0,0,0,0,-1,1245,1135,0,0
28,-111,0,0,0,0,0,0,0,0,0,-1,1252,1135,0,0
35,-111,0,0,0,0,0,0,0,0,0,-1,1259,1135,0,0
42,-111,0,0,0,0,0,0,0,0,0,-1,1266,1135,0,0
49,-111,0,0,0,0,0,0,0,0,0,-1,1273,1135,0,0
56,-111,0,0,0,0,0,0,0,0,0,-1,1280,1135,0,0
63,-111,0,0,0,0,0,0,0,0,0,-1,1287,1135,0,0
70,-111,0,0,0,0,0,0,0,0,0,-1,1294,1135,0,0
77,-111,0,0,0,0,0,0,0,0,0,-1,1301,1135,0,0
84,-111,0,0,0,0,0,0,0,0,0,-1,1308,1135,0,0
91,-111,0,0,0,0,0,0,0,0,0,-1,1315,1135,0,0
98,-111,0,0,0,0,0,0,0,0,0,-1,1322,1135,0,0
105,-111,0,0,0,0,0,0,0,0,0,-1,1329,1135,0,0
112,-111,0,0,0,0,0,0,0,0,0,-1,1336,1135,0,0
119,-111,0,0,0,0,0,0,0,0,0,-1,1343,1135,0,0
126,-111,0,0,0,0,0,0,0,0,0,-1,1350,1135,0,0
133,-111,0,0,0,0,0,0,0,0,0,-1,1357,1135,0,0
140,-111,0,0,0,0,0,0,0,0,0,-1,1364,1135,0,0
147,-111,0,0,0,0,0,0,0,0,0,-1,1371,1135,0,0
154,-111,0,0,0,0,0,0,0,0,0,-1,1378,1135,0,0
161,-111,0,0,0,0,0,0,0,0,0,-1,1385,1135,0,0
168,-111,0,0,0,0,0,0,0,0,0,-1,1392,1135,0,0
175,-111,0,0,0,0,0,0,0,0,0,-1,1399,1135,0,0
182,-111,0,0,0,0,0,0,0,0,0,-1,1406,1135,0,0
189,-111,0,0,0,0,0,0,0,0,0,-1,1413,1135,0,0
196,-111,0,0,0,0,0,0,0,0,0,-1,1420,1135,0,0
203,-111,0,0,0,0,0,0,0,0,0,-1,1427,1135,0,0
210,-111,0,0,0,0,0,0,0,0,0,-1,1434,1135,0,0
217,-111,0,0,0,0,0,0,0,0,0,-1,1441,1135,0,0
224,-111,0,0,0,0,0,0,0,0,0,-1,1448,1135,0,0
231,-111,0,0,0,0,0,0,0,0,0,-1,1455,1135,0,0
238,-111,0,0,0,0,0,0,0,0,0,-1,1462,1135,0,0
245,-111,0,0,0,0,0,0,0,0,0,-1,1469,1135,0,0
252,-111,0,0,0,0,0,0,0,0,0,-1,1476,1135,0,0
259,-111,0,0,0,0,0,0,0,0,0,-1,1483,1135,0,0
266,-111,0,0,0,0,0,0,0,0,0,-1,1490,1135,0,0
273,-111,0,0,0,0,0,0,0,0,0,-1,1497,1135,0,0
280,-111,0,0,0,0,0,0,0,0,0,-1,1504,1135,0,0
287,-111,0,0,0,0,0,0,0,0,0,-1,1511,1135,0,0
294,-111,0,0,0,0,0,0,0,0,0,-1,1518,1135,0,0
301,-111,0,0,0,0,0,0,0,0,0,-1,1525,1135,0,0
308,-111,0,0,0,0,0,0,0,0,0,-1,1532,1135,0,0
315,-111,0,0,0,0,0,0,0,0,0,-1,1539,1135,0,0
322,-111,0,0,0,0,0,0,0,0,0,-1,1546,1135,0,0
329,-111,0,0,0,0,0,0,0,0,0,-1,1553,1135,0,0
336,-111,0,0,0,0,0,0,0,0,0,-1,1560,1135,0,0
343,-111,0,0,0,0,0,0,0,0,0,-1,1567,1135,0,0
350,-111,0,0,0,0,0,0,0,0,0,-1,1574,1135,0,0
357,-111,0,0,0,0,0,0,0,0,0,-1,1581,1135,0,0
364,-111,0,0,0,0,0,0,0,0,0,-1,1588,1135,0,0
371,-111,0,0,0,0,0,0,0,0,0,-1,1595,1135,0,0
378,-111,0,0,0,0,0,0,0,0,0,-1,1602,1135,0,0
385,-111,0,0,0,0,0,0,0,0,0,-1,1609,1135,0,0
392,-111,0,0,0,0,0,0,0,0,0,-1,1616,1135,0,0
399,-111,0,0,0,0,0,0,0,0,0,-1,1623,1135,0,0
406,-111,0,0,0,0,0,0,0,0,0,-1,1630,1135,0,0
413,-111,0,0,0,0,0,0,0,0,0,-1,1637,1135,0,0
420,-111,0,0,0,0,0,0,0,0,0,-1,1644,1135,0,0
427,-111,0,0,0,0,0,0,0,0,0,-1,1651,1135,0,0
434,-111,0,0,0,0,0,0,0,0,0,-1,1658,1135,0,0
441,-111,0,0,0,0,0,0,0,0,0,-1,1665,1135,0,0
448,-111,0,0,0,0,0,0,0,0,0,-1,1672,1135,0,0
455,-111,0,0,0,0,0,0,0,0,0,-1,1679,1135,0,0
462,-111,0,0,0,0,0,0,0,0,0,-1,1686,1135,0,0
469,-111,0,0,0,0,0,0,0,0,0,-1,1693,1135,0,0
476,-111,0,0,0,0,0,0,0,0,0,-1,1700,1135,0,0
483,-111,0,0,0,0,0,0,0,0,0,-1,1707,1135,0,0
490,-111,0,0,0,0,0,0,0,0,0,-1,1714,1135,0,0
497,-111,0,0,0,0,0,0,0,0,0,-1,1721,1135,0,0
504,-111,0,0,0,0,0,0,0,0,0,-1,1728,1135,0,0
511,-111,0,0,0,0,0,0,0,0,0,-1,1735,1135,0,0
518,-111,0,0,0,0,0,0,0,0,0,-1,1742,1135,0,0
525,-111,0,0,0,0,0,0,0,0,0,-1,1749,1135,0,0
532,-111,0,0,0,0,0,0,0,0,0,-1,1756,1135,0,0
539,-111,0,0,0,0,0,0,0,0,0,-1,1763,1135,0,0
546,-111,0,0,0,0,0,0,0,0,0,-1,1770,1135,0,0
553,-111,0,0,0,0,0,0,0,0,0,-1,1777,1135,0,0
560,-111,0,0,0,0,0,0,0,0,0,-1,1784,1135,0,0
567,-111,0,0,0,0,0,0,0,0,0,-1,1791,1135,0,0
574,-111,0,0,0,0,0,0,0,0,0,-1,1798,1135,0,0
581,-111,0,0,0,0,0,0,0,0,0,-1,1805,1135,0,0
588,-111,0,0,0,0,0,0,0,0,0,-1,1812,1135,0,0
595,-111,0,0,0,0,0,0,0,0,0,-1,1819,1135,0,0
602,-111,0,0,0,0,0,0,0,0,0,-1,1826,1135,0,0
609,-111,0,0,0,0,0,0,0,0,0,-1,1833,1135,0,0
616,-111,0,0,0,0,0,0,0,0,0,-1,1840,1135,0,0
623,-111,0,0,0,0,0,0,0,0,0,-1,1847,1135,0,0
630,-111,0,0,0,0,0,0,0,0,0,-1,1854,1135,0,0
637,-111,0,0,0,0,0,0,0,0,0,-1,1861,1135,0,0
644,-111,74.2031,2.15845,0.00725051,-0.0029593,-0.000813788,0.00731497,-0.00302376,-0.0790414,0.00613806,0.0387814,1868,1135,74.2032,-2.15839
651,-111,74.4155,2.17639,0.00501979,-0.00245976,0.000309433,0.00503257,-0.00247254,0.0412766,0.0044163,0.0403653,1875,1135,74.4156,-2.17641
658,-111,74.6508,1.63184,0,0,0,0,0,0,0,-1,1882,1135,74.6507,-1.63179
665,-111,75.0728,1.54956,0,0,0,0,0,0,0,-1,1889,1135,75.0727,-1.54958
672,-111,74.4893,2.23914,0.0011499,-0.000835329,0.000684478,0.00136302,-0.00104845,0.301846,0.0013962,0.0452262,1896,1135,74.4892,-2.23919
679,-111,74.3268,2.34119,0.000558542,-0.000621158,0.000376281,0.000668343,-0.000730958,0.283921,0.000808157,0.0412243,1903,1135,74.3268,-2.34117
686,-111,74.2352,2.42334,0.000480505,-0.000645258,3.26183e-05,0.00048145,-0.000646202,0.028942,0.000653362,0.0396505,1910,1135,74.2352,-2.42328
693,-111,74.2767,2.35107,0.000427186,-0.000774443,2.35804e-05,0.000427648,-0.000774906,0.0196136,0.000703878,0.0355878,1917,1135,74.2767,-2.35108
700,-111,74.4047,2.24219,0.000446504,-0.000846092,0.000151977,0.000464132,-0.00086372,0.115477,0.000778121,0.029785,1924,1135,74.4047,-2.24221
707,-111,74.3893,2.19531,0,0,0,0,0,0,0,-1,1931,1135,74.3893,-2.19534
714,-111,45.1654,7.39746,0,0,0,0,0,0,0,-1,1938,1135,45.1654,-7.39745
721,-111,67.9536,9.72864,0,0,0,0,0,0,0,-1,1945,1135,67.9536,-9.72858
728,-111,68.079,8.93604,-0.000612578,0.000274468,0.000624973,0.000597303,-0.000935413,1.09399,0.000892062,0.0302651,1952,1135,68.079,-8.93604
735,-111,68.1652,8.35632,-0.000524573,0.000343334,0.000893471,0.000902661,-0.0010839,1.01147,0.00114853,0.0292533,1959,1135,68.1652,-8.35638
742,-111,68.0208,7.80994,-0.000475619,0.000940087,0.00125344,0.00167174,-0.00120727,1.04244,0.00166939,0.0199361,1966,1135,68.0208,-7.80999
749,-111,67.9124,7.20313,-0.000664882,0.00222178,0.00137022,0.0027686,-0.0012117,1.19109,0.0023559,0.020466,1973,1135,67.9123,-7.20317
756,-111,67.9097,6.58069,-0.000423722,0.00428668,0.00105318,0.00451144,-0.000648474,1.36055,0.00324545,0.0179282,1980,1135,67.9097,-6.58063
763,-111,67.8577,6.03247,0.00140991,0.00799241,-0.000291531,0.00800529,0.00139703,-1.52662,0.00493751,0.0163889,1987,1135,67.8577,-6.03245
770,-111,67.7898,5.47363,0.00452851,0.0125048,-0.00250834,0.013228,0.00380528,-1.29008,0.00786338,0.0142566,1994,1135,67.7897,-5.47366
777,-111,67.5859,4.83459,0.00887833,0.0175415,-0.0053827,0.0201191,0.00630078,-1.12421,0.011883,0.0278423,2001,1135,67.5859,-4.83463
784,-111,67.3252,4.16431,0.0146406,0.0231199,-0.00897575,0.0288069,0.00895361,-1.00604,0.0170239,0.0416654,2008,1135,67.3251,-4.16434
791,-111,67.4182,3.49731,0.0223323,0.0294725,-0.0136171,0.0399797,0.0118251,-0.913601,0.0237154,0.0464957,2015,1135,67.4181,-3.49731
798,-111,67.6917,2.62439,0.0325724,0.0368409,-0.0196172,0.0544396,0.0149737,-0.839583,0.0324737,0.0424507,2022,1135,67.6917,-2.62435
805,-111,67.1165,2.99121,0,0,0,0,0,0,0,-1,2029,1135,67.1165,-2.99122
812,-111,69.0981,2.17224,0,0,0,0,0,0,0,-1,2036,1135,69.0982,-2.1722
-700,-118,0,0,0,0,0,0,0,0,0,-1,524,1142,0,0
-693,-118,-53.74,-0.44043,0,0,0,0,0,0,0,-1,531,1142,-53.74,0.440434
-686,-118,-50.1937,1.65906,0,0,0,0,0,0,0,-1,538,1142,-50.1937,-1.65908
-679,-118,-50.6157,2.50781,0,0,0,0,0,0,0,-1,545,1142,-50.6157,-2.50786
-672,-118,-51.0376,3.35669,0,0,0,0,0,0,0,-1,552,1142,-51.0376,-3.35665
-665,-118,-53.3952,2.3208,0,0,0,0,0,0,0,-1,559,1142,-53.3952,-2.32086
-658,-118,-55.0958,-1.94812,0,0,0,0,0,0,0,-1,566,1142,-55.0958,1.94813
-651,-118,-50.3782,2.53943,0,0,0,0,0,0,0,-1,573,1142,-50.3782,-2.53949
-644,-118,-50.6865,3.3291,0.00121444,-0.00797093,0.00553313,0.0038126,-0.0105691,0.439004,0.00860329,0.036926,580,1142,-50.6865,-3.32911
-637,-118,-50.905,4.09302,-0.00126192,-0.00279077,0.00228028,0.000378653,-0.00443134,0.623668,0.00308819,0.0199671,587,1142,-50.9049,-4.09298
-630,-118,-50.9894,4.69299,-0.00361936,0.000214571,-0.000374679,0.000250844,-0.00365563,-1.47429,0.00252486,0.0293587,594,1142,-50.9895,-4.693
-623,-118,-50.9623,5.35291,-0.00568684,0.00147696,-0.0024574,0.00223889,-0.00644877,-1.27014,0.00520843,0.0239563,601,1142,-50.9623,-5.35286
-616,-118,-51.1136,5.9552,-0.00756808,0.000337637,-0.00381357,0.00187736,-0.0091078,-1.18706,0.00678479,0.0378355,608,1142,-51.1136,-5.95526
-609,-118,-51.4178,6.36145,-0.00874037,-0.00108029,-0.00479201,0.00122421,-0.0110449,-1.12254,0.00780339,0.0463106,615,1142,-51.4179,-6.3614
-602,-118,-51.2011,7.11804,0,0,0,0,0,0,0,-1,622,1142,-51.2011,-7.11806
-595,-118,-51.2979,7.78906,0,0,0,0,0,0,0,-1,629,1142,-51.2979,-7.78903
-588,-118,-50.6397,8.83203,0,0,0,0,0,0,0,-1,636,1142,-50.6397,-8.832
-581,-118,-24.6116,3.89648,0,0,0,0,0,0,0,-1,643,1142,-24.6116,-3.89645
-574,-118,-57.1799,0.260864,0,0,0,0,0,0,0,-1,650,1142,-57.1799,-0.260805
-567,-118,-57.1981,0.298096,0,0,0,0,0,0,0,-1,657,1142,-57.1981,-0.298088
-560,-118,-57.2407,0.292114,0,0,0,0,0,0,0,-1,664,1142,-57.2407,-0.29215
-553,-118,-57.1398,0.183472,0,0,0,0,0,0,0,-1,671,1142,-57.1397,-0.183418
-546,-118,-56.947,0.103027,0,0,0,0,0,0,0,-1,678,1142,-56.9469,-0.10297
-539,-118,-57.043,0.298584,0,0,0,0,0,0,0,-1,685,1142,-57.043,-0.298534
-532,-118,-57.3426,0.536377,0,0,0,0,0,0,0,-1,692,1142,-57.3426,-0.536365
-525,-118,-57.3184,0.439453,0,0,0,0,0,0,0,-1,699,1142,-57.3184,-0.439429
-518,-118,0,0,0,0,0,0,0,0,0,-1,706,1142,0,0
-511,-118,0,0,0,0,0,0,0,0,0,-1,713,1142,0,0
-504,-118,0,0,0,0,0,0,0,0,0,-1,720,1142,0,0
-497,-118,0,0,0,0,0,0,0,0,0,-1,727,1142,0,0
-490,-118,0,0,0,0,0,0,0,0,0,-1,734,1142,0,0
-483,-118,0,0,0,0,0,0,0,0,0,-1,741,1142,0,0
-476,-118,0,0,0,0,0,0,0,0,0,-1,748,1142,0,0
-469,-118,0,0,0,0,0,0,0,0,0,-1,755,1142,0,0
-462,-118,0,0,0,0,0,0,0,0,0,-1,762,1142,0,0
-455,-118,0,0,0,0,0,0,0,0,0,-1,769,1142,0,0
-448,-118,0,0,0,0,0,0,0,0,0,-1,776,1142,0,0
-441,-118,0,0,0,0,0,0,0,0,0,-1,783,1142,0,0
-434,-118,0,0,0,0,0,0,0,0,0,-1,790,1142,0,0
-427,-118,0,0,0,0,0,0,0,0,0,-1,797,1142,0,0
-420,-118,0,0,0,0,0,0,0,0,0,-1,804,1142,0,0
-413,-118,0,0,0,0,0,0,0,0,0,-1,811,1142,0,0
-406,-118,0,0,0,0,0,0,0,0,0,-1,818,1142,0,0
-399,-118,0,0,0,0,0,0,0,0,0,-1,825,1142,0,0
-392,-118,0,0,0,0,0,0,0,0,0,-1,832,1142,0,0
-385,-118,0,0,0,0,0,0,0,0,0,-1,839,1142,0,0
-378,-118,0,0,0,0,0,0,0,0,0,-1,846,1142,0,0
-371,-118,0,0,0,0,0,0,0,0,0,-1,853,1142,0,0
-364,-118,0,0,0,0,0,0,0,0,0,-1,860,1142,0,0
-357,-118,0,0,0,0,0,0,0,0,0,-1,867,1142,0,0
-350,-118,0,0,0,0,0,0,0,0,0,-1,874,1142,0,0
-343,-118,0,0,0,0,0,0,0,0,0,-1,881,1142,0,0
-336,-118,0,0,0,0,0,0,0,0,0,-1,888,1142,0,0
-329,-118,0,0,0,0,0,0,0,0,0,-1,895,1142,0,0
-322,-118,0,0,0,0,0,0,0,0,0,-1,902,1142,0,0
-315,-118,0,0,0,0,0,0,0,0,0,-1,909,1142,0,0
-308,-118,0,0,0,0,0,0,0,0,0,-1,916,1142,0,0
-301,-118,0,0,0,0,0,0,0,0,0,-1,923,1142,0,0
-294,-118,0,0,0,0,0,0,0,0,0,-1,930,1142,0,0
-287,-118,0,0,0,0,0,0,0,0,0,-1,937,1142,0,0
-280,-118,0,0,0,0,0,0,0,0,0,-1,944,1142,0,0
-273,-118,0,0,0,0,0,0,0,0,0,-1,951,1142,0,0
-266,-118,0,0,0,0,0,0,0,0,0,-1,958,1142,0,0
-259,-118,0,0,0,0,0,0,0,0,0,-1,965,1142,0,0
-252,-118,0,0,0,0,0,0,0,0,0,-1,972,1142,0,0
-245,-118,0,0,0,0,0,0,0,0,0,-1,979,1142,0,0
-238,-118,0,0,0,0,0,0,0,0,0,-1,986,1142,0,0
-231,-118,0,0,0,0,0,0,0,0,0,-1,993,1142,0,0
-224,-118,0,0,0,0,0,0,0,0,0,-1,1000,1142,0,0
-217,-118,0,0,0,0,0,0,0,0,0,-1,1007,1142,0,0
-210,-118,0,0,0,0,0,0,0,0,0,-1,1014,1142,0,0
-203,-118,0,0,0,0,0,0,0,0,0,-1,1021,1142,0,0
-196,-118,0,0,0,0,0,0,0,0,0,-1,1028,1142,0,0
-189,-118,0,0,0,0,0,0,0,0,0,-1,1035,1142,0,0
-182,-118,0,0,0,0,0,0,0,0,0,-1,1042,1142,0,0
-175,-118,0,0,0,0,0,0,0,0,0,-1,1049,1142,0,0
-168,-118,0,0,0,0,0,0,0,0,0,-1,1056,1142,0,0
-161,-118,0,0,0,0,0,0,0,0,0,-1,1063,1142,0,0
-154,-118,0,0,0,0,0,0,0,0,0,-1,1070,1142,0,0
-147,-118,0,0,0,0,0,0,0,0,0,-1,1077,1142,0,0
-140,-118,0,0,0,0,0,0,0,0,0,-1,1084,1142,0,0
-133,-118,0,0,0,0,0,0,0,0,0,-1,1091,1142,0,0
-126,-118,0,0,0,0,0,0,0,0,0,-1,1098,1142,0,0
-119,-118,0,0,0,0,0,0,0,0,0,-1,1105,1142,0,0
-112,-118,0,0,0,0,0,0,0,0,0,-1,1112,1142,0,0
-105,-118,0,0,0,0,0,0,0,0,0,-1,1119,1142,0,0
-98,-118,0,0,0,0,0,0,0,0,0,-1,1126,1142,0,0
-91,-118,0,0,0,0,0,0,0,0,0,-1,1133,1142,0,0
-84,-118,0,0,0,0,0,0,0,0,0,-1,1140,1142,0,0
-77,-118,0,0,0,0,0,0,0,0,0,-1,1147,1142,0,0
-70,-118,0,0,0,0,0,0,0,0,0,-1,1154,1142,0,0
-63,-118,0,0,0,0,0,0,0,0,0,-1,1161,1142,0,0
-56,-118,0,0,0,0,0,0,0,0,0,-1,1168,1142,0,0
-49,-118,0,0,0,0,0,0,0,0,0,-1,1175,1142,0,0
-42,-118,0,0,0,0,0,0,0,0,0,-1,1182,1142,0,0
-35,-118,0,0,0,0,0,0,0,0,0,-1,1189,1142,0,0
-28,-118,0,0,0,0,0,0,0,0,0,-1,1196,1142,0,0
-21,-118,0,0,0,0,0,0,0,0,0,-1,1203,1142,0,0
-14,-118,0,0,0,0,0,0,0,0,0,-1,1210,1142,0,0
-7,-118,0,0,0,0,0,0,0,0,0,-1,1217,1142,0,0
0,-118,0,0,0,0,0,0,0,0,0,-1,1224,1142,0,0
7,-118,0,0,0,0,0,0,0,0,0,-1,1231,1142,0,0
14,-118,0,0,0,0,0,0,0,0,0,-1,1238,1142,0,0
21,-118,0,0,0,0,0,0,0,0,0,-1,1245,1142,0,0
28,-118,0,0,0,0,0,0,0,0,0,-1,1252,1142,0,0
35,-118,0,0,0,0,0,0,0,0,0,-1,1259,1142,0,0
42,-118,0,0,0,0,0,0,0,0,0,-1,1266,1142,0,0
49,-118,0,0,0,0,0,0,0,0,0,-1,1273,1142,0,0
56,-118,0,0,0,0,0,0,0,0,0,-1,1280,1142,0,0
63,-118,0,0,0,0,0,0,0,0,0,-1,1287,1142,0,0
70,-118,0,0,0,0,0,0,0,0,0,-1,1294,1142,0,0
77,-118,0,0,0,0,0,0,0,0,0,-1,1301,1142,0,0
84,-118,0,0,0,0,0,0,0,0,0,-1,1308,1142,0,0
91,-118,0,0,0,0,0,0,0,0,0,-1,1315,1142,0,0
98,-118,0,0,0,0,0,0,0,0,0,-1,1322,1142,0,0
105,-118,0,0,0,0,0,0,0,0,0,-1,1329,1142,0,0
112,-118,0,0,0,0,0,0,0,0,0,-1,1336,1142,0,0
119,-118,0,0,0,0,0,0,0,0,0,-1,1343,1142,0,0
126,-118,0,0,0,0,0,0,0,0,0,-1,1350,1142,0,0
133,-118,0,0,0,0,0,0,0,0,0,-1,1357,1142,0,0
140,-118,0,0,0,0,0,0,0,0,0,-1,1364,1142,0,0
147,-118,0,0,0,0,0,0,0,0,0,-1,1371,1142,0,0
154,-118,0,0,0,0,0,0,0,0,0,-1,1378,1142,0,0
161,-118,0,0,0,0,0,0,0,0,0,-1,1385,1142,0,0
168,-118,0,0,0,0,0,0,0,0,0,-1,1392,1142,0,0
175,-118,0,0,0,0,0,0,0,0,0,-1,1399,1142,0,0
182,-118,0,0,0,0,0,0,0,0,0,-1,1406,1142,0,0
189,-118,0,0,0,0,0,0,0,0,0,-1,1413,1142,0,0
196,-118,0,0,0,0,0,0,0,0,0,-1,1420,1142,0,0
203,-118,0,0,0,0,0,0,0,0,0,-1,1427,1142,0,0
210,-118,0,0,0,0,0,0,0,0,0,-1,1434,1142,0,0
217,-118,0,0,0,0,0,0,0,0,0,-1,1441,1142,0,0
224,-118,0,0,0,0,0,0,0,0,0,-1,1448,1142,0,0
231,-118,0,0,0,0,0,0,0,0,0,-1,1455,1142,0,0
238,-118,0,0,0,0,0,0,0,0,0,-1,1462,1142,0,0
245,-118,0,0,0,0,0,0,0,0,0,-1,1469,1142,0,0
252,-118,0,0,0,0,0,0,0,0,0,-1,1476,1142,0,0
259,-118,0,0,0,0,0,0,0,0,0,-1,1483,1142,0,0
266,-118,0,0,0,0,0,0,0,0,0,-1,1490,1142,0,0
273,-118,0,0,0,0,0,0,0,0,0,-1,1497,1142,0,0
280,-118,0,0,0,0,0,0,0,0,0,-1,1504,1142,0,0
287,-118,0,0,0,0,0,0,0,0,0,-1,1511,1142,0,0
294,-118,0,0,0,0,0,0,0,0,0,-1,1518,1142,0,0
301,-118,0,0,0,0,0,0,0,0,0,-1,1525,1142,0,0
308,-118,0,0,0,0,0,0,0,0,0,-1,1532,1142,0,0
315,-118,0,0,0,0,0,0,0,0,0,-1,1539,1142,0,0
322,-118,0,0,0,0,0,0,0,0,0,-1,1546,1142,0,0
329,-118,0,0,0,0,0,0,0,0,0,-1,1553,1142,0,0
336,-118,0,0,0,0,0,0,0,0,0,-1,1560,1142,0,0
343,-118,0,0,0,0,0,0,0,0,0,-1,1567,1142,0,0
350,-118,0,0,0,0,0,0,0,0,0,-1,1574,1142,0,0
357,-118,0,0,0,0,0,0,0,0,0,-1,1581,1142,0,0
364,-118,0,0,0,0,0,0,0,0,0,-1,1588,1142,0,0
371,-118,0,0,0,0,0,0,0,0,0,-1,1595,1142,0,0
378,-118,0,0,0,0,0,0,0,0,0,-1,1602,1142,0,0
385,-118,0,0,0,0,0,0,0,0,0,-1,1609,1142,0,0
392,-118,0,0,0,0,0,0,0,0,0,-1,1616,1142,0,0
399,-118,0,0,0,0,0,0,0,0,0,-1,1623,1142,0,0
406,-118,0,0,0,0,0,0,0,0,0,-1,1630,1142,0,0
413,-118,0,0,0,0,0,0,0,0,0,-1,1637,1142,0,0
420,-118,0,0,0,0,0,0,0,0,0,-1,1644,1142,0,0
427,-118,0,0,0,0,0,0,0,0,0,-1,1651,1142,0,0
434,-118,0,0,0,0,0,0,0,0,0,-1,1658,1142,0,0
441,-118,0,0,0,0,0,0,0,0,0,-1,1665,1142,0,0
448,-118,0,0,0,0,0,0,0,0,0,-1,1672,1142,0,0
455,-118,0,0,0,0,0,0,0,0,0,-1,1679,1142,0,0
462,-118,0,0,0,0,0,0,0,0,0,-1,1686,1142,0,0
469,-118,0,0,0,0,0,0,0,0,0,-1,1693,1142,0,0
476,-118,0,0,0,0,0,0,0,0,0,-1,1700,1142,0,0
483,-118,0,0,0,0,0,0,0,0,0,-1,1707,1142,0,0
490,-118,0,0,0,0,0,0,0,0,0,-1,1714,1142,0,0
497,-118,0,0,0,0,0,0,0,0,0,-1,1721,1142,0,0
504,-118,0,0,0,0,0,0,0,0,0,-1,1728,1142,0,0
511,-118,0,0,0,0,0,0,0,0,0,-1,1735,1142,0,0
518,-118,0,0,0,0,0,0,0,0,0,-1,1742,1142,0,0
525,-118,0,0,0,0,0,0,0,0,0,-1,1749,1142,0,0
532,-118,0,0,0,0,0,0,0,0,0,-1,1756,1142,0,0
539,-118,0,0,0,0,0,0,0,0,0,-1,1763,1142,0,0
546,-118,0,0,0,0,0,0,0,0,0,-1,1770,1142,0,0
553,-118,0,0,0,0,0,0,0,0,0,-1,1777,1142,0,0
560,-118,0,0,0,0,0,0,0,0,0,-1,1784,1142,0,0
567,-118,0,0,0,0,0,0,0,0,0,-1,1791,1142,0,0
574,-118,0,0,0,0,0,0,0,0,0,-1,1798,1142,0,0
581,-118,0,0,0,0,0,0,0,0,0,-1,1805,1142,0,0
588,-118,0,0,0,0,0,0,0,0,0,-1,1812,1142,0,0
595,-118,0,0,0,0,0,0,0,0,0,-1,1819,1142,0,0
602,-118,0,0,0,0,0,0,0,0,0,-1,1826,1142,0,0
609,-118,0,0,0,0,0,0,0,0,0,-1,1833,1142,0,0
616,-118,0,0,0,0,0,0,0,0,0,-1,1840,1142,0,0
623,-118,0,0,0,0,0,0,0,0,0,-1,1847,1142,0,0
630,-118,0,0,0,0,0,0,0,0,0,-1,1854,1142,0,0
637,-118,0,0,0,0,0,0,0,0,0,-1,1861,1142,0,0
644,-118,74.1388,2.35583,0.00609482,-0.00321221,-0.000324021,0.00610609,-0.00322348,-0.0347585,0.00547146,0.0422285,1868,1142,74.1388,-2.35579
651,-118,74.2001,2.15259,0.00422892,-0.00266568,0.000526757,0.00426893,-0.00270569,0.0758149,0.00406038,0.041571,1875,1142,74.2001,-2.15253
658,-118,74.3059,1.92493,0.00294891,-0.00208083,0.000885569,0.00310027,-0.00223219,0.169287,0.00309226,0.0422913,1882,1142,74.3059,-1.92493
665,-118,74.6183,1.77917,0.00184999,-0.00145265,0.000894149,0.00207653,-0.00167919,0.248137,0.00217241,0.0460327,1889,1142,74.6183,-1.77917
672,-118,74.4595,2.39636,0.000963643,-0.000767017,0.000615176,0.00116003,-0.000963401,0.309007,0.00122771,0.0480274,1896,1142,74.4594,-2.39635
679,-118,74.2639,2.40466,0.000521364,-0.000518228,0.000324621,0.000614403,-0.000611267,0.279126,0.000707641,0.0445183,1903,1142,74.2639,-2.40463
686,-118,74.2244,2.3457,0.000584884,-0.000587529,5.03302e-05,0.000587041,-0.000589685,0.0428237,0.000679384,0.0378513,1910,1142,74.2244,-2.34576
693,-118,74.2194,2.30298,0.000551081,-0.00072988,0.000101486,0.000559071,-0.00073787,0.0785729,0.000751158,0.0357674,1917,1142,74.2194,-2.30292
700,-118,74.3564,2.21472,0.000582124,-0.000836055,0.000250678,0.00062513,-0.00087906,0.169904,0.00087256,0.026369,1924,1142,74.3564,-2.21471
707,-118,74.429,2.22815,0,0,0,0,0,0,0,-1,1931,1142,74.4289,-2.22821
714,-118,50.4819,8.53809,0,0,0,0,0,0,0,-1,1938,1142,50.4819,-8.53809
721,-118,67.4596,9.72766,0,0,0,0,0,0,0,-1,1945,1142,67.4596,-9.72772
728,-118,67.4552,9.07007,-0.000341474,0.000181212,0.000769273,0.000732323,-0.000892585,0.949145,0.000939661,0.0225753,1952,1142,67.4552,-9.07003
735,-118,67.4312,8.47961,-0.000138272,7.80843e-05,0.00107294,0.00104829,-0.00110847,0.83564,0.00124537,0.0226059,1959,1142,67.4311,-8.47965
742,-118,67.4072,7.89563,-0.000153393,0.000386141,0.00148986,0.00163046,-0.00139771,0.874962,0.00175004,0.0350843,1966,1142,67.4072,-7.89567
749,-118,67.2531,7.25366,-0.000507765,0.00148329,0.0016039,0.0023755,-0.00139998,1.06315,0.0022039,0.0261242,1973,1142,67.253,-7.25371
756,-118,67.2537,6.60486,-0.000396199,0.00368264,0.00118289,0.00400086,-0.00071442,1.308,0.00293451,0.0193024,1980,1142,67.2537,-6.60488
763,-118,67.2642,6.01575,0.0012478,0.00739434,-0.000231442,0.00740304,0.00123909,-1.53321,0.00457856,0.0110305,1987,1142,67.2642,-6.01576
770,-118,67.1582,5.46045,0.00401983,0.0117776,-0.00242909,0.0124754,0.00332201,-1.29105,0.00746038,0.0149612,1994,1142,67.1581,-5.46045
777,-118,66.9854,4.86121,0.00788286,0.0166217,-0.00525645,0.0190877,0.00541693,-1.13215,0.0113585,0.0324243,2001,1142,66.9852,-4.86124
784,-118,66.8486,4.19482,0.0130659,0.0219699,-0.00882737,0.0274043,0.00763137,-1.01895,0.0163313,0.0427993,2008,1142,66.8485,-4.19487
791,-118,67.3108,2.40869,0.020043,0.0280145,-0.0134655,0.0380718,0.00998574,-0.929287,0.0227938,0.0491831,2015,1142,67.3108,-2.40869
798,-118,67.0002,1.41345,0.0293817,0.0350132,-0.0195342,0.0519335,0.0124614,-0.856977,0.0313064,0.0472401,2022,1142,67.0003,-1.4135
805,-118,66.6526,0.546631,0,0,0,0,0,0,0,-1,2029,1142,66.6526,-0.546572
812,-118,66.2295,-0.125,0,0,0,0,0,0,0,-1,2036,1142,66.2294,0.124987
-700,-125,0,0,0,0,0,0,0,0,0,-1,524,1149,0,0
-693,-125,-52.0666,-1.65869,0,0,0,0,0,0,0,-1,531,1149,-52.0666,1.65865
-686,-125,-51.5859,-0.932007,0,0,0,0,0,0,0,-1,538,1149,-51.5859,0.931968
-679,-125,-50.389,3.60535,0,0,0,0,0,0,0,-1,545,1149,-50.389,-3.60538
-672,-125,-51.4812,0.837402,0,0,0,0,0,0,0,-1,552,1149,-51.4812,-0.837451
-665,-125,-51.7069,1.74878,0,0,0,0,0,0,0,-1,559,1149,-51.7069,-1.74873
-658,-125,-51.1458,0.598511,0,0,0,0,0,0,0,-1,566,1149,-51.1457,-0.598532
-651,-125,-50.5517,2.00208,0.00780455,-0.0158752,0.00891501,0.0107856,-0.0188562,0.322698,0.0173239,0.0485536,573,1149,-50.5517,-2.00212
-644,-125,-50.0535,3.36499,0.00390639,-0.00781073,0.00496212,0.00572542,-0.00962975,0.351371,0.00896033,0.03675,580,1149,-50.0535,-3.36499
-637,-125,-50.2634,4.08215,0.000463244,-0.0028289,0.0018049,0.00125996,-0.00362562,0.415695,0.00292884,0.0155146,587,1149,-50.2634,-4.08217
-630,-125,-50.283,4.73547,-0.00288114,0.000151617,-0.000819131,0.000358718,-0.00308824,-1.32316,0.00218822,0.0157349,594,1149,-50.283,-4.73541
-623,-125,-50.2814,5.4082,-0.0059461,0.00148464,-0.00291942,0.00249442,-0.00695587,-1.2378,0.00565517,0.0143305,601,1149,-50.2814,-5.40826
-616,-125,-50.3502,5.97937,-0.00886021,0.000576664,-0.00434656,0.00227354,-0.0105571,-1.1986,0.00790564,0.0363932,608,1149,-50.3502,-5.9794
-609,-125,-50.6317,6.40381,0,0,0,0,0,0,0,-1,615,1149,-50.6317,-6.40384
-602,-125,-51.6302,7.12317,0,0,0,0,0,0,0,-1,622,1149,-51.6302,-7.12317
-595,-125,-50.6958,7.94312,0,0,0,0,0,0,0,-1,629,1149,-50.6958,-7.9431
-588,-125,-49.7614,8.76306,0,0,0,0,0,0,0,-1,636,1149,-49.7614,-8.76303
-581,-125,-26.4055,4.83203,0,0,0,0,0,0,0,-1,643,1149,-26.4055,-4.83204
-574,-125,-37.674,0.655151,0,0,0,0,0,0,0,-1,650,1149,-37.674,-0.655195
-567,-125,-57.1887,0.316284,0,0,0,0,0,0,0,-1,657,1149,-57.1886,-0.316236
-560,-125,-57.2225,0.271973,0,0,0,0,0,0,0,-1,664,1149,-57.2225,-0.272012
-553,-125,-57.1765,0.259644,0,0,0,0,0,0,0,-1,671,1149,-57.1765,-0.25963
-546,-125,-56.984,0.0766602,0,0,0,0,0,0,0,-1,678,1149,-56.984,-0.0766558
-539,-125,-57.093,0.217163,0,0,0,0,0,0,0,-1,685,1149,-57.0929,-0.217169
-532,-125,-57.3654,0.475952,0,0,0,0,0,0,0,-1,692,1149,-57.3654,-0.475948
-525,-125,-57.2079,0.392822,0,0,0,0,0,0,0,-1,699,1149,-57.2079,-0.392855
-518,-125,0,0,0,0,0,0,0,0,0,-1,706,1149,0,0
-511,-125,0,0,0,0,0,0,0,0,0,-1,713,1149,0,0
-504,-125,0,0,0,0,0,0,0,0,0,-1,720,1149,0,0
-497,-125,0,0,0,0,0,0,0,0,0,-1,727,1149,0,0
-490,-125,0,0,0,0,0,0,0,0,0,-1,734,1149,0,0
-483,-125,0,0,0,0,0,0,0,0,0,-1,741,1149,0,0
-476,-125,0,0,0,0,0,0,0,0,0,-1,748,1149,0,0
-469,-125,0,0,0,0,0,0,0,0,0,-1,755,1149,0,0
-462,-125,0,0,0,0,0,0,0,0,0,-1,762,1149,0,0
-455,-125,0,0,0,0,0,0,0,0,0,-1,769,1149,0,0
-448,-125,0,0,0,0,0,0,0,0,0,-1,776,1149,0,0
-441,-125,0,0,0,0,0,0,0,0,0,-1,783,1149,0,0
-434,-125,0,0,0,0,0,0,0,0,0,-1,790,1149,0,0
-427,-125,0,0,0,0,0,0,0,0,0,-1,797,1149,0,0
-420,-125,0,0,0,0,0,0,0,0,0,-1,804,1149,0,0
-413,-125,0,0,0,0,0,0,0,0,0,-1,811,1149,0,0
-406,-125,0,0,0,0,0,0,0,0,0,-1,818,1149,0,0
-399,-125,0,0,0,0,0,0,0,0,0,-1,825,1149,0,0
-392,-125,0,0,0,0,0,0,0,0,0,-1,832,1149,0,0
-385,-125,0,0,0,0,0,0,0,0,0,-1,839,1149,0,0
-378,-125,0,0,0,0,0,0,0,0,0,-1,846,1149,0,0
-371,-125,0,0,0,0,0,0,0,0,0,-1,853,1149,0,0
-364,-125,0,0,0,0,0,0,0,0,0,-1,860,1149,0,0
-357,-125,0,0,0,0,0,0,0,0,0,-1,867,1149,0,0
-350,-125,0,0,0,0,0,0,0,0,0,-1,874,1149,0,0
-343,-125,0,0,0,0,0,0,0,0,0,-1,881,1149,0,0
-336,-125,0,0,0,0,0,0,0,0,0,-1,888,1149,0,0
-329,-125,0,0,0,0,0,0,0,0,0,-1,895,1149,0,0
-322,-125,0,0,0,0,0,0,0,0,0,-1,902,1149,0,0
-315,-125,0,0,0,0,0,0,0,0,0,-1,909,1149,0,0
-308,-125,0,0,0,0,0,0,0,0,0,-1,916,1149,0,0
-301,-125,0,0,0,0,0,0,0,0,0,-1,923,1149,0,0
-294,-125,0,0,0,0,0,0,0,0,0,-1,930,1149,0,0
-287,-125,0,0,0,0,0,0,0,0,0,-1,937,1149,0,0
-280,-125,0,0,0,0,0,0,0,0,0,-1,944,1149,0,0
-273,-125,0,0,0,0,0,0,0,0,0,-1,951,1149,0,0
-266,-125,0,0,0,0,0,0,0,0,0,-1,958,1149,0,0
-259,-125,0,0,0,0,0,0,0,0,0,-1,965,1149,0,0
-252,-125,0,0,0,0,0,0,0,0,0,-1,972,1149,0,0
-245,-125,0,0,0,0,0,0,0,0,0,-1,979,1149,0,0
-238,-125,0,0,0,0,0,0,0,0,0,-1,986,1149,0,0
-231,-125,0,0,0,0,0,0,0,0,0,-1,993,1149,0,0
-224,-125,0,0,0,0,0,0,0,0,0,-1,1000,1149,0,0
-217,-125,0,0,0,0,0,0,0,0,0,-1,1007,1149,0,0
-210,-125,0,0,0,0,0,0,0,0,0,-1,1014,1149,0,0
-203,-125,0,0,0,0,0,0,0,0,0,-1,1021,1149,0,0
-196,-125,0,0,0,0,0,0,0,0,0,-1,1028,1149,0,0
-189,-125,0,0,0,0,0,0,0,0,0,-1,1035,1149,0,0
-182,-125,0,0,0,0,0,0,0,0,0,-1,1042,1149,0,0
-175,-125,0,0,0,0,0,0,0,0,0,-1,1049,1149,0,0
-168,-125,0,0,0,0,0,0,0,0,0,-1,1056,1149,0,0
-161,-125,0,0,0,0,0,0,0,0,0,-1,1063,1149,0,0
-154,-125,0,0,0,0,0,0,0,0,0,-1,1070,1149,0,0
-147,-125,0,0,0,0,0,0,0,0,0,-1,1077,1149,0,0
-140,-125,0,0,0,0,0,0,0,0,0,-1,1084,1149,0,0
-133,-125,0,0,0,0,0,0,0,0,0,-1,1091,1149,0,0
-126,-125,0,0,0,0,0,0,0,0,0,-1,1098,1149,0,0
-119,-125,0,0,0,0,0,0,0,0,0,-1,1105,1149,0,0
-112,-125,0,0,0,0,0,0,0,0,0,-1,1112,1149,0,0
-105,-125,0,0,0,0,0,0,0,0,0,-1,1119,1149,0,0
-98,-125,0,0,0,0,0,0,0,0,0,-1,1126,1149,0,0
-91,-125,0,0,0,0,0,0,0,0,0,-1,1133,1149,0,0
-84,-125,0,0,0,0,0,0,0,0,0,-1,1140,1149,0,0
-77,-125,0,0,0,0,0,0,0,0,0,-1,1147,1149,0,0
-70,-125,0,0,0,0,0,0,0,0,0,-1,1154,1149,0,0
-63,-125,0,0,0,0,0,0,0,0,0,-1,1161,1149,0,0
-56,-125,0,0,0,0,0,0,0,0,0,-1,1168,1149,0,0
-49,-125,0,0,0,0,0,0,0,0,0,-1,1175,1149,0,0
-42,-125,0,0,0,0,0,0,0,0,0,-1,1182,1149,0,0
-35,-125,0,0,0,0,0,0,0,0,0,-1,1189,1149,0,0
-28,-125,0,0,0,0,0,0,0,0,0,-1,1196,1149,0,0
-21,-125,0,0,0,0,0,0,0,0,0,-1,1203,1149,0,0
-14,-125,0,0,0,0,0,0,0,0,0,-1,1210,1149,0,0
-7,-125,0,0,0,0,0,0,0,0,0,-1,1217,1149,0,0
0,-125,0,0,0,0,0,0,0,0,0,-1,1224,1149,0,0
7,-125,0,0,0,0,0,0,0,0,0,-1,1231,1149,0,0
14,-125,0,0,0,0,0,0,0,0,0,-1,1238,1149,0,0
21,-125,0,0,0,0,0,0,0,0,0,-1,1245,1149,0,0
28,-125,0,0,0,0,0,0,0,0,0,-1,1252,1149,0,0
35,-125,0,0,0,0,0,0,0,0,0,-1,1259,1149,0,0
42,-125,0,0,0,0,0,0,0,0,0,-1,1266,1149,0,0
49,-125,0,0,0,0,0,0,0,0,0,-1,1273,1149,0,0
56,-125,0,0,0,0,0,0,0,0,0,-1,1280,1149,0,0
63,-125,0,0,0,0,0,0,0,0,0,-1,1287,1149,0,0
70,-125,0,0,0,0,0,0,0,0,0,-1,1294,1149,0,0
77,-125,0,0,0,0,0,0,0,0,0,-1,1301,1149,0,0
84,-125,0,0,0,0,0,0,0,0,0,-1,1308,1149,0,0
91,-125,0,0,0,0,0,0,0,0,0,-1,1315,1149,0,0
98,-125,0,0,0,0,0,0,0,0,0,-1,1322,1149,0,0
105,-125,0,0,0,0,0,0,0,0,0,-1,1329,1149,0,0
112,-125,0,0,0,0,0,0,0,0,0,-1,1336,1149,0,0
119,-125,0,0,0,0,0,0,0,0,0,-1,1343,1149,0,0
126,-125,0,0,0,0,0,0,0,0,0,-1,1350,1149,0,0
133,-125,0,0,0,0,0,0,0,0,0,-1,1357,1149,0,0
140,-125,0,0,0,0,0,0,0,0,0,-1,1364,1149,0,0
147,-125,0,0,0,0,0,0,0,0,0,-1,1371,1149,0,0
154,-125,0,0,0,0,0,0,0,0,0,-1,1378,1149,0,0
161,-125,0,0,0,0,0,0,0,0,0,-1,1385,1149,0,0
168,-125,0,0,0,0,0,0,0,0,0,-1,1392,1149,0,0
175,-125,0,0,0,0,0,0,0,0,0,-1,1399,1149,0,0
182,-125,0,0,0,0,0,0,0,0,0,-1,1406,1149,0,0
189,-125,0,0,0,0,0,0,0,0,0,-1,1413,1149,0,0
196,-125,0,0,0,0,0,0,0,0,0,-1,1420,1149,0,0
203,-125,0,0,0,0,0,0,0,0,0,-1,1427,1149,0,0
210,-125,0,0,0,0,0,0,0,0,0,-1,1434,1149,0,0
217,-125,0,0,0,0,0,0,0,0,0,-1,1441,1149,0,0
224,-125,0,0,0,0,0,0,0,0,0,-1,1448,1149,0,0
231,-125,0,0,0,0,0,0,0,0,0,-1,1455,1149,0,0
238,-125,0,0,0,0,0,0,0,0,0,-1,1462,1149,0,0
245,-125,0,0,0,0,0,0,0,0,0,-1,1469,1149,0,0
252,-125,0,0,0,0,0,0,0,0,0,-1,1476,1149,0,0
259,-125,0,0,0,0,0,0,0,0,0,-1,1483,1149,0,0
266,-125,0,0,0,0,0,0,0,0,0,-1,1490,1149,0,0
273,-125,0,0,0,0,0,0,0,0,0,-1,1497,1149,0,0
280,-125,0,0,0,0,0,0,0,0,0,-1,1504,1149,0,0
287,-125,0,0,0,0,0,0,0,0,0,-1,1511,1149,0,0
294,-125,0,0,0,0,0,0,0,0,0,-1,1518,1149,0,0
301,-125,0,0,0,0,0,0,0,0,0,-1,1525,1149,0,0
308,-125,0,0,0,0,0,0,0,0,0,-1,1532,1149,0,0
315,-125,0,0,0,0,0,0,0,0,0,-1,1539,1149,0,0
322,-125,0,0,0,0,0,0,0,0,0,-1,1546,1149,0,0
329,-125,0,0,0,0,0,0,0,0,0,-1,1553,1149,0,0
336,-125,0,0,0,0,0,0,0,0,0,-1,1560,1149,0,0
343,-125,0,0,0,0,0,0,0,0,0,-1,1567,1149,0,0
350,-125,0,0,0,0,0,0,0,0,0,-1,1574,1149,0,0
357,-125,0,0,0,0,0,0,0,0,0,-1,1581,1149,0,0
364,-125,0,0,0,0,0,0,0,0,0,-1,1588,1149,0,0
371,-125,0,0,0,0,0,0,0,0,0,-1,1595,1149,0,0
378,-125,0,0,0,0,0,0,0,0,0,-1,1602,1149,0,0
385,-125,0,0,0,0,0,0,0,0,0,-1,1609,1149,0,0
392,-125,0,0,0,0,0,0,0,0,0,-1,1616,1149,0,0
399,-125,0,0,0,0,0,0,0,0,0,-1,1623,1149,0,0
406,-125,0,0,0,0,0,0,0,0,0,-1,1630,1149,0,0
413,-125,0,0,0,0,0,0,0,0,0,-1,1637,1149,0,0
420,-125,0,0,0,0,0,0,0,0,0,-1,1644,1149,0,0
427,-125,0,0,0,0,0,0,0,0,0,-1,1651,1149,0,0
434,-125,0,0,0,0,0,0,0,0,0,-1,1658,1149,0,0
441,-125,0,0,0,0,0,0,0,0,0,-1,1665,1149,0,0
448,-125,0,0,0,0,0,0,0,0,0,-1,1672,1149,0,0
455,-125,0,0,0,0,0,0,0,0,0,-1,1679,1149,0,0
462,-125,0,0,0,0,0,0,0,0,0,-1,1686,1149,0,0
469,-125,0,0,0,0,0,0,0,0,0,-1,1693,1149,0,0
476,-125,0,0,0,0,0,0,0,0,0,-1,1700,1149,0,0
483,-125,0,0,0,0,0,0,0,0,0,-1,1707,1149,0,0
490,-125,0,0,0,0,0,0,0,0,0,-1,1714,1149,0,0
497,-125,0,0,0,0,0,0,0,0,0,-1,1721,1149,0,0
504,-125,0,0,0,0,0,0,0,0,0,-1,1728,1149,0,0
511,-125,0,0,0,0,0,0,0,0,0,-1,1735,1149,0,0
518,-125,0,0,0,0,0,0,0,0,0,-1,1742,1149,0,0
525,-125,0,0,0,0,0,0,0,0,0,-1,1749,1149,0,0
532,-125,0,0,0,0,0,0,0,0,0,-1,1756,1149,0,0
539,-125,0,0,0,0,0,0,0,0,0,-1,1763,1149,0,0
546,-125,0,0,0,0,0,0,0,0,0,-1,1770,1149,0,0
553,-125,0,0,0,0,0,0,0,0,0,-1,1777,1149,0,0
560,-125,0,0,0,0,0,0,0,0,0,-1,1784,1149,0,0
567,-125,0,0,0,0,0,0,0,0,0,-1,1791,1149,0,0
574,-125,0,0,0,0,0,0,0,0,0,-1,1798,1149,0,0
581,-125,0,0,0,0,0,0,0,0,0,-1,1805,1149,0,0
588,-125,0,0,0,0,0,0,0,0,0,-1,1812,1149,0,0
595,-125,0,0,0,0,0,0,0,0,0,-1,1819,1149,0,0
602,-125,0,0,0,0,0,0,0,0,0,-1,1826,1149,0,0
609,-125,0,0,0,0,0,0,0,0,0,-1,1833,1149,0,0
616,-125,0,0,0,0,0,0,0,0,0,-1,1840,1149,0,0
623,-125,0,0,0,0,0,0,0,0,0,-1,1847,1149,0,0
630,-125,0,0,0,0,0,0,0,0,0,-1,1854,1149,0,0
637,-125,0,0,0,0,0,0,0,0,0,-1,1861,1149,0,0
644,-125,74.2985,2.45618,0,0,0,0,0,0,0,-1,1868,1149,74.2985,-2.45613
651,-125,74.1039,2.38074,0,0,0,0,0,0,0,-1,1875,1149,74.1039,-2.38071
658,-125,74.1759,2.28235,0.00262025,-0.00208025,0.000812291,0.00275667,-0.00221666,0.166383,0.00287699,0.040069,1882,1149,74.1759,-2.28238
665,-125,74.3585,2.23792,0.00161291,-0.00141069,0.000764847,0.00179537,-0.00159315,0.234185,0.00195753,0.0442705,1889,1149,74.3585,-2.23787
672,-125,74.3372,2.32629,0.000809384,-0.0006762,0.000454425,0.000937363,-0.000804178,0.274518,0.00100646,0.0464555,1896,1149,74.3372,-2.32624
679,-125,74.2948,2.27588,0.000455248,-0.000435581,0.0001915,0.000494669,-0.000475002,0.203022,0.000559879,0.0423601,1903,1149,74.2947,-2.27593
686,-125,74.2761,2.21362,0.000704494,-0.000533282,-3.79996e-05,0.000705659,-0.000534448,-0.0306614,0.000718247,0.0373005,1910,1149,74.2762,-2.21363
693,-125,74.2424,2.18274,0.000744016,-0.000662506,8.0731e-05,0.000748635,-0.000667125,0.0571474,0.000817841,0.0333946,1917,1149,74.2424,-2.18272
700,-125,74.3213,2.17151,0.000790924,-0.000765246,0.000257223,0.000832339,-0.000806661,0.159637,0.000946316,0.021486,1924,1149,74.3213,-2.17152
707,-125,74.4271,2.14441,0,0,0,0,0,0,0,-1,1931,1149,74.4271,-2.14441
714,-125,54.8745,9.21375,0,0,0,0,0,0,0,-1,1938,1149,54.8746,-9.21371
721,-125,66.7544,9.7771,0,0,0,0,0,0,0,-1,1945,1149,66.7544,-9.7771
728,-125,66.7405,9.1814,8.14305e-05,0.000104866,0.000811362,0.000904595,-0.000718298,0.792619,0.000939033,0.0198912,1952,1149,66.7405,-9.18143
735,-125,66.749,8.60693,0.000400619,-0.000132857,0.00118244,0.00134603,-0.00107827,0.674464,0.00140252,0.0222579,1959,1149,66.749,-8.6069
742,-125,66.7445,8.0072,0.000366791,-7.51414e-05,0.00167313,0.00183349,-0.00154184,0.719745,0.00195117,0.0353018,1966,1149,66.7445,-8.00715
749,-125,66.595,7.39587,-0.000111686,0.000854641,0.0018011,0.00223626,-0.0014933,0.916443,0.00216746,0.028542,1973,1149,66.5949,-7.39592
756,-125,66.5786,6.61816,-7.74789e-05,0.00308482,0.00128515,0.00354123,-0.00053389,1.22955,0.00255743,0.0239659,1980,1149,66.5786,-6.61816
763,-125,66.5845,6.03015,0.00141849,0.0065347,-0.000155262,0.00653941,0.00141378,-1.54049,0.0039731,0.0129393,1987,1149,66.5845,-6.0301
770,-125,66.5156,5.41052,0.00393121,0.0104613,-0.00228905,0.0111837,0.00320874,-1.26507,0.00664953,0.0165882,1994,1149,66.5155,-5.41047
777,-125,66.4229,4.87646,0.00744566,0.014734,-0.00503661,0.0173065,0.00487312,-1.09857,0.0103048,0.0348037,2001,1149,66.4228,-4.87647
784,-125,66.3845,4.21692,0.012222,0.0193767,-0.00854642,0.0250643,0.00653443,-0.983608,0.0150131,0.0463496,2008,1149,66.3844,-4.21696
791,-125,66.4866,3.55798,0,0,0,0,0,0,0,-1,2015,1149,66.4866,-3.55797
798,-125,66.4773,0.347412,0,0,0,0,0,0,0,-1,2022,1149,66.4774,-0.347374
805,-125,65.9165,-0.781982,0,0,0,0,0,0,0,-1,2029,1149,65.9164,0.781935
812,-125,65.4446,2.48853,0,0,0,0,0,0,0,-1,2036,1149,65.4446,-2.48847
-700,-132,0,0,0,0,0,0,0,0,0,-1,524,1156,0,0
-693,-132,-50.3931,-2.87683,0,0,0,0,0,0,0,-1,531,1156,-50.3931,2.87686
-686,-132,-49.2416,-1.19788,0,0,0,0,0,0,0,-1,538,1156,-49.2416,1.19793
-679,-132,-49.5582,-0.322388,0,0,0,0,0,0,0,-1,545,1156,-49.5582,0.322427
-672,-132,-49.8145,0.505859,0,0,0,0,0,0,0,-1,552,1156,-49.8145,-0.505877
-665,-132,-50.067,1.3302,0,0,0,0,0,0,0,-1,559,1156,-50.067,-1.33022
-658,-132,-50.4838,0.818115,0,0,0,0,0,0,0,-1,566,1156,-50.4838,-0.818139
-651,-132,-49.9697,2.09949,0.0106446,-0.014939,0.00766254,0.012764,-0.0170585,0.269849,0.0172774,0.0466711,573,1156,-49.9697,-2.09948
-644,-132,-49.4818,3.34741,0.00609807,-0.00756843,0.00410871,0.0072382,-0.00870856,0.27068,0.0092199,0.0298682,580,1156,-49.4818,-3.34745
-637,-132,-49.5861,4.08252,0.00191485,-0.00285512,0.00120847,0.00220354,-0.00314381,0.234496,0.00310316,0.0146629,587,1156,-49.586,-4.08253
-630,-132,-49.5701,4.74268,-0.00215632,1.45149e-05,-0.00117447,0.000528322,-0.00267012,-1.1584,0.00197983,0.0109636,594,1156,-49.5701,-4.74273
-623,-132,-49.5798,5.43042,-0.00592446,0.0014235,-0.00306942,0.00253695,-0.00703791,-1.2228,0.00572802,0.0165076,601,1156,-49.5798,-5.43042
-616,-132,-49.7185,5.93408,-0.00947164,0.000988926,-0.00435349,0.00256369,-0.0110464,-1.22371,0.00835105,0.0447757,608,1156,-49.7185,-5.93404
-609,-132,-49.6554,6.8429,0,0,0,0,0,0,0,-1,615,1156,-49.6554,-6.84292
-602,-132,-47.9897,6.96521,0,0,0,0,0,0,0,-1,622,1156,-47.9897,-6.96522
-595,-132,-50.0681,8.18262,0,0,0,0,0,0,0,-1,629,1156,-50.068,-8.18261
-588,-132,-42.6534,6.92969,0,0,0,0,0,0,0,-1,636,1156,-42.6535,-6.92967
-581,-132,-35.9343,6.42957,0,0,0,0,0,0,0,-1,643,1156,-35.9342,-6.42957
-574,-132,-33.2071,2.86963,0,0,0,0,0,0,0,-1,650,1156,-33.2071,-2.86963
-567,-132,-57.104,0.197021,0,0,0,0,0,0,0,-1,657,1156,-57.104,-0.197068
-560,-132,-57.1876,0.235474,0,0,0,0,0,0,0,-1,664,1156,-57.1875,-0.235497
-553,-132,-57.2385,0.287598,0,0,0,0,0,0,0,-1,671,1156,-57.2385,-0.287617
-546,-132,-57.1573,0.133789,0,0,0,0,0,0,0,-1,678,1156,-57.1573,-0.133846
-539,-132,-57.1585,0.131104,0,0,0,0,0,0,0,-1,685,1156,-57.1585,-0.13107
-532,-132,-57.1649,0.295288,0,0,0,0,0,0,0,-1,692,1156,-57.1649,-0.295292
-525,-132,-57.2464,0.427979,0,0,0,0,0,0,0,-1,699,1156,-57.2464,-0.427978
-518,-132,0,0,0,0,0,0,0,0,0,-1,706,1156,0,0
-511,-132,0,0,0,0,0,0,0,0,0,-1,713,1156,0,0
-504,-132,0,0,0,0,0,0,0,0,0,-1,720,1156,0,0
-497,-132,0,0,0,0,0,0,0,0,0,-1,727,1156,0,0
-490,-132,0,0,0,0,0,0,0,0,0,-1,734,1156,0,0
-483,-132,0,0,0,0,0,0,0,0,0,-1,741,1156,0,0
-476,-132,0,0,0,0,0,0,0,0,0,-1,748,1156,0,0
-469,-132,0,0,0,0,0,0,0,0,0,-1,755,1156,0,0
-462,-132,0,0,0,0,0,0,0,0,0,-1,762,1156,0,0
-455,-132,0,0,0,0,0,0,0,0,0,-1,769,1156,0,0
-448,-132,0,0,0,0,0,0,0,0,0,-1,776,1156,0,0
-441,-132,0,0,0,0,0,0,0,0,0,-1,783,1156,0,0
-434,-132,0,0,0,0,0,0,0,0,0,-1,790,1156,0,0
-427,-132,0,0,0,0,0,0,0,0,0,-1,797,1156,0,0
-420,-132,0,0,0,0,0,0,0,0,0,-1,804,1156,0,0
-413,-132,0,0,0,0,0,0,0,0,0,-1,811,1156,0,0
-406,-132,0,0,0,0,0,0,0,0,0,-1,818,1156,0,0
-399,-132,0,0,0,0,0,0,0,0,0,-1,825,1156,0,0
-392,-132,0,0,0,0,0,0,0,0,0,-1,832,1156,0,0
-385,-132,0,0,0,0,0,0,0,0,0,-1,839,1156,0,0
-378,-132,0,0,0,0,0,0,0,0,0,-1,846,1156,0,0
-371,-132,0,0,0,0,0,0,0,0,0,-1,853,1156,0,0
-364,-132,0,0,0,0,0,0,0,0,0,-1,860,1156,0,0
-357,-132,0,0,0,0,0,0,0,0,0,-1,867,1156,0,0
-350,-132,0,0,0,0,0,0,0,0,0,-1,874,1156,0,0
-343,-132,0,0,0,0,0,0,0,0,0,-1,881,1156,0,0
-336,-132,0,0,0,0,0,0,0,0,0,-1,888,1156,0,0
-329,-132,0,0,0,0,0,0,0,0,0,-1,895,1156,0,0
-322,-132,0,0,0,0,0,0,0,0,0,-1,902,1156,0,0
-315,-132,0,0,0,0,0,0,0,0,0,-1,909,1156,0,0
-308,-132,0,0,0,0,0,0,0,0,0,-1,916,1156,0,0
-301,-132,0,0,0,0,0,0,0,0,0,-1,923,1156,0,0
-294,-132,0,0,0,0,0,0,0,0,0,-1,930,1156,0,0
-287,-132,0,0,0,0,0,0,0,0,0,-1,937,1156,0,0
-280,-132,0,0,0,0,0,0,0,0,0,-1,944,1156,0,0
-273,-132,0,0,0,0,0,0,0,0,0,-1,951,1156,0,0
-266,-132,0,0,0,0,0,0,0,0,0,-1,958,1156,0,0
-259,-132,0,0,0,0,0,0,0,0,0,-1,965,1156,0,0
-252,-132,0,0,0,0,0,0,0,0,0,-1,972,1156,0,0
-245,-132,0,0,0,0,0,0,0,0,0,-1,979,1156,0,0
-238,-132,0,0,0,0,0,0,0,0,0,-1,986,1156,0,0
-231,-132,0,0,0,0,0,0,0,0,0,-1,993,1156,0,0
-224,-132,0,0,0,0,0,0,0,0,0,-1,1000,1156,0,0
-217,-132,0,0,0,0,0,0,0,0,0,-1,1007,1156,0,0
-210,-132,0,0,0,0,0,0,0,0,0,-1,1014,1156,0,0
-203,-132,0,0,0,0,0,0,0,0,0,-1,1021,1156,0,0
-196,-132,0,0,0,0,0,0,0,0,0,-1,1028,1156,0,0
-189,-132,0,0,0,0,0,0,0,0,0,-1,1035,1156,0,0
-182,-132,0,0,0,0,0,0,0,0,0,-1,1042,1156,0,0
-175,-132,0,0,0,0,0,0,0,0,0,-1,1049,1156,0,0
-168,-132,0,0,0,0,0,0,0,0,0,-1,1056,1156,0,0
-161,-132,0,0,0,0,0,0,0,0,0,-1,1063,1156,0,0
-154,-132,0,0,0,0,0,0,0,0,0,-1,1070,1156,0,0
-147,-132,0,0,0,0,0,0,0,0,0,-1,1077,1156,0,0
-140,-132,0,0,0,0,0,0,0,0,0,-1,1084,1156,0,0
-133,-132,0,0,0,0,0,0,0,0,0,-1,1091,1156,0,0
-126,-132,0,0,0,0,0,0,0,0,0,-1,1098,1156,0,0
-119,-132,0,0,0,0,0,0,0,0,0,-1,1105,1156,0,0
-112,-132,0,0,0,0,0,0,0,0,0,-1,1112,1156,0,0
-105,-132,0,0,0,0,0,0,0,0,0,-1,1119,1156,0,0
-98,-132,0,0,0,0,0,0,0,0,0,-1,1126,1156,0,0
-91,-132,0,0,0,0,0,0,0,0,0,-1,1133,1156,0,0
-84,-132,0,0,0,0,0,0,0,0,0,-1,1140,1156,0,0
-77,-132,0,0,0,0,0,0,0,0,0,-1,1147,1156,0,0
-70,-132,0,0,0,0,0,0,0,0,0,-1,1154,1156,0,0
-63,-132,0,0,0,0,0,0,0,0,0,-1,1161,1156,0,0
-56,-132,0,0,0,0,0,0,0,0,0,-1,1168,1156,0,0
-49,-132,0,0,0,0,0,0,0,0,0,-1,1175,1156,0,0
-42,-132,0,0,0,0,0,0,0,0,0,-1,1182,1156,0,0
-35,-132,0,0,0,0,0,0,0,0,0,-1,1189,1156,0,0
-28,-132,0,0,0,0,0,0,0,0,0,-1,1196,1156,0,0
-21,-132,0,0,0,0,0,0,0,0,0,-1,1203,1156,0,0
-14,-132,0,0,0,0,0,0,0,0,0,-1,1210,1156,0,0
-7,-132,0,0,0,0,0,0,0,0,0,-1,1217,1156,0,0
0,-132,0,0,0,0,0,0,0,0,0,-1,1224,1156,0,0
7,-132,0,0,0,0,0,0,0,0,0,-1,1231,1156,0,0
14,-132,0,0,0,0,0,0,0,0,0,-1,1238,1156,0,0
21,-132,0,0,0,0,0,0,0,0,0,-1,1245,1156,0,0
28,-132,0,0,0,0,0,0,0,0,0,-1,1252,1156,0,0
35,-132,0,0,0,0,0,0,0,0,0,-1,1259,1156,0,0
42,-132,0,0,0,0,0,0,0,0,0,-1,1266,1156,0,0
49,-132,0,0,0,0,0,0,0,0,0,-1,1273,1156,0,0
56,-132,0,0,0,0,0,0,0,0,0,-1,1280,1156,0,0
63,-132,0,0,0,0,0,0,0,0,0,-1,1287,1156,0,0
70,-132,0,0,0,0,0,0,0,0,0,-1,1294,1156,0,0
77,-132,0,0,0,0,0,0,0,0,0,-1,1301,1156,0,0
84,-132,0,0,0,0,0,0,0,0,0,-1,1308,1156,0,0
91,-132,0,0,0,0,0,0,0,0,0,-1,1315,1156,0,0
98,-132,0,0,0,0,0,0,0,0,0,-1,1322,1156,0,0
105,-132,0,0,0,0,0,0,0,0,0,-1,1329,1156,0,0
112,-132,0,0,0,0,0,0,0,0,0,-1,1336,1156,0,0
119,-132,0,0,0,0,0,0,0,0,0,-1,1343,1156,0,0
126,-132,0,0,0,0,0,0,0,0,0,-1,1350,1156,0,0
133,-132,0,0,0,0,0,0,0,0,0,-1,1357,1156,0,0
140,-132,0,0,0,0,0,0,0,0,0,-1,1364,1156,0,0
147,-132,0,0,0,0,0,0,0,0,0,-1,1371,1156,0,0
154,-132,0,0,0,0,0,0,0,0,0,-1,1378,1156,0,0
161,-132,0,0,0,0,0,0,0,0,0,-1,1385,1156,0,0
168,-132,0,0,0,0,0,0,0,0,0,-1,1392,1156,0,0
175,-132,0,0,0,0,0,0,0,0,0,-1,1399,1156,0,0
182,-132,0,0,0,0,0,0,0,0,0,-1,1406,1156,0,0
189,-132,0,0,0,0,0,0,0,0,0,-1,1413,1156,0,0
196,-132,0,0,0,0,0,0,0,0,0,-1,1420,1156,0,0
203,-132,0,0,0,0,0,0,0,0,0,-1,1427,1156,0,0
210,-132,0,0,0,0,0,0,0,0,0,-1,1434,1156,0,0
217,-132,0,0,0,0,0,0,0,0,0,-1,1441,1156,0,0
224,-132,0,0,0,0,0,0,0,0,0,-1,1448,1156,0,0
231,-132,0,0,0,0,0,0,0,0,0,-1,1455,1156,0,0
238,-132,0,0,0,0,0,0,0,0,0,-1,1462,1156,0,0
245,-132,0,0,0,0,0,0,0,0,0,-1,1469,1156,0,0
252,-132,0,0,0,0,0,0,0,0,0,-1,1476,1156,0,0
259,-132,0,0,0,0,0,0,0,0,0,-1,1483,1156,0,0
266,-132,0,0,0,0,0,0,0,0,0,-1,1490,1156,0,0
273,-132,0,0,0,0,0,0,0,0,0,-1,1497,1156,0,0
280,-132,0,0,0,0,0,0,0,0,0,-1,1504,1156,0,0
287,-132,0,0,0,0,0,0,0,0,0,-1,1511,1156,0,0
294,-132,0,0,0,0,0,0,0,0,0,-1,1518,1156,0,0
301,-132,0,0,0,0,0,0,0,0,0,-1,1525,1156,0,0
308,-132,0,0,0,0,0,0,0,0,0,-1,1532,1156,0,0
315,-132,0,0,0,0,0,0,0,0,0,-1,1539,1156,0,0
322,-132,0,0,0,0,0,0,0,0,0,-1,1546,1156,0,0
329,-132,0,0,0,0,0,0,0,0,0,-1,1553,1156,0,0
336,-132,0,0,0,0,0,0,0,0,0,-1,1560,1156,0,0
343,-132,0,0,0,0,0,0,0,0,0,-1,1567,1156,0,0
350,-132,0,0,0,0,0,0,0,0,0,-1,1574,1156,0,0
357,-132,0,0,0,0,0,0,0,0,0,-1,1581,1156,0,0
364,-132,0,0,0,0,0,0,0,0,0,-1,1588,1156,0,0
371,-132,0,0,0,0,0,0,0,0,0,-1,1595,1156,0,0
378,-132,0,0,0,0,0,0,0,0,0,-1,1602,1156,0,0
385,-132,0,0,0,0,0,0,0,0,0,-1,1609,1156,0,0
392,-132,0,0,0,0,0,0,0,0,0,-1,1616,1156,0,0
399,-132,0,0,0,0,0,0,0,0,0,-1,1623,1156,0,0
406,-132,0,0,0,0,0,0,0,0,0,-1,1630,1156,0,0
413,-132,0,0,0,0,0,0,0,0,0,-1,1637,1156,0,0
420,-132,0,0,0,0,0,0,0,0,0,-1,1644,1156,0,0
427,-132,0,0,0,0,0,0,0,0,0,-1,1651,1156,0,0
434,-132,0,0,0,0,0,0,0,0,0,-1,1658,1156,0,0
441,-132,0,0,0,0,0,0,0,0,0,-1,1665,1156,0,0
448,-132,0,0,0,0,0,0,0,0,0,-1,1672,1156,0,0
455,-132,0,0,0,0,0,0,0,0,0,-1,1679,1156,0,0
462,-132,0,0,0,0,0,0,0,0,0,-1,1686,1156,0,0
469,-132,0,0,0,0,0,0,0,0,0,-1,1693,1156,0,0
476,-132,0,0,0,0,0,0,0,0,0,-1,1700,1156,0,0
483,-132,0,0,0,0,0,0,0,0,0,-1,1707,1156,0,0
490,-132,0,0,0,0,0,0,0,0,0,-1,1714,1156,0,0
497,-132,0,0,0,0,0,0,0,0,0,-1,1721,1156,0,0
504,-132,0,0,0,0,0,0,0,0,0,-1,1728,1156,0,0
511,-132,0,0,0,0,0,0,0,0,0,-1,1735,1156,0,0
518,-132,0,0,0,0,0,0,0,0,0,-1,1742,1156,0,0
525,-132,0,0,0,0,0,0,0,0,0,-1,1749,1156,0,0
532,-132,0,0,0,0,0,0,0,0,0,-1,1756,1156,0,0
539,-132,0,0,0,0,0,0,0,0,0,-1,1763,1156,0,0
546,-132,0,0,0,0,0,0,0,0,0,-1,1770,1156,0,0
553,-132,0,0,0,0,0,0,0,0,0,-1,1777,1156,0,0
560,-132,0,0,0,0,0,0,0,0,0,-1,1784,1156,0,0
567,-132,0,0,0,0,0,0,0,0,0,-1,1791,1156,0,0
574,-132,0,0,0,0,0,0,0,0,0,-1,1798,1156,0,0
581,-132,0,0,0,0,0,0,0,0,0,-1,1805,1156,0,0
588,-132,0,0,0,0,0,0,0,0,0,-1,1812,1156,0,0
595,-132,0,0,0,0,0,0,0,0,0,-1,1819,1156,0,0
602,-132,0,0,0,0,0,0,0,0,0,-1,1826,1156,0,0
609,-132,0,0,0,0,0,0,0,0,0,-1,1833,1156,0,0
616,-132,0,0,0,0,0,0,0,0,0,-1,1840,1156,0,0
623,-132,0,0,0,0,0,0,0,0,0,-1,1847,1156,0,0
630,-132,0,0,0,0,0,0,0,0,0,-1,1854,1156,0,0
637,-132,0,0,0,0,0,0,0,0,0,-1,1861,1156,0,0
644,-132,74.4573,2.32275,0.00482035,-0.00274281,-0.000323489,0.00483416,-0.00275662,-0.0426678,0.00443692,0.0417924,1868,1156,74.4573,-2.32279
651,-132,74.1653,2.31506,0.00336272,-0.00237502,0.000349269,0.0033839,-0.0023962,0.0605742,0.00335334,0.0429762,1875,1156,74.1653,-2.31507
658,-132,74.1749,2.28101,0.00232239,-0.00186674,0.000613635,0.00241043,-0.00195478,0.142495,0.00252483,0.0422394,1882,1156,74.1749,-2.28098
665,-132,74.2902,2.3512,0.00143071,-0.00123776,0.00056797,0.00154657,-0.00135362,0.201227,0.00167566,0.0405284,1889,1156,74.2901,-2.35121
672,-132,74.394,2.26294,0.000732804,-0.000491933,0.000246587,0.000780587,-0.000539717,0.191406,0.000766495,0.0394414,1896,1156,74.394,-2.26289
679,-132,74.3656,2.14063,0.000464811,-0.000228538,-1.69369e-05,0.000465225,-0.000228952,-0.0244083,0.000408448,0.0396417,1903,1156,74.3657,-2.14064
686,-132,74.3517,2.20532,0.000829255,-0.000365061,-0.000208346,0.000864556,-0.000400363,-0.167845,0.000746513,0.0359962,1910,1156,74.3517,-2.20526
693,-132,74.2711,2.26685,0.000889194,-0.000514132,-6.41245e-06,0.000889223,-0.000514162,-0.00456934,0.000819833,0.0281428,1917,1156,74.2711,-2.26684
700,-132,74.3091,2.18872,0,0,0,0,0,0,0,-1,1924,1156,74.3091,-2.1887
707,-132,57.9275,3.01367,0,0,0,0,0,0,0,-1,1931,1156,57.9275,-3.01369
714,-132,57.8083,9.22156,0,0,0,0,0,0,0,-1,1938,1156,57.8084,-9.22151
721,-132,66.1422,9.78381,0,0,0,0,0,0,0,-1,1945,1156,66.1422,-9.78387
728,-132,66.0355,9.30347,0.000383853,0.00012383,0.000840878,0.00110471,-0.000597028,0.708698,0.000996966,0.0307354,1952,1156,66.0356,-9.30342
735,-132,65.9994,8.68079,0.000774669,-0.000239313,0.0012954,0.00165876,-0.0011234,0.598873,0.00161616,0.031341,1959,1156,65.9994,-8.68084
742,-132,66.0042,8.01965,0.000704325,-0.000445762,0.00187949,0.00209478,-0.00183621,0.636942,0.00227119,0.0278844,1966,1156,66.0041,-8.01968
749,-132,65.954,7.3479,0.000166767,0.000315671,0.00206595,0.00230851,-0.00182607,0.803409,0.00239251,0.0282748,1973,1156,65.954,-7.34787
756,-132,65.9192,6.64832,0.000281561,0.00245756,0.00151739,0.00323671,-0.000497582,1.09643,0.00234136,0.0259278,1980,1156,65.9192,-6.64833
763,-132,65.8887,6.04395,0.00172767,0.00537489,0.000177533,0.00538351,0.00171905,1.52227,0.0031751,0.0146407,1987,1156,65.8888,-6.04392
770,-132,65.8936,5.45557,0.00406882,0.0085133,-0.00175755,0.00912431,0.00345781,-1.23622,0.00531912,0.0146265,1994,1156,65.8937,-5.45556
777,-132,65.8408,4.81812,0.00730217,0.0117778,-0.00426781,0.0143589,0.00472107,-1.02687,0.00845059,0.0266563,2001,1156,65.8408,-4.81807
784,-132,65.7683,4.17603,0.0116863,0.0151003,-0.00750576,0.0210907,0.00569588,-0.897211,0.0125986,0.0461477,2008,1156,65.7684,-4.17602
791,-132,65.8276,3.51196,0,0,0,0,0,0,0,-1,2015,1156,65.8276,-3.51199
798,-132,64.5659,3.46094,0.0253085,0.0221703,-0.0174953,0.0413049,0.00617388,-0.740674,0.0257268,0.0494453,2022,1156,64.5659,-3.46093
805,-132,64.938,3.35278,0.0352894,0.0258096,-0.0250551,0.056049,0.00505001,-0.691914,0.0358016,0.0441779,2029,1156,64.938,-3.35273
812,-132,65.3835,3.17651,0,0,0,0,0,0,0,-1,2036,1156,65.3834,-3.17654
-700,-139,0,0,0,0,0,0,0,0,0,-1,524,1163,0,0
-693,-139,-55.8262,1.69946,0,0,0,0,0,0,0,-1,531,1163,-55.8262,-1.69949
-686,-139,-55.899,2.06702,0,0,0,0,0,0,0,-1,538,1163,-55.899,-2.06704
-679,-139,-47.8736,-0.692749,0,0,0,0,0,0,0,-1,545,1163,-47.8736,0.692809
-672,-139,-48.1745,0.124023,0,0,0,0,0,0,0,-1,552,1163,-48.1745,-0.124029
-665,-139,-48.4497,0.950684,0,0,0,0,0,0,0,-1,559,1163,-48.4497,-0.950691
-658,-139,-48.239,1.87109,0,0,0,0,0,0,0,-1,566,1163,-48.239,-1.87108
-651,-139,-48.8568,2.57971,0,0,0,0,0,0,0,-1,573,1163,-48.8568,-2.57977
-644,-139,-48.7651,3.40869,0.00765434,-0.00699871,0.0025053,0.00807084,-0.00741521,0.164742,0.00894355,0.0310249,580,1163,-48.7651,-3.40873
-637,-139,-48.8462,4.05933,0.00304789,-0.00269557,0.000152242,0.00305193,-0.0026996,0.0264822,0.00332272,0.0170202,587,1163,-48.8462,-4.05934
-630,-139,-48.8705,4.74744,-0.0013654,-7.27039e-05,-0.00172244,0.00112066,-0.00255877,-0.964894,0.00217774,0.0107166,594,1163,-48.8705,-4.74747
-623,-139,-48.8691,5.42407,-0.00543168,0.00131096,-0.00319787,0.00258638,-0.0067071,-1.1913,0.00553862,0.0176391,601,1163,-48.869,-5.4241
-616,-139,-48.979,6.09924,-0.00918985,0.00126637,-0.00420695,0.00274882,-0.0106723,-1.232,0.00818644,0.0219738,608,1163,-48.979,-6.09922
-609,-139,-49.1506,6.83533,0,0,0,0,0,0,0,-1,615,1163,-49.1506,-6.83538
-602,-139,-47.2356,7.01514,0,0,0,0,0,0,0,-1,622,1163,-47.2356,-7.01517
-595,-139,-47.4487,7.65039,0,0,0,0,0,0,0,-1,629,1163,-47.4487,-7.6504
-588,-139,-47.801,8.16858,0,0,0,0,0,0,0,-1,636,1163,-47.801,-8.16855
-581,-139,-34.4892,6.72473,0,0,0,0,0,0,0,-1,643,1163,-34.4892,-6.72476
-574,-139,-23.0725,2.4043,0,0,0,0,0,0,0,-1,650,1163,-23.0725,-2.40433
-567,-139,-57.1301,0.2771,0,0,0,0,0,0,0,-1,657,1163,-57.1301,-0.277099
-560,-139,-57.1468,0.236694,0,0,0,0,0,0,0,-1,664,1163,-57.1468,-0.23672
-553,-139,-57.212,0.125488,0,0,0,0,0,0,0,-1,671,1163,-57.212,-0.125539
-546,-139,-57.2457,0.081543,0,0,0,0,0,0,0,-1,678,1163,-57.2457,-0.0814831
-539,-139,-57.2458,0.117554,0,0,0,0,0,0,0,-1,685,1163,-57.2458,-0.117548
-532,-139,-57.1951,0.278076,0,0,0,0,0,0,0,-1,692,1163,-57.1951,-0.278069
-525,-139,-57.1685,0.289429,0,0,0,0,0,0,0,-1,699,1163,-57.1685,-0.28947
-518,-139,0,0,0,0,0,0,0,0,0,-1,706,1163,0,0
-511,-139,0,0,0,0,0,0,0,0,0,-1,713,1163,0,0
-504,-139,0,0,0,0,0,0,0,0,0,-1,720,1163,0,0
-497,-139,0,0,0,0,0,0,0,0,0,-1,727,1163,0,0
-490,-139,0,0,0,0,0,0,0,0,0,-1,734,1163,0,0
-483,-139,0,0,0,0,0,0,0,0,0,-1,741,1163,0,0
-476,-139,0,0,0,0,0,0,0,0,0,-1,748,1163,0,0
-469,-139,0,0,0,0,0,0,0,0,0,-1,755,1163,0,0
-462,-139,0,0,0,0,0,0,0,0,0,-1,762,1163,0,0
-455,-139,0,0,0,0,0,0,0,0,0,-1,769,1163,0,0
-448,-139,0,0,0,0,0,0,0,0,0,-1,776,1163,0,0
-441,-139,0,0,0,0,0,0,0,0,0,-1,783,1163,0,0
-434,-139,0,0,0,0,0,0,0,0,0,-1,790,1163,0,0
-427,-139,0,0,0,0,0,0,0,0,0,-1,797,1163,0,0
-420,-139,0,0,0,0,0,0,0,0,0,-1,804,1163,0,0
-413,-139,0,0,0,0,0,0,0,0,0,-1,811,1163,0,0
-406,-139,0,0,0,0,0,0,0,0,0,-1,818,1163,0,0
-399,-139,0,0,0,0,0,0,0,0,0,-1,825,1163,0,0
-392,-139,0,0,0,0,0,0,0,0,0,-1,832,1163,0,0
-385,-139,0,0,0,0,0,0,0,0,0,-1,839,1163,0,0
-378,-139,0,0,0,0,0,0,0,0,0,-1,846,1163,0,0
-371,-139,0,0,0,0,0,0,0,0,0,-1,853,1163,0,0
-364,-139,0,0,0,0,0,0,0,0,0,-1,860,1163,0,0
-357,-139,0,0,0,0,0,0,0,0,0,-1,867,1163,0,0
-350,-139,0,0,0,0,0,0,0,0,0,-1,874,1163,0,0
-343,-139,0,0,0,0,0,0,0,0,0,-1,881,1163,0,0
-336,-139,0,0,0,0,0,0,0,0,0,-1,888,1163,0,0
-329,-139,0,0,0,0,0,0,0,0,0,-1,895,1163,0,0
-322,-139,0,0,0,0,0,0,0,0,0,-1,902,1163,0,0
-315,-139,0,0,0,0,0,0,0,0,0,-1,909,1163,0,0
-308,-139,0,0,0,0,0,0,0,0,0,-1,916,1163,0,0
-301,-139,0,0,0,0,0,0,0,0,0,-1,923,1163,0,0
-294,-139,0,0,0,0,0,0,0,0,0,-1,930,1163,0,0
-287,-139,0,0,0,0,0,0,0,0,0,-1,937,1163,0,0
-280,-139,0,0,0,0,0,0,0,0,0,-1,944,1163,0,0
-273,-139,0,0,0,0,0,0,0,0,0,-1,951,1163,0,0
-266,-139,0,0,0,0,0,0,0,0,0,-1,958,1163,0,0
-259,-139,0,0,0,0,0,0,0,0,0,-1,965,1163,0,0
-252,-139,0,0,0,0,0,0,0,0,0,-1,972,1163,0,0
-245,-139,0,0,0,0,0,0,0,0,0,-1,979,1163,0,0
-238,-139,0,0,0,0,0,0,0,0,0,-1,986,1163,0,0
-231,-139,0,0,0,0,0,0,0,0,0,-1,993,1163,0,0
-224,-139,0,0,0,0,0,0,0,0,0,-1,1000,1163,0,0
-217,-139,0,0,0,0,0,0,0,0,0,-1,1007,1163,0,0
-210,-139,0,0,0,0,0,0,0,0,0,-1,1014,1163,0,0
-203,-139,0,0,0,0,0,0,0,0,0,-1,1021,1163,0,0
-196,-139,0,0,0,0,0,0,0,0,0,-1,1028,1163,0,0
-189,-139,0,0,0,0,0,0,0,0,0,-1,1035,1163,0,0
-182,-139,0,0,0,0,0,0,0,0,0,-1,1042,1163,0,0
-175,-139,0,0,0,0,0,0,0,0,0,-1,1049,1163,0,0
-168,-139,0,0,0,0,0,0,0,0,0,-1,1056,1163,0,0
-161,-139,0,0,0,0,0,0,0,0,0,-1,1063,1163,0,0
-154,-139,0,0,0,0,0,0,0,0,0,-1,1070,1163,0,0
-147,-139,0,0,0,0,0,0,0,0,0,-1,1077,1163,0,0
-140,-139,0,0,0,0,0,0,0,0,0,-1,1084,1163,0,0
-133,-139,0,0,0,0,0,0,0,0,0,-1,1091,1163,0,0
-126,-139,0,0,0,0,0,0,0,0,0,-1,1098,1163,0,0
-119,-139,0,0,0,0,0,0,0,0,0,-1,1105,1163,0,0
-112,-139,0,0,0,0,0,0,0,0,0,-1,1112,1163,0,0
-105,-139,0,0,0,0,0,0,0,0,0,-1,1119,1163,0,0
-98,-139,0,0,0,0,0,0,0,0,0,-1,1126,1163,0,0
-91,-139,0,0,0,0,0,0,0,0,0,-1,1133,1163,0,0
-84,-139,0,0,0,0,0,0,0,0,0,-1,1140,1163,0,0
-77,-139,0,0,0,0,0,0,0,0,0,-1,1147,1163,0,0
-70,-139,0,0,0,0,0,0,0,0,0,-1,1154,1163,0,0
-63,-139,0,0,0,0,0,0,0,0,0,-1,1161,1163,0,0
-56,-139,0,0,0,0,0,0,0,0,0,-1,1168,1163,0,0
-49,-139,0,0,0,0,0,0,0,0,0,-1,1175,1163,0,0
-42,-139,0,0,0,0,0,0,0,0,0,-1,1182,1163,0,0
-35,-139,0,0,0,0,0,0,0,0,0,-1,1189,1163,0,0
-28,-139,0,0,0,0,0,0,0,0,0,-1,1196,1163,0,0
-21,-139,0,0,0,0,0,0,0,0,0,-1,1203,1163,0,0
-14,-139,0,0,0,0,0,0,0,0,0,-1,1210,1163,0,0
-7,-139,0,0,0,0,0,0,0,0,0,-1,1217,1163,0,0
0,-139,0,0,0,0,0,0,0,0,0,-1,1224,1163,0,0
7,-139,0,0,0,0,0,0,0,0,0,-1,1231,1163,0,0
14,-139,0,0,0,0,0,0,0,0,0,-1,1238,1163,0,0
21,-139,0,0,0,0,0,0,0,0,0,-1,1245,1163,0,0
28,-139,0,0,0,0,0,0,0,0,0,-1,1252,1163,0,0
35,-139,0,0,0,0,0,0,0,0,0,-1,1259,1163,0,0
42,-139,0,0,0,0,0,0,0,0,0,-1,1266,1163,0,0
49,-139,0,0,0,0,0,0,0,0,0,-1,1273,1163,0,0
56,-139,0,0,0,0,0,0,0,0,0,-1,1280,1163,0,0
63,-139,0,0,0,0,0,0,0,0,0,-1,1287,1163,0,0
70,-139,0,0,0,0,0,0,0,0,0,-1,1294,1163,0,0
77,-139,0,0,0,0,0,0,0,0,0,-1,1301,1163,0,0
84,-139,0,0,0,0,0,0,0,0,0,-1,1308,1163,0,0
91,-139,0,0,0,0,0,0,0,0,0,-1,1315,1163,0,0
98,-139,0,0,0,0,0,0,0,0,0,-1,1322,1163,0,0
105,-139,0,0,0,0,0,0,0,0,0,-1,1329,1163,0,0
112,-139,0,0,0,0,0,0,0,0,0,-1,1336,1163,0,0
119,-139,0,0,0,0,0,0,0,0,0,-1,1343,1163,0,0
126,-139,0,0,0,0,0,0,0,0,0,-1,1350,1163,0,0
133,-139,0,0,0,0,0,0,0,0,0,-1,1357,1163,0,0
140,-139,0,0,0,0,0,0,0,0,0,-1,1364,1163,0,0
147,-139,0,0,0,0,0,0,0,0,0,-1,1371,1163,0,0
154,-139,0,0,0,0,0,0,0,0,0,-1,1378,1163,0,0
161,-139,0,0,0,0,0,0,0,0,0,-1,1385,1163,0,0
168,-139,0,0,0,0,0,0,0,0,0,-1,1392,1163,0,0
175,-139,0,0,0,0,0,0,0,0,0,-1,1399,1163,0,0
182,-139,0,0,0,0,0,0,0,0,0,-1,1406,1163,0,0
189,-139,0,0,0,0,0,0,0,0,0,-1,1413,1163,0,0
196,-139,0,0,0,0,0,0,0,0,0,-1,1420,1163,0,0
203,-139,0,0,0,0,0,0,0,0,0,-1,1427,1163,0,0
210,-139,0,0,0,0,0,0,0,0,0,-1,1434,1163,0,0
217,-139,0,0,0,0,0,0,0,0,0,-1,1441,1163,0,0
224,-139,0,0,0,0,0,0,0,0,0,-1,1448,1163,0,0
231,-139,0,0,0,0,0,0,0,0,0,-1,1455,1163,0,0
238,-139,0,0,0,0,0,0,0,0,0,-1,1462,1163,0,0
245,-139,0,0,0,0,0,0,0,0,0,-1,1469,1163,0,0
252,-139,0,0,0,0,0,0,0,0,0,-1,1476,1163,0,0
259,-139,0,0,0,0,0,0,0,0,0,-1,1483,1163,0,0
266,-139,0,0,0,0,0,0,0,0,0,-1,1490,1163,0,0
273,-139,0,0,0,0,0,0,0,0,0,-1,1497,1163,0,0
280,-139,0,0,0,0,0,0,0,0,0,-1,1504,1163,0,0
287,-139,0,0,0,0,0,0,0,0,0,-1,1511,1163,0,0
294,-139,0,0,0,0,0,0,0,0,0,-1,1518,1163,0,0
301,-139,0,0,0,0,0,0,0,0,0,-1,1525,1163,0,0
308,-139,0,0,0,0,0,0,0,0,0,-1,1532,1163,0,0
315,-139,0,0,0,0,0,0,0,0,0,-1,1539,1163,0,0
322,-139,0,0,0,0,0,0,0,0,0,-1,1546,1163,0,0
329,-139,0,0,0,0,0,0,0,0,0,-1,1553,1163,0,0
336,-139,0,0,0,0,0,0,0,0,0,-1,1560,1163,0,0
343,-139,0,0,0,0,0,0,0,0,0,-1,1567,1163,0,0
350,-139,0,0,0,0,0,0,0,0,0,-1,1574,1163,0,0
357,-139,0,0,0,0,0,0,0,0,0,-1,1581,1163,0,0
364,-139,0,0,0,0,0,0,0,0,0,-1,1588,1163,0,0
371,-139,0,0,0,0,0,0,0,0,0,-1,1595,1163,0,0
378,-139,0,0,0,0,0,0,0,0,0,-1,1602,1163,0,0
385,-139,0,0,0,0,0,0,0,0,0,-1,1609,1163,0,0
392,-139,0,0,0,0,0,0,0,0,0,-1,1616,1163,0,0
399,-139,0,0,0,0,0,0,0,0,0,-1,1623,1163,0,0
406,-139,0,0,0,0,0,0,0,0,0,-1,1630,1163,0,0
413,-139,0,0,0,0,0,0,0,0,0,-1,1637,1163,0,0
420,-139,0,0,0,0,0,0,0,0,0,-1,1644,1163,0,0
427,-139,0,0,0,0,0,0,0,0,0,-1,1651,1163,0,0
434,-139,0,0,0,0,0,0,0,0,0,-1,1658,1163,0,0
441,-139,0,0,0,0,0,0,0,0,0,-1,1665,1163,0,0
448,-139,0,0,0,0,0,0,0,0,0,-1,1672,1163,0,0
455,-139,0,0,0,0,0,0,0,0,0,-1,1679,1163,0,0
462,-139,0,0,0,0,0,0,0,0,0,-1,1686,1163,0,0
469,-139,0,0,0,0,0,0,0,0,0,-1,1693,1163,0,0
476,-139,0,0,0,0,0,0,0,0,0,-1,1700,1163,0,0
483,-139,0,0,0,0,0,0,0,0,0,-1,1707,1163,0,0
490,-139,0,0,0,0,0,0,0,0,0,-1,1714,1163,0,0
497,-139,0,0,0,0,0,0,0,0,0,-1,1721,1163,0,0
504,-139,0,0,0,0,0,0,0,0,0,-1,1728,1163,0,0
511,-139,0,0,0,0,0,0,0,0,0,-1,1735,1163,0,0
518,-139,0,0,0,0,0,0,0,0,0,-1,1742,1163,0,0
525,-139,0,0,0,0,0,0,0,0,0,-1,1749,1163,0,0
532,-139,0,0,0,0,0,0,0,0,0,-1,1756,1163,0,0
539,-139,0,0,0,0,0,0,0,0,0,-1,1763,1163,0,0
546,-139,0,0,0,0,0,0,0,0,0,-1,1770,1163,0,0
553,-139,0,0,0,0,0,0,0,0,0,-1,1777,1163,0,0
560,-139,0,0,0,0,0,0,0,0,0,-1,1784,1163,0,0
567,-139,0,0,0,0,0,0,0,0,0,-1,1791,1163,0,0
574,-139,0,0,0,0,0,0,0,0,0,-1,1798,1163,0,0
581,-139,0,0,0,0,0,0,0,0,0,-1,1805,1163,0,0
588,-139,0,0,0,0,0,0,0,0,0,-1,1812,1163,0,0
595,-139,0,0,0,0,0,0,0,0,0,-1,1819,1163,0,0
602,-139,0,0,0,0,0,0,0,0,0,-1,1826,1163,0,0
609,-139,0,0,0,0,0,0,0,0,0,-1,1833,1163,0,0
616,-139,0,0,0,0,0,0,0,0,0,-1,1840,1163,0,0
623,-139,0,0,0,0,0,0,0,0,0,-1,1847,1163,0,0
630,-139,0,0,0,0,0,0,0,0,0,-1,1854,1163,0,0
637,-139,0,0,0,0,0,0,0,0,0,-1,1861,1163,0,0
644,-139,74.3481,2.15881,0.00388144,-0.00192851,-0.000879311,0.0040116,-0.00205867,-0.146962,0.00356462,0.0417256,1868,1163,74.3481,-2.15882
651,-139,74.241,2.11572,0.00271342,-0.00180112,-0.000151266,0.00271848,-0.00180618,-0.0334563,0.00262996,0.0421834,1875,1163,74.241,-2.11571
658,-139,74.3052,2.10828,0.001869,-0.00140532,0.000171057,0.00187791,-0.00141423,0.0520532,0.00190699,0.0421879,1882,1163,74.3052,-2.10823
665,-139,74.364,2.3512,0.00115519,-0.000807063,0.000174552,0.0011706,-0.000822469,0.0880336,0.00115653,0.0384673,1889,1163,74.364,-2.35119
672,-139,74.3755,2.29285,0.000616361,-2.10876e-05,-0.000114827,0.000636414,-4.11413e-05,-0.172898,0.000438634,0.0381757,1896,1163,74.3755,-2.29284
679,-139,74.3821,2.224,0.0004602,0.000324032,-0.00035781,0.000756345,2.78861e-05,-0.691382,0.000495197,0.0356677,1903,1163,74.3821,-2.22401
686,-139,74.3066,2.31287,0.000956091,0.000158864,-0.000505212,0.00120101,-8.60532e-05,-0.451398,0.000830843,0.0362346,1910,1163,74.3066,-2.31283
693,-139,74.3134,2.30103,0.000983872,-7.34118e-05,-0.000219272,0.00102754,-0.000117083,-0.196593,0.000727205,0.0281144,1917,1163,74.3134,-2.30099
700,-139,74.4064,2.21594,0,0,0,0,0,0,0,-1,1924,1163,74.4063,-2.2159
707,-139,32.116,6.54346,0,0,0,0,0,0,0,-1,1931,1163,32.116,-6.54343
714,-139,62.1425,10.1428,0,0,0,0,0,0,0,-1,1938,1163,62.1424,-10.1428
721,-139,62.1398,9.50867,0,0,0,0,0,0,0,-1,1945,1163,62.1397,-9.50873
728,-139,65.3352,9.56287,0,0,0,0,0,0,0,-1,1952,1163,65.3352,-9.56284
735,-139,65.2581,8.81177,0.00105278,-0.000187329,0.00124304,0.00182183,-0.00095638,0.554046,0.00162974,0.0362052,1959,1163,65.258,-8.81174
742,-139,65.3278,7.96582,0.000904917,-0.000662294,0.00190172,0.00217815,-0.00193553,0.589973,0.00237641,0.0271165,1966,1163,65.3278,-7.96579
749,-139,65.2937,7.29736,0.000286293,-0.000121282,0.00222212,0.00231395,-0.00214894,0.739672,0.00257724,0.0219985,1973,1163,65.2937,-7.29738
756,-139,65.25,6.67249,0.000551691,0.00188029,0.00170342,0.00304436,-0.000612376,0.971318,0.0022615,0.0120022,1980,1163,65.25,-6.67243
763,-139,65.2141,6.03076,0.00215862,0.00441409,0.000455005,0.00450242,0.00207029,1.37905,0.00260227,0.0118442,1987,1163,65.2142,-6.0308
770,-139,65.2102,5.42786,0.00462241,0.00703165,-0.00134299,0.00763112,0.00402295,-1.15097,0.004408,0.0129896,1994,1163,65.2101,-5.42786
777,-139,65.1807,4.82117,0.00796708,0.00967134,-0.0037226,0.0126381,0.00500032,-0.897914,0.00734938,0.0270501,2001,1163,65.1807,-4.82112
784,-139,65.0325,4.1156,0.0124892,0.0121944,-0.0068477,0.0191911,0.00549251,-0.774637,0.0114126,0.0456084,2008,1163,65.0326,-4.1156
791,-139,64.5916,3.71729,0,0,0,0,0,0,0,-1,2015,1163,64.5916,-3.71734
798,-139,64.9211,3.54871,0.0262733,0.0170525,-0.0167693,0.0390544,0.0042714,-0.651248,0.0247357,0.0478342,2022,1163,64.9211,-3.54871
805,-139,65.3301,3.52209,0.0362259,0.0193037,-0.0244452,0.0536329,0.00189667,-0.618788,0.0351401,0.0433595,2029,1163,65.3301,-3.52214
812,-139,0,0,0,0,0,0,0,0,0,-1,2036,1163,0,0
-700,-146,0,0,0,0,0,0,0,0,0,-1,524,1170,0,0
-693,-146,-55.9547,1.63586,0,0,0,0,0,0,0,-1,531,1170,-55.9547,-1.63584
-686,-146,-55.7799,1.65515,0,0,0,0,0,0,0,-1,538,1170,-55.7799,-1.65519
-679,-146,-55.9454,2.01416,0,0,0,0,0,0,0,-1,545,1170,-55.9454,-2.01411
-672,-146,-46.7502,-0.0723877,0,0,0,0,0,0,0,-1,552,1170,-46.7503,0.0724213
-665,-146,-46.9965,0.741577,0,0,0,0,0,0,0,-1,559,1170,-46.9964,-0.741609
-658,-146,-48.0859,1.99414,0,0,0,0,0,0,0,-1,566,1170,-48.0859,-1.99408
-651,-146,-48.0654,2.66492,0.0130501,-0.0113911,0.00228366,0.0132616,-0.0116026,0.0923696,0.014366,0.0485762,573,1170,-48.0654,-2.66494
-644,-146,-48.0251,3.35742,0.00828793,-0.00592468,0.000272849,0.00829316,-0.00592991,0.0191882,0.00824939,0.0280233,580,1170,-48.0252,-3.35742
-637,-146,-48.1082,4.05042,0.00359042,-0.00223918,-0.00129445,0.00386493,-0.00251369,-0.208967,0.00371014,0.013094,587,1170,-48.1081,-4.05046
-630,-146,-48.1531,4.76184,-0.000790138,-5.92559e-05,-0.00245518,0.00205754,-0.00290693,-0.859278,0.00288019,0.0102898,594,1170,-48.1531,-4.7618
-623,-146,-48.1926,5.43481,-0.00477706,0.00112572,-0.0033728,0.00265613,-0.00630747,-1.14483,0.00531633,0.0139065,601,1170,-48.1925,-5.43479
-616,-146,-48.2828,6.1062,-0.00843279,0.00128644,-0.00404219,0.00274783,-0.00989419,-1.22388,0.00767776,0.0213237,608,1170,-48.2828,-6.10617
-609,-146,-48.379,6.77881,0,0,0,0,0,0,0,-1,615,1170,-48.3791,-6.77887
-602,-146,-47.1765,6.91858,0,0,0,0,0,0,0,-1,622,1170,-47.1765,-6.91855
-595,-146,-46.73,7.76172,0,0,0,0,0,0,0,-1,629,1170,-46.73,-7.76171
-588,-146,-45.0034,7.81934,0,0,0,0,0,0,0,-1,636,1170,-45.0034,-7.81931
-581,-146,-31.7815,6.30347,0,0,0,0,0,0,0,-1,643,1170,-31.7815,-6.3035
-574,-146,-17.9915,3.79114,0,0,0,0,0,0,0,-1,650,1170,-17.9915,-3.79118
-567,-146,-44.4572,0.6604,0,0,0,0,0,0,0,-1,657,1170,-44.4572,-0.660404
-560,-146,-57.1511,0.289429,0,0,0,0,0,0,0,-1,664,1170,-57.1511,-0.289386
-553,-146,-57.1269,0.0825195,0,0,0,0,0,0,0,-1,671,1170,-57.1269,-0.0825178
-546,-146,-57.1188,0.0721436,0,0,0,0,0,0,0,-1,678,1170,-57.1188,-0.0721183
-539,-146,-57.1466,0.130249,0,0,0,0,0,0,0,-1,685,1170,-57.1466,-0.130306
-532,-146,-57.2394,0.15564,0,0,0,0,0,0,0,-1,692,1170,-57.2394,-0.155675
-525,-146,-57.353,0.299438,0,0,0,0,0,0,0,-1,699,1170,-57.353,-0.299429
-518,-146,0,0,0,0,0,0,0,0,0,-1,706,1170,0,0
-511,-146,0,0,0,0,0,0,0,0,0,-1,713,1170,0,0
-504,-146,0,0,0,0,0,0,0,0,0,-1,720,1170,0,0
-497,-146,0,0,0,0,0,0,0,0,0,-1,727,1170,0,0
-490,-146,0,0,0,0,0,0,0,0,0,-1,734,1170,0,0
-483,-146,0,0,0,0,0,0,0,0,0,-1,741,1170,0,0
-476,-146,0,0,0,0,0,0,0,0,0,-1,748,1170,0,0
-469,-146,0,0,0,0,0,0,0,0,0,-1,755,1170,0,0
-462,-146,0,0,0,0,0,0,0,0,0,-1,762,1170,0,0
-455,-146,0,0,0,0,0,0,0,0,0,-1,769,1170,0,0
-448,-146,0,0,0,0,0,0,0,0,0,-1,776,1170,0,0
-441,-146,0,0,0,0,0,0,0,0,0,-1,783,1170,0,0
-434,-146,0,0,0,0,0,0,0,0,0,-1,790,1170,0,0
-427,-146,0,0,0,0,0,0,0,0,0,-1,797,1170,0,0
-420,-146,0,0,0,0,0,0,0,0,0,-1,804,1170,0,0
-413,-146,0,0,0,0,0,0,0,0,0,-1,811,1170,0,0
-406,-146,0,0,0,0,0,0,0,0,0,-1,818,1170,0,0
-399,-146,0,0,0,0,0,0,0,0,0,-1,825,1170,0,0
-392,-146,0,0,0,0,0,0,0,0,0,-1,832,1170,0,0
-385,-146,0,0,0,0,0,0,0,0,0,-1,839,1170,0,0
-378,-146,0,0,0,0,0,0,0,0,0,-1,846,1170,0,0
-371,-146,0,0,0,0,0,0,0,0,0,-1,853,1170,0,0
-364,-146,0,0,0,0,0,0,0,0,0,-1,860,1170,0,0
-357,-146,0,0,0,0,0,0,0,0,0,-1,867,1170,0,0
-350,-146,0,0,0,0,0,0,0,0,0,-1,874,1170,0,0
-343,-146,0,0,0,0,0,0,0,0,0,-1,881,1170,0,0
-336,-146,0,0,0,0,0,0,0,0,0,-1,888,1170,0,0
-329,-146,0,0,0,0,0,0,0,0,0,-1,895,1170,0,0
-322,-146,0,0,0,0,0,0,0,0,0,-1,902,1170,0,0
-315,-146,0,0,0,0,0,0,0,0,0,-1,909,1170,0,0
-308,-146,0,0,0,0,0,0,0,0,0,-1,916,1170,0,0
-301,-146,0,0,0,0,0,0,0,0,0,-1,923,1170,0,0
-294,-146,0,0,0,0,0,0,0,0,0,-1,930,1170,0,0
-287,-146,0,0,0,0,0,0,0,0,0,-1,937,1170,0,0
-280,-146,0,0,0,0,0,0,0,0,0,-1,944,1170,0,0
-273,-146,0,0,0,0,0,0,0,0,0,-1,951,1170,0,0
-266,-146,0,0,0,0,0,0,0,0,0,-1,958,1170,0,0
-259,-146,0,0,0,0,0,0,0,0,0,-1,965,1170,0,0
-252,-146,0,0,0,0,0,0,0,0,0,-1,972,1170,0,0
-245,-146,0,0,0,0,0,0,0,0,0,-1,979,1170,0,0
-238,-146,0,0,0,0,0,0,0,0,0,-1,986,1170,0,0
-231,-146,0,0,0,0,0,0,0,0,0,-1,993,1170,0,0
-224,-146,0,0,0,0,0,0,0,0,0,-1,1000,1170,0,0
-217,-146,0,0,0,0,0,0,0,0,0,-1,1007,1170,0,0
-210,-146,0,0,0,0,0,0,0,0,0,-1,1014,1170,0,0
-203,-146,0,0,0,0,0,0,0,0,0,-1,1021,1170,0,0
-196,-146,0,0,0,0,0,0,0,0,0,-1,1028,1170,0,0
-189,-146,0,0,0,0,0,0,0,0,0,-1,1035,1170,0,0
-182,-146,0,0,0,0,0,0,0,0,0,-1,1042,1170,0,0
-175,-146,0,0,0,0,0,0,0,0,0,-1,1049,1170,0,0
-168,-146,0,0,0,0,0,0,0,0,0,-1,1056,1170,0,0
-161,-146,0,0,0,0,0,0,0,0,0,-1,1063,1170,0,0
-154,-146,0,0,0,0,0,0,0,0,0,-1,1070,1170,0,0
-147,-146,0,0,0,0,0,0,0,0,0,-1,1077,1170,0,0
-140,-146,0,0,0,0,0,0,0,0,0,-1,1084,1170,0,0
-133,-146,0,0,0,0,0,0,0,0,0,-1,1091,1170,0,0
-126,-146,0,0,0,0,0,0,0,0,0,-1,1098,1170,0,0
-119,-146,0,0,0,0,0,0,0,0,0,-1,1105,1170,0,0
-112,-146,0,0,0,0,0,0,0,0,0,-1,1112,1170,0,0
-105,-146,0,0,0,0,0,0,0,0,0,-1,1119,1170,0,0
-98,-146,0,0,0,0,0,0,0,0,0,-1,1126,1170,0,0
-91,-146,0,0,0,0,0,0,0,0,0,-1,1133,1170,0,0
-84,-146,0,0,0,0,0,0,0,0,0,-1,1140,1170,0,0
-77,-146,0,0,0,0,0,0,0,0,0,-1,1147,1170,0,0
-70,-146,0,0,0,0,0,0,0,0,0,-1,1154,1170,0,0
-63,-146,0,0,0,0,0,0,0,0,0,-1,1161,1170,0,0
-56,-146,0,0,0,0,0,0,0,0,0,-1,1168,1170,0,0
-49,-146,0,0,0,0,0,0,0,0,0,-1,1175,1170,0,0
-42,-146,0,0,0,0,0,0,0,0,0,-1,1182,1170,0,0
-35,-146,0,0,0,0,0,0,0,0,0,-1,1189,1170,0,0
-28,-146,0,0,0,0,0,0,0,0,0,-1,1196,1170,0,0
-21,-146,0,0,0,0,0,0,0,0,0,-1,1203,1170,0,0
-14,-146,0,0,0,0,0,0,0,0,0,-1,1210,1170,0,0
-7,-146,0,0,0,0,0,0,0,0,0,-1,1217,1170,0,0
0,-146,0,0,0,0,0,0,0,0,0,-1,1224,1170,0,0
7,-146,0,0,0,0,0,0,0,0,0,-1,1231,1170,0,0
14,-146,0,0,0,0,0,0,0,0,0,-1,1238,1170,0,0
21,-146,0,0,0,0,0,0,0,0,0,-1,1245,1170,0,0
28,-146,0,0,0,0,0,0,0,0,0,-1,1252,1170,0,0
35,-146,0,0,0,0,0,0,0,0,0,-1,1259,1170,0,0
42,-146,0,0,0,0,0,0,0,0,0,-1,1266,1170,0,0
49,-146,0,0,0,0,0,0,0,0,0,-1,1273,1170,0,0
56,-146,0,0,0,0,0,0,0,0,0,-1,1280,1170,0,0
63,-146,0,0,0,0,0,0,0,0,0,-1,1287,1170,0,0
70,-146,0,0,0,0,0,0,0,0,0,-1,1294,1170,0,0
77,-146,0,0,0,0,0,0,0,0,0,-1,1301,1170,0,0
84,-146,0,0,0,0,0,0,0,0,0,-1,1308,1170,0,0
91,-146,0,0,0,0,0,0,0,0,0,-1,1315,1170,0,0
98,-146,0,0,0,0,0,0,0,0,0,-1,1322,1170,0,0
105,-146,0,0,0,0,0,0,0,0,0,-1,1329,1170,0,0
112,-146,0,0,0,0,0,0,0,0,0,-1,1336,1170,0,0
119,-146,0,0,0,0,0,0,0,0,0,-1,1343,1170,0,0
126,-146,0,0,0,0,0,0,0,0,0,-1,1350,1170,0,0
133,-146,0,0,0,0,0,0,0,0,0,-1,1357,1170,0,0
140,-146,0,0,0,0,0,0,0,0,0,-1,1364,1170,0,0
147,-146,0,0,0,0,0,0,0,0,0,-1,1371,1170,0,0
154,-146,0,0,0,0,0,0,0,0,0,-1,1378,1170,0,0
161,-146,0,0,0,0,0,0,0,0,0,-1,1385,1170,0,0
168,-146,0,0,0,0,0,0,0,0,0,-1,1392,1170,0,0
175,-146,0,0,0,0,0,0,0,0,0,-1,1399,1170,0,0
182,-146,0,0,0,0,0,0,0,0,0,-1,1406,1170,0,0
189,-146,0,0,0,0,0,0,0,0,0,-1,1413,1170,0,0
196,-146,0,0,0,0,0,0,0,0,0,-1,1420,1170,0,0
203,-146,0,0,0,0,0,0,0,0,0,-1,1427,1170,0,0
210,-146,0,0,0,0,0,0,0,0,0,-1,1434,1170,0,0
217,-146,0,0,0,0,0,0,0,0,0,-1,1441,1170,0,0
224,-146,0,0,0,0,0,0,0,0,0,-1,1448,1170,0,0
231,-146,0,0,0,0,0,0,0,0,0,-1,1455,1170,0,0
238,-146,0,0,0,0,0,0,0,0,0,-1,1462,1170,0,0
245,-146,0,0,0,0,0,0,0,0,0,-1,1469,1170,0,0
252,-146,0,0,0,0,0,0,0,0,0,-1,1476,1170,0,0
259,-146,0,0,0,0,0,0,0,0,0,-1,1483,1170,0,0
266,-146,0,0,0,0,0,0,0,0,0,-1,1490,1170,0,0
273,-146,0,0,0,0,0,0,0,0,0,-1,1497,1170,0,0
280,-146,0,0,0,0,0,0,0,0,0,-1,1504,1170,0,0
287,-146,0,0,0,0,0,0,0,0,0,-1,1511,1170,0,0
294,-146,0,0,0,0,0,0,0,0,0,-1,1518,1170,0,0
301,-146,0,0,0,0,0,0,0,0,0,-1,1525,1170,0,0
308,-146,0,0,0,0,0,0,0,0,0,-1,1532,1170,0,0
315,-146,0,0,0,0,0,0,0,0,0,-1,1539,1170,0,0
322,-146,0,0,0,0,0,0,0,0,0,-1,1546,1170,0,0
329,-146,0,0,0,0,0,0,0,0,0,-1,1553,1170,0,0
336,-146,0,0,0,0,0,0,0,0,0,-1,1560,1170,0,0
343,-146,0,0,0,0,0,0,0,0,0,-1,1567,1170,0,0
350,-146,0,0,0,0,0,0,0,0,0,-1,1574,1170,0,0
357,-146,0,0,0,0,0,0,0,0,0,-1,1581,1170,0,0
364,-146,0,0,0,0,0,0,0,0,0,-1,1588,1170,0,0
371,-146,0,0,0,0,0,0,0,0,0,-1,1595,1170,0,0
378,-146,0,0,0,0,0,0,0,0,0,-1,1602,1170,0,0
385,-146,0,0,0,0,0,0,0,0,0,-1,1609,1170,0,0
392,-146,0,0,0,0,0,0,0,0,0,-1,1616,1170,0,0
399,-146,0,0,0,0,0,0,0,0,0,-1,1623,1170,0,0
406,-146,0,0,0,0,0,0,0,0,0,-1,1630,1170,0,0
413,-146,0,0,0,0,0,0,0,0,0,-1,1637,1170,0,0
420,-146,0,0,0,0,0,0,0,0,0,-1,1644,1170,0,0
427,-146,0,0,0,0,0,0,0,0,0,-1,1651,1170,0,0
434,-146,0,0,0,0,0,0,0,0,0,-1,1658,1170,0,0
441,-146,0,0,0,0,0,0,0,0,0,-1,1665,1170,0,0
448,-146,0,0,0,0,0,0,0,0,0,-1,1672,1170,0,0
455,-146,0,0,0,0,0,0,0,0,0,-1,1679,1170,0,0
462,-146,0,0,0,0,0,0,0,0,0,-1,1686,1170,0,0
469,-146,0,0,0,0,0,0,0,0,0,-1,1693,1170,0,0
476,-146,0,0,0,0,0,0,0,0,0,-1,1700,1170,0,0
483,-146,0,0,0,0,0,0,0,0,0,-1,1707,1170,0,0
490,-146,0,0,0,0,0,0,0,0,0,-1,1714,1170,0,0
497,-146,0,0,0,0,0,0,0,0,0,-1,1721,1170,0,0
504,-146,0,0,0,0,0,0,0,0,0,-1,1728,1170,0,0
511,-146,0,0,0,0,0,0,0,0,0,-1,1735,1170,0,0
518,-146,0,0,0,0,0,0,0,0,0,-1,1742,1170,0,0
525,-146,0,0,0,0,0,0,0,0,0,-1,1749,1170,0,0
532,-146,0,0,0,0,0,0,0,0,0,-1,1756,1170,0,0
539,-146,0,0,0,0,0,0,0,0,0,-1,1763,1170,0,0
546,-146,0,0,0,0,0,0,0,0,0,-1,1770,1170,0,0
553,-146,0,0,0,0,0,0,0,0,0,-1,1777,1170,0,0
560,-146,0,0,0,0,0,0,0,0,0,-1,1784,1170,0,0
567,-146,0,0,0,0,0,0,0,0,0,-1,1791,1170,0,0
574,-146,0,0,0,0,0,0,0,0,0,-1,1798,1170,0,0
581,-146,0,0,0,0,0,0,0,0,0,-1,1805,1170,0,0
588,-146,0,0,0,0,0,0,0,0,0,-1,1812,1170,0,0
595,-146,0,0,0,0,0,0,0,0,0,-1,1819,1170,0,0
602,-146,0,0,0,0,0,0,0,0,0,-1,1826,1170,0,0
609,-146,0,0,0,0,0,0,0,0,0,-1,1833,1170,0,0
616,-146,0,0,0,0,0,0,0,0,0,-1,1840,1170,0,0
623,-146,0,0,0,0,0,0,0,0,0,-1,1847,1170,0,0
630,-146,0,0,0,0,0,0,0,0,0,-1,1854,1170,0,0
637,-146,74.3345,2.09753,0.00444795,-0.000887325,-0.00188217,0.0050451,-0.00148448,-0.307223,0.00395227,0.0400098,1861,1170,74.3344,-2.09757
644,-146,74.3931,2.10522,0.00322004,-0.00131904,-0.000820932,0.00336395,-0.00146295,-0.173538,0.00285794,0.0376999,1868,1170,74.393,-2.10517
651,-146,74.3929,2.05786,0.00223194,-0.00124026,-0.000283326,0.00225491,-0.00126323,-0.0808853,0.00205792,0.0347042,1875,1170,74.393,-2.05791
658,-146,74.4221,2.12122,0.00151465,-0.000845781,-0.000103035,0.00151914,-0.00085027,-0.0435407,0.00138603,0.0378693,1882,1170,74.4221,-2.12119
665,-146,74.4286,2.31628,0.000936797,-0.00020044,-0.000218581,0.000977362,-0.000241005,-0.183496,0.000745019,0.0375523,1889,1170,74.4286,-2.31626
672,-146,74.3976,2.34338,0.000580564,0.000609515,-0.000611426,0.00120664,-1.65578e-05,-0.797233,0.000810001,0.0367515,1896,1170,74.3975,-2.34344
679,-146,74.3491,2.23425,0.000602262,0.000989681,-0.000926498,0.0017425,-0.00015056,-0.888452,0.00121497,0.0292189,1903,1170,74.3492,-2.23421
686,-146,74.2616,2.2157,0.00120872,0.000712955,-0.00102477,0.00201516,-9.34802e-05,-0.666731,0.00137566,0.0253401,1910,1170,74.2616,-2.21566
693,-146,74.3314,2.19141,0.00118162,0.000354016,-0.000603711,0.00149973,3.59024e-05,-0.484959,0.00098807,0.0233735,1917,1170,74.3314,-2.19138
700,-146,74.4077,2.08142,0,0,0,0,0,0,0,-1,1924,1170,74.4078,-2.08137
707,-146,29.9441,6.94653,0,0,0,0,0,0,0,-1,1931,1170,29.9441,-6.94652
714,-146,31.325,6.13245,0,0,0,0,0,0,0,-1,1938,1170,31.325,-6.1325
721,-146,61.3608,9.47766,0,0,0,0,0,0,0,-1,1945,1170,61.3608,-9.47767
728,-146,63.9534,8.67224,0,0,0,0,0,0,0,-1,1952,1170,63.9534,-8.6722
735,-146,64.847,8.48425,0,0,0,0,0,0,0,-1,1959,1170,64.8471,-8.48426
742,-146,64.741,7.94946,0.00096972,-0.000737311,0.00181478,0.00212167,-0.00188927,0.565589,0.00231701,0.0198147,1966,1170,64.741,-7.9495
749,-146,64.6193,7.34338,0.000301329,-0.000289794,0.00226408,0.00228906,-0.00227752,0.720493,0.00263652,0.0168448,1973,1170,64.6193,-7.34341
756,-146,64.5753,6.69275,0.000681685,0.00149542,0.00182215,0.00295557,-0.000778469,0.895241,0.00227471,0.0127644,1980,1170,64.5753,-6.69279
763,-146,64.5193,6.02673,0.00233859,0.00358919,0.000738293,0.0039314,0.00199638,1.13676,0.00226989,0.0123628,1987,1170,64.5193,-6.02675
770,-146,64.4988,5.38684,0.00481179,0.00566351,-0.0008519,0.00619006,0.00428524,-1.01718,0.00366086,0.0133501,1994,1170,64.4988,-5.38687
777,-146,64.51,4.8833,0.00812929,0.00767057,-0.00301534,0.010924,0.00487587,-0.74744,0.00631906,0.0252333,2001,1170,64.51,-4.88331
784,-146,64.4678,4.48914,0.0126374,0.00938995,-0.00593107,0.017163,0.00486437,-0.651787,0.0102142,0.0449065,2008,1170,64.4678,-4.48909
791,-146,64.7661,3.9054,0.0185581,0.0108103,-0.00986673,0.0252842,0.00408422,-0.598333,0.0156731,0.0472588,2015,1170,64.7661,-3.90543
798,-146,65.3811,3.51379,0.0260622,0.0121423,-0.015467,0.0360631,0.00214141,-0.573976,0.023361,0.0472797,2022,1170,65.3811,-3.51384
805,-146,65.9229,3.10925,0,0,0,0,0,0,0,-1,2029,1170,65.9228,-3.10929
812,-146,0,0,0,0,0,0,0,0,0,-1,2036,1170,0,0
-700,-153,0,0,0,0,0,0,0,0,0,-1,524,1177,0,0
-693,-153,0,0,0,0,0,0,0,0,0,-1,531,1177,0,0
-686,-153,-56.2497,1.88184,0,0,0,0,0,0,0,-1,538,1177,-56.2497,-1.88184
-679,-153,-50.3425,-2.74768,0,0,0,0,0,0,0,-1,545,1177,-50.3425,2.74771
-672,-153,-45.1443,-0.28186,0,0,0,0,0,0,0,-1,552,1177,-45.1443,0.281845
-665,-153,-45.6869,0.463379,0,0,0,0,0,0,0,-1,559,1177,-45.6869,-0.463373
-658,-153,-47.0414,2.22644,0,0,0,0,0,0,0,-1,566,1177,-47.0414,-2.22641
-651,-153,-47.2452,2.87878,0.0139916,-0.00776584,-0.000953598,0.0140334,-0.00780755,-0.0437168,0.0127795,0.0483578,573,1177,-47.2452,-2.87876
-644,-153,-47.2864,3.42407,0.00900704,-0.00388697,-0.00202115,0.00931643,-0.00419636,-0.151899,0.00798611,0.029949,580,1177,-47.2864,-3.42403
-637,-153,-47.3851,4.07715,0.00421114,-0.00128957,-0.00271561,0.00532588,-0.00240432,-0.389521,0.00456805,0.0122434,587,1177,-47.3851,-4.07712
-630,-153,-47.4291,4.78516,9.76637e-06,0.000137596,-0.00318778,0.00326211,-0.00311474,-0.795422,0.003682,0.00964158,594,1177,-47.4291,-4.7851
-623,-153,-47.473,5.48816,-0.00366564,0.000880718,-0.00367291,0.00292698,-0.0057119,-1.0625,0.00507331,0.0118672,601,1177,-47.473,-5.48814
-616,-153,-47.5523,6.13562,-0.00697551,0.000990376,-0.00418512,0.0027849,-0.00877003,-1.16572,0.00696316,0.0159636,608,1177,-47.5523,-6.13559
-609,-153,-47.6844,6.70972,-0.00993276,0.000824659,-0.00487231,0.00270335,-0.0118115,-1.20278,0.00891314,0.044838,615,1177,-47.6844,-6.70967
-602,-153,-47.7577,7.01978,0,0,0,0,0,0,0,-1,622,1177,-47.7577,-7.01982
-595,-153,-43.9551,7.35718,0,0,0,0,0,0,0,-1,629,1177,-43.9551,-7.35722
-588,-153,-32.348,5.51038,0,0,0,0,0,0,0,-1,636,1177,-32.348,-5.51034
-581,-153,-33.4568,6.41492,0,0,0,0,0,0,0,-1,643,1177,-33.4568,-6.41497
-574,-153,-25.4814,5.16956,0,0,0,0,0,0,0,-1,650,1177,-25.4814,-5.16961
-567,-153,-35.3121,1.09485,0,0,0,0,0,0,0,-1,657,1177,-35.3121,-1.09482
-560,-153,-57.1085,0.230225,0,0,0,0,0,0,0,-1,664,1177,-57.1085,-0.230174
-553,-153,-57.0954,0.126953,0,0,0,0,0,0,0,-1,671,1177,-57.0954,-0.126939
-546,-153,-57.0446,0.0916748,0,0,0,0,0,0,0,-1,678,1177,-57.0446,-0.0916541
-539,-153,-57.1543,0.0773926,0,0,0,0,0,0,0,-1,685,1177,-57.1543,-0.0774023
-532,-153,-57.2927,0.0941162,0,0,0,0,0,0,0,-1,692,1177,-57.2927,-0.0941646
-525,-153,-57.2884,0.241577,0,0,0,0,0,0,0,-1,699,1177,-57.2884,-0.241608
-518,-153,0,0,0,0,0,0,0,0,0,-1,706,1177,0,0
-511,-153,0,0,0,0,0,0,0,0,0,-1,713,1177,0,0
-504,-153,0,0,0,0,0,0,0,0,0,-1,720,1177,0,0
-497,-153,0,0,0,0,0,0,0,0,0,-1,727,1177,0,0
-490,-153,0,0,0,0,0,0,0,0,0,-1,734,1177,0,0
-483,-153,0,0,0,0,0,0,0,0,0,-1,741,1177,0,0
-476,-153,0,0,0,0,0,0,0,0,0,-1,748,1177,0,0
-469,-153,0,0,0,0,0,0,0,0,0,-1,755,1177,0,0
-462,-153,0,0,0,0,0,0,0,0,0,-1,762,1177,0,0
-455,-153,0,0,0,0,0,0,0,0,0,-1,769,1177,0,0
-448,-153,0,0,0,0,0,0,0,0,0,-1,776,1177,0,0
-441,-153,0,0,0,0,0,0,0,0,0,-1,783,1177,0,0
-434,-153,0,0,0,0,0,0,0,0,0,-1,790,1177,0,0
-427,-153,0,0,0,0,0,0,0,0,0,-1,797,1177,0,0
-420,-153,0,0,0,0,0,0,0,0,0,-1,804,1177,0,0
-413,-153,0,0,0,0,0,0,0,0,0,-1,811,1177,0,0
-406,-153,0,0,0,0,0,0,0,0,0,-1,818,1177,0,0
-399,-153,0,0,0,0,0,0,0,0,0,-1,825,1177,0,0
-392,-153,0,0,0,0,0,0,0,0,0,-1,832,1177,0,0
-385,-153,0,0,0,0,0,0,0,0,0,-1,839,1177,0,0
-378,-153,0,0,0,0,0,0,0,0,0,-1,846,1177,0,0
-371,-153,0,0,0,0,0,0,0,0,0,-1,853,1177,0,0
-364,-153,0,0,0,0,0,0,0,0,0,-1,860,1177,0,0
-357,-153,0,0,0,0,0,0,0,0,0,-1,867,1177,0,0
-350,-153,0,0,0,0,0,0,0,0,0,-1,874,1177,0,0
-343,-153,0,0,0,0,0,0,0,0,0,-1,881,1177,0,0
-336,-153,0,0,0,0,0,0,0,0,0,-1,888,1177,0,0
-329,-153,0,0,0,0,0,0,0,0,0,-1,895,1177,0,0
-322,-153,0,0,0,0,0,0,0,0,0,-1,902,1177,0,0
-315,-153,0,0,0,0,0,0,0,0,0,-1,909,1177,0,0
-308,-153,0,0,0,0,0,0,0,0,0,-1,916,1177,0,0
-301,-153,0,0,0,0,0,0,0,0,0,-1,923,1177,0,0
-294,-153,0,0,0,0,0,0,0,0,0,-1,930,1177,0,0
-287,-153,0,0,0,0,0,0,0,0,0,-1,937,1177,0,0
-280,-153,0,0,0,0,0,0,0,0,0,-1,944,1177,0,0
-273,-153,0,0,0,0,0,0,0,0,0,-1,951,1177,0,0
-266,-153,0,0,0,0,0,0,0,0,0,-1,958,1177,0,0
-259,-153,0,0,0,0,0,0,0,0,0,-1,965,1177,0,0
-252,-153,0,0,0,0,0,0,0,0,0,-1,972,1177,0,0
-245,-153,0,0,0,0,0,0,0,0,0,-1,979,1177,0,0
-238,-153,0,0,0,0,0,0,0,0,0,-1,986,1177,0,0
-231,-153,0,0,0,0,0,0,0,0,0,-1,993,1177,0,0
-224,-153,0,0,0,0,0,0,0,0,0,-1,1000,1177,0,0
-217,-153,0,0,0,0,0,0,0,0,0,-1,1007,1177,0,0
-210,-153,0,0,0,0,0,0,0,0,0,-1,1014,1177,0,0
-203,-153,0,0,0,0,0,0,0,0,0,-1,1021,1177,0,0
-196,-153,0,0,0,0,0,0,0,0,0,-1,1028,1177,0,0
-189,-153,0,0,0,0,0,0,0,0,0,-1,1035,1177,0,0
-182,-153,0,0,0,0,0,0,0,0,0,-1,1042,1177,0,0
-175,-153,0,0,0,0,0,0,0,0,0,-1,1049,1177,0,0
-168,-153,0,0,0,0,0,0,0,0,0,-1,1056,1177,0,0
-161,-153,0,0,0,0,0,0,0,0,0,-1,1063,1177,0,0
-154,-153,0,0,0,0,0,0,0,0,0,-1,1070,1177,0,0
-147,-153,0,0,0,0,0,0,0,0,0,-1,1077,1177,0,0
-140,-153,0,0,0,0,0,0,0,0,0,-1,1084,1177,0,0
-133,-153,0,0,0,0,0,0,0,0,0,-1,1091,1177,0,0
-126,-153,0,0,0,0,0,0,0,0,0,-1,1098,1177,0,0
-119,-153,0,0,0,0,0,0,0,0,0,-1,1105,1177,0,0
-112,-153,0,0,0,0,0,0,0,0,0,-1,1112,1177,0,0
-105,-153,0,0,0,0,0,0,0,0,0,-1,1119,1177,0,0
-98,-153,0,0,0,0,0,0,0,0,0,-1,1126,1177,0,0
-91,-153,0,0,0,0,0,0,0,0,0,-1,1133,1177,0,0
-84,-153,0,0,0,0,0,0,0,0,0,-1,1140,1177,0,0
-77,-153,0,0,0,0,0,0,0,0,0,-1,1147,1177,0,0
-70,-153,0,0,0,0,0,0,0,0,0,-1,1154,1177,0,0
-63,-153,0,0,0,0,0,0,0,0,0,-1,1161,1177,0,0
-56,-153,0,0,0,0,0,0,0,0,0,-1,1168,1177,0,0
-49,-153,0,0,0,0,0,0,0,0,0,-1,1175,1177,0,0
-42,-153,0,0,0,0,0,0,0,0,0,-1,1182,1177,0,0
-35,-153,0,0,0,0,0,0,0,0,0,-1,1189,1177,0,0
-28,-153,0,0,0,0,0,0,0,0,0,-1,1196,1177,0,0
-21,-153,0,0,0,0,0,0,0,0,0,-1,1203,1177,0,0
-14,-153,0,0,0,0,0,0,0,0,0,-1,1210,1177,0,0
-7,-153,0,0,0,0,0,0,0,0,0,-1,1217,1177,0,0
0,-153,0,0,0,0,0,0,0,0,0,-1,1224,1177,0,0
7,-153,0,0,0,0,0,0,0,0,0,-1,1231,1177,0,0
14,-153,0,0,0,0,0,0,0,0,0,-1,1238,1177,0,0
21,-153,0,0,0,0,0,0,0,0,0,-1,1245,1177,0,0
28,-153,0,0,0,0,0,0,0,0,0,-1,1252,1177,0,0
35,-153,0,0,0,0,0,0,0,0,0,-1,1259,1177,0,0
42,-153,0,0,0,0,0,0,0,0,0,-1,1266,1177,0,0
49,-153,0,0,0,0,0,0,0,0,0,-1,1273,1177,0,0
56,-153,0,0,0,0,0,0,0,0,0,-1,1280,1177,0,0
63,-153,0,0,0,0,0,0,0,0,0,-1,1287,1177,0,0
70,-153,0,0,0,0,0,0,0,0,0,-1,1294,1177,0,0
77,-153,0,0,0,0,0,0,0,0,0,-1,1301,1177,0,0
84,-153,0,0,0,0,0,0,0,0,0,-1,1308,1177,0,0
91,-153,0,0,0,0,0,0,0,0,0,-1,1315,1177,0,0
98,-153,0,0,0,0,0,0,0,0,0,-1,1322,1177,0,0
105,-153,0,0,0,0,0,0,0,0,0,-1,1329,1177,0,0
112,-153,0,0,0,0,0,0,0,0,0,-1,1336,1177,0,0
119,-153,0,0,0,0,0,0,0,0,0,-1,1343,1177,0,0
126,-153,0,0,0,0,0,0,0,0,0,-1,1350,1177,0,0
133,-153,0,0,0,0,0,0,0,0,0,-1,1357,1177,0,0
140,-153,0,0,0,0,0,0,0,0,0,-1,1364,1177,0,0
147,-153,0,0,0,0,0,0,0,0,0,-1,1371,1177,0,0
154,-153,0,0,0,0,0,0,0,0,0,-1,1378,1177,0,0
161,-153,0,0,0,0,0,0,0,0,0,-1,1385,1177,0,0
168,-153,0,0,0,0,0,0,0,0,0,-1,1392,1177,0,0
175,-153,0,0,0,0,0,0,0,0,0,-1,1399,1177,0,0
182,-153,0,0,0,0,0,0,0,0,0,-1,1406,1177,0,0
189,-153,0,0,0,0,0,0,0,0,0,-1,1413,1177,0,0
196,-153,0,0,0,0,0,0,0,0,0,-1,1420,1177,0,0
203,-153,0,0,0,0,0,0,0,0,0,-1,1427,1177,0,0
210,-153,0,0,0,0,0,0,0,0,0,-1,1434,1177,0,0
217,-153,0,0,0,0,0,0,0,0,0,-1,1441,1177,0,0
224,-153,0,0,0,0,0,0,0,0,0,-1,1448,1177,0,0
231,-153,0,0,0,0,0,0,0,0,0,-1,1455,1177,0,0
238,-153,0,0,0,0,0,0,0,0,0,-1,1462,1177,0,0
245,-153,0,0,0,0,0,0,0,0,0,-1,1469,1177,0,0
252,-153,0,0,0,0,0,0,0,0,0,-1,1476,1177,0,0
259,-153,0,0,0,0,0,0,0,0,0,-1,1483,1177,0,0
266,-153,0,0,0,0,0,0,0,0,0,-1,1490,1177,0,0
273,-153,0,0,0,0,0,0,0,0,0,-1,1497,1177,0,0
280,-153,0,0,0,0,0,0,0,0,0,-1,1504,1177,0,0
287,-153,0,0,0,0,0,0,0,0,0,-1,1511,1177,0,0
294,-153,0,0,0,0,0,0,0,0,0,-1,1518,1177,0,0
301,-153,0,0,0,0,0,0,0,0,0,-1,1525,1177,0,0
308,-153,0,0,0,0,0,0,0,0,0,-1,1532,1177,0,0
315,-153,0,0,0,0,0,0,0,0,0,-1,1539,1177,0,0
322,-153,0,0,0,0,0,0,0,0,0,-1,1546,1177,0,0
329,-153,0,0,0,0,0,0,0,0,0,-1,1553,1177,0,0
336,-153,0,0,0,0,0,0,0,0,0,-1,1560,1177,0,0
343,-153,0,0,0,0,0,0,0,0,0,-1,1567,1177,0,0
350,-153,0,0,0,0,0,0,0,0,0,-1,1574,1177,0,0
357,-153,0,0,0,0,0,0,0,0,0,-1,1581,1177,0,0
364,-153,0,0,0,0,0,0,0,0,0,-1,1588,1177,0,0
371,-153,0,0,0,0,0,0,0,0,0,-1,1595,1177,0,0
378,-153,0,0,0,0,0,0,0,0,0,-1,1602,1177,0,0
385,-153,0,0,0,0,0,0,0,0,0,-1,1609,1177,0,0
392,-153,0,0,0,0,0,0,0,0,0,-1,1616,1177,0,0
399,-153,0,0,0,0,0,0,0,0,0,-1,1623,1177,0,0
406,-153,0,0,0,0,0,0,0,0,0,-1,1630,1177,0,0
413,-153,0,0,0,0,0,0,0,0,0,-1,1637,1177,0,0
420,-153,0,0,0,0,0,0,0,0,0,-1,1644,1177,0,0
427,-153,0,0,0,0,0,0,0,0,0,-1,1651,1177,0,0
434,-153,0,0,0,0,0,0,0,0,0,-1,1658,1177,0,0
441,-153,0,0,0,0,0,0,0,0,0,-1,1665,1177,0,0
448,-153,0,0,0,0,0,0,0,0,0,-1,1672,1177,0,0
455,-153,0,0,0,0,0,0,0,0,0,-1,1679,1177,0,0
462,-153,0,0,0,0,0,0,0,0,0,-1,1686,1177,0,0
469,-153,0,0,0,0,0,0,0,0,0,-1,1693,1177,0,0
476,-153,0,0,0,0,0,0,0,0,0,-1,1700,1177,0,0
483,-153,0,0,0,0,0,0,0,0,0,-1,1707,1177,0,0
490,-153,0,0,0,0,0,0,0,0,0,-1,1714,1177,0,0
497,-153,0,0,0,0,0,0,0,0,0,-1,1721,1177,0,0
504,-153,0,0,0,0,0,0,0,0,0,-1,1728,1177,0,0
511,-153,0,0,0,0,0,0,0,0,0,-1,1735,1177,0,0
518,-153,0,0,0,0,0,0,0,0,0,-1,1742,1177,0,0
525,-153,0,0,0,0,0,0,0,0,0,-1,1749,1177,0,0
532,-153,0,0,0,0,0,0,0,0,0,-1,1756,1177,0,0
539,-153,0,0,0,0,0,0,0,0,0,-1,1763,1177,0,0
546,-153,0,0,0,0,0,0,0,0,0,-1,1770,1177,0,0
553,-153,0,0,0,0,0,0,0,0,0,-1,1777,1177,0,0
560,-153,0,0,0,0,0,0,0,0,0,-1,1784,1177,0,0
567,-153,0,0,0,0,0,0,0,0,0,-1,1791,1177,0,0
574,-153,0,0,0,0,0,0,0,0,0,-1,1798,1177,0,0
581,-153,0,0,0,0,0,0,0,0,0,-1,1805,1177,0,0
588,-153,0,0,0,0,0,0,0,0,0,-1,1812,1177,0,0
595,-153,0,0,0,0,0,0,0,0,0,-1,1819,1177,0,0
602,-153,0,0,0,0,0,0,0,0,0,-1,1826,1177,0,0
609,-153,0,0,0,0,0,0,0,0,0,-1,1833,1177,0,0
616,-153,0,0,0,0,0,0,0,0,0,-1,1840,1177,0,0
623,-153,0,0,0,0,0,0,0,0,0,-1,1847,1177,0,0
630,-153,0,0,0,0,0,0,0,0,0,-1,1854,1177,0,0
637,-153,74.4086,2.23889,0.00404678,-0.000310095,-0.00133383,0.00442269,-0.000686007,-0.274704,0.00320172,0.0393545,1861,1177,74.4085,-2.23893
644,-153,74.4006,2.22925,0.00287977,-0.000713158,-0.000585436,0.00297275,-0.000806143,-0.157515,0.00229817,0.0357563,1868,1177,74.4006,-2.2292
651,-153,74.431,2.16858,0.00199155,-0.000607581,-0.000284649,0.00202235,-0.00063839,-0.107815,0.00160395,0.0296035,1875,1177,74.4311,-2.16857
658,-153,74.4001,2.17932,0.00135695,-0.00018287,-0.00030212,0.00141411,-0.000240026,-0.186972,0.00103209,0.0345622,1882,1177,74.4001,-2.17927
665,-153,74.3911,2.33679,0.000854652,0.000460913,-0.000533324,0.00122628,8.92823e-05,-0.608588,0.000789446,0.036554,1889,1177,74.3911,-2.33676
672,-153,74.3606,2.34717,0.000603893,0.00117453,-0.000951613,0.00188268,-0.000104253,-0.931048,0.00129127,0.03545,1896,1177,74.3605,-2.34718
679,-153,74.2802,2.25476,0.000698637,0.00146565,-0.00121756,0.00235867,-0.000194388,-0.937969,0.00164109,0.0272346,1903,1177,74.2801,-2.2547
686,-153,74.2849,2.22644,0.00130936,0.00106019,-0.00119494,0.00238619,-1.66424e-05,-0.733457,0.00159637,0.0194412,1910,1177,74.2849,-2.22644
693,-153,74.3652,2.10583,0,0,0,0,0,0,0,-1,1917,1177,74.3653,-2.10581
700,-153,72.1212,2.15125,0,0,0,0,0,0,0,-1,1924,1177,72.1213,-2.15129
707,-153,29.6483,6.6842,0,0,0,0,0,0,0,-1,1931,1177,29.6483,-6.68415
714,-153,36.0046,6.78418,0,0,0,0,0,0,0,-1,1938,1177,36.0046,-6.78418
721,-153,36.4866,6.47595,0,0,0,0,0,0,0,-1,1945,1177,36.4866,-6.47593
728,-153,47.7305,7.37024,0,0,0,0,0,0,0,-1,1952,1177,47.7304,-7.37022
735,-153,63.9027,8.62927,0,0,0,0,0,0,0,-1,1959,1177,63.9027,-8.62926
742,-153,63.9619,8.0542,0.00115345,-0.000481243,0.0017017,0.00222392,-0.00155171,0.561512,0.00219135,0.0178553,1966,1177,63.962,-8.0542
749,-153,63.9474,7.43347,0.000638339,-2.8708e-05,0.00214438,0.00247498,-0.00186535,0.70825,0.00251412,0.0170532,1973,1177,63.9473,-7.4335
756,-153,63.9103,6.74219,0.00115935,0.00140096,0.00177198,0.00305625,-0.000495943,0.819433,0.00222135,0.0125115,1980,1177,63.9102,-6.74222
763,-153,63.8513,6.05994,0.00278501,0.00292275,0.000889071,0.00374562,0.00196215,0.824055,0.00216335,0.0127191,1987,1177,63.8513,-6.0599
770,-153,63.8384,5.40576,0.00517066,0.00435445,-0.000451103,0.00537087,0.00415424,-0.417698,0.00325181,0.0134712,1994,1177,63.8383,-5.4058
777,-153,63.8196,4.81824,0.0083647,0.00564887,-0.00234945,0.00972043,0.00429315,-0.523366,0.00562481,0.0262868,2001,1177,63.8196,-4.81829
784,-153,63.8799,4.56042,0.0127009,0.0065154,-0.00495438,0.0154486,0.00376769,-0.50637,0.00930112,0.0454818,2008,1177,63.8799,-4.56043
791,-153,63.9363,4.37329,0.0183954,0.00688155,-0.00853477,0.0229334,0.00234361,-0.488685,0.0145707,0.0485053,2015,1177,63.9363,-4.37327
798,-153,64.2112,4.12463,0,0,0,0,0,0,0,-1,2022,1177,64.2111,-4.12458
805,-153,63.6233,0.459351,0,0,0,0,0,0,0,-1,2029,1177,63.6233,-0.459342
812,-153,0,0,0,0,0,0,0,0,0,-1,2036,1177,0,0
-700,-160,0,0,0,0,0,0,0,0,0,-1,524,1184,0,0
-693,-160,0,0,0,0,0,0,0,0,0,-1,531,1184,0,0
-686,-160,-49.4053,-3.50586,0,0,0,0,0,0,0,-1,538,1184,-49.4053,3.50588
-679,-160,-48.9495,-1.9585,0,0,0,0,0,0,0,-1,545,1184,-48.9494,1.95855
-672,-160,-48.5046,-0.431152,0,0,0,0,0,0,0,-1,552,1184,-48.5046,0.43111
-665,-160,-44.423,0.0632324,0,0,0,0,0,0,0,-1,559,1184,-44.423,-0.0632733
-658,-160,-46.6947,2.91895,0,0,0,0,0,0,0,-1,566,1184,-46.6947,-2.91891
-651,-160,-46.7213,3.11816,0,0,0,0,0,0,0,-1,573,1184,-46.7213,-3.11818
-644,-160,-46.7187,3.71521,0.00824801,-0.0010261,-0.00476676,0.0102611,-0.00303918,-0.399595,0.00804741,0.0392077,580,1184,-46.7187,-3.7152
-637,-160,-46.6657,4.11243,0.00398437,2.04512e-05,-0.00426997,0.00670994,-0.00270512,-0.568114,0.00559731,0.0153424,587,1184,-46.6657,-4.1124
-630,-160,-46.7311,4.76709,0.000540308,0.000491082,-0.00390108,0.00441685,-0.00338546,-0.782244,0.00451777,0.00852134,594,1184,-46.7311,-4.76703
-623,-160,-46.7776,5.47534,-0.0022774,0.000604594,-0.00387063,0.00329376,-0.00496656,-0.963595,0.00480159,0.015134,601,1184,-46.7776,-5.47537
-616,-160,-46.8214,6.17236,-0.00472781,0.000461981,-0.00412094,0.00273696,-0.00700278,-1.06638,0.00580024,0.0143235,608,1184,-46.8214,-6.17242
-609,-160,-46.996,6.82605,-0.00688588,0.000125817,-0.00471583,0.00249619,-0.00925625,-1.10504,0.00714965,0.0259836,615,1184,-46.996,-6.82605
-602,-160,-47.2233,7.49329,0,0,0,0,0,0,0,-1,622,1184,-47.2233,-7.49323
-595,-160,-33.0669,5.93445,0,0,0,0,0,0,0,-1,629,1184,-33.0669,-5.93446
-588,-160,-33.4845,5.66699,0,0,0,0,0,0,0,-1,636,1184,-33.4845,-5.66697
-581,-160,-33.1338,6.41174,0,0,0,0,0,0,0,-1,643,1184,-33.1338,-6.41176
-574,-160,-32.7831,7.15649,0,0,0,0,0,0,0,-1,650,1184,-32.7831,-7.15655
-567,-160,-29.5828,0.643921,0,0,0,0,0,0,0,-1,657,1184,-29.5828,-0.643968
-560,-160,-57.0784,0.200806,0,0,0,0,0,0,0,-1,664,1184,-57.0784,-0.200768
-553,-160,-57.1218,0.169556,0,0,0,0,0,0,0,-1,671,1184,-57.1218,-0.169588
-546,-160,-57.1035,0.0871582,0,0,0,0,0,0,0,-1,678,1184,-57.1035,-0.087137
-539,-160,-57.118,-0.0496826,0,0,0,0,0,0,0,-1,685,1184,-57.1181,0.0496808
-532,-160,-57.1896,0.0991211,0,0,0,0,0,0,0,-1,692,1184,-57.1897,-0.0991646
-525,-160,-57.1824,0.177612,0,0,0,0,0,0,0,-1,699,1184,-57.1824,-0.177559
-518,-160,-57.0683,0.237671,0,0,0,0,0,0,0,-1,706,1184,-57.0683,-0.237642
-511,-160,0,0,0,0,0,0,0,0,0,-1,713,1184,0,0
-504,-160,0,0,0,0,0,0,0,0,0,-1,720,1184,0,0
-497,-160,0,0,0,0,0,0,0,0,0,-1,727,1184,0,0
-490,-160,0,0,0,0,0,0,0,0,0,-1,734,1184,0,0
-483,-160,0,0,0,0,0,0,0,0,0,-1,741,1184,0,0
-476,-160,0,0,0,0,0,0,0,0,0,-1,748,1184,0,0
-469,-160,0,0,0,0,0,0,0,0,0,-1,755,1184,0,0
-462,-160,0,0,0,0,0,0,0,0,0,-1,762,1184,0,0
-455,-160,0,0,0,0,0,0,0,0,0,-1,769,1184,0,0
-448,-160,0,0,0,0,0,0,0,0,0,-1,776,1184,0,0
-441,-160,0,0,0,0,0,0,0,0,0,-1,783,1184,0,0
-434,-160,0,0,0,0,0,0,0,0,0,-1,790,1184,0,0
-427,-160,0,0,0,0,0,0,0,0,0,-1,797,1184,0,0
-420,-160,0,0,0,0,0,0,0,0,0,-1,804,1184,0,0
-413,-160,0,0,0,0,0,0,0,0,0,-1,811,1184,0,0
-406,-160,0,0,0,0,0,0,0,0,0,-1,818,1184,0,0
-399,-160,0,0,0,0,0,0,0,0,0,-1,825,1184,0,0
-392,-160,0,0,0,0,0,0,0,0,0,-1,832,1184,0,0
-385,-160,0,0,0,0,0,0,0,0,0,-1,839,1184,0,0
-378,-160,0,0,0,0,0,0,0,0,0,-1,846,1184,0,0
-371,-160,0,0,0,0,0,0,0,0,0,-1,853,1184,0,0
-364,-160,0,0,0,0,0,0,0,0,0,-1,860,1184,0,0
-357,-160,0,0,0,0,0,0,0,0,0,-1,867,1184,0,0
-350,-160,0,0,0,0,0,0,0,0,0,-1,874,1184,0,0
-343,-160,0,0,0,0,0,0,0,0,0,-1,881,1184,0,0
-336,-160,0,0,0,0,0,0,0,0,0,-1,888,1184,0,0
-329,-160,0,0,0,0,0,0,0,0,0,-1,895,1184,0,0
-322,-160,0,0,0,0,0,0,0,0,0,-1,902,1184,0,0
-315,-160,0,0,0,0,0,0,0,0,0,-1,909,1184,0,0
-308,-160,0,0,0,0,0,0,0,0,0,-1,916,1184,0,0
-301,-160,0,0,0,0,0,0,0,0,0,-1,923,1184,0,0
-294,-160,0,0,0,0,0,0,0,0,0,-1,930,1184,0,0
-287,-160,0,0,0,0,0,0,0,0,0,-1,937,1184,0,0
-280,-160,0,0,0,0,0,0,0,0,0,-1,944,1184,0,0
-273,-160,0,0,0,0,0,0,0,0,0,-1,951,1184,0,0
-266,-160,0,0,0,0,0,0,0,0,0,-1,958,1184,0,0
-259,-160,0,0,0,0,0,0,0,0,0,-1,965,1184,0,0
-252,-160,0,0,0,0,0,0,0,0,0,-1,972,1184,0,0
-245,-160,0,0,0,0,0,0,0,0,0,-1,979,1184,0,0
-238,-160,0,0,0,0,0,0,0,0,0,-1,986,1184,0,0
-231,-160,0,0,0,0,0,0,0,0,0,-1,993,1184,0,0
-224,-160,0,0,0,0,0,0,0,0,0,-1,1000,1184,0,0
-217,-160,0,0,0,0,0,0,0,0,0,-1,1007,1184,0,0
-210,-160,0,0,0,0,0,0,0,0,0,-1,1014,1184,0,0
-203,-160,0,0,0,0,0,0,0,0,0,-1,1021,1184,0,0
-196,-160,0,0,0,0,0,0,0,0,0,-1,1028,1184,0,0
-189,-160,0,0,0,0,0,0,0,0,0,-1,1035,1184,0,0
-182,-160,0,0,0,0,0,0,0,0,0,-1,1042,1184,0,0
-175,-160,0,0,0,0,0,0,0,0,0,-1,1049,1184,0,0
-168,-160,0,0,0,0,0,0,0,0,0,-1,1056,1184,0,0
-161,-160,0,0,0,0,0,0,0,0,0,-1,1063,1184,0,0
-154,-160,0,0,0,0,0,0,0,0,0,-1,1070,1184,0,0
-147,-160,0,0,0,0,0,0,0,0,0,-1,1077,1184,0,0
-140,-160,0,0,0,0,0,0,0,0,0,-1,1084,1184,0,0
-133,-160,0,0,0,0,0,0,0,0,0,-1,1091,1184,0,0
-126,-160,0,0,0,0,0,0,0,0,0,-1,1098,1184,0,0
-119,-160,0,0,0,0,0,0,0,0,0,-1,1105,1184,0,0
-112,-160,0,0,0,0,0,0,0,0,0,-1,1112,1184,0,0
-105,-160,0,0,0,0,0,0,0,0,0,-1,1119,1184,0,0
-98,-160,0,0,0,0,0,0,0,0,0,-1,1126,1184,0,0
-91,-160,0,0,0,0,0,0,0,0,0,-1,1133,1184,0,0
-84,-160,0,0,0,0,0,0,0,0,0,-1,1140,1184,0,0
-77,-160,0,0,0,0,0,0,0,0,0,-1,1147,1184,0,0
-70,-160,0,0,0,0,0,0,0,0,0,-1,1154,1184,0,0
-63,-160,0,0,0,0,0,0,0,0,0,-1,1161,1184,0,0
-56,-160,0,0,0,0,0,0,0,0,0,-1,1168,1184,0,0
-49,-160,0,0,0,0,0,0,0,0,0,-1,1175,1184,0,0
-42,-160,0,0,0,0,0,0,0,0,0,-1,1182,1184,0,0
-35,-160,0,0,0,0,0,0,0,0,0,-1,1189,1184,0,0
-28,-160,0,0,0,0,0,0,0,0,0,-1,1196,1184,0,0
-21,-160,0,0,0,0,0,0,0,0,0,-1,1203,1184,0,0
-14,-160,0,0,0,0,0,0,0,0,0,-1,1210,1184,0,0
-7,-160,0,0,0,0,0,0,0,0,0,-1,1217,1184,0,0
0,-160,0,0,0,0,0,0,0,0,0,-1,1224,1184,0,0
7,-160,0,0,0,0,0,0,0,0,0,-1,1231,1184,0,0
14,-160,0,0,0,0,0,0,0,0,0,-1,1238,1184,0,0
21,-160,0,0,0,0,0,0,0,0,0,-1,1245,1184,0,0
28,-160,0,0,0,0,0,0,0,0,0,-1,1252,1184,0,0
35,-160,0,0,0,0,0,0,0,0,0,-1,1259,1184,0,0
42,-160,0,0,0,0,0,0,0,0,0,-1,1266,1184,0,0
49,-160,0,0,0,0,0,0,0,0,0,-1,1273,1184,0,0
56,-160,0,0,0,0,0,0,0,0,0,-1,1280,1184,0,0
63,-160,0,0,0,0,0,0,0,0,0,-1,1287,1184,0,0
70,-160,0,0,0,0,0,0,0,0,0,-1,1294,1184,0,0
77,-160,0,0,0,0,0,0,0,0,0,-1,1301,1184,0,0
84,-160,0,0,0,0,0,0,0,0,0,-1,1308,1184,0,0
91,-160,0,0,0,0,0,0,0,0,0,-1,1315,1184,0,0
98,-160,0,0,0,0,0,0,0,0,0,-1,1322,1184,0,0
105,-160,0,0,0,0,0,0,0,0,0,-1,1329,1184,0,0
112,-160,0,0,0,0,0,0,0,0,0,-1,1336,1184,0,0
119,-160,0,0,0,0,0,0,0,0,0,-1,1343,1184,0,0
126,-160,0,0,0,0,0,0,0,0,0,-1,1350,1184,0,0
133,-160,0,0,0,0,0,0,0,0,0,-1,1357,1184,0,0
140,-160,0,0,0,0,0,0,0,0,0,-1,1364,1184,0,0
147,-160,0,0,0,0,0,0,0,0,0,-1,1371,1184,0,0
154,-160,0,0,0,0,0,0,0,0,0,-1,1378,1184,0,0
161,-160,0,0,0,0,0,0,0,0,0,-1,1385,1184,0,0
168,-160,0,0,0,0,0,0,0,0,0,-1,1392,1184,0,0
175,-160,0,0,0,0,0,0,0,0,0,-1,1399,1184,0,0
182,-160,0,0,0,0,0,0,0,0,0,-1,1406,1184,0,0
189,-160,0,0,0,0,0,0,0,0,0,-1,1413,1184,0,0
196,-160,0,0,0,0,0,0,0,0,0,-1,1420,1184,0,0
203,-160,0,0,0,0,0,0,0,0,0,-1,1427,1184,0,0
210,-160,0,0,0,0,0,0,0,0,0,-1,1434,1184,0,0
217,-160,0,0,0,0,0,0,0,0,0,-1,1441,1184,0,0
224,-160,0,0,0,0,0,0,0,0,0,-1,1448,1184,0,0
231,-160,0,0,0,0,0,0,0,0,0,-1,1455,1184,0,0
238,-160,0,0,0,0,0,0,0,0,0,-1,1462,1184,0,0
245,-160,0,0,0,0,0,0,0,0,0,-1,1469,1184,0,0
252,-160,0,0,0,0,0,0,0,0,0,-1,1476,1184,0,0
259,-160,0,0,0,0,0,0,0,0,0,-1,1483,1184,0,0
266,-160,0,0,0,0,0,0,0,0,0,-1,1490,1184,0,0
273,-160,0,0,0,0,0,0,0,0,0,-1,1497,1184,0,0
280,-160,0,0,0,0,0,0,0,0,0,-1,1504,1184,0,0
287,-160,0,0,0,0,0,0,0,0,0,-1,1511,1184,0,0
294,-160,0,0,0,0,0,0,0,0,0,-1,1518,1184,0,0
301,-160,0,0,0,0,0,0,0,0,0,-1,1525,1184,0,0
308,-160,0,0,0,0,0,0,0,0,0,-1,1532,1184,0,0
315,-160,0,0,0,0,0,0,0,0,0,-1,1539,1184,0,0
322,-160,0,0,0,0,0,0,0,0,0,-1,1546,1184,0,0
329,-160,0,0,0,0,0,0,0,0,0,-1,1553,1184,0,0
336,-160,0,0,0,0,0,0,0,0,0,-1,1560,1184,0,0
343,-160,0,0,0,0,0,0,0,0,0,-1,1567,1184,0,0
350,-160,0,0,0,0,0,0,0,0,0,-1,1574,1184,0,0
357,-160,0,0,0,0,0,0,0,0,0,-1,1581,1184,0,0
364,-160,0,0,0,0,0,0,0,0,0,-1,1588,1184,0,0
371,-160,0,0,0,0,0,0,0,0,0,-1,1595,1184,0,0
378,-160,0,0,0,0,0,0,0,0,0,-1,1602,1184,0,0
385,-160,0,0,0,0,0,0,0,0,0,-1,1609,1184,0,0
392,-160,0,0,0,0,0,0,0,0,0,-1,1616,1184,0,0
399,-160,0,0,0,0,0,0,0,0,0,-1,1623,1184,0,0
406,-160,0,0,0,0,0,0,0,0,0,-1,1630,1184,0,0
413,-160,0,0,0,0,0,0,0,0,0,-1,1637,1184,0,0
420,-160,0,0,0,0,0,0,0,0,0,-1,1644,1184,0,0
427,-160,0,0,0,0,0,0,0,0,0,-1,1651,1184,0,0
434,-160,0,0,0,0,0,0,0,0,0,-1,1658,1184,0,0
441,-160,0,0,0,0,0,0,0,0,0,-1,1665,1184,0,0
448,-160,0,0,0,0,0,0,0,0,0,-1,1672,1184,0,0
455,-160,0,0,0,0,0,0,0,0,0,-1,1679,1184,0,0
462,-160,0,0,0,0,0,0,0,0,0,-1,1686,1184,0,0
469,-160,0,0,0,0,0,0,0,0,0,-1,1693,1184,0,0
476,-160,0,0,0,0,0,0,0,0,0,-1,1700,1184,0,0
483,-160,0,0,0,0,0,0,0,0,0,-1,1707,1184,0,0
490,-160,0,0,0,0,0,0,0,0,0,-1,1714,1184,0,0
497,-160,0,0,0,0,0,0,0,0,0,-1,1721,1184,0,0
504,-160,0,0,0,0,0,0,0,0,0,-1,1728,1184,0,0
511,-160,0,0,0,0,0,0,0,0,0,-1,1735,1184,0,0
518,-160,0,0,0,0,0,0,0,0,0,-1,1742,1184,0,0
525,-160,0,0,0,0,0,0,0,0,0,-1,1749,1184,0,0
532,-160,0,0,0,0,0,0,0,0,0,-1,1756,1184,0,0
539,-160,0,0,0,0,0,0,0,0,0,-1,1763,1184,0,0
546,-160,0,0,0,0,0,0,0,0,0,-1,1770,1184,0,0
553,-160,0,0,0,0,0,0,0,0,0,-1,1777,1184,0,0
560,-160,0,0,0,0,0,0,0,0,0,-1,1784,1184,0,0
567,-160,0,0,0,0,0,0,0,0,0,-1,1791,1184,0,0
574,-160,0,0,0,0,0,0,0,0,0,-1,1798,1184,0,0
581,-160,0,0,0,0,0,0,0,0,0,-1,1805,1184,0,0
588,-160,0,0,0,0,0,0,0,0,0,-1,1812,1184,0,0
595,-160,0,0,0,0,0,0,0,0,0,-1,1819,1184,0,0
602,-160,0,0,0,0,0,0,0,0,0,-1,1826,1184,0,0
609,-160,0,0,0,0,0,0,0,0,0,-1,1833,1184,0,0
616,-160,0,0,0,0,0,0,0,0,0,-1,1840,1184,0,0
623,-160,0,0,0,0,0,0,0,0,0,-1,1847,1184,0,0
630,-160,0,0,0,0,0,0,0,0,0,-1,1854,1184,0,0
637,-160,74.3945,2.24878,0.00363334,-0.000278299,-0.00122628,0.00398598,-0.000630942,-0.280015,0.00289068,0.0428865,1861,1184,74.3945,-2.24882
644,-160,74.4039,2.24023,0.00264219,-0.00048879,-0.000702883,0.00279274,-0.000639344,-0.211005,0.00210752,0.0418062,1868,1184,74.4039,-2.24023
651,-160,74.3192,2.302,0.00192897,-0.000238679,-0.000556246,0.00206338,-0.000373084,-0.237086,0.00151533,0.0375424,1875,1184,74.3192,-2.30196
658,-160,74.2493,2.36157,0.00142939,0.000304003,-0.00068178,0.00175069,-1.72983e-05,-0.440399,0.00117294,0.0374949,1882,1184,74.2493,-2.36161
665,-160,74.2529,2.35925,0.00104819,0.000995739,-0.000928643,0.00195098,9.29529e-05,-0.771281,0.0012708,0.0379399,1889,1184,74.2529,-2.35922
672,-160,74.2888,2.3031,0.000939963,0.00164243,-0.00127437,0.00261309,-3.06916e-05,-0.919867,0.00175238,0.0344381,1896,1184,74.2888,-2.30312
679,-160,74.2871,2.27185,0.00108599,0.00184773,-0.00141793,0.00293505,-1.32958e-06,-0.916606,0.00195714,0.0271892,1903,1184,74.2872,-2.27182
686,-160,74.321,2.20056,0.00158905,0.00143167,-0.00135364,0.00286628,0.000154429,-0.756364,0.00186152,0.0189847,1910,1184,74.321,-2.20059
693,-160,74.3949,2.13013,0,0,0,0,0,0,0,-1,1917,1184,74.3949,-2.13017
700,-160,42.8784,2.44617,0,0,0,0,0,0,0,-1,1924,1184,42.8785,-2.4462
707,-160,24.5115,6.27405,0,0,0,0,0,0,0,-1,1931,1184,24.5115,-6.27401
714,-160,35.6892,6.8905,0,0,0,0,0,0,0,-1,1938,1184,35.6892,-6.89048
721,-160,36.2388,6.37878,0,0,0,0,0,0,0,-1,1945,1184,36.2388,-6.37876
728,-160,52.2174,8.57385,0,0,0,0,0,0,0,-1,1952,1184,52.2174,-8.57381
735,-160,63.2491,8.70422,0,0,0,0,0,0,0,-1,1959,1184,63.2491,-8.70417
742,-160,63.2727,8.02759,0.00134916,-2.56138e-05,0.00142156,0.0022408,-0.000917253,0.5602,0.00187592,0.0197509,1966,1184,63.2727,-8.02762
749,-160,63.2561,7.396,0.000987817,0.000333686,0.00185857,0.00254788,-0.00122638,0.698301,0.00222315,0.0189795,1973,1184,63.2561,-7.39603
756,-160,63.2321,6.7627,0.00150101,0.00126694,0.00167239,0.00306046,-0.000292505,0.750464,0.00214447,0.0129748,1980,1184,63.2321,-6.7627
763,-160,63.1672,6.10388,0.00283804,0.00218835,0.00110866,0.00366847,0.00135792,0.642885,0.00214166,0.0136346,1987,1184,63.1671,-6.10389
770,-160,63.0596,5.3866,0.00486576,0.00298567,0.000124842,0.00487402,0.00297742,0.0660156,0.00283698,0.0305812,1994,1184,63.0595,-5.38665
777,-160,63.0347,4.74976,0.00764427,0.0036222,-0.0014139,0.00809156,0.00317491,-0.306391,0.0047076,0.0411367,2001,1184,63.0348,-4.74975
784,-160,63.2085,3.95374,0,0,0,0,0,0,0,-1,2008,1184,63.2086,-3.95373
791,-160,63.6831,4.2168,0,0,0,0,0,0,0,-1,2015,1184,63.6831,-4.2168
798,-160,64.8333,-0.0465088,0.0227544,0.00238814,-0.0114793,0.0279163,-0.00277381,-0.422582,0.019601,0.0457174,2022,1184,64.8333,0.0465689
805,-160,64.1367,-0.327148,0,0,0,0,0,0,0,-1,2029,1184,64.1368,0.327112
812,-160,0,0,0,0,0,0,0,0,0,-1,2036,1184,0,0
-700,-167,0,0,0,0,0,0,0,0,0,-1,524,1191,0,0
-693,-167,0,0,0,0,0,0,0,0,0,-1,531,1191,0,0
-686,-167,-49.0701,-2.73071,0,0,0,0,0,0,0,-1,538,1191,-49.0701,2.73076
-679,-167,-48.1062,-1.4873,0,0,0,0,0,0,0,-1,545,1191,-48.1062,1.48728
-672,-167,-47.5424,-0.0893555,0,0,0,0,0,0,0,-1,552,1191,-47.5424,0.0893583
-665,-167,-47.0966,1.32239,0,0,0,0,0,0,0,-1,559,1191,-47.0967,-1.32242
-658,-167,-48.0909,2.15295,0,0,0,0,0,0,0,-1,566,1191,-48.0909,-2.15301
-651,-167,-46.1484,3.39905,0,0,0,0,0,0,0,-1,573,1191,-46.1484,-3.39908
-644,-167,-45.9909,3.78027,0.00637091,-0.000544408,-0.00661338,0.010376,-0.00454947,-0.544527,0.00883336,0.0407473,580,1191,-45.9909,-3.78026
-637,-167,-45.9172,4.14075,0.00316125,0.000232499,-0.00527328,0.0071697,-0.00377595,-0.649962,0.00641993,0.0187259,587,1191,-45.9172,-4.14075
-630,-167,-46.0198,4.76721,0.000669974,0.000473322,-0.00429865,0.00487142,-0.00372813,-0.773963,0.00497956,0.00909858,594,1191,-46.0198,-4.76723
-623,-167,-46.0457,5.4436,-0.00126948,0.000404543,-0.00389281,0.00354931,-0.00441425,-0.891293,0.0046068,0.0142518,601,1191,-46.0457,-5.44355
-616,-167,-46.0613,6.16858,-0.00292285,0.000120613,-0.00387782,0.00276459,-0.00556683,-0.972375,0.00490001,0.0190968,608,1191,-46.0613,-6.16854
-609,-167,-46.136,6.93652,-0.00435736,-0.000326771,-0.00429612,0.00240325,-0.00708739,-1.00471,0.00569754,0.019195,615,1191,-46.136,-6.9365
-602,-167,-46.2687,7.66504,0,0,0,0,0,0,0,-1,622,1191,-46.2688,-7.66498
-595,-167,-45.9128,7.67786,0,0,0,0,0,0,0,-1,629,1191,-45.9128,-7.67791
-588,-167,-42.7112,7.92004,0,0,0,0,0,0,0,-1,636,1191,-42.7112,-7.92007
-581,-167,-32.8646,6.30542,0,0,0,0,0,0,0,-1,643,1191,-32.8646,-6.30537
-574,-167,-32.4808,7.37524,0,0,0,0,0,0,0,-1,650,1191,-32.4808,-7.37525
-567,-167,-27.3643,2.55859,0,0,0,0,0,0,0,-1,657,1191,-27.3643,-2.55864
-560,-167,-48.2598,0.834839,0,0,0,0,0,0,0,-1,664,1191,-48.2598,-0.834822
-553,-167,-57.0361,0.12915,0,0,0,0,0,0,0,-1,671,1191,-57.0361,-0.129091
-546,-167,-57.0739,0.21521,0,0,0,0,0,0,0,-1,678,1191,-57.0739,-0.215229
-539,-167,-57.0056,0.267334,0,0,0,0,0,0,0,-1,685,1191,-57.0056,-0.267325
-532,-167,-57.0333,0.226807,0,0,0,0,0,0,0,-1,692,1191,-57.0333,-0.226836
-525,-167,-57.0858,0.125122,0,0,0,0,0,0,0,-1,699,1191,-57.0858,-0.125135
-518,-167,-57.05,0.0898438,0,0,0,0,0,0,0,-1,706,1191,-57.05,-0.0898897
-511,-167,0,0,0,0,0,0,0,0,0,-1,713,1191,0,0
-504,-167,0,0,0,0,0,0,0,0,0,-1,720,1191,0,0
-497,-167,0,0,0,0,0,0,0,0,0,-1,727,1191,0,0
-490,-167,0,0,0,0,0,0,0,0,0,-1,734,1191,0,0
-483,-167,0,0,0,0,0,0,0,0,0,-1,741,1191,0,0
-476,-167,0,0,0,0,0,0,0,0,0,-1,748,1191,0,0
-469,-167,0,0,0,0,0,0,0,0,0,-1,755,1191,0,0
-462,-167,0,0,0,0,0,0,0,0,0,-1,762,1191,0,0
-455,-167,0,0,0,0,0,0,0,0,0,-1,769,1191,0,0
-448,-167,0,0,0,0,0,0,0,0,0,-1,776,1191,0,0
-441,-167,0,0,0,0,0,0,0,0,0,-1,783,1191,0,0
-434,-167,0,0,0,0,0,0,0,0,0,-1,790,1191,0,0
-427,-167,0,0,0,0,0,0,0,0,0,-1,797,1191,0,0
-420,-167,0,0,0,0,0,0,0,0,0,-1,804,1191,0,0
-413,-167,0,0,0,0,0,0,0,0,0,-1,811,1191,0,0
-406,-167,0,0,0,0,0,0,0,0,0,-1,818,1191,0,0
-399,-167,0,0,0,0,0,0,0,0,0,-1,825,1191,0,0
-392,-167,0,0,0,0,0,0,0,0,0,-1,832,1191,0,0
-385,-167,0,0,0,0,0,0,0,0,0,-1,839,1191,0,0
-378,-167,0,0,0,0,0,0,0,0,0,-1,846,1191,0,0
-371,-167,0,0,0,0,0,0,0,0,0,-1,853,1191,0,0
-364,-167,0,0,0,0,0,0,0,0,0,-1,860,1191,0,0
-357,-167,0,0,0,0,0,0,0,0,0,-1,867,1191,0,0
-350,-167,0,0,0,0,0,0,0,0,0,-1,874,1191,0,0
-343,-167,0,0,0,0,0,0,0,0,0,-1,881,1191,0,0
-336,-167,0,0,0,0,0,0,0,0,0,-1,888,1191,0,0
-329,-167,0,0,0,0,0,0,0,0,0,-1,895,1191,0,0
-322,-167,0,0,0,0,0,0,0,0,0,-1,902,1191,0,0
-315,-167,0,0,0,0,0,0,0,0,0,-1,909,1191,0,0
-308,-167,0,0,0,0,0,0,0,0,0,-1,916,1191,0,0
-301,-167,0,0,0,0,0,0,0,0,0,-1,923,1191,0,0
-294,-167,0,0,0,0,0,0,0,0,0,-1,930,1191,0,0
-287,-167,0,0,0,0,0,0,0,0,0,-1,937,1191,0,0
-280,-167,0,0,0,0,0,0,0,0,0,-1,944,1191,0,0
-273,-167,0,0,0,0,0,0,0,0,0,-1,951,1191,0,0
-266,-167,0,0,0,0,0,0,0,0,0,-1,958,1191,0,0
-259,-167,0,0,0,0,0,0,0,0,0,-1,965,1191,0,0
-252,-167,0,0,0,0,0,0,0,0,0,-1,972,1191,0,0
-245,-167,0,0,0,0,0,0,0,0,0,-1,979,1191,0,0
-238,-167,0,0,0,0,0,0,0,0,0,-1,986,1191,0,0
-231,-167,0,0,0,0,0,0,0,0,0,-1,993,1191,0,0
-224,-167,0,0,0,0,0,0,0,0,0,-1,1000,1191,0,0
-217,-167,0,0,0,0,0,0,0,0,0,-1,1007,1191,0,0
-210,-167,0,0,0,0,0,0,0,0,0,-1,1014,1191,0,0
-203,-167,0,0,0,0,0,0,0,0,0,-1,1021,1191,0,0
-196,-167,0,0,0,0,0,0,0,0,0,-1,1028,1191,0,0
-189,-167,0,0,0,0,0,0,0,0,0,-1,1035,1191,0,0
-182,-167,0,0,0,0,0,0,0,0,0,-1,1042,1191,0,0
-175,-167,0,0,0,0,0,0,0,0,0,-1,1049,1191,0,0
-168,-167,0,0,0,0,0,0,0,0,0,-1,1056,1191,0,0
-161,-167,0,0,0,0,0,0,0,0,0,-1,1063,1191,0,0
-154,-167,0,0,0,0,0,0,0,0,0,-1,1070,1191,0,0
-147,-167,0,0,0,0,0,0,0,0,0,-1,1077,1191,0,0
-140,-167,0,0,0,0,0,0,0,0,0,-1,1084,1191,0,0
-133,-167,0,0,0,0,0,0,0,0,0,-1,1091,1191,0,0
-126,-167,0,0,0,0,0,0,0,0,0,-1,1098,1191,0,0
-119,-167,0,0,0,0,0,0,0,0,0,-1,1105,1191,0,0
-112,-167,0,0,0,0,0,0,0,0,0,-1,1112,1191,0,0
-105,-167,0,0,0,0,0,0,0,0,0,-1,1119,1191,0,0
-98,-167,0,0,0,0,0,0,0,0,0,-1,1126,1191,0,0
-91,-167,0,0,0,0,0,0,0,0,0,-1,1133,1191,0,0
-84,-167,0,0,0,0,0,0,0,0,0,-1,1140,1191,0,0
-77,-167,0,0,0,0,0,0,0,0,0,-1,1147,1191,0,0
-70,-167,0,0,0,0,0,0,0,0,0,-1,1154,1191,0,0
-63,-167,0,0,0,0,0,0,0,0,0,-1,1161,1191,0,0
-56,-167,0,0,0,0,0,0,0,0,0,-1,1168,1191,0,0
-49,-167,0,0,0,0,0,0,0,0,0,-1,1175,1191,0,0
-42,-167,0,0,0,0,0,0,0,0,0,-1,1182,1191,0,0
-35,-167,0,0,0,0,0,0,0,0,0,-1,1189,1191,0,0
-28,-167,0,0,0,0,0,0,0,0,0,-1,1196,1191,0,0
-21,-167,0,0,0,0,0,0,0,0,0,-1,1203,1191,0,0
-14,-167,0,0,0,0,0,0,0,0,0,-1,1210,1191,0,0
-7,-167,0,0,0,0,0,0,0,0,0,-1,1217,1191,0,0
0,-167,0,0,0,0,0,0,0,0,0,-1,1224,1191,0,0
7,-167,0,0,0,0,0,0,0,0,0,-1,1231,1191,0,0
14,-167,0,0,0,0,0,0,0,0,0,-1,1238,1191,0,0
21,-167,0,0,0,0,0,0,0,0,0,-1,1245,1191,0,0
28,-167,0,0,0,0,0,0,0,0,0,-1,1252,1191,0,0
35,-167,0,0,0,0,0,0,0,0,0,-1,1259,1191,0,0
42,-167,0,0,0,0,0,0,0,0,0,-1,1266,1191,0,0
49,-167,0,0,0,0,0,0,0,0,0,-1,1273,1191,0,0
56,-167,0,0,0,0,0,0,0,0,0,-1,1280,1191,0,0
63,-167,0,0,0,0,0,0,0,0,0,-1,1287,1191,0,0
70,-167,0,0,0,0,0,0,0,0,0,-1,1294,1191,0,0
77,-167,0,0,0,0,0,0,0,0,0,-1,1301,1191,0,0
84,-167,0,0,0,0,0,0,0,0,0,-1,1308,1191,0,0
91,-167,0,0,0,0,0,0,0,0,0,-1,1315,1191,0,0
98,-167,0,0,0,0,0,0,0,0,0,-1,1322,1191,0,0
105,-167,0,0,0,0,0,0,0,0,0,-1,1329,1191,0,0
112,-167,0,0,0,0,0,0,0,0,0,-1,1336,1191,0,0
119,-167,0,0,0,0,0,0,0,0,0,-1,1343,1191,0,0
126,-167,0,0,0,0,0,0,0,0,0,-1,1350,1191,0,0
133,-167,0,0,0,0,0,0,0,0,0,-1,1357,1191,0,0
140,-167,0,0,0,0,0,0,0,0,0,-1,1364,1191,0,0
147,-167,0,0,0,0,0,0,0,0,0,-1,1371,1191,0,0
154,-167,0,0,0,0,0,0,0,0,0,-1,1378,1191,0,0
161,-167,0,0,0,0,0,0,0,0,0,-1,1385,1191,0,0
168,-167,0,0,0,0,0,0,0,0,0,-1,1392,1191,0,0
175,-167,0,0,0,0,0,0,0,0,0,-1,1399,1191,0,0
182,-167,0,0,0,0,0,0,0,0,0,-1,1406,1191,0,0
189,-167,0,0,0,0,0,0,0,0,0,-1,1413,1191,0,0
196,-167,0,0,0,0,0,0,0,0,0,-1,1420,1191,0,0
203,-167,0,0,0,0,0,0,0,0,0,-1,1427,1191,0,0
210,-167,0,0,0,0,0,0,0,0,0,-1,1434,1191,0,0
217,-167,0,0,0,0,0,0,0,0,0,-1,1441,1191,0,0
224,-167,0,0,0,0,0,0,0,0,0,-1,1448,1191,0,0
231,-167,0,0,0,0,0,0,0,0,0,-1,1455,1191,0,0
238,-167,0,0,0,0,0,0,0,0,0,-1,1462,1191,0,0
245,-167,0,0,0,0,0,0,0,0,0,-1,1469,1191,0,0
252,-167,0,0,0,0,0,0,0,0,0,-1,1476,1191,0,0
259,-167,0,0,0,0,0,0,0,0,0,-1,1483,1191,0,0
266,-167,0,0,0,0,0,0,0,0,0,-1,1490,1191,0,0
273,-167,0,0,0,0,0,0,0,0,0,-1,1497,1191,0,0
280,-167,0,0,0,0,0,0,0,0,0,-1,1504,1191,0,0
287,-167,0,0,0,0,0,0,0,0,0,-1,1511,1191,0,0
294,-167,0,0,0,0,0,0,0,0,0,-1,1518,1191,0,0
301,-167,0,0,0,0,0,0,0,0,0,-1,1525,1191,0,0
308,-167,0,0,0,0,0,0,0,0,0,-1,1532,1191,0,0
315,-167,0,0,0,0,0,0,0,0,0,-1,1539,1191,0,0
322,-167,0,0,0,0,0,0,0,0,0,-1,1546,1191,0,0
329,-167,0,0,0,0,0,0,0,0,0,-1,1553,1191,0,0
336,-167,0,0,0,0,0,0,0,0,0,-1,1560,1191,0,0
343,-167,0,0,0,0,0,0,0,0,0,-1,1567,1191,0,0
350,-167,0,0,0,0,0,0,0,0,0,-1,1574,1191,0,0
357,-167,0,0,0,0,0,0,0,0,0,-1,1581,1191,0,0
364,-167,0,0,0,0,0,0,0,0,0,-1,1588,1191,0,0
371,-167,0,0,0,0,0,0,0,0,0,-1,1595,1191,0,0
378,-167,0,0,0,0,0,0,0,0,0,-1,1602,1191,0,0
385,-167,0,0,0,0,0,0,0,0,0,-1,1609,1191,0,0
392,-167,0,0,0,0,0,0,0,0,0,-1,1616,1191,0,0
399,-167,0,0,0,0,0,0,0,0,0,-1,1623,1191,0,0
406,-167,0,0,0,0,0,0,0,0,0,-1,1630,1191,0,0
413,-167,0,0,0,0,0,0,0,0,0,-1,1637,1191,0,0
420,-167,0,0,0,0,0,0,0,0,0,-1,1644,1191,0,0
427,-167,0,0,0,0,0,0,0,0,0,-1,1651,1191,0,0
434,-167,0,0,0,0,0,0,0,0,0,-1,1658,1191,0,0
441,-167,0,0,0,0,0,0,0,0,0,-1,1665,1191,0,0
448,-167,0,0,0,0,0,0,0,0,0,-1,1672,1191,0,0
455,-167,0,0,0,0,0,0,0,0,0,-1,1679,1191,0,0
462,-167,0,0,0,0,0,0,0,0,0,-1,1686,1191,0,0
469,-167,0,0,0,0,0,0,0,0,0,-1,1693,1191,0,0
476,-167,0,0,0,0,0,0,0,0,0,-1,1700,1191,0,0
483,-167,0,0,0,0,0,0,0,0,0,-1,1707,1191,0,0
490,-167,0,0,0,0,0,0,0,0,0,-1,1714,1191,0,0
497,-167,0,0,0,0,0,0,0,0,0,-1,1721,1191,0,0
504,-167,0,0,0,0,0,0,0,0,0,-1,1728,1191,0,0
511,-167,0,0,0,0,0,0,0,0,0,-1,1735,1191,0,0
518,-167,0,0,0,0,0,0,0,0,0,-1,1742,1191,0,0
525,-167,0,0,0,0,0,0,0,0,0,-1,1749,1191,0,0
532,-167,0,0,0,0,0,0,0,0,0,-1,1756,1191,0,0
539,-167,0,0,0,0,0,0,0,0,0,-1,1763,1191,0,0
546,-167,0,0,0,0,0,0,0,0,0,-1,1770,1191,0,0
553,-167,0,0,0,0,0,0,0,0,0,-1,1777,1191,0,0
560,-167,0,0,0,0,0,0,0,0,0,-1,1784,1191,0,0
567,-167,0,0,0,0,0,0,0,0,0,-1,1791,1191,0,0
574,-167,0,0,0,0,0,0,0,0,0,-1,1798,1191,0,0
581,-167,0,0,0,0,0,0,0,0,0,-1,1805,1191,0,0
588,-167,0,0,0,0,0,0,0,0,0,-1,1812,1191,0,0
595,-167,0,0,0,0,0,0,0,0,0,-1,1819,1191,0,0
602,-167,0,0,0,0,0,0,0,0,0,-1,1826,1191,0,0
609,-167,0,0,0,0,0,0,0,0,0,-1,1833,1191,0,0
616,-167,0,0,0,0,0,0,0,0,0,-1,1840,1191,0,0
623,-167,0,0,0,0,0,0,0,0,0,-1,1847,1191,0,0
630,-167,0,0,0,0,0,0,0,0,0,-1,1854,1191,0,0
637,-167,74.2928,2.29395,0.00382592,0.000282402,-0.00160553,0.00444516,-0.000336838,-0.36811,0.00308186,0.0455821,1861,1191,74.2929,-2.29394
644,-167,74.3794,2.24866,0.00287558,0.000126874,-0.00118219,0.00331407,-0.000311625,-0.355188,0.00232024,0.0464831,1868,1191,74.3794,-2.24863
651,-167,74.2767,2.33691,0.00222085,0.00039924,-0.00109525,0.00273452,-0.000114436,-0.438543,0.00186233,0.0432992,1875,1191,74.2767,-2.3369
658,-167,74.1567,2.57227,0.00175188,0.000936447,-0.00122868,0.00263873,4.96015e-05,-0.625198,0.00174285,0.0424361,1882,1191,74.1567,-2.57226
665,-167,74.2422,2.49158,0.00137822,0.00157679,-0.00141565,0.00289663,5.83781e-05,-0.820408,0.00191192,0.0369029,1889,1191,74.2422,-2.49162
672,-167,74.2753,2.37329,0.00129658,0.00205206,-0.0016417,0.00335892,-1.02839e-05,-0.898475,0.00224272,0.0282659,1896,1191,74.2753,-2.37332
679,-167,74.3075,2.25806,0.00136415,0.0021548,-0.00166808,0.00347376,4.51821e-05,-0.901749,0.00230093,0.0234147,1903,1191,74.3075,-2.25801
686,-167,74.3137,2.11792,0.00169848,0.00176233,-0.00159184,0.00332256,0.000138246,-0.795424,0.00217043,0.0361032,1910,1191,74.3137,-2.11791
693,-167,74.2825,1.98816,0,0,0,0,0,0,0,-1,1917,1191,74.2825,-1.98816
700,-167,28.0459,2.70508,0,0,0,0,0,0,0,-1,1924,1191,28.0459,-2.70513
707,-167,29.4708,7.10168,0,0,0,0,0,0,0,-1,1931,1191,29.4708,-7.10172
714,-167,35.9202,6.84668,0,0,0,0,0,0,0,-1,1938,1191,35.9202,-6.84664
721,-167,36.2072,6.38892,0,0,0,0,0,0,0,-1,1945,1191,36.2072,-6.38891
728,-167,61.5837,9.43115,0,0,0,0,0,0,0,-1,1952,1191,61.5837,-9.43119
735,-167,62.6815,8.83032,0,0,0,0,0,0,0,-1,1959,1191,62.6815,-8.83031
742,-167,62.5963,8.1283,0.00139278,0.000446431,0.00115634,0.00216901,-0.000329799,0.591192,0.00156754,0.0175642,1966,1191,62.5964,-8.12835
749,-167,62.553,7.42761,0.00119362,0.000549979,0.00168009,0.00258244,-0.000838837,0.690769,0.00205901,0.0157383,1973,1191,62.553,-7.42758
756,-167,62.563,6.78198,0.00167163,0.000820496,0.00178729,0.00308332,-0.000591194,0.66852,0.00227833,0.0120904,1980,1191,62.563,-6.78201
763,-167,62.4697,6.11133,0.00272071,0.000979734,0.00162069,0.00368989,1.05555e-05,0.538951,0.00245642,0.0141808,1987,1191,62.4698,-6.11131
770,-167,62.2119,5.33594,0,0,0,0,0,0,0,-1,1994,1191,62.2118,-5.33598
777,-167,62.4055,4.74475,0,0,0,0,0,0,0,-1,2001,1191,62.4054,-4.74474
784,-167,65.9585,0.442505,0,0,0,0,0,0,0,-1,2008,1191,65.9585,-0.442538
791,-167,65.3738,-0.00134277,0,0,0,0,0,0,0,-1,2015,1191,65.3739,0.00136638
798,-167,64.8733,-0.495972,0,0,0,0,0,0,0,-1,2022,1191,64.8733,0.495919
805,-167,64.5886,-1.05896,0,0,0,0,0,0,0,-1,2029,1191,64.5885,1.0589
812,-167,0,0,0,0,0,0,0,0,0,-1,2036,1191,0,0
-700,-174,0,0,0,0,0,0,0,0,0,-1,524,1198,0,0
-693,-174,0,0,0,0,0,0,0,0,0,-1,531,1198,0,0
-686,-174,-47.8344,-2.19934,0,0,0,0,0,0,0,-1,538,1198,-47.8343,2.19932
-679,-174,-47.1986,-0.541016,0,0,0,0,0,0,0,-1,545,1198,-47.1986,0.541028
-672,-174,-46.8112,0.785034,0,0,0,0,0,0,0,-1,552,1198,-46.8113,-0.785037
-665,-174,-46.805,1.73022,0,0,0,0,0,0,0,-1,559,1198,-46.805,-1.73027
-658,-174,-47.0405,2.44897,0,0,0,0,0,0,0,-1,566,1198,-47.0405,-2.44899
-651,-174,-45.4925,3.29761,0,0,0,0,0,0,0,-1,573,1198,-45.4925,-3.29767
-644,-174,-45.2941,3.70752,0.00444031,0.00033126,-0.00846027,0.0110919,-0.00632038,-0.666282,0.0101781,0.0442682,580,1198,-45.2941,-3.70753
-637,-174,-45.1096,4.12366,0.00221075,0.000784609,-0.00630001,0.00783792,-0.00484256,-0.729045,0.00738885,0.0262963,587,1198,-45.1096,-4.12363
-630,-174,-45.2702,4.81921,0.000561564,0.00074136,-0.00471874,0.00537106,-0.00406814,-0.794923,0.005467,0.0136721,594,1198,-45.2702,-4.81916
-623,-174,-45.2997,5.52368,-0.000639287,0.000445552,-0.00394864,0.00388885,-0.00408259,-0.853655,0.00460276,0.0157813,601,1198,-45.2997,-5.52364
-616,-174,-45.3178,6.23022,-0.00164273,-2.69718e-05,-0.00364951,0.00290301,-0.00457271,-0.894325,0.00435185,0.0222714,608,1198,-45.3178,-6.23027
-609,-174,-45.4009,6.95593,-0.00250451,-0.000634437,-0.00384779,0.0023903,-0.00552924,-0.904591,0.00469054,0.0237505,615,1198,-45.4009,-6.95589
-602,-174,-45.4601,7.67639,0,0,0,0,0,0,0,-1,622,1198,-45.4601,-7.67643
-595,-174,-44.3806,7.69019,0,0,0,0,0,0,0,-1,629,1198,-44.3805,-7.69025
-588,-174,-45.7245,9.17358,0,0,0,0,0,0,0,-1,636,1198,-45.7245,-9.17363
-581,-174,-45.9811,9.94629,0,0,0,0,0,0,0,-1,643,1198,-45.9811,-9.9463
-574,-174,-31.7448,7.09595,0,0,0,0,0,0,0,-1,650,1198,-31.7448,-7.09599
-567,-174,-26.6597,3.04041,0,0,0,0,0,0,0,-1,657,1198,-26.6597,-3.04039
-560,-174,-42.6953,1.07178,0,0,0,0,0,0,0,-1,664,1198,-42.6953,-1.07181
-553,-174,-56.9289,-0.0441895,0,0,0,0,0,0,0,-1,671,1198,-56.9289,0.0441768
-546,-174,-57.0135,0.220459,0,0,0,0,0,0,0,-1,678,1198,-57.0135,-0.220403
-539,-174,-57.0928,0.460938,0,0,0,0,0,0,0,-1,685,1198,-57.0928,-0.460954
-532,-174,-57.1138,0.427734,0,0,0,0,0,0,0,-1,692,1198,-57.1138,-0.427739
-525,-174,-56.9417,-0.0731201,0,0,0,0,0,0,0,-1,699,1198,-56.9417,0.0730634
-518,-174,-56.9354,-0.114746,0,0,0,0,0,0,0,-1,706,1198,-56.9354,0.114711
-511,-174,0,0,0,0,0,0,0,0,0,-1,713,1198,0,0
-504,-174,0,0,0,0,0,0,0,0,0,-1,720,1198,0,0
-497,-174,0,0,0,0,0,0,0,0,0,-1,727,1198,0,0
-490,-174,0,0,0,0,0,0,0,0,0,-1,734,1198,0,0
-483,-174,0,0,0,0,0,0,0,0,0,-1,741,1198,0,0
-476,-174,0,0,0,0,0,0,0,0,0,-1,748,1198,0,0
-469,-174,0,0,0,0,0,0,0,0,0,-1,755,1198,0,0
-462,-174,0,0,0,0,0,0,0,0,0,-1,762,1198,0,0
-455,-174,0,0,0,0,0,0,0,0,0,-1,769,1198,0,0
-448,-174,0,0,0,0,0,0,0,0,0,-1,776,1198,0,0
-441,-174,0,0,0,0,0,0,0,0,0,-1,783,1198,0,0
-434,-174,0,0,0,0,0,0,0,0,0,-1,790,1198,0,0
-427,-174,0,0,0,0,0,0,0,0,0,-1,797,1198,0,0
-420,-174,0,0,0,0,0,0,0,0,0,-1,804,1198,0,0
-413,-174,0,0,0,0,0,0,0,0,0,-1,811,1198,0,0
-406,-174,0,0,0,0,0,0,0,0,0,-1,818,1198,0,0
-399,-174,0,0,0,0,0,0,0,0,0,-1,825,1198,0,0
-392,-174,0,0,0,0,0,0,0,0,0,-1,832,1198,0,0
-385,-174,0,0,0,0,0,0,0,0,0,-1,839,1198,0,0
-378,-174,0,0,0,0,0,0,0,0,0,-1,846,1198,0,0
-371,-174,0,0,0,0,0,0,0,0,0,-1,853,1198,0,0
-364,-174,0,0,0,0,0,0,0,0,0,-1,860,1198,0,0
-357,-174,0,0,0,0,0,0,0,0,0,-1,867,1198,0,0
-350,-174,0,0,0,0,0,0,0,0,0,-1,874,1198,0,0
-343,-174,0,0,0,0,0,0,0,0,0,-1,881,1198,0,0
-336,-174,0,0,0,0,0,0,0,0,0,-1,888,1198,0,0
-329,-174,0,0,0,0,0,0,0,0,0,-1,895,1198,0,0
-322,-174,0,0,0,0,0,0,0,0,0,-1,902,1198,0,0
-315,-174,0,0,0,0,0,0,0,0,0,-1,909,1198,0,0
-308,-174,0,0,0,0,0,0,0,0,0,-1,916,1198,0,0
-301,-174,0,0,0,0,0,0,0,0,0,-1,923,1198,0,0
-294,-174,0,0,0,0,0,0,0,0,0,-1,930,1198,0,0
-287,-174,0,0,0,0,0,0,0,0,0,-1,937,1198,0,0
-280,-174,0,0,0,0,0,0,0,0,0,-1,944,1198,0,0
-273,-174,0,0,0,0,0,0,0,0,0,-1,951,1198,0,0
-266,-174,0,0,0,0,0,0,0,0,0,-1,958,1198,0,0
-259,-174,0,0,0,0,0,0,0,0,0,-1,965,1198,0,0
-252,-174,0,0,0,0,0,0,0,0,0,-1,972,1198,0,0
-245,-174,0,0,0,0,0,0,0,0,0,-1,979,1198,0,0
-238,-174,0,0,0,0,0,0,0,0,0,-1,986,1198,0,0
-231,-174,0,0,0,0,0,0,0,0,0,-1,993,1198,0,0
-224,-174,0,0,0,0,0,0,0,0,0,-1,1000,1198,0,0
-217,-174,0,0,0,0,0,0,0,0,0,-1,1007,1198,0,0
-210,-174,0,0,0,0,0,0,0,0,0,-1,1014,1198,0,0
-203,-174,0,0,0,0,0,0,0,0,0,-1,1021,1198,0,0
-196,-174,0,0,0,0,0,0,0,0,0,-1,1028,1198,0,0
-189,-174,0,0,0,0,0,0,0,0,0,-1,1035,1198,0,0
-182,-174,0,0,0,0,0,0,0,0,0,-1,1042,1198,0,0
-175,-174,0,0,0,0,0,0,0,0,0,-1,1049,1198,0,0
-168,-174,0,0,0,0,0,0,0,0,0,-1,1056,1198,0,0
-161,-174,0,0,0,0,0,0,0,0,0,-1,1063,1198,0,0
-154,-174,0,0,0,0,0,0,0,0,0,-1,1070,1198,0,0
-147,-174,0,0,0,0,0,0,0,0,0,-1,1077,1198,0,0
-140,-174,0,0,0,0,0,0,0,0,0,-1,1084,1198,0,0
-133,-174,0,0,0,0,0,0,0,0,0,-1,1091,1198,0,0
-126,-174,0,0,0,0,0,0,0,0,0,-1,1098,1198,0,0
-119,-174,0,0,0,0,0,0,0,0,0,-1,1105,1198,0,0
-112,-174,0,0,0,0,0,0,0,0,0,-1,1112,1198,0,0
-105,-174,0,0,0,0,0,0,0,0,0,-1,1119,1198,0,0
-98,-174,0,0,0,0,0,0,0,0,0,-1,1126,1198,0,0
-91,-174,0,0,0,0,0,0,0,0,0,-1,1133,1198,0,0
-84,-174,0,0,0,0,0,0,0,0,0,-1,1140,1198,0,0
-77,-174,0,0,0,0,0,0,0,0,0,-1,1147,1198,0,0
-70,-174,0,0,0,0,0,0,0,0,0,-1,1154,1198,0,0
-63,-174,0,0,0,0,0,0,0,0,0,-1,1161,1198,0,0
-56,-174,0,0,0,0,0,0,0,0,0,-1,1168,1198,0,0
-49,-174,0,0,0,0,0,0,0,0,0,-1,1175,1198,0,0
-42,-174,0,0,0,0,0,0,0,0,0,-1,1182,1198,0,0
-35,-174,0,0,0,0,0,0,0,0,0,-1,1189,1198,0,0
-28,-174,0,0,0,0,0,0,0,0,0,-1,1196,1198,0,0
-21,-174,0,0,0,0,0,0,0,0,0,-1,1203,1198,0,0
-14,-174,0,0,0,0,0,0,0,0,0,-1,1210,1198,0,0
-7,-174,0,0,0,0,0,0,0,0,0,-1,1217,1198,0,0
0,-174,0,0,0,0,0,0,0,0,0,-1,1224,1198,0,0
7,-174,0,0,0,0,0,0,0,0,0,-1,1231,1198,0,0
14,-174,0,0,0,0,0,0,0,0,0,-1,1238,1198,0,0
21,-174,0,0,0,0,0,0,0,0,0,-1,1245,1198,0,0
28,-174,0,0,0,0,0,0,0,0,0,-1,1252,1198,0,0
35,-174,0,0,0,0,0,0,0,0,0,-1,1259,1198,0,0
42,-174,0,0,0,0,0,0,0,0,0,-1,1266,1198,0,0
49,-174,0,0,0,0,0,0,0,0,0,-1,1273,1198,0,0
56,-174,0,0,0,0,0,0,0,0,0,-1,1280,1198,0,0
63,-174,0,0,0,0,0,0,0,0,0,-1,1287,1198,0,0
70,-174,0,0,0,0,0,0,0,0,0,-1,1294,1198,0,0
77,-174,0,0,0,0,0,0,0,0,0,-1,1301,1198,0,0
84,-174,0,0,0,0,0,0,0,0,0,-1,1308,1198,0,0
91,-174,0,0,0,0,0,0,0,0,0,-1,1315,1198,0,0
98,-174,0,0,0,0,0,0,0,0,0,-1,1322,1198,0,0
105,-174,0,0,0,0,0,0,0,0,0,-1,1329,1198,0,0
112,-174,0,0,0,0,0,0,0,0,0,-1,1336,1198,0,0
119,-174,0,0,0,0,0,0,0,0,0,-1,1343,1198,0,0
126,-174,0,0,0,0,0,0,0,0,0,-1,1350,1198,0,0
133,-174,0,0,0,0,0,0,0,0,0,-1,1357,1198,0,0
140,-174,0,0,0,0,0,0,0,0,0,-1,1364,1198,0,0
147,-174,0,0,0,0,0,0,0,0,0,-1,1371,1198,0,0
154,-174,0,0,0,0,0,0,0,0,0,-1,1378,1198,0,0
161,-174,0,0,0,0,0,0,0,0,0,-1,1385,1198,0,0
168,-174,0,0,0,0,0,0,0,0,0,-1,1392,1198,0,0
175,-174,0,0,0,0,0,0,0,0,0,-1,1399,1198,0,0
182,-174,0,0,0,0,0,0,0,0,0,-1,1406,1198,0,0
189,-174,0,0,0,0,0,0,0,0,0,-1,1413,1198,0,0
196,-174,0,0,0,0,0,0,0,0,0,-1,1420,1198,0,0
203,-174,0,0,0,0,0,0,0,0,0,-1,1427,1198,0,0
210,-174,0,0,0,0,0,0,0,0,0,-1,1434,1198,0,0
217,-174,0,0,0,0,0,0,0,0,0,-1,1441,1198,0,0
224,-174,0,0,0,0,0,0,0,0,0,-1,1448,1198,0,0
231,-174,0,0,0,0,0,0,0,0,0,-1,1455,1198,0,0
238,-174,0,0,0,0,0,0,0,0,0,-1,1462,1198,0,0
245,-174,0,0,0,0,0,0,0,0,0,-1,1469,1198,0,0
252,-174,0,0,0,0,0,0,0,0,0,-1,1476,1198,0,0
259,-174,0,0,0,0,0,0,0,0,0,-1,1483,1198,0,0
266,-174,0,0,0,0,0,0,0,0,0,-1,1490,1198,0,0
273,-174,0,0,0,0,0,0,0,0,0,-1,1497,1198,0,0
280,-174,0,0,0,0,0,0,0,0,0,-1,1504,1198,0,0
287,-174,0,0,0,0,0,0,0,0,0,-1,1511,1198,0,0
294,-174,0,0,0,0,0,0,0,0,0,-1,1518,1198,0,0
301,-174,0,0,0,0,0,0,0,0,0,-1,1525,1198,0,0
308,-174,0,0,0,0,0,0,0,0,0,-1,1532,1198,0,0
315,-174,0,0,0,0,0,0,0,0,0,-1,1539,1198,0,0
322,-174,0,0,0,0,0,0,0,0,0,-1,1546,1198,0,0
329,-174,0,0,0,0,0,0,0,0,0,-1,1553,1198,0,0
336,-174,0,0,0,0,0,0,0,0,0,-1,1560,1198,0,0
343,-174,0,0,0,0,0,0,0,0,0,-1,1567,1198,0,0
350,-174,0,0,0,0,0,0,0,0,0,-1,1574,1198,0,0
357,-174,0,0,0,0,0,0,0,0,0,-1,1581,1198,0,0
364,-174,0,0,0,0,0,0,0,0,0,-1,1588,1198,0,0
371,-174,0,0,0,0,0,0,0,0,0,-1,1595,1198,0,0
378,-174,0,0,0,0,0,0,0,0,0,-1,1602,1198,0,0
385,-174,0,0,0,0,0,0,0,0,0,-1,1609,1198,0,0
392,-174,0,0,0,0,0,0,0,0,0,-1,1616,1198,0,0
399,-174,0,0,0,0,0,0,0,0,0,-1,1623,1198,0,0
406,-174,0,0,0,0,0,0,0,0,0,-1,1630,1198,0,0
413,-174,0,0,0,0,0,0,0,0,0,-1,1637,1198,0,0
420,-174,0,0,0,0,0,0,0,0,0,-1,1644,1198,0,0
427,-174,0,0,0,0,0,0,0,0,0,-1,1651,1198,0,0
434,-174,0,0,0,0,0,0,0,0,0,-1,1658,1198,0,0
441,-174,0,0,0,0,0,0,0,0,0,-1,1665,1198,0,0
448,-174,0,0,0,0,0,0,0,0,0,-1,1672,1198,0,0
455,-174,0,0,0,0,0,0,0,0,0,-1,1679,1198,0,0
462,-174,0,0,0,0,0,0,0,0,0,-1,1686,1198,0,0
469,-174,0,0,0,0,0,0,0,0,0,-1,1693,1198,0,0
476,-174,0,0,0,0,0,0,0,0,0,-1,1700,1198,0,0
483,-174,0,0,0,0,0,0,0,0,0,-1,1707,1198,0,0
490,-174,0,0,0,0,0,0,0,0,0,-1,1714,1198,0,0
497,-174,0,0,0,0,0,0,0,0,0,-1,1721,1198,0,0
504,-174,0,0,0,0,0,0,0,0,0,-1,1728,1198,0,0
511,-174,0,0,0,0,0,0,0,0,0,-1,1735,1198,0,0
518,-174,0,0,0,0,0,0,0,0,0,-1,1742,1198,0,0
525,-174,0,0,0,0,0,0,0,0,0,-1,1749,1198,0,0
532,-174,0,0,0,0,0,0,0,0,0,-1,1756,1198,0,0
539,-174,0,0,0,0,0,0,0,0,0,-1,1763,1198,0,0
546,-174,0,0,0,0,0,0,0,0,0,-1,1770,1198,0,0
553,-174,0,0,0,0,0,0,0,0,0,-1,1777,1198,0,0
560,-174,0,0,0,0,0,0,0,0,0,-1,1784,1198,0,0
567,-174,0,0,0,0,0,0,0,0,0,-1,1791,1198,0,0
574,-174,0,0,0,0,0,0,0,0,0,-1,1798,1198,0,0
581,-174,0,0,0,0,0,0,0,0,0,-1,1805,1198,0,0
588,-174,0,0,0,0,0,0,0,0,0,-1,1812,1198,0,0
595,-174,0,0,0,0,0,0,0,0,0,-1,1819,1198,0,0
602,-174,0,0,0,0,0,0,0,0,0,-1,1826,1198,0,0
609,-174,0,0,0,0,0,0,0,0,0,-1,1833,1198,0,0
616,-174,0,0,0,0,0,0,0,0,0,-1,1840,1198,0,0
623,-174,0,0,0,0,0,0,0,0,0,-1,1847,1198,0,0
630,-174,0,0,0,0,0,0,0,0,0,-1,1854,1198,0,0
637,-174,74.0801,2.48901,0.00442448,0.00161788,-0.00203365,0.005492,0.000550358,-0.483392,0.00349237,0.0440754,1861,1198,74.0801,-2.48905
644,-174,74.2781,2.28845,0.00342817,0.00142306,-0.00167116,0.00437443,0.000476794,-0.51522,0.00277106,0.0437694,1868,1198,74.278,-2.28844
651,-174,74.3739,2.20264,0.00274708,0.00156929,-0.00163363,0.00389472,0.000421656,-0.612406,0.00246796,0.0421421,1875,1198,74.3738,-2.20262
658,-174,74.2426,2.32214,0.00222938,0.0018999,-0.00174882,0.00382121,0.000308075,-0.738437,0.00245124,0.0399604,1882,1198,74.2426,-2.32217
665,-174,74.264,2.32983,0.00176568,0.00225962,-0.00182518,0.00385447,0.000170836,-0.852646,0.00251464,0.033557,1889,1198,74.2641,-2.32986
672,-174,74.2772,2.23193,0.00161421,0.00240009,-0.00189762,0.00394503,6.92755e-05,-0.88749,0.00260723,0.0261897,1896,1198,74.2772,-2.23198
679,-174,74.2964,2.19507,0.00154229,0.00230448,-0.00179204,0.0037555,9.12769e-05,-0.890167,0.0024738,0.0251559,1903,1198,74.2964,-2.19509
686,-174,74.3003,2.04211,0,0,0,0,0,0,0,-1,1910,1198,74.3003,-2.04217
693,-174,51.1324,2.57349,0,0,0,0,0,0,0,-1,1917,1198,51.1325,-2.57343
700,-174,25.4004,6.11792,0,0,0,0,0,0,0,-1,1924,1198,25.4004,-6.11797
707,-174,34.7908,7.34473,0,0,0,0,0,0,0,-1,1931,1198,34.7908,-7.34475
714,-174,40.1135,7.79871,0,0,0,0,0,0,0,-1,1938,1198,40.1135,-7.79875
721,-174,40.8693,7.59863,0,0,0,0,0,0,0,-1,1945,1198,40.8693,-7.59859
728,-174,61.5991,9.55334,0,0,0,0,0,0,0,-1,1952,1198,61.5991,-9.55337
735,-174,61.7743,8.90442,0.00145867,0.000862955,0.000599842,0.00183054,0.000491091,0.554951,0.00109404,0.0250363,1959,1198,61.7743,-8.90442
742,-174,61.9078,8.15454,0.00135487,0.000672361,0.00112761,0.00219173,-0.000164498,0.638462,0.00151895,0.020894,1966,1198,61.9078,-8.15453
749,-174,61.8899,7.46936,0.00120838,0.000513849,0.00183149,0.00272524,-0.00100301,0.691706,0.00222775,0.018446,1973,1198,61.8899,-7.4694
756,-174,61.8599,6.79443,0.00155259,0.0001801,0.00235257,0.00331696,-0.00158428,0.643486,0.00288807,0.0114388,1980,1198,61.8599,-6.7944
763,-174,61.8018,6.13184,0.00227392,-0.000390251,0.00273826,0.00398691,-0.00210324,0.559015,0.00357177,0.0178563,1987,1198,61.8018,-6.13188
770,-174,61.7908,5.43579,0,0,0,0,0,0,0,-1,1994,1198,61.7908,-5.43574
777,-174,62.0469,4.23853,0,0,0,0,0,0,0,-1,2001,1198,62.0468,-4.23854
784,-174,66.1072,0.143433,0,0,0,0,0,0,0,-1,2008,1198,66.1071,-0.143476
791,-174,65.333,-0.43811,0,0,0,0,0,0,0,-1,2015,1198,65.3331,0.438086
798,-174,64.8523,-1.06226,0,0,0,0,0,0,0,-1,2022,1198,64.8524,1.06227
805,-174,62.6055,-0.852173,0,0,0,0,0,0,0,-1,2029,1198,62.6055,0.852176
812,-174,0,0,0,0,0,0,0,0,0,-1,2036,1198,0,0
-700,-181,0,0,0,0,0,0,0,0,0,-1,524,1205,0,0
-693,-181,0,0,0,0,0,0,0,0,0,-1,531,1205,0,0
-686,-181,-46.4992,-1.75964,0,0,0,0,0,0,0,-1,538,1205,-46.4992,1.75966
-679,-181,-46.0918,0.429077,0,0,0,0,0,0,0,-1,545,1205,-46.0918,-0.429061
-672,-181,-46.0651,1.4054,0,0,0,0,0,0,0,-1,552,1205,-46.0651,-1.40546
-665,-181,-46.3492,2.24365,0,0,0,0,0,0,0,-1,559,1205,-46.3492,-2.24368
-658,-181,-46.4956,2.98694,0,0,0,0,0,0,0,-1,566,1205,-46.4956,-2.98697
-651,-181,-44.3914,2.19409,0,0,0,0,0,0,0,-1,573,1205,-44.3914,-2.19412
-644,-181,-44.5879,3.62659,0,0,0,0,0,0,0,-1,580,1205,-44.5879,-3.62664
-637,-181,-44.3681,4.14307,0.00125344,0.0016388,-0.00752811,0.0089767,-0.00608446,-0.798193,0.00874884,0.0277485,587,1205,-44.3681,-4.14304
-630,-181,-44.5554,4.85437,0.000192808,0.00132491,-0.00542688,0.00621519,-0.00469746,-0.837363,0.0063207,0.0146729,594,1205,-44.5554,-4.85438
-623,-181,-44.6026,5.56165,-0.000576779,0.000892438,-0.00439746,0.00461623,-0.00430057,-0.86816,0.00514919,0.0161546,601,1205,-44.6026,-5.56163
-616,-181,-44.6138,6.25842,-0.0012674,0.0003759,-0.0038963,0.00353624,-0.00442774,-0.889316,0.0046076,0.0163563,608,1205,-44.6138,-6.25844
-609,-181,-44.6667,7.01038,-0.00190095,-0.000201514,-0.00393008,0.00296966,-0.00507212,-0.891864,0.00469551,0.0154915,615,1205,-44.6667,-7.01033
-602,-181,-44.6151,7.78625,-0.00249329,-0.000809987,-0.00450492,0.00293123,-0.00623451,-0.877748,0.00540518,0.0298108,622,1205,-44.6151,-7.78625
-595,-181,-45.0584,8.31348,0,0,0,0,0,0,0,-1,629,1205,-45.0584,-8.31351
-588,-181,-45.0032,9.16919,-0.00335862,-0.00202723,-0.0080689,0.00540339,-0.0107892,-0.826556,0.00951964,0.038897,636,1205,-45.0032,-9.16922
-581,-181,-45.1928,9.86731,-0.00406163,-0.00249817,-0.0111815,0.00792892,-0.0144887,-0.820298,0.0131262,0.0474651,643,1205,-45.1928,-9.86729
-574,-181,-44.489,10.5701,0,0,0,0,0,0,0,-1,650,1205,-44.4889,-10.5701
-567,-181,-25.8839,3.34485,0,0,0,0,0,0,0,-1,657,1205,-25.8839,-3.3449
-560,-181,-31.7396,1.63306,0,0,0,0,0,0,0,-1,664,1205,-31.7396,-1.63303
-553,-181,-56.8713,0.0739746,0,0,0,0,0,0,0,-1,671,1205,-56.8713,-0.074032
-546,-181,-57.0223,0.218384,0,0,0,0,0,0,0,-1,678,1205,-57.0223,-0.218443
-539,-181,-57.0988,0.448364,0,0,0,0,0,0,0,-1,685,1205,-57.0987,-0.44839
-532,-181,-57.3683,0.164917,0,0,0,0,0,0,0,-1,692,1205,-57.3684,-0.164893
-525,-181,-57.0726,0.0402832,0,0,0,0,0,0,0,-1,699,1205,-57.0727,-0.0402734
-518,-181,-56.9005,0.0878906,0,0,0,0,0,0,0,-1,706,1205,-56.9004,-0.0878869
-511,-181,0,0,0,0,0,0,0,0,0,-1,713,1205,0,0
-504,-181,0,0,0,0,0,0,0,0,0,-1,720,1205,0,0
-497,-181,0,0,0,0,0,0,0,0,0,-1,727,1205,0,0
-490,-181,0,0,0,0,0,0,0,0,0,-1,734,1205,0,0
-483,-181,0,0,0,0,0,0,0,0,0,-1,741,1205,0,0
-476,-181,0,0,0,0,0,0,0,0,0,-1,748,1205,0,0
-469,-181,0,0,0,0,0,0,0,0,0,-1,755,1205,0,0
-462,-181,0,0,0,0,0,0,0,0,0,-1,762,1205,0,0
-455,-181,0,0,0,0,0,0,0,0,0,-1,769,1205,0,0
-448,-181,0,0,0,0,0,0,0,0,0,-1,776,1205,0,0
-441,-181,0,0,0,0,0,0,0,0,0,-1,783,1205,0,0
-434,-181,0,0,0,0,0,0,0,0,0,-1,790,1205,0,0
-427,-181,0,0,0,0,0,0,0,0,0,-1,797,1205,0,0
-420,-181,0,0,0,0,0,0,0,0,0,-1,804,1205,0,0
-413,-181,0,0,0,0,0,0,0,0,0,-1,811,1205,0,0
-406,-181,0,0,0,0,0,0,0,0,0,-1,818,1205,0,0
-399,-181,0,0,0,0,0,0,0,0,0,-1,825,1205,0,0
-392,-181,0,0,0,0,0,0,0,0,0,-1,832,1205,0,0
-385,-181,0,0,0,0,0,0,0,0,0,-1,839,1205,0,0
-378,-181,0,0,0,0,0,0,0,0,0,-1,846,1205,0,0
-371,-181,0,0,0,0,0,0,0,0,0,-1,853,1205,0,0
-364,-181,0,0,0,0,0,0,0,0,0,-1,860,1205,0,0
-357,-181,0,0,0,0,0,0,0,0,0,-1,867,1205,0,0
-350,-181,0,0,0,0,0,0,0,0,0,-1,874,1205,0,0
-343,-181,0,0,0,0,0,0,0,0,0,-1,881,1205,0,0
-336,-181,0,0,0,0,0,0,0,0,0,-1,888,1205,0,0
-329,-181,0,0,0,0,0,0,0,0,0,-1,895,1205,0,0
-322,-181,0,0,0,0,0,0,0,0,0,-1,902,1205,0,0
-315,-181,0,0,0,0,0,0,0,0,0,-1,909,1205,0,0
-308,-181,0,0,0,0,0,0,0,0,0,-1,916,1205,0,0
-301,-181,0,0,0,0,0,0,0,0,0,-1,923,1205,0,0
-294,-181,0,0,0,0,0,0,0,0,0,-1,930,1205,0,0
-287,-181,0,0,0,0,0,0,0,0,0,-1,937,1205,0,0
-280,-181,0,0,0,0,0,0,0,0,0,-1,944,1205,0,0
-273,-181,0,0,0,0,0,0,0,0,0,-1,951,1205,0,0
-266,-181,0,0,0,0,0,0,0,0,0,-1,958,1205,0,0
-259,-181,0,0,0,0,0,0,0,0,0,-1,965,1205,0,0
-252,-181,0,0,0,0,0,0,0,0,0,-1,972,1205,0,0
-245,-181,0,0,0,0,0,0,0,0,0,-1,979,1205,0,0
-238,-181,0,0,0,0,0,0,0,0,0,-1,986,1205,0,0
-231,-181,0,0,0,0,0,0,0,0,0,-1,993,1205,0,0
-224,-181,0,0,0,0,0,0,0,0,0,-1,1000,1205,0,0
-217,-181,0,0,0,0,0,0,0,0,0,-1,1007,1205,0,0
-210,-181,0,0,0,0,0,0,0,0,0,-1,1014,1205,0,0
-203,-181,0,0,0,0,0,0,0,0,0,-1,1021,1205,0,0
-196,-181,0,0,0,0,0,0,0,0,0,-1,1028,1205,0,0
-189,-181,0,0,0,0,0,0,0,0,0,-1,1035,1205,0,0
-182,-181,0,0,0,0,0,0,0,0,0,-1,1042,1205,0,0
-175,-181,0,0,0,0,0,0,0,0,0,-1,1049,1205,0,0
-168,-181,0,0,0,0,0,0,0,0,0,-1,1056,1205,0,0
-161,-181,0,0,0,0,0,0,0,0,0,-1,1063,1205,0,0
-154,-181,0,0,0,0,0,0,0,0,0,-1,1070,1205,0,0
-147,-181,0,0,0,0,0,0,0,0,0,-1,1077,1205,0,0
-140,-181,0,0,0,0,0,0,0,0,0,-1,1084,1205,0,0
-133,-181,0,0,0,0,0,0,0,0,0,-1,1091,1205,0,0
-126,-181,0,0,0,0,0,0,0,0,0,-1,1098,1205,0,0
-119,-181,0,0,0,0,0,0,0,0,0,-1,1105,1205,0,0
-112,-181,0,0,0,0,0,0,0,0,0,-1,1112,1205,0,0
-105,-181,0,0,0,0,0,0,0,0,0,-1,1119,1205,0,0
-98,-181,0,0,0,0,0,0,0,0,0,-1,1126,1205,0,0
-91,-181,0,0,0,0,0,0,0,0,0,-1,1133,1205,0,0
-84,-181,0,0,0,0,0,0,0,0,0,-1,1140,1205,0,0
-77,-181,0,0,0,0,0,0,0,0,0,-1,1147,1205,0,0
-70,-181,0,0,0,0,0,0,0,0,0,-1,1154,1205,0,0
-63,-181,0,0,0,0,0,0,0,0,0,-1,1161,1205,0,0
-56,-181,0,0,0,0,0,0,0,0,0,-1,1168,1205,0,0
-49,-181,0,0,0,0,0,0,0,0,0,-1,1175,1205,0,0
-42,-181,0,0,0,0,0,0,0,0,0,-1,1182,1205,0,0
-35,-181,0,0,0,0,0,0,0,0,0,-1,1189,1205,0,0
-28,-181,0,0,0,0,0,0,0,0,0,-1,1196,1205,0,0
-21,-181,0,0,0,0,0,0,0,0,0,-1,1203,1205,0,0
-14,-181,0,0,0,0,0,0,0,0,0,-1,1210,1205,0,0
-7,-181,0,0,0,0,0,0,0,0,0,-1,1217,1205,0,0
0,-181,0,0,0,0,0,0,0,0,0,-1,1224,1205,0,0
7,-181,0,0,0,0,0,0,0,0,0,-1,1231,1205,0,0
14,-181,0,0,0,0,0,0,0,0,0,-1,1238,1205,0,0
21,-181,0,0,0,0,0,0,0,0,0,-1,1245,1205,0,0
28,-181,0,0,0,0,0,0,0,0,0,-1,1252,1205,0,0
35,-181,0,0,0,0,0,0,0,0,0,-1,1259,1205,0,0
42,-181,0,0,0,0,0,0,0,0,0,-1,1266,1205,0,0
49,-181,0,0,0,0,0,0,0,0,0,-1,1273,1205,0,0
56,-181,0,0,0,0,0,0,0,0,0,-1,1280,1205,0,0
63,-181,0,0,0,0,0,0,0,0,0,-1,1287,1205,0,0
70,-181,0,0,0,0,0,0,0,0,0,-1,1294,1205,0,0
77,-181,0,0,0,0,0,0,0,0,0,-1,1301,1205,0,0
84,-181,0,0,0,0,0,0,0,0,0,-1,1308,1205,0,0
91,-181,0,0,0,0,0,0,0,0,0,-1,1315,1205,0,0
98,-181,0,0,0,0,0,0,0,0,0,-1,1322,1205,0,0
105,-181,0,0,0,0,0,0,0,0,0,-1,1329,1205,0,0
112,-181,0,0,0,0,0,0,0,0,0,-1,1336,1205,0,0
119,-181,0,0,0,0,0,0,0,0,0,-1,1343,1205,0,0
126,-181,0,0,0,0,0,0,0,0,0,-1,1350,1205,0,0
133,-181,0,0,0,0,0,0,0,0,0,-1,1357,1205,0,0
140,-181,0,0,0,0,0,0,0,0,0,-1,1364,1205,0,0
147,-181,0,0,0,0,0,0,0,0,0,-1,1371,1205,0,0
154,-181,0,0,0,0,0,0,0,0,0,-1,1378,1205,0,0
161,-181,0,0,0,0,0,0,0,0,0,-1,1385,1205,0,0
168,-181,0,0,0,0,0,0,0,0,0,-1,1392,1205,0,0
175,-181,0,0,0,0,0,0,0,0,0,-1,1399,1205,0,0
182,-181,0,0,0,0,0,0,0,0,0,-1,1406,1205,0,0
189,-181,0,0,0,0,0,0,0,0,0,-1,1413,1205,0,0
196,-181,0,0,0,0,0,0,0,0,0,-1,1420,1205,0,0
203,-181,0,0,0,0,0,0,0,0,0,-1,1427,1205,0,0
210,-181,0,0,0,0,0,0,0,0,0,-1,1434,1205,0,0
217,-181,0,0,0,0,0,0,0,0,0,-1,1441,1205,0,0
224,-181,0,0,0,0,0,0,0,0,0,-1,1448,1205,0,0
231,-181,0,0,0,0,0,0,0,0,0,-1,1455,1205,0,0
238,-181,0,0,0,0,0,0,0,0,0,-1,1462,1205,0,0
245,-181,0,0,0,0,0,0,0,0,0,-1,1469,1205,0,0
252,-181,0,0,0,0,0,0,0,0,0,-1,1476,1205,0,0
259,-181,0,0,0,0,0,0,0,0,0,-1,1483,1205,0,0
266,-181,0,0,0,0,0,0,0,0,0,-1,1490,1205,0,0
273,-181,0,0,0,0,0,0,0,0,0,-1,1497,1205,0,0
280,-181,0,0,0,0,0,0,0,0,0,-1,1504,1205,0,0
287,-181,0,0,0,0,0,0,0,0,0,-1,1511,1205,0,0
294,-181,0,0,0,0,0,0,0,0,0,-1,1518,1205,0,0
301,-181,0,0,0,0,0,0,0,0,0,-1,1525,1205,0,0
308,-181,0,0,0,0,0,0,0,0,0,-1,1532,1205,0,0
315,-181,0,0,0,0,0,0,0,0,0,-1,1539,1205,0,0
322,-181,0,0,0,0,0,0,0,0,0,-1,1546,1205,0,0
329,-181,0,0,0,0,0,0,0,0,0,-1,1553,1205,0,0
336,-181,0,0,0,0,0,0,0,0,0,-1,1560,1205,0,0
343,-181,0,0,0,0,0,0,0,0,0,-1,1567,1205,0,0
350,-181,0,0,0,0,0,0,0,0,0,-1,1574,1205,0,0
357,-181,0,0,0,0,0,0,0,0,0,-1,1581,1205,0,0
364,-181,0,0,0,0,0,0,0,0,0,-1,1588,1205,0,0
371,-181,0,0,0,0,0,0,0,0,0,-1,1595,1205,0,0
378,-181,0,0,0,0,0,0,0,0,0,-1,1602,1205,0,0
385,-181,0,0,0,0,0,0,0,0,0,-1,1609,1205,0,0
392,-181,0,0,0,0,0,0,0,0,0,-1,1616,1205,0,0
399,-181,0,0,0,0,0,0,0,0,0,-1,1623,1205,0,0
406,-181,0,0,0,0,0,0,0,0,0,-1,1630,1205,0,0
413,-181,0,0,0,0,0,0,0,0,0,-1,1637,1205,0,0
420,-181,0,0,0,0,0,0,0,0,0,-1,1644,1205,0,0
427,-181,0,0,0,0,0,0,0,0,0,-1,1651,1205,0,0
434,-181,0,0,0,0,0,0,0,0,0,-1,1658,1205,0,0
441,-181,0,0,0,0,0,0,0,0,0,-1,1665,1205,0,0
448,-181,0,0,0,0,0,0,0,0,0,-1,1672,1205,0,0
455,-181,0,0,0,0,0,0,0,0,0,-1,1679,1205,0,0
462,-181,0,0,0,0,0,0,0,0,0,-1,1686,1205,0,0
469,-181,0,0,0,0,0,0,0,0,0,-1,1693,1205,0,0
476,-181,0,0,0,0,0,0,0,0,0,-1,1700,1205,0,0
483,-181,0,0,0,0,0,0,0,0,0,-1,1707,1205,0,0
490,-181,0,0,0,0,0,0,0,0,0,-1,1714,1205,0,0
497,-181,0,0,0,0,0,0,0,0,0,-1,1721,1205,0,0
504,-181,0,0,0,0,0,0,0,0,0,-1,1728,1205,0,0
511,-181,0,0,0,0,0,0,0,0,0,-1,1735,1205,0,0
518,-181,0,0,0,0,0,0,0,0,0,-1,1742,1205,0,0
525,-181,0,0,0,0,0,0,0,0,0,-1,1749,1205,0,0
532,-181,0,0,0,0,0,0,0,0,0,-1,1756,1205,0,0
539,-181,0,0,0,0,0,0,0,0,0,-1,1763,1205,0,0
546,-181,0,0,0,0,0,0,0,0,0,-1,1770,1205,0,0
553,-181,0,0,0,0,0,0,0,0,0,-1,1777,1205,0,0
560,-181,0,0,0,0,0,0,0,0,0,-1,1784,1205,0,0
567,-181,0,0,0,0,0,0,0,0,0,-1,1791,1205,0,0
574,-181,0,0,0,0,0,0,0,0,0,-1,1798,1205,0,0
581,-181,0,0,0,0,0,0,0,0,0,-1,1805,1205,0,0
588,-181,0,0,0,0,0,0,0,0,0,-1,1812,1205,0,0
595,-181,0,0,0,0,0,0,0,0,0,-1,1819,1205,0,0
602,-181,0,0,0,0,0,0,0,0,0,-1,1826,1205,0,0
609,-181,0,0,0,0,0,0,0,0,0,-1,1833,1205,0,0
616,-181,0,0,0,0,0,0,0,0,0,-1,1840,1205,0,0
623,-181,0,0,0,0,0,0,0,0,0,-1,1847,1205,0,0
630,-181,74.1699,2.72595,0.00631761,0.00320476,-0.00348661,0.00857942,0.000942951,-0.57547,0.00543264,0.0406011,1854,1205,74.1699,-2.72592
637,-181,74.2054,2.50537,0.00487461,0.00253644,-0.00259573,0.00655237,0.000858675,-0.57381,0.00411202,0.0391171,1861,1205,74.2054,-2.50531
644,-181,74.2871,2.32483,0.00382902,0.00231941,-0.00218122,0.00538234,0.000766085,-0.618824,0.00336209,0.0405601,1868,1205,74.2872,-2.32481
651,-181,74.4517,2.17944,0.0030958,0.00240936,-0.00209841,0.00487888,0.000626287,-0.704336,0.00306522,0.0416798,1875,1205,74.4517,-2.17944
658,-181,74.2837,2.22791,0.00246554,0.00255708,-0.0020531,0.00456493,0.000457698,-0.796543,0.00290277,0.0375976,1882,1205,74.2837,-2.22793
665,-181,74.2167,2.30774,0.00186445,0.00263973,-0.00190403,0.00419518,0.000308995,-0.88582,0.00269969,0.0331211,1889,1205,74.2167,-2.30772
672,-181,74.272,2.21741,0.00164946,0.00247111,-0.00178061,0.00388767,0.0002329,-0.898774,0.00251774,0.0250099,1896,1205,74.272,-2.21737
679,-181,74.342,2.18469,0.0014598,0.00221679,-0.00156522,0.00344863,0.000227966,-0.904029,0.00222699,0.0399469,1903,1205,74.342,-2.18464
686,-181,74.4491,2.16321,0,0,0,0,0,0,0,-1,1910,1205,74.4491,-2.16326
693,-181,36.1301,2.91016,0,0,0,0,0,0,0,-1,1917,1205,36.1302,-2.9102
700,-181,29.5845,6.58398,0,0,0,0,0,0,0,-1,1924,1205,29.5844,-6.58395
707,-181,55.4949,10.6722,0,0,0,0,0,0,0,-1,1931,1205,55.4949,-10.6722
714,-181,55.6268,10.3521,0,0,0,0,0,0,0,-1,1938,1205,55.6268,-10.3521
721,-181,51.2217,9.59631,0,0,0,0,0,0,0,-1,1945,1205,51.2217,-9.59637
728,-181,61.2365,9.54761,0,0,0,0,0,0,0,-1,1952,1205,61.2365,-9.54758
735,-181,61.2201,8.86084,0.00129239,0.000867777,0.000598403,0.00171503,0.000445135,0.61493,0.00102763,0.0174689,1959,1205,61.2201,-8.86083
742,-181,61.167,8.21191,0.00123942,0.000662311,0.00118686,0.0021723,-0.000270569,0.66615,0.0015463,0.0175313,1966,1205,61.167,-8.21189
749,-181,61.1466,7.49402,0.00110275,0.000499304,0.00191366,0.00273833,-0.00113627,0.707207,0.00229986,0.0161815,1973,1205,61.1466,-7.49401
756,-181,61.1404,6.79321,0.00129533,9.84235e-05,0.00260219,0.003367,-0.00197325,0.672373,0.003118,0.0119347,1980,1205,61.1404,-6.79323
763,-181,61.1406,6.13049,0.0016775,-0.00052655,0.00326548,0.0040219,-0.00287094,0.62266,0.00399803,0.0178205,1987,1205,61.1407,-6.13047
770,-181,61.2244,5.47095,0,0,0,0,0,0,0,-1,1994,1205,61.2245,-5.47097
777,-181,69.6453,-1.67188,0,0,0,0,0,0,0,-1,2001,1205,69.6452,1.6719
784,-181,68.8472,-0.41748,0,0,0,0,0,0,0,-1,2008,1205,68.8471,0.417431
791,-181,67.9812,0.871338,0,0,0,0,0,0,0,-1,2015,1205,67.9812,-0.871396
798,-181,62.5127,-0.257324,0,0,0,0,0,0,0,-1,2022,1205,62.5128,0.257299
805,-181,0,0,0,0,0,0,0,0,0,-1,2029,1205,0,0
812,-181,0,0,0,0,0,0,0,0,0,-1,2036,1205,0,0
-700,-188,0,0,0,0,0,0,0,0,0,-1,524,1212,0,0
-693,-188,0,0,0,0,0,0,0,0,0,-1,531,1212,0,0
-686,-188,0,0,0,0,0,0,0,0,0,-1,538,1212,0,0
-679,-188,-45.2995,0.949829,0,0,0,0,0,0,0,-1,545,1212,-45.2995,-0.949787
-672,-188,-45.3529,1.90637,0,0,0,0,0,0,0,-1,552,1212,-45.3529,-1.90637
-665,-188,-46.0236,2.89209,0,0,0,0,0,0,0,-1,559,1212,-46.0236,-2.89204
-658,-188,-46.6727,3.89404,0,0,0,0,0,0,0,-1,566,1212,-46.6727,-3.89404
-651,-188,-43.6702,2.94458,0,0,0,0,0,0,0,-1,573,1212,-43.6702,-2.94459
-644,-188,-43.7229,3.57739,0.000938008,0.00255295,-0.01128,0.0130544,-0.00956342,-0.821129,0.0131101,0.0473724,580,1212,-43.7229,-3.57739
-637,-188,-43.7775,4.19775,0.00037174,0.00233409,-0.00791822,0.0093317,-0.00662587,-0.847041,0.00925715,0.0265417,587,1212,-43.7775,-4.19779
-630,-188,-43.8217,4.85999,-0.000201093,0.00181608,-0.00549628,0.00639555,-0.00478056,-0.87614,0.00647494,0.0119329,594,1212,-43.8217,-4.85999
-623,-188,-43.8507,5.58398,-0.000558264,0.00129994,-0.00439101,0.00485907,-0.00411739,-0.889656,0.00518846,0.01109,601,1212,-43.8507,-5.58395
-616,-188,-43.8541,6.297,-0.000887044,0.000793618,-0.00385399,0.00389783,-0.00399125,-0.892739,0.00455487,0.0113392,608,1212,-43.8541,-6.297
-609,-188,-43.8599,7.05347,-0.00118793,0.000290029,-0.00386475,0.00348581,-0.00438372,-0.879863,0.00455332,0.0149972,615,1212,-43.8599,-7.05343
-602,-188,-43.8356,7.85095,-0.00145379,-0.000189097,-0.00441899,0.00364256,-0.00528544,-0.856464,0.00518359,0.0288058,622,1212,-43.8356,-7.85092
-595,-188,-43.7568,8.79248,0,0,0,0,0,0,0,-1,629,1212,-43.7568,-8.79245
-588,-188,-44.2783,9.25708,-0.00167477,-0.000928673,-0.00769225,0.00639957,-0.00900301,-0.809627,0.00893492,0.030014,636,1212,-44.2783,-9.25712
-581,-188,-44.3224,9.91528,-0.00186804,-0.00104779,-0.0105763,0.00912634,-0.0120422,-0.804777,0.0122602,0.0326137,643,1212,-44.3225,-9.91533
-574,-188,-44.3539,10.521,0,0,0,0,0,0,0,-1,650,1212,-44.3539,-10.521
-567,-188,-19.5786,4.10388,0,0,0,0,0,0,0,-1,657,1212,-19.5785,-4.10383
-560,-188,-23.9507,0.416626,0,0,0,0,0,0,0,-1,664,1212,-23.9508,-0.416602
-553,-188,-49.2368,1.03101,0,0,0,0,0,0,0,-1,671,1212,-49.2367,-1.03099
-546,-188,-57.0261,0.279419,0,0,0,0,0,0,0,-1,678,1212,-57.0261,-0.279359
-539,-188,-57.0045,0.240723,0,0,0,0,0,0,0,-1,685,1212,-57.0044,-0.240779
-532,-188,-57.1419,0.150269,0,0,0,0,0,0,0,-1,692,1212,-57.1419,-0.150299
-525,-188,-57.095,0.268311,0,0,0,0,0,0,0,-1,699,1212,-57.095,-0.268329
-518,-188,-57.0081,0.380615,0,0,0,0,0,0,0,-1,706,1212,-57.0081,-0.380559
-511,-188,-57.0124,0.440186,0,0,0,0,0,0,0,-1,713,1212,-57.0124,-0.440201
-504,-188,0,0,0,0,0,0,0,0,0,-1,720,1212,0,0
-497,-188,0,0,0,0,0,0,0,0,0,-1,727,1212,0,0
-490,-188,0,0,0,0,0,0,0,0,0,-1,734,1212,0,0
-483,-188,0,0,0,0,0,0,0,0,0,-1,741,1212,0,0
-476,-188,0,0,0,0,0,0,0,0,0,-1,748,1212,0,0
-469,-188,0,0,0,0,0,0,0,0,0,-1,755,1212,0,0
-462,-188,0,0,0,0,0,0,0,0,0,-1,762,1212,0,0
-455,-188,0,0,0,0,0,0,0,0,0,-1,769,1212,0,0
-448,-188,0,0,0,0,0,0,0,0,0,-1,776,1212,0,0
-441,-188,0,0,0,0,0,0,0,0,0,-1,783,1212,0,0
-434,-188,0,0,0,0,0,0,0,0,0,-1,790,1212,0,0
-427,-188,0,0,0,0,0,0,0,0,0,-1,797,1212,0,0
-420,-188,0,0,0,0,0,0,0,0,0,-1,804,1212,0,0
-413,-188,0,0,0,0,0,0,0,0,0,-1,811,1212,0,0
-406,-188,0,0,0,0,0,0,0,0,0,-1,818,1212,0,0
-399,-188,0,0,0,0,0,0,0,0,0,-1,825,1212,0,0
-392,-188,0,0,0,0,0,0,0,0,0,-1,832,1212,0,0
-385,-188,0,0,0,0,0,0,0,0,0,-1,839,1212,0,0
-378,-188,0,0,0,0,0,0,0,0,0,-1,846,1212,0,0
-371,-188,0,0,0,0,0,0,0,0,0,-1,853,1212,0,0
-364,-188,0,0,0,0,0,0,0,0,0,-1,860,1212,0,0
-357,-188,0,0,0,0,0,0,0,0,0,-1,867,1212,0,0
-350,-188,0,0,0,0,0,0,0,0,0,-1,874,1212,0,0
-343,-188,0,0,0,0,0,0,0,0,0,-1,881,1212,0,0
-336,-188,0,0,0,0,0,0,0,0,0,-1,888,1212,0,0
-329,-188,0,0,0,0,0,0,0,0,0,-1,895,1212,0,0
-322,-188,0,0,0,0,0,0,0,0,0,-1,902,1212,0,0
-315,-188,0,0,0,0,0,0,0,0,0,-1,909,1212,0,0
-308,-188,0,0,0,0,0,0,0,0,0,-1,916,1212,0,0
-301,-188,0,0,0,0,0,0,0,0,0,-1,923,1212,0,0
-294,-188,0,0,0,0,0,0,0,0,0,-1,930,1212,0,0
-287,-188,0,0,0,0,0,0,0,0,0,-1,937,1212,0,0
-280,-188,0,0,0,0,0,0,0,0,0,-1,944,1212,0,0
-273,-188,0,0,0,0,0,0,0,0,0,-1,951,1212,0,0
-266,-188,0,0,0,0,0,0,0,0,0,-1,958,1212,0,0
-259,-188,0,0,0,0,0,0,0,0,0,-1,965,1212,0,0
-252,-188,0,0,0,0,0,0,0,0,0,-1,972,1212,0,0
-245,-188,0,0,0,0,0,0,0,0,0,-1,979,1212,0,0
-238,-188,0,0,0,0,0,0,0,0,0,-1,986,1212,0,0
-231,-188,0,0,0,0,0,0,0,0,0,-1,993,1212,0,0
-224,-188,0,0,0,0,0,0,0,0,0,-1,1000,1212,0,0
-217,-188,0,0,0,0,0,0,0,0,0,-1,1007,1212,0,0
-210,-188,0,0,0,0,0,0,0,0,0,-1,1014,1212,0,0
-203,-188,0,0,0,0,0,0,0,0,0,-1,1021,1212,0,0
-196,-188,0,0,0,0,0,0,0,0,0,-1,1028,1212,0,0
-189,-188,0,0,0,0,0,0,0,0,0,-1,1035,1212,0,0
-182,-188,0,0,0,0,0,0,0,0,0,-1,1042,1212,0,0
-175,-188,0,0,0,0,0,0,0,0,0,-1,1049,1212,0,0
-168,-188,0,0,0,0,0,0,0,0,0,-1,1056,1212,0,0
-161,-188,0,0,0,0,0,0,0,0,0,-1,1063,1212,0,0
-154,-188,0,0,0,0,0,0,0,0,0,-1,1070,1212,0,0
-147,-188,0,0,0,0,0,0,0,0,0,-1,1077,1212,0,0
-140,-188,0,0,0,0,0,0,0,0,0,-1,1084,1212,0,0
-133,-188,0,0,0,0,0,0,0,0,0,-1,1091,1212,0,0
-126,-188,0,0,0,0,0,0,0,0,0,-1,1098,1212,0,0
-119,-188,0,0,0,0,0,0,0,0,0,-1,1105,1212,0,0
-112,-188,0,0,0,0,0,0,0,0,0,-1,1112,1212,0,0
-105,-188,0,0,0,0,0,0,0,0,0,-1,1119,1212,0,0
-98,-188,0,0,0,0,0,0,0,0,0,-1,1126,1212,0,0
-91,-188,0,0,0,0,0,0,0,0,0,-1,1133,1212,0,0
-84,-188,0,0,0,0,0,0,0,0,0,-1,1140,1212,0,0
-77,-188,0,0,0,0,0,0,0,0,0,-1,1147,1212,0,0
-70,-188,0,0,0,0,0,0,0,0,0,-1,1154,1212,0,0
-63,-188,0,0,0,0,0,0,0,0,0,-1,1161,1212,0,0
-56,-188,0,0,0,0,0,0,0,0,0,-1,1168,1212,0,0
-49,-188,0,0,0,0,0,0,0,0,0,-1,1175,1212,0,0
-42,-188,0,0,0,0,0,0,0,0,0,-1,1182,1212,0,0
-35,-188,0,0,0,0,0,0,0,0,0,-1,1189,1212,0,0
-28,-188,0,0,0,0,0,0,0,0,0,-1,1196,1212,0,0
-21,-188,0,0,0,0,0,0,0,0,0,-1,1203,1212,0,0
-14,-188,0,0,0,0,0,0,0,0,0,-1,1210,1212,0,0
-7,-188,0,0,0,0,0,0,0,0,0,-1,1217,1212,0,0
0,-188,0,0,0,0,0,0,0,0,0,-1,1224,1212,0,0
7,-188,0,0,0,0,0,0,0,0,0,-1,1231,1212,0,0
14,-188,0,0,0,0,0,0,0,0,0,-1,1238,1212,0,0
21,-188,0,0,0,0,0,0,0,0,0,-1,1245,1212,0,0
28,-188,0,0,0,0,0,0,0,0,0,-1,1252,1212,0,0
35,-188,0,0,0,0,0,0,0,0,0,-1,1259,1212,0,0
42,-188,0,0,0,0,0,0,0,0,0,-1,1266,1212,0,0
49,-188,0,0,0,0,0,0,0,0,0,-1,1273,1212,0,0
56,-188,0,0,0,0,0,0,0,0,0,-1,1280,1212,0,0
63,-188,0,0,0,0,0,0,0,0,0,-1,1287,1212,0,0
70,-188,0,0,0,0,0,0,0,0,0,-1,1294,1212,0,0
77,-188,0,0,0,0,0,0,0,0,0,-1,1301,1212,0,0
84,-188,0,0,0,0,0,0,0,0,0,-1,1308,1212,0,0
91,-188,0,0,0,0,0,0,0,0,0,-1,1315,1212,0,0
98,-188,0,0,0,0,0,0,0,0,0,-1,1322,1212,0,0
105,-188,0,0,0,0,0,0,0,0,0,-1,1329,1212,0,0
112,-188,0,0,0,0,0,0,0,0,0,-1,1336,1212,0,0
119,-188,0,0,0,0,0,0,0,0,0,-1,1343,1212,0,0
126,-188,0,0,0,0,0,0,0,0,0,-1,1350,1212,0,0
133,-188,0,0,0,0,0,0,0,0,0,-1,1357,1212,0,0
140,-188,0,0,0,0,0,0,0,0,0,-1,1364,1212,0,0
147,-188,0,0,0,0,0,0,0,0,0,-1,1371,1212,0,0
154,-188,0,0,0,0,0,0,0,0,0,-1,1378,1212,0,0
161,-188,0,0,0,0,0,0,0,0,0,-1,1385,1212,0,0
168,-188,0,0,0,0,0,0,0,0,0,-1,1392,1212,0,0
175,-188,0,0,0,0,0,0,0,0,0,-1,1399,1212,0,0
182,-188,0,0,0,0,0,0,0,0,0,-1,1406,1212,0,0
189,-188,0,0,0,0,0,0,0,0,0,-1,1413,1212,0,0
196,-188,0,0,0,0,0,0,0,0,0,-1,1420,1212,0,0
203,-188,0,0,0,0,0,0,0,0,0,-1,1427,1212,0,0
210,-188,0,0,0,0,0,0,0,0,0,-1,1434,1212,0,0
217,-188,0,0,0,0,0,0,0,0,0,-1,1441,1212,0,0
224,-188,0,0,0,0,0,0,0,0,0,-1,1448,1212,0,0
231,-188,0,0,0,0,0,0,0,0,0,-1,1455,1212,0,0
238,-188,0,0,0,0,0,0,0,0,0,-1,1462,1212,0,0
245,-188,0,0,0,0,0,0,0,0,0,-1,1469,1212,0,0
252,-188,0,0,0,0,0,0,0,0,0,-1,1476,1212,0,0
259,-188,0,0,0,0,0,0,0,0,0,-1,1483,1212,0,0
266,-188,0,0,0,0,0,0,0,0,0,-1,1490,1212,0,0
273,-188,0,0,0,0,0,0,0,0,0,-1,1497,1212,0,0
280,-188,0,0,0,0,0,0,0,0,0,-1,1504,1212,0,0
287,-188,0,0,0,0,0,0,0,0,0,-1,1511,1212,0,0
294,-188,0,0,0,0,0,0,0,0,0,-1,1518,1212,0,0
301,-188,0,0,0,0,0,0,0,0,0,-1,1525,1212,0,0
308,-188,0,0,0,0,0,0,0,0,0,-1,1532,1212,0,0
315,-188,0,0,0,0,0,0,0,0,0,-1,1539,1212,0,0
322,-188,0,0,0,0,0,0,0,0,0,-1,1546,1212,0,0
329,-188,0,0,0,0,0,0,0,0,0,-1,1553,1212,0,0
336,-188,0,0,0,0,0,0,0,0,0,-1,1560,1212,0,0
343,-188,0,0,0,0,0,0,0,0,0,-1,1567,1212,0,0
350,-188,0,0,0,0,0,0,0,0,0,-1,1574,1212,0,0
357,-188,0,0,0,0,0,0,0,0,0,-1,1581,1212,0,0
364,-188,0,0,0,0,0,0,0,0,0,-1,1588,1212,0,0
371,-188,0,0,0,0,0,0,0,0,0,-1,1595,1212,0,0
378,-188,0,0,0,0,0,0,0,0,0,-1,1602,1212,0,0
385,-188,0,0,0,0,0,0,0,0,0,-1,1609,1212,0,0
392,-188,0,0,0,0,0,0,0,0,0,-1,1616,1212,0,0
399,-188,0,0,0,0,0,0,0,0,0,-1,1623,1212,0,0
406,-188,0,0,0,0,0,0,0,0,0,-1,1630,1212,0,0
413,-188,0,0,0,0,0,0,0,0,0,-1,1637,1212,0,0
420,-188,0,0,0,0,0,0,0,0,0,-1,1644,1212,0,0
427,-188,0,0,0,0,0,0,0,0,0,-1,1651,1212,0,0
434,-188,0,0,0,0,0,0,0,0,0,-1,1658,1212,0,0
441,-188,0,0,0,0,0,0,0,0,0,-1,1665,1212,0,0
448,-188,0,0,0,0,0,0,0,0,0,-1,1672,1212,0,0
455,-188,0,0,0,0,0,0,0,0,0,-1,1679,1212,0,0
462,-188,0,0,0,0,0,0,0,0,0,-1,1686,1212,0,0
469,-188,0,0,0,0,0,0,0,0,0,-1,1693,1212,0,0
476,-188,0,0,0,0,0,0,0,0,0,-1,1700,1212,0,0
483,-188,0,0,0,0,0,0,0,0,0,-1,1707,1212,0,0
490,-188,0,0,0,0,0,0,0,0,0,-1,1714,1212,0,0
497,-188,0,0,0,0,0,0,0,0,0,-1,1721,1212,0,0
504,-188,0,0,0,0,0,0,0,0,0,-1,1728,1212,0,0
511,-188,0,0,0,0,0,0,0,0,0,-1,1735,1212,0,0
518,-188,0,0,0,0,0,0,0,0,0,-1,1742,1212,0,0
525,-188,0,0,0,0,0,0,0,0,0,-1,1749,1212,0,0
532,-188,0,0,0,0,0,0,0,0,0,-1,1756,1212,0,0
539,-188,0,0,0,0,0,0,0,0,0,-1,1763,1212,0,0
546,-188,0,0,0,0,0,0,0,0,0,-1,1770,1212,0,0
553,-188,0,0,0,0,0,0,0,0,0,-1,1777,1212,0,0
560,-188,0,0,0,0,0,0,0,0,0,-1,1784,1212,0,0
567,-188,0,0,0,0,0,0,0,0,0,-1,1791,1212,0,0
574,-188,0,0,0,0,0,0,0,0,0,-1,1798,1212,0,0
581,-188,0,0,0,0,0,0,0,0,0,-1,1805,1212,0,0
588,-188,0,0,0,0,0,0,0,0,0,-1,1812,1212,0,0
595,-188,0,0,0,0,0,0,0,0,0,-1,1819,1212,0,0
602,-188,0,0,0,0,0,0,0,0,0,-1,1826,1212,0,0
609,-188,0,0,0,0,0,0,0,0,0,-1,1833,1212,0,0
616,-188,0,0,0,0,0,0,0,0,0,-1,1840,1212,0,0
623,-188,0,0,0,0,0,0,0,0,0,-1,1847,1212,0,0
630,-188,74.2285,2.43018,0.00710805,0.00345186,-0.00360315,0.00932033,0.00123958,-0.55064,0.00584434,0.0418223,1854,1212,74.2285,-2.43015
637,-188,74.2219,2.19653,0.0054681,0.00291615,-0.00280996,0.00727822,0.00110603,-0.572273,0.00452872,0.04141,1861,1212,74.2219,-2.19651
644,-188,74.2545,2.11243,0.00421562,0.00282475,-0.00243707,0.00605453,0.000985834,-0.646413,0.00375118,0.0378773,1868,1212,74.2545,-2.1124
651,-188,74.2637,2.21606,0.0032887,0.00302926,-0.00237167,0.00553419,0.000783765,-0.758078,0.00345794,0.0339938,1875,1212,74.2636,-2.21607
658,-188,74.2546,2.25037,0.00243794,0.00307002,-0.00214505,0.00492219,0.000585769,-0.858538,0.00310468,0.0342012,1882,1212,74.2546,-2.25041
665,-188,74.213,2.27002,0.00173183,0.0029163,-0.00180158,0.00422049,0.000427639,-0.9442,0.0026825,0.032184,1889,1212,74.213,-2.27001
672,-188,74.2697,2.20496,0.00156279,0.00249448,-0.00155503,0.00365195,0.000405328,-0.93093,0.0023114,0.0268927,1896,1212,74.2697,-2.20494
679,-188,74.3308,2.06482,0,0,0,0,0,0,0,-1,1903,1212,74.3308,-2.06477
686,-188,60.1007,2.41321,0,0,0,0,0,0,0,-1,1910,1212,60.1007,-2.41325
693,-188,35.9054,2.18042,0,0,0,0,0,0,0,-1,1917,1212,35.9054,-2.18038
700,-188,54.452,11.2678,0,0,0,0,0,0,0,-1,1924,1212,54.452,-11.2678
707,-188,60.8672,11.8842,0,0,0,0,0,0,0,-1,1931,1212,60.8671,-11.8841
714,-188,54.7506,10.1539,0,0,0,0,0,0,0,-1,1938,1212,54.7507,-10.1539
721,-188,60.5524,10.7687,0,0,0,0,0,0,0,-1,1945,1212,60.5524,-10.7687
728,-188,60.6337,9.58594,0,0,0,0,0,0,0,-1,1952,1212,60.6337,-9.58589
735,-188,60.5022,8.91821,0.00117773,0.000778823,0.000690754,0.00169725,0.000259302,0.644849,0.00105573,0.0141778,1959,1212,60.5022,-8.91819
742,-188,60.451,8.21985,0.00110103,0.000451329,0.00139106,0.00220467,-0.000652306,0.67069,0.00172873,0.0154006,1966,1212,60.451,-8.21979
749,-188,60.4431,7.53186,0.000833181,0.000263483,0.00219138,0.00275815,-0.00166148,0.720767,0.00257773,0.0150275,1973,1212,60.4431,-7.53185
756,-188,60.4336,6.81299,0.000719127,-0.000149796,0.00315824,0.00347265,-0.00290332,0.717045,0.00368606,0.0143065,1980,1212,60.4336,-6.81293
763,-188,60.4366,6.12439,0.000574942,-0.000803445,0.00430613,0.00424668,-0.00447518,0.706046,0.00503614,0.0191109,1987,1212,60.4367,-6.12434
770,-188,60.3933,5.37903,0.000604487,-0.00158579,0.00528982,0.00491134,-0.00589265,0.683326,0.00624626,0.047722,1994,1212,60.3934,-5.37909
777,-188,60.4883,4.65967,0,0,0,0,0,0,0,-1,2001,1212,60.4884,-4.65962
784,-188,69.1482,-1.87268,0,0,0,0,0,0,0,-1,2008,1212,69.1481,1.87266
791,-188,68.3596,-0.192261,0,0,0,0,0,0,0,-1,2015,1212,68.3596,0.192286
798,-188,67.5286,1.23303,0,0,0,0,0,0,0,-1,2022,1212,67.5285,-1.23298
805,-188,0,0,0,0,0,0,0,0,0,-1,2029,1212,0,0
812,-188,0,0,0,0,0,0,0,0,0,-1,2036,1212,0,0
-700,-195,0,0,0,0,0,0,0,0,0,-1,524,1219,0,0
-693,-195,0,0,0,0,0,0,0,0,0,-1,531,1219,0,0
-686,-195,0,0,0,0,0,0,0,0,0,-1,538,1219,0,0
-679,-195,-43.7121,1.92041,0,0,0,0,0,0,0,-1,545,1219,-43.7121,-1.92045
-672,-195,-44.7717,2.57825,0,0,0,0,0,0,0,-1,552,1219,-44.7717,-2.5783
-665,-195,-45.4036,3.53088,0,0,0,0,0,0,0,-1,559,1219,-45.4036,-3.53085
-658,-195,-42.6432,2.47583,0,0,0,0,0,0,0,-1,566,1219,-42.6432,-2.47578
-651,-195,-42.7884,2.91211,0,0,0,0,0,0,0,-1,573,1219,-42.7884,-2.91207
-644,-195,-42.857,3.57727,0.00250681,0.00310257,-0.0108927,0.0137015,-0.00809208,-0.799068,0.0127207,0.0481643,580,1219,-42.857,-3.57723
-637,-195,-42.9395,4.20361,0.00185313,0.0026861,-0.00747721,0.00975841,-0.00521918,-0.81322,0.00877869,0.0278728,587,1219,-42.9394,-4.20365
-630,-195,-43.056,4.87537,0.00108739,0.00207117,-0.00501327,0.00661663,-0.00345807,-0.8343,0.00591115,0.00987187,594,1219,-43.0561,-4.8754
-623,-195,-43.084,5.60535,0.000600085,0.00153435,-0.00399178,0.00508625,-0.00295181,-0.843645,0.00469499,0.00855304,601,1219,-43.084,-5.60538
-616,-195,-43.0899,6.34595,0.000131593,0.00107826,-0.00353142,0.00416793,-0.00295808,-0.852018,0.00413392,0.0103183,608,1219,-43.0899,-6.34598
-609,-195,-43.0801,7.14197,-0.000297309,0.000613257,-0.00359093,0.00377765,-0.0034617,-0.848455,0.00418097,0.0188673,615,1219,-43.0801,-7.14193
-602,-195,-43.1822,7.84924,-0.000661206,0.000192395,-0.00415215,0.00393963,-0.00440844,-0.836613,0.00482229,0.0246308,622,1219,-43.1822,-7.84923
-595,-195,-43.2775,8.5625,-0.00093981,-0.000201606,-0.00521071,0.00465305,-0.00579447,-0.820757,0.00604387,0.0412514,629,1219,-43.2775,-8.56247
-588,-195,-43.436,9.42847,-0.00104603,-0.000499191,-0.00710684,0.00633949,-0.00788471,-0.804625,0.00822848,0.0265846,636,1219,-43.436,-9.42844
-581,-195,-43.3832,9.95361,-0.00121763,-0.000749958,-0.00962318,0.00864223,-0.0106098,-0.797545,0.0111345,0.0323781,643,1219,-43.3832,-9.95363
-574,-195,-43.6294,10.4073,0,0,0,0,0,0,0,-1,650,1219,-43.6294,-10.4074
-567,-195,-20.6388,3.78369,0,0,0,0,0,0,0,-1,657,1219,-20.6388,-3.78369
-560,-195,-20.878,2.10388,0,0,0,0,0,0,0,-1,664,1219,-20.878,-2.10385
-553,-195,-41.595,0.613281,0,0,0,0,0,0,0,-1,671,1219,-41.595,-0.61334
-546,-195,-56.9084,0.305786,0,0,0,0,0,0,0,-1,678,1219,-56.9084,-0.305751
-539,-195,-56.9205,0.191406,0,0,0,0,0,0,0,-1,685,1219,-56.9205,-0.191429
-532,-195,-56.9459,0.0625,0,0,0,0,0,0,0,-1,692,1219,-56.9459,-0.0624959
-525,-195,-56.8923,0.129272,0,0,0,0,0,0,0,-1,699,1219,-56.8923,-0.129287
-518,-195,-56.891,0.161011,0,0,0,0,0,0,0,-1,706,1219,-56.891,-0.161043
-511,-195,-57.0263,0.339111,0,0,0,0,0,0,0,-1,713,1219,-57.0263,-0.339105
-504,-195,0,0,0,0,0,0,0,0,0,-1,720,1219,0,0
-497,-195,0,0,0,0,0,0,0,0,0,-1,727,1219,0,0
-490,-195,0,0,0,0,0,0,0,0,0,-1,734,1219,0,0
-483,-195,0,0,0,0,0,0,0,0,0,-1,741,1219,0,0
-476,-195,0,0,0,0,0,0,0,0,0,-1,748,1219,0,0
-469,-195,0,0,0,0,0,0,0,0,0,-1,755,1219,0,0
-462,-195,0,0,0,0,0,0,0,0,0,-1,762,1219,0,0
-455,-195,0,0,0,0,0,0,0,0,0,-1,769,1219,0,0
-448,-195,0,0,0,0,0,0,0,0,0,-1,776,1219,0,0
-441,-195,0,0,0,0,0,0,0,0,0,-1,783,1219,0,0
-434,-195,0,0,0,0,0,0,0,0,0,-1,790,1219,0,0
-427,-195,0,0,0,0,0,0,0,0,0,-1,797,1219,0,0
-420,-195,0,0,0,0,0,0,0,0,0,-1,804,1219,0,0
-413,-195,0,0,0,0,0,0,0,0,0,-1,811,1219,0,0
-406,-195,0,0,0,0,0,0,0,0,0,-1,818,1219,0,0
-399,-195,0,0,0,0,0,0,0,0,0,-1,825,1219,0,0
-392,-195,0,0,0,0,0,0,0,0,0,-1,832,1219,0,0
-385,-195,0,0,0,0,0,0,0,0,0,-1,839,1219,0,0
-378,-195,0,0,0,0,0,0,0,0,0,-1,846,1219,0,0
-371,-195,0,0,0,0,0,0,0,0,0,-1,853,1219,0,0
-364,-195,0,0,0,0,0,0,0,0,0,-1,860,1219,0,0
-357,-195,0,0,0,0,0,0,0,0,0,-1,867,1219,0,0
-350,-195,0,0,0,0,0,0,0,0,0,-1,874,1219,0,0
-343,-195,0,0,0,0,0,0,0,0,0,-1,881,1219,0,0
-336,-195,0,0,0,0,0,0,0,0,0,-1,888,1219,0,0
-329,-195,0,0,0,0,0,0,0,0,0,-1,895,1219,0,0
-322,-195,0,0,0,0,0,0,0,0,0,-1,902,1219,0,0
-315,-195,0,0,0,0,0,0,0,0,0,-1,909,1219,0,0
-308,-195,0,0,0,0,0,0,0,0,0,-1,916,1219,0,0
-301,-195,0,0,0,0,0,0,0,0,0,-1,923,1219,0,0
-294,-195,0,0,0,0,0,0,0,0,0,-1,930,1219,0,0
-287,-195,0,0,0,0,0,0,0,0,0,-1,937,1219,0,0
-280,-195,0,0,0,0,0,0,0,0,0,-1,944,1219,0,0
-273,-195,0,0,0,0,0,0,0,0,0,-1,951,1219,0,0
-266,-195,0,0,0,0,0,0,0,0,0,-1,958,1219,0,0
-259,-195,0,0,0,0,0,0,0,0,0,-1,965,1219,0,0
-252,-195,0,0,0,0,0,0,0,0,0,-1,972,1219,0,0
-245,-195,0,0,0,0,0,0,0,0,0,-1,979,1219,0,0
-238,-195,0,0,0,0,0,0,0,0,0,-1,986,1219,0,0
-231,-195,0,0,0,0,0,0,0,0,0,-1,993,1219,0,0
-224,-195,0,0,0,0,0,0,0,0,0,-1,1000,1219,0,0
-217,-195,0,0,0,0,0,0,0,0,0,-1,1007,1219,0,0
-210,-195,0,0,0,0,0,0,0,0,0,-1,1014,1219,0,0
-203,-195,0,0,0,0,0,0,0,0,0,-1,1021,1219,0,0
-196,-195,0,0,0,0,0,0,0,0,0,-1,1028,1219,0,0
-189,-195,0,0,0,0,0,0,0,0,0,-1,1035,1219,0,0
-182,-195,0,0,0,0,0,0,0,0,0,-1,1042,1219,0,0
-175,-195,0,0,0,0,0,0,0,0,0,-1,1049,1219,0,0
-168,-195,0,0,0,0,0,0,0,0,0,-1,1056,1219,0,0
-161,-195,0,0,0,0,0,0,0,0,0,-1,1063,1219,0,0
-154,-195,0,0,0,0,0,0,0,0,0,-1,1070,1219,0,0
-147,-195,0,0,0,0,0,0,0,0,0,-1,1077,1219,0,0
-140,-195,0,0,0,0,0,0,0,0,0,-1,1084,1219,0,0
-133,-195,0,0,0,0,0,0,0,0,0,-1,1091,1219,0,0
-126,-195,0,0,0,0,0,0,0,0,0,-1,1098,1219,0,0
-119,-195,0,0,0,0,0,0,0,0,0,-1,1105,1219,0,0
-112,-195,0,0,0,0,0,0,0,0,0,-1,1112,1219,0,0
-105,-195,0,0,0,0,0,0,0,0,0,-1,1119,1219,0,0
-98,-195,0,0,0,0,0,0,0,0,0,-1,1126,1219,0,0
-91,-195,0,0,0,0,0,0,0,0,0,-1,1133,1219,0,0
-84,-195,0,0,0,0,0,0,0,0,0,-1,1140,1219,0,0
-77,-195,0,0,0,0,0,0,0,0,0,-1,1147,1219,0,0
-70,-195,0,0,0,0,0,0,0,0,0,-1,1154,1219,0,0
-63,-195,0,0,0,0,0,0,0,0,0,-1,1161,1219,0,0
-56,-195,0,0,0,0,0,0,0,0,0,-1,1168,1219,0,0
-49,-195,0,0,0,0,0,0,0,0,0,-1,1175,1219,0,0
-42,-195,0,0,0,0,0,0,0,0,0,-1,1182,1219,0,0
-35,-195,0,0,0,0,0,0,0,0,0,-1,1189,1219,0,0
-28,-195,0,0,0,0,0,0,0,0,0,-1,1196,1219,0,0
-21,-195,0,0,0,0,0,0,0,0,0,-1,1203,1219,0,0
-14,-195,0,0,0,0,0,0,0,0,0,-1,1210,1219,0,0
-7,-195,0,0,0,0,0,0,0,0,0,-1,1217,1219,0,0
0,-195,0,0,0,0,0,0,0,0,0,-1,1224,1219,0,0
7,-195,0,0,0,0,0,0,0,0,0,-1,1231,1219,0,0
14,-195,0,0,0,0,0,0,0,0,0,-1,1238,1219,0,0
21,-195,0,0,0,0,0,0,0,0,0,-1,1245,1219,0,0
28,-195,0,0,0,0,0,0,0,0,0,-1,1252,1219,0,0
35,-195,0,0,0,0,0,0,0,0,0,-1,1259,1219,0,0
42,-195,0,0,0,0,0,0,0,0,0,-1,1266,1219,0,0
49,-195,0,0,0,0,0,0,0,0,0,-1,1273,1219,0,0
56,-195,0,0,0,0,0,0,0,0,0,-1,1280,1219,0,0
63,-195,0,0,0,0,0,0,0,0,0,-1,1287,1219,0,0
70,-195,0,0,0,0,0,0,0,0,0,-1,1294,1219,0,0
77,-195,0,0,0,0,0,0,0,0,0,-1,1301,1219,0,0
84,-195,0,0,0,0,0,0,0,0,0,-1,1308,1219,0,0
91,-195,0,0,0,0,0,0,0,0,0,-1,1315,1219,0,0
98,-195,0,0,0,0,0,0,0,0,0,-1,1322,1219,0,0
105,-195,0,0,0,0,0,0,0,0,0,-1,1329,1219,0,0
112,-195,0,0,0,0,0,0,0,0,0,-1,1336,1219,0,0
119,-195,0,0,0,0,0,0,0,0,0,-1,1343,1219,0,0
126,-195,0,0,0,0,0,0,0,0,0,-1,1350,1219,0,0
133,-195,0,0,0,0,0,0,0,0,0,-1,1357,1219,0,0
140,-195,0,0,0,0,0,0,0,0,0,-1,1364,1219,0,0
147,-195,0,0,0,0,0,0,0,0,0,-1,1371,1219,0,0
154,-195,0,0,0,0,0,0,0,0,0,-1,1378,1219,0,0
161,-195,0,0,0,0,0,0,0,0,0,-1,1385,1219,0,0
168,-195,0,0,0,0,0,0,0,0,0,-1,1392,1219,0,0
175,-195,0,0,0,0,0,0,0,0,0,-1,1399,1219,0,0
182,-195,0,0,0,0,0,0,0,0,0,-1,1406,1219,0,0
189,-195,0,0,0,0,0,0,0,0,0,-1,1413,1219,0,0
196,-195,0,0,0,0,0,0,0,0,0,-1,1420,1219,0,0
203,-195,0,0,0,0,0,0,0,0,0,-1,1427,1219,0,0
210,-195,0,0,0,0,0,0,0,0,0,-1,1434,1219,0,0
217,-195,0,0,0,0,0,0,0,0,0,-1,1441,1219,0,0
224,-195,0,0,0,0,0,0,0,0,0,-1,1448,1219,0,0
231,-195,0,0,0,0,0,0,0,0,0,-1,1455,1219,0,0
238,-195,0,0,0,0,0,0,0,0,0,-1,1462,1219,0,0
245,-195,0,0,0,0,0,0,0,0,0,-1,1469,1219,0,0
252,-195,0,0,0,0,0,0,0,0,0,-1,1476,1219,0,0
259,-195,0,0,0,0,0,0,0,0,0,-1,1483,1219,0,0
266,-195,0,0,0,0,0,0,0,0,0,-1,1490,1219,0,0
273,-195,0,0,0,0,0,0,0,0,0,-1,1497,1219,0,0
280,-195,0,0,0,0,0,0,0,0,0,-1,1504,1219,0,0
287,-195,0,0,0,0,0,0,0,0,0,-1,1511,1219,0,0
294,-195,0,0,0,0,0,0,0,0,0,-1,1518,1219,0,0
301,-195,0,0,0,0,0,0,0,0,0,-1,1525,1219,0,0
308,-195,0,0,0,0,0,0,0,0,0,-1,1532,1219,0,0
315,-195,0,0,0,0,0,0,0,0,0,-1,1539,1219,0,0
322,-195,0,0,0,0,0,0,0,0,0,-1,1546,1219,0,0
329,-195,0,0,0,0,0,0,0,0,0,-1,1553,1219,0,0
336,-195,0,0,0,0,0,0,0,0,0,-1,1560,1219,0,0
343,-195,0,0,0,0,0,0,0,0,0,-1,1567,1219,0,0
350,-195,0,0,0,0,0,0,0,0,0,-1,1574,1219,0,0
357,-195,0,0,0,0,0,0,0,0,0,-1,1581,1219,0,0
364,-195,0,0,0,0,0,0,0,0,0,-1,1588,1219,0,0
371,-195,0,0,0,0,0,0,0,0,0,-1,1595,1219,0,0
378,-195,0,0,0,0,0,0,0,0,0,-1,1602,1219,0,0
385,-195,0,0,0,0,0,0,0,0,0,-1,1609,1219,0,0
392,-195,0,0,0,0,0,0,0,0,0,-1,1616,1219,0,0
399,-195,0,0,0,0,0,0,0,0,0,-1,1623,1219,0,0
406,-195,0,0,0,0,0,0,0,0,0,-1,1630,1219,0,0
413,-195,0,0,0,0,0,0,0,0,0,-1,1637,1219,0,0
420,-195,0,0,0,0,0,0,0,0,0,-1,1644,1219,0,0
427,-195,0,0,0,0,0,0,0,0,0,-1,1651,1219,0,0
434,-195,0,0,0,0,0,0,0,0,0,-1,1658,1219,0,0
441,-195,0,0,0,0,0,0,0,0,0,-1,1665,1219,0,0
448,-195,0,0,0,0,0,0,0,0,0,-1,1672,1219,0,0
455,-195,0,0,0,0,0,0,0,0,0,-1,1679,1219,0,0
462,-195,0,0,0,0,0,0,0,0,0,-1,1686,1219,0,0
469,-195,0,0,0,0,0,0,0,0,0,-1,1693,1219,0,0
476,-195,0,0,0,0,0,0,0,0,0,-1,1700,1219,0,0
483,-195,0,0,0,0,0,0,0,0,0,-1,1707,1219,0,0
490,-195,0,0,0,0,0,0,0,0,0,-1,1714,1219,0,0
497,-195,0,0,0,0,0,0,0,0,0,-1,1721,1219,0,0
504,-195,0,0,0,0,0,0,0,0,0,-1,1728,1219,0,0
511,-195,0,0,0,0,0,0,0,0,0,-1,1735,1219,0,0
518,-195,0,0,0,0,0,0,0,0,0,-1,1742,1219,0,0
525,-195,0,0,0,0,0,0,0,0,0,-1,1749,1219,0,0
532,-195,0,0,0,0,0,0,0,0,0,-1,1756,1219,0,0
539,-195,0,0,0,0,0,0,0,0,0,-1,1763,1219,0,0
546,-195,0,0,0,0,0,0,0,0,0,-1,1770,1219,0,0
553,-195,0,0,0,0,0,0,0,0,0,-1,1777,1219,0,0
560,-195,0,0,0,0,0,0,0,0,0,-1,1784,1219,0,0
567,-195,0,0,0,0,0,0,0,0,0,-1,1791,1219,0,0
574,-195,0,0,0,0,0,0,0,0,0,-1,1798,1219,0,0
581,-195,0,0,0,0,0,0,0,0,0,-1,1805,1219,0,0
588,-195,0,0,0,0,0,0,0,0,0,-1,1812,1219,0,0
595,-195,0,0,0,0,0,0,0,0,0,-1,1819,1219,0,0
602,-195,0,0,0,0,0,0,0,0,0,-1,1826,1219,0,0
609,-195,0,0,0,0,0,0,0,0,0,-1,1833,1219,0,0
616,-195,0,0,0,0,0,0,0,0,0,-1,1840,1219,0,0
623,-195,0,0,0,0,0,0,0,0,0,-1,1847,1219,0,0
630,-195,74.2821,2.12256,0.00716317,0.0038823,-0.00346673,0.009358,0.00168747,-0.564411,0.00575918,0.0419816,1854,1219,74.2821,-2.12253
637,-195,74.3131,2.2019,0.00524616,0.00366708,-0.00288423,0.00744697,0.00146628,-0.651799,0.00455524,0.039696,1861,1219,74.3131,-2.20193
644,-195,74.3473,2.21204,0.00375693,0.00380725,-0.00264532,0.00642753,0.00113665,-0.790154,0.00396088,0.0364993,1868,1219,74.3473,-2.21207
651,-195,74.3079,2.23938,0.00273631,0.00406137,-0.00263248,0.00611342,0.000684268,-0.908675,0.00386775,0.0286971,1875,1219,74.3078,-2.23942
658,-195,74.3044,2.26111,0.00193231,0.00380547,-0.00222945,0.00528709,0.000450703,-0.984252,0.00338451,0.0248852,1882,1219,74.3045,-2.26107
665,-195,74.3005,2.24548,0.00142239,0.00329558,-0.00175101,0.00434475,0.000373229,-1.03098,0.00278045,0.0236303,1889,1219,74.3005,-2.24552
672,-195,74.3042,2.02954,0.00143857,0.00261468,-0.00144849,0.00358993,0.000463318,-0.978223,0.00225477,0.0381585,1896,1219,74.3042,-2.02954
679,-195,74.272,1.74597,0,0,0,0,0,0,0,-1,1903,1219,74.2719,-1.74602
686,-195,51.2117,1.94312,0,0,0,0,0,0,0,-1,1910,1219,51.2117,-1.9431
693,-195,24.4368,5.68298,0,0,0,0,0,0,0,-1,1917,1219,24.4368,-5.68293
700,-195,60.0583,12.543,0,0,0,0,0,0,0,-1,1924,1219,60.0584,-12.5429
707,-195,60.0581,11.8312,0,0,0,0,0,0,0,-1,1931,1219,60.0581,-11.8312
714,-195,60.0793,11.191,0,0,0,0,0,0,0,-1,1938,1219,60.0793,-11.191
721,-195,59.7799,10.4532,0.000991247,0.0011174,8.04549e-06,0.00111791,0.000990736,1.50736,0.000706705,0.0480077,1945,1219,59.78,-10.4533
728,-195,59.8519,9.69629,0.000933664,0.000577145,0.000541413,0.00132541,0.000185401,0.626363,0.000828747,0.0130515,1952,1219,59.852,-9.69624
735,-195,59.808,8.91687,0.0008547,0.000492894,0.00102042,0.00171013,-0.000362532,0.697668,0.00127818,0.0128148,1959,1219,59.808,-8.91685
742,-195,59.7847,8.23169,0.000681839,0.000118397,0.0018395,0.00226107,-0.00146083,0.709413,0.00216533,0.0149608,1966,1219,59.7846,-8.23166
749,-195,59.7461,7.57166,0.000220823,-0.000105675,0.00276691,0.0028293,-0.00271415,0.755932,0.00320074,0.0151024,1973,1219,59.7461,-7.57169
756,-195,59.7307,6.87805,-0.000231203,-0.00055059,0.00402399,0.00363626,-0.00441805,0.765566,0.00465745,0.0157738,1980,1219,59.7307,-6.87802
763,-195,59.7357,6.12976,-0.000904828,-0.00126287,0.0056911,0.00461007,-0.00677777,0.769675,0.00661436,0.0227987,1987,1219,59.7357,-6.12971
770,-195,59.5649,5.59912,-0.00172381,-0.00201303,0.00745642,0.00558941,-0.00932624,0.775702,0.00870117,0.0447137,1994,1219,59.5649,-5.59913
777,-195,59.4995,5.29089,0,0,0,0,0,0,0,-1,2001,1219,59.4995,-5.29094
784,-195,69.7437,-3.15942,0,0,0,0,0,0,0,-1,2008,1219,69.7437,3.15944
791,-195,68.9104,-1.24268,0,0,0,0,0,0,0,-1,2015,1219,68.9103,1.24264
798,-195,66.05,2.49902,0,0,0,0,0,0,0,-1,2022,1219,66.0501,-2.499
805,-195,0,0,0,0,0,0,0,0,0,-1,2029,1219,0,0
812,-195,0,0,0,0,0,0,0,0,0,-1,2036,1219,0,0
-700,-202,0,0,0,0,0,0,0,0,0,-1,524,1226,0,0
-693,-202,0,0,0,0,0,0,0,0,0,-1,531,1226,0,0
-686,-202,0,0,0,0,0,0,0,0,0,-1,538,1226,0,0
-679,-202,-43.2551,2.44043,0,0,0,0,0,0,0,-1,545,1226,-43.2551,-2.44045
-672,-202,-44.2966,2.99048,0,0,0,0,0,0,0,-1,552,1226,-44.2966,-2.99042
-665,-202,-45.3613,3.73608,0,0,0,0,0,0,0,-1,559,1226,-45.3613,-3.73606
-658,-202,-41.8651,2.48975,0,0,0,0,0,0,0,-1,566,1226,-41.8651,-2.48973
-651,-202,-41.6132,2.77661,0,0,0,0,0,0,0,-1,573,1226,-41.6132,-2.77661
-644,-202,-42.0303,3.56934,0,0,0,0,0,0,0,-1,580,1226,-42.0303,-3.56934
-637,-202,-42.1604,4.21265,0,0,0,0,0,0,0,-1,587,1226,-42.1604,-4.21259
-630,-202,-42.3059,4.84766,0.00199873,0.00249514,-0.00483029,0.0070836,-0.00258973,-0.811068,0.0057823,0.0250558,594,1226,-42.3059,-4.84766
-623,-202,-42.3238,5.61597,0.00148293,0.00186288,-0.00377224,0.00544993,-0.00210412,-0.810557,0.00450167,0.00940178,601,1226,-42.3238,-5.61591
-616,-202,-42.3391,6.36194,0.000980712,0.00141595,-0.00327976,0.0044853,-0.00208864,-0.818525,0.00387863,0.00866221,608,1226,-42.3391,-6.36194
-609,-202,-42.3176,7.12732,0.00052407,0.000955867,-0.00326749,0.00401458,-0.00253464,-0.818388,0.00381324,0.0213786,615,1226,-42.3175,-7.12732
-602,-202,-42.4395,7.84033,0.000147192,0.000552997,-0.0037168,0.00407242,-0.00337224,-0.812666,0.00430451,0.0220132,622,1226,-42.4395,-7.84038
-595,-202,-42.6335,8.68567,-0.000127605,0.000170969,-0.00461133,0.00463543,-0.00459207,-0.80158,0.00532752,0.0290723,629,1226,-42.6336,-8.68572
-588,-202,-42.6992,9.33936,-0.000263003,-0.000173047,-0.00614278,0.00592492,-0.00636097,-0.789059,0.00709476,0.0248685,636,1226,-42.6992,-9.33929
-581,-202,-42.5907,9.94751,-0.000394252,-0.000567904,-0.00817997,0.00769936,-0.00866151,-0.780091,0.00945139,0.0437477,643,1226,-42.5907,-9.94745
-574,-202,-42.6868,10.5917,0,0,0,0,0,0,0,-1,650,1226,-42.6868,-10.5917
-567,-202,-22.1768,4.56995,0,0,0,0,0,0,0,-1,657,1226,-22.1768,-4.56991
-560,-202,-10.929,2.73096,0,0,0,0,0,0,0,-1,664,1226,-10.929,-2.73092
-553,-202,-30.2701,1.474,0,0,0,0,0,0,0,-1,671,1226,-30.2701,-1.47395
-546,-202,-53.2803,0.580933,0,0,0,0,0,0,0,-1,678,1226,-53.2803,-0.580945
-539,-202,-56.9127,0.306885,0,0,0,0,0,0,0,-1,685,1226,-56.9127,-0.306837
-532,-202,-56.9827,0.215698,0,0,0,0,0,0,0,-1,692,1226,-56.9827,-0.215734
-525,-202,-56.9104,0.0788574,0,0,0,0,0,0,0,-1,699,1226,-56.9104,-0.0789002
-518,-202,-56.8182,-0.108154,0,0,0,0,0,0,0,-1,706,1226,-56.8182,0.108183
-511,-202,-56.8482,-0.150879,0,0,0,0,0,0,0,-1,713,1226,-56.8482,0.150892
-504,-202,0,0,0,0,0,0,0,0,0,-1,720,1226,0,0
-497,-202,0,0,0,0,0,0,0,0,0,-1,727,1226,0,0
-490,-202,0,0,0,0,0,0,0,0,0,-1,734,1226,0,0
-483,-202,0,0,0,0,0,0,0,0,0,-1,741,1226,0,0
-476,-202,0,0,0,0,0,0,0,0,0,-1,748,1226,0,0
-469,-202,0,0,0,0,0,0,0,0,0,-1,755,1226,0,0
-462,-202,0,0,0,0,0,0,0,0,0,-1,762,1226,0,0
-455,-202,0,0,0,0,0,0,0,0,0,-1,769,1226,0,0
-448,-202,0,0,0,0,0,0,0,0,0,-1,776,1226,0,0
-441,-202,0,0,0,0,0,0,0,0,0,-1,783,1226,0,0
-434,-202,0,0,0,0,0,0,0,0,0,-1,790,1226,0,0
-427,-202,0,0,0,0,0,0,0,0,0,-1,797,1226,0,0
-420,-202,0,0,0,0,0,0,0,0,0,-1,804,1226,0,0
-413,-202,0,0,0,0,0,0,0,0,0,-1,811,1226,0,0
-406,-202,0,0,0,0,0,0,0,0,0,-1,818,1226,0,0
-399,-202,0,0,0,0,0,0,0,0,0,-1,825,1226,0,0
-392,-202,0,0,0,0,0,0,0,0,0,-1,832,1226,0,0
-385,-202,0,0,0,0,0,0,0,0,0,-1,839,1226,0,0
-378,-202,0,0,0,0,0,0,0,0,0,-1,846,1226,0,0
-371,-202,0,0,0,0,0,0,0,0,0,-1,853,1226,0,0
-364,-202,0,0,0,0,0,0,0,0,0,-1,860,1226,0,0
-357,-202,0,0,0,0,0,0,0,0,0,-1,867,1226,0,0
-350,-202,0,0,0,0,0,0,0,0,0,-1,874,1226,0,0
-343,-202,0,0,0,0,0,0,0,0,0,-1,881,1226,0,0
-336,-202,0,0,0,0,0,0,0,0,0,-1,888,1226,0,0
-329,-202,0,0,0,0,0,0,0,0,0,-1,895,1226,0,0
-322,-202,0,0,0,0,0,0,0,0,0,-1,902,1226,0,0
-315,-202,0,0,0,0,0,0,0,0,0,-1,909,1226,0,0
-308,-202,0,0,0,0,0,0,0,0,0,-1,916,1226,0,0
-301,-202,0,0,0,0,0,0,0,0,0,-1,923,1226,0,0
-294,-202,0,0,0,0,0,0,0,0,0,-1,930,1226,0,0
-287,-202,0,0,0,0,0,0,0,0,0,-1,937,1226,0,0
-280,-202,0,0,0,0,0,0,0,0,0,-1,944,1226,0,0
-273,-202,0,0,0,0,0,0,0,0,0,-1,951,1226,0,0
-266,-202,0,0,0,0,0,0,0,0,0,-1,958,1226,0,0
-259,-202,0,0,0,0,0,0,0,0,0,-1,965,1226,0,0
-252,-202,0,0,0,0,0,0,0,0,0,-1,972,1226,0,0
-245,-202,0,0,0,0,0,0,0,0,0,-1,979,1226,0,0
-238,-202,0,0,0,0,0,0,0,0,0,-1,986,1226,0,0
-231,-202,0,0,0,0,0,0,0,0,0,-1,993,1226,0,0
-224,-202,0,0,0,0,0,0,0,0,0,-1,1000,1226,0,0
-217,-202,0,0,0,0,0,0,0,0,0,-1,1007,1226,0,0
-210,-202,0,0,0,0,0,0,0,0,0,-1,1014,1226,0,0
-203,-202,0,0,0,0,0,0,0,0,0,-1,1021,1226,0,0
-196,-202,0,0,0,0,0,0,0,0,0,-1,1028,1226,0,0
-189,-202,0,0,0,0,0,0,0,0,0,-1,1035,1226,0,0
-182,-202,0,0,0,0,0,0,0,0,0,-1,1042,1226,0,0
-175,-202,0,0,0,0,0,0,0,0,0,-1,1049,1226,0,0
-168,-202,0,0,0,0,0,0,0,0,0,-1,1056,1226,0,0
-161,-202,0,0,0,0,0,0,0,0,0,-1,1063,1226,0,0
-154,-202,0,0,0,0,0,0,0,0,0,-1,1070,1226,0,0
-147,-202,0,0,0,0,0,0,0,0,0,-1,1077,1226,0,0
-140,-202,0,0,0,0,0,0,0,0,0,-1,1084,1226,0,0
-133,-202,0,0,0,0,0,0,0,0,0,-1,1091,1226,0,0
-126,-202,0,0,0,0,0,0,0,0,0,-1,1098,1226,0,0
-119,-202,0,0,0,0,0,0,0,0,0,-1,1105,1226,0,0
-112,-202,0,0,0,0,0,0,0,0,0,-1,1112,1226,0,0
-105,-202,0,0,0,0,0,0,0,0,0,-1,1119,1226,0,0
-98,-202,0,0,0,0,0,0,0,0,0,-1,1126,1226,0,0
-91,-202,0,0,0,0,0,0,0,0,0,-1,1133,1226,0,0
-84,-202,0,0,0,0,0,0,0,0,0,-1,1140,1226,0,0
-77,-202,0,0,0,0,0,0,0,0,0,-1,1147,1226,0,0
-70,-202,0,0,0,0,0,0,0,0,0,-1,1154,1226,0,0
-63,-202,0,0,0,0,0,0,0,0,0,-1,1161,1226,0,0
-56,-202,0,0,0,0,0,0,0,0,0,-1,1168,1226,0,0
-49,-202,0,0,0,0,0,0,0,0,0,-1,1175,1226,0,0
-42,-202,0,0,0,0,0,0,0,0,0,-1,1182,1226,0,0
-35,-202,0,0,0,0,0,0,0,0,0,-1,1189,1226,0,0
-28,-202,0,0,0,0,0,0,0,0,0,-1,1196,1226,0,0
-21,-202,0,0,0,0,0,0,0,0,0,-1,1203,1226,0,0
-14,-202,0,0,0,0,0,0,0,0,0,-1,1210,1226,0,0
-7,-202,0,0,0,0,0,0,0,0,0,-1,1217,1226,0,0
0,-202,0,0,0,0,0,0,0,0,0,-1,1224,1226,0,0
7,-202,0,0,0,0,0,0,0,0,0,-1,1231,1226,0,0
14,-202,0,0,0,0,0,0,0,0,0,-1,1238,1226,0,0
21,-202,0,0,0,0,0,0,0,0,0,-1,1245,1226,0,0
28,-202,0,0,0,0,0,0,0,0,0,-1,1252,1226,0,0
35,-202,0,0,0,0,0,0,0,0,0,-1,1259,1226,0,0
42,-202,0,0,0,0,0,0,0,0,0,-1,1266,1226,0,0
49,-202,0,0,0,0,0,0,0,0,0,-1,1273,1226,0,0
56,-202,0,0,0,0,0,0,0,0,0,-1,1280,1226,0,0
63,-202,0,0,0,0,0,0,0,0,0,-1,1287,1226,0,0
70,-202,0,0,0,0,0,0,0,0,0,-1,1294,1226,0,0
77,-202,0,0,0,0,0,0,0,0,0,-1,1301,1226,0,0
84,-202,0,0,0,0,0,0,0,0,0,-1,1308,1226,0,0
91,-202,0,0,0,0,0,0,0,0,0,-1,1315,1226,0,0
98,-202,0,0,0,0,0,0,0,0,0,-1,1322,1226,0,0
105,-202,0,0,0,0,0,0,0,0,0,-1,1329,1226,0,0
112,-202,0,0,0,0,0,0,0,0,0,-1,1336,1226,0,0
119,-202,0,0,0,0,0,0,0,0,0,-1,1343,1226,0,0
126,-202,0,0,0,0,0,0,0,0,0,-1,1350,1226,0,0
133,-202,0,0,0,0,0,0,0,0,0,-1,1357,1226,0,0
140,-202,0,0,0,0,0,0,0,0,0,-1,1364,1226,0,0
147,-202,0,0,0,0,0,0,0,0,0,-1,1371,1226,0,0
154,-202,0,0,0,0,0,0,0,0,0,-1,1378,1226,0,0
161,-202,0,0,0,0,0,0,0,0,0,-1,1385,1226,0,0
168,-202,0,0,0,0,0,0,0,0,0,-1,1392,1226,0,0
175,-202,0,0,0,0,0,0,0,0,0,-1,1399,1226,0,0
182,-202,0,0,0,0,0,0,0,0,0,-1,1406,1226,0,0
189,-202,0,0,0,0,0,0,0,0,0,-1,1413,1226,0,0
196,-202,0,0,0,0,0,0,0,0,0,-1,1420,1226,0,0
203,-202,0,0,0,0,0,0,0,0,0,-1,1427,1226,0,0
210,-202,0,0,0,0,0,0,0,0,0,-1,1434,1226,0,0
217,-202,0,0,0,0,0,0,0,0,0,-1,1441,1226,0,0
224,-202,0,0,0,0,0,0,0,0,0,-1,1448,1226,0,0
231,-202,0,0,0,0,0,0,0,0,0,-1,1455,1226,0,0
238,-202,0,0,0,0,0,0,0,0,0,-1,1462,1226,0,0
245,-202,0,0,0,0,0,0,0,0,0,-1,1469,1226,0,0
252,-202,0,0,0,0,0,0,0,0,0,-1,1476,1226,0,0
259,-202,0,0,0,0,0,0,0,0,0,-1,1483,1226,0,0
266,-202,0,0,0,0,0,0,0,0,0,-1,1490,1226,0,0
273,-202,0,0,0,0,0,0,0,0,0,-1,1497,1226,0,0
280,-202,0,0,0,0,0,0,0,0,0,-1,1504,1226,0,0
287,-202,0,0,0,0,0,0,0,0,0,-1,1511,1226,0,0
294,-202,0,0,0,0,0,0,0,0,0,-1,1518,1226,0,0
301,-202,0,0,0,0,0,0,0,0,0,-1,1525,1226,0,0
308,-202,0,0,0,0,0,0,0,0,0,-1,1532,1226,0,0
315,-202,0,0,0,0,0,0,0,0,0,-1,1539,1226,0,0
322,-202,0,0,0,0,0,0,0,0,0,-1,1546,1226,0,0
329,-202,0,0,0,0,0,0,0,0,0,-1,1553,1226,0,0
336,-202,0,0,0,0,0,0,0,0,0,-1,1560,1226,0,0
343,-202,0,0,0,0,0,0,0,0,0,-1,1567,1226,0,0
350,-202,0,0,0,0,0,0,0,0,0,-1,1574,1226,0,0
357,-202,0,0,0,0,0,0,0,0,0,-1,1581,1226,0,0
364,-202,0,0,0,0,0,0,0,0,0,-1,1588,1226,0,0
371,-202,0,0,0,0,0,0,0,0,0,-1,1595,1226,0,0
378,-202,0,0,0,0,0,0,0,0,0,-1,1602,1226,0,0
385,-202,0,0,0,0,0,0,0,0,0,-1,1609,1226,0,0
392,-202,0,0,0,0,0,0,0,0,0,-1,1616,1226,0,0
399,-202,0,0,0,0,0,0,0,0,0,-1,1623,1226,0,0
406,-202,0,0,0,0,0,0,0,0,0,-1,1630,1226,0,0
413,-202,0,0,0,0,0,0,0,0,0,-1,1637,1226,0,0
420,-202,0,0,0,0,0,0,0,0,0,-1,1644,1226,0,0
427,-202,0,0,0,0,0,0,0,0,0,-1,1651,1226,0,0
434,-202,0,0,0,0,0,0,0,0,0,-1,1658,1226,0,0
441,-202,0,0,0,0,0,0,0,0,0,-1,1665,1226,0,0
448,-202,0,0,0,0,0,0,0,0,0,-1,1672,1226,0,0
455,-202,0,0,0,0,0,0,0,0,0,-1,1679,1226,0,0
462,-202,0,0,0,0,0,0,0,0,0,-1,1686,1226,0,0
469,-202,0,0,0,0,0,0,0,0,0,-1,1693,1226,0,0
476,-202,0,0,0,0,0,0,0,0,0,-1,1700,1226,0,0
483,-202,0,0,0,0,0,0,0,0,0,-1,1707,1226,0,0
490,-202,0,0,0,0,0,0,0,0,0,-1,1714,1226,0,0
497,-202,0,0,0,0,0,0,0,0,0,-1,1721,1226,0,0
504,-202,0,0,0,0,0,0,0,0,0,-1,1728,1226,0,0
511,-202,0,0,0,0,0,0,0,0,0,-1,1735,1226,0,0
518,-202,0,0,0,0,0,0,0,0,0,-1,1742,1226,0,0
525,-202,0,0,0,0,0,0,0,0,0,-1,1749,1226,0,0
532,-202,0,0,0,0,0,0,0,0,0,-1,1756,1226,0,0
539,-202,0,0,0,0,0,0,0,0,0,-1,1763,1226,0,0
546,-202,0,0,0,0,0,0,0,0,0,-1,1770,1226,0,0
553,-202,0,0,0,0,0,0,0,0,0,-1,1777,1226,0,0
560,-202,0,0,0,0,0,0,0,0,0,-1,1784,1226,0,0
567,-202,0,0,0,0,0,0,0,0,0,-1,1791,1226,0,0
574,-202,0,0,0,0,0,0,0,0,0,-1,1798,1226,0,0
581,-202,0,0,0,0,0,0,0,0,0,-1,1805,1226,0,0
588,-202,0,0,0,0,0,0,0,0,0,-1,1812,1226,0,0
595,-202,0,0,0,0,0,0,0,0,0,-1,1819,1226,0,0
602,-202,0,0,0,0,0,0,0,0,0,-1,1826,1226,0,0
609,-202,0,0,0,0,0,0,0,0,0,-1,1833,1226,0,0
616,-202,0,0,0,0,0,0,0,0,0,-1,1840,1226,0,0
623,-202,0,0,0,0,0,0,0,0,0,-1,1847,1226,0,0
630,-202,74.2314,2.18152,0.0066345,0.00489383,-0.00350646,0.00937702,0.00215131,-0.663752,0.00567191,0.0385177,1854,1226,74.2314,-2.18155
637,-202,74.3932,2.33276,0.00449792,0.00515933,-0.0031437,0.00798967,0.00166757,-0.837804,0.00486677,0.0354898,1861,1226,74.3932,-2.33275
644,-202,74.3938,2.28992,0.00287,0.00553126,-0.00303675,0.00751612,0.000885144,-0.991887,0.00474331,0.033532,1868,1226,74.3938,-2.28997
651,-202,74.3361,2.27136,0.00192089,0.00560622,-0.00300499,0.00728853,0.000238585,-1.06043,0.00478147,0.0274453,1875,1226,74.3361,-2.27141
658,-202,74.3168,2.2644,0.00133205,0.00479529,-0.00237228,0.00600071,0.000126626,-1.10067,0.00395894,0.0217883,1882,1226,74.3168,-2.26443
665,-202,74.3533,2.21387,0.00106081,0.00385531,-0.00176167,0.00470657,0.000209549,-1.12067,0.00307025,0.0200433,1889,1226,74.3533,-2.21392
672,-202,74.454,2.09363,0,0,0,0,0,0,0,-1,1896,1226,74.454,-2.09365
679,-202,72.3511,2.32935,0,0,0,0,0,0,0,-1,1903,1226,72.3511,-2.32932
686,-202,49.1708,2.15198,0,0,0,0,0,0,0,-1,1910,1226,49.1708,-2.15195
693,-202,52.1176,12.0886,0,0,0,0,0,0,0,-1,1917,1226,52.1176,-12.0886
700,-202,59.3961,12.6064,0,0,0,0,0,0,0,-1,1924,1226,59.3961,-12.6064
707,-202,59.2894,11.7616,0.000887808,0.000869014,-0.000216378,0.00109499,0.000661829,-0.763698,0.000636773,0.032535,1931,1226,59.2894,-11.7616
714,-202,59.1434,11.1488,0.00106443,0.000852118,-0.000156292,0.00114721,0.00076934,-0.487074,0.000675074,0.0395727,1938,1226,59.1435,-11.1488
721,-202,59.1425,10.5898,0.000832909,0.00072473,0.000298217,0.0010819,0.000475737,0.695685,0.000626148,0.0288017,1945,1226,59.1424,-10.5898
728,-202,59.1565,9.69727,0.00074594,0.000206949,0.000811444,0.00133147,-0.000378582,0.62507,0.00103713,0.0117765,1952,1226,59.1565,-9.69731
735,-202,59.1072,8.97534,0.000514228,0.000159712,0.00132014,0.00166896,-0.000995017,0.718661,0.00155437,0.0118249,1959,1226,59.1071,-8.97529
742,-202,59.0543,8.27124,8.68041e-05,-9.22308e-05,0.00215897,0.00215811,-0.00216354,0.764678,0.00249511,0.0131605,1966,1226,59.0543,-8.27121
749,-202,58.9979,7.58179,-0.00077723,-0.00024631,0.00320489,0.00270409,-0.00372763,0.826719,0.003729,0.0136737,1973,1226,58.9979,-7.58175
756,-202,59.0166,6.89539,-0.00171768,-0.000601684,0.00458235,0.00345651,-0.00577588,0.845986,0.0053861,0.0132389,1980,1226,59.0167,-6.89533
763,-202,59.0936,6.2002,-0.00322923,-0.00119952,0.00658089,0.00444431,-0.00887306,0.861902,0.00782923,0.0265796,1987,1226,59.0937,-6.20014
770,-202,59.1282,5.57874,0,0,0,0,0,0,0,-1,1994,1226,59.1282,-5.57872
777,-202,67.5615,-0.236572,0,0,0,0,0,0,0,-1,2001,1226,67.5615,0.236573
784,-202,66.7117,0.754517,0,0,0,0,0,0,0,-1,2008,1226,66.7118,-0.754543
791,-202,66.512,1.74207,0,0,0,0,0,0,0,-1,2015,1226,66.512,-1.74201
798,-202,51.8999,3.58789,0,0,0,0,0,0,0,-1,2022,1226,51.9,-3.58791
805,-202,0,0,0,0,0,0,0,0,0,-1,2029,1226,0,0
812,-202,0,0,0,0,0,0,0,0,0,-1,2036,1226,0,0
-700,-209,0,0,0,0,0,0,0,0,0,-1,524,1233,0,0
-693,-209,0,0,0,0,0,0,0,0,0,-1,531,1233,0,0
-686,-209,0,0,0,0,0,0,0,0,0,-1,538,1233,0,0
-679,-209,-42.9146,2.95093,0,0,0,0,0,0,0,-1,545,1233,-42.9146,-2.95095
-672,-209,-43.8022,3.42871,0,0,0,0,0,0,0,-1,552,1233,-43.8022,-3.42872
-665,-209,-40.5948,-1.14111,0,0,0,0,0,0,0,-1,559,1233,-40.5949,1.14109
-658,-209,-40.528,2.2196,0,0,0,0,0,0,0,-1,566,1233,-40.528,-2.21965
-651,-209,-40.8797,2.51941,0,0,0,0,0,0,0,-1,573,1233,-40.8797,-2.51942
-644,-209,-43.4648,-7.04663,0,0,0,0,0,0,0,-1,580,1233,-43.4648,7.04659
-637,-209,-41.4207,4.09021,0,0,0,0,0,0,0,-1,587,1233,-41.4207,-4.09021
-630,-209,-41.4173,4.85596,0.00312969,0.00307368,-0.00433807,0.00743984,-0.00123648,-0.78217,0.00541928,0.0426671,594,1233,-41.4173,-4.85601
-623,-209,-41.5361,5.66675,0.00249913,0.00228959,-0.0032981,0.00569413,-0.000905404,-0.76952,0.00413109,0.0178843,601,1233,-41.536,-5.66677
-616,-209,-41.5797,6.41101,0.00189268,0.00182401,-0.0028436,0.00470215,-0.000985461,-0.779361,0.00350968,0.0115594,608,1233,-41.5797,-6.41097
-609,-209,-41.6198,7.15198,0.0013356,0.00137527,-0.00283281,0.00418831,-0.00147745,-0.788899,0.00339364,0.0134932,615,1233,-41.6197,-7.15198
-602,-209,-41.6846,7.90125,0.000871576,0.000983621,-0.00324187,0.00416995,-0.00231476,-0.794038,0.00379468,0.0163879,622,1233,-41.6846,-7.9012
-595,-209,-41.7378,8.67639,0.000519846,0.000617244,-0.00404894,0.00461778,-0.00348069,-0.791412,0.00469099,0.0197081,629,1233,-41.7378,-8.67637
-588,-209,-41.8729,9.43188,0.000288211,0.000266581,-0.00534628,0.00562368,-0.00506889,-0.784387,0.00617613,0.0401721,636,1233,-41.8728,-9.43184
-581,-209,-41.6281,10.1666,9.31883e-05,-0.000166513,-0.00707103,0.00703556,-0.00710889,-0.776217,0.00816634,0.0498686,643,1233,-41.6281,-10.1666
-574,-209,-41.6897,10.9419,0,0,0,0,0,0,0,-1,650,1233,-41.6897,-10.9419
-567,-209,-41.5947,11.6931,0,0,0,0,0,0,0,-1,657,1233,-41.5947,-11.6931
-560,-209,-13.9294,4.16626,0,0,0,0,0,0,0,-1,664,1233,-13.9294,-4.16621
-553,-209,-22.7542,0.748779,0,0,0,0,0,0,0,-1,671,1233,-22.7541,-0.748796
-546,-209,-44.691,0.142822,0,0,0,0,0,0,0,-1,678,1233,-44.6911,-0.142844
-539,-209,-56.8537,0.370605,0,0,0,0,0,0,0,-1,685,1233,-56.8537,-0.37063
-532,-209,-56.8972,0.326172,0,0,0,0,0,0,0,-1,692,1233,-56.8972,-0.32615
-525,-209,-56.9673,0.274658,0,0,0,0,0,0,0,-1,699,1233,-56.9673,-0.274655
-518,-209,-57.0231,0.187134,0,0,0,0,0,0,0,-1,706,1233,-57.0231,-0.187157
-511,-209,-57.0565,0.0976563,0,0,0,0,0,0,0,-1,713,1233,-57.0565,-0.097606
-504,-209,0,0,0,0,0,0,0,0,0,-1,720,1233,0,0
-497,-209,0,0,0,0,0,0,0,0,0,-1,727,1233,0,0
-490,-209,0,0,0,0,0,0,0,0,0,-1,734,1233,0,0
-483,-209,0,0,0,0,0,0,0,0,0,-1,741,1233,0,0
-476,-209,0,0,0,0,0,0,0,0,0,-1,748,1233,0,0
-469,-209,0,0,0,0,0,0,0,0,0,-1,755,1233,0,0
-462,-209,0,0,0,0,0,0,0,0,0,-1,762,1233,0,0
-455,-209,0,0,0,0,0,0,0,0,0,-1,769,1233,0,0
-448,-209,0,0,0,0,0,0,0,0,0,-1,776,1233,0,0
-441,-209,0,0,0,0,0,0,0,0,0,-1,783,1233,0,0
-434,-209,0,0,0,0,0,0,0,0,0,-1,790,1233,0,0
-427,-209,0,0,0,0,0,0,0,0,0,-1,797,1233,0,0
-420,-209,0,0,0,0,0,0,0,0,0,-1,804,1233,0,0
-413,-209,0,0,0,0,0,0,0,0,0,-1,811,1233,0,0
-406,-209,0,0,0,0,0,0,0,0,0,-1,818,1233,0,0
-399,-209,0,0,0,0,0,0,0,0,0,-1,825,1233,0,0
-392,-209,0,0,0,0,0,0,0,0,0,-1,832,1233,0,0
-385,-209,0,0,0,0,0,0,0,0,0,-1,839,1233,0,0
-378,-209,0,0,0,0,0,0,0,0,0,-1,846,1233,0,0
-371,-209,0,0,0,0,0,0,0,0,0,-1,853,1233,0,0
-364,-209,0,0,0,0,0,0,0,0,0,-1,860,1233,0,0
-357,-209,0,0,0,0,0,0,0,0,0,-1,867,1233,0,0
-350,-209,0,0,0,0,0,0,0,0,0,-1,874,1233,0,0
-343,-209,0,0,0,0,0,0,0,0,0,-1,881,1233,0,0
-336,-209,0,0,0,0,0,0,0,0,0,-1,888,1233,0,0
-329,-209,0,0,0,0,0,0,0,0,0,-1,895,1233,0,0
-322,-209,0,0,0,0,0,0,0,0,0,-1,902,1233,0,0
-315,-209,0,0,0,0,0,0,0,0,0,-1,909,1233,0,0
-308,-209,0,0,0,0,0,0,0,0,0,-1,916,1233,0,0
-301,-209,0,0,0,0,0,0,0,0,0,-1,923,1233,0,0
-294,-209,0,0,0,0,0,0,0,0,0,-1,930,1233,0,0
-287,-209,0,0,0,0,0,0,0,0,0,-1,937,1233,0,0
-280,-209,0,0,0,0,0,0,0,0,0,-1,944,1233,0,0
-273,-209,0,0,0,0,0,0,0,0,0,-1,951,1233,0,0
-266,-209,0,0,0,0,0,0,0,0,0,-1,958,1233,0,0
-259,-209,0,0,0,0,0,0,0,0,0,-1,965,1233,0,0
-252,-209,0,0,0,0,0,0,0,0,0,-1,972,1233,0,0
-245,-209,0,0,0,0,0,0,0,0,0,-1,979,1233,0,0
-238,-209,0,0,0,0,0,0,0,0,0,-1,986,1233,0,0
-231,-209,0,0,0,0,0,0,0,0,0,-1,993,1233,0,0
-224,-209,0,0,0,0,0,0,0,0,0,-1,1000,1233,0,0
-217,-209,0,0,0,0,0,0,0,0,0,-1,1007,1233,0,0
-210,-209,0,0,0,0,0,0,0,0,0,-1,1014,1233,0,0
-203,-209,0,0,0,0,0,0,0,0,0,-1,1021,1233,0,0
-196,-209,0,0,0,0,0,0,0,0,0,-1,1028,1233,0,0
-189,-209,0,0,0,0,0,0,0,0,0,-1,1035,1233,0,0
-182,-209,0,0,0,0,0,0,0,0,0,-1,1042,1233,0,0
-175,-209,0,0,0,0,0,0,0,0,0,-1,1049,1233,0,0
-168,-209,0,0,0,0,0,0,0,0,0,-1,1056,1233,0,0
-161,-209,0,0,0,0,0,0,0,0,0,-1,1063,1233,0,0
-154,-209,0,0,0,0,0,0,0,0,0,-1,1070,1233,0,0
-147,-209,0,0,0,0,0,0,0,0,0,-1,1077,1233,0,0
-140,-209,0,0,0,0,0,0,0,0,0,-1,1084,1233,0,0
-133,-209,0,0,0,0,0,0,0,0,0,-1,1091,1233,0,0
-126,-209,0,0,0,0,0,0,0,0,0,-1,1098,1233,0,0
-119,-209,0,0,0,0,0,0,0,0,0,-1,1105,1233,0,0
-112,-209,0,0,0,0,0,0,0,0,0,-1,1112,1233,0,0
-105,-209,0,0,0,0,0,0,0,0,0,-1,1119,1233,0,0
-98,-209,0,0,0,0,0,0,0,0,0,-1,1126,1233,0,0
-91,-209,0,0,0,0,0,0,0,0,0,-1,1133,1233,0,0
-84,-209,0,0,0,0,0,0,0,0,0,-1,1140,1233,0,0
-77,-209,0,0,0,0,0,0,0,0,0,-1,1147,1233,0,0
-70,-209,0,0,0,0,0,0,0,0,0,-1,1154,1233,0,0
-63,-209,0,0,0,0,0,0,0,0,0,-1,1161,1233,0,0
-56,-209,0,0,0,0,0,0,0,0,0,-1,1168,1233,0,0
-49,-209,0,0,0,0,0,0,0,0,0,-1,1175,1233,0,0
-42,-209,0,0,0,0,0,0,0,0,0,-1,1182,1233,0,0
-35,-209,0,0,0,0,0,0,0,0,0,-1,1189,1233,0,0
-28,-209,0,0,0,0,0,0,0,0,0,-1,1196,1233,0,0
-21,-209,0,0,0,0,0,0,0,0,0,-1,1203,1233,0,0
-14,-209,0,0,0,0,0,0,0,0,0,-1,1210,1233,0,0
-7,-209,0,0,0,0,0,0,0,0,0,-1,1217,1233,0,0
0,-209,0,0,0,0,0,0,0,0,0,-1,1224,1233,0,0
7,-209,0,0,0,0,0,0,0,0,0,-1,1231,1233,0,0
14,-209,0,0,0,0,0,0,0,0,0,-1,1238,1233,0,0
21,-209,0,0,0,0,0,0,0,0,0,-1,1245,1233,0,0
28,-209,0,0,0,0,0,0,0,0,0,-1,1252,1233,0,0
35,-209,0,0,0,0,0,0,0,0,0,-1,1259,1233,0,0
42,-209,0,0,0,0,0,0,0,0,0,-1,1266,1233,0,0
49,-209,0,0,0,0,0,0,0,0,0,-1,1273,1233,0,0
56,-209,0,0,0,0,0,0,0,0,0,-1,1280,1233,0,0
63,-209,0,0,0,0,0,0,0,0,0,-1,1287,1233,0,0
70,-209,0,0,0,0,0,0,0,0,0,-1,1294,1233,0,0
77,-209,0,0,0,0,0,0,0,0,0,-1,1301,1233,0,0
84,-209,0,0,0,0,0,0,0,0,0,-1,1308,1233,0,0
91,-209,0,0,0,0,0,0,0,0,0,-1,1315,1233,0,0
98,-209,0,0,0,0,0,0,0,0,0,-1,1322,1233,0,0
105,-209,0,0,0,0,0,0,0,0,0,-1,1329,1233,0,0
112,-209,0,0,0,0,0,0,0,0,0,-1,1336,1233,0,0
119,-209,0,0,0,0,0,0,0,0,0,-1,1343,1233,0,0
126,-209,0,0,0,0,0,0,0,0,0,-1,1350,1233,0,0
133,-209,0,0,0,0,0,0,0,0,0,-1,1357,1233,0,0
140,-209,0,0,0,0,0,0,0,0,0,-1,1364,1233,0,0
147,-209,0,0,0,0,0,0,0,0,0,-1,1371,1233,0,0
154,-209,0,0,0,0,0,0,0,0,0,-1,1378,1233,0,0
161,-209,0,0,0,0,0,0,0,0,0,-1,1385,1233,0,0
168,-209,0,0,0,0,0,0,0,0,0,-1,1392,1233,0,0
175,-209,0,0,0,0,0,0,0,0,0,-1,1399,1233,0,0
182,-209,0,0,0,0,0,0,0,0,0,-1,1406,1233,0,0
189,-209,0,0,0,0,0,0,0,0,0,-1,1413,1233,0,0
196,-209,0,0,0,0,0,0,0,0,0,-1,1420,1233,0,0
203,-209,0,0,0,0,0,0,0,0,0,-1,1427,1233,0,0
210,-209,0,0,0,0,0,0,0,0,0,-1,1434,1233,0,0
217,-209,0,0,0,0,0,0,0,0,0,-1,1441,1233,0,0
224,-209,0,0,0,0,0,0,0,0,0,-1,1448,1233,0,0
231,-209,0,0,0,0,0,0,0,0,0,-1,1455,1233,0,0
238,-209,0,0,0,0,0,0,0,0,0,-1,1462,1233,0,0
245,-209,0,0,0,0,0,0,0,0,0,-1,1469,1233,0,0
252,-209,0,0,0,0,0,0,0,0,0,-1,1476,1233,0,0
259,-209,0,0,0,0,0,0,0,0,0,-1,1483,1233,0,0
266,-209,0,0,0,0,0,0,0,0,0,-1,1490,1233,0,0
273,-209,0,0,0,0,0,0,0,0,0,-1,1497,1233,0,0
280,-209,0,0,0,0,0,0,0,0,0,-1,1504,1233,0,0
287,-209,0,0,0,0,0,0,0,0,0,-1,1511,1233,0,0
294,-209,0,0,0,0,0,0,0,0,0,-1,1518,1233,0,0
301,-209,0,0,0,0,0,0,0,0,0,-1,1525,1233,0,0
308,-209,0,0,0,0,0,0,0,0,0,-1,1532,1233,0,0
315,-209,0,0,0,0,0,0,0,0,0,-1,1539,1233,0,0
322,-209,0,0,0,0,0,0,0,0,0,-1,1546,1233,0,0
329,-209,0,0,0,0,0,0,0,0,0,-1,1553,1233,0,0
336,-209,0,0,0,0,0,0,0,0,0,-1,1560,1233,0,0
343,-209,0,0,0,0,0,0,0,0,0,-1,1567,1233,0,0
350,-209,0,0,0,0,0,0,0,0,0,-1,1574,1233,0,0
357,-209,0,0,0,0,0,0,0,0,0,-1,1581,1233,0,0
364,-209,0,0,0,0,0,0,0,0,0,-1,1588,1233,0,0
371,-209,0,0,0,0,0,0,0,0,0,-1,1595,1233,0,0
378,-209,0,0,0,0,0,0,0,0,0,-1,1602,1233,0,0
385,-209,0,0,0,0,0,0,0,0,0,-1,1609,1233,0,0
392,-209,0,0,0,0,0,0,0,0,0,-1,1616,1233,0,0
399,-209,0,0,0,0,0,0,0,0,0,-1,1623,1233,0,0
406,-209,0,0,0,0,0,0,0,0,0,-1,1630,1233,0,0
413,-209,0,0,0,0,0,0,0,0,0,-1,1637,1233,0,0
420,-209,0,0,0,0,0,0,0,0,0,-1,1644,1233,0,0
427,-209,0,0,0,0,0,0,0,0,0,-1,1651,1233,0,0
434,-209,0,0,0,0,0,0,0,0,0,-1,1658,1233,0,0
441,-209,0,0,0,0,0,0,0,0,0,-1,1665,1233,0,0
448,-209,0,0,0,0,0,0,0,0,0,-1,1672,1233,0,0
455,-209,0,0,0,0,0,0,0,0,0,-1,1679,1233,0,0
462,-209,0,0,0,0,0,0,0,0,0,-1,1686,1233,0,0
469,-209,0,0,0,0,0,0,0,0,0,-1,1693,1233,0,0
476,-209,0,0,0,0,0,0,0,0,0,-1,1700,1233,0,0
483,-209,0,0,0,0,0,0,0,0,0,-1,1707,1233,0,0
490,-209,0,0,0,0,0,0,0,0,0,-1,1714,1233,0,0
497,-209,0,0,0,0,0,0,0,0,0,-1,1721,1233,0,0
504,-209,0,0,0,0,0,0,0,0,0,-1,1728,1233,0,0
511,-209,0,0,0,0,0,0,0,0,0,-1,1735,1233,0,0
518,-209,0,0,0,0,0,0,0,0,0,-1,1742,1233,0,0
525,-209,0,0,0,0,0,0,0,0,0,-1,1749,1233,0,0
532,-209,0,0,0,0,0,0,0,0,0,-1,1756,1233,0,0
539,-209,0,0,0,0,0,0,0,0,0,-1,1763,1233,0,0
546,-209,0,0,0,0,0,0,0,0,0,-1,1770,1233,0,0
553,-209,0,0,0,0,0,0,0,0,0,-1,1777,1233,0,0
560,-209,0,0,0,0,0,0,0,0,0,-1,1784,1233,0,0
567,-209,0,0,0,0,0,0,0,0,0,-1,1791,1233,0,0
574,-209,0,0,0,0,0,0,0,0,0,-1,1798,1233,0,0
581,-209,0,0,0,0,0,0,0,0,0,-1,1805,1233,0,0
588,-209,0,0,0,0,0,0,0,0,0,-1,1812,1233,0,0
595,-209,0,0,0,0,0,0,0,0,0,-1,1819,1233,0,0
602,-209,0,0,0,0,0,0,0,0,0,-1,1826,1233,0,0
609,-209,0,0,0,0,0,0,0,0,0,-1,1833,1233,0,0
616,-209,0,0,0,0,0,0,0,0,0,-1,1840,1233,0,0
623,-209,74.0836,2.39941,0.00861024,0.00513345,-0.00406305,0.0112912,0.00245253,-0.583255,0.00685771,0.034852,1847,1233,74.0836,-2.39943
630,-209,74.1218,2.26221,0.00558362,0.00612355,-0.00373319,0.00959653,0.00211065,-0.821493,0.00582307,0.038075,1854,1233,74.1218,-2.26225
637,-209,74.2689,2.19177,0.003124,0.00700675,-0.00355128,0.00911267,0.00101809,-1.03554,0.00576579,0.0383018,1861,1233,74.2689,-2.19175
644,-209,74.3036,2.25146,0.00137085,0.0076277,-0.00352264,0.00921054,-0.000211988,-1.1485,0.00621223,0.0329745,1868,1233,74.3036,-2.2515
651,-209,74.2803,2.26025,0.00066133,0.00736603,-0.00336991,0.00876705,-0.00073969,-1.17679,0.00610622,0.0256724,1875,1233,74.2803,-2.26021
658,-209,74.3074,2.23523,0.000466315,0.00595553,-0.00252072,0.00693743,-0.000515592,-1.19934,0.00480605,0.0212704,1882,1233,74.3074,-2.23525
665,-209,74.4855,2.27673,0.000512383,0.00465455,-0.00184035,0.00535408,-0.000187143,-1.20756,0.00363337,0.0353137,1889,1233,74.4855,-2.27671
672,-209,74.7622,2.34021,0,0,0,0,0,0,0,-1,1896,1233,74.7622,-2.34015
679,-209,55.2465,2.78674,0,0,0,0,0,0,0,-1,1903,1233,55.2464,-2.78678
686,-209,33.3711,3.89856,0,0,0,0,0,0,0,-1,1910,1233,33.3711,-3.89855
693,-209,58.5792,13.3915,0,0,0,0,0,0,0,-1,1917,1233,58.5792,-13.3915
700,-209,58.5115,12.5857,0,0,0,0,0,0,0,-1,1924,1233,58.5114,-12.5857
707,-209,58.442,11.8553,0.000702135,0.000589657,-2.43154e-05,0.000707166,0.000584625,-0.204043,0.000436371,0.0360389,1931,1233,58.442,-11.8553
714,-209,58.4059,11.2052,0.000780867,0.000497797,0.000134283,0.000834433,0.000444232,0.379557,0.000482097,0.0254712,1938,1233,58.4059,-11.2052
721,-209,58.4492,10.4454,0.000468517,0.000363292,0.000662506,0.0010805,-0.000248687,0.745774,0.000815959,0.0135435,1945,1233,58.4492,-10.4454
728,-209,58.4558,9.72693,0.00023692,-8.72324e-05,0.00118145,0.00126736,-0.00111767,0.717232,0.0013779,0.0129888,1952,1233,58.4559,-9.72692
735,-209,58.4253,9.03516,-0.000175453,-0.000123156,0.00170274,0.00155364,-0.00185225,0.793076,0.00196891,0.0165903,1959,1233,58.4253,-9.03519
742,-209,58.3666,8.30859,-0.000748012,-0.000268393,0.00247794,0.00198132,-0.00299772,0.833637,0.00289455,0.0168783,1966,1233,58.3666,-8.30854
749,-209,58.285,7.60461,-0.00164698,-0.00037481,0.00343397,0.00248149,-0.00450328,0.876977,0.00408858,0.0146612,1973,1233,58.2851,-7.60467
756,-209,58.2729,6.92419,-0.00260656,-0.000652822,0.00466061,0.00313219,-0.00639158,0.888703,0.00560486,0.0130354,1980,1233,58.273,-6.92414
763,-209,58.2487,6.29712,-0.00413875,-0.00116963,0.00647928,0.00399298,-0.00930137,0.898017,0.00787682,0.0279373,1987,1233,58.2486,-6.29717
770,-209,58.3486,5.81226,0,0,0,0,0,0,0,-1,1994,1233,58.3486,-5.81226
777,-209,68.0347,-0.36377,0,0,0,0,0,0,0,-1,2001,1233,68.0346,0.363742
784,-209,67.6289,0.771729,0,0,0,0,0,0,0,-1,2008,1233,67.6289,-0.771742
791,-209,67.1841,1.90906,0,0,0,0,0,0,0,-1,2015,1233,67.1841,-1.90909
798,-209,53.6404,3.71179,0,0,0,0,0,0,0,-1,2022,1233,53.6404,-3.71185
805,-209,0,0,0,0,0,0,0,0,0,-1,2029,1233,0,0
812,-209,0,0,0,0,0,0,0,0,0,-1,2036,1233,0,0
-700,-216,0,0,0,0,0,0,0,0,0,-1,524,1240,0,0
-693,-216,0,0,0,0,0,0,0,0,0,-1,531,1240,0,0
-686,-216,0,0,0,0,0,0,0,0,0,-1,538,1240,0,0
-679,-216,-36.7546,1.03992,0,0,0,0,0,0,0,-1,545,1240,-36.7546,-1.03987
-672,-216,-38.5297,1.10828,0,0,0,0,0,0,0,-1,552,1240,-38.5297,-1.1083
-665,-216,-39.902,1.93457,0,0,0,0,0,0,0,-1,559,1240,-39.902,-1.93453
-658,-216,-41.7407,1.98083,0,0,0,0,0,0,0,-1,566,1240,-41.7407,-1.98077
-651,-216,-42.788,-8.0509,0,0,0,0,0,0,0,-1,573,1240,-42.788,8.05092
-644,-216,-45.6099,1.72839,0,0,0,0,0,0,0,-1,580,1240,-45.6099,-1.72843
-637,-216,-40.7373,3.9613,0,0,0,0,0,0,0,-1,587,1240,-40.7373,-3.96126
-630,-216,-40.647,4.93909,0.00448047,0.00321288,-0.00384844,0.00774696,-5.36093e-05,-0.703786,0.0051826,0.0482503,594,1240,-40.647,-4.93905
-623,-216,-40.7432,5.83105,0.00365302,0.00235257,-0.00281992,0.00589671,0.00010888,-0.672087,0.00389535,0.0237512,601,1240,-40.7432,-5.831
-616,-216,-40.844,6.47681,0.00287122,0.00194142,-0.00239928,0.00485023,-3.75828e-05,-0.6897,0.00324609,0.0144132,608,1240,-40.844,-6.47679
-609,-216,-40.9107,7.21301,0.00211782,0.00156465,-0.00238606,0.00424328,-0.000560802,-0.727697,0.00303312,0.0136961,615,1240,-40.9107,-7.21306
-602,-216,-40.957,7.9198,0.00146338,0.00121061,-0.00274796,0.00408786,-0.00141387,-0.762419,0.00329911,0.0131746,622,1240,-40.957,-7.91986
-595,-216,-40.955,8.65662,0.000921604,0.000870766,-0.00345855,0.00435483,-0.00256246,-0.781723,0.00403815,0.0194379,629,1240,-40.9549,-8.6566
-588,-216,-40.9692,9.36658,0.000483391,0.000506526,-0.00454617,0.00504115,-0.00405123,-0.78667,0.00525985,0.0361753,636,1240,-40.9692,-9.36656
-581,-216,-41.0555,9.84705,0,0,0,0,0,0,0,-1,643,1240,-41.0555,-9.84701
-574,-216,-40.7493,11.0797,0,0,0,0,0,0,0,-1,650,1240,-40.7493,-11.0797
-567,-216,-33.4159,9.56567,0,0,0,0,0,0,0,-1,657,1240,-33.4159,-9.56565
-560,-216,-16.5087,5.4574,0,0,0,0,0,0,0,-1,664,1240,-16.5087,-5.45746
-553,-216,-16.2355,1.22351,0,0,0,0,0,0,0,-1,671,1240,-16.2356,-1.22356
-546,-216,-37.1617,-0.25415,0,0,0,0,0,0,0,-1,678,1240,-37.1618,0.254161
-539,-216,-47.7817,1.47327,0,0,0,0,0,0,0,-1,685,1240,-47.7818,-1.4733
-532,-216,-56.8232,0.344849,0,0,0,0,0,0,0,-1,692,1240,-56.8233,-0.344886
-525,-216,-56.9624,0.362427,0,0,0,0,0,0,0,-1,699,1240,-56.9624,-0.362411
-518,-216,-57.0697,0.352783,0,0,0,0,0,0,0,-1,706,1240,-57.0697,-0.352734
-511,-216,-57.0607,0.310181,0,0,0,0,0,0,0,-1,713,1240,-57.0608,-0.310239
-504,-216,-56.8586,0.259521,0,0,0,0,0,0,0,-1,720,1240,-56.8587,-0.25952
-497,-216,0,0,0,0,0,0,0,0,0,-1,727,1240,0,0
-490,-216,0,0,0,0,0,0,0,0,0,-1,734,1240,0,0
-483,-216,0,0,0,0,0,0,0,0,0,-1,741,1240,0,0
-476,-216,0,0,0,0,0,0,0,0,0,-1,748,1240,0,0
-469,-216,0,0,0,0,0,0,0,0,0,-1,755,1240,0,0
-462,-216,0,0,0,0,0,0,0,0,0,-1,762,1240,0,0
-455,-216,0,0,0,0,0,0,0,0,0,-1,769,1240,0,0
-448,-216,0,0,0,0,0,0,0,0,0,-1,776,1240,0,0
-441,-216,0,0,0,0,0,0,0,0,0,-1,783,1240,0,0
-434,-216,0,0,0,0,0,0,0,0,0,-1,790,1240,0,0
-427,-216,0,0,0,0,0,0,0,0,0,-1,797,1240,0,0
-420,-216,0,0,0,0,0,0,0,0,0,-1,804,1240,0,0
-413,-216,0,0,0,0,0,0,0,0,0,-1,811,1240,0,0
-406,-216,0,0,0,0,0,0,0,0,0,-1,818,1240,0,0
-399,-216,0,0,0,0,0,0,0,0,0,-1,825,1240,0,0
-392,-216,0,0,0,0,0,0,0,0,0,-1,832,1240,0,0
-385,-216,0,0,0,0,0,0,0,0,0,-1,839,1240,0,0
-378,-216,0,0,0,0,0,0,0,0,0,-1,846,1240,0,0
-371,-216,0,0,0,0,0,0,0,0,0,-1,853,1240,0,0
-364,-216,0,0,0,0,0,0,0,0,0,-1,860,1240,0,0
-357,-216,0,0,0,0,0,0,0,0,0,-1,867,1240,0,0
-350,-216,0,0,0,0,0,0,0,0,0,-1,874,1240,0,0
-343,-216,0,0,0,0,0,0,0,0,0,-1,881,1240,0,0
-336,-216,0,0,0,0,0,0,0,0,0,-1,888,1240,0,0
-329,-216,0,0,0,0,0,0,0,0,0,-1,895,1240,0,0
-322,-216,0,0,0,0,0,0,0,0,0,-1,902,1240,0,0
-315,-216,0,0,0,0,0,0,0,0,0,-1,909,1240,0,0
-308,-216,0,0,0,0,0,0,0,0,0,-1,916,1240,0,0
-301,-216,0,0,0,0,0,0,0,0,0,-1,923,1240,0,0
-294,-216,0,0,0,0,0,0,0,0,0,-1,930,1240,0,0
-287,-216,0,0,0,0,0,0,0,0,0,-1,937,1240,0,0
-280,-216,0,0,0,0,0,0,0,0,0,-1,944,1240,0,0
-273,-216,0,0,0,0,0,0,0,0,0,-1,951,1240,0,0
-266,-216,0,0,0,0,0,0,0,0,0,-1,958,1240,0,0
-259,-216,0,0,0,0,0,0,0,0,0,-1,965,1240,0,0
-252,-216,0,0,0,0,0,0,0,0,0,-1,972,1240,0,0
-245,-216,0,0,0,0,0,0,0,0,0,-1,979,1240,0,0
-238,-216,0,0,0,0,0,0,0,0,0,-1,986,1240,0,0
-231,-216,0,0,0,0,0,0,0,0,0,-1,993,1240,0,0
-224,-216,0,0,0,0,0,0,0,0,0,-1,1000,1240,0,0
-217,-216,0,0,0,0,0,0,0,0,0,-1,1007,1240,0,0
-210,-216,0,0,0,0,0,0,0,0,0,-1,1014,1240,0,0
-203,-216,0,0,0,0,0,0,0,0,0,-1,1021,1240,0,0
-196,-216,0,0,0,0,0,0,0,0,0,-1,1028,1240,0,0
-189,-216,0,0,0,0,0,0,0,0,0,-1,1035,1240,0,0
-182,-216,0,0,0,0,0,0,0,0,0,-1,1042,1240,0,0
-175,-216,0,0,0,0,0,0,0,0,0,-1,1049,1240,0,0
-168,-216,0,0,0,0,0,0,0,0,0,-1,1056,1240,0,0
-161,-216,0,0,0,0,0,0,0,0,0,-1,1063,1240,0,0
-154,-216,0,0,0,0,0,0,0,0,0,-1,1070,1240,0,0
-147,-216,0,0,0,0,0,0,0,0,0,-1,1077,1240,0,0
-140,-216,0,0,0,0,0,0,0,0,0,-1,1084,1240,0,0
-133,-216,0,0,0,0,0,0,0,0,0,-1,1091,1240,0,0
-126,-216,0,0,0,0,0,0,0,0,0,-1,1098,1240,0,0
-119,-216,0,0,0,0,0,0,0,0,0,-1,1105,1240,0,0
-112,-216,0,0,0,0,0,0,0,0,0,-1,1112,1240,0,0
-105,-216,0,0,0,0,0,0,0,0,0,-1,1119,1240,0,0
-98,-216,0,0,0,0,0,0,0,0,0,-1,1126,1240,0,0
-91,-216,0,0,0,0,0,0,0,0,0,-1,1133,1240,0,0
-84,-216,0,0,0,0,0,0,0,0,0,-1,1140,1240,0,0
-77,-216,0,0,0,0,0,0,0,0,0,-1,1147,1240,0,0
-70,-216,0,0,0,0,0,0,0,0,0,-1,1154,1240,0,0
-63,-216,0,0,0,0,0,0,0,0,0,-1,1161,1240,0,0
-56,-216,0,0,0,0,0,0,0,0,0,-1,1168,1240,0,0
-49,-216,0,0,0,0,0,0,0,0,0,-1,1175,1240,0,0
-42,-216,0,0,0,0,0,0,0,0,0,-1,1182,1240,0,0
-35,-216,0,0,0,0,0,0,0,0,0,-1,1189,1240,0,0
-28,-216,0,0,0,0,0,0,0,0,0,-1,1196,1240,0,0
-21,-216,0,0,0,0,0,0,0,0,0,-1,1203,1240,0,0
-14,-216,0,0,0,0,0,0,0,0,0,-1,1210,1240,0,0
-7,-216,0,0,0,0,0,0,0,0,0,-1,1217,1240,0,0
0,-216,0,0,0,0,0,0,0,0,0,-1,1224,1240,0,0
7,-216,0,0,0,0,0,0,0,0,0,-1,1231,1240,0,0
14,-216,0,0,0,0,0,0,0,0,0,-1,1238,1240,0,0
21,-216,0,0,0,0,0,0,0,0,0,-1,1245,1240,0,0
28,-216,0,0,0,0,0,0,0,0,0,-1,1252,1240,0,0
35,-216,0,0,0,0,0,0,0,0,0,-1,1259,1240,0,0
42,-216,0,0,0,0,0,0,0,0,0,-1,1266,1240,0,0
49,-216,0,0,0,0,0,0,0,0,0,-1,1273,1240,0,0
56,-216,0,0,0,0,0,0,0,0,0,-1,1280,1240,0,0
63,-216,0,0,0,0,0,0,0,0,0,-1,1287,1240,0,0
70,-216,0,0,0,0,0,0,0,0,0,-1,1294,1240,0,0
77,-216,0,0,0,0,0,0,0,0,0,-1,1301,1240,0,0
84,-216,0,0,0,0,0,0,0,0,0,-1,1308,1240,0,0
91,-216,0,0,0,0,0,0,0,0,0,-1,1315,1240,0,0
98,-216,0,0,0,0,0,0,0,0,0,-1,1322,1240,0,0
105,-216,0,0,0,0,0,0,0,0,0,-1,1329,1240,0,0
112,-216,0,0,0,0,0,0,0,0,0,-1,1336,1240,0,0
119,-216,0,0,0,0,0,0,0,0,0,-1,1343,1240,0,0
126,-216,0,0,0,0,0,0,0,0,0,-1,1350,1240,0,0
133,-216,0,0,0,0,0,0,0,0,0,-1,1357,1240,0,0
140,-216,0,0,0,0,0,0,0,0,0,-1,1364,1240,0,0
147,-216,0,0,0,0,0,0,0,0,0,-1,1371,1240,0,0
154,-216,0,0,0,0,0,0,0,0,0,-1,1378,1240,0,0
161,-216,0,0,0,0,0,0,0,0,0,-1,1385,1240,0,0
168,-216,0,0,0,0,0,0,0,0,0,-1,1392,1240,0,0
175,-216,0,0,0,0,0,0,0,0,0,-1,1399,1240,0,0
182,-216,0,0,0,0,0,0,0,0,0,-1,1406,1240,0,0
189,-216,0,0,0,0,0,0,0,0,0,-1,1413,1240,0,0
196,-216,0,0,0,0,0,0,0,0,0,-1,1420,1240,0,0
203,-216,0,0,0,0,0,0,0,0,0,-1,1427,1240,0,0
210,-216,0,0,0,0,0,0,0,0,0,-1,1434,1240,0,0
217,-216,0,0,0,0,0,0,0,0,0,-1,1441,1240,0,0
224,-216,0,0,0,0,0,0,0,0,0,-1,1448,1240,0,0
231,-216,0,0,0,0,0,0,0,0,0,-1,1455,1240,0,0
238,-216,0,0,0,0,0,0,0,0,0,-1,1462,1240,0,0
245,-216,0,0,0,0,0,0,0,0,0,-1,1469,1240,0,0
252,-216,0,0,0,0,0,0,0,0,0,-1,1476,1240,0,0
259,-216,0,0,0,0,0,0,0,0,0,-1,1483,1240,0,0
266,-216,0,0,0,0,0,0,0,0,0,-1,1490,1240,0,0
273,-216,0,0,0,0,0,0,0,0,0,-1,1497,1240,0,0
280,-216,0,0,0,0,0,0,0,0,0,-1,1504,1240,0,0
287,-216,0,0,0,0,0,0,0,0,0,-1,1511,1240,0,0
294,-216,0,0,0,0,0,0,0,0,0,-1,1518,1240,0,0
301,-216,0,0,0,0,0,0,0,0,0,-1,1525,1240,0,0
308,-216,0,0,0,0,0,0,0,0,0,-1,1532,1240,0,0
315,-216,0,0,0,0,0,0,0,0,0,-1,1539,1240,0,0
322,-216,0,0,0,0,0,0,0,0,0,-1,1546,1240,0,0
329,-216,0,0,0,0,0,0,0,0,0,-1,1553,1240,0,0
336,-216,0,0,0,0,0,0,0,0,0,-1,1560,1240,0,0
343,-216,0,0,0,0,0,0,0,0,0,-1,1567,1240,0,0
350,-216,0,0,0,0,0,0,0,0,0,-1,1574,1240,0,0
357,-216,0,0,0,0,0,0,0,0,0,-1,1581,1240,0,0
364,-216,0,0,0,0,0,0,0,0,0,-1,1588,1240,0,0
371,-216,0,0,0,0,0,0,0,0,0,-1,1595,1240,0,0
378,-216,0,0,0,0,0,0,0,0,0,-1,1602,1240,0,0
385,-216,0,0,0,0,0,0,0,0,0,-1,1609,1240,0,0
392,-216,0,0,0,0,0,0,0,0,0,-1,1616,1240,0,0
399,-216,0,0,0,0,0,0,0,0,0,-1,1623,1240,0,0
406,-216,0,0,0,0,0,0,0,0,0,-1,1630,1240,0,0
413,-216,0,0,0,0,0,0,0,0,0,-1,1637,1240,0,0
420,-216,0,0,0,0,0,0,0,0,0,-1,1644,1240,0,0
427,-216,0,0,0,0,0,0,0,0,0,-1,1651,1240,0,0
434,-216,0,0,0,0,0,0,0,0,0,-1,1658,1240,0,0
441,-216,0,0,0,0,0,0,0,0,0,-1,1665,1240,0,0
448,-216,0,0,0,0,0,0,0,0,0,-1,1672,1240,0,0
455,-216,0,0,0,0,0,0,0,0,0,-1,1679,1240,0,0
462,-216,0,0,0,0,0,0,0,0,0,-1,1686,1240,0,0
469,-216,0,0,0,0,0,0,0,0,0,-1,1693,1240,0,0
476,-216,0,0,0,0,0,0,0,0,0,-1,1700,1240,0,0
483,-216,0,0,0,0,0,0,0,0,0,-1,1707,1240,0,0
490,-216,0,0,0,0,0,0,0,0,0,-1,1714,1240,0,0
497,-216,0,0,0,0,0,0,0,0,0,-1,1721,1240,0,0
504,-216,0,0,0,0,0,0,0,0,0,-1,1728,1240,0,0
511,-216,0,0,0,0,0,0,0,0,0,-1,1735,1240,0,0
518,-216,0,0,0,0,0,0,0,0,0,-1,1742,1240,0,0
525,-216,0,0,0,0,0,0,0,0,0,-1,1749,1240,0,0
532,-216,0,0,0,0,0,0,0,0,0,-1,1756,1240,0,0
539,-216,0,0,0,0,0,0,0,0,0,-1,1763,1240,0,0
546,-216,0,0,0,0,0,0,0,0,0,-1,1770,1240,0,0
553,-216,0,0,0,0,0,0,0,0,0,-1,1777,1240,0,0
560,-216,0,0,0,0,0,0,0,0,0,-1,1784,1240,0,0
567,-216,0,0,0,0,0,0,0,0,0,-1,1791,1240,0,0
574,-216,0,0,0,0,0,0,0,0,0,-1,1798,1240,0,0
581,-216,0,0,0,0,0,0,0,0,0,-1,1805,1240,0,0
588,-216,0,0,0,0,0,0,0,0,0,-1,1812,1240,0,0
595,-216,0,0,0,0,0,0,0,0,0,-1,1819,1240,0,0
602,-216,0,0,0,0,0,0,0,0,0,-1,1826,1240,0,0
609,-216,0,0,0,0,0,0,0,0,0,-1,1833,1240,0,0
616,-216,0,0,0,0,0,0,0,0,0,-1,1840,1240,0,0
623,-216,73.8817,2.51709,0.00754774,0.00584611,-0.00424511,0.0110265,0.00236739,-0.686497,0.00670268,0.0387869,1847,1240,73.8817,-2.51714
630,-216,74.0198,2.45581,0.00362927,0.00752018,-0.00405164,0.0100692,0.00108021,-1.00923,0.00638329,0.0363358,1854,1240,74.0198,-2.45579
637,-216,74.2059,2.31946,0.000327229,0.00896938,-0.00390725,0.010474,-0.00117736,-1.20322,0.00740635,0.0333696,1861,1240,74.2059,-2.31941
644,-216,74.3049,2.27136,-0.00159492,0.00960336,-0.00382393,0.0107845,-0.00277611,-1.2712,0.00827183,0.0279877,1868,1240,74.3049,-2.27142
651,-216,74.3203,2.26904,-0.00173043,0.00879384,-0.00347248,0.00983632,-0.00277291,-1.27915,0.00765122,0.0239381,1875,1240,74.3203,-2.26903
658,-216,74.3611,2.2583,-0.00121628,0.00689213,-0.00250582,0.00760403,-0.00192818,-1.29399,0.00581954,0.0331015,1882,1240,74.3611,-2.25826
665,-216,74.4189,2.24402,0,0,0,0,0,0,0,-1,1889,1240,74.4189,-2.24404
672,-216,68.6339,1.33826,0,0,0,0,0,0,0,-1,1896,1240,68.6339,-1.33828
679,-216,47.3159,3.82703,0,0,0,0,0,0,0,-1,1903,1240,47.316,-3.82708
686,-216,21.5172,6.19458,0,0,0,0,0,0,0,-1,1910,1240,21.5172,-6.19453
693,-216,56.1224,12.7039,0,0,0,0,0,0,0,-1,1917,1240,56.1224,-12.7038
700,-216,57.6615,12.575,0,0,0,0,0,0,0,-1,1924,1240,57.6615,-12.575
707,-216,57.8435,11.751,0,0,0,0,0,0,0,-1,1931,1240,57.8435,-11.7509
714,-216,57.7925,11.1406,0.000396557,8.47117e-05,0.000501907,0.000766204,-0.000284935,0.634794,0.00062772,0.0258548,1938,1240,57.7924,-11.1407
721,-216,57.767,10.4882,-2.68303e-05,-5.46935e-05,0.00107134,0.00103067,-0.0011122,0.778897,0.00123749,0.0131897,1945,1240,57.767,-10.4881
728,-216,57.7717,9.77222,-0.00037895,-0.000392838,0.00160441,0.00121853,-0.00199032,0.783234,0.00187041,0.0130894,1952,1240,57.7717,-9.77226
735,-216,57.7795,9.07117,-0.00087788,-0.000396409,0.00217074,0.0015469,-0.00282119,0.840623,0.00255744,0.0158618,1959,1240,57.7795,-9.0712
742,-216,57.6725,8.35828,-0.00147654,-0.000520925,0.00298061,0.00201993,-0.0040174,0.864875,0.00354867,0.0176699,1966,1240,57.6725,-8.35833
749,-216,57.5852,7.64038,-0.00211134,-0.000815109,0.00403372,0.00262223,-0.00554868,0.865055,0.00481727,0.012885,1973,1240,57.5852,-7.64037
756,-216,57.5381,6.94666,-0.00275468,-0.00134661,0.00539171,0.00338683,-0.00748813,0.850319,0.00642577,0.011413,1980,1240,57.5381,-6.94665
763,-216,57.5114,6.28711,-0.00367646,-0.00242478,0.00751546,0.00449085,-0.0105921,0.826939,0.00894247,0.0232413,1987,1240,57.5113,-6.28707
770,-216,57.6313,5.65332,0,0,0,0,0,0,0,-1,1994,1240,57.6314,-5.65333
777,-216,57.8464,5.02283,0,0,0,0,0,0,0,-1,2001,1240,57.8464,-5.02284
784,-216,68.2205,0.660034,0,0,0,0,0,0,0,-1,2008,1240,68.2204,-0.660033
791,-216,67.71,1.8468,0,0,0,0,0,0,0,-1,2015,1240,67.7099,-1.84686
798,-216,0,0,0,0,0,0,0,0,0,-1,2022,1240,0,0
805,-216,0,0,0,0,0,0,0,0,0,-1,2029,1240,0,0
812,-216,0,0,0,0,0,0,0,0,0,-1,2036,1240,0,0
-700,-223,0,0,0,0,0,0,0,0,0,-1,524,1247,0,0
-693,-223,0,0,0,0,0,0,0,0,0,-1,531,1247,0,0
-686,-223,0,0,0,0,0,0,0,0,0,-1,538,1247,0,0
-679,-223,0,0,0,0,0,0,0,0,0,-1,545,1247,0,0
-672,-223,-38.277,2.04651,0,0,0,0,0,0,0,-1,552,1247,-38.2771,-2.04651
-665,-223,-40.2462,2.229,0,0,0,0,0,0,0,-1,559,1247,-40.2462,-2.22899
-658,-223,-39.6435,-8.36633,0,0,0,0,0,0,0,-1,566,1247,-39.6435,8.36633
-651,-223,-40.2339,-7.32275,0,0,0,0,0,0,0,-1,573,1247,-40.234,7.32277
-644,-223,-45.9081,3.8446,0,0,0,0,0,0,0,-1,580,1247,-45.9081,-3.84463
-637,-223,-49.2922,0.294189,0,0,0,0,0,0,0,-1,587,1247,-49.2922,-0.294245
-630,-223,-39.975,5.0531,0,0,0,0,0,0,0,-1,594,1247,-39.975,-5.05315
-623,-223,-40.0768,5.63269,0,0,0,0,0,0,0,-1,601,1247,-40.0769,-5.63264
-616,-223,-40.1162,6.44324,0.00379567,0.00181398,-0.00206565,0.00509582,0.00051382,-0.561769,0.00323955,0.0178688,608,1247,-40.1162,-6.44328
-609,-223,-40.145,7.22559,0.00277973,0.00158294,-0.0020361,0.00430355,5.91294e-05,-0.642475,0.00284953,0.0133578,615,1247,-40.145,-7.22564
-602,-223,-40.1868,7.95032,0.00189865,0.00129445,-0.00233221,0.00394824,-0.000755139,-0.72099,0.00291665,0.0157518,622,1247,-40.1868,-7.95027
-595,-223,-40.1859,8.73694,0.00116001,0.000996466,-0.00292145,0.00400083,-0.00184435,-0.771407,0.00345043,0.0212799,629,1247,-40.1858,-8.73691
-588,-223,-40.1353,9.49805,0.000554983,0.000629149,-0.00379652,0.00438876,-0.00320463,-0.790282,0.00440178,0.0335969,636,1247,-40.1353,-9.49805
-581,-223,-40.5588,10.9495,0,0,0,0,0,0,0,-1,643,1247,-40.5588,-10.9495
-574,-223,-40.5389,10.9819,0,0,0,0,0,0,0,-1,650,1247,-40.5389,-10.9819
-567,-223,-41.3038,11.6414,0,0,0,0,0,0,0,-1,657,1247,-41.3038,-11.6414
-560,-223,-31.8748,9.50732,0,0,0,0,0,0,0,-1,664,1247,-31.8748,-9.50735
-553,-223,-11.4025,4.14722,0,0,0,0,0,0,0,-1,671,1247,-11.4025,-4.14719
-546,-223,-26.9034,-0.148682,0,0,0,0,0,0,0,-1,678,1247,-26.9034,0.14867
-539,-223,-36.7405,0.35376,0,0,0,0,0,0,0,-1,685,1247,-36.7405,-0.353807
-532,-223,-47.6184,1.39844,0,0,0,0,0,0,0,-1,692,1247,-47.6184,-1.3984
-525,-223,-56.1472,0.150879,0,0,0,0,0,0,0,-1,699,1247,-56.1472,-0.150821
-518,-223,-57.0432,0.420166,0,0,0,0,0,0,0,-1,706,1247,-57.0432,-0.420147
-511,-223,-56.9698,0.300903,0,0,0,0,0,0,0,-1,713,1247,-56.9698,-0.30089
-504,-223,-56.864,0.250977,0,0,0,0,0,0,0,-1,720,1247,-56.864,-0.250973
-497,-223,0,0,0,0,0,0,0,0,0,-1,727,1247,0,0
-490,-223,0,0,0,0,0,0,0,0,0,-1,734,1247,0,0
-483,-223,0,0,0,0,0,0,0,0,0,-1,741,1247,0,0
-476,-223,0,0,0,0,0,0,0,0,0,-1,748,1247,0,0
-469,-223,0,0,0,0,0,0,0,0,0,-1,755,1247,0,0
-462,-223,0,0,0,0,0,0,0,0,0,-1,762,1247,0,0
-455,-223,0,0,0,0,0,0,0,0,0,-1,769,1247,0,0
-448,-223,0,0,0,0,0,0,0,0,0,-1,776,1247,0,0
-441,-223,0,0,0,0,0,0,0,0,0,-1,783,1247,0,0
-434,-223,0,0,0,0,0,0,0,0,0,-1,790,1247,0,0
-427,-223,0,0,0,0,0,0,0,0,0,-1,797,1247,0,0
-420,-223,0,0,0,0,0,0,0,0,0,-1,804,1247,0,0
-413,-223,0,0,0,0,0,0,0,0,0,-1,811,1247,0,0
-406,-223,0,0,0,0,0,0,0,0,0,-1,818,1247,0,0
-399,-223,0,0,0,0,0,0,0,0,0,-1,825,1247,0,0
-392,-223,0,0,0,0,0,0,0,0,0,-1,832,1247,0,0
-385,-223,0,0,0,0,0,0,0,0,0,-1,839,1247,0,0
-378,-223,0,0,0,0,0,0,0,0,0,-1,846,1247,0,0
-371,-223,0,0,0,0,0,0,0,0,0,-1,853,1247,0,0
-364,-223,0,0,0,0,0,0,0,0,0,-1,860,1247,0,0
-357,-223,0,0,0,0,0,0,0,0,0,-1,867,1247,0,0
-350,-223,0,0,0,0,0,0,0,0,0,-1,874,1247,0,0
-343,-223,0,0,0,0,0,0,0,0,0,-1,881,1247,0,0
-336,-223,0,0,0,0,0,0,0,0,0,-1,888,1247,0,0
-329,-223,0,0,0,0,0,0,0,0,0,-1,895,1247,0,0
-322,-223,0,0,0,0,0,0,0,0,0,-1,902,1247,0,0
-315,-223,0,0,0,0,0,0,0,0,0,-1,909,1247,0,0
-308,-223,0,0,0,0,0,0,0,0,0,-1,916,1247,0,0
-301,-223,0,0,0,0,0,0,0,0,0,-1,923,1247,0,0
-294,-223,0,0,0,0,0,0,0,0,0,-1,930,1247,0,0
-287,-223,0,0,0,0,0,0,0,0,0,-1,937,1247,0,0
-280,-223,0,0,0,0,0,0,0,0,0,-1,944,1247,0,0
-273,-223,0,0,0,0,0,0,0,0,0,-1,951,1247,0,0
-266,-223,0,0,0,0,0,0,0,0,0,-1,958,1247,0,0
-259,-223,0,0,0,0,0,0,0,0,0,-1,965,1247,0,0
-252,-223,0,0,0,0,0,0,0,0,0,-1,972,1247,0,0
-245,-223,0,0,0,0,0,0,0,0,0,-1,979,1247,0,0
-238,-223,0,0,0,0,0,0,0,0,0,-1,986,1247,0,0
-231,-223,0,0,0,0,0,0,0,0,0,-1,993,1247,0,0
-224,-223,0,0,0,0,0,0,0,0,0,-1,1000,1247,0,0
-217,-223,0,0,0,0,0,0,0,0,0,-1,1007,1247,0,0
-210,-223,0,0,0,0,0,0,0,0,0,-1,1014,1247,0,0
-203,-223,0,0,0,0,0,0,0,0,0,-1,1021,1247,0,0
-196,-223,0,0,0,0,0,0,0,0,0,-1,1028,1247,0,0
-189,-223,0,0,0,0,0,0,0,0,0,-1,1035,1247,0,0
-182,-223,0,0,0,0,0,0,0,0,0,-1,1042,1247,0,0
-175,-223,0,0,0,0,0,0,0,0,0,-1,1049,1247,0,0
-168,-223,0,0,0,0,0,0,0,0,0,-1,1056,1247,0,0
-161,-223,0,0,0,0,0,0,0,0,0,-1,1063,1247,0,0
-154,-223,0,0,0,0,0,0,0,0,0,-1,1070,1247,0,0
-147,-223,0,0,0,0,0,0,0,0,0,-1,1077,1247,0,0
-140,-223,0,0,0,0,0,0,0,0,0,-1,1084,1247,0,0
-133,-223,0,0,0,0,0,0,0,0,0,-1,1091,1247,0,0
-126,-223,0,0,0,0,0,0,0,0,0,-1,1098,1247,0,0
-119,-223,0,0,0,0,0,0,0,0,0,-1,1105,1247,0,0
-112,-223,0,0,0,0,0,0,0,0,0,-1,1112,1247,0,0
-105,-223,0,0,0,0,0,0,0,0,0,-1,1119,1247,0,0
-98,-223,0,0,0,0,0,0,0,0,0,-1,1126,1247,0,0
-91,-223,0,0,0,0,0,0,0,0,0,-1,1133,1247,0,0
-84,-223,0,0,0,0,0,0,0,0,0,-1,1140,1247,0,0
-77,-223,0,0,0,0,0,0,0,0,0,-1,1147,1247,0,0
-70,-223,0,0,0,0,0,0,0,0,0,-1,1154,1247,0,0
-63,-223,0,0,0,0,0,0,0,0,0,-1,1161,1247,0,0
-56,-223,0,0,0,0,0,0,0,0,0,-1,1168,1247,0,0
-49,-223,0,0,0,0,0,0,0,0,0,-1,1175,1247,0,0
-42,-223,0,0,0,0,0,0,0,0,0,-1,1182,1247,0,0
-35,-223,0,0,0,0,0,0,0,0,0,-1,1189,1247,0,0
-28,-223,0,0,0,0,0,0,0,0,0,-1,1196,1247,0,0
-21,-223,0,0,0,0,0,0,0,0,0,-1,1203,1247,0,0
-14,-223,0,0,0,0,0,0,0,0,0,-1,1210,1247,0,0
-7,-223,0,0,0,0,0,0,0,0,0,-1,1217,1247,0,0
0,-223,0,0,0,0,0,0,0,0,0,-1,1224,1247,0,0
7,-223,0,0,0,0,0,0,0,0,0,-1,1231,1247,0,0
14,-223,0,0,0,0,0,0,0,0,0,-1,1238,1247,0,0
21,-223,0,0,0,0,0,0,0,0,0,-1,1245,1247,0,0
28,-223,0,0,0,0,0,0,0,0,0,-1,1252,1247,0,0
35,-223,0,0,0,0,0,0,0,0,0,-1,1259,1247,0,0
42,-223,0,0,0,0,0,0,0,0,0,-1,1266,1247,0,0
49,-223,0,0,0,0,0,0,0,0,0,-1,1273,1247,0,0
56,-223,0,0,0,0,0,0,0,0,0,-1,1280,1247,0,0
63,-223,0,0,0,0,0,0,0,0,0,-1,1287,1247,0,0
70,-223,0,0,0,0,0,0,0,0,0,-1,1294,1247,0,0
77,-223,0,0,0,0,0,0,0,0,0,-1,1301,1247,0,0
84,-223,0,0,0,0,0,0,0,0,0,-1,1308,1247,0,0
91,-223,0,0,0,0,0,0,0,0,0,-1,1315,1247,0,0
98,-223,0,0,0,0,0,0,0,0,0,-1,1322,1247,0,0
105,-223,0,0,0,0,0,0,0,0,0,-1,1329,1247,0,0
112,-223,0,0,0,0,0,0,0,0,0,-1,1336,1247,0,0
119,-223,0,0,0,0,0,0,0,0,0,-1,1343,1247,0,0
126,-223,0,0,0,0,0,0,0,0,0,-1,1350,1247,0,0
133,-223,0,0,0,0,0,0,0,0,0,-1,1357,1247,0,0
140,-223,0,0,0,0,0,0,0,0,0,-1,1364,1247,0,0
147,-223,0,0,0,0,0,0,0,0,0,-1,1371,1247,0,0
154,-223,0,0,0,0,0,0,0,0,0,-1,1378,1247,0,0
161,-223,0,0,0,0,0,0,0,0,0,-1,1385,1247,0,0
168,-223,0,0,0,0,0,0,0,0,0,-1,1392,1247,0,0
175,-223,0,0,0,0,0,0,0,0,0,-1,1399,1247,0,0
182,-223,0,0,0,0,0,0,0,0,0,-1,1406,1247,0,0
189,-223,0,0,0,0,0,0,0,0,0,-1,1413,1247,0,0
196,-223,0,0,0,0,0,0,0,0,0,-1,1420,1247,0,0
203,-223,0,0,0,0,0,0,0,0,0,-1,1427,1247,0,0
210,-223,0,0,0,0,0,0,0,0,0,-1,1434,1247,0,0
217,-223,0,0,0,0,0,0,0,0,0,-1,1441,1247,0,0
224,-223,0,0,0,0,0,0,0,0,0,-1,1448,1247,0,0
231,-223,0,0,0,0,0,0,0,0,0,-1,1455,1247,0,0
238,-223,0,0,0,0,0,0,0,0,0,-1,1462,1247,0,0
245,-223,0,0,0,0,0,0,0,0,0,-1,1469,1247,0,0
252,-223,0,0,0,0,0,0,0,0,0,-1,1476,1247,0,0
259,-223,0,0,0,0,0,0,0,0,0,-1,1483,1247,0,0
266,-223,0,0,0,0,0,0,0,0,0,-1,1490,1247,0,0
273,-223,0,0,0,0,0,0,0,0,0,-1,1497,1247,0,0
280,-223,0,0,0,0,0,0,0,0,0,-1,1504,1247,0,0
287,-223,0,0,0,0,0,0,0,0,0,-1,1511,1247,0,0
294,-223,0,0,0,0,0,0,0,0,0,-1,1518,1247,0,0
301,-223,0,0,0,0,0,0,0,0,0,-1,1525,1247,0,0
308,-223,0,0,0,0,0,0,0,0,0,-1,1532,1247,0,0
315,-223,0,0,0,0,0,0,0,0,0,-1,1539,1247,0,0
322,-223,0,0,0,0,0,0,0,0,0,-1,1546,1247,0,0
329,-223,0,0,0,0,0,0,0,0,0,-1,1553,1247,0,0
336,-223,0,0,0,0,0,0,0,0,0,-1,1560,1247,0,0
343,-223,0,0,0,0,0,0,0,0,0,-1,1567,1247,0,0
350,-223,0,0,0,0,0,0,0,0,0,-1,1574,1247,0,0
357,-223,0,0,0,0,0,0,0,0,0,-1,1581,1247,0,0
364,-223,0,0,0,0,0,0,0,0,0,-1,1588,1247,0,0
371,-223,0,0,0,0,0,0,0,0,0,-1,1595,1247,0,0
378,-223,0,0,0,0,0,0,0,0,0,-1,1602,1247,0,0
385,-223,0,0,0,0,0,0,0,0,0,-1,1609,1247,0,0
392,-223,0,0,0,0,0,0,0,0,0,-1,1616,1247,0,0
399,-223,0,0,0,0,0,0,0,0,0,-1,1623,1247,0,0
406,-223,0,0,0,0,0,0,0,0,0,-1,1630,1247,0,0
413,-223,0,0,0,0,0,0,0,0,0,-1,1637,1247,0,0
420,-223,0,0,0,0,0,0,0,0,0,-1,1644,1247,0,0
427,-223,0,0,0,0,0,0,0,0,0,-1,1651,1247,0,0
434,-223,0,0,0,0,0,0,0,0,0,-1,1658,1247,0,0
441,-223,0,0,0,0,0,0,0,0,0,-1,1665,1247,0,0
448,-223,0,0,0,0,0,0,0,0,0,-1,1672,1247,0,0
455,-223,0,0,0,0,0,0,0,0,0,-1,1679,1247,0,0
462,-223,0,0,0,0,0,0,0,0,0,-1,1686,1247,0,0
469,-223,0,0,0,0,0,0,0,0,0,-1,1693,1247,0,0
476,-223,0,0,0,0,0,0,0,0,0,-1,1700,1247,0,0
483,-223,0,0,0,0,0,0,0,0,0,-1,1707,1247,0,0
490,-223,0,0,0,0,0,0,0,0,0,-1,1714,1247,0,0
497,-223,0,0,0,0,0,0,0,0,0,-1,1721,1247,0,0
504,-223,0,0,0,0,0,0,0,0,0,-1,1728,1247,0,0
511,-223,0,0,0,0,0,0,0,0,0,-1,1735,1247,0,0
518,-223,0,0,0,0,0,0,0,0,0,-1,1742,1247,0,0
525,-223,0,0,0,0,0,0,0,0,0,-1,1749,1247,0,0
532,-223,0,0,0,0,0,0,0,0,0,-1,1756,1247,0,0
539,-223,0,0,0,0,0,0,0,0,0,-1,1763,1247,0,0
546,-223,0,0,0,0,0,0,0,0,0,-1,1770,1247,0,0
553,-223,0,0,0,0,0,0,0,0,0,-1,1777,1247,0,0
560,-223,0,0,0,0,0,0,0,0,0,-1,1784,1247,0,0
567,-223,0,0,0,0,0,0,0,0,0,-1,1791,1247,0,0
574,-223,0,0,0,0,0,0,0,0,0,-1,1798,1247,0,0
581,-223,0,0,0,0,0,0,0,0,0,-1,1805,1247,0,0
588,-223,0,0,0,0,0,0,0,0,0,-1,1812,1247,0,0
595,-223,0,0,0,0,0,0,0,0,0,-1,1819,1247,0,0
602,-223,0,0,0,0,0,0,0,0,0,-1,1826,1247,0,0
609,-223,0,0,0,0,0,0,0,0,0,-1,1833,1247,0,0
616,-223,0,0,0,0,0,0,0,0,0,-1,1840,1247,0,0
623,-223,74.002,2.49866,0.00514082,0.00727747,-0.00462212,0.0109531,0.00146518,-0.89897,0.006866,0.0390125,1847,1247,74.002,-2.49867
630,-223,74.1147,2.40027,0.000453386,0.00953779,-0.00445475,0.0113577,-0.00136652,-1.18296,0.00806598,0.0345558,1854,1247,74.1147,-2.40026
637,-223,74.1998,2.30542,-0.00359965,0.0115043,-0.0042642,0.012625,-0.00472037,-1.31379,0.0103552,0.0286651,1861,1247,74.1998,-2.30547
644,-223,74.2716,2.21313,-0.00495189,0.0117041,-0.00405803,0.0126402,-0.00588797,-1.34409,0.0109314,0.0230883,1868,1247,74.2716,-2.2131
651,-223,74.3348,2.21228,-0.00402775,0.0100905,-0.00349399,0.0109078,-0.00484513,-1.34099,0.0093168,0.0303294,1875,1247,74.3348,-2.21226
658,-223,74.4733,2.24487,0,0,0,0,0,0,0,-1,1882,1247,74.4733,-2.2449
665,-223,68.7177,1.6427,0,0,0,0,0,0,0,-1,1889,1247,68.7176,-1.64275
672,-223,56.4625,2.72424,0,0,0,0,0,0,0,-1,1896,1247,56.4626,-2.72418
679,-223,43.2783,2.46973,0,0,0,0,0,0,0,-1,1903,1247,43.2784,-2.46978
686,-223,40.7926,10.0316,0,0,0,0,0,0,0,-1,1910,1247,40.7926,-10.0316
693,-223,55.5261,12.8093,0,0,0,0,0,0,0,-1,1917,1247,55.5261,-12.8093
700,-223,55.0945,12.2452,0,0,0,0,0,0,0,-1,1924,1247,55.0944,-12.2452
707,-223,57.2834,11.7953,0,0,0,0,0,0,0,-1,1931,1247,57.2834,-11.7952
714,-223,57.1604,11.1613,6.74832e-05,-0.000414472,0.000943418,0.000800214,-0.0011472,0.660357,0.00113028,0.0216695,1938,1247,57.1604,-11.1613
721,-223,57.078,10.4968,-0.000483006,-0.000447124,0.00150569,0.00104073,-0.00197086,0.791355,0.00176617,0.014669,1945,1247,57.078,-10.4969
728,-223,57.038,9.79175,-0.000971382,-0.000601357,0.00204419,0.00126618,-0.00283892,0.830528,0.00242737,0.0187864,1952,1247,57.0379,-9.79172
735,-223,56.9883,9.13147,-0.00156195,-0.000554363,0.0026692,0.00165817,-0.00377448,0.878673,0.00321489,0.0195342,1959,1247,56.9883,-9.1315
742,-223,56.9027,8.4408,-0.0022082,-0.000655456,0.00353622,0.00218861,-0.00505227,0.893458,0.00428812,0.0175325,1966,1247,56.9027,-8.44074
749,-223,56.8585,7.66565,-0.00286,-0.000939347,0.00463769,0.0028364,-0.00663575,0.88749,0.00561348,0.013276,1973,1247,56.8585,-7.66568
756,-223,56.7922,6.94385,-0.00351935,-0.00146517,0.00606581,0.00365989,-0.00864441,0.869265,0.0072956,0.0147517,1980,1247,56.7922,-6.94388
763,-223,56.7527,6.32556,-0.00445818,-0.00255403,0.008295,0.00484335,-0.0118556,0.842537,0.00992042,0.0220463,1987,1247,56.7527,-6.32555
770,-223,57.0027,5.64966,0,0,0,0,0,0,0,-1,1994,1247,57.0028,-5.64965
777,-223,53.7227,4.88562,0,0,0,0,0,0,0,-1,2001,1247,53.7227,-4.8856
784,-223,68.8677,0.507813,0,0,0,0,0,0,0,-1,2008,1247,68.8676,-0.507816
791,-223,34.7136,2.92554,0,0,0,0,0,0,0,-1,2015,1247,34.7137,-2.92555
798,-223,0,0,0,0,0,0,0,0,0,-1,2022,1247,0,0
805,-223,0,0,0,0,0,0,0,0,0,-1,2029,1247,0,0
812,-223,0,0,0,0,0,0,0,0,0,-1,2036,1247,0,0
-700,-230,0,0,0,0,0,0,0,0,0,-1,524,1254,0,0
-693,-230,0,0,0,0,0,0,0,0,0,-1,531,1254,0,0
-686,-230,0,0,0,0,0,0,0,0,0,-1,538,1254,0,0
-679,-230,0,0,0,0,0,0,0,0,0,-1,545,1254,0,0
-672,-230,-38.5905,2.07617,0,0,0,0,0,0,0,-1,552,1254,-38.5905,-2.07614
-665,-230,-38.168,-9.9397,0,0,0,0,0,0,0,-1,559,1254,-38.168,9.93971
-658,-230,-38.8468,-8.48303,0,0,0,0,0,0,0,-1,566,1254,-38.8468,8.48304
-651,-230,-39.3627,-7.38525,0,0,0,0,0,0,0,-1,573,1254,-39.3627,7.38529
-644,-230,-48.2715,0.872925,0,0,0,0,0,0,0,-1,580,1254,-48.2715,-0.87288
-637,-230,-49.1636,-0.158325,0,0,0,0,0,0,0,-1,587,1254,-49.1636,0.158288
-630,-230,-40.134,4.76062,0,0,0,0,0,0,0,-1,594,1254,-40.134,-4.76063
-623,-230,-39.6107,5.73633,0.00607667,0.00192576,-0.00216327,0.00699909,0.00100333,-0.403057,0.00437018,0.0465307,601,1254,-39.6107,-5.73628
-616,-230,-39.3259,6.45837,0.00473966,0.0017693,-0.00178719,0.00557823,0.000930735,-0.438714,0.00345067,0.0191446,608,1254,-39.3259,-6.45835
-609,-230,-39.3579,7.24573,0.00343407,0.00166632,-0.00172021,0.00448419,0.000616195,-0.548077,0.0028067,0.0131279,615,1254,-39.3579,-7.24567
-602,-230,-39.3918,8.00879,0.00231382,0.00139211,-0.00193881,0.00384579,-0.000139862,-0.668714,0.00261173,0.0130689,622,1254,-39.3918,-8.00876
-595,-230,-39.4359,8.77563,0.00137374,0.0010768,-0.00240679,0.00363663,-0.0011861,-0.754593,0.00290175,0.0192908,629,1254,-39.4359,-8.77566
-588,-230,-39.5113,9.59338,0.00061103,0.000657292,-0.00310103,0.00373528,-0.00246696,-0.789128,0.00360573,0.0280359,636,1254,-39.5113,-9.5934
-581,-230,-39.6234,10.5923,-1.88684e-05,5.87437e-05,-0.00402328,0.0040434,-0.00400353,-0.790221,0.00464592,0.0415724,643,1254,-39.6233,-10.5923
-574,-230,-39.5879,11.2593,-0.000617613,-0.000867484,-0.00508284,0.00434183,-0.00582692,-0.773111,0.00589177,0.0421953,650,1254,-39.5879,-11.2592
-567,-230,-39.7196,11.6962,0,0,0,0,0,0,0,-1,657,1254,-39.7196,-11.6962
-560,-230,-40.162,12.0813,0,0,0,0,0,0,0,-1,664,1254,-40.162,-12.0813
-553,-230,-13.1939,4.9718,0,0,0,0,0,0,0,-1,671,1254,-13.1939,-4.97175
-546,-230,-15.23,0.453979,0,0,0,0,0,0,0,-1,678,1254,-15.23,-0.453996
-539,-230,-25.8232,0.512817,0,0,0,0,0,0,0,-1,685,1254,-25.8232,-0.512878
-532,-230,-21.1644,1.52966,0,0,0,0,0,0,0,-1,692,1254,-21.1644,-1.52969
-525,-230,-29.4775,0.731445,0,0,0,0,0,0,0,-1,699,1254,-29.4775,-0.731432
-518,-230,-56.9173,0.36792,0,0,0,0,0,0,0,-1,706,1254,-56.9173,-0.367908
-511,-230,-56.9586,0.247437,0,0,0,0,0,0,0,-1,713,1254,-56.9586,-0.247476
-504,-230,-56.9041,0.243042,0,0,0,0,0,0,0,-1,720,1254,-56.9041,-0.243005
-497,-230,0,0,0,0,0,0,0,0,0,-1,727,1254,0,0
-490,-230,0,0,0,0,0,0,0,0,0,-1,734,1254,0,0
-483,-230,0,0,0,0,0,0,0,0,0,-1,741,1254,0,0
-476,-230,0,0,0,0,0,0,0,0,0,-1,748,1254,0,0
-469,-230,0,0,0,0,0,0,0,0,0,-1,755,1254,0,0
-462,-230,0,0,0,0,0,0,0,0,0,-1,762,1254,0,0
-455,-230,0,0,0,0,0,0,0,0,0,-1,769,1254,0,0
-448,-230,0,0,0,0,0,0,0,0,0,-1,776,1254,0,0
-441,-230,0,0,0,0,0,0,0,0,0,-1,783,1254,0,0
-434,-230,0,0,0,0,0,0,0,0,0,-1,790,1254,0,0
-427,-230,0,0,0,0,0,0,0,0,0,-1,797,1254,0,0
-420,-230,0,0,0,0,0,0,0,0,0,-1,804,1254,0,0
-413,-230,0,0,0,0,0,0,0,0,0,-1,811,1254,0,0
-406,-230,0,0,0,0,0,0,0,0,0,-1,818,1254,0,0
-399,-230,0,0,0,0,0,0,0,0,0,-1,825,1254,0,0
-392,-230,0,0,0,0,0,0,0,0,0,-1,832,1254,0,0
-385,-230,0,0,0,0,0,0,0,0,0,-1,839,1254,0,0
-378,-230,0,0,0,0,0,0,0,0,0,-1,846,1254,0,0
-371,-230,0,0,0,0,0,0,0,0,0,-1,853,1254,0,0
-364,-230,0,0,0,0,0,0,0,0,0,-1,860,1254,0,0
-357,-230,0,0,0,0,0,0,0,0,0,-1,867,1254,0,0
-350,-230,0,0,0,0,0,0,0,0,0,-1,874,1254,0,0
-343,-230,0,0,0,0,0,0,0,0,0,-1,881,1254,0,0
-336,-230,0,0,0,0,0,0,0,0,0,-1,888,1254,0,0
-329,-230,0,0,0,0,0,0,0,0,0,-1,895,1254,0,0
-322,-230,0,0,0,0,0,0,0,0,0,-1,902,1254,0,0
-315,-230,0,0,0,0,0,0,0,0,0,-1,909,1254,0,0
-308,-230,0,0,0,0,0,0,0,0,0,-1,916,1254,0,0
-301,-230,0,0,0,0,0,0,0,0,0,-1,923,1254,0,0
-294,-230,0,0,0,0,0,0,0,0,0,-1,930,1254,0,0
-287,-230,0,0,0,0,0,0,0,0,0,-1,937,1254,0,0
-280,-230,0,0,0,0,0,0,0,0,0,-1,944,1254,0,0
-273,-230,0,0,0,0,0,0,0,0,0,-1,951,1254,0,0
-266,-230,0,0,0,0,0,0,0,0,0,-1,958,1254,0,0
-259,-230,0,0,0,0,0,0,0,0,0,-1,965,1254,0,0
-252,-230,0,0,0,0,0,0,0,0,0,-1,972,1254,0,0
-245,-230,0,0,0,0,0,0,0,0,0,-1,979,1254,0,0
-238,-230,0,0,0,0,0,0,0,0,0,-1,986,1254,0,0
-231,-230,0,0,0,0,0,0,0,0,0,-1,993,1254,0,0
-224,-230,0,0,0,0,0,0,0,0,0,-1,1000,1254,0,0
-217,-230,0,0,0,0,0,0,0,0,0,-1,1007,1254,0,0
-210,-230,0,0,0,0,0,0,0,0,0,-1,1014,1254,0,0
-203,-230,0,0,0,0,0,0,0,0,0,-1,1021,1254,0,0
-196,-230,0,0,0,0,0,0,0,0,0,-1,1028,1254,0,0
-189,-230,0,0,0,0,0,0,0,0,0,-1,1035,1254,0,0
-182,-230,0,0,0,0,0,0,0,0,0,-1,1042,1254,0,0
-175,-230,0,0,0,0,0,0,0,0,0,-1,1049,1254,0,0
-168,-230,0,0,0,0,0,0,0,0,0,-1,1056,1254,0,0
-161,-230,0,0,0,0,0,0,0,0,0,-1,1063,1254,0,0
-154,-230,0,0,0,0,0,0,0,0,0,-1,1070,1254,0,0
-147,-230,0,0,0,0,0,0,0,0,0,-1,1077,1254,0,0
-140,-230,0,0,0,0,0,0,0,0,0,-1,1084,1254,0,0
-133,-230,0,0,0,0,0,0,0,0,0,-1,1091,1254,0,0
-126,-230,0,0,0,0,0,0,0,0,0,-1,1098,1254,0,0
-119,-230,0,0,0,0,0,0,0,0,0,-1,1105,1254,0,0
-112,-230,0,0,0,0,0,0,0,0,0,-1,1112,1254,0,0
-105,-230,0,0,0,0,0,0,0,0,0,-1,1119,1254,0,0
-98,-230,0,0,0,0,0,0,0,0,0,-1,1126,1254,0,0
-91,-230,0,0,0,0,0,0,0,0,0,-1,1133,1254,0,0
-84,-230,0,0,0,0,0,0,0,0,0,-1,1140,1254,0,0
-77,-230,0,0,0,0,0,0,0,0,0,-1,1147,1254,0,0
-70,-230,0,0,0,0,0,0,0,0,0,-1,1154,1254,0,0
-63,-230,0,0,0,0,0,0,0,0,0,-1,1161,1254,0,0
-56,-230,0,0,0,0,0,0,0,0,0,-1,1168,1254,0,0
-49,-230,0,0,0,0,0,0,0,0,0,-1,1175,1254,0,0
-42,-230,0,0,0,0,0,0,0,0,0,-1,1182,1254,0,0
-35,-230,0,0,0,0,0,0,0,0,0,-1,1189,1254,0,0
-28,-230,0,0,0,0,0,0,0,0,0,-1,1196,1254,0,0
-21,-230,0,0,0,0,0,0,0,0,0,-1,1203,1254,0,0
-14,-230,0,0,0,0,0,0,0,0,0,-1,1210,1254,0,0
-7,-230,0,0,0,0,0,0,0,0,0,-1,1217,1254,0,0
0,-230,0,0,0,0,0,0,0,0,0,-1,1224,1254,0,0
7,-230,0,0,0,0,0,0,0,0,0,-1,1231,1254,0,0
14,-230,0,0,0,0,0,0,0,0,0,-1,1238,1254,0,0
21,-230,0,0,0,0,0,0,0,0,0,-1,1245,1254,0,0
28,-230,0,0,0,0,0,0,0,0,0,-1,1252,1254,0,0
35,-230,0,0,0,0,0,0,0,0,0,-1,1259,1254,0,0
42,-230,0,0,0,0,0,0,0,0,0,-1,1266,1254,0,0
49,-230,0,0,0,0,0,0,0,0,0,-1,1273,1254,0,0
56,-230,0,0,0,0,0,0,0,0,0,-1,1280,1254,0,0
63,-230,0,0,0,0,0,0,0,0,0,-1,1287,1254,0,0
70,-230,0,0,0,0,0,0,0,0,0,-1,1294,1254,0,0
77,-230,0,0,0,0,0,0,0,0,0,-1,1301,1254,0,0
84,-230,0,0,0,0,0,0,0,0,0,-1,1308,1254,0,0
91,-230,0,0,0,0,0,0,0,0,0,-1,1315,1254,0,0
98,-230,0,0,0,0,0,0,0,0,0,-1,1322,1254,0,0
105,-230,0,0,0,0,0,0,0,0,0,-1,1329,1254,0,0
112,-230,0,0,0,0,0,0,0,0,0,-1,1336,1254,0,0
119,-230,0,0,0,0,0,0,0,0,0,-1,1343,1254,0,0
126,-230,0,0,0,0,0,0,0,0,0,-1,1350,1254,0,0
133,-230,0,0,0,0,0,0,0,0,0,-1,1357,1254,0,0
140,-230,0,0,0,0,0,0,0,0,0,-1,1364,1254,0,0
147,-230,0,0,0,0,0,0,0,0,0,-1,1371,1254,0,0
154,-230,0,0,0,0,0,0,0,0,0,-1,1378,1254,0,0
161,-230,0,0,0,0,0,0,0,0,0,-1,1385,1254,0,0
168,-230,0,0,0,0,0,0,0,0,0,-1,1392,1254,0,0
175,-230,0,0,0,0,0,0,0,0,0,-1,1399,1254,0,0
182,-230,0,0,0,0,0,0,0,0,0,-1,1406,1254,0,0
189,-230,0,0,0,0,0,0,0,0,0,-1,1413,1254,0,0
196,-230,0,0,0,0,0,0,0,0,0,-1,1420,1254,0,0
203,-230,0,0,0,0,0,0,0,0,0,-1,1427,1254,0,0
210,-230,0,0,0,0,0,0,0,0,0,-1,1434,1254,0,0
217,-230,0,0,0,0,0,0,0,0,0,-1,1441,1254,0,0
224,-230,0,0,0,0,0,0,0,0,0,-1,1448,1254,0,0
231,-230,0,0,0,0,0,0,0,0,0,-1,1455,1254,0,0
238,-230,0,0,0,0,0,0,0,0,0,-1,1462,1254,0,0
245,-230,0,0,0,0,0,0,0,0,0,-1,1469,1254,0,0
252,-230,0,0,0,0,0,0,0,0,0,-1,1476,1254,0,0
259,-230,0,0,0,0,0,0,0,0,0,-1,1483,1254,0,0
266,-230,0,0,0,0,0,0,0,0,0,-1,1490,1254,0,0
273,-230,0,0,0,0,0,0,0,0,0,-1,1497,1254,0,0
280,-230,0,0,0,0,0,0,0,0,0,-1,1504,1254,0,0
287,-230,0,0,0,0,0,0,0,0,0,-1,1511,1254,0,0
294,-230,0,0,0,0,0,0,0,0,0,-1,1518,1254,0,0
301,-230,0,0,0,0,0,0,0,0,0,-1,1525,1254,0,0
308,-230,0,0,0,0,0,0,0,0,0,-1,1532,1254,0,0
315,-230,0,0,0,0,0,0,0,0,0,-1,1539,1254,0,0
322,-230,0,0,0,0,0,0,0,0,0,-1,1546,1254,0,0
329,-230,0,0,0,0,0,0,0,0,0,-1,1553,1254,0,0
336,-230,0,0,0,0,0,0,0,0,0,-1,1560,1254,0,0
343,-230,0,0,0,0,0,0,0,0,0,-1,1567,1254,0,0
350,-230,0,0,0,0,0,0,0,0,0,-1,1574,1254,0,0
357,-230,0,0,0,0,0,0,0,0,0,-1,1581,1254,0,0
364,-230,0,0,0,0,0,0,0,0,0,-1,1588,1254,0,0
371,-230,0,0,0,0,0,0,0,0,0,-1,1595,1254,0,0
378,-230,0,0,0,0,0,0,0,0,0,-1,1602,1254,0,0
385,-230,0,0,0,0,0,0,0,0,0,-1,1609,1254,0,0
392,-230,0,0,0,0,0,0,0,0,0,-1,1616,1254,0,0
399,-230,0,0,0,0,0,0,0,0,0,-1,1623,1254,0,0
406,-230,0,0,0,0,0,0,0,0,0,-1,1630,1254,0,0
413,-230,0,0,0,0,0,0,0,0,0,-1,1637,1254,0,0
420,-230,0,0,0,0,0,0,0,0,0,-1,1644,1254,0,0
427,-230,0,0,0,0,0,0,0,0,0,-1,1651,1254,0,0
434,-230,0,0,0,0,0,0,0,0,0,-1,1658,1254,0,0
441,-230,0,0,0,0,0,0,0,0,0,-1,1665,1254,0,0
448,-230,0,0,0,0,0,0,0,0,0,-1,1672,1254,0,0
455,-230,0,0,0,0,0,0,0,0,0,-1,1679,1254,0,0
462,-230,0,0,0,0,0,0,0,0,0,-1,1686,1254,0,0
469,-230,0,0,0,0,0,0,0,0,0,-1,1693,1254,0,0
476,-230,0,0,0,0,0,0,0,0,0,-1,1700,1254,0,0
483,-230,0,0,0,0,0,0,0,0,0,-1,1707,1254,0,0
490,-230,0,0,0,0,0,0,0,0,0,-1,1714,1254,0,0
497,-230,0,0,0,0,0,0,0,0,0,-1,1721,1254,0,0
504,-230,0,0,0,0,0,0,0,0,0,-1,1728,1254,0,0
511,-230,0,0,0,0,0,0,0,0,0,-1,1735,1254,0,0
518,-230,0,0,0,0,0,0,0,0,0,-1,1742,1254,0,0
525,-230,0,0,0,0,0,0,0,0,0,-1,1749,1254,0,0
532,-230,0,0,0,0,0,0,0,0,0,-1,1756,1254,0,0
539,-230,0,0,0,0,0,0,0,0,0,-1,1763,1254,0,0
546,-230,0,0,0,0,0,0,0,0,0,-1,1770,1254,0,0
553,-230,0,0,0,0,0,0,0,0,0,-1,1777,1254,0,0
560,-230,0,0,0,0,0,0,0,0,0,-1,1784,1254,0,0
567,-230,0,0,0,0,0,0,0,0,0,-1,1791,1254,0,0
574,-230,0,0,0,0,0,0,0,0,0,-1,1798,1254,0,0
581,-230,0,0,0,0,0,0,0,0,0,-1,1805,1254,0,0
588,-230,0,0,0,0,0,0,0,0,0,-1,1812,1254,0,0
595,-230,0,0,0,0,0,0,0,0,0,-1,1819,1254,0,0
602,-230,0,0,0,0,0,0,0,0,0,-1,1826,1254,0,0
609,-230,0,0,0,0,0,0,0,0,0,-1,1833,1254,0,0
616,-230,74.3583,2.55835,0.00739239,0.00632562,-0.00460203,0.0114918,0.00222617,-0.727705,0.00703753,0.0383222,1840,1254,74.3583,-2.5584
623,-230,74.3995,2.45093,0.0014485,0.00950851,-0.00465978,0.0116392,-0.000682211,-1.14192,0.00799659,0.0352331,1847,1254,74.3996,-2.45095
630,-230,74.3087,2.30627,-0.00384687,0.0124063,-0.00469461,0.0136648,-0.00510542,-1.30887,0.0112063,0.0301978,1854,1254,74.3087,-2.30633
637,-230,74.2245,2.224,-0.00821798,0.0147529,-0.00464614,0.0156571,-0.00912213,-1.3786,0.0144712,0.026739,1861,1254,74.2244,-2.22399
644,-230,74.2153,2.14514,-0.00800183,0.0138677,-0.00437759,0.0147114,-0.00884554,-1.3804,0.0137404,0.0212742,1868,1254,74.2153,-2.14511
651,-230,74.1556,2.04626,-0.00593569,0.0113744,-0.00365155,0.0121132,-0.00667445,-1.37118,0.0109975,0.0443499,1875,1254,74.1557,-2.04629
658,-230,74.1202,1.95593,0,0,0,0,0,0,0,-1,1882,1254,74.1203,-1.95588
665,-230,56.2585,2.51587,0,0,0,0,0,0,0,-1,1889,1254,56.2586,-2.51586
672,-230,43.0962,2.78699,0,0,0,0,0,0,0,-1,1896,1254,43.0962,-2.78698
679,-230,27.9967,2.37708,0,0,0,0,0,0,0,-1,1903,1254,27.9967,-2.3771
686,-230,40.8854,10.1788,0,0,0,0,0,0,0,-1,1910,1254,40.8853,-10.1788
693,-230,50.7637,12.0411,0,0,0,0,0,0,0,-1,1917,1254,50.7636,-12.0412
700,-230,56.7144,12.5248,0,0,0,0,0,0,0,-1,1924,1254,56.7143,-12.5247
707,-230,56.5057,11.9185,0.000357029,-0.000842681,0.00078183,0.00074261,-0.00122826,0.458175,0.00114934,0.0325918,1931,1254,56.5058,-11.9185
714,-230,56.3752,11.2523,-0.000214248,-0.000825544,0.00121361,0.000731608,-0.0017714,0.662038,0.0014861,0.0173802,1938,1254,56.3753,-11.2523
721,-230,56.3256,10.5503,-0.000950917,-0.000732601,0.00181568,0.000977196,-0.00266071,0.815422,0.00217402,0.0140743,1945,1254,56.3256,-10.5502
728,-230,56.2561,9.87488,-0.00160788,-0.00073925,0.00240543,0.00127076,-0.00361789,0.874714,0.00292889,0.0160069,1952,1254,56.2561,-9.87482
735,-230,56.22,9.18506,-0.00231721,-0.000672438,0.00310573,0.00171795,-0.0047076,0.914826,0.00384131,0.0164015,1959,1254,56.2199,-9.18506
742,-230,56.1646,8.44275,-0.00305452,-0.000757593,0.00402617,0.00228071,-0.00609282,0.924333,0.00499867,0.0126537,1966,1254,56.1646,-8.44269
749,-230,56.1436,7.67371,-0.00376734,-0.00102206,0.00516529,0.00294987,-0.00773926,0.915268,0.00637452,0.0115673,1973,1254,56.1435,-7.67365
756,-230,56.0851,6.97485,-0.00448576,-0.00153439,0.00666165,0.00381306,-0.00983321,0.894398,0.00813022,0.0161882,1980,1254,56.0851,-6.97483
763,-230,56.022,6.30408,-0.00546583,-0.0026261,0.0089912,0.00505665,-0.0131486,0.86371,0.0108514,0.0367706,1987,1254,56.022,-6.3041
770,-230,56.3069,5.64441,0,0,0,0,0,0,0,-1,1994,1254,56.3068,-5.64438
777,-230,41.8693,3.74707,0,0,0,0,0,0,0,-1,2001,1254,41.8692,-3.74713
784,-230,35.8896,1.80334,0,0,0,0,0,0,0,-1,2008,1254,35.8897,-1.80338
791,-230,35.6028,2.20642,0,0,0,0,0,0,0,-1,2015,1254,35.6027,-2.2064
798,-230,0,0,0,0,0,0,0,0,0,-1,2022,1254,0,0
805,-230,0,0,0,0,0,0,0,0,0,-1,2029,1254,0,0
812,-230,0,0,0,0,0,0,0,0,0,-1,2036,1254,0,0
-700,-237,0,0,0,0,0,0,0,0,0,-1,524,1261,0,0
-693,-237,0,0,0,0,0,0,0,0,0,-1,531,1261,0,0
-686,-237,0,0,0,0,0,0,0,0,0,-1,538,1261,0,0
-679,-237,0,0,0,0,0,0,0,0,0,-1,545,1261,0,0
-672,-237,-36.6405,-12.5112,0,0,0,0,0,0,0,-1,552,1261,-36.6405,12.5113
-665,-237,-37.1436,-10.5648,0,0,0,0,0,0,0,-1,559,1261,-37.1436,10.5649
-658,-237,-37.8344,-8.67175,0,0,0,0,0,0,0,-1,566,1261,-37.8344,8.67179
-651,-237,-46.9487,1.65137,0,0,0,0,0,0,0,-1,573,1261,-46.9487,-1.65142
-644,-237,-47.6604,0.785034,0,0,0,0,0,0,0,-1,580,1261,-47.6604,-0.785034
-637,-237,-33.4961,2.71313,0,0,0,0,0,0,0,-1,587,1261,-33.4961,-2.71312
-630,-237,-38.7345,4.84766,0,0,0,0,0,0,0,-1,594,1261,-38.7345,-4.84764
-623,-237,-38.509,5.62842,0.00765116,0.00188207,-0.00214651,0.00836218,0.00117105,-0.319871,0.00522834,0.0416413,601,1261,-38.509,-5.62836
-616,-237,-38.4785,6.49219,0.00582067,0.00179081,-0.00165796,0.0064151,0.00119638,-0.344256,0.00393897,0.0166829,608,1261,-38.4785,-6.49219
-609,-237,-38.5709,7.28406,0.00412668,0.00178323,-0.00148217,0.00484434,0.00106557,-0.450923,0.00293947,0.0173829,615,1261,-38.5709,-7.28401
-602,-237,-38.6152,8.05115,0.00275864,0.00148552,-0.00159306,0.00383762,0.000406549,-0.595325,0.00243424,0.0130498,622,1261,-38.6152,-8.05115
-595,-237,-38.6826,8.8075,0.00168546,0.0011344,-0.0019299,0.0033594,-0.000539537,-0.714492,0.00243941,0.0152333,629,1261,-38.6826,-8.80754
-588,-237,-38.7396,9.57312,0.000873074,0.000665457,-0.00246291,0.00323436,-0.00169583,-0.764336,0.00289227,0.0261996,636,1261,-38.7396,-9.57315
-581,-237,-38.8005,10.3663,0.000276117,1.75471e-05,-0.00319041,0.00333986,-0.0030462,-0.765148,0.00368829,0.0260529,643,1261,-38.8004,-10.3664
-574,-237,-38.6962,11.0074,-0.000169143,-0.000924566,-0.00403507,0.00350585,-0.00459956,-0.738731,0.00469384,0.0349947,650,1261,-38.6961,-11.0075
-567,-237,-38.787,11.5558,0,0,0,0,0,0,0,-1,657,1261,-38.787,-11.5557
-560,-237,-38.8735,12.2501,0,0,0,0,0,0,0,-1,664,1261,-38.8735,-12.2502
-553,-237,-20.6102,6.92139,0,0,0,0,0,0,0,-1,671,1261,-20.6102,-6.92138
-546,-237,-11.192,1.14014,0,0,0,0,0,0,0,-1,678,1261,-11.192,-1.14011
-539,-237,-16.512,1.53455,0,0,0,0,0,0,0,-1,685,1261,-16.512,-1.53457
-532,-237,-29.7025,1.23621,0,0,0,0,0,0,0,-1,692,1261,-29.7025,-1.23618
-525,-237,-47.2925,0.590942,0,0,0,0,0,0,0,-1,699,1261,-47.2925,-0.590989
-518,-237,-48.2897,0.765869,0,0,0,0,0,0,0,-1,706,1261,-48.2897,-0.765854
-511,-237,-56.8778,0.319336,0,0,0,0,0,0,0,-1,713,1261,-56.8778,-0.319326
-504,-237,-56.9132,0.239868,0,0,0,0,0,0,0,-1,720,1261,-56.9132,-0.239924
-497,-237,-56.996,0.354126,0,0,0,0,0,0,0,-1,727,1261,-56.9961,-0.354084
-490,-237,0,0,0,0,0,0,0,0,0,-1,734,1261,0,0
-483,-237,0,0,0,0,0,0,0,0,0,-1,741,1261,0,0
-476,-237,0,0,0,0,0,0,0,0,0,-1,748,1261,0,0
-469,-237,0,0,0,0,0,0,0,0,0,-1,755,1261,0,0
-462,-237,0,0,0,0,0,0,0,0,0,-1,762,1261,0,0
-455,-237,0,0,0,0,0,0,0,0,0,-1,769,1261,0,0
-448,-237,0,0,0,0,0,0,0,0,0,-1,776,1261,0,0
-441,-237,0,0,0,0,0,0,0,0,0,-1,783,1261,0,0
-434,-237,0,0,0,0,0,0,0,0,0,-1,790,1261,0,0
-427,-237,0,0,0,0,0,0,0,0,0,-1,797,1261,0,0
-420,-237,0,0,0,0,0,0,0,0,0,-1,804,1261,0,0
-413,-237,0,0,0,0,0,0,0,0,0,-1,811,1261,0,0
-406,-237,0,0,0,0,0,0,0,0,0,-1,818,1261,0,0
-399,-237,0,0,0,0,0,0,0,0,0,-1,825,1261,0,0
-392,-237,0,0,0,0,0,0,0,0,0,-1,832,1261,0,0
-385,-237,0,0,0,0,0,0,0,0,0,-1,839,1261,0,0
-378,-237,0,0,0,0,0,0,0,0,0,-1,846,1261,0,0
-371,-237,0,0,0,0,0,0,0,0,0,-1,853,1261,0,0
-364,-237,0,0,0,0,0,0,0,0,0,-1,860,1261,0,0
-357,-237,0,0,0,0,0,0,0,0,0,-1,867,1261,0,0
-350,-237,0,0,0,0,0,0,0,0,0,-1,874,1261,0,0
-343,-237,0,0,0,0,0,0,0,0,0,-1,881,1261,0,0
-336,-237,0,0,0,0,0,0,0,0,0,-1,888,1261,0,0
-329,-237,0,0,0,0,0,0,0,0,0,-1,895,1261,0,0
-322,-237,0,0,0,0,0,0,0,0,0,-1,902,1261,0,0
-315,-237,0,0,0,0,0,0,0,0,0,-1,909,1261,0,0
-308,-237,0,0,0,0,0,0,0,0,0,-1,916,1261,0,0
-301,-237,0,0,0,0,0,0,0,0,0,-1,923,1261,0,0
-294,-237,0,0,0,0,0,0,0,0,0,-1,930,1261,0,0
-287,-237,0,0,0,0,0,0,0,0,0,-1,937,1261,0,0
-280,-237,0,0,0,0,0,0,0,0,0,-1,944,1261,0,0
-273,-237,0,0,0,0,0,0,0,0,0,-1,951,1261,0,0
-266,-237,0,0,0,0,0,0,0,0,0,-1,958,1261,0,0
-259,-237,0,0,0,0,0,0,0,0,0,-1,965,1261,0,0
-252,-237,0,0,0,0,0,0,0,0,0,-1,972,1261,0,0
-245,-237,0,0,0,0,0,0,0,0,0,-1,979,1261,0,0
-238,-237,0,0,0,0,0,0,0,0,0,-1,986,1261,0,0
-231,-237,0,0,0,0,0,0,0,0,0,-1,993,1261,0,0
-224,-237,0,0,0,0,0,0,0,0,0,-1,1000,1261,0,0
-217,-237,0,0,0,0,0,0,0,0,0,-1,1007,1261,0,0
-210,-237,0,0,0,0,0,0,0,0,0,-1,1014,1261,0,0
-203,-237,0,0,0,0,0,0,0,0,0,-1,1021,1261,0,0
-196,-237,0,0,0,0,0,0,0,0,0,-1,1028,1261,0,0
-189,-237,0,0,0,0,0,0,0,0,0,-1,1035,1261,0,0
-182,-237,0,0,0,0,0,0,0,0,0,-1,1042,1261,0,0
-175,-237,0,0,0,0,0,0,0,0,0,-1,1049,1261,0,0
-168,-237,0,0,0,0,0,0,0,0,0,-1,1056,1261,0,0
-161,-237,0,0,0,0,0,0,0,0,0,-1,1063,1261,0,0
-154,-237,0,0,0,0,0,0,0,0,0,-1,1070,1261,0,0
-147,-237,0,0,0,0,0,0,0,0,0,-1,1077,1261,0,0
-140,-237,0,0,0,0,0,0,0,0,0,-1,1084,1261,0,0
-133,-237,0,0,0,0,0,0,0,0,0,-1,1091,1261,0,0
-126,-237,0,0,0,0,0,0,0,0,0,-1,1098,1261,0,0
-119,-237,0,0,0,0,0,0,0,0,0,-1,1105,1261,0,0
-112,-237,0,0,0,0,0,0,0,0,0,-1,1112,1261,0,0
-105,-237,0,0,0,0,0,0,0,0,0,-1,1119,1261,0,0
-98,-237,0,0,0,0,0,0,0,0,0,-1,1126,1261,0,0
-91,-237,0,0,0,0,0,0,0,0,0,-1,1133,1261,0,0
-84,-237,0,0,0,0,0,0,0,0,0,-1,1140,1261,0,0
-77,-237,0,0,0,0,0,0,0,0,0,-1,1147,1261,0,0
-70,-237,0,0,0,0,0,0,0,0,0,-1,1154,1261,0,0
-63,-237,0,0,0,0,0,0,0,0,0,-1,1161,1261,0,0
-56,-237,0,0,0,0,0,0,0,0,0,-1,1168,1261,0,0
-49,-237,0,0,0,0,0,0,0,0,0,-1,1175,1261,0,0
-42,-237,0,0,0,0,0,0,0,0,0,-1,1182,1261,0,0
-35,-237,0,0,0,0,0,0,0,0,0,-1,1189,1261,0,0
-28,-237,0,0,0,0,0,0,0,0,0,-1,1196,1261,0,0
-21,-237,0,0,0,0,0,0,0,0,0,-1,1203,1261,0,0
-14,-237,0,0,0,0,0,0,0,0,0,-1,1210,1261,0,0
-7,-237,0,0,0,0,0,0,0,0,0,-1,1217,1261,0,0
0,-237,0,0,0,0,0,0,0,0,0,-1,1224,1261,0,0
7,-237,0,0,0,0,0,0,0,0,0,-1,1231,1261,0,0
14,-237,0,0,0,0,0,0,0,0,0,-1,1238,1261,0,0
21,-237,0,0,0,0,0,0,0,0,0,-1,1245,1261,0,0
28,-237,0,0,0,0,0,0,0,0,0,-1,1252,1261,0,0
35,-237,0,0,0,0,0,0,0,0,0,-1,1259,1261,0,0
42,-237,0,0,0,0,0,0,0,0,0,-1,1266,1261,0,0
49,-237,0,0,0,0,0,0,0,0,0,-1,1273,1261,0,0
56,-237,0,0,0,0,0,0,0,0,0,-1,1280,1261,0,0
63,-237,0,0,0,0,0,0,0,0,0,-1,1287,1261,0,0
70,-237,0,0,0,0,0,0,0,0,0,-1,1294,1261,0,0
77,-237,0,0,0,0,0,0,0,0,0,-1,1301,1261,0,0
84,-237,0,0,0,0,0,0,0,0,0,-1,1308,1261,0,0
91,-237,0,0,0,0,0,0,0,0,0,-1,1315,1261,0,0
98,-237,0,0,0,0,0,0,0,0,0,-1,1322,1261,0,0
105,-237,0,0,0,0,0,0,0,0,0,-1,1329,1261,0,0
112,-237,0,0,0,0,0,0,0,0,0,-1,1336,1261,0,0
119,-237,0,0,0,0,0,0,0,0,0,-1,1343,1261,0,0
126,-237,0,0,0,0,0,0,0,0,0,-1,1350,1261,0,0
133,-237,0,0,0,0,0,0,0,0,0,-1,1357,1261,0,0
140,-237,0,0,0,0,0,0,0,0,0,-1,1364,1261,0,0
147,-237,0,0,0,0,0,0,0,0,0,-1,1371,1261,0,0
154,-237,0,0,0,0,0,0,0,0,0,-1,1378,1261,0,0
161,-237,0,0,0,0,0,0,0,0,0,-1,1385,1261,0,0
168,-237,0,0,0,0,0,0,0,0,0,-1,1392,1261,0,0
175,-237,0,0,0,0,0,0,0,0,0,-1,1399,1261,0,0
182,-237,0,0,0,0,0,0,0,0,0,-1,1406,1261,0,0
189,-237,0,0,0,0,0,0,0,0,0,-1,1413,1261,0,0
196,-237,0,0,0,0,0,0,0,0,0,-1,1420,1261,0,0
203,-237,0,0,0,0,0,0,0,0,0,-1,1427,1261,0,0
210,-237,0,0,0,0,0,0,0,0,0,-1,1434,1261,0,0
217,-237,0,0,0,0,0,0,0,0,0,-1,1441,1261,0,0
224,-237,0,0,0,0,0,0,0,0,0,-1,1448,1261,0,0
231,-237,0,0,0,0,0,0,0,0,0,-1,1455,1261,0,0
238,-237,0,0,0,0,0,0,0,0,0,-1,1462,1261,0,0
245,-237,0,0,0,0,0,0,0,0,0,-1,1469,1261,0,0
252,-237,0,0,0,0,0,0,0,0,0,-1,1476,1261,0,0
259,-237,0,0,0,0,0,0,0,0,0,-1,1483,1261,0,0
266,-237,0,0,0,0,0,0,0,0,0,-1,1490,1261,0,0
273,-237,0,0,0,0,0,0,0,0,0,-1,1497,1261,0,0
280,-237,0,0,0,0,0,0,0,0,0,-1,1504,1261,0,0
287,-237,0,0,0,0,0,0,0,0,0,-1,1511,1261,0,0
294,-237,0,0,0,0,0,0,0,0,0,-1,1518,1261,0,0
301,-237,0,0,0,0,0,0,0,0,0,-1,1525,1261,0,0
308,-237,0,0,0,0,0,0,0,0,0,-1,1532,1261,0,0
315,-237,0,0,0,0,0,0,0,0,0,-1,1539,1261,0,0
322,-237,0,0,0,0,0,0,0,0,0,-1,1546,1261,0,0
329,-237,0,0,0,0,0,0,0,0,0,-1,1553,1261,0,0
336,-237,0,0,0,0,0,0,0,0,0,-1,1560,1261,0,0
343,-237,0,0,0,0,0,0,0,0,0,-1,1567,1261,0,0
350,-237,0,0,0,0,0,0,0,0,0,-1,1574,1261,0,0
357,-237,0,0,0,0,0,0,0,0,0,-1,1581,1261,0,0
364,-237,0,0,0,0,0,0,0,0,0,-1,1588,1261,0,0
371,-237,0,0,0,0,0,0,0,0,0,-1,1595,1261,0,0
378,-237,0,0,0,0,0,0,0,0,0,-1,1602,1261,0,0
385,-237,0,0,0,0,0,0,0,0,0,-1,1609,1261,0,0
392,-237,0,0,0,0,0,0,0,0,0,-1,1616,1261,0,0
399,-237,0,0,0,0,0,0,0,0,0,-1,1623,1261,0,0
406,-237,0,0,0,0,0,0,0,0,0,-1,1630,1261,0,0
413,-237,0,0,0,0,0,0,0,0,0,-1,1637,1261,0,0
420,-237,0,0,0,0,0,0,0,0,0,-1,1644,1261,0,0
427,-237,0,0,0,0,0,0,0,0,0,-1,1651,1261,0,0
434,-237,0,0,0,0,0,0,0,0,0,-1,1658,1261,0,0
441,-237,0,0,0,0,0,0,0,0,0,-1,1665,1261,0,0
448,-237,0,0,0,0,0,0,0,0,0,-1,1672,1261,0,0
455,-237,0,0,0,0,0,0,0,0,0,-1,1679,1261,0,0
462,-237,0,0,0,0,0,0,0,0,0,-1,1686,1261,0,0
469,-237,0,0,0,0,0,0,0,0,0,-1,1693,1261,0,0
476,-237,0,0,0,0,0,0,0,0,0,-1,1700,1261,0,0
483,-237,0,0,0,0,0,0,0,0,0,-1,1707,1261,0,0
490,-237,0,0,0,0,0,0,0,0,0,-1,1714,1261,0,0
497,-237,0,0,0,0,0,0,0,0,0,-1,1721,1261,0,0
504,-237,0,0,0,0,0,0,0,0,0,-1,1728,1261,0,0
511,-237,0,0,0,0,0,0,0,0,0,-1,1735,1261,0,0
518,-237,0,0,0,0,0,0,0,0,0,-1,1742,1261,0,0
525,-237,0,0,0,0,0,0,0,0,0,-1,1749,1261,0,0
532,-237,0,0,0,0,0,0,0,0,0,-1,1756,1261,0,0
539,-237,0,0,0,0,0,0,0,0,0,-1,1763,1261,0,0
546,-237,0,0,0,0,0,0,0,0,0,-1,1770,1261,0,0
553,-237,0,0,0,0,0,0,0,0,0,-1,1777,1261,0,0
560,-237,0,0,0,0,0,0,0,0,0,-1,1784,1261,0,0
567,-237,0,0,0,0,0,0,0,0,0,-1,1791,1261,0,0
574,-237,0,0,0,0,0,0,0,0,0,-1,1798,1261,0,0
581,-237,0,0,0,0,0,0,0,0,0,-1,1805,1261,0,0
588,-237,0,0,0,0,0,0,0,0,0,-1,1812,1261,0,0
595,-237,0,0,0,0,0,0,0,0,0,-1,1819,1261,0,0
602,-237,0,0,0,0,0,0,0,0,0,-1,1826,1261,0,0
609,-237,0,0,0,0,0,0,0,0,0,-1,1833,1261,0,0
616,-237,74.3279,2.36157,0.00379757,0.00763203,-0.00438286,0.0104986,0.000930952,-0.991577,0.00671034,0.0373213,1840,1261,74.3279,-2.36154
623,-237,74.3624,2.38477,-0.00295945,0.0117924,-0.00473521,0.0131815,-0.0043486,-1.28544,0.0105406,0.033495,1847,1261,74.3624,-2.38482
630,-237,74.3337,2.32849,-0.00918359,0.0156729,-0.00502093,0.0166488,-0.0101595,-1.37882,0.0156282,0.0265474,1854,1261,74.3337,-2.32846
637,-237,74.196,2.16125,-0.0135004,0.0182634,-0.00512248,0.0190691,-0.0143061,-1.4148,0.0193344,0.0213658,1861,1261,74.1961,-2.16121
644,-237,73.9618,1.90723,-0.0111101,0.015861,-0.00469079,0.0166535,-0.0119027,-1.40342,0.0165628,0.0408357,1868,1261,73.9618,-1.90723
651,-237,74.0331,1.96826,0,0,0,0,0,0,0,-1,1875,1261,74.0331,-1.9683
658,-237,72.811,0.973877,0,0,0,0,0,0,0,-1,1882,1261,72.8111,-0.973872
665,-237,57.9302,3.30676,0,0,0,0,0,0,0,-1,1889,1261,57.9302,-3.30671
672,-237,45.3922,1.95618,0,0,0,0,0,0,0,-1,1896,1261,45.3922,-1.95623
679,-237,23.1501,7.37488,0,0,0,0,0,0,0,-1,1903,1261,23.1502,-7.37493
686,-237,36.8348,9.99426,0,0,0,0,0,0,0,-1,1910,1261,36.8349,-9.99424
693,-237,55.5347,13.6157,0,0,0,0,0,0,0,-1,1917,1261,55.5347,-13.6157
700,-237,55.793,12.7584,0.000737976,-0.000520363,0.000681982,0.00103668,-0.00081907,0.412828,0.00107387,0.0362274,1924,1261,55.7929,-12.7584
707,-237,55.6713,12.072,0.000385937,-0.00109052,0.000825038,0.000754808,-0.00145939,0.420436,0.00129976,0.0226853,1931,1261,55.6713,-12.072
714,-237,55.605,11.3353,-0.000393465,-0.00098969,0.00133832,0.000679545,-0.0020627,0.675812,0.001649,0.0171679,1938,1261,55.605,-11.3353
721,-237,55.5308,10.6437,-0.00122607,-0.000814018,0.00196836,0.000959073,-0.00299916,0.837542,0.00238432,0.0189869,1945,1261,55.5308,-10.6436
728,-237,55.5308,9.88281,-0.00198213,-0.000719926,0.0026038,0.00132817,-0.00403022,0.904294,0.00322211,0.0159452,1952,1261,55.5308,-9.88284
735,-237,55.4956,9.15454,-0.00279194,-0.000631302,0.00336871,0.00182608,-0.00524932,0.940563,0.00424136,0.0204824,1959,1261,55.4956,-9.15451
742,-237,55.4445,8.45081,-0.00363808,-0.00069079,0.00433949,0.00241845,-0.00674732,0.949083,0.00548506,0.0163037,1966,1261,55.4445,-8.45085
749,-237,55.3734,7.7406,-0.00446141,-0.000932063,0.00551931,0.00309782,-0.00849129,0.940126,0.0069283,0.0104683,1973,1261,55.3735,-7.74055
756,-237,55.3236,7.03333,-0.00532374,-0.00143519,0.00709979,0.00398173,-0.0107407,0.919046,0.0087935,0.0173356,1980,1261,55.3236,-7.03326
763,-237,55.3062,6.31287,0,0,0,0,0,0,0,-1,1987,1261,55.3062,-6.31284
770,-237,54.7881,5.09961,0,0,0,0,0,0,0,-1,1994,1261,54.7882,-5.09962
777,-237,54.4185,3.49426,0,0,0,0,0,0,0,-1,2001,1261,54.4184,-3.4943
784,-237,36.3441,1.68591,0,0,0,0,0,0,0,-1,2008,1261,36.3441,-1.68592
791,-237,32.3025,6.03235,0,0,0,0,0,0,0,-1,2015,1261,32.3025,-6.03229
798,-237,0,0,0,0,0,0,0,0,0,-1,2022,1261,0,0
805,-237,0,0,0,0,0,0,0,0,0,-1,2029,1261,0,0
812,-237,0,0,0,0,0,0,0,0,0,-1,2036,1261,0,0
-700,-244,0,0,0,0,0,0,0,0,0,-1,524,1268,0,0
-693,-244,0,0,0,0,0,0,0,0,0,-1,531,1268,0,0
-686,-244,0,0,0,0,0,0,0,0,0,-1,538,1268,0,0
-679,-244,0,0,0,0,0,0,0,0,0,-1,545,1268,0,0
-672,-244,-44.7993,4.39575,0,0,0,0,0,0,0,-1,552,1268,-44.7992,-4.39576
-665,-244,-46.0868,3.64392,0,0,0,0,0,0,0,-1,559,1268,-46.0868,-3.64391
-658,-244,-45.9758,2.05481,0,0,0,0,0,0,0,-1,566,1268,-45.9758,-2.05486
-651,-244,-46.4749,1.28564,0,0,0,0,0,0,0,-1,573,1268,-46.4749,-1.28561
-644,-244,-32.7362,1.51355,0,0,0,0,0,0,0,-1,580,1268,-32.7362,-1.51355
-637,-244,-34.8414,3.00073,0,0,0,0,0,0,0,-1,587,1268,-34.8414,-3.00078
-630,-244,-38.7813,4.92639,0,0,0,0,0,0,0,-1,594,1268,-38.7813,-4.92634
-623,-244,-38.148,5.75,0.00913556,0.00165498,-0.00200987,0.00964137,0.00114917,-0.246542,0.00608083,0.0431815,601,1268,-38.148,-5.74999
-616,-244,-37.7195,6.55359,0.00678157,0.00165476,-0.00146336,0.00716985,0.00126648,-0.259361,0.00441866,0.0196548,608,1268,-37.7196,-6.55364
-609,-244,-37.8091,7.30701,0.00467676,0.00177783,-0.00120942,0.00511506,0.00133953,-0.347682,0.00306278,0.0156536,615,1268,-37.8091,-7.30701
-602,-244,-37.8504,8.07104,0.00303775,0.00146792,-0.00123318,0.00371462,0.000791047,-0.501985,0.00225938,0.0158776,622,1268,-37.8504,-8.07098
-595,-244,-37.8918,8.87231,0.00178854,0.00109533,-0.00145469,0.00293734,-5.34806e-05,-0.668445,0.0019763,0.0162095,629,1268,-37.8919,-8.87236
-588,-244,-37.9462,9.63965,0.000848418,0.000602929,-0.00184398,0.00257373,-0.00112238,-0.752165,0.0021881,0.0209297,636,1268,-37.9462,-9.63968
-581,-244,-37.9981,10.3833,0.000169598,-6.21842e-05,-0.00238513,0.00244165,-0.00233423,-0.761123,0.00275759,0.018625,643,1268,-37.9981,-10.3833
-574,-244,-38.0265,11.1202,-0.000298449,-0.000979704,-0.00302753,0.00240756,-0.00368571,-0.729379,0.00354366,0.0266156,650,1268,-38.0265,-11.1202
-567,-244,-38.1355,11.8826,0.000182131,-0.00227058,-0.00405671,0.0031938,-0.00528225,-0.638614,0.00494291,0.0365151,657,1268,-38.1355,-11.8826
-560,-244,-38.1584,12.5774,0.000789271,-0.0038578,-0.00493419,0.00391963,-0.00698816,-0.565347,0.00638014,0.0433889,664,1268,-38.1585,-12.5774
-553,-244,-38.0668,13.2882,0,0,0,0,0,0,0,-1,671,1268,-38.0668,-13.2882
-546,-244,-11.2686,4.41772,0,0,0,0,0,0,0,-1,678,1268,-11.2686,-4.41767
-539,-244,-12.8706,0.3302,0,0,0,0,0,0,0,-1,685,1268,-12.8706,-0.330156
-532,-244,-18.1502,0.816528,0,0,0,0,0,0,0,-1,692,1268,-18.1502,-0.816514
-525,-244,-33.0835,0.693604,0,0,0,0,0,0,0,-1,699,1268,-33.0835,-0.69365
-518,-244,-47.5015,0.609131,0,0,0,0,0,0,0,-1,706,1268,-47.5015,-0.60919
-511,-244,-48.6138,1.11877,0,0,0,0,0,0,0,-1,713,1268,-48.6138,-1.11872
-504,-244,-56.8759,0.224976,0,0,0,0,0,0,0,-1,720,1268,-56.8759,-0.225002
-497,-244,-57.0493,0.382813,0,0,0,0,0,0,0,-1,727,1268,-57.0492,-0.382869
-490,-244,0,0,0,0,0,0,0,0,0,-1,734,1268,0,0
-483,-244,0,0,0,0,0,0,0,0,0,-1,741,1268,0,0
-476,-244,0,0,0,0,0,0,0,0,0,-1,748,1268,0,0
-469,-244,0,0,0,0,0,0,0,0,0,-1,755,1268,0,0
-462,-244,0,0,0,0,0,0,0,0,0,-1,762,1268,0,0
-455,-244,0,0,0,0,0,0,0,0,0,-1,769,1268,0,0
-448,-244,0,0,0,0,0,0,0,0,0,-1,776,1268,0,0
-441,-244,0,0,0,0,0,0,0,0,0,-1,783,1268,0,0
-434,-244,0,0,0,0,0,0,0,0,0,-1,790,1268,0,0
-427,-244,0,0,0,0,0,0,0,0,0,-1,797,1268,0,0
-420,-244,0,0,0,0,0,0,0,0,0,-1,804,1268,0,0
-413,-244,0,0,0,0,0,0,0,0,0,-1,811,1268,0,0
-406,-244,0,0,0,0,0,0,0,0,0,-1,818,1268,0,0
-399,-244,0,0,0,0,0,0,0,0,0,-1,825,1268,0,0
-392,-244,0,0,0,0,0,0,0,0,0,-1,832,1268,0,0
-385,-244,0,0,0,0,0,0,0,0,0,-1,839,1268,0,0
-378,-244,0,0,0,0,0,0,0,0,0,-1,846,1268,0,0
-371,-244,0,0,0,0,0,0,0,0,0,-1,853,1268,0,0
-364,-244,0,0,0,0,0,0,0,0,0,-1,860,1268,0,0
-357,-244,0,0,0,0,0,0,0,0,0,-1,867,1268,0,0
-350,-244,0,0,0,0,0,0,0,0,0,-1,874,1268,0,0
-343,-244,0,0,0,0,0,0,0,0,0,-1,881,1268,0,0
-336,-244,0,0,0,0,0,0,0,0,0,-1,888,1268,0,0
-329,-244,0,0,0,0,0,0,0,0,0,-1,895,1268,0,0
-322,-244,0,0,0,0,0,0,0,0,0,-1,902,1268,0,0
-315,-244,0,0,0,0,0,0,0,0,0,-1,909,1268,0,0
-308,-244,0,0,0,0,0,0,0,0,0,-1,916,1268,0,0
-301,-244,0,0,0,0,0,0,0,0,0,-1,923,1268,0,0
-294,-244,0,0,0,0,0,0,0,0,0,-1,930,1268,0,0
-287,-244,0,0,0,0,0,0,0,0,0,-1,937,1268,0,0
-280,-244,0,0,0,0,0,0,0,0,0,-1,944,1268,0,0
-273,-244,0,0,0,0,0,0,0,0,0,-1,951,1268,0,0
-266,-244,0,0,0,0,0,0,0,0,0,-1,958,1268,0,0
-259,-244,0,0,0,0,0,0,0,0,0,-1,965,1268,0,0
-252,-244,0,0,0,0,0,0,0,0,0,-1,972,1268,0,0
-245,-244,0,0,0,0,0,0,0,0,0,-1,979,1268,0,0
-238,-244,0,0,0,0,0,0,0,0,0,-1,986,1268,0,0
-231,-244,0,0,0,0,0,0,0,0,0,-1,993,1268,0,0
-224,-244,0,0,0,0,0,0,0,0,0,-1,1000,1268,0,0
-217,-244,0,0,0,0,0,0,0,0,0,-1,1007,1268,0,0
-210,-244,0,0,0,0,0,0,0,0,0,-1,1014,1268,0,0
-203,-244,0,0,0,0,0,0,0,0,0,-1,1021,1268,0,0
-196,-244,0,0,0,0,0,0,0,0,0,-1,1028,1268,0,0
-189,-244,0,0,0,0,0,0,0,0,0,-1,1035,1268,0,0
-182,-244,0,0,0,0,0,0,0,0,0,-1,1042,1268,0,0
-175,-244,0,0,0,0,0,0,0,0,0,-1,1049,1268,0,0
-168,-244,0,0,0,0,0,0,0,0,0,-1,1056,1268,0,0
-161,-244,0,0,0,0,0,0,0,0,0,-1,1063,1268,0,0
-154,-244,0,0,0,0,0,0,0,0,0,-1,1070,1268,0,0
-147,-244,0,0,0,0,0,0,0,0,0,-1,1077,1268,0,0
-140,-244,0,0,0,0,0,0,0,0,0,-1,1084,1268,0,0
-133,-244,0,0,0,0,0,0,0,0,0,-1,1091,1268,0,0
-126,-244,0,0,0,0,0,0,0,0,0,-1,1098,1268,0,0
-119,-244,0,0,0,0,0,0,0,0,0,-1,1105,1268,0,0
-112,-244,0,0,0,0,0,0,0,0,0,-1,1112,1268,0,0
-105,-244,0,0,0,0,0,0,0,0,0,-1,1119,1268,0,0
-98,-244,0,0,0,0,0,0,0,0,0,-1,1126,1268,0,0
-91,-244,0,0,0,0,0,0,0,0,0,-1,1133,1268,0,0
-84,-244,0,0,0,0,0,0,0,0,0,-1,1140,1268,0,0
-77,-244,0,0,0,0,0,0,0,0,0,-1,1147,1268,0,0
-70,-244,0,0,0,0,0,0,0,0,0,-1,1154,1268,0,0
-63,-244,0,0,0,0,0,0,0,0,0,-1,1161,1268,0,0
-56,-244,0,0,0,0,0,0,0,0,0,-1,1168,1268,0,0
-49,-244,0,0,0,0,0,0,0,0,0,-1,1175,1268,0,0
-42,-244,0,0,0,0,0,0,0,0,0,-1,1182,1268,0,0
-35,-244,0,0,0,0,0,0,0,0,0,-1,1189,1268,0,0
-28,-244,0,0,0,0,0,0,0,0,0,-1,1196,1268,0,0
-21,-244,0,0,0,0,0,0,0,0,0,-1,1203,1268,0,0
-14,-244,0,0,0,0,0,0,0,0,0,-1,1210,1268,0,0
-7,-244,0,0,0,0,0,0,0,0,0,-1,1217,1268,0,0
0,-244,0,0,0,0,0,0,0,0,0,-1,1224,1268,0,0
7,-244,0,0,0,0,0,0,0,0,0,-1,1231,1268,0,0
14,-244,0,0,0,0,0,0,0,0,0,-1,1238,1268,0,0
21,-244,0,0,0,0,0,0,0,0,0,-1,1245,1268,0,0
28,-244,0,0,0,0,0,0,0,0,0,-1,1252,1268,0,0
35,-244,0,0,0,0,0,0,0,0,0,-1,1259,1268,0,0
42,-244,0,0,0,0,0,0,0,0,0,-1,1266,1268,0,0
49,-244,0,0,0,0,0,0,0,0,0,-1,1273,1268,0,0
56,-244,0,0,0,0,0,0,0,0,0,-1,1280,1268,0,0
63,-244,0,0,0,0,0,0,0,0,0,-1,1287,1268,0,0
70,-244,0,0,0,0,0,0,0,0,0,-1,1294,1268,0,0
77,-244,0,0,0,0,0,0,0,0,0,-1,1301,1268,0,0
84,-244,0,0,0,0,0,0,0,0,0,-1,1308,1268,0,0
91,-244,0,0,0,0,0,0,0,0,0,-1,1315,1268,0,0
98,-244,0,0,0,0,0,0,0,0,0,-1,1322,1268,0,0
105,-244,0,0,0,0,0,0,0,0,0,-1,1329,1268,0,0
112,-244,0,0,0,0,0,0,0,0,0,-1,1336,1268,0,0
119,-244,0,0,0,0,0,0,0,0,0,-1,1343,1268,0,0
126,-244,0,0,0,0,0,0,0,0,0,-1,1350,1268,0,0
133,-244,0,0,0,0,0,0,0,0,0,-1,1357,1268,0,0
140,-244,0,0,0,0,0,0,0,0,0,-1,1364,1268,0,0
147,-244,0,0,0,0,0,0,0,0,0,-1,1371,1268,0,0
154,-244,0,0,0,0,0,0,0,0,0,-1,1378,1268,0,0
161,-244,0,0,0,0,0,0,0,0,0,-1,1385,1268,0,0
168,-244,0,0,0,0,0,0,0,0,0,-1,1392,1268,0,0
175,-244,0,0,0,0,0,0,0,0,0,-1,1399,1268,0,0
182,-244,0,0,0,0,0,0,0,0,0,-1,1406,1268,0,0
189,-244,0,0,0,0,0,0,0,0,0,-1,1413,1268,0,0
196,-244,0,0,0,0,0,0,0,0,0,-1,1420,1268,0,0
203,-244,0,0,0,0,0,0,0,0,0,-1,1427,1268,0,0
210,-244,0,0,0,0,0,0,0,0,0,-1,1434,1268,0,0
217,-244,0,0,0,0,0,0,0,0,0,-1,1441,1268,0,0
224,-244,0,0,0,0,0,0,0,0,0,-1,1448,1268,0,0
231,-244,0,0,0,0,0,0,0,0,0,-1,1455,1268,0,0
238,-244,0,0,0,0,0,0,0,0,0,-1,1462,1268,0,0
245,-244,0,0,0,0,0,0,0,0,0,-1,1469,1268,0,0
252,-244,0,0,0,0,0,0,0,0,0,-1,1476,1268,0,0
259,-244,0,0,0,0,0,0,0,0,0,-1,1483,1268,0,0
266,-244,0,0,0,0,0,0,0,0,0,-1,1490,1268,0,0
273,-244,0,0,0,0,0,0,0,0,0,-1,1497,1268,0,0
280,-244,0,0,0,0,0,0,0,0,0,-1,1504,1268,0,0
287,-244,0,0,0,0,0,0,0,0,0,-1,1511,1268,0,0
294,-244,0,0,0,0,0,0,0,0,0,-1,1518,1268,0,0
301,-244,0,0,0,0,0,0,0,0,0,-1,1525,1268,0,0
308,-244,0,0,0,0,0,0,0,0,0,-1,1532,1268,0,0
315,-244,0,0,0,0,0,0,0,0,0,-1,1539,1268,0,0
322,-244,0,0,0,0,0,0,0,0,0,-1,1546,1268,0,0
329,-244,0,0,0,0,0,0,0,0,0,-1,1553,1268,0,0
336,-244,0,0,0,0,0,0,0,0,0,-1,1560,1268,0,0
343,-244,0,0,0,0,0,0,0,0,0,-1,1567,1268,0,0
350,-244,0,0,0,0,0,0,0,0,0,-1,1574,1268,0,0
357,-244,0,0,0,0,0,0,0,0,0,-1,1581,1268,0,0
364,-244,0,0,0,0,0,0,0,0,0,-1,1588,1268,0,0
371,-244,0,0,0,0,0,0,0,0,0,-1,1595,1268,0,0
378,-244,0,0,0,0,0,0,0,0,0,-1,1602,1268,0,0
385,-244,0,0,0,0,0,0,0,0,0,-1,1609,1268,0,0
392,-244,0,0,0,0,0,0,0,0,0,-1,1616,1268,0,0
399,-244,0,0,0,0,0,0,0,0,0,-1,1623,1268,0,0
406,-244,0,0,0,0,0,0,0,0,0,-1,1630,1268,0,0
413,-244,0,0,0,0,0,0,0,0,0,-1,1637,1268,0,0
420,-244,0,0,0,0,0,0,0,0,0,-1,1644,1268,0,0
427,-244,0,0,0,0,0,0,0,0,0,-1,1651,1268,0,0
434,-244,0,0,0,0,0,0,0,0,0,-1,1658,1268,0,0
441,-244,0,0,0,0,0,0,0,0,0,-1,1665,1268,0,0
448,-244,0,0,0,0,0,0,0,0,0,-1,1672,1268,0,0
455,-244,0,0,0,0,0,0,0,0,0,-1,1679,1268,0,0
462,-244,0,0,0,0,0,0,0,0,0,-1,1686,1268,0,0
469,-244,0,0,0,0,0,0,0,0,0,-1,1693,1268,0,0
476,-244,0,0,0,0,0,0,0,0,0,-1,1700,1268,0,0
483,-244,0,0,0,0,0,0,0,0,0,-1,1707,1268,0,0
490,-244,0,0,0,0,0,0,0,0,0,-1,1714,1268,0,0
497,-244,0,0,0,0,0,0,0,0,0,-1,1721,1268,0,0
504,-244,0,0,0,0,0,0,0,0,0,-1,1728,1268,0,0
511,-244,0,0,0,0,0,0,0,0,0,-1,1735,1268,0,0
518,-244,0,0,0,0,0,0,0,0,0,-1,1742,1268,0,0
525,-244,0,0,0,0,0,0,0,0,0,-1,1749,1268,0,0
532,-244,0,0,0,0,0,0,0,0,0,-1,1756,1268,0,0
539,-244,0,0,0,0,0,0,0,0,0,-1,1763,1268,0,0
546,-244,0,0,0,0,0,0,0,0,0,-1,1770,1268,0,0
553,-244,0,0,0,0,0,0,0,0,0,-1,1777,1268,0,0
560,-244,0,0,0,0,0,0,0,0,0,-1,1784,1268,0,0
567,-244,0,0,0,0,0,0,0,0,0,-1,1791,1268,0,0
574,-244,0,0,0,0,0,0,0,0,0,-1,1798,1268,0,0
581,-244,0,0,0,0,0,0,0,0,0,-1,1805,1268,0,0
588,-244,0,0,0,0,0,0,0,0,0,-1,1812,1268,0,0
595,-244,0,0,0,0,0,0,0,0,0,-1,1819,1268,0,0
602,-244,0,0,0,0,0,0,0,0,0,-1,1826,1268,0,0
609,-244,0,0,0,0,0,0,0,0,0,-1,1833,1268,0,0
616,-244,74.2709,2.14697,-0.0010736,0.0104214,-0.00470983,0.0121046,-0.00275687,-1.22755,0.00912855,0.0345357,1840,1268,74.2709,-2.14697
623,-244,74.299,2.27588,-0.00865264,0.0153152,-0.00523425,0.0164085,-0.00974586,-1.3649,0.0152626,0.0276524,1847,1268,74.299,-2.27593
630,-244,74.2441,2.27466,-0.0154336,0.0196401,-0.00561022,0.0205157,-0.0163091,-1.41599,0.021307,0.0248219,1854,1268,74.2442,-2.27471
637,-244,74.0992,2.03394,-0.0179491,0.0209467,-0.00556065,0.0217261,-0.0187284,-1.43155,0.0233778,0.0406777,1861,1268,74.0992,-2.03389
644,-244,73.6525,1.59814,-0.0135279,0.0170897,-0.00490064,0.017855,-0.0142932,-1.41589,0.0185987,0.0478772,1868,1268,73.6524,-1.5982
651,-244,73.4141,1.35437,0,0,0,0,0,0,0,-1,1875,1268,73.4141,-1.3544
658,-244,71.6105,1.55334,0,0,0,0,0,0,0,-1,1882,1268,71.6104,-1.55332
665,-244,50.7988,1.09888,0,0,0,0,0,0,0,-1,1889,1268,50.7989,-1.09893
672,-244,32.224,3.6123,0,0,0,0,0,0,0,-1,1896,1268,32.224,-3.6123
679,-244,27.2593,7.90649,0,0,0,0,0,0,0,-1,1903,1268,27.2592,-7.9065
686,-244,54.9093,14.2522,0,0,0,0,0,0,0,-1,1910,1268,54.9094,-14.2522
693,-244,54.8862,13.6029,-0.000193144,0.00126181,0.000286983,0.00131637,-0.000247705,1.38292,0.000970741,0.0398974,1917,1268,54.8862,-13.603
700,-244,54.9412,12.8561,0.000907797,-0.000747414,0.000612097,0.00110956,-0.000949175,0.318406,0.00118981,0.0137665,1924,1268,54.9412,-12.8561
707,-244,54.9061,12.126,0.000407806,-0.00122804,0.00083245,0.000756918,-0.00157715,0.3971,0.00137503,0.0124481,1931,1268,54.9061,-12.126
714,-244,54.9493,11.3939,-0.0004844,-0.00103248,0.0013901,0.000658411,-0.00217529,0.688078,0.00171239,0.0165491,1938,1268,54.9494,-11.3939
721,-244,54.8279,10.7157,-0.00138337,-0.000782802,0.00203029,0.000969287,-0.00313546,0.858817,0.00247743,0.022737,1945,1268,54.8279,-10.7158
728,-244,54.7843,9.91138,-0.00222827,-0.000620072,0.00271376,0.00140621,-0.00425456,0.92943,0.00340336,0.0285865,1952,1268,54.7843,-9.91132
735,-244,54.7241,9.09729,-0.00312893,-0.000524325,0.00354036,0.00194566,-0.00559891,0.961639,0.00452287,0.0276705,1959,1268,54.7241,-9.09732
742,-244,54.6508,8.4967,-0.00407004,-0.000559754,0.00456164,0.00257275,-0.00720254,0.969049,0.00585096,0.0176408,1966,1268,54.6508,-8.49668
749,-244,54.4918,7.88257,-0.00500122,-0.000764493,0.0057926,0.00328494,-0.00905065,0.960695,0.00737672,0.0259985,1973,1268,54.4918,-7.88257
756,-244,54.2839,7.33459,-0.00601532,-0.00122085,0.00747865,0.00423538,-0.0114716,0.940496,0.00938371,0.0358032,1980,1268,54.2839,-7.33456
763,-244,54.2101,6.57178,0,0,0,0,0,0,0,-1,1987,1268,54.2101,-6.57178
770,-244,53.8104,4.70557,0,0,0,0,0,0,0,-1,1994,1268,53.8104,-4.70556
777,-244,48.7119,2.7002,0,0,0,0,0,0,0,-1,2001,1268,48.712,-2.70019
784,-244,31.7908,5.20081,0,0,0,0,0,0,0,-1,2008,1268,31.7907,-5.20083
791,-244,0,0,0,0,0,0,0,0,0,-1,2015,1268,0,0
798,-244,0,0,0,0,0,0,0,0,0,-1,2022,1268,0,0
805,-244,0,0,0,0,0,0,0,0,0,-1,2029,1268,0,0
812,-244,0,0,0,0,0,0,0,0,0,-1,2036,1268,0,0
-700,-251,0,0,0,0,0,0,0,0,0,-1,524,1275,0,0
-693,-251,0,0,0,0,0,0,0,0,0,-1,531,1275,0,0
-686,-251,0,0,0,0,0,0,0,0,0,-1,538,1275,0,0
-679,-251,0,0,0,0,0,0,0,0,0,-1,545,1275,0,0
-672,-251,0,0,0,0,0,0,0,0,0,-1,552,1275,0,0
-665,-251,-45.2521,2.44568,0,0,0,0,0,0,0,-1,559,1275,-45.2521,-2.44573
-658,-251,-45.5222,1.44397,0,0,0,0,0,0,0,-1,566,1275,-45.5221,-1.44401
-651,-251,-45.8498,0.382935,0,0,0,0,0,0,0,-1,573,1275,-45.8498,-0.382965
-644,-251,-46.2018,-0.658325,0,0,0,0,0,0,0,-1,580,1275,-46.2019,0.658365
-637,-251,-35.2292,3.33899,0,0,0,0,0,0,0,-1,587,1275,-35.2292,-3.33904
-630,-251,-37.0374,5.08533,0,0,0,0,0,0,0,-1,594,1275,-37.0374,-5.0853
-623,-251,-37.0281,5.82739,0.0106347,0.00139953,-0.00172734,0.0109472,0.00108702,-0.178982,0.00696411,0.045649,601,1275,-37.0281,-5.82741
-616,-251,-36.988,6.58337,0.00777563,0.00149813,-0.00116622,0.00798528,0.00128848,-0.177873,0.00495024,0.02183,608,1275,-36.9879,-6.58343
-609,-251,-37.041,7.31213,0.00530767,0.00175987,-0.000877442,0.00551281,0.00155473,-0.229676,0.0032821,0.0199348,615,1275,-37.041,-7.31215
-602,-251,-37.0919,8.12598,0.00344089,0.0014313,-0.00086467,0.00376171,0.00111047,-0.355292,0.00223173,0.0149773,622,1275,-37.0919,-8.12601
-595,-251,-37.1276,8.89551,0.00204642,0.00102613,-0.00102991,0.00268561,0.000386941,-0.555447,0.00167638,0.013569,629,1275,-37.1276,-8.89545
-588,-251,-37.1643,9.65393,0.0010145,0.000512526,-0.00132118,0.00210832,-0.000581301,-0.691531,0.00163415,0.0157193,636,1275,-37.1643,-9.65387
-581,-251,-37.207,10.4403,0.000264491,-0.000162298,-0.00172318,0.00178744,-0.00168525,-0.723793,0.00200524,0.0148298,643,1275,-37.207,-10.4403
-574,-251,-37.2466,11.2509,-0.000231642,-0.00104469,-0.00219429,0.00159347,-0.0028698,-0.693805,0.00261175,0.0175832,650,1275,-37.2466,-11.2509
-567,-251,-37.371,11.9987,-1.08422e-05,-0.00221737,-0.00289296,0.00198209,-0.0042103,-0.60323,0.00365151,0.0321231,657,1275,-37.3711,-11.9987
-560,-251,-37.3929,12.8785,0.000443424,-0.00357661,-0.00344791,0.00242443,-0.00555761,-0.521498,0.00472529,0.0478051,664,1275,-37.3929,-12.8786
-553,-251,-37.2186,13.6866,0,0,0,0,0,0,0,-1,671,1275,-37.2185,-13.6867
-546,-251,-12.995,4.5675,0,0,0,0,0,0,0,-1,678,1275,-12.995,-4.56745
-539,-251,-10.7916,0.366333,0,0,0,0,0,0,0,-1,685,1275,-10.7916,-0.366282
-532,-251,-10.7391,-0.00769043,0,0,0,0,0,0,0,-1,692,1275,-10.7391,0.00773227
-525,-251,-29.4286,-0.250244,0,0,0,0,0,0,0,-1,699,1275,-29.4286,0.250266
-518,-251,-32.6981,0.678833,0,0,0,0,0,0,0,-1,706,1275,-32.6981,-0.678787
-511,-251,-29.4731,0.637085,0,0,0,0,0,0,0,-1,713,1275,-29.4731,-0.637025
-504,-251,-30.6428,0.792358,0,0,0,0,0,0,0,-1,720,1275,-30.6427,-0.792335
-497,-251,-54.1249,0.753784,0,0,0,0,0,0,0,-1,727,1275,-54.1249,-0.753774
-490,-251,0,0,0,0,0,0,0,0,0,-1,734,1275,0,0
-483,-251,0,0,0,0,0,0,0,0,0,-1,741,1275,0,0
-476,-251,0,0,0,0,0,0,0,0,0,-1,748,1275,0,0
-469,-251,0,0,0,0,0,0,0,0,0,-1,755,1275,0,0
-462,-251,0,0,0,0,0,0,0,0,0,-1,762,1275,0,0
-455,-251,0,0,0,0,0,0,0,0,0,-1,769,1275,0,0
-448,-251,0,0,0,0,0,0,0,0,0,-1,776,1275,0,0
-441,-251,0,0,0,0,0,0,0,0,0,-1,783,1275,0,0
-434,-251,0,0,0,0,0,0,0,0,0,-1,790,1275,0,0
-427,-251,0,0,0,0,0,0,0,0,0,-1,797,1275,0,0
-420,-251,0,0,0,0,0,0,0,0,0,-1,804,1275,0,0
-413,-251,0,0,0,0,0,0,0,0,0,-1,811,1275,0,0
-406,-251,0,0,0,0,0,0,0,0,0,-1,818,1275,0,0
-399,-251,0,0,0,0,0,0,0,0,0,-1,825,1275,0,0
-392,-251,0,0,0,0,0,0,0,0,0,-1,832,1275,0,0
-385,-251,0,0,0,0,0,0,0,0,0,-1,839,1275,0,0
-378,-251,0,0,0,0,0,0,0,0,0,-1,846,1275,0,0
-371,-251,0,0,0,0,0,0,0,0,0,-1,853,1275,0,0
-364,-251,0,0,0,0,0,0,0,0,0,-1,860,1275,0,0
-357,-251,0,0,0,0,0,0,0,0,0,-1,867,1275,0,0
-350,-251,0,0,0,0,0,0,0,0,0,-1,874,1275,0,0
-343,-251,0,0,0,0,0,0,0,0,0,-1,881,1275,0,0
-336,-251,0,0,0,0,0,0,0,0,0,-1,888,1275,0,0
-329,-251,0,0,0,0,0,0,0,0,0,-1,895,1275,0,0
-322,-251,0,0,0,0,0,0,0,0,0,-1,902,1275,0,0
-315,-251,0,0,0,0,0,0,0,0,0,-1,909,1275,0,0
-308,-251,0,0,0,0,0,0,0,0,0,-1,916,1275,0,0
-301,-251,0,0,0,0,0,0,0,0,0,-1,923,1275,0,0
-294,-251,0,0,0,0,0,0,0,0,0,-1,930,1275,0,0
-287,-251,0,0,0,0,0,0,0,0,0,-1,937,1275,0,0
-280,-251,0,0,0,0,0,0,0,0,0,-1,944,1275,0,0
-273,-251,0,0,0,0,0,0,0,0,0,-1,951,1275,0,0
-266,-251,0,0,0,0,0,0,0,0,0,-1,958,1275,0,0
-259,-251,0,0,0,0,0,0,0,0,0,-1,965,1275,0,0
-252,-251,0,0,0,0,0,0,0,0,0,-1,972,1275,0,0
-245,-251,0,0,0,0,0,0,0,0,0,-1,979,1275,0,0
-238,-251,0,0,0,0,0,0,0,0,0,-1,986,1275,0,0
-231,-251,0,0,0,0,0,0,0,0,0,-1,993,1275,0,0
-224,-251,0,0,0,0,0,0,0,0,0,-1,1000,1275,0,0
-217,-251,0,0,0,0,0,0,0,0,0,-1,1007,1275,0,0
-210,-251,0,0,0,0,0,0,0,0,0,-1,1014,1275,0,0
-203,-251,0,0,0,0,0,0,0,0,0,-1,1021,1275,0,0
-196,-251,0,0,0,0,0,0,0,0,0,-1,1028,1275,0,0
-189,-251,0,0,0,0,0,0,0,0,0,-1,1035,1275,0,0
-182,-251,0,0,0,0,0,0,0,0,0,-1,1042,1275,0,0
-175,-251,0,0,0,0,0,0,0,0,0,-1,1049,1275,0,0
-168,-251,0,0,0,0,0,0,0,0,0,-1,1056,1275,0,0
-161,-251,0,0,0,0,0,0,0,0,0,-1,1063,1275,0,0
-154,-251,0,0,0,0,0,0,0,0,0,-1,1070,1275,0,0
-147,-251,0,0,0,0,0,0,0,0,0,-1,1077,1275,0,0
-140,-251,0,0,0,0,0,0,0,0,0,-1,1084,1275,0,0
-133,-251,0,0,0,0,0,0,0,0,0,-1,1091,1275,0,0
-126,-251,0,0,0,0,0,0,0,0,0,-1,1098,1275,0,0
-119,-251,0,0,0,0,0,0,0,0,0,-1,1105,1275,0,0
-112,-251,0,0,0,0,0,0,0,0,0,-1,1112,1275,0,0
-105,-251,0,0,0,0,0,0,0,0,0,-1,1119,1275,0,0
-98,-251,0,0,0,0,0,0,0,0,0,-1,1126,1275,0,0
-91,-251,0,0,0,0,0,0,0,0,0,-1,1133,1275,0,0
-84,-251,0,0,0,0,0,0,0,0,0,-1,1140,1275,0,0
-77,-251,0,0,0,0,0,0,0,0,0,-1,1147,1275,0,0
-70,-251,0,0,0,0,0,0,0,0,0,-1,1154,1275,0,0
-63,-251,0,0,0,0,0,0,0,0,0,-1,1161,1275,0,0
-56,-251,0,0,0,0,0,0,0,0,0,-1,1168,1275,0,0
-49,-251,0,0,0,0,0,0,0,0,0,-1,1175,1275,0,0
-42,-251,0,0,0,0,0,0,0,0,0,-1,1182,1275,0,0
-35,-251,0,0,0,0,0,0,0,0,0,-1,1189,1275,0,0
-28,-251,0,0,0,0,0,0,0,0,0,-1,1196,1275,0,0
-21,-251,0,0,0,0,0,0,0,0,0,-1,1203,1275,0,0
-14,-251,0,0,0,0,0,0,0,0,0,-1,1210,1275,0,0
-7,-251,0,0,0,0,0,0,0,0,0,-1,1217,1275,0,0
0,-251,0,0,0,0,0,0,0,0,0,-1,1224,1275,0,0
7,-251,0,0,0,0,0,0,0,0,0,-1,1231,1275,0,0
14,-251,0,0,0,0,0,0,0,0,0,-1,1238,1275,0,0
21,-251,0,0,0,0,0,0,0,0,0,-1,1245,1275,0,0
28,-251,0,0,0,0,0,0,0,0,0,-1,1252,1275,0,0
35,-251,0,0,0,0,0,0,0,0,0,-1,1259,1275,0,0
42,-251,0,0,0,0,0,0,0,0,0,-1,1266,1275,0,0
49,-251,0,0,0,0,0,0,0,0,0,-1,1273,1275,0,0
56,-251,0,0,0,0,0,0,0,0,0,-1,1280,1275,0,0
63,-251,0,0,0,0,0,0,0,0,0,-1,1287,1275,0,0
70,-251,0,0,0,0,0,0,0,0,0,-1,1294,1275,0,0
77,-251,0,0,0,0,0,0,0,0,0,-1,1301,1275,0,0
84,-251,0,0,0,0,0,0,0,0,0,-1,1308,1275,0,0
91,-251,0,0,0,0,0,0,0,0,0,-1,1315,1275,0,0
98,-251,0,0,0,0,0,0,0,0,0,-1,1322,1275,0,0
105,-251,0,0,0,0,0,0,0,0,0,-1,1329,1275,0,0
112,-251,0,0,0,0,0,0,0,0,0,-1,1336,1275,0,0
119,-251,0,0,0,0,0,0,0,0,0,-1,1343,1275,0,0
126,-251,0,0,0,0,0,0,0,0,0,-1,1350,1275,0,0
133,-251,0,0,0,0,0,0,0,0,0,-1,1357,1275,0,0
140,-251,0,0,0,0,0,0,0,0,0,-1,1364,1275,0,0
147,-251,0,0,0,0,0,0,0,0,0,-1,1371,1275,0,0
154,-251,0,0,0,0,0,0,0,0,0,-1,1378,1275,0,0
161,-251,0,0,0,0,0,0,0,0,0,-1,1385,1275,0,0
168,-251,0,0,0,0,0,0,0,0,0,-1,1392,1275,0,0
175,-251,0,0,0,0,0,0,0,0,0,-1,1399,1275,0,0
182,-251,0,0,0,0,0,0,0,0,0,-1,1406,1275,0,0
189,-251,0,0,0,0,0,0,0,0,0,-1,1413,1275,0,0
196,-251,0,0,0,0,0,0,0,0,0,-1,1420,1275,0,0
203,-251,0,0,0,0,0,0,0,0,0,-1,1427,1275,0,0
210,-251,0,0,0,0,0,0,0,0,0,-1,1434,1275,0,0
217,-251,0,0,0,0,0,0,0,0,0,-1,1441,1275,0,0
224,-251,0,0,0,0,0,0,0,0,0,-1,1448,1275,0,0
231,-251,0,0,0,0,0,0,0,0,0,-1,1455,1275,0,0
238,-251,0,0,0,0,0,0,0,0,0,-1,1462,1275,0,0
245,-251,0,0,0,0,0,0,0,0,0,-1,1469,1275,0,0
252,-251,0,0,0,0,0,0,0,0,0,-1,1476,1275,0,0
259,-251,0,0,0,0,0,0,0,0,0,-1,1483,1275,0,0
266,-251,0,0,0,0,0,0,0,0,0,-1,1490,1275,0,0
273,-251,0,0,0,0,0,0,0,0,0,-1,1497,1275,0,0
280,-251,0,0,0,0,0,0,0,0,0,-1,1504,1275,0,0
287,-251,0,0,0,0,0,0,0,0,0,-1,1511,1275,0,0
294,-251,0,0,0,0,0,0,0,0,0,-1,1518,1275,0,0
301,-251,0,0,0,0,0,0,0,0,0,-1,1525,1275,0,0
308,-251,0,0,0,0,0,0,0,0,0,-1,1532,1275,0,0
315,-251,0,0,0,0,0,0,0,0,0,-1,1539,1275,0,0
322,-251,0,0,0,0,0,0,0,0,0,-1,1546,1275,0,0
329,-251,0,0,0,0,0,0,0,0,0,-1,1553,1275,0,0
336,-251,0,0,0,0,0,0,0,0,0,-1,1560,1275,0,0
343,-251,0,0,0,0,0,0,0,0,0,-1,1567,1275,0,0
350,-251,0,0,0,0,0,0,0,0,0,-1,1574,1275,0,0
357,-251,0,0,0,0,0,0,0,0,0,-1,1581,1275,0,0
364,-251,0,0,0,0,0,0,0,0,0,-1,1588,1275,0,0
371,-251,0,0,0,0,0,0,0,0,0,-1,1595,1275,0,0
378,-251,0,0,0,0,0,0,0,0,0,-1,1602,1275,0,0
385,-251,0,0,0,0,0,0,0,0,0,-1,1609,1275,0,0
392,-251,0,0,0,0,0,0,0,0,0,-1,1616,1275,0,0
399,-251,0,0,0,0,0,0,0,0,0,-1,1623,1275,0,0
406,-251,0,0,0,0,0,0,0,0,0,-1,1630,1275,0,0
413,-251,0,0,0,0,0,0,0,0,0,-1,1637,1275,0,0
420,-251,0,0,0,0,0,0,0,0,0,-1,1644,1275,0,0
427,-251,0,0,0,0,0,0,0,0,0,-1,1651,1275,0,0
434,-251,0,0,0,0,0,0,0,0,0,-1,1658,1275,0,0
441,-251,0,0,0,0,0,0,0,0,0,-1,1665,1275,0,0
448,-251,0,0,0,0,0,0,0,0,0,-1,1672,1275,0,0
455,-251,0,0,0,0,0,0,0,0,0,-1,1679,1275,0,0
462,-251,0,0,0,0,0,0,0,0,0,-1,1686,1275,0,0
469,-251,0,0,0,0,0,0,0,0,0,-1,1693,1275,0,0
476,-251,0,0,0,0,0,0,0,0,0,-1,1700,1275,0,0
483,-251,0,0,0,0,0,0,0,0,0,-1,1707,1275,0,0
490,-251,0,0,0,0,0,0,0,0,0,-1,1714,1275,0,0
497,-251,0,0,0,0,0,0,0,0,0,-1,1721,1275,0,0
504,-251,0,0,0,0,0,0,0,0,0,-1,1728,1275,0,0
511,-251,0,0,0,0,0,0,0,0,0,-1,1735,1275,0,0
518,-251,0,0,0,0,0,0,0,0,0,-1,1742,1275,0,0
525,-251,0,0,0,0,0,0,0,0,0,-1,1749,1275,0,0
532,-251,0,0,0,0,0,0,0,0,0,-1,1756,1275,0,0
539,-251,0,0,0,0,0,0,0,0,0,-1,1763,1275,0,0
546,-251,0,0,0,0,0,0,0,0,0,-1,1770,1275,0,0
553,-251,0,0,0,0,0,0,0,0,0,-1,1777,1275,0,0
560,-251,0,0,0,0,0,0,0,0,0,-1,1784,1275,0,0
567,-251,0,0,0,0,0,0,0,0,0,-1,1791,1275,0,0
574,-251,0,0,0,0,0,0,0,0,0,-1,1798,1275,0,0
581,-251,0,0,0,0,0,0,0,0,0,-1,1805,1275,0,0
588,-251,0,0,0,0,0,0,0,0,0,-1,1812,1275,0,0
595,-251,0,0,0,0,0,0,0,0,0,-1,1819,1275,0,0
602,-251,0,0,0,0,0,0,0,0,0,-1,1826,1275,0,0
609,-251,74.2467,2.22607,0.00146218,0.00865904,-0.00498357,0.0112075,-0.00108632,-1.09809,0.00785886,0.0316758,1833,1275,74.2467,-2.22604
616,-251,74.2699,2.22461,-0.00728702,0.0144626,-0.00556333,0.0158031,-0.00862745,-1.33436,0.0143063,0.0282912,1840,1275,74.2699,-2.22457
623,-251,74.2339,2.2074,-0.0154702,0.0196263,-0.00602283,0.0206311,-0.016475,-1.40549,0.021468,0.0248265,1847,1275,74.2339,-2.20735
630,-251,74.2046,2.12683,-0.0208414,0.0227946,-0.00610356,0.0236322,-0.021679,-1.43441,0.0261686,0.0346495,1854,1275,74.2046,-2.12689
637,-251,73.9246,1.54358,-0.0201663,0.021844,-0.00566752,0.0225952,-0.0209174,-1.43903,0.0251282,0.0403712,1861,1275,73.9246,-1.54364
644,-251,73.3577,1.27014,0,0,0,0,0,0,0,-1,1868,1275,73.3577,-1.27015
651,-251,72.5594,1.25842,0,0,0,0,0,0,0,-1,1875,1275,72.5595,-1.2584
658,-251,64.3931,2.57288,0,0,0,0,0,0,0,-1,1882,1275,64.393,-2.57287
665,-251,32.9579,2.60229,0,0,0,0,0,0,0,-1,1889,1275,32.9579,-2.60231
672,-251,26.0721,4.53064,0,0,0,0,0,0,0,-1,1896,1275,26.0721,-4.53063
679,-251,29.1344,8.63782,0,0,0,0,0,0,0,-1,1903,1275,29.1344,-8.63778
686,-251,54.3492,14.2935,0,0,0,0,0,0,0,-1,1910,1275,54.3493,-14.2935
693,-251,54.2228,13.6444,-5.65665e-05,0.00119253,0.000344036,0.00128102,-0.000145055,1.31905,0.000906244,0.0344416,1917,1275,54.2228,-13.6444
700,-251,54.1903,12.8999,0.00105476,-0.00089455,0.000668999,0.00126227,-0.00110206,0.300769,0.00136609,0.0117593,1924,1275,54.1903,-12.9
707,-251,54.1792,12.1584,0.000377243,-0.00122181,0.00091677,0.000794149,-0.00163872,0.426802,0.00143255,0.0122057,1931,1275,54.1792,-12.1585
714,-251,54.1835,11.416,-0.000607905,-0.00098308,0.00148856,0.000704839,-0.00229582,0.722719,0.00181179,0.0164597,1938,1275,54.1835,-11.4161
721,-251,54.0677,10.7384,-0.00157468,-0.000754851,0.00213895,0.00101312,-0.00334264,0.880071,0.00263195,0.0245764,1945,1275,54.0678,-10.7384
728,-251,54.0166,10.0463,-0.00250303,-0.000631941,0.00287784,0.0014586,-0.00459357,0.942553,0.00364714,0.0291063,1952,1275,54.0166,-10.0463
735,-251,54.0115,9.2041,-0.00346726,-0.000595334,0.00376307,0.00199645,-0.00605904,0.967667,0.00484398,0.0224047,1959,1275,54.0115,-9.20409
742,-251,53.9063,8.57788,-0.00445776,-0.000663727,0.00482072,0.0026198,-0.00774128,0.972849,0.0062208,0.0188617,1966,1275,53.9063,-8.57783
749,-251,53.6221,8.07898,-0.00542435,-0.000875902,0.00607346,0.00333517,-0.00963542,0.964544,0.00777747,0.0393958,1973,1275,53.6221,-8.07893
756,-251,53.374,7.49072,0,0,0,0,0,0,0,-1,1980,1275,53.374,-7.49067
763,-251,43.3652,5.7583,0,0,0,0,0,0,0,-1,1987,1275,43.3653,-5.75827
770,-251,49.4386,3.45508,0,0,0,0,0,0,0,-1,1994,1275,49.4386,-3.4551
777,-251,31.5731,4.33252,0,0,0,0,0,0,0,-1,2001,1275,31.5731,-4.33251
784,-251,32.0776,5.78247,0,0,0,0,0,0,0,-1,2008,1275,32.0776,-5.78247
791,-251,0,0,0,0,0,0,0,0,0,-1,2015,1275,0,0
798,-251,0,0,0,0,0,0,0,0,0,-1,2022,1275,0,0
805,-251,0,0,0,0,0,0,0,0,0,-1,2029,1275,0,0
812,-251,0,0,0,0,0,0,0,0,0,-1,2036,1275,0,0
-700,-258,0,0,0,0,0,0,0,0,0,-1,524,1282,0,0
-693,-258,0,0,0,0,0,0,0,0,0,-1,531,1282,0,0
-686,-258,0,0,0,0,0,0,0,0,0,-1,538,1282,0,0
-679,-258,0,0,0,0,0,0,0,0,0,-1,545,1282,0,0
-672,-258,0,0,0,0,0,0,0,0,0,-1,552,1282,0,0
-665,-258,-44.8717,2.03601,0,0,0,0,0,0,0,-1,559,1282,-44.8717,-2.03603
-658,-258,-45.2628,1.20544,0,0,0,0,0,0,0,-1,566,1282,-45.2627,-1.20545
-651,-258,-45.5418,0.0863037,0,0,0,0,0,0,0,-1,573,1282,-45.5418,-0.0863288
-644,-258,-45.1855,0.336792,0,0,0,0,0,0,0,-1,580,1282,-45.1855,-0.336733
-637,-258,-45.329,0.234253,0,0,0,0,0,0,0,-1,587,1282,-45.329,-0.234296
-630,-258,-34.6896,4.45715,0,0,0,0,0,0,0,-1,594,1282,-34.6896,-4.45712
-623,-258,-36.2536,5.78528,0,0,0,0,0,0,0,-1,601,1282,-36.2536,-5.78529
-616,-258,-36.1586,6.50818,0.00811399,0.00147978,-0.00108196,0.00828599,0.00130778,-0.157648,0.00514378,0.0347032,608,1282,-36.1586,-6.50823
-609,-258,-36.2411,7.38074,0.00554443,0.00183886,-0.000674379,0.00566334,0.00171995,-0.174538,0.00335268,0.0174997,615,1282,-36.2411,-7.38069
-602,-258,-36.309,8.1897,0.00360566,0.0014787,-0.000582706,0.00375484,0.00132952,-0.250624,0.00219841,0.0139228,622,1282,-36.309,-8.18968
-595,-258,-36.3526,8.94482,0.00216466,0.00103304,-0.000678003,0.00248193,0.000715768,-0.437678,0.0014751,0.0121458,629,1282,-36.3526,-8.94479
-588,-258,-36.3829,9.70483,0.00110324,0.000499557,-0.000871191,0.0017234,-0.000120601,-0.618635,0.00119117,0.0142511,636,1282,-36.3829,-9.7048
-581,-258,-36.4269,10.4684,0.000314223,-0.000175388,-0.00115507,0.00125015,-0.00111131,-0.680974,0.00136418,0.0168096,643,1282,-36.4269,-10.4684
-574,-258,-36.4274,11.2642,-0.00021436,-0.00101814,-0.00148824,0.000925302,-0.0021578,-0.653522,0.00182683,0.0161033,650,1282,-36.4274,-11.2641
-567,-258,-36.5978,11.9995,-0.000216075,-0.00208209,-0.00193838,0.00100215,-0.00330031,-0.561097,0.00259947,0.0194894,657,1282,-36.5978,-11.9995
-560,-258,-36.8456,12.5807,0,0,0,0,0,0,0,-1,664,1282,-36.8456,-12.5807
-553,-258,-32.5081,11.6642,0,0,0,0,0,0,0,-1,671,1282,-32.5081,-11.6641
-546,-258,-14.2231,5.92029,0,0,0,0,0,0,0,-1,678,1282,-14.2231,-5.92028
-539,-258,-10.2228,4.05823,0,0,0,0,0,0,0,-1,685,1282,-10.2228,-4.05823
-532,-258,-10.2173,-0.353882,0,0,0,0,0,0,0,-1,692,1282,-10.2173,0.353836
-525,-258,-21.8661,-1.5929,0,0,0,0,0,0,0,-1,699,1282,-21.8661,1.59285
-518,-258,-29.2484,0.123169,0,0,0,0,0,0,0,-1,706,1282,-29.2484,-0.123186
-511,-258,-23.5061,1.16833,0,0,0,0,0,0,0,-1,713,1282,-23.5061,-1.16833
-504,-258,-22.9178,0.484131,0,0,0,0,0,0,0,-1,720,1282,-22.9178,-0.484106
-497,-258,-17.8047,0.730469,0,0,0,0,0,0,0,-1,727,1282,-17.8048,-0.730489
-490,-258,-15.4346,0.632935,0,0,0,0,0,0,0,-1,734,1282,-15.4346,-0.632917
-483,-258,0,0,0,0,0,0,0,0,0,-1,741,1282,0,0
-476,-258,0,0,0,0,0,0,0,0,0,-1,748,1282,0,0
-469,-258,0,0,0,0,0,0,0,0,0,-1,755,1282,0,0
-462,-258,0,0,0,0,0,0,0,0,0,-1,762,1282,0,0
-455,-258,0,0,0,0,0,0,0,0,0,-1,769,1282,0,0
-448,-258,0,0,0,0,0,0,0,0,0,-1,776,1282,0,0
-441,-258,0,0,0,0,0,0,0,0,0,-1,783,1282,0,0
-434,-258,0,0,0,0,0,0,0,0,0,-1,790,1282,0,0
-427,-258,0,0,0,0,0,0,0,0,0,-1,797,1282,0,0
-420,-258,0,0,0,0,0,0,0,0,0,-1,804,1282,0,0
-413,-258,0,0,0,0,0,0,0,0,0,-1,811,1282,0,0
-406,-258,0,0,0,0,0,0,0,0,0,-1,818,1282,0,0
-399,-258,0,0,0,0,0,0,0,0,0,-1,825,1282,0,0
-392,-258,0,0,0,0,0,0,0,0,0,-1,832,1282,0,0
-385,-258,0,0,0,0,0,0,0,0,0,-1,839,1282,0,0
-378,-258,0,0,0,0,0,0,0,0,0,-1,846,1282,0,0
-371,-258,0,0,0,0,0,0,0,0,0,-1,853,1282,0,0
-364,-258,0,0,0,0,0,0,0,0,0,-1,860,1282,0,0
-357,-258,0,0,0,0,0,0,0,0,0,-1,867,1282,0,0
-350,-258,0,0,0,0,0,0,0,0,0,-1,874,1282,0,0
-343,-258,0,0,0,0,0,0,0,0,0,-1,881,1282,0,0
-336,-258,0,0,0,0,0,0,0,0,0,-1,888,1282,0,0
-329,-258,0,0,0,0,0,0,0,0,0,-1,895,1282,0,0
-322,-258,0,0,0,0,0,0,0,0,0,-1,902,1282,0,0
-315,-258,0,0,0,0,0,0,0,0,0,-1,909,1282,0,0
-308,-258,0,0,0,0,0,0,0,0,0,-1,916,1282,0,0
-301,-258,0,0,0,0,0,0,0,0,0,-1,923,1282,0,0
-294,-258,0,0,0,0,0,0,0,0,0,-1,930,1282,0,0
-287,-258,0,0,0,0,0,0,0,0,0,-1,937,1282,0,0
-280,-258,0,0,0,0,0,0,0,0,0,-1,944,1282,0,0
-273,-258,0,0,0,0,0,0,0,0,0,-1,951,1282,0,0
-266,-258,0,0,0,0,0,0,0,0,0,-1,958,1282,0,0
-259,-258,0,0,0,0,0,0,0,0,0,-1,965,1282,0,0
-252,-258,0,0,0,0,0,0,0,0,0,-1,972,1282,0,0
-245,-258,0,0,0,0,0,0,0,0,0,-1,979,1282,0,0
-238,-258,0,0,0,0,0,0,0,0,0,-1,986,1282,0,0
-231,-258,0,0,0,0,0,0,0,0,0,-1,993,1282,0,0
-224,-258,0,0,0,0,0,0,0,0,0,-1,1000,1282,0,0
-217,-258,0,0,0,0,0,0,0,0,0,-1,1007,1282,0,0
-210,-258,0,0,0,0,0,0,0,0,0,-1,1014,1282,0,0
-203,-258,0,0,0,0,0,0,0,0,0,-1,1021,1282,0,0
-196,-258,0,0,0,0,0,0,0,0,0,-1,1028,1282,0,0
-189,-258,0,0,0,0,0,0,0,0,0,-1,1035,1282,0,0
-182,-258,0,0,0,0,0,0,0,0,0,-1,1042,1282,0,0
-175,-258,0,0,0,0,0,0,0,0,0,-1,1049,1282,0,0
-168,-258,0,0,0,0,0,0,0,0,0,-1,1056,1282,0,0
-161,-258,0,0,0,0,0,0,0,0,0,-1,1063,1282,0,0
-154,-258,0,0,0,0,0,0,0,0,0,-1,1070,1282,0,0
-147,-258,0,0,0,0,0,0,0,0,0,-1,1077,1282,0,0
-140,-258,0,0,0,0,0,0,0,0,0,-1,1084,1282,0,0
-133,-258,0,0,0,0,0,0,0,0,0,-1,1091,1282,0,0
-126,-258,0,0,0,0,0,0,0,0,0,-1,1098,1282,0,0
-119,-258,0,0,0,0,0,0,0,0,0,-1,1105,1282,0,0
-112,-258,0,0,0,0,0,0,0,0,0,-1,1112,1282,0,0
-105,-258,0,0,0,0,0,0,0,0,0,-1,1119,1282,0,0
-98,-258,0,0,0,0,0,0,0,0,0,-1,1126,1282,0,0
-91,-258,0,0,0,0,0,0,0,0,0,-1,1133,1282,0,0
-84,-258,0,0,0,0,0,0,0,0,0,-1,1140,1282,0,0
-77,-258,0,0,0,0,0,0,0,0,0,-1,1147,1282,0,0
-70,-258,0,0,0,0,0,0,0,0,0,-1,1154,1282,0,0
-63,-258,0,0,0,0,0,0,0,0,0,-1,1161,1282,0,0
-56,-258,0,0,0,0,0,0,0,0,0,-1,1168,1282,0,0
-49,-258,0,0,0,0,0,0,0,0,0,-1,1175,1282,0,0
-42,-258,0,0,0,0,0,0,0,0,0,-1,1182,1282,0,0
-35,-258,0,0,0,0,0,0,0,0,0,-1,1189,1282,0,0
-28,-258,0,0,0,0,0,0,0,0,0,-1,1196,1282,0,0
-21,-258,0,0,0,0,0,0,0,0,0,-1,1203,1282,0,0
-14,-258,0,0,0,0,0,0,0,0,0,-1,1210,1282,0,0
-7,-258,0,0,0,0,0,0,0,0,0,-1,1217,1282,0,0
0,-258,0,0,0,0,0,0,0,0,0,-1,1224,1282,0,0
7,-258,0,0,0,0,0,0,0,0,0,-1,1231,1282,0,0
14,-258,0,0,0,0,0,0,0,0,0,-1,1238,1282,0,0
21,-258,0,0,0,0,0,0,0,0,0,-1,1245,1282,0,0
28,-258,0,0,0,0,0,0,0,0,0,-1,1252,1282,0,0
35,-258,0,0,0,0,0,0,0,0,0,-1,1259,1282,0,0
42,-258,0,0,0,0,0,0,0,0,0,-1,1266,1282,0,0
49,-258,0,0,0,0,0,0,0,0,0,-1,1273,1282,0,0
56,-258,0,0,0,0,0,0,0,0,0,-1,1280,1282,0,0
63,-258,0,0,0,0,0,0,0,0,0,-1,1287,1282,0,0
70,-258,0,0,0,0,0,0,0,0,0,-1,1294,1282,0,0
77,-258,0,0,0,0,0,0,0,0,0,-1,1301,1282,0,0
84,-258,0,0,0,0,0,0,0,0,0,-1,1308,1282,0,0
91,-258,0,0,0,0,0,0,0,0,0,-1,1315,1282,0,0
98,-258,0,0,0,0,0,0,0,0,0,-1,1322,1282,0,0
105,-258,0,0,0,0,0,0,0,0,0,-1,1329,1282,0,0
112,-258,0,0,0,0,0,0,0,0,0,-1,1336,1282,0,0
119,-258,0,0,0,0,0,0,0,0,0,-1,1343,1282,0,0
126,-258,0,0,0,0,0,0,0,0,0,-1,1350,1282,0,0
133,-258,0,0,0,0,0,0,0,0,0,-1,1357,1282,0,0
140,-258,0,0,0,0,0,0,0,0,0,-1,1364,1282,0,0
147,-258,0,0,0,0,0,0,0,0,0,-1,1371,1282,0,0
154,-258,0,0,0,0,0,0,0,0,0,-1,1378,1282,0,0
161,-258,0,0,0,0,0,0,0,0,0,-1,1385,1282,0,0
168,-258,0,0,0,0,0,0,0,0,0,-1,1392,1282,0,0
175,-258,0,0,0,0,0,0,0,0,0,-1,1399,1282,0,0
182,-258,0,0,0,0,0,0,0,0,0,-1,1406,1282,0,0
189,-258,0,0,0,0,0,0,0,0,0,-1,1413,1282,0,0
196,-258,0,0,0,0,0,0,0,0,0,-1,1420,1282,0,0
203,-258,0,0,0,0,0,0,0,0,0,-1,1427,1282,0,0
210,-258,0,0,0,0,0,0,0,0,0,-1,1434,1282,0,0
217,-258,0,0,0,0,0,0,0,0,0,-1,1441,1282,0,0
224,-258,0,0,0,0,0,0,0,0,0,-1,1448,1282,0,0
231,-258,0,0,0,0,0,0,0,0,0,-1,1455,1282,0,0
238,-258,0,0,0,0,0,0,0,0,0,-1,1462,1282,0,0
245,-258,0,0,0,0,0,0,0,0,0,-1,1469,1282,0,0
252,-258,0,0,0,0,0,0,0,0,0,-1,1476,1282,0,0
259,-258,0,0,0,0,0,0,0,0,0,-1,1483,1282,0,0
266,-258,0,0,0,0,0,0,0,0,0,-1,1490,1282,0,0
273,-258,0,0,0,0,0,0,0,0,0,-1,1497,1282,0,0
280,-258,0,0,0,0,0,0,0,0,0,-1,1504,1282,0,0
287,-258,0,0,0,0,0,0,0,0,0,-1,1511,1282,0,0
294,-258,0,0,0,0,0,0,0,0,0,-1,1518,1282,0,0
301,-258,0,0,0,0,0,0,0,0,0,-1,1525,1282,0,0
308,-258,0,0,0,0,0,0,0,0,0,-1,1532,1282,0,0
315,-258,0,0,0,0,0,0,0,0,0,-1,1539,1282,0,0
322,-258,0,0,0,0,0,0,0,0,0,-1,1546,1282,0,0
329,-258,0,0,0,0,0,0,0,0,0,-1,1553,1282,0,0
336,-258,0,0,0,0,0,0,0,0,0,-1,1560,1282,0,0
343,-258,0,0,0,0,0,0,0,0,0,-1,1567,1282,0,0
350,-258,0,0,0,0,0,0,0,0,0,-1,1574,1282,0,0
357,-258,0,0,0,0,0,0,0,0,0,-1,1581,1282,0,0
364,-258,0,0,0,0,0,0,0,0,0,-1,1588,1282,0,0
371,-258,0,0,0,0,0,0,0,0,0,-1,1595,1282,0,0
378,-258,0,0,0,0,0,0,0,0,0,-1,1602,1282,0,0
385,-258,0,0,0,0,0,0,0,0,0,-1,1609,1282,0,0
392,-258,0,0,0,0,0,0,0,0,0,-1,1616,1282,0,0
399,-258,0,0,0,0,0,0,0,0,0,-1,1623,1282,0,0
406,-258,0,0,0,0,0,0,0,0,0,-1,1630,1282,0,0
413,-258,0,0,0,0,0,0,0,0,0,-1,1637,1282,0,0
420,-258,0,0,0,0,0,0,0,0,0,-1,1644,1282,0,0
427,-258,0,0,0,0,0,0,0,0,0,-1,1651,1282,0,0
434,-258,0,0,0,0,0,0,0,0,0,-1,1658,1282,0,0
441,-258,0,0,0,0,0,0,0,0,0,-1,1665,1282,0,0
448,-258,0,0,0,0,0,0,0,0,0,-1,1672,1282,0,0
455,-258,0,0,0,0,0,0,0,0,0,-1,1679,1282,0,0
462,-258,0,0,0,0,0,0,0,0,0,-1,1686,1282,0,0
469,-258,0,0,0,0,0,0,0,0,0,-1,1693,1282,0,0
476,-258,0,0,0,0,0,0,0,0,0,-1,1700,1282,0,0
483,-258,0,0,0,0,0,0,0,0,0,-1,1707,1282,0,0
490,-258,0,0,0,0,0,0,0,0,0,-1,1714,1282,0,0
497,-258,0,0,0,0,0,0,0,0,0,-1,1721,1282,0,0
504,-258,0,0,0,0,0,0,0,0,0,-1,1728,1282,0,0
511,-258,0,0,0,0,0,0,0,0,0,-1,1735,1282,0,0
518,-258,0,0,0,0,0,0,0,0,0,-1,1742,1282,0,0
525,-258,0,0,0,0,0,0,0,0,0,-1,1749,1282,0,0
532,-258,0,0,0,0,0,0,0,0,0,-1,1756,1282,0,0
539,-258,0,0,0,0,0,0,0,0,0,-1,1763,1282,0,0
546,-258,0,0,0,0,0,0,0,0,0,-1,1770,1282,0,0
553,-258,0,0,0,0,0,0,0,0,0,-1,1777,1282,0,0
560,-258,0,0,0,0,0,0,0,0,0,-1,1784,1282,0,0
567,-258,0,0,0,0,0,0,0,0,0,-1,1791,1282,0,0
574,-258,0,0,0,0,0,0,0,0,0,-1,1798,1282,0,0
581,-258,0,0,0,0,0,0,0,0,0,-1,1805,1282,0,0
588,-258,0,0,0,0,0,0,0,0,0,-1,1812,1282,0,0
595,-258,0,0,0,0,0,0,0,0,0,-1,1819,1282,0,0
602,-258,0,0,0,0,0,0,0,0,0,-1,1826,1282,0,0
609,-258,74.327,2.24768,-0.00524222,0.0127912,-0.00591731,0.0145594,-0.00701049,-1.28041,0.0127051,0.0260291,1833,1282,74.327,-2.24772
616,-258,74.2544,2.18542,-0.0143693,0.0185952,-0.00640533,0.019796,-0.0155701,-1.38547,0.0204672,0.0262776,1840,1282,74.2544,-2.18539
623,-258,74.1027,2.06055,-0.0219931,0.0231564,-0.00664622,0.0241145,-0.0229511,-1.42764,0.0271761,0.037274,1847,1282,74.1027,-2.0606
630,-258,73.9028,1.44885,-0.0245069,0.0242759,-0.00634314,0.0250872,-0.0253182,-1.44359,0.0291017,0.0435466,1854,1282,73.9029,-1.44881
637,-258,73.7361,0.867065,-0.0212771,0.0217309,-0.00569764,0.0224729,-0.0220191,-1.44129,0.0256879,0.0453341,1861,1282,73.7361,-0.867051
644,-258,73.563,0.324707,0,0,0,0,0,0,0,-1,1868,1282,73.563,-0.324704
651,-258,73.8274,1.62305,0,0,0,0,0,0,0,-1,1875,1282,73.8274,-1.62306
658,-258,45.4424,3.1405,0,0,0,0,0,0,0,-1,1882,1282,45.4423,-3.14046
665,-258,35.4747,1.1864,0,0,0,0,0,0,0,-1,1889,1282,35.4747,-1.18637
672,-258,22.703,2.80957,0,0,0,0,0,0,0,-1,1896,1282,22.703,-2.80962
679,-258,26.8693,8.19543,0,0,0,0,0,0,0,-1,1903,1282,26.8692,-8.19548
686,-258,53.6652,14.5347,0,0,0,0,0,0,0,-1,1910,1282,53.6652,-14.5347
693,-258,53.52,13.7192,0.00020968,0.00120469,0.00011209,0.00121716,0.000197209,1.45999,0.000754344,0.0261283,1917,1282,53.5201,-13.7192
700,-258,53.4476,12.9402,0.00122847,-0.000782789,0.000430672,0.00131681,-0.000871129,0.202315,0.00127191,0.0108896,1924,1282,53.4476,-12.9402
707,-258,53.4437,12.1945,0.000449735,-0.00104406,0.00077445,0.000778769,-0.00137309,0.401754,0.00125807,0.0111502,1931,1282,53.4437,-12.1945
714,-258,53.4308,11.4658,-0.000559003,-0.000884267,0.00142704,0.000714641,-0.00215791,0.728661,0.00172684,0.0123088,1938,1282,53.4308,-11.4658
721,-258,53.3656,10.724,-0.00157,-0.000768293,0.00216079,0.00102851,-0.0033668,0.877112,0.00265464,0.0218986,1945,1282,53.3656,-10.724
728,-258,53.2711,10.038,-0.00258139,-0.000733294,0.00299284,0.00147491,-0.00478959,0.935132,0.00378181,0.0215921,1952,1282,53.2711,-10.038
735,-258,53.2897,9.27051,-0.00364709,-0.000759656,0.00395486,0.00200676,-0.00641351,0.960407,0.00507852,0.0188617,1959,1282,53.2896,-9.27054
742,-258,53.2317,8.58923,-0.00475592,-0.000870349,0.00507214,0.00261835,-0.00824462,0.968294,0.00654614,0.0190891,1966,1282,53.2317,-8.58918
749,-258,53.0353,8.021,-0.00588136,-0.00111248,0.00638417,0.003318,-0.0103118,0.964122,0.00820726,0.040551,1973,1282,53.0353,-8.02102
756,-258,52.8474,7.3136,0,0,0,0,0,0,0,-1,1980,1282,52.8474,-7.31363
763,-258,39.3638,5.09753,0,0,0,0,0,0,0,-1,1987,1282,39.3638,-5.09751
770,-258,40.3713,4.08325,0,0,0,0,0,0,0,-1,1994,1282,40.3713,-4.08323
777,-258,31.912,4.83093,0,0,0,0,0,0,0,-1,2001,1282,31.912,-4.8309
784,-258,32.6525,6.43091,0,0,0,0,0,0,0,-1,2008,1282,32.6525,-6.43091
791,-258,0,0,0,0,0,0,0,0,0,-1,2015,1282,0,0
798,-258,0,0,0,0,0,0,0,0,0,-1,2022,1282,0,0
805,-258,0,0,0,0,0,0,0,0,0,-1,2029,1282,0,0
812,-258,0,0,0,0,0,0,0,0,0,-1,2036,1282,0,0
-700,-265,0,0,0,0,0,0,0,0,0,-1,524,1289,0,0
-693,-265,0,0,0,0,0,0,0,0,0,-1,531,1289,0,0
-686,-265,0,0,0,0,0,0,0,0,0,-1,538,1289,0,0
-679,-265,0,0,0,0,0,0,0,0,0,-1,545,1289,0,0
-672,-265,0,0,0,0,0,0,0,0,0,-1,552,1289,0,0
-665,-265,-44.553,1.771,0,0,0,0,0,0,0,-1,559,1289,-44.553,-1.77096
-658,-265,-44.9351,1.32117,0,0,0,0,0,0,0,-1,566,1289,-44.9351,-1.32118
-651,-265,-44.821,1.0614,0,0,0,0,0,0,0,-1,573,1289,-44.821,-1.06141
-644,-265,-44.4684,0.304932,0,0,0,0,0,0,0,-1,580,1289,-44.4684,-0.304991
-637,-265,-44.6157,0.250122,0,0,0,0,0,0,0,-1,587,1289,-44.6157,-0.250067
-630,-265,-44.5689,0.900269,0,0,0,0,0,0,0,-1,594,1289,-44.5689,-0.900302
-623,-265,-35.4919,5.08875,0,0,0,0,0,0,0,-1,601,1289,-35.492,-5.08874
-616,-265,-35.3561,6.43347,0,0,0,0,0,0,0,-1,608,1289,-35.3561,-6.43341
-609,-265,-35.4639,7.38074,0.00601758,0.00217517,-0.000345737,0.00604844,0.00214431,-0.0890263,0.00354099,0.0198515,615,1289,-35.4639,-7.38069
-602,-265,-35.5227,8.24402,0.00395895,0.0017511,-0.000209742,0.0039787,0.00173135,-0.093879,0.00230353,0.0155243,622,1289,-35.5227,-8.24406
-595,-265,-35.5473,9.01624,0.00242987,0.00123154,-0.000285313,0.00249433,0.00116707,-0.222206,0.00144109,0.0128541,629,1289,-35.5473,-9.01618
-588,-265,-35.5886,9.7605,0.00131173,0.000657138,-0.000434791,0.00152865,0.000440224,-0.462763,0.000908628,0.0118646,636,1289,-35.5886,-9.76048
-581,-265,-35.6389,10.5212,0.000471982,-2.79289e-05,-0.00065511,0.000923201,-0.000479149,-0.603149,0.000823066,0.0151986,643,1289,-35.6389,-10.5213
-574,-265,-35.6868,11.3555,-0.000100267,-0.000835773,-0.000907363,0.000511037,-0.00144708,-0.592865,0.00117278,0.0157584,650,1289,-35.6868,-11.3555
-567,-265,-35.7917,12.1249,-0.0002666,-0.00179225,-0.00120171,0.000393955,-0.0024528,-0.502597,0.0017811,0.0211834,657,1289,-35.7918,-12.1249
-560,-265,-35.9603,12.8702,-5.07128e-05,-0.00280192,-0.00140877,0.000542672,-0.00339531,-0.398654,0.00246443,0.0301254,664,1289,-35.9603,-12.8703
-553,-265,-35.9664,13.6069,0,0,0,0,0,0,0,-1,671,1289,-35.9664,-13.607
-546,-265,-24.2283,10.2581,0,0,0,0,0,0,0,-1,678,1289,-24.2283,-10.258
-539,-265,-13.7668,6.39917,0,0,0,0,0,0,0,-1,685,1289,-13.7668,-6.39915
-532,-265,-8.53998,3.41467,0,0,0,0,0,0,0,-1,692,1289,-8.53996,-3.41473
-525,-265,-12.1317,0.514648,0,0,0,0,0,0,0,-1,699,1289,-12.1317,-0.514634
-518,-265,-24.1604,0.712402,0,0,0,0,0,0,0,-1,706,1289,-24.1604,-0.712425
-511,-265,-23.233,0.791626,0,0,0,0,0,0,0,-1,713,1289,-23.233,-0.791617
-504,-265,-22.3056,0.87085,0,0,0,0,0,0,0,-1,720,1289,-22.3056,-0.87081
-497,-265,-18.689,-0.278442,0,0,0,0,0,0,0,-1,727,1289,-18.689,0.278423
-490,-265,-15.1696,0.492676,0,0,0,0,0,0,0,-1,734,1289,-15.1696,-0.492688
-483,-265,0,0,0,0,0,0,0,0,0,-1,741,1289,0,0
-476,-265,0,0,0,0,0,0,0,0,0,-1,748,1289,0,0
-469,-265,0,0,0,0,0,0,0,0,0,-1,755,1289,0,0
-462,-265,0,0,0,0,0,0,0,0,0,-1,762,1289,0,0
-455,-265,0,0,0,0,0,0,0,0,0,-1,769,1289,0,0
-448,-265,0,0,0,0,0,0,0,0,0,-1,776,1289,0,0
-441,-265,0,0,0,0,0,0,0,0,0,-1,783,1289,0,0
-434,-265,0,0,0,0,0,0,0,0,0,-1,790,1289,0,0
-427,-265,0,0,0,0,0,0,0,0,0,-1,797,1289,0,0
-420,-265,0,0,0,0,0,0,0,0,0,-1,804,1289,0,0
-413,-265,0,0,0,0,0,0,0,0,0,-1,811,1289,0,0
-406,-265,0,0,0,0,0,0,0,0,0,-1,818,1289,0,0
-399,-265,0,0,0,0,0,0,0,0,0,-1,825,1289,0,0
-392,-265,0,0,0,0,0,0,0,0,0,-1,832,1289,0,0
-385,-265,0,0,0,0,0,0,0,0,0,-1,839,1289,0,0
-378,-265,0,0,0,0,0,0,0,0,0,-1,846,1289,0,0
-371,-265,0,0,0,0,0,0,0,0,0,-1,853,1289,0,0
-364,-265,0,0,0,0,0,0,0,0,0,-1,860,1289,0,0
-357,-265,0,0,0,0,0,0,0,0,0,-1,867,1289,0,0
-350,-265,0,0,0,0,0,0,0,0,0,-1,874,1289,0,0
-343,-265,0,0,0,0,0,0,0,0,0,-1,881,1289,0,0
-336,-265,0,0,0,0,0,0,0,0,0,-1,888,1289,0,0
-329,-265,0,0,0,0,0,0,0,0,0,-1,895,1289,0,0
-322,-265,0,0,0,0,0,0,0,0,0,-1,902,1289,0,0
-315,-265,0,0,0,0,0,0,0,0,0,-1,909,1289,0,0
-308,-265,0,0,0,0,0,0,0,0,0,-1,916,1289,0,0
-301,-265,0,0,0,0,0,0,0,0,0,-1,923,1289,0,0
-294,-265,0,0,0,0,0,0,0,0,0,-1,930,1289,0,0
-287,-265,0,0,0,0,0,0,0,0,0,-1,937,1289,0,0
-280,-265,0,0,0,0,0,0,0,0,0,-1,944,1289,0,0
-273,-265,0,0,0,0,0,0,0,0,0,-1,951,1289,0,0
-266,-265,0,0,0,0,0,0,0,0,0,-1,958,1289,0,0
-259,-265,0,0,0,0,0,0,0,0,0,-1,965,1289,0,0
-252,-265,0,0,0,0,0,0,0,0,0,-1,972,1289,0,0
-245,-265,0,0,0,0,0,0,0,0,0,-1,979,1289,0,0
-238,-265,0,0,0,0,0,0,0,0,0,-1,986,1289,0,0
-231,-265,0,0,0,0,0,0,0,0,0,-1,993,1289,0,0
-224,-265,0,0,0,0,0,0,0,0,0,-1,1000,1289,0,0
-217,-265,0,0,0,0,0,0,0,0,0,-1,1007,1289,0,0
-210,-265,0,0,0,0,0,0,0,0,0,-1,1014,1289,0,0
-203,-265,0,0,0,0,0,0,0,0,0,-1,1021,1289,0,0
-196,-265,0,0,0,0,0,0,0,0,0,-1,1028,1289,0,0
-189,-265,0,0,0,0,0,0,0,0,0,-1,1035,1289,0,0
-182,-265,0,0,0,0,0,0,0,0,0,-1,1042,1289,0,0
-175,-265,0,0,0,0,0,0,0,0,0,-1,1049,1289,0,0
-168,-265,0,0,0,0,0,0,0,0,0,-1,1056,1289,0,0
-161,-265,0,0,0,0,0,0,0,0,0,-1,1063,1289,0,0
-154,-265,0,0,0,0,0,0,0,0,0,-1,1070,1289,0,0
-147,-265,0,0,0,0,0,0,0,0,0,-1,1077,1289,0,0
-140,-265,0,0,0,0,0,0,0,0,0,-1,1084,1289,0,0
-133,-265,0,0,0,0,0,0,0,0,0,-1,1091,1289,0,0
-126,-265,0,0,0,0,0,0,0,0,0,-1,1098,1289,0,0
-119,-265,0,0,0,0,0,0,0,0,0,-1,1105,1289,0,0
-112,-265,0,0,0,0,0,0,0,0,0,-1,1112,1289,0,0
-105,-265,0,0,0,0,0,0,0,0,0,-1,1119,1289,0,0
-98,-265,0,0,0,0,0,0,0,0,0,-1,1126,1289,0,0
-91,-265,0,0,0,0,0,0,0,0,0,-1,1133,1289,0,0
-84,-265,0,0,0,0,0,0,0,0,0,-1,1140,1289,0,0
-77,-265,0,0,0,0,0,0,0,0,0,-1,1147,1289,0,0
-70,-265,0,0,0,0,0,0,0,0,0,-1,1154,1289,0,0
-63,-265,0,0,0,0,0,0,0,0,0,-1,1161,1289,0,0
-56,-265,0,0,0,0,0,0,0,0,0,-1,1168,1289,0,0
-49,-265,0,0,0,0,0,0,0,0,0,-1,1175,1289,0,0
-42,-265,0,0,0,0,0,0,0,0,0,-1,1182,1289,0,0
-35,-265,0,0,0,0,0,0,0,0,0,-1,1189,1289,0,0
-28,-265,0,0,0,0,0,0,0,0,0,-1,1196,1289,0,0
-21,-265,0,0,0,0,0,0,0,0,0,-1,1203,1289,0,0
-14,-265,0,0,0,0,0,0,0,0,0,-1,1210,1289,0,0
-7,-265,0,0,0,0,0,0,0,0,0,-1,1217,1289,0,0
0,-265,0,0,0,0,0,0,0,0,0,-1,1224,1289,0,0
7,-265,0,0,0,0,0,0,0,0,0,-1,1231,1289,0,0
14,-265,0,0,0,0,0,0,0,0,0,-1,1238,1289,0,0
21,-265,0,0,0,0,0,0,0,0,0,-1,1245,1289,0,0
28,-265,0,0,0,0,0,0,0,0,0,-1,1252,1289,0,0
35,-265,0,0,0,0,0,0,0,0,0,-1,1259,1289,0,0
42,-265,0,0,0,0,0,0,0,0,0,-1,1266,1289,0,0
49,-265,0,0,0,0,0,0,0,0,0,-1,1273,1289,0,0
56,-265,0,0,0,0,0,0,0,0,0,-1,1280,1289,0,0
63,-265,0,0,0,0,0,0,0,0,0,-1,1287,1289,0,0
70,-265,0,0,0,0,0,0,0,0,0,-1,1294,1289,0,0
77,-265,0,0,0,0,0,0,0,0,0,-1,1301,1289,0,0
84,-265,0,0,0,0,0,0,0,0,0,-1,1308,1289,0,0
91,-265,0,0,0,0,0,0,0,0,0,-1,1315,1289,0,0
98,-265,0,0,0,0,0,0,0,0,0,-1,1322,1289,0,0
105,-265,0,0,0,0,0,0,0,0,0,-1,1329,1289,0,0
112,-265,0,0,0,0,0,0,0,0,0,-1,1336,1289,0,0
119,-265,0,0,0,0,0,0,0,0,0,-1,1343,1289,0,0
126,-265,0,0,0,0,0,0,0,0,0,-1,1350,1289,0,0
133,-265,0,0,0,0,0,0,0,0,0,-1,1357,1289,0,0
140,-265,0,0,0,0,0,0,0,0,0,-1,1364,1289,0,0
147,-265,0,0,0,0,0,0,0,0,0,-1,1371,1289,0,0
154,-265,0,0,0,0,0,0,0,0,0,-1,1378,1289,0,0
161,-265,0,0,0,0,0,0,0,0,0,-1,1385,1289,0,0
168,-265,0,0,0,0,0,0,0,0,0,-1,1392,1289,0,0
175,-265,0,0,0,0,0,0,0,0,0,-1,1399,1289,0,0
182,-265,0,0,0,0,0,0,0,0,0,-1,1406,1289,0,0
189,-265,0,0,0,0,0,0,0,0,0,-1,1413,1289,0,0
196,-265,0,0,0,0,0,0,0,0,0,-1,1420,1289,0,0
203,-265,0,0,0,0,0,0,0,0,0,-1,1427,1289,0,0
210,-265,0,0,0,0,0,0,0,0,0,-1,1434,1289,0,0
217,-265,0,0,0,0,0,0,0,0,0,-1,1441,1289,0,0
224,-265,0,0,0,0,0,0,0,0,0,-1,1448,1289,0,0
231,-265,0,0,0,0,0,0,0,0,0,-1,1455,1289,0,0
238,-265,0,0,0,0,0,0,0,0,0,-1,1462,1289,0,0
245,-265,0,0,0,0,0,0,0,0,0,-1,1469,1289,0,0
252,-265,0,0,0,0,0,0,0,0,0,-1,1476,1289,0,0
259,-265,0,0,0,0,0,0,0,0,0,-1,1483,1289,0,0
266,-265,0,0,0,0,0,0,0,0,0,-1,1490,1289,0,0
273,-265,0,0,0,0,0,0,0,0,0,-1,1497,1289,0,0
280,-265,0,0,0,0,0,0,0,0,0,-1,1504,1289,0,0
287,-265,0,0,0,0,0,0,0,0,0,-1,1511,1289,0,0
294,-265,0,0,0,0,0,0,0,0,0,-1,1518,1289,0,0
301,-265,0,0,0,0,0,0,0,0,0,-1,1525,1289,0,0
308,-265,0,0,0,0,0,0,0,0,0,-1,1532,1289,0,0
315,-265,0,0,0,0,0,0,0,0,0,-1,1539,1289,0,0
322,-265,0,0,0,0,0,0,0,0,0,-1,1546,1289,0,0
329,-265,0,0,0,0,0,0,0,0,0,-1,1553,1289,0,0
336,-265,0,0,0,0,0,0,0,0,0,-1,1560,1289,0,0
343,-265,0,0,0,0,0,0,0,0,0,-1,1567,1289,0,0
350,-265,0,0,0,0,0,0,0,0,0,-1,1574,1289,0,0
357,-265,0,0,0,0,0,0,0,0,0,-1,1581,1289,0,0
364,-265,0,0,0,0,0,0,0,0,0,-1,1588,1289,0,0
371,-265,0,0,0,0,0,0,0,0,0,-1,1595,1289,0,0
378,-265,0,0,0,0,0,0,0,0,0,-1,1602,1289,0,0
385,-265,0,0,0,0,0,0,0,0,0,-1,1609,1289,0,0
392,-265,0,0,0,0,0,0,0,0,0,-1,1616,1289,0,0
399,-265,0,0,0,0,0,0,0,0,0,-1,1623,1289,0,0
406,-265,0,0,0,0,0,0,0,0,0,-1,1630,1289,0,0
413,-265,0,0,0,0,0,0,0,0,0,-1,1637,1289,0,0
420,-265,0,0,0,0,0,0,0,0,0,-1,1644,1289,0,0
427,-265,0,0,0,0,0,0,0,0,0,-1,1651,1289,0,0
434,-265,0,0,0,0,0,0,0,0,0,-1,1658,1289,0,0
441,-265,0,0,0,0,0,0,0,0,0,-1,1665,1289,0,0
448,-265,0,0,0,0,0,0,0,0,0,-1,1672,1289,0,0
455,-265,0,0,0,0,0,0,0,0,0,-1,1679,1289,0,0
462,-265,0,0,0,0,0,0,0,0,0,-1,1686,1289,0,0
469,-265,0,0,0,0,0,0,0,0,0,-1,1693,1289,0,0
476,-265,0,0,0,0,0,0,0,0,0,-1,1700,1289,0,0
483,-265,0,0,0,0,0,0,0,0,0,-1,1707,1289,0,0
490,-265,0,0,0,0,0,0,0,0,0,-1,1714,1289,0,0
497,-265,0,0,0,0,0,0,0,0,0,-1,1721,1289,0,0
504,-265,0,0,0,0,0,0,0,0,0,-1,1728,1289,0,0
511,-265,0,0,0,0,0,0,0,0,0,-1,1735,1289,0,0
518,-265,0,0,0,0,0,0,0,0,0,-1,1742,1289,0,0
525,-265,0,0,0,0,0,0,0,0,0,-1,1749,1289,0,0
532,-265,0,0,0,0,0,0,0,0,0,-1,1756,1289,0,0
539,-265,0,0,0,0,0,0,0,0,0,-1,1763,1289,0,0
546,-265,0,0,0,0,0,0,0,0,0,-1,1770,1289,0,0
553,-265,0,0,0,0,0,0,0,0,0,-1,1777,1289,0,0
560,-265,0,0,0,0,0,0,0,0,0,-1,1784,1289,0,0
567,-265,0,0,0,0,0,0,0,0,0,-1,1791,1289,0,0
574,-265,0,0,0,0,0,0,0,0,0,-1,1798,1289,0,0
581,-265,0,0,0,0,0,0,0,0,0,-1,1805,1289,0,0
588,-265,0,0,0,0,0,0,0,0,0,-1,1812,1289,0,0
595,-265,0,0,0,0,0,0,0,0,0,-1,1819,1289,0,0
602,-265,74.249,2.27454,-0.00236736,0.0104593,-0.00622758,0.0129854,-0.00489347,-1.18544,0.010669,0.0277918,1826,1289,74.249,-2.27455
609,-265,74.194,2.15356,-0.011893,0.0166207,-0.00670561,0.018119,-0.0133913,-1.35098,0.0182606,0.0300879,1833,1289,74.194,-2.15354
616,-265,74.1104,2.05566,-0.0210843,0.0219533,-0.00701443,0.0230676,-0.0221987,-1.41324,0.0261362,0.0363886,1840,1289,74.1104,-2.05571
623,-265,73.9146,1.82214,-0.0257442,0.0243352,-0.00684738,0.0252546,-0.0266636,-1.43733,0.0299787,0.0482026,1847,1289,73.9145,-1.82218
630,-265,73.4994,1.46558,-0.0250038,0.0233773,-0.00624102,0.0241694,-0.0257959,-1.44455,0.0288526,0.0463733,1854,1289,73.4994,-1.46553
637,-265,72.8282,0.918579,-0.0209471,0.0205353,-0.00558405,0.0212738,-0.0216857,-1.4393,0.0248031,0.048649,1861,1289,72.8283,-0.918551
644,-265,72.2863,0.399658,0,0,0,0,0,0,0,-1,1868,1289,72.2863,-0.39967
651,-265,53.6781,1.57166,0,0,0,0,0,0,0,-1,1875,1289,53.6781,-1.57167
658,-265,41.7163,3.71619,0,0,0,0,0,0,0,-1,1882,1289,41.7163,-3.71624
665,-265,34.7902,1.43164,0,0,0,0,0,0,0,-1,1889,1289,34.7901,-1.43162
672,-265,20.0045,6.62671,0,0,0,0,0,0,0,-1,1896,1289,20.0045,-6.62668
679,-265,48.9694,14.0298,0,0,0,0,0,0,0,-1,1903,1289,48.9694,-14.0297
686,-265,52.8286,14.5768,0,0,0,0,0,0,0,-1,1910,1289,52.8286,-14.5768
693,-265,52.7551,13.7594,0.000184289,0.0010653,-0.000112349,0.0010794,0.000170188,-1.44594,0.000670116,0.0152615,1917,1289,52.7551,-13.7594
700,-265,52.726,12.9963,0.00103521,-0.000688644,0.000274695,0.00107793,-0.000731358,0.154261,0.00105096,0.0118005,1924,1289,52.7259,-12.9963
707,-265,52.7025,12.2379,0.0002854,-0.000896582,0.000737454,0.000639453,-0.00125064,0.447603,0.0011101,0.0112163,1931,1289,52.7025,-12.2379
714,-265,52.6746,11.4928,-0.000617695,-0.00080856,0.00144511,0.000735133,-0.00216139,0.752427,0.00173857,0.013508,1938,1289,52.6745,-11.4927
721,-265,52.5811,10.7388,-0.00156434,-0.00076913,0.00222138,0.00108995,-0.00342342,0.873956,0.00271941,0.0154891,1945,1289,52.5811,-10.7388
728,-265,52.5225,10.036,-0.00255383,-0.000787799,0.0030951,0.00154778,-0.00488941,0.924354,0.00387984,0.0166145,1952,1289,52.5225,-10.036
735,-265,52.5602,9.31238,-0.00360395,-0.000855083,0.00408536,0.00208085,-0.00653988,0.947665,0.00519438,0.0180482,1959,1289,52.5601,-9.31238
742,-265,52.4854,8.58398,-0.00470382,-0.000992987,0.00521095,0.00268301,-0.00837982,0.95643,0.00666343,0.0209134,1966,1289,52.4854,-8.58405
749,-265,52.5431,7.93262,-0.00583212,-0.00125722,0.0065245,0.0033692,-0.0104585,0.954,0.00832585,0.0474112,1973,1289,52.5431,-7.93258
756,-265,52.7373,7.26868,0,0,0,0,0,0,0,-1,1980,1289,52.7373,-7.26868
763,-265,39.1299,4.9679,0,0,0,0,0,0,0,-1,1987,1289,39.1299,-4.96791
770,-265,35.1674,5.07715,0,0,0,0,0,0,0,-1,1994,1289,35.1673,-5.07718
777,-265,32.1664,5.3457,0,0,0,0,0,0,0,-1,2001,1289,32.1664,-5.34568
784,-265,0,0,0,0,0,0,0,0,0,-1,2008,1289,0,0
791,-265,0,0,0,0,0,0,0,0,0,-1,2015,1289,0,0
798,-265,0,0,0,0,0,0,0,0,0,-1,2022,1289,0,0
805,-265,0,0,0,0,0,0,0,0,0,-1,2029,1289,0,0
812,-265,0,0,0,0,0,0,0,0,0,-1,2036,1289,0,0
-700,-272,0,0,0,0,0,0,0,0,0,-1,524,1296,0,0
-693,-272,0,0,0,0,0,0,0,0,0,-1,531,1296,0,0
-686,-272,0,0,0,0,0,0,0,0,0,-1,538,1296,0,0
-679,-272,0,0,0,0,0,0,0,0,0,-1,545,1296,0,0
-672,-272,0,0,0,0,0,0,0,0,0,-1,552,1296,0,0
-665,-272,0,0,0,0,0,0,0,0,0,-1,559,1296,0,0
-658,-272,-44.6526,1.54443,0,0,0,0,0,0,0,-1,566,1296,-44.6526,-1.5444
-651,-272,-44.3723,1.53772,0,0,0,0,0,0,0,-1,573,1296,-44.3723,-1.53774
-644,-272,-44.1104,1.46021,0,0,0,0,0,0,0,-1,580,1296,-44.1104,-1.46022
-637,-272,-43.9348,1.25171,0,0,0,0,0,0,0,-1,587,1296,-43.9348,-1.25175
-630,-272,-43.5906,0.784912,0,0,0,0,0,0,0,-1,594,1296,-43.5906,-0.784935
-623,-272,-34.1035,5.31335,0,0,0,0,0,0,0,-1,601,1296,-34.1035,-5.31331
-616,-272,-34.3436,6.52258,0,0,0,0,0,0,0,-1,608,1296,-34.3436,-6.5226
-609,-272,-34.6379,7.56921,0.006343,0.0026799,6.46935e-05,0.00634414,0.00267875,0.0176535,0.00367753,0.027708,615,1296,-34.6379,-7.56927
-602,-272,-34.7125,8.26599,0.00423307,0.00213091,0.000216887,0.00425521,0.00210877,0.101746,0.00245678,0.0152192,622,1296,-34.7125,-8.26597
-595,-272,-34.7643,9.06628,0.00268256,0.00149201,0.000114605,0.00269349,0.00148108,0.0950982,0.00155766,0.0115691,629,1296,-34.7643,-9.06629
-588,-272,-34.7993,9.83264,0.00159013,0.000854804,-3.88513e-05,0.00159218,0.000852756,-0.0526398,0.000920022,0.0107345,636,1296,-34.7993,-9.83261
-581,-272,-34.8621,10.5781,0.000819666,0.000154073,-0.000235419,0.000894516,7.92234e-05,-0.307836,0.000571768,0.0109425,643,1296,-34.8621,-10.5781
-574,-272,-34.93,11.3907,0.000325824,-0.000615807,-0.000442769,0.000501315,-0.000791298,-0.377354,0.000752524,0.0162084,650,1296,-34.93,-11.3907
-567,-272,-34.9702,12.1681,0.000173402,-0.00145841,-0.000640518,0.000394784,-0.00167979,-0.332776,0.00127204,0.0212003,657,1296,-34.9702,-12.1681
-560,-272,-35.0839,12.9333,0.000462238,-0.00229531,-0.000762038,0.000658812,-0.00249188,-0.252454,0.00191893,0.0215676,664,1296,-35.0839,-12.9334
-553,-272,-35.1111,13.7059,0.00101959,-0.00344335,-0.000762982,0.00114643,-0.00357018,-0.164729,0.00284046,0.0340296,671,1296,-35.1111,-13.7059
-546,-272,-35.2303,14.5258,0,0,0,0,0,0,0,-1,678,1296,-35.2304,-14.5258
-539,-272,-24.1416,11.0325,0,0,0,0,0,0,0,-1,685,1296,-24.1416,-11.0324
-532,-272,-10.5572,4.53943,0,0,0,0,0,0,0,-1,692,1296,-10.5572,-4.53943
-525,-272,-11.9599,0.0393066,0,0,0,0,0,0,0,-1,699,1296,-11.9599,-0.0393577
-518,-272,-21.1357,-1.41382,0,0,0,0,0,0,0,-1,706,1296,-21.1357,1.41379
-511,-272,-23.2565,0.226318,0,0,0,0,0,0,0,-1,713,1296,-23.2565,-0.22626
-504,-272,-19.7397,0.114746,0,0,0,0,0,0,0,-1,720,1296,-19.7397,-0.114701
-497,-272,-19.2225,1.71301,0,0,0,0,0,0,0,-1,727,1296,-19.2225,-1.71302
-490,-272,-20.1948,2.4032,0,0,0,0,0,0,0,-1,734,1296,-20.1948,-2.40322
-483,-272,-15.3736,0.792603,0,0,0,0,0,0,0,-1,741,1296,-15.3736,-0.79263
-476,-272,0,0,0,0,0,0,0,0,0,-1,748,1296,0,0
-469,-272,0,0,0,0,0,0,0,0,0,-1,755,1296,0,0
-462,-272,0,0,0,0,0,0,0,0,0,-1,762,1296,0,0
-455,-272,0,0,0,0,0,0,0,0,0,-1,769,1296,0,0
-448,-272,0,0,0,0,0,0,0,0,0,-1,776,1296,0,0
-441,-272,0,0,0,0,0,0,0,0,0,-1,783,1296,0,0
-434,-272,0,0,0,0,0,0,0,0,0,-1,790,1296,0,0
-427,-272,0,0,0,0,0,0,0,0,0,-1,797,1296,0,0
-420,-272,0,0,0,0,0,0,0,0,0,-1,804,1296,0,0
-413,-272,0,0,0,0,0,0,0,0,0,-1,811,1296,0,0
-406,-272,0,0,0,0,0,0,0,0,0,-1,818,1296,0,0
-399,-272,0,0,0,0,0,0,0,0,0,-1,825,1296,0,0
-392,-272,0,0,0,0,0,0,0,0,0,-1,832,1296,0,0
-385,-272,0,0,0,0,0,0,0,0,0,-1,839,1296,0,0
-378,-272,0,0,0,0,0,0,0,0,0,-1,846,1296,0,0
-371,-272,0,0,0,0,0,0,0,0,0,-1,853,1296,0,0
-364,-272,0,0,0,0,0,0,0,0,0,-1,860,1296,0,0
-357,-272,0,0,0,0,0,0,0,0,0,-1,867,1296,0,0
-350,-272,0,0,0,0,0,0,0,0,0,-1,874,1296,0,0
-343,-272,0,0,0,0,0,0,0,0,0,-1,881,1296,0,0
-336,-272,0,0,0,0,0,0,0,0,0,-1,888,1296,0,0
-329,-272,0,0,0,0,0,0,0,0,0,-1,895,1296,0,0
-322,-272,0,0,0,0,0,0,0,0,0,-1,902,1296,0,0
-315,-272,0,0,0,0,0,0,0,0,0,-1,909,1296,0,0
-308,-272,0,0,0,0,0,0,0,0,0,-1,916,1296,0,0
-301,-272,0,0,0,0,0,0,0,0,0,-1,923,1296,0,0
-294,-272,0,0,0,0,0,0,0,0,0,-1,930,1296,0,0
-287,-272,0,0,0,0,0,0,0,0,0,-1,937,1296,0,0
-280,-272,0,0,0,0,0,0,0,0,0,-1,944,1296,0,0
-273,-272,0,0,0,0,0,0,0,0,0,-1,951,1296,0,0
-266,-272,0,0,0,0,0,0,0,0,0,-1,958,1296,0,0
-259,-272,0,0,0,0,0,0,0,0,0,-1,965,1296,0,0
-252,-272,0,0,0,0,0,0,0,0,0,-1,972,1296,0,0
-245,-272,0,0,0,0,0,0,0,0,0,-1,979,1296,0,0
-238,-272,0,0,0,0,0,0,0,0,0,-1,986,1296,0,0
-231,-272,0,0,0,0,0,0,0,0,0,-1,993,1296,0,0
-224,-272,0,0,0,0,0,0,0,0,0,-1,1000,1296,0,0
-217,-272,0,0,0,0,0,0,0,0,0,-1,1007,1296,0,0
-210,-272,0,0,0,0,0,0,0,0,0,-1,1014,1296,0,0
-203,-272,0,0,0,0,0,0,0,0,0,-1,1021,1296,0,0
-196,-272,0,0,0,0,0,0,0,0,0,-1,1028,1296,0,0
-189,-272,0,0,0,0,0,0,0,0,0,-1,1035,1296,0,0
-182,-272,0,0,0,0,0,0,0,0,0,-1,1042,1296,0,0
-175,-272,0,0,0,0,0,0,0,0,0,-1,1049,1296,0,0
-168,-272,0,0,0,0,0,0,0,0,0,-1,1056,1296,0,0
-161,-272,0,0,0,0,0,0,0,0,0,-1,1063,1296,0,0
-154,-272,0,0,0,0,0,0,0,0,0,-1,1070,1296,0,0
-147,-272,0,0,0,0,0,0,0,0,0,-1,1077,1296,0,0
-140,-272,0,0,0,0,0,0,0,0,0,-1,1084,1296,0,0
-133,-272,0,0,0,0,0,0,0,0,0,-1,1091,1296,0,0
-126,-272,0,0,0,0,0,0,0,0,0,-1,1098,1296,0,0
-119,-272,0,0,0,0,0,0,0,0,0,-1,1105,1296,0,0
-112,-272,0,0,0,0,0,0,0,0,0,-1,1112,1296,0,0
-105,-272,0,0,0,0,0,0,0,0,0,-1,1119,1296,0,0
-98,-272,0,0,0,0,0,0,0,0,0,-1,1126,1296,0,0
-91,-272,0,0,0,0,0,0,0,0,0,-1,1133,1296,0,0
-84,-272,0,0,0,0,0,0,0,0,0,-1,1140,1296,0,0
-77,-272,0,0,0,0,0,0,0,0,0,-1,1147,1296,0,0
-70,-272,0,0,0,0,0,0,0,0,0,-1,1154,1296,0,0
-63,-272,0,0,0,0,0,0,0,0,0,-1,1161,1296,0,0
-56,-272,0,0,0,0,0,0,0,0,0,-1,1168,1296,0,0
-49,-272,0,0,0,0,0,0,0,0,0,-1,1175,1296,0,0
-42,-272,0,0,0,0,0,0,0,0,0,-1,1182,1296,0,0
-35,-272,0,0,0,0,0,0,0,0,0,-1,1189,1296,0,0
-28,-272,0,0,0,0,0,0,0,0,0,-1,1196,1296,0,0
-21,-272,0,0,0,0,0,0,0,0,0,-1,1203,1296,0,0
-14,-272,0,0,0,0,0,0,0,0,0,-1,1210,1296,0,0
-7,-272,0,0,0,0,0,0,0,0,0,-1,1217,1296,0,0
0,-272,0,0,0,0,0,0,0,0,0,-1,1224,1296,0,0
7,-272,0,0,0,0,0,0,0,0,0,-1,1231,1296,0,0
14,-272,0,0,0,0,0,0,0,0,0,-1,1238,1296,0,0
21,-272,0,0,0,0,0,0,0,0,0,-1,1245,1296,0,0
28,-272,0,0,0,0,0,0,0,0,0,-1,1252,1296,0,0
35,-272,0,0,0,0,0,0,0,0,0,-1,1259,1296,0,0
42,-272,0,0,0,0,0,0,0,0,0,-1,1266,1296,0,0
49,-272,0,0,0,0,0,0,0,0,0,-1,1273,1296,0,0
56,-272,0,0,0,0,0,0,0,0,0,-1,1280,1296,0,0
63,-272,0,0,0,0,0,0,0,0,0,-1,1287,1296,0,0
70,-272,0,0,0,0,0,0,0,0,0,-1,1294,1296,0,0
77,-272,0,0,0,0,0,0,0,0,0,-1,1301,1296,0,0
84,-272,0,0,0,0,0,0,0,0,0,-1,1308,1296,0,0
91,-272,0,0,0,0,0,0,0,0,0,-1,1315,1296,0,0
98,-272,0,0,0,0,0,0,0,0,0,-1,1322,1296,0,0
105,-272,0,0,0,0,0,0,0,0,0,-1,1329,1296,0,0
112,-272,0,0,0,0,0,0,0,0,0,-1,1336,1296,0,0
119,-272,0,0,0,0,0,0,0,0,0,-1,1343,1296,0,0
126,-272,0,0,0,0,0,0,0,0,0,-1,1350,1296,0,0
133,-272,0,0,0,0,0,0,0,0,0,-1,1357,1296,0,0
140,-272,0,0,0,0,0,0,0,0,0,-1,1364,1296,0,0
147,-272,0,0,0,0,0,0,0,0,0,-1,1371,1296,0,0
154,-272,0,0,0,0,0,0,0,0,0,-1,1378,1296,0,0
161,-272,0,0,0,0,0,0,0,0,0,-1,1385,1296,0,0
168,-272,0,0,0,0,0,0,0,0,0,-1,1392,1296,0,0
175,-272,0,0,0,0,0,0,0,0,0,-1,1399,1296,0,0
182,-272,0,0,0,0,0,0,0,0,0,-1,1406,1296,0,0
189,-272,0,0,0,0,0,0,0,0,0,-1,1413,1296,0,0
196,-272,0,0,0,0,0,0,0,0,0,-1,1420,1296,0,0
203,-272,0,0,0,0,0,0,0,0,0,-1,1427,1296,0,0
210,-272,0,0,0,0,0,0,0,0,0,-1,1434,1296,0,0
217,-272,0,0,0,0,0,0,0,0,0,-1,1441,1296,0,0
224,-272,0,0,0,0,0,0,0,0,0,-1,1448,1296,0,0
231,-272,0,0,0,0,0,0,0,0,0,-1,1455,1296,0,0
238,-272,0,0,0,0,0,0,0,0,0,-1,1462,1296,0,0
245,-272,0,0,0,0,0,0,0,0,0,-1,1469,1296,0,0
252,-272,0,0,0,0,0,0,0,0,0,-1,1476,1296,0,0
259,-272,0,0,0,0,0,0,0,0,0,-1,1483,1296,0,0
266,-272,0,0,0,0,0,0,0,0,0,-1,1490,1296,0,0
273,-272,0,0,0,0,0,0,0,0,0,-1,1497,1296,0,0
280,-272,0,0,0,0,0,0,0,0,0,-1,1504,1296,0,0
287,-272,0,0,0,0,0,0,0,0,0,-1,1511,1296,0,0
294,-272,0,0,0,0,0,0,0,0,0,-1,1518,1296,0,0
301,-272,0,0,0,0,0,0,0,0,0,-1,1525,1296,0,0
308,-272,0,0,0,0,0,0,0,0,0,-1,1532,1296,0,0
315,-272,0,0,0,0,0,0,0,0,0,-1,1539,1296,0,0
322,-272,0,0,0,0,0,0,0,0,0,-1,1546,1296,0,0
329,-272,0,0,0,0,0,0,0,0,0,-1,1553,1296,0,0
336,-272,0,0,0,0,0,0,0,0,0,-1,1560,1296,0,0
343,-272,0,0,0,0,0,0,0,0,0,-1,1567,1296,0,0
350,-272,0,0,0,0,0,0,0,0,0,-1,1574,1296,0,0
357,-272,0,0,0,0,0,0,0,0,0,-1,1581,1296,0,0
364,-272,0,0,0,0,0,0,0,0,0,-1,1588,1296,0,0
371,-272,0,0,0,0,0,0,0,0,0,-1,1595,1296,0,0
378,-272,0,0,0,0,0,0,0,0,0,-1,1602,1296,0,0
385,-272,0,0,0,0,0,0,0,0,0,-1,1609,1296,0,0
392,-272,0,0,0,0,0,0,0,0,0,-1,1616,1296,0,0
399,-272,0,0,0,0,0,0,0,0,0,-1,1623,1296,0,0
406,-272,0,0,0,0,0,0,0,0,0,-1,1630,1296,0,0
413,-272,0,0,0,0,0,0,0,0,0,-1,1637,1296,0,0
420,-272,0,0,0,0,0,0,0,0,0,-1,1644,1296,0,0
427,-272,0,0,0,0,0,0,0,0,0,-1,1651,1296,0,0
434,-272,0,0,0,0,0,0,0,0,0,-1,1658,1296,0,0
441,-272,0,0,0,0,0,0,0,0,0,-1,1665,1296,0,0
448,-272,0,0,0,0,0,0,0,0,0,-1,1672,1296,0,0
455,-272,0,0,0,0,0,0,0,0,0,-1,1679,1296,0,0
462,-272,0,0,0,0,0,0,0,0,0,-1,1686,1296,0,0
469,-272,0,0,0,0,0,0,0,0,0,-1,1693,1296,0,0
476,-272,0,0,0,0,0,0,0,0,0,-1,1700,1296,0,0
483,-272,0,0,0,0,0,0,0,0,0,-1,1707,1296,0,0
490,-272,0,0,0,0,0,0,0,0,0,-1,1714,1296,0,0
497,-272,0,0,0,0,0,0,0,0,0,-1,1721,1296,0,0
504,-272,0,0,0,0,0,0,0,0,0,-1,1728,1296,0,0
511,-272,0,0,0,0,0,0,0,0,0,-1,1735,1296,0,0
518,-272,0,0,0,0,0,0,0,0,0,-1,1742,1296,0,0
525,-272,0,0,0,0,0,0,0,0,0,-1,1749,1296,0,0
532,-272,0,0,0,0,0,0,0,0,0,-1,1756,1296,0,0
539,-272,0,0,0,0,0,0,0,0,0,-1,1763,1296,0,0
546,-272,0,0,0,0,0,0,0,0,0,-1,1770,1296,0,0
553,-272,0,0,0,0,0,0,0,0,0,-1,1777,1296,0,0
560,-272,0,0,0,0,0,0,0,0,0,-1,1784,1296,0,0
567,-272,0,0,0,0,0,0,0,0,0,-1,1791,1296,0,0
574,-272,0,0,0,0,0,0,0,0,0,-1,1798,1296,0,0
581,-272,0,0,0,0,0,0,0,0,0,-1,1805,1296,0,0
588,-272,0,0,0,0,0,0,0,0,0,-1,1812,1296,0,0
595,-272,0,0,0,0,0,0,0,0,0,-1,1819,1296,0,0
602,-272,74.2379,2.25562,-0.00852131,0.0137979,-0.00735215,0.0160021,-0.0107255,-1.27952,0.0155311,0.0332298,1826,1296,74.2379,-2.25559
609,-272,74.1189,2.0376,-0.0181423,0.0195434,-0.00763744,0.0210323,-0.0196313,-1.37825,0.0234818,0.0413087,1833,1296,74.1189,-2.03756
616,-272,74.0465,1.78796,-0.025195,0.0232449,-0.0075501,0.0243944,-0.0263445,-1.4197,0.0293013,0.0456589,1840,1296,74.0466,-1.78791
623,-272,73.735,1.57019,-0.0257532,0.0231789,-0.00695195,0.0241474,-0.0267217,-1.43237,0.0293818,0.0450041,1847,1296,73.735,-1.57017
630,-272,73.3518,1.56897,-0.0233652,0.0213361,-0.00616378,0.0221704,-0.0241996,-1.43625,0.0267803,0.0457865,1854,1296,73.3518,-1.56894
637,-272,73.2363,1.72961,0,0,0,0,0,0,0,-1,1861,1296,73.2364,-1.72962
644,-272,53.563,1.44336,0,0,0,0,0,0,0,-1,1868,1296,53.5629,-1.4433
651,-272,41.9225,4.27161,0,0,0,0,0,0,0,-1,1875,1296,41.9225,-4.27157
658,-272,35.1527,2.10571,0,0,0,0,0,0,0,-1,1882,1296,35.1527,-2.10573
665,-272,22.0238,4.14417,0,0,0,0,0,0,0,-1,1889,1296,22.0238,-4.14421
672,-272,22.661,7.21765,0,0,0,0,0,0,0,-1,1896,1296,22.661,-7.21761
679,-272,51.5885,15.1158,0,0,0,0,0,0,0,-1,1903,1296,51.5885,-15.1159
686,-272,51.957,14.5237,0,0,0,0,0,0,0,-1,1910,1296,51.957,-14.5236
693,-272,51.9789,13.8041,0.000583552,0.000752637,-0.000267594,0.000948726,0.000387463,-0.938403,0.000550802,0.0133443,1917,1296,51.9789,-13.8041
700,-272,51.9818,13.0544,0.00109884,-0.000607096,0.000195423,0.00112094,-0.000629197,0.112611,0.00102365,0.0133087,1924,1296,51.9818,-13.0545
707,-272,51.9561,12.2808,0.000311108,-0.000762699,0.000760276,0.000704948,-0.00115654,0.477962,0.00108522,0.0124298,1931,1296,51.956,-12.2808
714,-272,51.9053,11.5251,-0.00058181,-0.000751331,0.00149508,0.000830906,-0.00216405,0.757082,0.00178533,0.0143263,1938,1296,51.9053,-11.5251
721,-272,51.8308,10.8235,-0.00151799,-0.000783685,0.00229631,0.00117464,-0.00347631,0.864671,0.00279268,0.0186978,1945,1296,51.8309,-10.8235
728,-272,51.8131,10.0387,-0.00249515,-0.000868684,0.00319033,0.00161044,-0.00497427,0.910193,0.00396359,0.0202728,1952,1296,51.8132,-10.0386
735,-272,51.7925,9.32239,-0.00354065,-0.000999504,0.00419795,0.00211594,-0.0066561,0.932348,0.00528582,0.0180785,1959,1296,51.7925,-9.32233
742,-272,51.6814,8.6781,-0.00464639,-0.00119463,0.00533037,0.0026823,-0.00852333,0.941963,0.0067562,0.0259372,1966,1296,51.6814,-8.67816
749,-272,51.7468,7.95569,-0.00580117,-0.00152198,0.00665709,0.0033309,-0.010654,0.940885,0.00843514,0.0463356,1973,1296,51.7468,-7.95567
756,-272,51.9667,7.27295,0,0,0,0,0,0,0,-1,1980,1296,51.9667,-7.27291
763,-272,34.3995,5.88416,0,0,0,0,0,0,0,-1,1987,1296,34.3996,-5.88419
770,-272,25.9485,3.67749,0,0,0,0,0,0,0,-1,1994,1296,25.9485,-3.67744
777,-272,32.3619,6.13257,0,0,0,0,0,0,0,-1,2001,1296,32.362,-6.1326
784,-272,0,0,0,0,0,0,0,0,0,-1,2008,1296,0,0
791,-272,0,0,0,0,0,0,0,0,0,-1,2015,1296,0,0
798,-272,0,0,0,0,0,0,0,0,0,-1,2022,1296,0,0
805,-272,0,0,0,0,0,0,0,0,0,-1,2029,1296,0,0
812,-272,0,0,0,0,0,0,0,0,0,-1,2036,1296,0,0
-700,-279,0,0,0,0,0,0,0,0,0,-1,524,1303,0,0
-693,-279,0,0,0,0,0,0,0,0,0,-1,531,1303,0,0
-686,-279,0,0,0,0,0,0,0,0,0,-1,538,1303,0,0
-679,-279,0,0,0,0,0,0,0,0,0,-1,545,1303,0,0
-672,-279,0,0,0,0,0,0,0,0,0,-1,552,1303,0,0
-665,-279,0,0,0,0,0,0,0,0,0,-1,559,1303,0,0
-658,-279,-44.3733,1.65881,0,0,0,0,0,0,0,-1,566,1303,-44.3733,-1.65883
-651,-279,-44.1603,1.61462,0,0,0,0,0,0,0,-1,573,1303,-44.1604,-1.61462
-644,-279,-43.8069,1.50903,0,0,0,0,0,0,0,-1,580,1303,-43.8069,-1.50909
-637,-279,-43.2951,1.33704,0,0,0,0,0,0,0,-1,587,1303,-43.2951,-1.33703
-630,-279,-42.6152,1.22852,0,0,0,0,0,0,0,-1,594,1303,-42.6152,-1.22856
-623,-279,-41.8359,0.907715,0,0,0,0,0,0,0,-1,601,1303,-41.8358,-0.907688
-616,-279,-33.9639,7.0083,0,0,0,0,0,0,0,-1,608,1303,-33.964,-7.00832
-609,-279,-34.0564,7.82898,0,0,0,0,0,0,0,-1,615,1303,-34.0564,-7.82903
-602,-279,-33.9195,8.29236,0.00454179,0.00245218,0.000769639,0.00479466,0.00219931,0.317445,0.00277135,0.0153926,622,1303,-33.9195,-8.29235
-595,-279,-33.9865,9.08313,0.00297119,0.00177904,0.000550133,0.00318625,0.00156397,0.372669,0.00183969,0.0100944,629,1303,-33.9865,-9.08307
-588,-279,-34.0186,9.85168,0.00188997,0.0011466,0.000323273,0.00201089,0.00102569,0.357925,0.00116107,0.0114308,636,1303,-34.0186,-9.85169
-581,-279,-34.0864,10.6132,0.00116887,0.000482383,0.000107012,0.00118516,0.000466088,0.15111,0.000689429,0.0129403,643,1303,-34.0864,-10.6131
-574,-279,-34.1501,11.4109,0.000747078,-0.000210343,-8.00648e-05,0.000753727,-0.000216992,-0.0828586,0.000588309,0.0134579,650,1303,-34.1501,-11.4109
-567,-279,-34.1656,12.179,0.000618331,-0.000934926,-0.000203918,0.000644656,-0.000961251,-0.128386,0.000933157,0.0186216,657,1303,-34.1656,-12.179
-560,-279,-34.2264,13.0059,0.000954098,-0.00163185,-0.000237622,0.000975752,-0.0016535,-0.0908758,0.00153472,0.0176868,664,1303,-34.2264,-13.0058
-553,-279,-34.2604,13.8141,0.00163298,-0.00248171,-0.000110805,0.00163596,-0.00248469,-0.0269032,0.00239582,0.0203272,671,1303,-34.2604,-13.814
-546,-279,-34.2827,14.6309,0,0,0,0,0,0,0,-1,678,1303,-34.2827,-14.6308
-539,-279,-33.4584,14.6454,0,0,0,0,0,0,0,-1,685,1303,-33.4584,-14.6454
-532,-279,-14.9813,7.89917,0,0,0,0,0,0,0,-1,692,1303,-14.9813,-7.89918
-525,-279,-11.7063,-0.539185,0,0,0,0,0,0,0,-1,699,1303,-11.7063,0.539166
-518,-279,-16.8138,1.11963,0,0,0,0,0,0,0,-1,706,1303,-16.8138,-1.11968
-511,-279,-20.1063,-1.37915,0,0,0,0,0,0,0,-1,713,1303,-20.1062,1.37918
-504,-279,-18.3766,1.04578,0,0,0,0,0,0,0,-1,720,1303,-18.3767,-1.04577
-497,-279,-19.0046,2.08911,0,0,0,0,0,0,0,-1,727,1303,-19.0046,-2.08905
-490,-279,-20.0176,2.55188,0,0,0,0,0,0,0,-1,734,1303,-20.0176,-2.55183
-483,-279,-20.8064,2.99792,0,0,0,0,0,0,0,-1,741,1303,-20.8064,-2.99797
-476,-279,0,0,0,0,0,0,0,0,0,-1,748,1303,0,0
-469,-279,0,0,0,0,0,0,0,0,0,-1,755,1303,0,0
-462,-279,0,0,0,0,0,0,0,0,0,-1,762,1303,0,0
-455,-279,0,0,0,0,0,0,0,0,0,-1,769,1303,0,0
-448,-279,0,0,0,0,0,0,0,0,0,-1,776,1303,0,0
-441,-279,0,0,0,0,0,0,0,0,0,-1,783,1303,0,0
-434,-279,0,0,0,0,0,0,0,0,0,-1,790,1303,0,0
-427,-279,0,0,0,0,0,0,0,0,0,-1,797,1303,0,0
-420,-279,0,0,0,0,0,0,0,0,0,-1,804,1303,0,0
-413,-279,0,0,0,0,0,0,0,0,0,-1,811,1303,0,0
-406,-279,0,0,0,0,0,0,0,0,0,-1,818,1303,0,0
-399,-279,0,0,0,0,0,0,0,0,0,-1,825,1303,0,0
-392,-279,0,0,0,0,0,0,0,0,0,-1,832,1303,0,0
-385,-279,0,0,0,0,0,0,0,0,0,-1,839,1303,0,0
-378,-279,0,0,0,0,0,0,0,0,0,-1,846,1303,0,0
-371,-279,0,0,0,0,0,0,0,0,0,-1,853,1303,0,0
-364,-279,0,0,0,0,0,0,0,0,0,-1,860,1303,0,0
-357,-279,0,0,0,0,0,0,0,0,0,-1,867,1303,0,0
-350,-279,0,0,0,0,0,0,0,0,0,-1,874,1303,0,0
-343,-279,0,0,0,0,0,0,0,0,0,-1,881,1303,0,0
-336,-279,0,0,0,0,0,0,0,0,0,-1,888,1303,0,0
-329,-279,0,0,0,0,0,0,0,0,0,-1,895,1303,0,0
-322,-279,0,0,0,0,0,0,0,0,0,-1,902,1303,0,0
-315,-279,0,0,0,0,0,0,0,0,0,-1,909,1303,0,0
-308,-279,0,0,0,0,0,0,0,0,0,-1,916,1303,0,0
-301,-279,0,0,0,0,0,0,0,0,0,-1,923,1303,0,0
-294,-279,0,0,0,0,0,0,0,0,0,-1,930,1303,0,0
-287,-279,0,0,0,0,0,0,0,0,0,-1,937,1303,0,0
-280,-279,0,0,0,0,0,0,0,0,0,-1,944,1303,0,0
-273,-279,0,0,0,0,0,0,0,0,0,-1,951,1303,0,0
-266,-279,0,0,0,0,0,0,0,0,0,-1,958,1303,0,0
-259,-279,0,0,0,0,0,0,0,0,0,-1,965,1303,0,0
-252,-279,0,0,0,0,0,0,0,0,0,-1,972,1303,0,0
-245,-279,0,0,0,0,0,0,0,0,0,-1,979,1303,0,0
-238,-279,0,0,0,0,0,0,0,0,0,-1,986,1303,0,0
-231,-279,0,0,0,0,0,0,0,0,0,-1,993,1303,0,0
-224,-279,0,0,0,0,0,0,0,0,0,-1,1000,1303,0,0
-217,-279,0,0,0,0,0,0,0,0,0,-1,1007,1303,0,0
-210,-279,0,0,0,0,0,0,0,0,0,-1,1014,1303,0,0
-203,-279,0,0,0,0,0,0,0,0,0,-1,1021,1303,0,0
-196,-279,0,0,0,0,0,0,0,0,0,-1,1028,1303,0,0
-189,-279,0,0,0,0,0,0,0,0,0,-1,1035,1303,0,0
-182,-279,0,0,0,0,0,0,0,0,0,-1,1042,1303,0,0
-175,-279,0,0,0,0,0,0,0,0,0,-1,1049,1303,0,0
-168,-279,0,0,0,0,0,0,0,0,0,-1,1056,1303,0,0
-161,-279,0,0,0,0,0,0,0,0,0,-1,1063,1303,0,0
-154,-279,0,0,0,0,0,0,0,0,0,-1,1070,1303,0,0
-147,-279,0,0,0,0,0,0,0,0,0,-1,1077,1303,0,0
-140,-279,0,0,0,0,0,0,0,0,0,-1,1084,1303,0,0
-133,-279,0,0,0,0,0,0,0,0,0,-1,1091,1303,0,0
-126,-279,0,0,0,0,0,0,0,0,0,-1,1098,1303,0,0
-119,-279,0,0,0,0,0,0,0,0,0,-1,1105,1303,0,0
-112,-279,0,0,0,0,0,0,0,0,0,-1,1112,1303,0,0
-105,-279,0,0,0,0,0,0,0,0,0,-1,1119,1303,0,0
-98,-279,0,0,0,0,0,0,0,0,0,-1,1126,1303,0,0
-91,-279,0,0,0,0,0,0,0,0,0,-1,1133,1303,0,0
-84,-279,0,0,0,0,0,0,0,0,0,-1,1140,1303,0,0
-77,-279,0,0,0,0,0,0,0,0,0,-1,1147,1303,0,0
-70,-279,0,0,0,0,0,0,0,0,0,-1,1154,1303,0,0
-63,-279,0,0,0,0,0,0,0,0,0,-1,1161,1303,0,0
-56,-279,0,0,0,0,0,0,0,0,0,-1,1168,1303,0,0
-49,-279,0,0,0,0,0,0,0,0,0,-1,1175,1303,0,0
-42,-279,0,0,0,0,0,0,0,0,0,-1,1182,1303,0,0
-35,-279,0,0,0,0,0,0,0,0,0,-1,1189,1303,0,0
-28,-279,0,0,0,0,0,0,0,0,0,-1,1196,1303,0,0
-21,-279,0,0,0,0,0,0,0,0,0,-1,1203,1303,0,0
-14,-279,0,0,0,0,0,0,0,0,0,-1,1210,1303,0,0
-7,-279,0,0,0,0,0,0,0,0,0,-1,1217,1303,0,0
0,-279,0,0,0,0,0,0,0,0,0,-1,1224,1303,0,0
7,-279,0,0,0,0,0,0,0,0,0,-1,1231,1303,0,0
14,-279,0,0,0,0,0,0,0,0,0,-1,1238,1303,0,0
21,-279,0,0,0,0,0,0,0,0,0,-1,1245,1303,0,0
28,-279,0,0,0,0,0,0,0,0,0,-1,1252,1303,0,0
35,-279,0,0,0,0,0,0,0,0,0,-1,1259,1303,0,0
42,-279,0,0,0,0,0,0,0,0,0,-1,1266,1303,0,0
49,-279,0,0,0,0,0,0,0,0,0,-1,1273,1303,0,0
56,-279,0,0,0,0,0,0,0,0,0,-1,1280,1303,0,0
63,-279,0,0,0,0,0,0,0,0,0,-1,1287,1303,0,0
70,-279,0,0,0,0,0,0,0,0,0,-1,1294,1303,0,0
77,-279,0,0,0,0,0,0,0,0,0,-1,1301,1303,0,0
84,-279,0,0,0,0,0,0,0,0,0,-1,1308,1303,0,0
91,-279,0,0,0,0,0,0,0,0,0,-1,1315,1303,0,0
98,-279,0,0,0,0,0,0,0,0,0,-1,1322,1303,0,0
105,-279,0,0,0,0,0,0,0,0,0,-1,1329,1303,0,0
112,-279,0,0,0,0,0,0,0,0,0,-1,1336,1303,0,0
119,-279,0,0,0,0,0,0,0,0,0,-1,1343,1303,0,0
126,-279,0,0,0,0,0,0,0,0,0,-1,1350,1303,0,0
133,-279,0,0,0,0,0,0,0,0,0,-1,1357,1303,0,0
140,-279,0,0,0,0,0,0,0,0,0,-1,1364,1303,0,0
147,-279,0,0,0,0,0,0,0,0,0,-1,1371,1303,0,0
154,-279,0,0,0,0,0,0,0,0,0,-1,1378,1303,0,0
161,-279,0,0,0,0,0,0,0,0,0,-1,1385,1303,0,0
168,-279,0,0,0,0,0,0,0,0,0,-1,1392,1303,0,0
175,-279,0,0,0,0,0,0,0,0,0,-1,1399,1303,0,0
182,-279,0,0,0,0,0,0,0,0,0,-1,1406,1303,0,0
189,-279,0,0,0,0,0,0,0,0,0,-1,1413,1303,0,0
196,-279,0,0,0,0,0,0,0,0,0,-1,1420,1303,0,0
203,-279,0,0,0,0,0,0,0,0,0,-1,1427,1303,0,0
210,-279,0,0,0,0,0,0,0,0,0,-1,1434,1303,0,0
217,-279,0,0,0,0,0,0,0,0,0,-1,1441,1303,0,0
224,-279,0,0,0,0,0,0,0,0,0,-1,1448,1303,0,0
231,-279,0,0,0,0,0,0,0,0,0,-1,1455,1303,0,0
238,-279,0,0,0,0,0,0,0,0,0,-1,1462,1303,0,0
245,-279,0,0,0,0,0,0,0,0,0,-1,1469,1303,0,0
252,-279,0,0,0,0,0,0,0,0,0,-1,1476,1303,0,0
259,-279,0,0,0,0,0,0,0,0,0,-1,1483,1303,0,0
266,-279,0,0,0,0,0,0,0,0,0,-1,1490,1303,0,0
273,-279,0,0,0,0,0,0,0,0,0,-1,1497,1303,0,0
280,-279,0,0,0,0,0,0,0,0,0,-1,1504,1303,0,0
287,-279,0,0,0,0,0,0,0,0,0,-1,1511,1303,0,0
294,-279,0,0,0,0,0,0,0,0,0,-1,1518,1303,0,0
301,-279,0,0,0,0,0,0,0,0,0,-1,1525,1303,0,0
308,-279,0,0,0,0,0,0,0,0,0,-1,1532,1303,0,0
315,-279,0,0,0,0,0,0,0,0,0,-1,1539,1303,0,0
322,-279,0,0,0,0,0,0,0,0,0,-1,1546,1303,0,0
329,-279,0,0,0,0,0,0,0,0,0,-1,1553,1303,0,0
336,-279,0,0,0,0,0,0,0,0,0,-1,1560,1303,0,0
343,-279,0,0,0,0,0,0,0,0,0,-1,1567,1303,0,0
350,-279,0,0,0,0,0,0,0,0,0,-1,1574,1303,0,0
357,-279,0,0,0,0,0,0,0,0,0,-1,1581,1303,0,0
364,-279,0,0,0,0,0,0,0,0,0,-1,1588,1303,0,0
371,-279,0,0,0,0,0,0,0,0,0,-1,1595,1303,0,0
378,-279,0,0,0,0,0,0,0,0,0,-1,1602,1303,0,0
385,-279,0,0,0,0,0,0,0,0,0,-1,1609,1303,0,0
392,-279,0,0,0,0,0,0,0,0,0,-1,1616,1303,0,0
399,-279,0,0,0,0,0,0,0,0,0,-1,1623,1303,0,0
406,-279,0,0,0,0,0,0,0,0,0,-1,1630,1303,0,0
413,-279,0,0,0,0,0,0,0,0,0,-1,1637,1303,0,0
420,-279,0,0,0,0,0,0,0,0,0,-1,1644,1303,0,0
427,-279,0,0,0,0,0,0,0,0,0,-1,1651,1303,0,0
434,-279,0,0,0,0,0,0,0,0,0,-1,1658,1303,0,0
441,-279,0,0,0,0,0,0,0,0,0,-1,1665,1303,0,0
448,-279,0,0,0,0,0,0,0,0,0,-1,1672,1303,0,0
455,-279,0,0,0,0,0,0,0,0,0,-1,1679,1303,0,0
462,-279,0,0,0,0,0,0,0,0,0,-1,1686,1303,0,0
469,-279,0,0,0,0,0,0,0,0,0,-1,1693,1303,0,0
476,-279,0,0,0,0,0,0,0,0,0,-1,1700,1303,0,0
483,-279,0,0,0,0,0,0,0,0,0,-1,1707,1303,0,0
490,-279,0,0,0,0,0,0,0,0,0,-1,1714,1303,0,0
497,-279,0,0,0,0,0,0,0,0,0,-1,1721,1303,0,0
504,-279,0,0,0,0,0,0,0,0,0,-1,1728,1303,0,0
511,-279,0,0,0,0,0,0,0,0,0,-1,1735,1303,0,0
518,-279,0,0,0,0,0,0,0,0,0,-1,1742,1303,0,0
525,-279,0,0,0,0,0,0,0,0,0,-1,1749,1303,0,0
532,-279,0,0,0,0,0,0,0,0,0,-1,1756,1303,0,0
539,-279,0,0,0,0,0,0,0,0,0,-1,1763,1303,0,0
546,-279,0,0,0,0,0,0,0,0,0,-1,1770,1303,0,0
553,-279,0,0,0,0,0,0,0,0,0,-1,1777,1303,0,0
560,-279,0,0,0,0,0,0,0,0,0,-1,1784,1303,0,0
567,-279,0,0,0,0,0,0,0,0,0,-1,1791,1303,0,0
574,-279,0,0,0,0,0,0,0,0,0,-1,1798,1303,0,0
581,-279,0,0,0,0,0,0,0,0,0,-1,1805,1303,0,0
588,-279,0,0,0,0,0,0,0,0,0,-1,1812,1303,0,0
595,-279,0,0,0,0,0,0,0,0,0,-1,1819,1303,0,0
602,-279,74.2072,2.10986,0,0,0,0,0,0,0,-1,1826,1303,74.2071,-2.10987
609,-279,74.0514,1.88843,0,0,0,0,0,0,0,-1,1833,1303,74.0514,-1.88847
616,-279,74.0165,1.42749,-0.0247889,0.0226496,-0.00838519,0.0240881,-0.0262275,-1.40089,0.0290585,0.0481876,1840,1303,74.0165,-1.42754
623,-279,73.9199,1.29907,-0.022473,0.0207317,-0.00720165,0.0219005,-0.0236418,-1.4099,0.0263003,0.0464848,1847,1303,73.9199,-1.29905
630,-279,73.6859,1.52124,0,0,0,0,0,0,0,-1,1854,1303,73.6859,-1.52119
637,-279,73.1141,1.62744,0,0,0,0,0,0,0,-1,1861,1303,73.1142,-1.62742
644,-279,33.5021,3.40234,0,0,0,0,0,0,0,-1,1868,1303,33.5021,-3.40237
651,-279,29.8456,2.3562,0,0,0,0,0,0,0,-1,1875,1303,29.8455,-2.35615
658,-279,21.5076,7.65649,0,0,0,0,0,0,0,-1,1882,1303,21.5076,-7.65648
665,-279,18.9794,6.09607,0,0,0,0,0,0,0,-1,1889,1303,18.9793,-6.09601
672,-279,23.5206,8.32507,0,0,0,0,0,0,0,-1,1896,1303,23.5206,-8.32512
679,-279,51.0276,15.3384,0,0,0,0,0,0,0,-1,1903,1303,51.0276,-15.3383
686,-279,51.1833,14.6025,-0.00224173,0.00343217,-0.00101229,0.00360737,-0.00241692,-1.39943,0.00350069,0.033157,1910,1303,51.1834,-14.6026
693,-279,51.2231,13.8684,0.000941744,0.000375794,-0.000427595,0.00117152,0.00014602,-0.493091,0.000737176,0.0173064,1917,1303,51.2231,-13.8684
700,-279,51.2142,13.1118,0.00112379,-0.000535701,0.00012904,0.00113377,-0.000545675,0.0771409,0.000989243,0.0132473,1924,1303,51.2142,-13.1118
707,-279,51.1746,12.3271,0.000348653,-0.000667921,0.00079275,0.000782071,-0.00110134,0.500327,0.00109258,0.0103772,1931,1303,51.1746,-12.3272
714,-279,51.1212,11.5791,-0.000512856,-0.000758727,0.00155433,0.000923394,-0.00219498,0.745934,0.00184961,0.0111692,1938,1303,51.1212,-11.5791
721,-279,51.1268,10.833,-0.00142184,-0.000898399,0.00238675,0.00124094,-0.00356118,0.840008,0.00287836,0.0161546,1945,1303,51.1268,-10.833
728,-279,51.1028,10.0927,-0.00238327,-0.00108972,0.00331651,0.00164249,-0.00511548,0.881698,0.00406984,0.0183705,1952,1303,51.1028,-10.0926
735,-279,51.0225,9.39465,-0.00342592,-0.00133453,0.00436666,0.00210989,-0.00687034,0.902921,0.00542213,0.0176555,1959,1303,51.0225,-9.39467
742,-279,50.9485,8.71509,-0.00453685,-0.00164386,0.00553769,0.00263313,-0.00881385,0.913148,0.0069226,0.0285407,1966,1303,50.9485,-8.71507
749,-279,50.9542,8.15625,0,0,0,0,0,0,0,-1,1973,1303,50.9542,-8.15627
756,-279,23.2091,4.43433,0,0,0,0,0,0,0,-1,1980,1303,23.2092,-4.43432
763,-279,27.1613,3.46265,0,0,0,0,0,0,0,-1,1987,1303,27.1613,-3.4627
770,-279,21.5828,3.54199,0,0,0,0,0,0,0,-1,1994,1303,21.5827,-3.54198
777,-279,32.5369,6.99609,0,0,0,0,0,0,0,-1,2001,1303,32.5369,-6.99608
784,-279,0,0,0,0,0,0,0,0,0,-1,2008,1303,0,0
791,-279,0,0,0,0,0,0,0,0,0,-1,2015,1303,0,0
798,-279,0,0,0,0,0,0,0,0,0,-1,2022,1303,0,0
805,-279,0,0,0,0,0,0,0,0,0,-1,2029,1303,0,0
812,-279,0,0,0,0,0,0,0,0,0,-1,2036,1303,0,0
-700,-286,0,0,0,0,0,0,0,0,0,-1,524,1310,0,0
-693,-286,0,0,0,0,0,0,0,0,0,-1,531,1310,0,0
-686,-286,0,0,0,0,0,0,0,0,0,-1,538,1310,0,0
-679,-286,0,0,0,0,0,0,0,0,0,-1,545,1310,0,0
-672,-286,0,0,0,0,0,0,0,0,0,-1,552,1310,0,0
-665,-286,0,0,0,0,0,0,0,0,0,-1,559,1310,0,0
-658,-286,-44.103,1.76782,0,0,0,0,0,0,0,-1,566,1310,-44.103,-1.76778
-651,-286,-43.6417,1.98254,0,0,0,0,0,0,0,-1,573,1310,-43.6416,-1.98254
-644,-286,-43.3175,1.59558,0,0,0,0,0,0,0,-1,580,1310,-43.3175,-1.59556
-637,-286,-42.8448,1.15039,0,0,0,0,0,0,0,-1,587,1310,-42.8448,-1.15043
-630,-286,-42.1176,0.443848,0,0,0,0,0,0,0,-1,594,1310,-42.1176,-0.443802
-623,-286,-41.3121,-0.468384,0,0,0,0,0,0,0,-1,601,1310,-41.3121,0.468376
-616,-286,-22.0634,2.37744,0,0,0,0,0,0,0,-1,608,1310,-22.0633,-2.37746
-609,-286,-33.2881,7.2019,0,0,0,0,0,0,0,-1,615,1310,-33.2881,-7.20187
-602,-286,-33.174,8.22571,0.00460129,0.00304878,0.0014187,0.00544222,0.00220785,0.535069,0.00316064,0.0229079,622,1310,-33.1739,-8.22565
-595,-286,-33.2197,9.11292,0.00312408,0.00216889,0.000991488,0.00374701,0.00154597,0.56095,0.00217433,0.0124094,629,1310,-33.2197,-9.11289
-588,-286,-33.2518,9.86853,0.00212505,0.00140428,0.000643456,0.00250217,0.00102716,0.530125,0.00145232,0.0147189,636,1310,-33.2518,-9.86855
-581,-286,-33.2706,10.6477,0.00149927,0.00066847,0.00039674,0.00165829,0.000509449,0.381212,0.000980853,0.0154801,643,1310,-33.2706,-10.6477
-574,-286,-33.3542,11.4585,0.00117245,-4.45359e-05,0.000232844,0.00121547,-8.75645e-05,0.182734,0.000841025,0.0146062,650,1310,-33.3542,-11.4585
-567,-286,-33.3978,12.2478,0.00110586,-0.000730771,0.000178783,0.0011231,-0.000748012,0.0961405,0.0010875,0.0154761,657,1310,-33.3978,-12.2478
-560,-286,-33.4124,13.046,0.00146874,-0.00136707,0.000246349,0.00148998,-0.00138831,0.0860123,0.00166213,0.0145667,664,1310,-33.4124,-13.046
-553,-286,-33.4289,13.8595,0.00219808,-0.00202467,0.000495229,0.00225539,-0.00208197,0.115194,0.00250484,0.0112531,671,1310,-33.4289,-13.8595
-546,-286,-33.3734,14.7008,0.00340137,-0.0024027,0.00110577,0.0036049,-0.00260623,0.182025,0.00360142,0.0289181,678,1310,-33.3734,-14.7008
-539,-286,-33.4565,15.6245,0,0,0,0,0,0,0,-1,685,1310,-33.4565,-15.6245
-532,-286,-21.6771,10.4924,0,0,0,0,0,0,0,-1,692,1310,-21.6771,-10.4924
-525,-286,-11.4528,-1.11768,0,0,0,0,0,0,0,-1,699,1310,-11.4528,1.11769
-518,-286,-11.0701,1.37329,0,0,0,0,0,0,0,-1,706,1310,-11.0701,-1.37332
-511,-286,-17.7545,-0.0791016,0,0,0,0,0,0,0,-1,713,1310,-17.7544,0.0791606
-504,-286,-18.0455,1.29602,0,0,0,0,0,0,0,-1,720,1310,-18.0455,-1.29601
-497,-286,-18.3367,2.67114,0,0,0,0,0,0,0,-1,727,1310,-18.3366,-2.67118
-490,-286,-19.5795,2.47266,0,0,0,0,0,0,0,-1,734,1310,-19.5795,-2.4727
-483,-286,-19.7277,2.74744,0,0,0,0,0,0,0,-1,741,1310,-19.7277,-2.74747
-476,-286,-20.0391,3.06177,0,0,0,0,0,0,0,-1,748,1310,-20.0391,-3.06178
-469,-286,0,0,0,0,0,0,0,0,0,-1,755,1310,0,0
-462,-286,0,0,0,0,0,0,0,0,0,-1,762,1310,0,0
-455,-286,0,0,0,0,0,0,0,0,0,-1,769,1310,0,0
-448,-286,0,0,0,0,0,0,0,0,0,-1,776,1310,0,0
-441,-286,0,0,0,0,0,0,0,0,0,-1,783,1310,0,0
-434,-286,0,0,0,0,0,0,0,0,0,-1,790,1310,0,0
-427,-286,0,0,0,0,0,0,0,0,0,-1,797,1310,0,0
-420,-286,0,0,0,0,0,0,0,0,0,-1,804,1310,0,0
-413,-286,0,0,0,0,0,0,0,0,0,-1,811,1310,0,0
-406,-286,0,0,0,0,0,0,0,0,0,-1,818,1310,0,0
-399,-286,0,0,0,0,0,0,0,0,0,-1,825,1310,0,0
-392,-286,0,0,0,0,0,0,0,0,0,-1,832,1310,0,0
-385,-286,0,0,0,0,0,0,0,0,0,-1,839,1310,0,0
-378,-286,0,0,0,0,0,0,0,0,0,-1,846,1310,0,0
-371,-286,0,0,0,0,0,0,0,0,0,-1,853,1310,0,0
-364,-286,0,0,0,0,0,0,0,0,0,-1,860,1310,0,0
-357,-286,0,0,0,0,0,0,0,0,0,-1,867,1310,0,0
-350,-286,0,0,0,0,0,0,0,0,0,-1,874,1310,0,0
-343,-286,0,0,0,0,0,0,0,0,0,-1,881,1310,0,0
-336,-286,0,0,0,0,0,0,0,0,0,-1,888,1310,0,0
-329,-286,0,0,0,0,0,0,0,0,0,-1,895,1310,0,0
-322,-286,0,0,0,0,0,0,0,0,0,-1,902,1310,0,0
-315,-286,0,0,0,0,0,0,0,0,0,-1,909,1310,0,0
-308,-286,0,0,0,0,0,0,0,0,0,-1,916,1310,0,0
-301,-286,0,0,0,0,0,0,0,0,0,-1,923,1310,0,0
-294,-286,0,0,0,0,0,0,0,0,0,-1,930,1310,0,0
-287,-286,0,0,0,0,0,0,0,0,0,-1,937,1310,0,0
-280,-286,0,0,0,0,0,0,0,0,0,-1,944,1310,0,0
-273,-286,0,0,0,0,0,0,0,0,0,-1,951,1310,0,0
-266,-286,0,0,0,0,0,0,0,0,0,-1,958,1310,0,0
-259,-286,0,0,0,0,0,0,0,0,0,-1,965,1310,0,0
-252,-286,0,0,0,0,0,0,0,0,0,-1,972,1310,0,0
-245,-286,0,0,0,0,0,0,0,0,0,-1,979,1310,0,0
-238,-286,0,0,0,0,0,0,0,0,0,-1,986,1310,0,0
-231,-286,0,0,0,0,0,0,0,0,0,-1,993,1310,0,0
-224,-286,0,0,0,0,0,0,0,0,0,-1,1000,1310,0,0
-217,-286,0,0,0,0,0,0,0,0,0,-1,1007,1310,0,0
-210,-286,0,0,0,0,0,0,0,0,0,-1,1014,1310,0,0
-203,-286,0,0,0,0,0,0,0,0,0,-1,1021,1310,0,0
-196,-286,0,0,0,0,0,0,0,0,0,-1,1028,1310,0,0
-189,-286,0,0,0,0,0,0,0,0,0,-1,1035,1310,0,0
-182,-286,0,0,0,0,0,0,0,0,0,-1,1042,1310,0,0
-175,-286,0,0,0,0,0,0,0,0,0,-1,1049,1310,0,0
-168,-286,0,0,0,0,0,0,0,0,0,-1,1056,1310,0,0
-161,-286,0,0,0,0,0,0,0,0,0,-1,1063,1310,0,0
-154,-286,0,0,0,0,0,0,0,0,0,-1,1070,1310,0,0
-147,-286,0,0,0,0,0,0,0,0,0,-1,1077,1310,0,0
-140,-286,0,0,0,0,0,0,0,0,0,-1,1084,1310,0,0
-133,-286,0,0,0,0,0,0,0,0,0,-1,1091,1310,0,0
-126,-286,0,0,0,0,0,0,0,0,0,-1,1098,1310,0,0
-119,-286,0,0,0,0,0,0,0,0,0,-1,1105,1310,0,0
-112,-286,0,0,0,0,0,0,0,0,0,-1,1112,1310,0,0
-105,-286,0,0,0,0,0,0,0,0,0,-1,1119,1310,0,0
-98,-286,0,0,0,0,0,0,0,0,0,-1,1126,1310,0,0
-91,-286,0,0,0,0,0,0,0,0,0,-1,1133,1310,0,0
-84,-286,0,0,0,0,0,0,0,0,0,-1,1140,1310,0,0
-77,-286,0,0,0,0,0,0,0,0,0,-1,1147,1310,0,0
-70,-286,0,0,0,0,0,0,0,0,0,-1,1154,1310,0,0
-63,-286,0,0,0,0,0,0,0,0,0,-1,1161,1310,0,0
-56,-286,0,0,0,0,0,0,0,0,0,-1,1168,1310,0,0
-49,-286,0,0,0,0,0,0,0,0,0,-1,1175,1310,0,0
-42,-286,0,0,0,0,0,0,0,0,0,-1,1182,1310,0,0
-35,-286,0,0,0,0,0,0,0,0,0,-1,1189,1310,0,0
-28,-286,0,0,0,0,0,0,0,0,0,-1,1196,1310,0,0
-21,-286,0,0,0,0,0,0,0,0,0,-1,1203,1310,0,0
-14,-286,0,0,0,0,0,0,0,0,0,-1,1210,1310,0,0
-7,-286,0,0,0,0,0,0,0,0,0,-1,1217,1310,0,0
0,-286,0,0,0,0,0,0,0,0,0,-1,1224,1310,0,0
7,-286,0,0,0,0,0,0,0,0,0,-1,1231,1310,0,0
14,-286,0,0,0,0,0,0,0,0,0,-1,1238,1310,0,0
21,-286,0,0,0,0,0,0,0,0,0,-1,1245,1310,0,0
28,-286,0,0,0,0,0,0,0,0,0,-1,1252,1310,0,0
35,-286,0,0,0,0,0,0,0,0,0,-1,1259,1310,0,0
42,-286,0,0,0,0,0,0,0,0,0,-1,1266,1310,0,0
49,-286,0,0,0,0,0,0,0,0,0,-1,1273,1310,0,0
56,-286,0,0,0,0,0,0,0,0,0,-1,1280,1310,0,0
63,-286,0,0,0,0,0,0,0,0,0,-1,1287,1310,0,0
70,-286,0,0,0,0,0,0,0,0,0,-1,1294,1310,0,0
77,-286,0,0,0,0,0,0,0,0,0,-1,1301,1310,0,0
84,-286,0,0,0,0,0,0,0,0,0,-1,1308,1310,0,0
91,-286,0,0,0,0,0,0,0,0,0,-1,1315,1310,0,0
98,-286,0,0,0,0,0,0,0,0,0,-1,1322,1310,0,0
105,-286,0,0,0,0,0,0,0,0,0,-1,1329,1310,0,0
112,-286,0,0,0,0,0,0,0,0,0,-1,1336,1310,0,0
119,-286,0,0,0,0,0,0,0,0,0,-1,1343,1310,0,0
126,-286,0,0,0,0,0,0,0,0,0,-1,1350,1310,0,0
133,-286,0,0,0,0,0,0,0,0,0,-1,1357,1310,0,0
140,-286,0,0,0,0,0,0,0,0,0,-1,1364,1310,0,0
147,-286,0,0,0,0,0,0,0,0,0,-1,1371,1310,0,0
154,-286,0,0,0,0,0,0,0,0,0,-1,1378,1310,0,0
161,-286,0,0,0,0,0,0,0,0,0,-1,1385,1310,0,0
168,-286,0,0,0,0,0,0,0,0,0,-1,1392,1310,0,0
175,-286,0,0,0,0,0,0,0,0,0,-1,1399,1310,0,0
182,-286,0,0,0,0,0,0,0,0,0,-1,1406,1310,0,0
189,-286,0,0,0,0,0,0,0,0,0,-1,1413,1310,0,0
196,-286,0,0,0,0,0,0,0,0,0,-1,1420,1310,0,0
203,-286,0,0,0,0,0,0,0,0,0,-1,1427,1310,0,0
210,-286,0,0,0,0,0,0,0,0,0,-1,1434,1310,0,0
217,-286,0,0,0,0,0,0,0,0,0,-1,1441,1310,0,0
224,-286,0,0,0,0,0,0,0,0,0,-1,1448,1310,0,0
231,-286,0,0,0,0,0,0,0,0,0,-1,1455,1310,0,0
238,-286,0,0,0,0,0,0,0,0,0,-1,1462,1310,0,0
245,-286,0,0,0,0,0,0,0,0,0,-1,1469,1310,0,0
252,-286,0,0,0,0,0,0,0,0,0,-1,1476,1310,0,0
259,-286,0,0,0,0,0,0,0,0,0,-1,1483,1310,0,0
266,-286,0,0,0,0,0,0,0,0,0,-1,1490,1310,0,0
273,-286,0,0,0,0,0,0,0,0,0,-1,1497,1310,0,0
280,-286,0,0,0,0,0,0,0,0,0,-1,1504,1310,0,0
287,-286,0,0,0,0,0,0,0,0,0,-1,1511,1310,0,0
294,-286,0,0,0,0,0,0,0,0,0,-1,1518,1310,0,0
301,-286,0,0,0,0,0,0,0,0,0,-1,1525,1310,0,0
308,-286,0,0,0,0,0,0,0,0,0,-1,1532,1310,0,0
315,-286,0,0,0,0,0,0,0,0,0,-1,1539,1310,0,0
322,-286,0,0,0,0,0,0,0,0,0,-1,1546,1310,0,0
329,-286,0,0,0,0,0,0,0,0,0,-1,1553,1310,0,0
336,-286,0,0,0,0,0,0,0,0,0,-1,1560,1310,0,0
343,-286,0,0,0,0,0,0,0,0,0,-1,1567,1310,0,0
350,-286,0,0,0,0,0,0,0,0,0,-1,1574,1310,0,0
357,-286,0,0,0,0,0,0,0,0,0,-1,1581,1310,0,0
364,-286,0,0,0,0,0,0,0,0,0,-1,1588,1310,0,0
371,-286,0,0,0,0,0,0,0,0,0,-1,1595,1310,0,0
378,-286,0,0,0,0,0,0,0,0,0,-1,1602,1310,0,0
385,-286,0,0,0,0,0,0,0,0,0,-1,1609,1310,0,0
392,-286,0,0,0,0,0,0,0,0,0,-1,1616,1310,0,0
399,-286,0,0,0,0,0,0,0,0,0,-1,1623,1310,0,0
406,-286,0,0,0,0,0,0,0,0,0,-1,1630,1310,0,0
413,-286,0,0,0,0,0,0,0,0,0,-1,1637,1310,0,0
420,-286,0,0,0,0,0,0,0,0,0,-1,1644,1310,0,0
427,-286,0,0,0,0,0,0,0,0,0,-1,1651,1310,0,0
434,-286,0,0,0,0,0,0,0,0,0,-1,1658,1310,0,0
441,-286,0,0,0,0,0,0,0,0,0,-1,1665,1310,0,0
448,-286,0,0,0,0,0,0,0,0,0,-1,1672,1310,0,0
455,-286,0,0,0,0,0,0,0,0,0,-1,1679,1310,0,0
462,-286,0,0,0,0,0,0,0,0,0,-1,1686,1310,0,0
469,-286,0,0,0,0,0,0,0,0,0,-1,1693,1310,0,0
476,-286,0,0,0,0,0,0,0,0,0,-1,1700,1310,0,0
483,-286,0,0,0,0,0,0,0,0,0,-1,1707,1310,0,0
490,-286,0,0,0,0,0,0,0,0,0,-1,1714,1310,0,0
497,-286,0,0,0,0,0,0,0,0,0,-1,1721,1310,0,0
504,-286,0,0,0,0,0,0,0,0,0,-1,1728,1310,0,0
511,-286,0,0,0,0,0,0,0,0,0,-1,1735,1310,0,0
518,-286,0,0,0,0,0,0,0,0,0,-1,1742,1310,0,0
525,-286,0,0,0,0,0,0,0,0,0,-1,1749,1310,0,0
532,-286,0,0,0,0,0,0,0,0,0,-1,1756,1310,0,0
539,-286,0,0,0,0,0,0,0,0,0,-1,1763,1310,0,0
546,-286,0,0,0,0,0,0,0,0,0,-1,1770,1310,0,0
553,-286,0,0,0,0,0,0,0,0,0,-1,1777,1310,0,0
560,-286,0,0,0,0,0,0,0,0,0,-1,1784,1310,0,0
567,-286,0,0,0,0,0,0,0,0,0,-1,1791,1310,0,0
574,-286,0,0,0,0,0,0,0,0,0,-1,1798,1310,0,0
581,-286,0,0,0,0,0,0,0,0,0,-1,1805,1310,0,0
588,-286,0,0,0,0,0,0,0,0,0,-1,1812,1310,0,0
595,-286,69.8951,2.40527,0,0,0,0,0,0,0,-1,1819,1310,69.8951,-2.40522
602,-286,74.224,1.875,0,0,0,0,0,0,0,-1,1826,1310,74.2241,-1.87498
609,-286,73.2463,1.53809,0,0,0,0,0,0,0,-1,1833,1310,73.2463,-1.5381
616,-286,73.9154,1.11084,0,0,0,0,0,0,0,-1,1840,1310,73.9153,-1.1109
623,-286,73.9855,0.884644,0,0,0,0,0,0,0,-1,1847,1310,73.9855,-0.884598
630,-286,73.3732,1.46594,0,0,0,0,0,0,0,-1,1854,1310,73.3731,-1.46595
637,-286,47.8409,3.69824,0,0,0,0,0,0,0,-1,1861,1310,47.841,-3.69823
644,-286,25.6433,1.33862,0,0,0,0,0,0,0,-1,1868,1310,25.6433,-1.33858
651,-286,25.2507,1.88245,0,0,0,0,0,0,0,-1,1875,1310,25.2508,-1.88245
658,-286,25.9475,9.43689,0,0,0,0,0,0,0,-1,1882,1310,25.9475,-9.43693
665,-286,24.9838,8.03101,0,0,0,0,0,0,0,-1,1889,1310,24.9837,-8.03104
672,-286,40.2175,12.9626,0,0,0,0,0,0,0,-1,1896,1310,40.2175,-12.9627
679,-286,50.4657,15.3911,0,0,0,0,0,0,0,-1,1903,1310,50.4657,-15.3911
686,-286,50.5148,14.6454,-0.00102919,0.0023632,-0.00110405,0.00269086,-0.00135685,-1.28229,0.00237888,0.0251793,1910,1310,50.5148,-14.6453
693,-286,50.4847,13.8982,0.00137551,7.44559e-05,-0.000545586,0.00157401,-0.000124046,-0.348944,0.00109304,0.0173178,1917,1310,50.4848,-13.8982
700,-286,50.4431,13.1283,0.00118059,-0.000451222,9.70303e-05,0.00118634,-0.000456972,0.0591836,0.000979422,0.0122915,1924,1310,50.4431,-13.1283
707,-286,50.3961,12.3956,0.000381407,-0.000596363,0.000823641,0.000850328,-0.00106528,0.517561,0.0011083,0.00944344,1931,1310,50.3961,-12.3956
714,-286,50.3535,11.6445,-0.000457557,-0.000797081,0.00161877,0.00100032,-0.00225496,0.733153,0.00192541,0.00954542,1938,1310,50.3535,-11.6445
721,-286,50.3643,10.8882,-0.0013509,-0.00106174,0.00249794,0.00129581,-0.00370844,0.814306,0.00299904,0.0131919,1945,1310,50.3643,-10.8882
728,-286,50.3269,10.1479,-0.00231106,-0.00139154,0.00349004,0.00166889,-0.00537149,0.850889,0.00424801,0.0173294,1952,1310,50.3269,-10.148
735,-286,50.2814,9.39807,-0.00337225,-0.00180712,0.00462609,0.00210213,-0.0072815,0.869187,0.00568608,0.0210512,1959,1310,50.2814,-9.39809
742,-286,50.2533,8.69397,-0.00451558,-0.00231422,0.00589814,0.00258506,-0.00941487,0.877645,0.00729262,0.0395972,1966,1310,50.2533,-8.69395
749,-286,50.307,7.98975,0,0,0,0,0,0,0,-1,1973,1310,50.307,-7.98978
756,-286,24.8226,4.43481,0,0,0,0,0,0,0,-1,1980,1310,24.8227,-4.43479
763,-286,20.6671,3.99683,0,0,0,0,0,0,0,-1,1987,1310,20.6671,-3.99683
770,-286,23.9147,4.45679,0,0,0,0,0,0,0,-1,1994,1310,23.9146,-4.45675
777,-286,0,0,0,0,0,0,0,0,0,-1,2001,1310,0,0
784,-286,0,0,0,0,0,0,0,0,0,-1,2008,1310,0,0
791,-286,0,0,0,0,0,0,0,0,0,-1,2015,1310,0,0
798,-286,0,0,0,0,0,0,0,0,0,-1,2022,1310,0,0
805,-286,0,0,0,0,0,0,0,0,0,-1,2029,1310,0,0
812,-286,0,0,0,0,0,0,0,0,0,-1,2036,1310,0,0
-700,-293,0,0,0,0,0,0,0,0,0,-1,524,1317,0,0
-693,-293,0,0,0,0,0,0,0,0,0,-1,531,1317,0,0
-686,-293,0,0,0,0,0,0,0,0,0,-1,538,1317,0,0
-679,-293,0,0,0,0,0,0,0,0,0,-1,545,1317,0,0
-672,-293,0,0,0,0,0,0,0,0,0,-1,552,1317,0,0
-665,-293,0,0,0,0,0,0,0,0,0,-1,559,1317,0,0
-658,-293,0,0,0,0,0,0,0,0,0,-1,566,1317,0,0
-651,-293,-42.6636,2.1897,0,0,0,0,0,0,0,-1,573,1317,-42.6636,-2.18965
-644,-293,-42.6672,1.56262,0,0,0,0,0,0,0,-1,580,1317,-42.6672,-1.5626
-637,-293,-42.7898,0.963745,0,0,0,0,0,0,0,-1,587,1317,-42.7898,-0.963689
-630,-293,-42.7558,0.296021,0,0,0,0,0,0,0,-1,594,1317,-42.7558,-0.295997
-623,-293,-15.6058,0.229614,0,0,0,0,0,0,0,-1,601,1317,-15.6058,-0.229666
-616,-293,-15.5056,2.17737,0,0,0,0,0,0,0,-1,608,1317,-15.5055,-2.17742
-609,-293,-25.3796,5.07373,0,0,0,0,0,0,0,-1,615,1317,-25.3796,-5.07369
-602,-293,-32.4761,8.14441,0,0,0,0,0,0,0,-1,622,1317,-32.4762,-8.14438
-595,-293,-32.4674,9.14099,0.00382212,0.00269776,0.00124787,0.00462859,0.00189128,0.573759,0.00268716,0.0223452,629,1317,-32.4674,-9.141
-588,-293,-32.4704,9.92651,0.00267603,0.00183831,0.00085017,0.00320492,0.00130942,0.556511,0.00186065,0.0185441,636,1317,-32.4704,-9.92648
-581,-293,-32.4892,10.7083,0.00196649,0.00108527,0.000616007,0.00228325,0.000768516,0.474947,0.0013415,0.0199705,643,1317,-32.4892,-10.7082
-574,-293,-32.539,11.5309,0.00159292,0.000392011,0.000485792,0.00176483,0.000220106,0.340115,0.00111048,0.0167015,650,1317,-32.539,-11.5309
-567,-293,-32.5963,12.3325,0.00149921,-0.000241178,0.000486974,0.0016262,-0.000368171,0.255098,0.00122543,0.0165688,657,1317,-32.5963,-12.3325
-560,-293,-32.6318,13.1309,0.00182824,-0.000810748,0.000605365,0.00196048,-0.000942988,0.215068,0.00171028,0.0171227,664,1317,-32.6318,-13.1309
-553,-293,-32.6544,13.8933,0.00254714,-0.00133605,0.000904187,0.00274736,-0.00153626,0.217914,0.00250588,0.0117939,671,1317,-32.6544,-13.8933
-546,-293,-32.6404,14.6985,0.00372099,-0.00166939,0.00149774,0.00410919,-0.00205758,0.253607,0.00362547,0.0210387,678,1317,-32.6404,-14.6985
-539,-293,-32.5957,15.5073,0,0,0,0,0,0,0,-1,685,1317,-32.5957,-15.5073
-532,-293,-27.4858,13.6715,0,0,0,0,0,0,0,-1,692,1317,-27.4858,-13.6715
-525,-293,-8.20642,3.62256,0,0,0,0,0,0,0,-1,699,1317,-8.20639,-3.6226
-518,-293,-10.1053,0.314209,0,0,0,0,0,0,0,-1,706,1317,-10.1053,-0.314234
-511,-293,-11.6276,0.235352,0,0,0,0,0,0,0,-1,713,1317,-11.6276,-0.235372
-504,-293,-17.9086,1.25427,0,0,0,0,0,0,0,-1,720,1317,-17.9086,-1.25423
-497,-293,-18.8006,1.62122,0,0,0,0,0,0,0,-1,727,1317,-18.8006,-1.62119
-490,-293,-18.8961,1.99255,0,0,0,0,0,0,0,-1,734,1317,-18.8961,-1.99251
-483,-293,-19.0831,2.35498,0,0,0,0,0,0,0,-1,741,1317,-19.0831,-2.35497
-476,-293,-19.5228,2.61243,0,0,0,0,0,0,0,-1,748,1317,-19.5228,-2.61237
-469,-293,0,0,0,0,0,0,0,0,0,-1,755,1317,0,0
-462,-293,0,0,0,0,0,0,0,0,0,-1,762,1317,0,0
-455,-293,0,0,0,0,0,0,0,0,0,-1,769,1317,0,0
-448,-293,0,0,0,0,0,0,0,0,0,-1,776,1317,0,0
-441,-293,0,0,0,0,0,0,0,0,0,-1,783,1317,0,0
-434,-293,0,0,0,0,0,0,0,0,0,-1,790,1317,0,0
-427,-293,0,0,0,0,0,0,0,0,0,-1,797,1317,0,0
-420,-293,0,0,0,0,0,0,0,0,0,-1,804,1317,0,0
-413,-293,0,0,0,0,0,0,0,0,0,-1,811,1317,0,0
-406,-293,0,0,0,0,0,0,0,0,0,-1,818,1317,0,0
-399,-293,0,0,0,0,0,0,0,0,0,-1,825,1317,0,0
-392,-293,0,0,0,0,0,0,0,0,0,-1,832,1317,0,0
-385,-293,0,0,0,0,0,0,0,0,0,-1,839,1317,0,0
-378,-293,0,0,0,0,0,0,0,0,0,-1,846,1317,0,0
-371,-293,0,0,0,0,0,0,0,0,0,-1,853,1317,0,0
-364,-293,0,0,0,0,0,0,0,0,0,-1,860,1317,0,0
-357,-293,0,0,0,0,0,0,0,0,0,-1,867,1317,0,0
-350,-293,0,0,0,0,0,0,0,0,0,-1,874,1317,0,0
-343,-293,0,0,0,0,0,0,0,0,0,-1,881,1317,0,0
-336,-293,0,0,0,0,0,0,0,0,0,-1,888,1317,0,0
-329,-293,0,0,0,0,0,0,0,0,0,-1,895,1317,0,0
-322,-293,0,0,0,0,0,0,0,0,0,-1,902,1317,0,0
-315,-293,0,0,0,0,0,0,0,0,0,-1,909,1317,0,0
-308,-293,0,0,0,0,0,0,0,0,0,-1,916,1317,0,0
-301,-293,0,0,0,0,0,0,0,0,0,-1,923,1317,0,0
-294,-293,0,0,0,0,0,0,0,0,0,-1,930,1317,0,0
-287,-293,0,0,0,0,0,0,0,0,0,-1,937,1317,0,0
-280,-293,0,0,0,0,0,0,0,0,0,-1,944,1317,0,0
-273,-293,0,0,0,0,0,0,0,0,0,-1,951,1317,0,0
-266,-293,0,0,0,0,0,0,0,0,0,-1,958,1317,0,0
-259,-293,0,0,0,0,0,0,0,0,0,-1,965,1317,0,0
-252,-293,0,0,0,0,0,0,0,0,0,-1,972,1317,0,0
-245,-293,0,0,0,0,0,0,0,0,0,-1,979,1317,0,0
-238,-293,0,0,0,0,0,0,0,0,0,-1,986,1317,0,0
-231,-293,0,0,0,0,0,0,0,0,0,-1,993,1317,0,0
-224,-293,0,0,0,0,0,0,0,0,0,-1,1000,1317,0,0
-217,-293,0,0,0,0,0,0,0,0,0,-1,1007,1317,0,0
-210,-293,0,0,0,0,0,0,0,0,0,-1,1014,1317,0,0
-203,-293,0,0,0,0,0,0,0,0,0,-1,1021,1317,0,0
-196,-293,0,0,0,0,0,0,0,0,0,-1,1028,1317,0,0
-189,-293,0,0,0,0,0,0,0,0,0,-1,1035,1317,0,0
-182,-293,0,0,0,0,0,0,0,0,0,-1,1042,1317,0,0
-175,-293,0,0,0,0,0,0,0,0,0,-1,1049,1317,0,0
-168,-293,0,0,0,0,0,0,0,0,0,-1,1056,1317,0,0
-161,-293,0,0,0,0,0,0,0,0,0,-1,1063,1317,0,0
-154,-293,0,0,0,0,0,0,0,0,0,-1,1070,1317,0,0
-147,-293,0,0,0,0,0,0,0,0,0,-1,1077,1317,0,0
-140,-293,0,0,0,0,0,0,0,0,0,-1,1084,1317,0,0
-133,-293,0,0,0,0,0,0,0,0,0,-1,1091,1317,0,0
-126,-293,0,0,0,0,0,0,0,0,0,-1,1098,1317,0,0
-119,-293,0,0,0,0,0,0,0,0,0,-1,1105,1317,0,0
-112,-293,0,0,0,0,0,0,0,0,0,-1,1112,1317,0,0
-105,-293,0,0,0,0,0,0,0,0,0,-1,1119,1317,0,0
-98,-293,0,0,0,0,0,0,0,0,0,-1,1126,1317,0,0
-91,-293,0,0,0,0,0,0,0,0,0,-1,1133,1317,0,0
-84,-293,0,0,0,0,0,0,0,0,0,-1,1140,1317,0,0
-77,-293,0,0,0,0,0,0,0,0,0,-1,1147,1317,0,0
-70,-293,0,0,0,0,0,0,0,0,0,-1,1154,1317,0,0
-63,-293,0,0,0,0,0,0,0,0,0,-1,1161,1317,0,0
-56,-293,0,0,0,0,0,0,0,0,0,-1,1168,1317,0,0
-49,-293,0,0,0,0,0,0,0,0,0,-1,1175,1317,0,0
-42,-293,0,0,0,0,0,0,0,0,0,-1,1182,1317,0,0
-35,-293,0,0,0,0,0,0,0,0,0,-1,1189,1317,0,0
-28,-293,0,0,0,0,0,0,0,0,0,-1,1196,1317,0,0
-21,-293,0,0,0,0,0,0,0,0,0,-1,1203,1317,0,0
-14,-293,0,0,0,0,0,0,0,0,0,-1,1210,1317,0,0
-7,-293,0,0,0,0,0,0,0,0,0,-1,1217,1317,0,0
0,-293,0,0,0,0,0,0,0,0,0,-1,1224,1317,0,0
7,-293,0,0,0,0,0,0,0,0,0,-1,1231,1317,0,0
14,-293,0,0,0,0,0,0,0,0,0,-1,1238,1317,0,0
21,-293,0,0,0,0,0,0,0,0,0,-1,1245,1317,0,0
28,-293,0,0,0,0,0,0,0,0,0,-1,1252,1317,0,0
35,-293,0,0,0,0,0,0,0,0,0,-1,1259,1317,0,0
42,-293,0,0,0,0,0,0,0,0,0,-1,1266,1317,0,0
49,-293,0,0,0,0,0,0,0,0,0,-1,1273,1317,0,0
56,-293,0,0,0,0,0,0,0,0,0,-1,1280,1317,0,0
63,-293,0,0,0,0,0,0,0,0,0,-1,1287,1317,0,0
70,-293,0,0,0,0,0,0,0,0,0,-1,1294,1317,0,0
77,-293,0,0,0,0,0,0,0,0,0,-1,1301,1317,0,0
84,-293,0,0,0,0,0,0,0,0,0,-1,1308,1317,0,0
91,-293,0,0,0,0,0,0,0,0,0,-1,1315,1317,0,0
98,-293,0,0,0,0,0,0,0,0,0,-1,1322,1317,0,0
105,-293,0,0,0,0,0,0,0,0,0,-1,1329,1317,0,0
112,-293,0,0,0,0,0,0,0,0,0,-1,1336,1317,0,0
119,-293,0,0,0,0,0,0,0,0,0,-1,1343,1317,0,0
126,-293,0,0,0,0,0,0,0,0,0,-1,1350,1317,0,0
133,-293,0,0,0,0,0,0,0,0,0,-1,1357,1317,0,0
140,-293,0,0,0,0,0,0,0,0,0,-1,1364,1317,0,0
147,-293,0,0,0,0,0,0,0,0,0,-1,1371,1317,0,0
154,-293,0,0,0,0,0,0,0,0,0,-1,1378,1317,0,0
161,-293,0,0,0,0,0,0,0,0,0,-1,1385,1317,0,0
168,-293,0,0,0,0,0,0,0,0,0,-1,1392,1317,0,0
175,-293,0,0,0,0,0,0,0,0,0,-1,1399,1317,0,0
182,-293,0,0,0,0,0,0,0,0,0,-1,1406,1317,0,0
189,-293,0,0,0,0,0,0,0,0,0,-1,1413,1317,0,0
196,-293,0,0,0,0,0,0,0,0,0,-1,1420,1317,0,0
203,-293,0,0,0,0,0,0,0,0,0,-1,1427,1317,0,0
210,-293,0,0,0,0,0,0,0,0,0,-1,1434,1317,0,0
217,-293,0,0,0,0,0,0,0,0,0,-1,1441,1317,0,0
224,-293,0,0,0,0,0,0,0,0,0,-1,1448,1317,0,0
231,-293,0,0,0,0,0,0,0,0,0,-1,1455,1317,0,0
238,-293,0,0,0,0,0,0,0,0,0,-1,1462,1317,0,0
245,-293,0,0,0,0,0,0,0,0,0,-1,1469,1317,0,0
252,-293,0,0,0,0,0,0,0,0,0,-1,1476,1317,0,0
259,-293,0,0,0,0,0,0,0,0,0,-1,1483,1317,0,0
266,-293,0,0,0,0,0,0,0,0,0,-1,1490,1317,0,0
273,-293,0,0,0,0,0,0,0,0,0,-1,1497,1317,0,0
280,-293,0,0,0,0,0,0,0,0,0,-1,1504,1317,0,0
287,-293,0,0,0,0,0,0,0,0,0,-1,1511,1317,0,0
294,-293,0,0,0,0,0,0,0,0,0,-1,1518,1317,0,0
301,-293,0,0,0,0,0,0,0,0,0,-1,1525,1317,0,0
308,-293,0,0,0,0,0,0,0,0,0,-1,1532,1317,0,0
315,-293,0,0,0,0,0,0,0,0,0,-1,1539,1317,0,0
322,-293,0,0,0,0,0,0,0,0,0,-1,1546,1317,0,0
329,-293,0,0,0,0,0,0,0,0,0,-1,1553,1317,0,0
336,-293,0,0,0,0,0,0,0,0,0,-1,1560,1317,0,0
343,-293,0,0,0,0,0,0,0,0,0,-1,1567,1317,0,0
350,-293,0,0,0,0,0,0,0,0,0,-1,1574,1317,0,0
357,-293,0,0,0,0,0,0,0,0,0,-1,1581,1317,0,0
364,-293,0,0,0,0,0,0,0,0,0,-1,1588,1317,0,0
371,-293,0,0,0,0,0,0,0,0,0,-1,1595,1317,0,0
378,-293,0,0,0,0,0,0,0,0,0,-1,1602,1317,0,0
385,-293,0,0,0,0,0,0,0,0,0,-1,1609,1317,0,0
392,-293,0,0,0,0,0,0,0,0,0,-1,1616,1317,0,0
399,-293,0,0,0,0,0,0,0,0,0,-1,1623,1317,0,0
406,-293,0,0,0,0,0,0,0,0,0,-1,1630,1317,0,0
413,-293,0,0,0,0,0,0,0,0,0,-1,1637,1317,0,0
420,-293,0,0,0,0,0,0,0,0,0,-1,1644,1317,0,0
427,-293,0,0,0,0,0,0,0,0,0,-1,1651,1317,0,0
434,-293,0,0,0,0,0,0,0,0,0,-1,1658,1317,0,0
441,-293,0,0,0,0,0,0,0,0,0,-1,1665,1317,0,0
448,-293,0,0,0,0,0,0,0,0,0,-1,1672,1317,0,0
455,-293,0,0,0,0,0,0,0,0,0,-1,1679,1317,0,0
462,-293,0,0,0,0,0,0,0,0,0,-1,1686,1317,0,0
469,-293,0,0,0,0,0,0,0,0,0,-1,1693,1317,0,0
476,-293,0,0,0,0,0,0,0,0,0,-1,1700,1317,0,0
483,-293,0,0,0,0,0,0,0,0,0,-1,1707,1317,0,0
490,-293,0,0,0,0,0,0,0,0,0,-1,1714,1317,0,0
497,-293,0,0,0,0,0,0,0,0,0,-1,1721,1317,0,0
504,-293,0,0,0,0,0,0,0,0,0,-1,1728,1317,0,0
511,-293,0,0,0,0,0,0,0,0,0,-1,1735,1317,0,0
518,-293,0,0,0,0,0,0,0,0,0,-1,1742,1317,0,0
525,-293,0,0,0,0,0,0,0,0,0,-1,1749,1317,0,0
532,-293,0,0,0,0,0,0,0,0,0,-1,1756,1317,0,0
539,-293,0,0,0,0,0,0,0,0,0,-1,1763,1317,0,0
546,-293,0,0,0,0,0,0,0,0,0,-1,1770,1317,0,0
553,-293,0,0,0,0,0,0,0,0,0,-1,1777,1317,0,0
560,-293,0,0,0,0,0,0,0,0,0,-1,1784,1317,0,0
567,-293,0,0,0,0,0,0,0,0,0,-1,1791,1317,0,0
574,-293,0,0,0,0,0,0,0,0,0,-1,1798,1317,0,0
581,-293,0,0,0,0,0,0,0,0,0,-1,1805,1317,0,0
588,-293,0,0,0,0,0,0,0,0,0,-1,1812,1317,0,0
595,-293,70.0999,2.25085,0,0,0,0,0,0,0,-1,1819,1317,70.0998,-2.25088
602,-293,70.2273,2.05859,0,0,0,0,0,0,0,-1,1826,1317,70.2273,-2.05859
609,-293,68.6733,1.3855,0,0,0,0,0,0,0,-1,1833,1317,68.6734,-1.38547
616,-293,73.2809,1.85632,0,0,0,0,0,0,0,-1,1840,1317,73.2809,-1.85628
623,-293,64.6224,0.448364,0,0,0,0,0,0,0,-1,1847,1317,64.6224,-0.448318
630,-293,46.6716,3.21558,0,0,0,0,0,0,0,-1,1854,1317,46.6716,-3.2156
637,-293,42.7729,4.95544,0,0,0,0,0,0,0,-1,1861,1317,42.773,-4.95546
644,-293,24.4565,0.520752,0,0,0,0,0,0,0,-1,1868,1317,24.4566,-0.520709
651,-293,25.8926,9.51245,0,0,0,0,0,0,0,-1,1875,1317,25.8926,-9.51246
658,-293,25.4904,9.10205,0,0,0,0,0,0,0,-1,1882,1317,25.4904,-9.10209
665,-293,39.7999,13.4221,0,0,0,0,0,0,0,-1,1889,1317,39.8,-13.4221
672,-293,49.821,16.2197,0,0,0,0,0,0,0,-1,1896,1317,49.821,-16.2198
679,-293,49.8138,15.4353,-0.00316625,0.00300026,-0.00146355,0.00332999,-0.00349598,-1.3492,0.00394136,0.0214641,1903,1317,49.8139,-15.4353
686,-293,49.8053,14.688,0.000223403,0.00144405,-0.000998343,0.00200385,-0.000336394,-1.05976,0.001461,0.0184629,1910,1317,49.8053,-14.688
693,-293,49.7588,13.9241,0.00162706,-0.000100498,-0.000481969,0.00175243,-0.000225864,-0.254473,0.00125039,0.0131322,1917,1317,49.7588,-13.9241
700,-293,49.6899,13.1526,0.00111512,-0.000403295,0.000174751,0.00113497,-0.000423147,0.113118,0.000930344,0.0107917,1924,1317,49.6899,-13.1526
707,-293,49.6493,12.4305,0.000327695,-0.000625653,0.000904475,0.000873417,-0.00117137,0.542884,0.00118473,0.0116302,1931,1317,49.6493,-12.4306
714,-293,49.6082,11.691,-0.000500292,-0.000916181,0.00171107,0.00101542,-0.00243189,0.72493,0.00204555,0.00842633,1938,1317,49.6081,-11.6911
721,-293,49.5935,10.9351,-0.00138223,-0.00128578,0.00261328,0.00127972,-0.00394773,0.794624,0.00314637,0.0102073,1945,1317,49.5935,-10.935
728,-293,49.5778,10.1682,-0.00234396,-0.00172385,0.00363834,0.00161762,-0.00568543,0.827905,0.00442908,0.013842,1952,1317,49.5778,-10.1682
735,-293,49.5297,9.36389,-0.00342568,-0.00227756,0.00482312,0.00200555,-0.00770878,0.84463,0.00592201,0.0257457,1959,1317,49.5297,-9.36393
742,-293,49.6005,8.62793,0,0,0,0,0,0,0,-1,1966,1317,49.6005,-8.62797
749,-293,29.439,5.35339,0,0,0,0,0,0,0,-1,1973,1317,29.4389,-5.35334
756,-293,24.978,3.9718,0,0,0,0,0,0,0,-1,1980,1317,24.978,-3.97186
763,-293,26.6713,4.74097,0,0,0,0,0,0,0,-1,1987,1317,26.6713,-4.74098
770,-293,24.1349,4.69153,0,0,0,0,0,0,0,-1,1994,1317,24.1348,-4.69159
777,-293,0,0,0,0,0,0,0,0,0,-1,2001,1317,0,0
784,-293,0,0,0,0,0,0,0,0,0,-1,2008,1317,0,0
791,-293,0,0,0,0,0,0,0,0,0,-1,2015,1317,0,0
798,-293,0,0,0,0,0,0,0,0,0,-1,2022,1317,0,0
805,-293,0,0,0,0,0,0,0,0,0,-1,2029,1317,0,0
812,-293,0,0,0,0,0,0,0,0,0,-1,2036,1317,0,0
-700,-300,0,0,0,0,0,0,0,0,0,-1,524,1324,0,0
-693,-300,0,0,0,0,0,0,0,0,0,-1,531,1324,0,0
-686,-300,0,0,0,0,0,0,0,0,0,-1,538,1324,0,0
-679,-300,0,0,0,0,0,0,0,0,0,-1,545,1324,0,0
-672,-300,0,0,0,0,0,0,0,0,0,-1,552,1324,0,0
-665,-300,0,0,0,0,0,0,0,0,0,-1,559,1324,0,0
-658,-300,0,0,0,0,0,0,0,0,0,-1,566,1324,0,0
-651,-300,-41.7632,2.33789,0,0,0,0,0,0,0,-1,573,1324,-41.7632,-2.33789
-644,-300,-42.3084,1.3728,0,0,0,0,0,0,0,-1,580,1324,-42.3084,-1.37282
-637,-300,-42.6259,0.807251,0,0,0,0,0,0,0,-1,587,1324,-42.6259,-0.807209
-630,-300,-21.1108,2.26306,0,0,0,0,0,0,0,-1,594,1324,-21.1109,-2.2631
-623,-300,-12.7067,1.48462,0,0,0,0,0,0,0,-1,601,1324,-12.7067,-1.48462
-616,-300,-14.9988,1.68628,0,0,0,0,0,0,0,-1,608,1324,-14.9988,-1.68627
-609,-300,-15.5027,3.29907,0,0,0,0,0,0,0,-1,615,1324,-15.5027,-3.29902
-602,-300,-31.7421,8.15405,0,0,0,0,0,0,0,-1,622,1324,-31.7421,-8.15408
-595,-300,-31.7481,9.13867,0.00379538,0.00307871,0.00160562,0.00508217,0.00179192,0.675609,0.00297639,0.0410543,629,1324,-31.7481,-9.13867
-588,-300,-31.6761,9.98669,0.00275708,0.00223519,0.00107133,0.00359879,0.00139349,0.665939,0.00209531,0.0223654,636,1324,-31.6761,-9.98665
-581,-300,-31.7281,10.7881,0.0021393,0.00157295,0.000795333,0.00270036,0.00101189,0.614374,0.00157528,0.0216005,643,1324,-31.7281,-10.7881
-574,-300,-31.7371,11.5835,0.0018508,0.000979032,0.000660938,0.00220664,0.000623188,0.493888,0.0013136,0.0165874,650,1324,-31.737,-11.5835
-567,-300,-31.7937,12.3684,0.00186351,0.000457265,0.000687607,0.00214384,0.000176932,0.387121,0.00137405,0.0170878,657,1324,-31.7937,-12.3684
-560,-300,-31.8632,13.1713,0.00222365,1.51664e-06,0.000845485,0.00250876,-0.000283595,0.325242,0.00177461,0.0160273,664,1324,-31.8632,-13.1712
-553,-300,-31.864,13.9479,0.00295928,-0.000385822,0.00119083,0.0033399,-0.00076644,0.309362,0.00252122,0.0116944,671,1324,-31.8639,-13.9479
-546,-300,-31.9043,14.7133,0.00412446,-0.00066476,0.00178806,0.00471838,-0.00125868,0.320693,0.00363846,0.0121522,678,1324,-31.9043,-14.7132
-539,-300,-31.8108,15.5802,0.00601467,-0.000876161,0.00273542,0.00696851,-0.00182999,0.335514,0.00536082,0.0299454,685,1324,-31.8108,-15.5802
-532,-300,-31.6501,16.4556,0,0,0,0,0,0,0,-1,692,1324,-31.6501,-16.4556
-525,-300,-13.5115,6.27783,0,0,0,0,0,0,0,-1,699,1324,-13.5115,-6.2778
-518,-300,-9.8349,-0.537109,0,0,0,0,0,0,0,-1,706,1324,-9.83487,0.537068
-511,-300,-12.8644,0.081665,0,0,0,0,0,0,0,-1,713,1324,-12.8644,-0.0817016
-504,-300,-13.4829,-0.165527,0,0,0,0,0,0,0,-1,720,1324,-13.4829,0.165544
-497,-300,-18.1063,0.956543,0,0,0,0,0,0,0,-1,727,1324,-18.1063,-0.9565
-490,-300,-18.2293,1.53625,0,0,0,0,0,0,0,-1,734,1324,-18.2293,-1.53626
-483,-300,-18.3522,1.61084,0,0,0,0,0,0,0,-1,741,1324,-18.3522,-1.6108
-476,-300,-18.7489,1.96387,0,0,0,0,0,0,0,-1,748,1324,-18.7489,-1.96387
-469,-300,0,0,0,0,0,0,0,0,0,-1,755,1324,0,0
-462,-300,0,0,0,0,0,0,0,0,0,-1,762,1324,0,0
-455,-300,0,0,0,0,0,0,0,0,0,-1,769,1324,0,0
-448,-300,0,0,0,0,0,0,0,0,0,-1,776,1324,0,0
-441,-300,0,0,0,0,0,0,0,0,0,-1,783,1324,0,0
-434,-300,0,0,0,0,0,0,0,0,0,-1,790,1324,0,0
-427,-300,0,0,0,0,0,0,0,0,0,-1,797,1324,0,0
-420,-300,0,0,0,0,0,0,0,0,0,-1,804,1324,0,0
-413,-300,0,0,0,0,0,0,0,0,0,-1,811,1324,0,0
-406,-300,0,0,0,0,0,0,0,0,0,-1,818,1324,0,0
-399,-300,0,0,0,0,0,0,0,0,0,-1,825,1324,0,0
-392,-300,0,0,0,0,0,0,0,0,0,-1,832,1324,0,0
-385,-300,0,0,0,0,0,0,0,0,0,-1,839,1324,0,0
-378,-300,0,0,0,0,0,0,0,0,0,-1,846,1324,0,0
-371,-300,0,0,0,0,0,0,0,0,0,-1,853,1324,0,0
-364,-300,0,0,0,0,0,0,0,0,0,-1,860,1324,0,0
-357,-300,0,0,0,0,0,0,0,0,0,-1,867,1324,0,0
-350,-300,0,0,0,0,0,0,0,0,0,-1,874,1324,0,0
-343,-300,0,0,0,0,0,0,0,0,0,-1,881,1324,0,0
-336,-300,0,0,0,0,0,0,0,0,0,-1,888,1324,0,0
-329,-300,0,0,0,0,0,0,0,0,0,-1,895,1324,0,0
-322,-300,0,0,0,0,0,0,0,0,0,-1,902,1324,0,0
-315,-300,0,0,0,0,0,0,0,0,0,-1,909,1324,0,0
-308,-300,0,0,0,0,0,0,0,0,0,-1,916,1324,0,0
-301,-300,0,0,0,0,0,0,0,0,0,-1,923,1324,0,0
-294,-300,0,0,0,0,0,0,0,0,0,-1,930,1324,0,0
-287,-300,0,0,0,0,0,0,0,0,0,-1,937,1324,0,0
-280,-300,0,0,0,0,0,0,0,0,0,-1,944,1324,0,0
-273,-300,0,0,0,0,0,0,0,0,0,-1,951,1324,0,0
-266,-300,0,0,0,0,0,0,0,0,0,-1,958,1324,0,0
-259,-300,0,0,0,0,0,0,0,0,0,-1,965,1324,0,0
-252,-300,0,0,0,0,0,0,0,0,0,-1,972,1324,0,0
-245,-300,0,0,0,0,0,0,0,0,0,-1,979,1324,0,0
-238,-300,0,0,0,0,0,0,0,0,0,-1,986,1324,0,0
-231,-300,0,0,0,0,0,0,0,0,0,-1,993,1324,0,0
-224,-300,0,0,0,0,0,0,0,0,0,-1,1000,1324,0,0
-217,-300,0,0,0,0,0,0,0,0,0,-1,1007,1324,0,0
-210,-300,0,0,0,0,0,0,0,0,0,-1,1014,1324,0,0
-203,-300,0,0,0,0,0,0,0,0,0,-1,1021,1324,0,0
-196,-300,0,0,0,0,0,0,0,0,0,-1,1028,1324,0,0
-189,-300,0,0,0,0,0,0,0,0,0,-1,1035,1324,0,0
-182,-300,0,0,0,0,0,0,0,0,0,-1,1042,1324,0,0
-175,-300,0,0,0,0,0,0,0,0,0,-1,1049,1324,0,0
-168,-300,0,0,0,0,0,0,0,0,0,-1,1056,1324,0,0
-161,-300,0,0,0,0,0,0,0,0,0,-1,1063,1324,0,0
-154,-300,0,0,0,0,0,0,0,0,0,-1,1070,1324,0,0
-147,-300,0,0,0,0,0,0,0,0,0,-1,1077,1324,0,0
-140,-300,0,0,0,0,0,0,0,0,0,-1,1084,1324,0,0
-133,-300,0,0,0,0,0,0,0,0,0,-1,1091,1324,0,0
-126,-300,0,0,0,0,0,0,0,0,0,-1,1098,1324,0,0
-119,-300,0,0,0,0,0,0,0,0,0,-1,1105,1324,0,0
-112,-300,0,0,0,0,0,0,0,0,0,-1,1112,1324,0,0
-105,-300,0,0,0,0,0,0,0,0,0,-1,1119,1324,0,0
-98,-300,0,0,0,0,0,0,0,0,0,-1,1126,1324,0,0
-91,-300,0,0,0,0,0,0,0,0,0,-1,1133,1324,0,0
-84,-300,0,0,0,0,0,0,0,0,0,-1,1140,1324,0,0
-77,-300,0,0,0,0,0,0,0,0,0,-1,1147,1324,0,0
-70,-300,0,0,0,0,0,0,0,0,0,-1,1154,1324,0,0
-63,-300,0,0,0,0,0,0,0,0,0,-1,1161,1324,0,0
-56,-300,0,0,0,0,0,0,0,0,0,-1,1168,1324,0,0
-49,-300,0,0,0,0,0,0,0,0,0,-1,1175,1324,0,0
-42,-300,0,0,0,0,0,0,0,0,0,-1,1182,1324,0,0
-35,-300,0,0,0,0,0,0,0,0,0,-1,1189,1324,0,0
-28,-300,0,0,0,0,0,0,0,0,0,-1,1196,1324,0,0
-21,-300,0,0,0,0,0,0,0,0,0,-1,1203,1324,0,0
-14,-300,0,0,0,0,0,0,0,0,0,-1,1210,1324,0,0
-7,-300,0,0,0,0,0,0,0,0,0,-1,1217,1324,0,0
0,-300,0,0,0,0,0,0,0,0,0,-1,1224,1324,0,0
7,-300,0,0,0,0,0,0,0,0,0,-1,1231,1324,0,0
14,-300,0,0,0,0,0,0,0,0,0,-1,1238,1324,0,0
21,-300,0,0,0,0,0,0,0,0,0,-1,1245,1324,0,0
28,-300,0,0,0,0,0,0,0,0,0,-1,1252,1324,0,0
35,-300,0,0,0,0,0,0,0,0,0,-1,1259,1324,0,0
42,-300,0,0,0,0,0,0,0,0,0,-1,1266,1324,0,0
49,-300,0,0,0,0,0,0,0,0,0,-1,1273,1324,0,0
56,-300,0,0,0,0,0,0,0,0,0,-1,1280,1324,0,0
63,-300,0,0,0,0,0,0,0,0,0,-1,1287,1324,0,0
70,-300,0,0,0,0,0,0,0,0,0,-1,1294,1324,0,0
77,-300,0,0,0,0,0,0,0,0,0,-1,1301,1324,0,0
84,-300,0,0,0,0,0,0,0,0,0,-1,1308,1324,0,0
91,-300,0,0,0,0,0,0,0,0,0,-1,1315,1324,0,0
98,-300,0,0,0,0,0,0,0,0,0,-1,1322,1324,0,0
105,-300,0,0,0,0,0,0,0,0,0,-1,1329,1324,0,0
112,-300,0,0,0,0,0,0,0,0,0,-1,1336,1324,0,0
119,-300,0,0,0,0,0,0,0,0,0,-1,1343,1324,0,0
126,-300,0,0,0,0,0,0,0,0,0,-1,1350,1324,0,0
133,-300,0,0,0,0,0,0,0,0,0,-1,1357,1324,0,0
140,-300,0,0,0,0,0,0,0,0,0,-1,1364,1324,0,0
147,-300,0,0,0,0,0,0,0,0,0,-1,1371,1324,0,0
154,-300,0,0,0,0,0,0,0,0,0,-1,1378,1324,0,0
161,-300,0,0,0,0,0,0,0,0,0,-1,1385,1324,0,0
168,-300,0,0,0,0,0,0,0,0,0,-1,1392,1324,0,0
175,-300,0,0,0,0,0,0,0,0,0,-1,1399,1324,0,0
182,-300,0,0,0,0,0,0,0,0,0,-1,1406,1324,0,0
189,-300,0,0,0,0,0,0,0,0,0,-1,1413,1324,0,0
196,-300,0,0,0,0,0,0,0,0,0,-1,1420,1324,0,0
203,-300,0,0,0,0,0,0,0,0,0,-1,1427,1324,0,0
210,-300,0,0,0,0,0,0,0,0,0,-1,1434,1324,0,0
217,-300,0,0,0,0,0,0,0,0,0,-1,1441,1324,0,0
224,-300,0,0,0,0,0,0,0,0,0,-1,1448,1324,0,0
231,-300,0,0,0,0,0,0,0,0,0,-1,1455,1324,0,0
238,-300,0,0,0,0,0,0,0,0,0,-1,1462,1324,0,0
245,-300,0,0,0,0,0,0,0,0,0,-1,1469,1324,0,0
252,-300,0,0,0,0,0,0,0,0,0,-1,1476,1324,0,0
259,-300,0,0,0,0,0,0,0,0,0,-1,1483,1324,0,0
266,-300,0,0,0,0,0,0,0,0,0,-1,1490,1324,0,0
273,-300,0,0,0,0,0,0,0,0,0,-1,1497,1324,0,0
280,-300,0,0,0,0,0,0,0,0,0,-1,1504,1324,0,0
287,-300,0,0,0,0,0,0,0,0,0,-1,1511,1324,0,0
294,-300,0,0,0,0,0,0,0,0,0,-1,1518,1324,0,0
301,-300,0,0,0,0,0,0,0,0,0,-1,1525,1324,0,0
308,-300,0,0,0,0,0,0,0,0,0,-1,1532,1324,0,0
315,-300,0,0,0,0,0,0,0,0,0,-1,1539,1324,0,0
322,-300,0,0,0,0,0,0,0,0,0,-1,1546,1324,0,0
329,-300,0,0,0,0,0,0,0,0,0,-1,1553,1324,0,0
336,-300,0,0,0,0,0,0,0,0,0,-1,1560,1324,0,0
343,-300,0,0,0,0,0,0,0,0,0,-1,1567,1324,0,0
350,-300,0,0,0,0,0,0,0,0,0,-1,1574,1324,0,0
357,-300,0,0,0,0,0,0,0,0,0,-1,1581,1324,0,0
364,-300,0,0,0,0,0,0,0,0,0,-1,1588,1324,0,0
371,-300,0,0,0,0,0,0,0,0,0,-1,1595,1324,0,0
378,-300,0,0,0,0,0,0,0,0,0,-1,1602,1324,0,0
385,-300,0,0,0,0,0,0,0,0,0,-1,1609,1324,0,0
392,-300,0,0,0,0,0,0,0,0,0,-1,1616,1324,0,0
399,-300,0,0,0,0,0,0,0,0,0,-1,1623,1324,0,0
406,-300,0,0,0,0,0,0,0,0,0,-1,1630,1324,0,0
413,-300,0,0,0,0,0,0,0,0,0,-1,1637,1324,0,0
420,-300,0,0,0,0,0,0,0,0,0,-1,1644,1324,0,0
427,-300,0,0,0,0,0,0,0,0,0,-1,1651,1324,0,0
434,-300,0,0,0,0,0,0,0,0,0,-1,1658,1324,0,0
441,-300,0,0,0,0,0,0,0,0,0,-1,1665,1324,0,0
448,-300,0,0,0,0,0,0,0,0,0,-1,1672,1324,0,0
455,-300,0,0,0,0,0,0,0,0,0,-1,1679,1324,0,0
462,-300,0,0,0,0,0,0,0,0,0,-1,1686,1324,0,0
469,-300,0,0,0,0,0,0,0,0,0,-1,1693,1324,0,0
476,-300,0,0,0,0,0,0,0,0,0,-1,1700,1324,0,0
483,-300,0,0,0,0,0,0,0,0,0,-1,1707,1324,0,0
490,-300,0,0,0,0,0,0,0,0,0,-1,1714,1324,0,0
497,-300,0,0,0,0,0,0,0,0,0,-1,1721,1324,0,0
504,-300,0,0,0,0,0,0,0,0,0,-1,1728,1324,0,0
511,-300,0,0,0,0,0,0,0,0,0,-1,1735,1324,0,0
518,-300,0,0,0,0,0,0,0,0,0,-1,1742,1324,0,0
525,-300,0,0,0,0,0,0,0,0,0,-1,1749,1324,0,0
532,-300,0,0,0,0,0,0,0,0,0,-1,1756,1324,0,0
539,-300,0,0,0,0,0,0,0,0,0,-1,1763,1324,0,0
546,-300,0,0,0,0,0,0,0,0,0,-1,1770,1324,0,0
553,-300,0,0,0,0,0,0,0,0,0,-1,1777,1324,0,0
560,-300,0,0,0,0,0,0,0,0,0,-1,1784,1324,0,0
567,-300,0,0,0,0,0,0,0,0,0,-1,1791,1324,0,0
574,-300,0,0,0,0,0,0,0,0,0,-1,1798,1324,0,0
581,-300,0,0,0,0,0,0,0,0,0,-1,1805,1324,0,0
588,-300,66.4561,1.99207,0,0,0,0,0,0,0,-1,1812,1324,66.456,-1.99202
595,-300,66.4685,1.95496,0,0,0,0,0,0,0,-1,1819,1324,66.4685,-1.95499
602,-300,66.5259,1.72363,0,0,0,0,0,0,0,-1,1826,1324,66.5259,-1.72367
609,-300,64.2576,2.90149,0,0,0,0,0,0,0,-1,1833,1324,64.2575,-2.90154
616,-300,65.1267,2.84033,0,0,0,0,0,0,0,-1,1840,1324,65.1267,-2.84037
623,-300,47.4474,2.43188,0,0,0,0,0,0,0,-1,1847,1324,47.4474,-2.43194
630,-300,42.4099,3.9165,0,0,0,0,0,0,0,-1,1854,1324,42.4099,-3.91649
637,-300,31.1719,4.6366,0,0,0,0,0,0,0,-1,1861,1324,31.1718,-4.63665
644,-300,22.9836,3.44934,0,0,0,0,0,0,0,-1,1868,1324,22.9836,-3.4493
651,-300,25.5004,9.11853,0,0,0,0,0,0,0,-1,1875,1324,25.5004,-9.11851
658,-300,25.4012,9.20032,0,0,0,0,0,0,0,-1,1882,1324,25.4012,-9.20036
665,-300,49.2438,16.9784,0,0,0,0,0,0,0,-1,1889,1324,49.2438,-16.9784
672,-300,49.0806,16.296,-0.00476092,0.00416833,-0.00183177,0.0045295,-0.00512209,-1.37613,0.00557585,0.0357813,1896,1324,49.0806,-16.296
679,-300,49.0784,15.4913,-0.00157081,0.00159443,-0.00104417,0.00190786,-0.00188423,-1.27919,0.00218938,0.0132591,1903,1324,49.0783,-15.4913
686,-300,49.0415,14.7366,0.000859235,0.000618055,-0.000676625,0.00142593,5.13581e-05,-0.697213,0.000933973,0.0141352,1910,1324,49.0415,-14.7366
693,-300,48.9816,13.9689,0.00146107,-0.000241589,-0.000254047,0.00149817,-0.000278686,-0.144999,0.00110347,0.011999,1917,1324,48.9815,-13.9689
700,-300,48.939,13.1892,0.000889633,-0.000421713,0.000318414,0.00096286,-0.00049494,0.226042,0.000855991,0.0132835,1924,1324,48.939,-13.1892
707,-300,48.9296,12.4346,0.000294836,-0.000679361,0.000968319,0.000891669,-0.00127619,0.552362,0.00125816,0.00979215,1931,1324,48.9296,-12.4346
714,-300,48.8815,11.7146,-0.000384752,-0.00101293,0.00171489,0.00104458,-0.00244226,0.694825,0.00206633,0.0114619,1938,1324,48.8815,-11.7146
721,-300,48.8507,10.9742,-0.00112487,-0.00144188,0.0025657,0.00128722,-0.00385396,0.754548,0.00308911,0.0126589,1945,1324,48.8507,-10.9743
728,-300,48.8495,10.178,-0.00195413,-0.00194008,0.00354279,0.0015957,-0.00548991,0.786389,0.00429188,0.0181963,1952,1324,48.8495,-10.178
735,-300,48.6188,9.66919,-0.00291793,-0.00259921,0.0046868,0.00193094,-0.00744808,0.802392,0.00571875,0.033347,1959,1324,48.6188,-9.6692
742,-300,48.4932,9.01685,0,0,0,0,0,0,0,-1,1966,1324,48.4931,-9.01685
749,-300,27.4065,5.9718,0,0,0,0,0,0,0,-1,1973,1324,27.4065,-5.97181
756,-300,22.1423,3.45642,0,0,0,0,0,0,0,-1,1980,1324,22.1423,-3.45638
763,-300,22.6136,5.1571,0,0,0,0,0,0,0,-1,1987,1324,22.6136,-5.15706
770,-300,24.859,4.77979,0,0,0,0,0,0,0,-1,1994,1324,24.859,-4.77972
777,-300,0,0,0,0,0,0,0,0,0,-1,2001,1324,0,0
784,-300,0,0,0,0,0,0,0,0,0,-1,2008,1324,0,0
791,-300,0,0,0,0,0,0,0,0,0,-1,2015,1324,0,0
798,-300,0,0,0,0,0,0,0,0,0,-1,2022,1324,0,0
805,-300,0,0,0,0,0,0,0,0,0,-1,2029,1324,0,0
812,-300,0,0,0,0,0,0,0,0,0,-1,2036,1324,0,0
-700,-307,0,0,0,0,0,0,0,0,0,-1,524,1331,0,0
-693,-307,0,0,0,0,0,0,0,0,0,-1,531,1331,0,0
-686,-307,0,0,0,0,0,0,0,0,0,-1,538,1331,0,0
-679,-307,0,0,0,0,0,0,0,0,0,-1,545,1331,0,0
-672,-307,0,0,0,0,0,0,0,0,0,-1,552,1331,0,0
-665,-307,0,0,0,0,0,0,0,0,0,-1,559,1331,0,0
-658,-307,0,0,0,0,0,0,0,0,0,-1,566,1331,0,0
-651,-307,-40.7436,1.98755,0,0,0,0,0,0,0,-1,573,1331,-40.7436,-1.98753
-644,-307,-41.7838,1.24817,0,0,0,0,0,0,0,-1,580,1331,-41.7838,-1.2482
-637,-307,-41.9006,0.477783,0,0,0,0,0,0,0,-1,587,1331,-41.9006,-0.477844
-630,-307,-12.0005,0.767212,0,0,0,0,0,0,0,-1,594,1331,-12.0005,-0.767266
-623,-307,-12.2128,2.93811,0,0,0,0,0,0,0,-1,601,1331,-12.2128,-2.93813
-616,-307,-12.6612,2.08289,0,0,0,0,0,0,0,-1,608,1331,-12.6612,-2.08293
-609,-307,-12.2767,1.83228,0,0,0,0,0,0,0,-1,615,1331,-12.2768,-1.83224
-602,-307,-27.5659,6.93335,0,0,0,0,0,0,0,-1,622,1331,-27.5658,-6.9333
-595,-307,-30.929,9.21057,0,0,0,0,0,0,0,-1,629,1331,-30.929,-9.21058
-588,-307,-30.9064,10.0582,0.00340757,0.00249503,0.00150082,0.00451995,0.00138265,0.63783,0.00267433,0.0239725,636,1331,-30.9064,-10.0582
-581,-307,-30.8965,10.8489,0.00262179,0.00190996,0.00105761,0.00338177,0.00114998,0.623088,0.00198549,0.016586,643,1331,-30.8965,-10.8489
-574,-307,-30.9395,11.5962,0.00222896,0.00137155,0.000827805,0.00273248,0.000868025,0.546472,0.00161219,0.0133365,650,1331,-30.9394,-11.5962
-567,-307,-31.0025,12.3926,0.00218183,0.000913619,0.000787316,0.00255864,0.000536807,0.446385,0.00155796,0.0138368,657,1331,-31.0025,-12.3925
-560,-307,-31.0378,13.2018,0.00247404,0.000515995,0.000923057,0.00284057,0.000149462,0.377992,0.00184591,0.0143075,664,1331,-31.0378,-13.2018
-553,-307,-31.0668,13.9926,0.00313749,0.000191157,0.00124721,0.00359454,-0.000265897,0.351264,0.00248973,0.0115974,671,1331,-31.0668,-13.9926
-546,-307,-31.1313,14.7645,0.0042071,-7.51877e-05,0.00178507,0.0048536,-0.000721692,0.347478,0.00350118,0.0114407,678,1331,-31.1314,-14.7645
-539,-307,-31.1391,15.5955,0.00587558,-0.000273502,0.0026113,0.00683485,-0.00123278,0.352052,0.00501822,0.0215997,685,1331,-31.1391,-15.5955
-532,-307,-31.0954,16.4595,0,0,0,0,0,0,0,-1,692,1331,-31.0954,-16.4595
-525,-307,-13.2009,6.91309,0,0,0,0,0,0,0,-1,699,1331,-13.2009,-6.9131
-518,-307,-9.77777,-1.56653,0,0,0,0,0,0,0,-1,706,1331,-9.77777,1.56651
-511,-307,-12.5226,0.26709,0,0,0,0,0,0,0,-1,713,1331,-12.5226,-0.267038
-504,-307,-12.5913,-0.308105,0,0,0,0,0,0,0,-1,720,1331,-12.5913,0.308124
-497,-307,-13.8586,-0.115845,0,0,0,0,0,0,0,-1,727,1331,-13.8587,0.115861
-490,-307,-17.9429,0.982178,0,0,0,0,0,0,0,-1,734,1331,-17.9429,-0.982198
-483,-307,-18.1066,0.927612,0,0,0,0,0,0,0,-1,741,1331,-18.1066,-0.927609
-476,-307,-18.1288,1.1228,0,0,0,0,0,0,0,-1,748,1331,-18.1289,-1.12286
-469,-307,-18.2028,0.798584,0,0,0,0,0,0,0,-1,755,1331,-18.2027,-0.798546
-462,-307,0,0,0,0,0,0,0,0,0,-1,762,1331,0,0
-455,-307,0,0,0,0,0,0,0,0,0,-1,769,1331,0,0
-448,-307,0,0,0,0,0,0,0,0,0,-1,776,1331,0,0
-441,-307,0,0,0,0,0,0,0,0,0,-1,783,1331,0,0
-434,-307,0,0,0,0,0,0,0,0,0,-1,790,1331,0,0
-427,-307,0,0,0,0,0,0,0,0,0,-1,797,1331,0,0
-420,-307,0,0,0,0,0,0,0,0,0,-1,804,1331,0,0
-413,-307,0,0,0,0,0,0,0,0,0,-1,811,1331,0,0
-406,-307,0,0,0,0,0,0,0,0,0,-1,818,1331,0,0
-399,-307,0,0,0,0,0,0,0,0,0,-1,825,1331,0,0
-392,-307,0,0,0,0,0,0,0,0,0,-1,832,1331,0,0
-385,-307,0,0,0,0,0,0,0,0,0,-1,839,1331,0,0
-378,-307,0,0,0,0,0,0,0,0,0,-1,846,1331,0,0
-371,-307,0,0,0,0,0,0,0,0,0,-1,853,1331,0,0
-364,-307,0,0,0,0,0,0,0,0,0,-1,860,1331,0,0
-357,-307,0,0,0,0,0,0,0,0,0,-1,867,1331,0,0
-350,-307,0,0,0,0,0,0,0,0,0,-1,874,1331,0,0
-343,-307,0,0,0,0,0,0,0,0,0,-1,881,1331,0,0
-336,-307,0,0,0,0,0,0,0,0,0,-1,888,1331,0,0
-329,-307,0,0,0,0,0,0,0,0,0,-1,895,1331,0,0
-322,-307,0,0,0,0,0,0,0,0,0,-1,902,1331,0,0
-315,-307,0,0,0,0,0,0,0,0,0,-1,909,1331,0,0
-308,-307,0,0,0,0,0,0,0,0,0,-1,916,1331,0,0
-301,-307,0,0,0,0,0,0,0,0,0,-1,923,1331,0,0
-294,-307,0,0,0,0,0,0,0,0,0,-1,930,1331,0,0
-287,-307,0,0,0,0,0,0,0,0,0,-1,937,1331,0,0
-280,-307,0,0,0,0,0,0,0,0,0,-1,944,1331,0,0
-273,-307,0,0,0,0,0,0,0,0,0,-1,951,1331,0,0
-266,-307,0,0,0,0,0,0,0,0,0,-1,958,1331,0,0
-259,-307,0,0,0,0,0,0,0,0,0,-1,965,1331,0,0
-252,-307,0,0,0,0,0,0,0,0,0,-1,972,1331,0,0
-245,-307,0,0,0,0,0,0,0,0,0,-1,979,1331,0,0
-238,-307,0,0,0,0,0,0,0,0,0,-1,986,1331,0,0
-231,-307,0,0,0,0,0,0,0,0,0,-1,993,1331,0,0
-224,-307,0,0,0,0,0,0,0,0,0,-1,1000,1331,0,0
-217,-307,0,0,0,0,0,0,0,0,0,-1,1007,1331,0,0
-210,-307,0,0,0,0,0,0,0,0,0,-1,1014,1331,0,0
-203,-307,0,0,0,0,0,0,0,0,0,-1,1021,1331,0,0
-196,-307,0,0,0,0,0,0,0,0,0,-1,1028,1331,0,0
-189,-307,0,0,0,0,0,0,0,0,0,-1,1035,1331,0,0
-182,-307,0,0,0,0,0,0,0,0,0,-1,1042,1331,0,0
-175,-307,0,0,0,0,0,0,0,0,0,-1,1049,1331,0,0
-168,-307,0,0,0,0,0,0,0,0,0,-1,1056,1331,0,0
-161,-307,0,0,0,0,0,0,0,0,0,-1,1063,1331,0,0
-154,-307,0,0,0,0,0,0,0,0,0,-1,1070,1331,0,0
-147,-307,0,0,0,0,0,0,0,0,0,-1,1077,1331,0,0
-140,-307,0,0,0,0,0,0,0,0,0,-1,1084,1331,0,0
-133,-307,0,0,0,0,0,0,0,0,0,-1,1091,1331,0,0
-126,-307,0,0,0,0,0,0,0,0,0,-1,1098,1331,0,0
-119,-307,0,0,0,0,0,0,0,0,0,-1,1105,1331,0,0
-112,-307,0,0,0,0,0,0,0,0,0,-1,1112,1331,0,0
-105,-307,0,0,0,0,0,0,0,0,0,-1,1119,1331,0,0
-98,-307,0,0,0,0,0,0,0,0,0,-1,1126,1331,0,0
-91,-307,0,0,0,0,0,0,0,0,0,-1,1133,1331,0,0
-84,-307,0,0,0,0,0,0,0,0,0,-1,1140,1331,0,0
-77,-307,0,0,0,0,0,0,0,0,0,-1,1147,1331,0,0
-70,-307,0,0,0,0,0,0,0,0,0,-1,1154,1331,0,0
-63,-307,0,0,0,0,0,0,0,0,0,-1,1161,1331,0,0
-56,-307,0,0,0,0,0,0,0,0,0,-1,1168,1331,0,0
-49,-307,0,0,0,0,0,0,0,0,0,-1,1175,1331,0,0
-42,-307,0,0,0,0,0,0,0,0,0,-1,1182,1331,0,0
-35,-307,0,0,0,0,0,0,0,0,0,-1,1189,1331,0,0
-28,-307,0,0,0,0,0,0,0,0,0,-1,1196,1331,0,0
-21,-307,0,0,0,0,0,0,0,0,0,-1,1203,1331,0,0
-14,-307,0,0,0,0,0,0,0,0,0,-1,1210,1331,0,0
-7,-307,0,0,0,0,0,0,0,0,0,-1,1217,1331,0,0
0,-307,0,0,0,0,0,0,0,0,0,-1,1224,1331,0,0
7,-307,0,0,0,0,0,0,0,0,0,-1,1231,1331,0,0
14,-307,0,0,0,0,0,0,0,0,0,-1,1238,1331,0,0
21,-307,0,0,0,0,0,0,0,0,0,-1,1245,1331,0,0
28,-307,0,0,0,0,0,0,0,0,0,-1,1252,1331,0,0
35,-307,0,0,0,0,0,0,0,0,0,-1,1259,1331,0,0
42,-307,0,0,0,0,0,0,0,0,0,-1,1266,1331,0,0
49,-307,0,0,0,0,0,0,0,0,0,-1,1273,1331,0,0
56,-307,0,0,0,0,0,0,0,0,0,-1,1280,1331,0,0
63,-307,0,0,0,0,0,0,0,0,0,-1,1287,1331,0,0
70,-307,0,0,0,0,0,0,0,0,0,-1,1294,1331,0,0
77,-307,0,0,0,0,0,0,0,0,0,-1,1301,1331,0,0
84,-307,0,0,0,0,0,0,0,0,0,-1,1308,1331,0,0
91,-307,0,0,0,0,0,0,0,0,0,-1,1315,1331,0,0
98,-307,0,0,0,0,0,0,0,0,0,-1,1322,1331,0,0
105,-307,0,0,0,0,0,0,0,0,0,-1,1329,1331,0,0
112,-307,0,0,0,0,0,0,0,0,0,-1,1336,1331,0,0
119,-307,0,0,0,0,0,0,0,0,0,-1,1343,1331,0,0
126,-307,0,0,0,0,0,0,0,0,0,-1,1350,1331,0,0
133,-307,0,0,0,0,0,0,0,0,0,-1,1357,1331,0,0
140,-307,0,0,0,0,0,0,0,0,0,-1,1364,1331,0,0
147,-307,0,0,0,0,0,0,0,0,0,-1,1371,1331,0,0
154,-307,0,0,0,0,0,0,0,0,0,-1,1378,1331,0,0
161,-307,0,0,0,0,0,0,0,0,0,-1,1385,1331,0,0
168,-307,0,0,0,0,0,0,0,0,0,-1,1392,1331,0,0
175,-307,0,0,0,0,0,0,0,0,0,-1,1399,1331,0,0
182,-307,0,0,0,0,0,0,0,0,0,-1,1406,1331,0,0
189,-307,0,0,0,0,0,0,0,0,0,-1,1413,1331,0,0
196,-307,0,0,0,0,0,0,0,0,0,-1,1420,1331,0,0
203,-307,0,0,0,0,0,0,0,0,0,-1,1427,1331,0,0
210,-307,0,0,0,0,0,0,0,0,0,-1,1434,1331,0,0
217,-307,0,0,0,0,0,0,0,0,0,-1,1441,1331,0,0
224,-307,0,0,0,0,0,0,0,0,0,-1,1448,1331,0,0
231,-307,0,0,0,0,0,0,0,0,0,-1,1455,1331,0,0
238,-307,0,0,0,0,0,0,0,0,0,-1,1462,1331,0,0
245,-307,0,0,0,0,0,0,0,0,0,-1,1469,1331,0,0
252,-307,0,0,0,0,0,0,0,0,0,-1,1476,1331,0,0
259,-307,0,0,0,0,0,0,0,0,0,-1,1483,1331,0,0
266,-307,0,0,0,0,0,0,0,0,0,-1,1490,1331,0,0
273,-307,0,0,0,0,0,0,0,0,0,-1,1497,1331,0,0
280,-307,0,0,0,0,0,0,0,0,0,-1,1504,1331,0,0
287,-307,0,0,0,0,0,0,0,0,0,-1,1511,1331,0,0
294,-307,0,0,0,0,0,0,0,0,0,-1,1518,1331,0,0
301,-307,0,0,0,0,0,0,0,0,0,-1,1525,1331,0,0
308,-307,0,0,0,0,0,0,0,0,0,-1,1532,1331,0,0
315,-307,0,0,0,0,0,0,0,0,0,-1,1539,1331,0,0
322,-307,0,0,0,0,0,0,0,0,0,-1,1546,1331,0,0
329,-307,0,0,0,0,0,0,0,0,0,-1,1553,1331,0,0
336,-307,0,0,0,0,0,0,0,0,0,-1,1560,1331,0,0
343,-307,0,0,0,0,0,0,0,0,0,-1,1567,1331,0,0
350,-307,0,0,0,0,0,0,0,0,0,-1,1574,1331,0,0
357,-307,0,0,0,0,0,0,0,0,0,-1,1581,1331,0,0
364,-307,0,0,0,0,0,0,0,0,0,-1,1588,1331,0,0
371,-307,0,0,0,0,0,0,0,0,0,-1,1595,1331,0,0
378,-307,0,0,0,0,0,0,0,0,0,-1,1602,1331,0,0
385,-307,0,0,0,0,0,0,0,0,0,-1,1609,1331,0,0
392,-307,0,0,0,0,0,0,0,0,0,-1,1616,1331,0,0
399,-307,0,0,0,0,0,0,0,0,0,-1,1623,1331,0,0
406,-307,0,0,0,0,0,0,0,0,0,-1,1630,1331,0,0
413,-307,0,0,0,0,0,0,0,0,0,-1,1637,1331,0,0
420,-307,0,0,0,0,0,0,0,0,0,-1,1644,1331,0,0
427,-307,0,0,0,0,0,0,0,0,0,-1,1651,1331,0,0
434,-307,0,0,0,0,0,0,0,0,0,-1,1658,1331,0,0
441,-307,0,0,0,0,0,0,0,0,0,-1,1665,1331,0,0
448,-307,0,0,0,0,0,0,0,0,0,-1,1672,1331,0,0
455,-307,0,0,0,0,0,0,0,0,0,-1,1679,1331,0,0
462,-307,0,0,0,0,0,0,0,0,0,-1,1686,1331,0,0
469,-307,0,0,0,0,0,0,0,0,0,-1,1693,1331,0,0
476,-307,0,0,0,0,0,0,0,0,0,-1,1700,1331,0,0
483,-307,0,0,0,0,0,0,0,0,0,-1,1707,1331,0,0
490,-307,0,0,0,0,0,0,0,0,0,-1,1714,1331,0,0
497,-307,0,0,0,0,0,0,0,0,0,-1,1721,1331,0,0
504,-307,0,0,0,0,0,0,0,0,0,-1,1728,1331,0,0
511,-307,0,0,0,0,0,0,0,0,0,-1,1735,1331,0,0
518,-307,0,0,0,0,0,0,0,0,0,-1,1742,1331,0,0
525,-307,0,0,0,0,0,0,0,0,0,-1,1749,1331,0,0
532,-307,0,0,0,0,0,0,0,0,0,-1,1756,1331,0,0
539,-307,0,0,0,0,0,0,0,0,0,-1,1763,1331,0,0
546,-307,0,0,0,0,0,0,0,0,0,-1,1770,1331,0,0
553,-307,0,0,0,0,0,0,0,0,0,-1,1777,1331,0,0
560,-307,0,0,0,0,0,0,0,0,0,-1,1784,1331,0,0
567,-307,0,0,0,0,0,0,0,0,0,-1,1791,1331,0,0
574,-307,0,0,0,0,0,0,0,0,0,-1,1798,1331,0,0
581,-307,0,0,0,0,0,0,0,0,0,-1,1805,1331,0,0
588,-307,66.5917,1.60864,0,0,0,0,0,0,0,-1,1812,1331,66.5917,-1.60867
595,-307,66.708,1.85352,0,0,0,0,0,0,0,-1,1819,1331,66.708,-1.85351
602,-307,66.111,1.49976,0,0,0,0,0,0,0,-1,1826,1331,66.1109,-1.49974
609,-307,63.8848,2.78992,0,0,0,0,0,0,0,-1,1833,1331,63.8848,-2.78989
616,-307,53.2878,0.135498,0,0,0,0,0,0,0,-1,1840,1331,53.2878,-0.135477
623,-307,44.3966,2.84888,0,0,0,0,0,0,0,-1,1847,1331,44.3966,-2.84884
630,-307,29.8116,1.51184,0,0,0,0,0,0,0,-1,1854,1331,29.8116,-1.51188
637,-307,24.6407,4.09106,0,0,0,0,0,0,0,-1,1861,1331,24.6407,-4.09103
644,-307,22.6885,5.80408,0,0,0,0,0,0,0,-1,1868,1331,22.6884,-5.80408
651,-307,17.5013,5.80078,0,0,0,0,0,0,0,-1,1875,1331,17.5014,-5.80072
658,-307,37.4427,13.9775,0,0,0,0,0,0,0,-1,1882,1331,37.4427,-13.9776
665,-307,48.4888,17.0127,0,0,0,0,0,0,0,-1,1889,1331,48.4888,-17.0126
672,-307,48.3552,16.2828,-0.00310254,0.00212474,-0.00124669,0.00240684,-0.00338464,-1.34826,0.00335956,0.0208389,1896,1331,48.3552,-16.2828
679,-307,48.301,15.5415,-0.000449059,0.000369131,-0.000620545,0.000703295,-0.000783223,-1.07682,0.000858655,0.010396,1903,1331,48.301,-15.5415
686,-307,48.2595,14.7754,0.00109469,7.88312e-05,-0.000391013,0.00122777,-5.42412e-05,-0.328032,0.000837177,0.0106507,1910,1331,48.2595,-14.7754
693,-307,48.2316,14.0068,0.00126765,-0.000280808,-6.81024e-05,0.00127064,-0.000283797,-0.0438678,0.000955843,0.0127927,1917,1331,48.2315,-14.0068
700,-307,48.2122,13.2332,0.00082885,-0.000473633,0.000442864,0.000965164,-0.000609948,0.298599,0.000917067,0.0144917,1924,1331,48.2122,-13.2331
707,-307,48.1785,12.4744,0.000347018,-0.000757749,0.00103878,0.000971154,-0.00138189,0.541032,0.00136541,0.0161905,1931,1331,48.1785,-12.4743
714,-307,48.1327,11.7656,-0.000238615,-0.00112817,0.00174798,0.00112029,-0.00248707,0.660816,0.00213196,0.0140814,1938,1331,48.1327,-11.7656
721,-307,48.1288,11.0289,-0.000882446,-0.00163848,0.00259144,0.0013584,-0.00387933,0.712973,0.00313859,0.0181222,1945,1331,48.1288,-11.0289
728,-307,48.0747,10.4321,-0.00163947,-0.00225678,0.00359859,0.00166368,-0.00555993,0.742617,0.0043681,0.048191,1952,1331,48.0747,-10.4321
735,-307,48.1311,9.51294,0,0,0,0,0,0,0,-1,1959,1331,48.1311,-9.51298
742,-307,26.677,6.09192,0,0,0,0,0,0,0,-1,1966,1331,26.677,-6.0919
749,-307,26.7727,5.9032,0,0,0,0,0,0,0,-1,1973,1331,26.7727,-5.90323
756,-307,27.1556,5.74756,0,0,0,0,0,0,0,-1,1980,1331,27.1557,-5.7475
763,-307,18.7522,3.55298,0,0,0,0,0,0,0,-1,1987,1331,18.7522,-3.55301
770,-307,0,0,0,0,0,0,0,0,0,-1,1994,1331,0,0
777,-307,0,0,0,0,0,0,0,0,0,-1,2001,1331,0,0
784,-307,0,0,0,0,0,0,0,0,0,-1,2008,1331,0,0
791,-307,0,0,0,0,0,0,0,0,0,-1,2015,1331,0,0
798,-307,0,0,0,0,0,0,0,0,0,-1,2022,1331,0,0
805,-307,0,0,0,0,0,0,0,0,0,-1,2029,1331,0,0
812,-307,0,0,0,0,0,0,0,0,0,-1,2036,1331,0,0
-700,-314,0,0,0,0,0,0,0,0,0,-1,524,1338,0,0
-693,-314,0,0,0,0,0,0,0,0,0,-1,531,1338,0,0
-686,-314,0,0,0,0,0,0,0,0,0,-1,538,1338,0,0
-679,-314,0,0,0,0,0,0,0,0,0,-1,545,1338,0,0
-672,-314,0,0,0,0,0,0,0,0,0,-1,552,1338,0,0
-665,-314,0,0,0,0,0,0,0,0,0,-1,559,1338,0,0
-658,-314,0,0,0,0,0,0,0,0,0,-1,566,1338,0,0
-651,-314,0,0,0,0,0,0,0,0,0,-1,573,1338,0,0
-644,-314,-41.2806,1.17566,0,0,0,0,0,0,0,-1,580,1338,-41.2806,-1.17565
-637,-314,-58.369,7.97375,0,0,0,0,0,0,0,-1,587,1338,-58.369,-7.97376
-630,-314,-59.7463,6.72742,0,0,0,0,0,0,0,-1,594,1338,-59.7463,-6.72739
-623,-314,-13.3542,3.00903,0,0,0,0,0,0,0,-1,601,1338,-13.3542,-3.00907
-616,-314,-9.93311,1.15088,0,0,0,0,0,0,0,-1,608,1338,-9.93308,-1.15093
-609,-314,-9.4361,2.86292,0,0,0,0,0,0,0,-1,615,1338,-9.43612,-2.86286
-602,-314,-11.8027,2.42798,0,0,0,0,0,0,0,-1,622,1338,-11.8027,-2.42802
-595,-314,-30.3556,9.12976,0,0,0,0,0,0,0,-1,629,1338,-30.3556,-9.12976
-588,-314,-30.1613,10.0026,0.00407606,0.0028259,0.00163754,0.00520377,0.00169819,0.603073,0.00306421,0.0355983,636,1338,-30.1613,-10.0026
-581,-314,-30.0939,10.8534,0.00305884,0.00226153,0.00115678,0.00388373,0.00143664,0.619457,0.00226743,0.0134572,643,1338,-30.0938,-10.8534
-574,-314,-30.1674,11.6041,0.00253094,0.00169624,0.000912811,0.00311729,0.00110989,0.57098,0.00182446,0.0137523,650,1338,-30.1674,-11.6042
-567,-314,-30.2024,12.4153,0.00241069,0.00121556,0.000868718,0.00286752,0.000758726,0.48413,0.00171564,0.0153517,657,1338,-30.2024,-12.4152
-560,-314,-30.2057,13.2352,0.00264491,0.000796501,0.000992011,0.00307652,0.000364888,0.410384,0.00194085,0.0154665,664,1338,-30.2057,-13.2352
-553,-314,-30.2734,14.0288,0.00324997,0.000441448,0.00128607,0.0037499,-5.84784e-05,0.370747,0.00251965,0.0176153,671,1338,-30.2734,-14.0288
-546,-314,-30.3639,14.8334,0.00424387,0.000125312,0.00175309,0.00488902,-0.000519839,0.352627,0.00344573,0.0188149,678,1338,-30.3639,-14.8334
-539,-314,-30.3771,15.6422,0.00574055,-0.000114451,0.00244675,0.00662839,-0.00100229,0.348091,0.00478812,0.0203928,685,1338,-30.3771,-15.6422
-532,-314,-30.3139,16.4163,0,0,0,0,0,0,0,-1,692,1338,-30.3139,-16.4163
-525,-314,-13.3017,7.50671,0,0,0,0,0,0,0,-1,699,1338,-13.3017,-7.50669
-518,-314,-8.52753,4.70032,0,0,0,0,0,0,0,-1,706,1338,-8.52755,-4.70034
-511,-314,-11.8597,0.384888,0,0,0,0,0,0,0,-1,713,1338,-11.8597,-0.384927
-504,-314,-11.4322,-0.187378,0,0,0,0,0,0,0,-1,720,1338,-11.4322,0.187381
-497,-314,-11.0047,-0.759644,0,0,0,0,0,0,0,-1,727,1338,-11.0047,0.759689
-490,-314,-18.5143,0.471069,0,0,0,0,0,0,0,-1,734,1338,-18.5143,-0.47103
-483,-314,-17.8528,0.577271,0,0,0,0,0,0,0,-1,741,1338,-17.8528,-0.577327
-476,-314,-17.714,0.665405,0,0,0,0,0,0,0,-1,748,1338,-17.714,-0.665388
-469,-314,-17.7246,0.794678,0,0,0,0,0,0,0,-1,755,1338,-17.7246,-0.794645
-462,-314,0,0,0,0,0,0,0,0,0,-1,762,1338,0,0
-455,-314,0,0,0,0,0,0,0,0,0,-1,769,1338,0,0
-448,-314,0,0,0,0,0,0,0,0,0,-1,776,1338,0,0
-441,-314,0,0,0,0,0,0,0,0,0,-1,783,1338,0,0
-434,-314,0,0,0,0,0,0,0,0,0,-1,790,1338,0,0
-427,-314,0,0,0,0,0,0,0,0,0,-1,797,1338,0,0
-420,-314,0,0,0,0,0,0,0,0,0,-1,804,1338,0,0
-413,-314,0,0,0,0,0,0,0,0,0,-1,811,1338,0,0
-406,-314,0,0,0,0,0,0,0,0,0,-1,818,1338,0,0
-399,-314,0,0,0,0,0,0,0,0,0,-1,825,1338,0,0
-392,-314,0,0,0,0,0,0,0,0,0,-1,832,1338,0,0
-385,-314,0,0,0,0,0,0,0,0,0,-1,839,1338,0,0
-378,-314,0,0,0,0,0,0,0,0,0,-1,846,1338,0,0
-371,-314,0,0,0,0,0,0,0,0,0,-1,853,1338,0,0
-364,-314,0,0,0,0,0,0,0,0,0,-1,860,1338,0,0
-357,-314,0,0,0,0,0,0,0,0,0,-1,867,1338,0,0
-350,-314,0,0,0,0,0,0,0,0,0,-1,874,1338,0,0
-343,-314,0,0,0,0,0,0,0,0,0,-1,881,1338,0,0
-336,-314,0,0,0,0,0,0,0,0,0,-1,888,1338,0,0
-329,-314,0,0,0,0,0,0,0,0,0,-1,895,1338,0,0
-322,-314,0,0,0,0,0,0,0,0,0,-1,902,1338,0,0
-315,-314,0,0,0,0,0,0,0,0,0,-1,909,1338,0,0
-308,-314,0,0,0,0,0,0,0,0,0,-1,916,1338,0,0
-301,-314,0,0,0,0,0,0,0,0,0,-1,923,1338,0,0
-294,-314,0,0,0,0,0,0,0,0,0,-1,930,1338,0,0
-287,-314,0,0,0,0,0,0,0,0,0,-1,937,1338,0,0
-280,-314,0,0,0,0,0,0,0,0,0,-1,944,1338,0,0
-273,-314,0,0,0,0,0,0,0,0,0,-1,951,1338,0,0
-266,-314,0,0,0,0,0,0,0,0,0,-1,958,1338,0,0
-259,-314,0,0,0,0,0,0,0,0,0,-1,965,1338,0,0
-252,-314,0,0,0,0,0,0,0,0,0,-1,972,1338,0,0
-245,-314,0,0,0,0,0,0,0,0,0,-1,979,1338,0,0
-238,-314,0,0,0,0,0,0,0,0,0,-1,986,1338,0,0
-231,-314,0,0,0,0,0,0,0,0,0,-1,993,1338,0,0
-224,-314,0,0,0,0,0,0,0,0,0,-1,1000,1338,0,0
-217,-314,0,0,0,0,0,0,0,0,0,-1,1007,1338,0,0
-210,-314,0,0,0,0,0,0,0,0,0,-1,1014,1338,0,0
-203,-314,0,0,0,0,0,0,0,0,0,-1,1021,1338,0,0
-196,-314,0,0,0,0,0,0,0,0,0,-1,1028,1338,0,0
-189,-314,0,0,0,0,0,0,0,0,0,-1,1035,1338,0,0
-182,-314,0,0,0,0,0,0,0,0,0,-1,1042,1338,0,0
-175,-314,0,0,0,0,0,0,0,0,0,-1,1049,1338,0,0
-168,-314,0,0,0,0,0,0,0,0,0,-1,1056,1338,0,0
-161,-314,0,0,0,0,0,0,0,0,0,-1,1063,1338,0,0
-154,-314,0,0,0,0,0,0,0,0,0,-1,1070,1338,0,0
-147,-314,0,0,0,0,0,0,0,0,0,-1,1077,1338,0,0
-140,-314,0,0,0,0,0,0,0,0,0,-1,1084,1338,0,0
-133,-314,0,0,0,0,0,0,0,0,0,-1,1091,1338,0,0
-126,-314,0,0,0,0,0,0,0,0,0,-1,1098,1338,0,0
-119,-314,0,0,0,0,0,0,0,0,0,-1,1105,1338,0,0
-112,-314,0,0,0,0,0,0,0,0,0,-1,1112,1338,0,0
-105,-314,0,0,0,0,0,0,0,0,0,-1,1119,1338,0,0
-98,-314,0,0,0,0,0,0,0,0,0,-1,1126,1338,0,0
-91,-314,0,0,0,0,0,0,0,0,0,-1,1133,1338,0,0
-84,-314,0,0,0,0,0,0,0,0,0,-1,1140,1338,0,0
-77,-314,0,0,0,0,0,0,0,0,0,-1,1147,1338,0,0
-70,-314,0,0,0,0,0,0,0,0,0,-1,1154,1338,0,0
-63,-314,0,0,0,0,0,0,0,0,0,-1,1161,1338,0,0
-56,-314,0,0,0,0,0,0,0,0,0,-1,1168,1338,0,0
-49,-314,0,0,0,0,0,0,0,0,0,-1,1175,1338,0,0
-42,-314,0,0,0,0,0,0,0,0,0,-1,1182,1338,0,0
-35,-314,0,0,0,0,0,0,0,0,0,-1,1189,1338,0,0
-28,-314,0,0,0,0,0,0,0,0,0,-1,1196,1338,0,0
-21,-314,0,0,0,0,0,0,0,0,0,-1,1203,1338,0,0
-14,-314,0,0,0,0,0,0,0,0,0,-1,1210,1338,0,0
-7,-314,0,0,0,0,0,0,0,0,0,-1,1217,1338,0,0
0,-314,0,0,0,0,0,0,0,0,0,-1,1224,1338,0,0
7,-314,0,0,0,0,0,0,0,0,0,-1,1231,1338,0,0
14,-314,0,0,0,0,0,0,0,0,0,-1,1238,1338,0,0
21,-314,0,0,0,0,0,0,0,0,0,-1,1245,1338,0,0
28,-314,0,0,0,0,0,0,0,0,0,-1,1252,1338,0,0
35,-314,0,0,0,0,0,0,0,0,0,-1,1259,1338,0,0
42,-314,0,0,0,0,0,0,0,0,0,-1,1266,1338,0,0
49,-314,0,0,0,0,0,0,0,0,0,-1,1273,1338,0,0
56,-314,0,0,0,0,0,0,0,0,0,-1,1280,1338,0,0
63,-314,0,0,0,0,0,0,0,0,0,-1,1287,1338,0,0
70,-314,0,0,0,0,0,0,0,0,0,-1,1294,1338,0,0
77,-314,0,0,0,0,0,0,0,0,0,-1,1301,1338,0,0
84,-314,0,0,0,0,0,0,0,0,0,-1,1308,1338,0,0
91,-314,0,0,0,0,0,0,0,0,0,-1,1315,1338,0,0
98,-314,0,0,0,0,0,0,0,0,0,-1,1322,1338,0,0
105,-314,0,0,0,0,0,0,0,0,0,-1,1329,1338,0,0
112,-314,0,0,0,0,0,0,0,0,0,-1,1336,1338,0,0
119,-314,0,0,0,0,0,0,0,0,0,-1,1343,1338,0,0
126,-314,0,0,0,0,0,0,0,0,0,-1,1350,1338,0,0
133,-314,0,0,0,0,0,0,0,0,0,-1,1357,1338,0,0
140,-314,0,0,0,0,0,0,0,0,0,-1,1364,1338,0,0
147,-314,0,0,0,0,0,0,0,0,0,-1,1371,1338,0,0
154,-314,0,0,0,0,0,0,0,0,0,-1,1378,1338,0,0
161,-314,0,0,0,0,0,0,0,0,0,-1,1385,1338,0,0
168,-314,0,0,0,0,0,0,0,0,0,-1,1392,1338,0,0
175,-314,0,0,0,0,0,0,0,0,0,-1,1399,1338,0,0
182,-314,0,0,0,0,0,0,0,0,0,-1,1406,1338,0,0
189,-314,0,0,0,0,0,0,0,0,0,-1,1413,1338,0,0
196,-314,0,0,0,0,0,0,0,0,0,-1,1420,1338,0,0
203,-314,0,0,0,0,0,0,0,0,0,-1,1427,1338,0,0
210,-314,0,0,0,0,0,0,0,0,0,-1,1434,1338,0,0
217,-314,0,0,0,0,0,0,0,0,0,-1,1441,1338,0,0
224,-314,0,0,0,0,0,0,0,0,0,-1,1448,1338,0,0
231,-314,0,0,0,0,0,0,0,0,0,-1,1455,1338,0,0
238,-314,0,0,0,0,0,0,0,0,0,-1,1462,1338,0,0
245,-314,0,0,0,0,0,0,0,0,0,-1,1469,1338,0,0
252,-314,0,0,0,0,0,0,0,0,0,-1,1476,1338,0,0
259,-314,0,0,0,0,0,0,0,0,0,-1,1483,1338,0,0
266,-314,0,0,0,0,0,0,0,0,0,-1,1490,1338,0,0
273,-314,0,0,0,0,0,0,0,0,0,-1,1497,1338,0,0
280,-314,0,0,0,0,0,0,0,0,0,-1,1504,1338,0,0
287,-314,0,0,0,0,0,0,0,0,0,-1,1511,1338,0,0
294,-314,0,0,0,0,0,0,0,0,0,-1,1518,1338,0,0
301,-314,0,0,0,0,0,0,0,0,0,-1,1525,1338,0,0
308,-314,0,0,0,0,0,0,0,0,0,-1,1532,1338,0,0
315,-314,0,0,0,0,0,0,0,0,0,-1,1539,1338,0,0
322,-314,0,0,0,0,0,0,0,0,0,-1,1546,1338,0,0
329,-314,0,0,0,0,0,0,0,0,0,-1,1553,1338,0,0
336,-314,0,0,0,0,0,0,0,0,0,-1,1560,1338,0,0
343,-314,0,0,0,0,0,0,0,0,0,-1,1567,1338,0,0
350,-314,0,0,0,0,0,0,0,0,0,-1,1574,1338,0,0
357,-314,0,0,0,0,0,0,0,0,0,-1,1581,1338,0,0
364,-314,0,0,0,0,0,0,0,0,0,-1,1588,1338,0,0
371,-314,0,0,0,0,0,0,0,0,0,-1,1595,1338,0,0
378,-314,0,0,0,0,0,0,0,0,0,-1,1602,1338,0,0
385,-314,0,0,0,0,0,0,0,0,0,-1,1609,1338,0,0
392,-314,0,0,0,0,0,0,0,0,0,-1,1616,1338,0,0
399,-314,0,0,0,0,0,0,0,0,0,-1,1623,1338,0,0
406,-314,0,0,0,0,0,0,0,0,0,-1,1630,1338,0,0
413,-314,0,0,0,0,0,0,0,0,0,-1,1637,1338,0,0
420,-314,0,0,0,0,0,0,0,0,0,-1,1644,1338,0,0
427,-314,0,0,0,0,0,0,0,0,0,-1,1651,1338,0,0
434,-314,0,0,0,0,0,0,0,0,0,-1,1658,1338,0,0
441,-314,0,0,0,0,0,0,0,0,0,-1,1665,1338,0,0
448,-314,0,0,0,0,0,0,0,0,0,-1,1672,1338,0,0
455,-314,0,0,0,0,0,0,0,0,0,-1,1679,1338,0,0
462,-314,0,0,0,0,0,0,0,0,0,-1,1686,1338,0,0
469,-314,0,0,0,0,0,0,0,0,0,-1,1693,1338,0,0
476,-314,0,0,0,0,0,0,0,0,0,-1,1700,1338,0,0
483,-314,0,0,0,0,0,0,0,0,0,-1,1707,1338,0,0
490,-314,0,0,0,0,0,0,0,0,0,-1,1714,1338,0,0
497,-314,0,0,0,0,0,0,0,0,0,-1,1721,1338,0,0
504,-314,0,0,0,0,0,0,0,0,0,-1,1728,1338,0,0
511,-314,0,0,0,0,0,0,0,0,0,-1,1735,1338,0,0
518,-314,0,0,0,0,0,0,0,0,0,-1,1742,1338,0,0
525,-314,0,0,0,0,0,0,0,0,0,-1,1749,1338,0,0
532,-314,0,0,0,0,0,0,0,0,0,-1,1756,1338,0,0
539,-314,0,0,0,0,0,0,0,0,0,-1,1763,1338,0,0
546,-314,0,0,0,0,0,0,0,0,0,-1,1770,1338,0,0
553,-314,0,0,0,0,0,0,0,0,0,-1,1777,1338,0,0
560,-314,0,0,0,0,0,0,0,0,0,-1,1784,1338,0,0
567,-314,0,0,0,0,0,0,0,0,0,-1,1791,1338,0,0
574,-314,0,0,0,0,0,0,0,0,0,-1,1798,1338,0,0
581,-314,66.1637,1.86658,0,0,0,0,0,0,0,-1,1805,1338,66.1637,-1.86663
588,-314,66.4303,1.43481,0,0,0,0,0,0,0,-1,1812,1338,66.4303,-1.43487
595,-314,66.7465,0.982788,0,0,0,0,0,0,0,-1,1819,1338,66.7464,-0.982795
602,-314,66.322,1.38416,0,0,0,0,0,0,0,-1,1826,1338,66.322,-1.3842
609,-314,60.2225,1.27014,0,0,0,0,0,0,0,-1,1833,1338,60.2225,-1.27017
616,-314,48.1149,3.005,0,0,0,0,0,0,0,-1,1840,1338,48.1149,-3.00505
623,-314,38.7728,2.71741,0,0,0,0,0,0,0,-1,1847,1338,38.7728,-2.71737
630,-314,29.4308,6.23206,0,0,0,0,0,0,0,-1,1854,1338,29.4308,-6.23202
637,-314,22.1349,5.16418,0,0,0,0,0,0,0,-1,1861,1338,22.1349,-5.16414
644,-314,18.7517,6.2605,0,0,0,0,0,0,0,-1,1868,1338,18.7517,-6.26053
651,-314,23.1317,8.005,0,0,0,0,0,0,0,-1,1875,1338,23.1317,-8.00506
658,-314,47.6516,17.8256,0,0,0,0,0,0,0,-1,1882,1338,47.6516,-17.8256
665,-314,47.5725,17.099,-0.00404771,0.00300628,-0.00131605,0.00324381,-0.00428525,-1.39223,0.00436074,0.0449541,1889,1338,47.5725,-17.099
672,-314,47.5939,16.3556,-0.00156463,0.000764847,-0.000833403,0.0010323,-0.00183208,-1.26026,0.0016751,0.0135217,1896,1338,47.5939,-16.3556
679,-314,47.547,15.5869,0.000330626,-0.000174863,-0.000434207,0.000580291,-0.000424528,-0.521828,0.000582452,0.0107038,1903,1338,47.547,-15.5869
686,-314,47.5045,14.8146,0.00123954,-0.00013661,-0.000275571,0.00129267,-0.000189741,-0.190467,0.000931491,0.0128405,1910,1338,47.5046,-14.8146
693,-314,47.4688,14.0332,0.00128565,-0.000295208,1.51442e-05,0.00128579,-0.000295353,0.00957861,0.00097074,0.0132308,1917,1338,47.4687,-14.0332
700,-314,47.4501,13.2642,0.00102753,-0.000490628,0.000446454,0.00114909,-0.000612186,0.265831,0.0010325,0.0151606,1924,1338,47.4501,-13.2641
707,-314,47.4176,12.5269,0.000693843,-0.000775986,0.000964682,0.00117166,-0.0012538,0.459886,0.00140061,0.0149845,1931,1338,47.4176,-12.5269
714,-314,47.3423,11.8126,0.000234199,-0.00116285,0.00161053,0.00129117,-0.00221982,0.580781,0.00205057,0.0124348,1938,1338,47.3423,-11.8126
721,-314,47.319,11.0818,-0.000290174,-0.00175313,0.00243801,0.00152372,-0.00356702,0.639656,0.00301703,0.0264968,1945,1338,47.319,-11.0818
728,-314,47.5769,10.6711,0,0,0,0,0,0,0,-1,1952,1338,47.5769,-10.6711
735,-314,26.3665,6.21582,0,0,0,0,0,0,0,-1,1959,1338,26.3664,-6.21581
742,-314,26.2235,6.0166,0,0,0,0,0,0,0,-1,1966,1338,26.2235,-6.01662
749,-314,26.2223,5.47046,0,0,0,0,0,0,0,-1,1973,1338,26.2223,-5.47041
756,-314,24.2521,5.93408,0,0,0,0,0,0,0,-1,1980,1338,24.252,-5.93413
763,-314,19.2207,4.07239,0,0,0,0,0,0,0,-1,1987,1338,19.2206,-4.07239
770,-314,0,0,0,0,0,0,0,0,0,-1,1994,1338,0,0
777,-314,0,0,0,0,0,0,0,0,0,-1,2001,1338,0,0
784,-314,0,0,0,0,0,0,0,0,0,-1,2008,1338,0,0
791,-314,0,0,0,0,0,0,0,0,0,-1,2015,1338,0,0
798,-314,0,0,0,0,0,0,0,0,0,-1,2022,1338,0,0
805,-314,0,0,0,0,0,0,0,0,0,-1,2029,1338,0,0
812,-314,0,0,0,0,0,0,0,0,0,-1,2036,1338,0,0
-700,-321,0,0,0,0,0,0,0,0,0,-1,524,1345,0,0
-693,-321,0,0,0,0,0,0,0,0,0,-1,531,1345,0,0
-686,-321,0,0,0,0,0,0,0,0,0,-1,538,1345,0,0
-679,-321,0,0,0,0,0,0,0,0,0,-1,545,1345,0,0
-672,-321,0,0,0,0,0,0,0,0,0,-1,552,1345,0,0
-665,-321,0,0,0,0,0,0,0,0,0,-1,559,1345,0,0
-658,-321,0,0,0,0,0,0,0,0,0,-1,566,1345,0,0
-651,-321,0,0,0,0,0,0,0,0,0,-1,573,1345,0,0
-644,-321,-58.7329,10.2313,0,0,0,0,0,0,0,-1,580,1345,-58.7329,-10.2313
-637,-321,-59.9981,9.06421,0,0,0,0,0,0,0,-1,587,1345,-59.9981,-9.06417
-630,-321,-61.377,8.07166,0,0,0,0,0,0,0,-1,594,1345,-61.3769,-8.07168
-623,-321,-13.2242,3.14148,0,0,0,0,0,0,0,-1,601,1345,-13.2243,-3.14146
-616,-321,-11.6754,3.13794,0,0,0,0,0,0,0,-1,608,1345,-11.6754,-3.13789
-609,-321,-7.95209,1.14758,0,0,0,0,0,0,0,-1,615,1345,-7.95208,-1.14757
-602,-321,-8.85791,2.50049,0,0,0,0,0,0,0,-1,622,1345,-8.85791,-2.50048
-595,-321,-19.8463,5.36584,0,0,0,0,0,0,0,-1,629,1345,-19.8462,-5.36589
-588,-321,-29.4753,10.0051,0,0,0,0,0,0,0,-1,636,1345,-29.4753,-10.0051
-581,-321,-29.346,10.8901,0.00355523,0.00276843,0.00131995,0.00453915,0.0017845,0.640569,0.00264056,0.0151116,643,1345,-29.346,-10.8901
-574,-321,-29.4007,11.6787,0.00288226,0.00211926,0.00104369,0.00361199,0.00138953,0.610176,0.00210378,0.0168168,650,1345,-29.4007,-11.6787
-567,-321,-29.4313,12.4713,0.00267316,0.00158085,0.000976108,0.00324552,0.00100849,0.530335,0.00191803,0.0236881,657,1345,-29.4312,-12.4713
-560,-321,-29.442,13.3268,0.00282184,0.00110686,0.00106062,0.00332824,0.000600462,0.445452,0.00204823,0.0270835,664,1345,-29.442,-13.3268
-553,-321,-29.5064,14.0835,0.00332174,0.000699782,0.00129753,0.00385528,0.000166239,0.390122,0.0025166,0.0284118,671,1345,-29.5064,-14.0835
-546,-321,-29.6065,14.8586,0.00418129,0.000330232,0.00167262,0.00480632,-0.000294794,0.357613,0.00330686,0.0276433,678,1345,-29.6065,-14.8586
-539,-321,-29.6556,15.6471,0.00545727,3.75262e-05,0.00222234,0.006252,-0.000757202,0.343436,0.00444197,0.0242212,685,1345,-29.6556,-15.6471
-532,-321,-29.5391,16.4336,0.00729728,-0.000158722,0.00296451,0.0083323,-0.00119374,0.335904,0.00599254,0.0372689,692,1345,-29.5391,-16.4336
-525,-321,-29.4479,17.2119,0,0,0,0,0,0,0,-1,699,1345,-29.4479,-17.2119
-518,-321,-10.3564,6.75696,0,0,0,0,0,0,0,-1,706,1345,-10.3564,-6.75694
-511,-321,-9.3302,5.29297,0,0,0,0,0,0,0,-1,713,1345,-9.33023,-5.29294
-504,-321,-10.4713,0.0145264,0,0,0,0,0,0,0,-1,720,1345,-10.4713,-0.0145296
-497,-321,-9.96771,0.313599,0,0,0,0,0,0,0,-1,727,1345,-9.96769,-0.313618
-490,-321,-10.7631,0.973511,0,0,0,0,0,0,0,-1,734,1345,-10.7631,-0.97353
-483,-321,-17.5908,0.2323,0,0,0,0,0,0,0,-1,741,1345,-17.5908,-0.232355
-476,-321,-17.2915,0.297363,0,0,0,0,0,0,0,-1,748,1345,-17.2915,-0.297342
-469,-321,-17.2441,0.478027,0,0,0,0,0,0,0,-1,755,1345,-17.2441,-0.477994
-462,-321,-17.1672,0.526489,0,0,0,0,0,0,0,-1,762,1345,-17.1672,-0.526533
-455,-321,0,0,0,0,0,0,0,0,0,-1,769,1345,0,0
-448,-321,0,0,0,0,0,0,0,0,0,-1,776,1345,0,0
-441,-321,0,0,0,0,0,0,0,0,0,-1,783,1345,0,0
-434,-321,0,0,0,0,0,0,0,0,0,-1,790,1345,0,0
-427,-321,0,0,0,0,0,0,0,0,0,-1,797,1345,0,0
-420,-321,0,0,0,0,0,0,0,0,0,-1,804,1345,0,0
-413,-321,0,0,0,0,0,0,0,0,0,-1,811,1345,0,0
-406,-321,0,0,0,0,0,0,0,0,0,-1,818,1345,0,0
-399,-321,0,0,0,0,0,0,0,0,0,-1,825,1345,0,0
-392,-321,0,0,0,0,0,0,0,0,0,-1,832,1345,0,0
-385,-321,0,0,0,0,0,0,0,0,0,-1,839,1345,0,0
-378,-321,0,0,0,0,0,0,0,0,0,-1,846,1345,0,0
-371,-321,0,0,0,0,0,0,0,0,0,-1,853,1345,0,0
-364,-321,0,0,0,0,0,0,0,0,0,-1,860,1345,0,0
-357,-321,0,0,0,0,0,0,0,0,0,-1,867,1345,0,0
-350,-321,0,0,0,0,0,0,0,0,0,-1,874,1345,0,0
-343,-321,0,0,0,0,0,0,0,0,0,-1,881,1345,0,0
-336,-321,0,0,0,0,0,0,0,0,0,-1,888,1345,0,0
-329,-321,0,0,0,0,0,0,0,0,0,-1,895,1345,0,0
-322,-321,0,0,0,0,0,0,0,0,0,-1,902,1345,0,0
-315,-321,0,0,0,0,0,0,0,0,0,-1,909,1345,0,0
-308,-321,0,0,0,0,0,0,0,0,0,-1,916,1345,0,0
-301,-321,0,0,0,0,0,0,0,0,0,-1,923,1345,0,0
-294,-321,0,0,0,0,0,0,0,0,0,-1,930,1345,0,0
-287,-321,0,0,0,0,0,0,0,0,0,-1,937,1345,0,0
-280,-321,0,0,0,0,0,0,0,0,0,-1,944,1345,0,0
-273,-321,0,0,0,0,0,0,0,0,0,-1,951,1345,0,0
-266,-321,0,0,0,0,0,0,0,0,0,-1,958,1345,0,0
-259,-321,0,0,0,0,0,0,0,0,0,-1,965,1345,0,0
-252,-321,0,0,0,0,0,0,0,0,0,-1,972,1345,0,0
-245,-321,0,0,0,0,0,0,0,0,0,-1,979,1345,0,0
-238,-321,0,0,0,0,0,0,0,0,0,-1,986,1345,0,0
-231,-321,0,0,0,0,0,0,0,0,0,-1,993,1345,0,0
-224,-321,0,0,0,0,0,0,0,0,0,-1,1000,1345,0,0
-217,-321,0,0,0,0,0,0,0,0,0,-1,1007,1345,0,0
-210,-321,0,0,0,0,0,0,0,0,0,-1,1014,1345,0,0
-203,-321,0,0,0,0,0,0,0,0,0,-1,1021,1345,0,0
-196,-321,0,0,0,0,0,0,0,0,0,-1,1028,1345,0,0
-189,-321,0,0,0,0,0,0,0,0,0,-1,1035,1345,0,0
-182,-321,0,0,0,0,0,0,0,0,0,-1,1042,1345,0,0
-175,-321,0,0,0,0,0,0,0,0,0,-1,1049,1345,0,0
-168,-321,0,0,0,0,0,0,0,0,0,-1,1056,1345,0,0
-161,-321,0,0,0,0,0,0,0,0,0,-1,1063,1345,0,0
-154,-321,0,0,0,0,0,0,0,0,0,-1,1070,1345,0,0
-147,-321,0,0,0,0,0,0,0,0,0,-1,1077,1345,0,0
-140,-321,0,0,0,0,0,0,0,0,0,-1,1084,1345,0,0
-133,-321,0,0,0,0,0,0,0,0,0,-1,1091,1345,0,0
-126,-321,0,0,0,0,0,0,0,0,0,-1,1098,1345,0,0
-119,-321,0,0,0,0,0,0,0,0,0,-1,1105,1345,0,0
-112,-321,0,0,0,0,0,0,0,0,0,-1,1112,1345,0,0
-105,-321,0,0,0,0,0,0,0,0,0,-1,1119,1345,0,0
-98,-321,0,0,0,0,0,0,0,0,0,-1,1126,1345,0,0
-91,-321,0,0,0,0,0,0,0,0,0,-1,1133,1345,0,0
-84,-321,0,0,0,0,0,0,0,0,0,-1,1140,1345,0,0
-77,-321,0,0,0,0,0,0,0,0,0,-1,1147,1345,0,0
-70,-321,0,0,0,0,0,0,0,0,0,-1,1154,1345,0,0
-63,-321,0,0,0,0,0,0,0,0,0,-1,1161,1345,0,0
-56,-321,0,0,0,0,0,0,0,0,0,-1,1168,1345,0,0
-49,-321,0,0,0,0,0,0,0,0,0,-1,1175,1345,0,0
-42,-321,0,0,0,0,0,0,0,0,0,-1,1182,1345,0,0
-35,-321,0,0,0,0,0,0,0,0,0,-1,1189,1345,0,0
-28,-321,0,0,0,0,0,0,0,0,0,-1,1196,1345,0,0
-21,-321,0,0,0,0,0,0,0,0,0,-1,1203,1345,0,0
-14,-321,0,0,0,0,0,0,0,0,0,-1,1210,1345,0,0
-7,-321,0,0,0,0,0,0,0,0,0,-1,1217,1345,0,0
0,-321,0,0,0,0,0,0,0,0,0,-1,1224,1345,0,0
7,-321,0,0,0,0,0,0,0,0,0,-1,1231,1345,0,0
14,-321,0,0,0,0,0,0,0,0,0,-1,1238,1345,0,0
21,-321,0,0,0,0,0,0,0,0,0,-1,1245,1345,0,0
28,-321,0,0,0,0,0,0,0,0,0,-1,1252,1345,0,0
35,-321,0,0,0,0,0,0,0,0,0,-1,1259,1345,0,0
42,-321,0,0,0,0,0,0,0,0,0,-1,1266,1345,0,0
49,-321,0,0,0,0,0,0,0,0,0,-1,1273,1345,0,0
56,-321,0,0,0,0,0,0,0,0,0,-1,1280,1345,0,0
63,-321,0,0,0,0,0,0,0,0,0,-1,1287,1345,0,0
70,-321,0,0,0,0,0,0,0,0,0,-1,1294,1345,0,0
77,-321,0,0,0,0,0,0,0,0,0,-1,1301,1345,0,0
84,-321,0,0,0,0,0,0,0,0,0,-1,1308,1345,0,0
91,-321,0,0,0,0,0,0,0,0,0,-1,1315,1345,0,0
98,-321,0,0,0,0,0,0,0,0,0,-1,1322,1345,0,0
105,-321,0,0,0,0,0,0,0,0,0,-1,1329,1345,0,0
112,-321,0,0,0,0,0,0,0,0,0,-1,1336,1345,0,0
119,-321,0,0,0,0,0,0,0,0,0,-1,1343,1345,0,0
126,-321,0,0,0,0,0,0,0,0,0,-1,1350,1345,0,0
133,-321,0,0,0,0,0,0,0,0,0,-1,1357,1345,0,0
140,-321,0,0,0,0,0,0,0,0,0,-1,1364,1345,0,0
147,-321,0,0,0,0,0,0,0,0,0,-1,1371,1345,0,0
154,-321,0,0,0,0,0,0,0,0,0,-1,1378,1345,0,0
161,-321,0,0,0,0,0,0,0,0,0,-1,1385,1345,0,0
168,-321,0,0,0,0,0,0,0,0,0,-1,1392,1345,0,0
175,-321,0,0,0,0,0,0,0,0,0,-1,1399,1345,0,0
182,-321,0,0,0,0,0,0,0,0,0,-1,1406,1345,0,0
189,-321,0,0,0,0,0,0,0,0,0,-1,1413,1345,0,0
196,-321,0,0,0,0,0,0,0,0,0,-1,1420,1345,0,0
203,-321,0,0,0,0,0,0,0,0,0,-1,1427,1345,0,0
210,-321,0,0,0,0,0,0,0,0,0,-1,1434,1345,0,0
217,-321,0,0,0,0,0,0,0,0,0,-1,1441,1345,0,0
224,-321,0,0,0,0,0,0,0,0,0,-1,1448,1345,0,0
231,-321,0,0,0,0,0,0,0,0,0,-1,1455,1345,0,0
238,-321,0,0,0,0,0,0,0,0,0,-1,1462,1345,0,0
245,-321,0,0,0,0,0,0,0,0,0,-1,1469,1345,0,0
252,-321,0,0,0,0,0,0,0,0,0,-1,1476,1345,0,0
259,-321,0,0,0,0,0,0,0,0,0,-1,1483,1345,0,0
266,-321,0,0,0,0,0,0,0,0,0,-1,1490,1345,0,0
273,-321,0,0,0,0,0,0,0,0,0,-1,1497,1345,0,0
280,-321,0,0,0,0,0,0,0,0,0,-1,1504,1345,0,0
287,-321,0,0,0,0,0,0,0,0,0,-1,1511,1345,0,0
294,-321,0,0,0,0,0,0,0,0,0,-1,1518,1345,0,0
301,-321,0,0,0,0,0,0,0,0,0,-1,1525,1345,0,0
308,-321,0,0,0,0,0,0,0,0,0,-1,1532,1345,0,0
315,-321,0,0,0,0,0,0,0,0,0,-1,1539,1345,0,0
322,-321,0,0,0,0,0,0,0,0,0,-1,1546,1345,0,0
329,-321,0,0,0,0,0,0,0,0,0,-1,1553,1345,0,0
336,-321,0,0,0,0,0,0,0,0,0,-1,1560,1345,0,0
343,-321,0,0,0,0,0,0,0,0,0,-1,1567,1345,0,0
350,-321,0,0,0,0,0,0,0,0,0,-1,1574,1345,0,0
357,-321,0,0,0,0,0,0,0,0,0,-1,1581,1345,0,0
364,-321,0,0,0,0,0,0,0,0,0,-1,1588,1345,0,0
371,-321,0,0,0,0,0,0,0,0,0,-1,1595,1345,0,0
378,-321,0,0,0,0,0,0,0,0,0,-1,1602,1345,0,0
385,-321,0,0,0,0,0,0,0,0,0,-1,1609,1345,0,0
392,-321,0,0,0,0,0,0,0,0,0,-1,1616,1345,0,0
399,-321,0,0,0,0,0,0,0,0,0,-1,1623,1345,0,0
406,-321,0,0,0,0,0,0,0,0,0,-1,1630,1345,0,0
413,-321,0,0,0,0,0,0,0,0,0,-1,1637,1345,0,0
420,-321,0,0,0,0,0,0,0,0,0,-1,1644,1345,0,0
427,-321,0,0,0,0,0,0,0,0,0,-1,1651,1345,0,0
434,-321,0,0,0,0,0,0,0,0,0,-1,1658,1345,0,0
441,-321,0,0,0,0,0,0,0,0,0,-1,1665,1345,0,0
448,-321,0,0,0,0,0,0,0,0,0,-1,1672,1345,0,0
455,-321,0,0,0,0,0,0,0,0,0,-1,1679,1345,0,0
462,-321,0,0,0,0,0,0,0,0,0,-1,1686,1345,0,0
469,-321,0,0,0,0,0,0,0,0,0,-1,1693,1345,0,0
476,-321,0,0,0,0,0,0,0,0,0,-1,1700,1345,0,0
483,-321,0,0,0,0,0,0,0,0,0,-1,1707,1345,0,0
490,-321,0,0,0,0,0,0,0,0,0,-1,1714,1345,0,0
497,-321,0,0,0,0,0,0,0,0,0,-1,1721,1345,0,0
504,-321,0,0,0,0,0,0,0,0,0,-1,1728,1345,0,0
511,-321,0,0,0,0,0,0,0,0,0,-1,1735,1345,0,0
518,-321,0,0,0,0,0,0,0,0,0,-1,1742,1345,0,0
525,-321,0,0,0,0,0,0,0,0,0,-1,1749,1345,0,0
532,-321,0,0,0,0,0,0,0,0,0,-1,1756,1345,0,0
539,-321,0,0,0,0,0,0,0,0,0,-1,1763,1345,0,0
546,-321,0,0,0,0,0,0,0,0,0,-1,1770,1345,0,0
553,-321,0,0,0,0,0,0,0,0,0,-1,1777,1345,0,0
560,-321,0,0,0,0,0,0,0,0,0,-1,1784,1345,0,0
567,-321,0,0,0,0,0,0,0,0,0,-1,1791,1345,0,0
574,-321,0,0,0,0,0,0,0,0,0,-1,1798,1345,0,0
581,-321,66.1073,1.6543,0,0,0,0,0,0,0,-1,1805,1345,66.1073,-1.65427
588,-321,66.6576,0.7948,0,0,0,0,0,0,0,-1,1812,1345,66.6575,-0.794774
595,-321,67.2585,-0.216431,0,0,0,0,0,0,0,-1,1819,1345,67.2586,0.216484
602,-321,60.3523,1.24133,0,0,0,0,0,0,0,-1,1826,1345,60.3523,-1.2413
609,-321,48.311,3.39575,0,0,0,0,0,0,0,-1,1833,1345,48.311,-3.39571
616,-321,37.8107,2.58704,0,0,0,0,0,0,0,-1,1840,1345,37.8106,-2.58705
623,-321,37.6854,3.68933,0,0,0,0,0,0,0,-1,1847,1345,37.6854,-3.68931
630,-321,23.6674,4.34106,0,0,0,0,0,0,0,-1,1854,1345,23.6674,-4.34112
637,-321,21.7925,6.79224,0,0,0,0,0,0,0,-1,1861,1345,21.7925,-6.7922
644,-321,16.8844,6.71973,0,0,0,0,0,0,0,-1,1868,1345,16.8844,-6.71971
651,-321,27.4924,10.0319,0,0,0,0,0,0,0,-1,1875,1345,27.4924,-10.0319
658,-321,46.7257,17.9011,0,0,0,0,0,0,0,-1,1882,1345,46.7257,-17.9012
665,-321,46.799,17.1814,-0.000834527,0.0021446,-0.00118139,0.00255621,-0.00124614,-1.23553,0.0022383,0.0305434,1889,1345,46.799,-17.1814
672,-321,46.8295,16.395,0.000424228,0.000511687,-0.000765352,0.00123456,-0.000298643,-0.813935,0.00093856,0.0150646,1896,1345,46.8294,-16.3951
679,-321,46.799,15.6124,0.00117606,-3.65606e-05,-0.000460661,0.00133121,-0.00019171,-0.324865,0.000957792,0.0128894,1903,1345,46.7989,-15.6124
686,-321,46.7345,14.8547,0.00138443,-9.81604e-05,-0.000295796,0.00144126,-0.000154997,-0.189834,0.00101645,0.013091,1910,1345,46.7345,-14.8547
693,-321,46.6943,14.0977,0.00128728,-0.000234363,-2.70632e-05,0.00128777,-0.000234844,-0.017778,0.000946553,0.0129616,1917,1345,46.6944,-14.0976
700,-321,46.6851,13.3062,0.00113305,-0.000416302,0.000313489,0.00119407,-0.000477329,0.192264,0.00099412,0.0136027,1924,1345,46.6851,-13.3062
707,-321,46.6392,12.5669,0.000874846,-0.000676703,0.000743188,0.00117339,-0.000975245,0.381974,0.00124227,0.0154324,1931,1345,46.6392,-12.5669
714,-321,46.5787,11.8229,0.000468343,-0.00104662,0.00129942,0.00121494,-0.00179322,0.521508,0.00174743,0.0142355,1938,1345,46.5787,-11.8229
721,-321,46.5206,11.0571,-1.53245e-05,-0.00168608,0.00208063,0.00139137,-0.00309277,0.594498,0.00265031,0.0414478,1945,1345,46.5207,-11.0571
728,-321,46.538,10.3464,0,0,0,0,0,0,0,-1,1952,1345,46.538,-10.3465
735,-321,22.0081,5.65479,0,0,0,0,0,0,0,-1,1959,1345,22.008,-5.65481
742,-321,24.5398,5.05725,0,0,0,0,0,0,0,-1,1966,1345,24.5398,-5.05729
749,-321,24.0675,5.4458,0,0,0,0,0,0,0,-1,1973,1345,24.0675,-5.44581
756,-321,19.6251,4.98315,0,0,0,0,0,0,0,-1,1980,1345,19.6251,-4.98311
763,-321,19.6747,4.61438,0,0,0,0,0,0,0,-1,1987,1345,19.6747,-4.61436
770,-321,0,0,0,0,0,0,0,0,0,-1,1994,1345,0,0
777,-321,0,0,0,0,0,0,0,0,0,-1,2001,1345,0,0
784,-321,0,0,0,0,0,0,0,0,0,-1,2008,1345,0,0
791,-321,0,0,0,0,0,0,0,0,0,-1,2015,1345,0,0
798,-321,0,0,0,0,0,0,0,0,0,-1,2022,1345,0,0
805,-321,0,0,0,0,0,0,0,0,0,-1,2029,1345,0,0
812,-321,0,0,0,0,0,0,0,0,0,-1,2036,1345,0,0
-700,-328,0,0,0,0,0,0,0,0,0,-1,524,1352,0,0
-693,-328,0,0,0,0,0,0,0,0,0,-1,531,1352,0,0
-686,-328,0,0,0,0,0,0,0,0,0,-1,538,1352,0,0
-679,-328,0,0,0,0,0,0,0,0,0,-1,545,1352,0,0
-672,-328,0,0,0,0,0,0,0,0,0,-1,552,1352,0,0
-665,-328,0,0,0,0,0,0,0,0,0,-1,559,1352,0,0
-658,-328,0,0,0,0,0,0,0,0,0,-1,566,1352,0,0
-651,-328,0,0,0,0,0,0,0,0,0,-1,573,1352,0,0
-644,-328,0,0,0,0,0,0,0,0,0,-1,580,1352,0,0
-637,-328,-61.3883,10.1125,0,0,0,0,0,0,0,-1,587,1352,-61.3883,-10.1126
-630,-328,-62.8012,9.14563,0,0,0,0,0,0,0,-1,594,1352,-62.8012,-9.14564
-623,-328,-10.7739,4.55042,0,0,0,0,0,0,0,-1,601,1352,-10.7739,-4.55041
-616,-328,-8.22198,-0.25708,0,0,0,0,0,0,0,-1,608,1352,-8.22201,0.257067
-609,-328,-7.87439,0.192871,0,0,0,0,0,0,0,-1,615,1352,-7.87441,-0.192822
-602,-328,-7.63062,1.31665,0,0,0,0,0,0,0,-1,622,1352,-7.63064,-1.3166
-595,-328,-9.42639,2.93494,0,0,0,0,0,0,0,-1,629,1352,-9.42638,-2.93499
-588,-328,-28.7203,9.8551,0,0,0,0,0,0,0,-1,636,1352,-28.7203,-9.85515
-581,-328,-28.587,10.8754,0.00415419,0.00333155,0.00157157,0.00536737,0.00211837,0.657406,0.00312169,0.0287973,643,1352,-28.587,-10.8753
-574,-328,-28.5823,11.7281,0.00321047,0.00253836,0.00121531,0.00413533,0.0016135,0.65051,0.00240666,0.016486,650,1352,-28.5823,-11.7282
-567,-328,-28.632,12.533,0.0028354,0.0019143,0.00109801,0.00356554,0.00118417,0.586823,0.00209689,0.0221754,657,1352,-28.632,-12.5329
-560,-328,-28.6784,13.3667,0.00284856,0.00137279,0.00112908,0.00345949,0.000761867,0.495973,0.00209898,0.0292535,664,1352,-28.6784,-13.3667
-553,-328,-28.7073,14.1331,0.00320209,0.000903578,0.00129549,0.00378462,0.00032105,0.422571,0.00242316,0.0311817,671,1352,-28.7074,-14.1331
-546,-328,-28.7743,14.8689,0.00390344,0.000495306,0.00158699,0.00452797,-0.000129225,0.374919,0.00306263,0.029849,678,1352,-28.7743,-14.8689
-539,-328,-28.8842,15.6609,0.00496246,0.000164281,0.0020172,0.00569781,-0.000571068,0.34957,0.0040025,0.0239933,685,1352,-28.8842,-15.6609
-532,-328,-28.8289,16.5031,0.00647004,-7.98901e-05,0.00259641,0.00737439,-0.000984247,0.335169,0.00527504,0.0199334,692,1352,-28.8288,-16.5031
-525,-328,-28.7858,17.4008,0.00847188,-0.000413041,0.00325592,0.00953728,-0.00147844,0.316236,0.00690397,0.0348705,699,1352,-28.7858,-17.4008
-518,-328,-28.9603,18.3313,0,0,0,0,0,0,0,-1,706,1352,-28.9603,-18.3313
-511,-328,-9.39868,7.16113,0,0,0,0,0,0,0,-1,713,1352,-9.39869,-7.16113
-504,-328,-8.60626,-0.905762,0,0,0,0,0,0,0,-1,720,1352,-8.60623,0.905787
-497,-328,-9.29102,-0.0517578,0,0,0,0,0,0,0,-1,727,1352,-9.29104,0.0518175
-490,-328,-10.0663,0.882813,0,0,0,0,0,0,0,-1,734,1352,-10.0663,-0.882795
-483,-328,-10.8181,1.72375,0,0,0,0,0,0,0,-1,741,1352,-10.8181,-1.72374
-476,-328,-16.8951,-0.150757,0,0,0,0,0,0,0,-1,748,1352,-16.8951,0.150795
-469,-328,-16.8412,0.00158691,0,0,0,0,0,0,0,-1,755,1352,-16.8412,-0.00161515
-462,-328,-16.3546,-0.203491,0,0,0,0,0,0,0,-1,762,1352,-16.3545,0.203532
-455,-328,0,0,0,0,0,0,0,0,0,-1,769,1352,0,0
-448,-328,0,0,0,0,0,0,0,0,0,-1,776,1352,0,0
-441,-328,0,0,0,0,0,0,0,0,0,-1,783,1352,0,0
-434,-328,0,0,0,0,0,0,0,0,0,-1,790,1352,0,0
-427,-328,0,0,0,0,0,0,0,0,0,-1,797,1352,0,0
-420,-328,0,0,0,0,0,0,0,0,0,-1,804,1352,0,0
-413,-328,0,0,0,0,0,0,0,0,0,-1,811,1352,0,0
-406,-328,0,0,0,0,0,0,0,0,0,-1,818,1352,0,0
-399,-328,0,0,0,0,0,0,0,0,0,-1,825,1352,0,0
-392,-328,0,0,0,0,0,0,0,0,0,-1,832,1352,0,0
-385,-328,0,0,0,0,0,0,0,0,0,-1,839,1352,0,0
-378,-328,0,0,0,0,0,0,0,0,0,-1,846,1352,0,0
-371,-328,0,0,0,0,0,0,0,0,0,-1,853,1352,0,0
-364,-328,0,0,0,0,0,0,0,0,0,-1,860,1352,0,0
-357,-328,0,0,0,0,0,0,0,0,0,-1,867,1352,0,0
-350,-328,0,0,0,0,0,0,0,0,0,-1,874,1352,0,0
-343,-328,0,0,0,0,0,0,0,0,0,-1,881,1352,0,0
-336,-328,0,0,0,0,0,0,0,0,0,-1,888,1352,0,0
-329,-328,0,0,0,0,0,0,0,0,0,-1,895,1352,0,0
-322,-328,0,0,0,0,0,0,0,0,0,-1,902,1352,0,0
-315,-328,0,0,0,0,0,0,0,0,0,-1,909,1352,0,0
-308,-328,0,0,0,0,0,0,0,0,0,-1,916,1352,0,0
-301,-328,0,0,0,0,0,0,0,0,0,-1,923,1352,0,0
-294,-328,0,0,0,0,0,0,0,0,0,-1,930,1352,0,0
-287,-328,0,0,0,0,0,0,0,0,0,-1,937,1352,0,0
-280,-328,0,0,0,0,0,0,0,0,0,-1,944,1352,0,0
-273,-328,0,0,0,0,0,0,0,0,0,-1,951,1352,0,0
-266,-328,0,0,0,0,0,0,0,0,0,-1,958,1352,0,0
-259,-328,0,0,0,0,0,0,0,0,0,-1,965,1352,0,0
-252,-328,0,0,0,0,0,0,0,0,0,-1,972,1352,0,0
-245,-328,0,0,0,0,0,0,0,0,0,-1,979,1352,0,0
-238,-328,0,0,0,0,0,0,0,0,0,-1,986,1352,0,0
-231,-328,0,0,0,0,0,0,0,0,0,-1,993,1352,0,0
-224,-328,0,0,0,0,0,0,0,0,0,-1,1000,1352,0,0
-217,-328,0,0,0,0,0,0,0,0,0,-1,1007,1352,0,0
-210,-328,0,0,0,0,0,0,0,0,0,-1,1014,1352,0,0
-203,-328,0,0,0,0,0,0,0,0,0,-1,1021,1352,0,0
-196,-328,0,0,0,0,0,0,0,0,0,-1,1028,1352,0,0
-189,-328,0,0,0,0,0,0,0,0,0,-1,1035,1352,0,0
-182,-328,0,0,0,0,0,0,0,0,0,-1,1042,1352,0,0
-175,-328,0,0,0,0,0,0,0,0,0,-1,1049,1352,0,0
-168,-328,0,0,0,0,0,0,0,0,0,-1,1056,1352,0,0
-161,-328,0,0,0,0,0,0,0,0,0,-1,1063,1352,0,0
-154,-328,0,0,0,0,0,0,0,0,0,-1,1070,1352,0,0
-147,-328,0,0,0,0,0,0,0,0,0,-1,1077,1352,0,0
-140,-328,0,0,0,0,0,0,0,0,0,-1,1084,1352,0,0
-133,-328,0,0,0,0,0,0,0,0,0,-1,1091,1352,0,0
-126,-328,0,0,0,0,0,0,0,0,0,-1,1098,1352,0,0
-119,-328,0,0,0,0,0,0,0,0,0,-1,1105,1352,0,0
-112,-328,0,0,0,0,0,0,0,0,0,-1,1112,1352,0,0
-105,-328,0,0,0,0,0,0,0,0,0,-1,1119,1352,0,0
-98,-328,0,0,0,0,0,0,0,0,0,-1,1126,1352,0,0
-91,-328,0,0,0,0,0,0,0,0,0,-1,1133,1352,0,0
-84,-328,0,0,0,0,0,0,0,0,0,-1,1140,1352,0,0
-77,-328,0,0,0,0,0,0,0,0,0,-1,1147,1352,0,0
-70,-328,0,0,0,0,0,0,0,0,0,-1,1154,1352,0,0
-63,-328,0,0,0,0,0,0,0,0,0,-1,1161,1352,0,0
-56,-328,0,0,0,0,0,0,0,0,0,-1,1168,1352,0,0
-49,-328,0,0,0,0,0,0,0,0,0,-1,1175,1352,0,0
-42,-328,0,0,0,0,0,0,0,0,0,-1,1182,1352,0,0
-35,-328,0,0,0,0,0,0,0,0,0,-1,1189,1352,0,0
-28,-328,0,0,0,0,0,0,0,0,0,-1,1196,1352,0,0
-21,-328,0,0,0,0,0,0,0,0,0,-1,1203,1352,0,0
-14,-328,0,0,0,0,0,0,0,0,0,-1,1210,1352,0,0
-7,-328,0,0,0,0,0,0,0,0,0,-1,1217,1352,0,0
0,-328,0,0,0,0,0,0,0,0,0,-1,1224,1352,0,0
7,-328,0,0,0,0,0,0,0,0,0,-1,1231,1352,0,0
14,-328,0,0,0,0,0,0,0,0,0,-1,1238,1352,0,0
21,-328,0,0,0,0,0,0,0,0,0,-1,1245,1352,0,0
28,-328,0,0,0,0,0,0,0,0,0,-1,1252,1352,0,0
35,-328,0,0,0,0,0,0,0,0,0,-1,1259,1352,0,0
42,-328,0,0,0,0,0,0,0,0,0,-1,1266,1352,0,0
49,-328,0,0,0,0,0,0,0,0,0,-1,1273,1352,0,0
56,-328,0,0,0,0,0,0,0,0,0,-1,1280,1352,0,0
63,-328,0,0,0,0,0,0,0,0,0,-1,1287,1352,0,0
70,-328,0,0,0,0,0,0,0,0,0,-1,1294,1352,0,0
77,-328,0,0,0,0,0,0,0,0,0,-1,1301,1352,0,0
84,-328,0,0,0,0,0,0,0,0,0,-1,1308,1352,0,0
91,-328,0,0,0,0,0,0,0,0,0,-1,1315,1352,0,0
98,-328,0,0,0,0,0,0,0,0,0,-1,1322,1352,0,0
105,-328,0,0,0,0,0,0,0,0,0,-1,1329,1352,0,0
112,-328,0,0,0,0,0,0,0,0,0,-1,1336,1352,0,0
119,-328,0,0,0,0,0,0,0,0,0,-1,1343,1352,0,0
126,-328,0,0,0,0,0,0,0,0,0,-1,1350,1352,0,0
133,-328,0,0,0,0,0,0,0,0,0,-1,1357,1352,0,0
140,-328,0,0,0,0,0,0,0,0,0,-1,1364,1352,0,0
147,-328,0,0,0,0,0,0,0,0,0,-1,1371,1352,0,0
154,-328,0,0,0,0,0,0,0,0,0,-1,1378,1352,0,0
161,-328,0,0,0,0,0,0,0,0,0,-1,1385,1352,0,0
168,-328,0,0,0,0,0,0,0,0,0,-1,1392,1352,0,0
175,-328,0,0,0,0,0,0,0,0,0,-1,1399,1352,0,0
182,-328,0,0,0,0,0,0,0,0,0,-1,1406,1352,0,0
189,-328,0,0,0,0,0,0,0,0,0,-1,1413,1352,0,0
196,-328,0,0,0,0,0,0,0,0,0,-1,1420,1352,0,0
203,-328,0,0,0,0,0,0,0,0,0,-1,1427,1352,0,0
210,-328,0,0,0,0,0,0,0,0,0,-1,1434,1352,0,0
217,-328,0,0,0,0,0,0,0,0,0,-1,1441,1352,0,0
224,-328,0,0,0,0,0,0,0,0,0,-1,1448,1352,0,0
231,-328,0,0,0,0,0,0,0,0,0,-1,1455,1352,0,0
238,-328,0,0,0,0,0,0,0,0,0,-1,1462,1352,0,0
245,-328,0,0,0,0,0,0,0,0,0,-1,1469,1352,0,0
252,-328,0,0,0,0,0,0,0,0,0,-1,1476,1352,0,0
259,-328,0,0,0,0,0,0,0,0,0,-1,1483,1352,0,0
266,-328,0,0,0,0,0,0,0,0,0,-1,1490,1352,0,0
273,-328,0,0,0,0,0,0,0,0,0,-1,1497,1352,0,0
280,-328,0,0,0,0,0,0,0,0,0,-1,1504,1352,0,0
287,-328,0,0,0,0,0,0,0,0,0,-1,1511,1352,0,0
294,-328,0,0,0,0,0,0,0,0,0,-1,1518,1352,0,0
301,-328,0,0,0,0,0,0,0,0,0,-1,1525,1352,0,0
308,-328,0,0,0,0,0,0,0,0,0,-1,1532,1352,0,0
315,-328,0,0,0,0,0,0,0,0,0,-1,1539,1352,0,0
322,-328,0,0,0,0,0,0,0,0,0,-1,1546,1352,0,0
329,-328,0,0,0,0,0,0,0,0,0,-1,1553,1352,0,0
336,-328,0,0,0,0,0,0,0,0,0,-1,1560,1352,0,0
343,-328,0,0,0,0,0,0,0,0,0,-1,1567,1352,0,0
350,-328,0,0,0,0,0,0,0,0,0,-1,1574,1352,0,0
357,-328,0,0,0,0,0,0,0,0,0,-1,1581,1352,0,0
364,-328,0,0,0,0,0,0,0,0,0,-1,1588,1352,0,0
371,-328,0,0,0,0,0,0,0,0,0,-1,1595,1352,0,0
378,-328,0,0,0,0,0,0,0,0,0,-1,1602,1352,0,0
385,-328,0,0,0,0,0,0,0,0,0,-1,1609,1352,0,0
392,-328,0,0,0,0,0,0,0,0,0,-1,1616,1352,0,0
399,-328,0,0,0,0,0,0,0,0,0,-1,1623,1352,0,0
406,-328,0,0,0,0,0,0,0,0,0,-1,1630,1352,0,0
413,-328,0,0,0,0,0,0,0,0,0,-1,1637,1352,0,0
420,-328,0,0,0,0,0,0,0,0,0,-1,1644,1352,0,0
427,-328,0,0,0,0,0,0,0,0,0,-1,1651,1352,0,0
434,-328,0,0,0,0,0,0,0,0,0,-1,1658,1352,0,0
441,-328,0,0,0,0,0,0,0,0,0,-1,1665,1352,0,0
448,-328,0,0,0,0,0,0,0,0,0,-1,1672,1352,0,0
455,-328,0,0,0,0,0,0,0,0,0,-1,1679,1352,0,0
462,-328,0,0,0,0,0,0,0,0,0,-1,1686,1352,0,0
469,-328,0,0,0,0,0,0,0,0,0,-1,1693,1352,0,0
476,-328,0,0,0,0,0,0,0,0,0,-1,1700,1352,0,0
483,-328,0,0,0,0,0,0,0,0,0,-1,1707,1352,0,0
490,-328,0,0,0,0,0,0,0,0,0,-1,1714,1352,0,0
497,-328,0,0,0,0,0,0,0,0,0,-1,1721,1352,0,0
504,-328,0,0,0,0,0,0,0,0,0,-1,1728,1352,0,0
511,-328,0,0,0,0,0,0,0,0,0,-1,1735,1352,0,0
518,-328,0,0,0,0,0,0,0,0,0,-1,1742,1352,0,0
525,-328,0,0,0,0,0,0,0,0,0,-1,1749,1352,0,0
532,-328,0,0,0,0,0,0,0,0,0,-1,1756,1352,0,0
539,-328,0,0,0,0,0,0,0,0,0,-1,1763,1352,0,0
546,-328,0,0,0,0,0,0,0,0,0,-1,1770,1352,0,0
553,-328,0,0,0,0,0,0,0,0,0,-1,1777,1352,0,0
560,-328,0,0,0,0,0,0,0,0,0,-1,1784,1352,0,0
567,-328,0,0,0,0,0,0,0,0,0,-1,1791,1352,0,0
574,-328,65.0565,3.09021,0,0,0,0,0,0,0,-1,1798,1352,65.0565,-3.09019
581,-328,66.3988,1.74048,0,0,0,0,0,0,0,-1,1805,1352,66.3989,-1.74051
588,-328,67.0304,0.506714,0,0,0,0,0,0,0,-1,1812,1352,67.0304,-0.506669
595,-328,60.5831,1.52856,0,0,0,0,0,0,0,-1,1819,1352,60.5832,-1.52861
602,-328,48.7734,3.66785,0,0,0,0,0,0,0,-1,1826,1352,48.7734,-3.66782
609,-328,37.0468,1.17407,0,0,0,0,0,0,0,-1,1833,1352,37.0468,-1.17407
616,-328,36.999,2.42859,0,0,0,0,0,0,0,-1,1840,1352,36.999,-2.42862
623,-328,34.345,5.14722,0,0,0,0,0,0,0,-1,1847,1352,34.3449,-5.14718
630,-328,22.0211,5.026,0,0,0,0,0,0,0,-1,1854,1352,22.0212,-5.02603
637,-328,21.15,5.53699,0,0,0,0,0,0,0,-1,1861,1352,21.15,-5.53704
644,-328,16.9579,6.3396,0,0,0,0,0,0,0,-1,1868,1352,16.9579,-6.33959
651,-328,36.2629,14.6906,0,0,0,0,0,0,0,-1,1875,1352,36.263,-14.6905
658,-328,46.1154,17.9296,0,0,0,0,0,0,0,-1,1882,1352,46.1154,-17.9296
665,-328,46.1066,17.1923,0.000405472,0.00128791,-0.000891951,0.0018418,-0.000148422,-1.01508,0.00128021,0.0160076,1889,1352,46.1065,-17.1923
672,-328,46.0625,16.4495,0.000915762,0.000404949,-0.000652096,0.00136068,-3.99739e-05,-0.598746,0.000920737,0.0134951,1896,1352,46.0625,-16.4494
679,-328,46.0302,15.6636,0.00125123,0.000114753,-0.000463929,0.00141656,-5.05785e-05,-0.342341,0.000961677,0.0161049,1903,1352,46.0302,-15.6636
686,-328,45.9775,14.8865,0.00140395,-1.8284e-05,-0.000327701,0.00147583,-9.01583e-05,-0.21591,0.00101527,0.0159924,1910,1352,45.9776,-14.8865
693,-328,45.9384,14.1451,0.00148864,-0.000128072,-0.000166825,0.00150568,-0.000145107,-0.101759,0.00105548,0.0101086,1917,1352,45.9384,-14.1452
700,-328,45.9045,13.3687,0.00149744,-0.000275073,4.9416e-05,0.00149882,-0.000276449,0.0278502,0.00110297,0.0133542,1924,1352,45.9045,-13.3686
707,-328,45.8748,12.6191,0.00136417,-0.000478442,0.000357663,0.00143116,-0.000545431,0.185151,0.00117876,0.0156074,1931,1352,45.8747,-12.6191
714,-328,45.8435,11.8641,0.00107164,-0.000786892,0.000769211,0.0013487,-0.00106395,0.345721,0.00139617,0.0163155,1938,1352,45.8435,-11.8641
721,-328,45.8918,11.0924,0,0,0,0,0,0,0,-1,1945,1352,45.8919,-11.0924
728,-328,29.2787,6.74695,0,0,0,0,0,0,0,-1,1952,1352,29.2787,-6.74693
735,-328,20.8927,5.23523,0,0,0,0,0,0,0,-1,1959,1352,20.8927,-5.23528
742,-328,20.3547,4.11316,0,0,0,0,0,0,0,-1,1966,1352,20.3547,-4.11321
749,-328,20.0669,5.66321,0,0,0,0,0,0,0,-1,1973,1352,20.0669,-5.66319
756,-328,19.9543,5.50464,0,0,0,0,0,0,0,-1,1980,1352,19.9543,-5.50463
763,-328,0,0,0,0,0,0,0,0,0,-1,1987,1352,0,0
770,-328,0,0,0,0,0,0,0,0,0,-1,1994,1352,0,0
777,-328,0,0,0,0,0,0,0,0,0,-1,2001,1352,0,0
784,-328,0,0,0,0,0,0,0,0,0,-1,2008,1352,0,0
791,-328,0,0,0,0,0,0,0,0,0,-1,2015,1352,0,0
798,-328,0,0,0,0,0,0,0,0,0,-1,2022,1352,0,0
805,-328,0,0,0,0,0,0,0,0,0,-1,2029,1352,0,0
812,-328,0,0,0,0,0,0,0,0,0,-1,2036,1352,0,0
-700,-335,0,0,0,0,0,0,0,0,0,-1,524,1359,0,0
-693,-335,0,0,0,0,0,0,0,0,0,-1,531,1359,0,0
-686,-335,0,0,0,0,0,0,0,0,0,-1,538,1359,0,0
-679,-335,0,0,0,0,0,0,0,0,0,-1,545,1359,0,0
-672,-335,0,0,0,0,0,0,0,0,0,-1,552,1359,0,0
-665,-335,0,0,0,0,0,0,0,0,0,-1,559,1359,0,0
-658,-335,0,0,0,0,0,0,0,0,0,-1,566,1359,0,0
-651,-335,0,0,0,0,0,0,0,0,0,-1,573,1359,0,0
-644,-335,0,0,0,0,0,0,0,0,0,-1,580,1359,0,0
-637,-335,-62.7114,11.0491,0,0,0,0,0,0,0,-1,587,1359,-62.7114,-11.0491
-630,-335,-64.2532,9.91284,0,0,0,0,0,0,0,-1,594,1359,-64.2532,-9.91285
-623,-335,-8.43304,1.09509,0,0,0,0,0,0,0,-1,601,1359,-8.43301,-1.09507
-616,-335,-7.80927,-0.485352,0,0,0,0,0,0,0,-1,608,1359,-7.80926,0.485291
-609,-335,-7.12256,-2.03601,0,0,0,0,0,0,0,-1,615,1359,-7.12253,2.03601
-602,-335,-9.39935,2.25146,0,0,0,0,0,0,0,-1,622,1359,-9.39935,-2.25145
-595,-335,-9.54767,3.01917,0,0,0,0,0,0,0,-1,629,1359,-9.54768,-3.01911
-588,-335,-27.9316,9.81763,0,0,0,0,0,0,0,-1,636,1359,-27.9316,-9.81759
-581,-335,-27.7571,10.9833,0.0047869,0.00371042,0.00177242,0.006101,0.00239631,0.637986,0.00354931,0.0484895,643,1359,-27.7571,-10.9832
-574,-335,-27.7698,11.7328,0.00354266,0.00283211,0.00134641,0.00457988,0.00179489,0.656405,0.00266471,0.0151583,650,1359,-27.7698,-11.7328
-567,-335,-27.7788,12.5641,0.00298012,0.00214978,0.00117262,0.00380889,0.001321,0.615257,0.0022332,0.0189044,657,1359,-27.7788,-12.564
-560,-335,-27.8126,13.3248,0.00284344,0.00155082,0.0011361,0.0035042,0.000890053,0.526786,0.00210319,0.0264101,664,1359,-27.8126,-13.3248
-553,-335,-27.8958,14.1157,0.00304722,0.00103156,0.00122242,0.0036237,0.000455084,0.44066,0.0022793,0.0298114,671,1359,-27.8958,-14.1158
-546,-335,-27.947,14.9198,0.00358719,0.000586846,0.00142571,0.0041566,1.74346e-05,0.379978,0.00276527,0.0276148,678,1359,-27.9471,-14.9198
-539,-335,-28.0166,15.7212,0.00444964,0.000223005,0.00174707,0.00507829,-0.000405644,0.345405,0.00352852,0.0218023,685,1359,-28.0166,-15.7212
-532,-335,-28.0642,16.5789,0.00568466,-4.84921e-05,0.00219677,0.0064296,-0.000793431,0.326938,0.00457388,0.0165596,692,1359,-28.0642,-16.5788
-525,-335,-28.0211,17.4202,0.00732305,-0.000338415,0.00272281,0.00819212,-0.00120749,0.308963,0.00590521,0.0141764,699,1359,-28.0211,-17.4202
-518,-335,-28.1216,18.1439,0,0,0,0,0,0,0,-1,706,1359,-28.1216,-18.144
-511,-335,-17.3098,11.6718,0,0,0,0,0,0,0,-1,713,1359,-17.3097,-11.6717
-504,-335,-9.35767,5.99695,0,0,0,0,0,0,0,-1,720,1359,-9.35767,-5.99694
-497,-335,-8.75024,-0.650513,0,0,0,0,0,0,0,-1,727,1359,-8.75024,0.650521
-490,-335,-9.51971,0.417603,0,0,0,0,0,0,0,-1,734,1359,-9.51974,-0.41765
-483,-335,-10.2883,1.29224,0,0,0,0,0,0,0,-1,741,1359,-10.2883,-1.2922
-476,-335,-11.9938,-0.173462,0,0,0,0,0,0,0,-1,748,1359,-11.9938,0.173429
-469,-335,-12.8704,-0.204102,0,0,0,0,0,0,0,-1,755,1359,-12.8704,0.204117
-462,-335,-13.486,0.0218506,0,0,0,0,0,0,0,-1,762,1359,-13.4859,-0.0217908
-455,-335,-14.1504,0.549561,0,0,0,0,0,0,0,-1,769,1359,-14.1504,-0.549583
-448,-335,0,0,0,0,0,0,0,0,0,-1,776,1359,0,0
-441,-335,0,0,0,0,0,0,0,0,0,-1,783,1359,0,0
-434,-335,0,0,0,0,0,0,0,0,0,-1,790,1359,0,0
-427,-335,0,0,0,0,0,0,0,0,0,-1,797,1359,0,0
-420,-335,0,0,0,0,0,0,0,0,0,-1,804,1359,0,0
-413,-335,0,0,0,0,0,0,0,0,0,-1,811,1359,0,0
-406,-335,0,0,0,0,0,0,0,0,0,-1,818,1359,0,0
-399,-335,0,0,0,0,0,0,0,0,0,-1,825,1359,0,0
-392,-335,0,0,0,0,0,0,0,0,0,-1,832,1359,0,0
-385,-335,0,0,0,0,0,0,0,0,0,-1,839,1359,0,0
-378,-335,0,0,0,0,0,0,0,0,0,-1,846,1359,0,0
-371,-335,0,0,0,0,0,0,0,0,0,-1,853,1359,0,0
-364,-335,0,0,0,0,0,0,0,0,0,-1,860,1359,0,0
-357,-335,0,0,0,0,0,0,0,0,0,-1,867,1359,0,0
-350,-335,0,0,0,0,0,0,0,0,0,-1,874,1359,0,0
-343,-335,0,0,0,0,0,0,0,0,0,-1,881,1359,0,0
-336,-335,0,0,0,0,0,0,0,0,0,-1,888,1359,0,0
-329,-335,0,0,0,0,0,0,0,0,0,-1,895,1359,0,0
-322,-335,0,0,0,0,0,0,0,0,0,-1,902,1359,0,0
-315,-335,0,0,0,0,0,0,0,0,0,-1,909,1359,0,0
-308,-335,0,0,0,0,0,0,0,0,0,-1,916,1359,0,0
-301,-335,0,0,0,0,0,0,0,0,0,-1,923,1359,0,0
-294,-335,0,0,0,0,0,0,0,0,0,-1,930,1359,0,0
-287,-335,0,0,0,0,0,0,0,0,0,-1,937,1359,0,0
-280,-335,0,0,0,0,0,0,0,0,0,-1,944,1359,0,0
-273,-335,0,0,0,0,0,0,0,0,0,-1,951,1359,0,0
-266,-335,0,0,0,0,0,0,0,0,0,-1,958,1359,0,0
-259,-335,0,0,0,0,0,0,0,0,0,-1,965,1359,0,0
-252,-335,0,0,0,0,0,0,0,0,0,-1,972,1359,0,0
-245,-335,0,0,0,0,0,0,0,0,0,-1,979,1359,0,0
-238,-335,0,0,0,0,0,0,0,0,0,-1,986,1359,0,0
-231,-335,0,0,0,0,0,0,0,0,0,-1,993,1359,0,0
-224,-335,0,0,0,0,0,0,0,0,0,-1,1000,1359,0,0
-217,-335,0,0,0,0,0,0,0,0,0,-1,1007,1359,0,0
-210,-335,0,0,0,0,0,0,0,0,0,-1,1014,1359,0,0
-203,-335,0,0,0,0,0,0,0,0,0,-1,1021,1359,0,0
-196,-335,0,0,0,0,0,0,0,0,0,-1,1028,1359,0,0
-189,-335,0,0,0,0,0,0,0,0,0,-1,1035,1359,0,0
-182,-335,0,0,0,0,0,0,0,0,0,-1,1042,1359,0,0
-175,-335,0,0,0,0,0,0,0,0,0,-1,1049,1359,0,0
-168,-335,0,0,0,0,0,0,0,0,0,-1,1056,1359,0,0
-161,-335,0,0,0,0,0,0,0,0,0,-1,1063,1359,0,0
-154,-335,0,0,0,0,0,0,0,0,0,-1,1070,1359,0,0
-147,-335,0,0,0,0,0,0,0,0,0,-1,1077,1359,0,0
-140,-335,0,0,0,0,0,0,0,0,0,-1,1084,1359,0,0
-133,-335,0,0,0,0,0,0,0,0,0,-1,1091,1359,0,0
-126,-335,0,0,0,0,0,0,0,0,0,-1,1098,1359,0,0
-119,-335,0,0,0,0,0,0,0,0,0,-1,1105,1359,0,0
-112,-335,0,0,0,0,0,0,0,0,0,-1,1112,1359,0,0
-105,-335,0,0,0,0,0,0,0,0,0,-1,1119,1359,0,0
-98,-335,0,0,0,0,0,0,0,0,0,-1,1126,1359,0,0
-91,-335,0,0,0,0,0,0,0,0,0,-1,1133,1359,0,0
-84,-335,0,0,0,0,0,0,0,0,0,-1,1140,1359,0,0
-77,-335,0,0,0,0,0,0,0,0,0,-1,1147,1359,0,0
-70,-335,0,0,0,0,0,0,0,0,0,-1,1154,1359,0,0
-63,-335,0,0,0,0,0,0,0,0,0,-1,1161,1359,0,0
-56,-335,0,0,0,0,0,0,0,0,0,-1,1168,1359,0,0
-49,-335,0,0,0,0,0,0,0,0,0,-1,1175,1359,0,0
-42,-335,0,0,0,0,0,0,0,0,0,-1,1182,1359,0,0
-35,-335,0,0,0,0,0,0,0,0,0,-1,1189,1359,0,0
-28,-335,0,0,0,0,0,0,0,0,0,-1,1196,1359,0,0
-21,-335,0,0,0,0,0,0,0,0,0,-1,1203,1359,0,0
-14,-335,0,0,0,0,0,0,0,0,0,-1,1210,1359,0,0
-7,-335,0,0,0,0,0,0,0,0,0,-1,1217,1359,0,0
0,-335,0,0,0,0,0,0,0,0,0,-1,1224,1359,0,0
7,-335,0,0,0,0,0,0,0,0,0,-1,1231,1359,0,0
14,-335,0,0,0,0,0,0,0,0,0,-1,1238,1359,0,0
21,-335,0,0,0,0,0,0,0,0,0,-1,1245,1359,0,0
28,-335,0,0,0,0,0,0,0,0,0,-1,1252,1359,0,0
35,-335,0,0,0,0,0,0,0,0,0,-1,1259,1359,0,0
42,-335,0,0,0,0,0,0,0,0,0,-1,1266,1359,0,0
49,-335,0,0,0,0,0,0,0,0,0,-1,1273,1359,0,0
56,-335,0,0,0,0,0,0,0,0,0,-1,1280,1359,0,0
63,-335,0,0,0,0,0,0,0,0,0,-1,1287,1359,0,0
70,-335,0,0,0,0,0,0,0,0,0,-1,1294,1359,0,0
77,-335,0,0,0,0,0,0,0,0,0,-1,1301,1359,0,0
84,-335,0,0,0,0,0,0,0,0,0,-1,1308,1359,0,0
91,-335,0,0,0,0,0,0,0,0,0,-1,1315,1359,0,0
98,-335,0,0,0,0,0,0,0,0,0,-1,1322,1359,0,0
105,-335,0,0,0,0,0,0,0,0,0,-1,1329,1359,0,0
112,-335,0,0,0,0,0,0,0,0,0,-1,1336,1359,0,0
119,-335,0,0,0,0,0,0,0,0,0,-1,1343,1359,0,0
126,-335,0,0,0,0,0,0,0,0,0,-1,1350,1359,0,0
133,-335,0,0,0,0,0,0,0,0,0,-1,1357,1359,0,0
140,-335,0,0,0,0,0,0,0,0,0,-1,1364,1359,0,0
147,-335,0,0,0,0,0,0,0,0,0,-1,1371,1359,0,0
154,-335,0,0,0,0,0,0,0,0,0,-1,1378,1359,0,0
161,-335,0,0,0,0,0,0,0,0,0,-1,1385,1359,0,0
168,-335,0,0,0,0,0,0,0,0,0,-1,1392,1359,0,0
175,-335,0,0,0,0,0,0,0,0,0,-1,1399,1359,0,0
182,-335,0,0,0,0,0,0,0,0,0,-1,1406,1359,0,0
189,-335,0,0,0,0,0,0,0,0,0,-1,1413,1359,0,0
196,-335,0,0,0,0,0,0,0,0,0,-1,1420,1359,0,0
203,-335,0,0,0,0,0,0,0,0,0,-1,1427,1359,0,0
210,-335,0,0,0,0,0,0,0,0,0,-1,1434,1359,0,0
217,-335,0,0,0,0,0,0,0,0,0,-1,1441,1359,0,0
224,-335,0,0,0,0,0,0,0,0,0,-1,1448,1359,0,0
231,-335,0,0,0,0,0,0,0,0,0,-1,1455,1359,0,0
238,-335,0,0,0,0,0,0,0,0,0,-1,1462,1359,0,0
245,-335,0,0,0,0,0,0,0,0,0,-1,1469,1359,0,0
252,-335,0,0,0,0,0,0,0,0,0,-1,1476,1359,0,0
259,-335,0,0,0,0,0,0,0,0,0,-1,1483,1359,0,0
266,-335,0,0,0,0,0,0,0,0,0,-1,1490,1359,0,0
273,-335,0,0,0,0,0,0,0,0,0,-1,1497,1359,0,0
280,-335,0,0,0,0,0,0,0,0,0,-1,1504,1359,0,0
287,-335,0,0,0,0,0,0,0,0,0,-1,1511,1359,0,0
294,-335,0,0,0,0,0,0,0,0,0,-1,1518,1359,0,0
301,-335,0,0,0,0,0,0,0,0,0,-1,1525,1359,0,0
308,-335,0,0,0,0,0,0,0,0,0,-1,1532,1359,0,0
315,-335,0,0,0,0,0,0,0,0,0,-1,1539,1359,0,0
322,-335,0,0,0,0,0,0,0,0,0,-1,1546,1359,0,0
329,-335,0,0,0,0,0,0,0,0,0,-1,1553,1359,0,0
336,-335,0,0,0,0,0,0,0,0,0,-1,1560,1359,0,0
343,-335,0,0,0,0,0,0,0,0,0,-1,1567,1359,0,0
350,-335,0,0,0,0,0,0,0,0,0,-1,1574,1359,0,0
357,-335,0,0,0,0,0,0,0,0,0,-1,1581,1359,0,0
364,-335,0,0,0,0,0,0,0,0,0,-1,1588,1359,0,0
371,-335,0,0,0,0,0,0,0,0,0,-1,1595,1359,0,0
378,-335,0,0,0,0,0,0,0,0,0,-1,1602,1359,0,0
385,-335,0,0,0,0,0,0,0,0,0,-1,1609,1359,0,0
392,-335,0,0,0,0,0,0,0,0,0,-1,1616,1359,0,0
399,-335,0,0,0,0,0,0,0,0,0,-1,1623,1359,0,0
406,-335,0,0,0,0,0,0,0,0,0,-1,1630,1359,0,0
413,-335,0,0,0,0,0,0,0,0,0,-1,1637,1359,0,0
420,-335,0,0,0,0,0,0,0,0,0,-1,1644,1359,0,0
427,-335,0,0,0,0,0,0,0,0,0,-1,1651,1359,0,0
434,-335,0,0,0,0,0,0,0,0,0,-1,1658,1359,0,0
441,-335,0,0,0,0,0,0,0,0,0,-1,1665,1359,0,0
448,-335,0,0,0,0,0,0,0,0,0,-1,1672,1359,0,0
455,-335,0,0,0,0,0,0,0,0,0,-1,1679,1359,0,0
462,-335,0,0,0,0,0,0,0,0,0,-1,1686,1359,0,0
469,-335,0,0,0,0,0,0,0,0,0,-1,1693,1359,0,0
476,-335,0,0,0,0,0,0,0,0,0,-1,1700,1359,0,0
483,-335,0,0,0,0,0,0,0,0,0,-1,1707,1359,0,0
490,-335,0,0,0,0,0,0,0,0,0,-1,1714,1359,0,0
497,-335,0,0,0,0,0,0,0,0,0,-1,1721,1359,0,0
504,-335,0,0,0,0,0,0,0,0,0,-1,1728,1359,0,0
511,-335,0,0,0,0,0,0,0,0,0,-1,1735,1359,0,0
518,-335,0,0,0,0,0,0,0,0,0,-1,1742,1359,0,0
525,-335,0,0,0,0,0,0,0,0,0,-1,1749,1359,0,0
532,-335,0,0,0,0,0,0,0,0,0,-1,1756,1359,0,0
539,-335,0,0,0,0,0,0,0,0,0,-1,1763,1359,0,0
546,-335,0,0,0,0,0,0,0,0,0,-1,1770,1359,0,0
553,-335,0,0,0,0,0,0,0,0,0,-1,1777,1359,0,0
560,-335,0,0,0,0,0,0,0,0,0,-1,1784,1359,0,0
567,-335,0,0,0,0,0,0,0,0,0,-1,1791,1359,0,0
574,-335,65.0712,2.80188,0,0,0,0,0,0,0,-1,1798,1359,65.0712,-2.80193
581,-335,66.5206,1.60327,0,0,0,0,0,0,0,-1,1805,1359,66.5206,-1.60333
588,-335,67.826,0.334961,0,0,0,0,0,0,0,-1,1812,1359,67.8261,-0.335018
595,-335,49.984,3.76465,0,0,0,0,0,0,0,-1,1819,1359,49.984,-3.76467
602,-335,36.5643,0.0861816,0,0,0,0,0,0,0,-1,1826,1359,36.5643,-0.0862283
609,-335,36.2933,0.993896,0,0,0,0,0,0,0,-1,1833,1359,36.2934,-0.993911
616,-335,34.6969,4.82666,0,0,0,0,0,0,0,-1,1840,1359,34.6969,-4.82667
623,-335,26.6051,6.54333,0,0,0,0,0,0,0,-1,1847,1359,26.6051,-6.54339
630,-335,19.1707,1.00952,0,0,0,0,0,0,0,-1,1854,1359,19.1707,-1.00953
637,-335,18.2009,6.65454,0,0,0,0,0,0,0,-1,1861,1359,18.2009,-6.6546
644,-335,28.1042,12.067,0,0,0,0,0,0,0,-1,1868,1359,28.1042,-12.067
651,-335,45.2767,18.9973,0,0,0,0,0,0,0,-1,1875,1359,45.2767,-18.9973
658,-335,45.3311,18.0895,-0.000379846,0.00121499,-0.000650813,0.00144686,-0.000611715,-1.22854,0.00122069,0.0420248,1882,1359,45.3311,-18.0895
665,-335,45.3231,17.2571,0.000229103,0.000647405,-0.000498434,0.000978791,-0.000102284,-0.984049,0.000689157,0.0153585,1889,1359,45.3232,-17.2571
672,-335,45.2867,16.4888,0.000768931,0.000336228,-0.000456722,0.00105795,4.72053e-05,-0.564202,0.000690105,0.0184112,1896,1359,45.2867,-16.4888
679,-335,45.2555,15.7217,0.00124026,0.000149515,-0.000423955,0.00138566,4.11371e-06,-0.330393,0.000922407,0.0163817,1903,1359,45.2555,-15.7217
686,-335,45.2321,14.9338,0.00161454,-4.63584e-05,-0.000359817,0.00168914,-0.000120959,-0.204432,0.0011685,0.0140111,1910,1359,45.2321,-14.9339
693,-335,45.1764,14.1833,0.00195528,-0.000189905,-0.000305463,0.00199793,-0.000232554,-0.138722,0.00141585,0.011044,1917,1359,45.1764,-14.1833
700,-335,45.1226,13.4449,0.00223415,-0.000340153,-0.000219164,0.00225268,-0.000358678,-0.0843263,0.00163451,0.0110404,1924,1359,45.1225,-13.445
707,-335,45.0836,12.696,0.00232992,-0.000507774,-4.43488e-05,0.00233062,-0.000508467,-0.0156233,0.00174806,0.0144263,1931,1359,45.0836,-12.696
714,-335,45.0894,11.8368,0.00230647,-0.000760685,0.000184036,0.00231748,-0.000771688,0.0597166,0.00185647,0.0345614,1938,1359,45.0893,-11.8368
721,-335,44.9888,10.9215,0,0,0,0,0,0,0,-1,1945,1359,44.9888,-10.9215
728,-335,20.8126,5.21167,0,0,0,0,0,0,0,-1,1952,1359,20.8127,-5.21172
735,-335,20.2725,5.34729,0,0,0,0,0,0,0,-1,1959,1359,20.2724,-5.34734
742,-335,19.8624,4.72229,0,0,0,0,0,0,0,-1,1966,1359,19.8624,-4.72225
749,-335,20.5887,6.05322,0,0,0,0,0,0,0,-1,1973,1359,20.5887,-6.05322
756,-335,20.7832,6.00452,0,0,0,0,0,0,0,-1,1980,1359,20.7832,-6.00447
763,-335,0,0,0,0,0,0,0,0,0,-1,1987,1359,0,0
770,-335,0,0,0,0,0,0,0,0,0,-1,1994,1359,0,0
777,-335,0,0,0,0,0,0,0,0,0,-1,2001,1359,0,0
784,-335,0,0,0,0,0,0,0,0,0,-1,2008,1359,0,0
791,-335,0,0,0,0,0,0,0,0,0,-1,2015,1359,0,0
798,-335,0,0,0,0,0,0,0,0,0,-1,2022,1359,0,0
805,-335,0,0,0,0,0,0,0,0,0,-1,2029,1359,0,0
812,-335,0,0,0,0,0,0,0,0,0,-1,2036,1359,0,0
-700,-342,0,0,0,0,0,0,0,0,0,-1,524,1366,0,0
-693,-342,0,0,0,0,0,0,0,0,0,-1,531,1366,0,0
-686,-342,0,0,0,0,0,0,0,0,0,-1,538,1366,0,0
-679,-342,0,0,0,0,0,0,0,0,0,-1,545,1366,0,0
-672,-342,0,0,0,0,0,0,0,0,0,-1,552,1366,0,0
-665,-342,0,0,0,0,0,0,0,0,0,-1,559,1366,0,0
-658,-342,0,0,0,0,0,0,0,0,0,-1,566,1366,0,0
-651,-342,0,0,0,0,0,0,0,0,0,-1,573,1366,0,0
-644,-342,0,0,0,0,0,0,0,0,0,-1,580,1366,0,0
-637,-342,-63.7546,12.2344,0,0,0,0,0,0,0,-1,587,1366,-63.7546,-12.2343
-630,-342,-8.60132,2.71777,0,0,0,0,0,0,0,-1,594,1366,-8.60135,-2.71779
-623,-342,-8.41168,0.662476,0,0,0,0,0,0,0,-1,601,1366,-8.41168,-0.662442
-616,-342,-6.625,-1.28015,0,0,0,0,0,0,0,-1,608,1366,-6.62499,1.28011
-609,-342,-7.83154,0.674561,0,0,0,0,0,0,0,-1,615,1366,-7.83155,-0.674598
-602,-342,-9.65765,2.25195,0,0,0,0,0,0,0,-1,622,1366,-9.65767,-2.25192
-595,-342,-9.47687,3.00671,0,0,0,0,0,0,0,-1,629,1366,-9.47686,-3.00668
-588,-342,-9.78467,3.57727,0,0,0,0,0,0,0,-1,636,1366,-9.78468,-3.57723
-581,-342,-27.0432,10.813,0,0,0,0,0,0,0,-1,643,1366,-27.0432,-10.813
-574,-342,-27.0262,11.7782,0.00411576,0.00321165,0.00159796,0.00532438,0.00200303,0.647552,0.00310528,0.0186764,650,1366,-27.0263,-11.7782
-567,-342,-26.9504,12.597,0.00329725,0.00243492,0.00134536,0.00427885,0.00145332,0.630328,0.00251238,0.0174966,657,1366,-26.9504,-12.597
-560,-342,-27.0596,13.3535,0.00295659,0.00174973,0.00121297,0.00370794,0.000998388,0.554582,0.00221546,0.0260603,664,1366,-27.0597,-13.3535
-553,-342,-27.1639,14.1274,0.00295759,0.00115914,0.0011901,0.00354999,0.000566741,0.461863,0.00220219,0.0301448,671,1366,-27.1639,-14.1274
-546,-342,-27.1901,14.9052,0.00327565,0.000663864,0.00127773,0.00379676,0.000142748,0.38725,0.00248496,0.0303291,678,1366,-27.1902,-14.9052
-539,-342,-27.1893,15.7638,0.00388894,0.000255054,0.00146393,0.00440531,-0.000261318,0.339106,0.00302774,0.0245138,685,1366,-27.1893,-15.7638
-532,-342,-27.2348,16.6475,0.00481602,-4.78351e-05,0.00176216,0.00538734,-0.000619153,0.313521,0.00381473,0.0183712,692,1366,-27.2348,-16.6475
-525,-342,-27.2195,17.4705,0.0060689,-0.000306312,0.00213655,0.0067187,-0.000956112,0.295246,0.00482949,0.0138522,699,1366,-27.2195,-17.4705
-518,-342,-27.2012,18.2594,0.00773636,-0.000196332,0.00264525,0.00853753,-0.000997508,0.294091,0.00605166,0.0445128,706,1366,-27.2012,-18.2594
-511,-342,-27.2122,19.0311,0,0,0,0,0,0,0,-1,713,1366,-27.2122,-19.0311
-504,-342,-8.95709,6.5719,0,0,0,0,0,0,0,-1,720,1366,-8.95707,-6.57192
-497,-342,-8.26587,-0.943604,0,0,0,0,0,0,0,-1,727,1366,-8.26586,0.943543
-490,-342,-9.07153,-0.0227051,0,0,0,0,0,0,0,-1,734,1366,-9.07155,0.0227087
-483,-342,-9.87726,0.898071,0,0,0,0,0,0,0,-1,741,1366,-9.87724,-0.898125
-476,-342,-11.6371,-0.736328,0,0,0,0,0,0,0,-1,748,1366,-11.6371,0.736281
-469,-342,-12.6245,-0.987549,0,0,0,0,0,0,0,-1,755,1366,-12.6245,0.987553
-462,-342,-13.0912,-0.533203,0,0,0,0,0,0,0,-1,762,1366,-13.0912,0.533224
-455,-342,-13.7612,0.122925,0,0,0,0,0,0,0,-1,769,1366,-13.7612,-0.122896
-448,-342,-14.5278,0.826904,0,0,0,0,0,0,0,-1,776,1366,-14.5277,-0.826861
-441,-342,0,0,0,0,0,0,0,0,0,-1,783,1366,0,0
-434,-342,0,0,0,0,0,0,0,0,0,-1,790,1366,0,0
-427,-342,0,0,0,0,0,0,0,0,0,-1,797,1366,0,0
-420,-342,0,0,0,0,0,0,0,0,0,-1,804,1366,0,0
-413,-342,0,0,0,0,0,0,0,0,0,-1,811,1366,0,0
-406,-342,0,0,0,0,0,0,0,0,0,-1,818,1366,0,0
-399,-342,0,0,0,0,0,0,0,0,0,-1,825,1366,0,0
-392,-342,0,0,0,0,0,0,0,0,0,-1,832,1366,0,0
-385,-342,0,0,0,0,0,0,0,0,0,-1,839,1366,0,0
-378,-342,0,0,0,0,0,0,0,0,0,-1,846,1366,0,0
-371,-342,0,0,0,0,0,0,0,0,0,-1,853,1366,0,0
-364,-342,0,0,0,0,0,0,0,0,0,-1,860,1366,0,0
-357,-342,0,0,0,0,0,0,0,0,0,-1,867,1366,0,0
-350,-342,0,0,0,0,0,0,0,0,0,-1,874,1366,0,0
-343,-342,0,0,0,0,0,0,0,0,0,-1,881,1366,0,0
-336,-342,0,0,0,0,0,0,0,0,0,-1,888,1366,0,0
-329,-342,0,0,0,0,0,0,0,0,0,-1,895,1366,0,0
-322,-342,0,0,0,0,0,0,0,0,0,-1,902,1366,0,0
-315,-342,0,0,0,0,0,0,0,0,0,-1,909,1366,0,0
-308,-342,0,0,0,0,0,0,0,0,0,-1,916,1366,0,0
-301,-342,0,0,0,0,0,0,0,0,0,-1,923,1366,0,0
-294,-342,0,0,0,0,0,0,0,0,0,-1,930,1366,0,0
-287,-342,0,0,0,0,0,0,0,0,0,-1,937,1366,0,0
-280,-342,0,0,0,0,0,0,0,0,0,-1,944,1366,0,0
-273,-342,0,0,0,0,0,0,0,0,0,-1,951,1366,0,0
-266,-342,0,0,0,0,0,0,0,0,0,-1,958,1366,0,0
-259,-342,0,0,0,0,0,0,0,0,0,-1,965,1366,0,0
-252,-342,0,0,0,0,0,0,0,0,0,-1,972,1366,0,0
-245,-342,0,0,0,0,0,0,0,0,0,-1,979,1366,0,0
-238,-342,0,0,0,0,0,0,0,0,0,-1,986,1366,0,0
-231,-342,0,0,0,0,0,0,0,0,0,-1,993,1366,0,0
-224,-342,0,0,0,0,0,0,0,0,0,-1,1000,1366,0,0
-217,-342,0,0,0,0,0,0,0,0,0,-1,1007,1366,0,0
-210,-342,0,0,0,0,0,0,0,0,0,-1,1014,1366,0,0
-203,-342,0,0,0,0,0,0,0,0,0,-1,1021,1366,0,0
-196,-342,0,0,0,0,0,0,0,0,0,-1,1028,1366,0,0
-189,-342,0,0,0,0,0,0,0,0,0,-1,1035,1366,0,0
-182,-342,0,0,0,0,0,0,0,0,0,-1,1042,1366,0,0
-175,-342,0,0,0,0,0,0,0,0,0,-1,1049,1366,0,0
-168,-342,0,0,0,0,0,0,0,0,0,-1,1056,1366,0,0
-161,-342,0,0,0,0,0,0,0,0,0,-1,1063,1366,0,0
-154,-342,0,0,0,0,0,0,0,0,0,-1,1070,1366,0,0
-147,-342,0,0,0,0,0,0,0,0,0,-1,1077,1366,0,0
-140,-342,0,0,0,0,0,0,0,0,0,-1,1084,1366,0,0
-133,-342,0,0,0,0,0,0,0,0,0,-1,1091,1366,0,0
-126,-342,0,0,0,0,0,0,0,0,0,-1,1098,1366,0,0
-119,-342,0,0,0,0,0,0,0,0,0,-1,1105,1366,0,0
-112,-342,0,0,0,0,0,0,0,0,0,-1,1112,1366,0,0
-105,-342,0,0,0,0,0,0,0,0,0,-1,1119,1366,0,0
-98,-342,0,0,0,0,0,0,0,0,0,-1,1126,1366,0,0
-91,-342,0,0,0,0,0,0,0,0,0,-1,1133,1366,0,0
-84,-342,0,0,0,0,0,0,0,0,0,-1,1140,1366,0,0
-77,-342,0,0,0,0,0,0,0,0,0,-1,1147,1366,0,0
-70,-342,0,0,0,0,0,0,0,0,0,-1,1154,1366,0,0
-63,-342,0,0,0,0,0,0,0,0,0,-1,1161,1366,0,0
-56,-342,0,0,0,0,0,0,0,0,0,-1,1168,1366,0,0
-49,-342,0,0,0,0,0,0,0,0,0,-1,1175,1366,0,0
-42,-342,0,0,0,0,0,0,0,0,0,-1,1182,1366,0,0
-35,-342,0,0,0,0,0,0,0,0,0,-1,1189,1366,0,0
-28,-342,0,0,0,0,0,0,0,0,0,-1,1196,1366,0,0
-21,-342,0,0,0,0,0,0,0,0,0,-1,1203,1366,0,0
-14,-342,0,0,0,0,0,0,0,0,0,-1,1210,1366,0,0
-7,-342,0,0,0,0,0,0,0,0,0,-1,1217,1366,0,0
0,-342,0,0,0,0,0,0,0,0,0,-1,1224,1366,0,0
7,-342,0,0,0,0,0,0,0,0,0,-1,1231,1366,0,0
14,-342,0,0,0,0,0,0,0,0,0,-1,1238,1366,0,0
21,-342,0,0,0,0,0,0,0,0,0,-1,1245,1366,0,0
28,-342,0,0,0,0,0,0,0,0,0,-1,1252,1366,0,0
35,-342,0,0,0,0,0,0,0,0,0,-1,1259,1366,0,0
42,-342,0,0,0,0,0,0,0,0,0,-1,1266,1366,0,0
49,-342,0,0,0,0,0,0,0,0,0,-1,1273,1366,0,0
56,-342,0,0,0,0,0,0,0,0,0,-1,1280,1366,0,0
63,-342,0,0,0,0,0,0,0,0,0,-1,1287,1366,0,0
70,-342,0,0,0,0,0,0,0,0,0,-1,1294,1366,0,0
77,-342,0,0,0,0,0,0,0,0,0,-1,1301,1366,0,0
84,-342,0,0,0,0,0,0,0,0,0,-1,1308,1366,0,0
91,-342,0,0,0,0,0,0,0,0,0,-1,1315,1366,0,0
98,-342,0,0,0,0,0,0,0,0,0,-1,1322,1366,0,0
105,-342,0,0,0,0,0,0,0,0,0,-1,1329,1366,0,0
112,-342,0,0,0,0,0,0,0,0,0,-1,1336,1366,0,0
119,-342,0,0,0,0,0,0,0,0,0,-1,1343,1366,0,0
126,-342,0,0,0,0,0,0,0,0,0,-1,1350,1366,0,0
133,-342,0,0,0,0,0,0,0,0,0,-1,1357,1366,0,0
140,-342,0,0,0,0,0,0,0,0,0,-1,1364,1366,0,0
147,-342,0,0,0,0,0,0,0,0,0,-1,1371,1366,0,0
154,-342,0,0,0,0,0,0,0,0,0,-1,1378,1366,0,0
161,-342,0,0,0,0,0,0,0,0,0,-1,1385,1366,0,0
168,-342,0,0,0,0,0,0,0,0,0,-1,1392,1366,0,0
175,-342,0,0,0,0,0,0,0,0,0,-1,1399,1366,0,0
182,-342,0,0,0,0,0,0,0,0,0,-1,1406,1366,0,0
189,-342,0,0,0,0,0,0,0,0,0,-1,1413,1366,0,0
196,-342,0,0,0,0,0,0,0,0,0,-1,1420,1366,0,0
203,-342,0,0,0,0,0,0,0,0,0,-1,1427,1366,0,0
210,-342,0,0,0,0,0,0,0,0,0,-1,1434,1366,0,0
217,-342,0,0,0,0,0,0,0,0,0,-1,1441,1366,0,0
224,-342,0,0,0,0,0,0,0,0,0,-1,1448,1366,0,0
231,-342,0,0,0,0,0,0,0,0,0,-1,1455,1366,0,0
238,-342,0,0,0,0,0,0,0,0,0,-1,1462,1366,0,0
245,-342,0,0,0,0,0,0,0,0,0,-1,1469,1366,0,0
252,-342,0,0,0,0,0,0,0,0,0,-1,1476,1366,0,0
259,-342,0,0,0,0,0,0,0,0,0,-1,1483,1366,0,0
266,-342,0,0,0,0,0,0,0,0,0,-1,1490,1366,0,0
273,-342,0,0,0,0,0,0,0,0,0,-1,1497,1366,0,0
280,-342,0,0,0,0,0,0,0,0,0,-1,1504,1366,0,0
287,-342,0,0,0,0,0,0,0,0,0,-1,1511,1366,0,0
294,-342,0,0,0,0,0,0,0,0,0,-1,1518,1366,0,0
301,-342,0,0,0,0,0,0,0,0,0,-1,1525,1366,0,0
308,-342,0,0,0,0,0,0,0,0,0,-1,1532,1366,0,0
315,-342,0,0,0,0,0,0,0,0,0,-1,1539,1366,0,0
322,-342,0,0,0,0,0,0,0,0,0,-1,1546,1366,0,0
329,-342,0,0,0,0,0,0,0,0,0,-1,1553,1366,0,0
336,-342,0,0,0,0,0,0,0,0,0,-1,1560,1366,0,0
343,-342,0,0,0,0,0,0,0,0,0,-1,1567,1366,0,0
350,-342,0,0,0,0,0,0,0,0,0,-1,1574,1366,0,0
357,-342,0,0,0,0,0,0,0,0,0,-1,1581,1366,0,0
364,-342,0,0,0,0,0,0,0,0,0,-1,1588,1366,0,0
371,-342,0,0,0,0,0,0,0,0,0,-1,1595,1366,0,0
378,-342,0,0,0,0,0,0,0,0,0,-1,1602,1366,0,0
385,-342,0,0,0,0,0,0,0,0,0,-1,1609,1366,0,0
392,-342,0,0,0,0,0,0,0,0,0,-1,1616,1366,0,0
399,-342,0,0,0,0,0,0,0,0,0,-1,1623,1366,0,0
406,-342,0,0,0,0,0,0,0,0,0,-1,1630,1366,0,0
413,-342,0,0,0,0,0,0,0,0,0,-1,1637,1366,0,0
420,-342,0,0,0,0,0,0,0,0,0,-1,1644,1366,0,0
427,-342,0,0,0,0,0,0,0,0,0,-1,1651,1366,0,0
434,-342,0,0,0,0,0,0,0,0,0,-1,1658,1366,0,0
441,-342,0,0,0,0,0,0,0,0,0,-1,1665,1366,0,0
448,-342,0,0,0,0,0,0,0,0,0,-1,1672,1366,0,0
455,-342,0,0,0,0,0,0,0,0,0,-1,1679,1366,0,0
462,-342,0,0,0,0,0,0,0,0,0,-1,1686,1366,0,0
469,-342,0,0,0,0,0,0,0,0,0,-1,1693,1366,0,0
476,-342,0,0,0,0,0,0,0,0,0,-1,1700,1366,0,0
483,-342,0,0,0,0,0,0,0,0,0,-1,1707,1366,0,0
490,-342,0,0,0,0,0,0,0,0,0,-1,1714,1366,0,0
497,-342,0,0,0,0,0,0,0,0,0,-1,1721,1366,0,0
504,-342,0,0,0,0,0,0,0,0,0,-1,1728,1366,0,0
511,-342,0,0,0,0,0,0,0,0,0,-1,1735,1366,0,0
518,-342,0,0,0,0,0,0,0,0,0,-1,1742,1366,0,0
525,-342,0,0,0,0,0,0,0,0,0,-1,1749,1366,0,0
532,-342,0,0,0,0,0,0,0,0,0,-1,1756,1366,0,0
539,-342,0,0,0,0,0,0,0,0,0,-1,1763,1366,0,0
546,-342,0,0,0,0,0,0,0,0,0,-1,1770,1366,0,0
553,-342,0,0,0,0,0,0,0,0,0,-1,1777,1366,0,0
560,-342,0,0,0,0,0,0,0,0,0,-1,1784,1366,0,0
567,-342,64.6937,3.24878,0,0,0,0,0,0,0,-1,1791,1366,64.6938,-3.24881
574,-342,65.4669,2.18384,0,0,0,0,0,0,0,-1,1798,1366,65.4669,-2.18381
581,-342,66.542,1.36292,0,0,0,0,0,0,0,-1,1805,1366,66.542,-1.36295
588,-342,43.9108,7.22559,0,0,0,0,0,0,0,-1,1812,1366,43.9107,-7.22554
595,-342,35.7993,0.709961,0,0,0,0,0,0,0,-1,1819,1366,35.7993,-0.709913
602,-342,36.3618,3.28723,0,0,0,0,0,0,0,-1,1826,1366,36.3619,-3.28719
609,-342,35.3777,4.14978,0,0,0,0,0,0,0,-1,1833,1366,35.3777,-4.14976
616,-342,34.199,5.8158,0,0,0,0,0,0,0,-1,1840,1366,34.199,-5.81579
623,-342,26.0299,6.86865,0,0,0,0,0,0,0,-1,1847,1366,26.0299,-6.86863
630,-342,17.3431,0.773071,0,0,0,0,0,0,0,-1,1854,1366,17.3432,-0.773095
637,-342,16.196,6.76172,0,0,0,0,0,0,0,-1,1861,1366,16.1961,-6.76174
644,-342,31.8916,14.0614,0,0,0,0,0,0,0,-1,1868,1366,31.8916,-14.0613
651,-342,44.5597,18.9082,0,0,0,0,0,0,0,-1,1875,1366,44.5597,-18.9082
658,-342,44.5667,18.1178,-0.000585615,0.00140878,-0.000720036,0.00164156,-0.000818399,-1.25811,0.00144652,0.022422,1882,1366,44.5667,-18.1178
665,-342,44.561,17.2931,0.000136844,0.000759157,-0.000501439,0.00103814,-0.000142135,-1.06309,0.000744008,0.0177462,1889,1366,44.561,-17.2931
672,-342,44.5117,16.5305,0.000816354,0.000326387,-0.000383623,0.00102654,0.000116197,-0.501237,0.000649107,0.0141883,1896,1366,44.5117,-16.5305
679,-342,44.4734,15.7877,0.00144952,-1.58787e-05,-0.000294699,0.00150657,-7.29233e-05,-0.191204,0.00102955,0.013888,1903,1366,44.4734,-15.7878
686,-342,44.4768,15.0145,0.00201229,-0.000346521,-0.000203046,0.00202964,-0.000363872,-0.085244,0.00148928,0.0126115,1910,1366,44.4768,-15.0145
693,-342,44.4053,14.2451,0.00256322,-0.000616228,-0.000147048,0.00257,-0.000623015,-0.0461184,0.00195439,0.0127374,1917,1366,44.4052,-14.2451
700,-342,44.3567,13.5063,0.00307416,-0.000867508,-9.32875e-05,0.00307636,-0.000869715,-0.0236494,0.00239406,0.0138721,1924,1366,44.3567,-13.5063
707,-342,44.3279,12.6893,0.00333813,-0.00109711,4.29546e-05,0.00333855,-0.00109753,0.00968364,0.00266788,0.0138743,1931,1366,44.3279,-12.6894
714,-342,44.3916,11.7756,0,0,0,0,0,0,0,-1,1938,1366,44.3916,-11.7757
721,-342,22.4666,6.08679,0,0,0,0,0,0,0,-1,1945,1366,22.4666,-6.08678
728,-342,19.8912,5.26636,0,0,0,0,0,0,0,-1,1952,1366,19.8913,-5.26636
735,-342,19.481,4.41968,0,0,0,0,0,0,0,-1,1959,1366,19.4809,-4.41962
742,-342,19.309,2.66943,0,0,0,0,0,0,0,-1,1966,1366,19.3089,-2.66948
749,-342,21.0934,6.47729,0,0,0,0,0,0,0,-1,1973,1366,21.0934,-6.4773
756,-342,0,0,0,0,0,0,0,0,0,-1,1980,1366,0,0
763,-342,0,0,0,0,0,0,0,0,0,-1,1987,1366,0,0
770,-342,0,0,0,0,0,0,0,0,0,-1,1994,1366,0,0
777,-342,0,0,0,0,0,0,0,0,0,-1,2001,1366,0,0
784,-342,0,0,0,0,0,0,0,0,0,-1,2008,1366,0,0
791,-342,0,0,0,0,0,0,0,0,0,-1,2015,1366,0,0
798,-342,0,0,0,0,0,0,0,0,0,-1,2022,1366,0,0
805,-342,0,0,0,0,0,0,0,0,0,-1,2029,1366,0,0
812,-342,0,0,0,0,0,0,0,0,0,-1,2036,1366,0,0
-700,-349,0,0,0,0,0,0,0,0,0,-1,524,1373,0,0
-693,-349,0,0,0,0,0,0,0,0,0,-1,531,1373,0,0
-686,-349,0,0,0,0,0,0,0,0,0,-1,538,1373,0,0
-679,-349,0,0,0,0,0,0,0,0,0,-1,545,1373,0,0
-672,-349,0,0,0,0,0,0,0,0,0,-1,552,1373,0,0
-665,-349,0,0,0,0,0,0,0,0,0,-1,559,1373,0,0
-658,-349,0,0,0,0,0,0,0,0,0,-1,566,1373,0,0
-651,-349,0,0,0,0,0,0,0,0,0,-1,573,1373,0,0
-644,-349,0,0,0,0,0,0,0,0,0,-1,580,1373,0,0
-637,-349,0,0,0,0,0,0,0,0,0,-1,587,1373,0,0
-630,-349,-7.64117,-5.06177,0,0,0,0,0,0,0,-1,594,1373,-7.64118,5.0618
-623,-349,-8.63507,0.51123,0,0,0,0,0,0,0,-1,601,1373,-8.63505,-0.511275
-616,-349,-5.2066,-0.188232,0,0,0,0,0,0,0,-1,608,1373,-5.20659,0.188211
-609,-349,-7.12073,1.37048,0,0,0,0,0,0,0,-1,615,1373,-7.12072,-1.37044
-602,-349,-9.00623,3.39587,0,0,0,0,0,0,0,-1,622,1373,-9.0062,-3.39591
-595,-349,-9.50568,2.96912,0,0,0,0,0,0,0,-1,629,1373,-9.50569,-2.96906
-588,-349,-8.60046,3.56042,0,0,0,0,0,0,0,-1,636,1373,-8.60046,-3.56047
-581,-349,-26.0608,10.9502,0,0,0,0,0,0,0,-1,643,1373,-26.0608,-10.9502
-574,-349,-26.1467,11.709,0.00490137,0.00379525,0.00215943,0.00657744,0.00211918,0.660036,0.0038767,0.0452737,650,1373,-26.1467,-11.7089
-567,-349,-26.2189,12.6244,0.00384432,0.00286275,0.0017705,0.0051908,0.00151627,0.650193,0.00308205,0.0181703,657,1373,-26.219,-12.6244
-560,-349,-26.2654,13.4564,0.00330934,0.00205858,0.00150174,0.00431071,0.00105721,0.588099,0.00259423,0.0216091,664,1373,-26.2654,-13.4564
-553,-349,-26.3082,14.2075,0.0031109,0.00138195,0.00133984,0.00384094,0.000651906,0.498898,0.00237336,0.0281996,671,1373,-26.3082,-14.2075
-546,-349,-26.3278,14.9574,0.0031993,0.000818791,0.00128004,0.00375696,0.000261132,0.410863,0.00242229,0.0319624,678,1373,-26.3277,-14.9574
-539,-349,-26.389,15.7954,0.00355074,0.000361429,0.001313,0.00402172,-0.00010956,0.344416,0.00271841,0.0254413,685,1373,-26.389,-15.7954
-532,-349,-26.4387,16.6752,0.00416212,1.53161e-05,0.00144372,0.00461524,-0.000437807,0.304121,0.00323266,0.0185696,692,1373,-26.4387,-16.6752
-525,-349,-26.4384,17.5122,0.00503249,-0.000245244,0.00165206,0.00550697,-0.000719722,0.279676,0.00393323,0.0150483,699,1373,-26.4384,-17.5122
-518,-349,-26.4261,18.3474,0.00619603,-0.000215939,0.00196198,0.00674873,-0.000768637,0.274589,0.00477603,0.0272549,706,1373,-26.4262,-18.3474
-511,-349,-26.376,19.1963,0,0,0,0,0,0,0,-1,713,1373,-26.376,-19.1963
-504,-349,-9.60516,7.88831,0,0,0,0,0,0,0,-1,720,1373,-9.60519,-7.88825
-497,-349,-7.9339,5.58789,0,0,0,0,0,0,0,-1,727,1373,-7.93388,-5.58785
-490,-349,-8.73969,-0.503784,0,0,0,0,0,0,0,-1,734,1373,-8.73966,0.503752
-483,-349,-5.66974,3.7395,0,0,0,0,0,0,0,-1,741,1373,-5.66975,-3.73949
-476,-349,-10.8496,1.15759,0,0,0,0,0,0,0,-1,748,1373,-10.8496,-1.15756
-469,-349,-12.3314,-1.74878,0,0,0,0,0,0,0,-1,755,1373,-12.3314,1.74882
-462,-349,-12.6559,-0.995361,0,0,0,0,0,0,0,-1,762,1373,-12.656,0.995351
-455,-349,-13.2897,-0.234253,0,0,0,0,0,0,0,-1,769,1373,-13.2897,0.234261
-448,-349,-14.045,0.712891,0,0,0,0,0,0,0,-1,776,1373,-14.045,-0.712838
-441,-349,0,0,0,0,0,0,0,0,0,-1,783,1373,0,0
-434,-349,0,0,0,0,0,0,0,0,0,-1,790,1373,0,0
-427,-349,0,0,0,0,0,0,0,0,0,-1,797,1373,0,0
-420,-349,0,0,0,0,0,0,0,0,0,-1,804,1373,0,0
-413,-349,0,0,0,0,0,0,0,0,0,-1,811,1373,0,0
-406,-349,0,0,0,0,0,0,0,0,0,-1,818,1373,0,0
-399,-349,0,0,0,0,0,0,0,0,0,-1,825,1373,0,0
-392,-349,0,0,0,0,0,0,0,0,0,-1,832,1373,0,0
-385,-349,0,0,0,0,0,0,0,0,0,-1,839,1373,0,0
-378,-349,0,0,0,0,0,0,0,0,0,-1,846,1373,0,0
-371,-349,0,0,0,0,0,0,0,0,0,-1,853,1373,0,0
-364,-349,0,0,0,0,0,0,0,0,0,-1,860,1373,0,0
-357,-349,0,0,0,0,0,0,0,0,0,-1,867,1373,0,0
-350,-349,0,0,0,0,0,0,0,0,0,-1,874,1373,0,0
-343,-349,0,0,0,0,0,0,0,0,0,-1,881,1373,0,0
-336,-349,0,0,0,0,0,0,0,0,0,-1,888,1373,0,0
-329,-349,0,0,0,0,0,0,0,0,0,-1,895,1373,0,0
-322,-349,0,0,0,0,0,0,0,0,0,-1,902,1373,0,0
-315,-349,0,0,0,0,0,0,0,0,0,-1,909,1373,0,0
-308,-349,0,0,0,0,0,0,0,0,0,-1,916,1373,0,0
-301,-349,0,0,0,0,0,0,0,0,0,-1,923,1373,0,0
-294,-349,0,0,0,0,0,0,0,0,0,-1,930,1373,0,0
-287,-349,0,0,0,0,0,0,0,0,0,-1,937,1373,0,0
-280,-349,0,0,0,0,0,0,0,0,0,-1,944,1373,0,0
-273,-349,0,0,0,0,0,0,0,0,0,-1,951,1373,0,0
-266,-349,0,0,0,0,0,0,0,0,0,-1,958,1373,0,0
-259,-349,0,0,0,0,0,0,0,0,0,-1,965,1373,0,0
-252,-349,0,0,0,0,0,0,0,0,0,-1,972,1373,0,0
-245,-349,0,0,0,0,0,0,0,0,0,-1,979,1373,0,0
-238,-349,0,0,0,0,0,0,0,0,0,-1,986,1373,0,0
-231,-349,0,0,0,0,0,0,0,0,0,-1,993,1373,0,0
-224,-349,0,0,0,0,0,0,0,0,0,-1,1000,1373,0,0
-217,-349,0,0,0,0,0,0,0,0,0,-1,1007,1373,0,0
-210,-349,0,0,0,0,0,0,0,0,0,-1,1014,1373,0,0
-203,-349,0,0,0,0,0,0,0,0,0,-1,1021,1373,0,0
-196,-349,0,0,0,0,0,0,0,0,0,-1,1028,1373,0,0
-189,-349,0,0,0,0,0,0,0,0,0,-1,1035,1373,0,0
-182,-349,0,0,0,0,0,0,0,0,0,-1,1042,1373,0,0
-175,-349,0,0,0,0,0,0,0,0,0,-1,1049,1373,0,0
-168,-349,0,0,0,0,0,0,0,0,0,-1,1056,1373,0,0
-161,-349,0,0,0,0,0,0,0,0,0,-1,1063,1373,0,0
-154,-349,0,0,0,0,0,0,0,0,0,-1,1070,1373,0,0
-147,-349,0,0,0,0,0,0,0,0,0,-1,1077,1373,0,0
-140,-349,0,0,0,0,0,0,0,0,0,-1,1084,1373,0,0
-133,-349,0,0,0,0,0,0,0,0,0,-1,1091,1373,0,0
-126,-349,0,0,0,0,0,0,0,0,0,-1,1098,1373,0,0
-119,-349,0,0,0,0,0,0,0,0,0,-1,1105,1373,0,0
-112,-349,0,0,0,0,0,0,0,0,0,-1,1112,1373,0,0
-105,-349,0,0,0,0,0,0,0,0,0,-1,1119,1373,0,0
-98,-349,0,0,0,0,0,0,0,0,0,-1,1126,1373,0,0
-91,-349,0,0,0,0,0,0,0,0,0,-1,1133,1373,0,0
-84,-349,0,0,0,0,0,0,0,0,0,-1,1140,1373,0,0
-77,-349,0,0,0,0,0,0,0,0,0,-1,1147,1373,0,0
-70,-349,0,0,0,0,0,0,0,0,0,-1,1154,1373,0,0
-63,-349,0,0,0,0,0,0,0,0,0,-1,1161,1373,0,0
-56,-349,0,0,0,0,0,0,0,0,0,-1,1168,1373,0,0
-49,-349,0,0,0,0,0,0,0,0,0,-1,1175,1373,0,0
-42,-349,0,0,0,0,0,0,0,0,0,-1,1182,1373,0,0
-35,-349,0,0,0,0,0,0,0,0,0,-1,1189,1373,0,0
-28,-349,0,0,0,0,0,0,0,0,0,-1,1196,1373,0,0
-21,-349,0,0,0,0,0,0,0,0,0,-1,1203,1373,0,0
-14,-349,0,0,0,0,0,0,0,0,0,-1,1210,1373,0,0
-7,-349,0,0,0,0,0,0,0,0,0,-1,1217,1373,0,0
0,-349,0,0,0,0,0,0,0,0,0,-1,1224,1373,0,0
7,-349,0,0,0,0,0,0,0,0,0,-1,1231,1373,0,0
14,-349,0,0,0,0,0,0,0,0,0,-1,1238,1373,0,0
21,-349,0,0,0,0,0,0,0,0,0,-1,1245,1373,0,0
28,-349,0,0,0,0,0,0,0,0,0,-1,1252,1373,0,0
35,-349,0,0,0,0,0,0,0,0,0,-1,1259,1373,0,0
42,-349,0,0,0,0,0,0,0,0,0,-1,1266,1373,0,0
49,-349,0,0,0,0,0,0,0,0,0,-1,1273,1373,0,0
56,-349,0,0,0,0,0,0,0,0,0,-1,1280,1373,0,0
63,-349,0,0,0,0,0,0,0,0,0,-1,1287,1373,0,0
70,-349,0,0,0,0,0,0,0,0,0,-1,1294,1373,0,0
77,-349,0,0,0,0,0,0,0,0,0,-1,1301,1373,0,0
84,-349,0,0,0,0,0,0,0,0,0,-1,1308,1373,0,0
91,-349,0,0,0,0,0,0,0,0,0,-1,1315,1373,0,0
98,-349,0,0,0,0,0,0,0,0,0,-1,1322,1373,0,0
105,-349,0,0,0,0,0,0,0,0,0,-1,1329,1373,0,0
112,-349,0,0,0,0,0,0,0,0,0,-1,1336,1373,0,0
119,-349,0,0,0,0,0,0,0,0,0,-1,1343,1373,0,0
126,-349,0,0,0,0,0,0,0,0,0,-1,1350,1373,0,0
133,-349,0,0,0,0,0,0,0,0,0,-1,1357,1373,0,0
140,-349,0,0,0,0,0,0,0,0,0,-1,1364,1373,0,0
147,-349,0,0,0,0,0,0,0,0,0,-1,1371,1373,0,0
154,-349,0,0,0,0,0,0,0,0,0,-1,1378,1373,0,0
161,-349,0,0,0,0,0,0,0,0,0,-1,1385,1373,0,0
168,-349,0,0,0,0,0,0,0,0,0,-1,1392,1373,0,0
175,-349,0,0,0,0,0,0,0,0,0,-1,1399,1373,0,0
182,-349,0,0,0,0,0,0,0,0,0,-1,1406,1373,0,0
189,-349,0,0,0,0,0,0,0,0,0,-1,1413,1373,0,0
196,-349,0,0,0,0,0,0,0,0,0,-1,1420,1373,0,0
203,-349,0,0,0,0,0,0,0,0,0,-1,1427,1373,0,0
210,-349,0,0,0,0,0,0,0,0,0,-1,1434,1373,0,0
217,-349,0,0,0,0,0,0,0,0,0,-1,1441,1373,0,0
224,-349,0,0,0,0,0,0,0,0,0,-1,1448,1373,0,0
231,-349,0,0,0,0,0,0,0,0,0,-1,1455,1373,0,0
238,-349,0,0,0,0,0,0,0,0,0,-1,1462,1373,0,0
245,-349,0,0,0,0,0,0,0,0,0,-1,1469,1373,0,0
252,-349,0,0,0,0,0,0,0,0,0,-1,1476,1373,0,0
259,-349,0,0,0,0,0,0,0,0,0,-1,1483,1373,0,0
266,-349,0,0,0,0,0,0,0,0,0,-1,1490,1373,0,0
273,-349,0,0,0,0,0,0,0,0,0,-1,1497,1373,0,0
280,-349,0,0,0,0,0,0,0,0,0,-1,1504,1373,0,0
287,-349,0,0,0,0,0,0,0,0,0,-1,1511,1373,0,0
294,-349,0,0,0,0,0,0,0,0,0,-1,1518,1373,0,0
301,-349,0,0,0,0,0,0,0,0,0,-1,1525,1373,0,0
308,-349,0,0,0,0,0,0,0,0,0,-1,1532,1373,0,0
315,-349,0,0,0,0,0,0,0,0,0,-1,1539,1373,0,0
322,-349,0,0,0,0,0,0,0,0,0,-1,1546,1373,0,0
329,-349,0,0,0,0,0,0,0,0,0,-1,1553,1373,0,0
336,-349,0,0,0,0,0,0,0,0,0,-1,1560,1373,0,0
343,-349,0,0,0,0,0,0,0,0,0,-1,1567,1373,0,0
350,-349,0,0,0,0,0,0,0,0,0,-1,1574,1373,0,0
357,-349,0,0,0,0,0,0,0,0,0,-1,1581,1373,0,0
364,-349,0,0,0,0,0,0,0,0,0,-1,1588,1373,0,0
371,-349,0,0,0,0,0,0,0,0,0,-1,1595,1373,0,0
378,-349,0,0,0,0,0,0,0,0,0,-1,1602,1373,0,0
385,-349,0,0,0,0,0,0,0,0,0,-1,1609,1373,0,0
392,-349,0,0,0,0,0,0,0,0,0,-1,1616,1373,0,0
399,-349,0,0,0,0,0,0,0,0,0,-1,1623,1373,0,0
406,-349,0,0,0,0,0,0,0,0,0,-1,1630,1373,0,0
413,-349,0,0,0,0,0,0,0,0,0,-1,1637,1373,0,0
420,-349,0,0,0,0,0,0,0,0,0,-1,1644,1373,0,0
427,-349,0,0,0,0,0,0,0,0,0,-1,1651,1373,0,0
434,-349,0,0,0,0,0,0,0,0,0,-1,1658,1373,0,0
441,-349,0,0,0,0,0,0,0,0,0,-1,1665,1373,0,0
448,-349,0,0,0,0,0,0,0,0,0,-1,1672,1373,0,0
455,-349,0,0,0,0,0,0,0,0,0,-1,1679,1373,0,0
462,-349,0,0,0,0,0,0,0,0,0,-1,1686,1373,0,0
469,-349,0,0,0,0,0,0,0,0,0,-1,1693,1373,0,0
476,-349,0,0,0,0,0,0,0,0,0,-1,1700,1373,0,0
483,-349,0,0,0,0,0,0,0,0,0,-1,1707,1373,0,0
490,-349,0,0,0,0,0,0,0,0,0,-1,1714,1373,0,0
497,-349,0,0,0,0,0,0,0,0,0,-1,1721,1373,0,0
504,-349,0,0,0,0,0,0,0,0,0,-1,1728,1373,0,0
511,-349,0,0,0,0,0,0,0,0,0,-1,1735,1373,0,0
518,-349,0,0,0,0,0,0,0,0,0,-1,1742,1373,0,0
525,-349,0,0,0,0,0,0,0,0,0,-1,1749,1373,0,0
532,-349,0,0,0,0,0,0,0,0,0,-1,1756,1373,0,0
539,-349,0,0,0,0,0,0,0,0,0,-1,1763,1373,0,0
546,-349,0,0,0,0,0,0,0,0,0,-1,1770,1373,0,0
553,-349,0,0,0,0,0,0,0,0,0,-1,1777,1373,0,0
560,-349,63.5519,3.94397,0,0,0,0,0,0,0,-1,1784,1373,63.5519,-3.94394
567,-349,64.7863,2.54688,0,0,0,0,0,0,0,-1,1791,1373,64.7863,-2.5469
574,-349,65.8214,1.63818,0,0,0,0,0,0,0,-1,1798,1373,65.8214,-1.63813
581,-349,42.8947,6.78381,0,0,0,0,0,0,0,-1,1805,1373,42.8946,-6.78376
588,-349,44.8121,5.06213,0,0,0,0,0,0,0,-1,1812,1373,44.8121,-5.06215
595,-349,44.4338,6.14099,0,0,0,0,0,0,0,-1,1819,1373,44.4338,-6.14095
602,-349,35.6641,3.26465,0,0,0,0,0,0,0,-1,1826,1373,35.6641,-3.26468
609,-349,34.7175,4.401,0,0,0,0,0,0,0,-1,1833,1373,34.7175,-4.40096
616,-349,27.1451,6.68274,0,0,0,0,0,0,0,-1,1840,1373,27.1451,-6.6828
623,-349,18.8478,2.75769,0,0,0,0,0,0,0,-1,1847,1373,18.8478,-2.75774
630,-349,15.4948,6.47644,0,0,0,0,0,0,0,-1,1854,1373,15.4947,-6.4765
637,-349,16.5161,6.92639,0,0,0,0,0,0,0,-1,1861,1373,16.5161,-6.92636
644,-349,44.0469,19.7683,0,0,0,0,0,0,0,-1,1868,1373,44.0469,-19.7683
651,-349,44.0376,18.933,-0.00129281,0.0019662,-0.000869642,0.00218374,-0.00151035,-1.32568,0.00214456,0.0499427,1875,1373,44.0375,-18.9329
658,-349,43.7814,18.1364,-0.000562687,0.00125358,-0.000535068,0.00139949,-0.000708595,-1.30458,0.0012387,0.0275987,1882,1373,43.7814,-18.1363
665,-349,43.7543,17.3247,0.000204495,0.000632214,-0.00036659,0.000842765,-6.05595e-06,-1.04945,0.000563873,0.0214643,1889,1373,43.7542,-17.3246
672,-349,43.748,16.5616,0.000968055,0.000167569,-0.000274792,0.00105331,8.23171e-05,-0.300826,0.000676437,0.0154817,1896,1373,43.7481,-16.5616
679,-349,43.7168,15.8223,0.00172369,-0.000244972,-0.000216401,0.00174719,-0.000268479,-0.108202,0.00126383,0.016061,1903,1373,43.7168,-15.8223
686,-349,43.738,15.0537,0.00245247,-0.000624455,-0.000174626,0.00246235,-0.000634334,-0.0565116,0.00188885,0.0180786,1910,1373,43.738,-15.0538
693,-349,43.6636,14.2886,0.00319942,-0.000940338,-0.000181221,0.00320734,-0.000948256,-0.0436643,0.00251463,0.0202322,1917,1373,43.6636,-14.2885
700,-349,43.6069,13.558,0.00395698,-0.0012128,-0.000221714,0.00396647,-0.00122229,-0.0427818,0.00313227,0.0173446,1924,1373,43.6069,-13.5579
707,-349,43.656,12.7407,0.00442036,-0.00140366,-0.000178483,0.00442583,-0.00140912,-0.0306078,0.00351569,0.0365342,1931,1373,43.6561,-12.7407
714,-349,43.7526,11.8013,0,0,0,0,0,0,0,-1,1938,1373,43.7526,-11.8013
721,-349,19.6688,5.93604,0,0,0,0,0,0,0,-1,1945,1373,19.6688,-5.93606
728,-349,18.6333,3.73218,0,0,0,0,0,0,0,-1,1952,1373,18.6333,-3.73214
735,-349,18.1918,3.39954,0,0,0,0,0,0,0,-1,1959,1373,18.1918,-3.3995
742,-349,20.7345,2.07483,0,0,0,0,0,0,0,-1,1966,1373,20.7345,-2.07485
749,-349,21.9037,1.45789,0,0,0,0,0,0,0,-1,1973,1373,21.9037,-1.45788
756,-349,0,0,0,0,0,0,0,0,0,-1,1980,1373,0,0
763,-349,0,0,0,0,0,0,0,0,0,-1,1987,1373,0,0
770,-349,0,0,0,0,0,0,0,0,0,-1,1994,1373,0,0
777,-349,0,0,0,0,0,0,0,0,0,-1,2001,1373,0,0
784,-349,0,0,0,0,0,0,0,0,0,-1,2008,1373,0,0
791,-349,0,0,0,0,0,0,0,0,0,-1,2015,1373,0,0
798,-349,0,0,0,0,0,0,0,0,0,-1,2022,1373,0,0
805,-349,0,0,0,0,0,0,0,0,0,-1,2029,1373,0,0
812,-349,0,0,0,0,0,0,0,0,0,-1,2036,1373,0,0
-700,-356,0,0,0,0,0,0,0,0,0,-1,524,1380,0,0
-693,-356,0,0,0,0,0,0,0,0,0,-1,531,1380,0,0
-686,-356,0,0,0,0,0,0,0,0,0,-1,538,1380,0,0
-679,-356,0,0,0,0,0,0,0,0,0,-1,545,1380,0,0
-672,-356,0,0,0,0,0,0,0,0,0,-1,552,1380,0,0
-665,-356,0,0,0,0,0,0,0,0,0,-1,559,1380,0,0
-658,-356,0,0,0,0,0,0,0,0,0,-1,566,1380,0,0
-651,-356,0,0,0,0,0,0,0,0,0,-1,573,1380,0,0
-644,-356,0,0,0,0,0,0,0,0,0,-1,580,1380,0,0
-637,-356,0,0,0,0,0,0,0,0,0,-1,587,1380,0,0
-630,-356,-8.23126,-5.01917,0,0,0,0,0,0,0,-1,594,1380,-8.23124,5.0192
-623,-356,-0.263855,-0.675781,0,0,0,0,0,0,0,-1,601,1380,-0.263835,0.675841
-616,-356,-8.26532,-3.43945,0,0,0,0,0,0,0,-1,608,1380,-8.2653,3.43948
-609,-356,-4.88483,0.734497,0,0,0,0,0,0,0,-1,615,1380,-4.88485,-0.734532
-602,-356,-9.06635,2.4021,0,0,0,0,0,0,0,-1,622,1380,-9.06634,-2.40206
-595,-356,-8.45703,3.61853,0,0,0,0,0,0,0,-1,629,1380,-8.45706,-3.61848
-588,-356,-9.31738,4.14258,0,0,0,0,0,0,0,-1,636,1380,-9.31736,-4.14255
-581,-356,-16.5185,7.32312,0,0,0,0,0,0,0,-1,643,1380,-16.5185,-7.32306
-574,-356,-25.2784,11.9153,0,0,0,0,0,0,0,-1,650,1380,-25.2784,-11.9153
-567,-356,-25.4636,12.5978,0.00445977,0.00339216,0.00233614,0.00632232,0.00152961,0.673078,0.0038088,0.0251972,657,1380,-25.4636,-12.5978
-560,-356,-25.4056,13.5085,0.00370426,0.00243682,0.00189881,0.00507231,0.00106877,0.624337,0.00308757,0.0187786,664,1380,-25.4056,-13.5085
-553,-356,-25.4402,14.2914,0.00329938,0.00165915,0.00157757,0.00425728,0.000701258,0.545695,0.00263571,0.0222329,671,1380,-25.4403,-14.2914
-546,-356,-25.5177,15.0586,0.00315929,0.00101681,0.00135817,0.00381785,0.000358261,0.451481,0.00243461,0.0244908,678,1380,-25.5177,-15.0586
-539,-356,-25.5712,15.8793,0.00328107,0.000503777,0.00124395,0.00375675,2.80894e-05,0.365244,0.00249519,0.0169531,685,1380,-25.5712,-15.8793
-532,-356,-25.67,16.7336,0.00365837,0.000148121,0.00125788,0.00406258,-0.000256089,0.31092,0.00279766,0.0165487,692,1380,-25.67,-16.7337
-525,-356,-25.678,17.5393,0.00426994,-9.29786e-05,0.00136736,0.00466306,-0.000486094,0.27995,0.00328275,0.0141573,699,1380,-25.6781,-17.5393
-518,-356,-25.671,18.3439,0.00514697,-8.42427e-05,0.0016042,0.00559973,-0.000537,0.275077,0.00392442,0.0150301,706,1380,-25.671,-18.3439
-511,-356,-25.6832,19.16,0,0,0,0,0,0,0,-1,713,1380,-25.6831,-19.1601
-504,-356,-14.3925,12.3971,0,0,0,0,0,0,0,-1,720,1380,-14.3925,-12.3971
-497,-356,-5.68604,4.96387,0,0,0,0,0,0,0,-1,727,1380,-5.68605,-4.96385
-490,-356,-7.95288,5.5625,0,0,0,0,0,0,0,-1,734,1380,-7.95285,-5.56246
-483,-356,-7.2627,4.07446,0,0,0,0,0,0,0,-1,741,1380,-7.2627,-4.07441
-476,-356,-5.1936,4.16016,0,0,0,0,0,0,0,-1,748,1380,-5.1936,-4.16012
-469,-356,-10.0883,0.536011,0,0,0,0,0,0,0,-1,755,1380,-10.0883,-0.535989
-462,-356,-12.3481,-0.215698,0,0,0,0,0,0,0,-1,762,1380,-12.3481,0.215641
-455,-356,-13.1367,-0.264648,0,0,0,0,0,0,0,-1,769,1380,-13.1367,0.264647
-448,-356,-13.9116,-0.310181,0,0,0,0,0,0,0,-1,776,1380,-13.9115,0.310207
-441,-356,-13.1602,3.05603,0,0,0,0,0,0,0,-1,783,1380,-13.1602,-3.05609
-434,-356,0,0,0,0,0,0,0,0,0,-1,790,1380,0,0
-427,-356,0,0,0,0,0,0,0,0,0,-1,797,1380,0,0
-420,-356,0,0,0,0,0,0,0,0,0,-1,804,1380,0,0
-413,-356,0,0,0,0,0,0,0,0,0,-1,811,1380,0,0
-406,-356,0,0,0,0,0,0,0,0,0,-1,818,1380,0,0
-399,-356,0,0,0,0,0,0,0,0,0,-1,825,1380,0,0
-392,-356,0,0,0,0,0,0,0,0,0,-1,832,1380,0,0
-385,-356,0,0,0,0,0,0,0,0,0,-1,839,1380,0,0
-378,-356,0,0,0,0,0,0,0,0,0,-1,846,1380,0,0
-371,-356,0,0,0,0,0,0,0,0,0,-1,853,1380,0,0
-364,-356,0,0,0,0,0,0,0,0,0,-1,860,1380,0,0
-357,-356,0,0,0,0,0,0,0,0,0,-1,867,1380,0,0
-350,-356,0,0,0,0,0,0,0,0,0,-1,874,1380,0,0
-343,-356,0,0,0,0,0,0,0,0,0,-1,881,1380,0,0
-336,-356,0,0,0,0,0,0,0,0,0,-1,888,1380,0,0
-329,-356,0,0,0,0,0,0,0,0,0,-1,895,1380,0,0
-322,-356,0,0,0,0,0,0,0,0,0,-1,902,1380,0,0
-315,-356,0,0,0,0,0,0,0,0,0,-1,909,1380,0,0
-308,-356,0,0,0,0,0,0,0,0,0,-1,916,1380,0,0
-301,-356,0,0,0,0,0,0,0,0,0,-1,923,1380,0,0
-294,-356,0,0,0,0,0,0,0,0,0,-1,930,1380,0,0
-287,-356,0,0,0,0,0,0,0,0,0,-1,937,1380,0,0
-280,-356,0,0,0,0,0,0,0,0,0,-1,944,1380,0,0
-273,-356,0,0,0,0,0,0,0,0,0,-1,951,1380,0,0
-266,-356,0,0,0,0,0,0,0,0,0,-1,958,1380,0,0
-259,-356,0,0,0,0,0,0,0,0,0,-1,965,1380,0,0
-252,-356,0,0,0,0,0,0,0,0,0,-1,972,1380,0,0
-245,-356,0,0,0,0,0,0,0,0,0,-1,979,1380,0,0
-238,-356,0,0,0,0,0,0,0,0,0,-1,986,1380,0,0
-231,-356,0,0,0,0,0,0,0,0,0,-1,993,1380,0,0
-224,-356,0,0,0,0,0,0,0,0,0,-1,1000,1380,0,0
-217,-356,0,0,0,0,0,0,0,0,0,-1,1007,1380,0,0
-210,-356,0,0,0,0,0,0,0,0,0,-1,1014,1380,0,0
-203,-356,0,0,0,0,0,0,0,0,0,-1,1021,1380,0,0
-196,-356,0,0,0,0,0,0,0,0,0,-1,1028,1380,0,0
-189,-356,0,0,0,0,0,0,0,0,0,-1,1035,1380,0,0
-182,-356,0,0,0,0,0,0,0,0,0,-1,1042,1380,0,0
-175,-356,0,0,0,0,0,0,0,0,0,-1,1049,1380,0,0
-168,-356,0,0,0,0,0,0,0,0,0,-1,1056,1380,0,0
-161,-356,0,0,0,0,0,0,0,0,0,-1,1063,1380,0,0
-154,-356,0,0,0,0,0,0,0,0,0,-1,1070,1380,0,0
-147,-356,0,0,0,0,0,0,0,0,0,-1,1077,1380,0,0
-140,-356,0,0,0,0,0,0,0,0,0,-1,1084,1380,0,0
-133,-356,0,0,0,0,0,0,0,0,0,-1,1091,1380,0,0
-126,-356,0,0,0,0,0,0,0,0,0,-1,1098,1380,0,0
-119,-356,0,0,0,0,0,0,0,0,0,-1,1105,1380,0,0
-112,-356,0,0,0,0,0,0,0,0,0,-1,1112,1380,0,0
-105,-356,0,0,0,0,0,0,0,0,0,-1,1119,1380,0,0
-98,-356,0,0,0,0,0,0,0,0,0,-1,1126,1380,0,0
-91,-356,0,0,0,0,0,0,0,0,0,-1,1133,1380,0,0
-84,-356,0,0,0,0,0,0,0,0,0,-1,1140,1380,0,0
-77,-356,0,0,0,0,0,0,0,0,0,-1,1147,1380,0,0
-70,-356,0,0,0,0,0,0,0,0,0,-1,1154,1380,0,0
-63,-356,0,0,0,0,0,0,0,0,0,-1,1161,1380,0,0
-56,-356,0,0,0,0,0,0,0,0,0,-1,1168,1380,0,0
-49,-356,0,0,0,0,0,0,0,0,0,-1,1175,1380,0,0
-42,-356,0,0,0,0,0,0,0,0,0,-1,1182,1380,0,0
-35,-356,0,0,0,0,0,0,0,0,0,-1,1189,1380,0,0
-28,-356,0,0,0,0,0,0,0,0,0,-1,1196,1380,0,0
-21,-356,0,0,0,0,0,0,0,0,0,-1,1203,1380,0,0
-14,-356,0,0,0,0,0,0,0,0,0,-1,1210,1380,0,0
-7,-356,0,0,0,0,0,0,0,0,0,-1,1217,1380,0,0
0,-356,0,0,0,0,0,0,0,0,0,-1,1224,1380,0,0
7,-356,0,0,0,0,0,0,0,0,0,-1,1231,1380,0,0
14,-356,0,0,0,0,0,0,0,0,0,-1,1238,1380,0,0
21,-356,0,0,0,0,0,0,0,0,0,-1,1245,1380,0,0
28,-356,0,0,0,0,0,0,0,0,0,-1,1252,1380,0,0
35,-356,0,0,0,0,0,0,0,0,0,-1,1259,1380,0,0
42,-356,0,0,0,0,0,0,0,0,0,-1,1266,1380,0,0
49,-356,0,0,0,0,0,0,0,0,0,-1,1273,1380,0,0
56,-356,0,0,0,0,0,0,0,0,0,-1,1280,1380,0,0
63,-356,0,0,0,0,0,0,0,0,0,-1,1287,1380,0,0
70,-356,0,0,0,0,0,0,0,0,0,-1,1294,1380,0,0
77,-356,0,0,0,0,0,0,0,0,0,-1,1301,1380,0,0
84,-356,0,0,0,0,0,0,0,0,0,-1,1308,1380,0,0
91,-356,0,0,0,0,0,0,0,0,0,-1,1315,1380,0,0
98,-356,0,0,0,0,0,0,0,0,0,-1,1322,1380,0,0
105,-356,0,0,0,0,0,0,0,0,0,-1,1329,1380,0,0
112,-356,0,0,0,0,0,0,0,0,0,-1,1336,1380,0,0
119,-356,0,0,0,0,0,0,0,0,0,-1,1343,1380,0,0
126,-356,0,0,0,0,0,0,0,0,0,-1,1350,1380,0,0
133,-356,0,0,0,0,0,0,0,0,0,-1,1357,1380,0,0
140,-356,0,0,0,0,0,0,0,0,0,-1,1364,1380,0,0
147,-356,0,0,0,0,0,0,0,0,0,-1,1371,1380,0,0
154,-356,0,0,0,0,0,0,0,0,0,-1,1378,1380,0,0
161,-356,0,0,0,0,0,0,0,0,0,-1,1385,1380,0,0
168,-356,0,0,0,0,0,0,0,0,0,-1,1392,1380,0,0
175,-356,0,0,0,0,0,0,0,0,0,-1,1399,1380,0,0
182,-356,0,0,0,0,0,0,0,0,0,-1,1406,1380,0,0
189,-356,0,0,0,0,0,0,0,0,0,-1,1413,1380,0,0
196,-356,0,0,0,0,0,0,0,0,0,-1,1420,1380,0,0
203,-356,0,0,0,0,0,0,0,0,0,-1,1427,1380,0,0
210,-356,0,0,0,0,0,0,0,0,0,-1,1434,1380,0,0
217,-356,0,0,0,0,0,0,0,0,0,-1,1441,1380,0,0
224,-356,0,0,0,0,0,0,0,0,0,-1,1448,1380,0,0
231,-356,0,0,0,0,0,0,0,0,0,-1,1455,1380,0,0
238,-356,0,0,0,0,0,0,0,0,0,-1,1462,1380,0,0
245,-356,0,0,0,0,0,0,0,0,0,-1,1469,1380,0,0
252,-356,0,0,0,0,0,0,0,0,0,-1,1476,1380,0,0
259,-356,0,0,0,0,0,0,0,0,0,-1,1483,1380,0,0
266,-356,0,0,0,0,0,0,0,0,0,-1,1490,1380,0,0
273,-356,0,0,0,0,0,0,0,0,0,-1,1497,1380,0,0
280,-356,0,0,0,0,0,0,0,0,0,-1,1504,1380,0,0
287,-356,0,0,0,0,0,0,0,0,0,-1,1511,1380,0,0
294,-356,0,0,0,0,0,0,0,0,0,-1,1518,1380,0,0
301,-356,0,0,0,0,0,0,0,0,0,-1,1525,1380,0,0
308,-356,0,0,0,0,0,0,0,0,0,-1,1532,1380,0,0
315,-356,0,0,0,0,0,0,0,0,0,-1,1539,1380,0,0
322,-356,0,0,0,0,0,0,0,0,0,-1,1546,1380,0,0
329,-356,0,0,0,0,0,0,0,0,0,-1,1553,1380,0,0
336,-356,0,0,0,0,0,0,0,0,0,-1,1560,1380,0,0
343,-356,0,0,0,0,0,0,0,0,0,-1,1567,1380,0,0
350,-356,0,0,0,0,0,0,0,0,0,-1,1574,1380,0,0
357,-356,0,0,0,0,0,0,0,0,0,-1,1581,1380,0,0
364,-356,0,0,0,0,0,0,0,0,0,-1,1588,1380,0,0
371,-356,0,0,0,0,0,0,0,0,0,-1,1595,1380,0,0
378,-356,0,0,0,0,0,0,0,0,0,-1,1602,1380,0,0
385,-356,0,0,0,0,0,0,0,0,0,-1,1609,1380,0,0
392,-356,0,0,0,0,0,0,0,0,0,-1,1616,1380,0,0
399,-356,0,0,0,0,0,0,0,0,0,-1,1623,1380,0,0
406,-356,0,0,0,0,0,0,0,0,0,-1,1630,1380,0,0
413,-356,0,0,0,0,0,0,0,0,0,-1,1637,1380,0,0
420,-356,0,0,0,0,0,0,0,0,0,-1,1644,1380,0,0
427,-356,0,0,0,0,0,0,0,0,0,-1,1651,1380,0,0
434,-356,0,0,0,0,0,0,0,0,0,-1,1658,1380,0,0
441,-356,0,0,0,0,0,0,0,0,0,-1,1665,1380,0,0
448,-356,0,0,0,0,0,0,0,0,0,-1,1672,1380,0,0
455,-356,0,0,0,0,0,0,0,0,0,-1,1679,1380,0,0
462,-356,0,0,0,0,0,0,0,0,0,-1,1686,1380,0,0
469,-356,0,0,0,0,0,0,0,0,0,-1,1693,1380,0,0
476,-356,0,0,0,0,0,0,0,0,0,-1,1700,1380,0,0
483,-356,0,0,0,0,0,0,0,0,0,-1,1707,1380,0,0
490,-356,0,0,0,0,0,0,0,0,0,-1,1714,1380,0,0
497,-356,0,0,0,0,0,0,0,0,0,-1,1721,1380,0,0
504,-356,0,0,0,0,0,0,0,0,0,-1,1728,1380,0,0
511,-356,0,0,0,0,0,0,0,0,0,-1,1735,1380,0,0
518,-356,0,0,0,0,0,0,0,0,0,-1,1742,1380,0,0
525,-356,0,0,0,0,0,0,0,0,0,-1,1749,1380,0,0
532,-356,0,0,0,0,0,0,0,0,0,-1,1756,1380,0,0
539,-356,0,0,0,0,0,0,0,0,0,-1,1763,1380,0,0
546,-356,0,0,0,0,0,0,0,0,0,-1,1770,1380,0,0
553,-356,0,0,0,0,0,0,0,0,0,-1,1777,1380,0,0
560,-356,63.6171,3.12183,0,0,0,0,0,0,0,-1,1784,1380,63.617,-3.12183
567,-356,65.0425,1.89966,0,0,0,0,0,0,0,-1,1791,1380,65.0424,-1.8996
574,-356,45.5742,3.39575,0,0,0,0,0,0,0,-1,1798,1380,45.5742,-3.39574
581,-356,45.6708,3.64172,0,0,0,0,0,0,0,-1,1805,1380,45.6707,-3.64175
588,-356,44.4739,4.87085,0,0,0,0,0,0,0,-1,1812,1380,44.4739,-4.87086
595,-356,32.0834,5.86084,0,0,0,0,0,0,0,-1,1819,1380,32.0834,-5.86079
602,-356,30.1604,6.07104,0,0,0,0,0,0,0,-1,1826,1380,30.1604,-6.07104
609,-356,28.3435,6.48901,0,0,0,0,0,0,0,-1,1833,1380,28.3435,-6.48899
616,-356,26.9358,6.80872,0,0,0,0,0,0,0,-1,1840,1380,26.9358,-6.80877
623,-356,16.1803,1.07532,0,0,0,0,0,0,0,-1,1847,1380,16.1803,-1.07529
630,-356,16.4138,6.91553,0,0,0,0,0,0,0,-1,1854,1380,16.4138,-6.9155
637,-356,24.8021,12.0151,0,0,0,0,0,0,0,-1,1861,1380,24.8022,-12.0151
644,-356,43.1969,19.7815,0,0,0,0,0,0,0,-1,1868,1380,43.1969,-19.7814
651,-356,43.1578,18.9318,-0.00130798,0.00174034,-0.000658326,0.00187644,-0.00144408,-1.36693,0.00192251,0.0216188,1875,1380,43.1579,-18.9317
658,-356,43.0538,18.1316,-0.000485239,0.00107341,-0.000393612,0.00116717,-0.000578999,-1.33695,0.00102704,0.0157856,1882,1380,43.0539,-18.1315
665,-356,43.0048,17.37,0.000396311,0.000468022,-0.000258852,0.00069349,0.000170843,-0.854218,0.000417207,0.0154144,1889,1380,43.0048,-17.37
672,-356,42.9681,16.6234,0.00130567,-3.99771e-05,-0.000183552,0.00133026,-6.45653e-05,-0.133164,0.000909124,0.0154037,1896,1380,42.9682,-16.6235
679,-356,42.9587,15.855,0.00224996,-0.000520934,-0.000151504,0.00225822,-0.000529193,-0.0544604,0.00170941,0.0175721,1903,1380,42.9587,-15.855
686,-356,42.9202,15.066,0.00325172,-0.00093374,-0.000186999,0.00326006,-0.000942078,-0.0445599,0.00254617,0.0194996,1910,1380,42.9202,-15.0661
693,-356,42.8901,14.3453,0.00430459,-0.00128394,-0.000285048,0.0043191,-0.00129844,-0.0508301,0.00339599,0.0172694,1917,1380,42.8901,-14.3454
700,-356,42.8881,13.5973,0.00548057,-0.00154091,-0.000488353,0.00551437,-0.00157471,-0.0691079,0.0042984,0.0242862,1924,1380,42.888,-13.5973
707,-356,42.9689,12.832,0,0,0,0,0,0,0,-1,1931,1380,42.9689,-12.832
714,-356,19.6907,5.82129,0,0,0,0,0,0,0,-1,1938,1380,19.6907,-5.82132
721,-356,17.2948,4.1958,0,0,0,0,0,0,0,-1,1945,1380,17.2948,-4.19584
728,-356,19.1846,2.31519,0,0,0,0,0,0,0,-1,1952,1380,19.1846,-2.31514
735,-356,20.0731,2.50842,0,0,0,0,0,0,0,-1,1959,1380,20.0731,-2.50844
742,-356,21.0111,2.43762,0,0,0,0,0,0,0,-1,1966,1380,21.0112,-2.43762
749,-356,22.1411,1.83276,0,0,0,0,0,0,0,-1,1973,1380,22.1411,-1.83275
756,-356,0,0,0,0,0,0,0,0,0,-1,1980,1380,0,0
763,-356,0,0,0,0,0,0,0,0,0,-1,1987,1380,0,0
770,-356,0,0,0,0,0,0,0,0,0,-1,1994,1380,0,0
777,-356,0,0,0,0,0,0,0,0,0,-1,2001,1380,0,0
784,-356,0,0,0,0,0,0,0,0,0,-1,2008,1380,0,0
791,-356,0,0,0,0,0,0,0,0,0,-1,2015,1380,0,0
798,-356,0,0,0,0,0,0,0,0,0,-1,2022,1380,0,0
805,-356,0,0,0,0,0,0,0,0,0,-1,2029,1380,0,0
812,-356,0,0,0,0,0,0,0,0,0,-1,2036,1380,0,0
-700,-363,0,0,0,0,0,0,0,0,0,-1,524,1387,0,0
-693,-363,0,0,0,0,0,0,0,0,0,-1,531,1387,0,0
-686,-363,0,0,0,0,0,0,0,0,0,-1,538,1387,0,0
-679,-363,0,0,0,0,0,0,0,0,0,-1,545,1387,0,0
-672,-363,0,0,0,0,0,0,0,0,0,-1,552,1387,0,0
-665,-363,0,0,0,0,0,0,0,0,0,-1,559,1387,0,0
-658,-363,0,0,0,0,0,0,0,0,0,-1,566,1387,0,0
-651,-363,0,0,0,0,0,0,0,0,0,-1,573,1387,0,0
-644,-363,0,0,0,0,0,0,0,0,0,-1,580,1387,0,0
-637,-363,0,0,0,0,0,0,0,0,0,-1,587,1387,0,0
-630,-363,0,0,0,0,0,0,0,0,0,-1,594,1387,0,0
-623,-363,-9.67566,-5.91846,0,0,0,0,0,0,0,-1,601,1387,-9.67563,5.91847
-616,-363,-9.02985,-2.98083,0,0,0,0,0,0,0,-1,608,1387,-9.02987,2.98079
-609,-363,-4.90265,0.195679,0,0,0,0,0,0,0,-1,615,1387,-4.90263,-0.195721
-602,-363,-9.65009,3.5321,0,0,0,0,0,0,0,-1,622,1387,-9.65007,-3.53211
-595,-363,-8.00256,3.48853,0,0,0,0,0,0,0,-1,629,1387,-8.00256,-3.48855
-588,-363,-10.8846,4.49768,0,0,0,0,0,0,0,-1,636,1387,-10.8846,-4.49773
-581,-363,-11.7469,5.15161,0,0,0,0,0,0,0,-1,643,1387,-11.747,-5.15167
-574,-363,-17.8334,8.33801,0,0,0,0,0,0,0,-1,650,1387,-17.8334,-8.33804
-567,-363,-24.6612,12.6942,0,0,0,0,0,0,0,-1,657,1387,-24.6612,-12.6943
-560,-363,-24.6476,13.5308,0.00418728,0.00285285,0.00248662,0.00609465,0.000945484,0.654324,0.00378748,0.0149359,664,1387,-24.6476,-13.5308
-553,-363,-24.6522,14.3538,0.00360208,0.00197546,0.00198197,0.00493112,0.000646419,0.590698,0.00309453,0.0146271,671,1387,-24.6521,-14.3538
-546,-363,-24.7368,15.1411,0.00326944,0.0012536,0.00158921,0.0041434,0.00037963,0.502795,0.00264482,0.01454,678,1387,-24.7368,-15.1411
-539,-363,-24.7789,15.9615,0.00319168,0.000685285,0.00131649,0.00375607,0.000120888,0.405012,0.00246474,0.0154301,685,1387,-24.7789,-15.9616
-532,-363,-24.8506,16.7853,0.00336098,0.000307426,0.00119261,0.00377156,-0.000103159,0.331564,0.00254946,0.0134331,692,1387,-24.8506,-16.7853
-525,-363,-24.8688,17.5804,0.00374314,6.33576e-05,0.00118075,0.00408942,-0.000282927,0.285276,0.00282532,0.0120285,699,1387,-24.8689,-17.5805
-518,-363,-24.8682,18.3805,0.00434989,3.11972e-05,0.00130504,0.00471362,-0.000332531,0.271812,0.00325892,0.0109899,706,1387,-24.8682,-18.3805
-511,-363,-24.848,19.2021,0.0052236,0.000232137,0.00167451,0.00573331,-0.00027757,0.295481,0.00391801,0.0327745,713,1387,-24.8479,-19.2022
-504,-363,-24.7994,20.058,0,0,0,0,0,0,0,-1,720,1387,-24.7994,-20.0579
-497,-363,-7.18842,7.29944,0,0,0,0,0,0,0,-1,727,1387,-7.18839,-7.29945
-490,-363,-5.42413,4.6958,0,0,0,0,0,0,0,-1,734,1387,-5.42412,-4.69583
-483,-363,-6.28375,4.1394,0,0,0,0,0,0,0,-1,741,1387,-6.28374,-4.13944
-476,-363,-5.83807,4.31018,0,0,0,0,0,0,0,-1,748,1387,-5.8381,-4.31013
-469,-363,-10.7125,0.697754,0,0,0,0,0,0,0,-1,755,1387,-10.7125,-0.697811
-462,-363,-9.55951,-0.0830078,0,0,0,0,0,0,0,-1,762,1387,-9.55949,0.0830163
-455,-363,-13.1008,-0.290894,0,0,0,0,0,0,0,-1,769,1387,-13.1008,0.290921
-448,-363,-11.7324,2.46606,0,0,0,0,0,0,0,-1,776,1387,-11.7324,-2.46605
-441,-363,-12.4464,2.5354,0,0,0,0,0,0,0,-1,783,1387,-12.4463,-2.53537
-434,-363,-13.6918,2.14661,0,0,0,0,0,0,0,-1,790,1387,-13.6918,-2.14662
-427,-363,0,0,0,0,0,0,0,0,0,-1,797,1387,0,0
-420,-363,0,0,0,0,0,0,0,0,0,-1,804,1387,0,0
-413,-363,0,0,0,0,0,0,0,0,0,-1,811,1387,0,0
-406,-363,0,0,0,0,0,0,0,0,0,-1,818,1387,0,0
-399,-363,0,0,0,0,0,0,0,0,0,-1,825,1387,0,0
-392,-363,0,0,0,0,0,0,0,0,0,-1,832,1387,0,0
-385,-363,0,0,0,0,0,0,0,0,0,-1,839,1387,0,0
-378,-363,0,0,0,0,0,0,0,0,0,-1,846,1387,0,0
-371,-363,0,0,0,0,0,0,0,0,0,-1,853,1387,0,0
-364,-363,0,0,0,0,0,0,0,0,0,-1,860,1387,0,0
-357,-363,0,0,0,0,0,0,0,0,0,-1,867,1387,0,0
-350,-363,0,0,0,0,0,0,0,0,0,-1,874,1387,0,0
-343,-363,0,0,0,0,0,0,0,0,0,-1,881,1387,0,0
-336,-363,0,0,0,0,0,0,0,0,0,-1,888,1387,0,0
-329,-363,0,0,0,0,0,0,0,0,0,-1,895,1387,0,0
-322,-363,0,0,0,0,0,0,0,0,0,-1,902,1387,0,0
-315,-363,0,0,0,0,0,0,0,0,0,-1,909,1387,0,0
-308,-363,0,0,0,0,0,0,0,0,0,-1,916,1387,0,0
-301,-363,0,0,0,0,0,0,0,0,0,-1,923,1387,0,0
-294,-363,0,0,0,0,0,0,0,0,0,-1,930,1387,0,0
-287,-363,0,0,0,0,0,0,0,0,0,-1,937,1387,0,0
-280,-363,0,0,0,0,0,0,0,0,0,-1,944,1387,0,0
-273,-363,0,0,0,0,0,0,0,0,0,-1,951,1387,0,0
-266,-363,0,0,0,0,0,0,0,0,0,-1,958,1387,0,0
-259,-363,0,0,0,0,0,0,0,0,0,-1,965,1387,0,0
-252,-363,0,0,0,0,0,0,0,0,0,-1,972,1387,0,0
-245,-363,0,0,0,0,0,0,0,0,0,-1,979,1387,0,0
-238,-363,0,0,0,0,0,0,0,0,0,-1,986,1387,0,0
-231,-363,0,0,0,0,0,0,0,0,0,-1,993,1387,0,0
-224,-363,0,0,0,0,0,0,0,0,0,-1,1000,1387,0,0
-217,-363,0,0,0,0,0,0,0,0,0,-1,1007,1387,0,0
-210,-363,0,0,0,0,0,0,0,0,0,-1,1014,1387,0,0
-203,-363,0,0,0,0,0,0,0,0,0,-1,1021,1387,0,0
-196,-363,0,0,0,0,0,0,0,0,0,-1,1028,1387,0,0
-189,-363,0,0,0,0,0,0,0,0,0,-1,1035,1387,0,0
-182,-363,0,0,0,0,0,0,0,0,0,-1,1042,1387,0,0
-175,-363,0,0,0,0,0,0,0,0,0,-1,1049,1387,0,0
-168,-363,0,0,0,0,0,0,0,0,0,-1,1056,1387,0,0
-161,-363,0,0,0,0,0,0,0,0,0,-1,1063,1387,0,0
-154,-363,0,0,0,0,0,0,0,0,0,-1,1070,1387,0,0
-147,-363,0,0,0,0,0,0,0,0,0,-1,1077,1387,0,0
-140,-363,0,0,0,0,0,0,0,0,0,-1,1084,1387,0,0
-133,-363,0,0,0,0,0,0,0,0,0,-1,1091,1387,0,0
-126,-363,0,0,0,0,0,0,0,0,0,-1,1098,1387,0,0
-119,-363,0,0,0,0,0,0,0,0,0,-1,1105,1387,0,0
-112,-363,0,0,0,0,0,0,0,0,0,-1,1112,1387,0,0
-105,-363,0,0,0,0,0,0,0,0,0,-1,1119,1387,0,0
-98,-363,0,0,0,0,0,0,0,0,0,-1,1126,1387,0,0
-91,-363,0,0,0,0,0,0,0,0,0,-1,1133,1387,0,0
-84,-363,0,0,0,0,0,0,0,0,0,-1,1140,1387,0,0
-77,-363,0,0,0,0,0,0,0,0,0,-1,1147,1387,0,0
-70,-363,0,0,0,0,0,0,0,0,0,-1,1154,1387,0,0
-63,-363,0,0,0,0,0,0,0,0,0,-1,1161,1387,0,0
-56,-363,0,0,0,0,0,0,0,0,0,-1,1168,1387,0,0
-49,-363,0,0,0,0,0,0,0,0,0,-1,1175,1387,0,0
-42,-363,0,0,0,0,0,0,0,0,0,-1,1182,1387,0,0
-35,-363,0,0,0,0,0,0,0,0,0,-1,1189,1387,0,0
-28,-363,0,0,0,0,0,0,0,0,0,-1,1196,1387,0,0
-21,-363,0,0,0,0,0,0,0,0,0,-1,1203,1387,0,0
-14,-363,0,0,0,0,0,0,0,0,0,-1,1210,1387,0,0
-7,-363,0,0,0,0,0,0,0,0,0,-1,1217,1387,0,0
0,-363,0,0,0,0,0,0,0,0,0,-1,1224,1387,0,0
7,-363,0,0,0,0,0,0,0,0,0,-1,1231,1387,0,0
14,-363,0,0,0,0,0,0,0,0,0,-1,1238,1387,0,0
21,-363,0,0,0,0,0,0,0,0,0,-1,1245,1387,0,0
28,-363,0,0,0,0,0,0,0,0,0,-1,1252,1387,0,0
35,-363,0,0,0,0,0,0,0,0,0,-1,1259,1387,0,0
42,-363,0,0,0,0,0,0,0,0,0,-1,1266,1387,0,0
49,-363,0,0,0,0,0,0,0,0,0,-1,1273,1387,0,0
56,-363,0,0,0,0,0,0,0,0,0,-1,1280,1387,0,0
63,-363,0,0,0,0,0,0,0,0,0,-1,1287,1387,0,0
70,-363,0,0,0,0,0,0,0,0,0,-1,1294,1387,0,0
77,-363,0,0,0,0,0,0,0,0,0,-1,1301,1387,0,0
84,-363,0,0,0,0,0,0,0,0,0,-1,1308,1387,0,0
91,-363,0,0,0,0,0,0,0,0,0,-1,1315,1387,0,0
98,-363,0,0,0,0,0,0,0,0,0,-1,1322,1387,0,0
105,-363,0,0,0,0,0,0,0,0,0,-1,1329,1387,0,0
112,-363,0,0,0,0,0,0,0,0,0,-1,1336,1387,0,0
119,-363,0,0,0,0,0,0,0,0,0,-1,1343,1387,0,0
126,-363,0,0,0,0,0,0,0,0,0,-1,1350,1387,0,0
133,-363,0,0,0,0,0,0,0,0,0,-1,1357,1387,0,0
140,-363,0,0,0,0,0,0,0,0,0,-1,1364,1387,0,0
147,-363,0,0,0,0,0,0,0,0,0,-1,1371,1387,0,0
154,-363,0,0,0,0,0,0,0,0,0,-1,1378,1387,0,0
161,-363,0,0,0,0,0,0,0,0,0,-1,1385,1387,0,0
168,-363,0,0,0,0,0,0,0,0,0,-1,1392,1387,0,0
175,-363,0,0,0,0,0,0,0,0,0,-1,1399,1387,0,0
182,-363,0,0,0,0,0,0,0,0,0,-1,1406,1387,0,0
189,-363,0,0,0,0,0,0,0,0,0,-1,1413,1387,0,0
196,-363,0,0,0,0,0,0,0,0,0,-1,1420,1387,0,0
203,-363,0,0,0,0,0,0,0,0,0,-1,1427,1387,0,0
210,-363,0,0,0,0,0,0,0,0,0,-1,1434,1387,0,0
217,-363,0,0,0,0,0,0,0,0,0,-1,1441,1387,0,0
224,-363,0,0,0,0,0,0,0,0,0,-1,1448,1387,0,0
231,-363,0,0,0,0,0,0,0,0,0,-1,1455,1387,0,0
238,-363,0,0,0,0,0,0,0,0,0,-1,1462,1387,0,0
245,-363,0,0,0,0,0,0,0,0,0,-1,1469,1387,0,0
252,-363,0,0,0,0,0,0,0,0,0,-1,1476,1387,0,0
259,-363,0,0,0,0,0,0,0,0,0,-1,1483,1387,0,0
266,-363,0,0,0,0,0,0,0,0,0,-1,1490,1387,0,0
273,-363,0,0,0,0,0,0,0,0,0,-1,1497,1387,0,0
280,-363,0,0,0,0,0,0,0,0,0,-1,1504,1387,0,0
287,-363,0,0,0,0,0,0,0,0,0,-1,1511,1387,0,0
294,-363,0,0,0,0,0,0,0,0,0,-1,1518,1387,0,0
301,-363,0,0,0,0,0,0,0,0,0,-1,1525,1387,0,0
308,-363,0,0,0,0,0,0,0,0,0,-1,1532,1387,0,0
315,-363,0,0,0,0,0,0,0,0,0,-1,1539,1387,0,0
322,-363,0,0,0,0,0,0,0,0,0,-1,1546,1387,0,0
329,-363,0,0,0,0,0,0,0,0,0,-1,1553,1387,0,0
336,-363,0,0,0,0,0,0,0,0,0,-1,1560,1387,0,0
343,-363,0,0,0,0,0,0,0,0,0,-1,1567,1387,0,0
350,-363,0,0,0,0,0,0,0,0,0,-1,1574,1387,0,0
357,-363,0,0,0,0,0,0,0,0,0,-1,1581,1387,0,0
364,-363,0,0,0,0,0,0,0,0,0,-1,1588,1387,0,0
371,-363,0,0,0,0,0,0,0,0,0,-1,1595,1387,0,0
378,-363,0,0,0,0,0,0,0,0,0,-1,1602,1387,0,0
385,-363,0,0,0,0,0,0,0,0,0,-1,1609,1387,0,0
392,-363,0,0,0,0,0,0,0,0,0,-1,1616,1387,0,0
399,-363,0,0,0,0,0,0,0,0,0,-1,1623,1387,0,0
406,-363,0,0,0,0,0,0,0,0,0,-1,1630,1387,0,0
413,-363,0,0,0,0,0,0,0,0,0,-1,1637,1387,0,0
420,-363,0,0,0,0,0,0,0,0,0,-1,1644,1387,0,0
427,-363,0,0,0,0,0,0,0,0,0,-1,1651,1387,0,0
434,-363,0,0,0,0,0,0,0,0,0,-1,1658,1387,0,0
441,-363,0,0,0,0,0,0,0,0,0,-1,1665,1387,0,0
448,-363,0,0,0,0,0,0,0,0,0,-1,1672,1387,0,0
455,-363,0,0,0,0,0,0,0,0,0,-1,1679,1387,0,0
462,-363,0,0,0,0,0,0,0,0,0,-1,1686,1387,0,0
469,-363,0,0,0,0,0,0,0,0,0,-1,1693,1387,0,0
476,-363,0,0,0,0,0,0,0,0,0,-1,1700,1387,0,0
483,-363,0,0,0,0,0,0,0,0,0,-1,1707,1387,0,0
490,-363,0,0,0,0,0,0,0,0,0,-1,1714,1387,0,0
497,-363,0,0,0,0,0,0,0,0,0,-1,1721,1387,0,0
504,-363,0,0,0,0,0,0,0,0,0,-1,1728,1387,0,0
511,-363,0,0,0,0,0,0,0,0,0,-1,1735,1387,0,0
518,-363,0,0,0,0,0,0,0,0,0,-1,1742,1387,0,0
525,-363,0,0,0,0,0,0,0,0,0,-1,1749,1387,0,0
532,-363,0,0,0,0,0,0,0,0,0,-1,1756,1387,0,0
539,-363,0,0,0,0,0,0,0,0,0,-1,1763,1387,0,0
546,-363,0,0,0,0,0,0,0,0,0,-1,1770,1387,0,0
553,-363,62.1395,3.42249,0,0,0,0,0,0,0,-1,1777,1387,62.1395,-3.42245
560,-363,63.2896,2.40808,0,0,0,0,0,0,0,-1,1784,1387,63.2896,-2.40811
567,-363,64.4463,1.38135,0,0,0,0,0,0,0,-1,1791,1387,64.4463,-1.38131
574,-363,45.7261,2.8075,0,0,0,0,0,0,0,-1,1798,1387,45.7261,-2.80754
581,-363,39.2413,1.97632,0,0,0,0,0,0,0,-1,1805,1387,39.2413,-1.97636
588,-363,32.5608,6.72131,0,0,0,0,0,0,0,-1,1812,1387,32.5608,-6.72131
595,-363,31.4688,6.95435,0,0,0,0,0,0,0,-1,1819,1387,31.4688,-6.95431
602,-363,25.7437,5.33667,0,0,0,0,0,0,0,-1,1826,1387,25.7437,-5.33667
609,-363,27.7048,7.06885,0,0,0,0,0,0,0,-1,1833,1387,27.7048,-7.06882
616,-363,16.229,1.08704,0,0,0,0,0,0,0,-1,1840,1387,16.229,-1.08706
623,-363,15.7283,7.16663,0,0,0,0,0,0,0,-1,1847,1387,15.7282,-7.16665
630,-363,18.3192,9.27844,0,0,0,0,0,0,0,-1,1854,1387,18.3192,-9.27843
637,-363,42.2784,20.6125,0,0,0,0,0,0,0,-1,1861,1387,42.2784,-20.6125
644,-363,42.3235,19.7666,-0.00137335,0.00217975,-0.000956903,0.00242106,-0.00161467,-1.32376,0.00234548,0.0196585,1868,1387,42.3234,-19.7666
651,-363,42.329,18.9551,-0.000891585,0.0014442,-0.000563814,0.00157318,-0.00102056,-1.34592,0.00150878,0.0119511,1875,1387,42.329,-18.9551
658,-363,42.3083,18.1805,-9.94246e-05,0.000829797,-0.000340898,0.000941446,-0.000211073,-1.25429,0.000708547,0.0128044,1882,1387,42.3083,-18.1806
665,-363,42.2441,17.4443,0.000784122,0.00023815,-0.000206142,0.000853211,0.00016906,-0.323391,0.000521667,0.0123903,1889,1387,42.2442,-17.4443
672,-363,42.1919,16.6798,0.00176475,-0.000320671,-0.000123925,0.00177209,-0.00032801,-0.059147,0.00130455,0.0133799,1896,1387,42.1919,-16.6798
679,-363,42.1827,15.905,0.00283564,-0.00086665,-9.44979e-05,0.00283805,-0.00086906,-0.025502,0.00223868,0.0143653,1903,1387,42.1828,-15.905
686,-363,42.1344,15.1459,0.00400454,-0.00138101,-0.000133805,0.00400786,-0.00138433,-0.0248247,0.00323368,0.0148082,1910,1387,42.1344,-15.1459
693,-363,42.0828,14.3722,0.00526875,-0.00184084,-0.000252469,0.0052777,-0.00184979,-0.0354515,0.00427075,0.0144199,1917,1387,42.0827,-14.3721
700,-363,42.2751,13.559,0.00676835,-0.00220153,-0.000533101,0.00679993,-0.0022331,-0.0591548,0.00543285,0.0331952,1924,1387,42.2751,-13.559
707,-363,42.6384,12.76,0,0,0,0,0,0,0,-1,1931,1387,42.6385,-12.76
714,-363,16.5782,5.3147,0,0,0,0,0,0,0,-1,1938,1387,16.5783,-5.31472
721,-363,14.4045,4.51685,0,0,0,0,0,0,0,-1,1945,1387,14.4045,-4.51685
728,-363,19.9756,0.853027,0,0,0,0,0,0,0,-1,1952,1387,19.9756,-0.853059
735,-363,21.4297,1.2981,0,0,0,0,0,0,0,-1,1959,1387,21.4297,-1.29811
742,-363,21.3621,2.79663,0,0,0,0,0,0,0,-1,1966,1387,21.362,-2.7966
749,-363,0,0,0,0,0,0,0,0,0,-1,1973,1387,0,0
756,-363,0,0,0,0,0,0,0,0,0,-1,1980,1387,0,0
763,-363,0,0,0,0,0,0,0,0,0,-1,1987,1387,0,0
770,-363,0,0,0,0,0,0,0,0,0,-1,1994,1387,0,0
777,-363,0,0,0,0,0,0,0,0,0,-1,2001,1387,0,0
784,-363,0,0,0,0,0,0,0,0,0,-1,2008,1387,0,0
791,-363,0,0,0,0,0,0,0,0,0,-1,2015,1387,0,0
798,-363,0,0,0,0,0,0,0,0,0,-1,2022,1387,0,0
805,-363,0,0,0,0,0,0,0,0,0,-1,2029,1387,0,0
812,-363,0,0,0,0,0,0,0,0,0,-1,2036,1387,0,0
-700,-370,0,0,0,0,0,0,0,0,0,-1,524,1394,0,0
-693,-370,0,0,0,0,0,0,0,0,0,-1,531,1394,0,0
-686,-370,0,0,0,0,0,0,0,0,0,-1,538,1394,0,0
-679,-370,0,0,0,0,0,0,0,0,0,-1,545,1394,0,0
-672,-370,0,0,0,0,0,0,0,0,0,-1,552,1394,0,0
-665,-370,0,0,0,0,0,0,0,0,0,-1,559,1394,0,0
-658,-370,0,0,0,0,0,0,0,0,0,-1,566,1394,0,0
-651,-370,0,0,0,0,0,0,0,0,0,-1,573,1394,0,0
-644,-370,0,0,0,0,0,0,0,0,0,-1,580,1394,0,0
-637,-370,0,0,0,0,0,0,0,0,0,-1,587,1394,0,0
-630,-370,0,0,0,0,0,0,0,0,0,-1,594,1394,0,0
-623,-370,-10.1758,-7.10486,0,0,0,0,0,0,0,-1,601,1394,-10.1758,7.10483
-616,-370,-8.85925,-1.61475,0,0,0,0,0,0,0,-1,608,1394,-8.85925,1.61476
-609,-370,-5.39325,0.0421143,0,0,0,0,0,0,0,-1,615,1394,-5.39328,-0.0421372
-602,-370,-12.3151,3.44592,0,0,0,0,0,0,0,-1,622,1394,-12.3151,-3.44595
-595,-370,-7.53284,5.44214,0,0,0,0,0,0,0,-1,629,1394,-7.53284,-5.44216
-588,-370,-11.2422,4.50598,0,0,0,0,0,0,0,-1,636,1394,-11.2422,-4.50596
-581,-370,-13.1575,5.84888,0,0,0,0,0,0,0,-1,643,1394,-13.1575,-5.84887
-574,-370,-13.0107,6.69861,0,0,0,0,0,0,0,-1,650,1394,-13.0108,-6.69866
-567,-370,-23.9532,12.5831,0,0,0,0,0,0,0,-1,657,1394,-23.9532,-12.5831
-560,-370,-23.9672,13.5065,0.00479056,0.00332853,0.00312741,0.00727125,0.000847831,0.670587,0.00459106,0.0371528,664,1394,-23.9672,-13.5065
-553,-370,-23.8901,14.3939,0.0040378,0.00235567,0.00243929,0.00577695,0.000616518,0.619381,0.00366313,0.0115367,671,1394,-23.8901,-14.394
-546,-370,-23.9061,15.197,0.00351232,0.00154945,0.00187566,0.0046478,0.000413973,0.544363,0.00297017,0.014748,678,1394,-23.9061,-15.1971
-539,-370,-23.9318,16.021,0.00323129,0.000920561,0.00145548,0.00393422,0.000217626,0.449923,0.00255337,0.0186734,685,1394,-23.9318,-16.021
-532,-370,-24.0087,16.8398,0.00319364,0.000499447,0.00120309,0.00365267,4.04192e-05,0.364494,0.00242175,0.0209002,692,1394,-24.0087,-16.8398
-525,-370,-24.0541,17.6354,0.00335209,0.000227394,0.00108079,0.00368949,-0.000110002,0.30259,0.00249713,0.019353,699,1394,-24.0541,-17.6354
-518,-370,-24.0596,18.405,0.00371243,0.000134285,0.00110376,0.00402551,-0.000178803,0.276394,0.00274522,0.0143173,706,1394,-24.0596,-18.405
-511,-370,-24.0534,19.2242,0.00431308,0.00027588,0.00134484,0.00472004,-0.00013108,0.293848,0.00319129,0.016635,713,1394,-24.0534,-19.2242
-504,-370,-24.0729,20.0469,0,0,0,0,0,0,0,-1,720,1394,-24.0729,-20.0469
-497,-370,-12.3546,11.7982,0,0,0,0,0,0,0,-1,727,1394,-12.3546,-11.7983
-490,-370,-5.30695,4.5271,0,0,0,0,0,0,0,-1,734,1394,-5.30698,-4.52704
-483,-370,-6.02997,4.59253,0,0,0,0,0,0,0,-1,741,1394,-6.02994,-4.5925
-476,-370,-6.75293,4.65796,0,0,0,0,0,0,0,-1,748,1394,-6.7529,-4.65795
-469,-370,-10.584,1.14294,0,0,0,0,0,0,0,-1,755,1394,-10.584,-1.14293
-462,-370,-9.54462,0.387207,0,0,0,0,0,0,0,-1,762,1394,-9.5446,-0.387176
-455,-370,-8.50525,-0.36853,0,0,0,0,0,0,0,-1,769,1394,-8.50523,0.368582
-448,-370,-10.9543,2.28833,0,0,0,0,0,0,0,-1,776,1394,-10.9543,-2.28835
-441,-370,-11.8699,1.8313,0,0,0,0,0,0,0,-1,783,1394,-11.8699,-1.83127
-434,-370,-12.7855,1.37415,0,0,0,0,0,0,0,-1,790,1394,-12.7855,-1.37419
-427,-370,0,0,0,0,0,0,0,0,0,-1,797,1394,0,0
-420,-370,0,0,0,0,0,0,0,0,0,-1,804,1394,0,0
-413,-370,0,0,0,0,0,0,0,0,0,-1,811,1394,0,0
-406,-370,0,0,0,0,0,0,0,0,0,-1,818,1394,0,0
-399,-370,0,0,0,0,0,0,0,0,0,-1,825,1394,0,0
-392,-370,0,0,0,0,0,0,0,0,0,-1,832,1394,0,0
-385,-370,0,0,0,0,0,0,0,0,0,-1,839,1394,0,0
-378,-370,0,0,0,0,0,0,0,0,0,-1,846,1394,0,0
-371,-370,0,0,0,0,0,0,0,0,0,-1,853,1394,0,0
-364,-370,0,0,0,0,0,0,0,0,0,-1,860,1394,0,0
-357,-370,0,0,0,0,0,0,0,0,0,-1,867,1394,0,0
-350,-370,0,0,0,0,0,0,0,0,0,-1,874,1394,0,0
-343,-370,0,0,0,0,0,0,0,0,0,-1,881,1394,0,0
-336,-370,0,0,0,0,0,0,0,0,0,-1,888,1394,0,0
-329,-370,0,0,0,0,0,0,0,0,0,-1,895,1394,0,0
-322,-370,0,0,0,0,0,0,0,0,0,-1,902,1394,0,0
-315,-370,0,0,0,0,0,0,0,0,0,-1,909,1394,0,0
-308,-370,0,0,0,0,0,0,0,0,0,-1,916,1394,0,0
-301,-370,0,0,0,0,0,0,0,0,0,-1,923,1394,0,0
-294,-370,0,0,0,0,0,0,0,0,0,-1,930,1394,0,0
-287,-370,0,0,0,0,0,0,0,0,0,-1,937,1394,0,0
-280,-370,0,0,0,0,0,0,0,0,0,-1,944,1394,0,0
-273,-370,0,0,0,0,0,0,0,0,0,-1,951,1394,0,0
-266,-370,0,0,0,0,0,0,0,0,0,-1,958,1394,0,0
-259,-370,0,0,0,0,0,0,0,0,0,-1,965,1394,0,0
-252,-370,0,0,0,0,0,0,0,0,0,-1,972,1394,0,0
-245,-370,0,0,0,0,0,0,0,0,0,-1,979,1394,0,0
-238,-370,0,0,0,0,0,0,0,0,0,-1,986,1394,0,0
-231,-370,0,0,0,0,0,0,0,0,0,-1,993,1394,0,0
-224,-370,0,0,0,0,0,0,0,0,0,-1,1000,1394,0,0
-217,-370,0,0,0,0,0,0,0,0,0,-1,1007,1394,0,0
-210,-370,0,0,0,0,0,0,0,0,0,-1,1014,1394,0,0
-203,-370,0,0,0,0,0,0,0,0,0,-1,1021,1394,0,0
-196,-370,0,0,0,0,0,0,0,0,0,-1,1028,1394,0,0
-189,-370,0,0,0,0,0,0,0,0,0,-1,1035,1394,0,0
-182,-370,0,0,0,0,0,0,0,0,0,-1,1042,1394,0,0
-175,-370,0,0,0,0,0,0,0,0,0,-1,1049,1394,0,0
-168,-370,0,0,0,0,0,0,0,0,0,-1,1056,1394,0,0
-161,-370,0,0,0,0,0,0,0,0,0,-1,1063,1394,0,0
-154,-370,0,0,0,0,0,0,0,0,0,-1,1070,1394,0,0
-147,-370,0,0,0,0,0,0,0,0,0,-1,1077,1394,0,0
-140,-370,0,0,0,0,0,0,0,0,0,-1,1084,1394,0,0
-133,-370,0,0,0,0,0,0,0,0,0,-1,1091,1394,0,0
-126,-370,0,0,0,0,0,0,0,0,0,-1,1098,1394,0,0
-119,-370,0,0,0,0,0,0,0,0,0,-1,1105,1394,0,0
-112,-370,0,0,0,0,0,0,0,0,0,-1,1112,1394,0,0
-105,-370,0,0,0,0,0,0,0,0,0,-1,1119,1394,0,0
-98,-370,0,0,0,0,0,0,0,0,0,-1,1126,1394,0,0
-91,-370,0,0,0,0,0,0,0,0,0,-1,1133,1394,0,0
-84,-370,0,0,0,0,0,0,0,0,0,-1,1140,1394,0,0
-77,-370,0,0,0,0,0,0,0,0,0,-1,1147,1394,0,0
-70,-370,0,0,0,0,0,0,0,0,0,-1,1154,1394,0,0
-63,-370,0,0,0,0,0,0,0,0,0,-1,1161,1394,0,0
-56,-370,0,0,0,0,0,0,0,0,0,-1,1168,1394,0,0
-49,-370,0,0,0,0,0,0,0,0,0,-1,1175,1394,0,0
-42,-370,0,0,0,0,0,0,0,0,0,-1,1182,1394,0,0
-35,-370,0,0,0,0,0,0,0,0,0,-1,1189,1394,0,0
-28,-370,0,0,0,0,0,0,0,0,0,-1,1196,1394,0,0
-21,-370,0,0,0,0,0,0,0,0,0,-1,1203,1394,0,0
-14,-370,0,0,0,0,0,0,0,0,0,-1,1210,1394,0,0
-7,-370,0,0,0,0,0,0,0,0,0,-1,1217,1394,0,0
0,-370,0,0,0,0,0,0,0,0,0,-1,1224,1394,0,0
7,-370,0,0,0,0,0,0,0,0,0,-1,1231,1394,0,0
14,-370,0,0,0,0,0,0,0,0,0,-1,1238,1394,0,0
21,-370,0,0,0,0,0,0,0,0,0,-1,1245,1394,0,0
28,-370,0,0,0,0,0,0,0,0,0,-1,1252,1394,0,0
35,-370,0,0,0,0,0,0,0,0,0,-1,1259,1394,0,0
42,-370,0,0,0,0,0,0,0,0,0,-1,1266,1394,0,0
49,-370,0,0,0,0,0,0,0,0,0,-1,1273,1394,0,0
56,-370,0,0,0,0,0,0,0,0,0,-1,1280,1394,0,0
63,-370,0,0,0,0,0,0,0,0,0,-1,1287,1394,0,0
70,-370,0,0,0,0,0,0,0,0,0,-1,1294,1394,0,0
77,-370,0,0,0,0,0,0,0,0,0,-1,1301,1394,0,0
84,-370,0,0,0,0,0,0,0,0,0,-1,1308,1394,0,0
91,-370,0,0,0,0,0,0,0,0,0,-1,1315,1394,0,0
98,-370,0,0,0,0,0,0,0,0,0,-1,1322,1394,0,0
105,-370,0,0,0,0,0,0,0,0,0,-1,1329,1394,0,0
112,-370,0,0,0,0,0,0,0,0,0,-1,1336,1394,0,0
119,-370,0,0,0,0,0,0,0,0,0,-1,1343,1394,0,0
126,-370,0,0,0,0,0,0,0,0,0,-1,1350,1394,0,0
133,-370,0,0,0,0,0,0,0,0,0,-1,1357,1394,0,0
140,-370,0,0,0,0,0,0,0,0,0,-1,1364,1394,0,0
147,-370,0,0,0,0,0,0,0,0,0,-1,1371,1394,0,0
154,-370,0,0,0,0,0,0,0,0,0,-1,1378,1394,0,0
161,-370,0,0,0,0,0,0,0,0,0,-1,1385,1394,0,0
168,-370,0,0,0,0,0,0,0,0,0,-1,1392,1394,0,0
175,-370,0,0,0,0,0,0,0,0,0,-1,1399,1394,0,0
182,-370,0,0,0,0,0,0,0,0,0,-1,1406,1394,0,0
189,-370,0,0,0,0,0,0,0,0,0,-1,1413,1394,0,0
196,-370,0,0,0,0,0,0,0,0,0,-1,1420,1394,0,0
203,-370,0,0,0,0,0,0,0,0,0,-1,1427,1394,0,0
210,-370,0,0,0,0,0,0,0,0,0,-1,1434,1394,0,0
217,-370,0,0,0,0,0,0,0,0,0,-1,1441,1394,0,0
224,-370,0,0,0,0,0,0,0,0,0,-1,1448,1394,0,0
231,-370,0,0,0,0,0,0,0,0,0,-1,1455,1394,0,0
238,-370,0,0,0,0,0,0,0,0,0,-1,1462,1394,0,0
245,-370,0,0,0,0,0,0,0,0,0,-1,1469,1394,0,0
252,-370,0,0,0,0,0,0,0,0,0,-1,1476,1394,0,0
259,-370,0,0,0,0,0,0,0,0,0,-1,1483,1394,0,0
266,-370,0,0,0,0,0,0,0,0,0,-1,1490,1394,0,0
273,-370,0,0,0,0,0,0,0,0,0,-1,1497,1394,0,0
280,-370,0,0,0,0,0,0,0,0,0,-1,1504,1394,0,0
287,-370,0,0,0,0,0,0,0,0,0,-1,1511,1394,0,0
294,-370,0,0,0,0,0,0,0,0,0,-1,1518,1394,0,0
301,-370,0,0,0,0,0,0,0,0,0,-1,1525,1394,0,0
308,-370,0,0,0,0,0,0,0,0,0,-1,1532,1394,0,0
315,-370,0,0,0,0,0,0,0,0,0,-1,1539,1394,0,0
322,-370,0,0,0,0,0,0,0,0,0,-1,1546,1394,0,0
329,-370,0,0,0,0,0,0,0,0,0,-1,1553,1394,0,0
336,-370,0,0,0,0,0,0,0,0,0,-1,1560,1394,0,0
343,-370,0,0,0,0,0,0,0,0,0,-1,1567,1394,0,0
350,-370,0,0,0,0,0,0,0,0,0,-1,1574,1394,0,0
357,-370,0,0,0,0,0,0,0,0,0,-1,1581,1394,0,0
364,-370,0,0,0,0,0,0,0,0,0,-1,1588,1394,0,0
371,-370,0,0,0,0,0,0,0,0,0,-1,1595,1394,0,0
378,-370,0,0,0,0,0,0,0,0,0,-1,1602,1394,0,0
385,-370,0,0,0,0,0,0,0,0,0,-1,1609,1394,0,0
392,-370,0,0,0,0,0,0,0,0,0,-1,1616,1394,0,0
399,-370,0,0,0,0,0,0,0,0,0,-1,1623,1394,0,0
406,-370,0,0,0,0,0,0,0,0,0,-1,1630,1394,0,0
413,-370,0,0,0,0,0,0,0,0,0,-1,1637,1394,0,0
420,-370,0,0,0,0,0,0,0,0,0,-1,1644,1394,0,0
427,-370,0,0,0,0,0,0,0,0,0,-1,1651,1394,0,0
434,-370,0,0,0,0,0,0,0,0,0,-1,1658,1394,0,0
441,-370,0,0,0,0,0,0,0,0,0,-1,1665,1394,0,0
448,-370,0,0,0,0,0,0,0,0,0,-1,1672,1394,0,0
455,-370,0,0,0,0,0,0,0,0,0,-1,1679,1394,0,0
462,-370,0,0,0,0,0,0,0,0,0,-1,1686,1394,0,0
469,-370,0,0,0,0,0,0,0,0,0,-1,1693,1394,0,0
476,-370,0,0,0,0,0,0,0,0,0,-1,1700,1394,0,0
483,-370,0,0,0,0,0,0,0,0,0,-1,1707,1394,0,0
490,-370,0,0,0,0,0,0,0,0,0,-1,1714,1394,0,0
497,-370,0,0,0,0,0,0,0,0,0,-1,1721,1394,0,0
504,-370,0,0,0,0,0,0,0,0,0,-1,1728,1394,0,0
511,-370,0,0,0,0,0,0,0,0,0,-1,1735,1394,0,0
518,-370,0,0,0,0,0,0,0,0,0,-1,1742,1394,0,0
525,-370,0,0,0,0,0,0,0,0,0,-1,1749,1394,0,0
532,-370,0,0,0,0,0,0,0,0,0,-1,1756,1394,0,0
539,-370,0,0,0,0,0,0,0,0,0,-1,1763,1394,0,0
546,-370,60.9257,3.80493,0,0,0,0,0,0,0,-1,1770,1394,60.9256,-3.80494
553,-370,61.9966,2.87524,0,0,0,0,0,0,0,-1,1777,1394,61.9966,-2.8753
560,-370,63.1577,1.82617,0,0,0,0,0,0,0,-1,1784,1394,63.1578,-1.82617
567,-370,46.1089,3.11719,0,0,0,0,0,0,0,-1,1791,1394,46.1089,-3.1172
574,-370,38.8953,1.49353,0,0,0,0,0,0,0,-1,1798,1394,38.8952,-1.49348
581,-370,39.178,2.86145,0,0,0,0,0,0,0,-1,1805,1394,39.1779,-2.86145
588,-370,39.2102,4.27661,0,0,0,0,0,0,0,-1,1812,1394,39.2102,-4.27657
595,-370,25.793,4.5271,0,0,0,0,0,0,0,-1,1819,1394,25.793,-4.52711
602,-370,25.1077,5.34937,0,0,0,0,0,0,0,-1,1826,1394,25.1077,-5.34932
609,-370,16.712,0.993286,0,0,0,0,0,0,0,-1,1833,1394,16.7121,-0.99323
616,-370,16.7764,7.23315,0,0,0,0,0,0,0,-1,1840,1394,16.7764,-7.23313
623,-370,17.6625,8.94263,0,0,0,0,0,0,0,-1,1847,1394,17.6624,-8.94258
630,-370,20.9681,11.1785,0,0,0,0,0,0,0,-1,1854,1394,20.9681,-11.1784
637,-370,41.5724,20.5576,0,0,0,0,0,0,0,-1,1861,1394,41.5724,-20.5577
644,-370,41.6038,19.7711,-0.00103396,0.00172429,-0.000758396,0.00191906,-0.00122873,-1.31941,0.00183189,0.0162341,1868,1394,41.6038,-19.7712
651,-370,41.5864,18.996,-0.000531689,0.00112448,-0.000443492,0.00123576,-0.000642971,-1.32495,0.00110254,0.0140887,1875,1394,41.5865,-18.996
658,-370,41.5524,18.2321,0.000254984,0.000564736,-0.000249543,0.000703558,0.000116162,-1.06313,0.000435513,0.0129427,1882,1394,41.5524,-18.2321
665,-370,41.496,17.4781,0.00116322,-1.81937e-05,-0.000107583,0.00117294,-2.79105e-05,-0.0900754,0.000791426,0.0139654,1889,1394,41.4959,-17.4781
672,-370,41.4258,16.7164,0.002224,-0.000642034,-5.49413e-06,0.00222401,-0.000642044,-0.00191697,0.00173671,0.0153435,1896,1394,41.4257,-16.7164
679,-370,41.4454,15.9263,0.00342255,-0.0013134,5.93241e-05,0.0034233,-0.00131414,0.0125237,0.00282407,0.0149769,1903,1394,41.4454,-15.9263
686,-370,41.3799,15.1827,0.00477204,-0.00202305,6.54916e-05,0.00477267,-0.00202368,0.00963689,0.00402945,0.0158403,1910,1394,41.3799,-15.1828
693,-370,41.3081,14.3728,0.00626681,-0.00274785,1.43244e-07,0.00626681,-0.00274785,1.58901e-05,0.00533516,0.0160915,1917,1394,41.3081,-14.3728
700,-370,41.6829,13.5122,0,0,0,0,0,0,0,-1,1924,1394,41.6828,-13.5122
707,-370,39.2391,11.5549,0,0,0,0,0,0,0,-1,1931,1394,39.2392,-11.555
714,-370,16.9116,5.93018,0,0,0,0,0,0,0,-1,1938,1394,16.9116,-5.93014
721,-370,17.2007,4.69153,0,0,0,0,0,0,0,-1,1945,1394,17.2007,-4.69158
728,-370,20.5315,-0.313354,0,0,0,0,0,0,0,-1,1952,1394,20.5315,0.313332
735,-370,22.3652,0.233398,0,0,0,0,0,0,0,-1,1959,1394,22.3652,-0.233355
742,-370,24.1989,0.780029,0,0,0,0,0,0,0,-1,1966,1394,24.1989,-0.780041
749,-370,0,0,0,0,0,0,0,0,0,-1,1973,1394,0,0
756,-370,0,0,0,0,0,0,0,0,0,-1,1980,1394,0,0
763,-370,0,0,0,0,0,0,0,0,0,-1,1987,1394,0,0
770,-370,0,0,0,0,0,0,0,0,0,-1,1994,1394,0,0
777,-370,0,0,0,0,0,0,0,0,0,-1,2001,1394,0,0
784,-370,0,0,0,0,0,0,0,0,0,-1,2008,1394,0,0
791,-370,0,0,0,0,0,0,0,0,0,-1,2015,1394,0,0
798,-370,0,0,0,0,0,0,0,0,0,-1,2022,1394,0,0
805,-370,0,0,0,0,0,0,0,0,0,-1,2029,1394,0,0
812,-370,0,0,0,0,0,0,0,0,0,-1,2036,1394,0,0
-700,-377,0,0,0,0,0,0,0,0,0,-1,524,1401,0,0
-693,-377,0,0,0,0,0,0,0,0,0,-1,531,1401,0,0
-686,-377,0,0,0,0,0,0,0,0,0,-1,538,1401,0,0
-679,-377,0,0,0,0,0,0,0,0,0,-1,545,1401,0,0
-672,-377,0,0,0,0,0,0,0,0,0,-1,552,1401,0,0
-665,-377,0,0,0,0,0,0,0,0,0,-1,559,1401,0,0
-658,-377,0,0,0,0,0,0,0,0,0,-1,566,1401,0,0
-651,-377,0,0,0,0,0,0,0,0,0,-1,573,1401,0,0
-644,-377,0,0,0,0,0,0,0,0,0,-1,580,1401,0,0
-637,-377,0,0,0,0,0,0,0,0,0,-1,587,1401,0,0
-630,-377,0,0,0,0,0,0,0,0,0,-1,594,1401,0,0
-623,-377,0,0,0,0,0,0,0,0,0,-1,601,1401,0,0
-616,-377,-9.43915,-2.4906,0,0,0,0,0,0,0,-1,608,1401,-9.43915,2.49062
-609,-377,-7.2821,-1.35278,0,0,0,0,0,0,0,-1,615,1401,-7.28208,1.35279
-602,-377,-14.9736,3.98279,0,0,0,0,0,0,0,-1,622,1401,-14.9737,-3.98276
-595,-377,-6.9082,1.18201,0,0,0,0,0,0,0,-1,629,1401,-6.90822,-1.18204
-588,-377,-12.8003,3.44751,0,0,0,0,0,0,0,-1,636,1401,-12.8003,-3.44754
-581,-377,-11.8243,6.21521,0,0,0,0,0,0,0,-1,643,1401,-11.8244,-6.21519
-574,-377,-12.2761,6.60547,0,0,0,0,0,0,0,-1,650,1401,-12.2761,-6.60552
-567,-377,-13.4844,7.41931,0,0,0,0,0,0,0,-1,657,1401,-13.4845,-7.41926
-560,-377,-23.1471,13.3818,0,0,0,0,0,0,0,-1,664,1401,-23.1471,-13.3819
-553,-377,-23.1063,14.3877,0.00480969,0.00295099,0.00307823,0.0070958,0.00066488,0.638793,0.00452521,0.0186298,671,1401,-23.1063,-14.3877
-546,-377,-23.1279,15.2787,0.00397727,0.0020093,0.00231872,0.00551215,0.000474424,0.584731,0.00352728,0.017379,678,1401,-23.1279,-15.2786
-539,-377,-23.1133,16.0601,0.00341543,0.00128503,0.00173883,0.00438939,0.000311075,0.510583,0.00282828,0.0227011,685,1401,-23.1133,-16.0601
-532,-377,-23.1976,16.837,0.00311314,0.000776629,0.00134162,0.00372386,0.000165906,0.427181,0.00242916,0.0219447,692,1401,-23.1976,-16.8371
-525,-377,-23.1957,17.6726,0.00302822,0.000446542,0.00110253,0.00343498,3.9783e-05,0.35344,0.00227684,0.0250713,699,1401,-23.1957,-17.6726
-518,-377,-23.2781,18.4512,0.00314745,0.00026349,0.00101668,0.00346983,-5.88848e-05,0.307057,0.00233309,0.0168897,706,1401,-23.2781,-18.4512
-511,-377,-23.2944,19.2627,0.00349694,0.000306233,0.00112725,0.003855,-5.1831e-05,0.307565,0.00258745,0.0131695,713,1401,-23.2944,-19.2627
-504,-377,-23.3483,20.0822,0.0041476,0.000579234,0.00151575,0.00470453,2.23035e-05,0.352116,0.00312894,0.0168351,720,1401,-23.3483,-20.0822
-497,-377,-23.2209,20.964,0,0,0,0,0,0,0,-1,727,1401,-23.2209,-20.964
-490,-377,-8.88409,10.1245,0,0,0,0,0,0,0,-1,734,1401,-8.8841,-10.1245
-483,-377,-5.6524,5.07324,0,0,0,0,0,0,0,-1,741,1401,-5.6524,-5.07325
-476,-377,-6.11682,5.10535,0,0,0,0,0,0,0,-1,748,1401,-6.11681,-5.10537
-469,-377,-10.3211,1.9281,0,0,0,0,0,0,0,-1,755,1401,-10.3211,-1.92808
-462,-377,-9.2204,1.0022,0,0,0,0,0,0,0,-1,762,1401,-9.22039,-1.00218
-455,-377,-8.11969,0.0762939,0,0,0,0,0,0,0,-1,769,1401,-8.11968,-0.0762759
-448,-377,-9.05334,0.877319,0,0,0,0,0,0,0,-1,776,1401,-9.05332,-0.877324
-441,-377,-11.212,0.763428,0,0,0,0,0,0,0,-1,783,1401,-11.212,-0.763415
-434,-377,-11.0984,0.996216,0,0,0,0,0,0,0,-1,790,1401,-11.0984,-0.996265
-427,-377,-11.1733,1.25732,0,0,0,0,0,0,0,-1,797,1401,-11.1733,-1.25732
-420,-377,0,0,0,0,0,0,0,0,0,-1,804,1401,0,0
-413,-377,0,0,0,0,0,0,0,0,0,-1,811,1401,0,0
-406,-377,0,0,0,0,0,0,0,0,0,-1,818,1401,0,0
-399,-377,0,0,0,0,0,0,0,0,0,-1,825,1401,0,0
-392,-377,0,0,0,0,0,0,0,0,0,-1,832,1401,0,0
-385,-377,0,0,0,0,0,0,0,0,0,-1,839,1401,0,0
-378,-377,0,0,0,0,0,0,0,0,0,-1,846,1401,0,0
-371,-377,0,0,0,0,0,0,0,0,0,-1,853,1401,0,0
-364,-377,0,0,0,0,0,0,0,0,0,-1,860,1401,0,0
-357,-377,0,0,0,0,0,0,0,0,0,-1,867,1401,0,0
-350,-377,0,0,0,0,0,0,0,0,0,-1,874,1401,0,0
-343,-377,0,0,0,0,0,0,0,0,0,-1,881,1401,0,0
-336,-377,0,0,0,0,0,0,0,0,0,-1,888,1401,0,0
-329,-377,0,0,0,0,0,0,0,0,0,-1,895,1401,0,0
-322,-377,0,0,0,0,0,0,0,0,0,-1,902,1401,0,0
-315,-377,0,0,0,0,0,0,0,0,0,-1,909,1401,0,0
-308,-377,0,0,0,0,0,0,0,0,0,-1,916,1401,0,0
-301,-377,0,0,0,0,0,0,0,0,0,-1,923,1401,0,0
-294,-377,0,0,0,0,0,0,0,0,0,-1,930,1401,0,0
-287,-377,0,0,0,0,0,0,0,0,0,-1,937,1401,0,0
-280,-377,0,0,0,0,0,0,0,0,0,-1,944,1401,0,0
-273,-377,0,0,0,0,0,0,0,0,0,-1,951,1401,0,0
-266,-377,0,0,0,0,0,0,0,0,0,-1,958,1401,0,0
-259,-377,0,0,0,0,0,0,0,0,0,-1,965,1401,0,0
-252,-377,0,0,0,0,0,0,0,0,0,-1,972,1401,0,0
-245,-377,0,0,0,0,0,0,0,0,0,-1,979,1401,0,0
-238,-377,0,0,0,0,0,0,0,0,0,-1,986,1401,0,0
-231,-377,0,0,0,0,0,0,0,0,0,-1,993,1401,0,0
-224,-377,0,0,0,0,0,0,0,0,0,-1,1000,1401,0,0
-217,-377,0,0,0,0,0,0,0,0,0,-1,1007,1401,0,0
-210,-377,0,0,0,0,0,0,0,0,0,-1,1014,1401,0,0
-203,-377,0,0,0,0,0,0,0,0,0,-1,1021,1401,0,0
-196,-377,0,0,0,0,0,0,0,0,0,-1,1028,1401,0,0
-189,-377,0,0,0,0,0,0,0,0,0,-1,1035,1401,0,0
-182,-377,0,0,0,0,0,0,0,0,0,-1,1042,1401,0,0
-175,-377,0,0,0,0,0,0,0,0,0,-1,1049,1401,0,0
-168,-377,0,0,0,0,0,0,0,0,0,-1,1056,1401,0,0
-161,-377,0,0,0,0,0,0,0,0,0,-1,1063,1401,0,0
-154,-377,0,0,0,0,0,0,0,0,0,-1,1070,1401,0,0
-147,-377,0,0,0,0,0,0,0,0,0,-1,1077,1401,0,0
-140,-377,0,0,0,0,0,0,0,0,0,-1,1084,1401,0,0
-133,-377,0,0,0,0,0,0,0,0,0,-1,1091,1401,0,0
-126,-377,0,0,0,0,0,0,0,0,0,-1,1098,1401,0,0
-119,-377,0,0,0,0,0,0,0,0,0,-1,1105,1401,0,0
-112,-377,0,0,0,0,0,0,0,0,0,-1,1112,1401,0,0
-105,-377,0,0,0,0,0,0,0,0,0,-1,1119,1401,0,0
-98,-377,0,0,0,0,0,0,0,0,0,-1,1126,1401,0,0
-91,-377,0,0,0,0,0,0,0,0,0,-1,1133,1401,0,0
-84,-377,0,0,0,0,0,0,0,0,0,-1,1140,1401,0,0
-77,-377,0,0,0,0,0,0,0,0,0,-1,1147,1401,0,0
-70,-377,0,0,0,0,0,0,0,0,0,-1,1154,1401,0,0
-63,-377,0,0,0,0,0,0,0,0,0,-1,1161,1401,0,0
-56,-377,0,0,0,0,0,0,0,0,0,-1,1168,1401,0,0
-49,-377,0,0,0,0,0,0,0,0,0,-1,1175,1401,0,0
-42,-377,0,0,0,0,0,0,0,0,0,-1,1182,1401,0,0
-35,-377,0,0,0,0,0,0,0,0,0,-1,1189,1401,0,0
-28,-377,0,0,0,0,0,0,0,0,0,-1,1196,1401,0,0
-21,-377,0,0,0,0,0,0,0,0,0,-1,1203,1401,0,0
-14,-377,0,0,0,0,0,0,0,0,0,-1,1210,1401,0,0
-7,-377,0,0,0,0,0,0,0,0,0,-1,1217,1401,0,0
0,-377,0,0,0,0,0,0,0,0,0,-1,1224,1401,0,0
7,-377,0,0,0,0,0,0,0,0,0,-1,1231,1401,0,0
14,-377,0,0,0,0,0,0,0,0,0,-1,1238,1401,0,0
21,-377,0,0,0,0,0,0,0,0,0,-1,1245,1401,0,0
28,-377,0,0,0,0,0,0,0,0,0,-1,1252,1401,0,0
35,-377,0,0,0,0,0,0,0,0,0,-1,1259,1401,0,0
42,-377,0,0,0,0,0,0,0,0,0,-1,1266,1401,0,0
49,-377,0,0,0,0,0,0,0,0,0,-1,1273,1401,0,0
56,-377,0,0,0,0,0,0,0,0,0,-1,1280,1401,0,0
63,-377,0,0,0,0,0,0,0,0,0,-1,1287,1401,0,0
70,-377,0,0,0,0,0,0,0,0,0,-1,1294,1401,0,0
77,-377,0,0,0,0,0,0,0,0,0,-1,1301,1401,0,0
84,-377,0,0,0,0,0,0,0,0,0,-1,1308,1401,0,0
91,-377,0,0,0,0,0,0,0,0,0,-1,1315,1401,0,0
98,-377,0,0,0,0,0,0,0,0,0,-1,1322,1401,0,0
105,-377,0,0,0,0,0,0,0,0,0,-1,1329,1401,0,0
112,-377,0,0,0,0,0,0,0,0,0,-1,1336,1401,0,0
119,-377,0,0,0,0,0,0,0,0,0,-1,1343,1401,0,0
126,-377,0,0,0,0,0,0,0,0,0,-1,1350,1401,0,0
133,-377,0,0,0,0,0,0,0,0,0,-1,1357,1401,0,0
140,-377,0,0,0,0,0,0,0,0,0,-1,1364,1401,0,0
147,-377,0,0,0,0,0,0,0,0,0,-1,1371,1401,0,0
154,-377,0,0,0,0,0,0,0,0,0,-1,1378,1401,0,0
161,-377,0,0,0,0,0,0,0,0,0,-1,1385,1401,0,0
168,-377,0,0,0,0,0,0,0,0,0,-1,1392,1401,0,0
175,-377,0,0,0,0,0,0,0,0,0,-1,1399,1401,0,0
182,-377,0,0,0,0,0,0,0,0,0,-1,1406,1401,0,0
189,-377,0,0,0,0,0,0,0,0,0,-1,1413,1401,0,0
196,-377,0,0,0,0,0,0,0,0,0,-1,1420,1401,0,0
203,-377,0,0,0,0,0,0,0,0,0,-1,1427,1401,0,0
210,-377,0,0,0,0,0,0,0,0,0,-1,1434,1401,0,0
217,-377,0,0,0,0,0,0,0,0,0,-1,1441,1401,0,0
224,-377,0,0,0,0,0,0,0,0,0,-1,1448,1401,0,0
231,-377,0,0,0,0,0,0,0,0,0,-1,1455,1401,0,0
238,-377,0,0,0,0,0,0,0,0,0,-1,1462,1401,0,0
245,-377,0,0,0,0,0,0,0,0,0,-1,1469,1401,0,0
252,-377,0,0,0,0,0,0,0,0,0,-1,1476,1401,0,0
259,-377,0,0,0,0,0,0,0,0,0,-1,1483,1401,0,0
266,-377,0,0,0,0,0,0,0,0,0,-1,1490,1401,0,0
273,-377,0,0,0,0,0,0,0,0,0,-1,1497,1401,0,0
280,-377,0,0,0,0,0,0,0,0,0,-1,1504,1401,0,0
287,-377,0,0,0,0,0,0,0,0,0,-1,1511,1401,0,0
294,-377,0,0,0,0,0,0,0,0,0,-1,1518,1401,0,0
301,-377,0,0,0,0,0,0,0,0,0,-1,1525,1401,0,0
308,-377,0,0,0,0,0,0,0,0,0,-1,1532,1401,0,0
315,-377,0,0,0,0,0,0,0,0,0,-1,1539,1401,0,0
322,-377,0,0,0,0,0,0,0,0,0,-1,1546,1401,0,0
329,-377,0,0,0,0,0,0,0,0,0,-1,1553,1401,0,0
336,-377,0,0,0,0,0,0,0,0,0,-1,1560,1401,0,0
343,-377,0,0,0,0,0,0,0,0,0,-1,1567,1401,0,0
350,-377,0,0,0,0,0,0,0,0,0,-1,1574,1401,0,0
357,-377,0,0,0,0,0,0,0,0,0,-1,1581,1401,0,0
364,-377,0,0,0,0,0,0,0,0,0,-1,1588,1401,0,0
371,-377,0,0,0,0,0,0,0,0,0,-1,1595,1401,0,0
378,-377,0,0,0,0,0,0,0,0,0,-1,1602,1401,0,0
385,-377,0,0,0,0,0,0,0,0,0,-1,1609,1401,0,0
392,-377,0,0,0,0,0,0,0,0,0,-1,1616,1401,0,0
399,-377,0,0,0,0,0,0,0,0,0,-1,1623,1401,0,0
406,-377,0,0,0,0,0,0,0,0,0,-1,1630,1401,0,0
413,-377,0,0,0,0,0,0,0,0,0,-1,1637,1401,0,0
420,-377,0,0,0,0,0,0,0,0,0,-1,1644,1401,0,0
427,-377,0,0,0,0,0,0,0,0,0,-1,1651,1401,0,0
434,-377,0,0,0,0,0,0,0,0,0,-1,1658,1401,0,0
441,-377,0,0,0,0,0,0,0,0,0,-1,1665,1401,0,0
448,-377,0,0,0,0,0,0,0,0,0,-1,1672,1401,0,0
455,-377,0,0,0,0,0,0,0,0,0,-1,1679,1401,0,0
462,-377,0,0,0,0,0,0,0,0,0,-1,1686,1401,0,0
469,-377,0,0,0,0,0,0,0,0,0,-1,1693,1401,0,0
476,-377,0,0,0,0,0,0,0,0,0,-1,1700,1401,0,0
483,-377,0,0,0,0,0,0,0,0,0,-1,1707,1401,0,0
490,-377,0,0,0,0,0,0,0,0,0,-1,1714,1401,0,0
497,-377,0,0,0,0,0,0,0,0,0,-1,1721,1401,0,0
504,-377,0,0,0,0,0,0,0,0,0,-1,1728,1401,0,0
511,-377,0,0,0,0,0,0,0,0,0,-1,1735,1401,0,0
518,-377,0,0,0,0,0,0,0,0,0,-1,1742,1401,0,0
525,-377,0,0,0,0,0,0,0,0,0,-1,1749,1401,0,0
532,-377,0,0,0,0,0,0,0,0,0,-1,1756,1401,0,0
539,-377,0,0,0,0,0,0,0,0,0,-1,1763,1401,0,0
546,-377,27.8485,2.34094,0,0,0,0,0,0,0,-1,1770,1401,27.8486,-2.34091
553,-377,61.8907,2.39148,0,0,0,0,0,0,0,-1,1777,1401,61.8908,-2.39149
560,-377,38.3577,-2.15015,0,0,0,0,0,0,0,-1,1784,1401,38.3576,2.1501
567,-377,38.4889,-0.285645,0,0,0,0,0,0,0,-1,1791,1401,38.4889,0.2857
574,-377,38.6221,1.61694,0,0,0,0,0,0,0,-1,1798,1401,38.6221,-1.61689
581,-377,39.1818,3.76367,0,0,0,0,0,0,0,-1,1805,1401,39.1818,-3.76366
588,-377,25.882,4.35217,0,0,0,0,0,0,0,-1,1812,1401,25.8819,-4.3522
595,-377,25.5392,5.11804,0,0,0,0,0,0,0,-1,1819,1401,25.5392,-5.11808
602,-377,24.816,5.79126,0,0,0,0,0,0,0,-1,1826,1401,24.816,-5.79124
609,-377,15.0223,4.76135,0,0,0,0,0,0,0,-1,1833,1401,15.0224,-4.76129
616,-377,14.1842,5.78992,0,0,0,0,0,0,0,-1,1840,1401,14.1842,-5.78987
623,-377,15.8248,8.76721,0,0,0,0,0,0,0,-1,1847,1401,15.8248,-8.76725
630,-377,37.4343,20.0704,0,0,0,0,0,0,0,-1,1854,1401,37.4344,-20.0704
637,-377,40.8499,20.6128,0,0,0,0,0,0,0,-1,1861,1401,40.8499,-20.6128
644,-377,40.8442,19.8112,-0.000686765,0.00112486,-0.000427711,0.00122076,-0.000782668,-1.35022,0.00116586,0.0147467,1868,1401,40.8442,-19.8111
651,-377,40.817,19.0217,-0.000122974,0.000730933,-0.000259482,0.0008036,-0.000195641,-1.29775,0.00061147,0.0149414,1875,1401,40.817,-19.0218
658,-377,40.777,18.2739,0.000693759,0.000298109,-0.000157241,0.000748639,0.00024323,-0.335796,0.000440973,0.0160895,1882,1401,40.777,-18.274
665,-377,40.7616,17.4795,0.001652,-0.000215502,-6.22627e-05,0.00165408,-0.000217575,-0.0332908,0.00118194,0.0199823,1889,1401,40.7616,-17.4795
672,-377,40.7124,16.7175,0.0028082,-0.000857396,2.56111e-05,0.00280838,-0.000857575,0.00698644,0.00221418,0.0200454,1896,1401,40.7124,-16.7175
679,-377,40.6736,15.9495,0.00414112,-0.00162894,0.000112503,0.00414331,-0.00163113,0.0194879,0.00343744,0.019803,1903,1401,40.6736,-15.9495
686,-377,40.606,15.225,0.00567821,-0.00254571,0.000180137,0.00568215,-0.00254965,0.02189,0.00486599,0.0171687,1910,1401,40.6059,-15.225
693,-377,40.6407,14.403,0.00741344,-0.00359616,0.000220882,0.00741787,-0.00360059,0.0200519,0.00648752,0.0262046,1917,1401,40.6408,-14.4029
700,-377,40.7898,13.4506,0,0,0,0,0,0,0,-1,1924,1401,40.7898,-13.4506
707,-377,28.6234,9.18152,0,0,0,0,0,0,0,-1,1931,1401,28.6234,-9.18151
714,-377,16.5369,5.45959,0,0,0,0,0,0,0,-1,1938,1401,16.5369,-5.4596
721,-377,17.0913,5.42529,0,0,0,0,0,0,0,-1,1945,1401,17.0914,-5.42529
728,-377,14.5396,2.79724,0,0,0,0,0,0,0,-1,1952,1401,14.5396,-2.7972
735,-377,23.2977,-0.991089,0,0,0,0,0,0,0,-1,1959,1401,23.2978,0.991076
742,-377,0,0,0,0,0,0,0,0,0,-1,1966,1401,0,0
749,-377,0,0,0,0,0,0,0,0,0,-1,1973,1401,0,0
756,-377,0,0,0,0,0,0,0,0,0,-1,1980,1401,0,0
763,-377,0,0,0,0,0,0,0,0,0,-1,1987,1401,0,0
770,-377,0,0,0,0,0,0,0,0,0,-1,1994,1401,0,0
777,-377,0,0,0,0,0,0,0,0,0,-1,2001,1401,0,0
784,-377,0,0,0,0,0,0,0,0,0,-1,2008,1401,0,0
791,-377,0,0,0,0,0,0,0,0,0,-1,2015,1401,0,0
798,-377,0,0,0,0,0,0,0,0,0,-1,2022,1401,0,0
805,-377,0,0,0,0,0,0,0,0,0,-1,2029,1401,0,0
812,-377,0,0,0,0,0,0,0,0,0,-1,2036,1401,0,0
-700,-384,0,0,0,0,0,0,0,0,0,-1,524,1408,0,0
-693,-384,0,0,0,0,0,0,0,0,0,-1,531,1408,0,0
-686,-384,0,0,0,0,0,0,0,0,0,-1,538,1408,0,0
-679,-384,0,0,0,0,0,0,0,0,0,-1,545,1408,0,0
-672,-384,0,0,0,0,0,0,0,0,0,-1,552,1408,0,0
-665,-384,0,0,0,0,0,0,0,0,0,-1,559,1408,0,0
-658,-384,0,0,0,0,0,0,0,0,0,-1,566,1408,0,0
-651,-384,0,0,0,0,0,0,0,0,0,-1,573,1408,0,0
-644,-384,0,0,0,0,0,0,0,0,0,-1,580,1408,0,0
-637,-384,0,0,0,0,0,0,0,0,0,-1,587,1408,0,0
-630,-384,0,0,0,0,0,0,0,0,0,-1,594,1408,0,0
-623,-384,0,0,0,0,0,0,0,0,0,-1,601,1408,0,0
-616,-384,-10.019,-3.36646,0,0,0,0,0,0,0,-1,608,1408,-10.019,3.36648
-609,-384,-7.72357,-2.3418,0,0,0,0,0,0,0,-1,615,1408,-7.72358,2.34182
-602,-384,-11.7632,-2.85156,0,0,0,0,0,0,0,-1,622,1408,-11.7632,2.85157
-595,-384,-10.2217,2.8855,0,0,0,0,0,0,0,-1,629,1408,-10.2218,-2.88548
-588,-384,-12.1653,2.29041,0,0,0,0,0,0,0,-1,636,1408,-12.1654,-2.29038
-581,-384,-11.9297,3.60376,0,0,0,0,0,0,0,-1,643,1408,-11.9298,-3.6038
-574,-384,-11.8677,6.02722,0,0,0,0,0,0,0,-1,650,1408,-11.8677,-6.02722
-567,-384,-12.0743,7.04639,0,0,0,0,0,0,0,-1,657,1408,-12.0743,-7.04641
-560,-384,-19.9478,11.6345,0,0,0,0,0,0,0,-1,664,1408,-19.9478,-11.6345
-553,-384,-22.3203,14.421,0,0,0,0,0,0,0,-1,671,1408,-22.3203,-14.4211
-546,-384,-22.3221,15.3265,0.00447676,0.0025367,0.00286938,0.00653564,0.000477818,0.622399,0.00420688,0.0163382,678,1408,-22.3221,-15.3265
-539,-384,-22.3651,16.1128,0.00365532,0.00170914,0.00209944,0.00499621,0.000368238,0.568386,0.0032151,0.0178194,685,1408,-22.365,-16.1128
-532,-384,-22.3475,16.8805,0.00311856,0.00110243,0.00153212,0.0039445,0.000276487,0.494426,0.00254252,0.0220251,692,1408,-22.3475,-16.8805
-525,-384,-22.3718,17.7352,0.00284208,0.000717415,0.00117158,0.00336125,0.000198244,0.417132,0.00217776,0.0222109,699,1408,-22.3717,-17.7353
-518,-384,-22.4763,18.5159,0.00277829,0.000471553,0.000983586,0.00314074,0.000109105,0.353057,0.00205842,0.0137472,706,1408,-22.4763,-18.5159
-511,-384,-22.522,19.3259,0.0029451,0.000442684,0.000990999,0.00329001,9.77708e-05,0.334933,0.00216149,0.0111702,713,1408,-22.5221,-19.3259
-504,-384,-22.5504,20.139,0.00338683,0.000620321,0.00125734,0.00387288,0.00013427,0.368876,0.00253835,0.012875,720,1408,-22.5503,-20.139
-497,-384,-22.5407,20.9672,0.00403948,0.000991978,0.0017522,0.0048378,0.000193653,0.427511,0.00316263,0.042455,727,1408,-22.5407,-20.9672
-490,-384,-22.3997,21.9092,0,0,0,0,0,0,0,-1,734,1408,-22.3997,-21.9092
-483,-384,-6.26471,7.61194,0,0,0,0,0,0,0,-1,741,1408,-6.26469,-7.61191
-476,-384,-6.02734,5.67761,0,0,0,0,0,0,0,-1,748,1408,-6.02736,-5.6776
-469,-384,-10.206,2.63721,0,0,0,0,0,0,0,-1,755,1408,-10.206,-2.6372
-462,-384,-9.04291,1.43542,0,0,0,0,0,0,0,-1,762,1408,-9.04293,-1.43545
-455,-384,-7.87988,0.233765,0,0,0,0,0,0,0,-1,769,1408,-7.87986,-0.233709
-448,-384,-9.35529,7.19226,0,0,0,0,0,0,0,-1,776,1408,-9.35531,-7.19226
-441,-384,-10.4697,1.79004,0,0,0,0,0,0,0,-1,783,1408,-10.4697,-1.79003
-434,-384,-10.6449,0.552246,0,0,0,0,0,0,0,-1,790,1408,-10.6449,-0.552216
-427,-384,-10.968,1.10583,0,0,0,0,0,0,0,-1,797,1408,-10.968,-1.10588
-420,-384,-12.5607,4.54858,0,0,0,0,0,0,0,-1,804,1408,-12.5607,-4.54859
-413,-384,0,0,0,0,0,0,0,0,0,-1,811,1408,0,0
-406,-384,0,0,0,0,0,0,0,0,0,-1,818,1408,0,0
-399,-384,0,0,0,0,0,0,0,0,0,-1,825,1408,0,0
-392,-384,0,0,0,0,0,0,0,0,0,-1,832,1408,0,0
-385,-384,0,0,0,0,0,0,0,0,0,-1,839,1408,0,0
-378,-384,0,0,0,0,0,0,0,0,0,-1,846,1408,0,0
-371,-384,0,0,0,0,0,0,0,0,0,-1,853,1408,0,0
-364,-384,0,0,0,0,0,0,0,0,0,-1,860,1408,0,0
-357,-384,0,0,0,0,0,0,0,0,0,-1,867,1408,0,0
-350,-384,0,0,0,0,0,0,0,0,0,-1,874,1408,0,0
-343,-384,0,0,0,0,0,0,0,0,0,-1,881,1408,0,0
-336,-384,0,0,0,0,0,0,0,0,0,-1,888,1408,0,0
-329,-384,0,0,0,0,0,0,0,0,0,-1,895,1408,0,0
-322,-384,0,0,0,0,0,0,0,0,0,-1,902,1408,0,0
-315,-384,0,0,0,0,0,0,0,0,0,-1,909,1408,0,0
-308,-384,0,0,0,0,0,0,0,0,0,-1,916,1408,0,0
-301,-384,0,0,0,0,0,0,0,0,0,-1,923,1408,0,0
-294,-384,0,0,0,0,0,0,0,0,0,-1,930,1408,0,0
-287,-384,0,0,0,0,0,0,0,0,0,-1,937,1408,0,0
-280,-384,0,0,0,0,0,0,0,0,0,-1,944,1408,0,0
-273,-384,0,0,0,0,0,0,0,0,0,-1,951,1408,0,0
-266,-384,0,0,0,0,0,0,0,0,0,-1,958,1408,0,0
-259,-384,0,0,0,0,0,0,0,0,0,-1,965,1408,0,0
-252,-384,0,0,0,0,0,0,0,0,0,-1,972,1408,0,0
-245,-384,0,0,0,0,0,0,0,0,0,-1,979,1408,0,0
-238,-384,0,0,0,0,0,0,0,0,0,-1,986,1408,0,0
-231,-384,0,0,0,0,0,0,0,0,0,-1,993,1408,0,0
-224,-384,0,0,0,0,0,0,0,0,0,-1,1000,1408,0,0
-217,-384,0,0,0,0,0,0,0,0,0,-1,1007,1408,0,0
-210,-384,0,0,0,0,0,0,0,0,0,-1,1014,1408,0,0
-203,-384,0,0,0,0,0,0,0,0,0,-1,1021,1408,0,0
-196,-384,0,0,0,0,0,0,0,0,0,-1,1028,1408,0,0
-189,-384,0,0,0,0,0,0,0,0,0,-1,1035,1408,0,0
-182,-384,0,0,0,0,0,0,0,0,0,-1,1042,1408,0,0
-175,-384,0,0,0,0,0,0,0,0,0,-1,1049,1408,0,0
-168,-384,0,0,0,0,0,0,0,0,0,-1,1056,1408,0,0
-161,-384,0,0,0,0,0,0,0,0,0,-1,1063,1408,0,0
-154,-384,0,0,0,0,0,0,0,0,0,-1,1070,1408,0,0
-147,-384,0,0,0,0,0,0,0,0,0,-1,1077,1408,0,0
-140,-384,0,0,0,0,0,0,0,0,0,-1,1084,1408,0,0
-133,-384,0,0,0,0,0,0,0,0,0,-1,1091,1408,0,0
-126,-384,0,0,0,0,0,0,0,0,0,-1,1098,1408,0,0
-119,-384,0,0,0,0,0,0,0,0,0,-1,1105,1408,0,0
-112,-384,0,0,0,0,0,0,0,0,0,-1,1112,1408,0,0
-105,-384,0,0,0,0,0,0,0,0,0,-1,1119,1408,0,0
-98,-384,0,0,0,0,0,0,0,0,0,-1,1126,1408,0,0
-91,-384,0,0,0,0,0,0,0,0,0,-1,1133,1408,0,0
-84,-384,0,0,0,0,0,0,0,0,0,-1,1140,1408,0,0
-77,-384,0,0,0,0,0,0,0,0,0,-1,1147,1408,0,0
-70,-384,0,0,0,0,0,0,0,0,0,-1,1154,1408,0,0
-63,-384,0,0,0,0,0,0,0,0,0,-1,1161,1408,0,0
-56,-384,0,0,0,0,0,0,0,0,0,-1,1168,1408,0,0
-49,-384,0,0,0,0,0,0,0,0,0,-1,1175,1408,0,0
-42,-384,0,0,0,0,0,0,0,0,0,-1,1182,1408,0,0
-35,-384,0,0,0,0,0,0,0,0,0,-1,1189,1408,0,0
-28,-384,0,0,0,0,0,0,0,0,0,-1,1196,1408,0,0
-21,-384,0,0,0,0,0,0,0,0,0,-1,1203,1408,0,0
-14,-384,0,0,0,0,0,0,0,0,0,-1,1210,1408,0,0
-7,-384,0,0,0,0,0,0,0,0,0,-1,1217,1408,0,0
0,-384,0,0,0,0,0,0,0,0,0,-1,1224,1408,0,0
7,-384,0,0,0,0,0,0,0,0,0,-1,1231,1408,0,0
14,-384,0,0,0,0,0,0,0,0,0,-1,1238,1408,0,0
21,-384,0,0,0,0,0,0,0,0,0,-1,1245,1408,0,0
28,-384,0,0,0,0,0,0,0,0,0,-1,1252,1408,0,0
35,-384,0,0,0,0,0,0,0,0,0,-1,1259,1408,0,0
42,-384,0,0,0,0,0,0,0,0,0,-1,1266,1408,0,0
49,-384,0,0,0,0,0,0,0,0,0,-1,1273,1408,0,0
56,-384,0,0,0,0,0,0,0,0,0,-1,1280,1408,0,0
63,-384,0,0,0,0,0,0,0,0,0,-1,1287,1408,0,0
70,-384,0,0,0,0,0,0,0,0,0,-1,1294,1408,0,0
77,-384,0,0,0,0,0,0,0,0,0,-1,1301,1408,0,0
84,-384,0,0,0,0,0,0,0,0,0,-1,1308,1408,0,0
91,-384,0,0,0,0,0,0,0,0,0,-1,1315,1408,0,0
98,-384,0,0,0,0,0,0,0,0,0,-1,1322,1408,0,0
105,-384,0,0,0,0,0,0,0,0,0,-1,1329,1408,0,0
112,-384,0,0,0,0,0,0,0,0,0,-1,1336,1408,0,0
119,-384,0,0,0,0,0,0,0,0,0,-1,1343,1408,0,0
126,-384,0,0,0,0,0,0,0,0,0,-1,1350,1408,0,0
133,-384,0,0,0,0,0,0,0,0,0,-1,1357,1408,0,0
140,-384,0,0,0,0,0,0,0,0,0,-1,1364,1408,0,0
147,-384,0,0,0,0,0,0,0,0,0,-1,1371,1408,0,0
154,-384,0,0,0,0,0,0,0,0,0,-1,1378,1408,0,0
161,-384,0,0,0,0,0,0,0,0,0,-1,1385,1408,0,0
168,-384,0,0,0,0,0,0,0,0,0,-1,1392,1408,0,0
175,-384,0,0,0,0,0,0,0,0,0,-1,1399,1408,0,0
182,-384,0,0,0,0,0,0,0,0,0,-1,1406,1408,0,0
189,-384,0,0,0,0,0,0,0,0,0,-1,1413,1408,0,0
196,-384,0,0,0,0,0,0,0,0,0,-1,1420,1408,0,0
203,-384,0,0,0,0,0,0,0,0,0,-1,1427,1408,0,0
210,-384,0,0,0,0,0,0,0,0,0,-1,1434,1408,0,0
217,-384,0,0,0,0,0,0,0,0,0,-1,1441,1408,0,0
224,-384,0,0,0,0,0,0,0,0,0,-1,1448,1408,0,0
231,-384,0,0,0,0,0,0,0,0,0,-1,1455,1408,0,0
238,-384,0,0,0,0,0,0,0,0,0,-1,1462,1408,0,0
245,-384,0,0,0,0,0,0,0,0,0,-1,1469,1408,0,0
252,-384,0,0,0,0,0,0,0,0,0,-1,1476,1408,0,0
259,-384,0,0,0,0,0,0,0,0,0,-1,1483,1408,0,0
266,-384,0,0,0,0,0,0,0,0,0,-1,1490,1408,0,0
273,-384,0,0,0,0,0,0,0,0,0,-1,1497,1408,0,0
280,-384,0,0,0,0,0,0,0,0,0,-1,1504,1408,0,0
287,-384,0,0,0,0,0,0,0,0,0,-1,1511,1408,0,0
294,-384,0,0,0,0,0,0,0,0,0,-1,1518,1408,0,0
301,-384,0,0,0,0,0,0,0,0,0,-1,1525,1408,0,0
308,-384,0,0,0,0,0,0,0,0,0,-1,1532,1408,0,0
315,-384,0,0,0,0,0,0,0,0,0,-1,1539,1408,0,0
322,-384,0,0,0,0,0,0,0,0,0,-1,1546,1408,0,0
329,-384,0,0,0,0,0,0,0,0,0,-1,1553,1408,0,0
336,-384,0,0,0,0,0,0,0,0,0,-1,1560,1408,0,0
343,-384,0,0,0,0,0,0,0,0,0,-1,1567,1408,0,0
350,-384,0,0,0,0,0,0,0,0,0,-1,1574,1408,0,0
357,-384,0,0,0,0,0,0,0,0,0,-1,1581,1408,0,0
364,-384,0,0,0,0,0,0,0,0,0,-1,1588,1408,0,0
371,-384,0,0,0,0,0,0,0,0,0,-1,1595,1408,0,0
378,-384,0,0,0,0,0,0,0,0,0,-1,1602,1408,0,0
385,-384,0,0,0,0,0,0,0,0,0,-1,1609,1408,0,0
392,-384,0,0,0,0,0,0,0,0,0,-1,1616,1408,0,0
399,-384,0,0,0,0,0,0,0,0,0,-1,1623,1408,0,0
406,-384,0,0,0,0,0,0,0,0,0,-1,1630,1408,0,0
413,-384,0,0,0,0,0,0,0,0,0,-1,1637,1408,0,0
420,-384,0,0,0,0,0,0,0,0,0,-1,1644,1408,0,0
427,-384,0,0,0,0,0,0,0,0,0,-1,1651,1408,0,0
434,-384,0,0,0,0,0,0,0,0,0,-1,1658,1408,0,0
441,-384,0,0,0,0,0,0,0,0,0,-1,1665,1408,0,0
448,-384,0,0,0,0,0,0,0,0,0,-1,1672,1408,0,0
455,-384,0,0,0,0,0,0,0,0,0,-1,1679,1408,0,0
462,-384,0,0,0,0,0,0,0,0,0,-1,1686,1408,0,0
469,-384,0,0,0,0,0,0,0,0,0,-1,1693,1408,0,0
476,-384,0,0,0,0,0,0,0,0,0,-1,1700,1408,0,0
483,-384,0,0,0,0,0,0,0,0,0,-1,1707,1408,0,0
490,-384,0,0,0,0,0,0,0,0,0,-1,1714,1408,0,0
497,-384,0,0,0,0,0,0,0,0,0,-1,1721,1408,0,0
504,-384,0,0,0,0,0,0,0,0,0,-1,1728,1408,0,0
511,-384,0,0,0,0,0,0,0,0,0,-1,1735,1408,0,0
518,-384,0,0,0,0,0,0,0,0,0,-1,1742,1408,0,0
525,-384,0,0,0,0,0,0,0,0,0,-1,1749,1408,0,0
532,-384,0,0,0,0,0,0,0,0,0,-1,1756,1408,0,0
539,-384,27.6886,2.85803,0,0,0,0,0,0,0,-1,1763,1408,27.6886,-2.85807
546,-384,27.5044,2.9425,0,0,0,0,0,0,0,-1,1770,1408,27.5044,-2.94255
553,-384,27.3052,2.78394,0,0,0,0,0,0,0,-1,1777,1408,27.3051,-2.78394
560,-384,26.833,3.19812,0,0,0,0,0,0,0,-1,1784,1408,26.833,-3.19816
567,-384,38.2566,0.109985,0,0,0,0,0,0,0,-1,1791,1408,38.2566,-0.110044
574,-384,38.4003,2.05945,0,0,0,0,0,0,0,-1,1798,1408,38.4003,-2.05949
581,-384,25.819,3.91846,0,0,0,0,0,0,0,-1,1805,1408,25.8189,-3.91848
588,-384,23.3721,4.25439,0,0,0,0,0,0,0,-1,1812,1408,23.3721,-4.25442
595,-384,24.981,5.59595,0,0,0,0,0,0,0,-1,1819,1408,24.981,-5.59598
602,-384,20.6605,4.17261,0,0,0,0,0,0,0,-1,1826,1408,20.6606,-4.17265
609,-384,14.158,5.49475,0,0,0,0,0,0,0,-1,1833,1408,14.158,-5.49474
616,-384,14.7997,7.6908,0,0,0,0,0,0,0,-1,1840,1408,14.7996,-7.69079
623,-384,16.4293,9.58899,0,0,0,0,0,0,0,-1,1847,1408,16.4294,-9.58901
630,-384,40.0453,21.489,0,0,0,0,0,0,0,-1,1854,1408,40.0453,-21.489
637,-384,40.0955,20.6456,-0.000250555,0.000450297,-0.000197994,0.000502364,-0.000302621,-1.31365,0.000469503,0.0262916,1861,1408,40.0955,-20.6456
644,-384,40.037,19.8855,-0.000114489,0.000707889,-0.000281,0.000794733,-0.000201334,-1.27105,0.000608146,0.0173605,1868,1408,40.0369,-19.8854
651,-384,40.0135,19.0621,0.000418925,0.000431693,-0.000195882,0.000621295,0.000229323,-0.801688,0.000362779,0.0161911,1875,1408,40.0136,-19.0621
658,-384,39.9755,18.2955,0.00118454,6.7855e-05,-0.000134612,0.00120054,5.18572e-05,-0.118289,0.000783645,0.0166775,1882,1408,39.9755,-18.2955
665,-384,39.9717,17.5541,0.00213783,-0.000413602,-5.81749e-05,0.00213916,-0.000414928,-0.0227851,0.00158265,0.0191131,1889,1408,39.9717,-17.5541
672,-384,39.9341,16.7755,0.00333123,-0.00108145,4.41118e-05,0.00333168,-0.00108189,0.00999526,0.00265624,0.0173006,1896,1408,39.9341,-16.7755
679,-384,39.8719,16.0005,0.00474115,-0.00195886,0.000185126,0.00474627,-0.00196398,0.0276026,0.00398362,0.0167913,1903,1408,39.8719,-16.0004
686,-384,39.8159,15.2568,0.00640205,-0.00309243,0.00035676,0.00641544,-0.00310581,0.037505,0.00560671,0.0147584,1910,1408,39.8159,-15.2568
693,-384,39.9323,14.4823,0.00829837,-0.00448955,0.000572342,0.00832394,-0.00451511,0.0446375,0.00752057,0.044372,1917,1408,39.9323,-14.4824
700,-384,40.13,13.7386,0,0,0,0,0,0,0,-1,1924,1408,40.13,-13.7387
707,-384,17.0566,6.62842,0,0,0,0,0,0,0,-1,1931,1408,17.0567,-6.62848
714,-384,16.038,5.0282,0,0,0,0,0,0,0,-1,1938,1408,16.038,-5.02819
721,-384,13.8843,2.8717,0,0,0,0,0,0,0,-1,1945,1408,13.8843,-2.87171
728,-384,15.4409,6.25745,0,0,0,0,0,0,0,-1,1952,1408,15.4409,-6.2574
735,-384,16.7598,6.71289,0,0,0,0,0,0,0,-1,1959,1408,16.7598,-6.71287
742,-384,0,0,0,0,0,0,0,0,0,-1,1966,1408,0,0
749,-384,0,0,0,0,0,0,0,0,0,-1,1973,1408,0,0
756,-384,0,0,0,0,0,0,0,0,0,-1,1980,1408,0,0
763,-384,0,0,0,0,0,0,0,0,0,-1,1987,1408,0,0
770,-384,0,0,0,0,0,0,0,0,0,-1,1994,1408,0,0
777,-384,0,0,0,0,0,0,0,0,0,-1,2001,1408,0,0
784,-384,0,0,0,0,0,0,0,0,0,-1,2008,1408,0,0
791,-384,0,0,0,0,0,0,0,0,0,-1,2015,1408,0,0
798,-384,0,0,0,0,0,0,0,0,0,-1,2022,1408,0,0
805,-384,0,0,0,0,0,0,0,0,0,-1,2029,1408,0,0
812,-384,0,0,0,0,0,0,0,0,0,-1,2036,1408,0,0
-700,-391,0,0,0,0,0,0,0,0,0,-1,524,1415,0,0
-693,-391,0,0,0,0,0,0,0,0,0,-1,531,1415,0,0
-686,-391,0,0,0,0,0,0,0,0,0,-1,538,1415,0,0
-679,-391,0,0,0,0,0,0,0,0,0,-1,545,1415,0,0
-672,-391,0,0,0,0,0,0,0,0,0,-1,552,1415,0,0
-665,-391,0,0,0,0,0,0,0,0,0,-1,559,1415,0,0
-658,-391,0,0,0,0,0,0,0,0,0,-1,566,1415,0,0
-651,-391,0,0,0,0,0,0,0,0,0,-1,573,1415,0,0
-644,-391,0,0,0,0,0,0,0,0,0,-1,580,1415,0,0
-637,-391,0,0,0,0,0,0,0,0,0,-1,587,1415,0,0
-630,-391,0,0,0,0,0,0,0,0,0,-1,594,1415,0,0
-623,-391,0,0,0,0,0,0,0,0,0,-1,601,1415,0,0
-616,-391,0,0,0,0,0,0,0,0,0,-1,608,1415,0,0
-609,-391,-7.71753,-3.69763,0,0,0,0,0,0,0,-1,615,1415,-7.71751,3.69759
-602,-391,-13.9493,-4.12805,0,0,0,0,0,0,0,-1,622,1415,-13.9493,4.12803
-595,-391,-10.8315,1.76172,0,0,0,0,0,0,0,-1,629,1415,-10.8315,-1.76171
-588,-391,-10.265,2.16431,0,0,0,0,0,0,0,-1,636,1415,-10.265,-2.16431
-581,-391,-11.3325,2.44836,0,0,0,0,0,0,0,-1,643,1415,-11.3325,-2.44842
-574,-391,-11.1471,6.19983,0,0,0,0,0,0,0,-1,650,1415,-11.1471,-6.19981
-567,-391,-11.5172,6.82458,0,0,0,0,0,0,0,-1,657,1415,-11.5171,-6.82454
-560,-391,-11.2459,7.37195,0,0,0,0,0,0,0,-1,664,1415,-11.2459,-7.37191
-553,-391,-21.6147,14.4821,0,0,0,0,0,0,0,-1,671,1415,-21.6148,-14.482
-546,-391,-21.5479,15.3359,0.00512816,0.0032939,0.00360113,0.00792712,0.000494944,0.66071,0.00512773,0.0207442,678,1415,-21.5478,-15.3359
-539,-391,-21.5137,16.1675,0.00405373,0.00232128,0.00261235,0.00593973,0.00043528,0.625308,0.003823,0.0149803,685,1415,-21.5137,-16.1675
-532,-391,-21.5144,16.9905,0.00329028,0.00156606,0.00185548,0.00447415,0.000382188,0.567923,0.00286388,0.0250217,692,1415,-21.5144,-16.9905
-525,-391,-21.5726,17.8397,0.00283625,0.00109262,0.00136793,0.00358656,0.000342312,0.501691,0.00228549,0.0233381,699,1415,-21.5726,-17.8397
-518,-391,-21.6906,18.5887,0.0025982,0.000769524,0.0010798,0.00309877,0.00026895,0.434091,0.00198229,0.0146279,706,1415,-21.6906,-18.5888
-511,-391,-21.7077,19.3788,0.00256075,0.000648908,0.000973017,0.00296885,0.000240811,0.39713,0.00190404,0.013584,713,1415,-21.7077,-19.3787
-504,-391,-21.7407,20.1859,0.00275968,0.000716516,0.00110167,0.00324053,0.000235662,0.411551,0.00208624,0.0126414,720,1415,-21.7407,-20.1859
-497,-391,-21.7853,20.9863,0.0031517,0.000960243,0.00145113,0.00387432,0.00023762,0.462024,0.00250743,0.0144309,727,1415,-21.7854,-20.9863
-490,-391,-21.809,21.8073,0,0,0,0,0,0,0,-1,734,1415,-21.809,-21.8072
-483,-391,-11.1018,12.9382,0,0,0,0,0,0,0,-1,741,1415,-11.1018,-12.9382
-476,-391,-6.05731,6.85303,0,0,0,0,0,0,0,-1,748,1415,-6.05728,-6.85304
-469,-391,-3.88953,5.0979,0,0,0,0,0,0,0,-1,755,1415,-3.88955,-5.09794
-462,-391,-8.67688,2.03125,0,0,0,0,0,0,0,-1,762,1415,-8.67685,-2.03121
-455,-391,-8.65576,6.46997,0,0,0,0,0,0,0,-1,769,1415,-8.65579,-6.46999
-448,-391,-8.39618,4.38403,0,0,0,0,0,0,0,-1,776,1415,-8.39617,-4.38405
-441,-391,-9.77704,2.5946,0,0,0,0,0,0,0,-1,783,1415,-9.77702,-2.5946
-434,-391,-11.5403,2.12878,0,0,0,0,0,0,0,-1,790,1415,-11.5403,-2.12881
-427,-391,-10.5311,2.50403,0,0,0,0,0,0,0,-1,797,1415,-10.5311,-2.504
-420,-391,-14.7087,1.24365,0,0,0,0,0,0,0,-1,804,1415,-14.7088,-1.24365
-413,-391,0,0,0,0,0,0,0,0,0,-1,811,1415,0,0
-406,-391,0,0,0,0,0,0,0,0,0,-1,818,1415,0,0
-399,-391,0,0,0,0,0,0,0,0,0,-1,825,1415,0,0
-392,-391,0,0,0,0,0,0,0,0,0,-1,832,1415,0,0
-385,-391,0,0,0,0,0,0,0,0,0,-1,839,1415,0,0
-378,-391,0,0,0,0,0,0,0,0,0,-1,846,1415,0,0
-371,-391,0,0,0,0,0,0,0,0,0,-1,853,1415,0,0
-364,-391,0,0,0,0,0,0,0,0,0,-1,860,1415,0,0
-357,-391,0,0,0,0,0,0,0,0,0,-1,867,1415,0,0
-350,-391,0,0,0,0,0,0,0,0,0,-1,874,1415,0,0
-343,-391,0,0,0,0,0,0,0,0,0,-1,881,1415,0,0
-336,-391,0,0,0,0,0,0,0,0,0,-1,888,1415,0,0
-329,-391,0,0,0,0,0,0,0,0,0,-1,895,1415,0,0
-322,-391,0,0,0,0,0,0,0,0,0,-1,902,1415,0,0
-315,-391,0,0,0,0,0,0,0,0,0,-1,909,1415,0,0
-308,-391,0,0,0,0,0,0,0,0,0,-1,916,1415,0,0
-301,-391,0,0,0,0,0,0,0,0,0,-1,923,1415,0,0
-294,-391,0,0,0,0,0,0,0,0,0,-1,930,1415,0,0
-287,-391,0,0,0,0,0,0,0,0,0,-1,937,1415,0,0
-280,-391,0,0,0,0,0,0,0,0,0,-1,944,1415,0,0
-273,-391,0,0,0,0,0,0,0,0,0,-1,951,1415,0,0
-266,-391,0,0,0,0,0,0,0,0,0,-1,958,1415,0,0
-259,-391,0,0,0,0,0,0,0,0,0,-1,965,1415,0,0
-252,-391,0,0,0,0,0,0,0,0,0,-1,972,1415,0,0
-245,-391,0,0,0,0,0,0,0,0,0,-1,979,1415,0,0
-238,-391,0,0,0,0,0,0,0,0,0,-1,986,1415,0,0
-231,-391,0,0,0,0,0,0,0,0,0,-1,993,1415,0,0
-224,-391,0,0,0,0,0,0,0,0,0,-1,1000,1415,0,0
-217,-391,0,0,0,0,0,0,0,0,0,-1,1007,1415,0,0
-210,-391,0,0,0,0,0,0,0,0,0,-1,1014,1415,0,0
-203,-391,0,0,0,0,0,0,0,0,0,-1,1021,1415,0,0
-196,-391,0,0,0,0,0,0,0,0,0,-1,1028,1415,0,0
-189,-391,0,0,0,0,0,0,0,0,0,-1,1035,1415,0,0
-182,-391,0,0,0,0,0,0,0,0,0,-1,1042,1415,0,0
-175,-391,0,0,0,0,0,0,0,0,0,-1,1049,1415,0,0
-168,-391,0,0,0,0,0,0,0,0,0,-1,1056,1415,0,0
-161,-391,0,0,0,0,0,0,0,0,0,-1,1063,1415,0,0
-154,-391,0,0,0,0,0,0,0,0,0,-1,1070,1415,0,0
-147,-391,0,0,0,0,0,0,0,0,0,-1,1077,1415,0,0
-140,-391,0,0,0,0,0,0,0,0,0,-1,1084,1415,0,0
-133,-391,0,0,0,0,0,0,0,0,0,-1,1091,1415,0,0
-126,-391,0,0,0,0,0,0,0,0,0,-1,1098,1415,0,0
-119,-391,0,0,0,0,0,0,0,0,0,-1,1105,1415,0,0
-112,-391,0,0,0,0,0,0,0,0,0,-1,1112,1415,0,0
-105,-391,0,0,0,0,0,0,0,0,0,-1,1119,1415,0,0
-98,-391,0,0,0,0,0,0,0,0,0,-1,1126,1415,0,0
-91,-391,0,0,0,0,0,0,0,0,0,-1,1133,1415,0,0
-84,-391,0,0,0,0,0,0,0,0,0,-1,1140,1415,0,0
-77,-391,0,0,0,0,0,0,0,0,0,-1,1147,1415,0,0
-70,-391,0,0,0,0,0,0,0,0,0,-1,1154,1415,0,0
-63,-391,0,0,0,0,0,0,0,0,0,-1,1161,1415,0,0
-56,-391,0,0,0,0,0,0,0,0,0,-1,1168,1415,0,0
-49,-391,0,0,0,0,0,0,0,0,0,-1,1175,1415,0,0
-42,-391,0,0,0,0,0,0,0,0,0,-1,1182,1415,0,0
-35,-391,0,0,0,0,0,0,0,0,0,-1,1189,1415,0,0
-28,-391,0,0,0,0,0,0,0,0,0,-1,1196,1415,0,0
-21,-391,0,0,0,0,0,0,0,0,0,-1,1203,1415,0,0
-14,-391,0,0,0,0,0,0,0,0,0,-1,1210,1415,0,0
-7,-391,0,0,0,0,0,0,0,0,0,-1,1217,1415,0,0
0,-391,0,0,0,0,0,0,0,0,0,-1,1224,1415,0,0
7,-391,0,0,0,0,0,0,0,0,0,-1,1231,1415,0,0
14,-391,0,0,0,0,0,0,0,0,0,-1,1238,1415,0,0
21,-391,0,0,0,0,0,0,0,0,0,-1,1245,1415,0,0
28,-391,0,0,0,0,0,0,0,0,0,-1,1252,1415,0,0
35,-391,0,0,0,0,0,0,0,0,0,-1,1259,1415,0,0
42,-391,0,0,0,0,0,0,0,0,0,-1,1266,1415,0,0
49,-391,0,0,0,0,0,0,0,0,0,-1,1273,1415,0,0
56,-391,0,0,0,0,0,0,0,0,0,-1,1280,1415,0,0
63,-391,0,0,0,0,0,0,0,0,0,-1,1287,1415,0,0
70,-391,0,0,0,0,0,0,0,0,0,-1,1294,1415,0,0
77,-391,0,0,0,0,0,0,0,0,0,-1,1301,1415,0,0
84,-391,0,0,0,0,0,0,0,0,0,-1,1308,1415,0,0
91,-391,0,0,0,0,0,0,0,0,0,-1,1315,1415,0,0
98,-391,0,0,0,0,0,0,0,0,0,-1,1322,1415,0,0
105,-391,0,0,0,0,0,0,0,0,0,-1,1329,1415,0,0
112,-391,0,0,0,0,0,0,0,0,0,-1,1336,1415,0,0
119,-391,0,0,0,0,0,0,0,0,0,-1,1343,1415,0,0
126,-391,0,0,0,0,0,0,0,0,0,-1,1350,1415,0,0
133,-391,0,0,0,0,0,0,0,0,0,-1,1357,1415,0,0
140,-391,0,0,0,0,0,0,0,0,0,-1,1364,1415,0,0
147,-391,0,0,0,0,0,0,0,0,0,-1,1371,1415,0,0
154,-391,0,0,0,0,0,0,0,0,0,-1,1378,1415,0,0
161,-391,0,0,0,0,0,0,0,0,0,-1,1385,1415,0,0
168,-391,0,0,0,0,0,0,0,0,0,-1,1392,1415,0,0
175,-391,0,0,0,0,0,0,0,0,0,-1,1399,1415,0,0
182,-391,0,0,0,0,0,0,0,0,0,-1,1406,1415,0,0
189,-391,0,0,0,0,0,0,0,0,0,-1,1413,1415,0,0
196,-391,0,0,0,0,0,0,0,0,0,-1,1420,1415,0,0
203,-391,0,0,0,0,0,0,0,0,0,-1,1427,1415,0,0
210,-391,0,0,0,0,0,0,0,0,0,-1,1434,1415,0,0
217,-391,0,0,0,0,0,0,0,0,0,-1,1441,1415,0,0
224,-391,0,0,0,0,0,0,0,0,0,-1,1448,1415,0,0
231,-391,0,0,0,0,0,0,0,0,0,-1,1455,1415,0,0
238,-391,0,0,0,0,0,0,0,0,0,-1,1462,1415,0,0
245,-391,0,0,0,0,0,0,0,0,0,-1,1469,1415,0,0
252,-391,0,0,0,0,0,0,0,0,0,-1,1476,1415,0,0
259,-391,0,0,0,0,0,0,0,0,0,-1,1483,1415,0,0
266,-391,0,0,0,0,0,0,0,0,0,-1,1490,1415,0,0
273,-391,0,0,0,0,0,0,0,0,0,-1,1497,1415,0,0
280,-391,0,0,0,0,0,0,0,0,0,-1,1504,1415,0,0
287,-391,0,0,0,0,0,0,0,0,0,-1,1511,1415,0,0
294,-391,0,0,0,0,0,0,0,0,0,-1,1518,1415,0,0
301,-391,0,0,0,0,0,0,0,0,0,-1,1525,1415,0,0
308,-391,0,0,0,0,0,0,0,0,0,-1,1532,1415,0,0
315,-391,0,0,0,0,0,0,0,0,0,-1,1539,1415,0,0
322,-391,0,0,0,0,0,0,0,0,0,-1,1546,1415,0,0
329,-391,0,0,0,0,0,0,0,0,0,-1,1553,1415,0,0
336,-391,0,0,0,0,0,0,0,0,0,-1,1560,1415,0,0
343,-391,0,0,0,0,0,0,0,0,0,-1,1567,1415,0,0
350,-391,0,0,0,0,0,0,0,0,0,-1,1574,1415,0,0
357,-391,0,0,0,0,0,0,0,0,0,-1,1581,1415,0,0
364,-391,0,0,0,0,0,0,0,0,0,-1,1588,1415,0,0
371,-391,0,0,0,0,0,0,0,0,0,-1,1595,1415,0,0
378,-391,0,0,0,0,0,0,0,0,0,-1,1602,1415,0,0
385,-391,0,0,0,0,0,0,0,0,0,-1,1609,1415,0,0
392,-391,0,0,0,0,0,0,0,0,0,-1,1616,1415,0,0
399,-391,0,0,0,0,0,0,0,0,0,-1,1623,1415,0,0
406,-391,0,0,0,0,0,0,0,0,0,-1,1630,1415,0,0
413,-391,0,0,0,0,0,0,0,0,0,-1,1637,1415,0,0
420,-391,0,0,0,0,0,0,0,0,0,-1,1644,1415,0,0
427,-391,0,0,0,0,0,0,0,0,0,-1,1651,1415,0,0
434,-391,0,0,0,0,0,0,0,0,0,-1,1658,1415,0,0
441,-391,0,0,0,0,0,0,0,0,0,-1,1665,1415,0,0
448,-391,0,0,0,0,0,0,0,0,0,-1,1672,1415,0,0
455,-391,0,0,0,0,0,0,0,0,0,-1,1679,1415,0,0
462,-391,0,0,0,0,0,0,0,0,0,-1,1686,1415,0,0
469,-391,0,0,0,0,0,0,0,0,0,-1,1693,1415,0,0
476,-391,0,0,0,0,0,0,0,0,0,-1,1700,1415,0,0
483,-391,0,0,0,0,0,0,0,0,0,-1,1707,1415,0,0
490,-391,0,0,0,0,0,0,0,0,0,-1,1714,1415,0,0
497,-391,0,0,0,0,0,0,0,0,0,-1,1721,1415,0,0
504,-391,0,0,0,0,0,0,0,0,0,-1,1728,1415,0,0
511,-391,0,0,0,0,0,0,0,0,0,-1,1735,1415,0,0
518,-391,0,0,0,0,0,0,0,0,0,-1,1742,1415,0,0
525,-391,0,0,0,0,0,0,0,0,0,-1,1749,1415,0,0
532,-391,28.5959,3.02356,0,0,0,0,0,0,0,-1,1756,1415,28.596,-3.02358
539,-391,27.5881,3.25012,0,0,0,0,0,0,0,-1,1763,1415,27.5882,-3.25016
546,-391,27.2837,3.28064,0,0,0,0,0,0,0,-1,1770,1415,27.2837,-3.28064
553,-391,32.5952,5.04553,0,0,0,0,0,0,0,-1,1777,1415,32.5952,-5.04551
560,-391,31.2947,5.67017,0,0,0,0,0,0,0,-1,1784,1415,31.2947,-5.67011
567,-391,30.1473,6.17603,0,0,0,0,0,0,0,-1,1791,1415,30.1473,-6.17602
574,-391,27.5656,5.6842,0,0,0,0,0,0,0,-1,1798,1415,27.5655,-5.68422
581,-391,25.8883,5.76123,0,0,0,0,0,0,0,-1,1805,1415,25.8883,-5.76124
588,-391,24.2717,5.47986,0,0,0,0,0,0,0,-1,1812,1415,24.2717,-5.47982
595,-391,22.8827,6.1991,0,0,0,0,0,0,0,-1,1819,1415,22.8827,-6.19909
602,-391,15.1635,5.69849,0,0,0,0,0,0,0,-1,1826,1415,15.1635,-5.69847
609,-391,14.8285,7.50476,0,0,0,0,0,0,0,-1,1833,1415,14.8285,-7.50479
616,-391,20.7952,12.0503,0,0,0,0,0,0,0,-1,1840,1415,20.7952,-12.0503
623,-391,36.6426,20.3677,0,0,0,0,0,0,0,-1,1847,1415,36.6426,-20.3676
630,-391,39.3738,21.3873,0,0,0,0,0,0,0,-1,1854,1415,39.3738,-21.3874
637,-391,39.3215,20.6543,0.000221426,0.000286335,-0.00012243,0.000380539,0.000127222,-0.914963,0.000223689,0.0182772,1861,1415,39.3216,-20.6543
644,-391,39.2751,19.8929,0.000373891,0.000440829,-0.000208194,0.000618227,0.000196493,-0.865096,0.000364744,0.0173613,1868,1415,39.2752,-19.8929
651,-391,39.2385,19.1348,0.000881192,0.000250091,-0.000191879,0.000934951,0.000196331,-0.273169,0.000569257,0.0184429,1875,1415,39.2386,-19.1347
658,-391,39.1919,18.3499,0.00164609,-3.77225e-05,-0.000196882,0.0016688,-6.04367e-05,-0.114862,0.00113322,0.019188,1882,1415,39.1919,-18.3499
665,-391,39.1593,17.6196,0.00263928,-0.000481105,-0.000160392,0.0026475,-0.000489328,-0.0512214,0.0019487,0.0154279,1889,1415,39.1593,-17.6197
672,-391,39.1263,16.8567,0.003898,-0.00116555,-5.81289e-05,0.00389867,-0.00116622,-0.0114778,0.00306278,0.0128243,1896,1415,39.1264,-16.8566
679,-391,39.078,16.0706,0.00540823,-0.00214916,0.000135945,0.00541068,-0.00215161,0.0179806,0.00449921,0.0123603,1903,1415,39.078,-16.0706
686,-391,39.0394,15.2676,0.00721217,-0.0035365,0.00043515,0.00722976,-0.00355408,0.040396,0.00634547,0.0190242,1910,1415,39.0395,-15.2676
693,-391,39.1072,14.9133,0.00927404,-0.00538207,0.000897489,0.0093288,-0.00543683,0.060933,0.00862309,0.0478443,1917,1415,39.1071,-14.9134
700,-391,39.4989,14.4878,0,0,0,0,0,0,0,-1,1924,1415,39.499,-14.4878
707,-391,12.9524,5.96851,0,0,0,0,0,0,0,-1,1931,1415,12.9524,-5.96849
714,-391,15.6875,7.67896,0,0,0,0,0,0,0,-1,1938,1415,15.6875,-7.67893
721,-391,14.1808,8.08435,0,0,0,0,0,0,0,-1,1945,1415,14.1808,-8.08439
728,-391,13.8102,7.28174,0,0,0,0,0,0,0,-1,1952,1415,13.8102,-7.28174
735,-391,0,0,0,0,0,0,0,0,0,-1,1959,1415,0,0
742,-391,0,0,0,0,0,0,0,0,0,-1,1966,1415,0,0
749,-391,0,0,0,0,0,0,0,0,0,-1,1973,1415,0,0
756,-391,0,0,0,0,0,0,0,0,0,-1,1980,1415,0,0
763,-391,0,0,0,0,0,0,0,0,0,-1,1987,1415,0,0
770,-391,0,0,0,0,0,0,0,0,0,-1,1994,1415,0,0
777,-391,0,0,0,0,0,0,0,0,0,-1,2001,1415,0,0
784,-391,0,0,0,0,0,0,0,0,0,-1,2008,1415,0,0
791,-391,0,0,0,0,0,0,0,0,0,-1,2015,1415,0,0
798,-391,0,0,0,0,0,0,0,0,0,-1,2022,1415,0,0
805,-391,0,0,0,0,0,0,0,0,0,-1,2029,1415,0,0
812,-391,0,0,0,0,0,0,0,0,0,-1,2036,1415,0,0
-700,-398,0,0,0,0,0,0,0,0,0,-1,524,1422,0,0
-693,-398,0,0,0,0,0,0,0,0,0,-1,531,1422,0,0
-686,-398,0,0,0,0,0,0,0,0,0,-1,538,1422,0,0
-679,-398,0,0,0,0,0,0,0,0,0,-1,545,1422,0,0
-672,-398,0,0,0,0,0,0,0,0,0,-1,552,1422,0,0
-665,-398,0,0,0,0,0,0,0,0,0,-1,559,1422,0,0
-658,-398,0,0,0,0,0,0,0,0,0,-1,566,1422,0,0
-651,-398,0,0,0,0,0,0,0,0,0,-1,573,1422,0,0
-644,-398,0,0,0,0,0,0,0,0,0,-1,580,1422,0,0
-637,-398,0,0,0,0,0,0,0,0,0,-1,587,1422,0,0
-630,-398,0,0,0,0,0,0,0,0,0,-1,594,1422,0,0
-623,-398,0,0,0,0,0,0,0,0,0,-1,601,1422,0,0
-616,-398,0,0,0,0,0,0,0,0,0,-1,608,1422,0,0
-609,-398,-7.47125,-4.05322,0,0,0,0,0,0,0,-1,615,1422,-7.47128,4.05317
-602,-398,-4.58868,-2.77026,0,0,0,0,0,0,0,-1,622,1422,-4.58869,2.77023
-595,-398,-12.2224,-1.82007,0,0,0,0,0,0,0,-1,629,1422,-12.2224,1.82006
-588,-398,-10.6939,1.32336,0,0,0,0,0,0,0,-1,636,1422,-10.6939,-1.32337
-581,-398,-10.433,3.1123,0,0,0,0,0,0,0,-1,643,1422,-10.433,-3.11233
-574,-398,-10.4475,5.89807,0,0,0,0,0,0,0,-1,650,1422,-10.4475,-5.89802
-567,-398,-10.4904,6.80115,0,0,0,0,0,0,0,-1,657,1422,-10.4904,-6.80115
-560,-398,-10.5333,7.70435,0,0,0,0,0,0,0,-1,664,1422,-10.5333,-7.70429
-553,-398,-20.8571,14.311,0,0,0,0,0,0,0,-1,671,1422,-20.857,-14.311
-546,-398,-20.8012,15.3361,0.00579808,0.00415562,0.00437941,0.00943259,0.000521109,0.692714,0.00612209,0.0391649,678,1422,-20.8012,-15.3361
-539,-398,-20.7054,16.233,0.00447039,0.00303234,0.0031804,0.00701204,0.000490702,0.674227,0.00452001,0.0130732,685,1422,-20.7054,-16.233
-532,-398,-20.7359,17.0732,0.00348292,0.00209451,0.00222951,0.0051238,0.000453625,0.63447,0.00327515,0.0212979,692,1422,-20.7359,-17.0732
-525,-398,-20.808,17.8693,0.00287425,0.0015225,0.00163022,0.00396314,0.0004336,0.588888,0.00251008,0.0209702,699,1422,-20.8081,-17.8692
-518,-398,-20.8538,18.6241,0.00250041,0.00111539,0.00124226,0.00323015,0.000385654,0.531122,0.00203709,0.0183678,706,1422,-20.8538,-18.6241
-511,-398,-20.8945,19.4158,0.00230897,0.000898024,0.00103206,0.00285363,0.000353364,0.485595,0.00179625,0.01365,713,1422,-20.8945,-19.4157
-504,-398,-20.9409,20.2393,0.00232649,0.000862098,0.0010348,0.00286194,0.000326653,0.477502,0.00180893,0.014125,720,1422,-20.9409,-20.2393
-497,-398,-20.9839,21.0358,0.00253367,0.00100302,0.00124393,0.00322885,0.000307842,0.509621,0.00205764,0.0105919,727,1422,-20.9839,-21.0358
-490,-398,-21.0062,21.8539,0.00305202,0.00133678,0.00168759,0.00408741,0.000301395,0.550308,0.00263024,0.0221221,734,1422,-21.0062,-21.8539
-483,-398,-21.0045,22.7195,0,0,0,0,0,0,0,-1,741,1422,-21.0045,-22.7195
-476,-398,-8.64392,11.9448,0,0,0,0,0,0,0,-1,748,1422,-8.6439,-11.9448
-469,-398,-8.91699,10.6276,0,0,0,0,0,0,0,-1,755,1422,-8.91697,-10.6275
-462,-398,-9.59753,9.32532,0,0,0,0,0,0,0,-1,762,1422,-9.59753,-9.32531
-455,-398,-8.08331,6.75024,0,0,0,0,0,0,0,-1,769,1422,-8.08333,-6.75022
-448,-398,-7.4505,5.25293,0,0,0,0,0,0,0,-1,776,1422,-7.4505,-5.25291
-441,-398,-7.61639,3.32141,0,0,0,0,0,0,0,-1,783,1422,-7.61637,-3.32145
-434,-398,-10.7618,3.297,0,0,0,0,0,0,0,-1,790,1422,-10.7618,-3.29704
-427,-398,-11.9061,2.24939,0,0,0,0,0,0,0,-1,797,1422,-11.9061,-2.24941
-420,-398,-13.467,2.32788,0,0,0,0,0,0,0,-1,804,1422,-13.467,-2.32787
-413,-398,-14.7983,2.15515,0,0,0,0,0,0,0,-1,811,1422,-14.7983,-2.15516
-406,-398,0,0,0,0,0,0,0,0,0,-1,818,1422,0,0
-399,-398,0,0,0,0,0,0,0,0,0,-1,825,1422,0,0
-392,-398,0,0,0,0,0,0,0,0,0,-1,832,1422,0,0
-385,-398,0,0,0,0,0,0,0,0,0,-1,839,1422,0,0
-378,-398,0,0,0,0,0,0,0,0,0,-1,846,1422,0,0
-371,-398,0,0,0,0,0,0,0,0,0,-1,853,1422,0,0
-364,-398,0,0,0,0,0,0,0,0,0,-1,860,1422,0,0
-357,-398,0,0,0,0,0,0,0,0,0,-1,867,1422,0,0
-350,-398,0,0,0,0,0,0,0,0,0,-1,874,1422,0,0
-343,-398,0,0,0,0,0,0,0,0,0,-1,881,1422,0,0
-336,-398,0,0,0,0,0,0,0,0,0,-1,888,1422,0,0
-329,-398,0,0,0,0,0,0,0,0,0,-1,895,1422,0,0
-322,-398,0,0,0,0,0,0,0,0,0,-1,902,1422,0,0
-315,-398,0,0,0,0,0,0,0,0,0,-1,909,1422,0,0
-308,-398,0,0,0,0,0,0,0,0,0,-1,916,1422,0,0
-301,-398,0,0,0,0,0,0,0,0,0,-1,923,1422,0,0
-294,-398,0,0,0,0,0,0,0,0,0,-1,930,1422,0,0
-287,-398,0,0,0,0,0,0,0,0,0,-1,937,1422,0,0
-280,-398,0,0,0,0,0,0,0,0,0,-1,944,1422,0,0
-273,-398,0,0,0,0,0,0,0,0,0,-1,951,1422,0,0
-266,-398,0,0,0,0,0,0,0,0,0,-1,958,1422,0,0
-259,-398,0,0,0,0,0,0,0,0,0,-1,965,1422,0,0
-252,-398,0,0,0,0,0,0,0,0,0,-1,972,1422,0,0
-245,-398,0,0,0,0,0,0,0,0,0,-1,979,1422,0,0
-238,-398,0,0,0,0,0,0,0,0,0,-1,986,1422,0,0
-231,-398,0,0,0,0,0,0,0,0,0,-1,993,1422,0,0
-224,-398,0,0,0,0,0,0,0,0,0,-1,1000,1422,0,0
-217,-398,0,0,0,0,0,0,0,0,0,-1,1007,1422,0,0
-210,-398,0,0,0,0,0,0,0,0,0,-1,1014,1422,0,0
-203,-398,0,0,0,0,0,0,0,0,0,-1,1021,1422,0,0
-196,-398,0,0,0,0,0,0,0,0,0,-1,1028,1422,0,0
-189,-398,0,0,0,0,0,0,0,0,0,-1,1035,1422,0,0
-182,-398,0,0,0,0,0,0,0,0,0,-1,1042,1422,0,0
-175,-398,0,0,0,0,0,0,0,0,0,-1,1049,1422,0,0
-168,-398,0,0,0,0,0,0,0,0,0,-1,1056,1422,0,0
-161,-398,0,0,0,0,0,0,0,0,0,-1,1063,1422,0,0
-154,-398,0,0,0,0,0,0,0,0,0,-1,1070,1422,0,0
-147,-398,0,0,0,0,0,0,0,0,0,-1,1077,1422,0,0
-140,-398,0,0,0,0,0,0,0,0,0,-1,1084,1422,0,0
-133,-398,0,0,0,0,0,0,0,0,0,-1,1091,1422,0,0
-126,-398,0,0,0,0,0,0,0,0,0,-1,1098,1422,0,0
-119,-398,0,0,0,0,0,0,0,0,0,-1,1105,1422,0,0
-112,-398,0,0,0,0,0,0,0,0,0,-1,1112,1422,0,0
-105,-398,0,0,0,0,0,0,0,0,0,-1,1119,1422,0,0
-98,-398,0,0,0,0,0,0,0,0,0,-1,1126,1422,0,0
-91,-398,0,0,0,0,0,0,0,0,0,-1,1133,1422,0,0
-84,-398,0,0,0,0,0,0,0,0,0,-1,1140,1422,0,0
-77,-398,0,0,0,0,0,0,0,0,0,-1,1147,1422,0,0
-70,-398,0,0,0,0,0,0,0,0,0,-1,1154,1422,0,0
-63,-398,0,0,0,0,0,0,0,0,0,-1,1161,1422,0,0
-56,-398,0,0,0,0,0,0,0,0,0,-1,1168,1422,0,0
-49,-398,0,0,0,0,0,0,0,0,0,-1,1175,1422,0,0
-42,-398,0,0,0,0,0,0,0,0,0,-1,1182,1422,0,0
-35,-398,0,0,0,0,0,0,0,0,0,-1,1189,1422,0,0
-28,-398,0,0,0,0,0,0,0,0,0,-1,1196,1422,0,0
-21,-398,0,0,0,0,0,0,0,0,0,-1,1203,1422,0,0
-14,-398,0,0,0,0,0,0,0,0,0,-1,1210,1422,0,0
-7,-398,0,0,0,0,0,0,0,0,0,-1,1217,1422,0,0
0,-398,0,0,0,0,0,0,0,0,0,-1,1224,1422,0,0
7,-398,0,0,0,0,0,0,0,0,0,-1,1231,1422,0,0
14,-398,0,0,0,0,0,0,0,0,0,-1,1238,1422,0,0
21,-398,0,0,0,0,0,0,0,0,0,-1,1245,1422,0,0
28,-398,0,0,0,0,0,0,0,0,0,-1,1252,1422,0,0
35,-398,0,0,0,0,0,0,0,0,0,-1,1259,1422,0,0
42,-398,0,0,0,0,0,0,0,0,0,-1,1266,1422,0,0
49,-398,0,0,0,0,0,0,0,0,0,-1,1273,1422,0,0
56,-398,0,0,0,0,0,0,0,0,0,-1,1280,1422,0,0
63,-398,0,0,0,0,0,0,0,0,0,-1,1287,1422,0,0
70,-398,0,0,0,0,0,0,0,0,0,-1,1294,1422,0,0
77,-398,0,0,0,0,0,0,0,0,0,-1,1301,1422,0,0
84,-398,0,0,0,0,0,0,0,0,0,-1,1308,1422,0,0
91,-398,0,0,0,0,0,0,0,0,0,-1,1315,1422,0,0
98,-398,0,0,0,0,0,0,0,0,0,-1,1322,1422,0,0
105,-398,0,0,0,0,0,0,0,0,0,-1,1329,1422,0,0
112,-398,0,0,0,0,0,0,0,0,0,-1,1336,1422,0,0
119,-398,0,0,0,0,0,0,0,0,0,-1,1343,1422,0,0
126,-398,0,0,0,0,0,0,0,0,0,-1,1350,1422,0,0
133,-398,0,0,0,0,0,0,0,0,0,-1,1357,1422,0,0
140,-398,0,0,0,0,0,0,0,0,0,-1,1364,1422,0,0
147,-398,0,0,0,0,0,0,0,0,0,-1,1371,1422,0,0
154,-398,0,0,0,0,0,0,0,0,0,-1,1378,1422,0,0
161,-398,0,0,0,0,0,0,0,0,0,-1,1385,1422,0,0
168,-398,0,0,0,0,0,0,0,0,0,-1,1392,1422,0,0
175,-398,0,0,0,0,0,0,0,0,0,-1,1399,1422,0,0
182,-398,0,0,0,0,0,0,0,0,0,-1,1406,1422,0,0
189,-398,0,0,0,0,0,0,0,0,0,-1,1413,1422,0,0
196,-398,0,0,0,0,0,0,0,0,0,-1,1420,1422,0,0
203,-398,0,0,0,0,0,0,0,0,0,-1,1427,1422,0,0
210,-398,0,0,0,0,0,0,0,0,0,-1,1434,1422,0,0
217,-398,0,0,0,0,0,0,0,0,0,-1,1441,1422,0,0
224,-398,0,0,0,0,0,0,0,0,0,-1,1448,1422,0,0
231,-398,0,0,0,0,0,0,0,0,0,-1,1455,1422,0,0
238,-398,0,0,0,0,0,0,0,0,0,-1,1462,1422,0,0
245,-398,0,0,0,0,0,0,0,0,0,-1,1469,1422,0,0
252,-398,0,0,0,0,0,0,0,0,0,-1,1476,1422,0,0
259,-398,0,0,0,0,0,0,0,0,0,-1,1483,1422,0,0
266,-398,0,0,0,0,0,0,0,0,0,-1,1490,1422,0,0
273,-398,0,0,0,0,0,0,0,0,0,-1,1497,1422,0,0
280,-398,0,0,0,0,0,0,0,0,0,-1,1504,1422,0,0
287,-398,0,0,0,0,0,0,0,0,0,-1,1511,1422,0,0
294,-398,0,0,0,0,0,0,0,0,0,-1,1518,1422,0,0
301,-398,0,0,0,0,0,0,0,0,0,-1,1525,1422,0,0
308,-398,0,0,0,0,0,0,0,0,0,-1,1532,1422,0,0
315,-398,0,0,0,0,0,0,0,0,0,-1,1539,1422,0,0
322,-398,0,0,0,0,0,0,0,0,0,-1,1546,1422,0,0
329,-398,0,0,0,0,0,0,0,0,0,-1,1553,1422,0,0
336,-398,0,0,0,0,0,0,0,0,0,-1,1560,1422,0,0
343,-398,0,0,0,0,0,0,0,0,0,-1,1567,1422,0,0
350,-398,0,0,0,0,0,0,0,0,0,-1,1574,1422,0,0
357,-398,0,0,0,0,0,0,0,0,0,-1,1581,1422,0,0
364,-398,0,0,0,0,0,0,0,0,0,-1,1588,1422,0,0
371,-398,0,0,0,0,0,0,0,0,0,-1,1595,1422,0,0
378,-398,0,0,0,0,0,0,0,0,0,-1,1602,1422,0,0
385,-398,0,0,0,0,0,0,0,0,0,-1,1609,1422,0,0
392,-398,0,0,0,0,0,0,0,0,0,-1,1616,1422,0,0
399,-398,0,0,0,0,0,0,0,0,0,-1,1623,1422,0,0
406,-398,0,0,0,0,0,0,0,0,0,-1,1630,1422,0,0
413,-398,0,0,0,0,0,0,0,0,0,-1,1637,1422,0,0
420,-398,0,0,0,0,0,0,0,0,0,-1,1644,1422,0,0
427,-398,0,0,0,0,0,0,0,0,0,-1,1651,1422,0,0
434,-398,0,0,0,0,0,0,0,0,0,-1,1658,1422,0,0
441,-398,0,0,0,0,0,0,0,0,0,-1,1665,1422,0,0
448,-398,0,0,0,0,0,0,0,0,0,-1,1672,1422,0,0
455,-398,0,0,0,0,0,0,0,0,0,-1,1679,1422,0,0
462,-398,0,0,0,0,0,0,0,0,0,-1,1686,1422,0,0
469,-398,0,0,0,0,0,0,0,0,0,-1,1693,1422,0,0
476,-398,0,0,0,0,0,0,0,0,0,-1,1700,1422,0,0
483,-398,0,0,0,0,0,0,0,0,0,-1,1707,1422,0,0
490,-398,0,0,0,0,0,0,0,0,0,-1,1714,1422,0,0
497,-398,0,0,0,0,0,0,0,0,0,-1,1721,1422,0,0
504,-398,0,0,0,0,0,0,0,0,0,-1,1728,1422,0,0
511,-398,0,0,0,0,0,0,0,0,0,-1,1735,1422,0,0
518,-398,0,0,0,0,0,0,0,0,0,-1,1742,1422,0,0
525,-398,0,0,0,0,0,0,0,0,0,-1,1749,1422,0,0
532,-398,28.4558,3.84094,0,0,0,0,0,0,0,-1,1756,1422,28.4558,-3.8409
539,-398,27.0594,3.33887,0,0,0,0,0,0,0,-1,1763,1422,27.0595,-3.3389
546,-398,31.6873,5.58582,0,0,0,0,0,0,0,-1,1770,1422,31.6872,-5.58585
553,-398,30.4392,5.92383,0,0,0,0,0,0,0,-1,1777,1422,30.4392,-5.92386
560,-398,29.1621,6.30469,0,0,0,0,0,0,0,-1,1784,1422,29.1621,-6.30469
567,-398,27.8411,6.55029,0,0,0,0,0,0,0,-1,1791,1422,27.8411,-6.55033
574,-398,26.411,6.8916,0,0,0,0,0,0,0,-1,1798,1422,26.411,-6.8916
581,-398,24.75,7.11145,0,0,0,0,0,0,0,-1,1805,1422,24.7499,-7.11142
588,-398,23.1649,7.67969,0,0,0,0,0,0,0,-1,1812,1422,23.1649,-7.67975
595,-398,21.4253,7.86023,0,0,0,0,0,0,0,-1,1819,1422,21.4253,-7.86029
602,-398,19.6857,8.04077,0,0,0,0,0,0,0,-1,1826,1422,19.6856,-8.04083
609,-398,21.1835,13.2628,0,0,0,0,0,0,0,-1,1833,1422,21.1835,-13.2628
616,-398,35.7712,21.4,0,0,0,0,0,0,0,-1,1840,1422,35.7713,-21.4
623,-398,38.6494,22.2756,0,0,0,0,0,0,0,-1,1847,1422,38.6495,-22.2756
630,-398,38.5957,21.4834,0.000688097,0.000302761,-0.000194951,0.000769522,0.000221336,-0.395644,0.000457447,0.0150529,1854,1422,38.5956,-21.4833
637,-398,38.5557,20.7054,0.000617232,0.000255426,-0.000215638,0.000717799,0.000154859,-0.436385,0.000436175,0.0153787,1861,1422,38.5557,-20.7055
644,-398,38.4426,19.9664,0.000805995,0.000297527,-0.000272077,0.000924133,0.000179389,-0.409644,0.000565851,0.0220805,1868,1422,38.4426,-19.9664
651,-398,38.4641,19.2537,0.00131365,0.000197738,-0.000315838,0.00139684,0.000114548,-0.257546,0.000895487,0.0324181,1875,1422,38.4642,-19.2537
658,-398,38.4607,18.4663,0.00208717,8.36676e-06,-0.000378513,0.00215394,-5.84089e-05,-0.174619,0.00145582,0.0270856,1882,1422,38.4607,-18.4663
665,-398,38.3811,17.6669,0.00312638,-0.000351375,-0.000391543,0.00316991,-0.000394912,-0.110738,0.00225646,0.0177116,1889,1422,38.3811,-17.6669
672,-398,38.3494,16.9113,0.00445149,-0.000993629,-0.00030276,0.00446827,-0.00101041,-0.0553745,0.00336658,0.0140867,1896,1422,38.3493,-16.9113
679,-398,38.3162,16.1238,0.00606942,-0.00200871,-7.55797e-05,0.00607012,-0.00200942,-0.009355,0.00485714,0.0149293,1903,1422,38.3162,-16.1238
686,-398,38.2485,15.3303,0.00802999,-0.00357203,0.000336788,0.00803976,-0.00358179,0.0289959,0.00687229,0.029353,1910,1422,38.2486,-15.3303
693,-398,38.1382,14.4159,0,0,0,0,0,0,0,-1,1917,1422,38.1382,-14.4159
700,-398,38.3906,14.1111,0,0,0,0,0,0,0,-1,1924,1422,38.3906,-14.111
707,-398,10.9731,5.479,0,0,0,0,0,0,0,-1,1931,1422,10.9732,-5.47896
714,-398,11.7313,6.17346,0,0,0,0,0,0,0,-1,1938,1422,11.7313,-6.17348
721,-398,13.9371,8.05103,0,0,0,0,0,0,0,-1,1945,1422,13.9372,-8.05102
728,-398,14.786,7.0282,0,0,0,0,0,0,0,-1,1952,1422,14.786,-7.0282
735,-398,0,0,0,0,0,0,0,0,0,-1,1959,1422,0,0
742,-398,0,0,0,0,0,0,0,0,0,-1,1966,1422,0,0
749,-398,0,0,0,0,0,0,0,0,0,-1,1973,1422,0,0
756,-398,0,0,0,0,0,0,0,0,0,-1,1980,1422,0,0
763,-398,0,0,0,0,0,0,0,0,0,-1,1987,1422,0,0
770,-398,0,0,0,0,0,0,0,0,0,-1,1994,1422,0,0
777,-398,0,0,0,0,0,0,0,0,0,-1,2001,1422,0,0
784,-398,0,0,0,0,0,0,0,0,0,-1,2008,1422,0,0
791,-398,0,0,0,0,0,0,0,0,0,-1,2015,1422,0,0
798,-398,0,0,0,0,0,0,0,0,0,-1,2022,1422,0,0
805,-398,0,0,0,0,0,0,0,0,0,-1,2029,1422,0,0
812,-398,0,0,0,0,0,0,0,0,0,-1,2036,1422,0,0
-700,-405,0,0,0,0,0,0,0,0,0,-1,524,1429,0,0
-693,-405,0,0,0,0,0,0,0,0,0,-1,531,1429,0,0
-686,-405,0,0,0,0,0,0,0,0,0,-1,538,1429,0,0
-679,-405,0,0,0,0,0,0,0,0,0,-1,545,1429,0,0
-672,-405,0,0,0,0,0,0,0,0,0,-1,552,1429,0,0
-665,-405,0,0,0,0,0,0,0,0,0,-1,559,1429,0,0
-658,-405,0,0,0,0,0,0,0,0,0,-1,566,1429,0,0
-651,-405,0,0,0,0,0,0,0,0,0,-1,573,1429,0,0
-644,-405,0,0,0,0,0,0,0,0,0,-1,580,1429,0,0
-637,-405,0,0,0,0,0,0,0,0,0,-1,587,1429,0,0
-630,-405,0,0,0,0,0,0,0,0,0,-1,594,1429,0,0
-623,-405,0,0,0,0,0,0,0,0,0,-1,601,1429,0,0
-616,-405,0,0,0,0,0,0,0,0,0,-1,608,1429,0,0
-609,-405,0,0,0,0,0,0,0,0,0,-1,615,1429,0,0
-602,-405,-5.80988,-3.46594,0,0,0,0,0,0,0,-1,622,1429,-5.80987,3.46592
-595,-405,-9.35413,2.01477,0,0,0,0,0,0,0,-1,629,1429,-9.35411,-2.01476
-588,-405,-7.35693,0.507202,0,0,0,0,0,0,0,-1,636,1429,-7.35696,-0.507187
-581,-405,-10.1284,1.62927,0,0,0,0,0,0,0,-1,643,1429,-10.1284,-1.62922
-574,-405,-9.32074,3.05896,0,0,0,0,0,0,0,-1,650,1429,-9.32077,-3.0589
-567,-405,-9.68781,6.92163,0,0,0,0,0,0,0,-1,657,1429,-9.68782,-6.92166
-560,-405,-9.28674,7.20886,0,0,0,0,0,0,0,-1,664,1429,-9.28675,-7.20885
-553,-405,-17.8088,12.9275,0,0,0,0,0,0,0,-1,671,1429,-17.8088,-12.9275
-546,-405,-20.0309,15.1536,0,0,0,0,0,0,0,-1,678,1429,-20.0309,-15.1536
-539,-405,-19.9523,16.2167,0.00498403,0.00388339,0.00387731,0.00834987,0.000517543,0.714903,0.00540234,0.014145,685,1429,-19.9523,-16.2167
-532,-405,-19.9905,17.057,0.00373749,0.00272707,0.00269737,0.00597655,0.000488,0.692823,0.00383207,0.0156086,692,1429,-19.9905,-17.057
-525,-405,-20.0278,17.8684,0.00297613,0.00203455,0.00196828,0.00452915,0.000481541,0.66801,0.0028724,0.0163178,699,1429,-20.0278,-17.8684
-518,-405,-20.0508,18.6721,0.00247214,0.00152701,0.00146494,0.00353885,0.000460306,0.629376,0.00222175,0.0165737,706,1429,-20.0508,-18.6722
-511,-405,-20.0967,19.472,0.00215494,0.00118757,0.00114343,0.00291278,0.000429728,0.585308,0.00181564,0.0157876,713,1429,-20.0967,-19.4721
-504,-405,-20.1368,20.2587,0.00203714,0.0010259,0.00101457,0.00266511,0.000397935,0.554231,0.00166007,0.0181563,720,1429,-20.1368,-20.2587
-497,-405,-20.1675,21.0944,0.002119,0.00105089,0.00108731,0.00279633,0.000373558,0.557118,0.00175302,0.0154462,727,1429,-20.1675,-21.0944
-490,-405,-20.214,21.9003,0.00241862,0.00125683,0.00135095,0.00330827,0.000367178,0.582353,0.00209388,0.0132457,734,1429,-20.214,-21.9003
-483,-405,-20.1256,22.8569,0.00283524,0.00174792,0.00180959,0.00418107,0.000402082,0.639471,0.00266349,0.0392687,741,1429,-20.1256,-22.857
-476,-405,-19.8675,24.0743,0,0,0,0,0,0,0,-1,748,1429,-19.8675,-24.0744
-469,-405,-9.65692,12.8171,0,0,0,0,0,0,0,-1,755,1429,-9.65691,-12.8172
-462,-405,-9.14862,11.3597,0,0,0,0,0,0,0,-1,762,1429,-9.14865,-11.3597
-455,-405,-9.021,9.51111,0,0,0,0,0,0,0,-1,769,1429,-9.021,-9.51109
-448,-405,-8.4649,6.82813,0,0,0,0,0,0,0,-1,776,1429,-8.46492,-6.82817
-441,-405,-6.6712,4.23767,0,0,0,0,0,0,0,-1,783,1429,-6.67121,-4.23764
-434,-405,-9.62549,3.94189,0,0,0,0,0,0,0,-1,790,1429,-9.62546,-3.94191
-427,-405,-10.9764,3.73926,0,0,0,0,0,0,0,-1,797,1429,-10.9764,-3.73923
-420,-405,-12.1187,3.68506,0,0,0,0,0,0,0,-1,804,1429,-12.1187,-3.68512
-413,-405,-13.5353,3.75659,0,0,0,0,0,0,0,-1,811,1429,-13.5353,-3.75655
-406,-405,-14.7374,3.99817,0,0,0,0,0,0,0,-1,818,1429,-14.7374,-3.99814
-399,-405,0,0,0,0,0,0,0,0,0,-1,825,1429,0,0
-392,-405,0,0,0,0,0,0,0,0,0,-1,832,1429,0,0
-385,-405,0,0,0,0,0,0,0,0,0,-1,839,1429,0,0
-378,-405,0,0,0,0,0,0,0,0,0,-1,846,1429,0,0
-371,-405,0,0,0,0,0,0,0,0,0,-1,853,1429,0,0
-364,-405,0,0,0,0,0,0,0,0,0,-1,860,1429,0,0
-357,-405,0,0,0,0,0,0,0,0,0,-1,867,1429,0,0
-350,-405,0,0,0,0,0,0,0,0,0,-1,874,1429,0,0
-343,-405,0,0,0,0,0,0,0,0,0,-1,881,1429,0,0
-336,-405,0,0,0,0,0,0,0,0,0,-1,888,1429,0,0
-329,-405,0,0,0,0,0,0,0,0,0,-1,895,1429,0,0
-322,-405,0,0,0,0,0,0,0,0,0,-1,902,1429,0,0
-315,-405,0,0,0,0,0,0,0,0,0,-1,909,1429,0,0
-308,-405,0,0,0,0,0,0,0,0,0,-1,916,1429,0,0
-301,-405,0,0,0,0,0,0,0,0,0,-1,923,1429,0,0
-294,-405,0,0,0,0,0,0,0,0,0,-1,930,1429,0,0
-287,-405,0,0,0,0,0,0,0,0,0,-1,937,1429,0,0
-280,-405,0,0,0,0,0,0,0,0,0,-1,944,1429,0,0
-273,-405,0,0,0,0,0,0,0,0,0,-1,951,1429,0,0
-266,-405,0,0,0,0,0,0,0,0,0,-1,958,1429,0,0
-259,-405,0,0,0,0,0,0,0,0,0,-1,965,1429,0,0
-252,-405,0,0,0,0,0,0,0,0,0,-1,972,1429,0,0
-245,-405,0,0,0,0,0,0,0,0,0,-1,979,1429,0,0
-238,-405,0,0,0,0,0,0,0,0,0,-1,986,1429,0,0
-231,-405,0,0,0,0,0,0,0,0,0,-1,993,1429,0,0
-224,-405,0,0,0,0,0,0,0,0,0,-1,1000,1429,0,0
-217,-405,0,0,0,0,0,0,0,0,0,-1,1007,1429,0,0
-210,-405,0,0,0,0,0,0,0,0,0,-1,1014,1429,0,0
-203,-405,0,0,0,0,0,0,0,0,0,-1,1021,1429,0,0
-196,-405,0,0,0,0,0,0,0,0,0,-1,1028,1429,0,0
-189,-405,0,0,0,0,0,0,0,0,0,-1,1035,1429,0,0
-182,-405,0,0,0,0,0,0,0,0,0,-1,1042,1429,0,0
-175,-405,0,0,0,0,0,0,0,0,0,-1,1049,1429,0,0
-168,-405,0,0,0,0,0,0,0,0,0,-1,1056,1429,0,0
-161,-405,0,0,0,0,0,0,0,0,0,-1,1063,1429,0,0
-154,-405,0,0,0,0,0,0,0,0,0,-1,1070,1429,0,0
-147,-405,0,0,0,0,0,0,0,0,0,-1,1077,1429,0,0
-140,-405,0,0,0,0,0,0,0,0,0,-1,1084,1429,0,0
-133,-405,0,0,0,0,0,0,0,0,0,-1,1091,1429,0,0
-126,-405,0,0,0,0,0,0,0,0,0,-1,1098,1429,0,0
-119,-405,0,0,0,0,0,0,0,0,0,-1,1105,1429,0,0
-112,-405,0,0,0,0,0,0,0,0,0,-1,1112,1429,0,0
-105,-405,0,0,0,0,0,0,0,0,0,-1,1119,1429,0,0
-98,-405,0,0,0,0,0,0,0,0,0,-1,1126,1429,0,0
-91,-405,0,0,0,0,0,0,0,0,0,-1,1133,1429,0,0
-84,-405,0,0,0,0,0,0,0,0,0,-1,1140,1429,0,0
-77,-405,0,0,0,0,0,0,0,0,0,-1,1147,1429,0,0
-70,-405,0,0,0,0,0,0,0,0,0,-1,1154,1429,0,0
-63,-405,0,0,0,0,0,0,0,0,0,-1,1161,1429,0,0
-56,-405,0,0,0,0,0,0,0,0,0,-1,1168,1429,0,0
-49,-405,0,0,0,0,0,0,0,0,0,-1,1175,1429,0,0
-42,-405,0,0,0,0,0,0,0,0,0,-1,1182,1429,0,0
-35,-405,0,0,0,0,0,0,0,0,0,-1,1189,1429,0,0
-28,-405,0,0,0,0,0,0,0,0,0,-1,1196,1429,0,0
-21,-405,0,0,0,0,0,0,0,0,0,-1,1203,1429,0,0
-14,-405,0,0,0,0,0,0,0,0,0,-1,1210,1429,0,0
-7,-405,0,0,0,0,0,0,0,0,0,-1,1217,1429,0,0
0,-405,0,0,0,0,0,0,0,0,0,-1,1224,1429,0,0
7,-405,0,0,0,0,0,0,0,0,0,-1,1231,1429,0,0
14,-405,0,0,0,0,0,0,0,0,0,-1,1238,1429,0,0
21,-405,0,0,0,0,0,0,0,0,0,-1,1245,1429,0,0
28,-405,0,0,0,0,0,0,0,0,0,-1,1252,1429,0,0
35,-405,0,0,0,0,0,0,0,0,0,-1,1259,1429,0,0
42,-405,0,0,0,0,0,0,0,0,0,-1,1266,1429,0,0
49,-405,0,0,0,0,0,0,0,0,0,-1,1273,1429,0,0
56,-405,0,0,0,0,0,0,0,0,0,-1,1280,1429,0,0
63,-405,0,0,0,0,0,0,0,0,0,-1,1287,1429,0,0
70,-405,0,0,0,0,0,0,0,0,0,-1,1294,1429,0,0
77,-405,0,0,0,0,0,0,0,0,0,-1,1301,1429,0,0
84,-405,0,0,0,0,0,0,0,0,0,-1,1308,1429,0,0
91,-405,0,0,0,0,0,0,0,0,0,-1,1315,1429,0,0
98,-405,0,0,0,0,0,0,0,0,0,-1,1322,1429,0,0
105,-405,0,0,0,0,0,0,0,0,0,-1,1329,1429,0,0
112,-405,0,0,0,0,0,0,0,0,0,-1,1336,1429,0,0
119,-405,0,0,0,0,0,0,0,0,0,-1,1343,1429,0,0
126,-405,0,0,0,0,0,0,0,0,0,-1,1350,1429,0,0
133,-405,0,0,0,0,0,0,0,0,0,-1,1357,1429,0,0
140,-405,0,0,0,0,0,0,0,0,0,-1,1364,1429,0,0
147,-405,0,0,0,0,0,0,0,0,0,-1,1371,1429,0,0
154,-405,0,0,0,0,0,0,0,0,0,-1,1378,1429,0,0
161,-405,0,0,0,0,0,0,0,0,0,-1,1385,1429,0,0
168,-405,0,0,0,0,0,0,0,0,0,-1,1392,1429,0,0
175,-405,0,0,0,0,0,0,0,0,0,-1,1399,1429,0,0
182,-405,0,0,0,0,0,0,0,0,0,-1,1406,1429,0,0
189,-405,0,0,0,0,0,0,0,0,0,-1,1413,1429,0,0
196,-405,0,0,0,0,0,0,0,0,0,-1,1420,1429,0,0
203,-405,0,0,0,0,0,0,0,0,0,-1,1427,1429,0,0
210,-405,0,0,0,0,0,0,0,0,0,-1,1434,1429,0,0
217,-405,0,0,0,0,0,0,0,0,0,-1,1441,1429,0,0
224,-405,0,0,0,0,0,0,0,0,0,-1,1448,1429,0,0
231,-405,0,0,0,0,0,0,0,0,0,-1,1455,1429,0,0
238,-405,0,0,0,0,0,0,0,0,0,-1,1462,1429,0,0
245,-405,0,0,0,0,0,0,0,0,0,-1,1469,1429,0,0
252,-405,0,0,0,0,0,0,0,0,0,-1,1476,1429,0,0
259,-405,0,0,0,0,0,0,0,0,0,-1,1483,1429,0,0
266,-405,0,0,0,0,0,0,0,0,0,-1,1490,1429,0,0
273,-405,0,0,0,0,0,0,0,0,0,-1,1497,1429,0,0
280,-405,0,0,0,0,0,0,0,0,0,-1,1504,1429,0,0
287,-405,0,0,0,0,0,0,0,0,0,-1,1511,1429,0,0
294,-405,0,0,0,0,0,0,0,0,0,-1,1518,1429,0,0
301,-405,0,0,0,0,0,0,0,0,0,-1,1525,1429,0,0
308,-405,0,0,0,0,0,0,0,0,0,-1,1532,1429,0,0
315,-405,0,0,0,0,0,0,0,0,0,-1,1539,1429,0,0
322,-405,0,0,0,0,0,0,0,0,0,-1,1546,1429,0,0
329,-405,0,0,0,0,0,0,0,0,0,-1,1553,1429,0,0
336,-405,0,0,0,0,0,0,0,0,0,-1,1560,1429,0,0
343,-405,0,0,0,0,0,0,0,0,0,-1,1567,1429,0,0
350,-405,0,0,0,0,0,0,0,0,0,-1,1574,1429,0,0
357,-405,0,0,0,0,0,0,0,0,0,-1,1581,1429,0,0
364,-405,0,0,0,0,0,0,0,0,0,-1,1588,1429,0,0
371,-405,0,0,0,0,0,0,0,0,0,-1,1595,1429,0,0
378,-405,0,0,0,0,0,0,0,0,0,-1,1602,1429,0,0
385,-405,0,0,0,0,0,0,0,0,0,-1,1609,1429,0,0
392,-405,0,0,0,0,0,0,0,0,0,-1,1616,1429,0,0
399,-405,0,0,0,0,0,0,0,0,0,-1,1623,1429,0,0
406,-405,0,0,0,0,0,0,0,0,0,-1,1630,1429,0,0
413,-405,0,0,0,0,0,0,0,0,0,-1,1637,1429,0,0
420,-405,0,0,0,0,0,0,0,0,0,-1,1644,1429,0,0
427,-405,0,0,0,0,0,0,0,0,0,-1,1651,1429,0,0
434,-405,0,0,0,0,0,0,0,0,0,-1,1658,1429,0,0
441,-405,0,0,0,0,0,0,0,0,0,-1,1665,1429,0,0
448,-405,0,0,0,0,0,0,0,0,0,-1,1672,1429,0,0
455,-405,0,0,0,0,0,0,0,0,0,-1,1679,1429,0,0
462,-405,0,0,0,0,0,0,0,0,0,-1,1686,1429,0,0
469,-405,0,0,0,0,0,0,0,0,0,-1,1693,1429,0,0
476,-405,0,0,0,0,0,0,0,0,0,-1,1700,1429,0,0
483,-405,0,0,0,0,0,0,0,0,0,-1,1707,1429,0,0
490,-405,0,0,0,0,0,0,0,0,0,-1,1714,1429,0,0
497,-405,0,0,0,0,0,0,0,0,0,-1,1721,1429,0,0
504,-405,0,0,0,0,0,0,0,0,0,-1,1728,1429,0,0
511,-405,0,0,0,0,0,0,0,0,0,-1,1735,1429,0,0
518,-405,0,0,0,0,0,0,0,0,0,-1,1742,1429,0,0
525,-405,31.1563,-1.40942,0,0,0,0,0,0,0,-1,1749,1429,31.1563,1.40937
532,-405,28.156,4.8783,0,0,0,0,0,0,0,-1,1756,1429,28.1561,-4.87833
539,-405,26.5133,3.02454,0,0,0,0,0,0,0,-1,1763,1429,26.5133,-3.0246
546,-405,29.5735,6.53052,0,0,0,0,0,0,0,-1,1770,1429,29.5735,-6.53049
553,-405,28.2911,6.70654,0,0,0,0,0,0,0,-1,1777,1429,28.2912,-6.70656
560,-405,26.9299,7.08472,0,0,0,0,0,0,0,-1,1784,1429,26.9299,-7.08469
567,-405,25.804,7.14661,0,0,0,0,0,0,0,-1,1791,1429,25.8039,-7.14665
574,-405,25.1151,8.07971,0,0,0,0,0,0,0,-1,1798,1429,25.1151,-8.07965
581,-405,23.5055,8.505,0,0,0,0,0,0,0,-1,1805,1429,23.5054,-8.50501
588,-405,21.7491,8.98254,0,0,0,0,0,0,0,-1,1812,1429,21.7491,-8.98254
595,-405,21.6327,10.7795,0,0,0,0,0,0,0,-1,1819,1429,21.6327,-10.7796
602,-405,21.6461,13.9199,0,0,0,0,0,0,0,-1,1826,1429,21.6461,-13.92
609,-405,37.801,24.062,0,0,0,0,0,0,0,-1,1833,1429,37.8011,-24.062
616,-405,37.8616,23.1787,0,0,0,0,0,0,0,-1,1840,1429,37.8616,-23.1787
623,-405,37.8405,22.3595,0.00169818,0.000594391,-0.000651822,0.00200037,0.000292202,-0.434112,0.00124764,0.0161636,1847,1429,37.8404,-22.3595
630,-405,37.8186,21.5482,0.00126583,0.000349807,-0.000406965,0.00142052,0.000195124,-0.363225,0.000889135,0.0109605,1854,1429,37.8186,-21.5482
637,-405,37.7753,20.7661,0.00115845,0.000276101,-0.000403959,0.00131545,0.000119097,-0.370696,0.000840088,0.01162,1861,1429,37.7753,-20.7661
644,-405,37.6552,20.0363,0.00135928,0.000239241,-0.000463334,0.0015261,7.24179e-05,-0.3456,0.00099414,0.0313464,1868,1429,37.6552,-20.0362
651,-405,37.5919,19.3026,0.00182662,0.000232186,-0.000581511,0.00201617,4.26362e-05,-0.315101,0.00133013,0.03753,1875,1429,37.5919,-19.3026
658,-405,37.6558,18.5292,0.00254465,0.000170866,-0.000717914,0.00274489,-2.93659e-05,-0.271995,0.00183979,0.027466,1882,1429,37.6558,-18.5292
665,-405,37.6046,17.7141,0.00356064,-5.0304e-05,-0.000808105,0.00373324,-0.000222902,-0.210422,0.00256636,0.0201683,1889,1429,37.6047,-17.7142
672,-405,37.5834,16.9314,0.00486144,-0.000570463,-0.000762265,0.00496639,-0.000675405,-0.136811,0.0035575,0.0244396,1896,1429,37.5834,-16.9314
679,-405,37.7112,16.1727,0.00648961,-0.00151561,-0.00053677,0.00652545,-0.00155144,-0.0666548,0.00494917,0.0370142,1903,1429,37.7112,-16.1727
686,-405,37.5972,15.3339,0,0,0,0,0,0,0,-1,1910,1429,37.5972,-15.3339
693,-405,37.2799,14.5515,0,0,0,0,0,0,0,-1,1917,1429,37.28,-14.5515
700,-405,9.1958,4.02026,0,0,0,0,0,0,0,-1,1924,1429,9.19579,-4.02025
707,-405,7.40308,3.83191,0,0,0,0,0,0,0,-1,1931,1429,7.40311,-3.83194
714,-405,7.33252,3.47388,0,0,0,0,0,0,0,-1,1938,1429,7.33255,-3.47383
721,-405,9.23523,0.993896,0,0,0,0,0,0,0,-1,1945,1429,9.23523,-0.993884
728,-405,0,0,0,0,0,0,0,0,0,-1,1952,1429,0,0
735,-405,0,0,0,0,0,0,0,0,0,-1,1959,1429,0,0
742,-405,0,0,0,0,0,0,0,0,0,-1,1966,1429,0,0
749,-405,0,0,0,0,0,0,0,0,0,-1,1973,1429,0,0
756,-405,0,0,0,0,0,0,0,0,0,-1,1980,1429,0,0
763,-405,0,0,0,0,0,0,0,0,0,-1,1987,1429,0,0
770,-405,0,0,0,0,0,0,0,0,0,-1,1994,1429,0,0
777,-405,0,0,0,0,0,0,0,0,0,-1,2001,1429,0,0
784,-405,0,0,0,0,0,0,0,0,0,-1,2008,1429,0,0
791,-405,0,0,0,0,0,0,0,0,0,-1,2015,1429,0,0
798,-405,0,0,0,0,0,0,0,0,0,-1,2022,1429,0,0
805,-405,0,0,0,0,0,0,0,0,0,-1,2029,1429,0,0
812,-405,0,0,0,0,0,0,0,0,0,-1,2036,1429,0,0
-700,-412,0,0,0,0,0,0,0,0,0,-1,524,1436,0,0
-693,-412,0,0,0,0,0,0,0,0,0,-1,531,1436,0,0
-686,-412,0,0,0,0,0,0,0,0,0,-1,538,1436,0,0
-679,-412,0,0,0,0,0,0,0,0,0,-1,545,1436,0,0
-672,-412,0,0,0,0,0,0,0,0,0,-1,552,1436,0,0
-665,-412,0,0,0,0,0,0,0,0,0,-1,559,1436,0,0
-658,-412,0,0,0,0,0,0,0,0,0,-1,566,1436,0,0
-651,-412,0,0,0,0,0,0,0,0,0,-1,573,1436,0,0
-644,-412,0,0,0,0,0,0,0,0,0,-1,580,1436,0,0
-637,-412,0,0,0,0,0,0,0,0,0,-1,587,1436,0,0
-630,-412,0,0,0,0,0,0,0,0,0,-1,594,1436,0,0
-623,-412,0,0,0,0,0,0,0,0,0,-1,601,1436,0,0
-616,-412,0,0,0,0,0,0,0,0,0,-1,608,1436,0,0
-609,-412,0,0,0,0,0,0,0,0,0,-1,615,1436,0,0
-602,-412,-3.72766,-3.50012,0,0,0,0,0,0,0,-1,622,1436,-3.72764,3.50017
-595,-412,-10.3706,0.65564,0,0,0,0,0,0,0,-1,629,1436,-10.3706,-0.655672
-588,-412,-8.17957,1.94934,0,0,0,0,0,0,0,-1,636,1436,-8.17956,-1.94939
-581,-412,-6.60065,-0.0554199,0,0,0,0,0,0,0,-1,643,1436,-6.60063,0.0554733
-574,-412,-8.34131,5.25012,0,0,0,0,0,0,0,-1,650,1436,-8.34129,-5.25012
-567,-412,-7.50354,3.65454,0,0,0,0,0,0,0,-1,657,1436,-7.50356,-3.65452
-560,-412,-8.52448,7.39014,0,0,0,0,0,0,0,-1,664,1436,-8.52447,-7.39019
-553,-412,-7.36761,6.54651,0,0,0,0,0,0,0,-1,671,1436,-7.36763,-6.54654
-546,-412,-19.2233,15.2711,0,0,0,0,0,0,0,-1,678,1436,-19.2233,-15.2711
-539,-412,-19.1201,16.1799,0.00548647,0.00499227,0.00469083,0.00993671,0.000542033,0.759084,0.00645139,0.0318491,685,1436,-19.1201,-16.18
-532,-412,-19.1873,17.0959,0.00409611,0.00354858,0.00330343,0.0071371,0.000507592,0.744057,0.00459822,0.0153659,692,1436,-19.1873,-17.0959
-525,-412,-19.2411,17.9205,0.00324815,0.00270134,0.00246421,0.00545407,0.000495414,0.730148,0.00348268,0.0166748,699,1436,-19.2411,-17.9205
-518,-412,-19.2521,18.7271,0.00265026,0.00205375,0.00184953,0.00422543,0.000478578,0.705456,0.00267175,0.0171607,706,1436,-19.2521,-18.727
-511,-412,-19.2921,19.5026,0.00221312,0.00157415,0.00141202,0.00334135,0.000445915,0.674142,0.00209481,0.0193333,713,1436,-19.2921,-19.5026
-504,-412,-19.3447,20.2987,0.00193028,0.00126468,0.00113341,0.00277874,0.000416221,0.642598,0.00173052,0.0199803,720,1436,-19.3447,-20.2987
-497,-412,-19.3815,21.1318,0.00182678,0.0011391,0.00103345,0.00257208,0.000393791,0.624803,0.0015997,0.0162952,727,1436,-19.3815,-21.1319
-490,-412,-19.4143,21.9458,0.00185728,0.00117546,0.00107754,0.00264655,0.000386194,0.632192,0.00165076,0.0134835,734,1436,-19.4143,-21.9459
-483,-412,-19.4512,22.7361,0.00198914,0.00143891,0.00126786,0.00301139,0.000416664,0.678558,0.00188413,0.0115539,741,1436,-19.4511,-22.7361
-476,-412,-19.446,23.6417,0,0,0,0,0,0,0,-1,748,1436,-19.446,-23.6417
-469,-412,-12.7646,18.4785,0,0,0,0,0,0,0,-1,755,1436,-12.7647,-18.4785
-462,-412,-8.94659,13.3385,0,0,0,0,0,0,0,-1,762,1436,-8.94657,-13.3385
-455,-412,-8.25006,11.2572,0,0,0,0,0,0,0,-1,769,1436,-8.25007,-11.2572
-448,-412,-7.38086,8.78186,0,0,0,0,0,0,0,-1,776,1436,-7.38088,-8.78183
-441,-412,-8.79523,9.05286,0,0,0,0,0,0,0,-1,783,1436,-8.79521,-9.0529
-434,-412,-10.6305,8.03577,0,0,0,0,0,0,0,-1,790,1436,-10.6305,-8.0358
-427,-412,-10.0004,5.15271,0,0,0,0,0,0,0,-1,797,1436,-10.0004,-5.15266
-420,-412,-10.4468,4.9043,0,0,0,0,0,0,0,-1,804,1436,-10.4468,-4.90429
-413,-412,-11.5704,4.97766,0,0,0,0,0,0,0,-1,811,1436,-11.5704,-4.97771
-406,-412,-13.1968,5.70093,0,0,0,0,0,0,0,-1,818,1436,-13.1968,-5.70096
-399,-412,-10.5506,0.771973,0,0,0,0,0,0,0,-1,825,1436,-10.5506,-0.771954
-392,-412,0,0,0,0,0,0,0,0,0,-1,832,1436,0,0
-385,-412,0,0,0,0,0,0,0,0,0,-1,839,1436,0,0
-378,-412,0,0,0,0,0,0,0,0,0,-1,846,1436,0,0
-371,-412,0,0,0,0,0,0,0,0,0,-1,853,1436,0,0
-364,-412,0,0,0,0,0,0,0,0,0,-1,860,1436,0,0
-357,-412,0,0,0,0,0,0,0,0,0,-1,867,1436,0,0
-350,-412,0,0,0,0,0,0,0,0,0,-1,874,1436,0,0
-343,-412,0,0,0,0,0,0,0,0,0,-1,881,1436,0,0
-336,-412,0,0,0,0,0,0,0,0,0,-1,888,1436,0,0
-329,-412,0,0,0,0,0,0,0,0,0,-1,895,1436,0,0
-322,-412,0,0,0,0,0,0,0,0,0,-1,902,1436,0,0
-315,-412,0,0,0,0,0,0,0,0,0,-1,909,1436,0,0
-308,-412,0,0,0,0,0,0,0,0,0,-1,916,1436,0,0
-301,-412,0,0,0,0,0,0,0,0,0,-1,923,1436,0,0
-294,-412,0,0,0,0,0,0,0,0,0,-1,930,1436,0,0
-287,-412,0,0,0,0,0,0,0,0,0,-1,937,1436,0,0
-280,-412,0,0,0,0,0,0,0,0,0,-1,944,1436,0,0
-273,-412,0,0,0,0,0,0,0,0,0,-1,951,1436,0,0
-266,-412,0,0,0,0,0,0,0,0,0,-1,958,1436,0,0
-259,-412,0,0,0,0,0,0,0,0,0,-1,965,1436,0,0
-252,-412,0,0,0,0,0,0,0,0,0,-1,972,1436,0,0
-245,-412,0,0,0,0,0,0,0,0,0,-1,979,1436,0,0
-238,-412,0,0,0,0,0,0,0,0,0,-1,986,1436,0,0
-231,-412,0,0,0,0,0,0,0,0,0,-1,993,1436,0,0
-224,-412,0,0,0,0,0,0,0,0,0,-1,1000,1436,0,0
-217,-412,0,0,0,0,0,0,0,0,0,-1,1007,1436,0,0
-210,-412,0,0,0,0,0,0,0,0,0,-1,1014,1436,0,0
-203,-412,0,0,0,0,0,0,0,0,0,-1,1021,1436,0,0
-196,-412,0,0,0,0,0,0,0,0,0,-1,1028,1436,0,0
-189,-412,0,0,0,0,0,0,0,0,0,-1,1035,1436,0,0
-182,-412,0,0,0,0,0,0,0,0,0,-1,1042,1436,0,0
-175,-412,0,0,0,0,0,0,0,0,0,-1,1049,1436,0,0
-168,-412,0,0,0,0,0,0,0,0,0,-1,1056,1436,0,0
-161,-412,0,0,0,0,0,0,0,0,0,-1,1063,1436,0,0
-154,-412,0,0,0,0,0,0,0,0,0,-1,1070,1436,0,0
-147,-412,0,0,0,0,0,0,0,0,0,-1,1077,1436,0,0
-140,-412,0,0,0,0,0,0,0,0,0,-1,1084,1436,0,0
-133,-412,0,0,0,0,0,0,0,0,0,-1,1091,1436,0,0
-126,-412,0,0,0,0,0,0,0,0,0,-1,1098,1436,0,0
-119,-412,0,0,0,0,0,0,0,0,0,-1,1105,1436,0,0
-112,-412,0,0,0,0,0,0,0,0,0,-1,1112,1436,0,0
-105,-412,0,0,0,0,0,0,0,0,0,-1,1119,1436,0,0
-98,-412,0,0,0,0,0,0,0,0,0,-1,1126,1436,0,0
-91,-412,0,0,0,0,0,0,0,0,0,-1,1133,1436,0,0
-84,-412,0,0,0,0,0,0,0,0,0,-1,1140,1436,0,0
-77,-412,0,0,0,0,0,0,0,0,0,-1,1147,1436,0,0
-70,-412,0,0,0,0,0,0,0,0,0,-1,1154,1436,0,0
-63,-412,0,0,0,0,0,0,0,0,0,-1,1161,1436,0,0
-56,-412,0,0,0,0,0,0,0,0,0,-1,1168,1436,0,0
-49,-412,0,0,0,0,0,0,0,0,0,-1,1175,1436,0,0
-42,-412,0,0,0,0,0,0,0,0,0,-1,1182,1436,0,0
-35,-412,0,0,0,0,0,0,0,0,0,-1,1189,1436,0,0
-28,-412,0,0,0,0,0,0,0,0,0,-1,1196,1436,0,0
-21,-412,0,0,0,0,0,0,0,0,0,-1,1203,1436,0,0
-14,-412,0,0,0,0,0,0,0,0,0,-1,1210,1436,0,0
-7,-412,0,0,0,0,0,0,0,0,0,-1,1217,1436,0,0
0,-412,0,0,0,0,0,0,0,0,0,-1,1224,1436,0,0
7,-412,0,0,0,0,0,0,0,0,0,-1,1231,1436,0,0
14,-412,0,0,0,0,0,0,0,0,0,-1,1238,1436,0,0
21,-412,0,0,0,0,0,0,0,0,0,-1,1245,1436,0,0
28,-412,0,0,0,0,0,0,0,0,0,-1,1252,1436,0,0
35,-412,0,0,0,0,0,0,0,0,0,-1,1259,1436,0,0
42,-412,0,0,0,0,0,0,0,0,0,-1,1266,1436,0,0
49,-412,0,0,0,0,0,0,0,0,0,-1,1273,1436,0,0
56,-412,0,0,0,0,0,0,0,0,0,-1,1280,1436,0,0
63,-412,0,0,0,0,0,0,0,0,0,-1,1287,1436,0,0
70,-412,0,0,0,0,0,0,0,0,0,-1,1294,1436,0,0
77,-412,0,0,0,0,0,0,0,0,0,-1,1301,1436,0,0
84,-412,0,0,0,0,0,0,0,0,0,-1,1308,1436,0,0
91,-412,0,0,0,0,0,0,0,0,0,-1,1315,1436,0,0
98,-412,0,0,0,0,0,0,0,0,0,-1,1322,1436,0,0
105,-412,0,0,0,0,0,0,0,0,0,-1,1329,1436,0,0
112,-412,0,0,0,0,0,0,0,0,0,-1,1336,1436,0,0
119,-412,0,0,0,0,0,0,0,0,0,-1,1343,1436,0,0
126,-412,0,0,0,0,0,0,0,0,0,-1,1350,1436,0,0
133,-412,0,0,0,0,0,0,0,0,0,-1,1357,1436,0,0
140,-412,0,0,0,0,0,0,0,0,0,-1,1364,1436,0,0
147,-412,0,0,0,0,0,0,0,0,0,-1,1371,1436,0,0
154,-412,0,0,0,0,0,0,0,0,0,-1,1378,1436,0,0
161,-412,0,0,0,0,0,0,0,0,0,-1,1385,1436,0,0
168,-412,0,0,0,0,0,0,0,0,0,-1,1392,1436,0,0
175,-412,0,0,0,0,0,0,0,0,0,-1,1399,1436,0,0
182,-412,0,0,0,0,0,0,0,0,0,-1,1406,1436,0,0
189,-412,0,0,0,0,0,0,0,0,0,-1,1413,1436,0,0
196,-412,0,0,0,0,0,0,0,0,0,-1,1420,1436,0,0
203,-412,0,0,0,0,0,0,0,0,0,-1,1427,1436,0,0
210,-412,0,0,0,0,0,0,0,0,0,-1,1434,1436,0,0
217,-412,0,0,0,0,0,0,0,0,0,-1,1441,1436,0,0
224,-412,0,0,0,0,0,0,0,0,0,-1,1448,1436,0,0
231,-412,0,0,0,0,0,0,0,0,0,-1,1455,1436,0,0
238,-412,0,0,0,0,0,0,0,0,0,-1,1462,1436,0,0
245,-412,0,0,0,0,0,0,0,0,0,-1,1469,1436,0,0
252,-412,0,0,0,0,0,0,0,0,0,-1,1476,1436,0,0
259,-412,0,0,0,0,0,0,0,0,0,-1,1483,1436,0,0
266,-412,0,0,0,0,0,0,0,0,0,-1,1490,1436,0,0
273,-412,0,0,0,0,0,0,0,0,0,-1,1497,1436,0,0
280,-412,0,0,0,0,0,0,0,0,0,-1,1504,1436,0,0
287,-412,0,0,0,0,0,0,0,0,0,-1,1511,1436,0,0
294,-412,0,0,0,0,0,0,0,0,0,-1,1518,1436,0,0
301,-412,0,0,0,0,0,0,0,0,0,-1,1525,1436,0,0
308,-412,0,0,0,0,0,0,0,0,0,-1,1532,1436,0,0
315,-412,0,0,0,0,0,0,0,0,0,-1,1539,1436,0,0
322,-412,0,0,0,0,0,0,0,0,0,-1,1546,1436,0,0
329,-412,0,0,0,0,0,0,0,0,0,-1,1553,1436,0,0
336,-412,0,0,0,0,0,0,0,0,0,-1,1560,1436,0,0
343,-412,0,0,0,0,0,0,0,0,0,-1,1567,1436,0,0
350,-412,0,0,0,0,0,0,0,0,0,-1,1574,1436,0,0
357,-412,0,0,0,0,0,0,0,0,0,-1,1581,1436,0,0
364,-412,0,0,0,0,0,0,0,0,0,-1,1588,1436,0,0
371,-412,0,0,0,0,0,0,0,0,0,-1,1595,1436,0,0
378,-412,0,0,0,0,0,0,0,0,0,-1,1602,1436,0,0
385,-412,0,0,0,0,0,0,0,0,0,-1,1609,1436,0,0
392,-412,0,0,0,0,0,0,0,0,0,-1,1616,1436,0,0
399,-412,0,0,0,0,0,0,0,0,0,-1,1623,1436,0,0
406,-412,0,0,0,0,0,0,0,0,0,-1,1630,1436,0,0
413,-412,0,0,0,0,0,0,0,0,0,-1,1637,1436,0,0
420,-412,0,0,0,0,0,0,0,0,0,-1,1644,1436,0,0
427,-412,0,0,0,0,0,0,0,0,0,-1,1651,1436,0,0
434,-412,0,0,0,0,0,0,0,0,0,-1,1658,1436,0,0
441,-412,0,0,0,0,0,0,0,0,0,-1,1665,1436,0,0
448,-412,0,0,0,0,0,0,0,0,0,-1,1672,1436,0,0
455,-412,0,0,0,0,0,0,0,0,0,-1,1679,1436,0,0
462,-412,0,0,0,0,0,0,0,0,0,-1,1686,1436,0,0
469,-412,0,0,0,0,0,0,0,0,0,-1,1693,1436,0,0
476,-412,0,0,0,0,0,0,0,0,0,-1,1700,1436,0,0
483,-412,0,0,0,0,0,0,0,0,0,-1,1707,1436,0,0
490,-412,0,0,0,0,0,0,0,0,0,-1,1714,1436,0,0
497,-412,0,0,0,0,0,0,0,0,0,-1,1721,1436,0,0
504,-412,0,0,0,0,0,0,0,0,0,-1,1728,1436,0,0
511,-412,0,0,0,0,0,0,0,0,0,-1,1735,1436,0,0
518,-412,30.1038,-2.43384,0,0,0,0,0,0,0,-1,1742,1436,30.1038,2.43383
525,-412,29.5283,-1.42493,0,0,0,0,0,0,0,-1,1749,1436,29.5283,1.42495
532,-412,28.8533,-0.386597,0,0,0,0,0,0,0,-1,1756,1436,28.8533,0.386632
539,-412,25.8654,2.74683,0,0,0,0,0,0,0,-1,1763,1436,25.8654,-2.74685
546,-412,25.4265,2.4342,0,0,0,0,0,0,0,-1,1770,1436,25.4265,-2.4342
553,-412,26.3595,7.49255,0,0,0,0,0,0,0,-1,1777,1436,26.3595,-7.4925
560,-412,24.9116,7.94324,0,0,0,0,0,0,0,-1,1784,1436,24.9116,-7.94327
567,-412,23.668,7.94531,0,0,0,0,0,0,0,-1,1791,1436,23.6679,-7.94534
574,-412,23.0142,9.17236,0,0,0,0,0,0,0,-1,1798,1436,23.0141,-9.17235
581,-412,22.2615,10.0349,0,0,0,0,0,0,0,-1,1805,1436,22.2615,-10.0349
588,-412,21.6893,10.8069,0,0,0,0,0,0,0,-1,1812,1436,21.6893,-10.8069
595,-412,21.5137,14.3157,0,0,0,0,0,0,0,-1,1819,1436,21.5137,-14.3157
602,-412,37.0725,24.8387,0,0,0,0,0,0,0,-1,1826,1436,37.0725,-24.8388
609,-412,37.1268,23.9364,0.00333847,0.00253326,-0.00220378,0.00517612,0.000695614,-0.69505,0.00324383,0.0487528,1833,1436,37.1268,-23.9364
616,-412,37.1329,23.1536,0.00239906,0.00121853,-0.00130366,0.00323986,0.000377729,-0.572818,0.00204565,0.0146416,1840,1436,37.133,-23.1535
623,-412,37.0656,22.3864,0.00178548,0.000744491,-0.000887681,0.00229401,0.000235961,-0.520235,0.00145707,0.00949546,1847,1436,37.0656,-22.3863
630,-412,37.0459,21.5845,0.00147265,0.000486381,-0.000664325,0.00180687,0.000152165,-0.466118,0.0011572,0.0115418,1854,1436,37.0459,-21.5844
637,-412,37.0264,20.8009,0.00142582,0.00042641,-0.000627283,0.00172811,0.000124124,-0.449061,0.00111301,0.0142292,1861,1436,37.0263,-20.8009
644,-412,37.0016,20.0245,0.00169746,0.00036405,-0.000674521,0.00197916,8.23499e-05,-0.395612,0.00129287,0.0154756,1868,1436,37.0016,-20.0245
651,-412,36.9508,19.2444,0.00219973,0.000444593,-0.000839929,0.0025369,0.000107415,-0.381744,0.00165663,0.0264435,1875,1436,36.9508,-19.2444
658,-412,36.8938,18.5177,0.00295776,0.000513519,-0.00105702,0.00335146,0.000119822,-0.356542,0.00219546,0.0187912,1882,1436,36.8938,-18.5177
665,-412,36.8304,17.7449,0.00404594,0.000448693,-0.00125602,0.00444109,5.35452e-05,-0.3048,0.00294304,0.0220653,1889,1436,36.8305,-17.7448
672,-412,36.864,16.9392,0.0054099,8.34891e-05,-0.00131008,0.00571468,-0.000221296,-0.22858,0.00388565,0.0372379,1896,1436,36.8641,-16.9393
679,-412,36.9412,16.1173,0,0,0,0,0,0,0,-1,1903,1436,36.9411,-16.1173
686,-412,35.3159,15.2073,0,0,0,0,0,0,0,-1,1910,1436,35.3159,-15.2072
693,-412,11.9346,6.02344,0,0,0,0,0,0,0,-1,1917,1436,11.9346,-6.02343
700,-412,8.82764,5.8844,0,0,0,0,0,0,0,-1,1924,1436,8.82761,-5.88444
707,-412,6.59998,1.68994,0,0,0,0,0,0,0,-1,1931,1436,6.60002,-1.68995
714,-412,4.77283,-2.39832,0,0,0,0,0,0,0,-1,1938,1436,4.77288,2.39835
721,-412,0,0,0,0,0,0,0,0,0,-1,1945,1436,0,0
728,-412,0,0,0,0,0,0,0,0,0,-1,1952,1436,0,0
735,-412,0,0,0,0,0,0,0,0,0,-1,1959,1436,0,0
742,-412,0,0,0,0,0,0,0,0,0,-1,1966,1436,0,0
749,-412,0,0,0,0,0,0,0,0,0,-1,1973,1436,0,0
756,-412,0,0,0,0,0,0,0,0,0,-1,1980,1436,0,0
763,-412,0,0,0,0,0,0,0,0,0,-1,1987,1436,0,0
770,-412,0,0,0,0,0,0,0,0,0,-1,1994,1436,0,0
777,-412,0,0,0,0,0,0,0,0,0,-1,2001,1436,0,0
784,-412,0,0,0,0,0,0,0,0,0,-1,2008,1436,0,0
791,-412,0,0,0,0,0,0,0,0,0,-1,2015,1436,0,0
798,-412,0,0,0,0,0,0,0,0,0,-1,2022,1436,0,0
805,-412,0,0,0,0,0,0,0,0,0,-1,2029,1436,0,0
812,-412,0,0,0,0,0,0,0,0,0,-1,2036,1436,0,0
-700,-419,0,0,0,0,0,0,0,0,0,-1,524,1443,0,0
-693,-419,0,0,0,0,0,0,0,0,0,-1,531,1443,0,0
-686,-419,0,0,0,0,0,0,0,0,0,-1,538,1443,0,0
-679,-419,0,0,0,0,0,0,0,0,0,-1,545,1443,0,0
-672,-419,0,0,0,0,0,0,0,0,0,-1,552,1443,0,0
-665,-419,0,0,0,0,0,0,0,0,0,-1,559,1443,0,0
-658,-419,0,0,0,0,0,0,0,0,0,-1,566,1443,0,0
-651,-419,0,0,0,0,0,0,0,0,0,-1,573,1443,0,0
-644,-419,0,0,0,0,0,0,0,0,0,-1,580,1443,0,0
-637,-419,0,0,0,0,0,0,0,0,0,-1,587,1443,0,0
-630,-419,0,0,0,0,0,0,0,0,0,-1,594,1443,0,0
-623,-419,0,0,0,0,0,0,0,0,0,-1,601,1443,0,0
-616,-419,0,0,0,0,0,0,0,0,0,-1,608,1443,0,0
-609,-419,0,0,0,0,0,0,0,0,0,-1,615,1443,0,0
-602,-419,0,0,0,0,0,0,0,0,0,-1,622,1443,0,0
-595,-419,-11.4904,-0.622681,0,0,0,0,0,0,0,-1,629,1443,-11.4903,0.622714
-588,-419,-9.09369,0.742432,0,0,0,0,0,0,0,-1,636,1443,-9.09366,-0.742482
-581,-419,-6.39172,2.14673,0,0,0,0,0,0,0,-1,643,1443,-6.39175,-2.14668
-574,-419,-4.09772,3.54773,0,0,0,0,0,0,0,-1,650,1443,-4.09772,-3.54767
-567,-419,-6.14038,3.22498,0,0,0,0,0,0,0,-1,657,1443,-6.14037,-3.22497
-560,-419,-4.52814,5.22253,0,0,0,0,0,0,0,-1,664,1443,-4.52816,-5.22251
-553,-419,-5.08331,6.11829,0,0,0,0,0,0,0,-1,671,1443,-5.08331,-6.1183
-546,-419,-10.3732,9.23279,0,0,0,0,0,0,0,-1,678,1443,-10.3732,-9.23275
-539,-419,-18.3043,16.1764,0,0,0,0,0,0,0,-1,685,1443,-18.3043,-16.1764
-532,-419,-18.3895,17.1107,0.00460507,0.00451863,0.00402561,0.00858769,0.000536006,0.78003,0.00555509,0.0319067,692,1443,-18.3895,-17.1107
-525,-419,-18.3994,17.9933,0.00362187,0.0034763,0.0030693,0.00661925,0.000478919,0.773543,0.00426217,0.0141057,699,1443,-18.3993,-17.9932
-518,-419,-18.4186,18.7819,0.00291426,0.00266628,0.00234124,0.00513479,0.000445744,0.758943,0.00328471,0.0176919,706,1443,-18.4186,-18.7819
-511,-419,-18.4629,19.5844,0.00235473,0.00202464,0.00178667,0.00398396,0.000395416,0.739341,0.00253447,0.0195161,713,1443,-18.4629,-19.5843
-504,-419,-18.5238,20.3721,0.0019258,0.00155806,0.00137036,0.00312457,0.000359285,0.718708,0.00197422,0.0196786,720,1443,-18.5238,-20.3721
-497,-419,-18.5675,21.1523,0.0016633,0.00127347,0.00111025,0.00259562,0.000341156,0.698504,0.00162865,0.0144105,727,1443,-18.5675,-21.1524
-490,-419,-18.5964,21.9678,0.00150702,0.00114,0.000967618,0.00230837,0.000338643,0.691686,0.00143937,0.0125164,734,1443,-18.5964,-21.9678
-483,-419,-18.647,22.769,0.00150329,0.00124988,0.000992722,0.00237736,0.000375811,0.721925,0.00147568,0.010724,741,1443,-18.647,-22.769
-476,-419,-18.6691,23.5743,0.00157443,0.00147057,0.00112296,0.00264666,0.000398335,0.762293,0.00164779,0.022593,748,1443,-18.6691,-23.5743
-469,-419,-18.6972,24.387,0,0,0,0,0,0,0,-1,755,1443,-18.6972,-24.387
-462,-419,-11.5347,18.1563,0,0,0,0,0,0,0,-1,762,1443,-11.5347,-18.1562
-455,-419,-7.35645,11.9451,0,0,0,0,0,0,0,-1,769,1443,-7.35646,-11.9451
-448,-419,-7.49109,9.92444,0,0,0,0,0,0,0,-1,776,1443,-7.49109,-9.92442
-441,-419,-7.65527,8.75574,0,0,0,0,0,0,0,-1,783,1443,-7.65525,-8.75568
-434,-419,-11.3724,12.3643,0,0,0,0,0,0,0,-1,790,1443,-11.3724,-12.3643
-427,-419,-8.23193,7.89404,0,0,0,0,0,0,0,-1,797,1443,-8.23193,-7.89404
-420,-419,-8.74091,6.36597,0,0,0,0,0,0,0,-1,804,1443,-8.74089,-6.366
-413,-419,-9.88391,6.53955,0,0,0,0,0,0,0,-1,811,1443,-9.8839,-6.53955
-406,-419,-10.3372,2.75195,0,0,0,0,0,0,0,-1,818,1443,-10.3372,-2.75201
-399,-419,-11.5999,1.40002,0,0,0,0,0,0,0,-1,825,1443,-11.5999,-1.39998
-392,-419,0,0,0,0,0,0,0,0,0,-1,832,1443,0,0
-385,-419,0,0,0,0,0,0,0,0,0,-1,839,1443,0,0
-378,-419,0,0,0,0,0,0,0,0,0,-1,846,1443,0,0
-371,-419,0,0,0,0,0,0,0,0,0,-1,853,1443,0,0
-364,-419,0,0,0,0,0,0,0,0,0,-1,860,1443,0,0
-357,-419,0,0,0,0,0,0,0,0,0,-1,867,1443,0,0
-350,-419,0,0,0,0,0,0,0,0,0,-1,874,1443,0,0
-343,-419,0,0,0,0,0,0,0,0,0,-1,881,1443,0,0
-336,-419,0,0,0,0,0,0,0,0,0,-1,888,1443,0,0
-329,-419,0,0,0,0,0,0,0,0,0,-1,895,1443,0,0
-322,-419,0,0,0,0,0,0,0,0,0,-1,902,1443,0,0
-315,-419,0,0,0,0,0,0,0,0,0,-1,909,1443,0,0
-308,-419,0,0,0,0,0,0,0,0,0,-1,916,1443,0,0
-301,-419,0,0,0,0,0,0,0,0,0,-1,923,1443,0,0
-294,-419,0,0,0,0,0,0,0,0,0,-1,930,1443,0,0
-287,-419,0,0,0,0,0,0,0,0,0,-1,937,1443,0,0
-280,-419,0,0,0,0,0,0,0,0,0,-1,944,1443,0,0
-273,-419,0,0,0,0,0,0,0,0,0,-1,951,1443,0,0
-266,-419,0,0,0,0,0,0,0,0,0,-1,958,1443,0,0
-259,-419,0,0,0,0,0,0,0,0,0,-1,965,1443,0,0
-252,-419,0,0,0,0,0,0,0,0,0,-1,972,1443,0,0
-245,-419,0,0,0,0,0,0,0,0,0,-1,979,1443,0,0
-238,-419,0,0,0,0,0,0,0,0,0,-1,986,1443,0,0
-231,-419,0,0,0,0,0,0,0,0,0,-1,993,1443,0,0
-224,-419,0,0,0,0,0,0,0,0,0,-1,1000,1443,0,0
-217,-419,0,0,0,0,0,0,0,0,0,-1,1007,1443,0,0
-210,-419,0,0,0,0,0,0,0,0,0,-1,1014,1443,0,0
-203,-419,0,0,0,0,0,0,0,0,0,-1,1021,1443,0,0
-196,-419,0,0,0,0,0,0,0,0,0,-1,1028,1443,0,0
-189,-419,0,0,0,0,0,0,0,0,0,-1,1035,1443,0,0
-182,-419,0,0,0,0,0,0,0,0,0,-1,1042,1443,0,0
-175,-419,0,0,0,0,0,0,0,0,0,-1,1049,1443,0,0
-168,-419,0,0,0,0,0,0,0,0,0,-1,1056,1443,0,0
-161,-419,0,0,0,0,0,0,0,0,0,-1,1063,1443,0,0
-154,-419,0,0,0,0,0,0,0,0,0,-1,1070,1443,0,0
-147,-419,0,0,0,0,0,0,0,0,0,-1,1077,1443,0,0
-140,-419,0,0,0,0,0,0,0,0,0,-1,1084,1443,0,0
-133,-419,0,0,0,0,0,0,0,0,0,-1,1091,1443,0,0
-126,-419,0,0,0,0,0,0,0,0,0,-1,1098,1443,0,0
-119,-419,0,0,0,0,0,0,0,0,0,-1,1105,1443,0,0
-112,-419,0,0,0,0,0,0,0,0,0,-1,1112,1443,0,0
-105,-419,0,0,0,0,0,0,0,0,0,-1,1119,1443,0,0
-98,-419,0,0,0,0,0,0,0,0,0,-1,1126,1443,0,0
-91,-419,0,0,0,0,0,0,0,0,0,-1,1133,1443,0,0
-84,-419,0,0,0,0,0,0,0,0,0,-1,1140,1443,0,0
-77,-419,0,0,0,0,0,0,0,0,0,-1,1147,1443,0,0
-70,-419,0,0,0,0,0,0,0,0,0,-1,1154,1443,0,0
-63,-419,0,0,0,0,0,0,0,0,0,-1,1161,1443,0,0
-56,-419,0,0,0,0,0,0,0,0,0,-1,1168,1443,0,0
-49,-419,0,0,0,0,0,0,0,0,0,-1,1175,1443,0,0
-42,-419,0,0,0,0,0,0,0,0,0,-1,1182,1443,0,0
-35,-419,0,0,0,0,0,0,0,0,0,-1,1189,1443,0,0
-28,-419,0,0,0,0,0,0,0,0,0,-1,1196,1443,0,0
-21,-419,0,0,0,0,0,0,0,0,0,-1,1203,1443,0,0
-14,-419,0,0,0,0,0,0,0,0,0,-1,1210,1443,0,0
-7,-419,0,0,0,0,0,0,0,0,0,-1,1217,1443,0,0
0,-419,0,0,0,0,0,0,0,0,0,-1,1224,1443,0,0
7,-419,0,0,0,0,0,0,0,0,0,-1,1231,1443,0,0
14,-419,0,0,0,0,0,0,0,0,0,-1,1238,1443,0,0
21,-419,0,0,0,0,0,0,0,0,0,-1,1245,1443,0,0
28,-419,0,0,0,0,0,0,0,0,0,-1,1252,1443,0,0
35,-419,0,0,0,0,0,0,0,0,0,-1,1259,1443,0,0
42,-419,0,0,0,0,0,0,0,0,0,-1,1266,1443,0,0
49,-419,0,0,0,0,0,0,0,0,0,-1,1273,1443,0,0
56,-419,0,0,0,0,0,0,0,0,0,-1,1280,1443,0,0
63,-419,0,0,0,0,0,0,0,0,0,-1,1287,1443,0,0
70,-419,0,0,0,0,0,0,0,0,0,-1,1294,1443,0,0
77,-419,0,0,0,0,0,0,0,0,0,-1,1301,1443,0,0
84,-419,0,0,0,0,0,0,0,0,0,-1,1308,1443,0,0
91,-419,0,0,0,0,0,0,0,0,0,-1,1315,1443,0,0
98,-419,0,0,0,0,0,0,0,0,0,-1,1322,1443,0,0
105,-419,0,0,0,0,0,0,0,0,0,-1,1329,1443,0,0
112,-419,0,0,0,0,0,0,0,0,0,-1,1336,1443,0,0
119,-419,0,0,0,0,0,0,0,0,0,-1,1343,1443,0,0
126,-419,0,0,0,0,0,0,0,0,0,-1,1350,1443,0,0
133,-419,0,0,0,0,0,0,0,0,0,-1,1357,1443,0,0
140,-419,0,0,0,0,0,0,0,0,0,-1,1364,1443,0,0
147,-419,0,0,0,0,0,0,0,0,0,-1,1371,1443,0,0
154,-419,0,0,0,0,0,0,0,0,0,-1,1378,1443,0,0
161,-419,0,0,0,0,0,0,0,0,0,-1,1385,1443,0,0
168,-419,0,0,0,0,0,0,0,0,0,-1,1392,1443,0,0
175,-419,0,0,0,0,0,0,0,0,0,-1,1399,1443,0,0
182,-419,0,0,0,0,0,0,0,0,0,-1,1406,1443,0,0
189,-419,0,0,0,0,0,0,0,0,0,-1,1413,1443,0,0
196,-419,0,0,0,0,0,0,0,0,0,-1,1420,1443,0,0
203,-419,0,0,0,0,0,0,0,0,0,-1,1427,1443,0,0
210,-419,0,0,0,0,0,0,0,0,0,-1,1434,1443,0,0
217,-419,0,0,0,0,0,0,0,0,0,-1,1441,1443,0,0
224,-419,0,0,0,0,0,0,0,0,0,-1,1448,1443,0,0
231,-419,0,0,0,0,0,0,0,0,0,-1,1455,1443,0,0
238,-419,0,0,0,0,0,0,0,0,0,-1,1462,1443,0,0
245,-419,0,0,0,0,0,0,0,0,0,-1,1469,1443,0,0
252,-419,0,0,0,0,0,0,0,0,0,-1,1476,1443,0,0
259,-419,0,0,0,0,0,0,0,0,0,-1,1483,1443,0,0
266,-419,0,0,0,0,0,0,0,0,0,-1,1490,1443,0,0
273,-419,0,0,0,0,0,0,0,0,0,-1,1497,1443,0,0
280,-419,0,0,0,0,0,0,0,0,0,-1,1504,1443,0,0
287,-419,0,0,0,0,0,0,0,0,0,-1,1511,1443,0,0
294,-419,0,0,0,0,0,0,0,0,0,-1,1518,1443,0,0
301,-419,0,0,0,0,0,0,0,0,0,-1,1525,1443,0,0
308,-419,0,0,0,0,0,0,0,0,0,-1,1532,1443,0,0
315,-419,0,0,0,0,0,0,0,0,0,-1,1539,1443,0,0
322,-419,0,0,0,0,0,0,0,0,0,-1,1546,1443,0,0
329,-419,0,0,0,0,0,0,0,0,0,-1,1553,1443,0,0
336,-419,0,0,0,0,0,0,0,0,0,-1,1560,1443,0,0
343,-419,0,0,0,0,0,0,0,0,0,-1,1567,1443,0,0
350,-419,0,0,0,0,0,0,0,0,0,-1,1574,1443,0,0
357,-419,0,0,0,0,0,0,0,0,0,-1,1581,1443,0,0
364,-419,0,0,0,0,0,0,0,0,0,-1,1588,1443,0,0
371,-419,0,0,0,0,0,0,0,0,0,-1,1595,1443,0,0
378,-419,0,0,0,0,0,0,0,0,0,-1,1602,1443,0,0
385,-419,0,0,0,0,0,0,0,0,0,-1,1609,1443,0,0
392,-419,0,0,0,0,0,0,0,0,0,-1,1616,1443,0,0
399,-419,0,0,0,0,0,0,0,0,0,-1,1623,1443,0,0
406,-419,0,0,0,0,0,0,0,0,0,-1,1630,1443,0,0
413,-419,0,0,0,0,0,0,0,0,0,-1,1637,1443,0,0
420,-419,0,0,0,0,0,0,0,0,0,-1,1644,1443,0,0
427,-419,0,0,0,0,0,0,0,0,0,-1,1651,1443,0,0
434,-419,0,0,0,0,0,0,0,0,0,-1,1658,1443,0,0
441,-419,0,0,0,0,0,0,0,0,0,-1,1665,1443,0,0
448,-419,0,0,0,0,0,0,0,0,0,-1,1672,1443,0,0
455,-419,0,0,0,0,0,0,0,0,0,-1,1679,1443,0,0
462,-419,0,0,0,0,0,0,0,0,0,-1,1686,1443,0,0
469,-419,0,0,0,0,0,0,0,0,0,-1,1693,1443,0,0
476,-419,0,0,0,0,0,0,0,0,0,-1,1700,1443,0,0
483,-419,0,0,0,0,0,0,0,0,0,-1,1707,1443,0,0
490,-419,0,0,0,0,0,0,0,0,0,-1,1714,1443,0,0
497,-419,0,0,0,0,0,0,0,0,0,-1,1721,1443,0,0
504,-419,0,0,0,0,0,0,0,0,0,-1,1728,1443,0,0
511,-419,20.3005,3.7959,0,0,0,0,0,0,0,-1,1735,1443,20.3005,-3.79584
518,-419,21.3154,2.03027,0,0,0,0,0,0,0,-1,1742,1443,21.3155,-2.03029
525,-419,28.3439,-1.24475,0,0,0,0,0,0,0,-1,1749,1443,28.3438,1.24471
532,-419,27.5902,-0.272583,0,0,0,0,0,0,0,-1,1756,1443,27.5902,0.272526
539,-419,26.5278,1.60583,0,0,0,0,0,0,0,-1,1763,1443,26.5279,-1.60579
546,-419,24.9509,2.77539,0,0,0,0,0,0,0,-1,1770,1443,24.9509,-2.77537
553,-419,24.118,3.75525,0,0,0,0,0,0,0,-1,1777,1443,24.1181,-3.75526
560,-419,11.8199,8.26343,0,0,0,0,0,0,0,-1,1784,1443,11.82,-8.26341
567,-419,21.5143,8.74719,0,0,0,0,0,0,0,-1,1791,1443,21.5143,-8.74722
574,-419,19.5886,6.46155,0,0,0,0,0,0,0,-1,1798,1443,19.5886,-6.46157
581,-419,20.7926,11.4265,0,0,0,0,0,0,0,-1,1805,1443,20.7926,-11.4265
588,-419,19.4242,12.5363,0,0,0,0,0,0,0,-1,1812,1443,19.4242,-12.5362
595,-419,22.9375,16.0151,0,0,0,0,0,0,0,-1,1819,1443,22.9375,-16.0152
602,-419,36.3923,24.8127,0,0,0,0,0,0,0,-1,1826,1443,36.3923,-24.8127
609,-419,36.3889,23.9657,0.00319299,0.00198739,-0.0021787,0.00485075,0.000329633,-0.650435,0.00312974,0.0274365,1833,1443,36.3889,-23.9657
616,-419,36.3499,23.1899,0.00239529,0.00116562,-0.00147932,0.00338246,0.000178458,-0.588449,0.0021979,0.0125134,1840,1443,36.3499,-23.1899
623,-419,36.3044,22.4259,0.00185478,0.000817994,-0.00105719,0.00251383,0.000158943,-0.557449,0.0016255,0.0105748,1847,1443,36.3045,-22.426
630,-419,36.2943,21.6272,0.00157856,0.000606786,-0.000815706,0.00204213,0.00014322,-0.516785,0.00131628,0.0124376,1854,1443,36.2943,-21.6272
637,-419,36.266,20.8794,0.00153916,0.000608399,-0.000728149,0.00193794,0.000209614,-0.501052,0.00122807,0.0138807,1861,1443,36.2659,-20.8794
644,-419,36.2317,20.1079,0.00181698,0.000590794,-0.000742772,0.002167,0.000240771,-0.440375,0.00137148,0.0125011,1868,1443,36.2317,-20.1079
651,-419,36.1875,19.3383,0.00230164,0.000787576,-0.000925224,0.00274007,0.000349144,-0.442523,0.00172217,0.0121354,1875,1443,36.1874,-19.3383
658,-419,36.1027,18.5522,0.00308175,0.00101908,-0.00120514,0.00363661,0.000464222,-0.431478,0.00228544,0.0141939,1882,1443,36.1026,-18.5523
665,-419,36.0714,17.782,0.004234,0.00115564,-0.00151196,0.00485239,0.000537253,-0.388238,0.00307154,0.0228095,1889,1443,36.0714,-17.782
672,-419,36.1395,16.9369,0,0,0,0,0,0,0,-1,1896,1443,36.1395,-16.9368
679,-419,35.5436,15.4066,0,0,0,0,0,0,0,-1,1903,1443,35.5436,-15.4067
686,-419,17.4127,8.03076,0,0,0,0,0,0,0,-1,1910,1443,17.4127,-8.03071
693,-419,8.76086,5.60535,0,0,0,0,0,0,0,-1,1917,1443,8.76091,-5.6054
700,-419,11.0498,4.85156,0,0,0,0,0,0,0,-1,1924,1443,11.0498,-4.85153
707,-419,9.5752,1.80042,0,0,0,0,0,0,0,-1,1931,1443,9.57523,-1.80037
714,-419,5.77576,-1.25061,0,0,0,0,0,0,0,-1,1938,1443,5.7757,1.25056
721,-419,0,0,0,0,0,0,0,0,0,-1,1945,1443,0,0
728,-419,0,0,0,0,0,0,0,0,0,-1,1952,1443,0,0
735,-419,0,0,0,0,0,0,0,0,0,-1,1959,1443,0,0
742,-419,0,0,0,0,0,0,0,0,0,-1,1966,1443,0,0
749,-419,0,0,0,0,0,0,0,0,0,-1,1973,1443,0,0
756,-419,0,0,0,0,0,0,0,0,0,-1,1980,1443,0,0
763,-419,0,0,0,0,0,0,0,0,0,-1,1987,1443,0,0
770,-419,0,0,0,0,0,0,0,0,0,-1,1994,1443,0,0
777,-419,0,0,0,0,0,0,0,0,0,-1,2001,1443,0,0
784,-419,0,0,0,0,0,0,0,0,0,-1,2008,1443,0,0
791,-419,0,0,0,0,0,0,0,0,0,-1,2015,1443,0,0
798,-419,0,0,0,0,0,0,0,0,0,-1,2022,1443,0,0
805,-419,0,0,0,0,0,0,0,0,0,-1,2029,1443,0,0
812,-419,0,0,0,0,0,0,0,0,0,-1,2036,1443,0,0
-700,-426,0,0,0,0,0,0,0,0,0,-1,524,1450,0,0
-693,-426,0,0,0,0,0,0,0,0,0,-1,531,1450,0,0
-686,-426,0,0,0,0,0,0,0,0,0,-1,538,1450,0,0
-679,-426,0,0,0,0,0,0,0,0,0,-1,545,1450,0,0
-672,-426,0,0,0,0,0,0,0,0,0,-1,552,1450,0,0
-665,-426,0,0,0,0,0,0,0,0,0,-1,559,1450,0,0
-658,-426,0,0,0,0,0,0,0,0,0,-1,566,1450,0,0
-651,-426,0,0,0,0,0,0,0,0,0,-1,573,1450,0,0
-644,-426,0,0,0,0,0,0,0,0,0,-1,580,1450,0,0
-637,-426,0,0,0,0,0,0,0,0,0,-1,587,1450,0,0
-630,-426,0,0,0,0,0,0,0,0,0,-1,594,1450,0,0
-623,-426,0,0,0,0,0,0,0,0,0,-1,601,1450,0,0
-616,-426,0,0,0,0,0,0,0,0,0,-1,608,1450,0,0
-609,-426,0,0,0,0,0,0,0,0,0,-1,615,1450,0,0
-602,-426,0,0,0,0,0,0,0,0,0,-1,622,1450,0,0
-595,-426,0,0,0,0,0,0,0,0,0,-1,629,1450,0,0
-588,-426,-10.184,-0.554321,0,0,0,0,0,0,0,-1,636,1450,-10.184,0.554321
-581,-426,-7.3349,1.48157,0,0,0,0,0,0,0,-1,643,1450,-7.33491,-1.48152
-574,-426,-5.02856,2.89319,0,0,0,0,0,0,0,-1,650,1450,-5.02858,-2.89319
-567,-426,-3.04797,1.72644,0,0,0,0,0,0,0,-1,657,1450,-3.04797,-1.72639
-560,-426,-5.55682,3.44397,0,0,0,0,0,0,0,-1,664,1450,-5.55684,-3.44399
-553,-426,-4.67017,6.66614,0,0,0,0,0,0,0,-1,671,1450,-4.67015,-6.66619
-546,-426,-7.58752,8.28882,0,0,0,0,0,0,0,-1,678,1450,-7.58752,-8.28878
-539,-426,-10.436,10.7441,0,0,0,0,0,0,0,-1,685,1450,-10.436,-10.7441
-532,-426,-17.6101,17.0667,0,0,0,0,0,0,0,-1,692,1450,-17.6101,-17.0667
-525,-426,-17.6255,17.9415,0.0040093,0.00429928,0.00377243,0.00792951,0.000379071,0.804605,0.00516462,0.0254144,699,1450,-17.6255,-17.9415
-518,-426,-17.6171,18.8302,0.00325662,0.00332176,0.00293351,0.00622288,0.000355497,0.790949,0.00403531,0.017351,706,1450,-17.6171,-18.8302
-511,-426,-17.6595,19.6589,0.00262431,0.00251726,0.00227453,0.00484595,0.000295623,0.773635,0.00313674,0.0161518,713,1450,-17.6595,-19.659
-504,-426,-17.7073,20.4279,0.00208507,0.00189801,0.00173418,0.00372823,0.000254839,0.758458,0.00240505,0.0152513,720,1450,-17.7073,-20.4279
-497,-426,-17.7462,21.2073,0.00168427,0.00146293,0.00132373,0.00290194,0.000245255,0.743694,0.00185828,0.0127156,727,1450,-17.7462,-21.2072
-490,-426,-17.7891,22.0171,0.00136686,0.00117484,0.00101472,0.0022901,0.000251598,0.738231,0.00145016,0.0133884,734,1450,-17.7891,-22.0171
-483,-426,-17.8467,22.8173,0.00123197,0.00113704,0.000890479,0.00207625,0.000292759,0.758771,0.00129763,0.0133496,741,1450,-17.8467,-22.8173
-476,-426,-17.8712,23.6083,0.0012345,0.00128048,0.000922111,0.00217989,0.000335092,0.797862,0.00135544,0.0102297,748,1450,-17.8712,-23.6083
-469,-426,-17.915,24.3988,0.00142865,0.00166789,0.00108325,0.0026381,0.000458439,0.840388,0.00162759,0.0141591,755,1450,-17.915,-24.3988
-462,-426,-17.8549,25.2257,0,0,0,0,0,0,0,-1,762,1450,-17.8549,-25.2257
-455,-426,-10.215,17.7007,0,0,0,0,0,0,0,-1,769,1450,-10.215,-17.7007
-448,-426,-6.46545,10.1322,0,0,0,0,0,0,0,-1,776,1450,-6.46543,-10.1322
-441,-426,-10.9547,11.4747,0,0,0,0,0,0,0,-1,783,1450,-10.9546,-11.4748
-434,-426,-10.4998,13.6189,0,0,0,0,0,0,0,-1,790,1450,-10.4997,-13.6189
-427,-426,-9.36627,13.7396,0,0,0,0,0,0,0,-1,797,1450,-9.36628,-13.7396
-420,-426,-5.33765,7.95044,0,0,0,0,0,0,0,-1,804,1450,-5.33766,-7.95041
-413,-426,-10.1148,5.0415,0,0,0,0,0,0,0,-1,811,1450,-10.1148,-5.04152
-406,-426,-11.4199,3.6438,0,0,0,0,0,0,0,-1,818,1450,-11.4198,-3.64382
-399,-426,-12.7595,2.29004,0,0,0,0,0,0,0,-1,825,1450,-12.7595,-2.29003
-392,-426,-12.4147,0.537354,0,0,0,0,0,0,0,-1,832,1450,-12.4147,-0.53731
-385,-426,0,0,0,0,0,0,0,0,0,-1,839,1450,0,0
-378,-426,0,0,0,0,0,0,0,0,0,-1,846,1450,0,0
-371,-426,0,0,0,0,0,0,0,0,0,-1,853,1450,0,0
-364,-426,0,0,0,0,0,0,0,0,0,-1,860,1450,0,0
-357,-426,0,0,0,0,0,0,0,0,0,-1,867,1450,0,0
-350,-426,0,0,0,0,0,0,0,0,0,-1,874,1450,0,0
-343,-426,0,0,0,0,0,0,0,0,0,-1,881,1450,0,0
-336,-426,0,0,0,0,0,0,0,0,0,-1,888,1450,0,0
-329,-426,0,0,0,0,0,0,0,0,0,-1,895,1450,0,0
-322,-426,0,0,0,0,0,0,0,0,0,-1,902,1450,0,0
-315,-426,0,0,0,0,0,0,0,0,0,-1,909,1450,0,0
-308,-426,0,0,0,0,0,0,0,0,0,-1,916,1450,0,0
-301,-426,0,0,0,0,0,0,0,0,0,-1,923,1450,0,0
-294,-426,0,0,0,0,0,0,0,0,0,-1,930,1450,0,0
-287,-426,0,0,0,0,0,0,0,0,0,-1,937,1450,0,0
-280,-426,0,0,0,0,0,0,0,0,0,-1,944,1450,0,0
-273,-426,0,0,0,0,0,0,0,0,0,-1,951,1450,0,0
-266,-426,0,0,0,0,0,0,0,0,0,-1,958,1450,0,0
-259,-426,0,0,0,0,0,0,0,0,0,-1,965,1450,0,0
-252,-426,0,0,0,0,0,0,0,0,0,-1,972,1450,0,0
-245,-426,0,0,0,0,0,0,0,0,0,-1,979,1450,0,0
-238,-426,0,0,0,0,0,0,0,0,0,-1,986,1450,0,0
-231,-426,0,0,0,0,0,0,0,0,0,-1,993,1450,0,0
-224,-426,0,0,0,0,0,0,0,0,0,-1,1000,1450,0,0
-217,-426,0,0,0,0,0,0,0,0,0,-1,1007,1450,0,0
-210,-426,0,0,0,0,0,0,0,0,0,-1,1014,1450,0,0
-203,-426,0,0,0,0,0,0,0,0,0,-1,1021,1450,0,0
-196,-426,0,0,0,0,0,0,0,0,0,-1,1028,1450,0,0
-189,-426,0,0,0,0,0,0,0,0,0,-1,1035,1450,0,0
-182,-426,0,0,0,0,0,0,0,0,0,-1,1042,1450,0,0
-175,-426,0,0,0,0,0,0,0,0,0,-1,1049,1450,0,0
-168,-426,0,0,0,0,0,0,0,0,0,-1,1056,1450,0,0
-161,-426,0,0,0,0,0,0,0,0,0,-1,1063,1450,0,0
-154,-426,0,0,0,0,0,0,0,0,0,-1,1070,1450,0,0
-147,-426,0,0,0,0,0,0,0,0,0,-1,1077,1450,0,0
-140,-426,0,0,0,0,0,0,0,0,0,-1,1084,1450,0,0
-133,-426,0,0,0,0,0,0,0,0,0,-1,1091,1450,0,0
-126,-426,0,0,0,0,0,0,0,0,0,-1,1098,1450,0,0
-119,-426,0,0,0,0,0,0,0,0,0,-1,1105,1450,0,0
-112,-426,0,0,0,0,0,0,0,0,0,-1,1112,1450,0,0
-105,-426,0,0,0,0,0,0,0,0,0,-1,1119,1450,0,0
-98,-426,0,0,0,0,0,0,0,0,0,-1,1126,1450,0,0
-91,-426,0,0,0,0,0,0,0,0,0,-1,1133,1450,0,0
-84,-426,0,0,0,0,0,0,0,0,0,-1,1140,1450,0,0
-77,-426,0,0,0,0,0,0,0,0,0,-1,1147,1450,0,0
-70,-426,0,0,0,0,0,0,0,0,0,-1,1154,1450,0,0
-63,-426,0,0,0,0,0,0,0,0,0,-1,1161,1450,0,0
-56,-426,0,0,0,0,0,0,0,0,0,-1,1168,1450,0,0
-49,-426,0,0,0,0,0,0,0,0,0,-1,1175,1450,0,0
-42,-426,0,0,0,0,0,0,0,0,0,-1,1182,1450,0,0
-35,-426,0,0,0,0,0,0,0,0,0,-1,1189,1450,0,0
-28,-426,0,0,0,0,0,0,0,0,0,-1,1196,1450,0,0
-21,-426,0,0,0,0,0,0,0,0,0,-1,1203,1450,0,0
-14,-426,0,0,0,0,0,0,0,0,0,-1,1210,1450,0,0
-7,-426,0,0,0,0,0,0,0,0,0,-1,1217,1450,0,0
0,-426,0,0,0,0,0,0,0,0,0,-1,1224,1450,0,0
7,-426,0,0,0,0,0,0,0,0,0,-1,1231,1450,0,0
14,-426,0,0,0,0,0,0,0,0,0,-1,1238,1450,0,0
21,-426,0,0,0,0,0,0,0,0,0,-1,1245,1450,0,0
28,-426,0,0,0,0,0,0,0,0,0,-1,1252,1450,0,0
35,-426,0,0,0,0,0,0,0,0,0,-1,1259,1450,0,0
42,-426,0,0,0,0,0,0,0,0,0,-1,1266,1450,0,0
49,-426,0,0,0,0,0,0,0,0,0,-1,1273,1450,0,0
56,-426,0,0,0,0,0,0,0,0,0,-1,1280,1450,0,0
63,-426,0,0,0,0,0,0,0,0,0,-1,1287,1450,0,0
70,-426,0,0,0,0,0,0,0,0,0,-1,1294,1450,0,0
77,-426,0,0,0,0,0,0,0,0,0,-1,1301,1450,0,0
84,-426,0,0,0,0,0,0,0,0,0,-1,1308,1450,0,0
91,-426,0,0,0,0,0,0,0,0,0,-1,1315,1450,0,0
98,-426,0,0,0,0,0,0,0,0,0,-1,1322,1450,0,0
105,-426,0,0,0,0,0,0,0,0,0,-1,1329,1450,0,0
112,-426,0,0,0,0,0,0,0,0,0,-1,1336,1450,0,0
119,-426,0,0,0,0,0,0,0,0,0,-1,1343,1450,0,0
126,-426,0,0,0,0,0,0,0,0,0,-1,1350,1450,0,0
133,-426,0,0,0,0,0,0,0,0,0,-1,1357,1450,0,0
140,-426,0,0,0,0,0,0,0,0,0,-1,1364,1450,0,0
147,-426,0,0,0,0,0,0,0,0,0,-1,1371,1450,0,0
154,-426,0,0,0,0,0,0,0,0,0,-1,1378,1450,0,0
161,-426,0,0,0,0,0,0,0,0,0,-1,1385,1450,0,0
168,-426,0,0,0,0,0,0,0,0,0,-1,1392,1450,0,0
175,-426,0,0,0,0,0,0,0,0,0,-1,1399,1450,0,0
182,-426,0,0,0,0,0,0,0,0,0,-1,1406,1450,0,0
189,-426,0,0,0,0,0,0,0,0,0,-1,1413,1450,0,0
196,-426,0,0,0,0,0,0,0,0,0,-1,1420,1450,0,0
203,-426,0,0,0,0,0,0,0,0,0,-1,1427,1450,0,0
210,-426,0,0,0,0,0,0,0,0,0,-1,1434,1450,0,0
217,-426,0,0,0,0,0,0,0,0,0,-1,1441,1450,0,0
224,-426,0,0,0,0,0,0,0,0,0,-1,1448,1450,0,0
231,-426,0,0,0,0,0,0,0,0,0,-1,1455,1450,0,0
238,-426,0,0,0,0,0,0,0,0,0,-1,1462,1450,0,0
245,-426,0,0,0,0,0,0,0,0,0,-1,1469,1450,0,0
252,-426,0,0,0,0,0,0,0,0,0,-1,1476,1450,0,0
259,-426,0,0,0,0,0,0,0,0,0,-1,1483,1450,0,0
266,-426,0,0,0,0,0,0,0,0,0,-1,1490,1450,0,0
273,-426,0,0,0,0,0,0,0,0,0,-1,1497,1450,0,0
280,-426,0,0,0,0,0,0,0,0,0,-1,1504,1450,0,0
287,-426,0,0,0,0,0,0,0,0,0,-1,1511,1450,0,0
294,-426,0,0,0,0,0,0,0,0,0,-1,1518,1450,0,0
301,-426,0,0,0,0,0,0,0,0,0,-1,1525,1450,0,0
308,-426,0,0,0,0,0,0,0,0,0,-1,1532,1450,0,0
315,-426,0,0,0,0,0,0,0,0,0,-1,1539,1450,0,0
322,-426,0,0,0,0,0,0,0,0,0,-1,1546,1450,0,0
329,-426,0,0,0,0,0,0,0,0,0,-1,1553,1450,0,0
336,-426,0,0,0,0,0,0,0,0,0,-1,1560,1450,0,0
343,-426,0,0,0,0,0,0,0,0,0,-1,1567,1450,0,0
350,-426,0,0,0,0,0,0,0,0,0,-1,1574,1450,0,0
357,-426,0,0,0,0,0,0,0,0,0,-1,1581,1450,0,0
364,-426,0,0,0,0,0,0,0,0,0,-1,1588,1450,0,0
371,-426,0,0,0,0,0,0,0,0,0,-1,1595,1450,0,0
378,-426,0,0,0,0,0,0,0,0,0,-1,1602,1450,0,0
385,-426,0,0,0,0,0,0,0,0,0,-1,1609,1450,0,0
392,-426,0,0,0,0,0,0,0,0,0,-1,1616,1450,0,0
399,-426,0,0,0,0,0,0,0,0,0,-1,1623,1450,0,0
406,-426,0,0,0,0,0,0,0,0,0,-1,1630,1450,0,0
413,-426,0,0,0,0,0,0,0,0,0,-1,1637,1450,0,0
420,-426,0,0,0,0,0,0,0,0,0,-1,1644,1450,0,0
427,-426,0,0,0,0,0,0,0,0,0,-1,1651,1450,0,0
434,-426,0,0,0,0,0,0,0,0,0,-1,1658,1450,0,0
441,-426,0,0,0,0,0,0,0,0,0,-1,1665,1450,0,0
448,-426,0,0,0,0,0,0,0,0,0,-1,1672,1450,0,0
455,-426,0,0,0,0,0,0,0,0,0,-1,1679,1450,0,0
462,-426,0,0,0,0,0,0,0,0,0,-1,1686,1450,0,0
469,-426,0,0,0,0,0,0,0,0,0,-1,1693,1450,0,0
476,-426,0,0,0,0,0,0,0,0,0,-1,1700,1450,0,0
483,-426,0,0,0,0,0,0,0,0,0,-1,1707,1450,0,0
490,-426,0,0,0,0,0,0,0,0,0,-1,1714,1450,0,0
497,-426,0,0,0,0,0,0,0,0,0,-1,1721,1450,0,0
504,-426,20.6873,3.38367,0,0,0,0,0,0,0,-1,1728,1450,20.6873,-3.38361
511,-426,19.6676,3.53748,0,0,0,0,0,0,0,-1,1735,1450,19.6676,-3.53749
518,-426,18.6853,3.32288,0,0,0,0,0,0,0,-1,1742,1450,18.6853,-3.3229
525,-426,18.9552,2.71033,0,0,0,0,0,0,0,-1,1749,1450,18.9552,-2.71034
532,-426,19.4333,2.70764,0,0,0,0,0,0,0,-1,1756,1450,19.4334,-2.70764
539,-426,25.1482,2.56287,0,0,0,0,0,0,0,-1,1763,1450,25.1482,-2.56286
546,-426,24.1136,3.75659,0,0,0,0,0,0,0,-1,1770,1450,24.1136,-3.7566
553,-426,23.0791,4.95032,0,0,0,0,0,0,0,-1,1777,1450,23.0791,-4.95034
560,-426,12.9688,11.8289,0,0,0,0,0,0,0,-1,1784,1450,12.9688,-11.8288
567,-426,13.6388,11.5623,0,0,0,0,0,0,0,-1,1791,1450,13.6388,-11.5623
574,-426,14.3943,11.0286,0,0,0,0,0,0,0,-1,1798,1450,14.3942,-11.0285
581,-426,16.3879,11.4653,0,0,0,0,0,0,0,-1,1805,1450,16.3879,-11.4653
588,-426,18.1212,12.5547,0,0,0,0,0,0,0,-1,1812,1450,18.1212,-12.5547
595,-426,30.0474,21.0964,0,0,0,0,0,0,0,-1,1819,1450,30.0474,-21.0965
602,-426,35.5872,24.8538,0,0,0,0,0,0,0,-1,1826,1450,35.5871,-24.8538
609,-426,35.6184,24.0001,0.00319671,0.00174868,-0.00209603,0.00469025,0.000255139,-0.619103,0.00304535,0.0145792,1833,1450,35.6184,-24.0001
616,-426,35.5823,23.2061,0.00240603,0.00117756,-0.0015028,0.00341528,0.000168308,-0.591394,0.00222287,0.0151907,1840,1450,35.5823,-23.2061
623,-426,35.5392,22.4471,0.00189928,0.000874391,-0.00108289,0.00258486,0.000188814,-0.564401,0.00166387,0.0129349,1847,1450,35.5392,-22.4471
630,-426,35.543,21.6891,0.00165282,0.000679281,-0.00084079,0.00213758,0.000194519,-0.523003,0.00136484,0.0136744,1854,1450,35.543,-21.6891
637,-426,35.5062,20.9209,0.00161578,0.000707177,-0.000731957,0.00202296,0.000299995,-0.50766,0.0012606,0.0144428,1861,1450,35.5062,-20.9209
644,-426,35.4219,20.1536,0.00189938,0.000742225,-0.00073606,0.00225704,0.000384568,-0.45231,0.0013943,0.0139508,1868,1450,35.4219,-20.1535
651,-426,35.3479,19.3879,0.00241555,0.00105953,-0.000964634,0.00291661,0.000558466,-0.479075,0.00178757,0.0130492,1875,1450,35.3479,-19.388
658,-426,35.326,18.5607,0.00326862,0.00147244,-0.00132413,0.00397049,0.000770566,-0.487408,0.00243119,0.0144879,1882,1450,35.3261,-18.5607
665,-426,35.3444,17.5651,0.00456364,0.0018729,-0.00176186,0.00543506,0.00100148,-0.459322,0.00333998,0.0456154,1889,1450,35.3444,-17.5651
672,-426,35.5125,16.5293,0,0,0,0,0,0,0,-1,1896,1450,35.5125,-16.5293
679,-426,17.1522,8.15784,0,0,0,0,0,0,0,-1,1903,1450,17.1522,-8.15784
686,-426,13.5326,8.03711,0,0,0,0,0,0,0,-1,1910,1450,13.5326,-8.03717
693,-426,11.8607,6.45215,0,0,0,0,0,0,0,-1,1917,1450,11.8607,-6.45215
700,-426,9.24304,2.95447,0,0,0,0,0,0,0,-1,1924,1450,9.24305,-2.95442
707,-426,8.44519,-1.21448,0,0,0,0,0,0,0,-1,1931,1450,8.44514,1.21454
714,-426,0,0,0,0,0,0,0,0,0,-1,1938,1450,0,0
721,-426,0,0,0,0,0,0,0,0,0,-1,1945,1450,0,0
728,-426,0,0,0,0,0,0,0,0,0,-1,1952,1450,0,0
735,-426,0,0,0,0,0,0,0,0,0,-1,1959,1450,0,0
742,-426,0,0,0,0,0,0,0,0,0,-1,1966,1450,0,0
749,-426,0,0,0,0,0,0,0,0,0,-1,1973,1450,0,0
756,-426,0,0,0,0,0,0,0,0,0,-1,1980,1450,0,0
763,-426,0,0,0,0,0,0,0,0,0,-1,1987,1450,0,0
770,-426,0,0,0,0,0,0,0,0,0,-1,1994,1450,0,0
777,-426,0,0,0,0,0,0,0,0,0,-1,2001,1450,0,0
784,-426,0,0,0,0,0,0,0,0,0,-1,2008,1450,0,0
791,-426,0,0,0,0,0,0,0,0,0,-1,2015,1450,0,0
798,-426,0,0,0,0,0,0,0,0,0,-1,2022,1450,0,0
805,-426,0,0,0,0,0,0,0,0,0,-1,2029,1450,0,0
812,-426,0,0,0,0,0,0,0,0,0,-1,2036,1450,0,0
-700,-433,0,0,0,0,0,0,0,0,0,-1,524,1457,0,0
-693,-433,0,0,0,0,0,0,0,0,0,-1,531,1457,0,0
-686,-433,0,0,0,0,0,0,0,0,0,-1,538,1457,0,0
-679,-433,0,0,0,0,0,0,0,0,0,-1,545,1457,0,0
-672,-433,0,0,0,0,0,0,0,0,0,-1,552,1457,0,0
-665,-433,0,0,0,0,0,0,0,0,0,-1,559,1457,0,0
-658,-433,0,0,0,0,0,0,0,0,0,-1,566,1457,0,0
-651,-433,0,0,0,0,0,0,0,0,0,-1,573,1457,0,0
-644,-433,0,0,0,0,0,0,0,0,0,-1,580,1457,0,0
-637,-433,0,0,0,0,0,0,0,0,0,-1,587,1457,0,0
-630,-433,0,0,0,0,0,0,0,0,0,-1,594,1457,0,0
-623,-433,0,0,0,0,0,0,0,0,0,-1,601,1457,0,0
-616,-433,0,0,0,0,0,0,0,0,0,-1,608,1457,0,0
-609,-433,0,0,0,0,0,0,0,0,0,-1,615,1457,0,0
-602,-433,0,0,0,0,0,0,0,0,0,-1,622,1457,0,0
-595,-433,0,0,0,0,0,0,0,0,0,-1,629,1457,0,0
-588,-433,-10.3756,-0.467041,0,0,0,0,0,0,0,-1,636,1457,-10.3756,0.467081
-581,-433,-8.12201,0.884033,0,0,0,0,0,0,0,-1,643,1457,-8.12204,-0.884056
-574,-433,-5.86847,2.23523,0,0,0,0,0,0,0,-1,650,1457,-5.86844,-2.23519
-567,-433,-5.42255,1.16833,0,0,0,0,0,0,0,-1,657,1457,-5.42254,-1.1683
-560,-433,-6.84027,1.86414,0,0,0,0,0,0,0,-1,664,1457,-6.84026,-1.86412
-553,-433,-5.74017,1.79163,0,0,0,0,0,0,0,-1,671,1457,-5.74015,-1.79166
-546,-433,-8.12451,7.35095,0,0,0,0,0,0,0,-1,678,1457,-8.12451,-7.35097
-539,-433,-7.3136,8.75659,0,0,0,0,0,0,0,-1,685,1457,-7.31362,-8.75659
-532,-433,-14.5645,14.8475,0,0,0,0,0,0,0,-1,692,1457,-14.5645,-14.8475
-525,-433,-16.8571,17.98,0,0,0,0,0,0,0,-1,699,1457,-16.857,-17.98
-518,-433,-16.8199,18.8976,0.00377445,0.00413102,0.00372505,0.00768205,0.000223419,0.80931,0.00504854,0.0192774,706,1457,-16.82,-18.8976
-511,-433,-16.8808,19.6854,0.00306684,0.00315463,0.00293139,0.00604245,0.00017902,0.792884,0.00396997,0.0166669,713,1457,-16.8808,-19.6855
-504,-433,-16.9044,20.4517,0.00240642,0.00237246,0.00223652,0.00462602,0.000152859,0.781602,0.00303434,0.0132363,720,1457,-16.9044,-20.4516
-497,-433,-16.9248,21.2271,0.00187459,0.00178473,0.00167284,0.0035031,0.000156214,0.771973,0.00228511,0.0142701,727,1457,-16.9248,-21.227
-490,-433,-17.0077,22.0442,0.0014293,0.00134372,0.0012092,0.00259647,0.000176555,0.767711,0.00167523,0.0167396,734,1457,-17.0077,-22.0442
-483,-433,-17.0556,22.8748,0.00118203,0.00114619,0.000940607,0.00210488,0.000223329,0.775873,0.00133505,0.0175912,741,1457,-17.0556,-22.8747
-476,-433,-17.078,23.6932,0.00109306,0.00117114,0.000854977,0.00198797,0.000276232,0.808211,0.0012435,0.0116823,748,1457,-17.078,-23.6932
-469,-433,-17.1363,24.4779,0.00118435,0.00139486,0.000906283,0.00220198,0.000377228,0.843208,0.0013598,0.0112211,755,1457,-17.1363,-24.4779
-462,-433,-17.2278,25.2924,0,0,0,0,0,0,0,-1,762,1457,-17.2278,-25.2924
-455,-433,-13.8576,22.7446,0,0,0,0,0,0,0,-1,769,1457,-13.8576,-22.7446
-448,-433,-6.94812,14.5563,0,0,0,0,0,0,0,-1,776,1457,-6.94809,-14.5562
-441,-433,-9.97485,14.0258,0,0,0,0,0,0,0,-1,783,1457,-9.97488,-14.0257
-434,-433,-9.41205,14.2297,0,0,0,0,0,0,0,-1,790,1457,-9.41205,-14.2297
-427,-433,-8.67419,13.6827,0,0,0,0,0,0,0,-1,797,1457,-8.67422,-13.6827
-420,-433,-5.74658,9.49121,0,0,0,0,0,0,0,-1,804,1457,-5.7466,-9.49119
-413,-433,-3.63074,5.5813,0,0,0,0,0,0,0,-1,811,1457,-3.63072,-5.58129
-406,-433,-12.3472,4.69373,0,0,0,0,0,0,0,-1,818,1457,-12.3472,-4.69374
-399,-433,-12.055,2.83594,0,0,0,0,0,0,0,-1,825,1457,-12.055,-2.83594
-392,-433,-12.9772,1.6228,0,0,0,0,0,0,0,-1,832,1457,-12.9772,-1.62282
-385,-433,-13.7999,0.514771,0,0,0,0,0,0,0,-1,839,1457,-13.7999,-0.514788
-378,-433,0,0,0,0,0,0,0,0,0,-1,846,1457,0,0
-371,-433,0,0,0,0,0,0,0,0,0,-1,853,1457,0,0
-364,-433,0,0,0,0,0,0,0,0,0,-1,860,1457,0,0
-357,-433,0,0,0,0,0,0,0,0,0,-1,867,1457,0,0
-350,-433,0,0,0,0,0,0,0,0,0,-1,874,1457,0,0
-343,-433,0,0,0,0,0,0,0,0,0,-1,881,1457,0,0
-336,-433,0,0,0,0,0,0,0,0,0,-1,888,1457,0,0
-329,-433,0,0,0,0,0,0,0,0,0,-1,895,1457,0,0
-322,-433,0,0,0,0,0,0,0,0,0,-1,902,1457,0,0
-315,-433,0,0,0,0,0,0,0,0,0,-1,909,1457,0,0
-308,-433,0,0,0,0,0,0,0,0,0,-1,916,1457,0,0
-301,-433,0,0,0,0,0,0,0,0,0,-1,923,1457,0,0
-294,-433,0,0,0,0,0,0,0,0,0,-1,930,1457,0,0
-287,-433,0,0,0,0,0,0,0,0,0,-1,937,1457,0,0
-280,-433,0,0,0,0,0,0,0,0,0,-1,944,1457,0,0
-273,-433,0,0,0,0,0,0,0,0,0,-1,951,1457,0,0
-266,-433,0,0,0,0,0,0,0,0,0,-1,958,1457,0,0
-259,-433,0,0,0,0,0,0,0,0,0,-1,965,1457,0,0
-252,-433,0,0,0,0,0,0,0,0,0,-1,972,1457,0,0
-245,-433,0,0,0,0,0,0,0,0,0,-1,979,1457,0,0
-238,-433,0,0,0,0,0,0,0,0,0,-1,986,1457,0,0
-231,-433,0,0,0,0,0,0,0,0,0,-1,993,1457,0,0
-224,-433,0,0,0,0,0,0,0,0,0,-1,1000,1457,0,0
-217,-433,0,0,0,0,0,0,0,0,0,-1,1007,1457,0,0
-210,-433,0,0,0,0,0,0,0,0,0,-1,1014,1457,0,0
-203,-433,0,0,0,0,0,0,0,0,0,-1,1021,1457,0,0
-196,-433,0,0,0,0,0,0,0,0,0,-1,1028,1457,0,0
-189,-433,0,0,0,0,0,0,0,0,0,-1,1035,1457,0,0
-182,-433,0,0,0,0,0,0,0,0,0,-1,1042,1457,0,0
-175,-433,0,0,0,0,0,0,0,0,0,-1,1049,1457,0,0
-168,-433,0,0,0,0,0,0,0,0,0,-1,1056,1457,0,0
-161,-433,0,0,0,0,0,0,0,0,0,-1,1063,1457,0,0
-154,-433,0,0,0,0,0,0,0,0,0,-1,1070,1457,0,0
-147,-433,0,0,0,0,0,0,0,0,0,-1,1077,1457,0,0
-140,-433,0,0,0,0,0,0,0,0,0,-1,1084,1457,0,0
-133,-433,0,0,0,0,0,0,0,0,0,-1,1091,1457,0,0
-126,-433,0,0,0,0,0,0,0,0,0,-1,1098,1457,0,0
-119,-433,0,0,0,0,0,0,0,0,0,-1,1105,1457,0,0
-112,-433,0,0,0,0,0,0,0,0,0,-1,1112,1457,0,0
-105,-433,0,0,0,0,0,0,0,0,0,-1,1119,1457,0,0
-98,-433,0,0,0,0,0,0,0,0,0,-1,1126,1457,0,0
-91,-433,0,0,0,0,0,0,0,0,0,-1,1133,1457,0,0
-84,-433,0,0,0,0,0,0,0,0,0,-1,1140,1457,0,0
-77,-433,0,0,0,0,0,0,0,0,0,-1,1147,1457,0,0
-70,-433,0,0,0,0,0,0,0,0,0,-1,1154,1457,0,0
-63,-433,0,0,0,0,0,0,0,0,0,-1,1161,1457,0,0
-56,-433,0,0,0,0,0,0,0,0,0,-1,1168,1457,0,0
-49,-433,0,0,0,0,0,0,0,0,0,-1,1175,1457,0,0
-42,-433,0,0,0,0,0,0,0,0,0,-1,1182,1457,0,0
-35,-433,0,0,0,0,0,0,0,0,0,-1,1189,1457,0,0
-28,-433,0,0,0,0,0,0,0,0,0,-1,1196,1457,0,0
-21,-433,0,0,0,0,0,0,0,0,0,-1,1203,1457,0,0
-14,-433,0,0,0,0,0,0,0,0,0,-1,1210,1457,0,0
-7,-433,0,0,0,0,0,0,0,0,0,-1,1217,1457,0,0
0,-433,0,0,0,0,0,0,0,0,0,-1,1224,1457,0,0
7,-433,0,0,0,0,0,0,0,0,0,-1,1231,1457,0,0
14,-433,0,0,0,0,0,0,0,0,0,-1,1238,1457,0,0
21,-433,0,0,0,0,0,0,0,0,0,-1,1245,1457,0,0
28,-433,0,0,0,0,0,0,0,0,0,-1,1252,1457,0,0
35,-433,0,0,0,0,0,0,0,0,0,-1,1259,1457,0,0
42,-433,0,0,0,0,0,0,0,0,0,-1,1266,1457,0,0
49,-433,0,0,0,0,0,0,0,0,0,-1,1273,1457,0,0
56,-433,0,0,0,0,0,0,0,0,0,-1,1280,1457,0,0
63,-433,0,0,0,0,0,0,0,0,0,-1,1287,1457,0,0
70,-433,0,0,0,0,0,0,0,0,0,-1,1294,1457,0,0
77,-433,0,0,0,0,0,0,0,0,0,-1,1301,1457,0,0
84,-433,0,0,0,0,0,0,0,0,0,-1,1308,1457,0,0
91,-433,0,0,0,0,0,0,0,0,0,-1,1315,1457,0,0
98,-433,0,0,0,0,0,0,0,0,0,-1,1322,1457,0,0
105,-433,0,0,0,0,0,0,0,0,0,-1,1329,1457,0,0
112,-433,0,0,0,0,0,0,0,0,0,-1,1336,1457,0,0
119,-433,0,0,0,0,0,0,0,0,0,-1,1343,1457,0,0
126,-433,0,0,0,0,0,0,0,0,0,-1,1350,1457,0,0
133,-433,0,0,0,0,0,0,0,0,0,-1,1357,1457,0,0
140,-433,0,0,0,0,0,0,0,0,0,-1,1364,1457,0,0
147,-433,0,0,0,0,0,0,0,0,0,-1,1371,1457,0,0
154,-433,0,0,0,0,0,0,0,0,0,-1,1378,1457,0,0
161,-433,0,0,0,0,0,0,0,0,0,-1,1385,1457,0,0
168,-433,0,0,0,0,0,0,0,0,0,-1,1392,1457,0,0
175,-433,0,0,0,0,0,0,0,0,0,-1,1399,1457,0,0
182,-433,0,0,0,0,0,0,0,0,0,-1,1406,1457,0,0
189,-433,0,0,0,0,0,0,0,0,0,-1,1413,1457,0,0
196,-433,0,0,0,0,0,0,0,0,0,-1,1420,1457,0,0
203,-433,0,0,0,0,0,0,0,0,0,-1,1427,1457,0,0
210,-433,0,0,0,0,0,0,0,0,0,-1,1434,1457,0,0
217,-433,0,0,0,0,0,0,0,0,0,-1,1441,1457,0,0
224,-433,0,0,0,0,0,0,0,0,0,-1,1448,1457,0,0
231,-433,0,0,0,0,0,0,0,0,0,-1,1455,1457,0,0
238,-433,0,0,0,0,0,0,0,0,0,-1,1462,1457,0,0
245,-433,0,0,0,0,0,0,0,0,0,-1,1469,1457,0,0
252,-433,0,0,0,0,0,0,0,0,0,-1,1476,1457,0,0
259,-433,0,0,0,0,0,0,0,0,0,-1,1483,1457,0,0
266,-433,0,0,0,0,0,0,0,0,0,-1,1490,1457,0,0
273,-433,0,0,0,0,0,0,0,0,0,-1,1497,1457,0,0
280,-433,0,0,0,0,0,0,0,0,0,-1,1504,1457,0,0
287,-433,0,0,0,0,0,0,0,0,0,-1,1511,1457,0,0
294,-433,0,0,0,0,0,0,0,0,0,-1,1518,1457,0,0
301,-433,0,0,0,0,0,0,0,0,0,-1,1525,1457,0,0
308,-433,0,0,0,0,0,0,0,0,0,-1,1532,1457,0,0
315,-433,0,0,0,0,0,0,0,0,0,-1,1539,1457,0,0
322,-433,0,0,0,0,0,0,0,0,0,-1,1546,1457,0,0
329,-433,0,0,0,0,0,0,0,0,0,-1,1553,1457,0,0
336,-433,0,0,0,0,0,0,0,0,0,-1,1560,1457,0,0
343,-433,0,0,0,0,0,0,0,0,0,-1,1567,1457,0,0
350,-433,0,0,0,0,0,0,0,0,0,-1,1574,1457,0,0
357,-433,0,0,0,0,0,0,0,0,0,-1,1581,1457,0,0
364,-433,0,0,0,0,0,0,0,0,0,-1,1588,1457,0,0
371,-433,0,0,0,0,0,0,0,0,0,-1,1595,1457,0,0
378,-433,0,0,0,0,0,0,0,0,0,-1,1602,1457,0,0
385,-433,0,0,0,0,0,0,0,0,0,-1,1609,1457,0,0
392,-433,0,0,0,0,0,0,0,0,0,-1,1616,1457,0,0
399,-433,0,0,0,0,0,0,0,0,0,-1,1623,1457,0,0
406,-433,0,0,0,0,0,0,0,0,0,-1,1630,1457,0,0
413,-433,0,0,0,0,0,0,0,0,0,-1,1637,1457,0,0
420,-433,0,0,0,0,0,0,0,0,0,-1,1644,1457,0,0
427,-433,0,0,0,0,0,0,0,0,0,-1,1651,1457,0,0
434,-433,0,0,0,0,0,0,0,0,0,-1,1658,1457,0,0
441,-433,0,0,0,0,0,0,0,0,0,-1,1665,1457,0,0
448,-433,0,0,0,0,0,0,0,0,0,-1,1672,1457,0,0
455,-433,0,0,0,0,0,0,0,0,0,-1,1679,1457,0,0
462,-433,0,0,0,0,0,0,0,0,0,-1,1686,1457,0,0
469,-433,0,0,0,0,0,0,0,0,0,-1,1693,1457,0,0
476,-433,0,0,0,0,0,0,0,0,0,-1,1700,1457,0,0
483,-433,0,0,0,0,0,0,0,0,0,-1,1707,1457,0,0
490,-433,0,0,0,0,0,0,0,0,0,-1,1714,1457,0,0
497,-433,0,0,0,0,0,0,0,0,0,-1,1721,1457,0,0
504,-433,19.9058,3.03662,0,0,0,0,0,0,0,-1,1728,1457,19.9058,-3.03656
511,-433,19.0145,3.07837,0,0,0,0,0,0,0,-1,1735,1457,19.0146,-3.07834
518,-433,18.071,3.06433,0,0,0,0,0,0,0,-1,1742,1457,18.071,-3.06432
525,-433,17.2048,3.37085,0,0,0,0,0,0,0,-1,1749,1457,17.2049,-3.37083
532,-433,16.5637,3.36646,0,0,0,0,0,0,0,-1,1756,1457,16.5637,-3.36643
539,-433,15.9193,3.30396,0,0,0,0,0,0,0,-1,1763,1457,15.9193,-3.30394
546,-433,23.1903,4.81775,0,0,0,0,0,0,0,-1,1770,1457,23.1903,-4.81775
553,-433,13.9674,11.5781,0,0,0,0,0,0,0,-1,1777,1457,13.9674,-11.5781
560,-433,13.9855,11.7341,0,0,0,0,0,0,0,-1,1784,1457,13.9855,-11.7341
567,-433,13.9264,11.3364,0,0,0,0,0,0,0,-1,1791,1457,13.9263,-11.3364
574,-433,15.5305,12.3673,0,0,0,0,0,0,0,-1,1798,1457,15.5305,-12.3673
581,-433,16.6405,12.1898,0,0,0,0,0,0,0,-1,1805,1457,16.6405,-12.1898
588,-433,26.4386,19.7478,0,0,0,0,0,0,0,-1,1812,1457,26.4386,-19.7478
595,-433,34.6948,25.7529,0,0,0,0,0,0,0,-1,1819,1457,34.6948,-25.753
602,-433,34.845,24.844,0.00398715,0.00209256,-0.00254165,0.0057523,0.000327414,-0.607018,0.00373052,0.0303549,1826,1457,34.8449,-24.844
609,-433,34.8651,24.0215,0.00308685,0.0015161,-0.00190529,0.00436229,0.000240664,-0.589906,0.00283138,0.0169779,1833,1457,34.8651,-24.0214
616,-433,34.8452,23.2714,0.00231168,0.00108619,-0.0013892,0.00321727,0.000180601,-0.577693,0.00208725,0.0145906,1840,1457,34.8452,-23.2713
623,-433,34.7738,22.4954,0.00183181,0.00080556,-0.000974145,0.00241971,0.00021766,-0.542992,0.0015457,0.0117579,1847,1457,34.7738,-22.4954
630,-433,34.7461,21.7202,0.00161113,0.000616156,-0.000719854,0.00198868,0.000238609,-0.483036,0.00125384,0.0155556,1854,1457,34.7461,-21.7203
637,-433,34.7142,20.9583,0.00157792,0.000657141,-0.000589448,0.00186546,0.000369594,-0.45386,0.00114058,0.0173919,1861,1457,34.7143,-20.9582
644,-433,34.6494,20.2039,0.00184399,0.000761499,-0.000582615,0.00209797,0.000507517,-0.411096,0.00126391,0.0179939,1868,1457,34.6495,-20.2039
651,-433,34.5995,19.4146,0.00238198,0.0012009,-0.000851268,0.00282749,0.000755396,-0.482149,0.00169042,0.0137058,1875,1457,34.5995,-19.4146
658,-433,34.5133,18.5789,0.00329666,0.00180189,-0.00127339,0.00402579,0.00107275,-0.520023,0.00240732,0.0448271,1882,1457,34.5133,-18.5789
665,-433,34.6528,17.455,0,0,0,0,0,0,0,-1,1889,1457,34.6529,-17.4549
672,-433,18.115,8.7207,0,0,0,0,0,0,0,-1,1896,1457,18.115,-8.72074
679,-433,17.2969,9.6355,0,0,0,0,0,0,0,-1,1903,1457,17.2968,-9.63548
686,-433,13.6356,8.61694,0,0,0,0,0,0,0,-1,1910,1457,13.6356,-8.61694
693,-433,13.4081,8.39624,0,0,0,0,0,0,0,-1,1917,1457,13.4081,-8.39624
700,-433,7.16809,-1.5166,0,0,0,0,0,0,0,-1,1924,1457,7.16806,1.51656
707,-433,8.68359,-2.82202,0,0,0,0,0,0,0,-1,1931,1457,8.68359,2.82197
714,-433,0,0,0,0,0,0,0,0,0,-1,1938,1457,0,0
721,-433,0,0,0,0,0,0,0,0,0,-1,1945,1457,0,0
728,-433,0,0,0,0,0,0,0,0,0,-1,1952,1457,0,0
735,-433,0,0,0,0,0,0,0,0,0,-1,1959,1457,0,0
742,-433,0,0,0,0,0,0,0,0,0,-1,1966,1457,0,0
749,-433,0,0,0,0,0,0,0,0,0,-1,1973,1457,0,0
756,-433,0,0,0,0,0,0,0,0,0,-1,1980,1457,0,0
763,-433,0,0,0,0,0,0,0,0,0,-1,1987,1457,0,0
770,-433,0,0,0,0,0,0,0,0,0,-1,1994,1457,0,0
777,-433,0,0,0,0,0,0,0,0,0,-1,2001,1457,0,0
784,-433,0,0,0,0,0,0,0,0,0,-1,2008,1457,0,0
791,-433,0,0,0,0,0,0,0,0,0,-1,2015,1457,0,0
798,-433,0,0,0,0,0,0,0,0,0,-1,2022,1457,0,0
805,-433,0,0,0,0,0,0,0,0,0,-1,2029,1457,0,0
812,-433,0,0,0,0,0,0,0,0,0,-1,2036,1457,0,0
-700,-440,0,0,0,0,0,0,0,0,0,-1,524,1464,0,0
-693,-440,0,0,0,0,0,0,0,0,0,-1,531,1464,0,0
-686,-440,0,0,0,0,0,0,0,0,0,-1,538,1464,0,0
-679,-440,0,0,0,0,0,0,0,0,0,-1,545,1464,0,0
-672,-440,0,0,0,0,0,0,0,0,0,-1,552,1464,0,0
-665,-440,0,0,0,0,0,0,0,0,0,-1,559,1464,0,0
-658,-440,0,0,0,0,0,0,0,0,0,-1,566,1464,0,0
-651,-440,0,0,0,0,0,0,0,0,0,-1,573,1464,0,0
-644,-440,0,0,0,0,0,0,0,0,0,-1,580,1464,0,0
-637,-440,0,0,0,0,0,0,0,0,0,-1,587,1464,0,0
-630,-440,0,0,0,0,0,0,0,0,0,-1,594,1464,0,0
-623,-440,0,0,0,0,0,0,0,0,0,-1,601,1464,0,0
-616,-440,0,0,0,0,0,0,0,0,0,-1,608,1464,0,0
-609,-440,0,0,0,0,0,0,0,0,0,-1,615,1464,0,0
-602,-440,0,0,0,0,0,0,0,0,0,-1,622,1464,0,0
-595,-440,0,0,0,0,0,0,0,0,0,-1,629,1464,0,0
-588,-440,0,0,0,0,0,0,0,0,0,-1,636,1464,0,0
-581,-440,-8.97278,0.254517,0,0,0,0,0,0,0,-1,643,1464,-8.97276,-0.254526
-574,-440,-7.00818,-0.918579,0,0,0,0,0,0,0,-1,650,1464,-7.00817,0.918538
-567,-440,-6.12152,-0.0766602,0,0,0,0,0,0,0,-1,657,1464,-6.12151,0.0767097
-560,-440,-5.46747,0.82251,0,0,0,0,0,0,0,-1,664,1464,-5.46748,-0.822551
-553,-440,-6.84729,0.0831299,0,0,0,0,0,0,0,-1,671,1464,-6.84732,-0.083136
-546,-440,-5.63446,-0.153198,0,0,0,0,0,0,0,-1,678,1464,-5.63447,0.153147
-539,-440,-6.80017,8.58252,0,0,0,0,0,0,0,-1,685,1464,-6.80015,-8.58257
-532,-440,-9.69647,11.3262,0,0,0,0,0,0,0,-1,692,1464,-9.69649,-11.3262
-525,-440,-16.1339,17.92,0,0,0,0,0,0,0,-1,699,1464,-16.1339,-17.92
-518,-440,-16.0737,18.827,0.0046505,0.00522938,0.00490644,0.00985492,2.49669e-05,0.81486,0.00656164,0.032957,706,1464,-16.0737,-18.827
-511,-440,-16.0608,19.7283,0.00381426,0.00404203,0.00393051,0.0078603,-4.01074e-06,0.799882,0.00524154,0.0166962,713,1464,-16.0608,-19.7283
-504,-440,-16.0803,20.5125,0.00297513,0.00305595,0.00303482,0.00605063,-1.95522e-05,0.792055,0.00404029,0.0198565,720,1464,-16.0803,-20.5125
-497,-440,-16.1307,21.2458,0.0022587,0.0022724,0.00227049,0.00453605,-4.94299e-06,0.786907,0.00302568,0.0228241,727,1464,-16.1307,-21.2459
-490,-440,-16.2024,21.9763,0.00165329,0.00165278,0.00161838,0.00327141,3.46606e-05,0.78532,0.00216948,0.0235299,734,1464,-16.2024,-21.9763
-483,-440,-16.252,22.8573,0.00126285,0.0012699,0.00116691,0.0024333,9.94583e-05,0.786909,0.00159008,0.0208132,741,1464,-16.252,-22.8573
-476,-440,-16.2793,23.7113,0.00105265,0.00113237,0.000923973,0.00201734,0.00016768,0.806956,0.00129263,0.0136947,748,1464,-16.2793,-23.7113
-469,-440,-16.3492,24.5225,0.00101729,0.00122666,0.000842189,0.00197065,0.000273306,0.847232,0.0012328,0.0125291,755,1464,-16.3492,-24.5225
-462,-440,-16.4708,25.2977,0.00125182,0.0016263,0.0010335,0.00248938,0.000388733,0.875011,0.00154639,0.018602,762,1464,-16.4708,-25.2977
-455,-440,-16.4356,26.1267,0,0,0,0,0,0,0,-1,769,1464,-16.4356,-26.1267
-448,-440,-12.8837,23.5623,0,0,0,0,0,0,0,-1,776,1464,-12.8837,-23.5623
-441,-440,-7.28583,14.7465,0,0,0,0,0,0,0,-1,783,1464,-7.28584,-14.7464
-434,-440,-8.33636,14.5024,0,0,0,0,0,0,0,-1,790,1464,-8.33638,-14.5025
-427,-440,-8.28094,14.2512,0,0,0,0,0,0,0,-1,797,1464,-8.28094,-14.2512
-420,-440,-6.86603,8.09216,0,0,0,0,0,0,0,-1,804,1464,-6.86602,-8.09222
-413,-440,-3.46796,5.72278,0,0,0,0,0,0,0,-1,811,1464,-3.46797,-5.72276
-406,-440,-5.2887,5.20264,0,0,0,0,0,0,0,-1,818,1464,-5.2887,-5.20261
-399,-440,-12.7318,3.94421,0,0,0,0,0,0,0,-1,825,1464,-12.7318,-3.94419
-392,-440,-13.5565,2.51855,0,0,0,0,0,0,0,-1,832,1464,-13.5565,-2.51861
-385,-440,-14.6741,1.39795,0,0,0,0,0,0,0,-1,839,1464,-14.6741,-1.39801
-378,-440,-15.8063,0.293457,0,0,0,0,0,0,0,-1,846,1464,-15.8063,-0.293412
-371,-440,0,0,0,0,0,0,0,0,0,-1,853,1464,0,0
-364,-440,0,0,0,0,0,0,0,0,0,-1,860,1464,0,0
-357,-440,0,0,0,0,0,0,0,0,0,-1,867,1464,0,0
-350,-440,0,0,0,0,0,0,0,0,0,-1,874,1464,0,0
-343,-440,0,0,0,0,0,0,0,0,0,-1,881,1464,0,0
-336,-440,0,0,0,0,0,0,0,0,0,-1,888,1464,0,0
-329,-440,0,0,0,0,0,0,0,0,0,-1,895,1464,0,0
-322,-440,0,0,0,0,0,0,0,0,0,-1,902,1464,0,0
-315,-440,0,0,0,0,0,0,0,0,0,-1,909,1464,0,0
-308,-440,0,0,0,0,0,0,0,0,0,-1,916,1464,0,0
-301,-440,0,0,0,0,0,0,0,0,0,-1,923,1464,0,0
-294,-440,0,0,0,0,0,0,0,0,0,-1,930,1464,0,0
-287,-440,0,0,0,0,0,0,0,0,0,-1,937,1464,0,0
-280,-440,0,0,0,0,0,0,0,0,0,-1,944,1464,0,0
-273,-440,0,0,0,0,0,0,0,0,0,-1,951,1464,0,0
-266,-440,0,0,0,0,0,0,0,0,0,-1,958,1464,0,0
-259,-440,0,0,0,0,0,0,0,0,0,-1,965,1464,0,0
-252,-440,0,0,0,0,0,0,0,0,0,-1,972,1464,0,0
-245,-440,0,0,0,0,0,0,0,0,0,-1,979,1464,0,0
-238,-440,0,0,0,0,0,0,0,0,0,-1,986,1464,0,0
-231,-440,0,0,0,0,0,0,0,0,0,-1,993,1464,0,0
-224,-440,0,0,0,0,0,0,0,0,0,-1,1000,1464,0,0
-217,-440,0,0,0,0,0,0,0,0,0,-1,1007,1464,0,0
-210,-440,0,0,0,0,0,0,0,0,0,-1,1014,1464,0,0
-203,-440,0,0,0,0,0,0,0,0,0,-1,1021,1464,0,0
-196,-440,0,0,0,0,0,0,0,0,0,-1,1028,1464,0,0
-189,-440,0,0,0,0,0,0,0,0,0,-1,1035,1464,0,0
-182,-440,0,0,0,0,0,0,0,0,0,-1,1042,1464,0,0
-175,-440,0,0,0,0,0,0,0,0,0,-1,1049,1464,0,0
-168,-440,0,0,0,0,0,0,0,0,0,-1,1056,1464,0,0
-161,-440,0,0,0,0,0,0,0,0,0,-1,1063,1464,0,0
-154,-440,0,0,0,0,0,0,0,0,0,-1,1070,1464,0,0
-147,-440,0,0,0,0,0,0,0,0,0,-1,1077,1464,0,0
-140,-440,0,0,0,0,0,0,0,0,0,-1,1084,1464,0,0
-133,-440,0,0,0,0,0,0,0,0,0,-1,1091,1464,0,0
-126,-440,0,0,0,0,0,0,0,0,0,-1,1098,1464,0,0
-119,-440,0,0,0,0,0,0,0,0,0,-1,1105,1464,0,0
-112,-440,0,0,0,0,0,0,0,0,0,-1,1112,1464,0,0
-105,-440,0,0,0,0,0,0,0,0,0,-1,1119,1464,0,0
-98,-440,0,0,0,0,0,0,0,0,0,-1,1126,1464,0,0
-91,-440,0,0,0,0,0,0,0,0,0,-1,1133,1464,0,0
-84,-440,0,0,0,0,0,0,0,0,0,-1,1140,1464,0,0
-77,-440,0,0,0,0,0,0,0,0,0,-1,1147,1464,0,0
-70,-440,0,0,0,0,0,0,0,0,0,-1,1154,1464,0,0
-63,-440,0,0,0,0,0,0,0,0,0,-1,1161,1464,0,0
-56,-440,0,0,0,0,0,0,0,0,0,-1,1168,1464,0,0
-49,-440,0,0,0,0,0,0,0,0,0,-1,1175,1464,0,0
-42,-440,0,0,0,0,0,0,0,0,0,-1,1182,1464,0,0
-35,-440,0,0,0,0,0,0,0,0,0,-1,1189,1464,0,0
-28,-440,0,0,0,0,0,0,0,0,0,-1,1196,1464,0,0
-21,-440,0,0,0,0,0,0,0,0,0,-1,1203,1464,0,0
-14,-440,0,0,0,0,0,0,0,0,0,-1,1210,1464,0,0
-7,-440,0,0,0,0,0,0,0,0,0,-1,1217,1464,0,0
0,-440,0,0,0,0,0,0,0,0,0,-1,1224,1464,0,0
7,-440,0,0,0,0,0,0,0,0,0,-1,1231,1464,0,0
14,-440,0,0,0,0,0,0,0,0,0,-1,1238,1464,0,0
21,-440,0,0,0,0,0,0,0,0,0,-1,1245,1464,0,0
28,-440,0,0,0,0,0,0,0,0,0,-1,1252,1464,0,0
35,-440,0,0,0,0,0,0,0,0,0,-1,1259,1464,0,0
42,-440,0,0,0,0,0,0,0,0,0,-1,1266,1464,0,0
49,-440,0,0,0,0,0,0,0,0,0,-1,1273,1464,0,0
56,-440,0,0,0,0,0,0,0,0,0,-1,1280,1464,0,0
63,-440,0,0,0,0,0,0,0,0,0,-1,1287,1464,0,0
70,-440,0,0,0,0,0,0,0,0,0,-1,1294,1464,0,0
77,-440,0,0,0,0,0,0,0,0,0,-1,1301,1464,0,0
84,-440,0,0,0,0,0,0,0,0,0,-1,1308,1464,0,0
91,-440,0,0,0,0,0,0,0,0,0,-1,1315,1464,0,0
98,-440,0,0,0,0,0,0,0,0,0,-1,1322,1464,0,0
105,-440,0,0,0,0,0,0,0,0,0,-1,1329,1464,0,0
112,-440,0,0,0,0,0,0,0,0,0,-1,1336,1464,0,0
119,-440,0,0,0,0,0,0,0,0,0,-1,1343,1464,0,0
126,-440,0,0,0,0,0,0,0,0,0,-1,1350,1464,0,0
133,-440,0,0,0,0,0,0,0,0,0,-1,1357,1464,0,0
140,-440,0,0,0,0,0,0,0,0,0,-1,1364,1464,0,0
147,-440,0,0,0,0,0,0,0,0,0,-1,1371,1464,0,0
154,-440,0,0,0,0,0,0,0,0,0,-1,1378,1464,0,0
161,-440,0,0,0,0,0,0,0,0,0,-1,1385,1464,0,0
168,-440,0,0,0,0,0,0,0,0,0,-1,1392,1464,0,0
175,-440,0,0,0,0,0,0,0,0,0,-1,1399,1464,0,0
182,-440,0,0,0,0,0,0,0,0,0,-1,1406,1464,0,0
189,-440,0,0,0,0,0,0,0,0,0,-1,1413,1464,0,0
196,-440,0,0,0,0,0,0,0,0,0,-1,1420,1464,0,0
203,-440,0,0,0,0,0,0,0,0,0,-1,1427,1464,0,0
210,-440,0,0,0,0,0,0,0,0,0,-1,1434,1464,0,0
217,-440,0,0,0,0,0,0,0,0,0,-1,1441,1464,0,0
224,-440,0,0,0,0,0,0,0,0,0,-1,1448,1464,0,0
231,-440,0,0,0,0,0,0,0,0,0,-1,1455,1464,0,0
238,-440,0,0,0,0,0,0,0,0,0,-1,1462,1464,0,0
245,-440,0,0,0,0,0,0,0,0,0,-1,1469,1464,0,0
252,-440,0,0,0,0,0,0,0,0,0,-1,1476,1464,0,0
259,-440,0,0,0,0,0,0,0,0,0,-1,1483,1464,0,0
266,-440,0,0,0,0,0,0,0,0,0,-1,1490,1464,0,0
273,-440,0,0,0,0,0,0,0,0,0,-1,1497,1464,0,0
280,-440,0,0,0,0,0,0,0,0,0,-1,1504,1464,0,0
287,-440,0,0,0,0,0,0,0,0,0,-1,1511,1464,0,0
294,-440,0,0,0,0,0,0,0,0,0,-1,1518,1464,0,0
301,-440,0,0,0,0,0,0,0,0,0,-1,1525,1464,0,0
308,-440,0,0,0,0,0,0,0,0,0,-1,1532,1464,0,0
315,-440,0,0,0,0,0,0,0,0,0,-1,1539,1464,0,0
322,-440,0,0,0,0,0,0,0,0,0,-1,1546,1464,0,0
329,-440,0,0,0,0,0,0,0,0,0,-1,1553,1464,0,0
336,-440,0,0,0,0,0,0,0,0,0,-1,1560,1464,0,0
343,-440,0,0,0,0,0,0,0,0,0,-1,1567,1464,0,0
350,-440,0,0,0,0,0,0,0,0,0,-1,1574,1464,0,0
357,-440,0,0,0,0,0,0,0,0,0,-1,1581,1464,0,0
364,-440,0,0,0,0,0,0,0,0,0,-1,1588,1464,0,0
371,-440,0,0,0,0,0,0,0,0,0,-1,1595,1464,0,0
378,-440,0,0,0,0,0,0,0,0,0,-1,1602,1464,0,0
385,-440,0,0,0,0,0,0,0,0,0,-1,1609,1464,0,0
392,-440,0,0,0,0,0,0,0,0,0,-1,1616,1464,0,0
399,-440,0,0,0,0,0,0,0,0,0,-1,1623,1464,0,0
406,-440,0,0,0,0,0,0,0,0,0,-1,1630,1464,0,0
413,-440,0,0,0,0,0,0,0,0,0,-1,1637,1464,0,0
420,-440,0,0,0,0,0,0,0,0,0,-1,1644,1464,0,0
427,-440,0,0,0,0,0,0,0,0,0,-1,1651,1464,0,0
434,-440,0,0,0,0,0,0,0,0,0,-1,1658,1464,0,0
441,-440,0,0,0,0,0,0,0,0,0,-1,1665,1464,0,0
448,-440,0,0,0,0,0,0,0,0,0,-1,1672,1464,0,0
455,-440,0,0,0,0,0,0,0,0,0,-1,1679,1464,0,0
462,-440,0,0,0,0,0,0,0,0,0,-1,1686,1464,0,0
469,-440,0,0,0,0,0,0,0,0,0,-1,1693,1464,0,0
476,-440,0,0,0,0,0,0,0,0,0,-1,1700,1464,0,0
483,-440,0,0,0,0,0,0,0,0,0,-1,1707,1464,0,0
490,-440,0,0,0,0,0,0,0,0,0,-1,1714,1464,0,0
497,-440,16.965,-0.528442,0,0,0,0,0,0,0,-1,1721,1464,16.965,0.528492
504,-440,15.8052,0.670166,0,0,0,0,0,0,0,-1,1728,1464,15.8052,-0.670145
511,-440,17.5754,2.77832,0,0,0,0,0,0,0,-1,1735,1464,17.5754,-2.77826
518,-440,16.9017,3.07861,0,0,0,0,0,0,0,-1,1742,1464,16.9018,-3.07859
525,-440,18.4495,12.0867,0,0,0,0,0,0,0,-1,1749,1464,18.4495,-12.0867
532,-440,15.4319,3.64392,0,0,0,0,0,0,0,-1,1756,1464,15.4318,-3.64391
539,-440,14.8214,3.41321,0,0,0,0,0,0,0,-1,1763,1464,14.8214,-3.4132
546,-440,14.8651,10.7683,0,0,0,0,0,0,0,-1,1770,1464,14.8651,-10.7683
553,-440,15.1213,11.4121,0,0,0,0,0,0,0,-1,1777,1464,15.1213,-11.4121
560,-440,17.4325,12.5394,0,0,0,0,0,0,0,-1,1784,1464,17.4325,-12.5394
567,-440,16.9025,12.4249,0,0,0,0,0,0,0,-1,1791,1464,16.9025,-12.425
574,-440,19.2841,14.8679,0,0,0,0,0,0,0,-1,1798,1464,19.2841,-14.868
581,-440,26.4432,21.3477,0,0,0,0,0,0,0,-1,1805,1464,26.4432,-21.3476
588,-440,33.9939,26.6167,0,0,0,0,0,0,0,-1,1812,1464,33.9939,-26.6167
595,-440,34.0249,25.7037,0.00468469,0.00214422,-0.00271529,0.00641217,0.000416734,-0.566616,0.00414286,0.0346454,1819,1464,34.025,-25.7037
602,-440,34.116,24.829,0.00367797,0.00163527,-0.00212933,0.00501822,0.000295008,-0.561777,0.00325161,0.0190988,1826,1464,34.1159,-24.829
609,-440,34.0898,24.0682,0.00285003,0.00116014,-0.00158189,0.00379849,0.000211676,-0.540108,0.0024648,0.0168848,1833,1464,34.0898,-24.0682
616,-440,34.0581,23.3252,0.00213801,0.000878451,-0.00115433,0.00282318,0.000193281,-0.535676,0.00182111,0.0185945,1840,1464,34.0581,-23.3252
623,-440,34.0133,22.5465,0.00171149,0.000654136,-0.000767386,0.00211468,0.000250943,-0.48377,0.00133403,0.0145378,1847,1464,34.0133,-22.5465
630,-440,33.9524,21.7427,0.00152967,0.000506686,-0.00050856,0.00173947,0.00029689,-0.391261,0.00107444,0.0128718,1854,1464,33.9524,-21.7427
637,-440,33.9395,21.0193,0.00150589,0.000590619,-0.000365441,0.0016339,0.000462612,-0.336926,0.000972457,0.0186934,1861,1464,33.9394,-21.0193
644,-440,33.9122,20.2698,0.00172625,0.000844943,-0.000367175,0.00185917,0.000712016,-0.347346,0.00108315,0.017058,1868,1464,33.9122,-20.2697
651,-440,33.9041,19.4253,0.002254,0.00147392,-0.00068789,0.00265474,0.00107319,-0.527494,0.00154205,0.0242647,1875,1464,33.904,-19.4253
658,-440,34.0411,18.4548,0,0,0,0,0,0,0,-1,1882,1464,34.0411,-18.4548
665,-440,24.2067,12.5813,0,0,0,0,0,0,0,-1,1889,1464,24.2067,-12.5813
672,-440,18.9385,9.6394,0,0,0,0,0,0,0,-1,1896,1464,18.9384,-9.63939
679,-440,16.9508,10.2336,0,0,0,0,0,0,0,-1,1903,1464,16.9508,-10.2337
686,-440,15.2556,8.44177,0,0,0,0,0,0,0,-1,1910,1464,15.2556,-8.44177
693,-440,9.88635,2.89795,0,0,0,0,0,0,0,-1,1917,1464,9.88638,-2.89798
700,-440,7.07825,-2.62061,0,0,0,0,0,0,0,-1,1924,1464,7.07829,2.62057
707,-440,0,0,0,0,0,0,0,0,0,-1,1931,1464,0,0
714,-440,0,0,0,0,0,0,0,0,0,-1,1938,1464,0,0
721,-440,0,0,0,0,0,0,0,0,0,-1,1945,1464,0,0
728,-440,0,0,0,0,0,0,0,0,0,-1,1952,1464,0,0
735,-440,0,0,0,0,0,0,0,0,0,-1,1959,1464,0,0
742,-440,0,0,0,0,0,0,0,0,0,-1,1966,1464,0,0
749,-440,0,0,0,0,0,0,0,0,0,-1,1973,1464,0,0
756,-440,0,0,0,0,0,0,0,0,0,-1,1980,1464,0,0
763,-440,0,0,0,0,0,0,0,0,0,-1,1987,1464,0,0
770,-440,0,0,0,0,0,0,0,0,0,-1,1994,1464,0,0
777,-440,0,0,0,0,0,0,0,0,0,-1,2001,1464,0,0
784,-440,0,0,0,0,0,0,0,0,0,-1,2008,1464,0,0
791,-440,0,0,0,0,0,0,0,0,0,-1,2015,1464,0,0
798,-440,0,0,0,0,0,0,0,0,0,-1,2022,1464,0,0
805,-440,0,0,0,0,0,0,0,0,0,-1,2029,1464,0,0
812,-440,0,0,0,0,0,0,0,0,0,-1,2036,1464,0,0
-700,-447,0,0,0,0,0,0,0,0,0,-1,524,1471,0,0
-693,-447,0,0,0,0,0,0,0,0,0,-1,531,1471,0,0
-686,-447,0,0,0,0,0,0,0,0,0,-1,538,1471,0,0
-679,-447,0,0,0,0,0,0,0,0,0,-1,545,1471,0,0
-672,-447,0,0,0,0,0,0,0,0,0,-1,552,1471,0,0
-665,-447,0,0,0,0,0,0,0,0,0,-1,559,1471,0,0
-658,-447,0,0,0,0,0,0,0,0,0,-1,566,1471,0,0
-651,-447,0,0,0,0,0,0,0,0,0,-1,573,1471,0,0
-644,-447,0,0,0,0,0,0,0,0,0,-1,580,1471,0,0
-637,-447,0,0,0,0,0,0,0,0,0,-1,587,1471,0,0
-630,-447,0,0,0,0,0,0,0,0,0,-1,594,1471,0,0
-623,-447,0,0,0,0,0,0,0,0,0,-1,601,1471,0,0
-616,-447,0,0,0,0,0,0,0,0,0,-1,608,1471,0,0
-609,-447,0,0,0,0,0,0,0,0,0,-1,615,1471,0,0
-602,-447,0,0,0,0,0,0,0,0,0,-1,622,1471,0,0
-595,-447,0,0,0,0,0,0,0,0,0,-1,629,1471,0,0
-588,-447,0,0,0,0,0,0,0,0,0,-1,636,1471,0,0
-581,-447,-7.06482,-1.50476,0,0,0,0,0,0,0,-1,643,1471,-7.0648,1.50474
-574,-447,-6.88092,-0.00585938,0,0,0,0,0,0,0,-1,650,1471,-6.88095,0.00589852
-567,-447,-6.8205,-1.32178,0,0,0,0,0,0,0,-1,657,1471,-6.82047,1.32172
-560,-447,-8.85748,2.80774,0,0,0,0,0,0,0,-1,664,1471,-8.85748,-2.80775
-553,-447,-7.60486,3.26794,0,0,0,0,0,0,0,-1,671,1471,-7.60487,-3.26799
-546,-447,-3.94501,1.8656,0,0,0,0,0,0,0,-1,678,1471,-3.945,-1.86554
-539,-447,-5.35492,4.50024,0,0,0,0,0,0,0,-1,685,1471,-5.35492,-4.50018
-532,-447,-6.12781,8.81091,0,0,0,0,0,0,0,-1,692,1471,-6.12781,-8.81094
-525,-447,-9.44501,12.098,0,0,0,0,0,0,0,-1,699,1471,-9.44502,-12.098
-518,-447,-15.3238,18.6218,0,0,0,0,0,0,0,-1,706,1471,-15.3238,-18.6218
-511,-447,-15.301,19.684,0.0046873,0.00491511,0.00500283,0.00980533,-0.000202923,0.79678,0.00660557,0.0289552,713,1471,-15.301,-19.6839
-504,-447,-15.2976,20.5754,0.00369726,0.00369222,0.00390951,0.00760425,-0.000214772,0.785076,0.00514258,0.0214398,720,1471,-15.2976,-20.5754
-497,-447,-15.394,21.3754,0.00281225,0.00270367,0.00295044,0.0057089,-0.000192979,0.776199,0.00387186,0.0252203,727,1471,-15.394,-21.3753
-490,-447,-15.3937,22.0919,0.00208192,0.00193262,0.00213573,0.00414431,-0.000129761,0.767929,0.00280713,0.0243318,734,1471,-15.3937,-22.0919
-483,-447,-15.4506,22.8854,0.00156697,0.00140945,0.00152735,0.00301758,-4.11692e-05,0.759638,0.00202558,0.0217519,741,1471,-15.4505,-22.8854
-476,-447,-15.4831,23.7211,0.0012532,0.00118092,0.0011662,0.00238382,5.03004e-05,0.76991,0.00157272,0.0143629,748,1471,-15.4831,-23.7211
-469,-447,-15.5428,24.5525,0.00112887,0.00123646,0.000989336,0.00217346,0.00019187,0.812559,0.00138944,0.0132307,755,1471,-15.5429,-24.5525
-462,-447,-15.6047,25.3514,0.00129917,0.00161894,0.00109666,0.00256731,0.000350802,0.857783,0.00160742,0.0138532,762,1471,-15.6047,-25.3515
-455,-447,-15.6437,26.1305,0.00180607,0.0023824,0.00153057,0.00365169,0.000536781,0.878445,0.00227673,0.0263048,769,1471,-15.6437,-26.1304
-448,-447,-15.6373,26.9502,0,0,0,0,0,0,0,-1,776,1471,-15.6373,-26.9501
-441,-447,-8.68506,19.0931,0,0,0,0,0,0,0,-1,783,1471,-8.68504,-19.0932
-434,-447,-7.43402,15.6273,0,0,0,0,0,0,0,-1,790,1471,-7.43404,-15.6274
-427,-447,-7.21832,14.691,0,0,0,0,0,0,0,-1,797,1471,-7.21834,-14.6911
-420,-447,-8.0545,12.8055,0,0,0,0,0,0,0,-1,804,1471,-8.05452,-12.8055
-413,-447,-4.27393,6.59705,0,0,0,0,0,0,0,-1,811,1471,-4.27392,-6.59707
-406,-447,-1.04279,6.18591,0,0,0,0,0,0,0,-1,818,1471,-1.04276,-6.18586
-399,-447,0.0134888,0.687622,0,0,0,0,0,0,0,-1,825,1471,0.0134841,-0.68767
-392,-447,-14.0646,3.76147,0,0,0,0,0,0,0,-1,832,1471,-14.0646,-3.7615
-385,-447,-15.1695,2.61865,0,0,0,0,0,0,0,-1,839,1471,-15.1695,-2.61871
-378,-447,-15.9424,1.49316,0,0,0,0,0,0,0,-1,846,1471,-15.9424,-1.49313
-371,-447,-17.3655,0.73291,0,0,0,0,0,0,0,-1,853,1471,-17.3655,-0.732946
-364,-447,0,0,0,0,0,0,0,0,0,-1,860,1471,0,0
-357,-447,0,0,0,0,0,0,0,0,0,-1,867,1471,0,0
-350,-447,0,0,0,0,0,0,0,0,0,-1,874,1471,0,0
-343,-447,0,0,0,0,0,0,0,0,0,-1,881,1471,0,0
-336,-447,0,0,0,0,0,0,0,0,0,-1,888,1471,0,0
-329,-447,0,0,0,0,0,0,0,0,0,-1,895,1471,0,0
-322,-447,0,0,0,0,0,0,0,0,0,-1,902,1471,0,0
-315,-447,0,0,0,0,0,0,0,0,0,-1,909,1471,0,0
-308,-447,0,0,0,0,0,0,0,0,0,-1,916,1471,0,0
-301,-447,0,0,0,0,0,0,0,0,0,-1,923,1471,0,0
-294,-447,0,0,0,0,0,0,0,0,0,-1,930,1471,0,0
-287,-447,0,0,0,0,0,0,0,0,0,-1,937,1471,0,0
-280,-447,0,0,0,0,0,0,0,0,0,-1,944,1471,0,0
-273,-447,0,0,0,0,0,0,0,0,0,-1,951,1471,0,0
-266,-447,0,0,0,0,0,0,0,0,0,-1,958,1471,0,0
-259,-447,0,0,0,0,0,0,0,0,0,-1,965,1471,0,0
-252,-447,0,0,0,0,0,0,0,0,0,-1,972,1471,0,0
-245,-447,0,0,0,0,0,0,0,0,0,-1,979,1471,0,0
-238,-447,0,0,0,0,0,0,0,0,0,-1,986,1471,0,0
-231,-447,0,0,0,0,0,0,0,0,0,-1,993,1471,0,0
-224,-447,0,0,0,0,0,0,0,0,0,-1,1000,1471,0,0
-217,-447,0,0,0,0,0,0,0,0,0,-1,1007,1471,0,0
-210,-447,0,0,0,0,0,0,0,0,0,-1,1014,1471,0,0
-203,-447,0,0,0,0,0,0,0,0,0,-1,1021,1471,0,0
-196,-447,0,0,0,0,0,0,0,0,0,-1,1028,1471,0,0
-189,-447,0,0,0,0,0,0,0,0,0,-1,1035,1471,0,0
-182,-447,0,0,0,0,0,0,0,0,0,-1,1042,1471,0,0
-175,-447,0,0,0,0,0,0,0,0,0,-1,1049,1471,0,0
-168,-447,0,0,0,0,0,0,0,0,0,-1,1056,1471,0,0
-161,-447,0,0,0,0,0,0,0,0,0,-1,1063,1471,0,0
-154,-447,0,0,0,0,0,0,0,0,0,-1,1070,1471,0,0
-147,-447,0,0,0,0,0,0,0,0,0,-1,1077,1471,0,0
-140,-447,0,0,0,0,0,0,0,0,0,-1,1084,1471,0,0
-133,-447,0,0,0,0,0,0,0,0,0,-1,1091,1471,0,0
-126,-447,0,0,0,0,0,0,0,0,0,-1,1098,1471,0,0
-119,-447,0,0,0,0,0,0,0,0,0,-1,1105,1471,0,0
-112,-447,0,0,0,0,0,0,0,0,0,-1,1112,1471,0,0
-105,-447,0,0,0,0,0,0,0,0,0,-1,1119,1471,0,0
-98,-447,0,0,0,0,0,0,0,0,0,-1,1126,1471,0,0
-91,-447,0,0,0,0,0,0,0,0,0,-1,1133,1471,0,0
-84,-447,0,0,0,0,0,0,0,0,0,-1,1140,1471,0,0
-77,-447,0,0,0,0,0,0,0,0,0,-1,1147,1471,0,0
-70,-447,0,0,0,0,0,0,0,0,0,-1,1154,1471,0,0
-63,-447,0,0,0,0,0,0,0,0,0,-1,1161,1471,0,0
-56,-447,0,0,0,0,0,0,0,0,0,-1,1168,1471,0,0
-49,-447,0,0,0,0,0,0,0,0,0,-1,1175,1471,0,0
-42,-447,0,0,0,0,0,0,0,0,0,-1,1182,1471,0,0
-35,-447,0,0,0,0,0,0,0,0,0,-1,1189,1471,0,0
-28,-447,0,0,0,0,0,0,0,0,0,-1,1196,1471,0,0
-21,-447,0,0,0,0,0,0,0,0,0,-1,1203,1471,0,0
-14,-447,0,0,0,0,0,0,0,0,0,-1,1210,1471,0,0
-7,-447,0,0,0,0,0,0,0,0,0,-1,1217,1471,0,0
0,-447,0,0,0,0,0,0,0,0,0,-1,1224,1471,0,0
7,-447,0,0,0,0,0,0,0,0,0,-1,1231,1471,0,0
14,-447,0,0,0,0,0,0,0,0,0,-1,1238,1471,0,0
21,-447,0,0,0,0,0,0,0,0,0,-1,1245,1471,0,0
28,-447,0,0,0,0,0,0,0,0,0,-1,1252,1471,0,0
35,-447,0,0,0,0,0,0,0,0,0,-1,1259,1471,0,0
42,-447,0,0,0,0,0,0,0,0,0,-1,1266,1471,0,0
49,-447,0,0,0,0,0,0,0,0,0,-1,1273,1471,0,0
56,-447,0,0,0,0,0,0,0,0,0,-1,1280,1471,0,0
63,-447,0,0,0,0,0,0,0,0,0,-1,1287,1471,0,0
70,-447,0,0,0,0,0,0,0,0,0,-1,1294,1471,0,0
77,-447,0,0,0,0,0,0,0,0,0,-1,1301,1471,0,0
84,-447,0,0,0,0,0,0,0,0,0,-1,1308,1471,0,0
91,-447,0,0,0,0,0,0,0,0,0,-1,1315,1471,0,0
98,-447,0,0,0,0,0,0,0,0,0,-1,1322,1471,0,0
105,-447,0,0,0,0,0,0,0,0,0,-1,1329,1471,0,0
112,-447,0,0,0,0,0,0,0,0,0,-1,1336,1471,0,0
119,-447,0,0,0,0,0,0,0,0,0,-1,1343,1471,0,0
126,-447,0,0,0,0,0,0,0,0,0,-1,1350,1471,0,0
133,-447,0,0,0,0,0,0,0,0,0,-1,1357,1471,0,0
140,-447,0,0,0,0,0,0,0,0,0,-1,1364,1471,0,0
147,-447,0,0,0,0,0,0,0,0,0,-1,1371,1471,0,0
154,-447,0,0,0,0,0,0,0,0,0,-1,1378,1471,0,0
161,-447,0,0,0,0,0,0,0,0,0,-1,1385,1471,0,0
168,-447,0,0,0,0,0,0,0,0,0,-1,1392,1471,0,0
175,-447,0,0,0,0,0,0,0,0,0,-1,1399,1471,0,0
182,-447,0,0,0,0,0,0,0,0,0,-1,1406,1471,0,0
189,-447,0,0,0,0,0,0,0,0,0,-1,1413,1471,0,0
196,-447,0,0,0,0,0,0,0,0,0,-1,1420,1471,0,0
203,-447,0,0,0,0,0,0,0,0,0,-1,1427,1471,0,0
210,-447,0,0,0,0,0,0,0,0,0,-1,1434,1471,0,0
217,-447,0,0,0,0,0,0,0,0,0,-1,1441,1471,0,0
224,-447,0,0,0,0,0,0,0,0,0,-1,1448,1471,0,0
231,-447,0,0,0,0,0,0,0,0,0,-1,1455,1471,0,0
238,-447,0,0,0,0,0,0,0,0,0,-1,1462,1471,0,0
245,-447,0,0,0,0,0,0,0,0,0,-1,1469,1471,0,0
252,-447,0,0,0,0,0,0,0,0,0,-1,1476,1471,0,0
259,-447,0,0,0,0,0,0,0,0,0,-1,1483,1471,0,0
266,-447,0,0,0,0,0,0,0,0,0,-1,1490,1471,0,0
273,-447,0,0,0,0,0,0,0,0,0,-1,1497,1471,0,0
280,-447,0,0,0,0,0,0,0,0,0,-1,1504,1471,0,0
287,-447,0,0,0,0,0,0,0,0,0,-1,1511,1471,0,0
294,-447,0,0,0,0,0,0,0,0,0,-1,1518,1471,0,0
301,-447,0,0,0,0,0,0,0,0,0,-1,1525,1471,0,0
308,-447,0,0,0,0,0,0,0,0,0,-1,1532,1471,0,0
315,-447,0,0,0,0,0,0,0,0,0,-1,1539,1471,0,0
322,-447,0,0,0,0,0,0,0,0,0,-1,1546,1471,0,0
329,-447,0,0,0,0,0,0,0,0,0,-1,1553,1471,0,0
336,-447,0,0,0,0,0,0,0,0,0,-1,1560,1471,0,0
343,-447,0,0,0,0,0,0,0,0,0,-1,1567,1471,0,0
350,-447,0,0,0,0,0,0,0,0,0,-1,1574,1471,0,0
357,-447,0,0,0,0,0,0,0,0,0,-1,1581,1471,0,0
364,-447,0,0,0,0,0,0,0,0,0,-1,1588,1471,0,0
371,-447,0,0,0,0,0,0,0,0,0,-1,1595,1471,0,0
378,-447,0,0,0,0,0,0,0,0,0,-1,1602,1471,0,0
385,-447,0,0,0,0,0,0,0,0,0,-1,1609,1471,0,0
392,-447,0,0,0,0,0,0,0,0,0,-1,1616,1471,0,0
399,-447,0,0,0,0,0,0,0,0,0,-1,1623,1471,0,0
406,-447,0,0,0,0,0,0,0,0,0,-1,1630,1471,0,0
413,-447,0,0,0,0,0,0,0,0,0,-1,1637,1471,0,0
420,-447,0,0,0,0,0,0,0,0,0,-1,1644,1471,0,0
427,-447,0,0,0,0,0,0,0,0,0,-1,1651,1471,0,0
434,-447,0,0,0,0,0,0,0,0,0,-1,1658,1471,0,0
441,-447,0,0,0,0,0,0,0,0,0,-1,1665,1471,0,0
448,-447,0,0,0,0,0,0,0,0,0,-1,1672,1471,0,0
455,-447,0,0,0,0,0,0,0,0,0,-1,1679,1471,0,0
462,-447,0,0,0,0,0,0,0,0,0,-1,1686,1471,0,0
469,-447,0,0,0,0,0,0,0,0,0,-1,1693,1471,0,0
476,-447,0,0,0,0,0,0,0,0,0,-1,1700,1471,0,0
483,-447,0,0,0,0,0,0,0,0,0,-1,1707,1471,0,0
490,-447,18.2214,-0.810303,0,0,0,0,0,0,0,-1,1714,1471,18.2215,0.810307
497,-447,17.0237,0.352417,0,0,0,0,0,0,0,-1,1721,1471,17.0237,-0.352442
504,-447,15.8998,1.53479,0,0,0,0,0,0,0,-1,1728,1471,15.8997,-1.53478
511,-447,14.7201,2.76111,0,0,0,0,0,0,0,-1,1735,1471,14.7201,-2.76107
518,-447,17.7618,13.2864,0,0,0,0,0,0,0,-1,1742,1471,17.7619,-13.2863
525,-447,17.1191,11.9014,0,0,0,0,0,0,0,-1,1749,1471,17.1191,-11.9013
532,-447,16.3959,10.0455,0,0,0,0,0,0,0,-1,1756,1471,16.3959,-10.0456
539,-447,14.1699,10.0204,0,0,0,0,0,0,0,-1,1763,1471,14.1699,-10.0204
546,-447,16.3715,11.8046,0,0,0,0,0,0,0,-1,1770,1471,16.3714,-11.8046
553,-447,17.5106,13.4012,0,0,0,0,0,0,0,-1,1777,1471,17.5107,-13.4012
560,-447,17.0187,13.168,0,0,0,0,0,0,0,-1,1784,1471,17.0187,-13.168
567,-447,18.9286,15.1703,0,0,0,0,0,0,0,-1,1791,1471,18.9286,-15.1703
574,-447,32.1848,27.6504,0,0,0,0,0,0,0,-1,1798,1471,32.1848,-27.6503
581,-447,33.1865,27.3265,0,0,0,0,0,0,0,-1,1805,1471,33.1865,-27.3265
588,-447,33.3788,26.4739,0.0053632,0.00176534,-0.00233128,0.00650893,0.00061961,-0.456791,0.0041482,0.0387852,1812,1471,33.3788,-26.4738
595,-447,33.3728,25.655,0.00414718,0.00156384,-0.00208193,0.00530558,0.000405435,-0.507748,0.00340995,0.0138478,1819,1471,33.3728,-25.655
602,-447,33.3225,24.8562,0.0032667,0.0011919,-0.00166059,0.00418729,0.000271301,-0.5062,0.00270563,0.0112874,1826,1471,33.3225,-24.8562
609,-447,33.3035,24.0883,0.00256216,0.000873635,-0.00123925,0.0032174,0.000218387,-0.486378,0.00207597,0.0130322,1833,1471,33.3035,-24.0882
616,-447,33.2772,23.3326,0.00196842,0.00073709,-0.000913447,0.00245431,0.000251198,-0.488866,0.00155924,0.0148033,1840,1471,33.2773,-23.3326
623,-447,33.2512,22.5955,0.00163321,0.000581925,-0.000567513,0.00188111,0.000334023,-0.411841,0.00115889,0.0168088,1847,1471,33.2512,-22.5955
630,-447,33.1967,21.8195,0.00150697,0.000484131,-0.00029634,0.00158662,0.000404477,-0.262585,0.000952008,0.0111596,1854,1471,33.1966,-21.8194
637,-447,33.1758,21.0597,0.00150793,0.000606493,-0.000140132,0.00152921,0.000585211,-0.150717,0.000890956,0.0123477,1861,1471,33.1758,-21.0597
644,-447,33.1539,20.2886,0.00169431,0.00105014,-0.00020314,0.00175302,0.000991427,-0.281342,0.001015,0.0133973,1868,1471,33.1539,-20.2886
651,-447,33.155,19.3943,0,0,0,0,0,0,0,-1,1875,1471,33.155,-19.3943
658,-447,30.2566,16.5862,0,0,0,0,0,0,0,-1,1882,1471,30.2566,-16.5862
665,-447,18.4946,9.79919,0,0,0,0,0,0,0,-1,1889,1471,18.4946,-9.79922
672,-447,18.9784,9.66077,0,0,0,0,0,0,0,-1,1896,1471,18.9784,-9.66081
679,-447,14.844,7.4248,0,0,0,0,0,0,0,-1,1903,1471,14.844,-7.42477
686,-447,9.81079,4.30859,0,0,0,0,0,0,0,-1,1910,1471,9.8108,-4.30864
693,-447,10.48,2.08643,0,0,0,0,0,0,0,-1,1917,1471,10.48,-2.08642
700,-447,0,0,0,0,0,0,0,0,0,-1,1924,1471,0,0
707,-447,0,0,0,0,0,0,0,0,0,-1,1931,1471,0,0
714,-447,0,0,0,0,0,0,0,0,0,-1,1938,1471,0,0
721,-447,0,0,0,0,0,0,0,0,0,-1,1945,1471,0,0
728,-447,0,0,0,0,0,0,0,0,0,-1,1952,1471,0,0
735,-447,0,0,0,0,0,0,0,0,0,-1,1959,1471,0,0
742,-447,0,0,0,0,0,0,0,0,0,-1,1966,1471,0,0
749,-447,0,0,0,0,0,0,0,0,0,-1,1973,1471,0,0
756,-447,0,0,0,0,0,0,0,0,0,-1,1980,1471,0,0
763,-447,0,0,0,0,0,0,0,0,0,-1,1987,1471,0,0
770,-447,0,0,0,0,0,0,0,0,0,-1,1994,1471,0,0
777,-447,0,0,0,0,0,0,0,0,0,-1,2001,1471,0,0
784,-447,0,0,0,0,0,0,0,0,0,-1,2008,1471,0,0
791,-447,0,0,0,0,0,0,0,0,0,-1,2015,1471,0,0
798,-447,0,0,0,0,0,0,0,0,0,-1,2022,1471,0,0
805,-447,0,0,0,0,0,0,0,0,0,-1,2029,1471,0,0
812,-447,0,0,0,0,0,0,0,0,0,-1,2036,1471,0,0
-700,-454,0,0,0,0,0,0,0,0,0,-1,524,1478,0,0
-693,-454,0,0,0,0,0,0,0,0,0,-1,531,1478,0,0
-686,-454,0,0,0,0,0,0,0,0,0,-1,538,1478,0,0
-679,-454,0,0,0,0,0,0,0,0,0,-1,545,1478,0,0
-672,-454,0,0,0,0,0,0,0,0,0,-1,552,1478,0,0
-665,-454,0,0,0,0,0,0,0,0,0,-1,559,1478,0,0
-658,-454,0,0,0,0,0,0,0,0,0,-1,566,1478,0,0
-651,-454,0,0,0,0,0,0,0,0,0,-1,573,1478,0,0
-644,-454,0,0,0,0,0,0,0,0,0,-1,580,1478,0,0
-637,-454,0,0,0,0,0,0,0,0,0,-1,587,1478,0,0
-630,-454,0,0,0,0,0,0,0,0,0,-1,594,1478,0,0
-623,-454,0,0,0,0,0,0,0,0,0,-1,601,1478,0,0
-616,-454,0,0,0,0,0,0,0,0,0,-1,608,1478,0,0
-609,-454,0,0,0,0,0,0,0,0,0,-1,615,1478,0,0
-602,-454,0,0,0,0,0,0,0,0,0,-1,622,1478,0,0
-595,-454,0,0,0,0,0,0,0,0,0,-1,629,1478,0,0
-588,-454,0,0,0,0,0,0,0,0,0,-1,636,1478,0,0
-581,-454,0,0,0,0,0,0,0,0,0,-1,643,1478,0,0
-574,-454,-8.4881,-0.465942,0,0,0,0,0,0,0,-1,650,1478,-8.4881,0.465885
-567,-454,-8.10046,0.922974,0,0,0,0,0,0,0,-1,657,1478,-8.10047,-0.923034
-560,-454,-10.656,3.51172,0,0,0,0,0,0,0,-1,664,1478,-10.656,-3.51176
-553,-454,-9.01129,3.95251,0,0,0,0,0,0,0,-1,671,1478,-9.0113,-3.95256
-546,-454,-9.61896,6.05237,0,0,0,0,0,0,0,-1,678,1478,-9.61897,-6.05239
-539,-454,-7.72589,4.96533,0,0,0,0,0,0,0,-1,685,1478,-7.72592,-4.96532
-532,-454,-7.03931,7.59985,0,0,0,0,0,0,0,-1,692,1478,-7.03929,-7.59981
-525,-454,-5.78723,9.677,0,0,0,0,0,0,0,-1,699,1478,-5.78722,-9.67703
-518,-454,-9.82098,13.8295,0,0,0,0,0,0,0,-1,706,1478,-9.82098,-13.8295
-511,-454,-14.6111,19.6742,0,0,0,0,0,0,0,-1,713,1478,-14.6112,-19.6742
-504,-454,-14.5378,20.5671,0.00434255,0.00421138,0.00467565,0.00895308,-0.000399145,0.778385,0.00610612,0.0224403,720,1478,-14.5379,-20.5672
-497,-454,-14.5919,21.427,0.00327058,0.0030184,0.00351074,0.00665749,-0.000368517,0.767448,0.00456613,0.0199525,727,1478,-14.5919,-21.427
-490,-454,-14.6001,22.2255,0.00243718,0.00212566,0.00255547,0.00484163,-0.000278794,0.75496,0.00332458,0.0176236,734,1478,-14.6001,-22.2255
-483,-454,-14.6581,23.0031,0.00182011,0.00149109,0.00181822,0.00348125,-0.000170047,0.740282,0.00237954,0.0159169,741,1478,-14.6581,-23.003
-476,-454,-14.7252,23.7668,0.00144831,0.00121211,0.00138589,0.00272112,-6.06993e-05,0.742892,0.00183465,0.0146919,748,1478,-14.7252,-23.7668
-469,-454,-14.7484,24.569,0.00130536,0.00125901,0.00118383,0.00246624,9.81264e-05,0.775611,0.00161245,0.0108512,755,1478,-14.7483,-24.5689
-462,-454,-14.8099,25.3861,0.00146478,0.00163689,0.00128147,0.00283519,0.000266481,0.818926,0.00180786,0.011563,762,1478,-14.8099,-25.3861
-455,-454,-14.8693,26.1586,0.00197025,0.00238428,0.00173865,0.0039282,0.000426331,0.844653,0.00248889,0.0126579,769,1478,-14.8693,-26.1585
-448,-454,-14.8478,27.0011,0.003007,0.00378096,0.00284915,0.0062693,0.000518672,0.852897,0.00401782,0.0269685,776,1478,-14.8479,-27.0011
-441,-454,-14.6557,27.9924,0,0,0,0,0,0,0,-1,783,1478,-14.6557,-27.9924
-434,-454,-7.55743,19.4857,0,0,0,0,0,0,0,-1,790,1478,-7.55746,-19.4858
-427,-454,-6.00183,15.8636,0,0,0,0,0,0,0,-1,797,1478,-6.00184,-15.8637
-420,-454,-6.28088,15.2135,0,0,0,0,0,0,0,-1,804,1478,-6.28087,-15.2135
-413,-454,-5.4408,13.674,0,0,0,0,0,0,0,-1,811,1478,-5.44079,-13.6739
-406,-454,-2.38208,10.0308,0,0,0,0,0,0,0,-1,818,1478,-2.38209,-10.0308
-399,-454,-1.21033,6.95447,0,0,0,0,0,0,0,-1,825,1478,-1.21035,-6.95452
-392,-454,0.0967407,0.985474,0,0,0,0,0,0,0,-1,832,1478,0.0967364,-0.985529
-385,-454,2.38629,3.297,0,0,0,0,0,0,0,-1,839,1478,2.38629,-3.29702
-378,-454,-15.9756,2.83997,0,0,0,0,0,0,0,-1,846,1478,-15.9756,-2.83994
-371,-454,-17.2753,2.01453,0,0,0,0,0,0,0,-1,853,1478,-17.2753,-2.01455
-364,-454,1.08124,0.819458,0,0,0,0,0,0,0,-1,860,1478,1.08124,-0.819513
-357,-454,0,0,0,0,0,0,0,0,0,-1,867,1478,0,0
-350,-454,0,0,0,0,0,0,0,0,0,-1,874,1478,0,0
-343,-454,0,0,0,0,0,0,0,0,0,-1,881,1478,0,0
-336,-454,0,0,0,0,0,0,0,0,0,-1,888,1478,0,0
-329,-454,0,0,0,0,0,0,0,0,0,-1,895,1478,0,0
-322,-454,0,0,0,0,0,0,0,0,0,-1,902,1478,0,0
-315,-454,0,0,0,0,0,0,0,0,0,-1,909,1478,0,0
-308,-454,0,0,0,0,0,0,0,0,0,-1,916,1478,0,0
-301,-454,0,0,0,0,0,0,0,0,0,-1,923,1478,0,0
-294,-454,0,0,0,0,0,0,0,0,0,-1,930,1478,0,0
-287,-454,0,0,0,0,0,0,0,0,0,-1,937,1478,0,0
-280,-454,0,0,0,0,0,0,0,0,0,-1,944,1478,0,0
-273,-454,0,0,0,0,0,0,0,0,0,-1,951,1478,0,0
-266,-454,0,0,0,0,0,0,0,0,0,-1,958,1478,0,0
-259,-454,0,0,0,0,0,0,0,0,0,-1,965,1478,0,0
-252,-454,0,0,0,0,0,0,0,0,0,-1,972,1478,0,0
-245,-454,0,0,0,0,0,0,0,0,0,-1,979,1478,0,0
-238,-454,0,0,0,0,0,0,0,0,0,-1,986,1478,0,0
-231,-454,0,0,0,0,0,0,0,0,0,-1,993,1478,0,0
-224,-454,0,0,0,0,0,0,0,0,0,-1,1000,1478,0,0
-217,-454,0,0,0,0,0,0,0,0,0,-1,1007,1478,0,0
-210,-454,0,0,0,0,0,0,0,0,0,-1,1014,1478,0,0
-203,-454,0,0,0,0,0,0,0,0,0,-1,1021,1478,0,0
-196,-454,0,0,0,0,0,0,0,0,0,-1,1028,1478,0,0
-189,-454,0,0,0,0,0,0,0,0,0,-1,1035,1478,0,0
-182,-454,0,0,0,0,0,0,0,0,0,-1,1042,1478,0,0
-175,-454,0,0,0,0,0,0,0,0,0,-1,1049,1478,0,0
-168,-454,0,0,0,0,0,0,0,0,0,-1,1056,1478,0,0
-161,-454,0,0,0,0,0,0,0,0,0,-1,1063,1478,0,0
-154,-454,0,0,0,0,0,0,0,0,0,-1,1070,1478,0,0
-147,-454,0,0,0,0,0,0,0,0,0,-1,1077,1478,0,0
-140,-454,0,0,0,0,0,0,0,0,0,-1,1084,1478,0,0
-133,-454,0,0,0,0,0,0,0,0,0,-1,1091,1478,0,0
-126,-454,0,0,0,0,0,0,0,0,0,-1,1098,1478,0,0
-119,-454,0,0,0,0,0,0,0,0,0,-1,1105,1478,0,0
-112,-454,0,0,0,0,0,0,0,0,0,-1,1112,1478,0,0
-105,-454,0,0,0,0,0,0,0,0,0,-1,1119,1478,0,0
-98,-454,0,0,0,0,0,0,0,0,0,-1,1126,1478,0,0
-91,-454,0,0,0,0,0,0,0,0,0,-1,1133,1478,0,0
-84,-454,0,0,0,0,0,0,0,0,0,-1,1140,1478,0,0
-77,-454,0,0,0,0,0,0,0,0,0,-1,1147,1478,0,0
-70,-454,0,0,0,0,0,0,0,0,0,-1,1154,1478,0,0
-63,-454,0,0,0,0,0,0,0,0,0,-1,1161,1478,0,0
-56,-454,0,0,0,0,0,0,0,0,0,-1,1168,1478,0,0
-49,-454,0,0,0,0,0,0,0,0,0,-1,1175,1478,0,0
-42,-454,0,0,0,0,0,0,0,0,0,-1,1182,1478,0,0
-35,-454,0,0,0,0,0,0,0,0,0,-1,1189,1478,0,0
-28,-454,0,0,0,0,0,0,0,0,0,-1,1196,1478,0,0
-21,-454,0,0,0,0,0,0,0,0,0,-1,1203,1478,0,0
-14,-454,0,0,0,0,0,0,0,0,0,-1,1210,1478,0,0
-7,-454,0,0,0,0,0,0,0,0,0,-1,1217,1478,0,0
0,-454,0,0,0,0,0,0,0,0,0,-1,1224,1478,0,0
7,-454,0,0,0,0,0,0,0,0,0,-1,1231,1478,0,0
14,-454,0,0,0,0,0,0,0,0,0,-1,1238,1478,0,0
21,-454,0,0,0,0,0,0,0,0,0,-1,1245,1478,0,0
28,-454,0,0,0,0,0,0,0,0,0,-1,1252,1478,0,0
35,-454,0,0,0,0,0,0,0,0,0,-1,1259,1478,0,0
42,-454,0,0,0,0,0,0,0,0,0,-1,1266,1478,0,0
49,-454,0,0,0,0,0,0,0,0,0,-1,1273,1478,0,0
56,-454,0,0,0,0,0,0,0,0,0,-1,1280,1478,0,0
63,-454,0,0,0,0,0,0,0,0,0,-1,1287,1478,0,0
70,-454,0,0,0,0,0,0,0,0,0,-1,1294,1478,0,0
77,-454,0,0,0,0,0,0,0,0,0,-1,1301,1478,0,0
84,-454,0,0,0,0,0,0,0,0,0,-1,1308,1478,0,0
91,-454,0,0,0,0,0,0,0,0,0,-1,1315,1478,0,0
98,-454,0,0,0,0,0,0,0,0,0,-1,1322,1478,0,0
105,-454,0,0,0,0,0,0,0,0,0,-1,1329,1478,0,0
112,-454,0,0,0,0,0,0,0,0,0,-1,1336,1478,0,0
119,-454,0,0,0,0,0,0,0,0,0,-1,1343,1478,0,0
126,-454,0,0,0,0,0,0,0,0,0,-1,1350,1478,0,0
133,-454,0,0,0,0,0,0,0,0,0,-1,1357,1478,0,0
140,-454,0,0,0,0,0,0,0,0,0,-1,1364,1478,0,0
147,-454,0,0,0,0,0,0,0,0,0,-1,1371,1478,0,0
154,-454,0,0,0,0,0,0,0,0,0,-1,1378,1478,0,0
161,-454,0,0,0,0,0,0,0,0,0,-1,1385,1478,0,0
168,-454,0,0,0,0,0,0,0,0,0,-1,1392,1478,0,0
175,-454,0,0,0,0,0,0,0,0,0,-1,1399,1478,0,0
182,-454,0,0,0,0,0,0,0,0,0,-1,1406,1478,0,0
189,-454,0,0,0,0,0,0,0,0,0,-1,1413,1478,0,0
196,-454,0,0,0,0,0,0,0,0,0,-1,1420,1478,0,0
203,-454,0,0,0,0,0,0,0,0,0,-1,1427,1478,0,0
210,-454,0,0,0,0,0,0,0,0,0,-1,1434,1478,0,0
217,-454,0,0,0,0,0,0,0,0,0,-1,1441,1478,0,0
224,-454,0,0,0,0,0,0,0,0,0,-1,1448,1478,0,0
231,-454,0,0,0,0,0,0,0,0,0,-1,1455,1478,0,0
238,-454,0,0,0,0,0,0,0,0,0,-1,1462,1478,0,0
245,-454,0,0,0,0,0,0,0,0,0,-1,1469,1478,0,0
252,-454,0,0,0,0,0,0,0,0,0,-1,1476,1478,0,0
259,-454,0,0,0,0,0,0,0,0,0,-1,1483,1478,0,0
266,-454,0,0,0,0,0,0,0,0,0,-1,1490,1478,0,0
273,-454,0,0,0,0,0,0,0,0,0,-1,1497,1478,0,0
280,-454,0,0,0,0,0,0,0,0,0,-1,1504,1478,0,0
287,-454,0,0,0,0,0,0,0,0,0,-1,1511,1478,0,0
294,-454,0,0,0,0,0,0,0,0,0,-1,1518,1478,0,0
301,-454,0,0,0,0,0,0,0,0,0,-1,1525,1478,0,0
308,-454,0,0,0,0,0,0,0,0,0,-1,1532,1478,0,0
315,-454,0,0,0,0,0,0,0,0,0,-1,1539,1478,0,0
322,-454,0,0,0,0,0,0,0,0,0,-1,1546,1478,0,0
329,-454,0,0,0,0,0,0,0,0,0,-1,1553,1478,0,0
336,-454,0,0,0,0,0,0,0,0,0,-1,1560,1478,0,0
343,-454,0,0,0,0,0,0,0,0,0,-1,1567,1478,0,0
350,-454,0,0,0,0,0,0,0,0,0,-1,1574,1478,0,0
357,-454,0,0,0,0,0,0,0,0,0,-1,1581,1478,0,0
364,-454,0,0,0,0,0,0,0,0,0,-1,1588,1478,0,0
371,-454,0,0,0,0,0,0,0,0,0,-1,1595,1478,0,0
378,-454,0,0,0,0,0,0,0,0,0,-1,1602,1478,0,0
385,-454,0,0,0,0,0,0,0,0,0,-1,1609,1478,0,0
392,-454,0,0,0,0,0,0,0,0,0,-1,1616,1478,0,0
399,-454,0,0,0,0,0,0,0,0,0,-1,1623,1478,0,0
406,-454,0,0,0,0,0,0,0,0,0,-1,1630,1478,0,0
413,-454,0,0,0,0,0,0,0,0,0,-1,1637,1478,0,0
420,-454,0,0,0,0,0,0,0,0,0,-1,1644,1478,0,0
427,-454,0,0,0,0,0,0,0,0,0,-1,1651,1478,0,0
434,-454,0,0,0,0,0,0,0,0,0,-1,1658,1478,0,0
441,-454,0,0,0,0,0,0,0,0,0,-1,1665,1478,0,0
448,-454,0,0,0,0,0,0,0,0,0,-1,1672,1478,0,0
455,-454,0,0,0,0,0,0,0,0,0,-1,1679,1478,0,0
462,-454,0,0,0,0,0,0,0,0,0,-1,1686,1478,0,0
469,-454,0,0,0,0,0,0,0,0,0,-1,1693,1478,0,0
476,-454,0,0,0,0,0,0,0,0,0,-1,1700,1478,0,0
483,-454,14.2399,3.97498,0,0,0,0,0,0,0,-1,1707,1478,14.2399,-3.97502
490,-454,18.1821,-0.175781,0,0,0,0,0,0,0,-1,1714,1478,18.1821,0.175822
497,-454,16.8854,1.01208,0,0,0,0,0,0,0,-1,1721,1478,16.8854,-1.01209
504,-454,15.587,2.05994,0,0,0,0,0,0,0,-1,1728,1478,15.5871,-2.05998
511,-454,17.0273,14.5258,0,0,0,0,0,0,0,-1,1735,1478,17.0273,-14.5258
518,-454,16.4158,13.1039,0,0,0,0,0,0,0,-1,1742,1478,16.4157,-13.1038
525,-454,15.7842,11.6628,0,0,0,0,0,0,0,-1,1749,1478,15.7841,-11.6629
532,-454,15.1094,10.2476,0,0,0,0,0,0,0,-1,1756,1478,15.1094,-10.2475
539,-454,13.7905,10.9373,0,0,0,0,0,0,0,-1,1763,1478,13.7906,-10.9372
546,-454,16.2002,13.2458,0,0,0,0,0,0,0,-1,1770,1478,16.2002,-13.2459
553,-454,15.6747,12.1868,0,0,0,0,0,0,0,-1,1777,1478,15.6747,-12.1868
560,-454,16.3895,14.0527,0,0,0,0,0,0,0,-1,1784,1478,16.3895,-14.0528
567,-454,32.8151,28.7509,0,0,0,0,0,0,0,-1,1791,1478,32.8151,-28.7509
574,-454,32.528,28.2433,0,0,0,0,0,0,0,-1,1798,1478,32.5279,-28.2433
581,-454,32.6582,27.2466,0.00593353,0.00148009,-0.00200903,0.00670589,0.000707728,-0.367025,0.00425435,0.0336589,1805,1478,32.6582,-27.2466
588,-454,32.7057,26.417,0.00471551,0.00135282,-0.0018602,0.00554161,0.000526723,-0.417929,0.00353195,0.0154459,1812,1478,32.7057,-26.417
595,-454,32.6157,25.6711,0.00369529,0.00118125,-0.00163964,0.00450431,0.000372232,-0.458365,0.00288681,0.0129704,1819,1478,32.6158,-25.6711
602,-454,32.5656,24.9023,0.00291377,0.00090568,-0.00131309,0.00356269,0.000256755,-0.458995,0.00229434,0.00940118,1826,1478,32.5656,-24.9023
609,-454,32.5667,24.1377,0.00229951,0.00069498,-0.000962691,0.00275041,0.000244088,-0.438021,0.0017579,0.0110225,1833,1478,32.5666,-24.1377
616,-454,32.5287,23.3849,0.00179121,0.000631911,-0.00067,0.0020975,0.000325617,-0.428787,0.00130342,0.0139178,1840,1478,32.5287,-23.3849
623,-454,32.5117,22.6376,0.00151234,0.000500557,-0.000309619,0.00159956,0.000413329,-0.274609,0.000958773,0.0154746,1847,1478,32.5117,-22.6376
630,-454,32.4825,21.8757,0.00140592,0.000417487,3.89264e-05,0.00140746,0.000415956,0.0393006,0.000834934,0.015839,1854,1478,32.4825,-21.8757
637,-454,32.3917,21.1299,0.00141863,0.000545599,0.00030536,0.00151484,0.000449395,0.305208,0.000898375,0.0139344,1861,1478,32.3917,-21.1299
644,-454,32.4514,20.3287,0.00157446,0.000990645,0.000394665,0.00177344,0.000791665,0.466981,0.00102586,0.0285536,1868,1478,32.4515,-20.3287
651,-454,32.5583,19.4376,0,0,0,0,0,0,0,-1,1875,1478,32.5583,-19.4376
658,-454,17.2583,10.0765,0,0,0,0,0,0,0,-1,1882,1478,17.2583,-10.0765
665,-454,17.683,9.67566,0,0,0,0,0,0,0,-1,1889,1478,17.683,-9.67572
672,-454,16.5476,6.41931,0,0,0,0,0,0,0,-1,1896,1478,16.5476,-6.41929
679,-454,14.2161,5.45007,0,0,0,0,0,0,0,-1,1903,1478,14.2161,-5.45013
686,-454,10.3767,2.12842,0,0,0,0,0,0,0,-1,1910,1478,10.3767,-2.12839
693,-454,11.1857,1.48486,0,0,0,0,0,0,0,-1,1917,1478,11.1857,-1.48487
700,-454,0,0,0,0,0,0,0,0,0,-1,1924,1478,0,0
707,-454,0,0,0,0,0,0,0,0,0,-1,1931,1478,0,0
714,-454,0,0,0,0,0,0,0,0,0,-1,1938,1478,0,0
721,-454,0,0,0,0,0,0,0,0,0,-1,1945,1478,0,0
728,-454,0,0,0,0,0,0,0,0,0,-1,1952,1478,0,0
735,-454,0,0,0,0,0,0,0,0,0,-1,1959,1478,0,0
742,-454,0,0,0,0,0,0,0,0,0,-1,1966,1478,0,0
749,-454,0,0,0,0,0,0,0,0,0,-1,1973,1478,0,0
756,-454,0,0,0,0,0,0,0,0,0,-1,1980,1478,0,0
763,-454,0,0,0,0,0,0,0,0,0,-1,1987,1478,0,0
770,-454,0,0,0,0,0,0,0,0,0,-1,1994,1478,0,0
777,-454,0,0,0,0,0,0,0,0,0,-1,2001,1478,0,0
784,-454,0,0,0,0,0,0,0,0,0,-1,2008,1478,0,0
791,-454,0,0,0,0,0,0,0,0,0,-1,2015,1478,0,0
798,-454,0,0,0,0,0,0,0,0,0,-1,2022,1478,0,0
805,-454,0,0,0,0,0,0,0,0,0,-1,2029,1478,0,0
812,-454,0,0,0,0,0,0,0,0,0,-1,2036,1478,0,0
-700,-461,0,0,0,0,0,0,0,0,0,-1,524,1485,0,0
-693,-461,0,0,0,0,0,0,0,0,0,-1,531,1485,0,0
-686,-461,0,0,0,0,0,0,0,0,0,-1,538,1485,0,0
-679,-461,0,0,0,0,0,0,0,0,0,-1,545,1485,0,0
-672,-461,0,0,0,0,0,0,0,0,0,-1,552,1485,0,0
-665,-461,0,0,0,0,0,0,0,0,0,-1,559,1485,0,0
-658,-461,0,0,0,0,0,0,0,0,0,-1,566,1485,0,0
-651,-461,0,0,0,0,0,0,0,0,0,-1,573,1485,0,0
-644,-461,0,0,0,0,0,0,0,0,0,-1,580,1485,0,0
-637,-461,0,0,0,0,0,0,0,0,0,-1,587,1485,0,0
-630,-461,0,0,0,0,0,0,0,0,0,-1,594,1485,0,0
-623,-461,0,0,0,0,0,0,0,0,0,-1,601,1485,0,0
-616,-461,0,0,0,0,0,0,0,0,0,-1,608,1485,0,0
-609,-461,0,0,0,0,0,0,0,0,0,-1,615,1485,0,0
-602,-461,0,0,0,0,0,0,0,0,0,-1,622,1485,0,0
-595,-461,0,0,0,0,0,0,0,0,0,-1,629,1485,0,0
-588,-461,0,0,0,0,0,0,0,0,0,-1,636,1485,0,0
-581,-461,0,0,0,0,0,0,0,0,0,-1,643,1485,0,0
-574,-461,0,0,0,0,0,0,0,0,0,-1,650,1485,0,0
-567,-461,-9.69031,0.513306,0,0,0,0,0,0,0,-1,657,1485,-9.69032,-0.513305
-560,-461,-7.28815,1.54004,0,0,0,0,0,0,0,-1,664,1485,-7.28817,-1.54005
-553,-461,-11.9607,5.27783,0,0,0,0,0,0,0,-1,671,1485,-11.9607,-5.27778
-546,-461,-11.4215,4.44666,0,0,0,0,0,0,0,-1,678,1485,-11.4215,-4.4467
-539,-461,-9.36493,5.23438,0,0,0,0,0,0,0,-1,685,1485,-9.3649,-5.23432
-532,-461,-7.82898,6.78357,0,0,0,0,0,0,0,-1,692,1485,-7.829,-6.78363
-525,-461,-6.37878,8.75659,0,0,0,0,0,0,0,-1,699,1485,-6.3788,-8.75659
-518,-461,-6.49695,10.886,0,0,0,0,0,0,0,-1,706,1485,-6.49696,-10.8859
-511,-461,-14.1434,19.6641,0,0,0,0,0,0,0,-1,713,1485,-14.1435,-19.664
-504,-461,-13.8695,20.5175,0.0054766,0.00506239,0.0057836,0.0110568,-0.000517817,0.767501,0.00754973,0.0461259,720,1485,-13.8695,-20.5175
-497,-461,-13.7864,21.4546,0.00402238,0.00356218,0.00426866,0.00806714,-0.000482578,0.758472,0.00554595,0.0115807,727,1485,-13.7864,-21.4546
-490,-461,-13.8247,22.2589,0.00293225,0.00246874,0.00307139,0.00578062,-0.000379628,0.747742,0.00398632,0.0123153,734,1485,-13.8247,-22.2589
-483,-461,-13.8752,23.0703,0.00210175,0.00163389,0.00211204,0.00399278,-0.00025714,0.730242,0.00275157,0.0124923,741,1485,-13.8752,-23.0703
-476,-461,-13.9474,23.8463,0.00159487,0.00121234,0.00153287,0.00294836,-0.000141153,0.723331,0.00201428,0.012065,748,1485,-13.9475,-23.8463
-469,-461,-13.9817,24.6205,0.00137186,0.00115901,0.00125331,0.00252326,7.61449e-06,0.743042,0.00167964,0.0144816,755,1485,-13.9817,-24.6204
-462,-461,-14.0181,25.4102,0.00145945,0.00144399,0.00128887,0.00274061,0.00016282,0.782399,0.00177529,0.0211517,762,1485,-14.0181,-25.4102
-455,-461,-14.0862,26.1792,0.00187412,0.00208412,0.00168225,0.00366464,0.0002936,0.816565,0.00235134,0.0239253,769,1485,-14.0863,-26.1792
-448,-461,-14.0797,27.0006,0.00275184,0.00336589,0.00266022,0.00573674,0.000380985,0.842851,0.00370403,0.0219801,776,1485,-14.0797,-27.0006
-441,-461,-14.0826,27.7706,0,0,0,0,0,0,0,-1,783,1485,-14.0826,-27.7706
-434,-461,-13.8278,28.8807,0,0,0,0,0,0,0,-1,790,1485,-13.8278,-28.8807
-427,-461,-8.26154,21.546,0,0,0,0,0,0,0,-1,797,1485,-8.26153,-21.5461
-420,-461,-5.70355,16.6116,0,0,0,0,0,0,0,-1,804,1485,-5.70353,-16.6115
-413,-461,-5.98798,16.0605,0,0,0,0,0,0,0,-1,811,1485,-5.98796,-16.0605
-406,-461,-5.52667,14.839,0,0,0,0,0,0,0,-1,818,1485,-5.52666,-14.839
-399,-461,-1.93439,9.82849,0,0,0,0,0,0,0,-1,825,1485,-1.9344,-9.82846
-392,-461,-0.357544,5.55225,0,0,0,0,0,0,0,-1,832,1485,-0.357536,-5.55228
-385,-461,1.71509,3.35254,0,0,0,0,0,0,0,-1,839,1485,1.71511,-3.35255
-378,-461,1.95996,3.01111,0,0,0,0,0,0,0,-1,846,1485,1.95993,-3.01111
-371,-461,0.702881,2.33459,0,0,0,0,0,0,0,-1,853,1485,0.702859,-2.33459
-364,-461,-1.93097,2.56458,0,0,0,0,0,0,0,-1,860,1485,-1.93095,-2.56456
-357,-461,-2.41516,3.49487,0,0,0,0,0,0,0,-1,867,1485,-2.41517,-3.49487
-350,-461,0,0,0,0,0,0,0,0,0,-1,874,1485,0,0
-343,-461,0,0,0,0,0,0,0,0,0,-1,881,1485,0,0
-336,-461,0,0,0,0,0,0,0,0,0,-1,888,1485,0,0
-329,-461,0,0,0,0,0,0,0,0,0,-1,895,1485,0,0
-322,-461,0,0,0,0,0,0,0,0,0,-1,902,1485,0,0
-315,-461,0,0,0,0,0,0,0,0,0,-1,909,1485,0,0
-308,-461,0,0,0,0,0,0,0,0,0,-1,916,1485,0,0
-301,-461,0,0,0,0,0,0,0,0,0,-1,923,1485,0,0
-294,-461,0,0,0,0,0,0,0,0,0,-1,930,1485,0,0
-287,-461,0,0,0,0,0,0,0,0,0,-1,937,1485,0,0
-280,-461,0,0,0,0,0,0,0,0,0,-1,944,1485,0,0
-273,-461,0,0,0,0,0,0,0,0,0,-1,951,1485,0,0
-266,-461,0,0,0,0,0,0,0,0,0,-1,958,1485,0,0
-259,-461,0,0,0,0,0,0,0,0,0,-1,965,1485,0,0
-252,-461,0,0,0,0,0,0,0,0,0,-1,972,1485,0,0
-245,-461,0,0,0,0,0,0,0,0,0,-1,979,1485,0,0
-238,-461,0,0,0,0,0,0,0,0,0,-1,986,1485,0,0
-231,-461,0,0,0,0,0,0,0,0,0,-1,993,1485,0,0
-224,-461,0,0,0,0,0,0,0,0,0,-1,1000,1485,0,0
-217,-461,0,0,0,0,0,0,0,0,0,-1,1007,1485,0,0
-210,-461,0,0,0,0,0,0,0,0,0,-1,1014,1485,0,0
-203,-461,0,0,0,0,0,0,0,0,0,-1,1021,1485,0,0
-196,-461,0,0,0,0,0,0,0,0,0,-1,1028,1485,0,0
-189,-461,0,0,0,0,0,0,0,0,0,-1,1035,1485,0,0
-182,-461,0,0,0,0,0,0,0,0,0,-1,1042,1485,0,0
-175,-461,0,0,0,0,0,0,0,0,0,-1,1049,1485,0,0
-168,-461,0,0,0,0,0,0,0,0,0,-1,1056,1485,0,0
-161,-461,0,0,0,0,0,0,0,0,0,-1,1063,1485,0,0
-154,-461,0,0,0,0,0,0,0,0,0,-1,1070,1485,0,0
-147,-461,0,0,0,0,0,0,0,0,0,-1,1077,1485,0,0
-140,-461,0,0,0,0,0,0,0,0,0,-1,1084,1485,0,0
-133,-461,0,0,0,0,0,0,0,0,0,-1,1091,1485,0,0
-126,-461,0,0,0,0,0,0,0,0,0,-1,1098,1485,0,0
-119,-461,0,0,0,0,0,0,0,0,0,-1,1105,1485,0,0
-112,-461,0,0,0,0,0,0,0,0,0,-1,1112,1485,0,0
-105,-461,0,0,0,0,0,0,0,0,0,-1,1119,1485,0,0
-98,-461,0,0,0,0,0,0,0,0,0,-1,1126,1485,0,0
-91,-461,0,0,0,0,0,0,0,0,0,-1,1133,1485,0,0
-84,-461,0,0,0,0,0,0,0,0,0,-1,1140,1485,0,0
-77,-461,0,0,0,0,0,0,0,0,0,-1,1147,1485,0,0
-70,-461,0,0,0,0,0,0,0,0,0,-1,1154,1485,0,0
-63,-461,0,0,0,0,0,0,0,0,0,-1,1161,1485,0,0
-56,-461,0,0,0,0,0,0,0,0,0,-1,1168,1485,0,0
-49,-461,0,0,0,0,0,0,0,0,0,-1,1175,1485,0,0
-42,-461,0,0,0,0,0,0,0,0,0,-1,1182,1485,0,0
-35,-461,0,0,0,0,0,0,0,0,0,-1,1189,1485,0,0
-28,-461,0,0,0,0,0,0,0,0,0,-1,1196,1485,0,0
-21,-461,0,0,0,0,0,0,0,0,0,-1,1203,1485,0,0
-14,-461,0,0,0,0,0,0,0,0,0,-1,1210,1485,0,0
-7,-461,0,0,0,0,0,0,0,0,0,-1,1217,1485,0,0
0,-461,0,0,0,0,0,0,0,0,0,-1,1224,1485,0,0
7,-461,0,0,0,0,0,0,0,0,0,-1,1231,1485,0,0
14,-461,0,0,0,0,0,0,0,0,0,-1,1238,1485,0,0
21,-461,0,0,0,0,0,0,0,0,0,-1,1245,1485,0,0
28,-461,0,0,0,0,0,0,0,0,0,-1,1252,1485,0,0
35,-461,0,0,0,0,0,0,0,0,0,-1,1259,1485,0,0
42,-461,0,0,0,0,0,0,0,0,0,-1,1266,1485,0,0
49,-461,0,0,0,0,0,0,0,0,0,-1,1273,1485,0,0
56,-461,0,0,0,0,0,0,0,0,0,-1,1280,1485,0,0
63,-461,0,0,0,0,0,0,0,0,0,-1,1287,1485,0,0
70,-461,0,0,0,0,0,0,0,0,0,-1,1294,1485,0,0
77,-461,0,0,0,0,0,0,0,0,0,-1,1301,1485,0,0
84,-461,0,0,0,0,0,0,0,0,0,-1,1308,1485,0,0
91,-461,0,0,0,0,0,0,0,0,0,-1,1315,1485,0,0
98,-461,0,0,0,0,0,0,0,0,0,-1,1322,1485,0,0
105,-461,0,0,0,0,0,0,0,0,0,-1,1329,1485,0,0
112,-461,0,0,0,0,0,0,0,0,0,-1,1336,1485,0,0
119,-461,0,0,0,0,0,0,0,0,0,-1,1343,1485,0,0
126,-461,0,0,0,0,0,0,0,0,0,-1,1350,1485,0,0
133,-461,0,0,0,0,0,0,0,0,0,-1,1357,1485,0,0
140,-461,0,0,0,0,0,0,0,0,0,-1,1364,1485,0,0
147,-461,0,0,0,0,0,0,0,0,0,-1,1371,1485,0,0
154,-461,0,0,0,0,0,0,0,0,0,-1,1378,1485,0,0
161,-461,0,0,0,0,0,0,0,0,0,-1,1385,1485,0,0
168,-461,0,0,0,0,0,0,0,0,0,-1,1392,1485,0,0
175,-461,0,0,0,0,0,0,0,0,0,-1,1399,1485,0,0
182,-461,0,0,0,0,0,0,0,0,0,-1,1406,1485,0,0
189,-461,0,0,0,0,0,0,0,0,0,-1,1413,1485,0,0
196,-461,0,0,0,0,0,0,0,0,0,-1,1420,1485,0,0
203,-461,0,0,0,0,0,0,0,0,0,-1,1427,1485,0,0
210,-461,0,0,0,0,0,0,0,0,0,-1,1434,1485,0,0
217,-461,0,0,0,0,0,0,0,0,0,-1,1441,1485,0,0
224,-461,0,0,0,0,0,0,0,0,0,-1,1448,1485,0,0
231,-461,0,0,0,0,0,0,0,0,0,-1,1455,1485,0,0
238,-461,0,0,0,0,0,0,0,0,0,-1,1462,1485,0,0
245,-461,0,0,0,0,0,0,0,0,0,-1,1469,1485,0,0
252,-461,0,0,0,0,0,0,0,0,0,-1,1476,1485,0,0
259,-461,0,0,0,0,0,0,0,0,0,-1,1483,1485,0,0
266,-461,0,0,0,0,0,0,0,0,0,-1,1490,1485,0,0
273,-461,0,0,0,0,0,0,0,0,0,-1,1497,1485,0,0
280,-461,0,0,0,0,0,0,0,0,0,-1,1504,1485,0,0
287,-461,0,0,0,0,0,0,0,0,0,-1,1511,1485,0,0
294,-461,0,0,0,0,0,0,0,0,0,-1,1518,1485,0,0
301,-461,0,0,0,0,0,0,0,0,0,-1,1525,1485,0,0
308,-461,0,0,0,0,0,0,0,0,0,-1,1532,1485,0,0
315,-461,0,0,0,0,0,0,0,0,0,-1,1539,1485,0,0
322,-461,0,0,0,0,0,0,0,0,0,-1,1546,1485,0,0
329,-461,0,0,0,0,0,0,0,0,0,-1,1553,1485,0,0
336,-461,0,0,0,0,0,0,0,0,0,-1,1560,1485,0,0
343,-461,0,0,0,0,0,0,0,0,0,-1,1567,1485,0,0
350,-461,0,0,0,0,0,0,0,0,0,-1,1574,1485,0,0
357,-461,0,0,0,0,0,0,0,0,0,-1,1581,1485,0,0
364,-461,0,0,0,0,0,0,0,0,0,-1,1588,1485,0,0
371,-461,0,0,0,0,0,0,0,0,0,-1,1595,1485,0,0
378,-461,0,0,0,0,0,0,0,0,0,-1,1602,1485,0,0
385,-461,0,0,0,0,0,0,0,0,0,-1,1609,1485,0,0
392,-461,0,0,0,0,0,0,0,0,0,-1,1616,1485,0,0
399,-461,0,0,0,0,0,0,0,0,0,-1,1623,1485,0,0
406,-461,0,0,0,0,0,0,0,0,0,-1,1630,1485,0,0
413,-461,0,0,0,0,0,0,0,0,0,-1,1637,1485,0,0
420,-461,0,0,0,0,0,0,0,0,0,-1,1644,1485,0,0
427,-461,0,0,0,0,0,0,0,0,0,-1,1651,1485,0,0
434,-461,0,0,0,0,0,0,0,0,0,-1,1658,1485,0,0
441,-461,0,0,0,0,0,0,0,0,0,-1,1665,1485,0,0
448,-461,0,0,0,0,0,0,0,0,0,-1,1672,1485,0,0
455,-461,0,0,0,0,0,0,0,0,0,-1,1679,1485,0,0
462,-461,0,0,0,0,0,0,0,0,0,-1,1686,1485,0,0
469,-461,0,0,0,0,0,0,0,0,0,-1,1693,1485,0,0
476,-461,14.1906,0.690552,0,0,0,0,0,0,0,-1,1700,1485,14.1906,-0.690525
483,-461,10.6361,3.09106,0,0,0,0,0,0,0,-1,1707,1485,10.6361,-3.091
490,-461,17.9972,0.665894,0,0,0,0,0,0,0,-1,1714,1485,17.9972,-0.665876
497,-461,16.6829,1.87732,0,0,0,0,0,0,0,-1,1721,1485,16.6828,-1.87736
504,-461,15.3884,3.09216,0,0,0,0,0,0,0,-1,1728,1485,15.3885,-3.09212
511,-461,15.4292,14.3512,0,0,0,0,0,0,0,-1,1735,1485,15.4292,-14.3512
518,-461,14.8081,10.0085,0,0,0,0,0,0,0,-1,1742,1485,14.8081,-10.0086
525,-461,14.0022,10.8033,0,0,0,0,0,0,0,-1,1749,1485,14.0022,-10.8033
532,-461,17.1704,14.077,0,0,0,0,0,0,0,-1,1756,1485,17.1704,-14.077
539,-461,17.0229,14.7386,0,0,0,0,0,0,0,-1,1763,1485,17.0229,-14.7387
546,-461,16.2106,14.1372,0,0,0,0,0,0,0,-1,1770,1485,16.2106,-14.1372
553,-461,25.9354,24.2889,0,0,0,0,0,0,0,-1,1777,1485,25.9354,-24.2889
560,-461,31.9857,29.5372,0,0,0,0,0,0,0,-1,1784,1485,31.9857,-29.5373
567,-461,31.9949,28.6685,0.00789116,0.0014861,-0.00187408,0.00839921,0.000978049,-0.264729,0.0053036,0.0358888,1791,1485,31.9949,-28.6684
574,-461,32.0043,27.9751,0.00632005,0.00134721,-0.00173994,0.00686837,0.000798886,-0.305289,0.00433721,0.0324435,1798,1485,32.0043,-27.9751
581,-461,31.9883,27.197,0.00510423,0.00125498,-0.0016419,0.00570943,0.000649778,-0.353146,0.00360925,0.0199301,1805,1485,31.9883,-27.1971
588,-461,31.9468,26.4762,0.00408676,0.00108511,-0.00149618,0.00470514,0.00046673,-0.391925,0.00299334,0.0123865,1812,1485,31.9468,-26.4762
595,-461,31.866,25.7262,0.00327797,0.000901103,-0.00129612,0.00384803,0.000331046,-0.414356,0.00246243,0.00969066,1819,1485,31.8659,-25.7262
602,-461,31.8347,24.9358,0.00262776,0.000673909,-0.001043,0.0030799,0.000221771,-0.409048,0.00198348,0.0099546,1826,1485,31.8347,-24.9357
609,-461,31.8123,24.1608,0.00211273,0.00052441,-0.000746909,0.00240878,0.000228357,-0.377374,0.0015354,0.010967,1833,1485,31.8122,-24.1607
616,-461,31.7704,23.4076,0.00169281,0.000489092,-0.000460796,0.00184895,0.000332949,-0.326712,0.001138,0.0129506,1840,1485,31.7704,-23.4076
623,-461,31.7579,22.689,0.0014498,0.000360622,-6.37911e-05,0.00145353,0.000356899,-0.0583021,0.00087467,0.0173376,1847,1485,31.758,-22.689
630,-461,31.7249,21.9641,0.00129,0.00028359,0.000395397,0.00142676,0.000146831,0.332999,0.000906201,0.0182815,1854,1485,31.7249,-21.9641
637,-461,31.6626,21.193,0.00121199,0.000400777,0.000821245,0.00172233,-0.000109565,0.556024,0.00118643,0.0171167,1861,1485,31.6626,-21.193
644,-461,31.7311,20.5076,0.00116357,0.000822143,0.00114665,0.00215214,-0.000166428,0.7115,0.00149333,0.0379502,1868,1485,31.7311,-20.5076
651,-461,31.8713,19.7412,0,0,0,0,0,0,0,-1,1875,1485,31.8714,-19.7412
658,-461,16.8987,10.1084,0,0,0,0,0,0,0,-1,1882,1485,16.8986,-10.1084
665,-461,17.2638,9.81384,0,0,0,0,0,0,0,-1,1889,1485,17.2638,-9.81385
672,-461,14.4877,6.89429,0,0,0,0,0,0,0,-1,1896,1485,14.4876,-6.89431
679,-461,10.0535,2.16321,0,0,0,0,0,0,0,-1,1903,1485,10.0535,-2.16317
686,-461,10.8195,1.84192,0,0,0,0,0,0,0,-1,1910,1485,10.8194,-1.84195
693,-461,0,0,0,0,0,0,0,0,0,-1,1917,1485,0,0
700,-461,0,0,0,0,0,0,0,0,0,-1,1924,1485,0,0
707,-461,0,0,0,0,0,0,0,0,0,-1,1931,1485,0,0
714,-461,0,0,0,0,0,0,0,0,0,-1,1938,1485,0,0
721,-461,0,0,0,0,0,0,0,0,0,-1,1945,1485,0,0
728,-461,0,0,0,0,0,0,0,0,0,-1,1952,1485,0,0
735,-461,0,0,0,0,0,0,0,0,0,-1,1959,1485,0,0
742,-461,0,0,0,0,0,0,0,0,0,-1,1966,1485,0,0
749,-461,0,0,0,0,0,0,0,0,0,-1,1973,1485,0,0
756,-461,0,0,0,0,0,0,0,0,0,-1,1980,1485,0,0
763,-461,0,0,0,0,0,0,0,0,0,-1,1987,1485,0,0
770,-461,0,0,0,0,0,0,0,0,0,-1,1994,1485,0,0
777,-461,0,0,0,0,0,0,0,0,0,-1,2001,1485,0,0
784,-461,0,0,0,0,0,0,0,0,0,-1,2008,1485,0,0
791,-461,0,0,0,0,0,0,0,0,0,-1,2015,1485,0,0
798,-461,0,0,0,0,0,0,0,0,0,-1,2022,1485,0,0
805,-461,0,0,0,0,0,0,0,0,0,-1,2029,1485,0,0
812,-461,0,0,0,0,0,0,0,0,0,-1,2036,1485,0,0
-700,-468,0,0,0,0,0,0,0,0,0,-1,524,1492,0,0
-693,-468,0,0,0,0,0,0,0,0,0,-1,531,1492,0,0
-686,-468,0,0,0,0,0,0,0,0,0,-1,538,1492,0,0
-679,-468,0,0,0,0,0,0,0,0,0,-1,545,1492,0,0
-672,-468,0,0,0,0,0,0,0,0,0,-1,552,1492,0,0
-665,-468,0,0,0,0,0,0,0,0,0,-1,559,1492,0,0
-658,-468,0,0,0,0,0,0,0,0,0,-1,566,1492,0,0
-651,-468,0,0,0,0,0,0,0,0,0,-1,573,1492,0,0
-644,-468,0,0,0,0,0,0,0,0,0,-1,580,1492,0,0
-637,-468,0,0,0,0,0,0,0,0,0,-1,587,1492,0,0
-630,-468,0,0,0,0,0,0,0,0,0,-1,594,1492,0,0
-623,-468,0,0,0,0,0,0,0,0,0,-1,601,1492,0,0
-616,-468,0,0,0,0,0,0,0,0,0,-1,608,1492,0,0
-609,-468,0,0,0,0,0,0,0,0,0,-1,615,1492,0,0
-602,-468,0,0,0,0,0,0,0,0,0,-1,622,1492,0,0
-595,-468,0,0,0,0,0,0,0,0,0,-1,629,1492,0,0
-588,-468,0,0,0,0,0,0,0,0,0,-1,636,1492,0,0
-581,-468,0,0,0,0,0,0,0,0,0,-1,643,1492,0,0
-574,-468,0,0,0,0,0,0,0,0,0,-1,650,1492,0,0
-567,-468,-11.2603,1.8042,0,0,0,0,0,0,0,-1,657,1492,-11.2603,-1.80424
-560,-468,-8.77441,2.23694,0,0,0,0,0,0,0,-1,664,1492,-8.77443,-2.23692
-553,-468,-5.94061,9.26318,0,0,0,0,0,0,0,-1,671,1492,-5.94062,-9.26322
-546,-468,-10.47,5.43237,0,0,0,0,0,0,0,-1,678,1492,-10.47,-5.4324
-539,-468,-10.2468,5.45203,0,0,0,0,0,0,0,-1,685,1492,-10.2468,-5.45197
-532,-468,-8.39795,6.02783,0,0,0,0,0,0,0,-1,692,1492,-8.39793,-6.02789
-525,-468,-6.59332,7.15405,0,0,0,0,0,0,0,-1,699,1492,-6.59331,-7.15411
-518,-468,-6.33588,8.65393,0,0,0,0,0,0,0,-1,706,1492,-6.33588,-8.65397
-511,-468,-8.05835,13.8282,0,0,0,0,0,0,0,-1,713,1492,-8.05835,-13.8283
-504,-468,-13.1371,20.5114,0,0,0,0,0,0,0,-1,720,1492,-13.1371,-20.5113
-497,-468,-13.0443,21.3925,0.00428808,0.00388566,0.00485599,0.00894703,-0.00077329,0.764693,0.00623845,0.0326044,727,1492,-13.0443,-21.3925
-490,-468,-13.0396,22.3149,0.00302744,0.00260841,0.00348776,0.00631198,-0.000676125,0.755399,0.00445051,0.00837262,734,1492,-13.0396,-22.315
-483,-468,-13.0916,23.1075,0.00208537,0.00159521,0.00235456,0.00420757,-0.000526992,0.733542,0.0029962,0.00927291,741,1492,-13.0915,-23.1076
-476,-468,-13.1281,23.8962,0.00155253,0.00106404,0.00166432,0.00299043,-0.000373863,0.712542,0.00212921,0.0103614,748,1492,-13.1281,-23.8963
-469,-468,-13.1588,24.6914,0.00136322,0.000960398,0.00133727,0.00251416,-0.000190545,0.710653,0.0017431,0.0152178,755,1492,-13.1587,-24.6914
-462,-468,-13.1795,25.4688,0.00149118,0.00122242,0.00132793,0.00269152,2.20875e-05,0.734972,0.00178703,0.0263029,762,1492,-13.1795,-25.4688
-455,-468,-13.2383,26.2063,0.00192585,0.00183029,0.001656,0.00353476,0.000221378,0.770977,0.00228629,0.0266302,769,1492,-13.2383,-26.2063
-448,-468,-13.2881,27.0313,0.00276416,0.00303272,0.00248322,0.00538528,0.000411595,0.812409,0.00346116,0.0155472,776,1492,-13.2881,-27.0313
-441,-468,-13.307,27.7985,0.00389803,0.00457947,0.00363145,0.00788615,0.00059136,0.832174,0.00507182,0.0171648,783,1492,-13.307,-27.7985
-434,-468,-13.2521,28.7383,0.00535887,0.00655548,0.00518214,0.0111737,0.000740612,0.842871,0.00721497,0.0444097,790,1492,-13.2521,-28.7383
-427,-468,-13.2314,29.7208,0,0,0,0,0,0,0,-1,797,1492,-13.2315,-29.7208
-420,-468,-7.57581,22.0538,0,0,0,0,0,0,0,-1,804,1492,-7.57582,-22.0538
-413,-468,-5.30328,17.3519,0,0,0,0,0,0,0,-1,811,1492,-5.30329,-17.352
-406,-468,-2.2356,9.396,0,0,0,0,0,0,0,-1,818,1492,-2.2356,-9.396
-399,-468,-0.940369,8.1936,0,0,0,0,0,0,0,-1,825,1492,-0.940365,-8.19357
-392,-468,-0.35144,8.14673,0,0,0,0,0,0,0,-1,832,1492,-0.351449,-8.14674
-385,-468,0.465759,5.35864,0,0,0,0,0,0,0,-1,839,1492,0.465732,-5.35864
-378,-468,1.99835,3.25391,0,0,0,0,0,0,0,-1,846,1492,1.99837,-3.2539
-371,-468,-0.31842,3.1532,0,0,0,0,0,0,0,-1,853,1492,-0.318441,-3.15324
-364,-468,-0.966736,2.14563,0,0,0,0,0,0,0,-1,860,1492,-0.966735,-2.14557
-357,-468,-3.06787,3.22742,0,0,0,0,0,0,0,-1,867,1492,-3.06784,-3.2274
-350,-468,-3.18658,4.12659,0,0,0,0,0,0,0,-1,874,1492,-3.18659,-4.12658
-343,-468,0,0,0,0,0,0,0,0,0,-1,881,1492,0,0
-336,-468,0,0,0,0,0,0,0,0,0,-1,888,1492,0,0
-329,-468,0,0,0,0,0,0,0,0,0,-1,895,1492,0,0
-322,-468,0,0,0,0,0,0,0,0,0,-1,902,1492,0,0
-315,-468,0,0,0,0,0,0,0,0,0,-1,909,1492,0,0
-308,-468,0,0,0,0,0,0,0,0,0,-1,916,1492,0,0
-301,-468,0,0,0,0,0,0,0,0,0,-1,923,1492,0,0
-294,-468,0,0,0,0,0,0,0,0,0,-1,930,1492,0,0
-287,-468,0,0,0,0,0,0,0,0,0,-1,937,1492,0,0
-280,-468,0,0,0,0,0,0,0,0,0,-1,944,1492,0,0
-273,-468,0,0,0,0,0,0,0,0,0,-1,951,1492,0,0
-266,-468,0,0,0,0,0,0,0,0,0,-1,958,1492,0,0
-259,-468,0,0,0,0,0,0,0,0,0,-1,965,1492,0,0
-252,-468,0,0,0,0,0,0,0,0,0,-1,972,1492,0,0
-245,-468,0,0,0,0,0,0,0,0,0,-1,979,1492,0,0
-238,-468,0,0,0,0,0,0,0,0,0,-1,986,1492,0,0
-231,-468,0,0,0,0,0,0,0,0,0,-1,993,1492,0,0
-224,-468,0,0,0,0,0,0,0,0,0,-1,1000,1492,0,0
-217,-468,0,0,0,0,0,0,0,0,0,-1,1007,1492,0,0
-210,-468,0,0,0,0,0,0,0,0,0,-1,1014,1492,0,0
-203,-468,0,0,0,0,0,0,0,0,0,-1,1021,1492,0,0
-196,-468,0,0,0,0,0,0,0,0,0,-1,1028,1492,0,0
-189,-468,0,0,0,0,0,0,0,0,0,-1,1035,1492,0,0
-182,-468,0,0,0,0,0,0,0,0,0,-1,1042,1492,0,0
-175,-468,0,0,0,0,0,0,0,0,0,-1,1049,1492,0,0
-168,-468,0,0,0,0,0,0,0,0,0,-1,1056,1492,0,0
-161,-468,0,0,0,0,0,0,0,0,0,-1,1063,1492,0,0
-154,-468,0,0,0,0,0,0,0,0,0,-1,1070,1492,0,0
-147,-468,0,0,0,0,0,0,0,0,0,-1,1077,1492,0,0
-140,-468,0,0,0,0,0,0,0,0,0,-1,1084,1492,0,0
-133,-468,0,0,0,0,0,0,0,0,0,-1,1091,1492,0,0
-126,-468,0,0,0,0,0,0,0,0,0,-1,1098,1492,0,0
-119,-468,0,0,0,0,0,0,0,0,0,-1,1105,1492,0,0
-112,-468,0,0,0,0,0,0,0,0,0,-1,1112,1492,0,0
-105,-468,0,0,0,0,0,0,0,0,0,-1,1119,1492,0,0
-98,-468,0,0,0,0,0,0,0,0,0,-1,1126,1492,0,0
-91,-468,0,0,0,0,0,0,0,0,0,-1,1133,1492,0,0
-84,-468,0,0,0,0,0,0,0,0,0,-1,1140,1492,0,0
-77,-468,0,0,0,0,0,0,0,0,0,-1,1147,1492,0,0
-70,-468,0,0,0,0,0,0,0,0,0,-1,1154,1492,0,0
-63,-468,0,0,0,0,0,0,0,0,0,-1,1161,1492,0,0
-56,-468,0,0,0,0,0,0,0,0,0,-1,1168,1492,0,0
-49,-468,0,0,0,0,0,0,0,0,0,-1,1175,1492,0,0
-42,-468,0,0,0,0,0,0,0,0,0,-1,1182,1492,0,0
-35,-468,0,0,0,0,0,0,0,0,0,-1,1189,1492,0,0
-28,-468,0,0,0,0,0,0,0,0,0,-1,1196,1492,0,0
-21,-468,0,0,0,0,0,0,0,0,0,-1,1203,1492,0,0
-14,-468,0,0,0,0,0,0,0,0,0,-1,1210,1492,0,0
-7,-468,0,0,0,0,0,0,0,0,0,-1,1217,1492,0,0
0,-468,0,0,0,0,0,0,0,0,0,-1,1224,1492,0,0
7,-468,0,0,0,0,0,0,0,0,0,-1,1231,1492,0,0
14,-468,0,0,0,0,0,0,0,0,0,-1,1238,1492,0,0
21,-468,0,0,0,0,0,0,0,0,0,-1,1245,1492,0,0
28,-468,0,0,0,0,0,0,0,0,0,-1,1252,1492,0,0
35,-468,0,0,0,0,0,0,0,0,0,-1,1259,1492,0,0
42,-468,0,0,0,0,0,0,0,0,0,-1,1266,1492,0,0
49,-468,0,0,0,0,0,0,0,0,0,-1,1273,1492,0,0
56,-468,0,0,0,0,0,0,0,0,0,-1,1280,1492,0,0
63,-468,0,0,0,0,0,0,0,0,0,-1,1287,1492,0,0
70,-468,0,0,0,0,0,0,0,0,0,-1,1294,1492,0,0
77,-468,0,0,0,0,0,0,0,0,0,-1,1301,1492,0,0
84,-468,0,0,0,0,0,0,0,0,0,-1,1308,1492,0,0
91,-468,0,0,0,0,0,0,0,0,0,-1,1315,1492,0,0
98,-468,0,0,0,0,0,0,0,0,0,-1,1322,1492,0,0
105,-468,0,0,0,0,0,0,0,0,0,-1,1329,1492,0,0
112,-468,0,0,0,0,0,0,0,0,0,-1,1336,1492,0,0
119,-468,0,0,0,0,0,0,0,0,0,-1,1343,1492,0,0
126,-468,0,0,0,0,0,0,0,0,0,-1,1350,1492,0,0
133,-468,0,0,0,0,0,0,0,0,0,-1,1357,1492,0,0
140,-468,0,0,0,0,0,0,0,0,0,-1,1364,1492,0,0
147,-468,0,0,0,0,0,0,0,0,0,-1,1371,1492,0,0
154,-468,0,0,0,0,0,0,0,0,0,-1,1378,1492,0,0
161,-468,0,0,0,0,0,0,0,0,0,-1,1385,1492,0,0
168,-468,0,0,0,0,0,0,0,0,0,-1,1392,1492,0,0
175,-468,0,0,0,0,0,0,0,0,0,-1,1399,1492,0,0
182,-468,0,0,0,0,0,0,0,0,0,-1,1406,1492,0,0
189,-468,0,0,0,0,0,0,0,0,0,-1,1413,1492,0,0
196,-468,0,0,0,0,0,0,0,0,0,-1,1420,1492,0,0
203,-468,0,0,0,0,0,0,0,0,0,-1,1427,1492,0,0
210,-468,0,0,0,0,0,0,0,0,0,-1,1434,1492,0,0
217,-468,0,0,0,0,0,0,0,0,0,-1,1441,1492,0,0
224,-468,0,0,0,0,0,0,0,0,0,-1,1448,1492,0,0
231,-468,0,0,0,0,0,0,0,0,0,-1,1455,1492,0,0
238,-468,0,0,0,0,0,0,0,0,0,-1,1462,1492,0,0
245,-468,0,0,0,0,0,0,0,0,0,-1,1469,1492,0,0
252,-468,0,0,0,0,0,0,0,0,0,-1,1476,1492,0,0
259,-468,0,0,0,0,0,0,0,0,0,-1,1483,1492,0,0
266,-468,0,0,0,0,0,0,0,0,0,-1,1490,1492,0,0
273,-468,0,0,0,0,0,0,0,0,0,-1,1497,1492,0,0
280,-468,0,0,0,0,0,0,0,0,0,-1,1504,1492,0,0
287,-468,0,0,0,0,0,0,0,0,0,-1,1511,1492,0,0
294,-468,0,0,0,0,0,0,0,0,0,-1,1518,1492,0,0
301,-468,0,0,0,0,0,0,0,0,0,-1,1525,1492,0,0
308,-468,0,0,0,0,0,0,0,0,0,-1,1532,1492,0,0
315,-468,0,0,0,0,0,0,0,0,0,-1,1539,1492,0,0
322,-468,0,0,0,0,0,0,0,0,0,-1,1546,1492,0,0
329,-468,0,0,0,0,0,0,0,0,0,-1,1553,1492,0,0
336,-468,0,0,0,0,0,0,0,0,0,-1,1560,1492,0,0
343,-468,0,0,0,0,0,0,0,0,0,-1,1567,1492,0,0
350,-468,0,0,0,0,0,0,0,0,0,-1,1574,1492,0,0
357,-468,0,0,0,0,0,0,0,0,0,-1,1581,1492,0,0
364,-468,0,0,0,0,0,0,0,0,0,-1,1588,1492,0,0
371,-468,0,0,0,0,0,0,0,0,0,-1,1595,1492,0,0
378,-468,0,0,0,0,0,0,0,0,0,-1,1602,1492,0,0
385,-468,0,0,0,0,0,0,0,0,0,-1,1609,1492,0,0
392,-468,0,0,0,0,0,0,0,0,0,-1,1616,1492,0,0
399,-468,0,0,0,0,0,0,0,0,0,-1,1623,1492,0,0
406,-468,0,0,0,0,0,0,0,0,0,-1,1630,1492,0,0
413,-468,0,0,0,0,0,0,0,0,0,-1,1637,1492,0,0
420,-468,0,0,0,0,0,0,0,0,0,-1,1644,1492,0,0
427,-468,0,0,0,0,0,0,0,0,0,-1,1651,1492,0,0
434,-468,0,0,0,0,0,0,0,0,0,-1,1658,1492,0,0
441,-468,0,0,0,0,0,0,0,0,0,-1,1665,1492,0,0
448,-468,0,0,0,0,0,0,0,0,0,-1,1672,1492,0,0
455,-468,0,0,0,0,0,0,0,0,0,-1,1679,1492,0,0
462,-468,0,0,0,0,0,0,0,0,0,-1,1686,1492,0,0
469,-468,15.6879,1.2677,0,0,0,0,0,0,0,-1,1693,1492,15.6879,-1.26772
476,-468,14.9318,1.61865,0,0,0,0,0,0,0,-1,1700,1492,14.9318,-1.61869
483,-468,11.265,4.64795,0,0,0,0,0,0,0,-1,1707,1492,11.265,-4.64798
490,-468,12.1316,3.51624,0,0,0,0,0,0,0,-1,1714,1492,12.1316,-3.51628
497,-468,16.5355,3.14587,0,0,0,0,0,0,0,-1,1721,1492,16.5356,-3.14583
504,-468,15.0642,4.10437,0,0,0,0,0,0,0,-1,1728,1492,15.0643,-4.10431
511,-468,15.6877,9.4801,0,0,0,0,0,0,0,-1,1735,1492,15.6878,-9.48007
518,-468,13.759,11.0887,0,0,0,0,0,0,0,-1,1742,1492,13.759,-11.0887
525,-468,16.6531,14.2238,0,0,0,0,0,0,0,-1,1749,1492,16.653,-14.2237
532,-468,16.9696,15.9641,0,0,0,0,0,0,0,-1,1756,1492,16.9696,-15.9641
539,-468,21.5308,20.7551,0,0,0,0,0,0,0,-1,1763,1492,21.5308,-20.7551
546,-468,25.5796,25.0283,0,0,0,0,0,0,0,-1,1770,1492,25.5796,-25.0284
553,-468,31.0858,30.2308,0,0,0,0,0,0,0,-1,1777,1492,31.0858,-30.2308
560,-468,31.2396,29.5037,0.00905186,0.00254499,-0.00267544,0.0100106,0.00158621,-0.344108,0.0062129,0.0441652,1784,1492,31.2396,-29.5037
567,-468,31.2236,28.8184,0.00701333,0.00171609,-0.00188414,0.00761512,0.0011143,-0.309156,0.00474909,0.0237977,1791,1492,31.2236,-28.8184
574,-468,31.2478,28.0029,0.00559764,0.00136581,-0.00163056,0.00615302,0.00081043,-0.328282,0.00386033,0.0173432,1798,1492,31.2478,-28.0029
581,-468,31.2228,27.265,0.00446761,0.00112947,-0.00144938,0.00500908,0.000587997,-0.357532,0.00316167,0.0178334,1805,1492,31.2228,-27.2651
588,-468,31.1602,26.5371,0.00357648,0.000916794,-0.0012911,0.00410013,0.000393149,-0.385308,0.00261225,0.0142785,1812,1492,31.1601,-26.5372
595,-468,31.123,25.76,0.00292041,0.000715692,-0.00109049,0.00336865,0.000267447,-0.389994,0.00216214,0.011043,1819,1492,31.1231,-25.76
602,-468,31.0941,24.9783,0.00238589,0.000525917,-0.000880622,0.00273667,0.000175134,-0.37907,0.00176896,0.00944881,1826,1492,31.0941,-24.9783
609,-468,31.0428,24.2045,0.00196978,0.00042713,-0.000622066,0.00218936,0.000207541,-0.339344,0.00139555,0.00991991,1833,1492,31.0428,-24.2045
616,-468,30.9993,23.4435,0.0016481,0.000406782,-0.00032465,0.00172788,0.000327002,-0.240967,0.00105987,0.00967031,1840,1492,30.9993,-23.4434
623,-468,30.9799,22.7114,0.00145837,0.000281746,0.000126088,0.00147173,0.000268386,0.105563,0.000905057,0.0113559,1847,1492,30.9799,-22.7114
630,-468,30.9573,21.9548,0.00129647,0.000211106,0.000702932,0.00164183,-0.000134253,0.456674,0.00114194,0.0124966,1854,1492,30.9573,-21.9548
637,-468,30.9235,21.1698,0.00117569,0.000311051,0.00131922,0.00213163,-0.000644881,0.627058,0.00167787,0.0191473,1861,1492,30.9235,-21.1698
644,-468,30.8199,20.5518,0.000987647,0.000675672,0.00194661,0.00278451,-0.00112119,0.745417,0.00232212,0.0380455,1868,1492,30.82,-20.5518
651,-468,30.8434,19.8029,0,0,0,0,0,0,0,-1,1875,1492,30.8434,-19.8029
658,-468,16.4969,10.0774,0,0,0,0,0,0,0,-1,1882,1492,16.497,-10.0774
665,-468,15.4673,8.59546,0,0,0,0,0,0,0,-1,1889,1492,15.4672,-8.59548
672,-468,9.96814,3.61133,0,0,0,0,0,0,0,-1,1896,1492,9.96817,-3.61139
679,-468,11.2191,1.91968,0,0,0,0,0,0,0,-1,1903,1492,11.2191,-1.91965
686,-468,11.9252,1.42285,0,0,0,0,0,0,0,-1,1910,1492,11.9252,-1.42291
693,-468,0,0,0,0,0,0,0,0,0,-1,1917,1492,0,0
700,-468,0,0,0,0,0,0,0,0,0,-1,1924,1492,0,0
707,-468,0,0,0,0,0,0,0,0,0,-1,1931,1492,0,0
714,-468,0,0,0,0,0,0,0,0,0,-1,1938,1492,0,0
721,-468,0,0,0,0,0,0,0,0,0,-1,1945,1492,0,0
728,-468,0,0,0,0,0,0,0,0,0,-1,1952,1492,0,0
735,-468,0,0,0,0,0,0,0,0,0,-1,1959,1492,0,0
742,-468,0,0,0,0,0,0,0,0,0,-1,1966,1492,0,0
749,-468,0,0,0,0,0,0,0,0,0,-1,1973,1492,0,0
756,-468,0,0,0,0,0,0,0,0,0,-1,1980,1492,0,0
763,-468,0,0,0,0,0,0,0,0,0,-1,1987,1492,0,0
770,-468,0,0,0,0,0,0,0,0,0,-1,1994,1492,0,0
777,-468,0,0,0,0,0,0,0,0,0,-1,2001,1492,0,0
784,-468,0,0,0,0,0,0,0,0,0,-1,2008,1492,0,0
791,-468,0,0,0,0,0,0,0,0,0,-1,2015,1492,0,0
798,-468,0,0,0,0,0,0,0,0,0,-1,2022,1492,0,0
805,-468,0,0,0,0,0,0,0,0,0,-1,2029,1492,0,0
812,-468,0,0,0,0,0,0,0,0,0,-1,2036,1492,0,0
-700,-475,0,0,0,0,0,0,0,0,0,-1,524,1499,0,0
-693,-475,0,0,0,0,0,0,0,0,0,-1,531,1499,0,0
-686,-475,0,0,0,0,0,0,0,0,0,-1,538,1499,0,0
-679,-475,0,0,0,0,0,0,0,0,0,-1,545,1499,0,0
-672,-475,0,0,0,0,0,0,0,0,0,-1,552,1499,0,0
-665,-475,0,0,0,0,0,0,0,0,0,-1,559,1499,0,0
-658,-475,0,0,0,0,0,0,0,0,0,-1,566,1499,0,0
-651,-475,0,0,0,0,0,0,0,0,0,-1,573,1499,0,0
-644,-475,0,0,0,0,0,0,0,0,0,-1,580,1499,0,0
-637,-475,0,0,0,0,0,0,0,0,0,-1,587,1499,0,0
-630,-475,0,0,0,0,0,0,0,0,0,-1,594,1499,0,0
-623,-475,0,0,0,0,0,0,0,0,0,-1,601,1499,0,0
-616,-475,0,0,0,0,0,0,0,0,0,-1,608,1499,0,0
-609,-475,0,0,0,0,0,0,0,0,0,-1,615,1499,0,0
-602,-475,0,0,0,0,0,0,0,0,0,-1,622,1499,0,0
-595,-475,0,0,0,0,0,0,0,0,0,-1,629,1499,0,0
-588,-475,0,0,0,0,0,0,0,0,0,-1,636,1499,0,0
-581,-475,0,0,0,0,0,0,0,0,0,-1,643,1499,0,0
-574,-475,0,0,0,0,0,0,0,0,0,-1,650,1499,0,0
-567,-475,0,0,0,0,0,0,0,0,0,-1,657,1499,0,0
-560,-475,-9.42731,9.29517,0,0,0,0,0,0,0,-1,664,1499,-9.42731,-9.29519
-553,-475,-8.15131,8.78369,0,0,0,0,0,0,0,-1,671,1499,-8.15131,-8.78367
-546,-475,-8.41254,8.20654,0,0,0,0,0,0,0,-1,678,1499,-8.41251,-8.20655
-539,-475,-4.7345,4.17419,0,0,0,0,0,0,0,-1,685,1499,-4.73449,-4.17418
-532,-475,-7.07379,4.25024,0,0,0,0,0,0,0,-1,692,1499,-7.07378,-4.2503
-525,-475,-6.13147,5.82166,0,0,0,0,0,0,0,-1,699,1499,-6.1315,-5.8216
-518,-475,-7.28784,9.31506,0,0,0,0,0,0,0,-1,706,1499,-7.28782,-9.315
-511,-475,-6.84851,12.4244,0,0,0,0,0,0,0,-1,713,1499,-6.84851,-12.4244
-504,-475,-8.80957,16.0863,0,0,0,0,0,0,0,-1,720,1499,-8.80954,-16.0862
-497,-475,-12.4292,21.2719,0,0,0,0,0,0,0,-1,727,1499,-12.4292,-21.2718
-490,-475,-12.2813,22.304,0.00277938,0.00219308,0.00380711,0.00630461,-0.00133214,0.746974,0.00471033,0.019545,734,1499,-12.2812,-22.304
-483,-475,-12.2869,23.1772,0.00177517,0.00106536,0.00249004,0.00393547,-0.00109495,0.71461,0.00305476,0.00917619,741,1499,-12.2869,-23.1773
-476,-475,-12.3161,23.9491,0.00124796,0.000512906,0.00168123,0.00260137,-0.000840498,0.677787,0.00207204,0.0107898,748,1499,-12.3161,-23.9491
-469,-475,-12.3696,24.7441,0.00110323,0.00045197,0.0013094,0.00212688,-0.000571683,0.663528,0.001642,0.0141768,755,1499,-12.3696,-24.7442
-462,-475,-12.3743,25.5311,0.00127086,0.000781724,0.00125572,0.00230561,-0.000253029,0.689222,0.00162798,0.0206214,762,1499,-12.3743,-25.5312
-455,-475,-12.4382,26.3219,0.00172034,0.00144408,0.00151902,0.00310749,5.69257e-05,0.740057,0.00205295,0.0179089,769,1499,-12.4381,-26.3219
-448,-475,-12.5128,27.0813,0.00250385,0.00264574,0.00220918,0.00478512,0.000364478,0.80145,0.00307579,0.0149766,776,1499,-12.5127,-27.0813
-441,-475,-12.5194,27.8381,0.00351414,0.00411627,0.00316239,0.00699189,0.000638511,0.832856,0.00446367,0.0161837,783,1499,-12.5194,-27.8381
-434,-475,-12.5541,28.6296,0.00476894,0.0059441,0.00443482,0.00983009,0.000882943,0.851261,0.00627981,0.0117452,790,1499,-12.5541,-28.6296
-427,-475,-12.4974,29.5859,0.00637789,0.00841863,0.00617382,0.0136558,0.00114069,0.867294,0.00874848,0.04488,797,1499,-12.4973,-29.586
-420,-475,-12.3581,30.5121,0,0,0,0,0,0,0,-1,804,1499,-12.3581,-30.512
-413,-475,-6.46777,20.8481,0,0,0,0,0,0,0,-1,811,1499,-6.46776,-20.8481
-406,-475,-2.56116,12.4956,0,0,0,0,0,0,0,-1,818,1499,-2.56116,-12.4956
-399,-475,-1.39667,6.1615,0,0,0,0,0,0,0,-1,825,1499,-1.39664,-6.16155
-392,-475,0.217163,8.61389,0,0,0,0,0,0,0,-1,832,1499,0.217167,-8.6139
-385,-475,1.18372,2.73999,0,0,0,0,0,0,0,-1,839,1499,1.18372,-2.73995
-378,-475,1.31409,2.90149,0,0,0,0,0,0,0,-1,846,1499,1.31411,-2.90151
-371,-475,2.3476,3.31116,0,0,0,0,0,0,0,-1,853,1499,2.34761,-3.31121
-364,-475,1.04462,9.05823,0,0,0,0,0,0,0,-1,860,1499,1.04461,-9.05825
-357,-475,-0.262756,7.97205,0,0,0,0,0,0,0,-1,867,1499,-0.262784,-7.97205
-350,-475,-5.16473,-1.27881,0,0,0,0,0,0,0,-1,874,1499,-5.16474,1.27884
-343,-475,-5.76923,-0.530518,0,0,0,0,0,0,0,-1,881,1499,-5.76923,0.530526
-336,-475,0,0,0,0,0,0,0,0,0,-1,888,1499,0,0
-329,-475,0,0,0,0,0,0,0,0,0,-1,895,1499,0,0
-322,-475,0,0,0,0,0,0,0,0,0,-1,902,1499,0,0
-315,-475,0,0,0,0,0,0,0,0,0,-1,909,1499,0,0
-308,-475,0,0,0,0,0,0,0,0,0,-1,916,1499,0,0
-301,-475,0,0,0,0,0,0,0,0,0,-1,923,1499,0,0
-294,-475,0,0,0,0,0,0,0,0,0,-1,930,1499,0,0
-287,-475,0,0,0,0,0,0,0,0,0,-1,937,1499,0,0
-280,-475,0,0,0,0,0,0,0,0,0,-1,944,1499,0,0
-273,-475,0,0,0,0,0,0,0,0,0,-1,951,1499,0,0
-266,-475,0,0,0,0,0,0,0,0,0,-1,958,1499,0,0
-259,-475,0,0,0,0,0,0,0,0,0,-1,965,1499,0,0
-252,-475,0,0,0,0,0,0,0,0,0,-1,972,1499,0,0
-245,-475,0,0,0,0,0,0,0,0,0,-1,979,1499,0,0
-238,-475,0,0,0,0,0,0,0,0,0,-1,986,1499,0,0
-231,-475,0,0,0,0,0,0,0,0,0,-1,993,1499,0,0
-224,-475,0,0,0,0,0,0,0,0,0,-1,1000,1499,0,0
-217,-475,0,0,0,0,0,0,0,0,0,-1,1007,1499,0,0
-210,-475,0,0,0,0,0,0,0,0,0,-1,1014,1499,0,0
-203,-475,0,0,0,0,0,0,0,0,0,-1,1021,1499,0,0
-196,-475,0,0,0,0,0,0,0,0,0,-1,1028,1499,0,0
-189,-475,0,0,0,0,0,0,0,0,0,-1,1035,1499,0,0
-182,-475,0,0,0,0,0,0,0,0,0,-1,1042,1499,0,0
-175,-475,0,0,0,0,0,0,0,0,0,-1,1049,1499,0,0
-168,-475,0,0,0,0,0,0,0,0,0,-1,1056,1499,0,0
-161,-475,0,0,0,0,0,0,0,0,0,-1,1063,1499,0,0
-154,-475,0,0,0,0,0,0,0,0,0,-1,1070,1499,0,0
-147,-475,0,0,0,0,0,0,0,0,0,-1,1077,1499,0,0
-140,-475,0,0,0,0,0,0,0,0,0,-1,1084,1499,0,0
-133,-475,0,0,0,0,0,0,0,0,0,-1,1091,1499,0,0
-126,-475,0,0,0,0,0,0,0,0,0,-1,1098,1499,0,0
-119,-475,0,0,0,0,0,0,0,0,0,-1,1105,1499,0,0
-112,-475,0,0,0,0,0,0,0,0,0,-1,1112,1499,0,0
-105,-475,0,0,0,0,0,0,0,0,0,-1,1119,1499,0,0
-98,-475,0,0,0,0,0,0,0,0,0,-1,1126,1499,0,0
-91,-475,0,0,0,0,0,0,0,0,0,-1,1133,1499,0,0
-84,-475,0,0,0,0,0,0,0,0,0,-1,1140,1499,0,0
-77,-475,0,0,0,0,0,0,0,0,0,-1,1147,1499,0,0
-70,-475,0,0,0,0,0,0,0,0,0,-1,1154,1499,0,0
-63,-475,0,0,0,0,0,0,0,0,0,-1,1161,1499,0,0
-56,-475,0,0,0,0,0,0,0,0,0,-1,1168,1499,0,0
-49,-475,0,0,0,0,0,0,0,0,0,-1,1175,1499,0,0
-42,-475,0,0,0,0,0,0,0,0,0,-1,1182,1499,0,0
-35,-475,0,0,0,0,0,0,0,0,0,-1,1189,1499,0,0
-28,-475,0,0,0,0,0,0,0,0,0,-1,1196,1499,0,0
-21,-475,0,0,0,0,0,0,0,0,0,-1,1203,1499,0,0
-14,-475,0,0,0,0,0,0,0,0,0,-1,1210,1499,0,0
-7,-475,0,0,0,0,0,0,0,0,0,-1,1217,1499,0,0
0,-475,0,0,0,0,0,0,0,0,0,-1,1224,1499,0,0
7,-475,0,0,0,0,0,0,0,0,0,-1,1231,1499,0,0
14,-475,0,0,0,0,0,0,0,0,0,-1,1238,1499,0,0
21,-475,0,0,0,0,0,0,0,0,0,-1,1245,1499,0,0
28,-475,0,0,0,0,0,0,0,0,0,-1,1252,1499,0,0
35,-475,0,0,0,0,0,0,0,0,0,-1,1259,1499,0,0
42,-475,0,0,0,0,0,0,0,0,0,-1,1266,1499,0,0
49,-475,0,0,0,0,0,0,0,0,0,-1,1273,1499,0,0
56,-475,0,0,0,0,0,0,0,0,0,-1,1280,1499,0,0
63,-475,0,0,0,0,0,0,0,0,0,-1,1287,1499,0,0
70,-475,0,0,0,0,0,0,0,0,0,-1,1294,1499,0,0
77,-475,0,0,0,0,0,0,0,0,0,-1,1301,1499,0,0
84,-475,0,0,0,0,0,0,0,0,0,-1,1308,1499,0,0
91,-475,0,0,0,0,0,0,0,0,0,-1,1315,1499,0,0
98,-475,0,0,0,0,0,0,0,0,0,-1,1322,1499,0,0
105,-475,0,0,0,0,0,0,0,0,0,-1,1329,1499,0,0
112,-475,0,0,0,0,0,0,0,0,0,-1,1336,1499,0,0
119,-475,0,0,0,0,0,0,0,0,0,-1,1343,1499,0,0
126,-475,0,0,0,0,0,0,0,0,0,-1,1350,1499,0,0
133,-475,0,0,0,0,0,0,0,0,0,-1,1357,1499,0,0
140,-475,0,0,0,0,0,0,0,0,0,-1,1364,1499,0,0
147,-475,0,0,0,0,0,0,0,0,0,-1,1371,1499,0,0
154,-475,0,0,0,0,0,0,0,0,0,-1,1378,1499,0,0
161,-475,0,0,0,0,0,0,0,0,0,-1,1385,1499,0,0
168,-475,0,0,0,0,0,0,0,0,0,-1,1392,1499,0,0
175,-475,0,0,0,0,0,0,0,0,0,-1,1399,1499,0,0
182,-475,0,0,0,0,0,0,0,0,0,-1,1406,1499,0,0
189,-475,0,0,0,0,0,0,0,0,0,-1,1413,1499,0,0
196,-475,0,0,0,0,0,0,0,0,0,-1,1420,1499,0,0
203,-475,0,0,0,0,0,0,0,0,0,-1,1427,1499,0,0
210,-475,0,0,0,0,0,0,0,0,0,-1,1434,1499,0,0
217,-475,0,0,0,0,0,0,0,0,0,-1,1441,1499,0,0
224,-475,0,0,0,0,0,0,0,0,0,-1,1448,1499,0,0
231,-475,0,0,0,0,0,0,0,0,0,-1,1455,1499,0,0
238,-475,0,0,0,0,0,0,0,0,0,-1,1462,1499,0,0
245,-475,0,0,0,0,0,0,0,0,0,-1,1469,1499,0,0
252,-475,0,0,0,0,0,0,0,0,0,-1,1476,1499,0,0
259,-475,0,0,0,0,0,0,0,0,0,-1,1483,1499,0,0
266,-475,0,0,0,0,0,0,0,0,0,-1,1490,1499,0,0
273,-475,0,0,0,0,0,0,0,0,0,-1,1497,1499,0,0
280,-475,0,0,0,0,0,0,0,0,0,-1,1504,1499,0,0
287,-475,0,0,0,0,0,0,0,0,0,-1,1511,1499,0,0
294,-475,0,0,0,0,0,0,0,0,0,-1,1518,1499,0,0
301,-475,0,0,0,0,0,0,0,0,0,-1,1525,1499,0,0
308,-475,0,0,0,0,0,0,0,0,0,-1,1532,1499,0,0
315,-475,0,0,0,0,0,0,0,0,0,-1,1539,1499,0,0
322,-475,0,0,0,0,0,0,0,0,0,-1,1546,1499,0,0
329,-475,0,0,0,0,0,0,0,0,0,-1,1553,1499,0,0
336,-475,0,0,0,0,0,0,0,0,0,-1,1560,1499,0,0
343,-475,0,0,0,0,0,0,0,0,0,-1,1567,1499,0,0
350,-475,0,0,0,0,0,0,0,0,0,-1,1574,1499,0,0
357,-475,0,0,0,0,0,0,0,0,0,-1,1581,1499,0,0
364,-475,0,0,0,0,0,0,0,0,0,-1,1588,1499,0,0
371,-475,0,0,0,0,0,0,0,0,0,-1,1595,1499,0,0
378,-475,0,0,0,0,0,0,0,0,0,-1,1602,1499,0,0
385,-475,0,0,0,0,0,0,0,0,0,-1,1609,1499,0,0
392,-475,0,0,0,0,0,0,0,0,0,-1,1616,1499,0,0
399,-475,0,0,0,0,0,0,0,0,0,-1,1623,1499,0,0
406,-475,0,0,0,0,0,0,0,0,0,-1,1630,1499,0,0
413,-475,0,0,0,0,0,0,0,0,0,-1,1637,1499,0,0
420,-475,0,0,0,0,0,0,0,0,0,-1,1644,1499,0,0
427,-475,0,0,0,0,0,0,0,0,0,-1,1651,1499,0,0
434,-475,0,0,0,0,0,0,0,0,0,-1,1658,1499,0,0
441,-475,0,0,0,0,0,0,0,0,0,-1,1665,1499,0,0
448,-475,0,0,0,0,0,0,0,0,0,-1,1672,1499,0,0
455,-475,0,0,0,0,0,0,0,0,0,-1,1679,1499,0,0
462,-475,12.6372,0.275391,0,0,0,0,0,0,0,-1,1686,1499,12.6372,-0.27536
469,-475,15.6437,2.28296,0,0,0,0,0,0,0,-1,1693,1499,15.6437,-2.28293
476,-475,15.3302,2.71436,0,0,0,0,0,0,0,-1,1700,1499,15.3303,-2.7143
483,-475,10.7461,5.91479,0,0,0,0,0,0,0,-1,1707,1499,10.7461,-5.91476
490,-475,11.9305,4.4364,0,0,0,0,0,0,0,-1,1714,1499,11.9305,-4.43644
497,-475,15.3451,4.3479,0,0,0,0,0,0,0,-1,1721,1499,15.3451,-4.34789
504,-475,16.9646,7.71265,0,0,0,0,0,0,0,-1,1728,1499,16.9646,-7.71265
511,-475,18.941,12.7572,0,0,0,0,0,0,0,-1,1735,1499,18.941,-12.7572
518,-475,17.0021,13.8564,0,0,0,0,0,0,0,-1,1742,1499,17.0021,-13.8564
525,-475,17.5637,15.2103,0,0,0,0,0,0,0,-1,1749,1499,17.5637,-15.2103
532,-475,20.8623,20.8413,0,0,0,0,0,0,0,-1,1756,1499,20.8623,-20.8413
539,-475,20.5494,20.8519,0,0,0,0,0,0,0,-1,1763,1499,20.5494,-20.852
546,-475,20.4524,19.8799,0,0,0,0,0,0,0,-1,1770,1499,20.4524,-19.8798
553,-475,30.2017,30.5139,0,0,0,0,0,0,0,-1,1777,1499,30.2016,-30.5139
560,-475,30.3491,29.7032,0.00777646,0.00264082,-0.00261237,0.00887172,0.00154555,-0.396999,0.00547254,0.0340093,1784,1499,30.3491,-29.7032
567,-475,30.509,28.8254,0.00610373,0.00175943,-0.00185135,0.00678565,0.00107751,-0.352918,0.00421081,0.0173908,1791,1499,30.509,-28.8254
574,-475,30.4564,28.0472,0.00492779,0.00133005,-0.00155783,0.00550857,0.000749268,-0.356856,0.00344986,0.0163937,1798,1499,30.4565,-28.0472
581,-475,30.426,27.3219,0.00395872,0.0010401,-0.00135172,0.00448857,0.000510257,-0.373571,0.00283763,0.0129569,1805,1499,30.426,-27.3218
588,-475,30.3888,26.5687,0.00321532,0.000841804,-0.00121176,0.00372466,0.000332464,-0.39791,0.00238004,0.010903,1812,1499,30.3888,-26.5688
595,-475,30.3544,25.7941,0.00270723,0.00067091,-0.00104036,0.00314475,0.000233395,-0.39809,0.00202319,0.0121398,1819,1499,30.3544,-25.7941
602,-475,30.3335,25.0236,0.00229428,0.000558767,-0.000898538,0.00267567,0.000177375,-0.401411,0.0017277,0.0133102,1826,1499,30.3335,-25.0236
609,-475,30.2897,24.2787,0.00197626,0.000539864,-0.000698402,0.00225985,0.000256277,-0.385712,0.00142882,0.0124972,1833,1499,30.2897,-24.2786
616,-475,30.2325,23.5212,0.00177116,0.000534455,-0.000404775,0.00189187,0.000413753,-0.289801,0.00114845,0.0120814,1840,1499,30.2326,-23.5213
623,-475,30.2123,22.724,0.00165239,0.00042098,7.47831e-05,0.00165692,0.000416455,0.0604334,0.000995274,0.0115653,1847,1499,30.2122,-22.724
630,-475,30.168,21.9508,0.00147197,0.000355363,0.000764645,0.00186045,-3.31093e-05,0.470061,0.00125148,0.0149292,1854,1499,30.168,-21.9508
637,-475,30.0802,21.2113,0.00128073,0.000414788,0.00159284,0.0024984,-0.000802875,0.652692,0.00198802,0.0271216,1861,1499,30.0802,-21.2113
644,-475,29.8864,20.4886,0,0,0,0,0,0,0,-1,1868,1499,29.8864,-20.4886
651,-475,29.886,19.2421,0,0,0,0,0,0,0,-1,1875,1499,29.886,-19.242
658,-475,14.6708,8.80322,0,0,0,0,0,0,0,-1,1882,1499,14.6708,-8.8032
665,-475,9.33435,5.43335,0,0,0,0,0,0,0,-1,1889,1499,9.33439,-5.43332
672,-475,9.38635,1.10474,0,0,0,0,0,0,0,-1,1896,1499,9.38629,-1.10475
679,-475,12.2594,1.31079,0,0,0,0,0,0,0,-1,1903,1499,12.2594,-1.31077
686,-475,0,0,0,0,0,0,0,0,0,-1,1910,1499,0,0
693,-475,0,0,0,0,0,0,0,0,0,-1,1917,1499,0,0
700,-475,0,0,0,0,0,0,0,0,0,-1,1924,1499,0,0
707,-475,0,0,0,0,0,0,0,0,0,-1,1931,1499,0,0
714,-475,0,0,0,0,0,0,0,0,0,-1,1938,1499,0,0
721,-475,0,0,0,0,0,0,0,0,0,-1,1945,1499,0,0
728,-475,0,0,0,0,0,0,0,0,0,-1,1952,1499,0,0
735,-475,0,0,0,0,0,0,0,0,0,-1,1959,1499,0,0
742,-475,0,0,0,0,0,0,0,0,0,-1,1966,1499,0,0
749,-475,0,0,0,0,0,0,0,0,0,-1,1973,1499,0,0
756,-475,0,0,0,0,0,0,0,0,0,-1,1980,1499,0,0
763,-475,0,0,0,0,0,0,0,0,0,-1,1987,1499,0,0
770,-475,0,0,0,0,0,0,0,0,0,-1,1994,1499,0,0
777,-475,0,0,0,0,0,0,0,0,0,-1,2001,1499,0,0
784,-475,0,0,0,0,0,0,0,0,0,-1,2008,1499,0,0
791,-475,0,0,0,0,0,0,0,0,0,-1,2015,1499,0,0
798,-475,0,0,0,0,0,0,0,0,0,-1,2022,1499,0,0
805,-475,0,0,0,0,0,0,0,0,0,-1,2029,1499,0,0
812,-475,0,0,0,0,0,0,0,0,0,-1,2036,1499,0,0
-700,-482,0,0,0,0,0,0,0,0,0,-1,524,1506,0,0
-693,-482,0,0,0,0,0,0,0,0,0,-1,531,1506,0,0
-686,-482,0,0,0,0,0,0,0,0,0,-1,538,1506,0,0
-679,-482,0,0,0,0,0,0,0,0,0,-1,545,1506,0,0
-672,-482,0,0,0,0,0,0,0,0,0,-1,552,1506,0,0
-665,-482,0,0,0,0,0,0,0,0,0,-1,559,1506,0,0
-658,-482,0,0,0,0,0,0,0,0,0,-1,566,1506,0,0
-651,-482,0,0,0,0,0,0,0,0,0,-1,573,1506,0,0
-644,-482,0,0,0,0,0,0,0,0,0,-1,580,1506,0,0
-637,-482,0,0,0,0,0,0,0,0,0,-1,587,1506,0,0
-630,-482,0,0,0,0,0,0,0,0,0,-1,594,1506,0,0
-623,-482,0,0,0,0,0,0,0,0,0,-1,601,1506,0,0
-616,-482,0,0,0,0,0,0,0,0,0,-1,608,1506,0,0
-609,-482,0,0,0,0,0,0,0,0,0,-1,615,1506,0,0
-602,-482,0,0,0,0,0,0,0,0,0,-1,622,1506,0,0
-595,-482,0,0,0,0,0,0,0,0,0,-1,629,1506,0,0
-588,-482,0,0,0,0,0,0,0,0,0,-1,636,1506,0,0
-581,-482,0,0,0,0,0,0,0,0,0,-1,643,1506,0,0
-574,-482,0,0,0,0,0,0,0,0,0,-1,650,1506,0,0
-567,-482,0,0,0,0,0,0,0,0,0,-1,657,1506,0,0
-560,-482,0,0,0,0,0,0,0,0,0,-1,664,1506,0,0
-553,-482,-9.06055,9.34314,0,0,0,0,0,0,0,-1,671,1506,-9.06056,-9.34312
-546,-482,-4.08624,8.34241,0,0,0,0,0,0,0,-1,678,1506,-4.08624,-8.3424
-539,-482,-4.29877,2.73499,0,0,0,0,0,0,0,-1,685,1506,-4.29879,-2.73494
-532,-482,-3.63611,4.23987,0,0,0,0,0,0,0,-1,692,1506,-3.63609,-4.23983
-525,-482,-6.19116,5.24927,0,0,0,0,0,0,0,-1,699,1506,-6.19117,-5.24927
-518,-482,-5.92957,6.39807,0,0,0,0,0,0,0,-1,706,1506,-5.92958,-6.39806
-511,-482,-7.74634,11.9137,0,0,0,0,0,0,0,-1,713,1506,-7.74633,-11.9137
-504,-482,-6.42358,13.4211,0,0,0,0,0,0,0,-1,720,1506,-6.42356,-13.4212
-497,-482,-8.86163,17.7108,0,0,0,0,0,0,0,-1,727,1506,-8.86163,-17.7109
-490,-482,-11.5398,22.3557,0,0,0,0,0,0,0,-1,734,1506,-11.5398,-22.3558
-483,-482,-11.5203,23.1798,0.00125256,0.000478889,0.00242036,0.0033168,-0.00158535,0.706155,0.00288851,0.0120494,741,1506,-11.5202,-23.1798
-476,-482,-11.537,23.9922,0.000731027,-8.92236e-05,0.00151329,0.00188878,-0.00124698,0.653069,0.00182303,0.00988242,748,1506,-11.537,-23.9922
-469,-482,-11.5972,24.7996,0.000624352,-0.000129676,0.0011272,0.00143592,-0.000941243,0.624012,0.00138233,0.0128925,755,1506,-11.5971,-24.7995
-462,-482,-11.6435,25.5793,0.000822244,0.000228664,0.00105398,0.00162042,-0.000569512,0.648157,0.00131199,0.0142629,762,1506,-11.6435,-25.5794
-455,-482,-11.6772,26.3367,0.00128214,0.000899826,0.00127387,0.00237912,-0.00019715,0.710924,0.00165571,0.0138686,769,1506,-11.6772,-26.3367
-448,-482,-11.722,27.1476,0.00203105,0.00204332,0.00185982,0.00389702,0.000177352,0.787047,0.00254096,0.0142468,776,1506,-11.7221,-27.1476
-441,-482,-11.7568,27.9204,0.00296793,0.00339537,0.0026655,0.0058557,0.000507591,0.825402,0.00374608,0.0131835,783,1506,-11.7568,-27.9204
-434,-482,-11.8043,28.6991,0.0040942,0.00504047,0.00372263,0.00831991,0.000814761,0.848608,0.00529595,0.0164003,790,1506,-11.8043,-28.6991
-427,-482,-11.8414,29.5114,0.00546361,0.00708345,0.00508083,0.0114185,0.00112855,0.864437,0.00726544,0.0222265,797,1506,-11.8414,-29.5113
-420,-482,-11.9018,30.3522,0,0,0,0,0,0,0,-1,804,1506,-11.9018,-30.3522
-413,-482,-6.56415,22.3163,0,0,0,0,0,0,0,-1,811,1506,-6.56417,-22.3163
-406,-482,-2.51373,12.7556,0,0,0,0,0,0,0,-1,818,1506,-2.51376,-12.7556
-399,-482,-1.3822,9.22595,0,0,0,0,0,0,0,-1,825,1506,-1.38221,-9.22598
-392,-482,-1.06836,9.22729,0,0,0,0,0,0,0,-1,832,1506,-1.06835,-9.2273
-385,-482,0.0647583,8.90649,0,0,0,0,0,0,0,-1,839,1506,0.0647778,-8.90644
-378,-482,0.215698,5.96948,0,0,0,0,0,0,0,-1,846,1506,0.215681,-5.9695
-371,-482,-0.10907,8.10437,0,0,0,0,0,0,0,-1,853,1506,-0.109063,-8.10433
-364,-482,-0.154968,10.5032,0,0,0,0,0,0,0,-1,860,1506,-0.154976,-10.5032
-357,-482,2.14807,4.60144,0,0,0,0,0,0,0,-1,867,1506,2.14807,-4.60144
-350,-482,-7.5813,-1.45935,0,0,0,0,0,0,0,-1,874,1506,-7.58133,1.45937
-343,-482,-5.80902,1.81226,0,0,0,0,0,0,0,-1,881,1506,-5.80903,-1.81221
-336,-482,2.52826,-0.390503,0,0,0,0,0,0,0,-1,888,1506,2.52826,0.390456
-329,-482,0,0,0,0,0,0,0,0,0,-1,895,1506,0,0
-322,-482,0,0,0,0,0,0,0,0,0,-1,902,1506,0,0
-315,-482,0,0,0,0,0,0,0,0,0,-1,909,1506,0,0
-308,-482,0,0,0,0,0,0,0,0,0,-1,916,1506,0,0
-301,-482,0,0,0,0,0,0,0,0,0,-1,923,1506,0,0
-294,-482,0,0,0,0,0,0,0,0,0,-1,930,1506,0,0
-287,-482,0,0,0,0,0,0,0,0,0,-1,937,1506,0,0
-280,-482,0,0,0,0,0,0,0,0,0,-1,944,1506,0,0
-273,-482,0,0,0,0,0,0,0,0,0,-1,951,1506,0,0
-266,-482,0,0,0,0,0,0,0,0,0,-1,958,1506,0,0
-259,-482,0,0,0,0,0,0,0,0,0,-1,965,1506,0,0
-252,-482,0,0,0,0,0,0,0,0,0,-1,972,1506,0,0
-245,-482,0,0,0,0,0,0,0,0,0,-1,979,1506,0,0
-238,-482,0,0,0,0,0,0,0,0,0,-1,986,1506,0,0
-231,-482,0,0,0,0,0,0,0,0,0,-1,993,1506,0,0
-224,-482,0,0,0,0,0,0,0,0,0,-1,1000,1506,0,0
-217,-482,0,0,0,0,0,0,0,0,0,-1,1007,1506,0,0
-210,-482,0,0,0,0,0,0,0,0,0,-1,1014,1506,0,0
-203,-482,0,0,0,0,0,0,0,0,0,-1,1021,1506,0,0
-196,-482,0,0,0,0,0,0,0,0,0,-1,1028,1506,0,0
-189,-482,0,0,0,0,0,0,0,0,0,-1,1035,1506,0,0
-182,-482,0,0,0,0,0,0,0,0,0,-1,1042,1506,0,0
-175,-482,0,0,0,0,0,0,0,0,0,-1,1049,1506,0,0
-168,-482,0,0,0,0,0,0,0,0,0,-1,1056,1506,0,0
-161,-482,0,0,0,0,0,0,0,0,0,-1,1063,1506,0,0
-154,-482,0,0,0,0,0,0,0,0,0,-1,1070,1506,0,0
-147,-482,0,0,0,0,0,0,0,0,0,-1,1077,1506,0,0
-140,-482,0,0,0,0,0,0,0,0,0,-1,1084,1506,0,0
-133,-482,0,0,0,0,0,0,0,0,0,-1,1091,1506,0,0
-126,-482,0,0,0,0,0,0,0,0,0,-1,1098,1506,0,0
-119,-482,0,0,0,0,0,0,0,0,0,-1,1105,1506,0,0
-112,-482,0,0,0,0,0,0,0,0,0,-1,1112,1506,0,0
-105,-482,0,0,0,0,0,0,0,0,0,-1,1119,1506,0,0
-98,-482,0,0,0,0,0,0,0,0,0,-1,1126,1506,0,0
-91,-482,0,0,0,0,0,0,0,0,0,-1,1133,1506,0,0
-84,-482,0,0,0,0,0,0,0,0,0,-1,1140,1506,0,0
-77,-482,0,0,0,0,0,0,0,0,0,-1,1147,1506,0,0
-70,-482,0,0,0,0,0,0,0,0,0,-1,1154,1506,0,0
-63,-482,0,0,0,0,0,0,0,0,0,-1,1161,1506,0,0
-56,-482,0,0,0,0,0,0,0,0,0,-1,1168,1506,0,0
-49,-482,0,0,0,0,0,0,0,0,0,-1,1175,1506,0,0
-42,-482,0,0,0,0,0,0,0,0,0,-1,1182,1506,0,0
-35,-482,0,0,0,0,0,0,0,0,0,-1,1189,1506,0,0
-28,-482,0,0,0,0,0,0,0,0,0,-1,1196,1506,0,0
-21,-482,0,0,0,0,0,0,0,0,0,-1,1203,1506,0,0
-14,-482,0,0,0,0,0,0,0,0,0,-1,1210,1506,0,0
-7,-482,0,0,0,0,0,0,0,0,0,-1,1217,1506,0,0
0,-482,0,0,0,0,0,0,0,0,0,-1,1224,1506,0,0
7,-482,0,0,0,0,0,0,0,0,0,-1,1231,1506,0,0
14,-482,0,0,0,0,0,0,0,0,0,-1,1238,1506,0,0
21,-482,0,0,0,0,0,0,0,0,0,-1,1245,1506,0,0
28,-482,0,0,0,0,0,0,0,0,0,-1,1252,1506,0,0
35,-482,0,0,0,0,0,0,0,0,0,-1,1259,1506,0,0
42,-482,0,0,0,0,0,0,0,0,0,-1,1266,1506,0,0
49,-482,0,0,0,0,0,0,0,0,0,-1,1273,1506,0,0
56,-482,0,0,0,0,0,0,0,0,0,-1,1280,1506,0,0
63,-482,0,0,0,0,0,0,0,0,0,-1,1287,1506,0,0
70,-482,0,0,0,0,0,0,0,0,0,-1,1294,1506,0,0
77,-482,0,0,0,0,0,0,0,0,0,-1,1301,1506,0,0
84,-482,0,0,0,0,0,0,0,0,0,-1,1308,1506,0,0
91,-482,0,0,0,0,0,0,0,0,0,-1,1315,1506,0,0
98,-482,0,0,0,0,0,0,0,0,0,-1,1322,1506,0,0
105,-482,0,0,0,0,0,0,0,0,0,-1,1329,1506,0,0
112,-482,0,0,0,0,0,0,0,0,0,-1,1336,1506,0,0
119,-482,0,0,0,0,0,0,0,0,0,-1,1343,1506,0,0
126,-482,0,0,0,0,0,0,0,0,0,-1,1350,1506,0,0
133,-482,0,0,0,0,0,0,0,0,0,-1,1357,1506,0,0
140,-482,0,0,0,0,0,0,0,0,0,-1,1364,1506,0,0
147,-482,0,0,0,0,0,0,0,0,0,-1,1371,1506,0,0
154,-482,0,0,0,0,0,0,0,0,0,-1,1378,1506,0,0
161,-482,0,0,0,0,0,0,0,0,0,-1,1385,1506,0,0
168,-482,0,0,0,0,0,0,0,0,0,-1,1392,1506,0,0
175,-482,0,0,0,0,0,0,0,0,0,-1,1399,1506,0,0
182,-482,0,0,0,0,0,0,0,0,0,-1,1406,1506,0,0
189,-482,0,0,0,0,0,0,0,0,0,-1,1413,1506,0,0
196,-482,0,0,0,0,0,0,0,0,0,-1,1420,1506,0,0
203,-482,0,0,0,0,0,0,0,0,0,-1,1427,1506,0,0
210,-482,0,0,0,0,0,0,0,0,0,-1,1434,1506,0,0
217,-482,0,0,0,0,0,0,0,0,0,-1,1441,1506,0,0
224,-482,0,0,0,0,0,0,0,0,0,-1,1448,1506,0,0
231,-482,0,0,0,0,0,0,0,0,0,-1,1455,1506,0,0
238,-482,0,0,0,0,0,0,0,0,0,-1,1462,1506,0,0
245,-482,0,0,0,0,0,0,0,0,0,-1,1469,1506,0,0
252,-482,0,0,0,0,0,0,0,0,0,-1,1476,1506,0,0
259,-482,0,0,0,0,0,0,0,0,0,-1,1483,1506,0,0
266,-482,0,0,0,0,0,0,0,0,0,-1,1490,1506,0,0
273,-482,0,0,0,0,0,0,0,0,0,-1,1497,1506,0,0
280,-482,0,0,0,0,0,0,0,0,0,-1,1504,1506,0,0
287,-482,0,0,0,0,0,0,0,0,0,-1,1511,1506,0,0
294,-482,0,0,0,0,0,0,0,0,0,-1,1518,1506,0,0
301,-482,0,0,0,0,0,0,0,0,0,-1,1525,1506,0,0
308,-482,0,0,0,0,0,0,0,0,0,-1,1532,1506,0,0
315,-482,0,0,0,0,0,0,0,0,0,-1,1539,1506,0,0
322,-482,0,0,0,0,0,0,0,0,0,-1,1546,1506,0,0
329,-482,0,0,0,0,0,0,0,0,0,-1,1553,1506,0,0
336,-482,0,0,0,0,0,0,0,0,0,-1,1560,1506,0,0
343,-482,0,0,0,0,0,0,0,0,0,-1,1567,1506,0,0
350,-482,0,0,0,0,0,0,0,0,0,-1,1574,1506,0,0
357,-482,0,0,0,0,0,0,0,0,0,-1,1581,1506,0,0
364,-482,0,0,0,0,0,0,0,0,0,-1,1588,1506,0,0
371,-482,0,0,0,0,0,0,0,0,0,-1,1595,1506,0,0
378,-482,0,0,0,0,0,0,0,0,0,-1,1602,1506,0,0
385,-482,0,0,0,0,0,0,0,0,0,-1,1609,1506,0,0
392,-482,0,0,0,0,0,0,0,0,0,-1,1616,1506,0,0
399,-482,0,0,0,0,0,0,0,0,0,-1,1623,1506,0,0
406,-482,0,0,0,0,0,0,0,0,0,-1,1630,1506,0,0
413,-482,0,0,0,0,0,0,0,0,0,-1,1637,1506,0,0
420,-482,0,0,0,0,0,0,0,0,0,-1,1644,1506,0,0
427,-482,0,0,0,0,0,0,0,0,0,-1,1651,1506,0,0
434,-482,0,0,0,0,0,0,0,0,0,-1,1658,1506,0,0
441,-482,0,0,0,0,0,0,0,0,0,-1,1665,1506,0,0
448,-482,4.24146,1.55383,0,0,0,0,0,0,0,-1,1672,1506,4.24149,-1.55381
455,-482,12.4122,1.09729,0,0,0,0,0,0,0,-1,1679,1506,12.4122,-1.09734
462,-482,15.0673,3.13135,0,0,0,0,0,0,0,-1,1686,1506,15.0672,-3.13134
469,-482,15.3793,3.46301,0,0,0,0,0,0,0,-1,1693,1506,15.3793,-3.46307
476,-482,8.69751,9.18738,0,0,0,0,0,0,0,-1,1700,1506,8.69753,-9.18739
483,-482,10.0902,7.17432,0,0,0,0,0,0,0,-1,1707,1506,10.0902,-7.1743
490,-482,11.6289,5.4928,0,0,0,0,0,0,0,-1,1714,1506,11.6289,-5.49283
497,-482,15.9539,7.40222,0,0,0,0,0,0,0,-1,1721,1506,15.9538,-7.40219
504,-482,20.4233,12.006,0,0,0,0,0,0,0,-1,1728,1506,20.4233,-12.006
511,-482,18.4937,12.9175,0,0,0,0,0,0,0,-1,1735,1506,18.4936,-12.9174
518,-482,16.6002,13.9679,0,0,0,0,0,0,0,-1,1742,1506,16.6003,-13.9679
525,-482,18.495,15.9618,0,0,0,0,0,0,0,-1,1749,1506,18.495,-15.9618
532,-482,19.9375,21.0775,0,0,0,0,0,0,0,-1,1756,1506,19.9375,-21.0775
539,-482,20.2291,20.5577,0,0,0,0,0,0,0,-1,1763,1506,20.2291,-20.5578
546,-482,29.6881,31.4788,0,0,0,0,0,0,0,-1,1770,1506,29.6881,-31.4787
553,-482,29.5067,30.4648,0,0,0,0,0,0,0,-1,1777,1506,29.5067,-30.4649
560,-482,29.6591,29.6251,0.00665937,0.00266654,-0.00252994,0.00788573,0.00144018,-0.451364,0.00484892,0.0183769,1784,1506,29.6591,-29.6252
567,-482,29.766,28.8354,0.00529636,0.00180774,-0.00183117,0.00608104,0.00102306,-0.404843,0.0037597,0.0162548,1791,1506,29.766,-28.8355
574,-482,29.7281,28.1147,0.00434433,0.00135149,-0.00152887,0.00498724,0.000708589,-0.398061,0.0031156,0.0154136,1798,1506,29.7282,-28.1147
581,-482,29.6885,27.3633,0.00354713,0.00104559,-0.00132905,0.00412141,0.000471309,-0.407866,0.00260476,0.0108376,1805,1506,29.6885,-27.3632
588,-482,29.6404,26.5908,0.00296786,0.000878338,-0.00123004,0.00353695,0.000309246,-0.433334,0.00226194,0.0109677,1812,1506,29.6404,-26.5908
595,-482,29.5966,25.8259,0.00262304,0.000762117,-0.00111582,0.00314544,0.000239715,-0.437868,0.0020218,0.0173612,1819,1506,29.5966,-25.8259
602,-482,29.5814,25.0911,0.00235256,0.000748682,-0.00106696,0.00288536,0.00021589,-0.463132,0.0018558,0.0209395,1826,1506,29.5814,-25.0911
609,-482,29.5338,24.3379,0.00214579,0.000823241,-0.000950866,0.00264272,0.000326315,-0.481567,0.00166374,0.016804,1833,1506,29.5338,-24.3378
616,-482,29.4637,23.5699,0.0020882,0.000827259,-0.000671405,0.00237875,0.000536709,-0.408416,0.00144065,0.0129049,1840,1506,29.4637,-23.5699
623,-482,29.4167,22.791,0.00205011,0.00072853,-0.000170945,0.00207186,0.000706776,-0.126574,0.00121615,0.019274,1847,1506,29.4168,-22.791
630,-482,29.3429,22.0579,0.00179929,0.000655416,0.000650158,0.00209327,0.000361433,0.424659,0.001292,0.0410536,1854,1506,29.3429,-22.0578
637,-482,29.3752,21.3217,0,0,0,0,0,0,0,-1,1861,1506,29.3752,-21.3216
644,-482,29.0146,20.1443,0,0,0,0,0,0,0,-1,1868,1506,29.0147,-20.1442
651,-482,4.03845,7.05273,0,0,0,0,0,0,0,-1,1875,1506,4.03843,-7.05279
658,-482,10.0278,5.87903,0,0,0,0,0,0,0,-1,1882,1506,10.0279,-5.87902
665,-482,8.15198,3.22229,0,0,0,0,0,0,0,-1,1889,1506,8.15199,-3.22232
672,-482,9.87415,1.3147,0,0,0,0,0,0,0,-1,1896,1506,9.87416,-1.31473
679,-482,0,0,0,0,0,0,0,0,0,-1,1903,1506,0,0
686,-482,0,0,0,0,0,0,0,0,0,-1,1910,1506,0,0
693,-482,0,0,0,0,0,0,0,0,0,-1,1917,1506,0,0
700,-482,0,0,0,0,0,0,0,0,0,-1,1924,1506,0,0
707,-482,0,0,0,0,0,0,0,0,0,-1,1931,1506,0,0
714,-482,0,0,0,0,0,0,0,0,0,-1,1938,1506,0,0
721,-482,0,0,0,0,0,0,0,0,0,-1,1945,1506,0,0
728,-482,0,0,0,0,0,0,0,0,0,-1,1952,1506,0,0
735,-482,0,0,0,0,0,0,0,0,0,-1,1959,1506,0,0
742,-482,0,0,0,0,0,0,0,0,0,-1,1966,1506,0,0
749,-482,0,0,0,0,0,0,0,0,0,-1,1973,1506,0,0
756,-482,0,0,0,0,0,0,0,0,0,-1,1980,1506,0,0
763,-482,0,0,0,0,0,0,0,0,0,-1,1987,1506,0,0
770,-482,0,0,0,0,0,0,0,0,0,-1,1994,1506,0,0
777,-482,0,0,0,0,0,0,0,0,0,-1,2001,1506,0,0
784,-482,0,0,0,0,0,0,0,0,0,-1,2008,1506,0,0
791,-482,0,0,0,0,0,0,0,0,0,-1,2015,1506,0,0
798,-482,0,0,0,0,0,0,0,0,0,-1,2022,1506,0,0
805,-482,0,0,0,0,0,0,0,0,0,-1,2029,1506,0,0
812,-482,0,0,0,0,0,0,0,0,0,-1,2036,1506,0,0
-700,-489,0,0,0,0,0,0,0,0,0,-1,524,1513,0,0
-693,-489,0,0,0,0,0,0,0,0,0,-1,531,1513,0,0
-686,-489,0,0,0,0,0,0,0,0,0,-1,538,1513,0,0
-679,-489,0,0,0,0,0,0,0,0,0,-1,545,1513,0,0
-672,-489,0,0,0,0,0,0,0,0,0,-1,552,1513,0,0
-665,-489,0,0,0,0,0,0,0,0,0,-1,559,1513,0,0
-658,-489,0,0,0,0,0,0,0,0,0,-1,566,1513,0,0
-651,-489,0,0,0,0,0,0,0,0,0,-1,573,1513,0,0
-644,-489,0,0,0,0,0,0,0,0,0,-1,580,1513,0,0
-637,-489,0,0,0,0,0,0,0,0,0,-1,587,1513,0,0
-630,-489,0,0,0,0,0,0,0,0,0,-1,594,1513,0,0
-623,-489,0,0,0,0,0,0,0,0,0,-1,601,1513,0,0
-616,-489,0,0,0,0,0,0,0,0,0,-1,608,1513,0,0
-609,-489,0,0,0,0,0,0,0,0,0,-1,615,1513,0,0
-602,-489,0,0,0,0,0,0,0,0,0,-1,622,1513,0,0
-595,-489,0,0,0,0,0,0,0,0,0,-1,629,1513,0,0
-588,-489,0,0,0,0,0,0,0,0,0,-1,636,1513,0,0
-581,-489,0,0,0,0,0,0,0,0,0,-1,643,1513,0,0
-574,-489,0,0,0,0,0,0,0,0,0,-1,650,1513,0,0
-567,-489,0,0,0,0,0,0,0,0,0,-1,657,1513,0,0
-560,-489,0,0,0,0,0,0,0,0,0,-1,664,1513,0,0
-553,-489,-9.42206,8.5116,0,0,0,0,0,0,0,-1,671,1513,-9.42205,-8.51158
-546,-489,-7.80951,8.18506,0,0,0,0,0,0,0,-1,678,1513,-7.8095,-8.18503
-539,-489,-3.06879,2.82349,0,0,0,0,0,0,0,-1,685,1513,-3.06881,-2.82354
-532,-489,-3.14215,2.5835,0,0,0,0,0,0,0,-1,692,1513,-3.14213,-2.58353
-525,-489,-2.604,4.06274,0,0,0,0,0,0,0,-1,699,1513,-2.60399,-4.06274
-518,-489,-5.43774,7.48059,0,0,0,0,0,0,0,-1,706,1513,-5.43777,-7.48058
-511,-489,-7.52856,10.951,0,0,0,0,0,0,0,-1,713,1513,-7.52857,-10.951
-504,-489,-7.17352,12.8508,0,0,0,0,0,0,0,-1,720,1513,-7.17352,-12.8508
-497,-489,-5.51678,14.9254,0,0,0,0,0,0,0,-1,727,1513,-5.51681,-14.9254
-490,-489,-10.8763,22.1409,0,0,0,0,0,0,0,-1,734,1513,-10.8763,-22.1408
-483,-489,-10.7946,23.0616,0.000415693,-0.000537186,0.00218239,0.00217304,-0.00229453,0.677929,0.00257967,0.0351393,741,1513,-10.7946,-23.0616
-476,-489,-10.7753,24.0083,-6.29767e-05,-0.00109398,0.00117661,0.000706102,-0.00186306,0.57893,0.00153262,0.0108058,748,1513,-10.7752,-24.0084
-469,-489,-10.8077,24.8081,-0.000116186,-0.00110372,0.00077193,0.000306389,-0.00152629,0.500865,0.00113355,0.011002,755,1513,-10.8077,-24.8081
-462,-489,-10.8607,25.5913,0.000128878,-0.000668576,0.000685514,0.000523191,-0.00106289,0.521991,0.000933228,0.0166471,762,1513,-10.8607,-25.5913
-455,-489,-10.9146,26.3995,0.0006233,6.02143e-05,0.0008748,0.00126075,-0.000577232,0.629714,0.00108534,0.0200834,769,1513,-10.9146,-26.3996
-448,-489,-10.9686,27.1769,0.00136325,0.00118928,0.00137888,0.00265789,-0.000105353,0.753898,0.00180807,0.0173437,776,1513,-10.9686,-27.1769
-441,-489,-10.9775,27.95,0.00225683,0.0024965,0.00208073,0.00446084,0.000292488,0.814163,0.00288135,0.0147598,783,1513,-10.9775,-27.9499
-434,-489,-11.023,28.7361,0.00328935,0.00404262,0.00298523,0.00667488,0.000657092,0.84815,0.00424786,0.0185703,790,1513,-11.023,-28.7361
-427,-489,-11.089,29.5355,0.00447991,0.00580946,0.00408471,0.00928313,0.00100624,0.866064,0.0058821,0.021656,797,1513,-11.089,-29.5355
-420,-489,-11.1332,30.4504,0.0058231,0.00764948,0.0053196,0.0121337,0.00133887,0.870402,0.00768184,0.0281446,804,1513,-11.1332,-30.4504
-413,-489,-11.1068,31.4565,0,0,0,0,0,0,0,-1,811,1513,-11.1067,-31.4565
-406,-489,-3.10559,15.8143,0,0,0,0,0,0,0,-1,818,1513,-3.10556,-15.8143
-399,-489,-1.41241,9.10718,0,0,0,0,0,0,0,-1,825,1513,-1.41244,-9.10722
-392,-489,-1.0368,9.30469,0,0,0,0,0,0,0,-1,832,1513,-1.03682,-9.30466
-385,-489,-1.75165,10.6559,0,0,0,0,0,0,0,-1,839,1513,-1.75165,-10.6559
-378,-489,-0.401428,9.87048,0,0,0,0,0,0,0,-1,846,1513,-0.401415,-9.87047
-371,-489,-1.11633,10.6606,0,0,0,0,0,0,0,-1,853,1513,-1.11633,-10.6606
-364,-489,-0.503113,8.98486,0,0,0,0,0,0,0,-1,860,1513,-0.503097,-8.98482
-357,-489,-0.609924,10.9606,0,0,0,0,0,0,0,-1,867,1513,-0.609947,-10.9605
-350,-489,-7.94659,-0.358887,0,0,0,0,0,0,0,-1,874,1513,-7.94657,0.358912
-343,-489,-7.49323,-0.437866,0,0,0,0,0,0,0,-1,881,1513,-7.49322,0.437823
-336,-489,-7.02332,-0.53125,0,0,0,0,0,0,0,-1,888,1513,-7.0233,0.531295
-329,-489,-13.2786,4.96082,0,0,0,0,0,0,0,-1,895,1513,-13.2785,-4.96077
-322,-489,0,0,0,0,0,0,0,0,0,-1,902,1513,0,0
-315,-489,0,0,0,0,0,0,0,0,0,-1,909,1513,0,0
-308,-489,0,0,0,0,0,0,0,0,0,-1,916,1513,0,0
-301,-489,0,0,0,0,0,0,0,0,0,-1,923,1513,0,0
-294,-489,0,0,0,0,0,0,0,0,0,-1,930,1513,0,0
-287,-489,0,0,0,0,0,0,0,0,0,-1,937,1513,0,0
-280,-489,0,0,0,0,0,0,0,0,0,-1,944,1513,0,0
-273,-489,0,0,0,0,0,0,0,0,0,-1,951,1513,0,0
-266,-489,0,0,0,0,0,0,0,0,0,-1,958,1513,0,0
-259,-489,0,0,0,0,0,0,0,0,0,-1,965,1513,0,0
-252,-489,0,0,0,0,0,0,0,0,0,-1,972,1513,0,0
-245,-489,0,0,0,0,0,0,0,0,0,-1,979,1513,0,0
-238,-489,0,0,0,0,0,0,0,0,0,-1,986,1513,0,0
-231,-489,0,0,0,0,0,0,0,0,0,-1,993,1513,0,0
-224,-489,0,0,0,0,0,0,0,0,0,-1,1000,1513,0,0
-217,-489,0,0,0,0,0,0,0,0,0,-1,1007,1513,0,0
-210,-489,0,0,0,0,0,0,0,0,0,-1,1014,1513,0,0
-203,-489,0,0,0,0,0,0,0,0,0,-1,1021,1513,0,0
-196,-489,0,0,0,0,0,0,0,0,0,-1,1028,1513,0,0
-189,-489,0,0,0,0,0,0,0,0,0,-1,1035,1513,0,0
-182,-489,0,0,0,0,0,0,0,0,0,-1,1042,1513,0,0
-175,-489,0,0,0,0,0,0,0,0,0,-1,1049,1513,0,0
-168,-489,0,0,0,0,0,0,0,0,0,-1,1056,1513,0,0
-161,-489,0,0,0,0,0,0,0,0,0,-1,1063,1513,0,0
-154,-489,0,0,0,0,0,0,0,0,0,-1,1070,1513,0,0
-147,-489,0,0,0,0,0,0,0,0,0,-1,1077,1513,0,0
-140,-489,0,0,0,0,0,0,0,0,0,-1,1084,1513,0,0
-133,-489,0,0,0,0,0,0,0,0,0,-1,1091,1513,0,0
-126,-489,0,0,0,0,0,0,0,0,0,-1,1098,1513,0,0
-119,-489,0,0,0,0,0,0,0,0,0,-1,1105,1513,0,0
-112,-489,0,0,0,0,0,0,0,0,0,-1,1112,1513,0,0
-105,-489,0,0,0,0,0,0,0,0,0,-1,1119,1513,0,0
-98,-489,0,0,0,0,0,0,0,0,0,-1,1126,1513,0,0
-91,-489,0,0,0,0,0,0,0,0,0,-1,1133,1513,0,0
-84,-489,0,0,0,0,0,0,0,0,0,-1,1140,1513,0,0
-77,-489,0,0,0,0,0,0,0,0,0,-1,1147,1513,0,0
-70,-489,0,0,0,0,0,0,0,0,0,-1,1154,1513,0,0
-63,-489,0,0,0,0,0,0,0,0,0,-1,1161,1513,0,0
-56,-489,0,0,0,0,0,0,0,0,0,-1,1168,1513,0,0
-49,-489,0,0,0,0,0,0,0,0,0,-1,1175,1513,0,0
-42,-489,0,0,0,0,0,0,0,0,0,-1,1182,1513,0,0
-35,-489,0,0,0,0,0,0,0,0,0,-1,1189,1513,0,0
-28,-489,0,0,0,0,0,0,0,0,0,-1,1196,1513,0,0
-21,-489,0,0,0,0,0,0,0,0,0,-1,1203,1513,0,0
-14,-489,0,0,0,0,0,0,0,0,0,-1,1210,1513,0,0
-7,-489,0,0,0,0,0,0,0,0,0,-1,1217,1513,0,0
0,-489,0,0,0,0,0,0,0,0,0,-1,1224,1513,0,0
7,-489,0,0,0,0,0,0,0,0,0,-1,1231,1513,0,0
14,-489,0,0,0,0,0,0,0,0,0,-1,1238,1513,0,0
21,-489,0,0,0,0,0,0,0,0,0,-1,1245,1513,0,0
28,-489,0,0,0,0,0,0,0,0,0,-1,1252,1513,0,0
35,-489,0,0,0,0,0,0,0,0,0,-1,1259,1513,0,0
42,-489,0,0,0,0,0,0,0,0,0,-1,1266,1513,0,0
49,-489,0,0,0,0,0,0,0,0,0,-1,1273,1513,0,0
56,-489,0,0,0,0,0,0,0,0,0,-1,1280,1513,0,0
63,-489,0,0,0,0,0,0,0,0,0,-1,1287,1513,0,0
70,-489,0,0,0,0,0,0,0,0,0,-1,1294,1513,0,0
77,-489,0,0,0,0,0,0,0,0,0,-1,1301,1513,0,0
84,-489,0,0,0,0,0,0,0,0,0,-1,1308,1513,0,0
91,-489,0,0,0,0,0,0,0,0,0,-1,1315,1513,0,0
98,-489,0,0,0,0,0,0,0,0,0,-1,1322,1513,0,0
105,-489,0,0,0,0,0,0,0,0,0,-1,1329,1513,0,0
112,-489,0,0,0,0,0,0,0,0,0,-1,1336,1513,0,0
119,-489,0,0,0,0,0,0,0,0,0,-1,1343,1513,0,0
126,-489,0,0,0,0,0,0,0,0,0,-1,1350,1513,0,0
133,-489,0,0,0,0,0,0,0,0,0,-1,1357,1513,0,0
140,-489,0,0,0,0,0,0,0,0,0,-1,1364,1513,0,0
147,-489,0,0,0,0,0,0,0,0,0,-1,1371,1513,0,0
154,-489,0,0,0,0,0,0,0,0,0,-1,1378,1513,0,0
161,-489,0,0,0,0,0,0,0,0,0,-1,1385,1513,0,0
168,-489,0,0,0,0,0,0,0,0,0,-1,1392,1513,0,0
175,-489,0,0,0,0,0,0,0,0,0,-1,1399,1513,0,0
182,-489,0,0,0,0,0,0,0,0,0,-1,1406,1513,0,0
189,-489,0,0,0,0,0,0,0,0,0,-1,1413,1513,0,0
196,-489,0,0,0,0,0,0,0,0,0,-1,1420,1513,0,0
203,-489,0,0,0,0,0,0,0,0,0,-1,1427,1513,0,0
210,-489,0,0,0,0,0,0,0,0,0,-1,1434,1513,0,0
217,-489,0,0,0,0,0,0,0,0,0,-1,1441,1513,0,0
224,-489,0,0,0,0,0,0,0,0,0,-1,1448,1513,0,0
231,-489,0,0,0,0,0,0,0,0,0,-1,1455,1513,0,0
238,-489,0,0,0,0,0,0,0,0,0,-1,1462,1513,0,0
245,-489,0,0,0,0,0,0,0,0,0,-1,1469,1513,0,0
252,-489,0,0,0,0,0,0,0,0,0,-1,1476,1513,0,0
259,-489,0,0,0,0,0,0,0,0,0,-1,1483,1513,0,0
266,-489,0,0,0,0,0,0,0,0,0,-1,1490,1513,0,0
273,-489,0,0,0,0,0,0,0,0,0,-1,1497,1513,0,0
280,-489,0,0,0,0,0,0,0,0,0,-1,1504,1513,0,0
287,-489,0,0,0,0,0,0,0,0,0,-1,1511,1513,0,0
294,-489,0,0,0,0,0,0,0,0,0,-1,1518,1513,0,0
301,-489,0,0,0,0,0,0,0,0,0,-1,1525,1513,0,0
308,-489,0,0,0,0,0,0,0,0,0,-1,1532,1513,0,0
315,-489,0,0,0,0,0,0,0,0,0,-1,1539,1513,0,0
322,-489,0,0,0,0,0,0,0,0,0,-1,1546,1513,0,0
329,-489,0,0,0,0,0,0,0,0,0,-1,1553,1513,0,0
336,-489,0,0,0,0,0,0,0,0,0,-1,1560,1513,0,0
343,-489,0,0,0,0,0,0,0,0,0,-1,1567,1513,0,0
350,-489,0,0,0,0,0,0,0,0,0,-1,1574,1513,0,0
357,-489,0,0,0,0,0,0,0,0,0,-1,1581,1513,0,0
364,-489,0,0,0,0,0,0,0,0,0,-1,1588,1513,0,0
371,-489,0,0,0,0,0,0,0,0,0,-1,1595,1513,0,0
378,-489,0,0,0,0,0,0,0,0,0,-1,1602,1513,0,0
385,-489,0,0,0,0,0,0,0,0,0,-1,1609,1513,0,0
392,-489,0,0,0,0,0,0,0,0,0,-1,1616,1513,0,0
399,-489,0,0,0,0,0,0,0,0,0,-1,1623,1513,0,0
406,-489,0,0,0,0,0,0,0,0,0,-1,1630,1513,0,0
413,-489,0,0,0,0,0,0,0,0,0,-1,1637,1513,0,0
420,-489,0,0,0,0,0,0,0,0,0,-1,1644,1513,0,0
427,-489,0,0,0,0,0,0,0,0,0,-1,1651,1513,0,0
434,-489,0,0,0,0,0,0,0,0,0,-1,1658,1513,0,0
441,-489,11.4602,2.56787,0,0,0,0,0,0,0,-1,1665,1513,11.4602,-2.56786
448,-489,12.4425,1.72351,0,0,0,0,0,0,0,-1,1672,1513,12.4425,-1.72349
455,-489,12.5575,1.37463,0,0,0,0,0,0,0,-1,1679,1513,12.5575,-1.37469
462,-489,14.9784,3.84888,0,0,0,0,0,0,0,-1,1686,1513,14.9784,-3.84892
469,-489,15.1367,4.53101,0,0,0,0,0,0,0,-1,1693,1513,15.1368,-4.531
476,-489,15.5536,5.09338,0,0,0,0,0,0,0,-1,1700,1513,15.5536,-5.09339
483,-489,8.96912,8.37805,0,0,0,0,0,0,0,-1,1707,1513,8.96909,-8.37809
490,-489,10.5366,7.49561,0,0,0,0,0,0,0,-1,1714,1513,10.5367,-7.49558
497,-489,14.6051,11.8397,0,0,0,0,0,0,0,-1,1721,1513,14.6051,-11.8397
504,-489,16.7527,14.1735,0,0,0,0,0,0,0,-1,1728,1513,16.7527,-14.1735
511,-489,17.83,17.7993,0,0,0,0,0,0,0,-1,1735,1513,17.83,-17.7993
518,-489,16.4751,14.3682,0,0,0,0,0,0,0,-1,1742,1513,16.4751,-14.3682
525,-489,17.2606,17.4949,0,0,0,0,0,0,0,-1,1749,1513,17.2606,-17.4949
532,-489,19.397,21.0182,0,0,0,0,0,0,0,-1,1756,1513,19.397,-21.0182
539,-489,28.8793,32.3397,0,0,0,0,0,0,0,-1,1763,1513,28.8793,-32.3397
546,-489,29.0393,31.3687,0.00887135,0.00530666,-0.00471235,0.0121272,0.00205085,-0.604599,0.00749527,0.0403917,1770,1513,29.0393,-31.3687
553,-489,28.9884,30.4557,0.00707782,0.00378926,-0.00340347,0.00921339,0.00165369,-0.560373,0.00567196,0.0243295,1777,1513,28.9884,-30.4557
560,-489,28.9869,29.6508,0.00563582,0.0026606,-0.00241565,0.00698517,0.00131125,-0.509413,0.00428707,0.0148036,1784,1513,28.9869,-29.6508
567,-489,29.0309,28.9028,0.00455525,0.00184877,-0.00178652,0.0054432,0.000960821,-0.461266,0.00335471,0.0159214,1791,1513,29.0309,-28.9028
574,-489,28.9653,28.1671,0.00381568,0.00137706,-0.00147961,0.00451365,0.00067909,-0.440773,0.00281022,0.0160658,1798,1513,28.9653,-28.1672
581,-489,28.9346,27.4138,0.0032054,0.00105802,-0.00129127,0.00381106,0.000452365,-0.438572,0.00240414,0.0111751,1805,1513,28.9346,-27.4138
588,-489,28.8981,26.649,0.00281146,0.000920874,-0.00124189,0.0034269,0.000305436,-0.460092,0.0021899,0.0128475,1812,1513,28.898,-26.649
595,-489,28.8496,25.9275,0.00265143,0.000871587,-0.00120234,0.00325736,0.000265652,-0.466813,0.00208866,0.0195522,1819,1513,28.8496,-25.9275
602,-489,28.813,25.2102,0.00257047,0.000979201,-0.00126466,0.00326896,0.000280711,-0.504618,0.00209202,0.0256974,1826,1513,28.813,-25.2103
609,-489,28.7651,24.4331,0.0025453,0.00116712,-0.00127733,0.00330756,0.000404862,-0.538034,0.00208324,0.0190174,1833,1513,28.7651,-24.4331
616,-489,28.7498,23.5975,0.00275511,0.0012726,-0.00110746,0.00334649,0.000681216,-0.490477,0.00204215,0.0227868,1840,1513,28.7497,-23.5975
623,-489,28.8037,22.7925,0,0,0,0,0,0,0,-1,1847,1513,28.8037,-22.7925
630,-489,28.7206,21.9838,0,0,0,0,0,0,0,-1,1854,1513,28.7206,-21.9838
637,-489,17.2048,11.8091,0,0,0,0,0,0,0,-1,1861,1513,17.2048,-11.8091
644,-489,9.67578,8.45874,0,0,0,0,0,0,0,-1,1868,1513,9.67576,-8.45879
651,-489,6.13818,6.85095,0,0,0,0,0,0,0,-1,1875,1513,6.13823,-6.85097
658,-489,5.43848,7.75513,0,0,0,0,0,0,0,-1,1882,1513,5.43844,-7.75509
665,-489,5.48438,8.59912,0,0,0,0,0,0,0,-1,1889,1513,5.48434,-8.59907
672,-489,0,0,0,0,0,0,0,0,0,-1,1896,1513,0,0
679,-489,0,0,0,0,0,0,0,0,0,-1,1903,1513,0,0
686,-489,0,0,0,0,0,0,0,0,0,-1,1910,1513,0,0
693,-489,0,0,0,0,0,0,0,0,0,-1,1917,1513,0,0
700,-489,0,0,0,0,0,0,0,0,0,-1,1924,1513,0,0
707,-489,0,0,0,0,0,0,0,0,0,-1,1931,1513,0,0
714,-489,0,0,0,0,0,0,0,0,0,-1,1938,1513,0,0
721,-489,0,0,0,0,0,0,0,0,0,-1,1945,1513,0,0
728,-489,0,0,0,0,0,0,0,0,0,-1,1952,1513,0,0
735,-489,0,0,0,0,0,0,0,0,0,-1,1959,1513,0,0
742,-489,0,0,0,0,0,0,0,0,0,-1,1966,1513,0,0
749,-489,0,0,0,0,0,0,0,0,0,-1,1973,1513,0,0
756,-489,0,0,0,0,0,0,0,0,0,-1,1980,1513,0,0
763,-489,0,0,0,0,0,0,0,0,0,-1,1987,1513,0,0
770,-489,0,0,0,0,0,0,0,0,0,-1,1994,1513,0,0
777,-489,0,0,0,0,0,0,0,0,0,-1,2001,1513,0,0
784,-489,0,0,0,0,0,0,0,0,0,-1,2008,1513,0,0
791,-489,0,0,0,0,0,0,0,0,0,-1,2015,1513,0,0
798,-489,0,0,0,0,0,0,0,0,0,-1,2022,1513,0,0
805,-489,0,0,0,0,0,0,0,0,0,-1,2029,1513,0,0
812,-489,0,0,0,0,0,0,0,0,0,-1,2036,1513,0,0
-700,-496,0,0,0,0,0,0,0,0,0,-1,524,1520,0,0
-693,-496,0,0,0,0,0,0,0,0,0,-1,531,1520,0,0
-686,-496,0,0,0,0,0,0,0,0,0,-1,538,1520,0,0
-679,-496,0,0,0,0,0,0,0,0,0,-1,545,1520,0,0
-672,-496,0,0,0,0,0,0,0,0,0,-1,552,1520,0,0
-665,-496,0,0,0,0,0,0,0,0,0,-1,559,1520,0,0
-658,-496,0,0,0,0,0,0,0,0,0,-1,566,1520,0,0
-651,-496,0,0,0,0,0,0,0,0,0,-1,573,1520,0,0
-644,-496,0,0,0,0,0,0,0,0,0,-1,580,1520,0,0
-637,-496,0,0,0,0,0,0,0,0,0,-1,587,1520,0,0
-630,-496,0,0,0,0,0,0,0,0,0,-1,594,1520,0,0
-623,-496,0,0,0,0,0,0,0,0,0,-1,601,1520,0,0
-616,-496,0,0,0,0,0,0,0,0,0,-1,608,1520,0,0
-609,-496,0,0,0,0,0,0,0,0,0,-1,615,1520,0,0
-602,-496,0,0,0,0,0,0,0,0,0,-1,622,1520,0,0
-595,-496,0,0,0,0,0,0,0,0,0,-1,629,1520,0,0
-588,-496,0,0,0,0,0,0,0,0,0,-1,636,1520,0,0
-581,-496,0,0,0,0,0,0,0,0,0,-1,643,1520,0,0
-574,-496,0,0,0,0,0,0,0,0,0,-1,650,1520,0,0
-567,-496,0,0,0,0,0,0,0,0,0,-1,657,1520,0,0
-560,-496,0,0,0,0,0,0,0,0,0,-1,664,1520,0,0
-553,-496,0,0,0,0,0,0,0,0,0,-1,671,1520,0,0
-546,-496,-8.09711,7.94836,0,0,0,0,0,0,0,-1,678,1520,-8.09712,-7.94842
-539,-496,-3.20129,1.16052,0,0,0,0,0,0,0,-1,685,1520,-3.20131,-1.16054
-532,-496,-2.98279,2.62146,0,0,0,0,0,0,0,-1,692,1520,-2.98278,-2.62151
-525,-496,-2.75201,4.08032,0,0,0,0,0,0,0,-1,699,1520,-2.75201,-4.08031
-518,-496,-2.6333,5.36072,0,0,0,0,0,0,0,-1,706,1520,-2.63328,-5.36077
-511,-496,-7.92126,9.68604,0,0,0,0,0,0,0,-1,713,1520,-7.92127,-9.68598
-504,-496,-7.51044,11.6274,0,0,0,0,0,0,0,-1,720,1520,-7.51042,-11.6275
-497,-496,-5.30933,14.4291,0,0,0,0,0,0,0,-1,727,1520,-5.30932,-14.4291
-490,-496,-8.21246,19.5051,0,0,0,0,0,0,0,-1,734,1520,-8.21243,-19.5051
-483,-496,-10.143,23.1079,0,0,0,0,0,0,0,-1,741,1520,-10.143,-23.1079
-476,-496,-10.0536,24.0417,-0.00146649,-0.00245688,0.000559562,-0.00121447,-0.0027089,0.423175,0.00156676,0.0261054,748,1520,-10.0536,-24.0417
-469,-496,-10.0429,24.8633,-0.00136545,-0.00237978,0.000177708,-0.00133521,-0.00241001,0.168512,0.00139413,0.0109791,755,1520,-10.0429,-24.8632
-462,-496,-10.0917,25.6368,-0.000979203,-0.00181384,0.000119938,-0.00096231,-0.00183073,0.139929,0.00105744,0.0160625,762,1520,-10.0917,-25.6369
-455,-496,-10.1419,26.4495,-0.000369603,-0.000987252,0.00031167,-0.000239667,-0.00111719,0.394992,0.000679149,0.0216735,769,1520,-10.1419,-26.4495
-448,-496,-10.1897,27.2568,0.000439445,0.000145693,0.000766208,0.00107273,-0.00048759,0.690701,0.000921723,0.0200067,776,1520,-10.1897,-27.2568
-441,-496,-10.1913,28.0088,0.00138281,0.00143718,0.00141511,0.00282537,-5.38246e-06,0.795002,0.00188537,0.0145511,783,1520,-10.1914,-28.0088
-434,-496,-10.2255,28.7756,0.00242451,0.0029105,0.00223054,0.00491125,0.000423763,0.839654,0.00314245,0.0146221,790,1520,-10.2255,-28.7757
-427,-496,-10.2828,29.5724,0.00355289,0.00447559,0.00317238,0.00722,0.000808485,0.857606,0.00456775,0.0192439,797,1520,-10.2828,-29.5723
-420,-496,-10.3151,30.3413,0.00478919,0.00610689,0.00423461,0.00973359,0.00116249,0.862573,0.00613837,0.0192044,804,1520,-10.3152,-30.3413
-413,-496,-10.2775,31.1726,0.00603565,0.00790524,0.00553231,0.0125812,0.00135971,0.869093,0.00797295,0.0330731,811,1520,-10.2775,-31.1726
-406,-496,-10.1376,32.0377,0,0,0,0,0,0,0,-1,818,1520,-10.1376,-32.0377
-399,-496,-9.78894,33.3983,0,0,0,0,0,0,0,-1,825,1520,-9.78896,-33.3983
-392,-496,-1.49786,12.387,0,0,0,0,0,0,0,-1,832,1520,-1.49788,-12.387
-385,-496,-1.72437,11.4985,0,0,0,0,0,0,0,-1,839,1520,-1.72436,-11.4985
-378,-496,-1.45532,14.0719,0,0,0,0,0,0,0,-1,846,1520,-1.45533,-14.0719
-371,-496,0.0877075,12.5299,0,0,0,0,0,0,0,-1,853,1520,0.0876896,-12.5299
-364,-496,0.0881348,10.6422,0,0,0,0,0,0,0,-1,860,1520,0.0881368,-10.6423
-357,-496,0.323792,7.56812,0,0,0,0,0,0,0,-1,867,1520,0.323782,-7.56806
-350,-496,2.1535,7.18945,0,0,0,0,0,0,0,-1,874,1520,2.15348,-7.1894
-343,-496,-7.56244,0.335327,0,0,0,0,0,0,0,-1,881,1520,-7.56242,-0.335322
-336,-496,-3.99249,6.02222,0,0,0,0,0,0,0,-1,888,1520,-3.99246,-6.0222
-329,-496,-6.93689,-0.100342,0,0,0,0,0,0,0,-1,895,1520,-6.93686,0.1003
-322,-496,-6.17505,0.494385,0,0,0,0,0,0,0,-1,902,1520,-6.17507,-0.49437
-315,-496,-7.539,5.78638,0,0,0,0,0,0,0,-1,909,1520,-7.53898,-5.78633
-308,-496,0,0,0,0,0,0,0,0,0,-1,916,1520,0,0
-301,-496,0,0,0,0,0,0,0,0,0,-1,923,1520,0,0
-294,-496,0,0,0,0,0,0,0,0,0,-1,930,1520,0,0
-287,-496,0,0,0,0,0,0,0,0,0,-1,937,1520,0,0
-280,-496,0,0,0,0,0,0,0,0,0,-1,944,1520,0,0
-273,-496,0,0,0,0,0,0,0,0,0,-1,951,1520,0,0
-266,-496,0,0,0,0,0,0,0,0,0,-1,958,1520,0,0
-259,-496,0,0,0,0,0,0,0,0,0,-1,965,1520,0,0
-252,-496,0,0,0,0,0,0,0,0,0,-1,972,1520,0,0
-245,-496,0,0,0,0,0,0,0,0,0,-1,979,1520,0,0
-238,-496,0,0,0,0,0,0,0,0,0,-1,986,1520,0,0
-231,-496,0,0,0,0,0,0,0,0,0,-1,993,1520,0,0
-224,-496,0,0,0,0,0,0,0,0,0,-1,1000,1520,0,0
-217,-496,0,0,0,0,0,0,0,0,0,-1,1007,1520,0,0
-210,-496,0,0,0,0,0,0,0,0,0,-1,1014,1520,0,0
-203,-496,0,0,0,0,0,0,0,0,0,-1,1021,1520,0,0
-196,-496,0,0,0,0,0,0,0,0,0,-1,1028,1520,0,0
-189,-496,0,0,0,0,0,0,0,0,0,-1,1035,1520,0,0
-182,-496,0,0,0,0,0,0,0,0,0,-1,1042,1520,0,0
-175,-496,0,0,0,0,0,0,0,0,0,-1,1049,1520,0,0
-168,-496,0,0,0,0,0,0,0,0,0,-1,1056,1520,0,0
-161,-496,0,0,0,0,0,0,0,0,0,-1,1063,1520,0,0
-154,-496,0,0,0,0,0,0,0,0,0,-1,1070,1520,0,0
-147,-496,0,0,0,0,0,0,0,0,0,-1,1077,1520,0,0
-140,-496,0,0,0,0,0,0,0,0,0,-1,1084,1520,0,0
-133,-496,0,0,0,0,0,0,0,0,0,-1,1091,1520,0,0
-126,-496,0,0,0,0,0,0,0,0,0,-1,1098,1520,0,0
-119,-496,0,0,0,0,0,0,0,0,0,-1,1105,1520,0,0
-112,-496,0,0,0,0,0,0,0,0,0,-1,1112,1520,0,0
-105,-496,0,0,0,0,0,0,0,0,0,-1,1119,1520,0,0
-98,-496,0,0,0,0,0,0,0,0,0,-1,1126,1520,0,0
-91,-496,0,0,0,0,0,0,0,0,0,-1,1133,1520,0,0
-84,-496,0,0,0,0,0,0,0,0,0,-1,1140,1520,0,0
-77,-496,0,0,0,0,0,0,0,0,0,-1,1147,1520,0,0
-70,-496,0,0,0,0,0,0,0,0,0,-1,1154,1520,0,0
-63,-496,0,0,0,0,0,0,0,0,0,-1,1161,1520,0,0
-56,-496,0,0,0,0,0,0,0,0,0,-1,1168,1520,0,0
-49,-496,0,0,0,0,0,0,0,0,0,-1,1175,1520,0,0
-42,-496,0,0,0,0,0,0,0,0,0,-1,1182,1520,0,0
-35,-496,0,0,0,0,0,0,0,0,0,-1,1189,1520,0,0
-28,-496,0,0,0,0,0,0,0,0,0,-1,1196,1520,0,0
-21,-496,0,0,0,0,0,0,0,0,0,-1,1203,1520,0,0
-14,-496,0,0,0,0,0,0,0,0,0,-1,1210,1520,0,0
-7,-496,0,0,0,0,0,0,0,0,0,-1,1217,1520,0,0
0,-496,0,0,0,0,0,0,0,0,0,-1,1224,1520,0,0
7,-496,0,0,0,0,0,0,0,0,0,-1,1231,1520,0,0
14,-496,0,0,0,0,0,0,0,0,0,-1,1238,1520,0,0
21,-496,0,0,0,0,0,0,0,0,0,-1,1245,1520,0,0
28,-496,0,0,0,0,0,0,0,0,0,-1,1252,1520,0,0
35,-496,0,0,0,0,0,0,0,0,0,-1,1259,1520,0,0
42,-496,0,0,0,0,0,0,0,0,0,-1,1266,1520,0,0
49,-496,0,0,0,0,0,0,0,0,0,-1,1273,1520,0,0
56,-496,0,0,0,0,0,0,0,0,0,-1,1280,1520,0,0
63,-496,0,0,0,0,0,0,0,0,0,-1,1287,1520,0,0
70,-496,0,0,0,0,0,0,0,0,0,-1,1294,1520,0,0
77,-496,0,0,0,0,0,0,0,0,0,-1,1301,1520,0,0
84,-496,0,0,0,0,0,0,0,0,0,-1,1308,1520,0,0
91,-496,0,0,0,0,0,0,0,0,0,-1,1315,1520,0,0
98,-496,0,0,0,0,0,0,0,0,0,-1,1322,1520,0,0
105,-496,0,0,0,0,0,0,0,0,0,-1,1329,1520,0,0
112,-496,0,0,0,0,0,0,0,0,0,-1,1336,1520,0,0
119,-496,0,0,0,0,0,0,0,0,0,-1,1343,1520,0,0
126,-496,0,0,0,0,0,0,0,0,0,-1,1350,1520,0,0
133,-496,0,0,0,0,0,0,0,0,0,-1,1357,1520,0,0
140,-496,0,0,0,0,0,0,0,0,0,-1,1364,1520,0,0
147,-496,0,0,0,0,0,0,0,0,0,-1,1371,1520,0,0
154,-496,0,0,0,0,0,0,0,0,0,-1,1378,1520,0,0
161,-496,0,0,0,0,0,0,0,0,0,-1,1385,1520,0,0
168,-496,0,0,0,0,0,0,0,0,0,-1,1392,1520,0,0
175,-496,0,0,0,0,0,0,0,0,0,-1,1399,1520,0,0
182,-496,0,0,0,0,0,0,0,0,0,-1,1406,1520,0,0
189,-496,0,0,0,0,0,0,0,0,0,-1,1413,1520,0,0
196,-496,0,0,0,0,0,0,0,0,0,-1,1420,1520,0,0
203,-496,0,0,0,0,0,0,0,0,0,-1,1427,1520,0,0
210,-496,0,0,0,0,0,0,0,0,0,-1,1434,1520,0,0
217,-496,0,0,0,0,0,0,0,0,0,-1,1441,1520,0,0
224,-496,0,0,0,0,0,0,0,0,0,-1,1448,1520,0,0
231,-496,0,0,0,0,0,0,0,0,0,-1,1455,1520,0,0
238,-496,0,0,0,0,0,0,0,0,0,-1,1462,1520,0,0
245,-496,0,0,0,0,0,0,0,0,0,-1,1469,1520,0,0
252,-496,0,0,0,0,0,0,0,0,0,-1,1476,1520,0,0
259,-496,0,0,0,0,0,0,0,0,0,-1,1483,1520,0,0
266,-496,0,0,0,0,0,0,0,0,0,-1,1490,1520,0,0
273,-496,0,0,0,0,0,0,0,0,0,-1,1497,1520,0,0
280,-496,0,0,0,0,0,0,0,0,0,-1,1504,1520,0,0
287,-496,0,0,0,0,0,0,0,0,0,-1,1511,1520,0,0
294,-496,0,0,0,0,0,0,0,0,0,-1,1518,1520,0,0
301,-496,0,0,0,0,0,0,0,0,0,-1,1525,1520,0,0
308,-496,0,0,0,0,0,0,0,0,0,-1,1532,1520,0,0
315,-496,0,0,0,0,0,0,0,0,0,-1,1539,1520,0,0
322,-496,0,0,0,0,0,0,0,0,0,-1,1546,1520,0,0
329,-496,0,0,0,0,0,0,0,0,0,-1,1553,1520,0,0
336,-496,0,0,0,0,0,0,0,0,0,-1,1560,1520,0,0
343,-496,0,0,0,0,0,0,0,0,0,-1,1567,1520,0,0
350,-496,0,0,0,0,0,0,0,0,0,-1,1574,1520,0,0
357,-496,0,0,0,0,0,0,0,0,0,-1,1581,1520,0,0
364,-496,0,0,0,0,0,0,0,0,0,-1,1588,1520,0,0
371,-496,0,0,0,0,0,0,0,0,0,-1,1595,1520,0,0
378,-496,0,0,0,0,0,0,0,0,0,-1,1602,1520,0,0
385,-496,0,0,0,0,0,0,0,0,0,-1,1609,1520,0,0
392,-496,0,0,0,0,0,0,0,0,0,-1,1616,1520,0,0
399,-496,0,0,0,0,0,0,0,0,0,-1,1623,1520,0,0
406,-496,0,0,0,0,0,0,0,0,0,-1,1630,1520,0,0
413,-496,0,0,0,0,0,0,0,0,0,-1,1637,1520,0,0
420,-496,0,0,0,0,0,0,0,0,0,-1,1644,1520,0,0
427,-496,0,0,0,0,0,0,0,0,0,-1,1651,1520,0,0
434,-496,11.0457,3.37732,0,0,0,0,0,0,0,-1,1658,1520,11.0456,-3.37736
441,-496,11.788,2.75488,0,0,0,0,0,0,0,-1,1665,1520,11.7879,-2.75485
448,-496,12.2146,2.18494,0,0,0,0,0,0,0,-1,1672,1520,12.2146,-2.18489
455,-496,12.3489,1.65173,0,0,0,0,0,0,0,-1,1679,1520,12.3489,-1.65178
462,-496,12.1912,1.32361,0,0,0,0,0,0,0,-1,1686,1520,12.1911,-1.32357
469,-496,14.8138,5.77954,0,0,0,0,0,0,0,-1,1693,1520,14.8138,-5.77958
476,-496,15.2449,6.27942,0,0,0,0,0,0,0,-1,1700,1520,15.2449,-6.27936
483,-496,9.19812,6.88367,0,0,0,0,0,0,0,-1,1707,1520,9.19812,-6.88361
490,-496,10.2123,7.97144,0,0,0,0,0,0,0,-1,1714,1520,10.2122,-7.97145
497,-496,13.9297,12.2981,0,0,0,0,0,0,0,-1,1721,1520,13.9297,-12.2982
504,-496,16.3271,16.6501,0,0,0,0,0,0,0,-1,1728,1520,16.3272,-16.6502
511,-496,17.6753,18.0685,0,0,0,0,0,0,0,-1,1735,1520,17.6753,-18.0685
518,-496,17.0537,17.3118,0,0,0,0,0,0,0,-1,1742,1520,17.0538,-17.3118
525,-496,18.2721,19.3259,0,0,0,0,0,0,0,-1,1749,1520,18.2721,-19.3259
532,-496,28.4551,32.1984,0,0,0,0,0,0,0,-1,1756,1520,28.4551,-32.1983
539,-496,28.0532,32.2561,0,0,0,0,0,0,0,-1,1763,1520,28.0533,-32.2561
546,-496,28.2102,31.2738,0.00748949,0.0048977,-0.00425147,0.0106382,0.00174901,-0.637466,0.00658698,0.0219789,1770,1520,28.2102,-31.2738
553,-496,28.298,30.413,0.00591911,0.00353484,-0.0030603,0.00801127,0.00144267,-0.599666,0.00493082,0.0165348,1777,1520,28.2979,-30.4129
560,-496,28.2997,29.6873,0.00470398,0.00250478,-0.00217442,0.00604102,0.00116774,-0.5513,0.00370004,0.0147487,1784,1520,28.2997,-29.6873
567,-496,28.2712,28.9282,0.00387922,0.00180341,-0.00166999,0.00480756,0.000875072,-0.507358,0.00295683,0.0121757,1791,1520,28.2712,-28.9282
574,-496,28.2163,28.1678,0.00335122,0.00137576,-0.00141888,0.00409232,0.000634666,-0.481336,0.00254319,0.0130373,1798,1520,28.2163,-28.1678
581,-496,28.1617,27.4377,0.00295319,0.00110007,-0.00129769,0.00362116,0.000432098,-0.475366,0.00228374,0.0135422,1805,1520,28.1617,-27.4377
588,-496,28.1422,26.6951,0.00277733,0.00103717,-0.0013467,0.00351057,0.000303926,-0.49859,0.00224594,0.0156397,1812,1520,28.1422,-26.6951
595,-496,28.1056,25.9637,0.00283449,0.00110249,-0.00143429,0.00364394,0.000293037,-0.513799,0.00233775,0.0175173,1819,1520,28.1055,-25.9638
602,-496,28.0582,25.2498,0.00299278,0.0013867,-0.00165654,0.00403067,0.000348818,-0.559704,0.00257871,0.0198385,1826,1520,28.0583,-25.2497
609,-496,28.0449,24.426,0.00320604,0.00174019,-0.00185589,0.00446849,0.000477746,-0.59734,0.0028332,0.0195805,1833,1520,28.0449,-24.4261
616,-496,28.1304,23.4775,0.00379303,0.00200749,-0.00186834,0.00497094,0.000829574,-0.562516,0.00307497,0.049758,1840,1520,28.1303,-23.4776
623,-496,28.1511,22.6921,0,0,0,0,0,0,0,-1,1847,1520,28.1511,-22.6922
630,-496,18.5656,13.8966,0,0,0,0,0,0,0,-1,1854,1520,18.5655,-13.8967
637,-496,14.6411,10.1016,0,0,0,0,0,0,0,-1,1861,1520,14.6411,-10.1016
644,-496,12.4537,10.087,0,0,0,0,0,0,0,-1,1868,1520,12.4537,-10.0871
651,-496,8.18506,5.47803,0,0,0,0,0,0,0,-1,1875,1520,8.18505,-5.47806
658,-496,7.79993,4.02563,0,0,0,0,0,0,0,-1,1882,1520,7.79997,-4.02568
665,-496,5.47583,7.90625,0,0,0,0,0,0,0,-1,1889,1520,5.47581,-7.90628
672,-496,0,0,0,0,0,0,0,0,0,-1,1896,1520,0,0
679,-496,0,0,0,0,0,0,0,0,0,-1,1903,1520,0,0
686,-496,0,0,0,0,0,0,0,0,0,-1,1910,1520,0,0
693,-496,0,0,0,0,0,0,0,0,0,-1,1917,1520,0,0
700,-496,0,0,0,0,0,0,0,0,0,-1,1924,1520,0,0
707,-496,0,0,0,0,0,0,0,0,0,-1,1931,1520,0,0
714,-496,0,0,0,0,0,0,0,0,0,-1,1938,1520,0,0
721,-496,0,0,0,0,0,0,0,0,0,-1,1945,1520,0,0
728,-496,0,0,0,0,0,0,0,0,0,-1,1952,1520,0,0
735,-496,0,0,0,0,0,0,0,0,0,-1,1959,1520,0,0
742,-496,0,0,0,0,0,0,0,0,0,-1,1966,1520,0,0
749,-496,0,0,0,0,0,0,0,0,0,-1,1973,1520,0,0
756,-496,0,0,0,0,0,0,0,0,0,-1,1980,1520,0,0
763,-496,0,0,0,0,0,0,0,0,0,-1,1987,1520,0,0
770,-496,0,0,0,0,0,0,0,0,0,-1,1994,1520,0,0
777,-496,0,0,0,0,0,0,0,0,0,-1,2001,1520,0,0
784,-496,0,0,0,0,0,0,0,0,0,-1,2008,1520,0,0
791,-496,0,0,0,0,0,0,0,0,0,-1,2015,1520,0,0
798,-496,0,0,0,0,0,0,0,0,0,-1,2022,1520,0,0
805,-496,0,0,0,0,0,0,0,0,0,-1,2029,1520,0,0
812,-496,0,0,0,0,0,0,0,0,0,-1,2036,1520,0,0
-700,-503,0,0,0,0,0,0,0,0,0,-1,524,1527,0,0
-693,-503,0,0,0,0,0,0,0,0,0,-1,531,1527,0,0
-686,-503,0,0,0,0,0,0,0,0,0,-1,538,1527,0,0
-679,-503,0,0,0,0,0,0,0,0,0,-1,545,1527,0,0
-672,-503,0,0,0,0,0,0,0,0,0,-1,552,1527,0,0
-665,-503,0,0,0,0,0,0,0,0,0,-1,559,1527,0,0
-658,-503,0,0,0,0,0,0,0,0,0,-1,566,1527,0,0
-651,-503,0,0,0,0,0,0,0,0,0,-1,573,1527,0,0
-644,-503,0,0,0,0,0,0,0,0,0,-1,580,1527,0,0
-637,-503,0,0,0,0,0,0,0,0,0,-1,587,1527,0,0
-630,-503,0,0,0,0,0,0,0,0,0,-1,594,1527,0,0
-623,-503,0,0,0,0,0,0,0,0,0,-1,601,1527,0,0
-616,-503,0,0,0,0,0,0,0,0,0,-1,608,1527,0,0
-609,-503,0,0,0,0,0,0,0,0,0,-1,615,1527,0,0
-602,-503,0,0,0,0,0,0,0,0,0,-1,622,1527,0,0
-595,-503,0,0,0,0,0,0,0,0,0,-1,629,1527,0,0
-588,-503,0,0,0,0,0,0,0,0,0,-1,636,1527,0,0
-581,-503,0,0,0,0,0,0,0,0,0,-1,643,1527,0,0
-574,-503,0,0,0,0,0,0,0,0,0,-1,650,1527,0,0
-567,-503,0,0,0,0,0,0,0,0,0,-1,657,1527,0,0
-560,-503,0,0,0,0,0,0,0,0,0,-1,664,1527,0,0
-553,-503,0,0,0,0,0,0,0,0,0,-1,671,1527,0,0
-546,-503,0,0,0,0,0,0,0,0,0,-1,678,1527,0,0
-539,-503,3.50177,4.26428,0,0,0,0,0,0,0,-1,685,1527,3.50177,-4.26424
-532,-503,-3.13196,1.05298,0,0,0,0,0,0,0,-1,692,1527,-3.13194,-1.05299
-525,-503,-2.94293,2.59314,0,0,0,0,0,0,0,-1,699,1527,-2.94296,-2.59314
-518,-503,-2.7395,4.05872,0,0,0,0,0,0,0,-1,706,1527,-2.73948,-4.05871
-511,-503,-1.60022,7.23877,0,0,0,0,0,0,0,-1,713,1527,-1.60023,-7.23872
-504,-503,-8.1402,10.1541,0,0,0,0,0,0,0,-1,720,1527,-8.14017,-10.1541
-497,-503,-4.51758,14.0781,0,0,0,0,0,0,0,-1,727,1527,-4.5176,-14.0782
-490,-503,-4.24194,16.1982,0,0,0,0,0,0,0,-1,734,1527,-4.24196,-16.1982
-483,-503,-9.31042,23.4236,0,0,0,0,0,0,0,-1,741,1527,-9.31045,-23.4236
-476,-503,-9.13898,24.2695,-0.00328668,-0.00410994,-0.000328058,-0.00317195,-0.00422468,-0.336446,0.00253935,0.0479161,748,1527,-9.13896,-24.2695
-469,-503,-9.27881,24.9137,-0.00300766,-0.00387021,-0.000667602,-0.00264414,-0.00423373,-0.498615,0.00246949,0.0175279,755,1527,-9.27883,-24.9137
-462,-503,-9.30524,25.707,-0.00247135,-0.00313587,-0.000692509,-0.00203551,-0.0035717,-0.561723,0.00206883,0.0117439,762,1527,-9.30524,-25.707
-455,-503,-9.32471,26.5013,-0.00172544,-0.00215726,-0.000473517,-0.00142093,-0.00246177,-0.571493,0.00142694,0.0183708,769,1527,-9.32473,-26.5013
-448,-503,-9.35938,27.2899,-0.000826182,-0.000999996,-4.25701e-05,-0.000816316,-0.00100986,-0.227741,0.000618898,0.0177773,776,1527,-9.35937,-27.2899
-441,-503,-9.37762,28.0461,0.000200497,0.000296463,0.000593638,0.000844054,-0.000347094,0.825725,0.00070738,0.0139539,783,1527,-9.37759,-28.0461
-434,-503,-9.4223,28.7961,0.00129462,0.00170576,0.0013711,0.00288661,0.000113759,0.859809,0.00188763,0.0122119,790,1527,-9.4223,-28.7961
-427,-503,-9.51019,29.574,0.00241939,0.00310539,0.00222919,0.00501781,0.000506968,0.861734,0.00318968,0.0185739,797,1527,-9.51018,-29.574
-420,-503,-9.50043,30.3341,0.00362488,0.00455967,0.00320501,0.00733119,0.000853358,0.857805,0.0046293,0.0177401,804,1527,-9.50045,-30.3341
-413,-503,-9.53137,31.1262,0.00483945,0.00604182,0.00432724,0.00980943,0.00107183,0.854421,0.00621324,0.0157124,811,1527,-9.53135,-31.1263
-406,-503,-9.56769,31.8997,0.00607737,0.00745168,0.00552036,0.0123275,0.00120156,0.847318,0.00784852,0.0265538,818,1527,-9.56766,-31.8997
-399,-503,-9.4436,32.9213,0.00749029,0.00919503,0.00688579,0.015281,0.00140431,0.846978,0.00975299,0.046137,825,1527,-9.44363,-32.9213
-392,-503,-9.08392,34.2114,0,0,0,0,0,0,0,-1,832,1527,-9.08393,-34.2115
-385,-503,-2.00403,14.1218,0,0,0,0,0,0,0,-1,839,1527,-2.00403,-14.1218
-378,-503,-2.07043,13.8632,0,0,0,0,0,0,0,-1,846,1527,-2.07043,-13.8631
-371,-503,-1.67285,13.8081,0,0,0,0,0,0,0,-1,853,1527,-1.67285,-13.8081
-364,-503,0.181396,12.3768,0,0,0,0,0,0,0,-1,860,1527,0.18138,-12.3768
-357,-503,0.558533,9.25452,0,0,0,0,0,0,0,-1,867,1527,0.558542,-9.25446
-350,-503,0.219971,6.84827,0,0,0,0,0,0,0,-1,874,1527,0.21996,-6.84831
-343,-503,-3.5802,4.43274,0,0,0,0,0,0,0,-1,881,1527,-3.58018,-4.43276
-336,-503,-3.2384,6.40637,0,0,0,0,0,0,0,-1,888,1527,-3.2384,-6.40643
-329,-503,-1.70691,11.886,0,0,0,0,0,0,0,-1,895,1527,-1.70689,-11.886
-322,-503,-3.31317,8.81519,0,0,0,0,0,0,0,-1,902,1527,-3.31315,-8.81524
-315,-503,-3.90265,7.73853,0,0,0,0,0,0,0,-1,909,1527,-3.90264,-7.73854
-308,-503,-1.70264,7.35413,0,0,0,0,0,0,0,-1,916,1527,-1.70262,-7.35416
-301,-503,0,0,0,0,0,0,0,0,0,-1,923,1527,0,0
-294,-503,0,0,0,0,0,0,0,0,0,-1,930,1527,0,0
-287,-503,0,0,0,0,0,0,0,0,0,-1,937,1527,0,0
-280,-503,0,0,0,0,0,0,0,0,0,-1,944,1527,0,0
-273,-503,0,0,0,0,0,0,0,0,0,-1,951,1527,0,0
-266,-503,0,0,0,0,0,0,0,0,0,-1,958,1527,0,0
-259,-503,0,0,0,0,0,0,0,0,0,-1,965,1527,0,0
-252,-503,0,0,0,0,0,0,0,0,0,-1,972,1527,0,0
-245,-503,0,0,0,0,0,0,0,0,0,-1,979,1527,0,0
-238,-503,0,0,0,0,0,0,0,0,0,-1,986,1527,0,0
-231,-503,0,0,0,0,0,0,0,0,0,-1,993,1527,0,0
-224,-503,0,0,0,0,0,0,0,0,0,-1,1000,1527,0,0
-217,-503,0,0,0,0,0,0,0,0,0,-1,1007,1527,0,0
-210,-503,0,0,0,0,0,0,0,0,0,-1,1014,1527,0,0
-203,-503,0,0,0,0,0,0,0,0,0,-1,1021,1527,0,0
-196,-503,0,0,0,0,0,0,0,0,0,-1,1028,1527,0,0
-189,-503,0,0,0,0,0,0,0,0,0,-1,1035,1527,0,0
-182,-503,0,0,0,0,0,0,0,0,0,-1,1042,1527,0,0
-175,-503,0,0,0,0,0,0,0,0,0,-1,1049,1527,0,0
-168,-503,0,0,0,0,0,0,0,0,0,-1,1056,1527,0,0
-161,-503,0,0,0,0,0,0,0,0,0,-1,1063,1527,0,0
-154,-503,0,0,0,0,0,0,0,0,0,-1,1070,1527,0,0
-147,-503,0,0,0,0,0,0,0,0,0,-1,1077,1527,0,0
-140,-503,0,0,0,0,0,0,0,0,0,-1,1084,1527,0,0
-133,-503,0,0,0,0,0,0,0,0,0,-1,1091,1527,0,0
-126,-503,0,0,0,0,0,0,0,0,0,-1,1098,1527,0,0
-119,-503,0,0,0,0,0,0,0,0,0,-1,1105,1527,0,0
-112,-503,0,0,0,0,0,0,0,0,0,-1,1112,1527,0,0
-105,-503,0,0,0,0,0,0,0,0,0,-1,1119,1527,0,0
-98,-503,0,0,0,0,0,0,0,0,0,-1,1126,1527,0,0
-91,-503,0,0,0,0,0,0,0,0,0,-1,1133,1527,0,0
-84,-503,0,0,0,0,0,0,0,0,0,-1,1140,1527,0,0
-77,-503,0,0,0,0,0,0,0,0,0,-1,1147,1527,0,0
-70,-503,0,0,0,0,0,0,0,0,0,-1,1154,1527,0,0
-63,-503,0,0,0,0,0,0,0,0,0,-1,1161,1527,0,0
-56,-503,0,0,0,0,0,0,0,0,0,-1,1168,1527,0,0
-49,-503,0,0,0,0,0,0,0,0,0,-1,1175,1527,0,0
-42,-503,0,0,0,0,0,0,0,0,0,-1,1182,1527,0,0
-35,-503,0,0,0,0,0,0,0,0,0,-1,1189,1527,0,0
-28,-503,0,0,0,0,0,0,0,0,0,-1,1196,1527,0,0
-21,-503,0,0,0,0,0,0,0,0,0,-1,1203,1527,0,0
-14,-503,0,0,0,0,0,0,0,0,0,-1,1210,1527,0,0
-7,-503,0,0,0,0,0,0,0,0,0,-1,1217,1527,0,0
0,-503,0,0,0,0,0,0,0,0,0,-1,1224,1527,0,0
7,-503,0,0,0,0,0,0,0,0,0,-1,1231,1527,0,0
14,-503,0,0,0,0,0,0,0,0,0,-1,1238,1527,0,0
21,-503,0,0,0,0,0,0,0,0,0,-1,1245,1527,0,0
28,-503,0,0,0,0,0,0,0,0,0,-1,1252,1527,0,0
35,-503,0,0,0,0,0,0,0,0,0,-1,1259,1527,0,0
42,-503,0,0,0,0,0,0,0,0,0,-1,1266,1527,0,0
49,-503,0,0,0,0,0,0,0,0,0,-1,1273,1527,0,0
56,-503,0,0,0,0,0,0,0,0,0,-1,1280,1527,0,0
63,-503,0,0,0,0,0,0,0,0,0,-1,1287,1527,0,0
70,-503,0,0,0,0,0,0,0,0,0,-1,1294,1527,0,0
77,-503,0,0,0,0,0,0,0,0,0,-1,1301,1527,0,0
84,-503,0,0,0,0,0,0,0,0,0,-1,1308,1527,0,0
91,-503,0,0,0,0,0,0,0,0,0,-1,1315,1527,0,0
98,-503,0,0,0,0,0,0,0,0,0,-1,1322,1527,0,0
105,-503,0,0,0,0,0,0,0,0,0,-1,1329,1527,0,0
112,-503,0,0,0,0,0,0,0,0,0,-1,1336,1527,0,0
119,-503,0,0,0,0,0,0,0,0,0,-1,1343,1527,0,0
126,-503,0,0,0,0,0,0,0,0,0,-1,1350,1527,0,0
133,-503,0,0,0,0,0,0,0,0,0,-1,1357,1527,0,0
140,-503,0,0,0,0,0,0,0,0,0,-1,1364,1527,0,0
147,-503,0,0,0,0,0,0,0,0,0,-1,1371,1527,0,0
154,-503,0,0,0,0,0,0,0,0,0,-1,1378,1527,0,0
161,-503,0,0,0,0,0,0,0,0,0,-1,1385,1527,0,0
168,-503,0,0,0,0,0,0,0,0,0,-1,1392,1527,0,0
175,-503,0,0,0,0,0,0,0,0,0,-1,1399,1527,0,0
182,-503,0,0,0,0,0,0,0,0,0,-1,1406,1527,0,0
189,-503,0,0,0,0,0,0,0,0,0,-1,1413,1527,0,0
196,-503,0,0,0,0,0,0,0,0,0,-1,1420,1527,0,0
203,-503,0,0,0,0,0,0,0,0,0,-1,1427,1527,0,0
210,-503,0,0,0,0,0,0,0,0,0,-1,1434,1527,0,0
217,-503,0,0,0,0,0,0,0,0,0,-1,1441,1527,0,0
224,-503,0,0,0,0,0,0,0,0,0,-1,1448,1527,0,0
231,-503,0,0,0,0,0,0,0,0,0,-1,1455,1527,0,0
238,-503,0,0,0,0,0,0,0,0,0,-1,1462,1527,0,0
245,-503,0,0,0,0,0,0,0,0,0,-1,1469,1527,0,0
252,-503,0,0,0,0,0,0,0,0,0,-1,1476,1527,0,0
259,-503,0,0,0,0,0,0,0,0,0,-1,1483,1527,0,0
266,-503,0,0,0,0,0,0,0,0,0,-1,1490,1527,0,0
273,-503,0,0,0,0,0,0,0,0,0,-1,1497,1527,0,0
280,-503,0,0,0,0,0,0,0,0,0,-1,1504,1527,0,0
287,-503,0,0,0,0,0,0,0,0,0,-1,1511,1527,0,0
294,-503,0,0,0,0,0,0,0,0,0,-1,1518,1527,0,0
301,-503,0,0,0,0,0,0,0,0,0,-1,1525,1527,0,0
308,-503,0,0,0,0,0,0,0,0,0,-1,1532,1527,0,0
315,-503,0,0,0,0,0,0,0,0,0,-1,1539,1527,0,0
322,-503,0,0,0,0,0,0,0,0,0,-1,1546,1527,0,0
329,-503,0,0,0,0,0,0,0,0,0,-1,1553,1527,0,0
336,-503,0,0,0,0,0,0,0,0,0,-1,1560,1527,0,0
343,-503,0,0,0,0,0,0,0,0,0,-1,1567,1527,0,0
350,-503,0,0,0,0,0,0,0,0,0,-1,1574,1527,0,0
357,-503,0,0,0,0,0,0,0,0,0,-1,1581,1527,0,0
364,-503,0,0,0,0,0,0,0,0,0,-1,1588,1527,0,0
371,-503,0,0,0,0,0,0,0,0,0,-1,1595,1527,0,0
378,-503,0,0,0,0,0,0,0,0,0,-1,1602,1527,0,0
385,-503,0,0,0,0,0,0,0,0,0,-1,1609,1527,0,0
392,-503,0,0,0,0,0,0,0,0,0,-1,1616,1527,0,0
399,-503,0,0,0,0,0,0,0,0,0,-1,1623,1527,0,0
406,-503,0,0,0,0,0,0,0,0,0,-1,1630,1527,0,0
413,-503,0,0,0,0,0,0,0,0,0,-1,1637,1527,0,0
420,-503,0,0,0,0,0,0,0,0,0,-1,1644,1527,0,0
427,-503,10.5968,4.9856,0,0,0,0,0,0,0,-1,1651,1527,10.5969,-4.98563
434,-503,11.4329,3.97217,0,0,0,0,0,0,0,-1,1658,1527,11.4328,-3.97222
441,-503,12.0957,2.96509,0,0,0,0,0,0,0,-1,1665,1527,12.0957,-2.96512
448,-503,12.3259,2.53894,0,0,0,0,0,0,0,-1,1672,1527,12.326,-2.53895
455,-503,12.1669,2.18762,0,0,0,0,0,0,0,-1,1679,1527,12.1668,-2.18767
462,-503,11.59,2.60791,0,0,0,0,0,0,0,-1,1686,1527,11.5899,-2.60794
469,-503,11.1625,1.61853,0,0,0,0,0,0,0,-1,1693,1527,11.1625,-1.61856
476,-503,9.07703,5.81042,0,0,0,0,0,0,0,-1,1700,1527,9.07699,-5.81047
483,-503,9.74414,6.92432,0,0,0,0,0,0,0,-1,1707,1527,9.74417,-6.9243
490,-503,10.5033,10.1071,0,0,0,0,0,0,0,-1,1714,1527,10.5032,-10.107
497,-503,15.0057,17.9476,0,0,0,0,0,0,0,-1,1721,1527,15.0058,-17.9476
504,-503,16.4764,18.4486,0,0,0,0,0,0,0,-1,1728,1527,16.4764,-18.4486
511,-503,16.8276,18.3271,0,0,0,0,0,0,0,-1,1735,1527,16.8276,-18.3272
518,-503,17.2533,18.2738,0,0,0,0,0,0,0,-1,1742,1527,17.2533,-18.2738
525,-503,21.2887,26.5785,0,0,0,0,0,0,0,-1,1749,1527,21.2887,-26.5785
532,-503,27.5757,32.8359,0,0,0,0,0,0,0,-1,1756,1527,27.5756,-32.8359
539,-503,27.5612,32.0378,0.00801826,0.00577712,-0.00497006,0.0119925,0.00180287,-0.67452,0.00746695,0.0328314,1763,1527,27.5611,-32.0379
546,-503,27.5765,31.1797,0.00621048,0.00439379,-0.00370472,0.00911658,0.00148768,-0.665177,0.00564752,0.0147484,1770,1527,27.5766,-31.1797
553,-503,27.5969,30.4469,0.0048924,0.00317943,-0.00267008,0.00684,0.00123183,-0.630197,0.0042099,0.0145484,1777,1527,27.5969,-30.4469
560,-503,27.5519,29.7207,0.00392343,0.0022485,-0.00190613,0.00516796,0.00100398,-0.578416,0.00316419,0.0134947,1784,1527,27.5519,-29.7207
567,-503,27.4935,28.9618,0.00335086,0.00166631,-0.00153021,0.00425528,0.000761888,-0.533811,0.00262008,0.0121995,1791,1527,27.4935,-28.9618
574,-503,27.455,28.207,0.00304154,0.00130586,-0.00135258,0.00378075,0.000566646,-0.500168,0.00235446,0.0129685,1798,1527,27.455,-28.207
581,-503,27.4036,27.464,0.00287544,0.00110627,-0.00131997,0.00357982,0.000401889,-0.49019,0.0022645,0.0144658,1805,1527,27.4036,-27.464
588,-503,27.3708,26.7322,0.00293437,0.00115249,-0.00148566,0.00377576,0.000311106,-0.515302,0.00242014,0.0183024,1812,1527,27.3708,-26.7322
595,-503,27.3549,25.9841,0.0032142,0.00137543,-0.00172877,0.00425285,0.00033677,-0.541011,0.00272991,0.0141499,1819,1527,27.3549,-25.9841
602,-503,27.3734,25.1763,0.00362791,0.00189895,-0.0021591,0.00508916,0.000437694,-0.594977,0.0032567,0.024056,1826,1527,27.3734,-25.1763
609,-503,27.3839,24.3342,0,0,0,0,0,0,0,-1,1833,1527,27.384,-24.3342
616,-503,27.496,23.5409,0,0,0,0,0,0,0,-1,1840,1527,27.496,-23.5408
623,-503,18.7351,15.5999,0,0,0,0,0,0,0,-1,1847,1527,18.7351,-15.5999
630,-503,20.6721,13.9077,0,0,0,0,0,0,0,-1,1854,1527,20.6721,-13.9077
637,-503,14.5564,9.20496,0,0,0,0,0,0,0,-1,1861,1527,14.5564,-9.2049
644,-503,11.4802,7.57214,0,0,0,0,0,0,0,-1,1868,1527,11.4802,-7.57215
651,-503,11.5718,6.5448,0,0,0,0,0,0,0,-1,1875,1527,11.5718,-6.54476
658,-503,8.25635,3.10498,0,0,0,0,0,0,0,-1,1882,1527,8.2563,-3.10493
665,-503,0,0,0,0,0,0,0,0,0,-1,1889,1527,0,0
672,-503,0,0,0,0,0,0,0,0,0,-1,1896,1527,0,0
679,-503,0,0,0,0,0,0,0,0,0,-1,1903,1527,0,0
686,-503,0,0,0,0,0,0,0,0,0,-1,1910,1527,0,0
693,-503,0,0,0,0,0,0,0,0,0,-1,1917,1527,0,0
700,-503,0,0,0,0,0,0,0,0,0,-1,1924,1527,0,0
707,-503,0,0,0,0,0,0,0,0,0,-1,1931,1527,0,0
714,-503,0,0,0,0,0,0,0,0,0,-1,1938,1527,0,0
721,-503,0,0,0,0,0,0,0,0,0,-1,1945,1527,0,0
728,-503,0,0,0,0,0,0,0,0,0,-1,1952,1527,0,0
735,-503,0,0,0,0,0,0,0,0,0,-1,1959,1527,0,0
742,-503,0,0,0,0,0,0,0,0,0,-1,1966,1527,0,0
749,-503,0,0,0,0,0,0,0,0,0,-1,1973,1527,0,0
756,-503,0,0,0,0,0,0,0,0,0,-1,1980,1527,0,0
763,-503,0,0,0,0,0,0,0,0,0,-1,1987,1527,0,0
770,-503,0,0,0,0,0,0,0,0,0,-1,1994,1527,0,0
777,-503,0,0,0,0,0,0,0,0,0,-1,2001,1527,0,0
784,-503,0,0,0,0,0,0,0,0,0,-1,2008,1527,0,0
791,-503,0,0,0,0,0,0,0,0,0,-1,2015,1527,0,0
798,-503,0,0,0,0,0,0,0,0,0,-1,2022,1527,0,0
805,-503,0,0,0,0,0,0,0,0,0,-1,2029,1527,0,0
812,-503,0,0,0,0,0,0,0,0,0,-1,2036,1527,0,0
-700,-510,0,0,0,0,0,0,0,0,0,-1,524,1534,0,0
-693,-510,0,0,0,0,0,0,0,0,0,-1,531,1534,0,0
-686,-510,0,0,0,0,0,0,0,0,0,-1,538,1534,0,0
-679,-510,0,0,0,0,0,0,0,0,0,-1,545,1534,0,0
-672,-510,0,0,0,0,0,0,0,0,0,-1,552,1534,0,0
-665,-510,0,0,0,0,0,0,0,0,0,-1,559,1534,0,0
-658,-510,0,0,0,0,0,0,0,0,0,-1,566,1534,0,0
-651,-510,0,0,0,0,0,0,0,0,0,-1,573,1534,0,0
-644,-510,0,0,0,0,0,0,0,0,0,-1,580,1534,0,0
-637,-510,0,0,0,0,0,0,0,0,0,-1,587,1534,0,0
-630,-510,0,0,0,0,0,0,0,0,0,-1,594,1534,0,0
-623,-510,0,0,0,0,0,0,0,0,0,-1,601,1534,0,0
-616,-510,0,0,0,0,0,0,0,0,0,-1,608,1534,0,0
-609,-510,0,0,0,0,0,0,0,0,0,-1,615,1534,0,0
-602,-510,0,0,0,0,0,0,0,0,0,-1,622,1534,0,0
-595,-510,0,0,0,0,0,0,0,0,0,-1,629,1534,0,0
-588,-510,0,0,0,0,0,0,0,0,0,-1,636,1534,0,0
-581,-510,0,0,0,0,0,0,0,0,0,-1,643,1534,0,0
-574,-510,0,0,0,0,0,0,0,0,0,-1,650,1534,0,0
-567,-510,0,0,0,0,0,0,0,0,0,-1,657,1534,0,0
-560,-510,0,0,0,0,0,0,0,0,0,-1,664,1534,0,0
-553,-510,0,0,0,0,0,0,0,0,0,-1,671,1534,0,0
-546,-510,0,0,0,0,0,0,0,0,0,-1,678,1534,0,0
-539,-510,0,0,0,0,0,0,0,0,0,-1,685,1534,0,0
-532,-510,-3.95129,4.52014,0,0,0,0,0,0,0,-1,692,1534,-3.95131,-4.5202
-525,-510,-2.77411,0.316772,0,0,0,0,0,0,0,-1,699,1534,-2.77409,-0.3168
-518,-510,-2.86847,2.71423,0,0,0,0,0,0,0,-1,706,1534,-2.86849,-2.71424
-511,-510,-2.28571,4.48083,0,0,0,0,0,0,0,-1,713,1534,-2.28571,-4.48086
-504,-510,-4.86731,10.8224,0,0,0,0,0,0,0,-1,720,1534,-4.8673,-10.8224
-497,-510,-3.42352,15.5178,0,0,0,0,0,0,0,-1,727,1534,-3.42352,-15.5178
-490,-510,-5.9472,18.5184,0,0,0,0,0,0,0,-1,734,1534,-5.94718,-18.5185
-483,-510,-6.79639,20.8453,0,0,0,0,0,0,0,-1,741,1534,-6.79638,-20.8454
-476,-510,-8.45288,24.329,0,0,0,0,0,0,0,-1,748,1534,-8.45288,-24.329
-469,-510,-8.46423,24.9738,-0.00496062,-0.00573434,-0.0015972,-0.00370409,-0.00699086,-0.666581,0.00403857,0.0239213,755,1534,-8.46425,-24.9737
-462,-510,-8.5,25.7358,-0.0042199,-0.00473846,-0.00156317,-0.00289465,-0.0060637,-0.703212,0.00350208,0.0122794,762,1534,-8.5,-25.7358
-455,-510,-8.54437,26.5494,-0.00329973,-0.00354865,-0.00130825,-0.00211003,-0.00473834,-0.737973,0.00274113,0.015042,769,1534,-8.54436,-26.5494
-448,-510,-8.57214,27.3202,-0.00227674,-0.00231315,-0.000893695,-0.00140106,-0.00318882,-0.775212,0.00184558,0.0140698,776,1534,-8.57214,-27.3201
-441,-510,-8.60791,28.0658,-0.00114226,-0.000957366,-0.000268541,-0.000765804,-0.00133382,-0.951171,0.000772898,0.0148504,783,1534,-8.60791,-28.0658
-434,-510,-8.70374,28.8232,1.9887e-05,0.000437634,0.000468365,0.000741591,-0.000284069,0.995144,0.000611488,0.0160491,790,1534,-8.70373,-28.8232
-427,-510,-8.76105,29.5558,0.00115589,0.00174169,0.00124404,0.00272685,0.000170736,0.901013,0.00176374,0.0240994,797,1534,-8.76104,-29.5558
-420,-510,-8.75861,30.3673,0.00233844,0.00308169,0.00212105,0.00486342,0.000556713,0.872122,0.00307356,0.0213634,804,1534,-8.75861,-30.3674
-413,-510,-8.77008,31.1569,0.00352532,0.00436853,0.00307123,0.00704696,0.000846887,0.85361,0.00444267,0.0110566,811,1534,-8.77011,-31.1569
-406,-510,-8.83484,31.9005,0.00465821,0.00560142,0.00403476,0.00919204,0.00106759,0.843577,0.00580498,0.0108422,818,1534,-8.83486,-31.9005
-399,-510,-8.88159,32.6477,0.00586074,0.00702218,0.00507125,0.0115458,0.00133707,0.842406,0.00729251,0.0158847,825,1534,-8.88161,-32.6477
-392,-510,-8.80035,33.4153,0,0,0,0,0,0,0,-1,832,1534,-8.80038,-33.4153
-385,-510,-7.23199,31.704,0,0,0,0,0,0,0,-1,839,1534,-7.23198,-31.704
-378,-510,-1.78308,13.8044,0,0,0,0,0,0,0,-1,846,1534,-1.78309,-13.8044
-371,-510,-1.74982,13.8027,0,0,0,0,0,0,0,-1,853,1534,-1.74981,-13.8028
-364,-510,-1.3479,13.7771,0,0,0,0,0,0,0,-1,860,1534,-1.34791,-13.7771
-357,-510,-0.254395,8.89575,0,0,0,0,0,0,0,-1,867,1534,-0.254397,-8.89569
-350,-510,0.471191,6.06458,0,0,0,0,0,0,0,-1,874,1534,0.47118,-6.06453
-343,-510,-6.96869,26.3074,0,0,0,0,0,0,0,-1,881,1534,-6.9687,-26.3074
-336,-510,-5.60437,29.5996,0,0,0,0,0,0,0,-1,888,1534,-5.60435,-29.5996
-329,-510,-4.87781,20.6893,0,0,0,0,0,0,0,-1,895,1534,-4.87782,-20.6894
-322,-510,-0.251526,11.973,0,0,0,0,0,0,0,-1,902,1534,-0.251497,-11.9731
-315,-510,-1.73047,10.9796,0,0,0,0,0,0,0,-1,909,1534,-1.73049,-10.9796
-308,-510,-2.05328,9.72034,0,0,0,0,0,0,0,-1,916,1534,-2.05327,-9.72036
-301,-510,-1.85437,11.5869,0,0,0,0,0,0,0,-1,923,1534,-1.85437,-11.5869
-294,-510,0,0,0,0,0,0,0,0,0,-1,930,1534,0,0
-287,-510,0,0,0,0,0,0,0,0,0,-1,937,1534,0,0
-280,-510,0,0,0,0,0,0,0,0,0,-1,944,1534,0,0
-273,-510,0,0,0,0,0,0,0,0,0,-1,951,1534,0,0
-266,-510,0,0,0,0,0,0,0,0,0,-1,958,1534,0,0
-259,-510,0,0,0,0,0,0,0,0,0,-1,965,1534,0,0
-252,-510,0,0,0,0,0,0,0,0,0,-1,972,1534,0,0
-245,-510,0,0,0,0,0,0,0,0,0,-1,979,1534,0,0
-238,-510,0,0,0,0,0,0,0,0,0,-1,986,1534,0,0
-231,-510,0,0,0,0,0,0,0,0,0,-1,993,1534,0,0
-224,-510,0,0,0,0,0,0,0,0,0,-1,1000,1534,0,0
-217,-510,0,0,0,0,0,0,0,0,0,-1,1007,1534,0,0
-210,-510,0,0,0,0,0,0,0,0,0,-1,1014,1534,0,0
-203,-510,0,0,0,0,0,0,0,0,0,-1,1021,1534,0,0
-196,-510,0,0,0,0,0,0,0,0,0,-1,1028,1534,0,0
-189,-510,0,0,0,0,0,0,0,0,0,-1,1035,1534,0,0
-182,-510,0,0,0,0,0,0,0,0,0,-1,1042,1534,0,0
-175,-510,0,0,0,0,0,0,0,0,0,-1,1049,1534,0,0
-168,-510,0,0,0,0,0,0,0,0,0,-1,1056,1534,0,0
-161,-510,0,0,0,0,0,0,0,0,0,-1,1063,1534,0,0
-154,-510,0,0,0,0,0,0,0,0,0,-1,1070,1534,0,0
-147,-510,0,0,0,0,0,0,0,0,0,-1,1077,1534,0,0
-140,-510,0,0,0,0,0,0,0,0,0,-1,1084,1534,0,0
-133,-510,0,0,0,0,0,0,0,0,0,-1,1091,1534,0,0
-126,-510,0,0,0,0,0,0,0,0,0,-1,1098,1534,0,0
-119,-510,0,0,0,0,0,0,0,0,0,-1,1105,1534,0,0
-112,-510,0,0,0,0,0,0,0,0,0,-1,1112,1534,0,0
-105,-510,0,0,0,0,0,0,0,0,0,-1,1119,1534,0,0
-98,-510,0,0,0,0,0,0,0,0,0,-1,1126,1534,0,0
-91,-510,0,0,0,0,0,0,0,0,0,-1,1133,1534,0,0
-84,-510,0,0,0,0,0,0,0,0,0,-1,1140,1534,0,0
-77,-510,0,0,0,0,0,0,0,0,0,-1,1147,1534,0,0
-70,-510,0,0,0,0,0,0,0,0,0,-1,1154,1534,0,0
-63,-510,0,0,0,0,0,0,0,0,0,-1,1161,1534,0,0
-56,-510,0,0,0,0,0,0,0,0,0,-1,1168,1534,0,0
-49,-510,0,0,0,0,0,0,0,0,0,-1,1175,1534,0,0
-42,-510,0,0,0,0,0,0,0,0,0,-1,1182,1534,0,0
-35,-510,0,0,0,0,0,0,0,0,0,-1,1189,1534,0,0
-28,-510,0,0,0,0,0,0,0,0,0,-1,1196,1534,0,0
-21,-510,0,0,0,0,0,0,0,0,0,-1,1203,1534,0,0
-14,-510,0,0,0,0,0,0,0,0,0,-1,1210,1534,0,0
-7,-510,0,0,0,0,0,0,0,0,0,-1,1217,1534,0,0
0,-510,0,0,0,0,0,0,0,0,0,-1,1224,1534,0,0
7,-510,0,0,0,0,0,0,0,0,0,-1,1231,1534,0,0
14,-510,0,0,0,0,0,0,0,0,0,-1,1238,1534,0,0
21,-510,0,0,0,0,0,0,0,0,0,-1,1245,1534,0,0
28,-510,0,0,0,0,0,0,0,0,0,-1,1252,1534,0,0
35,-510,0,0,0,0,0,0,0,0,0,-1,1259,1534,0,0
42,-510,0,0,0,0,0,0,0,0,0,-1,1266,1534,0,0
49,-510,0,0,0,0,0,0,0,0,0,-1,1273,1534,0,0
56,-510,0,0,0,0,0,0,0,0,0,-1,1280,1534,0,0
63,-510,0,0,0,0,0,0,0,0,0,-1,1287,1534,0,0
70,-510,0,0,0,0,0,0,0,0,0,-1,1294,1534,0,0
77,-510,0,0,0,0,0,0,0,0,0,-1,1301,1534,0,0
84,-510,0,0,0,0,0,0,0,0,0,-1,1308,1534,0,0
91,-510,0,0,0,0,0,0,0,0,0,-1,1315,1534,0,0
98,-510,0,0,0,0,0,0,0,0,0,-1,1322,1534,0,0
105,-510,0,0,0,0,0,0,0,0,0,-1,1329,1534,0,0
112,-510,0,0,0,0,0,0,0,0,0,-1,1336,1534,0,0
119,-510,0,0,0,0,0,0,0,0,0,-1,1343,1534,0,0
126,-510,0,0,0,0,0,0,0,0,0,-1,1350,1534,0,0
133,-510,0,0,0,0,0,0,0,0,0,-1,1357,1534,0,0
140,-510,0,0,0,0,0,0,0,0,0,-1,1364,1534,0,0
147,-510,0,0,0,0,0,0,0,0,0,-1,1371,1534,0,0
154,-510,0,0,0,0,0,0,0,0,0,-1,1378,1534,0,0
161,-510,0,0,0,0,0,0,0,0,0,-1,1385,1534,0,0
168,-510,0,0,0,0,0,0,0,0,0,-1,1392,1534,0,0
175,-510,0,0,0,0,0,0,0,0,0,-1,1399,1534,0,0
182,-510,0,0,0,0,0,0,0,0,0,-1,1406,1534,0,0
189,-510,0,0,0,0,0,0,0,0,0,-1,1413,1534,0,0
196,-510,0,0,0,0,0,0,0,0,0,-1,1420,1534,0,0
203,-510,0,0,0,0,0,0,0,0,0,-1,1427,1534,0,0
210,-510,0,0,0,0,0,0,0,0,0,-1,1434,1534,0,0
217,-510,0,0,0,0,0,0,0,0,0,-1,1441,1534,0,0
224,-510,0,0,0,0,0,0,0,0,0,-1,1448,1534,0,0
231,-510,0,0,0,0,0,0,0,0,0,-1,1455,1534,0,0
238,-510,0,0,0,0,0,0,0,0,0,-1,1462,1534,0,0
245,-510,0,0,0,0,0,0,0,0,0,-1,1469,1534,0,0
252,-510,0,0,0,0,0,0,0,0,0,-1,1476,1534,0,0
259,-510,0,0,0,0,0,0,0,0,0,-1,1483,1534,0,0
266,-510,0,0,0,0,0,0,0,0,0,-1,1490,1534,0,0
273,-510,0,0,0,0,0,0,0,0,0,-1,1497,1534,0,0
280,-510,0,0,0,0,0,0,0,0,0,-1,1504,1534,0,0
287,-510,0,0,0,0,0,0,0,0,0,-1,1511,1534,0,0
294,-510,0,0,0,0,0,0,0,0,0,-1,1518,1534,0,0
301,-510,0,0,0,0,0,0,0,0,0,-1,1525,1534,0,0
308,-510,0,0,0,0,0,0,0,0,0,-1,1532,1534,0,0
315,-510,0,0,0,0,0,0,0,0,0,-1,1539,1534,0,0
322,-510,0,0,0,0,0,0,0,0,0,-1,1546,1534,0,0
329,-510,0,0,0,0,0,0,0,0,0,-1,1553,1534,0,0
336,-510,0,0,0,0,0,0,0,0,0,-1,1560,1534,0,0
343,-510,0,0,0,0,0,0,0,0,0,-1,1567,1534,0,0
350,-510,0,0,0,0,0,0,0,0,0,-1,1574,1534,0,0
357,-510,0,0,0,0,0,0,0,0,0,-1,1581,1534,0,0
364,-510,0,0,0,0,0,0,0,0,0,-1,1588,1534,0,0
371,-510,0,0,0,0,0,0,0,0,0,-1,1595,1534,0,0
378,-510,0,0,0,0,0,0,0,0,0,-1,1602,1534,0,0
385,-510,0,0,0,0,0,0,0,0,0,-1,1609,1534,0,0
392,-510,0,0,0,0,0,0,0,0,0,-1,1616,1534,0,0
399,-510,0,0,0,0,0,0,0,0,0,-1,1623,1534,0,0
406,-510,0,0,0,0,0,0,0,0,0,-1,1630,1534,0,0
413,-510,0,0,0,0,0,0,0,0,0,-1,1637,1534,0,0
420,-510,14.1888,6.71936,0,0,0,0,0,0,0,-1,1644,1534,14.1889,-6.71939
427,-510,10.2134,5.59485,0,0,0,0,0,0,0,-1,1651,1534,10.2134,-5.59485
434,-510,11.8219,4.07898,0,0,0,0,0,0,0,-1,1658,1534,11.8219,-4.07895
441,-510,12.6812,3.02991,0,0,0,0,0,0,0,-1,1665,1534,12.6811,-3.0299
448,-510,13.2379,2.2804,0,0,0,0,0,0,0,-1,1672,1534,13.2379,-2.28037
455,-510,9.76892,2.20642,0,0,0,0,0,0,0,-1,1679,1534,9.76894,-2.20647
462,-510,9.84692,2.49182,0,0,0,0,0,0,0,-1,1686,1534,9.84695,-2.49185
469,-510,16.6072,7.26941,0,0,0,0,0,0,0,-1,1693,1534,16.6072,-7.26945
476,-510,15.9199,7.8645,0,0,0,0,0,0,0,-1,1700,1534,15.9199,-7.86455
483,-510,13.0833,8.10938,0,0,0,0,0,0,0,-1,1707,1534,13.0833,-8.10932
490,-510,13.0841,15.3286,0,0,0,0,0,0,0,-1,1714,1534,13.0841,-15.3286
497,-510,15.5652,18.823,0,0,0,0,0,0,0,-1,1721,1534,15.5652,-18.823
504,-510,15.998,18.7478,0,0,0,0,0,0,0,-1,1728,1534,15.998,-18.7478
511,-510,15.9443,18.0476,0,0,0,0,0,0,0,-1,1735,1534,15.9443,-18.0476
518,-510,21.5343,27.1368,0,0,0,0,0,0,0,-1,1742,1534,21.5342,-27.1368
525,-510,26.5679,33.7604,0,0,0,0,0,0,0,-1,1749,1534,26.5679,-33.7604
532,-510,26.873,32.7695,0.00836536,0.00669592,-0.00552796,0.0131213,0.00194001,-0.710464,0.0081779,0.0305908,1756,1534,26.873,-32.7695
539,-510,26.9238,31.9232,0.0064566,0.0050212,-0.00413688,0.00993757,0.00154023,-0.699509,0.00617599,0.013842,1763,1534,26.9238,-31.9232
546,-510,26.8716,31.2358,0.00502756,0.00378526,-0.00310945,0.00757729,0.00123553,-0.686815,0.0046942,0.0136542,1770,1534,26.8716,-31.2359
553,-510,26.8364,30.4901,0.0039709,0.00272696,-0.00225045,0.00568375,0.00101411,-0.650575,0.00350044,0.0138108,1777,1534,26.8364,-30.4901
560,-510,26.7767,29.7211,0.00324979,0.00191183,-0.00162425,0.00433743,0.000824195,-0.590049,0.0026598,0.0133178,1784,1534,26.7767,-29.7211
567,-510,26.7207,28.9735,0.00292128,0.00145325,-0.00137716,0.00374783,0.000626705,-0.540553,0.00231807,0.0123395,1791,1534,26.7206,-28.9735
574,-510,26.6827,28.2581,0.00283556,0.00117594,-0.00128486,0.00353528,0.000476225,-0.498677,0.00221524,0.0134704,1798,1534,26.6827,-28.258
581,-510,26.6503,27.545,0.00293524,0.00107139,-0.00136142,0.00365315,0.000353486,-0.485266,0.00232657,0.0127862,1805,1534,26.6503,-27.545
588,-510,26.6227,26.7996,0.00327015,0.00124736,-0.00165711,0.00420013,0.00031738,-0.511405,0.00270052,0.0146698,1812,1534,26.6227,-26.7995
595,-510,26.7179,25.9141,0.00379645,0.00166913,-0.00207,0.00506007,0.000405507,-0.548067,0.00324667,0.0214326,1819,1534,26.7179,-25.9141
602,-510,26.741,25.0825,0,0,0,0,0,0,0,-1,1826,1534,26.741,-25.0825
609,-510,21.259,19.222,0,0,0,0,0,0,0,-1,1833,1534,21.259,-19.222
616,-510,18.7024,16.2474,0,0,0,0,0,0,0,-1,1840,1534,18.7024,-16.2474
623,-510,19.6013,14.6211,0,0,0,0,0,0,0,-1,1847,1534,19.6013,-14.6211
630,-510,13.7461,9.30334,0,0,0,0,0,0,0,-1,1854,1534,13.7461,-9.30335
637,-510,11.0155,7.38464,0,0,0,0,0,0,0,-1,1861,1534,11.0155,-7.38463
644,-510,11.5809,7.17126,0,0,0,0,0,0,0,-1,1868,1534,11.5809,-7.17123
651,-510,8.70471,3.5061,0,0,0,0,0,0,0,-1,1875,1534,8.70475,-3.50611
658,-510,0,0,0,0,0,0,0,0,0,-1,1882,1534,0,0
665,-510,0,0,0,0,0,0,0,0,0,-1,1889,1534,0,0
672,-510,0,0,0,0,0,0,0,0,0,-1,1896,1534,0,0
679,-510,0,0,0,0,0,0,0,0,0,-1,1903,1534,0,0
686,-510,0,0,0,0,0,0,0,0,0,-1,1910,1534,0,0
693,-510,0,0,0,0,0,0,0,0,0,-1,1917,1534,0,0
700,-510,0,0,0,0,0,0,0,0,0,-1,1924,1534,0,0
707,-510,0,0,0,0,0,0,0,0,0,-1,1931,1534,0,0
714,-510,0,0,0,0,0,0,0,0,0,-1,1938,1534,0,0
721,-510,0,0,0,0,0,0,0,0,0,-1,1945,1534,0,0
728,-510,0,0,0,0,0,0,0,0,0,-1,1952,1534,0,0
735,-510,0,0,0,0,0,0,0,0,0,-1,1959,1534,0,0
742,-510,0,0,0,0,0,0,0,0,0,-1,1966,1534,0,0
749,-510,0,0,0,0,0,0,0,0,0,-1,1973,1534,0,0
756,-510,0,0,0,0,0,0,0,0,0,-1,1980,1534,0,0
763,-510,0,0,0,0,0,0,0,0,0,-1,1987,1534,0,0
770,-510,0,0,0,0,0,0,0,0,0,-1,1994,1534,0,0
777,-510,0,0,0,0,0,0,0,0,0,-1,2001,1534,0,0
784,-510,0,0,0,0,0,0,0,0,0,-1,2008,1534,0,0
791,-510,0,0,0,0,0,0,0,0,0,-1,2015,1534,0,0
798,-510,0,0,0,0,0,0,0,0,0,-1,2022,1534,0,0
805,-510,0,0,0,0,0,0,0,0,0,-1,2029,1534,0,0
812,-510,0,0,0,0,0,0,0,0,0,-1,2036,1534,0,0
-700,-517,0,0,0,0,0,0,0,0,0,-1,524,1541,0,0
-693,-517,0,0,0,0,0,0,0,0,0,-1,531,1541,0,0
-686,-517,0,0,0,0,0,0,0,0,0,-1,538,1541,0,0
-679,-517,0,0,0,0,0,0,0,0,0,-1,545,1541,0,0
-672,-517,0,0,0,0,0,0,0,0,0,-1,552,1541,0,0
-665,-517,0,0,0,0,0,0,0,0,0,-1,559,1541,0,0
-658,-517,0,0,0,0,0,0,0,0,0,-1,566,1541,0,0
-651,-517,0,0,0,0,0,0,0,0,0,-1,573,1541,0,0
-644,-517,0,0,0,0,0,0,0,0,0,-1,580,1541,0,0
-637,-517,0,0,0,0,0,0,0,0,0,-1,587,1541,0,0
-630,-517,0,0,0,0,0,0,0,0,0,-1,594,1541,0,0
-623,-517,0,0,0,0,0,0,0,0,0,-1,601,1541,0,0
-616,-517,0,0,0,0,0,0,0,0,0,-1,608,1541,0,0
-609,-517,0,0,0,0,0,0,0,0,0,-1,615,1541,0,0
-602,-517,0,0,0,0,0,0,0,0,0,-1,622,1541,0,0
-595,-517,0,0,0,0,0,0,0,0,0,-1,629,1541,0,0
-588,-517,0,0,0,0,0,0,0,0,0,-1,636,1541,0,0
-581,-517,0,0,0,0,0,0,0,0,0,-1,643,1541,0,0
-574,-517,0,0,0,0,0,0,0,0,0,-1,650,1541,0,0
-567,-517,0,0,0,0,0,0,0,0,0,-1,657,1541,0,0
-560,-517,0,0,0,0,0,0,0,0,0,-1,664,1541,0,0
-553,-517,0,0,0,0,0,0,0,0,0,-1,671,1541,0,0
-546,-517,0,0,0,0,0,0,0,0,0,-1,678,1541,0,0
-539,-517,0,0,0,0,0,0,0,0,0,-1,685,1541,0,0
-532,-517,0,0,0,0,0,0,0,0,0,-1,692,1541,0,0
-525,-517,-3.62903,4.3606,0,0,0,0,0,0,0,-1,699,1541,-3.62904,-4.36056
-518,-517,-1.664,2.27209,0,0,0,0,0,0,0,-1,706,1541,-1.66399,-2.27207
-511,-517,-0.999146,5.52063,0,0,0,0,0,0,0,-1,713,1541,-0.999126,-5.52059
-504,-517,-1.06946,8.67432,0,0,0,0,0,0,0,-1,720,1541,-1.06947,-8.6743
-497,-517,-5.43036,17.4033,0,0,0,0,0,0,0,-1,727,1541,-5.43033,-17.4034
-490,-517,-6.20526,19.4496,0,0,0,0,0,0,0,-1,734,1541,-6.20526,-19.4495
-483,-517,-6.2254,20.368,0,0,0,0,0,0,0,-1,741,1541,-6.22542,-20.368
-476,-517,-7.2973,24.1897,0,0,0,0,0,0,0,-1,748,1541,-7.29729,-24.1896
-469,-517,-7.52686,25.0363,-0.00753354,-0.00802901,-0.00283698,-0.0049335,-0.0106291,-0.741847,0.00614194,0.0284257,755,1541,-7.52683,-25.0363
-462,-517,-7.76862,25.7344,-0.00641869,-0.00662418,-0.00265707,-0.00386238,-0.00918049,-0.766073,0.00532252,0.0298895,762,1541,-7.76862,-25.7344
-455,-517,-7.78644,26.5685,-0.00520189,-0.00510229,-0.00230233,-0.00284922,-0.00745496,-0.796212,0.00434376,0.0189554,769,1541,-7.78642,-26.5685
-448,-517,-7.82086,27.3694,-0.00394558,-0.00371327,-0.00185099,-0.0019748,-0.00568405,-0.816734,0.00333223,0.0151948,776,1541,-7.82085,-27.3693
-441,-517,-7.88367,28.1293,-0.00262898,-0.00223289,-0.00118911,-0.00122544,-0.00363643,-0.867915,0.00213636,0.0133877,783,1541,-7.88364,-28.1293
-434,-517,-7.91254,28.8893,-0.00133902,-0.000799969,-0.000445215,-0.000549052,-0.00158994,-1.05758,0.000932477,0.0156774,790,1541,-7.91252,-28.8893
-427,-517,-7.96893,29.6462,-0.000132857,0.000473344,0.000304329,0.000599762,-0.000259275,1.17709,0.000508785,0.0150823,797,1541,-7.96894,-29.6462
-420,-517,-8.03094,30.4337,0.00107262,0.00173539,0.00112422,0.00257605,0.00023196,0.928724,0.00164551,0.0289952,804,1541,-8.03095,-30.4337
-413,-517,-8.03607,31.1703,0.0022656,0.00287466,0.00195184,0.00454558,0.000594674,0.862786,0.0028529,0.016106,811,1541,-8.03607,-31.1703
-406,-517,-8.07202,31.9497,0.00333576,0.00397312,0.00275572,0.00642852,0.000880359,0.842965,0.00402445,0.0122046,818,1541,-8.07201,-31.9497
-399,-517,-8.10284,32.7189,0.0043794,0.00511298,0.00355151,0.00831658,0.00117579,0.836854,0.00519698,0.0114894,825,1541,-8.10282,-32.7189
-392,-517,-8.10822,33.4891,0.00530346,0.00627492,0.00423377,0.0100507,0.00152765,0.842512,0.00625378,0.0197515,832,1541,-8.10821,-33.4891
-385,-517,-8.04456,34.3331,0,0,0,0,0,0,0,-1,839,1541,-8.04457,-34.3331
-378,-517,-6.61444,32.6315,0,0,0,0,0,0,0,-1,846,1541,-6.61445,-32.6315
-371,-517,-1.37585,13.2646,0,0,0,0,0,0,0,-1,853,1541,-1.37586,-13.2647
-364,-517,-1.26245,12.6289,0,0,0,0,0,0,0,-1,860,1541,-1.26243,-12.6289
-357,-517,-1.23889,12.979,0,0,0,0,0,0,0,-1,867,1541,-1.23891,-12.979
-350,-517,-5.40198,23.8954,0,0,0,0,0,0,0,-1,874,1541,-5.40196,-23.8954
-343,-517,-5.45844,29.2598,0,0,0,0,0,0,0,-1,881,1541,-5.45842,-29.2598
-336,-517,-4.53223,29.6708,0,0,0,0,0,0,0,-1,888,1541,-4.53221,-29.6708
-329,-517,-3.60602,30.0817,0,0,0,0,0,0,0,-1,895,1541,-3.60601,-30.0817
-322,-517,-4.21246,19.5819,0,0,0,0,0,0,0,-1,902,1541,-4.21244,-19.5819
-315,-517,-0.987976,7.29749,0,0,0,0,0,0,0,-1,909,1541,-0.987993,-7.29743
-308,-517,3.27911,17.621,0,0,0,0,0,0,0,-1,916,1541,3.27913,-17.621
-301,-517,-1.69141,8.87488,0,0,0,0,0,0,0,-1,923,1541,-1.69141,-8.87485
-294,-517,-1.72583,9.92566,0,0,0,0,0,0,0,-1,930,1541,-1.72584,-9.92571
-287,-517,-3.09045,12.1472,0,0,0,0,0,0,0,-1,937,1541,-3.09043,-12.1472
-280,-517,0,0,0,0,0,0,0,0,0,-1,944,1541,0,0
-273,-517,0,0,0,0,0,0,0,0,0,-1,951,1541,0,0
-266,-517,0,0,0,0,0,0,0,0,0,-1,958,1541,0,0
-259,-517,0,0,0,0,0,0,0,0,0,-1,965,1541,0,0
-252,-517,0,0,0,0,0,0,0,0,0,-1,972,1541,0,0
-245,-517,0,0,0,0,0,0,0,0,0,-1,979,1541,0,0
-238,-517,0,0,0,0,0,0,0,0,0,-1,986,1541,0,0
-231,-517,0,0,0,0,0,0,0,0,0,-1,993,1541,0,0
-224,-517,0,0,0,0,0,0,0,0,0,-1,1000,1541,0,0
-217,-517,0,0,0,0,0,0,0,0,0,-1,1007,1541,0,0
-210,-517,0,0,0,0,0,0,0,0,0,-1,1014,1541,0,0
-203,-517,0,0,0,0,0,0,0,0,0,-1,1021,1541,0,0
-196,-517,0,0,0,0,0,0,0,0,0,-1,1028,1541,0,0
-189,-517,0,0,0,0,0,0,0,0,0,-1,1035,1541,0,0
-182,-517,0,0,0,0,0,0,0,0,0,-1,1042,1541,0,0
-175,-517,0,0,0,0,0,0,0,0,0,-1,1049,1541,0,0
-168,-517,0,0,0,0,0,0,0,0,0,-1,1056,1541,0,0
-161,-517,0,0,0,0,0,0,0,0,0,-1,1063,1541,0,0
-154,-517,0,0,0,0,0,0,0,0,0,-1,1070,1541,0,0
-147,-517,0,0,0,0,0,0,0,0,0,-1,1077,1541,0,0
-140,-517,0,0,0,0,0,0,0,0,0,-1,1084,1541,0,0
-133,-517,0,0,0,0,0,0,0,0,0,-1,1091,1541,0,0
-126,-517,0,0,0,0,0,0,0,0,0,-1,1098,1541,0,0
-119,-517,0,0,0,0,0,0,0,0,0,-1,1105,1541,0,0
-112,-517,0,0,0,0,0,0,0,0,0,-1,1112,1541,0,0
-105,-517,0,0,0,0,0,0,0,0,0,-1,1119,1541,0,0
-98,-517,0,0,0,0,0,0,0,0,0,-1,1126,1541,0,0
-91,-517,0,0,0,0,0,0,0,0,0,-1,1133,1541,0,0
-84,-517,0,0,0,0,0,0,0,0,0,-1,1140,1541,0,0
-77,-517,0,0,0,0,0,0,0,0,0,-1,1147,1541,0,0
-70,-517,0,0,0,0,0,0,0,0,0,-1,1154,1541,0,0
-63,-517,0,0,0,0,0,0,0,0,0,-1,1161,1541,0,0
-56,-517,0,0,0,0,0,0,0,0,0,-1,1168,1541,0,0
-49,-517,0,0,0,0,0,0,0,0,0,-1,1175,1541,0,0
-42,-517,0,0,0,0,0,0,0,0,0,-1,1182,1541,0,0
-35,-517,0,0,0,0,0,0,0,0,0,-1,1189,1541,0,0
-28,-517,0,0,0,0,0,0,0,0,0,-1,1196,1541,0,0
-21,-517,0,0,0,0,0,0,0,0,0,-1,1203,1541,0,0
-14,-517,0,0,0,0,0,0,0,0,0,-1,1210,1541,0,0
-7,-517,0,0,0,0,0,0,0,0,0,-1,1217,1541,0,0
0,-517,0,0,0,0,0,0,0,0,0,-1,1224,1541,0,0
7,-517,0,0,0,0,0,0,0,0,0,-1,1231,1541,0,0
14,-517,0,0,0,0,0,0,0,0,0,-1,1238,1541,0,0
21,-517,0,0,0,0,0,0,0,0,0,-1,1245,1541,0,0
28,-517,0,0,0,0,0,0,0,0,0,-1,1252,1541,0,0
35,-517,0,0,0,0,0,0,0,0,0,-1,1259,1541,0,0
42,-517,0,0,0,0,0,0,0,0,0,-1,1266,1541,0,0
49,-517,0,0,0,0,0,0,0,0,0,-1,1273,1541,0,0
56,-517,0,0,0,0,0,0,0,0,0,-1,1280,1541,0,0
63,-517,0,0,0,0,0,0,0,0,0,-1,1287,1541,0,0
70,-517,0,0,0,0,0,0,0,0,0,-1,1294,1541,0,0
77,-517,0,0,0,0,0,0,0,0,0,-1,1301,1541,0,0
84,-517,0,0,0,0,0,0,0,0,0,-1,1308,1541,0,0
91,-517,0,0,0,0,0,0,0,0,0,-1,1315,1541,0,0
98,-517,0,0,0,0,0,0,0,0,0,-1,1322,1541,0,0
105,-517,0,0,0,0,0,0,0,0,0,-1,1329,1541,0,0
112,-517,0,0,0,0,0,0,0,0,0,-1,1336,1541,0,0
119,-517,0,0,0,0,0,0,0,0,0,-1,1343,1541,0,0
126,-517,0,0,0,0,0,0,0,0,0,-1,1350,1541,0,0
133,-517,0,0,0,0,0,0,0,0,0,-1,1357,1541,0,0
140,-517,0,0,0,0,0,0,0,0,0,-1,1364,1541,0,0
147,-517,0,0,0,0,0,0,0,0,0,-1,1371,1541,0,0
154,-517,0,0,0,0,0,0,0,0,0,-1,1378,1541,0,0
161,-517,0,0,0,0,0,0,0,0,0,-1,1385,1541,0,0
168,-517,0,0,0,0,0,0,0,0,0,-1,1392,1541,0,0
175,-517,0,0,0,0,0,0,0,0,0,-1,1399,1541,0,0
182,-517,0,0,0,0,0,0,0,0,0,-1,1406,1541,0,0
189,-517,0,0,0,0,0,0,0,0,0,-1,1413,1541,0,0
196,-517,0,0,0,0,0,0,0,0,0,-1,1420,1541,0,0
203,-517,0,0,0,0,0,0,0,0,0,-1,1427,1541,0,0
210,-517,0,0,0,0,0,0,0,0,0,-1,1434,1541,0,0
217,-517,0,0,0,0,0,0,0,0,0,-1,1441,1541,0,0
224,-517,0,0,0,0,0,0,0,0,0,-1,1448,1541,0,0
231,-517,0,0,0,0,0,0,0,0,0,-1,1455,1541,0,0
238,-517,0,0,0,0,0,0,0,0,0,-1,1462,1541,0,0
245,-517,0,0,0,0,0,0,0,0,0,-1,1469,1541,0,0
252,-517,0,0,0,0,0,0,0,0,0,-1,1476,1541,0,0
259,-517,0,0,0,0,0,0,0,0,0,-1,1483,1541,0,0
266,-517,0,0,0,0,0,0,0,0,0,-1,1490,1541,0,0
273,-517,0,0,0,0,0,0,0,0,0,-1,1497,1541,0,0
280,-517,0,0,0,0,0,0,0,0,0,-1,1504,1541,0,0
287,-517,0,0,0,0,0,0,0,0,0,-1,1511,1541,0,0
294,-517,0,0,0,0,0,0,0,0,0,-1,1518,1541,0,0
301,-517,0,0,0,0,0,0,0,0,0,-1,1525,1541,0,0
308,-517,0,0,0,0,0,0,0,0,0,-1,1532,1541,0,0
315,-517,0,0,0,0,0,0,0,0,0,-1,1539,1541,0,0
322,-517,0,0,0,0,0,0,0,0,0,-1,1546,1541,0,0
329,-517,0,0,0,0,0,0,0,0,0,-1,1553,1541,0,0
336,-517,0,0,0,0,0,0,0,0,0,-1,1560,1541,0,0
343,-517,0,0,0,0,0,0,0,0,0,-1,1567,1541,0,0
350,-517,0,0,0,0,0,0,0,0,0,-1,1574,1541,0,0
357,-517,0,0,0,0,0,0,0,0,0,-1,1581,1541,0,0
364,-517,0,0,0,0,0,0,0,0,0,-1,1588,1541,0,0
371,-517,0,0,0,0,0,0,0,0,0,-1,1595,1541,0,0
378,-517,0,0,0,0,0,0,0,0,0,-1,1602,1541,0,0
385,-517,0,0,0,0,0,0,0,0,0,-1,1609,1541,0,0
392,-517,0,0,0,0,0,0,0,0,0,-1,1616,1541,0,0
399,-517,0,0,0,0,0,0,0,0,0,-1,1623,1541,0,0
406,-517,13.1395,7.01978,0,0,0,0,0,0,0,-1,1630,1541,13.1396,-7.01981
413,-517,12.8859,6.31592,0,0,0,0,0,0,0,-1,1637,1541,12.8858,-6.31588
420,-517,12.4789,6.20337,0,0,0,0,0,0,0,-1,1644,1541,12.4789,-6.20333
427,-517,11.647,4.66516,0,0,0,0,0,0,0,-1,1651,1541,11.647,-4.66519
434,-517,12.3719,3.92773,0,0,0,0,0,0,0,-1,1658,1541,12.3719,-3.92776
441,-517,13.146,3.14124,0,0,0,0,0,0,0,-1,1665,1541,13.146,-3.14121
448,-517,13.8861,2.36682,0,0,0,0,0,0,0,-1,1672,1541,13.8861,-2.36684
455,-517,13.6012,4.06335,0,0,0,0,0,0,0,-1,1679,1541,13.6012,-4.06335
462,-517,14.8956,7.0752,0,0,0,0,0,0,0,-1,1686,1541,14.8956,-7.07525
469,-517,13.6292,6.87744,0,0,0,0,0,0,0,-1,1693,1541,13.6292,-6.87739
476,-517,17.1632,14.1487,0,0,0,0,0,0,0,-1,1700,1541,17.1632,-14.1487
483,-517,16.5157,15.0776,0,0,0,0,0,0,0,-1,1707,1541,16.5157,-15.0777
490,-517,15.5439,18.0258,0,0,0,0,0,0,0,-1,1714,1541,15.5439,-18.0258
497,-517,16.0292,18.7786,0,0,0,0,0,0,0,-1,1721,1541,16.0291,-18.7786
504,-517,17.3815,22.3873,0,0,0,0,0,0,0,-1,1728,1541,17.3814,-22.3873
511,-517,16.9674,21.8491,0,0,0,0,0,0,0,-1,1735,1541,16.9674,-21.8491
518,-517,25.7987,34.3104,0,0,0,0,0,0,0,-1,1742,1541,25.7987,-34.3105
525,-517,26.0267,33.5168,0.0086771,0.00726398,-0.00591928,0.0139318,0.00200924,-0.725996,0.00869587,0.0279645,1749,1541,26.0268,-33.5169
532,-517,26.1963,32.6675,0.00669308,0.00567685,-0.00458513,0.0107982,0.00157177,-0.730214,0.00673626,0.0128456,1756,1541,26.1963,-32.6674
539,-517,26.1912,31.9564,0.0051767,0.00433125,-0.00347788,0.00825745,0.0012505,-0.724922,0.0051391,0.0135257,1763,1541,26.1912,-31.9564
546,-517,26.1588,31.2753,0.00403451,0.00323643,-0.00262125,0.00628692,0.000984019,-0.709862,0.00390482,0.0149076,1770,1541,26.1589,-31.2752
553,-517,26.0872,30.5266,0.00318488,0.00231141,-0.00188763,0.00468564,0.000810648,-0.671715,0.00289167,0.0179029,1777,1541,26.0872,-30.5266
560,-517,26.0466,29.7653,0.00266989,0.00158892,-0.0013579,0.00359092,0.000667896,-0.595995,0.00220529,0.0162712,1784,1541,26.0466,-29.7653
567,-517,26.0159,29.0369,0.00254031,0.00120309,-0.00118545,0.0032327,0.000510694,-0.528629,0.00200668,0.0127348,1791,1541,26.0159,-29.0369
574,-517,25.9735,28.2939,0.0026479,0.000961347,-0.00113946,0.00322219,0.000387063,-0.46684,0.00203143,0.0143899,1798,1541,25.9735,-28.2939
581,-517,25.9175,27.5536,0.00301394,0.000904451,-0.00129824,0.00363189,0.000286503,-0.444256,0.00233163,0.0161826,1805,1541,25.9174,-27.5536
588,-517,25.9006,26.8037,0.00364511,0.00115062,-0.00169229,0.00450011,0.000295609,-0.467828,0.00290655,0.0172335,1812,1541,25.9007,-26.8037
595,-517,25.923,26.0812,0.00442685,0.00172367,-0.00228201,0.0057275,0.000423025,-0.518036,0.00368543,0.0435602,1819,1541,25.923,-26.0811
602,-517,26.1488,25.0896,0,0,0,0,0,0,0,-1,1826,1541,26.1488,-25.0896
609,-517,12.6417,10.8751,0,0,0,0,0,0,0,-1,1833,1541,12.6417,-10.8751
616,-517,14.205,10.3193,0,0,0,0,0,0,0,-1,1840,1541,14.205,-10.3194
623,-517,12.578,10.0779,0,0,0,0,0,0,0,-1,1847,1541,12.578,-10.0779
630,-517,11.7035,7.47815,0,0,0,0,0,0,0,-1,1854,1541,11.7035,-7.47812
637,-517,11.5172,5.79822,0,0,0,0,0,0,0,-1,1861,1541,11.5173,-5.79825
644,-517,11.4232,3.30579,0,0,0,0,0,0,0,-1,1868,1541,11.4232,-3.30574
651,-517,0,0,0,0,0,0,0,0,0,-1,1875,1541,0,0
658,-517,0,0,0,0,0,0,0,0,0,-1,1882,1541,0,0
665,-517,0,0,0,0,0,0,0,0,0,-1,1889,1541,0,0
672,-517,0,0,0,0,0,0,0,0,0,-1,1896,1541,0,0
679,-517,0,0,0,0,0,0,0,0,0,-1,1903,1541,0,0
686,-517,0,0,0,0,0,0,0,0,0,-1,1910,1541,0,0
693,-517,0,0,0,0,0,0,0,0,0,-1,1917,1541,0,0
700,-517,0,0,0,0,0,0,0,0,0,-1,1924,1541,0,0
707,-517,0,0,0,0,0,0,0,0,0,-1,1931,1541,0,0
714,-517,0,0,0,0,0,0,0,0,0,-1,1938,1541,0,0
721,-517,0,0,0,0,0,0,0,0,0,-1,1945,1541,0,0
728,-517,0,0,0,0,0,0,0,0,0,-1,1952,1541,0,0
735,-517,0,0,0,0,0,0,0,0,0,-1,1959,1541,0,0
742,-517,0,0,0,0,0,0,0,0,0,-1,1966,1541,0,0
749,-517,0,0,0,0,0,0,0,0,0,-1,1973,1541,0,0
756,-517,0,0,0,0,0,0,0,0,0,-1,1980,1541,0,0
763,-517,0,0,0,0,0,0,0,0,0,-1,1987,1541,0,0
770,-517,0,0,0,0,0,0,0,0,0,-1,1994,1541,0,0
777,-517,0,0,0,0,0,0,0,0,0,-1,2001,1541,0,0
784,-517,0,0,0,0,0,0,0,0,0,-1,2008,1541,0,0
791,-517,0,0,0,0,0,0,0,0,0,-1,2015,1541,0,0
798,-517,0,0,0,0,0,0,0,0,0,-1,2022,1541,0,0
805,-517,0,0,0,0,0,0,0,0,0,-1,2029,1541,0,0
812,-517,0,0,0,0,0,0,0,0,0,-1,2036,1541,0,0
-700,-524,0,0,0,0,0,0,0,0,0,-1,524,1548,0,0
-693,-524,0,0,0,0,0,0,0,0,0,-1,531,1548,0,0
-686,-524,0,0,0,0,0,0,0,0,0,-1,538,1548,0,0
-679,-524,0,0,0,0,0,0,0,0,0,-1,545,1548,0,0
-672,-524,0,0,0,0,0,0,0,0,0,-1,552,1548,0,0
-665,-524,0,0,0,0,0,0,0,0,0,-1,559,1548,0,0
-658,-524,0,0,0,0,0,0,0,0,0,-1,566,1548,0,0
-651,-524,0,0,0,0,0,0,0,0,0,-1,573,1548,0,0
-644,-524,0,0,0,0,0,0,0,0,0,-1,580,1548,0,0
-637,-524,0,0,0,0,0,0,0,0,0,-1,587,1548,0,0
-630,-524,0,0,0,0,0,0,0,0,0,-1,594,1548,0,0
-623,-524,0,0,0,0,0,0,0,0,0,-1,601,1548,0,0
-616,-524,0,0,0,0,0,0,0,0,0,-1,608,1548,0,0
-609,-524,0,0,0,0,0,0,0,0,0,-1,615,1548,0,0
-602,-524,0,0,0,0,0,0,0,0,0,-1,622,1548,0,0
-595,-524,0,0,0,0,0,0,0,0,0,-1,629,1548,0,0
-588,-524,0,0,0,0,0,0,0,0,0,-1,636,1548,0,0
-581,-524,0,0,0,0,0,0,0,0,0,-1,643,1548,0,0
-574,-524,0,0,0,0,0,0,0,0,0,-1,650,1548,0,0
-567,-524,0,0,0,0,0,0,0,0,0,-1,657,1548,0,0
-560,-524,0,0,0,0,0,0,0,0,0,-1,664,1548,0,0
-553,-524,0,0,0,0,0,0,0,0,0,-1,671,1548,0,0
-546,-524,0,0,0,0,0,0,0,0,0,-1,678,1548,0,0
-539,-524,0,0,0,0,0,0,0,0,0,-1,685,1548,0,0
-532,-524,0,0,0,0,0,0,0,0,0,-1,692,1548,0,0
-525,-524,-0.215515,3.97131,0,0,0,0,0,0,0,-1,699,1548,-0.215501,-3.97136
-518,-524,-0.806274,4.35632,0,0,0,0,0,0,0,-1,706,1548,-0.806259,-4.35633
-511,-524,-1.08301,4.29004,0,0,0,0,0,0,0,-1,713,1548,-1.08301,-4.29006
-504,-524,-1.28821,3.98145,0,0,0,0,0,0,0,-1,720,1548,-1.28822,-3.98151
-497,-524,-0.328491,8.63416,0,0,0,0,0,0,0,-1,727,1548,-0.328487,-8.63411
-490,-524,-6.65582,19.3033,0,0,0,0,0,0,0,-1,734,1548,-6.65583,-19.3034
-483,-524,-7.57153,22.1989,0,0,0,0,0,0,0,-1,741,1548,-7.57151,-22.1988
-476,-524,-6.58484,24.4432,0,0,0,0,0,0,0,-1,748,1548,-6.58487,-24.4433
-469,-524,-6.79224,25.2037,-0.01058,-0.0106864,-0.00424634,-0.00638652,-0.0148799,-0.779136,0.00861955,0.0473627,755,1548,-6.79225,-25.2037
-462,-524,-6.94263,26.0759,-0.00901878,-0.00873264,-0.00392255,-0.00495055,-0.0128009,-0.803627,0.00745353,0.0438692,762,1548,-6.94266,-26.0759
-455,-524,-7.12146,26.6285,-0.0074174,-0.00673049,-0.00342231,-0.00363445,-0.0105134,-0.835409,0.00616554,0.0376969,769,1548,-7.12145,-26.6285
-448,-524,-7.08209,27.4146,-0.00586768,-0.00513471,-0.00291124,-0.00256698,-0.00843541,-0.848013,0.00499297,0.0174002,776,1548,-7.08209,-27.4146
-441,-524,-7.10382,28.1884,-0.00429248,-0.00346741,-0.00215726,-0.00168359,-0.00607629,-0.879873,0.00362251,0.0118063,783,1548,-7.10383,-28.1883
-434,-524,-7.10449,28.9453,-0.00280704,-0.00195034,-0.00135679,-0.000955892,-0.00380149,-0.9383,0.0022834,0.0143609,790,1548,-7.10448,-28.9453
-427,-524,-7.15656,29.7294,-0.00146642,-0.000656241,-0.000582492,-0.000351828,-0.00177083,-1.08923,0.00108251,0.0167703,797,1548,-7.15658,-29.7294
-420,-524,-7.23224,30.4979,-0.000184988,0.000564216,0.000221665,0.000624886,-0.000245658,1.30364,0.000518262,0.0417917,804,1548,-7.23223,-30.498
-413,-524,-7.30554,31.249,0.00105591,0.00161206,0.000970921,0.00234394,0.000324029,0.924868,0.0014666,0.0385944,811,1548,-7.30555,-31.2491
-406,-524,-7.30646,32.0063,0.00212109,0.00262366,0.00167082,0.00406198,0.000682765,0.860037,0.00251153,0.0142109,818,1548,-7.30643,-32.0063
-399,-524,-7.34833,32.7697,0.00308222,0.00355984,0.00230021,0.00563361,0.00100845,0.837123,0.0034688,0.0103658,825,1548,-7.34832,-32.7696
-392,-524,-7.38525,33.5017,0.00389706,0.00445857,0.0028111,0.0070029,0.00135273,0.83517,0.00428939,0.0106234,832,1548,-7.38528,-33.5017
-385,-524,-7.4151,34.2745,0.00451516,0.00525069,0.00312778,0.00803225,0.0017336,0.843919,0.0048807,0.0175702,839,1548,-7.41508,-34.2745
-378,-524,-7.39124,35.1088,0,0,0,0,0,0,0,-1,846,1548,-7.39121,-35.1088
-371,-524,-4.20789,29.1592,0,0,0,0,0,0,0,-1,853,1548,-4.2079,-29.1592
-364,-524,-0.712097,14.9871,0,0,0,0,0,0,0,-1,860,1548,-0.712116,-14.9871
-357,-524,-1.34052,14.7448,0,0,0,0,0,0,0,-1,867,1548,-1.34054,-14.7447
-350,-524,-4.31909,25.032,0,0,0,0,0,0,0,-1,874,1548,-4.31906,-25.0319
-343,-524,-3.69696,28.6923,0,0,0,0,0,0,0,-1,881,1548,-3.69694,-28.6922
-336,-524,-3.4873,29.655,0,0,0,0,0,0,0,-1,888,1548,-3.48728,-29.6551
-329,-524,-3.21936,30.5509,0,0,0,0,0,0,0,-1,895,1548,-3.21933,-30.5509
-322,-524,-4.31378,25.6389,0,0,0,0,0,0,0,-1,902,1548,-4.31379,-25.639
-315,-524,-1.90839,19.4824,0,0,0,0,0,0,0,-1,909,1548,-1.90838,-19.4824
-308,-524,-2.36938,19.3059,0,0,0,0,0,0,0,-1,916,1548,-2.3694,-19.3058
-301,-524,2.72394,17.7618,0,0,0,0,0,0,0,-1,923,1548,2.72396,-17.7619
-294,-524,-1.52515,9.05408,0,0,0,0,0,0,0,-1,930,1548,-1.52512,-9.05411
-287,-524,-0.962219,10.3199,0,0,0,0,0,0,0,-1,937,1548,-0.962241,-10.32
-280,-524,-1.36255,10.3859,0,0,0,0,0,0,0,-1,944,1548,-1.36253,-10.3859
-273,-524,0,0,0,0,0,0,0,0,0,-1,951,1548,0,0
-266,-524,0,0,0,0,0,0,0,0,0,-1,958,1548,0,0
-259,-524,0,0,0,0,0,0,0,0,0,-1,965,1548,0,0
-252,-524,0,0,0,0,0,0,0,0,0,-1,972,1548,0,0
-245,-524,0,0,0,0,0,0,0,0,0,-1,979,1548,0,0
-238,-524,0,0,0,0,0,0,0,0,0,-1,986,1548,0,0
-231,-524,0,0,0,0,0,0,0,0,0,-1,993,1548,0,0
-224,-524,0,0,0,0,0,0,0,0,0,-1,1000,1548,0,0
-217,-524,0,0,0,0,0,0,0,0,0,-1,1007,1548,0,0
-210,-524,0,0,0,0,0,0,0,0,0,-1,1014,1548,0,0
-203,-524,0,0,0,0,0,0,0,0,0,-1,1021,1548,0,0
-196,-524,0,0,0,0,0,0,0,0,0,-1,1028,1548,0,0
-189,-524,0,0,0,0,0,0,0,0,0,-1,1035,1548,0,0
-182,-524,0,0,0,0,0,0,0,0,0,-1,1042,1548,0,0
-175,-524,0,0,0,0,0,0,0,0,0,-1,1049,1548,0,0
-168,-524,0,0,0,0,0,0,0,0,0,-1,1056,1548,0,0
-161,-524,0,0,0,0,0,0,0,0,0,-1,1063,1548,0,0
-154,-524,0,0,0,0,0,0,0,0,0,-1,1070,1548,0,0
-147,-524,0,0,0,0,0,0,0,0,0,-1,1077,1548,0,0
-140,-524,0,0,0,0,0,0,0,0,0,-1,1084,1548,0,0
-133,-524,0,0,0,0,0,0,0,0,0,-1,1091,1548,0,0
-126,-524,0,0,0,0,0,0,0,0,0,-1,1098,1548,0,0
-119,-524,0,0,0,0,0,0,0,0,0,-1,1105,1548,0,0
-112,-524,0,0,0,0,0,0,0,0,0,-1,1112,1548,0,0
-105,-524,0,0,0,0,0,0,0,0,0,-1,1119,1548,0,0
-98,-524,0,0,0,0,0,0,0,0,0,-1,1126,1548,0,0
-91,-524,0,0,0,0,0,0,0,0,0,-1,1133,1548,0,0
-84,-524,0,0,0,0,0,0,0,0,0,-1,1140,1548,0,0
-77,-524,0,0,0,0,0,0,0,0,0,-1,1147,1548,0,0
-70,-524,0,0,0,0,0,0,0,0,0,-1,1154,1548,0,0
-63,-524,0,0,0,0,0,0,0,0,0,-1,1161,1548,0,0
-56,-524,0,0,0,0,0,0,0,0,0,-1,1168,1548,0,0
-49,-524,0,0,0,0,0,0,0,0,0,-1,1175,1548,0,0
-42,-524,0,0,0,0,0,0,0,0,0,-1,1182,1548,0,0
-35,-524,0,0,0,0,0,0,0,0,0,-1,1189,1548,0,0
-28,-524,0,0,0,0,0,0,0,0,0,-1,1196,1548,0,0
-21,-524,0,0,0,0,0,0,0,0,0,-1,1203,1548,0,0
-14,-524,0,0,0,0,0,0,0,0,0,-1,1210,1548,0,0
-7,-524,0,0,0,0,0,0,0,0,0,-1,1217,1548,0,0
0,-524,0,0,0,0,0,0,0,0,0,-1,1224,1548,0,0
7,-524,0,0,0,0,0,0,0,0,0,-1,1231,1548,0,0
14,-524,0,0,0,0,0,0,0,0,0,-1,1238,1548,0,0
21,-524,0,0,0,0,0,0,0,0,0,-1,1245,1548,0,0
28,-524,0,0,0,0,0,0,0,0,0,-1,1252,1548,0,0
35,-524,0,0,0,0,0,0,0,0,0,-1,1259,1548,0,0
42,-524,0,0,0,0,0,0,0,0,0,-1,1266,1548,0,0
49,-524,0,0,0,0,0,0,0,0,0,-1,1273,1548,0,0
56,-524,0,0,0,0,0,0,0,0,0,-1,1280,1548,0,0
63,-524,0,0,0,0,0,0,0,0,0,-1,1287,1548,0,0
70,-524,0,0,0,0,0,0,0,0,0,-1,1294,1548,0,0
77,-524,0,0,0,0,0,0,0,0,0,-1,1301,1548,0,0
84,-524,0,0,0,0,0,0,0,0,0,-1,1308,1548,0,0
91,-524,0,0,0,0,0,0,0,0,0,-1,1315,1548,0,0
98,-524,0,0,0,0,0,0,0,0,0,-1,1322,1548,0,0
105,-524,0,0,0,0,0,0,0,0,0,-1,1329,1548,0,0
112,-524,0,0,0,0,0,0,0,0,0,-1,1336,1548,0,0
119,-524,0,0,0,0,0,0,0,0,0,-1,1343,1548,0,0
126,-524,0,0,0,0,0,0,0,0,0,-1,1350,1548,0,0
133,-524,0,0,0,0,0,0,0,0,0,-1,1357,1548,0,0
140,-524,0,0,0,0,0,0,0,0,0,-1,1364,1548,0,0
147,-524,0,0,0,0,0,0,0,0,0,-1,1371,1548,0,0
154,-524,0,0,0,0,0,0,0,0,0,-1,1378,1548,0,0
161,-524,0,0,0,0,0,0,0,0,0,-1,1385,1548,0,0
168,-524,0,0,0,0,0,0,0,0,0,-1,1392,1548,0,0
175,-524,0,0,0,0,0,0,0,0,0,-1,1399,1548,0,0
182,-524,0,0,0,0,0,0,0,0,0,-1,1406,1548,0,0
189,-524,0,0,0,0,0,0,0,0,0,-1,1413,1548,0,0
196,-524,0,0,0,0,0,0,0,0,0,-1,1420,1548,0,0
203,-524,0,0,0,0,0,0,0,0,0,-1,1427,1548,0,0
210,-524,0,0,0,0,0,0,0,0,0,-1,1434,1548,0,0
217,-524,0,0,0,0,0,0,0,0,0,-1,1441,1548,0,0
224,-524,0,0,0,0,0,0,0,0,0,-1,1448,1548,0,0
231,-524,0,0,0,0,0,0,0,0,0,-1,1455,1548,0,0
238,-524,0,0,0,0,0,0,0,0,0,-1,1462,1548,0,0
245,-524,0,0,0,0,0,0,0,0,0,-1,1469,1548,0,0
252,-524,0,0,0,0,0,0,0,0,0,-1,1476,1548,0,0
259,-524,0,0,0,0,0,0,0,0,0,-1,1483,1548,0,0
266,-524,0,0,0,0,0,0,0,0,0,-1,1490,1548,0,0
273,-524,0,0,0,0,0,0,0,0,0,-1,1497,1548,0,0
280,-524,0,0,0,0,0,0,0,0,0,-1,1504,1548,0,0
287,-524,0,0,0,0,0,0,0,0,0,-1,1511,1548,0,0
294,-524,0,0,0,0,0,0,0,0,0,-1,1518,1548,0,0
301,-524,0,0,0,0,0,0,0,0,0,-1,1525,1548,0,0
308,-524,0,0,0,0,0,0,0,0,0,-1,1532,1548,0,0
315,-524,0,0,0,0,0,0,0,0,0,-1,1539,1548,0,0
322,-524,0,0,0,0,0,0,0,0,0,-1,1546,1548,0,0
329,-524,0,0,0,0,0,0,0,0,0,-1,1553,1548,0,0
336,-524,0,0,0,0,0,0,0,0,0,-1,1560,1548,0,0
343,-524,0,0,0,0,0,0,0,0,0,-1,1567,1548,0,0
350,-524,0,0,0,0,0,0,0,0,0,-1,1574,1548,0,0
357,-524,0,0,0,0,0,0,0,0,0,-1,1581,1548,0,0
364,-524,0,0,0,0,0,0,0,0,0,-1,1588,1548,0,0
371,-524,0,0,0,0,0,0,0,0,0,-1,1595,1548,0,0
378,-524,0,0,0,0,0,0,0,0,0,-1,1602,1548,0,0
385,-524,0,0,0,0,0,0,0,0,0,-1,1609,1548,0,0
392,-524,0,0,0,0,0,0,0,0,0,-1,1616,1548,0,0
399,-524,8.81848,5.05774,0,0,0,0,0,0,0,-1,1623,1548,8.81843,-5.05769
406,-524,8.64294,6.06799,0,0,0,0,0,0,0,-1,1630,1548,8.6429,-6.06805
413,-524,11.677,6.41858,0,0,0,0,0,0,0,-1,1637,1548,11.677,-6.41864
420,-524,11.4913,6.36401,0,0,0,0,0,0,0,-1,1644,1548,11.4913,-6.36402
427,-524,7.68335,6.17249,0,0,0,0,0,0,0,-1,1651,1548,7.68341,-6.17245
434,-524,10.432,11.6801,0,0,0,0,0,0,0,-1,1658,1548,10.432,-11.68
441,-524,8.78552,4.12305,0,0,0,0,0,0,0,-1,1665,1548,8.78553,-4.12301
448,-524,14.1854,4.78674,0,0,0,0,0,0,0,-1,1672,1548,14.1854,-4.78674
455,-524,12.4784,3.65576,0,0,0,0,0,0,0,-1,1679,1548,12.4784,-3.65572
462,-524,14.7551,9.29395,0,0,0,0,0,0,0,-1,1686,1548,14.7552,-9.29397
469,-524,16.3314,14.3779,0,0,0,0,0,0,0,-1,1693,1548,16.3314,-14.3779
476,-524,15.9106,15.1875,0,0,0,0,0,0,0,-1,1700,1548,15.9107,-15.1876
483,-524,15.2776,16.2268,0,0,0,0,0,0,0,-1,1707,1548,15.2776,-16.2269
490,-524,15.2563,18.5848,0,0,0,0,0,0,0,-1,1714,1548,15.2564,-18.5848
497,-524,17.5173,22.6123,0,0,0,0,0,0,0,-1,1721,1548,17.5174,-22.6123
504,-524,25.139,36.0952,0,0,0,0,0,0,0,-1,1728,1548,25.1391,-36.0952
511,-524,25.5422,34.9883,0,0,0,0,0,0,0,-1,1735,1548,25.5422,-34.9882
518,-524,25.5162,34.1932,0.00885679,0.00757109,-0.00609629,0.014344,0.00208385,-0.732868,0.00894931,0.0278544,1742,1548,25.5162,-34.1933
525,-524,25.4794,33.4685,0.0069073,0.00603905,-0.00482443,0.0113171,0.00162925,-0.740527,0.00706455,0.0151966,1749,1548,25.4794,-33.4686
532,-524,25.4786,32.7274,0.00524478,0.0047088,-0.00373855,0.00872494,0.00122865,-0.749618,0.00545341,0.0105517,1756,1548,25.4787,-32.7275
539,-524,25.4423,31.9891,0.00400647,0.00361944,-0.00284738,0.0066669,0.000959008,-0.751469,0.00416192,0.0118147,1763,1548,25.4423,-31.9891
546,-524,25.3925,31.3125,0.00308357,0.00264327,-0.00212445,0.00499925,0.000727594,-0.733769,0.00311873,0.0155916,1770,1548,25.3924,-31.3125
553,-524,25.3572,30.5627,0.00242111,0.00183255,-0.00150009,0.00365552,0.000598147,-0.688541,0.00226412,0.0257058,1777,1548,25.3572,-30.5627
560,-524,25.3665,29.8262,0.00211029,0.00119416,-0.00105504,0.00280242,0.000502033,-0.580592,0.00172545,0.0326843,1784,1548,25.3664,-29.8261
567,-524,25.2842,29.0833,0.00217855,0.000858545,-0.000925142,0.00265499,0.00038211,-0.475564,0.00165737,0.0187253,1791,1548,25.2842,-29.0833
574,-524,25.2528,28.3416,0.00248979,0.000627085,-0.000898751,0.00285272,0.000264154,-0.383793,0.00182017,0.0144874,1798,1548,25.2528,-28.3415
581,-524,25.2161,27.5612,0.00316016,0.00058669,-0.00112063,0.00357974,0.000167112,-0.358255,0.00233278,0.0162574,1805,1548,25.216,-27.5612
588,-524,25.2473,26.8046,0.00418321,0.00086895,-0.00159696,0.00482746,0.000224698,-0.383455,0.00314608,0.0305715,1812,1548,25.2474,-26.8046
595,-524,25.2885,25.8359,0,0,0,0,0,0,0,-1,1819,1548,25.2885,-25.8359
602,-524,13.837,12.0682,0,0,0,0,0,0,0,-1,1826,1548,13.837,-12.0683
609,-524,13.0056,10.5138,0,0,0,0,0,0,0,-1,1833,1548,13.0056,-10.5138
616,-524,11.6941,8.65515,0,0,0,0,0,0,0,-1,1840,1548,11.6941,-8.65514
623,-524,9.38452,5.15356,0,0,0,0,0,0,0,-1,1847,1548,9.38456,-5.15359
630,-524,11.0541,3.57434,0,0,0,0,0,0,0,-1,1854,1548,11.0541,-3.57438
637,-524,11.6067,3.20728,0,0,0,0,0,0,0,-1,1861,1548,11.6067,-3.20724
644,-524,12.2134,0.727173,0,0,0,0,0,0,0,-1,1868,1548,12.2134,-0.727222
651,-524,0,0,0,0,0,0,0,0,0,-1,1875,1548,0,0
658,-524,0,0,0,0,0,0,0,0,0,-1,1882,1548,0,0
665,-524,0,0,0,0,0,0,0,0,0,-1,1889,1548,0,0
672,-524,0,0,0,0,0,0,0,0,0,-1,1896,1548,0,0
679,-524,0,0,0,0,0,0,0,0,0,-1,1903,1548,0,0
686,-524,0,0,0,0,0,0,0,0,0,-1,1910,1548,0,0
693,-524,0,0,0,0,0,0,0,0,0,-1,1917,1548,0,0
700,-524,0,0,0,0,0,0,0,0,0,-1,1924,1548,0,0
707,-524,0,0,0,0,0,0,0,0,0,-1,1931,1548,0,0
714,-524,0,0,0,0,0,0,0,0,0,-1,1938,1548,0,0
721,-524,0,0,0,0,0,0,0,0,0,-1,1945,1548,0,0
728,-524,0,0,0,0,0,0,0,0,0,-1,1952,1548,0,0
735,-524,0,0,0,0,0,0,0,0,0,-1,1959,1548,0,0
742,-524,0,0,0,0,0,0,0,0,0,-1,1966,1548,0,0
749,-524,0,0,0,0,0,0,0,0,0,-1,1973,1548,0,0
756,-524,0,0,0,0,0,0,0,0,0,-1,1980,1548,0,0
763,-524,0,0,0,0,0,0,0,0,0,-1,1987,1548,0,0
770,-524,0,0,0,0,0,0,0,0,0,-1,1994,1548,0,0
777,-524,0,0,0,0,0,0,0,0,0,-1,2001,1548,0,0
784,-524,0,0,0,0,0,0,0,0,0,-1,2008,1548,0,0
791,-524,0,0,0,0,0,0,0,0,0,-1,2015,1548,0,0
798,-524,0,0,0,0,0,0,0,0,0,-1,2022,1548,0,0
805,-524,0,0,0,0,0,0,0,0,0,-1,2029,1548,0,0
812,-524,0,0,0,0,0,0,0,0,0,-1,2036,1548,0,0
-700,-531,0,0,0,0,0,0,0,0,0,-1,524,1555,0,0
-693,-531,0,0,0,0,0,0,0,0,0,-1,531,1555,0,0
-686,-531,0,0,0,0,0,0,0,0,0,-1,538,1555,0,0
-679,-531,0,0,0,0,0,0,0,0,0,-1,545,1555,0,0
-672,-531,0,0,0,0,0,0,0,0,0,-1,552,1555,0,0
-665,-531,0,0,0,0,0,0,0,0,0,-1,559,1555,0,0
-658,-531,0,0,0,0,0,0,0,0,0,-1,566,1555,0,0
-651,-531,0,0,0,0,0,0,0,0,0,-1,573,1555,0,0
-644,-531,0,0,0,0,0,0,0,0,0,-1,580,1555,0,0
-637,-531,0,0,0,0,0,0,0,0,0,-1,587,1555,0,0
-630,-531,0,0,0,0,0,0,0,0,0,-1,594,1555,0,0
-623,-531,0,0,0,0,0,0,0,0,0,-1,601,1555,0,0
-616,-531,0,0,0,0,0,0,0,0,0,-1,608,1555,0,0
-609,-531,0,0,0,0,0,0,0,0,0,-1,615,1555,0,0
-602,-531,0,0,0,0,0,0,0,0,0,-1,622,1555,0,0
-595,-531,0,0,0,0,0,0,0,0,0,-1,629,1555,0,0
-588,-531,0,0,0,0,0,0,0,0,0,-1,636,1555,0,0
-581,-531,0,0,0,0,0,0,0,0,0,-1,643,1555,0,0
-574,-531,0,0,0,0,0,0,0,0,0,-1,650,1555,0,0
-567,-531,0,0,0,0,0,0,0,0,0,-1,657,1555,0,0
-560,-531,0,0,0,0,0,0,0,0,0,-1,664,1555,0,0
-553,-531,0,0,0,0,0,0,0,0,0,-1,671,1555,0,0
-546,-531,0,0,0,0,0,0,0,0,0,-1,678,1555,0,0
-539,-531,0,0,0,0,0,0,0,0,0,-1,685,1555,0,0
-532,-531,0,0,0,0,0,0,0,0,0,-1,692,1555,0,0
-525,-531,0,0,0,0,0,0,0,0,0,-1,699,1555,0,0
-518,-531,-1.63983,4.03821,0,0,0,0,0,0,0,-1,706,1555,-1.63982,-4.03821
-511,-531,-2.9682,8.07483,0,0,0,0,0,0,0,-1,713,1555,-2.9682,-8.07479
-504,-531,-2.95978,0.557861,0,0,0,0,0,0,0,-1,720,1555,-2.95978,-0.557917
-497,-531,-2.46039,8.07422,0,0,0,0,0,0,0,-1,727,1555,-2.46039,-8.07423
-490,-531,-0.423462,7.92065,0,0,0,0,0,0,0,-1,734,1555,-0.42344,-7.92066
-483,-531,-7.50745,20.1915,0,0,0,0,0,0,0,-1,741,1555,-7.50744,-20.1915
-476,-531,-7.69647,23.6229,0,0,0,0,0,0,0,-1,748,1555,-7.6965,-23.6229
-469,-531,-6.12225,25.244,0,0,0,0,0,0,0,-1,755,1555,-6.12223,-25.244
-462,-531,-6.00531,26.2848,0,0,0,0,0,0,0,-1,762,1555,-6.00533,-26.2848
-455,-531,-6.37115,26.4911,0,0,0,0,0,0,0,-1,769,1555,-6.37118,-26.4911
-448,-531,-6.21533,27.4255,-0.00806089,-0.0065985,-0.00409493,-0.00316999,-0.0114894,-0.873748,0.00685189,0.0288535,776,1555,-6.21535,-27.4255
-441,-531,-6.35138,28.1787,-0.0061245,-0.0047043,-0.00320605,-0.00213065,-0.00869815,-0.894382,0.00523513,0.0133982,783,1555,-6.3514,-28.1787
-434,-531,-6.37305,28.9893,-0.00434314,-0.00303573,-0.00228571,-0.00131208,-0.00606679,-0.924679,0.00368585,0.0124826,790,1555,-6.37303,-28.9893
-427,-531,-6.42157,29.7849,-0.00278769,-0.00165837,-0.00142329,-0.000691821,-0.00375424,-0.974239,0.00230706,0.0156455,797,1555,-6.42156,-29.7849
-420,-531,-6.534,30.5151,-0.00137936,-0.000429144,-0.000583328,-0.000151922,-0.00165658,-1.12715,0.00105739,0.0366834,804,1555,-6.53403,-30.5151
-413,-531,-6.55109,31.3082,-5.94025e-05,0.000586007,0.000142235,0.000615962,-8.9358e-05,1.36322,0.000443439,0.0343328,811,1555,-6.55109,-31.3082
-406,-531,-6.56183,32.0448,0.00103823,0.00156145,0.000809048,0.00215013,0.000449549,0.941768,0.00130955,0.0143807,818,1555,-6.56184,-32.0448
-399,-531,-6.59033,32.7921,0.00196689,0.00237939,0.00136069,0.00354938,0.000796906,0.860614,0.00215041,0.0147934,825,1555,-6.59034,-32.7921
-392,-531,-6.59741,33.5522,0.00273528,0.0031336,0.00179134,0.00473682,0.00113206,0.840761,0.00285631,0.017793,832,1555,-6.59743,-33.5523
-385,-531,-6.66479,34.2975,0.00337083,0.00384659,0.00203783,0.00566038,0.00155704,0.8435,0.00337644,0.0147736,839,1555,-6.66482,-34.2975
-378,-531,-6.71826,34.9783,0.00398042,0.00446614,0.00211444,0.00635163,0.00209493,0.842576,0.00373724,0.0200556,846,1555,-6.71825,-34.9782
-371,-531,-6.75311,35.8068,0,0,0,0,0,0,0,-1,853,1555,-6.7531,-35.8068
-364,-531,-6.49042,36.8282,0,0,0,0,0,0,0,-1,860,1555,-6.49043,-36.8283
-357,-531,-4.29193,31.5354,0,0,0,0,0,0,0,-1,867,1555,-4.29191,-31.5354
-350,-531,-3.16101,27.5791,0,0,0,0,0,0,0,-1,874,1555,-3.16099,-27.5791
-343,-531,-2.90552,28.561,0,0,0,0,0,0,0,-1,881,1555,-2.90549,-28.5611
-336,-531,-2.6698,29.5398,0,0,0,0,0,0,0,-1,888,1555,-2.66983,-29.5398
-329,-531,-2.45148,30.4781,0,0,0,0,0,0,0,-1,895,1555,-2.45148,-30.4781
-322,-531,-3.25092,28.4921,0,0,0,0,0,0,0,-1,902,1555,-3.25092,-28.4921
-315,-531,-5.51929,31.7814,0,0,0,0,0,0,0,-1,909,1555,-5.51928,-31.7813
-308,-531,-1.66455,19.0624,0,0,0,0,0,0,0,-1,916,1555,-1.66455,-19.0623
-301,-531,-2.02405,18.8912,0,0,0,0,0,0,0,-1,923,1555,-2.02407,-18.8913
-294,-531,-1.3244,8.1825,0,0,0,0,0,0,0,-1,930,1555,-1.3244,-8.18251
-287,-531,-1.78192,10.1661,0,0,0,0,0,0,0,-1,937,1555,-1.78192,-10.1661
-280,-531,-2.14508,10.3945,0,0,0,0,0,0,0,-1,944,1555,-2.14506,-10.3945
-273,-531,-2.50818,10.6229,0,0,0,0,0,0,0,-1,951,1555,-2.5082,-10.6229
-266,-531,-4.97742,17.9215,0,0,0,0,0,0,0,-1,958,1555,-4.97744,-17.9215
-259,-531,0,0,0,0,0,0,0,0,0,-1,965,1555,0,0
-252,-531,0,0,0,0,0,0,0,0,0,-1,972,1555,0,0
-245,-531,0,0,0,0,0,0,0,0,0,-1,979,1555,0,0
-238,-531,0,0,0,0,0,0,0,0,0,-1,986,1555,0,0
-231,-531,0,0,0,0,0,0,0,0,0,-1,993,1555,0,0
-224,-531,0,0,0,0,0,0,0,0,0,-1,1000,1555,0,0
-217,-531,0,0,0,0,0,0,0,0,0,-1,1007,1555,0,0
-210,-531,0,0,0,0,0,0,0,0,0,-1,1014,1555,0,0
-203,-531,0,0,0,0,0,0,0,0,0,-1,1021,1555,0,0
-196,-531,0,0,0,0,0,0,0,0,0,-1,1028,1555,0,0
-189,-531,0,0,0,0,0,0,0,0,0,-1,1035,1555,0,0
-182,-531,0,0,0,0,0,0,0,0,0,-1,1042,1555,0,0
-175,-531,0,0,0,0,0,0,0,0,0,-1,1049,1555,0,0
-168,-531,0,0,0,0,0,0,0,0,0,-1,1056,1555,0,0
-161,-531,0,0,0,0,0,0,0,0,0,-1,1063,1555,0,0
-154,-531,0,0,0,0,0,0,0,0,0,-1,1070,1555,0,0
-147,-531,0,0,0,0,0,0,0,0,0,-1,1077,1555,0,0
-140,-531,0,0,0,0,0,0,0,0,0,-1,1084,1555,0,0
-133,-531,0,0,0,0,0,0,0,0,0,-1,1091,1555,0,0
-126,-531,0,0,0,0,0,0,0,0,0,-1,1098,1555,0,0
-119,-531,0,0,0,0,0,0,0,0,0,-1,1105,1555,0,0
-112,-531,0,0,0,0,0,0,0,0,0,-1,1112,1555,0,0
-105,-531,0,0,0,0,0,0,0,0,0,-1,1119,1555,0,0
-98,-531,0,0,0,0,0,0,0,0,0,-1,1126,1555,0,0
-91,-531,0,0,0,0,0,0,0,0,0,-1,1133,1555,0,0
-84,-531,0,0,0,0,0,0,0,0,0,-1,1140,1555,0,0
-77,-531,0,0,0,0,0,0,0,0,0,-1,1147,1555,0,0
-70,-531,0,0,0,0,0,0,0,0,0,-1,1154,1555,0,0
-63,-531,0,0,0,0,0,0,0,0,0,-1,1161,1555,0,0
-56,-531,0,0,0,0,0,0,0,0,0,-1,1168,1555,0,0
-49,-531,0,0,0,0,0,0,0,0,0,-1,1175,1555,0,0
-42,-531,0,0,0,0,0,0,0,0,0,-1,1182,1555,0,0
-35,-531,0,0,0,0,0,0,0,0,0,-1,1189,1555,0,0
-28,-531,0,0,0,0,0,0,0,0,0,-1,1196,1555,0,0
-21,-531,0,0,0,0,0,0,0,0,0,-1,1203,1555,0,0
-14,-531,0,0,0,0,0,0,0,0,0,-1,1210,1555,0,0
-7,-531,0,0,0,0,0,0,0,0,0,-1,1217,1555,0,0
0,-531,0,0,0,0,0,0,0,0,0,-1,1224,1555,0,0
7,-531,0,0,0,0,0,0,0,0,0,-1,1231,1555,0,0
14,-531,0,0,0,0,0,0,0,0,0,-1,1238,1555,0,0
21,-531,0,0,0,0,0,0,0,0,0,-1,1245,1555,0,0
28,-531,0,0,0,0,0,0,0,0,0,-1,1252,1555,0,0
35,-531,0,0,0,0,0,0,0,0,0,-1,1259,1555,0,0
42,-531,0,0,0,0,0,0,0,0,0,-1,1266,1555,0,0
49,-531,0,0,0,0,0,0,0,0,0,-1,1273,1555,0,0
56,-531,0,0,0,0,0,0,0,0,0,-1,1280,1555,0,0
63,-531,0,0,0,0,0,0,0,0,0,-1,1287,1555,0,0
70,-531,0,0,0,0,0,0,0,0,0,-1,1294,1555,0,0
77,-531,0,0,0,0,0,0,0,0,0,-1,1301,1555,0,0
84,-531,0,0,0,0,0,0,0,0,0,-1,1308,1555,0,0
91,-531,0,0,0,0,0,0,0,0,0,-1,1315,1555,0,0
98,-531,0,0,0,0,0,0,0,0,0,-1,1322,1555,0,0
105,-531,0,0,0,0,0,0,0,0,0,-1,1329,1555,0,0
112,-531,0,0,0,0,0,0,0,0,0,-1,1336,1555,0,0
119,-531,0,0,0,0,0,0,0,0,0,-1,1343,1555,0,0
126,-531,0,0,0,0,0,0,0,0,0,-1,1350,1555,0,0
133,-531,0,0,0,0,0,0,0,0,0,-1,1357,1555,0,0
140,-531,0,0,0,0,0,0,0,0,0,-1,1364,1555,0,0
147,-531,0,0,0,0,0,0,0,0,0,-1,1371,1555,0,0
154,-531,0,0,0,0,0,0,0,0,0,-1,1378,1555,0,0
161,-531,0,0,0,0,0,0,0,0,0,-1,1385,1555,0,0
168,-531,0,0,0,0,0,0,0,0,0,-1,1392,1555,0,0
175,-531,0,0,0,0,0,0,0,0,0,-1,1399,1555,0,0
182,-531,0,0,0,0,0,0,0,0,0,-1,1406,1555,0,0
189,-531,0,0,0,0,0,0,0,0,0,-1,1413,1555,0,0
196,-531,0,0,0,0,0,0,0,0,0,-1,1420,1555,0,0
203,-531,0,0,0,0,0,0,0,0,0,-1,1427,1555,0,0
210,-531,0,0,0,0,0,0,0,0,0,-1,1434,1555,0,0
217,-531,0,0,0,0,0,0,0,0,0,-1,1441,1555,0,0
224,-531,0,0,0,0,0,0,0,0,0,-1,1448,1555,0,0
231,-531,0,0,0,0,0,0,0,0,0,-1,1455,1555,0,0
238,-531,0,0,0,0,0,0,0,0,0,-1,1462,1555,0,0
245,-531,0,0,0,0,0,0,0,0,0,-1,1469,1555,0,0
252,-531,0,0,0,0,0,0,0,0,0,-1,1476,1555,0,0
259,-531,0,0,0,0,0,0,0,0,0,-1,1483,1555,0,0
266,-531,0,0,0,0,0,0,0,0,0,-1,1490,1555,0,0
273,-531,0,0,0,0,0,0,0,0,0,-1,1497,1555,0,0
280,-531,0,0,0,0,0,0,0,0,0,-1,1504,1555,0,0
287,-531,0,0,0,0,0,0,0,0,0,-1,1511,1555,0,0
294,-531,0,0,0,0,0,0,0,0,0,-1,1518,1555,0,0
301,-531,0,0,0,0,0,0,0,0,0,-1,1525,1555,0,0
308,-531,0,0,0,0,0,0,0,0,0,-1,1532,1555,0,0
315,-531,0,0,0,0,0,0,0,0,0,-1,1539,1555,0,0
322,-531,0,0,0,0,0,0,0,0,0,-1,1546,1555,0,0
329,-531,0,0,0,0,0,0,0,0,0,-1,1553,1555,0,0
336,-531,0,0,0,0,0,0,0,0,0,-1,1560,1555,0,0
343,-531,0,0,0,0,0,0,0,0,0,-1,1567,1555,0,0
350,-531,0,0,0,0,0,0,0,0,0,-1,1574,1555,0,0
357,-531,0,0,0,0,0,0,0,0,0,-1,1581,1555,0,0
364,-531,0,0,0,0,0,0,0,0,0,-1,1588,1555,0,0
371,-531,0,0,0,0,0,0,0,0,0,-1,1595,1555,0,0
378,-531,0,0,0,0,0,0,0,0,0,-1,1602,1555,0,0
385,-531,3.48169,1.78625,0,0,0,0,0,0,0,-1,1609,1555,3.48165,-1.78624
392,-531,10.8781,9.09204,0,0,0,0,0,0,0,-1,1616,1555,10.8781,-9.09205
399,-531,8.26306,5.29602,0,0,0,0,0,0,0,-1,1623,1555,8.26302,-5.29607
406,-531,8.26147,5.42712,0,0,0,0,0,0,0,-1,1630,1555,8.26145,-5.42716
413,-531,8.20618,5.75012,0,0,0,0,0,0,0,-1,1637,1555,8.20619,-5.75017
420,-531,7.64868,7.09558,0,0,0,0,0,0,0,-1,1644,1555,7.64867,-7.09564
427,-531,9.93054,11.8412,0,0,0,0,0,0,0,-1,1651,1555,9.93059,-11.8412
434,-531,10.244,11.7072,0,0,0,0,0,0,0,-1,1658,1555,10.244,-11.7071
441,-531,11.4528,12.9397,0,0,0,0,0,0,0,-1,1665,1555,11.4528,-12.9397
448,-531,11.928,18.8029,0,0,0,0,0,0,0,-1,1672,1555,11.928,-18.8028
455,-531,14.4877,9.67065,0,0,0,0,0,0,0,-1,1679,1555,14.4876,-9.67066
462,-531,13.5253,12.2002,0,0,0,0,0,0,0,-1,1686,1555,13.5252,-12.2002
469,-531,15.5087,15.7894,0,0,0,0,0,0,0,-1,1693,1555,15.5086,-15.7895
476,-531,14.6582,16.2264,0,0,0,0,0,0,0,-1,1700,1555,14.6582,-16.2264
483,-531,14.755,18.5994,0,0,0,0,0,0,0,-1,1707,1555,14.7551,-18.5994
490,-531,16.9362,25.4943,0,0,0,0,0,0,0,-1,1714,1555,16.9362,-25.4942
497,-531,24.5594,36.8259,0,0,0,0,0,0,0,-1,1721,1555,24.5594,-36.826
504,-531,24.6902,35.8242,0.0107553,0.0103323,-0.0079628,0.0185094,0.00257818,-0.772123,0.0115763,0.0400207,1728,1555,24.6901,-35.8242
511,-531,24.7982,35.0017,0.00870022,0.00806175,-0.00623033,0.0146195,0.00214248,-0.759801,0.00911648,0.0175663,1735,1555,24.7983,-35.0017
518,-531,24.7892,34.2338,0.00683758,0.00610586,-0.00474804,0.0112338,0.0017096,-0.746947,0.0069894,0.0152712,1742,1555,24.7892,-34.2338
525,-531,24.7667,33.5107,0.00518677,0.00477084,-0.0036902,0.00867486,0.00128274,-0.75725,0.00540662,0.0140178,1749,1555,24.7668,-33.5108
532,-531,24.7773,32.7825,0.00380414,0.00360268,-0.00280806,0.00651328,0.000893546,-0.76747,0.00407711,0.0113138,1756,1555,24.7774,-32.7825
539,-531,24.7244,32.047,0.00281396,0.00270494,-0.00210957,0.00486973,0.000649179,-0.772481,0.00305318,0.0131074,1763,1555,24.7243,-32.047
546,-531,24.6263,31.3385,0.00211077,0.00184141,-0.0015224,0.00350444,0.000447748,-0.74128,0.00220227,0.0163997,1770,1555,24.6264,-31.3384
553,-531,24.6663,30.6235,0.00166937,0.00116014,-0.00103116,0.00247688,0.000352621,-0.664358,0.00154717,0.0325896,1777,1555,24.6663,-30.6235
560,-531,24.6166,29.8931,0.00160978,0.000645431,-0.00071081,0.00198653,0.000268686,-0.487376,0.00124449,0.0367807,1784,1555,24.6165,-29.8931
567,-531,24.4893,29.1163,0.00192742,0.000401176,-0.000652085,0.00216808,0.00016052,-0.353549,0.00139496,0.0214941,1791,1555,24.4893,-29.1164
574,-531,24.4844,28.3688,0.0025111,0.000232784,-0.000675226,0.00269618,4.77018e-05,-0.267533,0.00178177,0.0168149,1798,1555,24.4844,-28.3688
581,-531,24.5115,27.5859,0.00360971,0.000287489,-0.00101087,0.00389312,4.08187e-06,-0.273342,0.00259405,0.028368,1805,1555,24.5114,-27.5859
588,-531,24.4967,26.7383,0.00520529,0.000696483,-0.00163873,0.00573795,0.000163816,-0.314276,0.00377188,0.0475613,1812,1555,24.4967,-26.7383
595,-531,24.361,25.8474,0,0,0,0,0,0,0,-1,1819,1555,24.361,-25.8474
602,-531,13.701,11.8346,0,0,0,0,0,0,0,-1,1826,1555,13.701,-11.8347
609,-531,10.9072,8.50903,0,0,0,0,0,0,0,-1,1833,1555,10.9073,-8.50902
616,-531,10.5723,7.17859,0,0,0,0,0,0,0,-1,1840,1555,10.5723,-7.17855
623,-531,10.0674,5.08984,0,0,0,0,0,0,0,-1,1847,1555,10.0674,-5.08981
630,-531,11.672,3.18909,0,0,0,0,0,0,0,-1,1854,1555,11.672,-3.18904
637,-531,13.2546,1.38965,0,0,0,0,0,0,0,-1,1861,1555,13.2547,-1.3896
644,-531,0,0,0,0,0,0,0,0,0,-1,1868,1555,0,0
651,-531,0,0,0,0,0,0,0,0,0,-1,1875,1555,0,0
658,-531,0,0,0,0,0,0,0,0,0,-1,1882,1555,0,0
665,-531,0,0,0,0,0,0,0,0,0,-1,1889,1555,0,0
672,-531,0,0,0,0,0,0,0,0,0,-1,1896,1555,0,0
679,-531,0,0,0,0,0,0,0,0,0,-1,1903,1555,0,0
686,-531,0,0,0,0,0,0,0,0,0,-1,1910,1555,0,0
693,-531,0,0,0,0,0,0,0,0,0,-1,1917,1555,0,0
700,-531,0,0,0,0,0,0,0,0,0,-1,1924,1555,0,0
707,-531,0,0,0,0,0,0,0,0,0,-1,1931,1555,0,0
714,-531,0,0,0,0,0,0,0,0,0,-1,1938,1555,0,0
721,-531,0,0,0,0,0,0,0,0,0,-1,1945,1555,0,0
728,-531,0,0,0,0,0,0,0,0,0,-1,1952,1555,0,0
735,-531,0,0,0,0,0,0,0,0,0,-1,1959,1555,0,0
742,-531,0,0,0,0,0,0,0,0,0,-1,1966,1555,0,0
749,-531,0,0,0,0,0,0,0,0,0,-1,1973,1555,0,0
756,-531,0,0,0,0,0,0,0,0,0,-1,1980,1555,0,0
763,-531,0,0,0,0,0,0,0,0,0,-1,1987,1555,0,0
770,-531,0,0,0,0,0,0,0,0,0,-1,1994,1555,0,0
777,-531,0,0,0,0,0,0,0,0,0,-1,2001,1555,0,0
784,-531,0,0,0,0,0,0,0,0,0,-1,2008,1555,0,0
791,-531,0,0,0,0,0,0,0,0,0,-1,2015,1555,0,0
798,-531,0,0,0,0,0,0,0,0,0,-1,2022,1555,0,0
805,-531,0,0,0,0,0,0,0,0,0,-1,2029,1555,0,0
812,-531,0,0,0,0,0,0,0,0,0,-1,2036,1555,0,0
-700,-538,0,0,0,0,0,0,0,0,0,-1,524,1562,0,0
-693,-538,0,0,0,0,0,0,0,0,0,-1,531,1562,0,0
-686,-538,0,0,0,0,0,0,0,0,0,-1,538,1562,0,0
-679,-538,0,0,0,0,0,0,0,0,0,-1,545,1562,0,0
-672,-538,0,0,0,0,0,0,0,0,0,-1,552,1562,0,0
-665,-538,0,0,0,0,0,0,0,0,0,-1,559,1562,0,0
-658,-538,0,0,0,0,0,0,0,0,0,-1,566,1562,0,0
-651,-538,0,0,0,0,0,0,0,0,0,-1,573,1562,0,0
-644,-538,0,0,0,0,0,0,0,0,0,-1,580,1562,0,0
-637,-538,0,0,0,0,0,0,0,0,0,-1,587,1562,0,0
-630,-538,0,0,0,0,0,0,0,0,0,-1,594,1562,0,0
-623,-538,0,0,0,0,0,0,0,0,0,-1,601,1562,0,0
-616,-538,0,0,0,0,0,0,0,0,0,-1,608,1562,0,0
-609,-538,0,0,0,0,0,0,0,0,0,-1,615,1562,0,0
-602,-538,0,0,0,0,0,0,0,0,0,-1,622,1562,0,0
-595,-538,0,0,0,0,0,0,0,0,0,-1,629,1562,0,0
-588,-538,0,0,0,0,0,0,0,0,0,-1,636,1562,0,0
-581,-538,0,0,0,0,0,0,0,0,0,-1,643,1562,0,0
-574,-538,0,0,0,0,0,0,0,0,0,-1,650,1562,0,0
-567,-538,0,0,0,0,0,0,0,0,0,-1,657,1562,0,0
-560,-538,0,0,0,0,0,0,0,0,0,-1,664,1562,0,0
-553,-538,0,0,0,0,0,0,0,0,0,-1,671,1562,0,0
-546,-538,0,0,0,0,0,0,0,0,0,-1,678,1562,0,0
-539,-538,0,0,0,0,0,0,0,0,0,-1,685,1562,0,0
-532,-538,0,0,0,0,0,0,0,0,0,-1,692,1562,0,0
-525,-538,0,0,0,0,0,0,0,0,0,-1,699,1562,0,0
-518,-538,0,0,0,0,0,0,0,0,0,-1,706,1562,0,0
-511,-538,-2.6582,-1.54321,0,0,0,0,0,0,0,-1,713,1562,-2.65821,1.54327
-504,-538,-2.66455,-0.71167,0,0,0,0,0,0,0,-1,720,1562,-2.66456,0.711667
-497,-538,-0.763855,6.77747,0,0,0,0,0,0,0,-1,727,1562,-0.76385,-6.77743
-490,-538,-2.70453,8.01465,0,0,0,0,0,0,0,-1,734,1562,-2.70451,-8.0147
-483,-538,-0.933533,7.84644,0,0,0,0,0,0,0,-1,741,1562,-0.933548,-7.84638
-476,-538,-3.29962,15.8307,0,0,0,0,0,0,0,-1,748,1562,-3.29962,-15.8306
-469,-538,-6.44983,24.5707,0,0,0,0,0,0,0,-1,755,1562,-6.4498,-24.5707
-462,-538,-5.75458,25.4069,0,0,0,0,0,0,0,-1,762,1562,-5.7546,-25.4068
-455,-538,-5.56396,26.2977,0,0,0,0,0,0,0,-1,769,1562,-5.56393,-26.2978
-448,-538,-5.56799,27.4827,0,0,0,0,0,0,0,-1,776,1562,-5.56802,-27.4827
-441,-538,-5.54272,28.3651,-0.00822979,-0.00589013,-0.00440171,-0.00250545,-0.0116145,-0.91528,0.00705766,0.0295616,783,1562,-5.54275,-28.3651
-434,-538,-5.64807,29.0247,-0.00600256,-0.00405278,-0.00325208,-0.00163261,-0.00842273,-0.931023,0.00515781,0.0144886,790,1562,-5.64808,-29.0246
-427,-538,-5.69165,29.8292,-0.00410507,-0.00252327,-0.00218579,-0.000989694,-0.00563864,-0.958988,0.00347648,0.0138348,797,1562,-5.69163,-29.8292
-420,-538,-5.75061,30.5641,-0.00248048,-0.00123939,-0.00122474,-0.000486957,-0.00323292,-1.01989,0.00201269,0.0186592,804,1562,-5.75058,-30.5641
-413,-538,-5.7757,31.2946,-0.00102654,-0.000220563,-0.000458312,-1.32652e-05,-0.00123384,-1.14603,0.000818174,0.0192746,811,1562,-5.77569,-31.2945
-406,-538,-5.79413,32.0596,0.000150389,0.00073074,0.000230737,0.000811296,6.98334e-05,1.2349,0.000519154,0.0160317,818,1562,-5.79416,-32.0596
-399,-538,-5.81879,32.8289,0.00109333,0.00146419,0.000761581,0.00206259,0.000494931,0.904814,0.00124336,0.0147357,825,1562,-5.81878,-32.8289
-392,-538,-5.8233,33.5936,0.00184754,0.0021268,0.00115979,0.00315534,0.000818997,0.845306,0.00189064,0.0156632,832,1562,-5.8233,-33.5936
-385,-538,-5.90063,34.3555,0.00250516,0.00280485,0.00137978,0.00404289,0.00126711,0.839485,0.00238772,0.0132004,839,1562,-5.90064,-34.3554
-378,-538,-5.94598,35.0815,0.00310084,0.00339087,0.0014496,0.00470269,0.00178902,0.835252,0.00274086,0.010664,846,1562,-5.94601,-35.0816
-371,-538,-5.99432,35.7858,0.00394084,0.00433326,0.00177262,0.00592049,0.0023536,0.840519,0.00344204,0.014985,853,1562,-5.99431,-35.7858
-364,-538,-5.9234,36.6272,0.00505587,0.00552888,0.00225579,0.00756054,0.00302422,0.83763,0.00439408,0.023751,860,1562,-5.92338,-36.6272
-357,-538,-5.87256,37.6782,0,0,0,0,0,0,0,-1,867,1562,-5.87255,-37.6782
-350,-538,-5.73969,38.5938,0,0,0,0,0,0,0,-1,874,1562,-5.73967,-38.5937
-343,-538,-2.47339,28.3082,0,0,0,0,0,0,0,-1,881,1562,-2.47341,-28.3083
-336,-538,-2.40161,28.5409,0,0,0,0,0,0,0,-1,888,1562,-2.40163,-28.541
-329,-538,-2.57159,28.4905,0,0,0,0,0,0,0,-1,895,1562,-2.57161,-28.4905
-322,-538,-2.83783,28.2308,0,0,0,0,0,0,0,-1,902,1562,-2.83783,-28.2308
-315,-538,-2.91827,27.7609,0,0,0,0,0,0,0,-1,909,1562,-2.91829,-27.7608
-308,-538,-4.37433,31.7996,0,0,0,0,0,0,0,-1,916,1562,-4.3743,-31.7995
-301,-538,-0.452393,18.5101,0,0,0,0,0,0,0,-1,923,1562,-0.452367,-18.5102
-294,-538,1.23138,14.0757,0,0,0,0,0,0,0,-1,930,1562,1.23137,-14.0757
-287,-538,-2.60419,10.2361,0,0,0,0,0,0,0,-1,937,1562,-2.6042,-10.2361
-280,-538,-2.93475,10.5106,0,0,0,0,0,0,0,-1,944,1562,-2.93475,-10.5106
-273,-538,-3.26532,10.785,0,0,0,0,0,0,0,-1,951,1562,-3.26531,-10.785
-266,-538,-5.03412,15.9951,0,0,0,0,0,0,0,-1,958,1562,-5.03409,-15.9951
-259,-538,-5.89642,16.5184,0,0,0,0,0,0,0,-1,965,1562,-5.89644,-16.5184
-252,-538,0,0,0,0,0,0,0,0,0,-1,972,1562,0,0
-245,-538,0,0,0,0,0,0,0,0,0,-1,979,1562,0,0
-238,-538,0,0,0,0,0,0,0,0,0,-1,986,1562,0,0
-231,-538,0,0,0,0,0,0,0,0,0,-1,993,1562,0,0
-224,-538,0,0,0,0,0,0,0,0,0,-1,1000,1562,0,0
-217,-538,0,0,0,0,0,0,0,0,0,-1,1007,1562,0,0
-210,-538,0,0,0,0,0,0,0,0,0,-1,1014,1562,0,0
-203,-538,0,0,0,0,0,0,0,0,0,-1,1021,1562,0,0
-196,-538,0,0,0,0,0,0,0,0,0,-1,1028,1562,0,0
-189,-538,0,0,0,0,0,0,0,0,0,-1,1035,1562,0,0
-182,-538,0,0,0,0,0,0,0,0,0,-1,1042,1562,0,0
-175,-538,0,0,0,0,0,0,0,0,0,-1,1049,1562,0,0
-168,-538,0,0,0,0,0,0,0,0,0,-1,1056,1562,0,0
-161,-538,0,0,0,0,0,0,0,0,0,-1,1063,1562,0,0
-154,-538,0,0,0,0,0,0,0,0,0,-1,1070,1562,0,0
-147,-538,0,0,0,0,0,0,0,0,0,-1,1077,1562,0,0
-140,-538,0,0,0,0,0,0,0,0,0,-1,1084,1562,0,0
-133,-538,0,0,0,0,0,0,0,0,0,-1,1091,1562,0,0
-126,-538,0,0,0,0,0,0,0,0,0,-1,1098,1562,0,0
-119,-538,0,0,0,0,0,0,0,0,0,-1,1105,1562,0,0
-112,-538,0,0,0,0,0,0,0,0,0,-1,1112,1562,0,0
-105,-538,0,0,0,0,0,0,0,0,0,-1,1119,1562,0,0
-98,-538,0,0,0,0,0,0,0,0,0,-1,1126,1562,0,0
-91,-538,0,0,0,0,0,0,0,0,0,-1,1133,1562,0,0
-84,-538,0,0,0,0,0,0,0,0,0,-1,1140,1562,0,0
-77,-538,0,0,0,0,0,0,0,0,0,-1,1147,1562,0,0
-70,-538,0,0,0,0,0,0,0,0,0,-1,1154,1562,0,0
-63,-538,0,0,0,0,0,0,0,0,0,-1,1161,1562,0,0
-56,-538,0,0,0,0,0,0,0,0,0,-1,1168,1562,0,0
-49,-538,0,0,0,0,0,0,0,0,0,-1,1175,1562,0,0
-42,-538,0,0,0,0,0,0,0,0,0,-1,1182,1562,0,0
-35,-538,0,0,0,0,0,0,0,0,0,-1,1189,1562,0,0
-28,-538,0,0,0,0,0,0,0,0,0,-1,1196,1562,0,0
-21,-538,0,0,0,0,0,0,0,0,0,-1,1203,1562,0,0
-14,-538,0,0,0,0,0,0,0,0,0,-1,1210,1562,0,0
-7,-538,0,0,0,0,0,0,0,0,0,-1,1217,1562,0,0
0,-538,0,0,0,0,0,0,0,0,0,-1,1224,1562,0,0
7,-538,0,0,0,0,0,0,0,0,0,-1,1231,1562,0,0
14,-538,0,0,0,0,0,0,0,0,0,-1,1238,1562,0,0
21,-538,0,0,0,0,0,0,0,0,0,-1,1245,1562,0,0
28,-538,0,0,0,0,0,0,0,0,0,-1,1252,1562,0,0
35,-538,0,0,0,0,0,0,0,0,0,-1,1259,1562,0,0
42,-538,0,0,0,0,0,0,0,0,0,-1,1266,1562,0,0
49,-538,0,0,0,0,0,0,0,0,0,-1,1273,1562,0,0
56,-538,0,0,0,0,0,0,0,0,0,-1,1280,1562,0,0
63,-538,0,0,0,0,0,0,0,0,0,-1,1287,1562,0,0
70,-538,0,0,0,0,0,0,0,0,0,-1,1294,1562,0,0
77,-538,0,0,0,0,0,0,0,0,0,-1,1301,1562,0,0
84,-538,0,0,0,0,0,0,0,0,0,-1,1308,1562,0,0
91,-538,0,0,0,0,0,0,0,0,0,-1,1315,1562,0,0
98,-538,0,0,0,0,0,0,0,0,0,-1,1322,1562,0,0
105,-538,0,0,0,0,0,0,0,0,0,-1,1329,1562,0,0
112,-538,0,0,0,0,0,0,0,0,0,-1,1336,1562,0,0
119,-538,0,0,0,0,0,0,0,0,0,-1,1343,1562,0,0
126,-538,0,0,0,0,0,0,0,0,0,-1,1350,1562,0,0
133,-538,0,0,0,0,0,0,0,0,0,-1,1357,1562,0,0
140,-538,0,0,0,0,0,0,0,0,0,-1,1364,1562,0,0
147,-538,0,0,0,0,0,0,0,0,0,-1,1371,1562,0,0
154,-538,0,0,0,0,0,0,0,0,0,-1,1378,1562,0,0
161,-538,0,0,0,0,0,0,0,0,0,-1,1385,1562,0,0
168,-538,0,0,0,0,0,0,0,0,0,-1,1392,1562,0,0
175,-538,0,0,0,0,0,0,0,0,0,-1,1399,1562,0,0
182,-538,0,0,0,0,0,0,0,0,0,-1,1406,1562,0,0
189,-538,0,0,0,0,0,0,0,0,0,-1,1413,1562,0,0
196,-538,0,0,0,0,0,0,0,0,0,-1,1420,1562,0,0
203,-538,0,0,0,0,0,0,0,0,0,-1,1427,1562,0,0
210,-538,0,0,0,0,0,0,0,0,0,-1,1434,1562,0,0
217,-538,0,0,0,0,0,0,0,0,0,-1,1441,1562,0,0
224,-538,0,0,0,0,0,0,0,0,0,-1,1448,1562,0,0
231,-538,0,0,0,0,0,0,0,0,0,-1,1455,1562,0,0
238,-538,0,0,0,0,0,0,0,0,0,-1,1462,1562,0,0
245,-538,0,0,0,0,0,0,0,0,0,-1,1469,1562,0,0
252,-538,0,0,0,0,0,0,0,0,0,-1,1476,1562,0,0
259,-538,0,0,0,0,0,0,0,0,0,-1,1483,1562,0,0
266,-538,0,0,0,0,0,0,0,0,0,-1,1490,1562,0,0
273,-538,0,0,0,0,0,0,0,0,0,-1,1497,1562,0,0
280,-538,0,0,0,0,0,0,0,0,0,-1,1504,1562,0,0
287,-538,0,0,0,0,0,0,0,0,0,-1,1511,1562,0,0
294,-538,0,0,0,0,0,0,0,0,0,-1,1518,1562,0,0
301,-538,0,0,0,0,0,0,0,0,0,-1,1525,1562,0,0
308,-538,0,0,0,0,0,0,0,0,0,-1,1532,1562,0,0
315,-538,0,0,0,0,0,0,0,0,0,-1,1539,1562,0,0
322,-538,0,0,0,0,0,0,0,0,0,-1,1546,1562,0,0
329,-538,0,0,0,0,0,0,0,0,0,-1,1553,1562,0,0
336,-538,0,0,0,0,0,0,0,0,0,-1,1560,1562,0,0
343,-538,0,0,0,0,0,0,0,0,0,-1,1567,1562,0,0
350,-538,0,0,0,0,0,0,0,0,0,-1,1574,1562,0,0
357,-538,0,0,0,0,0,0,0,0,0,-1,1581,1562,0,0
364,-538,0,0,0,0,0,0,0,0,0,-1,1588,1562,0,0
371,-538,0,0,0,0,0,0,0,0,0,-1,1595,1562,0,0
378,-538,9.65479,5.82434,0,0,0,0,0,0,0,-1,1602,1562,9.6548,-5.82439
385,-538,10.5449,7.9502,0,0,0,0,0,0,0,-1,1609,1562,10.5449,-7.95014
392,-538,8.20361,7.07214,0,0,0,0,0,0,0,-1,1616,1562,8.20362,-7.07211
399,-538,7.85425,4.70508,0,0,0,0,0,0,0,-1,1623,1562,7.85425,-4.70512
406,-538,7.77734,4.96094,0,0,0,0,0,0,0,-1,1630,1562,7.77729,-4.96097
413,-538,13.0446,13.1765,0,0,0,0,0,0,0,-1,1637,1562,13.0446,-13.1765
420,-538,9.96216,12.7653,0,0,0,0,0,0,0,-1,1644,1562,9.96221,-12.7653
427,-538,10.1732,14.5863,0,0,0,0,0,0,0,-1,1651,1562,10.1732,-14.5863
434,-538,9.64331,14.7745,0,0,0,0,0,0,0,-1,1658,1562,9.64326,-14.7746
441,-538,11.5039,20.5195,0,0,0,0,0,0,0,-1,1665,1562,11.5039,-20.5195
448,-538,12.8766,22.4932,0,0,0,0,0,0,0,-1,1672,1562,12.8766,-22.4932
455,-538,12.5693,17.4128,0,0,0,0,0,0,0,-1,1679,1562,12.5694,-17.4128
462,-538,12.1389,17.017,0,0,0,0,0,0,0,-1,1686,1562,12.1389,-17.017
469,-538,14.3802,16.6945,0,0,0,0,0,0,0,-1,1693,1562,14.3803,-16.6945
476,-538,13.724,19.0608,0,0,0,0,0,0,0,-1,1700,1562,13.724,-19.0608
483,-538,17.088,25.2936,0,0,0,0,0,0,0,-1,1707,1562,17.088,-25.2936
490,-538,23.9604,37.3049,0,0,0,0,0,0,0,-1,1714,1562,23.9604,-37.3049
497,-538,24.0348,36.5844,0.0107253,0.0110598,-0.00836606,0.0192603,0.00252484,-0.795392,0.0120868,0.0411737,1721,1562,24.0348,-36.5844
504,-538,24.1243,35.6854,0.00850805,0.00833939,-0.00636312,0.0147874,0.00206005,-0.778772,0.00924838,0.0174488,1728,1562,24.1243,-35.6854
511,-538,24.0841,34.9738,0.00672057,0.00641603,-0.00488612,0.0114568,0.00167982,-0.769821,0.00714406,0.0112849,1735,1562,24.0841,-34.9737
518,-538,24.0687,34.2588,0.00511738,0.0047006,-0.00360469,0.00851971,0.00129828,-0.756525,0.00530031,0.0116348,1742,1562,24.0687,-34.2587
525,-538,24.0404,33.5376,0.00374972,0.00359094,-0.00271998,0.00639147,0.000949184,-0.770808,0.00398247,0.0127505,1749,1562,24.0404,-33.5376
532,-538,24.0264,32.8285,0.00263341,0.00260256,-0.00199915,0.00461719,0.000618775,-0.781539,0.00289401,0.0149074,1756,1562,24.0263,-32.8285
539,-538,23.9897,32.0919,0.00186788,0.00188814,-0.0014562,0.00333424,0.000421771,-0.788876,0.00209643,0.0179321,1763,1562,23.9897,-32.0919
546,-538,23.8998,31.358,0.00136409,0.00114887,-0.000985868,0.0022482,0.000264752,-0.731037,0.00141881,0.0185656,1770,1562,23.8998,-31.358
553,-538,23.8934,30.6388,0.0011334,0.000598907,-0.00062245,0.00154355,0.000188757,-0.582625,0.00097224,0.0290647,1777,1562,23.8934,-30.6389
560,-538,23.7764,29.9446,0.00130626,0.00020612,-0.000427406,0.00145279,5.95895e-05,-0.33028,0.000949289,0.0334264,1784,1562,23.7763,-29.9445
567,-538,23.6969,29.2067,0.00184021,2.91796e-05,-0.000421593,0.00193354,-6.41537e-05,-0.217869,0.00131094,0.0255529,1791,1562,23.6969,-29.2066
574,-538,23.6517,28.4226,0.00266206,-0.000101941,-0.000481854,0.00274365,-0.000183535,-0.167742,0.00189325,0.0322661,1798,1562,23.6517,-28.4226
581,-538,23.6866,27.6748,0.00418304,2.55048e-05,-0.000944634,0.00438761,-0.00017906,-0.213262,0.00298655,0.0491854,1805,1562,23.6867,-27.6748
588,-538,23.9906,26.8889,0,0,0,0,0,0,0,-1,1812,1562,23.9905,-26.8889
595,-538,15.9808,16.0894,0,0,0,0,0,0,0,-1,1819,1562,15.9808,-16.0893
602,-538,10.314,8.94238,0,0,0,0,0,0,0,-1,1826,1562,10.314,-8.94238
609,-538,10.1046,7.05713,0,0,0,0,0,0,0,-1,1833,1562,10.1046,-7.05719
616,-538,9.92249,5.43506,0,0,0,0,0,0,0,-1,1840,1562,9.92254,-5.43507
623,-538,11.1711,4.31604,0,0,0,0,0,0,0,-1,1847,1562,11.1711,-4.316
630,-538,12.6112,2.61633,0,0,0,0,0,0,0,-1,1854,1562,12.6112,-2.61637
637,-538,0,0,0,0,0,0,0,0,0,-1,1861,1562,0,0
644,-538,0,0,0,0,0,0,0,0,0,-1,1868,1562,0,0
651,-538,0,0,0,0,0,0,0,0,0,-1,1875,1562,0,0
658,-538,0,0,0,0,0,0,0,0,0,-1,1882,1562,0,0
665,-538,0,0,0,0,0,0,0,0,0,-1,1889,1562,0,0
672,-538,0,0,0,0,0,0,0,0,0,-1,1896,1562,0,0
679,-538,0,0,0,0,0,0,0,0,0,-1,1903,1562,0,0
686,-538,0,0,0,0,0,0,0,0,0,-1,1910,1562,0,0
693,-538,0,0,0,0,0,0,0,0,0,-1,1917,1562,0,0
700,-538,0,0,0,0,0,0,0,0,0,-1,1924,1562,0,0
707,-538,0,0,0,0,0,0,0,0,0,-1,1931,1562,0,0
714,-538,0,0,0,0,0,0,0,0,0,-1,1938,1562,0,0
721,-538,0,0,0,0,0,0,0,0,0,-1,1945,1562,0,0
728,-538,0,0,0,0,0,0,0,0,0,-1,1952,1562,0,0
735,-538,0,0,0,0,0,0,0,0,0,-1,1959,1562,0,0
742,-538,0,0,0,0,0,0,0,0,0,-1,1966,1562,0,0
749,-538,0,0,0,0,0,0,0,0,0,-1,1973,1562,0,0
756,-538,0,0,0,0,0,0,0,0,0,-1,1980,1562,0,0
763,-538,0,0,0,0,0,0,0,0,0,-1,1987,1562,0,0
770,-538,0,0,0,0,0,0,0,0,0,-1,1994,1562,0,0
777,-538,0,0,0,0,0,0,0,0,0,-1,2001,1562,0,0
784,-538,0,0,0,0,0,0,0,0,0,-1,2008,1562,0,0
791,-538,0,0,0,0,0,0,0,0,0,-1,2015,1562,0,0
798,-538,0,0,0,0,0,0,0,0,0,-1,2022,1562,0,0
805,-538,0,0,0,0,0,0,0,0,0,-1,2029,1562,0,0
812,-538,0,0,0,0,0,0,0,0,0,-1,2036,1562,0,0
-700,-545,0,0,0,0,0,0,0,0,0,-1,524,1569,0,0
-693,-545,0,0,0,0,0,0,0,0,0,-1,531,1569,0,0
-686,-545,0,0,0,0,0,0,0,0,0,-1,538,1569,0,0
-679,-545,0,0,0,0,0,0,0,0,0,-1,545,1569,0,0
-672,-545,0,0,0,0,0,0,0,0,0,-1,552,1569,0,0
-665,-545,0,0,0,0,0,0,0,0,0,-1,559,1569,0,0
-658,-545,0,0,0,0,0,0,0,0,0,-1,566,1569,0,0
-651,-545,0,0,0,0,0,0,0,0,0,-1,573,1569,0,0
-644,-545,0,0,0,0,0,0,0,0,0,-1,580,1569,0,0
-637,-545,0,0,0,0,0,0,0,0,0,-1,587,1569,0,0
-630,-545,0,0,0,0,0,0,0,0,0,-1,594,1569,0,0
-623,-545,0,0,0,0,0,0,0,0,0,-1,601,1569,0,0
-616,-545,0,0,0,0,0,0,0,0,0,-1,608,1569,0,0
-609,-545,0,0,0,0,0,0,0,0,0,-1,615,1569,0,0
-602,-545,0,0,0,0,0,0,0,0,0,-1,622,1569,0,0
-595,-545,0,0,0,0,0,0,0,0,0,-1,629,1569,0,0
-588,-545,0,0,0,0,0,0,0,0,0,-1,636,1569,0,0
-581,-545,0,0,0,0,0,0,0,0,0,-1,643,1569,0,0
-574,-545,0,0,0,0,0,0,0,0,0,-1,650,1569,0,0
-567,-545,0,0,0,0,0,0,0,0,0,-1,657,1569,0,0
-560,-545,0,0,0,0,0,0,0,0,0,-1,664,1569,0,0
-553,-545,0,0,0,0,0,0,0,0,0,-1,671,1569,0,0
-546,-545,0,0,0,0,0,0,0,0,0,-1,678,1569,0,0
-539,-545,0,0,0,0,0,0,0,0,0,-1,685,1569,0,0
-532,-545,0,0,0,0,0,0,0,0,0,-1,692,1569,0,0
-525,-545,0,0,0,0,0,0,0,0,0,-1,699,1569,0,0
-518,-545,0,0,0,0,0,0,0,0,0,-1,706,1569,0,0
-511,-545,0,0,0,0,0,0,0,0,0,-1,713,1569,0,0
-504,-545,-3.55237,-2.5354,0,0,0,0,0,0,0,-1,720,1569,-3.55236,2.53545
-497,-545,2.26575,5.69214,0,0,0,0,0,0,0,-1,727,1569,2.26573,-5.6922
-490,-545,-2.17334,7.81396,0,0,0,0,0,0,0,-1,734,1569,-2.17334,-7.81399
-483,-545,-1.88336,5.8446,0,0,0,0,0,0,0,-1,741,1569,-1.88334,-5.84466
-476,-545,-1.13147,6.5741,0,0,0,0,0,0,0,-1,748,1569,-1.13149,-6.57405
-469,-545,-1.03412,15.8353,0,0,0,0,0,0,0,-1,755,1569,-1.03414,-15.8353
-462,-545,-4.09772,21.0458,0,0,0,0,0,0,0,-1,762,1569,-4.0977,-21.0458
-455,-545,-4.60291,26.342,0,0,0,0,0,0,0,-1,769,1569,-4.60289,-26.342
-448,-545,-4.58398,27.4421,0,0,0,0,0,0,0,-1,776,1569,-4.58399,-27.4422
-441,-545,-4.66071,28.5204,-0.0106209,-0.00683634,-0.00571285,-0.00271052,-0.0147467,-0.945326,0.00906374,0.035078,783,1569,-4.66068,-28.5204
-434,-545,-5.00159,29.1392,-0.0078393,-0.0049431,-0.00429257,-0.00186095,-0.0109214,-0.948079,0.00674675,0.0311103,790,1569,-5.0016,-29.1391
-427,-545,-4.96741,29.8785,-0.00549959,-0.00325875,-0.0029494,-0.00122412,-0.00753422,-0.96692,0.00466857,0.0232002,797,1569,-4.96743,-29.8785
-420,-545,-4.95441,30.5898,-0.00359351,-0.00192649,-0.00182509,-0.000753582,-0.00476642,-0.999602,0.00295858,0.025767,804,1569,-4.95438,-30.5899
-413,-545,-4.99036,31.2966,-0.00197882,-0.000919969,-0.000990633,-0.000326164,-0.00257262,-1.0308,0.00161736,0.0232728,811,1569,-4.99037,-31.2966
-406,-545,-5.02185,32.1071,-0.000697057,-2.4056e-05,-0.000251459,5.95198e-05,-0.000780632,-1.24992,0.000541353,0.0173186,818,1569,-5.02183,-32.1071
-399,-545,-5.04382,32.8683,0.000296811,0.000628992,0.000298007,0.000804068,0.000121736,1.03963,0.000500427,0.0119123,825,1569,-5.04385,-32.8683
-392,-545,-5.0838,33.6141,0.00108405,0.00123097,0.000712044,0.00187334,0.000441688,0.836798,0.00113079,0.0123598,832,1569,-5.08379,-33.6141
-385,-545,-5.13159,34.3807,0.00180627,0.00190188,0.000968484,0.00282373,0.000884409,0.810058,0.00166778,0.010938,839,1569,-5.13156,-34.3808
-378,-545,-5.19611,35.1283,0.00244594,0.00249005,0.001108,0.00357621,0.00135977,0.795349,0.00208438,0.0126766,846,1569,-5.19613,-35.1283
-371,-545,-5.23492,35.8834,0.0032093,0.00329047,0.00138539,0.00463588,0.0018639,0.800042,0.00269359,0.0154082,853,1569,-5.23495,-35.8834
-364,-545,-5.25714,36.5754,0.00420392,0.00443946,0.00183415,0.00615961,0.00248376,0.817459,0.00357838,0.0115108,860,1569,-5.25715,-36.5755
-357,-545,-5.20105,37.4786,0.00532068,0.00579708,0.00240504,0.00797569,0.00314207,0.834758,0.00463916,0.0251875,867,1569,-5.20108,-37.4786
-350,-545,-5.16199,38.2223,0.00662119,0.00754121,0.00319658,0.0103107,0.00385169,0.856862,0.006016,0.0465163,874,1569,-5.16199,-38.2223
-343,-545,-5.20172,39.1818,0,0,0,0,0,0,0,-1,881,1569,-5.20175,-39.1818
-336,-545,-4.2146,36.9165,0,0,0,0,0,0,0,-1,888,1569,-4.21457,-36.9165
-329,-545,-2.03595,27.8694,0,0,0,0,0,0,0,-1,895,1569,-2.03592,-27.8694
-322,-545,-2.42474,27.9695,0,0,0,0,0,0,0,-1,902,1569,-2.42474,-27.9695
-315,-545,-2.52954,30.1711,0,0,0,0,0,0,0,-1,909,1569,-2.52951,-30.1712
-308,-545,-1.54358,21.4457,0,0,0,0,0,0,0,-1,916,1569,-1.54357,-21.4457
-301,-545,1.52191,17.5009,0,0,0,0,0,0,0,-1,923,1569,1.52192,-17.5008
-294,-545,-2.69287,8.42102,0,0,0,0,0,0,0,-1,930,1569,-2.69287,-8.42097
-287,-545,-3.47784,9.96021,0,0,0,0,0,0,0,-1,937,1569,-3.47785,-9.96021
-280,-545,-3.7879,10.5448,0,0,0,0,0,0,0,-1,944,1569,-3.78793,-10.5448
-273,-545,-5.10333,12.864,0,0,0,0,0,0,0,-1,951,1569,-5.10331,-12.864
-266,-545,-5.78955,13.3704,0,0,0,0,0,0,0,-1,958,1569,-5.78952,-13.3703
-259,-545,-6.32184,13.8101,0,0,0,0,0,0,0,-1,965,1569,-6.32182,-13.81
-252,-545,0.369263,7.54053,0,0,0,0,0,0,0,-1,972,1569,0.369276,-7.54056
-245,-545,-0.236633,6.65564,0,0,0,0,0,0,0,-1,979,1569,-0.236605,-6.65566
-238,-545,0,0,0,0,0,0,0,0,0,-1,986,1569,0,0
-231,-545,0,0,0,0,0,0,0,0,0,-1,993,1569,0,0
-224,-545,0,0,0,0,0,0,0,0,0,-1,1000,1569,0,0
-217,-545,0,0,0,0,0,0,0,0,0,-1,1007,1569,0,0
-210,-545,0,0,0,0,0,0,0,0,0,-1,1014,1569,0,0
-203,-545,0,0,0,0,0,0,0,0,0,-1,1021,1569,0,0
-196,-545,0,0,0,0,0,0,0,0,0,-1,1028,1569,0,0
-189,-545,0,0,0,0,0,0,0,0,0,-1,1035,1569,0,0
-182,-545,0,0,0,0,0,0,0,0,0,-1,1042,1569,0,0
-175,-545,0,0,0,0,0,0,0,0,0,-1,1049,1569,0,0
-168,-545,0,0,0,0,0,0,0,0,0,-1,1056,1569,0,0
-161,-545,0,0,0,0,0,0,0,0,0,-1,1063,1569,0,0
-154,-545,0,0,0,0,0,0,0,0,0,-1,1070,1569,0,0
-147,-545,0,0,0,0,0,0,0,0,0,-1,1077,1569,0,0
-140,-545,0,0,0,0,0,0,0,0,0,-1,1084,1569,0,0
-133,-545,0,0,0,0,0,0,0,0,0,-1,1091,1569,0,0
-126,-545,0,0,0,0,0,0,0,0,0,-1,1098,1569,0,0
-119,-545,0,0,0,0,0,0,0,0,0,-1,1105,1569,0,0
-112,-545,0,0,0,0,0,0,0,0,0,-1,1112,1569,0,0
-105,-545,0,0,0,0,0,0,0,0,0,-1,1119,1569,0,0
-98,-545,0,0,0,0,0,0,0,0,0,-1,1126,1569,0,0
-91,-545,0,0,0,0,0,0,0,0,0,-1,1133,1569,0,0
-84,-545,0,0,0,0,0,0,0,0,0,-1,1140,1569,0,0
-77,-545,0,0,0,0,0,0,0,0,0,-1,1147,1569,0,0
-70,-545,0,0,0,0,0,0,0,0,0,-1,1154,1569,0,0
-63,-545,0,0,0,0,0,0,0,0,0,-1,1161,1569,0,0
-56,-545,0,0,0,0,0,0,0,0,0,-1,1168,1569,0,0
-49,-545,0,0,0,0,0,0,0,0,0,-1,1175,1569,0,0
-42,-545,0,0,0,0,0,0,0,0,0,-1,1182,1569,0,0
-35,-545,0,0,0,0,0,0,0,0,0,-1,1189,1569,0,0
-28,-545,0,0,0,0,0,0,0,0,0,-1,1196,1569,0,0
-21,-545,0,0,0,0,0,0,0,0,0,-1,1203,1569,0,0
-14,-545,0,0,0,0,0,0,0,0,0,-1,1210,1569,0,0
-7,-545,0,0,0,0,0,0,0,0,0,-1,1217,1569,0,0
0,-545,0,0,0,0,0,0,0,0,0,-1,1224,1569,0,0
7,-545,0,0,0,0,0,0,0,0,0,-1,1231,1569,0,0
14,-545,0,0,0,0,0,0,0,0,0,-1,1238,1569,0,0
21,-545,0,0,0,0,0,0,0,0,0,-1,1245,1569,0,0
28,-545,0,0,0,0,0,0,0,0,0,-1,1252,1569,0,0
35,-545,0,0,0,0,0,0,0,0,0,-1,1259,1569,0,0
42,-545,0,0,0,0,0,0,0,0,0,-1,1266,1569,0,0
49,-545,0,0,0,0,0,0,0,0,0,-1,1273,1569,0,0
56,-545,0,0,0,0,0,0,0,0,0,-1,1280,1569,0,0
63,-545,0,0,0,0,0,0,0,0,0,-1,1287,1569,0,0
70,-545,0,0,0,0,0,0,0,0,0,-1,1294,1569,0,0
77,-545,0,0,0,0,0,0,0,0,0,-1,1301,1569,0,0
84,-545,0,0,0,0,0,0,0,0,0,-1,1308,1569,0,0
91,-545,0,0,0,0,0,0,0,0,0,-1,1315,1569,0,0
98,-545,0,0,0,0,0,0,0,0,0,-1,1322,1569,0,0
105,-545,0,0,0,0,0,0,0,0,0,-1,1329,1569,0,0
112,-545,0,0,0,0,0,0,0,0,0,-1,1336,1569,0,0
119,-545,0,0,0,0,0,0,0,0,0,-1,1343,1569,0,0
126,-545,0,0,0,0,0,0,0,0,0,-1,1350,1569,0,0
133,-545,0,0,0,0,0,0,0,0,0,-1,1357,1569,0,0
140,-545,0,0,0,0,0,0,0,0,0,-1,1364,1569,0,0
147,-545,0,0,0,0,0,0,0,0,0,-1,1371,1569,0,0
154,-545,0,0,0,0,0,0,0,0,0,-1,1378,1569,0,0
161,-545,0,0,0,0,0,0,0,0,0,-1,1385,1569,0,0
168,-545,0,0,0,0,0,0,0,0,0,-1,1392,1569,0,0
175,-545,0,0,0,0,0,0,0,0,0,-1,1399,1569,0,0
182,-545,0,0,0,0,0,0,0,0,0,-1,1406,1569,0,0
189,-545,0,0,0,0,0,0,0,0,0,-1,1413,1569,0,0
196,-545,0,0,0,0,0,0,0,0,0,-1,1420,1569,0,0
203,-545,0,0,0,0,0,0,0,0,0,-1,1427,1569,0,0
210,-545,0,0,0,0,0,0,0,0,0,-1,1434,1569,0,0
217,-545,0,0,0,0,0,0,0,0,0,-1,1441,1569,0,0
224,-545,0,0,0,0,0,0,0,0,0,-1,1448,1569,0,0
231,-545,0,0,0,0,0,0,0,0,0,-1,1455,1569,0,0
238,-545,0,0,0,0,0,0,0,0,0,-1,1462,1569,0,0
245,-545,0,0,0,0,0,0,0,0,0,-1,1469,1569,0,0
252,-545,0,0,0,0,0,0,0,0,0,-1,1476,1569,0,0
259,-545,0,0,0,0,0,0,0,0,0,-1,1483,1569,0,0
266,-545,0,0,0,0,0,0,0,0,0,-1,1490,1569,0,0
273,-545,0,0,0,0,0,0,0,0,0,-1,1497,1569,0,0
280,-545,0,0,0,0,0,0,0,0,0,-1,1504,1569,0,0
287,-545,0,0,0,0,0,0,0,0,0,-1,1511,1569,0,0
294,-545,0,0,0,0,0,0,0,0,0,-1,1518,1569,0,0
301,-545,0,0,0,0,0,0,0,0,0,-1,1525,1569,0,0
308,-545,0,0,0,0,0,0,0,0,0,-1,1532,1569,0,0
315,-545,0,0,0,0,0,0,0,0,0,-1,1539,1569,0,0
322,-545,0,0,0,0,0,0,0,0,0,-1,1546,1569,0,0
329,-545,0,0,0,0,0,0,0,0,0,-1,1553,1569,0,0
336,-545,0,0,0,0,0,0,0,0,0,-1,1560,1569,0,0
343,-545,0,0,0,0,0,0,0,0,0,-1,1567,1569,0,0
350,-545,0,0,0,0,0,0,0,0,0,-1,1574,1569,0,0
357,-545,0,0,0,0,0,0,0,0,0,-1,1581,1569,0,0
364,-545,7.19495,4.88098,0,0,0,0,0,0,0,-1,1588,1569,7.19497,-4.88095
371,-545,7.82324,3.84302,0,0,0,0,0,0,0,-1,1595,1569,7.82324,-3.84307
378,-545,7.65674,5.52673,0,0,0,0,0,0,0,-1,1602,1569,7.6567,-5.52667
385,-545,8.58447,1.16125,0,0,0,0,0,0,0,-1,1609,1569,8.5845,-1.1612
392,-545,12.5654,3.89526,0,0,0,0,0,0,0,-1,1616,1569,12.5655,-3.89532
399,-545,11.5869,5.6333,0,0,0,0,0,0,0,-1,1623,1569,11.5869,-5.63326
406,-545,11.234,6.36414,0,0,0,0,0,0,0,-1,1630,1569,11.234,-6.3641
413,-545,12.1521,13.4817,0,0,0,0,0,0,0,-1,1637,1569,12.1521,-13.4817
420,-545,11.1954,13.6047,0,0,0,0,0,0,0,-1,1644,1569,11.1954,-13.6047
427,-545,9.61072,14.9135,0,0,0,0,0,0,0,-1,1651,1569,9.61076,-14.9134
434,-545,13.1598,23.9921,0,0,0,0,0,0,0,-1,1658,1569,13.1598,-23.992
441,-545,12.2833,22.2238,0,0,0,0,0,0,0,-1,1665,1569,12.2833,-22.2237
448,-545,13.0082,21.941,0,0,0,0,0,0,0,-1,1672,1569,13.0082,-21.941
455,-545,13.733,21.6583,0,0,0,0,0,0,0,-1,1679,1569,13.733,-21.6583
462,-545,12.449,20.7413,0,0,0,0,0,0,0,-1,1686,1569,12.4489,-20.7413
469,-545,12.7837,17.7919,0,0,0,0,0,0,0,-1,1693,1569,12.7837,-17.7919
476,-545,15.7562,24.8708,0,0,0,0,0,0,0,-1,1700,1569,15.7563,-24.8709
483,-545,23.3749,37.9916,0,0,0,0,0,0,0,-1,1707,1569,23.3749,-37.9916
490,-545,23.374,37.2096,0.0105256,0.0118522,-0.00865696,0.0198713,0.00250661,-0.823634,0.0124961,0.0289897,1714,1569,23.374,-37.2096
497,-545,23.3989,36.4868,0.00860224,0.00892193,-0.00653791,0.015302,0.00222222,-0.79762,0.00954716,0.0234809,1721,1569,23.3989,-36.4868
504,-545,23.4591,35.7396,0.00675088,0.00655969,-0.0049085,0.0115647,0.00174586,-0.775662,0.00719877,0.0171172,1728,1569,23.4591,-35.7397
511,-545,23.4014,34.9901,0.00515722,0.00495643,-0.00369445,0.00875264,0.00136101,-0.771814,0.00543849,0.0123913,1735,1569,23.4014,-34.9901
518,-545,23.3762,34.2813,0.00372278,0.00348914,-0.00262965,0.00623821,0.000973719,-0.7632,0.00387523,0.0136192,1742,1569,23.3762,-34.2812
525,-545,23.3209,33.5658,0.00253134,0.00259325,-0.00191539,0.00447793,0.000646657,-0.793479,0.00279479,0.0146474,1749,1569,23.3209,-33.5658
532,-545,23.2538,32.8575,0.00158783,0.00178743,-0.00134483,0.00303615,0.000339105,-0.822435,0.00192107,0.0155949,1756,1569,23.2538,-32.8576
539,-545,23.2206,32.1344,0.000964966,0.00124713,-0.000938421,0.00205501,0.000157079,-0.860008,0.00132077,0.0185696,1763,1569,23.2206,-32.1344
546,-545,23.178,31.3833,0.000603059,0.000653997,-0.000576966,0.00120606,5.09995e-05,-0.807455,0.000787588,0.0198642,1770,1569,23.178,-31.3833
553,-545,23.1626,30.6412,0.000547228,0.000255945,-0.000344743,0.000775832,2.73418e-05,-0.585538,0.000508352,0.0277254,1777,1569,23.1626,-30.6413
560,-545,23.1176,29.8962,0.000915296,-2.435e-06,-0.000283584,0.000995853,-8.29926e-05,-0.276779,0.000693224,0.0320757,1784,1569,23.1176,-29.8963
567,-545,23.0687,29.1107,0,0,0,0,0,0,0,-1,1791,1569,23.0687,-29.1107
574,-545,23.0577,28.2336,0,0,0,0,0,0,0,-1,1798,1569,23.0577,-28.2337
581,-545,22.9771,27.5734,0,0,0,0,0,0,0,-1,1805,1569,22.9771,-27.5734
588,-545,15.4786,16.7035,0,0,0,0,0,0,0,-1,1812,1569,15.4786,-16.7035
595,-545,10.2859,9.11218,0,0,0,0,0,0,0,-1,1819,1569,10.2858,-9.11215
602,-545,8.82117,6.32214,0,0,0,0,0,0,0,-1,1826,1569,8.82121,-6.32217
609,-545,10.2406,5.22351,0,0,0,0,0,0,0,-1,1833,1569,10.2406,-5.22353
616,-545,11.701,3.93188,0,0,0,0,0,0,0,-1,1840,1569,11.701,-3.93191
623,-545,13.2139,2.32043,0,0,0,0,0,0,0,-1,1847,1569,13.2139,-2.32042
630,-545,0,0,0,0,0,0,0,0,0,-1,1854,1569,0,0
637,-545,0,0,0,0,0,0,0,0,0,-1,1861,1569,0,0
644,-545,0,0,0,0,0,0,0,0,0,-1,1868,1569,0,0
651,-545,0,0,0,0,0,0,0,0,0,-1,1875,1569,0,0
658,-545,0,0,0,0,0,0,0,0,0,-1,1882,1569,0,0
665,-545,0,0,0,0,0,0,0,0,0,-1,1889,1569,0,0
672,-545,0,0,0,0,0,0,0,0,0,-1,1896,1569,0,0
679,-545,0,0,0,0,0,0,0,0,0,-1,1903,1569,0,0
686,-545,0,0,0,0,0,0,0,0,0,-1,1910,1569,0,0
693,-545,0,0,0,0,0,0,0,0,0,-1,1917,1569,0,0
700,-545,0,0,0,0,0,0,0,0,0,-1,1924,1569,0,0
707,-545,0,0,0,0,0,0,0,0,0,-1,1931,1569,0,0
714,-545,0,0,0,0,0,0,0,0,0,-1,1938,1569,0,0
721,-545,0,0,0,0,0,0,0,0,0,-1,1945,1569,0,0
728,-545,0,0,0,0,0,0,0,0,0,-1,1952,1569,0,0
735,-545,0,0,0,0,0,0,0,0,0,-1,1959,1569,0,0
742,-545,0,0,0,0,0,0,0,0,0,-1,1966,1569,0,0
749,-545,0,0,0,0,0,0,0,0,0,-1,1973,1569,0,0
756,-545,0,0,0,0,0,0,0,0,0,-1,1980,1569,0,0
763,-545,0,0,0,0,0,0,0,0,0,-1,1987,1569,0,0
770,-545,0,0,0,0,0,0,0,0,0,-1,1994,1569,0,0
777,-545,0,0,0,0,0,0,0,0,0,-1,2001,1569,0,0
784,-545,0,0,0,0,0,0,0,0,0,-1,2008,1569,0,0
791,-545,0,0,0,0,0,0,0,0,0,-1,2015,1569,0,0
798,-545,0,0,0,0,0,0,0,0,0,-1,2022,1569,0,0
805,-545,0,0,0,0,0,0,0,0,0,-1,2029,1569,0,0
812,-545,0,0,0,0,0,0,0,0,0,-1,2036,1569,0,0
-700,-552,0,0,0,0,0,0,0,0,0,-1,524,1576,0,0
-693,-552,0,0,0,0,0,0,0,0,0,-1,531,1576,0,0
-686,-552,0,0,0,0,0,0,0,0,0,-1,538,1576,0,0
-679,-552,0,0,0,0,0,0,0,0,0,-1,545,1576,0,0
-672,-552,0,0,0,0,0,0,0,0,0,-1,552,1576,0,0
-665,-552,0,0,0,0,0,0,0,0,0,-1,559,1576,0,0
-658,-552,0,0,0,0,0,0,0,0,0,-1,566,1576,0,0
-651,-552,0,0,0,0,0,0,0,0,0,-1,573,1576,0,0
-644,-552,0,0,0,0,0,0,0,0,0,-1,580,1576,0,0
-637,-552,0,0,0,0,0,0,0,0,0,-1,587,1576,0,0
-630,-552,0,0,0,0,0,0,0,0,0,-1,594,1576,0,0
-623,-552,0,0,0,0,0,0,0,0,0,-1,601,1576,0,0
-616,-552,0,0,0,0,0,0,0,0,0,-1,608,1576,0,0
-609,-552,0,0,0,0,0,0,0,0,0,-1,615,1576,0,0
-602,-552,0,0,0,0,0,0,0,0,0,-1,622,1576,0,0
-595,-552,0,0,0,0,0,0,0,0,0,-1,629,1576,0,0
-588,-552,0,0,0,0,0,0,0,0,0,-1,636,1576,0,0
-581,-552,0,0,0,0,0,0,0,0,0,-1,643,1576,0,0
-574,-552,0,0,0,0,0,0,0,0,0,-1,650,1576,0,0
-567,-552,0,0,0,0,0,0,0,0,0,-1,657,1576,0,0
-560,-552,0,0,0,0,0,0,0,0,0,-1,664,1576,0,0
-553,-552,0,0,0,0,0,0,0,0,0,-1,671,1576,0,0
-546,-552,0,0,0,0,0,0,0,0,0,-1,678,1576,0,0
-539,-552,0,0,0,0,0,0,0,0,0,-1,685,1576,0,0
-532,-552,0,0,0,0,0,0,0,0,0,-1,692,1576,0,0
-525,-552,0,0,0,0,0,0,0,0,0,-1,699,1576,0,0
-518,-552,0,0,0,0,0,0,0,0,0,-1,706,1576,0,0
-511,-552,0,0,0,0,0,0,0,0,0,-1,713,1576,0,0
-504,-552,0,0,0,0,0,0,0,0,0,-1,720,1576,0,0
-497,-552,1.51282,3.96924,0,0,0,0,0,0,0,-1,727,1576,1.5128,-3.96924
-490,-552,-3.82312,6.32104,0,0,0,0,0,0,0,-1,734,1576,-3.82314,-6.3211
-483,-552,-3.50586,6.47986,0,0,0,0,0,0,0,-1,741,1576,-3.50587,-6.47983
-476,-552,-1.95129,4.43054,0,0,0,0,0,0,0,-1,748,1576,-1.95128,-4.43054
-469,-552,-1.40491,7.9895,0,0,0,0,0,0,0,-1,755,1576,-1.40491,-7.98947
-462,-552,0.0459595,16.3469,0,0,0,0,0,0,0,-1,762,1576,0.0459611,-16.3469
-455,-552,-3.21484,22.3766,0,0,0,0,0,0,0,-1,769,1576,-3.21487,-22.3766
-448,-552,-3.82269,27.1567,0,0,0,0,0,0,0,-1,776,1576,-3.82271,-27.1568
-441,-552,-3.87061,28.5129,0,0,0,0,0,0,0,-1,783,1576,-3.8706,-28.5129
-434,-552,-3.94843,29.3571,-0.00959624,-0.00545243,-0.00532999,-0.00180581,-0.0132429,-0.970773,0.00829244,0.0438407,790,1576,-3.94842,-29.3571
-427,-552,-4.25763,29.7861,-0.00678415,-0.00367715,-0.00362592,-0.00128596,-0.00917535,-0.98779,0.00573649,0.0384635,797,1576,-4.25765,-29.7862
-420,-552,-4.18787,30.6378,-0.00456956,-0.00230322,-0.00226089,-0.000907415,-0.00596536,-1.0177,0.0037116,0.0254332,804,1576,-4.18788,-30.6378
-413,-552,-4.21094,31.3766,-0.00280511,-0.00132004,-0.0013082,-0.000558326,-0.00356682,-1.04353,0.00221535,0.0177639,811,1576,-4.21093,-31.3766
-406,-552,-4.27545,32.151,-0.00142993,-0.000517255,-0.00049701,-0.00029886,-0.00164832,-1.15678,0.00101405,0.0143277,818,1576,-4.27545,-32.151
-399,-552,-4.31976,32.9,-0.000390198,3.62294e-05,7.59169e-05,4.93417e-05,-0.00040331,1.39976,0.000286739,0.0146606,825,1576,-4.31973,-32.9
-392,-552,-4.37811,33.6487,0.000420106,0.000560629,0.000491897,0.000987257,-6.52234e-06,0.856337,0.000660356,0.0164656,832,1576,-4.37811,-33.6487
-385,-552,-4.39667,34.4063,0.00117943,0.00117732,0.000755063,0.00193344,0.00042331,0.784699,0.00117358,0.0151958,839,1576,-4.39666,-34.4062
-378,-552,-4.44989,35.134,0.00183804,0.00170568,0.000917005,0.00269125,0.000852469,0.749374,0.0015882,0.0162741,846,1576,-4.44992,-35.134
-371,-552,-4.4884,35.913,0.0025147,0.00230789,0.00109846,0.00351461,0.00130798,0.738468,0.00205115,0.0199096,853,1576,-4.48843,-35.913
-364,-552,-4.51025,36.6344,0.00339292,0.00327277,0.00144749,0.00478158,0.00188411,0.764658,0.00278124,0.0150395,860,1576,-4.51023,-36.6344
-357,-552,-4.52979,37.3287,0.00438627,0.00439062,0.00189485,0.0062833,0.00249359,0.785972,0.0036533,0.010972,867,1576,-4.52977,-37.3288
-350,-552,-4.51862,38.1241,0.00551658,0.00572272,0.00250293,0.00812471,0.0031146,0.805976,0.00473316,0.0162928,874,1576,-4.51863,-38.1241
-343,-552,-4.54187,38.817,0.00662577,0.00671852,0.00307126,0.00974375,0.00360053,0.792948,0.00568905,0.0288634,881,1576,-4.54187,-38.817
-336,-552,-4.59332,39.4246,0,0,0,0,0,0,0,-1,888,1576,-4.59331,-39.4245
-329,-552,-3.68982,37.6417,0,0,0,0,0,0,0,-1,895,1576,-3.68984,-37.6417
-322,-552,-1.23962,28.5371,0,0,0,0,0,0,0,-1,902,1576,-1.23964,-28.5371
-315,-552,-0.605347,28.994,0,0,0,0,0,0,0,-1,909,1576,-0.605331,-28.9941
-308,-552,-1.01624,30.3169,0,0,0,0,0,0,0,-1,916,1576,-1.01624,-30.3169
-301,-552,1.39453,18.4995,0,0,0,0,0,0,0,-1,923,1576,1.3945,-18.4995
-294,-552,0.842163,13.7863,0,0,0,0,0,0,0,-1,930,1576,0.842149,-13.7863
-287,-552,-0.663757,13.3474,0,0,0,0,0,0,0,-1,937,1576,-0.663744,-13.3474
-280,-552,-5.47241,8.96765,0,0,0,0,0,0,0,-1,944,1576,-5.47239,-8.96766
-273,-552,1.64587,10.6685,0,0,0,0,0,0,0,-1,951,1576,1.6459,-10.6685
-266,-552,-1.32678,8.05688,0,0,0,0,0,0,0,-1,958,1576,-1.32677,-8.05683
-259,-552,-5.54321,8.31213,0,0,0,0,0,0,0,-1,965,1576,-5.54324,-8.31214
-252,-552,-1.93445,7.81543,0,0,0,0,0,0,0,-1,972,1576,-1.93445,-7.81546
-245,-552,-2.53613,6.92212,0,0,0,0,0,0,0,-1,979,1576,-2.53614,-6.92216
-238,-552,-6.5365,2.81885,0,0,0,0,0,0,0,-1,986,1576,-6.53649,-2.8188
-231,-552,-4.32239,4.34583,0,0,0,0,0,0,0,-1,993,1576,-4.32239,-4.34587
-224,-552,0,0,0,0,0,0,0,0,0,-1,1000,1576,0,0
-217,-552,0,0,0,0,0,0,0,0,0,-1,1007,1576,0,0
-210,-552,0,0,0,0,0,0,0,0,0,-1,1014,1576,0,0
-203,-552,0,0,0,0,0,0,0,0,0,-1,1021,1576,0,0
-196,-552,0,0,0,0,0,0,0,0,0,-1,1028,1576,0,0
-189,-552,0,0,0,0,0,0,0,0,0,-1,1035,1576,0,0
-182,-552,0,0,0,0,0,0,0,0,0,-1,1042,1576,0,0
-175,-552,0,0,0,0,0,0,0,0,0,-1,1049,1576,0,0
-168,-552,0,0,0,0,0,0,0,0,0,-1,1056,1576,0,0
-161,-552,0,0,0,0,0,0,0,0,0,-1,1063,1576,0,0
-154,-552,0,0,0,0,0,0,0,0,0,-1,1070,1576,0,0
-147,-552,0,0,0,0,0,0,0,0,0,-1,1077,1576,0,0
-140,-552,0,0,0,0,0,0,0,0,0,-1,1084,1576,0,0
-133,-552,0,0,0,0,0,0,0,0,0,-1,1091,1576,0,0
-126,-552,0,0,0,0,0,0,0,0,0,-1,1098,1576,0,0
-119,-552,0,0,0,0,0,0,0,0,0,-1,1105,1576,0,0
-112,-552,0,0,0,0,0,0,0,0,0,-1,1112,1576,0,0
-105,-552,0,0,0,0,0,0,0,0,0,-1,1119,1576,0,0
-98,-552,0,0,0,0,0,0,0,0,0,-1,1126,1576,0,0
-91,-552,0,0,0,0,0,0,0,0,0,-1,1133,1576,0,0
-84,-552,0,0,0,0,0,0,0,0,0,-1,1140,1576,0,0
-77,-552,0,0,0,0,0,0,0,0,0,-1,1147,1576,0,0
-70,-552,0,0,0,0,0,0,0,0,0,-1,1154,1576,0,0
-63,-552,0,0,0,0,0,0,0,0,0,-1,1161,1576,0,0
-56,-552,0,0,0,0,0,0,0,0,0,-1,1168,1576,0,0
-49,-552,0,0,0,0,0,0,0,0,0,-1,1175,1576,0,0
-42,-552,0,0,0,0,0,0,0,0,0,-1,1182,1576,0,0
-35,-552,0,0,0,0,0,0,0,0,0,-1,1189,1576,0,0
-28,-552,0,0,0,0,0,0,0,0,0,-1,1196,1576,0,0
-21,-552,0,0,0,0,0,0,0,0,0,-1,1203,1576,0,0
-14,-552,0,0,0,0,0,0,0,0,0,-1,1210,1576,0,0
-7,-552,0,0,0,0,0,0,0,0,0,-1,1217,1576,0,0
0,-552,0,0,0,0,0,0,0,0,0,-1,1224,1576,0,0
7,-552,0,0,0,0,0,0,0,0,0,-1,1231,1576,0,0
14,-552,0,0,0,0,0,0,0,0,0,-1,1238,1576,0,0
21,-552,0,0,0,0,0,0,0,0,0,-1,1245,1576,0,0
28,-552,0,0,0,0,0,0,0,0,0,-1,1252,1576,0,0
35,-552,0,0,0,0,0,0,0,0,0,-1,1259,1576,0,0
42,-552,0,0,0,0,0,0,0,0,0,-1,1266,1576,0,0
49,-552,0,0,0,0,0,0,0,0,0,-1,1273,1576,0,0
56,-552,0,0,0,0,0,0,0,0,0,-1,1280,1576,0,0
63,-552,0,0,0,0,0,0,0,0,0,-1,1287,1576,0,0
70,-552,0,0,0,0,0,0,0,0,0,-1,1294,1576,0,0
77,-552,0,0,0,0,0,0,0,0,0,-1,1301,1576,0,0
84,-552,0,0,0,0,0,0,0,0,0,-1,1308,1576,0,0
91,-552,0,0,0,0,0,0,0,0,0,-1,1315,1576,0,0
98,-552,0,0,0,0,0,0,0,0,0,-1,1322,1576,0,0
105,-552,0,0,0,0,0,0,0,0,0,-1,1329,1576,0,0
112,-552,0,0,0,0,0,0,0,0,0,-1,1336,1576,0,0
119,-552,0,0,0,0,0,0,0,0,0,-1,1343,1576,0,0
126,-552,0,0,0,0,0,0,0,0,0,-1,1350,1576,0,0
133,-552,0,0,0,0,0,0,0,0,0,-1,1357,1576,0,0
140,-552,0,0,0,0,0,0,0,0,0,-1,1364,1576,0,0
147,-552,0,0,0,0,0,0,0,0,0,-1,1371,1576,0,0
154,-552,0,0,0,0,0,0,0,0,0,-1,1378,1576,0,0
161,-552,0,0,0,0,0,0,0,0,0,-1,1385,1576,0,0
168,-552,0,0,0,0,0,0,0,0,0,-1,1392,1576,0,0
175,-552,0,0,0,0,0,0,0,0,0,-1,1399,1576,0,0
182,-552,0,0,0,0,0,0,0,0,0,-1,1406,1576,0,0
189,-552,0,0,0,0,0,0,0,0,0,-1,1413,1576,0,0
196,-552,0,0,0,0,0,0,0,0,0,-1,1420,1576,0,0
203,-552,0,0,0,0,0,0,0,0,0,-1,1427,1576,0,0
210,-552,0,0,0,0,0,0,0,0,0,-1,1434,1576,0,0
217,-552,0,0,0,0,0,0,0,0,0,-1,1441,1576,0,0
224,-552,0,0,0,0,0,0,0,0,0,-1,1448,1576,0,0
231,-552,0,0,0,0,0,0,0,0,0,-1,1455,1576,0,0
238,-552,0,0,0,0,0,0,0,0,0,-1,1462,1576,0,0
245,-552,0,0,0,0,0,0,0,0,0,-1,1469,1576,0,0
252,-552,0,0,0,0,0,0,0,0,0,-1,1476,1576,0,0
259,-552,0,0,0,0,0,0,0,0,0,-1,1483,1576,0,0
266,-552,0,0,0,0,0,0,0,0,0,-1,1490,1576,0,0
273,-552,0,0,0,0,0,0,0,0,0,-1,1497,1576,0,0
280,-552,0,0,0,0,0,0,0,0,0,-1,1504,1576,0,0
287,-552,0,0,0,0,0,0,0,0,0,-1,1511,1576,0,0
294,-552,0,0,0,0,0,0,0,0,0,-1,1518,1576,0,0
301,-552,0,0,0,0,0,0,0,0,0,-1,1525,1576,0,0
308,-552,0,0,0,0,0,0,0,0,0,-1,1532,1576,0,0
315,-552,0,0,0,0,0,0,0,0,0,-1,1539,1576,0,0
322,-552,0,0,0,0,0,0,0,0,0,-1,1546,1576,0,0
329,-552,0,0,0,0,0,0,0,0,0,-1,1553,1576,0,0
336,-552,0,0,0,0,0,0,0,0,0,-1,1560,1576,0,0
343,-552,0,0,0,0,0,0,0,0,0,-1,1567,1576,0,0
350,-552,4.97876,4.09888,0,0,0,0,0,0,0,-1,1574,1576,4.97875,-4.09883
357,-552,5.18469,4.10706,0,0,0,0,0,0,0,-1,1581,1576,5.1847,-4.10702
364,-552,5.80872,5.07031,0,0,0,0,0,0,0,-1,1588,1576,5.80874,-5.07037
371,-552,7.10657,5.64783,0,0,0,0,0,0,0,-1,1595,1576,7.10651,-5.64786
378,-552,6.44446,4.91492,0,0,0,0,0,0,0,-1,1602,1576,6.44448,-4.91496
385,-552,12.8276,3.16504,0,0,0,0,0,0,0,-1,1609,1576,12.8276,-3.16503
392,-552,12.1301,4.3363,0,0,0,0,0,0,0,-1,1616,1576,12.1302,-4.33631
399,-552,11.3486,5.6012,0,0,0,0,0,0,0,-1,1623,1576,11.3486,-5.60115
406,-552,10.7863,6.42542,0,0,0,0,0,0,0,-1,1630,1576,10.7863,-6.42536
413,-552,8.39307,10.365,0,0,0,0,0,0,0,-1,1637,1576,8.3931,-10.365
420,-552,10.2306,12.7225,0,0,0,0,0,0,0,-1,1644,1576,10.2305,-12.7226
427,-552,9.73267,14.783,0,0,0,0,0,0,0,-1,1651,1576,9.73269,-14.783
434,-552,12.0377,20.1364,0,0,0,0,0,0,0,-1,1658,1576,12.0377,-20.1364
441,-552,12.4963,21.5277,0,0,0,0,0,0,0,-1,1665,1576,12.4964,-21.5277
448,-552,12.9141,21.5482,0,0,0,0,0,0,0,-1,1672,1576,12.9141,-21.5482
455,-552,13.3318,21.5687,0,0,0,0,0,0,0,-1,1679,1576,13.3317,-21.5687
462,-552,12.745,20.5947,0,0,0,0,0,0,0,-1,1686,1576,12.745,-20.5947
469,-552,17.7067,29.6902,0,0,0,0,0,0,0,-1,1693,1576,17.7067,-29.6902
476,-552,22.5817,38.8522,0,0,0,0,0,0,0,-1,1700,1576,22.5817,-38.8521
483,-552,22.7394,37.8348,0,0,0,0,0,0,0,-1,1707,1576,22.7393,-37.8348
490,-552,22.7269,37.1362,0.00822779,0.00988314,-0.00679702,0.0159027,0.00220823,-0.845985,0.00994776,0.0158736,1714,1576,22.7269,-37.1362
497,-552,22.8212,36.442,0.00663599,0.0073458,-0.00507782,0.0120811,0.00190069,-0.820288,0.00750121,0.0236246,1721,1576,22.8212,-36.442
504,-552,22.7493,35.764,0.00506603,0.00519914,-0.00373749,0.00887067,0.0013945,-0.794301,0.00550811,0.0255321,1728,1576,22.7493,-35.764
511,-552,22.6937,35.0028,0.00365867,0.00376651,-0.00272952,0.00644264,0.000982536,-0.795274,0.00400793,0.0178159,1735,1576,22.6938,-35.0029
518,-552,22.6818,34.2811,0.00238876,0.00244274,-0.00184696,0.0042629,0.000568599,-0.792704,0.00267264,0.0152583,1742,1576,22.6818,-34.2811
525,-552,22.606,33.5903,0.0013569,0.0016465,-0.00127063,0.00278056,0.000222848,-0.842133,0.00178407,0.0156461,1749,1576,22.6059,-33.5904
532,-552,22.5525,32.88,0.000579663,0.000936473,-0.000820554,0.00159779,-8.1657e-05,-0.892442,0.00109343,0.0157321,1756,1576,22.5525,-32.88
539,-552,22.5045,32.1738,9.72995e-05,0.00048427,-0.000518623,0.000844325,-0.000262756,-0.963939,0.000667924,0.0191672,1763,1576,22.5045,-32.1739
546,-552,22.455,31.4215,-0.000100936,-6.13884e-06,-0.000242249,0.000193305,-0.00030038,-0.882008,0.000287255,0.0234155,1770,1576,22.455,-31.4215
553,-552,22.4651,30.6389,5.33833e-05,-0.000285782,-0.0001146,8.84744e-05,-0.000320873,-0.297141,0.000248709,0.0273868,1777,1576,22.4651,-30.639
560,-552,22.4774,29.7019,0,0,0,0,0,0,0,-1,1784,1576,22.4775,-29.7019
567,-552,20.6783,26.0908,0,0,0,0,0,0,0,-1,1791,1576,20.6784,-26.0908
574,-552,12.8835,14.8463,0,0,0,0,0,0,0,-1,1798,1576,12.8836,-14.8463
581,-552,9.74841,9.98645,0,0,0,0,0,0,0,-1,1805,1576,9.74847,-9.9864
588,-552,10.5619,9.34924,0,0,0,0,0,0,0,-1,1812,1576,10.5619,-9.34921
595,-552,5.36194,6.62744,0,0,0,0,0,0,0,-1,1819,1576,5.36193,-6.62742
602,-552,10.6863,4.31616,0,0,0,0,0,0,0,-1,1826,1576,10.6862,-4.31619
609,-552,12.146,3.18286,0,0,0,0,0,0,0,-1,1833,1576,12.1459,-3.18281
616,-552,13.8762,2.08167,0,0,0,0,0,0,0,-1,1840,1576,13.8763,-2.08167
623,-552,0,0,0,0,0,0,0,0,0,-1,1847,1576,0,0
630,-552,0,0,0,0,0,0,0,0,0,-1,1854,1576,0,0
637,-552,0,0,0,0,0,0,0,0,0,-1,1861,1576,0,0
644,-552,0,0,0,0,0,0,0,0,0,-1,1868,1576,0,0
651,-552,0,0,0,0,0,0,0,0,0,-1,1875,1576,0,0
658,-552,0,0,0,0,0,0,0,0,0,-1,1882,1576,0,0
665,-552,0,0,0,0,0,0,0,0,0,-1,1889,1576,0,0
672,-552,0,0,0,0,0,0,0,0,0,-1,1896,1576,0,0
679,-552,0,0,0,0,0,0,0,0,0,-1,1903,1576,0,0
686,-552,0,0,0,0,0,0,0,0,0,-1,1910,1576,0,0
693,-552,0,0,0,0,0,0,0,0,0,-1,1917,1576,0,0
700,-552,0,0,0,0,0,0,0,0,0,-1,1924,1576,0,0
707,-552,0,0,0,0,0,0,0,0,0,-1,1931,1576,0,0
714,-552,0,0,0,0,0,0,0,0,0,-1,1938,1576,0,0
721,-552,0,0,0,0,0,0,0,0,0,-1,1945,1576,0,0
728,-552,0,0,0,0,0,0,0,0,0,-1,1952,1576,0,0
735,-552,0,0,0,0,0,0,0,0,0,-1,1959,1576,0,0
742,-552,0,0,0,0,0,0,0,0,0,-1,1966,1576,0,0
749,-552,0,0,0,0,0,0,0,0,0,-1,1973,1576,0,0
756,-552,0,0,0,0,0,0,0,0,0,-1,1980,1576,0,0
763,-552,0,0,0,0,0,0,0,0,0,-1,1987,1576,0,0
770,-552,0,0,0,0,0,0,0,0,0,-1,1994,1576,0,0
777,-552,0,0,0,0,0,0,0,0,0,-1,2001,1576,0,0
784,-552,0,0,0,0,0,0,0,0,0,-1,2008,1576,0,0
791,-552,0,0,0,0,0,0,0,0,0,-1,2015,1576,0,0
798,-552,0,0,0,0,0,0,0,0,0,-1,2022,1576,0,0
805,-552,0,0,0,0,0,0,0,0,0,-1,2029,1576,0,0
812,-552,0,0,0,0,0,0,0,0,0,-1,2036,1576,0,0
-700,-559,0,0,0,0,0,0,0,0,0,-1,524,1583,0,0
-693,-559,0,0,0,0,0,0,0,0,0,-1,531,1583,0,0
-686,-559,0,0,0,0,0,0,0,0,0,-1,538,1583,0,0
-679,-559,0,0,0,0,0,0,0,0,0,-1,545,1583,0,0
-672,-559,0,0,0,0,0,0,0,0,0,-1,552,1583,0,0
-665,-559,0,0,0,0,0,0,0,0,0,-1,559,1583,0,0
-658,-559,0,0,0,0,0,0,0,0,0,-1,566,1583,0,0
-651,-559,0,0,0,0,0,0,0,0,0,-1,573,1583,0,0
-644,-559,0,0,0,0,0,0,0,0,0,-1,580,1583,0,0
-637,-559,0,0,0,0,0,0,0,0,0,-1,587,1583,0,0
-630,-559,0,0,0,0,0,0,0,0,0,-1,594,1583,0,0
-623,-559,0,0,0,0,0,0,0,0,0,-1,601,1583,0,0
-616,-559,0,0,0,0,0,0,0,0,0,-1,608,1583,0,0
-609,-559,0,0,0,0,0,0,0,0,0,-1,615,1583,0,0
-602,-559,0,0,0,0,0,0,0,0,0,-1,622,1583,0,0
-595,-559,0,0,0,0,0,0,0,0,0,-1,629,1583,0,0
-588,-559,0,0,0,0,0,0,0,0,0,-1,636,1583,0,0
-581,-559,0,0,0,0,0,0,0,0,0,-1,643,1583,0,0
-574,-559,0,0,0,0,0,0,0,0,0,-1,650,1583,0,0
-567,-559,0,0,0,0,0,0,0,0,0,-1,657,1583,0,0
-560,-559,0,0,0,0,0,0,0,0,0,-1,664,1583,0,0
-553,-559,0,0,0,0,0,0,0,0,0,-1,671,1583,0,0
-546,-559,0,0,0,0,0,0,0,0,0,-1,678,1583,0,0
-539,-559,0,0,0,0,0,0,0,0,0,-1,685,1583,0,0
-532,-559,0,0,0,0,0,0,0,0,0,-1,692,1583,0,0
-525,-559,0,0,0,0,0,0,0,0,0,-1,699,1583,0,0
-518,-559,0,0,0,0,0,0,0,0,0,-1,706,1583,0,0
-511,-559,0,0,0,0,0,0,0,0,0,-1,713,1583,0,0
-504,-559,0,0,0,0,0,0,0,0,0,-1,720,1583,0,0
-497,-559,0,0,0,0,0,0,0,0,0,-1,727,1583,0,0
-490,-559,-5.49835,4.47424,0,0,0,0,0,0,0,-1,734,1583,-5.49833,-4.4743
-483,-559,-5.24078,4.74561,0,0,0,0,0,0,0,-1,741,1583,-5.24079,-4.74563
-476,-559,-4.98022,4.99316,0,0,0,0,0,0,0,-1,748,1583,-4.98024,-4.99321
-469,-559,-4.6424,5.38062,0,0,0,0,0,0,0,-1,755,1583,-4.64237,-5.38058
-462,-559,-0.161865,6.49438,0,0,0,0,0,0,0,-1,762,1583,-0.161835,-6.49444
-455,-559,1.08826,7.02527,0,0,0,0,0,0,0,-1,769,1583,1.08823,-7.02529
-448,-559,-2.86023,20.0852,0,0,0,0,0,0,0,-1,776,1583,-2.86025,-20.0852
-441,-559,-2.88367,27.1577,0,0,0,0,0,0,0,-1,783,1583,-2.88368,-27.1577
-434,-559,-2.73517,29.3264,0,0,0,0,0,0,0,-1,790,1583,-2.73516,-29.3264
-427,-559,-3.43658,29.6229,0,0,0,0,0,0,0,-1,797,1583,-3.43657,-29.6229
-420,-559,-3.4198,30.563,0,0,0,0,0,0,0,-1,804,1583,-3.41978,-30.563
-413,-559,-3.50494,31.4349,-0.00340865,-0.00143897,-0.00129056,-0.000800406,-0.00404722,-1.11132,0.00247487,0.0195234,811,1583,-3.50495,-31.4349
-406,-559,-3.55176,32.214,-0.00200126,-0.000821299,-0.000482659,-0.000649023,-0.00217354,-1.22796,0.00128838,0.0109691,818,1583,-3.55179,-32.214
-399,-559,-3.5741,32.9668,-0.000966851,-0.000440868,4.61648e-05,-0.000436847,-0.000970872,1.48391,0.000561468,0.014627,825,1583,-3.5741,-32.9668
-392,-559,-3.65381,33.6919,-0.000172934,-2.37865e-05,0.00041711,0.000325364,-0.000522085,0.873857,0.000493649,0.0178744,832,1583,-3.65379,-33.6918
-385,-559,-3.67041,34.4323,0.000577589,0.000520505,0.000653912,0.00120358,-0.000105488,0.763588,0.000839762,0.0179561,839,1583,-3.67041,-34.4323
-378,-559,-3.69104,35.1982,0.00122412,0.000998285,0.000811762,0.00193078,0.000291625,0.716291,0.00120183,0.0159832,846,1583,-3.69105,-35.1982
-371,-559,-3.74988,35.9645,0.00182176,0.00145216,0.000892246,0.00254814,0.000725778,0.683281,0.0015159,0.0229688,853,1583,-3.74988,-35.9645
-364,-559,-3.75842,36.6469,0.00260516,0.00225415,0.00113715,0.00358027,0.00127904,0.708833,0.00209496,0.0206444,860,1583,-3.75843,-36.6469
-357,-559,-3.79303,37.348,0.00350246,0.0031841,0.00146109,0.00481301,0.00187355,0.731139,0.00280142,0.0120619,867,1583,-3.79306,-37.348
-350,-559,-3.81976,38.0687,0.00454149,0.00421808,0.00191573,0.00630233,0.00245725,0.743294,0.00366794,0.00963178,874,1583,-3.81974,-38.0687
-343,-559,-3.84198,38.8011,0.00558229,0.00508702,0.00240331,0.00775069,0.00291862,0.734059,0.00452009,0.0107554,881,1583,-3.84199,-38.8011
-336,-559,-3.88879,39.5272,0,0,0,0,0,0,0,-1,888,1583,-3.88882,-39.5272
-329,-559,-3.82288,40.4282,0,0,0,0,0,0,0,-1,895,1583,-3.82286,-40.4282
-322,-559,-3.64227,41.668,0,0,0,0,0,0,0,-1,902,1583,-3.64227,-41.6679
-315,-559,-0.659607,29.1698,0,0,0,0,0,0,0,-1,909,1583,-0.659577,-29.1698
-308,-559,-0.755493,30.4624,0,0,0,0,0,0,0,-1,916,1583,-0.755509,-30.4625
-301,-559,-1.22174,31.0372,0,0,0,0,0,0,0,-1,923,1583,-1.22176,-31.0372
-294,-559,0.945129,18.5165,0,0,0,0,0,0,0,-1,930,1583,0.945117,-18.5165
-287,-559,-0.11792,15.4912,0,0,0,0,0,0,0,-1,937,1583,-0.117939,-15.4912
-280,-559,0.191467,13.5093,0,0,0,0,0,0,0,-1,944,1583,0.191441,-13.5093
-273,-559,2.12836,10.3059,0,0,0,0,0,0,0,-1,951,1583,2.12839,-10.3059
-266,-559,-0.597046,6.68933,0,0,0,0,0,0,0,-1,958,1583,-0.597031,-6.68937
-259,-559,-7.00311,8.62756,0,0,0,0,0,0,0,-1,965,1583,-7.00312,-8.6275
-252,-559,-9.4483,2.87805,0,0,0,0,0,0,0,-1,972,1583,-9.44829,-2.87805
-245,-559,-4.80804,7.1803,0,0,0,0,0,0,0,-1,979,1583,-4.80804,-7.18027
-238,-559,-8.45764,2.54858,0,0,0,0,0,0,0,-1,986,1583,-8.45763,-2.54862
-231,-559,-5.86914,4.34021,0,0,0,0,0,0,0,-1,993,1583,-5.86914,-4.34019
-224,-559,-3.30505,6.22864,0,0,0,0,0,0,0,-1,1000,1583,-3.30505,-6.22859
-217,-559,0,0,0,0,0,0,0,0,0,-1,1007,1583,0,0
-210,-559,0,0,0,0,0,0,0,0,0,-1,1014,1583,0,0
-203,-559,0,0,0,0,0,0,0,0,0,-1,1021,1583,0,0
-196,-559,0,0,0,0,0,0,0,0,0,-1,1028,1583,0,0
-189,-559,0,0,0,0,0,0,0,0,0,-1,1035,1583,0,0
-182,-559,0,0,0,0,0,0,0,0,0,-1,1042,1583,0,0
-175,-559,0,0,0,0,0,0,0,0,0,-1,1049,1583,0,0
-168,-559,0,0,0,0,0,0,0,0,0,-1,1056,1583,0,0
-161,-559,0,0,0,0,0,0,0,0,0,-1,1063,1583,0,0
-154,-559,0,0,0,0,0,0,0,0,0,-1,1070,1583,0,0
-147,-559,0,0,0,0,0,0,0,0,0,-1,1077,1583,0,0
-140,-559,0,0,0,0,0,0,0,0,0,-1,1084,1583,0,0
-133,-559,0,0,0,0,0,0,0,0,0,-1,1091,1583,0,0
-126,-559,0,0,0,0,0,0,0,0,0,-1,1098,1583,0,0
-119,-559,0,0,0,0,0,0,0,0,0,-1,1105,1583,0,0
-112,-559,0,0,0,0,0,0,0,0,0,-1,1112,1583,0,0
-105,-559,0,0,0,0,0,0,0,0,0,-1,1119,1583,0,0
-98,-559,0,0,0,0,0,0,0,0,0,-1,1126,1583,0,0
-91,-559,0,0,0,0,0,0,0,0,0,-1,1133,1583,0,0
-84,-559,0,0,0,0,0,0,0,0,0,-1,1140,1583,0,0
-77,-559,0,0,0,0,0,0,0,0,0,-1,1147,1583,0,0
-70,-559,0,0,0,0,0,0,0,0,0,-1,1154,1583,0,0
-63,-559,0,0,0,0,0,0,0,0,0,-1,1161,1583,0,0
-56,-559,0,0,0,0,0,0,0,0,0,-1,1168,1583,0,0
-49,-559,0,0,0,0,0,0,0,0,0,-1,1175,1583,0,0
-42,-559,0,0,0,0,0,0,0,0,0,-1,1182,1583,0,0
-35,-559,0,0,0,0,0,0,0,0,0,-1,1189,1583,0,0
-28,-559,0,0,0,0,0,0,0,0,0,-1,1196,1583,0,0
-21,-559,0,0,0,0,0,0,0,0,0,-1,1203,1583,0,0
-14,-559,0,0,0,0,0,0,0,0,0,-1,1210,1583,0,0
-7,-559,0,0,0,0,0,0,0,0,0,-1,1217,1583,0,0
0,-559,0,0,0,0,0,0,0,0,0,-1,1224,1583,0,0
7,-559,0,0,0,0,0,0,0,0,0,-1,1231,1583,0,0
14,-559,0,0,0,0,0,0,0,0,0,-1,1238,1583,0,0
21,-559,0,0,0,0,0,0,0,0,0,-1,1245,1583,0,0
28,-559,0,0,0,0,0,0,0,0,0,-1,1252,1583,0,0
35,-559,0,0,0,0,0,0,0,0,0,-1,1259,1583,0,0
42,-559,0,0,0,0,0,0,0,0,0,-1,1266,1583,0,0
49,-559,0,0,0,0,0,0,0,0,0,-1,1273,1583,0,0
56,-559,0,0,0,0,0,0,0,0,0,-1,1280,1583,0,0
63,-559,0,0,0,0,0,0,0,0,0,-1,1287,1583,0,0
70,-559,0,0,0,0,0,0,0,0,0,-1,1294,1583,0,0
77,-559,0,0,0,0,0,0,0,0,0,-1,1301,1583,0,0
84,-559,0,0,0,0,0,0,0,0,0,-1,1308,1583,0,0
91,-559,0,0,0,0,0,0,0,0,0,-1,1315,1583,0,0
98,-559,0,0,0,0,0,0,0,0,0,-1,1322,1583,0,0
105,-559,0,0,0,0,0,0,0,0,0,-1,1329,1583,0,0
112,-559,0,0,0,0,0,0,0,0,0,-1,1336,1583,0,0
119,-559,0,0,0,0,0,0,0,0,0,-1,1343,1583,0,0
126,-559,0,0,0,0,0,0,0,0,0,-1,1350,1583,0,0
133,-559,0,0,0,0,0,0,0,0,0,-1,1357,1583,0,0
140,-559,0,0,0,0,0,0,0,0,0,-1,1364,1583,0,0
147,-559,0,0,0,0,0,0,0,0,0,-1,1371,1583,0,0
154,-559,0,0,0,0,0,0,0,0,0,-1,1378,1583,0,0
161,-559,0,0,0,0,0,0,0,0,0,-1,1385,1583,0,0
168,-559,0,0,0,0,0,0,0,0,0,-1,1392,1583,0,0
175,-559,0,0,0,0,0,0,0,0,0,-1,1399,1583,0,0
182,-559,0,0,0,0,0,0,0,0,0,-1,1406,1583,0,0
189,-559,0,0,0,0,0,0,0,0,0,-1,1413,1583,0,0
196,-559,0,0,0,0,0,0,0,0,0,-1,1420,1583,0,0
203,-559,0,0,0,0,0,0,0,0,0,-1,1427,1583,0,0
210,-559,0,0,0,0,0,0,0,0,0,-1,1434,1583,0,0
217,-559,0,0,0,0,0,0,0,0,0,-1,1441,1583,0,0
224,-559,0,0,0,0,0,0,0,0,0,-1,1448,1583,0,0
231,-559,0,0,0,0,0,0,0,0,0,-1,1455,1583,0,0
238,-559,0,0,0,0,0,0,0,0,0,-1,1462,1583,0,0
245,-559,0,0,0,0,0,0,0,0,0,-1,1469,1583,0,0
252,-559,0,0,0,0,0,0,0,0,0,-1,1476,1583,0,0
259,-559,0,0,0,0,0,0,0,0,0,-1,1483,1583,0,0
266,-559,0,0,0,0,0,0,0,0,0,-1,1490,1583,0,0
273,-559,0,0,0,0,0,0,0,0,0,-1,1497,1583,0,0
280,-559,0,0,0,0,0,0,0,0,0,-1,1504,1583,0,0
287,-559,0,0,0,0,0,0,0,0,0,-1,1511,1583,0,0
294,-559,0,0,0,0,0,0,0,0,0,-1,1518,1583,0,0
301,-559,0,0,0,0,0,0,0,0,0,-1,1525,1583,0,0
308,-559,0,0,0,0,0,0,0,0,0,-1,1532,1583,0,0
315,-559,0,0,0,0,0,0,0,0,0,-1,1539,1583,0,0
322,-559,0,0,0,0,0,0,0,0,0,-1,1546,1583,0,0
329,-559,0,0,0,0,0,0,0,0,0,-1,1553,1583,0,0
336,-559,5.97668,3.09827,0,0,0,0,0,0,0,-1,1560,1583,5.97667,-3.09824
343,-559,5.44824,2.88696,0,0,0,0,0,0,0,-1,1567,1583,5.44819,-2.88693
350,-559,4.69775,3.27051,0,0,0,0,0,0,0,-1,1574,1583,4.69771,-3.27048
357,-559,3.88025,3.60999,0,0,0,0,0,0,0,-1,1581,1583,3.88027,-3.60998
364,-559,5.00928,5.32605,0,0,0,0,0,0,0,-1,1588,1583,5.00928,-5.32607
371,-559,1.84436,2.52441,0,0,0,0,0,0,0,-1,1595,1583,1.84441,-2.52447
378,-559,6.34753,1.53137,0,0,0,0,0,0,0,-1,1602,1583,6.34752,-1.53139
385,-559,6.95911,1.48181,0,0,0,0,0,0,0,-1,1609,1583,6.95916,-1.48175
392,-559,11.6949,4.77734,0,0,0,0,0,0,0,-1,1616,1583,11.6949,-4.77731
399,-559,11.1104,5.56909,0,0,0,0,0,0,0,-1,1623,1583,11.1103,-5.56905
406,-559,10.3385,6.48657,0,0,0,0,0,0,0,-1,1630,1583,10.3385,-6.48661
413,-559,9.76147,6.97571,0,0,0,0,0,0,0,-1,1637,1583,9.76143,-6.97574
420,-559,7.77124,10.5851,0,0,0,0,0,0,0,-1,1644,1583,7.77128,-10.585
427,-559,10.1022,12.5565,0,0,0,0,0,0,0,-1,1651,1583,10.1021,-12.5565
434,-559,9.62769,14.6309,0,0,0,0,0,0,0,-1,1658,1583,9.62771,-14.6309
441,-559,12.6149,21.3678,0,0,0,0,0,0,0,-1,1665,1583,12.6149,-21.3678
448,-559,13.7046,22.6677,0,0,0,0,0,0,0,-1,1672,1583,13.7046,-22.6677
455,-559,13.9427,23.0509,0,0,0,0,0,0,0,-1,1679,1583,13.9427,-23.0509
462,-559,21.762,40.7614,0,0,0,0,0,0,0,-1,1686,1583,21.7619,-40.7613
469,-559,21.6454,39.7135,0,0,0,0,0,0,0,-1,1693,1583,21.6454,-39.7135
476,-559,22.0157,38.6851,0.00841655,0.0143081,-0.00880198,0.0206442,0.00208048,-0.946876,0.0131244,0.0276968,1700,1583,22.0158,-38.6851
483,-559,22.0884,37.85,0.00731277,0.0109497,-0.00690269,0.0162695,0.00199305,-0.914195,0.0102468,0.0137808,1707,1583,22.0883,-37.8499
490,-559,22.0468,37.1459,0.00626061,0.0078663,-0.00525277,0.0123772,0.00174969,-0.861232,0.00773451,0.0154387,1714,1583,22.0467,-37.1459
497,-559,22.0444,36.4717,0.00494428,0.00574017,-0.00385751,0.00922021,0.00146424,-0.836797,0.00572153,0.018433,1721,1583,22.0444,-36.4716
504,-559,21.9852,35.7773,0.0036107,0.00386759,-0.00276118,0.00650332,0.000974979,-0.80864,0.00404986,0.0241681,1728,1583,21.9853,-35.7773
511,-559,21.9686,35.0397,0.00237702,0.00264578,-0.00193263,0.0044487,0.000574097,-0.820108,0.00279416,0.0212546,1735,1583,21.9687,-35.0397
518,-559,21.9884,34.3153,0.00126148,0.00153522,-0.00122408,0.00263006,0.000166646,-0.841074,0.00170055,0.0138643,1742,1583,21.9884,-34.3153
525,-559,21.9169,33.6208,0.000363436,0.000873448,-0.000772967,0.00143239,-0.000195503,-0.944729,0.00102632,0.0134629,1749,1583,21.9168,-33.6208
532,-559,21.856,32.9368,-0.000280085,0.000290778,-0.000430802,0.000522126,-0.000511434,-1.07797,0.000596737,0.0149974,1756,1583,21.856,-32.9368
539,-559,21.8187,32.2266,-0.00066922,-7.67875e-05,-0.000216303,-6.21896e-06,-0.000739789,-1.25544,0.000491133,0.0196602,1763,1583,21.8188,-32.2266
546,-559,21.7422,31.4729,-0.000759169,-0.000459411,-1.05527e-05,-0.00045904,-0.00075954,-1.53565,0.000441694,0.0178353,1770,1583,21.7422,-31.473
553,-559,21.8092,30.6793,-0.00046326,-0.000637417,3.4501e-05,-0.000456674,-0.000644003,0.188616,0.000382501,0.0245198,1777,1583,21.8092,-30.6794
560,-559,21.7656,29.9052,0,0,0,0,0,0,0,-1,1784,1583,21.7656,-29.9052
567,-559,21.5958,28.842,0,0,0,0,0,0,0,-1,1791,1583,21.5958,-28.842
574,-559,10.5109,10.7317,0,0,0,0,0,0,0,-1,1798,1583,10.5108,-10.7317
581,-559,5.97095,5.96179,0,0,0,0,0,0,0,-1,1805,1583,5.97093,-5.96181
588,-559,5.79102,5.89954,0,0,0,0,0,0,0,-1,1812,1583,5.79098,-5.89949
595,-559,5.79089,6.24231,0,0,0,0,0,0,0,-1,1819,1583,5.7909,-6.24227
602,-559,12.478,2.35669,0,0,0,0,0,0,0,-1,1826,1583,12.4781,-2.35675
609,-559,14.0479,1.22681,0,0,0,0,0,0,0,-1,1833,1583,14.0479,-1.22681
616,-559,0,0,0,0,0,0,0,0,0,-1,1840,1583,0,0
623,-559,0,0,0,0,0,0,0,0,0,-1,1847,1583,0,0
630,-559,0,0,0,0,0,0,0,0,0,-1,1854,1583,0,0
637,-559,0,0,0,0,0,0,0,0,0,-1,1861,1583,0,0
644,-559,0,0,0,0,0,0,0,0,0,-1,1868,1583,0,0
651,-559,0,0,0,0,0,0,0,0,0,-1,1875,1583,0,0
658,-559,0,0,0,0,0,0,0,0,0,-1,1882,1583,0,0
665,-559,0,0,0,0,0,0,0,0,0,-1,1889,1583,0,0
672,-559,0,0,0,0,0,0,0,0,0,-1,1896,1583,0,0
679,-559,0,0,0,0,0,0,0,0,0,-1,1903,1583,0,0
686,-559,0,0,0,0,0,0,0,0,0,-1,1910,1583,0,0
693,-559,0,0,0,0,0,0,0,0,0,-1,1917,1583,0,0
700,-559,0,0,0,0,0,0,0,0,0,-1,1924,1583,0,0
707,-559,0,0,0,0,0,0,0,0,0,-1,1931,1583,0,0
714,-559,0,0,0,0,0,0,0,0,0,-1,1938,1583,0,0
721,-559,0,0,0,0,0,0,0,0,0,-1,1945,1583,0,0
728,-559,0,0,0,0,0,0,0,0,0,-1,1952,1583,0,0
735,-559,0,0,0,0,0,0,0,0,0,-1,1959,1583,0,0
742,-559,0,0,0,0,0,0,0,0,0,-1,1966,1583,0,0
749,-559,0,0,0,0,0,0,0,0,0,-1,1973,1583,0,0
756,-559,0,0,0,0,0,0,0,0,0,-1,1980,1583,0,0
763,-559,0,0,0,0,0,0,0,0,0,-1,1987,1583,0,0
770,-559,0,0,0,0,0,0,0,0,0,-1,1994,1583,0,0
777,-559,0,0,0,0,0,0,0,0,0,-1,2001,1583,0,0
784,-559,0,0,0,0,0,0,0,0,0,-1,2008,1583,0,0
791,-559,0,0,0,0,0,0,0,0,0,-1,2015,1583,0,0
798,-559,0,0,0,0,0,0,0,0,0,-1,2022,1583,0,0
805,-559,0,0,0,0,0,0,0,0,0,-1,2029,1583,0,0
812,-559,0,0,0,0,0,0,0,0,0,-1,2036,1583,0,0
-700,-566,0,0,0,0,0,0,0,0,0,-1,524,1590,0,0
-693,-566,0,0,0,0,0,0,0,0,0,-1,531,1590,0,0
-686,-566,0,0,0,0,0,0,0,0,0,-1,538,1590,0,0
-679,-566,0,0,0,0,0,0,0,0,0,-1,545,1590,0,0
-672,-566,0,0,0,0,0,0,0,0,0,-1,552,1590,0,0
-665,-566,0,0,0,0,0,0,0,0,0,-1,559,1590,0,0
-658,-566,0,0,0,0,0,0,0,0,0,-1,566,1590,0,0
-651,-566,0,0,0,0,0,0,0,0,0,-1,573,1590,0,0
-644,-566,0,0,0,0,0,0,0,0,0,-1,580,1590,0,0
-637,-566,0,0,0,0,0,0,0,0,0,-1,587,1590,0,0
-630,-566,0,0,0,0,0,0,0,0,0,-1,594,1590,0,0
-623,-566,0,0,0,0,0,0,0,0,0,-1,601,1590,0,0
-616,-566,0,0,0,0,0,0,0,0,0,-1,608,1590,0,0
-609,-566,0,0,0,0,0,0,0,0,0,-1,615,1590,0,0
-602,-566,0,0,0,0,0,0,0,0,0,-1,622,1590,0,0
-595,-566,0,0,0,0,0,0,0,0,0,-1,629,1590,0,0
-588,-566,0,0,0,0,0,0,0,0,0,-1,636,1590,0,0
-581,-566,0,0,0,0,0,0,0,0,0,-1,643,1590,0,0
-574,-566,0,0,0,0,0,0,0,0,0,-1,650,1590,0,0
-567,-566,0,0,0,0,0,0,0,0,0,-1,657,1590,0,0
-560,-566,0,0,0,0,0,0,0,0,0,-1,664,1590,0,0
-553,-566,0,0,0,0,0,0,0,0,0,-1,671,1590,0,0
-546,-566,0,0,0,0,0,0,0,0,0,-1,678,1590,0,0
-539,-566,0,0,0,0,0,0,0,0,0,-1,685,1590,0,0
-532,-566,0,0,0,0,0,0,0,0,0,-1,692,1590,0,0
-525,-566,0,0,0,0,0,0,0,0,0,-1,699,1590,0,0
-518,-566,0,0,0,0,0,0,0,0,0,-1,706,1590,0,0
-511,-566,0,0,0,0,0,0,0,0,0,-1,713,1590,0,0
-504,-566,0,0,0,0,0,0,0,0,0,-1,720,1590,0,0
-497,-566,0,0,0,0,0,0,0,0,0,-1,727,1590,0,0
-490,-566,0,0,0,0,0,0,0,0,0,-1,734,1590,0,0
-483,-566,-7.17084,2.78613,0,0,0,0,0,0,0,-1,741,1590,-7.17083,-2.78618
-476,-566,-7.13971,2.87183,0,0,0,0,0,0,0,-1,748,1590,-7.13971,-2.87184
-469,-566,-6.43829,3.2998,0,0,0,0,0,0,0,-1,755,1590,-6.43829,-3.2998
-462,-566,-0.459106,3.89343,0,0,0,0,0,0,0,-1,762,1590,-0.459095,-3.89341
-455,-566,0.280212,4.74023,0,0,0,0,0,0,0,-1,769,1590,0.280207,-4.74023
-448,-566,0.436951,5.51306,0,0,0,0,0,0,0,-1,776,1590,0.436971,-5.51301
-441,-566,-0.440735,12.4063,0,0,0,0,0,0,0,-1,783,1590,-0.440753,-12.4062
-434,-566,-1.62482,27.9781,0,0,0,0,0,0,0,-1,790,1590,-1.62481,-27.9781
-427,-566,-2.52722,30.1547,0,0,0,0,0,0,0,-1,797,1590,-2.52725,-30.1547
-420,-566,-2.90283,30.5907,0,0,0,0,0,0,0,-1,804,1590,-2.90285,-30.5907
-413,-566,-2.7854,31.4683,-0.00404357,-0.00158152,-0.00124935,-0.00105861,-0.00456648,-1.1744,0.00275997,0.0360001,811,1590,-2.7854,-31.4683
-406,-566,-2.81116,32.2361,-0.0025154,-0.00110679,-0.000375865,-0.00101277,-0.00260941,-1.32569,0.00151907,0.0154077,818,1590,-2.81118,-32.2361
-399,-566,-2.84174,32.9851,-0.0014364,-0.000872043,0.000153157,-0.000833158,-0.00147528,1.32216,0.000854133,0.0116524,825,1590,-2.84172,-32.9851
-392,-566,-2.89221,33.7134,-0.000611814,-0.000533443,0.000524253,-4.69126e-05,-0.00109834,0.822702,0.000717103,0.0150074,832,1590,-2.89223,-33.7134
-385,-566,-2.91565,34.4879,0.000144656,-3.36139e-05,0.000768112,0.000828788,-0.000717746,0.727634,0.000893659,0.0178955,839,1590,-2.91563,-34.4879
-378,-566,-2.97491,35.2455,0.000769926,0.000425568,0.00093252,0.00154603,-0.000350536,0.694107,0.00116524,0.0168315,846,1590,-2.97492,-35.2455
-371,-566,-3.01886,35.9824,0.00127946,0.000779327,0.0009301,0.00199252,6.62621e-05,0.654074,0.00130682,0.0231506,853,1590,-3.01887,-35.9825
-364,-566,-3.03534,36.6906,0.00194806,0.00145542,0.0010857,0.00281503,0.000588453,0.673848,0.00171453,0.023228,860,1590,-3.03533,-36.6905
-357,-566,-3.07385,37.3822,0.00273221,0.00226008,0.00130969,0.00382694,0.00116535,0.696232,0.00226507,0.0177677,867,1590,-3.07384,-37.3823
-350,-566,-3.11188,38.0969,0.00364029,0.00311244,0.00163371,0.00503126,0.00172147,0.705315,0.00295265,0.0201857,874,1590,-3.1119,-38.0969
-343,-566,-3.1228,38.8059,0.00453565,0.00388189,0.0020029,0.00623817,0.00217937,0.704509,0.00365569,0.0252014,881,1590,-3.12283,-38.8059
-336,-566,-3.2616,39.5143,0.00571659,0.00505733,0.00271003,0.00811696,0.00265696,0.724879,0.00477857,0.0294596,888,1590,-3.26158,-39.5143
-329,-566,-3.16815,40.1655,0.00731799,0.0070337,0.00394403,0.0111224,0.00322926,0.767386,0.00660705,0.0296374,895,1590,-3.16816,-40.1656
-322,-566,-3.0957,41.0524,0.00926927,0.0106803,0.00598122,0.0159975,0.00395209,0.844104,0.00962207,0.0398884,902,1590,-3.0957,-41.0524
-315,-566,-3.01599,42.131,0,0,0,0,0,0,0,-1,909,1590,-3.01598,-42.131
-308,-566,-0.127258,29.7607,0,0,0,0,0,0,0,-1,916,1590,-0.12725,-29.7608
-301,-566,0.424011,30.6545,0,0,0,0,0,0,0,-1,923,1590,0.424036,-30.6546
-294,-566,-2.54523,43.1459,0,0,0,0,0,0,0,-1,930,1590,-2.54522,-43.1458
-287,-566,1.25391,23.4589,0,0,0,0,0,0,0,-1,937,1590,1.2539,-23.4589
-280,-566,1.59406,17.8762,0,0,0,0,0,0,0,-1,944,1590,1.59405,-17.8762
-273,-566,0.49762,11.2427,0,0,0,0,0,0,0,-1,951,1590,0.497591,-11.2426
-266,-566,0.392151,6.90295,0,0,0,0,0,0,0,-1,958,1590,0.392151,-6.90294
-259,-566,0.343628,6.47437,0,0,0,0,0,0,0,-1,965,1590,0.34363,-6.47438
-252,-566,-7.68311,1.01343,0,0,0,0,0,0,0,-1,972,1590,-7.68308,-1.01348
-245,-566,-11.1835,1.97522,0,0,0,0,0,0,0,-1,979,1590,-11.1835,-1.97527
-238,-566,-10.4883,2.40491,0,0,0,0,0,0,0,-1,986,1590,-10.4883,-2.40487
-231,-566,-7.41827,4.22803,0,0,0,0,0,0,0,-1,993,1590,-7.41827,-4.22803
-224,-566,-4.67188,6.30859,0,0,0,0,0,0,0,-1,1000,1590,-4.67185,-6.30853
-217,-566,-2.82867,7.52527,0,0,0,0,0,0,0,-1,1007,1590,-2.82869,-7.52531
-210,-566,-1.03436,8.67737,0,0,0,0,0,0,0,-1,1014,1590,-1.03439,-8.67733
-203,-566,0,0,0,0,0,0,0,0,0,-1,1021,1590,0,0
-196,-566,0,0,0,0,0,0,0,0,0,-1,1028,1590,0,0
-189,-566,0,0,0,0,0,0,0,0,0,-1,1035,1590,0,0
-182,-566,0,0,0,0,0,0,0,0,0,-1,1042,1590,0,0
-175,-566,0,0,0,0,0,0,0,0,0,-1,1049,1590,0,0
-168,-566,0,0,0,0,0,0,0,0,0,-1,1056,1590,0,0
-161,-566,0,0,0,0,0,0,0,0,0,-1,1063,1590,0,0
-154,-566,0,0,0,0,0,0,0,0,0,-1,1070,1590,0,0
-147,-566,0,0,0,0,0,0,0,0,0,-1,1077,1590,0,0
-140,-566,0,0,0,0,0,0,0,0,0,-1,1084,1590,0,0
-133,-566,0,0,0,0,0,0,0,0,0,-1,1091,1590,0,0
-126,-566,0,0,0,0,0,0,0,0,0,-1,1098,1590,0,0
-119,-566,0,0,0,0,0,0,0,0,0,-1,1105,1590,0,0
-112,-566,0,0,0,0,0,0,0,0,0,-1,1112,1590,0,0
-105,-566,0,0,0,0,0,0,0,0,0,-1,1119,1590,0,0
-98,-566,0,0,0,0,0,0,0,0,0,-1,1126,1590,0,0
-91,-566,0,0,0,0,0,0,0,0,0,-1,1133,1590,0,0
-84,-566,0,0,0,0,0,0,0,0,0,-1,1140,1590,0,0
-77,-566,0,0,0,0,0,0,0,0,0,-1,1147,1590,0,0
-70,-566,0,0,0,0,0,0,0,0,0,-1,1154,1590,0,0
-63,-566,0,0,0,0,0,0,0,0,0,-1,1161,1590,0,0
-56,-566,0,0,0,0,0,0,0,0,0,-1,1168,1590,0,0
-49,-566,0,0,0,0,0,0,0,0,0,-1,1175,1590,0,0
-42,-566,0,0,0,0,0,0,0,0,0,-1,1182,1590,0,0
-35,-566,0,0,0,0,0,0,0,0,0,-1,1189,1590,0,0
-28,-566,0,0,0,0,0,0,0,0,0,-1,1196,1590,0,0
-21,-566,0,0,0,0,0,0,0,0,0,-1,1203,1590,0,0
-14,-566,0,0,0,0,0,0,0,0,0,-1,1210,1590,0,0
-7,-566,0,0,0,0,0,0,0,0,0,-1,1217,1590,0,0
0,-566,0,0,0,0,0,0,0,0,0,-1,1224,1590,0,0
7,-566,0,0,0,0,0,0,0,0,0,-1,1231,1590,0,0
14,-566,0,0,0,0,0,0,0,0,0,-1,1238,1590,0,0
21,-566,0,0,0,0,0,0,0,0,0,-1,1245,1590,0,0
28,-566,0,0,0,0,0,0,0,0,0,-1,1252,1590,0,0
35,-566,0,0,0,0,0,0,0,0,0,-1,1259,1590,0,0
42,-566,0,0,0,0,0,0,0,0,0,-1,1266,1590,0,0
49,-566,0,0,0,0,0,0,0,0,0,-1,1273,1590,0,0
56,-566,0,0,0,0,0,0,0,0,0,-1,1280,1590,0,0
63,-566,0,0,0,0,0,0,0,0,0,-1,1287,1590,0,0
70,-566,0,0,0,0,0,0,0,0,0,-1,1294,1590,0,0
77,-566,0,0,0,0,0,0,0,0,0,-1,1301,1590,0,0
84,-566,0,0,0,0,0,0,0,0,0,-1,1308,1590,0,0
91,-566,0,0,0,0,0,0,0,0,0,-1,1315,1590,0,0
98,-566,0,0,0,0,0,0,0,0,0,-1,1322,1590,0,0
105,-566,0,0,0,0,0,0,0,0,0,-1,1329,1590,0,0
112,-566,0,0,0,0,0,0,0,0,0,-1,1336,1590,0,0
119,-566,0,0,0,0,0,0,0,0,0,-1,1343,1590,0,0
126,-566,0,0,0,0,0,0,0,0,0,-1,1350,1590,0,0
133,-566,0,0,0,0,0,0,0,0,0,-1,1357,1590,0,0
140,-566,0,0,0,0,0,0,0,0,0,-1,1364,1590,0,0
147,-566,0,0,0,0,0,0,0,0,0,-1,1371,1590,0,0
154,-566,0,0,0,0,0,0,0,0,0,-1,1378,1590,0,0
161,-566,0,0,0,0,0,0,0,0,0,-1,1385,1590,0,0
168,-566,0,0,0,0,0,0,0,0,0,-1,1392,1590,0,0
175,-566,0,0,0,0,0,0,0,0,0,-1,1399,1590,0,0
182,-566,0,0,0,0,0,0,0,0,0,-1,1406,1590,0,0
189,-566,0,0,0,0,0,0,0,0,0,-1,1413,1590,0,0
196,-566,0,0,0,0,0,0,0,0,0,-1,1420,1590,0,0
203,-566,0,0,0,0,0,0,0,0,0,-1,1427,1590,0,0
210,-566,0,0,0,0,0,0,0,0,0,-1,1434,1590,0,0
217,-566,0,0,0,0,0,0,0,0,0,-1,1441,1590,0,0
224,-566,0,0,0,0,0,0,0,0,0,-1,1448,1590,0,0
231,-566,0,0,0,0,0,0,0,0,0,-1,1455,1590,0,0
238,-566,0,0,0,0,0,0,0,0,0,-1,1462,1590,0,0
245,-566,0,0,0,0,0,0,0,0,0,-1,1469,1590,0,0
252,-566,0,0,0,0,0,0,0,0,0,-1,1476,1590,0,0
259,-566,0,0,0,0,0,0,0,0,0,-1,1483,1590,0,0
266,-566,0,0,0,0,0,0,0,0,0,-1,1490,1590,0,0
273,-566,0,0,0,0,0,0,0,0,0,-1,1497,1590,0,0
280,-566,0,0,0,0,0,0,0,0,0,-1,1504,1590,0,0
287,-566,0,0,0,0,0,0,0,0,0,-1,1511,1590,0,0
294,-566,0,0,0,0,0,0,0,0,0,-1,1518,1590,0,0
301,-566,0,0,0,0,0,0,0,0,0,-1,1525,1590,0,0
308,-566,0,0,0,0,0,0,0,0,0,-1,1532,1590,0,0
315,-566,0,0,0,0,0,0,0,0,0,-1,1539,1590,0,0
322,-566,6.07983,4.44873,0,0,0,0,0,0,0,-1,1546,1590,6.07983,-4.44873
329,-566,5.77026,3.47534,0,0,0,0,0,0,0,-1,1553,1590,5.77026,-3.47535
336,-566,5.41138,2.62915,0,0,0,0,0,0,0,-1,1560,1590,5.41138,-2.62909
343,-566,4.81873,1.79089,0,0,0,0,0,0,0,-1,1567,1590,4.81878,-1.79095
350,-566,4.41663,2.44214,0,0,0,0,0,0,0,-1,1574,1590,4.41666,-2.44214
357,-566,6.34058,5.18579,0,0,0,0,0,0,0,-1,1581,1590,6.34059,-5.1858
364,-566,6.06262,4.20251,0,0,0,0,0,0,0,-1,1588,1590,6.06259,-4.20246
371,-566,5.78455,3.21912,0,0,0,0,0,0,0,-1,1595,1590,5.7846,-3.21912
378,-566,5.7439,0.695557,0,0,0,0,0,0,0,-1,1602,1590,5.74392,-0.695531
385,-566,5.67615,-0.573975,0,0,0,0,0,0,0,-1,1609,1590,5.67612,0.573956
392,-566,5.78638,1.82434,0,0,0,0,0,0,0,-1,1616,1590,5.78637,-1.82439
399,-566,18.6853,38.6455,0,0,0,0,0,0,0,-1,1623,1590,18.6853,-38.6456
406,-566,4.30359,5.26868,0,0,0,0,0,0,0,-1,1630,1590,4.30364,-5.26867
413,-566,4.27124,5.79492,0,0,0,0,0,0,0,-1,1637,1590,4.27123,-5.7949
420,-566,18.0121,32.5314,0,0,0,0,0,0,0,-1,1644,1590,18.0121,-32.5313
427,-566,19.4491,36.9315,0,0,0,0,0,0,0,-1,1651,1590,19.4491,-36.9315
434,-566,19.338,36.7385,0,0,0,0,0,0,0,-1,1658,1590,19.338,-36.7386
441,-566,15.5841,27.5869,0,0,0,0,0,0,0,-1,1665,1590,15.5842,-27.587
448,-566,21.3801,42.329,0,0,0,0,0,0,0,-1,1672,1590,21.3801,-42.329
455,-566,21.1271,41.1884,0,0,0,0,0,0,0,-1,1679,1590,21.1271,-41.1883
462,-566,21.1917,40.3678,0.00765948,0.018637,-0.0103611,0.0248734,0.00142312,-1.02898,0.0161288,0.048801,1686,1590,21.1917,-40.3678
469,-566,21.2798,39.3337,0.00710998,0.0148098,-0.00849249,0.0202843,0.00163551,-0.998208,0.013012,0.0210514,1693,1590,21.2797,-39.3337
476,-566,21.3705,38.5852,0.00639615,0.0114402,-0.00684036,0.0162087,0.0016277,-0.962016,0.0103062,0.0106856,1700,1590,21.3705,-38.5852
483,-566,21.3751,37.8781,0.00547552,0.00863956,-0.00533231,0.0126196,0.00149549,-0.929605,0.00796152,0.0107793,1707,1590,21.3751,-37.8781
490,-566,21.3335,37.1716,0.00459686,0.00603029,-0.00400938,0.00938652,0.00124064,-0.873844,0.00588786,0.012795,1714,1590,21.3335,-37.1717
497,-566,21.3462,36.4916,0.00348566,0.00427293,-0.00289565,0.00680158,0.000957007,-0.852954,0.00425144,0.0156521,1721,1590,21.3461,-36.4916
504,-566,21.3093,35.8118,0.00233106,0.00266621,-0.00200487,0.00451049,0.000486768,-0.827093,0.00285859,0.0196596,1728,1590,21.3093,-35.8118
511,-566,21.2601,35.0936,0.00123515,0.00163852,-0.00132773,0.0027798,9.38749e-05,-0.860772,0.00182271,0.0201146,1735,1590,21.2601,-35.0936
518,-566,21.2419,34.399,0.000242362,0.000754442,-0.000776135,0.00131568,-0.000318875,-0.944723,0.0010005,0.0122286,1742,1590,21.242,-34.3991
525,-566,21.1852,33.6741,-0.000560629,0.000216314,-0.000422382,0.000401704,-0.000746018,-1.1572,0.000672504,0.0124478,1749,1590,21.1852,-33.674
532,-566,21.1324,32.9622,-0.00111335,-0.000241729,-0.000150106,-0.000216603,-0.00113847,-1.40494,0.000698075,0.0152193,1756,1590,21.1325,-32.9622
539,-566,21.1,32.2212,-0.00147157,-0.000560324,3.30927e-05,-0.000559124,-0.00147277,1.53454,0.000858476,0.0213098,1763,1590,21.0999,-32.2211
546,-566,21.1399,31.3912,-0.0015101,-0.000821702,0.000205076,-0.00076524,-0.00156656,1.30213,0.000904534,0.0261785,1770,1590,21.1399,-31.3913
553,-566,21.1188,30.8639,-0.00111192,-0.00085363,0.000190163,-0.000752904,-0.00121264,1.08369,0.000706908,0.0392898,1777,1590,21.1187,-30.8639
560,-566,20.9066,30.3127,0,0,0,0,0,0,0,-1,1784,1590,20.9066,-30.3127
567,-566,20.8777,29.599,0,0,0,0,0,0,0,-1,1791,1590,20.8777,-29.599
574,-566,7.99548,3.14514,0,0,0,0,0,0,0,-1,1798,1590,7.99543,-3.14511
581,-566,2.54102,5.1311,0,0,0,0,0,0,0,-1,1805,1590,2.54099,-5.13111
588,-566,-1.91321,8.39197,0,0,0,0,0,0,0,-1,1812,1590,-1.91316,-8.39199
595,-566,9.0271,4.66467,0,0,0,0,0,0,0,-1,1819,1590,9.02705,-4.66468
602,-566,9.953,3.54895,0,0,0,0,0,0,0,-1,1826,1590,9.953,-3.54898
609,-566,0,0,0,0,0,0,0,0,0,-1,1833,1590,0,0
616,-566,0,0,0,0,0,0,0,0,0,-1,1840,1590,0,0
623,-566,0,0,0,0,0,0,0,0,0,-1,1847,1590,0,0
630,-566,0,0,0,0,0,0,0,0,0,-1,1854,1590,0,0
637,-566,0,0,0,0,0,0,0,0,0,-1,1861,1590,0,0
644,-566,0,0,0,0,0,0,0,0,0,-1,1868,1590,0,0
651,-566,0,0,0,0,0,0,0,0,0,-1,1875,1590,0,0
658,-566,0,0,0,0,0,0,0,0,0,-1,1882,1590,0,0
665,-566,0,0,0,0,0,0,0,0,0,-1,1889,1590,0,0
672,-566,0,0,0,0,0,0,0,0,0,-1,1896,1590,0,0
679,-566,0,0,0,0,0,0,0,0,0,-1,1903,1590,0,0
686,-566,0,0,0,0,0,0,0,0,0,-1,1910,1590,0,0
693,-566,0,0,0,0,0,0,0,0,0,-1,1917,1590,0,0
700,-566,0,0,0,0,0,0,0,0,0,-1,1924,1590,0,0
707,-566,0,0,0,0,0,0,0,0,0,-1,1931,1590,0,0
714,-566,0,0,0,0,0,0,0,0,0,-1,1938,1590,0,0
721,-566,0,0,0,0,0,0,0,0,0,-1,1945,1590,0,0
728,-566,0,0,0,0,0,0,0,0,0,-1,1952,1590,0,0
735,-566,0,0,0,0,0,0,0,0,0,-1,1959,1590,0,0
742,-566,0,0,0,0,0,0,0,0,0,-1,1966,1590,0,0
749,-566,0,0,0,0,0,0,0,0,0,-1,1973,1590,0,0
756,-566,0,0,0,0,0,0,0,0,0,-1,1980,1590,0,0
763,-566,0,0,0,0,0,0,0,0,0,-1,1987,1590,0,0
770,-566,0,0,0,0,0,0,0,0,0,-1,1994,1590,0,0
777,-566,0,0,0,0,0,0,0,0,0,-1,2001,1590,0,0
784,-566,0,0,0,0,0,0,0,0,0,-1,2008,1590,0,0
791,-566,0,0,0,0,0,0,0,0,0,-1,2015,1590,0,0
798,-566,0,0,0,0,0,0,0,0,0,-1,2022,1590,0,0
805,-566,0,0,0,0,0,0,0,0,0,-1,2029,1590,0,0
812,-566,0,0,0,0,0,0,0,0,0,-1,2036,1590,0,0
-700,-573,0,0,0,0,0,0,0,0,0,-1,524,1597,0,0
-693,-573,0,0,0,0,0,0,0,0,0,-1,531,1597,0,0
-686,-573,0,0,0,0,0,0,0,0,0,-1,538,1597,0,0
-679,-573,0,0,0,0,0,0,0,0,0,-1,545,1597,0,0
-672,-573,0,0,0,0,0,0,0,0,0,-1,552,1597,0,0
-665,-573,0,0,0,0,0,0,0,0,0,-1,559,1597,0,0
-658,-573,0,0,0,0,0,0,0,0,0,-1,566,1597,0,0
-651,-573,0,0,0,0,0,0,0,0,0,-1,573,1597,0,0
-644,-573,0,0,0,0,0,0,0,0,0,-1,580,1597,0,0
-637,-573,0,0,0,0,0,0,0,0,0,-1,587,1597,0,0
-630,-573,0,0,0,0,0,0,0,0,0,-1,594,1597,0,0
-623,-573,0,0,0,0,0,0,0,0,0,-1,601,1597,0,0
-616,-573,0,0,0,0,0,0,0,0,0,-1,608,1597,0,0
-609,-573,0,0,0,0,0,0,0,0,0,-1,615,1597,0,0
-602,-573,0,0,0,0,0,0,0,0,0,-1,622,1597,0,0
-595,-573,0,0,0,0,0,0,0,0,0,-1,629,1597,0,0
-588,-573,0,0,0,0,0,0,0,0,0,-1,636,1597,0,0
-581,-573,0,0,0,0,0,0,0,0,0,-1,643,1597,0,0
-574,-573,0,0,0,0,0,0,0,0,0,-1,650,1597,0,0
-567,-573,0,0,0,0,0,0,0,0,0,-1,657,1597,0,0
-560,-573,0,0,0,0,0,0,0,0,0,-1,664,1597,0,0
-553,-573,0,0,0,0,0,0,0,0,0,-1,671,1597,0,0
-546,-573,0,0,0,0,0,0,0,0,0,-1,678,1597,0,0
-539,-573,0,0,0,0,0,0,0,0,0,-1,685,1597,0,0
-532,-573,0,0,0,0,0,0,0,0,0,-1,692,1597,0,0
-525,-573,0,0,0,0,0,0,0,0,0,-1,699,1597,0,0
-518,-573,0,0,0,0,0,0,0,0,0,-1,706,1597,0,0
-511,-573,0,0,0,0,0,0,0,0,0,-1,713,1597,0,0
-504,-573,0,0,0,0,0,0,0,0,0,-1,720,1597,0,0
-497,-573,0,0,0,0,0,0,0,0,0,-1,727,1597,0,0
-490,-573,0,0,0,0,0,0,0,0,0,-1,734,1597,0,0
-483,-573,0,0,0,0,0,0,0,0,0,-1,741,1597,0,0
-476,-573,-9.3327,0.972778,0,0,0,0,0,0,0,-1,748,1597,-9.33268,-0.972776
-469,-573,-1.41681,1.13379,0,0,0,0,0,0,0,-1,755,1597,-1.41681,-1.13382
-462,-573,-0.748535,2.02588,0,0,0,0,0,0,0,-1,762,1597,-0.748533,-2.02584
-455,-573,-0.112976,2.70703,0,0,0,0,0,0,0,-1,769,1597,-0.112988,-2.70697
-448,-573,-1.26172,3.33252,0,0,0,0,0,0,0,-1,776,1597,-1.26173,-3.33248
-441,-573,0.108582,5.06726,0,0,0,0,0,0,0,-1,783,1597,0.108584,-5.06721
-434,-573,1.61768,7.05444,0,0,0,0,0,0,0,-1,790,1597,1.61767,-7.05446
-427,-573,-1.37927,24.4124,0,0,0,0,0,0,0,-1,797,1597,-1.37928,-24.4124
-420,-573,-1.15186,28.0936,0,0,0,0,0,0,0,-1,804,1597,-1.15185,-28.0936
-413,-573,-2.10754,31.2002,0,0,0,0,0,0,0,-1,811,1597,-2.10752,-31.2002
-406,-573,-2.07849,32.1544,-0.00293474,-0.00156669,-0.000189918,-0.00154082,-0.00296061,-1.43538,0.00170979,0.0439925,818,1597,-2.07847,-32.1545
-399,-573,-2.13318,33.0101,-0.0018985,-0.00141574,0.000347562,-0.00123396,-0.00208028,1.08891,0.00120798,0.0177801,825,1597,-2.13315,-33.0102
-392,-573,-2.14142,33.7819,-0.0010705,-0.00110488,0.000722644,-0.000364842,-0.00181054,0.773508,0.00110566,0.0143527,832,1597,-2.14142,-33.7818
-385,-573,-2.20325,34.5286,-0.000323116,-0.000604677,0.000969929,0.000516195,-0.00144399,0.713329,0.00117321,0.0168648,839,1597,-2.20326,-34.5285
-378,-573,-2.25635,35.2543,0.000258496,-0.000125,0.00112743,0.00121037,-0.00107687,0.701166,0.00132129,0.0168748,846,1597,-2.25633,-35.2543
-371,-573,-2.2724,36.0048,0.000677581,0.000167203,0.0010427,0.00149587,-0.000651083,0.665388,0.00127113,0.0178289,853,1597,-2.27243,-36.0047
-364,-573,-2.30176,36.7136,0.00123952,0.000731633,0.00110093,0.00211541,-0.000144261,0.67205,0.00146074,0.0203424,860,1597,-2.30175,-36.7136
-357,-573,-2.3327,37.4005,0.00193466,0.001425,0.00122926,0.00293522,0.000424438,0.683194,0.0018318,0.0226822,867,1597,-2.3327,-37.4005
-350,-573,-2.36871,38.151,0.00274405,0.00213035,0.00143776,0.00390734,0.000967063,0.680265,0.00234983,0.0187418,874,1597,-2.36873,-38.151
-343,-573,-2.36829,38.8698,0.00353407,0.00280821,0.00169589,0.00490543,0.00143685,0.679985,0.002912,0.0233692,881,1597,-2.36829,-38.8697
-336,-573,-2.41998,39.6111,0.00455759,0.00384209,0.00225105,0.00647914,0.00192054,0.706594,0.0038427,0.0178698,888,1597,-2.41996,-39.6111
-329,-573,-2.43188,40.2861,0.00592012,0.00561274,0.00326218,0.00903223,0.00250063,0.761859,0.00538508,0.0190175,895,1597,-2.4319,-40.2862
-322,-573,-2.47809,41.0255,0.00754597,0.00869318,0.00491041,0.0130634,0.00317578,0.843542,0.00786698,0.0176506,902,1597,-2.47808,-41.0256
-315,-573,-2.32813,41.95,0.00926168,0.0117278,0.00657885,0.0171881,0.00380132,0.878036,0.0104253,0.0412139,909,1597,-2.32813,-41.95
-308,-573,-1.93585,42.96,0,0,0,0,0,0,0,-1,916,1597,-1.93583,-42.96
-301,-573,-2.22528,43.4984,0,0,0,0,0,0,0,-1,923,1597,-2.22526,-43.4984
-294,-573,-2.11963,43.9802,0,0,0,0,0,0,0,-1,930,1597,-2.11965,-43.9802
-287,-573,-2.00739,43.4723,0,0,0,0,0,0,0,-1,937,1597,-2.00739,-43.4723
-280,-573,1.19684,26.4906,0,0,0,0,0,0,0,-1,944,1597,1.19685,-26.4906
-273,-573,2.24805,25.4375,0,0,0,0,0,0,0,-1,951,1597,2.24803,-25.4374
-266,-573,1.31116,7.1814,0,0,0,0,0,0,0,-1,958,1597,1.31118,-7.18142
-259,-573,1.2514,6.70959,0,0,0,0,0,0,0,-1,965,1597,1.25137,-6.70965
-252,-573,2.07874,5.27161,0,0,0,0,0,0,0,-1,972,1597,2.07875,-5.27157
-245,-573,-10.2592,1.09827,0,0,0,0,0,0,0,-1,979,1597,-10.2592,-1.09823
-238,-573,-11.5463,4.44141,0,0,0,0,0,0,0,-1,986,1597,-11.5463,-4.44146
-231,-573,-9.23431,4.14539,0,0,0,0,0,0,0,-1,993,1597,-9.23431,-4.14534
-224,-573,-6.70044,7.40857,0,0,0,0,0,0,0,-1,1000,1597,-6.70045,-7.40851
-217,-573,-4.25824,8.59119,0,0,0,0,0,0,0,-1,1007,1597,-4.25824,-8.59122
-210,-573,-2.39661,9.73914,0,0,0,0,0,0,0,-1,1014,1597,-2.39658,-9.73915
-203,-573,-0.557373,10.9005,0,0,0,0,0,0,0,-1,1021,1597,-0.557387,-10.9006
-196,-573,-1.65344,9.02246,0,0,0,0,0,0,0,-1,1028,1597,-1.65349,-9.02241
-189,-573,-6.12915,6.66882,0,0,0,0,0,0,0,-1,1035,1597,-6.12913,-6.66884
-182,-573,0,0,0,0,0,0,0,0,0,-1,1042,1597,0,0
-175,-573,0,0,0,0,0,0,0,0,0,-1,1049,1597,0,0
-168,-573,0,0,0,0,0,0,0,0,0,-1,1056,1597,0,0
-161,-573,0,0,0,0,0,0,0,0,0,-1,1063,1597,0,0
-154,-573,0,0,0,0,0,0,0,0,0,-1,1070,1597,0,0
-147,-573,0,0,0,0,0,0,0,0,0,-1,1077,1597,0,0
-140,-573,0,0,0,0,0,0,0,0,0,-1,1084,1597,0,0
-133,-573,0,0,0,0,0,0,0,0,0,-1,1091,1597,0,0
-126,-573,0,0,0,0,0,0,0,0,0,-1,1098,1597,0,0
-119,-573,0,0,0,0,0,0,0,0,0,-1,1105,1597,0,0
-112,-573,0,0,0,0,0,0,0,0,0,-1,1112,1597,0,0
-105,-573,0,0,0,0,0,0,0,0,0,-1,1119,1597,0,0
-98,-573,0,0,0,0,0,0,0,0,0,-1,1126,1597,0,0
-91,-573,0,0,0,0,0,0,0,0,0,-1,1133,1597,0,0
-84,-573,0,0,0,0,0,0,0,0,0,-1,1140,1597,0,0
-77,-573,0,0,0,0,0,0,0,0,0,-1,1147,1597,0,0
-70,-573,0,0,0,0,0,0,0,0,0,-1,1154,1597,0,0
-63,-573,0,0,0,0,0,0,0,0,0,-1,1161,1597,0,0
-56,-573,0,0,0,0,0,0,0,0,0,-1,1168,1597,0,0
-49,-573,0,0,0,0,0,0,0,0,0,-1,1175,1597,0,0
-42,-573,0,0,0,0,0,0,0,0,0,-1,1182,1597,0,0
-35,-573,0,0,0,0,0,0,0,0,0,-1,1189,1597,0,0
-28,-573,0,0,0,0,0,0,0,0,0,-1,1196,1597,0,0
-21,-573,0,0,0,0,0,0,0,0,0,-1,1203,1597,0,0
-14,-573,0,0,0,0,0,0,0,0,0,-1,1210,1597,0,0
-7,-573,0,0,0,0,0,0,0,0,0,-1,1217,1597,0,0
0,-573,0,0,0,0,0,0,0,0,0,-1,1224,1597,0,0
7,-573,0,0,0,0,0,0,0,0,0,-1,1231,1597,0,0
14,-573,0,0,0,0,0,0,0,0,0,-1,1238,1597,0,0
21,-573,0,0,0,0,0,0,0,0,0,-1,1245,1597,0,0
28,-573,0,0,0,0,0,0,0,0,0,-1,1252,1597,0,0
35,-573,0,0,0,0,0,0,0,0,0,-1,1259,1597,0,0
42,-573,0,0,0,0,0,0,0,0,0,-1,1266,1597,0,0
49,-573,0,0,0,0,0,0,0,0,0,-1,1273,1597,0,0
56,-573,0,0,0,0,0,0,0,0,0,-1,1280,1597,0,0
63,-573,0,0,0,0,0,0,0,0,0,-1,1287,1597,0,0
70,-573,0,0,0,0,0,0,0,0,0,-1,1294,1597,0,0
77,-573,0,0,0,0,0,0,0,0,0,-1,1301,1597,0,0
84,-573,0,0,0,0,0,0,0,0,0,-1,1308,1597,0,0
91,-573,0,0,0,0,0,0,0,0,0,-1,1315,1597,0,0
98,-573,0,0,0,0,0,0,0,0,0,-1,1322,1597,0,0
105,-573,0,0,0,0,0,0,0,0,0,-1,1329,1597,0,0
112,-573,0,0,0,0,0,0,0,0,0,-1,1336,1597,0,0
119,-573,0,0,0,0,0,0,0,0,0,-1,1343,1597,0,0
126,-573,0,0,0,0,0,0,0,0,0,-1,1350,1597,0,0
133,-573,0,0,0,0,0,0,0,0,0,-1,1357,1597,0,0
140,-573,0,0,0,0,0,0,0,0,0,-1,1364,1597,0,0
147,-573,0,0,0,0,0,0,0,0,0,-1,1371,1597,0,0
154,-573,0,0,0,0,0,0,0,0,0,-1,1378,1597,0,0
161,-573,0,0,0,0,0,0,0,0,0,-1,1385,1597,0,0
168,-573,0,0,0,0,0,0,0,0,0,-1,1392,1597,0,0
175,-573,0,0,0,0,0,0,0,0,0,-1,1399,1597,0,0
182,-573,0,0,0,0,0,0,0,0,0,-1,1406,1597,0,0
189,-573,0,0,0,0,0,0,0,0,0,-1,1413,1597,0,0
196,-573,0,0,0,0,0,0,0,0,0,-1,1420,1597,0,0
203,-573,0,0,0,0,0,0,0,0,0,-1,1427,1597,0,0
210,-573,0,0,0,0,0,0,0,0,0,-1,1434,1597,0,0
217,-573,0,0,0,0,0,0,0,0,0,-1,1441,1597,0,0
224,-573,0,0,0,0,0,0,0,0,0,-1,1448,1597,0,0
231,-573,0,0,0,0,0,0,0,0,0,-1,1455,1597,0,0
238,-573,0,0,0,0,0,0,0,0,0,-1,1462,1597,0,0
245,-573,0,0,0,0,0,0,0,0,0,-1,1469,1597,0,0
252,-573,0,0,0,0,0,0,0,0,0,-1,1476,1597,0,0
259,-573,0,0,0,0,0,0,0,0,0,-1,1483,1597,0,0
266,-573,0,0,0,0,0,0,0,0,0,-1,1490,1597,0,0
273,-573,0,0,0,0,0,0,0,0,0,-1,1497,1597,0,0
280,-573,0,0,0,0,0,0,0,0,0,-1,1504,1597,0,0
287,-573,0,0,0,0,0,0,0,0,0,-1,1511,1597,0,0
294,-573,0,0,0,0,0,0,0,0,0,-1,1518,1597,0,0
301,-573,0,0,0,0,0,0,0,0,0,-1,1525,1597,0,0
308,-573,5.93042,9.71143,0,0,0,0,0,0,0,-1,1532,1597,5.93046,-9.71144
315,-573,4.34204,11.719,0,0,0,0,0,0,0,-1,1539,1597,4.34205,-11.719
322,-573,10.3269,7.77563,0,0,0,0,0,0,0,-1,1546,1597,10.327,-7.77565
329,-573,4.99573,3.80273,0,0,0,0,0,0,0,-1,1553,1597,4.9957,-3.80273
336,-573,4.85693,2.53455,0,0,0,0,0,0,0,-1,1560,1597,4.8569,-2.53459
343,-573,5.5946,2.15894,0,0,0,0,0,0,0,-1,1567,1597,5.59456,-2.1589
350,-573,2.53748,1.56433,0,0,0,0,0,0,0,-1,1574,1597,2.53753,-1.5643
357,-573,7.40247,4.03613,0,0,0,0,0,0,0,-1,1581,1597,7.40244,-4.03614
364,-573,7.14551,3.02087,0,0,0,0,0,0,0,-1,1588,1597,7.14556,-3.02084
371,-573,6.88867,2.00549,0,0,0,0,0,0,0,-1,1595,1597,6.88868,-2.00553
378,-573,8.62012,6.09106,0,0,0,0,0,0,0,-1,1602,1597,8.62012,-6.09103
385,-573,6.54346,-0.951904,0,0,0,0,0,0,0,-1,1609,1597,6.54349,0.951901
392,-573,17.5164,38.3645,0,0,0,0,0,0,0,-1,1616,1597,17.5164,-38.3645
399,-573,20.5255,42.9893,0,0,0,0,0,0,0,-1,1623,1597,20.5255,-42.9893
406,-573,20.2545,44.7974,0,0,0,0,0,0,0,-1,1630,1597,20.2545,-44.7974
413,-573,19.0908,43.9061,0,0,0,0,0,0,0,-1,1637,1597,19.0908,-43.9062
420,-573,18.8063,37.0011,0,0,0,0,0,0,0,-1,1644,1597,18.8063,-37.0011
427,-573,20.4286,42.2079,0,0,0,0,0,0,0,-1,1651,1597,20.4285,-42.2079
434,-573,20.942,43.885,0,0,0,0,0,0,0,-1,1658,1597,20.942,-43.8849
441,-573,20.536,42.6705,0,0,0,0,0,0,0,-1,1665,1597,20.536,-42.6705
448,-573,20.6135,41.746,0.00739592,0.0214143,-0.0102593,0.0268301,0.00198005,-1.08508,0.0172646,0.046962,1672,1597,20.6135,-41.7459
455,-573,20.6635,40.8129,0.00591551,0.0180974,-0.00910545,0.0229613,0.0010516,-1.08018,0.0149693,0.0336714,1679,1597,20.6635,-40.8129
462,-573,20.7607,39.9135,0.00560998,0.0145614,-0.00787996,0.019148,0.00102336,-1.04367,0.0124383,0.0233739,1686,1597,20.7607,-39.9135
469,-573,20.7083,39.2532,0.0052694,0.011504,-0.00653115,0.0156236,0.00114974,-1.00806,0.0100544,0.0155873,1693,1597,20.7083,-39.2531
476,-573,20.6974,38.6066,0.00469618,0.00884093,-0.00525441,0.0124169,0.00112023,-0.973236,0.00793093,0.0146272,1700,1597,20.6974,-38.6065
483,-573,20.7042,37.9249,0.00392788,0.00652881,-0.00406549,0.00949676,0.000959927,-0.940195,0.00603669,0.0131893,1707,1597,20.7042,-37.9249
490,-573,20.6565,37.2091,0.00317596,0.0043605,-0.00301362,0.0068395,0.000696962,-0.882427,0.00434601,0.0141525,1714,1597,20.6565,-37.2091
497,-573,20.6667,36.5099,0.00221999,0.00291959,-0.00213473,0.00473299,0.000406598,-0.866607,0.0030289,0.0213519,1721,1597,20.6668,-36.5099
504,-573,20.6307,35.8162,0.00120809,0.00157084,-0.00141921,0.00282022,-4.12869e-05,-0.848954,0.00189406,0.0194697,1728,1597,20.6307,-35.8161
511,-573,20.559,35.0907,0.000223383,0.000719696,-0.000873081,0.0013792,-0.000436123,-0.923862,0.00109421,0.0198038,1735,1597,20.5589,-35.0907
518,-573,20.5039,34.402,-0.000669117,6.97679e-05,-0.00047039,0.000298451,-0.0008978,-1.11828,0.000718971,0.0147301,1742,1597,20.5039,-34.402
525,-573,20.4698,33.7168,-0.00140257,-0.000364744,-0.000194661,-0.000329433,-0.00143788,-1.39135,0.000869825,0.0177306,1749,1597,20.4698,-33.7167
532,-573,20.4541,32.9563,-0.00188492,-0.000717156,3.86326e-05,-0.00071588,-0.0018862,1.53776,0.00109948,0.0188817,1756,1597,20.4541,-32.9562
539,-573,20.3495,32.2552,-0.00217553,-0.00102614,0.00020506,-0.000990654,-0.00221102,1.39943,0.00127883,0.0410556,1763,1597,20.3495,-32.2552
546,-573,20.5221,31.3318,0,0,0,0,0,0,0,-1,1770,1597,20.5221,-31.3318
553,-573,20.2595,31.0172,0,0,0,0,0,0,0,-1,1777,1597,20.2595,-31.0172
560,-573,19.9855,30.4128,0,0,0,0,0,0,0,-1,1784,1597,19.9855,-30.4128
567,-573,19.8645,28.3368,0,0,0,0,0,0,0,-1,1791,1597,19.8645,-28.3368
574,-573,0.83374,5.7041,0,0,0,0,0,0,0,-1,1798,1597,0.833718,-5.70405
581,-573,-0.224854,7.41602,0,0,0,0,0,0,0,-1,1805,1597,-0.224904,-7.41596
588,-573,-0.134033,7.67065,0,0,0,0,0,0,0,-1,1812,1597,-0.134037,-7.67063
595,-573,-0.0825195,8.35083,0,0,0,0,0,0,0,-1,1819,1597,-0.0824684,-8.35088
602,-573,0,0,0,0,0,0,0,0,0,-1,1826,1597,0,0
609,-573,0,0,0,0,0,0,0,0,0,-1,1833,1597,0,0
616,-573,0,0,0,0,0,0,0,0,0,-1,1840,1597,0,0
623,-573,0,0,0,0,0,0,0,0,0,-1,1847,1597,0,0
630,-573,0,0,0,0,0,0,0,0,0,-1,1854,1597,0,0
637,-573,0,0,0,0,0,0,0,0,0,-1,1861,1597,0,0
644,-573,0,0,0,0,0,0,0,0,0,-1,1868,1597,0,0
651,-573,0,0,0,0,0,0,0,0,0,-1,1875,1597,0,0
658,-573,0,0,0,0,0,0,0,0,0,-1,1882,1597,0,0
665,-573,0,0,0,0,0,0,0,0,0,-1,1889,1597,0,0
672,-573,0,0,0,0,0,0,0,0,0,-1,1896,1597,0,0
679,-573,0,0,0,0,0,0,0,0,0,-1,1903,1597,0,0
686,-573,0,0,0,0,0,0,0,0,0,-1,1910,1597,0,0
693,-573,0,0,0,0,0,0,0,0,0,-1,1917,1597,0,0
700,-573,0,0,0,0,0,0,0,0,0,-1,1924,1597,0,0
707,-573,0,0,0,0,0,0,0,0,0,-1,1931,1597,0,0
714,-573,0,0,0,0,0,0,0,0,0,-1,1938,1597,0,0
721,-573,0,0,0,0,0,0,0,0,0,-1,1945,1597,0,0
728,-573,0,0,0,0,0,0,0,0,0,-1,1952,1597,0,0
735,-573,0,0,0,0,0,0,0,0,0,-1,1959,1597,0,0
742,-573,0,0,0,0,0,0,0,0,0,-1,1966,1597,0,0
749,-573,0,0,0,0,0,0,0,0,0,-1,1973,1597,0,0
756,-573,0,0,0,0,0,0,0,0,0,-1,1980,1597,0,0
763,-573,0,0,0,0,0,0,0,0,0,-1,1987,1597,0,0
770,-573,0,0,0,0,0,0,0,0,0,-1,1994,1597,0,0
777,-573,0,0,0,0,0,0,0,0,0,-1,2001,1597,0,0
784,-573,0,0,0,0,0,0,0,0,0,-1,2008,1597,0,0
791,-573,0,0,0,0,0,0,0,0,0,-1,2015,1597,0,0
798,-573,0,0,0,0,0,0,0,0,0,-1,2022,1597,0,0
805,-573,0,0,0,0,0,0,0,0,0,-1,2029,1597,0,0
812,-573,0,0,0,0,0,0,0,0,0,-1,2036,1597,0,0
-700,-580,0,0,0,0,0,0,0,0,0,-1,524,1604,0,0
-693,-580,0,0,0,0,0,0,0,0,0,-1,531,1604,0,0
-686,-580,0,0,0,0,0,0,0,0,0,-1,538,1604,0,0
-679,-580,0,0,0,0,0,0,0,0,0,-1,545,1604,0,0
-672,-580,0,0,0,0,0,0,0,0,0,-1,552,1604,0,0
-665,-580,0,0,0,0,0,0,0,0,0,-1,559,1604,0,0
-658,-580,0,0,0,0,0,0,0,0,0,-1,566,1604,0,0
-651,-580,0,0,0,0,0,0,0,0,0,-1,573,1604,0,0
-644,-580,0,0,0,0,0,0,0,0,0,-1,580,1604,0,0
-637,-580,0,0,0,0,0,0,0,0,0,-1,587,1604,0,0
-630,-580,0,0,0,0,0,0,0,0,0,-1,594,1604,0,0
-623,-580,0,0,0,0,0,0,0,0,0,-1,601,1604,0,0
-616,-580,0,0,0,0,0,0,0,0,0,-1,608,1604,0,0
-609,-580,0,0,0,0,0,0,0,0,0,-1,615,1604,0,0
-602,-580,0,0,0,0,0,0,0,0,0,-1,622,1604,0,0
-595,-580,0,0,0,0,0,0,0,0,0,-1,629,1604,0,0
-588,-580,0,0,0,0,0,0,0,0,0,-1,636,1604,0,0
-581,-580,0,0,0,0,0,0,0,0,0,-1,643,1604,0,0
-574,-580,0,0,0,0,0,0,0,0,0,-1,650,1604,0,0
-567,-580,0,0,0,0,0,0,0,0,0,-1,657,1604,0,0
-560,-580,0,0,0,0,0,0,0,0,0,-1,664,1604,0,0
-553,-580,0,0,0,0,0,0,0,0,0,-1,671,1604,0,0
-546,-580,0,0,0,0,0,0,0,0,0,-1,678,1604,0,0
-539,-580,0,0,0,0,0,0,0,0,0,-1,685,1604,0,0
-532,-580,0,0,0,0,0,0,0,0,0,-1,692,1604,0,0
-525,-580,0,0,0,0,0,0,0,0,0,-1,699,1604,0,0
-518,-580,0,0,0,0,0,0,0,0,0,-1,706,1604,0,0
-511,-580,0,0,0,0,0,0,0,0,0,-1,713,1604,0,0
-504,-580,0,0,0,0,0,0,0,0,0,-1,720,1604,0,0
-497,-580,0,0,0,0,0,0,0,0,0,-1,727,1604,0,0
-490,-580,0,0,0,0,0,0,0,0,0,-1,734,1604,0,0
-483,-580,0,0,0,0,0,0,0,0,0,-1,741,1604,0,0
-476,-580,0,0,0,0,0,0,0,0,0,-1,748,1604,0,0
-469,-580,-1.69189,-0.38916,0,0,0,0,0,0,0,-1,755,1604,-1.69192,0.389188
-462,-580,-0.859863,0.675293,0,0,0,0,0,0,0,-1,762,1604,-0.859834,-0.675245
-455,-580,-0.730164,0.651978,0,0,0,0,0,0,0,-1,769,1604,-0.730153,-0.651957
-448,-580,-3.31891,2.07544,0,0,0,0,0,0,0,-1,776,1604,-3.3189,-2.07539
-441,-580,-1.63843,3.9469,0,0,0,0,0,0,0,-1,783,1604,-1.63842,-3.94695
-434,-580,0.23291,5.97876,0,0,0,0,0,0,0,-1,790,1604,0.232901,-5.97878
-427,-580,1.62756,8.05493,0,0,0,0,0,0,0,-1,797,1604,1.62758,-8.05488
-420,-580,0.986572,11.2383,0,0,0,0,0,0,0,-1,804,1604,0.986544,-11.2382
-413,-580,0.922913,21.5701,0,0,0,0,0,0,0,-1,811,1604,0.922905,-21.5701
-406,-580,-1.39502,32.1077,0,0,0,0,0,0,0,-1,818,1604,-1.39501,-32.1076
-399,-580,-1.39972,33.0779,-0.00240051,-0.00209693,0.000576271,-0.00165279,-0.00284465,0.914173,0.00164953,0.0453126,825,1604,-1.39974,-33.0779
-392,-580,-1.43573,33.8441,-0.0014215,-0.00177175,0.000937857,-0.000642559,-0.00255069,0.693098,0.00153188,0.0220752,832,1604,-1.4357,-33.8442
-385,-580,-1.47479,34.5801,-0.000618594,-0.0012379,0.00120148,0.000312497,-0.00216899,0.659279,0.00156063,0.0139692,839,1604,-1.47476,-34.5801
-378,-580,-1.50763,35.313,-6.38273e-05,-0.000698629,0.00135003,0.00100561,-0.00176806,0.669941,0.00162142,0.0168441,846,1604,-1.50761,-35.313
-371,-580,-1.53973,36.0627,0.000280164,-0.000426431,0.00119331,0.00117137,-0.00131764,0.641476,0.00143786,0.0154659,853,1604,-1.53975,-36.0627
-364,-580,-1.59045,36.74,0.000734623,3.93982e-05,0.00115871,0.00159674,-0.000822715,0.63967,0.0014205,0.0209341,860,1604,-1.59046,-36.7399
-357,-580,-1.61597,37.4436,0.00132697,0.000629532,0.00120235,0.00223015,-0.000273645,0.644255,0.00158587,0.0146553,867,1604,-1.61596,-37.4436
-350,-580,-1.65332,38.1952,0.00201289,0.0012178,0.00131504,0.00298916,0.000241528,0.638612,0.00191734,0.011327,874,1604,-1.65335,-38.1952
-343,-580,-1.65442,38.9148,0.00266472,0.00183509,0.00148604,0.00379276,0.000707053,0.649292,0.00232888,0.0121357,881,1604,-1.65441,-38.9148
-336,-580,-1.65906,39.5942,0.00348579,0.00274392,0.00190276,0.00505344,0.00117627,0.689133,0.00305335,0.0216094,888,1604,-1.65908,-39.5942
-329,-580,-1.71277,40.3295,0.00457543,0.00431678,0.00271256,0.00716174,0.00173046,0.761579,0.00431493,0.0193881,895,1604,-1.71274,-40.3295
-322,-580,-1.7558,41.0588,0.00587111,0.00690413,0.00401804,0.0104387,0.00233651,0.849321,0.00632582,0.020843,902,1604,-1.75581,-41.0589
-315,-580,-1.73151,41.7454,0.00725438,0.00942304,0.00533568,0.0137835,0.00289397,0.885644,0.00839232,0.0234954,909,1604,-1.73149,-41.7453
-308,-580,-1.66217,42.5955,0.00923855,0.0120733,0.007022,0.0178195,0.00349229,0.884983,0.0109036,0.035591,916,1604,-1.66214,-42.5954
-301,-580,-1.61951,43.1647,0.0120844,0.0153219,0.00939072,0.0232324,0.00417394,0.870749,0.0143014,0.0334799,923,1604,-1.61951,-43.1646
-294,-580,-1.71436,43.7217,0.0153203,0.0191163,0.0122738,0.0296379,0.00479858,0.86211,0.0183692,0.0332076,930,1604,-1.71435,-43.7217
-287,-580,-1.46985,44.999,0,0,0,0,0,0,0,-1,937,1604,-1.46988,-44.999
-280,-580,-1.25861,46.2617,0,0,0,0,0,0,0,-1,944,1604,-1.25862,-46.2617
-273,-580,-1.03717,47.3126,0,0,0,0,0,0,0,-1,951,1604,-1.03715,-47.3126
-266,-580,-1.09918,46.4281,0,0,0,0,0,0,0,-1,958,1604,-1.0992,-46.428
-259,-580,1.31091,9.11536,0,0,0,0,0,0,0,-1,965,1604,1.31092,-9.11539
-252,-580,1.07629,7.74097,0,0,0,0,0,0,0,-1,972,1604,1.07627,-7.74101
-245,-580,3.80304,9.16028,0,0,0,0,0,0,0,-1,979,1604,3.80306,-9.16034
-238,-580,-10.3588,1.57556,0,0,0,0,0,0,0,-1,986,1604,-10.3588,-1.5755
-231,-580,-10.576,6.43787,0,0,0,0,0,0,0,-1,993,1604,-10.576,-6.43783
-224,-580,-8.27435,7.58972,0,0,0,0,0,0,0,-1,1000,1604,-8.27435,-7.5897
-217,-580,-5.85632,9.51221,0,0,0,0,0,0,0,-1,1007,1604,-5.85632,-9.5122
-210,-580,-3.6684,11.1569,0,0,0,0,0,0,0,-1,1014,1604,-3.66839,-11.1569
-203,-580,-1.92474,12.7845,0,0,0,0,0,0,0,-1,1021,1604,-1.92477,-12.7845
-196,-580,-2.28552,10.3289,0,0,0,0,0,0,0,-1,1028,1604,-2.28552,-10.3288
-189,-580,-4.58252,7.59058,0,0,0,0,0,0,0,-1,1035,1604,-4.58256,-7.59057
-182,-580,-5.45874,7.65942,0,0,0,0,0,0,0,-1,1042,1604,-5.45876,-7.65939
-175,-580,-6.38977,7.55005,0,0,0,0,0,0,0,-1,1049,1604,-6.38981,-7.5501
-168,-580,0,0,0,0,0,0,0,0,0,-1,1056,1604,0,0
-161,-580,0,0,0,0,0,0,0,0,0,-1,1063,1604,0,0
-154,-580,0,0,0,0,0,0,0,0,0,-1,1070,1604,0,0
-147,-580,0,0,0,0,0,0,0,0,0,-1,1077,1604,0,0
-140,-580,0,0,0,0,0,0,0,0,0,-1,1084,1604,0,0
-133,-580,0,0,0,0,0,0,0,0,0,-1,1091,1604,0,0
-126,-580,0,0,0,0,0,0,0,0,0,-1,1098,1604,0,0
-119,-580,0,0,0,0,0,0,0,0,0,-1,1105,1604,0,0
-112,-580,0,0,0,0,0,0,0,0,0,-1,1112,1604,0,0
-105,-580,0,0,0,0,0,0,0,0,0,-1,1119,1604,0,0
-98,-580,0,0,0,0,0,0,0,0,0,-1,1126,1604,0,0
-91,-580,0,0,0,0,0,0,0,0,0,-1,1133,1604,0,0
-84,-580,0,0,0,0,0,0,0,0,0,-1,1140,1604,0,0
-77,-580,0,0,0,0,0,0,0,0,0,-1,1147,1604,0,0
-70,-580,0,0,0,0,0,0,0,0,0,-1,1154,1604,0,0
-63,-580,0,0,0,0,0,0,0,0,0,-1,1161,1604,0,0
-56,-580,0,0,0,0,0,0,0,0,0,-1,1168,1604,0,0
-49,-580,0,0,0,0,0,0,0,0,0,-1,1175,1604,0,0
-42,-580,0,0,0,0,0,0,0,0,0,-1,1182,1604,0,0
-35,-580,0,0,0,0,0,0,0,0,0,-1,1189,1604,0,0
-28,-580,0,0,0,0,0,0,0,0,0,-1,1196,1604,0,0
-21,-580,0,0,0,0,0,0,0,0,0,-1,1203,1604,0,0
-14,-580,0,0,0,0,0,0,0,0,0,-1,1210,1604,0,0
-7,-580,0,0,0,0,0,0,0,0,0,-1,1217,1604,0,0
0,-580,0,0,0,0,0,0,0,0,0,-1,1224,1604,0,0
7,-580,0,0,0,0,0,0,0,0,0,-1,1231,1604,0,0
14,-580,0,0,0,0,0,0,0,0,0,-1,1238,1604,0,0
21,-580,0,0,0,0,0,0,0,0,0,-1,1245,1604,0,0
28,-580,0,0,0,0,0,0,0,0,0,-1,1252,1604,0,0
35,-580,0,0,0,0,0,0,0,0,0,-1,1259,1604,0,0
42,-580,0,0,0,0,0,0,0,0,0,-1,1266,1604,0,0
49,-580,0,0,0,0,0,0,0,0,0,-1,1273,1604,0,0
56,-580,0,0,0,0,0,0,0,0,0,-1,1280,1604,0,0
63,-580,0,0,0,0,0,0,0,0,0,-1,1287,1604,0,0
70,-580,0,0,0,0,0,0,0,0,0,-1,1294,1604,0,0
77,-580,0,0,0,0,0,0,0,0,0,-1,1301,1604,0,0
84,-580,0,0,0,0,0,0,0,0,0,-1,1308,1604,0,0
91,-580,0,0,0,0,0,0,0,0,0,-1,1315,1604,0,0
98,-580,0,0,0,0,0,0,0,0,0,-1,1322,1604,0,0
105,-580,0,0,0,0,0,0,0,0,0,-1,1329,1604,0,0
112,-580,0,0,0,0,0,0,0,0,0,-1,1336,1604,0,0
119,-580,0,0,0,0,0,0,0,0,0,-1,1343,1604,0,0
126,-580,0,0,0,0,0,0,0,0,0,-1,1350,1604,0,0
133,-580,0,0,0,0,0,0,0,0,0,-1,1357,1604,0,0
140,-580,0,0,0,0,0,0,0,0,0,-1,1364,1604,0,0
147,-580,0,0,0,0,0,0,0,0,0,-1,1371,1604,0,0
154,-580,0,0,0,0,0,0,0,0,0,-1,1378,1604,0,0
161,-580,0,0,0,0,0,0,0,0,0,-1,1385,1604,0,0
168,-580,0,0,0,0,0,0,0,0,0,-1,1392,1604,0,0
175,-580,0,0,0,0,0,0,0,0,0,-1,1399,1604,0,0
182,-580,0,0,0,0,0,0,0,0,0,-1,1406,1604,0,0
189,-580,0,0,0,0,0,0,0,0,0,-1,1413,1604,0,0
196,-580,0,0,0,0,0,0,0,0,0,-1,1420,1604,0,0
203,-580,0,0,0,0,0,0,0,0,0,-1,1427,1604,0,0
210,-580,0,0,0,0,0,0,0,0,0,-1,1434,1604,0,0
217,-580,0,0,0,0,0,0,0,0,0,-1,1441,1604,0,0
224,-580,0,0,0,0,0,0,0,0,0,-1,1448,1604,0,0
231,-580,0,0,0,0,0,0,0,0,0,-1,1455,1604,0,0
238,-580,0,0,0,0,0,0,0,0,0,-1,1462,1604,0,0
245,-580,0,0,0,0,0,0,0,0,0,-1,1469,1604,0,0
252,-580,0,0,0,0,0,0,0,0,0,-1,1476,1604,0,0
259,-580,0,0,0,0,0,0,0,0,0,-1,1483,1604,0,0
266,-580,0,0,0,0,0,0,0,0,0,-1,1490,1604,0,0
273,-580,0,0,0,0,0,0,0,0,0,-1,1497,1604,0,0
280,-580,0,0,0,0,0,0,0,0,0,-1,1504,1604,0,0
287,-580,0,0,0,0,0,0,0,0,0,-1,1511,1604,0,0
294,-580,4.0437,0.177368,0,0,0,0,0,0,0,-1,1518,1604,4.04369,-0.177371
301,-580,7.55164,8.05798,0,0,0,0,0,0,0,-1,1525,1604,7.55158,-8.05802
308,-580,5.9126,9.99341,0,0,0,0,0,0,0,-1,1532,1604,5.91255,-9.99337
315,-580,4.27356,11.9287,0,0,0,0,0,0,0,-1,1539,1604,4.27352,-11.9287
322,-580,10.2366,7.50281,0,0,0,0,0,0,0,-1,1546,1604,10.2366,-7.50282
329,-580,10.5962,8.69641,0,0,0,0,0,0,0,-1,1553,1604,10.5962,-8.69642
336,-580,3.66431,1.58862,0,0,0,0,0,0,0,-1,1560,1604,3.6643,-1.58864
343,-580,3.32227,1.39636,0,0,0,0,0,0,0,-1,1567,1604,3.32222,-1.39633
350,-580,8.71277,4.0564,0,0,0,0,0,0,0,-1,1574,1604,8.71271,-4.05638
357,-580,8.52332,3.08154,0,0,0,0,0,0,0,-1,1581,1604,8.52332,-3.08157
364,-580,8.25818,2.07605,0,0,0,0,0,0,0,-1,1588,1604,8.25812,-2.07608
371,-580,7.42114,7.14282,0,0,0,0,0,0,0,-1,1595,1604,7.42119,-7.14281
378,-580,7.9718,6.6731,0,0,0,0,0,0,0,-1,1602,1604,7.9718,-6.67307
385,-580,18.6182,47.5352,0,0,0,0,0,0,0,-1,1609,1604,18.6181,-47.5352
392,-580,19.1388,46.7451,0,0,0,0,0,0,0,-1,1616,1604,19.1388,-46.7452
399,-580,19.433,45.329,0,0,0,0,0,0,0,-1,1623,1604,19.433,-45.329
406,-580,20.3103,45.9017,0,0,0,0,0,0,0,-1,1630,1604,20.3103,-45.9018
413,-580,20.2522,45.074,0,0,0,0,0,0,0,-1,1637,1604,20.2522,-45.074
420,-580,19.9741,44.3077,0,0,0,0,0,0,0,-1,1644,1604,19.9742,-44.3077
427,-580,20.5531,44.0571,0,0,0,0,0,0,0,-1,1651,1604,20.5531,-44.0571
434,-580,20.2451,43.0793,0.0145438,0.0204412,-0.0112253,0.0290986,0.00588636,-0.913837,0.017765,0.0469645,1658,1604,20.2451,-43.0793
441,-580,19.9579,42.1135,0.00935577,0.0183927,-0.00884404,0.0238057,0.00394278,-1.02156,0.0147331,0.0268812,1665,1604,19.9579,-42.1136
448,-580,20.047,41.3278,0.00571287,0.0162677,-0.00750174,0.0201623,0.00181819,-1.09193,0.0128784,0.0183706,1672,1604,20.047,-41.3277
455,-580,20.1255,40.6573,0.00440923,0.0137925,-0.00676498,0.0173335,0.000868215,-1.08858,0.0112774,0.0229409,1679,1604,20.1255,-40.6573
462,-580,20.0895,39.9548,0.00415943,0.0109922,-0.00593361,0.0144227,0.00072896,-1.0466,0.00938157,0.0251359,1686,1604,20.0894,-39.9548
469,-580,20.0481,39.2732,0.00390584,0.00855521,-0.0049898,0.0117353,0.000725769,-1.00339,0.00759316,0.0212172,1693,1604,20.0481,-39.2732
476,-580,19.9995,38.6191,0.00342709,0.00648157,-0.00403958,0.00927298,0.000635686,-0.966127,0.00598136,0.0158875,1700,1604,19.9995,-38.6192
483,-580,19.9838,37.9514,0.00276192,0.00460075,-0.003125,0.00693878,0.000423889,-0.928468,0.00449123,0.0140212,1707,1604,19.9837,-37.9515
490,-580,19.9376,37.2778,0.00207589,0.00284454,-0.00230353,0.00479558,0.000124847,-0.868058,0.00315626,0.01848,1714,1604,19.9376,-37.2778
497,-580,19.918,36.5594,0.0012192,0.0016796,-0.00162559,0.00309121,-0.000192409,-0.855736,0.00212785,0.0147389,1721,1604,19.918,-36.5594
504,-580,19.8868,35.8403,0.000298362,0.000582354,-0.00105502,0.00150489,-0.00062417,-0.852292,0.00126378,0.019083,1728,1604,19.8869,-35.8404
511,-580,19.8517,35.1681,-0.000628157,-0.000121101,-0.000609429,0.000285431,-0.00103469,-0.982513,0.000802049,0.0198033,1735,1604,19.8517,-35.1681
518,-580,19.8066,34.4731,-0.00149451,-0.000557389,-0.000324572,-0.000455953,-0.00159594,-1.26789,0.00094921,0.0182878,1742,1604,19.8066,-34.4732
525,-580,19.7538,33.7302,-0.00226942,-0.000937252,-6.33302e-05,-0.000934249,-0.00227242,-1.5234,0.00131887,0.02162,1749,1604,19.7538,-33.7303
532,-580,19.6813,33.0339,-0.00282484,-0.00122514,0.000197412,-0.00120114,-0.00284884,1.44981,0.0016515,0.0403545,1756,1604,19.6812,-33.034
539,-580,19.6971,32.2689,0,0,0,0,0,0,0,-1,1763,1604,19.6972,-32.2689
546,-580,19.3851,29.3604,0,0,0,0,0,0,0,-1,1770,1604,19.3851,-29.3604
553,-580,17.1749,26.6359,0,0,0,0,0,0,0,-1,1777,1604,17.1749,-26.6358
560,-580,18.9662,29.0388,0,0,0,0,0,0,0,-1,1784,1604,18.9661,-29.0389
567,-580,3.87708,4.0647,0,0,0,0,0,0,0,-1,1791,1604,3.87711,-4.06471
574,-580,2.31653,5.62952,0,0,0,0,0,0,0,-1,1798,1604,2.31654,-5.62947
581,-580,1.60876,6.67664,0,0,0,0,0,0,0,-1,1805,1604,1.60873,-6.67667
588,-580,1.38684,7.14441,0,0,0,0,0,0,0,-1,1812,1604,1.38689,-7.14443
595,-580,0,0,0,0,0,0,0,0,0,-1,1819,1604,0,0
602,-580,0,0,0,0,0,0,0,0,0,-1,1826,1604,0,0
609,-580,0,0,0,0,0,0,0,0,0,-1,1833,1604,0,0
616,-580,0,0,0,0,0,0,0,0,0,-1,1840,1604,0,0
623,-580,0,0,0,0,0,0,0,0,0,-1,1847,1604,0,0
630,-580,0,0,0,0,0,0,0,0,0,-1,1854,1604,0,0
637,-580,0,0,0,0,0,0,0,0,0,-1,1861,1604,0,0
644,-580,0,0,0,0,0,0,0,0,0,-1,1868,1604,0,0
651,-580,0,0,0,0,0,0,0,0,0,-1,1875,1604,0,0
658,-580,0,0,0,0,0,0,0,0,0,-1,1882,1604,0,0
665,-580,0,0,0,0,0,0,0,0,0,-1,1889,1604,0,0
672,-580,0,0,0,0,0,0,0,0,0,-1,1896,1604,0,0
679,-580,0,0,0,0,0,0,0,0,0,-1,1903,1604,0,0
686,-580,0,0,0,0,0,0,0,0,0,-1,1910,1604,0,0
693,-580,0,0,0,0,0,0,0,0,0,-1,1917,1604,0,0
700,-580,0,0,0,0,0,0,0,0,0,-1,1924,1604,0,0
707,-580,0,0,0,0,0,0,0,0,0,-1,1931,1604,0,0
714,-580,0,0,0,0,0,0,0,0,0,-1,1938,1604,0,0
721,-580,0,0,0,0,0,0,0,0,0,-1,1945,1604,0,0
728,-580,0,0,0,0,0,0,0,0,0,-1,1952,1604,0,0
735,-580,0,0,0,0,0,0,0,0,0,-1,1959,1604,0,0
742,-580,0,0,0,0,0,0,0,0,0,-1,1966,1604,0,0
749,-580,0,0,0,0,0,0,0,0,0,-1,1973,1604,0,0
756,-580,0,0,0,0,0,0,0,0,0,-1,1980,1604,0,0
763,-580,0,0,0,0,0,0,0,0,0,-1,1987,1604,0,0
770,-580,0,0,0,0,0,0,0,0,0,-1,1994,1604,0,0
777,-580,0,0,0,0,0,0,0,0,0,-1,2001,1604,0,0
784,-580,0,0,0,0,0,0,0,0,0,-1,2008,1604,0,0
791,-580,0,0,0,0,0,0,0,0,0,-1,2015,1604,0,0
798,-580,0,0,0,0,0,0,0,0,0,-1,2022,1604,0,0
805,-580,0,0,0,0,0,0,0,0,0,-1,2029,1604,0,0
812,-580,0,0,0,0,0,0,0,0,0,-1,2036,1604,0,0
-700,-587,0,0,0,0,0,0,0,0,0,-1,524,1611,0,0
-693,-587,0,0,0,0,0,0,0,0,0,-1,531,1611,0,0
-686,-587,0,0,0,0,0,0,0,0,0,-1,538,1611,0,0
-679,-587,0,0,0,0,0,0,0,0,0,-1,545,1611,0,0
-672,-587,0,0,0,0,0,0,0,0,0,-1,552,1611,0,0
-665,-587,0,0,0,0,0,0,0,0,0,-1,559,1611,0,0
-658,-587,0,0,0,0,0,0,0,0,0,-1,566,1611,0,0
-651,-587,0,0,0,0,0,0,0,0,0,-1,573,1611,0,0
-644,-587,0,0,0,0,0,0,0,0,0,-1,580,1611,0,0
-637,-587,0,0,0,0,0,0,0,0,0,-1,587,1611,0,0
-630,-587,0,0,0,0,0,0,0,0,0,-1,594,1611,0,0
-623,-587,0,0,0,0,0,0,0,0,0,-1,601,1611,0,0
-616,-587,0,0,0,0,0,0,0,0,0,-1,608,1611,0,0
-609,-587,0,0,0,0,0,0,0,0,0,-1,615,1611,0,0
-602,-587,0,0,0,0,0,0,0,0,0,-1,622,1611,0,0
-595,-587,0,0,0,0,0,0,0,0,0,-1,629,1611,0,0
-588,-587,0,0,0,0,0,0,0,0,0,-1,636,1611,0,0
-581,-587,0,0,0,0,0,0,0,0,0,-1,643,1611,0,0
-574,-587,0,0,0,0,0,0,0,0,0,-1,650,1611,0,0
-567,-587,0,0,0,0,0,0,0,0,0,-1,657,1611,0,0
-560,-587,0,0,0,0,0,0,0,0,0,-1,664,1611,0,0
-553,-587,0,0,0,0,0,0,0,0,0,-1,671,1611,0,0
-546,-587,0,0,0,0,0,0,0,0,0,-1,678,1611,0,0
-539,-587,0,0,0,0,0,0,0,0,0,-1,685,1611,0,0
-532,-587,0,0,0,0,0,0,0,0,0,-1,692,1611,0,0
-525,-587,0,0,0,0,0,0,0,0,0,-1,699,1611,0,0
-518,-587,0,0,0,0,0,0,0,0,0,-1,706,1611,0,0
-511,-587,0,0,0,0,0,0,0,0,0,-1,713,1611,0,0
-504,-587,0,0,0,0,0,0,0,0,0,-1,720,1611,0,0
-497,-587,0,0,0,0,0,0,0,0,0,-1,727,1611,0,0
-490,-587,0,0,0,0,0,0,0,0,0,-1,734,1611,0,0
-483,-587,0,0,0,0,0,0,0,0,0,-1,741,1611,0,0
-476,-587,0,0,0,0,0,0,0,0,0,-1,748,1611,0,0
-469,-587,0,0,0,0,0,0,0,0,0,-1,755,1611,0,0
-462,-587,-0.714355,-0.418457,0,0,0,0,0,0,0,-1,762,1611,-0.714359,0.418483
-455,-587,-0.619812,-0.522461,0,0,0,0,0,0,0,-1,769,1611,-0.619802,0.522515
-448,-587,-0.461731,-0.686523,0,0,0,0,0,0,0,-1,776,1611,-0.461739,0.686559
-441,-587,-3.56555,2.72253,0,0,0,0,0,0,0,-1,783,1611,-3.56555,-2.72259
-434,-587,-1.77319,4.76318,0,0,0,0,0,0,0,-1,790,1611,-1.77318,-4.76323
-427,-587,0.0346069,6.92944,0,0,0,0,0,0,0,-1,797,1611,0.034587,-6.92941
-420,-587,-0.647156,10.1157,0,0,0,0,0,0,0,-1,804,1611,-0.647128,-10.1158
-413,-587,2.13971,10.3901,0,0,0,0,0,0,0,-1,811,1611,2.13971,-10.3902
-406,-587,2.2525,19.7814,0,0,0,0,0,0,0,-1,818,1611,2.25253,-19.7814
-399,-587,-0.808594,32.9974,0,0,0,0,0,0,0,-1,825,1611,-0.808572,-32.9974
-392,-587,-0.845337,33.725,0,0,0,0,0,0,0,-1,832,1611,-0.845355,-33.7249
-385,-587,-0.829712,34.5353,-0.000933779,-0.00205142,0.00143478,4.71649e-05,-0.00303237,0.599695,0.00203748,0.0293687,839,1611,-0.829735,-34.5353
-378,-587,-0.8125,35.3558,-0.000351138,-0.00138249,0.00162113,0.000834359,-0.00256798,0.631411,0.00204758,0.0150136,846,1611,-0.812479,-35.3559
-371,-587,-0.858093,36.1055,-4.52485e-05,-0.00107584,0.00142889,0.000958423,-0.00207951,0.612344,0.00179332,0.0148845,853,1611,-0.858076,-36.1054
-364,-587,-0.891418,36.8099,0.000343507,-0.000684909,0.00132264,0.00124837,-0.00158978,0.600002,0.00164255,0.0184061,860,1611,-0.891447,-36.81
-357,-587,-0.922607,37.464,0.000877724,-0.000172155,0.00129407,0.00174927,-0.0010437,0.592714,0.00162958,0.0175248,867,1611,-0.922612,-37.464
-350,-587,-0.960999,38.2327,0.00148362,0.00034067,0.00132029,0.00235081,-0.000526523,0.581153,0.00176903,0.0103291,874,1611,-0.961025,-38.2327
-343,-587,-1.00073,38.9462,0.00205076,0.000933339,0.00140892,0.00300771,-2.36029e-05,0.596632,0.00201305,0.0133948,881,1611,-1.00076,-38.9462
-336,-587,-1.03247,39.6288,0.00271796,0.00174399,0.00167923,0.00397939,0.00048255,0.644267,0.0025076,0.0141832,888,1611,-1.03244,-39.6288
-329,-587,-1.05316,40.3292,0.00358574,0.00313152,0.00227724,0.00564716,0.00107009,0.735698,0.00346363,0.0159127,895,1611,-1.05318,-40.3292
-322,-587,-1.0589,41.0323,0.00459878,0.00526445,0.00324732,0.00819595,0.00166728,0.836467,0.00500171,0.0174619,902,1611,-1.05888,-41.0324
-315,-587,-1.08386,41.7024,0.00570003,0.00735059,0.0042445,0.0108493,0.00220132,0.881418,0.0066222,0.0147169,909,1611,-1.08386,-41.7023
-308,-587,-1.09698,42.4121,0.00736333,0.00951159,0.00554588,0.0140864,0.00278852,0.881054,0.00861323,0.0159108,916,1611,-1.09696,-42.4121
-301,-587,-1.05365,43.1287,0.00976924,0.0121539,0.00741342,0.0184702,0.00345286,0.865131,0.0113391,0.0167386,923,1611,-1.05363,-43.1286
-294,-587,-0.995605,43.8667,0.0124599,0.0151182,0.00965689,0.023537,0.00404114,0.853787,0.0145328,0.0231028,930,1611,-0.99559,-43.8667
-287,-587,-1.02063,44.6212,0.0158783,0.0187323,0.0122844,0.0296723,0.00493832,0.843221,0.0183582,0.0334883,937,1611,-1.02065,-44.6212
-280,-587,-0.817993,45.6578,0.0200867,0.0225078,0.0153832,0.0367281,0.00586646,0.824665,0.022783,0.0411452,944,1611,-0.818016,-45.6578
-273,-587,-0.627319,46.6188,0.0248464,0.026392,0.0187179,0.044353,0.0068854,0.80603,0.0275617,0.040443,951,1611,-0.627306,-46.6188
-266,-587,-0.45575,47.3091,0,0,0,0,0,0,0,-1,958,1611,-0.455779,-47.3091
-259,-587,-0.355896,47.1545,0,0,0,0,0,0,0,-1,965,1611,-0.355899,-47.1545
-252,-587,1.30188,10.3103,0,0,0,0,0,0,0,-1,972,1611,1.30188,-10.3104
-245,-587,1.52075,27.4791,0,0,0,0,0,0,0,-1,979,1611,1.52076,-27.4791
-238,-587,2.87799,9.53821,0,0,0,0,0,0,0,-1,986,1611,2.87797,-9.53823
-231,-587,2.49548,9.14465,0,0,0,0,0,0,0,-1,993,1611,2.49551,-9.14468
-224,-587,-9.72528,9.21069,0,0,0,0,0,0,0,-1,1000,1611,-9.72529,-9.21072
-217,-587,-7.07495,10.7847,0,0,0,0,0,0,0,-1,1007,1611,-7.07495,-10.7847
-210,-587,-4.72308,12.5889,0,0,0,0,0,0,0,-1,1014,1611,-4.72307,-12.5888
-203,-587,-3.2583,13.7289,0,0,0,0,0,0,0,-1,1021,1611,-3.25828,-13.7289
-196,-587,-1.953,14.8145,0,0,0,0,0,0,0,-1,1028,1611,-1.95302,-14.8144
-189,-587,-3.04138,8.66638,0,0,0,0,0,0,0,-1,1035,1611,-3.04136,-8.66635
-182,-587,-3.97095,9.7146,0,0,0,0,0,0,0,-1,1042,1611,-3.97093,-9.71461
-175,-587,-4.80969,8.37878,0,0,0,0,0,0,0,-1,1049,1611,-4.80964,-8.37883
-168,-587,-5.91394,8.72546,0,0,0,0,0,0,0,-1,1056,1611,-5.91398,-8.72542
-161,-587,-7.06946,8.88501,0,0,0,0,0,0,0,-1,1063,1611,-7.06947,-8.885
-154,-587,-2.24731,6.56519,0,0,0,0,0,0,0,-1,1070,1611,-2.24728,-6.56517
-147,-587,0,0,0,0,0,0,0,0,0,-1,1077,1611,0,0
-140,-587,0,0,0,0,0,0,0,0,0,-1,1084,1611,0,0
-133,-587,0,0,0,0,0,0,0,0,0,-1,1091,1611,0,0
-126,-587,0,0,0,0,0,0,0,0,0,-1,1098,1611,0,0
-119,-587,0,0,0,0,0,0,0,0,0,-1,1105,1611,0,0
-112,-587,0,0,0,0,0,0,0,0,0,-1,1112,1611,0,0
-105,-587,0,0,0,0,0,0,0,0,0,-1,1119,1611,0,0
-98,-587,0,0,0,0,0,0,0,0,0,-1,1126,1611,0,0
-91,-587,0,0,0,0,0,0,0,0,0,-1,1133,1611,0,0
-84,-587,0,0,0,0,0,0,0,0,0,-1,1140,1611,0,0
-77,-587,0,0,0,0,0,0,0,0,0,-1,1147,1611,0,0
-70,-587,0,0,0,0,0,0,0,0,0,-1,1154,1611,0,0
-63,-587,0,0,0,0,0,0,0,0,0,-1,1161,1611,0,0
-56,-587,0,0,0,0,0,0,0,0,0,-1,1168,1611,0,0
-49,-587,0,0,0,0,0,0,0,0,0,-1,1175,1611,0,0
-42,-587,0,0,0,0,0,0,0,0,0,-1,1182,1611,0,0
-35,-587,0,0,0,0,0,0,0,0,0,-1,1189,1611,0,0
-28,-587,0,0,0,0,0,0,0,0,0,-1,1196,1611,0,0
-21,-587,0,0,0,0,0,0,0,0,0,-1,1203,1611,0,0
-14,-587,0,0,0,0,0,0,0,0,0,-1,1210,1611,0,0
-7,-587,0,0,0,0,0,0,0,0,0,-1,1217,1611,0,0
0,-587,0,0,0,0,0,0,0,0,0,-1,1224,1611,0,0
7,-587,0,0,0,0,0,0,0,0,0,-1,1231,1611,0,0
14,-587,0,0,0,0,0,0,0,0,0,-1,1238,1611,0,0
21,-587,0,0,0,0,0,0,0,0,0,-1,1245,1611,0,0
28,-587,0,0,0,0,0,0,0,0,0,-1,1252,1611,0,0
35,-587,0,0,0,0,0,0,0,0,0,-1,1259,1611,0,0
42,-587,0,0,0,0,0,0,0,0,0,-1,1266,1611,0,0
49,-587,0,0,0,0,0,0,0,0,0,-1,1273,1611,0,0
56,-587,0,0,0,0,0,0,0,0,0,-1,1280,1611,0,0
63,-587,0,0,0,0,0,0,0,0,0,-1,1287,1611,0,0
70,-587,0,0,0,0,0,0,0,0,0,-1,1294,1611,0,0
77,-587,0,0,0,0,0,0,0,0,0,-1,1301,1611,0,0
84,-587,0,0,0,0,0,0,0,0,0,-1,1308,1611,0,0
91,-587,0,0,0,0,0,0,0,0,0,-1,1315,1611,0,0
98,-587,0,0,0,0,0,0,0,0,0,-1,1322,1611,0,0
105,-587,0,0,0,0,0,0,0,0,0,-1,1329,1611,0,0
112,-587,0,0,0,0,0,0,0,0,0,-1,1336,1611,0,0
119,-587,0,0,0,0,0,0,0,0,0,-1,1343,1611,0,0
126,-587,0,0,0,0,0,0,0,0,0,-1,1350,1611,0,0
133,-587,0,0,0,0,0,0,0,0,0,-1,1357,1611,0,0
140,-587,0,0,0,0,0,0,0,0,0,-1,1364,1611,0,0
147,-587,0,0,0,0,0,0,0,0,0,-1,1371,1611,0,0
154,-587,0,0,0,0,0,0,0,0,0,-1,1378,1611,0,0
161,-587,0,0,0,0,0,0,0,0,0,-1,1385,1611,0,0
168,-587,0,0,0,0,0,0,0,0,0,-1,1392,1611,0,0
175,-587,0,0,0,0,0,0,0,0,0,-1,1399,1611,0,0
182,-587,0,0,0,0,0,0,0,0,0,-1,1406,1611,0,0
189,-587,0,0,0,0,0,0,0,0,0,-1,1413,1611,0,0
196,-587,0,0,0,0,0,0,0,0,0,-1,1420,1611,0,0
203,-587,0,0,0,0,0,0,0,0,0,-1,1427,1611,0,0
210,-587,0,0,0,0,0,0,0,0,0,-1,1434,1611,0,0
217,-587,0,0,0,0,0,0,0,0,0,-1,1441,1611,0,0
224,-587,0,0,0,0,0,0,0,0,0,-1,1448,1611,0,0
231,-587,0,0,0,0,0,0,0,0,0,-1,1455,1611,0,0
238,-587,0,0,0,0,0,0,0,0,0,-1,1462,1611,0,0
245,-587,0,0,0,0,0,0,0,0,0,-1,1469,1611,0,0
252,-587,0,0,0,0,0,0,0,0,0,-1,1476,1611,0,0
259,-587,0,0,0,0,0,0,0,0,0,-1,1483,1611,0,0
266,-587,0,0,0,0,0,0,0,0,0,-1,1490,1611,0,0
273,-587,10.2936,6.35083,0,0,0,0,0,0,0,-1,1497,1611,10.2936,-6.35087
280,-587,2.09204,1.1217,0,0,0,0,0,0,0,-1,1504,1611,2.092,-1.12176
287,-587,3.2865,0.671509,0,0,0,0,0,0,0,-1,1511,1611,3.28656,-0.671538
294,-587,4.24646,1.58765,0,0,0,0,0,0,0,-1,1518,1611,4.24648,-1.58761
301,-587,7.60474,8.37085,0,0,0,0,0,0,0,-1,1525,1611,7.60478,-8.37084
308,-587,5.99316,10.2291,0,0,0,0,0,0,0,-1,1532,1611,5.99315,-10.2291
315,-587,4.34558,12.3289,0,0,0,0,0,0,0,-1,1539,1611,4.34556,-12.3288
322,-587,10.4526,6.38245,0,0,0,0,0,0,0,-1,1546,1611,10.4526,-6.38245
329,-587,10.7738,8.42444,0,0,0,0,0,0,0,-1,1553,1611,10.7738,-8.42438
336,-587,7.5531,5.96619,0,0,0,0,0,0,0,-1,1560,1611,7.55311,-5.96617
343,-587,9.57495,4.38391,0,0,0,0,0,0,0,-1,1567,1611,9.57494,-4.38397
350,-587,9.50378,3.45093,0,0,0,0,0,0,0,-1,1574,1611,9.50376,-3.4509
357,-587,9.40027,2.50806,0,0,0,0,0,0,0,-1,1581,1611,9.40022,-2.50803
364,-587,9.26477,1.34131,0,0,0,0,0,0,0,-1,1588,1611,9.26479,-1.34126
371,-587,6.98926,7.87561,0,0,0,0,0,0,0,-1,1595,1611,6.98928,-7.87564
378,-587,16.6918,48.3695,0,0,0,0,0,0,0,-1,1602,1611,16.6918,-48.3695
385,-587,17.5338,47.4751,0.0720181,0.0274259,-0.0295813,0.0867648,0.0126792,-0.462459,0.0541142,0.0447338,1609,1611,17.5339,-47.475
392,-587,18.3141,46.6538,0.0596873,0.0244774,-0.0243128,0.0720998,0.0120649,-0.472039,0.0445923,0.0473647,1616,1611,18.3141,-46.6538
399,-587,19.5497,46.3713,0,0,0,0,0,0,0,-1,1623,1611,19.5497,-46.3713
406,-587,19.5535,45.6899,0.0376707,0.0213836,-0.0164306,0.0478651,0.0111892,-0.555323,0.0289114,0.0431554,1630,1611,19.5534,-45.6899
413,-587,19.5397,44.9247,0.0287745,0.0204556,-0.0139342,0.0391568,0.0100733,-0.640354,0.0234785,0.0345266,1637,1611,19.5396,-44.9246
420,-587,19.438,44.1248,0.0213578,0.0189747,-0.0117384,0.031965,0.0083675,-0.734817,0.0191405,0.0329504,1644,1611,19.4379,-44.1248
427,-587,19.4191,43.4783,0.0156934,0.0173337,-0.0098893,0.0264368,0.00659027,-0.826771,0.01589,0.0272921,1651,1611,19.419,-43.4783
434,-587,19.4431,42.6552,0.0113678,0.0151184,-0.00827704,0.0217299,0.00475626,-0.8968,0.0131902,0.02085,1658,1611,19.4432,-42.6552
441,-587,19.4248,41.918,0.00727157,0.0135531,-0.00641477,0.0175547,0.00326996,-1.01305,0.0107798,0.0240087,1665,1611,19.4248,-41.9179
448,-587,19.424,41.3625,0.00438034,0.0119824,-0.00544135,0.0148189,0.0015439,-1.09027,0.00940693,0.0169176,1672,1611,19.424,-41.3625
455,-587,19.4181,40.707,0.00326603,0.0101288,-0.0049983,0.0127602,0.000634633,-1.08621,0.00830337,0.016244,1679,1611,19.4181,-40.707
462,-587,19.3966,40.0264,0.00306085,0.00792821,-0.00446544,0.0105801,0.000408972,-1.0349,0.0069211,0.0207345,1686,1611,19.3967,-40.0263
469,-587,19.344,39.3578,0.00285803,0.00596445,-0.00382682,0.00854125,0.000281221,-0.978179,0.00560278,0.0179553,1693,1611,19.344,-39.3578
476,-587,19.3051,38.6826,0.00245211,0.00436879,-0.00314858,0.00670165,0.000119252,-0.933129,0.00442855,0.0111648,1700,1611,19.3051,-38.6826
483,-587,19.2504,37.9937,0.00187814,0.00284504,-0.0024738,0.00488219,-0.000159006,-0.881896,0.00330907,0.0135304,1707,1611,19.2504,-37.9936
490,-587,19.2277,37.2902,0.00124015,0.00146408,-0.00186032,0.00321579,-0.000511569,-0.815456,0.00233316,0.0168662,1714,1611,19.2277,-37.2902
497,-587,19.2114,36.5929,0.000460329,0.00053649,-0.00136766,0.00186659,-0.000869776,-0.799316,0.00161441,0.0136129,1721,1611,19.2114,-36.5929
504,-587,19.1608,35.9247,-0.000379134,-0.000304245,-0.00093927,0.000598327,-0.00128171,-0.805321,0.00110908,0.0131555,1728,1611,19.1608,-35.9247
511,-587,19.1215,35.2665,-0.00124527,-0.000852283,-0.00059812,-0.000419207,-0.00167834,-0.944102,0.00100863,0.016595,1735,1611,19.1214,-35.2665
518,-587,19.1163,34.5551,-0.0021043,-0.00105738,-0.000428534,-0.00090434,-0.00225734,-1.22779,0.00131183,0.0165564,1742,1611,19.1164,-34.5551
525,-587,19.1184,33.8517,-0.00298956,-0.00137774,-0.000168103,-0.00136039,-0.00300691,-1.46798,0.00173866,0.0239209,1749,1611,19.1184,-33.8517
532,-587,19.132,33.1578,0,0,0,0,0,0,0,-1,1756,1611,19.1319,-33.1578
539,-587,19.85,32.5977,0,0,0,0,0,0,0,-1,1763,1611,19.8499,-32.5977
546,-587,17.6716,25.2673,0,0,0,0,0,0,0,-1,1770,1611,17.6716,-25.2674
553,-587,7.5813,8.45068,0,0,0,0,0,0,0,-1,1777,1611,7.58125,-8.45068
560,-587,4.21179,5.23547,0,0,0,0,0,0,0,-1,1784,1611,4.21185,-5.23553
567,-587,4.03711,5.46387,0,0,0,0,0,0,0,-1,1791,1611,4.03715,-5.46382
574,-587,3.83142,5.68884,0,0,0,0,0,0,0,-1,1798,1611,3.83141,-5.68881
581,-587,3.47168,6.00977,0,0,0,0,0,0,0,-1,1805,1611,3.47167,-6.00983
588,-587,0,0,0,0,0,0,0,0,0,-1,1812,1611,0,0
595,-587,0,0,0,0,0,0,0,0,0,-1,1819,1611,0,0
602,-587,0,0,0,0,0,0,0,0,0,-1,1826,1611,0,0
609,-587,0,0,0,0,0,0,0,0,0,-1,1833,1611,0,0
616,-587,0,0,0,0,0,0,0,0,0,-1,1840,1611,0,0
623,-587,0,0,0,0,0,0,0,0,0,-1,1847,1611,0,0
630,-587,0,0,0,0,0,0,0,0,0,-1,1854,1611,0,0
637,-587,0,0,0,0,0,0,0,0,0,-1,1861,1611,0,0
644,-587,0,0,0,0,0,0,0,0,0,-1,1868,1611,0,0
651,-587,0,0,0,0,0,0,0,0,0,-1,1875,1611,0,0
658,-587,0,0,0,0,0,0,0,0,0,-1,1882,1611,0,0
665,-587,0,0,0,0,0,0,0,0,0,-1,1889,1611,0,0
672,-587,0,0,0,0,0,0,0,0,0,-1,1896,1611,0,0
679,-587,0,0,0,0,0,0,0,0,0,-1,1903,1611,0,0
686,-587,0,0,0,0,0,0,0,0,0,-1,1910,1611,0,0
693,-587,0,0,0,0,0,0,0,0,0,-1,1917,1611,0,0
700,-587,0,0,0,0,0,0,0,0,0,-1,1924,1611,0,0
707,-587,0,0,0,0,0,0,0,0,0,-1,1931,1611,0,0
714,-587,0,0,0,0,0,0,0,0,0,-1,1938,1611,0,0
721,-587,0,0,0,0,0,0,0,0,0,-1,1945,1611,0,0
728,-587,0,0,0,0,0,0,0,0,0,-1,1952,1611,0,0
735,-587,0,0,0,0,0,0,0,0,0,-1,1959,1611,0,0
742,-587,0,0,0,0,0,0,0,0,0,-1,1966,1611,0,0
749,-587,0,0,0,0,0,0,0,0,0,-1,1973,1611,0,0
756,-587,0,0,0,0,0,0,0,0,0,-1,1980,1611,0,0
763,-587,0,0,0,0,0,0,0,0,0,-1,1987,1611,0,0
770,-587,0,0,0,0,0,0,0,0,0,-1,1994,1611,0,0
777,-587,0,0,0,0,0,0,0,0,0,-1,2001,1611,0,0
784,-587,0,0,0,0,0,0,0,0,0,-1,2008,1611,0,0
791,-587,0,0,0,0,0,0,0,0,0,-1,2015,1611,0,0
798,-587,0,0,0,0,0,0,0,0,0,-1,2022,1611,0,0
805,-587,0,0,0,0,0,0,0,0,0,-1,2029,1611,0,0
812,-587,0,0,0,0,0,0,0,0,0,-1,2036,1611,0,0
-700,-594,0,0,0,0,0,0,0,0,0,-1,524,1618,0,0
-693,-594,0,0,0,0,0,0,0,0,0,-1,531,1618,0,0
-686,-594,0,0,0,0,0,0,0,0,0,-1,538,1618,0,0
-679,-594,0,0,0,0,0,0,0,0,0,-1,545,1618,0,0
-672,-594,0,0,0,0,0,0,0,0,0,-1,552,1618,0,0
-665,-594,0,0,0,0,0,0,0,0,0,-1,559,1618,0,0
-658,-594,0,0,0,0,0,0,0,0,0,-1,566,1618,0,0
-651,-594,0,0,0,0,0,0,0,0,0,-1,573,1618,0,0
-644,-594,0,0,0,0,0,0,0,0,0,-1,580,1618,0,0
-637,-594,0,0,0,0,0,0,0,0,0,-1,587,1618,0,0
-630,-594,0,0,0,0,0,0,0,0,0,-1,594,1618,0,0
-623,-594,0,0,0,0,0,0,0,0,0,-1,601,1618,0,0
-616,-594,0,0,0,0,0,0,0,0,0,-1,608,1618,0,0
-609,-594,0,0,0,0,0,0,0,0,0,-1,615,1618,0,0
-602,-594,0,0,0,0,0,0,0,0,0,-1,622,1618,0,0
-595,-594,0,0,0,0,0,0,0,0,0,-1,629,1618,0,0
-588,-594,0,0,0,0,0,0,0,0,0,-1,636,1618,0,0
-581,-594,0,0,0,0,0,0,0,0,0,-1,643,1618,0,0
-574,-594,0,0,0,0,0,0,0,0,0,-1,650,1618,0,0
-567,-594,0,0,0,0,0,0,0,0,0,-1,657,1618,0,0
-560,-594,0,0,0,0,0,0,0,0,0,-1,664,1618,0,0
-553,-594,0,0,0,0,0,0,0,0,0,-1,671,1618,0,0
-546,-594,0,0,0,0,0,0,0,0,0,-1,678,1618,0,0
-539,-594,0,0,0,0,0,0,0,0,0,-1,685,1618,0,0
-532,-594,0,0,0,0,0,0,0,0,0,-1,692,1618,0,0
-525,-594,0,0,0,0,0,0,0,0,0,-1,699,1618,0,0
-518,-594,0,0,0,0,0,0,0,0,0,-1,706,1618,0,0
-511,-594,0,0,0,0,0,0,0,0,0,-1,713,1618,0,0
-504,-594,0,0,0,0,0,0,0,0,0,-1,720,1618,0,0
-497,-594,0,0,0,0,0,0,0,0,0,-1,727,1618,0,0
-490,-594,0,0,0,0,0,0,0,0,0,-1,734,1618,0,0
-483,-594,0,0,0,0,0,0,0,0,0,-1,741,1618,0,0
-476,-594,0,0,0,0,0,0,0,0,0,-1,748,1618,0,0
-469,-594,0,0,0,0,0,0,0,0,0,-1,755,1618,0,0
-462,-594,0,0,0,0,0,0,0,0,0,-1,762,1618,0,0
-455,-594,-0.509216,-1.58411,0,0,0,0,0,0,0,-1,769,1618,-0.509245,1.58415
-448,-594,-7.71887,-0.0559082,0,0,0,0,0,0,0,-1,776,1618,-7.71885,0.055939
-441,-594,-5.78473,1.18298,0,0,0,0,0,0,0,-1,783,1618,-5.78474,-1.18295
-434,-594,-3.93628,3.06213,0,0,0,0,0,0,0,-1,790,1618,-3.93631,-3.06208
-427,-594,-3.97693,6.77759,0,0,0,0,0,0,0,-1,797,1618,-3.97695,-6.77764
-420,-594,-2.53046,7.71606,0,0,0,0,0,0,0,-1,804,1618,-2.53047,-7.71609
-413,-594,-0.860413,8.00391,0,0,0,0,0,0,0,-1,811,1618,-0.860423,-8.00389
-406,-594,2.45746,13.6218,0,0,0,0,0,0,0,-1,818,1618,2.45747,-13.6218
-399,-594,1.30414,24.9963,0,0,0,0,0,0,0,-1,825,1618,1.30415,-24.9963
-392,-594,0.0477905,34.2775,0,0,0,0,0,0,0,-1,832,1618,0.0478003,-34.2774
-385,-594,-0.0474243,34.848,-0.000946008,-0.00311932,0.00171553,-1.93436e-06,-0.00406339,0.503082,0.00270828,0.0457584,839,1618,-0.0474416,-34.8481
-378,-594,-0.173157,35.3591,-0.00029926,-0.0022683,0.00188784,0.000845356,-0.00341292,0.545046,0.00260322,0.0198198,846,1618,-0.173183,-35.3592
-371,-594,-0.138977,36.1212,-2.52162e-05,-0.00190099,0.0016348,0.000921628,-0.00284784,0.524969,0.00226904,0.0131486,853,1618,-0.138996,-36.1212
-364,-594,-0.16687,36.8276,0.000291192,-0.00154483,0.00144046,0.0010813,-0.00233493,0.501699,0.00201615,0.0113531,860,1618,-0.166845,-36.8276
-357,-594,-0.201721,37.5454,0.000769159,-0.00107639,0.00133832,0.00147199,-0.00177922,0.483575,0.00187988,0.0111713,867,1618,-0.201746,-37.5454
-350,-594,-0.255554,38.3079,0.0012949,-0.000593653,0.00129689,0.00195486,-0.00125361,0.470726,0.0018671,0.0167428,874,1618,-0.255566,-38.3078
-343,-594,-0.311829,39.0206,0.00178123,1.83236e-05,0.00133246,0.00249741,-0.000697849,0.493181,0.00193986,0.0189318,881,1618,-0.31181,-39.0206
-336,-594,-0.373535,39.6887,0.00229585,0.000771013,0.0014954,0.00321197,-0.000145109,0.549653,0.00219128,0.0161207,888,1618,-0.373565,-39.6887
-329,-594,-0.37793,40.3855,0.00294536,0.00199822,0.00192669,0.00445582,0.000487755,0.66489,0.00282205,0.0150632,895,1618,-0.377942,-40.3854
-322,-594,-0.363525,41.0621,0.00368582,0.00374087,0.00262833,0.00634182,0.00108487,0.790634,0.00391666,0.0155547,902,1618,-0.363507,-41.0621
-315,-594,-0.369751,41.7316,0.00450894,0.00545566,0.00336937,0.00838476,0.00157984,0.855187,0.00514473,0.0170734,909,1618,-0.369721,-41.7316
-308,-594,-0.394897,42.4396,0.00584732,0.00721104,0.00435683,0.010939,0.00211931,0.86302,0.00669895,0.0165802,916,1618,-0.394922,-42.4395
-301,-594,-0.428894,43.1044,0.00780993,0.00932338,0.00579904,0.0144149,0.00271845,0.850277,0.00884413,0.0133011,923,1618,-0.428921,-43.1043
-294,-594,-0.409241,43.7684,0.0100014,0.0116102,0.00752237,0.0183711,0.00324053,0.838665,0.0113228,0.0139508,930,1618,-0.409224,-43.7685
-287,-594,-0.476685,44.4244,0.0126782,0.0143087,0.0094748,0.0230033,0.00398364,0.828314,0.0141952,0.0201373,937,1618,-0.476656,-44.4244
-280,-594,-0.400391,45.1335,0.0160669,0.0170214,0.0117852,0.028339,0.00474931,0.805633,0.0175254,0.02216,944,1618,-0.400379,-45.1336
-273,-594,-0.2854,45.9236,0.0199214,0.0197378,0.0142861,0.034116,0.00554322,0.782185,0.0211399,0.0288394,951,1618,-0.285413,-45.9236
-266,-594,-0.208923,46.6379,0.0242121,0.0221872,0.016893,0.0401229,0.00627638,0.755469,0.0249213,0.0365403,958,1618,-0.208952,-46.6379
-259,-594,0.0337524,47.075,0.0289735,0.0240309,0.019605,0.0462623,0.00674208,0.722701,0.0288579,0.0477114,965,1618,0.0337322,-47.0749
-252,-594,0.208557,47.3574,0,0,0,0,0,0,0,-1,972,1618,0.20854,-47.3574
-245,-594,2.27759,35.1766,0,0,0,0,0,0,0,-1,979,1618,2.27756,-35.1766
-238,-594,2.09015,28.0121,0,0,0,0,0,0,0,-1,986,1618,2.09012,-28.0121
-231,-594,1.93774,9.35388,0,0,0,0,0,0,0,-1,993,1618,1.93776,-9.35393
-224,-594,1.81824,8.62744,0,0,0,0,0,0,0,-1,1000,1618,1.81822,-8.62745
-217,-594,-8.24066,12.0752,0,0,0,0,0,0,0,-1,1007,1618,-8.24068,-12.0751
-210,-594,-5.61438,14.2119,0,0,0,0,0,0,0,-1,1014,1618,-5.6144,-14.212
-203,-594,-3.94507,15.5768,0,0,0,0,0,0,0,-1,1021,1618,-3.94506,-15.5768
-196,-594,2.78613,10.5815,0,0,0,0,0,0,0,-1,1028,1618,2.78612,-10.5815
-189,-594,2.60913,9.48865,0,0,0,0,0,0,0,-1,1035,1618,2.6091,-9.48871
-182,-594,1.2395,9.38806,0,0,0,0,0,0,0,-1,1042,1618,1.23951,-9.38804
-175,-594,0.234863,8.73792,0,0,0,0,0,0,0,-1,1049,1618,0.234812,-8.73786
-168,-594,-0.495483,8.46289,0,0,0,0,0,0,0,-1,1056,1618,-0.495513,-8.46285
-161,-594,-1.39734,8.28699,0,0,0,0,0,0,0,-1,1063,1618,-1.39729,-8.28699
-154,-594,-0.000854492,7.68445,0,0,0,0,0,0,0,-1,1070,1618,-0.000805755,-7.6845
-147,-594,0.348267,9.3385,0,0,0,0,0,0,0,-1,1077,1618,0.348237,-9.33849
-140,-594,0.675171,11.5884,0,0,0,0,0,0,0,-1,1084,1618,0.675204,-11.5884
-133,-594,0,0,0,0,0,0,0,0,0,-1,1091,1618,0,0
-126,-594,0,0,0,0,0,0,0,0,0,-1,1098,1618,0,0
-119,-594,0,0,0,0,0,0,0,0,0,-1,1105,1618,0,0
-112,-594,0,0,0,0,0,0,0,0,0,-1,1112,1618,0,0
-105,-594,0,0,0,0,0,0,0,0,0,-1,1119,1618,0,0
-98,-594,0,0,0,0,0,0,0,0,0,-1,1126,1618,0,0
-91,-594,0,0,0,0,0,0,0,0,0,-1,1133,1618,0,0
-84,-594,0,0,0,0,0,0,0,0,0,-1,1140,1618,0,0
-77,-594,0,0,0,0,0,0,0,0,0,-1,1147,1618,0,0
-70,-594,0,0,0,0,0,0,0,0,0,-1,1154,1618,0,0
-63,-594,0,0,0,0,0,0,0,0,0,-1,1161,1618,0,0
-56,-594,0,0,0,0,0,0,0,0,0,-1,1168,1618,0,0
-49,-594,0,0,0,0,0,0,0,0,0,-1,1175,1618,0,0
-42,-594,0,0,0,0,0,0,0,0,0,-1,1182,1618,0,0
-35,-594,0,0,0,0,0,0,0,0,0,-1,1189,1618,0,0
-28,-594,0,0,0,0,0,0,0,0,0,-1,1196,1618,0,0
-21,-594,0,0,0,0,0,0,0,0,0,-1,1203,1618,0,0
-14,-594,0,0,0,0,0,0,0,0,0,-1,1210,1618,0,0
-7,-594,0,0,0,0,0,0,0,0,0,-1,1217,1618,0,0
0,-594,0,0,0,0,0,0,0,0,0,-1,1224,1618,0,0
7,-594,0,0,0,0,0,0,0,0,0,-1,1231,1618,0,0
14,-594,0,0,0,0,0,0,0,0,0,-1,1238,1618,0,0
21,-594,0,0,0,0,0,0,0,0,0,-1,1245,1618,0,0
28,-594,0,0,0,0,0,0,0,0,0,-1,1252,1618,0,0
35,-594,0,0,0,0,0,0,0,0,0,-1,1259,1618,0,0
42,-594,0,0,0,0,0,0,0,0,0,-1,1266,1618,0,0
49,-594,0,0,0,0,0,0,0,0,0,-1,1273,1618,0,0
56,-594,0,0,0,0,0,0,0,0,0,-1,1280,1618,0,0
63,-594,0,0,0,0,0,0,0,0,0,-1,1287,1618,0,0
70,-594,0,0,0,0,0,0,0,0,0,-1,1294,1618,0,0
77,-594,0,0,0,0,0,0,0,0,0,-1,1301,1618,0,0
84,-594,0,0,0,0,0,0,0,0,0,-1,1308,1618,0,0
91,-594,0,0,0,0,0,0,0,0,0,-1,1315,1618,0,0
98,-594,0,0,0,0,0,0,0,0,0,-1,1322,1618,0,0
105,-594,0,0,0,0,0,0,0,0,0,-1,1329,1618,0,0
112,-594,0,0,0,0,0,0,0,0,0,-1,1336,1618,0,0
119,-594,0,0,0,0,0,0,0,0,0,-1,1343,1618,0,0
126,-594,0,0,0,0,0,0,0,0,0,-1,1350,1618,0,0
133,-594,0,0,0,0,0,0,0,0,0,-1,1357,1618,0,0
140,-594,0,0,0,0,0,0,0,0,0,-1,1364,1618,0,0
147,-594,0,0,0,0,0,0,0,0,0,-1,1371,1618,0,0
154,-594,0,0,0,0,0,0,0,0,0,-1,1378,1618,0,0
161,-594,0,0,0,0,0,0,0,0,0,-1,1385,1618,0,0
168,-594,0,0,0,0,0,0,0,0,0,-1,1392,1618,0,0
175,-594,0,0,0,0,0,0,0,0,0,-1,1399,1618,0,0
182,-594,0,0,0,0,0,0,0,0,0,-1,1406,1618,0,0
189,-594,0,0,0,0,0,0,0,0,0,-1,1413,1618,0,0
196,-594,0,0,0,0,0,0,0,0,0,-1,1420,1618,0,0
203,-594,0,0,0,0,0,0,0,0,0,-1,1427,1618,0,0
210,-594,0,0,0,0,0,0,0,0,0,-1,1434,1618,0,0
217,-594,0,0,0,0,0,0,0,0,0,-1,1441,1618,0,0
224,-594,0,0,0,0,0,0,0,0,0,-1,1448,1618,0,0
231,-594,0,0,0,0,0,0,0,0,0,-1,1455,1618,0,0
238,-594,0,0,0,0,0,0,0,0,0,-1,1462,1618,0,0
245,-594,0,0,0,0,0,0,0,0,0,-1,1469,1618,0,0
252,-594,3.03674,1.20996,0,0,0,0,0,0,0,-1,1476,1618,3.0368,-1.20999
259,-594,4.79834,1.53113,0,0,0,0,0,0,0,-1,1483,1618,4.79837,-1.53118
266,-594,3.71606,2.68152,0,0,0,0,0,0,0,-1,1490,1618,3.71609,-2.68149
273,-594,9.7655,6.33557,0,0,0,0,0,0,0,-1,1497,1618,9.76555,-6.33554
280,-594,3.13281,0.911255,0,0,0,0,0,0,0,-1,1504,1618,3.13277,-0.911207
287,-594,4.42749,1.51563,0,0,0,0,0,0,0,-1,1511,1618,4.42747,-1.51564
294,-594,5.36475,3.34937,0,0,0,0,0,0,0,-1,1518,1618,5.36475,-3.3494
301,-594,7.97144,9.04333,0,0,0,0,0,0,0,-1,1525,1618,7.9714,-9.04328
308,-594,6.30347,10.4633,0,0,0,0,0,0,0,-1,1532,1618,6.30351,-10.4633
315,-594,4.62012,11.934,0,0,0,0,0,0,0,-1,1539,1618,4.62006,-11.934
322,-594,2.91528,13.3134,0,0,0,0,0,0,0,-1,1546,1618,2.91523,-13.3133
329,-594,4.19861,9.77258,0,0,0,0,0,0,0,-1,1553,1618,4.19865,-9.77264
336,-594,10.1353,4.66528,0,0,0,0,0,0,0,-1,1560,1618,10.1353,-4.66533
343,-594,10.5729,3.71228,0,0,0,0,0,0,0,-1,1567,1618,10.5729,-3.71232
350,-594,10.219,2.98792,0,0,0,0,0,0,0,-1,1574,1618,10.219,-2.98797
357,-594,9.83154,1.96326,0,0,0,0,0,0,0,-1,1581,1618,9.8315,-1.96321
364,-594,9.74939,0.700562,0,0,0,0,0,0,0,-1,1588,1618,9.74939,-0.700615
371,-594,8.54297,14.3988,0,0,0,0,0,0,0,-1,1595,1618,8.54296,-14.3989
378,-594,18.3317,49.0369,0,0,0,0,0,0,0,-1,1602,1618,18.3317,-49.0368
385,-594,16.7797,47.4403,0.0538288,0.0242645,-0.0245215,0.067679,0.0104142,-0.514151,0.0420797,0.0480417,1609,1618,16.7796,-47.4404
392,-594,17.6733,46.6118,0.0450946,0.0211259,-0.0201705,0.0565724,0.00964805,-0.517345,0.0349458,0.0446654,1616,1618,17.6733,-46.6118
399,-594,18.7268,45.95,0.0366722,0.0190453,-0.0164624,0.0465319,0.0091856,-0.539629,0.0284579,0.0422004,1623,1618,18.7269,-45.95
406,-594,18.8517,45.4211,0.0290107,0.0171933,-0.0133966,0.0377438,0.00846024,-0.577701,0.0228702,0.0260893,1630,1618,18.8516,-45.4211
413,-594,18.8405,44.7665,0.0223055,0.0158054,-0.0110127,0.0305377,0.00757326,-0.641911,0.0183622,0.0179473,1637,1618,18.8404,-44.7664
420,-594,18.8218,44.1045,0.0166935,0.0143494,-0.00907741,0.0246742,0.00636865,-0.721195,0.0147909,0.0159353,1644,1618,18.8218,-44.1045
427,-594,18.8358,43.4301,0.012252,0.0128586,-0.00748812,0.0200495,0.00506102,-0.805641,0.0120393,0.0139039,1651,1618,18.8358,-43.43
434,-594,18.7883,42.7723,0.00882229,0.0110355,-0.00618099,0.0162082,0.00364963,-0.873977,0.00981769,0.0190229,1658,1618,18.7883,-42.7724
441,-594,18.7448,42.0734,0.00564969,0.00978708,-0.00473382,0.0128845,0.00255229,-0.991395,0.00787793,0.0174986,1665,1618,18.7448,-42.0734
448,-594,18.7684,41.4028,0.00342809,0.00858379,-0.00403282,0.0107923,0.00121962,-1.06978,0.00682473,0.0174151,1672,1618,18.7684,-41.4028
455,-594,18.7086,40.7196,0.00256201,0.00716531,-0.00379952,0.00930595,0.000421364,-1.05773,0.00606839,0.0128338,1679,1618,18.7086,-40.7196
462,-594,18.6749,40.0521,0.00242928,0.00541727,-0.0034846,0.00771465,0.000131905,-0.987916,0.0050997,0.0146872,1686,1618,18.675,-40.0521
469,-594,18.6517,39.4071,0.0022757,0.00380068,-0.00308106,0.00621219,-0.000135822,-0.906699,0.00418747,0.0130434,1693,1618,18.6517,-39.4071
476,-594,18.6228,38.7295,0.00193887,0.00256758,-0.00262764,0.00489961,-0.000393156,-0.844932,0.00340503,0.012443,1700,1618,18.6228,-38.7295
483,-594,18.5881,38.0465,0.00144751,0.00132719,-0.0021709,0.00355908,-0.000784382,-0.771546,0.00267283,0.0152692,1707,1618,18.5881,-38.0465
490,-594,18.5475,37.3317,0.000830472,0.000279233,-0.00175906,0.00233538,-0.00122567,-0.707687,0.00208898,0.0138958,1714,1618,18.5475,-37.3316
497,-594,18.5311,36.6136,9.24152e-05,-0.00046164,-0.00144821,0.00128986,-0.00165908,-0.690895,0.00170701,0.0108294,1721,1618,18.5312,-36.6137
504,-594,18.4861,35.9211,-0.000692037,-0.00106374,-0.00118986,0.000326401,-0.00208218,-0.707926,0.00150874,0.0112726,1728,1618,18.4861,-35.9212
511,-594,18.4595,35.2177,-0.00157149,-0.00145041,-0.000960156,-0.000548885,-0.00247301,-0.816884,0.00149958,0.0180472,1735,1618,18.4595,-35.2176
518,-594,18.3813,34.5018,-0.00257012,-0.00143559,-0.00084522,-0.000984921,-0.00302079,-1.08095,0.00177889,0.0250974,1742,1618,18.3813,-34.5018
525,-594,18.2174,33.6871,-0.00366531,-0.00171991,-0.000561326,-0.00156957,-0.00381566,-1.3091,0.00221448,0.0386345,1749,1618,18.2174,-33.6871
532,-594,18.1746,32.9092,0,0,0,0,0,0,0,-1,1756,1618,18.1746,-32.9092
539,-594,21.0237,24.9617,0,0,0,0,0,0,0,-1,1763,1618,21.0237,-24.9616
546,-594,7.48645,8.54785,0,0,0,0,0,0,0,-1,1770,1618,7.48639,-8.54789
553,-594,3.69714,5.68762,0,0,0,0,0,0,0,-1,1777,1618,3.69715,-5.68764
560,-594,6.06616,4.44482,0,0,0,0,0,0,0,-1,1784,1618,6.06621,-4.44477
567,-594,5.97266,4.73303,0,0,0,0,0,0,0,-1,1791,1618,5.97271,-4.73309
574,-594,5.9906,4.96326,0,0,0,0,0,0,0,-1,1798,1618,5.99065,-4.96326
581,-594,0,0,0,0,0,0,0,0,0,-1,1805,1618,0,0
588,-594,0,0,0,0,0,0,0,0,0,-1,1812,1618,0,0
595,-594,0,0,0,0,0,0,0,0,0,-1,1819,1618,0,0
602,-594,0,0,0,0,0,0,0,0,0,-1,1826,1618,0,0
609,-594,0,0,0,0,0,0,0,0,0,-1,1833,1618,0,0
616,-594,0,0,0,0,0,0,0,0,0,-1,1840,1618,0,0
623,-594,0,0,0,0,0,0,0,0,0,-1,1847,1618,0,0
630,-594,0,0,0,0,0,0,0,0,0,-1,1854,1618,0,0
637,-594,0,0,0,0,0,0,0,0,0,-1,1861,1618,0,0
644,-594,0,0,0,0,0,0,0,0,0,-1,1868,1618,0,0
651,-594,0,0,0,0,0,0,0,0,0,-1,1875,1618,0,0
658,-594,0,0,0,0,0,0,0,0,0,-1,1882,1618,0,0
665,-594,0,0,0,0,0,0,0,0,0,-1,1889,1618,0,0
672,-594,0,0,0,0,0,0,0,0,0,-1,1896,1618,0,0
679,-594,0,0,0,0,0,0,0,0,0,-1,1903,1618,0,0
686,-594,0,0,0,0,0,0,0,0,0,-1,1910,1618,0,0
693,-594,0,0,0,0,0,0,0,0,0,-1,1917,1618,0,0
700,-594,0,0,0,0,0,0,0,0,0,-1,1924,1618,0,0
707,-594,0,0,0,0,0,0,0,0,0,-1,1931,1618,0,0
714,-594,0,0,0,0,0,0,0,0,0,-1,1938,1618,0,0
721,-594,0,0,0,0,0,0,0,0,0,-1,1945,1618,0,0
728,-594,0,0,0,0,0,0,0,0,0,-1,1952,1618,0,0
735,-594,0,0,0,0,0,0,0,0,0,-1,1959,1618,0,0
742,-594,0,0,0,0,0,0,0,0,0,-1,1966,1618,0,0
749,-594,0,0,0,0,0,0,0,0,0,-1,1973,1618,0,0
756,-594,0,0,0,0,0,0,0,0,0,-1,1980,1618,0,0
763,-594,0,0,0,0,0,0,0,0,0,-1,1987,1618,0,0
770,-594,0,0,0,0,0,0,0,0,0,-1,1994,1618,0,0
777,-594,0,0,0,0,0,0,0,0,0,-1,2001,1618,0,0
784,-594,0,0,0,0,0,0,0,0,0,-1,2008,1618,0,0
791,-594,0,0,0,0,0,0,0,0,0,-1,2015,1618,0,0
798,-594,0,0,0,0,0,0,0,0,0,-1,2022,1618,0,0
805,-594,0,0,0,0,0,0,0,0,0,-1,2029,1618,0,0
812,-594,0,0,0,0,0,0,0,0,0,-1,2036,1618,0,0
-700,-601,0,0,0,0,0,0,0,0,0,-1,524,1625,0,0
-693,-601,0,0,0,0,0,0,0,0,0,-1,531,1625,0,0
-686,-601,0,0,0,0,0,0,0,0,0,-1,538,1625,0,0
-679,-601,0,0,0,0,0,0,0,0,0,-1,545,1625,0,0
-672,-601,0,0,0,0,0,0,0,0,0,-1,552,1625,0,0
-665,-601,0,0,0,0,0,0,0,0,0,-1,559,1625,0,0
-658,-601,0,0,0,0,0,0,0,0,0,-1,566,1625,0,0
-651,-601,0,0,0,0,0,0,0,0,0,-1,573,1625,0,0
-644,-601,0,0,0,0,0,0,0,0,0,-1,580,1625,0,0
-637,-601,0,0,0,0,0,0,0,0,0,-1,587,1625,0,0
-630,-601,0,0,0,0,0,0,0,0,0,-1,594,1625,0,0
-623,-601,0,0,0,0,0,0,0,0,0,-1,601,1625,0,0
-616,-601,0,0,0,0,0,0,0,0,0,-1,608,1625,0,0
-609,-601,0,0,0,0,0,0,0,0,0,-1,615,1625,0,0
-602,-601,0,0,0,0,0,0,0,0,0,-1,622,1625,0,0
-595,-601,0,0,0,0,0,0,0,0,0,-1,629,1625,0,0
-588,-601,0,0,0,0,0,0,0,0,0,-1,636,1625,0,0
-581,-601,0,0,0,0,0,0,0,0,0,-1,643,1625,0,0
-574,-601,0,0,0,0,0,0,0,0,0,-1,650,1625,0,0
-567,-601,0,0,0,0,0,0,0,0,0,-1,657,1625,0,0
-560,-601,0,0,0,0,0,0,0,0,0,-1,664,1625,0,0
-553,-601,0,0,0,0,0,0,0,0,0,-1,671,1625,0,0
-546,-601,0,0,0,0,0,0,0,0,0,-1,678,1625,0,0
-539,-601,0,0,0,0,0,0,0,0,0,-1,685,1625,0,0
-532,-601,0,0,0,0,0,0,0,0,0,-1,692,1625,0,0
-525,-601,0,0,0,0,0,0,0,0,0,-1,699,1625,0,0
-518,-601,0,0,0,0,0,0,0,0,0,-1,706,1625,0,0
-511,-601,0,0,0,0,0,0,0,0,0,-1,713,1625,0,0
-504,-601,0,0,0,0,0,0,0,0,0,-1,720,1625,0,0
-497,-601,0,0,0,0,0,0,0,0,0,-1,727,1625,0,0
-490,-601,0,0,0,0,0,0,0,0,0,-1,734,1625,0,0
-483,-601,0,0,0,0,0,0,0,0,0,-1,741,1625,0,0
-476,-601,0,0,0,0,0,0,0,0,0,-1,748,1625,0,0
-469,-601,0,0,0,0,0,0,0,0,0,-1,755,1625,0,0
-462,-601,0,0,0,0,0,0,0,0,0,-1,762,1625,0,0
-455,-601,0,0,0,0,0,0,0,0,0,-1,769,1625,0,0
-448,-601,-7.07623,2.7616,0,0,0,0,0,0,0,-1,776,1625,-7.07626,-2.76161
-441,-601,-6.06689,3.33447,0,0,0,0,0,0,0,-1,783,1625,-6.06691,-3.33448
-434,-601,-5.02655,3.8468,0,0,0,0,0,0,0,-1,790,1625,-5.02657,-3.84674
-427,-601,-5.78601,4.2406,0,0,0,0,0,0,0,-1,797,1625,-5.786,-4.24058
-420,-601,-5.5191,5.60364,0,0,0,0,0,0,0,-1,804,1625,-5.51907,-5.60368
-413,-601,-4.30756,5.86047,0,0,0,0,0,0,0,-1,811,1625,-4.30757,-5.86046
-406,-601,-1.67493,7.20422,0,0,0,0,0,0,0,-1,818,1625,-1.67493,-7.20428
-399,-601,1.40094,15.3108,0,0,0,0,0,0,0,-1,825,1625,1.40096,-15.3107
-392,-601,0.678833,30.98,0,0,0,0,0,0,0,-1,832,1625,0.678827,-30.98
-385,-601,0.691284,35.3398,0,0,0,0,0,0,0,-1,839,1625,0.691261,-35.3398
-378,-601,0.494324,35.2661,0,0,0,0,0,0,0,-1,846,1625,0.494326,-35.2661
-371,-601,0.566772,36.0948,0.000115553,-0.00252173,0.00195659,0.00115637,-0.00356255,0.488884,0.00284008,0.0253084,853,1625,0.566758,-36.0948
-364,-601,0.539856,36.8523,0.000322457,-0.00220309,0.00164321,0.00113206,-0.00301269,0.457786,0.00247372,0.0133167,860,1625,0.539847,-36.8523
-357,-601,0.460571,37.6011,0.000737775,-0.00187819,0.00146323,0.0013924,-0.00253282,0.42068,0.00229789,0.0105816,867,1625,0.460543,-37.6011
-350,-601,0.461914,38.3768,0.00117883,-0.0014643,0.00134753,0.00174469,-0.00203016,0.397564,0.00218148,0.0223435,874,1625,0.46192,-38.3769
-343,-601,0.399963,39.0966,0.00159736,-0.000862107,0.00132578,0.00217592,-0.00144067,0.411482,0.00210237,0.0254935,881,1625,0.399952,-39.0965
-336,-601,0.300476,39.7715,0.00199459,-0.000185935,0.00138631,0.002668,-0.000859345,0.452187,0.00212388,0.022169,888,1625,0.300448,-39.7714
-329,-601,0.314148,40.4674,0.00247869,0.000872855,0.00166515,0.00352439,-0.000172851,0.56075,0.00240928,0.0177724,895,1625,0.31415,-40.4675
-322,-601,0.321045,41.1306,0.00301653,0.00227268,0.00213679,0.00481352,0.000475692,0.699232,0.00306279,0.0131375,902,1625,0.321041,-41.1306
-315,-601,0.302673,41.7617,0.00363214,0.00370332,0.00267002,0.00633799,0.000997471,0.792062,0.0039352,0.0146531,909,1625,0.302703,-41.7617
-308,-601,0.26947,42.447,0.00469717,0.00516187,0.00339563,0.00833309,0.00152594,0.819558,0.00512307,0.0140604,916,1625,0.269465,-42.447
-301,-601,0.255737,43.144,0.00628722,0.00689826,0.00449326,0.0110964,0.0020891,0.819344,0.0068089,0.0113772,923,1625,0.255707,-43.1441
-294,-601,0.239319,43.809,0.00806762,0.00871918,0.00580482,0.0142074,0.00257945,0.81343,0.00873958,0.0106306,930,1625,0.239316,-43.809
-287,-601,0.188293,44.4865,0.0101408,0.0107995,0.00724402,0.0177217,0.00321866,0.808118,0.0109011,0.0112155,937,1625,0.188322,-44.4864
-280,-601,0.188171,45.1493,0.0127615,0.0128459,0.0089445,0.0217483,0.00385911,0.787756,0.013399,0.0131237,944,1625,0.188171,-45.1493
-273,-601,0.197754,45.8276,0.0157532,0.0147545,0.0107575,0.026023,0.00448475,0.762206,0.0160638,0.0132881,951,1625,0.197755,-45.8276
-266,-601,0.229431,46.5034,0.0190127,0.0165077,0.0126441,0.0304662,0.00505422,0.736031,0.0188533,0.015397,958,1625,0.229453,-46.5035
-259,-601,0.28302,47.0679,0.022639,0.0179898,0.0146335,0.0351314,0.00549741,0.706629,0.0218205,0.0273266,965,1625,0.283004,-47.0679
-252,-601,0.853271,47.8872,0.0266098,0.0190273,0.0166274,0.0398727,0.00576445,0.673309,0.0248839,0.0496668,972,1625,0.853292,-47.8871
-245,-601,1.3327,48.7615,0,0,0,0,0,0,0,-1,979,1625,1.33271,-48.7614
-238,-601,2.75482,35.777,0,0,0,0,0,0,0,-1,986,1625,2.75481,-35.777
-231,-601,2.66772,13.7051,0,0,0,0,0,0,0,-1,993,1625,2.6677,-13.7051
-224,-601,-0.0305176,9.13684,0,0,0,0,0,0,0,-1,1000,1625,-0.030498,-9.13681
-217,-601,3.39429,10.3898,0,0,0,0,0,0,0,-1,1007,1625,3.39431,-10.3898
-210,-601,-6.53699,15.7931,0,0,0,0,0,0,0,-1,1014,1625,-6.53697,-15.7931
-203,-601,2.69348,15.9099,0,0,0,0,0,0,0,-1,1021,1625,2.69351,-15.91
-196,-601,2.66992,16.1815,0,0,0,0,0,0,0,-1,1028,1625,2.66995,-16.1815
-189,-601,2.849,16.6105,0,0,0,0,0,0,0,-1,1035,1625,2.84902,-16.6104
-182,-601,1.82153,13.9752,0,0,0,0,0,0,0,-1,1042,1625,1.82155,-13.9752
-175,-601,0.544922,9.28687,0,0,0,0,0,0,0,-1,1049,1625,0.544879,-9.28685
-168,-601,-0.247559,8.97461,0,0,0,0,0,0,0,-1,1056,1625,-0.247598,-8.97466
-161,-601,-1.16833,8.80078,0,0,0,0,0,0,0,-1,1063,1625,-1.16837,-8.80081
-154,-601,1.12756,7.94861,0,0,0,0,0,0,0,-1,1070,1625,1.12762,-7.94855
-147,-601,1.35352,9.55432,0,0,0,0,0,0,0,-1,1077,1625,1.35351,-9.55429
-140,-601,1.72437,11.1498,0,0,0,0,0,0,0,-1,1084,1625,1.72432,-11.1498
-133,-601,2.13281,12.8347,0,0,0,0,0,0,0,-1,1091,1625,2.13287,-12.8348
-126,-601,3.09534,15.427,0,0,0,0,0,0,0,-1,1098,1625,3.0953,-15.4271
-119,-601,1.22485,9.43457,0,0,0,0,0,0,0,-1,1105,1625,1.22489,-9.43456
-112,-601,0,0,0,0,0,0,0,0,0,-1,1112,1625,0,0
-105,-601,0,0,0,0,0,0,0,0,0,-1,1119,1625,0,0
-98,-601,0,0,0,0,0,0,0,0,0,-1,1126,1625,0,0
-91,-601,0,0,0,0,0,0,0,0,0,-1,1133,1625,0,0
-84,-601,0,0,0,0,0,0,0,0,0,-1,1140,1625,0,0
-77,-601,0,0,0,0,0,0,0,0,0,-1,1147,1625,0,0
-70,-601,0,0,0,0,0,0,0,0,0,-1,1154,1625,0,0
-63,-601,0,0,0,0,0,0,0,0,0,-1,1161,1625,0,0
-56,-601,0,0,0,0,0,0,0,0,0,-1,1168,1625,0,0
-49,-601,0,0,0,0,0,0,0,0,0,-1,1175,1625,0,0
-42,-601,0,0,0,0,0,0,0,0,0,-1,1182,1625,0,0
-35,-601,0,0,0,0,0,0,0,0,0,-1,1189,1625,0,0
-28,-601,0,0,0,0,0,0,0,0,0,-1,1196,1625,0,0
-21,-601,0,0,0,0,0,0,0,0,0,-1,1203,1625,0,0
-14,-601,0,0,0,0,0,0,0,0,0,-1,1210,1625,0,0
-7,-601,0,0,0,0,0,0,0,0,0,-1,1217,1625,0,0
0,-601,0,0,0,0,0,0,0,0,0,-1,1224,1625,0,0
7,-601,0,0,0,0,0,0,0,0,0,-1,1231,1625,0,0
14,-601,0,0,0,0,0,0,0,0,0,-1,1238,1625,0,0
21,-601,0,0,0,0,0,0,0,0,0,-1,1245,1625,0,0
28,-601,0,0,0,0,0,0,0,0,0,-1,1252,1625,0,0
35,-601,0,0,0,0,0,0,0,0,0,-1,1259,1625,0,0
42,-601,0,0,0,0,0,0,0,0,0,-1,1266,1625,0,0
49,-601,0,0,0,0,0,0,0,0,0,-1,1273,1625,0,0
56,-601,0,0,0,0,0,0,0,0,0,-1,1280,1625,0,0
63,-601,0,0,0,0,0,0,0,0,0,-1,1287,1625,0,0
70,-601,0,0,0,0,0,0,0,0,0,-1,1294,1625,0,0
77,-601,0,0,0,0,0,0,0,0,0,-1,1301,1625,0,0
84,-601,0,0,0,0,0,0,0,0,0,-1,1308,1625,0,0
91,-601,0,0,0,0,0,0,0,0,0,-1,1315,1625,0,0
98,-601,0,0,0,0,0,0,0,0,0,-1,1322,1625,0,0
105,-601,0,0,0,0,0,0,0,0,0,-1,1329,1625,0,0
112,-601,0,0,0,0,0,0,0,0,0,-1,1336,1625,0,0
119,-601,0,0,0,0,0,0,0,0,0,-1,1343,1625,0,0
126,-601,0,0,0,0,0,0,0,0,0,-1,1350,1625,0,0
133,-601,0,0,0,0,0,0,0,0,0,-1,1357,1625,0,0
140,-601,0,0,0,0,0,0,0,0,0,-1,1364,1625,0,0
147,-601,0,0,0,0,0,0,0,0,0,-1,1371,1625,0,0
154,-601,0,0,0,0,0,0,0,0,0,-1,1378,1625,0,0
161,-601,0,0,0,0,0,0,0,0,0,-1,1385,1625,0,0
168,-601,0,0,0,0,0,0,0,0,0,-1,1392,1625,0,0
175,-601,0,0,0,0,0,0,0,0,0,-1,1399,1625,0,0
182,-601,0,0,0,0,0,0,0,0,0,-1,1406,1625,0,0
189,-601,0,0,0,0,0,0,0,0,0,-1,1413,1625,0,0
196,-601,0,0,0,0,0,0,0,0,0,-1,1420,1625,0,0
203,-601,0,0,0,0,0,0,0,0,0,-1,1427,1625,0,0
210,-601,0,0,0,0,0,0,0,0,0,-1,1434,1625,0,0
217,-601,0,0,0,0,0,0,0,0,0,-1,1441,1625,0,0
224,-601,0,0,0,0,0,0,0,0,0,-1,1448,1625,0,0
231,-601,-0.0371094,0.525879,0,0,0,0,0,0,0,-1,1455,1625,-0.0371518,-0.525824
238,-601,2.03369,-1.32861,0,0,0,0,0,0,0,-1,1462,1625,2.03364,1.32858
245,-601,2.71375,2.44983,0,0,0,0,0,0,0,-1,1469,1625,2.71371,-2.44979
252,-601,4.66943,2.28381,0,0,0,0,0,0,0,-1,1476,1625,4.66947,-2.28376
259,-601,6.42712,2.61987,0,0,0,0,0,0,0,-1,1483,1625,6.42711,-2.61985
266,-601,6.75317,1.68701,0,0,0,0,0,0,0,-1,1490,1625,6.75323,-1.687
273,-601,5.4314,2.92053,0,0,0,0,0,0,0,-1,1497,1625,5.43144,-2.92051
280,-601,4.64722,1.17786,0,0,0,0,0,0,0,-1,1504,1625,4.64722,-1.1779
287,-601,5.32532,2.6217,0,0,0,0,0,0,0,-1,1511,1625,5.32535,-2.62171
294,-601,5.97693,4.22693,0,0,0,0,0,0,0,-1,1518,1625,5.97697,-4.22694
301,-601,7.28162,9.50024,0,0,0,0,0,0,0,-1,1525,1625,7.28162,-9.50025
308,-601,6.53528,10.3927,0,0,0,0,0,0,0,-1,1532,1625,6.53529,-10.3927
315,-601,4.88013,11.7184,0,0,0,0,0,0,0,-1,1539,1625,4.88015,-11.7184
322,-601,3.38098,12.7864,0,0,0,0,0,0,0,-1,1546,1625,3.38104,-12.7864
329,-601,1.8772,13.8768,0,0,0,0,0,0,0,-1,1553,1625,1.87716,-13.8768
336,-601,4.67847,9.53308,0,0,0,0,0,0,0,-1,1560,1625,4.67848,-9.53309
343,-601,11.1404,3.14575,0,0,0,0,0,0,0,-1,1567,1625,11.1404,-3.1458
350,-601,10.9462,2.37769,0,0,0,0,0,0,0,-1,1574,1625,10.9461,-2.37764
357,-601,10.7518,1.6095,0,0,0,0,0,0,0,-1,1581,1625,10.7518,-1.60948
364,-601,5.33643,9.74426,0,0,0,0,0,0,0,-1,1588,1625,5.33637,-9.74429
371,-601,17.5854,49.3165,0,0,0,0,0,0,0,-1,1595,1625,17.5854,-49.3165
378,-601,17.9089,48.6563,0.0453702,0.023923,-0.0233065,0.0603018,0.0089914,-0.569782,0.0375645,0.0490045,1602,1625,17.9089,-48.6562
385,-601,18.1542,47.7,0.0396395,0.0206439,-0.0196456,0.0519627,0.00832068,-0.560235,0.0322283,0.048157,1609,1625,18.1542,-47.6999
392,-601,17.4329,46.6616,0.0335784,0.0176933,-0.0161891,0.0436684,0.00760332,-0.557345,0.0269379,0.0389564,1616,1625,17.4328,-46.6617
399,-601,18.1112,46.0344,0.0276291,0.0155209,-0.0132043,0.036101,0.00704893,-0.57045,0.0220957,0.0203235,1623,1625,18.1112,-46.0345
406,-601,18.2057,45.3521,0.0221301,0.0136458,-0.0107066,0.0294043,0.00637161,-0.596777,0.0178619,0.0132477,1630,1625,18.2056,-45.3521
413,-601,18.1763,44.7118,0.0172227,0.0121219,-0.00866469,0.0237045,0.00564003,-0.642269,0.0142987,0.0123068,1637,1625,18.1763,-44.7118
420,-601,18.1593,44.037,0.0130029,0.0107564,-0.00703586,0.0190046,0.00475468,-0.706245,0.0114197,0.0108335,1644,1625,18.1593,-44.037
427,-601,18.1561,43.4034,0.00953119,0.0094135,-0.00571127,0.0151839,0.00376077,-0.780247,0.00913094,0.0150348,1651,1625,18.1561,-43.4035
434,-601,18.1287,42.7386,0.00681093,0.00791322,-0.00468055,0.012075,0.00264919,-0.844004,0.00732831,0.0160735,1658,1625,18.1287,-42.7387
441,-601,18.1149,42.0604,0.00437735,0.00689912,-0.00360036,0.009453,0.00182348,-0.953829,0.00579068,0.0183704,1665,1625,18.1148,-42.0604
448,-601,18.1057,41.4033,0.00272836,0.0059468,-0.00313993,0.00786586,0.000809307,-1.0222,0.00499603,0.0151954,1672,1625,18.1057,-41.4033
455,-601,18.0634,40.7212,0.00208368,0.00484091,-0.0030663,0.00682425,0.000100331,-0.99666,0.00451643,0.0139371,1679,1625,18.0634,-40.7212
462,-601,18.0118,40.062,0.00199303,0.00345292,-0.00291338,0.00572641,-0.000280458,-0.908146,0.00391445,0.0131712,1686,1625,18.0119,-40.062
469,-601,17.9872,39.4303,0.00186335,0.00210274,-0.00269252,0.00467823,-0.000712134,-0.807611,0.00338129,0.0123218,1693,1625,17.9872,-39.4303
476,-601,17.9431,38.751,0.00158459,0.00114476,-0.00242256,0.00379719,-0.00106784,-0.740133,0.0029525,0.0137706,1700,1625,17.9431,-38.751
483,-601,17.8916,38.0638,0.0011785,0.000123147,-0.00215519,0.00286967,-0.00156802,-0.66534,0.00259858,0.0177125,1707,1625,17.8916,-38.0638
490,-601,17.8669,37.3738,0.000579883,-0.000639457,-0.00192523,0.00198967,-0.00204924,-0.632057,0.00233195,0.0140341,1714,1625,17.8669,-37.3738
497,-601,17.8538,36.6678,-9.41905e-05,-0.00124159,-0.00177965,0.00120195,-0.00253773,-0.629475,0.00220454,0.0127396,1721,1625,17.8538,-36.6679
504,-601,17.8914,35.9419,-0.000753681,-0.00164784,-0.00172669,0.000582868,-0.00298439,-0.658718,0.00220966,0.0239348,1728,1625,17.8914,-35.9419
511,-601,17.8076,35.3757,-0.00169996,-0.00189225,-0.00159696,-0.000196256,-0.00339595,-0.755332,0.00220147,0.0378879,1735,1625,17.8076,-35.3757
518,-601,17.7051,34.7322,-0.00294438,-0.00168484,-0.00151954,-0.000669737,-0.00395948,-0.981848,0.00244715,0.0477027,1742,1625,17.705,-34.7322
525,-601,17.6337,34.0748,0,0,0,0,0,0,0,-1,1749,1625,17.6337,-34.0748
532,-601,16.3666,22.9199,0,0,0,0,0,0,0,-1,1756,1625,16.3666,-22.92
539,-601,7.77112,11.4299,0,0,0,0,0,0,0,-1,1763,1625,7.77116,-11.4299
546,-601,6.56873,3.62354,0,0,0,0,0,0,0,-1,1770,1625,6.56867,-3.62352
553,-601,7.03015,4.25049,0,0,0,0,0,0,0,-1,1777,1625,7.03011,-4.25048
560,-601,7.50745,4.83374,0,0,0,0,0,0,0,-1,1784,1625,7.50744,-4.83376
567,-601,7.82043,3.83301,0,0,0,0,0,0,0,-1,1791,1625,7.82041,-3.83303
574,-601,0,0,0,0,0,0,0,0,0,-1,1798,1625,0,0
581,-601,0,0,0,0,0,0,0,0,0,-1,1805,1625,0,0
588,-601,0,0,0,0,0,0,0,0,0,-1,1812,1625,0,0
595,-601,0,0,0,0,0,0,0,0,0,-1,1819,1625,0,0
602,-601,0,0,0,0,0,0,0,0,0,-1,1826,1625,0,0
609,-601,0,0,0,0,0,0,0,0,0,-1,1833,1625,0,0
616,-601,0,0,0,0,0,0,0,0,0,-1,1840,1625,0,0
623,-601,0,0,0,0,0,0,0,0,0,-1,1847,1625,0,0
630,-601,0,0,0,0,0,0,0,0,0,-1,1854,1625,0,0
637,-601,0,0,0,0,0,0,0,0,0,-1,1861,1625,0,0
644,-601,0,0,0,0,0,0,0,0,0,-1,1868,1625,0,0
651,-601,0,0,0,0,0,0,0,0,0,-1,1875,1625,0,0
658,-601,0,0,0,0,0,0,0,0,0,-1,1882,1625,0,0
665,-601,0,0,0,0,0,0,0,0,0,-1,1889,1625,0,0
672,-601,0,0,0,0,0,0,0,0,0,-1,1896,1625,0,0
679,-601,0,0,0,0,0,0,0,0,0,-1,1903,1625,0,0
686,-601,0,0,0,0,0,0,0,0,0,-1,1910,1625,0,0
693,-601,0,0,0,0,0,0,0,0,0,-1,1917,1625,0,0
700,-601,0,0,0,0,0,0,0,0,0,-1,1924,1625,0,0
707,-601,0,0,0,0,0,0,0,0,0,-1,1931,1625,0,0
714,-601,0,0,0,0,0,0,0,0,0,-1,1938,1625,0,0
721,-601,0,0,0,0,0,0,0,0,0,-1,1945,1625,0,0
728,-601,0,0,0,0,0,0,0,0,0,-1,1952,1625,0,0
735,-601,0,0,0,0,0,0,0,0,0,-1,1959,1625,0,0
742,-601,0,0,0,0,0,0,0,0,0,-1,1966,1625,0,0
749,-601,0,0,0,0,0,0,0,0,0,-1,1973,1625,0,0
756,-601,0,0,0,0,0,0,0,0,0,-1,1980,1625,0,0
763,-601,0,0,0,0,0,0,0,0,0,-1,1987,1625,0,0
770,-601,0,0,0,0,0,0,0,0,0,-1,1994,1625,0,0
777,-601,0,0,0,0,0,0,0,0,0,-1,2001,1625,0,0
784,-601,0,0,0,0,0,0,0,0,0,-1,2008,1625,0,0
791,-601,0,0,0,0,0,0,0,0,0,-1,2015,1625,0,0
798,-601,0,0,0,0,0,0,0,0,0,-1,2022,1625,0,0
805,-601,0,0,0,0,0,0,0,0,0,-1,2029,1625,0,0
812,-601,0,0,0,0,0,0,0,0,0,-1,2036,1625,0,0
-700,-608,0,0,0,0,0,0,0,0,0,-1,524,1632,0,0
-693,-608,0,0,0,0,0,0,0,0,0,-1,531,1632,0,0
-686,-608,0,0,0,0,0,0,0,0,0,-1,538,1632,0,0
-679,-608,0,0,0,0,0,0,0,0,0,-1,545,1632,0,0
-672,-608,0,0,0,0,0,0,0,0,0,-1,552,1632,0,0
-665,-608,0,0,0,0,0,0,0,0,0,-1,559,1632,0,0
-658,-608,0,0,0,0,0,0,0,0,0,-1,566,1632,0,0
-651,-608,0,0,0,0,0,0,0,0,0,-1,573,1632,0,0
-644,-608,0,0,0,0,0,0,0,0,0,-1,580,1632,0,0
-637,-608,0,0,0,0,0,0,0,0,0,-1,587,1632,0,0
-630,-608,0,0,0,0,0,0,0,0,0,-1,594,1632,0,0
-623,-608,0,0,0,0,0,0,0,0,0,-1,601,1632,0,0
-616,-608,0,0,0,0,0,0,0,0,0,-1,608,1632,0,0
-609,-608,0,0,0,0,0,0,0,0,0,-1,615,1632,0,0
-602,-608,0,0,0,0,0,0,0,0,0,-1,622,1632,0,0
-595,-608,0,0,0,0,0,0,0,0,0,-1,629,1632,0,0
-588,-608,0,0,0,0,0,0,0,0,0,-1,636,1632,0,0
-581,-608,0,0,0,0,0,0,0,0,0,-1,643,1632,0,0
-574,-608,0,0,0,0,0,0,0,0,0,-1,650,1632,0,0
-567,-608,0,0,0,0,0,0,0,0,0,-1,657,1632,0,0
-560,-608,0,0,0,0,0,0,0,0,0,-1,664,1632,0,0
-553,-608,0,0,0,0,0,0,0,0,0,-1,671,1632,0,0
-546,-608,0,0,0,0,0,0,0,0,0,-1,678,1632,0,0
-539,-608,0,0,0,0,0,0,0,0,0,-1,685,1632,0,0
-532,-608,0,0,0,0,0,0,0,0,0,-1,692,1632,0,0
-525,-608,0,0,0,0,0,0,0,0,0,-1,699,1632,0,0
-518,-608,0,0,0,0,0,0,0,0,0,-1,706,1632,0,0
-511,-608,0,0,0,0,0,0,0,0,0,-1,713,1632,0,0
-504,-608,0,0,0,0,0,0,0,0,0,-1,720,1632,0,0
-497,-608,0,0,0,0,0,0,0,0,0,-1,727,1632,0,0
-490,-608,0,0,0,0,0,0,0,0,0,-1,734,1632,0,0
-483,-608,0,0,0,0,0,0,0,0,0,-1,741,1632,0,0
-476,-608,0,0,0,0,0,0,0,0,0,-1,748,1632,0,0
-469,-608,0,0,0,0,0,0,0,0,0,-1,755,1632,0,0
-462,-608,0,0,0,0,0,0,0,0,0,-1,762,1632,0,0
-455,-608,0,0,0,0,0,0,0,0,0,-1,769,1632,0,0
-448,-608,0,0,0,0,0,0,0,0,0,-1,776,1632,0,0
-441,-608,-7.34601,2.78052,0,0,0,0,0,0,0,-1,783,1632,-7.346,-2.78056
-434,-608,-6.34558,3.27405,0,0,0,0,0,0,0,-1,790,1632,-6.34555,-3.27406
-427,-608,-7.74335,4.17688,0,0,0,0,0,0,0,-1,797,1632,-7.74334,-4.17693
-420,-608,-6.82794,4.34839,0,0,0,0,0,0,0,-1,804,1632,-6.82794,-4.34838
-413,-608,-5.41919,5.66138,0,0,0,0,0,0,0,-1,811,1632,-5.41917,-5.66133
-406,-608,-4.79681,4.98999,0,0,0,0,0,0,0,-1,818,1632,-4.79684,-4.98997
-399,-608,-2.60645,6.34167,0,0,0,0,0,0,0,-1,825,1632,-2.60643,-6.34169
-392,-608,2.08356,15.437,0,0,0,0,0,0,0,-1,832,1632,2.08354,-15.437
-385,-608,1.51526,31.5153,0,0,0,0,0,0,0,-1,839,1632,1.51527,-31.5153
-378,-608,1.29742,35.1031,0,0,0,0,0,0,0,-1,846,1632,1.29744,-35.1032
-371,-608,1.25958,35.9464,0,0,0,0,0,0,0,-1,853,1632,1.25961,-35.9464
-364,-608,1.30298,36.7559,0.00072195,-0.0029962,0.00184394,0.00148132,-0.00375558,0.390655,0.00311711,0.0280104,860,1632,1.30299,-36.7559
-357,-608,1.17316,37.5485,0.00114352,-0.00284564,0.00153757,0.00166737,-0.00336948,0.328364,0.00296286,0.0184628,867,1632,1.17317,-37.5485
-350,-608,1.14886,38.3318,0.00152093,-0.00250049,0.00133415,0.0019233,-0.00290285,0.292912,0.00280544,0.0200114,874,1632,1.14884,-38.3318
-343,-608,1.13007,39.0601,0.00186484,-0.0019089,0.00125051,0.0022416,-0.00228566,0.292641,0.00261386,0.0261085,881,1632,1.13006,-39.06
-336,-608,1.05682,39.7963,0.0021261,-0.00129222,0.00120468,0.00250799,-0.00167411,0.306982,0.00243048,0.0186185,888,1632,1.05682,-39.7962
-329,-608,0.990845,40.5188,0.00241496,-0.000381883,0.00133645,0.00295088,-0.000917802,0.38137,0.00233413,0.0168848,895,1632,0.990851,-40.5188
-322,-608,0.955811,41.1774,0.00271696,0.000731845,0.00160711,0.00361331,-0.000164505,0.508767,0.00246554,0.0166806,902,1632,0.955782,-41.1774
-315,-608,0.965637,41.807,0.00309148,0.00195871,0.0019828,0.0045872,0.000462989,0.646278,0.00291608,0.0164208,909,1632,0.965631,-41.807
-308,-608,0.939209,42.5023,0.00384206,0.00322068,0.00251348,0.00606398,0.000998762,0.723905,0.00375428,0.0174597,916,1632,0.939179,-42.5023
-301,-608,0.906372,43.1892,0.00502949,0.00468972,0.00335619,0.00822009,0.00149912,0.760111,0.005055,0.0116879,923,1632,0.906396,-43.1892
-294,-608,0.901245,43.8468,0.00640941,0.0062097,0.00438771,0.0106984,0.00192071,0.774021,0.00658606,0.0110606,930,1632,0.901255,-43.8468
-287,-608,0.866089,44.5005,0.00794972,0.00788991,0.0054873,0.0134072,0.00243243,0.782673,0.00824776,0.010313,937,1632,0.86611,-44.5005
-280,-608,0.863892,45.1587,0.00992147,0.00953114,0.00678398,0.0165131,0.00293952,0.771018,0.0101715,0.00888208,944,1632,0.863917,-45.1587
-273,-608,0.822998,45.8193,0.0122144,0.0109402,0.00813605,0.0197383,0.00341635,0.746322,0.0121808,0.0102569,951,1632,0.822984,-45.8193
-266,-608,0.832336,46.4824,0.0146621,0.0122444,0.00951475,0.0230445,0.00386204,0.722213,0.0142512,0.010696,958,1632,0.832313,-46.4825
-259,-608,0.884949,47.1259,0.0173548,0.0133909,0.0109357,0.0264867,0.00425897,0.695751,0.0164233,0.0149139,965,1632,0.884975,-47.1258
-252,-608,1.04181,47.7429,0.0203323,0.0141753,0.0122701,0.0299042,0.00460338,0.662487,0.0185926,0.029937,972,1632,1.04178,-47.7429
-245,-608,1.37482,48.4967,0.0232341,0.014787,0.0135293,0.0331838,0.00483734,0.634103,0.0206994,0.0446755,979,1632,1.3748,-48.4968
-238,-608,1.68323,49.2744,0,0,0,0,0,0,0,-1,986,1632,1.68325,-49.2745
-231,-608,1.32819,50.1267,0,0,0,0,0,0,0,-1,993,1632,1.32821,-50.1267
-224,-608,1.37457,49.2592,0,0,0,0,0,0,0,-1,1000,1632,1.3746,-49.2591
-217,-608,1.04419,12.8451,0,0,0,0,0,0,0,-1,1007,1632,1.04418,-12.8451
-210,-608,2.75903,15.9414,0,0,0,0,0,0,0,-1,1014,1632,2.75903,-15.9414
-203,-608,2.76776,16.217,0,0,0,0,0,0,0,-1,1021,1632,2.76773,-16.217
-196,-608,1.53955,18.6058,0,0,0,0,0,0,0,-1,1028,1632,1.53959,-18.6058
-189,-608,1.37634,19.119,0,0,0,0,0,0,0,-1,1035,1632,1.37634,-19.1191
-182,-608,2.89221,16.7092,0,0,0,0,0,0,0,-1,1042,1632,2.89224,-16.7093
-175,-608,0.219116,15.1643,0,0,0,0,0,0,0,-1,1049,1632,0.219173,-15.1644
-168,-608,0.000366211,9.48645,0,0,0,0,0,0,0,-1,1056,1632,0.000317105,-9.48648
-161,-608,2.27832,15.4423,0,0,0,0,0,0,0,-1,1063,1632,2.27826,-15.4423
-154,-608,1.3999,16.4037,0,0,0,0,0,0,0,-1,1070,1632,1.39987,-16.4037
-147,-608,2.4386,9.50317,0,0,0,0,0,0,0,-1,1077,1632,2.43858,-9.50313
-140,-608,2.60132,10.8401,0,0,0,0,0,0,0,-1,1084,1632,2.60134,-10.8401
-133,-608,3.2312,12.4738,0,0,0,0,0,0,0,-1,1091,1632,3.23116,-12.4738
-126,-608,3.76465,13.9644,0,0,0,0,0,0,0,-1,1098,1632,3.76466,-13.9644
-119,-608,4.28906,15.4196,0,0,0,0,0,0,0,-1,1105,1632,4.28911,-15.4195
-112,-608,0.745117,10.5587,0,0,0,0,0,0,0,-1,1112,1632,0.745145,-10.5587
-105,-608,-0.252319,1.42419,0,0,0,0,0,0,0,-1,1119,1632,-0.252331,-1.42418
-98,-608,-2.8595,3.0863,0,0,0,0,0,0,0,-1,1126,1632,-2.85948,-3.08625
-91,-608,-3.71948,1.73608,0,0,0,0,0,0,0,-1,1133,1632,-3.7195,-1.73607
-84,-608,0,0,0,0,0,0,0,0,0,-1,1140,1632,0,0
-77,-608,0,0,0,0,0,0,0,0,0,-1,1147,1632,0,0
-70,-608,0,0,0,0,0,0,0,0,0,-1,1154,1632,0,0
-63,-608,0,0,0,0,0,0,0,0,0,-1,1161,1632,0,0
-56,-608,0,0,0,0,0,0,0,0,0,-1,1168,1632,0,0
-49,-608,0,0,0,0,0,0,0,0,0,-1,1175,1632,0,0
-42,-608,0,0,0,0,0,0,0,0,0,-1,1182,1632,0,0
-35,-608,0,0,0,0,0,0,0,0,0,-1,1189,1632,0,0
-28,-608,0,0,0,0,0,0,0,0,0,-1,1196,1632,0,0
-21,-608,0,0,0,0,0,0,0,0,0,-1,1203,1632,0,0
-14,-608,0,0,0,0,0,0,0,0,0,-1,1210,1632,0,0
-7,-608,0,0,0,0,0,0,0,0,0,-1,1217,1632,0,0
0,-608,0,0,0,0,0,0,0,0,0,-1,1224,1632,0,0
7,-608,0,0,0,0,0,0,0,0,0,-1,1231,1632,0,0
14,-608,0,0,0,0,0,0,0,0,0,-1,1238,1632,0,0
21,-608,0,0,0,0,0,0,0,0,0,-1,1245,1632,0,0
28,-608,0,0,0,0,0,0,0,0,0,-1,1252,1632,0,0
35,-608,0,0,0,0,0,0,0,0,0,-1,1259,1632,0,0
42,-608,0,0,0,0,0,0,0,0,0,-1,1266,1632,0,0
49,-608,0,0,0,0,0,0,0,0,0,-1,1273,1632,0,0
56,-608,0,0,0,0,0,0,0,0,0,-1,1280,1632,0,0
63,-608,0,0,0,0,0,0,0,0,0,-1,1287,1632,0,0
70,-608,0,0,0,0,0,0,0,0,0,-1,1294,1632,0,0
77,-608,0,0,0,0,0,0,0,0,0,-1,1301,1632,0,0
84,-608,0,0,0,0,0,0,0,0,0,-1,1308,1632,0,0
91,-608,0,0,0,0,0,0,0,0,0,-1,1315,1632,0,0
98,-608,0,0,0,0,0,0,0,0,0,-1,1322,1632,0,0
105,-608,0,0,0,0,0,0,0,0,0,-1,1329,1632,0,0
112,-608,0,0,0,0,0,0,0,0,0,-1,1336,1632,0,0
119,-608,0,0,0,0,0,0,0,0,0,-1,1343,1632,0,0
126,-608,0,0,0,0,0,0,0,0,0,-1,1350,1632,0,0
133,-608,0,0,0,0,0,0,0,0,0,-1,1357,1632,0,0
140,-608,0,0,0,0,0,0,0,0,0,-1,1364,1632,0,0
147,-608,0,0,0,0,0,0,0,0,0,-1,1371,1632,0,0
154,-608,0,0,0,0,0,0,0,0,0,-1,1378,1632,0,0
161,-608,0,0,0,0,0,0,0,0,0,-1,1385,1632,0,0
168,-608,0,0,0,0,0,0,0,0,0,-1,1392,1632,0,0
175,-608,0,0,0,0,0,0,0,0,0,-1,1399,1632,0,0
182,-608,0,0,0,0,0,0,0,0,0,-1,1406,1632,0,0
189,-608,0,0,0,0,0,0,0,0,0,-1,1413,1632,0,0
196,-608,0,0,0,0,0,0,0,0,0,-1,1420,1632,0,0
203,-608,0,0,0,0,0,0,0,0,0,-1,1427,1632,0,0
210,-608,5.7157,-0.333008,0,0,0,0,0,0,0,-1,1434,1632,5.71566,0.333004
217,-608,4.49402,-0.831787,0,0,0,0,0,0,0,-1,1441,1632,4.49396,0.831738
224,-608,4.18018,-1.11792,0,0,0,0,0,0,0,-1,1448,1632,4.1802,1.11796
231,-608,0.361816,0.825195,0,0,0,0,0,0,0,-1,1455,1632,0.36185,-0.825226
238,-608,2.85388,-0.28833,0,0,0,0,0,0,0,-1,1462,1632,2.85391,0.288282
245,-608,3.87537,4.02173,0,0,0,0,0,0,0,-1,1469,1632,3.87538,-4.02168
252,-608,5.66956,3.5282,0,0,0,0,0,0,0,-1,1476,1632,5.6696,-3.52815
259,-608,7.47437,3.07178,0,0,0,0,0,0,0,-1,1483,1632,7.4744,-3.07172
266,-608,9.46936,2.34766,0,0,0,0,0,0,0,-1,1490,1632,9.46932,-2.34764
273,-608,6.03003,3.34241,0,0,0,0,0,0,0,-1,1497,1632,6.02997,-3.34245
280,-608,5.72461,2.0769,0,0,0,0,0,0,0,-1,1504,1632,5.72457,-2.07688
287,-608,6.20581,3.59338,0,0,0,0,0,0,0,-1,1511,1632,6.20585,-3.59341
294,-608,6.94922,5.17151,0,0,0,0,0,0,0,-1,1518,1632,6.94925,-5.17151
301,-608,7.60083,6.68018,0,0,0,0,0,0,0,-1,1525,1632,7.60086,-6.68013
308,-608,7.64746,9.93848,0,0,0,0,0,0,0,-1,1532,1632,7.64745,-9.93842
315,-608,5.30688,11.2054,0,0,0,0,0,0,0,-1,1539,1632,5.30694,-11.2054
322,-608,5.32617,13.7581,0,0,0,0,0,0,0,-1,1546,1632,5.32613,-13.758
329,-608,7.12231,13.9607,0,0,0,0,0,0,0,-1,1553,1632,7.12231,-13.9607
336,-608,5.48633,7.82446,0,0,0,0,0,0,0,-1,1560,1632,5.48634,-7.82446
343,-608,5.47192,5.61047,0,0,0,0,0,0,0,-1,1567,1632,5.47192,-5.61045
350,-608,11.6957,1.71387,0,0,0,0,0,0,0,-1,1574,1632,11.6957,-1.71388
357,-608,3.77002,5.10046,0,0,0,0,0,0,0,-1,1581,1632,3.77002,-5.10043
364,-608,16.7189,48.5698,0,0,0,0,0,0,0,-1,1588,1632,16.7189,-48.5698
371,-608,17.4058,48.9109,0,0,0,0,0,0,0,-1,1595,1632,17.4058,-48.9109
378,-608,17.4742,48.131,0.0325603,0.0199429,-0.0179706,0.0452973,0.0072058,-0.61659,0.0281059,0.0390958,1602,1632,17.4742,-48.131
385,-608,17.5757,47.3839,0.0287261,0.0170389,-0.0152417,0.039206,0.00655892,-0.602343,0.0242486,0.0327681,1609,1632,17.5756,-47.3839
392,-608,17.4872,46.6979,0.0245516,0.0144586,-0.0126272,0.0331034,0.00590687,-0.595294,0.0203872,0.0227581,1616,1632,17.4872,-46.6979
399,-608,17.5138,45.9781,0.0204058,0.0124785,-0.0103429,0.0275185,0.0053658,-0.602416,0.0168444,0.0113729,1623,1632,17.5138,-45.9782
406,-608,17.5513,45.3263,0.0164913,0.0107339,-0.00839432,0.0224868,0.00473844,-0.620215,0.0136879,0.00961712,1630,1632,17.5513,-45.3263
413,-608,17.5336,44.6914,0.0129464,0.00924715,-0.00674176,0.0180876,0.00410588,-0.651516,0.0109495,0.0104229,1637,1632,17.5336,-44.6914
420,-608,17.4871,44.045,0.00982563,0.00802024,-0.00543677,0.0144341,0.00341173,-0.703131,0.00871114,0.0180351,1644,1632,17.4871,-44.0451
427,-608,17.4934,43.4032,0.00717171,0.00683507,-0.00438324,0.0113899,0.00261692,-0.766207,0.00688866,0.0196788,1651,1632,17.4934,-43.4032
434,-608,17.4569,42.7598,0.00508066,0.00561648,-0.0036175,0.00897597,0.00172116,-0.82236,0.00550076,0.0158354,1658,1632,17.4569,-42.7598
441,-608,17.4369,42.1128,0.00331177,0.00478092,-0.00288251,0.00702098,0.0010717,-0.910162,0.00436747,0.0144283,1665,1632,17.4369,-42.1128
448,-608,17.4329,41.4611,0.00222459,0.00400897,-0.00265857,0.00592107,0.000312495,-0.947288,0.00384744,0.0152556,1672,1632,17.4329,-41.461
455,-608,17.4242,40.7705,0.00186972,0.00311992,-0.00273101,0.00529645,-0.000306813,-0.897905,0.00363756,0.0120682,1679,1632,17.4242,-40.7705
462,-608,17.3754,40.1113,0.00188176,0.0020163,-0.00272895,0.00467881,-0.000780752,-0.797721,0.00340939,0.0122971,1686,1632,17.3753,-40.1113
469,-608,17.3151,39.4628,0.00182451,0.000865001,-0.0026733,0.00406076,-0.00137125,-0.696613,0.00326179,0.00910137,1693,1632,17.315,-39.4627
476,-608,17.2612,38.7849,0.00164326,9.61382e-05,-0.00256492,0.00354873,-0.00180933,-0.63894,0.00314734,0.00905465,1700,1632,17.2613,-38.785
483,-608,17.2361,38.0864,0.00134894,-0.00078405,-0.00246713,0.00297022,-0.00240533,-0.581387,0.00310928,0.00914545,1707,1632,17.2361,-38.0864
490,-608,17.2422,37.3959,0.000773687,-0.00134726,-0.00239567,0.0023331,-0.00290668,-0.57703,0.00303122,0.0120673,1714,1632,17.2421,-37.3959
497,-608,17.2543,36.671,0.00014301,-0.00185403,-0.00239493,0.00173924,-0.00345026,-0.587891,0.00304996,0.0304062,1721,1632,17.2543,-36.671
504,-608,17.426,35.83,0,0,0,0,0,0,0,-1,1728,1632,17.426,-35.83
511,-608,17.1503,35.571,0,0,0,0,0,0,0,-1,1735,1632,17.1503,-35.571
518,-608,17.1573,34.9248,0,0,0,0,0,0,0,-1,1742,1632,17.1574,-34.9249
525,-608,11.2109,16.2579,0,0,0,0,0,0,0,-1,1749,1632,11.2109,-16.2579
532,-608,8.27917,11.6693,0,0,0,0,0,0,0,-1,1756,1632,8.27919,-11.6694
539,-608,9.40796,1.43457,0,0,0,0,0,0,0,-1,1763,1632,9.40801,-1.43463
546,-608,9.94031,2.1134,0,0,0,0,0,0,0,-1,1770,1632,9.94031,-2.11346
553,-608,10.363,2.81335,0,0,0,0,0,0,0,-1,1777,1632,10.3631,-2.81333
560,-608,9.23999,4.5636,0,0,0,0,0,0,0,-1,1784,1632,9.24,-4.56354
567,-608,0,0,0,0,0,0,0,0,0,-1,1791,1632,0,0
574,-608,0,0,0,0,0,0,0,0,0,-1,1798,1632,0,0
581,-608,0,0,0,0,0,0,0,0,0,-1,1805,1632,0,0
588,-608,0,0,0,0,0,0,0,0,0,-1,1812,1632,0,0
595,-608,0,0,0,0,0,0,0,0,0,-1,1819,1632,0,0
602,-608,0,0,0,0,0,0,0,0,0,-1,1826,1632,0,0
609,-608,0,0,0,0,0,0,0,0,0,-1,1833,1632,0,0
616,-608,0,0,0,0,0,0,0,0,0,-1,1840,1632,0,0
623,-608,0,0,0,0,0,0,0,0,0,-1,1847,1632,0,0
630,-608,0,0,0,0,0,0,0,0,0,-1,1854,1632,0,0
637,-608,0,0,0,0,0,0,0,0,0,-1,1861,1632,0,0
644,-608,0,0,0,0,0,0,0,0,0,-1,1868,1632,0,0
651,-608,0,0,0,0,0,0,0,0,0,-1,1875,1632,0,0
658,-608,0,0,0,0,0,0,0,0,0,-1,1882,1632,0,0
665,-608,0,0,0,0,0,0,0,0,0,-1,1889,1632,0,0
672,-608,0,0,0,0,0,0,0,0,0,-1,1896,1632,0,0
679,-608,0,0,0,0,0,0,0,0,0,-1,1903,1632,0,0
686,-608,0,0,0,0,0,0,0,0,0,-1,1910,1632,0,0
693,-608,0,0,0,0,0,0,0,0,0,-1,1917,1632,0,0
700,-608,0,0,0,0,0,0,0,0,0,-1,1924,1632,0,0
707,-608,0,0,0,0,0,0,0,0,0,-1,1931,1632,0,0
714,-608,0,0,0,0,0,0,0,0,0,-1,1938,1632,0,0
721,-608,0,0,0,0,0,0,0,0,0,-1,1945,1632,0,0
728,-608,0,0,0,0,0,0,0,0,0,-1,1952,1632,0,0
735,-608,0,0,0,0,0,0,0,0,0,-1,1959,1632,0,0
742,-608,0,0,0,0,0,0,0,0,0,-1,1966,1632,0,0
749,-608,0,0,0,0,0,0,0,0,0,-1,1973,1632,0,0
756,-608,0,0,0,0,0,0,0,0,0,-1,1980,1632,0,0
763,-608,0,0,0,0,0,0,0,0,0,-1,1987,1632,0,0
770,-608,0,0,0,0,0,0,0,0,0,-1,1994,1632,0,0
777,-608,0,0,0,0,0,0,0,0,0,-1,2001,1632,0,0
784,-608,0,0,0,0,0,0,0,0,0,-1,2008,1632,0,0
791,-608,0,0,0,0,0,0,0,0,0,-1,2015,1632,0,0
798,-608,0,0,0,0,0,0,0,0,0,-1,2022,1632,0,0
805,-608,0,0,0,0,0,0,0,0,0,-1,2029,1632,0,0
812,-608,0,0,0,0,0,0,0,0,0,-1,2036,1632,0,0
-700,-615,0,0,0,0,0,0,0,0,0,-1,524,1639,0,0
-693,-615,0,0,0,0,0,0,0,0,0,-1,531,1639,0,0
-686,-615,0,0,0,0,0,0,0,0,0,-1,538,1639,0,0
-679,-615,0,0,0,0,0,0,0,0,0,-1,545,1639,0,0
-672,-615,0,0,0,0,0,0,0,0,0,-1,552,1639,0,0
-665,-615,0,0,0,0,0,0,0,0,0,-1,559,1639,0,0
-658,-615,0,0,0,0,0,0,0,0,0,-1,566,1639,0,0
-651,-615,0,0,0,0,0,0,0,0,0,-1,573,1639,0,0
-644,-615,0,0,0,0,0,0,0,0,0,-1,580,1639,0,0
-637,-615,0,0,0,0,0,0,0,0,0,-1,587,1639,0,0
-630,-615,0,0,0,0,0,0,0,0,0,-1,594,1639,0,0
-623,-615,0,0,0,0,0,0,0,0,0,-1,601,1639,0,0
-616,-615,0,0,0,0,0,0,0,0,0,-1,608,1639,0,0
-609,-615,0,0,0,0,0,0,0,0,0,-1,615,1639,0,0
-602,-615,0,0,0,0,0,0,0,0,0,-1,622,1639,0,0
-595,-615,0,0,0,0,0,0,0,0,0,-1,629,1639,0,0
-588,-615,0,0,0,0,0,0,0,0,0,-1,636,1639,0,0
-581,-615,0,0,0,0,0,0,0,0,0,-1,643,1639,0,0
-574,-615,0,0,0,0,0,0,0,0,0,-1,650,1639,0,0
-567,-615,0,0,0,0,0,0,0,0,0,-1,657,1639,0,0
-560,-615,0,0,0,0,0,0,0,0,0,-1,664,1639,0,0
-553,-615,0,0,0,0,0,0,0,0,0,-1,671,1639,0,0
-546,-615,0,0,0,0,0,0,0,0,0,-1,678,1639,0,0
-539,-615,0,0,0,0,0,0,0,0,0,-1,685,1639,0,0
-532,-615,0,0,0,0,0,0,0,0,0,-1,692,1639,0,0
-525,-615,0,0,0,0,0,0,0,0,0,-1,699,1639,0,0
-518,-615,0,0,0,0,0,0,0,0,0,-1,706,1639,0,0
-511,-615,0,0,0,0,0,0,0,0,0,-1,713,1639,0,0
-504,-615,0,0,0,0,0,0,0,0,0,-1,720,1639,0,0
-497,-615,0,0,0,0,0,0,0,0,0,-1,727,1639,0,0
-490,-615,0,0,0,0,0,0,0,0,0,-1,734,1639,0,0
-483,-615,0,0,0,0,0,0,0,0,0,-1,741,1639,0,0
-476,-615,0,0,0,0,0,0,0,0,0,-1,748,1639,0,0
-469,-615,0,0,0,0,0,0,0,0,0,-1,755,1639,0,0
-462,-615,0,0,0,0,0,0,0,0,0,-1,762,1639,0,0
-455,-615,0,0,0,0,0,0,0,0,0,-1,769,1639,0,0
-448,-615,0,0,0,0,0,0,0,0,0,-1,776,1639,0,0
-441,-615,0,0,0,0,0,0,0,0,0,-1,783,1639,0,0
-434,-615,-7.64508,2.98596,0,0,0,0,0,0,0,-1,790,1639,-7.64505,-2.98594
-427,-615,-9.0011,2.89404,0,0,0,0,0,0,0,-1,797,1639,-9.00107,-2.89399
-420,-615,-8.07568,3.0752,0,0,0,0,0,0,0,-1,804,1639,-8.07569,-3.07514
-413,-615,-7.09149,3.396,0,0,0,0,0,0,0,-1,811,1639,-7.09147,-3.39599
-406,-615,-6.21368,3.7312,0,0,0,0,0,0,0,-1,818,1639,-6.21366,-3.73114
-399,-615,-4.84875,3.91907,0,0,0,0,0,0,0,-1,825,1639,-4.84877,-3.91901
-392,-615,1.7395,13.3127,0,0,0,0,0,0,0,-1,832,1639,1.73953,-13.3128
-385,-615,3.42297,14.9401,0,0,0,0,0,0,0,-1,839,1639,3.42296,-14.94
-378,-615,2.80365,34.2993,0,0,0,0,0,0,0,-1,846,1639,2.80367,-34.2993
-371,-615,2.06952,35.9141,0,0,0,0,0,0,0,-1,853,1639,2.06954,-35.9141
-364,-615,1.89948,36.8994,0,0,0,0,0,0,0,-1,860,1639,1.89948,-36.8995
-357,-615,1.82574,37.5681,0,0,0,0,0,0,0,-1,867,1639,1.82577,-37.5681
-350,-615,1.82251,38.4641,0.00200695,-0.0037045,0.00117515,0.00223929,-0.00393684,0.195194,0.0036104,0.0341815,874,1639,1.82254,-38.4642
-343,-615,1.74109,39.0901,0.00219352,-0.00305251,0.00100934,0.00238102,-0.00324001,0.183667,0.00325791,0.0202773,881,1639,1.74107,-39.0901
-336,-615,1.77277,39.7903,0.00225175,-0.00244928,0.000847633,0.00239991,-0.00259744,0.173051,0.00288598,0.0107133,888,1639,1.77279,-39.7903
-329,-615,1.70038,40.5015,0.00229646,-0.00165198,0.000839973,0.00246773,-0.00182325,0.201134,0.00248669,0.0113285,895,1639,1.70037,-40.5015
-322,-615,1.66418,41.2041,0.0023424,-0.000770739,0.000934349,0.0026013,-0.00102964,0.270306,0.00216079,0.0130474,902,1639,1.66417,-41.2041
-315,-615,1.65216,41.9021,0.00247991,0.000296887,0.00118013,0.00299591,-0.000219113,0.412193,0.00207417,0.0165942,909,1639,1.65214,-41.9021
-308,-615,1.60919,42.5663,0.00294399,0.00141074,0.0015625,0.0039178,0.000436929,0.557332,0.00247909,0.0254992,916,1639,1.60921,-42.5663
-301,-615,1.59998,43.2023,0.00378399,0.00265838,0.00220828,0.00550005,0.000942315,0.660624,0.00339645,0.0137275,923,1639,1.59999,-43.2022
-294,-615,1.57495,43.8715,0.00485221,0.0039462,0.00303637,0.00746918,0.00132922,0.711348,0.00460084,0.0106531,930,1639,1.57495,-43.8715
-287,-615,1.52557,44.5372,0.00600899,0.0053337,0.00391338,0.00959926,0.00174343,0.742365,0.00590479,0.00814123,937,1639,1.52558,-44.5372
-280,-615,1.50934,45.1901,0.00750018,0.00669712,0.00493755,0.0120525,0.0021448,0.744827,0.00742407,0.0105093,944,1639,1.50935,-45.19
-273,-615,1.47498,45.8375,0.00928765,0.00776914,0.00597871,0.0145551,0.00250167,0.72224,0.00898635,0.012058,951,1639,1.47497,-45.8375
-266,-615,1.44537,46.4631,0.0111678,0.00877884,0.00701373,0.017088,0.00285861,0.701054,0.0105688,0.0123116,958,1639,1.44538,-46.4631
-259,-615,1.46985,47.0902,0.0132014,0.00968922,0.00804366,0.0196784,0.00321218,0.677926,0.0121901,0.0138482,965,1639,1.46984,-47.0902
-252,-615,1.46844,47.7883,0.0153704,0.0103616,0.00893331,0.0221437,0.00358825,0.648733,0.0137237,0.0179324,972,1639,1.46845,-47.7883
-245,-615,1.5965,48.5519,0.0174439,0.0107863,0.00973686,0.0244052,0.00382491,0.620688,0.0151569,0.0292813,979,1639,1.59652,-48.5519
-238,-615,1.60333,49.2039,0.0200545,0.00947628,0.010551,0.0265679,0.00296292,0.553058,0.0168116,0.0370248,986,1639,1.60334,-49.2038
-231,-615,1.75256,49.8419,0.0227493,0.00677832,0.0113886,0.0286731,0.000854515,0.479639,0.018837,0.0458253,993,1639,1.75259,-49.842
-224,-615,1.90234,50.7158,0,0,0,0,0,0,0,-1,1000,1639,1.90235,-50.7158
-217,-615,2.35602,49.8901,0,0,0,0,0,0,0,-1,1007,1639,2.35602,-49.8901
-210,-615,2.48901,18.9324,0,0,0,0,0,0,0,-1,1014,1639,2.48902,-18.9323
-203,-615,2.13684,18.6173,0,0,0,0,0,0,0,-1,1021,1639,2.13683,-18.6173
-196,-615,4.27161,21.3264,0,0,0,0,0,0,0,-1,1028,1639,4.27165,-21.3264
-189,-615,2.48047,51.85,0,0,0,0,0,0,0,-1,1035,1639,2.48045,-51.85
-182,-615,2.98364,52.7119,0,0,0,0,0,0,0,-1,1042,1639,2.9836,-52.7119
-175,-615,2.25159,49.2682,0,0,0,0,0,0,0,-1,1049,1639,2.25158,-49.2682
-168,-615,3.85754,15.472,0,0,0,0,0,0,0,-1,1056,1639,3.85757,-15.472
-161,-615,2.14307,46.5156,0,0,0,0,0,0,0,-1,1063,1639,2.14303,-46.5156
-154,-615,1.37329,47.9545,0,0,0,0,0,0,0,-1,1070,1639,1.37327,-47.9545
-147,-615,0.0180664,48.1396,0,0,0,0,0,0,0,-1,1077,1639,0.0180157,-48.1397
-140,-615,3.73401,10.2349,0,0,0,0,0,0,0,-1,1084,1639,3.73402,-10.2348
-133,-615,2.6178,17.45,0,0,0,0,0,0,0,-1,1091,1639,2.61776,-17.4499
-126,-615,4.43408,12.5017,0,0,0,0,0,0,0,-1,1098,1639,4.43403,-12.5018
-119,-615,4.82983,13.9279,0,0,0,0,0,0,0,-1,1105,1639,4.82986,-13.9278
-112,-615,3.65698,14.4874,0,0,0,0,0,0,0,-1,1112,1639,3.65695,-14.4875
-105,-615,0.958496,2.45398,0,0,0,0,0,0,0,-1,1119,1639,0.958452,-2.45398
-98,-615,-0.647705,2.12109,0,0,0,0,0,0,0,-1,1126,1639,-0.647756,-2.12105
-91,-615,-3.07983,2.97375,0,0,0,0,0,0,0,-1,1133,1639,-3.07989,-2.97376
-84,-615,-2.46509,0.703247,0,0,0,0,0,0,0,-1,1140,1639,-2.46505,-0.703273
-77,-615,-3.17859,1.23755,0,0,0,0,0,0,0,-1,1147,1639,-3.17865,-1.23752
-70,-615,-4.03943,1.43335,0,0,0,0,0,0,0,-1,1154,1639,-4.03942,-1.43339
-63,-615,-4.8877,1.45544,0,0,0,0,0,0,0,-1,1161,1639,-4.88766,-1.45549
-56,-615,0,0,0,0,0,0,0,0,0,-1,1168,1639,0,0
-49,-615,0,0,0,0,0,0,0,0,0,-1,1175,1639,0,0
-42,-615,0,0,0,0,0,0,0,0,0,-1,1182,1639,0,0
-35,-615,0,0,0,0,0,0,0,0,0,-1,1189,1639,0,0
-28,-615,0,0,0,0,0,0,0,0,0,-1,1196,1639,0,0
-21,-615,0,0,0,0,0,0,0,0,0,-1,1203,1639,0,0
-14,-615,0,0,0,0,0,0,0,0,0,-1,1210,1639,0,0
-7,-615,0,0,0,0,0,0,0,0,0,-1,1217,1639,0,0
0,-615,0,0,0,0,0,0,0,0,0,-1,1224,1639,0,0
7,-615,0,0,0,0,0,0,0,0,0,-1,1231,1639,0,0
14,-615,0,0,0,0,0,0,0,0,0,-1,1238,1639,0,0
21,-615,0,0,0,0,0,0,0,0,0,-1,1245,1639,0,0
28,-615,0,0,0,0,0,0,0,0,0,-1,1252,1639,0,0
35,-615,0,0,0,0,0,0,0,0,0,-1,1259,1639,0,0
42,-615,0,0,0,0,0,0,0,0,0,-1,1266,1639,0,0
49,-615,0,0,0,0,0,0,0,0,0,-1,1273,1639,0,0
56,-615,0,0,0,0,0,0,0,0,0,-1,1280,1639,0,0
63,-615,0,0,0,0,0,0,0,0,0,-1,1287,1639,0,0
70,-615,0,0,0,0,0,0,0,0,0,-1,1294,1639,0,0
77,-615,0,0,0,0,0,0,0,0,0,-1,1301,1639,0,0
84,-615,0,0,0,0,0,0,0,0,0,-1,1308,1639,0,0
91,-615,0,0,0,0,0,0,0,0,0,-1,1315,1639,0,0
98,-615,0,0,0,0,0,0,0,0,0,-1,1322,1639,0,0
105,-615,0,0,0,0,0,0,0,0,0,-1,1329,1639,0,0
112,-615,0,0,0,0,0,0,0,0,0,-1,1336,1639,0,0
119,-615,0,0,0,0,0,0,0,0,0,-1,1343,1639,0,0
126,-615,0,0,0,0,0,0,0,0,0,-1,1350,1639,0,0
133,-615,0,0,0,0,0,0,0,0,0,-1,1357,1639,0,0
140,-615,0,0,0,0,0,0,0,0,0,-1,1364,1639,0,0
147,-615,0,0,0,0,0,0,0,0,0,-1,1371,1639,0,0
154,-615,0,0,0,0,0,0,0,0,0,-1,1378,1639,0,0
161,-615,0,0,0,0,0,0,0,0,0,-1,1385,1639,0,0
168,-615,0,0,0,0,0,0,0,0,0,-1,1392,1639,0,0
175,-615,5.39648,-2.00879,0,0,0,0,0,0,0,-1,1399,1639,5.3965,2.00881
182,-615,5.65393,-1.51025,0,0,0,0,0,0,0,-1,1406,1639,5.65388,1.51028
189,-615,5.58972,-1.35608,0,0,0,0,0,0,0,-1,1413,1639,5.58967,1.35607
196,-615,5.49915,-0.693604,0,0,0,0,0,0,0,-1,1420,1639,5.4991,0.693602
203,-615,5.33411,-0.226685,0,0,0,0,0,0,0,-1,1427,1639,5.33414,0.226689
210,-615,5.60278,0.108276,0,0,0,0,0,0,0,-1,1434,1639,5.60284,-0.10831
217,-615,6.26331,-0.307373,0,0,0,0,0,0,0,-1,1441,1639,6.26331,0.307372
224,-615,5.45422,-0.333984,0,0,0,0,0,0,0,-1,1448,1639,5.45422,0.333992
231,-615,4.92542,1.80298,0,0,0,0,0,0,0,-1,1455,1639,4.92537,-1.80297
238,-615,4.76355,1.96729,0,0,0,0,0,0,0,-1,1462,1639,4.76357,-1.96734
245,-615,4.08643,3.15906,0,0,0,0,0,0,0,-1,1469,1639,4.08638,-3.159
252,-615,6.37805,3.73889,0,0,0,0,0,0,0,-1,1476,1639,6.37806,-3.73891
259,-615,8.35974,3.16443,0,0,0,0,0,0,0,-1,1483,1639,8.35975,-3.16444
266,-615,10.3414,2.58997,0,0,0,0,0,0,0,-1,1490,1639,10.3414,-2.58996
273,-615,6.57043,1.84766,0,0,0,0,0,0,0,-1,1497,1639,6.5704,-1.84771
280,-615,7.10449,3.23438,0,0,0,0,0,0,0,-1,1504,1639,7.10447,-3.23435
287,-615,7.35779,4.68542,0,0,0,0,0,0,0,-1,1511,1639,7.35776,-4.68546
294,-615,7.63733,6.29114,0,0,0,0,0,0,0,-1,1518,1639,7.63735,-6.29109
301,-615,8.47925,11.452,0,0,0,0,0,0,0,-1,1525,1639,8.47922,-11.452
308,-615,6.8114,10.9059,0,0,0,0,0,0,0,-1,1532,1639,6.81137,-10.9058
315,-615,5.1427,14.7251,0,0,0,0,0,0,0,-1,1539,1639,5.14269,-14.7251
322,-615,7.17981,17.6864,0,0,0,0,0,0,0,-1,1546,1639,7.17985,-17.6864
329,-615,7.62134,20.4354,0,0,0,0,0,0,0,-1,1553,1639,7.62139,-20.4354
336,-615,6.45007,14.1138,0,0,0,0,0,0,0,-1,1560,1639,6.45011,-14.1138
343,-615,2.40491,6.50134,0,0,0,0,0,0,0,-1,1567,1639,2.40489,-6.50137
350,-615,15.046,46.4662,0,0,0,0,0,0,0,-1,1574,1639,15.046,-46.4662
357,-615,16.615,50.312,0,0,0,0,0,0,0,-1,1581,1639,16.615,-50.312
364,-615,16.6394,49.4274,0,0,0,0,0,0,0,-1,1588,1639,16.6394,-49.4274
371,-615,16.6112,48.8317,0.025018,0.0189229,-0.0153601,0.0376299,0.00631098,-0.687466,0.02327,0.0415764,1595,1639,16.6112,-48.8316
378,-615,16.9061,47.8816,0.0230286,0.0162136,-0.0135365,0.0335799,0.0056623,-0.662096,0.0207582,0.0191644,1602,1639,16.9062,-47.8816
385,-615,16.9175,47.2228,0.0205505,0.0138023,-0.0115879,0.0292456,0.00510722,-0.643727,0.0180373,0.0121255,1609,1639,16.9175,-47.2228
392,-615,16.9185,46.5842,0.0177238,0.0116383,-0.00968096,0.0248289,0.00453319,-0.633134,0.0152676,0.011766,1616,1639,16.9185,-46.5842
399,-615,16.9127,45.9562,0.0148059,0.00991651,-0.00796896,0.0206967,0.00402568,-0.636567,0.0126709,0.0125554,1623,1639,16.9127,-45.9561
406,-615,16.9004,45.348,0.0120055,0.00835231,-0.00648572,0.016917,0.00344089,-0.648135,0.0103239,0.0113589,1630,1639,16.9004,-45.348
413,-615,16.8918,44.7363,0.00945272,0.00697867,-0.00520022,0.013561,0.00287037,-0.668628,0.00825201,0.0123126,1637,1639,16.8918,-44.7363
420,-615,16.8751,44.085,0.00716867,0.00589617,-0.00419818,0.0107785,0.0022863,-0.710194,0.00655782,0.0138264,1644,1639,16.8751,-44.085
427,-615,16.8505,43.4285,0.00517328,0.00485572,-0.0033975,0.0084157,0.0016133,-0.762048,0.00515751,0.0155197,1651,1639,16.8505,-43.4284
434,-615,16.8201,42.7853,0.00361421,0.00388358,-0.00287705,0.0066291,0.000868697,-0.808788,0.00416017,0.0148703,1658,1639,16.82,-42.7852
441,-615,16.8021,42.1462,0.00243126,0.0031871,-0.00246337,0.00530137,0.000316991,-0.861513,0.00343347,0.0154729,1665,1639,16.8022,-42.1463
448,-615,16.7839,41.5023,0.00185615,0.00254639,-0.00246453,0.00468984,-0.000287308,-0.854963,0.0032266,0.0148181,1672,1639,16.784,-41.5023
455,-615,16.7561,40.8204,0.00180273,0.0018225,-0.00267075,0.00448338,-0.000858159,-0.787249,0.00331224,0.0135172,1679,1639,16.7561,-40.8205
462,-615,16.7211,40.1763,0.00195121,0.000964883,-0.00282086,0.00432169,-0.0014056,-0.698859,0.00344656,0.0147261,1686,1639,16.7211,-40.1763
469,-615,16.6703,39.5051,0.00201071,-5.23723e-06,-0.00294016,0.00411088,-0.0021054,-0.620261,0.0036507,0.0126308,1693,1639,16.6703,-39.5051
476,-615,16.6272,38.7965,0.00198067,-0.000627389,-0.00300839,0.0039555,-0.00260222,-0.58089,0.00381288,0.0122096,1700,1639,16.6272,-38.7965
483,-615,16.6544,38.01,0.00186455,-0.00138841,-0.00311185,0.00374934,-0.0032732,-0.544587,0.00405757,0.0299309,1707,1639,16.6544,-38.0101
490,-615,16.6819,37.3334,0,0,0,0,0,0,0,-1,1714,1639,16.6819,-37.3334
497,-615,16.6901,36.5084,0,0,0,0,0,0,0,-1,1721,1639,16.69,-36.5084
504,-615,16.4989,34.738,0,0,0,0,0,0,0,-1,1728,1639,16.4989,-34.738
511,-615,15.2349,30.2052,0,0,0,0,0,0,0,-1,1735,1639,15.2348,-30.2052
518,-615,13.2416,9.81812,0,0,0,0,0,0,0,-1,1742,1639,13.2416,-9.81813
525,-615,4.37524,3.90491,0,0,0,0,0,0,0,-1,1749,1639,4.37518,-3.90495
532,-615,7.3645,0.848145,0,0,0,0,0,0,0,-1,1756,1639,7.36451,-0.848093
539,-615,12.8112,-0.0476074,0,0,0,0,0,0,0,-1,1763,1639,12.8111,0.0475553
546,-615,8.33813,2.94556,0,0,0,0,0,0,0,-1,1770,1639,8.33813,-2.9455
553,-615,5.82532,-2.04199,0,0,0,0,0,0,0,-1,1777,1639,5.82534,2.04195
560,-615,0,0,0,0,0,0,0,0,0,-1,1784,1639,0,0
567,-615,0,0,0,0,0,0,0,0,0,-1,1791,1639,0,0
574,-615,0,0,0,0,0,0,0,0,0,-1,1798,1639,0,0
581,-615,0,0,0,0,0,0,0,0,0,-1,1805,1639,0,0
588,-615,0,0,0,0,0,0,0,0,0,-1,1812,1639,0,0
595,-615,0,0,0,0,0,0,0,0,0,-1,1819,1639,0,0
602,-615,0,0,0,0,0,0,0,0,0,-1,1826,1639,0,0
609,-615,0,0,0,0,0,0,0,0,0,-1,1833,1639,0,0
616,-615,0,0,0,0,0,0,0,0,0,-1,1840,1639,0,0
623,-615,0,0,0,0,0,0,0,0,0,-1,1847,1639,0,0
630,-615,0,0,0,0,0,0,0,0,0,-1,1854,1639,0,0
637,-615,0,0,0,0,0,0,0,0,0,-1,1861,1639,0,0
644,-615,0,0,0,0,0,0,0,0,0,-1,1868,1639,0,0
651,-615,0,0,0,0,0,0,0,0,0,-1,1875,1639,0,0
658,-615,0,0,0,0,0,0,0,0,0,-1,1882,1639,0,0
665,-615,0,0,0,0,0,0,0,0,0,-1,1889,1639,0,0
672,-615,0,0,0,0,0,0,0,0,0,-1,1896,1639,0,0
679,-615,0,0,0,0,0,0,0,0,0,-1,1903,1639,0,0
686,-615,0,0,0,0,0,0,0,0,0,-1,1910,1639,0,0
693,-615,0,0,0,0,0,0,0,0,0,-1,1917,1639,0,0
700,-615,0,0,0,0,0,0,0,0,0,-1,1924,1639,0,0
707,-615,0,0,0,0,0,0,0,0,0,-1,1931,1639,0,0
714,-615,0,0,0,0,0,0,0,0,0,-1,1938,1639,0,0
721,-615,0,0,0,0,0,0,0,0,0,-1,1945,1639,0,0
728,-615,0,0,0,0,0,0,0,0,0,-1,1952,1639,0,0
735,-615,0,0,0,0,0,0,0,0,0,-1,1959,1639,0,0
742,-615,0,0,0,0,0,0,0,0,0,-1,1966,1639,0,0
749,-615,0,0,0,0,0,0,0,0,0,-1,1973,1639,0,0
756,-615,0,0,0,0,0,0,0,0,0,-1,1980,1639,0,0
763,-615,0,0,0,0,0,0,0,0,0,-1,1987,1639,0,0
770,-615,0,0,0,0,0,0,0,0,0,-1,1994,1639,0,0
777,-615,0,0,0,0,0,0,0,0,0,-1,2001,1639,0,0
784,-615,0,0,0,0,0,0,0,0,0,-1,2008,1639,0,0
791,-615,0,0,0,0,0,0,0,0,0,-1,2015,1639,0,0
798,-615,0,0,0,0,0,0,0,0,0,-1,2022,1639,0,0
805,-615,0,0,0,0,0,0,0,0,0,-1,2029,1639,0,0
812,-615,0,0,0,0,0,0,0,0,0,-1,2036,1639,0,0
-700,-622,0,0,0,0,0,0,0,0,0,-1,524,1646,0,0
-693,-622,0,0,0,0,0,0,0,0,0,-1,531,1646,0,0
-686,-622,0,0,0,0,0,0,0,0,0,-1,538,1646,0,0
-679,-622,0,0,0,0,0,0,0,0,0,-1,545,1646,0,0
-672,-622,0,0,0,0,0,0,0,0,0,-1,552,1646,0,0
-665,-622,0,0,0,0,0,0,0,0,0,-1,559,1646,0,0
-658,-622,0,0,0,0,0,0,0,0,0,-1,566,1646,0,0
-651,-622,0,0,0,0,0,0,0,0,0,-1,573,1646,0,0
-644,-622,0,0,0,0,0,0,0,0,0,-1,580,1646,0,0
-637,-622,0,0,0,0,0,0,0,0,0,-1,587,1646,0,0
-630,-622,0,0,0,0,0,0,0,0,0,-1,594,1646,0,0
-623,-622,0,0,0,0,0,0,0,0,0,-1,601,1646,0,0
-616,-622,0,0,0,0,0,0,0,0,0,-1,608,1646,0,0
-609,-622,0,0,0,0,0,0,0,0,0,-1,615,1646,0,0
-602,-622,0,0,0,0,0,0,0,0,0,-1,622,1646,0,0
-595,-622,0,0,0,0,0,0,0,0,0,-1,629,1646,0,0
-588,-622,0,0,0,0,0,0,0,0,0,-1,636,1646,0,0
-581,-622,0,0,0,0,0,0,0,0,0,-1,643,1646,0,0
-574,-622,0,0,0,0,0,0,0,0,0,-1,650,1646,0,0
-567,-622,0,0,0,0,0,0,0,0,0,-1,657,1646,0,0
-560,-622,0,0,0,0,0,0,0,0,0,-1,664,1646,0,0
-553,-622,0,0,0,0,0,0,0,0,0,-1,671,1646,0,0
-546,-622,0,0,0,0,0,0,0,0,0,-1,678,1646,0,0
-539,-622,0,0,0,0,0,0,0,0,0,-1,685,1646,0,0
-532,-622,0,0,0,0,0,0,0,0,0,-1,692,1646,0,0
-525,-622,0,0,0,0,0,0,0,0,0,-1,699,1646,0,0
-518,-622,0,0,0,0,0,0,0,0,0,-1,706,1646,0,0
-511,-622,0,0,0,0,0,0,0,0,0,-1,713,1646,0,0
-504,-622,0,0,0,0,0,0,0,0,0,-1,720,1646,0,0
-497,-622,0,0,0,0,0,0,0,0,0,-1,727,1646,0,0
-490,-622,0,0,0,0,0,0,0,0,0,-1,734,1646,0,0
-483,-622,0,0,0,0,0,0,0,0,0,-1,741,1646,0,0
-476,-622,0,0,0,0,0,0,0,0,0,-1,748,1646,0,0
-469,-622,0,0,0,0,0,0,0,0,0,-1,755,1646,0,0
-462,-622,0,0,0,0,0,0,0,0,0,-1,762,1646,0,0
-455,-622,0,0,0,0,0,0,0,0,0,-1,769,1646,0,0
-448,-622,0,0,0,0,0,0,0,0,0,-1,776,1646,0,0
-441,-622,0,0,0,0,0,0,0,0,0,-1,783,1646,0,0
-434,-622,0,0,0,0,0,0,0,0,0,-1,790,1646,0,0
-427,-622,-7.62891,3.48096,0,0,0,0,0,0,0,-1,797,1646,-7.62892,-3.48092
-420,-622,-9.35791,1.77185,0,0,0,0,0,0,0,-1,804,1646,-9.35789,-1.77183
-413,-622,-8.46075,1.96777,0,0,0,0,0,0,0,-1,811,1646,-8.46074,-1.96774
-406,-622,-4.44318,2.16858,0,0,0,0,0,0,0,-1,818,1646,-4.44315,-2.16859
-399,-622,-7.06976,1.51001,0,0,0,0,0,0,0,-1,825,1646,-7.06976,-1.51005
-392,-622,3.89551,5.85376,0,0,0,0,0,0,0,-1,832,1646,3.8955,-5.85379
-385,-622,2.00543,14.0448,0,0,0,0,0,0,0,-1,839,1646,2.00544,-14.0448
-378,-622,1.49036,15.3436,0,0,0,0,0,0,0,-1,846,1646,1.49033,-15.3436
-371,-622,2.59088,35.0416,0,0,0,0,0,0,0,-1,853,1646,2.59086,-35.0417
-364,-622,2.29492,36.7421,0,0,0,0,0,0,0,-1,860,1646,2.29495,-36.7421
-357,-622,2.62036,37.7284,0,0,0,0,0,0,0,-1,867,1646,2.62038,-37.7284
-350,-622,2.45575,38.5549,0.00317189,-0.00532276,0.000998705,0.00328773,-0.0054386,0.115471,0.0050889,0.0454076,874,1646,2.45572,-38.5549
-343,-622,2.30304,39.2289,0.00303641,-0.00438145,0.000786732,0.00311893,-0.00446398,0.10451,0.00440089,0.0264357,881,1646,2.30303,-39.2288
-336,-622,2.45087,39.8093,0.00275213,-0.00366442,0.000543755,0.00279788,-0.00371017,0.083945,0.00376971,0.00927453,888,1646,2.45087,-39.8093
-329,-622,2.37872,40.5044,0.00244648,-0.002892,0.000421402,0.00247954,-0.00292506,0.0782905,0.00312388,0.00851398,895,1646,2.37871,-40.5044
-322,-622,2.33087,41.2075,0.00216586,-0.002138,0.00036891,0.00219725,-0.00216939,0.0848909,0.0025211,0.0104626,902,1646,2.33087,-41.2075
-315,-622,2.30182,41.9019,0.00201457,-0.00116526,0.000500933,0.00209162,-0.0012423,0.152612,0.00194555,0.0149653,909,1646,2.30183,-41.9019
-308,-622,2.2796,42.5548,0.00215689,-0.000151543,0.000756653,0.0023828,-0.000377449,0.290135,0.00172815,0.0158882,916,1646,2.27963,-42.5548
-301,-622,2.27435,43.1958,0.00263531,0.000923686,0.00122692,0.00327541,0.00028359,0.480865,0.00209548,0.0150642,923,1646,2.27438,-43.1958
-294,-622,2.2226,43.8785,0.00340038,0.00203181,0.00187546,0.00471249,0.0007197,0.610471,0.00293136,0.0107791,930,1646,2.22257,-43.8786
-287,-622,2.18494,44.5425,0.00422467,0.00319355,0.00257548,0.00633568,0.00108253,0.686614,0.00391318,0.00831352,937,1646,2.18491,-44.5425
-280,-622,2.15326,45.1895,0.00531596,0.00435368,0.00338328,0.00825214,0.0014175,0.714766,0.00509508,0.0106312,944,1646,2.15328,-45.1894
-273,-622,2.14423,45.8136,0.00671326,0.00518891,0.00419185,0.0102117,0.00169051,0.695469,0.00632009,0.0161872,951,1646,2.14425,-45.8136
-266,-622,2.10852,46.4381,0.00818645,0.00600708,0.00498609,0.0122005,0.00199299,0.677817,0.00755747,0.0156617,958,1646,2.10853,-46.4381
-259,-622,2.11566,47.1023,0.0097524,0.0067572,0.00573752,0.0141845,0.00232505,0.657737,0.00878452,0.0133582,965,1646,2.11566,-47.1023
-252,-622,2.08917,47.7209,0.0113637,0.00737283,0.00636201,0.0160359,0.00270067,0.633431,0.00991376,0.0133959,972,1646,2.08918,-47.721
-245,-622,2.14441,48.3546,0.0128919,0.00774736,0.00687298,0.0176582,0.00298107,0.606338,0.010915,0.0119118,979,1646,2.14443,-48.3546
-238,-622,2.13232,48.9711,0.014867,0.00675134,0.00738968,0.0192397,0.00237868,0.534313,0.0121117,0.0146915,986,1646,2.13234,-48.971
-231,-622,2.1972,49.6556,0.0169553,0.00468606,0.0079762,0.0208832,0.00075822,0.457585,0.0136764,0.023175,993,1646,2.1972,-49.6557
-224,-622,2.32153,50.1693,0.0189234,0.00240989,0.00830685,0.0223789,-0.00104565,0.394211,0.0152798,0.0354548,1000,1646,2.32151,-50.1694
-217,-622,2.41107,50.674,0,0,0,0,0,0,0,-1,1007,1646,2.41106,-50.674
-210,-622,2.57385,50.8997,0,0,0,0,0,0,0,-1,1014,1646,2.57384,-50.8997
-203,-622,4.21375,20.9574,0,0,0,0,0,0,0,-1,1021,1646,4.21375,-20.9574
-196,-622,2.72803,52.0175,0,0,0,0,0,0,0,-1,1028,1646,2.72803,-52.0175
-189,-622,2.88196,52.3059,0.0197899,-0.0231181,0.00915131,0.0216602,-0.0249883,0.201593,0.0269554,0.0484668,1035,1646,2.88192,-52.3059
-182,-622,3.23132,52.9313,0.0161958,-0.0323141,0.0105098,0.0183749,-0.0344931,0.204443,0.0309926,0.0493934,1042,1646,3.23127,-52.9313
-175,-622,3.61438,53.5428,0,0,0,0,0,0,0,-1,1049,1646,3.61438,-53.5428
-168,-622,3.44849,53.4453,0,0,0,0,0,0,0,-1,1056,1646,3.44848,-53.4453
-161,-622,2.79761,52.5291,0,0,0,0,0,0,0,-1,1063,1646,2.79756,-52.529
-154,-622,2.00879,52.2384,0,0,0,0,0,0,0,-1,1070,1646,2.00874,-52.2384
-147,-622,0.939453,52.2694,0,0,0,0,0,0,0,-1,1077,1646,0.939511,-52.2694
-140,-622,0.546997,48.6783,0,0,0,0,0,0,0,-1,1084,1646,0.547022,-48.6784
-133,-622,3.09644,17.677,0,0,0,0,0,0,0,-1,1091,1646,3.09638,-17.677
-126,-622,3.5061,19.5251,0,0,0,0,0,0,0,-1,1098,1646,3.50616,-19.5252
-119,-622,4.06384,13.1715,0,0,0,0,0,0,0,-1,1105,1646,4.06379,-13.1716
-112,-622,4.33276,14.6605,0,0,0,0,0,0,0,-1,1112,1646,4.33281,-14.6605
-105,-622,0.306519,4.38159,0,0,0,0,0,0,0,-1,1119,1646,0.306536,-4.38159
-98,-622,-0.510376,3.5033,0,0,0,0,0,0,0,-1,1126,1646,-0.510393,-3.50324
-91,-622,-1.146,0.975952,0,0,0,0,0,0,0,-1,1133,1646,-1.14599,-0.97597
-84,-622,-2.04895,1.31787,0,0,0,0,0,0,0,-1,1140,1646,-2.0489,-1.31781
-77,-622,-1.80627,0.332275,0,0,0,0,0,0,0,-1,1147,1646,-1.80622,-0.33223
-70,-622,-3.65588,2.28149,0,0,0,0,0,0,0,-1,1154,1646,-3.65589,-2.28155
-63,-622,-2.49683,1.27087,0,0,0,0,0,0,0,-1,1161,1646,-2.49679,-1.27093
-56,-622,-2.44238,-0.575562,0,0,0,0,0,0,0,-1,1168,1646,-2.44242,0.575508
-49,-622,-2.41089,1.38818,0,0,0,0,0,0,0,-1,1175,1646,-2.41088,-1.38815
-42,-622,-2.71497,2.85242,0,0,0,0,0,0,0,-1,1182,1646,-2.71491,-2.85247
-35,-622,-3.0177,4.25842,0,0,0,0,0,0,0,-1,1189,1646,-3.01773,-4.25838
-28,-622,-0.896606,0.678833,0,0,0,0,0,0,0,-1,1196,1646,-0.89661,-0.678835
-21,-622,16.4141,36.2849,0,0,0,0,0,0,0,-1,1203,1646,16.4141,-36.285
-14,-622,7.23254,64.425,0,0,0,0,0,0,0,-1,1210,1646,7.23256,-64.425
-7,-622,8.7146,65.0078,0,0,0,0,0,0,0,-1,1217,1646,8.71455,-65.0078
0,-622,0,0,0,0,0,0,0,0,0,-1,1224,1646,0,0
7,-622,0,0,0,0,0,0,0,0,0,-1,1231,1646,0,0
14,-622,0,0,0,0,0,0,0,0,0,-1,1238,1646,0,0
21,-622,0,0,0,0,0,0,0,0,0,-1,1245,1646,0,0
28,-622,0,0,0,0,0,0,0,0,0,-1,1252,1646,0,0
35,-622,0,0,0,0,0,0,0,0,0,-1,1259,1646,0,0
42,-622,0,0,0,0,0,0,0,0,0,-1,1266,1646,0,0
49,-622,0,0,0,0,0,0,0,0,0,-1,1273,1646,0,0
56,-622,0,0,0,0,0,0,0,0,0,-1,1280,1646,0,0
63,-622,0,0,0,0,0,0,0,0,0,-1,1287,1646,0,0
70,-622,0,0,0,0,0,0,0,0,0,-1,1294,1646,0,0
77,-622,0,0,0,0,0,0,0,0,0,-1,1301,1646,0,0
84,-622,0,0,0,0,0,0,0,0,0,-1,1308,1646,0,0
91,-622,0,0,0,0,0,0,0,0,0,-1,1315,1646,0,0
98,-622,0,0,0,0,0,0,0,0,0,-1,1322,1646,0,0
105,-622,0,0,0,0,0,0,0,0,0,-1,1329,1646,0,0
112,-622,0,0,0,0,0,0,0,0,0,-1,1336,1646,0,0
119,-622,0,0,0,0,0,0,0,0,0,-1,1343,1646,0,0
126,-622,3.88538,53.7196,0,0,0,0,0,0,0,-1,1350,1646,3.88541,-53.7196
133,-622,17.9226,76.6138,0,0,0,0,0,0,0,-1,1357,1646,17.9226,-76.6137
140,-622,1.57654,69.812,0,0,0,0,0,0,0,-1,1364,1646,1.57654,-69.812
147,-622,21.0071,78.3402,0,0,0,0,0,0,0,-1,1371,1646,21.0071,-78.3402
154,-622,2.5271,52.655,0,0,0,0,0,0,0,-1,1378,1646,2.52706,-52.655
161,-622,10.6884,6.46448,0,0,0,0,0,0,0,-1,1385,1646,10.6883,-6.46442
168,-622,12.2402,5.18091,0,0,0,0,0,0,0,-1,1392,1646,12.2403,-5.1809
175,-622,5.64355,-1.77075,0,0,0,0,0,0,0,-1,1399,1646,5.64351,1.77077
182,-622,5.88586,-1.32251,0,0,0,0,0,0,0,-1,1406,1646,5.88587,1.32256
189,-622,5.97986,-1.18005,0,0,0,0,0,0,0,-1,1413,1646,5.97986,1.18003
196,-622,5.85022,-0.244507,0,0,0,0,0,0,0,-1,1420,1646,5.85026,0.244478
203,-622,5.25159,0.138794,0,0,0,0,0,0,0,-1,1427,1646,5.25162,-0.138822
210,-622,6.66833,0.0397949,0,0,0,0,0,0,0,-1,1434,1646,6.6684,-0.0398278
217,-622,6.12061,0.0506592,0,0,0,0,0,0,0,-1,1441,1646,6.12058,-0.0507181
224,-622,5.57275,0.0616455,0,0,0,0,0,0,0,-1,1448,1646,5.57276,-0.0616084
231,-622,5.31348,1.3949,0,0,0,0,0,0,0,-1,1455,1646,5.31342,-1.39495
238,-622,3.76477,2.90686,0,0,0,0,0,0,0,-1,1462,1646,3.7648,-2.90686
245,-622,5.13794,2.67993,0,0,0,0,0,0,0,-1,1469,1646,5.13796,-2.67992
252,-622,6.66528,2.53992,0,0,0,0,0,0,0,-1,1476,1646,6.66522,-2.53991
259,-622,8.93787,3.31458,0,0,0,0,0,0,0,-1,1483,1646,8.93791,-3.31454
266,-622,5.72644,3.11926,0,0,0,0,0,0,0,-1,1490,1646,5.72647,-3.1192
273,-622,7.28076,3.61218,0,0,0,0,0,0,0,-1,1497,1646,7.28071,-3.61212
280,-622,8.43127,4.4447,0,0,0,0,0,0,0,-1,1504,1646,8.43123,-4.44467
287,-622,8.60315,5.94617,0,0,0,0,0,0,0,-1,1511,1646,8.60319,-5.94622
294,-622,7.62756,11.5143,0,0,0,0,0,0,0,-1,1518,1646,7.62762,-11.5143
301,-622,7.36548,11.6569,0,0,0,0,0,0,0,-1,1525,1646,7.36549,-11.6569
308,-622,7.10339,11.7994,0,0,0,0,0,0,0,-1,1532,1646,7.10335,-11.7995
315,-622,8.28687,16.5842,0,0,0,0,0,0,0,-1,1539,1646,8.28689,-16.5843
322,-622,7.43689,20.5786,0,0,0,0,0,0,0,-1,1546,1646,7.43685,-20.5786
329,-622,9.76477,26.4202,0,0,0,0,0,0,0,-1,1553,1646,9.7648,-26.4202
336,-622,10.4526,28.8552,0,0,0,0,0,0,0,-1,1560,1646,10.4526,-28.8552
343,-622,15.1061,49.1334,0,0,0,0,0,0,0,-1,1567,1646,15.1061,-49.1335
350,-622,16.3567,50.7118,0,0,0,0,0,0,0,-1,1574,1646,16.3567,-50.7118
357,-622,16.2385,49.9836,0.0189102,0.0191263,-0.0132729,0.0322916,0.00574486,-0.789469,0.0198913,0.0404514,1581,1646,16.2385,-49.9837
364,-622,16.1959,49.2009,0.0182871,0.0171861,-0.0122924,0.0300413,0.00543187,-0.76302,0.0184849,0.0321125,1588,1646,16.1959,-49.2009
371,-622,16.2412,48.5043,0.0173533,0.0149332,-0.0111961,0.0274045,0.00488196,-0.731567,0.0168794,0.0205126,1595,1646,16.2412,-48.5043
378,-622,16.2996,47.8517,0.0160745,0.0128122,-0.00996625,0.0245422,0.00434451,-0.704283,0.0151228,0.0120993,1602,1646,16.2995,-47.8517
385,-622,16.2953,47.2062,0.0144485,0.0108545,-0.00860924,0.0214462,0.00385668,-0.682511,0.0132011,0.0102417,1609,1646,16.2952,-47.2062
392,-622,16.2811,46.6053,0.0124998,0.0090886,-0.00725709,0.018249,0.00333937,-0.669981,0.0112198,0.0118343,1616,1646,16.2811,-46.6053
399,-622,16.2729,45.9808,0.0104017,0.00765729,-0.00600528,0.0151896,0.00286943,-0.673077,0.00931834,0.0117366,1623,1646,16.273,-45.9808
406,-622,16.2454,45.3374,0.00837848,0.00630861,-0.00490942,0.0123609,0.00232623,-0.681516,0.00758502,0.0148628,1630,1646,16.2453,-45.3374
413,-622,16.2424,44.7222,0.00654081,0.00508108,-0.00393721,0.00981523,0.00180666,-0.69375,0.00603214,0.0166626,1637,1646,16.2425,-44.7222
420,-622,16.223,44.1277,0.00488443,0.00415695,-0.00319846,0.00773977,0.00130161,-0.72878,0.00478535,0.0166345,1644,1646,16.223,-44.1277
427,-622,16.1997,43.4639,0.00342827,0.00327957,-0.00263803,0.005993,0.00071484,-0.77131,0.00377965,0.0134882,1651,1646,16.1997,-43.4638
434,-622,16.1736,42.8126,0.0023288,0.00254203,-0.00234356,0.0047814,8.94303e-05,-0.808129,0.00315821,0.0142255,1658,1646,16.1736,-42.8126
441,-622,16.1635,42.1653,0.00165022,0.00198618,-0.00223219,0.0040567,-0.000420304,-0.822953,0.0028549,0.016528,1665,1646,16.1634,-42.1652
448,-622,16.1198,41.524,0.00154213,0.0014799,-0.00246479,0.003976,-0.000953965,-0.779087,0.00301932,0.0146594,1672,1646,16.1197,-41.5241
455,-622,16.0659,40.8451,0.00182579,0.0009345,-0.00283377,0.00424875,-0.00148845,-0.707406,0.00343779,0.0159677,1679,1646,16.0659,-40.8451
462,-622,16.0527,40.1824,0.00219991,0.000356257,-0.00320026,0.00460846,-0.00205229,-0.64517,0.00393885,0.0172652,1686,1646,16.0527,-40.1824
469,-622,16.0033,39.5111,0.00250275,-0.000340498,-0.00361174,0.00496258,-0.00280033,-0.597905,0.0045395,0.0190535,1693,1646,16.0033,-39.5111
476,-622,16.1051,38.8104,0.00276496,-0.000719845,-0.0039972,0.00538301,-0.0033379,-0.579862,0.00508096,0.039673,1700,1646,16.105,-38.8104
483,-622,16.0823,37.9314,0,0,0,0,0,0,0,-1,1707,1646,16.0823,-37.9314
490,-622,15.8815,36.627,0,0,0,0,0,0,0,-1,1714,1646,15.8814,-36.6269
497,-622,14.9666,32.1024,0,0,0,0,0,0,0,-1,1721,1646,14.9665,-32.1024
504,-622,10.8306,19.8021,0,0,0,0,0,0,0,-1,1728,1646,10.8306,-19.8022
511,-622,5.29004,4.14587,0,0,0,0,0,0,0,-1,1735,1646,5.29008,-4.14589
518,-622,5.6001,1.55359,0,0,0,0,0,0,0,-1,1742,1646,5.60015,-1.5536
525,-622,5.83093,2.01807,0,0,0,0,0,0,0,-1,1749,1646,5.83097,-2.01802
532,-622,5.44202,0.57373,0,0,0,0,0,0,0,-1,1756,1646,5.44196,-0.573705
539,-622,9.32129,1.06116,0,0,0,0,0,0,0,-1,1763,1646,9.32131,-1.0612
546,-622,6.50977,-3.45618,0,0,0,0,0,0,0,-1,1770,1646,6.50981,3.4562
553,-622,0,0,0,0,0,0,0,0,0,-1,1777,1646,0,0
560,-622,0,0,0,0,0,0,0,0,0,-1,1784,1646,0,0
567,-622,0,0,0,0,0,0,0,0,0,-1,1791,1646,0,0
574,-622,0,0,0,0,0,0,0,0,0,-1,1798,1646,0,0
581,-622,0,0,0,0,0,0,0,0,0,-1,1805,1646,0,0
588,-622,0,0,0,0,0,0,0,0,0,-1,1812,1646,0,0
595,-622,0,0,0,0,0,0,0,0,0,-1,1819,1646,0,0
602,-622,0,0,0,0,0,0,0,0,0,-1,1826,1646,0,0
609,-622,0,0,0,0,0,0,0,0,0,-1,1833,1646,0,0
616,-622,0,0,0,0,0,0,0,0,0,-1,1840,1646,0,0
623,-622,0,0,0,0,0,0,0,0,0,-1,1847,1646,0,0
630,-622,0,0,0,0,0,0,0,0,0,-1,1854,1646,0,0
637,-622,0,0,0,0,0,0,0,0,0,-1,1861,1646,0,0
644,-622,0,0,0,0,0,0,0,0,0,-1,1868,1646,0,0
651,-622,0,0,0,0,0,0,0,0,0,-1,1875,1646,0,0
658,-622,0,0,0,0,0,0,0,0,0,-1,1882,1646,0,0
665,-622,0,0,0,0,0,0,0,0,0,-1,1889,1646,0,0
672,-622,0,0,0,0,0,0,0,0,0,-1,1896,1646,0,0
679,-622,0,0,0,0,0,0,0,0,0,-1,1903,1646,0,0
686,-622,0,0,0,0,0,0,0,0,0,-1,1910,1646,0,0
693,-622,0,0,0,0,0,0,0,0,0,-1,1917,1646,0,0
700,-622,0,0,0,0,0,0,0,0,0,-1,1924,1646,0,0
707,-622,0,0,0,0,0,0,0,0,0,-1,1931,1646,0,0
714,-622,0,0,0,0,0,0,0,0,0,-1,1938,1646,0,0
721,-622,0,0,0,0,0,0,0,0,0,-1,1945,1646,0,0
728,-622,0,0,0,0,0,0,0,0,0,-1,1952,1646,0,0
735,-622,0,0,0,0,0,0,0,0,0,-1,1959,1646,0,0
742,-622,0,0,0,0,0,0,0,0,0,-1,1966,1646,0,0
749,-622,0,0,0,0,0,0,0,0,0,-1,1973,1646,0,0
756,-622,0,0,0,0,0,0,0,0,0,-1,1980,1646,0,0
763,-622,0,0,0,0,0,0,0,0,0,-1,1987,1646,0,0
770,-622,0,0,0,0,0,0,0,0,0,-1,1994,1646,0,0
777,-622,0,0,0,0,0,0,0,0,0,-1,2001,1646,0,0
784,-622,0,0,0,0,0,0,0,0,0,-1,2008,1646,0,0
791,-622,0,0,0,0,0,0,0,0,0,-1,2015,1646,0,0
798,-622,0,0,0,0,0,0,0,0,0,-1,2022,1646,0,0
805,-622,0,0,0,0,0,0,0,0,0,-1,2029,1646,0,0
812,-622,0,0,0,0,0,0,0,0,0,-1,2036,1646,0,0
-700,-629,0,0,0,0,0,0,0,0,0,-1,524,1653,0,0
-693,-629,0,0,0,0,0,0,0,0,0,-1,531,1653,0,0
-686,-629,0,0,0,0,0,0,0,0,0,-1,538,1653,0,0
-679,-629,0,0,0,0,0,0,0,0,0,-1,545,1653,0,0
-672,-629,0,0,0,0,0,0,0,0,0,-1,552,1653,0,0
-665,-629,0,0,0,0,0,0,0,0,0,-1,559,1653,0,0
-658,-629,0,0,0,0,0,0,0,0,0,-1,566,1653,0,0
-651,-629,0,0,0,0,0,0,0,0,0,-1,573,1653,0,0
-644,-629,0,0,0,0,0,0,0,0,0,-1,580,1653,0,0
-637,-629,0,0,0,0,0,0,0,0,0,-1,587,1653,0,0
-630,-629,0,0,0,0,0,0,0,0,0,-1,594,1653,0,0
-623,-629,0,0,0,0,0,0,0,0,0,-1,601,1653,0,0
-616,-629,0,0,0,0,0,0,0,0,0,-1,608,1653,0,0
-609,-629,0,0,0,0,0,0,0,0,0,-1,615,1653,0,0
-602,-629,0,0,0,0,0,0,0,0,0,-1,622,1653,0,0
-595,-629,0,0,0,0,0,0,0,0,0,-1,629,1653,0,0
-588,-629,0,0,0,0,0,0,0,0,0,-1,636,1653,0,0
-581,-629,0,0,0,0,0,0,0,0,0,-1,643,1653,0,0
-574,-629,0,0,0,0,0,0,0,0,0,-1,650,1653,0,0
-567,-629,0,0,0,0,0,0,0,0,0,-1,657,1653,0,0
-560,-629,0,0,0,0,0,0,0,0,0,-1,664,1653,0,0
-553,-629,0,0,0,0,0,0,0,0,0,-1,671,1653,0,0
-546,-629,0,0,0,0,0,0,0,0,0,-1,678,1653,0,0
-539,-629,0,0,0,0,0,0,0,0,0,-1,685,1653,0,0
-532,-629,0,0,0,0,0,0,0,0,0,-1,692,1653,0,0
-525,-629,0,0,0,0,0,0,0,0,0,-1,699,1653,0,0
-518,-629,0,0,0,0,0,0,0,0,0,-1,706,1653,0,0
-511,-629,0,0,0,0,0,0,0,0,0,-1,713,1653,0,0
-504,-629,0,0,0,0,0,0,0,0,0,-1,720,1653,0,0
-497,-629,0,0,0,0,0,0,0,0,0,-1,727,1653,0,0
-490,-629,0,0,0,0,0,0,0,0,0,-1,734,1653,0,0
-483,-629,0,0,0,0,0,0,0,0,0,-1,741,1653,0,0
-476,-629,0,0,0,0,0,0,0,0,0,-1,748,1653,0,0
-469,-629,0,0,0,0,0,0,0,0,0,-1,755,1653,0,0
-462,-629,0,0,0,0,0,0,0,0,0,-1,762,1653,0,0
-455,-629,0,0,0,0,0,0,0,0,0,-1,769,1653,0,0
-448,-629,0,0,0,0,0,0,0,0,0,-1,776,1653,0,0
-441,-629,0,0,0,0,0,0,0,0,0,-1,783,1653,0,0
-434,-629,0,0,0,0,0,0,0,0,0,-1,790,1653,0,0
-427,-629,0,0,0,0,0,0,0,0,0,-1,797,1653,0,0
-420,-629,-3.87103,3.37634,0,0,0,0,0,0,0,-1,804,1653,-3.87101,-3.37633
-413,-629,-5.69751,1.33582,0,0,0,0,0,0,0,-1,811,1653,-5.69754,-1.3358
-406,-629,2.85406,6.01501,0,0,0,0,0,0,0,-1,818,1653,2.85405,-6.01507
-399,-629,-0.455627,10.8687,0,0,0,0,0,0,0,-1,825,1653,-0.455625,-10.8687
-392,-629,1.15369,11.1295,0,0,0,0,0,0,0,-1,832,1653,1.1537,-11.1295
-385,-629,1.81976,11.6935,0,0,0,0,0,0,0,-1,839,1653,1.81975,-11.6935
-378,-629,2.19452,14.7941,0,0,0,0,0,0,0,-1,846,1653,2.19451,-14.7941
-371,-629,3.60114,14.7299,0,0,0,0,0,0,0,-1,853,1653,3.60113,-14.7299
-364,-629,3.26898,21.0801,0,0,0,0,0,0,0,-1,860,1653,3.26895,-21.08
-357,-629,4.38782,16.3444,0,0,0,0,0,0,0,-1,867,1653,4.38783,-16.3443
-350,-629,3.06982,38.6155,0,0,0,0,0,0,0,-1,874,1653,3.06981,-38.6155
-343,-629,2.86298,39.3029,0.0043754,-0.00591122,0.000453171,0.00439532,-0.00593115,0.0439409,0.00598393,0.038658,881,1653,2.86298,-39.3029
-336,-629,3.08575,39.8538,0.00361713,-0.00506744,0.000110952,0.00361855,-0.00506885,0.012773,0.00503892,0.0182906,888,1653,3.08575,-39.8538
-329,-629,3.06177,40.5436,0.00285132,-0.00434957,-0.000155117,0.00285466,-0.00435291,-0.0215281,0.00419115,0.0115164,895,1653,3.06177,-40.5436
-322,-629,3.01599,41.2402,0.00218073,-0.00365282,-0.000367102,0.00220374,-0.00367583,-0.0626002,0.00342986,0.0123413,902,1653,3.01601,-41.2402
-315,-629,2.97687,41.9363,0.00169339,-0.00269602,-0.000361284,0.00172293,-0.00272556,-0.0815764,0.00258999,0.0159189,909,1653,2.97686,-41.9363
-308,-629,2.94073,42.6039,0.00148727,-0.00170736,-0.000200171,0.00149977,-0.00171985,-0.0623335,0.0018603,0.0131374,916,1653,2.94073,-42.6038
-301,-629,2.9104,43.2727,0.00160519,-0.000707292,0.000134343,0.00161297,-0.000715071,0.0578354,0.00137701,0.0122894,923,1653,2.9104,-43.2728
-294,-629,2.87592,43.9167,0.00208,0.000323977,0.000652239,0.00229576,0.000108225,0.319457,0.00149573,0.0128165,930,1653,2.87594,-43.9168
-287,-629,2.84644,44.5732,0.00262035,0.00137222,0.00124532,0.00338922,0.000603354,0.553123,0.00208763,0.0103225,937,1653,2.84646,-44.5732
-280,-629,2.82092,45.2338,0.00337774,0.00244941,0.00193125,0.00489982,0.000927327,0.667463,0.00300551,0.0119089,944,1653,2.8209,-45.2337
-273,-629,2.79785,45.8525,0.0044616,0.00317268,0.00261657,0.00651191,0.00112237,0.664651,0.00401972,0.0158577,951,1653,2.79783,-45.8526
-266,-629,2.76849,46.4834,0.0056468,0.00388495,0.00329368,0.00817532,0.00135643,0.654727,0.00505905,0.0159683,958,1653,2.76849,-46.4834
-259,-629,2.75696,47.1572,0.0068922,0.00451725,0.00391631,0.0097971,0.00161235,0.638197,0.00606581,0.0162155,965,1653,2.75697,-47.1572
-252,-629,2.73889,47.7616,0.00812216,0.00507812,0.00443578,0.0112898,0.00191051,0.62013,0.00697742,0.0122588,972,1653,2.73891,-47.7616
-245,-629,2.74603,48.384,0.00930054,0.00539377,0.00481721,0.0125454,0.00214896,0.592778,0.00774724,0.00869966,979,1653,2.74602,-48.3841
-238,-629,2.72919,48.9954,0.0108409,0.00460132,0.00517183,0.0137611,0.00168118,0.514002,0.00866818,0.0113826,986,1653,2.72921,-48.9954
-231,-629,2.69305,49.6082,0.0124847,0.003055,0.00558097,0.0150758,0.000463894,0.434661,0.00989954,0.0162741,993,1653,2.69308,-49.6081
-224,-629,2.78864,50.2833,0.0140394,0.0014186,0.00577162,0.0162808,-0.000822766,0.370416,0.0111383,0.0185385,1000,1653,2.78861,-50.2833
-217,-629,2.73975,50.823,0.0158568,-0.000937514,0.00610079,0.0178391,-0.00291975,0.314155,0.0129759,0.0294733,1007,1653,2.73976,-50.823
-210,-629,2.88678,51.5557,0,0,0,0,0,0,0,-1,1014,1653,2.88677,-51.5557
-203,-629,3.02686,52.4495,0,0,0,0,0,0,0,-1,1021,1653,3.02688,-52.4495
-196,-629,3.26489,52.5634,0,0,0,0,0,0,0,-1,1028,1653,3.26491,-52.5633
-189,-629,3.24414,52.6084,0.0159922,-0.0171625,0.0069427,0.0173874,-0.0185576,0.198306,0.0207565,0.0441626,1035,1653,3.2442,-52.6083
-182,-629,3.46985,53.1625,0.0133664,-0.0238655,0.00823161,0.0151051,-0.0256042,0.208166,0.0237627,0.0446404,1042,1653,3.46986,-53.1624
-175,-629,3.59253,53.478,0,0,0,0,0,0,0,-1,1049,1653,3.59252,-53.4781
-168,-629,3.49915,53.4044,0,0,0,0,0,0,0,-1,1056,1653,3.4992,-53.4044
-161,-629,3.2146,53.0543,-0.000219143,-0.0411251,0.0132571,0.00370154,-0.0450458,0.287546,0.0313373,0.0482191,1063,1653,3.21462,-53.0543
-154,-629,2.30042,52.7101,0,0,0,0,0,0,0,-1,1070,1653,2.30043,-52.7101
-147,-629,1.22363,52.6086,0,0,0,0,0,0,0,-1,1077,1653,1.22368,-52.6087
-140,-629,3.68201,55.7941,0,0,0,0,0,0,0,-1,1084,1653,3.68206,-55.7941
-133,-629,3.22034,56.311,0,0,0,0,0,0,0,-1,1091,1653,3.22037,-56.311
-126,-629,4.01025,19.5328,0,0,0,0,0,0,0,-1,1098,1653,4.01022,-19.5328
-119,-629,4.94177,13.5525,0,0,0,0,0,0,0,-1,1105,1653,4.94172,-13.5525
-112,-629,5.63123,15.9187,0,0,0,0,0,0,0,-1,1112,1653,5.63118,-15.9187
-105,-629,2.15881,4.38342,0,0,0,0,0,0,0,-1,1119,1653,2.15878,-4.38347
-98,-629,0.825806,4.19385,0,0,0,0,0,0,0,-1,1126,1653,0.825779,-4.1939
-91,-629,-0.452271,3.64465,0,0,0,0,0,0,0,-1,1133,1653,-0.452278,-3.6446
-84,-629,-2.6084,0.466797,0,0,0,0,0,0,0,-1,1140,1653,-2.6084,-0.466786
-77,-629,-3.50903,2.10706,0,0,0,0,0,0,0,-1,1147,1653,-3.509,-2.10707
-70,-629,-1.20886,2.52502,0,0,0,0,0,0,0,-1,1154,1653,-1.20886,-2.525
-63,-629,-0.960693,4.30212,0,0,0,0,0,0,0,-1,1161,1653,-0.960691,-4.30215
-56,-629,-1.31934,5.64343,0,0,0,0,0,0,0,-1,1168,1653,-1.31928,-5.6434
-49,-629,-2.15662,2.57458,0,0,0,0,0,0,0,-1,1175,1653,-2.15656,-2.57459
-42,-629,-2.46326,3.91467,0,0,0,0,0,0,0,-1,1182,1653,-2.4633,-3.91466
-35,-629,-2.67261,5.24292,0,0,0,0,0,0,0,-1,1189,1653,-2.67257,-5.24298
-28,-629,-0.402954,-0.866577,0,0,0,0,0,0,0,-1,1196,1653,-0.402943,0.866612
-21,-629,3.45508,27.0596,0,0,0,0,0,0,0,-1,1203,1653,3.45508,-27.0596
-14,-629,8.51392,63.925,0,0,0,0,0,0,0,-1,1210,1653,8.51388,-63.925
-7,-629,8.65881,64.5419,0,0,0,0,0,0,0,-1,1217,1653,8.65886,-64.5418
0,-629,8.69666,65.0687,0,0,0,0,0,0,0,-1,1224,1653,8.69666,-65.0688
7,-629,8.65295,65.4451,0,0,0,0,0,0,0,-1,1231,1653,8.65299,-65.4451
14,-629,8.20801,58.7864,0,0,0,0,0,0,0,-1,1238,1653,8.20802,-58.7864
21,-629,8.26465,59.6951,0,0,0,0,0,0,0,-1,1245,1653,8.2647,-59.6951
28,-629,8.29077,60.7081,-0.0224202,-0.129147,0.016187,-0.0200192,-0.131548,0.147257,0.0818459,0.047982,1252,1653,8.29072,-60.7081
35,-629,7.94751,61.4697,-0.0160786,-0.124436,0.0115955,-0.0148516,-0.125663,0.105421,0.0792896,0.0477697,1259,1653,7.94754,-61.4697
42,-629,7.55725,62.1284,-0.0104332,-0.114196,0.00132564,-0.0104163,-0.114213,0.0127728,0.0729184,0.0492509,1266,1653,7.55721,-62.1284
49,-629,7.1991,62.7987,-0.00992336,-0.0989579,-0.00895495,-0.00903162,-0.0998497,-0.0992538,0.0637694,0.0487208,1273,1653,7.19912,-62.7987
56,-629,8.09619,64.4489,0,0,0,0,0,0,0,-1,1280,1653,8.09622,-64.4489
63,-629,16.5742,70.1378,0,0,0,0,0,0,0,-1,1287,1653,16.5742,-70.1378
70,-629,19.0188,70.5034,0,0,0,0,0,0,0,-1,1294,1653,19.0188,-70.5034
77,-629,5.91125,63.2416,0,0,0,0,0,0,0,-1,1301,1653,5.91128,-63.2415
84,-629,6.04211,63.7974,-0.0413341,-0.013851,-0.0330436,0.00819451,-0.0633795,-0.98245,0.0452326,0.0482364,1308,1653,6.0421,-63.7974
91,-629,6.15356,64.3934,0,0,0,0,0,0,0,-1,1315,1653,6.15351,-64.3935
98,-629,5.31494,63.5701,0,0,0,0,0,0,0,-1,1322,1653,5.3149,-63.5701
105,-629,5.23157,63.8494,-0.0685229,0.0369429,-0.0280486,0.0439385,-0.0755184,-1.32638,0.0697672,0.0490168,1329,1653,5.23163,-63.8493
112,-629,5.16113,64.1366,0,0,0,0,0,0,0,-1,1336,1653,5.16117,-64.1366
119,-629,5.04956,64.5391,0,0,0,0,0,0,0,-1,1343,1653,5.04961,-64.5391
126,-629,4.90137,64.8777,0,0,0,0,0,0,0,-1,1350,1653,4.90141,-64.8777
133,-629,2.6499,67.4822,0,0,0,0,0,0,0,-1,1357,1653,2.64991,-67.4822
140,-629,2.4519,68.2211,0,0,0,0,0,0,0,-1,1364,1653,2.45195,-68.221
147,-629,2.02844,68.5651,0,0,0,0,0,0,0,-1,1371,1653,2.02841,-68.5651
154,-629,6.41516,53.151,0,0,0,0,0,0,0,-1,1378,1653,6.41517,-53.151
161,-629,10.5461,6.83752,0,0,0,0,0,0,0,-1,1385,1653,10.5461,-6.83758
168,-629,12.0059,5.56348,0,0,0,0,0,0,0,-1,1392,1653,12.0059,-5.56352
175,-629,5.84485,-1.78845,0,0,0,0,0,0,0,-1,1399,1653,5.84479,1.7884
182,-629,5.99036,-1.27783,0,0,0,0,0,0,0,-1,1406,1653,5.99041,1.27778
189,-629,5.97668,-0.748535,0,0,0,0,0,0,0,-1,1413,1653,5.97671,0.748544
196,-629,4.52869,9.24695,0,0,0,0,0,0,0,-1,1420,1653,4.52869,-9.2469
203,-629,3.75085,6.88037,0,0,0,0,0,0,0,-1,1427,1653,3.75087,-6.88032
210,-629,3.5907,6.52637,0,0,0,0,0,0,0,-1,1434,1653,3.59067,-6.52642
217,-629,2.4585,4.84448,0,0,0,0,0,0,0,-1,1441,1653,2.45855,-4.84448
224,-629,1.31982,3.68481,0,0,0,0,0,0,0,-1,1448,1653,1.31986,-3.68487
231,-629,3.63025,1.73499,0,0,0,0,0,0,0,-1,1455,1653,3.6303,-1.735
238,-629,4.26428,2.11255,0,0,0,0,0,0,0,-1,1462,1653,4.26429,-2.11253
245,-629,5.61816,1.95361,0,0,0,0,0,0,0,-1,1469,1653,5.61815,-1.95359
252,-629,7.27136,2.18982,0,0,0,0,0,0,0,-1,1476,1653,7.27131,-2.18985
259,-629,8.67334,2.18628,0,0,0,0,0,0,0,-1,1483,1653,8.6733,-2.18633
266,-629,6.86475,3.72058,0,0,0,0,0,0,0,-1,1490,1653,6.86479,-3.72063
273,-629,7.9021,3.8717,0,0,0,0,0,0,0,-1,1497,1653,7.90205,-3.87171
280,-629,9.70837,4.39087,0,0,0,0,0,0,0,-1,1504,1653,9.7084,-4.39082
287,-629,9.82947,7.19348,0,0,0,0,0,0,0,-1,1511,1653,9.8295,-7.19347
294,-629,6.56555,11.6359,0,0,0,0,0,0,0,-1,1518,1653,6.5656,-11.6358
301,-629,13.903,44.4862,0,0,0,0,0,0,0,-1,1525,1653,13.903,-44.4862
308,-629,6.08264,12.1423,0,0,0,0,0,0,0,-1,1532,1653,6.08263,-12.1423
315,-629,6.82043,18.2764,0,0,0,0,0,0,0,-1,1539,1653,6.82049,-18.2764
322,-629,14.1931,43.8071,0,0,0,0,0,0,0,-1,1546,1653,14.1931,-43.8071
329,-629,15.3738,52.0524,0,0,0,0,0,0,0,-1,1553,1653,15.3738,-52.0524
336,-629,15.3269,51.4025,0,0,0,0,0,0,0,-1,1560,1653,15.3269,-51.4025
343,-629,15.6129,50.7904,0,0,0,0,0,0,0,-1,1567,1653,15.6129,-50.7904
350,-629,15.8181,50.2998,0.012979,0.0174009,-0.00998984,0.0254215,0.0049584,-0.894301,0.0155605,0.0320296,1574,1653,15.8181,-50.2999
357,-629,15.7789,49.6331,0.0127406,0.014518,-0.0091739,0.0228462,0.00441246,-0.833683,0.0139938,0.0169175,1581,1653,15.779,-49.633
364,-629,15.6896,49.0355,0.0124002,0.0130848,-0.00861693,0.0213663,0.00411881,-0.805249,0.0130891,0.0148826,1588,1653,15.6896,-49.0355
371,-629,15.6688,48.453,0.0118266,0.011386,-0.00796486,0.0195742,0.00363838,-0.771573,0.0120216,0.0122389,1595,1653,15.6688,-48.453
378,-629,15.6846,47.8363,0.0109972,0.00977451,-0.00718777,0.0175996,0.00317215,-0.742972,0.0108316,0.0107185,1602,1653,15.6846,-47.8363
385,-629,15.6898,47.2346,0.00993017,0.00824865,-0.00629556,0.0154409,0.00273796,-0.719017,0.0095135,0.0130128,1609,1653,15.6899,-47.2347
392,-629,15.6803,46.631,0.0085785,0.00687017,-0.00539555,0.0131871,0.0022616,-0.706895,0.00814289,0.0119927,1616,1653,15.6803,-46.631
399,-629,15.6619,46.001,0.00704557,0.00572239,-0.00451281,0.010945,0.00182294,-0.712615,0.00677133,0.0119722,1623,1653,15.6618,-46.001
406,-629,15.6376,45.3735,0.0055697,0.00460081,-0.00372848,0.00884507,0.00132543,-0.720794,0.00550832,0.0159474,1630,1653,15.6375,-45.3736
413,-629,15.5972,44.769,0.00425654,0.00359578,-0.00305906,0.00700301,0.00084931,-0.731606,0.00441289,0.0256188,1637,1653,15.5972,-44.769
420,-629,15.5447,44.161,0.003084,0.00286107,-0.00257432,0.00554927,0.000395801,-0.763762,0.00357489,0.0235506,1644,1653,15.5447,-44.161
427,-629,15.5671,43.5322,0.00207291,0.00218178,-0.00224915,0.00437715,-0.000122468,-0.797497,0.00295977,0.0165992,1651,1653,15.5672,-43.5322
434,-629,15.5707,42.8815,0.00136906,0.00169532,-0.00217476,0.00371306,-0.000648682,-0.822834,0.00271753,0.0144246,1658,1653,15.5707,-42.8814
441,-629,15.5208,42.2201,0.00111636,0.00132207,-0.00236126,0.00358272,-0.00114429,-0.807165,0.0028476,0.0170798,1665,1653,15.5207,-42.2201
448,-629,15.4861,41.5466,0.00142155,0.000991875,-0.00284213,0.00405695,-0.00164352,-0.747675,0.00338806,0.0158221,1672,1653,15.486,-41.5466
455,-629,15.4414,40.8695,0.00205421,0.00065359,-0.00339314,0.00481856,-0.00211076,-0.683632,0.0041012,0.0146056,1679,1653,15.4415,-40.8695
462,-629,15.4227,40.2524,0.00270152,0.000413054,-0.0040003,0.00571801,-0.00260344,-0.646099,0.00491528,0.0203347,1686,1653,15.4227,-40.2525
469,-629,15.3962,39.5289,0.00332041,8.26891e-05,-0.00476348,0.0067326,-0.0033295,-0.621597,0.00591907,0.0317413,1693,1653,15.3963,-39.5289
476,-629,15.5004,38.7855,0,0,0,0,0,0,0,-1,1700,1653,15.5004,-38.7856
483,-629,14.0381,30.967,0,0,0,0,0,0,0,-1,1707,1653,14.0381,-30.9671
490,-629,13.9072,28.8588,0,0,0,0,0,0,0,-1,1714,1653,13.9072,-28.8587
497,-629,10.3662,19.8605,0,0,0,0,0,0,0,-1,1721,1653,10.3662,-19.8605
504,-629,7.89453,15.5316,0,0,0,0,0,0,0,-1,1728,1653,7.89447,-15.5316
511,-629,6.29138,3.40295,0,0,0,0,0,0,0,-1,1735,1653,6.29137,-3.403
518,-629,5.84387,1.41858,0,0,0,0,0,0,0,-1,1742,1653,5.84391,-1.4186
525,-629,6.4729,1.02319,0,0,0,0,0,0,0,-1,1749,1653,6.47284,-1.02316
532,-629,6.86511,0.903687,0,0,0,0,0,0,0,-1,1756,1653,6.86514,-0.903691
539,-629,6.60803,0.746704,0,0,0,0,0,0,0,-1,1763,1653,6.60809,-0.746691
546,-629,0,0,0,0,0,0,0,0,0,-1,1770,1653,0,0
553,-629,0,0,0,0,0,0,0,0,0,-1,1777,1653,0,0
560,-629,0,0,0,0,0,0,0,0,0,-1,1784,1653,0,0
567,-629,0,0,0,0,0,0,0,0,0,-1,1791,1653,0,0
574,-629,0,0,0,0,0,0,0,0,0,-1,1798,1653,0,0
581,-629,0,0,0,0,0,0,0,0,0,-1,1805,1653,0,0
588,-629,0,0,0,0,0,0,0,0,0,-1,1812,1653,0,0
595,-629,0,0,0,0,0,0,0,0,0,-1,1819,1653,0,0
602,-629,0,0,0,0,0,0,0,0,0,-1,1826,1653,0,0
609,-629,0,0,0,0,0,0,0,0,0,-1,1833,1653,0,0
616,-629,0,0,0,0,0,0,0,0,0,-1,1840,1653,0,0
623,-629,0,0,0,0,0,0,0,0,0,-1,1847,1653,0,0
630,-629,0,0,0,0,0,0,0,0,0,-1,1854,1653,0,0
637,-629,0,0,0,0,0,0,0,0,0,-1,1861,1653,0,0
644,-629,0,0,0,0,0,0,0,0,0,-1,1868,1653,0,0
651,-629,0,0,0,0,0,0,0,0,0,-1,1875,1653,0,0
658,-629,0,0,0,0,0,0,0,0,0,-1,1882,1653,0,0
665,-629,0,0,0,0,0,0,0,0,0,-1,1889,1653,0,0
672,-629,0,0,0,0,0,0,0,0,0,-1,1896,1653,0,0
679,-629,0,0,0,0,0,0,0,0,0,-1,1903,1653,0,0
686,-629,0,0,0,0,0,0,0,0,0,-1,1910,1653,0,0
693,-629,0,0,0,0,0,0,0,0,0,-1,1917,1653,0,0
700,-629,0,0,0,0,0,0,0,0,0,-1,1924,1653,0,0
707,-629,0,0,0,0,0,0,0,0,0,-1,1931,1653,0,0
714,-629,0,0,0,0,0,0,0,0,0,-1,1938,1653,0,0
721,-629,0,0,0,0,0,0,0,0,0,-1,1945,1653,0,0
728,-629,0,0,0,0,0,0,0,0,0,-1,1952,1653,0,0
735,-629,0,0,0,0,0,0,0,0,0,-1,1959,1653,0,0
742,-629,0,0,0,0,0,0,0,0,0,-1,1966,1653,0,0
749,-629,0,0,0,0,0,0,0,0,0,-1,1973,1653,0,0
756,-629,0,0,0,0,0,0,0,0,0,-1,1980,1653,0,0
763,-629,0,0,0,0,0,0,0,0,0,-1,1987,1653,0,0
770,-629,0,0,0,0,0,0,0,0,0,-1,1994,1653,0,0
777,-629,0,0,0,0,0,0,0,0,0,-1,2001,1653,0,0
784,-629,0,0,0,0,0,0,0,0,0,-1,2008,1653,0,0
791,-629,0,0,0,0,0,0,0,0,0,-1,2015,1653,0,0
798,-629,0,0,0,0,0,0,0,0,0,-1,2022,1653,0,0
805,-629,0,0,0,0,0,0,0,0,0,-1,2029,1653,0,0
812,-629,0,0,0,0,0,0,0,0,0,-1,2036,1653,0,0
-700,-636,0,0,0,0,0,0,0,0,0,-1,524,1660,0,0
-693,-636,0,0,0,0,0,0,0,0,0,-1,531,1660,0,0
-686,-636,0,0,0,0,0,0,0,0,0,-1,538,1660,0,0
-679,-636,0,0,0,0,0,0,0,0,0,-1,545,1660,0,0
-672,-636,0,0,0,0,0,0,0,0,0,-1,552,1660,0,0
-665,-636,0,0,0,0,0,0,0,0,0,-1,559,1660,0,0
-658,-636,0,0,0,0,0,0,0,0,0,-1,566,1660,0,0
-651,-636,0,0,0,0,0,0,0,0,0,-1,573,1660,0,0
-644,-636,0,0,0,0,0,0,0,0,0,-1,580,1660,0,0
-637,-636,0,0,0,0,0,0,0,0,0,-1,587,1660,0,0
-630,-636,0,0,0,0,0,0,0,0,0,-1,594,1660,0,0
-623,-636,0,0,0,0,0,0,0,0,0,-1,601,1660,0,0
-616,-636,0,0,0,0,0,0,0,0,0,-1,608,1660,0,0
-609,-636,0,0,0,0,0,0,0,0,0,-1,615,1660,0,0
-602,-636,0,0,0,0,0,0,0,0,0,-1,622,1660,0,0
-595,-636,0,0,0,0,0,0,0,0,0,-1,629,1660,0,0
-588,-636,0,0,0,0,0,0,0,0,0,-1,636,1660,0,0
-581,-636,0,0,0,0,0,0,0,0,0,-1,643,1660,0,0
-574,-636,0,0,0,0,0,0,0,0,0,-1,650,1660,0,0
-567,-636,0,0,0,0,0,0,0,0,0,-1,657,1660,0,0
-560,-636,0,0,0,0,0,0,0,0,0,-1,664,1660,0,0
-553,-636,0,0,0,0,0,0,0,0,0,-1,671,1660,0,0
-546,-636,0,0,0,0,0,0,0,0,0,-1,678,1660,0,0
-539,-636,0,0,0,0,0,0,0,0,0,-1,685,1660,0,0
-532,-636,0,0,0,0,0,0,0,0,0,-1,692,1660,0,0
-525,-636,0,0,0,0,0,0,0,0,0,-1,699,1660,0,0
-518,-636,0,0,0,0,0,0,0,0,0,-1,706,1660,0,0
-511,-636,0,0,0,0,0,0,0,0,0,-1,713,1660,0,0
-504,-636,0,0,0,0,0,0,0,0,0,-1,720,1660,0,0
-497,-636,0,0,0,0,0,0,0,0,0,-1,727,1660,0,0
-490,-636,0,0,0,0,0,0,0,0,0,-1,734,1660,0,0
-483,-636,0,0,0,0,0,0,0,0,0,-1,741,1660,0,0
-476,-636,0,0,0,0,0,0,0,0,0,-1,748,1660,0,0
-469,-636,0,0,0,0,0,0,0,0,0,-1,755,1660,0,0
-462,-636,0,0,0,0,0,0,0,0,0,-1,762,1660,0,0
-455,-636,0,0,0,0,0,0,0,0,0,-1,769,1660,0,0
-448,-636,0,0,0,0,0,0,0,0,0,-1,776,1660,0,0
-441,-636,0,0,0,0,0,0,0,0,0,-1,783,1660,0,0
-434,-636,0,0,0,0,0,0,0,0,0,-1,790,1660,0,0
-427,-636,0,0,0,0,0,0,0,0,0,-1,797,1660,0,0
-420,-636,0,0,0,0,0,0,0,0,0,-1,804,1660,0,0
-413,-636,0,0,0,0,0,0,0,0,0,-1,811,1660,0,0
-406,-636,-0.591125,10.6943,0,0,0,0,0,0,0,-1,818,1660,-0.59115,-10.6943
-399,-636,0.0766602,11.2408,0,0,0,0,0,0,0,-1,825,1660,0.076685,-11.2409
-392,-636,0.75946,11.9233,0,0,0,0,0,0,0,-1,832,1660,0.759481,-11.9233
-385,-636,1.68878,12.517,0,0,0,0,0,0,0,-1,839,1660,1.6888,-12.5169
-378,-636,2.22107,13.0013,0,0,0,0,0,0,0,-1,846,1660,2.22107,-13.0014
-371,-636,2.52185,11.9684,0,0,0,0,0,0,0,-1,853,1660,2.52184,-11.9684
-364,-636,4.51947,14.8503,0,0,0,0,0,0,0,-1,860,1660,4.51949,-14.8504
-357,-636,4.55682,15.8809,0,0,0,0,0,0,0,-1,867,1660,4.55681,-15.8808
-350,-636,2.57788,36.7095,0,0,0,0,0,0,0,-1,874,1660,2.57785,-36.7094
-343,-636,3.37476,39.2958,0,0,0,0,0,0,0,-1,881,1660,3.37478,-39.2958
-336,-636,3.55109,39.953,0.0046533,-0.00666549,-0.00067963,0.00469396,-0.00670616,-0.0597582,0.00661595,0.0339329,888,1660,3.5511,-39.953
-329,-636,3.72534,40.5748,0.00333302,-0.00594288,-0.0010289,0.00344577,-0.00605563,-0.109154,0.00555419,0.0188702,895,1660,3.72533,-40.5748
-322,-636,3.69086,41.2554,0.00231177,-0.00512752,-0.00136739,0.00255514,-0.00537089,-0.176139,0.00467136,0.0132733,902,1660,3.69087,-41.2554
-315,-636,3.63477,41.9647,0.00142703,-0.00399217,-0.00145373,0.00179237,-0.00435751,-0.246214,0.00365214,0.0144626,909,1660,3.63474,-41.9647
-308,-636,3.60187,42.6555,0.000832997,-0.00288745,-0.00127885,0.00123018,-0.00328463,-0.301134,0.00269509,0.0120469,916,1660,3.60184,-42.6556
-301,-636,3.56342,43.3185,0.0006438,-0.00181956,-0.000988221,0.000991239,-0.002167,-0.338082,0.00186505,0.0115048,923,1660,3.56339,-43.3184
-294,-636,3.51794,43.9998,0.000871339,-0.000748844,-0.00052071,0.00102426,-0.000901762,-0.285641,0.00111274,0.0150913,930,1660,3.51796,-43.9997
-287,-636,3.49615,44.6288,0.00118302,0.000289946,3.54319e-05,0.00118443,0.000288543,0.0395909,0.000713167,0.0147685,937,1660,3.49618,-44.6287
-280,-636,3.47369,45.2664,0.00166888,0.00135841,0.000667031,0.0021985,0.00082879,0.671072,0.00128205,0.0149102,944,1660,3.4737,-45.2663
-273,-636,3.44397,45.8988,0.00250963,0.00202228,0.00129742,0.00358606,0.000945854,0.692572,0.00214607,0.0136897,951,1660,3.44399,-45.8989
-266,-636,3.41254,46.5439,0.0034916,0.00264013,0.00192092,0.0050334,0.00109833,0.676345,0.00305601,0.0137714,958,1660,3.41252,-46.544
-259,-636,3.39496,47.2001,0.00451131,0.003116,0.00247176,0.00638198,0.00124532,0.647851,0.00390629,0.016137,965,1660,3.39496,-47.2001
-252,-636,3.38623,47.7943,0.00549247,0.00357772,0.00295621,0.00764247,0.00142772,0.628801,0.00469205,0.0128412,972,1660,3.38622,-47.7943
-245,-636,3.36572,48.4154,0.00645217,0.00377451,0.00326772,0.0086447,0.00158199,0.590972,0.00531487,0.011776,979,1660,3.36573,-48.4154
-238,-636,3.35968,49.0369,0.00768925,0.00308336,0.00352003,0.00959275,0.00117986,0.495723,0.00604041,0.0126426,986,1660,3.35968,-49.0369
-231,-636,3.34076,49.645,0.00902353,0.00190962,0.00382035,0.0106864,0.000246712,0.410543,0.0070435,0.0120817,993,1660,3.34073,-49.645
-224,-636,3.34973,50.2301,0.010274,0.000755447,0.00394579,0.011697,-0.000667506,0.346109,0.00802973,0.0100957,1000,1660,3.34972,-50.2301
-217,-636,3.33008,50.873,0.0117427,-0.000839365,0.00418341,0.0130066,-0.00210333,0.293417,0.00945054,0.0170702,1007,1660,3.3301,-50.8731
-210,-636,3.33276,51.4252,0.0118471,-0.0030476,0.00393684,0.0128237,-0.00402413,0.243141,0.0101597,0.0277748,1014,1660,3.33276,-51.4251
-203,-636,3.39563,52.0096,0.0131302,-0.00587915,0.00406785,0.0139641,-0.00671306,0.202198,0.0121802,0.031632,1021,1660,3.39563,-52.0097
-196,-636,3.55847,52.4791,0.0138299,-0.00896103,0.00439106,0.0146466,-0.00977777,0.1839,0.0141945,0.0323616,1028,1660,3.5585,-52.4792
-189,-636,3.56848,52.9486,0.0128404,-0.0125363,0.00520981,0.0138683,-0.0135642,0.194805,0.0158385,0.0303449,1035,1660,3.56846,-52.9486
-182,-636,3.67041,53.4098,0.0110016,-0.0173309,0.00630712,0.0123422,-0.0186715,0.209436,0.0180296,0.0436544,1042,1660,3.67038,-53.4098
-175,-636,3.8822,54.3629,0,0,0,0,0,0,0,-1,1049,1660,3.88219,-54.3629
-168,-636,4.26697,54.6105,0,0,0,0,0,0,0,-1,1056,1660,4.26695,-54.6105
-161,-636,3.53638,53.5497,0,0,0,0,0,0,0,-1,1063,1660,3.53639,-53.5497
-154,-636,3.44751,54.8303,0,0,0,0,0,0,0,-1,1070,1660,3.44755,-54.8303
-147,-636,4.22656,55.8413,0,0,0,0,0,0,0,-1,1077,1660,4.22662,-55.8413
-140,-636,4.14807,56.2478,-0.0181104,-0.0422555,0.0184741,-0.00811396,-0.0522519,0.495987,0.0324696,0.0491045,1084,1660,4.1481,-56.2478
-133,-636,3.69788,56.9353,-0.0269247,-0.0464784,0.0215854,-0.0130052,-0.0603979,0.57275,0.0367064,0.0498936,1091,1660,3.69786,-56.9354
-126,-636,3.13123,57.5676,0,0,0,0,0,0,0,-1,1098,1660,3.13118,-57.5677
-119,-636,1.8667,13.8916,0,0,0,0,0,0,0,-1,1105,1660,1.86668,-13.8916
-112,-636,-1.24963,9.7998,0,0,0,0,0,0,0,-1,1112,1660,-1.24968,-9.79978
-105,-636,3.51624,4.72791,0,0,0,0,0,0,0,-1,1119,1660,3.51618,-4.7279
-98,-636,1.54504,5.11914,0,0,0,0,0,0,0,-1,1126,1660,1.54503,-5.11912
-91,-636,-1.87964,-2.25012,0,0,0,0,0,0,0,-1,1133,1660,-1.87966,2.25016
-84,-636,-2.84143,0.133667,0,0,0,0,0,0,0,-1,1140,1660,-2.84144,-0.133701
-77,-636,-3.57349,2.45935,0,0,0,0,0,0,0,-1,1147,1660,-3.57345,-2.45939
-70,-636,-4.23682,4.82312,0,0,0,0,0,0,0,-1,1154,1660,-4.23681,-4.82307
-63,-636,-2.21033,6.97168,0,0,0,0,0,0,0,-1,1161,1660,-2.21034,-6.97165
-56,-636,-2.51917,8.80359,0,0,0,0,0,0,0,-1,1168,1660,-2.51916,-8.80361
-49,-636,-3.13,10.4113,0,0,0,0,0,0,0,-1,1175,1660,-3.12996,-10.4112
-42,-636,-2.27771,4.90173,0,0,0,0,0,0,0,-1,1182,1660,-2.27775,-4.90173
-35,-636,-2.27698,5.89685,0,0,0,0,0,0,0,-1,1189,1660,-2.27695,-5.89686
-28,-636,-1.70654,4.83936,0,0,0,0,0,0,0,-1,1196,1660,-1.70656,-4.8393
-21,-636,4.24683,27.7834,0,0,0,0,0,0,0,-1,1203,1660,4.24687,-27.7835
-14,-636,5.79797,64.2308,0,0,0,0,0,0,0,-1,1210,1660,5.79797,-64.2308
-7,-636,8.67322,64.2751,0,0,0,0,0,0,0,-1,1217,1660,8.67318,-64.2751
0,-636,8.58118,64.6527,-0.0290973,-0.0585235,0.0265111,-0.0134902,-0.0741306,0.53207,0.0455938,0.0483035,1224,1660,8.58121,-64.6528
7,-636,8.48669,65.0242,0,0,0,0,0,0,0,-1,1231,1660,8.48672,-65.0242
14,-636,8.28101,59.5953,-0.0175247,-0.0935178,0.0154631,-0.0144987,-0.0965437,0.193246,0.0601152,0.0460221,1238,1660,8.28107,-59.5953
21,-636,8.32922,60.4718,-0.0132089,-0.102954,0.0194992,-0.00915532,-0.107007,0.204965,0.0684908,0.0453932,1245,1660,8.32927,-60.4718
28,-636,8.38733,61.4143,-0.00750925,-0.110569,0.0168443,-0.00482604,-0.113253,0.157967,0.0739455,0.0449566,1252,1660,8.38735,-61.4143
35,-636,8.12622,62.2233,-0.000268959,-0.105775,0.0103424,0.000735316,-0.106779,0.0967989,0.0714327,0.0460976,1259,1660,8.12627,-62.2233
42,-636,8.24304,62.3485,0.00579506,-0.09672,-0.000836394,0.00580189,-0.0967269,-0.00815802,0.066503,0.0499505,1266,1660,8.24303,-62.3485
49,-636,8.8302,62.7595,0.00795782,-0.0824998,-0.0119431,0.00950811,-0.0840501,-0.129084,0.0594567,0.0485911,1273,1660,8.83015,-62.7595
56,-636,8.62708,65.1288,0.00566117,-0.0670776,-0.0207973,0.0111876,-0.072604,-0.259726,0.0525305,0.0432751,1280,1660,8.62709,-65.1287
63,-636,9.43994,65.9072,0,0,0,0,0,0,0,-1,1287,1660,9.43997,-65.9072
70,-636,10.0818,66.285,0,0,0,0,0,0,0,-1,1294,1660,10.0818,-66.285
77,-636,6.71936,62.3732,-0.014777,-0.0110377,-0.0397899,0.0269264,-0.0527412,-0.808875,0.0467941,0.0476623,1301,1660,6.71933,-62.3732
84,-636,6.78845,63.2303,-0.022336,0.00610257,-0.0430187,0.0371911,-0.0534246,-0.945014,0.0525961,0.046903,1308,1660,6.78846,-63.2303
91,-636,6.50586,63.259,0,0,0,0,0,0,0,-1,1315,1660,6.5059,-63.259
98,-636,6.11169,63.5977,-0.0439502,0.039399,-0.043687,0.0581009,-0.0626521,-1.16631,0.0697333,0.0492016,1322,1660,6.11167,-63.5977
105,-636,5.81287,63.8818,-0.0580005,0.0540761,-0.0376112,0.0655278,-0.0694521,-1.27524,0.0779416,0.049704,1329,1660,5.81284,-63.8818
112,-636,5.29285,64.2936,0,0,0,0,0,0,0,-1,1336,1660,5.2929,-64.2936
119,-636,5.53149,64.2607,-0.0901715,0.0787847,-0.0152021,0.0801417,-0.0915284,-1.48177,0.0991864,0.0485148,1343,1660,5.53145,-64.2608
126,-636,4.02856,65.6583,-0.100485,0.0890206,-0.00476001,0.0891401,-0.100604,-1.5457,0.109616,0.0425595,1350,1660,4.02861,-65.6584
133,-636,3.60669,66.2084,-0.104309,0.107601,0.00142813,0.10761,-0.104318,1.56406,0.122362,0.0467084,1357,1660,3.60669,-66.2084
140,-636,3.26318,66.6046,0,0,0,0,0,0,0,-1,1364,1660,3.26317,-66.6046
147,-636,2.81458,66.9333,0,0,0,0,0,0,0,-1,1371,1660,2.81461,-66.9334
154,-636,20.2833,71.5194,0,0,0,0,0,0,0,-1,1378,1660,20.2833,-71.5194
161,-636,10.2961,7.13025,0,0,0,0,0,0,0,-1,1385,1660,10.2961,-7.13021
168,-636,11.7659,5.83899,0,0,0,0,0,0,0,-1,1392,1660,11.7658,-5.83899
175,-636,5.94592,-1.72888,0,0,0,0,0,0,0,-1,1399,1660,5.94598,1.72886
182,-636,5.93994,-1.11938,0,0,0,0,0,0,0,-1,1406,1660,5.93998,1.11936
189,-636,5.32544,11.9595,0,0,0,0,0,0,0,-1,1413,1660,5.32542,-11.9595
196,-636,5.3623,9.38025,0,0,0,0,0,0,0,-1,1420,1660,5.36225,-9.38027
203,-636,5.18542,9.02429,0,0,0,0,0,0,0,-1,1427,1660,5.18547,-9.0243
210,-636,4.09167,7.17041,0,0,0,0,0,0,0,-1,1434,1660,4.09173,-7.17041
217,-636,2.94897,5.28992,0,0,0,0,0,0,0,-1,1441,1660,2.94899,-5.28991
224,-636,1.49194,3.63916,0,0,0,0,0,0,0,-1,1448,1660,1.49197,-3.63918
231,-636,0.17749,2.24854,0,0,0,0,0,0,0,-1,1455,1660,0.177501,-2.24855
238,-636,-0.764648,1.00598,0,0,0,0,0,0,0,-1,1462,1660,-0.764704,-1.00595
245,-636,6.21204,1.18005,0,0,0,0,0,0,0,-1,1469,1660,6.21206,-1.18001
252,-636,7.70251,0.865723,0,0,0,0,0,0,0,-1,1476,1660,7.7025,-0.865692
259,-636,9.03601,0.787231,0,0,0,0,0,0,0,-1,1483,1660,9.03598,-0.787243
266,-636,10.1071,3.24109,0,0,0,0,0,0,0,-1,1490,1660,10.1071,-3.24103
273,-636,8.48535,5.02466,0,0,0,0,0,0,0,-1,1497,1660,8.48533,-5.02472
280,-636,11.908,32.0698,0,0,0,0,0,0,0,-1,1504,1660,11.9079,-32.0698
287,-636,12.1218,36.4158,0,0,0,0,0,0,0,-1,1511,1660,12.1218,-36.4158
294,-636,13.3706,44.9711,0,0,0,0,0,0,0,-1,1518,1660,13.3706,-44.9711
301,-636,15.3818,55.3495,0,0,0,0,0,0,0,-1,1525,1660,15.3818,-55.3495
308,-636,15.1561,53.6361,0,0,0,0,0,0,0,-1,1532,1660,15.1561,-53.6362
315,-636,14.9163,53.3167,0,0,0,0,0,0,0,-1,1539,1660,14.9162,-53.3166
322,-636,15.0688,52.8497,0,0,0,0,0,0,0,-1,1546,1660,15.0688,-52.8497
329,-636,14.9252,52.0891,0.00739958,0.0189003,-0.00654056,0.0218589,0.004441,-1.146,0.013341,0.0427417,1553,1660,14.9252,-52.0891
336,-636,14.8804,51.4601,0.00807454,0.0167365,-0.0069715,0.0206128,0.00419825,-1.06334,0.0125782,0.0333175,1560,1660,14.8803,-51.4601
343,-636,15.053,50.7814,0.00863924,0.0145893,-0.00697877,0.0192007,0.00402782,-0.986881,0.0116915,0.0262072,1567,1660,15.053,-50.7813
350,-636,15.0868,50.1998,0.00872231,0.0128242,-0.00669028,0.0177708,0.00377567,-0.934128,0.0108107,0.012407,1574,1660,15.0868,-50.1999
357,-636,15.1061,49.6151,0.00854624,0.0106572,-0.00624761,0.0159379,0.00326559,-0.869079,0.00972129,0.0109949,1581,1660,15.1061,-49.6151
364,-636,15.1036,49.0239,0.00833115,0.00966724,-0.00598346,0.0150198,0.00297856,-0.840992,0.00918282,0.0114326,1588,1660,15.1037,-49.0239
371,-636,15.0875,48.4441,0.00796083,0.00845833,-0.00565513,0.0138702,0.00254898,-0.807377,0.00852511,0.00942654,1595,1660,15.0876,-48.444
378,-636,15.0848,47.8473,0.00741651,0.00729953,-0.00521546,0.0125738,0.00214224,-0.779791,0.00776756,0.00973812,1602,1660,15.0848,-47.8473
385,-636,15.1023,47.2449,0.00674515,0.00614618,-0.0046724,0.0111276,0.00176368,-0.753394,0.00690602,0.0165545,1609,1660,15.1023,-47.2448
392,-636,15.089,46.6302,0.00581915,0.00510092,-0.00411074,0.00958643,0.00133364,-0.741829,0.00599605,0.0180458,1616,1660,15.0889,-46.6302
399,-636,15.0394,46.0302,0.00467701,0.00423781,-0.00351764,0.0079819,0.000932921,-0.754224,0.00503916,0.0133501,1623,1660,15.0395,-46.0301
406,-636,15.0225,45.4299,0.00359061,0.00334806,-0.00298953,0.00646132,0.000477348,-0.765126,0.00415757,0.015923,1630,1660,15.0225,-45.43
413,-636,15.0029,44.7932,0.00265236,0.00259781,-0.00258818,0.00521341,3.6756e-05,-0.780129,0.00346342,0.0243374,1637,1660,15.003,-44.7932
420,-636,14.9398,44.1843,0.00182302,0.00207285,-0.00232811,0.0042794,-0.000383527,-0.8122,0.00298899,0.0239561,1644,1660,14.9398,-44.1844
427,-636,14.9507,43.5647,0.00114314,0.0016284,-0.00222311,0.00362208,-0.000850535,-0.839753,0.00274255,0.0166173,1651,1660,14.9507,-43.5647
434,-636,14.9315,42.9078,0.000742011,0.001436,-0.00235867,0.00347307,-0.00129506,-0.858431,0.002847,0.0165343,1658,1660,14.9315,-42.9078
441,-636,14.8682,42.2593,0.000792777,0.00131442,-0.00283547,0.00390104,-0.00179384,-0.831262,0.00336213,0.0138789,1665,1660,14.8682,-42.2593
448,-636,14.8802,41.5808,0.00137157,0.00121252,-0.00356028,0.00485321,-0.00226912,-0.774232,0.00420133,0.0151509,1672,1660,14.8802,-41.5808
455,-636,14.8324,40.9005,0.00224718,0.00107883,-0.00426841,0.00597121,-0.0026452,-0.717391,0.00509673,0.0170677,1679,1660,14.8325,-40.9006
462,-636,14.7437,40.2385,0.00313682,0.00121645,-0.00513572,0.00740134,-0.00304807,-0.692984,0.00620503,0.0254428,1686,1660,14.7437,-40.2385
469,-636,14.8441,39.5313,0.00406184,0.00128088,-0.00625699,0.00908099,-0.00373827,-0.67606,0.00761245,0.0443512,1693,1660,14.8441,-39.5312
476,-636,15.0862,38.8518,0,0,0,0,0,0,0,-1,1700,1660,15.0861,-38.8518
483,-636,11.3833,24.3958,0,0,0,0,0,0,0,-1,1707,1660,11.3833,-24.3957
490,-636,10.8951,23.9569,0,0,0,0,0,0,0,-1,1714,1660,10.8951,-23.9569
497,-636,9.55579,18.0111,0,0,0,0,0,0,0,-1,1721,1660,9.55574,-18.0111
504,-636,6.26428,19.4268,0,0,0,0,0,0,0,-1,1728,1660,6.26433,-19.4268
511,-636,5.65466,9.23218,0,0,0,0,0,0,0,-1,1735,1660,5.65461,-9.23216
518,-636,6.72791,1.07605,0,0,0,0,0,0,0,-1,1742,1660,6.7279,-1.0761
525,-636,7.04309,0.93335,0,0,0,0,0,0,0,-1,1749,1660,7.04308,-0.933298
532,-636,0,0,0,0,0,0,0,0,0,-1,1756,1660,0,0
539,-636,0,0,0,0,0,0,0,0,0,-1,1763,1660,0,0
546,-636,0,0,0,0,0,0,0,0,0,-1,1770,1660,0,0
553,-636,0,0,0,0,0,0,0,0,0,-1,1777,1660,0,0
560,-636,0,0,0,0,0,0,0,0,0,-1,1784,1660,0,0
567,-636,0,0,0,0,0,0,0,0,0,-1,1791,1660,0,0
574,-636,0,0,0,0,0,0,0,0,0,-1,1798,1660,0,0
581,-636,0,0,0,0,0,0,0,0,0,-1,1805,1660,0,0
588,-636,0,0,0,0,0,0,0,0,0,-1,1812,1660,0,0
595,-636,0,0,0,0,0,0,0,0,0,-1,1819,1660,0,0
602,-636,0,0,0,0,0,0,0,0,0,-1,1826,1660,0,0
609,-636,0,0,0,0,0,0,0,0,0,-1,1833,1660,0,0
616,-636,0,0,0,0,0,0,0,0,0,-1,1840,1660,0,0
623,-636,0,0,0,0,0,0,0,0,0,-1,1847,1660,0,0
630,-636,0,0,0,0,0,0,0,0,0,-1,1854,1660,0,0
637,-636,0,0,0,0,0,0,0,0,0,-1,1861,1660,0,0
644,-636,0,0,0,0,0,0,0,0,0,-1,1868,1660,0,0
651,-636,0,0,0,0,0,0,0,0,0,-1,1875,1660,0,0
658,-636,0,0,0,0,0,0,0,0,0,-1,1882,1660,0,0
665,-636,0,0,0,0,0,0,0,0,0,-1,1889,1660,0,0
672,-636,0,0,0,0,0,0,0,0,0,-1,1896,1660,0,0
679,-636,0,0,0,0,0,0,0,0,0,-1,1903,1660,0,0
686,-636,0,0,0,0,0,0,0,0,0,-1,1910,1660,0,0
693,-636,0,0,0,0,0,0,0,0,0,-1,1917,1660,0,0
700,-636,0,0,0,0,0,0,0,0,0,-1,1924,1660,0,0
707,-636,0,0,0,0,0,0,0,0,0,-1,1931,1660,0,0
714,-636,0,0,0,0,0,0,0,0,0,-1,1938,1660,0,0
721,-636,0,0,0,0,0,0,0,0,0,-1,1945,1660,0,0
728,-636,0,0,0,0,0,0,0,0,0,-1,1952,1660,0,0
735,-636,0,0,0,0,0,0,0,0,0,-1,1959,1660,0,0
742,-636,0,0,0,0,0,0,0,0,0,-1,1966,1660,0,0
749,-636,0,0,0,0,0,0,0,0,0,-1,1973,1660,0,0
756,-636,0,0,0,0,0,0,0,0,0,-1,1980,1660,0,0
763,-636,0,0,0,0,0,0,0,0,0,-1,1987,1660,0,0
770,-636,0,0,0,0,0,0,0,0,0,-1,1994,1660,0,0
777,-636,0,0,0,0,0,0,0,0,0,-1,2001,1660,0,0
784,-636,0,0,0,0,0,0,0,0,0,-1,2008,1660,0,0
791,-636,0,0,0,0,0,0,0,0,0,-1,2015,1660,0,0
798,-636,0,0,0,0,0,0,0,0,0,-1,2022,1660,0,0
805,-636,0,0,0,0,0,0,0,0,0,-1,2029,1660,0,0
812,-636,0,0,0,0,0,0,0,0,0,-1,2036,1660,0,0
-700,-643,0,0,0,0,0,0,0,0,0,-1,524,1667,0,0
-693,-643,0,0,0,0,0,0,0,0,0,-1,531,1667,0,0
-686,-643,0,0,0,0,0,0,0,0,0,-1,538,1667,0,0
-679,-643,0,0,0,0,0,0,0,0,0,-1,545,1667,0,0
-672,-643,0,0,0,0,0,0,0,0,0,-1,552,1667,0,0
-665,-643,0,0,0,0,0,0,0,0,0,-1,559,1667,0,0
-658,-643,0,0,0,0,0,0,0,0,0,-1,566,1667,0,0
-651,-643,0,0,0,0,0,0,0,0,0,-1,573,1667,0,0
-644,-643,0,0,0,0,0,0,0,0,0,-1,580,1667,0,0
-637,-643,0,0,0,0,0,0,0,0,0,-1,587,1667,0,0
-630,-643,0,0,0,0,0,0,0,0,0,-1,594,1667,0,0
-623,-643,0,0,0,0,0,0,0,0,0,-1,601,1667,0,0
-616,-643,0,0,0,0,0,0,0,0,0,-1,608,1667,0,0
-609,-643,0,0,0,0,0,0,0,0,0,-1,615,1667,0,0
-602,-643,0,0,0,0,0,0,0,0,0,-1,622,1667,0,0
-595,-643,0,0,0,0,0,0,0,0,0,-1,629,1667,0,0
-588,-643,0,0,0,0,0,0,0,0,0,-1,636,1667,0,0
-581,-643,0,0,0,0,0,0,0,0,0,-1,643,1667,0,0
-574,-643,0,0,0,0,0,0,0,0,0,-1,650,1667,0,0
-567,-643,0,0,0,0,0,0,0,0,0,-1,657,1667,0,0
-560,-643,0,0,0,0,0,0,0,0,0,-1,664,1667,0,0
-553,-643,0,0,0,0,0,0,0,0,0,-1,671,1667,0,0
-546,-643,0,0,0,0,0,0,0,0,0,-1,678,1667,0,0
-539,-643,0,0,0,0,0,0,0,0,0,-1,685,1667,0,0
-532,-643,0,0,0,0,0,0,0,0,0,-1,692,1667,0,0
-525,-643,0,0,0,0,0,0,0,0,0,-1,699,1667,0,0
-518,-643,0,0,0,0,0,0,0,0,0,-1,706,1667,0,0
-511,-643,0,0,0,0,0,0,0,0,0,-1,713,1667,0,0
-504,-643,0,0,0,0,0,0,0,0,0,-1,720,1667,0,0
-497,-643,0,0,0,0,0,0,0,0,0,-1,727,1667,0,0
-490,-643,0,0,0,0,0,0,0,0,0,-1,734,1667,0,0
-483,-643,0,0,0,0,0,0,0,0,0,-1,741,1667,0,0
-476,-643,0,0,0,0,0,0,0,0,0,-1,748,1667,0,0
-469,-643,0,0,0,0,0,0,0,0,0,-1,755,1667,0,0
-462,-643,0,0,0,0,0,0,0,0,0,-1,762,1667,0,0
-455,-643,0,0,0,0,0,0,0,0,0,-1,769,1667,0,0
-448,-643,0,0,0,0,0,0,0,0,0,-1,776,1667,0,0
-441,-643,0,0,0,0,0,0,0,0,0,-1,783,1667,0,0
-434,-643,0,0,0,0,0,0,0,0,0,-1,790,1667,0,0
-427,-643,0,0,0,0,0,0,0,0,0,-1,797,1667,0,0
-420,-643,0,0,0,0,0,0,0,0,0,-1,804,1667,0,0
-413,-643,0,0,0,0,0,0,0,0,0,-1,811,1667,0,0
-406,-643,0,0,0,0,0,0,0,0,0,-1,818,1667,0,0
-399,-643,0.589417,11.6465,0,0,0,0,0,0,0,-1,825,1667,0.58939,-11.6465
-392,-643,0.865295,12.6523,0,0,0,0,0,0,0,-1,832,1667,0.865315,-12.6523
-385,-643,1.72968,13.2692,0,0,0,0,0,0,0,-1,839,1667,1.72967,-13.2692
-378,-643,2.66522,13.8193,0,0,0,0,0,0,0,-1,846,1667,2.66524,-13.8193
-371,-643,0.466125,3.35095,0,0,0,0,0,0,0,-1,853,1667,0.466148,-3.351
-364,-643,1.69513,9.922,0,0,0,0,0,0,0,-1,860,1667,1.69511,-9.92205
-357,-643,1.14227,10.8429,0,0,0,0,0,0,0,-1,867,1667,1.14228,-10.8429
-350,-643,4.48804,36.1799,0,0,0,0,0,0,0,-1,874,1667,4.48801,-36.1799
-343,-643,3.9126,39.6978,0,0,0,0,0,0,0,-1,881,1667,3.91263,-39.6978
-336,-643,4.00214,40.2863,0.00600958,-0.00852876,-0.00176879,0.00622168,-0.00874086,-0.119344,0.00867934,0.048175,888,1667,4.00211,-40.2863
-329,-643,4.18408,40.5763,0.00410578,-0.00750145,-0.00203385,0.00445184,-0.00784751,-0.168535,0.00719067,0.0403644,895,1667,4.18406,-40.5763
-322,-643,4.33893,41.3009,0.00267191,-0.00629764,-0.00238531,0.0032668,-0.00689253,-0.244408,0.00598871,0.0286907,902,1667,4.33892,-41.3008
-315,-643,4.24561,42.0099,0.00127779,-0.00501152,-0.00257796,0.00219942,-0.00593315,-0.343346,0.00485749,0.0196719,909,1667,4.24563,-42.0099
-308,-643,4.25397,42.6714,0.00022055,-0.00386673,-0.00241353,0.00133944,-0.00498561,-0.434098,0.00384871,0.0136321,916,1667,4.25397,-42.6714
-301,-643,4.22919,43.3341,-0.000330768,-0.00282808,-0.00218767,0.000939512,-0.00409836,-0.526073,0.00309334,0.0144019,923,1667,4.22919,-43.3342
-294,-643,4.16888,43.9929,-0.000379144,-0.00181824,-0.00178813,0.000828781,-0.00302616,-0.59411,0.00234308,0.0140708,930,1667,4.16886,-43.993
-287,-643,4.14886,44.6332,-0.000294884,-0.000862452,-0.0012786,0.000731048,-0.00188838,-0.676194,0.00156076,0.0119024,937,1667,4.14887,-44.6332
-280,-643,4.12048,45.2683,-6.83311e-05,0.000144127,-0.000697163,0.000743107,-0.000667312,-0.861003,0.000814697,0.0166141,944,1667,4.12049,-45.2683
-273,-643,4.07813,45.9064,0.000549737,0.000757226,-0.000104925,0.000801035,0.000505928,-1.17527,0.000467786,0.0135525,951,1667,4.07815,-45.9064
-266,-643,4.03625,46.5602,0.00137626,0.00133555,0.00050373,0.00186005,0.000851764,0.765205,0.00107516,0.0125235,958,1667,4.03623,-46.5602
-259,-643,4.01831,47.2003,0.00223341,0.00175232,0.00103596,0.00305639,0.000929343,0.67132,0.00180921,0.01364,965,1667,4.01834,-47.2004
-252,-643,4.00323,47.819,0.00305437,0.00224774,0.00156539,0.00426757,0.00103454,0.659318,0.00257056,0.0153967,972,1667,4.00324,-47.8189
-245,-643,3.97064,48.4318,0.00391063,0.00249146,0.00190687,0.00523566,0.00116643,0.607277,0.0031739,0.0134016,979,1667,3.97061,-48.4317
-238,-643,3.98334,49.0399,0.00499121,0.00200845,0.00217343,0.00613574,0.00086392,0.4847,0.00383509,0.0163398,986,1667,3.98331,-49.0399
-231,-643,3.93628,49.6658,0.00614502,0.00119176,0.00246118,0.00715997,0.00017681,0.391135,0.00471548,0.0118113,993,1667,3.93631,-49.6658
-224,-643,3.94568,50.2351,0.00724361,0.000451024,0.00261829,0.0081357,-0.000441069,0.32838,0.00557664,0.0096173,1000,1667,3.94565,-50.235
-217,-643,3.93604,50.7762,0.00847245,-0.000622247,0.0028774,0.00930635,-0.00145615,0.282082,0.00674223,0.00908892,1007,1667,3.93601,-50.7762
-210,-643,3.93475,51.3774,0.0087735,-0.00224226,0.00270835,0.00940337,-0.00287212,0.228502,0.0074141,0.0123622,1014,1667,3.93476,-51.3774
-203,-643,3.94092,52.0128,0.0100032,-0.00435794,0.00277214,0.0105198,-0.00487447,0.184216,0.00908488,0.0162437,1021,1667,3.94091,-52.0128
-196,-643,3.96472,52.5524,0.010787,-0.00655241,0.00311835,0.0113307,-0.00709616,0.172638,0.010732,0.0163829,1028,1667,3.96474,-52.5524
-189,-643,4.06433,53.079,0.010206,-0.00907028,0.00385869,0.0109498,-0.00981401,0.190406,0.011994,0.0172007,1035,1667,4.06431,-53.0789
-182,-643,4.12402,53.6539,0.00897694,-0.0124029,0.00474968,0.00998462,-0.0134106,0.209058,0.0135554,0.0281784,1042,1667,4.12402,-53.654
-175,-643,4.23779,54.1411,0.00775777,-0.0153754,0.00572636,0.00909766,-0.0167153,0.229851,0.0151179,0.0434839,1049,1667,4.23776,-54.1412
-168,-643,4.47717,54.5634,0.00566089,-0.0181591,0.00702069,0.00757617,-0.0200743,0.266324,0.0164987,0.0474868,1056,1667,4.47721,-54.5634
-161,-643,3.79944,54.6627,0,0,0,0,0,0,0,-1,1063,1667,3.79941,-54.6627
-154,-643,4.13098,55.038,-0.00107128,-0.0238619,0.0104756,0.00301215,-0.0279454,0.371686,0.0197112,0.0481278,1070,1667,4.13092,-55.038
-147,-643,4.6532,55.89,-0.00570287,-0.0266671,0.0125239,0.000146659,-0.0325166,0.436958,0.0217268,0.0485208,1077,1667,4.65322,-55.89
-140,-643,4.52234,56.6421,-0.01085,-0.0295451,0.0147081,-0.00277043,-0.0376246,0.502328,0.0242125,0.0493264,1084,1667,4.52233,-56.6421
-133,-643,4.10022,57.5876,-0.0168792,-0.0324141,0.0170449,-0.0059153,-0.043378,0.571605,0.0271625,0.0492111,1091,1667,4.10019,-57.5876
-126,-643,3.50891,58.6942,0,0,0,0,0,0,0,-1,1098,1667,3.50891,-58.6942
-119,-643,3.76282,14.1458,0,0,0,0,0,0,0,-1,1105,1667,3.76283,-14.1458
-112,-643,3.81458,16.2069,0,0,0,0,0,0,0,-1,1112,1667,3.81463,-16.2069
-105,-643,-2.23413,10.0996,0,0,0,0,0,0,0,-1,1119,1667,-2.23415,-10.0996
-98,-643,3.11035,4.68066,0,0,0,0,0,0,0,-1,1126,1667,3.11041,-4.68071
-91,-643,-1.74146,-2.5885,0,0,0,0,0,0,0,-1,1133,1667,-1.74146,2.58856
-84,-643,-3.07446,-0.199341,0,0,0,0,0,0,0,-1,1140,1667,-3.07449,0.199383
-77,-643,-3.63794,2.81165,0,0,0,0,0,0,0,-1,1147,1667,-3.63791,-2.8117
-70,-643,-3.36938,4.45203,0,0,0,0,0,0,0,-1,1154,1667,-3.36941,-4.452
-63,-643,-3.67822,6.26855,0,0,0,0,0,0,0,-1,1161,1667,-3.67823,-6.26856
-56,-643,-3.95142,8.1073,0,0,0,0,0,0,0,-1,1168,1667,-3.95139,-8.10732
-49,-643,-4.23535,9.90552,0,0,0,0,0,0,0,-1,1175,1667,-4.23537,-9.90557
-42,-643,-4.25195,10.7059,0,0,0,0,0,0,0,-1,1182,1667,-4.25192,-10.706
-35,-643,-4.10986,11.6588,0,0,0,0,0,0,0,-1,1189,1667,-4.10982,-11.6589
-28,-643,-1.38513,5.604,0,0,0,0,0,0,0,-1,1196,1667,-1.3851,-5.60403
-21,-643,1.61011,23.1276,0,0,0,0,0,0,0,-1,1203,1667,1.61011,-23.1275
-14,-643,13.2256,68.0854,0,0,0,0,0,0,0,-1,1210,1667,13.2256,-68.0855
-7,-643,8.48315,63.8124,0,0,0,0,0,0,0,-1,1217,1667,8.48315,-63.8124
0,-643,8.44604,64.2028,0,0,0,0,0,0,0,-1,1224,1667,8.44598,-64.2028
7,-643,8.40881,64.5931,0,0,0,0,0,0,0,-1,1231,1667,8.40882,-64.5932
14,-643,9.12402,63.0071,-0.00452132,-0.0747047,0.0221441,0.0018814,-0.0811074,0.281464,0.0547095,0.0423891,1238,1667,9.12406,-63.007
21,-643,8.37231,61.2203,0.00138838,-0.0841582,0.0219747,0.00670294,-0.0894728,0.237292,0.0620037,0.0472745,1245,1667,8.37227,-61.2203
28,-643,7.47766,62.4934,0,0,0,0,0,0,0,-1,1252,1667,7.47766,-62.4935
35,-643,8.11487,63.134,0.0168106,-0.0842374,0.00789736,0.0174241,-0.0848509,0.0775272,0.0631813,0.0447513,1259,1667,8.11488,-63.134
42,-643,8.745,63.7251,0.0232903,-0.0766446,-0.00367897,0.0234256,-0.0767799,-0.0367474,0.0605255,0.0479731,1266,1667,8.74494,-63.7251
49,-643,9.35339,64.382,0.0269791,-0.0651046,-0.0149574,0.0293478,-0.0674733,-0.157055,0.0573261,0.0482688,1273,1667,9.35335,-64.3819
56,-643,9.48804,65.899,0.0265877,-0.0520797,-0.0248949,0.0338039,-0.0592959,-0.282135,0.0544187,0.0452837,1280,1667,9.48798,-65.899
63,-643,9.80176,66.4607,0.0227799,-0.0333025,-0.0357791,0.040197,-0.0507196,-0.453027,0.0526077,0.0460273,1287,1667,9.80174,-66.4607
70,-643,10.4222,66.8336,0.0162588,-0.0161213,-0.0423282,0.0453875,-0.0452501,-0.602738,0.0523297,0.0478606,1294,1667,10.4223,-66.8336
77,-643,10.8312,67.4001,0.00800285,0.00223527,-0.0486401,0.0538446,-0.0436065,-0.755789,0.0563668,0.0475342,1301,1667,10.8312,-67.4002
84,-643,7.50317,62.6028,-0.0026403,0.0196321,-0.0524862,0.0621505,-0.0451587,-0.889935,0.0622133,0.0451239,1308,1667,7.50313,-62.6028
91,-643,7.23499,63.0258,-0.0158805,0.0359084,-0.0543443,0.0702122,-0.0501843,-1.00773,0.0698308,0.045339,1315,1667,7.23501,-63.0258
98,-643,6.83533,63.3851,-0.0309756,0.0503631,-0.0523669,0.0759983,-0.0566108,-1.11556,0.0768341,0.0469487,1322,1667,6.83529,-63.3851
105,-643,6.50269,63.8179,-0.0478065,0.0625615,-0.0459891,0.0792125,-0.0644576,-1.22341,0.0830937,0.0456443,1329,1667,6.50271,-63.8179
112,-643,6.0957,64.0769,-0.065967,0.0724014,-0.0356351,0.0810395,-0.0746051,-1.33298,0.089887,0.0453627,1336,1667,6.09566,-64.0769
119,-643,5.70471,64.2322,-0.0833971,0.0806176,-0.0226736,0.0836943,-0.0864738,-1.43592,0.098251,0.0454749,1343,1667,5.70474,-64.2322
126,-643,5.17273,64.6866,-0.0960701,0.0881049,-0.0112835,0.0887936,-0.0967588,-1.50984,0.107162,0.0456726,1350,1667,5.17271,-64.6866
133,-643,4.66284,65.2878,-0.101787,0.10137,-0.00534012,0.10151,-0.101927,-1.54453,0.117455,0.047206,1357,1667,4.66284,-65.2878
140,-643,4.14746,65.807,0,0,0,0,0,0,0,-1,1364,1667,4.14751,-65.8071
147,-643,2.92358,67.3599,0,0,0,0,0,0,0,-1,1371,1667,2.92356,-67.3599
154,-643,2.32422,69.1737,0,0,0,0,0,0,0,-1,1378,1667,2.32421,-69.1737
161,-643,5.57935,26.2754,0,0,0,0,0,0,0,-1,1385,1667,5.57931,-26.2754
168,-643,10.5563,10.9818,0,0,0,0,0,0,0,-1,1392,1667,10.5562,-10.9819
175,-643,5.88525,-1.1698,0,0,0,0,0,0,0,-1,1399,1667,5.88526,1.16977
182,-643,5.80945,-0.418701,0,0,0,0,0,0,0,-1,1406,1667,5.80949,0.418712
189,-643,5.42297,12.9208,0,0,0,0,0,0,0,-1,1413,1667,5.42298,-12.9208
196,-643,5.51953,11.2415,0,0,0,0,0,0,0,-1,1420,1667,5.51948,-11.2414
203,-643,5.60828,9.82153,0,0,0,0,0,0,0,-1,1427,1667,5.60833,-9.82148
210,-643,4.73218,7.58728,0,0,0,0,0,0,0,-1,1434,1667,4.73222,-7.58728
217,-643,3.8031,5.28955,0,0,0,0,0,0,0,-1,1441,1667,3.80305,-5.28955
224,-643,2.96436,2.97095,0,0,0,0,0,0,0,-1,1448,1667,2.96432,-2.97095
231,-643,2.13403,1.08472,0,0,0,0,0,0,0,-1,1455,1667,2.13403,-1.08467
238,-643,1.18152,-0.261963,0,0,0,0,0,0,0,-1,1462,1667,1.18152,0.26192
245,-643,-0.157471,-1.79016,0,0,0,0,0,0,0,-1,1469,1667,-0.157517,1.7901
252,-643,8.08789,0.0202637,0,0,0,0,0,0,0,-1,1476,1667,8.08791,-0.0203056
259,-643,9.02979,-0.46936,0,0,0,0,0,0,0,-1,1483,1667,9.02974,0.46933
266,-643,4.55066,5.17554,0,0,0,0,0,0,0,-1,1490,1667,4.55063,-5.17556
273,-643,10.74,31.432,0,0,0,0,0,0,0,-1,1497,1667,10.7399,-31.4319
280,-643,12.1675,42.5023,0,0,0,0,0,0,0,-1,1504,1667,12.1675,-42.5023
287,-643,12.9725,46.299,0,0,0,0,0,0,0,-1,1511,1667,12.9725,-46.299
294,-643,14.1741,54.4922,0,0,0,0,0,0,0,-1,1518,1667,14.1741,-54.4922
301,-643,14.6013,54.6681,0.0088959,0.0200584,-0.00557367,0.0223649,0.00658943,-1.17844,0.0132705,0.0420747,1525,1667,14.6013,-54.6681
308,-643,14.5328,53.5229,0.00770933,0.0181172,-0.00515777,0.0202401,0.00558636,-1.18032,0.0120702,0.036587,1532,1667,14.5329,-53.523
315,-643,14.444,53.1001,0.00663495,0.0159538,-0.00469711,0.0179105,0.00467826,-1.17608,0.0107265,0.0315097,1539,1667,14.444,-53.1001
322,-643,14.4849,52.5155,0.00614163,0.014365,-0.00456308,0.0163956,0.00411103,-1.1521,0.00985028,0.0207609,1546,1667,14.4849,-52.5156
329,-643,14.4832,51.9113,0.00596033,0.0132001,-0.00446717,0.0153299,0.0038305,-1.1259,0.00921248,0.0147108,1553,1667,14.4831,-51.9112
336,-643,14.4657,51.3652,0.0058121,0.0118933,-0.00468926,0.0144414,0.00326392,-1.07303,0.0087451,0.0130287,1560,1667,14.4657,-51.3652
343,-643,14.4845,50.8154,0.00568092,0.0105497,-0.00472702,0.0134323,0.00279826,-1.02318,0.0081832,0.013833,1567,1667,14.4845,-50.8154
350,-643,14.5035,50.2104,0.0054978,0.00941269,-0.00462256,0.0124752,0.00243532,-0.985679,0.00763558,0.0123559,1574,1667,14.5035,-50.2104
357,-643,14.5022,49.6368,0.00527767,0.00782069,-0.00439927,0.0111285,0.00196985,-0.926078,0.00685736,0.0111343,1581,1667,14.5022,-49.6368
364,-643,14.504,49.0574,0.0050779,0.00715228,-0.00428184,0.0105208,0.00170942,-0.904225,0.00651917,0.0106029,1588,1667,14.504,-49.0573
371,-643,14.4938,48.4784,0.00480116,0.00629462,-0.00412529,0.00974022,0.00135556,-0.874935,0.0060921,0.00819031,1595,1667,14.4937,-48.4784
378,-643,14.4861,47.899,0.00443368,0.0054442,-0.00387437,0.00884612,0.00103176,-0.850237,0.00558535,0.0100136,1602,1667,14.4861,-47.899
385,-643,14.5104,47.2946,0.00401094,0.00457733,-0.00355396,0.00785936,0.000728912,-0.825156,0.0050143,0.0174845,1609,1667,14.5104,-47.2945
392,-643,14.4808,46.6777,0.00341304,0.00378617,-0.00323759,0.00684256,0.000356651,-0.814178,0.00444759,0.0183676,1616,1667,14.4808,-46.6777
399,-643,14.4257,46.0835,0.00261752,0.0031723,-0.00286278,0.0057711,1.87198e-05,-0.833695,0.00384117,0.0150492,1623,1667,14.4257,-46.0835
406,-643,14.3971,45.4509,0.00190139,0.00250512,-0.00254649,0.00476757,-0.000361057,-0.844393,0.00330531,0.0140349,1630,1667,14.3971,-45.451
413,-643,14.4059,44.8107,0.00132434,0.00200242,-0.00239139,0.00407868,-0.00075192,-0.855816,0.00300133,0.0203543,1637,1667,14.4059,-44.8106
420,-643,14.3481,44.2039,0.000831745,0.00170867,-0.00235037,0.00366112,-0.00112071,-0.877613,0.00288774,0.0191741,1644,1667,14.3482,-44.2038
427,-643,14.3074,43.582,0.000500203,0.00156216,-0.00247531,0.0035628,-0.00150044,-0.891052,0.00300301,0.0163393,1651,1667,14.3074,-43.582
434,-643,14.2823,42.9331,0.000428644,0.00171867,-0.00281629,0.00396287,-0.00181556,-0.897971,0.00341209,0.0180359,1658,1667,14.2824,-42.933
441,-643,14.2355,42.2561,0.000688908,0.00187739,-0.00357324,0.00490546,-0.00233916,-0.867796,0.00426927,0.017827,1665,1667,14.2354,-42.2561
448,-643,14.2473,41.5918,0.00139857,0.00197142,-0.0045138,0.00620787,-0.00283789,-0.817084,0.00534202,0.0232632,1672,1667,14.2473,-41.5918
455,-643,14.1713,41.0342,0.00259753,0.00195409,-0.00533632,0.00762182,-0.0030702,-0.755291,0.00635675,0.0304563,1679,1667,14.1713,-41.0342
462,-643,14.3192,40.2355,0.00382076,0.0021696,-0.00635179,0.0094004,-0.00341004,-0.720772,0.00766092,0.0469126,1686,1667,14.3192,-40.2355
469,-643,14.3936,39.5325,0,0,0,0,0,0,0,-1,1693,1667,14.3936,-39.5325
476,-643,10.5598,24.5066,0,0,0,0,0,0,0,-1,1700,1667,10.5598,-24.5065
483,-643,10.4502,24.3062,0,0,0,0,0,0,0,-1,1707,1667,10.4502,-24.3062
490,-643,10.6885,24.1522,0,0,0,0,0,0,0,-1,1714,1667,10.6884,-24.1522
497,-643,10.9073,23.9465,0,0,0,0,0,0,0,-1,1721,1667,10.9074,-23.9465
504,-643,8.05591,19.0656,0,0,0,0,0,0,0,-1,1728,1667,8.0559,-19.0655
511,-643,7.74719,18.1564,0,0,0,0,0,0,0,-1,1735,1667,7.74724,-18.1563
518,-643,7.40564,0.922607,0,0,0,0,0,0,0,-1,1742,1667,7.4057,-0.922598
525,-643,0,0,0,0,0,0,0,0,0,-1,1749,1667,0,0
532,-643,0,0,0,0,0,0,0,0,0,-1,1756,1667,0,0
539,-643,0,0,0,0,0,0,0,0,0,-1,1763,1667,0,0
546,-643,0,0,0,0,0,0,0,0,0,-1,1770,1667,0,0
553,-643,0,0,0,0,0,0,0,0,0,-1,1777,1667,0,0
560,-643,0,0,0,0,0,0,0,0,0,-1,1784,1667,0,0
567,-643,0,0,0,0,0,0,0,0,0,-1,1791,1667,0,0
574,-643,0,0,0,0,0,0,0,0,0,-1,1798,1667,0,0
581,-643,0,0,0,0,0,0,0,0,0,-1,1805,1667,0,0
588,-643,0,0,0,0,0,0,0,0,0,-1,1812,1667,0,0
595,-643,0,0,0,0,0,0,0,0,0,-1,1819,1667,0,0
602,-643,0,0,0,0,0,0,0,0,0,-1,1826,1667,0,0
609,-643,0,0,0,0,0,0,0,0,0,-1,1833,1667,0,0
616,-643,0,0,0,0,0,0,0,0,0,-1,1840,1667,0,0
623,-643,0,0,0,0,0,0,0,0,0,-1,1847,1667,0,0
630,-643,0,0,0,0,0,0,0,0,0,-1,1854,1667,0,0
637,-643,0,0,0,0,0,0,0,0,0,-1,1861,1667,0,0
644,-643,0,0,0,0,0,0,0,0,0,-1,1868,1667,0,0
651,-643,0,0,0,0,0,0,0,0,0,-1,1875,1667,0,0
658,-643,0,0,0,0,0,0,0,0,0,-1,1882,1667,0,0
665,-643,0,0,0,0,0,0,0,0,0,-1,1889,1667,0,0
672,-643,0,0,0,0,0,0,0,0,0,-1,1896,1667,0,0
679,-643,0,0,0,0,0,0,0,0,0,-1,1903,1667,0,0
686,-643,0,0,0,0,0,0,0,0,0,-1,1910,1667,0,0
693,-643,0,0,0,0,0,0,0,0,0,-1,1917,1667,0,0
700,-643,0,0,0,0,0,0,0,0,0,-1,1924,1667,0,0
707,-643,0,0,0,0,0,0,0,0,0,-1,1931,1667,0,0
714,-643,0,0,0,0,0,0,0,0,0,-1,1938,1667,0,0
721,-643,0,0,0,0,0,0,0,0,0,-1,1945,1667,0,0
728,-643,0,0,0,0,0,0,0,0,0,-1,1952,1667,0,0
735,-643,0,0,0,0,0,0,0,0,0,-1,1959,1667,0,0
742,-643,0,0,0,0,0,0,0,0,0,-1,1966,1667,0,0
749,-643,0,0,0,0,0,0,0,0,0,-1,1973,1667,0,0
756,-643,0,0,0,0,0,0,0,0,0,-1,1980,1667,0,0
763,-643,0,0,0,0,0,0,0,0,0,-1,1987,1667,0,0
770,-643,0,0,0,0,0,0,0,0,0,-1,1994,1667,0,0
777,-643,0,0,0,0,0,0,0,0,0,-1,2001,1667,0,0
784,-643,0,0,0,0,0,0,0,0,0,-1,2008,1667,0,0
791,-643,0,0,0,0,0,0,0,0,0,-1,2015,1667,0,0
798,-643,0,0,0,0,0,0,0,0,0,-1,2022,1667,0,0
805,-643,0,0,0,0,0,0,0,0,0,-1,2029,1667,0,0
812,-643,0,0,0,0,0,0,0,0,0,-1,2036,1667,0,0
-700,-650,0,0,0,0,0,0,0,0,0,-1,524,1674,0,0
-693,-650,0,0,0,0,0,0,0,0,0,-1,531,1674,0,0
-686,-650,0,0,0,0,0,0,0,0,0,-1,538,1674,0,0
-679,-650,0,0,0,0,0,0,0,0,0,-1,545,1674,0,0
-672,-650,0,0,0,0,0,0,0,0,0,-1,552,1674,0,0
-665,-650,0,0,0,0,0,0,0,0,0,-1,559,1674,0,0
-658,-650,0,0,0,0,0,0,0,0,0,-1,566,1674,0,0
-651,-650,0,0,0,0,0,0,0,0,0,-1,573,1674,0,0
-644,-650,0,0,0,0,0,0,0,0,0,-1,580,1674,0,0
-637,-650,0,0,0,0,0,0,0,0,0,-1,587,1674,0,0
-630,-650,0,0,0,0,0,0,0,0,0,-1,594,1674,0,0
-623,-650,0,0,0,0,0,0,0,0,0,-1,601,1674,0,0
-616,-650,0,0,0,0,0,0,0,0,0,-1,608,1674,0,0
-609,-650,0,0,0,0,0,0,0,0,0,-1,615,1674,0,0
-602,-650,0,0,0,0,0,0,0,0,0,-1,622,1674,0,0
-595,-650,0,0,0,0,0,0,0,0,0,-1,629,1674,0,0
-588,-650,0,0,0,0,0,0,0,0,0,-1,636,1674,0,0
-581,-650,0,0,0,0,0,0,0,0,0,-1,643,1674,0,0
-574,-650,0,0,0,0,0,0,0,0,0,-1,650,1674,0,0
-567,-650,0,0,0,0,0,0,0,0,0,-1,657,1674,0,0
-560,-650,0,0,0,0,0,0,0,0,0,-1,664,1674,0,0
-553,-650,0,0,0,0,0,0,0,0,0,-1,671,1674,0,0
-546,-650,0,0,0,0,0,0,0,0,0,-1,678,1674,0,0
-539,-650,0,0,0,0,0,0,0,0,0,-1,685,1674,0,0
-532,-650,0,0,0,0,0,0,0,0,0,-1,692,1674,0,0
-525,-650,0,0,0,0,0,0,0,0,0,-1,699,1674,0,0
-518,-650,0,0,0,0,0,0,0,0,0,-1,706,1674,0,0
-511,-650,0,0,0,0,0,0,0,0,0,-1,713,1674,0,0
-504,-650,0,0,0,0,0,0,0,0,0,-1,720,1674,0,0
-497,-650,0,0,0,0,0,0,0,0,0,-1,727,1674,0,0
-490,-650,0,0,0,0,0,0,0,0,0,-1,734,1674,0,0
-483,-650,0,0,0,0,0,0,0,0,0,-1,741,1674,0,0
-476,-650,0,0,0,0,0,0,0,0,0,-1,748,1674,0,0
-469,-650,0,0,0,0,0,0,0,0,0,-1,755,1674,0,0
-462,-650,0,0,0,0,0,0,0,0,0,-1,762,1674,0,0
-455,-650,0,0,0,0,0,0,0,0,0,-1,769,1674,0,0
-448,-650,0,0,0,0,0,0,0,0,0,-1,776,1674,0,0
-441,-650,0,0,0,0,0,0,0,0,0,-1,783,1674,0,0
-434,-650,0,0,0,0,0,0,0,0,0,-1,790,1674,0,0
-427,-650,0,0,0,0,0,0,0,0,0,-1,797,1674,0,0
-420,-650,0,0,0,0,0,0,0,0,0,-1,804,1674,0,0
-413,-650,0,0,0,0,0,0,0,0,0,-1,811,1674,0,0
-406,-650,0,0,0,0,0,0,0,0,0,-1,818,1674,0,0
-399,-650,0,0,0,0,0,0,0,0,0,-1,825,1674,0,0
-392,-650,5.44415,6.85669,0,0,0,0,0,0,0,-1,832,1674,5.44414,-6.85674
-385,-650,1.74451,14.0183,0,0,0,0,0,0,0,-1,839,1674,1.74453,-14.0183
-378,-650,0.997986,4.11108,0,0,0,0,0,0,0,-1,846,1674,0.998006,-4.11113
-371,-650,-1.80096,3.78625,0,0,0,0,0,0,0,-1,853,1674,-1.80094,-3.78625
-364,-650,-2.95679,2.57507,0,0,0,0,0,0,0,-1,860,1674,-2.95681,-2.57506
-357,-650,5.76074,34.531,0,0,0,0,0,0,0,-1,867,1674,5.76077,-34.531
-350,-650,5.11011,35.4972,0,0,0,0,0,0,0,-1,874,1674,5.1101,-35.4971
-343,-650,5.20538,37.4165,0,0,0,0,0,0,0,-1,881,1674,5.20538,-37.4166
-336,-650,4.41937,40.5676,0,0,0,0,0,0,0,-1,888,1674,4.41937,-40.5676
-329,-650,4.64722,40.569,0,0,0,0,0,0,0,-1,895,1674,4.64722,-40.5689
-322,-650,4.96899,41.3434,0.00277606,-0.00773096,-0.00412442,0.00420163,-0.00915654,-0.332788,0.00788722,0.0453049,902,1674,4.96897,-41.3434
-315,-650,4.80646,41.8071,0.000961769,-0.00596304,-0.00426247,0.00299089,-0.00799217,-0.4443,0.00655656,0.0415979,909,1674,4.80647,-41.8072
-308,-650,4.87476,42.6282,-0.000465989,-0.00458192,-0.00389799,0.00188394,-0.00693185,-0.542518,0.00536072,0.0245312,916,1674,4.87476,-42.6282
-301,-650,4.86823,43.3663,-0.0013009,-0.00339257,-0.003567,0.00137043,-0.00606389,-0.642796,0.00456844,0.0128169,923,1674,4.86821,-43.3664
-294,-650,4.81226,44.0001,-0.00155953,-0.00230221,-0.00309441,0.00118574,-0.00504748,-0.725682,0.00382205,0.0104733,930,1674,4.81224,-44.0001
-287,-650,4.77423,44.6569,-0.00162673,-0.00132077,-0.00250891,0.00103982,-0.00398732,-0.815848,0.0030642,0.0139763,937,1674,4.77425,-44.6568
-280,-650,4.73724,45.2863,-0.00162425,-0.000316217,-0.00189206,0.00103167,-0.00297214,-0.951802,0.00240039,0.0154863,944,1674,4.73722,-45.2863
-273,-650,4.69788,45.9403,-0.00120483,0.000290596,-0.00127166,0.00101808,-0.00193231,-1.05117,0.00173045,0.0145749,951,1674,4.69786,-45.9404
-266,-650,4.64923,46.6021,-0.000510046,0.000837081,-0.000622522,0.0010807,-0.000753664,-1.19778,0.00106467,0.0124092,958,1674,4.64923,-46.602
-259,-650,4.63116,47.223,0.000208079,0.00118584,-6.47354e-05,0.0011901,0.000203811,-1.50497,0.000734947,0.016061,965,1674,4.63115,-47.223
-252,-650,4.61078,47.8453,0.000890582,0.00167332,0.000537518,0.00194686,0.000617049,1.10007,0.00114885,0.0149311,972,1674,4.61076,-47.8453
-245,-650,4.58594,48.4415,0.00165351,0.0019271,0.000921404,0.00272181,0.000858804,0.859092,0.00160669,0.0129359,979,1674,4.58591,-48.4415
-238,-650,4.55536,49.0758,0.00260225,0.0015774,0.001214,0.00340754,0.000772117,0.585693,0.00206306,0.0140924,986,1674,4.55535,-49.0758
-231,-650,4.50269,49.7179,0.00360729,0.000995917,0.00149163,0.00428397,0.000319236,0.425886,0.00275574,0.0181874,993,1674,4.50271,-49.7179
-224,-650,4.5116,50.2921,0.00458575,0.000494816,0.00166809,0.00517969,-9.91239e-05,0.342063,0.00348664,0.0143304,1000,1674,4.51162,-50.2921
-217,-650,4.51733,50.8103,0.00563169,-0.000316509,0.00193384,0.00620513,-0.000889945,0.288267,0.00446307,0.0102324,1007,1674,4.51736,-50.8103
-210,-650,4.52203,51.3702,0.0061303,-0.00151911,0.00186109,0.00655907,-0.00194787,0.226434,0.00514638,0.010203,1014,1674,4.52203,-51.3702
-203,-650,4.55798,51.9463,0.00732315,-0.00309808,0.00187958,0.00765179,-0.00342672,0.173097,0.00654939,0.0149403,1021,1674,4.55804,-51.9462
-196,-650,4.55603,52.5056,0.00812216,-0.00467537,0.00219786,0.0084891,-0.00504231,0.165428,0.0078964,0.0140873,1028,1674,4.55604,-52.5056
-189,-650,4.55066,53.0442,0.0078632,-0.0064398,0.0028227,0.00840011,-0.0069767,0.187965,0.00889048,0.0119152,1035,1674,4.55071,-53.0442
-182,-650,4.61243,53.6318,0.00713338,-0.00871087,0.00352045,0.00788037,-0.00945787,0.209086,0.010024,0.0130243,1042,1674,4.61239,-53.6319
-175,-650,4.64844,54.0834,0.00649772,-0.0106684,0.00432536,0.00752599,-0.0116967,0.233397,0.011185,0.0225116,1049,1674,4.64843,-54.0834
-168,-650,4.67151,54.6105,0.00520297,-0.0125755,0.00535212,0.00668985,-0.0140624,0.270977,0.0122308,0.0296141,1056,1674,4.67156,-54.6104
-161,-650,4.57434,55.0989,0.00335401,-0.0145068,0.00663044,0.00554633,-0.0166991,0.319328,0.0133706,0.0378901,1063,1674,4.57433,-55.0988
-154,-650,4.70862,55.5264,0.000835259,-0.0163524,0.00807037,0.00403061,-0.0195478,0.376998,0.0145625,0.0357057,1070,1674,4.7086,-55.5264
-147,-650,4.93652,56.0548,-0.00221068,-0.0181431,0.00965076,0.00233701,-0.0226908,0.440365,0.0159633,0.0417649,1077,1674,4.93658,-56.0548
-140,-650,4.68567,56.8702,-0.0055996,-0.0200038,0.0112673,0.000570774,-0.0261742,0.501025,0.0176428,0.0459033,1084,1674,4.68563,-56.8702
-133,-650,4.35632,57.8663,0,0,0,0,0,0,0,-1,1091,1674,4.35628,-57.8663
-126,-650,4.88989,57.3352,0,0,0,0,0,0,0,-1,1098,1674,4.88989,-57.3352
-119,-650,5.16663,20.6232,0,0,0,0,0,0,0,-1,1105,1674,5.16665,-20.6232
-112,-650,3.86292,14.4513,0,0,0,0,0,0,0,-1,1112,1674,3.8629,-14.4513
-105,-650,7.92102,38.1313,0,0,0,0,0,0,0,-1,1119,1674,7.92104,-38.1314
-98,-650,3.3761,6.78003,0,0,0,0,0,0,0,-1,1126,1674,3.37611,-6.78009
-91,-650,3.66809,7.04443,0,0,0,0,0,0,0,-1,1133,1674,3.66806,-7.04439
-84,-650,-3.82666,-1.59521,0,0,0,0,0,0,0,-1,1140,1674,-3.82661,1.59517
-77,-650,-4.70557,1.90198,0,0,0,0,0,0,0,-1,1147,1674,-4.7056,-1.90194
-70,-650,-4.88171,3.81653,0,0,0,0,0,0,0,-1,1154,1674,-4.88176,-3.81651
-63,-650,-5.14612,5.56543,0,0,0,0,0,0,0,-1,1161,1674,-5.14612,-5.56547
-56,-650,-5.38367,7.41101,0,0,0,0,0,0,0,-1,1168,1674,-5.38361,-7.41102
-49,-650,-5.11316,8.23706,0,0,0,0,0,0,0,-1,1175,1674,-5.11317,-8.23708
-42,-650,-4.99487,9.6792,0,0,0,0,0,0,0,-1,1182,1674,-4.99484,-9.67921
-35,-650,-4.77771,11.3369,0,0,0,0,0,0,0,-1,1189,1674,-4.77769,-11.3369
-28,-650,-4.1936,13.1501,0,0,0,0,0,0,0,-1,1196,1674,-4.19358,-13.1501
-21,-650,7.52466,48.5822,0,0,0,0,0,0,0,-1,1203,1674,7.52469,-48.5821
-14,-650,7.86133,61.0398,0,0,0,0,0,0,0,-1,1210,1674,7.86135,-61.0398
-7,-650,8.60706,63.3508,-0.00574121,-0.0169425,0.0413427,0.0303784,-0.0530622,0.718073,0.0487642,0.0459513,1217,1674,8.60702,-63.3508
0,-650,8.38953,63.7899,-0.00529927,-0.0349229,0.0328647,0.0159372,-0.0561594,0.573684,0.0437309,0.0439764,1224,1674,8.38948,-63.79
7,-650,8.38708,63.5642,0,0,0,0,0,0,0,-1,1231,1674,8.38708,-63.5642
14,-650,8.59106,63.3428,0.00357451,-0.0602174,0.0241999,0.0117159,-0.0683588,0.324528,0.0499381,0.0398279,1238,1674,8.59106,-63.3428
21,-650,8.31458,63.6998,0.0101747,-0.0684677,0.0217609,0.0157944,-0.0740875,0.25273,0.055412,0.0438424,1245,1674,8.3146,-63.6998
28,-650,7.53613,63.5941,0.0186056,-0.0718114,0.0146542,0.0209213,-0.0741271,0.15673,0.057671,0.0432504,1252,1674,7.53616,-63.5942
35,-650,8.2345,64.2874,0.0265653,-0.066329,0.00563154,0.0269055,-0.0666692,0.0603286,0.0556275,0.0435093,1259,1674,8.23454,-64.2873
42,-650,8.80908,65.2268,0.0330659,-0.059706,-0.00560203,0.033403,-0.060043,-0.060094,0.054677,0.0452765,1266,1674,8.80906,-65.2269
49,-650,9.39478,65.9531,0.0373368,-0.0504129,-0.016245,0.0402477,-0.0533237,-0.177303,0.054199,0.0446758,1273,1674,9.39478,-65.9531
56,-650,9.85718,66.4259,0.0382063,-0.0399685,-0.0260946,0.0461162,-0.0478785,-0.294322,0.0542711,0.0447124,1280,1674,9.85716,-66.4259
63,-650,10.2584,66.8856,0.0359022,-0.0238674,-0.0366341,0.0532949,-0.0412601,-0.443258,0.0547385,0.0458808,1287,1674,10.2584,-66.8856
70,-650,10.8073,67.0414,0.0306696,-0.0086595,-0.0440988,0.0592896,-0.0372795,-0.57567,0.0562349,0.0470288,1294,1674,10.8073,-67.0413
77,-650,10.9425,67.7506,0.0231735,0.00773717,-0.0510918,0.0671269,-0.0362162,-0.710433,0.0605483,0.0435595,1301,1674,10.9425,-67.7506
84,-650,10.8157,68.292,0.011642,0.0233988,-0.0550832,0.0729163,-0.0378755,-0.838556,0.0650234,0.0425475,1308,1674,10.8157,-68.292
91,-650,8.87634,63.0088,-0.00267158,0.0374317,-0.0567122,0.0775327,-0.0427726,-0.955323,0.0704181,0.0467838,1315,1674,8.87629,-63.0088
98,-650,8.31177,63.3392,0,0,0,0,0,0,0,-1,1322,1674,8.31182,-63.3392
105,-650,7.34412,63.5485,-0.0364417,0.0588516,-0.0484417,0.079152,-0.0567422,-1.17396,0.0788133,0.0448406,1329,1674,7.34411,-63.5484
112,-650,6.89319,63.8683,-0.0547877,0.0658962,-0.0382675,0.0770074,-0.0658989,-1.28821,0.08259,0.0420038,1336,1674,6.89324,-63.8683
119,-650,6.53674,64.1833,-0.0717482,0.0715713,-0.0260181,0.0761484,-0.0763253,-1.39666,0.0880308,0.0433008,1343,1674,6.53679,-64.1833
126,-650,6.18494,64.4761,0,0,0,0,0,0,0,-1,1350,1674,6.18491,-64.4761
133,-650,5.77722,64.3666,-0.0864433,0.086226,-0.0107759,0.0868959,-0.0871133,-1.50871,0.100464,0.04572,1357,1674,5.77726,-64.3665
140,-650,4.67041,64.9092,-0.0912099,0.106103,-0.00935424,0.106546,-0.0916524,-1.52353,0.114537,0.0444949,1364,1674,4.67039,-64.9092
147,-650,3.6062,66.1232,0,0,0,0,0,0,0,-1,1371,1674,3.60616,-66.1232
154,-650,2.82239,67.575,0,0,0,0,0,0,0,-1,1378,1674,2.82237,-67.575
161,-650,4.09106,30.3021,0,0,0,0,0,0,0,-1,1385,1674,4.09104,-30.3021
168,-650,11.2113,7.87231,0,0,0,0,0,0,0,-1,1392,1674,11.2113,-7.87236
175,-650,5.62537,-0.230713,0,0,0,0,0,0,0,-1,1399,1674,5.62538,0.230745
182,-650,5.56006,0.421631,0,0,0,0,0,0,0,-1,1406,1674,5.56,-0.421652
189,-650,4.81543,11.0654,0,0,0,0,0,0,0,-1,1413,1674,4.81542,-11.0654
196,-650,5.39575,11.9077,0,0,0,0,0,0,0,-1,1420,1674,5.39575,-11.9078
203,-650,3.93628,11.8215,0,0,0,0,0,0,0,-1,1427,1674,3.93624,-11.8216
210,-650,5.40955,8.08594,0,0,0,0,0,0,0,-1,1434,1674,5.40958,-8.086
217,-650,5.12451,4.69739,0,0,0,0,0,0,0,-1,1441,1674,5.12451,-4.69738
224,-650,4.79041,1.45813,0,0,0,0,0,0,0,-1,1448,1674,4.79046,-1.45816
231,-650,4.04102,-0.642212,0,0,0,0,0,0,0,-1,1455,1674,4.04101,0.642209
238,-650,3.23022,-1.43396,0,0,0,0,0,0,0,-1,1462,1674,3.23023,1.43394
245,-650,1.65894,-2.55042,0,0,0,0,0,0,0,-1,1469,1674,1.65889,2.55036
252,-650,8.75342,0.355103,0,0,0,0,0,0,0,-1,1476,1674,8.75337,-0.355147
259,-650,5.61255,3.17566,0,0,0,0,0,0,0,-1,1483,1674,5.61257,-3.17572
266,-650,4.00403,6.10229,0,0,0,0,0,0,0,-1,1490,1674,4.00401,-6.10225
273,-650,11.9524,42.7109,0,0,0,0,0,0,0,-1,1497,1674,11.9524,-42.7109
280,-650,12.3011,46.7283,0,0,0,0,0,0,0,-1,1504,1674,12.3011,-46.7283
287,-650,13.6442,54.9246,0,0,0,0,0,0,0,-1,1511,1674,13.6442,-54.9246
294,-650,13.7426,54.4869,0.00875684,0.0148039,-0.00420746,0.0169615,0.00659921,-1.09695,0.00987274,0.0437004,1518,1674,13.7426,-54.487
301,-650,13.8458,53.9506,0.00783665,0.0135635,-0.00366893,0.0153541,0.00604601,-1.11675,0.00893115,0.0333015,1525,1674,13.8459,-53.9505
308,-650,13.9082,53.5121,0.0068237,0.0121906,-0.0034265,0.0138594,0.00515494,-1.11759,0.00808873,0.0201431,1532,1674,13.9082,-53.5121
315,-650,13.951,52.9833,0.00584957,0.0107904,-0.00321227,0.0123723,0.00426762,-1.11319,0.00725678,0.0132793,1539,1674,13.951,-52.9833
322,-650,13.9451,52.4529,0.00521167,0.0098677,-0.0031823,0.0114826,0.00359675,-1.10119,0.0067819,0.0122353,1546,1674,13.9451,-52.4528
329,-650,13.9486,51.8771,0.00481452,0.00915023,-0.00312934,0.0107893,0.00317549,-1.08832,0.00640245,0.0170072,1553,1674,13.9486,-51.8771
336,-650,13.9409,51.3674,0.00429518,0.00844552,-0.00309726,0.0100985,0.00264217,-1.08055,0.0060472,0.016056,1560,1674,13.941,-51.3674
343,-650,13.9426,50.8125,0.00378025,0.00770043,-0.00306697,0.00938016,0.00210052,-1.06973,0.00568414,0.0154,1567,1674,13.9426,-50.8125
350,-650,13.9396,50.2185,0.00332506,0.00710343,-0.00303906,0.00879264,0.00163585,-1.06349,0.00539971,0.0167756,1574,1674,13.9396,-50.2185
357,-650,13.9137,49.6462,0.00299028,0.00604182,-0.0029203,0.00781091,0.00122119,-1.02613,0.00485171,0.0138834,1581,1674,13.9137,-49.6462
364,-650,13.9137,49.071,0.00272511,0.00564287,-0.00285657,0.00739153,0.000976451,-1.02149,0.0046366,0.00994107,1588,1674,13.9138,-49.0711
371,-650,13.8871,48.4847,0.00246477,0.00506462,-0.00280107,0.0068527,0.000676683,-1.00265,0.00436044,0.0119325,1595,1674,13.8871,-48.4847
378,-650,13.8663,47.9056,0.00221118,0.00444542,-0.00269969,0.00624999,0.000406613,-0.981569,0.00403795,0.0128256,1602,1674,13.8664,-47.9057
385,-650,13.8783,47.3071,0.00199035,0.00380981,-0.00259146,0.00564658,0.000153575,-0.954203,0.00371425,0.0147181,1609,1674,13.8782,-47.3072
392,-650,13.8663,46.6989,0.00168725,0.00320283,-0.00253497,0.00509085,-0.000200775,-0.930638,0.00346276,0.0187136,1616,1674,13.8663,-46.6988
399,-650,13.8267,46.0952,0.00123667,0.00275393,-0.00240617,0.00451823,-0.000527629,-0.938109,0.00320255,0.0162562,1623,1674,13.8267,-46.0952
406,-650,13.7798,45.4785,0.00092124,0.00223952,-0.00232317,0.00399524,-0.000834486,-0.923628,0.00298085,0.0143329,1630,1674,13.7798,-45.4785
413,-650,13.7688,44.8556,0.000742685,0.00188107,-0.00245461,0.00383162,-0.00120786,-0.899328,0.00303815,0.0157319,1637,1674,13.7688,-44.8556
420,-650,13.7242,44.2527,0.000619005,0.00174599,-0.00270027,0.00394094,-0.00157594,-0.888262,0.00328128,0.01662,1644,1674,13.7242,-44.2526
427,-650,13.6719,43.6293,0.000681277,0.00189969,-0.00312711,0.00447638,-0.00189542,-0.8816,0.00377802,0.0156051,1651,1674,13.6719,-43.6293
434,-650,13.6282,42.9698,0.000981358,0.00238304,-0.0036479,0.00539681,-0.00203241,-0.880303,0.00443345,0.0216997,1658,1674,13.6282,-42.9699
441,-650,13.6544,42.2201,0.00130373,0.00281683,-0.00450018,0.00662361,-0.00250305,-0.868677,0.00544535,0.0382446,1665,1674,13.6544,-42.2201
448,-650,13.3933,41.5642,0.00187581,0.00307168,-0.00556825,0.00807401,-0.00312652,-0.838885,0.00667361,0.0484592,1672,1674,13.3933,-41.5642
455,-650,13.4659,41.1373,0,0,0,0,0,0,0,-1,1679,1674,13.4659,-41.1374
462,-650,13.9724,40.1805,0,0,0,0,0,0,0,-1,1686,1674,13.9724,-40.1805
469,-650,11.3628,29.8889,0,0,0,0,0,0,0,-1,1693,1674,11.3628,-29.8889
476,-650,10.9189,27.1289,0,0,0,0,0,0,0,-1,1700,1674,10.919,-27.1289
483,-650,10.2426,24.5127,0,0,0,0,0,0,0,-1,1707,1674,10.2425,-24.5127
490,-650,10.4818,24.3475,0,0,0,0,0,0,0,-1,1714,1674,10.4818,-24.3475
497,-650,10.4985,20.1362,0,0,0,0,0,0,0,-1,1721,1674,10.4986,-20.1362
504,-650,9.69458,18.7721,0,0,0,0,0,0,0,-1,1728,1674,9.6946,-18.772
511,-650,9.37158,17.7506,0,0,0,0,0,0,0,-1,1735,1674,9.37159,-17.7506
518,-650,0,0,0,0,0,0,0,0,0,-1,1742,1674,0,0
525,-650,0,0,0,0,0,0,0,0,0,-1,1749,1674,0,0
532,-650,0,0,0,0,0,0,0,0,0,-1,1756,1674,0,0
539,-650,0,0,0,0,0,0,0,0,0,-1,1763,1674,0,0
546,-650,0,0,0,0,0,0,0,0,0,-1,1770,1674,0,0
553,-650,0,0,0,0,0,0,0,0,0,-1,1777,1674,0,0
560,-650,0,0,0,0,0,0,0,0,0,-1,1784,1674,0,0
567,-650,0,0,0,0,0,0,0,0,0,-1,1791,1674,0,0
574,-650,0,0,0,0,0,0,0,0,0,-1,1798,1674,0,0
581,-650,0,0,0,0,0,0,0,0,0,-1,1805,1674,0,0
588,-650,0,0,0,0,0,0,0,0,0,-1,1812,1674,0,0
595,-650,0,0,0,0,0,0,0,0,0,-1,1819,1674,0,0
602,-650,0,0,0,0,0,0,0,0,0,-1,1826,1674,0,0
609,-650,0,0,0,0,0,0,0,0,0,-1,1833,1674,0,0
616,-650,0,0,0,0,0,0,0,0,0,-1,1840,1674,0,0
623,-650,0,0,0,0,0,0,0,0,0,-1,1847,1674,0,0
630,-650,0,0,0,0,0,0,0,0,0,-1,1854,1674,0,0
637,-650,0,0,0,0,0,0,0,0,0,-1,1861,1674,0,0
644,-650,0,0,0,0,0,0,0,0,0,-1,1868,1674,0,0
651,-650,0,0,0,0,0,0,0,0,0,-1,1875,1674,0,0
658,-650,0,0,0,0,0,0,0,0,0,-1,1882,1674,0,0
665,-650,0,0,0,0,0,0,0,0,0,-1,1889,1674,0,0
672,-650,0,0,0,0,0,0,0,0,0,-1,1896,1674,0,0
679,-650,0,0,0,0,0,0,0,0,0,-1,1903,1674,0,0
686,-650,0,0,0,0,0,0,0,0,0,-1,1910,1674,0,0
693,-650,0,0,0,0,0,0,0,0,0,-1,1917,1674,0,0
700,-650,0,0,0,0,0,0,0,0,0,-1,1924,1674,0,0
707,-650,0,0,0,0,0,0,0,0,0,-1,1931,1674,0,0
714,-650,0,0,0,0,0,0,0,0,0,-1,1938,1674,0,0
721,-650,0,0,0,0,0,0,0,0,0,-1,1945,1674,0,0
728,-650,0,0,0,0,0,0,0,0,0,-1,1952,1674,0,0
735,-650,0,0,0,0,0,0,0,0,0,-1,1959,1674,0,0
742,-650,0,0,0,0,0,0,0,0,0,-1,1966,1674,0,0
749,-650,0,0,0,0,0,0,0,0,0,-1,1973,1674,0,0
756,-650,0,0,0,0,0,0,0,0,0,-1,1980,1674,0,0
763,-650,0,0,0,0,0,0,0,0,0,-1,1987,1674,0,0
770,-650,0,0,0,0,0,0,0,0,0,-1,1994,1674,0,0
777,-650,0,0,0,0,0,0,0,0,0,-1,2001,1674,0,0
784,-650,0,0,0,0,0,0,0,0,0,-1,2008,1674,0,0
791,-650,0,0,0,0,0,0,0,0,0,-1,2015,1674,0,0
798,-650,0,0,0,0,0,0,0,0,0,-1,2022,1674,0,0
805,-650,0,0,0,0,0,0,0,0,0,-1,2029,1674,0,0
812,-650,0,0,0,0,0,0,0,0,0,-1,2036,1674,0,0
-700,-657,0,0,0,0,0,0,0,0,0,-1,524,1681,0,0
-693,-657,0,0,0,0,0,0,0,0,0,-1,531,1681,0,0
-686,-657,0,0,0,0,0,0,0,0,0,-1,538,1681,0,0
-679,-657,0,0,0,0,0,0,0,0,0,-1,545,1681,0,0
-672,-657,0,0,0,0,0,0,0,0,0,-1,552,1681,0,0
-665,-657,0,0,0,0,0,0,0,0,0,-1,559,1681,0,0
-658,-657,0,0,0,0,0,0,0,0,0,-1,566,1681,0,0
-651,-657,0,0,0,0,0,0,0,0,0,-1,573,1681,0,0
-644,-657,0,0,0,0,0,0,0,0,0,-1,580,1681,0,0
-637,-657,0,0,0,0,0,0,0,0,0,-1,587,1681,0,0
-630,-657,0,0,0,0,0,0,0,0,0,-1,594,1681,0,0
-623,-657,0,0,0,0,0,0,0,0,0,-1,601,1681,0,0
-616,-657,0,0,0,0,0,0,0,0,0,-1,608,1681,0,0
-609,-657,0,0,0,0,0,0,0,0,0,-1,615,1681,0,0
-602,-657,0,0,0,0,0,0,0,0,0,-1,622,1681,0,0
-595,-657,0,0,0,0,0,0,0,0,0,-1,629,1681,0,0
-588,-657,0,0,0,0,0,0,0,0,0,-1,636,1681,0,0
-581,-657,0,0,0,0,0,0,0,0,0,-1,643,1681,0,0
-574,-657,0,0,0,0,0,0,0,0,0,-1,650,1681,0,0
-567,-657,0,0,0,0,0,0,0,0,0,-1,657,1681,0,0
-560,-657,0,0,0,0,0,0,0,0,0,-1,664,1681,0,0
-553,-657,0,0,0,0,0,0,0,0,0,-1,671,1681,0,0
-546,-657,0,0,0,0,0,0,0,0,0,-1,678,1681,0,0
-539,-657,0,0,0,0,0,0,0,0,0,-1,685,1681,0,0
-532,-657,0,0,0,0,0,0,0,0,0,-1,692,1681,0,0
-525,-657,0,0,0,0,0,0,0,0,0,-1,699,1681,0,0
-518,-657,0,0,0,0,0,0,0,0,0,-1,706,1681,0,0
-511,-657,0,0,0,0,0,0,0,0,0,-1,713,1681,0,0
-504,-657,0,0,0,0,0,0,0,0,0,-1,720,1681,0,0
-497,-657,0,0,0,0,0,0,0,0,0,-1,727,1681,0,0
-490,-657,0,0,0,0,0,0,0,0,0,-1,734,1681,0,0
-483,-657,0,0,0,0,0,0,0,0,0,-1,741,1681,0,0
-476,-657,0,0,0,0,0,0,0,0,0,-1,748,1681,0,0
-469,-657,0,0,0,0,0,0,0,0,0,-1,755,1681,0,0
-462,-657,0,0,0,0,0,0,0,0,0,-1,762,1681,0,0
-455,-657,0,0,0,0,0,0,0,0,0,-1,769,1681,0,0
-448,-657,0,0,0,0,0,0,0,0,0,-1,776,1681,0,0
-441,-657,0,0,0,0,0,0,0,0,0,-1,783,1681,0,0
-434,-657,0,0,0,0,0,0,0,0,0,-1,790,1681,0,0
-427,-657,0,0,0,0,0,0,0,0,0,-1,797,1681,0,0
-420,-657,0,0,0,0,0,0,0,0,0,-1,804,1681,0,0
-413,-657,0,0,0,0,0,0,0,0,0,-1,811,1681,0,0
-406,-657,0,0,0,0,0,0,0,0,0,-1,818,1681,0,0
-399,-657,0,0,0,0,0,0,0,0,0,-1,825,1681,0,0
-392,-657,0,0,0,0,0,0,0,0,0,-1,832,1681,0,0
-385,-657,1.09814,6.18896,0,0,0,0,0,0,0,-1,839,1681,1.09814,-6.18894
-378,-657,0.31488,4.46753,0,0,0,0,0,0,0,-1,846,1681,0.31487,-4.46755
-371,-657,-0.519043,2.69421,0,0,0,0,0,0,0,-1,853,1681,-0.519064,-2.69422
-364,-657,-3.42017,4.18323,0,0,0,0,0,0,0,-1,860,1681,-3.42019,-4.18319
-357,-657,5.03418,34.7598,0,0,0,0,0,0,0,-1,867,1681,5.03417,-34.7597
-350,-657,4.23431,35.8203,0,0,0,0,0,0,0,-1,874,1681,4.23429,-35.8203
-343,-657,3.60156,36.754,0,0,0,0,0,0,0,-1,881,1681,3.60154,-36.754
-336,-657,5.27338,40.2932,0,0,0,0,0,0,0,-1,888,1681,5.27338,-40.2932
-329,-657,5.40619,40.8356,0,0,0,0,0,0,0,-1,895,1681,5.40618,-40.8356
-322,-657,5.59351,41.4071,0,0,0,0,0,0,0,-1,902,1681,5.59353,-41.4071
-315,-657,5.39685,41.5245,0,0,0,0,0,0,0,-1,909,1681,5.39687,-41.5246
-308,-657,5.34283,43.1091,-0.00146207,-0.00541973,-0.00604144,0.00291636,-0.00979816,-0.627133,0.00769081,0.0398577,916,1681,5.34281,-43.1091
-301,-657,5.50903,43.488,-0.0023076,-0.00379703,-0.0053564,0.00235561,-0.00846024,-0.716325,0.00656772,0.0301154,923,1681,5.50906,-43.4881
-294,-657,5.44086,44.0802,-0.00270276,-0.00242574,-0.00466448,0.00210228,-0.00723078,-0.800241,0.00565312,0.0152339,930,1681,5.44083,-44.0802
-287,-657,5.38953,44.7079,-0.00285955,-0.00126221,-0.00388646,0.00190679,-0.00602855,-0.886737,0.00478305,0.011263,937,1681,5.38954,-44.7079
-280,-657,5.34479,45.3445,-0.00302882,-0.000173115,-0.0031358,0.00184461,-0.00504654,-0.999041,0.00411928,0.013665,944,1681,5.34481,-45.3445
-273,-657,5.31158,46.0026,-0.0028171,0.000440579,-0.00240022,0.00171246,-0.00408898,-1.08351,0.00344186,0.0104889,951,1681,5.31159,-46.0025
-266,-657,5.26178,46.6444,-0.00227836,0.000941836,-0.00165181,0.00163844,-0.00297497,-1.1717,0.00270056,0.016019,958,1681,5.26178,-46.6445
-259,-657,5.25128,47.2489,-0.00171422,0.00119371,-0.00101376,0.00151224,-0.00203275,-1.26636,0.00205404,0.0207001,965,1681,5.2513,-47.2489
-252,-657,5.19977,47.863,-0.00116825,0.00161516,-0.000300903,0.00164731,-0.00120041,-1.46433,0.00165087,0.0144285,972,1681,5.19977,-47.863
-245,-657,5.20062,48.4751,-0.000511826,0.00181742,0.00014747,0.00182672,-0.000521126,1.50782,0.00142368,0.0163304,979,1681,5.20061,-48.475
-238,-657,5.19177,49.1178,0.000304338,0.0015186,0.000486337,0.00168937,0.000133566,1.23311,0.00108447,0.0222199,986,1681,5.19179,-49.1178
-231,-657,5.15863,49.745,0.00118235,0.00108706,0.000778796,0.00191496,0.000354453,0.754845,0.00117642,0.0217191,993,1681,5.15861,-49.745
-224,-657,5.112,50.3192,0.00207078,0.000734339,0.000986927,0.00259443,0.000210695,0.487812,0.00166384,0.0159427,1000,1681,5.11201,-50.3192
-217,-657,5.11279,50.8835,0.00298841,5.60328e-05,0.00126893,0.00346127,-0.000416821,0.3567,0.00245826,0.0110339,1007,1681,5.11282,-50.8836
-210,-657,5.10938,51.436,0.00367722,-0.000856803,0.00129857,0.0040228,-0.00120238,0.260095,0.00315986,0.0118032,1014,1681,5.1094,-51.436
-203,-657,5.08569,51.9973,0.00486235,-0.00201131,0.00128608,0.0050951,-0.00224406,0.179037,0.00434253,0.0135651,1021,1681,5.08575,-51.9974
-196,-657,5.09302,52.5558,0.0057122,-0.00312944,0.00157879,0.00598566,-0.0034029,0.171505,0.00548843,0.0142066,1028,1681,5.09308,-52.5557
-189,-657,5.11462,53.0797,0.00571999,-0.00436377,0.00207391,0.00612986,-0.00477365,0.19512,0.00631136,0.0103235,1035,1681,5.11459,-53.0797
-182,-657,5.11951,53.6056,0.00539309,-0.00589925,0.00260001,0.00596298,-0.00646913,0.215772,0.00717966,0.00862148,1042,1681,5.11951,-53.6056
-175,-657,5.13477,54.1368,0.00521389,-0.00715609,0.00323593,0.00600925,-0.00795145,0.241014,0.00808618,0.0121187,1049,1681,5.13481,-54.1368
-168,-657,5.10266,54.6691,0.00452461,-0.008449,0.00400674,0.00566228,-0.00958667,0.276657,0.00890064,0.0159674,1056,1681,5.10262,-54.6691
-161,-657,5.12354,55.208,0.00341482,-0.00972434,0.00494348,0.005067,-0.0113765,0.322543,0.00972384,0.0163915,1063,1681,5.12358,-55.208
-154,-657,5.21387,55.6442,0.00188131,-0.0108922,0.00599928,0.00425708,-0.013268,0.377062,0.0105545,0.0158503,1070,1681,5.21391,-55.6442
-147,-657,5.22852,56.1136,2.91504e-05,-0.0119791,0.0071454,0.00335809,-0.0153081,0.435986,0.0114895,0.0243436,1077,1681,5.22852,-56.1137
-140,-657,5.18457,56.7982,-0.00204283,-0.0131254,0.00827774,0.00237714,-0.0175454,0.490445,0.0125645,0.0347804,1084,1681,5.18456,-56.7983
-133,-657,5.00073,57.369,-0.00449051,-0.0141494,0.00945942,0.00130098,-0.0199409,0.549376,0.0137481,0.0398837,1091,1681,5.00068,-57.369
-126,-657,5.26526,57.9806,0,0,0,0,0,0,0,-1,1098,1681,5.26524,-57.9806
-119,-657,5.64758,54.4952,0,0,0,0,0,0,0,-1,1105,1681,5.64753,-54.4952
-112,-657,6.24219,42.9092,0,0,0,0,0,0,0,-1,1112,1681,6.24217,-42.9092
-105,-657,7.37256,41.0361,0,0,0,0,0,0,0,-1,1119,1681,7.37254,-41.0362
-98,-657,8.14404,38.4435,0,0,0,0,0,0,0,-1,1126,1681,8.14405,-38.4435
-91,-657,3.6521,16.6017,0,0,0,0,0,0,0,-1,1133,1681,3.65215,-16.6017
-84,-657,4.08008,10.4579,0,0,0,0,0,0,0,-1,1140,1681,4.08006,-10.4579
-77,-657,-5.29846,0.396606,0,0,0,0,0,0,0,-1,1147,1681,-5.29842,-0.396573
-70,-657,-4.14893,2.14575,0,0,0,0,0,0,0,-1,1154,1681,-4.14893,-2.1458
-63,-657,-4.1239,3.177,0,0,0,0,0,0,0,-1,1161,1681,-4.12391,-3.17698
-56,-657,-6.40576,5.73987,0,0,0,0,0,0,0,-1,1168,1681,-6.40577,-5.7399
-49,-657,-5.98462,7.54053,0,0,0,0,0,0,0,-1,1175,1681,-5.98466,-7.5405
-42,-657,-5.71948,9.28955,0,0,0,0,0,0,0,-1,1182,1681,-5.71951,-9.2895
-35,-657,-5.44556,11.015,0,0,0,0,0,0,0,-1,1189,1681,-5.44555,-11.015
-28,-657,-1.3446,8.92847,0,0,0,0,0,0,0,-1,1196,1681,-1.34459,-8.92848
-21,-657,7.89453,61.1814,0,0,0,0,0,0,0,-1,1203,1681,7.89452,-61.1814
-14,-657,8.04895,61.2173,0.00224844,-0.00628028,0.0415101,0.0397127,-0.0437445,0.734212,0.0482028,0.0479824,1210,1681,8.04899,-61.2173
-7,-657,8.22412,62.7749,-0.00022478,-0.0165096,0.0359974,0.0285396,-0.045274,0.674173,0.0429798,0.0451737,1217,1681,8.22407,-62.775
0,-657,8.32581,63.3535,0.000668653,-0.028976,0.0302531,0.0195353,-0.0478427,0.557613,0.0400288,0.0440786,1224,1681,8.32582,-63.3535
7,-657,8.37,63.8073,0,0,0,0,0,0,0,-1,1231,1681,8.37004,-63.8073
14,-657,8.21924,63.6229,0.00811476,-0.0487747,0.0237177,0.0167056,-0.0573655,0.347512,0.0448613,0.039157,1238,1681,8.21924,-63.623
21,-657,8.06226,63.9601,0.0147525,-0.0555926,0.0201995,0.0201402,-0.0609802,0.260653,0.0487732,0.0408065,1245,1681,8.06228,-63.96
28,-657,7.73718,64.5374,0.0233155,-0.0576695,0.0127597,0.0252783,-0.0596324,0.152632,0.0503429,0.0398727,1252,1681,7.73724,-64.5373
35,-657,8.32153,65.1702,0.0308205,-0.0524344,0.00401731,0.0310139,-0.0526278,0.0481042,0.048825,0.0401957,1259,1681,8.32158,-65.1702
42,-657,8.98462,65.9054,0.0368939,-0.0468336,-0.00628228,0.0373627,-0.0473024,-0.0744766,0.0489935,0.0419427,1266,1681,8.98466,-65.9053
49,-657,9.60144,66.4669,0.0411396,-0.0394699,-0.0158642,0.0441494,-0.0424797,-0.187491,0.0500184,0.0401279,1273,1681,9.60149,-66.4669
56,-657,10.1488,66.9059,0.0426165,-0.0313077,-0.0249764,0.050264,-0.0389552,-0.297125,0.0516485,0.0408352,1280,1681,10.1488,-66.9059
63,-657,10.2334,67.4252,0.0413116,-0.0180698,-0.0345645,0.0571867,-0.0339449,-0.430552,0.0531822,0.0493461,1287,1681,10.2333,-67.4252
70,-657,10.8243,67.6154,0.0372567,-0.00523069,-0.0420133,0.0630917,-0.0310657,-0.551322,0.0554001,0.0478593,1294,1681,10.8243,-67.6154
77,-657,10.7905,68.2856,0.0308295,0.00864259,-0.0488683,0.0698476,-0.0303756,-0.673786,0.0593409,0.0410078,1301,1681,10.7905,-68.2857
84,-657,9.21313,62.3134,0.0197826,0.0219603,-0.0526802,0.073563,-0.03182,-0.795731,0.0624137,0.0464425,1308,1681,9.21317,-62.3134
91,-657,9.07446,62.6132,0.00595465,0.0335934,-0.0541309,0.0756412,-0.0360931,-0.910376,0.065843,0.0457978,1315,1681,9.07448,-62.6131
98,-657,8.75085,62.9048,-0.00973099,0.0431596,-0.0521254,0.0751644,-0.0417358,-1.02015,0.068406,0.0453351,1322,1681,8.7508,-62.9048
105,-657,8.19434,63.2739,-0.0264261,0.0504663,-0.0467288,0.0725321,-0.0484919,-1.12963,0.0703312,0.0451751,1329,1681,8.19437,-63.2739
112,-657,7.72986,63.7094,-0.0434457,0.0557047,-0.0377285,0.0684282,-0.0561693,-1.24553,0.0720524,0.0449466,1336,1681,7.72984,-63.7094
119,-657,7.40381,64.1171,0,0,0,0,0,0,0,-1,1343,1681,7.40383,-64.117
126,-657,7.38745,63.231,0,0,0,0,0,0,0,-1,1350,1681,7.38742,-63.231
133,-657,6.75049,63.6078,-0.071264,0.0716966,-0.0143781,0.0731283,-0.0726957,-1.47155,0.0841917,0.0461483,1357,1681,6.75046,-63.6078
140,-657,5.85645,64.1401,-0.0748962,0.085033,-0.0124983,0.0860038,-0.075867,-1.49327,0.0935173,0.0463089,1364,1681,5.85645,-64.1401
147,-657,4.25342,65.0403,0,0,0,0,0,0,0,-1,1371,1681,4.2534,-65.0403
154,-657,12.068,54.7341,0,0,0,0,0,0,0,-1,1378,1681,12.068,-54.7342
161,-657,4.2926,24.9226,0,0,0,0,0,0,0,-1,1385,1681,4.29264,-24.9226
168,-657,5.21643,0.70105,0,0,0,0,0,0,0,-1,1392,1681,5.21648,-0.7011
175,-657,5.52771,0.649048,0,0,0,0,0,0,0,-1,1399,1681,5.52774,-0.649019
182,-657,5.73999,1.02612,0,0,0,0,0,0,0,-1,1406,1681,5.73995,-1.02611
189,-657,5.92126,1.44116,0,0,0,0,0,0,0,-1,1413,1681,5.92126,-1.44115
196,-657,4.92834,9.59021,0,0,0,0,0,0,0,-1,1420,1681,4.9284,-9.59018
203,-657,6.26343,5.16492,0,0,0,0,0,0,0,-1,1427,1681,6.26345,-5.16488
210,-657,3.9856,5.28088,0,0,0,0,0,0,0,-1,1434,1681,3.98555,-5.28084
217,-657,3.95178,5.2843,0,0,0,0,0,0,0,-1,1441,1681,3.95174,-5.28431
224,-657,6.66736,-0.250244,0,0,0,0,0,0,0,-1,1448,1681,6.66737,0.250229
231,-657,6.85498,-1.70752,0,0,0,0,0,0,0,-1,1455,1681,6.855,1.70758
238,-657,5.34143,-2.89819,0,0,0,0,0,0,0,-1,1462,1681,5.34143,2.89813
245,-657,8.66003,-0.102783,0,0,0,0,0,0,0,-1,1469,1681,8.66,0.102824
252,-657,4.78955,0.623779,0,0,0,0,0,0,0,-1,1476,1681,4.7895,-0.623826
259,-657,2.61523,4.31909,0,0,0,0,0,0,0,-1,1483,1681,2.61523,-4.31908
266,-657,5.35437,11.4742,0,0,0,0,0,0,0,-1,1490,1681,5.35441,-11.4742
273,-657,11.9164,46.0638,0,0,0,0,0,0,0,-1,1497,1681,11.9164,-46.0638
280,-657,12.9348,55.4546,0,0,0,0,0,0,0,-1,1504,1681,12.9348,-55.4546
287,-657,12.9163,55.027,0,0,0,0,0,0,0,-1,1511,1681,12.9163,-55.027
294,-657,13.2461,54.4761,0.00748941,0.00953044,-0.00274326,0.0114369,0.00558299,-0.963471,0.00660369,0.0343727,1518,1681,13.2461,-54.4761
301,-657,13.3374,54.0684,0.0066748,0.0089929,-0.00248086,0.0105721,0.0050956,-1.00393,0.00610513,0.0265158,1525,1681,13.3374,-54.0684
308,-657,13.3536,53.5463,0.00579429,0.00830176,-0.00238723,0.00974444,0.0043516,-1.02719,0.00563665,0.0169045,1532,1681,13.3537,-53.5462
315,-657,13.3795,52.9816,0.00491696,0.0075954,-0.0022797,0.00890014,0.00361222,-1.05097,0.00516877,0.0114116,1539,1681,13.3796,-52.9816
322,-657,13.4257,52.4279,0.00421816,0.0071803,-0.00225743,0.00839915,0.00299931,-1.07572,0.00491482,0.0135366,1546,1681,13.4256,-52.4279
329,-657,13.4077,51.885,0.00366428,0.00674136,-0.00218751,0.0078772,0.00252845,-1.09188,0.00464405,0.020109,1553,1681,13.4077,-51.885
336,-657,13.3842,51.3461,0.00315952,0.00635175,-0.00202511,0.00733414,0.00217713,-1.11914,0.00434931,0.0185374,1560,1681,13.3842,-51.346
343,-657,13.3964,50.8081,0.00265682,0.00592685,-0.00190884,0.0068052,0.00177848,-1.13954,0.00407544,0.015214,1567,1681,13.3964,-50.8081
350,-657,13.3723,50.2507,0.00219168,0.00560381,-0.00190344,0.00645386,0.00134163,-1.15078,0.00393241,0.0167475,1574,1681,13.3724,-50.2507
357,-657,13.363,49.6702,0.00188401,0.00488003,-0.00185215,0.00576414,0.000999898,-1.12544,0.00355662,0.0152653,1581,1681,13.363,-49.6702
364,-657,13.3627,49.0902,0.00165581,0.00460521,-0.00183047,0.00548112,0.000779904,-1.12448,0.00342385,0.0110318,1588,1681,13.3627,-49.0902
371,-657,13.3291,48.5198,0.00147172,0.00420314,-0.00187815,0.00515962,0.000515234,-1.09976,0.00328152,0.0159953,1595,1681,13.3292,-48.5198
378,-657,13.2803,47.9268,0.00133158,0.00375946,-0.00194553,0.00483872,0.000252323,-1.06433,0.00314508,0.0158471,1602,1681,13.2803,-47.9268
385,-657,13.2538,47.326,0.00125124,0.00335047,-0.0020841,0.00463434,-3.26273e-05,-1.01867,0.00310049,0.0132914,1609,1681,13.2538,-47.326
392,-657,13.2301,46.7258,0.00112468,0.00294919,-0.00232791,0.00453721,-0.00046334,-0.972141,0.00319049,0.0137199,1616,1681,13.2302,-46.7258
399,-657,13.2252,46.1097,0.000852442,0.00268978,-0.00250528,0.00443951,-0.000897293,-0.961132,0.00329969,0.0137038,1623,1681,13.2253,-46.1097
406,-657,13.2046,45.5026,0.000716837,0.00240114,-0.0027198,0.00440618,-0.0012882,-0.935536,0.00344802,0.0145201,1630,1681,13.2046,-45.5025
413,-657,13.1758,44.8784,0.000714771,0.00225745,-0.0031937,0.00477163,-0.00179941,-0.903888,0.00392102,0.0147579,1637,1681,13.1758,-44.8784
420,-657,13.1455,44.2275,0.000752018,0.00232722,-0.00376712,0.00538819,-0.00230896,-0.88845,0.00456095,0.0185431,1644,1681,13.1456,-44.2275
427,-657,13.0466,43.5516,0.00103674,0.00283149,-0.00453802,0.00656001,-0.00269178,-0.883012,0.00549495,0.0246043,1651,1681,13.0466,-43.5517
434,-657,13.0532,42.8866,0.00149167,0.00352476,-0.00516248,0.00776983,-0.0027534,-0.88261,0.0063015,0.0352398,1658,1681,13.0532,-42.8866
441,-657,13.1078,42.2621,0.00202206,0.00424246,-0.00591824,0.00915373,-0.00288922,-0.878115,0.0072598,0.0474612,1665,1681,13.1078,-42.2621
448,-657,12.467,41.4851,0,0,0,0,0,0,0,-1,1672,1681,12.4671,-41.4851
455,-657,13.1655,40.4932,0,0,0,0,0,0,0,-1,1679,1681,13.1655,-40.4932
462,-657,10.2832,30.1719,0,0,0,0,0,0,0,-1,1686,1681,10.2831,-30.1718
469,-657,9.22205,26.4175,0,0,0,0,0,0,0,-1,1693,1681,9.2221,-26.4175
476,-657,8.9519,20.5712,0,0,0,0,0,0,0,-1,1700,1681,8.95194,-20.5712
483,-657,10.0663,21.8628,0,0,0,0,0,0,0,-1,1707,1681,10.0663,-21.8628
490,-657,11.6039,21.2185,0,0,0,0,0,0,0,-1,1714,1681,11.6038,-21.2185
497,-657,9.20862,17.8127,0,0,0,0,0,0,0,-1,1721,1681,9.2086,-17.8127
504,-657,0,0,0,0,0,0,0,0,0,-1,1728,1681,0,0
511,-657,0,0,0,0,0,0,0,0,0,-1,1735,1681,0,0
518,-657,0,0,0,0,0,0,0,0,0,-1,1742,1681,0,0
525,-657,0,0,0,0,0,0,0,0,0,-1,1749,1681,0,0
532,-657,0,0,0,0,0,0,0,0,0,-1,1756,1681,0,0
539,-657,0,0,0,0,0,0,0,0,0,-1,1763,1681,0,0
546,-657,0,0,0,0,0,0,0,0,0,-1,1770,1681,0,0
553,-657,0,0,0,0,0,0,0,0,0,-1,1777,1681,0,0
560,-657,0,0,0,0,0,0,0,0,0,-1,1784,1681,0,0
567,-657,0,0,0,0,0,0,0,0,0,-1,1791,1681,0,0
574,-657,0,0,0,0,0,0,0,0,0,-1,1798,1681,0,0
581,-657,0,0,0,0,0,0,0,0,0,-1,1805,1681,0,0
588,-657,0,0,0,0,0,0,0,0,0,-1,1812,1681,0,0
595,-657,0,0,0,0,0,0,0,0,0,-1,1819,1681,0,0
602,-657,0,0,0,0,0,0,0,0,0,-1,1826,1681,0,0
609,-657,0,0,0,0,0,0,0,0,0,-1,1833,1681,0,0
616,-657,0,0,0,0,0,0,0,0,0,-1,1840,1681,0,0
623,-657,0,0,0,0,0,0,0,0,0,-1,1847,1681,0,0
630,-657,0,0,0,0,0,0,0,0,0,-1,1854,1681,0,0
637,-657,0,0,0,0,0,0,0,0,0,-1,1861,1681,0,0
644,-657,0,0,0,0,0,0,0,0,0,-1,1868,1681,0,0
651,-657,0,0,0,0,0,0,0,0,0,-1,1875,1681,0,0
658,-657,0,0,0,0,0,0,0,0,0,-1,1882,1681,0,0
665,-657,0,0,0,0,0,0,0,0,0,-1,1889,1681,0,0
672,-657,0,0,0,0,0,0,0,0,0,-1,1896,1681,0,0
679,-657,0,0,0,0,0,0,0,0,0,-1,1903,1681,0,0
686,-657,0,0,0,0,0,0,0,0,0,-1,1910,1681,0,0
693,-657,0,0,0,0,0,0,0,0,0,-1,1917,1681,0,0
700,-657,0,0,0,0,0,0,0,0,0,-1,1924,1681,0,0
707,-657,0,0,0,0,0,0,0,0,0,-1,1931,1681,0,0
714,-657,0,0,0,0,0,0,0,0,0,-1,1938,1681,0,0
721,-657,0,0,0,0,0,0,0,0,0,-1,1945,1681,0,0
728,-657,0,0,0,0,0,0,0,0,0,-1,1952,1681,0,0
735,-657,0,0,0,0,0,0,0,0,0,-1,1959,1681,0,0
742,-657,0,0,0,0,0,0,0,0,0,-1,1966,1681,0,0
749,-657,0,0,0,0,0,0,0,0,0,-1,1973,1681,0,0
756,-657,0,0,0,0,0,0,0,0,0,-1,1980,1681,0,0
763,-657,0,0,0,0,0,0,0,0,0,-1,1987,1681,0,0
770,-657,0,0,0,0,0,0,0,0,0,-1,1994,1681,0,0
777,-657,0,0,0,0,0,0,0,0,0,-1,2001,1681,0,0
784,-657,0,0,0,0,0,0,0,0,0,-1,2008,1681,0,0
791,-657,0,0,0,0,0,0,0,0,0,-1,2015,1681,0,0
798,-657,0,0,0,0,0,0,0,0,0,-1,2022,1681,0,0
805,-657,0,0,0,0,0,0,0,0,0,-1,2029,1681,0,0
812,-657,0,0,0,0,0,0,0,0,0,-1,2036,1681,0,0
-700,-664,0,0,0,0,0,0,0,0,0,-1,524,1688,0,0
-693,-664,0,0,0,0,0,0,0,0,0,-1,531,1688,0,0
-686,-664,0,0,0,0,0,0,0,0,0,-1,538,1688,0,0
-679,-664,0,0,0,0,0,0,0,0,0,-1,545,1688,0,0
-672,-664,0,0,0,0,0,0,0,0,0,-1,552,1688,0,0
-665,-664,0,0,0,0,0,0,0,0,0,-1,559,1688,0,0
-658,-664,0,0,0,0,0,0,0,0,0,-1,566,1688,0,0
-651,-664,0,0,0,0,0,0,0,0,0,-1,573,1688,0,0
-644,-664,0,0,0,0,0,0,0,0,0,-1,580,1688,0,0
-637,-664,0,0,0,0,0,0,0,0,0,-1,587,1688,0,0
-630,-664,0,0,0,0,0,0,0,0,0,-1,594,1688,0,0
-623,-664,0,0,0,0,0,0,0,0,0,-1,601,1688,0,0
-616,-664,0,0,0,0,0,0,0,0,0,-1,608,1688,0,0
-609,-664,0,0,0,0,0,0,0,0,0,-1,615,1688,0,0
-602,-664,0,0,0,0,0,0,0,0,0,-1,622,1688,0,0
-595,-664,0,0,0,0,0,0,0,0,0,-1,629,1688,0,0
-588,-664,0,0,0,0,0,0,0,0,0,-1,636,1688,0,0
-581,-664,0,0,0,0,0,0,0,0,0,-1,643,1688,0,0
-574,-664,0,0,0,0,0,0,0,0,0,-1,650,1688,0,0
-567,-664,0,0,0,0,0,0,0,0,0,-1,657,1688,0,0
-560,-664,0,0,0,0,0,0,0,0,0,-1,664,1688,0,0
-553,-664,0,0,0,0,0,0,0,0,0,-1,671,1688,0,0
-546,-664,0,0,0,0,0,0,0,0,0,-1,678,1688,0,0
-539,-664,0,0,0,0,0,0,0,0,0,-1,685,1688,0,0
-532,-664,0,0,0,0,0,0,0,0,0,-1,692,1688,0,0
-525,-664,0,0,0,0,0,0,0,0,0,-1,699,1688,0,0
-518,-664,0,0,0,0,0,0,0,0,0,-1,706,1688,0,0
-511,-664,0,0,0,0,0,0,0,0,0,-1,713,1688,0,0
-504,-664,0,0,0,0,0,0,0,0,0,-1,720,1688,0,0
-497,-664,0,0,0,0,0,0,0,0,0,-1,727,1688,0,0
-490,-664,0,0,0,0,0,0,0,0,0,-1,734,1688,0,0
-483,-664,0,0,0,0,0,0,0,0,0,-1,741,1688,0,0
-476,-664,0,0,0,0,0,0,0,0,0,-1,748,1688,0,0
-469,-664,0,0,0,0,0,0,0,0,0,-1,755,1688,0,0
-462,-664,0,0,0,0,0,0,0,0,0,-1,762,1688,0,0
-455,-664,0,0,0,0,0,0,0,0,0,-1,769,1688,0,0
-448,-664,0,0,0,0,0,0,0,0,0,-1,776,1688,0,0
-441,-664,0,0,0,0,0,0,0,0,0,-1,783,1688,0,0
-434,-664,0,0,0,0,0,0,0,0,0,-1,790,1688,0,0
-427,-664,0,0,0,0,0,0,0,0,0,-1,797,1688,0,0
-420,-664,0,0,0,0,0,0,0,0,0,-1,804,1688,0,0
-413,-664,0,0,0,0,0,0,0,0,0,-1,811,1688,0,0
-406,-664,0,0,0,0,0,0,0,0,0,-1,818,1688,0,0
-399,-664,0,0,0,0,0,0,0,0,0,-1,825,1688,0,0
-392,-664,0,0,0,0,0,0,0,0,0,-1,832,1688,0,0
-385,-664,0,0,0,0,0,0,0,0,0,-1,839,1688,0,0
-378,-664,0,0,0,0,0,0,0,0,0,-1,846,1688,0,0
-371,-664,-1.61676,5.92737,0,0,0,0,0,0,0,-1,853,1688,-1.61675,-5.92735
-364,-664,-3.901,5.87024,0,0,0,0,0,0,0,-1,860,1688,-3.90097,-5.87027
-357,-664,-4.81012,4.53479,0,0,0,0,0,0,0,-1,867,1688,-4.81012,-4.5348
-350,-664,3.26105,36.0225,0,0,0,0,0,0,0,-1,874,1688,3.26104,-36.0224
-343,-664,5.2652,32.889,0,0,0,0,0,0,0,-1,881,1688,5.26517,-32.889
-336,-664,6.70184,40.4547,0,0,0,0,0,0,0,-1,888,1688,6.70183,-40.4547
-329,-664,5.4585,40.7772,0,0,0,0,0,0,0,-1,895,1688,5.45852,-40.7772
-322,-664,6.9931,41.9558,0,0,0,0,0,0,0,-1,902,1688,6.99308,-41.9558
-315,-664,6.77161,42.6283,0,0,0,0,0,0,0,-1,909,1688,6.77161,-42.6283
-308,-664,6.5351,43.2489,-0.00297708,-0.00602511,-0.00916646,0.00479119,-0.0137934,-0.703022,0.0111415,0.0498866,916,1688,6.53506,-43.2489
-301,-664,6.2926,43.8134,-0.0036976,-0.00383054,-0.00789522,0.00413143,-0.0116596,-0.781189,0.00945598,0.046839,923,1688,6.2926,-43.8134
-294,-664,6.10254,44.3508,-0.0039993,-0.00210322,-0.00672689,0.00374211,-0.00984463,-0.855404,0.00810377,0.0394305,930,1688,6.10252,-44.3508
-287,-664,6.05957,44.7582,-0.00413045,-0.000681414,-0.00558859,0.00344268,-0.00825455,-0.935053,0.00694125,0.0275607,937,1688,6.05956,-44.7582
-280,-664,5.95953,45.3912,-0.00439411,0.000501523,-0.00456732,0.00323562,-0.0071282,-1.03139,0.00612262,0.0177727,944,1688,5.95954,-45.3913
-273,-664,5.90417,46.0486,-0.00432368,0.00112713,-0.00360295,0.00291937,-0.00611591,-1.1092,0.00532423,0.014254,951,1688,5.90418,-46.0485
-266,-664,5.88434,46.6598,-0.00387637,0.00156543,-0.00266141,0.00265063,-0.00496157,-1.18362,0.0044619,0.0220063,958,1688,5.88432,-46.6598
-259,-664,5.85248,47.2626,-0.00340892,0.00170147,-0.00187126,0.00231339,-0.00402084,-1.25475,0.00370109,0.0211241,965,1688,5.85249,-47.2626
-252,-664,5.82953,47.8915,-0.0029574,0.00201054,-0.00100633,0.00220665,-0.00315351,-1.37834,0.00311074,0.0171838,972,1688,5.82952,-47.8914
-245,-664,5.77203,48.5311,-0.0023983,0.0021119,-0.000470203,0.0021604,-0.0024468,-1.46802,0.00266168,0.0211951,979,1688,5.77205,-48.5311
-238,-664,5.79761,49.1559,-0.00171325,0.00180937,-6.86474e-05,0.00181071,-0.00171459,-1.55132,0.00203558,0.0246221,986,1688,5.7976,-49.1558
-231,-664,5.79108,49.7518,-0.000952604,0.00143776,0.000269849,0.00146785,-0.000982689,1.45977,0.00142403,0.0205462,993,1688,5.79108,-49.7519
-224,-664,5.71875,50.3398,-0.000139846,0.00116478,0.000531897,0.00135415,-0.000329214,1.22877,0.00103019,0.014374,1000,1688,5.71876,-50.3398
-217,-664,5.69354,50.91,0.000657317,0.000526664,0.000853819,0.0014483,-0.000264324,0.747217,0.00106464,0.0112205,1007,1688,5.69355,-50.9101
-210,-664,5.67535,51.4761,0.00150205,-0.00021706,0.000996209,0.00195827,-0.000673281,0.429452,0.00157855,0.0120792,1014,1688,5.67535,-51.4761
-203,-664,5.63245,52.0422,0.00264935,-0.00104324,0.000959254,0.00288368,-0.00127757,0.239585,0.00246142,0.0138932,1021,1688,5.63242,-52.0423
-196,-664,5.625,52.5853,0.00348262,-0.00184769,0.0012081,0.00374365,-0.00210871,0.212795,0.00342253,0.014644,1028,1688,5.62501,-52.5854
-189,-664,5.63696,53.1039,0.00375014,-0.00270568,0.00161187,0.00413021,-0.00308575,0.231565,0.00418066,0.0101371,1035,1688,5.63693,-53.1038
-182,-664,5.6532,53.6324,0.00375456,-0.00373427,0.0020017,0.00425602,-0.00423573,0.245465,0.00490272,0.00953117,1042,1688,5.65316,-53.6324
-175,-664,5.64417,54.1313,0.00391219,-0.00452722,0.00249014,0.00459215,-0.00520718,0.266562,0.00566136,0.0132373,1049,1688,5.64417,-54.1314
-168,-664,5.6344,54.6416,0.00367289,-0.00538567,0.00303558,0.00459605,-0.00630883,0.295226,0.00632177,0.0137742,1056,1688,5.63441,-54.6415
-161,-664,5.63,55.1423,0.00309999,-0.00620903,0.00367153,0.00437377,-0.00748281,0.33394,0.0069234,0.0110962,1063,1688,5.62998,-55.1424
-154,-664,5.69849,55.6193,0.00226773,-0.00691816,0.00437183,0.00401576,-0.00866619,0.380369,0.00748422,0.0115436,1070,1688,5.69849,-55.6193
-147,-664,5.70154,56.0768,0.0012596,-0.00752254,0.00511854,0.00361248,-0.00987543,0.430874,0.00806223,0.0158609,1077,1688,5.7015,-56.0768
-140,-664,5.72363,56.5901,0.000112907,-0.00817882,0.00582833,0.0031195,-0.0111854,0.476254,0.00868556,0.0179221,1084,1688,5.72365,-56.59
-133,-664,5.71399,57.1034,-0.00126536,-0.00864671,0.00657087,0.00258037,-0.0124924,0.529518,0.00930841,0.0194722,1091,1688,5.71394,-57.1034
-126,-664,5.83008,57.7239,-0.00253669,-0.00929247,0.0072318,0.00206722,-0.0138964,0.566911,0.0100246,0.0397358,1098,1688,5.83009,-57.7239
-119,-664,6.01221,58.4371,0,0,0,0,0,0,0,-1,1105,1688,6.01215,-58.4372
-112,-664,6.3916,51.1235,0,0,0,0,0,0,0,-1,1112,1688,6.39161,-51.1236
-105,-664,6.87256,43.2527,0,0,0,0,0,0,0,-1,1119,1688,6.87258,-43.2527
-98,-664,7.69324,41.3359,0,0,0,0,0,0,0,-1,1126,1688,7.69321,-41.3359
-91,-664,5.41931,25.6302,0,0,0,0,0,0,0,-1,1133,1688,5.41932,-25.6302
-84,-664,3.48389,16.6913,0,0,0,0,0,0,0,-1,1140,1688,3.4839,-16.6913
-77,-664,4.52014,11.2122,0,0,0,0,0,0,0,-1,1147,1688,4.5202,-11.2122
-70,-664,4.20374,8.24524,0,0,0,0,0,0,0,-1,1154,1688,4.20379,-8.24519
-63,-664,-4.677,2.40503,0,0,0,0,0,0,0,-1,1161,1688,-4.67702,-2.40498
-56,-664,-4.66504,3.32727,0,0,0,0,0,0,0,-1,1168,1688,-4.6651,-3.32724
-49,-664,-2.54297,3.31848,0,0,0,0,0,0,0,-1,1175,1688,-2.54297,-3.31852
-42,-664,-0.359253,4.38684,0,0,0,0,0,0,0,-1,1182,1688,-0.359261,-4.38685
-35,-664,-0.705566,3.55017,0,0,0,0,0,0,0,-1,1189,1688,-0.705567,-3.55023
-28,-664,-1.54236,10.2538,0,0,0,0,0,0,0,-1,1196,1688,-1.54236,-10.2538
-21,-664,7.94104,61.1777,0,0,0,0,0,0,0,-1,1203,1688,7.94108,-61.1778
-14,-664,8.10193,61.3336,0.00402249,-0.00839699,0.0340969,0.0324705,-0.036845,0.695325,0.0400459,0.0479224,1210,1688,8.1019,-61.3336
-7,-664,8.2533,62.7729,0.00329468,-0.0156114,0.0304142,0.025691,-0.0380078,0.634726,0.037005,0.0478513,1217,1688,8.25327,-62.7729
0,-664,8.32642,63.0757,0.00443111,-0.0242669,0.026641,0.0203416,-0.0401774,0.538372,0.0355608,0.0470007,1224,1688,8.32636,-63.0757
7,-664,8.34766,63.4144,0.00692135,-0.0323407,0.0239898,0.0182885,-0.0437079,0.442496,0.0367829,0.0460575,1231,1688,8.3477,-63.4144
14,-664,8.2207,63.7455,0.0104848,-0.039429,0.0219218,0.0187456,-0.0476898,0.360372,0.0395513,0.0418635,1238,1688,8.22067,-63.7455
21,-664,8.08057,64.1263,0.0167978,-0.044877,0.01799,0.0216617,-0.0497409,0.264056,0.0422735,0.0433722,1245,1688,8.08052,-64.1264
28,-664,8.05835,64.6772,0,0,0,0,0,0,0,-1,1252,1688,8.05832,-64.6773
35,-664,8.67053,65.6161,0.0318499,-0.0414766,0.0028473,0.0319603,-0.041587,0.0387526,0.0425836,0.0431934,1259,1688,8.67055,-65.6161
42,-664,9.16895,66.1771,0.0373284,-0.0368511,-0.00627281,0.0378551,-0.0373778,-0.0837699,0.043436,0.0432342,1266,1688,9.16892,-66.1772
49,-664,9.66577,66.597,0.0412704,-0.0310936,-0.014663,0.0441286,-0.0339518,-0.192515,0.0452072,0.0410511,1273,1688,9.66578,-66.597
56,-664,10.0474,66.8353,0,0,0,0,0,0,0,-1,1280,1688,10.0474,-66.8353
63,-664,10.2002,67.9207,0,0,0,0,0,0,0,-1,1287,1688,10.2002,-67.9206
70,-664,10.5414,68.2932,0.0391615,-0.00377586,-0.0381172,0.0614401,-0.0260545,-0.528927,0.0518739,0.0493459,1294,1688,10.5414,-68.2932
77,-664,9.41357,61.8531,0.0338287,0.00752201,-0.0443988,0.0669815,-0.0256308,-0.64139,0.0552178,0.0467323,1301,1688,9.41361,-61.8531
84,-664,9.35425,62.0516,0.0239215,0.0183807,-0.0478398,0.069071,-0.0267689,-0.756476,0.0571016,0.0458397,1308,1688,9.3543,-62.0516
91,-664,9.26331,62.3776,0.0113992,0.0277338,-0.0491441,0.0693847,-0.0302517,-0.867741,0.0589855,0.0425567,1315,1688,9.26332,-62.3775
98,-664,9.03369,62.4955,-0.00279115,0.0352222,-0.047474,0.067353,-0.0349219,-0.975806,0.0600298,0.0485162,1322,1688,9.03365,-62.4954
105,-664,8.44849,61.9437,0,0,0,0,0,0,0,-1,1329,1688,8.44844,-61.9437
112,-664,8.21863,61.6241,-0.0327053,0.0449246,-0.0356979,0.0588443,-0.046625,-1.199,0.0610288,0.0458099,1336,1688,8.21864,-61.6242
119,-664,7.90381,61.0453,-0.0458837,0.0484532,-0.0271549,0.0557113,-0.0531418,-1.30962,0.0628522,0.0479177,1343,1688,7.90382,-61.0453
126,-664,7.44946,60.5333,0,0,0,0,0,0,0,-1,1350,1688,7.44948,-60.5333
133,-664,7.53931,63.1917,0,0,0,0,0,0,0,-1,1357,1688,7.53925,-63.1917
140,-664,7.02454,63.9022,0,0,0,0,0,0,0,-1,1364,1688,7.02453,-63.9023
147,-664,5.85986,62.4498,0,0,0,0,0,0,0,-1,1371,1688,5.85991,-62.4498
154,-664,12.1637,54.9048,0,0,0,0,0,0,0,-1,1378,1688,12.1637,-54.9047
161,-664,4.60132,1.56238,0,0,0,0,0,0,0,-1,1385,1688,4.60134,-1.56233
168,-664,5.172,1.25488,0,0,0,0,0,0,0,-1,1392,1688,5.17203,-1.25484
175,-664,5.58313,1.16467,0,0,0,0,0,0,0,-1,1399,1688,5.58317,-1.16466
182,-664,5.74268,1.41113,0,0,0,0,0,0,0,-1,1406,1688,5.74263,-1.41115
189,-664,5.87744,1.87061,0,0,0,0,0,0,0,-1,1413,1688,5.87745,-1.87065
196,-664,6.7594,5.97473,0,0,0,0,0,0,0,-1,1420,1688,6.75943,-5.97478
203,-664,5.38452,5.22034,0,0,0,0,0,0,0,-1,1427,1688,5.38453,-5.2203
210,-664,5.25549,6.45715,0,0,0,0,0,0,0,-1,1434,1688,5.25549,-6.45721
217,-664,5.72009,6.73975,0,0,0,0,0,0,0,-1,1441,1688,5.72014,-6.73972
224,-664,5.05725,7.42908,0,0,0,0,0,0,0,-1,1448,1688,5.05723,-7.42912
231,-664,5.13318,7.60864,0,0,0,0,0,0,0,-1,1455,1688,5.13313,-7.60862
238,-664,4.23193,6.45471,0,0,0,0,0,0,0,-1,1462,1688,4.23197,-6.45476
245,-664,4.42004,6.80896,0,0,0,0,0,0,0,-1,1469,1688,4.4201,-6.80901
252,-664,3.67346,6.85461,0,0,0,0,0,0,0,-1,1476,1688,3.6734,-6.85462
259,-664,4.55823,11.7435,0,0,0,0,0,0,0,-1,1483,1688,4.55826,-11.7435
266,-664,12.4182,56.0616,0,0,0,0,0,0,0,-1,1490,1688,12.4182,-56.0617
273,-664,12.6519,55.9008,0,0,0,0,0,0,0,-1,1497,1688,12.6518,-55.9008
280,-664,12.6272,55.4744,0.00760627,0.00623321,-0.00193372,0.00897172,0.00486776,-0.614824,0.00518608,0.0387649,1504,1688,12.6272,-55.4743
287,-664,12.6149,54.9989,0.00685279,0.00645379,-0.00198766,0.00865094,0.00465564,-0.735381,0.00499947,0.0338975,1511,1688,12.6149,-54.9989
294,-664,12.7598,54.5464,0.00615603,0.00636404,-0.0019583,0.00822109,0.00429898,-0.811928,0.00474811,0.0233253,1518,1688,12.7598,-54.5464
301,-664,12.8398,54.0365,0.00538246,0.00619452,-0.00184849,0.00768105,0.00389593,-0.893508,0.00443481,0.014873,1525,1688,12.8398,-54.0365
308,-664,12.8533,53.4935,0.00458027,0.00590885,-0.00182875,0.00719022,0.0032989,-0.959612,0.00415597,0.012159,1532,1688,12.8533,-53.4936
315,-664,12.8618,52.9747,0.00378547,0.00564165,-0.0017586,0.00670203,0.00272509,-1.0282,0.00389186,0.0114865,1539,1688,12.8618,-52.9748
322,-664,12.8975,52.4785,0.00308847,0.00555308,-0.00170442,0.00642401,0.00221753,-1.0984,0.0037677,0.0144396,1546,1688,12.8974,-52.4785
329,-664,12.8763,51.9447,0.00251142,0.0053789,-0.00163334,0.0061185,0.00177182,-1.1456,0.00363529,0.0175464,1553,1688,12.8764,-51.9447
336,-664,12.8333,51.3846,0.00201955,0.00522011,-0.00147424,0.00579567,0.00144399,-1.19858,0.00348368,0.0154485,1560,1688,12.8333,-51.3847
343,-664,12.8164,50.8284,0.00157655,0.0050379,-0.001345,0.00549909,0.00111536,-1.24047,0.00335662,0.0121461,1567,1688,12.8163,-50.8284
350,-664,12.8024,50.2905,0.00121745,0.00494944,-0.00138126,0.00540505,0.000761852,-1.25219,0.00337817,0.014175,1574,1688,12.8024,-50.2906
357,-664,12.7975,49.7002,0.000997275,0.00453455,-0.00141861,0.00503318,0.000498639,-1.23279,0.00320221,0.0139095,1581,1688,12.7975,-49.7002
364,-664,12.787,49.1237,0.000846285,0.00437838,-0.00145841,0.00490272,0.000321945,-1.22566,0.00316662,0.0115851,1588,1688,12.7869,-49.1236
371,-664,12.7639,48.5594,0.000774073,0.00413991,-0.00160902,0.00478533,0.000128655,-1.18932,0.00314821,0.0147647,1595,1688,12.7639,-48.5594
378,-664,12.7261,47.9531,0.00076879,0.00385363,-0.00182189,0.00469833,-7.59121e-05,-1.13666,0.00315783,0.0139753,1602,1688,12.726,-47.9532
385,-664,12.6908,47.3645,0.000836317,0.00365444,-0.00216471,0.00482829,-0.000337529,-1.07391,0.00333706,0.0132567,1609,1688,12.6908,-47.3644
392,-664,12.6248,46.7863,0.000886667,0.0034482,-0.00264909,0.00510989,-0.000775026,-1.01057,0.00369215,0.0162448,1616,1688,12.6248,-46.7863
399,-664,12.615,46.1538,0.000793549,0.00336927,-0.00306618,0.00540707,-0.00124426,-0.984221,0.00408316,0.0145751,1623,1688,12.615,-46.1539
406,-664,12.6132,45.5371,0.000828804,0.00330139,-0.00350886,0.00578538,-0.00165519,-0.954775,0.00451103,0.0136701,1630,1688,12.6132,-45.5371
413,-664,12.5934,44.8794,0.000979823,0.00333461,-0.00427539,0.00659176,-0.00227733,-0.919762,0.00531869,0.0156594,1637,1688,12.5934,-44.8794
420,-664,12.5991,44.2048,0.00114511,0.00358124,-0.00517,0.00767473,-0.00294838,-0.90109,0.00633236,0.0362436,1644,1688,12.5992,-44.2049
427,-664,12.353,43.4885,0,0,0,0,0,0,0,-1,1651,1688,12.353,-43.4886
434,-664,12.51,42.7089,0,0,0,0,0,0,0,-1,1658,1688,12.51,-42.7088
441,-664,12.667,41.9291,0,0,0,0,0,0,0,-1,1665,1688,12.667,-41.9291
448,-664,12.5538,38.7155,0,0,0,0,0,0,0,-1,1672,1688,12.5539,-38.7154
455,-664,12.1709,39.3733,0,0,0,0,0,0,0,-1,1679,1688,12.1708,-39.3733
462,-664,4.3147,4.25439,0,0,0,0,0,0,0,-1,1686,1688,4.31467,-4.25435
469,-664,6.05469,7.49341,0,0,0,0,0,0,0,-1,1693,1688,6.05474,-7.49339
476,-664,10.2377,22.7128,0,0,0,0,0,0,0,-1,1700,1688,10.2377,-22.7128
483,-664,8.41895,10.9768,0,0,0,0,0,0,0,-1,1707,1688,8.41897,-10.9769
490,-664,3.90771,13.2842,0,0,0,0,0,0,0,-1,1714,1688,3.90776,-13.2841
497,-664,0,0,0,0,0,0,0,0,0,-1,1721,1688,0,0
504,-664,0,0,0,0,0,0,0,0,0,-1,1728,1688,0,0
511,-664,0,0,0,0,0,0,0,0,0,-1,1735,1688,0,0
518,-664,0,0,0,0,0,0,0,0,0,-1,1742,1688,0,0
525,-664,0,0,0,0,0,0,0,0,0,-1,1749,1688,0,0
532,-664,0,0,0,0,0,0,0,0,0,-1,1756,1688,0,0
539,-664,0,0,0,0,0,0,0,0,0,-1,1763,1688,0,0
546,-664,0,0,0,0,0,0,0,0,0,-1,1770,1688,0,0
553,-664,0,0,0,0,0,0,0,0,0,-1,1777,1688,0,0
560,-664,0,0,0,0,0,0,0,0,0,-1,1784,1688,0,0
567,-664,0,0,0,0,0,0,0,0,0,-1,1791,1688,0,0
574,-664,0,0,0,0,0,0,0,0,0,-1,1798,1688,0,0
581,-664,0,0,0,0,0,0,0,0,0,-1,1805,1688,0,0
588,-664,0,0,0,0,0,0,0,0,0,-1,1812,1688,0,0
595,-664,0,0,0,0,0,0,0,0,0,-1,1819,1688,0,0
602,-664,0,0,0,0,0,0,0,0,0,-1,1826,1688,0,0
609,-664,0,0,0,0,0,0,0,0,0,-1,1833,1688,0,0
616,-664,0,0,0,0,0,0,0,0,0,-1,1840,1688,0,0
623,-664,0,0,0,0,0,0,0,0,0,-1,1847,1688,0,0
630,-664,0,0,0,0,0,0,0,0,0,-1,1854,1688,0,0
637,-664,0,0,0,0,0,0,0,0,0,-1,1861,1688,0,0
644,-664,0,0,0,0,0,0,0,0,0,-1,1868,1688,0,0
651,-664,0,0,0,0,0,0,0,0,0,-1,1875,1688,0,0
658,-664,0,0,0,0,0,0,0,0,0,-1,1882,1688,0,0
665,-664,0,0,0,0,0,0,0,0,0,-1,1889,1688,0,0
672,-664,0,0,0,0,0,0,0,0,0,-1,1896,1688,0,0
679,-664,0,0,0,0,0,0,0,0,0,-1,1903,1688,0,0
686,-664,0,0,0,0,0,0,0,0,0,-1,1910,1688,0,0
693,-664,0,0,0,0,0,0,0,0,0,-1,1917,1688,0,0
700,-664,0,0,0,0,0,0,0,0,0,-1,1924,1688,0,0
707,-664,0,0,0,0,0,0,0,0,0,-1,1931,1688,0,0
714,-664,0,0,0,0,0,0,0,0,0,-1,1938,1688,0,0
721,-664,0,0,0,0,0,0,0,0,0,-1,1945,1688,0,0
728,-664,0,0,0,0,0,0,0,0,0,-1,1952,1688,0,0
735,-664,0,0,0,0,0,0,0,0,0,-1,1959,1688,0,0
742,-664,0,0,0,0,0,0,0,0,0,-1,1966,1688,0,0
749,-664,0,0,0,0,0,0,0,0,0,-1,1973,1688,0,0
756,-664,0,0,0,0,0,0,0,0,0,-1,1980,1688,0,0
763,-664,0,0,0,0,0,0,0,0,0,-1,1987,1688,0,0
770,-664,0,0,0,0,0,0,0,0,0,-1,1994,1688,0,0
777,-664,0,0,0,0,0,0,0,0,0,-1,2001,1688,0,0
784,-664,0,0,0,0,0,0,0,0,0,-1,2008,1688,0,0
791,-664,0,0,0,0,0,0,0,0,0,-1,2015,1688,0,0
798,-664,0,0,0,0,0,0,0,0,0,-1,2022,1688,0,0
805,-664,0,0,0,0,0,0,0,0,0,-1,2029,1688,0,0
812,-664,0,0,0,0,0,0,0,0,0,-1,2036,1688,0,0
-700,-671,0,0,0,0,0,0,0,0,0,-1,524,1695,0,0
-693,-671,0,0,0,0,0,0,0,0,0,-1,531,1695,0,0
-686,-671,0,0,0,0,0,0,0,0,0,-1,538,1695,0,0
-679,-671,0,0,0,0,0,0,0,0,0,-1,545,1695,0,0
-672,-671,0,0,0,0,0,0,0,0,0,-1,552,1695,0,0
-665,-671,0,0,0,0,0,0,0,0,0,-1,559,1695,0,0
-658,-671,0,0,0,0,0,0,0,0,0,-1,566,1695,0,0
-651,-671,0,0,0,0,0,0,0,0,0,-1,573,1695,0,0
-644,-671,0,0,0,0,0,0,0,0,0,-1,580,1695,0,0
-637,-671,0,0,0,0,0,0,0,0,0,-1,587,1695,0,0
-630,-671,0,0,0,0,0,0,0,0,0,-1,594,1695,0,0
-623,-671,0,0,0,0,0,0,0,0,0,-1,601,1695,0,0
-616,-671,0,0,0,0,0,0,0,0,0,-1,608,1695,0,0
-609,-671,0,0,0,0,0,0,0,0,0,-1,615,1695,0,0
-602,-671,0,0,0,0,0,0,0,0,0,-1,622,1695,0,0
-595,-671,0,0,0,0,0,0,0,0,0,-1,629,1695,0,0
-588,-671,0,0,0,0,0,0,0,0,0,-1,636,1695,0,0
-581,-671,0,0,0,0,0,0,0,0,0,-1,643,1695,0,0
-574,-671,0,0,0,0,0,0,0,0,0,-1,650,1695,0,0
-567,-671,0,0,0,0,0,0,0,0,0,-1,657,1695,0,0
-560,-671,0,0,0,0,0,0,0,0,0,-1,664,1695,0,0
-553,-671,0,0,0,0,0,0,0,0,0,-1,671,1695,0,0
-546,-671,0,0,0,0,0,0,0,0,0,-1,678,1695,0,0
-539,-671,0,0,0,0,0,0,0,0,0,-1,685,1695,0,0
-532,-671,0,0,0,0,0,0,0,0,0,-1,692,1695,0,0
-525,-671,0,0,0,0,0,0,0,0,0,-1,699,1695,0,0
-518,-671,0,0,0,0,0,0,0,0,0,-1,706,1695,0,0
-511,-671,0,0,0,0,0,0,0,0,0,-1,713,1695,0,0
-504,-671,0,0,0,0,0,0,0,0,0,-1,720,1695,0,0
-497,-671,0,0,0,0,0,0,0,0,0,-1,727,1695,0,0
-490,-671,0,0,0,0,0,0,0,0,0,-1,734,1695,0,0
-483,-671,0,0,0,0,0,0,0,0,0,-1,741,1695,0,0
-476,-671,0,0,0,0,0,0,0,0,0,-1,748,1695,0,0
-469,-671,0,0,0,0,0,0,0,0,0,-1,755,1695,0,0
-462,-671,0,0,0,0,0,0,0,0,0,-1,762,1695,0,0
-455,-671,0,0,0,0,0,0,0,0,0,-1,769,1695,0,0
-448,-671,0,0,0,0,0,0,0,0,0,-1,776,1695,0,0
-441,-671,0,0,0,0,0,0,0,0,0,-1,783,1695,0,0
-434,-671,0,0,0,0,0,0,0,0,0,-1,790,1695,0,0
-427,-671,0,0,0,0,0,0,0,0,0,-1,797,1695,0,0
-420,-671,0,0,0,0,0,0,0,0,0,-1,804,1695,0,0
-413,-671,0,0,0,0,0,0,0,0,0,-1,811,1695,0,0
-406,-671,0,0,0,0,0,0,0,0,0,-1,818,1695,0,0
-399,-671,0,0,0,0,0,0,0,0,0,-1,825,1695,0,0
-392,-671,0,0,0,0,0,0,0,0,0,-1,832,1695,0,0
-385,-671,0,0,0,0,0,0,0,0,0,-1,839,1695,0,0
-378,-671,0,0,0,0,0,0,0,0,0,-1,846,1695,0,0
-371,-671,0,0,0,0,0,0,0,0,0,-1,853,1695,0,0
-364,-671,-4.18738,7.51416,0,0,0,0,0,0,0,-1,860,1695,-4.18739,-7.51419
-357,-671,-5.02393,6.07129,0,0,0,0,0,0,0,-1,867,1695,-5.0239,-6.07135
-350,-671,6.93323,33.8943,0,0,0,0,0,0,0,-1,874,1695,6.93325,-33.8943
-343,-671,6.16626,32.3158,0,0,0,0,0,0,0,-1,881,1695,6.16623,-32.3158
-336,-671,5.67371,33.653,0,0,0,0,0,0,0,-1,888,1695,5.67369,-33.653
-329,-671,7.40582,41.647,0,0,0,0,0,0,0,-1,895,1695,7.40582,-41.647
-322,-671,7.39972,42.1854,0,0,0,0,0,0,0,-1,902,1695,7.39969,-42.1855
-315,-671,7.44122,42.9781,0,0,0,0,0,0,0,-1,909,1695,7.44123,-42.9782
-308,-671,7.19482,43.5881,0,0,0,0,0,0,0,-1,916,1695,7.19482,-43.5881
-301,-671,6.9505,44.1455,0,0,0,0,0,0,0,-1,923,1695,6.95051,-44.1455
-294,-671,6.82178,44.2084,-0.00579387,-0.000764968,-0.0095006,0.00654829,-0.0131071,-0.914763,0.0115567,0.0488991,930,1695,6.82175,-44.2084
-287,-671,6.65967,44.853,-0.00574174,0.000986298,-0.00781692,0.00613232,-0.0108878,-0.988595,0.00995359,0.0464788,937,1695,6.65967,-44.853
-280,-671,6.56189,45.4363,-0.00598583,0.00221118,-0.00635977,0.00567868,-0.00945333,-1.07163,0.00882661,0.0361987,944,1695,6.56188,-45.4363
-273,-671,6.53778,46.079,-0.0060127,0.00269844,-0.00502353,0.00499169,-0.00830596,-1.14255,0.00775648,0.0310528,951,1695,6.53779,-46.079
-266,-671,6.52484,46.6886,-0.00561282,0.00292533,-0.00377375,0.00435417,-0.00704165,-1.20885,0.00664009,0.023586,958,1695,6.52487,-46.6887
-259,-671,6.46375,47.2867,-0.00518592,0.0028181,-0.0027307,0.00366096,-0.00602879,-1.27141,0.00564978,0.0221506,965,1695,6.46376,-47.2867
-252,-671,6.40143,47.949,-0.00476872,0.00287194,-0.00164697,0.00321183,-0.00510861,-1.36728,0.00484524,0.0172904,972,1695,6.40144,-47.949
-245,-671,6.354,48.5608,-0.00426709,0.00274056,-0.000980328,0.00287512,-0.00440165,-1.43439,0.00423195,0.0200904,979,1695,6.354,-48.5608
-238,-671,6.35199,49.1805,-0.00367577,0.0023043,-0.000488816,0.00234399,-0.00371547,-1.48977,0.00352817,0.0203953,986,1695,6.35201,-49.1806
-231,-671,6.34985,49.7711,-0.00290406,0.00181503,-7.68358e-05,0.00181628,-0.00290531,-1.55452,0.00275008,0.0153727,993,1695,6.34988,-49.7711
-224,-671,6.28503,50.333,-0.00206348,0.00150857,0.000239289,0.00152453,-0.00207944,1.5042,0.00208896,0.0122533,1000,1695,6.28503,-50.333
-217,-671,6.2464,50.9023,-0.00132487,0.000810549,0.000608289,0.000971668,-0.00148598,1.31187,0.00142925,0.0119019,1007,1695,6.24637,-50.9023
-210,-671,6.24017,51.5011,-0.000308334,0.000133944,0.000858568,0.000799395,-0.000973785,0.911442,0.00102539,0.0114803,1014,1695,6.24016,-51.501
-203,-671,6.20435,52.057,0.000845087,-0.00044305,0.000801642,0.00122934,-0.000827308,0.446982,0.00119495,0.019192,1021,1695,6.2043,-52.0571
-196,-671,6.18469,52.5789,0.00166938,-0.00101786,0.00100239,0.0020021,-0.00135058,0.320481,0.00194781,0.0166897,1028,1695,6.18467,-52.5788
-189,-671,6.17383,53.1416,0.00214137,-0.0015763,0.00132021,0.00256249,-0.00199743,0.308781,0.0026394,0.011826,1035,1695,6.17388,-53.1416
-182,-671,6.16858,53.6709,0.00242009,-0.00222694,0.00161886,0.00292843,-0.00273528,0.304264,0.00327058,0.00968488,1042,1695,6.16853,-53.6709
-175,-671,6.15295,54.1688,0.00281616,-0.0026853,0.00200276,0.00346801,-0.00333715,0.314662,0.00392921,0.0130571,1049,1695,6.15294,-54.1689
-168,-671,6.14819,54.6541,0.00286453,-0.00323341,0.00237669,0.00368142,-0.0040503,0.33106,0.0044656,0.0137437,1056,1695,6.14815,-54.654
-161,-671,6.14294,55.1561,0.00260949,-0.00373196,0.00278312,0.00365768,-0.00478015,0.360193,0.00488593,0.00971293,1063,1695,6.14299,-55.1561
-154,-671,6.17065,55.6473,0.00218818,-0.00411612,0.00321517,0.00353863,-0.00546656,0.397648,0.00523872,0.00917169,1070,1695,6.1706,-55.6474
-147,-671,6.17664,56.1298,0.00168116,-0.00438859,0.00366473,0.00340451,-0.00611194,0.439568,0.00556795,0.0104169,1077,1695,6.17663,-56.1298
-140,-671,6.21704,56.5752,0.00112102,-0.0047045,0.0040549,0.00320089,-0.00678438,0.473937,0.00588744,0.0135901,1084,1695,6.21709,-56.5752
-133,-671,6.22937,56.996,0.000451299,-0.00484788,0.00444823,0.00297927,-0.00737585,0.516791,0.00615553,0.01917,1091,1695,6.22937,-56.996
-126,-671,6.30286,57.6271,-1.11367e-06,-0.00519952,0.0047684,0.00283048,-0.00803111,0.535866,0.00650614,0.0360344,1098,1695,6.30285,-57.627
-119,-671,6.39795,58.4276,0,0,0,0,0,0,0,-1,1105,1695,6.39798,-58.4277
-112,-671,6.58704,44.6255,0,0,0,0,0,0,0,-1,1112,1695,6.58701,-44.6255
-105,-671,7.33252,41.3418,0,0,0,0,0,0,0,-1,1119,1695,7.33247,-41.3418
-98,-671,6.34534,45.6299,0,0,0,0,0,0,0,-1,1126,1695,6.34533,-45.6299
-91,-671,6.40063,38.2443,0,0,0,0,0,0,0,-1,1133,1695,6.40059,-38.2442
-84,-671,5.4209,26.2415,0,0,0,0,0,0,0,-1,1140,1695,5.42096,-26.2414
-77,-671,4.31763,16.489,0,0,0,0,0,0,0,-1,1147,1695,4.31757,-16.489
-70,-671,3.06067,10.7737,0,0,0,0,0,0,0,-1,1154,1695,3.0607,-10.7737
-63,-671,2.94592,6.90198,0,0,0,0,0,0,0,-1,1161,1695,2.94594,-6.90198
-56,-671,-3.07678,2.87976,0,0,0,0,0,0,0,-1,1168,1695,-3.07675,-2.87979
-49,-671,-1.05957,4.76917,0,0,0,0,0,0,0,-1,1175,1695,-1.05958,-4.76921
-42,-671,0.539307,3.7865,0,0,0,0,0,0,0,-1,1182,1695,0.539266,-3.78648
-35,-671,-0.272461,0.347534,0,0,0,0,0,0,0,-1,1189,1695,-0.272434,-0.347569
-28,-671,-10.4878,17.2009,0,0,0,0,0,0,0,-1,1196,1695,-10.4878,-17.2009
-21,-671,8.00366,61.3455,0,0,0,0,0,0,0,-1,1203,1695,8.00363,-61.3455
-14,-671,8.17456,61.4938,0,0,0,0,0,0,0,-1,1210,1695,8.17459,-61.4937
-7,-671,8.15271,62.0282,0,0,0,0,0,0,0,-1,1217,1695,8.1527,-62.0282
0,-671,8.28418,62.8242,0.00663738,-0.0201125,0.0226952,0.0196056,-0.0330807,0.51913,0.0307483,0.045213,1224,1695,8.28412,-62.8242
7,-671,8.24109,63.1772,0.00860722,-0.0260374,0.0209428,0.0184633,-0.0358935,0.439866,0.0319162,0.0447427,1231,1695,8.24114,-63.1773
14,-671,8.16614,63.5095,0,0,0,0,0,0,0,-1,1238,1695,8.16619,-63.5095
21,-671,8.06067,64.3351,0.0172042,-0.035827,0.0155362,0.0214205,-0.0400433,0.265003,0.036025,0.0436942,1245,1695,8.06063,-64.3351
28,-671,8.354,65.0712,0,0,0,0,0,0,0,-1,1252,1695,8.35401,-65.0712
35,-671,8.76685,65.8193,0,0,0,0,0,0,0,-1,1259,1695,8.76685,-65.8193
42,-671,9.23804,66.5082,0,0,0,0,0,0,0,-1,1266,1695,9.23798,-66.5082
49,-671,9.53125,66.5802,0.0392395,-0.0245106,-0.0130355,0.041802,-0.0270731,-0.194102,0.040067,0.0415406,1273,1695,9.53128,-66.5802
56,-671,9.39722,67.3452,0.0409359,-0.0197891,-0.0201033,0.046988,-0.0258412,-0.29242,0.0426347,0.0435488,1280,1695,9.39725,-67.3452
63,-671,9.52722,68.1322,0,0,0,0,0,0,0,-1,1287,1695,9.52723,-68.1322
70,-671,9.74561,69.3971,0.0381798,-0.00325152,-0.033425,0.056788,-0.0218598,-0.507985,0.0468762,0.0494266,1294,1695,9.74559,-69.3971
77,-671,9.24634,61.7141,0.033847,0.00562649,-0.0389133,0.0611294,-0.0216558,-0.611467,0.0495741,0.045718,1301,1695,9.24639,-61.7141
84,-671,9.48193,62.0685,0,0,0,0,0,0,0,-1,1308,1695,9.48196,-62.0685
91,-671,9.31116,62.0837,0.0145183,0.0213942,-0.0430296,0.0611229,-0.0252105,-0.825262,0.0512619,0.0460363,1315,1695,9.31112,-62.0837
98,-671,9.16028,62.0732,0.00230728,0.0270659,-0.0417546,0.0582377,-0.0288644,-0.92951,0.0512327,0.0449043,1322,1695,9.16023,-62.0733
105,-671,8.80933,61.8019,-0.0104841,0.0313745,-0.0384232,0.0541988,-0.0333084,-1.03478,0.0509999,0.0470997,1329,1695,8.80927,-61.8018
112,-671,8.46045,61.6571,-0.0229939,0.0345321,-0.0327381,0.0493477,-0.0378095,-1.14582,0.050467,0.0432564,1336,1695,8.46048,-61.6571
119,-671,8.15771,61.3523,-0.0339339,0.0374371,-0.0261269,0.0459791,-0.0424758,-1.25481,0.0510828,0.0457167,1343,1695,8.1577,-61.3524
126,-671,7.56458,61.3994,0,0,0,0,0,0,0,-1,1350,1695,7.56455,-61.3994
133,-671,7.31348,62.085,0,0,0,0,0,0,0,-1,1357,1695,7.31342,-62.085
140,-671,6.4762,61.4485,0,0,0,0,0,0,0,-1,1364,1695,6.47617,-61.4484
147,-671,5.74756,61.3822,0,0,0,0,0,0,0,-1,1371,1695,5.74753,-61.3822
154,-671,5.01501,61.3026,0,0,0,0,0,0,0,-1,1378,1695,5.01499,-61.3026
161,-671,4.49292,4.91272,0,0,0,0,0,0,0,-1,1385,1695,4.49297,-4.91273
168,-671,5.17639,6.1416,0,0,0,0,0,0,0,-1,1392,1695,5.1764,-6.14164
175,-671,5.6731,1.64685,0,0,0,0,0,0,0,-1,1399,1695,5.67313,-1.64691
182,-671,5.56812,1.71692,0,0,0,0,0,0,0,-1,1406,1695,5.56809,-1.71686
189,-671,6.98315,6.36169,0,0,0,0,0,0,0,-1,1413,1695,6.98312,-6.36175
196,-671,5.38123,5.69775,0,0,0,0,0,0,0,-1,1420,1695,5.38125,-5.69769
203,-671,5.95117,8.11658,0,0,0,0,0,0,0,-1,1427,1695,5.9512,-8.11662
210,-671,4.73596,8.39624,0,0,0,0,0,0,0,-1,1434,1695,4.736,-8.39618
217,-671,5.37097,11.863,0,0,0,0,0,0,0,-1,1441,1695,5.37094,-11.863
224,-671,5.08167,13.6694,0,0,0,0,0,0,0,-1,1448,1695,5.08165,-13.6695
231,-671,5.66663,15.3348,0,0,0,0,0,0,0,-1,1455,1695,5.66667,-15.3349
238,-671,6.32959,16.2036,0,0,0,0,0,0,0,-1,1462,1695,6.32961,-16.2037
245,-671,11.9244,57.5367,0,0,0,0,0,0,0,-1,1469,1695,11.9245,-57.5367
252,-671,12.1898,57.4945,0,0,0,0,0,0,0,-1,1476,1695,12.1898,-57.4946
259,-671,12.0359,56.7183,0,0,0,0,0,0,0,-1,1483,1695,12.0358,-56.7183
266,-671,12.1812,56.4022,0.00709725,0.00279639,-0.0010002,0.00731847,0.00257517,-0.217676,0.00428668,0.0358434,1490,1695,12.1811,-56.4023
273,-671,12.2822,55.975,0.00663953,0.00336105,-0.00118656,0.00702391,0.00297667,-0.313276,0.00407093,0.0118221,1497,1695,12.2823,-55.975
280,-671,12.3002,55.5105,0.00597362,0.0038862,-0.00138496,0.00666411,0.00319571,-0.462497,0.0038486,0.0109472,1504,1695,12.3002,-55.5105
287,-671,12.2814,54.965,0.00530767,0.00420747,-0.00148831,0.00634429,0.00317086,-0.608377,0.00366288,0.0129522,1511,1695,12.2814,-54.9649
294,-671,12.2759,54.4695,0.00467028,0.00431103,-0.00151822,0.00601946,0.00296185,-0.726516,0.00347549,0.0126735,1518,1695,12.2758,-54.4695
301,-671,12.3092,54.0104,0.00395649,0.00434368,-0.00151071,0.00567315,0.00262702,-0.849125,0.00327837,0.0117609,1525,1695,12.3092,-54.0104
308,-671,12.3296,53.5117,0.00324265,0.00437085,-0.00153988,0.0054467,0.0021668,-0.960971,0.00316647,0.0118122,1532,1695,12.3295,-53.5118
315,-671,12.3518,53.0012,0.00254532,0.00446065,-0.00148092,0.00526658,0.00173939,-1.07241,0.00309851,0.0129101,1539,1695,12.3518,-53.0012
322,-671,12.3351,52.5143,0.00186549,0.0046256,-0.00135545,0.00517992,0.00131117,-1.18259,0.00310977,0.0147129,1546,1695,12.3351,-52.5143
329,-671,12.2924,52.0009,0.00129422,0.00475119,-0.00127118,0.00516829,0.000877111,-1.25374,0.00319356,0.0145724,1553,1695,12.2924,-52.0008
336,-671,12.2716,51.424,0.000825056,0.00486505,-0.00110184,0.00514602,0.000544089,-1.32112,0.00326446,0.012003,1560,1695,12.2716,-51.424
343,-671,12.2947,50.8427,0.000447549,0.0049546,-0.000974251,0.00515618,0.000245969,-1.36677,0.00335847,0.0121938,1567,1695,12.2946,-50.8427
350,-671,12.2704,50.3123,0.000215688,0.00514605,-0.00104904,0.00535998,1.76509e-06,-1.36963,0.00357273,0.0126539,1574,1695,12.2704,-50.3123
357,-671,12.2267,49.7151,0.000107452,0.00507431,-0.00116657,0.00533466,-0.000152893,-1.35122,0.00360848,0.0115445,1581,1695,12.2267,-49.7151
364,-671,12.1945,49.1447,6.84172e-05,0.00507399,-0.00126937,0.00537749,-0.000235082,-1.33611,0.00366586,0.0134902,1588,1695,12.1945,-49.1447
371,-671,12.1538,48.5935,0.000159634,0.00501559,-0.00152643,0.00545555,-0.000280326,-1.29017,0.00373398,0.0151695,1595,1695,12.1538,-48.5934
378,-671,12.1356,47.9916,0.000355373,0.00488046,-0.00189857,0.0055715,-0.000335667,-1.22172,0.00383113,0.0122838,1602,1695,12.1356,-47.9916
385,-671,12.1096,47.3616,0.000646893,0.00487837,-0.00247101,0.00601567,-0.000490407,-1.13945,0.00418351,0.0137253,1609,1695,12.1096,-47.3615
392,-671,12.052,46.8058,0.000966536,0.00484743,-0.00322619,0.00667177,-0.000857807,-1.05615,0.00475962,0.0178695,1616,1695,12.052,-46.8057
399,-671,12.0182,46.2032,0.00116824,0.00490382,-0.00392612,0.0073838,-0.00131174,-1.00742,0.00541302,0.0139536,1623,1695,12.0182,-46.2033
406,-671,12.0049,45.5601,0.00147867,0.00502702,-0.00463157,0.0082126,-0.0017069,-0.968307,0.00612385,0.0213748,1630,1695,12.0048,-45.5601
413,-671,11.9275,44.9581,0.00187077,0.00515861,-0.0057326,0.00947835,-0.00244897,-0.925034,0.00727396,0.0352237,1637,1695,11.9275,-44.9582
420,-671,11.9504,44.3624,0,0,0,0,0,0,0,-1,1644,1695,11.9504,-44.3625
427,-671,11.9879,42.9364,0,0,0,0,0,0,0,-1,1651,1695,11.988,-42.9364
434,-671,12.0647,42.6493,0,0,0,0,0,0,0,-1,1658,1695,12.0648,-42.6493
441,-671,11.8904,39.6104,0,0,0,0,0,0,0,-1,1665,1695,11.8904,-39.6103
448,-671,11.6979,39.1995,0,0,0,0,0,0,0,-1,1672,1695,11.6979,-39.1994
455,-671,11.5221,39.0929,0,0,0,0,0,0,0,-1,1679,1695,11.5221,-39.0929
462,-671,5.86255,4.47961,0,0,0,0,0,0,0,-1,1686,1695,5.8625,-4.4796
469,-671,3.71301,3.76978,0,0,0,0,0,0,0,-1,1693,1695,3.71297,-3.76974
476,-671,3.75574,3.18848,0,0,0,0,0,0,0,-1,1700,1695,3.7558,-3.18847
483,-671,7.81824,12.1041,0,0,0,0,0,0,0,-1,1707,1695,7.81826,-12.1041
490,-671,0,0,0,0,0,0,0,0,0,-1,1714,1695,0,0
497,-671,0,0,0,0,0,0,0,0,0,-1,1721,1695,0,0
504,-671,0,0,0,0,0,0,0,0,0,-1,1728,1695,0,0
511,-671,0,0,0,0,0,0,0,0,0,-1,1735,1695,0,0
518,-671,0,0,0,0,0,0,0,0,0,-1,1742,1695,0,0
525,-671,0,0,0,0,0,0,0,0,0,-1,1749,1695,0,0
532,-671,0,0,0,0,0,0,0,0,0,-1,1756,1695,0,0
539,-671,0,0,0,0,0,0,0,0,0,-1,1763,1695,0,0
546,-671,0,0,0,0,0,0,0,0,0,-1,1770,1695,0,0
553,-671,0,0,0,0,0,0,0,0,0,-1,1777,1695,0,0
560,-671,0,0,0,0,0,0,0,0,0,-1,1784,1695,0,0
567,-671,0,0,0,0,0,0,0,0,0,-1,1791,1695,0,0
574,-671,0,0,0,0,0,0,0,0,0,-1,1798,1695,0,0
581,-671,0,0,0,0,0,0,0,0,0,-1,1805,1695,0,0
588,-671,0,0,0,0,0,0,0,0,0,-1,1812,1695,0,0
595,-671,0,0,0,0,0,0,0,0,0,-1,1819,1695,0,0
602,-671,0,0,0,0,0,0,0,0,0,-1,1826,1695,0,0
609,-671,0,0,0,0,0,0,0,0,0,-1,1833,1695,0,0
616,-671,0,0,0,0,0,0,0,0,0,-1,1840,1695,0,0
623,-671,0,0,0,0,0,0,0,0,0,-1,1847,1695,0,0
630,-671,0,0,0,0,0,0,0,0,0,-1,1854,1695,0,0
637,-671,0,0,0,0,0,0,0,0,0,-1,1861,1695,0,0
644,-671,0,0,0,0,0,0,0,0,0,-1,1868,1695,0,0
651,-671,0,0,0,0,0,0,0,0,0,-1,1875,1695,0,0
658,-671,0,0,0,0,0,0,0,0,0,-1,1882,1695,0,0
665,-671,0,0,0,0,0,0,0,0,0,-1,1889,1695,0,0
672,-671,0,0,0,0,0,0,0,0,0,-1,1896,1695,0,0
679,-671,0,0,0,0,0,0,0,0,0,-1,1903,1695,0,0
686,-671,0,0,0,0,0,0,0,0,0,-1,1910,1695,0,0
693,-671,0,0,0,0,0,0,0,0,0,-1,1917,1695,0,0
700,-671,0,0,0,0,0,0,0,0,0,-1,1924,1695,0,0
707,-671,0,0,0,0,0,0,0,0,0,-1,1931,1695,0,0
714,-671,0,0,0,0,0,0,0,0,0,-1,1938,1695,0,0
721,-671,0,0,0,0,0,0,0,0,0,-1,1945,1695,0,0
728,-671,0,0,0,0,0,0,0,0,0,-1,1952,1695,0,0
735,-671,0,0,0,0,0,0,0,0,0,-1,1959,1695,0,0
742,-671,0,0,0,0,0,0,0,0,0,-1,1966,1695,0,0
749,-671,0,0,0,0,0,0,0,0,0,-1,1973,1695,0,0
756,-671,0,0,0,0,0,0,0,0,0,-1,1980,1695,0,0
763,-671,0,0,0,0,0,0,0,0,0,-1,1987,1695,0,0
770,-671,0,0,0,0,0,0,0,0,0,-1,1994,1695,0,0
777,-671,0,0,0,0,0,0,0,0,0,-1,2001,1695,0,0
784,-671,0,0,0,0,0,0,0,0,0,-1,2008,1695,0,0
791,-671,0,0,0,0,0,0,0,0,0,-1,2015,1695,0,0
798,-671,0,0,0,0,0,0,0,0,0,-1,2022,1695,0,0
805,-671,0,0,0,0,0,0,0,0,0,-1,2029,1695,0,0
812,-671,0,0,0,0,0,0,0,0,0,-1,2036,1695,0,0
-700,-678,0,0,0,0,0,0,0,0,0,-1,524,1702,0,0
-693,-678,0,0,0,0,0,0,0,0,0,-1,531,1702,0,0
-686,-678,0,0,0,0,0,0,0,0,0,-1,538,1702,0,0
-679,-678,0,0,0,0,0,0,0,0,0,-1,545,1702,0,0
-672,-678,0,0,0,0,0,0,0,0,0,-1,552,1702,0,0
-665,-678,0,0,0,0,0,0,0,0,0,-1,559,1702,0,0
-658,-678,0,0,0,0,0,0,0,0,0,-1,566,1702,0,0
-651,-678,0,0,0,0,0,0,0,0,0,-1,573,1702,0,0
-644,-678,0,0,0,0,0,0,0,0,0,-1,580,1702,0,0
-637,-678,0,0,0,0,0,0,0,0,0,-1,587,1702,0,0
-630,-678,0,0,0,0,0,0,0,0,0,-1,594,1702,0,0
-623,-678,0,0,0,0,0,0,0,0,0,-1,601,1702,0,0
-616,-678,0,0,0,0,0,0,0,0,0,-1,608,1702,0,0
-609,-678,0,0,0,0,0,0,0,0,0,-1,615,1702,0,0
-602,-678,0,0,0,0,0,0,0,0,0,-1,622,1702,0,0
-595,-678,0,0,0,0,0,0,0,0,0,-1,629,1702,0,0
-588,-678,0,0,0,0,0,0,0,0,0,-1,636,1702,0,0
-581,-678,0,0,0,0,0,0,0,0,0,-1,643,1702,0,0
-574,-678,0,0,0,0,0,0,0,0,0,-1,650,1702,0,0
-567,-678,0,0,0,0,0,0,0,0,0,-1,657,1702,0,0
-560,-678,0,0,0,0,0,0,0,0,0,-1,664,1702,0,0
-553,-678,0,0,0,0,0,0,0,0,0,-1,671,1702,0,0
-546,-678,0,0,0,0,0,0,0,0,0,-1,678,1702,0,0
-539,-678,0,0,0,0,0,0,0,0,0,-1,685,1702,0,0
-532,-678,0,0,0,0,0,0,0,0,0,-1,692,1702,0,0
-525,-678,0,0,0,0,0,0,0,0,0,-1,699,1702,0,0
-518,-678,0,0,0,0,0,0,0,0,0,-1,706,1702,0,0
-511,-678,0,0,0,0,0,0,0,0,0,-1,713,1702,0,0
-504,-678,0,0,0,0,0,0,0,0,0,-1,720,1702,0,0
-497,-678,0,0,0,0,0,0,0,0,0,-1,727,1702,0,0
-490,-678,0,0,0,0,0,0,0,0,0,-1,734,1702,0,0
-483,-678,0,0,0,0,0,0,0,0,0,-1,741,1702,0,0
-476,-678,0,0,0,0,0,0,0,0,0,-1,748,1702,0,0
-469,-678,0,0,0,0,0,0,0,0,0,-1,755,1702,0,0
-462,-678,0,0,0,0,0,0,0,0,0,-1,762,1702,0,0
-455,-678,0,0,0,0,0,0,0,0,0,-1,769,1702,0,0
-448,-678,0,0,0,0,0,0,0,0,0,-1,776,1702,0,0
-441,-678,0,0,0,0,0,0,0,0,0,-1,783,1702,0,0
-434,-678,0,0,0,0,0,0,0,0,0,-1,790,1702,0,0
-427,-678,0,0,0,0,0,0,0,0,0,-1,797,1702,0,0
-420,-678,0,0,0,0,0,0,0,0,0,-1,804,1702,0,0
-413,-678,0,0,0,0,0,0,0,0,0,-1,811,1702,0,0
-406,-678,0,0,0,0,0,0,0,0,0,-1,818,1702,0,0
-399,-678,0,0,0,0,0,0,0,0,0,-1,825,1702,0,0
-392,-678,0,0,0,0,0,0,0,0,0,-1,832,1702,0,0
-385,-678,0,0,0,0,0,0,0,0,0,-1,839,1702,0,0
-378,-678,0,0,0,0,0,0,0,0,0,-1,846,1702,0,0
-371,-678,0,0,0,0,0,0,0,0,0,-1,853,1702,0,0
-364,-678,0,0,0,0,0,0,0,0,0,-1,860,1702,0,0
-357,-678,0,0,0,0,0,0,0,0,0,-1,867,1702,0,0
-350,-678,-5.79944,6.11865,0,0,0,0,0,0,0,-1,874,1702,-5.79942,-6.11864
-343,-678,8.79578,34.4388,0,0,0,0,0,0,0,-1,881,1702,8.79579,-34.4388
-336,-678,9.06317,34.813,0,0,0,0,0,0,0,-1,888,1702,9.06318,-34.8129
-329,-678,8.68359,35.6151,0,0,0,0,0,0,0,-1,895,1702,8.68362,-35.6152
-322,-678,8.50494,35.5048,0,0,0,0,0,0,0,-1,902,1702,8.50495,-35.5047
-315,-678,7.95453,39.342,0,0,0,0,0,0,0,-1,909,1702,7.95455,-39.342
-308,-678,7.56934,41.7521,0,0,0,0,0,0,0,-1,916,1702,7.56933,-41.752
-301,-678,6.44537,40.8809,0,0,0,0,0,0,0,-1,923,1702,6.44536,-40.8809
-294,-678,6.66168,44.7014,0,0,0,0,0,0,0,-1,930,1702,6.66167,-44.7014
-287,-678,7.22247,44.9429,0,0,0,0,0,0,0,-1,937,1702,7.22244,-44.9428
-280,-678,7.21198,45.7358,-0.00794341,0.00522721,-0.00884106,0.009666,-0.0123822,-1.1055,0.0127617,0.0465968,944,1702,7.21195,-45.7358
-273,-678,7.18616,46.1359,-0.00805753,0.00531341,-0.00696377,0.00828142,-0.0110255,-1.1679,0.0111843,0.0436716,951,1702,7.18613,-46.1358
-266,-678,7.18414,46.7802,-0.00770711,0.00513236,-0.0052449,0.0070025,-0.00957724,-1.22829,0.00961072,0.0380269,958,1702,7.18413,-46.7801
-259,-678,7.03943,47.3695,-0.00729001,0.00464487,-0.00380066,0.00575241,-0.00839755,-1.28724,0.00821692,0.0236485,965,1702,7.03944,-47.3695
-252,-678,7.01617,47.9885,-0.0068584,0.00430563,-0.00238526,0.0047939,-0.00734667,-1.36888,0.00706082,0.0178545,972,1702,7.01616,-47.9885
-245,-678,6.96307,48.5938,-0.00637757,0.00383237,-0.00150096,0.00404846,-0.00659365,-1.42782,0.00620252,0.0188589,979,1702,6.9631,-48.5937
-238,-678,6.91492,49.1924,-0.00581016,0.00316457,-0.000844589,0.00324336,-0.00588895,-1.47778,0.00534578,0.0152672,986,1702,6.91489,-49.1924
-231,-678,6.87555,49.7609,-0.00496758,0.00248285,-0.000294105,0.00249444,-0.00497918,-1.5314,0.00439367,0.0127442,993,1702,6.87552,-49.7608
-224,-678,6.82391,50.3132,-0.00405937,0.00210404,0.000108909,0.00210597,-0.00406129,1.55313,0.00361983,0.0131593,1000,1702,6.8239,-50.3133
-217,-678,6.80615,50.9113,-0.00334391,0.00130619,0.000542647,0.00136867,-0.0034064,1.45615,0.00283933,0.0141114,1007,1702,6.80613,-50.9112
-210,-678,6.78491,51.5507,-0.00216322,0.000647094,0.000887576,0.000903941,-0.00242007,1.28911,0.00198454,0.0145967,1014,1702,6.78489,-51.5506
-203,-678,6.76917,52.0847,-0.000990954,0.000268411,0.000796272,0.000653888,-0.00137643,1.11995,0.00119669,0.0190283,1021,1702,6.76911,-52.0847
-196,-678,6.7345,52.6084,-0.000173747,-0.000133792,0.000931883,0.000778328,-0.00108587,0.796115,0.00108116,0.0198385,1028,1702,6.73446,-52.6084
-189,-678,6.69836,53.1569,0.000467411,-0.000486043,0.00115135,0.00123683,-0.00125546,0.589114,0.00143894,0.0112136,1035,1702,6.69842,-53.1569
-182,-678,6.6886,53.705,0.000970289,-0.000906149,0.0013647,0.00168817,-0.00162403,0.484258,0.00191242,0.00996995,1042,1702,6.68854,-53.7049
-175,-678,6.67383,54.2179,0.00156183,-0.00116825,0.0016509,0.00233894,-0.00194536,0.439949,0.00247702,0.0111387,1049,1702,6.67384,-54.2179
-168,-678,6.65991,54.7073,0.00185404,-0.0015248,0.00187946,0.00269178,-0.00236253,0.419299,0.00292017,0.0107763,1056,1702,6.65988,-54.7073
-161,-678,6.66235,55.1868,0.00184619,-0.00183377,0.0021003,0.00279849,-0.00278606,0.425685,0.00322424,0.00959593,1063,1702,6.66241,-55.1867
-154,-678,6.66895,55.6893,0.00173006,-0.00205243,0.00233678,0.00284503,-0.0031674,0.445194,0.00347294,0.00924695,1070,1702,6.66897,-55.6893
-147,-678,6.64575,56.1671,0.0015785,-0.00217697,0.00259164,0.00290116,-0.00349963,0.471897,0.00370088,0.01085,1077,1702,6.64571,-56.1671
-140,-678,6.69397,56.6122,0.0014068,-0.00234657,0.00279877,0.00289984,-0.00383962,0.490059,0.00390361,0.0121717,1084,1702,6.69394,-56.6122
-133,-678,6.72717,57.0491,0.00119872,-0.00239686,0.00301375,0.00291017,-0.00410831,0.516467,0.00407175,0.0131438,1091,1702,6.72714,-57.0491
-126,-678,6.72119,57.537,0.00117225,-0.00259094,0.00316115,0.00296942,-0.00438811,0.516948,0.00427411,0.0171732,1098,1702,6.72116,-57.537
-119,-678,6.7356,58.2323,0,0,0,0,0,0,0,-1,1105,1702,6.73566,-58.2323
-112,-678,6.82434,58.2885,0,0,0,0,0,0,0,-1,1112,1702,6.82432,-58.2885
-105,-678,6.79297,58.7864,0,0,0,0,0,0,0,-1,1119,1702,6.793,-58.7864
-98,-678,6.84399,59.2826,0,0,0,0,0,0,0,-1,1126,1702,6.84401,-59.2826
-91,-678,6.99658,59.4408,0,0,0,0,0,0,0,-1,1133,1702,6.99659,-59.4407
-84,-678,6.58545,36.5073,0,0,0,0,0,0,0,-1,1140,1702,6.58544,-36.5073
-77,-678,5.95154,29.1879,0,0,0,0,0,0,0,-1,1147,1702,5.95156,-29.1878
-70,-678,4.75891,19.6552,0,0,0,0,0,0,0,-1,1154,1702,4.75895,-19.6551
-63,-678,3.41687,11.0365,0,0,0,0,0,0,0,-1,1161,1702,3.41682,-11.0365
-56,-678,1.72388,6.13159,0,0,0,0,0,0,0,-1,1168,1702,1.72388,-6.13157
-49,-678,-0.241699,5.29895,0,0,0,0,0,0,0,-1,1175,1702,-0.241682,-5.29897
-42,-678,0.297119,3.90649,0,0,0,0,0,0,0,-1,1182,1702,0.297139,-3.90655
-35,-678,0.498413,3.64038,0,0,0,0,0,0,0,-1,1189,1702,0.498471,-3.64038
-28,-678,0.132446,3.55994,0,0,0,0,0,0,0,-1,1196,1702,0.132432,-3.55993
-21,-678,7.97351,61.7465,0,0,0,0,0,0,0,-1,1203,1702,7.97351,-61.7465
-14,-678,8.10229,61.9109,0.00599057,-0.00773805,0.0216422,0.021831,-0.0235785,0.63183,0.0262236,0.0422968,1210,1702,8.10229,-61.9109
-7,-678,8.25562,62.1465,0.00657862,-0.0119132,0.0201257,0.0194806,-0.0248153,0.570073,0.025636,0.0439251,1217,1702,8.25563,-62.1464
0,-678,8.34473,62.5507,0.00770607,-0.0162532,0.0187429,0.0179707,-0.0265178,0.501041,0.025843,0.0445094,1224,1702,8.34473,-62.5507
7,-678,8.18616,62.8154,0.0092286,-0.0205749,0.0176831,0.0174516,-0.0287979,0.435274,0.0269687,0.0468736,1231,1702,8.18619,-62.8154
14,-678,8.1051,63.0914,0,0,0,0,0,0,0,-1,1238,1702,8.10508,-63.0914
21,-678,8.23816,64.3646,0,0,0,0,0,0,0,-1,1245,1702,8.2382,-64.3646
28,-678,8.55579,65.0751,0,0,0,0,0,0,0,-1,1252,1702,8.55582,-65.0751
35,-678,8.87366,65.9917,0,0,0,0,0,0,0,-1,1259,1702,8.87368,-65.9916
42,-678,9.61255,65.7305,0,0,0,0,0,0,0,-1,1266,1702,9.61259,-65.7305
49,-678,9.57263,66.5953,0.0358807,-0.0192311,-0.0111589,0.0380544,-0.0214048,-0.192385,0.0347745,0.0458316,1273,1702,9.57268,-66.5954
56,-678,9.57031,67.3838,0.0374609,-0.0157701,-0.0171809,0.0425246,-0.0208337,-0.28661,0.0372876,0.0450682,1280,1702,9.57033,-67.3838
63,-678,9.59839,68.1776,0,0,0,0,0,0,0,-1,1287,1702,9.59836,-68.1776
70,-678,9.8252,68.9915,0.0353996,-0.00318266,-0.028427,0.0504631,-0.0182462,-0.487282,0.0410972,0.0455597,1294,1702,9.82523,-68.9915
77,-678,9.95764,69.7129,0.0319314,0.00351343,-0.033032,0.0536809,-0.018236,-0.582282,0.0431695,0.0451096,1301,1702,9.95767,-69.7128
84,-678,9.58521,61.5792,0,0,0,0,0,0,0,-1,1308,1702,9.58518,-61.5792
91,-678,9.47693,61.6667,0,0,0,0,0,0,0,-1,1315,1702,9.47696,-61.6668
98,-678,9.3866,61.8668,0,0,0,0,0,0,0,-1,1322,1702,9.38662,-61.8668
105,-678,9.16663,61.6458,-0.00464373,0.0225677,-0.0331813,0.0448245,-0.0269005,-0.979965,0.0418392,0.043239,1329,1702,9.16657,-61.6457
112,-678,8.79431,61.4697,-0.0146838,0.0249622,-0.0290113,0.0402762,-0.0299978,-1.08511,0.0407171,0.043862,1336,1702,8.79427,-61.4698
119,-678,8.31152,61.1097,-0.0234342,0.0272665,-0.024055,0.036863,-0.0330307,-1.1912,0.0403733,0.0429896,1343,1702,8.31155,-61.1097
126,-678,7.68311,60.8514,0,0,0,0,0,0,0,-1,1350,1702,7.68314,-60.8515
133,-678,6.97632,60.9645,0,0,0,0,0,0,0,-1,1357,1702,6.97637,-60.9644
140,-678,6.28198,60.7095,0,0,0,0,0,0,0,-1,1364,1702,6.28198,-60.7095
147,-678,5.67383,60.3601,0,0,0,0,0,0,0,-1,1371,1702,5.67386,-60.3602
154,-678,4.99805,60.2814,0,0,0,0,0,0,0,-1,1378,1702,4.99799,-60.2814
161,-678,8.81226,34.8624,0,0,0,0,0,0,0,-1,1385,1702,8.81229,-34.8624
168,-678,4.21863,5.25781,0,0,0,0,0,0,0,-1,1392,1702,4.21865,-5.25781
175,-678,5.21899,5.9635,0,0,0,0,0,0,0,-1,1399,1702,5.21894,-5.96346
182,-678,7.31262,6.75122,0,0,0,0,0,0,0,-1,1406,1702,7.3126,-6.75123
189,-678,5.96021,6.36853,0,0,0,0,0,0,0,-1,1413,1702,5.96018,-6.36851
196,-678,5.01599,8.15771,0,0,0,0,0,0,0,-1,1420,1702,5.01596,-8.15767
203,-678,4.64771,13.0559,0,0,0,0,0,0,0,-1,1427,1702,4.64766,-13.0559
210,-678,5.6532,18.5957,0,0,0,0,0,0,0,-1,1434,1702,5.65318,-18.5958
217,-678,6.88049,23.4835,0,0,0,0,0,0,0,-1,1441,1702,6.88047,-23.4835
224,-678,8.521,32.0977,0,0,0,0,0,0,0,-1,1448,1702,8.52098,-32.0977
231,-678,9.96838,42.3734,0,0,0,0,0,0,0,-1,1455,1702,9.96844,-42.3734
238,-678,11.46,57.6744,0,0,0,0,0,0,0,-1,1462,1702,11.46,-57.6745
245,-678,11.7581,57.7052,0,0,0,0,0,0,0,-1,1469,1702,11.758,-57.7052
252,-678,11.7585,57.3815,0.00670304,-0.000218238,7.70582e-05,0.0067039,-0.000219096,0.0111317,0.00454406,0.0194045,1476,1702,11.7585,-57.3814
259,-678,11.7574,56.9639,0.00588099,0.000700166,-0.000310288,0.00589951,0.000681648,-0.0596076,0.00372663,0.0163794,1483,1702,11.7574,-56.9639
266,-678,11.8062,56.4711,0.00528359,0.00148695,-0.000709382,0.00541181,0.00135874,-0.17881,0.00325102,0.0128095,1490,1702,11.8062,-56.4711
273,-678,11.8234,56.0154,0.00488501,0.00209571,-0.00093714,0.00517062,0.0018101,-0.295827,0.00302966,0.0122233,1497,1702,11.8234,-56.0153
280,-678,11.8165,55.5607,0.00432649,0.00259709,-0.00115499,0.00490461,0.00201897,-0.464075,0.00284637,0.0125148,1504,1702,11.8165,-55.5607
287,-678,11.829,55.0568,0.00375294,0.00292274,-0.00128311,0.00468643,0.00198925,-0.628956,0.00271598,0.0120493,1511,1702,11.8289,-55.0567
294,-678,11.8225,54.5219,0.003168,0.00311634,-0.00134254,0.00448496,0.00179938,-0.775779,0.00260619,0.0127654,1518,1702,11.8225,-54.5218
301,-678,11.8064,54.0197,0.00249831,0.00325289,-0.00140858,0.00433383,0.00141737,-0.916252,0.00255155,0.0129092,1525,1702,11.8063,-54.0197
308,-678,11.8173,53.5381,0.00186043,0.00352481,-0.00145917,0.00437242,0.00101282,-1.04455,0.00264284,0.0135428,1532,1702,11.8173,-53.5381
315,-678,11.8181,53.0294,0.00125086,0.00391369,-0.0013848,0.00450329,0.000661249,-1.16827,0.00280786,0.0146038,1539,1702,11.8181,-53.0294
322,-678,11.762,52.5587,0.000634632,0.00433259,-0.00120812,0.00469229,0.000274931,-1.28142,0.00304069,0.0178608,1546,1702,11.762,-52.5587
329,-678,11.7362,52.001,9.55005e-05,0.00478185,-0.0011076,0.00503044,-0.000153092,-1.35001,0.0034058,0.0163245,1553,1702,11.7362,-52.001
336,-678,11.7217,51.4269,-0.000330586,0.00521316,-0.00092498,0.00536342,-0.000480847,-1.40976,0.0037462,0.0136853,1560,1702,11.7217,-51.4268
343,-678,11.7319,50.8696,-0.000622607,0.00563445,-0.000794389,0.00573373,-0.000721887,-1.44647,0.00408443,0.0139868,1567,1702,11.732,-50.8696
350,-678,11.7173,50.3159,-0.000707705,0.00617734,-0.000891836,0.00629098,-0.000821351,-1.44405,0.00449287,0.0135061,1574,1702,11.7172,-50.3159
357,-678,11.6636,49.7517,-0.000688332,0.00651735,-0.00106672,0.00667195,-0.000842931,-1.42687,0.00475392,0.0101201,1581,1702,11.6636,-49.7517
364,-678,11.6371,49.1932,-0.000607199,0.00676016,-0.00121746,0.00695613,-0.000803174,-1.4112,0.00492702,0.0122983,1588,1702,11.6371,-49.1932
371,-678,11.5952,48.6307,-0.000347708,0.00694876,-0.00156437,0.00727002,-0.000668966,-1.36825,0.00508436,0.0130418,1595,1702,11.5952,-48.6307
378,-678,11.5587,48.0313,5.20586e-05,0.00700348,-0.0020896,0.00758326,-0.000527717,-1.30015,0.00524028,0.0130842,1602,1702,11.5587,-48.0312
385,-678,11.5347,47.4358,0.000571667,0.00722518,-0.0029059,0.00831561,-0.000518767,-1.21181,0.00572451,0.0132093,1609,1702,11.5347,-47.4357
392,-678,11.5551,46.868,0.001185,0.00737678,-0.00396527,0.00931158,-0.000749802,-1.11685,0.00647215,0.0221254,1616,1702,11.5551,-46.8681
399,-678,11.554,46.2439,0.00174328,0.00752618,-0.00500954,0.0104188,-0.00114939,-1.04714,0.00735901,0.0335731,1623,1702,11.554,-46.2439
406,-678,11.5841,45.5126,0.00239197,0.00780286,-0.00604145,0.011717,-0.00152215,-0.995915,0.00836499,0.0447521,1630,1702,11.5841,-45.5126
413,-678,11.275,44.9708,0,0,0,0,0,0,0,-1,1637,1702,11.275,-44.9709
420,-678,11.2355,43.032,0,0,0,0,0,0,0,-1,1644,1702,11.2355,-43.032
427,-678,10.0541,38.9548,0,0,0,0,0,0,0,-1,1651,1702,10.0541,-38.9548
434,-678,10.1094,38.722,0,0,0,0,0,0,0,-1,1658,1702,10.1094,-38.7221
441,-678,11.6007,39.4658,0,0,0,0,0,0,0,-1,1665,1702,11.6007,-39.4658
448,-678,11.344,38.9084,0,0,0,0,0,0,0,-1,1672,1702,11.344,-38.9084
455,-678,5.44678,5.54297,0,0,0,0,0,0,0,-1,1679,1702,5.44676,-5.54294
462,-678,3.86792,2.87402,0,0,0,0,0,0,0,-1,1686,1702,3.86796,-2.87406
469,-678,2.26587,1.98755,0,0,0,0,0,0,0,-1,1693,1702,2.26592,-1.98755
476,-678,0,0,0,0,0,0,0,0,0,-1,1700,1702,0,0
483,-678,0,0,0,0,0,0,0,0,0,-1,1707,1702,0,0
490,-678,0,0,0,0,0,0,0,0,0,-1,1714,1702,0,0
497,-678,0,0,0,0,0,0,0,0,0,-1,1721,1702,0,0
504,-678,0,0,0,0,0,0,0,0,0,-1,1728,1702,0,0
511,-678,0,0,0,0,0,0,0,0,0,-1,1735,1702,0,0
518,-678,0,0,0,0,0,0,0,0,0,-1,1742,1702,0,0
525,-678,0,0,0,0,0,0,0,0,0,-1,1749,1702,0,0
532,-678,0,0,0,0,0,0,0,0,0,-1,1756,1702,0,0
539,-678,0,0,0,0,0,0,0,0,0,-1,1763,1702,0,0
546,-678,0,0,0,0,0,0,0,0,0,-1,1770,1702,0,0
553,-678,0,0,0,0,0,0,0,0,0,-1,1777,1702,0,0
560,-678,0,0,0,0,0,0,0,0,0,-1,1784,1702,0,0
567,-678,0,0,0,0,0,0,0,0,0,-1,1791,1702,0,0
574,-678,0,0,0,0,0,0,0,0,0,-1,1798,1702,0,0
581,-678,0,0,0,0,0,0,0,0,0,-1,1805,1702,0,0
588,-678,0,0,0,0,0,0,0,0,0,-1,1812,1702,0,0
595,-678,0,0,0,0,0,0,0,0,0,-1,1819,1702,0,0
602,-678,0,0,0,0,0,0,0,0,0,-1,1826,1702,0,0
609,-678,0,0,0,0,0,0,0,0,0,-1,1833,1702,0,0
616,-678,0,0,0,0,0,0,0,0,0,-1,1840,1702,0,0
623,-678,0,0,0,0,0,0,0,0,0,-1,1847,1702,0,0
630,-678,0,0,0,0,0,0,0,0,0,-1,1854,1702,0,0
637,-678,0,0,0,0,0,0,0,0,0,-1,1861,1702,0,0
644,-678,0,0,0,0,0,0,0,0,0,-1,1868,1702,0,0
651,-678,0,0,0,0,0,0,0,0,0,-1,1875,1702,0,0
658,-678,0,0,0,0,0,0,0,0,0,-1,1882,1702,0,0
665,-678,0,0,0,0,0,0,0,0,0,-1,1889,1702,0,0
672,-678,0,0,0,0,0,0,0,0,0,-1,1896,1702,0,0
679,-678,0,0,0,0,0,0,0,0,0,-1,1903,1702,0,0
686,-678,0,0,0,0,0,0,0,0,0,-1,1910,1702,0,0
693,-678,0,0,0,0,0,0,0,0,0,-1,1917,1702,0,0
700,-678,0,0,0,0,0,0,0,0,0,-1,1924,1702,0,0
707,-678,0,0,0,0,0,0,0,0,0,-1,1931,1702,0,0
714,-678,0,0,0,0,0,0,0,0,0,-1,1938,1702,0,0
721,-678,0,0,0,0,0,0,0,0,0,-1,1945,1702,0,0
728,-678,0,0,0,0,0,0,0,0,0,-1,1952,1702,0,0
735,-678,0,0,0,0,0,0,0,0,0,-1,1959,1702,0,0
742,-678,0,0,0,0,0,0,0,0,0,-1,1966,1702,0,0
749,-678,0,0,0,0,0,0,0,0,0,-1,1973,1702,0,0
756,-678,0,0,0,0,0,0,0,0,0,-1,1980,1702,0,0
763,-678,0,0,0,0,0,0,0,0,0,-1,1987,1702,0,0
770,-678,0,0,0,0,0,0,0,0,0,-1,1994,1702,0,0
777,-678,0,0,0,0,0,0,0,0,0,-1,2001,1702,0,0
784,-678,0,0,0,0,0,0,0,0,0,-1,2008,1702,0,0
791,-678,0,0,0,0,0,0,0,0,0,-1,2015,1702,0,0
798,-678,0,0,0,0,0,0,0,0,0,-1,2022,1702,0,0
805,-678,0,0,0,0,0,0,0,0,0,-1,2029,1702,0,0
812,-678,0,0,0,0,0,0,0,0,0,-1,2036,1702,0,0
-700,-685,0,0,0,0,0,0,0,0,0,-1,524,1709,0,0
-693,-685,0,0,0,0,0,0,0,0,0,-1,531,1709,0,0
-686,-685,0,0,0,0,0,0,0,0,0,-1,538,1709,0,0
-679,-685,0,0,0,0,0,0,0,0,0,-1,545,1709,0,0
-672,-685,0,0,0,0,0,0,0,0,0,-1,552,1709,0,0
-665,-685,0,0,0,0,0,0,0,0,0,-1,559,1709,0,0
-658,-685,0,0,0,0,0,0,0,0,0,-1,566,1709,0,0
-651,-685,0,0,0,0,0,0,0,0,0,-1,573,1709,0,0
-644,-685,0,0,0,0,0,0,0,0,0,-1,580,1709,0,0
-637,-685,0,0,0,0,0,0,0,0,0,-1,587,1709,0,0
-630,-685,0,0,0,0,0,0,0,0,0,-1,594,1709,0,0
-623,-685,0,0,0,0,0,0,0,0,0,-1,601,1709,0,0
-616,-685,0,0,0,0,0,0,0,0,0,-1,608,1709,0,0
-609,-685,0,0,0,0,0,0,0,0,0,-1,615,1709,0,0
-602,-685,0,0,0,0,0,0,0,0,0,-1,622,1709,0,0
-595,-685,0,0,0,0,0,0,0,0,0,-1,629,1709,0,0
-588,-685,0,0,0,0,0,0,0,0,0,-1,636,1709,0,0
-581,-685,0,0,0,0,0,0,0,0,0,-1,643,1709,0,0
-574,-685,0,0,0,0,0,0,0,0,0,-1,650,1709,0,0
-567,-685,0,0,0,0,0,0,0,0,0,-1,657,1709,0,0
-560,-685,0,0,0,0,0,0,0,0,0,-1,664,1709,0,0
-553,-685,0,0,0,0,0,0,0,0,0,-1,671,1709,0,0
-546,-685,0,0,0,0,0,0,0,0,0,-1,678,1709,0,0
-539,-685,0,0,0,0,0,0,0,0,0,-1,685,1709,0,0
-532,-685,0,0,0,0,0,0,0,0,0,-1,692,1709,0,0
-525,-685,0,0,0,0,0,0,0,0,0,-1,699,1709,0,0
-518,-685,0,0,0,0,0,0,0,0,0,-1,706,1709,0,0
-511,-685,0,0,0,0,0,0,0,0,0,-1,713,1709,0,0
-504,-685,0,0,0,0,0,0,0,0,0,-1,720,1709,0,0
-497,-685,0,0,0,0,0,0,0,0,0,-1,727,1709,0,0
-490,-685,0,0,0,0,0,0,0,0,0,-1,734,1709,0,0
-483,-685,0,0,0,0,0,0,0,0,0,-1,741,1709,0,0
-476,-685,0,0,0,0,0,0,0,0,0,-1,748,1709,0,0
-469,-685,0,0,0,0,0,0,0,0,0,-1,755,1709,0,0
-462,-685,0,0,0,0,0,0,0,0,0,-1,762,1709,0,0
-455,-685,0,0,0,0,0,0,0,0,0,-1,769,1709,0,0
-448,-685,0,0,0,0,0,0,0,0,0,-1,776,1709,0,0
-441,-685,0,0,0,0,0,0,0,0,0,-1,783,1709,0,0
-434,-685,0,0,0,0,0,0,0,0,0,-1,790,1709,0,0
-427,-685,0,0,0,0,0,0,0,0,0,-1,797,1709,0,0
-420,-685,0,0,0,0,0,0,0,0,0,-1,804,1709,0,0
-413,-685,0,0,0,0,0,0,0,0,0,-1,811,1709,0,0
-406,-685,0,0,0,0,0,0,0,0,0,-1,818,1709,0,0
-399,-685,0,0,0,0,0,0,0,0,0,-1,825,1709,0,0
-392,-685,0,0,0,0,0,0,0,0,0,-1,832,1709,0,0
-385,-685,0,0,0,0,0,0,0,0,0,-1,839,1709,0,0
-378,-685,0,0,0,0,0,0,0,0,0,-1,846,1709,0,0
-371,-685,0,0,0,0,0,0,0,0,0,-1,853,1709,0,0
-364,-685,0,0,0,0,0,0,0,0,0,-1,860,1709,0,0
-357,-685,0,0,0,0,0,0,0,0,0,-1,867,1709,0,0
-350,-685,0,0,0,0,0,0,0,0,0,-1,874,1709,0,0
-343,-685,-5.98505,6.56335,0,0,0,0,0,0,0,-1,881,1709,-5.98505,-6.56329
-336,-685,-6.51312,5.10571,0,0,0,0,0,0,0,-1,888,1709,-6.51311,-5.10575
-329,-685,9.98907,36.2474,0,0,0,0,0,0,0,-1,895,1709,9.98909,-36.2475
-322,-685,3.83191,16.7219,0,0,0,0,0,0,0,-1,902,1709,3.8319,-16.7219
-315,-685,5.15784,21.4388,0,0,0,0,0,0,0,-1,909,1709,5.15783,-21.4389
-308,-685,9.5943,40.3096,0,0,0,0,0,0,0,-1,916,1709,9.5943,-40.3095
-301,-685,6.35815,40.8408,0,0,0,0,0,0,0,-1,923,1709,6.35813,-40.8408
-294,-685,7.85211,43.8761,0,0,0,0,0,0,0,-1,930,1709,7.85211,-43.8761
-287,-685,8.06372,44.7096,0,0,0,0,0,0,0,-1,937,1709,8.06371,-44.7096
-280,-685,7.84644,45.9177,0,0,0,0,0,0,0,-1,944,1709,7.84642,-45.9177
-273,-685,8.23645,45.8254,-0.0107335,0.00885216,-0.00957732,0.012757,-0.0146383,-1.18366,0.0158291,0.0490651,951,1709,8.23646,-45.8254
-266,-685,8.50531,46.3938,-0.0105027,0.0080166,-0.00726497,0.0105264,-0.0130126,-1.23816,0.0136155,0.0472264,958,1709,8.50534,-46.3939
-259,-685,7.28363,47.2377,-0.0100595,0.0069809,-0.00525245,0.0084698,-0.0115484,-1.29458,0.011603,0.0423902,965,1709,7.28363,-47.2377
-252,-685,7.53424,47.8982,-0.00954197,0.00609986,-0.00337957,0.00679882,-0.0102409,-1.36685,0.00990458,0.0398,972,1709,7.53422,-47.8982
-245,-685,7.58185,48.6187,-0.00900603,0.00518336,-0.00218151,0.00551118,-0.00933385,-1.42164,0.00866498,0.0390976,979,1709,7.58186,-48.6186
-238,-685,7.54309,49.2394,-0.00835426,0.00419921,-0.00127413,0.00432723,-0.00848228,-1.47066,0.00752414,0.0291274,986,1709,7.54311,-49.2394
-231,-685,7.45471,49.8427,-0.00725315,0.00320104,-0.00049376,0.00322431,-0.00727642,-1.52371,0.00621124,0.0185732,993,1709,7.45469,-49.8427
-224,-685,7.39612,50.3584,-0.00610796,0.00269154,5.0183e-05,0.00269183,-0.00610825,1.56509,0.00520679,0.0153015,1000,1709,7.39614,-50.3584
-217,-685,7.37177,50.9553,-0.00528201,0.00173824,0.000599379,0.00178905,-0.00533282,1.48623,0.00427813,0.0112269,1007,1709,7.37174,-50.9554
-210,-685,7.32874,51.5845,-0.00387167,0.00102066,0.00106318,0.00124172,-0.00409273,1.3658,0.00322313,0.0155837,1014,1709,7.32875,-51.5845
-203,-685,7.30627,52.1234,-0.00255167,0.000792058,0.000978095,0.00105715,-0.00281676,1.30613,0.00231223,0.0166498,1021,1709,7.30631,-52.1234
-196,-685,7.27734,52.6536,-0.0016279,0.000513989,0.00108993,0.000971073,-0.00208499,1.1737,0.00180306,0.0152322,1028,1709,7.2774,-52.6536
-189,-685,7.2251,53.1617,-0.000756737,0.000311253,0.00125096,0.00113743,-0.00158291,0.987124,0.00157759,0.0104151,1035,1709,7.22504,-53.1617
-182,-685,7.19983,53.6996,-1.40282e-05,4.53934e-05,0.00141094,0.00142694,-0.00139557,0.795925,0.00162961,0.0141666,1042,1709,7.19983,-53.6995
-175,-685,7.1792,54.2264,0.000762328,-8.23451e-05,0.00162497,0.00201895,-0.00133897,0.658259,0.0019519,0.0139464,1049,1709,7.17916,-54.2265
-168,-685,7.16895,54.7174,0.00125498,-0.000278652,0.00174663,0.0023957,-0.00141938,0.578552,0.00222655,0.010543,1056,1709,7.169,-54.7174
-161,-685,7.18042,55.2114,0.00142225,-0.000440952,0.00182017,0.00253538,-0.00155408,0.548868,0.0023836,0.0120149,1063,1709,7.18041,-55.2115
-154,-685,7.17725,55.7288,0.00149718,-0.000543732,0.00189508,0.00262908,-0.00167563,0.538421,0.00250557,0.011892,1070,1709,7.1773,-55.7287
-147,-685,7.13538,56.199,0.00155481,-0.000570376,0.00198937,0.00274758,-0.00176315,0.540107,0.00262487,0.0109121,1077,1709,7.13543,-56.199
-140,-685,7.13757,56.6262,0.00161472,-0.000646719,0.00205341,0.00282814,-0.00186014,0.533725,0.00272595,0.0126009,1084,1709,7.13759,-56.6262
-133,-685,7.15527,57.074,0.0016598,-0.000661994,0.00213181,0.00292631,-0.0019285,0.53607,0.00282259,0.011912,1091,1709,7.15529,-57.074
-126,-685,7.1665,57.5255,0.00179883,-0.000746376,0.00214835,0.00302321,-0.00197075,0.518005,0.00290453,0.00951373,1098,1709,7.16648,-57.5255
-119,-685,7.20972,57.973,0.00210702,-0.000897358,0.00205737,0.00315225,-0.00194259,0.470061,0.00296902,0.014172,1105,1709,7.20972,-57.973
-112,-685,7.21118,58.36,0.0023913,-0.00109995,0.00181651,0.00316498,-0.00187364,0.402648,0.00294072,0.0158078,1112,1709,7.21118,-58.36
-105,-685,7.20007,58.7458,0.00265517,-0.00142568,0.00159121,0.00320227,-0.00197279,0.331165,0.0030158,0.0175579,1119,1709,7.20008,-58.7459
-98,-685,7.28638,59.1079,0.00261794,-0.00134475,0.00122266,0.00296482,-0.00169163,0.276445,0.00272169,0.0249374,1126,1709,7.28635,-59.1079
-91,-685,7.33582,59.3478,0.00316947,-0.00133036,0.000195068,0.00317791,-0.0013388,0.043242,0.00267881,0.0471609,1133,1709,7.33586,-59.3478
-84,-685,7.37476,59.7822,0,0,0,0,0,0,0,-1,1140,1709,7.3747,-59.7822
-77,-685,7.34094,60.2122,0,0,0,0,0,0,0,-1,1147,1709,7.34097,-60.2121
-70,-685,7.41602,60.679,0,0,0,0,0,0,0,-1,1154,1709,7.41601,-60.679
-63,-685,6.03015,29.7728,0,0,0,0,0,0,0,-1,1161,1709,6.0302,-29.7728
-56,-685,3.93909,15.8704,0,0,0,0,0,0,0,-1,1168,1709,3.93905,-15.8704
-49,-685,3.07471,9.86011,0,0,0,0,0,0,0,-1,1175,1709,3.07467,-9.86009
-42,-685,2.70618,7.54504,0,0,0,0,0,0,0,-1,1182,1709,2.7062,-7.54504
-35,-685,2.95264,7.91516,0,0,0,0,0,0,0,-1,1189,1709,2.95262,-7.91517
-28,-685,8.11353,52.4509,0,0,0,0,0,0,0,-1,1196,1709,8.1135,-52.451
-21,-685,8.15869,62.0728,0,0,0,0,0,0,0,-1,1203,1709,8.15868,-62.0728
-14,-685,8.22681,62.1427,0.00648286,-0.00621203,0.0165081,0.0178218,-0.0175509,0.601859,0.0204226,0.0323127,1210,1709,8.22678,-62.1427
-7,-685,8.27307,62.3138,0.00725971,-0.009421,0.0157095,0.0167056,-0.0188669,0.541363,0.0205504,0.0495603,1217,1709,8.27307,-62.3138
0,-685,8.20325,62.4995,0,0,0,0,0,0,0,-1,1224,1709,8.20329,-62.4995
7,-685,8.22644,62.4031,0,0,0,0,0,0,0,-1,1231,1709,8.22639,-62.403
14,-685,8.48157,63.1946,0,0,0,0,0,0,0,-1,1238,1709,8.48157,-63.1946
21,-685,8.8606,63.3259,0,0,0,0,0,0,0,-1,1245,1709,8.86064,-63.3259
28,-685,8.96289,63.0898,0,0,0,0,0,0,0,-1,1252,1709,8.96291,-63.0898
35,-685,9.07227,63.1644,0,0,0,0,0,0,0,-1,1259,1709,9.07222,-63.1644
42,-685,9.19568,63.4514,0,0,0,0,0,0,0,-1,1266,1709,9.19565,-63.4514
49,-685,9.23877,63.5062,0,0,0,0,0,0,0,-1,1273,1709,9.23875,-63.5063
56,-685,9.7113,67.3284,0,0,0,0,0,0,0,-1,1280,1709,9.71127,-67.3283
63,-685,9.7439,68.0941,0,0,0,0,0,0,0,-1,1287,1709,9.74388,-68.0941
70,-685,9.56689,63.7987,0,0,0,0,0,0,0,-1,1294,1709,9.56687,-63.7987
77,-685,9.90833,63.5784,0,0,0,0,0,0,0,-1,1301,1709,9.90835,-63.5783
84,-685,9.81104,61.2727,0,0,0,0,0,0,0,-1,1308,1709,9.81104,-61.2727
91,-685,9.75989,62.5953,0,0,0,0,0,0,0,-1,1315,1709,9.75986,-62.5954
98,-685,9.58765,62.2201,0.00795786,0.0127632,-0.0296007,0.0400586,-0.0193375,-0.825894,0.034981,0.0430868,1322,1709,9.58761,-62.2201
105,-685,9.42419,61.8418,-0.000384551,0.0150415,-0.0280016,0.0363729,-0.021716,-0.91979,0.0338916,0.0468377,1329,1709,9.4242,-61.8418
112,-685,9.7832,62.5118,0,0,0,0,0,0,0,-1,1336,1709,9.78319,-62.5118
119,-685,10.0614,62.2927,0,0,0,0,0,0,0,-1,1343,1709,10.0614,-62.2927
126,-685,7.80176,60.3036,0,0,0,0,0,0,0,-1,1350,1709,7.80173,-60.3036
133,-685,10.5294,62.0773,0,0,0,0,0,0,0,-1,1357,1709,10.5294,-62.0773
140,-685,10.547,62.0448,0,0,0,0,0,0,0,-1,1364,1709,10.547,-62.0448
147,-685,5.59387,59.4242,0,0,0,0,0,0,0,-1,1371,1709,5.59387,-59.4242
154,-685,10.0796,56.0078,0,0,0,0,0,0,0,-1,1378,1709,10.0796,-56.0079
161,-685,10.4932,55.8827,0,0,0,0,0,0,0,-1,1385,1709,10.4932,-55.8827
168,-685,4.37524,10.8778,0,0,0,0,0,0,0,-1,1392,1709,4.37525,-10.8778
175,-685,3.97522,8.94324,0,0,0,0,0,0,0,-1,1399,1709,3.97519,-8.94328
182,-685,3.98218,9.19739,0,0,0,0,0,0,0,-1,1406,1709,3.98221,-9.1974
189,-685,4.53479,15.2343,0,0,0,0,0,0,0,-1,1413,1709,4.53474,-15.2343
196,-685,10.7719,60.7339,0,0,0,0,0,0,0,-1,1420,1709,10.7719,-60.7339
203,-685,10.8723,60.146,0,0,0,0,0,0,0,-1,1427,1709,10.8723,-60.146
210,-685,11.3035,59.6777,0,0,0,0,0,0,0,-1,1434,1709,11.3035,-59.6777
217,-685,11.2262,59.1891,0,0,0,0,0,0,0,-1,1441,1709,11.2262,-59.1891
224,-685,11.1422,58.8765,0,0,0,0,0,0,0,-1,1448,1709,11.1422,-58.8765
231,-685,11.1597,58.5424,0,0,0,0,0,0,0,-1,1455,1709,11.1596,-58.5423
238,-685,11.2833,58.0393,0,0,0,0,0,0,0,-1,1462,1709,11.2833,-58.0393
245,-685,11.2791,57.694,0.00543367,-0.00164897,0.000217521,0.00544034,-0.00165565,0.0306733,0.00428671,0.0206869,1469,1709,11.2791,-57.694
252,-685,11.3094,57.353,0.00491521,-0.000161318,-5.64948e-05,0.00491584,-0.000161947,-0.0111268,0.00333252,0.0158598,1476,1709,11.3094,-57.3531
259,-685,11.3328,56.9425,0.0042183,0.000555863,-0.000384539,0.00425824,0.000515923,-0.103492,0.00268343,0.0114982,1483,1709,11.3328,-56.9426
266,-685,11.3517,56.481,0.00366653,0.00113814,-0.000741996,0.00386819,0.000936471,-0.265377,0.00233023,0.0133373,1490,1709,11.3517,-56.4809
273,-685,11.3505,56.0217,0.00325654,0.00164381,-0.000962898,0.00370612,0.00119423,-0.43682,0.00218435,0.0162358,1497,1709,11.3504,-56.0217
280,-685,11.3163,55.5573,0.00273711,0.00203143,-0.00116647,0.00360293,0.0011656,-0.63853,0.00212291,0.0175985,1504,1709,11.3163,-55.5572
287,-685,11.3313,55.0792,0.00220887,0.00230015,-0.00129645,0.00355176,0.000957262,-0.802993,0.00212199,0.0129164,1511,1709,11.3313,-55.0792
294,-685,11.3282,54.5717,0.0016442,0.00254706,-0.00136653,0.00353479,0.00065647,-0.944929,0.00217105,0.0111473,1518,1709,11.3282,-54.5717
301,-685,11.319,54.0522,0.000997627,0.00275714,-0.00149405,0.00361121,0.000143558,-1.05148,0.00236107,0.01455,1525,1709,11.319,-54.0523
308,-685,11.3192,53.5573,0.000408985,0.00331643,-0.00158291,0.00401188,-0.000286457,-1.15684,0.002775,0.0156689,1532,1709,11.3193,-53.5573
315,-685,11.3108,53.0702,-0.000127185,0.00402992,-0.00150094,0.0045152,-0.000612456,-1.25809,0.00323367,0.013787,1539,1709,11.3108,-53.0702
322,-685,11.2786,52.5413,-0.000684137,0.00472794,-0.00127255,0.00501222,-0.000968421,-1.35101,0.0037067,0.0219755,1546,1709,11.2785,-52.5412
329,-685,11.2421,52.004,-0.00119902,0.00553971,-0.00114626,0.00572936,-0.00138866,-1.40684,0.00435686,0.0201265,1553,1709,11.2421,-52.004
336,-685,11.2216,51.4297,-0.00159489,0.00634546,-0.000934816,0.00645403,-0.00170346,-1.45517,0.00496881,0.0137743,1560,1709,11.2215,-51.4297
343,-685,11.1895,50.8782,-0.00181647,0.00716683,-0.000768592,0.00723211,-0.00188175,-1.48606,0.00555592,0.0123539,1567,1709,11.1895,-50.8782
350,-685,11.1451,50.3352,-0.00176395,0.00814085,-0.000834855,0.00821072,-0.00183383,-1.48729,0.00617651,0.0122192,1574,1709,11.1451,-50.3352
357,-685,11.1174,49.7977,-0.00162007,0.00896285,-0.000996816,0.00905593,-0.00171314,-1.4777,0.00668194,0.00996051,1581,1709,11.1174,-49.7977
364,-685,11.1031,49.2535,-0.00141846,0.00952774,-0.0011229,0.00964175,-0.00153246,-1.46962,0.00699484,0.0117346,1588,1709,11.1031,-49.2536
371,-685,11.0969,48.6476,-0.000980906,0.0100147,-0.00147829,0.01021,-0.00117619,-1.43946,0.00723066,0.0219241,1595,1709,11.0969,-48.6476
378,-685,11.0914,48.0142,-0.000352586,0.0102751,-0.00209137,0.0106718,-0.000749326,-1.38332,0.00737703,0.0261248,1602,1709,11.0914,-48.0141
385,-685,10.9567,47.4728,0.000437383,0.0107302,-0.00312084,0.0116026,-0.000434941,-1.29824,0.00788402,0.035937,1609,1709,10.9567,-47.4728
392,-685,11.0096,46.8195,0.00142493,0.011067,-0.00449746,0.0128391,-0.000347173,-1.19545,0.00867745,0.0371346,1616,1709,11.0096,-46.8194
399,-685,11.1349,46.0081,0.00247612,0.0112645,-0.00596201,0.0142767,-0.000536075,-1.10297,0.00970143,0.0471041,1623,1709,11.1349,-46.008
406,-685,11.158,45.5334,0,0,0,0,0,0,0,-1,1630,1709,11.158,-45.5334
413,-685,10.9447,43.5477,0,0,0,0,0,0,0,-1,1637,1709,10.9447,-43.5477
420,-685,10.3047,40.3569,0,0,0,0,0,0,0,-1,1644,1709,10.3047,-40.3569
427,-685,10.7286,38.6702,0,0,0,0,0,0,0,-1,1651,1709,10.7286,-38.6702
434,-685,4.87769,8.91418,0,0,0,0,0,0,0,-1,1658,1709,4.87768,-8.91413
441,-685,5.62,8.75549,0,0,0,0,0,0,0,-1,1665,1709,5.61996,-8.75545
448,-685,6.4043,8.58972,0,0,0,0,0,0,0,-1,1672,1709,6.40435,-8.58971
455,-685,2.31958,4.09802,0,0,0,0,0,0,0,-1,1679,1709,2.31957,-4.09803
462,-685,0,0,0,0,0,0,0,0,0,-1,1686,1709,0,0
469,-685,0,0,0,0,0,0,0,0,0,-1,1693,1709,0,0
476,-685,0,0,0,0,0,0,0,0,0,-1,1700,1709,0,0
483,-685,0,0,0,0,0,0,0,0,0,-1,1707,1709,0,0
490,-685,0,0,0,0,0,0,0,0,0,-1,1714,1709,0,0
497,-685,0,0,0,0,0,0,0,0,0,-1,1721,1709,0,0
504,-685,0,0,0,0,0,0,0,0,0,-1,1728,1709,0,0
511,-685,0,0,0,0,0,0,0,0,0,-1,1735,1709,0,0
518,-685,0,0,0,0,0,0,0,0,0,-1,1742,1709,0,0
525,-685,0,0,0,0,0,0,0,0,0,-1,1749,1709,0,0
532,-685,0,0,0,0,0,0,0,0,0,-1,1756,1709,0,0
539,-685,0,0,0,0,0,0,0,0,0,-1,1763,1709,0,0
546,-685,0,0,0,0,0,0,0,0,0,-1,1770,1709,0,0
553,-685,0,0,0,0,0,0,0,0,0,-1,1777,1709,0,0
560,-685,0,0,0,0,0,0,0,0,0,-1,1784,1709,0,0
567,-685,0,0,0,0,0,0,0,0,0,-1,1791,1709,0,0
574,-685,0,0,0,0,0,0,0,0,0,-1,1798,1709,0,0
581,-685,0,0,0,0,0,0,0,0,0,-1,1805,1709,0,0
588,-685,0,0,0,0,0,0,0,0,0,-1,1812,1709,0,0
595,-685,0,0,0,0,0,0,0,0,0,-1,1819,1709,0,0
602,-685,0,0,0,0,0,0,0,0,0,-1,1826,1709,0,0
609,-685,0,0,0,0,0,0,0,0,0,-1,1833,1709,0,0
616,-685,0,0,0,0,0,0,0,0,0,-1,1840,1709,0,0
623,-685,0,0,0,0,0,0,0,0,0,-1,1847,1709,0,0
630,-685,0,0,0,0,0,0,0,0,0,-1,1854,1709,0,0
637,-685,0,0,0,0,0,0,0,0,0,-1,1861,1709,0,0
644,-685,0,0,0,0,0,0,0,0,0,-1,1868,1709,0,0
651,-685,0,0,0,0,0,0,0,0,0,-1,1875,1709,0,0
658,-685,0,0,0,0,0,0,0,0,0,-1,1882,1709,0,0
665,-685,0,0,0,0,0,0,0,0,0,-1,1889,1709,0,0
672,-685,0,0,0,0,0,0,0,0,0,-1,1896,1709,0,0
679,-685,0,0,0,0,0,0,0,0,0,-1,1903,1709,0,0
686,-685,0,0,0,0,0,0,0,0,0,-1,1910,1709,0,0
693,-685,0,0,0,0,0,0,0,0,0,-1,1917,1709,0,0
700,-685,0,0,0,0,0,0,0,0,0,-1,1924,1709,0,0
707,-685,0,0,0,0,0,0,0,0,0,-1,1931,1709,0,0
714,-685,0,0,0,0,0,0,0,0,0,-1,1938,1709,0,0
721,-685,0,0,0,0,0,0,0,0,0,-1,1945,1709,0,0
728,-685,0,0,0,0,0,0,0,0,0,-1,1952,1709,0,0
735,-685,0,0,0,0,0,0,0,0,0,-1,1959,1709,0,0
742,-685,0,0,0,0,0,0,0,0,0,-1,1966,1709,0,0
749,-685,0,0,0,0,0,0,0,0,0,-1,1973,1709,0,0
756,-685,0,0,0,0,0,0,0,0,0,-1,1980,1709,0,0
763,-685,0,0,0,0,0,0,0,0,0,-1,1987,1709,0,0
770,-685,0,0,0,0,0,0,0,0,0,-1,1994,1709,0,0
777,-685,0,0,0,0,0,0,0,0,0,-1,2001,1709,0,0
784,-685,0,0,0,0,0,0,0,0,0,-1,2008,1709,0,0
791,-685,0,0,0,0,0,0,0,0,0,-1,2015,1709,0,0
798,-685,0,0,0,0,0,0,0,0,0,-1,2022,1709,0,0
805,-685,0,0,0,0,0,0,0,0,0,-1,2029,1709,0,0
812,-685,0,0,0,0,0,0,0,0,0,-1,2036,1709,0,0
-700,-692,0,0,0,0,0,0,0,0,0,-1,524,1716,0,0
-693,-692,0,0,0,0,0,0,0,0,0,-1,531,1716,0,0
-686,-692,0,0,0,0,0,0,0,0,0,-1,538,1716,0,0
-679,-692,0,0,0,0,0,0,0,0,0,-1,545,1716,0,0
-672,-692,0,0,0,0,0,0,0,0,0,-1,552,1716,0,0
-665,-692,0,0,0,0,0,0,0,0,0,-1,559,1716,0,0
-658,-692,0,0,0,0,0,0,0,0,0,-1,566,1716,0,0
-651,-692,0,0,0,0,0,0,0,0,0,-1,573,1716,0,0
-644,-692,0,0,0,0,0,0,0,0,0,-1,580,1716,0,0
-637,-692,0,0,0,0,0,0,0,0,0,-1,587,1716,0,0
-630,-692,0,0,0,0,0,0,0,0,0,-1,594,1716,0,0
-623,-692,0,0,0,0,0,0,0,0,0,-1,601,1716,0,0
-616,-692,0,0,0,0,0,0,0,0,0,-1,608,1716,0,0
-609,-692,0,0,0,0,0,0,0,0,0,-1,615,1716,0,0
-602,-692,0,0,0,0,0,0,0,0,0,-1,622,1716,0,0
-595,-692,0,0,0,0,0,0,0,0,0,-1,629,1716,0,0
-588,-692,0,0,0,0,0,0,0,0,0,-1,636,1716,0,0
-581,-692,0,0,0,0,0,0,0,0,0,-1,643,1716,0,0
-574,-692,0,0,0,0,0,0,0,0,0,-1,650,1716,0,0
-567,-692,0,0,0,0,0,0,0,0,0,-1,657,1716,0,0
-560,-692,0,0,0,0,0,0,0,0,0,-1,664,1716,0,0
-553,-692,0,0,0,0,0,0,0,0,0,-1,671,1716,0,0
-546,-692,0,0,0,0,0,0,0,0,0,-1,678,1716,0,0
-539,-692,0,0,0,0,0,0,0,0,0,-1,685,1716,0,0
-532,-692,0,0,0,0,0,0,0,0,0,-1,692,1716,0,0
-525,-692,0,0,0,0,0,0,0,0,0,-1,699,1716,0,0
-518,-692,0,0,0,0,0,0,0,0,0,-1,706,1716,0,0
-511,-692,0,0,0,0,0,0,0,0,0,-1,713,1716,0,0
-504,-692,0,0,0,0,0,0,0,0,0,-1,720,1716,0,0
-497,-692,0,0,0,0,0,0,0,0,0,-1,727,1716,0,0
-490,-692,0,0,0,0,0,0,0,0,0,-1,734,1716,0,0
-483,-692,0,0,0,0,0,0,0,0,0,-1,741,1716,0,0
-476,-692,0,0,0,0,0,0,0,0,0,-1,748,1716,0,0
-469,-692,0,0,0,0,0,0,0,0,0,-1,755,1716,0,0
-462,-692,0,0,0,0,0,0,0,0,0,-1,762,1716,0,0
-455,-692,0,0,0,0,0,0,0,0,0,-1,769,1716,0,0
-448,-692,0,0,0,0,0,0,0,0,0,-1,776,1716,0,0
-441,-692,0,0,0,0,0,0,0,0,0,-1,783,1716,0,0
-434,-692,0,0,0,0,0,0,0,0,0,-1,790,1716,0,0
-427,-692,0,0,0,0,0,0,0,0,0,-1,797,1716,0,0
-420,-692,0,0,0,0,0,0,0,0,0,-1,804,1716,0,0
-413,-692,0,0,0,0,0,0,0,0,0,-1,811,1716,0,0
-406,-692,0,0,0,0,0,0,0,0,0,-1,818,1716,0,0
-399,-692,0,0,0,0,0,0,0,0,0,-1,825,1716,0,0
-392,-692,0,0,0,0,0,0,0,0,0,-1,832,1716,0,0
-385,-692,0,0,0,0,0,0,0,0,0,-1,839,1716,0,0
-378,-692,0,0,0,0,0,0,0,0,0,-1,846,1716,0,0
-371,-692,0,0,0,0,0,0,0,0,0,-1,853,1716,0,0
-364,-692,0,0,0,0,0,0,0,0,0,-1,860,1716,0,0
-357,-692,0,0,0,0,0,0,0,0,0,-1,867,1716,0,0
-350,-692,0,0,0,0,0,0,0,0,0,-1,874,1716,0,0
-343,-692,0,0,0,0,0,0,0,0,0,-1,881,1716,0,0
-336,-692,0,0,0,0,0,0,0,0,0,-1,888,1716,0,0
-329,-692,3.03107,4.10266,0,0,0,0,0,0,0,-1,895,1716,3.03105,-4.10267
-322,-692,4.43713,18.5242,0,0,0,0,0,0,0,-1,902,1716,4.43711,-18.5241
-315,-692,5.38965,17.975,0,0,0,0,0,0,0,-1,909,1716,5.38963,-17.975
-308,-692,5.86938,17.4392,0,0,0,0,0,0,0,-1,916,1716,5.86937,-17.4392
-301,-692,12.015,41.2892,0,0,0,0,0,0,0,-1,923,1716,12.015,-41.2892
-294,-692,8.41125,35.4742,0,0,0,0,0,0,0,-1,930,1716,8.41125,-35.4742
-287,-692,8.92493,45.6644,0,0,0,0,0,0,0,-1,937,1716,8.92492,-45.6644
-280,-692,8.88086,44.7029,0,0,0,0,0,0,0,-1,944,1716,8.88084,-44.7029
-273,-692,9.18628,45.4739,0,0,0,0,0,0,0,-1,951,1716,9.18627,-45.4739
-266,-692,9.8197,46.2083,0,0,0,0,0,0,0,-1,958,1716,9.81968,-46.2082
-259,-692,7.72443,47.0676,0,0,0,0,0,0,0,-1,965,1716,7.72441,-47.0676
-252,-692,7.98676,47.7937,0,0,0,0,0,0,0,-1,972,1716,7.98675,-47.7937
-245,-692,8.29181,48.5476,0,0,0,0,0,0,0,-1,979,1716,8.2918,-48.5476
-238,-692,8.37909,49.2271,-0.011473,0.00553107,-0.00190294,0.00574143,-0.0116834,-1.4607,0.0102533,0.0496084,986,1716,8.37906,-49.227
-231,-692,8.23145,49.9209,-0.00990393,0.00398247,-0.000777866,0.00402591,-0.00994736,-1.51501,0.00830542,0.0434995,993,1716,8.23142,-49.9209
-224,-692,7.92181,50.4545,-0.00833722,0.00323206,-2.43009e-05,0.00323211,-0.00833727,-1.5687,0.00689295,0.0202957,1000,1716,7.92182,-50.4545
-217,-692,7.87543,50.9894,-0.0072747,0.00204615,0.000701188,0.00209861,-0.00732715,1.49613,0.00571424,0.012946,1007,1716,7.87544,-50.9894
-210,-692,7.86743,51.574,-0.00554379,0.00121435,0.001324,0.00146448,-0.00579392,1.38408,0.00443217,0.0137466,1014,1716,7.86742,-51.574
-203,-692,7.85156,52.1222,-0.00401058,0.00107214,0.0012734,0.00137333,-0.00431177,1.33855,0.00342532,0.0167393,1021,1716,7.85162,-52.1222
-196,-692,7.78613,52.703,-0.00295137,0.000850733,0.00138003,0.00129883,-0.00339946,1.25684,0.00280148,0.019437,1028,1716,7.78616,-52.703
-189,-692,7.72375,53.1837,-0.00189964,0.000717622,0.00149701,0.00139735,-0.00257937,1.14458,0.00232952,0.00995616,1035,1716,7.72374,-53.1837
-182,-692,7.68982,53.7139,-0.000991147,0.000519453,0.00160216,0.00153542,-0.00200711,1.00566,0.00205132,0.0145647,1042,1716,7.68984,-53.7139
-175,-692,7.65991,54.2544,-0.000111859,0.000464204,0.00173053,0.00193051,-0.00157817,0.867863,0.00202914,0.0155257,1049,1716,7.65991,-54.2543
-168,-692,7.6637,54.7332,0.000487797,0.000389178,0.00173475,0.00217393,-0.00129696,0.77119,0.00202513,0.0114543,1056,1716,7.66374,-54.7331
-161,-692,7.67773,55.2424,0.000740842,0.000357499,0.0016613,0.00222149,-0.00112315,0.727965,0.00196543,0.0142522,1063,1716,7.67769,-55.2424
-154,-692,7.6593,55.76,0.000914729,0.000378758,0.0015784,0.00224773,-0.000954245,0.701309,0.00189828,0.0161245,1070,1716,7.65932,-55.76
-147,-692,7.61755,56.2013,0.00110641,0.0004767,0.00152272,0.00234649,-0.000763373,0.683448,0.00187142,0.0148556,1077,1716,7.61757,-56.2013
-140,-692,7.57458,56.6498,0.00134336,0.000537138,0.00146649,0.00246113,-0.000580639,0.651271,0.00186468,0.0111054,1084,1716,7.57461,-56.6498
-133,-692,7.57361,57.0941,0.0015839,0.000626905,0.00143066,0.00261396,-0.000403151,0.624015,0.0018914,0.0102363,1091,1716,7.57357,-57.0941
-126,-692,7.6062,57.5348,0.00183183,0.000735339,0.00134166,0.00273294,-0.000165767,0.591435,0.00187965,0.00818247,1098,1716,7.60617,-57.5347
-119,-692,7.6062,57.9781,0.00222334,0.000721587,0.00123228,0.00291549,2.94328e-05,0.51177,0.00193393,0.0123665,1105,1716,7.60621,-57.9782
-112,-692,7.61633,58.3667,0.00265087,0.000645374,0.00103534,0.00308945,0.000206792,0.400694,0.00199428,0.013193,1112,1716,7.61635,-58.3667
-105,-692,7.64172,58.7385,0.0030058,0.000392615,0.000816586,0.00323999,0.00015843,0.27929,0.00210917,0.0180252,1119,1716,7.64173,-58.7385
-98,-692,7.70447,59.0974,0.00315029,0.000339871,0.000505255,0.00323837,0.000251797,0.172582,0.00208006,0.0190044,1126,1716,7.70445,-59.0975
-91,-692,7.6853,59.4626,0.00365213,0.000237306,-0.000215253,0.00366564,0.000223791,-0.062704,0.00237269,0.0204262,1133,1716,7.68534,-59.4626
-84,-692,7.76038,59.8276,0.00481822,0.000218122,-0.00114852,0.00508903,-5.26879e-05,-0.231561,0.00341038,0.0238198,1140,1716,7.76041,-59.8276
-77,-692,7.73669,60.192,0.00587987,3.82069e-05,-0.00182137,0.00640123,-0.000483147,-0.278788,0.00443731,0.0192551,1147,1716,7.73669,-60.1921
-70,-692,7.77856,60.5712,0.0060798,-0.000621207,-0.00240634,0.00685438,-0.00139579,-0.311419,0.00509894,0.0356224,1154,1716,7.77851,-60.5712
-63,-692,7.83936,60.9266,0,0,0,0,0,0,0,-1,1161,1716,7.83937,-60.9266
-56,-692,7.85596,61.0601,0,0,0,0,0,0,0,-1,1168,1716,7.85593,-61.0601
-49,-692,7.82117,61.4492,0,0,0,0,0,0,0,-1,1175,1716,7.82118,-61.4492
-42,-692,7.82043,61.8435,0,0,0,0,0,0,0,-1,1182,1716,7.82047,-61.8435
-35,-692,8.08899,62.1888,0,0,0,0,0,0,0,-1,1189,1716,8.08895,-62.1889
-28,-692,8.3092,62.2213,0,0,0,0,0,0,0,-1,1196,1716,8.30916,-62.2214
-21,-692,8.27661,62.1753,0.00598023,-0.0017476,0.0120512,0.0147718,-0.0105392,0.630263,0.0146812,0.0367153,1203,1716,8.27664,-62.1753
-14,-692,8.3429,62.3311,0.00645655,-0.00369261,0.0121585,0.014557,-0.0117931,0.587704,0.0152411,0.0187015,1210,1716,8.34289,-62.3311
-7,-692,8.34961,62.5171,0.00711423,-0.00587173,0.0119294,0.0142032,-0.0129607,0.536175,0.0156885,0.0183156,1217,1716,8.34965,-62.5171
0,-692,8.38953,62.6495,0.00795534,-0.00799437,0.0118477,0.0142622,-0.0143012,0.489172,0.0164911,0.0263794,1224,1716,8.38958,-62.6496
7,-692,8.54565,62.7284,0.00887736,-0.0101702,0.0116894,0.0144316,-0.0157244,0.443568,0.0174159,0.0346245,1231,1716,8.54562,-62.7284
14,-692,8.68701,63.0835,0.010182,-0.0125356,0.011491,0.0149807,-0.0173343,0.395592,0.0186736,0.0350861,1238,1716,8.68703,-63.0835
21,-692,8.81311,63.2285,0.0140595,-0.0144404,0.00865158,0.0164802,-0.0168611,0.272824,0.01925,0.0330008,1245,1716,8.81307,-63.2285
28,-692,8.89539,63.1355,0.0195229,-0.0148221,0.0048226,0.0201872,-0.0154864,0.136891,0.0206557,0.03524,1252,1716,8.89538,-63.1355
35,-692,9.00244,63.2367,0.0233219,-0.0130954,0.000901358,0.0233442,-0.0131177,0.0247306,0.0213255,0.0322938,1259,1716,9.00243,-63.2367
42,-692,9.09448,63.381,0.026497,-0.0114435,-0.00356891,0.0268298,-0.0117763,-0.0929792,0.0228471,0.0305815,1266,1716,9.09454,-63.381
49,-692,9.13464,63.4354,0.0288702,-0.0098288,-0.00774977,0.0303644,-0.0113231,-0.190475,0.0248911,0.041701,1273,1716,9.1346,-63.4354
56,-692,9.22107,63.5205,0,0,0,0,0,0,0,-1,1280,1716,9.22103,-63.5206
63,-692,9.28052,63.4061,0,0,0,0,0,0,0,-1,1287,1716,9.28055,-63.4061
70,-692,9.41125,63.5535,0.0287555,-0.00196697,-0.0195748,0.0382768,-0.0114883,-0.452714,0.0300875,0.0423176,1294,1716,9.4113,-63.5534
77,-692,9.64478,63.4496,0.0265749,0.00121998,-0.0225469,0.0397641,-0.0119692,-0.52929,0.0312722,0.0498768,1301,1716,9.6448,-63.4496
84,-692,9.59424,63.3168,0,0,0,0,0,0,0,-1,1308,1716,9.59425,-63.3167
91,-692,9.67151,63.2069,0,0,0,0,0,0,0,-1,1315,1716,9.67146,-63.207
98,-692,9.77222,62.8873,0.00976513,0.00786875,-0.0241944,0.0330299,-0.015396,-0.765813,0.0285699,0.0399697,1322,1716,9.77225,-62.8873
105,-692,9.7511,62.8076,0.00349287,0.00905162,-0.0232694,0.029707,-0.0171625,-0.844838,0.0273813,0.0471485,1329,1716,9.75108,-62.8076
112,-692,9.83215,62.7468,-0.0022908,0.00984971,-0.0212469,0.0258765,-0.0183175,-0.924542,0.0256395,0.0494505,1336,1716,9.83219,-62.7469
119,-692,9.97351,62.6106,-0.00731056,0.0107002,-0.018662,0.022416,-0.0190263,-1.01019,0.0239534,0.0419432,1343,1716,9.97346,-62.6106
126,-692,10.1575,62.4559,-0.0122904,0.0120291,-0.0153548,0.0194558,-0.0197171,-1.12029,0.0226167,0.0417648,1350,1716,10.1575,-62.456
133,-692,10.2257,62.304,-0.0160808,0.0124636,-0.0124264,0.0171152,-0.0207324,-1.21261,0.0218846,0.0320996,1357,1716,10.2258,-62.3039
140,-692,10.2534,62.2736,-0.0167266,0.0119205,-0.0102559,0.0152136,-0.0200197,-1.2601,0.020405,0.0359497,1364,1716,10.2534,-62.2736
147,-692,10.2803,61.4537,0,0,0,0,0,0,0,-1,1371,1716,10.2803,-61.4537
154,-692,9.92883,56.0276,0,0,0,0,0,0,0,-1,1378,1716,9.92887,-56.0276
161,-692,10.2407,61.6554,0,0,0,0,0,0,0,-1,1385,1716,10.2407,-61.6554
168,-692,10.5787,61.5931,0,0,0,0,0,0,0,-1,1392,1716,10.5787,-61.5931
175,-692,10.7235,61.2747,0,0,0,0,0,0,0,-1,1399,1716,10.7235,-61.2746
182,-692,10.6765,60.9695,0,0,0,0,0,0,0,-1,1406,1716,10.6765,-60.9694
189,-692,10.6013,60.6559,0,0,0,0,0,0,0,-1,1413,1716,10.6013,-60.6559
196,-692,10.517,60.2719,0.00860069,-0.00199679,0.000583695,0.00863274,-0.00202884,0.0548575,0.00653724,0.0392863,1420,1716,10.517,-60.2718
203,-692,10.5957,59.9644,0.00767277,-0.0015878,0.000742672,0.00773196,-0.00164699,0.0795199,0.00578235,0.0274602,1427,1716,10.5957,-59.9644
210,-692,10.838,59.6929,0.006956,-0.00170758,0.000685532,0.00700991,-0.00176149,0.0784772,0.00535784,0.0214519,1434,1716,10.8381,-59.6929
217,-692,10.812,59.2899,0.0062659,-0.00186604,0.000651513,0.00631777,-0.0019179,0.0794425,0.00497592,0.0177391,1441,1716,10.812,-59.2899
224,-692,10.8156,58.9528,0.00549396,-0.00177409,0.000613096,0.00554531,-0.00182545,0.0835681,0.00443248,0.0134997,1448,1716,10.8156,-58.9527
231,-692,10.8285,58.5908,0.00474122,-0.00152848,0.000321056,0.00475762,-0.00154488,0.0510295,0.00379307,0.012044,1455,1716,10.8285,-58.5908
238,-692,10.8667,58.1232,0.0041441,-0.00113742,1.20525e-05,0.00414413,-0.00113745,0.00228199,0.0032098,0.0180043,1462,1716,10.8667,-58.1232
245,-692,10.8496,57.7026,0.00372411,-0.000634848,-0.000167599,0.00373055,-0.000641282,-0.0383739,0.00272605,0.0210702,1469,1716,10.8496,-57.7026
252,-692,10.8688,57.3402,0.00322825,0.000355864,-0.000364194,0.00327371,0.000310407,-0.124174,0.00208671,0.0190842,1476,1716,10.8687,-57.3402
259,-692,10.8707,56.9497,0.00262645,0.000902575,-0.000636805,0.00283618,0.000692852,-0.318149,0.00170736,0.0104336,1483,1716,10.8708,-56.9497
266,-692,10.8735,56.5103,0.00210946,0.00132089,-0.000955383,0.00274872,0.000681627,-0.589695,0.00165281,0.0114852,1490,1716,10.8736,-56.5102
273,-692,10.8773,56.0347,0.00168273,0.00174429,-0.00117487,0.00288879,0.000538238,-0.798495,0.00177388,0.0165779,1497,1716,10.8773,-56.0347
280,-692,10.8594,55.5441,0.00118962,0.00202364,-0.001359,0.00302817,0.000185087,-0.934262,0.00196,0.015069,1504,1716,10.8594,-55.5441
287,-692,10.8488,55.087,0.000684458,0.00223455,-0.00148358,0.00313333,-0.000214322,-1.02611,0.00216387,0.0111537,1511,1716,10.8488,-55.0871
294,-692,10.8328,54.6117,0.000114641,0.00253334,-0.0015563,0.00329493,-0.000646947,-1.1157,0.00244101,0.0105176,1518,1716,10.8327,-54.6117
301,-692,10.8351,54.1208,-0.000540022,0.00281708,-0.00173758,0.00355445,-0.0012774,-1.16946,0.00289109,0.0148781,1525,1716,10.835,-54.1209
308,-692,10.8087,53.6312,-0.00111177,0.00369333,-0.00186688,0.00433339,-0.00175183,-1.2405,0.00361716,0.0185017,1532,1716,10.8087,-53.6312
315,-692,10.7759,53.0902,-0.00160016,0.00475321,-0.00177813,0.005217,-0.00206395,-1.31565,0.00433306,0.0173374,1539,1716,10.7758,-53.0902
322,-692,10.7091,52.5404,-0.00211654,0.00575028,-0.00149043,0.00602318,-0.00238944,-1.3897,0.00500579,0.0228519,1546,1716,10.7091,-52.5404
329,-692,10.6884,52.0018,-0.00262496,0.00698071,-0.00132368,0.00715978,-0.00280402,-1.43633,0.005933,0.0197621,1553,1716,10.6883,-52.0018
336,-692,10.6821,51.4385,-0.00299695,0.0082434,-0.00107145,0.00834462,-0.00309817,-1.47661,0.00683404,0.0128267,1560,1716,10.6821,-51.4385
343,-692,10.6641,50.9147,-0.00315061,0.00956685,-0.000838325,0.00962187,-0.00320563,-1.50526,0.0077086,0.0131491,1567,1716,10.6641,-50.9147
350,-692,10.6132,50.3845,-0.0029435,0.0110885,-0.000810355,0.0111352,-0.00299015,-1.5133,0.00859531,0.0166444,1574,1716,10.6131,-50.3845
357,-692,10.5551,49.7499,-0.00263551,0.0125066,-0.000880011,0.0125575,-0.00268648,-1.51294,0.00939608,0.0255189,1581,1716,10.5551,-49.7499
364,-692,10.5936,49.0809,-0.00226197,0.0135065,-0.000900581,0.0135577,-0.00231324,-1.51393,0.00990006,0.0332661,1588,1716,10.5937,-49.081
371,-692,10.5438,48.4872,-0.00157101,0.0143728,-0.0011758,0.014459,-0.00165726,-1.49758,0.0102366,0.0445234,1595,1716,10.5438,-48.4872
378,-692,10.5598,47.8589,0,0,0,0,0,0,0,-1,1602,1716,10.5598,-47.8589
385,-692,10.3511,47.547,0,0,0,0,0,0,0,-1,1609,1716,10.351,-47.547
392,-692,10.4402,46.7886,0,0,0,0,0,0,0,-1,1616,1716,10.4402,-46.7886
399,-692,10.6912,45.896,0,0,0,0,0,0,0,-1,1623,1716,10.6911,-45.896
406,-692,11.3221,42.7773,0,0,0,0,0,0,0,-1,1630,1716,11.3222,-42.7773
413,-692,11.4845,42.9004,0,0,0,0,0,0,0,-1,1637,1716,11.4845,-42.9004
420,-692,9.65894,40.2512,0,0,0,0,0,0,0,-1,1644,1716,9.65889,-40.2513
427,-692,3.79578,8.60339,0,0,0,0,0,0,0,-1,1651,1716,3.79577,-8.6034
434,-692,4.78516,8.64636,0,0,0,0,0,0,0,-1,1658,1716,4.78512,-8.64634
441,-692,5.8208,8.74036,0,0,0,0,0,0,0,-1,1665,1716,5.82084,-8.7404
448,-692,6.73792,8.51013,0,0,0,0,0,0,0,-1,1672,1716,6.73793,-8.5101
455,-692,0,0,0,0,0,0,0,0,0,-1,1679,1716,0,0
462,-692,0,0,0,0,0,0,0,0,0,-1,1686,1716,0,0
469,-692,0,0,0,0,0,0,0,0,0,-1,1693,1716,0,0
476,-692,0,0,0,0,0,0,0,0,0,-1,1700,1716,0,0
483,-692,0,0,0,0,0,0,0,0,0,-1,1707,1716,0,0
490,-692,0,0,0,0,0,0,0,0,0,-1,1714,1716,0,0
497,-692,0,0,0,0,0,0,0,0,0,-1,1721,1716,0,0
504,-692,0,0,0,0,0,0,0,0,0,-1,1728,1716,0,0
511,-692,0,0,0,0,0,0,0,0,0,-1,1735,1716,0,0
518,-692,0,0,0,0,0,0,0,0,0,-1,1742,1716,0,0
525,-692,0,0,0,0,0,0,0,0,0,-1,1749,1716,0,0
532,-692,0,0,0,0,0,0,0,0,0,-1,1756,1716,0,0
539,-692,0,0,0,0,0,0,0,0,0,-1,1763,1716,0,0
546,-692,0,0,0,0,0,0,0,0,0,-1,1770,1716,0,0
553,-692,0,0,0,0,0,0,0,0,0,-1,1777,1716,0,0
560,-692,0,0,0,0,0,0,0,0,0,-1,1784,1716,0,0
567,-692,0,0,0,0,0,0,0,0,0,-1,1791,1716,0,0
574,-692,0,0,0,0,0,0,0,0,0,-1,1798,1716,0,0
581,-692,0,0,0,0,0,0,0,0,0,-1,1805,1716,0,0
588,-692,0,0,0,0,0,0,0,0,0,-1,1812,1716,0,0
595,-692,0,0,0,0,0,0,0,0,0,-1,1819,1716,0,0
602,-692,0,0,0,0,0,0,0,0,0,-1,1826,1716,0,0
609,-692,0,0,0,0,0,0,0,0,0,-1,1833,1716,0,0
616,-692,0,0,0,0,0,0,0,0,0,-1,1840,1716,0,0
623,-692,0,0,0,0,0,0,0,0,0,-1,1847,1716,0,0
630,-692,0,0,0,0,0,0,0,0,0,-1,1854,1716,0,0
637,-692,0,0,0,0,0,0,0,0,0,-1,1861,1716,0,0
644,-692,0,0,0,0,0,0,0,0,0,-1,1868,1716,0,0
651,-692,0,0,0,0,0,0,0,0,0,-1,1875,1716,0,0
658,-692,0,0,0,0,0,0,0,0,0,-1,1882,1716,0,0
665,-692,0,0,0,0,0,0,0,0,0,-1,1889,1716,0,0
672,-692,0,0,0,0,0,0,0,0,0,-1,1896,1716,0,0
679,-692,0,0,0,0,0,0,0,0,0,-1,1903,1716,0,0
686,-692,0,0,0,0,0,0,0,0,0,-1,1910,1716,0,0
693,-692,0,0,0,0,0,0,0,0,0,-1,1917,1716,0,0
700,-692,0,0,0,0,0,0,0,0,0,-1,1924,1716,0,0
707,-692,0,0,0,0,0,0,0,0,0,-1,1931,1716,0,0
714,-692,0,0,0,0,0,0,0,0,0,-1,1938,1716,0,0
721,-692,0,0,0,0,0,0,0,0,0,-1,1945,1716,0,0
728,-692,0,0,0,0,0,0,0,0,0,-1,1952,1716,0,0
735,-692,0,0,0,0,0,0,0,0,0,-1,1959,1716,0,0
742,-692,0,0,0,0,0,0,0,0,0,-1,1966,1716,0,0
749,-692,0,0,0,0,0,0,0,0,0,-1,1973,1716,0,0
756,-692,0,0,0,0,0,0,0,0,0,-1,1980,1716,0,0
763,-692,0,0,0,0,0,0,0,0,0,-1,1987,1716,0,0
770,-692,0,0,0,0,0,0,0,0,0,-1,1994,1716,0,0
777,-692,0,0,0,0,0,0,0,0,0,-1,2001,1716,0,0
784,-692,0,0,0,0,0,0,0,0,0,-1,2008,1716,0,0
791,-692,0,0,0,0,0,0,0,0,0,-1,2015,1716,0,0
798,-692,0,0,0,0,0,0,0,0,0,-1,2022,1716,0,0
805,-692,0,0,0,0,0,0,0,0,0,-1,2029,1716,0,0
812,-692,0,0,0,0,0,0,0,0,0,-1,2036,1716,0,0
-700,-699,0,0,0,0,0,0,0,0,0,-1,524,1723,0,0
-693,-699,0,0,0,0,0,0,0,0,0,-1,531,1723,0,0
-686,-699,0,0,0,0,0,0,0,0,0,-1,538,1723,0,0
-679,-699,0,0,0,0,0,0,0,0,0,-1,545,1723,0,0
-672,-699,0,0,0,0,0,0,0,0,0,-1,552,1723,0,0
-665,-699,0,0,0,0,0,0,0,0,0,-1,559,1723,0,0
-658,-699,0,0,0,0,0,0,0,0,0,-1,566,1723,0,0
-651,-699,0,0,0,0,0,0,0,0,0,-1,573,1723,0,0
-644,-699,0,0,0,0,0,0,0,0,0,-1,580,1723,0,0
-637,-699,0,0,0,0,0,0,0,0,0,-1,587,1723,0,0
-630,-699,0,0,0,0,0,0,0,0,0,-1,594,1723,0,0
-623,-699,0,0,0,0,0,0,0,0,0,-1,601,1723,0,0
-616,-699,0,0,0,0,0,0,0,0,0,-1,608,1723,0,0
-609,-699,0,0,0,0,0,0,0,0,0,-1,615,1723,0,0
-602,-699,0,0,0,0,0,0,0,0,0,-1,622,1723,0,0
-595,-699,0,0,0,0,0,0,0,0,0,-1,629,1723,0,0
-588,-699,0,0,0,0,0,0,0,0,0,-1,636,1723,0,0
-581,-699,0,0,0,0,0,0,0,0,0,-1,643,1723,0,0
-574,-699,0,0,0,0,0,0,0,0,0,-1,650,1723,0,0
-567,-699,0,0,0,0,0,0,0,0,0,-1,657,1723,0,0
-560,-699,0,0,0,0,0,0,0,0,0,-1,664,1723,0,0
-553,-699,0,0,0,0,0,0,0,0,0,-1,671,1723,0,0
-546,-699,0,0,0,0,0,0,0,0,0,-1,678,1723,0,0
-539,-699,0,0,0,0,0,0,0,0,0,-1,685,1723,0,0
-532,-699,0,0,0,0,0,0,0,0,0,-1,692,1723,0,0
-525,-699,0,0,0,0,0,0,0,0,0,-1,699,1723,0,0
-518,-699,0,0,0,0,0,0,0,0,0,-1,706,1723,0,0
-511,-699,0,0,0,0,0,0,0,0,0,-1,713,1723,0,0
-504,-699,0,0,0,0,0,0,0,0,0,-1,720,1723,0,0
-497,-699,0,0,0,0,0,0,0,0,0,-1,727,1723,0,0
-490,-699,0,0,0,0,0,0,0,0,0,-1,734,1723,0,0
-483,-699,0,0,0,0,0,0,0,0,0,-1,741,1723,0,0
-476,-699,0,0,0,0,0,0,0,0,0,-1,748,1723,0,0
-469,-699,0,0,0,0,0,0,0,0,0,-1,755,1723,0,0
-462,-699,0,0,0,0,0,0,0,0,0,-1,762,1723,0,0
-455,-699,0,0,0,0,0,0,0,0,0,-1,769,1723,0,0
-448,-699,0,0,0,0,0,0,0,0,0,-1,776,1723,0,0
-441,-699,0,0,0,0,0,0,0,0,0,-1,783,1723,0,0
-434,-699,0,0,0,0,0,0,0,0,0,-1,790,1723,0,0
-427,-699,0,0,0,0,0,0,0,0,0,-1,797,1723,0,0
-420,-699,0,0,0,0,0,0,0,0,0,-1,804,1723,0,0
-413,-699,0,0,0,0,0,0,0,0,0,-1,811,1723,0,0
-406,-699,0,0,0,0,0,0,0,0,0,-1,818,1723,0,0
-399,-699,0,0,0,0,0,0,0,0,0,-1,825,1723,0,0
-392,-699,0,0,0,0,0,0,0,0,0,-1,832,1723,0,0
-385,-699,0,0,0,0,0,0,0,0,0,-1,839,1723,0,0
-378,-699,0,0,0,0,0,0,0,0,0,-1,846,1723,0,0
-371,-699,0,0,0,0,0,0,0,0,0,-1,853,1723,0,0
-364,-699,0,0,0,0,0,0,0,0,0,-1,860,1723,0,0
-357,-699,0,0,0,0,0,0,0,0,0,-1,867,1723,0,0
-350,-699,0,0,0,0,0,0,0,0,0,-1,874,1723,0,0
-343,-699,0,0,0,0,0,0,0,0,0,-1,881,1723,0,0
-336,-699,0,0,0,0,0,0,0,0,0,-1,888,1723,0,0
-329,-699,0,0,0,0,0,0,0,0,0,-1,895,1723,0,0
-322,-699,0,0,0,0,0,0,0,0,0,-1,902,1723,0,0
-315,-699,6.20001,19.5193,0,0,0,0,0,0,0,-1,909,1723,6.20001,-19.5193
-308,-699,6.98151,18.9218,0,0,0,0,0,0,0,-1,916,1723,6.98151,-18.9217
-301,-699,4.72729,12.8752,0,0,0,0,0,0,0,-1,923,1723,4.72732,-12.8752
-294,-699,6.90332,19.8601,0,0,0,0,0,0,0,-1,930,1723,6.90332,-19.8601
-287,-699,9.0968,36.3315,0,0,0,0,0,0,0,-1,937,1723,9.09678,-36.3315
-280,-699,9.53729,45.2391,0,0,0,0,0,0,0,-1,944,1723,9.53728,-45.2391
-273,-699,10.2987,33.8755,0,0,0,0,0,0,0,-1,951,1723,10.2987,-33.8755
-266,-699,6.81915,20.8951,0,0,0,0,0,0,0,-1,958,1723,6.81914,-20.8952
-259,-699,5.39758,14.5466,0,0,0,0,0,0,0,-1,965,1723,5.39759,-14.5466
-252,-699,8.3866,31.6284,0,0,0,0,0,0,0,-1,972,1723,8.38657,-31.6284
-245,-699,8.94739,47.5513,0,0,0,0,0,0,0,-1,979,1723,8.9474,-47.5513
-238,-699,9.1358,49.3516,0,0,0,0,0,0,0,-1,986,1723,9.13579,-49.3515
-231,-699,8.85974,49.9795,-0.0130371,0.00490774,-0.00113047,0.00497867,-0.013108,-1.50813,0.0107882,0.0457723,993,1723,8.85972,-49.9795
-224,-699,8.55383,50.34,-0.0107481,0.00386344,-0.000114192,0.00386433,-0.010749,-1.56298,0.00874353,0.0369126,1000,1723,8.55383,-50.34
-217,-699,8.43268,50.9254,-0.00923708,0.00238046,0.000869019,0.00244511,-0.00930172,1.49654,0.00715679,0.0239682,1007,1723,8.43267,-50.9254
-210,-699,8.41815,51.4877,-0.0070359,0.00139282,0.00169455,0.00172074,-0.00736383,1.37964,0.00557208,0.0186475,1014,1723,8.41816,-51.4876
-203,-699,8.41711,52.1079,-0.00509113,0.00121888,0.00172757,0.00166089,-0.00553315,1.32031,0.00434942,0.0250782,1021,1723,8.41714,-52.1079
-196,-699,8.32446,52.7235,-0.00379441,0.000982096,0.00188302,0.00163514,-0.00444745,1.23697,0.00363475,0.0198321,1028,1723,8.32452,-52.7235
-189,-699,8.24707,53.234,-0.00258788,0.000839919,0.0019993,0.00175939,-0.00350735,1.13974,0.00309607,0.00983108,1035,1723,8.24713,-53.2341
-182,-699,8.19043,53.7664,-0.00161459,0.000593213,0.00207687,0.00184133,-0.0028627,1.02967,0.00273713,0.01343,1042,1723,8.19043,-53.7663
-175,-699,8.16394,54.3004,-0.000740764,0.000547014,0.00212754,0.00212596,-0.00231971,0.932339,0.00256752,0.0156939,1049,1723,8.16391,-54.3005
-168,-699,8.16516,54.7678,-0.000174225,0.000535411,0.00202762,0.00223902,-0.00187784,0.872017,0.00237992,0.0157094,1056,1723,8.16521,-54.7678
-161,-699,8.15173,55.2573,-4.39635e-06,0.000587904,0.00182549,0.00214111,-0.0015576,0.865813,0.00214429,0.0140033,1063,1723,8.15171,-55.2573
-154,-699,8.12,55.7559,7.35145e-05,0.000686162,0.00160827,0.00201702,-0.00125735,0.879505,0.00190734,0.0142638,1070,1723,8.12002,-55.7559
-147,-699,8.07642,56.208,0.000189749,0.000862014,0.00142244,0.0019875,-0.000935737,0.901423,0.00172376,0.0156703,1077,1723,8.0764,-56.208
-140,-699,8.02869,56.6528,0.000405583,0.00102102,0.00126624,0.00201639,-0.000589791,0.904596,0.00157804,0.0108571,1084,1723,8.02869,-56.6529
-133,-699,8.0321,57.121,0.000654299,0.00118132,0.00113183,0.00207991,-0.000244295,0.89977,0.0014748,0.00980972,1091,1723,8.0321,-57.121
-126,-699,8.05078,57.5558,0.000809524,0.00147877,0.000947787,0.00214927,0.000139022,0.955095,0.00138883,0.0124952,1098,1723,8.05082,-57.5558
-119,-699,8.02795,57.9751,0.00114937,0.00155463,0.000841976,0.00221801,0.000485983,0.903483,0.00134625,0.0184564,1105,1723,8.028,-57.9751
-112,-699,8.01807,58.3715,0.00165867,0.0015775,0.000711773,0.00233102,0.000905159,0.756919,0.00135696,0.0133638,1112,1723,8.01806,-58.3715
-105,-699,8.03333,58.7632,0.00208592,0.00139808,0.00051329,0.00235986,0.00112414,0.490234,0.00136297,0.0137915,1119,1723,8.03336,-58.7632
-98,-699,8.07813,59.1384,0.00241485,0.00122006,0.000299399,0.00248568,0.00114923,0.232293,0.00143646,0.0154983,1126,1723,8.07818,-59.1385
-91,-699,8.09045,59.4805,0.00288534,0.00106469,-9.46556e-05,0.00289025,0.00105979,-0.0518039,0.00168834,0.0224292,1133,1723,8.09045,-59.4805
-84,-699,8.10718,59.8464,0.00356594,0.000910924,-0.000582126,0.00368796,0.000788898,-0.206629,0.00224242,0.0260059,1140,1723,8.10722,-59.8464
-77,-699,8.11194,60.1868,0.00407201,0.000564696,-0.000924736,0.00430089,0.000335816,-0.242632,0.00276213,0.0171855,1147,1723,8.11196,-60.1868
-70,-699,8.12634,60.5225,0.00433161,0.000175115,-0.00133115,0.00472137,-0.00021465,-0.28484,0.00322152,0.0168636,1154,1723,8.12633,-60.5225
-63,-699,8.1582,60.8313,0.00536737,-0.000981899,0.000955677,0.0055081,-0.00112263,0.146203,0.00409786,0.0146515,1161,1723,8.15817,-60.8313
-56,-699,8.15784,61.1039,0.00587424,-0.000993148,0.0033141,0.00721271,-0.00233162,0.383839,0.0057456,0.0117661,1168,1723,8.15789,-61.1038
-49,-699,8.14673,61.4362,0.00588918,0.000123062,0.0047412,0.00855508,-0.00254284,0.512226,0.00671349,0.0269342,1175,1723,8.14672,-61.4362
-42,-699,8.15332,61.7916,0.00588376,0.000805084,0.00603979,0.00989631,-0.00320747,0.586399,0.00788718,0.0307004,1182,1723,8.1533,-61.7917
-35,-699,8.28027,62.0304,0.00583438,0.000826236,0.00717593,0.0109306,-0.00426998,0.617527,0.00905254,0.0273249,1189,1723,8.28024,-62.0303
-28,-699,8.41772,62.1431,0.00571255,0.000115085,0.00795385,0.0113457,-0.00551807,0.616228,0.0099282,0.0220655,1196,1723,8.41772,-62.143
-21,-699,8.4165,62.2466,0.00570682,-0.00080762,0.00846497,0.0115196,-0.00662042,0.601736,0.0105997,0.0151596,1203,1723,8.41649,-62.2466
-14,-699,8.45386,62.4572,0.00607668,-0.0019295,0.0088979,0.0118305,-0.00768332,0.574016,0.0113508,0.0133444,1210,1723,8.4539,-62.4572
-7,-699,8.50891,62.6637,0.0065505,-0.00312475,0.00908124,0.0120023,-0.00857652,0.540664,0.0119359,0.00997711,1217,1723,8.50894,-62.6637
0,-699,8.60181,62.8075,0.00711651,-0.00419522,0.00934015,0.0123798,-0.00945847,0.513155,0.0126459,0.0137583,1224,1723,8.60182,-62.8075
7,-699,8.74438,62.8522,0.00770767,-0.00539024,0.0095042,0.0127008,-0.0103833,0.483726,0.01335,0.0237859,1231,1723,8.7444,-62.8522
14,-699,8.82544,63.0405,0.00851716,-0.00677217,0.00959016,0.0131368,-0.0113918,0.448902,0.0141735,0.0233351,1238,1723,8.82539,-63.0405
21,-699,8.79565,63.1648,0.0114905,-0.00798466,0.00733395,0.0139434,-0.0104375,0.32276,0.0141248,0.0191773,1245,1723,8.7956,-63.1648
28,-699,8.86316,63.1931,0.0160115,-0.008244,0.00442251,0.0167927,-0.0090252,0.174837,0.0151292,0.0184889,1252,1723,8.8631,-63.1931
35,-699,8.95996,63.3092,0.0191865,-0.00681694,0.001534,0.0192767,-0.00690713,0.0587205,0.0156695,0.0152606,1259,1723,8.95996,-63.3092
42,-699,9.04517,63.3792,0.022008,-0.00557518,-0.00193435,0.022143,-0.00571017,-0.0696732,0.0169884,0.0139527,1266,1723,9.04517,-63.3792
49,-699,9.10059,63.4291,0.0241864,-0.00456621,-0.00529305,0.0251298,-0.00550965,-0.176389,0.01886,0.0173474,1273,1723,9.10058,-63.4291
56,-699,9.20471,63.4724,0.0254749,-0.00376371,-0.00869783,0.0278667,-0.00615547,-0.268351,0.0209335,0.0184236,1280,1723,9.2047,-63.4725
63,-699,9.27747,63.439,0.0256466,-0.00166934,-0.011894,0.0300996,-0.00612233,-0.358236,0.022388,0.015733,1287,1723,9.27748,-63.439
70,-699,9.33386,63.4465,0.024685,-7.06954e-05,-0.01477,0.031578,-0.00696367,-0.436644,0.0237165,0.0126202,1294,1723,9.33385,-63.4465
77,-699,9.41443,63.4048,0.0231788,0.00157359,-0.0170391,0.0325511,-0.00779869,-0.502879,0.0247139,0.0132819,1301,1723,9.41447,-63.4048
84,-699,9.49768,63.3575,0.0197739,0.00298697,-0.0180586,0.0312943,-0.00853342,-0.567855,0.0242139,0.0164497,1308,1723,9.49764,-63.3576
91,-699,9.57117,63.2909,0.0153487,0.00398443,-0.0184166,0.0289397,-0.00960664,-0.635765,0.023169,0.0155409,1315,1723,9.57114,-63.2909
98,-699,9.63306,63.1853,0.0107448,0.00427241,-0.0181039,0.0258995,-0.0108822,-0.696954,0.0218179,0.0131835,1322,1723,9.633,-63.1854
105,-699,9.69812,63.1066,0.00614125,0.00437866,-0.0174924,0.0227746,-0.0122547,-0.760229,0.0205259,0.017359,1329,1723,9.69818,-63.1065
112,-699,9.77625,63.0206,0.00192106,0.00428364,-0.0160511,0.0191969,-0.0129922,-0.82213,0.0186991,0.0235405,1336,1723,9.7762,-63.0206
119,-699,9.8103,62.8635,-0.00171774,0.00423108,-0.0140825,0.0156499,-0.0131365,-0.889475,0.0166409,0.0176935,1343,1723,9.81027,-62.8636
126,-699,9.89331,62.6865,-0.00568393,0.00456957,-0.0111951,0.011756,-0.0128704,-1.00012,0.0142229,0.0191372,1350,1723,9.89335,-62.6866
133,-699,9.98438,62.5428,-0.0089543,0.0042235,-0.00878805,0.00861838,-0.0133492,-1.10707,0.0127806,0.0178229,1357,1723,9.98441,-62.5429
140,-699,10.0488,62.382,-0.00901335,0.00297397,-0.00715324,0.00631266,-0.012352,-1.13411,0.0109625,0.0196996,1364,1723,10.0489,-62.382
147,-699,10.1486,62.0189,-0.00835958,0.00317236,-0.00580813,0.00559057,-0.0107778,-1.17628,0.00960715,0.0451993,1371,1723,10.1486,-62.019
154,-699,9.89197,61.7715,0,0,0,0,0,0,0,-1,1378,1723,9.89198,-61.7715
161,-699,10.1482,61.7771,-0.00470174,0.00424187,-0.00361411,0.00551974,-0.00597962,-1.23094,0.00664093,0.0306434,1385,1723,10.1482,-61.7771
168,-699,10.2565,61.5332,-0.0022844,0.00221739,-0.00209112,0.00303885,-0.00310585,-1.19649,0.00354771,0.0127135,1392,1723,10.2564,-61.5332
175,-699,10.3047,61.2826,0.000268505,0.00318422,-0.000194041,0.00319708,0.000255649,-1.50464,0.00205149,0.0191104,1399,1723,10.3046,-61.2825
182,-699,10.3368,61.0017,0.00138735,0.00284546,-0.000280135,0.00289743,0.00133538,-1.38737,0.00167454,0.0199811,1406,1723,10.3368,-61.0017
189,-699,10.3264,60.6819,0.00409812,0.000798193,-0.000115744,0.00410218,0.000794138,-0.0350174,0.00251226,0.0178888,1413,1723,10.3265,-60.6819
196,-699,10.3086,60.2985,0.00624324,-0.00108442,0.000191463,0.00624824,-0.00108942,0.0261051,0.0045721,0.0192489,1420,1723,10.3086,-60.2984
203,-699,10.3292,59.9795,0.00551268,-0.000737009,0.000232596,0.00552133,-0.000745653,0.0371486,0.00395295,0.0153991,1427,1723,10.3293,-59.9795
210,-699,10.4069,59.7087,0.00490813,-0.000744309,0.000138193,0.00491151,-0.000747686,0.024429,0.00354991,0.0143273,1434,1723,10.4068,-59.7087
217,-699,10.4347,59.3656,0.00431216,-0.000738889,8.93152e-05,0.00431374,-0.000740468,0.0176751,0.00315178,0.014826,1441,1723,10.4347,-59.3656
224,-699,10.4565,58.9861,0.00368717,-0.000558253,-1.05861e-05,0.00368719,-0.000558279,-0.00249351,0.00266379,0.0155858,1448,1723,10.4565,-58.9861
231,-699,10.4629,58.61,0.00306587,-0.000263488,-0.000249626,0.00308448,-0.0002821,-0.0744225,0.00215651,0.0124196,1455,1723,10.4629,-58.6099
238,-699,10.4395,58.1628,0.00254651,0.000124978,-0.000491688,0.00264254,2.89495e-05,-0.192875,0.00175212,0.0109567,1462,1723,10.4395,-58.1628
245,-699,10.4429,57.7473,0.0021183,0.000566234,-0.000666766,0.0023654,0.000319132,-0.354905,0.00148205,0.0127833,1469,1723,10.4428,-57.7473
252,-699,10.4343,57.3616,0.00164556,0.00113797,-0.000782715,0.00221459,0.000568928,-0.628622,0.00132802,0.01112,1476,1723,10.4343,-57.3616
259,-699,10.3988,56.9651,0.00113016,0.00153373,-0.000997396,0.00234955,0.000314345,-0.885207,0.00147281,0.011644,1483,1723,10.3988,-56.9651
266,-699,10.4077,56.5298,0.00064596,0.00181664,-0.00127898,0.00263786,-0.000175259,-1,0.00181981,0.0140996,1490,1723,10.4078,-56.5298
273,-699,10.4224,56.0547,0.000197534,0.00219102,-0.00150693,0.00300102,-0.00061247,-1.07759,0.00223301,0.0133966,1497,1723,10.4224,-56.0546
280,-699,10.411,55.5704,-0.000303542,0.00244683,-0.00170319,0.00326071,-0.00111742,-1.12502,0.00262673,0.0129448,1504,1723,10.411,-55.5705
287,-699,10.3779,55.0713,-0.000816308,0.00269377,-0.0018653,0.00349988,-0.00162242,-1.16287,0.00302285,0.0107298,1511,1723,10.3779,-55.0712
294,-699,10.3473,54.5928,-0.00142622,0.00314285,-0.00197675,0.00387935,-0.00216271,-1.21415,0.003535,0.0107242,1518,1723,10.3473,-54.5928
301,-699,10.3431,54.1418,-0.00213423,0.00360816,-0.00224781,0.00438339,-0.00290946,-1.23869,0.0042391,0.012872,1525,1723,10.3432,-54.1418
308,-699,10.3324,53.6436,-0.00273933,0.00492489,-0.00245227,0.00564237,-0.0034568,-1.28617,0.00530368,0.0173471,1532,1723,10.3325,-53.6436
315,-699,10.2904,53.0874,-0.00322657,0.00644324,-0.00238054,0.00699752,-0.00378085,-1.34204,0.00631459,0.0198824,1539,1723,10.2905,-53.0874
322,-699,10.2207,52.5426,-0.00374785,0.00783107,-0.0020288,0.00817626,-0.00409304,-1.40227,0.00721326,0.0213373,1546,1723,10.2207,-52.5426
329,-699,10.1578,52.0066,-0.00430079,0.0096022,-0.00179053,0.00982909,-0.00452769,-1.44475,0.00847517,0.0174097,1553,1723,10.1579,-52.0066
336,-699,10.1427,51.501,-0.00468107,0.0114469,-0.00145928,0.0115779,-0.00481204,-1.48128,0.00972775,0.0161634,1560,1723,10.1427,-51.501
343,-699,10.1669,50.9756,-0.00479657,0.0133981,-0.00108308,0.0134623,-0.00486081,-1.51155,0.0109605,0.0251855,1567,1723,10.1669,-50.9756
350,-699,10.0277,50.2498,-0.00443341,0.0156033,-0.000835939,0.0156381,-0.00446823,-1.52917,0.0121909,0.0426587,1574,1723,10.0277,-50.2498
357,-699,9.81384,49.2258,-0.00393719,0.0175037,-0.0005966,0.0175203,-0.00395378,-1.543,0.013197,0.0479983,1581,1723,9.8139,-49.2258
364,-699,9.80188,48.7848,-0.00335162,0.0190472,-0.000340908,0.0190524,-0.00335681,-1.55558,0.0139557,0.0440757,1588,1723,9.80182,-48.7848
371,-699,9.75195,48.5721,-0.00236424,0.0203313,-0.000379531,0.0203377,-0.00237059,-1.55408,0.0144138,0.0483285,1595,1723,9.75192,-48.5721
378,-699,9.66821,47.9283,0,0,0,0,0,0,0,-1,1602,1723,9.66817,-47.9284
385,-699,8.04944,42.8464,0,0,0,0,0,0,0,-1,1609,1723,8.04943,-42.8464
392,-699,8.04492,42.0624,0,0,0,0,0,0,0,-1,1616,1723,8.04492,-42.0623
399,-699,8.49963,41.4828,0,0,0,0,0,0,0,-1,1623,1723,8.49961,-41.4828
406,-699,11.7264,44.1525,0,0,0,0,0,0,0,-1,1630,1723,11.7264,-44.1525
413,-699,12.3215,44.3011,0,0,0,0,0,0,0,-1,1637,1723,12.3215,-44.3011
420,-699,8.41907,38.2246,0,0,0,0,0,0,0,-1,1644,1723,8.41902,-38.2247
427,-699,2.98743,11.8593,0,0,0,0,0,0,0,-1,1651,1723,2.98746,-11.8592
434,-699,4.66455,8.90222,0,0,0,0,0,0,0,-1,1658,1723,4.66456,-8.90223
441,-699,0,0,0,0,0,0,0,0,0,-1,1665,1723,0,0
448,-699,0,0,0,0,0,0,0,0,0,-1,1672,1723,0,0
455,-699,0,0,0,0,0,0,0,0,0,-1,1679,1723,0,0
462,-699,0,0,0,0,0,0,0,0,0,-1,1686,1723,0,0
469,-699,0,0,0,0,0,0,0,0,0,-1,1693,1723,0,0
476,-699,0,0,0,0,0,0,0,0,0,-1,1700,1723,0,0
483,-699,0,0,0,0,0,0,0,0,0,-1,1707,1723,0,0
490,-699,0,0,0,0,0,0,0,0,0,-1,1714,1723,0,0
497,-699,0,0,0,0,0,0,0,0,0,-1,1721,1723,0,0
504,-699,0,0,0,0,0,0,0,0,0,-1,1728,1723,0,0
511,-699,0,0,0,0,0,0,0,0,0,-1,1735,1723,0,0
518,-699,0,0,0,0,0,0,0,0,0,-1,1742,1723,0,0
525,-699,0,0,0,0,0,0,0,0,0,-1,1749,1723,0,0
532,-699,0,0,0,0,0,0,0,0,0,-1,1756,1723,0,0
539,-699,0,0,0,0,0,0,0,0,0,-1,1763,1723,0,0
546,-699,0,0,0,0,0,0,0,0,0,-1,1770,1723,0,0
553,-699,0,0,0,0,0,0,0,0,0,-1,1777,1723,0,0
560,-699,0,0,0,0,0,0,0,0,0,-1,1784,1723,0,0
567,-699,0,0,0,0,0,0,0,0,0,-1,1791,1723,0,0
574,-699,0,0,0,0,0,0,0,0,0,-1,1798,1723,0,0
581,-699,0,0,0,0,0,0,0,0,0,-1,1805,1723,0,0
588,-699,0,0,0,0,0,0,0,0,0,-1,1812,1723,0,0
595,-699,0,0,0,0,0,0,0,0,0,-1,1819,1723,0,0
602,-699,0,0,0,0,0,0,0,0,0,-1,1826,1723,0,0
609,-699,0,0,0,0,0,0,0,0,0,-1,1833,1723,0,0
616,-699,0,0,0,0,0,0,0,0,0,-1,1840,1723,0,0
623,-699,0,0,0,0,0,0,0,0,0,-1,1847,1723,0,0
630,-699,0,0,0,0,0,0,0,0,0,-1,1854,1723,0,0
637,-699,0,0,0,0,0,0,0,0,0,-1,1861,1723,0,0
644,-699,0,0,0,0,0,0,0,0,0,-1,1868,1723,0,0
651,-699,0,0,0,0,0,0,0,0,0,-1,1875,1723,0,0
658,-699,0,0,0,0,0,0,0,0,0,-1,1882,1723,0,0
665,-699,0,0,0,0,0,0,0,0,0,-1,1889,1723,0,0
672,-699,0,0,0,0,0,0,0,0,0,-1,1896,1723,0,0
679,-699,0,0,0,0,0,0,0,0,0,-1,1903,1723,0,0
686,-699,0,0,0,0,0,0,0,0,0,-1,1910,1723,0,0
693,-699,0,0,0,0,0,0,0,0,0,-1,1917,1723,0,0
700,-699,0,0,0,0,0,0,0,0,0,-1,1924,1723,0,0
707,-699,0,0,0,0,0,0,0,0,0,-1,1931,1723,0,0
714,-699,0,0,0,0,0,0,0,0,0,-1,1938,1723,0,0
721,-699,0,0,0,0,0,0,0,0,0,-1,1945,1723,0,0
728,-699,0,0,0,0,0,0,0,0,0,-1,1952,1723,0,0
735,-699,0,0,0,0,0,0,0,0,0,-1,1959,1723,0,0
742,-699,0,0,0,0,0,0,0,0,0,-1,1966,1723,0,0
749,-699,0,0,0,0,0,0,0,0,0,-1,1973,1723,0,0
756,-699,0,0,0,0,0,0,0,0,0,-1,1980,1723,0,0
763,-699,0,0,0,0,0,0,0,0,0,-1,1987,1723,0,0
770,-699,0,0,0,0,0,0,0,0,0,-1,1994,1723,0,0
777,-699,0,0,0,0,0,0,0,0,0,-1,2001,1723,0,0
784,-699,0,0,0,0,0,0,0,0,0,-1,2008,1723,0,0
791,-699,0,0,0,0,0,0,0,0,0,-1,2015,1723,0,0
798,-699,0,0,0,0,0,0,0,0,0,-1,2022,1723,0,0
805,-699,0,0,0,0,0,0,0,0,0,-1,2029,1723,0,0
812,-699,0,0,0,0,0,0,0,0,0,-1,2036,1723,0,0
-700,-706,0,0,0,0,0,0,0,0,0,-1,524,1730,0,0
-693,-706,0,0,0,0,0,0,0,0,0,-1,531,1730,0,0
-686,-706,0,0,0,0,0,0,0,0,0,-1,538,1730,0,0
-679,-706,0,0,0,0,0,0,0,0,0,-1,545,1730,0,0
-672,-706,0,0,0,0,0,0,0,0,0,-1,552,1730,0,0
-665,-706,0,0,0,0,0,0,0,0,0,-1,559,1730,0,0
-658,-706,0,0,0,0,0,0,0,0,0,-1,566,1730,0,0
-651,-706,0,0,0,0,0,0,0,0,0,-1,573,1730,0,0
-644,-706,0,0,0,0,0,0,0,0,0,-1,580,1730,0,0
-637,-706,0,0,0,0,0,0,0,0,0,-1,587,1730,0,0
-630,-706,0,0,0,0,0,0,0,0,0,-1,594,1730,0,0
-623,-706,0,0,0,0,0,0,0,0,0,-1,601,1730,0,0
-616,-706,0,0,0,0,0,0,0,0,0,-1,608,1730,0,0
-609,-706,0,0,0,0,0,0,0,0,0,-1,615,1730,0,0
-602,-706,0,0,0,0,0,0,0,0,0,-1,622,1730,0,0
-595,-706,0,0,0,0,0,0,0,0,0,-1,629,1730,0,0
-588,-706,0,0,0,0,0,0,0,0,0,-1,636,1730,0,0
-581,-706,0,0,0,0,0,0,0,0,0,-1,643,1730,0,0
-574,-706,0,0,0,0,0,0,0,0,0,-1,650,1730,0,0
-567,-706,0,0,0,0,0,0,0,0,0,-1,657,1730,0,0
-560,-706,0,0,0,0,0,0,0,0,0,-1,664,1730,0,0
-553,-706,0,0,0,0,0,0,0,0,0,-1,671,1730,0,0
-546,-706,0,0,0,0,0,0,0,0,0,-1,678,1730,0,0
-539,-706,0,0,0,0,0,0,0,0,0,-1,685,1730,0,0
-532,-706,0,0,0,0,0,0,0,0,0,-1,692,1730,0,0
-525,-706,0,0,0,0,0,0,0,0,0,-1,699,1730,0,0
-518,-706,0,0,0,0,0,0,0,0,0,-1,706,1730,0,0
-511,-706,0,0,0,0,0,0,0,0,0,-1,713,1730,0,0
-504,-706,0,0,0,0,0,0,0,0,0,-1,720,1730,0,0
-497,-706,0,0,0,0,0,0,0,0,0,-1,727,1730,0,0
-490,-706,0,0,0,0,0,0,0,0,0,-1,734,1730,0,0
-483,-706,0,0,0,0,0,0,0,0,0,-1,741,1730,0,0
-476,-706,0,0,0,0,0,0,0,0,0,-1,748,1730,0,0
-469,-706,0,0,0,0,0,0,0,0,0,-1,755,1730,0,0
-462,-706,0,0,0,0,0,0,0,0,0,-1,762,1730,0,0
-455,-706,0,0,0,0,0,0,0,0,0,-1,769,1730,0,0
-448,-706,0,0,0,0,0,0,0,0,0,-1,776,1730,0,0
-441,-706,0,0,0,0,0,0,0,0,0,-1,783,1730,0,0
-434,-706,0,0,0,0,0,0,0,0,0,-1,790,1730,0,0
-427,-706,0,0,0,0,0,0,0,0,0,-1,797,1730,0,0
-420,-706,0,0,0,0,0,0,0,0,0,-1,804,1730,0,0
-413,-706,0,0,0,0,0,0,0,0,0,-1,811,1730,0,0
-406,-706,0,0,0,0,0,0,0,0,0,-1,818,1730,0,0
-399,-706,0,0,0,0,0,0,0,0,0,-1,825,1730,0,0
-392,-706,0,0,0,0,0,0,0,0,0,-1,832,1730,0,0
-385,-706,0,0,0,0,0,0,0,0,0,-1,839,1730,0,0
-378,-706,0,0,0,0,0,0,0,0,0,-1,846,1730,0,0
-371,-706,0,0,0,0,0,0,0,0,0,-1,853,1730,0,0
-364,-706,0,0,0,0,0,0,0,0,0,-1,860,1730,0,0
-357,-706,0,0,0,0,0,0,0,0,0,-1,867,1730,0,0
-350,-706,0,0,0,0,0,0,0,0,0,-1,874,1730,0,0
-343,-706,0,0,0,0,0,0,0,0,0,-1,881,1730,0,0
-336,-706,0,0,0,0,0,0,0,0,0,-1,888,1730,0,0
-329,-706,0,0,0,0,0,0,0,0,0,-1,895,1730,0,0
-322,-706,0,0,0,0,0,0,0,0,0,-1,902,1730,0,0
-315,-706,0,0,0,0,0,0,0,0,0,-1,909,1730,0,0
-308,-706,5.08191,14.6245,0,0,0,0,0,0,0,-1,916,1730,5.08188,-14.6245
-301,-706,7.45007,21.1975,0,0,0,0,0,0,0,-1,923,1730,7.45005,-21.1976
-294,-706,11.8603,21.026,0,0,0,0,0,0,0,-1,930,1730,11.8603,-21.026
-287,-706,10.3292,20.8425,0,0,0,0,0,0,0,-1,937,1730,10.3292,-20.8425
-280,-706,7.9162,21.8951,0,0,0,0,0,0,0,-1,944,1730,7.9162,-21.8952
-273,-706,7.38953,20.6355,0,0,0,0,0,0,0,-1,951,1730,7.38955,-20.6355
-266,-706,9.66724,22.8231,0,0,0,0,0,0,0,-1,958,1730,9.66722,-22.8231
-259,-706,3.47852,20.7363,0,0,0,0,0,0,0,-1,965,1730,3.47851,-20.7364
-252,-706,3.84259,20.1979,0,0,0,0,0,0,0,-1,972,1730,3.84256,-20.1979
-245,-706,4.698,19.2992,0,0,0,0,0,0,0,-1,979,1730,4.69799,-19.2991
-238,-706,9.35162,48.9419,0,0,0,0,0,0,0,-1,986,1730,9.35165,-48.9419
-231,-706,9.61499,49.9897,0,0,0,0,0,0,0,-1,993,1730,9.61497,-49.9897
-224,-706,9.29242,50.4546,-0.0134279,0.00425919,-0.000344112,0.00426589,-0.0134346,-1.55135,0.0106666,0.0432651,1000,1730,9.29244,-50.4546
-217,-706,9.02191,50.9752,-0.0113398,0.00250971,0.0010088,0.0025828,-0.0114129,1.49847,0.00859981,0.0383673,1007,1730,9.02188,-50.9752
-210,-706,8.82849,51.4435,-0.00851371,0.00138541,0.0020913,0.00180908,-0.00893739,1.37091,0.0066439,0.0379867,1014,1730,8.82852,-51.4435
-203,-706,8.86487,52.0651,-0.00599982,0.0011568,0.00225315,0.00180708,-0.0066501,1.28982,0.0051427,0.0318255,1021,1730,8.86492,-52.0651
-196,-706,8.85327,52.6156,-0.0043349,0.000877313,0.00253888,0.00190957,-0.00536716,1.18463,0.00435644,0.0246083,1028,1730,8.85322,-52.6156
-189,-706,8.75635,53.1851,-0.00291822,0.000702757,0.00273945,0.00217594,-0.0043914,1.0774,0.0038629,0.0210061,1035,1730,8.75634,-53.1851
-182,-706,8.67554,53.7616,-0.00184254,0.000373683,0.00282468,0.00229983,-0.00376869,0.972322,0.00353771,0.0165551,1042,1730,8.67549,-53.7615
-175,-706,8.67224,54.3069,-0.000988863,0.000286301,0.00283537,0.00255489,-0.00325746,0.895992,0.00336392,0.01649,1049,1730,8.67227,-54.3069
-168,-706,8.65649,54.7854,-0.000484144,0.000285589,0.00268405,0.00261223,-0.00281078,0.856608,0.00313168,0.016942,1056,1730,8.65647,-54.7854
-161,-706,8.60767,55.2839,-0.000445524,0.000371009,0.00241672,0.0024137,-0.00248822,0.869075,0.00283023,0.014133,1063,1730,8.6076,-55.2839
-154,-706,8.56641,55.7894,-0.00053408,0.000490611,0.00213928,0.00217805,-0.00222152,0.902931,0.00254013,0.0141797,1070,1730,8.56635,-55.7894
-147,-706,8.521,56.2332,-0.000580999,0.000680486,0.00189351,0.00204555,-0.00194606,0.946172,0.00230479,0.0138095,1077,1730,8.52094,-56.2332
-140,-706,8.50195,56.6942,-0.000485904,0.000891527,0.00170269,0.00203952,-0.0016339,0.977582,0.00212515,0.0123634,1084,1730,8.50194,-56.6942
-133,-706,8.48108,57.1199,-0.00033621,0.00107195,0.00152801,0.00205029,-0.00131455,1.00129,0.00195811,0.00964797,1091,1730,8.48105,-57.1198
-126,-706,8.46826,57.5499,-0.000414619,0.00156185,0.00129643,0.00220375,-0.00105652,1.11105,0.00192077,0.0151856,1098,1730,8.46823,-57.5499
-119,-706,8.427,57.9753,-0.000244887,0.00169442,0.00123429,0.00229438,-0.000844849,1.11835,0.00187574,0.0212991,1105,1730,8.42699,-57.9754
-112,-706,8.42517,58.3771,0.000266844,0.00183769,0.00118229,0.00247167,-0.00036713,1.07859,0.0017828,0.0144172,1112,1730,8.42515,-58.3771
-105,-706,8.42883,58.7825,0.000734767,0.0017664,0.00100698,0.00238198,0.000119179,1.02209,0.00154979,0.00981787,1119,1730,8.42888,-58.7824
-98,-706,8.45239,59.1624,0.00106311,0.00165895,0.000852443,0.00226403,0.000458025,0.95351,0.00138221,0.0116937,1126,1730,8.45245,-59.1623
-91,-706,8.45691,59.5256,0.00145645,0.00158431,0.000630234,0.00215385,0.000886912,0.835946,0.00124996,0.0159894,1133,1730,8.45686,-59.5257
-84,-706,8.41919,59.8669,0.00193246,0.00147784,0.000342853,0.00211651,0.00129379,0.492668,0.00123202,0.0185172,1140,1730,8.41915,-59.8669
-77,-706,8.42908,60.2251,0.00234167,0.00129216,6.1619e-05,0.00234527,0.00128855,0.0584444,0.00135625,0.0163426,1147,1730,8.42909,-60.2251
-70,-706,8.4436,60.5725,0.00261446,0.00099836,-0.000269297,0.00265816,0.000954667,-0.160846,0.00155485,0.0174299,1154,1730,8.44366,-60.5725
-63,-706,8.44861,60.8492,0.00326699,0.000305439,0.000620554,0.00339176,0.000180667,0.19842,0.00220342,0.0134102,1161,1730,8.44862,-60.8493
-56,-706,8.46191,61.1235,0.00385801,-0.000225118,0.0016065,0.0044143,-0.000781407,0.333351,0.00323495,0.01381,1168,1730,8.46187,-61.1236
-49,-706,8.45801,61.417,0.00415154,-7.25821e-05,0.00235034,0.00519937,-0.00112041,0.419372,0.00389382,0.0166034,1175,1730,8.45799,-61.417
-42,-706,8.48633,61.7222,0.00434531,5.52062e-05,0.00312755,0.00599272,-0.00159221,0.484812,0.0046183,0.0223367,1182,1730,8.48634,-61.7222
-35,-706,8.53284,61.9128,0.00460649,-8.52274e-05,0.00383231,0.00675392,-0.00223265,0.510754,0.00540285,0.0193423,1189,1730,8.53283,-61.9129
-28,-706,8.57727,62.097,0.0048084,-0.000493869,0.00442598,0.00731651,-0.00300198,0.515558,0.00612852,0.0130089,1196,1730,8.57721,-62.097
-21,-706,8.59912,62.288,0.00498328,-0.00106327,0.00490658,0.00772323,-0.00380322,0.509287,0.00678187,0.0139853,1203,1730,8.59911,-62.288
-14,-706,8.64587,62.4897,0.00530328,-0.00168238,0.0053666,0.00821359,-0.00459269,0.496913,0.00749158,0.0128198,1210,1730,8.64585,-62.4898
-7,-706,8.70251,62.6823,0.00565246,-0.00224587,0.00565347,0.0085995,-0.00519291,0.480526,0.00804361,0.00915328,1217,1730,8.70249,-62.6822
0,-706,8.76526,62.85,0.00600696,-0.00259342,0.00603698,0.0091187,-0.00570516,0.475929,0.00863387,0.0130635,1224,1730,8.76531,-62.85
7,-706,8.79529,62.9938,0.00633996,-0.00301987,0.00636054,0.00955676,-0.00623667,0.468231,0.00918525,0.0161904,1231,1730,8.79532,-62.9938
14,-706,8.84045,63.0913,0.00676797,-0.0035516,0.00659667,0.00998312,-0.00676674,0.453508,0.00972978,0.0162321,1238,1730,8.84045,-63.0913
21,-706,8.89221,63.1935,0.00888719,-0.00403058,0.0049721,0.0105793,-0.0057227,0.328029,0.00955018,0.013405,1245,1730,8.89225,-63.1934
28,-706,8.95093,63.28,0.0123569,-0.00408393,0.0027907,0.0128176,-0.00454472,0.163638,0.0103966,0.0133724,1252,1730,8.95088,-63.2801
35,-706,9.01099,63.356,0.0147561,-0.00328888,0.000849007,0.014796,-0.00332873,0.0469113,0.0111406,0.0146154,1259,1730,9.01101,-63.356
42,-706,9.07886,63.4219,0.0169661,-0.00250284,-0.00133452,0.0170571,-0.00259389,-0.0681216,0.0123274,0.0128243,1266,1730,9.07881,-63.4218
49,-706,9.13611,63.4611,0.0185934,-0.0020722,-0.0036641,0.0192238,-0.00270262,-0.170387,0.0138052,0.0157508,1273,1730,9.13606,-63.461
56,-706,9.20264,63.4677,0.019641,-0.00207564,-0.00603813,0.0212069,-0.00364157,-0.253751,0.0154951,0.0153812,1280,1730,9.20258,-63.4677
63,-706,9.26196,63.4708,0.0199078,-0.00119112,-0.00822843,0.0227373,-0.00402068,-0.331209,0.016661,0.0123148,1287,1730,9.26195,-63.4709
70,-706,9.30212,63.4683,0.0191989,-0.000760174,-0.0100794,0.0234034,-0.00496459,-0.395187,0.0174935,0.0121069,1294,1730,9.3021,-63.4682
77,-706,9.34448,63.4368,0.0180661,-0.000386026,-0.0114188,0.0235203,-0.00584021,-0.445608,0.0179465,0.0116957,1301,1730,9.34451,-63.4368
84,-706,9.40784,63.4017,0.0157365,-0.000127624,-0.011907,0.0221116,-0.00650267,-0.491568,0.0173204,0.0098308,1308,1730,9.40784,-63.4017
91,-706,9.45862,63.3561,0.012772,-6.92718e-05,-0.0119741,0.0199383,-0.00723553,-0.539301,0.0162501,0.0106984,1315,1730,9.45861,-63.3561
98,-706,9.5033,63.2843,0.009684,-0.00042662,-0.0116047,0.0172867,-0.00802932,-0.57998,0.0149384,0.014898,1322,1730,9.50335,-63.2843
105,-706,9.56067,63.2185,0.00668117,-0.000832491,-0.01114,0.0146808,-0.00883208,-0.622768,0.0137144,0.0175531,1329,1730,9.56064,-63.2185
112,-706,9.58167,63.1213,0.00399881,-0.00123827,-0.0101509,0.0118635,-0.00910294,-0.659169,0.0121399,0.0171555,1336,1730,9.58162,-63.1213
119,-706,9.62061,62.9951,0.0017691,-0.00154372,-0.00878563,0.0090531,-0.00882772,-0.692224,0.0103238,0.014747,1343,1730,9.62064,-62.9951
126,-706,9.69739,62.8141,-0.000838651,-0.0016163,-0.00658955,0.00537353,-0.00782848,-0.755929,0.00766599,0.0162123,1350,1730,9.69733,-62.8141
133,-706,9.7699,62.6095,-0.00302043,-0.00191866,-0.00481675,0.0023786,-0.00731769,-0.842335,0.00583523,0.0137432,1357,1730,9.76989,-62.6094
140,-706,9.81226,62.3917,-0.00255923,-0.00244627,-0.00397305,0.00147071,-0.0064762,-0.792506,0.00488211,0.0126868,1364,1730,9.81223,-62.3918
147,-706,9.88257,62.2041,-0.00170693,-0.00224194,-0.00354458,0.00158023,-0.00552909,-0.747735,0.00431046,0.0227327,1371,1730,9.88258,-62.2041
154,-706,9.94617,62.0389,-0.000505219,-0.00164203,-0.00293668,0.00191756,-0.0040648,-0.689803,0.0035273,0.0230556,1378,1730,9.94615,-62.0389
161,-706,9.93298,61.7712,0.000930266,-0.00069563,-0.00192158,0.00220379,-0.00196915,-0.585284,0.00241051,0.0116351,1385,1730,9.93297,-61.7712
168,-706,9.96289,61.5107,0.0022656,-0.00145634,-0.000997418,0.00251604,-0.00170678,-0.246002,0.00245293,0.0112602,1392,1730,9.96288,-61.5108
175,-706,10.0118,61.2671,0.00337408,-0.000378919,1.25652e-05,0.00337413,-0.000378961,0.00334799,0.00238579,0.0116222,1399,1730,10.0118,-61.267
182,-706,10.0104,60.9741,0.00337179,8.76715e-05,-0.000153422,0.00337894,8.05197e-05,-0.0465812,0.00222627,0.0114815,1406,1730,10.0103,-60.9742
189,-706,10.0189,60.6482,0.00378741,-4.45549e-05,-0.000260901,0.00380509,-6.22369e-05,-0.0676692,0.00255773,0.0142106,1413,1730,10.019,-60.6481
196,-706,10.041,60.3372,0.00397382,-0.000234424,-0.000231444,0.00398651,-0.000247114,-0.0547775,0.00274376,0.0124136,1420,1730,10.041,-60.3371
203,-706,10.0402,60.036,0.00342426,0.000122665,-0.000288693,0.00344931,9.7612e-05,-0.0865651,0.00226771,0.0130403,1427,1730,10.0401,-60.036
210,-706,10.0547,59.7023,0.00293066,0.000295906,-0.000424383,0.00299733,0.000229237,-0.155823,0.00192636,0.0134322,1434,1730,10.0547,-59.7023
217,-706,10.0763,59.3618,0.00244883,0.000495206,-0.000515557,0.00257654,0.0003675,-0.242818,0.00160924,0.0144488,1441,1730,10.0763,-59.3619
224,-706,10.072,58.9877,0.00197476,0.000789878,-0.000678765,0.00228327,0.000481371,-0.4266,0.00138979,0.0187831,1448,1730,10.0721,-58.9877
231,-706,10.0835,58.6005,0.00146645,0.00115518,-0.00089125,0.00221555,0.000406074,-0.698957,0.001362,0.0144402,1455,1730,10.0834,-58.6004
238,-706,10.0604,58.1936,0.00102391,0.00156149,-0.00109101,0.00241634,0.00016907,-0.906176,0.0015576,0.00945024,1462,1730,10.0604,-58.1936
245,-706,10.0591,57.7577,0.000606575,0.0019605,-0.00126667,0.00271977,-0.000152686,-1.03081,0.00186616,0.0121267,1469,1730,10.0591,-57.7577
252,-706,10.0477,57.3557,0.000143948,0.00243278,-0.00139734,0.00309453,-0.000517806,-1.12851,0.00225552,0.0122579,1476,1730,10.0478,-57.3558
259,-706,10.0199,56.9504,-0.000315121,0.00275301,-0.00159054,0.00342874,-0.000990849,-1.16906,0.00267792,0.0132915,1483,1730,10.0199,-56.9505
266,-706,9.98376,56.528,-0.000780063,0.00297875,-0.00184522,0.00373316,-0.00153448,-1.18269,0.00312834,0.0134779,1490,1730,9.9838,-56.5279
273,-706,9.97607,56.0697,-0.00124963,0.00334906,-0.00208824,0.00415579,-0.00205636,-1.20214,0.00365423,0.0131205,1497,1730,9.97613,-56.0697
280,-706,9.95679,55.5913,-0.00176312,0.00361626,-0.00228883,0.00445831,-0.00260517,-1.21827,0.00412462,0.0111815,1504,1730,9.95678,-55.5913
287,-706,9.91541,55.0908,-0.00228974,0.00391611,-0.00246539,0.0047763,-0.00314993,-1.2351,0.00460821,0.0118758,1511,1730,9.91545,-55.0908
294,-706,9.88562,54.6146,-0.00294595,0.00452125,-0.0025735,0.00532226,-0.00374696,-1.26905,0.00526238,0.0114673,1518,1730,9.88564,-54.6147
301,-706,9.85742,54.1301,-0.00371309,0.00515923,-0.00288253,0.00601348,-0.00456734,-1.28269,0.00612783,0.0106793,1525,1730,9.85746,-54.1301
308,-706,9.84045,53.6266,-0.00436612,0.00694136,-0.00310929,0.00773994,-0.0051647,-1.31939,0.00749979,0.0158134,1532,1730,9.84051,-53.6265
315,-706,9.83557,53.0648,-0.00487368,0.00895602,-0.00300684,0.00958147,-0.00549914,-1.36571,0.00881249,0.0346433,1539,1730,9.83556,-53.0648
322,-706,9.7937,52.412,-0.00544362,0.0107928,-0.00253875,0.0111806,-0.00583132,-1.41925,0.00998235,0.0410942,1546,1730,9.79365,-52.412
329,-706,9.70996,51.9749,-0.00611018,0.0132213,-0.0021584,0.0134593,-0.00634824,-1.46095,0.011679,0.0315567,1553,1730,9.70997,-51.9749
336,-706,9.60205,51.4423,-0.00655314,0.0158047,-0.00170118,0.0159334,-0.00668184,-1.49529,0.0134162,0.0391765,1560,1730,9.6021,-51.4423
343,-706,9.45288,50.7765,-0.00669875,0.018579,-0.00110315,0.018627,-0.0067468,-1.52727,0.0151754,0.0455065,1567,1730,9.45284,-50.7765
350,-706,9.37439,50.1263,0,0,0,0,0,0,0,-1,1574,1730,9.37438,-50.1263
357,-706,9.11584,48.8424,0,0,0,0,0,0,0,-1,1581,1730,9.11589,-48.8425
364,-706,8.84534,48.6202,0,0,0,0,0,0,0,-1,1588,1730,8.84536,-48.6202
371,-706,8.6084,48.7302,0,0,0,0,0,0,0,-1,1595,1730,8.60844,-48.7303
378,-706,7.63867,44.0519,0,0,0,0,0,0,0,-1,1602,1730,7.63863,-44.0519
385,-706,7.3186,43.2451,0,0,0,0,0,0,0,-1,1609,1730,7.31862,-43.2451
392,-706,7.33728,42.4652,0,0,0,0,0,0,0,-1,1616,1730,7.3373,-42.4651
399,-706,7.51855,41.7692,0,0,0,0,0,0,0,-1,1623,1730,7.51855,-41.7691
406,-706,7.46301,40.9797,0,0,0,0,0,0,0,-1,1630,1730,7.46301,-40.9797
413,-706,8.43433,40.3345,0,0,0,0,0,0,0,-1,1637,1730,8.43428,-40.3344
420,-706,8.0636,39.6101,0,0,0,0,0,0,0,-1,1644,1730,8.06362,-39.6101
427,-706,0,0,0,0,0,0,0,0,0,-1,1651,1730,0,0
434,-706,0,0,0,0,0,0,0,0,0,-1,1658,1730,0,0
441,-706,0,0,0,0,0,0,0,0,0,-1,1665,1730,0,0
448,-706,0,0,0,0,0,0,0,0,0,-1,1672,1730,0,0
455,-706,0,0,0,0,0,0,0,0,0,-1,1679,1730,0,0
462,-706,0,0,0,0,0,0,0,0,0,-1,1686,1730,0,0
469,-706,0,0,0,0,0,0,0,0,0,-1,1693,1730,0,0
476,-706,0,0,0,0,0,0,0,0,0,-1,1700,1730,0,0
483,-706,0,0,0,0,0,0,0,0,0,-1,1707,1730,0,0
490,-706,0,0,0,0,0,0,0,0,0,-1,1714,1730,0,0
497,-706,0,0,0,0,0,0,0,0,0,-1,1721,1730,0,0
504,-706,0,0,0,0,0,0,0,0,0,-1,1728,1730,0,0
511,-706,0,0,0,0,0,0,0,0,0,-1,1735,1730,0,0
518,-706,0,0,0,0,0,0,0,0,0,-1,1742,1730,0,0
525,-706,0,0,0,0,0,0,0,0,0,-1,1749,1730,0,0
532,-706,0,0,0,0,0,0,0,0,0,-1,1756,1730,0,0
539,-706,0,0,0,0,0,0,0,0,0,-1,1763,1730,0,0
546,-706,0,0,0,0,0,0,0,0,0,-1,1770,1730,0,0
553,-706,0,0,0,0,0,0,0,0,0,-1,1777,1730,0,0
560,-706,0,0,0,0,0,0,0,0,0,-1,1784,1730,0,0
567,-706,0,0,0,0,0,0,0,0,0,-1,1791,1730,0,0
574,-706,0,0,0,0,0,0,0,0,0,-1,1798,1730,0,0
581,-706,0,0,0,0,0,0,0,0,0,-1,1805,1730,0,0
588,-706,0,0,0,0,0,0,0,0,0,-1,1812,1730,0,0
595,-706,0,0,0,0,0,0,0,0,0,-1,1819,1730,0,0
602,-706,0,0,0,0,0,0,0,0,0,-1,1826,1730,0,0
609,-706,0,0,0,0,0,0,0,0,0,-1,1833,1730,0,0
616,-706,0,0,0,0,0,0,0,0,0,-1,1840,1730,0,0
623,-706,0,0,0,0,0,0,0,0,0,-1,1847,1730,0,0
630,-706,0,0,0,0,0,0,0,0,0,-1,1854,1730,0,0
637,-706,0,0,0,0,0,0,0,0,0,-1,1861,1730,0,0
644,-706,0,0,0,0,0,0,0,0,0,-1,1868,1730,0,0
651,-706,0,0,0,0,0,0,0,0,0,-1,1875,1730,0,0
658,-706,0,0,0,0,0,0,0,0,0,-1,1882,1730,0,0
665,-706,0,0,0,0,0,0,0,0,0,-1,1889,1730,0,0
672,-706,0,0,0,0,0,0,0,0,0,-1,1896,1730,0,0
679,-706,0,0,0,0,0,0,0,0,0,-1,1903,1730,0,0
686,-706,0,0,0,0,0,0,0,0,0,-1,1910,1730,0,0
693,-706,0,0,0,0,0,0,0,0,0,-1,1917,1730,0,0
700,-706,0,0,0,0,0,0,0,0,0,-1,1924,1730,0,0
707,-706,0,0,0,0,0,0,0,0,0,-1,1931,1730,0,0
714,-706,0,0,0,0,0,0,0,0,0,-1,1938,1730,0,0
721,-706,0,0,0,0,0,0,0,0,0,-1,1945,1730,0,0
728,-706,0,0,0,0,0,0,0,0,0,-1,1952,1730,0,0
735,-706,0,0,0,0,0,0,0,0,0,-1,1959,1730,0,0
742,-706,0,0,0,0,0,0,0,0,0,-1,1966,1730,0,0
749,-706,0,0,0,0,0,0,0,0,0,-1,1973,1730,0,0
756,-706,0,0,0,0,0,0,0,0,0,-1,1980,1730,0,0
763,-706,0,0,0,0,0,0,0,0,0,-1,1987,1730,0,0
770,-706,0,0,0,0,0,0,0,0,0,-1,1994,1730,0,0
777,-706,0,0,0,0,0,0,0,0,0,-1,2001,1730,0,0
784,-706,0,0,0,0,0,0,0,0,0,-1,2008,1730,0,0
791,-706,0,0,0,0,0,0,0,0,0,-1,2015,1730,0,0
798,-706,0,0,0,0,0,0,0,0,0,-1,2022,1730,0,0
805,-706,0,0,0,0,0,0,0,0,0,-1,2029,1730,0,0
812,-706,0,0,0,0,0,0,0,0,0,-1,2036,1730,0,0
-700,-713,0,0,0,0,0,0,0,0,0,-1,524,1737,0,0
-693,-713,0,0,0,0,0,0,0,0,0,-1,531,1737,0,0
-686,-713,0,0,0,0,0,0,0,0,0,-1,538,1737,0,0
-679,-713,0,0,0,0,0,0,0,0,0,-1,545,1737,0,0
-672,-713,0,0,0,0,0,0,0,0,0,-1,552,1737,0,0
-665,-713,0,0,0,0,0,0,0,0,0,-1,559,1737,0,0
-658,-713,0,0,0,0,0,0,0,0,0,-1,566,1737,0,0
-651,-713,0,0,0,0,0,0,0,0,0,-1,573,1737,0,0
-644,-713,0,0,0,0,0,0,0,0,0,-1,580,1737,0,0
-637,-713,0,0,0,0,0,0,0,0,0,-1,587,1737,0,0
-630,-713,0,0,0,0,0,0,0,0,0,-1,594,1737,0,0
-623,-713,0,0,0,0,0,0,0,0,0,-1,601,1737,0,0
-616,-713,0,0,0,0,0,0,0,0,0,-1,608,1737,0,0
-609,-713,0,0,0,0,0,0,0,0,0,-1,615,1737,0,0
-602,-713,0,0,0,0,0,0,0,0,0,-1,622,1737,0,0
-595,-713,0,0,0,0,0,0,0,0,0,-1,629,1737,0,0
-588,-713,0,0,0,0,0,0,0,0,0,-1,636,1737,0,0
-581,-713,0,0,0,0,0,0,0,0,0,-1,643,1737,0,0
-574,-713,0,0,0,0,0,0,0,0,0,-1,650,1737,0,0
-567,-713,0,0,0,0,0,0,0,0,0,-1,657,1737,0,0
-560,-713,0,0,0,0,0,0,0,0,0,-1,664,1737,0,0
-553,-713,0,0,0,0,0,0,0,0,0,-1,671,1737,0,0
-546,-713,0,0,0,0,0,0,0,0,0,-1,678,1737,0,0
-539,-713,0,0,0,0,0,0,0,0,0,-1,685,1737,0,0
-532,-713,0,0,0,0,0,0,0,0,0,-1,692,1737,0,0
-525,-713,0,0,0,0,0,0,0,0,0,-1,699,1737,0,0
-518,-713,0,0,0,0,0,0,0,0,0,-1,706,1737,0,0
-511,-713,0,0,0,0,0,0,0,0,0,-1,713,1737,0,0
-504,-713,0,0,0,0,0,0,0,0,0,-1,720,1737,0,0
-497,-713,0,0,0,0,0,0,0,0,0,-1,727,1737,0,0
-490,-713,0,0,0,0,0,0,0,0,0,-1,734,1737,0,0
-483,-713,0,0,0,0,0,0,0,0,0,-1,741,1737,0,0
-476,-713,0,0,0,0,0,0,0,0,0,-1,748,1737,0,0
-469,-713,0,0,0,0,0,0,0,0,0,-1,755,1737,0,0
-462,-713,0,0,0,0,0,0,0,0,0,-1,762,1737,0,0
-455,-713,0,0,0,0,0,0,0,0,0,-1,769,1737,0,0
-448,-713,0,0,0,0,0,0,0,0,0,-1,776,1737,0,0
-441,-713,0,0,0,0,0,0,0,0,0,-1,783,1737,0,0
-434,-713,0,0,0,0,0,0,0,0,0,-1,790,1737,0,0
-427,-713,0,0,0,0,0,0,0,0,0,-1,797,1737,0,0
-420,-713,0,0,0,0,0,0,0,0,0,-1,804,1737,0,0
-413,-713,0,0,0,0,0,0,0,0,0,-1,811,1737,0,0
-406,-713,0,0,0,0,0,0,0,0,0,-1,818,1737,0,0
-399,-713,0,0,0,0,0,0,0,0,0,-1,825,1737,0,0
-392,-713,0,0,0,0,0,0,0,0,0,-1,832,1737,0,0
-385,-713,0,0,0,0,0,0,0,0,0,-1,839,1737,0,0
-378,-713,0,0,0,0,0,0,0,0,0,-1,846,1737,0,0
-371,-713,0,0,0,0,0,0,0,0,0,-1,853,1737,0,0
-364,-713,0,0,0,0,0,0,0,0,0,-1,860,1737,0,0
-357,-713,0,0,0,0,0,0,0,0,0,-1,867,1737,0,0
-350,-713,0,0,0,0,0,0,0,0,0,-1,874,1737,0,0
-343,-713,0,0,0,0,0,0,0,0,0,-1,881,1737,0,0
-336,-713,0,0,0,0,0,0,0,0,0,-1,888,1737,0,0
-329,-713,0,0,0,0,0,0,0,0,0,-1,895,1737,0,0
-322,-713,0,0,0,0,0,0,0,0,0,-1,902,1737,0,0
-315,-713,0,0,0,0,0,0,0,0,0,-1,909,1737,0,0
-308,-713,0,0,0,0,0,0,0,0,0,-1,916,1737,0,0
-301,-713,0,0,0,0,0,0,0,0,0,-1,923,1737,0,0
-294,-713,7.17883,22.0453,0,0,0,0,0,0,0,-1,930,1737,7.17881,-22.0453
-287,-713,11.8916,21.5834,0,0,0,0,0,0,0,-1,937,1737,11.8916,-21.5833
-280,-713,10.2786,21.3551,0,0,0,0,0,0,0,-1,944,1737,10.2787,-21.3551
-273,-713,11.1981,23.8683,0,0,0,0,0,0,0,-1,951,1737,11.198,-23.8683
-266,-713,3.17981,19.8851,0,0,0,0,0,0,0,-1,958,1737,3.17983,-19.8851
-259,-713,3.5921,19.6868,0,0,0,0,0,0,0,-1,965,1737,3.59207,-19.6868
-252,-713,4.55469,20.5758,0,0,0,0,0,0,0,-1,972,1737,4.55466,-20.5758
-245,-713,3.89014,25.9825,0,0,0,0,0,0,0,-1,979,1737,3.89013,-25.9826
-238,-713,6.62506,30.5463,0,0,0,0,0,0,0,-1,986,1737,6.62509,-30.5462
-231,-713,9.64392,50.2814,0,0,0,0,0,0,0,-1,993,1737,9.64392,-50.2814
-224,-713,9.62146,50.7321,0,0,0,0,0,0,0,-1,1000,1737,9.62147,-50.7321
-217,-713,9.5592,51.0483,0,0,0,0,0,0,0,-1,1007,1737,9.55923,-51.0484
-210,-713,9.25116,51.4484,0,0,0,0,0,0,0,-1,1014,1737,9.25114,-51.4484
-203,-713,9.27283,52.127,0,0,0,0,0,0,0,-1,1021,1737,9.27281,-52.1269
-196,-713,9.30212,52.6168,-0.00436356,0.000401608,0.00330141,0.00209039,-0.00605235,1.09796,0.00488319,0.0475159,1028,1737,9.30207,-52.6168
-189,-713,9.18408,53.0485,-0.00272381,0.00031921,0.00362285,0.00272708,-0.00513168,0.984202,0.00460751,0.0419577,1035,1737,9.18413,-53.0484
-182,-713,9.08203,53.583,-0.00164092,4.70456e-05,0.00372295,0.00302048,-0.00461436,0.896863,0.00443988,0.0283474,1042,1737,9.08204,-53.583
-175,-713,9.17297,54.191,-0.000905611,-2.4017e-05,0.00370521,0.00326653,-0.00419615,0.844603,0.00431971,0.0232859,1049,1737,9.17298,-54.191
-168,-713,9.23877,54.7452,-0.000566856,5.30116e-05,0.00351901,0.00327571,-0.00378955,0.829322,0.00408272,0.0260867,1056,1737,9.23873,-54.7453
-161,-713,9.0697,55.2958,-0.000769902,0.00025008,0.00321161,0.00299194,-0.00351176,0.864139,0.00375891,0.0136432,1063,1737,9.06975,-55.2957
-154,-713,9.00549,55.7684,-0.00112907,0.000462765,0.00291349,0.0026871,-0.00335341,0.918737,0.00349455,0.0119461,1070,1737,9.00551,-55.7684
-147,-713,8.96887,56.2638,-0.00142818,0.000716317,0.00263823,0.00249187,-0.00320373,0.978416,0.0032969,0.0206429,1077,1737,8.96882,-56.2637
-140,-713,8.95776,56.751,-0.00152661,0.00103108,0.00243778,0.00250509,-0.00300062,1.02696,0.00318302,0.0211008,1084,1737,8.95776,-56.751
-133,-713,8.89087,57.1512,-0.00152695,0.00126508,0.0022429,0.00251093,-0.0027728,1.06377,0.00305181,0.0130676,1091,1737,8.89086,-57.1512
-126,-713,8.875,57.5526,-0.00189741,0.00200204,0.00197884,0.00283031,-0.00272568,1.17439,0.00320794,0.019198,1098,1737,8.87499,-57.5526
-119,-713,8.85864,57.9481,-0.00190403,0.00219768,0.00196898,0.00298987,-0.00269621,1.18828,0.00328432,0.0294493,1105,1737,8.85867,-57.9482
-112,-713,8.81982,58.3873,-0.00134272,0.0024849,0.00199155,0.00333314,-0.00219096,1.16815,0.00321198,0.015568,1112,1737,8.8198,-58.3873
-105,-713,8.82739,58.7793,-0.000798276,0.0025225,0.00184297,0.00334272,-0.0016185,1.15206,0.00292145,0.0116682,1119,1737,8.82735,-58.7793
-98,-713,8.81189,59.1791,-0.000469614,0.00252181,0.00173746,0.00331868,-0.00126648,1.14078,0.0027342,0.0103056,1126,1737,8.8119,-59.1791
-91,-713,8.76843,59.5404,-9.81125e-05,0.00251453,0.00159373,0.0032689,-0.000852486,1.12871,0.00251211,0.0104618,1133,1737,8.76843,-59.5404
-84,-713,8.73914,59.8849,0.000328065,0.00237732,0.0013747,0.00306723,-0.000361852,1.10566,0.0021755,0.0101146,1140,1737,8.73908,-59.8848
-77,-713,8.7511,60.2369,0.000684275,0.00220891,0.00113133,0.00281079,8.23995e-05,1.08187,0.00184701,0.0133614,1147,1737,8.75106,-60.237
-70,-713,8.76489,60.5532,0.000944432,0.00189864,0.000816042,0.00236682,0.000476258,1.04993,0.00144552,0.0150599,1154,1737,8.76486,-60.5532
-63,-713,8.75427,60.8438,0.00131351,0.00146588,0.000751066,0.00214462,0.000634778,0.835942,0.00127209,0.0132985,1161,1737,8.75433,-60.8438
-56,-713,8.76794,61.1317,0.00172171,0.000917601,0.000815489,0.00222887,0.000410442,0.556373,0.00136975,0.0134798,1168,1737,8.76793,-61.1317
-49,-713,8.74414,61.41,0.00201783,0.000600468,0.000887383,0.00244479,0.000173509,0.448449,0.00157521,0.0167461,1175,1737,8.74411,-61.4101
-42,-713,8.7478,61.6616,0.00227031,0.000398813,0.00114125,0.00281039,-0.000141272,0.44201,0.00192242,0.019487,1182,1737,8.7478,-61.6616
-35,-713,8.78906,61.8695,0.00259501,0.000116969,0.00142831,0.00324682,-0.000534843,0.428123,0.00236309,0.015565,1189,1737,8.78901,-61.8695
-28,-713,8.81189,62.1178,0.00287817,-0.000306022,0.00171535,0.00362642,-0.00105427,0.411323,0.00283514,0.0155371,1196,1737,8.81193,-62.1178
-21,-713,8.80225,62.3208,0.00310743,-0.000747011,0.00201608,0.00396925,-0.00160884,0.403965,0.00331523,0.0117384,1203,1737,8.80227,-62.3207
-14,-713,8.82336,62.4998,0.00338127,-0.00117781,0.00237728,0.00439533,-0.00219186,0.403191,0.00387339,0.0122775,1210,1737,8.82335,-62.4998
-7,-713,8.87134,62.6835,0.00364099,-0.00153067,0.00265291,0.00475981,-0.00264949,0.399101,0.00433521,0.00991636,1217,1737,8.8713,-62.6835
0,-713,8.9187,62.8367,0.00387027,-0.00162733,0.00305901,0.00523407,-0.00299112,0.41938,0.00480731,0.0148655,1224,1737,8.91873,-62.8366
7,-713,8.92969,62.9867,0.00407232,-0.00171483,0.00345084,0.0056822,-0.00332471,0.436504,0.00525918,0.0177785,1231,1737,8.92971,-62.9867
14,-713,8.92981,63.1233,0.00428767,-0.00182266,0.00375188,0.00607096,-0.00360596,0.443698,0.00564707,0.013353,1238,1737,8.92978,-63.1232
21,-713,8.9895,63.2205,0.00569345,-0.00183821,0.00273823,0.00658374,-0.0027285,0.31435,0.00552787,0.0117348,1245,1737,8.98951,-63.2204
28,-713,9.03162,63.321,0.00810432,-0.00231705,0.00150116,0.00831624,-0.00252897,0.140249,0.00655192,0.0126544,1252,1737,9.03167,-63.321
35,-713,9.07031,63.3986,0.00973744,-0.00243128,0.000504068,0.00975828,-0.00245212,0.0413289,0.00745849,0.0125612,1259,1737,9.07029,-63.3986
42,-713,9.13489,63.4573,0.0113785,-0.00238589,-0.000778562,0.0114224,-0.00242979,-0.0563241,0.00854085,0.0117448,1266,1737,9.13491,-63.4573
49,-713,9.18005,63.4255,0.0126468,-0.00280017,-0.00221273,0.0129575,-0.00311089,-0.13951,0.00984059,0.0144812,1273,1737,9.18,-63.4255
56,-713,9.19446,63.4181,0.0134976,-0.00363924,-0.00370467,0.0142642,-0.00440583,-0.204046,0.0112689,0.0170722,1280,1737,9.19445,-63.4181
63,-713,9.22925,63.4991,0.0138686,-0.00394457,-0.00513093,0.0152408,-0.00531678,-0.261323,0.0123213,0.0152073,1287,1737,9.22925,-63.4991
70,-713,9.26685,63.5112,0.0134209,-0.0043805,-0.00627343,0.0154096,-0.00636917,-0.306978,0.01293,0.0121143,1294,1737,9.26688,-63.5112
77,-713,9.30994,63.4858,0.0126978,-0.00479916,-0.00703025,0.0151725,-0.00727389,-0.338466,0.0132242,0.0125426,1301,1737,9.30999,-63.4859
84,-713,9.34058,63.4503,0.0112996,-0.00517146,-0.00728056,0.0140564,-0.00792822,-0.361964,0.0128561,0.0126004,1308,1737,9.34062,-63.4503
91,-713,9.35986,63.381,0.00957869,-0.00542145,-0.00726689,0.0125217,-0.0083645,-0.384804,0.012138,0.0124507,1315,1737,9.35981,-63.381
98,-713,9.39648,63.2837,0.0077588,-0.00576116,-0.00699518,0.0107266,-0.00872897,-0.401247,0.0112524,0.0125583,1322,1737,9.39652,-63.2837
105,-713,9.43518,63.2014,0.00601903,-0.00602858,-0.00668842,0.00899641,-0.00900595,-0.418816,0.0103937,0.015142,1329,1737,9.4352,-63.2014
112,-713,9.47107,63.1136,0.00446281,-0.00609973,-0.00606386,0.00722282,-0.00885974,-0.427135,0.00930129,0.0153443,1336,1737,9.47106,-63.1137
119,-713,9.49158,62.9966,0.00317328,-0.00598027,-0.00515539,0.00549034,-0.00829733,-0.422391,0.00801512,0.015792,1343,1737,9.49154,-62.9966
126,-713,9.52063,62.8601,0.00157191,-0.00580827,-0.00361262,0.0030459,-0.00728227,-0.387395,0.0061279,0.0155659,1350,1737,9.52061,-62.8601
133,-713,9.5553,62.6578,0.00025287,-0.00510617,-0.00257387,0.00128881,-0.0061421,-0.382645,0.00458512,0.0137035,1357,1737,9.5553,-62.6578
140,-713,9.60632,62.4077,0.000690156,-0.00462721,-0.00216795,0.00146201,-0.00539906,-0.342038,0.00417298,0.0138658,1364,1737,9.60633,-62.4077
147,-713,9.63501,62.1831,0.00115963,-0.00413622,-0.00181875,0.00172409,-0.00470067,-0.300926,0.00383974,0.0141853,1371,1737,9.63498,-62.1831
154,-713,9.64587,62.0411,0.00174508,-0.00324089,-0.00139792,0.00211027,-0.00360608,-0.255527,0.00333778,0.0138017,1378,1737,9.6459,-62.0411
161,-713,9.66565,61.7706,0.00234207,-0.00213804,-0.000825182,0.00248923,-0.0022852,-0.176475,0.00275736,0.010514,1385,1737,9.66562,-61.7707
168,-713,9.69312,61.4978,0.0027082,-0.0018236,-0.000399928,0.00274323,-0.00185862,-0.0873495,0.00267319,0.0110475,1392,1737,9.69311,-61.4978
175,-713,9.71582,61.2462,0.00292513,-0.000908941,-2.096e-05,0.00292525,-0.000909056,-0.00546655,0.0023135,0.0149354,1399,1737,9.71581,-61.2462
182,-713,9.72156,60.9883,0.00253038,-0.000263571,-0.000249463,0.00255247,-0.00028567,-0.0883556,0.00180443,0.0128138,1406,1737,9.7215,-60.9883
189,-713,9.71472,60.6661,0.00219694,0.000208513,-0.000487258,0.00230992,9.55317e-05,-0.227846,0.00150911,0.0115582,1413,1737,9.71472,-60.6662
196,-713,9.73157,60.3541,0.00184213,0.000531652,-0.000676968,0.00212902,0.000244752,-0.400854,0.00134521,0.0129584,1420,1737,9.73161,-60.3541
203,-713,9.73914,60.0579,0.00141133,0.000971422,-0.000836895,0.00205669,0.00032606,-0.656893,0.0012764,0.0171772,1427,1737,9.73916,-60.0578
210,-713,9.72766,59.691,0.00102869,0.00141012,-0.00102009,0.00225718,0.000181641,-0.87781,0.00144804,0.0152261,1434,1737,9.72767,-59.691
217,-713,9.72571,59.3289,0.000671354,0.00182836,-0.00116525,0.00255081,-5.10945e-05,-1.0158,0.00171782,0.0122827,1441,1737,9.72573,-59.3288
224,-713,9.71033,58.9897,0.000352807,0.00226549,-0.00139158,0.00299766,-0.000379364,-1.08645,0.00213615,0.0125499,1448,1737,9.71028,-58.9898
231,-713,9.70422,58.6278,-5.66066e-05,0.00273025,-0.00159608,0.00345558,-0.00078193,-1.14426,0.00260379,0.0122065,1455,1737,9.70425,-58.6278
238,-713,9.67773,58.2153,-0.000422853,0.00317971,-0.00177362,0.00390634,-0.00114948,-1.18197,0.00306022,0.00920012,1462,1737,9.67776,-58.2154
245,-713,9.67102,57.802,-0.000797382,0.00357721,-0.0019635,0.00432923,-0.0015494,-1.20503,0.00351824,0.0120881,1469,1737,9.67101,-57.8019
252,-713,9.6582,57.3748,-0.0012327,0.00403794,-0.00210698,0.00477668,-0.00197144,-1.23357,0.00400667,0.0129996,1476,1737,9.65823,-57.3747
259,-713,9.63428,56.9377,-0.00163145,0.00431201,-0.00227493,0.0050828,-0.00240224,-1.24412,0.0044129,0.0128654,1483,1737,9.63427,-56.9378
266,-713,9.57471,56.5245,-0.00206971,0.00450092,-0.00249798,0.00534274,-0.00291152,-1.24575,0.00483402,0.0113544,1490,1737,9.57472,-56.5245
273,-713,9.53271,56.0811,-0.00255399,0.00486141,-0.00275516,0.00577301,-0.0034656,-1.25126,0.00538908,0.00956747,1497,1737,9.53269,-56.0811
280,-713,9.5022,55.6128,-0.00308513,0.0051204,-0.002958,0.00607554,-0.00404028,-1.25846,0.00587964,0.0109851,1504,1737,9.50219,-55.6128
287,-713,9.47144,55.1127,-0.00364233,0.00544602,-0.00315009,0.0064311,-0.00462741,-1.26772,0.00641288,0.0119003,1511,1737,9.47146,-55.1126
294,-713,9.43567,54.6123,-0.00437047,0.00617548,-0.00325475,0.00709909,-0.00529408,-1.29429,0.00718045,0.0203018,1518,1737,9.4357,-54.6123
301,-713,9.28528,54.0258,-0.00522826,0.00693917,-0.00359961,0.00792431,-0.0062134,-1.30366,0.00818231,0.0344522,1525,1737,9.28525,-54.0258
308,-713,9.32739,53.5754,0,0,0,0,0,0,0,-1,1532,1737,9.32742,-53.5755
315,-713,9.28137,52.8381,0,0,0,0,0,0,0,-1,1539,1737,9.28135,-52.8381
322,-713,9.25549,52.2838,0,0,0,0,0,0,0,-1,1546,1737,9.25548,-52.2838
329,-713,9.30786,51.9371,0,0,0,0,0,0,0,-1,1553,1737,9.30792,-51.9371
336,-713,9.23804,51.4723,0,0,0,0,0,0,0,-1,1560,1737,9.23803,-51.4723
343,-713,8.44263,50.7002,0,0,0,0,0,0,0,-1,1567,1737,8.44257,-50.7001
350,-713,8.63867,47.4143,0,0,0,0,0,0,0,-1,1574,1737,8.6387,-47.4143
357,-713,8.53796,49.5679,0,0,0,0,0,0,0,-1,1581,1737,8.53795,-49.5679
364,-713,7.52661,46.5348,0,0,0,0,0,0,0,-1,1588,1737,7.52664,-46.5347
371,-713,7.3302,45.0861,0,0,0,0,0,0,0,-1,1595,1737,7.33021,-45.0861
378,-713,6.73975,44.3853,0,0,0,0,0,0,0,-1,1602,1737,6.7397,-44.3853
385,-713,6.58777,43.6438,0,0,0,0,0,0,0,-1,1609,1737,6.58781,-43.6438
392,-713,6.62964,42.8679,0,0,0,0,0,0,0,-1,1616,1737,6.62968,-42.868
399,-713,6.53748,42.0555,0,0,0,0,0,0,0,-1,1623,1737,6.53749,-42.0555
406,-713,2.49878,27.8931,0,0,0,0,0,0,0,-1,1630,1737,2.49884,-27.893
413,-713,1.36597,29.459,0,0,0,0,0,0,0,-1,1637,1737,1.36593,-29.459
420,-713,0,0,0,0,0,0,0,0,0,-1,1644,1737,0,0
427,-713,0,0,0,0,0,0,0,0,0,-1,1651,1737,0,0
434,-713,0,0,0,0,0,0,0,0,0,-1,1658,1737,0,0
441,-713,0,0,0,0,0,0,0,0,0,-1,1665,1737,0,0
448,-713,0,0,0,0,0,0,0,0,0,-1,1672,1737,0,0
455,-713,0,0,0,0,0,0,0,0,0,-1,1679,1737,0,0
462,-713,0,0,0,0,0,0,0,0,0,-1,1686,1737,0,0
469,-713,0,0,0,0,0,0,0,0,0,-1,1693,1737,0,0
476,-713,0,0,0,0,0,0,0,0,0,-1,1700,1737,0,0
483,-713,0,0,0,0,0,0,0,0,0,-1,1707,1737,0,0
490,-713,0,0,0,0,0,0,0,0,0,-1,1714,1737,0,0
497,-713,0,0,0,0,0,0,0,0,0,-1,1721,1737,0,0
504,-713,0,0,0,0,0,0,0,0,0,-1,1728,1737,0,0
511,-713,0,0,0,0,0,0,0,0,0,-1,1735,1737,0,0
518,-713,0,0,0,0,0,0,0,0,0,-1,1742,1737,0,0
525,-713,0,0,0,0,0,0,0,0,0,-1,1749,1737,0,0
532,-713,0,0,0,0,0,0,0,0,0,-1,1756,1737,0,0
539,-713,0,0,0,0,0,0,0,0,0,-1,1763,1737,0,0
546,-713,0,0,0,0,0,0,0,0,0,-1,1770,1737,0,0
553,-713,0,0,0,0,0,0,0,0,0,-1,1777,1737,0,0
560,-713,0,0,0,0,0,0,0,0,0,-1,1784,1737,0,0
567,-713,0,0,0,0,0,0,0,0,0,-1,1791,1737,0,0
574,-713,0,0,0,0,0,0,0,0,0,-1,1798,1737,0,0
581,-713,0,0,0,0,0,0,0,0,0,-1,1805,1737,0,0
588,-713,0,0,0,0,0,0,0,0,0,-1,1812,1737,0,0
595,-713,0,0,0,0,0,0,0,0,0,-1,1819,1737,0,0
602,-713,0,0,0,0,0,0,0,0,0,-1,1826,1737,0,0
609,-713,0,0,0,0,0,0,0,0,0,-1,1833,1737,0,0
616,-713,0,0,0,0,0,0,0,0,0,-1,1840,1737,0,0
623,-713,0,0,0,0,0,0,0,0,0,-1,1847,1737,0,0
630,-713,0,0,0,0,0,0,0,0,0,-1,1854,1737,0,0
637,-713,0,0,0,0,0,0,0,0,0,-1,1861,1737,0,0
644,-713,0,0,0,0,0,0,0,0,0,-1,1868,1737,0,0
651,-713,0,0,0,0,0,0,0,0,0,-1,1875,1737,0,0
658,-713,0,0,0,0,0,0,0,0,0,-1,1882,1737,0,0
665,-713,0,0,0,0,0,0,0,0,0,-1,1889,1737,0,0
672,-713,0,0,0,0,0,0,0,0,0,-1,1896,1737,0,0
679,-713,0,0,0,0,0,0,0,0,0,-1,1903,1737,0,0
686,-713,0,0,0,0,0,0,0,0,0,-1,1910,1737,0,0
693,-713,0,0,0,0,0,0,0,0,0,-1,1917,1737,0,0
700,-713,0,0,0,0,0,0,0,0,0,-1,1924,1737,0,0
707,-713,0,0,0,0,0,0,0,0,0,-1,1931,1737,0,0
714,-713,0,0,0,0,0,0,0,0,0,-1,1938,1737,0,0
721,-713,0,0,0,0,0,0,0,0,0,-1,1945,1737,0,0
728,-713,0,0,0,0,0,0,0,0,0,-1,1952,1737,0,0
735,-713,0,0,0,0,0,0,0,0,0,-1,1959,1737,0,0
742,-713,0,0,0,0,0,0,0,0,0,-1,1966,1737,0,0
749,-713,0,0,0,0,0,0,0,0,0,-1,1973,1737,0,0
756,-713,0,0,0,0,0,0,0,0,0,-1,1980,1737,0,0
763,-713,0,0,0,0,0,0,0,0,0,-1,1987,1737,0,0
770,-713,0,0,0,0,0,0,0,0,0,-1,1994,1737,0,0
777,-713,0,0,0,0,0,0,0,0,0,-1,2001,1737,0,0
784,-713,0,0,0,0,0,0,0,0,0,-1,2008,1737,0,0
791,-713,0,0,0,0,0,0,0,0,0,-1,2015,1737,0,0
798,-713,0,0,0,0,0,0,0,0,0,-1,2022,1737,0,0
805,-713,0,0,0,0,0,0,0,0,0,-1,2029,1737,0,0
812,-713,0,0,0,0,0,0,0,0,0,-1,2036,1737,0,0
-700,-720,0,0,0,0,0,0,0,0,0,-1,524,1744,0,0
-693,-720,0,0,0,0,0,0,0,0,0,-1,531,1744,0,0
-686,-720,0,0,0,0,0,0,0,0,0,-1,538,1744,0,0
-679,-720,0,0,0,0,0,0,0,0,0,-1,545,1744,0,0
-672,-720,0,0,0,0,0,0,0,0,0,-1,552,1744,0,0
-665,-720,0,0,0,0,0,0,0,0,0,-1,559,1744,0,0
-658,-720,0,0,0,0,0,0,0,0,0,-1,566,1744,0,0
-651,-720,0,0,0,0,0,0,0,0,0,-1,573,1744,0,0
-644,-720,0,0,0,0,0,0,0,0,0,-1,580,1744,0,0
-637,-720,0,0,0,0,0,0,0,0,0,-1,587,1744,0,0
-630,-720,0,0,0,0,0,0,0,0,0,-1,594,1744,0,0
-623,-720,0,0,0,0,0,0,0,0,0,-1,601,1744,0,0
-616,-720,0,0,0,0,0,0,0,0,0,-1,608,1744,0,0
-609,-720,0,0,0,0,0,0,0,0,0,-1,615,1744,0,0
-602,-720,0,0,0,0,0,0,0,0,0,-1,622,1744,0,0
-595,-720,0,0,0,0,0,0,0,0,0,-1,629,1744,0,0
-588,-720,0,0,0,0,0,0,0,0,0,-1,636,1744,0,0
-581,-720,0,0,0,0,0,0,0,0,0,-1,643,1744,0,0
-574,-720,0,0,0,0,0,0,0,0,0,-1,650,1744,0,0
-567,-720,0,0,0,0,0,0,0,0,0,-1,657,1744,0,0
-560,-720,0,0,0,0,0,0,0,0,0,-1,664,1744,0,0
-553,-720,0,0,0,0,0,0,0,0,0,-1,671,1744,0,0
-546,-720,0,0,0,0,0,0,0,0,0,-1,678,1744,0,0
-539,-720,0,0,0,0,0,0,0,0,0,-1,685,1744,0,0
-532,-720,0,0,0,0,0,0,0,0,0,-1,692,1744,0,0
-525,-720,0,0,0,0,0,0,0,0,0,-1,699,1744,0,0
-518,-720,0,0,0,0,0,0,0,0,0,-1,706,1744,0,0
-511,-720,0,0,0,0,0,0,0,0,0,-1,713,1744,0,0
-504,-720,0,0,0,0,0,0,0,0,0,-1,720,1744,0,0
-497,-720,0,0,0,0,0,0,0,0,0,-1,727,1744,0,0
-490,-720,0,0,0,0,0,0,0,0,0,-1,734,1744,0,0
-483,-720,0,0,0,0,0,0,0,0,0,-1,741,1744,0,0
-476,-720,0,0,0,0,0,0,0,0,0,-1,748,1744,0,0
-469,-720,0,0,0,0,0,0,0,0,0,-1,755,1744,0,0
-462,-720,0,0,0,0,0,0,0,0,0,-1,762,1744,0,0
-455,-720,0,0,0,0,0,0,0,0,0,-1,769,1744,0,0
-448,-720,0,0,0,0,0,0,0,0,0,-1,776,1744,0,0
-441,-720,0,0,0,0,0,0,0,0,0,-1,783,1744,0,0
-434,-720,0,0,0,0,0,0,0,0,0,-1,790,1744,0,0
-427,-720,0,0,0,0,0,0,0,0,0,-1,797,1744,0,0
-420,-720,0,0,0,0,0,0,0,0,0,-1,804,1744,0,0
-413,-720,0,0,0,0,0,0,0,0,0,-1,811,1744,0,0
-406,-720,0,0,0,0,0,0,0,0,0,-1,818,1744,0,0
-399,-720,0,0,0,0,0,0,0,0,0,-1,825,1744,0,0
-392,-720,0,0,0,0,0,0,0,0,0,-1,832,1744,0,0
-385,-720,0,0,0,0,0,0,0,0,0,-1,839,1744,0,0
-378,-720,0,0,0,0,0,0,0,0,0,-1,846,1744,0,0
-371,-720,0,0,0,0,0,0,0,0,0,-1,853,1744,0,0
-364,-720,0,0,0,0,0,0,0,0,0,-1,860,1744,0,0
-357,-720,0,0,0,0,0,0,0,0,0,-1,867,1744,0,0
-350,-720,0,0,0,0,0,0,0,0,0,-1,874,1744,0,0
-343,-720,0,0,0,0,0,0,0,0,0,-1,881,1744,0,0
-336,-720,0,0,0,0,0,0,0,0,0,-1,888,1744,0,0
-329,-720,0,0,0,0,0,0,0,0,0,-1,895,1744,0,0
-322,-720,0,0,0,0,0,0,0,0,0,-1,902,1744,0,0
-315,-720,0,0,0,0,0,0,0,0,0,-1,909,1744,0,0
-308,-720,0,0,0,0,0,0,0,0,0,-1,916,1744,0,0
-301,-720,0,0,0,0,0,0,0,0,0,-1,923,1744,0,0
-294,-720,0,0,0,0,0,0,0,0,0,-1,930,1744,0,0
-287,-720,0,0,0,0,0,0,0,0,0,-1,937,1744,0,0
-280,-720,6.46796,22.6417,0,0,0,0,0,0,0,-1,944,1744,6.46793,-22.6417
-273,-720,8.54633,13.262,0,0,0,0,0,0,0,-1,951,1744,8.54636,-13.2619
-266,-720,7.28027,13.3165,0,0,0,0,0,0,0,-1,958,1744,7.28026,-13.3166
-259,-720,3.70563,18.6372,0,0,0,0,0,0,0,-1,965,1744,3.70564,-18.6372
-252,-720,4.00989,18.5059,0,0,0,0,0,0,0,-1,972,1744,4.00988,-18.5058
-245,-720,7.05634,33.8489,0,0,0,0,0,0,0,-1,979,1744,7.05634,-33.8489
-238,-720,5.02216,24.1455,0,0,0,0,0,0,0,-1,986,1744,5.02217,-24.1455
-231,-720,9.45819,50.8396,0,0,0,0,0,0,0,-1,993,1744,9.45816,-50.8396
-224,-720,9.58673,51.2256,0,0,0,0,0,0,0,-1,1000,1744,9.58673,-51.2256
-217,-720,9.71533,51.6116,0,0,0,0,0,0,0,-1,1007,1744,9.7153,-51.6116
-210,-720,8.74036,38.6686,0,0,0,0,0,0,0,-1,1014,1744,8.74035,-38.6686
-203,-720,10.1962,49.0282,0,0,0,0,0,0,0,-1,1021,1744,10.1962,-49.0282
-196,-720,9.74915,52.7352,0,0,0,0,0,0,0,-1,1028,1744,9.74912,-52.7352
-189,-720,9.63916,53.1019,0,0,0,0,0,0,0,-1,1035,1744,9.63912,-53.1019
-182,-720,9.25366,53.9873,-0.000553956,-0.000484957,0.00466472,0.00414539,-0.0051843,0.789096,0.00539762,0.0459556,1042,1744,9.25366,-53.9873
-175,-720,9.69971,54.2944,-1.93856e-05,-0.000389821,0.00466117,0.00446025,-0.00486946,0.76554,0.00538823,0.0434551,1049,1744,9.69965,-54.2944
-168,-720,9.73132,54.757,4.05944e-05,-0.00010418,0.00445298,0.00442177,-0.00448536,0.777271,0.00514258,0.0391556,1056,1744,9.73137,-54.7569
-161,-720,9.42847,55.264,-0.000532579,0.000367532,0.00412891,0.00407084,-0.00423588,0.839684,0.0047962,0.0271594,1063,1744,9.42844,-55.2641
-154,-720,9.44324,55.7776,-0.00128591,0.000836283,0.00385609,0.00377461,-0.00422423,0.919662,0.00462056,0.0218399,1070,1744,9.44323,-55.7776
-147,-720,9.40503,56.313,-0.00194772,0.00127982,0.00358436,0.00359694,-0.00426484,0.996918,0.00454445,0.0250788,1077,1744,9.40508,-56.313
-140,-720,9.36804,56.7876,-0.00233945,0.00180848,0.00339653,0.00371418,-0.00424516,1.05949,0.00459873,0.0223588,1084,1744,9.36798,-56.7877
-133,-720,9.29114,57.1643,-0.0025742,0.0021765,0.00319354,0.00378122,-0.00417893,1.10516,0.0045977,0.0161022,1091,1744,9.2911,-57.1644
-126,-720,9.26904,57.5979,-0.00332686,0.00323894,0.00290643,0.00434064,-0.00442857,1.20847,0.00506299,0.0147185,1098,1744,9.26902,-57.5979
-119,-720,9.24011,58.0208,-0.00354603,0.003491,0.00294852,0.00456309,-0.00461812,1.22205,0.00530081,0.0154219,1105,1744,9.24014,-58.0208
-112,-720,9.19214,58.4006,-0.00293415,0.00392014,0.00304697,0.00507877,-0.00409279,1.20742,0.00530539,0.0147773,1112,1744,9.19216,-58.4007
-105,-720,9.172,58.7854,-0.00232772,0.00400347,0.00291736,0.00514276,-0.003467,1.19849,0.00500213,0.0148618,1119,1744,9.17203,-58.7854
-98,-720,9.14453,59.1635,-0.00201512,0.00403896,0.00284062,0.00516307,-0.00313924,1.19398,0.00484058,0.0108254,1126,1744,9.14453,-59.1634
-91,-720,9.10339,59.5211,-0.00165816,0.00400211,0.00273288,0.00510622,-0.00276227,1.18684,0.00460957,0.00962461,1133,1744,9.10338,-59.5211
-84,-720,9.0752,59.892,-0.00124716,0.00367236,0.00253141,0.00474225,-0.00231705,1.17092,0.00415508,0.0108677,1140,1744,9.07517,-59.892
-77,-720,9.07324,60.2515,-0.000896577,0.00331209,0.00228709,0.00431565,-0.00190014,1.1573,0.0036779,0.0137378,1147,1744,9.07322,-60.2514
-70,-720,9.06458,60.5531,-0.00067861,0.00287945,0.00193165,0.00372648,-0.00152564,1.15754,0.0031198,0.0121146,1154,1744,9.06455,-60.5531
-63,-720,9.02649,60.8398,-0.00043957,0.00252769,0.00153061,0.00317571,-0.00108759,1.1703,0.00255794,0.0117796,1161,1744,9.02654,-60.8398
-56,-720,9.05103,61.14,-0.000150148,0.00205837,0.00116275,0.00255766,-0.00064944,1.1652,0.00195783,0.0145907,1168,1744,9.05098,-61.14
-49,-720,9.02625,61.4214,0.000175958,0.0016208,0.000762426,0.0019487,-0.000151948,1.16463,0.00135263,0.0200311,1175,1744,9.02621,-61.4213
-42,-720,8.98633,61.6376,0.000490365,0.00128796,0.000573119,0.00158738,0.000190948,1.08936,0.0010007,0.0214856,1182,1744,8.98627,-61.6376
-35,-720,9.00647,61.8771,0.000798115,0.000962095,0.000519582,0.00140612,0.000354094,0.863653,0.000844498,0.0186824,1189,1744,9.00651,-61.8771
-28,-720,9.03918,62.1287,0.00104514,0.000560969,0.000503326,0.00136158,0.000244537,0.561242,0.000838181,0.0118518,1196,1744,9.03916,-62.1287
-21,-720,9.03113,62.3586,0.00124486,0.000159878,0.00060785,0.00151709,-0.000112357,0.421077,0.00105085,0.0101228,1203,1744,9.03107,-62.3587
-14,-720,9.01648,62.5148,0.00142581,-0.000198852,0.000800658,0.00175406,-0.000527107,0.389081,0.00137908,0.0115158,1210,1744,9.01654,-62.5148
-7,-720,9.03394,62.703,0.0015837,-0.000510089,0.000959669,0.001957,-0.000883389,0.370978,0.00167849,0.0122632,1217,1744,9.03394,-62.7031
0,-720,9.06323,62.8802,0.00168084,-0.000567795,0.00126315,0.00224756,-0.00113452,0.421741,0.00198758,0.0135468,1224,1744,9.06324,-62.8802
7,-720,9.07117,63.0146,0.00175384,-0.000610396,0.00161171,0.00257047,-0.00142703,0.468984,0.00233922,0.0153043,1231,1744,9.07114,-63.0146
14,-720,9.0791,63.1387,0.00181501,-0.000667299,0.00190719,0.00284934,-0.00170163,0.496938,0.00265521,0.0142935,1238,1744,9.07906,-63.1387
21,-720,9.10388,63.2444,0.00245089,-0.000498627,0.00167032,0.00320434,-0.00125207,0.423749,0.00265393,0.0116616,1245,1744,9.10385,-63.2443
28,-720,9.11768,63.3303,0.00378743,-0.00121379,0.00130247,0.0041063,-0.00153266,0.240099,0.00336679,0.0119471,1252,1744,9.1177,-63.3303
35,-720,9.13269,63.4116,0.0046997,-0.00146537,0.000901727,0.00482888,-0.00159456,0.142294,0.0038621,0.0122049,1259,1744,9.13267,-63.4116
42,-720,9.16492,63.4675,0.0056671,-0.00169779,0.000419686,0.00569093,-0.00172163,0.0567398,0.00447951,0.0121822,1266,1744,9.16489,-63.4675
49,-720,9.19348,63.4653,0.00641231,-0.0023465,-0.000235099,0.00641861,-0.0023528,-0.0268157,0.00524239,0.0146752,1273,1744,9.19342,-63.4653
56,-720,9.19836,63.4805,0.0068447,-0.00321847,-0.0010014,0.00694339,-0.00331715,-0.0982283,0.00604599,0.0139327,1280,1744,9.19832,-63.4805
63,-720,9.22046,63.5355,0.00710304,-0.00380612,-0.00176147,0.00738041,-0.00408349,-0.156181,0.0067093,0.0146701,1287,1744,9.22043,-63.5355
70,-720,9.27112,63.5314,0.00694705,-0.00434568,-0.00245398,0.00745726,-0.0048559,-0.204992,0.0071617,0.0134444,1294,1744,9.27109,-63.5313
77,-720,9.27991,63.4763,0.00661346,-0.00486212,-0.00295331,0.00732891,-0.00557757,-0.237674,0.00747439,0.0150979,1301,1744,9.27989,-63.4763
84,-720,9.28467,63.4088,0.00590669,-0.00521392,-0.00325538,0.00678956,-0.00609679,-0.264832,0.00744352,0.0148104,1308,1744,9.28466,-63.4089
91,-720,9.30774,63.3516,0.0050325,-0.00537645,-0.00335766,0.00602161,-0.00636555,-0.286479,0.00715265,0.0146808,1315,1744,9.30776,-63.3515
98,-720,9.29553,63.292,0.00405923,-0.00554489,-0.00328591,0.00507584,-0.0065615,-0.300046,0.00673705,0.0137763,1322,1744,9.29554,-63.292
105,-720,9.31836,63.1985,0.00312724,-0.00558387,-0.0031492,0.00414647,-0.0066031,-0.313008,0.00626005,0.0132146,1329,1744,9.31839,-63.1984
112,-720,9.35278,63.076,0.00228367,-0.00539372,-0.00285341,0.00322802,-0.00633807,-0.319609,0.00561944,0.0119604,1336,1744,9.35275,-63.076
119,-720,9.36389,62.9576,0.0015775,-0.00501658,-0.00235239,0.00233067,-0.00576975,-0.309859,0.00481523,0.0117721,1343,1744,9.36384,-62.9577
126,-720,9.38184,62.8132,0.000814295,-0.00469822,-0.00159045,0.00124025,-0.00512418,-0.26168,0.00389591,0.012186,1350,1744,9.38189,-62.8132
133,-720,9.40576,62.6409,0.000174692,-0.00360657,-0.00106847,0.000455722,-0.0038876,-0.257196,0.00275623,0.0137466,1357,1744,9.4058,-62.6409
140,-720,9.43005,62.4332,0.000425594,-0.00304978,-0.000759221,0.000584212,-0.0032084,-0.20596,0.00235792,0.01923,1364,1744,9.43008,-62.4333
147,-720,9.41394,62.21,0.00061601,-0.0024719,-0.000587464,0.000723996,-0.00257989,-0.181789,0.00200531,0.0191236,1371,1744,9.41389,-62.21
154,-720,9.40137,62.0271,0.000829151,-0.00165596,-0.00043166,0.000901994,-0.00172881,-0.167177,0.00154369,0.0131884,1378,1744,9.40134,-62.0272
161,-720,9.43335,61.7852,0.00100069,-0.000849243,-0.000259884,0.00103651,-0.000885059,-0.136952,0.00111057,0.0102586,1385,1744,9.43338,-61.7851
168,-720,9.43115,61.5217,0.000948762,-0.000422346,-0.000251454,0.000993422,-0.000467007,-0.175777,0.000861244,0.0105597,1392,1744,9.43112,-61.5217
175,-720,9.40771,61.2399,0.000789039,4.49482e-05,-0.000345156,0.000924488,-9.05006e-05,-0.373962,0.0006486,0.0169119,1399,1744,9.40771,-61.2398
182,-720,9.41956,60.9778,0.000493051,0.000479978,-0.000588052,0.0010746,-0.000101573,-0.779841,0.000752548,0.0161411,1406,1744,9.41955,-60.9778
189,-720,9.4259,60.7041,0.000218964,0.000852575,-0.000842661,0.00143602,-0.000364477,-0.965204,0.00109917,0.0138062,1413,1744,9.42586,-60.704
196,-720,9.42188,60.3853,-0.000138294,0.00125894,-0.00114434,0.00190106,-0.000780412,-1.05945,0.00159258,0.0148988,1420,1744,9.42185,-60.3852
203,-720,9.37939,60.0411,-0.000530821,0.00182278,-0.00142042,0.00249055,-0.00119859,-1.13133,0.00217303,0.0163289,1427,1744,9.37944,-60.0412
210,-720,9.37012,59.707,-0.000801708,0.00258894,-0.00165409,0.00326219,-0.00147496,-1.18425,0.00279913,0.0146393,1434,1744,9.37016,-59.707
217,-720,9.37817,59.3407,-0.00102371,0.0032531,-0.00186401,0.00395148,-0.00172208,-1.21232,0.00335887,0.0138352,1441,1744,9.37812,-59.3407
224,-720,9.34937,58.9683,-0.00118087,0.00386258,-0.0021516,0.00465574,-0.00197403,-1.21761,0.0039307,0.0103199,1448,1744,9.34939,-58.9682
231,-720,9.33313,58.6046,-0.00150786,0.00446259,-0.0023716,0.00528998,-0.00233525,-1.23512,0.00451126,0.0105722,1455,1744,9.33316,-58.6046
238,-720,9.29919,58.2101,-0.00179557,0.00499746,-0.00255906,0.0058536,-0.00265171,-1.24795,0.0050252,0.00922975,1462,1744,9.29915,-58.2101
245,-720,9.26392,57.8246,-0.00209817,0.00543792,-0.0027845,0.00635513,-0.00301537,-1.25259,0.00552341,0.0115302,1469,1744,9.26397,-57.8246
252,-720,9.24023,57.4028,-0.00248659,0.00592662,-0.00297299,0.00687115,-0.00343112,-1.26318,0.00605754,0.0113579,1476,1744,9.24022,-57.4028
259,-720,9.20117,56.9736,-0.0028158,0.00619805,-0.00314831,0.00718878,-0.00380653,-1.26592,0.00644748,0.0105254,1483,1744,9.20123,-56.9736
266,-720,9.14868,56.5271,-0.00320898,0.00638613,-0.00336854,0.00745062,-0.00427348,-1.26472,0.00685126,0.00873428,1490,1744,9.14869,-56.5271
273,-720,9.10046,56.0526,-0.00368571,0.00675507,-0.00367606,0.0079195,-0.00485013,-1.26404,0.0074432,0.0145021,1497,1744,9.10041,-56.0526
280,-720,9.02002,55.5944,-0.00422183,0.00703511,-0.00392515,0.0082686,-0.00545532,-1.26632,0.00797881,0.0199261,1504,1744,9.02006,-55.5944
287,-720,8.98511,55.0775,-0.0048082,0.00743293,-0.00418377,0.00872622,-0.00610149,-1.27099,0.00860537,0.032781,1511,1744,8.98515,-55.0776
294,-720,9.05579,54.4352,0,0,0,0,0,0,0,-1,1518,1744,9.05574,-54.4352
301,-720,8.73413,53.8801,0,0,0,0,0,0,0,-1,1525,1744,8.73418,-53.8801
308,-720,8.48608,51.5551,0,0,0,0,0,0,0,-1,1532,1744,8.48612,-51.555
315,-720,8.66516,48.6633,0,0,0,0,0,0,0,-1,1539,1744,8.6651,-48.6633
322,-720,8.98181,43.5223,0,0,0,0,0,0,0,-1,1546,1744,8.98176,-43.5223
329,-720,9.15906,34.7668,0,0,0,0,0,0,0,-1,1553,1744,9.1591,-34.7669
336,-720,6.14148,26.5682,0,0,0,0,0,0,0,-1,1560,1744,6.14151,-26.5683
343,-720,6.78552,21.3625,0,0,0,0,0,0,0,-1,1567,1744,6.78551,-21.3625
350,-720,4.0741,11.1836,0,0,0,0,0,0,0,-1,1574,1744,4.07412,-11.1836
357,-720,6.90833,21.4504,0,0,0,0,0,0,0,-1,1581,1744,6.90827,-21.4505
364,-720,6.59497,44.1384,0,0,0,0,0,0,0,-1,1588,1744,6.59492,-44.1385
371,-720,6.67773,45.2386,0,0,0,0,0,0,0,-1,1595,1744,6.67779,-45.2386
378,-720,3.88257,25.5404,0,0,0,0,0,0,0,-1,1602,1744,3.88262,-25.5404
385,-720,4.672,37.3854,0,0,0,0,0,0,0,-1,1609,1744,4.67202,-37.3854
392,-720,4.89319,36.2684,0,0,0,0,0,0,0,-1,1616,1744,4.89323,-36.2684
399,-720,2.37317,24.7166,0,0,0,0,0,0,0,-1,1623,1744,2.37317,-24.7166
406,-720,0,0,0,0,0,0,0,0,0,-1,1630,1744,0,0
413,-720,0,0,0,0,0,0,0,0,0,-1,1637,1744,0,0
420,-720,0,0,0,0,0,0,0,0,0,-1,1644,1744,0,0
427,-720,0,0,0,0,0,0,0,0,0,-1,1651,1744,0,0
434,-720,0,0,0,0,0,0,0,0,0,-1,1658,1744,0,0
441,-720,0,0,0,0,0,0,0,0,0,-1,1665,1744,0,0
448,-720,0,0,0,0,0,0,0,0,0,-1,1672,1744,0,0
455,-720,0,0,0,0,0,0,0,0,0,-1,1679,1744,0,0
462,-720,0,0,0,0,0,0,0,0,0,-1,1686,1744,0,0
469,-720,0,0,0,0,0,0,0,0,0,-1,1693,1744,0,0
476,-720,0,0,0,0,0,0,0,0,0,-1,1700,1744,0,0
483,-720,0,0,0,0,0,0,0,0,0,-1,1707,1744,0,0
490,-720,0,0,0,0,0,0,0,0,0,-1,1714,1744,0,0
497,-720,0,0,0,0,0,0,0,0,0,-1,1721,1744,0,0
504,-720,0,0,0,0,0,0,0,0,0,-1,1728,1744,0,0
511,-720,0,0,0,0,0,0,0,0,0,-1,1735,1744,0,0
518,-720,0,0,0,0,0,0,0,0,0,-1,1742,1744,0,0
525,-720,0,0,0,0,0,0,0,0,0,-1,1749,1744,0,0
532,-720,0,0,0,0,0,0,0,0,0,-1,1756,1744,0,0
539,-720,0,0,0,0,0,0,0,0,0,-1,1763,1744,0,0
546,-720,0,0,0,0,0,0,0,0,0,-1,1770,1744,0,0
553,-720,0,0,0,0,0,0,0,0,0,-1,1777,1744,0,0
560,-720,0,0,0,0,0,0,0,0,0,-1,1784,1744,0,0
567,-720,0,0,0,0,0,0,0,0,0,-1,1791,1744,0,0
574,-720,0,0,0,0,0,0,0,0,0,-1,1798,1744,0,0
581,-720,0,0,0,0,0,0,0,0,0,-1,1805,1744,0,0
588,-720,0,0,0,0,0,0,0,0,0,-1,1812,1744,0,0
595,-720,0,0,0,0,0,0,0,0,0,-1,1819,1744,0,0
602,-720,0,0,0,0,0,0,0,0,0,-1,1826,1744,0,0
609,-720,0,0,0,0,0,0,0,0,0,-1,1833,1744,0,0
616,-720,0,0,0,0,0,0,0,0,0,-1,1840,1744,0,0
623,-720,0,0,0,0,0,0,0,0,0,-1,1847,1744,0,0
630,-720,0,0,0,0,0,0,0,0,0,-1,1854,1744,0,0
637,-720,0,0,0,0,0,0,0,0,0,-1,1861,1744,0,0
644,-720,0,0,0,0,0,0,0,0,0,-1,1868,1744,0,0
651,-720,0,0,0,0,0,0,0,0,0,-1,1875,1744,0,0
658,-720,0,0,0,0,0,0,0,0,0,-1,1882,1744,0,0
665,-720,0,0,0,0,0,0,0,0,0,-1,1889,1744,0,0
672,-720,0,0,0,0,0,0,0,0,0,-1,1896,1744,0,0
679,-720,0,0,0,0,0,0,0,0,0,-1,1903,1744,0,0
686,-720,0,0,0,0,0,0,0,0,0,-1,1910,1744,0,0
693,-720,0,0,0,0,0,0,0,0,0,-1,1917,1744,0,0
700,-720,0,0,0,0,0,0,0,0,0,-1,1924,1744,0,0
707,-720,0,0,0,0,0,0,0,0,0,-1,1931,1744,0,0
714,-720,0,0,0,0,0,0,0,0,0,-1,1938,1744,0,0
721,-720,0,0,0,0,0,0,0,0,0,-1,1945,1744,0,0
728,-720,0,0,0,0,0,0,0,0,0,-1,1952,1744,0,0
735,-720,0,0,0,0,0,0,0,0,0,-1,1959,1744,0,0
742,-720,0,0,0,0,0,0,0,0,0,-1,1966,1744,0,0
749,-720,0,0,0,0,0,0,0,0,0,-1,1973,1744,0,0
756,-720,0,0,0,0,0,0,0,0,0,-1,1980,1744,0,0
763,-720,0,0,0,0,0,0,0,0,0,-1,1987,1744,0,0
770,-720,0,0,0,0,0,0,0,0,0,-1,1994,1744,0,0
777,-720,0,0,0,0,0,0,0,0,0,-1,2001,1744,0,0
784,-720,0,0,0,0,0,0,0,0,0,-1,2008,1744,0,0
791,-720,0,0,0,0,0,0,0,0,0,-1,2015,1744,0,0
798,-720,0,0,0,0,0,0,0,0,0,-1,2022,1744,0,0
805,-720,0,0,0,0,0,0,0,0,0,-1,2029,1744,0,0
812,-720,0,0,0,0,0,0,0,0,0,-1,2036,1744,0,0
-700,-727,0,0,0,0,0,0,0,0,0,-1,524,1751,0,0
-693,-727,0,0,0,0,0,0,0,0,0,-1,531,1751,0,0
-686,-727,0,0,0,0,0,0,0,0,0,-1,538,1751,0,0
-679,-727,0,0,0,0,0,0,0,0,0,-1,545,1751,0,0
-672,-727,0,0,0,0,0,0,0,0,0,-1,552,1751,0,0
-665,-727,0,0,0,0,0,0,0,0,0,-1,559,1751,0,0
-658,-727,0,0,0,0,0,0,0,0,0,-1,566,1751,0,0
-651,-727,0,0,0,0,0,0,0,0,0,-1,573,1751,0,0
-644,-727,0,0,0,0,0,0,0,0,0,-1,580,1751,0,0
-637,-727,0,0,0,0,0,0,0,0,0,-1,587,1751,0,0
-630,-727,0,0,0,0,0,0,0,0,0,-1,594,1751,0,0
-623,-727,0,0,0,0,0,0,0,0,0,-1,601,1751,0,0
-616,-727,0,0,0,0,0,0,0,0,0,-1,608,1751,0,0
-609,-727,0,0,0,0,0,0,0,0,0,-1,615,1751,0,0
-602,-727,0,0,0,0,0,0,0,0,0,-1,622,1751,0,0
-595,-727,0,0,0,0,0,0,0,0,0,-1,629,1751,0,0
-588,-727,0,0,0,0,0,0,0,0,0,-1,636,1751,0,0
-581,-727,0,0,0,0,0,0,0,0,0,-1,643,1751,0,0
-574,-727,0,0,0,0,0,0,0,0,0,-1,650,1751,0,0
-567,-727,0,0,0,0,0,0,0,0,0,-1,657,1751,0,0
-560,-727,0,0,0,0,0,0,0,0,0,-1,664,1751,0,0
-553,-727,0,0,0,0,0,0,0,0,0,-1,671,1751,0,0
-546,-727,0,0,0,0,0,0,0,0,0,-1,678,1751,0,0
-539,-727,0,0,0,0,0,0,0,0,0,-1,685,1751,0,0
-532,-727,0,0,0,0,0,0,0,0,0,-1,692,1751,0,0
-525,-727,0,0,0,0,0,0,0,0,0,-1,699,1751,0,0
-518,-727,0,0,0,0,0,0,0,0,0,-1,706,1751,0,0
-511,-727,0,0,0,0,0,0,0,0,0,-1,713,1751,0,0
-504,-727,0,0,0,0,0,0,0,0,0,-1,720,1751,0,0
-497,-727,0,0,0,0,0,0,0,0,0,-1,727,1751,0,0
-490,-727,0,0,0,0,0,0,0,0,0,-1,734,1751,0,0
-483,-727,0,0,0,0,0,0,0,0,0,-1,741,1751,0,0
-476,-727,0,0,0,0,0,0,0,0,0,-1,748,1751,0,0
-469,-727,0,0,0,0,0,0,0,0,0,-1,755,1751,0,0
-462,-727,0,0,0,0,0,0,0,0,0,-1,762,1751,0,0
-455,-727,0,0,0,0,0,0,0,0,0,-1,769,1751,0,0
-448,-727,0,0,0,0,0,0,0,0,0,-1,776,1751,0,0
-441,-727,0,0,0,0,0,0,0,0,0,-1,783,1751,0,0
-434,-727,0,0,0,0,0,0,0,0,0,-1,790,1751,0,0
-427,-727,0,0,0,0,0,0,0,0,0,-1,797,1751,0,0
-420,-727,0,0,0,0,0,0,0,0,0,-1,804,1751,0,0
-413,-727,0,0,0,0,0,0,0,0,0,-1,811,1751,0,0
-406,-727,0,0,0,0,0,0,0,0,0,-1,818,1751,0,0
-399,-727,0,0,0,0,0,0,0,0,0,-1,825,1751,0,0
-392,-727,0,0,0,0,0,0,0,0,0,-1,832,1751,0,0
-385,-727,0,0,0,0,0,0,0,0,0,-1,839,1751,0,0
-378,-727,0,0,0,0,0,0,0,0,0,-1,846,1751,0,0
-371,-727,0,0,0,0,0,0,0,0,0,-1,853,1751,0,0
-364,-727,0,0,0,0,0,0,0,0,0,-1,860,1751,0,0
-357,-727,0,0,0,0,0,0,0,0,0,-1,867,1751,0,0
-350,-727,0,0,0,0,0,0,0,0,0,-1,874,1751,0,0
-343,-727,0,0,0,0,0,0,0,0,0,-1,881,1751,0,0
-336,-727,0,0,0,0,0,0,0,0,0,-1,888,1751,0,0
-329,-727,0,0,0,0,0,0,0,0,0,-1,895,1751,0,0
-322,-727,0,0,0,0,0,0,0,0,0,-1,902,1751,0,0
-315,-727,0,0,0,0,0,0,0,0,0,-1,909,1751,0,0
-308,-727,0,0,0,0,0,0,0,0,0,-1,916,1751,0,0
-301,-727,0,0,0,0,0,0,0,0,0,-1,923,1751,0,0
-294,-727,0,0,0,0,0,0,0,0,0,-1,930,1751,0,0
-287,-727,0,0,0,0,0,0,0,0,0,-1,937,1751,0,0
-280,-727,0,0,0,0,0,0,0,0,0,-1,944,1751,0,0
-273,-727,0,0,0,0,0,0,0,0,0,-1,951,1751,0,0
-266,-727,4.24805,7.61145,0,0,0,0,0,0,0,-1,958,1751,4.24802,-7.6115
-259,-727,3.65228,5.4082,0,0,0,0,0,0,0,-1,965,1751,3.65229,-5.40818
-252,-727,5.8797,32.9292,0,0,0,0,0,0,0,-1,972,1751,5.87972,-32.9292
-245,-727,6.59198,32.2588,0,0,0,0,0,0,0,-1,979,1751,6.59195,-32.2587
-238,-727,6.6189,30.4597,0,0,0,0,0,0,0,-1,986,1751,6.61889,-30.4598
-231,-727,9.95819,51.5021,0,0,0,0,0,0,0,-1,993,1751,9.95818,-51.5021
-224,-727,10.0845,52.0088,0,0,0,0,0,0,0,-1,1000,1751,10.0845,-52.0088
-217,-727,10.2109,52.5154,0,0,0,0,0,0,0,-1,1007,1751,10.2109,-52.5154
-210,-727,5.0921,32.4524,0,0,0,0,0,0,0,-1,1014,1751,5.09209,-32.4523
-203,-727,14.1763,48.6819,0,0,0,0,0,0,0,-1,1021,1751,14.1763,-48.6819
-196,-727,13.0454,48.5956,0,0,0,0,0,0,0,-1,1028,1751,13.0455,-48.5955
-189,-727,10.3168,48.1697,0,0,0,0,0,0,0,-1,1035,1751,10.3168,-48.1697
-182,-727,9.53967,54.3688,0,0,0,0,0,0,0,-1,1042,1751,9.53967,-54.3687
-175,-727,10.2219,54.458,0,0,0,0,0,0,0,-1,1049,1751,10.2219,-54.458
-168,-727,10.1869,54.8362,0,0,0,0,0,0,0,-1,1056,1751,10.1868,-54.8362
-161,-727,9.7467,55.3447,0,0,0,0,0,0,0,-1,1063,1751,9.74667,-55.3448
-154,-727,9.86487,55.752,0,0,0,0,0,0,0,-1,1070,1751,9.86486,-55.752
-147,-727,9.90173,56.3408,0,0,0,0,0,0,0,-1,1077,1751,9.90177,-56.3408
-140,-727,9.59094,56.5028,0,0,0,0,0,0,0,-1,1084,1751,9.59091,-56.5028
-133,-727,9.84314,56.8726,0,0,0,0,0,0,0,-1,1091,1751,9.84312,-56.8726
-126,-727,9.62231,57.5638,-0.00467284,0.00486807,0.00410958,0.00639412,-0.00619889,1.21524,0.00727087,0.0190578,1098,1751,9.62233,-57.5639
-119,-727,9.60156,57.9991,-0.00511159,0.00521182,0.00419504,0.00670154,-0.00660132,1.22957,0.00768048,0.0198268,1105,1751,9.60151,-57.9992
-112,-727,9.53577,58.2588,-0.00442924,0.0058413,0.00436998,0.00744901,-0.00603694,1.21827,0.00780033,0.0340776,1112,1751,9.53574,-58.2588
-105,-727,9.4314,58.6682,-0.00376112,0.00594941,0.0042466,0.00754451,-0.00535622,1.21148,0.00748387,0.0321965,1119,1751,9.43135,-58.6682
-98,-727,9.47607,59.1533,-0.00347038,0.0059886,0.00416957,0.00756414,-0.00504591,1.20952,0.00732865,0.0157145,1126,1751,9.47601,-59.1533
-91,-727,9.44849,59.4965,-0.00312992,0.00586515,0.0040675,0.00743164,-0.00469641,1.20318,0.00706124,0.0129466,1133,1751,9.44846,-59.4965
-84,-727,9.39709,59.8557,-0.00273399,0.00526055,0.0038451,0.00680971,-0.00428316,1.1878,0.00645961,0.0128449,1140,1751,9.39715,-59.8558
-77,-727,9.37061,60.2158,-0.00240008,0.00460352,0.00354086,0.00608171,-0.00387827,1.17532,0.00579711,0.013045,1147,1751,9.37063,-60.2158
-70,-727,9.35938,60.5609,-0.00225535,0.00394252,0.00308224,0.00521435,-0.00352719,1.17945,0.00507817,0.0135112,1154,1751,9.35943,-60.5609
-63,-727,9.3302,60.8665,-0.0021345,0.003556,0.00246643,0.00447621,-0.00305472,1.2137,0.00437373,0.0114545,1161,1751,9.33022,-60.8664
-56,-727,9.30017,61.1426,-0.00195421,0.00309204,0.00183816,0.00369061,-0.00255278,1.25599,0.00362453,0.0127253,1168,1751,9.30019,-61.1426
-49,-727,9.27405,61.4161,-0.00164723,0.00305189,0.000988887,0.00325151,-0.00184685,1.37161,0.00298055,0.0146704,1175,1751,9.27409,-61.4161
-42,-727,9.25781,61.6683,-0.00136707,0.00302294,0.00047563,0.00307388,-0.00141801,1.4641,0.00265148,0.017303,1182,1751,9.25781,-61.6683
-35,-727,9.22937,61.897,-0.00120301,0.0028288,0.000172723,0.00283619,-0.00121039,1.52806,0.00239833,0.0158762,1189,1751,9.22941,-61.897
-28,-727,9.23376,62.1217,-0.00116379,0.00250736,-2.51833e-05,0.00250754,-0.00116397,-1.56394,0.00216654,0.00957394,1196,1751,9.23375,-62.1217
-21,-727,9.22058,62.3519,-0.00119542,0.00221639,-2.21252e-05,0.00221653,-0.00119556,-1.56431,0.00199915,0.011141,1203,1751,9.2206,-62.3519
-14,-727,9.21191,62.5288,-0.00126283,0.00189718,7.10455e-05,0.00189878,-0.00126443,1.54833,0.00183848,0.0121792,1210,1751,9.21185,-62.5289
-7,-727,9.21594,62.7281,-0.00133951,0.0015394,0.00013588,0.0015458,-0.00134591,1.52374,0.00167086,0.0155035,1217,1751,9.21599,-62.7282
0,-727,9.21106,62.9059,-0.00148396,0.00138555,0.000345941,0.00142667,-0.00152508,1.4525,0.00170451,0.0157335,1224,1751,9.21106,-62.9058
7,-727,9.21033,63.0038,-0.00159386,0.00122901,0.00061459,0.00135701,-0.00172187,1.36546,0.00178175,0.0143377,1231,1751,9.21034,-63.0038
14,-727,9.21777,63.1362,-0.00169071,0.00103988,0.000870655,0.00129387,-0.00194469,1.28695,0.00188233,0.0146292,1238,1751,9.21774,-63.1362
21,-727,9.20105,63.2606,-0.0016813,0.00108629,0.00110317,0.00147221,-0.00206722,1.23428,0.00205309,0.0129783,1245,1751,9.20104,-63.2606
28,-727,9.20801,63.3258,-0.00135155,0.000755337,0.00121678,0.00131133,-0.00190754,1.14219,0.00186901,0.0111067,1252,1751,9.20795,-63.3258
35,-727,9.22986,63.396,-0.00111798,0.000622498,0.00113833,0.00118513,-0.00168062,1.11175,0.00166276,0.0121724,1259,1751,9.2298,-63.396
42,-727,9.2251,63.4437,-0.000829987,0.000512378,0.00112628,0.0011523,-0.0014699,1.05411,0.00151762,0.0130982,1266,1751,9.22515,-63.4437
49,-727,9.2113,63.4873,-0.000652755,9.48603e-05,0.000950394,0.000742317,-0.00130021,0.972765,0.00119383,0.0118714,1273,1751,9.21127,-63.4873
56,-727,9.18054,63.5521,-0.000610193,-0.000452097,0.000697287,0.000170609,-0.0012329,0.841839,0.000884305,0.010642,1280,1751,9.18049,-63.5521
63,-727,9.19971,63.5609,-0.000533786,-0.000742381,0.000383161,-0.00024098,-0.00103519,0.652516,0.000625468,0.0124913,1287,1751,9.19969,-63.5609
70,-727,9.26282,63.5145,-0.000517265,-0.0010489,2.9179e-05,-0.000515668,-0.0010505,0.0546661,0.00060654,0.0140936,1294,1751,9.26276,-63.5146
77,-727,9.2583,63.464,-0.000539389,-0.00139519,-0.000266693,-0.000463083,-0.00147149,-0.278674,0.000868797,0.0164366,1301,1751,9.25834,-63.464
84,-727,9.23962,63.391,-0.000702483,-0.00167724,-0.00058165,-0.000431011,-0.00194871,-0.436677,0.00118196,0.0176348,1308,1751,9.23965,-63.391
91,-727,9.24878,63.3057,-0.000850702,-0.00182562,-0.000760791,-0.000434603,-0.00224172,-0.500483,0.00137274,0.0187941,1315,1751,9.24877,-63.3057
98,-727,9.22986,63.2632,-0.00104378,-0.00203957,-0.000830519,-0.000573349,-0.00251,-0.515374,0.00151873,0.0154677,1322,1751,9.22984,-63.2632
105,-727,9.22058,63.1909,-0.00120594,-0.00215501,-0.000838376,-0.000717115,-0.00264383,-0.527869,0.00157877,0.0139329,1329,1751,9.22057,-63.1909
112,-727,9.23804,63.0782,-0.0013555,-0.0021352,-0.000773082,-0.000879533,-0.00261117,-0.551866,0.00153408,0.0118176,1336,1751,9.23808,-63.0782
119,-727,9.25684,62.9491,-0.0014432,-0.00197677,-0.000593274,-0.00105949,-0.00236048,-0.574102,0.0013652,0.00923858,1343,1751,9.25679,-62.9491
126,-727,9.27393,62.8004,-0.00142851,-0.00185886,-0.000384553,-0.00120303,-0.00208435,-0.530325,0.00120817,0.0103352,1350,1751,9.27398,-62.8004
133,-727,9.26233,62.6298,-0.00140464,-0.00131078,-0.000150701,-0.00119987,-0.00151555,-0.936345,0.000923307,0.0153057,1357,1751,9.26231,-62.6298
140,-727,9.25989,62.4601,-0.00117715,-0.000886149,0.000108638,-0.000850065,-0.00121323,1.25012,0.000719015,0.0214316,1364,1751,9.25987,-62.4601
147,-727,9.25061,62.2593,-0.00106142,-0.000446019,0.000114225,-0.000425502,-0.00108193,1.39307,0.000629379,0.0179317,1371,1751,9.25057,-62.2593
154,-727,9.20898,62.0162,-0.0009612,7.77328e-05,9.18691e-05,8.57938e-05,-0.000969261,1.48327,0.000676588,0.0122008,1378,1751,9.209,-62.0162
161,-727,9.2085,61.7875,-0.000960984,0.000507744,-7.58061e-06,0.000507783,-0.000961023,-1.56564,0.000861368,0.0103429,1385,1751,9.20844,-61.7874
168,-727,9.16089,61.542,-0.00108941,0.000664014,-0.000201303,0.000686828,-0.00111222,-1.45795,0.00104832,0.0125775,1392,1751,9.16084,-61.542
175,-727,9.13159,61.2601,-0.00125183,0.000820543,-0.000544473,0.000954884,-0.00138617,-1.32889,0.00135923,0.0179765,1399,1751,9.13155,-61.2602
182,-727,9.15002,60.9846,-0.00135456,0.00112787,-0.000855614,0.0013942,-0.00162089,-1.26903,0.0017424,0.0202096,1406,1751,9.15008,-60.9846
189,-727,9.11719,60.684,-0.00157052,0.00145292,-0.00116516,0.00184983,-0.00196744,-1.24247,0.00220425,0.0130483,1413,1751,9.11713,-60.6839
196,-727,9.0979,60.375,-0.00198023,0.00194043,-0.00162732,0.00252785,-0.00256766,-1.22437,0.00294193,0.0150713,1420,1751,9.09792,-60.375
203,-727,9.05005,60.0291,-0.00241238,0.00266367,-0.00203831,0.00338083,-0.00312955,-1.23248,0.0037597,0.0172561,1427,1751,9.05006,-60.029
210,-727,9.03894,59.6987,-0.00256482,0.0038251,-0.00233104,0.00458508,-0.00332479,-1.25564,0.00458605,0.0171403,1434,1751,9.03895,-59.6987
217,-727,9.02051,59.3584,-0.00262489,0.00475405,-0.00262625,0.00559331,-0.00346415,-1.26149,0.00527726,0.0131531,1441,1751,9.02056,-59.3584
224,-727,8.99048,58.9557,-0.00259526,0.00556339,-0.00297852,0.00653505,-0.00356692,-1.25546,0.0059157,0.0133902,1448,1751,8.9905,-58.9556
231,-727,8.94751,58.5825,-0.00283256,0.00633743,-0.00323912,0.00736618,-0.00386131,-1.26327,0.00658663,0.0118445,1455,1751,8.94747,-58.5825
238,-727,8.91125,58.1455,-0.00302796,0.00699494,-0.00347318,0.00808084,-0.00411385,-1.26777,0.00716371,0.0215068,1462,1751,8.9112,-58.1455
245,-727,8.91931,57.6606,-0.00322767,0.00752685,-0.00376585,0.00871439,-0.00441521,-1.26532,0.00771465,0.0366336,1469,1751,8.91929,-57.6607
252,-727,8.90186,57.2917,-0.00353458,0.00807718,-0.00403542,0.00934187,-0.00479927,-1.2671,0.00830362,0.0418742,1476,1751,8.90186,-57.2917
259,-727,8.81091,56.8335,-0.0037676,0.0083708,-0.00424522,0.00970815,-0.00510496,-1.26561,0.00868891,0.0338075,1483,1751,8.8109,-56.8335
266,-727,8.7804,56.4816,-0.00409093,0.00856566,-0.00447596,0.00998859,-0.00551386,-1.26299,0.00907378,0.0264632,1490,1751,8.78039,-56.4816
273,-727,8.82056,56.0438,-0.00454505,0.00891552,-0.0048475,0.0104795,-0.00610904,-1.2587,0.00968757,0.0377415,1497,1751,8.82056,-56.0438
280,-727,8.50671,55.5862,0,0,0,0,0,0,0,-1,1504,1751,8.50677,-55.5862
287,-727,8.44507,55.0732,0,0,0,0,0,0,0,-1,1511,1751,8.44506,-55.0732
294,-727,8.48657,53.1189,0,0,0,0,0,0,0,-1,1518,1751,8.48656,-53.1189
301,-727,8.44385,46.1619,0,0,0,0,0,0,0,-1,1525,1751,8.4439,-46.1619
308,-727,8.77002,44.8007,0,0,0,0,0,0,0,-1,1532,1751,8.76996,-44.8006
315,-727,8.10571,41.24,0,0,0,0,0,0,0,-1,1539,1751,8.10567,-41.2399
322,-727,8.24133,40.2081,0,0,0,0,0,0,0,-1,1546,1751,8.24136,-40.2082
329,-727,5.54419,31.0325,0,0,0,0,0,0,0,-1,1553,1751,5.54425,-31.0325
336,-727,5.55823,20.2439,0,0,0,0,0,0,0,-1,1560,1751,5.55829,-20.2438
343,-727,2.41699,8.72095,0,0,0,0,0,0,0,-1,1567,1751,2.41702,-8.72098
350,-727,3.89783,7.50195,0,0,0,0,0,0,0,-1,1574,1751,3.89782,-7.50193
357,-727,4.48462,10.2948,0,0,0,0,0,0,0,-1,1581,1751,4.48464,-10.2948
364,-727,6.96729,17.2365,0,0,0,0,0,0,0,-1,1588,1751,6.96732,-17.2365
371,-727,5.04565,23.2227,0,0,0,0,0,0,0,-1,1595,1751,5.04564,-23.2227
378,-727,4.56726,23.0574,0,0,0,0,0,0,0,-1,1602,1751,4.56727,-23.0574
385,-727,3.52307,22.6431,0,0,0,0,0,0,0,-1,1609,1751,3.52303,-22.643
392,-727,0,0,0,0,0,0,0,0,0,-1,1616,1751,0,0
399,-727,0,0,0,0,0,0,0,0,0,-1,1623,1751,0,0
406,-727,0,0,0,0,0,0,0,0,0,-1,1630,1751,0,0
413,-727,0,0,0,0,0,0,0,0,0,-1,1637,1751,0,0
420,-727,0,0,0,0,0,0,0,0,0,-1,1644,1751,0,0
427,-727,0,0,0,0,0,0,0,0,0,-1,1651,1751,0,0
434,-727,0,0,0,0,0,0,0,0,0,-1,1658,1751,0,0
441,-727,0,0,0,0,0,0,0,0,0,-1,1665,1751,0,0
448,-727,0,0,0,0,0,0,0,0,0,-1,1672,1751,0,0
455,-727,0,0,0,0,0,0,0,0,0,-1,1679,1751,0,0
462,-727,0,0,0,0,0,0,0,0,0,-1,1686,1751,0,0
469,-727,0,0,0,0,0,0,0,0,0,-1,1693,1751,0,0
476,-727,0,0,0,0,0,0,0,0,0,-1,1700,1751,0,0
483,-727,0,0,0,0,0,0,0,0,0,-1,1707,1751,0,0
490,-727,0,0,0,0,0,0,0,0,0,-1,1714,1751,0,0
497,-727,0,0,0,0,0,0,0,0,0,-1,1721,1751,0,0
504,-727,0,0,0,0,0,0,0,0,0,-1,1728,1751,0,0
511,-727,0,0,0,0,0,0,0,0,0,-1,1735,1751,0,0
518,-727,0,0,0,0,0,0,0,0,0,-1,1742,1751,0,0
525,-727,0,0,0,0,0,0,0,0,0,-1,1749,1751,0,0
532,-727,0,0,0,0,0,0,0,0,0,-1,1756,1751,0,0
539,-727,0,0,0,0,0,0,0,0,0,-1,1763,1751,0,0
546,-727,0,0,0,0,0,0,0,0,0,-1,1770,1751,0,0
553,-727,0,0,0,0,0,0,0,0,0,-1,1777,1751,0,0
560,-727,0,0,0,0,0,0,0,0,0,-1,1784,1751,0,0
567,-727,0,0,0,0,0,0,0,0,0,-1,1791,1751,0,0
574,-727,0,0,0,0,0,0,0,0,0,-1,1798,1751,0,0
581,-727,0,0,0,0,0,0,0,0,0,-1,1805,1751,0,0
588,-727,0,0,0,0,0,0,0,0,0,-1,1812,1751,0,0
595,-727,0,0,0,0,0,0,0,0,0,-1,1819,1751,0,0
602,-727,0,0,0,0,0,0,0,0,0,-1,1826,1751,0,0
609,-727,0,0,0,0,0,0,0,0,0,-1,1833,1751,0,0
616,-727,0,0,0,0,0,0,0,0,0,-1,1840,1751,0,0
623,-727,0,0,0,0,0,0,0,0,0,-1,1847,1751,0,0
630,-727,0,0,0,0,0,0,0,0,0,-1,1854,1751,0,0
637,-727,0,0,0,0,0,0,0,0,0,-1,1861,1751,0,0
644,-727,0,0,0,0,0,0,0,0,0,-1,1868,1751,0,0
651,-727,0,0,0,0,0,0,0,0,0,-1,1875,1751,0,0
658,-727,0,0,0,0,0,0,0,0,0,-1,1882,1751,0,0
665,-727,0,0,0,0,0,0,0,0,0,-1,1889,1751,0,0
672,-727,0,0,0,0,0,0,0,0,0,-1,1896,1751,0,0
679,-727,0,0,0,0,0,0,0,0,0,-1,1903,1751,0,0
686,-727,0,0,0,0,0,0,0,0,0,-1,1910,1751,0,0
693,-727,0,0,0,0,0,0,0,0,0,-1,1917,1751,0,0
700,-727,0,0,0,0,0,0,0,0,0,-1,1924,1751,0,0
707,-727,0,0,0,0,0,0,0,0,0,-1,1931,1751,0,0
714,-727,0,0,0,0,0,0,0,0,0,-1,1938,1751,0,0
721,-727,0,0,0,0,0,0,0,0,0,-1,1945,1751,0,0
728,-727,0,0,0,0,0,0,0,0,0,-1,1952,1751,0,0
735,-727,0,0,0,0,0,0,0,0,0,-1,1959,1751,0,0
742,-727,0,0,0,0,0,0,0,0,0,-1,1966,1751,0,0
749,-727,0,0,0,0,0,0,0,0,0,-1,1973,1751,0,0
756,-727,0,0,0,0,0,0,0,0,0,-1,1980,1751,0,0
763,-727,0,0,0,0,0,0,0,0,0,-1,1987,1751,0,0
770,-727,0,0,0,0,0,0,0,0,0,-1,1994,1751,0,0
777,-727,0,0,0,0,0,0,0,0,0,-1,2001,1751,0,0
784,-727,0,0,0,0,0,0,0,0,0,-1,2008,1751,0,0
791,-727,0,0,0,0,0,0,0,0,0,-1,2015,1751,0,0
798,-727,0,0,0,0,0,0,0,0,0,-1,2022,1751,0,0
805,-727,0,0,0,0,0,0,0,0,0,-1,2029,1751,0,0
812,-727,0,0,0,0,0,0,0,0,0,-1,2036,1751,0,0
-700,-734,0,0,0,0,0,0,0,0,0,-1,524,1758,0,0
-693,-734,0,0,0,0,0,0,0,0,0,-1,531,1758,0,0
-686,-734,0,0,0,0,0,0,0,0,0,-1,538,1758,0,0
-679,-734,0,0,0,0,0,0,0,0,0,-1,545,1758,0,0
-672,-734,0,0,0,0,0,0,0,0,0,-1,552,1758,0,0
-665,-734,0,0,0,0,0,0,0,0,0,-1,559,1758,0,0
-658,-734,0,0,0,0,0,0,0,0,0,-1,566,1758,0,0
-651,-734,0,0,0,0,0,0,0,0,0,-1,573,1758,0,0
-644,-734,0,0,0,0,0,0,0,0,0,-1,580,1758,0,0
-637,-734,0,0,0,0,0,0,0,0,0,-1,587,1758,0,0
-630,-734,0,0,0,0,0,0,0,0,0,-1,594,1758,0,0
-623,-734,0,0,0,0,0,0,0,0,0,-1,601,1758,0,0
-616,-734,0,0,0,0,0,0,0,0,0,-1,608,1758,0,0
-609,-734,0,0,0,0,0,0,0,0,0,-1,615,1758,0,0
-602,-734,0,0,0,0,0,0,0,0,0,-1,622,1758,0,0
-595,-734,0,0,0,0,0,0,0,0,0,-1,629,1758,0,0
-588,-734,0,0,0,0,0,0,0,0,0,-1,636,1758,0,0
-581,-734,0,0,0,0,0,0,0,0,0,-1,643,1758,0,0
-574,-734,0,0,0,0,0,0,0,0,0,-1,650,1758,0,0
-567,-734,0,0,0,0,0,0,0,0,0,-1,657,1758,0,0
-560,-734,0,0,0,0,0,0,0,0,0,-1,664,1758,0,0
-553,-734,0,0,0,0,0,0,0,0,0,-1,671,1758,0,0
-546,-734,0,0,0,0,0,0,0,0,0,-1,678,1758,0,0
-539,-734,0,0,0,0,0,0,0,0,0,-1,685,1758,0,0
-532,-734,0,0,0,0,0,0,0,0,0,-1,692,1758,0,0
-525,-734,0,0,0,0,0,0,0,0,0,-1,699,1758,0,0
-518,-734,0,0,0,0,0,0,0,0,0,-1,706,1758,0,0
-511,-734,0,0,0,0,0,0,0,0,0,-1,713,1758,0,0
-504,-734,0,0,0,0,0,0,0,0,0,-1,720,1758,0,0
-497,-734,0,0,0,0,0,0,0,0,0,-1,727,1758,0,0
-490,-734,0,0,0,0,0,0,0,0,0,-1,734,1758,0,0
-483,-734,0,0,0,0,0,0,0,0,0,-1,741,1758,0,0
-476,-734,0,0,0,0,0,0,0,0,0,-1,748,1758,0,0
-469,-734,0,0,0,0,0,0,0,0,0,-1,755,1758,0,0
-462,-734,0,0,0,0,0,0,0,0,0,-1,762,1758,0,0
-455,-734,0,0,0,0,0,0,0,0,0,-1,769,1758,0,0
-448,-734,0,0,0,0,0,0,0,0,0,-1,776,1758,0,0
-441,-734,0,0,0,0,0,0,0,0,0,-1,783,1758,0,0
-434,-734,0,0,0,0,0,0,0,0,0,-1,790,1758,0,0
-427,-734,0,0,0,0,0,0,0,0,0,-1,797,1758,0,0
-420,-734,0,0,0,0,0,0,0,0,0,-1,804,1758,0,0
-413,-734,0,0,0,0,0,0,0,0,0,-1,811,1758,0,0
-406,-734,0,0,0,0,0,0,0,0,0,-1,818,1758,0,0
-399,-734,0,0,0,0,0,0,0,0,0,-1,825,1758,0,0
-392,-734,0,0,0,0,0,0,0,0,0,-1,832,1758,0,0
-385,-734,0,0,0,0,0,0,0,0,0,-1,839,1758,0,0
-378,-734,0,0,0,0,0,0,0,0,0,-1,846,1758,0,0
-371,-734,0,0,0,0,0,0,0,0,0,-1,853,1758,0,0
-364,-734,0,0,0,0,0,0,0,0,0,-1,860,1758,0,0
-357,-734,0,0,0,0,0,0,0,0,0,-1,867,1758,0,0
-350,-734,0,0,0,0,0,0,0,0,0,-1,874,1758,0,0
-343,-734,0,0,0,0,0,0,0,0,0,-1,881,1758,0,0
-336,-734,0,0,0,0,0,0,0,0,0,-1,888,1758,0,0
-329,-734,0,0,0,0,0,0,0,0,0,-1,895,1758,0,0
-322,-734,0,0,0,0,0,0,0,0,0,-1,902,1758,0,0
-315,-734,0,0,0,0,0,0,0,0,0,-1,909,1758,0,0
-308,-734,0,0,0,0,0,0,0,0,0,-1,916,1758,0,0
-301,-734,0,0,0,0,0,0,0,0,0,-1,923,1758,0,0
-294,-734,0,0,0,0,0,0,0,0,0,-1,930,1758,0,0
-287,-734,0,0,0,0,0,0,0,0,0,-1,937,1758,0,0
-280,-734,0,0,0,0,0,0,0,0,0,-1,944,1758,0,0
-273,-734,0,0,0,0,0,0,0,0,0,-1,951,1758,0,0
-266,-734,0,0,0,0,0,0,0,0,0,-1,958,1758,0,0
-259,-734,0,0,0,0,0,0,0,0,0,-1,965,1758,0,0
-252,-734,5.73883,31.5245,0,0,0,0,0,0,0,-1,972,1758,5.73884,-31.5246
-245,-734,6.32513,30.9761,0,0,0,0,0,0,0,-1,979,1758,6.32511,-30.9761
-238,-734,6.82385,30.0449,0,0,0,0,0,0,0,-1,986,1758,6.82387,-30.0449
-231,-734,7.1958,29.1666,0,0,0,0,0,0,0,-1,993,1758,7.19578,-29.1666
-224,-734,10.8631,52.8424,0,0,0,0,0,0,0,-1,1000,1758,10.8631,-52.8424
-217,-734,7.45984,28.4386,0,0,0,0,0,0,0,-1,1007,1758,7.45986,-28.4386
-210,-734,7.45483,28.4388,0,0,0,0,0,0,0,-1,1014,1758,7.45482,-28.4388
-203,-734,14.3309,49.7766,0,0,0,0,0,0,0,-1,1021,1758,14.3309,-49.7766
-196,-734,13.0366,49.6821,0,0,0,0,0,0,0,-1,1028,1758,13.0366,-49.6822
-189,-734,11.8075,49.2727,0,0,0,0,0,0,0,-1,1035,1758,11.8075,-49.2728
-182,-734,10.8073,48.8035,0,0,0,0,0,0,0,-1,1042,1758,10.8072,-48.8035
-175,-734,9.90186,48.634,0,0,0,0,0,0,0,-1,1049,1758,9.90187,-48.6341
-168,-734,8.91504,48.7642,0,0,0,0,0,0,0,-1,1056,1758,8.91505,-48.7641
-161,-734,10.4485,52.0808,0,0,0,0,0,0,0,-1,1063,1758,10.4485,-52.0808
-154,-734,10.3014,52.4893,0,0,0,0,0,0,0,-1,1070,1758,10.3014,-52.4893
-147,-734,10.0864,53.8187,0,0,0,0,0,0,0,-1,1077,1758,10.0865,-53.8187
-140,-734,9.98145,56.5284,0,0,0,0,0,0,0,-1,1084,1758,9.98147,-56.5285
-133,-734,9.95007,55.8319,0,0,0,0,0,0,0,-1,1091,1758,9.95003,-55.8319
-126,-734,9.97461,57.5448,0,0,0,0,0,0,0,-1,1098,1758,9.97462,-57.5448
-119,-734,9.95593,57.8639,0,0,0,0,0,0,0,-1,1105,1758,9.95595,-57.8639
-112,-734,9.8031,58.0883,0,0,0,0,0,0,0,-1,1112,1758,9.80304,-58.0883
-105,-734,9.67297,58.468,0,0,0,0,0,0,0,-1,1119,1758,9.67292,-58.468
-98,-734,9.78503,59.1208,0,0,0,0,0,0,0,-1,1126,1758,9.78498,-59.1209
-91,-734,9.80188,59.4634,0,0,0,0,0,0,0,-1,1133,1758,9.80194,-59.4634
-84,-734,9.71655,59.7992,0,0,0,0,0,0,0,-1,1140,1758,9.71653,-59.7992
-77,-734,9.67102,60.2161,0,0,0,0,0,0,0,-1,1147,1758,9.67108,-60.2161
-70,-734,9.67505,60.587,0,0,0,0,0,0,0,-1,1154,1758,9.6751,-60.587
-63,-734,9.53638,60.6575,-0.00376783,0.00449292,0.00348876,0.00576916,-0.00504407,1.2201,0.0062477,0.0368118,1161,1758,9.53639,-60.6574
-56,-734,9.55139,61.1345,-0.00369524,0.00391064,0.00270413,0.00477404,-0.00455864,1.26174,0.0053887,0.0182052,1168,1758,9.55134,-61.1345
-49,-734,9.51233,61.4041,-0.0033886,0.00448321,0.00137978,0.00471805,-0.00362344,1.40221,0.00482977,0.0142971,1175,1758,9.51228,-61.404
-42,-734,9.48596,61.6899,-0.0032816,0.00540205,0.00061257,0.00544505,-0.0033246,1.50072,0.00511226,0.0147896,1182,1758,9.48593,-61.6899
-35,-734,9.47888,61.9183,-0.00348755,0.00554087,5.56776e-05,0.00554121,-0.00348789,1.56463,0.0052577,0.0147219,1189,1758,9.47891,-61.9183
-28,-734,9.44458,62.1227,-0.00392843,0.00532374,-0.000304899,0.00533378,-0.00393847,-1.53789,0.0053735,0.0100104,1196,1758,9.44458,-62.1227
-21,-734,9.44824,62.329,-0.00436401,0.00507769,-0.000360173,0.00509141,-0.00437773,-1.53272,0.00547219,0.0164422,1203,1758,9.44825,-62.329
-14,-734,9.39392,62.5457,-0.00480724,0.00469173,-0.000293576,0.0047008,-0.00481631,-1.53993,0.00549484,0.0166562,1210,1758,9.39391,-62.5456
-7,-734,9.37952,62.7144,-0.0052354,0.00416149,-0.000256773,0.0041685,-0.00524241,-1.5435,0.00544517,0.0181498,1217,1758,9.37946,-62.7143
0,-734,9.35669,62.8567,-0.00573639,0.00377813,-3.66941e-05,0.00377828,-0.00573653,-1.56694,0.00553202,0.0180025,1224,1758,9.35666,-62.8567
7,-734,9.33252,62.9916,-0.00613741,0.00338565,0.000240917,0.00339174,-0.0061435,1.54552,0.00558107,0.0138259,1231,1758,9.33256,-62.9916
14,-734,9.30945,63.1571,-0.00650463,0.0029411,0.000518591,0.00296949,-0.00653301,1.51611,0.00561339,0.0149274,1238,1758,9.30948,-63.1571
21,-734,9.26453,63.2561,-0.0067007,0.00270456,0.000750237,0.00276403,-0.00676017,1.4917,0.00565784,0.0133017,1245,1758,9.26451,-63.2561
28,-734,9.27234,63.3345,-0.00675886,0.00252285,0.000862851,0.00260238,-0.00683839,1.47888,0.00563055,0.011954,1252,1758,9.2723,-63.3345
35,-734,9.27148,63.4286,-0.00676215,0.00249459,0.000753947,0.0025556,-0.00682316,1.49006,0.00559856,0.0144098,1259,1758,9.27144,-63.4285
42,-734,9.27405,63.4581,-0.00666898,0.00260031,0.000788882,0.00266697,-0.00673564,1.4865,0.00559545,0.0130332,1266,1758,9.27403,-63.4581
49,-734,9.24011,63.4983,-0.00658465,0.00256246,0.000651694,0.00260866,-0.00663084,1.50003,0.00550033,0.0112389,1273,1758,9.24007,-63.4983
56,-734,9.20837,63.5576,-0.00653398,0.00247449,0.000510488,0.00250333,-0.00656282,1.51437,0.00540642,0.0106006,1280,1758,9.20839,-63.5576
63,-734,9.17712,63.5486,-0.00629676,0.00261435,0.000341062,0.00262739,-0.00630979,1.5326,0.00530387,0.013204,1287,1758,9.17716,-63.5486
70,-734,9.19226,63.5167,-0.00591333,0.00281618,0.000211831,0.00282132,-0.00591846,1.54655,0.00515044,0.0138406,1294,1758,9.19224,-63.5167
77,-734,9.20117,63.4813,-0.00556775,0.00292418,8.94869e-05,0.00292512,-0.00556869,1.56026,0.00498245,0.0190074,1301,1758,9.20112,-63.4813
84,-734,9.15747,63.4193,-0.00533629,0.00297971,-6.73233e-05,0.00298025,-0.00533684,-1.5627,0.0048657,0.0178671,1308,1758,9.15746,-63.4193
91,-734,9.14709,63.3571,-0.00502907,0.00303039,-6.17009e-05,0.00303086,-0.00502954,-1.56314,0.00470112,0.0207845,1315,1758,9.14704,-63.357
98,-734,9.16064,63.3027,-0.00478826,0.0028425,5.22984e-05,0.00284286,-0.00478862,1.56394,0.00445352,0.0146312,1322,1758,9.16065,-63.3027
105,-734,9.14001,63.2097,-0.00455376,0.00260041,0.000202192,0.00260612,-0.00455947,1.54256,0.00418798,0.0149165,1329,1758,9.14001,-63.2097
112,-734,9.14807,63.0663,-0.0044187,0.00228257,0.000369506,0.00230288,-0.00443901,1.51588,0.00395702,0.0130202,1336,1758,9.14804,-63.0663
119,-734,9.15662,62.9263,-0.00425286,0.0020176,0.000546913,0.00206494,-0.00430021,1.48444,0.00374969,0.0134408,1343,1758,9.1566,-62.9262
126,-734,9.13538,62.7859,-0.00403211,0.00170236,0.000708443,0.00178859,-0.00411834,1.44968,0.00349767,0.0158055,1350,1758,9.13538,-62.7859
133,-734,9.08142,62.6,-0.00373833,0.00161911,0.000836546,0.00174669,-0.00386592,1.41945,0.00331655,0.0153715,1357,1758,9.08137,-62.5999
140,-734,9.07068,62.4258,-0.00339826,0.00159289,0.000961268,0.00177163,-0.00357699,1.38696,0.00314612,0.0198022,1364,1758,9.07069,-62.4258
147,-734,9.0387,62.2258,-0.00320753,0.00161223,0.00073741,0.00172252,-0.00331783,1.42232,0.00295824,0.013948,1371,1758,9.03867,-62.2259
154,-734,9.00122,62.0184,-0.00306766,0.0016957,0.000540776,0.00175632,-0.00312828,1.45916,0.00285697,0.0101049,1378,1758,9.00126,-62.0184
161,-734,8.98279,61.7911,-0.00304098,0.00173614,0.00025041,0.00174923,-0.00305407,1.51857,0.00280709,0.00938247,1385,1758,8.98277,-61.7911
168,-734,8.91223,61.5354,-0.00309713,0.00154032,-0.000114999,0.00154317,-0.00309998,-1.54602,0.00273049,0.0145359,1392,1758,8.91219,-61.5354
175,-734,8.87524,61.277,-0.00309415,0.00144602,-0.000602917,0.00152472,-0.00317285,-1.441,0.00276722,0.0180184,1399,1758,8.87523,-61.2769
182,-734,8.90466,60.9774,-0.00296802,0.0016904,-0.00102501,0.00190596,-0.00318359,-1.36351,0.00296915,0.0167091,1406,1758,8.90465,-60.9774
189,-734,8.84741,60.6709,-0.00313356,0.00201617,-0.0014264,0.00238486,-0.00350225,-1.31785,0.00341927,0.012418,1413,1758,8.8474,-60.6709
196,-734,8.79834,60.3585,-0.00366556,0.00256767,-0.00210751,0.00321336,-0.00431124,-1.2735,0.00435972,0.0154923,1420,1758,8.79838,-60.3586
203,-734,8.78503,60.0029,-0.00425821,0.00349045,-0.00268399,0.00432932,-0.00509708,-1.26787,0.00544835,0.0218921,1427,1758,8.78508,-60.0029
210,-734,8.7793,59.6497,-0.0042921,0.00515324,-0.00305955,0.00605769,-0.00519655,-1.28337,0.00650397,0.037769,1434,1758,8.77927,-59.6497
217,-734,8.66919,59.373,0,0,0,0,0,0,0,-1,1441,1758,8.66923,-59.373
224,-734,8.62048,58.9971,0,0,0,0,0,0,0,-1,1448,1758,8.62049,-58.997
231,-734,8.52332,58.5626,0,0,0,0,0,0,0,-1,1455,1758,8.5233,-58.5626
238,-734,8.50061,58.0496,0,0,0,0,0,0,0,-1,1462,1758,8.50062,-58.0496
245,-734,8.57874,57.3931,0,0,0,0,0,0,0,-1,1469,1758,8.57879,-57.3931
252,-734,8.59229,56.7112,0,0,0,0,0,0,0,-1,1476,1758,8.59226,-56.7111
259,-734,8.49353,56.6073,0,0,0,0,0,0,0,-1,1483,1758,8.49354,-56.6072
266,-734,8.39966,56.4053,0,0,0,0,0,0,0,-1,1490,1758,8.39964,-56.4052
273,-734,8.5791,56.0886,0,0,0,0,0,0,0,-1,1497,1758,8.57916,-56.0886
280,-734,7.90149,52.7294,0,0,0,0,0,0,0,-1,1504,1758,7.90153,-52.7294
287,-734,7.56177,50.5933,0,0,0,0,0,0,0,-1,1511,1758,7.56172,-50.5933
294,-734,7.42676,47.7545,0,0,0,0,0,0,0,-1,1518,1758,7.4268,-47.7545
301,-734,7.21814,42.6078,0,0,0,0,0,0,0,-1,1525,1758,7.21809,-42.6078
308,-734,8.0509,41.5156,0,0,0,0,0,0,0,-1,1532,1758,8.05087,-41.5157
315,-734,7.93787,40.8274,0,0,0,0,0,0,0,-1,1539,1758,7.93784,-40.8273
322,-734,7.82483,40.139,0,0,0,0,0,0,0,-1,1546,1758,7.82481,-40.139
329,-734,5.73267,19.656,0,0,0,0,0,0,0,-1,1553,1758,5.73262,-19.656
336,-734,6.71375,23.7469,0,0,0,0,0,0,0,-1,1560,1758,6.71372,-23.7469
343,-734,5.54968,5.14221,0,0,0,0,0,0,0,-1,1567,1758,5.54973,-5.14225
350,-734,5.07397,6.73242,0,0,0,0,0,0,0,-1,1574,1758,5.07402,-6.73243
357,-734,5.05542,7.19189,0,0,0,0,0,0,0,-1,1581,1758,5.05541,-7.19184
364,-734,4.43896,10.4904,0,0,0,0,0,0,0,-1,1588,1758,4.43893,-10.4904
371,-734,7.36975,17.4751,0,0,0,0,0,0,0,-1,1595,1758,7.36972,-17.4752
378,-734,0,0,0,0,0,0,0,0,0,-1,1602,1758,0,0
385,-734,0,0,0,0,0,0,0,0,0,-1,1609,1758,0,0
392,-734,0,0,0,0,0,0,0,0,0,-1,1616,1758,0,0
399,-734,0,0,0,0,0,0,0,0,0,-1,1623,1758,0,0
406,-734,0,0,0,0,0,0,0,0,0,-1,1630,1758,0,0
413,-734,0,0,0,0,0,0,0,0,0,-1,1637,1758,0,0
420,-734,0,0,0,0,0,0,0,0,0,-1,1644,1758,0,0
427,-734,0,0,0,0,0,0,0,0,0,-1,1651,1758,0,0
434,-734,0,0,0,0,0,0,0,0,0,-1,1658,1758,0,0
441,-734,0,0,0,0,0,0,0,0,0,-1,1665,1758,0,0
448,-734,0,0,0,0,0,0,0,0,0,-1,1672,1758,0,0
455,-734,0,0,0,0,0,0,0,0,0,-1,1679,1758,0,0
462,-734,0,0,0,0,0,0,0,0,0,-1,1686,1758,0,0
469,-734,0,0,0,0,0,0,0,0,0,-1,1693,1758,0,0
476,-734,0,0,0,0,0,0,0,0,0,-1,1700,1758,0,0
483,-734,0,0,0,0,0,0,0,0,0,-1,1707,1758,0,0
490,-734,0,0,0,0,0,0,0,0,0,-1,1714,1758,0,0
497,-734,0,0,0,0,0,0,0,0,0,-1,1721,1758,0,0
504,-734,0,0,0,0,0,0,0,0,0,-1,1728,1758,0,0
511,-734,0,0,0,0,0,0,0,0,0,-1,1735,1758,0,0
518,-734,0,0,0,0,0,0,0,0,0,-1,1742,1758,0,0
525,-734,0,0,0,0,0,0,0,0,0,-1,1749,1758,0,0
532,-734,0,0,0,0,0,0,0,0,0,-1,1756,1758,0,0
539,-734,0,0,0,0,0,0,0,0,0,-1,1763,1758,0,0
546,-734,0,0,0,0,0,0,0,0,0,-1,1770,1758,0,0
553,-734,0,0,0,0,0,0,0,0,0,-1,1777,1758,0,0
560,-734,0,0,0,0,0,0,0,0,0,-1,1784,1758,0,0
567,-734,0,0,0,0,0,0,0,0,0,-1,1791,1758,0,0
574,-734,0,0,0,0,0,0,0,0,0,-1,1798,1758,0,0
581,-734,0,0,0,0,0,0,0,0,0,-1,1805,1758,0,0
588,-734,0,0,0,0,0,0,0,0,0,-1,1812,1758,0,0
595,-734,0,0,0,0,0,0,0,0,0,-1,1819,1758,0,0
602,-734,0,0,0,0,0,0,0,0,0,-1,1826,1758,0,0
609,-734,0,0,0,0,0,0,0,0,0,-1,1833,1758,0,0
616,-734,0,0,0,0,0,0,0,0,0,-1,1840,1758,0,0
623,-734,0,0,0,0,0,0,0,0,0,-1,1847,1758,0,0
630,-734,0,0,0,0,0,0,0,0,0,-1,1854,1758,0,0
637,-734,0,0,0,0,0,0,0,0,0,-1,1861,1758,0,0
644,-734,0,0,0,0,0,0,0,0,0,-1,1868,1758,0,0
651,-734,0,0,0,0,0,0,0,0,0,-1,1875,1758,0,0
658,-734,0,0,0,0,0,0,0,0,0,-1,1882,1758,0,0
665,-734,0,0,0,0,0,0,0,0,0,-1,1889,1758,0,0
672,-734,0,0,0,0,0,0,0,0,0,-1,1896,1758,0,0
679,-734,0,0,0,0,0,0,0,0,0,-1,1903,1758,0,0
686,-734,0,0,0,0,0,0,0,0,0,-1,1910,1758,0,0
693,-734,0,0,0,0,0,0,0,0,0,-1,1917,1758,0,0
700,-734,0,0,0,0,0,0,0,0,0,-1,1924,1758,0,0
707,-734,0,0,0,0,0,0,0,0,0,-1,1931,1758,0,0
714,-734,0,0,0,0,0,0,0,0,0,-1,1938,1758,0,0
721,-734,0,0,0,0,0,0,0,0,0,-1,1945,1758,0,0
728,-734,0,0,0,0,0,0,0,0,0,-1,1952,1758,0,0
735,-734,0,0,0,0,0,0,0,0,0,-1,1959,1758,0,0
742,-734,0,0,0,0,0,0,0,0,0,-1,1966,1758,0,0
749,-734,0,0,0,0,0,0,0,0,0,-1,1973,1758,0,0
756,-734,0,0,0,0,0,0,0,0,0,-1,1980,1758,0,0
763,-734,0,0,0,0,0,0,0,0,0,-1,1987,1758,0,0
770,-734,0,0,0,0,0,0,0,0,0,-1,1994,1758,0,0
777,-734,0,0,0,0,0,0,0,0,0,-1,2001,1758,0,0
784,-734,0,0,0,0,0,0,0,0,0,-1,2008,1758,0,0
791,-734,0,0,0,0,0,0,0,0,0,-1,2015,1758,0,0
798,-734,0,0,0,0,0,0,0,0,0,-1,2022,1758,0,0
805,-734,0,0,0,0,0,0,0,0,0,-1,2029,1758,0,0
812,-734,0,0,0,0,0,0,0,0,0,-1,2036,1758,0,0
-700,-741,0,0,0,0,0,0,0,0,0,-1,524,1765,0,0
-693,-741,0,0,0,0,0,0,0,0,0,-1,531,1765,0,0
-686,-741,0,0,0,0,0,0,0,0,0,-1,538,1765,0,0
-679,-741,0,0,0,0,0,0,0,0,0,-1,545,1765,0,0
-672,-741,0,0,0,0,0,0,0,0,0,-1,552,1765,0,0
-665,-741,0,0,0,0,0,0,0,0,0,-1,559,1765,0,0
-658,-741,0,0,0,0,0,0,0,0,0,-1,566,1765,0,0
-651,-741,0,0,0,0,0,0,0,0,0,-1,573,1765,0,0
-644,-741,0,0,0,0,0,0,0,0,0,-1,580,1765,0,0
-637,-741,0,0,0,0,0,0,0,0,0,-1,587,1765,0,0
-630,-741,0,0,0,0,0,0,0,0,0,-1,594,1765,0,0
-623,-741,0,0,0,0,0,0,0,0,0,-1,601,1765,0,0
-616,-741,0,0,0,0,0,0,0,0,0,-1,608,1765,0,0
-609,-741,0,0,0,0,0,0,0,0,0,-1,615,1765,0,0
-602,-741,0,0,0,0,0,0,0,0,0,-1,622,1765,0,0
-595,-741,0,0,0,0,0,0,0,0,0,-1,629,1765,0,0
-588,-741,0,0,0,0,0,0,0,0,0,-1,636,1765,0,0
-581,-741,0,0,0,0,0,0,0,0,0,-1,643,1765,0,0
-574,-741,0,0,0,0,0,0,0,0,0,-1,650,1765,0,0
-567,-741,0,0,0,0,0,0,0,0,0,-1,657,1765,0,0
-560,-741,0,0,0,0,0,0,0,0,0,-1,664,1765,0,0
-553,-741,0,0,0,0,0,0,0,0,0,-1,671,1765,0,0
-546,-741,0,0,0,0,0,0,0,0,0,-1,678,1765,0,0
-539,-741,0,0,0,0,0,0,0,0,0,-1,685,1765,0,0
-532,-741,0,0,0,0,0,0,0,0,0,-1,692,1765,0,0
-525,-741,0,0,0,0,0,0,0,0,0,-1,699,1765,0,0
-518,-741,0,0,0,0,0,0,0,0,0,-1,706,1765,0,0
-511,-741,0,0,0,0,0,0,0,0,0,-1,713,1765,0,0
-504,-741,0,0,0,0,0,0,0,0,0,-1,720,1765,0,0
-497,-741,0,0,0,0,0,0,0,0,0,-1,727,1765,0,0
-490,-741,0,0,0,0,0,0,0,0,0,-1,734,1765,0,0
-483,-741,0,0,0,0,0,0,0,0,0,-1,741,1765,0,0
-476,-741,0,0,0,0,0,0,0,0,0,-1,748,1765,0,0
-469,-741,0,0,0,0,0,0,0,0,0,-1,755,1765,0,0
-462,-741,0,0,0,0,0,0,0,0,0,-1,762,1765,0,0
-455,-741,0,0,0,0,0,0,0,0,0,-1,769,1765,0,0
-448,-741,0,0,0,0,0,0,0,0,0,-1,776,1765,0,0
-441,-741,0,0,0,0,0,0,0,0,0,-1,783,1765,0,0
-434,-741,0,0,0,0,0,0,0,0,0,-1,790,1765,0,0
-427,-741,0,0,0,0,0,0,0,0,0,-1,797,1765,0,0
-420,-741,0,0,0,0,0,0,0,0,0,-1,804,1765,0,0
-413,-741,0,0,0,0,0,0,0,0,0,-1,811,1765,0,0
-406,-741,0,0,0,0,0,0,0,0,0,-1,818,1765,0,0
-399,-741,0,0,0,0,0,0,0,0,0,-1,825,1765,0,0
-392,-741,0,0,0,0,0,0,0,0,0,-1,832,1765,0,0
-385,-741,0,0,0,0,0,0,0,0,0,-1,839,1765,0,0
-378,-741,0,0,0,0,0,0,0,0,0,-1,846,1765,0,0
-371,-741,0,0,0,0,0,0,0,0,0,-1,853,1765,0,0
-364,-741,0,0,0,0,0,0,0,0,0,-1,860,1765,0,0
-357,-741,0,0,0,0,0,0,0,0,0,-1,867,1765,0,0
-350,-741,0,0,0,0,0,0,0,0,0,-1,874,1765,0,0
-343,-741,0,0,0,0,0,0,0,0,0,-1,881,1765,0,0
-336,-741,0,0,0,0,0,0,0,0,0,-1,888,1765,0,0
-329,-741,0,0,0,0,0,0,0,0,0,-1,895,1765,0,0
-322,-741,0,0,0,0,0,0,0,0,0,-1,902,1765,0,0
-315,-741,0,0,0,0,0,0,0,0,0,-1,909,1765,0,0
-308,-741,0,0,0,0,0,0,0,0,0,-1,916,1765,0,0
-301,-741,0,0,0,0,0,0,0,0,0,-1,923,1765,0,0
-294,-741,0,0,0,0,0,0,0,0,0,-1,930,1765,0,0
-287,-741,0,0,0,0,0,0,0,0,0,-1,937,1765,0,0
-280,-741,0,0,0,0,0,0,0,0,0,-1,944,1765,0,0
-273,-741,0,0,0,0,0,0,0,0,0,-1,951,1765,0,0
-266,-741,0,0,0,0,0,0,0,0,0,-1,958,1765,0,0
-259,-741,0,0,0,0,0,0,0,0,0,-1,965,1765,0,0
-252,-741,0,0,0,0,0,0,0,0,0,-1,972,1765,0,0
-245,-741,0,0,0,0,0,0,0,0,0,-1,979,1765,0,0
-238,-741,7.13855,29.8348,0,0,0,0,0,0,0,-1,986,1765,7.13856,-29.8348
-231,-741,7.74182,29.3066,0,0,0,0,0,0,0,-1,993,1765,7.74183,-29.3066
-224,-741,7.80078,29.0964,0,0,0,0,0,0,0,-1,1000,1765,7.80079,-29.0964
-217,-741,8.15863,29.113,0,0,0,0,0,0,0,-1,1007,1765,8.15863,-29.1131
-210,-741,8.37024,29.3896,0,0,0,0,0,0,0,-1,1014,1765,8.37022,-29.3896
-203,-741,7.703,44.0701,0,0,0,0,0,0,0,-1,1021,1765,7.70306,-44.0701
-196,-741,13.1698,50.7012,0,0,0,0,0,0,0,-1,1028,1765,13.1698,-50.7012
-189,-741,12.3024,50.0712,0,0,0,0,0,0,0,-1,1035,1765,12.3023,-50.0712
-182,-741,11.3236,49.675,0,0,0,0,0,0,0,-1,1042,1765,11.3236,-49.675
-175,-741,10.1451,49.7836,0,0,0,0,0,0,0,-1,1049,1765,10.1451,-49.7836
-168,-741,9.26172,49.837,0,0,0,0,0,0,0,-1,1056,1765,9.26167,-49.837
-161,-741,8.42102,49.8832,0,0,0,0,0,0,0,-1,1063,1765,8.42099,-49.8832
-154,-741,10.5177,48.0798,0,0,0,0,0,0,0,-1,1070,1765,10.5177,-48.0798
-147,-741,10.9515,48.8568,0,0,0,0,0,0,0,-1,1077,1765,10.9515,-48.8569
-140,-741,10.5068,51.2876,0,0,0,0,0,0,0,-1,1084,1765,10.5068,-51.2876
-133,-741,10.6208,54.5072,0,0,0,0,0,0,0,-1,1091,1765,10.6208,-54.5072
-126,-741,9.89746,52.7167,0,0,0,0,0,0,0,-1,1098,1765,9.8975,-52.7167
-119,-741,9.33801,50.1482,0,0,0,0,0,0,0,-1,1105,1765,9.33802,-50.1482
-112,-741,9.6283,47.2815,0,0,0,0,0,0,0,-1,1112,1765,9.62827,-47.2815
-105,-741,9.61792,45.9158,0,0,0,0,0,0,0,-1,1119,1765,9.61797,-45.9158
-98,-741,9.19971,40.25,0,0,0,0,0,0,0,-1,1126,1765,9.19971,-40.25
-91,-741,8.40002,36.3687,0,0,0,0,0,0,0,-1,1133,1765,8.40002,-36.3687
-84,-741,7.8877,35.0892,0,0,0,0,0,0,0,-1,1140,1765,7.88776,-35.0892
-77,-741,7.73303,34.1174,0,0,0,0,0,0,0,-1,1147,1765,7.73304,-34.1174
-70,-741,7.5437,32.0275,0,0,0,0,0,0,0,-1,1154,1765,7.5437,-32.0275
-63,-741,9.56714,60.2856,0,0,0,0,0,0,0,-1,1161,1765,9.56719,-60.2856
-56,-741,9.81506,61.1091,0,0,0,0,0,0,0,-1,1168,1765,9.81509,-61.1091
-49,-741,9.75928,61.4574,0,0,0,0,0,0,0,-1,1175,1765,9.75924,-61.4574
-42,-741,9.68884,61.7163,0,0,0,0,0,0,0,-1,1182,1765,9.68888,-61.7164
-35,-741,9.68518,61.9135,-0.0057552,0.0085567,-0.000364849,0.008566,-0.00576449,-1.54533,0.00832625,0.0247097,1189,1765,9.68515,-61.9134
-28,-741,9.66418,62.1272,-0.00696408,0.00842742,-0.000757197,0.00846458,-0.00700124,-1.52176,0.00894251,0.0151446,1196,1765,9.6642,-62.1272
-21,-741,9.64575,62.3284,-0.00805169,0.00812515,-0.000770938,0.0081618,-0.00808834,-1.52328,0.00938206,0.019072,1203,1765,9.64573,-62.3284
-14,-741,9.56921,62.5322,-0.00909021,0.00761514,-0.000617481,0.00763793,-0.009113,-1.5339,0.00968365,0.0189519,1210,1765,9.56915,-62.5322
-7,-741,9.52759,62.6788,-0.0100581,0.00685039,-0.000500789,0.00686521,-0.010073,-1.54121,0.00983753,0.0157262,1217,1765,9.52759,-62.6788
0,-741,9.48718,62.808,-0.011039,0.00623277,-0.000162375,0.0062343,-0.0110405,-1.5614,0.0101015,0.0158412,1224,1765,9.4872,-62.808
7,-741,9.4552,62.9766,-0.0118946,0.00556052,0.000242263,0.00556388,-0.0118979,1.55692,0.0103003,0.018059,1231,1765,9.45518,-62.9765
14,-741,9.42004,63.1265,-0.0127098,0.00505594,0.000717899,0.0050849,-0.0127388,1.53047,0.0106021,0.0179804,1238,1765,9.42009,-63.1265
21,-741,9.36328,63.2167,-0.0126681,0.00503357,0.000853427,0.00507462,-0.0127092,1.52273,0.0105782,0.0140569,1245,1765,9.36328,-63.2167
28,-741,9.33704,63.3376,-0.0120495,0.00469866,0.00128869,0.00479724,-0.0121481,1.49445,0.0100856,0.0142003,1252,1765,9.33703,-63.3377
35,-741,9.33374,63.3931,-0.011506,0.00504072,0.00132522,0.00514618,-0.0116115,1.49138,0.00991216,0.0156663,1259,1765,9.33371,-63.393
42,-741,9.29651,63.4198,-0.0106364,0.00567687,0.00160379,0.00583304,-0.0107926,1.47372,0.00974015,0.0167168,1266,1765,9.29648,-63.4197
49,-741,9.2616,63.481,-0.00958119,0.00636952,0.00166322,0.00654111,-0.00975277,1.468,0.00946799,0.0111789,1273,1765,9.26164,-63.481
56,-741,9.21729,63.5306,-0.00853213,0.00707678,0.00175048,0.00727068,-0.00872603,1.46048,0.00924844,0.0108832,1280,1765,9.21725,-63.5306
63,-741,9.16089,63.526,-0.00739099,0.00785286,0.001777,0.00805727,-0.0075954,1.45627,0.00903838,0.0153651,1287,1765,9.16083,-63.5259
70,-741,9.15686,63.5165,-0.00622531,0.00865446,0.00183662,0.0088778,-0.00644865,1.44979,0.0088857,0.0185285,1294,1765,9.15682,-63.5165
77,-741,9.15015,63.4867,-0.00526904,0.00928986,0.00182821,0.00951592,-0.0054951,1.44777,0.00876964,0.0158768,1301,1765,9.15009,-63.4867
84,-741,9.09558,63.4404,-0.00468139,0.00974701,0.0017404,0.00995398,-0.00488836,1.45244,0.008734,0.0174395,1308,1765,9.09563,-63.4404
91,-741,9.05981,63.392,-0.00434422,0.00993206,0.00177152,0.0101486,-0.00456076,1.44917,0.00869431,0.0150977,1315,1765,9.05976,-63.3919
98,-741,9.05176,63.2933,-0.00438686,0.00962127,0.00186733,0.00986592,-0.00463151,1.44052,0.00855002,0.0115087,1322,1765,9.05177,-63.2933
105,-741,9.03491,63.1581,-0.00462549,0.00901054,0.00195185,0.00928443,-0.00489937,1.43139,0.00831845,0.01146,1329,1765,9.03496,-63.1581
112,-741,9.04736,63.0172,-0.00506553,0.00811784,0.0020185,0.00841997,-0.00536766,1.42222,0.00802505,0.0113109,1336,1765,9.04732,-63.0173
119,-741,8.9989,62.8894,-0.00535195,0.00703976,0.00201072,0.00735786,-0.00567005,1.41389,0.00754268,0.0136441,1343,1765,8.99888,-62.8894
126,-741,8.97034,62.7521,-0.0058838,0.00582961,0.00220642,0.00623144,-0.00628563,1.39065,0.00722676,0.0188841,1350,1765,8.97035,-62.7521
133,-741,8.93384,62.5742,-0.00615181,0.00537355,0.00189072,0.00567579,-0.00645406,1.41228,0.00700797,0.0148169,1357,1765,8.9338,-62.5742
140,-741,8.86462,62.392,-0.00568419,0.00449212,0.00185459,0.00481957,-0.00601164,1.39603,0.00626602,0.0116738,1364,1765,8.86461,-62.392
147,-741,8.82898,62.2063,-0.00536865,0.00378942,0.00141224,0.00400225,-0.00558148,1.42122,0.00555815,0.0109845,1371,1765,8.82896,-62.2063
154,-741,8.79456,62.0243,-0.00508336,0.00327179,0.00114257,0.00342522,-0.00523679,1.43731,0.00503734,0.00966084,1378,1765,8.79454,-62.0243
161,-741,8.76404,61.7798,-0.00488532,0.00284402,0.000802344,0.00292643,-0.00496773,1.46845,0.00460821,0.0112582,1385,1765,8.76401,-61.7798
168,-741,8.71252,61.5361,-0.00483131,0.00232858,0.000266938,0.00233852,-0.00484125,1.53358,0.00422836,0.0263133,1392,1765,8.71249,-61.5362
175,-741,8.59387,61.29,0,0,0,0,0,0,0,-1,1399,1765,8.59393,-61.29
182,-741,8.63025,61.0026,0,0,0,0,0,0,0,-1,1406,1765,8.6302,-61.0026
189,-741,8.54504,60.7142,0,0,0,0,0,0,0,-1,1413,1765,8.54506,-60.7142
196,-741,8.49487,60.3915,0,0,0,0,0,0,0,-1,1420,1765,8.4949,-60.3915
203,-741,8.48926,59.9539,0,0,0,0,0,0,0,-1,1427,1765,8.48931,-59.9539
210,-741,8.4248,59.3591,0,0,0,0,0,0,0,-1,1434,1765,8.42477,-59.3591
217,-741,8.4032,40.1213,0,0,0,0,0,0,0,-1,1441,1765,8.40325,-40.1214
224,-741,8.0719,38.4249,0,0,0,0,0,0,0,-1,1448,1765,8.07187,-38.4249
231,-741,7.95923,39.0671,0,0,0,0,0,0,0,-1,1455,1765,7.9592,-39.0671
238,-741,7.96619,42.4865,0,0,0,0,0,0,0,-1,1462,1765,7.96621,-42.4864
245,-741,8.53577,45.7744,0,0,0,0,0,0,0,-1,1469,1765,8.53581,-45.7744
252,-741,8.59167,47.473,0,0,0,0,0,0,0,-1,1476,1765,8.59162,-47.473
259,-741,8.47412,48.5269,0,0,0,0,0,0,0,-1,1483,1765,8.47412,-48.5269
266,-741,8.50134,48.3838,0,0,0,0,0,0,0,-1,1490,1765,8.50132,-48.3838
273,-741,8.81421,49.1227,0,0,0,0,0,0,0,-1,1497,1765,8.81426,-49.1227
280,-741,7.33093,51.4729,0,0,0,0,0,0,0,-1,1504,1765,7.33092,-51.4729
287,-741,7.52783,49.7068,0,0,0,0,0,0,0,-1,1511,1765,7.52783,-49.7068
294,-741,5.91187,43.7742,0,0,0,0,0,0,0,-1,1518,1765,5.91188,-43.7742
301,-741,6.20667,38.5165,0,0,0,0,0,0,0,-1,1525,1765,6.20667,-38.5165
308,-741,7.99036,42.5969,0,0,0,0,0,0,0,-1,1532,1765,7.99037,-42.5969
315,-741,7.83838,41.6693,0,0,0,0,0,0,0,-1,1539,1765,7.83835,-41.6694
322,-741,7.68628,40.7418,0,0,0,0,0,0,0,-1,1546,1765,7.68633,-40.7418
329,-741,4.74414,17.928,0,0,0,0,0,0,0,-1,1553,1765,4.74414,-17.928
336,-741,5.74304,22.0945,0,0,0,0,0,0,0,-1,1560,1765,5.74306,-22.0945
343,-741,7.09888,26.501,0,0,0,0,0,0,0,-1,1567,1765,7.09885,-26.501
350,-741,4.90369,5.44666,0,0,0,0,0,0,0,-1,1574,1765,4.90368,-5.44664
357,-741,4.02063,5.16626,0,0,0,0,0,0,0,-1,1581,1765,4.02058,-5.1662
364,-741,0,0,0,0,0,0,0,0,0,-1,1588,1765,0,0
371,-741,0,0,0,0,0,0,0,0,0,-1,1595,1765,0,0
378,-741,0,0,0,0,0,0,0,0,0,-1,1602,1765,0,0
385,-741,0,0,0,0,0,0,0,0,0,-1,1609,1765,0,0
392,-741,0,0,0,0,0,0,0,0,0,-1,1616,1765,0,0
399,-741,0,0,0,0,0,0,0,0,0,-1,1623,1765,0,0
406,-741,0,0,0,0,0,0,0,0,0,-1,1630,1765,0,0
413,-741,0,0,0,0,0,0,0,0,0,-1,1637,1765,0,0
420,-741,0,0,0,0,0,0,0,0,0,-1,1644,1765,0,0
427,-741,0,0,0,0,0,0,0,0,0,-1,1651,1765,0,0
434,-741,0,0,0,0,0,0,0,0,0,-1,1658,1765,0,0
441,-741,0,0,0,0,0,0,0,0,0,-1,1665,1765,0,0
448,-741,0,0,0,0,0,0,0,0,0,-1,1672,1765,0,0
455,-741,0,0,0,0,0,0,0,0,0,-1,1679,1765,0,0
462,-741,0,0,0,0,0,0,0,0,0,-1,1686,1765,0,0
469,-741,0,0,0,0,0,0,0,0,0,-1,1693,1765,0,0
476,-741,0,0,0,0,0,0,0,0,0,-1,1700,1765,0,0
483,-741,0,0,0,0,0,0,0,0,0,-1,1707,1765,0,0
490,-741,0,0,0,0,0,0,0,0,0,-1,1714,1765,0,0
497,-741,0,0,0,0,0,0,0,0,0,-1,1721,1765,0,0
504,-741,0,0,0,0,0,0,0,0,0,-1,1728,1765,0,0
511,-741,0,0,0,0,0,0,0,0,0,-1,1735,1765,0,0
518,-741,0,0,0,0,0,0,0,0,0,-1,1742,1765,0,0
525,-741,0,0,0,0,0,0,0,0,0,-1,1749,1765,0,0
532,-741,0,0,0,0,0,0,0,0,0,-1,1756,1765,0,0
539,-741,0,0,0,0,0,0,0,0,0,-1,1763,1765,0,0
546,-741,0,0,0,0,0,0,0,0,0,-1,1770,1765,0,0
553,-741,0,0,0,0,0,0,0,0,0,-1,1777,1765,0,0
560,-741,0,0,0,0,0,0,0,0,0,-1,1784,1765,0,0
567,-741,0,0,0,0,0,0,0,0,0,-1,1791,1765,0,0
574,-741,0,0,0,0,0,0,0,0,0,-1,1798,1765,0,0
581,-741,0,0,0,0,0,0,0,0,0,-1,1805,1765,0,0
588,-741,0,0,0,0,0,0,0,0,0,-1,1812,1765,0,0
595,-741,0,0,0,0,0,0,0,0,0,-1,1819,1765,0,0
602,-741,0,0,0,0,0,0,0,0,0,-1,1826,1765,0,0
609,-741,0,0,0,0,0,0,0,0,0,-1,1833,1765,0,0
616,-741,0,0,0,0,0,0,0,0,0,-1,1840,1765,0,0
623,-741,0,0,0,0,0,0,0,0,0,-1,1847,1765,0,0
630,-741,0,0,0,0,0,0,0,0,0,-1,1854,1765,0,0
637,-741,0,0,0,0,0,0,0,0,0,-1,1861,1765,0,0
644,-741,0,0,0,0,0,0,0,0,0,-1,1868,1765,0,0
651,-741,0,0,0,0,0,0,0,0,0,-1,1875,1765,0,0
658,-741,0,0,0,0,0,0,0,0,0,-1,1882,1765,0,0
665,-741,0,0,0,0,0,0,0,0,0,-1,1889,1765,0,0
672,-741,0,0,0,0,0,0,0,0,0,-1,1896,1765,0,0
679,-741,0,0,0,0,0,0,0,0,0,-1,1903,1765,0,0
686,-741,0,0,0,0,0,0,0,0,0,-1,1910,1765,0,0
693,-741,0,0,0,0,0,0,0,0,0,-1,1917,1765,0,0
700,-741,0,0,0,0,0,0,0,0,0,-1,1924,1765,0,0
707,-741,0,0,0,0,0,0,0,0,0,-1,1931,1765,0,0
714,-741,0,0,0,0,0,0,0,0,0,-1,1938,1765,0,0
721,-741,0,0,0,0,0,0,0,0,0,-1,1945,1765,0,0
728,-741,0,0,0,0,0,0,0,0,0,-1,1952,1765,0,0
735,-741,0,0,0,0,0,0,0,0,0,-1,1959,1765,0,0
742,-741,0,0,0,0,0,0,0,0,0,-1,1966,1765,0,0
749,-741,0,0,0,0,0,0,0,0,0,-1,1973,1765,0,0
756,-741,0,0,0,0,0,0,0,0,0,-1,1980,1765,0,0
763,-741,0,0,0,0,0,0,0,0,0,-1,1987,1765,0,0
770,-741,0,0,0,0,0,0,0,0,0,-1,1994,1765,0,0
777,-741,0,0,0,0,0,0,0,0,0,-1,2001,1765,0,0
784,-741,0,0,0,0,0,0,0,0,0,-1,2008,1765,0,0
791,-741,0,0,0,0,0,0,0,0,0,-1,2015,1765,0,0
798,-741,0,0,0,0,0,0,0,0,0,-1,2022,1765,0,0
805,-741,0,0,0,0,0,0,0,0,0,-1,2029,1765,0,0
812,-741,0,0,0,0,0,0,0,0,0,-1,2036,1765,0,0
-700,-748,0,0,0,0,0,0,0,0,0,-1,524,1772,0,0
-693,-748,0,0,0,0,0,0,0,0,0,-1,531,1772,0,0
-686,-748,0,0,0,0,0,0,0,0,0,-1,538,1772,0,0
-679,-748,0,0,0,0,0,0,0,0,0,-1,545,1772,0,0
-672,-748,0,0,0,0,0,0,0,0,0,-1,552,1772,0,0
-665,-748,0,0,0,0,0,0,0,0,0,-1,559,1772,0,0
-658,-748,0,0,0,0,0,0,0,0,0,-1,566,1772,0,0
-651,-748,0,0,0,0,0,0,0,0,0,-1,573,1772,0,0
-644,-748,0,0,0,0,0,0,0,0,0,-1,580,1772,0,0
-637,-748,0,0,0,0,0,0,0,0,0,-1,587,1772,0,0
-630,-748,0,0,0,0,0,0,0,0,0,-1,594,1772,0,0
-623,-748,0,0,0,0,0,0,0,0,0,-1,601,1772,0,0
-616,-748,0,0,0,0,0,0,0,0,0,-1,608,1772,0,0
-609,-748,0,0,0,0,0,0,0,0,0,-1,615,1772,0,0
-602,-748,0,0,0,0,0,0,0,0,0,-1,622,1772,0,0
-595,-748,0,0,0,0,0,0,0,0,0,-1,629,1772,0,0
-588,-748,0,0,0,0,0,0,0,0,0,-1,636,1772,0,0
-581,-748,0,0,0,0,0,0,0,0,0,-1,643,1772,0,0
-574,-748,0,0,0,0,0,0,0,0,0,-1,650,1772,0,0
-567,-748,0,0,0,0,0,0,0,0,0,-1,657,1772,0,0
-560,-748,0,0,0,0,0,0,0,0,0,-1,664,1772,0,0
-553,-748,0,0,0,0,0,0,0,0,0,-1,671,1772,0,0
-546,-748,0,0,0,0,0,0,0,0,0,-1,678,1772,0,0
-539,-748,0,0,0,0,0,0,0,0,0,-1,685,1772,0,0
-532,-748,0,0,0,0,0,0,0,0,0,-1,692,1772,0,0
-525,-748,0,0,0,0,0,0,0,0,0,-1,699,1772,0,0
-518,-748,0,0,0,0,0,0,0,0,0,-1,706,1772,0,0
-511,-748,0,0,0,0,0,0,0,0,0,-1,713,1772,0,0
-504,-748,0,0,0,0,0,0,0,0,0,-1,720,1772,0,0
-497,-748,0,0,0,0,0,0,0,0,0,-1,727,1772,0,0
-490,-748,0,0,0,0,0,0,0,0,0,-1,734,1772,0,0
-483,-748,0,0,0,0,0,0,0,0,0,-1,741,1772,0,0
-476,-748,0,0,0,0,0,0,0,0,0,-1,748,1772,0,0
-469,-748,0,0,0,0,0,0,0,0,0,-1,755,1772,0,0
-462,-748,0,0,0,0,0,0,0,0,0,-1,762,1772,0,0
-455,-748,0,0,0,0,0,0,0,0,0,-1,769,1772,0,0
-448,-748,0,0,0,0,0,0,0,0,0,-1,776,1772,0,0
-441,-748,0,0,0,0,0,0,0,0,0,-1,783,1772,0,0
-434,-748,0,0,0,0,0,0,0,0,0,-1,790,1772,0,0
-427,-748,0,0,0,0,0,0,0,0,0,-1,797,1772,0,0
-420,-748,0,0,0,0,0,0,0,0,0,-1,804,1772,0,0
-413,-748,0,0,0,0,0,0,0,0,0,-1,811,1772,0,0
-406,-748,0,0,0,0,0,0,0,0,0,-1,818,1772,0,0
-399,-748,0,0,0,0,0,0,0,0,0,-1,825,1772,0,0
-392,-748,0,0,0,0,0,0,0,0,0,-1,832,1772,0,0
-385,-748,0,0,0,0,0,0,0,0,0,-1,839,1772,0,0
-378,-748,0,0,0,0,0,0,0,0,0,-1,846,1772,0,0
-371,-748,0,0,0,0,0,0,0,0,0,-1,853,1772,0,0
-364,-748,0,0,0,0,0,0,0,0,0,-1,860,1772,0,0
-357,-748,0,0,0,0,0,0,0,0,0,-1,867,1772,0,0
-350,-748,0,0,0,0,0,0,0,0,0,-1,874,1772,0,0
-343,-748,0,0,0,0,0,0,0,0,0,-1,881,1772,0,0
-336,-748,0,0,0,0,0,0,0,0,0,-1,888,1772,0,0
-329,-748,0,0,0,0,0,0,0,0,0,-1,895,1772,0,0
-322,-748,0,0,0,0,0,0,0,0,0,-1,902,1772,0,0
-315,-748,0,0,0,0,0,0,0,0,0,-1,909,1772,0,0
-308,-748,0,0,0,0,0,0,0,0,0,-1,916,1772,0,0
-301,-748,0,0,0,0,0,0,0,0,0,-1,923,1772,0,0
-294,-748,0,0,0,0,0,0,0,0,0,-1,930,1772,0,0
-287,-748,0,0,0,0,0,0,0,0,0,-1,937,1772,0,0
-280,-748,0,0,0,0,0,0,0,0,0,-1,944,1772,0,0
-273,-748,0,0,0,0,0,0,0,0,0,-1,951,1772,0,0
-266,-748,0,0,0,0,0,0,0,0,0,-1,958,1772,0,0
-259,-748,0,0,0,0,0,0,0,0,0,-1,965,1772,0,0
-252,-748,0,0,0,0,0,0,0,0,0,-1,972,1772,0,0
-245,-748,0,0,0,0,0,0,0,0,0,-1,979,1772,0,0
-238,-748,0,0,0,0,0,0,0,0,0,-1,986,1772,0,0
-231,-748,0,0,0,0,0,0,0,0,0,-1,993,1772,0,0
-224,-748,0,0,0,0,0,0,0,0,0,-1,1000,1772,0,0
-217,-748,8.97742,29.9884,0,0,0,0,0,0,0,-1,1007,1772,8.97744,-29.9884
-210,-748,8.8941,30.14,0,0,0,0,0,0,0,-1,1014,1772,8.8941,-30.14
-203,-748,7.88,43.3942,0,0,0,0,0,0,0,-1,1021,1772,7.87999,-43.3941
-196,-748,7.95483,43.9952,0,0,0,0,0,0,0,-1,1028,1772,7.95478,-43.9953
-189,-748,8.18359,44.5873,0,0,0,0,0,0,0,-1,1035,1772,8.18358,-44.5873
-182,-748,8.49304,45.5183,0,0,0,0,0,0,0,-1,1042,1772,8.49308,-45.5183
-175,-748,10.4392,50.6167,0,0,0,0,0,0,0,-1,1049,1772,10.4392,-50.6167
-168,-748,9.54541,50.6587,0,0,0,0,0,0,0,-1,1056,1772,9.54547,-50.6586
-161,-748,10.7574,47.7889,0,0,0,0,0,0,0,-1,1063,1772,10.7574,-47.7889
-154,-748,11.4552,48.7113,0,0,0,0,0,0,0,-1,1070,1772,11.4552,-48.7113
-147,-748,11.7789,49.4792,0,0,0,0,0,0,0,-1,1077,1772,11.7789,-49.4793
-140,-748,10.4108,44.9001,0,0,0,0,0,0,0,-1,1084,1772,10.4107,-44.9001
-133,-748,7.44727,22.0308,0,0,0,0,0,0,0,-1,1091,1772,7.44728,-22.0308
-126,-748,5.98035,22.6067,0,0,0,0,0,0,0,-1,1098,1772,5.9803,-22.6067
-119,-748,6.63342,26.309,0,0,0,0,0,0,0,-1,1105,1772,6.6334,-26.3089
-112,-748,6.91333,24.923,0,0,0,0,0,0,0,-1,1112,1772,6.91339,-24.923
-105,-748,6.83313,25.0537,0,0,0,0,0,0,0,-1,1119,1772,6.83311,-25.0537
-98,-748,8.13623,30.8743,0,0,0,0,0,0,0,-1,1126,1772,8.13628,-30.8742
-91,-748,4.85352,15.3033,0,0,0,0,0,0,0,-1,1133,1772,4.85351,-15.3033
-84,-748,-0.192017,7.26196,0,0,0,0,0,0,0,-1,1140,1772,-0.192047,-7.26201
-77,-748,4.42615,13.5537,0,0,0,0,0,0,0,-1,1147,1772,4.4261,-13.5538
-70,-748,4.46191,13.7446,0,0,0,0,0,0,0,-1,1154,1772,4.4619,-13.7446
-63,-748,4.49768,13.9355,0,0,0,0,0,0,0,-1,1161,1772,4.49769,-13.9355
-56,-748,3.05762,7.87817,0,0,0,0,0,0,0,-1,1168,1772,3.05768,-7.87822
-49,-748,3.04102,7.82471,0,0,0,0,0,0,0,-1,1175,1772,3.04096,-7.82468
-42,-748,0.793457,14.9474,0,0,0,0,0,0,0,-1,1182,1772,0.793413,-14.9474
-35,-748,9.85547,61.9595,0,0,0,0,0,0,0,-1,1189,1772,9.85544,-61.9595
-28,-748,9.88428,62.1429,-0.0105706,0.0124976,-0.00146175,0.0125899,-0.0106629,-1.50777,0.0134404,0.0493619,1196,1772,9.88425,-62.143
-21,-748,9.82764,62.3539,-0.0125627,0.0119484,-0.00129563,0.0120167,-0.012631,-1.51813,0.0142319,0.0236531,1203,1772,9.82761,-62.3538
-14,-748,9.74561,62.4843,-0.0142052,0.0112241,-0.000978139,0.0112617,-0.0142428,-1.53241,0.0147585,0.0173962,1210,1772,9.74555,-62.4843
-7,-748,9.70044,62.646,-0.0158122,0.0100749,-0.000706315,0.0100942,-0.0158315,-1.54354,0.0150898,0.0169076,1217,1772,9.70042,-62.646
0,-748,9.625,62.7927,-0.0173761,0.00909716,-0.000197106,0.00909863,-0.0173775,-1.56335,0.0155331,0.0162854,1224,1772,9.62497,-62.7927
7,-748,9.57642,62.9135,-0.0187337,0.00801112,0.00037808,0.00801647,-0.018739,1.55666,0.0158554,0.015145,1231,1772,9.57644,-62.9135
14,-748,9.53052,63.0854,-0.0200781,0.0073252,0.00104602,0.00736507,-0.020118,1.5327,0.0164269,0.0161886,1238,1772,9.53058,-63.0855
21,-748,9.48315,63.1982,-0.0201564,0.00742855,0.00121222,0.00748172,-0.0202096,1.52696,0.0165409,0.0121101,1245,1772,9.4831,-63.1982
28,-748,9.42786,63.3038,-0.0186514,0.00686414,0.00196051,0.0070139,-0.0188012,1.49456,0.0154135,0.01245,1252,1772,9.42782,-63.3038
35,-748,9.36926,63.3534,-0.0168407,0.00749568,0.00233654,0.00771798,-0.017063,1.47594,0.0146425,0.0129116,1259,1772,9.36932,-63.3534
42,-748,9.33679,63.3921,-0.0147351,0.0086874,0.0029377,0.00905023,-0.015098,1.44791,0.0140869,0.0149524,1266,1772,9.33674,-63.3921
49,-748,9.29517,63.4307,-0.0122525,0.0101564,0.00321976,0.0106099,-0.012706,1.43088,0.0134795,0.0115921,1273,1772,9.2952,-63.4306
56,-748,9.23303,63.4849,-0.00980831,0.0116358,0.00361837,0.0122299,-0.0104024,1.40806,0.013081,0.0113811,1280,1772,9.233,-63.4849
63,-748,9.18713,63.4916,-0.00738118,0.0129829,0.00392223,0.0137123,-0.0081105,1.38695,0.012737,0.0135061,1287,1772,9.18719,-63.4916
70,-748,9.1676,63.4746,-0.00506639,0.0143731,0.0041911,0.0152382,-0.00593148,1.36724,0.0126099,0.0150916,1294,1772,9.16755,-63.4747
77,-748,9.13831,63.4393,-0.00308183,0.0156128,0.0043176,0.0165618,-0.00403082,1.35444,0.0126016,0.014121,1301,1772,9.13833,-63.4394
84,-748,9.04333,63.4315,-0.0018182,0.0165746,0.0043048,0.0175322,-0.00277587,1.3519,0.0127149,0.0152432,1308,1772,9.04332,-63.4315
91,-748,8.99097,63.3856,-0.00140946,0.0169688,0.00434667,0.0179449,-0.00238565,1.34988,0.0128326,0.0124291,1315,1772,8.99102,-63.3856
98,-748,8.95251,63.2789,-0.00173242,0.0166814,0.00440401,0.0176805,-0.00273152,1.34771,0.012795,0.0121732,1322,1772,8.95248,-63.2789
105,-748,8.94324,63.1176,-0.00255888,0.0158191,0.00439898,0.0168177,-0.00355755,1.34756,0.0125667,0.0128179,1329,1772,8.94319,-63.1175
112,-748,8.91455,62.9736,-0.00390614,0.0143908,0.00431954,0.0153593,-0.00487463,1.35023,0.0121937,0.0154885,1336,1772,8.91452,-62.9737
119,-748,8.86719,62.8546,-0.00488274,0.0125628,0.00414809,0.0134989,-0.00581882,1.34885,0.0114431,0.0137633,1343,1772,8.86713,-62.8546
126,-748,8.81665,62.7299,-0.00621381,0.0104517,0.00429195,0.0114921,-0.00725419,1.33298,0.010915,0.0152559,1350,1772,8.8167,-62.7298
133,-748,8.73193,62.5647,-0.00773483,0.00957642,0.00360903,0.0102987,-0.0084571,1.37328,0.010846,0.00955526,1357,1772,8.73198,-62.5647
140,-748,8.6897,62.401,-0.00804296,0.00773179,0.0032606,0.00837918,-0.00869035,1.3748,0.00985564,0.0130796,1364,1772,8.68967,-62.401
147,-748,8.66821,62.1887,-0.00768372,0.00598513,0.00268988,0.00649542,-0.00819401,1.38332,0.00849982,0.014923,1371,1772,8.66817,-62.1887
154,-748,8.5874,61.9862,-0.00723498,0.00444149,0.00245737,0.00493758,-0.00773107,1.3716,0.00737328,0.0134277,1378,1772,8.58745,-61.9862
161,-748,8.5166,61.7839,-0.00666443,0.00332883,0.00195993,0.00369948,-0.00703508,1.38389,0.00629654,0.0196927,1385,1772,8.51657,-61.784
168,-748,8.46265,61.5837,0,0,0,0,0,0,0,-1,1392,1772,8.46262,-61.5837
175,-748,11.6235,16.8242,0,0,0,0,0,0,0,-1,1399,1772,11.6236,-16.8242
182,-748,7.62476,10.3058,0,0,0,0,0,0,0,-1,1406,1772,7.62476,-10.3058
189,-748,6.15857,6.95898,0,0,0,0,0,0,0,-1,1413,1772,6.15862,-6.95896
196,-748,3.9425,8.46021,0,0,0,0,0,0,0,-1,1420,1772,3.9425,-8.46026
203,-748,3.9668,12.9835,0,0,0,0,0,0,0,-1,1427,1772,3.96678,-12.9836
210,-748,4.71472,16.8318,0,0,0,0,0,0,0,-1,1434,1772,4.71471,-16.8317
217,-748,5.38452,21.5551,0,0,0,0,0,0,0,-1,1441,1772,5.38455,-21.555
224,-748,6.14258,25.2345,0,0,0,0,0,0,0,-1,1448,1772,6.14263,-25.2345
231,-748,6.46045,29.7867,0,0,0,0,0,0,0,-1,1455,1772,6.46049,-29.7867
238,-748,7.41565,32.8574,0,0,0,0,0,0,0,-1,1462,1772,7.41562,-32.8574
245,-748,7.84912,32.0914,0,0,0,0,0,0,0,-1,1469,1772,7.84914,-32.0914
252,-748,7.57336,29.4369,0,0,0,0,0,0,0,-1,1476,1772,7.57337,-29.4369
259,-748,9.47351,46.1896,0,0,0,0,0,0,0,-1,1483,1772,9.4735,-46.1895
266,-748,8.36536,48.6908,0,0,0,0,0,0,0,-1,1490,1772,8.36541,-48.6909
273,-748,7.31421,46.6743,0,0,0,0,0,0,0,-1,1497,1772,7.31415,-46.6743
280,-748,8.76538,40.4501,0,0,0,0,0,0,0,-1,1504,1772,8.76537,-40.45
287,-748,14.161,8.32813,0,0,0,0,0,0,0,-1,1511,1772,14.161,-8.32808
294,-748,6.38525,32.4724,0,0,0,0,0,0,0,-1,1518,1772,6.38521,-32.4725
301,-748,5.40393,38.9807,0,0,0,0,0,0,0,-1,1525,1772,5.40397,-38.9807
308,-748,5.95227,37.1827,0,0,0,0,0,0,0,-1,1532,1772,5.95229,-37.1827
315,-748,7.71741,42.637,0,0,0,0,0,0,0,-1,1539,1772,7.71738,-42.637
322,-748,4.26538,29.0557,0,0,0,0,0,0,0,-1,1546,1772,4.26537,-29.0556
329,-748,3.87256,16.1473,0,0,0,0,0,0,0,-1,1553,1772,3.87259,-16.1474
336,-748,4.81006,19.6141,0,0,0,0,0,0,0,-1,1560,1772,4.81011,-19.6141
343,-748,0,0,0,0,0,0,0,0,0,-1,1567,1772,0,0
350,-748,0,0,0,0,0,0,0,0,0,-1,1574,1772,0,0
357,-748,0,0,0,0,0,0,0,0,0,-1,1581,1772,0,0
364,-748,0,0,0,0,0,0,0,0,0,-1,1588,1772,0,0
371,-748,0,0,0,0,0,0,0,0,0,-1,1595,1772,0,0
378,-748,0,0,0,0,0,0,0,0,0,-1,1602,1772,0,0
385,-748,0,0,0,0,0,0,0,0,0,-1,1609,1772,0,0
392,-748,0,0,0,0,0,0,0,0,0,-1,1616,1772,0,0
399,-748,0,0,0,0,0,0,0,0,0,-1,1623,1772,0,0
406,-748,0,0,0,0,0,0,0,0,0,-1,1630,1772,0,0
413,-748,0,0,0,0,0,0,0,0,0,-1,1637,1772,0,0
420,-748,0,0,0,0,0,0,0,0,0,-1,1644,1772,0,0
427,-748,0,0,0,0,0,0,0,0,0,-1,1651,1772,0,0
434,-748,0,0,0,0,0,0,0,0,0,-1,1658,1772,0,0
441,-748,0,0,0,0,0,0,0,0,0,-1,1665,1772,0,0
448,-748,0,0,0,0,0,0,0,0,0,-1,1672,1772,0,0
455,-748,0,0,0,0,0,0,0,0,0,-1,1679,1772,0,0
462,-748,0,0,0,0,0,0,0,0,0,-1,1686,1772,0,0
469,-748,0,0,0,0,0,0,0,0,0,-1,1693,1772,0,0
476,-748,0,0,0,0,0,0,0,0,0,-1,1700,1772,0,0
483,-748,0,0,0,0,0,0,0,0,0,-1,1707,1772,0,0
490,-748,0,0,0,0,0,0,0,0,0,-1,1714,1772,0,0
497,-748,0,0,0,0,0,0,0,0,0,-1,1721,1772,0,0
504,-748,0,0,0,0,0,0,0,0,0,-1,1728,1772,0,0
511,-748,0,0,0,0,0,0,0,0,0,-1,1735,1772,0,0
518,-748,0,0,0,0,0,0,0,0,0,-1,1742,1772,0,0
525,-748,0,0,0,0,0,0,0,0,0,-1,1749,1772,0,0
532,-748,0,0,0,0,0,0,0,0,0,-1,1756,1772,0,0
539,-748,0,0,0,0,0,0,0,0,0,-1,1763,1772,0,0
546,-748,0,0,0,0,0,0,0,0,0,-1,1770,1772,0,0
553,-748,0,0,0,0,0,0,0,0,0,-1,1777,1772,0,0
560,-748,0,0,0,0,0,0,0,0,0,-1,1784,1772,0,0
567,-748,0,0,0,0,0,0,0,0,0,-1,1791,1772,0,0
574,-748,0,0,0,0,0,0,0,0,0,-1,1798,1772,0,0
581,-748,0,0,0,0,0,0,0,0,0,-1,1805,1772,0,0
588,-748,0,0,0,0,0,0,0,0,0,-1,1812,1772,0,0
595,-748,0,0,0,0,0,0,0,0,0,-1,1819,1772,0,0
602,-748,0,0,0,0,0,0,0,0,0,-1,1826,1772,0,0
609,-748,0,0,0,0,0,0,0,0,0,-1,1833,1772,0,0
616,-748,0,0,0,0,0,0,0,0,0,-1,1840,1772,0,0
623,-748,0,0,0,0,0,0,0,0,0,-1,1847,1772,0,0
630,-748,0,0,0,0,0,0,0,0,0,-1,1854,1772,0,0
637,-748,0,0,0,0,0,0,0,0,0,-1,1861,1772,0,0
644,-748,0,0,0,0,0,0,0,0,0,-1,1868,1772,0,0
651,-748,0,0,0,0,0,0,0,0,0,-1,1875,1772,0,0
658,-748,0,0,0,0,0,0,0,0,0,-1,1882,1772,0,0
665,-748,0,0,0,0,0,0,0,0,0,-1,1889,1772,0,0
672,-748,0,0,0,0,0,0,0,0,0,-1,1896,1772,0,0
679,-748,0,0,0,0,0,0,0,0,0,-1,1903,1772,0,0
686,-748,0,0,0,0,0,0,0,0,0,-1,1910,1772,0,0
693,-748,0,0,0,0,0,0,0,0,0,-1,1917,1772,0,0
700,-748,0,0,0,0,0,0,0,0,0,-1,1924,1772,0,0
707,-748,0,0,0,0,0,0,0,0,0,-1,1931,1772,0,0
714,-748,0,0,0,0,0,0,0,0,0,-1,1938,1772,0,0
721,-748,0,0,0,0,0,0,0,0,0,-1,1945,1772,0,0
728,-748,0,0,0,0,0,0,0,0,0,-1,1952,1772,0,0
735,-748,0,0,0,0,0,0,0,0,0,-1,1959,1772,0,0
742,-748,0,0,0,0,0,0,0,0,0,-1,1966,1772,0,0
749,-748,0,0,0,0,0,0,0,0,0,-1,1973,1772,0,0
756,-748,0,0,0,0,0,0,0,0,0,-1,1980,1772,0,0
763,-748,0,0,0,0,0,0,0,0,0,-1,1987,1772,0,0
770,-748,0,0,0,0,0,0,0,0,0,-1,1994,1772,0,0
777,-748,0,0,0,0,0,0,0,0,0,-1,2001,1772,0,0
784,-748,0,0,0,0,0,0,0,0,0,-1,2008,1772,0,0
791,-748,0,0,0,0,0,0,0,0,0,-1,2015,1772,0,0
798,-748,0,0,0,0,0,0,0,0,0,-1,2022,1772,0,0
805,-748,0,0,0,0,0,0,0,0,0,-1,2029,1772,0,0
812,-748,0,0,0,0,0,0,0,0,0,-1,2036,1772,0,0
-700,-755,0,0,0,0,0,0,0,0,0,-1,524,1779,0,0
-693,-755,0,0,0,0,0,0,0,0,0,-1,531,1779,0,0
-686,-755,0,0,0,0,0,0,0,0,0,-1,538,1779,0,0
-679,-755,0,0,0,0,0,0,0,0,0,-1,545,1779,0,0
-672,-755,0,0,0,0,0,0,0,0,0,-1,552,1779,0,0
-665,-755,0,0,0,0,0,0,0,0,0,-1,559,1779,0,0
-658,-755,0,0,0,0,0,0,0,0,0,-1,566,1779,0,0
-651,-755,0,0,0,0,0,0,0,0,0,-1,573,1779,0,0
-644,-755,0,0,0,0,0,0,0,0,0,-1,580,1779,0,0
-637,-755,0,0,0,0,0,0,0,0,0,-1,587,1779,0,0
-630,-755,0,0,0,0,0,0,0,0,0,-1,594,1779,0,0
-623,-755,0,0,0,0,0,0,0,0,0,-1,601,1779,0,0
-616,-755,0,0,0,0,0,0,0,0,0,-1,608,1779,0,0
-609,-755,0,0,0,0,0,0,0,0,0,-1,615,1779,0,0
-602,-755,0,0,0,0,0,0,0,0,0,-1,622,1779,0,0
-595,-755,0,0,0,0,0,0,0,0,0,-1,629,1779,0,0
-588,-755,0,0,0,0,0,0,0,0,0,-1,636,1779,0,0
-581,-755,0,0,0,0,0,0,0,0,0,-1,643,1779,0,0
-574,-755,0,0,0,0,0,0,0,0,0,-1,650,1779,0,0
-567,-755,0,0,0,0,0,0,0,0,0,-1,657,1779,0,0
-560,-755,0,0,0,0,0,0,0,0,0,-1,664,1779,0,0
-553,-755,0,0,0,0,0,0,0,0,0,-1,671,1779,0,0
-546,-755,0,0,0,0,0,0,0,0,0,-1,678,1779,0,0
-539,-755,0,0,0,0,0,0,0,0,0,-1,685,1779,0,0
-532,-755,0,0,0,0,0,0,0,0,0,-1,692,1779,0,0
-525,-755,0,0,0,0,0,0,0,0,0,-1,699,1779,0,0
-518,-755,0,0,0,0,0,0,0,0,0,-1,706,1779,0,0
-511,-755,0,0,0,0,0,0,0,0,0,-1,713,1779,0,0
-504,-755,0,0,0,0,0,0,0,0,0,-1,720,1779,0,0
-497,-755,0,0,0,0,0,0,0,0,0,-1,727,1779,0,0
-490,-755,0,0,0,0,0,0,0,0,0,-1,734,1779,0,0
-483,-755,0,0,0,0,0,0,0,0,0,-1,741,1779,0,0
-476,-755,0,0,0,0,0,0,0,0,0,-1,748,1779,0,0
-469,-755,0,0,0,0,0,0,0,0,0,-1,755,1779,0,0
-462,-755,0,0,0,0,0,0,0,0,0,-1,762,1779,0,0
-455,-755,0,0,0,0,0,0,0,0,0,-1,769,1779,0,0
-448,-755,0,0,0,0,0,0,0,0,0,-1,776,1779,0,0
-441,-755,0,0,0,0,0,0,0,0,0,-1,783,1779,0,0
-434,-755,0,0,0,0,0,0,0,0,0,-1,790,1779,0,0
-427,-755,0,0,0,0,0,0,0,0,0,-1,797,1779,0,0
-420,-755,0,0,0,0,0,0,0,0,0,-1,804,1779,0,0
-413,-755,0,0,0,0,0,0,0,0,0,-1,811,1779,0,0
-406,-755,0,0,0,0,0,0,0,0,0,-1,818,1779,0,0
-399,-755,0,0,0,0,0,0,0,0,0,-1,825,1779,0,0
-392,-755,0,0,0,0,0,0,0,0,0,-1,832,1779,0,0
-385,-755,0,0,0,0,0,0,0,0,0,-1,839,1779,0,0
-378,-755,0,0,0,0,0,0,0,0,0,-1,846,1779,0,0
-371,-755,0,0,0,0,0,0,0,0,0,-1,853,1779,0,0
-364,-755,0,0,0,0,0,0,0,0,0,-1,860,1779,0,0
-357,-755,0,0,0,0,0,0,0,0,0,-1,867,1779,0,0
-350,-755,0,0,0,0,0,0,0,0,0,-1,874,1779,0,0
-343,-755,0,0,0,0,0,0,0,0,0,-1,881,1779,0,0
-336,-755,0,0,0,0,0,0,0,0,0,-1,888,1779,0,0
-329,-755,0,0,0,0,0,0,0,0,0,-1,895,1779,0,0
-322,-755,0,0,0,0,0,0,0,0,0,-1,902,1779,0,0
-315,-755,0,0,0,0,0,0,0,0,0,-1,909,1779,0,0
-308,-755,0,0,0,0,0,0,0,0,0,-1,916,1779,0,0
-301,-755,0,0,0,0,0,0,0,0,0,-1,923,1779,0,0
-294,-755,0,0,0,0,0,0,0,0,0,-1,930,1779,0,0
-287,-755,0,0,0,0,0,0,0,0,0,-1,937,1779,0,0
-280,-755,0,0,0,0,0,0,0,0,0,-1,944,1779,0,0
-273,-755,0,0,0,0,0,0,0,0,0,-1,951,1779,0,0
-266,-755,0,0,0,0,0,0,0,0,0,-1,958,1779,0,0
-259,-755,0,0,0,0,0,0,0,0,0,-1,965,1779,0,0
-252,-755,0,0,0,0,0,0,0,0,0,-1,972,1779,0,0
-245,-755,0,0,0,0,0,0,0,0,0,-1,979,1779,0,0
-238,-755,0,0,0,0,0,0,0,0,0,-1,986,1779,0,0
-231,-755,0,0,0,0,0,0,0,0,0,-1,993,1779,0,0
-224,-755,0,0,0,0,0,0,0,0,0,-1,1000,1779,0,0
-217,-755,0,0,0,0,0,0,0,0,0,-1,1007,1779,0,0
-210,-755,0,0,0,0,0,0,0,0,0,-1,1014,1779,0,0
-203,-755,8.97363,30.5414,0,0,0,0,0,0,0,-1,1021,1779,8.97362,-30.5414
-196,-755,8.08667,43.2203,0,0,0,0,0,0,0,-1,1028,1779,8.08666,-43.2204
-189,-755,0.725098,39.8892,0,0,0,0,0,0,0,-1,1035,1779,0.725055,-39.8891
-182,-755,1.80835,40.9692,0,0,0,0,0,0,0,-1,1042,1779,1.80838,-40.9692
-175,-755,3.04749,41.9612,0,0,0,0,0,0,0,-1,1049,1779,3.0475,-41.9612
-168,-755,4.8302,42.7631,0,0,0,0,0,0,0,-1,1056,1779,4.8302,-42.7631
-161,-755,6.46777,44.0007,0,0,0,0,0,0,0,-1,1063,1779,6.46773,-44.0007
-154,-755,7.71094,44.9023,0,0,0,0,0,0,0,-1,1070,1779,7.71089,-44.9023
-147,-755,-6.45593,10.2422,0,0,0,0,0,0,0,-1,1077,1779,-6.45594,-10.2422
-140,-755,1.33521,21.3856,0,0,0,0,0,0,0,-1,1084,1779,1.33522,-21.3857
-133,-755,2.89417,21.0964,0,0,0,0,0,0,0,-1,1091,1779,2.89422,-21.0964
-126,-755,3.26404,20.9304,0,0,0,0,0,0,0,-1,1098,1779,3.26399,-20.9305
-119,-755,5.17761,21.9325,0,0,0,0,0,0,0,-1,1105,1779,5.17761,-21.9325
-112,-755,5.40247,24.5646,0,0,0,0,0,0,0,-1,1112,1779,5.40244,-24.5646
-105,-755,7.01294,20.1539,0,0,0,0,0,0,0,-1,1119,1779,7.01295,-20.154
-98,-755,5.50708,16.9628,0,0,0,0,0,0,0,-1,1126,1779,5.5071,-16.9628
-91,-755,5.51025,12.0438,0,0,0,0,0,0,0,-1,1133,1779,5.51022,-12.0439
-84,-755,0.169312,8.66443,0,0,0,0,0,0,0,-1,1140,1779,0.16932,-8.66446
-77,-755,-0.0491943,6.87439,0,0,0,0,0,0,0,-1,1147,1779,-0.0491385,-6.87443
-70,-755,4.5686,13.2169,0,0,0,0,0,0,0,-1,1154,1779,4.56865,-13.2169
-63,-755,-1.36316,7.3147,0,0,0,0,0,0,0,-1,1161,1779,-1.36312,-7.31473
-56,-755,0.0483398,5.06079,0,0,0,0,0,0,0,-1,1168,1779,0.0483138,-5.06084
-49,-755,-1.32263,5.33716,0,0,0,0,0,0,0,-1,1175,1779,-1.32264,-5.33718
-42,-755,-2.03613,4.01672,0,0,0,0,0,0,0,-1,1182,1779,-2.0361,-4.01671
-35,-755,-2.72498,2.37476,0,0,0,0,0,0,0,-1,1189,1779,-2.72502,-2.37473
-28,-755,9.98401,62.1968,0,0,0,0,0,0,0,-1,1196,1779,9.98401,-62.1968
-21,-755,9.96326,62.4343,0,0,0,0,0,0,0,-1,1203,1779,9.96323,-62.4343
-14,-755,9.90369,62.4744,-0.0200405,0.0158928,-0.00179456,0.0159822,-0.0201299,-1.52102,0.0208951,0.0351852,1210,1779,9.90373,-62.4744
-7,-755,9.81323,62.5762,-0.0223675,0.0140682,-0.00128025,0.0141132,-0.0224124,-1.53572,0.0212687,0.0261806,1217,1779,9.81322,-62.5762
0,-755,9.72815,62.702,-0.0245919,0.0125439,-0.000524445,0.0125513,-0.0245993,-1.55668,0.0218216,0.016,1224,1779,9.72809,-62.702
7,-755,9.69543,62.8522,-0.0265975,0.0108649,0.000310533,0.0108675,-0.0266001,1.56251,0.0222585,0.0144256,1231,1779,9.69548,-62.8522
14,-755,9.65283,63.026,-0.0286173,0.00974681,0.00124103,0.00978692,-0.0286574,1.53849,0.0230699,0.0131807,1238,1779,9.65282,-63.026
21,-755,9.56311,63.2037,-0.0288574,0.00972823,0.00143601,0.00978159,-0.0289108,1.53365,0.0232313,0.0178298,1245,1779,9.56309,-63.2037
28,-755,9.49963,63.2435,-0.0267446,0.00878345,0.00252282,0.0089617,-0.0269228,1.50026,0.0215656,0.0214416,1252,1779,9.49966,-63.2435
35,-755,9.45349,63.3223,-0.0241651,0.00948244,0.00361743,0.00986695,-0.0245496,1.4649,0.0204643,0.0213912,1259,1779,9.45343,-63.3223
42,-755,9.39746,63.3707,-0.0211918,0.0110311,0.00469337,0.0117008,-0.0218615,1.42907,0.019671,0.0160244,1266,1779,9.39749,-63.3707
49,-755,9.34192,63.3589,-0.0177215,0.0130063,0.00537296,0.0139187,-0.0186339,1.40259,0.0188599,0.0115061,1273,1779,9.34196,-63.3589
56,-755,9.26648,63.418,-0.0143665,0.0149637,0.00622741,0.0162312,-0.0156339,1.37001,0.0183984,0.0108116,1280,1779,9.26646,-63.418
63,-755,9.23242,63.463,-0.0110557,0.0166754,0.00693591,0.0183134,-0.0126937,1.33888,0.0179997,0.0107025,1287,1779,9.23248,-63.463
70,-755,9.20984,63.4208,-0.00784793,0.0185071,0.00755227,0.0205178,-0.00985869,1.31059,0.0178942,0.0148903,1294,1779,9.20987,-63.4207
77,-755,9.12207,63.3484,-0.0049891,0.020254,0.00797309,0.0225614,-0.0072965,1.28909,0.0179738,0.0142963,1301,1779,9.12208,-63.3483
84,-755,9.0426,63.3362,-0.00300378,0.0217174,0.00817609,0.0241768,-0.0054632,1.2786,0.0182141,0.0151852,1308,1779,9.04256,-63.3362
91,-755,8.96643,63.277,-0.00217904,0.0224569,0.00829727,0.0249908,-0.00471291,1.27441,0.0184334,0.0153702,1315,1779,8.96643,-63.277
98,-755,8.85571,63.2273,-0.00222968,0.0224054,0.00836319,0.0249763,-0.00480056,1.27256,0.0184603,0.0158604,1322,1779,8.85576,-63.2273
105,-755,8.81433,63.1102,-0.00308759,0.0214951,0.00826339,0.0240146,-0.00560708,1.27485,0.0181695,0.0188527,1329,1779,8.81429,-63.1102
112,-755,8.75513,62.9469,-0.00484723,0.0196778,0.00794127,0.0220247,-0.00719406,1.28345,0.0175789,0.0239786,1336,1779,8.75516,-62.9468
119,-755,8.71973,62.7687,-0.00596265,0.0173225,0.00753442,0.0195478,-0.00818792,1.28361,0.0164548,0.0243377,1343,1779,8.71968,-62.7686
126,-755,8.67957,62.7511,-0.00763072,0.0145087,0.00756489,0.0168467,-0.0099687,1.27105,0.0156507,0.0278319,1350,1779,8.67956,-62.7511
133,-755,8.56055,62.6205,-0.00973391,0.0133144,0.00636792,0.0149568,-0.0113762,1.31839,0.0152501,0.028083,1357,1779,8.56059,-62.6204
140,-755,8.40479,62.4598,-0.0101769,0.0106871,0.00506121,0.0118501,-0.0113399,1.34494,0.0133898,0.0377775,1364,1779,8.40476,-62.4598
147,-755,8.49487,62.2361,-0.00963387,0.00793088,0.00435814,0.00895276,-0.0106558,1.34048,0.0113352,0.0395875,1371,1779,8.49487,-62.2361
154,-755,8.41101,62.0896,-0.00893529,0.0053655,0.00415305,0.00648408,-0.0100539,1.3077,0.00962205,0.0364162,1378,1779,8.41104,-62.0896
161,-755,8.22192,61.9594,0,0,0,0,0,0,0,-1,1385,1779,8.22191,-61.9594
168,-755,3.98181,7.35901,0,0,0,0,0,0,0,-1,1392,1779,3.98184,-7.35904
175,-755,8.17065,1.34363,0,0,0,0,0,0,0,-1,1399,1779,8.1706,-1.34368
182,-755,8.09216,2.96924,0,0,0,0,0,0,0,-1,1406,1779,8.09213,-2.9693
189,-755,8.04419,4.68042,0,0,0,0,0,0,0,-1,1413,1779,8.04419,-4.68046
196,-755,7.74841,7.4541,0,0,0,0,0,0,0,-1,1420,1779,7.74842,-7.45405
203,-755,4.80554,6.88696,0,0,0,0,0,0,0,-1,1427,1779,4.80554,-6.88697
210,-755,25.1694,7.35693,0,0,0,0,0,0,0,-1,1434,1779,25.1694,-7.35688
217,-755,5.01648,16.411,0,0,0,0,0,0,0,-1,1441,1779,5.01646,-16.411
224,-755,5.18103,22.6283,0,0,0,0,0,0,0,-1,1448,1779,5.18101,-22.6283
231,-755,5.7489,30.15,0,0,0,0,0,0,0,-1,1455,1779,5.74885,-30.15
238,-755,6.56323,29.2726,0,0,0,0,0,0,0,-1,1462,1779,6.56327,-29.2726
245,-755,8.29639,28.2113,0,0,0,0,0,0,0,-1,1469,1779,8.29639,-28.2113
252,-755,6.8877,28.8699,0,0,0,0,0,0,0,-1,1476,1779,6.88774,-28.8698
259,-755,6.42676,30.8574,0,0,0,0,0,0,0,-1,1483,1779,6.42677,-30.8575
266,-755,17.255,7.86096,0,0,0,0,0,0,0,-1,1490,1779,17.255,-7.86092
273,-755,15.7932,7.59778,0,0,0,0,0,0,0,-1,1497,1779,15.7932,-7.59777
280,-755,14.6255,7.34802,0,0,0,0,0,0,0,-1,1504,1779,14.6254,-7.34806
287,-755,13.8279,7.83105,0,0,0,0,0,0,0,-1,1511,1779,13.8279,-7.83104
294,-755,12.5695,7.96814,0,0,0,0,0,0,0,-1,1518,1779,12.5694,-7.9682
301,-755,11.2659,8.27087,0,0,0,0,0,0,0,-1,1525,1779,11.2658,-8.27087
308,-755,5.17737,37.2896,0,0,0,0,0,0,0,-1,1532,1779,5.17742,-37.2896
315,-755,0.828613,31.032,0,0,0,0,0,0,0,-1,1539,1779,0.828668,-31.032
322,-755,0,0,0,0,0,0,0,0,0,-1,1546,1779,0,0
329,-755,0,0,0,0,0,0,0,0,0,-1,1553,1779,0,0
336,-755,0,0,0,0,0,0,0,0,0,-1,1560,1779,0,0
343,-755,0,0,0,0,0,0,0,0,0,-1,1567,1779,0,0
350,-755,0,0,0,0,0,0,0,0,0,-1,1574,1779,0,0
357,-755,0,0,0,0,0,0,0,0,0,-1,1581,1779,0,0
364,-755,0,0,0,0,0,0,0,0,0,-1,1588,1779,0,0
371,-755,0,0,0,0,0,0,0,0,0,-1,1595,1779,0,0
378,-755,0,0,0,0,0,0,0,0,0,-1,1602,1779,0,0
385,-755,0,0,0,0,0,0,0,0,0,-1,1609,1779,0,0
392,-755,0,0,0,0,0,0,0,0,0,-1,1616,1779,0,0
399,-755,0,0,0,0,0,0,0,0,0,-1,1623,1779,0,0
406,-755,0,0,0,0,0,0,0,0,0,-1,1630,1779,0,0
413,-755,0,0,0,0,0,0,0,0,0,-1,1637,1779,0,0
420,-755,0,0,0,0,0,0,0,0,0,-1,1644,1779,0,0
427,-755,0,0,0,0,0,0,0,0,0,-1,1651,1779,0,0
434,-755,0,0,0,0,0,0,0,0,0,-1,1658,1779,0,0
441,-755,0,0,0,0,0,0,0,0,0,-1,1665,1779,0,0
448,-755,0,0,0,0,0,0,0,0,0,-1,1672,1779,0,0
455,-755,0,0,0,0,0,0,0,0,0,-1,1679,1779,0,0
462,-755,0,0,0,0,0,0,0,0,0,-1,1686,1779,0,0
469,-755,0,0,0,0,0,0,0,0,0,-1,1693,1779,0,0
476,-755,0,0,0,0,0,0,0,0,0,-1,1700,1779,0,0
483,-755,0,0,0,0,0,0,0,0,0,-1,1707,1779,0,0
490,-755,0,0,0,0,0,0,0,0,0,-1,1714,1779,0,0
497,-755,0,0,0,0,0,0,0,0,0,-1,1721,1779,0,0
504,-755,0,0,0,0,0,0,0,0,0,-1,1728,1779,0,0
511,-755,0,0,0,0,0,0,0,0,0,-1,1735,1779,0,0
518,-755,0,0,0,0,0,0,0,0,0,-1,1742,1779,0,0
525,-755,0,0,0,0,0,0,0,0,0,-1,1749,1779,0,0
532,-755,0,0,0,0,0,0,0,0,0,-1,1756,1779,0,0
539,-755,0,0,0,0,0,0,0,0,0,-1,1763,1779,0,0
546,-755,0,0,0,0,0,0,0,0,0,-1,1770,1779,0,0
553,-755,0,0,0,0,0,0,0,0,0,-1,1777,1779,0,0
560,-755,0,0,0,0,0,0,0,0,0,-1,1784,1779,0,0
567,-755,0,0,0,0,0,0,0,0,0,-1,1791,1779,0,0
574,-755,0,0,0,0,0,0,0,0,0,-1,1798,1779,0,0
581,-755,0,0,0,0,0,0,0,0,0,-1,1805,1779,0,0
588,-755,0,0,0,0,0,0,0,0,0,-1,1812,1779,0,0
595,-755,0,0,0,0,0,0,0,0,0,-1,1819,1779,0,0
602,-755,0,0,0,0,0,0,0,0,0,-1,1826,1779,0,0
609,-755,0,0,0,0,0,0,0,0,0,-1,1833,1779,0,0
616,-755,0,0,0,0,0,0,0,0,0,-1,1840,1779,0,0
623,-755,0,0,0,0,0,0,0,0,0,-1,1847,1779,0,0
630,-755,0,0,0,0,0,0,0,0,0,-1,1854,1779,0,0
637,-755,0,0,0,0,0,0,0,0,0,-1,1861,1779,0,0
644,-755,0,0,0,0,0,0,0,0,0,-1,1868,1779,0,0
651,-755,0,0,0,0,0,0,0,0,0,-1,1875,1779,0,0
658,-755,0,0,0,0,0,0,0,0,0,-1,1882,1779,0,0
665,-755,0,0,0,0,0,0,0,0,0,-1,1889,1779,0,0
672,-755,0,0,0,0,0,0,0,0,0,-1,1896,1779,0,0
679,-755,0,0,0,0,0,0,0,0,0,-1,1903,1779,0,0
686,-755,0,0,0,0,0,0,0,0,0,-1,1910,1779,0,0
693,-755,0,0,0,0,0,0,0,0,0,-1,1917,1779,0,0
700,-755,0,0,0,0,0,0,0,0,0,-1,1924,1779,0,0
707,-755,0,0,0,0,0,0,0,0,0,-1,1931,1779,0,0
714,-755,0,0,0,0,0,0,0,0,0,-1,1938,1779,0,0
721,-755,0,0,0,0,0,0,0,0,0,-1,1945,1779,0,0
728,-755,0,0,0,0,0,0,0,0,0,-1,1952,1779,0,0
735,-755,0,0,0,0,0,0,0,0,0,-1,1959,1779,0,0
742,-755,0,0,0,0,0,0,0,0,0,-1,1966,1779,0,0
749,-755,0,0,0,0,0,0,0,0,0,-1,1973,1779,0,0
756,-755,0,0,0,0,0,0,0,0,0,-1,1980,1779,0,0
763,-755,0,0,0,0,0,0,0,0,0,-1,1987,1779,0,0
770,-755,0,0,0,0,0,0,0,0,0,-1,1994,1779,0,0
777,-755,0,0,0,0,0,0,0,0,0,-1,2001,1779,0,0
784,-755,0,0,0,0,0,0,0,0,0,-1,2008,1779,0,0
791,-755,0,0,0,0,0,0,0,0,0,-1,2015,1779,0,0
798,-755,0,0,0,0,0,0,0,0,0,-1,2022,1779,0,0
805,-755,0,0,0,0,0,0,0,0,0,-1,2029,1779,0,0
812,-755,0,0,0,0,0,0,0,0,0,-1,2036,1779,0,0
-700,-762,0,0,0,0,0,0,0,0,0,-1,524,1786,0,0
-693,-762,0,0,0,0,0,0,0,0,0,-1,531,1786,0,0
-686,-762,0,0,0,0,0,0,0,0,0,-1,538,1786,0,0
-679,-762,0,0,0,0,0,0,0,0,0,-1,545,1786,0,0
-672,-762,0,0,0,0,0,0,0,0,0,-1,552,1786,0,0
-665,-762,0,0,0,0,0,0,0,0,0,-1,559,1786,0,0
-658,-762,0,0,0,0,0,0,0,0,0,-1,566,1786,0,0
-651,-762,0,0,0,0,0,0,0,0,0,-1,573,1786,0,0
-644,-762,0,0,0,0,0,0,0,0,0,-1,580,1786,0,0
-637,-762,0,0,0,0,0,0,0,0,0,-1,587,1786,0,0
-630,-762,0,0,0,0,0,0,0,0,0,-1,594,1786,0,0
-623,-762,0,0,0,0,0,0,0,0,0,-1,601,1786,0,0
-616,-762,0,0,0,0,0,0,0,0,0,-1,608,1786,0,0
-609,-762,0,0,0,0,0,0,0,0,0,-1,615,1786,0,0
-602,-762,0,0,0,0,0,0,0,0,0,-1,622,1786,0,0
-595,-762,0,0,0,0,0,0,0,0,0,-1,629,1786,0,0
-588,-762,0,0,0,0,0,0,0,0,0,-1,636,1786,0,0
-581,-762,0,0,0,0,0,0,0,0,0,-1,643,1786,0,0
-574,-762,0,0,0,0,0,0,0,0,0,-1,650,1786,0,0
-567,-762,0,0,0,0,0,0,0,0,0,-1,657,1786,0,0
-560,-762,0,0,0,0,0,0,0,0,0,-1,664,1786,0,0
-553,-762,0,0,0,0,0,0,0,0,0,-1,671,1786,0,0
-546,-762,0,0,0,0,0,0,0,0,0,-1,678,1786,0,0
-539,-762,0,0,0,0,0,0,0,0,0,-1,685,1786,0,0
-532,-762,0,0,0,0,0,0,0,0,0,-1,692,1786,0,0
-525,-762,0,0,0,0,0,0,0,0,0,-1,699,1786,0,0
-518,-762,0,0,0,0,0,0,0,0,0,-1,706,1786,0,0
-511,-762,0,0,0,0,0,0,0,0,0,-1,713,1786,0,0
-504,-762,0,0,0,0,0,0,0,0,0,-1,720,1786,0,0
-497,-762,0,0,0,0,0,0,0,0,0,-1,727,1786,0,0
-490,-762,0,0,0,0,0,0,0,0,0,-1,734,1786,0,0
-483,-762,0,0,0,0,0,0,0,0,0,-1,741,1786,0,0
-476,-762,0,0,0,0,0,0,0,0,0,-1,748,1786,0,0
-469,-762,0,0,0,0,0,0,0,0,0,-1,755,1786,0,0
-462,-762,0,0,0,0,0,0,0,0,0,-1,762,1786,0,0
-455,-762,0,0,0,0,0,0,0,0,0,-1,769,1786,0,0
-448,-762,0,0,0,0,0,0,0,0,0,-1,776,1786,0,0
-441,-762,0,0,0,0,0,0,0,0,0,-1,783,1786,0,0
-434,-762,0,0,0,0,0,0,0,0,0,-1,790,1786,0,0
-427,-762,0,0,0,0,0,0,0,0,0,-1,797,1786,0,0
-420,-762,0,0,0,0,0,0,0,0,0,-1,804,1786,0,0
-413,-762,0,0,0,0,0,0,0,0,0,-1,811,1786,0,0
-406,-762,0,0,0,0,0,0,0,0,0,-1,818,1786,0,0
-399,-762,0,0,0,0,0,0,0,0,0,-1,825,1786,0,0
-392,-762,0,0,0,0,0,0,0,0,0,-1,832,1786,0,0
-385,-762,0,0,0,0,0,0,0,0,0,-1,839,1786,0,0
-378,-762,0,0,0,0,0,0,0,0,0,-1,846,1786,0,0
-371,-762,0,0,0,0,0,0,0,0,0,-1,853,1786,0,0
-364,-762,0,0,0,0,0,0,0,0,0,-1,860,1786,0,0
-357,-762,0,0,0,0,0,0,0,0,0,-1,867,1786,0,0
-350,-762,0,0,0,0,0,0,0,0,0,-1,874,1786,0,0
-343,-762,0,0,0,0,0,0,0,0,0,-1,881,1786,0,0
-336,-762,0,0,0,0,0,0,0,0,0,-1,888,1786,0,0
-329,-762,0,0,0,0,0,0,0,0,0,-1,895,1786,0,0
-322,-762,0,0,0,0,0,0,0,0,0,-1,902,1786,0,0
-315,-762,0,0,0,0,0,0,0,0,0,-1,909,1786,0,0
-308,-762,0,0,0,0,0,0,0,0,0,-1,916,1786,0,0
-301,-762,0,0,0,0,0,0,0,0,0,-1,923,1786,0,0
-294,-762,0,0,0,0,0,0,0,0,0,-1,930,1786,0,0
-287,-762,0,0,0,0,0,0,0,0,0,-1,937,1786,0,0
-280,-762,0,0,0,0,0,0,0,0,0,-1,944,1786,0,0
-273,-762,0,0,0,0,0,0,0,0,0,-1,951,1786,0,0
-266,-762,0,0,0,0,0,0,0,0,0,-1,958,1786,0,0
-259,-762,0,0,0,0,0,0,0,0,0,-1,965,1786,0,0
-252,-762,0,0,0,0,0,0,0,0,0,-1,972,1786,0,0
-245,-762,0,0,0,0,0,0,0,0,0,-1,979,1786,0,0
-238,-762,0,0,0,0,0,0,0,0,0,-1,986,1786,0,0
-231,-762,0,0,0,0,0,0,0,0,0,-1,993,1786,0,0
-224,-762,0,0,0,0,0,0,0,0,0,-1,1000,1786,0,0
-217,-762,0,0,0,0,0,0,0,0,0,-1,1007,1786,0,0
-210,-762,0,0,0,0,0,0,0,0,0,-1,1014,1786,0,0
-203,-762,0,0,0,0,0,0,0,0,0,-1,1021,1786,0,0
-196,-762,0,0,0,0,0,0,0,0,0,-1,1028,1786,0,0
-189,-762,0,0,0,0,0,0,0,0,0,-1,1035,1786,0,0
-182,-762,4.44226,13.2462,0,0,0,0,0,0,0,-1,1042,1786,4.44227,-13.2462
-175,-762,1.14465,40.1932,0,0,0,0,0,0,0,-1,1049,1786,1.1447,-40.1932
-168,-762,3.26794,41.3881,0,0,0,0,0,0,0,-1,1056,1786,3.26794,-41.388
-161,-762,-3.29077,11.9508,0,0,0,0,0,0,0,-1,1063,1786,-3.29076,-11.9508
-154,-762,-4.55823,11.1176,0,0,0,0,0,0,0,-1,1070,1786,-4.55828,-11.1175
-147,-762,-6.52454,9.41418,0,0,0,0,0,0,0,-1,1077,1786,-6.52458,-9.41419
-140,-762,4.99792,5.28589,0,0,0,0,0,0,0,-1,1084,1786,4.99793,-5.28587
-133,-762,0.689819,19.2172,0,0,0,0,0,0,0,-1,1091,1786,0.689867,-19.2171
-126,-762,1.48743,19.9288,0,0,0,0,0,0,0,-1,1098,1786,1.48738,-19.9289
-119,-762,2.65637,20.208,0,0,0,0,0,0,0,-1,1105,1786,2.65632,-20.208
-112,-762,6.84705,25.5554,0,0,0,0,0,0,0,-1,1112,1786,6.84706,-25.5554
-105,-762,5.57947,21.618,0,0,0,0,0,0,0,-1,1119,1786,5.57948,-21.618
-98,-762,5.0636,17.9901,0,0,0,0,0,0,0,-1,1126,1786,5.06361,-17.9901
-91,-762,4.54773,14.3622,0,0,0,0,0,0,0,-1,1133,1786,4.54774,-14.3622
-84,-762,3.96375,10.4547,0,0,0,0,0,0,0,-1,1140,1786,3.96371,-10.4548
-77,-762,0.305054,8.49365,0,0,0,0,0,0,0,-1,1147,1786,0.305008,-8.49362
-70,-762,0.183716,6.74622,0,0,0,0,0,0,0,-1,1154,1786,0.183696,-6.74621
-63,-762,-0.883057,9.08813,0,0,0,0,0,0,0,-1,1161,1786,-0.88311,-9.08808
-56,-762,-0.578979,5.10254,0,0,0,0,0,0,0,-1,1168,1786,-0.578951,-5.10249
-49,-762,-2.04541,3.66321,0,0,0,0,0,0,0,-1,1175,1786,-2.0454,-3.66319
-42,-762,-2.23462,3.474,0,0,0,0,0,0,0,-1,1182,1786,-2.23459,-3.47399
-35,-762,-3.28992,1.68164,0,0,0,0,0,0,0,-1,1189,1786,-3.28998,-1.68164
-28,-762,-3.75378,1.37769,0,0,0,0,0,0,0,-1,1196,1786,-3.75373,-1.37767
-21,-762,10.4634,61.0107,0,0,0,0,0,0,0,-1,1203,1786,10.4634,-61.0108
-14,-762,9.9939,62.5177,0,0,0,0,0,0,0,-1,1210,1786,9.99388,-62.5177
-7,-762,9.69983,62.7363,0,0,0,0,0,0,0,-1,1217,1786,9.69981,-62.7363
0,-762,9.7074,62.7843,-0.0329546,0.016791,-0.00100352,0.0168112,-0.0329749,-1.55063,0.0292446,0.0396477,1224,1786,9.70735,-62.7843
7,-762,9.77295,62.8207,-0.0357729,0.0141832,0.000226786,0.0141842,-0.0357739,1.56626,0.0297276,0.024626,1231,1786,9.77295,-62.8206
14,-762,9.67834,63.1573,-0.0385819,0.0124343,0.00155292,0.0124815,-0.0386292,1.54039,0.030769,0.040897,1238,1786,9.67829,-63.1573
21,-762,9.46326,63.1151,-0.038938,0.0122757,0.0018345,0.0123414,-0.0390036,1.53504,0.0309476,0.048298,1245,1786,9.46324,-63.1151
28,-762,9.41443,63.1249,-0.0357265,0.0109343,0.00340318,0.0111812,-0.0359734,1.49837,0.0284513,0.0473134,1252,1786,9.41448,-63.1248
35,-762,9.4707,63.1689,0,0,0,0,0,0,0,-1,1259,1786,9.47067,-63.1689
42,-762,9.38025,63.3848,0,0,0,0,0,0,0,-1,1266,1786,9.38021,-63.3847
49,-762,9.47632,63.432,-0.0220793,0.0170121,0.00793207,0.0185602,-0.0236275,1.37804,0.0244156,0.0470385,1273,1786,9.47627,-63.432
56,-762,9.37695,63.4475,-0.0172263,0.019754,0.00925021,0.0219388,-0.019411,1.33886,0.0238882,0.0339347,1280,1786,9.37699,-63.4475
63,-762,9.28955,63.4658,-0.0125875,0.0219991,0.0103639,0.0248668,-0.0154553,1.30084,0.0234904,0.0311867,1287,1786,9.28961,-63.4658
70,-762,9.20825,63.4362,-0.00811552,0.0244118,0.0113258,0.0279668,-0.0116706,1.26665,0.0235205,0.0335538,1294,1786,9.20819,-63.4362
77,-762,9.10205,63.252,-0.0040503,0.0268072,0.012043,0.0309509,-0.008194,1.23941,0.0238394,0.0424586,1301,1786,9.102,-63.252
84,-762,9.1095,63.144,0,0,0,0,0,0,0,-1,1308,1786,9.10945,-63.1441
91,-762,9.03711,63.1271,0,0,0,0,0,0,0,-1,1315,1786,9.03708,-63.1271
98,-762,9.54871,62.9568,0,0,0,0,0,0,0,-1,1322,1786,9.54866,-62.9568
105,-762,8.65198,63.0497,0,0,0,0,0,0,0,-1,1329,1786,8.65203,-63.0497
112,-762,8.63354,62.7566,-0.00401651,0.0262207,0.0120323,0.0304243,-0.00822014,1.23469,0.023507,0.0450643,1336,1786,8.63355,-62.7566
119,-762,8.52087,62.5555,-0.00564633,0.0230864,0.0114099,0.0270661,-0.00962601,1.2352,0.0219674,0.048153,1343,1786,8.52088,-62.5556
126,-762,8.54468,62.4347,0,0,0,0,0,0,0,-1,1350,1786,8.54464,-62.4347
133,-762,8.12732,62.5321,0,0,0,0,0,0,0,-1,1357,1786,8.12734,-62.5321
140,-762,8.08606,62.3097,-0.0117904,0.0144482,0.00749058,0.016436,-0.0137782,1.3114,0.0174667,0.0469923,1364,1786,8.08601,-62.3097
147,-762,8.26624,62.208,-0.0111466,0.0106765,0.00674859,0.0125948,-0.0130649,1.29385,0.0148155,0.0471522,1371,1786,8.26618,-62.208
154,-762,8.47754,62.0198,0,0,0,0,0,0,0,-1,1378,1786,8.47754,-62.0198
161,-762,8.65051,34.8102,0,0,0,0,0,0,0,-1,1385,1786,8.65054,-34.8101
168,-762,8.19287,0.880615,0,0,0,0,0,0,0,-1,1392,1786,8.19291,-0.880603
175,-762,8.33997,1.95947,0,0,0,0,0,0,0,-1,1399,1786,8.33997,-1.95942
182,-762,8.28418,3.56482,0,0,0,0,0,0,0,-1,1406,1786,8.28415,-3.56485
189,-762,8.21179,5.23389,0,0,0,0,0,0,0,-1,1413,1786,8.21183,-5.23383
196,-762,8.05969,6.95483,0,0,0,0,0,0,0,-1,1420,1786,8.05972,-6.9548
203,-762,24.0077,7.10425,0,0,0,0,0,0,0,-1,1427,1786,24.0077,-7.10426
210,-762,23.8073,7.6499,0,0,0,0,0,0,0,-1,1434,1786,23.8073,-7.64987
217,-762,23.3193,8.24426,0,0,0,0,0,0,0,-1,1441,1786,23.3194,-8.2442
224,-762,2.65149,20.6106,0,0,0,0,0,0,0,-1,1448,1786,2.65153,-20.6106
231,-762,5.46655,23.521,0,0,0,0,0,0,0,-1,1455,1786,5.46653,-23.521
238,-762,5.35632,29.7203,0,0,0,0,0,0,0,-1,1462,1786,5.35629,-29.7203
245,-762,6.93054,27.8312,0,0,0,0,0,0,0,-1,1469,1786,6.93058,-27.8312
252,-762,6.20215,28.3027,0,0,0,0,0,0,0,-1,1476,1786,6.20211,-28.3027
259,-762,5.46472,28.8762,0,0,0,0,0,0,0,-1,1483,1786,5.46476,-28.8762
266,-762,16.451,7.67773,0,0,0,0,0,0,0,-1,1490,1786,16.4511,-7.67773
273,-762,15.287,7.5304,0,0,0,0,0,0,0,-1,1497,1786,15.2869,-7.53044
280,-762,14.1501,7.38379,0,0,0,0,0,0,0,-1,1504,1786,14.1502,-7.38376
287,-762,12.6891,7.99133,0,0,0,0,0,0,0,-1,1511,1786,12.6891,-7.99135
294,-762,12.6959,8.30371,0,0,0,0,0,0,0,-1,1518,1786,12.6959,-8.30368
301,-762,11.4222,8.84143,0,0,0,0,0,0,0,-1,1525,1786,11.4223,-8.84149
308,-762,0,0,0,0,0,0,0,0,0,-1,1532,1786,0,0
315,-762,0,0,0,0,0,0,0,0,0,-1,1539,1786,0,0
322,-762,0,0,0,0,0,0,0,0,0,-1,1546,1786,0,0
329,-762,0,0,0,0,0,0,0,0,0,-1,1553,1786,0,0
336,-762,0,0,0,0,0,0,0,0,0,-1,1560,1786,0,0
343,-762,0,0,0,0,0,0,0,0,0,-1,1567,1786,0,0
350,-762,0,0,0,0,0,0,0,0,0,-1,1574,1786,0,0
357,-762,0,0,0,0,0,0,0,0,0,-1,1581,1786,0,0
364,-762,0,0,0,0,0,0,0,0,0,-1,1588,1786,0,0
371,-762,0,0,0,0,0,0,0,0,0,-1,1595,1786,0,0
378,-762,0,0,0,0,0,0,0,0,0,-1,1602,1786,0,0
385,-762,0,0,0,0,0,0,0,0,0,-1,1609,1786,0,0
392,-762,0,0,0,0,0,0,0,0,0,-1,1616,1786,0,0
399,-762,0,0,0,0,0,0,0,0,0,-1,1623,1786,0,0
406,-762,0,0,0,0,0,0,0,0,0,-1,1630,1786,0,0
413,-762,0,0,0,0,0,0,0,0,0,-1,1637,1786,0,0
420,-762,0,0,0,0,0,0,0,0,0,-1,1644,1786,0,0
427,-762,0,0,0,0,0,0,0,0,0,-1,1651,1786,0,0
434,-762,0,0,0,0,0,0,0,0,0,-1,1658,1786,0,0
441,-762,0,0,0,0,0,0,0,0,0,-1,1665,1786,0,0
448,-762,0,0,0,0,0,0,0,0,0,-1,1672,1786,0,0
455,-762,0,0,0,0,0,0,0,0,0,-1,1679,1786,0,0
462,-762,0,0,0,0,0,0,0,0,0,-1,1686,1786,0,0
469,-762,0,0,0,0,0,0,0,0,0,-1,1693,1786,0,0
476,-762,0,0,0,0,0,0,0,0,0,-1,1700,1786,0,0
483,-762,0,0,0,0,0,0,0,0,0,-1,1707,1786,0,0
490,-762,0,0,0,0,0,0,0,0,0,-1,1714,1786,0,0
497,-762,0,0,0,0,0,0,0,0,0,-1,1721,1786,0,0
504,-762,0,0,0,0,0,0,0,0,0,-1,1728,1786,0,0
511,-762,0,0,0,0,0,0,0,0,0,-1,1735,1786,0,0
518,-762,0,0,0,0,0,0,0,0,0,-1,1742,1786,0,0
525,-762,0,0,0,0,0,0,0,0,0,-1,1749,1786,0,0
532,-762,0,0,0,0,0,0,0,0,0,-1,1756,1786,0,0
539,-762,0,0,0,0,0,0,0,0,0,-1,1763,1786,0,0
546,-762,0,0,0,0,0,0,0,0,0,-1,1770,1786,0,0
553,-762,0,0,0,0,0,0,0,0,0,-1,1777,1786,0,0
560,-762,0,0,0,0,0,0,0,0,0,-1,1784,1786,0,0
567,-762,0,0,0,0,0,0,0,0,0,-1,1791,1786,0,0
574,-762,0,0,0,0,0,0,0,0,0,-1,1798,1786,0,0
581,-762,0,0,0,0,0,0,0,0,0,-1,1805,1786,0,0
588,-762,0,0,0,0,0,0,0,0,0,-1,1812,1786,0,0
595,-762,0,0,0,0,0,0,0,0,0,-1,1819,1786,0,0
602,-762,0,0,0,0,0,0,0,0,0,-1,1826,1786,0,0
609,-762,0,0,0,0,0,0,0,0,0,-1,1833,1786,0,0
616,-762,0,0,0,0,0,0,0,0,0,-1,1840,1786,0,0
623,-762,0,0,0,0,0,0,0,0,0,-1,1847,1786,0,0
630,-762,0,0,0,0,0,0,0,0,0,-1,1854,1786,0,0
637,-762,0,0,0,0,0,0,0,0,0,-1,1861,1786,0,0
644,-762,0,0,0,0,0,0,0,0,0,-1,1868,1786,0,0
651,-762,0,0,0,0,0,0,0,0,0,-1,1875,1786,0,0
658,-762,0,0,0,0,0,0,0,0,0,-1,1882,1786,0,0
665,-762,0,0,0,0,0,0,0,0,0,-1,1889,1786,0,0
672,-762,0,0,0,0,0,0,0,0,0,-1,1896,1786,0,0
679,-762,0,0,0,0,0,0,0,0,0,-1,1903,1786,0,0
686,-762,0,0,0,0,0,0,0,0,0,-1,1910,1786,0,0
693,-762,0,0,0,0,0,0,0,0,0,-1,1917,1786,0,0
700,-762,0,0,0,0,0,0,0,0,0,-1,1924,1786,0,0
707,-762,0,0,0,0,0,0,0,0,0,-1,1931,1786,0,0
714,-762,0,0,0,0,0,0,0,0,0,-1,1938,1786,0,0
721,-762,0,0,0,0,0,0,0,0,0,-1,1945,1786,0,0
728,-762,0,0,0,0,0,0,0,0,0,-1,1952,1786,0,0
735,-762,0,0,0,0,0,0,0,0,0,-1,1959,1786,0,0
742,-762,0,0,0,0,0,0,0,0,0,-1,1966,1786,0,0
749,-762,0,0,0,0,0,0,0,0,0,-1,1973,1786,0,0
756,-762,0,0,0,0,0,0,0,0,0,-1,1980,1786,0,0
763,-762,0,0,0,0,0,0,0,0,0,-1,1987,1786,0,0
770,-762,0,0,0,0,0,0,0,0,0,-1,1994,1786,0,0
777,-762,0,0,0,0,0,0,0,0,0,-1,2001,1786,0,0
784,-762,0,0,0,0,0,0,0,0,0,-1,2008,1786,0,0
791,-762,0,0,0,0,0,0,0,0,0,-1,2015,1786,0,0
798,-762,0,0,0,0,0,0,0,0,0,-1,2022,1786,0,0
805,-762,0,0,0,0,0,0,0,0,0,-1,2029,1786,0,0
812,-762,0,0,0,0,0,0,0,0,0,-1,2036,1786,0,0
-700,-769,0,0,0,0,0,0,0,0,0,-1,524,1793,0,0
-693,-769,0,0,0,0,0,0,0,0,0,-1,531,1793,0,0
-686,-769,0,0,0,0,0,0,0,0,0,-1,538,1793,0,0
-679,-769,0,0,0,0,0,0,0,0,0,-1,545,1793,0,0
-672,-769,0,0,0,0,0,0,0,0,0,-1,552,1793,0,0
-665,-769,0,0,0,0,0,0,0,0,0,-1,559,1793,0,0
-658,-769,0,0,0,0,0,0,0,0,0,-1,566,1793,0,0
-651,-769,0,0,0,0,0,0,0,0,0,-1,573,1793,0,0
-644,-769,0,0,0,0,0,0,0,0,0,-1,580,1793,0,0
-637,-769,0,0,0,0,0,0,0,0,0,-1,587,1793,0,0
-630,-769,0,0,0,0,0,0,0,0,0,-1,594,1793,0,0
-623,-769,0,0,0,0,0,0,0,0,0,-1,601,1793,0,0
-616,-769,0,0,0,0,0,0,0,0,0,-1,608,1793,0,0
-609,-769,0,0,0,0,0,0,0,0,0,-1,615,1793,0,0
-602,-769,0,0,0,0,0,0,0,0,0,-1,622,1793,0,0
-595,-769,0,0,0,0,0,0,0,0,0,-1,629,1793,0,0
-588,-769,0,0,0,0,0,0,0,0,0,-1,636,1793,0,0
-581,-769,0,0,0,0,0,0,0,0,0,-1,643,1793,0,0
-574,-769,0,0,0,0,0,0,0,0,0,-1,650,1793,0,0
-567,-769,0,0,0,0,0,0,0,0,0,-1,657,1793,0,0
-560,-769,0,0,0,0,0,0,0,0,0,-1,664,1793,0,0
-553,-769,0,0,0,0,0,0,0,0,0,-1,671,1793,0,0
-546,-769,0,0,0,0,0,0,0,0,0,-1,678,1793,0,0
-539,-769,0,0,0,0,0,0,0,0,0,-1,685,1793,0,0
-532,-769,0,0,0,0,0,0,0,0,0,-1,692,1793,0,0
-525,-769,0,0,0,0,0,0,0,0,0,-1,699,1793,0,0
-518,-769,0,0,0,0,0,0,0,0,0,-1,706,1793,0,0
-511,-769,0,0,0,0,0,0,0,0,0,-1,713,1793,0,0
-504,-769,0,0,0,0,0,0,0,0,0,-1,720,1793,0,0
-497,-769,0,0,0,0,0,0,0,0,0,-1,727,1793,0,0
-490,-769,0,0,0,0,0,0,0,0,0,-1,734,1793,0,0
-483,-769,0,0,0,0,0,0,0,0,0,-1,741,1793,0,0
-476,-769,0,0,0,0,0,0,0,0,0,-1,748,1793,0,0
-469,-769,0,0,0,0,0,0,0,0,0,-1,755,1793,0,0
-462,-769,0,0,0,0,0,0,0,0,0,-1,762,1793,0,0
-455,-769,0,0,0,0,0,0,0,0,0,-1,769,1793,0,0
-448,-769,0,0,0,0,0,0,0,0,0,-1,776,1793,0,0
-441,-769,0,0,0,0,0,0,0,0,0,-1,783,1793,0,0
-434,-769,0,0,0,0,0,0,0,0,0,-1,790,1793,0,0
-427,-769,0,0,0,0,0,0,0,0,0,-1,797,1793,0,0
-420,-769,0,0,0,0,0,0,0,0,0,-1,804,1793,0,0
-413,-769,0,0,0,0,0,0,0,0,0,-1,811,1793,0,0
-406,-769,0,0,0,0,0,0,0,0,0,-1,818,1793,0,0
-399,-769,0,0,0,0,0,0,0,0,0,-1,825,1793,0,0
-392,-769,0,0,0,0,0,0,0,0,0,-1,832,1793,0,0
-385,-769,0,0,0,0,0,0,0,0,0,-1,839,1793,0,0
-378,-769,0,0,0,0,0,0,0,0,0,-1,846,1793,0,0
-371,-769,0,0,0,0,0,0,0,0,0,-1,853,1793,0,0
-364,-769,0,0,0,0,0,0,0,0,0,-1,860,1793,0,0
-357,-769,0,0,0,0,0,0,0,0,0,-1,867,1793,0,0
-350,-769,0,0,0,0,0,0,0,0,0,-1,874,1793,0,0
-343,-769,0,0,0,0,0,0,0,0,0,-1,881,1793,0,0
-336,-769,0,0,0,0,0,0,0,0,0,-1,888,1793,0,0
-329,-769,0,0,0,0,0,0,0,0,0,-1,895,1793,0,0
-322,-769,0,0,0,0,0,0,0,0,0,-1,902,1793,0,0
-315,-769,0,0,0,0,0,0,0,0,0,-1,909,1793,0,0
-308,-769,0,0,0,0,0,0,0,0,0,-1,916,1793,0,0
-301,-769,0,0,0,0,0,0,0,0,0,-1,923,1793,0,0
-294,-769,0,0,0,0,0,0,0,0,0,-1,930,1793,0,0
-287,-769,0,0,0,0,0,0,0,0,0,-1,937,1793,0,0
-280,-769,0,0,0,0,0,0,0,0,0,-1,944,1793,0,0
-273,-769,0,0,0,0,0,0,0,0,0,-1,951,1793,0,0
-266,-769,0,0,0,0,0,0,0,0,0,-1,958,1793,0,0
-259,-769,0,0,0,0,0,0,0,0,0,-1,965,1793,0,0
-252,-769,0,0,0,0,0,0,0,0,0,-1,972,1793,0,0
-245,-769,0,0,0,0,0,0,0,0,0,-1,979,1793,0,0
-238,-769,0,0,0,0,0,0,0,0,0,-1,986,1793,0,0
-231,-769,0,0,0,0,0,0,0,0,0,-1,993,1793,0,0
-224,-769,0,0,0,0,0,0,0,0,0,-1,1000,1793,0,0
-217,-769,0,0,0,0,0,0,0,0,0,-1,1007,1793,0,0
-210,-769,0,0,0,0,0,0,0,0,0,-1,1014,1793,0,0
-203,-769,0,0,0,0,0,0,0,0,0,-1,1021,1793,0,0
-196,-769,0,0,0,0,0,0,0,0,0,-1,1028,1793,0,0
-189,-769,0,0,0,0,0,0,0,0,0,-1,1035,1793,0,0
-182,-769,0,0,0,0,0,0,0,0,0,-1,1042,1793,0,0
-175,-769,0,0,0,0,0,0,0,0,0,-1,1049,1793,0,0
-168,-769,0,0,0,0,0,0,0,0,0,-1,1056,1793,0,0
-161,-769,-3.61145,12.4761,0,0,0,0,0,0,0,-1,1063,1793,-3.6114,-12.476
-154,-769,-0.813232,5.32874,0,0,0,0,0,0,0,-1,1070,1793,-0.813269,-5.32872
-147,-769,4.26587,4.7002,0,0,0,0,0,0,0,-1,1077,1793,4.26593,-4.70022
-140,-769,4.10376,5.28589,0,0,0,0,0,0,0,-1,1084,1793,4.10371,-5.28584
-133,-769,6.422,8.21777,0,0,0,0,0,0,0,-1,1091,1793,6.42198,-8.21773
-126,-769,-0.352295,19.326,0,0,0,0,0,0,0,-1,1098,1793,-0.352235,-19.326
-119,-769,6.01685,16.2577,0,0,0,0,0,0,0,-1,1105,1793,6.01689,-16.2576
-112,-769,5.76416,27.2615,0,0,0,0,0,0,0,-1,1112,1793,5.7642,-27.2615
-105,-769,4.97009,22.8479,0,0,0,0,0,0,0,-1,1119,1793,4.97006,-22.8479
-98,-769,4.69373,18.9142,0,0,0,0,0,0,0,-1,1126,1793,4.69376,-18.9142
-91,-769,4.41748,14.9805,0,0,0,0,0,0,0,-1,1133,1793,4.41746,-14.9805
-84,-769,3.2207,12.4565,0,0,0,0,0,0,0,-1,1140,1793,3.22066,-12.4565
-77,-769,2.48816,8.98486,0,0,0,0,0,0,0,-1,1147,1793,2.48815,-8.98489
-70,-769,1.04944,11.9852,0,0,0,0,0,0,0,-1,1154,1793,1.04947,-11.9852
-63,-769,-2.39709,9.60339,0,0,0,0,0,0,0,-1,1161,1793,-2.39706,-9.6034
-56,-769,-5.84363,7.22156,0,0,0,0,0,0,0,-1,1168,1793,-5.84359,-7.22157
-49,-769,-2.41443,3.95471,0,0,0,0,0,0,0,-1,1175,1793,-2.41446,-3.95471
-42,-769,-3.1991,2.64941,0,0,0,0,0,0,0,-1,1182,1793,-3.19914,-2.64944
-35,-769,-3.50183,1.73389,0,0,0,0,0,0,0,-1,1189,1793,-3.50189,-1.7339
-28,-769,-3.96985,1.14075,0,0,0,0,0,0,0,-1,1196,1793,-3.96985,-1.14078
-21,-769,9.75879,60.0453,0,0,0,0,0,0,0,-1,1203,1793,9.75881,-60.0453
-14,-769,10.1061,61.1963,0,0,0,0,0,0,0,-1,1210,1793,10.1061,-61.1963
-7,-769,9.61096,62.8524,0,0,0,0,0,0,0,-1,1217,1793,9.61101,-62.8524
0,-769,9.61475,62.9144,-0.0425021,0.0220832,-0.00169376,0.0221276,-0.0425464,-1.5446,0.0379548,0.048008,1224,1793,9.61476,-62.9145
7,-769,9.78345,62.9426,-0.0463575,0.0180696,9.1487e-05,0.0180698,-0.0463576,1.56938,0.0383737,0.0454246,1231,1793,9.78341,-62.9427
14,-769,9.79138,62.9186,-0.0501176,0.01531,0.00192379,0.0153665,-0.0501741,1.54143,0.0395787,0.0423074,1238,1793,9.79133,-62.9186
21,-769,9.46472,63.046,-0.0506943,0.0148055,0.00235174,0.0148898,-0.0507787,1.53495,0.0397563,0.0436252,1245,1793,9.46468,-63.046
28,-769,8.92249,63.0115,-0.0461068,0.0129987,0.00447498,0.0133356,-0.0464437,1.49566,0.0362351,0.0405718,1252,1793,8.92252,-63.0115
35,-769,8.07898,63.2174,-0.0401596,0.0143614,0.00729457,0.0153205,-0.0411187,1.44007,0.0337008,0.0440304,1259,1793,8.07903,-63.2174
42,-769,7.3905,63.7297,0,0,0,0,0,0,0,-1,1266,1793,7.3905,-63.7298
49,-769,6.43665,63.406,0,0,0,0,0,0,0,-1,1273,1793,6.43661,-63.406
56,-769,5.28955,63.7428,0,0,0,0,0,0,0,-1,1280,1793,5.28954,-63.7428
63,-769,4.05164,64.2883,0,0,0,0,0,0,0,-1,1287,1793,4.05159,-64.2883
70,-769,9.04016,62.9138,-0.00737666,0.0309267,0.0162007,0.0368598,-0.0133098,1.21974,0.0300103,0.0443074,1294,1793,9.04017,-62.9138
77,-769,9.0769,63.0619,-0.00180679,0.0341007,0.0173406,0.0411076,-0.0088137,1.18678,0.0307667,0.0473306,1301,1793,9.07687,-63.0619
84,-769,8.92029,62.6215,0.00220459,0.036878,0.0181052,0.0446084,-0.00552582,1.16726,0.0317416,0.0454105,1308,1793,8.92032,-62.6215
91,-769,9.75146,62.7764,0,0,0,0,0,0,0,-1,1315,1793,9.75149,-62.7764
98,-769,9.28796,62.7932,0.00373075,0.0384624,0.018649,0.0465791,-0.00438588,1.16029,0.0326131,0.0459679,1322,1793,9.28801,-62.7932
105,-769,8.86279,62.493,0.00177824,0.0368827,0.0183312,0.0447098,-0.0060489,1.16725,0.0320139,0.044008,1329,1793,8.86274,-62.4931
112,-769,8.55603,62.3293,-0.00199463,0.0336235,0.0174249,0.0407301,-0.00910125,1.18355,0.0306411,0.0477123,1336,1793,8.55606,-62.3293
119,-769,8.12708,62.3676,-0.00433342,0.0297035,0.0164969,0.0363868,-0.0110167,1.18588,0.0286452,0.0473601,1343,1793,8.12704,-62.3675
126,-769,7.84875,62.4735,-0.00732926,0.0252977,0.0161925,0.0319695,-0.0140011,1.17996,0.0272086,0.0473836,1350,1793,7.84879,-62.4735
133,-769,7.74084,62.5496,0,0,0,0,0,0,0,-1,1357,1793,7.7409,-62.5496
140,-769,7.88733,62.2065,0,0,0,0,0,0,0,-1,1364,1793,7.88729,-62.2066
147,-769,8.04456,62.1387,0,0,0,0,0,0,0,-1,1371,1793,8.04459,-62.1386
154,-769,7.29382,55.4241,0,0,0,0,0,0,0,-1,1378,1793,7.29384,-55.4241
161,-769,6.57019,1.53223,0,0,0,0,0,0,0,-1,1385,1793,6.57019,-1.53226
168,-769,8.27637,0.756958,0,0,0,0,0,0,0,-1,1392,1793,8.27639,-0.756944
175,-769,8.47144,2.41174,0,0,0,0,0,0,0,-1,1399,1793,8.47147,-2.4118
182,-769,8.41479,4.05994,0,0,0,0,0,0,0,-1,1406,1793,8.41479,-4.05997
189,-769,8.25049,5.68433,0,0,0,0,0,0,0,-1,1413,1793,8.25054,-5.68428
196,-769,7.97729,7.42847,0,0,0,0,0,0,0,-1,1420,1793,7.9773,-7.42848
203,-769,22.0977,6.73889,0,0,0,0,0,0,0,-1,1427,1793,22.0977,-6.7389
210,-769,22.1115,7.77246,0,0,0,0,0,0,0,-1,1434,1793,22.1115,-7.77248
217,-769,22.4723,8.79102,0,0,0,0,0,0,0,-1,1441,1793,22.4723,-8.79099
224,-769,22.1348,9.35278,0,0,0,0,0,0,0,-1,1448,1793,22.1348,-9.35283
231,-769,3.13318,19.7184,0,0,0,0,0,0,0,-1,1455,1793,3.13323,-19.7184
238,-769,5.74512,18.6597,0,0,0,0,0,0,0,-1,1462,1793,5.74512,-18.6596
245,-769,5.80798,22.87,0,0,0,0,0,0,0,-1,1469,1793,5.80796,-22.87
252,-769,6.20837,28.394,0,0,0,0,0,0,0,-1,1476,1793,6.20833,-28.3941
259,-769,10.974,17.7698,0,0,0,0,0,0,0,-1,1483,1793,10.974,-17.7698
266,-769,15.8488,7.3905,0,0,0,0,0,0,0,-1,1490,1793,15.8488,-7.39046
273,-769,14.8075,7.56152,0,0,0,0,0,0,0,-1,1497,1793,14.8075,-7.56152
280,-769,13.6519,7.43054,0,0,0,0,0,0,0,-1,1504,1793,13.6518,-7.43058
287,-769,0,0,0,0,0,0,0,0,0,-1,1511,1793,0,0
294,-769,0,0,0,0,0,0,0,0,0,-1,1518,1793,0,0
301,-769,0,0,0,0,0,0,0,0,0,-1,1525,1793,0,0
308,-769,0,0,0,0,0,0,0,0,0,-1,1532,1793,0,0
315,-769,0,0,0,0,0,0,0,0,0,-1,1539,1793,0,0
322,-769,0,0,0,0,0,0,0,0,0,-1,1546,1793,0,0
329,-769,0,0,0,0,0,0,0,0,0,-1,1553,1793,0,0
336,-769,0,0,0,0,0,0,0,0,0,-1,1560,1793,0,0
343,-769,0,0,0,0,0,0,0,0,0,-1,1567,1793,0,0
350,-769,0,0,0,0,0,0,0,0,0,-1,1574,1793,0,0
357,-769,0,0,0,0,0,0,0,0,0,-1,1581,1793,0,0
364,-769,0,0,0,0,0,0,0,0,0,-1,1588,1793,0,0
371,-769,0,0,0,0,0,0,0,0,0,-1,1595,1793,0,0
378,-769,0,0,0,0,0,0,0,0,0,-1,1602,1793,0,0
385,-769,0,0,0,0,0,0,0,0,0,-1,1609,1793,0,0
392,-769,0,0,0,0,0,0,0,0,0,-1,1616,1793,0,0
399,-769,0,0,0,0,0,0,0,0,0,-1,1623,1793,0,0
406,-769,0,0,0,0,0,0,0,0,0,-1,1630,1793,0,0
413,-769,0,0,0,0,0,0,0,0,0,-1,1637,1793,0,0
420,-769,0,0,0,0,0,0,0,0,0,-1,1644,1793,0,0
427,-769,0,0,0,0,0,0,0,0,0,-1,1651,1793,0,0
434,-769,0,0,0,0,0,0,0,0,0,-1,1658,1793,0,0
441,-769,0,0,0,0,0,0,0,0,0,-1,1665,1793,0,0
448,-769,0,0,0,0,0,0,0,0,0,-1,1672,1793,0,0
455,-769,0,0,0,0,0,0,0,0,0,-1,1679,1793,0,0
462,-769,0,0,0,0,0,0,0,0,0,-1,1686,1793,0,0
469,-769,0,0,0,0,0,0,0,0,0,-1,1693,1793,0,0
476,-769,0,0,0,0,0,0,0,0,0,-1,1700,1793,0,0
483,-769,0,0,0,0,0,0,0,0,0,-1,1707,1793,0,0
490,-769,0,0,0,0,0,0,0,0,0,-1,1714,1793,0,0
497,-769,0,0,0,0,0,0,0,0,0,-1,1721,1793,0,0
504,-769,0,0,0,0,0,0,0,0,0,-1,1728,1793,0,0
511,-769,0,0,0,0,0,0,0,0,0,-1,1735,1793,0,0
518,-769,0,0,0,0,0,0,0,0,0,-1,1742,1793,0,0
525,-769,0,0,0,0,0,0,0,0,0,-1,1749,1793,0,0
532,-769,0,0,0,0,0,0,0,0,0,-1,1756,1793,0,0
539,-769,0,0,0,0,0,0,0,0,0,-1,1763,1793,0,0
546,-769,0,0,0,0,0,0,0,0,0,-1,1770,1793,0,0
553,-769,0,0,0,0,0,0,0,0,0,-1,1777,1793,0,0
560,-769,0,0,0,0,0,0,0,0,0,-1,1784,1793,0,0
567,-769,0,0,0,0,0,0,0,0,0,-1,1791,1793,0,0
574,-769,0,0,0,0,0,0,0,0,0,-1,1798,1793,0,0
581,-769,0,0,0,0,0,0,0,0,0,-1,1805,1793,0,0
588,-769,0,0,0,0,0,0,0,0,0,-1,1812,1793,0,0
595,-769,0,0,0,0,0,0,0,0,0,-1,1819,1793,0,0
602,-769,0,0,0,0,0,0,0,0,0,-1,1826,1793,0,0
609,-769,0,0,0,0,0,0,0,0,0,-1,1833,1793,0,0
616,-769,0,0,0,0,0,0,0,0,0,-1,1840,1793,0,0
623,-769,0,0,0,0,0,0,0,0,0,-1,1847,1793,0,0
630,-769,0,0,0,0,0,0,0,0,0,-1,1854,1793,0,0
637,-769,0,0,0,0,0,0,0,0,0,-1,1861,1793,0,0
644,-769,0,0,0,0,0,0,0,0,0,-1,1868,1793,0,0
651,-769,0,0,0,0,0,0,0,0,0,-1,1875,1793,0,0
658,-769,0,0,0,0,0,0,0,0,0,-1,1882,1793,0,0
665,-769,0,0,0,0,0,0,0,0,0,-1,1889,1793,0,0
672,-769,0,0,0,0,0,0,0,0,0,-1,1896,1793,0,0
679,-769,0,0,0,0,0,0,0,0,0,-1,1903,1793,0,0
686,-769,0,0,0,0,0,0,0,0,0,-1,1910,1793,0,0
693,-769,0,0,0,0,0,0,0,0,0,-1,1917,1793,0,0
700,-769,0,0,0,0,0,0,0,0,0,-1,1924,1793,0,0
707,-769,0,0,0,0,0,0,0,0,0,-1,1931,1793,0,0
714,-769,0,0,0,0,0,0,0,0,0,-1,1938,1793,0,0
721,-769,0,0,0,0,0,0,0,0,0,-1,1945,1793,0,0
728,-769,0,0,0,0,0,0,0,0,0,-1,1952,1793,0,0
735,-769,0,0,0,0,0,0,0,0,0,-1,1959,1793,0,0
742,-769,0,0,0,0,0,0,0,0,0,-1,1966,1793,0,0
749,-769,0,0,0,0,0,0,0,0,0,-1,1973,1793,0,0
756,-769,0,0,0,0,0,0,0,0,0,-1,1980,1793,0,0
763,-769,0,0,0,0,0,0,0,0,0,-1,1987,1793,0,0
770,-769,0,0,0,0,0,0,0,0,0,-1,1994,1793,0,0
777,-769,0,0,0,0,0,0,0,0,0,-1,2001,1793,0,0
784,-769,0,0,0,0,0,0,0,0,0,-1,2008,1793,0,0
791,-769,0,0,0,0,0,0,0,0,0,-1,2015,1793,0,0
798,-769,0,0,0,0,0,0,0,0,0,-1,2022,1793,0,0
805,-769,0,0,0,0,0,0,0,0,0,-1,2029,1793,0,0
812,-769,0,0,0,0,0,0,0,0,0,-1,2036,1793,0,0
-700,-776,0,0,0,0,0,0,0,0,0,-1,524,1800,0,0
-693,-776,0,0,0,0,0,0,0,0,0,-1,531,1800,0,0
-686,-776,0,0,0,0,0,0,0,0,0,-1,538,1800,0,0
-679,-776,0,0,0,0,0,0,0,0,0,-1,545,1800,0,0
-672,-776,0,0,0,0,0,0,0,0,0,-1,552,1800,0,0
-665,-776,0,0,0,0,0,0,0,0,0,-1,559,1800,0,0
-658,-776,0,0,0,0,0,0,0,0,0,-1,566,1800,0,0
-651,-776,0,0,0,0,0,0,0,0,0,-1,573,1800,0,0
-644,-776,0,0,0,0,0,0,0,0,0,-1,580,1800,0,0
-637,-776,0,0,0,0,0,0,0,0,0,-1,587,1800,0,0
-630,-776,0,0,0,0,0,0,0,0,0,-1,594,1800,0,0
-623,-776,0,0,0,0,0,0,0,0,0,-1,601,1800,0,0
-616,-776,0,0,0,0,0,0,0,0,0,-1,608,1800,0,0
-609,-776,0,0,0,0,0,0,0,0,0,-1,615,1800,0,0
-602,-776,0,0,0,0,0,0,0,0,0,-1,622,1800,0,0
-595,-776,0,0,0,0,0,0,0,0,0,-1,629,1800,0,0
-588,-776,0,0,0,0,0,0,0,0,0,-1,636,1800,0,0
-581,-776,0,0,0,0,0,0,0,0,0,-1,643,1800,0,0
-574,-776,0,0,0,0,0,0,0,0,0,-1,650,1800,0,0
-567,-776,0,0,0,0,0,0,0,0,0,-1,657,1800,0,0
-560,-776,0,0,0,0,0,0,0,0,0,-1,664,1800,0,0
-553,-776,0,0,0,0,0,0,0,0,0,-1,671,1800,0,0
-546,-776,0,0,0,0,0,0,0,0,0,-1,678,1800,0,0
-539,-776,0,0,0,0,0,0,0,0,0,-1,685,1800,0,0
-532,-776,0,0,0,0,0,0,0,0,0,-1,692,1800,0,0
-525,-776,0,0,0,0,0,0,0,0,0,-1,699,1800,0,0
-518,-776,0,0,0,0,0,0,0,0,0,-1,706,1800,0,0
-511,-776,0,0,0,0,0,0,0,0,0,-1,713,1800,0,0
-504,-776,0,0,0,0,0,0,0,0,0,-1,720,1800,0,0
-497,-776,0,0,0,0,0,0,0,0,0,-1,727,1800,0,0
-490,-776,0,0,0,0,0,0,0,0,0,-1,734,1800,0,0
-483,-776,0,0,0,0,0,0,0,0,0,-1,741,1800,0,0
-476,-776,0,0,0,0,0,0,0,0,0,-1,748,1800,0,0
-469,-776,0,0,0,0,0,0,0,0,0,-1,755,1800,0,0
-462,-776,0,0,0,0,0,0,0,0,0,-1,762,1800,0,0
-455,-776,0,0,0,0,0,0,0,0,0,-1,769,1800,0,0
-448,-776,0,0,0,0,0,0,0,0,0,-1,776,1800,0,0
-441,-776,0,0,0,0,0,0,0,0,0,-1,783,1800,0,0
-434,-776,0,0,0,0,0,0,0,0,0,-1,790,1800,0,0
-427,-776,0,0,0,0,0,0,0,0,0,-1,797,1800,0,0
-420,-776,0,0,0,0,0,0,0,0,0,-1,804,1800,0,0
-413,-776,0,0,0,0,0,0,0,0,0,-1,811,1800,0,0
-406,-776,0,0,0,0,0,0,0,0,0,-1,818,1800,0,0
-399,-776,0,0,0,0,0,0,0,0,0,-1,825,1800,0,0
-392,-776,0,0,0,0,0,0,0,0,0,-1,832,1800,0,0
-385,-776,0,0,0,0,0,0,0,0,0,-1,839,1800,0,0
-378,-776,0,0,0,0,0,0,0,0,0,-1,846,1800,0,0
-371,-776,0,0,0,0,0,0,0,0,0,-1,853,1800,0,0
-364,-776,0,0,0,0,0,0,0,0,0,-1,860,1800,0,0
-357,-776,0,0,0,0,0,0,0,0,0,-1,867,1800,0,0
-350,-776,0,0,0,0,0,0,0,0,0,-1,874,1800,0,0
-343,-776,0,0,0,0,0,0,0,0,0,-1,881,1800,0,0
-336,-776,0,0,0,0,0,0,0,0,0,-1,888,1800,0,0
-329,-776,0,0,0,0,0,0,0,0,0,-1,895,1800,0,0
-322,-776,0,0,0,0,0,0,0,0,0,-1,902,1800,0,0
-315,-776,0,0,0,0,0,0,0,0,0,-1,909,1800,0,0
-308,-776,0,0,0,0,0,0,0,0,0,-1,916,1800,0,0
-301,-776,0,0,0,0,0,0,0,0,0,-1,923,1800,0,0
-294,-776,0,0,0,0,0,0,0,0,0,-1,930,1800,0,0
-287,-776,0,0,0,0,0,0,0,0,0,-1,937,1800,0,0
-280,-776,0,0,0,0,0,0,0,0,0,-1,944,1800,0,0
-273,-776,0,0,0,0,0,0,0,0,0,-1,951,1800,0,0
-266,-776,0,0,0,0,0,0,0,0,0,-1,958,1800,0,0
-259,-776,0,0,0,0,0,0,0,0,0,-1,965,1800,0,0
-252,-776,0,0,0,0,0,0,0,0,0,-1,972,1800,0,0
-245,-776,0,0,0,0,0,0,0,0,0,-1,979,1800,0,0
-238,-776,0,0,0,0,0,0,0,0,0,-1,986,1800,0,0
-231,-776,0,0,0,0,0,0,0,0,0,-1,993,1800,0,0
-224,-776,0,0,0,0,0,0,0,0,0,-1,1000,1800,0,0
-217,-776,0,0,0,0,0,0,0,0,0,-1,1007,1800,0,0
-210,-776,0,0,0,0,0,0,0,0,0,-1,1014,1800,0,0
-203,-776,0,0,0,0,0,0,0,0,0,-1,1021,1800,0,0
-196,-776,0,0,0,0,0,0,0,0,0,-1,1028,1800,0,0
-189,-776,0,0,0,0,0,0,0,0,0,-1,1035,1800,0,0
-182,-776,0,0,0,0,0,0,0,0,0,-1,1042,1800,0,0
-175,-776,0,0,0,0,0,0,0,0,0,-1,1049,1800,0,0
-168,-776,0,0,0,0,0,0,0,0,0,-1,1056,1800,0,0
-161,-776,0,0,0,0,0,0,0,0,0,-1,1063,1800,0,0
-154,-776,0,0,0,0,0,0,0,0,0,-1,1070,1800,0,0
-147,-776,0,0,0,0,0,0,0,0,0,-1,1077,1800,0,0
-140,-776,2.98499,5.20911,0,0,0,0,0,0,0,-1,1084,1800,2.98493,-5.2091
-133,-776,6.72363,9.35828,0,0,0,0,0,0,0,-1,1091,1800,6.72358,-9.35824
-126,-776,6.55029,13.7832,0,0,0,0,0,0,0,-1,1098,1800,6.55029,-13.7832
-119,-776,5.72107,13.7787,0,0,0,0,0,0,0,-1,1105,1800,5.72106,-13.7787
-112,-776,6.84998,20.4421,0,0,0,0,0,0,0,-1,1112,1800,6.84993,-20.4421
-105,-776,4.46863,24.6742,0,0,0,0,0,0,0,-1,1119,1800,4.46868,-24.6742
-98,-776,4.31616,19.7659,0,0,0,0,0,0,0,-1,1126,1800,4.31619,-19.7659
-91,-776,3.30225,18.134,0,0,0,0,0,0,0,-1,1133,1800,3.30222,-18.134
-84,-776,2.67932,14.3162,0,0,0,0,0,0,0,-1,1140,1800,2.67926,-14.3161
-77,-776,0.580078,11.1272,0,0,0,0,0,0,0,-1,1147,1800,0.58002,-11.1272
-70,-776,-0.562866,12.3163,0,0,0,0,0,0,0,-1,1154,1800,-0.562897,-12.3163
-63,-776,-3.96106,9.97656,0,0,0,0,0,0,0,-1,1161,1800,-3.961,-9.97654
-56,-776,-7.35913,7.63672,0,0,0,0,0,0,0,-1,1168,1800,-7.3591,-7.63676
-49,-776,-7.62952,3.1908,0,0,0,0,0,0,0,-1,1175,1800,-7.62955,-3.19076
-42,-776,-3.41272,3.0249,0,0,0,0,0,0,0,-1,1182,1800,-3.41269,-3.02488
-35,-776,-3.71753,1.63635,0,0,0,0,0,0,0,-1,1189,1800,-3.71755,-1.63631
-28,-776,-4.03979,0.716064,0,0,0,0,0,0,0,-1,1196,1800,-4.03977,-0.716055
-21,-776,13.0662,62.6803,0,0,0,0,0,0,0,-1,1203,1800,13.0662,-62.6803
-14,-776,12.4423,62.4158,0,0,0,0,0,0,0,-1,1210,1800,12.4423,-62.4158
-7,-776,10.8108,62.0011,0,0,0,0,0,0,0,-1,1217,1800,10.8108,-62.0011
0,-776,10.7274,62.1692,-0.0530171,0.0286667,-0.00260724,0.0287498,-0.0531003,-1.53892,0.0479482,0.0482803,1224,1800,10.7274,-62.1692
7,-776,10.5404,62.4803,-0.0582146,0.0226165,-8.19502e-05,0.0226166,-0.0582147,-1.56978,0.0481529,0.0460938,1231,1800,10.5404,-62.4804
14,-776,10.1942,62.6631,-0.0631168,0.0183039,0.00234476,0.0183714,-0.0631842,1.54203,0.0493988,0.0418277,1238,1800,10.1942,-62.6631
21,-776,9.59155,62.8236,-0.0641461,0.0171239,0.00301322,0.0172355,-0.0642576,1.53379,0.0495922,0.0420398,1245,1800,9.5915,-62.8236
28,-776,8.73743,62.8529,-0.0580171,0.0148341,0.00569785,0.015277,-0.05846,1.49321,0.0449398,0.0428214,1252,1800,8.73741,-62.853
35,-776,7.84668,63.1101,-0.0496798,0.0165429,0.0097863,0.0179588,-0.0510957,1.42711,0.0413705,0.0445042,1259,1800,7.84667,-63.1101
42,-776,7.20142,63.4794,-0.0406848,0.0204862,0.0128536,0.0230773,-0.0432759,1.37188,0.0388962,0.0439195,1266,1800,7.20143,-63.4794
49,-776,6.47607,63.5991,-0.0309241,0.0255446,0.0151962,0.0293743,-0.0347538,1.32392,0.0370678,0.0443035,1273,1800,6.47608,-63.5991
56,-776,5.35217,64.1986,0,0,0,0,0,0,0,-1,1280,1800,5.35214,-64.1986
63,-776,4.07043,64.9486,0,0,0,0,0,0,0,-1,1287,1800,4.07044,-64.9486
70,-776,3.04065,65.6038,0,0,0,0,0,0,0,-1,1294,1800,3.04059,-65.6037
77,-776,9.0957,62.6135,0,0,0,0,0,0,0,-1,1301,1800,9.09568,-62.6136
84,-776,10.6078,62.7885,0.0072482,0.0456285,0.0252239,0.0581322,-0.00525558,1.11058,0.0406202,0.0495563,1308,1800,10.6078,-62.7885
91,-776,9.88599,62.9233,0.00927343,0.0474896,0.0258347,0.0605148,-0.00375179,1.10381,0.0416502,0.0444596,1315,1800,9.88603,-62.9233
98,-776,9.08032,62.7269,0.00929794,0.0478774,0.026135,0.0610704,-0.00389509,1.10331,0.0420721,0.0425059,1322,1800,9.08027,-62.727
105,-776,8.5979,62.319,0.00647566,0.0458899,0.025634,0.0585165,-0.00615096,1.11311,0.0412146,0.044501,1329,1800,8.59788,-62.319
112,-776,8.37915,62.3269,0.00125829,0.0418047,0.0242336,0.0531269,-0.0100639,1.13372,0.0392056,0.0461473,1336,1800,8.37911,-62.3269
119,-776,8.17444,62.5079,-0.00208398,0.0371212,0.0228687,0.047639,-0.0126018,1.13972,0.0366886,0.0436982,1343,1800,8.17441,-62.5079
126,-776,7.7959,62.5107,-0.00578263,0.0321175,0.0220011,0.0422046,-0.0158697,1.14091,0.0346593,0.0450314,1350,1800,7.79591,-62.5107
133,-776,7.43884,62.5475,0,0,0,0,0,0,0,-1,1357,1800,7.43881,-62.5475
140,-776,9.13232,61.809,0,0,0,0,0,0,0,-1,1364,1800,9.13236,-61.809
147,-776,9.61267,62.2073,0,0,0,0,0,0,0,-1,1371,1800,9.61271,-62.2073
154,-776,38.4338,21.854,0,0,0,0,0,0,0,-1,1378,1800,38.4339,-21.854
161,-776,6.50293,1.1731,0,0,0,0,0,0,0,-1,1385,1800,6.5029,-1.17313
168,-776,8.44971,1.22913,0,0,0,0,0,0,0,-1,1392,1800,8.44974,-1.22915
175,-776,8.61523,2.87061,0,0,0,0,0,0,0,-1,1399,1800,8.6152,-2.87063
182,-776,8.54065,4.60645,0,0,0,0,0,0,0,-1,1406,1800,8.5407,-4.60643
189,-776,8.35303,6.28223,0,0,0,0,0,0,0,-1,1413,1800,8.35297,-6.28225
196,-776,8.0387,8.21704,0,0,0,0,0,0,0,-1,1420,1800,8.03865,-8.217
203,-776,7.91736,9.79919,0,0,0,0,0,0,0,-1,1427,1800,7.91735,-9.79922
210,-776,20.2479,7.85718,0,0,0,0,0,0,0,-1,1434,1800,20.248,-7.85719
217,-776,21.5171,9.3418,0,0,0,0,0,0,0,-1,1441,1800,21.5171,-9.34182
224,-776,3.09253,14.9313,0,0,0,0,0,0,0,-1,1448,1800,3.09254,-14.9313
231,-776,20.8671,9.21057,0,0,0,0,0,0,0,-1,1455,1800,20.867,-9.21054
238,-776,20.7511,9.05847,0,0,0,0,0,0,0,-1,1462,1800,20.7511,-9.05848
245,-776,3.80823,15.4108,0,0,0,0,0,0,0,-1,1469,1800,3.80826,-15.4108
252,-776,8.57837,20.2009,0,0,0,0,0,0,0,-1,1476,1800,8.57841,-20.2009
259,-776,14.1882,7.69055,0,0,0,0,0,0,0,-1,1483,1800,14.1882,-7.69061
266,-776,0,0,0,0,0,0,0,0,0,-1,1490,1800,0,0
273,-776,0,0,0,0,0,0,0,0,0,-1,1497,1800,0,0
280,-776,0,0,0,0,0,0,0,0,0,-1,1504,1800,0,0
287,-776,0,0,0,0,0,0,0,0,0,-1,1511,1800,0,0
294,-776,0,0,0,0,0,0,0,0,0,-1,1518,1800,0,0
301,-776,0,0,0,0,0,0,0,0,0,-1,1525,1800,0,0
308,-776,0,0,0,0,0,0,0,0,0,-1,1532,1800,0,0
315,-776,0,0,0,0,0,0,0,0,0,-1,1539,1800,0,0
322,-776,0,0,0,0,0,0,0,0,0,-1,1546,1800,0,0
329,-776,0,0,0,0,0,0,0,0,0,-1,1553,1800,0,0
336,-776,0,0,0,0,0,0,0,0,0,-1,1560,1800,0,0
343,-776,0,0,0,0,0,0,0,0,0,-1,1567,1800,0,0
350,-776,0,0,0,0,0,0,0,0,0,-1,1574,1800,0,0
357,-776,0,0,0,0,0,0,0,0,0,-1,1581,1800,0,0
364,-776,0,0,0,0,0,0,0,0,0,-1,1588,1800,0,0
371,-776,0,0,0,0,0,0,0,0,0,-1,1595,1800,0,0
378,-776,0,0,0,0,0,0,0,0,0,-1,1602,1800,0,0
385,-776,0,0,0,0,0,0,0,0,0,-1,1609,1800,0,0
392,-776,0,0,0,0,0,0,0,0,0,-1,1616,1800,0,0
399,-776,0,0,0,0,0,0,0,0,0,-1,1623,1800,0,0
406,-776,0,0,0,0,0,0,0,0,0,-1,1630,1800,0,0
413,-776,0,0,0,0,0,0,0,0,0,-1,1637,1800,0,0
420,-776,0,0,0,0,0,0,0,0,0,-1,1644,1800,0,0
427,-776,0,0,0,0,0,0,0,0,0,-1,1651,1800,0,0
434,-776,0,0,0,0,0,0,0,0,0,-1,1658,1800,0,0
441,-776,0,0,0,0,0,0,0,0,0,-1,1665,1800,0,0
448,-776,0,0,0,0,0,0,0,0,0,-1,1672,1800,0,0
455,-776,0,0,0,0,0,0,0,0,0,-1,1679,1800,0,0
462,-776,0,0,0,0,0,0,0,0,0,-1,1686,1800,0,0
469,-776,0,0,0,0,0,0,0,0,0,-1,1693,1800,0,0
476,-776,0,0,0,0,0,0,0,0,0,-1,1700,1800,0,0
483,-776,0,0,0,0,0,0,0,0,0,-1,1707,1800,0,0
490,-776,0,0,0,0,0,0,0,0,0,-1,1714,1800,0,0
497,-776,0,0,0,0,0,0,0,0,0,-1,1721,1800,0,0
504,-776,0,0,0,0,0,0,0,0,0,-1,1728,1800,0,0
511,-776,0,0,0,0,0,0,0,0,0,-1,1735,1800,0,0
518,-776,0,0,0,0,0,0,0,0,0,-1,1742,1800,0,0
525,-776,0,0,0,0,0,0,0,0,0,-1,1749,1800,0,0
532,-776,0,0,0,0,0,0,0,0,0,-1,1756,1800,0,0
539,-776,0,0,0,0,0,0,0,0,0,-1,1763,1800,0,0
546,-776,0,0,0,0,0,0,0,0,0,-1,1770,1800,0,0
553,-776,0,0,0,0,0,0,0,0,0,-1,1777,1800,0,0
560,-776,0,0,0,0,0,0,0,0,0,-1,1784,1800,0,0
567,-776,0,0,0,0,0,0,0,0,0,-1,1791,1800,0,0
574,-776,0,0,0,0,0,0,0,0,0,-1,1798,1800,0,0
581,-776,0,0,0,0,0,0,0,0,0,-1,1805,1800,0,0
588,-776,0,0,0,0,0,0,0,0,0,-1,1812,1800,0,0
595,-776,0,0,0,0,0,0,0,0,0,-1,1819,1800,0,0
602,-776,0,0,0,0,0,0,0,0,0,-1,1826,1800,0,0
609,-776,0,0,0,0,0,0,0,0,0,-1,1833,1800,0,0
616,-776,0,0,0,0,0,0,0,0,0,-1,1840,1800,0,0
623,-776,0,0,0,0,0,0,0,0,0,-1,1847,1800,0,0
630,-776,0,0,0,0,0,0,0,0,0,-1,1854,1800,0,0
637,-776,0,0,0,0,0,0,0,0,0,-1,1861,1800,0,0
644,-776,0,0,0,0,0,0,0,0,0,-1,1868,1800,0,0
651,-776,0,0,0,0,0,0,0,0,0,-1,1875,1800,0,0
658,-776,0,0,0,0,0,0,0,0,0,-1,1882,1800,0,0
665,-776,0,0,0,0,0,0,0,0,0,-1,1889,1800,0,0
672,-776,0,0,0,0,0,0,0,0,0,-1,1896,1800,0,0
679,-776,0,0,0,0,0,0,0,0,0,-1,1903,1800,0,0
686,-776,0,0,0,0,0,0,0,0,0,-1,1910,1800,0,0
693,-776,0,0,0,0,0,0,0,0,0,-1,1917,1800,0,0
700,-776,0,0,0,0,0,0,0,0,0,-1,1924,1800,0,0
707,-776,0,0,0,0,0,0,0,0,0,-1,1931,1800,0,0
714,-776,0,0,0,0,0,0,0,0,0,-1,1938,1800,0,0
721,-776,0,0,0,0,0,0,0,0,0,-1,1945,1800,0,0
728,-776,0,0,0,0,0,0,0,0,0,-1,1952,1800,0,0
735,-776,0,0,0,0,0,0,0,0,0,-1,1959,1800,0,0
742,-776,0,0,0,0,0,0,0,0,0,-1,1966,1800,0,0
749,-776,0,0,0,0,0,0,0,0,0,-1,1973,1800,0,0
756,-776,0,0,0,0,0,0,0,0,0,-1,1980,1800,0,0
763,-776,0,0,0,0,0,0,0,0,0,-1,1987,1800,0,0
770,-776,0,0,0,0,0,0,0,0,0,-1,1994,1800,0,0
777,-776,0,0,0,0,0,0,0,0,0,-1,2001,1800,0,0
784,-776,0,0,0,0,0,0,0,0,0,-1,2008,1800,0,0
791,-776,0,0,0,0,0,0,0,0,0,-1,2015,1800,0,0
798,-776,0,0,0,0,0,0,0,0,0,-1,2022,1800,0,0
805,-776,0,0,0,0,0,0,0,0,0,-1,2029,1800,0,0
812,-776,0,0,0,0,0,0,0,0,0,-1,2036,1800,0,0
-700,-783,0,0,0,0,0,0,0,0,0,-1,524,1807,0,0
-693,-783,0,0,0,0,0,0,0,0,0,-1,531,1807,0,0
-686,-783,0,0,0,0,0,0,0,0,0,-1,538,1807,0,0
-679,-783,0,0,0,0,0,0,0,0,0,-1,545,1807,0,0
-672,-783,0,0,0,0,0,0,0,0,0,-1,552,1807,0,0
-665,-783,0,0,0,0,0,0,0,0,0,-1,559,1807,0,0
-658,-783,0,0,0,0,0,0,0,0,0,-1,566,1807,0,0
-651,-783,0,0,0,0,0,0,0,0,0,-1,573,1807,0,0
-644,-783,0,0,0,0,0,0,0,0,0,-1,580,1807,0,0
-637,-783,0,0,0,0,0,0,0,0,0,-1,587,1807,0,0
-630,-783,0,0,0,0,0,0,0,0,0,-1,594,1807,0,0
-623,-783,0,0,0,0,0,0,0,0,0,-1,601,1807,0,0
-616,-783,0,0,0,0,0,0,0,0,0,-1,608,1807,0,0
-609,-783,0,0,0,0,0,0,0,0,0,-1,615,1807,0,0
-602,-783,0,0,0,0,0,0,0,0,0,-1,622,1807,0,0
-595,-783,0,0,0,0,0,0,0,0,0,-1,629,1807,0,0
-588,-783,0,0,0,0,0,0,0,0,0,-1,636,1807,0,0
-581,-783,0,0,0,0,0,0,0,0,0,-1,643,1807,0,0
-574,-783,0,0,0,0,0,0,0,0,0,-1,650,1807,0,0
-567,-783,0,0,0,0,0,0,0,0,0,-1,657,1807,0,0
-560,-783,0,0,0,0,0,0,0,0,0,-1,664,1807,0,0
-553,-783,0,0,0,0,0,0,0,0,0,-1,671,1807,0,0
-546,-783,0,0,0,0,0,0,0,0,0,-1,678,1807,0,0
-539,-783,0,0,0,0,0,0,0,0,0,-1,685,1807,0,0
-532,-783,0,0,0,0,0,0,0,0,0,-1,692,1807,0,0
-525,-783,0,0,0,0,0,0,0,0,0,-1,699,1807,0,0
-518,-783,0,0,0,0,0,0,0,0,0,-1,706,1807,0,0
-511,-783,0,0,0,0,0,0,0,0,0,-1,713,1807,0,0
-504,-783,0,0,0,0,0,0,0,0,0,-1,720,1807,0,0
-497,-783,0,0,0,0,0,0,0,0,0,-1,727,1807,0,0
-490,-783,0,0,0,0,0,0,0,0,0,-1,734,1807,0,0
-483,-783,0,0,0,0,0,0,0,0,0,-1,741,1807,0,0
-476,-783,0,0,0,0,0,0,0,0,0,-1,748,1807,0,0
-469,-783,0,0,0,0,0,0,0,0,0,-1,755,1807,0,0
-462,-783,0,0,0,0,0,0,0,0,0,-1,762,1807,0,0
-455,-783,0,0,0,0,0,0,0,0,0,-1,769,1807,0,0
-448,-783,0,0,0,0,0,0,0,0,0,-1,776,1807,0,0
-441,-783,0,0,0,0,0,0,0,0,0,-1,783,1807,0,0
-434,-783,0,0,0,0,0,0,0,0,0,-1,790,1807,0,0
-427,-783,0,0,0,0,0,0,0,0,0,-1,797,1807,0,0
-420,-783,0,0,0,0,0,0,0,0,0,-1,804,1807,0,0
-413,-783,0,0,0,0,0,0,0,0,0,-1,811,1807,0,0
-406,-783,0,0,0,0,0,0,0,0,0,-1,818,1807,0,0
-399,-783,0,0,0,0,0,0,0,0,0,-1,825,1807,0,0
-392,-783,0,0,0,0,0,0,0,0,0,-1,832,1807,0,0
-385,-783,0,0,0,0,0,0,0,0,0,-1,839,1807,0,0
-378,-783,0,0,0,0,0,0,0,0,0,-1,846,1807,0,0
-371,-783,0,0,0,0,0,0,0,0,0,-1,853,1807,0,0
-364,-783,0,0,0,0,0,0,0,0,0,-1,860,1807,0,0
-357,-783,0,0,0,0,0,0,0,0,0,-1,867,1807,0,0
-350,-783,0,0,0,0,0,0,0,0,0,-1,874,1807,0,0
-343,-783,0,0,0,0,0,0,0,0,0,-1,881,1807,0,0
-336,-783,0,0,0,0,0,0,0,0,0,-1,888,1807,0,0
-329,-783,0,0,0,0,0,0,0,0,0,-1,895,1807,0,0
-322,-783,0,0,0,0,0,0,0,0,0,-1,902,1807,0,0
-315,-783,0,0,0,0,0,0,0,0,0,-1,909,1807,0,0
-308,-783,0,0,0,0,0,0,0,0,0,-1,916,1807,0,0
-301,-783,0,0,0,0,0,0,0,0,0,-1,923,1807,0,0
-294,-783,0,0,0,0,0,0,0,0,0,-1,930,1807,0,0
-287,-783,0,0,0,0,0,0,0,0,0,-1,937,1807,0,0
-280,-783,0,0,0,0,0,0,0,0,0,-1,944,1807,0,0
-273,-783,0,0,0,0,0,0,0,0,0,-1,951,1807,0,0
-266,-783,0,0,0,0,0,0,0,0,0,-1,958,1807,0,0
-259,-783,0,0,0,0,0,0,0,0,0,-1,965,1807,0,0
-252,-783,0,0,0,0,0,0,0,0,0,-1,972,1807,0,0
-245,-783,0,0,0,0,0,0,0,0,0,-1,979,1807,0,0
-238,-783,0,0,0,0,0,0,0,0,0,-1,986,1807,0,0
-231,-783,0,0,0,0,0,0,0,0,0,-1,993,1807,0,0
-224,-783,0,0,0,0,0,0,0,0,0,-1,1000,1807,0,0
-217,-783,0,0,0,0,0,0,0,0,0,-1,1007,1807,0,0
-210,-783,0,0,0,0,0,0,0,0,0,-1,1014,1807,0,0
-203,-783,0,0,0,0,0,0,0,0,0,-1,1021,1807,0,0
-196,-783,0,0,0,0,0,0,0,0,0,-1,1028,1807,0,0
-189,-783,0,0,0,0,0,0,0,0,0,-1,1035,1807,0,0
-182,-783,0,0,0,0,0,0,0,0,0,-1,1042,1807,0,0
-175,-783,0,0,0,0,0,0,0,0,0,-1,1049,1807,0,0
-168,-783,0,0,0,0,0,0,0,0,0,-1,1056,1807,0,0
-161,-783,0,0,0,0,0,0,0,0,0,-1,1063,1807,0,0
-154,-783,0,0,0,0,0,0,0,0,0,-1,1070,1807,0,0
-147,-783,0,0,0,0,0,0,0,0,0,-1,1077,1807,0,0
-140,-783,0,0,0,0,0,0,0,0,0,-1,1084,1807,0,0
-133,-783,0,0,0,0,0,0,0,0,0,-1,1091,1807,0,0
-126,-783,0,0,0,0,0,0,0,0,0,-1,1098,1807,0,0
-119,-783,0,0,0,0,0,0,0,0,0,-1,1105,1807,0,0
-112,-783,5.33936,14.7699,0,0,0,0,0,0,0,-1,1112,1807,5.33931,-14.7699
-105,-783,6.44263,21.2224,0,0,0,0,0,0,0,-1,1119,1807,6.44263,-21.2224
-98,-783,5.54773,20.5695,0,0,0,0,0,0,0,-1,1126,1807,5.54772,-20.5695
-91,-783,2.6106,20.2491,0,0,0,0,0,0,0,-1,1133,1807,2.61056,-20.2492
-84,-783,-0.0491943,14.5743,0,0,0,0,0,0,0,-1,1140,1807,-0.0491562,-14.5743
-77,-783,0.332764,12.7788,0,0,0,0,0,0,0,-1,1147,1807,0.332743,-12.7788
-70,-783,-1.93176,5.12817,0,0,0,0,0,0,0,-1,1154,1807,-1.93171,-5.12813
-63,-783,-5.31702,10.54,0,0,0,0,0,0,0,-1,1161,1807,-5.31703,-10.54
-56,-783,-6.26135,6.9679,0,0,0,0,0,0,0,-1,1168,1807,-6.26136,-6.96785
-49,-783,-3.17688,4.59705,0,0,0,0,0,0,0,-1,1175,1807,-3.17685,-4.5971
-42,-783,-3.72876,3.1405,0,0,0,0,0,0,0,-1,1182,1807,-3.72874,-3.14055
-35,-783,-3.97046,1.59399,0,0,0,0,0,0,0,-1,1189,1807,-3.97041,-1.59401
-28,-783,-4.12195,0.270386,0,0,0,0,0,0,0,-1,1196,1807,-4.12197,-0.270408
-21,-783,11.1117,63.1235,0,0,0,0,0,0,0,-1,1203,1807,11.1116,-63.1235
-14,-783,11.3724,63.1394,0,0,0,0,0,0,0,-1,1210,1807,11.3724,-63.1394
-7,-783,11.3204,64.116,0,0,0,0,0,0,0,-1,1217,1807,11.3204,-64.1159
0,-783,11.2961,61.1997,0,0,0,0,0,0,0,-1,1224,1807,11.2961,-61.1997
7,-783,11.178,61.6578,-0.0710295,0.0279897,-0.000203354,0.0279901,-0.0710299,-1.56874,0.0589419,0.0437755,1231,1807,11.178,-61.6579
14,-783,10.9031,62.3707,-0.0773435,0.021313,0.00284773,0.0213951,-0.0774256,1.54196,0.0600334,0.0439954,1238,1807,10.9031,-62.3707
21,-783,9.83606,62.8524,-0.0792947,0.0189123,0.00389984,0.0190669,-0.0794493,1.53117,0.0603346,0.0458174,1245,1807,9.83607,-62.8524
28,-783,8.79773,62.627,-0.0717152,0.0162006,0.00702578,0.0167585,-0.0722731,1.49155,0.0546319,0.0469898,1252,1807,8.79777,-62.6269
35,-783,8.22266,63.4633,-0.0605822,0.0181679,0.0126301,0.0201439,-0.0625583,1.4156,0.0497973,0.04634,1259,1807,8.22269,-63.4632
42,-783,7.32629,63.6573,-0.0486274,0.0230391,0.0165872,0.026692,-0.0522803,1.35403,0.0463856,0.0459062,1266,1807,7.32626,-63.6574
49,-783,6.48413,63.8092,-0.0357813,0.0294157,0.0198219,0.0349692,-0.0413347,1.29763,0.0441051,0.0481112,1273,1807,6.48408,-63.8091
56,-783,5.63635,63.9595,0,0,0,0,0,0,0,-1,1280,1807,5.63632,-63.9595
63,-783,4.06738,65.6348,0,0,0,0,0,0,0,-1,1287,1807,4.06733,-65.6348
70,-783,3.10046,66.3359,0,0,0,0,0,0,0,-1,1294,1807,3.10048,-66.336
77,-783,10.5179,62.3561,0,0,0,0,0,0,0,-1,1301,1807,10.518,-62.3561
84,-783,9.80798,62.5165,0.0140759,0.0548234,0.034028,0.0741107,-0.00521133,1.05514,0.0512327,0.0486568,1308,1807,9.80799,-62.5165
91,-783,9.09363,62.6534,0.0166614,0.0572127,0.0350134,0.0773974,-0.0035233,1.04785,0.0528119,0.0436003,1315,1807,9.09365,-62.6535
98,-783,8.79431,62.548,0.0167107,0.0578449,0.0354906,0.0782972,-0.00374162,1.04801,0.053489,0.0433571,1322,1807,8.7943,-62.548
105,-783,8.0647,61.925,0,0,0,0,0,0,0,-1,1329,1807,8.06466,-61.925
112,-783,8.18201,62.2029,0.00571013,0.0503783,0.032649,0.0676014,-0.0115129,1.08537,0.0493548,0.0470504,1336,1807,8.18203,-62.2029
119,-783,8.28235,62.4602,0.000886457,0.0449532,0.0306492,0.0606669,-0.0148273,1.09704,0.0461873,0.0413486,1343,1807,8.2824,-62.4603
126,-783,8.35681,62.7233,0,0,0,0,0,0,0,-1,1350,1807,8.35679,-62.7233
133,-783,5.38831,60.913,0,0,0,0,0,0,0,-1,1357,1807,5.38834,-60.913
140,-783,6.47168,61.5424,0,0,0,0,0,0,0,-1,1364,1807,6.47169,-61.5423
147,-783,9.6698,63.2255,0,0,0,0,0,0,0,-1,1371,1807,9.66982,-63.2254
154,-783,38.2109,17.545,0,0,0,0,0,0,0,-1,1378,1807,38.2109,-17.545
161,-783,39.5087,17.5449,0,0,0,0,0,0,0,-1,1385,1807,39.5087,-17.545
168,-783,8.62561,1.79944,0,0,0,0,0,0,0,-1,1392,1807,8.62561,-1.79946
175,-783,8.78699,3.40857,0,0,0,0,0,0,0,-1,1399,1807,8.78697,-3.40854
182,-783,8.70984,5.14661,0,0,0,0,0,0,0,-1,1406,1807,8.70989,-5.14666
189,-783,8.55762,6.79871,0,0,0,0,0,0,0,-1,1413,1807,8.55766,-6.79872
196,-783,8.25488,8.66626,0,0,0,0,0,0,0,-1,1420,1807,8.25492,-8.66628
203,-783,7.86755,10.5735,0,0,0,0,0,0,0,-1,1427,1807,7.8676,-10.5734
210,-783,5.6969,8.99231,0,0,0,0,0,0,0,-1,1434,1807,5.69693,-8.99234
217,-783,5.28503,3.80872,0,0,0,0,0,0,0,-1,1441,1807,5.285,-3.80868
224,-783,3.22571,6.62903,0,0,0,0,0,0,0,-1,1448,1807,3.2257,-6.62907
231,-783,4.27942,4.56262,0,0,0,0,0,0,0,-1,1455,1807,4.27948,-4.56267
238,-783,0,0,0,0,0,0,0,0,0,-1,1462,1807,0,0
245,-783,0,0,0,0,0,0,0,0,0,-1,1469,1807,0,0
252,-783,0,0,0,0,0,0,0,0,0,-1,1476,1807,0,0
259,-783,0,0,0,0,0,0,0,0,0,-1,1483,1807,0,0
266,-783,0,0,0,0,0,0,0,0,0,-1,1490,1807,0,0
273,-783,0,0,0,0,0,0,0,0,0,-1,1497,1807,0,0
280,-783,0,0,0,0,0,0,0,0,0,-1,1504,1807,0,0
287,-783,0,0,0,0,0,0,0,0,0,-1,1511,1807,0,0
294,-783,0,0,0,0,0,0,0,0,0,-1,1518,1807,0,0
301,-783,0,0,0,0,0,0,0,0,0,-1,1525,1807,0,0
308,-783,0,0,0,0,0,0,0,0,0,-1,1532,1807,0,0
315,-783,0,0,0,0,0,0,0,0,0,-1,1539,1807,0,0
322,-783,0,0,0,0,0,0,0,0,0,-1,1546,1807,0,0
329,-783,0,0,0,0,0,0,0,0,0,-1,1553,1807,0,0
336,-783,0,0,0,0,0,0,0,0,0,-1,1560,1807,0,0
343,-783,0,0,0,0,0,0,0,0,0,-1,1567,1807,0,0
350,-783,0,0,0,0,0,0,0,0,0,-1,1574,1807,0,0
357,-783,0,0,0,0,0,0,0,0,0,-1,1581,1807,0,0
364,-783,0,0,0,0,0,0,0,0,0,-1,1588,1807,0,0
371,-783,0,0,0,0,0,0,0,0,0,-1,1595,1807,0,0
378,-783,0,0,0,0,0,0,0,0,0,-1,1602,1807,0,0
385,-783,0,0,0,0,0,0,0,0,0,-1,1609,1807,0,0
392,-783,0,0,0,0,0,0,0,0,0,-1,1616,1807,0,0
399,-783,0,0,0,0,0,0,0,0,0,-1,1623,1807,0,0
406,-783,0,0,0,0,0,0,0,0,0,-1,1630,1807,0,0
413,-783,0,0,0,0,0,0,0,0,0,-1,1637,1807,0,0
420,-783,0,0,0,0,0,0,0,0,0,-1,1644,1807,0,0
427,-783,0,0,0,0,0,0,0,0,0,-1,1651,1807,0,0
434,-783,0,0,0,0,0,0,0,0,0,-1,1658,1807,0,0
441,-783,0,0,0,0,0,0,0,0,0,-1,1665,1807,0,0
448,-783,0,0,0,0,0,0,0,0,0,-1,1672,1807,0,0
455,-783,0,0,0,0,0,0,0,0,0,-1,1679,1807,0,0
462,-783,0,0,0,0,0,0,0,0,0,-1,1686,1807,0,0
469,-783,0,0,0,0,0,0,0,0,0,-1,1693,1807,0,0
476,-783,0,0,0,0,0,0,0,0,0,-1,1700,1807,0,0
483,-783,0,0,0,0,0,0,0,0,0,-1,1707,1807,0,0
490,-783,0,0,0,0,0,0,0,0,0,-1,1714,1807,0,0
497,-783,0,0,0,0,0,0,0,0,0,-1,1721,1807,0,0
504,-783,0,0,0,0,0,0,0,0,0,-1,1728,1807,0,0
511,-783,0,0,0,0,0,0,0,0,0,-1,1735,1807,0,0
518,-783,0,0,0,0,0,0,0,0,0,-1,1742,1807,0,0
525,-783,0,0,0,0,0,0,0,0,0,-1,1749,1807,0,0
532,-783,0,0,0,0,0,0,0,0,0,-1,1756,1807,0,0
539,-783,0,0,0,0,0,0,0,0,0,-1,1763,1807,0,0
546,-783,0,0,0,0,0,0,0,0,0,-1,1770,1807,0,0
553,-783,0,0,0,0,0,0,0,0,0,-1,1777,1807,0,0
560,-783,0,0,0,0,0,0,0,0,0,-1,1784,1807,0,0
567,-783,0,0,0,0,0,0,0,0,0,-1,1791,1807,0,0
574,-783,0,0,0,0,0,0,0,0,0,-1,1798,1807,0,0
581,-783,0,0,0,0,0,0,0,0,0,-1,1805,1807,0,0
588,-783,0,0,0,0,0,0,0,0,0,-1,1812,1807,0,0
595,-783,0,0,0,0,0,0,0,0,0,-1,1819,1807,0,0
602,-783,0,0,0,0,0,0,0,0,0,-1,1826,1807,0,0
609,-783,0,0,0,0,0,0,0,0,0,-1,1833,1807,0,0
616,-783,0,0,0,0,0,0,0,0,0,-1,1840,1807,0,0
623,-783,0,0,0,0,0,0,0,0,0,-1,1847,1807,0,0
630,-783,0,0,0,0,0,0,0,0,0,-1,1854,1807,0,0
637,-783,0,0,0,0,0,0,0,0,0,-1,1861,1807,0,0
644,-783,0,0,0,0,0,0,0,0,0,-1,1868,1807,0,0
651,-783,0,0,0,0,0,0,0,0,0,-1,1875,1807,0,0
658,-783,0,0,0,0,0,0,0,0,0,-1,1882,1807,0,0
665,-783,0,0,0,0,0,0,0,0,0,-1,1889,1807,0,0
672,-783,0,0,0,0,0,0,0,0,0,-1,1896,1807,0,0
679,-783,0,0,0,0,0,0,0,0,0,-1,1903,1807,0,0
686,-783,0,0,0,0,0,0,0,0,0,-1,1910,1807,0,0
693,-783,0,0,0,0,0,0,0,0,0,-1,1917,1807,0,0
700,-783,0,0,0,0,0,0,0,0,0,-1,1924,1807,0,0
707,-783,0,0,0,0,0,0,0,0,0,-1,1931,1807,0,0
714,-783,0,0,0,0,0,0,0,0,0,-1,1938,1807,0,0
721,-783,0,0,0,0,0,0,0,0,0,-1,1945,1807,0,0
728,-783,0,0,0,0,0,0,0,0,0,-1,1952,1807,0,0
735,-783,0,0,0,0,0,0,0,0,0,-1,1959,1807,0,0
742,-783,0,0,0,0,0,0,0,0,0,-1,1966,1807,0,0
749,-783,0,0,0,0,0,0,0,0,0,-1,1973,1807,0,0
756,-783,0,0,0,0,0,0,0,0,0,-1,1980,1807,0,0
763,-783,0,0,0,0,0,0,0,0,0,-1,1987,1807,0,0
770,-783,0,0,0,0,0,0,0,0,0,-1,1994,1807,0,0
777,-783,0,0,0,0,0,0,0,0,0,-1,2001,1807,0,0
784,-783,0,0,0,0,0,0,0,0,0,-1,2008,1807,0,0
791,-783,0,0,0,0,0,0,0,0,0,-1,2015,1807,0,0
798,-783,0,0,0,0,0,0,0,0,0,-1,2022,1807,0,0
805,-783,0,0,0,0,0,0,0,0,0,-1,2029,1807,0,0
812,-783,0,0,0,0,0,0,0,0,0,-1,2036,1807,0,0
-700,-790,0,0,0,0,0,0,0,0,0,-1,524,1814,0,0
-693,-790,0,0,0,0,0,0,0,0,0,-1,531,1814,0,0
-686,-790,0,0,0,0,0,0,0,0,0,-1,538,1814,0,0
-679,-790,0,0,0,0,0,0,0,0,0,-1,545,1814,0,0
-672,-790,0,0,0,0,0,0,0,0,0,-1,552,1814,0,0
-665,-790,0,0,0,0,0,0,0,0,0,-1,559,1814,0,0
-658,-790,0,0,0,0,0,0,0,0,0,-1,566,1814,0,0
-651,-790,0,0,0,0,0,0,0,0,0,-1,573,1814,0,0
-644,-790,0,0,0,0,0,0,0,0,0,-1,580,1814,0,0
-637,-790,0,0,0,0,0,0,0,0,0,-1,587,1814,0,0
-630,-790,0,0,0,0,0,0,0,0,0,-1,594,1814,0,0
-623,-790,0,0,0,0,0,0,0,0,0,-1,601,1814,0,0
-616,-790,0,0,0,0,0,0,0,0,0,-1,608,1814,0,0
-609,-790,0,0,0,0,0,0,0,0,0,-1,615,1814,0,0
-602,-790,0,0,0,0,0,0,0,0,0,-1,622,1814,0,0
-595,-790,0,0,0,0,0,0,0,0,0,-1,629,1814,0,0
-588,-790,0,0,0,0,0,0,0,0,0,-1,636,1814,0,0
-581,-790,0,0,0,0,0,0,0,0,0,-1,643,1814,0,0
-574,-790,0,0,0,0,0,0,0,0,0,-1,650,1814,0,0
-567,-790,0,0,0,0,0,0,0,0,0,-1,657,1814,0,0
-560,-790,0,0,0,0,0,0,0,0,0,-1,664,1814,0,0
-553,-790,0,0,0,0,0,0,0,0,0,-1,671,1814,0,0
-546,-790,0,0,0,0,0,0,0,0,0,-1,678,1814,0,0
-539,-790,0,0,0,0,0,0,0,0,0,-1,685,1814,0,0
-532,-790,0,0,0,0,0,0,0,0,0,-1,692,1814,0,0
-525,-790,0,0,0,0,0,0,0,0,0,-1,699,1814,0,0
-518,-790,0,0,0,0,0,0,0,0,0,-1,706,1814,0,0
-511,-790,0,0,0,0,0,0,0,0,0,-1,713,1814,0,0
-504,-790,0,0,0,0,0,0,0,0,0,-1,720,1814,0,0
-497,-790,0,0,0,0,0,0,0,0,0,-1,727,1814,0,0
-490,-790,0,0,0,0,0,0,0,0,0,-1,734,1814,0,0
-483,-790,0,0,0,0,0,0,0,0,0,-1,741,1814,0,0
-476,-790,0,0,0,0,0,0,0,0,0,-1,748,1814,0,0
-469,-790,0,0,0,0,0,0,0,0,0,-1,755,1814,0,0
-462,-790,0,0,0,0,0,0,0,0,0,-1,762,1814,0,0
-455,-790,0,0,0,0,0,0,0,0,0,-1,769,1814,0,0
-448,-790,0,0,0,0,0,0,0,0,0,-1,776,1814,0,0
-441,-790,0,0,0,0,0,0,0,0,0,-1,783,1814,0,0
-434,-790,0,0,0,0,0,0,0,0,0,-1,790,1814,0,0
-427,-790,0,0,0,0,0,0,0,0,0,-1,797,1814,0,0
-420,-790,0,0,0,0,0,0,0,0,0,-1,804,1814,0,0
-413,-790,0,0,0,0,0,0,0,0,0,-1,811,1814,0,0
-406,-790,0,0,0,0,0,0,0,0,0,-1,818,1814,0,0
-399,-790,0,0,0,0,0,0,0,0,0,-1,825,1814,0,0
-392,-790,0,0,0,0,0,0,0,0,0,-1,832,1814,0,0
-385,-790,0,0,0,0,0,0,0,0,0,-1,839,1814,0,0
-378,-790,0,0,0,0,0,0,0,0,0,-1,846,1814,0,0
-371,-790,0,0,0,0,0,0,0,0,0,-1,853,1814,0,0
-364,-790,0,0,0,0,0,0,0,0,0,-1,860,1814,0,0
-357,-790,0,0,0,0,0,0,0,0,0,-1,867,1814,0,0
-350,-790,0,0,0,0,0,0,0,0,0,-1,874,1814,0,0
-343,-790,0,0,0,0,0,0,0,0,0,-1,881,1814,0,0
-336,-790,0,0,0,0,0,0,0,0,0,-1,888,1814,0,0
-329,-790,0,0,0,0,0,0,0,0,0,-1,895,1814,0,0
-322,-790,0,0,0,0,0,0,0,0,0,-1,902,1814,0,0
-315,-790,0,0,0,0,0,0,0,0,0,-1,909,1814,0,0
-308,-790,0,0,0,0,0,0,0,0,0,-1,916,1814,0,0
-301,-790,0,0,0,0,0,0,0,0,0,-1,923,1814,0,0
-294,-790,0,0,0,0,0,0,0,0,0,-1,930,1814,0,0
-287,-790,0,0,0,0,0,0,0,0,0,-1,937,1814,0,0
-280,-790,0,0,0,0,0,0,0,0,0,-1,944,1814,0,0
-273,-790,0,0,0,0,0,0,0,0,0,-1,951,1814,0,0
-266,-790,0,0,0,0,0,0,0,0,0,-1,958,1814,0,0
-259,-790,0,0,0,0,0,0,0,0,0,-1,965,1814,0,0
-252,-790,0,0,0,0,0,0,0,0,0,-1,972,1814,0,0
-245,-790,0,0,0,0,0,0,0,0,0,-1,979,1814,0,0
-238,-790,0,0,0,0,0,0,0,0,0,-1,986,1814,0,0
-231,-790,0,0,0,0,0,0,0,0,0,-1,993,1814,0,0
-224,-790,0,0,0,0,0,0,0,0,0,-1,1000,1814,0,0
-217,-790,0,0,0,0,0,0,0,0,0,-1,1007,1814,0,0
-210,-790,0,0,0,0,0,0,0,0,0,-1,1014,1814,0,0
-203,-790,0,0,0,0,0,0,0,0,0,-1,1021,1814,0,0
-196,-790,0,0,0,0,0,0,0,0,0,-1,1028,1814,0,0
-189,-790,0,0,0,0,0,0,0,0,0,-1,1035,1814,0,0
-182,-790,0,0,0,0,0,0,0,0,0,-1,1042,1814,0,0
-175,-790,0,0,0,0,0,0,0,0,0,-1,1049,1814,0,0
-168,-790,0,0,0,0,0,0,0,0,0,-1,1056,1814,0,0
-161,-790,0,0,0,0,0,0,0,0,0,-1,1063,1814,0,0
-154,-790,0,0,0,0,0,0,0,0,0,-1,1070,1814,0,0
-147,-790,0,0,0,0,0,0,0,0,0,-1,1077,1814,0,0
-140,-790,0,0,0,0,0,0,0,0,0,-1,1084,1814,0,0
-133,-790,0,0,0,0,0,0,0,0,0,-1,1091,1814,0,0
-126,-790,0,0,0,0,0,0,0,0,0,-1,1098,1814,0,0
-119,-790,0,0,0,0,0,0,0,0,0,-1,1105,1814,0,0
-112,-790,0,0,0,0,0,0,0,0,0,-1,1112,1814,0,0
-105,-790,0,0,0,0,0,0,0,0,0,-1,1119,1814,0,0
-98,-790,0,0,0,0,0,0,0,0,0,-1,1126,1814,0,0
-91,-790,0,0,0,0,0,0,0,0,0,-1,1133,1814,0,0
-84,-790,0,0,0,0,0,0,0,0,0,-1,1140,1814,0,0
-77,-790,-0.969238,5.30847,0,0,0,0,0,0,0,-1,1147,1814,-0.969277,-5.3085
-70,-790,-1.23169,4.98914,0,0,0,0,0,0,0,-1,1154,1814,-1.23163,-4.98916
-63,-790,-1.69128,4.32263,0,0,0,0,0,0,0,-1,1161,1814,-1.69128,-4.32258
-56,-790,-2.24756,3.75305,0,0,0,0,0,0,0,-1,1168,1814,-2.24758,-3.75302
-49,-790,-3.11011,3.35779,0,0,0,0,0,0,0,-1,1175,1814,-3.11006,-3.35781
-42,-790,0.593262,1.19165,0,0,0,0,0,0,0,-1,1182,1814,0.593225,-1.19165
-35,-790,0.307129,-0.20105,0,0,0,0,0,0,0,-1,1189,1814,0.307178,0.201006
-28,-790,-2.78467,0.785156,0,0,0,0,0,0,0,-1,1196,1814,-2.78471,-0.785183
-21,-790,14.25,59.7468,0,0,0,0,0,0,0,-1,1203,1814,14.2499,-59.7468
-14,-790,12.1323,65.2534,0,0,0,0,0,0,0,-1,1210,1814,12.1323,-65.2534
-7,-790,11.9722,64.4476,0,0,0,0,0,0,0,-1,1217,1814,11.9722,-64.4476
0,-790,11.5273,63.767,0,0,0,0,0,0,0,-1,1224,1814,11.5274,-63.767
7,-790,12.0189,61.5364,0,0,0,0,0,0,0,-1,1231,1814,12.0189,-61.5364
14,-790,11.5729,62.291,0,0,0,0,0,0,0,-1,1238,1814,11.5729,-62.291
21,-790,10.031,62.8319,-0.0961181,0.0197037,0.00516569,0.0199337,-0.096348,1.52631,0.0718049,0.046242,1245,1814,10.0311,-62.8319
28,-790,9.22009,63.3966,-0.0876687,0.0167548,0.00840494,0.017427,-0.0883409,1.49099,0.0654806,0.0457114,1252,1814,9.22006,-63.3966
35,-790,8.22656,63.7476,-0.0734743,0.0187567,0.015708,0.0213585,-0.0760762,1.40665,0.0591369,0.0449324,1259,1814,8.2265,-63.7475
42,-790,7.30322,63.9897,-0.0580892,0.024471,0.0206365,0.0293419,-0.0629601,1.33901,0.0544561,0.0446838,1266,1814,7.30317,-63.9898
49,-790,6.38818,64.3071,0,0,0,0,0,0,0,-1,1273,1814,6.38821,-64.3071
56,-790,4.88318,65.2616,0,0,0,0,0,0,0,-1,1280,1814,4.8832,-65.2616
63,-790,4.20715,66.276,-0.0119454,0.0454066,0.0342873,0.0614288,-0.0279676,1.13365,0.0528045,0.0484191,1287,1814,4.20711,-66.276
70,-790,3.56152,67.2899,0.00160899,0.0517392,0.0383763,0.0725108,-0.0191626,1.07469,0.0558351,0.0442627,1294,1814,3.56151,-67.29
77,-790,7.47974,60.6776,0.0138837,0.0581919,0.0419939,0.0835172,-0.0114416,1.02812,0.0598576,0.0442225,1301,1814,7.47973,-60.6776
84,-790,7.69128,60.9991,0.0227697,0.0639228,0.0448939,0.092731,-0.00603853,1.00028,0.0639287,0.0440041,1308,1814,7.69135,-60.9991
91,-790,7.83191,61.457,0.0259951,0.0668925,0.0464487,0.0971945,-0.00430687,0.992753,0.0662786,0.0411488,1315,1814,7.83192,-61.457
98,-790,8.10339,61.8848,0.0259846,0.0677634,0.0471635,0.0984566,-0.00470858,0.993871,0.0672622,0.0418301,1322,1814,8.10343,-61.8848
105,-790,8.1908,62.1205,0.0203492,0.0646732,0.046018,0.0935878,-0.00856532,1.00981,0.0654341,0.0464539,1329,1814,8.19074,-62.1204
112,-790,8.05298,62.0831,0.0112401,0.0587803,0.0430321,0.0841709,-0.0141505,1.03773,0.0613769,0.0495668,1336,1814,8.05301,-62.0831
119,-790,8.14783,62.2534,0.00417205,0.0527546,0.0400619,0.0753144,-0.0183877,1.05793,0.0573303,0.0446618,1343,1814,8.14778,-62.2534
126,-790,8.20862,62.4412,0,0,0,0,0,0,0,-1,1350,1814,8.20858,-62.4412
133,-790,5.35693,60.7429,0,0,0,0,0,0,0,-1,1357,1814,5.35692,-60.7429
140,-790,5.24768,61.0145,0,0,0,0,0,0,0,-1,1364,1814,5.24774,-61.0146
147,-790,5.00623,60.8976,0,0,0,0,0,0,0,-1,1371,1814,5.00624,-60.8976
154,-790,40.215,13.2396,0,0,0,0,0,0,0,-1,1378,1814,40.2149,-13.2396
161,-790,39.3429,13.0336,0,0,0,0,0,0,0,-1,1385,1814,39.3429,-13.0336
168,-790,7.04077,2.23279,0,0,0,0,0,0,0,-1,1392,1814,7.04082,-2.23275
175,-790,9.03918,3.98535,0,0,0,0,0,0,0,-1,1399,1814,9.0392,-3.98535
182,-790,8.96997,5.67896,0,0,0,0,0,0,0,-1,1406,1814,8.97001,-5.6789
189,-790,8.59729,6.86975,0,0,0,0,0,0,0,-1,1413,1814,8.59728,-6.86972
196,-790,8.21924,9.29053,0,0,0,0,0,0,0,-1,1420,1814,8.21924,-9.29048
203,-790,0,0,0,0,0,0,0,0,0,-1,1427,1814,0,0
210,-790,0,0,0,0,0,0,0,0,0,-1,1434,1814,0,0
217,-790,0,0,0,0,0,0,0,0,0,-1,1441,1814,0,0
224,-790,0,0,0,0,0,0,0,0,0,-1,1448,1814,0,0
231,-790,0,0,0,0,0,0,0,0,0,-1,1455,1814,0,0
238,-790,0,0,0,0,0,0,0,0,0,-1,1462,1814,0,0
245,-790,0,0,0,0,0,0,0,0,0,-1,1469,1814,0,0
252,-790,0,0,0,0,0,0,0,0,0,-1,1476,1814,0,0
259,-790,0,0,0,0,0,0,0,0,0,-1,1483,1814,0,0
266,-790,0,0,0,0,0,0,0,0,0,-1,1490,1814,0,0
273,-790,0,0,0,0,0,0,0,0,0,-1,1497,1814,0,0
280,-790,0,0,0,0,0,0,0,0,0,-1,1504,1814,0,0
287,-790,0,0,0,0,0,0,0,0,0,-1,1511,1814,0,0
294,-790,0,0,0,0,0,0,0,0,0,-1,1518,1814,0,0
301,-790,0,0,0,0,0,0,0,0,0,-1,1525,1814,0,0
308,-790,0,0,0,0,0,0,0,0,0,-1,1532,1814,0,0
315,-790,0,0,0,0,0,0,0,0,0,-1,1539,1814,0,0
322,-790,0,0,0,0,0,0,0,0,0,-1,1546,1814,0,0
329,-790,0,0,0,0,0,0,0,0,0,-1,1553,1814,0,0
336,-790,0,0,0,0,0,0,0,0,0,-1,1560,1814,0,0
343,-790,0,0,0,0,0,0,0,0,0,-1,1567,1814,0,0
350,-790,0,0,0,0,0,0,0,0,0,-1,1574,1814,0,0
357,-790,0,0,0,0,0,0,0,0,0,-1,1581,1814,0,0
364,-790,0,0,0,0,0,0,0,0,0,-1,1588,1814,0,0
371,-790,0,0,0,0,0,0,0,0,0,-1,1595,1814,0,0
378,-790,0,0,0,0,0,0,0,0,0,-1,1602,1814,0,0
385,-790,0,0,0,0,0,0,0,0,0,-1,1609,1814,0,0
392,-790,0,0,0,0,0,0,0,0,0,-1,1616,1814,0,0
399,-790,0,0,0,0,0,0,0,0,0,-1,1623,1814,0,0
406,-790,0,0,0,0,0,0,0,0,0,-1,1630,1814,0,0
413,-790,0,0,0,0,0,0,0,0,0,-1,1637,1814,0,0
420,-790,0,0,0,0,0,0,0,0,0,-1,1644,1814,0,0
427,-790,0,0,0,0,0,0,0,0,0,-1,1651,1814,0,0
434,-790,0,0,0,0,0,0,0,0,0,-1,1658,1814,0,0
441,-790,0,0,0,0,0,0,0,0,0,-1,1665,1814,0,0
448,-790,0,0,0,0,0,0,0,0,0,-1,1672,1814,0,0
455,-790,0,0,0,0,0,0,0,0,0,-1,1679,1814,0,0
462,-790,0,0,0,0,0,0,0,0,0,-1,1686,1814,0,0
469,-790,0,0,0,0,0,0,0,0,0,-1,1693,1814,0,0
476,-790,0,0,0,0,0,0,0,0,0,-1,1700,1814,0,0
483,-790,0,0,0,0,0,0,0,0,0,-1,1707,1814,0,0
490,-790,0,0,0,0,0,0,0,0,0,-1,1714,1814,0,0
497,-790,0,0,0,0,0,0,0,0,0,-1,1721,1814,0,0
504,-790,0,0,0,0,0,0,0,0,0,-1,1728,1814,0,0
511,-790,0,0,0,0,0,0,0,0,0,-1,1735,1814,0,0
518,-790,0,0,0,0,0,0,0,0,0,-1,1742,1814,0,0
525,-790,0,0,0,0,0,0,0,0,0,-1,1749,1814,0,0
532,-790,0,0,0,0,0,0,0,0,0,-1,1756,1814,0,0
539,-790,0,0,0,0,0,0,0,0,0,-1,1763,1814,0,0
546,-790,0,0,0,0,0,0,0,0,0,-1,1770,1814,0,0
553,-790,0,0,0,0,0,0,0,0,0,-1,1777,1814,0,0
560,-790,0,0,0,0,0,0,0,0,0,-1,1784,1814,0,0
567,-790,0,0,0,0,0,0,0,0,0,-1,1791,1814,0,0
574,-790,0,0,0,0,0,0,0,0,0,-1,1798,1814,0,0
581,-790,0,0,0,0,0,0,0,0,0,-1,1805,1814,0,0
588,-790,0,0,0,0,0,0,0,0,0,-1,1812,1814,0,0
595,-790,0,0,0,0,0,0,0,0,0,-1,1819,1814,0,0
602,-790,0,0,0,0,0,0,0,0,0,-1,1826,1814,0,0
609,-790,0,0,0,0,0,0,0,0,0,-1,1833,1814,0,0
616,-790,0,0,0,0,0,0,0,0,0,-1,1840,1814,0,0
623,-790,0,0,0,0,0,0,0,0,0,-1,1847,1814,0,0
630,-790,0,0,0,0,0,0,0,0,0,-1,1854,1814,0,0
637,-790,0,0,0,0,0,0,0,0,0,-1,1861,1814,0,0
644,-790,0,0,0,0,0,0,0,0,0,-1,1868,1814,0,0
651,-790,0,0,0,0,0,0,0,0,0,-1,1875,1814,0,0
658,-790,0,0,0,0,0,0,0,0,0,-1,1882,1814,0,0
665,-790,0,0,0,0,0,0,0,0,0,-1,1889,1814,0,0
672,-790,0,0,0,0,0,0,0,0,0,-1,1896,1814,0,0
679,-790,0,0,0,0,0,0,0,0,0,-1,1903,1814,0,0
686,-790,0,0,0,0,0,0,0,0,0,-1,1910,1814,0,0
693,-790,0,0,0,0,0,0,0,0,0,-1,1917,1814,0,0
700,-790,0,0,0,0,0,0,0,0,0,-1,1924,1814,0,0
707,-790,0,0,0,0,0,0,0,0,0,-1,1931,1814,0,0
714,-790,0,0,0,0,0,0,0,0,0,-1,1938,1814,0,0
721,-790,0,0,0,0,0,0,0,0,0,-1,1945,1814,0,0
728,-790,0,0,0,0,0,0,0,0,0,-1,1952,1814,0,0
735,-790,0,0,0,0,0,0,0,0,0,-1,1959,1814,0,0
742,-790,0,0,0,0,0,0,0,0,0,-1,1966,1814,0,0
749,-790,0,0,0,0,0,0,0,0,0,-1,1973,1814,0,0
756,-790,0,0,0,0,0,0,0,0,0,-1,1980,1814,0,0
763,-790,0,0,0,0,0,0,0,0,0,-1,1987,1814,0,0
770,-790,0,0,0,0,0,0,0,0,0,-1,1994,1814,0,0
777,-790,0,0,0,0,0,0,0,0,0,-1,2001,1814,0,0
784,-790,0,0,0,0,0,0,0,0,0,-1,2008,1814,0,0
791,-790,0,0,0,0,0,0,0,0,0,-1,2015,1814,0,0
798,-790,0,0,0,0,0,0,0,0,0,-1,2022,1814,0,0
805,-790,0,0,0,0,0,0,0,0,0,-1,2029,1814,0,0
812,-790,0,0,0,0,0,0,0,0,0,-1,2036,1814,0,0
-700,-797,0,0,0,0,0,0,0,0,0,-1,524,1821,0,0
-693,-797,0,0,0,0,0,0,0,0,0,-1,531,1821,0,0
-686,-797,0,0,0,0,0,0,0,0,0,-1,538,1821,0,0
-679,-797,0,0,0,0,0,0,0,0,0,-1,545,1821,0,0
-672,-797,0,0,0,0,0,0,0,0,0,-1,552,1821,0,0
-665,-797,0,0,0,0,0,0,0,0,0,-1,559,1821,0,0
-658,-797,0,0,0,0,0,0,0,0,0,-1,566,1821,0,0
-651,-797,0,0,0,0,0,0,0,0,0,-1,573,1821,0,0
-644,-797,0,0,0,0,0,0,0,0,0,-1,580,1821,0,0
-637,-797,0,0,0,0,0,0,0,0,0,-1,587,1821,0,0
-630,-797,0,0,0,0,0,0,0,0,0,-1,594,1821,0,0
-623,-797,0,0,0,0,0,0,0,0,0,-1,601,1821,0,0
-616,-797,0,0,0,0,0,0,0,0,0,-1,608,1821,0,0
-609,-797,0,0,0,0,0,0,0,0,0,-1,615,1821,0,0
-602,-797,0,0,0,0,0,0,0,0,0,-1,622,1821,0,0
-595,-797,0,0,0,0,0,0,0,0,0,-1,629,1821,0,0
-588,-797,0,0,0,0,0,0,0,0,0,-1,636,1821,0,0
-581,-797,0,0,0,0,0,0,0,0,0,-1,643,1821,0,0
-574,-797,0,0,0,0,0,0,0,0,0,-1,650,1821,0,0
-567,-797,0,0,0,0,0,0,0,0,0,-1,657,1821,0,0
-560,-797,0,0,0,0,0,0,0,0,0,-1,664,1821,0,0
-553,-797,0,0,0,0,0,0,0,0,0,-1,671,1821,0,0
-546,-797,0,0,0,0,0,0,0,0,0,-1,678,1821,0,0
-539,-797,0,0,0,0,0,0,0,0,0,-1,685,1821,0,0
-532,-797,0,0,0,0,0,0,0,0,0,-1,692,1821,0,0
-525,-797,0,0,0,0,0,0,0,0,0,-1,699,1821,0,0
-518,-797,0,0,0,0,0,0,0,0,0,-1,706,1821,0,0
-511,-797,0,0,0,0,0,0,0,0,0,-1,713,1821,0,0
-504,-797,0,0,0,0,0,0,0,0,0,-1,720,1821,0,0
-497,-797,0,0,0,0,0,0,0,0,0,-1,727,1821,0,0
-490,-797,0,0,0,0,0,0,0,0,0,-1,734,1821,0,0
-483,-797,0,0,0,0,0,0,0,0,0,-1,741,1821,0,0
-476,-797,0,0,0,0,0,0,0,0,0,-1,748,1821,0,0
-469,-797,0,0,0,0,0,0,0,0,0,-1,755,1821,0,0
-462,-797,0,0,0,0,0,0,0,0,0,-1,762,1821,0,0
-455,-797,0,0,0,0,0,0,0,0,0,-1,769,1821,0,0
-448,-797,0,0,0,0,0,0,0,0,0,-1,776,1821,0,0
-441,-797,0,0,0,0,0,0,0,0,0,-1,783,1821,0,0
-434,-797,0,0,0,0,0,0,0,0,0,-1,790,1821,0,0
-427,-797,0,0,0,0,0,0,0,0,0,-1,797,1821,0,0
-420,-797,0,0,0,0,0,0,0,0,0,-1,804,1821,0,0
-413,-797,0,0,0,0,0,0,0,0,0,-1,811,1821,0,0
-406,-797,0,0,0,0,0,0,0,0,0,-1,818,1821,0,0
-399,-797,0,0,0,0,0,0,0,0,0,-1,825,1821,0,0
-392,-797,0,0,0,0,0,0,0,0,0,-1,832,1821,0,0
-385,-797,0,0,0,0,0,0,0,0,0,-1,839,1821,0,0
-378,-797,0,0,0,0,0,0,0,0,0,-1,846,1821,0,0
-371,-797,0,0,0,0,0,0,0,0,0,-1,853,1821,0,0
-364,-797,0,0,0,0,0,0,0,0,0,-1,860,1821,0,0
-357,-797,0,0,0,0,0,0,0,0,0,-1,867,1821,0,0
-350,-797,0,0,0,0,0,0,0,0,0,-1,874,1821,0,0
-343,-797,0,0,0,0,0,0,0,0,0,-1,881,1821,0,0
-336,-797,0,0,0,0,0,0,0,0,0,-1,888,1821,0,0
-329,-797,0,0,0,0,0,0,0,0,0,-1,895,1821,0,0
-322,-797,0,0,0,0,0,0,0,0,0,-1,902,1821,0,0
-315,-797,0,0,0,0,0,0,0,0,0,-1,909,1821,0,0
-308,-797,0,0,0,0,0,0,0,0,0,-1,916,1821,0,0
-301,-797,0,0,0,0,0,0,0,0,0,-1,923,1821,0,0
-294,-797,0,0,0,0,0,0,0,0,0,-1,930,1821,0,0
-287,-797,0,0,0,0,0,0,0,0,0,-1,937,1821,0,0
-280,-797,0,0,0,0,0,0,0,0,0,-1,944,1821,0,0
-273,-797,0,0,0,0,0,0,0,0,0,-1,951,1821,0,0
-266,-797,0,0,0,0,0,0,0,0,0,-1,958,1821,0,0
-259,-797,0,0,0,0,0,0,0,0,0,-1,965,1821,0,0
-252,-797,0,0,0,0,0,0,0,0,0,-1,972,1821,0,0
-245,-797,0,0,0,0,0,0,0,0,0,-1,979,1821,0,0
-238,-797,0,0,0,0,0,0,0,0,0,-1,986,1821,0,0
-231,-797,0,0,0,0,0,0,0,0,0,-1,993,1821,0,0
-224,-797,0,0,0,0,0,0,0,0,0,-1,1000,1821,0,0
-217,-797,0,0,0,0,0,0,0,0,0,-1,1007,1821,0,0
-210,-797,0,0,0,0,0,0,0,0,0,-1,1014,1821,0,0
-203,-797,0,0,0,0,0,0,0,0,0,-1,1021,1821,0,0
-196,-797,0,0,0,0,0,0,0,0,0,-1,1028,1821,0,0
-189,-797,0,0,0,0,0,0,0,0,0,-1,1035,1821,0,0
-182,-797,0,0,0,0,0,0,0,0,0,-1,1042,1821,0,0
-175,-797,0,0,0,0,0,0,0,0,0,-1,1049,1821,0,0
-168,-797,0,0,0,0,0,0,0,0,0,-1,1056,1821,0,0
-161,-797,0,0,0,0,0,0,0,0,0,-1,1063,1821,0,0
-154,-797,0,0,0,0,0,0,0,0,0,-1,1070,1821,0,0
-147,-797,0,0,0,0,0,0,0,0,0,-1,1077,1821,0,0
-140,-797,0,0,0,0,0,0,0,0,0,-1,1084,1821,0,0
-133,-797,0,0,0,0,0,0,0,0,0,-1,1091,1821,0,0
-126,-797,0,0,0,0,0,0,0,0,0,-1,1098,1821,0,0
-119,-797,0,0,0,0,0,0,0,0,0,-1,1105,1821,0,0
-112,-797,0,0,0,0,0,0,0,0,0,-1,1112,1821,0,0
-105,-797,0,0,0,0,0,0,0,0,0,-1,1119,1821,0,0
-98,-797,0,0,0,0,0,0,0,0,0,-1,1126,1821,0,0
-91,-797,0,0,0,0,0,0,0,0,0,-1,1133,1821,0,0
-84,-797,0,0,0,0,0,0,0,0,0,-1,1140,1821,0,0
-77,-797,0,0,0,0,0,0,0,0,0,-1,1147,1821,0,0
-70,-797,0,0,0,0,0,0,0,0,0,-1,1154,1821,0,0
-63,-797,0,0,0,0,0,0,0,0,0,-1,1161,1821,0,0
-56,-797,0,0,0,0,0,0,0,0,0,-1,1168,1821,0,0
-49,-797,0,0,0,0,0,0,0,0,0,-1,1175,1821,0,0
-42,-797,0.579834,0.692871,0,0,0,0,0,0,0,-1,1182,1821,0.579856,-0.692816
-35,-797,-0.185425,5.55396,0,0,0,0,0,0,0,-1,1189,1821,-0.18542,-5.55396
-28,-797,-0.310181,4.71509,0,0,0,0,0,0,0,-1,1196,1821,-0.310228,-4.71503
-21,-797,13.3582,59.6456,0,0,0,0,0,0,0,-1,1203,1821,13.3581,-59.6456
-14,-797,12.9462,59.874,0,0,0,0,0,0,0,-1,1210,1821,12.9462,-59.874
-7,-797,12.624,64.7793,0,0,0,0,0,0,0,-1,1217,1821,12.6241,-64.7793
0,-797,11.8005,63.5903,0,0,0,0,0,0,0,-1,1224,1821,11.8006,-63.5903
7,-797,11.6996,61.6722,0,0,0,0,0,0,0,-1,1231,1821,11.6996,-61.6723
14,-797,10.9291,62.2305,0,0,0,0,0,0,0,-1,1238,1821,10.9291,-62.2304
21,-797,10.1741,62.8057,-0.114485,0.0187504,0.00697151,0.0191142,-0.114848,1.51866,0.083668,0.0470541,1245,1821,10.174,-62.8057
28,-797,9.41614,63.4283,-0.106681,0.0159824,0.00964862,0.0167367,-0.107435,1.49278,0.0778049,0.0466289,1252,1821,9.41608,-63.4284
35,-797,8.63721,64.0092,0,0,0,0,0,0,0,-1,1259,1821,8.63719,-64.0092
42,-797,7.22961,64.2572,-0.0701603,0.0238752,0.0246831,0.0299604,-0.0762456,1.32908,0.0632292,0.0484449,1266,1821,7.22966,-64.2572
49,-797,6.21851,64.2959,-0.0491749,0.0330426,0.0305636,0.0431595,-0.0592918,1.25114,0.0593942,0.0478983,1273,1821,6.21851,-64.2959
56,-797,5.23657,64.1877,0,0,0,0,0,0,0,-1,1280,1821,5.23657,-64.1877
63,-797,4.34253,64.3976,-0.0108568,0.0493313,0.0431605,0.0718535,-0.0333791,1.08984,0.0620949,0.0423855,1287,1821,4.34257,-64.3976
70,-797,3.42566,64.7316,0.00672234,0.0572918,0.0489548,0.087106,-0.0230918,1.02378,0.0671056,0.0426368,1294,1821,3.42561,-64.7316
77,-797,2.7804,64.938,0.0222494,0.0651673,0.0541482,0.101954,-0.0145369,0.974055,0.0732968,0.0433273,1301,1821,2.78034,-64.938
84,-797,7.79736,59.6808,0.0333377,0.07206,0.0584475,0.11427,-0.00887193,0.945338,0.0793026,0.0462707,1308,1821,7.79731,-59.6808
91,-797,8.12708,60.4888,0.0372695,0.0756168,0.0608747,0.120266,-0.00737971,0.937965,0.082747,0.0421429,1315,1821,8.12712,-60.4888
98,-797,8.92334,60.6201,0.0369912,0.0766687,0.0618837,0.121816,-0.00815597,0.940513,0.0840613,0.0422378,1322,1821,8.92331,-60.6201
105,-797,8.33606,61.3623,0.0291063,0.0728503,0.0601822,0.115012,-0.0130552,0.959692,0.0813761,0.045243,1329,1821,8.33607,-61.3623
112,-797,8.00183,61.9762,0.0175697,0.0662265,0.0559517,0.10291,-0.0191139,0.990474,0.0757858,0.0492122,1336,1821,8.00186,-61.9762
119,-797,8.10864,62.1927,0,0,0,0,0,0,0,-1,1343,1821,8.10869,-62.1927
126,-797,4.73535,60.9794,0,0,0,0,0,0,0,-1,1350,1821,4.73533,-60.9793
133,-797,5.3877,60.46,0,0,0,0,0,0,0,-1,1357,1821,5.38768,-60.46
140,-797,3.97681,60.5278,0,0,0,0,0,0,0,-1,1364,1821,3.97678,-60.5279
147,-797,3.67468,60.5692,0,0,0,0,0,0,0,-1,1371,1821,3.67468,-60.5692
154,-797,40.2623,8.88733,0,0,0,0,0,0,0,-1,1378,1821,40.2623,-8.88731
161,-797,42.2798,8.17371,0,0,0,0,0,0,0,-1,1385,1821,42.2798,-8.17367
168,-797,0,0,0,0,0,0,0,0,0,-1,1392,1821,0,0
175,-797,0,0,0,0,0,0,0,0,0,-1,1399,1821,0,0
182,-797,0,0,0,0,0,0,0,0,0,-1,1406,1821,0,0
189,-797,0,0,0,0,0,0,0,0,0,-1,1413,1821,0,0
196,-797,0,0,0,0,0,0,0,0,0,-1,1420,1821,0,0
203,-797,0,0,0,0,0,0,0,0,0,-1,1427,1821,0,0
210,-797,0,0,0,0,0,0,0,0,0,-1,1434,1821,0,0
217,-797,0,0,0,0,0,0,0,0,0,-1,1441,1821,0,0
224,-797,0,0,0,0,0,0,0,0,0,-1,1448,1821,0,0
231,-797,0,0,0,0,0,0,0,0,0,-1,1455,1821,0,0
238,-797,0,0,0,0,0,0,0,0,0,-1,1462,1821,0,0
245,-797,0,0,0,0,0,0,0,0,0,-1,1469,1821,0,0
252,-797,0,0,0,0,0,0,0,0,0,-1,1476,1821,0,0
259,-797,0,0,0,0,0,0,0,0,0,-1,1483,1821,0,0
266,-797,0,0,0,0,0,0,0,0,0,-1,1490,1821,0,0
273,-797,0,0,0,0,0,0,0,0,0,-1,1497,1821,0,0
280,-797,0,0,0,0,0,0,0,0,0,-1,1504,1821,0,0
287,-797,0,0,0,0,0,0,0,0,0,-1,1511,1821,0,0
294,-797,0,0,0,0,0,0,0,0,0,-1,1518,1821,0,0
301,-797,0,0,0,0,0,0,0,0,0,-1,1525,1821,0,0
308,-797,0,0,0,0,0,0,0,0,0,-1,1532,1821,0,0
315,-797,0,0,0,0,0,0,0,0,0,-1,1539,1821,0,0
322,-797,0,0,0,0,0,0,0,0,0,-1,1546,1821,0,0
329,-797,0,0,0,0,0,0,0,0,0,-1,1553,1821,0,0
336,-797,0,0,0,0,0,0,0,0,0,-1,1560,1821,0,0
343,-797,0,0,0,0,0,0,0,0,0,-1,1567,1821,0,0
350,-797,0,0,0,0,0,0,0,0,0,-1,1574,1821,0,0
357,-797,0,0,0,0,0,0,0,0,0,-1,1581,1821,0,0
364,-797,0,0,0,0,0,0,0,0,0,-1,1588,1821,0,0
371,-797,0,0,0,0,0,0,0,0,0,-1,1595,1821,0,0
378,-797,0,0,0,0,0,0,0,0,0,-1,1602,1821,0,0
385,-797,0,0,0,0,0,0,0,0,0,-1,1609,1821,0,0
392,-797,0,0,0,0,0,0,0,0,0,-1,1616,1821,0,0
399,-797,0,0,0,0,0,0,0,0,0,-1,1623,1821,0,0
406,-797,0,0,0,0,0,0,0,0,0,-1,1630,1821,0,0
413,-797,0,0,0,0,0,0,0,0,0,-1,1637,1821,0,0
420,-797,0,0,0,0,0,0,0,0,0,-1,1644,1821,0,0
427,-797,0,0,0,0,0,0,0,0,0,-1,1651,1821,0,0
434,-797,0,0,0,0,0,0,0,0,0,-1,1658,1821,0,0
441,-797,0,0,0,0,0,0,0,0,0,-1,1665,1821,0,0
448,-797,0,0,0,0,0,0,0,0,0,-1,1672,1821,0,0
455,-797,0,0,0,0,0,0,0,0,0,-1,1679,1821,0,0
462,-797,0,0,0,0,0,0,0,0,0,-1,1686,1821,0,0
469,-797,0,0,0,0,0,0,0,0,0,-1,1693,1821,0,0
476,-797,0,0,0,0,0,0,0,0,0,-1,1700,1821,0,0
483,-797,0,0,0,0,0,0,0,0,0,-1,1707,1821,0,0
490,-797,0,0,0,0,0,0,0,0,0,-1,1714,1821,0,0
497,-797,0,0,0,0,0,0,0,0,0,-1,1721,1821,0,0
504,-797,0,0,0,0,0,0,0,0,0,-1,1728,1821,0,0
511,-797,0,0,0,0,0,0,0,0,0,-1,1735,1821,0,0
518,-797,0,0,0,0,0,0,0,0,0,-1,1742,1821,0,0
525,-797,0,0,0,0,0,0,0,0,0,-1,1749,1821,0,0
532,-797,0,0,0,0,0,0,0,0,0,-1,1756,1821,0,0
539,-797,0,0,0,0,0,0,0,0,0,-1,1763,1821,0,0
546,-797,0,0,0,0,0,0,0,0,0,-1,1770,1821,0,0
553,-797,0,0,0,0,0,0,0,0,0,-1,1777,1821,0,0
560,-797,0,0,0,0,0,0,0,0,0,-1,1784,1821,0,0
567,-797,0,0,0,0,0,0,0,0,0,-1,1791,1821,0,0
574,-797,0,0,0,0,0,0,0,0,0,-1,1798,1821,0,0
581,-797,0,0,0,0,0,0,0,0,0,-1,1805,1821,0,0
588,-797,0,0,0,0,0,0,0,0,0,-1,1812,1821,0,0
595,-797,0,0,0,0,0,0,0,0,0,-1,1819,1821,0,0
602,-797,0,0,0,0,0,0,0,0,0,-1,1826,1821,0,0
609,-797,0,0,0,0,0,0,0,0,0,-1,1833,1821,0,0
616,-797,0,0,0,0,0,0,0,0,0,-1,1840,1821,0,0
623,-797,0,0,0,0,0,0,0,0,0,-1,1847,1821,0,0
630,-797,0,0,0,0,0,0,0,0,0,-1,1854,1821,0,0
637,-797,0,0,0,0,0,0,0,0,0,-1,1861,1821,0,0
644,-797,0,0,0,0,0,0,0,0,0,-1,1868,1821,0,0
651,-797,0,0,0,0,0,0,0,0,0,-1,1875,1821,0,0
658,-797,0,0,0,0,0,0,0,0,0,-1,1882,1821,0,0
665,-797,0,0,0,0,0,0,0,0,0,-1,1889,1821,0,0
672,-797,0,0,0,0,0,0,0,0,0,-1,1896,1821,0,0
679,-797,0,0,0,0,0,0,0,0,0,-1,1903,1821,0,0
686,-797,0,0,0,0,0,0,0,0,0,-1,1910,1821,0,0
693,-797,0,0,0,0,0,0,0,0,0,-1,1917,1821,0,0
700,-797,0,0,0,0,0,0,0,0,0,-1,1924,1821,0,0
707,-797,0,0,0,0,0,0,0,0,0,-1,1931,1821,0,0
714,-797,0,0,0,0,0,0,0,0,0,-1,1938,1821,0,0
721,-797,0,0,0,0,0,0,0,0,0,-1,1945,1821,0,0
728,-797,0,0,0,0,0,0,0,0,0,-1,1952,1821,0,0
735,-797,0,0,0,0,0,0,0,0,0,-1,1959,1821,0,0
742,-797,0,0,0,0,0,0,0,0,0,-1,1966,1821,0,0
749,-797,0,0,0,0,0,0,0,0,0,-1,1973,1821,0,0
756,-797,0,0,0,0,0,0,0,0,0,-1,1980,1821,0,0
763,-797,0,0,0,0,0,0,0,0,0,-1,1987,1821,0,0
770,-797,0,0,0,0,0,0,0,0,0,-1,1994,1821,0,0
777,-797,0,0,0,0,0,0,0,0,0,-1,2001,1821,0,0
784,-797,0,0,0,0,0,0,0,0,0,-1,2008,1821,0,0
791,-797,0,0,0,0,0,0,0,0,0,-1,2015,1821,0,0
798,-797,0,0,0,0,0,0,0,0,0,-1,2022,1821,0,0
805,-797,0,0,0,0,0,0,0,0,0,-1,2029,1821,0,0
812,-797,0,0,0,0,0,0,0,0,0,-1,2036,1821,0,0
-700,-804,0,0,0,0,0,0,0,0,0,-1,524,1828,0,0
-693,-804,0,0,0,0,0,0,0,0,0,-1,531,1828,0,0
-686,-804,0,0,0,0,0,0,0,0,0,-1,538,1828,0,0
-679,-804,0,0,0,0,0,0,0,0,0,-1,545,1828,0,0
-672,-804,0,0,0,0,0,0,0,0,0,-1,552,1828,0,0
-665,-804,0,0,0,0,0,0,0,0,0,-1,559,1828,0,0
-658,-804,0,0,0,0,0,0,0,0,0,-1,566,1828,0,0
-651,-804,0,0,0,0,0,0,0,0,0,-1,573,1828,0,0
-644,-804,0,0,0,0,0,0,0,0,0,-1,580,1828,0,0
-637,-804,0,0,0,0,0,0,0,0,0,-1,587,1828,0,0
-630,-804,0,0,0,0,0,0,0,0,0,-1,594,1828,0,0
-623,-804,0,0,0,0,0,0,0,0,0,-1,601,1828,0,0
-616,-804,0,0,0,0,0,0,0,0,0,-1,608,1828,0,0
-609,-804,0,0,0,0,0,0,0,0,0,-1,615,1828,0,0
-602,-804,0,0,0,0,0,0,0,0,0,-1,622,1828,0,0
-595,-804,0,0,0,0,0,0,0,0,0,-1,629,1828,0,0
-588,-804,0,0,0,0,0,0,0,0,0,-1,636,1828,0,0
-581,-804,0,0,0,0,0,0,0,0,0,-1,643,1828,0,0
-574,-804,0,0,0,0,0,0,0,0,0,-1,650,1828,0,0
-567,-804,0,0,0,0,0,0,0,0,0,-1,657,1828,0,0
-560,-804,0,0,0,0,0,0,0,0,0,-1,664,1828,0,0
-553,-804,0,0,0,0,0,0,0,0,0,-1,671,1828,0,0
-546,-804,0,0,0,0,0,0,0,0,0,-1,678,1828,0,0
-539,-804,0,0,0,0,0,0,0,0,0,-1,685,1828,0,0
-532,-804,0,0,0,0,0,0,0,0,0,-1,692,1828,0,0
-525,-804,0,0,0,0,0,0,0,0,0,-1,699,1828,0,0
-518,-804,0,0,0,0,0,0,0,0,0,-1,706,1828,0,0
-511,-804,0,0,0,0,0,0,0,0,0,-1,713,1828,0,0
-504,-804,0,0,0,0,0,0,0,0,0,-1,720,1828,0,0
-497,-804,0,0,0,0,0,0,0,0,0,-1,727,1828,0,0
-490,-804,0,0,0,0,0,0,0,0,0,-1,734,1828,0,0
-483,-804,0,0,0,0,0,0,0,0,0,-1,741,1828,0,0
-476,-804,0,0,0,0,0,0,0,0,0,-1,748,1828,0,0
-469,-804,0,0,0,0,0,0,0,0,0,-1,755,1828,0,0
-462,-804,0,0,0,0,0,0,0,0,0,-1,762,1828,0,0
-455,-804,0,0,0,0,0,0,0,0,0,-1,769,1828,0,0
-448,-804,0,0,0,0,0,0,0,0,0,-1,776,1828,0,0
-441,-804,0,0,0,0,0,0,0,0,0,-1,783,1828,0,0
-434,-804,0,0,0,0,0,0,0,0,0,-1,790,1828,0,0
-427,-804,0,0,0,0,0,0,0,0,0,-1,797,1828,0,0
-420,-804,0,0,0,0,0,0,0,0,0,-1,804,1828,0,0
-413,-804,0,0,0,0,0,0,0,0,0,-1,811,1828,0,0
-406,-804,0,0,0,0,0,0,0,0,0,-1,818,1828,0,0
-399,-804,0,0,0,0,0,0,0,0,0,-1,825,1828,0,0
-392,-804,0,0,0,0,0,0,0,0,0,-1,832,1828,0,0
-385,-804,0,0,0,0,0,0,0,0,0,-1,839,1828,0,0
-378,-804,0,0,0,0,0,0,0,0,0,-1,846,1828,0,0
-371,-804,0,0,0,0,0,0,0,0,0,-1,853,1828,0,0
-364,-804,0,0,0,0,0,0,0,0,0,-1,860,1828,0,0
-357,-804,0,0,0,0,0,0,0,0,0,-1,867,1828,0,0
-350,-804,0,0,0,0,0,0,0,0,0,-1,874,1828,0,0
-343,-804,0,0,0,0,0,0,0,0,0,-1,881,1828,0,0
-336,-804,0,0,0,0,0,0,0,0,0,-1,888,1828,0,0
-329,-804,0,0,0,0,0,0,0,0,0,-1,895,1828,0,0
-322,-804,0,0,0,0,0,0,0,0,0,-1,902,1828,0,0
-315,-804,0,0,0,0,0,0,0,0,0,-1,909,1828,0,0
-308,-804,0,0,0,0,0,0,0,0,0,-1,916,1828,0,0
-301,-804,0,0,0,0,0,0,0,0,0,-1,923,1828,0,0
-294,-804,0,0,0,0,0,0,0,0,0,-1,930,1828,0,0
-287,-804,0,0,0,0,0,0,0,0,0,-1,937,1828,0,0
-280,-804,0,0,0,0,0,0,0,0,0,-1,944,1828,0,0
-273,-804,0,0,0,0,0,0,0,0,0,-1,951,1828,0,0
-266,-804,0,0,0,0,0,0,0,0,0,-1,958,1828,0,0
-259,-804,0,0,0,0,0,0,0,0,0,-1,965,1828,0,0
-252,-804,0,0,0,0,0,0,0,0,0,-1,972,1828,0,0
-245,-804,0,0,0,0,0,0,0,0,0,-1,979,1828,0,0
-238,-804,0,0,0,0,0,0,0,0,0,-1,986,1828,0,0
-231,-804,0,0,0,0,0,0,0,0,0,-1,993,1828,0,0
-224,-804,0,0,0,0,0,0,0,0,0,-1,1000,1828,0,0
-217,-804,0,0,0,0,0,0,0,0,0,-1,1007,1828,0,0
-210,-804,0,0,0,0,0,0,0,0,0,-1,1014,1828,0,0
-203,-804,0,0,0,0,0,0,0,0,0,-1,1021,1828,0,0
-196,-804,0,0,0,0,0,0,0,0,0,-1,1028,1828,0,0
-189,-804,0,0,0,0,0,0,0,0,0,-1,1035,1828,0,0
-182,-804,0,0,0,0,0,0,0,0,0,-1,1042,1828,0,0
-175,-804,0,0,0,0,0,0,0,0,0,-1,1049,1828,0,0
-168,-804,0,0,0,0,0,0,0,0,0,-1,1056,1828,0,0
-161,-804,0,0,0,0,0,0,0,0,0,-1,1063,1828,0,0
-154,-804,0,0,0,0,0,0,0,0,0,-1,1070,1828,0,0
-147,-804,0,0,0,0,0,0,0,0,0,-1,1077,1828,0,0
-140,-804,0,0,0,0,0,0,0,0,0,-1,1084,1828,0,0
-133,-804,0,0,0,0,0,0,0,0,0,-1,1091,1828,0,0
-126,-804,0,0,0,0,0,0,0,0,0,-1,1098,1828,0,0
-119,-804,0,0,0,0,0,0,0,0,0,-1,1105,1828,0,0
-112,-804,0,0,0,0,0,0,0,0,0,-1,1112,1828,0,0
-105,-804,0,0,0,0,0,0,0,0,0,-1,1119,1828,0,0
-98,-804,0,0,0,0,0,0,0,0,0,-1,1126,1828,0,0
-91,-804,0,0,0,0,0,0,0,0,0,-1,1133,1828,0,0
-84,-804,0,0,0,0,0,0,0,0,0,-1,1140,1828,0,0
-77,-804,0,0,0,0,0,0,0,0,0,-1,1147,1828,0,0
-70,-804,0,0,0,0,0,0,0,0,0,-1,1154,1828,0,0
-63,-804,0,0,0,0,0,0,0,0,0,-1,1161,1828,0,0
-56,-804,0,0,0,0,0,0,0,0,0,-1,1168,1828,0,0
-49,-804,0,0,0,0,0,0,0,0,0,-1,1175,1828,0,0
-42,-804,0,0,0,0,0,0,0,0,0,-1,1182,1828,0,0
-35,-804,0,0,0,0,0,0,0,0,0,-1,1189,1828,0,0
-28,-804,0,0,0,0,0,0,0,0,0,-1,1196,1828,0,0
-21,-804,0,0,0,0,0,0,0,0,0,-1,1203,1828,0,0
-14,-804,0,0,0,0,0,0,0,0,0,-1,1210,1828,0,0
-7,-804,0,0,0,0,0,0,0,0,0,-1,1217,1828,0,0
0,-804,0,0,0,0,0,0,0,0,0,-1,1224,1828,0,0
7,-804,0,0,0,0,0,0,0,0,0,-1,1231,1828,0,0
14,-804,0,0,0,0,0,0,0,0,0,-1,1238,1828,0,0
21,-804,0,0,0,0,0,0,0,0,0,-1,1245,1828,0,0
28,-804,0,0,0,0,0,0,0,0,0,-1,1252,1828,0,0
35,-804,8.21973,63.9417,0,0,0,0,0,0,0,-1,1259,1828,8.21973,-63.9417
42,-804,7.25537,64.2333,-0.0868486,0.0194209,0.0279569,0.0263269,-0.0937546,1.32862,0.0728813,0.0482061,1266,1828,7.25542,-64.2333
49,-804,6.37195,64.2034,-0.0604649,0.0298581,0.0359232,0.0424031,-0.0730098,1.23482,0.0674102,0.0455158,1273,1828,6.37193,-64.2034
56,-804,5.61951,64.1848,0,0,0,0,0,0,0,-1,1280,1828,5.61945,-64.1848
63,-804,4.7323,64.6321,-0.0106201,0.0499629,0.0533572,0.0810275,-0.0416846,1.04357,0.0720514,0.0461042,1287,1828,4.73234,-64.632
70,-804,3.69861,64.9133,0.0123296,0.0599752,0.0617505,0.102339,-0.0300341,0.969497,0.0801359,0.046146,1294,1828,3.69862,-64.9134
77,-804,2.52539,64.9915,0.0319049,0.0694113,0.0693412,0.12249,-0.0211743,0.917463,0.0895567,0.04376,1301,1828,2.52543,-64.9915
84,-804,1.47449,65.1096,0.0455484,0.0773391,0.0758058,0.138898,-0.0160106,0.888744,0.0983709,0.0437606,1308,1828,1.47449,-65.1096
91,-804,0,0,0,0,0,0,0,0,0,-1,1315,1828,0,0
98,-804,0,0,0,0,0,0,0,0,0,-1,1322,1828,0,0
105,-804,0,0,0,0,0,0,0,0,0,-1,1329,1828,0,0
112,-804,0,0,0,0,0,0,0,0,0,-1,1336,1828,0,0
119,-804,0,0,0,0,0,0,0,0,0,-1,1343,1828,0,0
126,-804,0,0,0,0,0,0,0,0,0,-1,1350,1828,0,0
133,-804,0,0,0,0,0,0,0,0,0,-1,1357,1828,0,0
140,-804,0,0,0,0,0,0,0,0,0,-1,1364,1828,0,0
147,-804,0,0,0,0,0,0,0,0,0,-1,1371,1828,0,0
154,-804,0,0,0,0,0,0,0,0,0,-1,1378,1828,0,0
161,-804,0,0,0,0,0,0,0,0,0,-1,1385,1828,0,0
168,-804,0,0,0,0,0,0,0,0,0,-1,1392,1828,0,0
175,-804,0,0,0,0,0,0,0,0,0,-1,1399,1828,0,0
182,-804,0,0,0,0,0,0,0,0,0,-1,1406,1828,0,0
189,-804,0,0,0,0,0,0,0,0,0,-1,1413,1828,0,0
196,-804,0,0,0,0,0,0,0,0,0,-1,1420,1828,0,0
203,-804,0,0,0,0,0,0,0,0,0,-1,1427,1828,0,0
210,-804,0,0,0,0,0,0,0,0,0,-1,1434,1828,0,0
217,-804,0,0,0,0,0,0,0,0,0,-1,1441,1828,0,0
224,-804,0,0,0,0,0,0,0,0,0,-1,1448,1828,0,0
231,-804,0,0,0,0,0,0,0,0,0,-1,1455,1828,0,0
238,-804,0,0,0,0,0,0,0,0,0,-1,1462,1828,0,0
245,-804,0,0,0,0,0,0,0,0,0,-1,1469,1828,0,0
252,-804,0,0,0,0,0,0,0,0,0,-1,1476,1828,0,0
259,-804,0,0,0,0,0,0,0,0,0,-1,1483,1828,0,0
266,-804,0,0,0,0,0,0,0,0,0,-1,1490,1828,0,0
273,-804,0,0,0,0,0,0,0,0,0,-1,1497,1828,0,0
280,-804,0,0,0,0,0,0,0,0,0,-1,1504,1828,0,0
287,-804,0,0,0,0,0,0,0,0,0,-1,1511,1828,0,0
294,-804,0,0,0,0,0,0,0,0,0,-1,1518,1828,0,0
301,-804,0,0,0,0,0,0,0,0,0,-1,1525,1828,0,0
308,-804,0,0,0,0,0,0,0,0,0,-1,1532,1828,0,0
315,-804,0,0,0,0,0,0,0,0,0,-1,1539,1828,0,0
322,-804,0,0,0,0,0,0,0,0,0,-1,1546,1828,0,0
329,-804,0,0,0,0,0,0,0,0,0,-1,1553,1828,0,0
336,-804,0,0,0,0,0,0,0,0,0,-1,1560,1828,0,0
343,-804,0,0,0,0,0,0,0,0,0,-1,1567,1828,0,0
350,-804,0,0,0,0,0,0,0,0,0,-1,1574,1828,0,0
357,-804,0,0,0,0,0,0,0,0,0,-1,1581,1828,0,0
364,-804,0,0,0,0,0,0,0,0,0,-1,1588,1828,0,0
371,-804,0,0,0,0,0,0,0,0,0,-1,1595,1828,0,0
378,-804,0,0,0,0,0,0,0,0,0,-1,1602,1828,0,0
385,-804,0,0,0,0,0,0,0,0,0,-1,1609,1828,0,0
392,-804,0,0,0,0,0,0,0,0,0,-1,1616,1828,0,0
399,-804,0,0,0,0,0,0,0,0,0,-1,1623,1828,0,0
406,-804,0,0,0,0,0,0,0,0,0,-1,1630,1828,0,0
413,-804,0,0,0,0,0,0,0,0,0,-1,1637,1828,0,0
420,-804,0,0,0,0,0,0,0,0,0,-1,1644,1828,0,0
427,-804,0,0,0,0,0,0,0,0,0,-1,1651,1828,0,0
434,-804,0,0,0,0,0,0,0,0,0,-1,1658,1828,0,0
441,-804,0,0,0,0,0,0,0,0,0,-1,1665,1828,0,0
448,-804,0,0,0,0,0,0,0,0,0,-1,1672,1828,0,0
455,-804,0,0,0,0,0,0,0,0,0,-1,1679,1828,0,0
462,-804,0,0,0,0,0,0,0,0,0,-1,1686,1828,0,0
469,-804,0,0,0,0,0,0,0,0,0,-1,1693,1828,0,0
476,-804,0,0,0,0,0,0,0,0,0,-1,1700,1828,0,0
483,-804,0,0,0,0,0,0,0,0,0,-1,1707,1828,0,0
490,-804,0,0,0,0,0,0,0,0,0,-1,1714,1828,0,0
497,-804,0,0,0,0,0,0,0,0,0,-1,1721,1828,0,0
504,-804,0,0,0,0,0,0,0,0,0,-1,1728,1828,0,0
511,-804,0,0,0,0,0,0,0,0,0,-1,1735,1828,0,0
518,-804,0,0,0,0,0,0,0,0,0,-1,1742,1828,0,0
525,-804,0,0,0,0,0,0,0,0,0,-1,1749,1828,0,0
532,-804,0,0,0,0,0,0,0,0,0,-1,1756,1828,0,0
539,-804,0,0,0,0,0,0,0,0,0,-1,1763,1828,0,0
546,-804,0,0,0,0,0,0,0,0,0,-1,1770,1828,0,0
553,-804,0,0,0,0,0,0,0,0,0,-1,1777,1828,0,0
560,-804,0,0,0,0,0,0,0,0,0,-1,1784,1828,0,0
567,-804,0,0,0,0,0,0,0,0,0,-1,1791,1828,0,0
574,-804,0,0,0,0,0,0,0,0,0,-1,1798,1828,0,0
581,-804,0,0,0,0,0,0,0,0,0,-1,1805,1828,0,0
588,-804,0,0,0,0,0,0,0,0,0,-1,1812,1828,0,0
595,-804,0,0,0,0,0,0,0,0,0,-1,1819,1828,0,0
602,-804,0,0,0,0,0,0,0,0,0,-1,1826,1828,0,0
609,-804,0,0,0,0,0,0,0,0,0,-1,1833,1828,0,0
616,-804,0,0,0,0,0,0,0,0,0,-1,1840,1828,0,0
623,-804,0,0,0,0,0,0,0,0,0,-1,1847,1828,0,0
630,-804,0,0,0,0,0,0,0,0,0,-1,1854,1828,0,0
637,-804,0,0,0,0,0,0,0,0,0,-1,1861,1828,0,0
644,-804,0,0,0,0,0,0,0,0,0,-1,1868,1828,0,0
651,-804,0,0,0,0,0,0,0,0,0,-1,1875,1828,0,0
658,-804,0,0,0,0,0,0,0,0,0,-1,1882,1828,0,0
665,-804,0,0,0,0,0,0,0,0,0,-1,1889,1828,0,0
672,-804,0,0,0,0,0,0,0,0,0,-1,1896,1828,0,0
679,-804,0,0,0,0,0,0,0,0,0,-1,1903,1828,0,0
686,-804,0,0,0,0,0,0,0,0,0,-1,1910,1828,0,0
693,-804,0,0,0,0,0,0,0,0,0,-1,1917,1828,0,0
700,-804,0,0,0,0,0,0,0,0,0,-1,1924,1828,0,0
707,-804,0,0,0,0,0,0,0,0,0,-1,1931,1828,0,0
714,-804,0,0,0,0,0,0,0,0,0,-1,1938,1828,0,0
721,-804,0,0,0,0,0,0,0,0,0,-1,1945,1828,0,0
728,-804,0,0,0,0,0,0,0,0,0,-1,1952,1828,0,0
735,-804,0,0,0,0,0,0,0,0,0,-1,1959,1828,0,0
742,-804,0,0,0,0,0,0,0,0,0,-1,1966,1828,0,0
749,-804,0,0,0,0,0,0,0,0,0,-1,1973,1828,0,0
756,-804,0,0,0,0,0,0,0,0,0,-1,1980,1828,0,0
763,-804,0,0,0,0,0,0,0,0,0,-1,1987,1828,0,0
770,-804,0,0,0,0,0,0,0,0,0,-1,1994,1828,0,0
777,-804,0,0,0,0,0,0,0,0,0,-1,2001,1828,0,0
784,-804,0,0,0,0,0,0,0,0,0,-1,2008,1828,0,0
791,-804,0,0,0,0,0,0,0,0,0,-1,2015,1828,0,0
798,-804,0,0,0,0,0,0,0,0,0,-1,2022,1828,0,0
805,-804,0,0,0,0,0,0,0,0,0,-1,2029,1828,0,0
812,-804,0,0,0,0,0,0,0,0,0,-1,2036,1828,0,0

